Node Numbers,X Locations (inches),Y Locations (inches),Z Locations (inches),Equivalent Elastic Strains (in/in),Equivalent Stress (psi),Max Principal Elastic Strain (in/in),Max Principal Stress (psi),Middle Principal Elastic Strain (in/in),Middle Principal Stress (psi),Min Principal Elastic Strain (in/in),Min Principal Stress (psi),Total Deformation (in)
1,16,2.1818,0,0.00067952,6790.5,0.00029402,902.05,0.00018574,88.501,-0.000659,-6258.5,1.1836
2,16,2.3636,0,0.00053588,5355.1,0.00023344,681.18,0.00014061,-16.253,-0.00052115,-4988.5,1.1841
3,16,2.5455,0,0.00047313,4728.1,0.00020308,572.32,0.00012695,0.29964,-0.00046079,-4415.7,1.1845
4,16,2.7273,0,0.0004406,4403,0.00018779,515.31,0.00011897,-1.8388,-0.00042958,-4123.4,1.1848
5,16,2.9091,0,0.00042674,4264.4,0.00018111,489.96,0.00011577,-0.98573,-0.00041629,-3998.7,1.1849
6,16,3.0909,0,0.00042674,4264.4,0.00018111,489.96,0.00011577,-0.98573,-0.00041629,-3998.7,1.1849
7,16,3.2727,0,0.0004406,4403,0.00018779,515.31,0.00011897,-1.8388,-0.00042958,-4123.4,1.1848
8,16,3.4545,0,0.00047313,4728.1,0.00020308,572.32,0.00012695,0.29964,-0.00046079,-4415.7,1.1845
9,16,3.6364,0,0.00053588,5355.1,0.00023344,681.18,0.00014061,-16.254,-0.00052115,-4988.5,1.1841
10,16,3.8182,0,0.00067952,6790.5,0.00029402,902.05,0.00018574,88.501,-0.000659,-6258.5,1.1836
11,16.167,2.1818,0,0.00066633,6658.7,0.0002721,642.75,0.00018859,15.283,-0.00065291,-6307.4,1.2053
12,16.167,2.3636,0,0.00053147,5311,0.00022552,599.88,0.00014326,-18.167,-0.00051886,-4993.1,1.2058
13,16.167,2.5455,0,0.00046778,4674.6,0.00019693,518.33,0.00012804,0.68111,-0.0004568,-4393.6,1.2062
14,16.167,2.7273,0,0.00043511,4348.1,0.00018259,473.39,0.00011933,-1.9021,-0.00042514,-4092.9,1.2064
15,16.167,2.9091,0,0.00042113,4208.4,0.0001762,452.26,0.00011589,-0.90828,-0.00041162,-3964.4,1.2066
16,16.167,3.0909,0,0.00042113,4208.4,0.0001762,452.26,0.00011589,-0.90828,-0.00041162,-3964.4,1.2066
17,16.167,3.2727,0,0.00043511,4348.1,0.00018259,473.39,0.00011933,-1.9021,-0.00042514,-4092.9,1.2064
18,16.167,3.4545,0,0.00046778,4674.6,0.00019693,518.33,0.00012804,0.68111,-0.0004568,-4393.6,1.2062
19,16.167,3.6364,0,0.00053147,5311,0.00022552,599.88,0.00014326,-18.167,-0.00051886,-4993.1,1.2058
20,16.167,3.8182,0,0.00066633,6658.7,0.0002721,642.75,0.00018859,15.283,-0.00065291,-6307.4,1.2053
21,15.816,5.8182,0,3.8727e-05,387.01,1.8313e-05,63.189,8.7782e-06,-8.455,-3.7295e-05,-354.63,1.1502
22,15.816,5.6364,0,5.7058e-05,570.19,3.0833e-05,147.41,1.0703e-05,-3.8364,-5.309e-05,-483.15,1.1512
23,15.816,5.4545,0,8.044e-05,803.84,4.8322e-05,273.24,1.1558e-05,-2.9794,-7.2197e-05,-632.29,1.1521
24,15.816,5.2727,0,0.00010695,1068.7,6.8617e-05,423.18,1.1939e-05,-2.6753,-9.3223e-05,-792.82,1.1531
25,15.816,5.0909,0,0.00013714,1370.4,9.1906e-05,597.17,1.2078e-05,-2.6332,-0.00011679,-970.89,1.1541
26,15.816,4.9091,0,0.00017244,1723.2,0.00011912,800.57,1.2108e-05,-3.4538,-0.00014417,-1177.7,1.155
27,15.816,4.7273,0,0.00021542,2152.7,0.00015191,1045,1.2515e-05,-2.2881,-0.00017763,-1431,1.156
28,15.816,4.5455,0,0.00027084,2706.6,0.00019334,1343.5,1.3127e-05,-10.527,-0.00022143,-1772.9,1.1569
29,15.816,4.3636,0,0.00034899,3487.5,0.0002498,1753,1.7814e-05,9.9459,-0.00028461,-2262.3,1.1578
30,15.816,4.1818,0,0.0004643,4639.8,0.00031642,2069.2,3.3228e-05,-58.557,-0.00039191,-3252.9,1.1587
31,15.816,4,0,0.00054459,5442.1,0.0003152,1560.1,7.3119e-05,-258.8,-0.00049914,-4558.5,1.1594
32,15.816,3.8182,0,0.00050825,5079,0.00023191,793.71,0.00012799,12.914,-0.00049001,-4630.5,1.16
33,15.816,3.6364,0,0.00047497,4746.5,0.0002075,614.95,0.00012461,-7.8096,-0.00046157,-4412.1,1.1605
34,15.816,3.4545,0,0.00044167,4413.6,0.00018854,522.62,0.00011931,2.4789,-0.00043043,-4128,1.1609
35,15.816,3.2727,0,0.00042237,4220.8,0.00017916,483.43,0.00011461,-1.5905,-0.00041208,-3959,1.1611
36,15.816,3.0909,0,0.0004132,4129.2,0.00017457,464.87,0.00011265,-0.36963,-0.00040333,-3877.2,1.1612
37,15.816,2.9091,0,0.0004132,4129.2,0.00017457,464.87,0.00011265,-0.36963,-0.00040333,-3877.2,1.1612
38,15.816,2.7273,0,0.00042237,4220.8,0.00017916,483.43,0.00011461,-1.5905,-0.00041208,-3959,1.1611
39,15.816,2.5455,0,0.00044167,4413.6,0.00018854,522.62,0.00011931,2.4789,-0.00043043,-4128,1.1609
40,15.816,2.3636,0,0.00047497,4746.5,0.0002075,614.95,0.00012461,-7.8096,-0.00046157,-4412.1,1.1605
41,15.816,2.1818,0,0.00050825,5079,0.00023191,793.71,0.00012799,12.914,-0.00049001,-4630.5,1.16
42,15.816,2,0,0.00054459,5442.1,0.0003152,1560.1,7.3119e-05,-258.8,-0.00049914,-4558.5,1.1594
43,15.816,1.8182,0,0.0004643,4639.8,0.00031642,2069.2,3.3228e-05,-58.557,-0.00039191,-3252.9,1.1587
44,15.816,1.6364,0,0.00034899,3487.5,0.0002498,1753,1.7814e-05,9.9459,-0.00028461,-2262.3,1.1578
45,15.816,1.4545,0,0.00027084,2706.6,0.00019334,1343.5,1.3127e-05,-10.527,-0.00022143,-1772.9,1.1569
46,15.816,1.2727,0,0.00021542,2152.7,0.00015191,1045,1.2515e-05,-2.2881,-0.00017763,-1431,1.156
47,15.816,1.0909,0,0.00017244,1723.2,0.00011912,800.57,1.2108e-05,-3.4538,-0.00014417,-1177.7,1.155
48,15.816,0.90909,0,0.00013714,1370.4,9.1906e-05,597.17,1.2078e-05,-2.6332,-0.00011679,-970.89,1.1541
49,15.816,0.72727,0,0.00010695,1068.7,6.8617e-05,423.18,1.1939e-05,-2.6753,-9.3223e-05,-792.82,1.1531
50,15.816,0.54545,0,8.044e-05,803.84,4.8322e-05,273.24,1.1558e-05,-2.9794,-7.2197e-05,-632.29,1.1521
51,15.816,0.36364,0,5.7058e-05,570.19,3.0833e-05,147.41,1.0703e-05,-3.8364,-5.309e-05,-483.15,1.1512
52,15.816,0.18182,0,3.8727e-05,387.01,1.8313e-05,63.189,8.7782e-06,-8.455,-3.7295e-05,-354.63,1.1502
53,15.632,5.8182,0,6.0127e-05,600.86,2.3744e-05,46.668,1.74e-05,-1.0018,-5.9208e-05,-576.6,1.1279
54,15.632,5.6364,0,7.0449e-05,704.01,3.112e-05,96.064,1.8312e-05,-0.17463,-6.8323e-05,-651.11,1.1288
55,15.632,5.4545,0,8.731e-05,872.5,4.3843e-05,185.92,1.9127e-05,0.21339,-8.2648e-05,-764.48,1.1297
56,15.632,5.2727,0,0.00010873,1086.6,6.0022e-05,301.75,1.9927e-05,0.49422,-0.00010041,-903.69,1.1307
57,15.632,5.0909,0,0.00013426,1341.7,7.9041e-05,437.59,2.0882e-05,0.60924,-0.00012135,-1068.1,1.1316
58,15.632,4.9091,0,0.00016431,1642,0.0001009,591.33,2.2299e-05,0.78493,-0.00014606,-1264.2,1.1325
59,15.632,4.7273,0,0.0002001,1999.6,0.00012598,762.09,2.4646e-05,0.68938,-0.00017593,-1506.3,1.1333
60,15.632,4.5455,0,0.00024243,2422.7,0.00015357,935.8,2.9092e-05,0.55343,-0.00021255,-1815.1,1.1342
61,15.632,4.3636,0,0.00029294,2927.4,0.0001821,1085.1,3.8081e-05,2.9651,-0.00025901,-2229.3,1.1349
62,15.632,4.1818,0,0.00034309,3428.5,0.00020022,1098.4,5.5113e-05,8.1168,-0.000311,-2742.7,1.1357
63,15.632,4,0,0.00037278,3725.3,0.00018923,837.27,8.2011e-05,31.632,-0.00035141,-3224.9,1.1363
64,15.632,3.8182,0,0.00039225,3919.8,0.00017626,582.19,0.00010096,16.371,-0.00037899,-3589.7,1.1368
65,15.632,3.6364,0,0.00039719,3969.2,0.00016908,461.45,0.00010734,-2.4394,-0.00038734,-3719.3,1.1372
66,15.632,3.4545,0,0.00039445,3941.7,0.0001648,421.53,0.00010878,0.62709,-0.00038557,-3713.8,1.1375
67,15.632,3.2727,0,0.00038933,3890.6,0.00016151,401.4,0.00010807,-0.081003,-0.00038094,-3674.4,1.1378
68,15.632,3.0909,0,0.00038617,3859,0.00015981,393.3,0.00010745,-0.12233,-0.00037797,-3647.3,1.1379
69,15.632,2.9091,0,0.00038617,3859,0.00015981,393.3,0.00010745,-0.12233,-0.00037797,-3647.3,1.1379
70,15.632,2.7273,0,0.00038933,3890.6,0.00016151,401.4,0.00010807,-0.081003,-0.00038094,-3674.4,1.1378
71,15.632,2.5455,0,0.00039445,3941.7,0.0001648,421.53,0.00010878,0.62709,-0.00038557,-3713.8,1.1375
72,15.632,2.3636,0,0.00039719,3969.2,0.00016908,461.45,0.00010734,-2.4394,-0.00038734,-3719.3,1.1372
73,15.632,2.1818,0,0.00039225,3919.8,0.00017626,582.19,0.00010096,16.371,-0.00037899,-3589.7,1.1368
74,15.632,2,0,0.00037278,3725.3,0.00018923,837.27,8.2011e-05,31.632,-0.00035141,-3224.9,1.1363
75,15.632,1.8182,0,0.00034309,3428.5,0.00020022,1098.4,5.5113e-05,8.1168,-0.000311,-2742.7,1.1357
76,15.632,1.6364,0,0.00029294,2927.4,0.0001821,1085.1,3.8081e-05,2.9651,-0.00025901,-2229.3,1.1349
77,15.632,1.4545,0,0.00024243,2422.7,0.00015357,935.8,2.9092e-05,0.55344,-0.00021255,-1815.1,1.1342
78,15.632,1.2727,0,0.0002001,1999.6,0.00012598,762.09,2.4646e-05,0.68938,-0.00017593,-1506.3,1.1333
79,15.632,1.0909,0,0.00016431,1642,0.0001009,591.33,2.2299e-05,0.78493,-0.00014606,-1264.2,1.1325
80,15.632,0.90909,0,0.00013426,1341.7,7.9041e-05,437.59,2.0882e-05,0.60924,-0.00012135,-1068.1,1.1316
81,15.632,0.72727,0,0.00010873,1086.6,6.0022e-05,301.75,1.9927e-05,0.49422,-0.00010041,-903.69,1.1307
82,15.632,0.54545,0,8.731e-05,872.5,4.3843e-05,185.92,1.9127e-05,0.21339,-8.2648e-05,-764.48,1.1297
83,15.632,0.36364,0,7.0449e-05,704.01,3.112e-05,96.064,1.8312e-05,-0.17463,-6.8323e-05,-651.11,1.1288
84,15.632,0.18182,0,6.0127e-05,600.86,2.3744e-05,46.668,1.74e-05,-1.0018,-5.9208e-05,-576.6,1.1279
85,15.448,5.8182,0,8.3346e-05,832.88,3.137e-05,46.597,2.5154e-05,-0.10777,-8.2456e-05,-808.65,1.1056
86,15.448,5.6364,0,9.1428e-05,913.65,3.7601e-05,90.086,2.5575e-05,-0.27308,-8.9564e-05,-865.39,1.1065
87,15.448,5.4545,0,0.00010457,1045,4.7519e-05,159.19,2.63e-05,-0.23928,-0.00010095,-956.33,1.1074
88,15.448,5.2727,0,0.00012212,1220.4,6.0462e-05,248.72,2.7323e-05,-0.27909,-0.00011597,-1077,1.1083
89,15.448,5.0909,0,0.00014368,1435.8,7.5863e-05,353.31,2.8795e-05,-0.33944,-0.00013437,-1226.3,1.1091
90,15.448,4.9091,0,0.00016911,1689.9,9.3247e-05,467.24,3.0988e-05,-0.54759,-0.00015624,-1407.3,1.11
91,15.448,4.7273,0,0.00019829,1981.6,0.00011191,581.53,3.4421e-05,-0.67223,-0.00018189,-1625.9,1.1108
92,15.448,4.5455,0,0.00023084,2306.8,0.00013054,680.52,3.9881e-05,-0.65826,-0.0002116,-1890.2,1.1115
93,15.448,4.3636,0,0.00026389,2637,0.0001456,728.46,4.8088e-05,-4.2166,-0.00024381,-2197.4,1.1122
94,15.448,4.1818,0,0.0002934,2932,0.0001522,685.6,6.067e-05,-2.0926,-0.00027566,-2529.1,1.1128
95,15.448,4,0,0.00031614,3159.2,0.00015028,561.81,7.4746e-05,-5.7448,-0.00030283,-2842.7,1.1134
96,15.448,3.8182,0,0.00033254,3323.1,0.00014508,428.91,8.7449e-05,-4.1121,-0.00032319,-3089.5,1.1138
97,15.448,3.6364,0,0.00034495,3447.1,0.00014276,352.94,9.6117e-05,2.5018,-0.00033756,-3256,1.1142
98,15.448,3.4545,0,0.0003516,3513.6,0.00014267,323.43,9.9668e-05,0.33962,-0.00034498,-3340.6,1.1145
99,15.448,3.2727,0,0.0003543,3540.6,0.0001427,312.79,0.00010111,0.33858,-0.00034794,-3373.6,1.1146
100,15.448,3.0909,0,0.00035507,3548.3,0.00014269,309.48,0.00010153,0.2077,-0.00034879,-3383.3,1.1147
101,15.448,2.9091,0,0.00035507,3548.3,0.00014269,309.48,0.00010153,0.2077,-0.00034879,-3383.3,1.1147
102,15.448,2.7273,0,0.0003543,3540.6,0.0001427,312.79,0.00010111,0.33858,-0.00034794,-3373.6,1.1146
103,15.448,2.5455,0,0.0003516,3513.6,0.00014267,323.43,9.9668e-05,0.33962,-0.00034498,-3340.6,1.1145
104,15.448,2.3636,0,0.00034495,3447.1,0.00014276,352.94,9.6117e-05,2.5018,-0.00033756,-3256,1.1142
105,15.448,2.1818,0,0.00033254,3323.1,0.00014508,428.91,8.7449e-05,-4.1121,-0.00032319,-3089.5,1.1138
106,15.448,2,0,0.00031614,3159.2,0.00015028,561.81,7.4746e-05,-5.7448,-0.00030283,-2842.7,1.1134
107,15.448,1.8182,0,0.0002934,2932,0.0001522,685.6,6.067e-05,-2.0926,-0.00027566,-2529.1,1.1128
108,15.448,1.6364,0,0.00026389,2637,0.0001456,728.46,4.8088e-05,-4.2166,-0.00024381,-2197.4,1.1122
109,15.448,1.4545,0,0.00023084,2306.8,0.00013054,680.52,3.9881e-05,-0.65826,-0.0002116,-1890.2,1.1115
110,15.448,1.2727,0,0.00019829,1981.6,0.00011191,581.53,3.4421e-05,-0.67223,-0.00018189,-1625.9,1.1108
111,15.448,1.0909,0,0.00016911,1689.9,9.3247e-05,467.24,3.0988e-05,-0.54759,-0.00015624,-1407.3,1.11
112,15.448,0.90909,0,0.00014368,1435.8,7.5863e-05,353.31,2.8795e-05,-0.33944,-0.00013437,-1226.3,1.1091
113,15.448,0.72727,0,0.00012212,1220.4,6.0462e-05,248.72,2.7323e-05,-0.27909,-0.00011597,-1077,1.1083
114,15.448,0.54545,0,0.00010457,1045,4.7519e-05,159.19,2.63e-05,-0.23928,-0.00010095,-956.33,1.1074
115,15.448,0.36364,0,9.1428e-05,913.65,3.7601e-05,90.086,2.5575e-05,-0.27308,-8.9564e-05,-865.39,1.1065
116,15.448,0.18182,0,8.3346e-05,832.88,3.137e-05,46.597,2.5154e-05,-0.10777,-8.2456e-05,-808.65,1.1056
117,15.264,5.8182,0,0.00010529,1052.1,3.8632e-05,47.093,3.2424e-05,0.44823,-0.0001044,-1027.6,1.0833
118,15.264,5.6364,0,0.0001126,1125.2,4.466e-05,90.895,3.2571e-05,0.061717,-0.00011078,-1077,1.0842
119,15.264,5.4545,0,0.00012355,1234.6,5.2925e-05,148.13,3.3216e-05,0.038843,-0.00012036,-1153.8,1.0851
120,15.264,5.2727,0,0.00013803,1379.3,6.3307e-05,217.6,3.4339e-05,-0.055153,-0.00013303,-1257.6,1.0859
121,15.264,5.0909,0,0.00015584,1557.3,7.5449e-05,295.83,3.606e-05,-0.13483,-0.00014868,-1388.2,1.0868
122,15.264,4.9091,0,0.00017661,1764.8,8.8762e-05,376.71,3.8596e-05,-0.21409,-0.00016715,-1546.1,1.0875
123,15.264,4.7273,0,0.00019974,1996,0.00010233,450.91,4.227e-05,-0.37782,-0.0001882,-1732.1,1.0883
124,15.264,4.5455,0,0.00022411,2239.6,0.00011471,504.49,4.7498e-05,-0.54669,-0.00021122,-1944.5,1.089
125,15.264,4.3636,0,0.00024791,2477.4,0.00012384,519.45,5.4741e-05,0.24324,-0.00023495,-2176.4,1.0896
126,15.264,4.1818,0,0.00026872,2685.4,0.00012794,482.7,6.3667e-05,-0.23743,-0.00025724,-2411.4,1.0901
127,15.264,4,0,0.00028591,2857.1,0.0001277,408.3,7.3483e-05,0.9686,-0.00027676,-2630.6,1.0906
128,15.264,3.8182,0,0.00029986,2996.6,0.00012598,329.78,8.231e-05,1.6429,-0.00029287,-2817.3,1.091
129,15.264,3.6364,0,0.00031099,3107.8,0.00012529,274.99,8.8725e-05,0.24546,-0.0003054,-2961,1.0914
130,15.264,3.4545,0,0.0003192,3189.8,0.00012583,248.32,9.2835e-05,0.44194,-0.00031425,-3058.2,1.0916
131,15.264,3.2727,0,0.00032425,3240.2,0.00012668,238.35,9.501e-05,0.38521,-0.00031953,-3114.3,1.0918
132,15.264,3.0909,0,0.00032655,3263.3,0.00012721,235.39,9.5919e-05,0.31752,-0.00032191,-3139.1,1.0919
133,15.264,2.9091,0,0.00032655,3263.3,0.00012721,235.39,9.5919e-05,0.31752,-0.00032191,-3139.1,1.0919
134,15.264,2.7273,0,0.00032425,3240.2,0.00012668,238.35,9.501e-05,0.3852,-0.00031953,-3114.3,1.0918
135,15.264,2.5455,0,0.0003192,3189.8,0.00012583,248.32,9.2835e-05,0.44194,-0.00031425,-3058.2,1.0916
136,15.264,2.3636,0,0.00031099,3107.8,0.00012529,274.99,8.8725e-05,0.24546,-0.0003054,-2961,1.0914
137,15.264,2.1818,0,0.00029986,2996.6,0.00012598,329.78,8.231e-05,1.6429,-0.00029287,-2817.3,1.091
138,15.264,2,0,0.00028591,2857.1,0.0001277,408.3,7.3483e-05,0.9686,-0.00027676,-2630.6,1.0906
139,15.264,1.8182,0,0.00026872,2685.4,0.00012794,482.7,6.3667e-05,-0.23743,-0.00025724,-2411.4,1.0901
140,15.264,1.6364,0,0.00024791,2477.4,0.00012384,519.45,5.4741e-05,0.24323,-0.00023495,-2176.4,1.0896
141,15.264,1.4545,0,0.00022411,2239.6,0.00011471,504.49,4.7498e-05,-0.54669,-0.00021122,-1944.5,1.089
142,15.264,1.2727,0,0.00019974,1996,0.00010233,450.91,4.227e-05,-0.37782,-0.0001882,-1732.1,1.0883
143,15.264,1.0909,0,0.00017661,1764.8,8.8762e-05,376.71,3.8596e-05,-0.21409,-0.00016715,-1546.1,1.0875
144,15.264,0.90909,0,0.00015584,1557.3,7.5449e-05,295.83,3.606e-05,-0.13483,-0.00014868,-1388.2,1.0868
145,15.264,0.72727,0,0.00013803,1379.3,6.3307e-05,217.6,3.4339e-05,-0.05515,-0.00013303,-1257.6,1.0859
146,15.264,0.54545,0,0.00012355,1234.6,5.2925e-05,148.13,3.3216e-05,0.038844,-0.00012036,-1153.8,1.0851
147,15.264,0.36364,0,0.0001126,1125.2,4.466e-05,90.895,3.2571e-05,0.061718,-0.00011078,-1077,1.0842
148,15.264,0.18182,0,0.00010529,1052.1,3.8632e-05,47.093,3.2424e-05,0.44823,-0.0001044,-1027.6,1.0833
149,15.08,5.8182,0,0.0001254,1253.1,4.5199e-05,46.165,3.9107e-05,0.39627,-0.00012454,-1229.2,1.0611
150,15.08,5.6364,0,0.00013227,1321.8,5.1146e-05,90.67,3.9081e-05,0.021114,-0.00013049,-1274.1,1.062
151,15.08,5.4545,0,0.0001417,1416,5.8309e-05,140.31,3.964e-05,0.038586,-0.00013879,-1340.6,1.0629
152,15.08,5.2727,0,0.00015376,1536.5,6.6751e-05,195.27,4.0753e-05,-0.066231,-0.0001495,-1429.6,1.0637
153,15.08,5.0909,0,0.00016831,1681.9,7.6244e-05,253.36,4.2505e-05,-0.14192,-0.00016256,-1540.9,1.0645
154,15.08,4.9091,0,0.00018495,1848.2,8.6273e-05,309.66,4.503e-05,-0.22044,-0.00017773,-1673.9,1.0652
155,15.08,4.7273,0,0.00020301,2028.7,9.6041e-05,356.85,4.8511e-05,-0.27383,-0.00019457,-1826.7,1.0659
156,15.08,4.5455,0,0.00022146,2213.1,0.00010448,385.59,5.3116e-05,-0.34487,-0.00021237,-1995.1,1.0665
157,15.08,4.3636,0,0.00023903,2388.6,0.00011046,386.97,5.8885e-05,-0.5187,-0.00023008,-2171.7,1.0671
158,15.08,4.1818,0,0.00025466,2544.9,0.00011341,358.86,6.5601e-05,-0.38067,-0.00024665,-2346.5,1.0676
159,15.08,4,0,0.00026795,2677.7,0.0001139,309.98,7.2582e-05,-0.48325,-0.00026133,-2509.4,1.0681
160,15.08,3.8182,0,0.00027917,2789.8,0.0001134,257.91,7.9022e-05,-0.40188,-0.00027389,-2652.1,1.0684
161,15.08,3.6364,0,0.00028856,2883.6,0.0001132,217.67,8.4249e-05,0.1273,-0.00028424,-2768.5,1.0687
162,15.08,3.4545,0,0.00029588,2956.8,0.00011365,193.67,8.7915e-05,0.2799,-0.00029211,-2855.1,1.069
163,15.08,3.2727,0,0.00030085,3006.5,0.00011437,182.32,9.0139e-05,0.29302,-0.00029733,-2911,1.0691
164,15.08,3.0909,0,0.00030334,3031.3,0.00011485,178.21,9.117e-05,0.30741,-0.00029991,-2938.1,1.0692
165,15.08,2.9091,0,0.00030334,3031.3,0.00011485,178.21,9.117e-05,0.30741,-0.00029991,-2938.1,1.0692
166,15.08,2.7273,0,0.00030085,3006.5,0.00011437,182.32,9.0139e-05,0.29302,-0.00029733,-2911,1.0691
167,15.08,2.5455,0,0.00029588,2956.8,0.00011365,193.67,8.7915e-05,0.2799,-0.00029211,-2855.1,1.069
168,15.08,2.3636,0,0.00028856,2883.6,0.0001132,217.67,8.4249e-05,0.1273,-0.00028424,-2768.5,1.0687
169,15.08,2.1818,0,0.00027917,2789.8,0.0001134,257.91,7.9022e-05,-0.40187,-0.00027389,-2652.1,1.0684
170,15.08,2,0,0.00026795,2677.7,0.0001139,309.98,7.2582e-05,-0.48325,-0.00026133,-2509.4,1.0681
171,15.08,1.8182,0,0.00025466,2544.9,0.00011341,358.86,6.5601e-05,-0.38067,-0.00024665,-2346.5,1.0676
172,15.08,1.6364,0,0.00023903,2388.6,0.00011046,386.97,5.8885e-05,-0.5187,-0.00023008,-2171.7,1.0671
173,15.08,1.4545,0,0.00022146,2213.1,0.00010448,385.59,5.3116e-05,-0.34486,-0.00021237,-1995.1,1.0665
174,15.08,1.2727,0,0.00020301,2028.7,9.6041e-05,356.85,4.8511e-05,-0.27383,-0.00019457,-1826.7,1.0659
175,15.08,1.0909,0,0.00018495,1848.2,8.6273e-05,309.66,4.503e-05,-0.22044,-0.00017773,-1673.9,1.0652
176,15.08,0.90909,0,0.00016831,1681.9,7.6244e-05,253.36,4.2505e-05,-0.14192,-0.00016256,-1540.9,1.0645
177,15.08,0.72727,0,0.00015376,1536.5,6.6751e-05,195.27,4.0753e-05,-0.066232,-0.0001495,-1429.6,1.0637
178,15.08,0.54545,0,0.0001417,1416,5.8309e-05,140.31,3.964e-05,0.038586,-0.00013879,-1340.6,1.0629
179,15.08,0.36364,0,0.00013227,1321.8,5.1146e-05,90.67,3.9081e-05,0.021114,-0.00013049,-1274.1,1.062
180,15.08,0.18182,0,0.0001254,1253.1,4.5199e-05,46.165,3.9107e-05,0.39627,-0.00012454,-1229.2,1.0611
181,14.897,5.8182,0,0.00014355,1434.5,5.1035e-05,44.185,4.519e-05,0.2681,-0.00014275,-1411.8,1.039
182,14.897,5.6364,0,0.00014996,1498.6,5.6796e-05,88.227,4.5051e-05,-0.019186,-0.00014827,-1452.5,1.0399
183,14.897,5.4545,0,0.00015816,1580.5,6.31e-05,132.19,4.5514e-05,0.052458,-0.0001555,-1510.3,1.0407
184,14.897,5.2727,0,0.00016825,1681.3,7.005e-05,176.62,4.6539e-05,-0.03536,-0.00016454,-1586,1.0415
185,14.897,5.0909,0,0.00018008,1799.6,7.7494e-05,220.16,4.8181e-05,-0.087074,-0.00017533,-1679.4,1.0423
186,14.897,4.9091,0,0.00019332,1931.9,8.5039e-05,259.34,5.0505e-05,-0.13826,-0.0001876,-1789.1,1.043
187,14.897,4.7273,0,0.00020736,2072.2,9.2099e-05,289.18,5.3588e-05,-0.18044,-0.00020092,-1912.5,1.0437
188,14.897,4.5455,0,0.00022145,2212.9,9.7985e-05,304.19,5.7472e-05,-0.20016,-0.0002147,-2045.2,1.0443
189,14.897,4.3636,0,0.00023477,2346.1,0.00010211,300.46,6.2096e-05,-0.19144,-0.00022821,-2181.4,1.0448
190,14.897,4.1818,0,0.00024672,2465.5,0.00010429,278.26,6.7226e-05,-0.21315,-0.00024081,-2314.7,1.0453
191,14.897,4,0,0.0002571,2569.2,0.00010492,243.69,7.2472e-05,-0.14615,-0.00025208,-2438.7,1.0457
192,14.897,3.8182,0,0.00026598,2658,0.00010483,206.47,7.7344e-05,-0.051086,-0.00026187,-2548.8,1.046
193,14.897,3.6364,0,0.00027346,2732.7,0.00010474,175.23,8.1423e-05,0.0061245,-0.00027006,-2640.9,1.0463
194,14.897,3.4545,0,0.00027941,2792.2,0.00010496,153.94,8.4486e-05,0.11704,-0.00027648,-2712,1.0465
195,14.897,3.2727,0,0.00028358,2833.8,0.00010535,141.98,8.6477e-05,0.2098,-0.00028089,-2760.1,1.0467
196,14.897,3.0909,0,0.00028572,2855.2,0.00010563,136.9,8.7444e-05,0.24436,-0.00028314,-2784.2,1.0467
197,14.897,2.9091,0,0.00028572,2855.2,0.00010563,136.9,8.7444e-05,0.24436,-0.00028314,-2784.2,1.0467
198,14.897,2.7273,0,0.00028358,2833.8,0.00010535,141.98,8.6477e-05,0.2098,-0.00028089,-2760.1,1.0467
199,14.897,2.5455,0,0.00027941,2792.2,0.00010496,153.94,8.4486e-05,0.11704,-0.00027648,-2712,1.0465
200,14.897,2.3636,0,0.00027346,2732.7,0.00010474,175.23,8.1423e-05,0.0061257,-0.00027006,-2640.9,1.0463
201,14.897,2.1818,0,0.00026598,2658,0.00010483,206.47,7.7344e-05,-0.051087,-0.00026187,-2548.8,1.046
202,14.897,2,0,0.0002571,2569.2,0.00010492,243.69,7.2472e-05,-0.14615,-0.00025208,-2438.7,1.0457
203,14.897,1.8182,0,0.00024672,2465.5,0.00010429,278.26,6.7226e-05,-0.21315,-0.00024081,-2314.7,1.0453
204,14.897,1.6364,0,0.00023477,2346.1,0.00010211,300.46,6.2096e-05,-0.19144,-0.00022821,-2181.4,1.0448
205,14.897,1.4545,0,0.00022145,2212.9,9.7985e-05,304.19,5.7472e-05,-0.20016,-0.0002147,-2045.2,1.0443
206,14.897,1.2727,0,0.00020736,2072.2,9.2099e-05,289.18,5.3588e-05,-0.18044,-0.00020092,-1912.5,1.0437
207,14.897,1.0909,0,0.00019332,1931.9,8.5039e-05,259.34,5.0505e-05,-0.13826,-0.0001876,-1789.1,1.043
208,14.897,0.90909,0,0.00018008,1799.6,7.7494e-05,220.16,4.8181e-05,-0.087073,-0.00017533,-1679.4,1.0423
209,14.897,0.72727,0,0.00016825,1681.3,7.005e-05,176.62,4.6539e-05,-0.035359,-0.00016454,-1586,1.0415
210,14.897,0.54545,0,0.00015816,1580.5,6.31e-05,132.19,4.5514e-05,0.052457,-0.0001555,-1510.3,1.0407
211,14.897,0.36364,0,0.00014996,1498.6,5.6796e-05,88.227,4.5051e-05,-0.019185,-0.00014827,-1452.5,1.0399
212,14.897,0.18182,0,0.00014355,1434.5,5.1035e-05,44.185,4.519e-05,0.2681,-0.00014275,-1411.8,1.039
213,14.713,5.8182,0,0.00015978,1596.7,5.6178e-05,41.534,5.0667e-05,0.1225,-0.00015903,-1575.5,1.017
214,14.713,5.6364,0,0.00016565,1655.4,6.1619e-05,83.82,5.0454e-05,-0.066409,-0.00016406,-1611.9,1.0179
215,14.713,5.4545,0,0.00017277,1726.5,6.7179e-05,122.99,5.0816e-05,0.045758,-0.00017035,-1661.7,1.0187
216,14.713,5.2727,0,0.00018119,1810.7,7.2956e-05,159.6,5.1712e-05,-0.020285,-0.00017795,-1725.6,1.0195
217,14.713,5.0909,0,0.00019081,1906.7,7.884e-05,192.85,5.3167e-05,-0.054413,-0.00018679,-1803,1.0202
218,14.713,4.9091,0,0.00020131,2011.7,8.4558e-05,220.48,5.5202e-05,-0.089996,-0.00019665,-1892.4,1.0209
219,14.713,4.7273,0,0.00021224,2121,8.9717e-05,239.44,5.7834e-05,-0.1182,-0.00020715,-1991.1,1.0215
220,14.713,4.5455,0,0.00022307,2229.2,9.3901e-05,246.76,6.104e-05,-0.14499,-0.00021785,-2095.6,1.0221
221,14.713,4.3636,0,0.00023328,2331.2,9.6808e-05,240.86,6.4728e-05,-0.17248,-0.00022825,-2201.5,1.0226
222,14.713,4.1818,0,0.0002425,2423.3,9.8398e-05,222.83,6.8717e-05,-0.18721,-0.00023794,-2304.3,1.0231
223,14.713,4,0,0.00025058,2504,9.8947e-05,196.74,7.2737e-05,-0.19183,-0.00024665,-2399.9,1.0235
224,14.713,3.8182,0,0.00025753,2573.5,9.8937e-05,168.52,7.6488e-05,-0.15046,-0.00025425,-2485.2,1.0238
225,14.713,3.6364,0,0.00026338,2632,9.8815e-05,143.55,7.9703e-05,-0.051778,-0.00026064,-2557.3,1.0241
226,14.713,3.4545,0,0.00026803,2678.4,9.8814e-05,124.95,8.2191e-05,0.053052,-0.00026568,-2613.7,1.0243
227,14.713,3.2727,0,0.00027129,2711,9.8929e-05,113.33,8.3864e-05,0.13486,-0.00026918,-2652.5,1.0244
228,14.713,3.0909,0,0.00027298,2727.9,9.9037e-05,107.91,8.4699e-05,0.17979,-0.00027098,-2672.2,1.0245
229,14.713,2.9091,0,0.00027298,2727.9,9.9037e-05,107.91,8.4699e-05,0.17979,-0.00027098,-2672.2,1.0245
230,14.713,2.7273,0,0.00027129,2711,9.8929e-05,113.33,8.3864e-05,0.13486,-0.00026918,-2652.5,1.0244
231,14.713,2.5455,0,0.00026803,2678.4,9.8814e-05,124.95,8.2191e-05,0.053052,-0.00026568,-2613.7,1.0243
232,14.713,2.3636,0,0.00026338,2632,9.8815e-05,143.55,7.9703e-05,-0.051777,-0.00026064,-2557.3,1.0241
233,14.713,2.1818,0,0.00025753,2573.5,9.8937e-05,168.52,7.6488e-05,-0.15046,-0.00025425,-2485.2,1.0238
234,14.713,2,0,0.00025058,2504,9.8947e-05,196.74,7.2737e-05,-0.19183,-0.00024665,-2399.9,1.0235
235,14.713,1.8182,0,0.0002425,2423.3,9.8398e-05,222.83,6.8717e-05,-0.18721,-0.00023794,-2304.3,1.0231
236,14.713,1.6364,0,0.00023328,2331.2,9.6808e-05,240.86,6.4728e-05,-0.17248,-0.00022825,-2201.5,1.0226
237,14.713,1.4545,0,0.00022307,2229.2,9.3901e-05,246.76,6.104e-05,-0.14499,-0.00021785,-2095.6,1.0221
238,14.713,1.2727,0,0.00021224,2121,8.9717e-05,239.44,5.7834e-05,-0.1182,-0.00020715,-1991.1,1.0215
239,14.713,1.0909,0,0.00020131,2011.7,8.4558e-05,220.48,5.5202e-05,-0.089996,-0.00019665,-1892.4,1.0209
240,14.713,0.90909,0,0.00019081,1906.7,7.884e-05,192.85,5.3167e-05,-0.054412,-0.00018679,-1803,1.0202
241,14.713,0.72727,0,0.00018119,1810.7,7.2956e-05,159.6,5.1712e-05,-0.020283,-0.00017795,-1725.6,1.0195
242,14.713,0.54545,0,0.00017277,1726.5,6.7179e-05,122.99,5.0816e-05,0.045759,-0.00017035,-1661.7,1.0187
243,14.713,0.36364,0,0.00016565,1655.4,6.1619e-05,83.82,5.0454e-05,-0.066408,-0.00016406,-1611.9,1.0179
244,14.713,0.18182,0,0.00015978,1596.7,5.6178e-05,41.534,5.0667e-05,0.1225,-0.00015903,-1575.5,1.017
245,14.529,5.8182,0,0.00017421,1740.9,6.07e-05,38.57,5.5568e-05,0.011032,-0.00017352,-1721.2,0.99513
246,14.529,5.6364,0,0.00017948,1793.6,6.5716e-05,78.096,5.5309e-05,-0.096233,-0.00017802,-1753.3,0.99599
247,14.529,5.4545,0,0.00018561,1854.9,7.0604e-05,112.96,5.5576e-05,0.040541,-0.00018343,-1795.8,0.9968
248,14.529,5.2727,0,0.00019264,1925.1,7.5437e-05,143.6,5.6324e-05,-0.0063105,-0.00018979,-1849.2,0.99757
249,14.529,5.0909,0,0.00020044,2003,8.0138e-05,169.58,5.7565e-05,-0.026551,-0.00019702,-1912.8,0.99829
250,14.529,4.9091,0,0.00020878,2086.3,8.4522e-05,189.52,5.9291e-05,-0.052436,-0.00020491,-1985.1,0.99896
251,14.529,4.7273,0,0.00021732,2171.7,8.8344e-05,201.72,6.1486e-05,-0.074488,-0.00021319,-2063.9,0.99957
252,14.529,4.5455,0,0.0002257,2255.5,9.1362e-05,204.72,6.4102e-05,-0.096039,-0.00022152,-2146.2,1.0001
253,14.529,4.3636,0,0.00023357,2334.1,9.3428e-05,198.09,6.7048e-05,-0.11658,-0.00022957,-2228.8,1.0006
254,14.529,4.1818,0,0.0002407,2405.3,9.4558e-05,183.04,7.0179e-05,-0.13356,-0.00023706,-2308.6,1.0011
255,14.529,4,0,0.00024697,2468,9.4946e-05,162.45,7.3308e-05,-0.13366,-0.0002438,-2382.8,1.0014
256,14.529,3.8182,0,0.00025236,2521.9,9.4897e-05,140.14,7.6231e-05,-0.10899,-0.00024968,-2448.9,1.0017
257,14.529,3.6364,0,0.00025687,2566.9,9.4704e-05,119.73,7.8761e-05,-0.057224,-0.00025462,-2505,1.002
258,14.529,3.4545,0,0.00026042,2602.4,9.4549e-05,103.67,8.0754e-05,0.015926,-0.0002585,-2549,1.0022
259,14.529,3.2727,0,0.0002629,2627.2,9.4481e-05,92.967,8.2119e-05,0.085949,-0.0002612,-2579.4,1.0023
260,14.529,3.0909,0,0.00026418,2640,9.4467e-05,87.712,8.281e-05,0.12766,-0.00026258,-2595,1.0024
261,14.529,2.9091,0,0.00026418,2640,9.4467e-05,87.712,8.281e-05,0.12766,-0.00026258,-2595,1.0024
262,14.529,2.7273,0,0.0002629,2627.2,9.4481e-05,92.967,8.2119e-05,0.08595,-0.0002612,-2579.4,1.0023
263,14.529,2.5455,0,0.00026042,2602.4,9.4549e-05,103.67,8.0754e-05,0.015926,-0.0002585,-2549,1.0022
264,14.529,2.3636,0,0.00025687,2566.9,9.4704e-05,119.73,7.8761e-05,-0.057223,-0.00025462,-2505,1.002
265,14.529,2.1818,0,0.00025236,2521.9,9.4897e-05,140.14,7.6231e-05,-0.10899,-0.00024968,-2448.9,1.0017
266,14.529,2,0,0.00024697,2468,9.4946e-05,162.45,7.3308e-05,-0.13366,-0.0002438,-2382.8,1.0014
267,14.529,1.8182,0,0.0002407,2405.3,9.4558e-05,183.04,7.0179e-05,-0.13356,-0.00023706,-2308.6,1.0011
268,14.529,1.6364,0,0.00023357,2334.1,9.3428e-05,198.09,6.7048e-05,-0.11658,-0.00022957,-2228.8,1.0006
269,14.529,1.4545,0,0.0002257,2255.5,9.1362e-05,204.72,6.4102e-05,-0.096038,-0.00022152,-2146.2,1.0001
270,14.529,1.2727,0,0.00021732,2171.7,8.8344e-05,201.72,6.1486e-05,-0.074488,-0.00021319,-2063.9,0.99957
271,14.529,1.0909,0,0.00020878,2086.3,8.4522e-05,189.52,5.9291e-05,-0.052436,-0.00020491,-1985.1,0.99896
272,14.529,0.90909,0,0.00020044,2003,8.0138e-05,169.58,5.7565e-05,-0.026549,-0.00019702,-1912.8,0.99829
273,14.529,0.72727,0,0.00019264,1925.1,7.5437e-05,143.6,5.6324e-05,-0.006309,-0.00018979,-1849.2,0.99757
274,14.529,0.54545,0,0.00018561,1854.9,7.0604e-05,112.96,5.5576e-05,0.040542,-0.00018343,-1795.8,0.9968
275,14.529,0.36364,0,0.00017948,1793.6,6.5716e-05,78.096,5.5309e-05,-0.096234,-0.00017802,-1753.3,0.99599
276,14.529,0.18182,0,0.00017421,1740.9,6.07e-05,38.57,5.5568e-05,0.011032,-0.00017352,-1721.2,0.99513
277,14.345,5.8182,0,0.00018702,1868.9,6.4682e-05,35.551,5.9942e-05,-0.062487,-0.00018639,-1850.9,0.97335
278,14.345,5.6364,0,0.00019167,1915.4,6.9214e-05,71.684,5.9659e-05,-0.11244,-0.00019036,-1878.6,0.9742
279,14.345,5.4545,0,0.00019692,1967.9,7.3489e-05,102.6,5.9839e-05,0.03483,-0.00019498,-1914.5,0.97501
280,14.345,5.2727,0,0.00020276,2026.2,7.7552e-05,128.55,6.0444e-05,0.0028567,-0.00020027,-1958.9,0.97577
281,14.345,5.0909,0,0.0002091,2089.5,8.1346e-05,149.32,6.1472e-05,-0.0078542,-0.00020615,-2010.8,0.97648
282,14.345,4.9091,0,0.00021573,2155.8,8.4753e-05,164.15,6.2902e-05,-0.026935,-0.00021247,-2069.1,0.97714
283,14.345,4.7273,0,0.00022243,2222.8,8.7625e-05,172.17,6.4704e-05,-0.045074,-0.000219,-2131.7,0.97774
284,14.345,4.5455,0,0.00022894,2287.8,8.9828e-05,172.79,6.6822e-05,-0.064487,-0.00022551,-2196.5,0.97828
285,14.345,4.3636,0,0.00023502,2348.6,9.1299e-05,166.14,6.9175e-05,-0.083982,-0.00023176,-2261.2,0.97876
286,14.345,4.1818,0,0.00024053,2403.7,9.2075e-05,153.38,7.1648e-05,-0.099618,-0.00023756,-2323.3,0.97919
287,14.345,4,0,0.00024538,2452.1,9.2301e-05,136.62,7.4104e-05,-0.10464,-0.00024277,-2381,0.97955
288,14.345,3.8182,0,0.00024953,2493.6,9.2183e-05,118.51,7.6397e-05,-0.090182,-0.0002473,-2432.3,0.97985
289,14.345,3.6364,0,0.00025297,2528,9.1924e-05,101.62,7.8393e-05,-0.052486,-0.00025109,-2475.7,0.98009
290,14.345,3.4545,0,0.00025566,2554.9,9.1672e-05,87.861,7.9979e-05,0.0013078,-0.00025405,-2509.8,0.98028
291,14.345,3.2727,0,0.00025752,2573.4,9.1497e-05,78.353,8.1076e-05,0.055414,-0.0002561,-2533.3,0.9804
292,14.345,3.0909,0,0.00025848,2583,9.1412e-05,73.544,8.1636e-05,0.089724,-0.00025715,-2545.4,0.98046
293,14.345,2.9091,0,0.00025848,2583,9.1412e-05,73.544,8.1636e-05,0.089724,-0.00025715,-2545.4,0.98046
294,14.345,2.7273,0,0.00025752,2573.4,9.1497e-05,78.353,8.1076e-05,0.055415,-0.0002561,-2533.3,0.9804
295,14.345,2.5455,0,0.00025566,2554.9,9.1672e-05,87.861,7.9979e-05,0.0013074,-0.00025405,-2509.8,0.98028
296,14.345,2.3636,0,0.00025297,2528,9.1924e-05,101.62,7.8393e-05,-0.052486,-0.00025109,-2475.7,0.98009
297,14.345,2.1818,0,0.00024953,2493.6,9.2183e-05,118.51,7.6397e-05,-0.090182,-0.0002473,-2432.3,0.97985
298,14.345,2,0,0.00024538,2452.1,9.2301e-05,136.62,7.4104e-05,-0.10465,-0.00024277,-2381,0.97955
299,14.345,1.8182,0,0.00024053,2403.7,9.2075e-05,153.38,7.1648e-05,-0.099618,-0.00023756,-2323.3,0.97919
300,14.345,1.6364,0,0.00023502,2348.6,9.1298e-05,166.14,6.9175e-05,-0.083981,-0.00023176,-2261.2,0.97876
301,14.345,1.4545,0,0.00022894,2287.8,8.9828e-05,172.79,6.6822e-05,-0.064487,-0.00022551,-2196.5,0.97828
302,14.345,1.2727,0,0.00022243,2222.8,8.7625e-05,172.17,6.4704e-05,-0.045073,-0.000219,-2131.7,0.97774
303,14.345,1.0909,0,0.00021573,2155.8,8.4753e-05,164.15,6.2902e-05,-0.026934,-0.00021247,-2069.1,0.97714
304,14.345,0.90909,0,0.0002091,2089.5,8.1346e-05,149.32,6.1472e-05,-0.0078526,-0.00020615,-2010.8,0.97648
305,14.345,0.72727,0,0.00020276,2026.2,7.7552e-05,128.55,6.0444e-05,0.0028591,-0.00020027,-1958.9,0.97577
306,14.345,0.54545,0,0.00019692,1967.9,7.3489e-05,102.6,5.9839e-05,0.034831,-0.00019498,-1914.5,0.97501
307,14.345,0.36364,0,0.00019167,1915.4,6.9214e-05,71.684,5.9659e-05,-0.11244,-0.00019035,-1878.6,0.9742
308,14.345,0.18182,0,0.00018702,1868.9,6.4682e-05,35.551,5.9942e-05,-0.062487,-0.00018639,-1850.9,0.97335
309,14.161,5.8182,0,0.00019843,1982.9,6.8209e-05,32.645,6.385e-05,-0.10251,-0.00019786,-1966.5,0.95169
310,14.161,5.6364,0,0.00020247,2023.4,7.2235e-05,65.082,6.3557e-05,-0.11777,-0.00020129,-1990.1,0.95255
311,14.161,5.4545,0,0.00020693,2067.9,7.5952e-05,92.35,6.3665e-05,0.02973,-0.00020521,-2020.2,0.95335
312,14.161,5.2727,0,0.00021178,2116.3,7.9379e-05,114.52,6.4139e-05,0.0088067,-0.0002096,-2056.8,0.95411
313,14.161,5.0909,0,0.00021692,2167.7,8.2471e-05,131.49,6.4972e-05,0.0045528,-0.00021438,-2099,0.95481
314,14.161,4.9091,0,0.00022221,2220.6,8.5154e-05,142.88,6.6137e-05,-0.0095164,-0.00021943,-2145.7,0.95546
315,14.161,4.7273,0,0.00022748,2273.2,8.7342e-05,148.32,6.7599e-05,-0.024081,-0.00022459,-2195.4,0.95605
316,14.161,4.5455,0,0.00023255,2323.9,8.8968e-05,147.7,6.9305e-05,-0.04037,-0.00022968,-2246.5,0.95658
317,14.161,4.3636,0,0.00023726,2371,9.0013e-05,141.43,7.1182e-05,-0.056557,-0.00023454,-2297.2,0.95706
318,14.161,4.1818,0,0.00024152,2413.5,9.0525e-05,130.55,7.3142e-05,-0.06963,-0.00023903,-2345.6,0.95748
319,14.161,4,0,0.00024525,2450.8,9.0616e-05,116.66,7.5079e-05,-0.074426,-0.00024306,-2390.4,0.95783
320,14.161,3.8182,0,0.00024843,2482.6,9.0434e-05,101.73,7.6886e-05,-0.065781,-0.00024655,-2430.2,0.95813
321,14.161,3.6364,0,0.00025105,2508.7,9.0132e-05,87.638,7.8463e-05,-0.040997,-0.00024944,-2463.8,0.95837
322,14.161,3.4545,0,0.00025306,2528.9,8.9829e-05,75.944,7.9721e-05,-0.0030418,-0.00025169,-2490.1,0.95854
323,14.161,3.2727,0,0.00025445,2542.7,8.9599e-05,67.687,8.0596e-05,0.037104,-0.00025323,-2508.2,0.95866
324,14.161,3.0909,0,0.00025515,2549.8,8.9479e-05,63.44,8.1044e-05,0.063412,-0.00025401,-2517.4,0.95872
325,14.161,2.9091,0,0.00025515,2549.8,8.9479e-05,63.44,8.1044e-05,0.063412,-0.00025401,-2517.4,0.95872
326,14.161,2.7273,0,0.00025445,2542.7,8.9599e-05,67.687,8.0596e-05,0.037105,-0.00025323,-2508.2,0.95866
327,14.161,2.5455,0,0.00025306,2528.9,8.9829e-05,75.944,7.9721e-05,-0.0030423,-0.00025169,-2490.1,0.95854
328,14.161,2.3636,0,0.00025105,2508.7,9.0132e-05,87.638,7.8463e-05,-0.040997,-0.00024944,-2463.8,0.95837
329,14.161,2.1818,0,0.00024843,2482.6,9.0434e-05,101.73,7.6886e-05,-0.06578,-0.00024655,-2430.2,0.95813
330,14.161,2,0,0.00024525,2450.8,9.0616e-05,116.66,7.5079e-05,-0.074426,-0.00024306,-2390.4,0.95783
331,14.161,1.8182,0,0.00024152,2413.5,9.0525e-05,130.54,7.3142e-05,-0.069629,-0.00023903,-2345.6,0.95748
332,14.161,1.6364,0,0.00023726,2371,9.0013e-05,141.43,7.1182e-05,-0.056558,-0.00023454,-2297.2,0.95706
333,14.161,1.4545,0,0.00023255,2323.9,8.8968e-05,147.7,6.9305e-05,-0.04037,-0.00022968,-2246.5,0.95658
334,14.161,1.2727,0,0.00022748,2273.2,8.7342e-05,148.32,6.7599e-05,-0.024081,-0.00022459,-2195.4,0.95605
335,14.161,1.0909,0,0.00022221,2220.6,8.5154e-05,142.88,6.6137e-05,-0.0095159,-0.00021943,-2145.7,0.95546
336,14.161,0.90909,0,0.00021692,2167.7,8.2471e-05,131.49,6.4972e-05,0.0045531,-0.00021438,-2099,0.95481
337,14.161,0.72727,0,0.00021178,2116.3,7.9379e-05,114.52,6.4139e-05,0.0088086,-0.0002096,-2056.8,0.95411
338,14.161,0.54545,0,0.00020693,2067.9,7.5952e-05,92.35,6.3665e-05,0.029732,-0.00020521,-2020.2,0.95335
339,14.161,0.36364,0,0.00020247,2023.4,7.2235e-05,65.082,6.3557e-05,-0.11777,-0.00020129,-1990.1,0.95255
340,14.161,0.18182,0,0.00019843,1982.9,6.8209e-05,32.645,6.385e-05,-0.10251,-0.00019786,-1966.5,0.95169
341,13.977,5.8182,0,0.00020865,2085,7.1357e-05,29.949,6.7355e-05,-0.11797,-0.00020812,-2070,0.93017
342,13.977,5.6364,0,0.00021211,2119.7,7.4883e-05,58.639,6.7063e-05,-0.11596,-0.00021106,-2089.8,0.93103
343,13.977,5.4545,0,0.00021588,2157.3,7.8099e-05,82.563,6.7114e-05,0.025051,-0.00021436,-2114.8,0.93183
344,13.977,5.2727,0,0.00021989,2197.4,8.0995e-05,101.6,6.7474e-05,0.01211,-0.00021799,-2144.8,0.93258
345,13.977,5.0909,0,0.00022407,2239.1,8.3536e-05,115.72,6.8137e-05,0.012181,-0.00022187,-2179,0.93328
346,13.977,4.9091,0,0.00022829,2281.3,8.5675e-05,124.74,6.9073e-05,0.0020107,-0.00022591,-2216.4,0.93393
347,13.977,4.7273,0,0.00023245,2322.9,8.7364e-05,128.59,7.0249e-05,-0.009475,-0.00022999,-2255.9,0.93451
348,13.977,4.5455,0,0.0002364,2362.4,8.8576e-05,127.42,7.1615e-05,-0.022824,-0.00023398,-2296.1,0.93504
349,13.977,4.3636,0,0.00024006,2399,8.9318e-05,121.73,7.3111e-05,-0.036117,-0.00023776,-2335.8,0.93551
350,13.977,4.1818,0,0.00024335,2431.8,8.9638e-05,112.45,7.4666e-05,-0.046878,-0.00024124,-2373.6,0.93593
351,13.977,4,0,0.00024621,2460.4,8.9627e-05,100.85,7.6198e-05,-0.051507,-0.00024434,-2408.4,0.93628
352,13.977,3.8182,0,0.00024863,2484.6,8.9402e-05,88.432,7.7626e-05,-0.046295,-0.00024701,-2439.3,0.93657
353,13.977,3.6364,0,0.00025061,2504.4,8.9078e-05,76.655,7.8872e-05,-0.029276,-0.00024922,-2465.2,0.93681
354,13.977,3.4545,0,0.00025212,2519.4,8.8756e-05,66.773,7.9869e-05,-0.0025302,-0.00025092,-2485.4,0.93698
355,13.977,3.2727,0,0.00025314,2529.7,8.8508e-05,59.71,8.0564e-05,0.026341,-0.00025207,-2499.3,0.9371
356,13.977,3.0909,0,0.00025366,2534.9,8.8374e-05,56.044,8.0921e-05,0.045572,-0.00025266,-2506.4,0.93716
357,13.977,2.9091,0,0.00025366,2534.9,8.8374e-05,56.044,8.0921e-05,0.045571,-0.00025266,-2506.4,0.93716
358,13.977,2.7273,0,0.00025314,2529.7,8.8508e-05,59.71,8.0564e-05,0.026341,-0.00025207,-2499.3,0.9371
359,13.977,2.5455,0,0.00025212,2519.4,8.8756e-05,66.773,7.9869e-05,-0.0025306,-0.00025092,-2485.4,0.93698
360,13.977,2.3636,0,0.00025061,2504.4,8.9078e-05,76.655,7.8872e-05,-0.029276,-0.00024922,-2465.2,0.93681
361,13.977,2.1818,0,0.00024863,2484.6,8.9402e-05,88.432,7.7626e-05,-0.046295,-0.00024701,-2439.3,0.93657
362,13.977,2,0,0.00024621,2460.4,8.9627e-05,100.85,7.6198e-05,-0.051507,-0.00024434,-2408.4,0.93628
363,13.977,1.8182,0,0.00024335,2431.8,8.9638e-05,112.45,7.4666e-05,-0.046878,-0.00024124,-2373.6,0.93593
364,13.977,1.6364,0,0.00024006,2399,8.9317e-05,121.73,7.3111e-05,-0.036116,-0.00023776,-2335.8,0.93551
365,13.977,1.4545,0,0.0002364,2362.4,8.8576e-05,127.42,7.1615e-05,-0.022823,-0.00023398,-2296.1,0.93504
366,13.977,1.2727,0,0.00023245,2322.9,8.7364e-05,128.59,7.0249e-05,-0.0094742,-0.00022999,-2255.9,0.93451
367,13.977,1.0909,0,0.00022829,2281.3,8.5675e-05,124.74,6.9073e-05,0.0020122,-0.00022591,-2216.4,0.93393
368,13.977,0.90909,0,0.00022407,2239.1,8.3536e-05,115.72,6.8137e-05,0.012183,-0.00022187,-2179,0.93328
369,13.977,0.72727,0,0.00021989,2197.4,8.0995e-05,101.6,6.7474e-05,0.012113,-0.00021799,-2144.8,0.93258
370,13.977,0.54545,0,0.00021588,2157.3,7.8099e-05,82.563,6.7114e-05,0.025051,-0.00021436,-2114.8,0.93183
371,13.977,0.36364,0,0.00021211,2119.7,7.4883e-05,58.639,6.7063e-05,-0.11597,-0.00021106,-2089.8,0.93103
372,13.977,0.18182,0,0.00020865,2085,7.1357e-05,29.949,6.7355e-05,-0.11797,-0.00020812,-2070,0.93017
373,13.793,5.8182,0,0.00021786,2177.1,7.4194e-05,27.507,7.0518e-05,-0.11736,-0.00021738,-2163.3,0.90879
374,13.793,5.6364,0,0.0002208,2206.5,7.7247e-05,52.571,7.0236e-05,-0.10984,-0.00021986,-2179.8,0.90965
375,13.793,5.4545,0,0.00022396,2238.1,8.0015e-05,73.449,7.0242e-05,0.020775,-0.00022262,-2200.5,0.91045
376,13.793,5.2727,0,0.00022728,2271.2,8.2464e-05,89.848,7.0508e-05,0.013517,-0.00022562,-2224.9,0.91121
377,13.793,5.0909,0,0.00023067,2305.1,8.4566e-05,101.75,7.1026e-05,0.016433,-0.00022877,-2252.5,0.91191
378,13.793,4.9091,0,0.00023405,2338.9,8.629e-05,109.1,7.177e-05,0.0093445,-0.000232,-2282.4,0.91255
379,13.793,4.7273,0,0.00023733,2371.7,8.7611e-05,111.98,7.2708e-05,0.00055021,-0.00023523,-2313.7,0.91313
380,13.793,4.5455,0,0.00024043,2402.6,8.8524e-05,110.64,7.3797e-05,-0.010087,-0.00023836,-2345.4,0.91366
381,13.793,4.3636,0,0.00024327,2431,8.9049e-05,105.63,7.4988e-05,-0.02072,-0.0002413,-2376.5,0.91413
382,13.793,4.1818,0,0.0002458,2456.3,8.9234e-05,97.748,7.6221e-05,-0.029377,-0.00024399,-2406,0.91454
383,13.793,4,0,0.00024799,2478.2,8.9156e-05,88.041,7.7434e-05,-0.033441,-0.00024638,-2433,0.91489
384,13.793,3.8182,0,0.00024983,2496.6,8.8907e-05,77.683,7.8564e-05,-0.030398,-0.00024842,-2456.9,0.91518
385,13.793,3.6364,0,0.00025132,2511.4,8.8581e-05,67.839,7.955e-05,-0.018908,-0.00025009,-2476.8,0.91541
386,13.793,3.4545,0,0.00025244,2522.7,8.8262e-05,59.532,8.0339e-05,-0.00035723,-0.00025137,-2492.4,0.91559
387,13.793,3.2727,0,0.0002532,2530.2,8.8015e-05,53.555,8.089e-05,0.019906,-0.00025224,-2503,0.91571
388,13.793,3.0909,0,0.00025358,2534,8.7881e-05,50.436,8.1173e-05,0.033484,-0.00025268,-2508.4,0.91576
389,13.793,2.9091,0,0.00025358,2534,8.7881e-05,50.436,8.1173e-05,0.033485,-0.00025268,-2508.4,0.91576
390,13.793,2.7273,0,0.0002532,2530.2,8.8015e-05,53.555,8.089e-05,0.019907,-0.00025224,-2503,0.91571
391,13.793,2.5455,0,0.00025244,2522.7,8.8262e-05,59.532,8.0339e-05,-0.00035617,-0.00025137,-2492.4,0.91559
392,13.793,2.3636,0,0.00025132,2511.4,8.8581e-05,67.839,7.955e-05,-0.018908,-0.00025009,-2476.8,0.91541
393,13.793,2.1818,0,0.00024983,2496.6,8.8907e-05,77.683,7.8564e-05,-0.030397,-0.00024842,-2456.9,0.91518
394,13.793,2,0,0.00024799,2478.2,8.9156e-05,88.041,7.7434e-05,-0.033442,-0.00024638,-2433,0.91489
395,13.793,1.8182,0,0.0002458,2456.3,8.9234e-05,97.748,7.6221e-05,-0.029376,-0.00024399,-2406,0.91454
396,13.793,1.6364,0,0.00024327,2431,8.9049e-05,105.63,7.4988e-05,-0.020717,-0.0002413,-2376.5,0.91413
397,13.793,1.4545,0,0.00024043,2402.6,8.8524e-05,110.64,7.3797e-05,-0.010087,-0.00023836,-2345.4,0.91366
398,13.793,1.2727,0,0.00023733,2371.7,8.7611e-05,111.98,7.2708e-05,0.00055124,-0.00023523,-2313.7,0.91313
399,13.793,1.0909,0,0.00023405,2338.9,8.629e-05,109.1,7.177e-05,0.0093445,-0.000232,-2282.4,0.91255
400,13.793,0.90909,0,0.00023067,2305.1,8.4566e-05,101.75,7.1026e-05,0.016435,-0.00022877,-2252.5,0.91191
401,13.793,0.72727,0,0.00022728,2271.2,8.2464e-05,89.848,7.0508e-05,0.013519,-0.00022562,-2224.9,0.91121
402,13.793,0.54545,0,0.00022396,2238.1,8.0015e-05,73.449,7.0242e-05,0.020776,-0.00022262,-2200.5,0.91045
403,13.793,0.36364,0,0.0002208,2206.5,7.7247e-05,52.571,7.0236e-05,-0.10984,-0.00021986,-2179.8,0.90965
404,13.793,0.18182,0,0.00021786,2177.1,7.4194e-05,27.507,7.0518e-05,-0.11736,-0.00021738,-2163.3,0.90879
405,13.609,5.8182,0,0.00022625,2260.9,7.678e-05,25.329,7.3395e-05,-0.10743,-0.00022581,-2248.2,0.88756
406,13.609,5.6364,0,0.00022871,2285.6,7.9396e-05,46.995,7.3128e-05,-0.10137,-0.00022788,-2261.8,0.88842
407,13.609,5.4545,0,0.00023136,2312,8.1766e-05,65.122,7.3102e-05,0.016947,-0.00023018,-2278.7,0.88923
408,13.609,5.2727,0,0.00023409,2339.3,8.3839e-05,79.262,7.3292e-05,0.013673,-0.00023264,-2298.6,0.88998
409,13.609,5.0909,0,0.00023685,2366.8,8.5586e-05,89.393,7.3691e-05,0.018398,-0.0002352,-2320.9,0.89068
410,13.609,4.9091,0,0.00023956,2393.9,8.6987e-05,95.521,7.4276e-05,0.013731,-0.00023779,-2344.7,0.89133
411,13.609,4.7273,0,0.00024215,2419.9,8.8033e-05,97.792,7.5019e-05,0.0072006,-0.00024034,-2369.5,0.89191
412,13.609,4.5455,0,0.00024458,2444.1,8.8729e-05,96.516,7.5883e-05,-0.0011078,-0.00024279,-2394.4,0.89244
413,13.609,4.3636,0,0.00024678,2466.1,8.91e-05,92.202,7.6827e-05,-0.0095094,-0.00024508,-2418.7,0.89291
414,13.609,4.1818,0,0.00024873,2485.6,8.9194e-05,85.554,7.7805e-05,-0.016432,-0.00024716,-2441.7,0.89332
415,13.609,4,0,0.0002504,2502.3,8.9075e-05,77.438,7.8766e-05,-0.019956,-0.000249,-2462.7,0.89367
416,13.609,3.8182,0,0.0002518,2516.2,8.8819e-05,68.804,7.966e-05,-0.018318,-0.00025055,-2481.1,0.89396
417,13.609,3.6364,0,0.00025291,2527.3,8.8505e-05,60.591,8.044e-05,-0.010634,-0.00025182,-2496.5,0.89419
418,13.609,3.4545,0,0.00025374,2535.7,8.8203e-05,53.64,8.1064e-05,0.0020513,-0.00025279,-2508.4,0.89437
419,13.609,3.2727,0,0.0002543,2541.2,8.7969e-05,48.62,8.15e-05,0.015971,-0.00025344,-2516.6,0.89448
420,13.609,3.0909,0,0.00025458,2544,8.7843e-05,45.994,8.1725e-05,0.025299,-0.00025376,-2520.7,0.89454
421,13.609,2.9091,0,0.00025458,2544,8.7843e-05,45.994,8.1725e-05,0.025299,-0.00025376,-2520.7,0.89454
422,13.609,2.7273,0,0.0002543,2541.2,8.7969e-05,48.62,8.15e-05,0.015971,-0.00025344,-2516.6,0.89448
423,13.609,2.5455,0,0.00025374,2535.7,8.8203e-05,53.64,8.1064e-05,0.0020513,-0.00025279,-2508.4,0.89437
424,13.609,2.3636,0,0.00025291,2527.3,8.8505e-05,60.591,8.044e-05,-0.010635,-0.00025182,-2496.5,0.89419
425,13.609,2.1818,0,0.0002518,2516.2,8.8819e-05,68.804,7.966e-05,-0.018317,-0.00025055,-2481.1,0.89396
426,13.609,2,0,0.0002504,2502.3,8.9075e-05,77.438,7.8766e-05,-0.019955,-0.000249,-2462.7,0.89367
427,13.609,1.8182,0,0.00024873,2485.6,8.9194e-05,85.554,7.7805e-05,-0.016433,-0.00024716,-2441.7,0.89332
428,13.609,1.6364,0,0.00024678,2466.1,8.91e-05,92.202,7.6827e-05,-0.0095097,-0.00024508,-2418.7,0.89291
429,13.609,1.4545,0,0.00024458,2444.1,8.8729e-05,96.516,7.5883e-05,-0.0011076,-0.00024279,-2394.4,0.89244
430,13.609,1.2727,0,0.00024215,2419.9,8.8033e-05,97.792,7.5018e-05,0.0072017,-0.00024034,-2369.5,0.89191
431,13.609,1.0909,0,0.00023956,2393.9,8.6987e-05,95.521,7.4276e-05,0.013732,-0.00023779,-2344.7,0.89133
432,13.609,0.90909,0,0.00023685,2366.8,8.5586e-05,89.393,7.3691e-05,0.0184,-0.0002352,-2320.9,0.89068
433,13.609,0.72727,0,0.00023409,2339.3,8.3839e-05,79.262,7.3292e-05,0.013674,-0.00023264,-2298.6,0.88998
434,13.609,0.54545,0,0.00023136,2312,8.1766e-05,65.122,7.3102e-05,0.016946,-0.00023018,-2278.7,0.88923
435,13.609,0.36364,0,0.00022871,2285.6,7.9396e-05,46.995,7.3128e-05,-0.10137,-0.00022788,-2261.8,0.88842
436,13.609,0.18182,0,0.00022625,2260.9,7.678e-05,25.329,7.3395e-05,-0.10743,-0.00022581,-2248.2,0.88756
437,13.425,5.8182,0,0.00023396,2338,7.9164e-05,23.405,7.6036e-05,-0.0931,-0.00023355,-2326.2,0.86648
438,13.425,5.6364,0,0.00023601,2358.4,8.1384e-05,41.959,7.5787e-05,-0.091921,-0.00023527,-2337.2,0.86735
439,13.425,5.4545,0,0.00023821,2380.4,8.3405e-05,57.618,7.5739e-05,0.013527,-0.00023718,-2351.1,0.86816
440,13.425,5.2727,0,0.00024046,2402.9,8.5157e-05,69.804,7.5869e-05,0.012994,-0.00023919,-2367.2,0.86892
441,13.425,5.0909,0,0.00024269,2425.3,8.6614e-05,78.481,7.6171e-05,0.018802,-0.00024126,-2385.1,0.86962
442,13.425,4.9091,0,0.00024487,2447,8.7762e-05,83.68,7.6627e-05,0.016012,-0.00024334,-2404.1,0.87027
443,13.425,4.7273,0,0.00024693,2467.6,8.8598e-05,85.567,7.7211e-05,0.011334,-0.00024536,-2423.6,0.87085
444,13.425,4.5455,0,0.00024883,2486.5,8.9134e-05,84.456,7.7894e-05,0.0049633,-0.00024728,-2443.2,0.87138
445,13.425,4.3636,0,0.00025054,2503.6,8.9397e-05,80.814,7.8641e-05,-0.0016069,-0.00024906,-2462.2,0.87185
446,13.425,4.1818,0,0.00025203,2518.6,8.9431e-05,75.25,7.9415e-05,-0.0071209,-0.00025067,-2480.1,0.87226
447,13.425,4,0,0.00025331,2531.3,8.9292e-05,68.488,8.0175e-05,-0.010148,-0.00025207,-2496.4,0.87261
448,13.425,3.8182,0,0.00025436,2541.8,8.9043e-05,61.307,8.0882e-05,-0.009453,-0.00025326,-2510.6,0.87291
449,13.425,3.6364,0,0.00025519,2550.1,8.875e-05,54.474,8.1499e-05,-0.004459,-0.00025422,-2522.5,0.87314
450,13.425,3.4545,0,0.00025581,2556.3,8.8472e-05,48.682,8.1993e-05,0.0040421,-0.00025494,-2531.6,0.87332
451,13.425,3.2727,0,0.00025621,2560.4,8.8258e-05,44.492,8.2338e-05,0.013406,-0.00025543,-2537.8,0.87343
452,13.425,3.0909,0,0.00025642,2562.4,8.8142e-05,42.296,8.2516e-05,0.019669,-0.00025567,-2541,0.87349
453,13.425,2.9091,0,0.00025642,2562.4,8.8142e-05,42.296,8.2516e-05,0.019668,-0.00025567,-2541,0.87349
454,13.425,2.7273,0,0.00025621,2560.4,8.8258e-05,44.492,8.2338e-05,0.013406,-0.00025543,-2537.8,0.87343
455,13.425,2.5455,0,0.00025581,2556.3,8.8472e-05,48.682,8.1993e-05,0.004042,-0.00025494,-2531.6,0.87332
456,13.425,2.3636,0,0.00025519,2550.1,8.875e-05,54.474,8.1499e-05,-0.0044587,-0.00025422,-2522.5,0.87314
457,13.425,2.1818,0,0.00025436,2541.8,8.9043e-05,61.307,8.0882e-05,-0.0094519,-0.00025326,-2510.6,0.87291
458,13.425,2,0,0.00025331,2531.3,8.9292e-05,68.488,8.0175e-05,-0.010149,-0.00025207,-2496.4,0.87261
459,13.425,1.8182,0,0.00025203,2518.6,8.9431e-05,75.25,7.9415e-05,-0.0071209,-0.00025067,-2480.1,0.87226
460,13.425,1.6364,0,0.00025054,2503.6,8.9397e-05,80.814,7.8641e-05,-0.0016053,-0.00024906,-2462.2,0.87185
461,13.425,1.4545,0,0.00024883,2486.5,8.9134e-05,84.456,7.7894e-05,0.0049635,-0.00024728,-2443.2,0.87138
462,13.425,1.2727,0,0.00024693,2467.6,8.8598e-05,85.567,7.7211e-05,0.011334,-0.00024536,-2423.6,0.87085
463,13.425,1.0909,0,0.00024487,2447,8.7762e-05,83.68,7.6627e-05,0.016013,-0.00024334,-2404.1,0.87027
464,13.425,0.90909,0,0.00024269,2425.3,8.6614e-05,78.481,7.6171e-05,0.018803,-0.00024126,-2385.1,0.86962
465,13.425,0.72727,0,0.00024046,2402.9,8.5157e-05,69.804,7.5869e-05,0.012996,-0.00023919,-2367.2,0.86892
466,13.425,0.54545,0,0.00023821,2380.4,8.3405e-05,57.618,7.5739e-05,0.013529,-0.00023718,-2351.1,0.86816
467,13.425,0.36364,0,0.00023601,2358.4,8.1384e-05,41.959,7.5787e-05,-0.091921,-0.00023527,-2337.2,0.86735
468,13.425,0.18182,0,0.00023396,2338,7.9164e-05,23.405,7.6036e-05,-0.093099,-0.00023355,-2326.2,0.86648
469,13.241,5.8182,0,0.00024112,2409.5,8.1385e-05,21.712,7.8485e-05,-0.077548,-0.00024074,-2398.6,0.84556
470,13.241,5.6364,0,0.00024281,2426.4,8.3253e-05,37.465,7.8256e-05,-0.082333,-0.00024215,-2407.5,0.84643
471,13.241,5.4545,0,0.00024463,2444.6,8.4969e-05,50.925,7.8193e-05,0.010524,-0.00024372,-2418.7,0.84725
472,13.241,5.2727,0,0.00024647,2463,8.6448e-05,61.408,7.8276e-05,0.011829,-0.00024537,-2431.7,0.84801
473,13.241,5.0909,0,0.00024829,2481.2,8.7665e-05,68.862,7.8502e-05,0.0182,-0.00024705,-2446,0.84872
474,13.241,4.9091,0,0.00025003,2498.6,8.861e-05,73.322,7.8853e-05,0.01684,-0.0002487,-2461.1,0.84937
475,13.241,4.7273,0,0.00025166,2514.9,8.9284e-05,74.954,7.931e-05,0.013637,-0.00025031,-2476.6,0.84996
476,13.241,4.5455,0,0.00025315,2529.8,8.9701e-05,74.049,7.9847e-05,0.0088387,-0.00025181,-2492,0.85049
477,13.241,4.3636,0,0.00025448,2543.1,8.9889e-05,71.024,8.0436e-05,0.0037383,-0.0002532,-2506.8,0.85096
478,13.241,4.1818,0,0.00025563,2554.5,8.9885e-05,66.404,8.1047e-05,-0.00065399,-0.00025444,-2520.7,0.85138
479,13.241,4,0,0.0002566,2564.2,8.974e-05,60.795,8.1648e-05,-0.0032606,-0.00025551,-2533.3,0.85173
480,13.241,3.8182,0,0.00025739,2572.1,8.9506e-05,54.84,8.2207e-05,-0.0031968,-0.00025641,-2544.3,0.85203
481,13.241,3.6364,0,0.00025801,2578.3,8.9239e-05,49.174,8.2695e-05,-9.0684e-05,-0.00025713,-2553.3,0.85226
482,13.241,3.4545,0,0.00025846,2582.8,8.8989e-05,44.367,8.3085e-05,0.0054618,-0.00025768,-2560.4,0.85244
483,13.241,3.2727,0,0.00025876,2585.8,8.8798e-05,40.885,8.3358e-05,0.011623,-0.00025804,-2565.1,0.85255
484,13.241,3.0909,0,0.00025891,2587.3,8.8695e-05,39.06,8.3498e-05,0.01574,-0.00025822,-2567.5,0.85261
485,13.241,2.9091,0,0.00025891,2587.3,8.8695e-05,39.06,8.3498e-05,0.01574,-0.00025822,-2567.5,0.85261
486,13.241,2.7273,0,0.00025876,2585.8,8.8798e-05,40.885,8.3358e-05,0.011624,-0.00025804,-2565.1,0.85255
487,13.241,2.5455,0,0.00025846,2582.8,8.8989e-05,44.367,8.3085e-05,0.005461,-0.00025768,-2560.4,0.85244
488,13.241,2.3636,0,0.00025801,2578.3,8.9239e-05,49.174,8.2695e-05,-9.1026e-05,-0.00025713,-2553.3,0.85226
489,13.241,2.1818,0,0.00025739,2572.1,8.9506e-05,54.84,8.2207e-05,-0.0031957,-0.00025641,-2544.3,0.85203
490,13.241,2,0,0.0002566,2564.2,8.974e-05,60.795,8.1648e-05,-0.0032601,-0.00025551,-2533.3,0.85173
491,13.241,1.8182,0,0.00025563,2554.5,8.9885e-05,66.404,8.1047e-05,-0.00065369,-0.00025444,-2520.7,0.85138
492,13.241,1.6364,0,0.00025448,2543.1,8.9889e-05,71.024,8.0436e-05,0.0037394,-0.0002532,-2506.8,0.85096
493,13.241,1.4545,0,0.00025315,2529.8,8.9701e-05,74.049,7.9847e-05,0.008839,-0.00025181,-2492,0.85049
494,13.241,1.2727,0,0.00025166,2514.9,8.9284e-05,74.954,7.931e-05,0.013638,-0.00025031,-2476.6,0.84996
495,13.241,1.0909,0,0.00025003,2498.6,8.861e-05,73.322,7.8853e-05,0.01684,-0.0002487,-2461.1,0.84937
496,13.241,0.90909,0,0.00024829,2481.2,8.7665e-05,68.862,7.8502e-05,0.018201,-0.00024705,-2446,0.84872
497,13.241,0.72727,0,0.00024647,2463,8.6448e-05,61.408,7.8276e-05,0.01183,-0.00024537,-2431.7,0.84801
498,13.241,0.54545,0,0.00024463,2444.6,8.4969e-05,50.925,7.8193e-05,0.010525,-0.00024372,-2418.7,0.84725
499,13.241,0.36364,0,0.0002428,2426.4,8.3253e-05,37.465,7.8256e-05,-0.082332,-0.00024215,-2407.5,0.84643
500,13.241,0.18182,0,0.00024112,2409.5,8.1385e-05,21.712,7.8485e-05,-0.077548,-0.00024074,-2398.6,0.84556
501,13.057,5.8182,0,0.00024784,2476.7,8.3478e-05,20.227,8.0778e-05,-0.062581,-0.00024749,-2466.5,0.82479
502,13.057,5.6364,0,0.00024921,2490.4,8.5035e-05,33.486,8.0569e-05,-0.073018,-0.00024862,-2473.5,0.82568
503,13.057,5.4545,0,0.00025071,2505.4,8.6485e-05,44.997,8.0497e-05,0.0080039,-0.00024992,-2482.6,0.82651
504,13.057,5.2727,0,0.00025222,2520.5,8.773e-05,53.988,8.0546e-05,0.010494,-0.00025126,-2493.1,0.82728
505,13.057,5.0909,0,0.00025369,2535.2,8.8747e-05,60.393,8.0711e-05,0.017066,-0.00025261,-2504.5,0.82799
506,13.057,4.9091,0,0.00025509,2549.2,8.9528e-05,64.242,8.098e-05,0.01677,-0.00025394,-2516.4,0.82864
507,13.057,4.7273,0,0.00025639,2562.1,9.0074e-05,65.687,8.1334e-05,0.014723,-0.00025521,-2528.6,0.82924
508,13.057,4.5455,0,0.00025755,2573.8,9.0402e-05,64.989,8.1754e-05,0.011176,-0.00025639,-2540.7,0.82977
509,13.057,4.3636,0,0.00025858,2584,9.0536e-05,62.51,8.2218e-05,0.0072459,-0.00025746,-2552.2,0.83025
510,13.057,4.1818,0,0.00025946,2592.8,9.0511e-05,58.701,8.2699e-05,0.0037404,-0.00025841,-2563,0.83066
511,13.057,4,0,0.0002602,2600.2,9.0369e-05,54.068,8.3173e-05,0.0014928,-0.00025923,-2572.7,0.83102
512,13.057,3.8182,0,0.00026079,2606.1,9.0155e-05,49.147,8.3614e-05,0.0011399,-0.00025992,-2581.2,0.83132
513,13.057,3.6364,0,0.00026125,2610.6,8.9917e-05,44.463,8.3999e-05,0.0029311,-0.00026046,-2588.1,0.83155
514,13.057,3.4545,0,0.00026158,2614,8.9695e-05,40.486,8.4308e-05,0.0064359,-0.00026087,-2593.5,0.83173
515,13.057,3.2727,0,0.00026179,2616.1,8.9527e-05,37.605,8.4523e-05,0.01039,-0.00026113,-2597.1,0.83185
516,13.057,3.0909,0,0.0002619,2617.2,8.9436e-05,36.093,8.4634e-05,0.013037,-0.00026127,-2599,0.83191
517,13.057,2.9091,0,0.0002619,2617.2,8.9436e-05,36.093,8.4634e-05,0.013037,-0.00026127,-2599,0.83191
518,13.057,2.7273,0,0.00026179,2616.1,8.9527e-05,37.605,8.4523e-05,0.01039,-0.00026113,-2597.1,0.83185
519,13.057,2.5455,0,0.00026158,2614,8.9695e-05,40.486,8.4308e-05,0.0064355,-0.00026087,-2593.5,0.83173
520,13.057,2.3636,0,0.00026124,2610.6,8.9917e-05,44.463,8.3999e-05,0.0029309,-0.00026046,-2588.1,0.83155
521,13.057,2.1818,0,0.00026079,2606.1,9.0155e-05,49.147,8.3614e-05,0.0011396,-0.00025992,-2581.2,0.83132
522,13.057,2,0,0.0002602,2600.2,9.0369e-05,54.068,8.3173e-05,0.0014923,-0.00025923,-2572.7,0.83102
523,13.057,1.8182,0,0.00025946,2592.8,9.0511e-05,58.701,8.2699e-05,0.0037414,-0.00025841,-2563,0.83066
524,13.057,1.6364,0,0.00025858,2584,9.0536e-05,62.51,8.2218e-05,0.0072459,-0.00025746,-2552.2,0.83025
525,13.057,1.4545,0,0.00025755,2573.8,9.0402e-05,64.989,8.1754e-05,0.011177,-0.00025639,-2540.7,0.82977
526,13.057,1.2727,0,0.00025639,2562.1,9.0074e-05,65.687,8.1334e-05,0.014724,-0.00025521,-2528.6,0.82924
527,13.057,1.0909,0,0.00025509,2549.2,8.9527e-05,64.242,8.098e-05,0.016771,-0.00025394,-2516.4,0.82864
528,13.057,0.90909,0,0.00025369,2535.2,8.8747e-05,60.393,8.0711e-05,0.017068,-0.00025261,-2504.5,0.82799
529,13.057,0.72727,0,0.00025222,2520.5,8.773e-05,53.988,8.0546e-05,0.010495,-0.00025126,-2493.1,0.82728
530,13.057,0.54545,0,0.00025071,2505.4,8.6485e-05,44.997,8.0497e-05,0.0080036,-0.00024992,-2482.6,0.82651
531,13.057,0.36364,0,0.00024921,2490.4,8.5035e-05,33.486,8.0569e-05,-0.073018,-0.00024862,-2473.5,0.82568
532,13.057,0.18182,0,0.00024784,2476.7,8.3478e-05,20.227,8.0778e-05,-0.06258,-0.00024749,-2466.5,0.82479
533,12.874,5.8182,0,0.00025421,2540.3,8.547e-05,18.92,8.2945e-05,-0.049247,-0.00025388,-2530.8,0.8042
534,12.874,5.6364,0,0.00025531,2551.3,8.6755e-05,29.98,8.2757e-05,-0.064323,-0.00025479,-2536.2,0.80509
535,12.874,5.4545,0,0.00025654,2563.6,8.7974e-05,39.769,8.2681e-05,0.005865,-0.00025584,-2543.5,0.80593
536,12.874,5.2727,0,0.00025777,2575.9,8.9018e-05,47.448,8.2704e-05,0.0090721,-0.00025693,-2551.9,0.80671
537,12.874,5.0909,0,0.00025896,2587.8,8.9866e-05,52.939,8.2823e-05,0.015597,-0.00025802,-2560.9,0.80743
538,12.874,4.9091,0,0.00026008,2599,9.0511e-05,56.264,8.3025e-05,0.016072,-0.00025908,-2570.4,0.80809
539,12.874,4.7273,0,0.0002611,2609.2,9.0957e-05,57.554,8.3299e-05,0.01491,-0.00026008,-2580,0.80869
540,12.874,4.5455,0,0.00026202,2618.4,9.1216e-05,57.039,8.3626e-05,0.012348,-0.000261,-2589.4,0.80923
541,12.874,4.3636,0,0.00026281,2626.3,9.1312e-05,55.028,8.3989e-05,0.0093376,-0.00026183,-2598.4,0.80971
542,12.874,4.1818,0,0.00026349,2633,9.1274e-05,51.904,8.4367e-05,0.0065382,-0.00026256,-2606.7,0.81013
543,12.874,4,0,0.00026404,2638.6,9.114e-05,48.092,8.474e-05,0.0045949,-0.00026319,-2614.2,0.81049
544,12.874,3.8182,0,0.00026448,2643,9.0949e-05,44.037,8.5088e-05,0.0039829,-0.0002637,-2620.7,0.81079
545,12.874,3.6364,0,0.00026482,2646.3,9.0738e-05,40.174,8.5392e-05,0.0048808,-0.00026411,-2626,0.81103
546,12.874,3.4545,0,0.00026506,2648.7,9.0545e-05,36.893,8.5635e-05,0.0069849,-0.00026441,-2630.1,0.8112
547,12.874,3.2727,0,0.00026521,2650.3,9.0398e-05,34.515,8.5805e-05,0.009444,-0.00026461,-2632.9,0.81132
548,12.874,3.0909,0,0.00026529,2651,9.0319e-05,33.268,8.5893e-05,0.011104,-0.00026471,-2634.3,0.81138
549,12.874,2.9091,0,0.00026529,2651,9.0319e-05,33.268,8.5893e-05,0.011105,-0.00026471,-2634.3,0.81138
550,12.874,2.7273,0,0.00026521,2650.3,9.0398e-05,34.515,8.5805e-05,0.0094437,-0.00026461,-2632.9,0.81132
551,12.874,2.5455,0,0.00026506,2648.7,9.0545e-05,36.893,8.5635e-05,0.0069852,-0.00026441,-2630.1,0.8112
552,12.874,2.3636,0,0.00026482,2646.3,9.0738e-05,40.174,8.5392e-05,0.0048811,-0.00026411,-2626,0.81103
553,12.874,2.1818,0,0.00026448,2643,9.0949e-05,44.037,8.5088e-05,0.0039834,-0.0002637,-2620.7,0.81079
554,12.874,2,0,0.00026404,2638.6,9.114e-05,48.092,8.474e-05,0.0045949,-0.00026319,-2614.2,0.81049
555,12.874,1.8182,0,0.00026349,2633,9.1274e-05,51.904,8.4367e-05,0.0065389,-0.00026256,-2606.7,0.81013
556,12.874,1.6364,0,0.00026281,2626.3,9.1312e-05,55.028,8.3989e-05,0.0093381,-0.00026183,-2598.4,0.80971
557,12.874,1.4545,0,0.00026202,2618.4,9.1216e-05,57.039,8.3626e-05,0.012348,-0.000261,-2589.4,0.80923
558,12.874,1.2727,0,0.0002611,2609.2,9.0957e-05,57.554,8.3299e-05,0.01491,-0.00026008,-2580,0.80869
559,12.874,1.0909,0,0.00026008,2599,9.0511e-05,56.264,8.3025e-05,0.016072,-0.00025908,-2570.4,0.80809
560,12.874,0.90909,0,0.00025896,2587.8,8.9866e-05,52.939,8.2823e-05,0.015598,-0.00025802,-2560.9,0.80743
561,12.874,0.72727,0,0.00025777,2575.9,8.9018e-05,47.448,8.2704e-05,0.0090727,-0.00025693,-2551.9,0.80671
562,12.874,0.54545,0,0.00025654,2563.6,8.7974e-05,39.769,8.2681e-05,0.0058665,-0.00025584,-2543.5,0.80593
563,12.874,0.36364,0,0.00025531,2551.3,8.6755e-05,29.98,8.2757e-05,-0.064323,-0.00025479,-2536.2,0.80509
564,12.874,0.18182,0,0.00025421,2540.3,8.547e-05,18.92,8.2945e-05,-0.049246,-0.00025388,-2530.8,0.8042
565,12.69,5.8182,0,0.00026029,2601.1,8.7381e-05,17.766,8.5012e-05,-0.037886,-0.00025999,-2592.2,0.78378
566,12.69,5.6364,0,0.00026116,2609.8,8.8431e-05,26.896,8.4844e-05,-0.05632,-0.0002607,-2596.3,0.78468
567,12.69,5.4545,0,0.00026217,2619.9,8.9448e-05,35.168,8.4768e-05,0.0041241,-0.00026155,-2602.1,0.78553
568,12.69,5.2727,0,0.00026317,2629.9,9.032e-05,41.689,8.4773e-05,0.0077155,-0.00026243,-2608.8,0.78631
569,12.69,5.0909,0,0.00026412,2639.4,9.1025e-05,46.372,8.4855e-05,0.014025,-0.0002633,-2615.9,0.78704
570,12.69,4.9091,0,0.00026502,2648.3,9.1557e-05,49.233,8.5006e-05,0.015042,-0.00026414,-2623.4,0.78771
571,12.69,4.7273,0,0.00026582,2656.4,9.1919e-05,50.382,8.5216e-05,0.014544,-0.00026493,-2630.9,0.78831
572,12.69,4.5455,0,0.00026654,2663.5,9.2124e-05,50.012,8.547e-05,0.012749,-0.00026565,-2638.2,0.78886
573,12.69,4.3636,0,0.00026715,2669.7,9.2192e-05,48.389,8.5753e-05,0.010464,-0.00026629,-2645.1,0.78934
574,12.69,4.1818,0,0.00026766,2674.8,9.2148e-05,45.834,8.6049e-05,0.0082267,-0.00026685,-2651.6,0.78977
575,12.69,4,0,0.00026808,2678.9,9.2025e-05,42.704,8.6343e-05,0.0065486,-0.00026733,-2657.3,0.79013
576,12.69,3.8182,0,0.0002684,2682.2,9.1855e-05,39.369,8.6616e-05,0.0057932,-0.00026771,-2662.3,0.79043
577,12.69,3.6364,0,0.00026865,2684.6,9.1671e-05,36.188,8.6856e-05,0.0061008,-0.00026801,-2666.3,0.79067
578,12.69,3.4545,0,0.00026882,2686.3,9.1503e-05,33.486,8.7048e-05,0.0072693,-0.00026824,-2669.4,0.79086
579,12.69,3.2727,0,0.00026893,2687.5,9.1376e-05,31.526,8.7182e-05,0.0087332,-0.00026838,-2671.5,0.79098
580,12.69,3.0909,0,0.00026898,2688,9.1308e-05,30.498,8.7251e-05,0.0097405,-0.00026845,-2672.6,0.79104
581,12.69,2.9091,0,0.00026898,2688,9.1308e-05,30.498,8.7251e-05,0.0097405,-0.00026845,-2672.6,0.79104
582,12.69,2.7273,0,0.00026893,2687.5,9.1376e-05,31.526,8.7182e-05,0.0087334,-0.00026838,-2671.5,0.79098
583,12.69,2.5455,0,0.00026882,2686.3,9.1503e-05,33.486,8.7048e-05,0.0072692,-0.00026824,-2669.4,0.79086
584,12.69,2.3636,0,0.00026865,2684.6,9.1671e-05,36.188,8.6856e-05,0.0061005,-0.00026801,-2666.3,0.79067
585,12.69,2.1818,0,0.0002684,2682.2,9.1855e-05,39.369,8.6616e-05,0.0057932,-0.00026771,-2662.3,0.79043
586,12.69,2,0,0.00026808,2678.9,9.2025e-05,42.704,8.6343e-05,0.0065492,-0.00026733,-2657.3,0.79013
587,12.69,1.8182,0,0.00026766,2674.8,9.2148e-05,45.834,8.6049e-05,0.008227,-0.00026685,-2651.6,0.78977
588,12.69,1.6364,0,0.00026715,2669.7,9.2192e-05,48.389,8.5753e-05,0.010465,-0.00026629,-2645.1,0.78934
589,12.69,1.4545,0,0.00026654,2663.5,9.2124e-05,50.012,8.547e-05,0.012749,-0.00026565,-2638.2,0.78886
590,12.69,1.2727,0,0.00026582,2656.4,9.1919e-05,50.382,8.5216e-05,0.014545,-0.00026493,-2630.9,0.78831
591,12.69,1.0909,0,0.00026502,2648.3,9.1557e-05,49.233,8.5006e-05,0.015042,-0.00026414,-2623.4,0.78771
592,12.69,0.90909,0,0.00026412,2639.4,9.1025e-05,46.372,8.4855e-05,0.014026,-0.0002633,-2615.9,0.78704
593,12.69,0.72727,0,0.00026317,2629.9,9.032e-05,41.689,8.4773e-05,0.0077165,-0.00026243,-2608.8,0.78631
594,12.69,0.54545,0,0.00026217,2619.9,8.9448e-05,35.168,8.4768e-05,0.0041246,-0.00026155,-2602.1,0.78553
595,12.69,0.36364,0,0.00026116,2609.8,8.8431e-05,26.896,8.4843e-05,-0.05632,-0.0002607,-2596.3,0.78468
596,12.69,0.18182,0,0.00026029,2601.1,8.7381e-05,17.766,8.5012e-05,-0.037886,-0.00025999,-2592.2,0.78378
597,12.506,5.8182,0,0.00026616,2659.8,8.9231e-05,16.74,8.6999e-05,-0.028589,-0.00026587,-2651.4,0.76353
598,12.506,5.6364,0,0.00026683,2666.5,9.0075e-05,24.182,8.685e-05,-0.049099,-0.00026641,-2654.3,0.76444
599,12.506,5.4545,0,0.00026764,2674.6,9.0918e-05,31.118,8.6777e-05,0.002683,-0.0002671,-2658.9,0.7653
600,12.506,5.2727,0,0.00026845,2682.6,9.1641e-05,36.613,8.6769e-05,0.0064272,-0.00026781,-2664.1,0.76609
601,12.506,5.0909,0,0.00026921,2690.3,9.2223e-05,40.577,8.6824e-05,0.012412,-0.0002685,-2669.8,0.76683
602,12.506,4.9091,0,0.00026992,2697.4,9.2659e-05,43.015,8.6936e-05,0.013792,-0.00026916,-2675.6,0.7675
603,12.506,4.7273,0,0.00027056,2703.7,9.2952e-05,44.02,8.7096e-05,0.013787,-0.00026978,-2681.4,0.76812
604,12.506,4.5455,0,0.00027111,2709.2,9.3113e-05,43.755,8.7292e-05,0.012582,-0.00027034,-2687.1,0.76867
605,12.506,4.3636,0,0.00027158,2713.9,9.3159e-05,42.442,8.7512e-05,0.010866,-0.00027083,-2692.5,0.76916
606,12.506,4.1818,0,0.00027197,2717.8,9.3113e-05,40.35,8.7744e-05,0.009082,-0.00027126,-2697.4,0.76959
607,12.506,4,0,0.00027228,2720.9,9.3001e-05,37.778,8.7974e-05,0.0076374,-0.00027161,-2701.8,0.76995
608,12.506,3.8182,0,0.00027251,2723.2,9.2851e-05,35.034,8.8189e-05,0.0068241,-0.0002719,-2705.6,0.77026
609,12.506,3.6364,0,0.00027269,2725,9.269e-05,32.415,8.8377e-05,0.0067574,-0.00027212,-2708.6,0.7705
610,12.506,3.4545,0,0.00027281,2726.2,9.2545e-05,30.189,8.8528e-05,0.0073178,-0.00027228,-2711,0.77069
611,12.506,3.2727,0,0.00027289,2727,9.2436e-05,28.575,8.8634e-05,0.008131,-0.00027239,-2712.6,0.77081
612,12.506,3.0909,0,0.00027292,2727.3,9.2377e-05,27.728,8.8688e-05,0.008715,-0.00027244,-2713.4,0.77087
613,12.506,2.9091,0,0.00027292,2727.3,9.2377e-05,27.728,8.8688e-05,0.0087144,-0.00027244,-2713.4,0.77087
614,12.506,2.7273,0,0.00027289,2727,9.2436e-05,28.575,8.8634e-05,0.0081319,-0.00027239,-2712.6,0.77081
615,12.506,2.5455,0,0.00027281,2726.2,9.2545e-05,30.189,8.8528e-05,0.0073165,-0.00027228,-2711,0.77069
616,12.506,2.3636,0,0.00027269,2725,9.269e-05,32.415,8.8377e-05,0.0067584,-0.00027212,-2708.6,0.7705
617,12.506,2.1818,0,0.00027251,2723.2,9.2851e-05,35.034,8.8189e-05,0.0068243,-0.0002719,-2705.6,0.77026
618,12.506,2,0,0.00027228,2720.9,9.3001e-05,37.778,8.7974e-05,0.0076383,-0.00027161,-2701.8,0.76995
619,12.506,1.8182,0,0.00027197,2717.8,9.3113e-05,40.35,8.7744e-05,0.0090818,-0.00027126,-2697.4,0.76959
620,12.506,1.6364,0,0.00027158,2713.9,9.3159e-05,42.442,8.7512e-05,0.010867,-0.00027083,-2692.5,0.76916
621,12.506,1.4545,0,0.00027111,2709.2,9.3113e-05,43.755,8.7292e-05,0.012583,-0.00027034,-2687.1,0.76867
622,12.506,1.2727,0,0.00027056,2703.7,9.2952e-05,44.02,8.7096e-05,0.013787,-0.00026978,-2681.4,0.76812
623,12.506,1.0909,0,0.00026992,2697.4,9.2659e-05,43.015,8.6936e-05,0.013793,-0.00026916,-2675.6,0.7675
624,12.506,0.90909,0,0.00026921,2690.3,9.2223e-05,40.577,8.6824e-05,0.012413,-0.0002685,-2669.8,0.76683
625,12.506,0.72727,0,0.00026845,2682.6,9.1641e-05,36.613,8.6769e-05,0.006429,-0.00026781,-2664.1,0.76609
626,12.506,0.54545,0,0.00026764,2674.6,9.0918e-05,31.118,8.6777e-05,0.0026839,-0.0002671,-2658.9,0.7653
627,12.506,0.36364,0,0.00026683,2666.5,9.0075e-05,24.182,8.685e-05,-0.049099,-0.00026641,-2654.3,0.76444
628,12.506,0.18182,0,0.00026616,2659.8,8.9231e-05,16.74,8.6999e-05,-0.028588,-0.00026587,-2651.4,0.76353
629,12.322,5.8182,0,0.00027185,2716.6,9.1033e-05,15.82,8.8925e-05,-0.021193,-0.00027158,-2708.7,0.74346
630,12.322,5.6364,0,0.00027236,2721.7,9.1699e-05,21.789,8.8793e-05,-0.04263,-0.00027198,-2710.8,0.74439
631,12.322,5.4545,0,0.00027301,2728.2,9.2391e-05,27.547,8.8724e-05,0.0015099,-0.00027253,-2714.3,0.74525
632,12.322,5.2727,0,0.00027365,2734.6,9.2984e-05,32.13,8.8708e-05,0.0052479,-0.00027309,-2718.4,0.74606
633,12.322,5.0909,0,0.00027426,2740.7,9.346e-05,35.444,8.8744e-05,0.010842,-0.00027364,-2722.8,0.7468
634,12.322,4.9091,0,0.00027481,2746.2,9.3814e-05,37.49,8.8826e-05,0.012451,-0.00027415,-2727.3,0.74748
635,12.322,4.7273,0,0.00027531,2751.2,9.4048e-05,38.343,8.8946e-05,0.012798,-0.00027463,-2731.8,0.7481
636,12.322,4.5455,0,0.00027573,2755.4,9.4171e-05,38.139,8.9097e-05,0.012047,-0.00027506,-2736.1,0.74866
637,12.322,4.3636,0,0.00027609,2759,9.4199e-05,37.062,8.9268e-05,0.010778,-0.00027544,-2740.2,0.74916
638,12.322,4.1818,0,0.00027638,2761.9,9.4151e-05,35.339,8.9449e-05,0.0093597,-0.00027576,-2744,0.74959
639,12.322,4,0,0.0002766,2764.1,9.4049e-05,33.217,8.9629e-05,0.0081268,-0.00027602,-2747.3,0.74996
640,12.322,3.8182,0,0.00027677,2765.8,9.3916e-05,30.952,8.9798e-05,0.0073129,-0.00027623,-2750.2,0.75027
641,12.322,3.6364,0,0.00027689,2767,9.3776e-05,28.79,8.9946e-05,0.0070271,-0.00027639,-2752.5,0.75052
642,12.322,3.4545,0,0.00027698,2767.9,9.3651e-05,26.952,9.0064e-05,0.0072014,-0.00027651,-2754.3,0.7507
643,12.322,3.2727,0,0.00027703,2768.4,9.3556e-05,25.62,9.0148e-05,0.0076028,-0.00027658,-2755.5,0.75083
644,12.322,3.0909,0,0.00027705,2768.6,9.3506e-05,24.921,9.019e-05,0.0079155,-0.00027662,-2756.1,0.75089
645,12.322,2.9091,0,0.00027705,2768.6,9.3506e-05,24.921,9.019e-05,0.007916,-0.00027662,-2756.1,0.75089
646,12.322,2.7273,0,0.00027703,2768.4,9.3556e-05,25.62,9.0148e-05,0.0076025,-0.00027658,-2755.5,0.75083
647,12.322,2.5455,0,0.00027698,2767.9,9.3651e-05,26.952,9.0064e-05,0.0072022,-0.00027651,-2754.3,0.7507
648,12.322,2.3636,0,0.00027689,2767,9.3776e-05,28.79,8.9946e-05,0.0070265,-0.00027639,-2752.5,0.75052
649,12.322,2.1818,0,0.00027677,2765.8,9.3916e-05,30.952,8.9798e-05,0.0073135,-0.00027623,-2750.2,0.75027
650,12.322,2,0,0.0002766,2764.1,9.4049e-05,33.217,8.9629e-05,0.0081259,-0.00027602,-2747.3,0.74996
651,12.322,1.8182,0,0.00027638,2761.9,9.4151e-05,35.339,8.9449e-05,0.0093599,-0.00027576,-2744,0.74959
652,12.322,1.6364,0,0.00027609,2759,9.4199e-05,37.062,8.9268e-05,0.010778,-0.00027544,-2740.2,0.74916
653,12.322,1.4545,0,0.00027573,2755.4,9.4171e-05,38.139,8.9097e-05,0.012048,-0.00027506,-2736.1,0.74866
654,12.322,1.2727,0,0.00027531,2751.2,9.4048e-05,38.343,8.8946e-05,0.012799,-0.00027463,-2731.8,0.7481
655,12.322,1.0909,0,0.00027481,2746.2,9.3814e-05,37.49,8.8826e-05,0.012452,-0.00027415,-2727.3,0.74748
656,12.322,0.90909,0,0.00027426,2740.7,9.346e-05,35.444,8.8744e-05,0.010843,-0.00027364,-2722.8,0.7468
657,12.322,0.72727,0,0.00027365,2734.6,9.2984e-05,32.129,8.8708e-05,0.0052486,-0.00027309,-2718.4,0.74606
658,12.322,0.54545,0,0.00027301,2728.2,9.2391e-05,27.547,8.8724e-05,0.0015102,-0.00027253,-2714.3,0.74525
659,12.322,0.36364,0,0.00027236,2721.7,9.1699e-05,21.789,8.8793e-05,-0.04263,-0.00027198,-2710.8,0.74439
660,12.322,0.18182,0,0.00027185,2716.6,9.1033e-05,15.82,8.8925e-05,-0.021191,-0.00027158,-2708.7,0.74346
661,12.138,5.8182,0,0.00027741,2772.2,9.2798e-05,14.987,9.0801e-05,-0.015365,-0.00027715,-2764.7,0.72358
662,12.138,5.6364,0,0.00027777,2775.8,9.3309e-05,19.668,9.0687e-05,-0.036765,-0.00027744,-2766,0.72451
663,12.138,5.4545,0,0.00027828,2780.9,9.3869e-05,24.385,9.0623e-05,0.00065848,-0.00027786,-2768.7,0.72539
664,12.138,5.2727,0,0.00027879,2786,9.4349e-05,28.152,9.0603e-05,0.0042841,-0.0002783,-2771.8,0.7262
665,12.138,5.0909,0,0.00027926,2790.7,9.4732e-05,30.875,9.0624e-05,0.0094532,-0.00027873,-2775.1,0.72696
666,12.138,4.9091,0,0.0002797,2795,9.5014e-05,32.552,9.0683e-05,0.011189,-0.00027913,-2778.6,0.72765
667,12.138,4.7273,0,0.00028007,2798.8,9.5197e-05,33.241,9.0774e-05,0.011784,-0.00027949,-2782,0.72827
668,12.138,4.5455,0,0.0002804,2802,9.5288e-05,33.055,9.089e-05,0.011378,-0.00027982,-2785.4,0.72884
669,12.138,4.3636,0,0.00028066,2804.7,9.53e-05,32.149,9.1022e-05,0.01046,-0.0002801,-2788.5,0.72934
670,12.138,4.1818,0,0.00028087,2806.8,9.5249e-05,30.708,9.1163e-05,0.0093397,-0.00028034,-2791.3,0.72978
671,12.138,4,0,0.00028103,2808.4,9.5155e-05,28.941,9.1304e-05,0.0082953,-0.00028053,-2793.8,0.73016
672,12.138,3.8182,0,0.00028115,2809.6,9.5037e-05,27.057,9.1437e-05,0.0075224,-0.00028068,-2795.9,0.73047
673,12.138,3.6364,0,0.00028123,2810.4,9.4914e-05,25.261,9.1553e-05,0.0071209,-0.00028079,-2797.7,0.73072
674,12.138,3.4545,0,0.00028129,2810.9,9.4805e-05,23.737,9.1647e-05,0.0070661,-0.00028087,-2799,0.73091
675,12.138,3.2727,0,0.00028132,2811.2,9.4723e-05,22.632,9.1712e-05,0.0072109,-0.00028093,-2799.8,0.73103
676,12.138,3.0909,0,0.00028133,2811.4,9.468e-05,22.052,9.1746e-05,0.0073562,-0.00028095,-2800.3,0.7311
677,12.138,2.9091,0,0.00028133,2811.4,9.468e-05,22.052,9.1746e-05,0.0073564,-0.00028095,-2800.3,0.7311
678,12.138,2.7273,0,0.00028132,2811.2,9.4723e-05,22.632,9.1712e-05,0.0072111,-0.00028093,-2799.8,0.73103
679,12.138,2.5455,0,0.00028129,2810.9,9.4805e-05,23.737,9.1647e-05,0.0070662,-0.00028087,-2799,0.73091
680,12.138,2.3636,0,0.00028123,2810.4,9.4914e-05,25.261,9.1553e-05,0.0071214,-0.00028079,-2797.7,0.73072
681,12.138,2.1818,0,0.00028115,2809.6,9.5037e-05,27.057,9.1437e-05,0.0075223,-0.00028068,-2795.9,0.73047
682,12.138,2,0,0.00028103,2808.4,9.5155e-05,28.941,9.1304e-05,0.0082959,-0.00028053,-2793.8,0.73016
683,12.138,1.8182,0,0.00028087,2806.8,9.5249e-05,30.708,9.1163e-05,0.0093407,-0.00028034,-2791.3,0.72978
684,12.138,1.6364,0,0.00028066,2804.7,9.53e-05,32.149,9.1022e-05,0.01046,-0.0002801,-2788.5,0.72934
685,12.138,1.4545,0,0.0002804,2802,9.5288e-05,33.055,9.089e-05,0.011378,-0.00027982,-2785.4,0.72884
686,12.138,1.2727,0,0.00028007,2798.8,9.5197e-05,33.241,9.0774e-05,0.011785,-0.00027949,-2782,0.72827
687,12.138,1.0909,0,0.0002797,2795,9.5014e-05,32.552,9.0683e-05,0.011189,-0.00027913,-2778.6,0.72765
688,12.138,0.90909,0,0.00027926,2790.7,9.4732e-05,30.875,9.0624e-05,0.009454,-0.00027873,-2775.1,0.72696
689,12.138,0.72727,0,0.00027879,2786,9.4349e-05,28.152,9.0603e-05,0.0042856,-0.0002783,-2771.8,0.7262
690,12.138,0.54545,0,0.00027828,2780.9,9.3869e-05,24.385,9.0623e-05,0.00065914,-0.00027786,-2768.7,0.72539
691,12.138,0.36364,0,0.00027777,2775.8,9.3309e-05,19.668,9.0687e-05,-0.036764,-0.00027744,-2766,0.72451
692,12.138,0.18182,0,0.00027741,2772.2,9.2798e-05,14.987,9.0801e-05,-0.015364,-0.00027715,-2764.7,0.72358
693,11.954,5.8182,0,0.00028287,2826.7,9.4535e-05,14.223,9.264e-05,-0.010923,-0.00028262,-2819.6,0.70388
694,11.954,5.6364,0,0.00028311,2829.1,9.4911e-05,17.776,9.2541e-05,-0.031516,-0.0002828,-2820.2,0.70483
695,11.954,5.4545,0,0.0002835,2833,9.5355e-05,21.569,9.2485e-05,1.1669e-05,-0.00028313,-2822.2,0.70571
696,11.954,5.2727,0,0.00028389,2836.9,9.5736e-05,24.602,9.2462e-05,0.0034568,-0.00028346,-2824.5,0.70654
697,11.954,5.0909,0,0.00028425,2840.6,9.6038e-05,26.783,9.2474e-05,0.0081844,-0.00028379,-2827.1,0.7073
698,11.954,4.9091,0,0.00028458,2843.8,9.6256e-05,28.105,9.2517e-05,0.0099735,-0.00028409,-2829.7,0.708
699,11.954,4.7273,0,0.00028486,2846.7,9.6392e-05,28.617,9.2585e-05,0.010735,-0.00028437,-2832.3,0.70863
700,11.954,4.5455,0,0.0002851,2849.1,9.6454e-05,28.41,9.2674e-05,0.010589,-0.00028461,-2834.7,0.70921
701,11.954,4.3636,0,0.00028529,2851,9.6451e-05,27.614,9.2777e-05,0.0099468,-0.00028481,-2837.1,0.70971
702,11.954,4.1818,0,0.00028544,2852.4,9.6397e-05,26.381,9.2887e-05,0.0090716,-0.00028498,-2839.2,0.71016
703,11.954,4,0,0.00028555,2853.5,9.6308e-05,24.884,9.2997e-05,0.0081958,-0.00028512,-2841,0.71054
704,11.954,3.8182,0,0.00028563,2854.3,9.6201e-05,23.298,9.3101e-05,0.0074858,-0.00028522,-2842.6,0.71086
705,11.954,3.6364,0,0.00028568,2854.8,9.6092e-05,21.791,9.3193e-05,0.0070389,-0.0002853,-2843.8,0.71111
706,11.954,3.4545,0,0.00028571,2855.1,9.5996e-05,20.514,9.3266e-05,0.0068562,-0.00028535,-2844.8,0.7113
707,11.954,3.2727,0,0.00028573,2855.3,9.5924e-05,19.589,9.3318e-05,0.0068499,-0.00028539,-2845.4,0.71143
708,11.954,3.0909,0,0.00028573,2855.4,9.5886e-05,19.105,9.3345e-05,0.0068942,-0.0002854,-2845.8,0.71149
709,11.954,2.9091,0,0.00028573,2855.4,9.5886e-05,19.105,9.3345e-05,0.0068942,-0.0002854,-2845.8,0.71149
710,11.954,2.7273,0,0.00028573,2855.3,9.5924e-05,19.589,9.3318e-05,0.0068503,-0.00028539,-2845.4,0.71143
711,11.954,2.5455,0,0.00028571,2855.1,9.5996e-05,20.514,9.3266e-05,0.006856,-0.00028535,-2844.8,0.7113
712,11.954,2.3636,0,0.00028568,2854.8,9.6092e-05,21.791,9.3193e-05,0.0070388,-0.0002853,-2843.8,0.71111
713,11.954,2.1818,0,0.00028563,2854.3,9.6201e-05,23.298,9.3101e-05,0.0074864,-0.00028522,-2842.6,0.71086
714,11.954,2,0,0.00028555,2853.5,9.6308e-05,24.884,9.2997e-05,0.0081958,-0.00028512,-2841,0.71054
715,11.954,1.8182,0,0.00028544,2852.4,9.6397e-05,26.381,9.2887e-05,0.0090723,-0.00028498,-2839.2,0.71016
716,11.954,1.6364,0,0.00028529,2851,9.6451e-05,27.614,9.2777e-05,0.0099474,-0.00028481,-2837.1,0.70971
717,11.954,1.4545,0,0.0002851,2849.1,9.6454e-05,28.41,9.2674e-05,0.010589,-0.00028461,-2834.7,0.70921
718,11.954,1.2727,0,0.00028486,2846.7,9.6392e-05,28.617,9.2585e-05,0.010735,-0.00028437,-2832.3,0.70863
719,11.954,1.0909,0,0.00028458,2843.8,9.6256e-05,28.105,9.2517e-05,0.0099739,-0.00028409,-2829.7,0.708
720,11.954,0.90909,0,0.00028425,2840.6,9.6038e-05,26.783,9.2474e-05,0.0081863,-0.00028379,-2827.1,0.7073
721,11.954,0.72727,0,0.00028389,2836.9,9.5736e-05,24.602,9.2462e-05,0.0034584,-0.00028346,-2824.5,0.70654
722,11.954,0.54545,0,0.0002835,2833,9.5355e-05,21.569,9.2485e-05,1.2451e-05,-0.00028313,-2822.2,0.70571
723,11.954,0.36364,0,0.00028311,2829.1,9.4911e-05,17.776,9.2541e-05,-0.031516,-0.0002828,-2820.2,0.70483
724,11.954,0.18182,0,0.00028287,2826.7,9.4535e-05,14.223,9.264e-05,-0.010923,-0.00028262,-2819.6,0.70388
725,11.77,5.8182,0,0.00028825,2880.5,9.625e-05,13.513,9.4451e-05,-0.0075688,-0.00028801,-2873.7,0.68437
726,11.77,5.6364,0,0.00028838,2881.8,9.651e-05,16.073,9.4367e-05,-0.026756,-0.00028811,-2873.8,0.68533
727,11.77,5.4545,0,0.00028867,2884.7,9.6852e-05,19.043,9.4317e-05,-0.00040715,-0.00028834,-2875.2,0.68623
728,11.77,5.2727,0,0.00028896,2887.6,9.7144e-05,21.41,9.4295e-05,0.0028149,-0.00028859,-2876.9,0.68707
729,11.77,5.0909,0,0.00028923,2890.3,9.7373e-05,23.087,9.4301e-05,0.0071005,-0.00028883,-2878.7,0.68784
730,11.77,4.9091,0,0.00028947,2892.7,9.7534e-05,24.067,9.4332e-05,0.0088861,-0.00028906,-2880.6,0.68854
731,11.77,4.7273,0,0.00028968,2894.8,9.7628e-05,24.387,9.4384e-05,0.0097529,-0.00028925,-2882.5,0.68919
732,11.77,4.5455,0,0.00028985,2896.5,9.7662e-05,24.124,9.4452e-05,0.0098005,-0.00028943,-2884.3,0.68977
733,11.77,4.3636,0,0.00028998,2897.8,9.7643e-05,23.384,9.4532e-05,0.0093764,-0.00028957,-2886,0.69028
734,11.77,4.1818,0,0.00029007,2898.7,9.7585e-05,22.294,9.4619e-05,0.008702,-0.00028969,-2887.5,0.69073
735,11.77,4,0,0.00029014,2899.4,9.7499e-05,20.995,9.4705e-05,0.0079741,-0.00028978,-2888.8,0.69112
736,11.77,3.8182,0,0.00029018,2899.8,9.7399e-05,19.633,9.4787e-05,0.0073403,-0.00028985,-2890,0.69144
737,11.77,3.6364,0,0.00029021,2900.1,9.73e-05,18.347,9.486e-05,0.0068915,-0.00028989,-2890.9,0.6917
738,11.77,3.4545,0,0.00029022,2900.2,9.7214e-05,17.262,9.4918e-05,0.0066461,-0.00028993,-2891.6,0.69189
739,11.77,3.2727,0,0.00029023,2900.3,9.7151e-05,16.478,9.4959e-05,0.0065576,-0.00028994,-2892,0.69202
740,11.77,3.0909,0,0.00029023,2900.3,9.7117e-05,16.068,9.498e-05,0.0065441,-0.00028995,-2892.2,0.69208
741,11.77,2.9091,0,0.00029023,2900.3,9.7117e-05,16.068,9.498e-05,0.0065445,-0.00028995,-2892.2,0.69208
742,11.77,2.7273,0,0.00029023,2900.3,9.7151e-05,16.478,9.4959e-05,0.0065576,-0.00028994,-2892,0.69202
743,11.77,2.5455,0,0.00029022,2900.2,9.7214e-05,17.262,9.4918e-05,0.0066469,-0.00028993,-2891.6,0.69189
744,11.77,2.3636,0,0.00029021,2900.1,9.73e-05,18.347,9.486e-05,0.0068914,-0.00028989,-2890.9,0.6917
745,11.77,2.1818,0,0.00029018,2899.8,9.7399e-05,19.633,9.4787e-05,0.0073408,-0.00028985,-2890,0.69144
746,11.77,2,0,0.00029014,2899.4,9.7499e-05,20.995,9.4705e-05,0.0079746,-0.00028978,-2888.8,0.69112
747,11.77,1.8182,0,0.00029007,2898.7,9.7585e-05,22.294,9.4619e-05,0.008702,-0.00028969,-2887.5,0.69073
748,11.77,1.6364,0,0.00028998,2897.8,9.7643e-05,23.384,9.4532e-05,0.009377,-0.00028957,-2886,0.69028
749,11.77,1.4545,0,0.00028985,2896.5,9.7662e-05,24.124,9.4452e-05,0.0098014,-0.00028943,-2884.3,0.68977
750,11.77,1.2727,0,0.00028968,2894.8,9.7628e-05,24.387,9.4384e-05,0.0097536,-0.00028925,-2882.5,0.68919
751,11.77,1.0909,0,0.00028947,2892.7,9.7534e-05,24.067,9.4332e-05,0.008887,-0.00028906,-2880.6,0.68854
752,11.77,0.90909,0,0.00028923,2890.3,9.7373e-05,23.087,9.4301e-05,0.0071012,-0.00028883,-2878.7,0.68784
753,11.77,0.72727,0,0.00028896,2887.6,9.7144e-05,21.41,9.4295e-05,0.0028165,-0.00028859,-2876.9,0.68707
754,11.77,0.54545,0,0.00028867,2884.7,9.6852e-05,19.043,9.4317e-05,-0.00040743,-0.00028834,-2875.2,0.68623
755,11.77,0.36364,0,0.00028838,2881.8,9.651e-05,16.073,9.4367e-05,-0.026756,-0.00028811,-2873.8,0.68533
756,11.77,0.18182,0,0.00028825,2880.5,9.625e-05,13.514,9.4451e-05,-0.007567,-0.00028801,-2873.7,0.68437
757,11.586,5.8182,0,0.00029357,2933.7,9.795e-05,12.846,9.624e-05,-0.0051482,-0.00029335,-2927.2,0.66506
758,11.586,5.6364,0,0.00029361,2934.1,9.8106e-05,14.526,9.617e-05,-0.022473,-0.00029336,-2926.8,0.66603
759,11.586,5.4545,0,0.00029382,2936.1,9.8358e-05,16.754,9.6128e-05,-0.00069306,-0.00029353,-2927.7,0.66694
760,11.586,5.2727,0,0.00029402,2938.2,9.8572e-05,18.512,9.6108e-05,0.0022811,-0.0002937,-2928.9,0.66779
761,11.586,5.0909,0,0.00029421,2940.1,9.8735e-05,19.718,9.6111e-05,0.0061307,-0.00029387,-2930.1,0.66857
762,11.586,4.9091,0,0.00029437,2941.7,9.8843e-05,20.363,9.6134e-05,0.0078747,-0.00029402,-2931.5,0.66928
763,11.586,4.7273,0,0.00029451,2943.1,9.8898e-05,20.479,9.6174e-05,0.008799,-0.00029416,-2932.8,0.66994
764,11.586,4.5455,0,0.00029462,2944.2,9.8905e-05,20.127,9.6227e-05,0.0089915,-0.00029427,-2934.1,0.67052
765,11.586,4.3636,0,0.0002947,2945,9.8871e-05,19.395,9.629e-05,0.0087373,-0.00029437,-2935.2,0.67104
766,11.586,4.1818,0,0.00029476,2945.5,9.8805e-05,18.389,9.6359e-05,0.0082268,-0.00029444,-2936.3,0.6715
767,11.586,4,0,0.00029479,2945.9,9.8719e-05,17.226,9.6427e-05,0.0076301,-0.00029449,-2937.2,0.67189
768,11.586,3.8182,0,0.00029481,2946,9.8624e-05,16.026,9.6492e-05,0.0070744,-0.00029453,-2938,0.67222
769,11.586,3.6364,0,0.00029481,2946.1,9.8532e-05,14.904,9.655e-05,0.0066487,-0.00029456,-2938.6,0.67248
770,11.586,3.4545,0,0.00029481,2946.1,9.8453e-05,13.962,9.6596e-05,0.0063831,-0.00029457,-2939.1,0.67267
771,11.586,3.2727,0,0.00029481,2946,9.8396e-05,13.285,9.6628e-05,0.0062539,-0.00029458,-2939.4,0.6728
772,11.586,3.0909,0,0.00029481,2946,9.8365e-05,12.932,9.6645e-05,0.0062111,-0.00029458,-2939.5,0.67287
773,11.586,2.9091,0,0.00029481,2946,9.8365e-05,12.932,9.6645e-05,0.0062107,-0.00029458,-2939.5,0.67287
774,11.586,2.7273,0,0.00029481,2946,9.8396e-05,13.285,9.6628e-05,0.0062541,-0.00029458,-2939.4,0.6728
775,11.586,2.5455,0,0.00029481,2946.1,9.8453e-05,13.962,9.6596e-05,0.0063832,-0.00029457,-2939.1,0.67267
776,11.586,2.3636,0,0.00029481,2946.1,9.8532e-05,14.904,9.655e-05,0.0066487,-0.00029456,-2938.6,0.67248
777,11.586,2.1818,0,0.00029481,2946,9.8624e-05,16.026,9.6492e-05,0.0070748,-0.00029453,-2938,0.67222
778,11.586,2,0,0.00029479,2945.9,9.8719e-05,17.226,9.6427e-05,0.0076303,-0.00029449,-2937.2,0.67189
779,11.586,1.8182,0,0.00029476,2945.5,9.8805e-05,18.389,9.6359e-05,0.0082275,-0.00029444,-2936.3,0.6715
780,11.586,1.6364,0,0.0002947,2945,9.8871e-05,19.395,9.629e-05,0.008738,-0.00029437,-2935.2,0.67104
781,11.586,1.4545,0,0.00029462,2944.2,9.8905e-05,20.127,9.6227e-05,0.0089918,-0.00029427,-2934.1,0.67052
782,11.586,1.2727,0,0.00029451,2943.1,9.8898e-05,20.479,9.6174e-05,0.008799,-0.00029416,-2932.8,0.66994
783,11.586,1.0909,0,0.00029437,2941.7,9.8843e-05,20.363,9.6134e-05,0.0078754,-0.00029402,-2931.5,0.66928
784,11.586,0.90909,0,0.00029421,2940.1,9.8735e-05,19.718,9.6111e-05,0.0061318,-0.00029387,-2930.1,0.66857
785,11.586,0.72727,0,0.00029402,2938.2,9.8572e-05,18.512,9.6108e-05,0.0022832,-0.0002937,-2928.9,0.66779
786,11.586,0.54545,0,0.00029382,2936.1,9.8358e-05,16.754,9.6128e-05,-0.0006936,-0.00029353,-2927.7,0.66694
787,11.586,0.36364,0,0.00029361,2934.1,9.8106e-05,14.526,9.617e-05,-0.022472,-0.00029336,-2926.8,0.66603
788,11.586,0.18182,0,0.00029357,2933.7,9.795e-05,12.846,9.624e-05,-0.005148,-0.00029335,-2927.2,0.66506
789,11.402,5.8182,0,0.00029885,2986.4,9.9639e-05,12.208,9.8014e-05,-0.0034817,-0.00029864,-2980.3,0.64594
790,11.402,5.6364,0,0.00029881,2986.1,9.9704e-05,13.104,9.7957e-05,-0.018591,-0.00029859,-2979.5,0.64693
791,11.402,5.4545,0,0.00029894,2987.3,9.9874e-05,14.657,9.7923e-05,-0.00086622,-0.00029869,-2980,0.64785
792,11.402,5.2727,0,0.00029907,2988.6,0.00010002,15.854,9.7907e-05,0.0018482,-0.0002988,-2980.7,0.64871
793,11.402,5.0909,0,0.00029919,2989.8,0.00010012,16.613,9.7909e-05,0.0052705,-0.0002989,-2981.5,0.6495
794,11.402,4.9091,0,0.00029929,2990.8,0.00010018,16.929,9.7927e-05,0.0069444,-0.000299,-2982.3,0.65022
795,11.402,4.7273,0,0.00029937,2991.7,0.0001002,16.826,9.7959e-05,0.0078959,-0.00029908,-2983.2,0.65088
796,11.402,4.5455,0,0.00029943,2992.2,0.00010018,16.356,9.8002e-05,0.0081924,-0.00029915,-2984,0.65148
797,11.402,4.3636,0,0.00029947,2992.6,0.00010013,15.591,9.8052e-05,0.0080718,-0.0002992,-2984.8,0.652
798,11.402,4.1818,0,0.00029949,2992.8,0.00010005,14.619,9.8107e-05,0.0076954,-0.00029924,-2985.5,0.65247
799,11.402,4,0,0.00029949,2992.9,9.9962e-05,13.537,9.8162e-05,0.0072098,-0.00029926,-2986.1,0.65286
800,11.402,3.8182,0,0.00029949,2992.8,9.9869e-05,12.445,9.8214e-05,0.0067303,-0.00029927,-2986.5,0.65319
801,11.402,3.6364,0,0.00029947,2992.7,9.9781e-05,11.438,9.826e-05,0.0063399,-0.00029928,-2986.9,0.65345
802,11.402,3.4545,0,0.00029946,2992.5,9.9707e-05,10.599,9.8297e-05,0.0060771,-0.00029928,-2987.2,0.65365
803,11.402,3.2727,0,0.00029945,2992.4,9.9653e-05,9.9999,9.8323e-05,0.0059347,-0.00029928,-2987.4,0.65378
804,11.402,3.0909,0,0.00029944,2992.4,9.9625e-05,9.6876,9.8337e-05,0.0058792,-0.00029928,-2987.5,0.65385
805,11.402,2.9091,0,0.00029944,2992.4,9.9625e-05,9.6876,9.8337e-05,0.0058792,-0.00029928,-2987.5,0.65385
806,11.402,2.7273,0,0.00029945,2992.4,9.9653e-05,9.9999,9.8323e-05,0.0059349,-0.00029928,-2987.4,0.65378
807,11.402,2.5455,0,0.00029946,2992.5,9.9707e-05,10.599,9.8297e-05,0.0060771,-0.00029928,-2987.2,0.65365
808,11.402,2.3636,0,0.00029947,2992.7,9.9781e-05,11.438,9.826e-05,0.0063394,-0.00029928,-2986.9,0.65345
809,11.402,2.1818,0,0.00029949,2992.8,9.9869e-05,12.445,9.8214e-05,0.0067304,-0.00029927,-2986.5,0.65319
810,11.402,2,0,0.00029949,2992.9,9.9962e-05,13.537,9.8162e-05,0.0072106,-0.00029926,-2986.1,0.65286
811,11.402,1.8182,0,0.00029949,2992.8,0.00010005,14.619,9.8107e-05,0.0076956,-0.00029924,-2985.5,0.65247
812,11.402,1.6364,0,0.00029947,2992.6,0.00010013,15.591,9.8052e-05,0.0080725,-0.0002992,-2984.8,0.652
813,11.402,1.4545,0,0.00029943,2992.2,0.00010018,16.356,9.8002e-05,0.008192,-0.00029915,-2984,0.65148
814,11.402,1.2727,0,0.00029937,2991.7,0.0001002,16.826,9.7959e-05,0.0078966,-0.00029908,-2983.2,0.65088
815,11.402,1.0909,0,0.00029929,2990.8,0.00010018,16.929,9.7927e-05,0.0069455,-0.000299,-2982.3,0.65022
816,11.402,0.90909,0,0.00029919,2989.8,0.00010012,16.613,9.7909e-05,0.0052715,-0.0002989,-2981.5,0.6495
817,11.402,0.72727,0,0.00029907,2988.6,0.00010002,15.854,9.7907e-05,0.0018496,-0.0002988,-2980.7,0.64871
818,11.402,0.54545,0,0.00029894,2987.3,9.9874e-05,14.657,9.7923e-05,-0.000866,-0.00029869,-2980,0.64785
819,11.402,0.36364,0,0.00029881,2986.1,9.9704e-05,13.104,9.7957e-05,-0.01859,-0.00029859,-2979.5,0.64693
820,11.402,0.18182,0,0.00029885,2986.4,9.9639e-05,12.208,9.8014e-05,-0.0034804,-0.00029864,-2980.3,0.64594
821,11.218,5.8182,0,0.0003041,3038.9,0.00010132,11.591,9.9778e-05,-0.0023317,-0.0003039,-3033.1,0.62702
822,11.218,5.6364,0,0.000304,3037.9,0.0001013,11.779,9.9733e-05,-0.014942,-0.00030379,-3032,0.62802
823,11.218,5.4545,0,0.00030405,3038.4,0.0001014,12.714,9.9707e-05,-0.00084509,-0.00030383,-3032.1,0.62896
824,11.218,5.2727,0,0.00030412,3039.1,0.00010148,13.386,9.9695e-05,0.0015981,-0.00030389,-3032.4,0.62983
825,11.218,5.0909,0,0.00030418,3039.7,0.00010152,13.719,9.9698e-05,0.0046028,-0.00030394,-3032.8,0.63063
826,11.218,4.9091,0,0.00030422,3040.1,0.00010154,13.707,9.9714e-05,0.0061857,-0.00030399,-3033.2,0.63136
827,11.218,4.7273,0,0.00030425,3040.4,0.00010152,13.372,9.9741e-05,0.0071389,-0.00030402,-3033.7,0.63203
828,11.218,4.5455,0,0.00030427,3040.6,0.00010147,12.757,9.9776e-05,0.0075123,-0.00030405,-3034.2,0.63263
829,11.218,4.3636,0,0.00030427,3040.6,0.0001014,11.922,9.9818e-05,0.0074984,-0.00030406,-3034.6,0.63317
830,11.218,4.1818,0,0.00030426,3040.5,0.00010132,10.941,9.9863e-05,0.0072335,-0.00030407,-3035,0.63364
831,11.218,4,0,0.00030424,3040.3,0.00010122,9.8938,9.9908e-05,0.0068429,-0.00030407,-3035.3,0.63404
832,11.218,3.8182,0,0.00030421,3040,0.00010113,8.863,9.9951e-05,0.0064305,-0.00030406,-3035.6,0.63437
833,11.218,3.6364,0,0.00030418,3039.7,0.00010104,7.9276,9.9988e-05,0.0060774,-0.00030405,-3035.8,0.63464
834,11.218,3.4545,0,0.00030416,3039.5,0.00010097,7.1578,0.00010002,0.00583,-0.00030404,-3035.9,0.63484
835,11.218,3.2727,0,0.00030414,3039.3,0.00010092,6.6109,0.00010004,0.0056909,-0.00030403,-3036,0.63497
836,11.218,3.0909,0,0.00030413,3039.2,0.00010089,6.327,0.00010005,0.0056357,-0.00030402,-3036.1,0.63504
837,11.218,2.9091,0,0.00030413,3039.2,0.00010089,6.327,0.00010005,0.005636,-0.00030402,-3036.1,0.63504
838,11.218,2.7273,0,0.00030414,3039.3,0.00010092,6.6109,0.00010004,0.0056911,-0.00030403,-3036,0.63497
839,11.218,2.5455,0,0.00030416,3039.5,0.00010097,7.1578,0.00010002,0.0058305,-0.00030404,-3035.9,0.63484
840,11.218,2.3636,0,0.00030418,3039.7,0.00010104,7.9276,9.9988e-05,0.0060778,-0.00030405,-3035.8,0.63464
841,11.218,2.1818,0,0.00030421,3040,0.00010113,8.863,9.9951e-05,0.0064306,-0.00030406,-3035.6,0.63437
842,11.218,2,0,0.00030424,3040.3,0.00010122,9.8938,9.9908e-05,0.0068427,-0.00030407,-3035.3,0.63404
843,11.218,1.8182,0,0.00030426,3040.5,0.00010132,10.941,9.9863e-05,0.0072344,-0.00030407,-3035,0.63364
844,11.218,1.6364,0,0.00030427,3040.6,0.0001014,11.922,9.9818e-05,0.0074986,-0.00030406,-3034.6,0.63317
845,11.218,1.4545,0,0.00030427,3040.6,0.00010147,12.757,9.9776e-05,0.0075129,-0.00030405,-3034.2,0.63263
846,11.218,1.2727,0,0.00030425,3040.4,0.00010152,13.372,9.9741e-05,0.0071395,-0.00030402,-3033.7,0.63203
847,11.218,1.0909,0,0.00030422,3040.1,0.00010154,13.707,9.9714e-05,0.0061869,-0.00030399,-3033.2,0.63136
848,11.218,0.90909,0,0.00030418,3039.7,0.00010152,13.719,9.9698e-05,0.0046042,-0.00030394,-3032.8,0.63063
849,11.218,0.72727,0,0.00030412,3039.1,0.00010148,13.386,9.9695e-05,0.001599,-0.00030389,-3032.4,0.62983
850,11.218,0.54545,0,0.00030405,3038.4,0.0001014,12.714,9.9707e-05,-0.00084587,-0.00030383,-3032.1,0.62896
851,11.218,0.36364,0,0.000304,3037.9,0.0001013,11.779,9.9733e-05,-0.014942,-0.00030379,-3032,0.62802
852,11.218,0.18182,0,0.0003041,3038.9,0.00010132,11.591,9.9778e-05,-0.0023302,-0.0003039,-3033.1,0.62702
853,11.034,5.8182,0,0.00030933,3091.2,0.000103,10.986,0.00010153,-0.0016842,-0.00030914,-3085.7,0.60831
854,11.034,5.6364,0,0.00030917,3089.5,0.0001029,10.528,0.0001015,-0.011561,-0.00030899,-3084.3,0.60933
855,11.034,5.4545,0,0.00030916,3089.5,0.00010293,10.889,0.00010148,-0.00074339,-0.00030898,-3084,0.61027
856,11.034,5.2727,0,0.00030917,3089.6,0.00010295,11.065,0.00010148,0.0014174,-0.00030898,-3084,0.61115
857,11.034,5.0909,0,0.00030917,3089.6,0.00010294,10.986,0.00010148,0.0040075,-0.00030898,-3084.1,0.61197
858,11.034,4.9091,0,0.00030917,3089.6,0.00010291,10.646,0.0001015,0.0054829,-0.00030899,-3084.2,0.61271
859,11.034,4.7273,0,0.00030915,3089.4,0.00010286,10.066,0.00010152,0.0064207,-0.00030898,-3084.4,0.61339
860,11.034,4.5455,0,0.00030913,3089.2,0.00010279,9.2823,0.00010155,0.006854,-0.00030897,-3084.5,0.614
861,11.034,4.3636,0,0.0003091,3088.8,0.0001027,8.345,0.00010159,0.0069313,-0.00030896,-3084.7,0.61454
862,11.034,4.1818,0,0.00030906,3088.5,0.0001026,7.3159,0.00010163,0.0067621,-0.00030893,-3084.8,0.61501
863,11.034,4,0,0.00030902,3088,0.0001025,6.2622,0.00010167,0.0064518,-0.00030891,-3084.9,0.61542
864,11.034,3.8182,0,0.00030897,3087.6,0.0001024,5.2527,0.0001017,0.0060939,-0.00030888,-3085,0.61575
865,11.034,3.6364,0,0.00030893,3087.2,0.00010231,4.3531,0.00010173,0.0057709,-0.00030886,-3085,0.61602
866,11.034,3.4545,0,0.0003089,3086.9,0.00010224,3.6217,0.00010176,0.0055386,-0.00030884,-3085,0.61623
867,11.034,3.2727,0,0.00030888,3086.6,0.00010219,3.1061,0.00010178,0.005416,-0.00030882,-3085.1,0.61636
868,11.034,3.0909,0,0.00030886,3086.5,0.00010216,2.8397,0.00010178,0.0053745,-0.00030881,-3085.1,0.61643
869,11.034,2.9091,0,0.00030886,3086.5,0.00010216,2.8397,0.00010178,0.0053751,-0.00030881,-3085.1,0.61643
870,11.034,2.7273,0,0.00030888,3086.6,0.00010219,3.1061,0.00010178,0.0054158,-0.00030882,-3085.1,0.61636
871,11.034,2.5455,0,0.0003089,3086.9,0.00010224,3.6217,0.00010176,0.0055386,-0.00030884,-3085,0.61623
872,11.034,2.3636,0,0.00030893,3087.2,0.00010231,4.3531,0.00010173,0.0057709,-0.00030886,-3085,0.61602
873,11.034,2.1818,0,0.00030897,3087.6,0.0001024,5.2527,0.0001017,0.0060944,-0.00030888,-3085,0.61575
874,11.034,2,0,0.00030902,3088,0.0001025,6.2622,0.00010167,0.0064524,-0.00030891,-3084.9,0.61542
875,11.034,1.8182,0,0.00030906,3088.5,0.0001026,7.3159,0.00010163,0.0067627,-0.00030893,-3084.8,0.61501
876,11.034,1.6364,0,0.0003091,3088.8,0.0001027,8.345,0.00010159,0.0069322,-0.00030896,-3084.7,0.61454
877,11.034,1.4545,0,0.00030913,3089.2,0.00010279,9.2823,0.00010155,0.0068547,-0.00030897,-3084.5,0.614
878,11.034,1.2727,0,0.00030915,3089.4,0.00010286,10.066,0.00010152,0.0064215,-0.00030898,-3084.4,0.61339
879,11.034,1.0909,0,0.00030917,3089.6,0.00010291,10.646,0.0001015,0.0054835,-0.00030899,-3084.2,0.61271
880,11.034,0.90909,0,0.00030917,3089.6,0.00010294,10.986,0.00010148,0.0040088,-0.00030898,-3084.1,0.61197
881,11.034,0.72727,0,0.00030917,3089.6,0.00010295,11.065,0.00010148,0.0014188,-0.00030898,-3084,0.61115
882,11.034,0.54545,0,0.00030916,3089.5,0.00010293,10.889,0.00010148,-0.00074239,-0.00030898,-3084,0.61027
883,11.034,0.36364,0,0.00030917,3089.5,0.0001029,10.528,0.0001015,-0.01156,-0.00030899,-3084.3,0.60933
884,11.034,0.18182,0,0.00030933,3091.2,0.000103,10.986,0.00010153,-0.0016835,-0.00030914,-3085.7,0.60831
885,10.851,5.8182,0,0.00031455,3143.4,0.00010467,10.385,0.00010329,-0.0014147,-0.00031437,-3138.2,0.58981
886,10.851,5.6364,0,0.00031433,3141.2,0.00010451,9.3308,0.00010327,-0.0083326,-0.00031417,-3136.5,0.59084
887,10.851,5.4545,0,0.00031427,3140.6,0.00010447,9.1511,0.00010326,-0.00051812,-0.00031412,-3136,0.5918
888,10.851,5.2727,0,0.00031423,3140.1,0.00010443,8.8535,0.00010326,0.0013362,-0.00031408,-3135.7,0.59269
889,10.851,5.0909,0,0.00031418,3139.7,0.00010438,8.3712,0.00010327,0.0034976,-0.00031404,-3135.5,0.59351
890,10.851,4.9091,0,0.00031413,3139.2,0.00010431,7.7021,0.00010328,0.0048422,-0.000314,-3135.3,0.59427
891,10.851,4.7273,0,0.00031408,3138.6,0.00010422,6.8638,0.00010331,0.00575,-0.00031396,-3135.2,0.59495
892,10.851,4.5455,0,0.00031402,3138,0.00010412,5.8884,0.00010333,0.0062374,-0.00031392,-3135.1,0.59557
893,10.851,4.3636,0,0.00031396,3137.4,0.00010401,4.8193,0.00010337,0.0064075,-0.00031387,-3135,0.59611
894,10.851,4.1818,0,0.00031389,3136.7,0.00010389,3.7085,0.0001034,0.0063381,-0.00031383,-3134.9,0.59659
895,10.851,4,0,0.00031383,3136.1,0.00010378,2.6127,0.00010343,0.0061055,-0.00031378,-3134.8,0.597
896,10.851,3.8182,0,0.00031377,3135.5,0.00010368,1.5897,0.00010346,0.0057631,-0.00031374,-3134.7,0.59735
897,10.851,3.6364,0,0.00031372,3135,0.00010358,0.69454,0.00010349,0.0052947,-0.0003137,-3134.6,0.59762
898,10.851,3.4545,0,0.00031367,3134.6,0.00010351,0.010486,0.00010351,-0.029579,-0.00031367,-3134.6,0.59783
899,10.851,3.2727,0,0.00031364,3134.3,0.00010353,0.0053994,0.00010346,-0.52715,-0.00031365,-3134.5,0.59796
900,10.851,3.0909,0,0.00031363,3134.1,0.00010354,0.0051731,0.00010343,-0.78544,-0.00031364,-3134.5,0.59803
901,10.851,2.9091,0,0.00031363,3134.1,0.00010354,0.0051731,0.00010343,-0.78545,-0.00031364,-3134.5,0.59803
902,10.851,2.7273,0,0.00031364,3134.3,0.00010353,0.0054,0.00010346,-0.52715,-0.00031365,-3134.5,0.59796
903,10.851,2.5455,0,0.00031367,3134.6,0.00010351,0.010486,0.00010351,-0.029581,-0.00031367,-3134.6,0.59783
904,10.851,2.3636,0,0.00031372,3135,0.00010358,0.69453,0.00010349,0.0052951,-0.0003137,-3134.6,0.59762
905,10.851,2.1818,0,0.00031377,3135.5,0.00010368,1.5897,0.00010346,0.0057634,-0.00031374,-3134.7,0.59735
906,10.851,2,0,0.00031383,3136.1,0.00010378,2.6127,0.00010343,0.0061057,-0.00031378,-3134.8,0.597
907,10.851,1.8182,0,0.00031389,3136.7,0.00010389,3.7085,0.0001034,0.0063388,-0.00031383,-3134.9,0.59659
908,10.851,1.6364,0,0.00031396,3137.4,0.00010401,4.8193,0.00010337,0.0064075,-0.00031387,-3135,0.59611
909,10.851,1.4545,0,0.00031402,3138,0.00010412,5.8884,0.00010333,0.0062375,-0.00031392,-3135.1,0.59557
910,10.851,1.2727,0,0.00031408,3138.6,0.00010422,6.8638,0.00010331,0.0057507,-0.00031396,-3135.2,0.59495
911,10.851,1.0909,0,0.00031413,3139.2,0.00010431,7.7021,0.00010328,0.0048423,-0.000314,-3135.3,0.59427
912,10.851,0.90909,0,0.00031418,3139.7,0.00010438,8.3711,0.00010327,0.003499,-0.00031404,-3135.5,0.59351
913,10.851,0.72727,0,0.00031423,3140.1,0.00010443,8.8535,0.00010326,0.0013374,-0.00031408,-3135.7,0.59269
914,10.851,0.54545,0,0.00031427,3140.6,0.00010447,9.1511,0.00010326,-0.00051798,-0.00031412,-3136,0.5918
915,10.851,0.36364,0,0.00031433,3141.2,0.00010451,9.3308,0.00010327,-0.0083317,-0.00031417,-3136.5,0.59084
916,10.851,0.18182,0,0.00031455,3143.4,0.00010467,10.385,0.00010329,-0.0014136,-0.00031437,-3138.2,0.58981
917,10.667,5.8182,0,0.00031977,3195.5,0.00010634,9.7821,0.00010504,-0.0015535,-0.0003196,-3190.6,0.57152
918,10.667,5.6364,0,0.0003195,3192.8,0.00010612,8.1689,0.00010503,-0.0052841,-0.00031936,-3188.7,0.57256
919,10.667,5.4545,0,0.00031939,3191.7,0.00010602,7.4738,0.00010503,-0.00026179,-0.00031926,-3188,0.57353
920,10.667,5.2727,0,0.0003193,3190.8,0.00010593,6.7174,0.00010503,0.0012327,-0.00031918,-3187.4,0.57444
921,10.667,5.0909,0,0.0003192,3189.8,0.00010582,5.8371,0.00010505,0.002899,-0.0003191,-3186.9,0.57527
922,10.667,4.9091,0,0.00031911,3188.9,0.00010571,4.8336,0.00010507,0.0040332,-0.00031903,-3186.5,0.57603
923,10.667,4.7273,0,0.00031902,3188,0.00010559,3.7236,0.00010509,0.0048462,-0.00031896,-3186.1,0.57673
924,10.667,4.5455,0,0.00031893,3187.1,0.00010546,2.5359,0.00010512,0.0053349,-0.00031888,-3185.8,0.57735
925,10.667,4.3636,0,0.00031884,3186.2,0.00010533,1.3085,0.00010515,0.0055414,-0.00031881,-3185.5,0.5779
926,10.667,4.1818,0,0.00031875,3185.3,0.00010519,0.087285,0.00010518,0.0041587,-0.00031875,-3185.2,0.57839
927,10.667,4,0,0.00031866,3184.4,0.00010521,0.0057348,0.00010507,-1.0838,-0.00031868,-3185,0.57881
928,10.667,3.8182,0,0.00031859,3183.7,0.00010524,0.005518,0.00010495,-2.1509,-0.00031863,-3184.8,0.57915
929,10.667,3.6364,0,0.00031853,3183.1,0.00010527,0.0053089,0.00010486,-3.0693,-0.00031858,-3184.6,0.57943
930,10.667,3.4545,0,0.00031848,3182.6,0.00010529,0.0051186,0.00010478,-3.7978,-0.00031854,-3184.5,0.57964
931,10.667,3.2727,0,0.00031844,3182.2,0.0001053,0.0049732,0.00010473,-4.3031,-0.00031851,-3184.4,0.57978
932,10.667,3.0909,0,0.00031842,3182,0.00010531,0.0048952,0.0001047,-4.5618,-0.0003185,-3184.3,0.57984
933,10.667,2.9091,0,0.00031842,3182,0.00010531,0.0048958,0.0001047,-4.5618,-0.0003185,-3184.3,0.57984
934,10.667,2.7273,0,0.00031844,3182.2,0.0001053,0.0049738,0.00010473,-4.3031,-0.00031851,-3184.4,0.57978
935,10.667,2.5455,0,0.00031848,3182.6,0.00010529,0.0051186,0.00010478,-3.7978,-0.00031854,-3184.5,0.57964
936,10.667,2.3636,0,0.00031853,3183.1,0.00010527,0.0053084,0.00010486,-3.0693,-0.00031858,-3184.6,0.57943
937,10.667,2.1818,0,0.00031859,3183.7,0.00010524,0.0055183,0.00010495,-2.1509,-0.00031863,-3184.8,0.57915
938,10.667,2,0,0.00031866,3184.4,0.00010521,0.0057361,0.00010507,-1.0838,-0.00031868,-3185,0.57881
939,10.667,1.8182,0,0.00031875,3185.3,0.00010519,0.087281,0.00010518,0.0041586,-0.00031875,-3185.2,0.57839
940,10.667,1.6364,0,0.00031884,3186.2,0.00010533,1.3085,0.00010515,0.0055415,-0.00031881,-3185.5,0.5779
941,10.667,1.4545,0,0.00031893,3187.1,0.00010546,2.5359,0.00010512,0.0053356,-0.00031888,-3185.8,0.57735
942,10.667,1.2727,0,0.00031902,3188,0.00010559,3.7236,0.00010509,0.0048468,-0.00031896,-3186.1,0.57673
943,10.667,1.0909,0,0.00031911,3188.9,0.00010571,4.8336,0.00010507,0.0040343,-0.00031903,-3186.5,0.57603
944,10.667,0.90909,0,0.0003192,3189.8,0.00010582,5.8371,0.00010505,0.0028996,-0.0003191,-3186.9,0.57527
945,10.667,0.72727,0,0.0003193,3190.8,0.00010593,6.7174,0.00010503,0.0012341,-0.00031918,-3187.4,0.57444
946,10.667,0.54545,0,0.00031939,3191.7,0.00010602,7.4738,0.00010503,-0.00026057,-0.00031926,-3188,0.57353
947,10.667,0.36364,0,0.0003195,3192.8,0.00010612,8.1689,0.00010503,-0.0052831,-0.00031936,-3188.7,0.57256
948,10.667,0.18182,0,0.00031977,3195.5,0.00010634,9.7821,0.00010504,-0.0015524,-0.0003196,-3190.6,0.57152
949,10.483,5.8182,0,0.00032499,3247.7,0.00010801,9.1705,0.00010679,-0.0020882,-0.00032483,-3243.1,0.55344
950,10.483,5.6364,0,0.00032467,3244.5,0.00010773,7.0261,0.00010679,-0.0023686,-0.00032455,-3241,0.5545
951,10.483,5.4545,0,0.00032452,3242.9,0.00010758,5.8329,0.0001068,8.815e-06,-0.00032442,-3240,0.55548
952,10.483,5.2727,0,0.00032438,3241.5,0.00010743,4.6269,0.00010681,0.0009903,-0.0003243,-3239.2,0.5564
953,10.483,5.0909,0,0.00032424,3240.2,0.00010728,3.3499,0.00010683,0.0018448,-0.00032418,-3238.5,0.55724
954,10.483,4.9091,0,0.00032411,3238.9,0.00010712,2.0056,0.00010686,0.0020777,-0.00032408,-3237.9,0.55801
955,10.483,4.7273,0,0.00032398,3237.6,0.00010697,0.61319,0.00010688,-0.00062122,-0.00032397,-3237.3,0.55872
956,10.483,4.5455,0,0.00032386,3236.3,0.00010691,0.0080296,0.0001068,-0.815,-0.00032387,-3236.7,0.55935
957,10.483,4.3636,0,0.00032374,3235.2,0.00010694,0.0060126,0.00010665,-2.2231,-0.00032378,-3236.3,0.55991
958,10.483,4.1818,0,0.00032363,3234,0.00010697,0.0055897,0.0001065,-3.5842,-0.00032369,-3235.8,0.5604
959,10.483,4,0,0.00032353,3233,0.000107,0.0053466,0.00010636,-4.8549,-0.00032361,-3235.4,0.56082
960,10.483,3.8182,0,0.00032344,3232.1,0.00010703,0.0051345,0.00010623,-5.993,-0.00032354,-3235.1,0.56117
961,10.483,3.6364,0,0.00032336,3231.4,0.00010705,0.00494,0.00010613,-6.9586,-0.00032348,-3234.8,0.56145
962,10.483,3.4545,0,0.0003233,3230.8,0.00010707,0.0047751,0.00010604,-7.7165,-0.00032343,-3234.6,0.56166
963,10.483,3.2727,0,0.00032326,3230.4,0.00010708,0.0046523,0.00010599,-8.2384,-0.0003234,-3234.5,0.5618
964,10.483,3.0909,0,0.00032324,3230.2,0.00010709,0.0045875,0.00010596,-8.5045,-0.00032338,-3234.4,0.56187
965,10.483,2.9091,0,0.00032324,3230.2,0.00010709,0.0045879,0.00010596,-8.5045,-0.00032338,-3234.4,0.56187
966,10.483,2.7273,0,0.00032326,3230.4,0.00010708,0.0046526,0.00010599,-8.2384,-0.0003234,-3234.5,0.5618
967,10.483,2.5455,0,0.0003233,3230.8,0.00010707,0.0047747,0.00010604,-7.7165,-0.00032343,-3234.6,0.56166
968,10.483,2.3636,0,0.00032336,3231.4,0.00010705,0.0049403,0.00010613,-6.9586,-0.00032348,-3234.8,0.56145
969,10.483,2.1818,0,0.00032344,3232.1,0.00010703,0.0051355,0.00010623,-5.993,-0.00032354,-3235.1,0.56117
970,10.483,2,0,0.00032353,3233,0.000107,0.0053472,0.00010636,-4.8549,-0.00032361,-3235.4,0.56082
971,10.483,1.8182,0,0.00032363,3234,0.00010697,0.0055909,0.0001065,-3.5842,-0.00032369,-3235.8,0.5604
972,10.483,1.6364,0,0.00032374,3235.2,0.00010694,0.006013,0.00010665,-2.2231,-0.00032378,-3236.3,0.55991
973,10.483,1.4545,0,0.00032386,3236.3,0.00010691,0.0080295,0.0001068,-0.81501,-0.00032387,-3236.7,0.55935
974,10.483,1.2727,0,0.00032398,3237.6,0.00010697,0.61318,0.00010688,-0.00062072,-0.00032397,-3237.3,0.55872
975,10.483,1.0909,0,0.00032411,3238.9,0.00010712,2.0055,0.00010686,0.0020783,-0.00032408,-3237.9,0.55801
976,10.483,0.90909,0,0.00032424,3240.2,0.00010728,3.3499,0.00010683,0.0018468,-0.00032418,-3238.5,0.55724
977,10.483,0.72727,0,0.00032438,3241.5,0.00010743,4.6269,0.00010681,0.0009911,-0.0003243,-3239.2,0.5564
978,10.483,0.54545,0,0.00032452,3242.9,0.00010758,5.8329,0.0001068,8.9683e-06,-0.00032442,-3240,0.55548
979,10.483,0.36364,0,0.00032467,3244.5,0.00010773,7.0261,0.00010679,-0.0023682,-0.00032455,-3241,0.5545
980,10.483,0.18182,0,0.00032499,3247.7,0.00010801,9.1705,0.00010679,-0.0020878,-0.00032483,-3243.1,0.55344
981,10.299,5.8182,0,0.00033021,3299.9,0.00010968,8.5456,0.00010855,-0.0029351,-0.00033007,-3295.6,0.53559
982,10.299,5.6364,0,0.00032985,3296.2,0.00010934,5.8885,0.00010856,0.00055873,-0.00032975,-3293.3,0.53666
983,10.299,5.4545,0,0.00032965,3294.2,0.00010914,4.2074,0.00010858,0.0003619,-0.00032958,-3292.1,0.53765
984,10.299,5.2727,0,0.00032947,3292.4,0.00010894,2.556,0.0001086,0.00023991,-0.00032942,-3291.1,0.53858
985,10.299,5.0909,0,0.00032929,3290.6,0.00010874,0.88355,0.00010862,-0.0039185,-0.00032928,-3290.2,0.53943
986,10.299,4.9091,0,0.00032912,3289,0.00010865,0.011441,0.00010854,-0.82696,-0.00032914,-3289.4,0.54022
987,10.299,4.7273,0,0.00032896,3287.3,0.00010868,0.0066338,0.00010835,-2.5181,-0.000329,-3288.6,0.54093
988,10.299,4.5455,0,0.00032881,3285.8,0.00010871,0.0058297,0.00010816,-4.1889,-0.00032888,-3287.9,0.54157
989,10.299,4.3636,0,0.00032866,3284.3,0.00010875,0.0054927,0.00010797,-5.8047,-0.00032876,-3287.2,0.54213
990,10.299,4.1818,0,0.00032853,3283,0.00010878,0.0052611,0.0001078,-7.33,-0.00032865,-3286.7,0.54263
991,10.299,4,0,0.00032841,3281.8,0.00010881,0.0050528,0.00010764,-8.7277,-0.00032855,-3286.1,0.54306
992,10.299,3.8182,0,0.0003283,3280.7,0.00010883,0.0048529,0.00010751,-9.961,-0.00032847,-3285.7,0.54341
993,10.299,3.6364,0,0.00032821,3279.9,0.00010885,0.0046706,0.00010739,-10.995,-0.0003284,-3285.3,0.5437
994,10.299,3.4545,0,0.00032815,3279.2,0.00010887,0.0045178,0.0001073,-11.8,-0.00032834,-3285.1,0.54391
995,10.299,3.2727,0,0.0003281,3278.7,0.00010888,0.0044073,0.00010724,-12.351,-0.00032831,-3284.9,0.54405
996,10.299,3.0909,0,0.00032808,3278.5,0.00010889,0.0043492,0.00010721,-12.63,-0.00032829,-3284.8,0.54412
997,10.299,2.9091,0,0.00032808,3278.5,0.00010889,0.0043492,0.00010721,-12.63,-0.00032829,-3284.8,0.54412
998,10.299,2.7273,0,0.0003281,3278.7,0.00010888,0.0044077,0.00010724,-12.351,-0.00032831,-3284.9,0.54405
999,10.299,2.5455,0,0.00032815,3279.2,0.00010887,0.0045181,0.0001073,-11.8,-0.00032834,-3285.1,0.54391
1000,10.299,2.3636,0,0.00032821,3279.9,0.00010885,0.0046705,0.00010739,-10.995,-0.0003284,-3285.3,0.5437
1001,10.299,2.1818,0,0.0003283,3280.7,0.00010883,0.0048532,0.00010751,-9.961,-0.00032847,-3285.7,0.54341
1002,10.299,2,0,0.00032841,3281.8,0.00010881,0.005053,0.00010764,-8.7278,-0.00032855,-3286.1,0.54306
1003,10.299,1.8182,0,0.00032853,3283,0.00010878,0.0052611,0.0001078,-7.33,-0.00032865,-3286.7,0.54263
1004,10.299,1.6364,0,0.00032866,3284.3,0.00010875,0.0054935,0.00010797,-5.8047,-0.00032876,-3287.2,0.54213
1005,10.299,1.4545,0,0.00032881,3285.8,0.00010871,0.0058297,0.00010816,-4.1889,-0.00032888,-3287.9,0.54157
1006,10.299,1.2727,0,0.00032896,3287.3,0.00010868,0.0066345,0.00010835,-2.5182,-0.000329,-3288.6,0.54093
1007,10.299,1.0909,0,0.00032912,3289,0.00010865,0.011441,0.00010854,-0.82697,-0.00032914,-3289.4,0.54022
1008,10.299,0.90909,0,0.00032929,3290.6,0.00010874,0.88354,0.00010862,-0.0039178,-0.00032928,-3290.2,0.53943
1009,10.299,0.72727,0,0.00032947,3292.4,0.00010894,2.556,0.0001086,0.00024136,-0.00032942,-3291.1,0.53858
1010,10.299,0.54545,0,0.00032965,3294.2,0.00010914,4.2074,0.00010858,0.00036259,-0.00032958,-3292.1,0.53765
1011,10.299,0.36364,0,0.00032985,3296.2,0.00010934,5.8886,0.00010856,0.00055939,-0.00032975,-3293.3,0.53666
1012,10.299,0.18182,0,0.00033021,3299.9,0.00010968,8.5456,0.00010855,-0.0029341,-0.00033007,-3295.6,0.53559
1013,10.115,5.8182,0,0.00033545,3352.2,0.00011136,7.9019,0.00011031,-0.0042573,-0.00033531,-3348.2,0.51795
1014,10.115,5.6364,0,0.00033504,3348.1,0.00011096,4.743,0.00011033,0.0034222,-0.00033496,-3345.8,0.51904
1015,10.115,5.4545,0,0.0003348,3345.7,0.0001107,2.5778,0.00011036,0.00056227,-0.00033476,-3344.4,0.52005
1016,10.115,5.2727,0,0.00033457,3343.4,0.00011045,0.48853,0.00011038,-0.0096903,-0.00033456,-3343.2,0.52098
1017,10.115,5.0909,0,0.00033436,3341.3,0.00011042,0.0081832,0.0001102,-1.6131,-0.00033438,-3342.1,0.52185
1018,10.115,4.9091,0,0.00033415,3339.2,0.00011045,0.0061342,0.00010996,-3.6688,-0.00033421,-3341,0.52264
1019,10.115,4.7273,0,0.00033396,3337.2,0.00011049,0.0056121,0.00010973,-5.6814,-0.00033405,-3340.1,0.52336
1020,10.115,4.5455,0,0.00033377,3335.4,0.00011052,0.005353,0.00010951,-7.6244,-0.0003339,-3339.2,0.52401
1021,10.115,4.3636,0,0.0003336,3333.7,0.00011056,0.0051465,0.0001093,-9.4686,-0.00033376,-3338.4,0.52458
1022,10.115,4.1818,0,0.00033344,3332.1,0.00011059,0.0049485,0.0001091,-11.182,-0.00033363,-3337.7,0.52508
1023,10.115,4,0,0.0003333,3330.7,0.00011062,0.0047498,0.00010893,-12.73,-0.00033352,-3337.1,0.52551
1024,10.115,3.8182,0,0.00033318,3329.5,0.00011065,0.0045562,0.00010877,-14.08,-0.00033342,-3336.5,0.52587
1025,10.115,3.6364,0,0.00033308,3328.5,0.00011067,0.0043794,0.00010865,-15.203,-0.00033334,-3336.1,0.52616
1026,10.115,3.4545,0,0.00033301,3327.8,0.00011069,0.0042344,0.00010855,-16.07,-0.00033328,-3335.8,0.52638
1027,10.115,3.2727,0,0.00033295,3327.2,0.0001107,0.0041297,0.00010848,-16.66,-0.00033323,-3335.5,0.52652
1028,10.115,3.0909,0,0.00033293,3327,0.00011071,0.0040747,0.00010845,-16.96,-0.00033321,-3335.4,0.52659
1029,10.115,2.9091,0,0.00033293,3327,0.00011071,0.0040752,0.00010845,-16.96,-0.00033321,-3335.4,0.52659
1030,10.115,2.7273,0,0.00033295,3327.2,0.0001107,0.0041299,0.00010848,-16.66,-0.00033323,-3335.5,0.52652
1031,10.115,2.5455,0,0.00033301,3327.8,0.00011069,0.0042345,0.00010855,-16.07,-0.00033328,-3335.8,0.52638
1032,10.115,2.3636,0,0.00033308,3328.5,0.00011067,0.0043793,0.00010865,-15.203,-0.00033334,-3336.1,0.52616
1033,10.115,2.1818,0,0.00033318,3329.5,0.00011065,0.0045563,0.00010877,-14.08,-0.00033342,-3336.5,0.52587
1034,10.115,2,0,0.0003333,3330.7,0.00011062,0.0047505,0.00010893,-12.73,-0.00033352,-3337.1,0.52551
1035,10.115,1.8182,0,0.00033344,3332.1,0.00011059,0.0049489,0.0001091,-11.182,-0.00033363,-3337.7,0.52508
1036,10.115,1.6364,0,0.0003336,3333.7,0.00011056,0.005147,0.0001093,-9.4686,-0.00033376,-3338.4,0.52458
1037,10.115,1.4545,0,0.00033377,3335.4,0.00011052,0.0053531,0.00010951,-7.6245,-0.0003339,-3339.2,0.52401
1038,10.115,1.2727,0,0.00033396,3337.2,0.00011049,0.0056127,0.00010973,-5.6814,-0.00033405,-3340.1,0.52336
1039,10.115,1.0909,0,0.00033415,3339.2,0.00011045,0.0061347,0.00010996,-3.6689,-0.00033421,-3341,0.52264
1040,10.115,0.90909,0,0.00033436,3341.3,0.00011042,0.0081846,0.0001102,-1.6131,-0.00033438,-3342.1,0.52185
1041,10.115,0.72727,0,0.00033457,3343.4,0.00011045,0.48853,0.00011038,-0.009689,-0.00033456,-3343.2,0.52098
1042,10.115,0.54545,0,0.0003348,3345.7,0.0001107,2.5778,0.00011036,0.0005625,-0.00033475,-3344.4,0.52005
1043,10.115,0.36364,0,0.00033504,3348.1,0.00011096,4.743,0.00011033,0.0034231,-0.00033496,-3345.8,0.51904
1044,10.115,0.18182,0,0.00033545,3352.2,0.00011136,7.9019,0.00011031,-0.0042556,-0.00033531,-3348.2,0.51795
1045,9.931,5.8182,0,0.00034069,3404.6,0.00011303,7.2354,0.00011207,-0.0061524,-0.00034057,-3401,0.50055
1046,9.931,5.6364,0,0.00034025,3400.1,0.00011258,3.5782,0.00011211,0.0062472,-0.00034019,-3398.3,0.50164
1047,9.931,5.4545,0,0.00033996,3397.3,0.00011226,0.9279,0.00011214,-0.00045242,-0.00033994,-3396.8,0.50266
1048,9.931,5.2727,0,0.00033969,3394.6,0.00011218,0.0072973,0.00011196,-1.6335,-0.00033972,-3395.4,0.50361
1049,9.931,5.0909,0,0.00033944,3392,0.00011222,0.0057212,0.00011167,-4.133,-0.00033951,-3394.1,0.50449
1050,9.931,4.9091,0,0.00033919,3389.6,0.00011226,0.0054296,0.00011139,-6.5673,-0.00033931,-3392.9,0.50529
1051,9.931,4.7273,0,0.00033897,3387.3,0.0001123,0.0052278,0.00011111,-8.9147,-0.00033912,-3391.8,0.50602
1052,9.931,4.5455,0,0.00033875,3385.2,0.00011234,0.005055,0.00011086,-11.15,-0.00033894,-3390.7,0.50667
1053,9.931,4.3636,0,0.00033855,3383.2,0.00011238,0.0048652,0.00011061,-13.244,-0.00033878,-3389.8,0.50725
1054,9.931,4.1818,0,0.00033837,3381.4,0.00011241,0.0046666,0.00011039,-15.167,-0.00033863,-3388.9,0.50776
1055,9.931,4,0,0.00033821,3379.8,0.00011245,0.0044627,0.0001102,-16.888,-0.0003385,-3388.2,0.5082
1056,9.931,3.8182,0,0.00033808,3378.4,0.00011247,0.0042654,0.00011003,-18.377,-0.00033839,-3387.6,0.50856
1057,9.931,3.6364,0,0.00033797,3377.3,0.0001125,0.0040886,0.00010989,-19.605,-0.00033829,-3387.1,0.50885
1058,9.931,3.4545,0,0.00033788,3376.5,0.00011252,0.0039452,0.00010978,-20.549,-0.00033822,-3386.7,0.50907
1059,9.931,3.2727,0,0.00033782,3375.9,0.00011253,0.0038436,0.00010971,-21.189,-0.00033818,-3386.4,0.50921
1060,9.931,3.0909,0,0.00033779,3375.6,0.00011254,0.0037899,0.00010967,-21.513,-0.00033815,-3386.3,0.50929
1061,9.931,2.9091,0,0.00033779,3375.6,0.00011254,0.0037893,0.00010967,-21.513,-0.00033815,-3386.3,0.50929
1062,9.931,2.7273,0,0.00033782,3375.9,0.00011253,0.0038435,0.00010971,-21.189,-0.00033818,-3386.4,0.50921
1063,9.931,2.5455,0,0.00033788,3376.5,0.00011252,0.0039457,0.00010978,-20.549,-0.00033822,-3386.7,0.50907
1064,9.931,2.3636,0,0.00033797,3377.3,0.0001125,0.0040893,0.00010989,-19.605,-0.00033829,-3387.1,0.50885
1065,9.931,2.1818,0,0.00033808,3378.4,0.00011247,0.0042656,0.00011003,-18.377,-0.00033839,-3387.6,0.50856
1066,9.931,2,0,0.00033821,3379.8,0.00011245,0.0044634,0.0001102,-16.888,-0.0003385,-3388.2,0.5082
1067,9.931,1.8182,0,0.00033837,3381.4,0.00011241,0.004667,0.00011039,-15.167,-0.00033863,-3388.9,0.50776
1068,9.931,1.6364,0,0.00033855,3383.2,0.00011238,0.0048662,0.00011061,-13.244,-0.00033878,-3389.8,0.50725
1069,9.931,1.4545,0,0.00033875,3385.2,0.00011234,0.0050553,0.00011086,-11.15,-0.00033894,-3390.7,0.50667
1070,9.931,1.2727,0,0.00033897,3387.3,0.0001123,0.0052285,0.00011111,-8.9147,-0.00033912,-3391.8,0.50602
1071,9.931,1.0909,0,0.00033919,3389.6,0.00011226,0.0054305,0.00011139,-6.5673,-0.00033931,-3392.9,0.50529
1072,9.931,0.90909,0,0.00033944,3392,0.00011222,0.0057229,0.00011167,-4.1331,-0.00033951,-3394.1,0.50449
1073,9.931,0.72727,0,0.00033969,3394.6,0.00011218,0.007298,0.00011196,-1.6335,-0.00033972,-3395.4,0.50361
1074,9.931,0.54545,0,0.00033996,3397.3,0.00011226,0.9279,0.00011214,-0.00045296,-0.00033994,-3396.8,0.50266
1075,9.931,0.36364,0,0.00034025,3400.1,0.00011258,3.5782,0.00011211,0.0062481,-0.00034019,-3398.3,0.50164
1076,9.931,0.18182,0,0.00034069,3404.6,0.00011303,7.2354,0.00011207,-0.0061516,-0.00034057,-3401,0.50055
1077,9.7471,5.8182,0,0.00034595,3457.1,0.00011471,6.5418,0.00011384,-0.008836,-0.00034584,-3453.9,0.48337
1078,9.7471,5.6364,0,0.00034547,3452.3,0.0001142,2.3832,0.00011389,0.0089536,-0.00034543,-3451.1,0.48448
1079,9.7471,5.4545,0,0.00034514,3449,0.00011393,0.0058733,0.00011383,-0.76714,-0.00034515,-3449.4,0.48551
1080,9.7471,5.2727,0,0.00034483,3445.9,0.00011398,0.0056852,0.00011348,-3.7854,-0.00034489,-3447.8,0.48647
1081,9.7471,5.0909,0,0.00034453,3442.9,0.00011403,0.0052736,0.00011313,-6.7172,-0.00034465,-3446.3,0.48736
1082,9.7471,4.9091,0,0.00034425,3440.2,0.00011408,0.0051899,0.00011281,-9.5451,-0.00034441,-3444.9,0.48817
1083,9.7471,4.7273,0,0.00034399,3437.5,0.00011412,0.0050169,0.00011249,-12.246,-0.0003442,-3443.6,0.4889
1084,9.7471,4.5455,0,0.00034374,3435.1,0.00011417,0.0048334,0.0001122,-14.794,-0.00034399,-3442.4,0.48957
1085,9.7471,4.3636,0,0.00034352,3432.8,0.00011421,0.0046225,0.00011193,-17.161,-0.00034381,-3441.4,0.49015
1086,9.7471,4.1818,0,0.00034332,3430.8,0.00011425,0.0044025,0.00011168,-19.316,-0.00034364,-3440.4,0.49067
1087,9.7471,4,0,0.00034314,3429,0.00011429,0.0041831,0.00011146,-21.231,-0.00034349,-3439.6,0.49111
1088,9.7471,3.8182,0,0.00034298,3427.5,0.00011432,0.0039739,0.00011127,-22.877,-0.00034337,-3438.8,0.49148
1089,9.7471,3.6364,0,0.00034286,3426.2,0.00011434,0.0037907,0.00011112,-24.228,-0.00034326,-3438.3,0.49177
1090,9.7471,3.4545,0,0.00034276,3425.3,0.00011436,0.0036438,0.000111,-25.263,-0.00034319,-3437.8,0.49199
1091,9.7471,3.2727,0,0.0003427,3424.6,0.00011437,0.0035398,0.00011092,-25.962,-0.00034313,-3437.5,0.49214
1092,9.7471,3.0909,0,0.00034267,3424.3,0.00011438,0.0034857,0.00011088,-26.315,-0.00034311,-3437.4,0.49221
1093,9.7471,2.9091,0,0.00034267,3424.3,0.00011438,0.0034862,0.00011088,-26.315,-0.00034311,-3437.4,0.49221
1094,9.7471,2.7273,0,0.0003427,3424.6,0.00011437,0.0035397,0.00011092,-25.962,-0.00034313,-3437.5,0.49214
1095,9.7471,2.5455,0,0.00034276,3425.3,0.00011436,0.0036442,0.000111,-25.263,-0.00034319,-3437.8,0.49199
1096,9.7471,2.3636,0,0.00034286,3426.2,0.00011434,0.0037911,0.00011112,-24.228,-0.00034326,-3438.3,0.49177
1097,9.7471,2.1818,0,0.00034298,3427.5,0.00011432,0.0039744,0.00011127,-22.877,-0.00034337,-3438.8,0.49148
1098,9.7471,2,0,0.00034314,3429,0.00011429,0.0041831,0.00011146,-21.231,-0.00034349,-3439.6,0.49111
1099,9.7471,1.8182,0,0.00034332,3430.8,0.00011425,0.0044029,0.00011168,-19.316,-0.00034364,-3440.4,0.49067
1100,9.7471,1.6364,0,0.00034352,3432.8,0.00011421,0.0046234,0.00011193,-17.161,-0.00034381,-3441.4,0.49015
1101,9.7471,1.4545,0,0.00034374,3435.1,0.00011417,0.0048339,0.0001122,-14.794,-0.00034399,-3442.4,0.48957
1102,9.7471,1.2727,0,0.00034399,3437.5,0.00011412,0.0050174,0.00011249,-12.246,-0.0003442,-3443.6,0.4889
1103,9.7471,1.0909,0,0.00034425,3440.2,0.00011408,0.0051907,0.00011281,-9.5451,-0.00034441,-3444.9,0.48817
1104,9.7471,0.90909,0,0.00034453,3442.9,0.00011403,0.0052754,0.00011313,-6.7172,-0.00034465,-3446.3,0.48736
1105,9.7471,0.72727,0,0.00034483,3445.9,0.00011398,0.0056867,0.00011348,-3.7854,-0.00034489,-3447.8,0.48647
1106,9.7471,0.54545,0,0.00034514,3449,0.00011393,0.0058744,0.00011383,-0.76714,-0.00034515,-3449.4,0.48551
1107,9.7471,0.36364,0,0.00034547,3452.3,0.0001142,2.3832,0.00011389,0.0089542,-0.00034543,-3451.1,0.48448
1108,9.7471,0.18182,0,0.00034595,3457.1,0.00011471,6.5418,0.00011384,-0.008835,-0.00034584,-3453.9,0.48337
1109,9.5632,5.8182,0,0.00035123,3509.9,0.00011639,5.8173,0.00011562,-0.012673,-0.00035113,-3507,0.46642
1110,9.5632,5.6364,0,0.0003507,3504.6,0.00011583,1.1486,0.00011568,0.010975,-0.00035068,-3504,0.46755
1111,9.5632,5.4545,0,0.00035033,3500.9,0.00011573,0.0044838,0.0001154,-2.5073,-0.00035037,-3502.1,0.46859
1112,9.5632,5.2727,0,0.00034998,3497.4,0.00011579,0.005676,0.00011499,-6.0067,-0.00035008,-3500.3,0.46956
1113,9.5632,5.0909,0,0.00034964,3494,0.00011585,0.005228,0.0001146,-9.3868,-0.0003498,-3498.7,0.47046
1114,9.5632,4.9091,0,0.00034932,3490.8,0.0001159,0.0051204,0.00011422,-12.627,-0.00034954,-3497.1,0.47128
1115,9.5632,4.7273,0,0.00034903,3487.9,0.00011596,0.0048892,0.00011387,-15.703,-0.00034929,-3495.7,0.47202
1116,9.5632,4.5455,0,0.00034875,3485.1,0.00011601,0.0046563,0.00011353,-18.586,-0.00034906,-3494.4,0.47269
1117,9.5632,4.3636,0,0.0003485,3482.6,0.00011606,0.0044018,0.00011323,-21.247,-0.00034885,-3493.1,0.47329
1118,9.5632,4.1818,0,0.00034827,3480.3,0.0001161,0.0041463,0.00011295,-23.657,-0.00034867,-3492.1,0.47381
1119,9.5632,4,0,0.00034807,3478.3,0.00011614,0.0038994,0.00011271,-25.787,-0.0003485,-3491.1,0.47425
1120,9.5632,3.8182,0,0.0003479,3476.6,0.00011617,0.0036716,0.0001125,-27.61,-0.00034836,-3490.3,0.47462
1121,9.5632,3.6364,0,0.00034776,3475.2,0.0001162,0.0034751,0.00011233,-29.1,-0.00034824,-3489.6,0.47492
1122,9.5632,3.4545,0,0.00034765,3474.1,0.00011622,0.0033197,0.0001122,-30.238,-0.00034816,-3489.1,0.47514
1123,9.5632,3.2727,0,0.00034758,3473.4,0.00011623,0.0032107,0.00011211,-31.006,-0.0003481,-3488.8,0.47529
1124,9.5632,3.0909,0,0.00034755,3473.1,0.00011624,0.0031547,0.00011206,-31.393,-0.00034807,-3488.6,0.47537
1125,9.5632,2.9091,0,0.00034755,3473.1,0.00011624,0.0031547,0.00011206,-31.393,-0.00034807,-3488.6,0.47537
1126,9.5632,2.7273,0,0.00034758,3473.4,0.00011623,0.0032114,0.00011211,-31.006,-0.0003481,-3488.8,0.47529
1127,9.5632,2.5455,0,0.00034765,3474.1,0.00011622,0.0033197,0.0001122,-30.238,-0.00034816,-3489.1,0.47514
1128,9.5632,2.3636,0,0.00034776,3475.2,0.0001162,0.0034754,0.00011233,-29.1,-0.00034824,-3489.6,0.47492
1129,9.5632,2.1818,0,0.0003479,3476.6,0.00011617,0.003672,0.0001125,-27.61,-0.00034836,-3490.3,0.47462
1130,9.5632,2,0,0.00034807,3478.3,0.00011614,0.0039,0.00011271,-25.787,-0.0003485,-3491.1,0.47425
1131,9.5632,1.8182,0,0.00034827,3480.3,0.0001161,0.0041466,0.00011295,-23.657,-0.00034867,-3492.1,0.47381
1132,9.5632,1.6364,0,0.0003485,3482.6,0.00011606,0.004402,0.00011323,-21.247,-0.00034885,-3493.1,0.47329
1133,9.5632,1.4545,0,0.00034875,3485.1,0.00011601,0.0046568,0.00011353,-18.586,-0.00034906,-3494.3,0.47269
1134,9.5632,1.2727,0,0.00034903,3487.9,0.00011596,0.0048902,0.00011387,-15.703,-0.00034929,-3495.7,0.47202
1135,9.5632,1.0909,0,0.00034932,3490.8,0.0001159,0.0051209,0.00011422,-12.627,-0.00034954,-3497.1,0.47128
1136,9.5632,0.90909,0,0.00034964,3494,0.00011585,0.0052293,0.0001146,-9.3868,-0.0003498,-3498.7,0.47046
1137,9.5632,0.72727,0,0.00034998,3497.4,0.00011579,0.0056773,0.00011499,-6.0067,-0.00035008,-3500.3,0.46956
1138,9.5632,0.54545,0,0.00035033,3500.9,0.00011573,0.0044841,0.0001154,-2.5073,-0.00035037,-3502.1,0.46859
1139,9.5632,0.36364,0,0.0003507,3504.6,0.00011583,1.1487,0.00011568,0.010977,-0.00035068,-3504,0.46755
1140,9.5632,0.18182,0,0.00035123,3509.9,0.00011639,5.8174,0.00011562,-0.012672,-0.00035113,-3507,0.46642
1141,9.3793,5.8182,0,0.00035652,3562.8,0.00011808,5.0588,0.0001174,-0.018271,-0.00035644,-3560.2,0.44972
1142,9.3793,5.6364,0,0.00035595,3557.1,0.00011748,0.03053,0.00011745,-0.15309,-0.00035596,-3557.2,0.45085
1143,9.3793,5.4545,0,0.00035554,3552.9,0.00011754,0.0049161,0.00011697,-4.3165,-0.00035561,-3555.1,0.45191
1144,9.3793,5.2727,0,0.00035514,3549,0.00011761,0.0060706,0.0001165,-8.3148,-0.00035528,-3553.1,0.45289
1145,9.3793,5.0909,0,0.00035477,3545.2,0.00011768,0.0053822,0.00011606,-12.164,-0.00035497,-3551.3,0.4538
1146,9.3793,4.9091,0,0.00035441,3541.7,0.00011774,0.0051724,0.00011563,-15.839,-0.00035468,-3549.5,0.45463
1147,9.3793,4.7273,0,0.00035408,3538.3,0.0001178,0.0048429,0.00011523,-19.312,-0.0003544,-3547.9,0.45538
1148,9.3793,4.5455,0,0.00035377,3535.2,0.00011786,0.0045359,0.00011486,-22.553,-0.00035414,-3546.4,0.45606
1149,9.3793,4.3636,0,0.00035348,3532.4,0.00011791,0.0042213,0.00011451,-25.533,-0.00035391,-3545.1,0.45666
1150,9.3793,4.1818,0,0.00035323,3529.9,0.00011796,0.0039192,0.00011421,-28.22,-0.0003537,-3543.9,0.45718
1151,9.3793,4,0,0.00035301,3527.6,0.000118,0.003637,0.00011393,-30.586,-0.00035352,-3542.8,0.45763
1152,9.3793,3.8182,0,0.00035282,3525.8,0.00011804,0.0033821,0.0001137,-32.604,-0.00035336,-3541.9,0.45801
1153,9.3793,3.6364,0,0.00035266,3524.2,0.00011807,0.0031661,0.00011351,-34.25,-0.00035324,-3541.2,0.45831
1154,9.3793,3.4545,0,0.00035255,3523,0.0001181,0.0029975,0.00011337,-35.504,-0.00035314,-3540.7,0.45853
1155,9.3793,3.2727,0,0.00035247,3522.3,0.00011811,0.0028807,0.00011327,-36.348,-0.00035307,-3540.3,0.45868
1156,9.3793,3.0909,0,0.00035243,3521.9,0.00011812,0.0028206,0.00011322,-36.774,-0.00035304,-3540.1,0.45876
1157,9.3793,2.9091,0,0.00035243,3521.9,0.00011812,0.0028207,0.00011322,-36.774,-0.00035304,-3540.1,0.45876
1158,9.3793,2.7273,0,0.00035247,3522.3,0.00011811,0.0028806,0.00011327,-36.348,-0.00035307,-3540.3,0.45868
1159,9.3793,2.5455,0,0.00035255,3523,0.0001181,0.002998,0.00011337,-35.504,-0.00035314,-3540.7,0.45853
1160,9.3793,2.3636,0,0.00035266,3524.2,0.00011807,0.0031664,0.00011351,-34.25,-0.00035324,-3541.2,0.45831
1161,9.3793,2.1818,0,0.00035282,3525.8,0.00011804,0.0033825,0.0001137,-32.604,-0.00035336,-3541.9,0.45801
1162,9.3793,2,0,0.00035301,3527.6,0.000118,0.0036372,0.00011393,-30.586,-0.00035352,-3542.8,0.45763
1163,9.3793,1.8182,0,0.00035323,3529.9,0.00011796,0.00392,0.00011421,-28.22,-0.0003537,-3543.9,0.45718
1164,9.3793,1.6364,0,0.00035348,3532.4,0.00011791,0.0042218,0.00011451,-25.533,-0.00035391,-3545.1,0.45666
1165,9.3793,1.4545,0,0.00035377,3535.2,0.00011786,0.0045368,0.00011486,-22.553,-0.00035414,-3546.4,0.45606
1166,9.3793,1.2727,0,0.00035408,3538.3,0.0001178,0.0048436,0.00011523,-19.312,-0.0003544,-3547.9,0.45538
1167,9.3793,1.0909,0,0.00035441,3541.7,0.00011774,0.0051726,0.00011563,-15.839,-0.00035468,-3549.5,0.45463
1168,9.3793,0.90909,0,0.00035477,3545.2,0.00011768,0.0053834,0.00011606,-12.164,-0.00035497,-3551.3,0.4538
1169,9.3793,0.72727,0,0.00035514,3549,0.00011761,0.0060718,0.0001165,-8.3148,-0.00035528,-3553.1,0.45289
1170,9.3793,0.54545,0,0.00035554,3552.9,0.00011754,0.0049166,0.00011697,-4.3165,-0.00035561,-3555.1,0.45191
1171,9.3793,0.36364,0,0.00035595,3557.1,0.00011748,0.030531,0.00011745,-0.15307,-0.00035596,-3557.2,0.45085
1172,9.3793,0.18182,0,0.00035652,3562.8,0.00011808,5.0588,0.0001174,-0.01827,-0.00035644,-3560.2,0.44972
1173,9.1954,5.8182,0,0.00036183,3615.8,0.00011976,4.2635,0.00011919,-0.026846,-0.00036176,-3613.7,0.43325
1174,9.1954,5.6364,0,0.00036122,3609.8,0.00011928,0.021354,0.00011908,-1.4849,-0.00036125,-3610.5,0.4344
1175,9.1954,5.4545,0,0.00036076,3605.1,0.00011936,0.0056463,0.00011853,-6.207,-0.00036087,-3608.2,0.43547
1176,9.1954,5.2727,0,0.00036032,3600.7,0.00011944,0.0066528,0.00011801,-10.727,-0.0003605,-3606.1,0.43646
1177,9.1954,5.0909,0,0.0003599,3596.5,0.00011951,0.0056515,0.00011751,-15.069,-0.00036016,-3604.1,0.43738
1178,9.1954,4.9091,0,0.00035951,3592.6,0.00011959,0.0052995,0.00011703,-19.204,-0.00035983,-3602.1,0.43821
1179,9.1954,4.7273,0,0.00035914,3588.9,0.00011966,0.0048473,0.00011658,-23.1,-0.00035952,-3600.4,0.43898
1180,9.1954,4.5455,0,0.00035879,3585.4,0.00011972,0.0044488,0.00011617,-26.725,-0.00035924,-3598.7,0.43966
1181,9.1954,4.3636,0,0.00035848,3582.3,0.00011978,0.0040608,0.00011578,-30.047,-0.00035898,-3597.2,0.44027
1182,9.1954,4.1818,0,0.0003582,3579.5,0.00011984,0.0037016,0.00011544,-33.035,-0.00035875,-3595.9,0.4408
1183,9.1954,4,0,0.00035795,3577.1,0.00011989,0.0033743,0.00011514,-35.659,-0.00035855,-3594.7,0.44125
1184,9.1954,3.8182,0,0.00035774,3575,0.00011993,0.0030852,0.00011488,-37.892,-0.00035837,-3593.8,0.44163
1185,9.1954,3.6364,0,0.00035757,3573.3,0.00011996,0.002844,0.00011468,-39.71,-0.00035823,-3593,0.44193
1186,9.1954,3.4545,0,0.00035745,3572,0.00011999,0.0026577,0.00011452,-41.092,-0.00035813,-3592.4,0.44216
1187,9.1954,3.2727,0,0.00035736,3571.1,0.00012,0.0025296,0.00011441,-42.022,-0.00035805,-3591.9,0.44231
1188,9.1954,3.0909,0,0.00035732,3570.7,0.00012001,0.0024639,0.00011436,-42.49,-0.00035802,-3591.7,0.44239
1189,9.1954,2.9091,0,0.00035732,3570.7,0.00012001,0.0024644,0.00011436,-42.49,-0.00035802,-3591.7,0.44239
1190,9.1954,2.7273,0,0.00035736,3571.1,0.00012,0.0025296,0.00011441,-42.022,-0.00035805,-3591.9,0.44231
1191,9.1954,2.5455,0,0.00035745,3572,0.00011999,0.002658,0.00011452,-41.092,-0.00035813,-3592.4,0.44216
1192,9.1954,2.3636,0,0.00035757,3573.3,0.00011996,0.0028444,0.00011468,-39.71,-0.00035823,-3593,0.44193
1193,9.1954,2.1818,0,0.00035774,3575,0.00011993,0.0030855,0.00011488,-37.892,-0.00035837,-3593.8,0.44163
1194,9.1954,2,0,0.00035795,3577.1,0.00011989,0.0033744,0.00011514,-35.66,-0.00035855,-3594.7,0.44125
1195,9.1954,1.8182,0,0.0003582,3579.5,0.00011984,0.0037022,0.00011544,-33.035,-0.00035875,-3595.9,0.4408
1196,9.1954,1.6364,0,0.00035848,3582.3,0.00011978,0.0040612,0.00011578,-30.047,-0.00035898,-3597.2,0.44027
1197,9.1954,1.4545,0,0.00035879,3585.4,0.00011972,0.0044495,0.00011617,-26.725,-0.00035924,-3598.7,0.43966
1198,9.1954,1.2727,0,0.00035914,3588.9,0.00011966,0.0048478,0.00011658,-23.1,-0.00035952,-3600.4,0.43898
1199,9.1954,1.0909,0,0.00035951,3592.6,0.00011959,0.0053001,0.00011703,-19.204,-0.00035983,-3602.1,0.43821
1200,9.1954,0.90909,0,0.0003599,3596.5,0.00011951,0.005653,0.00011751,-15.069,-0.00036016,-3604.1,0.43738
1201,9.1954,0.72727,0,0.00036032,3600.7,0.00011944,0.0066538,0.00011801,-10.727,-0.0003605,-3606.1,0.43646
1202,9.1954,0.54545,0,0.00036076,3605.1,0.00011936,0.0056467,0.00011853,-6.2071,-0.00036087,-3608.2,0.43547
1203,9.1954,0.36364,0,0.00036122,3609.8,0.00011928,0.021355,0.00011908,-1.4849,-0.00036125,-3610.5,0.4344
1204,9.1954,0.18182,0,0.00036183,3615.8,0.00011976,4.2635,0.00011919,-0.026845,-0.00036176,-3613.7,0.43325
1205,9.0115,5.8182,0,0.00036717,3669.1,0.00012145,3.4302,0.00012099,-0.040914,-0.00036711,-3667.4,0.41702
1206,9.0115,5.6364,0,0.00036651,3662.6,0.00012109,0.024167,0.00012071,-2.8963,-0.00036656,-3664,0.41819
1207,9.0115,5.4545,0,0.000366,3657.5,0.00012119,0.0065289,0.0001201,-8.1923,-0.00036614,-3661.6,0.41927
1208,9.0115,5.2727,0,0.00036552,3652.6,0.00012128,0.0073677,0.00011951,-13.262,-0.00036574,-3659.2,0.42027
1209,9.0115,5.0909,0,0.00036505,3648,0.00012136,0.0060139,0.00011895,-18.124,-0.00036536,-3657,0.4212
1210,9.0115,4.9091,0,0.00036462,3643.6,0.00012145,0.0054942,0.00011842,-22.747,-0.000365,-3655,0.42205
1211,9.0115,4.7273,0,0.00036421,3639.5,0.00012153,0.0048985,0.00011792,-27.094,-0.00036466,-3653,0.42281
1212,9.0115,4.5455,0,0.00036383,3635.7,0.0001216,0.0043941,0.00011746,-31.13,-0.00036435,-3651.2,0.42351
1213,9.0115,4.3636,0,0.00036348,3632.3,0.00012167,0.0039214,0.00011703,-34.821,-0.00036406,-3649.6,0.42412
1214,9.0115,4.1818,0,0.00036317,3629.2,0.00012173,0.0034948,0.00011665,-38.135,-0.0003638,-3648.1,0.42466
1215,9.0115,4,0,0.0003629,3626.5,0.00012178,0.0031137,0.00011632,-41.04,-0.00036358,-3646.8,0.42511
1216,9.0115,3.8182,0,0.00036267,3624.2,0.00012183,0.002784,0.00011604,-43.507,-0.00036339,-3645.8,0.4255
1217,9.0115,3.6364,0,0.00036248,3622.3,0.00012187,0.0025114,0.00011581,-45.513,-0.00036324,-3644.9,0.4258
1218,9.0115,3.4545,0,0.00036234,3620.9,0.0001219,0.0023031,0.00011564,-47.036,-0.00036312,-3644.2,0.42603
1219,9.0115,3.2727,0,0.00036225,3620,0.00012191,0.0021606,0.00011552,-48.061,-0.00036304,-3643.8,0.42618
1220,9.0115,3.0909,0,0.0003622,3619.5,0.00012192,0.002088,0.00011546,-48.576,-0.000363,-3643.5,0.42626
1221,9.0115,2.9091,0,0.0003622,3619.5,0.00012192,0.002088,0.00011546,-48.576,-0.000363,-3643.5,0.42626
1222,9.0115,2.7273,0,0.00036225,3620,0.00012191,0.0021607,0.00011552,-48.061,-0.00036304,-3643.8,0.42618
1223,9.0115,2.5455,0,0.00036234,3620.9,0.0001219,0.0023035,0.00011564,-47.036,-0.00036312,-3644.2,0.42603
1224,9.0115,2.3636,0,0.00036248,3622.3,0.00012187,0.0025117,0.00011581,-45.513,-0.00036324,-3644.9,0.4258
1225,9.0115,2.1818,0,0.00036267,3624.2,0.00012183,0.0027846,0.00011604,-43.507,-0.00036339,-3645.8,0.4255
1226,9.0115,2,0,0.0003629,3626.5,0.00012178,0.0031144,0.00011632,-41.04,-0.00036358,-3646.8,0.42511
1227,9.0115,1.8182,0,0.00036317,3629.2,0.00012173,0.0034954,0.00011665,-38.135,-0.0003638,-3648.1,0.42466
1228,9.0115,1.6364,0,0.00036348,3632.3,0.00012167,0.0039218,0.00011703,-34.821,-0.00036406,-3649.6,0.42412
1229,9.0115,1.4545,0,0.00036383,3635.7,0.0001216,0.0043951,0.00011746,-31.13,-0.00036435,-3651.2,0.42351
1230,9.0115,1.2727,0,0.00036421,3639.5,0.00012153,0.0048994,0.00011792,-27.094,-0.00036466,-3653,0.42281
1231,9.0115,1.0909,0,0.00036462,3643.6,0.00012145,0.0054951,0.00011842,-22.747,-0.000365,-3655,0.42205
1232,9.0115,0.90909,0,0.00036505,3648,0.00012136,0.0060154,0.00011895,-18.124,-0.00036536,-3657,0.4212
1233,9.0115,0.72727,0,0.00036552,3652.6,0.00012128,0.0073687,0.00011951,-13.262,-0.00036574,-3659.2,0.42027
1234,9.0115,0.54545,0,0.000366,3657.5,0.00012119,0.0065294,0.0001201,-8.1923,-0.00036614,-3661.6,0.41927
1235,9.0115,0.36364,0,0.00036651,3662.6,0.00012109,0.024168,0.00012071,-2.8963,-0.00036656,-3664,0.41819
1236,9.0115,0.18182,0,0.00036717,3669.1,0.00012145,3.4302,0.00012099,-0.040912,-0.00036711,-3667.4,0.41702
1237,8.8276,5.8182,0,0.00037252,3722.7,0.00012315,2.5614,0.0001228,-0.066682,-0.00037248,-3721.4,0.40105
1238,8.8276,5.6364,0,0.00037182,3715.7,0.00012292,0.027685,0.00012233,-4.3848,-0.0003719,-3717.8,0.40222
1239,8.8276,5.4545,0,0.00037126,3710,0.00012303,0.0075276,0.00012166,-10.285,-0.00037143,-3715.2,0.40332
1240,8.8276,5.2727,0,0.00037073,3704.7,0.00012313,0.0081937,0.00012101,-15.936,-0.00037099,-3712.6,0.40433
1241,8.8276,5.0909,0,0.00037022,3699.6,0.00012323,0.0064554,0.00012039,-21.351,-0.00037057,-3710.2,0.40527
1242,8.8276,4.9091,0,0.00036973,3694.8,0.00012332,0.0057477,0.0001198,-26.492,-0.00037018,-3708,0.40612
1243,8.8276,4.7273,0,0.00036928,3690.3,0.00012341,0.0049923,0.00011924,-31.321,-0.00036981,-3705.8,0.4069
1244,8.8276,4.5455,0,0.00036887,3686.1,0.00012349,0.0043679,0.00011873,-35.798,-0.00036946,-3703.9,0.4076
1245,8.8276,4.3636,0,0.00036848,3682.3,0.00012357,0.0037983,0.00011826,-39.887,-0.00036915,-3702.1,0.40822
1246,8.8276,4.1818,0,0.00036814,3678.9,0.00012364,0.0032948,0.00011784,-43.553,-0.00036887,-3700.5,0.40876
1247,8.8276,4,0,0.00036785,3675.9,0.0001237,0.0028526,0.00011747,-46.762,-0.00036862,-3699.1,0.40922
1248,8.8276,3.8182,0,0.0003676,3673.4,0.00012375,0.0024739,0.00011716,-49.484,-0.00036841,-3697.9,0.40961
1249,8.8276,3.6364,0,0.00036739,3671.4,0.00012379,0.0021655,0.00011691,-51.695,-0.00036824,-3697,0.40992
1250,8.8276,3.4545,0,0.00036724,3669.8,0.00012382,0.0019306,0.00011672,-53.373,-0.00036812,-3696.2,0.41015
1251,8.8276,3.2727,0,0.00036713,3668.8,0.00012384,0.0017707,0.00011659,-54.501,-0.00036803,-3695.7,0.4103
1252,8.8276,3.0909,0,0.00036708,3668.3,0.00012385,0.0016902,0.00011652,-55.068,-0.00036799,-3695.5,0.41038
1253,8.8276,2.9091,0,0.00036708,3668.3,0.00012385,0.0016902,0.00011652,-55.068,-0.00036799,-3695.5,0.41038
1254,8.8276,2.7273,0,0.00036713,3668.8,0.00012384,0.0017712,0.00011659,-54.501,-0.00036803,-3695.7,0.4103
1255,8.8276,2.5455,0,0.00036724,3669.8,0.00012382,0.0019306,0.00011672,-53.373,-0.00036812,-3696.2,0.41015
1256,8.8276,2.3636,0,0.00036739,3671.4,0.00012379,0.0021655,0.00011691,-51.695,-0.00036824,-3697,0.40992
1257,8.8276,2.1818,0,0.0003676,3673.4,0.00012375,0.0024746,0.00011716,-49.484,-0.00036841,-3697.9,0.40961
1258,8.8276,2,0,0.00036785,3675.9,0.0001237,0.0028528,0.00011747,-46.762,-0.00036862,-3699.1,0.40922
1259,8.8276,1.8182,0,0.00036814,3678.9,0.00012364,0.0032953,0.00011784,-43.553,-0.00036887,-3700.5,0.40876
1260,8.8276,1.6364,0,0.00036848,3682.3,0.00012357,0.0037991,0.00011826,-39.887,-0.00036915,-3702.1,0.40822
1261,8.8276,1.4545,0,0.00036887,3686.1,0.00012349,0.0043686,0.00011873,-35.798,-0.00036946,-3703.9,0.4076
1262,8.8276,1.2727,0,0.00036928,3690.3,0.00012341,0.004993,0.00011924,-31.321,-0.00036981,-3705.8,0.4069
1263,8.8276,1.0909,0,0.00036973,3694.8,0.00012332,0.0057485,0.0001198,-26.492,-0.00037018,-3708,0.40612
1264,8.8276,0.90909,0,0.00037022,3699.6,0.00012323,0.0064571,0.00012039,-21.351,-0.00037057,-3710.2,0.40527
1265,8.8276,0.72727,0,0.00037073,3704.7,0.00012313,0.0081944,0.00012101,-15.936,-0.00037099,-3712.6,0.40433
1266,8.8276,0.54545,0,0.00037126,3710,0.00012303,0.0075278,0.00012166,-10.285,-0.00037143,-3715.2,0.40332
1267,8.8276,0.36364,0,0.00037182,3715.7,0.00012292,0.027686,0.00012233,-4.3848,-0.0003719,-3717.8,0.40222
1268,8.8276,0.18182,0,0.00037252,3722.7,0.00012315,2.5614,0.0001228,-0.066681,-0.00037248,-3721.4,0.40105
1269,8.6437,5.8182,0,0.0003779,3776.4,0.00012485,1.6729,0.00012461,-0.12357,-0.00037787,-3775.6,0.38532
1270,8.6437,5.6364,0,0.00037715,3768.9,0.00012476,0.031576,0.00012396,-5.9588,-0.00037725,-3771.9,0.38651
1271,8.6437,5.4545,0,0.00037654,3762.8,0.00012488,0.0086325,0.00012321,-12.5,-0.00037675,-3769,0.38762
1272,8.6437,5.2727,0,0.00037595,3756.9,0.00012499,0.0091219,0.00012249,-18.768,-0.00037627,-3766.2,0.38864
1273,8.6437,5.0909,0,0.00037539,3751.3,0.0001251,0.0069713,0.00012181,-24.77,-0.00037581,-3763.6,0.38959
1274,8.6437,4.9091,0,0.00037486,3746,0.00012521,0.0060569,0.00012116,-30.466,-0.00037537,-3761.2,0.39045
1275,8.6437,4.7273,0,0.00037437,3741.1,0.00012531,0.005125,0.00012054,-35.81,-0.00037496,-3758.9,0.39123
1276,8.6437,4.5455,0,0.00037391,3736.5,0.0001254,0.0043676,0.00011998,-40.76,-0.00037459,-3756.7,0.39194
1277,8.6437,4.3636,0,0.00037349,3732.3,0.00012549,0.0036905,0.00011946,-45.278,-0.00037424,-3754.8,0.39256
1278,8.6437,4.1818,0,0.00037312,3728.6,0.00012556,0.0030998,0.000119,-49.323,-0.00037393,-3753,0.39311
1279,8.6437,4,0,0.00037279,3725.4,0.00012563,0.0025885,0.0001186,-52.861,-0.00037367,-3751.5,0.39358
1280,8.6437,3.8182,0,0.00037252,3722.6,0.00012569,0.0021548,0.00011825,-55.861,-0.00037344,-3750.2,0.39397
1281,8.6437,3.6364,0,0.00037229,3720.4,0.00012573,0.0018037,0.00011797,-58.296,-0.00037325,-3749.2,0.39428
1282,8.6437,3.4545,0,0.00037212,3718.7,0.00012577,0.0015386,0.00011776,-60.142,-0.00037311,-3748.4,0.39451
1283,8.6437,3.2727,0,0.00037201,3717.5,0.00012579,0.0013584,0.00011762,-61.383,-0.00037302,-3747.9,0.39467
1284,8.6437,3.0909,0,0.00037195,3717,0.0001258,0.0012679,0.00011755,-62.006,-0.00037297,-3747.6,0.39475
1285,8.6437,2.9091,0,0.00037195,3717,0.0001258,0.0012677,0.00011755,-62.006,-0.00037297,-3747.6,0.39475
1286,8.6437,2.7273,0,0.00037201,3717.5,0.00012579,0.0013585,0.00011762,-61.383,-0.00037302,-3747.9,0.39467
1287,8.6437,2.5455,0,0.00037212,3718.7,0.00012577,0.0015382,0.00011776,-60.142,-0.00037311,-3748.4,0.39451
1288,8.6437,2.3636,0,0.00037229,3720.4,0.00012573,0.0018043,0.00011797,-58.296,-0.00037325,-3749.2,0.39428
1289,8.6437,2.1818,0,0.00037252,3722.6,0.00012569,0.0021554,0.00011825,-55.861,-0.00037344,-3750.2,0.39397
1290,8.6437,2,0,0.00037279,3725.4,0.00012563,0.002589,0.0001186,-52.861,-0.00037367,-3751.5,0.39358
1291,8.6437,1.8182,0,0.00037312,3728.6,0.00012556,0.0031006,0.000119,-49.323,-0.00037393,-3753,0.39311
1292,8.6437,1.6364,0,0.00037349,3732.3,0.00012549,0.003691,0.00011946,-45.278,-0.00037424,-3754.8,0.39256
1293,8.6437,1.4545,0,0.00037391,3736.5,0.0001254,0.0043682,0.00011998,-40.76,-0.00037459,-3756.7,0.39194
1294,8.6437,1.2727,0,0.00037437,3741.1,0.00012531,0.0051259,0.00012054,-35.81,-0.00037496,-3758.9,0.39123
1295,8.6437,1.0909,0,0.00037486,3746,0.00012521,0.0060575,0.00012116,-30.466,-0.00037537,-3761.2,0.39045
1296,8.6437,0.90909,0,0.00037539,3751.3,0.0001251,0.0069726,0.00012181,-24.77,-0.00037581,-3763.6,0.38959
1297,8.6437,0.72727,0,0.00037595,3756.9,0.00012499,0.0091235,0.00012249,-18.768,-0.00037627,-3766.2,0.38864
1298,8.6437,0.54545,0,0.00037654,3762.8,0.00012488,0.0086329,0.00012321,-12.5,-0.00037675,-3769,0.38762
1299,8.6437,0.36364,0,0.00037715,3768.9,0.00012476,0.031578,0.00012396,-5.9588,-0.00037725,-3771.9,0.38651
1300,8.6437,0.18182,0,0.0003779,3776.4,0.00012485,1.6729,0.00012461,-0.12356,-0.00037787,-3775.6,0.38532
1301,8.4598,5.8182,0,0.0003833,3830.4,0.00012657,0.84447,0.00012642,-0.29504,-0.00038329,-3830.1,0.36985
1302,8.4598,5.6364,0,0.0003825,3822.4,0.00012661,0.035796,0.00012559,-7.6268,-0.00038263,-3826.2,0.37105
1303,8.4598,5.4545,0,0.00038183,3815.7,0.00012674,0.0098446,0.00012476,-14.849,-0.00038208,-3823.1,0.37217
1304,8.4598,5.2727,0,0.00038119,3809.3,0.00012687,0.010152,0.00012397,-21.774,-0.00038155,-3820.1,0.37321
1305,8.4598,5.0909,0,0.00038058,3803.2,0.000127,0.0075592,0.00012321,-28.405,-0.00038105,-3817.3,0.37416
1306,8.4598,4.9091,0,0.00038,3797.4,0.00012711,0.0064194,0.0001225,-34.692,-0.00038058,-3814.6,0.37503
1307,8.4598,4.7273,0,0.00037946,3792,0.00012723,0.0052956,0.00012182,-40.589,-0.00038013,-3812.1,0.37582
1308,8.4598,4.5455,0,0.00037896,3787,0.00012733,0.0043917,0.0001212,-46.049,-0.00037972,-3809.8,0.37653
1309,8.4598,4.3636,0,0.0003785,3782.4,0.00012742,0.0035955,0.00012063,-51.027,-0.00037934,-3807.6,0.37716
1310,8.4598,4.1818,0,0.00037809,3778.3,0.00012751,0.0029089,0.00012012,-55.483,-0.00037901,-3805.8,0.37772
1311,8.4598,4,0,0.00037774,3774.8,0.00012758,0.0023191,0.00011968,-59.378,-0.00037871,-3804.1,0.37819
1312,8.4598,3.8182,0,0.00037744,3771.7,0.00012765,0.0018238,0.0001193,-62.679,-0.00037846,-3802.7,0.37858
1313,8.4598,3.6364,0,0.00037719,3769.3,0.0001277,0.0014243,0.000119,-65.356,-0.00037826,-3801.6,0.37889
1314,8.4598,3.4545,0,0.00037701,3767.5,0.00012773,0.001124,0.00011877,-67.385,-0.00037811,-3800.7,0.37913
1315,8.4598,3.2727,0,0.00037688,3766.2,0.00012776,0.00092164,0.00011861,-68.749,-0.000378,-3800.1,0.37929
1316,8.4598,3.0909,0,0.00037682,3765.6,0.00012777,0.00081942,0.00011853,-69.434,-0.00037795,-3799.8,0.37936
1317,8.4598,2.9091,0,0.00037682,3765.6,0.00012777,0.00081966,0.00011853,-69.434,-0.00037795,-3799.8,0.37936
1318,8.4598,2.7273,0,0.00037688,3766.2,0.00012776,0.0009217,0.00011861,-68.749,-0.000378,-3800.1,0.37929
1319,8.4598,2.5455,0,0.00037701,3767.5,0.00012773,0.0011243,0.00011877,-67.385,-0.00037811,-3800.7,0.37913
1320,8.4598,2.3636,0,0.00037719,3769.3,0.0001277,0.0014247,0.000119,-65.356,-0.00037826,-3801.6,0.37889
1321,8.4598,2.1818,0,0.00037744,3771.7,0.00012765,0.0018243,0.0001193,-62.679,-0.00037846,-3802.7,0.37858
1322,8.4598,2,0,0.00037774,3774.8,0.00012758,0.0023196,0.00011968,-59.378,-0.00037871,-3804.1,0.37819
1323,8.4598,1.8182,0,0.00037809,3778.3,0.00012751,0.0029091,0.00012012,-55.483,-0.00037901,-3805.8,0.37772
1324,8.4598,1.6364,0,0.0003785,3782.4,0.00012742,0.003596,0.00012063,-51.027,-0.00037934,-3807.6,0.37716
1325,8.4598,1.4545,0,0.00037896,3787,0.00012733,0.0043925,0.0001212,-46.049,-0.00037972,-3809.8,0.37653
1326,8.4598,1.2727,0,0.00037946,3792,0.00012723,0.0052964,0.00012182,-40.589,-0.00038013,-3812.1,0.37582
1327,8.4598,1.0909,0,0.00038,3797.4,0.00012711,0.00642,0.0001225,-34.692,-0.00038058,-3814.6,0.37503
1328,8.4598,0.90909,0,0.00038058,3803.1,0.000127,0.0075608,0.00012321,-28.405,-0.00038105,-3817.3,0.37416
1329,8.4598,0.72727,0,0.00038119,3809.3,0.00012687,0.010153,0.00012397,-21.774,-0.00038155,-3820.1,0.37321
1330,8.4598,0.54545,0,0.00038183,3815.7,0.00012674,0.0098446,0.00012476,-14.849,-0.00038208,-3823.1,0.37217
1331,8.4598,0.36364,0,0.0003825,3822.4,0.00012661,0.035797,0.00012559,-7.6268,-0.00038263,-3826.2,0.37105
1332,8.4598,0.18182,0,0.0003833,3830.4,0.00012657,0.84448,0.00012642,-0.29504,-0.00038329,-3830.1,0.36985
1333,8.2759,5.8182,0,0.00038873,3884.6,0.00012835,0.34913,0.00012819,-0.85769,-0.00038874,-3884.8,0.35464
1334,8.2759,5.6364,0,0.00038787,3876,0.00012847,0.040348,0.00012721,-9.3978,-0.00038803,-3880.7,0.35585
1335,8.2759,5.4545,0,0.00038714,3868.7,0.00012862,0.011168,0.00012631,-17.347,-0.00038743,-3877.4,0.35698
1336,8.2759,5.2727,0,0.00038644,3861.8,0.00012876,0.011286,0.00012544,-24.975,-0.00038686,-3874.2,0.35803
1337,8.2759,5.0909,0,0.00038578,3855.1,0.0001289,0.0082206,0.00012461,-32.277,-0.00038631,-3871.1,0.35899
1338,8.2759,4.9091,0,0.00038514,3848.8,0.00012903,0.0068366,0.00012382,-39.2,-0.0003858,-3868.2,0.35987
1339,8.2759,4.7273,0,0.00038455,3842.9,0.00012916,0.0055029,0.00012308,-45.69,-0.00038531,-3865.5,0.36067
1340,8.2759,4.5455,0,0.00038401,3837.4,0.00012927,0.0044399,0.00012239,-51.698,-0.00038486,-3863,0.36139
1341,8.2759,4.3636,0,0.00038351,3832.4,0.00012938,0.0035117,0.00012177,-57.174,-0.00038445,-3860.7,0.36202
1342,8.2759,4.1818,0,0.00038306,3828,0.00012947,0.0027189,0.00012121,-62.072,-0.00038408,-3858.6,0.36258
1343,8.2759,4,0,0.00038267,3824.1,0.00012955,0.002043,0.00012072,-66.353,-0.00038376,-3856.8,0.36305
1344,8.2759,3.8182,0,0.00038234,3820.8,0.00012962,0.0014783,0.00012031,-69.98,-0.00038349,-3855.3,0.36345
1345,8.2759,3.6364,0,0.00038208,3818.1,0.00012968,0.0010261,0.00011998,-72.92,-0.00038327,-3854.1,0.36377
1346,8.2759,3.4545,0,0.00038188,3816.1,0.00012972,0.00068579,0.00011972,-75.149,-0.0003831,-3853.1,0.364
1347,8.2759,3.2727,0,0.00038174,3814.8,0.00012975,0.00045766,0.00011955,-76.646,-0.00038299,-3852.5,0.36416
1348,8.2759,3.0909,0,0.00038167,3814.1,0.00012977,0.00034288,0.00011946,-77.398,-0.00038293,-3852.2,0.36424
1349,8.2759,2.9091,0,0.00038167,3814.1,0.00012977,0.00034294,0.00011946,-77.398,-0.00038293,-3852.2,0.36424
1350,8.2759,2.7273,0,0.00038174,3814.8,0.00012975,0.0004579,0.00011955,-76.646,-0.00038299,-3852.5,0.36416
1351,8.2759,2.5455,0,0.00038188,3816.1,0.00012972,0.00068567,0.00011972,-75.149,-0.0003831,-3853.1,0.364
1352,8.2759,2.3636,0,0.00038208,3818.1,0.00012968,0.0010262,0.00011998,-72.92,-0.00038327,-3854.1,0.36377
1353,8.2759,2.1818,0,0.00038234,3820.8,0.00012962,0.0014786,0.00012031,-69.98,-0.00038349,-3855.3,0.36345
1354,8.2759,2,0,0.00038267,3824.1,0.00012955,0.0020435,0.00012072,-66.353,-0.00038376,-3856.8,0.36305
1355,8.2759,1.8182,0,0.00038306,3828,0.00012947,0.0027194,0.00012121,-62.072,-0.00038408,-3858.6,0.36258
1356,8.2759,1.6364,0,0.00038351,3832.4,0.00012938,0.0035127,0.00012177,-57.174,-0.00038445,-3860.7,0.36202
1357,8.2759,1.4545,0,0.00038401,3837.4,0.00012927,0.0044402,0.00012239,-51.698,-0.00038486,-3863,0.36139
1358,8.2759,1.2727,0,0.00038455,3842.9,0.00012916,0.0055036,0.00012308,-45.69,-0.00038531,-3865.5,0.36067
1359,8.2759,1.0909,0,0.00038514,3848.8,0.00012903,0.0068371,0.00012382,-39.2,-0.0003858,-3868.2,0.35987
1360,8.2759,0.90909,0,0.00038578,3855.1,0.0001289,0.0082217,0.00012461,-32.277,-0.00038631,-3871.1,0.35899
1361,8.2759,0.72727,0,0.00038644,3861.8,0.00012876,0.011287,0.00012544,-24.975,-0.00038686,-3874.2,0.35803
1362,8.2759,0.54545,0,0.00038714,3868.7,0.00012862,0.011168,0.00012631,-17.347,-0.00038743,-3877.4,0.35698
1363,8.2759,0.36364,0,0.00038787,3876,0.00012847,0.040349,0.00012721,-9.3978,-0.00038803,-3880.7,0.35585
1364,8.2759,0.18182,0,0.00038873,3884.6,0.00012835,0.34913,0.00012819,-0.85768,-0.00038874,-3884.8,0.35464
1365,8.092,5.8182,0,0.00039418,3939.1,0.00013019,0.19682,0.00012992,-1.825,-0.00039421,-3939.9,0.33969
1366,8.092,5.6364,0,0.00039326,3929.9,0.00013034,0.045257,0.00012883,-11.281,-0.00039345,-3935.5,0.34092
1367,8.092,5.4545,0,0.00039247,3922,0.00013051,0.012611,0.00012784,-20.008,-0.00039281,-3932,0.34206
1368,8.092,5.2727,0,0.00039171,3914.4,0.00013067,0.01253,0.00012689,-28.388,-0.00039218,-3928.5,0.34311
1369,8.092,5.0909,0,0.00039098,3907.1,0.00013082,0.0089565,0.00012598,-36.41,-0.00039159,-3925.2,0.34408
1370,8.092,4.9091,0,0.00039029,3900.3,0.00013097,0.0073087,0.00012511,-44.015,-0.00039102,-3922.1,0.34497
1371,8.092,4.7273,0,0.00038965,3893.8,0.00013111,0.0057483,0.0001243,-51.145,-0.00039049,-3919.1,0.34577
1372,8.092,4.5455,0,0.00038905,3887.8,0.00013124,0.0045101,0.00012355,-57.742,-0.00039,-3916.4,0.3465
1373,8.092,4.3636,0,0.00038851,3882.4,0.00013135,0.0034398,0.00012287,-63.755,-0.00038956,-3913.9,0.34714
1374,8.092,4.1818,0,0.00038803,3877.6,0.00013146,0.0025297,0.00012226,-69.133,-0.00038915,-3911.7,0.3477
1375,8.092,4,0,0.0003876,3873.3,0.00013155,0.0017581,0.00012172,-73.831,-0.0003888,-3909.7,0.34818
1376,8.092,3.8182,0,0.00038724,3869.8,0.00013162,0.0011173,0.00012127,-77.811,-0.00038851,-3908.1,0.34858
1377,8.092,3.6364,0,0.00038695,3866.8,0.00013169,0.00060475,0.0001209,-81.037,-0.00038827,-3906.7,0.3489
1378,8.092,3.4545,0,0.00038673,3864.6,0.00013173,0.00022142,0.00012062,-83.481,-0.00038808,-3905.7,0.34913
1379,8.092,3.2727,0,0.00038658,3863.2,0.00013177,-3.5515e-05,0.00012044,-85.123,-0.00038796,-3905,0.34929
1380,8.092,3.0909,0,0.00038651,3862.4,0.00013178,-0.0001647,0.00012034,-85.948,-0.0003879,-3904.7,0.34937
1381,8.092,2.9091,0,0.00038651,3862.4,0.00013178,-0.00016435,0.00012034,-85.948,-0.0003879,-3904.7,0.34937
1382,8.092,2.7273,0,0.00038658,3863.2,0.00013177,-3.5813e-05,0.00012044,-85.123,-0.00038796,-3905,0.34929
1383,8.092,2.5455,0,0.00038673,3864.6,0.00013173,0.00022172,0.00012062,-83.481,-0.00038808,-3905.7,0.34913
1384,8.092,2.3636,0,0.00038695,3866.8,0.00013169,0.0006051,0.0001209,-81.037,-0.00038827,-3906.7,0.3489
1385,8.092,2.1818,0,0.00038724,3869.8,0.00013162,0.0011175,0.00012127,-77.811,-0.00038851,-3908.1,0.34858
1386,8.092,2,0,0.0003876,3873.3,0.00013155,0.0017585,0.00012172,-73.831,-0.0003888,-3909.7,0.34818
1387,8.092,1.8182,0,0.00038803,3877.6,0.00013146,0.0025301,0.00012226,-69.133,-0.00038915,-3911.7,0.3477
1388,8.092,1.6364,0,0.00038851,3882.4,0.00013135,0.00344,0.00012287,-63.755,-0.00038956,-3913.9,0.34714
1389,8.092,1.4545,0,0.00038905,3887.8,0.00013124,0.0045109,0.00012355,-57.742,-0.00039,-3916.4,0.3465
1390,8.092,1.2727,0,0.00038965,3893.8,0.00013111,0.0057489,0.0001243,-51.145,-0.00039049,-3919.1,0.34577
1391,8.092,1.0909,0,0.00039029,3900.3,0.00013097,0.0073092,0.00012511,-44.015,-0.00039102,-3922.1,0.34497
1392,8.092,0.90909,0,0.00039098,3907.1,0.00013082,0.0089579,0.00012598,-36.41,-0.00039159,-3925.2,0.34408
1393,8.092,0.72727,0,0.00039171,3914.4,0.00013067,0.012531,0.00012689,-28.388,-0.00039218,-3928.5,0.34311
1394,8.092,0.54545,0,0.00039247,3922,0.00013051,0.012612,0.00012784,-20.008,-0.00039281,-3932,0.34206
1395,8.092,0.36364,0,0.00039326,3929.9,0.00013034,0.045258,0.00012883,-11.281,-0.00039345,-3935.5,0.34092
1396,8.092,0.18182,0,0.00039418,3939.1,0.00013019,0.19682,0.00012992,-1.825,-0.00039421,-3939.9,0.33969
1397,7.908,5.8182,0,0.00039966,3993.8,0.00013205,0.14547,0.00013163,-2.9584,-0.00039971,-3995.2,0.32501
1398,7.908,5.6364,0,0.00039868,3984.1,0.00013223,0.050553,0.00013045,-13.285,-0.0003989,-3990.7,0.32625
1399,7.908,5.4545,0,0.00039782,3975.4,0.00013241,0.014183,0.00012937,-22.846,-0.0003982,-3986.8,0.3274
1400,7.908,5.2727,0,0.00039699,3967.2,0.00013259,0.01389,0.00012833,-32.033,-0.00039753,-3983.1,0.32846
1401,7.908,5.0909,0,0.0003962,3959.3,0.00013276,0.0097711,0.00012733,-40.83,-0.00039688,-3979.5,0.32944
1402,7.908,4.9091,0,0.00039545,3951.8,0.00013293,0.0078383,0.00012638,-49.169,-0.00039626,-3976.1,0.33033
1403,7.908,4.7273,0,0.00039475,3944.8,0.00013308,0.0060313,0.00012549,-56.987,-0.00039569,-3972.9,0.33114
1404,7.908,4.5455,0,0.0003941,3938.3,0.00013322,0.004604,0.00012467,-64.22,-0.00039515,-3970,0.33187
1405,7.908,4.3636,0,0.00039351,3932.4,0.00013335,0.0033769,0.00012392,-70.812,-0.00039467,-3967.3,0.33252
1406,7.908,4.1818,0,0.00039298,3927.1,0.00013346,0.0023391,0.00012326,-76.708,-0.00039423,-3964.9,0.33308
1407,7.908,4,0,0.00039252,3922.5,0.00013356,0.0014629,0.00012267,-81.859,-0.00039385,-3962.8,0.33357
1408,7.908,3.8182,0,0.00039213,3918.6,0.00013365,0.00073773,0.00012217,-86.221,-0.00039352,-3961,0.33397
1409,7.908,3.6364,0,0.00039181,3915.4,0.00013372,0.00016001,0.00012177,-89.757,-0.00039326,-3959.5,0.33429
1410,7.908,3.4545,0,0.00039157,3913,0.00013377,-0.0002719,0.00012147,-92.436,-0.00039306,-3958.4,0.33453
1411,7.908,3.2727,0,0.00039141,3911.4,0.0001338,-0.00056095,0.00012126,-94.236,-0.00039293,-3957.7,0.33469
1412,7.908,3.0909,0,0.00039133,3910.6,0.00013382,-0.00070572,0.00012116,-95.139,-0.00039286,-3957.3,0.33477
1413,7.908,2.9091,0,0.00039133,3910.6,0.00013382,-0.00070572,0.00012116,-95.139,-0.00039286,-3957.3,0.33477
1414,7.908,2.7273,0,0.00039141,3911.4,0.0001338,-0.00056048,0.00012126,-94.236,-0.00039293,-3957.7,0.33469
1415,7.908,2.5455,0,0.00039157,3913,0.00013377,-0.0002716,0.00012147,-92.436,-0.00039306,-3958.4,0.33453
1416,7.908,2.3636,0,0.00039181,3915.4,0.00013372,0.00015977,0.00012177,-89.757,-0.00039326,-3959.5,0.33429
1417,7.908,2.1818,0,0.00039213,3918.6,0.00013365,0.00073832,0.00012217,-86.221,-0.00039352,-3961,0.33397
1418,7.908,2,0,0.00039252,3922.5,0.00013356,0.0014633,0.00012267,-81.859,-0.00039385,-3962.8,0.33357
1419,7.908,1.8182,0,0.00039298,3927.1,0.00013346,0.0023397,0.00012326,-76.708,-0.00039423,-3964.9,0.33308
1420,7.908,1.6364,0,0.00039351,3932.4,0.00013335,0.0033773,0.00012392,-70.812,-0.00039467,-3967.3,0.33252
1421,7.908,1.4545,0,0.0003941,3938.3,0.00013322,0.0046045,0.00012467,-64.22,-0.00039515,-3970,0.33187
1422,7.908,1.2727,0,0.00039475,3944.8,0.00013308,0.0060321,0.00012549,-56.987,-0.00039569,-3972.9,0.33114
1423,7.908,1.0909,0,0.00039545,3951.8,0.00013293,0.0078388,0.00012638,-49.169,-0.00039626,-3976.1,0.33033
1424,7.908,0.90909,0,0.0003962,3959.3,0.00013276,0.0097729,0.00012733,-40.83,-0.00039688,-3979.5,0.32944
1425,7.908,0.72727,0,0.00039699,3967.2,0.00013259,0.013891,0.00012833,-32.033,-0.00039753,-3983.1,0.32846
1426,7.908,0.54545,0,0.00039782,3975.4,0.00013241,0.014183,0.00012937,-22.846,-0.0003982,-3986.8,0.3274
1427,7.908,0.36364,0,0.00039868,3984.1,0.00013223,0.050554,0.00013045,-13.285,-0.0003989,-3990.7,0.32625
1428,7.908,0.18182,0,0.00039966,3993.8,0.00013205,0.14547,0.00013163,-2.9584,-0.00039971,-3995.2,0.32501
1429,7.7241,5.8182,0,0.00040517,4048.9,0.00013392,0.12301,0.00013335,-4.1892,-0.00040524,-4050.9,0.3106
1430,7.7241,5.6364,0,0.00040412,4038.4,0.00013413,0.056273,0.00013207,-15.419,-0.00040438,-4046.1,0.31185
1431,7.7241,5.4545,0,0.00040318,4029.1,0.00013433,0.015895,0.00013089,-25.876,-0.00040362,-4041.9,0.313
1432,7.7241,5.2727,0,0.00040229,4020.1,0.00013453,0.015374,0.00012975,-35.931,-0.00040288,-4037.9,0.31408
1433,7.7241,5.0909,0,0.00040143,4011.5,0.00013472,0.01067,0.00012866,-45.561,-0.00040218,-4034.1,0.31506
1434,7.7241,4.9091,0,0.00040061,4003.4,0.0001349,0.0084283,0.00012762,-54.691,-0.00040151,-4030.4,0.31596
1435,7.7241,4.7273,0,0.00039985,3995.7,0.00013507,0.0063546,0.00012665,-63.251,-0.00040089,-4027,0.31678
1436,7.7241,4.5455,0,0.00039914,3988.7,0.00013523,0.004721,0.00012575,-71.172,-0.00040031,-4023.8,0.31752
1437,7.7241,4.3636,0,0.0003985,3982.2,0.00013537,0.0033238,0.00012494,-78.39,-0.00039977,-4020.9,0.31817
1438,7.7241,4.1818,0,0.00039792,3976.5,0.0001355,0.0021464,0.0001242,-84.847,-0.0003993,-4018.2,0.31873
1439,7.7241,4,0,0.00039742,3971.5,0.00013561,0.0011559,0.00012356,-90.487,-0.00039888,-4015.9,0.31922
1440,7.7241,3.8182,0,0.000397,3967.2,0.0001357,0.00033838,0.00012302,-95.264,-0.00039853,-4014,0.31962
1441,7.7241,3.6364,0,0.00039665,3963.8,0.00013577,-0.00031169,0.00012258,-99.136,-0.00039824,-4012.4,0.31995
1442,7.7241,3.4545,0,0.00039639,3961.2,0.00013583,-0.00079682,0.00012225,-102.07,-0.00039803,-4011.2,0.32019
1443,7.7241,3.2727,0,0.00039621,3959.4,0.00013587,-0.0011204,0.00012202,-104.04,-0.00039788,-4010.4,0.32035
1444,7.7241,3.0909,0,0.00039613,3958.5,0.00013589,-0.0012828,0.00012191,-105.03,-0.00039781,-4010,0.32043
1445,7.7241,2.9091,0,0.00039613,3958.5,0.00013589,-0.001283,0.00012191,-105.03,-0.00039781,-4010,0.32043
1446,7.7241,2.7273,0,0.00039621,3959.4,0.00013587,-0.0011204,0.00012202,-104.04,-0.00039788,-4010.4,0.32035
1447,7.7241,2.5455,0,0.00039639,3961.2,0.00013583,-0.00079659,0.00012225,-102.07,-0.00039803,-4011.2,0.32019
1448,7.7241,2.3636,0,0.00039665,3963.8,0.00013577,-0.00031145,0.00012258,-99.136,-0.00039824,-4012.4,0.31995
1449,7.7241,2.1818,0,0.000397,3967.2,0.0001357,0.0003388,0.00012302,-95.264,-0.00039853,-4014,0.31962
1450,7.7241,2,0,0.00039742,3971.5,0.00013561,0.0011562,0.00012356,-90.487,-0.00039888,-4015.9,0.31922
1451,7.7241,1.8182,0,0.00039792,3976.5,0.0001355,0.0021469,0.0001242,-84.847,-0.0003993,-4018.2,0.31873
1452,7.7241,1.6364,0,0.0003985,3982.2,0.00013537,0.0033245,0.00012494,-78.39,-0.00039977,-4020.9,0.31817
1453,7.7241,1.4545,0,0.00039914,3988.7,0.00013523,0.0047217,0.00012575,-71.172,-0.00040031,-4023.8,0.31752
1454,7.7241,1.2727,0,0.00039985,3995.7,0.00013507,0.0063552,0.00012665,-63.251,-0.00040089,-4027,0.31678
1455,7.7241,1.0909,0,0.00040061,4003.4,0.0001349,0.0084288,0.00012762,-54.691,-0.00040151,-4030.4,0.31596
1456,7.7241,0.90909,0,0.00040143,4011.5,0.00013472,0.010671,0.00012866,-45.561,-0.00040218,-4034.1,0.31506
1457,7.7241,0.72727,0,0.00040229,4020.1,0.00013453,0.015375,0.00012975,-35.931,-0.00040288,-4037.9,0.31408
1458,7.7241,0.54545,0,0.00040318,4029.1,0.00013433,0.015896,0.00013089,-25.876,-0.00040362,-4041.9,0.313
1459,7.7241,0.36364,0,0.00040412,4038.4,0.00013413,0.056275,0.00013207,-15.419,-0.00040438,-4046.1,0.31185
1460,7.7241,0.18182,0,0.00040517,4048.9,0.00013392,0.12301,0.00013335,-4.1892,-0.00040524,-4050.9,0.3106
1461,7.5402,5.8182,0,0.0004107,4104.2,0.00013581,0.11211,0.00013507,-5.5032,-0.0004108,-4106.9,0.29646
1462,7.5402,5.6364,0,0.00040958,4093,0.00013604,0.062461,0.00013368,-17.693,-0.00040988,-4101.8,0.29772
1463,7.5402,5.4545,0,0.00040857,4082.9,0.00013627,0.01776,0.00013239,-29.115,-0.00040906,-4097.3,0.29888
1464,7.5402,5.2727,0,0.00040759,4073.1,0.00013649,0.016994,0.00013115,-40.104,-0.00040826,-4093,0.29997
1465,7.5402,5.0909,0,0.00040666,4063.8,0.0001367,0.011658,0.00012996,-50.631,-0.0004075,-4088.9,0.30096
1466,7.5402,4.9091,0,0.00040578,4055,0.0001369,0.0090824,0.00012883,-60.614,-0.00040677,-4084.9,0.30187
1467,7.5402,4.7273,0,0.00040495,4046.7,0.00013708,0.0067197,0.00012777,-69.975,-0.00040609,-4081.2,0.30269
1468,7.5402,4.5455,0,0.00040418,4039,0.00013726,0.0048631,0.00012679,-78.639,-0.00040546,-4077.7,0.30343
1469,7.5402,4.3636,0,0.00040348,4032,0.00013741,0.0032801,0.00012589,-86.536,-0.00040488,-4074.6,0.30408
1470,7.5402,4.1818,0,0.00040285,4025.8,0.00013755,0.001951,0.00012509,-93.599,-0.00040436,-4071.7,0.30466
1471,7.5402,4,0,0.00040231,4020.3,0.00013767,0.00083513,0.00012439,-99.77,-0.00040391,-4069.3,0.30514
1472,7.5402,3.8182,0,0.00040184,4015.7,0.00013778,-8.296e-05,0.0001238,-105,-0.00040353,-4067.1,0.30555
1473,7.5402,3.6364,0,0.00040147,4011.9,0.00013786,-0.00081239,0.00012332,-109.23,-0.00040322,-4065.4,0.30588
1474,7.5402,3.4545,0,0.00040119,4009.1,0.00013792,-0.0013555,0.00012296,-112.44,-0.00040298,-4064.1,0.30612
1475,7.5402,3.2727,0,0.00040099,4007.2,0.00013796,-0.0017183,0.00012271,-114.6,-0.00040282,-4063.2,0.30628
1476,7.5402,3.0909,0,0.0004009,4006.2,0.00013799,-0.0018994,0.00012259,-115.68,-0.00040274,-4062.8,0.30636
1477,7.5402,2.9091,0,0.0004009,4006.2,0.00013799,-0.0018998,0.00012259,-115.68,-0.00040274,-4062.8,0.30636
1478,7.5402,2.7273,0,0.00040099,4007.2,0.00013796,-0.0017183,0.00012271,-114.6,-0.00040282,-4063.2,0.30628
1479,7.5402,2.5455,0,0.00040119,4009.1,0.00013792,-0.0013553,0.00012296,-112.44,-0.00040298,-4064.1,0.30612
1480,7.5402,2.3636,0,0.00040147,4011.9,0.00013786,-0.00081179,0.00012332,-109.23,-0.00040322,-4065.4,0.30588
1481,7.5402,2.1818,0,0.00040184,4015.7,0.00013778,-8.308e-05,0.0001238,-105,-0.00040353,-4067.1,0.30555
1482,7.5402,2,0,0.00040231,4020.3,0.00013767,0.00083567,0.00012439,-99.77,-0.00040391,-4069.3,0.30514
1483,7.5402,1.8182,0,0.00040285,4025.8,0.00013755,0.0019516,0.00012509,-93.599,-0.00040436,-4071.7,0.30466
1484,7.5402,1.6364,0,0.00040348,4032,0.00013741,0.0032809,0.00012589,-86.536,-0.00040488,-4074.6,0.30408
1485,7.5402,1.4545,0,0.00040418,4039,0.00013726,0.0048637,0.00012679,-78.639,-0.00040546,-4077.7,0.30343
1486,7.5402,1.2727,0,0.00040495,4046.7,0.00013708,0.0067209,0.00012777,-69.975,-0.00040609,-4081.2,0.30269
1487,7.5402,1.0909,0,0.00040578,4055,0.0001369,0.0090834,0.00012883,-60.614,-0.00040677,-4084.9,0.30187
1488,7.5402,0.90909,0,0.00040666,4063.8,0.0001367,0.011659,0.00012996,-50.631,-0.0004075,-4088.9,0.30096
1489,7.5402,0.72727,0,0.00040759,4073.1,0.00013649,0.016995,0.00013115,-40.104,-0.00040826,-4093,0.29997
1490,7.5402,0.54545,0,0.00040857,4082.9,0.00013627,0.017761,0.00013239,-29.115,-0.00040906,-4097.3,0.29888
1491,7.5402,0.36364,0,0.00040958,4093,0.00013604,0.062462,0.00013368,-17.693,-0.00040988,-4101.8,0.29772
1492,7.5402,0.18182,0,0.0004107,4104.2,0.00013581,0.11211,0.00013507,-5.5032,-0.0004108,-4106.9,0.29646
1493,7.3563,5.8182,0,0.00041627,4159.9,0.00013772,0.10711,0.00013679,-6.8977,-0.00041639,-4163.3,0.2826
1494,7.3563,5.6364,0,0.00041507,4147.9,0.00013797,0.06916,0.00013529,-20.117,-0.00041541,-4157.8,0.28387
1495,7.3563,5.4545,0,0.00041397,4136.9,0.00013822,0.019795,0.00013389,-32.577,-0.00041452,-4153.1,0.28504
1496,7.3563,5.2727,0,0.00041292,4126.3,0.00013847,0.018761,0.00013253,-44.573,-0.00041366,-4148.4,0.28613
1497,7.3563,5.0909,0,0.0004119,4116.2,0.0001387,0.012743,0.00013123,-56.069,-0.00041283,-4143.9,0.28713
1498,7.3563,4.9091,0,0.00041094,4106.6,0.00013892,0.0098064,0.00013,-66.973,-0.00041204,-4139.7,0.28805
1499,7.3563,4.7273,0,0.00041004,4097.6,0.00013912,0.0071311,0.00012884,-77.2,-0.0004113,-4135.6,0.28887
1500,7.3563,4.5455,0,0.00040921,4089.3,0.00013931,0.0050308,0.00012777,-86.668,-0.00041061,-4131.9,0.28962
1501,7.3563,4.3636,0,0.00040845,4081.7,0.00013948,0.0032471,0.0001268,-95.298,-0.00040998,-4128.5,0.29028
1502,7.3563,4.1818,0,0.00040777,4074.9,0.00013963,0.0017518,0.00012592,-103.02,-0.00040942,-4125.4,0.29085
1503,7.3563,4,0,0.00040717,4068.9,0.00013977,0.0005,0.00012516,-109.77,-0.00040893,-4122.7,0.29134
1504,7.3563,3.8182,0,0.00040667,4063.9,0.00013988,-0.00052876,0.00012451,-115.48,-0.00040851,-4120.4,0.29175
1505,7.3563,3.6364,0,0.00040626,4059.8,0.00013997,-0.0013443,0.00012399,-120.11,-0.00040817,-4118.5,0.29208
1506,7.3563,3.4545,0,0.00040595,4056.7,0.00014004,-0.0019513,0.00012359,-123.63,-0.00040792,-4117.1,0.29232
1507,7.3563,3.2727,0,0.00040575,4054.7,0.00014009,-0.002356,0.00012332,-125.98,-0.00040774,-4116.2,0.29249
1508,7.3563,3.0909,0,0.00040564,4053.6,0.00014011,-0.0025585,0.00012319,-127.17,-0.00040766,-4115.7,0.29257
1509,7.3563,2.9091,0,0.00040564,4053.6,0.00014011,-0.0025582,0.00012319,-127.17,-0.00040766,-4115.7,0.29257
1510,7.3563,2.7273,0,0.00040575,4054.7,0.00014009,-0.0023559,0.00012332,-125.98,-0.00040774,-4116.2,0.29249
1511,7.3563,2.5455,0,0.00040595,4056.7,0.00014004,-0.0019512,0.00012359,-123.63,-0.00040792,-4117.1,0.29232
1512,7.3563,2.3636,0,0.00040626,4059.8,0.00013997,-0.0013442,0.00012399,-120.11,-0.00040817,-4118.5,0.29208
1513,7.3563,2.1818,0,0.00040667,4063.9,0.00013988,-0.00052829,0.00012451,-115.48,-0.00040851,-4120.4,0.29175
1514,7.3563,2,0,0.00040717,4068.9,0.00013977,0.00050012,0.00012516,-109.77,-0.00040893,-4122.7,0.29134
1515,7.3563,1.8182,0,0.00040777,4074.9,0.00013963,0.0017526,0.00012592,-103.02,-0.00040942,-4125.4,0.29085
1516,7.3563,1.6364,0,0.00040845,4081.7,0.00013948,0.0032475,0.0001268,-95.298,-0.00040998,-4128.5,0.29028
1517,7.3563,1.4545,0,0.00040921,4089.3,0.00013931,0.0050316,0.00012777,-86.668,-0.00041061,-4131.9,0.28962
1518,7.3563,1.2727,0,0.00041004,4097.6,0.00013912,0.0071315,0.00012884,-77.2,-0.0004113,-4135.6,0.28887
1519,7.3563,1.0909,0,0.00041094,4106.6,0.00013892,0.009807,0.00013,-66.973,-0.00041204,-4139.7,0.28805
1520,7.3563,0.90909,0,0.0004119,4116.2,0.0001387,0.012744,0.00013123,-56.069,-0.00041283,-4143.9,0.28713
1521,7.3563,0.72727,0,0.00041292,4126.3,0.00013847,0.018762,0.00013253,-44.573,-0.00041366,-4148.4,0.28613
1522,7.3563,0.54545,0,0.00041397,4136.9,0.00013822,0.019795,0.00013388,-32.577,-0.00041452,-4153.1,0.28504
1523,7.3563,0.36364,0,0.00041507,4147.9,0.00013797,0.069161,0.00013529,-20.117,-0.00041541,-4157.8,0.28387
1524,7.3563,0.18182,0,0.00041627,4159.9,0.00013772,0.10711,0.00013679,-6.8977,-0.00041639,-4163.3,0.2826
1525,7.1724,5.8182,0,0.00042187,4215.8,0.00013964,0.10571,0.00013851,-8.3733,-0.00042201,-4220,0.26902
1526,7.1724,5.6364,0,0.00042059,4203,0.00013992,0.076421,0.00013689,-22.701,-0.00042097,-4214.2,0.2703
1527,7.1724,5.4545,0,0.0004194,4191.1,0.0001402,0.022014,0.00013536,-36.28,-0.00042,-4209.1,0.27148
1528,7.1724,5.2727,0,0.00041825,4179.6,0.00014046,0.020687,0.00013389,-49.363,-0.00041907,-4204.1,0.27258
1529,7.1724,5.0909,0,0.00041715,4168.6,0.00014072,0.013933,0.00013248,-61.904,-0.00041817,-4199.2,0.27358
1530,7.1724,4.9091,0,0.00041611,4158.2,0.00014096,0.010605,0.00013113,-73.804,-0.00041732,-4194.6,0.2745
1531,7.1724,4.7273,0,0.00041513,4148.5,0.00014118,0.0075901,0.00012987,-84.968,-0.00041651,-4190.3,0.27534
1532,7.1724,4.5455,0,0.00041423,4139.4,0.00014139,0.0052269,0.0001287,-95.306,-0.00041577,-4186.2,0.27608
1533,7.1724,4.3636,0,0.0004134,4131.2,0.00014158,0.0032243,0.00012764,-104.73,-0.00041508,-4182.5,0.27674
1534,7.1724,4.1818,0,0.00041266,4123.8,0.00014175,0.001549,0.00012668,-113.17,-0.00041447,-4179.2,0.27732
1535,7.1724,4,0,0.00041202,4117.3,0.00014189,0.00014855,0.00012585,-120.54,-0.00041394,-4176.3,0.27782
1536,7.1724,3.8182,0,0.00041147,4111.9,0.00014202,-0.0010007,0.00012514,-126.78,-0.00041348,-4173.8,0.27823
1537,7.1724,3.6364,0,0.00041103,4107.4,0.00014212,-0.0019099,0.00012457,-131.85,-0.00041311,-4171.8,0.27855
1538,7.1724,3.4545,0,0.00041069,4104.1,0.00014219,-0.0025871,0.00012414,-135.69,-0.00041283,-4170.2,0.2788
1539,7.1724,3.2727,0,0.00041047,4101.8,0.00014224,-0.0030377,0.00012384,-138.26,-0.00041264,-4169.2,0.27896
1540,7.1724,3.0909,0,0.00041035,4100.7,0.00014227,-0.003263,0.0001237,-139.56,-0.00041255,-4168.7,0.27905
1541,7.1724,2.9091,0,0.00041035,4100.7,0.00014227,-0.0032631,0.0001237,-139.56,-0.00041255,-4168.7,0.27905
1542,7.1724,2.7273,0,0.00041047,4101.8,0.00014224,-0.0030375,0.00012384,-138.26,-0.00041264,-4169.2,0.27896
1543,7.1724,2.5455,0,0.00041069,4104.1,0.00014219,-0.0025869,0.00012414,-135.69,-0.00041283,-4170.2,0.2788
1544,7.1724,2.3636,0,0.00041103,4107.4,0.00014212,-0.0019098,0.00012457,-131.85,-0.00041311,-4171.8,0.27855
1545,7.1724,2.1818,0,0.00041147,4111.9,0.00014202,-0.0010002,0.00012514,-126.78,-0.00041348,-4173.8,0.27823
1546,7.1724,2,0,0.00041202,4117.3,0.00014189,0.00014926,0.00012585,-120.54,-0.00041394,-4176.3,0.27782
1547,7.1724,1.8182,0,0.00041266,4123.8,0.00014175,0.0015496,0.00012668,-113.17,-0.00041447,-4179.2,0.27732
1548,7.1724,1.6364,0,0.0004134,4131.2,0.00014158,0.0032249,0.00012764,-104.73,-0.00041508,-4182.5,0.27674
1549,7.1724,1.4545,0,0.00041423,4139.4,0.00014139,0.0052272,0.0001287,-95.306,-0.00041577,-4186.2,0.27608
1550,7.1724,1.2727,0,0.00041513,4148.5,0.00014118,0.0075909,0.00012987,-84.968,-0.00041651,-4190.3,0.27534
1551,7.1724,1.0909,0,0.00041611,4158.2,0.00014096,0.010606,0.00013113,-73.804,-0.00041732,-4194.6,0.2745
1552,7.1724,0.90909,0,0.00041715,4168.6,0.00014072,0.013935,0.00013248,-61.904,-0.00041817,-4199.2,0.27358
1553,7.1724,0.72727,0,0.00041825,4179.6,0.00014046,0.020689,0.00013389,-49.363,-0.00041907,-4204.1,0.27258
1554,7.1724,0.54545,0,0.0004194,4191.1,0.0001402,0.022014,0.00013536,-36.28,-0.00042,-4209.1,0.27148
1555,7.1724,0.36364,0,0.00042059,4203,0.00013992,0.076423,0.00013689,-22.701,-0.00042097,-4214.2,0.2703
1556,7.1724,0.18182,0,0.00042187,4215.8,0.00013964,0.10571,0.00013851,-8.3733,-0.00042201,-4220,0.26902
1557,6.9885,5.8182,0,0.00042751,4272.1,0.00014158,0.10686,0.00014024,-9.931,-0.00042768,-4277,0.25573
1558,6.9885,5.6364,0,0.00042613,4258.3,0.00014189,0.0843,0.00013849,-25.455,-0.00042655,-4271,0.25701
1559,6.9885,5.4545,0,0.00042484,4245.5,0.00014219,0.024437,0.00013683,-40.241,-0.00042551,-4265.4,0.2582
1560,6.9885,5.2727,0,0.0004236,4233.1,0.00014248,0.022789,0.00013522,-54.497,-0.0004245,-4260,0.2593
1561,6.9885,5.0909,0,0.00042241,4221.2,0.00014276,0.015239,0.00013368,-68.169,-0.00042353,-4254.8,0.26032
1562,6.9885,4.9091,0,0.00042128,4209.9,0.00014302,0.011486,0.00013222,-81.146,-0.0004226,-4249.8,0.26124
1563,6.9885,4.7273,0,0.00042022,4199.3,0.00014327,0.0081031,0.00013085,-93.325,-0.00042173,-4245.1,0.26208
1564,6.9885,4.5455,0,0.00041923,4189.4,0.0001435,0.0054532,0.00012957,-104.61,-0.00042091,-4240.8,0.26283
1565,6.9885,4.3636,0,0.00041834,4180.5,0.0001437,0.0032135,0.00012841,-114.89,-0.00042017,-4236.7,0.26349
1566,6.9885,4.1818,0,0.00041754,4172.5,0.00014389,0.001342,0.00012737,-124.1,-0.00041951,-4233.1,0.26407
1567,6.9885,4,0,0.00041683,4165.5,0.00014405,-0.00022023,0.00012646,-132.15,-0.00041893,-4230,0.26457
1568,6.9885,3.8182,0,0.00041624,4159.5,0.00014419,-0.0015001,0.00012569,-138.98,-0.00041843,-4227.3,0.26498
1569,6.9885,3.6364,0,0.00041576,4154.7,0.0001443,-0.0025124,0.00012506,-144.51,-0.00041803,-4225.1,0.26531
1570,6.9885,3.4545,0,0.00041539,4151.1,0.00014438,-0.0032654,0.00012459,-148.7,-0.00041772,-4223.4,0.26556
1571,6.9885,3.2727,0,0.00041515,4148.6,0.00014444,-0.0037663,0.00012427,-151.52,-0.00041752,-4222.3,0.26572
1572,6.9885,3.0909,0,0.00041503,4147.4,0.00014446,-0.0040166,0.00012411,-152.93,-0.00041742,-4221.8,0.2658
1573,6.9885,2.9091,0,0.00041503,4147.4,0.00014446,-0.0040165,0.00012411,-152.93,-0.00041742,-4221.8,0.2658
1574,6.9885,2.7273,0,0.00041515,4148.6,0.00014444,-0.0037662,0.00012427,-151.52,-0.00041752,-4222.3,0.26572
1575,6.9885,2.5455,0,0.00041539,4151.1,0.00014438,-0.003265,0.00012459,-148.7,-0.00041772,-4223.4,0.26556
1576,6.9885,2.3636,0,0.00041576,4154.7,0.0001443,-0.0025122,0.00012506,-144.51,-0.00041803,-4225.1,0.26531
1577,6.9885,2.1818,0,0.00041624,4159.5,0.00014419,-0.0014998,0.00012569,-138.98,-0.00041843,-4227.3,0.26498
1578,6.9885,2,0,0.00041683,4165.5,0.00014405,-0.00021958,0.00012646,-132.15,-0.00041893,-4230,0.26457
1579,6.9885,1.8182,0,0.00041754,4172.5,0.00014389,0.0013426,0.00012737,-124.1,-0.00041951,-4233.1,0.26407
1580,6.9885,1.6364,0,0.00041834,4180.5,0.0001437,0.0032137,0.00012841,-114.89,-0.00042017,-4236.7,0.26349
1581,6.9885,1.4545,0,0.00041923,4189.4,0.0001435,0.0054539,0.00012957,-104.61,-0.00042091,-4240.8,0.26283
1582,6.9885,1.2727,0,0.00042022,4199.3,0.00014327,0.0081037,0.00013085,-93.325,-0.00042173,-4245.1,0.26208
1583,6.9885,1.0909,0,0.00042128,4209.9,0.00014302,0.011487,0.00013222,-81.146,-0.0004226,-4249.8,0.26124
1584,6.9885,0.90909,0,0.00042241,4221.2,0.00014276,0.01524,0.00013368,-68.169,-0.00042353,-4254.8,0.26032
1585,6.9885,0.72727,0,0.0004236,4233.1,0.00014248,0.02279,0.00013522,-54.497,-0.0004245,-4260,0.2593
1586,6.9885,0.54545,0,0.00042484,4245.5,0.00014219,0.024438,0.00013683,-40.241,-0.00042551,-4265.4,0.2582
1587,6.9885,0.36364,0,0.00042613,4258.3,0.00014189,0.084302,0.00013849,-25.455,-0.00042655,-4271,0.25701
1588,6.9885,0.18182,0,0.00042751,4272.1,0.00014158,0.10686,0.00014024,-9.931,-0.00042768,-4277,0.25573
1589,6.8046,5.8182,0,0.00043318,4328.8,0.00014353,0.11004,0.00014198,-11.572,-0.00043337,-4334.5,0.24272
1590,6.8046,5.6364,0,0.0004317,4314,0.00014387,0.092858,0.00014008,-28.389,-0.00043217,-4328.1,0.24401
1591,6.8046,5.4545,0,0.0004303,4300.1,0.0001442,0.027086,0.00013828,-44.479,-0.00043104,-4322.1,0.24521
1592,6.8046,5.2727,0,0.00042896,4286.6,0.00014452,0.025083,0.00013653,-60.002,-0.00042995,-4316.3,0.24632
1593,6.8046,5.0909,0,0.00042767,4273.7,0.00014483,0.016669,0.00013486,-74.896,-0.00042889,-4310.7,0.24734
1594,6.8046,4.9091,0,0.00042644,4261.5,0.00014511,0.012456,0.00013326,-89.039,-0.00042789,-4305.3,0.24827
1595,6.8046,4.7273,0,0.00042529,4250,0.00014538,0.0086737,0.00013177,-102.32,-0.00042694,-4300.2,0.24911
1596,6.8046,4.5455,0,0.00042423,4239.3,0.00014563,0.0057134,0.00013038,-114.62,-0.00042606,-4295.5,0.24986
1597,6.8046,4.3636,0,0.00042325,4229.6,0.00014586,0.0032152,0.00012911,-125.85,-0.00042525,-4291.1,0.25053
1598,6.8046,4.1818,0,0.00042238,4220.9,0.00014606,0.001131,0.00012798,-135.9,-0.00042453,-4287.2,0.25111
1599,6.8046,4,0,0.00042162,4213.3,0.00014624,-0.00060699,0.00012698,-144.69,-0.0004239,-4283.8,0.25161
1600,6.8046,3.8182,0,0.00042098,4206.9,0.00014639,-0.0020293,0.00012614,-152.13,-0.00042336,-4280.9,0.25202
1601,6.8046,3.6364,0,0.00042046,4201.7,0.00014651,-0.0031533,0.00012546,-158.18,-0.00042292,-4278.5,0.25235
1602,6.8046,3.4545,0,0.00042006,4197.7,0.0001466,-0.0039894,0.00012494,-162.76,-0.00042259,-4276.7,0.2526
1603,6.8046,3.2727,0,0.00041979,4195,0.00014666,-0.0045448,0.00012459,-165.83,-0.00042237,-4275.5,0.25276
1604,6.8046,3.0909,0,0.00041966,4193.7,0.0001467,-0.0048226,0.00012442,-167.38,-0.00042226,-4274.9,0.25285
1605,6.8046,2.9091,0,0.00041966,4193.7,0.0001467,-0.0048225,0.00012442,-167.38,-0.00042226,-4274.9,0.25285
1606,6.8046,2.7273,0,0.00041979,4195,0.00014666,-0.0045448,0.00012459,-165.83,-0.00042237,-4275.5,0.25276
1607,6.8046,2.5455,0,0.00042006,4197.7,0.0001466,-0.003989,0.00012494,-162.76,-0.00042259,-4276.7,0.2526
1608,6.8046,2.3636,0,0.00042046,4201.7,0.00014651,-0.0031532,0.00012546,-158.18,-0.00042292,-4278.5,0.25235
1609,6.8046,2.1818,0,0.00042098,4206.9,0.00014639,-0.0020288,0.00012614,-152.13,-0.00042336,-4280.9,0.25202
1610,6.8046,2,0,0.00042162,4213.3,0.00014624,-0.00060633,0.00012698,-144.69,-0.0004239,-4283.8,0.25161
1611,6.8046,1.8182,0,0.00042238,4220.9,0.00014606,0.0011316,0.00012798,-135.9,-0.00042453,-4287.2,0.25111
1612,6.8046,1.6364,0,0.00042325,4229.6,0.00014586,0.0032158,0.00012911,-125.85,-0.00042525,-4291.1,0.25053
1613,6.8046,1.4545,0,0.00042423,4239.3,0.00014563,0.0057143,0.00013038,-114.62,-0.00042606,-4295.5,0.24986
1614,6.8046,1.2727,0,0.00042529,4250,0.00014538,0.0086744,0.00013177,-102.32,-0.00042694,-4300.2,0.24911
1615,6.8046,1.0909,0,0.00042644,4261.5,0.00014511,0.012456,0.00013326,-89.039,-0.00042789,-4305.3,0.24827
1616,6.8046,0.90909,0,0.00042767,4273.7,0.00014483,0.01667,0.00013486,-74.896,-0.00042889,-4310.7,0.24734
1617,6.8046,0.72727,0,0.00042896,4286.6,0.00014452,0.025084,0.00013653,-60.002,-0.00042995,-4316.3,0.24632
1618,6.8046,0.54545,0,0.0004303,4300.1,0.0001442,0.027087,0.00013828,-44.479,-0.00043104,-4322.1,0.24521
1619,6.8046,0.36364,0,0.0004317,4314,0.00014387,0.09286,0.00014008,-28.389,-0.00043217,-4328.1,0.24401
1620,6.8046,0.18182,0,0.00043318,4328.8,0.00014353,0.11004,0.00014198,-11.572,-0.00043337,-4334.5,0.24272
1621,6.6207,5.8182,0,0.00043889,4385.9,0.0001455,0.11501,0.00014372,-13.298,-0.00043911,-4392.4,0.23001
1622,6.6207,5.6364,0,0.0004373,4369.9,0.00014587,0.10216,0.00014167,-31.513,-0.00043782,-4385.6,0.23131
1623,6.6207,5.4545,0,0.00043579,4354.9,0.00014623,0.029985,0.00013971,-49.011,-0.0004366,-4379.2,0.23251
1624,6.6207,5.2727,0,0.00043433,4340.3,0.00014658,0.027588,0.00013781,-65.905,-0.00043541,-4372.9,0.23363
1625,6.6207,5.0909,0,0.00043293,4326.3,0.00014692,0.018238,0.00013599,-82.122,-0.00043427,-4366.8,0.23465
1626,6.6207,4.9091,0,0.0004316,4313.1,0.00014723,0.013524,0.00013425,-97.528,-0.00043318,-4361,0.23558
1627,6.6207,4.7273,0,0.00043036,4300.6,0.00014753,0.0093087,0.00013262,-112,-0.00043215,-4355.5,0.23642
1628,6.6207,4.5455,0,0.0004292,4289.1,0.0001478,0.006011,0.00013111,-125.41,-0.0004312,-4350.4,0.23718
1629,6.6207,4.3636,0,0.00042815,4278.5,0.00014805,0.0032324,0.00012973,-137.65,-0.00043032,-4345.7,0.23785
1630,6.6207,4.1818,0,0.0004272,4269.1,0.00014827,0.00091663,0.00012849,-148.62,-0.00042954,-4341.5,0.23843
1631,6.6207,4,0,0.00042638,4260.8,0.00014847,-0.0010125,0.00012741,-158.21,-0.00042885,-4337.7,0.23893
1632,6.6207,3.8182,0,0.00042568,4253.8,0.00014863,-0.0025901,0.00012649,-166.34,-0.00042826,-4334.6,0.23935
1633,6.6207,3.6364,0,0.00042511,4248.2,0.00014877,-0.0038358,0.00012575,-172.94,-0.00042779,-4332,0.23968
1634,6.6207,3.4545,0,0.00042468,4243.9,0.00014887,-0.0047618,0.00012518,-177.94,-0.00042743,-4330,0.23992
1635,6.6207,3.2727,0,0.00042439,4241,0.00014893,-0.0053769,0.0001248,-181.3,-0.00042718,-4328.7,0.24009
1636,6.6207,3.0909,0,0.00042425,4239.5,0.00014897,-0.0056841,0.00012461,-182.99,-0.00042706,-4328.1,0.24017
1637,6.6207,2.9091,0,0.00042425,4239.5,0.00014897,-0.0056841,0.00012461,-182.99,-0.00042706,-4328.1,0.24017
1638,6.6207,2.7273,0,0.00042439,4241,0.00014893,-0.0053769,0.0001248,-181.3,-0.00042718,-4328.7,0.24009
1639,6.6207,2.5455,0,0.00042468,4243.9,0.00014887,-0.0047615,0.00012518,-177.94,-0.00042743,-4330,0.23992
1640,6.6207,2.3636,0,0.00042511,4248.2,0.00014877,-0.0038357,0.00012575,-172.94,-0.00042779,-4332,0.23968
1641,6.6207,2.1818,0,0.00042568,4253.8,0.00014863,-0.0025894,0.00012649,-166.34,-0.00042826,-4334.6,0.23935
1642,6.6207,2,0,0.00042638,4260.8,0.00014847,-0.0010121,0.00012741,-158.21,-0.00042885,-4337.7,0.23893
1643,6.6207,1.8182,0,0.0004272,4269.1,0.00014827,0.00091728,0.00012849,-148.62,-0.00042954,-4341.5,0.23843
1644,6.6207,1.6364,0,0.00042815,4278.5,0.00014805,0.0032331,0.00012973,-137.65,-0.00043032,-4345.7,0.23785
1645,6.6207,1.4545,0,0.0004292,4289.1,0.0001478,0.0060117,0.00013111,-125.41,-0.0004312,-4350.4,0.23718
1646,6.6207,1.2727,0,0.00043036,4300.6,0.00014753,0.0093095,0.00013262,-112,-0.00043215,-4355.5,0.23642
1647,6.6207,1.0909,0,0.0004316,4313.1,0.00014723,0.013525,0.00013425,-97.528,-0.00043318,-4361,0.23558
1648,6.6207,0.90909,0,0.00043293,4326.3,0.00014692,0.018239,0.00013599,-82.122,-0.00043427,-4366.8,0.23465
1649,6.6207,0.72727,0,0.00043433,4340.3,0.00014658,0.027589,0.00013781,-65.905,-0.00043541,-4372.9,0.23363
1650,6.6207,0.54545,0,0.00043579,4354.9,0.00014623,0.029985,0.00013971,-49.011,-0.0004366,-4379.2,0.23251
1651,6.6207,0.36364,0,0.0004373,4369.9,0.00014587,0.10216,0.00014167,-31.513,-0.00043782,-4385.6,0.23131
1652,6.6207,0.18182,0,0.00043889,4385.9,0.0001455,0.11501,0.00014372,-13.298,-0.00043911,-4392.4,0.23001
1653,6.4368,5.8182,0,0.00044464,4443.3,0.00014749,0.1217,0.00014546,-15.109,-0.00044489,-4450.8,0.21759
1654,6.4368,5.6364,0,0.00044292,4426.2,0.0001479,0.11229,0.00014325,-34.837,-0.00044351,-4443.5,0.2189
1655,6.4368,5.4545,0,0.00044129,4409.9,0.00014829,0.033159,0.00014112,-53.858,-0.00044218,-4436.6,0.22011
1656,6.4368,5.2727,0,0.00043972,4394.1,0.00014867,0.030324,0.00013905,-72.234,-0.0004409,-4429.8,0.22123
1657,6.4368,5.0909,0,0.0004382,4379,0.00014904,0.019959,0.00013707,-89.883,-0.00043966,-4423.2,0.22225
1658,6.4368,4.9091,0,0.00043676,4364.6,0.00014938,0.014701,0.00013519,-106.66,-0.00043848,-4417,0.22319
1659,6.4368,4.7273,0,0.00043541,4351.1,0.00014971,0.010015,0.00013341,-122.42,-0.00043736,-4411,0.22403
1660,6.4368,4.5455,0,0.00043416,4338.6,0.00015001,0.0063504,0.00013177,-137.04,-0.00043633,-4405.5,0.22479
1661,6.4368,4.3636,0,0.00043302,4327.2,0.00015028,0.0032669,0.00013026,-150.39,-0.00043538,-4400.4,0.22546
1662,6.4368,4.1818,0,0.00043199,4316.9,0.00015052,0.00069961,0.00012892,-162.35,-0.00043452,-4395.8,0.22605
1663,6.4368,4,0,0.0004311,4308,0.00015074,-0.0014374,0.00012774,-172.81,-0.00043378,-4391.8,0.22655
1664,6.4368,3.8182,0,0.00043034,4300.4,0.00015092,-0.0031832,0.00012673,-181.69,-0.00043314,-4388.4,0.22696
1665,6.4368,3.6364,0,0.00042972,4294.2,0.00015106,-0.0045616,0.00012592,-188.89,-0.00043262,-4385.6,0.22729
1666,6.4368,3.4545,0,0.00042925,4289.6,0.00015117,-0.0055852,0.00012531,-194.35,-0.00043223,-4383.4,0.22754
1667,6.4368,3.2727,0,0.00042894,4286.4,0.00015125,-0.0062653,0.00012489,-198.02,-0.00043197,-4382,0.2277
1668,6.4368,3.0909,0,0.00042878,4284.9,0.00015128,-0.0066049,0.00012468,-199.87,-0.00043183,-4381.3,0.22779
1669,6.4368,2.9091,0,0.00042878,4284.9,0.00015128,-0.0066047,0.00012468,-199.87,-0.00043183,-4381.3,0.22779
1670,6.4368,2.7273,0,0.00042894,4286.4,0.00015125,-0.0062651,0.00012489,-198.02,-0.00043197,-4382,0.2277
1671,6.4368,2.5455,0,0.00042925,4289.6,0.00015117,-0.0055851,0.00012531,-194.35,-0.00043223,-4383.4,0.22754
1672,6.4368,2.3636,0,0.00042972,4294.2,0.00015106,-0.0045614,0.00012592,-188.89,-0.00043262,-4385.6,0.22729
1673,6.4368,2.1818,0,0.00043034,4300.4,0.00015092,-0.0031828,0.00012673,-181.69,-0.00043314,-4388.4,0.22696
1674,6.4368,2,0,0.0004311,4308,0.00015074,-0.0014371,0.00012774,-172.81,-0.00043378,-4391.8,0.22655
1675,6.4368,1.8182,0,0.00043199,4316.9,0.00015052,0.00070003,0.00012892,-162.35,-0.00043452,-4395.8,0.22605
1676,6.4368,1.6364,0,0.00043302,4327.2,0.00015028,0.0032674,0.00013026,-150.39,-0.00043538,-4400.4,0.22546
1677,6.4368,1.4545,0,0.00043416,4338.6,0.00015001,0.0063514,0.00013177,-137.04,-0.00043633,-4405.5,0.22479
1678,6.4368,1.2727,0,0.00043541,4351.1,0.00014971,0.010015,0.00013341,-122.42,-0.00043736,-4411,0.22403
1679,6.4368,1.0909,0,0.00043676,4364.6,0.00014938,0.014701,0.00013519,-106.66,-0.00043848,-4417,0.22319
1680,6.4368,0.90909,0,0.0004382,4379,0.00014904,0.01996,0.00013707,-89.883,-0.00043966,-4423.2,0.22225
1681,6.4368,0.72727,0,0.00043972,4394.1,0.00014867,0.030325,0.00013905,-72.234,-0.0004409,-4429.8,0.22123
1682,6.4368,0.54545,0,0.00044129,4409.9,0.00014829,0.033159,0.00014112,-53.858,-0.00044218,-4436.6,0.22011
1683,6.4368,0.36364,0,0.00044292,4426.2,0.0001479,0.11229,0.00014325,-34.837,-0.00044351,-4443.5,0.2189
1684,6.4368,0.18182,0,0.00044464,4443.3,0.00014749,0.1217,0.00014546,-15.109,-0.00044489,-4450.8,0.21759
1685,6.2529,5.8182,0,0.00045043,4501.2,0.00014949,0.13015,0.00014721,-17.003,-0.00045071,-4509.6,0.20548
1686,6.2529,5.6364,0,0.00044859,4482.8,0.00014994,0.12331,0.00014482,-38.372,-0.00044922,-4501.8,0.20679
1687,6.2529,5.4545,0,0.00044682,4465.1,0.00015037,0.03664,0.00014251,-59.038,-0.00044779,-4494.3,0.208
1688,6.2529,5.2727,0,0.00044511,4448.1,0.00015079,0.033316,0.00014027,-79.018,-0.0004464,-4487,0.20912
1689,6.2529,5.0909,0,0.00044347,4431.7,0.00015119,0.021847,0.00013811,-98.218,-0.00044506,-4480,0.21015
1690,6.2529,4.9091,0,0.00044192,4416.1,0.00015157,0.015997,0.00013606,-116.48,-0.00044378,-4473.2,0.21109
1691,6.2529,4.7273,0,0.00044045,4401.5,0.00015192,0.010799,0.00013413,-133.64,-0.00044257,-4466.8,0.21194
1692,6.2529,4.5455,0,0.00043909,4387.9,0.00015225,0.0067368,0.00013234,-149.57,-0.00044145,-4460.8,0.2127
1693,6.2529,4.3636,0,0.00043785,4375.5,0.00015255,0.0033219,0.0001307,-164.13,-0.00044042,-4455.3,0.21337
1694,6.2529,4.1818,0,0.00043674,4364.4,0.00015281,0.0004811,0.00012923,-177.17,-0.00043949,-4450.3,0.21395
1695,6.2529,4,0,0.00043577,4354.7,0.00015305,-0.0018815,0.00012795,-188.59,-0.00043867,-4446,0.21445
1696,6.2529,3.8182,0,0.00043495,4346.5,0.00015324,-0.0038105,0.00012685,-198.27,-0.00043798,-4442.2,0.21487
1697,6.2529,3.6364,0,0.00043428,4339.8,0.0001534,-0.0053324,0.00012597,-206.13,-0.00043742,-4439.2,0.2152
1698,6.2529,3.4545,0,0.00043377,4334.8,0.00015352,-0.0064625,0.0001253,-212.09,-0.00043699,-4436.9,0.21545
1699,6.2529,3.2727,0,0.00043343,4331.4,0.0001536,-0.0072128,0.00012484,-216.1,-0.00043671,-4435.4,0.21561
1700,6.2529,3.0909,0,0.00043326,4329.6,0.00015364,-0.0075871,0.00012462,-218.12,-0.00043656,-4434.6,0.21569
1701,6.2529,2.9091,0,0.00043326,4329.6,0.00015364,-0.0075873,0.00012462,-218.12,-0.00043656,-4434.6,0.21569
1702,6.2529,2.7273,0,0.00043343,4331.4,0.0001536,-0.0072126,0.00012484,-216.1,-0.00043671,-4435.4,0.21561
1703,6.2529,2.5455,0,0.00043377,4334.8,0.00015352,-0.0064623,0.0001253,-212.09,-0.00043699,-4436.9,0.21545
1704,6.2529,2.3636,0,0.00043428,4339.8,0.0001534,-0.0053322,0.00012597,-206.13,-0.00043742,-4439.2,0.2152
1705,6.2529,2.1818,0,0.00043495,4346.5,0.00015324,-0.0038102,0.00012685,-198.27,-0.00043798,-4442.2,0.21487
1706,6.2529,2,0,0.00043577,4354.7,0.00015305,-0.0018811,0.00012795,-188.59,-0.00043867,-4446,0.21445
1707,6.2529,1.8182,0,0.00043674,4364.4,0.00015281,0.00048166,0.00012923,-177.17,-0.00043949,-4450.3,0.21395
1708,6.2529,1.6364,0,0.00043785,4375.5,0.00015255,0.0033228,0.0001307,-164.13,-0.00044042,-4455.3,0.21337
1709,6.2529,1.4545,0,0.00043909,4387.9,0.00015225,0.0067373,0.00013234,-149.57,-0.00044145,-4460.8,0.2127
1710,6.2529,1.2727,0,0.00044045,4401.5,0.00015192,0.0108,0.00013413,-133.64,-0.00044257,-4466.8,0.21194
1711,6.2529,1.0909,0,0.00044192,4416.1,0.00015157,0.015997,0.00013606,-116.48,-0.00044378,-4473.2,0.21109
1712,6.2529,0.90909,0,0.00044347,4431.7,0.00015119,0.021849,0.00013811,-98.218,-0.00044506,-4480,0.21015
1713,6.2529,0.72727,0,0.00044511,4448.1,0.00015079,0.033317,0.00014027,-79.018,-0.0004464,-4487,0.20912
1714,6.2529,0.54545,0,0.00044682,4465.1,0.00015037,0.03664,0.00014251,-59.038,-0.00044779,-4494.3,0.208
1715,6.2529,0.36364,0,0.00044859,4482.8,0.00014994,0.12332,0.00014482,-38.372,-0.00044922,-4501.8,0.20679
1716,6.2529,0.18182,0,0.00045043,4501.2,0.00014949,0.13015,0.00014721,-17.003,-0.00045071,-4509.6,0.20548
1717,6.069,5.8182,0,0.00045626,4559.5,0.00015152,0.14046,0.00014897,-18.98,-0.00045658,-4568.9,0.19367
1718,6.069,5.6364,0,0.00045428,4539.7,0.00015201,0.13533,0.00014638,-42.126,-0.00045498,-4560.5,0.19498
1719,6.069,5.4545,0,0.00045237,4520.6,0.00015247,0.040461,0.00014387,-64.571,-0.00045343,-4552.5,0.1962
1720,6.069,5.2727,0,0.00045052,4502.1,0.00015293,0.036589,0.00014144,-86.288,-0.00045193,-4544.6,0.19733
1721,6.069,5.0909,0,0.00044875,4484.4,0.00015337,0.023921,0.0001391,-107.17,-0.00045048,-4537,0.19836
1722,6.069,4.9091,0,0.00044706,4467.5,0.00015378,0.017425,0.00013687,-127.04,-0.00044909,-4529.7,0.19929
1723,6.069,4.7273,0,0.00044548,4451.7,0.00015417,0.011672,0.00013477,-145.73,-0.00044778,-4522.8,0.20014
1724,6.069,4.5455,0,0.00044401,4437,0.00015453,0.007176,0.00013282,-163.08,-0.00044655,-4516.3,0.2009
1725,6.069,4.3636,0,0.00044266,4423.6,0.00015485,0.0034015,0.00013104,-178.94,-0.00044543,-4510.3,0.20157
1726,6.069,4.1818,0,0.00044146,4411.5,0.00015514,0.00026324,0.00012944,-193.17,-0.00044443,-4505,0.20216
1727,6.069,4,0,0.00044041,4401,0.0001554,-0.0023446,0.00012803,-205.62,-0.00044354,-4500.2,0.20266
1728,6.069,3.8182,0,0.00043951,4392.1,0.00015562,-0.0044722,0.00012684,-216.19,-0.00044279,-4496.2,0.20307
1729,6.069,3.6364,0,0.00043879,4384.9,0.00015579,-0.0061498,0.00012588,-224.77,-0.00044218,-4492.9,0.2034
1730,6.069,3.4545,0,0.00043824,4379.4,0.00015592,-0.007395,0.00012514,-231.28,-0.00044171,-4490.4,0.20365
1731,6.069,3.2727,0,0.00043787,4375.7,0.00015601,-0.0082215,0.00012465,-235.66,-0.0004414,-4488.7,0.20381
1732,6.069,3.0909,0,0.00043768,4373.8,0.00015606,-0.0086338,0.0001244,-237.86,-0.00044125,-4487.9,0.2039
1733,6.069,2.9091,0,0.00043768,4373.8,0.00015606,-0.0086338,0.0001244,-237.86,-0.00044125,-4487.9,0.2039
1734,6.069,2.7273,0,0.00043787,4375.7,0.00015601,-0.0082214,0.00012465,-235.66,-0.0004414,-4488.7,0.20381
1735,6.069,2.5455,0,0.00043824,4379.4,0.00015592,-0.0073948,0.00012514,-231.28,-0.00044171,-4490.4,0.20365
1736,6.069,2.3636,0,0.00043879,4384.9,0.00015579,-0.0061495,0.00012588,-224.77,-0.00044218,-4492.9,0.2034
1737,6.069,2.1818,0,0.00043951,4392.1,0.00015562,-0.0044717,0.00012684,-216.19,-0.00044279,-4496.2,0.20307
1738,6.069,2,0,0.00044041,4401,0.0001554,-0.0023441,0.00012803,-205.62,-0.00044354,-4500.2,0.20266
1739,6.069,1.8182,0,0.00044146,4411.5,0.00015514,0.00026383,0.00012944,-193.17,-0.00044443,-4504.9,0.20216
1740,6.069,1.6364,0,0.00044266,4423.6,0.00015485,0.0034019,0.00013104,-178.94,-0.00044543,-4510.3,0.20157
1741,6.069,1.4545,0,0.00044401,4437,0.00015453,0.0071767,0.00013282,-163.08,-0.00044655,-4516.3,0.2009
1742,6.069,1.2727,0,0.00044548,4451.7,0.00015417,0.011673,0.00013477,-145.73,-0.00044778,-4522.8,0.20014
1743,6.069,1.0909,0,0.00044706,4467.5,0.00015378,0.017426,0.00013687,-127.04,-0.00044909,-4529.7,0.19929
1744,6.069,0.90909,0,0.00044875,4484.4,0.00015337,0.023922,0.0001391,-107.17,-0.00045048,-4537,0.19836
1745,6.069,0.72727,0,0.00045052,4502.1,0.00015293,0.03659,0.00014144,-86.288,-0.00045193,-4544.6,0.19733
1746,6.069,0.54545,0,0.00045237,4520.6,0.00015247,0.040461,0.00014387,-64.571,-0.00045343,-4552.5,0.1962
1747,6.069,0.36364,0,0.00045428,4539.7,0.00015201,0.13534,0.00014638,-42.126,-0.00045498,-4560.5,0.19498
1748,6.069,0.18182,0,0.00045626,4559.5,0.00015152,0.14046,0.00014897,-18.98,-0.00045658,-4568.9,0.19367
1749,5.8851,5.8182,0,0.00046214,4618.3,0.00015356,0.15284,0.00015074,-21.037,-0.0004625,-4628.7,0.18216
1750,5.8851,5.6364,0,0.00046001,4596.9,0.00015409,0.14845,0.00014794,-46.109,-0.00046077,-4619.7,0.18348
1751,5.8851,5.4545,0,0.00045794,4576.3,0.0001546,0.044661,0.00014522,-70.479,-0.0004591,-4611.1,0.18471
1752,5.8851,5.2727,0,0.00045595,4556.3,0.0001551,0.040173,0.00014258,-94.075,-0.00045747,-4602.6,0.18583
1753,5.8851,5.0909,0,0.00045403,4537.1,0.00015558,0.026199,0.00014003,-116.78,-0.0004559,-4594.4,0.18686
1754,5.8851,4.9091,0,0.0004522,4518.9,0.00015603,0.019001,0.00013761,-138.4,-0.0004544,-4586.5,0.1878
1755,5.8851,4.7273,0,0.00045048,4501.7,0.00015645,0.012642,0.00013533,-158.75,-0.00045297,-4579,0.18865
1756,5.8851,4.5455,0,0.00044889,4485.8,0.00015685,0.0076752,0.0001332,-177.65,-0.00045165,-4572,0.18941
1757,5.8851,4.3636,0,0.00044743,4471.3,0.0001572,0.0035093,0.00013126,-194.93,-0.00045043,-4565.5,0.19008
1758,5.8851,4.1818,0,0.00044613,4458.2,0.00015752,4.8633e-05,0.00012952,-210.44,-0.00044934,-4559.7,0.19066
1759,5.8851,4,0,0.00044499,4446.8,0.0001578,-0.0028253,0.00012799,-224.03,-0.00044838,-4554.6,0.19116
1760,5.8851,3.8182,0,0.00044402,4437.2,0.00015804,-0.0051681,0.00012669,-235.56,-0.00044756,-4550.2,0.19158
1761,5.8851,3.6364,0,0.00044324,4429.3,0.00015823,-0.0070144,0.00012564,-244.93,-0.00044689,-4546.7,0.19191
1762,5.8851,3.4545,0,0.00044264,4423.4,0.00015838,-0.0083845,0.00012483,-252.03,-0.00044639,-4544,0.19215
1763,5.8851,3.2727,0,0.00044224,4419.4,0.00015847,-0.0092932,0.0001243,-256.81,-0.00044605,-4542.2,0.19232
1764,5.8851,3.0909,0,0.00044204,4417.3,0.00015852,-0.0097463,0.00012403,-259.21,-0.00044588,-4541.3,0.1924
1765,5.8851,2.9091,0,0.00044204,4417.3,0.00015852,-0.0097464,0.00012403,-259.21,-0.00044588,-4541.3,0.1924
1766,5.8851,2.7273,0,0.00044224,4419.4,0.00015847,-0.0092931,0.0001243,-256.81,-0.00044605,-4542.2,0.19232
1767,5.8851,2.5455,0,0.00044264,4423.4,0.00015838,-0.0083843,0.00012483,-252.03,-0.00044639,-4544,0.19215
1768,5.8851,2.3636,0,0.00044324,4429.3,0.00015823,-0.0070141,0.00012564,-244.93,-0.00044689,-4546.7,0.19191
1769,5.8851,2.1818,0,0.00044402,4437.2,0.00015804,-0.0051677,0.00012669,-235.56,-0.00044756,-4550.2,0.19158
1770,5.8851,2,0,0.00044499,4446.8,0.0001578,-0.0028248,0.00012799,-224.03,-0.00044838,-4554.6,0.19116
1771,5.8851,1.8182,0,0.00044613,4458.2,0.00015752,4.9107e-05,0.00012952,-210.44,-0.00044934,-4559.7,0.19066
1772,5.8851,1.6364,0,0.00044743,4471.3,0.0001572,0.0035101,0.00013126,-194.93,-0.00045043,-4565.5,0.19008
1773,5.8851,1.4545,0,0.00044889,4485.8,0.00015685,0.0076759,0.0001332,-177.65,-0.00045165,-4572,0.18941
1774,5.8851,1.2727,0,0.00045048,4501.7,0.00015645,0.012643,0.00013533,-158.75,-0.00045297,-4579,0.18865
1775,5.8851,1.0909,0,0.0004522,4518.9,0.00015603,0.019001,0.00013761,-138.4,-0.0004544,-4586.5,0.1878
1776,5.8851,0.90909,0,0.00045403,4537.1,0.00015558,0.026201,0.00014003,-116.78,-0.0004559,-4594.4,0.18686
1777,5.8851,0.72727,0,0.00045595,4556.3,0.0001551,0.040174,0.00014258,-94.075,-0.00045747,-4602.6,0.18583
1778,5.8851,0.54545,0,0.00045794,4576.3,0.0001546,0.044661,0.00014522,-70.479,-0.0004591,-4611.1,0.18471
1779,5.8851,0.36364,0,0.00046001,4596.9,0.00015409,0.14845,0.00014794,-46.109,-0.00046077,-4619.7,0.18348
1780,5.8851,0.18182,0,0.00046214,4618.3,0.00015356,0.15284,0.00015074,-21.037,-0.0004625,-4628.7,0.18216
1781,5.7011,5.8182,0,0.00046808,4677.5,0.00015563,0.16753,0.00015252,-23.168,-0.00046846,-4689,0.17098
1782,5.7011,5.6364,0,0.00046577,4654.5,0.0001562,0.16277,0.00014948,-50.33,-0.0004666,-4679.4,0.1723
1783,5.7011,5.4545,0,0.00046354,4632.2,0.00015676,0.049282,0.00014653,-76.781,-0.0004648,-4670.1,0.17352
1784,5.7011,5.2727,0,0.00046138,4610.6,0.0001573,0.044102,0.00014367,-102.41,-0.00046304,-4661,0.17465
1785,5.7011,5.0909,0,0.00045931,4589.9,0.00015782,0.028705,0.00014091,-127.09,-0.00046133,-4652.1,0.17568
1786,5.7011,4.9091,0,0.00045733,4570.1,0.00015832,0.020739,0.00013827,-150.61,-0.0004597,-4643.6,0.17662
1787,5.7011,4.7273,0,0.00045547,4551.6,0.00015878,0.013722,0.00013579,-172.76,-0.00045816,-4635.5,0.17746
1788,5.7011,4.5455,0,0.00045375,4534.3,0.00015921,0.0082424,0.00013348,-193.35,-0.00045672,-4627.9,0.17822
1789,5.7011,4.3636,0,0.00045217,4518.6,0.0001596,0.0036515,0.00013136,-212.18,-0.00045541,-4620.9,0.17889
1790,5.7011,4.1818,0,0.00045076,4504.5,0.00015995,-0.00015954,0.00012946,-229.09,-0.00045422,-4614.6,0.17947
1791,5.7011,4,0,0.00044952,4492.1,0.00016026,-0.0033216,0.0001278,-243.91,-0.00045317,-4609.1,0.17997
1792,5.7011,3.8182,0,0.00044847,4481.6,0.00016052,-0.0058974,0.00012638,-256.5,-0.00045229,-4604.4,0.18038
1793,5.7011,3.6364,0,0.00044762,4473.1,0.00016073,-0.0079261,0.00012523,-266.72,-0.00045156,-4600.5,0.18071
1794,5.7011,3.4545,0,0.00044698,4466.7,0.00016089,-0.0094306,0.00012436,-274.48,-0.00045101,-4597.6,0.18096
1795,5.7011,3.2727,0,0.00044654,4462.4,0.000161,-0.010428,0.00012377,-279.7,-0.00045064,-4595.6,0.18112
1796,5.7011,3.0909,0,0.00044633,4460.2,0.00016105,-0.010926,0.00012348,-282.32,-0.00045046,-4594.6,0.1812
1797,5.7011,2.9091,0,0.00044633,4460.2,0.00016105,-0.010926,0.00012348,-282.32,-0.00045046,-4594.6,0.1812
1798,5.7011,2.7273,0,0.00044654,4462.4,0.000161,-0.010428,0.00012377,-279.7,-0.00045064,-4595.6,0.18112
1799,5.7011,2.5455,0,0.00044698,4466.7,0.00016089,-0.0094305,0.00012436,-274.48,-0.00045101,-4597.6,0.18096
1800,5.7011,2.3636,0,0.00044762,4473.1,0.00016073,-0.0079259,0.00012523,-266.72,-0.00045156,-4600.5,0.18071
1801,5.7011,2.1818,0,0.00044847,4481.6,0.00016052,-0.005897,0.00012638,-256.5,-0.00045229,-4604.4,0.18038
1802,5.7011,2,0,0.00044952,4492.1,0.00016026,-0.0033212,0.0001278,-243.91,-0.00045317,-4609.1,0.17997
1803,5.7011,1.8182,0,0.00045076,4504.5,0.00015995,-0.00015898,0.00012946,-229.09,-0.00045422,-4614.6,0.17947
1804,5.7011,1.6364,0,0.00045217,4518.6,0.0001596,0.0036521,0.00013136,-212.18,-0.00045541,-4620.9,0.17889
1805,5.7011,1.4545,0,0.00045375,4534.3,0.00015921,0.0082431,0.00013348,-193.35,-0.00045672,-4627.9,0.17822
1806,5.7011,1.2727,0,0.00045547,4551.6,0.00015878,0.013723,0.00013579,-172.76,-0.00045816,-4635.5,0.17746
1807,5.7011,1.0909,0,0.00045733,4570.1,0.00015832,0.02074,0.00013827,-150.61,-0.0004597,-4643.6,0.17662
1808,5.7011,0.90909,0,0.00045931,4589.9,0.00015782,0.028707,0.00014091,-127.09,-0.00046133,-4652.1,0.17568
1809,5.7011,0.72727,0,0.00046138,4610.6,0.0001573,0.044102,0.00014367,-102.41,-0.00046304,-4661,0.17465
1810,5.7011,0.54545,0,0.00046354,4632.2,0.00015676,0.049282,0.00014653,-76.781,-0.0004648,-4670.1,0.17352
1811,5.7011,0.36364,0,0.00046577,4654.5,0.0001562,0.16277,0.00014948,-50.33,-0.0004666,-4679.4,0.1723
1812,5.7011,0.18182,0,0.00046808,4677.5,0.00015563,0.16754,0.00015252,-23.168,-0.00046846,-4689,0.17098
1813,5.5172,5.8182,0,0.00047406,4737.3,0.00015771,0.18489,0.00015431,-25.367,-0.00047448,-4749.9,0.1601
1814,5.5172,5.6364,0,0.00047157,4712.5,0.00015834,0.17842,0.00015102,-54.795,-0.00047248,-4739.6,0.16143
1815,5.5172,5.4545,0,0.00046916,4688.4,0.00015895,0.054373,0.00014783,-83.498,-0.00047053,-4729.6,0.16265
1816,5.5172,5.2727,0,0.00046683,4665.1,0.00015954,0.04841,0.00014472,-111.33,-0.00046862,-4719.7,0.16378
1817,5.5172,5.0909,0,0.00046458,4642.6,0.00016011,0.031463,0.00014172,-138.16,-0.00046678,-4710.2,0.16481
1818,5.5172,4.9091,0,0.00046245,4621.3,0.00016065,0.022659,0.00013885,-163.74,-0.00046501,-4701,0.16574
1819,5.5172,4.7273,0,0.00046044,4601.2,0.00016115,0.014924,0.00013615,-187.85,-0.00046334,-4692.2,0.16659
1820,5.5172,4.5455,0,0.00045857,4582.5,0.00016162,0.0088868,0.00013364,-210.27,-0.00046178,-4684,0.16734
1821,5.5172,4.3636,0,0.00045686,4565.5,0.00016205,0.0038339,0.00013134,-230.8,-0.00046035,-4676.5,0.16801
1822,5.5172,4.1818,0,0.00045533,4550.2,0.00016244,-0.00035676,0.00012927,-249.24,-0.00045906,-4669.7,0.16859
1823,5.5172,4,0,0.000454,4536.8,0.00016277,-0.003831,0.00012745,-265.4,-0.00045793,-4663.7,0.16908
1824,5.5172,3.8182,0,0.00045286,4525.5,0.00016306,-0.0066582,0.00012591,-279.14,-0.00045696,-4658.6,0.16949
1825,5.5172,3.6364,0,0.00045194,4516.3,0.00016329,-0.0088836,0.00012465,-290.3,-0.00045618,-4654.4,0.16982
1826,5.5172,3.4545,0,0.00045124,4509.3,0.00016346,-0.010533,0.0001237,-298.77,-0.00045558,-4651.3,0.17006
1827,5.5172,3.2727,0,0.00045077,4504.6,0.00016358,-0.011626,0.00012306,-304.47,-0.00045518,-4649.1,0.17023
1828,5.5172,3.0909,0,0.00045054,4502.3,0.00016364,-0.01217,0.00012274,-307.34,-0.00045498,-4648.1,0.17031
1829,5.5172,2.9091,0,0.00045054,4502.3,0.00016364,-0.01217,0.00012274,-307.34,-0.00045498,-4648.1,0.17031
1830,5.5172,2.7273,0,0.00045077,4504.6,0.00016358,-0.011626,0.00012306,-304.47,-0.00045518,-4649.1,0.17023
1831,5.5172,2.5455,0,0.00045124,4509.3,0.00016346,-0.010532,0.0001237,-298.77,-0.00045558,-4651.3,0.17006
1832,5.5172,2.3636,0,0.00045194,4516.3,0.00016329,-0.0088831,0.00012465,-290.3,-0.00045618,-4654.4,0.16982
1833,5.5172,2.1818,0,0.00045286,4525.5,0.00016306,-0.0066581,0.00012591,-279.14,-0.00045696,-4658.6,0.16949
1834,5.5172,2,0,0.000454,4536.8,0.00016277,-0.0038305,0.00012745,-265.4,-0.00045793,-4663.7,0.16908
1835,5.5172,1.8182,0,0.00045533,4550.2,0.00016244,-0.00035631,0.00012927,-249.24,-0.00045906,-4669.7,0.16859
1836,5.5172,1.6364,0,0.00045686,4565.5,0.00016205,0.0038345,0.00013133,-230.8,-0.00046035,-4676.5,0.16801
1837,5.5172,1.4545,0,0.00045857,4582.5,0.00016162,0.0088876,0.00013364,-210.27,-0.00046178,-4684,0.16734
1838,5.5172,1.2727,0,0.00046044,4601.2,0.00016115,0.014925,0.00013615,-187.85,-0.00046334,-4692.2,0.16659
1839,5.5172,1.0909,0,0.00046245,4621.3,0.00016065,0.02266,0.00013885,-163.74,-0.00046501,-4701,0.16574
1840,5.5172,0.90909,0,0.00046458,4642.6,0.00016011,0.031465,0.00014172,-138.16,-0.00046678,-4710.2,0.16481
1841,5.5172,0.72727,0,0.00046683,4665.1,0.00015954,0.048411,0.00014472,-111.33,-0.00046862,-4719.7,0.16378
1842,5.5172,0.54545,0,0.00046916,4688.4,0.00015895,0.054373,0.00014783,-83.498,-0.00047053,-4729.6,0.16265
1843,5.5172,0.36364,0,0.00047157,4712.5,0.00015834,0.17842,0.00015102,-54.795,-0.00047248,-4739.6,0.16143
1844,5.5172,0.18182,0,0.00047406,4737.3,0.00015771,0.1849,0.00015431,-25.367,-0.00047448,-4749.9,0.1601
1845,5.3333,5.8182,0,0.0004801,4797.7,0.00015982,0.20535,0.00015611,-27.624,-0.00048056,-4811.3,0.14955
1846,5.3333,5.6364,0,0.00047742,4770.9,0.0001605,0.19554,0.00015256,-59.511,-0.0004784,-4800.3,0.15088
1847,5.3333,5.4545,0,0.00047481,4744.9,0.00016116,0.05999,0.00014909,-90.65,-0.00047629,-4789.5,0.1521
1848,5.3333,5.2727,0,0.00047229,4719.6,0.00016181,0.05314,0.00014571,-120.88,-0.00047423,-4778.9,0.15322
1849,5.3333,5.0909,0,0.00046986,4695.4,0.00016243,0.034501,0.00014246,-150.03,-0.00047223,-4768.6,0.15425
1850,5.3333,4.9091,0,0.00046755,4672.3,0.00016302,0.02478,0.00013935,-177.85,-0.00047032,-4758.7,0.15518
1851,5.3333,4.7273,0,0.00046538,4650.5,0.00016357,0.016264,0.00013641,-204.09,-0.00046851,-4749.2,0.15603
1852,5.3333,4.5455,0,0.00046336,4630.4,0.00016409,0.0096188,0.00013367,-228.51,-0.00046682,-4740.4,0.15678
1853,5.3333,4.3636,0,0.00046151,4611.9,0.00016456,0.0040646,0.00013117,-250.88,-0.00046527,-4732.3,0.15744
1854,5.3333,4.1818,0,0.00045986,4595.4,0.00016498,-0.00053763,0.00012891,-270.99,-0.00046387,-4724.9,0.15802
1855,5.3333,4,0,0.00045841,4580.9,0.00016535,-0.0043487,0.00012693,-288.63,-0.00046264,-4718.4,0.15851
1856,5.3333,3.8182,0,0.00045718,4568.7,0.00016566,-0.0074471,0.00012525,-303.61,-0.00046159,-4712.9,0.15891
1857,5.3333,3.6364,0,0.00045619,4558.7,0.00016591,-0.0098832,0.00012388,-315.8,-0.00046074,-4708.4,0.15924
1858,5.3333,3.4545,0,0.00045543,4551.2,0.0001661,-0.011688,0.00012284,-325.05,-0.00046009,-4705,0.15948
1859,5.3333,3.2727,0,0.00045492,4546.1,0.00016623,-0.012882,0.00012215,-331.28,-0.00045965,-4702.7,0.15964
1860,5.3333,3.0909,0,0.00045467,4543.5,0.0001663,-0.013477,0.00012179,-334.41,-0.00045943,-4701.5,0.15972
1861,5.3333,2.9091,0,0.00045467,4543.5,0.0001663,-0.013478,0.00012179,-334.41,-0.00045943,-4701.5,0.15972
1862,5.3333,2.7273,0,0.00045492,4546.1,0.00016623,-0.012882,0.00012215,-331.28,-0.00045965,-4702.7,0.15964
1863,5.3333,2.5455,0,0.00045543,4551.2,0.0001661,-0.011687,0.00012284,-325.05,-0.00046009,-4705,0.15948
1864,5.3333,2.3636,0,0.00045619,4558.7,0.00016591,-0.009883,0.00012388,-315.8,-0.00046074,-4708.4,0.15924
1865,5.3333,2.1818,0,0.00045718,4568.7,0.00016566,-0.0074468,0.00012525,-303.61,-0.00046159,-4712.9,0.15891
1866,5.3333,2,0,0.00045841,4580.9,0.00016535,-0.0043482,0.00012693,-288.63,-0.00046264,-4718.4,0.15851
1867,5.3333,1.8182,0,0.00045986,4595.4,0.00016498,-0.00053719,0.00012891,-270.99,-0.00046387,-4724.9,0.15802
1868,5.3333,1.6364,0,0.00046151,4611.9,0.00016456,0.0040652,0.00013117,-250.88,-0.00046527,-4732.3,0.15744
1869,5.3333,1.4545,0,0.00046336,4630.4,0.00016409,0.0096196,0.00013367,-228.51,-0.00046682,-4740.4,0.15678
1870,5.3333,1.2727,0,0.00046538,4650.5,0.00016357,0.016264,0.00013641,-204.09,-0.00046851,-4749.2,0.15603
1871,5.3333,1.0909,0,0.00046755,4672.3,0.00016302,0.024781,0.00013935,-177.85,-0.00047032,-4758.7,0.15518
1872,5.3333,0.90909,0,0.00046986,4695.4,0.00016243,0.034502,0.00014246,-150.03,-0.00047223,-4768.6,0.15425
1873,5.3333,0.72727,0,0.00047229,4719.6,0.00016181,0.053141,0.00014571,-120.88,-0.00047423,-4778.9,0.15322
1874,5.3333,0.54545,0,0.00047481,4744.9,0.00016116,0.05999,0.00014909,-90.65,-0.00047629,-4789.5,0.1521
1875,5.3333,0.36364,0,0.00047742,4770.9,0.0001605,0.19554,0.00015256,-59.511,-0.0004784,-4800.3,0.15088
1876,5.3333,0.18182,0,0.0004801,4797.7,0.00015982,0.20535,0.00015611,-27.624,-0.00048056,-4811.3,0.14955
1877,5.1494,5.8182,0,0.0004862,4858.6,0.00016195,0.22944,0.00015793,-29.928,-0.0004867,-4873.4,0.13933
1878,5.1494,5.6364,0,0.0004833,4829.7,0.00016269,0.21429,0.00015408,-64.483,-0.00048436,-4861.5,0.14065
1879,5.1494,5.4545,0,0.00048049,4801.6,0.00016341,0.066194,0.00015032,-98.259,-0.00048208,-4849.9,0.14187
1880,5.1494,5.2727,0,0.00047776,4774.3,0.00016411,0.058338,0.00014666,-131.07,-0.00047986,-4838.5,0.14299
1881,5.1494,5.0909,0,0.00047514,4748.1,0.00016479,0.03785,0.00014313,-162.75,-0.0004777,-4827.4,0.14401
1882,5.1494,4.9091,0,0.00047264,4723.1,0.00016544,0.027125,0.00013975,-193,-0.00047563,-4816.7,0.14494
1883,5.1494,4.7273,0,0.00047029,4699.7,0.00016604,0.017756,0.00013655,-221.57,-0.00047367,-4806.5,0.14578
1884,5.1494,4.5455,0,0.00046811,4677.8,0.00016661,0.010451,0.00013358,-248.17,-0.00047183,-4797,0.14653
1885,5.1494,4.3636,0,0.00046611,4657.9,0.00016712,0.0043519,0.00013085,-272.55,-0.00047015,-4788.2,0.14719
1886,5.1494,4.1818,0,0.00046433,4640.1,0.00016758,-0.00069527,0.00012839,-294.48,-0.00046863,-4780.3,0.14776
1887,5.1494,4,0,0.00046276,4624.4,0.00016799,-0.0048692,0.00012623,-313.72,-0.0004673,-4773.3,0.14824
1888,5.1494,3.8182,0,0.00046143,4611.2,0.00016833,-0.0082583,0.0001244,-330.08,-0.00046616,-4767.3,0.14865
1889,5.1494,3.6364,0,0.00046036,4600.4,0.00016861,-0.01092,0.00012291,-343.38,-0.00046524,-4762.5,0.14897
1890,5.1494,3.4545,0,0.00045954,4592.2,0.00016882,-0.01289,0.00012178,-353.49,-0.00046453,-4758.8,0.14921
1891,5.1494,3.2727,0,0.00045899,4586.8,0.00016896,-0.014192,0.00012101,-360.28,-0.00046406,-4756.3,0.14937
1892,5.1494,3.0909,0,0.00045872,4584,0.00016903,-0.014841,0.00012063,-363.7,-0.00046382,-4755,0.14945
1893,5.1494,2.9091,0,0.00045872,4584,0.00016903,-0.014841,0.00012063,-363.7,-0.00046382,-4755,0.14945
1894,5.1494,2.7273,0,0.00045899,4586.8,0.00016896,-0.014192,0.00012101,-360.28,-0.00046406,-4756.3,0.14937
1895,5.1494,2.5455,0,0.00045954,4592.2,0.00016882,-0.012889,0.00012178,-353.49,-0.00046453,-4758.8,0.14921
1896,5.1494,2.3636,0,0.00046036,4600.4,0.00016861,-0.01092,0.00012291,-343.38,-0.00046524,-4762.5,0.14897
1897,5.1494,2.1818,0,0.00046143,4611.2,0.00016833,-0.0082579,0.0001244,-330.08,-0.00046616,-4767.3,0.14865
1898,5.1494,2,0,0.00046276,4624.4,0.00016799,-0.0048688,0.00012623,-313.72,-0.0004673,-4773.3,0.14824
1899,5.1494,1.8182,0,0.00046433,4640.1,0.00016758,-0.00069464,0.00012839,-294.48,-0.00046863,-4780.3,0.14776
1900,5.1494,1.6364,0,0.00046611,4657.9,0.00016712,0.0043527,0.00013085,-272.55,-0.00047015,-4788.2,0.14719
1901,5.1494,1.4545,0,0.00046811,4677.8,0.00016661,0.010451,0.00013358,-248.17,-0.00047183,-4797,0.14653
1902,5.1494,1.2727,0,0.00047029,4699.7,0.00016604,0.017757,0.00013655,-221.57,-0.00047367,-4806.5,0.14578
1903,5.1494,1.0909,0,0.00047264,4723.1,0.00016544,0.027126,0.00013975,-193,-0.00047563,-4816.7,0.14494
1904,5.1494,0.90909,0,0.00047514,4748.1,0.00016479,0.037851,0.00014313,-162.75,-0.0004777,-4827.4,0.14401
1905,5.1494,0.72727,0,0.00047776,4774.3,0.00016411,0.058339,0.00014666,-131.07,-0.00047986,-4838.5,0.14299
1906,5.1494,0.54545,0,0.00048049,4801.6,0.00016341,0.066194,0.00015032,-98.259,-0.00048208,-4849.9,0.14187
1907,5.1494,0.36364,0,0.0004833,4829.7,0.00016269,0.21429,0.00015408,-64.483,-0.00048436,-4861.5,0.14065
1908,5.1494,0.18182,0,0.0004862,4858.6,0.00016195,0.22945,0.00015793,-29.928,-0.0004867,-4873.4,0.13933
1909,4.9655,5.8182,0,0.00049236,4920.2,0.0001641,0.25785,0.00015977,-32.264,-0.0004929,-4936.1,0.12943
1910,4.9655,5.6364,0,0.00048923,4888.9,0.00016491,0.23485,0.0001556,-69.713,-0.00049037,-4923.3,0.13075
1911,4.9655,5.4545,0,0.00048619,4858.5,0.00016569,0.073057,0.00015152,-106.34,-0.00048791,-4910.8,0.13197
1912,4.9655,5.2727,0,0.00048325,4829.1,0.00016646,0.064055,0.00014755,-141.96,-0.0004855,-4898.5,0.13308
1913,4.9655,5.0909,0,0.00048041,4800.8,0.0001672,0.041544,0.00014372,-176.38,-0.00048317,-4886.5,0.1341
1914,4.9655,4.9091,0,0.00047771,4773.8,0.0001679,0.02972,0.00014004,-209.29,-0.00048093,-4875,0.13502
1915,4.9655,4.7273,0,0.00047517,4748.5,0.00016857,0.01942,0.00013657,-240.38,-0.00047881,-4864.1,0.13585
1916,4.9655,4.5455,0,0.00047282,4724.9,0.00016918,0.011395,0.00013333,-269.35,-0.00047682,-4853.8,0.1366
1917,4.9655,4.3636,0,0.00047066,4703.4,0.00016975,0.0047062,0.00013036,-295.93,-0.000475,-4844.4,0.13725
1918,4.9655,4.1818,0,0.00046873,4684.1,0.00017025,-0.00082075,0.00012769,-319.84,-0.00047335,-4835.8,0.13782
1919,4.9655,4,0,0.00046704,4667.2,0.0001707,-0.0053847,0.00012534,-340.83,-0.00047191,-4828.3,0.1383
1920,4.9655,3.8182,0,0.00046561,4652.9,0.00017108,-0.0090841,0.00012334,-358.69,-0.00047068,-4821.9,0.1387
1921,4.9655,3.6364,0,0.00046445,4641.3,0.00017138,-0.011985,0.00012171,-373.21,-0.00046967,-4816.6,0.13902
1922,4.9655,3.4545,0,0.00046357,4632.5,0.00017161,-0.014129,0.00012048,-384.25,-0.00046891,-4812.7,0.13925
1923,4.9655,3.2727,0,0.00046298,4626.6,0.00017177,-0.015546,0.00011964,-391.67,-0.00046839,-4810,0.13941
1924,4.9655,3.0909,0,0.00046268,4623.6,0.00017185,-0.016251,0.00011923,-395.41,-0.00046814,-4808.6,0.13949
1925,4.9655,2.9091,0,0.00046268,4623.6,0.00017185,-0.016251,0.00011923,-395.41,-0.00046814,-4808.6,0.13949
1926,4.9655,2.7273,0,0.00046298,4626.6,0.00017177,-0.015546,0.00011964,-391.67,-0.00046839,-4810,0.13941
1927,4.9655,2.5455,0,0.00046357,4632.5,0.00017161,-0.014129,0.00012048,-384.25,-0.00046891,-4812.7,0.13925
1928,4.9655,2.3636,0,0.00046445,4641.3,0.00017138,-0.011985,0.00012171,-373.21,-0.00046967,-4816.6,0.13902
1929,4.9655,2.1818,0,0.00046561,4652.9,0.00017108,-0.0090839,0.00012334,-358.69,-0.00047068,-4821.9,0.1387
1930,4.9655,2,0,0.00046704,4667.2,0.0001707,-0.0053842,0.00012534,-340.83,-0.00047191,-4828.3,0.1383
1931,4.9655,1.8182,0,0.00046873,4684.1,0.00017025,-0.00082025,0.00012769,-319.84,-0.00047335,-4835.8,0.13782
1932,4.9655,1.6364,0,0.00047066,4703.4,0.00016975,0.004707,0.00013036,-295.93,-0.000475,-4844.4,0.13725
1933,4.9655,1.4545,0,0.00047282,4724.9,0.00016918,0.011396,0.00013333,-269.35,-0.00047682,-4853.8,0.1366
1934,4.9655,1.2727,0,0.00047517,4748.5,0.00016857,0.019421,0.00013657,-240.38,-0.00047881,-4864.1,0.13585
1935,4.9655,1.0909,0,0.00047771,4773.8,0.0001679,0.029721,0.00014004,-209.29,-0.00048093,-4875,0.13502
1936,4.9655,0.90909,0,0.00048041,4800.8,0.0001672,0.041546,0.00014372,-176.38,-0.00048317,-4886.5,0.1341
1937,4.9655,0.72727,0,0.00048325,4829.1,0.00016646,0.064056,0.00014755,-141.96,-0.0004855,-4898.5,0.13308
1938,4.9655,0.54545,0,0.00048619,4858.5,0.00016569,0.073057,0.00015152,-106.34,-0.00048791,-4910.8,0.13197
1939,4.9655,0.36364,0,0.00048923,4888.9,0.00016491,0.23486,0.0001556,-69.713,-0.00049037,-4923.3,0.13075
1940,4.9655,0.18182,0,0.00049236,4920.2,0.0001641,0.25785,0.00015977,-32.264,-0.0004929,-4936.1,0.12943
1941,4.7816,5.8182,0,0.00049859,4982.4,0.00016627,0.2914,0.00016162,-34.612,-0.00049916,-4999.5,0.11987
1942,4.7816,5.6364,0,0.0004952,4948.6,0.00016715,0.25743,0.0001571,-75.204,-0.00049643,-4985.6,0.12118
1943,4.7816,5.4545,0,0.00049192,4915.8,0.000168,0.08066,0.00015269,-114.92,-0.00049377,-4972.2,0.12239
1944,4.7816,5.2727,0,0.00048874,4884,0.00016884,0.070349,0.00014839,-153.59,-0.00049117,-4959,0.1235
1945,4.7816,5.0909,0,0.00048568,4853.5,0.00016965,0.045622,0.00014422,-190.99,-0.00048865,-4946.1,0.12451
1946,4.7816,4.9091,0,0.00048277,4824.4,0.00017042,0.032592,0.00014023,-226.77,-0.00048623,-4933.7,0.12543
1947,4.7816,4.7273,0,0.00048003,4797,0.00017114,0.021275,0.00013646,-260.61,-0.00048393,-4921.9,0.12625
1948,4.7816,4.5455,0,0.00047748,4771.5,0.00017182,0.012467,0.00013293,-292.17,-0.00048178,-4910.9,0.12699
1949,4.7816,4.3636,0,0.00047516,4748.3,0.00017244,0.0051397,0.0001297,-321.15,-0.00047981,-4900.7,0.12763
1950,4.7816,4.1818,0,0.00047308,4727.5,0.000173,-0.0009041,0.00012679,-347.22,-0.00047803,-4891.6,0.12819
1951,4.7816,4,0,0.00047126,4709.3,0.00017349,-0.0058845,0.00012423,-370.13,-0.00047646,-4883.5,0.12867
1952,4.7816,3.8182,0,0.00046971,4693.9,0.0001739,-0.0099134,0.00012205,-389.62,-0.00047513,-4876.6,0.12906
1953,4.7816,3.6364,0,0.00046846,4681.4,0.00017424,-0.013067,0.00012028,-405.48,-0.00047404,-4870.9,0.12938
1954,4.7816,3.4545,0,0.00046751,4671.9,0.0001745,-0.015394,0.00011893,-417.53,-0.00047321,-4866.7,0.12961
1955,4.7816,3.2727,0,0.00046687,4665.5,0.00017467,-0.016929,0.00011802,-425.64,-0.00047266,-4863.8,0.12977
1956,4.7816,3.0909,0,0.00046655,4662.3,0.00017476,-0.017693,0.00011757,-429.72,-0.00047238,-4862.3,0.12985
1957,4.7816,2.9091,0,0.00046655,4662.3,0.00017476,-0.017693,0.00011757,-429.72,-0.00047238,-4862.3,0.12985
1958,4.7816,2.7273,0,0.00046687,4665.5,0.00017467,-0.016929,0.00011802,-425.64,-0.00047266,-4863.8,0.12977
1959,4.7816,2.5455,0,0.00046751,4671.9,0.0001745,-0.015393,0.00011893,-417.53,-0.00047321,-4866.7,0.12961
1960,4.7816,2.3636,0,0.00046846,4681.4,0.00017424,-0.013067,0.00012028,-405.48,-0.00047404,-4870.9,0.12938
1961,4.7816,2.1818,0,0.00046971,4693.9,0.0001739,-0.009913,0.00012205,-389.62,-0.00047513,-4876.6,0.12906
1962,4.7816,2,0,0.00047126,4709.3,0.00017349,-0.0058841,0.00012423,-370.13,-0.00047646,-4883.5,0.12867
1963,4.7816,1.8182,0,0.00047308,4727.5,0.000173,-0.00090354,0.00012679,-347.22,-0.00047803,-4891.6,0.12819
1964,4.7816,1.6364,0,0.00047516,4748.3,0.00017244,0.0051405,0.0001297,-321.15,-0.00047981,-4900.7,0.12763
1965,4.7816,1.4545,0,0.00047748,4771.5,0.00017182,0.012468,0.00013293,-292.17,-0.00048178,-4910.9,0.12699
1966,4.7816,1.2727,0,0.00048003,4797,0.00017114,0.021276,0.00013646,-260.61,-0.00048393,-4921.9,0.12625
1967,4.7816,1.0909,0,0.00048277,4824.4,0.00017042,0.032592,0.00014023,-226.77,-0.00048623,-4933.7,0.12543
1968,4.7816,0.90909,0,0.00048568,4853.5,0.00016965,0.045624,0.00014422,-190.99,-0.00048865,-4946.1,0.12451
1969,4.7816,0.72727,0,0.00048874,4884,0.00016884,0.07035,0.00014839,-153.59,-0.00049117,-4959,0.1235
1970,4.7816,0.54545,0,0.00049192,4915.8,0.000168,0.08066,0.00015269,-114.92,-0.00049377,-4972.2,0.12239
1971,4.7816,0.36364,0,0.0004952,4948.6,0.00016715,0.25743,0.0001571,-75.204,-0.00049643,-4985.6,0.12118
1972,4.7816,0.18182,0,0.00049859,4982.4,0.00016627,0.29141,0.00016162,-34.612,-0.00049916,-4999.5,0.11987
1973,4.5977,5.8182,0,0.00050488,5045.3,0.00016846,0.33117,0.0001635,-36.95,-0.00050549,-5063.5,0.11064
1974,4.5977,5.6364,0,0.00050121,5008.7,0.00016942,0.28225,0.00015861,-80.954,-0.00050254,-5048.5,0.11195
1975,4.5977,5.4545,0,0.00049767,4973.3,0.00017034,0.089095,0.00015383,-124.02,-0.00049967,-5034.1,0.11315
1976,4.5977,5.2727,0,0.00049425,4939,0.00017126,0.077285,0.00014916,-165.98,-0.00049686,-5019.9,0.11425
1977,4.5977,5.0909,0,0.00049094,4906.1,0.00017214,0.050128,0.00014464,-206.62,-0.00049413,-5006.1,0.11526
1978,4.5977,4.9091,0,0.0004878,4874.7,0.00017299,0.03577,0.0001403,-245.54,-0.00049151,-4992.8,0.11616
1979,4.5977,4.7273,0,0.00048485,4845.1,0.00017378,0.023343,0.0001362,-282.38,-0.00048903,-4980.1,0.11698
1980,4.5977,4.5455,0,0.0004821,4817.7,0.00017453,0.013683,0.00013237,-316.76,-0.00048671,-4968.3,0.1177
1981,4.5977,4.3636,0,0.0004796,4792.7,0.00017521,0.0056653,0.00012885,-348.34,-0.00048458,-4957.4,0.11834
1982,4.5977,4.1818,0,0.00047736,4770.3,0.00017582,-0.00093244,0.00012568,-376.79,-0.00048265,-4947.5,0.11889
1983,4.5977,4,0,0.0004754,4750.7,0.00017636,-0.0063553,0.00012289,-401.78,-0.00048096,-4938.8,0.11936
1984,4.5977,3.8182,0,0.00047374,4734.1,0.00017682,-0.010731,0.00012052,-423.05,-0.00047951,-4931.4,0.11975
1985,4.5977,3.6364,0,0.00047239,4720.6,0.00017719,-0.014147,0.00011858,-440.36,-0.00047834,-4925.4,0.12006
1986,4.5977,3.4545,0,0.00047137,4710.4,0.00017747,-0.016663,0.00011712,-453.52,-0.00047744,-4920.8,0.12029
1987,4.5977,3.2727,0,0.00047068,4703.6,0.00017766,-0.01832,0.00011613,-462.37,-0.00047684,-4917.7,0.12045
1988,4.5977,3.0909,0,0.00047034,4700.2,0.00017776,-0.019144,0.00011563,-466.83,-0.00047654,-4916.2,0.12052
1989,4.5977,2.9091,0,0.00047034,4700.2,0.00017776,-0.019144,0.00011563,-466.83,-0.00047654,-4916.2,0.12052
1990,4.5977,2.7273,0,0.00047068,4703.6,0.00017766,-0.01832,0.00011613,-462.37,-0.00047684,-4917.7,0.12045
1991,4.5977,2.5455,0,0.00047137,4710.4,0.00017747,-0.016663,0.00011712,-453.52,-0.00047744,-4920.8,0.12029
1992,4.5977,2.3636,0,0.00047239,4720.6,0.00017719,-0.014147,0.00011858,-440.36,-0.00047834,-4925.4,0.12006
1993,4.5977,2.1818,0,0.00047374,4734.1,0.00017682,-0.01073,0.00012052,-423.05,-0.00047951,-4931.4,0.11975
1994,4.5977,2,0,0.0004754,4750.7,0.00017636,-0.006355,0.00012289,-401.78,-0.00048096,-4938.8,0.11936
1995,4.5977,1.8182,0,0.00047736,4770.3,0.00017582,-0.00093204,0.00012568,-376.79,-0.00048265,-4947.5,0.11889
1996,4.5977,1.6364,0,0.0004796,4792.7,0.00017521,0.0056659,0.00012885,-348.35,-0.00048458,-4957.4,0.11834
1997,4.5977,1.4545,0,0.0004821,4817.7,0.00017453,0.013684,0.00013237,-316.76,-0.00048671,-4968.3,0.1177
1998,4.5977,1.2727,0,0.00048485,4845.1,0.00017378,0.023343,0.0001362,-282.38,-0.00048903,-4980.1,0.11698
1999,4.5977,1.0909,0,0.0004878,4874.7,0.00017299,0.035771,0.0001403,-245.54,-0.00049151,-4992.8,0.11616
2000,4.5977,0.90909,0,0.00049094,4906.1,0.00017214,0.050129,0.00014464,-206.62,-0.00049413,-5006.1,0.11526
2001,4.5977,0.72727,0,0.00049425,4939,0.00017126,0.077286,0.00014916,-165.98,-0.00049686,-5019.9,0.11425
2002,4.5977,0.54545,0,0.00049767,4973.3,0.00017034,0.089096,0.00015383,-124.02,-0.00049967,-5034.1,0.11315
2003,4.5977,0.36364,0,0.00050121,5008.7,0.00016942,0.28225,0.00015861,-80.954,-0.00050253,-5048.5,0.11195
2004,4.5977,0.18182,0,0.00050488,5045.3,0.00016846,0.33117,0.0001635,-36.95,-0.00050549,-5063.5,0.11064
2005,4.4138,5.8182,0,0.00051124,5108.8,0.00017068,0.37849,0.00016541,-39.249,-0.00051189,-5128.2,0.10176
2006,4.4138,5.6364,0,0.00050727,5069.2,0.00017171,0.30957,0.0001601,-86.96,-0.00050869,-5112,0.10306
2007,4.4138,5.4545,0,0.00050345,5031.1,0.00017272,0.098469,0.00015492,-133.65,-0.00050559,-5096.5,0.10425
2008,4.4138,5.2727,0,0.00049976,4994.1,0.00017372,0.084936,0.00014986,-179.2,-0.00050256,-5081.3,0.10534
2009,4.4138,5.0909,0,0.0004962,4958.6,0.00017469,0.055107,0.00014496,-223.35,-0.00049962,-5066.4,0.10633
2010,4.4138,4.9091,0,0.00049281,4924.7,0.00017561,0.039289,0.00014025,-265.69,-0.00049679,-5052.2,0.10723
2011,4.4138,4.7273,0,0.00048963,4892.9,0.00017649,0.025646,0.00013579,-305.79,-0.00049411,-5038.6,0.10803
2012,4.4138,4.5455,0,0.00048668,4863.4,0.00017731,0.015061,0.00013162,-343.26,-0.0004916,-5025.9,0.10875
2013,4.4138,4.3636,0,0.00048398,4836.5,0.00017806,0.0062989,0.00012779,-377.68,-0.0004893,-5014.2,0.10938
2014,4.4138,4.1818,0,0.00048157,4812.4,0.00017873,-0.00088965,0.00012434,-408.7,-0.00048722,-5003.7,0.10992
2015,4.4138,4,0,0.00047946,4791.3,0.00017933,-0.006779,0.0001213,-435.97,-0.00048539,-4994.4,0.11038
2016,4.4138,3.8182,0,0.00047768,4773.5,0.00017983,-0.011515,0.00011872,-459.18,-0.00048383,-4986.5,0.11076
2017,4.4138,3.6364,0,0.00047624,4759.1,0.00018024,-0.015202,0.00011662,-478.07,-0.00048256,-4980.1,0.11107
2018,4.4138,3.4545,0,0.00047514,4748.1,0.00018055,-0.017909,0.00011502,-492.43,-0.0004816,-4975.2,0.11129
2019,4.4138,3.2727,0,0.00047441,4740.8,0.00018076,-0.019689,0.00011394,-502.1,-0.00048095,-4971.9,0.11145
2020,4.4138,3.0909,0,0.00047404,4737.1,0.00018087,-0.020572,0.0001134,-506.96,-0.00048062,-4970.2,0.11152
2021,4.4138,2.9091,0,0.00047404,4737.1,0.00018087,-0.020572,0.0001134,-506.96,-0.00048062,-4970.2,0.11152
2022,4.4138,2.7273,0,0.00047441,4740.8,0.00018076,-0.019689,0.00011394,-502.1,-0.00048095,-4971.9,0.11145
2023,4.4138,2.5455,0,0.00047514,4748.1,0.00018055,-0.017909,0.00011502,-492.43,-0.0004816,-4975.2,0.11129
2024,4.4138,2.3636,0,0.00047624,4759.1,0.00018024,-0.015201,0.00011662,-478.07,-0.00048256,-4980.1,0.11107
2025,4.4138,2.1818,0,0.00047768,4773.5,0.00017983,-0.011515,0.00011872,-459.18,-0.00048383,-4986.5,0.11076
2026,4.4138,2,0,0.00047946,4791.3,0.00017933,-0.0067786,0.0001213,-435.97,-0.00048539,-4994.4,0.11038
2027,4.4138,1.8182,0,0.00048157,4812.4,0.00017873,-0.00088916,0.00012434,-408.7,-0.00048722,-5003.7,0.10992
2028,4.4138,1.6364,0,0.00048398,4836.5,0.00017806,0.0062997,0.00012779,-377.68,-0.0004893,-5014.2,0.10938
2029,4.4138,1.4545,0,0.00048668,4863.4,0.00017731,0.015062,0.00013162,-343.26,-0.0004916,-5025.9,0.10875
2030,4.4138,1.2727,0,0.00048963,4892.9,0.00017649,0.025647,0.00013579,-305.79,-0.00049411,-5038.6,0.10803
2031,4.4138,1.0909,0,0.00049281,4924.7,0.00017561,0.03929,0.00014025,-265.69,-0.00049679,-5052.2,0.10723
2032,4.4138,0.90909,0,0.0004962,4958.6,0.00017469,0.055109,0.00014496,-223.35,-0.00049962,-5066.4,0.10633
2033,4.4138,0.72727,0,0.00049976,4994.1,0.00017372,0.084936,0.00014986,-179.2,-0.00050256,-5081.3,0.10534
2034,4.4138,0.54545,0,0.00050345,5031.1,0.00017272,0.098469,0.00015492,-133.65,-0.00050559,-5096.5,0.10425
2035,4.4138,0.36364,0,0.00050727,5069.2,0.00017171,0.30958,0.0001601,-86.96,-0.00050869,-5112,0.10306
2036,4.4138,0.18182,0,0.00051124,5108.8,0.00017068,0.37849,0.00016541,-39.249,-0.00051189,-5128.2,0.10176
2037,4.2299,5.8182,0,0.00051767,5173.1,0.00017292,0.43506,0.00016734,-41.475,-0.00051835,-5193.5,0.093221
2038,4.2299,5.6364,0,0.00051337,5130.2,0.00017404,0.33971,0.00016159,-93.214,-0.00051489,-5176,0.094508
2039,4.2299,5.4545,0,0.00050926,5089.1,0.00017514,0.1089,0.00015598,-143.83,-0.00051155,-5159.4,0.09569
2040,4.2299,5.2727,0,0.00050527,5049.2,0.00017623,0.09338,0.00015049,-193.27,-0.00050828,-5143,0.096769
2041,4.2299,5.0909,0,0.00050144,5010.9,0.00017729,0.06061,0.00014517,-241.26,-0.00050511,-5127.2,0.097748
2042,4.2299,4.9091,0,0.00049779,4974.5,0.0001783,0.043181,0.00014006,-287.31,-0.00050206,-5111.9,0.098632
2043,4.2299,4.7273,0,0.00049437,4940.3,0.00017926,0.028208,0.00013521,-330.98,-0.00049916,-5097.4,0.099424
2044,4.2299,4.5455,0,0.00049119,4908.5,0.00018016,0.016616,0.00013068,-371.8,-0.00049646,-5083.9,0.10013
2045,4.2299,4.3636,0,0.0004883,4879.6,0.00018099,0.0070549,0.00012651,-409.33,-0.00049397,-5071.4,0.10074
2046,4.2299,4.1818,0,0.00048571,4853.8,0.00018173,-0.00076012,0.00012276,-443.15,-0.00049173,-5060.2,0.10128
2047,4.2299,4,0,0.00048346,4831.2,0.00018239,-0.0071362,0.00011945,-472.89,-0.00048976,-5050.3,0.10173
2048,4.2299,3.8182,0,0.00048155,4812.1,0.00018295,-0.012242,0.00011664,-498.21,-0.00048808,-5041.9,0.1021
2049,4.2299,3.6364,0,0.00048,4796.7,0.0001834,-0.0162,0.00011435,-518.83,-0.00048672,-5035,0.1024
2050,4.2299,3.4545,0,0.00047883,4785,0.00018375,-0.019098,0.00011261,-534.5,-0.00048568,-5029.8,0.10262
2051,4.2299,3.2727,0,0.00047805,4777.2,0.00018398,-0.020997,0.00011144,-545.04,-0.00048498,-5026.3,0.10277
2052,4.2299,3.0909,0,0.00047765,4773.2,0.0001841,-0.021938,0.00011085,-550.35,-0.00048463,-5024.6,0.10284
2053,4.2299,2.9091,0,0.00047765,4773.2,0.0001841,-0.021938,0.00011085,-550.35,-0.00048463,-5024.6,0.10284
2054,4.2299,2.7273,0,0.00047805,4777.2,0.00018398,-0.020997,0.00011144,-545.04,-0.00048498,-5026.3,0.10277
2055,4.2299,2.5455,0,0.00047883,4785,0.00018375,-0.019097,0.00011261,-534.5,-0.00048568,-5029.8,0.10262
2056,4.2299,2.3636,0,0.00048,4796.7,0.0001834,-0.0162,0.00011435,-518.83,-0.00048672,-5035,0.1024
2057,4.2299,2.1818,0,0.00048155,4812.1,0.00018295,-0.012242,0.00011664,-498.21,-0.00048808,-5041.9,0.1021
2058,4.2299,2,0,0.00048346,4831.2,0.00018239,-0.0071357,0.00011945,-472.89,-0.00048976,-5050.3,0.10173
2059,4.2299,1.8182,0,0.00048571,4853.8,0.00018173,-0.00075966,0.00012276,-443.15,-0.00049173,-5060.2,0.10128
2060,4.2299,1.6364,0,0.0004883,4879.6,0.00018099,0.0070555,0.00012651,-409.33,-0.00049397,-5071.4,0.10074
2061,4.2299,1.4545,0,0.00049119,4908.5,0.00018016,0.016617,0.00013068,-371.8,-0.00049646,-5083.9,0.10013
2062,4.2299,1.2727,0,0.00049437,4940.3,0.00017926,0.028208,0.00013521,-330.98,-0.00049916,-5097.4,0.099424
2063,4.2299,1.0909,0,0.00049779,4974.5,0.0001783,0.043182,0.00014006,-287.31,-0.00050206,-5111.9,0.098632
2064,4.2299,0.90909,0,0.00050144,5010.9,0.00017729,0.060612,0.00014517,-241.26,-0.00050511,-5127.2,0.097748
2065,4.2299,0.72727,0,0.00050527,5049.2,0.00017623,0.09338,0.00015049,-193.27,-0.00050828,-5143,0.096769
2066,4.2299,0.54545,0,0.00050926,5089.1,0.00017514,0.1089,0.00015598,-143.83,-0.00051155,-5159.4,0.09569
2067,4.2299,0.36364,0,0.00051337,5130.2,0.00017404,0.33971,0.00016159,-93.214,-0.00051489,-5176,0.094508
2068,4.2299,0.18182,0,0.00051767,5173.1,0.00017292,0.43506,0.00016734,-41.475,-0.00051835,-5193.5,0.093221
2069,4.046,5.8182,0,0.00052416,5238,0.00017517,0.50308,0.0001693,-43.59,-0.00052488,-5259.4,0.085033
2070,4.046,5.6364,0,0.00051952,5191.6,0.00017639,0.37302,0.00016307,-99.709,-0.00052113,-5240.5,0.086308
2071,4.046,5.4545,0,0.00051508,5147.2,0.00017759,0.12053,0.000157,-154.58,-0.00051753,-5222.7,0.087475
2072,4.046,5.2727,0,0.00051079,5104.3,0.00017878,0.10271,0.00015105,-208.26,-0.00051401,-5205.2,0.088539
2073,4.046,5.0909,0,0.00050666,5063.1,0.00017994,0.066697,0.00014527,-260.41,-0.00051059,-5188.3,0.089504
2074,4.046,4.9091,0,0.00050274,5023.9,0.00018105,0.047486,0.00013972,-310.53,-0.0005073,-5172,0.090374
2075,4.046,4.7273,0,0.00049906,4987.2,0.00018211,0.031056,0.00013445,-358.08,-0.00050419,-5156.5,0.091152
2076,4.046,4.5455,0,0.00049565,4953.1,0.0001831,0.018373,0.00012952,-402.55,-0.00050127,-5142.1,0.091841
2077,4.046,4.3636,0,0.00049255,4922.1,0.00018401,0.0079561,0.00012499,-443.46,-0.0004986,-5128.9,0.092445
2078,4.046,4.1818,0,0.00048979,4894.5,0.00018484,-0.00051746,0.00012091,-480.33,-0.00049619,-5117,0.092967
2079,4.046,4,0,0.00048738,4870.4,0.00018556,-0.0073943,0.00011732,-512.77,-0.00049407,-5106.5,0.093409
2080,4.046,3.8182,0,0.00048534,4850,0.00018618,-0.012871,0.00011426,-540.38,-0.00049227,-5097.6,0.093775
2081,4.046,3.6364,0,0.00048369,4833.6,0.00018668,-0.017097,0.00011177,-562.85,-0.0004908,-5090.4,0.094064
2082,4.046,3.4545,0,0.00048245,4821.1,0.00018707,-0.020176,0.00010988,-579.94,-0.00048969,-5084.9,0.09428
2083,4.046,3.2727,0,0.00048161,4812.8,0.00018732,-0.022187,0.00010861,-591.44,-0.00048894,-5081.2,0.094423
2084,4.046,3.0909,0,0.00048119,4808.6,0.00018745,-0.023181,0.00010797,-597.22,-0.00048856,-5079.3,0.094495
2085,4.046,2.9091,0,0.00048119,4808.6,0.00018745,-0.023181,0.00010797,-597.22,-0.00048856,-5079.3,0.094495
2086,4.046,2.7273,0,0.00048161,4812.8,0.00018732,-0.022187,0.00010861,-591.44,-0.00048894,-5081.2,0.094423
2087,4.046,2.5455,0,0.00048245,4821.1,0.00018707,-0.020175,0.00010988,-579.94,-0.00048969,-5084.9,0.09428
2088,4.046,2.3636,0,0.00048369,4833.6,0.00018668,-0.017096,0.00011177,-562.85,-0.0004908,-5090.4,0.094064
2089,4.046,2.1818,0,0.00048534,4850,0.00018618,-0.012871,0.00011426,-540.38,-0.00049227,-5097.6,0.093775
2090,4.046,2,0,0.00048738,4870.4,0.00018556,-0.0073939,0.00011732,-512.77,-0.00049407,-5106.5,0.093409
2091,4.046,1.8182,0,0.00048979,4894.5,0.00018484,-0.00051686,0.00012091,-480.33,-0.00049619,-5117,0.092967
2092,4.046,1.6364,0,0.00049255,4922.1,0.00018401,0.0079566,0.00012499,-443.46,-0.0004986,-5128.9,0.092445
2093,4.046,1.4545,0,0.00049565,4953.1,0.0001831,0.018374,0.00012952,-402.55,-0.00050127,-5142.1,0.091841
2094,4.046,1.2727,0,0.00049906,4987.2,0.00018211,0.031056,0.00013445,-358.08,-0.00050419,-5156.5,0.091152
2095,4.046,1.0909,0,0.00050274,5023.9,0.00018105,0.047487,0.00013972,-310.53,-0.0005073,-5172,0.090374
2096,4.046,0.90909,0,0.00050666,5063.1,0.00017994,0.066698,0.00014527,-260.41,-0.00051059,-5188.3,0.089504
2097,4.046,0.72727,0,0.00051079,5104.3,0.00017878,0.10271,0.00015105,-208.26,-0.00051401,-5205.2,0.088539
2098,4.046,0.54545,0,0.00051508,5147.2,0.00017759,0.12053,0.000157,-154.58,-0.00051753,-5222.7,0.087475
2099,4.046,0.36364,0,0.00051952,5191.6,0.00017639,0.37303,0.00016307,-99.709,-0.00052113,-5240.5,0.086308
2100,4.046,0.18182,0,0.00052416,5238,0.00017517,0.50309,0.0001693,-43.59,-0.00052488,-5259.4,0.085033
2101,3.8621,5.8182,0,0.00053073,5303.6,0.00017744,0.58544,0.0001713,-45.547,-0.00053148,-5326,0.0772
2102,3.8621,5.6364,0,0.00052569,5253.3,0.00017876,0.40992,0.00016454,-106.43,-0.00052741,-5305.5,0.078459
2103,3.8621,5.4545,0,0.00052091,5205.5,0.00018007,0.13352,0.00015796,-165.93,-0.00052354,-5286.5,0.07961
2104,3.8621,5.2727,0,0.00051629,5159.4,0.00018137,0.11304,0.00015152,-224.21,-0.00051974,-5267.8,0.080657
2105,3.8621,5.0909,0,0.00051186,5115.1,0.00018264,0.073433,0.00014525,-280.91,-0.00051606,-5249.7,0.081605
2106,3.8621,4.9091,0,0.00050765,5073,0.00018387,0.052247,0.00013922,-335.45,-0.00051252,-5232.3,0.082458
2107,3.8621,4.7273,0,0.0005037,5033.5,0.00018504,0.034219,0.00013349,-387.24,-0.00050917,-5216,0.083219
2108,3.8621,4.5455,0,0.00050006,4997.1,0.00018613,0.020355,0.00012814,-435.69,-0.00050604,-5200.7,0.083893
2109,3.8621,4.3636,0,0.00049674,4964,0.00018714,0.0090281,0.00012322,-480.28,-0.00050317,-5186.7,0.084483
2110,3.8621,4.1818,0,0.00049379,4934.5,0.00018805,-0.00012977,0.00011878,-520.47,-0.00050058,-5174.1,0.084992
2111,3.8621,4,0,0.00049123,4908.9,0.00018885,-0.0075124,0.00011488,-555.82,-0.00049831,-5163.1,0.085422
2112,3.8621,3.8182,0,0.00048906,4887.2,0.00018954,-0.013352,0.00011156,-585.9,-0.00049639,-5153.8,0.085777
2113,3.8621,3.6364,0,0.00048731,4869.8,0.0001901,-0.017828,0.00010886,-610.39,-0.00049482,-5146.2,0.086058
2114,3.8621,3.4545,0,0.000486,4856.6,0.00019052,-0.021072,0.00010681,-629,-0.00049363,-5140.5,0.086268
2115,3.8621,3.2727,0,0.00048511,4847.8,0.00019081,-0.023182,0.00010543,-641.52,-0.00049283,-5136.6,0.086407
2116,3.8621,3.0909,0,0.00048467,4843.4,0.00019095,-0.024221,0.00010474,-647.81,-0.00049243,-5134.7,0.086476
2117,3.8621,2.9091,0,0.00048467,4843.4,0.00019095,-0.024221,0.00010474,-647.81,-0.00049243,-5134.7,0.086476
2118,3.8621,2.7273,0,0.00048511,4847.8,0.00019081,-0.023181,0.00010543,-641.52,-0.00049283,-5136.6,0.086407
2119,3.8621,2.5455,0,0.000486,4856.6,0.00019052,-0.021072,0.00010681,-629,-0.00049363,-5140.5,0.086268
2120,3.8621,2.3636,0,0.00048731,4869.8,0.0001901,-0.017828,0.00010886,-610.39,-0.00049482,-5146.2,0.086058
2121,3.8621,2.1818,0,0.00048906,4887.2,0.00018954,-0.013352,0.00011156,-585.9,-0.00049639,-5153.8,0.085777
2122,3.8621,2,0,0.00049123,4908.9,0.00018885,-0.0075122,0.00011488,-555.82,-0.00049831,-5163.1,0.085422
2123,3.8621,1.8182,0,0.00049379,4934.5,0.00018805,-0.00012924,0.00011878,-520.47,-0.00050058,-5174.1,0.084992
2124,3.8621,1.6364,0,0.00049674,4964,0.00018714,0.0090285,0.00012322,-480.28,-0.00050317,-5186.7,0.084483
2125,3.8621,1.4545,0,0.00050006,4997.1,0.00018613,0.020355,0.00012814,-435.69,-0.00050604,-5200.7,0.083893
2126,3.8621,1.2727,0,0.0005037,5033.5,0.00018504,0.03422,0.00013349,-387.24,-0.00050917,-5216,0.083219
2127,3.8621,1.0909,0,0.00050765,5073,0.00018387,0.052248,0.00013922,-335.45,-0.00051252,-5232.3,0.082458
2128,3.8621,0.90909,0,0.00051186,5115.1,0.00018264,0.073434,0.00014525,-280.91,-0.00051606,-5249.7,0.081605
2129,3.8621,0.72727,0,0.00051629,5159.4,0.00018137,0.11304,0.00015152,-224.21,-0.00051974,-5267.8,0.080657
2130,3.8621,0.54545,0,0.00052091,5205.5,0.00018007,0.13352,0.00015796,-165.93,-0.00052354,-5286.5,0.07961
2131,3.8621,0.36364,0,0.00052569,5253.3,0.00017876,0.40993,0.00016454,-106.43,-0.00052741,-5305.5,0.078459
2132,3.8621,0.18182,0,0.00053073,5303.6,0.00017744,0.58544,0.0001713,-45.547,-0.00053148,-5326,0.0772
2133,3.6782,5.8182,0,0.00053735,5369.8,0.00017972,0.68593,0.00017334,-47.293,-0.00053813,-5393,0.069726
2134,3.6782,5.6364,0,0.0005319,5315.3,0.00018115,0.45089,0.000166,-113.37,-0.00053373,-5370.8,0.070966
2135,3.6782,5.4545,0,0.00052675,5263.9,0.00018258,0.14805,0.00015888,-177.9,-0.00052955,-5350.5,0.072098
2136,3.6782,5.2727,0,0.00052178,5214.2,0.00018401,0.12446,0.00015189,-241.2,-0.00052547,-5330.6,0.073126
2137,3.6782,5.0909,0,0.00051702,5166.6,0.00018541,0.080872,0.00014509,-302.86,-0.0005215,-5311.4,0.074055
2138,3.6782,4.9091,0,0.00051251,5121.5,0.00018676,0.057492,0.00013854,-362.23,-0.0005177,-5293,0.074888
2139,3.6782,4.7273,0,0.00050828,5079.3,0.00018805,0.037712,0.00013232,-418.64,-0.00051411,-5275.7,0.075631
2140,3.6782,4.5455,0,0.00050439,5040.4,0.00018926,0.022571,0.00012651,-471.43,-0.00051075,-5259.6,0.076287
2141,3.6782,4.3636,0,0.00050086,5005.2,0.00019037,0.010284,0.00012116,-520.01,-0.00050768,-5244.9,0.07686
2142,3.6782,4.1818,0,0.00049773,4973.9,0.00019139,0.00042563,0.00011635,-563.8,-0.00050492,-5231.7,0.077354
2143,3.6782,4,0,0.00049501,4946.7,0.00019228,-0.0074546,0.00011212,-602.29,-0.0005025,-5220.3,0.077772
2144,3.6782,3.8182,0,0.00049272,4923.8,0.00019304,-0.013634,0.00010852,-635.04,-0.00050044,-5210.6,0.078115
2145,3.6782,3.6364,0,0.00049088,4905.4,0.00019366,-0.018332,0.00010559,-661.68,-0.00049878,-5202.7,0.078387
2146,3.6782,3.4545,0,0.00048949,4891.6,0.00019413,-0.021711,0.00010337,-681.92,-0.00049752,-5196.8,0.07859
2147,3.6782,3.2727,0,0.00048857,4882.3,0.00019445,-0.023896,0.00010188,-695.53,-0.00049667,-5192.8,0.078724
2148,3.6782,3.0909,0,0.0004881,4877.7,0.00019461,-0.024969,0.00010113,-702.38,-0.00049624,-5190.8,0.078791
2149,3.6782,2.9091,0,0.0004881,4877.7,0.00019461,-0.024969,0.00010113,-702.38,-0.00049624,-5190.8,0.078791
2150,3.6782,2.7273,0,0.00048857,4882.3,0.00019445,-0.023896,0.00010188,-695.53,-0.00049667,-5192.8,0.078724
2151,3.6782,2.5455,0,0.00048949,4891.6,0.00019413,-0.021711,0.00010337,-681.92,-0.00049752,-5196.8,0.07859
2152,3.6782,2.3636,0,0.00049088,4905.4,0.00019366,-0.018331,0.00010559,-661.68,-0.00049878,-5202.7,0.078387
2153,3.6782,2.1818,0,0.00049272,4923.8,0.00019304,-0.013634,0.00010852,-635.04,-0.00050044,-5210.6,0.078115
2154,3.6782,2,0,0.00049501,4946.7,0.00019228,-0.0074543,0.00011212,-602.29,-0.0005025,-5220.3,0.077772
2155,3.6782,1.8182,0,0.00049773,4973.9,0.00019139,0.00042612,0.00011635,-563.8,-0.00050492,-5231.7,0.077354
2156,3.6782,1.6364,0,0.00050086,5005.2,0.00019037,0.010284,0.00012116,-520.01,-0.00050768,-5244.9,0.07686
2157,3.6782,1.4545,0,0.00050439,5040.4,0.00018926,0.022572,0.00012651,-471.43,-0.00051075,-5259.6,0.076287
2158,3.6782,1.2727,0,0.00050828,5079.3,0.00018805,0.037712,0.00013232,-418.64,-0.00051411,-5275.7,0.075631
2159,3.6782,1.0909,0,0.00051251,5121.5,0.00018676,0.057493,0.00013854,-362.23,-0.0005177,-5293,0.074888
2160,3.6782,0.90909,0,0.00051702,5166.6,0.00018541,0.080873,0.00014509,-302.86,-0.0005215,-5311.4,0.074055
2161,3.6782,0.72727,0,0.00052178,5214.2,0.00018401,0.12447,0.00015189,-241.2,-0.00052547,-5330.6,0.073126
2162,3.6782,0.54545,0,0.00052675,5263.9,0.00018258,0.14805,0.00015888,-177.9,-0.00052955,-5350.5,0.072098
2163,3.6782,0.36364,0,0.0005319,5315.3,0.00018115,0.4509,0.000166,-113.37,-0.00053373,-5370.8,0.070966
2164,3.6782,0.18182,0,0.00053735,5369.8,0.00017972,0.68593,0.00017334,-47.293,-0.00053813,-5393,0.069726
2165,3.4943,5.8182,0,0.00054403,5436.6,0.00018201,0.80968,0.00017541,-48.765,-0.00054483,-5460.4,0.062615
2166,3.4943,5.6364,0,0.00053811,5377.4,0.00018355,0.49652,0.00016745,-120.51,-0.00054005,-5436.4,0.063834
2167,3.4943,5.4545,0,0.00053258,5322.1,0.00018512,0.16434,0.00015974,-190.51,-0.00053556,-5414.7,0.064944
2168,3.4943,5.2727,0,0.00052724,5268.8,0.00018669,0.13712,0.00015216,-259.29,-0.00053117,-5393.6,0.065949
2169,3.4943,5.0909,0,0.00052213,5217.7,0.00018823,0.089088,0.00014477,-326.38,-0.00052692,-5373.2,0.066856
2170,3.4943,4.9091,0,0.0005173,5169.5,0.00018972,0.063264,0.00013767,-391.03,-0.00052284,-5353.8,0.067667
2171,3.4943,4.7273,0,0.0005128,5124.4,0.00019114,0.04156,0.00013092,-452.48,-0.00051899,-5335.6,0.068389
2172,3.4943,4.5455,0,0.00050866,5083.1,0.00019249,0.025046,0.00012461,-510,-0.00051541,-5318.8,0.069026
2173,3.4943,4.3636,0,0.00050492,5045.7,0.00019373,0.011755,0.00011881,-562.91,-0.00051213,-5303.5,0.069581
2174,3.4943,4.1818,0,0.00050161,5012.6,0.00019485,0.0011953,0.00011359,-610.57,-0.00050919,-5289.9,0.070058
2175,3.4943,4,0,0.00049874,4984,0.00019584,-0.0071565,0.00010901,-652.44,-0.00050663,-5278.1,0.07046
2176,3.4943,3.8182,0,0.00049634,4960,0.00019669,-0.013634,0.00010512,-688.05,-0.00050445,-5268.1,0.070792
2177,3.4943,3.6364,0,0.00049441,4940.7,0.00019738,-0.018505,0.00010195,-716.99,-0.00050269,-5260.1,0.071054
2178,3.4943,3.4545,0,0.00049296,4926.2,0.0001979,-0.021977,9.9555e-05,-738.96,-0.00050136,-5254,0.071248
2179,3.4943,3.2727,0,0.000492,4916.6,0.00019826,-0.024205,9.7943e-05,-753.73,-0.00050046,-5249.9,0.071377
2180,3.4943,3.0909,0,0.00049151,4911.7,0.00019843,-0.025294,9.7133e-05,-761.15,-0.00050002,-5247.9,0.071441
2181,3.4943,2.9091,0,0.00049151,4911.7,0.00019843,-0.025294,9.7133e-05,-761.15,-0.00050002,-5247.9,0.071441
2182,3.4943,2.7273,0,0.000492,4916.6,0.00019826,-0.024205,9.7943e-05,-753.73,-0.00050046,-5249.9,0.071377
2183,3.4943,2.5455,0,0.00049296,4926.2,0.0001979,-0.021977,9.9555e-05,-738.96,-0.00050136,-5254,0.071248
2184,3.4943,2.3636,0,0.00049441,4940.7,0.00019738,-0.018505,0.00010195,-716.99,-0.00050269,-5260.1,0.071054
2185,3.4943,2.1818,0,0.00049634,4960,0.00019669,-0.013633,0.00010512,-688.05,-0.00050445,-5268.1,0.070792
2186,3.4943,2,0,0.00049874,4984,0.00019584,-0.0071562,0.00010901,-652.44,-0.00050663,-5278.1,0.07046
2187,3.4943,1.8182,0,0.00050161,5012.6,0.00019485,0.0011956,0.00011359,-610.57,-0.00050919,-5289.9,0.070058
2188,3.4943,1.6364,0,0.00050492,5045.7,0.00019373,0.011756,0.00011881,-562.91,-0.00051213,-5303.5,0.069581
2189,3.4943,1.4545,0,0.00050866,5083.1,0.00019249,0.025047,0.00012461,-510,-0.00051541,-5318.8,0.069026
2190,3.4943,1.2727,0,0.0005128,5124.4,0.00019114,0.04156,0.00013092,-452.48,-0.00051899,-5335.6,0.068389
2191,3.4943,1.0909,0,0.0005173,5169.5,0.00018972,0.063265,0.00013767,-391.03,-0.00052284,-5353.8,0.067667
2192,3.4943,0.90909,0,0.00052213,5217.7,0.00018823,0.089089,0.00014477,-326.38,-0.00052692,-5373.2,0.066856
2193,3.4943,0.72727,0,0.00052724,5268.8,0.00018669,0.13712,0.00015216,-259.29,-0.00053117,-5393.6,0.065949
2194,3.4943,0.54545,0,0.00053258,5322.1,0.00018512,0.16434,0.00015974,-190.51,-0.00053556,-5414.7,0.064944
2195,3.4943,0.36364,0,0.00053811,5377.4,0.00018355,0.49652,0.00016745,-120.51,-0.00054005,-5436.4,0.063834
2196,3.4943,0.18182,0,0.00054403,5436.6,0.00018201,0.80968,0.00017541,-48.765,-0.00054483,-5460.4,0.062615
2197,3.3103,5.8182,0,0.00055075,5503.7,0.00018429,0.96374,0.00017753,-49.895,-0.00055157,-5528,0.055871
2198,3.3103,5.6364,0,0.00054433,5439.6,0.00018597,0.54749,0.00016888,-127.83,-0.00054638,-5502.1,0.057066
2199,3.3103,5.4545,0,0.00053837,5380,0.00018768,0.18263,0.00016053,-203.82,-0.00054155,-5478.9,0.05815
2200,3.3103,5.2727,0,0.00053265,5322.8,0.00018941,0.15115,0.00015231,-278.6,-0.00053684,-5456.5,0.059131
2201,3.3103,5.0909,0,0.00052718,5268.1,0.0001911,0.098158,0.00014429,-351.63,-0.00053228,-5435.1,0.060012
2202,3.3103,4.9091,0,0.00052202,5216.6,0.00019276,0.069601,0.00013657,-422.05,-0.00052792,-5414.8,0.060799
2203,3.3103,4.7273,0,0.00051723,5168.7,0.00019434,0.045786,0.00012925,-489,-0.00052381,-5395.8,0.061497
2204,3.3103,4.5455,0,0.00051284,5124.9,0.00019583,0.027803,0.00012241,-551.66,-0.00051999,-5378.4,0.062112
2205,3.3103,4.3636,0,0.0005089,5085.5,0.00019721,0.013479,0.00011612,-609.24,-0.00051652,-5362.7,0.062646
2206,3.3103,4.1818,0,0.00050542,5050.7,0.00019846,0.0022361,0.00011048,-661.08,-0.00051341,-5348.7,0.063105
2207,3.3103,4,0,0.00050243,5020.8,0.00019956,-0.0065356,0.00010553,-706.57,-0.0005107,-5336.7,0.063492
2208,3.3103,3.8182,0,0.00049993,4995.9,0.00020051,-0.013243,0.00010133,-745.2,-0.00050842,-5326.6,0.063809
2209,3.3103,3.6364,0,0.00049793,4975.9,0.00020127,-0.01822,9.7923e-05,-776.57,-0.00050657,-5318.5,0.064059
2210,3.3103,3.4545,0,0.00049643,4960.9,0.00020186,-0.021723,9.5342e-05,-800.36,-0.00050518,-5312.4,0.064246
2211,3.3103,3.2727,0,0.00049544,4951,0.00020225,-0.02395,9.3608e-05,-816.34,-0.00050425,-5308.4,0.064369
2212,3.3103,3.0909,0,0.00049494,4946,0.00020245,-0.025032,9.2738e-05,-824.37,-0.00050378,-5306.4,0.06443
2213,3.3103,2.9091,0,0.00049494,4946,0.00020245,-0.025032,9.2738e-05,-824.37,-0.00050378,-5306.4,0.06443
2214,3.3103,2.7273,0,0.00049544,4951,0.00020225,-0.02395,9.3608e-05,-816.34,-0.00050425,-5308.4,0.064369
2215,3.3103,2.5455,0,0.00049643,4960.9,0.00020186,-0.021723,9.5342e-05,-800.36,-0.00050518,-5312.4,0.064246
2216,3.3103,2.3636,0,0.00049793,4975.9,0.00020127,-0.018219,9.7923e-05,-776.57,-0.00050657,-5318.5,0.064059
2217,3.3103,2.1818,0,0.00049993,4995.9,0.00020051,-0.013243,0.00010133,-745.2,-0.00050842,-5326.6,0.063809
2218,3.3103,2,0,0.00050243,5020.8,0.00019956,-0.0065352,0.00010553,-706.57,-0.0005107,-5336.7,0.063492
2219,3.3103,1.8182,0,0.00050542,5050.7,0.00019846,0.0022366,0.00011048,-661.08,-0.00051341,-5348.7,0.063105
2220,3.3103,1.6364,0,0.0005089,5085.5,0.00019721,0.013479,0.00011612,-609.24,-0.00051652,-5362.7,0.062646
2221,3.3103,1.4545,0,0.00051284,5124.9,0.00019583,0.027804,0.00012241,-551.66,-0.00051999,-5378.4,0.062112
2222,3.3103,1.2727,0,0.00051723,5168.7,0.00019434,0.045787,0.00012925,-489,-0.00052381,-5395.8,0.061497
2223,3.3103,1.0909,0,0.00052202,5216.6,0.00019276,0.069602,0.00013657,-422.05,-0.00052792,-5414.8,0.060799
2224,3.3103,0.90909,0,0.00052718,5268.1,0.0001911,0.098159,0.00014429,-351.63,-0.00053228,-5435.1,0.060012
2225,3.3103,0.72727,0,0.00053265,5322.8,0.00018941,0.15116,0.00015231,-278.6,-0.00053684,-5456.5,0.059131
2226,3.3103,0.54545,0,0.00053837,5380,0.00018768,0.18263,0.00016053,-203.82,-0.00054155,-5478.9,0.05815
2227,3.3103,0.36364,0,0.00054433,5439.6,0.00018597,0.54749,0.00016888,-127.83,-0.00054638,-5502.1,0.057066
2228,3.3103,0.18182,0,0.00055075,5503.7,0.00018429,0.96374,0.00017753,-49.895,-0.00055157,-5528,0.055871
2229,3.1264,5.8182,0,0.00055749,5571,0.00018657,1.158,0.00017968,-50.603,-0.00055831,-5595.6,0.049498
2230,3.1264,5.6364,0,0.00055052,5501.4,0.00018838,0.60465,0.00017029,-135.31,-0.00055268,-5567.5,0.050665
2231,3.1264,5.4545,0,0.00054412,5437.4,0.00019026,0.20323,0.00016124,-217.87,-0.00054749,-5542.9,0.051722
2232,3.1264,5.2727,0,0.00053798,5376,0.00019216,0.16672,0.00015231,-299.23,-0.00054244,-5519.3,0.052673
2233,3.1264,5.0909,0,0.00053213,5317.6,0.00019404,0.10815,0.00014361,-378.79,-0.00053756,-5496.8,0.053526
2234,3.1264,4.9091,0,0.00052664,5262.8,0.00019587,0.076533,0.00013524,-455.54,-0.00053291,-5475.7,0.054286
2235,3.1264,4.7273,0,0.00052157,5212.1,0.00019763,0.050403,0.00012729,-528.5,-0.00052854,-5456.1,0.054959
2236,3.1264,4.5455,0,0.00051694,5165.9,0.0001993,0.030859,0.00011987,-596.72,-0.0005245,-5438.3,0.055549
2237,3.1264,4.3636,0,0.00051281,5124.6,0.00020084,0.015492,0.00011308,-659.35,-0.00052083,-5422.3,0.056061
2238,3.1264,4.1818,0,0.00050919,5088.4,0.00020223,0.0036166,0.00010698,-715.64,-0.00051757,-5408.3,0.056499
2239,3.1264,4,0,0.00050609,5057.4,0.00020346,-0.0054921,0.00010165,-764.96,-0.00051474,-5396.3,0.056867
2240,3.1264,3.8182,0,0.00050352,5031.7,0.00020451,-0.012333,9.714e-05,-806.77,-0.00051237,-5386.4,0.057169
2241,3.1264,3.6364,0,0.00050147,5011.2,0.00020537,-0.017319,9.3485e-05,-840.68,-0.00051045,-5378.4,0.057408
2242,3.1264,3.4545,0,0.00049994,4996,0.00020602,-0.020773,9.072e-05,-866.36,-0.00050901,-5372.5,0.057585
2243,3.1264,3.2727,0,0.00049893,4985.8,0.00020646,-0.022941,8.8866e-05,-883.59,-0.00050805,-5368.6,0.057701
2244,3.1264,3.0909,0,0.00049842,4980.8,0.00020668,-0.023984,8.7936e-05,-892.24,-0.00050757,-5366.6,0.05776
2245,3.1264,2.9091,0,0.00049842,4980.8,0.00020668,-0.023984,8.7936e-05,-892.24,-0.00050757,-5366.6,0.05776
2246,3.1264,2.7273,0,0.00049893,4985.8,0.00020646,-0.02294,8.8866e-05,-883.59,-0.00050805,-5368.6,0.057701
2247,3.1264,2.5455,0,0.00049994,4996,0.00020602,-0.020773,9.072e-05,-866.36,-0.00050901,-5372.5,0.057585
2248,3.1264,2.3636,0,0.00050147,5011.2,0.00020537,-0.017318,9.3485e-05,-840.68,-0.00051045,-5378.4,0.057408
2249,3.1264,2.1818,0,0.00050352,5031.7,0.00020451,-0.012333,9.714e-05,-806.77,-0.00051237,-5386.4,0.057169
2250,3.1264,2,0,0.00050609,5057.4,0.00020346,-0.0054918,0.00010165,-764.96,-0.00051474,-5396.3,0.056867
2251,3.1264,1.8182,0,0.00050919,5088.4,0.00020223,0.003617,0.00010698,-715.64,-0.00051757,-5408.3,0.056499
2252,3.1264,1.6364,0,0.00051281,5124.6,0.00020084,0.015493,0.00011308,-659.35,-0.00052083,-5422.3,0.056061
2253,3.1264,1.4545,0,0.00051694,5165.9,0.0001993,0.03086,0.00011987,-596.72,-0.0005245,-5438.3,0.055549
2254,3.1264,1.2727,0,0.00052157,5212.1,0.00019763,0.050403,0.00012729,-528.5,-0.00052854,-5456.1,0.054959
2255,3.1264,1.0909,0,0.00052664,5262.8,0.00019587,0.076534,0.00013524,-455.54,-0.00053291,-5475.7,0.054286
2256,3.1264,0.90909,0,0.00053213,5317.6,0.00019404,0.10815,0.00014361,-378.79,-0.00053756,-5496.8,0.053526
2257,3.1264,0.72727,0,0.00053798,5376,0.00019216,0.16672,0.00015231,-299.23,-0.00054244,-5519.3,0.052673
2258,3.1264,0.54545,0,0.00054412,5437.4,0.00019026,0.20323,0.00016124,-217.87,-0.00054749,-5542.9,0.051722
2259,3.1264,0.36364,0,0.00055052,5501.4,0.00018838,0.60465,0.00017029,-135.31,-0.00055268,-5567.5,0.050665
2260,3.1264,0.18182,0,0.00055749,5571,0.00018657,1.158,0.00017968,-50.603,-0.00055831,-5595.6,0.049498
2261,2.9425,5.8182,0,0.00056422,5638.3,0.00018882,1.4067,0.00018187,-50.803,-0.00056504,-5662.8,0.043502
2262,2.9425,5.6364,0,0.00055664,5562.6,0.00019078,0.66901,0.00017167,-142.96,-0.00055893,-5632.4,0.044637
2263,2.9425,5.4545,0,0.00054976,5493.8,0.00019285,0.22647,0.00016184,-232.73,-0.00055335,-5606.4,0.045661
2264,2.9425,5.2727,0,0.00054319,5428.1,0.00019495,0.18401,0.00015216,-321.36,-0.00054794,-5581.6,0.046581
2265,2.9425,5.0909,0,0.00053696,5365.9,0.00019704,0.11915,0.0001427,-408.11,-0.00054273,-5558.2,0.047403
2266,2.9425,4.9091,0,0.00053114,5307.7,0.00019908,0.084083,0.00013361,-491.8,-0.00053779,-5536.4,0.048132
2267,2.9425,4.7273,0,0.00052578,5254.2,0.00020104,0.055419,0.000125,-571.31,-0.00053317,-5516.5,0.048776
2268,2.9425,4.5455,0,0.00052095,5205.9,0.0002029,0.034238,0.00011698,-645.55,-0.00052891,-5498.5,0.049339
2269,2.9425,4.3636,0,0.00051665,5163,0.00020462,0.017851,0.00010964,-713.59,-0.00052508,-5482.6,0.049826
2270,2.9425,4.1818,0,0.00051292,5125.7,0.00020618,0.0054299,0.00010308,-774.61,-0.00052168,-5468.9,0.050242
2271,2.9425,4,0,0.00050975,5094,0.00020755,-0.0038914,9.7362e-05,-827.94,-0.00051876,-5457.2,0.050591
2272,2.9425,3.8182,0,0.00050714,5067.9,0.00020873,-0.010731,9.2532e-05,-873.06,-0.00051631,-5447.7,0.050876
2273,2.9425,3.6364,0,0.00050507,5047.2,0.00020968,-0.015602,8.8631e-05,-909.57,-0.00051436,-5440.2,0.051101
2274,2.9425,3.4545,0,0.00050354,5031.9,0.00021041,-0.018904,8.5686e-05,-937.17,-0.00051289,-5434.6,0.051268
2275,2.9425,3.2727,0,0.00050253,5021.8,0.0002109,-0.02094,8.3714e-05,-955.67,-0.00051191,-5431,0.051378
2276,2.9425,3.0909,0,0.00050202,5016.8,0.00021115,-0.021909,8.2725e-05,-964.95,-0.00051143,-5429.2,0.051432
2277,2.9425,2.9091,0,0.00050202,5016.8,0.00021115,-0.021909,8.2725e-05,-964.95,-0.00051143,-5429.2,0.051432
2278,2.9425,2.7273,0,0.00050253,5021.8,0.0002109,-0.02094,8.3714e-05,-955.67,-0.00051191,-5431,0.051378
2279,2.9425,2.5455,0,0.00050354,5031.9,0.00021041,-0.018904,8.5686e-05,-937.17,-0.00051289,-5434.6,0.051268
2280,2.9425,2.3636,0,0.00050507,5047.2,0.00020968,-0.015602,8.8631e-05,-909.57,-0.00051436,-5440.2,0.051101
2281,2.9425,2.1818,0,0.00050714,5067.9,0.00020873,-0.010731,9.2532e-05,-873.06,-0.00051631,-5447.7,0.050876
2282,2.9425,2,0,0.00050975,5094,0.00020755,-0.0038912,9.7362e-05,-827.94,-0.00051876,-5457.2,0.050591
2283,2.9425,1.8182,0,0.00051292,5125.7,0.00020618,0.0054303,0.00010308,-774.61,-0.00052168,-5468.9,0.050242
2284,2.9425,1.6364,0,0.00051665,5163,0.00020462,0.017851,0.00010964,-713.59,-0.00052508,-5482.6,0.049826
2285,2.9425,1.4545,0,0.00052095,5205.9,0.0002029,0.034239,0.00011698,-645.55,-0.00052891,-5498.5,0.049339
2286,2.9425,1.2727,0,0.00052578,5254.2,0.00020104,0.05542,0.000125,-571.31,-0.00053317,-5516.5,0.048776
2287,2.9425,1.0909,0,0.00053114,5307.7,0.00019908,0.084084,0.00013361,-491.8,-0.00053779,-5536.4,0.048132
2288,2.9425,0.90909,0,0.00053696,5365.9,0.00019704,0.11915,0.0001427,-408.11,-0.00054273,-5558.2,0.047403
2289,2.9425,0.72727,0,0.00054319,5428.1,0.00019495,0.18401,0.00015216,-321.36,-0.00054794,-5581.6,0.046581
2290,2.9425,0.54545,0,0.00054976,5493.8,0.00019285,0.22647,0.00016184,-232.73,-0.00055335,-5606.4,0.045661
2291,2.9425,0.36364,0,0.00055664,5562.6,0.00019078,0.66901,0.00017167,-142.96,-0.00055893,-5632.4,0.044637
2292,2.9425,0.18182,0,0.00056422,5638.3,0.00018882,1.4067,0.00018187,-50.803,-0.00056504,-5662.8,0.043502
2293,2.7586,5.8182,0,0.00057089,5705,0.00019103,1.7311,0.00018409,-50.401,-0.0005717,-5729.1,0.037884
2294,2.7586,5.6364,0,0.00056266,5622.7,0.00019316,0.74183,0.00017299,-150.77,-0.00056506,-5696.2,0.038984
2295,2.7586,5.4545,0,0.00055527,5548.9,0.00019543,0.25278,0.00016232,-248.52,-0.00055907,-5668.8,0.039973
2296,2.7586,5.2727,0,0.00054824,5478.6,0.00019777,0.20322,0.0001518,-345.19,-0.00055329,-5642.9,0.040857
2297,2.7586,5.0909,0,0.00054161,5412.4,0.00020009,0.13122,0.00014153,-439.89,-0.00054775,-5618.8,0.041644
2298,2.7586,4.9091,0,0.00053547,5351,0.00020237,0.092276,0.00013166,-531.23,-0.00054252,-5596.7,0.04234
2299,2.7586,4.7273,0,0.00052986,5294.9,0.00020457,0.060852,0.00012233,-617.87,-0.00053766,-5576.7,0.042952
2300,2.7586,4.5455,0,0.00052484,5244.7,0.00020665,0.037983,0.00011366,-698.61,-0.00053322,-5559,0.043485
2301,2.7586,4.3636,0,0.00052042,5200.7,0.00020858,0.020643,0.00010577,-772.41,-0.00052924,-5543.6,0.043945
2302,2.7586,4.1818,0,0.00051663,5162.7,0.00021032,0.0078181,9.8739e-05,-838.39,-0.00052575,-5530.6,0.044336
2303,2.7586,4,0,0.00051344,5130.8,0.00021186,-0.0015433,9.2629e-05,-895.87,-0.00052277,-5519.8,0.044664
2304,2.7586,3.8182,0,0.00051083,5104.8,0.00021317,-0.0082075,8.749e-05,-944.36,-0.0005203,-5511.1,0.044932
2305,2.7586,3.6364,0,0.00050879,5084.4,0.00021424,-0.012808,8.3353e-05,-983.48,-0.00051833,-5504.3,0.045142
2306,2.7586,3.4545,0,0.00050729,5069.4,0.00021506,-0.015837,8.0238e-05,-1013,-0.00051687,-5499.4,0.045297
2307,2.7586,3.2727,0,0.0005063,5059.5,0.0002156,-0.017658,7.8157e-05,-1032.7,-0.0005159,-5496.2,0.0454
2308,2.7586,3.0909,0,0.00050581,5054.6,0.00021588,-0.018509,7.7115e-05,-1042.6,-0.00051541,-5494.7,0.045451
2309,2.7586,2.9091,0,0.00050581,5054.6,0.00021588,-0.018509,7.7115e-05,-1042.6,-0.00051541,-5494.7,0.045451
2310,2.7586,2.7273,0,0.0005063,5059.5,0.0002156,-0.017658,7.8157e-05,-1032.7,-0.0005159,-5496.2,0.0454
2311,2.7586,2.5455,0,0.00050729,5069.4,0.00021506,-0.015837,8.0238e-05,-1013,-0.00051687,-5499.4,0.045297
2312,2.7586,2.3636,0,0.00050879,5084.4,0.00021424,-0.012808,8.3353e-05,-983.48,-0.00051833,-5504.3,0.045142
2313,2.7586,2.1818,0,0.00051083,5104.8,0.00021317,-0.0082074,8.749e-05,-944.36,-0.0005203,-5511.1,0.044932
2314,2.7586,2,0,0.00051344,5130.8,0.00021186,-0.0015429,9.2629e-05,-895.87,-0.00052277,-5519.8,0.044664
2315,2.7586,1.8182,0,0.00051663,5162.7,0.00021032,0.0078184,9.8739e-05,-838.39,-0.00052575,-5530.6,0.044336
2316,2.7586,1.6364,0,0.00052042,5200.7,0.00020858,0.020643,0.00010577,-772.41,-0.00052924,-5543.6,0.043945
2317,2.7586,1.4545,0,0.00052484,5244.7,0.00020665,0.037983,0.00011366,-698.61,-0.00053322,-5559,0.043485
2318,2.7586,1.2727,0,0.00052986,5294.9,0.00020457,0.060852,0.00012233,-617.87,-0.00053766,-5576.7,0.042952
2319,2.7586,1.0909,0,0.00053547,5351,0.00020237,0.092277,0.00013166,-531.23,-0.00054252,-5596.7,0.04234
2320,2.7586,0.90909,0,0.00054161,5412.4,0.00020009,0.13122,0.00014153,-439.89,-0.00054775,-5618.8,0.041644
2321,2.7586,0.72727,0,0.00054824,5478.6,0.00019777,0.20322,0.0001518,-345.19,-0.00055329,-5642.9,0.040857
2322,2.7586,0.54545,0,0.00055527,5548.9,0.00019543,0.25278,0.00016232,-248.52,-0.00055907,-5668.8,0.039973
2323,2.7586,0.36364,0,0.00056266,5622.7,0.00019316,0.74183,0.00017299,-150.77,-0.00056506,-5696.2,0.038984
2324,2.7586,0.18182,0,0.00057089,5705,0.00019103,1.7311,0.00018409,-50.401,-0.0005717,-5729.1,0.037884
2325,2.5747,5.8182,0,0.00057746,5770.6,0.00019318,2.1634,0.00018633,-49.298,-0.00057824,-5794,0.032651
2326,2.5747,5.6364,0,0.0005685,5681.1,0.00019548,0.82465,0.00017424,-158.75,-0.00057102,-5758.4,0.033711
2327,2.5747,5.4545,0,0.00056056,5601.8,0.000198,0.28262,0.00016264,-265.39,-0.0005646,-5729.6,0.034659
2328,2.5747,5.2727,0,0.00055306,5526.8,0.0002006,0.22456,0.00015119,-371.03,-0.00055843,-5702.9,0.035504
2329,2.5747,5.0909,0,0.00054604,5456.6,0.0002032,0.14441,0.00014002,-474.56,-0.00055256,-5678.3,0.036253
2330,2.5747,4.9091,0,0.00053958,5392.1,0.00020576,0.10109,0.00012931,-574.31,-0.00054705,-5656.2,0.036912
2331,2.5747,4.7273,0,0.00053375,5333.9,0.00020823,0.066684,0.00011922,-668.73,-0.00054197,-5636.7,0.037489
2332,2.5747,4.5455,0,0.0005286,5282.3,0.00021056,0.042121,0.00010988,-756.44,-0.00053739,-5619.8,0.037989
2333,2.5747,4.3636,0,0.00052413,5237.7,0.00021273,0.023961,0.00010142,-836.3,-0.00053332,-5605.5,0.03842
2334,2.5747,4.1818,0,0.00052034,5199.8,0.00021469,0.010938,9.3917e-05,-907.41,-0.0005298,-5593.7,0.038785
2335,2.5747,4,0,0.00051719,5168.4,0.00021641,0.0017639,8.7432e-05,-969.11,-0.00052681,-5584.3,0.03909
2336,2.5747,3.8182,0,0.00051466,5143.1,0.00021788,-0.0045117,8.2003e-05,-1020.9,-0.00052437,-5577,0.039338
2337,2.5747,3.6364,0,0.0005127,5123.5,0.00021907,-0.0086632,7.7652e-05,-1062.6,-0.00052244,-5571.5,0.039533
2338,2.5747,3.4545,0,0.00051127,5109.2,0.00021998,-0.011281,7.4388e-05,-1093.9,-0.00052102,-5567.6,0.039677
2339,2.5747,3.2727,0,0.00051034,5099.9,0.00022059,-0.012797,7.2212e-05,-1114.9,-0.00052008,-5565.1,0.039772
2340,2.5747,3.0909,0,0.00050988,5095.3,0.0002209,-0.013487,7.1125e-05,-1125.3,-0.00051961,-5563.9,0.039819
2341,2.5747,2.9091,0,0.00050988,5095.3,0.0002209,-0.013487,7.1125e-05,-1125.3,-0.00051961,-5563.9,0.039819
2342,2.5747,2.7273,0,0.00051034,5099.9,0.00022059,-0.012797,7.2212e-05,-1114.9,-0.00052008,-5565.1,0.039772
2343,2.5747,2.5455,0,0.00051127,5109.2,0.00021998,-0.011281,7.4388e-05,-1093.9,-0.00052102,-5567.6,0.039677
2344,2.5747,2.3636,0,0.0005127,5123.5,0.00021907,-0.008663,7.7652e-05,-1062.6,-0.00052244,-5571.5,0.039533
2345,2.5747,2.1818,0,0.00051466,5143.1,0.00021788,-0.0045114,8.2003e-05,-1020.9,-0.00052437,-5577,0.039338
2346,2.5747,2,0,0.00051719,5168.4,0.00021641,0.0017641,8.7432e-05,-969.11,-0.00052681,-5584.3,0.03909
2347,2.5747,1.8182,0,0.00052034,5199.8,0.00021469,0.010938,9.3917e-05,-907.41,-0.0005298,-5593.7,0.038785
2348,2.5747,1.6364,0,0.00052413,5237.7,0.00021273,0.023961,0.00010142,-836.3,-0.00053332,-5605.5,0.03842
2349,2.5747,1.4545,0,0.0005286,5282.3,0.00021056,0.042121,0.00010988,-756.44,-0.00053739,-5619.8,0.037989
2350,2.5747,1.2727,0,0.00053375,5333.9,0.00020823,0.066685,0.00011922,-668.73,-0.00054197,-5636.7,0.037489
2351,2.5747,1.0909,0,0.00053958,5392.1,0.00020576,0.10109,0.00012931,-574.31,-0.00054705,-5656.2,0.036912
2352,2.5747,0.90909,0,0.00054604,5456.6,0.0002032,0.14441,0.00014002,-474.56,-0.00055256,-5678.3,0.036253
2353,2.5747,0.72727,0,0.00055306,5526.8,0.0002006,0.22456,0.00015119,-371.03,-0.00055843,-5702.9,0.035504
2354,2.5747,0.54545,0,0.00056056,5601.8,0.000198,0.28262,0.00016264,-265.39,-0.0005646,-5729.6,0.034659
2355,2.5747,0.36364,0,0.0005685,5681.1,0.00019548,0.82465,0.00017424,-158.75,-0.00057102,-5758.4,0.033711
2356,2.5747,0.18182,0,0.00057746,5770.6,0.00019318,2.1634,0.00018633,-49.298,-0.00057824,-5794,0.032651
2357,2.3908,5.8182,0,0.00058384,5834.4,0.00019524,2.7554,0.00018857,-47.394,-0.00058458,-5856.5,0.027804
2358,2.3908,5.6364,0,0.00057408,5736.8,0.00019773,0.91948,0.00017539,-166.94,-0.00057672,-5818,0.02882
2359,2.3908,5.4545,0,0.00056556,5651.7,0.00020053,0.31669,0.00016275,-283.56,-0.00056984,-5788,0.029724
2360,2.3908,5.2727,0,0.00055757,5571.8,0.00020344,0.2484,0.00015027,-399.28,-0.00056328,-5760.6,0.030525
2361,2.3908,5.0909,0,0.00055015,5497.8,0.00020637,0.15892,0.00013811,-512.66,-0.00055708,-5736,0.031232
2362,2.3908,4.9091,0,0.00054342,5430.4,0.00020925,0.11068,0.00012649,-621.7,-0.00055132,-5714.5,0.031851
2363,2.3908,4.7273,0,0.00053743,5370.6,0.00021203,0.073086,0.00011559,-724.57,-0.00054607,-5696,0.032389
2364,2.3908,4.5455,0,0.00053222,5318.5,0.00021467,0.046899,0.00010556,-819.71,-0.0005414,-5680.7,0.032855
2365,2.3908,4.3636,0,0.00052778,5274.1,0.0002171,0.02814,9.6533e-05,-905.88,-0.00053731,-5668.4,0.033254
2366,2.3908,4.1818,0,0.00052408,5237.2,0.0002193,0.015202,8.8579e-05,-982.19,-0.00053383,-5658.7,0.033591
2367,2.3908,4,0,0.00052107,5207.1,0.00022124,0.0064988,8.175e-05,-1048,-0.00053092,-5651.4,0.033871
2368,2.3908,3.8182,0,0.0005187,5183.4,0.00022288,0.00085735,7.6068e-05,-1103.1,-0.00052858,-5646.1,0.034099
2369,2.3908,3.6364,0,0.00051689,5165.3,0.00022421,-0.002653,7.1539e-05,-1147.1,-0.00052675,-5642.5,0.034277
2370,2.3908,3.4545,0,0.00051559,5152.3,0.00022522,-0.0047245,6.8157e-05,-1180.1,-0.00052542,-5640,0.034408
2371,2.3908,3.2727,0,0.00051475,5144,0.0002259,-0.0058489,6.591e-05,-1202.1,-0.00052455,-5638.6,0.034495
2372,2.3908,3.0909,0,0.00051434,5139.9,0.00022624,-0.0063362,6.4789e-05,-1213.1,-0.00052412,-5637.9,0.034538
2373,2.3908,2.9091,0,0.00051434,5139.9,0.00022624,-0.0063361,6.4789e-05,-1213.1,-0.00052412,-5637.9,0.034538
2374,2.3908,2.7273,0,0.00051475,5144,0.0002259,-0.0058489,6.591e-05,-1202.1,-0.00052455,-5638.6,0.034495
2375,2.3908,2.5455,0,0.00051559,5152.3,0.00022522,-0.0047244,6.8157e-05,-1180.1,-0.00052542,-5640,0.034408
2376,2.3908,2.3636,0,0.00051689,5165.3,0.00022421,-0.0026528,7.1539e-05,-1147.1,-0.00052675,-5642.5,0.034277
2377,2.3908,2.1818,0,0.0005187,5183.4,0.00022288,0.00085757,7.6068e-05,-1103.1,-0.00052858,-5646.1,0.034099
2378,2.3908,2,0,0.00052107,5207.1,0.00022124,0.0064992,8.175e-05,-1048,-0.00053092,-5651.4,0.033871
2379,2.3908,1.8182,0,0.00052408,5237.2,0.0002193,0.015203,8.8579e-05,-982.19,-0.00053383,-5658.7,0.033591
2380,2.3908,1.6364,0,0.00052778,5274.1,0.0002171,0.02814,9.6533e-05,-905.88,-0.00053731,-5668.4,0.033254
2381,2.3908,1.4545,0,0.00053222,5318.5,0.00021467,0.0469,0.00010556,-819.71,-0.0005414,-5680.7,0.032855
2382,2.3908,1.2727,0,0.00053743,5370.6,0.00021203,0.073086,0.00011559,-724.57,-0.00054607,-5696,0.032389
2383,2.3908,1.0909,0,0.00054342,5430.4,0.00020925,0.11068,0.00012649,-621.7,-0.00055132,-5714.5,0.031851
2384,2.3908,0.90909,0,0.00055015,5497.8,0.00020637,0.15892,0.00013811,-512.66,-0.00055708,-5736,0.031232
2385,2.3908,0.72727,0,0.00055757,5571.8,0.00020344,0.2484,0.00015027,-399.28,-0.00056328,-5760.6,0.030525
2386,2.3908,0.54545,0,0.00056556,5651.7,0.00020053,0.31669,0.00016275,-283.56,-0.00056984,-5788,0.029724
2387,2.3908,0.36364,0,0.00057408,5736.8,0.00019773,0.91948,0.00017539,-166.94,-0.00057672,-5818,0.02882
2388,2.3908,0.18182,0,0.00058384,5834.4,0.00019524,2.7554,0.00018857,-47.394,-0.00058458,-5856.5,0.027804
2389,2.2069,5.8182,0,0.00058993,5895.2,0.00019718,3.5928,0.00019077,-44.605,-0.00059061,-5915.6,0.023348
2390,2.2069,5.6364,0,0.00057927,5788.7,0.00019987,1.0285,0.00017638,-175.43,-0.00058203,-5873.9,0.024315
2391,2.2069,5.4545,0,0.00057013,5697.4,0.000203,0.35535,0.00016257,-303.38,-0.00057468,-5842.8,0.02517
2392,2.2069,5.2727,0,0.00056164,5612.5,0.00020628,0.27463,0.00014895,-430.5,-0.00056771,-5815.2,0.025923
2393,2.2069,5.0909,0,0.00055386,5534.8,0.00020959,0.17437,0.0001357,-554.95,-0.0005612,-5791.2,0.026583
2394,2.2069,4.9091,0,0.0005469,5465.2,0.00021285,0.12058,0.0001231,-674.27,-0.00055524,-5771,0.027158
2395,2.2069,4.7273,0,0.00054083,5404.6,0.00021601,0.07966,0.00011135,-786.28,-0.0005499,-5754.6,0.027656
2396,2.2069,4.5455,0,0.00053567,5353,0.00021898,0.052021,0.00010063,-889.23,-0.00054522,-5741.9,0.028084
2397,2.2069,4.3636,0,0.00053138,5310.1,0.00022173,0.032984,9.105e-05,-981.84,-0.00054122,-5732.5,0.028449
2398,2.2069,4.1818,0,0.0005279,5275.3,0.0002242,0.020488,8.2687e-05,-1063.3,-0.00053788,-5726,0.028756
2399,2.2069,4,0,0.00052515,5247.9,0.00022637,0.012571,7.5568e-05,-1133,-0.00053516,-5721.8,0.02901
2400,2.2069,3.8182,0,0.00052303,5226.7,0.0002282,0.0078109,6.9691e-05,-1191,-0.00053301,-5719.4,0.029216
2401,2.2069,3.6364,0,0.00052146,5211,0.00022969,0.0051147,6.5039e-05,-1237.1,-0.00053137,-5718.3,0.029377
2402,2.2069,3.4545,0,0.00052036,5200,0.00023081,0.0036995,6.1583e-05,-1271.5,-0.00053019,-5717.9,0.029495
2403,2.2069,3.2727,0,0.00051966,5193.1,0.00023156,0.0030281,5.9297e-05,-1294.3,-0.00052943,-5717.8,0.029573
2404,2.2069,3.0909,0,0.00051933,5189.7,0.00023194,0.0027708,5.816e-05,-1305.7,-0.00052906,-5717.8,0.029611
2405,2.2069,2.9091,0,0.00051933,5189.7,0.00023194,0.0027707,5.816e-05,-1305.7,-0.00052906,-5717.8,0.029611
2406,2.2069,2.7273,0,0.00051966,5193.1,0.00023156,0.0030281,5.9297e-05,-1294.3,-0.00052943,-5717.8,0.029573
2407,2.2069,2.5455,0,0.00052036,5200,0.00023081,0.0036996,6.1583e-05,-1271.5,-0.00053019,-5717.9,0.029495
2408,2.2069,2.3636,0,0.00052146,5211,0.00022969,0.0051148,6.5039e-05,-1237.1,-0.00053137,-5718.3,0.029377
2409,2.2069,2.1818,0,0.00052303,5226.7,0.0002282,0.0078112,6.9691e-05,-1191,-0.00053301,-5719.4,0.029216
2410,2.2069,2,0,0.00052515,5247.9,0.00022637,0.012572,7.5568e-05,-1133,-0.00053516,-5721.8,0.02901
2411,2.2069,1.8182,0,0.0005279,5275.3,0.0002242,0.020488,8.2687e-05,-1063.3,-0.00053788,-5726,0.028756
2412,2.2069,1.6364,0,0.00053138,5310.1,0.00022173,0.032984,9.105e-05,-981.84,-0.00054122,-5732.5,0.028449
2413,2.2069,1.4545,0,0.00053567,5353,0.00021898,0.052021,0.00010063,-889.23,-0.00054522,-5741.9,0.028084
2414,2.2069,1.2727,0,0.00054083,5404.6,0.00021601,0.07966,0.00011135,-786.28,-0.0005499,-5754.6,0.027656
2415,2.2069,1.0909,0,0.0005469,5465.2,0.00021285,0.12058,0.0001231,-674.27,-0.00055524,-5771,0.027158
2416,2.2069,0.90909,0,0.00055386,5534.8,0.00020959,0.17437,0.0001357,-554.95,-0.0005612,-5791.2,0.026583
2417,2.2069,0.72727,0,0.00056164,5612.5,0.00020628,0.27463,0.00014895,-430.5,-0.00056771,-5815.2,0.025923
2418,2.2069,0.54545,0,0.00057013,5697.4,0.000203,0.35535,0.00016257,-303.38,-0.00057468,-5842.8,0.02517
2419,2.2069,0.36364,0,0.00057927,5788.7,0.00019987,1.0285,0.00017638,-175.43,-0.00058203,-5873.9,0.024315
2420,2.2069,0.18182,0,0.00058993,5895.2,0.00019718,3.5928,0.00019077,-44.605,-0.00059061,-5915.6,0.023348
2421,2.023,5.8182,0,0.00059557,5951.5,0.00019896,4.8255,0.00019288,-40.879,-0.00059617,-5969.4,0.019285
2422,2.023,5.6364,0,0.00058391,5835,0.00020184,1.156,0.00017715,-184.36,-0.0005868,-5924.4,0.020197
2423,2.023,5.4545,0,0.0005741,5737.1,0.00020537,0.40106,0.00016202,-325.32,-0.00057894,-5892.6,0.020999
2424,2.023,5.2727,0,0.00056511,5647.2,0.00020909,0.30536,0.0001471,-465.51,-0.00057158,-5865.4,0.0217
2425,2.023,5.0909,0,0.00055701,5566.3,0.00021286,0.19273,0.00013265,-602.47,-0.0005648,-5842.9,0.02231
2426,2.023,4.9091,0,0.00054992,5495.4,0.00021659,0.13288,0.00011899,-733.15,-0.00055871,-5825.1,0.022837
2427,2.023,4.7273,0,0.0005439,5435.3,0.00022017,0.088662,0.00010637,-854.97,-0.00055338,-5812.1,0.023291
2428,2.023,4.5455,0,0.00053894,5385.7,0.00022355,0.059947,9.4971e-05,-966.01,-0.00054883,-5803.3,0.023679
2429,2.023,4.3636,0,0.00053496,5345.9,0.00022665,0.041113,8.4901e-05,-1065,-0.00054506,-5798.2,0.024008
2430,2.023,4.1818,0,0.00053186,5315,0.00022943,0.029502,7.6205e-05,-1151.2,-0.00054201,-5796.2,0.024283
2431,2.023,4,0,0.00052951,5291.5,0.00023185,0.022712,6.888e-05,-1224.5,-0.0005396,-5796.4,0.02451
2432,2.023,3.8182,0,0.00052779,5274.2,0.00023389,0.019054,6.2892e-05,-1284.8,-0.00053776,-5797.9,0.024693
2433,2.023,3.6364,0,0.00052656,5262,0.00023554,0.017296,5.8191e-05,-1332.5,-0.00053641,-5800.1,0.024835
2434,2.023,3.4545,0,0.00052573,5253.7,0.00023678,0.016594,5.4723e-05,-1367.9,-0.00053546,-5802.4,0.02494
2435,2.023,3.2727,0,0.00052523,5248.7,0.00023762,0.016394,5.244e-05,-1391.3,-0.00053487,-5804.1,0.025009
2436,2.023,3.0909,0,0.00052499,5246.3,0.00023803,0.016371,5.1308e-05,-1403,-0.00053458,-5805.1,0.025042
2437,2.023,2.9091,0,0.00052499,5246.3,0.00023803,0.016371,5.1308e-05,-1403,-0.00053458,-5805.1,0.025042
2438,2.023,2.7273,0,0.00052523,5248.7,0.00023762,0.016395,5.244e-05,-1391.3,-0.00053487,-5804.1,0.025009
2439,2.023,2.5455,0,0.00052573,5253.7,0.00023678,0.016594,5.4723e-05,-1367.9,-0.00053546,-5802.4,0.02494
2440,2.023,2.3636,0,0.00052656,5262,0.00023554,0.017296,5.8191e-05,-1332.5,-0.00053641,-5800.1,0.024835
2441,2.023,2.1818,0,0.00052779,5274.2,0.00023389,0.019054,6.2892e-05,-1284.8,-0.00053776,-5797.9,0.024693
2442,2.023,2,0,0.00052951,5291.5,0.00023185,0.022712,6.888e-05,-1224.5,-0.0005396,-5796.4,0.02451
2443,2.023,1.8182,0,0.00053186,5315,0.00022943,0.029503,7.6205e-05,-1151.2,-0.00054201,-5796.2,0.024283
2444,2.023,1.6364,0,0.00053496,5345.9,0.00022665,0.041114,8.4901e-05,-1065,-0.00054506,-5798.2,0.024008
2445,2.023,1.4545,0,0.00053894,5385.7,0.00022355,0.059948,9.4971e-05,-966.01,-0.00054883,-5803.3,0.023679
2446,2.023,1.2727,0,0.0005439,5435.3,0.00022017,0.088662,0.00010637,-854.97,-0.00055338,-5812.1,0.023291
2447,2.023,1.0909,0,0.00054992,5495.4,0.00021659,0.13288,0.00011899,-733.15,-0.00055871,-5825.1,0.022837
2448,2.023,0.90909,0,0.00055701,5566.3,0.00021286,0.19273,0.00013265,-602.47,-0.0005648,-5842.9,0.02231
2449,2.023,0.72727,0,0.00056511,5647.2,0.00020909,0.30536,0.0001471,-465.51,-0.00057158,-5865.4,0.0217
2450,2.023,0.54545,0,0.0005741,5737.1,0.00020537,0.40106,0.00016202,-325.32,-0.00057894,-5892.6,0.020999
2451,2.023,0.36364,0,0.00058391,5835,0.00020184,1.156,0.00017715,-184.36,-0.0005868,-5924.4,0.020197
2452,2.023,0.18182,0,0.00059557,5951.5,0.00019896,4.8255,0.00019288,-40.879,-0.00059617,-5969.4,0.019285
2453,1.8391,5.8182,0,0.00060055,6001.3,0.00020053,6.7213,0.00019481,-36.26,-0.00060104,-6016,0.015619
2454,1.8391,5.6364,0,0.00058776,5873.6,0.0002036,1.3016,0.00017761,-193.99,-0.0005908,-5967.5,0.016471
2455,1.8391,5.4545,0,0.00057726,5768.6,0.00020761,0.44915,0.00016095,-350.13,-0.00058241,-5935.5,0.017213
2456,1.8391,5.2727,0,0.00056779,5673.9,0.00021188,0.33439,0.00014456,-505.46,-0.00057468,-5909.6,0.017857
2457,1.8391,5.0909,0,0.00055945,5590.6,0.0002162,0.20702,0.00012878,-656.65,-0.00056771,-5889.8,0.018412
2458,1.8391,4.9091,0,0.00055237,5519.9,0.00022047,0.14027,0.000114,-799.86,-0.00056161,-5876.1,0.018889
2459,1.8391,4.7273,0,0.00054659,5462.1,0.00022457,0.092758,0.00010051,-932.07,-0.00055644,-5868.1,0.019296
2460,1.8391,4.5455,0,0.00054203,5416.6,0.0002284,0.063346,8.8485e-05,-1051.2,-0.00055221,-5865.1,0.019641
2461,1.8391,4.3636,0,0.00053858,5382.1,0.00023191,0.04515,7.8017e-05,-1156.2,-0.00054885,-5866.2,0.019932
2462,1.8391,4.1818,0,0.00053607,5357,0.00023503,0.03475,6.9105e-05,-1246.6,-0.00054627,-5870.3,0.020174
2463,1.8391,4,0,0.0005343,5339.3,0.00023773,0.029254,6.1697e-05,-1322.6,-0.00054436,-5876.3,0.020373
2464,1.8391,3.8182,0,0.00053311,5327.4,0.00024,0.02673,5.5713e-05,-1384.6,-0.00054298,-5883,0.020532
2465,1.8391,3.6364,0,0.00053234,5319.8,0.00024182,0.025853,5.1062e-05,-1433.3,-0.00054203,-5889.5,0.020656
2466,1.8391,3.4545,0,0.00053188,5315.1,0.00024319,0.025772,4.7658e-05,-1469.1,-0.00054141,-5895.1,0.020747
2467,1.8391,3.2727,0,0.00053162,5312.5,0.0002441,0.025959,4.5431e-05,-1492.7,-0.00054103,-5899.2,0.020806
2468,1.8391,3.0909,0,0.00053151,5311.4,0.00024456,0.026119,4.433e-05,-1504.4,-0.00054086,-5901.3,0.020836
2469,1.8391,2.9091,0,0.00053151,5311.4,0.00024456,0.026119,4.433e-05,-1504.4,-0.00054086,-5901.3,0.020836
2470,1.8391,2.7273,0,0.00053162,5312.5,0.0002441,0.025959,4.5431e-05,-1492.7,-0.00054103,-5899.2,0.020806
2471,1.8391,2.5455,0,0.00053188,5315.1,0.00024319,0.025772,4.7658e-05,-1469.1,-0.00054141,-5895.1,0.020747
2472,1.8391,2.3636,0,0.00053234,5319.8,0.00024182,0.025853,5.1062e-05,-1433.3,-0.00054203,-5889.5,0.020656
2473,1.8391,2.1818,0,0.00053311,5327.4,0.00024,0.02673,5.5713e-05,-1384.6,-0.00054298,-5883,0.020532
2474,1.8391,2,0,0.0005343,5339.3,0.00023773,0.029254,6.1697e-05,-1322.6,-0.00054436,-5876.3,0.020373
2475,1.8391,1.8182,0,0.00053607,5357,0.00023503,0.03475,6.9105e-05,-1246.6,-0.00054627,-5870.3,0.020174
2476,1.8391,1.6364,0,0.00053858,5382.1,0.00023191,0.04515,7.8017e-05,-1156.2,-0.00054885,-5866.2,0.019932
2477,1.8391,1.4545,0,0.00054203,5416.6,0.0002284,0.063346,8.8485e-05,-1051.2,-0.00055221,-5865.1,0.019641
2478,1.8391,1.2727,0,0.00054659,5462.1,0.00022457,0.092758,0.00010051,-932.07,-0.00055644,-5868.1,0.019296
2479,1.8391,1.0909,0,0.00055237,5519.9,0.00022047,0.14027,0.000114,-799.86,-0.00056161,-5876.1,0.018889
2480,1.8391,0.90909,0,0.00055945,5590.6,0.0002162,0.20702,0.00012878,-656.65,-0.00056771,-5889.8,0.018412
2481,1.8391,0.72727,0,0.00056779,5673.9,0.00021188,0.33439,0.00014456,-505.46,-0.00057468,-5909.6,0.017857
2482,1.8391,0.54545,0,0.00057726,5768.6,0.00020761,0.44915,0.00016095,-350.13,-0.00058241,-5935.5,0.017213
2483,1.8391,0.36364,0,0.00058776,5873.6,0.0002036,1.3016,0.00017761,-193.99,-0.0005908,-5967.5,0.016471
2484,1.8391,0.18182,0,0.00060055,6001.3,0.00020053,6.7213,0.00019481,-36.26,-0.00060104,-6016,0.015619
2485,1.6552,5.8182,0,0.00060458,6041.6,0.00020186,9.7803,0.00019644,-30.966,-0.00060493,-6052.1,0.012349
2486,1.6552,5.6364,0,0.00059052,5901.1,0.00020505,1.4882,0.0001776,-204.73,-0.00059371,-6000.1,0.013135
2487,1.6552,5.4545,0,0.00057928,5788.8,0.00020967,0.52505,0.00015917,-378.92,-0.00058478,-5968.7,0.013813
2488,1.6552,5.2727,0,0.00056938,5689.8,0.00021461,0.38946,0.00014108,-552.05,-0.00057674,-5945.5,0.014395
2489,1.6552,5.0909,0,0.00056094,5605.6,0.00021962,0.24672,0.00012383,-719.48,-0.0005697,-5930.4,0.014892
2490,1.6552,4.9091,0,0.0005541,5537.2,0.00022455,0.17386,0.00010789,-876.39,-0.00056377,-5923,0.015315
2491,1.6552,4.7273,0,0.00054883,5484.5,0.00022925,0.12432,9.3573e-05,-1019.3,-0.00055901,-5922.6,0.015672
2492,1.6552,4.5455,0,0.00054498,5446,0.00023362,0.095526,8.1047e-05,-1146.3,-0.00055535,-5927.9,0.015973
2493,1.6552,4.3636,0,0.00054234,5419.6,0.00023757,0.078979,7.0338e-05,-1256.4,-0.00055267,-5937.5,0.016224
2494,1.6552,4.1818,0,0.00054065,5402.8,0.00024106,0.070416,6.1381e-05,-1350,-0.00055081,-5949.7,0.016433
2495,1.6552,4,0,0.00053967,5393,0.00024407,0.066499,5.4056e-05,-1427.6,-0.00054959,-5963.2,0.016602
2496,1.6552,3.8182,0,0.00053919,5388.2,0.00024658,0.065158,4.8223e-05,-1490.3,-0.00054884,-5976.4,0.016738
2497,1.6552,3.6364,0,0.00053901,5386.4,0.00024858,0.065082,4.3743e-05,-1539,-0.00054842,-5988.3,0.016843
2498,1.6552,3.4545,0,0.00053899,5386.2,0.00025008,0.065495,4.0495e-05,-1574.6,-0.00054822,-5998,0.01692
2499,1.6552,3.2727,0,0.00053904,5386.7,0.00025107,0.065957,3.8385e-05,-1598,-0.00054813,-6004.8,0.01697
2500,1.6552,3.0909,0,0.00053908,5387.1,0.00025157,0.066236,3.7346e-05,-1609.5,-0.0005481,-6008.3,0.016995
2501,1.6552,2.9091,0,0.00053908,5387.1,0.00025157,0.066236,3.7346e-05,-1609.5,-0.0005481,-6008.3,0.016995
2502,1.6552,2.7273,0,0.00053904,5386.7,0.00025107,0.065957,3.8385e-05,-1598,-0.00054813,-6004.8,0.01697
2503,1.6552,2.5455,0,0.00053899,5386.2,0.00025008,0.065495,4.0495e-05,-1574.6,-0.00054822,-5998,0.01692
2504,1.6552,2.3636,0,0.00053901,5386.4,0.00024858,0.065082,4.3743e-05,-1539,-0.00054842,-5988.3,0.016843
2505,1.6552,2.1818,0,0.00053919,5388.2,0.00024658,0.065159,4.8223e-05,-1490.3,-0.00054884,-5976.4,0.016738
2506,1.6552,2,0,0.00053967,5393,0.00024407,0.066499,5.4056e-05,-1427.6,-0.00054959,-5963.2,0.016602
2507,1.6552,1.8182,0,0.00054065,5402.8,0.00024106,0.070416,6.1381e-05,-1350,-0.00055081,-5949.7,0.016433
2508,1.6552,1.6364,0,0.00054234,5419.6,0.00023757,0.078979,7.0338e-05,-1256.4,-0.00055267,-5937.5,0.016224
2509,1.6552,1.4545,0,0.00054498,5446,0.00023362,0.095526,8.1047e-05,-1146.3,-0.00055535,-5927.9,0.015973
2510,1.6552,1.2727,0,0.00054883,5484.5,0.00022925,0.12432,9.3573e-05,-1019.3,-0.00055901,-5922.6,0.015672
2511,1.6552,1.0909,0,0.0005541,5537.2,0.00022455,0.17386,0.00010789,-876.39,-0.00056377,-5923,0.015315
2512,1.6552,0.90909,0,0.00056094,5605.6,0.00021962,0.24672,0.00012383,-719.48,-0.0005697,-5930.4,0.014892
2513,1.6552,0.72727,0,0.00056938,5689.8,0.00021461,0.38946,0.00014108,-552.05,-0.00057674,-5945.5,0.014395
2514,1.6552,0.54545,0,0.00057928,5788.8,0.00020967,0.52505,0.00015917,-378.92,-0.00058478,-5968.7,0.013813
2515,1.6552,0.36364,0,0.00059052,5901.1,0.00020505,1.4882,0.0001776,-204.73,-0.00059371,-6000.1,0.013135
2516,1.6552,0.18182,0,0.00060458,6041.6,0.00020186,9.7803,0.00019644,-30.966,-0.00060493,-6052.1,0.012349
2517,1.4713,5.8182,0,0.00060723,6068.1,0.00020288,14.817,0.00019751,-25.55,-0.0006074,-6073.3,0.0094783
2518,1.4713,5.6364,0,0.00059172,5913.1,0.00020607,1.6538,0.00017692,-217.35,-0.00059508,-6017.9,0.010192
2519,1.4713,5.4545,0,0.00057972,5793.2,0.00021147,0.53799,0.00015637,-413.48,-0.00058564,-5988.6,0.0108
2520,1.4713,5.2727,0,0.00056951,5691.1,0.00021727,0.3661,0.00013633,-607.81,-0.0005774,-5970.4,0.011315
2521,1.4713,5.0909,0,0.00056123,5608.4,0.00022315,0.19928,0.00011747,-793.81,-0.0005705,-5962.9,0.01175
2522,1.4713,4.9091,0,0.00055497,5545.9,0.00022888,0.11593,0.00010037,-965.42,-0.00056505,-5965.2,0.012115
2523,1.4713,4.7273,0,0.00055061,5502.3,0.00023429,0.061977,8.5365e-05,-1118.9,-0.00056104,-5975.7,0.012421
2524,1.4713,4.5455,0,0.00054786,5474.8,0.00023926,0.032123,7.2541e-05,-1252.6,-0.00055831,-5992.6,0.012676
2525,1.4713,4.3636,0,0.00054638,5460,0.00024371,0.01569,6.1831e-05,-1366.6,-0.00055664,-6013.5,0.012887
2526,1.4713,4.1818,0,0.00054582,5454.4,0.00024761,0.0074101,5.3066e-05,-1461.7,-0.00055578,-6036.3,0.013061
2527,1.4713,4,0,0.00054586,5454.8,0.00025093,0.0035513,4.6036e-05,-1539.5,-0.00055549,-6059.1,0.013202
2528,1.4713,3.8182,0,0.00054625,5458.7,0.00025367,0.0020035,4.0532e-05,-1601.5,-0.00055556,-6080.3,0.013314
2529,1.4713,3.6364,0,0.00054677,5464,0.00025585,0.0015516,3.6363e-05,-1649.2,-0.00055582,-6098.6,0.0134
2530,1.4713,3.4545,0,0.00054729,5469.1,0.00025747,0.0015507,3.3373e-05,-1683.8,-0.00055612,-6113.1,0.013463
2531,1.4713,3.2727,0,0.00054769,5473.1,0.00025855,0.0016721,3.1445e-05,-1706.4,-0.00055638,-6123.1,0.013504
2532,1.4713,3.0909,0,0.00054791,5475.3,0.00025909,0.0017624,3.0501e-05,-1717.5,-0.00055652,-6128.2,0.013524
2533,1.4713,2.9091,0,0.00054791,5475.3,0.00025909,0.0017623,3.0501e-05,-1717.5,-0.00055652,-6128.2,0.013524
2534,1.4713,2.7273,0,0.00054769,5473.1,0.00025855,0.0016722,3.1445e-05,-1706.4,-0.00055638,-6123.1,0.013504
2535,1.4713,2.5455,0,0.00054729,5469.1,0.00025747,0.0015508,3.3373e-05,-1683.8,-0.00055612,-6113.1,0.013463
2536,1.4713,2.3636,0,0.00054677,5464,0.00025585,0.0015515,3.6363e-05,-1649.2,-0.00055582,-6098.6,0.0134
2537,1.4713,2.1818,0,0.00054625,5458.7,0.00025367,0.0020036,4.0532e-05,-1601.5,-0.00055556,-6080.3,0.013314
2538,1.4713,2,0,0.00054586,5454.8,0.00025093,0.0035513,4.6036e-05,-1539.5,-0.00055549,-6059.1,0.013202
2539,1.4713,1.8182,0,0.00054582,5454.4,0.00024761,0.0074102,5.3066e-05,-1461.7,-0.00055578,-6036.3,0.013061
2540,1.4713,1.6364,0,0.00054638,5460,0.00024371,0.01569,6.1831e-05,-1366.6,-0.00055664,-6013.5,0.012887
2541,1.4713,1.4545,0,0.00054786,5474.8,0.00023926,0.032123,7.2541e-05,-1252.6,-0.00055831,-5992.6,0.012676
2542,1.4713,1.2727,0,0.00055061,5502.3,0.00023429,0.061978,8.5365e-05,-1118.9,-0.00056104,-5975.7,0.012421
2543,1.4713,1.0909,0,0.00055497,5545.9,0.00022888,0.11593,0.00010037,-965.42,-0.00056505,-5965.2,0.012115
2544,1.4713,0.90909,0,0.00056123,5608.4,0.00022315,0.19928,0.00011747,-793.81,-0.0005705,-5962.9,0.01175
2545,1.4713,0.72727,0,0.00056951,5691.1,0.00021727,0.3661,0.00013633,-607.81,-0.0005774,-5970.4,0.011315
2546,1.4713,0.54545,0,0.00057972,5793.2,0.00021147,0.53799,0.00015637,-413.48,-0.00058564,-5988.6,0.0108
2547,1.4713,0.36364,0,0.00059172,5913.1,0.00020607,1.6538,0.00017692,-217.35,-0.00059508,-6017.9,0.010192
2548,1.4713,0.18182,0,0.00060723,6068.1,0.00020288,14.817,0.00019751,-25.55,-0.0006074,-6073.3,0.0094783
2549,1.2874,5.8182,0,0.00060786,6074.4,0.00020355,23.077,0.00019772,-20.719,-0.00060781,-6073.1,0.0070051
2550,1.2874,5.6364,0,0.00059071,5903,0.00020653,2.0861,0.00017525,-233,-0.00059428,-6014.9,0.0076397
2551,1.2874,5.4545,0,0.000578,5776,0.00021297,0.86533,0.00015211,-456.47,-0.00058439,-5990.2,0.008172
2552,1.2874,5.2727,0,0.00056772,5673.3,0.00021991,0.68889,0.00012979,-676.37,-0.00057618,-5980.8,0.0086161
2553,1.2874,5.0909,0,0.00056004,5596.6,0.00022688,0.51999,0.00010924,-883.35,-0.0005698,-5985.4,0.008985
2554,1.2874,4.9091,0,0.00055493,5545.4,0.00023359,0.44352,9.1112e-05,-1070.1,-0.00056531,-6002.2,0.0092908
2555,1.2874,4.7273,0,0.00055204,5516.6,0.00023984,0.39824,7.5677e-05,-1233,-0.00056256,-6028.5,0.0095437
2556,1.2874,4.5455,0,0.0005509,5505.2,0.00024548,0.37689,6.2892e-05,-1371.5,-0.00056124,-6061.1,0.0097522
2557,1.2874,4.3636,0,0.000551,5506.2,0.00025047,0.36722,5.2521e-05,-1487,-0.000561,-6096.7,0.0099235
2558,1.2874,4.1818,0,0.00055189,5515,0.00025478,0.36378,4.4255e-05,-1581.4,-0.00056149,-6132.7,0.010063
2559,1.2874,4,0,0.00055318,5528,0.00025841,0.3631,3.7777e-05,-1657.4,-0.00056239,-6166.8,0.010176
2560,1.2874,3.8182,0,0.0005546,5542.2,0.00026139,0.3635,3.28e-05,-1717.2,-0.00056346,-6197.2,0.010265
2561,1.2874,3.6364,0,0.00055594,5555.6,0.00026374,0.36417,2.9089e-05,-1762.7,-0.00056451,-6222.8,0.010333
2562,1.2874,3.4545,0,0.00055705,5566.7,0.00026548,0.36477,2.646e-05,-1795.5,-0.00056541,-6242.6,0.010383
2563,1.2874,3.2727,0,0.00055784,5574.6,0.00026662,0.36519,2.4778e-05,-1816.8,-0.00056605,-6256,0.010415
2564,1.2874,3.0909,0,0.00055825,5578.7,0.00026719,0.3654,2.3959e-05,-1827.2,-0.00056639,-6262.9,0.010431
2565,1.2874,2.9091,0,0.00055825,5578.7,0.00026719,0.3654,2.3959e-05,-1827.2,-0.00056639,-6262.9,0.010431
2566,1.2874,2.7273,0,0.00055784,5574.6,0.00026662,0.36519,2.4778e-05,-1816.8,-0.00056605,-6256,0.010415
2567,1.2874,2.5455,0,0.00055705,5566.7,0.00026548,0.36477,2.646e-05,-1795.5,-0.00056541,-6242.6,0.010383
2568,1.2874,2.3636,0,0.00055594,5555.6,0.00026374,0.36417,2.9089e-05,-1762.7,-0.00056451,-6222.8,0.010333
2569,1.2874,2.1818,0,0.0005546,5542.2,0.00026139,0.3635,3.28e-05,-1717.2,-0.00056346,-6197.2,0.010265
2570,1.2874,2,0,0.00055318,5528,0.00025841,0.3631,3.7777e-05,-1657.4,-0.00056239,-6166.8,0.010176
2571,1.2874,1.8182,0,0.00055189,5515,0.00025478,0.36378,4.4255e-05,-1581.4,-0.00056149,-6132.7,0.010063
2572,1.2874,1.6364,0,0.000551,5506.2,0.00025047,0.36722,5.2521e-05,-1487,-0.000561,-6096.7,0.0099235
2573,1.2874,1.4545,0,0.0005509,5505.2,0.00024548,0.37689,6.2891e-05,-1371.5,-0.00056124,-6061.1,0.0097522
2574,1.2874,1.2727,0,0.00055204,5516.6,0.00023984,0.39824,7.5677e-05,-1233,-0.00056256,-6028.5,0.0095437
2575,1.2874,1.0909,0,0.00055492,5545.4,0.00023359,0.44352,9.1112e-05,-1070.1,-0.00056531,-6002.2,0.0092908
2576,1.2874,0.90909,0,0.00056004,5596.6,0.00022688,0.51999,0.00010924,-883.35,-0.0005698,-5985.4,0.008985
2577,1.2874,0.72727,0,0.00056772,5673.3,0.00021991,0.68889,0.00012979,-676.37,-0.00057618,-5980.8,0.0086161
2578,1.2874,0.54545,0,0.000578,5776,0.00021297,0.86533,0.00015211,-456.47,-0.00058439,-5990.2,0.008172
2579,1.2874,0.36364,0,0.00059071,5903,0.00020653,2.0861,0.00017525,-233,-0.00059428,-6014.9,0.0076397
2580,1.2874,0.18182,0,0.00060786,6074.4,0.00020355,23.077,0.00019772,-20.719,-0.00060781,-6073.1,0.0070051
2581,1.1034,5.8182,0,0.00060549,6050.7,0.00020362,35.267,0.00019659,-17.515,-0.00060517,-6041.6,0.0049271
2582,1.1034,5.6364,0,0.00058643,5860.3,0.00020613,1.6966,0.00017205,-254.36,-0.00059031,-5982.4,0.0054758
2583,1.1034,5.4545,0,0.00057315,5727.5,0.00021399,0.040844,0.00014569,-513.09,-0.00058015,-5966.8,0.0059267
2584,1.1034,5.2727,0,0.00056331,5629.2,0.00022243,-0.30031,0.00012078,-764.07,-0.00057241,-5972.4,0.0062954
2585,1.1034,5.0909,0,0.00055699,5566.1,0.00023079,-0.57046,9.8562e-05,-994.09,-0.00056722,-5996.5,0.006596
2586,1.1034,4.9091,0,0.00055387,5534.8,0.00023869,-0.70772,7.9737e-05,-1195,-0.00056445,-6035.2,0.0068411
2587,1.1034,4.7273,0,0.00055324,5528.6,0.00024589,-0.7938,6.4363e-05,-1364.7,-0.0005637,-6083.7,0.0070408
2588,1.1034,4.5455,0,0.00055435,5539.7,0.00025227,-0.84507,5.2124e-05,-1504.7,-0.00056442,-6137.2,0.0072036
2589,1.1034,4.3636,0,0.00055649,5561.1,0.00025781,-0.87839,4.2547e-05,-1618.3,-0.0005661,-6191.4,0.0073358
2590,1.1034,4.1818,0,0.00055913,5587.5,0.00026252,-0.90115,3.5147e-05,-1709.3,-0.00056827,-6243.1,0.0074428
2591,1.1034,4,0,0.00056187,5614.8,0.00026645,-0.91765,2.9496e-05,-1781.3,-0.00057059,-6290.1,0.0075285
2592,1.1034,3.8182,0,0.00056444,5640.5,0.00026963,-0.92997,2.5247e-05,-1837.1,-0.00057281,-6330.7,0.0075958
2593,1.1034,3.6364,0,0.00056665,5662.6,0.00027212,-0.93916,2.2132e-05,-1879.3,-0.00057475,-6364,0.0076473
2594,1.1034,3.4545,0,0.00056838,5679.9,0.00027395,-0.94577,1.9952e-05,-1909.4,-0.00057629,-6389.3,0.0076845
2595,1.1034,3.2727,0,0.00056957,5691.8,0.00027515,-0.95006,1.857e-05,-1928.8,-0.00057735,-6406.3,0.0077086
2596,1.1034,3.0909,0,0.00057018,5697.9,0.00027575,-0.95218,1.79e-05,-1938.3,-0.00057789,-6414.9,0.0077205
2597,1.1034,2.9091,0,0.00057018,5697.9,0.00027575,-0.95218,1.79e-05,-1938.3,-0.00057789,-6414.9,0.0077205
2598,1.1034,2.7273,0,0.00056957,5691.8,0.00027515,-0.95006,1.857e-05,-1928.8,-0.00057735,-6406.3,0.0077086
2599,1.1034,2.5455,0,0.00056838,5679.9,0.00027395,-0.94577,1.9952e-05,-1909.4,-0.00057629,-6389.3,0.0076845
2600,1.1034,2.3636,0,0.00056665,5662.6,0.00027212,-0.93916,2.2132e-05,-1879.3,-0.00057475,-6364,0.0076473
2601,1.1034,2.1818,0,0.00056444,5640.5,0.00026963,-0.92997,2.5247e-05,-1837.1,-0.00057281,-6330.7,0.0075958
2602,1.1034,2,0,0.00056187,5614.8,0.00026645,-0.91765,2.9496e-05,-1781.3,-0.00057059,-6290.1,0.0075285
2603,1.1034,1.8182,0,0.00055913,5587.5,0.00026252,-0.90115,3.5147e-05,-1709.3,-0.00056827,-6243.1,0.0074428
2604,1.1034,1.6364,0,0.00055649,5561.1,0.00025781,-0.87839,4.2547e-05,-1618.3,-0.0005661,-6191.4,0.0073358
2605,1.1034,1.4545,0,0.00055435,5539.7,0.00025227,-0.84507,5.2124e-05,-1504.7,-0.00056442,-6137.2,0.0072036
2606,1.1034,1.2727,0,0.00055324,5528.6,0.00024589,-0.7938,6.4363e-05,-1364.7,-0.0005637,-6083.7,0.0070408
2607,1.1034,1.0909,0,0.00055387,5534.8,0.00023869,-0.70772,7.9737e-05,-1195,-0.00056445,-6035.2,0.0068411
2608,1.1034,0.90909,0,0.00055699,5566.1,0.00023079,-0.57046,9.8562e-05,-994.09,-0.00056722,-5996.5,0.006596
2609,1.1034,0.72727,0,0.00056331,5629.2,0.00022243,-0.30031,0.00012078,-764.07,-0.00057241,-5972.4,0.0062954
2610,1.1034,0.54545,0,0.00057315,5727.5,0.00021399,0.040843,0.00014569,-513.09,-0.00058015,-5966.8,0.0059267
2611,1.1034,0.36364,0,0.00058643,5860.3,0.00020613,1.6966,0.00017205,-254.36,-0.00059031,-5982.4,0.0054758
2612,1.1034,0.18182,0,0.00060549,6050.7,0.00020362,35.267,0.00019659,-17.515,-0.00060517,-6041.6,0.0049271
2613,0.91954,5.8182,0,0.00059861,5982,0.00020266,52.881,0.00019371,-14.348,-0.00059793,-5962.4,0.0032393
2614,0.91954,5.6364,0,0.00057758,5771.9,0.00020492,4.9331,0.00016642,-284.29,-0.00058179,-5906.1,0.0036949
2615,0.91954,5.4545,0,0.00056428,5638.9,0.00021496,3.9629,0.000136,-589.28,-0.00057189,-5908.1,0.0040593
2616,0.91954,5.2727,0,0.00055599,5556,0.00022553,4.0221,0.00010824,-877.22,-0.00056557,-5940,0.0043496
2617,0.91954,5.0909,0,0.00055242,5520.4,0.00023571,4.018,8.475e-05,-1130.3,-0.00056277,-5995.5,0.0045808
2618,0.91954,4.9091,0,0.00055261,5522.3,0.00024505,4.0788,6.5962e-05,-1341.5,-0.00056292,-6066.7,0.0047655
2619,0.91954,4.7273,0,0.0005553,5549.2,0.00025331,4.1402,5.1451e-05,-1512.6,-0.00056518,-6145.7,0.0049136
2620,0.91954,4.5455,0,0.00055938,5589.9,0.00026046,4.1994,4.0461e-05,-1648.8,-0.0005687,-6225.8,0.0050326
2621,0.91954,4.3636,0,0.00056401,5636.2,0.00026654,4.249,3.2219e-05,-1756.3,-0.00057279,-6302.1,0.0051283
2622,0.91954,4.1818,0,0.00056865,5682.5,0.00027162,4.2889,2.607e-05,-1840.7,-0.00057695,-6371.5,0.0052049
2623,0.91954,4,0,0.00057294,5725.5,0.00027579,4.3201,2.1507e-05,-1906.3,-0.00058085,-6432.1,0.0052659
2624,0.91954,3.8182,0,0.00057669,5762.9,0.00027914,4.3437,1.8152e-05,-1956.6,-0.00058429,-6483.1,0.0053136
2625,0.91954,3.6364,0,0.00057976,5793.6,0.00028173,4.3612,1.5733e-05,-1994.2,-0.00058713,-6523.9,0.0053499
2626,0.91954,3.4545,0,0.0005821,5817,0.00028363,4.3735,1.4063e-05,-2021,-0.00058931,-6554.5,0.005376
2627,0.91954,3.2727,0,0.00058367,5832.7,0.00028487,4.3813,1.3013e-05,-2038.2,-0.00059078,-6574.9,0.0053929
2628,0.91954,3.0909,0,0.00058446,5840.5,0.00028548,4.3851,1.2506e-05,-2046.6,-0.00059152,-6585,0.0054013
2629,0.91954,2.9091,0,0.00058446,5840.5,0.00028548,4.3851,1.2506e-05,-2046.6,-0.00059152,-6585,0.0054013
2630,0.91954,2.7273,0,0.00058367,5832.7,0.00028487,4.3813,1.3013e-05,-2038.2,-0.00059078,-6574.9,0.0053929
2631,0.91954,2.5455,0,0.0005821,5817,0.00028363,4.3735,1.4063e-05,-2021,-0.00058931,-6554.5,0.005376
2632,0.91954,2.3636,0,0.00057976,5793.6,0.00028173,4.3612,1.5733e-05,-1994.2,-0.00058713,-6523.9,0.0053499
2633,0.91954,2.1818,0,0.00057669,5762.9,0.00027914,4.3437,1.8152e-05,-1956.6,-0.00058429,-6483.1,0.0053136
2634,0.91954,2,0,0.00057294,5725.5,0.00027579,4.3201,2.1507e-05,-1906.3,-0.00058085,-6432.1,0.0052659
2635,0.91954,1.8182,0,0.00056865,5682.5,0.00027162,4.2889,2.607e-05,-1840.7,-0.00057695,-6371.5,0.0052049
2636,0.91954,1.6364,0,0.00056401,5636.2,0.00026654,4.249,3.2219e-05,-1756.3,-0.00057279,-6302.1,0.0051283
2637,0.91954,1.4545,0,0.00055938,5589.9,0.00026046,4.1994,4.0461e-05,-1648.8,-0.0005687,-6225.8,0.0050326
2638,0.91954,1.2727,0,0.0005553,5549.2,0.00025331,4.1402,5.1451e-05,-1512.6,-0.00056518,-6145.7,0.0049136
2639,0.91954,1.0909,0,0.00055261,5522.3,0.00024505,4.0788,6.5962e-05,-1341.5,-0.00056292,-6066.7,0.0047655
2640,0.91954,0.90909,0,0.00055242,5520.4,0.00023571,4.018,8.475e-05,-1130.3,-0.00056277,-5995.5,0.0045808
2641,0.91954,0.72727,0,0.00055599,5556,0.00022553,4.0221,0.00010824,-877.22,-0.00056557,-5940,0.0043496
2642,0.91954,0.54545,0,0.00056428,5638.9,0.00021496,3.9628,0.000136,-589.28,-0.00057189,-5908.1,0.0040593
2643,0.91954,0.36364,0,0.00057758,5771.9,0.00020492,4.9331,0.00016642,-284.29,-0.00058179,-5906.1,0.0036949
2644,0.91954,0.18182,0,0.00059861,5982,0.00020266,52.881,0.00019371,-14.348,-0.00059793,-5962.4,0.0032393
2645,0.73563,5.8182,0,0.00058413,5837.2,0.00019968,72.076,0.00018763,-18.432,-0.00058316,-5809.9,0.0019326
2646,0.73563,5.6364,0,0.00056068,5602.9,0.00020104,-5.7386,0.00015682,-338.01,-0.00056579,-5767.4,0.0022883
2647,0.73563,5.4545,0,0.00054835,5479.7,0.00021402,-10.628,0.00012125,-707.7,-0.00055723,-5805.5,0.0025624
2648,0.73563,5.2727,0,0.00054366,5432.8,0.00022737,-12.436,9.0872e-05,-1038.1,-0.00055421,-5885,0.0027731
2649,0.73563,5.0909,0,0.00054504,5446.6,0.00023973,-13.681,6.7257e-05,-1309.6,-0.00055585,-5991.4,0.0029361
2650,0.73563,4.9091,0,0.00055025,5498.7,0.0002506,-14.473,4.9866e-05,-1522.7,-0.00056065,-6109.9,0.0030633
2651,0.73563,4.7273,0,0.00055732,5569.4,0.0002599,-15.037,3.7375e-05,-1687,-0.00056711,-6228.9,0.0031634
2652,0.73563,4.5455,0,0.00056492,5645.3,0.00026771,-15.449,2.8464e-05,-1813.1,-0.00057412,-6340.7,0.0032427
2653,0.73563,4.3636,0,0.00057226,5718.6,0.0002742,-15.763,2.2093e-05,-1910,-0.00058097,-6441.2,0.0033057
2654,0.73563,4.1818,0,0.00057891,5785.1,0.00027953,-16.006,1.7515e-05,-1984.7,-0.00058724,-6528.6,0.0033557
2655,0.73563,4,0,0.00058469,5842.8,0.00028384,-16.193,1.4215e-05,-2042.1,-0.00059272,-6602.3,0.0033952
2656,0.73563,3.8182,0,0.00058949,5890.9,0.00028726,-16.337,1.1841e-05,-2085.7,-0.00059731,-6662.7,0.003426
2657,0.73563,3.6364,0,0.00059331,5929,0.00028989,-16.444,1.0158e-05,-2118.2,-0.00060098,-6710.1,0.0034493
2658,0.73563,3.4545,0,0.00059616,5957.4,0.0002918,-16.521,9.0093e-06,-2141.3,-0.00060371,-6745,0.003466
2659,0.73563,3.2727,0,0.00059804,5976.2,0.00029304,-16.57,8.2934e-06,-2156.1,-0.00060553,-6768.1,0.0034768
2660,0.73563,3.0909,0,0.00059897,5985.6,0.00029365,-16.594,7.9497e-06,-2163.3,-0.00060643,-6779.5,0.0034821
2661,0.73563,2.9091,0,0.00059897,5985.6,0.00029365,-16.594,7.9497e-06,-2163.3,-0.00060643,-6779.5,0.0034821
2662,0.73563,2.7273,0,0.00059804,5976.2,0.00029304,-16.57,8.2934e-06,-2156.1,-0.00060553,-6768.1,0.0034768
2663,0.73563,2.5455,0,0.00059616,5957.4,0.0002918,-16.521,9.0093e-06,-2141.3,-0.00060371,-6745,0.003466
2664,0.73563,2.3636,0,0.00059331,5929,0.00028989,-16.444,1.0158e-05,-2118.2,-0.00060098,-6710.1,0.0034493
2665,0.73563,2.1818,0,0.00058949,5890.9,0.00028726,-16.337,1.1841e-05,-2085.7,-0.00059731,-6662.7,0.003426
2666,0.73563,2,0,0.00058469,5842.8,0.00028384,-16.193,1.4215e-05,-2042.1,-0.00059272,-6602.3,0.0033952
2667,0.73563,1.8182,0,0.00057891,5785.1,0.00027953,-16.006,1.7515e-05,-1984.7,-0.00058724,-6528.6,0.0033557
2668,0.73563,1.6364,0,0.00057226,5718.6,0.0002742,-15.763,2.2093e-05,-1910,-0.00058097,-6441.2,0.0033057
2669,0.73563,1.4545,0,0.00056492,5645.3,0.00026771,-15.449,2.8464e-05,-1813.1,-0.00057412,-6340.7,0.0032427
2670,0.73563,1.2727,0,0.00055732,5569.4,0.0002599,-15.037,3.7375e-05,-1687,-0.00056711,-6228.9,0.0031634
2671,0.73563,1.0909,0,0.00055025,5498.7,0.0002506,-14.473,4.9866e-05,-1522.7,-0.00056065,-6109.9,0.0030633
2672,0.73563,0.90909,0,0.00054504,5446.6,0.00023973,-13.681,6.7257e-05,-1309.6,-0.00055585,-5991.4,0.0029361
2673,0.73563,0.72727,0,0.00054366,5432.8,0.00022737,-12.436,9.0872e-05,-1038.1,-0.00055421,-5885,0.0027731
2674,0.73563,0.54545,0,0.00054835,5479.7,0.00021402,-10.628,0.00012125,-707.7,-0.00055723,-5805.5,0.0025624
2675,0.73563,0.36364,0,0.00056068,5602.9,0.00020104,-5.7386,0.00015682,-338.01,-0.00056579,-5767.4,0.0022883
2676,0.73563,0.18182,0,0.00058413,5837.2,0.00019968,72.076,0.00018763,-18.432,-0.00058316,-5809.9,0.0019326
2677,0.55172,5.8182,0,0.00055818,5578,0.00019289,103.87,0.00017897,-0.76899,-0.00055635,-5525.7,0.00099172
2678,0.55172,5.6364,0,0.00053531,5349.4,0.0002,40.533,0.00013969,-412.59,-0.0005402,-5521.1,0.0012424
2679,0.55172,5.4545,0,0.00052905,5286.8,0.0002194,49.252,9.8252e-05,-860.99,-0.00053694,-5633.6,0.0014251
2680,0.55172,5.2727,0,0.00053343,5330.6,0.00023734,53.903,6.7238e-05,-1224.1,-0.00054171,-5799.5,0.001559
2681,0.55172,5.0909,0,0.00054391,5435.3,0.00025275,57.141,4.6149e-05,-1495.2,-0.00055147,-5985.5,0.0016589
2682,0.55172,4.9091,0,0.00055658,5561.9,0.00026553,59.531,3.2289e-05,-1693,-0.00056324,-6167.6,0.0017347
2683,0.55172,4.7273,0,0.00056919,5688,0.00027598,61.31,2.3178e-05,-1838.1,-0.00057509,-6333.3,0.0017933
2684,0.55172,4.5455,0,0.00058073,5803.2,0.00028447,62.663,1.7094e-05,-1946.3,-0.00058606,-6478.1,0.001839
2685,0.55172,4.3636,0,0.0005908,5903.9,0.00029134,63.706,1.2952e-05,-2028,-0.00059572,-6601.3,0.0018749
2686,0.55172,4.1818,0,0.00059934,5989.3,0.00029687,64.515,1.0082e-05,-2090.3,-0.00060397,-6704,0.0019032
2687,0.55172,4,0,0.0006064,6059.8,0.00030128,65.141,8.0667e-06,-2137.9,-0.00061082,-6788,0.0019254
2688,0.55172,3.8182,0,0.00061208,6116.6,0.00030474,65.622,6.6458e-06,-2174.1,-0.00061636,-6855.1,0.0019426
2689,0.55172,3.6364,0,0.00061649,6160.6,0.00030737,65.982,5.653e-06,-2201,-0.00062066,-6906.9,0.0019556
2690,0.55172,3.4545,0,0.00061971,6192.8,0.00030927,66.238,4.9823e-06,-2220.1,-0.00062382,-6944.6,0.0019648
2691,0.55172,3.2727,0,0.00062181,6213.8,0.00031051,66.403,4.5672e-06,-2232.3,-0.00062588,-6969.3,0.0019708
2692,0.55172,3.0909,0,0.00062285,6224.2,0.00031111,66.484,4.3687e-06,-2238.3,-0.00062691,-6981.4,0.0019738
2693,0.55172,2.9091,0,0.00062285,6224.2,0.00031111,66.484,4.3687e-06,-2238.3,-0.00062691,-6981.4,0.0019738
2694,0.55172,2.7273,0,0.00062181,6213.8,0.00031051,66.403,4.5672e-06,-2232.3,-0.00062588,-6969.3,0.0019708
2695,0.55172,2.5455,0,0.00061971,6192.8,0.00030927,66.238,4.9823e-06,-2220.1,-0.00062382,-6944.6,0.0019648
2696,0.55172,2.3636,0,0.00061649,6160.6,0.00030737,65.982,5.653e-06,-2201,-0.00062066,-6906.9,0.0019556
2697,0.55172,2.1818,0,0.00061208,6116.6,0.00030474,65.622,6.6458e-06,-2174.1,-0.00061636,-6855.1,0.0019426
2698,0.55172,2,0,0.0006064,6059.8,0.00030128,65.141,8.0667e-06,-2137.9,-0.00061082,-6788,0.0019254
2699,0.55172,1.8182,0,0.00059934,5989.3,0.00029687,64.515,1.0082e-05,-2090.3,-0.00060397,-6704,0.0019032
2700,0.55172,1.6364,0,0.0005908,5903.9,0.00029134,63.706,1.2952e-05,-2028,-0.00059572,-6601.3,0.0018749
2701,0.55172,1.4545,0,0.00058073,5803.2,0.00028447,62.663,1.7094e-05,-1946.3,-0.00058606,-6478.1,0.001839
2702,0.55172,1.2727,0,0.00056919,5688,0.00027598,61.31,2.3178e-05,-1838.1,-0.00057509,-6333.3,0.0017933
2703,0.55172,1.0909,0,0.00055658,5561.9,0.00026553,59.531,3.2289e-05,-1693,-0.00056324,-6167.6,0.0017347
2704,0.55172,0.90909,0,0.00054391,5435.3,0.00025275,57.141,4.6149e-05,-1495.2,-0.00055147,-5985.5,0.0016589
2705,0.55172,0.72727,0,0.00053343,5330.6,0.00023734,53.903,6.7238e-05,-1224.1,-0.00054171,-5799.5,0.001559
2706,0.55172,0.54545,0,0.00052905,5286.8,0.0002194,49.252,9.8251e-05,-860.99,-0.00053694,-5633.6,0.0014251
2707,0.55172,0.36364,0,0.00053531,5349.4,0.0002,40.533,0.00013969,-412.59,-0.0005402,-5521.1,0.0012424
2708,0.55172,0.18182,0,0.00055818,5578,0.00019289,103.87,0.00017897,-0.76899,-0.00055635,-5525.7,0.00099172
2709,0.36782,5.8182,0,0.00050405,5037,0.00017804,92.477,0.00015485,-81.753,-0.00050364,-5029.4,0.00039137
2710,0.36782,5.6364,0,0.00047859,4782.6,0.00017841,-138,0.00010888,-660.42,-0.00049002,-5160.3,0.00053573
2711,0.36782,5.4545,0,0.00048403,4836.9,0.000202,-183.87,6.417e-05,-1219.5,-0.00049951,-5454.7,0.00063229
2712,0.36782,5.2727,0,0.00050306,5027.1,0.0002228,-207.04,3.8396e-05,-1592.6,-0.00051914,-5781.7,0.00069869
2713,0.36782,5.0909,0,0.0005245,5241.4,0.0002394,-221.95,2.3995e-05,-1840.4,-0.00054048,-6081.7,0.00074616
2714,0.36782,4.9091,0,0.00054423,5438.6,0.00025241,-232.42,1.5788e-05,-2010.3,-0.00056012,-6337.4,0.00078124
2715,0.36782,4.7273,0,0.00056115,5607.6,0.00026263,-240.07,1.0874e-05,-2131.7,-0.00057702,-6548.9,0.0008078
2716,0.36782,4.5455,0,0.00057523,5748.3,0.00027071,-245.83,7.7944e-06,-2221.3,-0.00059113,-6721.4,0.00082826
2717,0.36782,4.3636,0,0.00058677,5863.6,0.00027712,-250.25,5.7872e-06,-2288.9,-0.00060274,-6861.1,0.0008442
2718,0.36782,4.1818,0,0.00059613,5957.2,0.0002822,-253.67,4.4379e-06,-2340.6,-0.00061217,-6973.6,0.00085666
2719,0.36782,4,0,0.00060363,6032.1,0.0002862,-256.31,3.5111e-06,-2380.3,-0.00061973,-7063.1,0.00086638
2720,0.36782,3.8182,0,0.00060952,6091,0.00028931,-258.33,2.8677e-06,-2410.6,-0.00062568,-7133.2,0.00087387
2721,0.36782,3.6364,0,0.00061401,6135.9,0.00029167,-259.84,2.4233e-06,-2433.1,-0.00063022,-7186.5,0.00087951
2722,0.36782,3.4545,0,0.00061725,6168.3,0.00029336,-260.92,2.1254e-06,-2449.1,-0.0006335,-7225,0.00088353
2723,0.36782,3.2727,0,0.00061936,6189.3,0.00029445,-261.61,1.9419e-06,-2459.4,-0.00063564,-7249.9,0.00088613
2724,0.36782,3.0909,0,0.00062039,6199.7,0.00029499,-261.95,1.8545e-06,-2464.4,-0.00063668,-7262.1,0.0008874
2725,0.36782,2.9091,0,0.00062039,6199.7,0.00029499,-261.95,1.8545e-06,-2464.4,-0.00063668,-7262.1,0.0008874
2726,0.36782,2.7273,0,0.00061936,6189.3,0.00029445,-261.61,1.9419e-06,-2459.4,-0.00063564,-7249.9,0.00088613
2727,0.36782,2.5455,0,0.00061725,6168.3,0.00029336,-260.92,2.1254e-06,-2449.1,-0.0006335,-7225,0.00088353
2728,0.36782,2.3636,0,0.00061401,6135.9,0.00029167,-259.84,2.4233e-06,-2433.1,-0.00063022,-7186.5,0.00087951
2729,0.36782,2.1818,0,0.00060952,6091,0.00028931,-258.33,2.8677e-06,-2410.6,-0.00062568,-7133.2,0.00087387
2730,0.36782,2,0,0.00060363,6032.1,0.0002862,-256.31,3.5111e-06,-2380.3,-0.00061973,-7063.1,0.00086638
2731,0.36782,1.8182,0,0.00059613,5957.2,0.0002822,-253.67,4.4379e-06,-2340.6,-0.00061217,-6973.6,0.00085666
2732,0.36782,1.6364,0,0.00058677,5863.6,0.00027712,-250.25,5.7872e-06,-2288.9,-0.00060274,-6861.1,0.0008442
2733,0.36782,1.4545,0,0.00057523,5748.3,0.00027071,-245.83,7.7944e-06,-2221.3,-0.00059113,-6721.4,0.00082826
2734,0.36782,1.2727,0,0.00056115,5607.6,0.00026263,-240.07,1.0874e-05,-2131.7,-0.00057702,-6548.9,0.0008078
2735,0.36782,1.0909,0,0.00054423,5438.6,0.00025241,-232.42,1.5788e-05,-2010.3,-0.00056012,-6337.4,0.00078124
2736,0.36782,0.90909,0,0.0005245,5241.4,0.0002394,-221.95,2.3995e-05,-1840.4,-0.00054048,-6081.7,0.00074616
2737,0.36782,0.72727,0,0.00050306,5027.1,0.0002228,-207.04,3.8396e-05,-1592.6,-0.00051914,-5781.7,0.00069869
2738,0.36782,0.54545,0,0.00048403,4836.9,0.000202,-183.87,6.417e-05,-1219.5,-0.00049951,-5454.7,0.00063229
2739,0.36782,0.36364,0,0.00047859,4782.6,0.00017841,-138,0.00010888,-660.42,-0.00049002,-5160.3,0.00053573
2740,0.36782,0.18182,0,0.00050405,5037,0.00017804,92.477,0.00015485,-81.753,-0.00050364,-5029.4,0.00039137
2741,0.18391,5.8182,0,0.00040583,4055.5,0.00015988,314.42,0.00011806,0.18962,-0.00039956,-3889.1,8.8468e-05
2742,0.18391,5.6364,0,0.00045586,4555.4,0.00023647,610.7,4.5853e-05,-821.54,-0.00044222,-4488.7,0.00013916
2743,0.18391,5.4545,0,0.00052251,5221.5,0.00028708,743.55,2.0744e-05,-1257.6,-0.00050164,-5182.5,0.00016867
2744,0.18391,5.2727,0,0.00057463,5742.3,0.0003214,829.07,1.0459e-05,-1507.2,-0.00054931,-5713.1,0.00018738
2745,0.18391,5.0909,0,0.00061368,6132.5,0.00034525,883.93,6.0731e-06,-1664.5,-0.00058584,-6111.9,0.00020024
2746,0.18391,4.9091,0,0.00064312,6426.8,0.00036272,923.55,3.8259e-06,-1773,-0.00061361,-6412.2,0.00020952
2747,0.18391,4.7273,0,0.00066564,6651.8,0.00037582,952.63,2.5778e-06,-1851.8,-0.00063498,-6642.2,0.00021645
2748,0.18391,4.5455,0,0.00068309,6826.2,0.00038587,974.72,1.8239e-06,-1910.9,-0.0006516,-6820.4,0.00022174
2749,0.18391,4.3636,0,0.00069673,6962.5,0.00039367,991.69,1.3443e-06,-1956.1,-0.00066462,-6959.8,0.00022582
2750,0.18391,4.1818,0,0.00070743,7069.4,0.00039975,1004.9,1.0265e-06,-1991,-0.00067484,-7069.2,0.000229
2751,0.18391,4,0,0.00071579,7152.9,0.00040448,1015,8.1026e-07,-2018,-0.00068284,-7154.7,0.00023147
2752,0.18391,3.8182,0,0.00072224,7217.4,0.00040813,1022.9,6.6105e-07,-2038.7,-0.00068902,-7220.7,0.00023337
2753,0.18391,3.6364,0,0.00072709,7265.9,0.00041086,1028.7,5.5837e-07,-2054.2,-0.00069367,-7270.4,0.00023479
2754,0.18391,3.4545,0,0.00073057,7300.6,0.00041282,1032.9,4.8971e-07,-2065.2,-0.00069701,-7305.9,0.00023581
2755,0.18391,3.2727,0,0.00073281,7323,0.00041408,1035.6,4.4751e-07,-2072.3,-0.00069915,-7328.8,0.00023646
2756,0.18391,3.0909,0,0.00073391,7334,0.0004147,1036.9,4.2739e-07,-2075.8,-0.00070021,-7340.1,0.00023678
2757,0.18391,2.9091,0,0.00073391,7334,0.0004147,1036.9,4.2739e-07,-2075.8,-0.00070021,-7340.1,0.00023678
2758,0.18391,2.7273,0,0.00073281,7323,0.00041408,1035.6,4.475e-07,-2072.3,-0.00069915,-7328.8,0.00023646
2759,0.18391,2.5455,0,0.00073057,7300.6,0.00041282,1032.9,4.8971e-07,-2065.2,-0.00069701,-7305.9,0.00023581
2760,0.18391,2.3636,0,0.00072709,7265.9,0.00041086,1028.7,5.5837e-07,-2054.2,-0.00069367,-7270.4,0.00023479
2761,0.18391,2.1818,0,0.00072224,7217.4,0.00040813,1022.9,6.6105e-07,-2038.7,-0.00068902,-7220.7,0.00023337
2762,0.18391,2,0,0.00071579,7152.9,0.00040448,1015,8.1025e-07,-2018,-0.00068284,-7154.7,0.00023147
2763,0.18391,1.8182,0,0.00070743,7069.4,0.00039975,1004.9,1.0265e-06,-1991,-0.00067484,-7069.2,0.000229
2764,0.18391,1.6364,0,0.00069673,6962.5,0.00039367,991.69,1.3443e-06,-1956.1,-0.00066462,-6959.8,0.00022582
2765,0.18391,1.4545,0,0.00068309,6826.2,0.00038587,974.72,1.8239e-06,-1910.9,-0.0006516,-6820.4,0.00022174
2766,0.18391,1.2727,0,0.00066564,6651.8,0.00037582,952.63,2.5778e-06,-1851.8,-0.00063498,-6642.2,0.00021645
2767,0.18391,1.0909,0,0.00064312,6426.8,0.00036272,923.55,3.8259e-06,-1773,-0.00061361,-6412.2,0.00020952
2768,0.18391,0.90909,0,0.00061368,6132.5,0.00034525,883.93,6.0731e-06,-1664.5,-0.00058584,-6111.9,0.00020024
2769,0.18391,0.72727,0,0.00057463,5742.3,0.0003214,829.07,1.0459e-05,-1507.2,-0.00054931,-5713.1,0.00018738
2770,0.18391,0.54545,0,0.00052251,5221.5,0.00028708,743.55,2.0744e-05,-1257.6,-0.00050164,-5182.5,0.00016867
2771,0.18391,0.36364,0,0.00045586,4555.4,0.00023647,610.7,4.5853e-05,-821.54,-0.00044222,-4488.7,0.00013916
2772,0.18391,0.18182,0,0.00040583,4055.5,0.00015988,314.42,0.00011806,0.18961,-0.00039956,-3889.1,8.8468e-05
2773,16.349,0.18182,0,3.1176e-05,311.54,1.4582e-05,47.045,6.9963e-06,-9.9496,-3.0151e-05,-289.06,1.2238
2774,16.349,0.36364,0,4.5553e-05,455.21,2.255e-05,89.931,9.9084e-06,-5.0487,-4.3359e-05,-405.28,1.2242
2775,16.349,0.54545,0,6.3694e-05,636.5,3.4091e-05,160.55,1.2214e-05,-3.8308,-5.9414e-05,-542.02,1.2247
2776,16.349,0.72727,0,8.4187e-05,841.29,4.7488e-05,244.86,1.4446e-05,-3.4079,-7.7284e-05,-692.63,1.2252
2777,16.349,0.90909,0,0.00010774,1076.7,6.2951e-05,342.66,1.6888e-05,-3.4387,-9.7711e-05,-864.49,1.2257
2778,16.349,1.0909,0,0.00013577,1356.8,8.1254e-05,457.5,1.9791e-05,-4.3065,-0.00012203,-1069.9,1.2262
2779,16.349,1.2727,0,0.00017076,1706.4,0.00010376,597.19,2.3751e-05,-3.9557,-0.00015252,-1328.4,1.2267
2780,16.349,1.4545,0,0.00021684,2166.9,0.00013258,765.98,2.9136e-05,-11.248,-0.00019328,-1682.4,1.2273
2781,16.349,1.6364,0,0.00028453,2843.3,0.00017366,1010.3,3.9515e-05,2.4135,-0.00025356,-2199.6,1.2278
2782,16.349,1.8182,0,0.0003862,3859.3,0.00021765,1090.4,6.3139e-05,-70.563,-0.00035551,-3216.2,1.2284
2783,16.349,2,0,0.00047966,4793.3,0.00022434,673.17,0.00010255,-241.93,-0.00046573,-4511.7,1.229
2784,16.349,2.1818,0,0.00048379,4834.5,0.0001891,344.45,0.00014055,-20.33,-0.00047724,-4662.1,1.2295
2785,16.349,2.3636,0,0.0004588,4584.8,0.00018351,384.07,0.00013124,-8.6518,-0.00045115,-4384.5,1.2299
2786,16.349,2.5455,0,0.00042502,4247.3,0.00017018,363.75,0.00012201,1.8508,-0.00041764,-4052.9,1.2302
2787,16.349,2.7273,0,0.00040518,4049,0.00016301,354.44,0.00011565,-1.3912,-0.00039799,-3860.7,1.2304
2788,16.349,2.9091,0,0.00039576,3954.9,0.0001593,347.91,0.00011298,-0.13855,-0.0003887,-3769.5,1.2305
2789,16.349,3.0909,0,0.00039576,3954.9,0.0001593,347.91,0.00011298,-0.13855,-0.0003887,-3769.5,1.2305
2790,16.349,3.2727,0,0.00040518,4049,0.00016301,354.44,0.00011565,-1.3912,-0.00039799,-3860.7,1.2304
2791,16.349,3.4545,0,0.00042502,4247.3,0.00017018,363.75,0.00012201,1.8508,-0.00041764,-4052.9,1.2302
2792,16.349,3.6364,0,0.0004588,4584.8,0.00018351,384.07,0.00013124,-8.6517,-0.00045115,-4384.5,1.2299
2793,16.349,3.8182,0,0.00048379,4834.5,0.0001891,344.45,0.00014055,-20.33,-0.00047724,-4662.1,1.2295
2794,16.349,4,0,0.00047966,4793.3,0.00022434,673.17,0.00010255,-241.93,-0.00046573,-4511.7,1.229
2795,16.349,4.1818,0,0.0003862,3859.3,0.00021765,1090.4,6.3139e-05,-70.563,-0.00035551,-3216.2,1.2284
2796,16.349,4.3636,0,0.00028453,2843.3,0.00017366,1010.3,3.9515e-05,2.4135,-0.00025356,-2199.6,1.2278
2797,16.349,4.5455,0,0.00021684,2166.9,0.00013258,765.98,2.9136e-05,-11.248,-0.00019328,-1682.4,1.2273
2798,16.349,4.7273,0,0.00017076,1706.4,0.00010376,597.19,2.3751e-05,-3.9557,-0.00015252,-1328.4,1.2267
2799,16.349,4.9091,0,0.00013577,1356.8,8.1254e-05,457.5,1.9791e-05,-4.3065,-0.00012203,-1069.9,1.2262
2800,16.349,5.0909,0,0.00010774,1076.7,6.2951e-05,342.66,1.6888e-05,-3.4387,-9.7711e-05,-864.49,1.2257
2801,16.349,5.2727,0,8.4187e-05,841.29,4.7488e-05,244.86,1.4446e-05,-3.4079,-7.7284e-05,-692.63,1.2252
2802,16.349,5.4545,0,6.3694e-05,636.5,3.4091e-05,160.55,1.2214e-05,-3.8308,-5.9414e-05,-542.02,1.2247
2803,16.349,5.6364,0,4.5553e-05,455.21,2.255e-05,89.931,9.9084e-06,-5.0487,-4.3359e-05,-405.28,1.2242
2804,16.349,5.8182,0,3.1176e-05,311.54,1.4582e-05,47.045,6.9963e-06,-9.9496,-3.0151e-05,-289.06,1.2238
2805,16.531,0.18182,0,4.596e-05,459.29,1.825e-05,35.136,1.3068e-05,-3.7968,-4.5303e-05,-442.38,1.249
2806,16.531,0.36364,0,5.3148e-05,531.11,2.1437e-05,45.48,1.4972e-05,-3.0986,-5.226e-05,-508.25,1.2494
2807,16.531,0.54545,0,6.5857e-05,658.12,2.8751e-05,84.552,1.7244e-05,-1.9075,-6.4024e-05,-612.52,1.2499
2808,16.531,0.72727,0,8.2067e-05,820.1,3.8456e-05,138.97,1.9798e-05,-1.2204,-7.8819e-05,-742.19,1.2503
2809,16.531,0.90909,0,0.00010148,1014.1,4.9966e-05,202.74,2.2851e-05,-0.99128,-9.6496e-05,-897.72,1.2508
2810,16.531,1.0909,0,0.00012459,1245,6.3208e-05,272.9,2.6769e-05,-0.88955,-0.00011768,-1086.2,1.2513
2811,16.531,1.2727,0,0.00015255,1524.4,7.8361e-05,346.55,3.2089e-05,-1.1253,-0.00014367,-1321.7,1.2517
2812,16.531,1.4545,0,0.00018644,1863.1,9.4722e-05,409.82,3.9933e-05,-1.846,-0.00017605,-1624.7,1.2522
2813,16.531,1.6364,0,0.00022763,2274.7,0.00011042,434.25,5.2483e-05,-1.031,-0.00021711,-2026.7,1.2526
2814,16.531,1.8182,0,0.00027566,2754.7,0.00012163,375.47,7.1877e-05,1.6497,-0.00026734,-2547.1,1.2531
2815,16.531,2,0,0.0003164,3161.9,0.00011701,172.55,9.8735e-05,35.218,-0.00031265,-3055.7,1.2535
2816,16.531,2.1818,0,0.00035274,3525,0.00012468,107.35,0.00011218,13.442,-0.00035059,-3463.7,1.2539
2817,16.531,2.3636,0,0.00036571,3654.6,0.00013274,141.32,0.00011308,-6.3747,-0.00036319,-3584.9,1.2542
2818,16.531,2.5455,0,0.00036517,3649.2,0.00013568,182.8,0.00011131,-0.32406,-0.00036172,-3554.5,1.2545
2819,16.531,2.7273,0,0.00036016,3599.1,0.00013551,200.9,0.00010875,-0.10768,-0.00035632,-3494.5,1.2546
2820,16.531,2.9091,0,0.00035691,3566.7,0.00013507,208.78,0.00010729,0.029379,-0.0003529,-3457.7,1.2547
2821,16.531,3.0909,0,0.00035691,3566.7,0.00013507,208.78,0.00010729,0.02938,-0.0003529,-3457.7,1.2547
2822,16.531,3.2727,0,0.00036016,3599.1,0.00013551,200.9,0.00010875,-0.10768,-0.00035632,-3494.5,1.2546
2823,16.531,3.4545,0,0.00036517,3649.2,0.00013568,182.8,0.00011131,-0.32406,-0.00036172,-3554.5,1.2545
2824,16.531,3.6364,0,0.00036571,3654.6,0.00013274,141.32,0.00011308,-6.3747,-0.00036319,-3584.9,1.2542
2825,16.531,3.8182,0,0.00035274,3525,0.00012468,107.35,0.00011218,13.442,-0.00035059,-3463.7,1.2539
2826,16.531,4,0,0.0003164,3161.9,0.00011701,172.55,9.8735e-05,35.218,-0.00031265,-3055.7,1.2535
2827,16.531,4.1818,0,0.00027566,2754.7,0.00012163,375.47,7.1877e-05,1.6497,-0.00026734,-2547.1,1.2531
2828,16.531,4.3636,0,0.00022763,2274.7,0.00011042,434.25,5.2483e-05,-1.031,-0.00021711,-2026.7,1.2526
2829,16.531,4.5455,0,0.00018644,1863.1,9.4722e-05,409.82,3.9933e-05,-1.846,-0.00017605,-1624.7,1.2522
2830,16.531,4.7273,0,0.00015255,1524.4,7.8361e-05,346.55,3.2089e-05,-1.1253,-0.00014367,-1321.7,1.2517
2831,16.531,4.9091,0,0.00012459,1245,6.3208e-05,272.9,2.6769e-05,-0.88955,-0.00011768,-1086.2,1.2513
2832,16.531,5.0909,0,0.00010148,1014.1,4.9966e-05,202.74,2.2851e-05,-0.99129,-9.6496e-05,-897.72,1.2508
2833,16.531,5.2727,0,8.2067e-05,820.1,3.8456e-05,138.97,1.9798e-05,-1.2204,-7.8819e-05,-742.19,1.2503
2834,16.531,5.4545,0,6.5857e-05,658.12,2.8751e-05,84.552,1.7244e-05,-1.9075,-6.4024e-05,-612.52,1.2499
2835,16.531,5.6364,0,5.3148e-05,531.11,2.1437e-05,45.48,1.4972e-05,-3.0986,-5.226e-05,-508.25,1.2494
2836,16.531,5.8182,0,4.596e-05,459.29,1.825e-05,35.136,1.3068e-05,-3.7968,-4.5303e-05,-442.38,1.249
2837,16.713,0.18182,0,6.1291e-05,612.49,2.3309e-05,36.089,1.8246e-05,-1.9499,-6.0622e-05,-594.53,1.2742
2838,16.713,0.36364,0,6.6e-05,659.54,2.5039e-05,37.991,1.9674e-05,-2.3167,-6.53e-05,-640.78,1.2747
2839,16.713,0.54545,0,7.5244e-05,751.92,2.9747e-05,58.305,2.1706e-05,-2.1053,-7.4106e-05,-722,1.2751
2840,16.713,0.72727,0,8.7991e-05,879.3,3.6524e-05,89.942,2.431e-05,-1.8269,-8.6132e-05,-831.65,1.2755
2841,16.713,0.90909,0,0.00010387,1038,4.4818e-05,127.52,2.7613e-05,-1.7488,-0.00010112,-969.01,1.2759
2842,16.713,1.0909,0,0.00012284,1227.6,5.4181e-05,165.54,3.1892e-05,-1.9329,-0.0001192,-1137.1,1.2763
2843,16.713,1.2727,0,0.00014502,1449.2,6.4025e-05,196.21,3.7614e-05,-2.2349,-0.0001407,-1342,1.2767
2844,16.713,1.4545,0,0.00017052,1704.1,7.3437e-05,207.72,4.5441e-05,-2.6376,-0.00016606,-1591.7,1.2771
2845,16.713,1.6364,0,0.00019812,1979.8,8.04e-05,178.8,5.581e-05,-5.9633,-0.00019453,-1886.9,1.2775
2846,16.713,1.8182,0,0.00022686,2267.1,8.3523e-05,101.02,6.9327e-05,-5.6408,-0.00022505,-2217.5,1.2779
2847,16.713,2,0,0.00025549,2553.2,8.6263e-05,16.73,8.2541e-05,-11.237,-0.00025539,-2550.3,1.2782
2848,16.713,2.1818,0,0.00028106,2808.7,9.3842e-05,-2.8668,9.0638e-05,-26.942,-0.00028156,-2823.5,1.2785
2849,16.713,2.3636,0,0.00029998,2997.8,0.00010041,9.7024,9.7483e-05,-12.321,-0.00030002,-2999,1.2787
2850,16.713,2.5455,0,0.0003095,3092.8,0.00010511,34.517,0.00010025,-1.9889,-0.00030893,-3076.4,1.2789
2851,16.713,2.7273,0,0.0003132,3129.9,0.00010835,59.979,0.00010038,0.077897,-0.00031214,-3099.4,1.2791
2852,16.713,2.9091,0,0.00031423,3140.1,0.00010974,72.902,0.0001001,0.4582,-0.00031292,-3102.8,1.2792
2853,16.713,3.0909,0,0.00031423,3140.1,0.00010974,72.902,0.0001001,0.4582,-0.00031292,-3102.8,1.2792
2854,16.713,3.2727,0,0.0003132,3129.9,0.00010835,59.979,0.00010038,0.077897,-0.00031214,-3099.4,1.2791
2855,16.713,3.4545,0,0.0003095,3092.8,0.00010511,34.517,0.00010025,-1.9889,-0.00030893,-3076.4,1.2789
2856,16.713,3.6364,0,0.00029998,2997.8,0.00010041,9.7024,9.7483e-05,-12.321,-0.00030002,-2999,1.2787
2857,16.713,3.8182,0,0.00028106,2808.7,9.3842e-05,-2.8668,9.0638e-05,-26.942,-0.00028156,-2823.5,1.2785
2858,16.713,4,0,0.00025549,2553.2,8.6263e-05,16.73,8.2541e-05,-11.237,-0.00025539,-2550.3,1.2782
2859,16.713,4.1818,0,0.00022686,2267.1,8.3523e-05,101.02,6.9327e-05,-5.6408,-0.00022505,-2217.5,1.2779
2860,16.713,4.3636,0,0.00019812,1979.8,8.04e-05,178.8,5.581e-05,-5.9633,-0.00019453,-1886.9,1.2775
2861,16.713,4.5455,0,0.00017052,1704.1,7.3437e-05,207.72,4.5441e-05,-2.6376,-0.00016606,-1591.7,1.2771
2862,16.713,4.7273,0,0.00014502,1449.2,6.4025e-05,196.21,3.7614e-05,-2.2349,-0.0001407,-1342,1.2767
2863,16.713,4.9091,0,0.00012284,1227.6,5.4181e-05,165.54,3.1892e-05,-1.9329,-0.0001192,-1137.1,1.2763
2864,16.713,5.0909,0,0.00010387,1038,4.4818e-05,127.52,2.7613e-05,-1.7488,-0.00010112,-969.01,1.2759
2865,16.713,5.2727,0,8.7991e-05,879.3,3.6524e-05,89.942,2.431e-05,-1.8269,-8.6132e-05,-831.65,1.2755
2866,16.713,5.4545,0,7.5244e-05,751.92,2.9747e-05,58.305,2.1706e-05,-2.1053,-7.4106e-05,-722,1.2751
2867,16.713,5.6364,0,6.6e-05,659.54,2.5039e-05,37.991,1.9674e-05,-2.3167,-6.53e-05,-640.78,1.2747
2868,16.713,5.8182,0,6.1291e-05,612.49,2.3309e-05,36.089,1.8246e-05,-1.9499,-6.0622e-05,-594.53,1.2742
2869,16.895,0.18182,0,7.4611e-05,745.59,2.7722e-05,36.911,2.2703e-05,-0.79908,-7.3925e-05,-726.82,1.2995
2870,16.895,0.36364,0,7.8317e-05,782.63,2.9004e-05,37.37,2.3868e-05,-1.2209,-7.7631e-05,-763.84,1.2999
2871,16.895,0.54545,0,8.5411e-05,853.53,3.2179e-05,47.331,2.5684e-05,-1.4727,-8.4527e-05,-829.55,1.3003
2872,16.895,0.72727,0,9.5362e-05,952.96,3.673e-05,62.68,2.8182e-05,-1.5395,-9.416e-05,-920.77,1.3007
2873,16.895,0.90909,0,0.00010795,1078.8,4.231e-05,79.975,3.145e-05,-1.6205,-0.00010639,-1037.3,1.3011
2874,16.895,1.0909,0,0.00012296,1228.8,4.8451e-05,94.269,3.5666e-05,-1.7924,-0.00012111,-1179.7,1.3015
2875,16.895,1.2727,0,0.00014013,1400.4,5.4528e-05,98.91,4.1069e-05,-2.2086,-0.00013821,-1349.3,1.3018
2876,16.895,1.4545,0,0.00015902,1589.1,5.9756e-05,86.035,4.79e-05,-3.0401,-0.00015742,-1545.8,1.3022
2877,16.895,1.6364,0,0.00017903,1789,6.3487e-05,50.227,5.6177e-05,-4.704,-0.00017819,-1765.6,1.3025
2878,16.895,1.8182,0,0.00019932,1991.8,6.7606e-05,8.8081,6.3473e-05,-22.246,-0.00019953,-1998.3,1.3028
2879,16.895,2,0,0.00021963,2194.8,7.6184e-05,2.944,6.6415e-05,-70.459,-0.00022069,-2227.6,1.303
2880,16.895,2.1818,0,0.00023865,2384.9,8.3674e-05,2.1153,7.0515e-05,-96.755,-0.00024011,-2430.6,1.3033
2881,16.895,2.3636,0,0.00025434,2541.6,8.8496e-05,0.74455,7.6186e-05,-91.748,-0.00025576,-2585.8,1.3035
2882,16.895,2.5455,0,0.00026537,2651.9,9.1107e-05,1.1264,8.1651e-05,-69.916,-0.00026647,-2685.6,1.3036
2883,16.895,2.7273,0,0.00027176,2715.8,9.2159e-05,0.95257,8.5559e-05,-48.64,-0.00027254,-2739.3,1.3037
2884,16.895,2.9091,0,0.00027457,2743.9,9.2474e-05,0.67366,8.751e-05,-36.621,-0.00027517,-2761.6,1.3038
2885,16.895,3.0909,0,0.00027457,2743.9,9.2474e-05,0.67366,8.751e-05,-36.621,-0.00027517,-2761.6,1.3038
2886,16.895,3.2727,0,0.00027176,2715.8,9.2159e-05,0.95257,8.5559e-05,-48.64,-0.00027254,-2739.3,1.3037
2887,16.895,3.4545,0,0.00026537,2651.9,9.1107e-05,1.1264,8.1651e-05,-69.916,-0.00026647,-2685.6,1.3036
2888,16.895,3.6364,0,0.00025434,2541.6,8.8496e-05,0.74455,7.6186e-05,-91.748,-0.00025576,-2585.8,1.3035
2889,16.895,3.8182,0,0.00023865,2384.9,8.3674e-05,2.1153,7.0515e-05,-96.755,-0.00024011,-2430.6,1.3033
2890,16.895,4,0,0.00021963,2194.8,7.6184e-05,2.944,6.6415e-05,-70.459,-0.00022069,-2227.6,1.303
2891,16.895,4.1818,0,0.00019932,1991.8,6.7606e-05,8.8081,6.3473e-05,-22.246,-0.00019953,-1998.3,1.3028
2892,16.895,4.3636,0,0.00017903,1789,6.3487e-05,50.227,5.6177e-05,-4.704,-0.00017819,-1765.6,1.3025
2893,16.895,4.5455,0,0.00015902,1589.1,5.9756e-05,86.035,4.79e-05,-3.0401,-0.00015742,-1545.8,1.3022
2894,16.895,4.7273,0,0.00014013,1400.4,5.4528e-05,98.91,4.1069e-05,-2.2086,-0.00013821,-1349.3,1.3018
2895,16.895,4.9091,0,0.00012296,1228.8,4.8451e-05,94.269,3.5666e-05,-1.7924,-0.00012111,-1179.7,1.3015
2896,16.895,5.0909,0,0.00010795,1078.8,4.231e-05,79.975,3.145e-05,-1.6205,-0.00010639,-1037.3,1.3011
2897,16.895,5.2727,0,9.5362e-05,952.96,3.673e-05,62.68,2.8182e-05,-1.5395,-9.416e-05,-920.77,1.3007
2898,16.895,5.4545,0,8.5411e-05,853.53,3.2179e-05,47.331,2.5684e-05,-1.4727,-8.4527e-05,-829.55,1.3003
2899,16.895,5.6364,0,7.8317e-05,782.63,2.9004e-05,37.37,2.3868e-05,-1.2209,-7.7631e-05,-763.84,1.2999
2900,16.895,5.8182,0,7.4611e-05,745.59,2.7722e-05,36.911,2.2703e-05,-0.79908,-7.3925e-05,-726.82,1.2995
2901,17.078,0.18182,0,8.5594e-05,855.35,3.1247e-05,35.924,2.6417e-05,-0.36423,-8.4931e-05,-836.99,1.3248
2902,17.078,0.36364,0,8.8746e-05,886.85,3.2384e-05,36.876,2.7379e-05,-0.73056,-8.8072e-05,-868.18,1.3252
2903,17.078,0.54545,0,9.4387e-05,943.22,3.4611e-05,41.102,2.9e-05,-1.057,-9.3635e-05,-922.49,1.3256
2904,17.078,0.72727,0,0.00010217,1021,3.7597e-05,45.968,3.1299e-05,-1.3573,-0.00010133,-997.87,1.326
2905,17.078,0.90909,0,0.00011198,1119,4.1144e-05,49.522,3.433e-05,-1.6811,-0.00011107,-1094.2,1.3263
2906,17.078,1.0909,0,0.00012358,1234.9,4.4913e-05,48.475,3.8173e-05,-2.1704,-0.00012271,-1211,1.3267
2907,17.078,1.2727,0,0.00013665,1365.6,4.849e-05,38.905,4.2884e-05,-3.2144,-0.000136,-1347.3,1.327
2908,17.078,1.4545,0,0.00015077,1506.7,5.1701e-05,19.088,4.8201e-05,-7.207,-0.00015055,-1500.6,1.3273
2909,17.078,1.6364,0,0.00016546,1653.4,5.6462e-05,4.2785,5.1829e-05,-30.53,-0.00016588,-1666.3,1.3275
2910,17.078,1.8182,0,0.0001804,1802.8,6.3264e-05,1.4407,5.3263e-05,-73.703,-0.00018151,-1837.7,1.3278
2911,17.078,2,0,0.00019526,1951.2,7.0044e-05,0.42595,5.4786e-05,-114.22,-0.00019694,-2005.6,1.328
2912,17.078,2.1818,0,0.00020944,2093,7.5858e-05,0.22011,5.7458e-05,-138.03,-0.00021144,-2158.4,1.3282
2913,17.078,2.3636,0,0.00022187,2217.2,8.0185e-05,0.578,6.1216e-05,-141.94,-0.00022394,-2284.5,1.3284
2914,17.078,2.5455,0,0.00023148,2313.2,8.2936e-05,0.64535,6.5144e-05,-133.04,-0.00023344,-2376.5,1.3285
2915,17.078,2.7273,0,0.00023779,2376.3,8.445e-05,0.62905,6.8237e-05,-121.19,-0.00023961,-2434.2,1.3286
2916,17.078,2.9091,0,0.00024086,2407,8.5098e-05,0.61193,6.9891e-05,-113.64,-0.00024258,-2461.4,1.3286
2917,17.078,3.0909,0,0.00024086,2407,8.5098e-05,0.61194,6.9891e-05,-113.64,-0.00024258,-2461.4,1.3286
2918,17.078,3.2727,0,0.00023779,2376.3,8.445e-05,0.62905,6.8237e-05,-121.19,-0.00023961,-2434.2,1.3286
2919,17.078,3.4545,0,0.00023148,2313.2,8.2936e-05,0.64535,6.5144e-05,-133.04,-0.00023344,-2376.5,1.3285
2920,17.078,3.6364,0,0.00022187,2217.2,8.0185e-05,0.578,6.1216e-05,-141.94,-0.00022394,-2284.5,1.3284
2921,17.078,3.8182,0,0.00020944,2093,7.5858e-05,0.22011,5.7458e-05,-138.03,-0.00021144,-2158.4,1.3282
2922,17.078,4,0,0.00019526,1951.2,7.0044e-05,0.42595,5.4786e-05,-114.22,-0.00019694,-2005.6,1.328
2923,17.078,4.1818,0,0.0001804,1802.8,6.3264e-05,1.4407,5.3263e-05,-73.703,-0.00018151,-1837.7,1.3278
2924,17.078,4.3636,0,0.00016546,1653.4,5.6462e-05,4.2785,5.1829e-05,-30.53,-0.00016588,-1666.3,1.3275
2925,17.078,4.5455,0,0.00015077,1506.7,5.1701e-05,19.088,4.8201e-05,-7.207,-0.00015055,-1500.6,1.3273
2926,17.078,4.7273,0,0.00013665,1365.6,4.849e-05,38.905,4.2884e-05,-3.2144,-0.000136,-1347.3,1.327
2927,17.078,4.9091,0,0.00012358,1234.9,4.4913e-05,48.475,3.8173e-05,-2.1704,-0.00012271,-1211,1.3267
2928,17.078,5.0909,0,0.00011198,1119,4.1144e-05,49.522,3.433e-05,-1.6811,-0.00011107,-1094.2,1.3263
2929,17.078,5.2727,0,0.00010217,1021,3.7597e-05,45.968,3.1299e-05,-1.3573,-0.00010133,-997.87,1.326
2930,17.078,5.4545,0,9.4387e-05,943.22,3.4611e-05,41.102,2.9e-05,-1.057,-9.3635e-05,-922.49,1.3256
2931,17.078,5.6364,0,8.8746e-05,886.85,3.2384e-05,36.876,2.7379e-05,-0.73056,-8.8072e-05,-868.18,1.3252
2932,17.078,5.8182,0,8.5594e-05,855.35,3.1247e-05,35.924,2.6417e-05,-0.36423,-8.4931e-05,-836.99,1.3248
2933,17.26,0.18182,0,9.4286e-05,942.2,3.3914e-05,33.599,2.9422e-05,-0.15278,-9.3671e-05,-925.03,1.3502
2934,17.26,0.36364,0,9.7003e-05,969.36,3.4956e-05,35.159,3.0215e-05,-0.46229,-9.6364e-05,-951.52,1.3506
2935,17.26,0.54545,0,0.00010154,1014.7,3.6545e-05,36.092,3.1643e-05,-0.74551,-0.00010089,-996.56,1.3509
2936,17.26,0.72727,0,0.00010763,1075.6,3.8451e-05,34.592,3.3694e-05,-1.1519,-0.00010702,-1058.4,1.3513
2937,17.26,0.90909,0,0.00011519,1151.1,4.0584e-05,29.841,3.6376e-05,-1.7744,-0.00011468,-1136.8,1.3516
2938,17.26,1.0909,0,0.00012404,1239.5,4.2801e-05,20.521,3.9644e-05,-3.1983,-0.00012373,-1230.7,1.3519
2939,17.26,1.2727,0,0.00013391,1338.2,4.5335e-05,8.2451,4.3004e-05,-9.2694,-0.00013392,-1338.6,1.3522
2940,17.26,1.4545,0,0.00014448,1443.8,4.943e-05,2.6812,4.4937e-05,-31.077,-0.00014493,-1457.7,1.3525
2941,17.26,1.6364,0,0.00015544,1553.3,5.459e-05,1.2951,4.5762e-05,-65.038,-0.00015642,-1584.1,1.3527
2942,17.26,1.8182,0,0.00016657,1664.6,6.0056e-05,0.74633,4.6241e-05,-103.06,-0.00016807,-1713.3,1.3529
2943,17.26,2,0,0.00017764,1775.2,6.5317e-05,0.54037,4.7024e-05,-136.9,-0.00017956,-1839.4,1.3531
2944,17.26,2.1818,0,0.00018824,1881.1,6.9903e-05,0.45234,4.8578e-05,-159.77,-0.00019044,-1955.7,1.3533
2945,17.26,2.3636,0,0.00019773,1975.9,7.3506e-05,0.40066,5.0871e-05,-169.66,-0.00020005,-2055,1.3534
2946,17.26,2.5455,0,0.00020538,2052.4,7.6047e-05,0.44657,5.3398e-05,-169.73,-0.00020773,-2131.8,1.3535
2947,17.26,2.7273,0,0.00021069,2105.4,7.7609e-05,0.49434,5.5501e-05,-165.62,-0.000213,-2183.1,1.3536
2948,17.26,2.9091,0,0.00021337,2132.3,7.8339e-05,0.50862,5.6677e-05,-162.25,-0.00021566,-2208.5,1.3536
2949,17.26,3.0909,0,0.00021337,2132.3,7.8339e-05,0.50861,5.6677e-05,-162.25,-0.00021566,-2208.5,1.3536
2950,17.26,3.2727,0,0.00021069,2105.4,7.7609e-05,0.49434,5.5501e-05,-165.62,-0.000213,-2183.1,1.3536
2951,17.26,3.4545,0,0.00020539,2052.4,7.6047e-05,0.44657,5.3398e-05,-169.73,-0.00020773,-2131.8,1.3535
2952,17.26,3.6364,0,0.00019773,1975.9,7.3506e-05,0.40067,5.0871e-05,-169.66,-0.00020006,-2055,1.3534
2953,17.26,3.8182,0,0.00018824,1881.1,6.9903e-05,0.45234,4.8578e-05,-159.77,-0.00019044,-1955.7,1.3533
2954,17.26,4,0,0.00017764,1775.2,6.5317e-05,0.54037,4.7024e-05,-136.9,-0.00017956,-1839.4,1.3531
2955,17.26,4.1818,0,0.00016657,1664.6,6.0056e-05,0.74633,4.6241e-05,-103.06,-0.00016807,-1713.3,1.3529
2956,17.26,4.3636,0,0.00015544,1553.3,5.459e-05,1.2951,4.5762e-05,-65.038,-0.00015642,-1584.1,1.3527
2957,17.26,4.5455,0,0.00014448,1443.8,4.943e-05,2.6812,4.4937e-05,-31.077,-0.00014493,-1457.7,1.3525
2958,17.26,4.7273,0,0.00013391,1338.2,4.5335e-05,8.2452,4.3004e-05,-9.2694,-0.00013392,-1338.6,1.3522
2959,17.26,4.9091,0,0.00012404,1239.5,4.2801e-05,20.521,3.9644e-05,-3.1983,-0.00012373,-1230.7,1.3519
2960,17.26,5.0909,0,0.00011519,1151.1,4.0584e-05,29.841,3.6376e-05,-1.7744,-0.00011468,-1136.8,1.3516
2961,17.26,5.2727,0,0.00010763,1075.6,3.8451e-05,34.592,3.3694e-05,-1.1519,-0.00010702,-1058.4,1.3513
2962,17.26,5.4545,0,0.00010154,1014.7,3.6545e-05,36.092,3.1643e-05,-0.74551,-0.00010089,-996.56,1.3509
2963,17.26,5.6364,0,9.7003e-05,969.36,3.4956e-05,35.159,3.0215e-05,-0.46228,-9.6364e-05,-951.52,1.3506
2964,17.26,5.8182,0,9.4286e-05,942.2,3.3914e-05,33.599,2.9422e-05,-0.15278,-9.3671e-05,-925.03,1.3502
2965,17.442,0.18182,0,0.00010085,1007.8,3.5819e-05,30.467,3.1756e-05,-0.064398,-0.0001003,-992.29,1.3756
2966,17.442,0.36364,0,0.00010316,1030.9,3.674e-05,32.234,3.2407e-05,-0.32079,-0.00010258,-1014.6,1.376
2967,17.442,0.54545,0,0.00010681,1067.3,3.7866e-05,31.169,3.3645e-05,-0.54717,-0.00010625,-1051.7,1.3763
2968,17.442,0.72727,0,0.00011154,1114.7,3.9023e-05,25.988,3.5431e-05,-0.9968,-0.0001111,-1101.9,1.3767
2969,17.442,0.90909,0,0.00011733,1172.4,4.0223e-05,16.841,3.7708e-05,-2.0547,-0.00011706,-1164.9,1.377
2970,17.442,1.0909,0,0.00012402,1239.3,4.1783e-05,6.1591,4.0038e-05,-6.9485,-0.00012403,-1239.7,1.3772
2971,17.442,1.2727,0,0.00013142,1313.3,4.4749e-05,2.024,4.121e-05,-24.568,-0.00013179,-1324.4,1.3775
2972,17.442,1.4545,0,0.00013933,1392.3,4.8595e-05,1.0514,4.1592e-05,-51.564,-0.00014011,-1416.8,1.3777
2973,17.442,1.6364,0,0.00014752,1474.2,5.2826e-05,0.65522,4.159e-05,-83.764,-0.00014875,-1513.9,1.378
2974,17.442,1.8182,0,0.00015584,1557.3,5.716e-05,0.44146,4.1502e-05,-117.2,-0.00015749,-1612.4,1.3782
2975,17.442,2,0,0.0001641,1639.9,6.13e-05,0.31473,4.1685e-05,-147.07,-0.0001661,-1708.3,1.3783
2976,17.442,2.1818,0,0.00017201,1718.9,6.4967e-05,0.27382,4.2392e-05,-169.35,-0.00017426,-1797.2,1.3785
2977,17.442,2.3636,0,0.00017914,1790.2,6.7957e-05,0.3018,4.3612e-05,-182.62,-0.00018154,-1874.3,1.3786
2978,17.442,2.5455,0,0.000185,1848.8,7.0169e-05,0.34369,4.5061e-05,-188.31,-0.00018748,-1935.5,1.3787
2979,17.442,2.7273,0,0.00018915,1890.2,7.1601e-05,0.37998,4.6331e-05,-189.49,-0.00019165,-1977.6,1.3787
2980,17.442,2.9091,0,0.00019129,1911.6,7.2298e-05,0.40101,4.7065e-05,-189.19,-0.0001938,-1998.9,1.3788
2981,17.442,3.0909,0,0.00019129,1911.6,7.2298e-05,0.40101,4.7065e-05,-189.19,-0.0001938,-1998.9,1.3788
2982,17.442,3.2727,0,0.00018915,1890.2,7.1601e-05,0.37998,4.6331e-05,-189.49,-0.00019165,-1977.6,1.3787
2983,17.442,3.4545,0,0.000185,1848.8,7.0169e-05,0.34369,4.5061e-05,-188.31,-0.00018748,-1935.5,1.3787
2984,17.442,3.6364,0,0.00017914,1790.2,6.7957e-05,0.3018,4.3612e-05,-182.62,-0.00018154,-1874.3,1.3786
2985,17.442,3.8182,0,0.00017201,1718.9,6.4967e-05,0.27382,4.2392e-05,-169.35,-0.00017426,-1797.2,1.3785
2986,17.442,4,0,0.0001641,1639.9,6.13e-05,0.31473,4.1685e-05,-147.07,-0.0001661,-1708.3,1.3783
2987,17.442,4.1818,0,0.00015584,1557.3,5.716e-05,0.44146,4.1502e-05,-117.2,-0.00015749,-1612.4,1.3782
2988,17.442,4.3636,0,0.00014752,1474.2,5.2826e-05,0.65522,4.159e-05,-83.764,-0.00014875,-1513.9,1.378
2989,17.442,4.5455,0,0.00013933,1392.3,4.8595e-05,1.0514,4.1592e-05,-51.564,-0.00014011,-1416.8,1.3777
2990,17.442,4.7273,0,0.00013142,1313.3,4.4749e-05,2.024,4.121e-05,-24.568,-0.00013179,-1324.4,1.3775
2991,17.442,4.9091,0,0.00012402,1239.3,4.1783e-05,6.1591,4.0038e-05,-6.9485,-0.00012403,-1239.7,1.3772
2992,17.442,5.0909,0,0.00011733,1172.4,4.0223e-05,16.841,3.7708e-05,-2.0547,-0.00011706,-1164.9,1.377
2993,17.442,5.2727,0,0.00011154,1114.7,3.9023e-05,25.988,3.5431e-05,-0.9968,-0.0001111,-1101.9,1.3767
2994,17.442,5.4545,0,0.00010681,1067.3,3.7866e-05,31.169,3.3645e-05,-0.54716,-0.00010625,-1051.7,1.3763
2995,17.442,5.6364,0,0.00010316,1030.9,3.674e-05,32.234,3.2407e-05,-0.32079,-0.00010258,-1014.6,1.376
2996,17.442,5.8182,0,0.00010085,1007.8,3.5819e-05,30.467,3.1756e-05,-0.064396,-0.0001003,-992.29,1.3756
2997,17.624,0.18182,0,0.00010553,1054.6,3.7074e-05,27.008,3.3476e-05,-0.02663,-0.00010505,-1040.8,1.4011
2998,17.624,0.36364,0,0.00010744,1073.6,3.7841e-05,28.532,3.4012e-05,-0.23439,-0.00010693,-1059.2,1.4015
2999,17.624,0.54545,0,0.00011033,1102.6,3.861e-05,26.181,3.507e-05,-0.41468,-0.00010987,-1089.4,1.4018
3000,17.624,0.72727,0,0.00011399,1139.1,3.9245e-05,19.013,3.6596e-05,-0.89156,-0.00011367,-1129.9,1.4021
3001,17.624,0.90909,0,0.00011837,1182.9,3.9893e-05,8.2957,3.842e-05,-2.7697,-0.00011828,-1180.1,1.4024
3002,17.624,1.0909,0,0.0001234,1233.1,4.1589e-05,2.0284,3.9435e-05,-14.157,-0.00012359,-1239.1,1.4027
3003,17.624,1.2727,0,0.00012892,1288.3,4.4381e-05,0.9425,3.9497e-05,-35.759,-0.00012948,-1305.3,1.4029
3004,17.624,1.4545,0,0.00013481,1347.1,4.7597e-05,0.59691,3.9196e-05,-62.52,-0.00013575,-1377,1.4031
3005,17.624,1.6364,0,0.00014091,1408.2,5.1031e-05,0.42246,3.8696e-05,-92.257,-0.00014225,-1451.8,1.4033
3006,17.624,1.8182,0,0.00014711,1470.1,5.4502e-05,0.31746,3.8192e-05,-122.23,-0.0001488,-1527.2,1.4035
3007,17.624,2,0,0.00015326,1531.5,5.7809e-05,0.25882,3.7906e-05,-149.29,-0.00015524,-1600.5,1.4036
3008,17.624,2.1818,0,0.00015912,1590.1,6.0766e-05,0.2353,3.7993e-05,-170.87,-0.00016133,-1668.5,1.4038
3009,17.624,2.3636,0,0.00016442,1643.1,6.3224e-05,0.2396,3.8457e-05,-185.85,-0.00016679,-1728,1.4039
3010,17.624,2.5455,0,0.0001688,1686.8,6.5093e-05,0.26395,3.9137e-05,-194.75,-0.00017126,-1775.6,1.404
3011,17.624,2.7273,0,0.00017192,1718,6.6337e-05,0.29083,3.979e-05,-199.18,-0.00017443,-1808.8,1.404
3012,17.624,2.9091,0,0.00017355,1734.3,6.6956e-05,0.30705,4.0184e-05,-200.85,-0.00017608,-1825.8,1.404
3013,17.624,3.0909,0,0.00017355,1734.3,6.6956e-05,0.30705,4.0184e-05,-200.85,-0.00017608,-1825.8,1.404
3014,17.624,3.2727,0,0.00017192,1718,6.6337e-05,0.29083,3.979e-05,-199.18,-0.00017443,-1808.8,1.404
3015,17.624,3.4545,0,0.0001688,1686.8,6.5093e-05,0.26395,3.9137e-05,-194.75,-0.00017126,-1775.6,1.404
3016,17.624,3.6364,0,0.00016442,1643.1,6.3224e-05,0.2396,3.8457e-05,-185.85,-0.00016679,-1728,1.4039
3017,17.624,3.8182,0,0.00015912,1590.1,6.0766e-05,0.2353,3.7994e-05,-170.87,-0.00016133,-1668.5,1.4038
3018,17.624,4,0,0.00015326,1531.5,5.7809e-05,0.25882,3.7906e-05,-149.29,-0.00015524,-1600.5,1.4036
3019,17.624,4.1818,0,0.00014711,1470.1,5.4502e-05,0.31746,3.8192e-05,-122.23,-0.0001488,-1527.2,1.4035
3020,17.624,4.3636,0,0.00014091,1408.2,5.1031e-05,0.42246,3.8696e-05,-92.257,-0.00014225,-1451.8,1.4033
3021,17.624,4.5455,0,0.00013481,1347.1,4.7597e-05,0.59691,3.9196e-05,-62.52,-0.00013575,-1377,1.4031
3022,17.624,4.7273,0,0.00012892,1288.3,4.4381e-05,0.9425,3.9497e-05,-35.759,-0.00012948,-1305.3,1.4029
3023,17.624,4.9091,0,0.0001234,1233.1,4.1589e-05,2.0284,3.9435e-05,-14.157,-0.00012359,-1239.1,1.4027
3024,17.624,5.0909,0,0.00011837,1182.9,3.9893e-05,8.2958,3.842e-05,-2.7697,-0.00011828,-1180.1,1.4024
3025,17.624,5.2727,0,0.00011399,1139.1,3.9245e-05,19.013,3.6596e-05,-0.89155,-0.00011367,-1129.9,1.4021
3026,17.624,5.4545,0,0.00011033,1102.6,3.861e-05,26.181,3.507e-05,-0.41467,-0.00010987,-1089.4,1.4018
3027,17.624,5.6364,0,0.00010744,1073.6,3.7841e-05,28.532,3.4012e-05,-0.23439,-0.00010693,-1059.2,1.4015
3028,17.624,5.8182,0,0.00010553,1054.6,3.7074e-05,27.008,3.3476e-05,-0.02663,-0.00010505,-1040.8,1.4011
3029,17.806,0.18182,0,0.00010857,1085,3.7792e-05,23.567,3.4654e-05,-0.012542,-0.00010815,-1073,1.4267
3030,17.806,0.36364,0,0.0001101,1100.2,3.8383e-05,24.508,3.5097e-05,-0.17741,-0.00010967,-1087.9,1.427
3031,17.806,0.54545,0,0.00011236,1122.8,3.8868e-05,21.279,3.5992e-05,-0.32619,-0.00011199,-1112.2,1.4273
3032,17.806,0.72727,0,0.00011515,1150.7,3.9141e-05,13.182,3.7273e-05,-0.84713,-0.00011493,-1144.5,1.4276
3033,17.806,0.90909,0,0.00011844,1183.6,3.9594e-05,3.395,3.8536e-05,-4.5555,-0.00011846,-1184.2,1.4279
3034,17.806,1.0909,0,0.00012218,1220.9,4.1397e-05,0.9718,3.8575e-05,-20.231,-0.00012249,-1230.4,1.4282
3035,17.806,1.2727,0,0.00012627,1261.8,4.3781e-05,0.55638,3.8108e-05,-42.067,-0.00012692,-1282,1.4284
3036,17.806,1.4545,0,0.00013062,1305.3,4.6434e-05,0.38989,3.7407e-05,-67.437,-0.00013163,-1337.5,1.4286
3037,17.806,1.6364,0,0.00013514,1350.4,4.9228e-05,0.29563,3.6585e-05,-94.699,-0.00013649,-1395.1,1.4288
3038,17.806,1.8182,0,0.00013972,1396.2,5.2029e-05,0.23525,3.5786e-05,-121.81,-0.00014139,-1453,1.4289
3039,17.806,2,0,0.00014425,1441.5,5.4694e-05,0.19884,3.516e-05,-146.57,-0.00014618,-1509.1,1.4291
3040,17.806,2.1818,0,0.00014857,1484.7,5.709e-05,0.18491,3.4814e-05,-167.19,-0.0001507,-1561.1,1.4292
3041,17.806,2.3636,0,0.00015246,1523.5,5.9105e-05,0.1898,3.476e-05,-182.73,-0.00015474,-1606.5,1.4293
3042,17.806,2.5455,0,0.00015567,1555.6,6.0661e-05,0.20507,3.4917e-05,-193.23,-0.00015805,-1643.1,1.4293
3043,17.806,2.7273,0,0.00015797,1578.6,6.1713e-05,0.22188,3.5143e-05,-199.42,-0.00016041,-1668.7,1.4294
3044,17.806,2.9091,0,0.00015917,1590.6,6.2242e-05,0.23252,3.5298e-05,-202.22,-0.00016164,-1681.9,1.4294
3045,17.806,3.0909,0,0.00015917,1590.6,6.2242e-05,0.23252,3.5298e-05,-202.22,-0.00016164,-1681.9,1.4294
3046,17.806,3.2727,0,0.00015797,1578.6,6.1713e-05,0.22188,3.5143e-05,-199.42,-0.00016041,-1668.7,1.4294
3047,17.806,3.4545,0,0.00015567,1555.6,6.0661e-05,0.20507,3.4917e-05,-193.23,-0.00015805,-1643.1,1.4293
3048,17.806,3.6364,0,0.00015246,1523.5,5.9105e-05,0.1898,3.476e-05,-182.73,-0.00015474,-1606.5,1.4293
3049,17.806,3.8182,0,0.00014857,1484.7,5.709e-05,0.18491,3.4814e-05,-167.19,-0.0001507,-1561.1,1.4292
3050,17.806,4,0,0.00014425,1441.5,5.4694e-05,0.19884,3.516e-05,-146.57,-0.00014618,-1509.1,1.4291
3051,17.806,4.1818,0,0.00013972,1396.2,5.2029e-05,0.23525,3.5786e-05,-121.81,-0.00014139,-1453,1.4289
3052,17.806,4.3636,0,0.00013514,1350.4,4.9228e-05,0.29563,3.6585e-05,-94.699,-0.00013649,-1395.1,1.4288
3053,17.806,4.5455,0,0.00013062,1305.3,4.6434e-05,0.38989,3.7407e-05,-67.437,-0.00013163,-1337.5,1.4286
3054,17.806,4.7273,0,0.00012627,1261.8,4.3781e-05,0.55638,3.8108e-05,-42.067,-0.00012692,-1282,1.4284
3055,17.806,4.9091,0,0.00012218,1220.9,4.1397e-05,0.9718,3.8575e-05,-20.23,-0.00012249,-1230.4,1.4282
3056,17.806,5.0909,0,0.00011844,1183.6,3.9594e-05,3.395,3.8536e-05,-4.5554,-0.00011846,-1184.2,1.4279
3057,17.806,5.2727,0,0.00011515,1150.7,3.9141e-05,13.182,3.7273e-05,-0.84713,-0.00011493,-1144.5,1.4276
3058,17.806,5.4545,0,0.00011236,1122.8,3.8868e-05,21.279,3.5992e-05,-0.32619,-0.00011199,-1112.2,1.4273
3059,17.806,5.6364,0,0.0001101,1100.2,3.8383e-05,24.508,3.5097e-05,-0.17741,-0.00010967,-1087.9,1.427
3060,17.806,5.8182,0,0.00010857,1085,3.7792e-05,23.567,3.4654e-05,-0.012543,-0.00010815,-1073,1.4267
3061,17.988,0.18182,0,0.00011023,1101.6,3.8074e-05,20.371,3.5362e-05,-0.0080375,-0.00010987,-1091.2,1.4523
3062,17.988,0.36364,0,0.00011141,1113.3,3.8481e-05,20.526,3.5731e-05,-0.13645,-0.00011105,-1103,1.4526
3063,17.988,0.54545,0,0.00011313,1130.6,3.8738e-05,16.672,3.6483e-05,-0.26642,-0.00011285,-1122.3,1.4529
3064,17.988,0.72727,0,0.00011523,1151.5,3.8764e-05,8.3218,3.7539e-05,-0.88819,-0.0001151,-1147.8,1.4532
3065,17.988,0.90909,0,0.00011767,1175.9,3.9319e-05,1.4038,3.8134e-05,-7.4931,-0.00011777,-1178.9,1.4535
3066,17.988,1.0909,0,0.00012042,1203.3,4.098e-05,0.56253,3.7675e-05,-24.272,-0.0001208,-1215,1.4537
3067,17.988,1.2727,0,0.00012341,1233.3,4.2973e-05,0.36617,3.6913e-05,-45.165,-0.00012411,-1255,1.4539
3068,17.988,1.4545,0,0.0001266,1265.1,4.5156e-05,0.2749,3.5975e-05,-68.71,-0.00012762,-1297.9,1.4541
3069,17.988,1.6364,0,0.0001299,1298.1,4.7435e-05,0.21947,3.4954e-05,-93.559,-0.00013123,-1342.2,1.4543
3070,17.988,1.8182,0,0.00013325,1331.6,4.9708e-05,0.18277,3.3962e-05,-118.13,-0.00013486,-1386.6,1.4545
3071,17.988,2,0,0.00013655,1364.6,5.1869e-05,0.16033,3.3109e-05,-140.79,-0.0001384,-1429.4,1.4546
3072,17.988,2.1818,0,0.00013969,1395.9,5.3817e-05,0.15064,3.2475e-05,-160.2,-0.00014172,-1469,1.4547
3073,17.988,2.3636,0,0.00014251,1424.1,5.5466e-05,0.15172,3.2084e-05,-175.53,-0.00014467,-1503.6,1.4548
3074,17.988,2.5455,0,0.00014483,1447.3,5.675e-05,0.15985,3.1898e-05,-186.57,-0.0001471,-1531.5,1.4548
3075,17.988,2.7273,0,0.00014649,1463.9,5.7626e-05,0.16958,3.1843e-05,-193.55,-0.00014882,-1551,1.4549
3076,17.988,2.9091,0,0.00014736,1472.6,5.807e-05,0.17591,3.1841e-05,-196.9,-0.00014972,-1561,1.4549
3077,17.988,3.0909,0,0.00014736,1472.6,5.807e-05,0.1759,3.1841e-05,-196.9,-0.00014972,-1561,1.4549
3078,17.988,3.2727,0,0.00014649,1463.9,5.7626e-05,0.16958,3.1843e-05,-193.55,-0.00014882,-1551,1.4549
3079,17.988,3.4545,0,0.00014483,1447.3,5.675e-05,0.15985,3.1898e-05,-186.57,-0.0001471,-1531.5,1.4548
3080,17.988,3.6364,0,0.00014251,1424.1,5.5466e-05,0.15172,3.2084e-05,-175.53,-0.00014467,-1503.6,1.4548
3081,17.988,3.8182,0,0.00013969,1395.9,5.3817e-05,0.15064,3.2475e-05,-160.2,-0.00014172,-1469,1.4547
3082,17.988,4,0,0.00013655,1364.6,5.1869e-05,0.16033,3.3109e-05,-140.79,-0.0001384,-1429.4,1.4546
3083,17.988,4.1818,0,0.00013325,1331.6,4.9708e-05,0.18276,3.3962e-05,-118.13,-0.00013486,-1386.6,1.4545
3084,17.988,4.3636,0,0.0001299,1298.1,4.7435e-05,0.21947,3.4954e-05,-93.558,-0.00013123,-1342.2,1.4543
3085,17.988,4.5455,0,0.0001266,1265.1,4.5156e-05,0.2749,3.5975e-05,-68.71,-0.00012762,-1297.9,1.4541
3086,17.988,4.7273,0,0.00012341,1233.3,4.2973e-05,0.36617,3.6913e-05,-45.165,-0.00012411,-1255,1.4539
3087,17.988,4.9091,0,0.00012042,1203.3,4.098e-05,0.56253,3.7675e-05,-24.272,-0.0001208,-1215,1.4537
3088,17.988,5.0909,0,0.00011767,1175.9,3.9319e-05,1.4038,3.8135e-05,-7.4931,-0.00011777,-1178.9,1.4535
3089,17.988,5.2727,0,0.00011523,1151.5,3.8764e-05,8.3219,3.7539e-05,-0.88819,-0.0001151,-1147.8,1.4532
3090,17.988,5.4545,0,0.00011313,1130.6,3.8738e-05,16.672,3.6483e-05,-0.26642,-0.00011285,-1122.3,1.4529
3091,17.988,5.6364,0,0.00011141,1113.3,3.8481e-05,20.526,3.5731e-05,-0.13645,-0.00011105,-1103,1.4526
3092,17.988,5.8182,0,0.00011023,1101.6,3.8074e-05,20.371,3.5362e-05,-0.008036,-0.00010987,-1091.2,1.4523
3093,18.171,0.18182,0,0.00011074,1106.7,3.8008e-05,17.546,3.5672e-05,-0.0072272,-0.00011043,-1097.8,1.478
3094,18.171,0.36364,0,0.0001116,1115.2,3.8237e-05,16.836,3.5982e-05,-0.10541,-0.00011131,-1106.8,1.4783
3095,18.171,0.54545,0,0.00011289,1128.1,3.8309e-05,12.53,3.6611e-05,-0.22696,-0.00011267,-1121.9,1.4786
3096,18.171,0.72727,0,0.00011443,1143.5,3.8187e-05,4.4452,3.7448e-05,-1.1059,-0.00011437,-1141.8,1.4789
3097,18.171,0.90909,0,0.0001162,1161.2,3.892e-05,0.69279,3.7441e-05,-10.418,-0.00011636,-1166.1,1.4792
3098,18.171,1.0909,0,0.00011819,1181.1,4.0349e-05,0.35852,3.6743e-05,-26.738,-0.00011861,-1194,1.4794
3099,18.171,1.2727,0,0.00012035,1202.7,4.2003e-05,0.25585,3.5819e-05,-46.209,-0.00012106,-1225,1.4796
3100,18.171,1.4545,0,0.00012264,1225.6,4.3799e-05,0.20248,3.4752e-05,-67.77,-0.00012365,-1257.9,1.4798
3101,18.171,1.6364,0,0.00012502,1249.3,4.5662e-05,0.16806,3.3622e-05,-90.291,-0.00012631,-1291.9,1.4799
3102,18.171,1.8182,0,0.00012743,1273.4,4.7513e-05,0.14436,3.252e-05,-112.51,-0.00012897,-1325.8,1.4801
3103,18.171,2,0,0.0001298,1297.1,4.9271e-05,0.12922,3.1532e-05,-133.16,-0.00013155,-1358.5,1.4802
3104,18.171,2.1818,0,0.00013205,1319.6,5.0858e-05,0.12196,3.0723e-05,-151.17,-0.00013396,-1388.6,1.4803
3105,18.171,2.3636,0,0.00013406,1339.6,5.2207e-05,0.12143,3.0123e-05,-165.81,-0.0001361,-1414.8,1.4804
3106,18.171,2.5455,0,0.00013571,1356.2,5.3263e-05,0.12526,2.9726e-05,-176.72,-0.00013785,-1435.8,1.4804
3107,18.171,2.7273,0,0.00013689,1368,5.3987e-05,0.13036,2.9497e-05,-183.88,-0.00013909,-1450.6,1.4805
3108,18.171,2.9091,0,0.00013751,1374.2,5.4354e-05,0.13379,2.9395e-05,-187.4,-0.00013973,-1458.2,1.4805
3109,18.171,3.0909,0,0.00013751,1374.2,5.4354e-05,0.13379,2.9395e-05,-187.4,-0.00013973,-1458.2,1.4805
3110,18.171,3.2727,0,0.00013689,1368,5.3987e-05,0.13036,2.9497e-05,-183.88,-0.00013909,-1450.6,1.4805
3111,18.171,3.4545,0,0.00013571,1356.2,5.3263e-05,0.12526,2.9726e-05,-176.72,-0.00013785,-1435.8,1.4804
3112,18.171,3.6364,0,0.00013406,1339.6,5.2207e-05,0.12143,3.0123e-05,-165.81,-0.0001361,-1414.8,1.4804
3113,18.171,3.8182,0,0.00013205,1319.6,5.0858e-05,0.12196,3.0723e-05,-151.17,-0.00013396,-1388.6,1.4803
3114,18.171,4,0,0.0001298,1297.1,4.9271e-05,0.12922,3.1532e-05,-133.16,-0.00013155,-1358.5,1.4802
3115,18.171,4.1818,0,0.00012743,1273.4,4.7513e-05,0.14436,3.252e-05,-112.51,-0.00012897,-1325.8,1.4801
3116,18.171,4.3636,0,0.00012502,1249.3,4.5662e-05,0.16806,3.3622e-05,-90.29,-0.00012631,-1291.9,1.4799
3117,18.171,4.5455,0,0.00012264,1225.6,4.3799e-05,0.20248,3.4752e-05,-67.77,-0.00012365,-1257.9,1.4798
3118,18.171,4.7273,0,0.00012035,1202.7,4.2003e-05,0.25585,3.5819e-05,-46.209,-0.00012106,-1225,1.4796
3119,18.171,4.9091,0,0.00011819,1181.1,4.0349e-05,0.35852,3.6743e-05,-26.738,-0.00011861,-1194,1.4794
3120,18.171,5.0909,0,0.0001162,1161.2,3.892e-05,0.69279,3.7441e-05,-10.418,-0.00011636,-1166.1,1.4792
3121,18.171,5.2727,0,0.00011443,1143.5,3.8187e-05,4.4452,3.7448e-05,-1.1059,-0.00011437,-1141.8,1.4789
3122,18.171,5.4545,0,0.00011289,1128.1,3.8309e-05,12.53,3.6611e-05,-0.22696,-0.00011267,-1121.9,1.4786
3123,18.171,5.6364,0,0.0001116,1115.2,3.8237e-05,16.836,3.5982e-05,-0.10541,-0.00011131,-1106.8,1.4783
3124,18.171,5.8182,0,0.00011074,1106.7,3.8008e-05,17.546,3.5672e-05,-0.0072268,-0.00011043,-1097.8,1.478
3125,18.353,0.18182,0,0.00011031,1102.3,3.7666e-05,15.154,3.5648e-05,-0.0075228,-0.00011004,-1094.7,1.5038
3126,18.353,0.36364,0,0.00011089,1108.2,3.7732e-05,13.589,3.5912e-05,-0.080929,-0.00011066,-1101.3,1.5041
3127,18.353,0.54545,0,0.00011182,1117.4,3.7658e-05,8.9633,3.6438e-05,-0.20307,-0.00011166,-1113,1.5044
3128,18.353,0.72727,0,0.00011292,1128.4,3.7504e-05,1.8204,3.7021e-05,-1.8051,-0.00011292,-1128.4,1.5046
3129,18.353,0.90909,0,0.00011418,1141,3.8339e-05,0.39224,3.6593e-05,-12.727,-0.00011438,-1147.1,1.5049
3130,18.353,1.0909,0,0.00011558,1155,3.9541e-05,0.24228,3.5778e-05,-28.034,-0.00011602,-1168.6,1.5051
3131,18.353,1.2727,0,0.0001171,1170.2,4.0909e-05,0.18588,3.4776e-05,-45.897,-0.00011781,-1192.4,1.5053
3132,18.353,1.4545,0,0.00011872,1186.3,4.2386e-05,0.15365,3.3654e-05,-65.454,-0.00011969,-1217.6,1.5055
3133,18.353,1.6364,0,0.00012039,1203.1,4.3911e-05,0.13163,3.2481e-05,-85.749,-0.00012162,-1243.6,1.5056
3134,18.353,1.8182,0,0.00012209,1220,4.5423e-05,0.11583,3.1333e-05,-105.75,-0.00012354,-1269.4,1.5058
3135,18.353,2,0,0.00012376,1236.7,4.6857e-05,0.1052,3.028e-05,-124.45,-0.0001254,-1294.2,1.5059
3136,18.353,2.1818,0,0.00012533,1252.4,4.8153e-05,0.099373,2.9379e-05,-140.96,-0.00012713,-1316.9,1.506
3137,18.353,2.3636,0,0.00012674,1266.5,4.9255e-05,0.097691,2.8666e-05,-154.61,-0.00012866,-1336.7,1.5061
3138,18.353,2.5455,0,0.00012789,1278.1,5.0121e-05,0.098866,2.8148e-05,-164.99,-0.0001299,-1352.5,1.5061
3139,18.353,2.7273,0,0.00012872,1286.3,5.0716e-05,0.10113,2.7818e-05,-171.94,-0.00013077,-1363.5,1.5062
3140,18.353,2.9091,0,0.00012915,1290.6,5.1019e-05,0.10277,2.7659e-05,-175.41,-0.00013123,-1369.2,1.5062
3141,18.353,3.0909,0,0.00012915,1290.6,5.1019e-05,0.10277,2.7659e-05,-175.41,-0.00013123,-1369.2,1.5062
3142,18.353,3.2727,0,0.00012872,1286.3,5.0716e-05,0.10113,2.7818e-05,-171.94,-0.00013077,-1363.5,1.5062
3143,18.353,3.4545,0,0.00012789,1278.1,5.0121e-05,0.098866,2.8148e-05,-164.99,-0.0001299,-1352.5,1.5061
3144,18.353,3.6364,0,0.00012674,1266.5,4.9255e-05,0.097692,2.8666e-05,-154.61,-0.00012866,-1336.7,1.5061
3145,18.353,3.8182,0,0.00012533,1252.4,4.8153e-05,0.099373,2.9379e-05,-140.96,-0.00012713,-1316.9,1.506
3146,18.353,4,0,0.00012376,1236.7,4.6857e-05,0.1052,3.028e-05,-124.45,-0.0001254,-1294.2,1.5059
3147,18.353,4.1818,0,0.00012209,1220,4.5423e-05,0.11583,3.1333e-05,-105.75,-0.00012354,-1269.4,1.5058
3148,18.353,4.3636,0,0.00012039,1203.1,4.3911e-05,0.13163,3.2481e-05,-85.749,-0.00012162,-1243.6,1.5056
3149,18.353,4.5455,0,0.00011872,1186.3,4.2386e-05,0.15365,3.3654e-05,-65.453,-0.00011969,-1217.6,1.5055
3150,18.353,4.7273,0,0.0001171,1170.2,4.0909e-05,0.18588,3.4776e-05,-45.897,-0.00011781,-1192.4,1.5053
3151,18.353,4.9091,0,0.00011558,1155,3.9541e-05,0.24228,3.5778e-05,-28.034,-0.00011602,-1168.6,1.5051
3152,18.353,5.0909,0,0.00011418,1141,3.8339e-05,0.39224,3.6593e-05,-12.727,-0.00011438,-1147.1,1.5049
3153,18.353,5.2727,0,0.00011292,1128.4,3.7504e-05,1.8204,3.7021e-05,-1.8051,-0.00011292,-1128.4,1.5046
3154,18.353,5.4545,0,0.00011182,1117.4,3.7658e-05,8.9633,3.6438e-05,-0.20307,-0.00011166,-1113,1.5044
3155,18.353,5.6364,0,0.00011089,1108.2,3.7732e-05,13.589,3.5912e-05,-0.080928,-0.00011066,-1101.3,1.5041
3156,18.353,5.8182,0,0.00011031,1102.3,3.7666e-05,15.154,3.5648e-05,-0.0075226,-0.00011004,-1094.7,1.5038
3157,18.535,0.18182,0,0.00010911,1090.4,3.7109e-05,13.209,3.535e-05,-0.0079412,-0.00010888,-1083.7,1.5296
3158,18.535,0.36364,0,0.00010946,1093.8,3.7031e-05,10.86,3.5577e-05,-0.061031,-0.00010927,-1088.4,1.5299
3159,18.535,0.54545,0,0.00011009,1100.1,3.6842e-05,6.0292,3.6014e-05,-0.19296,-0.00010999,-1097.2,1.5302
3160,18.535,0.72727,0,0.00011084,1107.7,3.6795e-05,0.67995,3.6273e-05,-3.2481,-0.00011088,-1108.9,1.5305
3161,18.535,0.90909,0,0.0001117,1116.2,3.7589e-05,0.24289,3.565e-05,-14.327,-0.00011193,-1123.2,1.5307
3162,18.535,1.0909,0,0.00011266,1125.8,3.8591e-05,0.17067,3.4784e-05,-28.428,-0.00011311,-1139.7,1.5309
3163,18.535,1.2727,0,0.0001137,1136.2,3.9721e-05,0.13897,3.3761e-05,-44.645,-0.00011439,-1157.8,1.5311
3164,18.535,1.4545,0,0.0001148,1147.2,4.0935e-05,0.11918,3.2634e-05,-62.251,-0.00011573,-1177,1.5313
3165,18.535,1.6364,0,0.00011594,1158.6,4.2185e-05,0.10481,3.1465e-05,-80.441,-0.0001171,-1196.7,1.5314
3166,18.535,1.8182,0,0.0001171,1170.2,4.3422e-05,0.093952,3.0318e-05,-98.361,-0.00011846,-1216.3,1.5316
3167,18.535,2,0,0.00011824,1181.6,4.4593e-05,0.086174,2.9253e-05,-115.17,-0.00011978,-1234.9,1.5317
3168,18.535,2.1818,0,0.00011932,1192.4,4.5652e-05,0.081343,2.8322e-05,-130.13,-0.000121,-1252.1,1.5318
3169,18.535,2.3636,0,0.00012028,1202,4.6554e-05,0.079128,2.756e-05,-142.64,-0.00012207,-1266.9,1.5318
3170,18.535,2.5455,0,0.00012107,1209.8,4.7263e-05,0.078817,2.6986e-05,-152.27,-0.00012293,-1278.7,1.5319
3171,18.535,2.7273,0,0.00012163,1215.4,4.7751e-05,0.079435,2.6606e-05,-158.8,-0.00012354,-1287,1.5319
3172,18.535,2.9091,0,0.00012192,1218.3,4.8e-05,0.080033,2.6417e-05,-162.08,-0.00012386,-1291.2,1.5319
3173,18.535,3.0909,0,0.00012192,1218.3,4.8e-05,0.080034,2.6417e-05,-162.08,-0.00012386,-1291.2,1.5319
3174,18.535,3.2727,0,0.00012163,1215.4,4.7751e-05,0.079434,2.6606e-05,-158.8,-0.00012354,-1287,1.5319
3175,18.535,3.4545,0,0.00012107,1209.8,4.7263e-05,0.078817,2.6986e-05,-152.27,-0.00012293,-1278.7,1.5319
3176,18.535,3.6364,0,0.00012028,1202,4.6554e-05,0.079129,2.756e-05,-142.64,-0.00012207,-1266.9,1.5318
3177,18.535,3.8182,0,0.00011932,1192.4,4.5652e-05,0.081343,2.8322e-05,-130.13,-0.000121,-1252.1,1.5318
3178,18.535,4,0,0.00011824,1181.6,4.4593e-05,0.086174,2.9253e-05,-115.17,-0.00011978,-1234.9,1.5317
3179,18.535,4.1818,0,0.0001171,1170.2,4.3422e-05,0.093952,3.0318e-05,-98.361,-0.00011846,-1216.3,1.5316
3180,18.535,4.3636,0,0.00011594,1158.6,4.2185e-05,0.10481,3.1466e-05,-80.441,-0.0001171,-1196.7,1.5314
3181,18.535,4.5455,0,0.0001148,1147.2,4.0935e-05,0.11918,3.2634e-05,-62.251,-0.00011573,-1177,1.5313
3182,18.535,4.7273,0,0.0001137,1136.2,3.9721e-05,0.13897,3.3761e-05,-44.645,-0.00011439,-1157.8,1.5311
3183,18.535,4.9091,0,0.00011266,1125.8,3.8591e-05,0.17067,3.4784e-05,-28.428,-0.00011311,-1139.7,1.5309
3184,18.535,5.0909,0,0.0001117,1116.2,3.7589e-05,0.24288,3.565e-05,-14.327,-0.00011193,-1123.2,1.5307
3185,18.535,5.2727,0,0.00011084,1107.7,3.6795e-05,0.67996,3.6273e-05,-3.248,-0.00011088,-1108.9,1.5305
3186,18.535,5.4545,0,0.00011009,1100.1,3.6842e-05,6.0293,3.6014e-05,-0.19295,-0.00010999,-1097.2,1.5302
3187,18.535,5.6364,0,0.00010946,1093.8,3.7031e-05,10.86,3.5577e-05,-0.06103,-0.00010927,-1088.4,1.5299
3188,18.535,5.8182,0,0.00010911,1090.4,3.7109e-05,13.209,3.535e-05,-0.0079401,-0.00010888,-1083.7,1.5296
3189,18.717,0.18182,0,0.0001073,1072.3,3.6386e-05,11.695,3.4828e-05,-0.0081204,-0.0001071,-1066.4,1.5555
3190,18.717,0.36364,0,0.00010745,1073.8,3.6185e-05,8.6711,3.5025e-05,-0.044358,-0.0001073,-1069.4,1.5558
3191,18.717,0.54545,0,0.00010784,1077.7,3.5911e-05,3.743,3.5387e-05,-0.19778,-0.00010778,-1075.9,1.5561
3192,18.717,0.72727,0,0.00010833,1082.5,3.6009e-05,0.31348,3.5334e-05,-4.7596,-0.0001084,-1084.7,1.5564
3193,18.717,0.90909,0,0.00010888,1088,3.6696e-05,0.16029,3.4646e-05,-15.243,-0.00010913,-1095.5,1.5566
3194,18.717,1.0909,0,0.0001095,1094.2,3.7527e-05,0.12428,3.3771e-05,-28.093,-0.00010994,-1107.9,1.5568
3195,18.717,1.2727,0,0.00011017,1100.9,3.8459e-05,0.10638,3.2762e-05,-42.701,-0.00011083,-1121.6,1.557
3196,18.717,1.4545,0,0.00011089,1108.1,3.9458e-05,0.094177,3.1666e-05,-58.453,-0.00011176,-1136.1,1.5572
3197,18.717,1.6364,0,0.00011164,1115.6,4.0483e-05,0.084675,3.0534e-05,-74.668,-0.00011272,-1151,1.5573
3198,18.717,1.8182,0,0.0001124,1123.2,4.1495e-05,0.077057,2.9423e-05,-90.634,-0.00011366,-1165.7,1.5574
3199,18.717,2,0,0.00011314,1130.6,4.2454e-05,0.07121,2.8383e-05,-105.65,-0.00011457,-1179.7,1.5575
3200,18.717,2.1818,0,0.00011385,1137.7,4.3319e-05,0.067152,2.7463e-05,-119.07,-0.0001154,-1192.5,1.5576
3201,18.717,2.3636,0,0.00011448,1144,4.4057e-05,0.064754,2.6697e-05,-130.37,-0.00011614,-1203.6,1.5577
3202,18.717,2.5455,0,0.000115,1149.2,4.4637e-05,0.063672,2.6109e-05,-139.15,-0.00011673,-1212.4,1.5577
3203,18.717,2.7273,0,0.00011536,1152.8,4.5037e-05,0.063393,2.5713e-05,-145.13,-0.00011714,-1218.5,1.5578
3204,18.717,2.9091,0,0.00011555,1154.7,4.5241e-05,0.063412,2.5514e-05,-148.16,-0.00011736,-1221.6,1.5578
3205,18.717,3.0909,0,0.00011555,1154.7,4.5241e-05,0.063411,2.5514e-05,-148.16,-0.00011736,-1221.6,1.5578
3206,18.717,3.2727,0,0.00011536,1152.8,4.5037e-05,0.063395,2.5713e-05,-145.13,-0.00011714,-1218.5,1.5578
3207,18.717,3.4545,0,0.000115,1149.2,4.4637e-05,0.063673,2.6109e-05,-139.15,-0.00011673,-1212.4,1.5577
3208,18.717,3.6364,0,0.00011448,1144,4.4057e-05,0.064753,2.6697e-05,-130.37,-0.00011614,-1203.6,1.5577
3209,18.717,3.8182,0,0.00011385,1137.7,4.3319e-05,0.067149,2.7463e-05,-119.07,-0.0001154,-1192.5,1.5576
3210,18.717,4,0,0.00011314,1130.6,4.2454e-05,0.071211,2.8383e-05,-105.65,-0.00011457,-1179.7,1.5575
3211,18.717,4.1818,0,0.0001124,1123.2,4.1495e-05,0.077056,2.9423e-05,-90.634,-0.00011366,-1165.7,1.5574
3212,18.717,4.3636,0,0.00011164,1115.6,4.0483e-05,0.084675,3.0534e-05,-74.668,-0.00011272,-1151,1.5573
3213,18.717,4.5455,0,0.00011089,1108.1,3.9458e-05,0.094179,3.1666e-05,-58.453,-0.00011176,-1136.1,1.5572
3214,18.717,4.7273,0,0.00011017,1100.9,3.8459e-05,0.10638,3.2762e-05,-42.701,-0.00011083,-1121.6,1.557
3215,18.717,4.9091,0,0.0001095,1094.2,3.7527e-05,0.12428,3.3771e-05,-28.093,-0.00010994,-1107.9,1.5568
3216,18.717,5.0909,0,0.00010888,1088,3.6696e-05,0.16029,3.4646e-05,-15.243,-0.00010913,-1095.5,1.5566
3217,18.717,5.2727,0,0.00010833,1082.5,3.6009e-05,0.31348,3.5334e-05,-4.7595,-0.0001084,-1084.7,1.5564
3218,18.717,5.4545,0,0.00010784,1077.7,3.5911e-05,3.7431,3.5387e-05,-0.19777,-0.00010778,-1075.9,1.5561
3219,18.717,5.6364,0,0.00010745,1073.8,3.6185e-05,8.6711,3.5025e-05,-0.044357,-0.0001073,-1069.4,1.5558
3220,18.717,5.8182,0,0.0001073,1072.3,3.6386e-05,11.695,3.4828e-05,-0.0081225,-0.0001071,-1066.4,1.5555
3221,18.899,0.18182,0,0.000105,1049.3,3.5534e-05,10.584,3.4124e-05,-0.0079629,-0.00010482,-1044,1.5815
3222,18.899,0.36364,0,0.00010499,1049.2,3.5233e-05,7.0104,3.4296e-05,-0.029979,-0.00010487,-1045.6,1.5818
3223,18.899,0.54545,0,0.0001052,1051.2,3.49e-05,2.0924,3.4592e-05,-0.22269,-0.00010516,-1050.3,1.5821
3224,18.899,0.72727,0,0.00010547,1053.9,3.5107e-05,0.17334,3.4307e-05,-5.8367,-0.00010556,-1056.7,1.5823
3225,18.899,0.90909,0,0.00010579,1057.1,3.5685e-05,0.11117,3.3603e-05,-15.528,-0.00010604,-1064.7,1.5826
3226,18.899,1.0909,0,0.00010615,1060.8,3.6373e-05,0.093151,3.2747e-05,-27.147,-0.00010658,-1074,1.5828
3227,18.899,1.2727,0,0.00010655,1064.8,3.7142e-05,0.083189,3.1777e-05,-40.223,-0.00010718,-1084.3,1.5829
3228,18.899,1.4545,0,0.00010698,1069.1,3.7963e-05,0.0757,3.0734e-05,-54.237,-0.0001078,-1095.1,1.5831
3229,18.899,1.6364,0,0.00010744,1073.6,3.8804e-05,0.069377,2.9662e-05,-68.616,-0.00010844,-1106.2,1.5832
3230,18.899,1.8182,0,0.0001079,1078.3,3.9633e-05,0.063944,2.861e-05,-82.76,-0.00010907,-1117.2,1.5834
3231,18.899,2,0,0.00010836,1082.9,4.0417e-05,0.059468,2.7622e-05,-96.077,-0.00010967,-1127.7,1.5835
3232,18.899,2.1818,0,0.0001088,1087.2,4.1125e-05,0.056055,2.6741e-05,-108.02,-0.00011023,-1137.2,1.5835
3233,18.899,2.3636,0,0.00010919,1091.1,4.1728e-05,0.05371,2.6001e-05,-118.12,-0.00011071,-1145.3,1.5836
3234,18.899,2.5455,0,0.00010951,1094.3,4.2203e-05,0.052299,2.5427e-05,-126,-0.0001111,-1151.8,1.5837
3235,18.899,2.7273,0,0.00010974,1096.6,4.253e-05,0.051579,2.5036e-05,-131.39,-0.00011138,-1156.4,1.5837
3236,18.899,2.9091,0,0.00010986,1097.8,4.2697e-05,0.051297,2.4838e-05,-134.13,-0.00011152,-1158.7,1.5837
3237,18.899,3.0909,0,0.00010986,1097.8,4.2697e-05,0.051297,2.4838e-05,-134.13,-0.00011152,-1158.7,1.5837
3238,18.899,3.2727,0,0.00010974,1096.6,4.253e-05,0.051577,2.5036e-05,-131.39,-0.00011138,-1156.4,1.5837
3239,18.899,3.4545,0,0.00010951,1094.3,4.2203e-05,0.052298,2.5427e-05,-126,-0.0001111,-1151.8,1.5837
3240,18.899,3.6364,0,0.00010919,1091.1,4.1728e-05,0.053711,2.6001e-05,-118.12,-0.00011071,-1145.3,1.5836
3241,18.899,3.8182,0,0.0001088,1087.2,4.1125e-05,0.056056,2.6741e-05,-108.02,-0.00011023,-1137.2,1.5835
3242,18.899,4,0,0.00010836,1082.9,4.0417e-05,0.059468,2.7622e-05,-96.077,-0.00010967,-1127.7,1.5835
3243,18.899,4.1818,0,0.0001079,1078.3,3.9633e-05,0.063945,2.861e-05,-82.76,-0.00010907,-1117.2,1.5834
3244,18.899,4.3636,0,0.00010744,1073.6,3.8804e-05,0.069376,2.9662e-05,-68.616,-0.00010844,-1106.2,1.5832
3245,18.899,4.5455,0,0.00010698,1069.1,3.7963e-05,0.075701,3.0734e-05,-54.237,-0.0001078,-1095.1,1.5831
3246,18.899,4.7273,0,0.00010655,1064.8,3.7142e-05,0.08319,3.1777e-05,-40.223,-0.00010718,-1084.3,1.5829
3247,18.899,4.9091,0,0.00010615,1060.8,3.6373e-05,0.093151,3.2747e-05,-27.147,-0.00010658,-1074,1.5828
3248,18.899,5.0909,0,0.00010579,1057.1,3.5685e-05,0.11117,3.3603e-05,-15.528,-0.00010604,-1064.7,1.5826
3249,18.899,5.2727,0,0.00010547,1053.9,3.5107e-05,0.17334,3.4307e-05,-5.8366,-0.00010556,-1056.7,1.5823
3250,18.899,5.4545,0,0.0001052,1051.2,3.49e-05,2.0925,3.4592e-05,-0.22269,-0.00010516,-1050.3,1.5821
3251,18.899,5.6364,0,0.00010499,1049.2,3.5233e-05,7.0104,3.4296e-05,-0.029977,-0.00010487,-1045.6,1.5818
3252,18.899,5.8182,0,0.000105,1049.3,3.5534e-05,10.584,3.4124e-05,-0.0079627,-0.00010482,-1044,1.5815
3253,19.081,0.18182,0,0.00010231,1022.4,3.4585e-05,9.8384,3.3274e-05,-0.0074397,-0.00010214,-1017.5,1.6076
3254,19.081,0.36364,0,0.00010217,1021,3.4205e-05,5.8455,3.3425e-05,-0.017384,-0.00010207,-1018.1,1.6079
3255,19.081,0.54545,0,0.00010223,1021.6,3.3837e-05,1.0457,3.3662e-05,-0.27383,-0.00010222,-1021.2,1.6081
3256,19.081,0.72727,0,0.00010234,1022.7,3.4097e-05,0.10755,3.3234e-05,-6.38,-0.00010245,-1025.8,1.6084
3257,19.081,0.90909,0,0.00010249,1024.2,3.4579e-05,0.080387,3.254e-05,-15.238,-0.00010274,-1031.7,1.6086
3258,19.081,1.0909,0,0.00010266,1025.9,3.5148e-05,0.071708,3.1721e-05,-25.677,-0.00010307,-1038.5,1.6088
3259,19.081,1.2727,0,0.00010286,1027.9,3.5781e-05,0.066398,3.0806e-05,-37.315,-0.00010344,-1046,1.609
3260,19.081,1.4545,0,0.00010308,1030.1,3.6456e-05,0.061897,2.9831e-05,-49.716,-0.00010384,-1054.1,1.6091
3261,19.081,1.6364,0,0.00010332,1032.5,3.7146e-05,0.057693,2.8833e-05,-62.399,-0.00010424,-1062.3,1.6093
3262,19.081,1.8182,0,0.00010357,1035,3.7825e-05,0.053788,2.7855e-05,-74.859,-0.00010464,-1070.4,1.6094
3263,19.081,2,0,0.00010383,1037.5,3.8467e-05,0.050329,2.6935e-05,-86.595,-0.00010503,-1078.1,1.6095
3264,19.081,2.1818,0,0.00010407,1040,3.9045e-05,0.047479,2.6111e-05,-97.136,-0.00010538,-1085.1,1.6096
3265,19.081,2.3636,0,0.00010429,1042.2,3.9539e-05,0.045316,2.5415e-05,-106.07,-0.00010568,-1091.1,1.6096
3266,19.081,2.5455,0,0.00010447,1044,3.9927e-05,0.043829,2.4873e-05,-113.07,-0.00010593,-1095.9,1.6097
3267,19.081,2.7273,0,0.0001046,1045.3,4.0195e-05,0.042932,2.4501e-05,-117.87,-0.0001061,-1099.2,1.6097
3268,19.081,2.9091,0,0.00010467,1045.9,4.0331e-05,0.04252,2.4313e-05,-120.31,-0.00010619,-1100.9,1.6097
3269,19.081,3.0909,0,0.00010467,1045.9,4.0331e-05,0.042519,2.4313e-05,-120.31,-0.00010619,-1100.9,1.6097
3270,19.081,3.2727,0,0.0001046,1045.3,4.0195e-05,0.042934,2.4501e-05,-117.87,-0.0001061,-1099.2,1.6097
3271,19.081,3.4545,0,0.00010447,1044,3.9927e-05,0.04383,2.4873e-05,-113.07,-0.00010593,-1095.9,1.6097
3272,19.081,3.6364,0,0.00010429,1042.2,3.9539e-05,0.045315,2.5415e-05,-106.07,-0.00010568,-1091.1,1.6096
3273,19.081,3.8182,0,0.00010407,1040,3.9045e-05,0.04748,2.6111e-05,-97.136,-0.00010538,-1085.1,1.6096
3274,19.081,4,0,0.00010383,1037.5,3.8467e-05,0.050331,2.6935e-05,-86.594,-0.00010503,-1078.1,1.6095
3275,19.081,4.1818,0,0.00010357,1035,3.7825e-05,0.053788,2.7855e-05,-74.859,-0.00010464,-1070.4,1.6094
3276,19.081,4.3636,0,0.00010332,1032.5,3.7146e-05,0.057694,2.8833e-05,-62.399,-0.00010424,-1062.3,1.6093
3277,19.081,4.5455,0,0.00010308,1030.1,3.6456e-05,0.061895,2.9831e-05,-49.716,-0.00010384,-1054.1,1.6091
3278,19.081,4.7273,0,0.00010286,1027.9,3.5781e-05,0.066399,3.0806e-05,-37.315,-0.00010344,-1046,1.609
3279,19.081,4.9091,0,0.00010266,1025.9,3.5148e-05,0.071707,3.1721e-05,-25.677,-0.00010307,-1038.5,1.6088
3280,19.081,5.0909,0,0.00010249,1024.2,3.4579e-05,0.080386,3.254e-05,-15.238,-0.00010274,-1031.7,1.6086
3281,19.081,5.2727,0,0.00010234,1022.7,3.4097e-05,0.10755,3.3234e-05,-6.3799,-0.00010245,-1025.8,1.6084
3282,19.081,5.4545,0,0.00010223,1021.6,3.3837e-05,1.0457,3.3662e-05,-0.27383,-0.00010222,-1021.2,1.6081
3283,19.081,5.6364,0,0.00010217,1021,3.4205e-05,5.8455,3.3425e-05,-0.017381,-0.00010207,-1018.1,1.6079
3284,19.081,5.8182,0,0.00010231,1022.4,3.4585e-05,9.8384,3.3274e-05,-0.0074374,-0.00010214,-1017.5,1.6076
3285,19.264,0.18182,0,9.9322e-05,992.54,3.3562e-05,9.4165,3.2308e-05,-0.0066037,-9.9159e-05,-987.8,1.6337
3286,19.264,0.36364,0,9.9075e-05,990.07,3.3124e-05,5.1328,3.244e-05,-0.0066465,-9.8987e-05,-987.49,1.634
3287,19.264,0.54545,0,9.9026e-05,989.58,3.2738e-05,0.52208,3.2626e-05,-0.32029,-9.9023e-05,-989.48,1.6342
3288,19.264,0.72727,0,9.9017e-05,989.49,3.2998e-05,0.072202,3.2137e-05,-6.4035,-9.9123e-05,-992.64,1.6345
3289,19.264,0.90909,0,9.9033e-05,989.65,3.3398e-05,0.060281,3.1469e-05,-14.434,-9.927e-05,-996.76,1.6347
3290,19.264,1.0909,0,9.9071e-05,990.02,3.3868e-05,0.056622,3.0699e-05,-23.755,-9.9452e-05,-1001.7,1.6349
3291,19.264,1.2727,0,9.9127e-05,990.58,3.4389e-05,0.054092,2.9849e-05,-34.053,-9.9661e-05,-1007.1,1.635
3292,19.264,1.4545,0,9.9199e-05,991.31,3.4942e-05,0.051514,2.8951e-05,-44.967,-9.9886e-05,-1013,1.6352
3293,19.264,1.6364,0,9.9286e-05,992.18,3.5508e-05,0.048761,2.8036e-05,-56.092,-0.00010012,-1019,1.6353
3294,19.264,1.8182,0,9.9384e-05,993.16,3.6063e-05,0.045951,2.714e-05,-67.003,-0.00010035,-1024.9,1.6355
3295,19.264,2,0,9.9489e-05,994.2,3.6588e-05,0.043281,2.6298e-05,-77.278,-0.00010058,-1030.6,1.6355
3296,19.264,2.1818,0,9.9594e-05,995.26,3.7062e-05,0.040926,2.5542e-05,-86.514,-0.00010078,-1035.7,1.6356
3297,19.264,2.3636,0,9.9693e-05,996.24,3.7465e-05,0.039011,2.4902e-05,-94.356,-0.00010096,-1040,1.6357
3298,19.264,2.5455,0,9.9776e-05,997.08,3.7782e-05,0.03759,2.4401e-05,-100.5,-0.0001011,-1043.5,1.6357
3299,19.264,2.7273,0,9.9837e-05,997.68,3.8001e-05,0.036669,2.4057e-05,-104.73,-0.0001012,-1045.9,1.6358
3300,19.264,2.9091,0,9.9869e-05,998.01,3.8112e-05,0.036221,2.3882e-05,-106.88,-0.00010126,-1047.1,1.6358
3301,19.264,3.0909,0,9.9869e-05,998.01,3.8112e-05,0.036219,2.3882e-05,-106.88,-0.00010126,-1047.1,1.6358
3302,19.264,3.2727,0,9.9837e-05,997.68,3.8001e-05,0.036669,2.4057e-05,-104.73,-0.0001012,-1045.9,1.6358
3303,19.264,3.4545,0,9.9776e-05,997.08,3.7782e-05,0.037591,2.4401e-05,-100.5,-0.0001011,-1043.5,1.6357
3304,19.264,3.6364,0,9.9693e-05,996.24,3.7465e-05,0.039008,2.4902e-05,-94.356,-0.00010096,-1040,1.6357
3305,19.264,3.8182,0,9.9594e-05,995.26,3.7062e-05,0.040925,2.5542e-05,-86.514,-0.00010078,-1035.7,1.6356
3306,19.264,4,0,9.9489e-05,994.2,3.6588e-05,0.043281,2.6298e-05,-77.278,-0.00010058,-1030.6,1.6355
3307,19.264,4.1818,0,9.9384e-05,993.16,3.6063e-05,0.045952,2.714e-05,-67.003,-0.00010035,-1024.9,1.6355
3308,19.264,4.3636,0,9.9286e-05,992.18,3.5508e-05,0.048761,2.8036e-05,-56.092,-0.00010012,-1019,1.6353
3309,19.264,4.5455,0,9.9199e-05,991.31,3.4942e-05,0.051515,2.8951e-05,-44.967,-9.9886e-05,-1013,1.6352
3310,19.264,4.7273,0,9.9127e-05,990.58,3.4389e-05,0.054092,2.9849e-05,-34.053,-9.9661e-05,-1007.1,1.635
3311,19.264,4.9091,0,9.9071e-05,990.02,3.3868e-05,0.056623,3.0699e-05,-23.754,-9.9452e-05,-1001.7,1.6349
3312,19.264,5.0909,0,9.9033e-05,989.65,3.3398e-05,0.06028,3.1469e-05,-14.434,-9.927e-05,-996.76,1.6347
3313,19.264,5.2727,0,9.9017e-05,989.49,3.2998e-05,0.072201,3.2137e-05,-6.4034,-9.9123e-05,-992.64,1.6345
3314,19.264,5.4545,0,9.9026e-05,989.58,3.2738e-05,0.5221,3.2626e-05,-0.32028,-9.9023e-05,-989.48,1.6342
3315,19.264,5.6364,0,9.9075e-05,990.07,3.3124e-05,5.1328,3.244e-05,-0.0066459,-9.8987e-05,-987.49,1.634
3316,19.264,5.8182,0,9.9322e-05,992.54,3.3562e-05,9.4165,3.2308e-05,-0.0066022,-9.9159e-05,-987.8,1.6337
3317,19.446,0.18182,0,9.6095e-05,960.28,3.2486e-05,9.2785,3.125e-05,-0.0055537,-9.5934e-05,-955.61,1.6599
3318,19.446,0.36364,0,9.5767e-05,957.01,3.2006e-05,4.8242,3.1364e-05,0.0016572,-9.5684e-05,-954.59,1.6602
3319,19.446,0.54545,0,9.5637e-05,955.71,3.1602e-05,0.35167,3.1522e-05,-0.24756,-9.5636e-05,-955.66,1.6604
3320,19.446,0.72727,0,9.5542e-05,954.76,3.1827e-05,0.051386,3.1028e-05,-5.9515,-9.5641e-05,-957.69,1.6606
3321,19.446,0.90909,0,9.5466e-05,954,3.2158e-05,0.046715,3.0398e-05,-13.174,-9.5682e-05,-960.5,1.6608
3322,19.446,1.0909,0,9.5406e-05,953.41,3.2544e-05,0.045834,2.9684e-05,-21.441,-9.5752e-05,-963.92,1.661
3323,19.446,1.2727,0,9.5361e-05,952.96,3.2972e-05,0.044998,2.8907e-05,-30.497,-9.5843e-05,-967.82,1.6612
3324,19.446,1.4545,0,9.533e-05,952.64,3.3425e-05,0.043693,2.809e-05,-40.043,-9.5947e-05,-972.01,1.6614
3325,19.446,1.6364,0,9.5311e-05,952.45,3.3888e-05,0.041953,2.7262e-05,-49.741,-9.6059e-05,-976.33,1.6615
3326,19.446,1.8182,0,9.5304e-05,952.38,3.4342e-05,0.039962,2.6453e-05,-59.236,-9.6173e-05,-980.6,1.6616
3327,19.446,2,0,9.5308e-05,952.42,3.4771e-05,0.037915,2.5693e-05,-68.171,-9.6283e-05,-984.65,1.6617
3328,19.446,2.1818,0,9.5319e-05,952.54,3.5157e-05,0.035998,2.5011e-05,-76.204,-9.6386e-05,-988.33,1.6618
3329,19.446,2.3636,0,9.5336e-05,952.7,3.5487e-05,0.034355,2.4432e-05,-83.029,-9.6475e-05,-991.48,1.6618
3330,19.446,2.5455,0,9.5353e-05,952.87,3.5745e-05,0.033079,2.3978e-05,-88.385,-9.6547e-05,-993.96,1.6619
3331,19.446,2.7273,0,9.5366e-05,953.01,3.5924e-05,0.032212,2.3666e-05,-92.071,-9.6598e-05,-995.68,1.6619
3332,19.446,2.9091,0,9.5374e-05,953.09,3.6015e-05,0.031779,2.3507e-05,-93.949,-9.6624e-05,-996.56,1.6619
3333,19.446,3.0909,0,9.5374e-05,953.09,3.6015e-05,0.031778,2.3507e-05,-93.949,-9.6624e-05,-996.56,1.6619
3334,19.446,3.2727,0,9.5366e-05,953.01,3.5924e-05,0.032212,2.3666e-05,-92.071,-9.6598e-05,-995.68,1.6619
3335,19.446,3.4545,0,9.5353e-05,952.87,3.5745e-05,0.033077,2.3978e-05,-88.385,-9.6547e-05,-993.96,1.6619
3336,19.446,3.6364,0,9.5336e-05,952.7,3.5487e-05,0.034355,2.4432e-05,-83.029,-9.6475e-05,-991.48,1.6618
3337,19.446,3.8182,0,9.5319e-05,952.54,3.5157e-05,0.035999,2.5011e-05,-76.204,-9.6386e-05,-988.33,1.6618
3338,19.446,4,0,9.5308e-05,952.42,3.4771e-05,0.037914,2.5693e-05,-68.171,-9.6283e-05,-984.65,1.6617
3339,19.446,4.1818,0,9.5304e-05,952.38,3.4342e-05,0.039961,2.6453e-05,-59.236,-9.6173e-05,-980.6,1.6616
3340,19.446,4.3636,0,9.5311e-05,952.45,3.3888e-05,0.041955,2.7262e-05,-49.741,-9.6059e-05,-976.33,1.6615
3341,19.446,4.5455,0,9.533e-05,952.64,3.3425e-05,0.043692,2.809e-05,-40.043,-9.5947e-05,-972.01,1.6614
3342,19.446,4.7273,0,9.5361e-05,952.96,3.2972e-05,0.044999,2.8907e-05,-30.497,-9.5843e-05,-967.82,1.6612
3343,19.446,4.9091,0,9.5407e-05,953.41,3.2544e-05,0.045833,2.9684e-05,-21.441,-9.5752e-05,-963.92,1.661
3344,19.446,5.0909,0,9.5466e-05,954,3.2158e-05,0.046714,3.0398e-05,-13.174,-9.5682e-05,-960.5,1.6608
3345,19.446,5.2727,0,9.5542e-05,954.76,3.1827e-05,0.051385,3.1028e-05,-5.9514,-9.5641e-05,-957.69,1.6606
3346,19.446,5.4545,0,9.5637e-05,955.71,3.1602e-05,0.3517,3.1522e-05,-0.24754,-9.5636e-05,-955.66,1.6604
3347,19.446,5.6364,0,9.5767e-05,957.01,3.2006e-05,4.8242,3.1364e-05,0.001659,-9.5684e-05,-954.59,1.6602
3348,19.446,5.8182,0,9.6095e-05,960.28,3.2486e-05,9.2785,3.125e-05,-0.0055523,-9.5934e-05,-955.61,1.6599
3349,19.628,0.18182,0,9.2685e-05,926.21,3.1369e-05,9.3857,3.012e-05,-0.0044345,-9.2522e-05,-921.48,1.6861
3350,19.628,0.36364,0,9.2298e-05,922.34,3.0865e-05,4.8706,3.0217e-05,0.0069606,-9.2214e-05,-919.89,1.6864
3351,19.628,0.54545,0,9.211e-05,920.46,3.044e-05,0.4885,3.0367e-05,-0.066463,-9.2103e-05,-920.25,1.6866
3352,19.628,0.72727,0,9.1954e-05,918.91,3.0599e-05,0.038272,2.9918e-05,-5.0767,-9.2039e-05,-921.42,1.6869
3353,19.628,0.90909,0,9.1816e-05,917.53,3.0871e-05,0.037311,2.9333e-05,-11.515,-9.2006e-05,-923.21,1.6871
3354,19.628,1.0909,0,9.1692e-05,916.28,3.1187e-05,0.038021,2.8681e-05,-18.79,-9.1996e-05,-925.51,1.6873
3355,19.628,1.2727,0,9.1579e-05,915.16,3.1537e-05,0.038248,2.7979e-05,-26.696,-9.2003e-05,-928.2,1.6874
3356,19.628,1.4545,0,9.1479e-05,914.16,3.1907e-05,0.037805,2.7246e-05,-34.986,-9.2023e-05,-931.13,1.6876
3357,19.628,1.6364,0,9.139e-05,913.27,3.2285e-05,0.036802,2.6507e-05,-43.38,-9.205e-05,-934.17,1.6877
3358,19.628,1.8182,0,9.1314e-05,912.51,3.2656e-05,0.035435,2.5786e-05,-51.583,-9.2082e-05,-937.19,1.6878
3359,19.628,2,0,9.1252e-05,911.89,3.3005e-05,0.033898,2.5109e-05,-59.295,-9.2115e-05,-940.07,1.6879
3360,19.628,2.1818,0,9.1202e-05,911.39,3.332e-05,0.032372,2.4501e-05,-66.227,-9.2147e-05,-942.68,1.688
3361,19.628,2.3636,0,9.1164e-05,911.01,3.3588e-05,0.031001,2.3986e-05,-72.118,-9.2176e-05,-944.91,1.688
3362,19.628,2.5455,0,9.1137e-05,910.74,3.3799e-05,0.029899,2.3581e-05,-76.744,-9.2199e-05,-946.67,1.6881
3363,19.628,2.7273,0,9.112e-05,910.58,3.3944e-05,0.029128,2.3303e-05,-79.928,-9.2216e-05,-947.89,1.6881
3364,19.628,2.9091,0,9.1112e-05,910.5,3.4018e-05,0.028737,2.3161e-05,-81.551,-9.2225e-05,-948.51,1.6881
3365,19.628,3.0909,0,9.1112e-05,910.5,3.4018e-05,0.028737,2.3161e-05,-81.551,-9.2225e-05,-948.51,1.6881
3366,19.628,3.2727,0,9.112e-05,910.58,3.3944e-05,0.02913,2.3303e-05,-79.928,-9.2216e-05,-947.89,1.6881
3367,19.628,3.4545,0,9.1137e-05,910.74,3.3799e-05,0.029899,2.3581e-05,-76.744,-9.2199e-05,-946.67,1.6881
3368,19.628,3.6364,0,9.1164e-05,911.01,3.3588e-05,0.031002,2.3986e-05,-72.118,-9.2176e-05,-944.91,1.688
3369,19.628,3.8182,0,9.1202e-05,911.39,3.332e-05,0.03237,2.4501e-05,-66.227,-9.2147e-05,-942.68,1.688
3370,19.628,4,0,9.1252e-05,911.89,3.3005e-05,0.033899,2.5109e-05,-59.295,-9.2115e-05,-940.07,1.6879
3371,19.628,4.1818,0,9.1314e-05,912.51,3.2656e-05,0.035434,2.5786e-05,-51.583,-9.2082e-05,-937.19,1.6878
3372,19.628,4.3636,0,9.139e-05,913.27,3.2285e-05,0.036805,2.6507e-05,-43.38,-9.205e-05,-934.17,1.6877
3373,19.628,4.5455,0,9.1479e-05,914.16,3.1907e-05,0.037804,2.7246e-05,-34.986,-9.2023e-05,-931.13,1.6876
3374,19.628,4.7273,0,9.1579e-05,915.16,3.1537e-05,0.038248,2.7979e-05,-26.696,-9.2003e-05,-928.2,1.6874
3375,19.628,4.9091,0,9.1692e-05,916.28,3.1187e-05,0.038021,2.8681e-05,-18.79,-9.1996e-05,-925.51,1.6873
3376,19.628,5.0909,0,9.1816e-05,917.53,3.0871e-05,0.03731,2.9333e-05,-11.515,-9.2006e-05,-923.21,1.6871
3377,19.628,5.2727,0,9.1954e-05,918.91,3.0599e-05,0.038271,2.9918e-05,-5.0767,-9.2039e-05,-921.42,1.6869
3378,19.628,5.4545,0,9.211e-05,920.46,3.044e-05,0.48854,3.0367e-05,-0.066458,-9.2103e-05,-920.25,1.6866
3379,19.628,5.6364,0,9.2298e-05,922.34,3.0865e-05,4.8706,3.0217e-05,0.0069621,-9.2214e-05,-919.89,1.6864
3380,19.628,5.8182,0,9.2685e-05,926.21,3.1369e-05,9.3857,3.012e-05,-0.0044331,-9.2522e-05,-921.48,1.6861
3381,19.81,0.18182,0,8.9136e-05,890.75,3.0224e-05,9.7025,2.8933e-05,-0.0033888,-8.8967e-05,-885.86,1.7124
3382,19.81,0.36364,0,8.8705e-05,886.44,2.9708e-05,5.2243,2.9014e-05,0.0092852,-8.8615e-05,-883.81,1.7127
3383,19.81,0.54545,0,8.848e-05,884.19,2.929e-05,1.0962,2.9144e-05,0.004456,-8.8461e-05,-883.64,1.7129
3384,19.81,0.72727,0,8.8286e-05,882.25,2.9326e-05,0.029565,2.8812e-05,-3.8328,-8.835e-05,-884.14,1.7132
3385,19.81,0.90909,0,8.8108e-05,880.47,2.9548e-05,0.030662,2.8278e-05,-9.5108,-8.8266e-05,-885.17,1.7134
3386,19.81,1.0909,0,8.7943e-05,878.83,2.9806e-05,0.032322,2.7692e-05,-15.851,-8.8202e-05,-886.63,1.7135
3387,19.81,1.2727,0,8.779e-05,877.29,3.009e-05,0.033247,2.7066e-05,-22.689,-8.8153e-05,-888.4,1.7137
3388,19.81,1.4545,0,8.7648e-05,875.87,3.0391e-05,0.033411,2.6417e-05,-29.825,-8.8116e-05,-890.39,1.7138
3389,19.81,1.6364,0,8.7517e-05,874.56,3.0698e-05,0.032963,2.5765e-05,-37.029,-8.8087e-05,-892.47,1.714
3390,19.81,1.8182,0,8.7399e-05,873.39,3.0999e-05,0.032088,2.5131e-05,-44.056,-8.8065e-05,-894.57,1.7141
3391,19.81,2,0,8.7296e-05,872.36,3.1283e-05,0.030976,2.4537e-05,-50.655,-8.8047e-05,-896.56,1.7142
3392,19.81,2.1818,0,8.7209e-05,871.48,3.1539e-05,0.029792,2.4004e-05,-56.585,-8.8033e-05,-898.38,1.7142
3393,19.81,2.3636,0,8.7138e-05,870.78,3.1756e-05,0.028685,2.3551e-05,-61.624,-8.8022e-05,-899.94,1.7143
3394,19.81,2.5455,0,8.7085e-05,870.25,3.1927e-05,0.027765,2.3195e-05,-65.582,-8.8014e-05,-901.17,1.7144
3395,19.81,2.7273,0,8.7049e-05,869.89,3.2045e-05,0.02711,2.2951e-05,-68.307,-8.8009e-05,-902.02,1.7144
3396,19.81,2.9091,0,8.7031e-05,869.71,3.2106e-05,0.02677,2.2826e-05,-69.697,-8.8007e-05,-902.45,1.7144
3397,19.81,3.0909,0,8.7031e-05,869.71,3.2106e-05,0.02677,2.2826e-05,-69.697,-8.8007e-05,-902.45,1.7144
3398,19.81,3.2727,0,8.7049e-05,869.89,3.2045e-05,0.027109,2.2951e-05,-68.307,-8.8009e-05,-902.02,1.7144
3399,19.81,3.4545,0,8.7085e-05,870.25,3.1927e-05,0.027765,2.3195e-05,-65.582,-8.8014e-05,-901.17,1.7144
3400,19.81,3.6364,0,8.7138e-05,870.78,3.1756e-05,0.028684,2.3551e-05,-61.624,-8.8022e-05,-899.94,1.7143
3401,19.81,3.8182,0,8.7209e-05,871.48,3.1539e-05,0.029793,2.4004e-05,-56.585,-8.8033e-05,-898.38,1.7142
3402,19.81,4,0,8.7296e-05,872.36,3.1283e-05,0.030976,2.4537e-05,-50.655,-8.8047e-05,-896.56,1.7142
3403,19.81,4.1818,0,8.7399e-05,873.39,3.0999e-05,0.032088,2.5131e-05,-44.056,-8.8065e-05,-894.57,1.7141
3404,19.81,4.3636,0,8.7517e-05,874.57,3.0698e-05,0.032964,2.5765e-05,-37.029,-8.8087e-05,-892.47,1.714
3405,19.81,4.5455,0,8.7648e-05,875.87,3.0391e-05,0.03341,2.6417e-05,-29.825,-8.8116e-05,-890.39,1.7138
3406,19.81,4.7273,0,8.779e-05,877.29,3.009e-05,0.033247,2.7066e-05,-22.689,-8.8153e-05,-888.4,1.7137
3407,19.81,4.9091,0,8.7943e-05,878.83,2.9806e-05,0.032323,2.7692e-05,-15.851,-8.8202e-05,-886.63,1.7135
3408,19.81,5.0909,0,8.8108e-05,880.47,2.9548e-05,0.030662,2.8278e-05,-9.5108,-8.8266e-05,-885.17,1.7134
3409,19.81,5.2727,0,8.8286e-05,882.25,2.9326e-05,0.029561,2.8812e-05,-3.8328,-8.835e-05,-884.14,1.7132
3410,19.81,5.4545,0,8.848e-05,884.19,2.929e-05,1.0963,2.9144e-05,0.004454,-8.8461e-05,-883.64,1.7129
3411,19.81,5.6364,0,8.8705e-05,886.44,2.9708e-05,5.2243,2.9014e-05,0.0092854,-8.8615e-05,-883.81,1.7127
3412,19.81,5.8182,0,8.9136e-05,890.75,3.0224e-05,9.7025,2.8933e-05,-0.0033853,-8.8967e-05,-885.86,1.7124
3413,19.992,0.18182,0,8.5482e-05,854.23,2.906e-05,10.196,2.7702e-05,-0.0025433,-8.5304e-05,-849.09,1.7388
3414,19.992,0.36364,0,8.5022e-05,849.63,2.8544e-05,5.8401,2.7768e-05,0.0092151,-8.4921e-05,-846.69,1.7391
3415,19.992,0.54545,0,8.4774e-05,847.16,2.8148e-05,2.0741,2.7874e-05,0.014515,-8.4739e-05,-846.11,1.7393
3416,19.992,0.72727,0,8.4559e-05,845.01,2.8019e-05,0.02352,2.7714e-05,-2.2708,-8.4597e-05,-846.13,1.7395
3417,19.992,0.90909,0,8.4361e-05,843.03,2.8198e-05,0.025892,2.7235e-05,-7.2095,-8.4481e-05,-846.6,1.7397
3418,19.992,1.0909,0,8.4176e-05,841.18,2.8405e-05,0.028154,2.6716e-05,-12.666,-8.4384e-05,-847.42,1.7399
3419,19.992,1.2727,0,8.4001e-05,839.43,2.8635e-05,0.029554,2.6167e-05,-18.511,-8.43e-05,-848.52,1.74
3420,19.992,1.4545,0,8.3838e-05,837.8,2.8878e-05,0.030169,2.5602e-05,-24.585,-8.4228e-05,-849.81,1.7402
3421,19.992,1.6364,0,8.3686e-05,836.28,2.9126e-05,0.030152,2.5036e-05,-30.7,-8.4165e-05,-851.19,1.7403
3422,19.992,1.8182,0,8.3547e-05,834.89,2.9369e-05,0.02968,2.4486e-05,-36.655,-8.4109e-05,-852.6,1.7404
3423,19.992,2,0,8.3423e-05,833.65,2.9598e-05,0.028926,2.3972e-05,-42.243,-8.406e-05,-853.95,1.7405
3424,19.992,2.1818,0,8.3315e-05,832.58,2.9804e-05,0.02805,2.351e-05,-47.263,-8.4018e-05,-855.19,1.7406
3425,19.992,2.3636,0,8.3227e-05,831.7,2.998e-05,0.027186,2.3118e-05,-51.529,-8.3984e-05,-856.25,1.7406
3426,19.992,2.5455,0,8.316e-05,831.03,3.0118e-05,0.026442,2.2811e-05,-54.879,-8.3957e-05,-857.09,1.7407
3427,19.992,2.7273,0,8.3114e-05,830.57,3.0214e-05,0.025903,2.2599e-05,-57.188,-8.3939e-05,-857.67,1.7407
3428,19.992,2.9091,0,8.3091e-05,830.34,3.0262e-05,0.025621,2.2491e-05,-58.364,-8.393e-05,-857.97,1.7407
3429,19.992,3.0909,0,8.3091e-05,830.34,3.0262e-05,0.025621,2.2491e-05,-58.364,-8.393e-05,-857.97,1.7407
3430,19.992,3.2727,0,8.3114e-05,830.57,3.0214e-05,0.025903,2.2599e-05,-57.187,-8.3939e-05,-857.67,1.7407
3431,19.992,3.4545,0,8.316e-05,831.03,3.0118e-05,0.026443,2.2811e-05,-54.879,-8.3957e-05,-857.09,1.7407
3432,19.992,3.6364,0,8.3227e-05,831.7,2.998e-05,0.027185,2.3118e-05,-51.529,-8.3984e-05,-856.25,1.7406
3433,19.992,3.8182,0,8.3315e-05,832.58,2.9804e-05,0.028049,2.351e-05,-47.263,-8.4018e-05,-855.19,1.7406
3434,19.992,4,0,8.3423e-05,833.65,2.9598e-05,0.028929,2.3972e-05,-42.243,-8.406e-05,-853.95,1.7405
3435,19.992,4.1818,0,8.3547e-05,834.89,2.9369e-05,0.029681,2.4486e-05,-36.655,-8.4109e-05,-852.6,1.7404
3436,19.992,4.3636,0,8.3686e-05,836.28,2.9125e-05,0.030151,2.5036e-05,-30.7,-8.4165e-05,-851.19,1.7403
3437,19.992,4.5455,0,8.3838e-05,837.8,2.8878e-05,0.030169,2.5602e-05,-24.585,-8.4228e-05,-849.81,1.7402
3438,19.992,4.7273,0,8.4001e-05,839.44,2.8635e-05,0.029554,2.6167e-05,-18.511,-8.43e-05,-848.52,1.74
3439,19.992,4.9091,0,8.4176e-05,841.18,2.8405e-05,0.028155,2.6716e-05,-12.666,-8.4384e-05,-847.42,1.7399
3440,19.992,5.0909,0,8.4361e-05,843.03,2.8198e-05,0.025892,2.7235e-05,-7.2094,-8.4481e-05,-846.6,1.7397
3441,19.992,5.2727,0,8.4559e-05,845.01,2.8019e-05,0.023518,2.7714e-05,-2.2707,-8.4597e-05,-846.13,1.7395
3442,19.992,5.4545,0,8.4774e-05,847.16,2.8148e-05,2.0742,2.7874e-05,0.014515,-8.4739e-05,-846.11,1.7393
3443,19.992,5.6364,0,8.5022e-05,849.63,2.8544e-05,5.8401,2.7768e-05,0.0092164,-8.4921e-05,-846.69,1.7391
3444,19.992,5.8182,0,8.5482e-05,854.23,2.906e-05,10.196,2.7702e-05,-0.0025412,-8.5304e-05,-849.09,1.7388
3445,20.174,0.18182,0,8.175e-05,816.93,2.7881e-05,10.837,2.6439e-05,-0.0019555,-8.156e-05,-811.46,1.7652
3446,20.174,0.36364,0,8.1272e-05,812.16,2.7376e-05,6.6768,2.6489e-05,0.0075418,-8.1156e-05,-808.79,1.7655
3447,20.174,0.54545,0,8.1016e-05,809.6,2.7012e-05,3.3256,2.6571e-05,0.013955,-8.0958e-05,-807.92,1.7657
3448,20.174,0.72727,0,8.0794e-05,807.38,2.6685e-05,0.019204,2.6624e-05,-0.43692,-8.0801e-05,-807.59,1.7659
3449,20.174,0.90909,0,8.0589e-05,805.34,2.6827e-05,0.022514,2.6204e-05,-4.6548,-8.0667e-05,-807.64,1.7661
3450,20.174,1.0909,0,8.0399e-05,803.43,2.6992e-05,0.025158,2.5754e-05,-9.2713,-8.0552e-05,-808.02,1.7663
3451,20.174,1.2727,0,8.0219e-05,801.64,2.7174e-05,0.026898,2.5282e-05,-14.189,-8.0451e-05,-808.63,1.7664
3452,20.174,1.4545,0,8.005e-05,799.95,2.7368e-05,0.027858,2.4798e-05,-19.281,-8.036e-05,-809.4,1.7666
3453,20.174,1.6364,0,7.9893e-05,798.37,2.7566e-05,0.028189,2.4315e-05,-24.398,-8.0279e-05,-810.28,1.7667
3454,20.174,1.8182,0,7.9747e-05,796.92,2.7761e-05,0.028056,2.3847e-05,-29.375,-8.0206e-05,-811.19,1.7668
3455,20.174,2,0,7.9617e-05,795.62,2.7944e-05,0.027614,2.3409e-05,-34.044,-8.0141e-05,-812.08,1.7669
3456,20.174,2.1818,0,7.9503e-05,794.49,2.811e-05,0.027006,2.3017e-05,-38.238,-8.0084e-05,-812.9,1.767
3457,20.174,2.3636,0,7.9409e-05,793.55,2.8251e-05,0.026362,2.2684e-05,-41.802,-8.0037e-05,-813.61,1.767
3458,20.174,2.5455,0,7.9337e-05,792.82,2.8362e-05,0.025788,2.2422e-05,-44.603,-8.0001e-05,-814.17,1.7671
3459,20.174,2.7273,0,7.9287e-05,792.33,2.8438e-05,0.02536,2.2242e-05,-46.533,-7.9976e-05,-814.55,1.7671
3460,20.174,2.9091,0,7.9262e-05,792.08,2.8477e-05,0.025132,2.215e-05,-47.517,-7.9963e-05,-814.75,1.7671
3461,20.174,3.0909,0,7.9262e-05,792.08,2.8477e-05,0.025132,2.215e-05,-47.517,-7.9963e-05,-814.75,1.7671
3462,20.174,3.2727,0,7.9287e-05,792.33,2.8438e-05,0.025359,2.2242e-05,-46.533,-7.9976e-05,-814.55,1.7671
3463,20.174,3.4545,0,7.9337e-05,792.82,2.8362e-05,0.025787,2.2422e-05,-44.603,-8.0001e-05,-814.17,1.7671
3464,20.174,3.6364,0,7.9409e-05,793.55,2.8251e-05,0.026361,2.2684e-05,-41.802,-8.0037e-05,-813.61,1.767
3465,20.174,3.8182,0,7.9503e-05,794.49,2.811e-05,0.027006,2.3017e-05,-38.238,-8.0084e-05,-812.9,1.767
3466,20.174,4,0,7.9617e-05,795.62,2.7944e-05,0.027613,2.3409e-05,-34.044,-8.0141e-05,-812.08,1.7669
3467,20.174,4.1818,0,7.9747e-05,796.92,2.7761e-05,0.028056,2.3847e-05,-29.375,-8.0206e-05,-811.19,1.7668
3468,20.174,4.3636,0,7.9893e-05,798.37,2.7566e-05,0.028192,2.4315e-05,-24.397,-8.0279e-05,-810.28,1.7667
3469,20.174,4.5455,0,8.005e-05,799.95,2.7368e-05,0.027857,2.4798e-05,-19.281,-8.036e-05,-809.4,1.7666
3470,20.174,4.7273,0,8.0219e-05,801.64,2.7174e-05,0.026898,2.5282e-05,-14.189,-8.0451e-05,-808.63,1.7664
3471,20.174,4.9091,0,8.0399e-05,803.43,2.6992e-05,0.025157,2.5754e-05,-9.2713,-8.0552e-05,-808.02,1.7663
3472,20.174,5.0909,0,8.0589e-05,805.34,2.6827e-05,0.022512,2.6204e-05,-4.6547,-8.0667e-05,-807.64,1.7661
3473,20.174,5.2727,0,8.0794e-05,807.38,2.6685e-05,0.019205,2.6624e-05,-0.43686,-8.0801e-05,-807.59,1.7659
3474,20.174,5.4545,0,8.1016e-05,809.6,2.7012e-05,3.3256,2.6571e-05,0.013956,-8.0958e-05,-807.92,1.7657
3475,20.174,5.6364,0,8.1272e-05,812.16,2.7376e-05,6.6769,2.6489e-05,0.0075427,-8.1156e-05,-808.79,1.7655
3476,20.174,5.8182,0,8.175e-05,816.93,2.7881e-05,10.837,2.6439e-05,-0.0019573,-8.156e-05,-811.46,1.7652
3477,20.357,0.18182,0,7.796e-05,779.07,2.6694e-05,11.599,2.515e-05,-0.0016737,-7.7757e-05,-773.2,1.7917
3478,20.357,0.36364,0,7.7474e-05,774.21,2.6209e-05,7.6981,2.5185e-05,0.0048773,-7.734e-05,-770.33,1.792
3479,20.357,0.54545,0,7.722e-05,771.67,2.5883e-05,4.8007,2.5246e-05,0.011629,-7.7137e-05,-769.25,1.7922
3480,20.357,0.72727,0,7.7003e-05,769.5,2.5546e-05,1.628,2.5332e-05,0.01597,-7.6975e-05,-768.67,1.7924
3481,20.357,0.90909,0,7.6804e-05,767.51,2.544e-05,0.020491,2.5187e-05,-1.8845,-7.6836e-05,-768.44,1.7926
3482,20.357,1.0909,0,7.662e-05,765.67,2.5568e-05,0.02312,2.4807e-05,-5.6985,-7.6715e-05,-768.5,1.7927
3483,20.357,1.2727,0,7.6448e-05,763.95,2.5711e-05,0.025076,2.4411e-05,-9.7445,-7.6609e-05,-768.76,1.7929
3484,20.357,1.4545,0,7.6286e-05,762.33,2.5863e-05,0.026304,2.4006e-05,-13.925,-7.6513e-05,-769.18,1.793
3485,20.357,1.6364,0,7.6134e-05,760.82,2.6019e-05,0.026929,2.3603e-05,-18.122,-7.6426e-05,-769.7,1.7931
3486,20.357,1.8182,0,7.5994e-05,759.42,2.6172e-05,0.027084,2.3213e-05,-22.205,-7.6347e-05,-770.26,1.7932
3487,20.357,2,0,7.5868e-05,758.16,2.6317e-05,0.026912,2.2849e-05,-26.036,-7.6277e-05,-770.83,1.7933
3488,20.357,2.1818,0,7.5758e-05,757.06,2.6448e-05,0.026543,2.2521e-05,-29.479,-7.6216e-05,-771.35,1.7934
3489,20.357,2.3636,0,7.5666e-05,756.14,2.656e-05,0.0261,2.2243e-05,-32.408,-7.6165e-05,-771.81,1.7934
3490,20.357,2.5455,0,7.5595e-05,755.43,2.6648e-05,0.025678,2.2025e-05,-34.71,-7.6125e-05,-772.17,1.7935
3491,20.357,2.7273,0,7.5547e-05,754.94,2.6709e-05,0.025355,2.1875e-05,-36.297,-7.6098e-05,-772.42,1.7935
3492,20.357,2.9091,0,7.5522e-05,754.7,2.674e-05,0.025181,2.1798e-05,-37.107,-7.6084e-05,-772.55,1.7935
3493,20.357,3.0909,0,7.5522e-05,754.7,2.674e-05,0.02518,2.1798e-05,-37.107,-7.6084e-05,-772.55,1.7935
3494,20.357,3.2727,0,7.5547e-05,754.94,2.6709e-05,0.025356,2.1875e-05,-36.297,-7.6098e-05,-772.42,1.7935
3495,20.357,3.4545,0,7.5595e-05,755.43,2.6648e-05,0.025678,2.2025e-05,-34.71,-7.6125e-05,-772.17,1.7935
3496,20.357,3.6364,0,7.5666e-05,756.14,2.656e-05,0.026101,2.2243e-05,-32.408,-7.6165e-05,-771.81,1.7934
3497,20.357,3.8182,0,7.5758e-05,757.06,2.6448e-05,0.026544,2.2521e-05,-29.479,-7.6216e-05,-771.35,1.7934
3498,20.357,4,0,7.5868e-05,758.16,2.6317e-05,0.026912,2.2849e-05,-26.036,-7.6277e-05,-770.83,1.7933
3499,20.357,4.1818,0,7.5994e-05,759.42,2.6172e-05,0.027082,2.3213e-05,-22.205,-7.6347e-05,-770.26,1.7932
3500,20.357,4.3636,0,7.6134e-05,760.82,2.6019e-05,0.026928,2.3603e-05,-18.122,-7.6426e-05,-769.7,1.7931
3501,20.357,4.5455,0,7.6286e-05,762.33,2.5863e-05,0.026303,2.4006e-05,-13.925,-7.6513e-05,-769.18,1.793
3502,20.357,4.7273,0,7.6448e-05,763.95,2.5711e-05,0.025075,2.4411e-05,-9.7444,-7.6609e-05,-768.76,1.7929
3503,20.357,4.9091,0,7.662e-05,765.67,2.5568e-05,0.02312,2.4807e-05,-5.6985,-7.6715e-05,-768.5,1.7927
3504,20.357,5.0909,0,7.6804e-05,767.51,2.544e-05,0.02049,2.5187e-05,-1.8844,-7.6836e-05,-768.44,1.7926
3505,20.357,5.2727,0,7.7003e-05,769.5,2.5546e-05,1.628,2.5332e-05,0.015969,-7.6975e-05,-768.67,1.7924
3506,20.357,5.4545,0,7.722e-05,771.67,2.5883e-05,4.8007,2.5246e-05,0.011629,-7.7137e-05,-769.25,1.7922
3507,20.357,5.6364,0,7.7474e-05,774.21,2.6209e-05,7.6981,2.5185e-05,0.0048792,-7.734e-05,-770.33,1.792
3508,20.357,5.8182,0,7.796e-05,779.07,2.6694e-05,11.599,2.515e-05,-0.0016726,-7.7757e-05,-773.2,1.7917
3509,20.539,0.18182,0,7.413e-05,740.79,2.5502e-05,12.459,2.3843e-05,-0.0017198,-7.3911e-05,-734.49,1.8183
3510,20.539,0.36364,0,7.3644e-05,735.93,2.5042e-05,8.8721,2.3862e-05,0.0016073,-7.3489e-05,-731.46,1.8185
3511,20.539,0.54545,0,7.3401e-05,733.51,2.4761e-05,6.462,2.3902e-05,0.0092264,-7.3289e-05,-730.25,1.8187
3512,20.539,0.72727,0,7.3198e-05,731.47,2.4479e-05,3.8887,2.3963e-05,0.013564,-7.313e-05,-729.51,1.8189
3513,20.539,0.90909,0,7.3015e-05,729.64,2.4184e-05,1.0736,2.4043e-05,0.016179,-7.2996e-05,-729.1,1.8191
3514,20.539,1.0909,0,7.2847e-05,727.96,2.4139e-05,0.022344,2.3873e-05,-1.9724,-7.288e-05,-728.94,1.8192
3515,20.539,1.2727,0,7.2691e-05,726.41,2.4247e-05,0.023982,2.3552e-05,-5.1932,-7.2777e-05,-728.98,1.8194
3516,20.539,1.4545,0,7.2545e-05,724.95,2.4363e-05,0.025378,2.3225e-05,-8.5217,-7.2686e-05,-729.16,1.8195
3517,20.539,1.6364,0,7.2408e-05,723.58,2.4482e-05,0.026239,2.2899e-05,-11.867,-7.2603e-05,-729.43,1.8196
3518,20.539,1.8182,0,7.2283e-05,722.33,2.4601e-05,0.026646,2.2584e-05,-15.127,-7.2527e-05,-729.76,1.8197
3519,20.539,2,0,7.2169e-05,721.19,2.4713e-05,0.026714,2.2289e-05,-18.192,-7.246e-05,-730.1,1.8198
3520,20.539,2.1818,0,7.2069e-05,720.19,2.4815e-05,0.02656,2.2023e-05,-20.951,-7.2402e-05,-730.42,1.8199
3521,20.539,2.3636,0,7.1985e-05,719.35,2.4902e-05,0.026296,2.1797e-05,-23.302,-7.2353e-05,-730.71,1.8199
3522,20.539,2.5455,0,7.192e-05,718.71,2.4971e-05,0.026013,2.162e-05,-25.152,-7.2315e-05,-730.94,1.82
3523,20.539,2.7273,0,7.1876e-05,718.26,2.5018e-05,0.025783,2.1497e-05,-26.429,-7.2288e-05,-731.1,1.82
3524,20.539,2.9091,0,7.1853e-05,718.04,2.5042e-05,0.025655,2.1435e-05,-27.081,-7.2275e-05,-731.18,1.82
3525,20.539,3.0909,0,7.1853e-05,718.04,2.5042e-05,0.025655,2.1435e-05,-27.081,-7.2275e-05,-731.18,1.82
3526,20.539,3.2727,0,7.1876e-05,718.26,2.5018e-05,0.025782,2.1497e-05,-26.429,-7.2288e-05,-731.1,1.82
3527,20.539,3.4545,0,7.192e-05,718.71,2.4971e-05,0.026013,2.162e-05,-25.152,-7.2315e-05,-730.94,1.82
3528,20.539,3.6364,0,7.1985e-05,719.35,2.4902e-05,0.026295,2.1797e-05,-23.302,-7.2353e-05,-730.71,1.8199
3529,20.539,3.8182,0,7.2069e-05,720.19,2.4815e-05,0.02656,2.2023e-05,-20.951,-7.2402e-05,-730.42,1.8199
3530,20.539,4,0,7.2169e-05,721.19,2.4713e-05,0.026713,2.2289e-05,-18.192,-7.246e-05,-730.1,1.8198
3531,20.539,4.1818,0,7.2283e-05,722.33,2.4601e-05,0.026647,2.2584e-05,-15.127,-7.2527e-05,-729.76,1.8197
3532,20.539,4.3636,0,7.2408e-05,723.58,2.4482e-05,0.026241,2.2899e-05,-11.867,-7.2603e-05,-729.43,1.8196
3533,20.539,4.5455,0,7.2545e-05,724.95,2.4363e-05,0.025375,2.3225e-05,-8.5216,-7.2686e-05,-729.16,1.8195
3534,20.539,4.7273,0,7.2691e-05,726.41,2.4247e-05,0.023983,2.3552e-05,-5.1932,-7.2777e-05,-728.98,1.8194
3535,20.539,4.9091,0,7.2847e-05,727.96,2.4139e-05,0.022343,2.3873e-05,-1.9723,-7.288e-05,-728.94,1.8192
3536,20.539,5.0909,0,7.3015e-05,729.64,2.4184e-05,1.0737,2.4043e-05,0.016181,-7.2996e-05,-729.1,1.8191
3537,20.539,5.2727,0,7.3198e-05,731.47,2.4479e-05,3.8888,2.3963e-05,0.013561,-7.313e-05,-729.51,1.8189
3538,20.539,5.4545,0,7.3401e-05,733.51,2.4761e-05,6.462,2.3902e-05,0.0092244,-7.3289e-05,-730.25,1.8187
3539,20.539,5.6364,0,7.3644e-05,735.93,2.5042e-05,8.8721,2.3862e-05,0.0016098,-7.3489e-05,-731.46,1.8185
3540,20.539,5.8182,0,7.413e-05,740.79,2.5502e-05,12.459,2.3843e-05,-0.0017166,-7.3911e-05,-734.49,1.8183
3541,20.721,0.18182,0,7.0273e-05,702.24,2.4306e-05,13.395,2.2523e-05,-0.0020835,-7.0035e-05,-695.45,1.8448
3542,20.721,0.36364,0,6.9793e-05,697.45,2.388e-05,10.172,2.2526e-05,-0.0020324,-6.9614e-05,-692.31,1.845
3543,20.721,0.54545,0,6.9569e-05,695.21,2.3648e-05,8.2794,2.2547e-05,0.0070958,-6.9424e-05,-691.03,1.8453
3544,20.721,0.72727,0,6.9386e-05,693.39,2.3424e-05,6.3166,2.2585e-05,0.011738,-6.9277e-05,-690.2,1.8454
3545,20.721,0.90909,0,6.9226e-05,691.79,2.3194e-05,4.188,2.2638e-05,0.0161,-6.9154e-05,-689.68,1.8456
3546,20.721,1.0909,0,6.9083e-05,690.35,2.2954e-05,1.8926,2.2705e-05,0.019048,-6.905e-05,-689.39,1.8458
3547,20.721,1.2727,0,6.8951e-05,689.03,2.2783e-05,0.025694,2.2707e-05,-0.54717,-6.8959e-05,-689.29,1.8459
3548,20.721,1.4545,0,6.8828e-05,687.8,2.2867e-05,0.025079,2.2455e-05,-3.0717,-6.8879e-05,-689.32,1.846
3549,20.721,1.6364,0,6.8714e-05,686.66,2.2956e-05,0.026063,2.2204e-05,-5.6237,-6.8807e-05,-689.44,1.8462
3550,20.721,1.8182,0,6.8608e-05,685.61,2.3044e-05,0.026688,2.1959e-05,-8.1226,-6.8742e-05,-689.62,1.8463
3551,20.721,2,0,6.8512e-05,684.65,2.3129e-05,0.026971,2.173e-05,-10.482,-6.8684e-05,-689.82,1.8463
3552,20.721,2.1818,0,6.8428e-05,683.81,2.3205e-05,0.027008,2.1523e-05,-12.616,-6.8633e-05,-690.01,1.8464
3553,20.721,2.3636,0,6.8357e-05,683.1,2.3271e-05,0.026905,2.1346e-05,-14.439,-6.8591e-05,-690.19,1.8465
3554,20.721,2.5455,0,6.8301e-05,682.54,2.3324e-05,0.026746,2.1207e-05,-15.878,-6.8557e-05,-690.33,1.8465
3555,20.721,2.7273,0,6.8263e-05,682.16,2.336e-05,0.0266,2.1111e-05,-16.873,-6.8534e-05,-690.43,1.8465
3556,20.721,2.9091,0,6.8244e-05,681.97,2.3378e-05,0.026514,2.1061e-05,-17.381,-6.8523e-05,-690.48,1.8466
3557,20.721,3.0909,0,6.8244e-05,681.97,2.3378e-05,0.026512,2.1061e-05,-17.381,-6.8523e-05,-690.48,1.8466
3558,20.721,3.2727,0,6.8263e-05,682.16,2.336e-05,0.026598,2.1111e-05,-16.873,-6.8534e-05,-690.43,1.8465
3559,20.721,3.4545,0,6.8301e-05,682.54,2.3324e-05,0.026746,2.1207e-05,-15.878,-6.8557e-05,-690.33,1.8465
3560,20.721,3.6364,0,6.8357e-05,683.1,2.3271e-05,0.026905,2.1346e-05,-14.439,-6.8591e-05,-690.19,1.8465
3561,20.721,3.8182,0,6.8428e-05,683.81,2.3205e-05,0.027012,2.1523e-05,-12.616,-6.8633e-05,-690.01,1.8464
3562,20.721,4,0,6.8512e-05,684.65,2.3129e-05,0.026972,2.173e-05,-10.482,-6.8684e-05,-689.82,1.8463
3563,20.721,4.1818,0,6.8608e-05,685.61,2.3044e-05,0.026687,2.1959e-05,-8.1225,-6.8742e-05,-689.62,1.8463
3564,20.721,4.3636,0,6.8714e-05,686.66,2.2956e-05,0.026064,2.2204e-05,-5.6237,-6.8807e-05,-689.44,1.8462
3565,20.721,4.5455,0,6.8828e-05,687.8,2.2867e-05,0.02508,2.2455e-05,-3.0716,-6.8879e-05,-689.32,1.846
3566,20.721,4.7273,0,6.8951e-05,689.03,2.2783e-05,0.025695,2.2707e-05,-0.54711,-6.8959e-05,-689.29,1.8459
3567,20.721,4.9091,0,6.9083e-05,690.35,2.2954e-05,1.8927,2.2705e-05,0.019048,-6.905e-05,-689.39,1.8458
3568,20.721,5.0909,0,6.9226e-05,691.79,2.3194e-05,4.1881,2.2638e-05,0.016099,-6.9154e-05,-689.68,1.8456
3569,20.721,5.2727,0,6.9386e-05,693.39,2.3424e-05,6.3167,2.2585e-05,0.011738,-6.9277e-05,-690.2,1.8454
3570,20.721,5.4545,0,6.9569e-05,695.21,2.3648e-05,8.2794,2.2547e-05,0.0070916,-6.9424e-05,-691.03,1.8453
3571,20.721,5.6364,0,6.9793e-05,697.45,2.388e-05,10.172,2.2526e-05,-0.0020304,-6.9614e-05,-692.31,1.845
3572,20.721,5.8182,0,7.0273e-05,702.24,2.4306e-05,13.395,2.2523e-05,-0.0020822,-7.0035e-05,-695.45,1.8448
3573,20.903,0.18182,0,6.6397e-05,663.51,2.311e-05,14.39,2.1194e-05,-0.0027689,-6.614e-05,-656.2,1.8715
3574,20.903,0.36364,0,6.593e-05,658.84,2.2722e-05,11.574,2.1181e-05,-0.0059211,-6.5725e-05,-652.98,1.8717
3575,20.903,0.54545,0,6.5731e-05,656.85,2.2544e-05,10.228,2.1183e-05,0.0052737,-6.5551e-05,-651.68,1.8719
3576,20.903,0.72727,0,6.5576e-05,655.31,2.2381e-05,8.8887,2.1199e-05,0.010365,-6.542e-05,-650.81,1.872
3577,20.903,0.90909,0,6.5446e-05,654,2.2217e-05,7.4446,2.1229e-05,0.01548,-6.5315e-05,-650.24,1.8722
3578,20.903,1.0909,0,6.5332e-05,652.87,2.2049e-05,5.8779,2.1269e-05,0.019392,-6.5229e-05,-649.9,1.8724
3579,20.903,1.2727,0,6.523e-05,651.85,2.1875e-05,4.1972,2.1319e-05,0.022443,-6.5157e-05,-649.73,1.8725
3580,20.903,1.4545,0,6.5136e-05,650.91,2.1697e-05,2.4308,2.1376e-05,0.024645,-6.5094e-05,-649.68,1.8726
3581,20.903,1.6364,0,6.5049e-05,650.05,2.1517e-05,0.62374,2.1438e-05,0.026098,-6.5038e-05,-649.72,1.8727
3582,20.903,1.8182,0,6.4969e-05,649.24,2.15e-05,0.02716,2.1341e-05,-1.1666,-6.4988e-05,-649.81,1.8728
3583,20.903,2,0,6.4895e-05,648.51,2.156e-05,0.027657,2.1174e-05,-2.8743,-6.4943e-05,-649.92,1.8729
3584,20.903,2.1818,0,6.483e-05,647.85,2.1615e-05,0.027876,2.1022e-05,-4.4314,-6.4904e-05,-650.04,1.873
3585,20.903,2.3636,0,6.4775e-05,647.3,2.1663e-05,0.027905,2.0891e-05,-5.7712,-6.4871e-05,-650.15,1.873
3586,20.903,2.5455,0,6.4731e-05,646.87,2.1701e-05,0.027846,2.0788e-05,-6.8344,-6.4844e-05,-650.24,1.8731
3587,20.903,2.7273,0,6.4701e-05,646.57,2.1728e-05,0.027768,2.0716e-05,-7.572,-6.4826e-05,-650.31,1.8731
3588,20.903,2.9091,0,6.4686e-05,646.41,2.1741e-05,0.027715,2.068e-05,-7.9498,-6.4817e-05,-650.34,1.8731
3589,20.903,3.0909,0,6.4686e-05,646.41,2.1741e-05,0.027716,2.068e-05,-7.9498,-6.4817e-05,-650.34,1.8731
3590,20.903,3.2727,0,6.4701e-05,646.57,2.1728e-05,0.027767,2.0716e-05,-7.572,-6.4826e-05,-650.31,1.8731
3591,20.903,3.4545,0,6.4731e-05,646.87,2.1701e-05,0.027847,2.0788e-05,-6.8343,-6.4844e-05,-650.24,1.8731
3592,20.903,3.6364,0,6.4775e-05,647.3,2.1663e-05,0.027906,2.0891e-05,-5.7712,-6.4871e-05,-650.15,1.873
3593,20.903,3.8182,0,6.483e-05,647.85,2.1615e-05,0.027874,2.1022e-05,-4.4313,-6.4904e-05,-650.04,1.873
3594,20.903,4,0,6.4895e-05,648.51,2.156e-05,0.027658,2.1174e-05,-2.8743,-6.4943e-05,-649.92,1.8729
3595,20.903,4.1818,0,6.4969e-05,649.24,2.15e-05,0.027161,2.1341e-05,-1.1665,-6.4988e-05,-649.81,1.8728
3596,20.903,4.3636,0,6.5049e-05,650.05,2.1517e-05,0.62379,2.1438e-05,0.026096,-6.5038e-05,-649.72,1.8727
3597,20.903,4.5455,0,6.5136e-05,650.91,2.1697e-05,2.4308,2.1376e-05,0.024644,-6.5094e-05,-649.68,1.8726
3598,20.903,4.7273,0,6.523e-05,651.85,2.1875e-05,4.1972,2.1319e-05,0.022442,-6.5157e-05,-649.73,1.8725
3599,20.903,4.9091,0,6.5332e-05,652.87,2.2049e-05,5.878,2.1269e-05,0.019393,-6.5229e-05,-649.9,1.8724
3600,20.903,5.0909,0,6.5446e-05,654,2.2217e-05,7.4447,2.1229e-05,0.015478,-6.5315e-05,-650.24,1.8722
3601,20.903,5.2727,0,6.5576e-05,655.31,2.2381e-05,8.8888,2.1199e-05,0.010363,-6.542e-05,-650.81,1.872
3602,20.903,5.4545,0,6.5731e-05,656.85,2.2544e-05,10.228,2.1183e-05,0.0052769,-6.5551e-05,-651.68,1.8719
3603,20.903,5.6364,0,6.593e-05,658.84,2.2722e-05,11.574,2.1181e-05,-0.0059196,-6.5725e-05,-652.98,1.8717
3604,20.903,5.8182,0,6.6397e-05,663.51,2.311e-05,14.39,2.1194e-05,-0.0027678,-6.614e-05,-656.2,1.8715
3605,21.085,0.18182,0,6.251e-05,624.67,2.1913e-05,15.427,1.9859e-05,-0.003779,-6.2233e-05,-616.81,1.8981
3606,21.085,0.36364,0,6.2061e-05,620.18,2.1569e-05,13.059,1.9829e-05,-0.010001,-6.1829e-05,-613.56,1.8983
3607,21.085,0.54545,0,6.1893e-05,618.5,2.1448e-05,12.289,1.9813e-05,0.0037495,-6.1674e-05,-612.26,1.8985
3608,21.085,0.72727,0,6.1771e-05,617.29,2.135e-05,11.588,1.9809e-05,0.0093721,-6.1566e-05,-611.41,1.8987
3609,21.085,0.90909,0,6.1676e-05,616.33,2.1255e-05,10.83,1.9816e-05,0.015167,-6.1484e-05,-610.84,1.8989
3610,21.085,1.0909,0,6.1598e-05,615.55,2.1158e-05,9.9814,1.9832e-05,0.019509,-6.1421e-05,-610.49,1.899
3611,21.085,1.2727,0,6.1531e-05,614.88,2.1057e-05,9.0327,1.9858e-05,0.022881,-6.1372e-05,-610.3,1.8991
3612,21.085,1.4545,0,6.1471e-05,614.28,2.0951e-05,7.9943,1.989e-05,0.025308,-6.133e-05,-610.23,1.8993
3613,21.085,1.6364,0,6.1415e-05,613.73,2.0841e-05,6.8928,1.9927e-05,0.026977,-6.1295e-05,-610.24,1.8994
3614,21.085,1.8182,0,6.1364e-05,613.21,2.073e-05,5.7677,1.9966e-05,0.028041,-6.1263e-05,-610.29,1.8995
3615,21.085,2,0,6.1315e-05,612.73,2.0622e-05,4.6672,2.0005e-05,0.028659,-6.1234e-05,-610.37,1.8995
3616,21.085,2.1818,0,6.1272e-05,612.3,2.0523e-05,3.6437,2.0041e-05,0.028972,-6.1209e-05,-610.45,1.8996
3617,21.085,2.3636,0,6.1235e-05,611.92,2.0436e-05,2.7492,2.0074e-05,0.029103,-6.1187e-05,-610.53,1.8997
3618,21.085,2.5455,0,6.1205e-05,611.62,2.0366e-05,2.0313,2.0099e-05,0.029155,-6.1169e-05,-610.59,1.8997
3619,21.085,2.7273,0,6.1184e-05,611.42,2.0317e-05,1.5292,2.0117e-05,0.029195,-6.1157e-05,-610.64,1.8997
3620,21.085,2.9091,0,6.1173e-05,611.31,2.0292e-05,1.2708,2.0127e-05,0.029239,-6.1151e-05,-610.66,1.8997
3621,21.085,3.0909,0,6.1173e-05,611.31,2.0292e-05,1.2708,2.0127e-05,0.029237,-6.1151e-05,-610.66,1.8997
3622,21.085,3.2727,0,6.1184e-05,611.42,2.0317e-05,1.5292,2.0117e-05,0.029197,-6.1157e-05,-610.64,1.8997
3623,21.085,3.4545,0,6.1205e-05,611.62,2.0366e-05,2.0313,2.0099e-05,0.029155,-6.1169e-05,-610.59,1.8997
3624,21.085,3.6364,0,6.1235e-05,611.92,2.0436e-05,2.7492,2.0074e-05,0.029101,-6.1187e-05,-610.53,1.8997
3625,21.085,3.8182,0,6.1272e-05,612.3,2.0523e-05,3.6437,2.0041e-05,0.02897,-6.1209e-05,-610.45,1.8996
3626,21.085,4,0,6.1315e-05,612.73,2.0622e-05,4.6673,2.0005e-05,0.02866,-6.1234e-05,-610.37,1.8995
3627,21.085,4.1818,0,6.1364e-05,613.21,2.073e-05,5.7678,1.9966e-05,0.028039,-6.1263e-05,-610.29,1.8995
3628,21.085,4.3636,0,6.1415e-05,613.73,2.0841e-05,6.8928,1.9927e-05,0.026976,-6.1295e-05,-610.24,1.8994
3629,21.085,4.5455,0,6.1471e-05,614.28,2.0951e-05,7.9943,1.989e-05,0.025308,-6.133e-05,-610.23,1.8993
3630,21.085,4.7273,0,6.1531e-05,614.88,2.1057e-05,9.0327,1.9858e-05,0.02288,-6.1372e-05,-610.3,1.8991
3631,21.085,4.9091,0,6.1598e-05,615.55,2.1158e-05,9.9814,1.9832e-05,0.01951,-6.1421e-05,-610.49,1.899
3632,21.085,5.0909,0,6.1676e-05,616.33,2.1255e-05,10.83,1.9816e-05,0.015165,-6.1484e-05,-610.84,1.8989
3633,21.085,5.2727,0,6.1771e-05,617.29,2.135e-05,11.588,1.9809e-05,0.0093689,-6.1566e-05,-611.41,1.8987
3634,21.085,5.4545,0,6.1893e-05,618.5,2.1448e-05,12.289,1.9813e-05,0.0037533,-6.1674e-05,-612.26,1.8985
3635,21.085,5.6364,0,6.2061e-05,620.18,2.1569e-05,13.059,1.9829e-05,-0.010001,-6.1829e-05,-613.56,1.8983
3636,21.085,5.8182,0,6.251e-05,624.67,2.1913e-05,15.427,1.9859e-05,-0.0037807,-6.2233e-05,-616.81,1.8981
3637,21.267,0.18182,0,5.8619e-05,585.78,2.0717e-05,16.491,1.8521e-05,-0.0051416,-5.8321e-05,-577.36,1.9248
3638,21.267,0.36364,0,5.8193e-05,581.53,2.0421e-05,14.613,1.8474e-05,-0.014249,-5.7931e-05,-574.09,1.925
3639,21.267,0.54545,0,5.806e-05,580.2,2.0362e-05,14.447,1.844e-05,0.0024943,-5.78e-05,-572.84,1.9252
3640,21.267,0.72727,0,5.7977e-05,579.37,2.0331e-05,14.403,1.8415e-05,0.0087149,-5.7718e-05,-572.03,1.9254
3641,21.267,0.90909,0,5.7921e-05,578.81,2.0307e-05,14.338,1.8401e-05,0.015209,-5.7664e-05,-571.5,1.9255
3642,21.267,1.0909,0,5.7883e-05,578.43,2.0283e-05,14.202,1.8395e-05,0.019952,-5.7628e-05,-571.19,1.9257
3643,21.267,1.2727,0,5.7855e-05,578.15,2.0254e-05,13.97,1.8398e-05,0.023608,-5.7605e-05,-571.03,1.9258
3644,21.267,1.4545,0,5.7833e-05,577.93,2.0219e-05,13.634,1.8408e-05,0.026246,-5.7588e-05,-570.98,1.9259
3645,21.267,1.6364,0,5.7812e-05,577.72,2.0176e-05,13.206,1.8422e-05,0.028091,-5.7576e-05,-570.99,1.926
3646,21.267,1.8182,0,5.7792e-05,577.52,2.0128e-05,12.71,1.8441e-05,0.029327,-5.7565e-05,-571.05,1.9261
3647,21.267,2,0,5.7772e-05,577.32,2.0078e-05,12.179,1.8461e-05,0.030114,-5.7554e-05,-571.12,1.9262
3648,21.267,2.1818,0,5.7752e-05,577.12,2.0027e-05,11.652,1.8481e-05,0.030589,-5.7545e-05,-571.19,1.9263
3649,21.267,2.3636,0,5.7734e-05,576.94,1.9981e-05,11.17,1.8499e-05,0.030865,-5.7535e-05,-571.26,1.9263
3650,21.267,2.5455,0,5.7719e-05,576.79,1.9943e-05,10.771,1.8514e-05,0.03101,-5.7527e-05,-571.31,1.9264
3651,21.267,2.7273,0,5.7708e-05,576.68,1.9916e-05,10.486,1.8524e-05,0.031083,-5.7522e-05,-571.35,1.9264
3652,21.267,2.9091,0,5.7702e-05,576.62,1.9902e-05,10.337,1.853e-05,0.031115,-5.7519e-05,-571.37,1.9264
3653,21.267,3.0909,0,5.7702e-05,576.62,1.9902e-05,10.337,1.853e-05,0.031114,-5.7519e-05,-571.37,1.9264
3654,21.267,3.2727,0,5.7708e-05,576.68,1.9916e-05,10.486,1.8524e-05,0.031084,-5.7522e-05,-571.35,1.9264
3655,21.267,3.4545,0,5.7719e-05,576.79,1.9943e-05,10.771,1.8514e-05,0.031012,-5.7527e-05,-571.31,1.9264
3656,21.267,3.6364,0,5.7734e-05,576.94,1.9981e-05,11.17,1.8499e-05,0.030863,-5.7535e-05,-571.26,1.9263
3657,21.267,3.8182,0,5.7752e-05,577.12,2.0027e-05,11.652,1.8481e-05,0.030591,-5.7545e-05,-571.19,1.9263
3658,21.267,4,0,5.7772e-05,577.32,2.0078e-05,12.179,1.8461e-05,0.030113,-5.7554e-05,-571.12,1.9262
3659,21.267,4.1818,0,5.7792e-05,577.52,2.0128e-05,12.71,1.8441e-05,0.029326,-5.7565e-05,-571.05,1.9261
3660,21.267,4.3636,0,5.7812e-05,577.72,2.0176e-05,13.206,1.8422e-05,0.028092,-5.7576e-05,-570.99,1.926
3661,21.267,4.5455,0,5.7833e-05,577.93,2.0219e-05,13.634,1.8408e-05,0.026246,-5.7588e-05,-570.98,1.9259
3662,21.267,4.7273,0,5.7855e-05,578.15,2.0254e-05,13.97,1.8398e-05,0.023608,-5.7605e-05,-571.03,1.9258
3663,21.267,4.9091,0,5.7883e-05,578.43,2.0283e-05,14.202,1.8395e-05,0.019951,-5.7628e-05,-571.19,1.9257
3664,21.267,5.0909,0,5.7921e-05,578.81,2.0307e-05,14.338,1.8401e-05,0.015209,-5.7664e-05,-571.5,1.9255
3665,21.267,5.2727,0,5.7977e-05,579.37,2.0331e-05,14.403,1.8415e-05,0.0087125,-5.7718e-05,-572.03,1.9254
3666,21.267,5.4545,0,5.806e-05,580.2,2.0362e-05,14.447,1.844e-05,0.0024943,-5.78e-05,-572.84,1.9252
3667,21.267,5.6364,0,5.8193e-05,581.53,2.0421e-05,14.613,1.8474e-05,-0.014247,-5.7931e-05,-574.09,1.925
3668,21.267,5.8182,0,5.8619e-05,585.78,2.0717e-05,16.491,1.8521e-05,-0.00514,-5.8321e-05,-577.36,1.9248
3669,21.45,0.18182,0,5.4726e-05,546.89,1.9521e-05,17.571,1.7182e-05,-0.0068769,-5.4406e-05,-537.89,1.9516
3670,21.45,0.36364,0,5.4328e-05,542.91,1.9279e-05,16.223,1.7117e-05,-0.018649,-5.4034e-05,-534.62,1.9518
3671,21.45,0.54545,0,5.4235e-05,541.98,1.9286e-05,16.693,1.7065e-05,0.0014945,-5.3932e-05,-533.44,1.9519
3672,21.45,0.72727,0,5.4196e-05,541.59,1.9325e-05,17.328,1.702e-05,0.0083913,-5.388e-05,-532.71,1.9521
3673,21.45,0.90909,0,5.4185e-05,541.48,1.9374e-05,17.968,1.6985e-05,0.015631,-5.3857e-05,-532.26,1.9523
3674,21.45,1.0909,0,5.4191e-05,541.54,1.9424e-05,18.546,1.6958e-05,0.020786,-5.3852e-05,-532.02,1.9524
3675,21.45,1.2727,0,5.4207e-05,541.69,1.9468e-05,19.021,1.694e-05,0.024745,-5.3858e-05,-531.92,1.9525
3676,21.45,1.4545,0,5.4225e-05,541.87,1.9503e-05,19.369,1.6928e-05,0.027605,-5.3869e-05,-531.91,1.9526
3677,21.45,1.6364,0,5.4241e-05,542.04,1.9526e-05,19.59,1.6923e-05,0.029637,-5.3881e-05,-531.97,1.9527
3678,21.45,1.8182,0,5.4255e-05,542.17,1.9539e-05,19.692,1.6922e-05,0.031035,-5.3893e-05,-532.05,1.9528
3679,21.45,2,0,5.4264e-05,542.27,1.9543e-05,19.698,1.6925e-05,0.03197,-5.3902e-05,-532.14,1.9529
3680,21.45,2.1818,0,5.427e-05,542.32,1.9539e-05,19.637,1.693e-05,0.03257,-5.3908e-05,-532.22,1.953
3681,21.45,2.3636,0,5.4272e-05,542.34,1.9532e-05,19.54,1.6936e-05,0.032947,-5.3912e-05,-532.29,1.953
3682,21.45,2.5455,0,5.4272e-05,542.35,1.9524e-05,19.436,1.6941e-05,0.03317,-5.3915e-05,-532.35,1.9531
3683,21.45,2.7273,0,5.4271e-05,542.34,1.9516e-05,19.351,1.6945e-05,0.033291,-5.3916e-05,-532.39,1.9531
3684,21.45,2.9091,0,5.4271e-05,542.33,1.9512e-05,19.304,1.6947e-05,0.033345,-5.3916e-05,-532.41,1.9531
3685,21.45,3.0909,0,5.4271e-05,542.33,1.9512e-05,19.304,1.6947e-05,0.033345,-5.3916e-05,-532.41,1.9531
3686,21.45,3.2727,0,5.4271e-05,542.34,1.9516e-05,19.351,1.6945e-05,0.033291,-5.3916e-05,-532.39,1.9531
3687,21.45,3.4545,0,5.4272e-05,542.35,1.9524e-05,19.436,1.6941e-05,0.03317,-5.3915e-05,-532.35,1.9531
3688,21.45,3.6364,0,5.4272e-05,542.34,1.9532e-05,19.54,1.6936e-05,0.032947,-5.3912e-05,-532.29,1.953
3689,21.45,3.8182,0,5.427e-05,542.32,1.9539e-05,19.637,1.693e-05,0.032574,-5.3908e-05,-532.22,1.953
3690,21.45,4,0,5.4264e-05,542.27,1.9543e-05,19.698,1.6925e-05,0.03197,-5.3902e-05,-532.14,1.9529
3691,21.45,4.1818,0,5.4255e-05,542.17,1.9539e-05,19.692,1.6922e-05,0.031035,-5.3893e-05,-532.05,1.9528
3692,21.45,4.3636,0,5.4241e-05,542.04,1.9526e-05,19.59,1.6923e-05,0.029638,-5.3881e-05,-531.97,1.9527
3693,21.45,4.5455,0,5.4225e-05,541.87,1.9503e-05,19.37,1.6928e-05,0.027603,-5.3869e-05,-531.91,1.9526
3694,21.45,4.7273,0,5.4207e-05,541.69,1.9468e-05,19.021,1.694e-05,0.024745,-5.3858e-05,-531.92,1.9525
3695,21.45,4.9091,0,5.4191e-05,541.54,1.9424e-05,18.547,1.6958e-05,0.020787,-5.3852e-05,-532.02,1.9524
3696,21.45,5.0909,0,5.4185e-05,541.48,1.9374e-05,17.968,1.6985e-05,0.015632,-5.3857e-05,-532.26,1.9523
3697,21.45,5.2727,0,5.4196e-05,541.59,1.9325e-05,17.328,1.702e-05,0.0083919,-5.388e-05,-532.71,1.9521
3698,21.45,5.4545,0,5.4235e-05,541.98,1.9286e-05,16.693,1.7065e-05,0.0014935,-5.3932e-05,-533.44,1.9519
3699,21.45,5.6364,0,5.4328e-05,542.91,1.9279e-05,16.223,1.7117e-05,-0.018647,-5.4034e-05,-534.62,1.9518
3700,21.45,5.8182,0,5.4726e-05,546.89,1.9521e-05,17.571,1.7182e-05,-0.0068751,-5.4406e-05,-537.89,1.9516
3701,21.632,0.18182,0,5.0837e-05,508.02,1.8327e-05,18.653,1.5843e-05,-0.0090448,-5.0494e-05,-498.44,1.9783
3702,21.632,0.36364,0,5.0471e-05,504.36,1.8143e-05,17.88,1.576e-05,-0.023199,-5.0144e-05,-495.2,1.9785
3703,21.632,0.54545,0,5.0424e-05,503.89,1.822e-05,19.022,1.5689e-05,0.00075833,-5.0073e-05,-494.11,1.9787
3704,21.632,0.72727,0,5.0433e-05,503.98,1.8334e-05,20.364,1.5625e-05,0.0084279,-5.0055e-05,-493.48,1.9789
3705,21.632,0.90909,0,5.0471e-05,504.36,1.8458e-05,21.727,1.5569e-05,0.016475,-5.0066e-05,-493.14,1.979
3706,21.632,1.0909,0,5.0526e-05,504.91,1.8583e-05,23.026,1.5522e-05,0.022072,-5.0094e-05,-492.99,1.9791
3707,21.632,1.2727,0,5.0587e-05,505.52,1.8701e-05,24.204,1.5483e-05,0.026347,-5.0132e-05,-492.97,1.9793
3708,21.632,1.4545,0,5.0649e-05,506.14,1.8805e-05,25.224,1.5451e-05,0.02944,-5.0172e-05,-493.04,1.9794
3709,21.632,1.6364,0,5.0705e-05,506.7,1.8893e-05,26.072,1.5427e-05,0.031655,-5.0211e-05,-493.15,1.9795
3710,21.632,1.8182,0,5.0754e-05,507.19,1.8965e-05,26.748,1.5409e-05,0.033209,-5.0246e-05,-493.27,1.9796
3711,21.632,2,0,5.0794e-05,507.59,1.902e-05,27.265,1.5396e-05,0.034275,-5.0275e-05,-493.39,1.9796
3712,21.632,2.1818,0,5.0826e-05,507.9,1.9062e-05,27.642,1.5388e-05,0.03499,-5.0298e-05,-493.5,1.9797
3713,21.632,2.3636,0,5.0849e-05,508.14,1.9091e-05,27.904,1.5382e-05,0.035455,-5.0316e-05,-493.59,1.9798
3714,21.632,2.5455,0,5.0865e-05,508.3,1.911e-05,28.075,1.5379e-05,0.035744,-5.0328e-05,-493.66,1.9798
3715,21.632,2.7273,0,5.0875e-05,508.4,1.9122e-05,28.176,1.5377e-05,0.035913,-5.0336e-05,-493.71,1.9798
3716,21.632,2.9091,0,5.0879e-05,508.44,1.9127e-05,28.223,1.5376e-05,0.035985,-5.034e-05,-493.73,1.9798
3717,21.632,3.0909,0,5.0879e-05,508.44,1.9127e-05,28.223,1.5376e-05,0.035985,-5.034e-05,-493.73,1.9798
3718,21.632,3.2727,0,5.0875e-05,508.4,1.9122e-05,28.176,1.5377e-05,0.035912,-5.0336e-05,-493.71,1.9798
3719,21.632,3.4545,0,5.0865e-05,508.3,1.911e-05,28.075,1.5379e-05,0.035744,-5.0328e-05,-493.66,1.9798
3720,21.632,3.6364,0,5.0849e-05,508.14,1.9091e-05,27.904,1.5382e-05,0.035454,-5.0316e-05,-493.59,1.9798
3721,21.632,3.8182,0,5.0826e-05,507.9,1.9062e-05,27.642,1.5388e-05,0.03499,-5.0298e-05,-493.5,1.9797
3722,21.632,4,0,5.0794e-05,507.59,1.902e-05,27.265,1.5396e-05,0.034276,-5.0275e-05,-493.39,1.9796
3723,21.632,4.1818,0,5.0754e-05,507.19,1.8965e-05,26.748,1.5409e-05,0.033206,-5.0246e-05,-493.27,1.9796
3724,21.632,4.3636,0,5.0705e-05,506.7,1.8893e-05,26.072,1.5427e-05,0.031656,-5.0211e-05,-493.15,1.9795
3725,21.632,4.5455,0,5.0649e-05,506.14,1.8805e-05,25.225,1.5451e-05,0.029436,-5.0172e-05,-493.04,1.9794
3726,21.632,4.7273,0,5.0587e-05,505.52,1.8701e-05,24.204,1.5483e-05,0.026349,-5.0132e-05,-492.97,1.9793
3727,21.632,4.9091,0,5.0526e-05,504.91,1.8583e-05,23.026,1.5522e-05,0.022069,-5.0094e-05,-492.99,1.9791
3728,21.632,5.0909,0,5.0471e-05,504.36,1.8458e-05,21.727,1.5569e-05,0.016473,-5.0066e-05,-493.14,1.979
3729,21.632,5.2727,0,5.0433e-05,503.98,1.8334e-05,20.364,1.5625e-05,0.0084302,-5.0055e-05,-493.48,1.9789
3730,21.632,5.4545,0,5.0424e-05,503.89,1.822e-05,19.022,1.5689e-05,0.00075977,-5.0073e-05,-494.11,1.9787
3731,21.632,5.6364,0,5.0471e-05,504.36,1.8143e-05,17.88,1.576e-05,-0.023194,-5.0144e-05,-495.2,1.9785
3732,21.632,5.8182,0,5.0837e-05,508.02,1.8327e-05,18.653,1.5843e-05,-0.0090447,-5.0494e-05,-498.44,1.9783
3733,21.814,0.18182,0,4.6953e-05,469.2,1.7133e-05,19.726,1.4506e-05,-0.011724,-4.6586e-05,-459.03,2.0052
3734,21.814,0.36364,0,4.6625e-05,465.92,1.7013e-05,19.578,1.4404e-05,-0.027905,-4.6261e-05,-455.84,2.0053
3735,21.814,0.54545,0,4.6627e-05,465.95,1.7166e-05,21.433,1.4313e-05,0.00032847,-4.6225e-05,-454.86,2.0055
3736,21.814,0.72727,0,4.6689e-05,466.57,1.7357e-05,23.516,1.4229e-05,0.008872,-4.6245e-05,-454.37,2.0057
3737,21.814,0.90909,0,4.6782e-05,467.5,1.7561e-05,25.628,1.4153e-05,0.017806,-4.6293e-05,-454.15,2.0058
3738,21.814,1.0909,0,4.6889e-05,468.57,1.7763e-05,27.661,1.4085e-05,0.023873,-4.6357e-05,-454.12,2.0059
3739,21.814,1.2727,0,4.7001e-05,469.69,1.7955e-05,29.544,1.4026e-05,0.028491,-4.6428e-05,-454.2,2.0061
3740,21.814,1.4545,0,4.7109e-05,470.76,1.8128e-05,31.228,1.3976e-05,0.031816,-4.6499e-05,-454.35,2.0062
3741,21.814,1.6364,0,4.7207e-05,471.74,1.828e-05,32.688,1.3934e-05,0.034217,-4.6565e-05,-454.53,2.0063
3742,21.814,1.8182,0,4.7292e-05,472.6,1.8409e-05,33.916,1.3899e-05,0.035916,-4.6624e-05,-454.71,2.0063
3743,21.814,2,0,4.7364e-05,473.32,1.8514e-05,34.918,1.3872e-05,0.037103,-4.6673e-05,-454.87,2.0064
3744,21.814,2.1818,0,4.7422e-05,473.89,1.8598e-05,35.709,1.385e-05,0.03792,-4.6713e-05,-455.01,2.0065
3745,21.814,2.3636,0,4.7466e-05,474.34,1.8661e-05,36.308,1.3834e-05,0.038459,-4.6744e-05,-455.12,2.0065
3746,21.814,2.5455,0,4.7498e-05,474.66,1.8707e-05,36.736,1.3823e-05,0.038813,-4.6766e-05,-455.2,2.0066
3747,21.814,2.7273,0,4.7519e-05,474.86,1.8736e-05,37.01,1.3816e-05,0.039015,-4.6781e-05,-455.26,2.0066
3748,21.814,2.9091,0,4.7529e-05,474.96,1.875e-05,37.143,1.3812e-05,0.039112,-4.6788e-05,-455.28,2.0066
3749,21.814,3.0909,0,4.7529e-05,474.96,1.875e-05,37.143,1.3812e-05,0.03911,-4.6788e-05,-455.28,2.0066
3750,21.814,3.2727,0,4.7519e-05,474.86,1.8736e-05,37.01,1.3816e-05,0.039017,-4.6781e-05,-455.26,2.0066
3751,21.814,3.4545,0,4.7498e-05,474.66,1.8707e-05,36.736,1.3823e-05,0.038812,-4.6766e-05,-455.2,2.0066
3752,21.814,3.6364,0,4.7466e-05,474.34,1.8661e-05,36.308,1.3834e-05,0.038463,-4.6744e-05,-455.12,2.0065
3753,21.814,3.8182,0,4.7422e-05,473.89,1.8598e-05,35.709,1.385e-05,0.037918,-4.6713e-05,-455.01,2.0065
3754,21.814,4,0,4.7364e-05,473.32,1.8514e-05,34.918,1.3872e-05,0.037104,-4.6673e-05,-454.87,2.0064
3755,21.814,4.1818,0,4.7292e-05,472.6,1.8409e-05,33.916,1.3899e-05,0.035915,-4.6624e-05,-454.71,2.0063
3756,21.814,4.3636,0,4.7207e-05,471.74,1.828e-05,32.688,1.3934e-05,0.034216,-4.6565e-05,-454.53,2.0063
3757,21.814,4.5455,0,4.7109e-05,470.76,1.8128e-05,31.228,1.3976e-05,0.031816,-4.6499e-05,-454.35,2.0062
3758,21.814,4.7273,0,4.7001e-05,469.69,1.7955e-05,29.544,1.4026e-05,0.028491,-4.6428e-05,-454.2,2.0061
3759,21.814,4.9091,0,4.6889e-05,468.57,1.7763e-05,27.661,1.4085e-05,0.023874,-4.6357e-05,-454.12,2.0059
3760,21.814,5.0909,0,4.6782e-05,467.5,1.7561e-05,25.628,1.4153e-05,0.017799,-4.6293e-05,-454.15,2.0058
3761,21.814,5.2727,0,4.6689e-05,466.57,1.7357e-05,23.516,1.4229e-05,0.0088728,-4.6245e-05,-454.37,2.0057
3762,21.814,5.4545,0,4.6627e-05,465.95,1.7166e-05,21.433,1.4313e-05,0.00032945,-4.6225e-05,-454.86,2.0055
3763,21.814,5.6364,0,4.6625e-05,465.92,1.7013e-05,19.578,1.4404e-05,-0.027901,-4.6261e-05,-455.84,2.0053
3764,21.814,5.8182,0,4.6953e-05,469.2,1.7133e-05,19.726,1.4506e-05,-0.011727,-4.6586e-05,-459.03,2.0052
3765,21.996,0.18182,0,4.3075e-05,430.45,1.5939e-05,20.78,1.3172e-05,-0.015031,-4.2684e-05,-419.69,2.032
3766,21.996,0.36364,0,4.2791e-05,427.61,1.589e-05,21.315,1.3049e-05,-0.032757,-4.2389e-05,-416.57,2.0322
3767,21.996,0.54545,0,4.2849e-05,428.2,1.6123e-05,23.932,1.2938e-05,0.0002727,-4.2392e-05,-415.73,2.0323
3768,21.996,0.72727,0,4.2971e-05,429.41,1.6399e-05,26.8,1.2833e-05,0.0098183,-4.2452e-05,-415.38,2.0325
3769,21.996,0.90909,0,4.3123e-05,430.93,1.6685e-05,29.691,1.2736e-05,0.019716,-4.2541e-05,-415.31,2.0326
3770,21.996,1.0909,0,4.3287e-05,432.58,1.6967e-05,32.478,1.2648e-05,0.026301,-4.2643e-05,-415.41,2.0327
3771,21.996,1.2727,0,4.3452e-05,434.22,1.7233e-05,35.072,1.257e-05,0.031279,-4.2749e-05,-415.61,2.0329
3772,21.996,1.4545,0,4.3609e-05,435.79,1.7476e-05,37.414,1.2501e-05,0.034845,-4.2851e-05,-415.86,2.033
3773,21.996,1.6364,0,4.375e-05,437.2,1.769e-05,39.472,1.2441e-05,0.037427,-4.2944e-05,-416.11,2.0331
3774,21.996,1.8182,0,4.3874e-05,438.43,1.7874e-05,41.233,1.2391e-05,0.039266,-4.3026e-05,-416.34,2.0332
3775,21.996,2,0,4.3978e-05,439.47,1.8027e-05,42.698,1.235e-05,0.040565,-4.3095e-05,-416.55,2.0332
3776,21.996,2.1818,0,4.4062e-05,440.32,1.8151e-05,43.88,1.2316e-05,0.041468,-4.3151e-05,-416.72,2.0333
3777,21.996,2.3636,0,4.4128e-05,440.98,1.8247e-05,44.795,1.2291e-05,0.042083,-4.3195e-05,-416.85,2.0333
3778,21.996,2.5455,0,4.4176e-05,441.46,1.8317e-05,45.462,1.2272e-05,0.042483,-4.3226e-05,-416.95,2.0334
3779,21.996,2.7273,0,4.4207e-05,441.77,1.8362e-05,45.896,1.2259e-05,0.042729,-4.3247e-05,-417.01,2.0334
3780,21.996,2.9091,0,4.4223e-05,441.92,1.8385e-05,46.11,1.2253e-05,0.042837,-4.3257e-05,-417.04,2.0334
3781,21.996,3.0909,0,4.4223e-05,441.92,1.8385e-05,46.11,1.2253e-05,0.042839,-4.3257e-05,-417.04,2.0334
3782,21.996,3.2727,0,4.4207e-05,441.77,1.8362e-05,45.896,1.2259e-05,0.042726,-4.3247e-05,-417.01,2.0334
3783,21.996,3.4545,0,4.4176e-05,441.46,1.8317e-05,45.462,1.2272e-05,0.042485,-4.3226e-05,-416.95,2.0334
3784,21.996,3.6364,0,4.4128e-05,440.98,1.8247e-05,44.795,1.2291e-05,0.042082,-4.3195e-05,-416.85,2.0333
3785,21.996,3.8182,0,4.4062e-05,440.32,1.8151e-05,43.88,1.2316e-05,0.041467,-4.3151e-05,-416.72,2.0333
3786,21.996,4,0,4.3978e-05,439.47,1.8027e-05,42.698,1.235e-05,0.040562,-4.3095e-05,-416.55,2.0332
3787,21.996,4.1818,0,4.3874e-05,438.43,1.7874e-05,41.233,1.2391e-05,0.039265,-4.3026e-05,-416.34,2.0332
3788,21.996,4.3636,0,4.375e-05,437.2,1.769e-05,39.472,1.2441e-05,0.037426,-4.2944e-05,-416.11,2.0331
3789,21.996,4.5455,0,4.3609e-05,435.79,1.7476e-05,37.414,1.2501e-05,0.034847,-4.2851e-05,-415.86,2.033
3790,21.996,4.7273,0,4.3452e-05,434.22,1.7233e-05,35.072,1.257e-05,0.031277,-4.2749e-05,-415.61,2.0329
3791,21.996,4.9091,0,4.3287e-05,432.58,1.6967e-05,32.478,1.2648e-05,0.026304,-4.2643e-05,-415.41,2.0327
3792,21.996,5.0909,0,4.3123e-05,430.93,1.6685e-05,29.691,1.2736e-05,0.019715,-4.2541e-05,-415.31,2.0326
3793,21.996,5.2727,0,4.2971e-05,429.41,1.6399e-05,26.8,1.2833e-05,0.0098176,-4.2452e-05,-415.38,2.0325
3794,21.996,5.4545,0,4.2849e-05,428.2,1.6123e-05,23.932,1.2938e-05,0.00027125,-4.2392e-05,-415.73,2.0323
3795,21.996,5.6364,0,4.2791e-05,427.61,1.589e-05,21.315,1.3049e-05,-0.032756,-4.2389e-05,-416.57,2.0322
3796,21.996,5.8182,0,4.3075e-05,430.45,1.5939e-05,20.78,1.3172e-05,-0.015027,-4.2684e-05,-419.69,2.032
3797,22.178,0.18182,0,3.9206e-05,391.79,1.4746e-05,21.805,1.1841e-05,-0.019102,-3.879e-05,-380.44,2.0589
3798,22.178,0.36364,0,3.8972e-05,389.46,1.4775e-05,23.091,1.1697e-05,-0.037739,-3.8529e-05,-377.41,2.059
3799,22.178,0.54545,0,3.9094e-05,390.67,1.5096e-05,26.533,1.1564e-05,0.00070234,-3.8575e-05,-376.72,2.0592
3800,22.178,0.72727,0,3.9282e-05,392.54,1.546e-05,30.237,1.1437e-05,0.011411,-3.868e-05,-376.55,2.0593
3801,22.178,0.90909,0,3.9499e-05,394.72,1.5834e-05,33.947,1.1319e-05,0.022381,-3.8811e-05,-376.64,2.0595
3802,22.178,1.0909,0,3.9726e-05,396.98,1.6198e-05,37.511,1.121e-05,0.029523,-3.8954e-05,-376.88,2.0596
3803,22.178,1.2727,0,3.9948e-05,399.2,1.6541e-05,40.825,1.1112e-05,0.034876,-3.9096e-05,-377.21,2.0597
3804,22.178,1.4545,0,4.0155e-05,401.27,1.6852e-05,43.823,1.1024e-05,0.03869,-3.9229e-05,-377.55,2.0598
3805,22.178,1.6364,0,4.0341e-05,403.13,1.7127e-05,46.466,1.0948e-05,0.041445,-3.9349e-05,-377.87,2.0599
3806,22.178,1.8182,0,4.0503e-05,404.76,1.7364e-05,48.74,1.0883e-05,0.043413,-3.9453e-05,-378.16,2.06
3807,22.178,2,0,4.064e-05,406.12,1.7563e-05,50.646,1.0828e-05,0.044818,-3.954e-05,-378.4,2.0601
3808,22.178,2.1818,0,4.0751e-05,407.23,1.7724e-05,52.196,1.0783e-05,0.045804,-3.9611e-05,-378.6,2.0601
3809,22.178,2.3636,0,4.0838e-05,408.1,1.785e-05,53.407,1.0748e-05,0.046485,-3.9666e-05,-378.75,2.0602
3810,22.178,2.5455,0,4.0902e-05,408.74,1.7943e-05,54.295,1.0723e-05,0.046935,-3.9707e-05,-378.86,2.0602
3811,22.178,2.7273,0,4.0944e-05,409.15,1.8003e-05,54.878,1.0706e-05,0.047209,-3.9733e-05,-378.93,2.0602
3812,22.178,2.9091,0,4.0964e-05,409.36,1.8033e-05,55.166,1.0697e-05,0.047338,-3.9746e-05,-378.96,2.0602
3813,22.178,3.0909,0,4.0964e-05,409.36,1.8033e-05,55.166,1.0697e-05,0.047338,-3.9746e-05,-378.96,2.0602
3814,22.178,3.2727,0,4.0944e-05,409.15,1.8003e-05,54.878,1.0706e-05,0.04721,-3.9733e-05,-378.93,2.0602
3815,22.178,3.4545,0,4.0902e-05,408.74,1.7943e-05,54.295,1.0723e-05,0.046934,-3.9707e-05,-378.86,2.0602
3816,22.178,3.6364,0,4.0838e-05,408.1,1.785e-05,53.407,1.0748e-05,0.046484,-3.9666e-05,-378.75,2.0602
3817,22.178,3.8182,0,4.0751e-05,407.23,1.7724e-05,52.196,1.0783e-05,0.045805,-3.9611e-05,-378.6,2.0601
3818,22.178,4,0,4.064e-05,406.12,1.7563e-05,50.646,1.0828e-05,0.044816,-3.954e-05,-378.4,2.0601
3819,22.178,4.1818,0,4.0503e-05,404.76,1.7364e-05,48.74,1.0883e-05,0.043414,-3.9453e-05,-378.16,2.06
3820,22.178,4.3636,0,4.0341e-05,403.13,1.7127e-05,46.466,1.0948e-05,0.041444,-3.9349e-05,-377.87,2.0599
3821,22.178,4.5455,0,4.0155e-05,401.27,1.6852e-05,43.823,1.1024e-05,0.03869,-3.9229e-05,-377.55,2.0598
3822,22.178,4.7273,0,3.9948e-05,399.2,1.6541e-05,40.825,1.1112e-05,0.034876,-3.9096e-05,-377.21,2.0597
3823,22.178,4.9091,0,3.9726e-05,396.98,1.6198e-05,37.511,1.121e-05,0.029524,-3.8954e-05,-376.88,2.0596
3824,22.178,5.0909,0,3.9499e-05,394.72,1.5834e-05,33.947,1.1319e-05,0.02238,-3.8811e-05,-376.64,2.0595
3825,22.178,5.2727,0,3.9282e-05,392.54,1.546e-05,30.237,1.1437e-05,0.011411,-3.868e-05,-376.55,2.0593
3826,22.178,5.4545,0,3.9094e-05,390.67,1.5096e-05,26.533,1.1564e-05,0.0007024,-3.8575e-05,-376.72,2.0592
3827,22.178,5.6364,0,3.8972e-05,389.46,1.4775e-05,23.091,1.1697e-05,-0.037738,-3.8529e-05,-377.41,2.059
3828,22.178,5.8182,0,3.9206e-05,391.79,1.4746e-05,21.805,1.1841e-05,-0.019102,-3.879e-05,-380.44,2.0589
3829,22.36,0.18182,0,3.5347e-05,353.22,1.3551e-05,22.789,1.0515e-05,-0.024164,-3.4904e-05,-341.29,2.0858
3830,22.36,0.36364,0,3.5173e-05,351.49,1.3669e-05,24.913,1.0347e-05,-0.042818,-3.4683e-05,-338.39,2.0859
3831,22.36,0.54545,0,3.5365e-05,353.41,1.4085e-05,29.255,1.0192e-05,0.0017994,-3.4777e-05,-337.87,2.0861
3832,22.36,0.72727,0,3.5628e-05,356.03,1.4546e-05,33.861,1.0041e-05,0.013862,-3.4931e-05,-337.89,2.0862
3833,22.36,0.90909,0,3.5918e-05,358.93,1.5012e-05,38.437,9.9001e-06,0.02602,-3.5109e-05,-338.15,2.0863
3834,22.36,1.0909,0,3.6212e-05,361.87,1.5462e-05,42.806,9.7697e-06,0.033764,-3.5293e-05,-338.55,2.0865
3835,22.36,1.2727,0,3.6495e-05,364.7,1.5881e-05,46.851,9.6512e-06,0.039508,-3.5471e-05,-338.99,2.0866
3836,22.36,1.4545,0,3.6755e-05,367.3,1.626e-05,50.499,9.5453e-06,0.043568,-3.5634e-05,-339.42,2.0867
3837,22.36,1.6364,0,3.6988e-05,369.62,1.6595e-05,53.712,9.4524e-06,0.046497,-3.578e-05,-339.81,2.0868
3838,22.36,1.8182,0,3.7189e-05,371.63,1.6883e-05,56.478,9.3722e-06,0.048596,-3.5904e-05,-340.14,2.0868
3839,22.36,2,0,3.7358e-05,373.32,1.7124e-05,58.802,9.3047e-06,0.050099,-3.6008e-05,-340.41,2.0869
3840,22.36,2.1818,0,3.7496e-05,374.7,1.7321e-05,60.696,9.2493e-06,0.051163,-3.6092e-05,-340.63,2.087
3841,22.36,2.3636,0,3.7604e-05,375.78,1.7474e-05,62.18,9.2057e-06,0.051905,-3.6158e-05,-340.79,2.087
3842,22.36,2.5455,0,3.7683e-05,376.57,1.7588e-05,63.273,9.1734e-06,0.052403,-3.6205e-05,-340.91,2.0871
3843,22.36,2.7273,0,3.7735e-05,377.09,1.7662e-05,63.992,9.1521e-06,0.052707,-3.6236e-05,-340.98,2.0871
3844,22.36,2.9091,0,3.776e-05,377.34,1.7699e-05,64.348,9.1415e-06,0.052851,-3.6252e-05,-341.01,2.0871
3845,22.36,3.0909,0,3.776e-05,377.34,1.7699e-05,64.348,9.1415e-06,0.052851,-3.6252e-05,-341.01,2.0871
3846,22.36,3.2727,0,3.7735e-05,377.09,1.7662e-05,63.992,9.1521e-06,0.052708,-3.6236e-05,-340.98,2.0871
3847,22.36,3.4545,0,3.7683e-05,376.57,1.7588e-05,63.273,9.1734e-06,0.052402,-3.6205e-05,-340.91,2.0871
3848,22.36,3.6364,0,3.7604e-05,375.78,1.7474e-05,62.18,9.2057e-06,0.051905,-3.6158e-05,-340.79,2.087
3849,22.36,3.8182,0,3.7496e-05,374.7,1.7321e-05,60.696,9.2493e-06,0.051163,-3.6092e-05,-340.63,2.087
3850,22.36,4,0,3.7358e-05,373.32,1.7124e-05,58.802,9.3047e-06,0.050098,-3.6008e-05,-340.41,2.0869
3851,22.36,4.1818,0,3.7189e-05,371.63,1.6883e-05,56.478,9.3722e-06,0.048596,-3.5904e-05,-340.14,2.0868
3852,22.36,4.3636,0,3.6988e-05,369.62,1.6595e-05,53.712,9.4524e-06,0.046496,-3.578e-05,-339.81,2.0868
3853,22.36,4.5455,0,3.6755e-05,367.3,1.626e-05,50.499,9.5453e-06,0.043568,-3.5634e-05,-339.42,2.0867
3854,22.36,4.7273,0,3.6495e-05,364.7,1.5881e-05,46.851,9.6512e-06,0.039507,-3.5471e-05,-338.99,2.0866
3855,22.36,4.9091,0,3.6212e-05,361.87,1.5462e-05,42.806,9.7697e-06,0.033763,-3.5293e-05,-338.55,2.0865
3856,22.36,5.0909,0,3.5918e-05,358.93,1.5012e-05,38.437,9.9001e-06,0.02602,-3.5109e-05,-338.15,2.0863
3857,22.36,5.2727,0,3.5628e-05,356.03,1.4546e-05,33.861,1.0041e-05,0.013862,-3.4931e-05,-337.89,2.0862
3858,22.36,5.4545,0,3.5365e-05,353.41,1.4085e-05,29.255,1.0192e-05,0.0018019,-3.4777e-05,-337.87,2.0861
3859,22.36,5.6364,0,3.5173e-05,351.49,1.3669e-05,24.913,1.0347e-05,-0.042817,-3.4683e-05,-338.39,2.0859
3860,22.36,5.8182,0,3.5347e-05,353.22,1.3551e-05,22.789,1.0515e-05,-0.024162,-3.4904e-05,-341.29,2.0858
3861,22.543,0.18182,0,3.1498e-05,314.77,1.2356e-05,23.721,9.1947e-06,-0.030471,-3.1028e-05,-302.25,2.1127
3862,22.543,0.36364,0,3.1396e-05,313.74,1.2573e-05,26.792,9.001e-06,-0.047861,-3.0855e-05,-299.51,2.1128
3863,22.543,0.54545,0,3.1671e-05,316.49,1.3096e-05,32.131,8.8197e-06,0.0039122,-3.1002e-05,-299.2,2.113
3864,22.543,0.72727,0,3.2018e-05,319.96,1.3662e-05,37.72,8.6439e-06,0.017558,-3.1209e-05,-299.42,2.1131
3865,22.543,0.90909,0,3.2389e-05,323.67,1.4226e-05,43.217,8.4787e-06,0.031036,-3.1436e-05,-299.88,2.1132
3866,22.543,1.0909,0,3.2757e-05,327.34,1.4765e-05,48.42,8.3257e-06,0.039421,-3.1663e-05,-300.42,2.1133
3867,22.543,1.2727,0,3.3104e-05,330.81,1.5261e-05,53.202,8.1865e-06,0.045573,-3.1876e-05,-300.97,2.1135
3868,22.543,1.4545,0,3.342e-05,333.97,1.5707e-05,57.491,8.0619e-06,0.049883,-3.2068e-05,-301.47,2.1136
3869,22.543,1.6364,0,3.3699e-05,336.76,1.6098e-05,61.255,7.9523e-06,0.052987,-3.2236e-05,-301.91,2.1136
3870,22.543,1.8182,0,3.394e-05,339.16,1.6433e-05,64.489,7.8577e-06,0.055211,-3.2379e-05,-302.27,2.1137
3871,22.543,2,0,3.4142e-05,341.18,1.6714e-05,67.203,7.7778e-06,0.056817,-3.2498e-05,-302.56,2.1138
3872,22.543,2.1818,0,3.4306e-05,342.82,1.6943e-05,69.416,7.7121e-06,0.057958,-3.2593e-05,-302.78,2.1138
3873,22.543,2.3636,0,3.4434e-05,344.1,1.7122e-05,71.151,7.6603e-06,0.058767,-3.2667e-05,-302.94,2.1139
3874,22.543,2.5455,0,3.4528e-05,345.04,1.7254e-05,72.431,7.6219e-06,0.059307,-3.272e-05,-303.06,2.1139
3875,22.543,2.7273,0,3.459e-05,345.66,1.734e-05,73.272,7.5965e-06,0.059647,-3.2755e-05,-303.13,2.114
3876,22.543,2.9091,0,3.462e-05,345.97,1.7383e-05,73.69,7.5838e-06,0.059806,-3.2773e-05,-303.16,2.114
3877,22.543,3.0909,0,3.462e-05,345.97,1.7383e-05,73.69,7.5838e-06,0.059806,-3.2773e-05,-303.16,2.114
3878,22.543,3.2727,0,3.459e-05,345.66,1.734e-05,73.272,7.5965e-06,0.059647,-3.2755e-05,-303.13,2.114
3879,22.543,3.4545,0,3.4528e-05,345.04,1.7254e-05,72.431,7.6219e-06,0.059309,-3.272e-05,-303.06,2.1139
3880,22.543,3.6364,0,3.4434e-05,344.1,1.7122e-05,71.151,7.6603e-06,0.058768,-3.2667e-05,-302.94,2.1139
3881,22.543,3.8182,0,3.4306e-05,342.82,1.6943e-05,69.416,7.7121e-06,0.057958,-3.2593e-05,-302.78,2.1138
3882,22.543,4,0,3.4142e-05,341.18,1.6714e-05,67.203,7.7778e-06,0.056815,-3.2498e-05,-302.56,2.1138
3883,22.543,4.1818,0,3.394e-05,339.16,1.6433e-05,64.489,7.8577e-06,0.055213,-3.2379e-05,-302.27,2.1137
3884,22.543,4.3636,0,3.3699e-05,336.76,1.6098e-05,61.255,7.9523e-06,0.052986,-3.2236e-05,-301.91,2.1136
3885,22.543,4.5455,0,3.342e-05,333.97,1.5707e-05,57.491,8.0619e-06,0.049885,-3.2068e-05,-301.47,2.1136
3886,22.543,4.7273,0,3.3104e-05,330.81,1.5261e-05,53.202,8.1865e-06,0.045573,-3.1876e-05,-300.97,2.1135
3887,22.543,4.9091,0,3.2757e-05,327.34,1.4765e-05,48.42,8.3257e-06,0.03942,-3.1663e-05,-300.42,2.1133
3888,22.543,5.0909,0,3.2389e-05,323.67,1.4226e-05,43.217,8.4787e-06,0.031034,-3.1436e-05,-299.88,2.1132
3889,22.543,5.2727,0,3.2018e-05,319.96,1.3662e-05,37.72,8.6439e-06,0.017558,-3.1209e-05,-299.42,2.1131
3890,22.543,5.4545,0,3.1671e-05,316.49,1.3096e-05,32.131,8.8197e-06,0.0039133,-3.1002e-05,-299.2,2.113
3891,22.543,5.6364,0,3.1396e-05,313.74,1.2573e-05,26.792,9.001e-06,-0.04786,-3.0855e-05,-299.51,2.1128
3892,22.543,5.8182,0,3.1498e-05,314.77,1.2356e-05,23.721,9.1947e-06,-0.030471,-3.1028e-05,-302.25,2.1127
3893,22.725,0.18182,0,2.7663e-05,276.44,1.1158e-05,24.588,7.8804e-06,-0.038534,-2.7163e-05,-263.34,2.1396
3894,22.725,0.36364,0,2.7648e-05,276.29,1.1492e-05,28.752,7.6579e-06,-0.052786,-2.7047e-05,-260.81,2.1397
3895,22.725,0.54545,0,2.8021e-05,280.01,1.2134e-05,35.214,7.4481e-06,0.0073954,-2.7255e-05,-260.74,2.1399
3896,22.725,0.72727,0,2.8466e-05,284.46,1.2815e-05,41.881,7.2444e-06,0.022892,-2.7521e-05,-261.19,2.14
3897,22.725,0.90909,0,2.8927e-05,289.07,1.3484e-05,48.36,7.0531e-06,0.037835,-2.7799e-05,-261.83,2.1401
3898,22.725,1.0909,0,2.9374e-05,293.54,1.4113e-05,54.422,6.8762e-06,0.046901,-2.8067e-05,-262.5,2.1403
3899,22.725,1.2727,0,2.979e-05,297.69,1.4686e-05,59.942,6.7155e-06,0.053482,-2.8313e-05,-263.14,2.1404
3900,22.725,1.4545,0,3.0163e-05,301.42,1.5196e-05,64.855,6.572e-06,0.058053,-2.8531e-05,-263.69,2.1405
3901,22.725,1.6364,0,3.049e-05,304.69,1.564e-05,69.143,6.4459e-06,0.061338,-2.8719e-05,-264.15,2.1406
3902,22.725,1.8182,0,3.077e-05,307.48,1.6019e-05,72.813,6.3371e-06,0.063702,-2.8877e-05,-264.52,2.1406
3903,22.725,2,0,3.1003e-05,309.82,1.6336e-05,75.885,6.2453e-06,0.065411,-2.9007e-05,-264.81,2.1407
3904,22.725,2.1818,0,3.1193e-05,311.72,1.6594e-05,78.388,6.1698e-06,0.066645,-2.9111e-05,-265.02,2.1408
3905,22.725,2.3636,0,3.1341e-05,313.2,1.6795e-05,80.35,6.1102e-06,0.067517,-2.9191e-05,-265.18,2.1408
3906,22.725,2.5455,0,3.145e-05,314.29,1.6943e-05,81.796,6.066e-06,0.068115,-2.925e-05,-265.28,2.1408
3907,22.725,2.7273,0,3.1522e-05,315,1.7041e-05,82.748,6.0368e-06,0.068484,-2.9288e-05,-265.35,2.1409
3908,22.725,2.9091,0,3.1557e-05,315.35,1.7089e-05,83.22,6.0222e-06,0.06866,-2.9307e-05,-265.38,2.1409
3909,22.725,3.0909,0,3.1557e-05,315.35,1.7089e-05,83.22,6.0222e-06,0.068661,-2.9307e-05,-265.38,2.1409
3910,22.725,3.2727,0,3.1522e-05,315,1.7041e-05,82.748,6.0368e-06,0.068483,-2.9288e-05,-265.35,2.1409
3911,22.725,3.4545,0,3.145e-05,314.29,1.6943e-05,81.796,6.066e-06,0.068114,-2.925e-05,-265.28,2.1408
3912,22.725,3.6364,0,3.1341e-05,313.2,1.6795e-05,80.35,6.1102e-06,0.067517,-2.9191e-05,-265.18,2.1408
3913,22.725,3.8182,0,3.1193e-05,311.72,1.6594e-05,78.388,6.1698e-06,0.066645,-2.9111e-05,-265.02,2.1408
3914,22.725,4,0,3.1003e-05,309.82,1.6336e-05,75.885,6.2453e-06,0.065411,-2.9007e-05,-264.81,2.1407
3915,22.725,4.1818,0,3.077e-05,307.48,1.6019e-05,72.813,6.3371e-06,0.063701,-2.8877e-05,-264.52,2.1406
3916,22.725,4.3636,0,3.049e-05,304.69,1.564e-05,69.143,6.4459e-06,0.061338,-2.8719e-05,-264.15,2.1406
3917,22.725,4.5455,0,3.0163e-05,301.42,1.5196e-05,64.855,6.572e-06,0.058052,-2.8531e-05,-263.69,2.1405
3918,22.725,4.7273,0,2.979e-05,297.69,1.4686e-05,59.942,6.7155e-06,0.053481,-2.8313e-05,-263.14,2.1404
3919,22.725,4.9091,0,2.9374e-05,293.54,1.4113e-05,54.422,6.8761e-06,0.0469,-2.8067e-05,-262.5,2.1403
3920,22.725,5.0909,0,2.8927e-05,289.07,1.3484e-05,48.36,7.0531e-06,0.037834,-2.7799e-05,-261.83,2.1401
3921,22.725,5.2727,0,2.8466e-05,284.46,1.2815e-05,41.881,7.2444e-06,0.02289,-2.7521e-05,-261.19,2.14
3922,22.725,5.4545,0,2.8021e-05,280.01,1.2134e-05,35.214,7.4481e-06,0.0073969,-2.7255e-05,-260.74,2.1399
3923,22.725,5.6364,0,2.7648e-05,276.29,1.1492e-05,28.752,7.6579e-06,-0.052783,-2.7047e-05,-260.81,2.1397
3924,22.725,5.8182,0,2.7663e-05,276.44,1.1158e-05,24.588,7.8804e-06,-0.038533,-2.7163e-05,-263.34,2.1396
3925,22.907,0.18182,0,2.3844e-05,238.27,9.9578e-06,25.379,6.5736e-06,-0.048504,-2.3311e-05,-224.59,2.1665
3926,22.907,0.36364,0,2.3938e-05,239.21,1.0429e-05,30.833,6.3179e-06,-0.056639,-2.3264e-05,-222.33,2.1667
3927,22.907,0.54545,0,2.4429e-05,244.12,1.1209e-05,38.583,6.0758e-06,0.013674,-2.3543e-05,-222.53,2.1668
3928,22.907,0.72727,0,2.4989e-05,249.71,1.2018e-05,46.442,5.8409e-06,0.031366,-2.3872e-05,-223.22,2.167
3929,22.907,0.90909,0,2.5552e-05,255.34,1.2796e-05,53.96,5.621e-06,0.047935,-2.4202e-05,-224.03,2.1671
3930,22.907,1.0909,0,2.6085e-05,260.67,1.3516e-05,60.898,5.4187e-06,0.057735,-2.451e-05,-224.81,2.1672
3931,22.907,1.2727,0,2.6572e-05,265.53,1.4163e-05,67.14,5.236e-06,0.064774,-2.4785e-05,-225.5,2.1673
3932,22.907,1.4545,0,2.7003e-05,269.85,1.4733e-05,72.646,5.0734e-06,0.069637,-2.5024e-05,-226.07,2.1674
3933,22.907,1.6364,0,2.7378e-05,273.59,1.5225e-05,77.42,4.931e-06,0.073132,-2.5227e-05,-226.52,2.1675
3934,22.907,1.8182,0,2.7697e-05,276.78,1.5644e-05,81.487,4.8085e-06,0.075656,-2.5396e-05,-226.87,2.1676
3935,22.907,2,0,2.7963e-05,279.43,1.5992e-05,84.882,4.7052e-06,0.077497,-2.5534e-05,-227.13,2.1676
3936,22.907,2.1818,0,2.8178e-05,281.58,1.6274e-05,87.642,4.6204e-06,0.078833,-2.5645e-05,-227.32,2.1677
3937,22.907,2.3636,0,2.8346e-05,283.26,1.6495e-05,89.803,4.5536e-06,0.079785,-2.5729e-05,-227.45,2.1677
3938,22.907,2.5455,0,2.8469e-05,284.49,1.6657e-05,91.395,4.5041e-06,0.080442,-2.5791e-05,-227.54,2.1677
3939,22.907,2.7273,0,2.855e-05,285.3,1.6764e-05,92.443,4.4713e-06,0.080853,-2.5831e-05,-227.6,2.1678
3940,22.907,2.9091,0,2.859e-05,285.7,1.6817e-05,92.963,4.455e-06,0.081049,-2.5851e-05,-227.62,2.1678
3941,22.907,3.0909,0,2.859e-05,285.7,1.6817e-05,92.963,4.455e-06,0.081051,-2.5851e-05,-227.62,2.1678
3942,22.907,3.2727,0,2.855e-05,285.3,1.6764e-05,92.443,4.4713e-06,0.080852,-2.5831e-05,-227.6,2.1678
3943,22.907,3.4545,0,2.8469e-05,284.49,1.6657e-05,91.395,4.5041e-06,0.080443,-2.5791e-05,-227.54,2.1677
3944,22.907,3.6364,0,2.8346e-05,283.26,1.6495e-05,89.803,4.5536e-06,0.079786,-2.5729e-05,-227.45,2.1677
3945,22.907,3.8182,0,2.8178e-05,281.58,1.6274e-05,87.642,4.6204e-06,0.078831,-2.5645e-05,-227.32,2.1677
3946,22.907,4,0,2.7963e-05,279.43,1.5992e-05,84.882,4.7052e-06,0.077495,-2.5534e-05,-227.13,2.1676
3947,22.907,4.1818,0,2.7697e-05,276.78,1.5644e-05,81.487,4.8085e-06,0.075655,-2.5396e-05,-226.87,2.1676
3948,22.907,4.3636,0,2.7378e-05,273.59,1.5225e-05,77.42,4.931e-06,0.073129,-2.5227e-05,-226.52,2.1675
3949,22.907,4.5455,0,2.7003e-05,269.85,1.4733e-05,72.646,5.0734e-06,0.069637,-2.5024e-05,-226.07,2.1674
3950,22.907,4.7273,0,2.6572e-05,265.53,1.4163e-05,67.14,5.236e-06,0.064773,-2.4785e-05,-225.5,2.1673
3951,22.907,4.9091,0,2.6085e-05,260.67,1.3516e-05,60.898,5.4187e-06,0.057735,-2.451e-05,-224.81,2.1672
3952,22.907,5.0909,0,2.5552e-05,255.34,1.2796e-05,53.96,5.621e-06,0.047935,-2.4202e-05,-224.03,2.1671
3953,22.907,5.2727,0,2.4989e-05,249.71,1.2018e-05,46.442,5.8409e-06,0.031364,-2.3872e-05,-223.22,2.167
3954,22.907,5.4545,0,2.4429e-05,244.12,1.1209e-05,38.583,6.0758e-06,0.013669,-2.3543e-05,-222.53,2.1668
3955,22.907,5.6364,0,2.3938e-05,239.21,1.0429e-05,30.833,6.3179e-06,-0.056634,-2.3264e-05,-222.33,2.1667
3956,22.907,5.8182,0,2.3844e-05,238.27,9.9578e-06,25.379,6.5736e-06,-0.048502,-2.3311e-05,-224.59,2.1665
3957,23.089,0.18182,0,2.0045e-05,200.31,8.7548e-06,26.081,5.2753e-06,-0.062754,-1.9474e-05,-186.02,2.1935
3958,23.089,0.36364,0,2.0283e-05,202.69,9.3951e-06,33.107,4.9808e-06,-0.060504,-1.9516e-05,-184.12,2.1936
3959,23.089,0.54545,0,2.0921e-05,209.07,1.0335e-05,42.359,4.7007e-06,0.022046,-1.9876e-05,-184.64,2.1938
3960,23.089,0.72727,0,2.1616e-05,216.01,1.1284e-05,51.536,4.4303e-06,0.042227,-2.0273e-05,-185.57,2.1939
3961,23.089,0.90909,0,2.2293e-05,222.77,1.2175e-05,60.139,4.1793e-06,0.060632,-2.0652e-05,-186.51,2.194
3962,23.089,1.0909,0,2.2918e-05,229.02,1.2983e-05,67.941,3.9502e-06,0.07123,-2.0993e-05,-187.34,2.1941
3963,23.089,1.2727,0,2.3478e-05,234.62,1.3699e-05,74.868,3.7447e-06,0.078794,-2.1291e-05,-188.03,2.1942
3964,23.089,1.4545,0,2.3969e-05,239.52,1.4322e-05,80.919,3.5631e-06,0.084,-2.1544e-05,-188.56,2.1943
3965,23.089,1.6364,0,2.4392e-05,243.75,1.4856e-05,86.128,3.4049e-06,0.08776,-2.1757e-05,-188.97,2.1944
3966,23.089,1.8182,0,2.4749e-05,247.32,1.5308e-05,90.544,3.2693e-06,0.090491,-2.1933e-05,-189.27,2.1945
3967,23.089,2,0,2.5046e-05,250.29,1.5683e-05,94.218,3.1554e-06,0.092494,-2.2077e-05,-189.49,2.1946
3968,23.089,2.1818,0,2.5287e-05,252.69,1.5986e-05,97.199,3.0621e-06,0.093963,-2.219e-05,-189.64,2.1946
3969,23.089,2.3636,0,2.5474e-05,254.57,1.6223e-05,99.53,2.9887e-06,0.095021,-2.2278e-05,-189.75,2.1947
3970,23.089,2.5455,0,2.5612e-05,255.94,1.6397e-05,101.25,2.9343e-06,0.095751,-2.2341e-05,-189.81,2.1947
3971,23.089,2.7273,0,2.5702e-05,256.85,1.6511e-05,102.38,2.8984e-06,0.096209,-2.2382e-05,-189.85,2.1947
3972,23.089,2.9091,0,2.5747e-05,257.29,1.6568e-05,102.94,2.8805e-06,0.096431,-2.2403e-05,-189.87,2.1947
3973,23.089,3.0909,0,2.5747e-05,257.29,1.6568e-05,102.94,2.8805e-06,0.09643,-2.2403e-05,-189.87,2.1947
3974,23.089,3.2727,0,2.5702e-05,256.85,1.6511e-05,102.38,2.8984e-06,0.09621,-2.2382e-05,-189.85,2.1947
3975,23.089,3.4545,0,2.5612e-05,255.94,1.6397e-05,101.25,2.9343e-06,0.095749,-2.2341e-05,-189.81,2.1947
3976,23.089,3.6364,0,2.5474e-05,254.57,1.6223e-05,99.53,2.9887e-06,0.09502,-2.2278e-05,-189.75,2.1947
3977,23.089,3.8182,0,2.5287e-05,252.69,1.5986e-05,97.199,3.0621e-06,0.093965,-2.219e-05,-189.64,2.1946
3978,23.089,4,0,2.5046e-05,250.29,1.5683e-05,94.218,3.1554e-06,0.092496,-2.2077e-05,-189.49,2.1946
3979,23.089,4.1818,0,2.4749e-05,247.32,1.5308e-05,90.544,3.2693e-06,0.090491,-2.1933e-05,-189.27,2.1945
3980,23.089,4.3636,0,2.4392e-05,243.75,1.4856e-05,86.128,3.4049e-06,0.087759,-2.1757e-05,-188.97,2.1944
3981,23.089,4.5455,0,2.3969e-05,239.52,1.4322e-05,80.919,3.5631e-06,0.084001,-2.1544e-05,-188.56,2.1943
3982,23.089,4.7273,0,2.3478e-05,234.62,1.3699e-05,74.868,3.7447e-06,0.078795,-2.1291e-05,-188.03,2.1942
3983,23.089,4.9091,0,2.2918e-05,229.02,1.2983e-05,67.941,3.9502e-06,0.071227,-2.0993e-05,-187.34,2.1941
3984,23.089,5.0909,0,2.2293e-05,222.77,1.2175e-05,60.139,4.1793e-06,0.060633,-2.0652e-05,-186.51,2.194
3985,23.089,5.2727,0,2.1616e-05,216.01,1.1284e-05,51.536,4.4303e-06,0.042227,-2.0273e-05,-185.57,2.1939
3986,23.089,5.4545,0,2.0921e-05,209.07,1.0335e-05,42.359,4.7007e-06,0.022045,-1.9876e-05,-184.64,2.1938
3987,23.089,5.6364,0,2.0283e-05,202.69,9.3951e-06,33.107,4.9808e-06,-0.0605,-1.9516e-05,-184.12,2.1936
3988,23.089,5.8182,0,2.0045e-05,200.31,8.7548e-06,26.081,5.2753e-06,-0.062751,-1.9474e-05,-186.02,2.1935
3989,23.271,0.18182,0,1.6277e-05,162.66,7.5505e-06,26.69,3.9881e-06,-0.076263,-1.5658e-05,-147.69,2.2205
3990,23.271,0.36364,0,1.6713e-05,167.01,8.4062e-06,35.713,3.6459e-06,-0.054448,-1.5816e-05,-146.28,2.2206
3991,23.271,0.54545,0,1.754e-05,175.28,9.5356e-06,46.744,3.3203e-06,0.044612,-1.6271e-05,-147.15,2.2207
3992,23.271,0.72727,0,1.8393e-05,183.81,1.0633e-05,57.352,3.0093e-06,0.067859,-1.6734e-05,-148.28,2.2209
3993,23.271,0.90909,0,1.9194e-05,191.81,1.1635e-05,67.042,2.7244e-06,0.08845,-1.7154e-05,-149.27,2.221
3994,23.271,1.0909,0,1.9916e-05,199.02,1.2524e-05,75.659,2.4674e-06,0.1001,-1.752e-05,-150.07,2.2211
3995,23.271,1.2727,0,2.055e-05,205.36,1.3298e-05,83.202,2.2394e-06,0.10838,-1.783e-05,-150.69,2.2212
3996,23.271,1.4545,0,2.11e-05,210.86,1.3966e-05,89.726,2.0394e-06,0.1141,-1.8091e-05,-151.14,2.2213
3997,23.271,1.6364,0,2.1571e-05,215.56,1.4535e-05,95.305,1.8663e-06,0.11824,-1.8308e-05,-151.46,2.2214
3998,23.271,1.8182,0,2.1967e-05,219.52,1.5013e-05,100.01,1.7187e-06,0.12128,-1.8486e-05,-151.69,2.2214
3999,23.271,2,0,2.2296e-05,222.8,1.5409e-05,103.92,1.5951e-06,0.12352,-1.8631e-05,-151.85,2.2215
4000,23.271,2.1818,0,2.2561e-05,225.46,1.5729e-05,107.08,1.4942e-06,0.12517,-1.8746e-05,-151.95,2.2216
4001,23.271,2.3636,0,2.2768e-05,227.53,1.5978e-05,109.55,1.4149e-06,0.12636,-1.8834e-05,-152.01,2.2216
4002,23.271,2.5455,0,2.292e-05,229.05,1.6162e-05,111.37,1.3563e-06,0.12719,-1.8898e-05,-152.05,2.2216
4003,23.271,2.7273,0,2.302e-05,230.04,1.6282e-05,112.56,1.3176e-06,0.12771,-1.8939e-05,-152.08,2.2217
4004,23.271,2.9091,0,2.307e-05,230.54,1.6341e-05,113.16,1.2984e-06,0.12796,-1.896e-05,-152.08,2.2217
4005,23.271,3.0909,0,2.307e-05,230.54,1.6341e-05,113.16,1.2984e-06,0.12796,-1.896e-05,-152.08,2.2217
4006,23.271,3.2727,0,2.302e-05,230.04,1.6282e-05,112.56,1.3176e-06,0.12771,-1.8939e-05,-152.08,2.2217
4007,23.271,3.4545,0,2.292e-05,229.05,1.6162e-05,111.37,1.3563e-06,0.12719,-1.8898e-05,-152.05,2.2216
4008,23.271,3.6364,0,2.2768e-05,227.53,1.5978e-05,109.55,1.4149e-06,0.12636,-1.8834e-05,-152.01,2.2216
4009,23.271,3.8182,0,2.2561e-05,225.46,1.5729e-05,107.08,1.4942e-06,0.12517,-1.8746e-05,-151.95,2.2216
4010,23.271,4,0,2.2296e-05,222.8,1.5409e-05,103.92,1.5951e-06,0.12352,-1.8631e-05,-151.85,2.2215
4011,23.271,4.1818,0,2.1967e-05,219.52,1.5013e-05,100.01,1.7187e-06,0.12127,-1.8486e-05,-151.69,2.2214
4012,23.271,4.3636,0,2.1571e-05,215.56,1.4535e-05,95.305,1.8663e-06,0.11824,-1.8308e-05,-151.46,2.2214
4013,23.271,4.5455,0,2.11e-05,210.86,1.3966e-05,89.726,2.0394e-06,0.11409,-1.8091e-05,-151.14,2.2213
4014,23.271,4.7273,0,2.055e-05,205.36,1.3298e-05,83.202,2.2394e-06,0.10838,-1.783e-05,-150.69,2.2212
4015,23.271,4.9091,0,1.9916e-05,199.02,1.2524e-05,75.659,2.4674e-06,0.1001,-1.752e-05,-150.07,2.2211
4016,23.271,5.0909,0,1.9194e-05,191.81,1.1635e-05,67.042,2.7244e-06,0.08845,-1.7154e-05,-149.27,2.221
4017,23.271,5.2727,0,1.8393e-05,183.81,1.0633e-05,57.352,3.0093e-06,0.067858,-1.6734e-05,-148.28,2.2209
4018,23.271,5.4545,0,1.754e-05,175.28,9.5356e-06,46.744,3.3203e-06,0.04461,-1.6271e-05,-147.15,2.2207
4019,23.271,5.6364,0,1.6713e-05,167.01,8.4062e-06,35.713,3.6459e-06,-0.054447,-1.5816e-05,-146.28,2.2206
4020,23.271,5.8182,0,1.6277e-05,162.66,7.5505e-06,26.69,3.9881e-06,-0.076262,-1.5658e-05,-147.69,2.2205
4021,23.453,0.18182,0,1.256e-05,125.51,6.351e-06,27.227,2.7123e-06,-0.11341,-1.1873e-05,-109.7,2.2475
4022,23.453,0.36364,0,1.3288e-05,132.78,7.4955e-06,38.914,2.3079e-06,-0.064207,-1.219e-05,-109,2.2476
4023,23.453,0.54545,0,1.4359e-05,143.49,8.8447e-06,52.037,1.9258e-06,0.051089,-1.2748e-05,-110.2,2.2477
4024,23.453,0.72727,0,1.5393e-05,153.82,1.0091e-05,64.115,1.5689e-06,0.079146,-1.3266e-05,-111.38,2.2478
4025,23.453,0.90909,0,1.6324e-05,163.13,1.1191e-05,74.812,1.248e-06,0.10228,-1.3711e-05,-112.29,2.248
4026,23.453,1.0909,0,1.7142e-05,171.3,1.2145e-05,84.133,9.6325e-07,0.11515,-1.4085e-05,-112.95,2.2481
4027,23.453,1.2727,0,1.785e-05,178.38,1.2966e-05,92.184,7.1359e-07,0.12442,-1.4398e-05,-113.42,2.2482
4028,23.453,1.4545,0,1.8459e-05,184.46,1.3667e-05,99.088,4.9671e-07,0.13084,-1.4658e-05,-113.73,2.2483
4029,23.453,1.6364,0,1.8976e-05,189.63,1.4261e-05,104.96,3.103e-07,0.13554,-1.4873e-05,-113.94,2.2483
4030,23.453,1.8182,0,1.9411e-05,193.98,1.476e-05,109.89,1.5213e-07,0.13901,-1.5049e-05,-114.08,2.2484
4031,23.453,2,0,1.9771e-05,197.58,1.5171e-05,113.98,2.0233e-08,0.14158,-1.5193e-05,-114.16,2.2485
4032,23.453,2.1818,0,2.0062e-05,200.48,1.5503e-05,117.28,-8.7098e-08,0.14349,-1.5307e-05,-114.21,2.2485
4033,23.453,2.3636,0,2.0289e-05,202.75,1.5762e-05,119.86,-1.7128e-07,0.14488,-1.5394e-05,-114.23,2.2486
4034,23.453,2.5455,0,2.0456e-05,204.41,1.5952e-05,121.76,-2.3343e-07,0.14585,-1.5458e-05,-114.24,2.2486
4035,23.453,2.7273,0,2.0565e-05,205.51,1.6077e-05,123,-2.744e-07,0.14646,-1.5499e-05,-114.25,2.2486
4036,23.453,2.9091,0,2.0619e-05,206.05,1.6138e-05,123.62,-2.9474e-07,0.14676,-1.552e-05,-114.25,2.2486
4037,23.453,3.0909,0,2.0619e-05,206.05,1.6138e-05,123.62,-2.9474e-07,0.14676,-1.552e-05,-114.25,2.2486
4038,23.453,3.2727,0,2.0565e-05,205.51,1.6077e-05,123,-2.744e-07,0.14646,-1.5499e-05,-114.25,2.2486
4039,23.453,3.4545,0,2.0456e-05,204.41,1.5952e-05,121.76,-2.3343e-07,0.14585,-1.5458e-05,-114.24,2.2486
4040,23.453,3.6364,0,2.0289e-05,202.75,1.5762e-05,119.86,-1.7128e-07,0.14488,-1.5394e-05,-114.23,2.2486
4041,23.453,3.8182,0,2.0062e-05,200.48,1.5503e-05,117.28,-8.7099e-08,0.14349,-1.5307e-05,-114.21,2.2485
4042,23.453,4,0,1.9771e-05,197.58,1.5171e-05,113.98,2.0232e-08,0.14158,-1.5193e-05,-114.16,2.2485
4043,23.453,4.1818,0,1.9411e-05,193.98,1.476e-05,109.89,1.5213e-07,0.139,-1.5049e-05,-114.08,2.2484
4044,23.453,4.3636,0,1.8976e-05,189.63,1.4261e-05,104.96,3.103e-07,0.13554,-1.4873e-05,-113.94,2.2483
4045,23.453,4.5455,0,1.8459e-05,184.46,1.3667e-05,99.088,4.9671e-07,0.13084,-1.4658e-05,-113.73,2.2483
4046,23.453,4.7273,0,1.785e-05,178.38,1.2966e-05,92.185,7.1359e-07,0.12442,-1.4398e-05,-113.42,2.2482
4047,23.453,4.9091,0,1.7142e-05,171.3,1.2145e-05,84.133,9.6325e-07,0.11515,-1.4085e-05,-112.95,2.2481
4048,23.453,5.0909,0,1.6324e-05,163.13,1.1191e-05,74.812,1.248e-06,0.10228,-1.3711e-05,-112.29,2.248
4049,23.453,5.2727,0,1.5393e-05,153.82,1.0092e-05,64.115,1.5689e-06,0.079144,-1.3266e-05,-111.38,2.2478
4050,23.453,5.4545,0,1.4359e-05,143.49,8.8447e-06,52.037,1.9258e-06,0.051088,-1.2748e-05,-110.2,2.2477
4051,23.453,5.6364,0,1.3288e-05,132.78,7.4955e-06,38.914,2.3079e-06,-0.064203,-1.219e-05,-109,2.2476
4052,23.453,5.8182,0,1.256e-05,125.51,6.351e-06,27.227,2.7123e-06,-0.11341,-1.1873e-05,-109.7,2.2475
4053,23.636,0.18182,0,8.9574e-06,89.512,5.1783e-06,27.862,1.4582e-06,-0.089819,-8.1512e-06,-72.291,2.2745
4054,23.636,0.36364,0,1.0152e-05,101.45,6.7332e-06,43.354,9.6919e-07,0.045323,-8.6948e-06,-72.566,2.2746
4055,23.636,0.54545,0,1.152e-05,115.12,8.3123e-06,58.758,5.1982e-07,0.2079,-9.3392e-06,-73.869,2.2747
4056,23.636,0.72727,0,1.2739e-05,127.3,9.683e-06,72.147,1.1291e-07,0.24095,-9.8793e-06,-74.836,2.2748
4057,23.636,0.90909,0,1.3794e-05,137.85,1.0854e-05,83.647,-2.4311e-07,0.27076,-1.0323e-05,-75.465,2.2749
4058,23.636,1.0909,0,1.4702e-05,146.92,1.1852e-05,93.493,-5.5335e-07,0.28729,-1.0689e-05,-75.866,2.275
4059,23.636,1.2727,0,1.5479e-05,154.69,1.2702e-05,101.91,-8.2191e-07,0.29925,-1.0992e-05,-76.114,2.2751
4060,23.636,1.4545,0,1.6143e-05,161.32,1.3424e-05,109.08,-1.0531e-06,0.3076,-1.1244e-05,-76.262,2.2752
4061,23.636,1.6364,0,1.6705e-05,166.94,1.4034e-05,115.16,-1.2504e-06,0.31373,-1.1453e-05,-76.342,2.2753
4062,23.636,1.8182,0,1.7177e-05,171.66,1.4545e-05,120.25,-1.417e-06,0.31824,-1.1625e-05,-76.379,2.2754
4063,23.636,2,0,1.7567e-05,175.55,1.4967e-05,124.46,-1.5554e-06,0.32159,-1.1765e-05,-76.389,2.2754
4064,23.636,2.1818,0,1.7883e-05,178.7,1.5307e-05,127.87,-1.6677e-06,0.32406,-1.1877e-05,-76.383,2.2755
4065,23.636,2.3636,0,1.8128e-05,181.16,1.5572e-05,130.52,-1.7556e-06,0.32585,-1.1963e-05,-76.37,2.2755
4066,23.636,2.5455,0,1.8309e-05,182.96,1.5767e-05,132.47,-1.8204e-06,0.32709,-1.2026e-05,-76.355,2.2756
4067,23.636,2.7273,0,1.8428e-05,184.15,1.5895e-05,133.75,-1.8631e-06,0.32787,-1.2067e-05,-76.343,2.2756
4068,23.636,2.9091,0,1.8486e-05,184.74,1.5958e-05,134.39,-1.8842e-06,0.32824,-1.2088e-05,-76.336,2.2756
4069,23.636,3.0909,0,1.8486e-05,184.74,1.5958e-05,134.39,-1.8842e-06,0.32824,-1.2088e-05,-76.336,2.2756
4070,23.636,3.2727,0,1.8428e-05,184.15,1.5895e-05,133.75,-1.8631e-06,0.32787,-1.2067e-05,-76.343,2.2756
4071,23.636,3.4545,0,1.8309e-05,182.96,1.5767e-05,132.47,-1.8204e-06,0.32708,-1.2026e-05,-76.355,2.2756
4072,23.636,3.6364,0,1.8128e-05,181.16,1.5572e-05,130.52,-1.7556e-06,0.32585,-1.1963e-05,-76.37,2.2755
4073,23.636,3.8182,0,1.7883e-05,178.7,1.5307e-05,127.87,-1.6677e-06,0.32406,-1.1877e-05,-76.383,2.2755
4074,23.636,4,0,1.7567e-05,175.55,1.4967e-05,124.46,-1.5554e-06,0.32159,-1.1765e-05,-76.389,2.2754
4075,23.636,4.1818,0,1.7177e-05,171.66,1.4545e-05,120.25,-1.417e-06,0.31824,-1.1625e-05,-76.379,2.2754
4076,23.636,4.3636,0,1.6705e-05,166.94,1.4034e-05,115.16,-1.2504e-06,0.31373,-1.1453e-05,-76.342,2.2753
4077,23.636,4.5455,0,1.6143e-05,161.32,1.3424e-05,109.08,-1.0531e-06,0.3076,-1.1244e-05,-76.262,2.2752
4078,23.636,4.7273,0,1.5479e-05,154.69,1.2702e-05,101.91,-8.2191e-07,0.29925,-1.0992e-05,-76.114,2.2751
4079,23.636,4.9091,0,1.4702e-05,146.92,1.1852e-05,93.493,-5.5335e-07,0.28729,-1.0689e-05,-75.866,2.275
4080,23.636,5.0909,0,1.3794e-05,137.85,1.0854e-05,83.647,-2.4311e-07,0.27076,-1.0323e-05,-75.465,2.2749
4081,23.636,5.2727,0,1.2739e-05,127.3,9.683e-06,72.147,1.1291e-07,0.24095,-9.8793e-06,-74.836,2.2748
4082,23.636,5.4545,0,1.152e-05,115.12,8.3123e-06,58.758,5.1982e-07,0.2079,-9.3392e-06,-73.869,2.2747
4083,23.636,5.6364,0,1.0152e-05,101.45,6.7332e-06,43.354,9.6919e-07,0.045328,-8.6948e-06,-72.566,2.2746
4084,23.636,5.8182,0,8.9574e-06,89.512,5.1783e-06,27.862,1.4582e-06,-0.089821,-8.1512e-06,-72.291,2.2745
4085,23.818,0.18182,0,5.7689e-06,57.65,4.2064e-06,29.768,1.8289e-07,-0.46312,-4.6412e-06,-36.709,2.3015
4086,23.818,0.36364,0,7.6387e-06,76.334,6.2708e-06,50.167,-4.342e-07,-0.21162,-5.4182e-06,-37.66,2.3016
4087,23.818,0.54545,0,9.2727e-06,92.663,8.0051e-06,67.356,-9.5654e-07,0.021312,-6.0602e-06,-38.325,2.3017
4088,23.818,0.72727,0,1.0638e-05,106.31,9.4371e-06,81.56,-1.4086e-06,0.070306,-6.5676e-06,-38.692,2.3018
4089,23.818,0.90909,0,1.1789e-05,117.81,1.0636e-05,93.503,-1.7932e-06,0.1158,-6.9793e-06,-38.85,2.3019
4090,23.818,1.0909,0,1.2765e-05,127.57,1.1649e-05,103.62,-2.1229e-06,0.14293,-7.3196e-06,-38.904,2.302
4091,23.818,1.2727,0,1.3596e-05,135.87,1.2509e-05,112.22,-2.4051e-06,0.16333,-7.6038e-06,-38.898,2.3021
4092,23.818,1.4545,0,1.4303e-05,142.93,1.3239e-05,119.53,-2.6461e-06,0.17823,-7.8419e-06,-38.861,2.3022
4093,23.818,1.6364,0,1.49e-05,148.9,1.3855e-05,125.71,-2.8507e-06,0.18957,-8.041e-06,-38.808,2.3023
4094,23.818,1.8182,0,1.5401e-05,153.9,1.4371e-05,130.89,-3.0228e-06,0.19821,-8.2064e-06,-38.75,2.3024
4095,23.818,2,0,1.5815e-05,158.04,1.4796e-05,135.16,-3.1652e-06,0.20482,-8.342e-06,-38.692,2.3024
4096,23.818,2.1818,0,1.6149e-05,161.38,1.514e-05,138.62,-3.2805e-06,0.20982,-8.451e-06,-38.639,2.3025
4097,23.818,2.3636,0,1.6409e-05,163.98,1.5408e-05,141.31,-3.3706e-06,0.21352,-8.5356e-06,-38.594,2.3025
4098,23.818,2.5455,0,1.6601e-05,165.9,1.5605e-05,143.29,-3.4369e-06,0.21612,-8.5976e-06,-38.559,2.3026
4099,23.818,2.7273,0,1.6727e-05,167.16,1.5735e-05,144.59,-3.4805e-06,0.21779,-8.6382e-06,-38.535,2.3026
4100,23.818,2.9091,0,1.679e-05,167.78,1.5799e-05,145.24,-3.5022e-06,0.2186,-8.6583e-06,-38.523,2.3026
4101,23.818,3.0909,0,1.679e-05,167.78,1.5799e-05,145.24,-3.5022e-06,0.2186,-8.6583e-06,-38.523,2.3026
4102,23.818,3.2727,0,1.6727e-05,167.16,1.5735e-05,144.59,-3.4805e-06,0.21779,-8.6382e-06,-38.535,2.3026
4103,23.818,3.4545,0,1.6601e-05,165.9,1.5605e-05,143.29,-3.4369e-06,0.21613,-8.5976e-06,-38.559,2.3026
4104,23.818,3.6364,0,1.6409e-05,163.98,1.5408e-05,141.31,-3.3706e-06,0.21352,-8.5356e-06,-38.594,2.3025
4105,23.818,3.8182,0,1.6149e-05,161.38,1.514e-05,138.62,-3.2805e-06,0.20982,-8.451e-06,-38.639,2.3025
4106,23.818,4,0,1.5815e-05,158.04,1.4796e-05,135.16,-3.1652e-06,0.20482,-8.342e-06,-38.692,2.3024
4107,23.818,4.1818,0,1.5401e-05,153.9,1.4371e-05,130.89,-3.0228e-06,0.19821,-8.2064e-06,-38.75,2.3024
4108,23.818,4.3636,0,1.49e-05,148.9,1.3855e-05,125.71,-2.8507e-06,0.18957,-8.041e-06,-38.808,2.3023
4109,23.818,4.5455,0,1.4303e-05,142.93,1.3239e-05,119.53,-2.6461e-06,0.17823,-7.8419e-06,-38.861,2.3022
4110,23.818,4.7273,0,1.3596e-05,135.87,1.2509e-05,112.22,-2.4051e-06,0.16333,-7.6038e-06,-38.898,2.3021
4111,23.818,4.9091,0,1.2765e-05,127.57,1.1649e-05,103.62,-2.1229e-06,0.14293,-7.3196e-06,-38.904,2.302
4112,23.818,5.0909,0,1.1789e-05,117.81,1.0636e-05,93.503,-1.7932e-06,0.1158,-6.9793e-06,-38.85,2.3019
4113,23.818,5.2727,0,1.0638e-05,106.31,9.4371e-06,81.56,-1.4086e-06,0.070302,-6.5676e-06,-38.692,2.3018
4114,23.818,5.4545,0,9.2727e-06,92.663,8.0051e-06,67.356,-9.5654e-07,0.021315,-6.0602e-06,-38.325,2.3017
4115,23.818,5.6364,0,7.6387e-06,76.334,6.2708e-06,50.167,-4.342e-07,-0.21162,-5.4182e-06,-37.66,2.3016
4116,23.818,5.8182,0,5.7689e-06,57.65,4.2064e-06,29.768,1.8289e-07,-0.46311,-4.6412e-06,-36.709,2.3015
4117,23.818,5.8182,0.1,5.7689e-06,57.65,4.6412e-06,36.709,-1.8289e-07,0.46312,-4.2064e-06,-29.768,2.3015
4118,23.818,5.6364,0.1,7.6387e-06,76.334,5.4182e-06,37.66,4.342e-07,0.21162,-6.2708e-06,-50.167,2.3016
4119,23.818,5.4545,0.1,9.2727e-06,92.663,6.0602e-06,38.325,9.5654e-07,-0.021311,-8.0051e-06,-67.356,2.3017
4120,23.818,5.2727,0.1,1.0638e-05,106.31,6.5676e-06,38.692,1.4086e-06,-0.070302,-9.4371e-06,-81.56,2.3018
4121,23.818,5.0909,0.1,1.1789e-05,117.81,6.9793e-06,38.85,1.7932e-06,-0.1158,-1.0636e-05,-93.503,2.3019
4122,23.818,4.9091,0.1,1.2765e-05,127.57,7.3196e-06,38.904,2.1229e-06,-0.14293,-1.1649e-05,-103.62,2.302
4123,23.818,4.7273,0.1,1.3596e-05,135.87,7.6038e-06,38.898,2.4051e-06,-0.16332,-1.2509e-05,-112.22,2.3021
4124,23.818,4.5455,0.1,1.4303e-05,142.93,7.8419e-06,38.861,2.6461e-06,-0.17823,-1.3239e-05,-119.53,2.3022
4125,23.818,4.3636,0.1,1.49e-05,148.9,8.041e-06,38.808,2.8507e-06,-0.18957,-1.3855e-05,-125.71,2.3023
4126,23.818,4.1818,0.1,1.5401e-05,153.9,8.2064e-06,38.75,3.0228e-06,-0.19821,-1.4371e-05,-130.89,2.3024
4127,23.818,4,0.1,1.5815e-05,158.04,8.342e-06,38.692,3.1652e-06,-0.20482,-1.4796e-05,-135.16,2.3024
4128,23.818,3.8182,0.1,1.6149e-05,161.38,8.451e-06,38.639,3.2805e-06,-0.20982,-1.514e-05,-138.62,2.3025
4129,23.818,3.6364,0.1,1.6409e-05,163.98,8.5356e-06,38.594,3.3706e-06,-0.21351,-1.5408e-05,-141.31,2.3025
4130,23.818,3.4545,0.1,1.6601e-05,165.9,8.5976e-06,38.559,3.4369e-06,-0.21612,-1.5605e-05,-143.29,2.3026
4131,23.818,3.2727,0.1,1.6727e-05,167.16,8.6382e-06,38.535,3.4805e-06,-0.21779,-1.5735e-05,-144.59,2.3026
4132,23.818,3.0909,0.1,1.679e-05,167.78,8.6583e-06,38.523,3.5022e-06,-0.2186,-1.5799e-05,-145.24,2.3026
4133,23.818,2.9091,0.1,1.679e-05,167.78,8.6583e-06,38.523,3.5022e-06,-0.2186,-1.5799e-05,-145.24,2.3026
4134,23.818,2.7273,0.1,1.6727e-05,167.16,8.6382e-06,38.535,3.4805e-06,-0.21779,-1.5735e-05,-144.59,2.3026
4135,23.818,2.5455,0.1,1.6601e-05,165.9,8.5976e-06,38.559,3.4369e-06,-0.21612,-1.5605e-05,-143.29,2.3026
4136,23.818,2.3636,0.1,1.6409e-05,163.98,8.5356e-06,38.594,3.3706e-06,-0.21351,-1.5408e-05,-141.31,2.3025
4137,23.818,2.1818,0.1,1.6149e-05,161.38,8.451e-06,38.639,3.2805e-06,-0.20982,-1.514e-05,-138.62,2.3025
4138,23.818,2,0.1,1.5815e-05,158.04,8.342e-06,38.692,3.1652e-06,-0.20482,-1.4796e-05,-135.16,2.3024
4139,23.818,1.8182,0.1,1.5401e-05,153.9,8.2064e-06,38.75,3.0228e-06,-0.19821,-1.4371e-05,-130.89,2.3024
4140,23.818,1.6364,0.1,1.49e-05,148.9,8.041e-06,38.808,2.8507e-06,-0.18957,-1.3855e-05,-125.71,2.3023
4141,23.818,1.4545,0.1,1.4303e-05,142.93,7.8419e-06,38.861,2.6461e-06,-0.17823,-1.3239e-05,-119.53,2.3022
4142,23.818,1.2727,0.1,1.3596e-05,135.87,7.6038e-06,38.898,2.4051e-06,-0.16332,-1.2509e-05,-112.22,2.3021
4143,23.818,1.0909,0.1,1.2765e-05,127.57,7.3196e-06,38.904,2.1229e-06,-0.14293,-1.1649e-05,-103.62,2.302
4144,23.818,0.90909,0.1,1.1789e-05,117.81,6.9793e-06,38.85,1.7932e-06,-0.1158,-1.0636e-05,-93.503,2.3019
4145,23.818,0.72727,0.1,1.0638e-05,106.31,6.5676e-06,38.692,1.4086e-06,-0.070306,-9.4371e-06,-81.56,2.3018
4146,23.818,0.54545,0.1,9.2727e-06,92.663,6.0602e-06,38.325,9.5654e-07,-0.021311,-8.0051e-06,-67.356,2.3017
4147,23.818,0.36364,0.1,7.6387e-06,76.334,5.4182e-06,37.66,4.342e-07,0.21163,-6.2708e-06,-50.167,2.3016
4148,23.818,0.18182,0.1,5.7689e-06,57.65,4.6412e-06,36.709,-1.8289e-07,0.46312,-4.2064e-06,-29.768,2.3015
4149,23.636,5.8182,0.1,8.9574e-06,89.512,8.1512e-06,72.291,-1.4582e-06,0.089823,-5.1783e-06,-27.862,2.2745
4150,23.636,5.6364,0.1,1.0152e-05,101.45,8.6948e-06,72.566,-9.6919e-07,-0.045327,-6.7332e-06,-43.354,2.2746
4151,23.636,5.4545,0.1,1.152e-05,115.12,9.3392e-06,73.869,-5.1982e-07,-0.2079,-8.3123e-06,-58.758,2.2747
4152,23.636,5.2727,0.1,1.2739e-05,127.3,9.8793e-06,74.836,-1.1291e-07,-0.24095,-9.683e-06,-72.147,2.2748
4153,23.636,5.0909,0.1,1.3794e-05,137.85,1.0323e-05,75.465,2.4311e-07,-0.27076,-1.0854e-05,-83.647,2.2749
4154,23.636,4.9091,0.1,1.4702e-05,146.92,1.0689e-05,75.866,5.5335e-07,-0.28729,-1.1852e-05,-93.493,2.275
4155,23.636,4.7273,0.1,1.5479e-05,154.69,1.0992e-05,76.114,8.2191e-07,-0.29925,-1.2702e-05,-101.91,2.2751
4156,23.636,4.5455,0.1,1.6143e-05,161.32,1.1244e-05,76.262,1.0531e-06,-0.3076,-1.3424e-05,-109.08,2.2752
4157,23.636,4.3636,0.1,1.6705e-05,166.94,1.1453e-05,76.342,1.2504e-06,-0.31373,-1.4034e-05,-115.16,2.2753
4158,23.636,4.1818,0.1,1.7177e-05,171.66,1.1625e-05,76.379,1.417e-06,-0.31824,-1.4545e-05,-120.25,2.2754
4159,23.636,4,0.1,1.7567e-05,175.55,1.1765e-05,76.389,1.5554e-06,-0.32159,-1.4967e-05,-124.46,2.2754
4160,23.636,3.8182,0.1,1.7883e-05,178.7,1.1877e-05,76.383,1.6677e-06,-0.32406,-1.5307e-05,-127.87,2.2755
4161,23.636,3.6364,0.1,1.8128e-05,181.16,1.1963e-05,76.37,1.7556e-06,-0.32584,-1.5572e-05,-130.52,2.2755
4162,23.636,3.4545,0.1,1.8309e-05,182.96,1.2026e-05,76.355,1.8204e-06,-0.32709,-1.5767e-05,-132.47,2.2756
4163,23.636,3.2727,0.1,1.8428e-05,184.15,1.2067e-05,76.343,1.8631e-06,-0.32786,-1.5895e-05,-133.75,2.2756
4164,23.636,3.0909,0.1,1.8486e-05,184.74,1.2088e-05,76.336,1.8842e-06,-0.32824,-1.5958e-05,-134.39,2.2756
4165,23.636,2.9091,0.1,1.8486e-05,184.74,1.2088e-05,76.336,1.8842e-06,-0.32824,-1.5958e-05,-134.39,2.2756
4166,23.636,2.7273,0.1,1.8428e-05,184.15,1.2067e-05,76.343,1.8631e-06,-0.32786,-1.5895e-05,-133.75,2.2756
4167,23.636,2.5455,0.1,1.8309e-05,182.96,1.2026e-05,76.355,1.8204e-06,-0.32709,-1.5767e-05,-132.47,2.2756
4168,23.636,2.3636,0.1,1.8128e-05,181.16,1.1963e-05,76.37,1.7556e-06,-0.32584,-1.5572e-05,-130.52,2.2755
4169,23.636,2.1818,0.1,1.7883e-05,178.7,1.1877e-05,76.383,1.6677e-06,-0.32406,-1.5307e-05,-127.87,2.2755
4170,23.636,2,0.1,1.7567e-05,175.55,1.1765e-05,76.389,1.5554e-06,-0.32159,-1.4967e-05,-124.46,2.2754
4171,23.636,1.8182,0.1,1.7177e-05,171.66,1.1625e-05,76.379,1.417e-06,-0.31824,-1.4545e-05,-120.25,2.2754
4172,23.636,1.6364,0.1,1.6705e-05,166.94,1.1453e-05,76.342,1.2504e-06,-0.31373,-1.4034e-05,-115.16,2.2753
4173,23.636,1.4545,0.1,1.6143e-05,161.32,1.1244e-05,76.262,1.0531e-06,-0.3076,-1.3424e-05,-109.08,2.2752
4174,23.636,1.2727,0.1,1.5479e-05,154.69,1.0992e-05,76.114,8.2191e-07,-0.29925,-1.2702e-05,-101.91,2.2751
4175,23.636,1.0909,0.1,1.4702e-05,146.92,1.0689e-05,75.866,5.5335e-07,-0.28729,-1.1852e-05,-93.493,2.275
4176,23.636,0.90909,0.1,1.3794e-05,137.85,1.0323e-05,75.465,2.4311e-07,-0.27076,-1.0854e-05,-83.647,2.2749
4177,23.636,0.72727,0.1,1.2739e-05,127.3,9.8793e-06,74.836,-1.1291e-07,-0.24095,-9.683e-06,-72.147,2.2748
4178,23.636,0.54545,0.1,1.152e-05,115.12,9.3392e-06,73.869,-5.1982e-07,-0.2079,-8.3123e-06,-58.758,2.2747
4179,23.636,0.36364,0.1,1.0152e-05,101.45,8.6948e-06,72.566,-9.6919e-07,-0.045325,-6.7332e-06,-43.354,2.2746
4180,23.636,0.18182,0.1,8.9574e-06,89.512,8.1512e-06,72.291,-1.4582e-06,0.08982,-5.1783e-06,-27.862,2.2745
4181,23.453,5.8182,0.1,1.256e-05,125.51,1.1873e-05,109.7,-2.7123e-06,0.11341,-6.351e-06,-27.227,2.2475
4182,23.453,5.6364,0.1,1.3288e-05,132.78,1.219e-05,109,-2.3079e-06,0.064202,-7.4955e-06,-38.914,2.2476
4183,23.453,5.4545,0.1,1.4359e-05,143.49,1.2748e-05,110.2,-1.9258e-06,-0.051091,-8.8447e-06,-52.037,2.2477
4184,23.453,5.2727,0.1,1.5393e-05,153.82,1.3266e-05,111.38,-1.5689e-06,-0.079144,-1.0092e-05,-64.115,2.2478
4185,23.453,5.0909,0.1,1.6324e-05,163.13,1.3711e-05,112.29,-1.248e-06,-0.10228,-1.1191e-05,-74.812,2.248
4186,23.453,4.9091,0.1,1.7142e-05,171.3,1.4085e-05,112.95,-9.6325e-07,-0.11516,-1.2145e-05,-84.133,2.2481
4187,23.453,4.7273,0.1,1.785e-05,178.38,1.4398e-05,113.42,-7.1359e-07,-0.12442,-1.2966e-05,-92.185,2.2482
4188,23.453,4.5455,0.1,1.8459e-05,184.46,1.4658e-05,113.73,-4.9671e-07,-0.13084,-1.3667e-05,-99.088,2.2483
4189,23.453,4.3636,0.1,1.8976e-05,189.63,1.4873e-05,113.94,-3.103e-07,-0.13554,-1.4261e-05,-104.96,2.2483
4190,23.453,4.1818,0.1,1.9411e-05,193.98,1.5049e-05,114.08,-1.5213e-07,-0.139,-1.476e-05,-109.89,2.2484
4191,23.453,4,0.1,1.9771e-05,197.58,1.5193e-05,114.16,-2.0233e-08,-0.14158,-1.5171e-05,-113.98,2.2485
4192,23.453,3.8182,0.1,2.0062e-05,200.48,1.5307e-05,114.21,8.7097e-08,-0.14349,-1.5503e-05,-117.28,2.2485
4193,23.453,3.6364,0.1,2.0289e-05,202.75,1.5394e-05,114.23,1.7128e-07,-0.14488,-1.5762e-05,-119.86,2.2486
4194,23.453,3.4545,0.1,2.0456e-05,204.41,1.5458e-05,114.24,2.3343e-07,-0.14585,-1.5952e-05,-121.76,2.2486
4195,23.453,3.2727,0.1,2.0565e-05,205.51,1.5499e-05,114.25,2.744e-07,-0.14646,-1.6077e-05,-123,2.2486
4196,23.453,3.0909,0.1,2.0619e-05,206.05,1.552e-05,114.25,2.9474e-07,-0.14676,-1.6138e-05,-123.62,2.2486
4197,23.453,2.9091,0.1,2.0619e-05,206.05,1.552e-05,114.25,2.9474e-07,-0.14676,-1.6138e-05,-123.62,2.2486
4198,23.453,2.7273,0.1,2.0565e-05,205.51,1.5499e-05,114.25,2.744e-07,-0.14646,-1.6077e-05,-123,2.2486
4199,23.453,2.5455,0.1,2.0456e-05,204.41,1.5458e-05,114.24,2.3343e-07,-0.14585,-1.5952e-05,-121.76,2.2486
4200,23.453,2.3636,0.1,2.0289e-05,202.75,1.5394e-05,114.23,1.7128e-07,-0.14488,-1.5762e-05,-119.86,2.2486
4201,23.453,2.1818,0.1,2.0062e-05,200.48,1.5307e-05,114.21,8.7097e-08,-0.14349,-1.5503e-05,-117.28,2.2485
4202,23.453,2,0.1,1.9771e-05,197.58,1.5193e-05,114.16,-2.0234e-08,-0.14158,-1.5171e-05,-113.98,2.2485
4203,23.453,1.8182,0.1,1.9411e-05,193.98,1.5049e-05,114.08,-1.5213e-07,-0.13901,-1.476e-05,-109.89,2.2484
4204,23.453,1.6364,0.1,1.8976e-05,189.63,1.4873e-05,113.94,-3.103e-07,-0.13554,-1.4261e-05,-104.96,2.2483
4205,23.453,1.4545,0.1,1.8459e-05,184.46,1.4658e-05,113.73,-4.9671e-07,-0.13084,-1.3667e-05,-99.088,2.2483
4206,23.453,1.2727,0.1,1.785e-05,178.38,1.4398e-05,113.42,-7.1359e-07,-0.12442,-1.2966e-05,-92.184,2.2482
4207,23.453,1.0909,0.1,1.7142e-05,171.3,1.4085e-05,112.95,-9.6325e-07,-0.11515,-1.2145e-05,-84.133,2.2481
4208,23.453,0.90909,0.1,1.6324e-05,163.13,1.3711e-05,112.29,-1.248e-06,-0.10229,-1.1191e-05,-74.812,2.248
4209,23.453,0.72727,0.1,1.5393e-05,153.82,1.3266e-05,111.38,-1.5689e-06,-0.079145,-1.0091e-05,-64.115,2.2478
4210,23.453,0.54545,0.1,1.4359e-05,143.49,1.2748e-05,110.2,-1.9258e-06,-0.05109,-8.8447e-06,-52.037,2.2477
4211,23.453,0.36364,0.1,1.3288e-05,132.78,1.219e-05,109,-2.3079e-06,0.064206,-7.4955e-06,-38.914,2.2476
4212,23.453,0.18182,0.1,1.256e-05,125.51,1.1873e-05,109.7,-2.7123e-06,0.11341,-6.351e-06,-27.227,2.2475
4213,23.271,5.8182,0.1,1.6277e-05,162.66,1.5658e-05,147.69,-3.9881e-06,0.076261,-7.5505e-06,-26.69,2.2205
4214,23.271,5.6364,0.1,1.6713e-05,167.01,1.5816e-05,146.28,-3.6459e-06,0.054449,-8.4062e-06,-35.713,2.2206
4215,23.271,5.4545,0.1,1.754e-05,175.28,1.6271e-05,147.15,-3.3203e-06,-0.044609,-9.5356e-06,-46.744,2.2207
4216,23.271,5.2727,0.1,1.8393e-05,183.81,1.6734e-05,148.28,-3.0093e-06,-0.067859,-1.0633e-05,-57.352,2.2209
4217,23.271,5.0909,0.1,1.9194e-05,191.81,1.7154e-05,149.27,-2.7244e-06,-0.088449,-1.1635e-05,-67.042,2.221
4218,23.271,4.9091,0.1,1.9916e-05,199.02,1.752e-05,150.07,-2.4674e-06,-0.1001,-1.2524e-05,-75.659,2.2211
4219,23.271,4.7273,0.1,2.055e-05,205.36,1.783e-05,150.69,-2.2394e-06,-0.10838,-1.3298e-05,-83.202,2.2212
4220,23.271,4.5455,0.1,2.11e-05,210.86,1.8091e-05,151.14,-2.0394e-06,-0.11409,-1.3966e-05,-89.726,2.2213
4221,23.271,4.3636,0.1,2.1571e-05,215.56,1.8308e-05,151.46,-1.8663e-06,-0.11824,-1.4535e-05,-95.305,2.2214
4222,23.271,4.1818,0.1,2.1967e-05,219.52,1.8486e-05,151.69,-1.7187e-06,-0.12127,-1.5013e-05,-100.01,2.2214
4223,23.271,4,0.1,2.2296e-05,222.8,1.8631e-05,151.85,-1.5951e-06,-0.12352,-1.5409e-05,-103.92,2.2215
4224,23.271,3.8182,0.1,2.2561e-05,225.46,1.8746e-05,151.95,-1.4942e-06,-0.12516,-1.5729e-05,-107.08,2.2216
4225,23.271,3.6364,0.1,2.2768e-05,227.53,1.8834e-05,152.01,-1.4149e-06,-0.12636,-1.5978e-05,-109.55,2.2216
4226,23.271,3.4545,0.1,2.292e-05,229.05,1.8898e-05,152.05,-1.3563e-06,-0.12719,-1.6162e-05,-111.37,2.2216
4227,23.271,3.2727,0.1,2.302e-05,230.04,1.8939e-05,152.08,-1.3176e-06,-0.12771,-1.6282e-05,-112.56,2.2217
4228,23.271,3.0909,0.1,2.307e-05,230.54,1.896e-05,152.09,-1.2984e-06,-0.12796,-1.6341e-05,-113.16,2.2217
4229,23.271,2.9091,0.1,2.307e-05,230.54,1.896e-05,152.09,-1.2984e-06,-0.12796,-1.6341e-05,-113.16,2.2217
4230,23.271,2.7273,0.1,2.302e-05,230.04,1.8939e-05,152.08,-1.3176e-06,-0.12771,-1.6282e-05,-112.56,2.2217
4231,23.271,2.5455,0.1,2.292e-05,229.05,1.8898e-05,152.05,-1.3563e-06,-0.12719,-1.6162e-05,-111.37,2.2216
4232,23.271,2.3636,0.1,2.2768e-05,227.53,1.8834e-05,152.01,-1.4149e-06,-0.12636,-1.5978e-05,-109.55,2.2216
4233,23.271,2.1818,0.1,2.2561e-05,225.46,1.8746e-05,151.95,-1.4942e-06,-0.12517,-1.5729e-05,-107.08,2.2216
4234,23.271,2,0.1,2.2296e-05,222.8,1.8631e-05,151.85,-1.5951e-06,-0.12352,-1.5409e-05,-103.92,2.2215
4235,23.271,1.8182,0.1,2.1967e-05,219.52,1.8486e-05,151.69,-1.7187e-06,-0.12128,-1.5013e-05,-100.01,2.2214
4236,23.271,1.6364,0.1,2.1571e-05,215.56,1.8308e-05,151.46,-1.8663e-06,-0.11824,-1.4535e-05,-95.305,2.2214
4237,23.271,1.4545,0.1,2.11e-05,210.86,1.8091e-05,151.14,-2.0394e-06,-0.11409,-1.3966e-05,-89.726,2.2213
4238,23.271,1.2727,0.1,2.055e-05,205.36,1.783e-05,150.69,-2.2394e-06,-0.10838,-1.3298e-05,-83.202,2.2212
4239,23.271,1.0909,0.1,1.9916e-05,199.02,1.752e-05,150.07,-2.4674e-06,-0.10009,-1.2524e-05,-75.659,2.2211
4240,23.271,0.90909,0.1,1.9194e-05,191.81,1.7154e-05,149.27,-2.7244e-06,-0.088449,-1.1635e-05,-67.042,2.221
4241,23.271,0.72727,0.1,1.8393e-05,183.81,1.6734e-05,148.28,-3.0093e-06,-0.067858,-1.0633e-05,-57.352,2.2209
4242,23.271,0.54545,0.1,1.754e-05,175.28,1.6271e-05,147.15,-3.3203e-06,-0.044611,-9.5356e-06,-46.744,2.2207
4243,23.271,0.36364,0.1,1.6713e-05,167.01,1.5816e-05,146.28,-3.6459e-06,0.054451,-8.4062e-06,-35.713,2.2206
4244,23.271,0.18182,0.1,1.6277e-05,162.66,1.5658e-05,147.69,-3.9881e-06,0.076263,-7.5505e-06,-26.69,2.2205
4245,23.089,5.8182,0.1,2.0045e-05,200.31,1.9474e-05,186.02,-5.2753e-06,0.062753,-8.7548e-06,-26.081,2.1935
4246,23.089,5.6364,0.1,2.0283e-05,202.69,1.9516e-05,184.12,-4.9808e-06,0.060502,-9.3951e-06,-33.107,2.1936
4247,23.089,5.4545,0.1,2.0921e-05,209.07,1.9876e-05,184.64,-4.7007e-06,-0.022044,-1.0335e-05,-42.359,2.1938
4248,23.089,5.2727,0.1,2.1616e-05,216.01,2.0273e-05,185.57,-4.4303e-06,-0.042224,-1.1284e-05,-51.536,2.1939
4249,23.089,5.0909,0.1,2.2293e-05,222.77,2.0652e-05,186.51,-4.1793e-06,-0.060633,-1.2175e-05,-60.139,2.194
4250,23.089,4.9091,0.1,2.2918e-05,229.02,2.0993e-05,187.34,-3.9502e-06,-0.071228,-1.2983e-05,-67.941,2.1941
4251,23.089,4.7273,0.1,2.3478e-05,234.62,2.1291e-05,188.03,-3.7447e-06,-0.078791,-1.3699e-05,-74.868,2.1942
4252,23.089,4.5455,0.1,2.3969e-05,239.52,2.1544e-05,188.56,-3.5631e-06,-0.083999,-1.4322e-05,-80.919,2.1943
4253,23.089,4.3636,0.1,2.4392e-05,243.75,2.1757e-05,188.97,-3.4049e-06,-0.087758,-1.4856e-05,-86.128,2.1944
4254,23.089,4.1818,0.1,2.4749e-05,247.32,2.1933e-05,189.27,-3.2694e-06,-0.09049,-1.5308e-05,-90.544,2.1945
4255,23.089,4,0.1,2.5046e-05,250.29,2.2077e-05,189.49,-3.1554e-06,-0.092497,-1.5683e-05,-94.218,2.1946
4256,23.089,3.8182,0.1,2.5287e-05,252.69,2.219e-05,189.64,-3.0621e-06,-0.093964,-1.5986e-05,-97.199,2.1946
4257,23.089,3.6364,0.1,2.5474e-05,254.57,2.2278e-05,189.75,-2.9887e-06,-0.095019,-1.6223e-05,-99.53,2.1947
4258,23.089,3.4545,0.1,2.5612e-05,255.94,2.2341e-05,189.81,-2.9343e-06,-0.095749,-1.6397e-05,-101.25,2.1947
4259,23.089,3.2727,0.1,2.5702e-05,256.85,2.2382e-05,189.85,-2.8984e-06,-0.096209,-1.6511e-05,-102.38,2.1947
4260,23.089,3.0909,0.1,2.5747e-05,257.29,2.2403e-05,189.87,-2.8805e-06,-0.09643,-1.6568e-05,-102.94,2.1947
4261,23.089,2.9091,0.1,2.5747e-05,257.29,2.2403e-05,189.87,-2.8805e-06,-0.096429,-1.6568e-05,-102.94,2.1947
4262,23.089,2.7273,0.1,2.5702e-05,256.85,2.2382e-05,189.85,-2.8984e-06,-0.096207,-1.6511e-05,-102.38,2.1947
4263,23.089,2.5455,0.1,2.5612e-05,255.94,2.2341e-05,189.81,-2.9343e-06,-0.09575,-1.6397e-05,-101.25,2.1947
4264,23.089,2.3636,0.1,2.5474e-05,254.57,2.2278e-05,189.75,-2.9887e-06,-0.095019,-1.6223e-05,-99.53,2.1947
4265,23.089,2.1818,0.1,2.5287e-05,252.69,2.219e-05,189.64,-3.0621e-06,-0.093965,-1.5986e-05,-97.199,2.1946
4266,23.089,2,0.1,2.5046e-05,250.29,2.2077e-05,189.49,-3.1554e-06,-0.092493,-1.5683e-05,-94.218,2.1946
4267,23.089,1.8182,0.1,2.4749e-05,247.32,2.1933e-05,189.27,-3.2694e-06,-0.090489,-1.5308e-05,-90.544,2.1945
4268,23.089,1.6364,0.1,2.4392e-05,243.75,2.1757e-05,188.97,-3.4049e-06,-0.08776,-1.4856e-05,-86.128,2.1944
4269,23.089,1.4545,0.1,2.3969e-05,239.52,2.1544e-05,188.56,-3.5631e-06,-0.084,-1.4322e-05,-80.919,2.1943
4270,23.089,1.2727,0.1,2.3478e-05,234.62,2.1291e-05,188.03,-3.7447e-06,-0.078792,-1.3699e-05,-74.868,2.1942
4271,23.089,1.0909,0.1,2.2918e-05,229.02,2.0993e-05,187.34,-3.9502e-06,-0.071229,-1.2983e-05,-67.941,2.1941
4272,23.089,0.90909,0.1,2.2293e-05,222.77,2.0652e-05,186.51,-4.1793e-06,-0.060634,-1.2175e-05,-60.139,2.194
4273,23.089,0.72727,0.1,2.1616e-05,216.01,2.0273e-05,185.57,-4.4303e-06,-0.042226,-1.1284e-05,-51.536,2.1939
4274,23.089,0.54545,0.1,2.0921e-05,209.07,1.9876e-05,184.64,-4.7007e-06,-0.022045,-1.0335e-05,-42.359,2.1938
4275,23.089,0.36364,0.1,2.0283e-05,202.69,1.9516e-05,184.12,-4.9808e-06,0.060504,-9.3951e-06,-33.107,2.1936
4276,23.089,0.18182,0.1,2.0045e-05,200.31,1.9474e-05,186.02,-5.2753e-06,0.062756,-8.7548e-06,-26.081,2.1935
4277,22.907,5.8182,0.1,2.3844e-05,238.27,2.3311e-05,224.59,-6.5736e-06,0.048501,-9.9578e-06,-25.379,2.1665
4278,22.907,5.6364,0.1,2.3938e-05,239.21,2.3264e-05,222.33,-6.3179e-06,0.056633,-1.0429e-05,-30.833,2.1667
4279,22.907,5.4545,0.1,2.4429e-05,244.12,2.3543e-05,222.53,-6.0758e-06,-0.01367,-1.1209e-05,-38.582,2.1668
4280,22.907,5.2727,0.1,2.4989e-05,249.71,2.3872e-05,223.22,-5.8409e-06,-0.031363,-1.2018e-05,-46.442,2.167
4281,22.907,5.0909,0.1,2.5552e-05,255.34,2.4202e-05,224.03,-5.621e-06,-0.047936,-1.2796e-05,-53.96,2.1671
4282,22.907,4.9091,0.1,2.6085e-05,260.67,2.451e-05,224.81,-5.4187e-06,-0.057735,-1.3516e-05,-60.898,2.1672
4283,22.907,4.7273,0.1,2.6572e-05,265.53,2.4785e-05,225.5,-5.236e-06,-0.064776,-1.4163e-05,-67.14,2.1673
4284,22.907,4.5455,0.1,2.7003e-05,269.85,2.5024e-05,226.07,-5.0734e-06,-0.069637,-1.4733e-05,-72.646,2.1674
4285,22.907,4.3636,0.1,2.7378e-05,273.59,2.5227e-05,226.52,-4.931e-06,-0.07313,-1.5225e-05,-77.42,2.1675
4286,22.907,4.1818,0.1,2.7697e-05,276.78,2.5396e-05,226.87,-4.8085e-06,-0.075657,-1.5644e-05,-81.487,2.1676
4287,22.907,4,0.1,2.7963e-05,279.43,2.5534e-05,227.13,-4.7052e-06,-0.077495,-1.5992e-05,-84.882,2.1676
4288,22.907,3.8182,0.1,2.8178e-05,281.58,2.5645e-05,227.32,-4.6205e-06,-0.078832,-1.6274e-05,-87.642,2.1677
4289,22.907,3.6364,0.1,2.8346e-05,283.26,2.5729e-05,227.45,-4.5536e-06,-0.079788,-1.6495e-05,-89.803,2.1677
4290,22.907,3.4545,0.1,2.8469e-05,284.49,2.5791e-05,227.54,-4.5041e-06,-0.080443,-1.6657e-05,-91.395,2.1677
4291,22.907,3.2727,0.1,2.855e-05,285.3,2.5831e-05,227.6,-4.4713e-06,-0.080853,-1.6764e-05,-92.443,2.1678
4292,22.907,3.0909,0.1,2.859e-05,285.7,2.5851e-05,227.62,-4.455e-06,-0.081051,-1.6817e-05,-92.963,2.1678
4293,22.907,2.9091,0.1,2.859e-05,285.7,2.5851e-05,227.62,-4.455e-06,-0.081049,-1.6817e-05,-92.963,2.1678
4294,22.907,2.7273,0.1,2.855e-05,285.3,2.5831e-05,227.6,-4.4713e-06,-0.080854,-1.6764e-05,-92.443,2.1678
4295,22.907,2.5455,0.1,2.8469e-05,284.49,2.5791e-05,227.54,-4.5041e-06,-0.080443,-1.6657e-05,-91.395,2.1677
4296,22.907,2.3636,0.1,2.8346e-05,283.26,2.5729e-05,227.45,-4.5536e-06,-0.079788,-1.6495e-05,-89.803,2.1677
4297,22.907,2.1818,0.1,2.8178e-05,281.58,2.5645e-05,227.32,-4.6205e-06,-0.078832,-1.6274e-05,-87.642,2.1677
4298,22.907,2,0.1,2.7963e-05,279.43,2.5534e-05,227.13,-4.7052e-06,-0.077499,-1.5992e-05,-84.882,2.1676
4299,22.907,1.8182,0.1,2.7697e-05,276.78,2.5396e-05,226.87,-4.8085e-06,-0.075656,-1.5644e-05,-81.487,2.1676
4300,22.907,1.6364,0.1,2.7378e-05,273.59,2.5227e-05,226.52,-4.931e-06,-0.073131,-1.5225e-05,-77.42,2.1675
4301,22.907,1.4545,0.1,2.7003e-05,269.85,2.5024e-05,226.07,-5.0734e-06,-0.069637,-1.4733e-05,-72.646,2.1674
4302,22.907,1.2727,0.1,2.6572e-05,265.53,2.4785e-05,225.5,-5.236e-06,-0.064774,-1.4163e-05,-67.14,2.1673
4303,22.907,1.0909,0.1,2.6085e-05,260.67,2.451e-05,224.81,-5.4187e-06,-0.057734,-1.3516e-05,-60.898,2.1672
4304,22.907,0.90909,0.1,2.5552e-05,255.34,2.4202e-05,224.03,-5.621e-06,-0.047935,-1.2796e-05,-53.96,2.1671
4305,22.907,0.72727,0.1,2.4989e-05,249.71,2.3872e-05,223.22,-5.8409e-06,-0.031364,-1.2018e-05,-46.442,2.167
4306,22.907,0.54545,0.1,2.4429e-05,244.12,2.3543e-05,222.53,-6.0758e-06,-0.013672,-1.1209e-05,-38.582,2.1668
4307,22.907,0.36364,0.1,2.3938e-05,239.21,2.3264e-05,222.33,-6.3179e-06,0.056638,-1.0429e-05,-30.833,2.1667
4308,22.907,0.18182,0.1,2.3844e-05,238.27,2.3311e-05,224.59,-6.5736e-06,0.048503,-9.9578e-06,-25.379,2.1665
4309,22.725,5.8182,0.1,2.7663e-05,276.44,2.7163e-05,263.34,-7.8804e-06,0.038533,-1.1158e-05,-24.588,2.1396
4310,22.725,5.6364,0.1,2.7648e-05,276.29,2.7047e-05,260.81,-7.6579e-06,0.052784,-1.1492e-05,-28.752,2.1397
4311,22.725,5.4545,0.1,2.8021e-05,280.01,2.7255e-05,260.74,-7.4481e-06,-0.0073973,-1.2134e-05,-35.214,2.1399
4312,22.725,5.2727,0.1,2.8466e-05,284.46,2.7521e-05,261.19,-7.2444e-06,-0.022893,-1.2815e-05,-41.881,2.14
4313,22.725,5.0909,0.1,2.8927e-05,289.07,2.7799e-05,261.83,-7.0531e-06,-0.037833,-1.3484e-05,-48.36,2.1401
4314,22.725,4.9091,0.1,2.9374e-05,293.54,2.8067e-05,262.5,-6.8762e-06,-0.0469,-1.4113e-05,-54.422,2.1403
4315,22.725,4.7273,0.1,2.979e-05,297.69,2.8313e-05,263.14,-6.7155e-06,-0.053481,-1.4686e-05,-59.942,2.1404
4316,22.725,4.5455,0.1,3.0163e-05,301.42,2.8531e-05,263.69,-6.572e-06,-0.058052,-1.5196e-05,-64.855,2.1405
4317,22.725,4.3636,0.1,3.049e-05,304.69,2.8719e-05,264.15,-6.4459e-06,-0.061338,-1.564e-05,-69.143,2.1406
4318,22.725,4.1818,0.1,3.077e-05,307.48,2.8877e-05,264.52,-6.3371e-06,-0.063701,-1.6019e-05,-72.813,2.1406
4319,22.725,4,0.1,3.1003e-05,309.82,2.9007e-05,264.81,-6.2453e-06,-0.065412,-1.6336e-05,-75.885,2.1407
4320,22.725,3.8182,0.1,3.1193e-05,311.72,2.9111e-05,265.02,-6.1698e-06,-0.066646,-1.6594e-05,-78.388,2.1408
4321,22.725,3.6364,0.1,3.1341e-05,313.2,2.9191e-05,265.18,-6.1102e-06,-0.067518,-1.6795e-05,-80.35,2.1408
4322,22.725,3.4545,0.1,3.145e-05,314.29,2.925e-05,265.28,-6.066e-06,-0.068114,-1.6943e-05,-81.796,2.1408
4323,22.725,3.2727,0.1,3.1522e-05,315,2.9288e-05,265.35,-6.0368e-06,-0.068483,-1.7041e-05,-82.748,2.1409
4324,22.725,3.0909,0.1,3.1557e-05,315.35,2.9307e-05,265.38,-6.0222e-06,-0.068662,-1.7089e-05,-83.22,2.1409
4325,22.725,2.9091,0.1,3.1557e-05,315.35,2.9307e-05,265.38,-6.0222e-06,-0.06866,-1.7089e-05,-83.22,2.1409
4326,22.725,2.7273,0.1,3.1522e-05,315,2.9288e-05,265.35,-6.0368e-06,-0.068484,-1.7041e-05,-82.748,2.1409
4327,22.725,2.5455,0.1,3.145e-05,314.29,2.925e-05,265.28,-6.066e-06,-0.068115,-1.6943e-05,-81.796,2.1408
4328,22.725,2.3636,0.1,3.1341e-05,313.2,2.9191e-05,265.18,-6.1102e-06,-0.067518,-1.6795e-05,-80.35,2.1408
4329,22.725,2.1818,0.1,3.1193e-05,311.72,2.9111e-05,265.02,-6.1698e-06,-0.066644,-1.6594e-05,-78.388,2.1408
4330,22.725,2,0.1,3.1003e-05,309.82,2.9007e-05,264.81,-6.2453e-06,-0.065412,-1.6336e-05,-75.885,2.1407
4331,22.725,1.8182,0.1,3.077e-05,307.48,2.8877e-05,264.52,-6.3371e-06,-0.063702,-1.6019e-05,-72.813,2.1406
4332,22.725,1.6364,0.1,3.049e-05,304.69,2.8719e-05,264.15,-6.4459e-06,-0.061338,-1.564e-05,-69.143,2.1406
4333,22.725,1.4545,0.1,3.0163e-05,301.42,2.8531e-05,263.69,-6.572e-06,-0.058054,-1.5196e-05,-64.855,2.1405
4334,22.725,1.2727,0.1,2.979e-05,297.69,2.8313e-05,263.14,-6.7155e-06,-0.053481,-1.4686e-05,-59.942,2.1404
4335,22.725,1.0909,0.1,2.9374e-05,293.54,2.8067e-05,262.5,-6.8762e-06,-0.046903,-1.4113e-05,-54.422,2.1403
4336,22.725,0.90909,0.1,2.8927e-05,289.07,2.7799e-05,261.83,-7.0531e-06,-0.037834,-1.3484e-05,-48.36,2.1401
4337,22.725,0.72727,0.1,2.8466e-05,284.46,2.7521e-05,261.19,-7.2444e-06,-0.022894,-1.2815e-05,-41.881,2.14
4338,22.725,0.54545,0.1,2.8021e-05,280.01,2.7255e-05,260.74,-7.4481e-06,-0.0073959,-1.2134e-05,-35.214,2.1399
4339,22.725,0.36364,0.1,2.7648e-05,276.29,2.7047e-05,260.81,-7.6579e-06,0.052787,-1.1492e-05,-28.752,2.1397
4340,22.725,0.18182,0.1,2.7663e-05,276.44,2.7163e-05,263.34,-7.8804e-06,0.038531,-1.1158e-05,-24.588,2.1396
4341,22.543,5.8182,0.1,3.1498e-05,314.77,3.1028e-05,302.25,-9.1947e-06,0.030472,-1.2356e-05,-23.721,2.1127
4342,22.543,5.6364,0.1,3.1396e-05,313.74,3.0855e-05,299.51,-9.001e-06,0.047861,-1.2573e-05,-26.792,2.1128
4343,22.543,5.4545,0.1,3.1671e-05,316.49,3.1002e-05,299.2,-8.8197e-06,-0.0039124,-1.3096e-05,-32.131,2.113
4344,22.543,5.2727,0.1,3.2018e-05,319.96,3.1209e-05,299.42,-8.6439e-06,-0.017556,-1.3662e-05,-37.72,2.1131
4345,22.543,5.0909,0.1,3.2389e-05,323.67,3.1436e-05,299.88,-8.4787e-06,-0.031035,-1.4226e-05,-43.217,2.1132
4346,22.543,4.9091,0.1,3.2757e-05,327.34,3.1663e-05,300.42,-8.3257e-06,-0.039418,-1.4765e-05,-48.42,2.1133
4347,22.543,4.7273,0.1,3.3104e-05,330.81,3.1876e-05,300.97,-8.1865e-06,-0.045572,-1.5261e-05,-53.202,2.1135
4348,22.543,4.5455,0.1,3.342e-05,333.97,3.2068e-05,301.47,-8.0619e-06,-0.049884,-1.5707e-05,-57.491,2.1136
4349,22.543,4.3636,0.1,3.3699e-05,336.76,3.2236e-05,301.91,-7.9523e-06,-0.052986,-1.6098e-05,-61.255,2.1136
4350,22.543,4.1818,0.1,3.394e-05,339.16,3.2379e-05,302.27,-7.8577e-06,-0.055212,-1.6433e-05,-64.489,2.1137
4351,22.543,4,0.1,3.4142e-05,341.18,3.2498e-05,302.56,-7.7778e-06,-0.056816,-1.6714e-05,-67.203,2.1138
4352,22.543,3.8182,0.1,3.4306e-05,342.82,3.2593e-05,302.78,-7.7121e-06,-0.057959,-1.6943e-05,-69.416,2.1138
4353,22.543,3.6364,0.1,3.4434e-05,344.1,3.2667e-05,302.94,-7.6603e-06,-0.058766,-1.7122e-05,-71.151,2.1139
4354,22.543,3.4545,0.1,3.4528e-05,345.04,3.272e-05,303.06,-7.6219e-06,-0.05931,-1.7254e-05,-72.431,2.1139
4355,22.543,3.2727,0.1,3.459e-05,345.66,3.2755e-05,303.13,-7.5965e-06,-0.059646,-1.734e-05,-73.272,2.114
4356,22.543,3.0909,0.1,3.462e-05,345.97,3.2773e-05,303.16,-7.5838e-06,-0.059805,-1.7383e-05,-73.69,2.114
4357,22.543,2.9091,0.1,3.462e-05,345.97,3.2773e-05,303.16,-7.5838e-06,-0.059806,-1.7383e-05,-73.69,2.114
4358,22.543,2.7273,0.1,3.459e-05,345.66,3.2755e-05,303.13,-7.5965e-06,-0.059645,-1.734e-05,-73.272,2.114
4359,22.543,2.5455,0.1,3.4528e-05,345.04,3.272e-05,303.06,-7.6219e-06,-0.059309,-1.7254e-05,-72.431,2.1139
4360,22.543,2.3636,0.1,3.4434e-05,344.1,3.2667e-05,302.94,-7.6603e-06,-0.058766,-1.7122e-05,-71.151,2.1139
4361,22.543,2.1818,0.1,3.4306e-05,342.82,3.2593e-05,302.78,-7.7121e-06,-0.057958,-1.6943e-05,-69.416,2.1138
4362,22.543,2,0.1,3.4142e-05,341.18,3.2498e-05,302.56,-7.7778e-06,-0.056816,-1.6714e-05,-67.203,2.1138
4363,22.543,1.8182,0.1,3.394e-05,339.16,3.2379e-05,302.27,-7.8577e-06,-0.055211,-1.6433e-05,-64.489,2.1137
4364,22.543,1.6364,0.1,3.3699e-05,336.76,3.2236e-05,301.91,-7.9523e-06,-0.052986,-1.6098e-05,-61.255,2.1136
4365,22.543,1.4545,0.1,3.342e-05,333.97,3.2068e-05,301.47,-8.0619e-06,-0.049884,-1.5707e-05,-57.491,2.1136
4366,22.543,1.2727,0.1,3.3104e-05,330.81,3.1876e-05,300.97,-8.1865e-06,-0.045574,-1.5261e-05,-53.202,2.1135
4367,22.543,1.0909,0.1,3.2757e-05,327.34,3.1663e-05,300.42,-8.3257e-06,-0.03942,-1.4765e-05,-48.42,2.1133
4368,22.543,0.90909,0.1,3.2389e-05,323.67,3.1436e-05,299.88,-8.4787e-06,-0.031035,-1.4226e-05,-43.217,2.1132
4369,22.543,0.72727,0.1,3.2018e-05,319.96,3.1209e-05,299.42,-8.6439e-06,-0.017558,-1.3662e-05,-37.72,2.1131
4370,22.543,0.54545,0.1,3.1671e-05,316.49,3.1002e-05,299.2,-8.8197e-06,-0.0039109,-1.3096e-05,-32.131,2.113
4371,22.543,0.36364,0.1,3.1396e-05,313.74,3.0855e-05,299.51,-9.001e-06,0.047861,-1.2573e-05,-26.792,2.1128
4372,22.543,0.18182,0.1,3.1498e-05,314.77,3.1028e-05,302.25,-9.1947e-06,0.030471,-1.2356e-05,-23.721,2.1127
4373,22.36,5.8182,0.1,3.5347e-05,353.22,3.4904e-05,341.29,-1.0515e-05,0.024164,-1.3551e-05,-22.789,2.0858
4374,22.36,5.6364,0.1,3.5173e-05,351.49,3.4683e-05,338.39,-1.0347e-05,0.042817,-1.3669e-05,-24.913,2.0859
4375,22.36,5.4545,0.1,3.5365e-05,353.41,3.4777e-05,337.87,-1.0192e-05,-0.0018019,-1.4085e-05,-29.255,2.0861
4376,22.36,5.2727,0.1,3.5628e-05,356.03,3.4931e-05,337.89,-1.0041e-05,-0.013862,-1.4546e-05,-33.861,2.0862
4377,22.36,5.0909,0.1,3.5918e-05,358.93,3.5109e-05,338.15,-9.9001e-06,-0.02602,-1.5012e-05,-38.437,2.0863
4378,22.36,4.9091,0.1,3.6212e-05,361.87,3.5293e-05,338.55,-9.7697e-06,-0.033763,-1.5462e-05,-42.806,2.0865
4379,22.36,4.7273,0.1,3.6495e-05,364.7,3.5471e-05,338.99,-9.6512e-06,-0.039508,-1.5881e-05,-46.851,2.0866
4380,22.36,4.5455,0.1,3.6755e-05,367.3,3.5634e-05,339.42,-9.5453e-06,-0.043567,-1.626e-05,-50.499,2.0867
4381,22.36,4.3636,0.1,3.6988e-05,369.62,3.578e-05,339.81,-9.4524e-06,-0.046496,-1.6595e-05,-53.712,2.0868
4382,22.36,4.1818,0.1,3.7189e-05,371.63,3.5904e-05,340.14,-9.3722e-06,-0.048595,-1.6883e-05,-56.478,2.0868
4383,22.36,4,0.1,3.7358e-05,373.32,3.6008e-05,340.41,-9.3047e-06,-0.050097,-1.7124e-05,-58.802,2.0869
4384,22.36,3.8182,0.1,3.7496e-05,374.7,3.6092e-05,340.63,-9.2493e-06,-0.051163,-1.7321e-05,-60.696,2.087
4385,22.36,3.6364,0.1,3.7604e-05,375.78,3.6158e-05,340.79,-9.2057e-06,-0.051905,-1.7474e-05,-62.18,2.087
4386,22.36,3.4545,0.1,3.7683e-05,376.57,3.6205e-05,340.91,-9.1734e-06,-0.052402,-1.7588e-05,-63.273,2.0871
4387,22.36,3.2727,0.1,3.7735e-05,377.09,3.6236e-05,340.98,-9.1521e-06,-0.052705,-1.7662e-05,-63.992,2.0871
4388,22.36,3.0909,0.1,3.776e-05,377.34,3.6252e-05,341.01,-9.1415e-06,-0.052852,-1.7699e-05,-64.348,2.0871
4389,22.36,2.9091,0.1,3.776e-05,377.34,3.6252e-05,341.01,-9.1415e-06,-0.052851,-1.7699e-05,-64.348,2.0871
4390,22.36,2.7273,0.1,3.7735e-05,377.09,3.6236e-05,340.98,-9.1521e-06,-0.052707,-1.7662e-05,-63.992,2.0871
4391,22.36,2.5455,0.1,3.7683e-05,376.57,3.6205e-05,340.91,-9.1734e-06,-0.052402,-1.7588e-05,-63.273,2.0871
4392,22.36,2.3636,0.1,3.7604e-05,375.78,3.6158e-05,340.79,-9.2057e-06,-0.051905,-1.7474e-05,-62.18,2.087
4393,22.36,2.1818,0.1,3.7496e-05,374.7,3.6092e-05,340.63,-9.2493e-06,-0.051163,-1.7321e-05,-60.696,2.087
4394,22.36,2,0.1,3.7358e-05,373.32,3.6008e-05,340.41,-9.3047e-06,-0.050097,-1.7124e-05,-58.802,2.0869
4395,22.36,1.8182,0.1,3.7189e-05,371.63,3.5904e-05,340.14,-9.3722e-06,-0.048596,-1.6883e-05,-56.478,2.0868
4396,22.36,1.6364,0.1,3.6988e-05,369.62,3.578e-05,339.81,-9.4524e-06,-0.046496,-1.6595e-05,-53.712,2.0868
4397,22.36,1.4545,0.1,3.6755e-05,367.3,3.5634e-05,339.42,-9.5453e-06,-0.043569,-1.626e-05,-50.499,2.0867
4398,22.36,1.2727,0.1,3.6495e-05,364.7,3.5471e-05,338.99,-9.6512e-06,-0.039506,-1.5881e-05,-46.851,2.0866
4399,22.36,1.0909,0.1,3.6212e-05,361.87,3.5293e-05,338.55,-9.7697e-06,-0.033765,-1.5462e-05,-42.806,2.0865
4400,22.36,0.90909,0.1,3.5918e-05,358.93,3.5109e-05,338.15,-9.9001e-06,-0.026021,-1.5012e-05,-38.437,2.0863
4401,22.36,0.72727,0.1,3.5628e-05,356.03,3.4931e-05,337.89,-1.0041e-05,-0.013862,-1.4546e-05,-33.861,2.0862
4402,22.36,0.54545,0.1,3.5365e-05,353.41,3.4777e-05,337.87,-1.0192e-05,-0.0017993,-1.4085e-05,-29.255,2.0861
4403,22.36,0.36364,0.1,3.5173e-05,351.49,3.4683e-05,338.39,-1.0347e-05,0.042821,-1.3669e-05,-24.913,2.0859
4404,22.36,0.18182,0.1,3.5347e-05,353.22,3.4904e-05,341.29,-1.0515e-05,0.024162,-1.3551e-05,-22.789,2.0858
4405,22.178,5.8182,0.1,3.9206e-05,391.79,3.879e-05,380.44,-1.1841e-05,0.019103,-1.4746e-05,-21.805,2.0589
4406,22.178,5.6364,0.1,3.8972e-05,389.46,3.8529e-05,377.41,-1.1697e-05,0.037738,-1.4775e-05,-23.091,2.059
4407,22.178,5.4545,0.1,3.9094e-05,390.67,3.8575e-05,376.72,-1.1564e-05,-0.00070127,-1.5096e-05,-26.533,2.0592
4408,22.178,5.2727,0.1,3.9282e-05,392.54,3.868e-05,376.55,-1.1437e-05,-0.011411,-1.546e-05,-30.237,2.0593
4409,22.178,5.0909,0.1,3.9499e-05,394.72,3.8811e-05,376.64,-1.1319e-05,-0.022379,-1.5834e-05,-33.947,2.0595
4410,22.178,4.9091,0.1,3.9726e-05,396.98,3.8954e-05,376.88,-1.121e-05,-0.029523,-1.6198e-05,-37.511,2.0596
4411,22.178,4.7273,0.1,3.9948e-05,399.2,3.9096e-05,377.21,-1.1112e-05,-0.034876,-1.6541e-05,-40.825,2.0597
4412,22.178,4.5455,0.1,4.0155e-05,401.27,3.9229e-05,377.55,-1.1024e-05,-0.03869,-1.6852e-05,-43.823,2.0598
4413,22.178,4.3636,0.1,4.0341e-05,403.13,3.9349e-05,377.87,-1.0948e-05,-0.041444,-1.7127e-05,-46.466,2.0599
4414,22.178,4.1818,0.1,4.0503e-05,404.76,3.9453e-05,378.16,-1.0883e-05,-0.043414,-1.7364e-05,-48.74,2.06
4415,22.178,4,0.1,4.064e-05,406.12,3.954e-05,378.4,-1.0828e-05,-0.044817,-1.7563e-05,-50.646,2.0601
4416,22.178,3.8182,0.1,4.0751e-05,407.23,3.9611e-05,378.6,-1.0783e-05,-0.045803,-1.7724e-05,-52.196,2.0601
4417,22.178,3.6364,0.1,4.0838e-05,408.1,3.9666e-05,378.75,-1.0748e-05,-0.046484,-1.785e-05,-53.407,2.0602
4418,22.178,3.4545,0.1,4.0902e-05,408.74,3.9707e-05,378.86,-1.0723e-05,-0.046935,-1.7943e-05,-54.295,2.0602
4419,22.178,3.2727,0.1,4.0944e-05,409.15,3.9733e-05,378.93,-1.0706e-05,-0.047208,-1.8003e-05,-54.878,2.0602
4420,22.178,3.0909,0.1,4.0964e-05,409.36,3.9746e-05,378.96,-1.0697e-05,-0.047337,-1.8033e-05,-55.166,2.0602
4421,22.178,2.9091,0.1,4.0964e-05,409.36,3.9746e-05,378.96,-1.0697e-05,-0.047337,-1.8033e-05,-55.166,2.0602
4422,22.178,2.7273,0.1,4.0944e-05,409.15,3.9733e-05,378.93,-1.0706e-05,-0.047208,-1.8003e-05,-54.878,2.0602
4423,22.178,2.5455,0.1,4.0902e-05,408.74,3.9707e-05,378.86,-1.0723e-05,-0.046935,-1.7943e-05,-54.295,2.0602
4424,22.178,2.3636,0.1,4.0838e-05,408.1,3.9666e-05,378.75,-1.0748e-05,-0.046485,-1.785e-05,-53.407,2.0602
4425,22.178,2.1818,0.1,4.0751e-05,407.23,3.9611e-05,378.6,-1.0783e-05,-0.045803,-1.7724e-05,-52.196,2.0601
4426,22.178,2,0.1,4.064e-05,406.12,3.954e-05,378.4,-1.0828e-05,-0.044818,-1.7563e-05,-50.646,2.0601
4427,22.178,1.8182,0.1,4.0503e-05,404.76,3.9453e-05,378.16,-1.0883e-05,-0.043412,-1.7364e-05,-48.74,2.06
4428,22.178,1.6364,0.1,4.0341e-05,403.13,3.9349e-05,377.87,-1.0948e-05,-0.041444,-1.7127e-05,-46.466,2.0599
4429,22.178,1.4545,0.1,4.0155e-05,401.27,3.9229e-05,377.55,-1.1024e-05,-0.03869,-1.6852e-05,-43.823,2.0598
4430,22.178,1.2727,0.1,3.9948e-05,399.2,3.9096e-05,377.21,-1.1112e-05,-0.034876,-1.6541e-05,-40.825,2.0597
4431,22.178,1.0909,0.1,3.9726e-05,396.98,3.8954e-05,376.88,-1.121e-05,-0.029525,-1.6198e-05,-37.511,2.0596
4432,22.178,0.90909,0.1,3.9499e-05,394.72,3.8811e-05,376.64,-1.1319e-05,-0.02238,-1.5834e-05,-33.947,2.0595
4433,22.178,0.72727,0.1,3.9282e-05,392.54,3.868e-05,376.55,-1.1437e-05,-0.01141,-1.546e-05,-30.237,2.0593
4434,22.178,0.54545,0.1,3.9094e-05,390.67,3.8575e-05,376.72,-1.1564e-05,-0.00070228,-1.5096e-05,-26.533,2.0592
4435,22.178,0.36364,0.1,3.8972e-05,389.46,3.8529e-05,377.41,-1.1697e-05,0.03774,-1.4775e-05,-23.091,2.059
4436,22.178,0.18182,0.1,3.9206e-05,391.79,3.879e-05,380.44,-1.1841e-05,0.019101,-1.4746e-05,-21.805,2.0589
4437,21.996,5.8182,0.1,4.3075e-05,430.45,4.2684e-05,419.69,-1.3172e-05,0.015029,-1.5939e-05,-20.78,2.032
4438,21.996,5.6364,0.1,4.2791e-05,427.61,4.2389e-05,416.57,-1.3049e-05,0.032755,-1.589e-05,-21.315,2.0322
4439,21.996,5.4545,0.1,4.2849e-05,428.2,4.2392e-05,415.73,-1.2938e-05,-0.00027076,-1.6123e-05,-23.932,2.0323
4440,21.996,5.2727,0.1,4.2971e-05,429.41,4.2452e-05,415.38,-1.2833e-05,-0.0098177,-1.6399e-05,-26.8,2.0325
4441,21.996,5.0909,0.1,4.3123e-05,430.93,4.2541e-05,415.31,-1.2736e-05,-0.019714,-1.6685e-05,-29.691,2.0326
4442,21.996,4.9091,0.1,4.3287e-05,432.58,4.2643e-05,415.41,-1.2648e-05,-0.026303,-1.6967e-05,-32.478,2.0327
4443,21.996,4.7273,0.1,4.3452e-05,434.22,4.2749e-05,415.61,-1.257e-05,-0.031278,-1.7233e-05,-35.072,2.0329
4444,21.996,4.5455,0.1,4.3609e-05,435.79,4.2851e-05,415.86,-1.2501e-05,-0.034846,-1.7476e-05,-37.414,2.033
4445,21.996,4.3636,0.1,4.375e-05,437.2,4.2944e-05,416.11,-1.2441e-05,-0.037425,-1.769e-05,-39.472,2.0331
4446,21.996,4.1818,0.1,4.3874e-05,438.43,4.3026e-05,416.34,-1.2391e-05,-0.039264,-1.7874e-05,-41.233,2.0332
4447,21.996,4,0.1,4.3978e-05,439.47,4.3095e-05,416.55,-1.235e-05,-0.040563,-1.8027e-05,-42.698,2.0332
4448,21.996,3.8182,0.1,4.4062e-05,440.32,4.3151e-05,416.72,-1.2316e-05,-0.041468,-1.8151e-05,-43.88,2.0333
4449,21.996,3.6364,0.1,4.4128e-05,440.98,4.3195e-05,416.85,-1.2291e-05,-0.042081,-1.8247e-05,-44.795,2.0333
4450,21.996,3.4545,0.1,4.4176e-05,441.46,4.3226e-05,416.95,-1.2272e-05,-0.042485,-1.8317e-05,-45.462,2.0334
4451,21.996,3.2727,0.1,4.4207e-05,441.77,4.3247e-05,417.01,-1.2259e-05,-0.042726,-1.8362e-05,-45.896,2.0334
4452,21.996,3.0909,0.1,4.4223e-05,441.92,4.3257e-05,417.04,-1.2253e-05,-0.042839,-1.8385e-05,-46.11,2.0334
4453,21.996,2.9091,0.1,4.4223e-05,441.92,4.3257e-05,417.04,-1.2253e-05,-0.042838,-1.8385e-05,-46.11,2.0334
4454,21.996,2.7273,0.1,4.4207e-05,441.77,4.3247e-05,417.01,-1.2259e-05,-0.042727,-1.8362e-05,-45.896,2.0334
4455,21.996,2.5455,0.1,4.4176e-05,441.46,4.3226e-05,416.95,-1.2272e-05,-0.042484,-1.8317e-05,-45.462,2.0334
4456,21.996,2.3636,0.1,4.4128e-05,440.98,4.3195e-05,416.85,-1.2291e-05,-0.042082,-1.8247e-05,-44.795,2.0333
4457,21.996,2.1818,0.1,4.4062e-05,440.32,4.3151e-05,416.72,-1.2316e-05,-0.041468,-1.8151e-05,-43.88,2.0333
4458,21.996,2,0.1,4.3978e-05,439.47,4.3095e-05,416.55,-1.235e-05,-0.040563,-1.8027e-05,-42.698,2.0332
4459,21.996,1.8182,0.1,4.3874e-05,438.43,4.3026e-05,416.34,-1.2391e-05,-0.039265,-1.7874e-05,-41.233,2.0332
4460,21.996,1.6364,0.1,4.375e-05,437.2,4.2944e-05,416.11,-1.2441e-05,-0.037426,-1.769e-05,-39.472,2.0331
4461,21.996,1.4545,0.1,4.3609e-05,435.79,4.2851e-05,415.86,-1.2501e-05,-0.034846,-1.7476e-05,-37.414,2.033
4462,21.996,1.2727,0.1,4.3452e-05,434.22,4.2749e-05,415.61,-1.257e-05,-0.031278,-1.7233e-05,-35.072,2.0329
4463,21.996,1.0909,0.1,4.3287e-05,432.58,4.2643e-05,415.41,-1.2648e-05,-0.026303,-1.6967e-05,-32.478,2.0327
4464,21.996,0.90909,0.1,4.3123e-05,430.93,4.2541e-05,415.31,-1.2736e-05,-0.019717,-1.6685e-05,-29.691,2.0326
4465,21.996,0.72727,0.1,4.2971e-05,429.41,4.2452e-05,415.38,-1.2833e-05,-0.0098172,-1.6399e-05,-26.8,2.0325
4466,21.996,0.54545,0.1,4.2849e-05,428.2,4.2392e-05,415.73,-1.2938e-05,-0.00027137,-1.6123e-05,-23.932,2.0323
4467,21.996,0.36364,0.1,4.2791e-05,427.61,4.2389e-05,416.57,-1.3049e-05,0.032756,-1.589e-05,-21.315,2.0322
4468,21.996,0.18182,0.1,4.3075e-05,430.45,4.2684e-05,419.69,-1.3172e-05,0.015032,-1.5939e-05,-20.78,2.032
4469,21.814,5.8182,0.1,4.6953e-05,469.2,4.6586e-05,459.03,-1.4506e-05,0.011726,-1.7133e-05,-19.726,2.0052
4470,21.814,5.6364,0.1,4.6625e-05,465.92,4.6261e-05,455.84,-1.4404e-05,0.027902,-1.7013e-05,-19.578,2.0053
4471,21.814,5.4545,0.1,4.6627e-05,465.95,4.6225e-05,454.86,-1.4313e-05,-0.00032967,-1.7166e-05,-21.433,2.0055
4472,21.814,5.2727,0.1,4.6689e-05,466.57,4.6245e-05,454.37,-1.4229e-05,-0.0088732,-1.7357e-05,-23.516,2.0057
4473,21.814,5.0909,0.1,4.6782e-05,467.5,4.6293e-05,454.15,-1.4153e-05,-0.017801,-1.7561e-05,-25.628,2.0058
4474,21.814,4.9091,0.1,4.6889e-05,468.57,4.6357e-05,454.12,-1.4085e-05,-0.023872,-1.7763e-05,-27.661,2.0059
4475,21.814,4.7273,0.1,4.7001e-05,469.69,4.6428e-05,454.2,-1.4026e-05,-0.02849,-1.7955e-05,-29.544,2.0061
4476,21.814,4.5455,0.1,4.7108e-05,470.76,4.6499e-05,454.35,-1.3976e-05,-0.031817,-1.8128e-05,-31.228,2.0062
4477,21.814,4.3636,0.1,4.7207e-05,471.74,4.6565e-05,454.53,-1.3934e-05,-0.034215,-1.828e-05,-32.688,2.0063
4478,21.814,4.1818,0.1,4.7292e-05,472.6,4.6624e-05,454.71,-1.3899e-05,-0.035916,-1.8409e-05,-33.916,2.0063
4479,21.814,4,0.1,4.7364e-05,473.32,4.6673e-05,454.87,-1.3872e-05,-0.037105,-1.8514e-05,-34.918,2.0064
4480,21.814,3.8182,0.1,4.7422e-05,473.89,4.6713e-05,455.01,-1.385e-05,-0.03792,-1.8598e-05,-35.709,2.0065
4481,21.814,3.6364,0.1,4.7466e-05,474.34,4.6744e-05,455.12,-1.3834e-05,-0.038463,-1.8661e-05,-36.308,2.0065
4482,21.814,3.4545,0.1,4.7498e-05,474.66,4.6766e-05,455.2,-1.3823e-05,-0.038811,-1.8707e-05,-36.736,2.0066
4483,21.814,3.2727,0.1,4.7519e-05,474.86,4.6781e-05,455.26,-1.3816e-05,-0.039017,-1.8736e-05,-37.01,2.0066
4484,21.814,3.0909,0.1,4.7529e-05,474.96,4.6788e-05,455.28,-1.3812e-05,-0.039112,-1.875e-05,-37.143,2.0066
4485,21.814,2.9091,0.1,4.7529e-05,474.96,4.6788e-05,455.28,-1.3812e-05,-0.039113,-1.875e-05,-37.143,2.0066
4486,21.814,2.7273,0.1,4.7519e-05,474.86,4.6781e-05,455.26,-1.3816e-05,-0.039016,-1.8736e-05,-37.01,2.0066
4487,21.814,2.5455,0.1,4.7498e-05,474.66,4.6766e-05,455.2,-1.3823e-05,-0.038812,-1.8707e-05,-36.736,2.0066
4488,21.814,2.3636,0.1,4.7466e-05,474.34,4.6744e-05,455.12,-1.3834e-05,-0.03846,-1.8661e-05,-36.308,2.0065
4489,21.814,2.1818,0.1,4.7422e-05,473.89,4.6713e-05,455.01,-1.385e-05,-0.037919,-1.8598e-05,-35.709,2.0065
4490,21.814,2,0.1,4.7364e-05,473.32,4.6673e-05,454.87,-1.3872e-05,-0.037104,-1.8514e-05,-34.918,2.0064
4491,21.814,1.8182,0.1,4.7292e-05,472.6,4.6624e-05,454.71,-1.3899e-05,-0.035917,-1.8409e-05,-33.916,2.0063
4492,21.814,1.6364,0.1,4.7207e-05,471.74,4.6565e-05,454.53,-1.3934e-05,-0.034216,-1.828e-05,-32.688,2.0063
4493,21.814,1.4545,0.1,4.7108e-05,470.76,4.6499e-05,454.35,-1.3976e-05,-0.031816,-1.8128e-05,-31.228,2.0062
4494,21.814,1.2727,0.1,4.7001e-05,469.69,4.6428e-05,454.2,-1.4026e-05,-0.02849,-1.7955e-05,-29.544,2.0061
4495,21.814,1.0909,0.1,4.6889e-05,468.57,4.6357e-05,454.12,-1.4085e-05,-0.023874,-1.7763e-05,-27.661,2.0059
4496,21.814,0.90909,0.1,4.6782e-05,467.5,4.6293e-05,454.15,-1.4153e-05,-0.017804,-1.7561e-05,-25.628,2.0058
4497,21.814,0.72727,0.1,4.6689e-05,466.57,4.6245e-05,454.37,-1.4229e-05,-0.0088728,-1.7357e-05,-23.516,2.0057
4498,21.814,0.54545,0.1,4.6627e-05,465.95,4.6225e-05,454.86,-1.4313e-05,-0.0003283,-1.7166e-05,-21.433,2.0055
4499,21.814,0.36364,0.1,4.6625e-05,465.92,4.6261e-05,455.84,-1.4404e-05,0.027904,-1.7013e-05,-19.578,2.0053
4500,21.814,0.18182,0.1,4.6953e-05,469.2,4.6586e-05,459.03,-1.4506e-05,0.011725,-1.7133e-05,-19.726,2.0052
4501,21.632,5.8182,0.1,5.0837e-05,508.02,5.0494e-05,498.44,-1.5843e-05,0.0090441,-1.8327e-05,-18.653,1.9783
4502,21.632,5.6364,0.1,5.0471e-05,504.36,5.0144e-05,495.2,-1.576e-05,0.023196,-1.8143e-05,-17.88,1.9785
4503,21.632,5.4545,0.1,5.0424e-05,503.89,5.0073e-05,494.11,-1.5689e-05,-0.00075831,-1.822e-05,-19.022,1.9787
4504,21.632,5.2727,0.1,5.0433e-05,503.98,5.0055e-05,493.48,-1.5625e-05,-0.0084281,-1.8334e-05,-20.364,1.9789
4505,21.632,5.0909,0.1,5.0471e-05,504.36,5.0066e-05,493.14,-1.5569e-05,-0.016473,-1.8458e-05,-21.727,1.979
4506,21.632,4.9091,0.1,5.0526e-05,504.91,5.0094e-05,492.99,-1.5522e-05,-0.022069,-1.8583e-05,-23.026,1.9791
4507,21.632,4.7273,0.1,5.0587e-05,505.52,5.0132e-05,492.97,-1.5483e-05,-0.026348,-1.8701e-05,-24.204,1.9793
4508,21.632,4.5455,0.1,5.0649e-05,506.14,5.0172e-05,493.04,-1.5451e-05,-0.029438,-1.8805e-05,-25.224,1.9794
4509,21.632,4.3636,0.1,5.0705e-05,506.7,5.0211e-05,493.15,-1.5427e-05,-0.031657,-1.8893e-05,-26.072,1.9795
4510,21.632,4.1818,0.1,5.0754e-05,507.19,5.0246e-05,493.27,-1.5409e-05,-0.033208,-1.8965e-05,-26.748,1.9796
4511,21.632,4,0.1,5.0794e-05,507.59,5.0275e-05,493.39,-1.5396e-05,-0.034275,-1.902e-05,-27.265,1.9796
4512,21.632,3.8182,0.1,5.0826e-05,507.9,5.0298e-05,493.5,-1.5388e-05,-0.034991,-1.9062e-05,-27.642,1.9797
4513,21.632,3.6364,0.1,5.0849e-05,508.14,5.0316e-05,493.59,-1.5382e-05,-0.035455,-1.9091e-05,-27.904,1.9798
4514,21.632,3.4545,0.1,5.0865e-05,508.3,5.0328e-05,493.66,-1.5379e-05,-0.035743,-1.911e-05,-28.075,1.9798
4515,21.632,3.2727,0.1,5.0875e-05,508.4,5.0336e-05,493.71,-1.5377e-05,-0.035911,-1.9122e-05,-28.176,1.9798
4516,21.632,3.0909,0.1,5.0879e-05,508.44,5.034e-05,493.73,-1.5376e-05,-0.035985,-1.9127e-05,-28.223,1.9798
4517,21.632,2.9091,0.1,5.0879e-05,508.44,5.034e-05,493.73,-1.5376e-05,-0.035985,-1.9127e-05,-28.223,1.9798
4518,21.632,2.7273,0.1,5.0875e-05,508.4,5.0336e-05,493.71,-1.5377e-05,-0.03591,-1.9122e-05,-28.176,1.9798
4519,21.632,2.5455,0.1,5.0865e-05,508.3,5.0328e-05,493.66,-1.5379e-05,-0.035744,-1.911e-05,-28.075,1.9798
4520,21.632,2.3636,0.1,5.0849e-05,508.14,5.0316e-05,493.59,-1.5382e-05,-0.035455,-1.9091e-05,-27.904,1.9798
4521,21.632,2.1818,0.1,5.0826e-05,507.9,5.0298e-05,493.5,-1.5388e-05,-0.034991,-1.9062e-05,-27.642,1.9797
4522,21.632,2,0.1,5.0794e-05,507.59,5.0275e-05,493.39,-1.5396e-05,-0.034276,-1.902e-05,-27.265,1.9796
4523,21.632,1.8182,0.1,5.0754e-05,507.19,5.0246e-05,493.27,-1.5409e-05,-0.033208,-1.8965e-05,-26.748,1.9796
4524,21.632,1.6364,0.1,5.0705e-05,506.7,5.0211e-05,493.15,-1.5427e-05,-0.031655,-1.8893e-05,-26.072,1.9795
4525,21.632,1.4545,0.1,5.0649e-05,506.14,5.0172e-05,493.04,-1.5451e-05,-0.02944,-1.8805e-05,-25.224,1.9794
4526,21.632,1.2727,0.1,5.0587e-05,505.52,5.0132e-05,492.97,-1.5483e-05,-0.026348,-1.8701e-05,-24.204,1.9793
4527,21.632,1.0909,0.1,5.0526e-05,504.91,5.0094e-05,492.99,-1.5522e-05,-0.022072,-1.8583e-05,-23.026,1.9791
4528,21.632,0.90909,0.1,5.0471e-05,504.36,5.0066e-05,493.14,-1.5569e-05,-0.016474,-1.8458e-05,-21.727,1.979
4529,21.632,0.72727,0.1,5.0433e-05,503.98,5.0055e-05,493.48,-1.5625e-05,-0.0084279,-1.8334e-05,-20.364,1.9789
4530,21.632,0.54545,0.1,5.0424e-05,503.89,5.0073e-05,494.11,-1.5689e-05,-0.00075825,-1.822e-05,-19.022,1.9787
4531,21.632,0.36364,0.1,5.0471e-05,504.36,5.0144e-05,495.2,-1.576e-05,0.023199,-1.8143e-05,-17.88,1.9785
4532,21.632,0.18182,0.1,5.0837e-05,508.02,5.0494e-05,498.44,-1.5843e-05,0.0090457,-1.8327e-05,-18.653,1.9783
4533,21.45,5.8182,0.1,5.4726e-05,546.89,5.4406e-05,537.89,-1.7182e-05,0.006874,-1.9521e-05,-17.571,1.9516
4534,21.45,5.6364,0.1,5.4328e-05,542.91,5.4034e-05,534.62,-1.7117e-05,0.018647,-1.9279e-05,-16.223,1.9518
4535,21.45,5.4545,0.1,5.4235e-05,541.98,5.3932e-05,533.44,-1.7065e-05,-0.0014945,-1.9286e-05,-16.693,1.9519
4536,21.45,5.2727,0.1,5.4196e-05,541.59,5.388e-05,532.71,-1.702e-05,-0.0083928,-1.9325e-05,-17.328,1.9521
4537,21.45,5.0909,0.1,5.4185e-05,541.48,5.3857e-05,532.26,-1.6985e-05,-0.015632,-1.9374e-05,-17.968,1.9523
4538,21.45,4.9091,0.1,5.4191e-05,541.54,5.3852e-05,532.02,-1.6958e-05,-0.020787,-1.9424e-05,-18.546,1.9524
4539,21.45,4.7273,0.1,5.4207e-05,541.69,5.3858e-05,531.92,-1.694e-05,-0.024746,-1.9468e-05,-19.021,1.9525
4540,21.45,4.5455,0.1,5.4225e-05,541.87,5.3869e-05,531.91,-1.6928e-05,-0.027604,-1.9503e-05,-19.37,1.9526
4541,21.45,4.3636,0.1,5.4241e-05,542.04,5.3881e-05,531.97,-1.6923e-05,-0.029637,-1.9526e-05,-19.59,1.9527
4542,21.45,4.1818,0.1,5.4255e-05,542.17,5.3893e-05,532.05,-1.6922e-05,-0.031036,-1.9539e-05,-19.692,1.9528
4543,21.45,4,0.1,5.4264e-05,542.27,5.3902e-05,532.14,-1.6925e-05,-0.031969,-1.9543e-05,-19.698,1.9529
4544,21.45,3.8182,0.1,5.427e-05,542.32,5.3908e-05,532.22,-1.693e-05,-0.032573,-1.9539e-05,-19.637,1.953
4545,21.45,3.6364,0.1,5.4272e-05,542.34,5.3912e-05,532.29,-1.6936e-05,-0.032947,-1.9532e-05,-19.54,1.953
4546,21.45,3.4545,0.1,5.4272e-05,542.35,5.3915e-05,532.35,-1.6941e-05,-0.033171,-1.9524e-05,-19.436,1.9531
4547,21.45,3.2727,0.1,5.4271e-05,542.34,5.3916e-05,532.39,-1.6945e-05,-0.033291,-1.9516e-05,-19.351,1.9531
4548,21.45,3.0909,0.1,5.4271e-05,542.33,5.3916e-05,532.41,-1.6947e-05,-0.033346,-1.9512e-05,-19.304,1.9531
4549,21.45,2.9091,0.1,5.4271e-05,542.33,5.3916e-05,532.41,-1.6947e-05,-0.033345,-1.9512e-05,-19.304,1.9531
4550,21.45,2.7273,0.1,5.4271e-05,542.34,5.3916e-05,532.39,-1.6945e-05,-0.033292,-1.9516e-05,-19.351,1.9531
4551,21.45,2.5455,0.1,5.4272e-05,542.35,5.3915e-05,532.35,-1.6941e-05,-0.03317,-1.9524e-05,-19.436,1.9531
4552,21.45,2.3636,0.1,5.4272e-05,542.34,5.3912e-05,532.29,-1.6936e-05,-0.032947,-1.9532e-05,-19.54,1.953
4553,21.45,2.1818,0.1,5.427e-05,542.32,5.3908e-05,532.22,-1.693e-05,-0.032572,-1.9539e-05,-19.637,1.953
4554,21.45,2,0.1,5.4264e-05,542.27,5.3902e-05,532.14,-1.6925e-05,-0.031971,-1.9543e-05,-19.698,1.9529
4555,21.45,1.8182,0.1,5.4255e-05,542.17,5.3893e-05,532.05,-1.6922e-05,-0.031035,-1.9539e-05,-19.692,1.9528
4556,21.45,1.6364,0.1,5.4241e-05,542.04,5.3881e-05,531.97,-1.6923e-05,-0.029637,-1.9526e-05,-19.589,1.9527
4557,21.45,1.4545,0.1,5.4225e-05,541.87,5.3869e-05,531.91,-1.6928e-05,-0.027606,-1.9503e-05,-19.369,1.9526
4558,21.45,1.2727,0.1,5.4207e-05,541.69,5.3858e-05,531.92,-1.694e-05,-0.024747,-1.9468e-05,-19.021,1.9525
4559,21.45,1.0909,0.1,5.4191e-05,541.54,5.3852e-05,532.02,-1.6958e-05,-0.020786,-1.9424e-05,-18.546,1.9524
4560,21.45,0.90909,0.1,5.4185e-05,541.48,5.3857e-05,532.26,-1.6985e-05,-0.015633,-1.9374e-05,-17.968,1.9523
4561,21.45,0.72727,0.1,5.4196e-05,541.59,5.388e-05,532.71,-1.702e-05,-0.0083932,-1.9325e-05,-17.328,1.9521
4562,21.45,0.54545,0.1,5.4235e-05,541.98,5.3932e-05,533.44,-1.7065e-05,-0.0014947,-1.9286e-05,-16.693,1.9519
4563,21.45,0.36364,0.1,5.4328e-05,542.91,5.4034e-05,534.62,-1.7117e-05,0.01865,-1.9279e-05,-16.223,1.9518
4564,21.45,0.18182,0.1,5.4726e-05,546.89,5.4406e-05,537.89,-1.7182e-05,0.0068761,-1.9521e-05,-17.571,1.9516
4565,21.267,5.8182,0.1,5.8619e-05,585.78,5.8321e-05,577.36,-1.8521e-05,0.0051394,-2.0717e-05,-16.491,1.9248
4566,21.267,5.6364,0.1,5.8193e-05,581.53,5.7931e-05,574.09,-1.8474e-05,0.014247,-2.0421e-05,-14.613,1.925
4567,21.267,5.4545,0.1,5.806e-05,580.2,5.78e-05,572.84,-1.844e-05,-0.0024935,-2.0362e-05,-14.447,1.9252
4568,21.267,5.2727,0.1,5.7977e-05,579.37,5.7718e-05,572.03,-1.8415e-05,-0.0087128,-2.0331e-05,-14.403,1.9254
4569,21.267,5.0909,0.1,5.7921e-05,578.81,5.7664e-05,571.5,-1.8401e-05,-0.015208,-2.0307e-05,-14.338,1.9255
4570,21.267,4.9091,0.1,5.7883e-05,578.43,5.7628e-05,571.19,-1.8395e-05,-0.01995,-2.0283e-05,-14.202,1.9257
4571,21.267,4.7273,0.1,5.7855e-05,578.15,5.7605e-05,571.03,-1.8398e-05,-0.023608,-2.0254e-05,-13.97,1.9258
4572,21.267,4.5455,0.1,5.7833e-05,577.93,5.7588e-05,570.98,-1.8408e-05,-0.026245,-2.0219e-05,-13.634,1.9259
4573,21.267,4.3636,0.1,5.7812e-05,577.72,5.7576e-05,570.99,-1.8422e-05,-0.028092,-2.0176e-05,-13.206,1.926
4574,21.267,4.1818,0.1,5.7792e-05,577.52,5.7565e-05,571.05,-1.8441e-05,-0.029326,-2.0128e-05,-12.71,1.9261
4575,21.267,4,0.1,5.7772e-05,577.32,5.7554e-05,571.12,-1.8461e-05,-0.030113,-2.0078e-05,-12.179,1.9262
4576,21.267,3.8182,0.1,5.7752e-05,577.12,5.7544e-05,571.19,-1.8481e-05,-0.03059,-2.0027e-05,-11.652,1.9263
4577,21.267,3.6364,0.1,5.7734e-05,576.94,5.7535e-05,571.26,-1.8499e-05,-0.030863,-1.9981e-05,-11.17,1.9263
4578,21.267,3.4545,0.1,5.7719e-05,576.79,5.7527e-05,571.31,-1.8514e-05,-0.03101,-1.9943e-05,-10.771,1.9264
4579,21.267,3.2727,0.1,5.7708e-05,576.68,5.7522e-05,571.35,-1.8524e-05,-0.031083,-1.9916e-05,-10.486,1.9264
4580,21.267,3.0909,0.1,5.7702e-05,576.62,5.7519e-05,571.37,-1.853e-05,-0.031115,-1.9902e-05,-10.337,1.9264
4581,21.267,2.9091,0.1,5.7702e-05,576.62,5.7519e-05,571.37,-1.853e-05,-0.031113,-1.9902e-05,-10.337,1.9264
4582,21.267,2.7273,0.1,5.7708e-05,576.68,5.7522e-05,571.35,-1.8524e-05,-0.031084,-1.9916e-05,-10.486,1.9264
4583,21.267,2.5455,0.1,5.7719e-05,576.79,5.7527e-05,571.31,-1.8514e-05,-0.03101,-1.9943e-05,-10.771,1.9264
4584,21.267,2.3636,0.1,5.7734e-05,576.94,5.7535e-05,571.26,-1.8499e-05,-0.030864,-1.9981e-05,-11.17,1.9263
4585,21.267,2.1818,0.1,5.7752e-05,577.12,5.7544e-05,571.19,-1.8481e-05,-0.03059,-2.0027e-05,-11.652,1.9263
4586,21.267,2,0.1,5.7772e-05,577.32,5.7554e-05,571.12,-1.8461e-05,-0.030113,-2.0078e-05,-12.179,1.9262
4587,21.267,1.8182,0.1,5.7792e-05,577.52,5.7565e-05,571.05,-1.8441e-05,-0.029326,-2.0128e-05,-12.71,1.9261
4588,21.267,1.6364,0.1,5.7812e-05,577.72,5.7576e-05,570.99,-1.8422e-05,-0.028092,-2.0176e-05,-13.206,1.926
4589,21.267,1.4545,0.1,5.7833e-05,577.93,5.7588e-05,570.98,-1.8408e-05,-0.026245,-2.0219e-05,-13.634,1.9259
4590,21.267,1.2727,0.1,5.7855e-05,578.15,5.7605e-05,571.03,-1.8398e-05,-0.023609,-2.0254e-05,-13.97,1.9258
4591,21.267,1.0909,0.1,5.7883e-05,578.43,5.7628e-05,571.19,-1.8395e-05,-0.019951,-2.0283e-05,-14.202,1.9257
4592,21.267,0.90909,0.1,5.7921e-05,578.81,5.7664e-05,571.5,-1.8401e-05,-0.015209,-2.0307e-05,-14.338,1.9255
4593,21.267,0.72727,0.1,5.7977e-05,579.37,5.7718e-05,572.03,-1.8415e-05,-0.0087162,-2.0331e-05,-14.403,1.9254
4594,21.267,0.54545,0.1,5.806e-05,580.2,5.78e-05,572.84,-1.844e-05,-0.0024943,-2.0362e-05,-14.447,1.9252
4595,21.267,0.36364,0.1,5.8193e-05,581.53,5.7931e-05,574.09,-1.8474e-05,0.014248,-2.0421e-05,-14.613,1.925
4596,21.267,0.18182,0.1,5.8619e-05,585.78,5.8321e-05,577.36,-1.8521e-05,0.0051406,-2.0717e-05,-16.491,1.9248
4597,21.085,5.8182,0.1,6.251e-05,624.67,6.2233e-05,616.81,-1.9859e-05,0.0037809,-2.1913e-05,-15.427,1.8981
4598,21.085,5.6364,0.1,6.2061e-05,620.18,6.1829e-05,613.56,-1.9829e-05,0.010002,-2.1569e-05,-13.059,1.8983
4599,21.085,5.4545,0.1,6.1893e-05,618.5,6.1674e-05,612.26,-1.9813e-05,-0.0037516,-2.1448e-05,-12.289,1.8985
4600,21.085,5.2727,0.1,6.1771e-05,617.29,6.1566e-05,611.41,-1.9809e-05,-0.0093691,-2.135e-05,-11.588,1.8987
4601,21.085,5.0909,0.1,6.1676e-05,616.33,6.1484e-05,610.84,-1.9816e-05,-0.015164,-2.1255e-05,-10.83,1.8989
4602,21.085,4.9091,0.1,6.1598e-05,615.55,6.1421e-05,610.49,-1.9832e-05,-0.019509,-2.1158e-05,-9.9814,1.899
4603,21.085,4.7273,0.1,6.1531e-05,614.88,6.1372e-05,610.3,-1.9858e-05,-0.022881,-2.1057e-05,-9.0327,1.8991
4604,21.085,4.5455,0.1,6.1471e-05,614.28,6.133e-05,610.23,-1.989e-05,-0.025308,-2.0951e-05,-7.9943,1.8993
4605,21.085,4.3636,0.1,6.1415e-05,613.73,6.1295e-05,610.24,-1.9927e-05,-0.026976,-2.0841e-05,-6.8928,1.8994
4606,21.085,4.1818,0.1,6.1364e-05,613.21,6.1263e-05,610.29,-1.9966e-05,-0.02804,-2.073e-05,-5.7677,1.8995
4607,21.085,4,0.1,6.1315e-05,612.73,6.1234e-05,610.37,-2.0005e-05,-0.028658,-2.0622e-05,-4.6672,1.8995
4608,21.085,3.8182,0.1,6.1272e-05,612.3,6.1209e-05,610.45,-2.0041e-05,-0.028971,-2.0523e-05,-3.6437,1.8996
4609,21.085,3.6364,0.1,6.1235e-05,611.92,6.1187e-05,610.53,-2.0074e-05,-0.029103,-2.0436e-05,-2.7492,1.8997
4610,21.085,3.4545,0.1,6.1205e-05,611.62,6.1169e-05,610.59,-2.0099e-05,-0.029154,-2.0366e-05,-2.0313,1.8997
4611,21.085,3.2727,0.1,6.1184e-05,611.42,6.1157e-05,610.64,-2.0117e-05,-0.029197,-2.0317e-05,-1.5292,1.8997
4612,21.085,3.0909,0.1,6.1173e-05,611.31,6.1151e-05,610.66,-2.0127e-05,-0.029238,-2.0292e-05,-1.2708,1.8997
4613,21.085,2.9091,0.1,6.1173e-05,611.31,6.1151e-05,610.66,-2.0127e-05,-0.029237,-2.0292e-05,-1.2708,1.8997
4614,21.085,2.7273,0.1,6.1184e-05,611.42,6.1157e-05,610.64,-2.0117e-05,-0.029194,-2.0317e-05,-1.5292,1.8997
4615,21.085,2.5455,0.1,6.1205e-05,611.62,6.1169e-05,610.59,-2.0099e-05,-0.029155,-2.0366e-05,-2.0313,1.8997
4616,21.085,2.3636,0.1,6.1235e-05,611.92,6.1187e-05,610.53,-2.0074e-05,-0.029102,-2.0436e-05,-2.7492,1.8997
4617,21.085,2.1818,0.1,6.1272e-05,612.3,6.1209e-05,610.45,-2.0041e-05,-0.028971,-2.0523e-05,-3.6437,1.8996
4618,21.085,2,0.1,6.1315e-05,612.73,6.1234e-05,610.37,-2.0005e-05,-0.028658,-2.0622e-05,-4.6672,1.8995
4619,21.085,1.8182,0.1,6.1364e-05,613.21,6.1263e-05,610.29,-1.9966e-05,-0.02804,-2.073e-05,-5.7677,1.8995
4620,21.085,1.6364,0.1,6.1415e-05,613.73,6.1295e-05,610.24,-1.9927e-05,-0.026975,-2.0841e-05,-6.8927,1.8994
4621,21.085,1.4545,0.1,6.1471e-05,614.28,6.133e-05,610.23,-1.989e-05,-0.025309,-2.0951e-05,-7.9942,1.8993
4622,21.085,1.2727,0.1,6.1531e-05,614.88,6.1372e-05,610.3,-1.9858e-05,-0.022879,-2.1057e-05,-9.0326,1.8991
4623,21.085,1.0909,0.1,6.1598e-05,615.55,6.1421e-05,610.49,-1.9832e-05,-0.019509,-2.1158e-05,-9.9814,1.899
4624,21.085,0.90909,0.1,6.1676e-05,616.33,6.1484e-05,610.84,-1.9816e-05,-0.015166,-2.1255e-05,-10.83,1.8989
4625,21.085,0.72727,0.1,6.1771e-05,617.29,6.1566e-05,611.41,-1.9809e-05,-0.0093698,-2.135e-05,-11.588,1.8987
4626,21.085,0.54545,0.1,6.1893e-05,618.5,6.1674e-05,612.26,-1.9813e-05,-0.0037497,-2.1448e-05,-12.289,1.8985
4627,21.085,0.36364,0.1,6.2061e-05,620.18,6.1829e-05,613.56,-1.9829e-05,0.010004,-2.1569e-05,-13.059,1.8983
4628,21.085,0.18182,0.1,6.251e-05,624.67,6.2233e-05,616.81,-1.9859e-05,0.00378,-2.1913e-05,-15.427,1.8981
4629,20.903,5.8182,0.1,6.6397e-05,663.51,6.614e-05,656.2,-2.1194e-05,0.0027681,-2.311e-05,-14.39,1.8715
4630,20.903,5.6364,0.1,6.593e-05,658.84,6.5725e-05,652.98,-2.1181e-05,0.0059206,-2.2722e-05,-11.574,1.8717
4631,20.903,5.4545,0.1,6.5731e-05,656.85,6.5551e-05,651.68,-2.1183e-05,-0.0052764,-2.2544e-05,-10.228,1.8719
4632,20.903,5.2727,0.1,6.5576e-05,655.31,6.542e-05,650.81,-2.1199e-05,-0.010363,-2.2381e-05,-8.8887,1.872
4633,20.903,5.0909,0.1,6.5446e-05,654,6.5315e-05,650.24,-2.1229e-05,-0.015479,-2.2217e-05,-7.4447,1.8722
4634,20.903,4.9091,0.1,6.5332e-05,652.87,6.5229e-05,649.9,-2.1269e-05,-0.019393,-2.2049e-05,-5.878,1.8724
4635,20.903,4.7273,0.1,6.523e-05,651.85,6.5157e-05,649.73,-2.1319e-05,-0.022441,-2.1875e-05,-4.1972,1.8725
4636,20.903,4.5455,0.1,6.5136e-05,650.91,6.5094e-05,649.68,-2.1376e-05,-0.024644,-2.1697e-05,-2.4308,1.8726
4637,20.903,4.3636,0.1,6.5049e-05,650.04,6.5038e-05,649.72,-2.1438e-05,-0.026097,-2.1517e-05,-0.62376,1.8727
4638,20.903,4.1818,0.1,6.4969e-05,649.24,6.4988e-05,649.81,-2.1341e-05,1.1665,-2.15e-05,-0.02716,1.8728
4639,20.903,4,0.1,6.4895e-05,648.51,6.4943e-05,649.92,-2.1174e-05,2.8743,-2.156e-05,-0.027658,1.8729
4640,20.903,3.8182,0.1,6.483e-05,647.85,6.4904e-05,650.04,-2.1022e-05,4.4314,-2.1615e-05,-0.027874,1.873
4641,20.903,3.6364,0.1,6.4775e-05,647.3,6.4871e-05,650.15,-2.0891e-05,5.7712,-2.1663e-05,-0.027906,1.873
4642,20.903,3.4545,0.1,6.4731e-05,646.87,6.4844e-05,650.24,-2.0788e-05,6.8344,-2.1701e-05,-0.027846,1.8731
4643,20.903,3.2727,0.1,6.4701e-05,646.57,6.4826e-05,650.31,-2.0716e-05,7.572,-2.1728e-05,-0.027767,1.8731
4644,20.903,3.0909,0.1,6.4686e-05,646.41,6.4817e-05,650.34,-2.068e-05,7.9498,-2.1741e-05,-0.027715,1.8731
4645,20.903,2.9091,0.1,6.4686e-05,646.41,6.4817e-05,650.34,-2.068e-05,7.9498,-2.1741e-05,-0.027715,1.8731
4646,20.903,2.7273,0.1,6.4701e-05,646.57,6.4826e-05,650.31,-2.0716e-05,7.572,-2.1728e-05,-0.027768,1.8731
4647,20.903,2.5455,0.1,6.4731e-05,646.87,6.4844e-05,650.24,-2.0788e-05,6.8344,-2.1701e-05,-0.027847,1.8731
4648,20.903,2.3636,0.1,6.4775e-05,647.3,6.4871e-05,650.15,-2.0891e-05,5.7713,-2.1663e-05,-0.027905,1.873
4649,20.903,2.1818,0.1,6.483e-05,647.85,6.4904e-05,650.04,-2.1022e-05,4.4314,-2.1615e-05,-0.027873,1.873
4650,20.903,2,0.1,6.4895e-05,648.51,6.4943e-05,649.92,-2.1174e-05,2.8744,-2.156e-05,-0.027658,1.8729
4651,20.903,1.8182,0.1,6.4969e-05,649.24,6.4988e-05,649.81,-2.1341e-05,1.1666,-2.15e-05,-0.027161,1.8728
4652,20.903,1.6364,0.1,6.5049e-05,650.04,6.5038e-05,649.72,-2.1438e-05,-0.026097,-2.1517e-05,-0.62371,1.8727
4653,20.903,1.4545,0.1,6.5136e-05,650.91,6.5094e-05,649.68,-2.1376e-05,-0.024645,-2.1697e-05,-2.4307,1.8726
4654,20.903,1.2727,0.1,6.523e-05,651.85,6.5157e-05,649.73,-2.1319e-05,-0.022443,-2.1875e-05,-4.1972,1.8725
4655,20.903,1.0909,0.1,6.5332e-05,652.87,6.5229e-05,649.9,-2.1269e-05,-0.019393,-2.2049e-05,-5.8779,1.8724
4656,20.903,0.90909,0.1,6.5446e-05,654,6.5315e-05,650.24,-2.1229e-05,-0.01548,-2.2217e-05,-7.4446,1.8722
4657,20.903,0.72727,0.1,6.5576e-05,655.31,6.542e-05,650.81,-2.1199e-05,-0.010365,-2.2381e-05,-8.8887,1.872
4658,20.903,0.54545,0.1,6.5731e-05,656.85,6.5551e-05,651.68,-2.1183e-05,-0.0052743,-2.2544e-05,-10.228,1.8719
4659,20.903,0.36364,0.1,6.593e-05,658.84,6.5725e-05,652.98,-2.1181e-05,0.005922,-2.2722e-05,-11.574,1.8717
4660,20.903,0.18182,0.1,6.6397e-05,663.51,6.614e-05,656.2,-2.1194e-05,0.0027676,-2.311e-05,-14.39,1.8715
4661,20.721,5.8182,0.1,7.0273e-05,702.24,7.0035e-05,695.45,-2.2523e-05,0.0020817,-2.4306e-05,-13.395,1.8448
4662,20.721,5.6364,0.1,6.9793e-05,697.45,6.9614e-05,692.31,-2.2526e-05,0.0020298,-2.388e-05,-10.172,1.845
4663,20.721,5.4545,0.1,6.9569e-05,695.21,6.9424e-05,691.03,-2.2547e-05,-0.007093,-2.3648e-05,-8.2794,1.8453
4664,20.721,5.2727,0.1,6.9386e-05,693.39,6.9277e-05,690.2,-2.2585e-05,-0.011738,-2.3424e-05,-6.3167,1.8454
4665,20.721,5.0909,0.1,6.9226e-05,691.79,6.9154e-05,689.68,-2.2638e-05,-0.016099,-2.3194e-05,-4.1881,1.8456
4666,20.721,4.9091,0.1,6.9083e-05,690.35,6.905e-05,689.39,-2.2705e-05,-0.019048,-2.2954e-05,-1.8927,1.8458
4667,20.721,4.7273,0.1,6.8951e-05,689.03,6.8959e-05,689.29,-2.2707e-05,0.54714,-2.2783e-05,-0.025694,1.8459
4668,20.721,4.5455,0.1,6.8828e-05,687.8,6.8879e-05,689.32,-2.2455e-05,3.0717,-2.2867e-05,-0.02508,1.846
4669,20.721,4.3636,0.1,6.8714e-05,686.66,6.8807e-05,689.44,-2.2204e-05,5.6237,-2.2956e-05,-0.026064,1.8462
4670,20.721,4.1818,0.1,6.8608e-05,685.61,6.8742e-05,689.62,-2.1959e-05,8.1226,-2.3044e-05,-0.026687,1.8463
4671,20.721,4,0.1,6.8512e-05,684.65,6.8684e-05,689.82,-2.173e-05,10.482,-2.3129e-05,-0.026972,1.8463
4672,20.721,3.8182,0.1,6.8428e-05,683.81,6.8633e-05,690.01,-2.1523e-05,12.616,-2.3205e-05,-0.027011,1.8464
4673,20.721,3.6364,0.1,6.8357e-05,683.1,6.859e-05,690.19,-2.1346e-05,14.439,-2.3271e-05,-0.026906,1.8465
4674,20.721,3.4545,0.1,6.8301e-05,682.54,6.8557e-05,690.33,-2.1207e-05,15.878,-2.3324e-05,-0.026746,1.8465
4675,20.721,3.2727,0.1,6.8263e-05,682.16,6.8534e-05,690.43,-2.1111e-05,16.873,-2.336e-05,-0.026598,1.8465
4676,20.721,3.0909,0.1,6.8244e-05,681.97,6.8523e-05,690.48,-2.1061e-05,17.381,-2.3378e-05,-0.026514,1.8466
4677,20.721,2.9091,0.1,6.8244e-05,681.97,6.8523e-05,690.48,-2.1061e-05,17.381,-2.3378e-05,-0.026513,1.8466
4678,20.721,2.7273,0.1,6.8263e-05,682.16,6.8534e-05,690.43,-2.1111e-05,16.873,-2.336e-05,-0.026599,1.8465
4679,20.721,2.5455,0.1,6.8301e-05,682.54,6.8557e-05,690.33,-2.1207e-05,15.878,-2.3324e-05,-0.026746,1.8465
4680,20.721,2.3636,0.1,6.8357e-05,683.1,6.859e-05,690.19,-2.1346e-05,14.439,-2.3271e-05,-0.026906,1.8465
4681,20.721,2.1818,0.1,6.8428e-05,683.81,6.8633e-05,690.01,-2.1523e-05,12.616,-2.3205e-05,-0.02701,1.8464
4682,20.721,2,0.1,6.8512e-05,684.65,6.8684e-05,689.82,-2.173e-05,10.482,-2.3129e-05,-0.026972,1.8463
4683,20.721,1.8182,0.1,6.8608e-05,685.61,6.8742e-05,689.62,-2.1959e-05,8.1226,-2.3044e-05,-0.026687,1.8463
4684,20.721,1.6364,0.1,6.8714e-05,686.66,6.8807e-05,689.44,-2.2204e-05,5.6238,-2.2956e-05,-0.026063,1.8462
4685,20.721,1.4545,0.1,6.8828e-05,687.8,6.8879e-05,689.32,-2.2455e-05,3.0717,-2.2867e-05,-0.02508,1.846
4686,20.721,1.2727,0.1,6.8951e-05,689.03,6.8959e-05,689.29,-2.2707e-05,0.54719,-2.2783e-05,-0.025694,1.8459
4687,20.721,1.0909,0.1,6.9083e-05,690.35,6.905e-05,689.39,-2.2705e-05,-0.019048,-2.2954e-05,-1.8926,1.8458
4688,20.721,0.90909,0.1,6.9226e-05,691.79,6.9154e-05,689.68,-2.2638e-05,-0.0161,-2.3194e-05,-4.188,1.8456
4689,20.721,0.72727,0.1,6.9386e-05,693.39,6.9277e-05,690.2,-2.2585e-05,-0.011738,-2.3424e-05,-6.3166,1.8454
4690,20.721,0.54545,0.1,6.9569e-05,695.21,6.9424e-05,691.03,-2.2547e-05,-0.007095,-2.3648e-05,-8.2794,1.8453
4691,20.721,0.36364,0.1,6.9793e-05,697.45,6.9614e-05,692.31,-2.2526e-05,0.0020309,-2.388e-05,-10.172,1.845
4692,20.721,0.18182,0.1,7.0273e-05,702.24,7.0035e-05,695.45,-2.2523e-05,0.0020842,-2.4306e-05,-13.395,1.8448
4693,20.539,5.8182,0.1,7.413e-05,740.79,7.3911e-05,734.49,-2.3843e-05,0.0017184,-2.5502e-05,-12.459,1.8183
4694,20.539,5.6364,0.1,7.3644e-05,735.93,7.3489e-05,731.46,-2.3862e-05,-0.001608,-2.5042e-05,-8.8721,1.8185
4695,20.539,5.4545,0.1,7.3401e-05,733.51,7.3289e-05,730.25,-2.3902e-05,-0.0092233,-2.4761e-05,-6.462,1.8187
4696,20.539,5.2727,0.1,7.3198e-05,731.47,7.313e-05,729.51,-2.3963e-05,-0.013561,-2.4479e-05,-3.8888,1.8189
4697,20.539,5.0909,0.1,7.3015e-05,729.64,7.2996e-05,729.1,-2.4043e-05,-0.016179,-2.4184e-05,-1.0737,1.8191
4698,20.539,4.9091,0.1,7.2847e-05,727.96,7.288e-05,728.94,-2.3873e-05,1.9723,-2.4139e-05,-0.022342,1.8192
4699,20.539,4.7273,0.1,7.2691e-05,726.41,7.2777e-05,728.98,-2.3552e-05,5.1932,-2.4247e-05,-0.023982,1.8194
4700,20.539,4.5455,0.1,7.2545e-05,724.95,7.2685e-05,729.16,-2.3225e-05,8.5217,-2.4363e-05,-0.025375,1.8195
4701,20.539,4.3636,0.1,7.2408e-05,723.58,7.2603e-05,729.43,-2.2899e-05,11.867,-2.4482e-05,-0.026239,1.8196
4702,20.539,4.1818,0.1,7.2282e-05,722.33,7.2527e-05,729.76,-2.2584e-05,15.127,-2.4601e-05,-0.026647,1.8197
4703,20.539,4,0.1,7.2169e-05,721.19,7.246e-05,730.1,-2.2289e-05,18.192,-2.4713e-05,-0.026712,1.8198
4704,20.539,3.8182,0.1,7.2069e-05,720.19,7.2402e-05,730.42,-2.2023e-05,20.951,-2.4815e-05,-0.026559,1.8199
4705,20.539,3.6364,0.1,7.1985e-05,719.35,7.2353e-05,730.71,-2.1797e-05,23.302,-2.4902e-05,-0.026294,1.8199
4706,20.539,3.4545,0.1,7.192e-05,718.71,7.2315e-05,730.94,-2.162e-05,25.152,-2.4971e-05,-0.026012,1.82
4707,20.539,3.2727,0.1,7.1876e-05,718.26,7.2288e-05,731.1,-2.1497e-05,26.429,-2.5018e-05,-0.025782,1.82
4708,20.539,3.0909,0.1,7.1853e-05,718.04,7.2275e-05,731.18,-2.1435e-05,27.081,-2.5042e-05,-0.025656,1.82
4709,20.539,2.9091,0.1,7.1853e-05,718.04,7.2275e-05,731.18,-2.1435e-05,27.081,-2.5042e-05,-0.025654,1.82
4710,20.539,2.7273,0.1,7.1876e-05,718.26,7.2288e-05,731.1,-2.1497e-05,26.429,-2.5018e-05,-0.025782,1.82
4711,20.539,2.5455,0.1,7.192e-05,718.71,7.2315e-05,730.94,-2.162e-05,25.152,-2.4971e-05,-0.026012,1.82
4712,20.539,2.3636,0.1,7.1985e-05,719.35,7.2353e-05,730.71,-2.1797e-05,23.302,-2.4902e-05,-0.026295,1.8199
4713,20.539,2.1818,0.1,7.2069e-05,720.19,7.2402e-05,730.42,-2.2023e-05,20.951,-2.4815e-05,-0.026559,1.8199
4714,20.539,2,0.1,7.2169e-05,721.19,7.246e-05,730.1,-2.2289e-05,18.192,-2.4713e-05,-0.026714,1.8198
4715,20.539,1.8182,0.1,7.2282e-05,722.33,7.2527e-05,729.76,-2.2584e-05,15.127,-2.4601e-05,-0.026646,1.8197
4716,20.539,1.6364,0.1,7.2408e-05,723.58,7.2603e-05,729.43,-2.2899e-05,11.867,-2.4482e-05,-0.026238,1.8196
4717,20.539,1.4545,0.1,7.2545e-05,724.95,7.2685e-05,729.16,-2.3225e-05,8.5217,-2.4363e-05,-0.025377,1.8195
4718,20.539,1.2727,0.1,7.2691e-05,726.41,7.2777e-05,728.98,-2.3552e-05,5.1932,-2.4247e-05,-0.023981,1.8194
4719,20.539,1.0909,0.1,7.2847e-05,727.96,7.288e-05,728.94,-2.3873e-05,1.9724,-2.4139e-05,-0.022344,1.8192
4720,20.539,0.90909,0.1,7.3015e-05,729.64,7.2996e-05,729.1,-2.4043e-05,-0.016179,-2.4184e-05,-1.0736,1.8191
4721,20.539,0.72727,0.1,7.3198e-05,731.47,7.313e-05,729.51,-2.3963e-05,-0.013563,-2.4479e-05,-3.8887,1.8189
4722,20.539,0.54545,0.1,7.3401e-05,733.51,7.3289e-05,730.25,-2.3902e-05,-0.009226,-2.4761e-05,-6.462,1.8187
4723,20.539,0.36364,0.1,7.3644e-05,735.93,7.3489e-05,731.46,-2.3862e-05,-0.0016053,-2.5042e-05,-8.8721,1.8185
4724,20.539,0.18182,0.1,7.413e-05,740.79,7.3911e-05,734.49,-2.3843e-05,0.0017197,-2.5502e-05,-12.459,1.8183
4725,20.357,5.8182,0.1,7.796e-05,779.07,7.7757e-05,773.2,-2.515e-05,0.0016722,-2.6694e-05,-11.599,1.7917
4726,20.357,5.6364,0.1,7.7474e-05,774.21,7.734e-05,770.33,-2.5185e-05,-0.0048783,-2.6209e-05,-7.6981,1.792
4727,20.357,5.4545,0.1,7.722e-05,771.67,7.7137e-05,769.25,-2.5246e-05,-0.01163,-2.5883e-05,-4.8007,1.7922
4728,20.357,5.2727,0.1,7.7003e-05,769.5,7.6975e-05,768.67,-2.5332e-05,-0.015968,-2.5546e-05,-1.628,1.7924
4729,20.357,5.0909,0.1,7.6804e-05,767.51,7.6836e-05,768.44,-2.5187e-05,1.8844,-2.544e-05,-0.02049,1.7926
4730,20.357,4.9091,0.1,7.662e-05,765.67,7.6715e-05,768.5,-2.4807e-05,5.6985,-2.5568e-05,-0.02312,1.7927
4731,20.357,4.7273,0.1,7.6448e-05,763.95,7.6609e-05,768.76,-2.4411e-05,9.7444,-2.5711e-05,-0.025076,1.7929
4732,20.357,4.5455,0.1,7.6286e-05,762.33,7.6513e-05,769.18,-2.4006e-05,13.925,-2.5863e-05,-0.026304,1.793
4733,20.357,4.3636,0.1,7.6134e-05,760.82,7.6426e-05,769.7,-2.3603e-05,18.122,-2.6019e-05,-0.026928,1.7931
4734,20.357,4.1818,0.1,7.5994e-05,759.42,7.6347e-05,770.26,-2.3213e-05,22.205,-2.6172e-05,-0.027083,1.7932
4735,20.357,4,0.1,7.5868e-05,758.16,7.6277e-05,770.83,-2.2849e-05,26.036,-2.6317e-05,-0.026911,1.7933
4736,20.357,3.8182,0.1,7.5758e-05,757.06,7.6216e-05,771.35,-2.2521e-05,29.479,-2.6448e-05,-0.026543,1.7934
4737,20.357,3.6364,0.1,7.5666e-05,756.14,7.6165e-05,771.81,-2.2243e-05,32.408,-2.656e-05,-0.0261,1.7934
4738,20.357,3.4545,0.1,7.5595e-05,755.43,7.6125e-05,772.17,-2.2025e-05,34.71,-2.6648e-05,-0.02568,1.7935
4739,20.357,3.2727,0.1,7.5547e-05,754.94,7.6098e-05,772.42,-2.1875e-05,36.297,-2.6709e-05,-0.025354,1.7935
4740,20.357,3.0909,0.1,7.5522e-05,754.7,7.6084e-05,772.55,-2.1798e-05,37.107,-2.674e-05,-0.02518,1.7935
4741,20.357,2.9091,0.1,7.5522e-05,754.7,7.6084e-05,772.55,-2.1798e-05,37.107,-2.674e-05,-0.025179,1.7935
4742,20.357,2.7273,0.1,7.5547e-05,754.94,7.6098e-05,772.42,-2.1875e-05,36.297,-2.6709e-05,-0.025355,1.7935
4743,20.357,2.5455,0.1,7.5595e-05,755.43,7.6125e-05,772.17,-2.2025e-05,34.71,-2.6648e-05,-0.025678,1.7935
4744,20.357,2.3636,0.1,7.5666e-05,756.14,7.6165e-05,771.81,-2.2243e-05,32.408,-2.656e-05,-0.026099,1.7934
4745,20.357,2.1818,0.1,7.5758e-05,757.06,7.6216e-05,771.35,-2.2521e-05,29.479,-2.6448e-05,-0.026544,1.7934
4746,20.357,2,0.1,7.5868e-05,758.16,7.6277e-05,770.83,-2.2849e-05,26.036,-2.6317e-05,-0.026911,1.7933
4747,20.357,1.8182,0.1,7.5994e-05,759.42,7.6347e-05,770.26,-2.3213e-05,22.205,-2.6172e-05,-0.027083,1.7932
4748,20.357,1.6364,0.1,7.6134e-05,760.82,7.6426e-05,769.7,-2.3603e-05,18.122,-2.6019e-05,-0.026929,1.7931
4749,20.357,1.4545,0.1,7.6286e-05,762.33,7.6513e-05,769.18,-2.4006e-05,13.925,-2.5863e-05,-0.026304,1.793
4750,20.357,1.2727,0.1,7.6448e-05,763.95,7.6609e-05,768.76,-2.4411e-05,9.7445,-2.5711e-05,-0.025076,1.7929
4751,20.357,1.0909,0.1,7.662e-05,765.67,7.6715e-05,768.5,-2.4807e-05,5.6986,-2.5568e-05,-0.023121,1.7927
4752,20.357,0.90909,0.1,7.6804e-05,767.51,7.6836e-05,768.44,-2.5187e-05,1.8845,-2.544e-05,-0.020492,1.7926
4753,20.357,0.72727,0.1,7.7003e-05,769.5,7.6975e-05,768.67,-2.5332e-05,-0.015969,-2.5546e-05,-1.6279,1.7924
4754,20.357,0.54545,0.1,7.722e-05,771.67,7.7137e-05,769.25,-2.5246e-05,-0.011629,-2.5883e-05,-4.8006,1.7922
4755,20.357,0.36364,0.1,7.7474e-05,774.21,7.734e-05,770.33,-2.5185e-05,-0.0048775,-2.6209e-05,-7.6981,1.792
4756,20.357,0.18182,0.1,7.796e-05,779.07,7.7757e-05,773.2,-2.515e-05,0.0016723,-2.6694e-05,-11.599,1.7917
4757,20.174,5.8182,0.1,8.175e-05,816.93,8.156e-05,811.46,-2.6439e-05,0.0019567,-2.7881e-05,-10.837,1.7652
4758,20.174,5.6364,0.1,8.1272e-05,812.16,8.1156e-05,808.79,-2.6489e-05,-0.0075427,-2.7376e-05,-6.6768,1.7655
4759,20.174,5.4545,0.1,8.1016e-05,809.6,8.0958e-05,807.92,-2.6571e-05,-0.013956,-2.7012e-05,-3.3256,1.7657
4760,20.174,5.2727,0.1,8.0794e-05,807.38,8.0801e-05,807.59,-2.6624e-05,0.43688,-2.6685e-05,-0.019205,1.7659
4761,20.174,5.0909,0.1,8.0589e-05,805.34,8.0667e-05,807.64,-2.6204e-05,4.6547,-2.6827e-05,-0.022513,1.7661
4762,20.174,4.9091,0.1,8.0399e-05,803.43,8.0552e-05,808.02,-2.5754e-05,9.2713,-2.6992e-05,-0.025157,1.7663
4763,20.174,4.7273,0.1,8.0219e-05,801.64,8.0451e-05,808.63,-2.5282e-05,14.189,-2.7174e-05,-0.026898,1.7664
4764,20.174,4.5455,0.1,8.005e-05,799.95,8.036e-05,809.4,-2.4798e-05,19.281,-2.7368e-05,-0.027858,1.7666
4765,20.174,4.3636,0.1,7.9893e-05,798.37,8.0279e-05,810.28,-2.4315e-05,24.398,-2.7566e-05,-0.028192,1.7667
4766,20.174,4.1818,0.1,7.9747e-05,796.92,8.0206e-05,811.19,-2.3847e-05,29.375,-2.7761e-05,-0.028056,1.7668
4767,20.174,4,0.1,7.9617e-05,795.62,8.0141e-05,812.08,-2.3409e-05,34.044,-2.7944e-05,-0.027613,1.7669
4768,20.174,3.8182,0.1,7.9503e-05,794.49,8.0084e-05,812.9,-2.3017e-05,38.238,-2.811e-05,-0.027007,1.767
4769,20.174,3.6364,0.1,7.9409e-05,793.55,8.0037e-05,813.61,-2.2684e-05,41.802,-2.8251e-05,-0.026362,1.767
4770,20.174,3.4545,0.1,7.9337e-05,792.82,8.0001e-05,814.17,-2.2422e-05,44.603,-2.8362e-05,-0.025787,1.7671
4771,20.174,3.2727,0.1,7.9287e-05,792.33,7.9976e-05,814.55,-2.2241e-05,46.533,-2.8438e-05,-0.02536,1.7671
4772,20.174,3.0909,0.1,7.9262e-05,792.08,7.9963e-05,814.75,-2.215e-05,47.517,-2.8477e-05,-0.025133,1.7671
4773,20.174,2.9091,0.1,7.9262e-05,792.08,7.9963e-05,814.75,-2.215e-05,47.517,-2.8477e-05,-0.025133,1.7671
4774,20.174,2.7273,0.1,7.9287e-05,792.33,7.9976e-05,814.55,-2.2241e-05,46.533,-2.8438e-05,-0.025359,1.7671
4775,20.174,2.5455,0.1,7.9337e-05,792.82,8.0001e-05,814.17,-2.2422e-05,44.603,-2.8362e-05,-0.025788,1.7671
4776,20.174,2.3636,0.1,7.9409e-05,793.55,8.0037e-05,813.61,-2.2684e-05,41.802,-2.8251e-05,-0.026362,1.767
4777,20.174,2.1818,0.1,7.9503e-05,794.49,8.0084e-05,812.9,-2.3017e-05,38.238,-2.811e-05,-0.027006,1.767
4778,20.174,2,0.1,7.9617e-05,795.62,8.0141e-05,812.08,-2.3409e-05,34.044,-2.7944e-05,-0.027614,1.7669
4779,20.174,1.8182,0.1,7.9747e-05,796.92,8.0206e-05,811.19,-2.3847e-05,29.375,-2.7761e-05,-0.028056,1.7668
4780,20.174,1.6364,0.1,7.9893e-05,798.37,8.0279e-05,810.28,-2.4315e-05,24.398,-2.7566e-05,-0.028191,1.7667
4781,20.174,1.4545,0.1,8.005e-05,799.95,8.036e-05,809.4,-2.4798e-05,19.281,-2.7368e-05,-0.027859,1.7666
4782,20.174,1.2727,0.1,8.0219e-05,801.64,8.0451e-05,808.63,-2.5282e-05,14.189,-2.7174e-05,-0.026899,1.7664
4783,20.174,1.0909,0.1,8.0399e-05,803.43,8.0552e-05,808.02,-2.5754e-05,9.2713,-2.6992e-05,-0.025158,1.7663
4784,20.174,0.90909,0.1,8.0589e-05,805.34,8.0667e-05,807.64,-2.6204e-05,4.6548,-2.6827e-05,-0.022515,1.7661
4785,20.174,0.72727,0.1,8.0794e-05,807.38,8.0801e-05,807.59,-2.6624e-05,0.43694,-2.6685e-05,-0.019205,1.7659
4786,20.174,0.54545,0.1,8.1016e-05,809.6,8.0958e-05,807.92,-2.6571e-05,-0.013955,-2.7012e-05,-3.3256,1.7657
4787,20.174,0.36364,0.1,8.1272e-05,812.16,8.1156e-05,808.79,-2.6489e-05,-0.0075415,-2.7376e-05,-6.6768,1.7655
4788,20.174,0.18182,0.1,8.175e-05,816.93,8.156e-05,811.46,-2.6439e-05,0.0019558,-2.7881e-05,-10.837,1.7652
4789,19.992,5.8182,0.1,8.5482e-05,854.23,8.5304e-05,849.09,-2.7702e-05,0.0025408,-2.906e-05,-10.196,1.7388
4790,19.992,5.6364,0.1,8.5022e-05,849.63,8.4921e-05,846.69,-2.7768e-05,-0.0092163,-2.8544e-05,-5.8401,1.7391
4791,19.992,5.4545,0.1,8.4774e-05,847.16,8.4739e-05,846.11,-2.7874e-05,-0.014516,-2.8148e-05,-2.0742,1.7393
4792,19.992,5.2727,0.1,8.4559e-05,845.01,8.4597e-05,846.13,-2.7714e-05,2.2707,-2.8019e-05,-0.023518,1.7395
4793,19.992,5.0909,0.1,8.4361e-05,843.03,8.4481e-05,846.6,-2.7235e-05,7.2095,-2.8198e-05,-0.025893,1.7397
4794,19.992,4.9091,0.1,8.4176e-05,841.18,8.4384e-05,847.42,-2.6716e-05,12.666,-2.8405e-05,-0.028156,1.7399
4795,19.992,4.7273,0.1,8.4001e-05,839.43,8.43e-05,848.52,-2.6167e-05,18.511,-2.8635e-05,-0.029555,1.74
4796,19.992,4.5455,0.1,8.3838e-05,837.8,8.4228e-05,849.81,-2.5602e-05,24.585,-2.8878e-05,-0.03017,1.7402
4797,19.992,4.3636,0.1,8.3686e-05,836.28,8.4165e-05,851.19,-2.5036e-05,30.7,-2.9125e-05,-0.030153,1.7403
4798,19.992,4.1818,0.1,8.3547e-05,834.89,8.4109e-05,852.6,-2.4486e-05,36.655,-2.9369e-05,-0.029682,1.7404
4799,19.992,4,0.1,8.3422e-05,833.65,8.406e-05,853.95,-2.3972e-05,42.243,-2.9598e-05,-0.028928,1.7405
4800,19.992,3.8182,0.1,8.3315e-05,832.58,8.4018e-05,855.19,-2.351e-05,47.263,-2.9804e-05,-0.028051,1.7406
4801,19.992,3.6364,0.1,8.3227e-05,831.7,8.3984e-05,856.25,-2.3118e-05,51.529,-2.998e-05,-0.027186,1.7406
4802,19.992,3.4545,0.1,8.316e-05,831.03,8.3957e-05,857.09,-2.2811e-05,54.879,-3.0118e-05,-0.026442,1.7407
4803,19.992,3.2727,0.1,8.3114e-05,830.57,8.3939e-05,857.67,-2.2599e-05,57.188,-3.0214e-05,-0.025905,1.7407
4804,19.992,3.0909,0.1,8.3091e-05,830.34,8.393e-05,857.97,-2.2491e-05,58.364,-3.0262e-05,-0.025622,1.7407
4805,19.992,2.9091,0.1,8.3091e-05,830.34,8.393e-05,857.97,-2.2491e-05,58.364,-3.0262e-05,-0.025621,1.7407
4806,19.992,2.7273,0.1,8.3114e-05,830.57,8.3939e-05,857.67,-2.2599e-05,57.188,-3.0214e-05,-0.025904,1.7407
4807,19.992,2.5455,0.1,8.316e-05,831.03,8.3957e-05,857.09,-2.2811e-05,54.879,-3.0118e-05,-0.026443,1.7407
4808,19.992,2.3636,0.1,8.3227e-05,831.7,8.3984e-05,856.25,-2.3118e-05,51.529,-2.998e-05,-0.027186,1.7406
4809,19.992,2.1818,0.1,8.3315e-05,832.58,8.4018e-05,855.19,-2.351e-05,47.263,-2.9804e-05,-0.02805,1.7406
4810,19.992,2,0.1,8.3422e-05,833.65,8.406e-05,853.95,-2.3972e-05,42.243,-2.9598e-05,-0.028928,1.7405
4811,19.992,1.8182,0.1,8.3547e-05,834.89,8.4109e-05,852.6,-2.4486e-05,36.655,-2.9369e-05,-0.029682,1.7404
4812,19.992,1.6364,0.1,8.3686e-05,836.28,8.4165e-05,851.19,-2.5036e-05,30.7,-2.9126e-05,-0.030153,1.7403
4813,19.992,1.4545,0.1,8.3838e-05,837.8,8.4228e-05,849.81,-2.5602e-05,24.585,-2.8878e-05,-0.03017,1.7402
4814,19.992,1.2727,0.1,8.4001e-05,839.43,8.43e-05,848.52,-2.6167e-05,18.511,-2.8635e-05,-0.029555,1.74
4815,19.992,1.0909,0.1,8.4176e-05,841.18,8.4384e-05,847.42,-2.6716e-05,12.666,-2.8405e-05,-0.028155,1.7399
4816,19.992,0.90909,0.1,8.4361e-05,843.03,8.4481e-05,846.6,-2.7235e-05,7.2095,-2.8198e-05,-0.025894,1.7397
4817,19.992,0.72727,0.1,8.4559e-05,845.01,8.4597e-05,846.13,-2.7714e-05,2.2708,-2.8019e-05,-0.023519,1.7395
4818,19.992,0.54545,0.1,8.4774e-05,847.16,8.4739e-05,846.11,-2.7874e-05,-0.014518,-2.8148e-05,-2.0741,1.7393
4819,19.992,0.36364,0.1,8.5022e-05,849.63,8.4921e-05,846.69,-2.7768e-05,-0.009215,-2.8544e-05,-5.84,1.7391
4820,19.992,0.18182,0.1,8.5482e-05,854.23,8.5304e-05,849.09,-2.7702e-05,0.0025424,-2.906e-05,-10.196,1.7388
4821,19.81,5.8182,0.1,8.9136e-05,890.75,8.8967e-05,885.86,-2.8933e-05,0.003387,-3.0224e-05,-9.7025,1.7124
4822,19.81,5.6364,0.1,8.8705e-05,886.44,8.8615e-05,883.81,-2.9014e-05,-0.0092855,-2.9708e-05,-5.2243,1.7127
4823,19.81,5.4545,0.1,8.848e-05,884.19,8.8461e-05,883.64,-2.9144e-05,-0.0044541,-2.929e-05,-1.0963,1.7129
4824,19.81,5.2727,0.1,8.8286e-05,882.25,8.835e-05,884.14,-2.8812e-05,3.8328,-2.9326e-05,-0.029563,1.7132
4825,19.81,5.0909,0.1,8.8108e-05,880.47,8.8266e-05,885.17,-2.8278e-05,9.5108,-2.9548e-05,-0.03066,1.7134
4826,19.81,4.9091,0.1,8.7943e-05,878.83,8.8202e-05,886.63,-2.7692e-05,15.851,-2.9806e-05,-0.032323,1.7135
4827,19.81,4.7273,0.1,8.779e-05,877.29,8.8153e-05,888.4,-2.7066e-05,22.689,-3.009e-05,-0.033246,1.7137
4828,19.81,4.5455,0.1,8.7648e-05,875.87,8.8116e-05,890.39,-2.6417e-05,29.825,-3.0391e-05,-0.033411,1.7138
4829,19.81,4.3636,0.1,8.7517e-05,874.56,8.8087e-05,892.47,-2.5765e-05,37.029,-3.0698e-05,-0.032963,1.714
4830,19.81,4.1818,0.1,8.7399e-05,873.39,8.8065e-05,894.57,-2.5131e-05,44.056,-3.0999e-05,-0.032089,1.7141
4831,19.81,4,0.1,8.7296e-05,872.36,8.8047e-05,896.56,-2.4537e-05,50.655,-3.1283e-05,-0.030975,1.7142
4832,19.81,3.8182,0.1,8.7209e-05,871.48,8.8033e-05,898.38,-2.4004e-05,56.585,-3.1539e-05,-0.029793,1.7142
4833,19.81,3.6364,0.1,8.7138e-05,870.78,8.8022e-05,899.94,-2.3551e-05,61.624,-3.1756e-05,-0.028685,1.7143
4834,19.81,3.4545,0.1,8.7085e-05,870.25,8.8014e-05,901.17,-2.3195e-05,65.582,-3.1927e-05,-0.027764,1.7144
4835,19.81,3.2727,0.1,8.7049e-05,869.89,8.8009e-05,902.02,-2.2951e-05,68.307,-3.2045e-05,-0.02711,1.7144
4836,19.81,3.0909,0.1,8.7031e-05,869.71,8.8007e-05,902.45,-2.2826e-05,69.697,-3.2106e-05,-0.026769,1.7144
4837,19.81,2.9091,0.1,8.7031e-05,869.71,8.8007e-05,902.45,-2.2826e-05,69.697,-3.2106e-05,-0.026769,1.7144
4838,19.81,2.7273,0.1,8.7049e-05,869.89,8.8009e-05,902.02,-2.2951e-05,68.307,-3.2045e-05,-0.027109,1.7144
4839,19.81,2.5455,0.1,8.7085e-05,870.25,8.8014e-05,901.17,-2.3195e-05,65.582,-3.1927e-05,-0.027764,1.7144
4840,19.81,2.3636,0.1,8.7138e-05,870.78,8.8022e-05,899.94,-2.3551e-05,61.624,-3.1756e-05,-0.028685,1.7143
4841,19.81,2.1818,0.1,8.7209e-05,871.48,8.8033e-05,898.38,-2.4004e-05,56.585,-3.1539e-05,-0.029792,1.7142
4842,19.81,2,0.1,8.7296e-05,872.36,8.8047e-05,896.56,-2.4537e-05,50.655,-3.1283e-05,-0.030975,1.7142
4843,19.81,1.8182,0.1,8.7399e-05,873.39,8.8065e-05,894.57,-2.5131e-05,44.056,-3.0999e-05,-0.032089,1.7141
4844,19.81,1.6364,0.1,8.7517e-05,874.56,8.8087e-05,892.47,-2.5765e-05,37.029,-3.0698e-05,-0.032963,1.714
4845,19.81,1.4545,0.1,8.7648e-05,875.87,8.8116e-05,890.39,-2.6417e-05,29.825,-3.0391e-05,-0.033411,1.7138
4846,19.81,1.2727,0.1,8.779e-05,877.29,8.8153e-05,888.4,-2.7066e-05,22.689,-3.009e-05,-0.033246,1.7137
4847,19.81,1.0909,0.1,8.7943e-05,878.83,8.8202e-05,886.63,-2.7692e-05,15.851,-2.9806e-05,-0.032323,1.7135
4848,19.81,0.90909,0.1,8.8108e-05,880.47,8.8266e-05,885.17,-2.8278e-05,9.5109,-2.9548e-05,-0.030662,1.7134
4849,19.81,0.72727,0.1,8.8286e-05,882.25,8.835e-05,884.14,-2.8812e-05,3.8328,-2.9326e-05,-0.029564,1.7132
4850,19.81,0.54545,0.1,8.848e-05,884.19,8.8461e-05,883.64,-2.9144e-05,-0.0044557,-2.929e-05,-1.0962,1.7129
4851,19.81,0.36364,0.1,8.8705e-05,886.44,8.8615e-05,883.81,-2.9014e-05,-0.0092848,-2.9708e-05,-5.2243,1.7127
4852,19.81,0.18182,0.1,8.9136e-05,890.75,8.8967e-05,885.86,-2.8933e-05,0.0033887,-3.0224e-05,-9.7025,1.7124
4853,19.628,5.8182,0.1,9.2685e-05,926.21,9.2522e-05,921.48,-3.012e-05,0.0044334,-3.1369e-05,-9.3857,1.6861
4854,19.628,5.6364,0.1,9.2298e-05,922.34,9.2214e-05,919.89,-3.0217e-05,-0.0069606,-3.0865e-05,-4.8706,1.6864
4855,19.628,5.4545,0.1,9.211e-05,920.46,9.2103e-05,920.25,-3.0367e-05,0.066461,-3.044e-05,-0.48852,1.6866
4856,19.628,5.2727,0.1,9.1954e-05,918.91,9.2039e-05,921.42,-2.9918e-05,5.0767,-3.0599e-05,-0.03827,1.6869
4857,19.628,5.0909,0.1,9.1816e-05,917.53,9.2006e-05,923.21,-2.9333e-05,11.515,-3.0871e-05,-0.037309,1.6871
4858,19.628,4.9091,0.1,9.1692e-05,916.28,9.1996e-05,925.51,-2.8681e-05,18.79,-3.1187e-05,-0.03802,1.6873
4859,19.628,4.7273,0.1,9.1579e-05,915.16,9.2003e-05,928.2,-2.7979e-05,26.696,-3.1537e-05,-0.038248,1.6874
4860,19.628,4.5455,0.1,9.1479e-05,914.16,9.2023e-05,931.13,-2.7246e-05,34.986,-3.1907e-05,-0.037804,1.6876
4861,19.628,4.3636,0.1,9.139e-05,913.27,9.205e-05,934.17,-2.6507e-05,43.38,-3.2285e-05,-0.036803,1.6877
4862,19.628,4.1818,0.1,9.1314e-05,912.51,9.2082e-05,937.19,-2.5786e-05,51.583,-3.2656e-05,-0.035434,1.6878
4863,19.628,4,0.1,9.1252e-05,911.89,9.2115e-05,940.07,-2.5109e-05,59.295,-3.3005e-05,-0.033898,1.6879
4864,19.628,3.8182,0.1,9.1202e-05,911.39,9.2147e-05,942.68,-2.4501e-05,66.227,-3.332e-05,-0.032371,1.688
4865,19.628,3.6364,0.1,9.1164e-05,911.01,9.2176e-05,944.91,-2.3986e-05,72.118,-3.3588e-05,-0.031002,1.688
4866,19.628,3.4545,0.1,9.1137e-05,910.74,9.2199e-05,946.67,-2.3581e-05,76.744,-3.3799e-05,-0.029898,1.6881
4867,19.628,3.2727,0.1,9.112e-05,910.58,9.2216e-05,947.89,-2.3303e-05,79.928,-3.3944e-05,-0.02913,1.6881
4868,19.628,3.0909,0.1,9.1112e-05,910.5,9.2225e-05,948.51,-2.3161e-05,81.551,-3.4018e-05,-0.028736,1.6881
4869,19.628,2.9091,0.1,9.1112e-05,910.5,9.2225e-05,948.51,-2.3161e-05,81.551,-3.4018e-05,-0.028737,1.6881
4870,19.628,2.7273,0.1,9.112e-05,910.58,9.2216e-05,947.89,-2.3303e-05,79.928,-3.3944e-05,-0.029129,1.6881
4871,19.628,2.5455,0.1,9.1137e-05,910.74,9.2199e-05,946.67,-2.3581e-05,76.744,-3.3799e-05,-0.029898,1.6881
4872,19.628,2.3636,0.1,9.1164e-05,911.01,9.2176e-05,944.91,-2.3986e-05,72.118,-3.3588e-05,-0.031002,1.688
4873,19.628,2.1818,0.1,9.1202e-05,911.39,9.2147e-05,942.68,-2.4501e-05,66.227,-3.332e-05,-0.032371,1.688
4874,19.628,2,0.1,9.1252e-05,911.89,9.2115e-05,940.07,-2.5109e-05,59.295,-3.3005e-05,-0.033898,1.6879
4875,19.628,1.8182,0.1,9.1314e-05,912.51,9.2082e-05,937.19,-2.5786e-05,51.583,-3.2656e-05,-0.035434,1.6878
4876,19.628,1.6364,0.1,9.139e-05,913.27,9.205e-05,934.17,-2.6507e-05,43.38,-3.2285e-05,-0.036803,1.6877
4877,19.628,1.4545,0.1,9.1479e-05,914.16,9.2023e-05,931.13,-2.7246e-05,34.986,-3.1907e-05,-0.037804,1.6876
4878,19.628,1.2727,0.1,9.1579e-05,915.16,9.2003e-05,928.2,-2.7979e-05,26.696,-3.1537e-05,-0.038248,1.6874
4879,19.628,1.0909,0.1,9.1692e-05,916.28,9.1996e-05,925.51,-2.8681e-05,18.79,-3.1187e-05,-0.038021,1.6873
4880,19.628,0.90909,0.1,9.1816e-05,917.53,9.2006e-05,923.21,-2.9333e-05,11.515,-3.0871e-05,-0.037313,1.6871
4881,19.628,0.72727,0.1,9.1954e-05,918.91,9.2039e-05,921.42,-2.9918e-05,5.0767,-3.0599e-05,-0.038272,1.6869
4882,19.628,0.54545,0.1,9.211e-05,920.46,9.2103e-05,920.25,-3.0367e-05,0.066468,-3.044e-05,-0.48848,1.6866
4883,19.628,0.36364,0.1,9.2298e-05,922.34,9.2214e-05,919.89,-3.0217e-05,-0.0069609,-3.0865e-05,-4.8706,1.6864
4884,19.628,0.18182,0.1,9.2685e-05,926.21,9.2522e-05,921.48,-3.012e-05,0.0044353,-3.1369e-05,-9.3857,1.6861
4885,19.446,5.8182,0.1,9.6095e-05,960.28,9.5934e-05,955.61,-3.125e-05,0.0055513,-3.2486e-05,-9.2785,1.6599
4886,19.446,5.6364,0.1,9.5767e-05,957.01,9.5684e-05,954.59,-3.1364e-05,-0.0016569,-3.2006e-05,-4.8241,1.6602
4887,19.446,5.4545,0.1,9.5637e-05,955.71,9.5636e-05,955.66,-3.1522e-05,0.24756,-3.1602e-05,-0.35168,1.6604
4888,19.446,5.2727,0.1,9.5542e-05,954.76,9.5641e-05,957.69,-3.1028e-05,5.9514,-3.1827e-05,-0.051384,1.6606
4889,19.446,5.0909,0.1,9.5466e-05,954,9.5682e-05,960.5,-3.0398e-05,13.174,-3.2158e-05,-0.046714,1.6608
4890,19.446,4.9091,0.1,9.5406e-05,953.41,9.5752e-05,963.92,-2.9684e-05,21.441,-3.2544e-05,-0.045833,1.661
4891,19.446,4.7273,0.1,9.5361e-05,952.96,9.5843e-05,967.82,-2.8907e-05,30.497,-3.2972e-05,-0.044998,1.6612
4892,19.446,4.5455,0.1,9.533e-05,952.64,9.5947e-05,972.01,-2.809e-05,40.043,-3.3425e-05,-0.043692,1.6614
4893,19.446,4.3636,0.1,9.5311e-05,952.45,9.6059e-05,976.33,-2.7262e-05,49.741,-3.3888e-05,-0.041953,1.6615
4894,19.446,4.1818,0.1,9.5304e-05,952.38,9.6173e-05,980.6,-2.6453e-05,59.236,-3.4342e-05,-0.039961,1.6616
4895,19.446,4,0.1,9.5308e-05,952.42,9.6283e-05,984.65,-2.5693e-05,68.171,-3.4771e-05,-0.037914,1.6617
4896,19.446,3.8182,0.1,9.5319e-05,952.54,9.6386e-05,988.33,-2.5011e-05,76.204,-3.5157e-05,-0.035999,1.6618
4897,19.446,3.6364,0.1,9.5336e-05,952.7,9.6475e-05,991.48,-2.4432e-05,83.029,-3.5487e-05,-0.034355,1.6618
4898,19.446,3.4545,0.1,9.5353e-05,952.87,9.6547e-05,993.96,-2.3978e-05,88.385,-3.5745e-05,-0.033078,1.6619
4899,19.446,3.2727,0.1,9.5366e-05,953.01,9.6598e-05,995.68,-2.3666e-05,92.071,-3.5924e-05,-0.032213,1.6619
4900,19.446,3.0909,0.1,9.5374e-05,953.08,9.6624e-05,996.56,-2.3507e-05,93.949,-3.6015e-05,-0.031778,1.6619
4901,19.446,2.9091,0.1,9.5374e-05,953.08,9.6624e-05,996.56,-2.3507e-05,93.949,-3.6015e-05,-0.031778,1.6619
4902,19.446,2.7273,0.1,9.5366e-05,953.01,9.6598e-05,995.68,-2.3666e-05,92.071,-3.5924e-05,-0.032212,1.6619
4903,19.446,2.5455,0.1,9.5353e-05,952.87,9.6547e-05,993.96,-2.3978e-05,88.385,-3.5745e-05,-0.033078,1.6619
4904,19.446,2.3636,0.1,9.5336e-05,952.7,9.6475e-05,991.48,-2.4432e-05,83.029,-3.5487e-05,-0.034354,1.6618
4905,19.446,2.1818,0.1,9.5319e-05,952.54,9.6386e-05,988.33,-2.5011e-05,76.204,-3.5157e-05,-0.035998,1.6618
4906,19.446,2,0.1,9.5308e-05,952.42,9.6283e-05,984.65,-2.5693e-05,68.171,-3.4771e-05,-0.037914,1.6617
4907,19.446,1.8182,0.1,9.5304e-05,952.38,9.6173e-05,980.6,-2.6453e-05,59.236,-3.4342e-05,-0.039961,1.6616
4908,19.446,1.6364,0.1,9.5311e-05,952.45,9.6059e-05,976.33,-2.7262e-05,49.741,-3.3888e-05,-0.041954,1.6615
4909,19.446,1.4545,0.1,9.533e-05,952.64,9.5947e-05,972.01,-2.809e-05,40.043,-3.3425e-05,-0.043692,1.6614
4910,19.446,1.2727,0.1,9.5361e-05,952.96,9.5843e-05,967.82,-2.8907e-05,30.497,-3.2972e-05,-0.044997,1.6612
4911,19.446,1.0909,0.1,9.5406e-05,953.41,9.5752e-05,963.92,-2.9684e-05,21.441,-3.2544e-05,-0.045833,1.661
4912,19.446,0.90909,0.1,9.5466e-05,954,9.5682e-05,960.5,-3.0398e-05,13.174,-3.2158e-05,-0.046715,1.6608
4913,19.446,0.72727,0.1,9.5542e-05,954.76,9.5641e-05,957.69,-3.1028e-05,5.9515,-3.1827e-05,-0.051386,1.6606
4914,19.446,0.54545,0.1,9.5637e-05,955.71,9.5636e-05,955.66,-3.1522e-05,0.24757,-3.1602e-05,-0.35166,1.6604
4915,19.446,0.36364,0.1,9.5767e-05,957.01,9.5684e-05,954.59,-3.1364e-05,-0.0016571,-3.2006e-05,-4.8241,1.6602
4916,19.446,0.18182,0.1,9.6095e-05,960.28,9.5934e-05,955.61,-3.125e-05,0.005553,-3.2486e-05,-9.2785,1.6599
4917,19.264,5.8182,0.1,9.9322e-05,992.54,9.9159e-05,987.8,-3.2308e-05,0.0066016,-3.3562e-05,-9.4165,1.6337
4918,19.264,5.6364,0.1,9.9075e-05,990.07,9.8987e-05,987.49,-3.244e-05,0.0066465,-3.3124e-05,-5.1328,1.634
4919,19.264,5.4545,0.1,9.9026e-05,989.58,9.9023e-05,989.48,-3.2626e-05,0.32029,-3.2738e-05,-0.52209,1.6342
4920,19.264,5.2727,0.1,9.9017e-05,989.49,9.9123e-05,992.64,-3.2137e-05,6.4035,-3.2998e-05,-0.072201,1.6345
4921,19.264,5.0909,0.1,9.9033e-05,989.65,9.927e-05,996.76,-3.1469e-05,14.434,-3.3398e-05,-0.06028,1.6347
4922,19.264,4.9091,0.1,9.9071e-05,990.02,9.9452e-05,1001.7,-3.0699e-05,23.755,-3.3868e-05,-0.056621,1.6349
4923,19.264,4.7273,0.1,9.9127e-05,990.58,9.9661e-05,1007.1,-2.9849e-05,34.053,-3.4389e-05,-0.054091,1.635
4924,19.264,4.5455,0.1,9.9199e-05,991.31,9.9886e-05,1013,-2.8951e-05,44.967,-3.4942e-05,-0.051515,1.6352
4925,19.264,4.3636,0.1,9.9286e-05,992.18,0.00010012,1019,-2.8036e-05,56.092,-3.5508e-05,-0.048762,1.6353
4926,19.264,4.1818,0.1,9.9384e-05,993.16,0.00010035,1024.9,-2.714e-05,67.003,-3.6063e-05,-0.045951,1.6355
4927,19.264,4,0.1,9.9489e-05,994.2,0.00010058,1030.6,-2.6298e-05,77.278,-3.6588e-05,-0.043281,1.6355
4928,19.264,3.8182,0.1,9.9594e-05,995.26,0.00010078,1035.7,-2.5542e-05,86.514,-3.7062e-05,-0.040925,1.6356
4929,19.264,3.6364,0.1,9.9693e-05,996.24,0.00010096,1040,-2.4902e-05,94.356,-3.7465e-05,-0.039009,1.6357
4930,19.264,3.4545,0.1,9.9776e-05,997.08,0.0001011,1043.5,-2.4401e-05,100.5,-3.7782e-05,-0.037591,1.6357
4931,19.264,3.2727,0.1,9.9837e-05,997.68,0.0001012,1045.9,-2.4057e-05,104.73,-3.8001e-05,-0.036669,1.6358
4932,19.264,3.0909,0.1,9.9869e-05,998.01,0.00010126,1047.1,-2.3882e-05,106.88,-3.8112e-05,-0.036221,1.6358
4933,19.264,2.9091,0.1,9.9869e-05,998.01,0.00010126,1047.1,-2.3882e-05,106.88,-3.8112e-05,-0.03622,1.6358
4934,19.264,2.7273,0.1,9.9837e-05,997.68,0.0001012,1045.9,-2.4057e-05,104.73,-3.8001e-05,-0.03667,1.6358
4935,19.264,2.5455,0.1,9.9776e-05,997.08,0.0001011,1043.5,-2.4401e-05,100.5,-3.7782e-05,-0.037591,1.6357
4936,19.264,2.3636,0.1,9.9693e-05,996.24,0.00010096,1040,-2.4902e-05,94.356,-3.7465e-05,-0.039009,1.6357
4937,19.264,2.1818,0.1,9.9594e-05,995.26,0.00010078,1035.7,-2.5542e-05,86.514,-3.7062e-05,-0.040926,1.6356
4938,19.264,2,0.1,9.9489e-05,994.2,0.00010058,1030.6,-2.6298e-05,77.278,-3.6588e-05,-0.04328,1.6355
4939,19.264,1.8182,0.1,9.9384e-05,993.16,0.00010035,1024.9,-2.714e-05,67.003,-3.6063e-05,-0.045952,1.6355
4940,19.264,1.6364,0.1,9.9286e-05,992.18,0.00010012,1019,-2.8036e-05,56.092,-3.5508e-05,-0.048762,1.6353
4941,19.264,1.4545,0.1,9.9199e-05,991.31,9.9886e-05,1013,-2.8951e-05,44.967,-3.4942e-05,-0.051514,1.6352
4942,19.264,1.2727,0.1,9.9127e-05,990.58,9.9661e-05,1007.1,-2.9849e-05,34.053,-3.4389e-05,-0.054091,1.635
4943,19.264,1.0909,0.1,9.9071e-05,990.02,9.9452e-05,1001.7,-3.0699e-05,23.755,-3.3868e-05,-0.056622,1.6349
4944,19.264,0.90909,0.1,9.9033e-05,989.65,9.927e-05,996.76,-3.1469e-05,14.434,-3.3398e-05,-0.060281,1.6347
4945,19.264,0.72727,0.1,9.9017e-05,989.49,9.9123e-05,992.64,-3.2137e-05,6.4035,-3.2998e-05,-0.072203,1.6345
4946,19.264,0.54545,0.1,9.9026e-05,989.58,9.9023e-05,989.48,-3.2626e-05,0.3203,-3.2738e-05,-0.52206,1.6342
4947,19.264,0.36364,0.1,9.9075e-05,990.07,9.8987e-05,987.49,-3.244e-05,0.0066475,-3.3124e-05,-5.1328,1.634
4948,19.264,0.18182,0.1,9.9322e-05,992.54,9.9159e-05,987.8,-3.2308e-05,0.0066033,-3.3562e-05,-9.4165,1.6337
4949,19.081,5.8182,0.1,0.00010231,1022.4,0.00010214,1017.5,-3.3274e-05,0.0074382,-3.4585e-05,-9.8384,1.6076
4950,19.081,5.6364,0.1,0.00010217,1021,0.00010207,1018.1,-3.3425e-05,0.017382,-3.4205e-05,-5.8455,1.6079
4951,19.081,5.4545,0.1,0.00010223,1021.6,0.00010222,1021.2,-3.3662e-05,0.27383,-3.3837e-05,-1.0457,1.6081
4952,19.081,5.2727,0.1,0.00010234,1022.7,0.00010245,1025.8,-3.3234e-05,6.3799,-3.4097e-05,-0.10755,1.6084
4953,19.081,5.0909,0.1,0.00010249,1024.2,0.00010274,1031.7,-3.254e-05,15.238,-3.4579e-05,-0.080386,1.6086
4954,19.081,4.9091,0.1,0.00010266,1025.9,0.00010307,1038.5,-3.1721e-05,25.677,-3.5148e-05,-0.071708,1.6088
4955,19.081,4.7273,0.1,0.00010286,1027.9,0.00010344,1046,-3.0806e-05,37.315,-3.5781e-05,-0.066399,1.609
4956,19.081,4.5455,0.1,0.00010308,1030.1,0.00010384,1054.1,-2.9831e-05,49.716,-3.6456e-05,-0.061896,1.6091
4957,19.081,4.3636,0.1,0.00010332,1032.5,0.00010424,1062.3,-2.8833e-05,62.399,-3.7146e-05,-0.057693,1.6093
4958,19.081,4.1818,0.1,0.00010357,1035,0.00010464,1070.4,-2.7855e-05,74.859,-3.7825e-05,-0.053787,1.6094
4959,19.081,4,0.1,0.00010383,1037.5,0.00010503,1078.1,-2.6935e-05,86.595,-3.8467e-05,-0.05033,1.6095
4960,19.081,3.8182,0.1,0.00010407,1040,0.00010538,1085.1,-2.6111e-05,97.136,-3.9045e-05,-0.047479,1.6096
4961,19.081,3.6364,0.1,0.00010429,1042.2,0.00010568,1091.1,-2.5415e-05,106.07,-3.9539e-05,-0.045316,1.6096
4962,19.081,3.4545,0.1,0.00010447,1044,0.00010593,1095.9,-2.4873e-05,113.07,-3.9927e-05,-0.043829,1.6097
4963,19.081,3.2727,0.1,0.0001046,1045.3,0.0001061,1099.2,-2.4501e-05,117.87,-4.0195e-05,-0.042932,1.6097
4964,19.081,3.0909,0.1,0.00010467,1045.9,0.00010619,1100.9,-2.4313e-05,120.31,-4.0331e-05,-0.042519,1.6097
4965,19.081,2.9091,0.1,0.00010467,1045.9,0.00010619,1100.9,-2.4313e-05,120.31,-4.0331e-05,-0.04252,1.6097
4966,19.081,2.7273,0.1,0.0001046,1045.3,0.0001061,1099.2,-2.4501e-05,117.87,-4.0195e-05,-0.042931,1.6097
4967,19.081,2.5455,0.1,0.00010447,1044,0.00010593,1095.9,-2.4873e-05,113.07,-3.9927e-05,-0.043828,1.6097
4968,19.081,2.3636,0.1,0.00010429,1042.2,0.00010568,1091.1,-2.5415e-05,106.07,-3.9539e-05,-0.045316,1.6096
4969,19.081,2.1818,0.1,0.00010407,1040,0.00010538,1085.1,-2.6111e-05,97.136,-3.9045e-05,-0.047479,1.6096
4970,19.081,2,0.1,0.00010383,1037.5,0.00010503,1078.1,-2.6935e-05,86.595,-3.8467e-05,-0.05033,1.6095
4971,19.081,1.8182,0.1,0.00010357,1035,0.00010464,1070.4,-2.7855e-05,74.859,-3.7825e-05,-0.053787,1.6094
4972,19.081,1.6364,0.1,0.00010332,1032.5,0.00010424,1062.3,-2.8833e-05,62.399,-3.7146e-05,-0.057693,1.6093
4973,19.081,1.4545,0.1,0.00010308,1030.1,0.00010384,1054.1,-2.9831e-05,49.716,-3.6456e-05,-0.061897,1.6091
4974,19.081,1.2727,0.1,0.00010286,1027.9,0.00010344,1046,-3.0806e-05,37.315,-3.5781e-05,-0.0664,1.609
4975,19.081,1.0909,0.1,0.00010266,1025.9,0.00010307,1038.5,-3.1721e-05,25.677,-3.5148e-05,-0.071708,1.6088
4976,19.081,0.90909,0.1,0.00010249,1024.2,0.00010274,1031.7,-3.254e-05,15.238,-3.4579e-05,-0.080387,1.6086
4977,19.081,0.72727,0.1,0.00010234,1022.7,0.00010245,1025.8,-3.3234e-05,6.38,-3.4097e-05,-0.10755,1.6084
4978,19.081,0.54545,0.1,0.00010223,1021.6,0.00010222,1021.2,-3.3662e-05,0.27384,-3.3837e-05,-1.0457,1.6081
4979,19.081,0.36364,0.1,0.00010217,1021,0.00010207,1018.1,-3.3425e-05,0.017384,-3.4205e-05,-5.8455,1.6079
4980,19.081,0.18182,0.1,0.00010231,1022.4,0.00010214,1017.5,-3.3274e-05,0.0074393,-3.4585e-05,-9.8384,1.6076
4981,18.899,5.8182,0.1,0.000105,1049.3,0.00010482,1044,-3.4124e-05,0.0079613,-3.5534e-05,-10.584,1.5815
4982,18.899,5.6364,0.1,0.00010499,1049.2,0.00010487,1045.6,-3.4296e-05,0.029976,-3.5233e-05,-7.0104,1.5818
4983,18.899,5.4545,0.1,0.0001052,1051.2,0.00010516,1050.3,-3.4592e-05,0.22269,-3.49e-05,-2.0924,1.5821
4984,18.899,5.2727,0.1,0.00010547,1053.9,0.00010556,1056.7,-3.4307e-05,5.8367,-3.5107e-05,-0.17334,1.5823
4985,18.899,5.0909,0.1,0.00010579,1057.1,0.00010604,1064.7,-3.3603e-05,15.528,-3.5685e-05,-0.11117,1.5826
4986,18.899,4.9091,0.1,0.00010615,1060.8,0.00010658,1074,-3.2747e-05,27.147,-3.6373e-05,-0.09315,1.5828
4987,18.899,4.7273,0.1,0.00010655,1064.8,0.00010718,1084.3,-3.1777e-05,40.223,-3.7142e-05,-0.083188,1.5829
4988,18.899,4.5455,0.1,0.00010698,1069.1,0.0001078,1095.1,-3.0734e-05,54.237,-3.7963e-05,-0.075701,1.5831
4989,18.899,4.3636,0.1,0.00010744,1073.6,0.00010844,1106.2,-2.9662e-05,68.616,-3.8804e-05,-0.069376,1.5832
4990,18.899,4.1818,0.1,0.0001079,1078.3,0.00010907,1117.2,-2.861e-05,82.76,-3.9633e-05,-0.063944,1.5834
4991,18.899,4,0.1,0.00010836,1082.9,0.00010967,1127.7,-2.7622e-05,96.077,-4.0417e-05,-0.059468,1.5835
4992,18.899,3.8182,0.1,0.0001088,1087.2,0.00011023,1137.2,-2.6741e-05,108.02,-4.1125e-05,-0.056055,1.5835
4993,18.899,3.6364,0.1,0.00010919,1091.1,0.00011071,1145.3,-2.6001e-05,118.12,-4.1728e-05,-0.05371,1.5836
4994,18.899,3.4545,0.1,0.00010951,1094.3,0.0001111,1151.8,-2.5427e-05,126,-4.2203e-05,-0.052299,1.5837
4995,18.899,3.2727,0.1,0.00010974,1096.6,0.00011138,1156.4,-2.5036e-05,131.39,-4.253e-05,-0.051576,1.5837
4996,18.899,3.0909,0.1,0.00010986,1097.8,0.00011152,1158.7,-2.4838e-05,134.13,-4.2697e-05,-0.051297,1.5837
4997,18.899,2.9091,0.1,0.00010986,1097.8,0.00011152,1158.7,-2.4838e-05,134.13,-4.2697e-05,-0.051297,1.5837
4998,18.899,2.7273,0.1,0.00010974,1096.6,0.00011138,1156.4,-2.5036e-05,131.39,-4.253e-05,-0.051578,1.5837
4999,18.899,2.5455,0.1,0.00010951,1094.3,0.0001111,1151.8,-2.5427e-05,126,-4.2203e-05,-0.052298,1.5837
5000,18.899,2.3636,0.1,0.00010919,1091.1,0.00011071,1145.3,-2.6001e-05,118.12,-4.1728e-05,-0.053711,1.5836
5001,18.899,2.1818,0.1,0.0001088,1087.2,0.00011023,1137.2,-2.6741e-05,108.02,-4.1125e-05,-0.056054,1.5835
5002,18.899,2,0.1,0.00010836,1082.9,0.00010967,1127.7,-2.7622e-05,96.077,-4.0417e-05,-0.059468,1.5835
5003,18.899,1.8182,0.1,0.0001079,1078.3,0.00010907,1117.2,-2.861e-05,82.76,-3.9633e-05,-0.063945,1.5834
5004,18.899,1.6364,0.1,0.00010744,1073.6,0.00010844,1106.2,-2.9662e-05,68.616,-3.8804e-05,-0.069376,1.5832
5005,18.899,1.4545,0.1,0.00010698,1069.1,0.0001078,1095.1,-3.0734e-05,54.237,-3.7963e-05,-0.075701,1.5831
5006,18.899,1.2727,0.1,0.00010655,1064.8,0.00010718,1084.3,-3.1777e-05,40.223,-3.7142e-05,-0.083189,1.5829
5007,18.899,1.0909,0.1,0.00010615,1060.8,0.00010658,1074,-3.2747e-05,27.147,-3.6373e-05,-0.093151,1.5828
5008,18.899,0.90909,0.1,0.00010579,1057.1,0.00010604,1064.7,-3.3603e-05,15.528,-3.5685e-05,-0.11117,1.5826
5009,18.899,0.72727,0.1,0.00010547,1053.9,0.00010556,1056.7,-3.4307e-05,5.8367,-3.5107e-05,-0.17334,1.5823
5010,18.899,0.54545,0.1,0.0001052,1051.2,0.00010516,1050.3,-3.4592e-05,0.22269,-3.49e-05,-2.0924,1.5821
5011,18.899,0.36364,0.1,0.00010499,1049.2,0.00010487,1045.6,-3.4296e-05,0.02998,-3.5233e-05,-7.0104,1.5818
5012,18.899,0.18182,0.1,0.000105,1049.3,0.00010482,1044,-3.4124e-05,0.0079609,-3.5534e-05,-10.584,1.5815
5013,18.717,5.8182,0.1,0.0001073,1072.3,0.0001071,1066.4,-3.4828e-05,0.008122,-3.6386e-05,-11.695,1.5555
5014,18.717,5.6364,0.1,0.00010745,1073.8,0.0001073,1069.4,-3.5025e-05,0.044358,-3.6185e-05,-8.6711,1.5558
5015,18.717,5.4545,0.1,0.00010784,1077.7,0.00010778,1075.9,-3.5387e-05,0.19777,-3.5911e-05,-3.7431,1.5561
5016,18.717,5.2727,0.1,0.00010833,1082.5,0.0001084,1084.7,-3.5334e-05,4.7595,-3.6009e-05,-0.31348,1.5564
5017,18.717,5.0909,0.1,0.00010888,1088,0.00010913,1095.5,-3.4646e-05,15.243,-3.6696e-05,-0.16029,1.5566
5018,18.717,4.9091,0.1,0.0001095,1094.2,0.00010994,1107.9,-3.3771e-05,28.093,-3.7527e-05,-0.12428,1.5568
5019,18.717,4.7273,0.1,0.00011017,1100.9,0.00011083,1121.6,-3.2762e-05,42.701,-3.8459e-05,-0.10638,1.557
5020,18.717,4.5455,0.1,0.00011089,1108.1,0.00011176,1136.1,-3.1666e-05,58.453,-3.9458e-05,-0.094178,1.5572
5021,18.717,4.3636,0.1,0.00011164,1115.6,0.00011272,1151,-3.0534e-05,74.668,-4.0483e-05,-0.084674,1.5573
5022,18.717,4.1818,0.1,0.0001124,1123.2,0.00011366,1165.7,-2.9423e-05,90.634,-4.1495e-05,-0.077057,1.5574
5023,18.717,4,0.1,0.00011314,1130.6,0.00011457,1179.7,-2.8383e-05,105.65,-4.2454e-05,-0.07121,1.5575
5024,18.717,3.8182,0.1,0.00011385,1137.7,0.0001154,1192.5,-2.7463e-05,119.07,-4.3319e-05,-0.06715,1.5576
5025,18.717,3.6364,0.1,0.00011448,1144,0.00011614,1203.6,-2.6697e-05,130.37,-4.4057e-05,-0.064754,1.5577
5026,18.717,3.4545,0.1,0.000115,1149.2,0.00011673,1212.4,-2.6109e-05,139.15,-4.4637e-05,-0.063672,1.5577
5027,18.717,3.2727,0.1,0.00011536,1152.8,0.00011714,1218.5,-2.5713e-05,145.13,-4.5037e-05,-0.063394,1.5578
5028,18.717,3.0909,0.1,0.00011555,1154.7,0.00011736,1221.6,-2.5514e-05,148.16,-4.5241e-05,-0.063411,1.5578
5029,18.717,2.9091,0.1,0.00011555,1154.7,0.00011736,1221.6,-2.5514e-05,148.16,-4.5241e-05,-0.063412,1.5578
5030,18.717,2.7273,0.1,0.00011536,1152.8,0.00011714,1218.5,-2.5713e-05,145.13,-4.5037e-05,-0.063394,1.5578
5031,18.717,2.5455,0.1,0.000115,1149.2,0.00011673,1212.4,-2.6109e-05,139.15,-4.4637e-05,-0.063673,1.5577
5032,18.717,2.3636,0.1,0.00011448,1144,0.00011614,1203.6,-2.6697e-05,130.37,-4.4057e-05,-0.064754,1.5577
5033,18.717,2.1818,0.1,0.00011385,1137.7,0.0001154,1192.5,-2.7463e-05,119.07,-4.3319e-05,-0.06715,1.5576
5034,18.717,2,0.1,0.00011314,1130.6,0.00011457,1179.7,-2.8383e-05,105.65,-4.2454e-05,-0.071211,1.5575
5035,18.717,1.8182,0.1,0.0001124,1123.2,0.00011366,1165.7,-2.9423e-05,90.634,-4.1495e-05,-0.077055,1.5574
5036,18.717,1.6364,0.1,0.00011164,1115.6,0.00011272,1151,-3.0534e-05,74.668,-4.0483e-05,-0.084675,1.5573
5037,18.717,1.4545,0.1,0.00011089,1108.1,0.00011176,1136.1,-3.1666e-05,58.453,-3.9458e-05,-0.094178,1.5572
5038,18.717,1.2727,0.1,0.00011017,1100.9,0.00011083,1121.6,-3.2762e-05,42.701,-3.8459e-05,-0.10638,1.557
5039,18.717,1.0909,0.1,0.0001095,1094.2,0.00010994,1107.9,-3.3771e-05,28.093,-3.7527e-05,-0.12428,1.5568
5040,18.717,0.90909,0.1,0.00010888,1088,0.00010913,1095.5,-3.4646e-05,15.243,-3.6696e-05,-0.16029,1.5566
5041,18.717,0.72727,0.1,0.00010833,1082.5,0.0001084,1084.7,-3.5334e-05,4.7596,-3.6009e-05,-0.31348,1.5564
5042,18.717,0.54545,0.1,0.00010784,1077.7,0.00010778,1075.9,-3.5387e-05,0.19777,-3.5911e-05,-3.743,1.5561
5043,18.717,0.36364,0.1,0.00010745,1073.8,0.0001073,1069.4,-3.5025e-05,0.044359,-3.6185e-05,-8.6711,1.5558
5044,18.717,0.18182,0.1,0.0001073,1072.3,0.0001071,1066.4,-3.4828e-05,0.0081219,-3.6386e-05,-11.695,1.5555
5045,18.535,5.8182,0.1,0.00010911,1090.4,0.00010888,1083.7,-3.535e-05,0.0079399,-3.7109e-05,-13.209,1.5296
5046,18.535,5.6364,0.1,0.00010946,1093.8,0.00010927,1088.4,-3.5577e-05,0.061031,-3.7031e-05,-10.86,1.5299
5047,18.535,5.4545,0.1,0.00011009,1100.1,0.00010999,1097.2,-3.6014e-05,0.19295,-3.6842e-05,-6.0292,1.5302
5048,18.535,5.2727,0.1,0.00011084,1107.7,0.00011088,1108.9,-3.6273e-05,3.248,-3.6795e-05,-0.67996,1.5305
5049,18.535,5.0909,0.1,0.0001117,1116.2,0.00011193,1123.2,-3.565e-05,14.327,-3.7589e-05,-0.24288,1.5307
5050,18.535,4.9091,0.1,0.00011266,1125.8,0.00011311,1139.7,-3.4784e-05,28.428,-3.8591e-05,-0.17067,1.5309
5051,18.535,4.7273,0.1,0.0001137,1136.2,0.00011439,1157.8,-3.3761e-05,44.645,-3.9721e-05,-0.13897,1.5311
5052,18.535,4.5455,0.1,0.0001148,1147.2,0.00011573,1177,-3.2634e-05,62.251,-4.0935e-05,-0.11918,1.5313
5053,18.535,4.3636,0.1,0.00011594,1158.6,0.0001171,1196.7,-3.1465e-05,80.441,-4.2185e-05,-0.10481,1.5314
5054,18.535,4.1818,0.1,0.0001171,1170.2,0.00011846,1216.3,-3.0318e-05,98.361,-4.3422e-05,-0.093954,1.5316
5055,18.535,4,0.1,0.00011824,1181.6,0.00011978,1234.9,-2.9253e-05,115.17,-4.4593e-05,-0.086175,1.5317
5056,18.535,3.8182,0.1,0.00011932,1192.4,0.000121,1252.1,-2.8322e-05,130.13,-4.5652e-05,-0.081343,1.5318
5057,18.535,3.6364,0.1,0.00012028,1202,0.00012207,1266.9,-2.756e-05,142.64,-4.6554e-05,-0.079128,1.5318
5058,18.535,3.4545,0.1,0.00012107,1209.8,0.00012293,1278.7,-2.6986e-05,152.27,-4.7263e-05,-0.078819,1.5319
5059,18.535,3.2727,0.1,0.00012163,1215.4,0.00012354,1287,-2.6606e-05,158.8,-4.7751e-05,-0.079435,1.5319
5060,18.535,3.0909,0.1,0.00012192,1218.3,0.00012386,1291.2,-2.6417e-05,162.08,-4.8e-05,-0.080035,1.5319
5061,18.535,2.9091,0.1,0.00012192,1218.3,0.00012386,1291.2,-2.6417e-05,162.08,-4.8e-05,-0.080034,1.5319
5062,18.535,2.7273,0.1,0.00012163,1215.4,0.00012354,1287,-2.6606e-05,158.8,-4.7751e-05,-0.079435,1.5319
5063,18.535,2.5455,0.1,0.00012107,1209.8,0.00012293,1278.7,-2.6986e-05,152.27,-4.7263e-05,-0.078818,1.5319
5064,18.535,2.3636,0.1,0.00012028,1202,0.00012207,1266.9,-2.756e-05,142.64,-4.6554e-05,-0.079128,1.5318
5065,18.535,2.1818,0.1,0.00011932,1192.4,0.000121,1252.1,-2.8322e-05,130.13,-4.5652e-05,-0.081343,1.5318
5066,18.535,2,0.1,0.00011824,1181.6,0.00011978,1234.9,-2.9253e-05,115.17,-4.4593e-05,-0.086175,1.5317
5067,18.535,1.8182,0.1,0.0001171,1170.2,0.00011846,1216.3,-3.0318e-05,98.361,-4.3422e-05,-0.093954,1.5316
5068,18.535,1.6364,0.1,0.00011594,1158.6,0.0001171,1196.7,-3.1465e-05,80.441,-4.2185e-05,-0.10481,1.5314
5069,18.535,1.4545,0.1,0.0001148,1147.2,0.00011573,1177,-3.2634e-05,62.251,-4.0935e-05,-0.11918,1.5313
5070,18.535,1.2727,0.1,0.0001137,1136.2,0.00011439,1157.8,-3.3761e-05,44.645,-3.9721e-05,-0.13897,1.5311
5071,18.535,1.0909,0.1,0.00011266,1125.8,0.00011311,1139.7,-3.4784e-05,28.428,-3.8591e-05,-0.17067,1.5309
5072,18.535,0.90909,0.1,0.0001117,1116.2,0.00011193,1123.2,-3.565e-05,14.327,-3.7589e-05,-0.24289,1.5307
5073,18.535,0.72727,0.1,0.00011084,1107.7,0.00011088,1108.9,-3.6273e-05,3.2481,-3.6795e-05,-0.67995,1.5305
5074,18.535,0.54545,0.1,0.00011009,1100.1,0.00010999,1097.2,-3.6014e-05,0.19295,-3.6842e-05,-6.0292,1.5302
5075,18.535,0.36364,0.1,0.00010946,1093.8,0.00010927,1088.4,-3.5577e-05,0.06103,-3.7031e-05,-10.86,1.5299
5076,18.535,0.18182,0.1,0.00010911,1090.4,0.00010888,1083.7,-3.535e-05,0.0079405,-3.7109e-05,-13.209,1.5296
5077,18.353,5.8182,0.1,0.00011031,1102.3,0.00011004,1094.7,-3.5648e-05,0.0075212,-3.7666e-05,-15.154,1.5038
5078,18.353,5.6364,0.1,0.00011089,1108.2,0.00011066,1101.3,-3.5912e-05,0.080929,-3.7732e-05,-13.589,1.5041
5079,18.353,5.4545,0.1,0.00011182,1117.4,0.00011166,1113,-3.6438e-05,0.20307,-3.7658e-05,-8.9633,1.5044
5080,18.353,5.2727,0.1,0.00011292,1128.4,0.00011292,1128.4,-3.7021e-05,1.8051,-3.7504e-05,-1.8204,1.5046
5081,18.353,5.0909,0.1,0.00011418,1141,0.00011438,1147.1,-3.6593e-05,12.727,-3.8339e-05,-0.39224,1.5049
5082,18.353,4.9091,0.1,0.00011558,1155,0.00011602,1168.6,-3.5778e-05,28.034,-3.9541e-05,-0.24228,1.5051
5083,18.353,4.7273,0.1,0.0001171,1170.2,0.00011781,1192.4,-3.4776e-05,45.897,-4.0909e-05,-0.18588,1.5053
5084,18.353,4.5455,0.1,0.00011872,1186.3,0.00011969,1217.6,-3.3654e-05,65.454,-4.2386e-05,-0.15365,1.5055
5085,18.353,4.3636,0.1,0.00012039,1203.1,0.00012162,1243.6,-3.2481e-05,85.749,-4.3911e-05,-0.13163,1.5056
5086,18.353,4.1818,0.1,0.00012209,1220,0.00012354,1269.4,-3.1333e-05,105.75,-4.5423e-05,-0.11583,1.5058
5087,18.353,4,0.1,0.00012376,1236.7,0.0001254,1294.2,-3.028e-05,124.45,-4.6857e-05,-0.1052,1.5059
5088,18.353,3.8182,0.1,0.00012533,1252.4,0.00012713,1316.9,-2.9379e-05,140.96,-4.8153e-05,-0.099373,1.506
5089,18.353,3.6364,0.1,0.00012674,1266.5,0.00012866,1336.7,-2.8666e-05,154.61,-4.9255e-05,-0.097691,1.5061
5090,18.353,3.4545,0.1,0.00012789,1278.1,0.0001299,1352.5,-2.8148e-05,164.99,-5.0121e-05,-0.098866,1.5061
5091,18.353,3.2727,0.1,0.00012872,1286.3,0.00013077,1363.5,-2.7818e-05,171.94,-5.0716e-05,-0.10113,1.5062
5092,18.353,3.0909,0.1,0.00012915,1290.6,0.00013123,1369.2,-2.7659e-05,175.41,-5.1019e-05,-0.10277,1.5062
5093,18.353,2.9091,0.1,0.00012915,1290.6,0.00013123,1369.2,-2.7659e-05,175.41,-5.1019e-05,-0.10277,1.5062
5094,18.353,2.7273,0.1,0.00012872,1286.3,0.00013077,1363.5,-2.7818e-05,171.94,-5.0716e-05,-0.10113,1.5062
5095,18.353,2.5455,0.1,0.00012789,1278.1,0.0001299,1352.5,-2.8148e-05,164.99,-5.0121e-05,-0.098867,1.5061
5096,18.353,2.3636,0.1,0.00012674,1266.5,0.00012866,1336.7,-2.8666e-05,154.61,-4.9255e-05,-0.097692,1.5061
5097,18.353,2.1818,0.1,0.00012533,1252.4,0.00012713,1316.9,-2.9379e-05,140.96,-4.8153e-05,-0.099374,1.506
5098,18.353,2,0.1,0.00012376,1236.7,0.0001254,1294.2,-3.028e-05,124.45,-4.6857e-05,-0.1052,1.5059
5099,18.353,1.8182,0.1,0.00012209,1220,0.00012354,1269.4,-3.1333e-05,105.75,-4.5423e-05,-0.11583,1.5058
5100,18.353,1.6364,0.1,0.00012039,1203.1,0.00012162,1243.6,-3.2481e-05,85.749,-4.3911e-05,-0.13163,1.5056
5101,18.353,1.4545,0.1,0.00011872,1186.3,0.00011969,1217.6,-3.3654e-05,65.454,-4.2386e-05,-0.15365,1.5055
5102,18.353,1.2727,0.1,0.0001171,1170.2,0.00011781,1192.4,-3.4776e-05,45.897,-4.0909e-05,-0.18588,1.5053
5103,18.353,1.0909,0.1,0.00011558,1155,0.00011602,1168.6,-3.5778e-05,28.034,-3.9541e-05,-0.24228,1.5051
5104,18.353,0.90909,0.1,0.00011418,1141,0.00011438,1147.1,-3.6593e-05,12.727,-3.8339e-05,-0.39224,1.5049
5105,18.353,0.72727,0.1,0.00011292,1128.4,0.00011292,1128.4,-3.7021e-05,1.8051,-3.7504e-05,-1.8204,1.5046
5106,18.353,0.54545,0.1,0.00011182,1117.4,0.00011166,1113,-3.6438e-05,0.20307,-3.7658e-05,-8.9633,1.5044
5107,18.353,0.36364,0.1,0.00011089,1108.2,0.00011066,1101.3,-3.5912e-05,0.080929,-3.7732e-05,-13.589,1.5041
5108,18.353,0.18182,0.1,0.00011031,1102.3,0.00011004,1094.7,-3.5648e-05,0.0075225,-3.7666e-05,-15.154,1.5038
5109,18.171,5.8182,0.1,0.00011074,1106.7,0.00011043,1097.8,-3.5672e-05,0.0072257,-3.8008e-05,-17.546,1.478
5110,18.171,5.6364,0.1,0.0001116,1115.2,0.00011131,1106.8,-3.5982e-05,0.10541,-3.8237e-05,-16.836,1.4783
5111,18.171,5.4545,0.1,0.00011289,1128.1,0.00011267,1121.9,-3.6611e-05,0.22696,-3.8309e-05,-12.53,1.4786
5112,18.171,5.2727,0.1,0.00011443,1143.5,0.00011437,1141.8,-3.7448e-05,1.1059,-3.8187e-05,-4.4452,1.4789
5113,18.171,5.0909,0.1,0.0001162,1161.2,0.00011636,1166.1,-3.7441e-05,10.418,-3.892e-05,-0.69279,1.4792
5114,18.171,4.9091,0.1,0.00011819,1181.1,0.00011861,1194,-3.6743e-05,26.738,-4.0349e-05,-0.35852,1.4794
5115,18.171,4.7273,0.1,0.00012035,1202.7,0.00012106,1225,-3.5819e-05,46.209,-4.2003e-05,-0.25585,1.4796
5116,18.171,4.5455,0.1,0.00012264,1225.6,0.00012365,1257.9,-3.4752e-05,67.77,-4.3799e-05,-0.20248,1.4798
5117,18.171,4.3636,0.1,0.00012502,1249.3,0.00012631,1291.9,-3.3622e-05,90.291,-4.5662e-05,-0.16805,1.4799
5118,18.171,4.1818,0.1,0.00012743,1273.4,0.00012897,1325.8,-3.252e-05,112.51,-4.7513e-05,-0.14436,1.4801
5119,18.171,4,0.1,0.0001298,1297.1,0.00013155,1358.5,-3.1532e-05,133.16,-4.9271e-05,-0.12921,1.4802
5120,18.171,3.8182,0.1,0.00013205,1319.6,0.00013396,1388.6,-3.0723e-05,151.17,-5.0858e-05,-0.12196,1.4803
5121,18.171,3.6364,0.1,0.00013406,1339.6,0.0001361,1414.8,-3.0123e-05,165.81,-5.2207e-05,-0.12143,1.4804
5122,18.171,3.4545,0.1,0.00013571,1356.2,0.00013785,1435.8,-2.9726e-05,176.72,-5.3263e-05,-0.12526,1.4804
5123,18.171,3.2727,0.1,0.00013689,1368,0.00013909,1450.6,-2.9497e-05,183.88,-5.3987e-05,-0.13036,1.4805
5124,18.171,3.0909,0.1,0.00013751,1374.2,0.00013973,1458.2,-2.9395e-05,187.4,-5.4354e-05,-0.13379,1.4805
5125,18.171,2.9091,0.1,0.00013751,1374.2,0.00013973,1458.2,-2.9395e-05,187.4,-5.4354e-05,-0.13379,1.4805
5126,18.171,2.7273,0.1,0.00013689,1368,0.00013909,1450.6,-2.9497e-05,183.88,-5.3987e-05,-0.13036,1.4805
5127,18.171,2.5455,0.1,0.00013571,1356.2,0.00013785,1435.8,-2.9726e-05,176.72,-5.3263e-05,-0.12526,1.4804
5128,18.171,2.3636,0.1,0.00013406,1339.6,0.0001361,1414.8,-3.0123e-05,165.81,-5.2207e-05,-0.12143,1.4804
5129,18.171,2.1818,0.1,0.00013205,1319.6,0.00013396,1388.6,-3.0723e-05,151.17,-5.0858e-05,-0.12196,1.4803
5130,18.171,2,0.1,0.0001298,1297.1,0.00013155,1358.5,-3.1532e-05,133.16,-4.9271e-05,-0.12921,1.4802
5131,18.171,1.8182,0.1,0.00012743,1273.4,0.00012897,1325.8,-3.252e-05,112.51,-4.7513e-05,-0.14436,1.4801
5132,18.171,1.6364,0.1,0.00012502,1249.3,0.00012631,1291.9,-3.3622e-05,90.291,-4.5662e-05,-0.16805,1.4799
5133,18.171,1.4545,0.1,0.00012264,1225.6,0.00012365,1257.9,-3.4752e-05,67.77,-4.3799e-05,-0.20248,1.4798
5134,18.171,1.2727,0.1,0.00012035,1202.7,0.00012106,1225,-3.5819e-05,46.209,-4.2003e-05,-0.25585,1.4796
5135,18.171,1.0909,0.1,0.00011819,1181.1,0.00011861,1194,-3.6743e-05,26.738,-4.0349e-05,-0.35852,1.4794
5136,18.171,0.90909,0.1,0.0001162,1161.2,0.00011636,1166.1,-3.7441e-05,10.418,-3.892e-05,-0.69278,1.4792
5137,18.171,0.72727,0.1,0.00011443,1143.5,0.00011437,1141.8,-3.7448e-05,1.1059,-3.8187e-05,-4.4452,1.4789
5138,18.171,0.54545,0.1,0.00011289,1128.1,0.00011267,1121.9,-3.6611e-05,0.22696,-3.8309e-05,-12.53,1.4786
5139,18.171,0.36364,0.1,0.0001116,1115.2,0.00011131,1106.8,-3.5982e-05,0.10541,-3.8237e-05,-16.836,1.4783
5140,18.171,0.18182,0.1,0.00011074,1106.7,0.00011043,1097.8,-3.5672e-05,0.0072274,-3.8008e-05,-17.546,1.478
5141,17.988,5.8182,0.1,0.00011023,1101.6,0.00010987,1091.2,-3.5362e-05,0.0080358,-3.8074e-05,-20.371,1.4523
5142,17.988,5.6364,0.1,0.00011141,1113.3,0.00011105,1103,-3.5731e-05,0.13645,-3.8481e-05,-20.526,1.4526
5143,17.988,5.4545,0.1,0.00011313,1130.6,0.00011285,1122.3,-3.6483e-05,0.26642,-3.8738e-05,-16.672,1.4529
5144,17.988,5.2727,0.1,0.00011523,1151.5,0.0001151,1147.8,-3.7539e-05,0.88819,-3.8764e-05,-8.3219,1.4532
5145,17.988,5.0909,0.1,0.00011767,1175.9,0.00011777,1178.9,-3.8134e-05,7.4931,-3.9319e-05,-1.4038,1.4535
5146,17.988,4.9091,0.1,0.00012042,1203.3,0.0001208,1215,-3.7675e-05,24.272,-4.098e-05,-0.56253,1.4537
5147,17.988,4.7273,0.1,0.00012341,1233.3,0.00012411,1255,-3.6913e-05,45.165,-4.2973e-05,-0.36617,1.4539
5148,17.988,4.5455,0.1,0.0001266,1265.1,0.00012762,1297.9,-3.5975e-05,68.71,-4.5156e-05,-0.2749,1.4541
5149,17.988,4.3636,0.1,0.0001299,1298.1,0.00013123,1342.2,-3.4954e-05,93.559,-4.7435e-05,-0.21947,1.4543
5150,17.988,4.1818,0.1,0.00013325,1331.6,0.00013486,1386.6,-3.3962e-05,118.13,-4.9708e-05,-0.18277,1.4545
5151,17.988,4,0.1,0.00013655,1364.6,0.0001384,1429.4,-3.3109e-05,140.79,-5.1869e-05,-0.16033,1.4546
5152,17.988,3.8182,0.1,0.00013969,1395.9,0.00014172,1469,-3.2475e-05,160.2,-5.3817e-05,-0.15064,1.4547
5153,17.988,3.6364,0.1,0.00014251,1424.1,0.00014467,1503.6,-3.2084e-05,175.53,-5.5466e-05,-0.15172,1.4548
5154,17.988,3.4545,0.1,0.00014483,1447.3,0.0001471,1531.5,-3.1898e-05,186.57,-5.675e-05,-0.15985,1.4548
5155,17.988,3.2727,0.1,0.00014649,1463.9,0.00014882,1551,-3.1843e-05,193.55,-5.7626e-05,-0.16958,1.4549
5156,17.988,3.0909,0.1,0.00014736,1472.6,0.00014972,1561,-3.1841e-05,196.9,-5.807e-05,-0.1759,1.4549
5157,17.988,2.9091,0.1,0.00014736,1472.6,0.00014972,1561,-3.1841e-05,196.9,-5.807e-05,-0.1759,1.4549
5158,17.988,2.7273,0.1,0.00014649,1463.9,0.00014882,1551,-3.1843e-05,193.55,-5.7626e-05,-0.16958,1.4549
5159,17.988,2.5455,0.1,0.00014483,1447.3,0.0001471,1531.5,-3.1898e-05,186.57,-5.675e-05,-0.15985,1.4548
5160,17.988,2.3636,0.1,0.00014251,1424.1,0.00014467,1503.6,-3.2084e-05,175.53,-5.5466e-05,-0.15172,1.4548
5161,17.988,2.1818,0.1,0.00013969,1395.9,0.00014172,1469,-3.2475e-05,160.2,-5.3817e-05,-0.15064,1.4547
5162,17.988,2,0.1,0.00013655,1364.6,0.0001384,1429.4,-3.3109e-05,140.79,-5.1869e-05,-0.16033,1.4546
5163,17.988,1.8182,0.1,0.00013325,1331.6,0.00013486,1386.6,-3.3962e-05,118.13,-4.9708e-05,-0.18276,1.4545
5164,17.988,1.6364,0.1,0.0001299,1298.1,0.00013123,1342.2,-3.4954e-05,93.559,-4.7435e-05,-0.21947,1.4543
5165,17.988,1.4545,0.1,0.0001266,1265.1,0.00012762,1297.9,-3.5975e-05,68.71,-4.5156e-05,-0.2749,1.4541
5166,17.988,1.2727,0.1,0.00012341,1233.3,0.00012411,1255,-3.6913e-05,45.165,-4.2973e-05,-0.36617,1.4539
5167,17.988,1.0909,0.1,0.00012042,1203.3,0.0001208,1215,-3.7675e-05,24.272,-4.098e-05,-0.56253,1.4537
5168,17.988,0.90909,0.1,0.00011767,1175.9,0.00011777,1178.9,-3.8134e-05,7.4931,-3.9319e-05,-1.4038,1.4535
5169,17.988,0.72727,0.1,0.00011523,1151.5,0.0001151,1147.8,-3.7539e-05,0.88819,-3.8764e-05,-8.3218,1.4532
5170,17.988,0.54545,0.1,0.00011313,1130.6,0.00011285,1122.3,-3.6483e-05,0.26642,-3.8738e-05,-16.672,1.4529
5171,17.988,0.36364,0.1,0.00011141,1113.3,0.00011105,1103,-3.5731e-05,0.13645,-3.8481e-05,-20.526,1.4526
5172,17.988,0.18182,0.1,0.00011023,1101.6,0.00010987,1091.2,-3.5362e-05,0.0080357,-3.8074e-05,-20.371,1.4523
5173,17.806,5.8182,0.1,0.00010857,1085,0.00010815,1073,-3.4654e-05,0.012541,-3.7792e-05,-23.567,1.4267
5174,17.806,5.6364,0.1,0.0001101,1100.2,0.00010967,1087.9,-3.5097e-05,0.17741,-3.8383e-05,-24.508,1.427
5175,17.806,5.4545,0.1,0.00011236,1122.8,0.00011199,1112.2,-3.5992e-05,0.32619,-3.8868e-05,-21.279,1.4273
5176,17.806,5.2727,0.1,0.00011515,1150.7,0.00011493,1144.5,-3.7273e-05,0.84713,-3.9141e-05,-13.182,1.4276
5177,17.806,5.0909,0.1,0.00011844,1183.6,0.00011846,1184.2,-3.8536e-05,4.5555,-3.9594e-05,-3.395,1.4279
5178,17.806,4.9091,0.1,0.00012218,1220.9,0.00012249,1230.4,-3.8575e-05,20.231,-4.1397e-05,-0.9718,1.4282
5179,17.806,4.7273,0.1,0.00012627,1261.8,0.00012692,1282,-3.8108e-05,42.067,-4.3781e-05,-0.55638,1.4284
5180,17.806,4.5455,0.1,0.00013062,1305.3,0.00013163,1337.5,-3.7407e-05,67.437,-4.6434e-05,-0.38989,1.4286
5181,17.806,4.3636,0.1,0.00013514,1350.4,0.00013649,1395.1,-3.6585e-05,94.699,-4.9228e-05,-0.29563,1.4288
5182,17.806,4.1818,0.1,0.00013972,1396.2,0.00014139,1453,-3.5786e-05,121.81,-5.2029e-05,-0.23525,1.4289
5183,17.806,4,0.1,0.00014425,1441.5,0.00014618,1509.1,-3.516e-05,146.57,-5.4694e-05,-0.19884,1.4291
5184,17.806,3.8182,0.1,0.00014857,1484.7,0.0001507,1561.1,-3.4814e-05,167.19,-5.709e-05,-0.18491,1.4292
5185,17.806,3.6364,0.1,0.00015246,1523.5,0.00015474,1606.5,-3.476e-05,182.73,-5.9105e-05,-0.1898,1.4293
5186,17.806,3.4545,0.1,0.00015567,1555.6,0.00015805,1643.1,-3.4917e-05,193.23,-6.0661e-05,-0.20507,1.4293
5187,17.806,3.2727,0.1,0.00015797,1578.6,0.00016041,1668.7,-3.5143e-05,199.42,-6.1713e-05,-0.22188,1.4294
5188,17.806,3.0909,0.1,0.00015917,1590.6,0.00016164,1681.9,-3.5298e-05,202.22,-6.2242e-05,-0.23252,1.4294
5189,17.806,2.9091,0.1,0.00015917,1590.6,0.00016164,1681.9,-3.5298e-05,202.22,-6.2242e-05,-0.23252,1.4294
5190,17.806,2.7273,0.1,0.00015797,1578.6,0.00016041,1668.7,-3.5143e-05,199.42,-6.1713e-05,-0.22188,1.4294
5191,17.806,2.5455,0.1,0.00015567,1555.6,0.00015805,1643.1,-3.4917e-05,193.23,-6.0661e-05,-0.20507,1.4293
5192,17.806,2.3636,0.1,0.00015246,1523.5,0.00015474,1606.5,-3.476e-05,182.73,-5.9105e-05,-0.1898,1.4293
5193,17.806,2.1818,0.1,0.00014857,1484.7,0.0001507,1561.1,-3.4814e-05,167.19,-5.709e-05,-0.18491,1.4292
5194,17.806,2,0.1,0.00014425,1441.5,0.00014618,1509.1,-3.516e-05,146.57,-5.4694e-05,-0.19884,1.4291
5195,17.806,1.8182,0.1,0.00013972,1396.2,0.00014139,1453,-3.5786e-05,121.81,-5.2029e-05,-0.23525,1.4289
5196,17.806,1.6364,0.1,0.00013514,1350.4,0.00013649,1395.1,-3.6585e-05,94.699,-4.9228e-05,-0.29563,1.4288
5197,17.806,1.4545,0.1,0.00013062,1305.3,0.00013163,1337.5,-3.7407e-05,67.437,-4.6434e-05,-0.38989,1.4286
5198,17.806,1.2727,0.1,0.00012627,1261.8,0.00012692,1282,-3.8108e-05,42.067,-4.3781e-05,-0.55638,1.4284
5199,17.806,1.0909,0.1,0.00012218,1220.9,0.00012249,1230.4,-3.8575e-05,20.231,-4.1397e-05,-0.9718,1.4282
5200,17.806,0.90909,0.1,0.00011844,1183.6,0.00011846,1184.2,-3.8536e-05,4.5555,-3.9594e-05,-3.395,1.4279
5201,17.806,0.72727,0.1,0.00011515,1150.7,0.00011493,1144.5,-3.7273e-05,0.84713,-3.9141e-05,-13.182,1.4276
5202,17.806,0.54545,0.1,0.00011236,1122.8,0.00011199,1112.2,-3.5992e-05,0.32619,-3.8868e-05,-21.279,1.4273
5203,17.806,0.36364,0.1,0.0001101,1100.2,0.00010967,1087.9,-3.5097e-05,0.17741,-3.8383e-05,-24.508,1.427
5204,17.806,0.18182,0.1,0.00010857,1085,0.00010815,1073,-3.4654e-05,0.012541,-3.7792e-05,-23.567,1.4267
5205,17.624,5.8182,0.1,0.00010553,1054.6,0.00010505,1040.8,-3.3476e-05,0.026631,-3.7074e-05,-27.008,1.4011
5206,17.624,5.6364,0.1,0.00010744,1073.6,0.00010693,1059.2,-3.4012e-05,0.23439,-3.7841e-05,-28.532,1.4015
5207,17.624,5.4545,0.1,0.00011033,1102.6,0.00010987,1089.4,-3.507e-05,0.41467,-3.861e-05,-26.181,1.4018
5208,17.624,5.2727,0.1,0.00011399,1139.1,0.00011367,1129.9,-3.6596e-05,0.89156,-3.9245e-05,-19.013,1.4021
5209,17.624,5.0909,0.1,0.00011837,1182.9,0.00011828,1180.1,-3.842e-05,2.7697,-3.9893e-05,-8.2957,1.4024
5210,17.624,4.9091,0.1,0.0001234,1233.1,0.00012359,1239.1,-3.9435e-05,14.157,-4.1589e-05,-2.0284,1.4027
5211,17.624,4.7273,0.1,0.00012892,1288.3,0.00012948,1305.3,-3.9497e-05,35.759,-4.4381e-05,-0.9425,1.4029
5212,17.624,4.5455,0.1,0.00013481,1347.1,0.00013575,1377,-3.9196e-05,62.52,-4.7597e-05,-0.59691,1.4031
5213,17.624,4.3636,0.1,0.00014091,1408.2,0.00014225,1451.8,-3.8696e-05,92.257,-5.1031e-05,-0.42246,1.4033
5214,17.624,4.1818,0.1,0.00014711,1470.1,0.0001488,1527.2,-3.8192e-05,122.23,-5.4502e-05,-0.31746,1.4035
5215,17.624,4,0.1,0.00015326,1531.5,0.00015524,1600.5,-3.7906e-05,149.29,-5.7809e-05,-0.25882,1.4036
5216,17.624,3.8182,0.1,0.00015912,1590.1,0.00016133,1668.5,-3.7993e-05,170.87,-6.0766e-05,-0.23529,1.4038
5217,17.624,3.6364,0.1,0.00016442,1643.1,0.00016679,1728,-3.8457e-05,185.85,-6.3224e-05,-0.2396,1.4039
5218,17.624,3.4545,0.1,0.0001688,1686.8,0.00017126,1775.6,-3.9137e-05,194.75,-6.5093e-05,-0.26395,1.404
5219,17.624,3.2727,0.1,0.00017192,1718,0.00017443,1808.8,-3.979e-05,199.18,-6.6337e-05,-0.29083,1.404
5220,17.624,3.0909,0.1,0.00017355,1734.3,0.00017608,1825.8,-4.0184e-05,200.85,-6.6956e-05,-0.30704,1.404
5221,17.624,2.9091,0.1,0.00017355,1734.3,0.00017608,1825.8,-4.0184e-05,200.85,-6.6956e-05,-0.30705,1.404
5222,17.624,2.7273,0.1,0.00017192,1718,0.00017443,1808.8,-3.979e-05,199.18,-6.6337e-05,-0.29083,1.404
5223,17.624,2.5455,0.1,0.0001688,1686.8,0.00017126,1775.6,-3.9137e-05,194.75,-6.5093e-05,-0.26395,1.404
5224,17.624,2.3636,0.1,0.00016442,1643.1,0.00016679,1728,-3.8457e-05,185.85,-6.3224e-05,-0.2396,1.4039
5225,17.624,2.1818,0.1,0.00015912,1590.1,0.00016133,1668.5,-3.7993e-05,170.87,-6.0766e-05,-0.23529,1.4038
5226,17.624,2,0.1,0.00015326,1531.5,0.00015524,1600.5,-3.7906e-05,149.29,-5.7809e-05,-0.25882,1.4036
5227,17.624,1.8182,0.1,0.00014711,1470.1,0.0001488,1527.2,-3.8192e-05,122.23,-5.4502e-05,-0.31746,1.4035
5228,17.624,1.6364,0.1,0.00014091,1408.2,0.00014225,1451.8,-3.8696e-05,92.257,-5.1031e-05,-0.42246,1.4033
5229,17.624,1.4545,0.1,0.00013481,1347.1,0.00013575,1377,-3.9196e-05,62.52,-4.7597e-05,-0.59691,1.4031
5230,17.624,1.2727,0.1,0.00012892,1288.3,0.00012948,1305.3,-3.9497e-05,35.759,-4.4381e-05,-0.9425,1.4029
5231,17.624,1.0909,0.1,0.0001234,1233.1,0.00012359,1239.1,-3.9435e-05,14.157,-4.1589e-05,-2.0284,1.4027
5232,17.624,0.90909,0.1,0.00011837,1182.9,0.00011828,1180.1,-3.842e-05,2.7697,-3.9893e-05,-8.2957,1.4024
5233,17.624,0.72727,0.1,0.00011399,1139.1,0.00011367,1129.9,-3.6596e-05,0.89156,-3.9245e-05,-19.013,1.4021
5234,17.624,0.54545,0.1,0.00011033,1102.6,0.00010987,1089.4,-3.507e-05,0.41467,-3.861e-05,-26.181,1.4018
5235,17.624,0.36364,0.1,0.00010744,1073.6,0.00010693,1059.2,-3.4012e-05,0.23439,-3.7841e-05,-28.532,1.4015
5236,17.624,0.18182,0.1,0.00010553,1054.6,0.00010505,1040.8,-3.3476e-05,0.02663,-3.7074e-05,-27.008,1.4011
5237,17.442,5.8182,0.1,0.00010085,1007.8,0.0001003,992.29,-3.1756e-05,0.064395,-3.5819e-05,-30.467,1.3756
5238,17.442,5.6364,0.1,0.00010316,1030.9,0.00010258,1014.6,-3.2407e-05,0.32079,-3.674e-05,-32.234,1.376
5239,17.442,5.4545,0.1,0.00010681,1067.3,0.00010625,1051.7,-3.3645e-05,0.54716,-3.7866e-05,-31.169,1.3763
5240,17.442,5.2727,0.1,0.00011154,1114.7,0.0001111,1101.9,-3.5431e-05,0.9968,-3.9023e-05,-25.988,1.3767
5241,17.442,5.0909,0.1,0.00011733,1172.4,0.00011706,1164.9,-3.7708e-05,2.0547,-4.0223e-05,-16.841,1.377
5242,17.442,4.9091,0.1,0.00012402,1239.3,0.00012403,1239.7,-4.0038e-05,6.9485,-4.1783e-05,-6.1591,1.3772
5243,17.442,4.7273,0.1,0.00013142,1313.3,0.00013179,1324.4,-4.121e-05,24.568,-4.4749e-05,-2.024,1.3775
5244,17.442,4.5455,0.1,0.00013933,1392.3,0.00014011,1416.8,-4.1592e-05,51.564,-4.8595e-05,-1.0514,1.3777
5245,17.442,4.3636,0.1,0.00014752,1474.2,0.00014875,1513.9,-4.159e-05,83.764,-5.2826e-05,-0.65522,1.378
5246,17.442,4.1818,0.1,0.00015584,1557.3,0.00015749,1612.4,-4.1502e-05,117.2,-5.716e-05,-0.44146,1.3782
5247,17.442,4,0.1,0.0001641,1639.9,0.0001661,1708.3,-4.1685e-05,147.07,-6.13e-05,-0.31473,1.3783
5248,17.442,3.8182,0.1,0.00017201,1718.9,0.00017426,1797.2,-4.2392e-05,169.35,-6.4967e-05,-0.27382,1.3785
5249,17.442,3.6364,0.1,0.00017914,1790.2,0.00018154,1874.3,-4.3612e-05,182.62,-6.7957e-05,-0.3018,1.3786
5250,17.442,3.4545,0.1,0.000185,1848.8,0.00018748,1935.5,-4.5061e-05,188.31,-7.0169e-05,-0.34369,1.3787
5251,17.442,3.2727,0.1,0.00018915,1890.2,0.00019165,1977.6,-4.6331e-05,189.49,-7.1601e-05,-0.37998,1.3787
5252,17.442,3.0909,0.1,0.00019129,1911.6,0.0001938,1998.9,-4.7065e-05,189.19,-7.2298e-05,-0.40101,1.3788
5253,17.442,2.9091,0.1,0.00019129,1911.6,0.0001938,1998.9,-4.7065e-05,189.19,-7.2298e-05,-0.40101,1.3788
5254,17.442,2.7273,0.1,0.00018915,1890.2,0.00019165,1977.6,-4.6331e-05,189.49,-7.1601e-05,-0.37998,1.3787
5255,17.442,2.5455,0.1,0.000185,1848.8,0.00018748,1935.5,-4.5061e-05,188.31,-7.0169e-05,-0.34369,1.3787
5256,17.442,2.3636,0.1,0.00017914,1790.2,0.00018154,1874.3,-4.3612e-05,182.62,-6.7957e-05,-0.3018,1.3786
5257,17.442,2.1818,0.1,0.00017201,1718.9,0.00017426,1797.2,-4.2392e-05,169.35,-6.4967e-05,-0.27382,1.3785
5258,17.442,2,0.1,0.0001641,1639.9,0.0001661,1708.3,-4.1685e-05,147.07,-6.13e-05,-0.31473,1.3783
5259,17.442,1.8182,0.1,0.00015584,1557.3,0.00015749,1612.4,-4.1502e-05,117.2,-5.716e-05,-0.44146,1.3782
5260,17.442,1.6364,0.1,0.00014752,1474.2,0.00014875,1513.9,-4.159e-05,83.764,-5.2826e-05,-0.65522,1.378
5261,17.442,1.4545,0.1,0.00013933,1392.3,0.00014011,1416.8,-4.1592e-05,51.564,-4.8595e-05,-1.0514,1.3777
5262,17.442,1.2727,0.1,0.00013142,1313.3,0.00013179,1324.4,-4.121e-05,24.568,-4.4749e-05,-2.024,1.3775
5263,17.442,1.0909,0.1,0.00012402,1239.3,0.00012403,1239.7,-4.0038e-05,6.9485,-4.1783e-05,-6.1591,1.3772
5264,17.442,0.90909,0.1,0.00011733,1172.4,0.00011706,1164.9,-3.7708e-05,2.0547,-4.0223e-05,-16.841,1.377
5265,17.442,0.72727,0.1,0.00011154,1114.7,0.0001111,1101.9,-3.5431e-05,0.9968,-3.9023e-05,-25.988,1.3767
5266,17.442,0.54545,0.1,0.00010681,1067.3,0.00010625,1051.7,-3.3645e-05,0.54716,-3.7866e-05,-31.169,1.3763
5267,17.442,0.36364,0.1,0.00010316,1030.9,0.00010258,1014.6,-3.2407e-05,0.32079,-3.674e-05,-32.234,1.376
5268,17.442,0.18182,0.1,0.00010085,1007.8,0.0001003,992.29,-3.1756e-05,0.064396,-3.5819e-05,-30.467,1.3756
5269,17.26,5.8182,0.1,9.4286e-05,942.2,9.3671e-05,925.03,-2.9422e-05,0.15278,-3.3914e-05,-33.599,1.3502
5270,17.26,5.6364,0.1,9.7003e-05,969.36,9.6364e-05,951.52,-3.0215e-05,0.46229,-3.4956e-05,-35.159,1.3506
5271,17.26,5.4545,0.1,0.00010154,1014.7,0.00010089,996.56,-3.1643e-05,0.74551,-3.6545e-05,-36.092,1.3509
5272,17.26,5.2727,0.1,0.00010763,1075.6,0.00010702,1058.4,-3.3694e-05,1.1519,-3.8451e-05,-34.592,1.3513
5273,17.26,5.0909,0.1,0.00011519,1151.1,0.00011468,1136.8,-3.6376e-05,1.7744,-4.0584e-05,-29.841,1.3516
5274,17.26,4.9091,0.1,0.00012404,1239.5,0.00012373,1230.7,-3.9644e-05,3.1983,-4.2801e-05,-20.521,1.3519
5275,17.26,4.7273,0.1,0.00013391,1338.2,0.00013392,1338.6,-4.3004e-05,9.2694,-4.5335e-05,-8.2451,1.3522
5276,17.26,4.5455,0.1,0.00014448,1443.8,0.00014493,1457.7,-4.4937e-05,31.077,-4.943e-05,-2.6812,1.3525
5277,17.26,4.3636,0.1,0.00015544,1553.3,0.00015642,1584.1,-4.5762e-05,65.038,-5.459e-05,-1.2951,1.3527
5278,17.26,4.1818,0.1,0.00016657,1664.6,0.00016807,1713.3,-4.6241e-05,103.06,-6.0056e-05,-0.74633,1.3529
5279,17.26,4,0.1,0.00017764,1775.2,0.00017956,1839.4,-4.7024e-05,136.9,-6.5317e-05,-0.54037,1.3531
5280,17.26,3.8182,0.1,0.00018824,1881.1,0.00019044,1955.7,-4.8578e-05,159.77,-6.9903e-05,-0.45233,1.3533
5281,17.26,3.6364,0.1,0.00019773,1975.9,0.00020005,2055,-5.0871e-05,169.66,-7.3506e-05,-0.40067,1.3534
5282,17.26,3.4545,0.1,0.00020538,2052.4,0.00020773,2131.8,-5.3398e-05,169.73,-7.6047e-05,-0.44657,1.3535
5283,17.26,3.2727,0.1,0.00021069,2105.4,0.000213,2183.1,-5.5501e-05,165.62,-7.7609e-05,-0.49434,1.3536
5284,17.26,3.0909,0.1,0.00021337,2132.3,0.00021566,2208.5,-5.6677e-05,162.25,-7.8339e-05,-0.50862,1.3536
5285,17.26,2.9091,0.1,0.00021337,2132.3,0.00021566,2208.5,-5.6677e-05,162.25,-7.8339e-05,-0.50862,1.3536
5286,17.26,2.7273,0.1,0.00021069,2105.4,0.000213,2183.1,-5.5501e-05,165.62,-7.7609e-05,-0.49434,1.3536
5287,17.26,2.5455,0.1,0.00020538,2052.4,0.00020773,2131.8,-5.3398e-05,169.73,-7.6047e-05,-0.44657,1.3535
5288,17.26,2.3636,0.1,0.00019773,1975.9,0.00020005,2055,-5.0871e-05,169.66,-7.3506e-05,-0.40067,1.3534
5289,17.26,2.1818,0.1,0.00018824,1881.1,0.00019044,1955.7,-4.8578e-05,159.77,-6.9903e-05,-0.45234,1.3533
5290,17.26,2,0.1,0.00017764,1775.2,0.00017956,1839.4,-4.7024e-05,136.9,-6.5317e-05,-0.54037,1.3531
5291,17.26,1.8182,0.1,0.00016657,1664.6,0.00016807,1713.3,-4.6241e-05,103.06,-6.0056e-05,-0.74633,1.3529
5292,17.26,1.6364,0.1,0.00015544,1553.3,0.00015642,1584.1,-4.5762e-05,65.038,-5.459e-05,-1.2951,1.3527
5293,17.26,1.4545,0.1,0.00014448,1443.8,0.00014493,1457.7,-4.4937e-05,31.077,-4.943e-05,-2.6812,1.3525
5294,17.26,1.2727,0.1,0.00013391,1338.2,0.00013392,1338.6,-4.3004e-05,9.2694,-4.5335e-05,-8.2451,1.3522
5295,17.26,1.0909,0.1,0.00012404,1239.5,0.00012373,1230.7,-3.9644e-05,3.1983,-4.2801e-05,-20.521,1.3519
5296,17.26,0.90909,0.1,0.00011519,1151.1,0.00011468,1136.8,-3.6376e-05,1.7744,-4.0584e-05,-29.841,1.3516
5297,17.26,0.72727,0.1,0.00010763,1075.6,0.00010702,1058.4,-3.3694e-05,1.1519,-3.8451e-05,-34.592,1.3513
5298,17.26,0.54545,0.1,0.00010154,1014.7,0.00010089,996.56,-3.1643e-05,0.74551,-3.6545e-05,-36.092,1.3509
5299,17.26,0.36364,0.1,9.7003e-05,969.36,9.6364e-05,951.52,-3.0215e-05,0.46229,-3.4956e-05,-35.159,1.3506
5300,17.26,0.18182,0.1,9.4286e-05,942.2,9.3671e-05,925.03,-2.9422e-05,0.15278,-3.3914e-05,-33.599,1.3502
5301,17.078,5.8182,0.1,8.5594e-05,855.35,8.4931e-05,836.99,-2.6417e-05,0.36423,-3.1247e-05,-35.924,1.3248
5302,17.078,5.6364,0.1,8.8746e-05,886.85,8.8072e-05,868.18,-2.7379e-05,0.73056,-3.2384e-05,-36.876,1.3252
5303,17.078,5.4545,0.1,9.4387e-05,943.22,9.3635e-05,922.49,-2.9e-05,1.057,-3.4611e-05,-41.102,1.3256
5304,17.078,5.2727,0.1,0.00010217,1021,0.00010133,997.87,-3.1299e-05,1.3573,-3.7597e-05,-45.968,1.326
5305,17.078,5.0909,0.1,0.00011198,1119,0.00011107,1094.2,-3.433e-05,1.6811,-4.1144e-05,-49.522,1.3263
5306,17.078,4.9091,0.1,0.00012358,1234.9,0.00012271,1211,-3.8173e-05,2.1704,-4.4913e-05,-48.475,1.3267
5307,17.078,4.7273,0.1,0.00013665,1365.6,0.000136,1347.3,-4.2884e-05,3.2144,-4.849e-05,-38.905,1.327
5308,17.078,4.5455,0.1,0.00015077,1506.7,0.00015055,1500.6,-4.8201e-05,7.207,-5.1701e-05,-19.088,1.3273
5309,17.078,4.3636,0.1,0.00016546,1653.4,0.00016588,1666.3,-5.1829e-05,30.53,-5.6462e-05,-4.2785,1.3275
5310,17.078,4.1818,0.1,0.0001804,1802.8,0.00018151,1837.7,-5.3263e-05,73.703,-6.3264e-05,-1.4407,1.3278
5311,17.078,4,0.1,0.00019526,1951.2,0.00019694,2005.6,-5.4786e-05,114.22,-7.0044e-05,-0.42595,1.328
5312,17.078,3.8182,0.1,0.00020944,2093,0.00021144,2158.4,-5.7458e-05,138.03,-7.5858e-05,-0.22011,1.3282
5313,17.078,3.6364,0.1,0.00022187,2217.2,0.00022394,2284.5,-6.1216e-05,141.94,-8.0185e-05,-0.578,1.3284
5314,17.078,3.4545,0.1,0.00023148,2313.2,0.00023344,2376.5,-6.5144e-05,133.04,-8.2936e-05,-0.64535,1.3285
5315,17.078,3.2727,0.1,0.00023779,2376.3,0.00023961,2434.2,-6.8237e-05,121.19,-8.445e-05,-0.62905,1.3286
5316,17.078,3.0909,0.1,0.00024086,2407,0.00024258,2461.4,-6.9891e-05,113.64,-8.5098e-05,-0.61194,1.3286
5317,17.078,2.9091,0.1,0.00024086,2407,0.00024258,2461.4,-6.9891e-05,113.64,-8.5098e-05,-0.61194,1.3286
5318,17.078,2.7273,0.1,0.00023779,2376.3,0.00023961,2434.2,-6.8237e-05,121.19,-8.445e-05,-0.62905,1.3286
5319,17.078,2.5455,0.1,0.00023148,2313.2,0.00023344,2376.5,-6.5144e-05,133.04,-8.2936e-05,-0.64535,1.3285
5320,17.078,2.3636,0.1,0.00022187,2217.2,0.00022394,2284.5,-6.1216e-05,141.94,-8.0185e-05,-0.578,1.3284
5321,17.078,2.1818,0.1,0.00020944,2093,0.00021144,2158.4,-5.7458e-05,138.03,-7.5858e-05,-0.22011,1.3282
5322,17.078,2,0.1,0.00019526,1951.2,0.00019694,2005.6,-5.4786e-05,114.22,-7.0044e-05,-0.42595,1.328
5323,17.078,1.8182,0.1,0.0001804,1802.8,0.00018151,1837.7,-5.3263e-05,73.703,-6.3264e-05,-1.4407,1.3278
5324,17.078,1.6364,0.1,0.00016546,1653.4,0.00016588,1666.3,-5.1829e-05,30.53,-5.6462e-05,-4.2785,1.3275
5325,17.078,1.4545,0.1,0.00015077,1506.7,0.00015055,1500.6,-4.8201e-05,7.207,-5.1701e-05,-19.088,1.3273
5326,17.078,1.2727,0.1,0.00013665,1365.6,0.000136,1347.3,-4.2884e-05,3.2144,-4.849e-05,-38.905,1.327
5327,17.078,1.0909,0.1,0.00012358,1234.9,0.00012271,1211,-3.8173e-05,2.1704,-4.4913e-05,-48.475,1.3267
5328,17.078,0.90909,0.1,0.00011198,1119,0.00011107,1094.2,-3.433e-05,1.6811,-4.1144e-05,-49.522,1.3263
5329,17.078,0.72727,0.1,0.00010217,1021,0.00010133,997.87,-3.1299e-05,1.3573,-3.7597e-05,-45.968,1.326
5330,17.078,0.54545,0.1,9.4387e-05,943.22,9.3635e-05,922.49,-2.9e-05,1.057,-3.4611e-05,-41.102,1.3256
5331,17.078,0.36364,0.1,8.8746e-05,886.85,8.8072e-05,868.18,-2.7379e-05,0.73056,-3.2384e-05,-36.876,1.3252
5332,17.078,0.18182,0.1,8.5594e-05,855.35,8.4931e-05,836.99,-2.6417e-05,0.36423,-3.1247e-05,-35.924,1.3248
5333,16.895,5.8182,0.1,7.4611e-05,745.59,7.3925e-05,726.82,-2.2703e-05,0.79908,-2.7722e-05,-36.911,1.2995
5334,16.895,5.6364,0.1,7.8317e-05,782.63,7.7631e-05,763.84,-2.3868e-05,1.2209,-2.9004e-05,-37.37,1.2999
5335,16.895,5.4545,0.1,8.5411e-05,853.53,8.4527e-05,829.55,-2.5684e-05,1.4727,-3.2179e-05,-47.331,1.3003
5336,16.895,5.2727,0.1,9.5362e-05,952.96,9.416e-05,920.77,-2.8182e-05,1.5395,-3.673e-05,-62.68,1.3007
5337,16.895,5.0909,0.1,0.00010795,1078.8,0.00010639,1037.3,-3.145e-05,1.6205,-4.231e-05,-79.975,1.3011
5338,16.895,4.9091,0.1,0.00012296,1228.8,0.00012111,1179.7,-3.5666e-05,1.7924,-4.8451e-05,-94.269,1.3015
5339,16.895,4.7273,0.1,0.00014013,1400.4,0.00013821,1349.3,-4.1069e-05,2.2086,-5.4528e-05,-98.91,1.3018
5340,16.895,4.5455,0.1,0.00015902,1589.1,0.00015742,1545.8,-4.79e-05,3.0401,-5.9756e-05,-86.035,1.3022
5341,16.895,4.3636,0.1,0.00017903,1789,0.00017819,1765.6,-5.6177e-05,4.704,-6.3487e-05,-50.227,1.3025
5342,16.895,4.1818,0.1,0.00019932,1991.8,0.00019953,1998.3,-6.3473e-05,22.246,-6.7606e-05,-8.8081,1.3028
5343,16.895,4,0.1,0.00021963,2194.8,0.00022069,2227.6,-6.6415e-05,70.459,-7.6184e-05,-2.944,1.303
5344,16.895,3.8182,0.1,0.00023865,2384.9,0.00024011,2430.6,-7.0515e-05,96.755,-8.3674e-05,-2.1153,1.3033
5345,16.895,3.6364,0.1,0.00025434,2541.6,0.00025576,2585.8,-7.6186e-05,91.748,-8.8496e-05,-0.74455,1.3035
5346,16.895,3.4545,0.1,0.00026537,2651.9,0.00026647,2685.6,-8.1651e-05,69.916,-9.1107e-05,-1.1264,1.3036
5347,16.895,3.2727,0.1,0.00027176,2715.8,0.00027254,2739.3,-8.5559e-05,48.64,-9.2159e-05,-0.95257,1.3037
5348,16.895,3.0909,0.1,0.00027457,2743.8,0.00027517,2761.6,-8.751e-05,36.62,-9.2474e-05,-0.67366,1.3038
5349,16.895,2.9091,0.1,0.00027457,2743.8,0.00027517,2761.6,-8.751e-05,36.62,-9.2474e-05,-0.67366,1.3038
5350,16.895,2.7273,0.1,0.00027176,2715.8,0.00027254,2739.3,-8.5559e-05,48.64,-9.2159e-05,-0.95257,1.3037
5351,16.895,2.5455,0.1,0.00026537,2651.9,0.00026647,2685.6,-8.1651e-05,69.916,-9.1107e-05,-1.1264,1.3036
5352,16.895,2.3636,0.1,0.00025434,2541.6,0.00025576,2585.8,-7.6186e-05,91.748,-8.8496e-05,-0.74455,1.3035
5353,16.895,2.1818,0.1,0.00023865,2384.9,0.00024011,2430.6,-7.0515e-05,96.755,-8.3674e-05,-2.1153,1.3033
5354,16.895,2,0.1,0.00021963,2194.8,0.00022069,2227.6,-6.6415e-05,70.459,-7.6184e-05,-2.944,1.303
5355,16.895,1.8182,0.1,0.00019932,1991.8,0.00019953,1998.3,-6.3473e-05,22.246,-6.7606e-05,-8.8081,1.3028
5356,16.895,1.6364,0.1,0.00017903,1789,0.00017819,1765.6,-5.6177e-05,4.704,-6.3487e-05,-50.227,1.3025
5357,16.895,1.4545,0.1,0.00015902,1589.1,0.00015742,1545.8,-4.79e-05,3.0401,-5.9756e-05,-86.035,1.3022
5358,16.895,1.2727,0.1,0.00014013,1400.4,0.00013821,1349.3,-4.1069e-05,2.2086,-5.4528e-05,-98.91,1.3018
5359,16.895,1.0909,0.1,0.00012296,1228.8,0.00012111,1179.7,-3.5666e-05,1.7924,-4.8451e-05,-94.269,1.3015
5360,16.895,0.90909,0.1,0.00010795,1078.8,0.00010639,1037.3,-3.145e-05,1.6205,-4.231e-05,-79.975,1.3011
5361,16.895,0.72727,0.1,9.5362e-05,952.96,9.416e-05,920.77,-2.8182e-05,1.5395,-3.673e-05,-62.68,1.3007
5362,16.895,0.54545,0.1,8.5411e-05,853.53,8.4527e-05,829.55,-2.5684e-05,1.4727,-3.2179e-05,-47.331,1.3003
5363,16.895,0.36364,0.1,7.8317e-05,782.63,7.7631e-05,763.84,-2.3868e-05,1.2209,-2.9004e-05,-37.37,1.2999
5364,16.895,0.18182,0.1,7.4611e-05,745.59,7.3925e-05,726.82,-2.2703e-05,0.79908,-2.7722e-05,-36.911,1.2995
5365,16.713,5.8182,0.1,6.1291e-05,612.49,6.0622e-05,594.53,-1.8246e-05,1.9499,-2.3309e-05,-36.089,1.2742
5366,16.713,5.6364,0.1,6.6e-05,659.54,6.53e-05,640.78,-1.9674e-05,2.3167,-2.5039e-05,-37.991,1.2747
5367,16.713,5.4545,0.1,7.5244e-05,751.92,7.4106e-05,722,-2.1706e-05,2.1053,-2.9747e-05,-58.305,1.2751
5368,16.713,5.2727,0.1,8.7991e-05,879.3,8.6132e-05,831.65,-2.431e-05,1.8269,-3.6524e-05,-89.942,1.2755
5369,16.713,5.0909,0.1,0.00010387,1038,0.00010112,969.01,-2.7613e-05,1.7488,-4.4818e-05,-127.52,1.2759
5370,16.713,4.9091,0.1,0.00012284,1227.6,0.0001192,1137.1,-3.1892e-05,1.9329,-5.4181e-05,-165.54,1.2763
5371,16.713,4.7273,0.1,0.00014502,1449.2,0.0001407,1342,-3.7614e-05,2.2349,-6.4025e-05,-196.21,1.2767
5372,16.713,4.5455,0.1,0.00017052,1704.1,0.00016606,1591.7,-4.5441e-05,2.6376,-7.3437e-05,-207.72,1.2771
5373,16.713,4.3636,0.1,0.00019812,1979.8,0.00019453,1886.9,-5.581e-05,5.9633,-8.04e-05,-178.8,1.2775
5374,16.713,4.1818,0.1,0.00022686,2267.1,0.00022505,2217.5,-6.9327e-05,5.6408,-8.3523e-05,-101.02,1.2779
5375,16.713,4,0.1,0.00025549,2553.2,0.00025539,2550.3,-8.2541e-05,11.237,-8.6263e-05,-16.73,1.2782
5376,16.713,3.8182,0.1,0.00028106,2808.7,0.00028156,2823.5,-9.0638e-05,26.942,-9.3842e-05,2.8668,1.2785
5377,16.713,3.6364,0.1,0.00029998,2997.8,0.00030002,2999,-9.7483e-05,12.321,-0.00010041,-9.7024,1.2787
5378,16.713,3.4545,0.1,0.0003095,3092.8,0.00030893,3076.4,-0.00010025,1.9889,-0.00010511,-34.517,1.2789
5379,16.713,3.2727,0.1,0.0003132,3129.9,0.00031214,3099.4,-0.00010038,-0.077898,-0.00010835,-59.979,1.2791
5380,16.713,3.0909,0.1,0.00031423,3140.1,0.00031292,3102.8,-0.0001001,-0.4582,-0.00010974,-72.902,1.2792
5381,16.713,2.9091,0.1,0.00031423,3140.1,0.00031292,3102.8,-0.0001001,-0.4582,-0.00010974,-72.902,1.2792
5382,16.713,2.7273,0.1,0.0003132,3129.9,0.00031214,3099.4,-0.00010038,-0.077898,-0.00010835,-59.979,1.2791
5383,16.713,2.5455,0.1,0.0003095,3092.8,0.00030893,3076.4,-0.00010025,1.9889,-0.00010511,-34.517,1.2789
5384,16.713,2.3636,0.1,0.00029998,2997.8,0.00030002,2999,-9.7483e-05,12.321,-0.00010041,-9.7024,1.2787
5385,16.713,2.1818,0.1,0.00028106,2808.7,0.00028156,2823.5,-9.0638e-05,26.942,-9.3842e-05,2.8668,1.2785
5386,16.713,2,0.1,0.00025549,2553.2,0.00025539,2550.3,-8.2541e-05,11.237,-8.6263e-05,-16.73,1.2782
5387,16.713,1.8182,0.1,0.00022686,2267.1,0.00022505,2217.5,-6.9327e-05,5.6408,-8.3523e-05,-101.02,1.2779
5388,16.713,1.6364,0.1,0.00019812,1979.8,0.00019453,1886.9,-5.581e-05,5.9633,-8.04e-05,-178.8,1.2775
5389,16.713,1.4545,0.1,0.00017052,1704.1,0.00016606,1591.7,-4.5441e-05,2.6376,-7.3437e-05,-207.72,1.2771
5390,16.713,1.2727,0.1,0.00014502,1449.2,0.0001407,1342,-3.7614e-05,2.2349,-6.4025e-05,-196.21,1.2767
5391,16.713,1.0909,0.1,0.00012284,1227.6,0.0001192,1137.1,-3.1892e-05,1.9329,-5.4181e-05,-165.54,1.2763
5392,16.713,0.90909,0.1,0.00010387,1038,0.00010112,969.01,-2.7613e-05,1.7488,-4.4818e-05,-127.52,1.2759
5393,16.713,0.72727,0.1,8.7991e-05,879.3,8.6132e-05,831.65,-2.431e-05,1.8269,-3.6524e-05,-89.942,1.2755
5394,16.713,0.54545,0.1,7.5244e-05,751.92,7.4106e-05,722,-2.1706e-05,2.1053,-2.9747e-05,-58.305,1.2751
5395,16.713,0.36364,0.1,6.6e-05,659.54,6.53e-05,640.78,-1.9674e-05,2.3167,-2.5039e-05,-37.991,1.2747
5396,16.713,0.18182,0.1,6.1291e-05,612.49,6.0622e-05,594.53,-1.8246e-05,1.9499,-2.3309e-05,-36.089,1.2742
5397,16.531,5.8182,0.1,4.596e-05,459.29,4.5303e-05,442.38,-1.3068e-05,3.7968,-1.825e-05,-35.136,1.249
5398,16.531,5.6364,0.1,5.3148e-05,531.11,5.226e-05,508.25,-1.4972e-05,3.0986,-2.1437e-05,-45.48,1.2494
5399,16.531,5.4545,0.1,6.5857e-05,658.12,6.4024e-05,612.52,-1.7244e-05,1.9075,-2.8751e-05,-84.552,1.2499
5400,16.531,5.2727,0.1,8.2067e-05,820.1,7.8819e-05,742.19,-1.9798e-05,1.2204,-3.8456e-05,-138.97,1.2503
5401,16.531,5.0909,0.1,0.00010148,1014.1,9.6496e-05,897.72,-2.2851e-05,0.99129,-4.9966e-05,-202.74,1.2508
5402,16.531,4.9091,0.1,0.00012459,1245,0.00011768,1086.2,-2.6769e-05,0.88955,-6.3208e-05,-272.9,1.2513
5403,16.531,4.7273,0.1,0.00015255,1524.4,0.00014367,1321.7,-3.2089e-05,1.1253,-7.8361e-05,-346.55,1.2517
5404,16.531,4.5455,0.1,0.00018644,1863.1,0.00017605,1624.7,-3.9933e-05,1.846,-9.4722e-05,-409.82,1.2522
5405,16.531,4.3636,0.1,0.00022763,2274.7,0.00021711,2026.7,-5.2483e-05,1.0311,-0.00011042,-434.25,1.2526
5406,16.531,4.1818,0.1,0.00027566,2754.7,0.00026734,2547.1,-7.1877e-05,-1.6497,-0.00012163,-375.47,1.2531
5407,16.531,4,0.1,0.0003164,3161.9,0.00031265,3055.7,-9.8735e-05,-35.218,-0.00011701,-172.55,1.2535
5408,16.531,3.8182,0.1,0.00035274,3525,0.00035059,3463.7,-0.00011218,-13.442,-0.00012468,-107.35,1.2539
5409,16.531,3.6364,0.1,0.00036571,3654.6,0.00036319,3584.9,-0.00011308,6.3746,-0.00013274,-141.32,1.2542
5410,16.531,3.4545,0.1,0.00036517,3649.2,0.00036172,3554.5,-0.00011131,0.32406,-0.00013568,-182.8,1.2545
5411,16.531,3.2727,0.1,0.00036016,3599.1,0.00035632,3494.5,-0.00010875,0.10768,-0.00013551,-200.9,1.2546
5412,16.531,3.0909,0.1,0.00035691,3566.7,0.0003529,3457.7,-0.00010729,-0.029379,-0.00013507,-208.78,1.2547
5413,16.531,2.9091,0.1,0.00035691,3566.7,0.0003529,3457.7,-0.00010729,-0.029379,-0.00013507,-208.78,1.2547
5414,16.531,2.7273,0.1,0.00036016,3599.1,0.00035632,3494.5,-0.00010875,0.10768,-0.00013551,-200.9,1.2546
5415,16.531,2.5455,0.1,0.00036517,3649.2,0.00036172,3554.5,-0.00011131,0.32406,-0.00013568,-182.8,1.2545
5416,16.531,2.3636,0.1,0.00036571,3654.6,0.00036319,3584.9,-0.00011308,6.3747,-0.00013274,-141.32,1.2542
5417,16.531,2.1818,0.1,0.00035274,3525,0.00035059,3463.7,-0.00011218,-13.442,-0.00012468,-107.35,1.2539
5418,16.531,2,0.1,0.0003164,3161.9,0.00031265,3055.7,-9.8735e-05,-35.218,-0.00011701,-172.55,1.2535
5419,16.531,1.8182,0.1,0.00027566,2754.7,0.00026734,2547.1,-7.1877e-05,-1.6497,-0.00012163,-375.47,1.2531
5420,16.531,1.6364,0.1,0.00022763,2274.7,0.00021711,2026.7,-5.2483e-05,1.031,-0.00011042,-434.25,1.2526
5421,16.531,1.4545,0.1,0.00018644,1863.1,0.00017605,1624.7,-3.9933e-05,1.846,-9.4722e-05,-409.82,1.2522
5422,16.531,1.2727,0.1,0.00015255,1524.4,0.00014367,1321.7,-3.2089e-05,1.1253,-7.8361e-05,-346.55,1.2517
5423,16.531,1.0909,0.1,0.00012459,1245,0.00011768,1086.2,-2.6769e-05,0.88955,-6.3208e-05,-272.9,1.2513
5424,16.531,0.90909,0.1,0.00010148,1014.1,9.6496e-05,897.72,-2.2851e-05,0.99128,-4.9966e-05,-202.74,1.2508
5425,16.531,0.72727,0.1,8.2067e-05,820.1,7.8819e-05,742.19,-1.9798e-05,1.2204,-3.8456e-05,-138.97,1.2503
5426,16.531,0.54545,0.1,6.5857e-05,658.12,6.4024e-05,612.52,-1.7244e-05,1.9075,-2.8751e-05,-84.552,1.2499
5427,16.531,0.36364,0.1,5.3148e-05,531.11,5.226e-05,508.25,-1.4972e-05,3.0986,-2.1437e-05,-45.48,1.2494
5428,16.531,0.18182,0.1,4.596e-05,459.29,4.5303e-05,442.38,-1.3068e-05,3.7968,-1.825e-05,-35.136,1.249
5429,16.349,5.8182,0.1,3.1176e-05,311.54,3.0151e-05,289.06,-6.9963e-06,9.9496,-1.4582e-05,-47.045,1.2238
5430,16.349,5.6364,0.1,4.5553e-05,455.21,4.3359e-05,405.28,-9.9084e-06,5.0487,-2.255e-05,-89.931,1.2242
5431,16.349,5.4545,0.1,6.3694e-05,636.5,5.9414e-05,542.02,-1.2214e-05,3.8308,-3.4091e-05,-160.55,1.2247
5432,16.349,5.2727,0.1,8.4187e-05,841.29,7.7284e-05,692.63,-1.4446e-05,3.4079,-4.7488e-05,-244.86,1.2252
5433,16.349,5.0909,0.1,0.00010774,1076.7,9.7711e-05,864.49,-1.6888e-05,3.4387,-6.2951e-05,-342.66,1.2257
5434,16.349,4.9091,0.1,0.00013577,1356.8,0.00012203,1069.9,-1.9791e-05,4.3065,-8.1254e-05,-457.5,1.2262
5435,16.349,4.7273,0.1,0.00017076,1706.4,0.00015252,1328.4,-2.3751e-05,3.9557,-0.00010376,-597.19,1.2267
5436,16.349,4.5455,0.1,0.00021684,2166.9,0.00019328,1682.4,-2.9136e-05,11.248,-0.00013258,-765.98,1.2273
5437,16.349,4.3636,0.1,0.00028453,2843.3,0.00025356,2199.6,-3.9515e-05,-2.4135,-0.00017366,-1010.3,1.2278
5438,16.349,4.1818,0.1,0.0003862,3859.3,0.00035551,3216.2,-6.3139e-05,70.563,-0.00021765,-1090.4,1.2284
5439,16.349,4,0.1,0.00047966,4793.3,0.00046573,4511.7,-0.00010255,241.93,-0.00022434,-673.17,1.229
5440,16.349,3.8182,0.1,0.00048379,4834.5,0.00047724,4662.1,-0.00014055,20.33,-0.0001891,-344.45,1.2295
5441,16.349,3.6364,0.1,0.0004588,4584.8,0.00045115,4384.5,-0.00013124,8.6518,-0.00018351,-384.07,1.2299
5442,16.349,3.4545,0.1,0.00042502,4247.3,0.00041764,4052.9,-0.00012201,-1.8508,-0.00017018,-363.75,1.2302
5443,16.349,3.2727,0.1,0.00040518,4049,0.00039799,3860.7,-0.00011565,1.3912,-0.00016301,-354.44,1.2304
5444,16.349,3.0909,0.1,0.00039576,3954.9,0.0003887,3769.5,-0.00011298,0.13855,-0.0001593,-347.91,1.2305
5445,16.349,2.9091,0.1,0.00039576,3954.9,0.0003887,3769.5,-0.00011298,0.13855,-0.0001593,-347.91,1.2305
5446,16.349,2.7273,0.1,0.00040518,4049,0.00039799,3860.7,-0.00011565,1.3912,-0.00016301,-354.44,1.2304
5447,16.349,2.5455,0.1,0.00042502,4247.3,0.00041764,4052.9,-0.00012201,-1.8508,-0.00017018,-363.75,1.2302
5448,16.349,2.3636,0.1,0.0004588,4584.8,0.00045115,4384.5,-0.00013124,8.6517,-0.00018351,-384.07,1.2299
5449,16.349,2.1818,0.1,0.00048379,4834.5,0.00047724,4662.1,-0.00014055,20.33,-0.0001891,-344.45,1.2295
5450,16.349,2,0.1,0.00047966,4793.3,0.00046573,4511.7,-0.00010255,241.93,-0.00022434,-673.17,1.229
5451,16.349,1.8182,0.1,0.0003862,3859.3,0.00035551,3216.2,-6.3139e-05,70.563,-0.00021765,-1090.4,1.2284
5452,16.349,1.6364,0.1,0.00028453,2843.3,0.00025356,2199.6,-3.9515e-05,-2.4135,-0.00017366,-1010.3,1.2278
5453,16.349,1.4545,0.1,0.00021684,2166.9,0.00019328,1682.4,-2.9136e-05,11.248,-0.00013258,-765.98,1.2273
5454,16.349,1.2727,0.1,0.00017076,1706.4,0.00015252,1328.4,-2.3751e-05,3.9557,-0.00010376,-597.19,1.2267
5455,16.349,1.0909,0.1,0.00013577,1356.8,0.00012203,1069.9,-1.9791e-05,4.3065,-8.1254e-05,-457.5,1.2262
5456,16.349,0.90909,0.1,0.00010774,1076.7,9.7711e-05,864.49,-1.6888e-05,3.4387,-6.2951e-05,-342.66,1.2257
5457,16.349,0.72727,0.1,8.4187e-05,841.29,7.7284e-05,692.63,-1.4446e-05,3.4079,-4.7488e-05,-244.86,1.2252
5458,16.349,0.54545,0.1,6.3694e-05,636.5,5.9414e-05,542.02,-1.2214e-05,3.8308,-3.4091e-05,-160.55,1.2247
5459,16.349,0.36364,0.1,4.5553e-05,455.21,4.3359e-05,405.28,-9.9084e-06,5.0487,-2.255e-05,-89.931,1.2242
5460,16.349,0.18182,0.1,3.1176e-05,311.54,3.0151e-05,289.06,-6.9963e-06,9.9496,-1.4582e-05,-47.045,1.2238
5461,0.18391,0.18182,0.1,0.00040583,4055.5,0.00039956,3889.1,-0.00011806,-0.18959,-0.00015988,-314.42,8.8468e-05
5462,0.18391,0.36364,0.1,0.00045586,4555.4,0.00044222,4488.7,-4.5853e-05,821.54,-0.00023647,-610.7,0.00013916
5463,0.18391,0.54545,0.1,0.00052251,5221.5,0.00050164,5182.5,-2.0744e-05,1257.6,-0.00028708,-743.55,0.00016867
5464,0.18391,0.72727,0.1,0.00057463,5742.3,0.00054931,5713.1,-1.0459e-05,1507.2,-0.0003214,-829.07,0.00018738
5465,0.18391,0.90909,0.1,0.00061368,6132.5,0.00058584,6111.9,-6.0731e-06,1664.5,-0.00034525,-883.93,0.00020024
5466,0.18391,1.0909,0.1,0.00064312,6426.8,0.00061361,6412.2,-3.8259e-06,1773,-0.00036272,-923.55,0.00020952
5467,0.18391,1.2727,0.1,0.00066564,6651.8,0.00063498,6642.2,-2.5778e-06,1851.8,-0.00037582,-952.63,0.00021645
5468,0.18391,1.4545,0.1,0.00068309,6826.2,0.0006516,6820.4,-1.8239e-06,1910.9,-0.00038587,-974.72,0.00022174
5469,0.18391,1.6364,0.1,0.00069673,6962.5,0.00066462,6959.8,-1.3443e-06,1956.1,-0.00039367,-991.69,0.00022582
5470,0.18391,1.8182,0.1,0.00070743,7069.4,0.00067484,7069.2,-1.0265e-06,1991,-0.00039975,-1004.9,0.000229
5471,0.18391,2,0.1,0.00071579,7152.9,0.00068284,7154.7,-8.1025e-07,2018,-0.00040448,-1015,0.00023147
5472,0.18391,2.1818,0.1,0.00072224,7217.4,0.00068902,7220.7,-6.6105e-07,2038.7,-0.00040813,-1022.9,0.00023337
5473,0.18391,2.3636,0.1,0.00072709,7265.9,0.00069367,7270.4,-5.5837e-07,2054.2,-0.00041086,-1028.7,0.00023479
5474,0.18391,2.5455,0.1,0.00073057,7300.6,0.00069701,7305.9,-4.8971e-07,2065.2,-0.00041282,-1032.9,0.00023581
5475,0.18391,2.7273,0.1,0.00073281,7323,0.00069915,7328.8,-4.475e-07,2072.3,-0.00041408,-1035.6,0.00023646
5476,0.18391,2.9091,0.1,0.00073391,7334,0.00070021,7340.1,-4.2739e-07,2075.8,-0.0004147,-1036.9,0.00023678
5477,0.18391,3.0909,0.1,0.00073391,7334,0.00070021,7340.1,-4.2739e-07,2075.8,-0.0004147,-1036.9,0.00023678
5478,0.18391,3.2727,0.1,0.00073281,7323,0.00069915,7328.8,-4.475e-07,2072.3,-0.00041408,-1035.6,0.00023646
5479,0.18391,3.4545,0.1,0.00073057,7300.6,0.00069701,7305.9,-4.8971e-07,2065.2,-0.00041282,-1032.9,0.00023581
5480,0.18391,3.6364,0.1,0.00072709,7265.9,0.00069367,7270.4,-5.5837e-07,2054.2,-0.00041086,-1028.7,0.00023479
5481,0.18391,3.8182,0.1,0.00072224,7217.4,0.00068902,7220.7,-6.6105e-07,2038.7,-0.00040813,-1022.9,0.00023337
5482,0.18391,4,0.1,0.00071579,7152.9,0.00068284,7154.7,-8.1025e-07,2018,-0.00040448,-1015,0.00023147
5483,0.18391,4.1818,0.1,0.00070743,7069.4,0.00067484,7069.2,-1.0265e-06,1991,-0.00039975,-1004.9,0.000229
5484,0.18391,4.3636,0.1,0.00069673,6962.5,0.00066462,6959.8,-1.3443e-06,1956.1,-0.00039367,-991.69,0.00022582
5485,0.18391,4.5455,0.1,0.00068309,6826.2,0.0006516,6820.4,-1.8239e-06,1910.9,-0.00038587,-974.72,0.00022174
5486,0.18391,4.7273,0.1,0.00066564,6651.8,0.00063498,6642.2,-2.5778e-06,1851.8,-0.00037582,-952.63,0.00021645
5487,0.18391,4.9091,0.1,0.00064312,6426.8,0.00061361,6412.2,-3.8259e-06,1773,-0.00036272,-923.55,0.00020952
5488,0.18391,5.0909,0.1,0.00061368,6132.5,0.00058584,6111.9,-6.0731e-06,1664.5,-0.00034525,-883.93,0.00020024
5489,0.18391,5.2727,0.1,0.00057463,5742.3,0.00054931,5713.1,-1.0459e-05,1507.2,-0.0003214,-829.07,0.00018738
5490,0.18391,5.4545,0.1,0.00052251,5221.5,0.00050164,5182.5,-2.0744e-05,1257.6,-0.00028708,-743.55,0.00016867
5491,0.18391,5.6364,0.1,0.00045586,4555.4,0.00044222,4488.7,-4.5853e-05,821.54,-0.00023647,-610.7,0.00013916
5492,0.18391,5.8182,0.1,0.00040583,4055.5,0.00039956,3889.1,-0.00011806,-0.18968,-0.00015988,-314.42,8.8468e-05
5493,0.36782,0.18182,0.1,0.00050405,5037,0.00050364,5029.4,-0.00015485,81.753,-0.00017804,-92.477,0.00039137
5494,0.36782,0.36364,0.1,0.00047859,4782.6,0.00049002,5160.3,-0.00010888,660.42,-0.00017841,138,0.00053573
5495,0.36782,0.54545,0.1,0.00048403,4836.9,0.00049951,5454.7,-6.417e-05,1219.5,-0.000202,183.87,0.00063229
5496,0.36782,0.72727,0.1,0.00050306,5027.1,0.00051914,5781.7,-3.8396e-05,1592.6,-0.0002228,207.04,0.00069869
5497,0.36782,0.90909,0.1,0.0005245,5241.4,0.00054048,6081.7,-2.3995e-05,1840.4,-0.0002394,221.95,0.00074616
5498,0.36782,1.0909,0.1,0.00054423,5438.6,0.00056012,6337.4,-1.5788e-05,2010.3,-0.00025241,232.42,0.00078124
5499,0.36782,1.2727,0.1,0.00056115,5607.6,0.00057702,6548.9,-1.0874e-05,2131.7,-0.00026263,240.07,0.0008078
5500,0.36782,1.4545,0.1,0.00057523,5748.3,0.00059113,6721.4,-7.7944e-06,2221.3,-0.00027071,245.83,0.00082826
5501,0.36782,1.6364,0.1,0.00058677,5863.6,0.00060274,6861.1,-5.7872e-06,2288.9,-0.00027712,250.25,0.0008442
5502,0.36782,1.8182,0.1,0.00059613,5957.2,0.00061217,6973.6,-4.4379e-06,2340.6,-0.0002822,253.67,0.00085666
5503,0.36782,2,0.1,0.00060363,6032.1,0.00061973,7063.1,-3.5111e-06,2380.3,-0.0002862,256.31,0.00086638
5504,0.36782,2.1818,0.1,0.00060952,6091,0.00062568,7133.2,-2.8677e-06,2410.6,-0.00028931,258.33,0.00087387
5505,0.36782,2.3636,0.1,0.00061401,6135.9,0.00063022,7186.5,-2.4233e-06,2433.1,-0.00029167,259.84,0.00087951
5506,0.36782,2.5455,0.1,0.00061725,6168.3,0.0006335,7225,-2.1254e-06,2449.1,-0.00029336,260.92,0.00088353
5507,0.36782,2.7273,0.1,0.00061936,6189.3,0.00063564,7249.9,-1.9419e-06,2459.4,-0.00029445,261.61,0.00088613
5508,0.36782,2.9091,0.1,0.00062039,6199.7,0.00063668,7262.1,-1.8545e-06,2464.4,-0.00029499,261.95,0.0008874
5509,0.36782,3.0909,0.1,0.00062039,6199.7,0.00063668,7262.1,-1.8545e-06,2464.4,-0.00029499,261.95,0.0008874
5510,0.36782,3.2727,0.1,0.00061936,6189.3,0.00063564,7249.9,-1.9419e-06,2459.4,-0.00029445,261.61,0.00088613
5511,0.36782,3.4545,0.1,0.00061725,6168.3,0.0006335,7225,-2.1254e-06,2449.1,-0.00029336,260.92,0.00088353
5512,0.36782,3.6364,0.1,0.00061401,6135.9,0.00063022,7186.5,-2.4233e-06,2433.1,-0.00029167,259.84,0.00087951
5513,0.36782,3.8182,0.1,0.00060952,6091,0.00062568,7133.2,-2.8677e-06,2410.6,-0.00028931,258.33,0.00087387
5514,0.36782,4,0.1,0.00060363,6032.1,0.00061973,7063.1,-3.5111e-06,2380.3,-0.0002862,256.31,0.00086638
5515,0.36782,4.1818,0.1,0.00059613,5957.2,0.00061217,6973.6,-4.4379e-06,2340.6,-0.0002822,253.67,0.00085666
5516,0.36782,4.3636,0.1,0.00058677,5863.6,0.00060274,6861.1,-5.7872e-06,2288.9,-0.00027712,250.25,0.0008442
5517,0.36782,4.5455,0.1,0.00057523,5748.3,0.00059113,6721.4,-7.7944e-06,2221.3,-0.00027071,245.83,0.00082826
5518,0.36782,4.7273,0.1,0.00056115,5607.6,0.00057702,6548.9,-1.0874e-05,2131.7,-0.00026263,240.07,0.0008078
5519,0.36782,4.9091,0.1,0.00054423,5438.6,0.00056012,6337.4,-1.5788e-05,2010.3,-0.00025241,232.42,0.00078124
5520,0.36782,5.0909,0.1,0.0005245,5241.4,0.00054048,6081.7,-2.3995e-05,1840.4,-0.0002394,221.95,0.00074616
5521,0.36782,5.2727,0.1,0.00050306,5027.1,0.00051914,5781.7,-3.8396e-05,1592.6,-0.0002228,207.04,0.00069869
5522,0.36782,5.4545,0.1,0.00048403,4836.9,0.00049951,5454.7,-6.417e-05,1219.5,-0.000202,183.87,0.00063229
5523,0.36782,5.6364,0.1,0.00047859,4782.6,0.00049002,5160.3,-0.00010888,660.42,-0.00017841,138,0.00053573
5524,0.36782,5.8182,0.1,0.00050405,5037,0.00050364,5029.4,-0.00015485,81.753,-0.00017804,-92.477,0.00039137
5525,0.55172,0.18182,0.1,0.00055818,5578,0.00055635,5525.7,-0.00017897,0.769,-0.00019289,-103.87,0.00099172
5526,0.55172,0.36364,0.1,0.00053531,5349.4,0.0005402,5521.1,-0.00013969,412.59,-0.0002,-40.533,0.0012424
5527,0.55172,0.54545,0.1,0.00052905,5286.8,0.00053694,5633.6,-9.8252e-05,860.99,-0.0002194,-49.252,0.0014251
5528,0.55172,0.72727,0.1,0.00053343,5330.6,0.00054171,5799.5,-6.7238e-05,1224.1,-0.00023734,-53.903,0.001559
5529,0.55172,0.90909,0.1,0.00054391,5435.3,0.00055147,5985.5,-4.6149e-05,1495.2,-0.00025275,-57.141,0.0016589
5530,0.55172,1.0909,0.1,0.00055658,5561.9,0.00056324,6167.6,-3.2289e-05,1693,-0.00026553,-59.531,0.0017347
5531,0.55172,1.2727,0.1,0.00056919,5688,0.00057509,6333.3,-2.3178e-05,1838.1,-0.00027598,-61.31,0.0017933
5532,0.55172,1.4545,0.1,0.00058073,5803.2,0.00058606,6478.1,-1.7094e-05,1946.3,-0.00028447,-62.663,0.001839
5533,0.55172,1.6364,0.1,0.0005908,5903.9,0.00059572,6601.3,-1.2952e-05,2028,-0.00029134,-63.706,0.0018749
5534,0.55172,1.8182,0.1,0.00059934,5989.3,0.00060397,6704,-1.0082e-05,2090.3,-0.00029687,-64.515,0.0019032
5535,0.55172,2,0.1,0.0006064,6059.8,0.00061082,6788,-8.0667e-06,2137.9,-0.00030128,-65.141,0.0019254
5536,0.55172,2.1818,0.1,0.00061208,6116.6,0.00061636,6855.1,-6.6458e-06,2174.1,-0.00030474,-65.622,0.0019426
5537,0.55172,2.3636,0.1,0.00061649,6160.6,0.00062066,6906.9,-5.653e-06,2201,-0.00030737,-65.982,0.0019556
5538,0.55172,2.5455,0.1,0.00061971,6192.8,0.00062382,6944.6,-4.9823e-06,2220.1,-0.00030927,-66.238,0.0019648
5539,0.55172,2.7273,0.1,0.00062181,6213.8,0.00062588,6969.3,-4.5672e-06,2232.3,-0.00031051,-66.403,0.0019708
5540,0.55172,2.9091,0.1,0.00062285,6224.2,0.00062691,6981.4,-4.3687e-06,2238.3,-0.00031111,-66.484,0.0019738
5541,0.55172,3.0909,0.1,0.00062285,6224.2,0.00062691,6981.4,-4.3687e-06,2238.3,-0.00031111,-66.484,0.0019738
5542,0.55172,3.2727,0.1,0.00062181,6213.8,0.00062588,6969.3,-4.5672e-06,2232.3,-0.00031051,-66.403,0.0019708
5543,0.55172,3.4545,0.1,0.00061971,6192.8,0.00062382,6944.6,-4.9823e-06,2220.1,-0.00030927,-66.238,0.0019648
5544,0.55172,3.6364,0.1,0.00061649,6160.6,0.00062066,6906.9,-5.653e-06,2201,-0.00030737,-65.982,0.0019556
5545,0.55172,3.8182,0.1,0.00061208,6116.6,0.00061636,6855.1,-6.6458e-06,2174.1,-0.00030474,-65.622,0.0019426
5546,0.55172,4,0.1,0.0006064,6059.8,0.00061082,6788,-8.0666e-06,2137.9,-0.00030128,-65.141,0.0019254
5547,0.55172,4.1818,0.1,0.00059934,5989.3,0.00060397,6704,-1.0082e-05,2090.3,-0.00029687,-64.515,0.0019032
5548,0.55172,4.3636,0.1,0.0005908,5903.9,0.00059572,6601.3,-1.2952e-05,2028,-0.00029134,-63.706,0.0018749
5549,0.55172,4.5455,0.1,0.00058073,5803.2,0.00058606,6478.1,-1.7094e-05,1946.3,-0.00028447,-62.663,0.001839
5550,0.55172,4.7273,0.1,0.00056919,5688,0.00057509,6333.3,-2.3178e-05,1838.1,-0.00027598,-61.31,0.0017933
5551,0.55172,4.9091,0.1,0.00055658,5561.9,0.00056324,6167.6,-3.2289e-05,1693,-0.00026553,-59.531,0.0017347
5552,0.55172,5.0909,0.1,0.00054391,5435.3,0.00055147,5985.5,-4.6149e-05,1495.2,-0.00025275,-57.141,0.0016589
5553,0.55172,5.2727,0.1,0.00053343,5330.6,0.00054171,5799.5,-6.7238e-05,1224.1,-0.00023734,-53.903,0.001559
5554,0.55172,5.4545,0.1,0.00052905,5286.8,0.00053694,5633.6,-9.8252e-05,860.99,-0.0002194,-49.252,0.0014251
5555,0.55172,5.6364,0.1,0.00053531,5349.4,0.0005402,5521.1,-0.00013969,412.59,-0.0002,-40.533,0.0012424
5556,0.55172,5.8182,0.1,0.00055818,5578,0.00055635,5525.7,-0.00017897,0.76898,-0.00019289,-103.87,0.00099172
5557,0.73563,0.18182,0.1,0.00058413,5837.2,0.00058316,5809.9,-0.00018763,18.432,-0.00019968,-72.076,0.0019326
5558,0.73563,0.36364,0.1,0.00056068,5602.9,0.00056579,5767.4,-0.00015682,338.01,-0.00020104,5.7386,0.0022883
5559,0.73563,0.54545,0.1,0.00054835,5479.7,0.00055723,5805.5,-0.00012125,707.7,-0.00021402,10.628,0.0025624
5560,0.73563,0.72727,0.1,0.00054366,5432.8,0.00055421,5885,-9.0872e-05,1038.1,-0.00022737,12.436,0.0027731
5561,0.73563,0.90909,0.1,0.00054504,5446.6,0.00055585,5991.4,-6.7257e-05,1309.6,-0.00023973,13.681,0.0029361
5562,0.73563,1.0909,0.1,0.00055025,5498.7,0.00056065,6109.9,-4.9866e-05,1522.7,-0.0002506,14.473,0.0030633
5563,0.73563,1.2727,0.1,0.00055732,5569.4,0.00056711,6228.9,-3.7375e-05,1687,-0.0002599,15.037,0.0031634
5564,0.73563,1.4545,0.1,0.00056492,5645.3,0.00057412,6340.7,-2.8464e-05,1813.1,-0.00026771,15.449,0.0032427
5565,0.73563,1.6364,0.1,0.00057226,5718.6,0.00058097,6441.2,-2.2093e-05,1910,-0.0002742,15.763,0.0033057
5566,0.73563,1.8182,0.1,0.00057891,5785.1,0.00058724,6528.6,-1.7515e-05,1984.7,-0.00027953,16.006,0.0033557
5567,0.73563,2,0.1,0.00058469,5842.8,0.00059272,6602.3,-1.4215e-05,2042.1,-0.00028384,16.193,0.0033952
5568,0.73563,2.1818,0.1,0.00058949,5890.9,0.00059731,6662.7,-1.1841e-05,2085.7,-0.00028726,16.337,0.003426
5569,0.73563,2.3636,0.1,0.00059331,5929,0.00060098,6710.1,-1.0158e-05,2118.2,-0.00028989,16.444,0.0034493
5570,0.73563,2.5455,0.1,0.00059616,5957.4,0.00060371,6745,-9.0093e-06,2141.3,-0.0002918,16.521,0.003466
5571,0.73563,2.7273,0.1,0.00059804,5976.2,0.00060553,6768.1,-8.2934e-06,2156.1,-0.00029304,16.57,0.0034768
5572,0.73563,2.9091,0.1,0.00059897,5985.6,0.00060643,6779.5,-7.9497e-06,2163.3,-0.00029365,16.594,0.0034821
5573,0.73563,3.0909,0.1,0.00059897,5985.6,0.00060643,6779.5,-7.9497e-06,2163.3,-0.00029365,16.594,0.0034821
5574,0.73563,3.2727,0.1,0.00059804,5976.2,0.00060553,6768.1,-8.2934e-06,2156.1,-0.00029304,16.57,0.0034768
5575,0.73563,3.4545,0.1,0.00059616,5957.4,0.00060371,6745,-9.0093e-06,2141.3,-0.0002918,16.521,0.003466
5576,0.73563,3.6364,0.1,0.00059331,5929,0.00060098,6710.1,-1.0158e-05,2118.2,-0.00028989,16.444,0.0034493
5577,0.73563,3.8182,0.1,0.00058949,5890.9,0.00059731,6662.7,-1.1841e-05,2085.7,-0.00028726,16.337,0.003426
5578,0.73563,4,0.1,0.00058469,5842.8,0.00059272,6602.3,-1.4215e-05,2042.1,-0.00028384,16.193,0.0033952
5579,0.73563,4.1818,0.1,0.00057891,5785.1,0.00058724,6528.6,-1.7515e-05,1984.7,-0.00027953,16.006,0.0033557
5580,0.73563,4.3636,0.1,0.00057226,5718.6,0.00058097,6441.2,-2.2093e-05,1910,-0.0002742,15.763,0.0033057
5581,0.73563,4.5455,0.1,0.00056492,5645.3,0.00057412,6340.7,-2.8464e-05,1813.1,-0.00026771,15.449,0.0032427
5582,0.73563,4.7273,0.1,0.00055732,5569.4,0.00056711,6228.9,-3.7375e-05,1687,-0.0002599,15.037,0.0031634
5583,0.73563,4.9091,0.1,0.00055025,5498.7,0.00056065,6109.9,-4.9866e-05,1522.7,-0.0002506,14.473,0.0030633
5584,0.73563,5.0909,0.1,0.00054504,5446.6,0.00055585,5991.4,-6.7257e-05,1309.6,-0.00023973,13.681,0.0029361
5585,0.73563,5.2727,0.1,0.00054366,5432.8,0.00055421,5885,-9.0872e-05,1038.1,-0.00022737,12.436,0.0027731
5586,0.73563,5.4545,0.1,0.00054835,5479.7,0.00055723,5805.5,-0.00012125,707.7,-0.00021402,10.628,0.0025624
5587,0.73563,5.6364,0.1,0.00056068,5602.9,0.00056579,5767.4,-0.00015682,338.01,-0.00020104,5.7386,0.0022883
5588,0.73563,5.8182,0.1,0.00058413,5837.2,0.00058316,5809.9,-0.00018763,18.432,-0.00019968,-72.076,0.0019326
5589,0.91954,0.18182,0.1,0.00059861,5982,0.00059793,5962.4,-0.00019371,14.348,-0.00020266,-52.881,0.0032393
5590,0.91954,0.36364,0.1,0.00057758,5771.9,0.00058179,5906.1,-0.00016642,284.29,-0.00020492,-4.9331,0.0036949
5591,0.91954,0.54545,0.1,0.00056428,5638.9,0.00057189,5908.1,-0.000136,589.28,-0.00021496,-3.9628,0.0040593
5592,0.91954,0.72727,0.1,0.00055599,5556,0.00056557,5940,-0.00010824,877.22,-0.00022553,-4.0221,0.0043496
5593,0.91954,0.90909,0.1,0.00055242,5520.4,0.00056277,5995.5,-8.475e-05,1130.3,-0.00023571,-4.018,0.0045808
5594,0.91954,1.0909,0.1,0.00055261,5522.3,0.00056292,6066.7,-6.5962e-05,1341.5,-0.00024505,-4.0788,0.0047655
5595,0.91954,1.2727,0.1,0.0005553,5549.2,0.00056518,6145.7,-5.1451e-05,1512.6,-0.00025331,-4.1402,0.0049136
5596,0.91954,1.4545,0.1,0.00055938,5589.9,0.0005687,6225.8,-4.0461e-05,1648.8,-0.00026046,-4.1994,0.0050326
5597,0.91954,1.6364,0.1,0.00056401,5636.2,0.00057279,6302.1,-3.2219e-05,1756.3,-0.00026654,-4.249,0.0051283
5598,0.91954,1.8182,0.1,0.00056865,5682.5,0.00057695,6371.5,-2.607e-05,1840.7,-0.00027162,-4.2889,0.0052049
5599,0.91954,2,0.1,0.00057294,5725.5,0.00058085,6432.1,-2.1507e-05,1906.3,-0.00027579,-4.3201,0.0052659
5600,0.91954,2.1818,0.1,0.00057669,5762.9,0.00058429,6483.1,-1.8152e-05,1956.6,-0.00027914,-4.3437,0.0053136
5601,0.91954,2.3636,0.1,0.00057976,5793.6,0.00058713,6523.9,-1.5733e-05,1994.2,-0.00028173,-4.3612,0.0053499
5602,0.91954,2.5455,0.1,0.0005821,5817,0.00058931,6554.5,-1.4063e-05,2021,-0.00028363,-4.3735,0.005376
5603,0.91954,2.7273,0.1,0.00058367,5832.7,0.00059078,6574.9,-1.3013e-05,2038.2,-0.00028487,-4.3813,0.0053929
5604,0.91954,2.9091,0.1,0.00058446,5840.5,0.00059152,6585,-1.2506e-05,2046.6,-0.00028548,-4.3851,0.0054013
5605,0.91954,3.0909,0.1,0.00058446,5840.5,0.00059152,6585,-1.2506e-05,2046.6,-0.00028548,-4.3851,0.0054013
5606,0.91954,3.2727,0.1,0.00058367,5832.7,0.00059078,6574.9,-1.3013e-05,2038.2,-0.00028487,-4.3813,0.0053929
5607,0.91954,3.4545,0.1,0.0005821,5817,0.00058931,6554.5,-1.4063e-05,2021,-0.00028363,-4.3735,0.005376
5608,0.91954,3.6364,0.1,0.00057976,5793.6,0.00058713,6523.9,-1.5733e-05,1994.2,-0.00028173,-4.3612,0.0053499
5609,0.91954,3.8182,0.1,0.00057669,5762.9,0.00058429,6483.1,-1.8152e-05,1956.6,-0.00027914,-4.3437,0.0053136
5610,0.91954,4,0.1,0.00057294,5725.5,0.00058085,6432.1,-2.1507e-05,1906.3,-0.00027579,-4.3201,0.0052659
5611,0.91954,4.1818,0.1,0.00056865,5682.5,0.00057695,6371.5,-2.607e-05,1840.7,-0.00027162,-4.2889,0.0052049
5612,0.91954,4.3636,0.1,0.00056401,5636.2,0.00057279,6302.1,-3.2219e-05,1756.3,-0.00026654,-4.249,0.0051283
5613,0.91954,4.5455,0.1,0.00055938,5589.9,0.0005687,6225.8,-4.0461e-05,1648.8,-0.00026046,-4.1994,0.0050326
5614,0.91954,4.7273,0.1,0.0005553,5549.2,0.00056518,6145.7,-5.1451e-05,1512.6,-0.00025331,-4.1402,0.0049136
5615,0.91954,4.9091,0.1,0.00055261,5522.3,0.00056292,6066.7,-6.5962e-05,1341.5,-0.00024505,-4.0788,0.0047655
5616,0.91954,5.0909,0.1,0.00055242,5520.4,0.00056277,5995.5,-8.475e-05,1130.3,-0.00023571,-4.018,0.0045808
5617,0.91954,5.2727,0.1,0.00055599,5556,0.00056557,5940,-0.00010824,877.22,-0.00022553,-4.0221,0.0043496
5618,0.91954,5.4545,0.1,0.00056428,5638.9,0.00057189,5908.1,-0.000136,589.28,-0.00021496,-3.9629,0.0040593
5619,0.91954,5.6364,0.1,0.00057758,5771.9,0.00058179,5906.1,-0.00016642,284.29,-0.00020492,-4.9331,0.0036949
5620,0.91954,5.8182,0.1,0.00059861,5982,0.00059793,5962.4,-0.00019371,14.348,-0.00020266,-52.881,0.0032393
5621,1.1034,0.18182,0.1,0.00060549,6050.7,0.00060517,6041.6,-0.00019659,17.515,-0.00020362,-35.267,0.0049271
5622,1.1034,0.36364,0.1,0.00058643,5860.3,0.00059031,5982.4,-0.00017205,254.36,-0.00020613,-1.6966,0.0054758
5623,1.1034,0.54545,0.1,0.00057315,5727.5,0.00058015,5966.8,-0.00014569,513.09,-0.00021399,-0.040843,0.0059267
5624,1.1034,0.72727,0.1,0.00056331,5629.2,0.00057241,5972.4,-0.00012078,764.07,-0.00022243,0.30031,0.0062954
5625,1.1034,0.90909,0.1,0.00055699,5566.1,0.00056722,5996.5,-9.8562e-05,994.09,-0.00023079,0.57046,0.006596
5626,1.1034,1.0909,0.1,0.00055387,5534.8,0.00056445,6035.2,-7.9737e-05,1195,-0.00023869,0.70772,0.0068411
5627,1.1034,1.2727,0.1,0.00055324,5528.6,0.0005637,6083.7,-6.4363e-05,1364.7,-0.00024589,0.7938,0.0070408
5628,1.1034,1.4545,0.1,0.00055435,5539.7,0.00056442,6137.2,-5.2124e-05,1504.7,-0.00025227,0.84507,0.0072036
5629,1.1034,1.6364,0.1,0.00055649,5561.1,0.0005661,6191.4,-4.2547e-05,1618.3,-0.00025781,0.87839,0.0073358
5630,1.1034,1.8182,0.1,0.00055913,5587.5,0.00056827,6243.1,-3.5147e-05,1709.3,-0.00026252,0.90115,0.0074428
5631,1.1034,2,0.1,0.00056187,5614.8,0.00057059,6290.1,-2.9496e-05,1781.3,-0.00026645,0.91765,0.0075285
5632,1.1034,2.1818,0.1,0.00056444,5640.5,0.00057281,6330.7,-2.5247e-05,1837.1,-0.00026963,0.92997,0.0075958
5633,1.1034,2.3636,0.1,0.00056665,5662.6,0.00057475,6364,-2.2132e-05,1879.3,-0.00027212,0.93916,0.0076473
5634,1.1034,2.5455,0.1,0.00056838,5679.9,0.00057629,6389.3,-1.9952e-05,1909.4,-0.00027395,0.94577,0.0076845
5635,1.1034,2.7273,0.1,0.00056957,5691.8,0.00057735,6406.3,-1.857e-05,1928.8,-0.00027515,0.95006,0.0077086
5636,1.1034,2.9091,0.1,0.00057018,5697.9,0.00057789,6414.9,-1.79e-05,1938.3,-0.00027575,0.95218,0.0077205
5637,1.1034,3.0909,0.1,0.00057018,5697.9,0.00057789,6414.9,-1.79e-05,1938.3,-0.00027575,0.95218,0.0077205
5638,1.1034,3.2727,0.1,0.00056957,5691.8,0.00057735,6406.3,-1.857e-05,1928.8,-0.00027515,0.95006,0.0077086
5639,1.1034,3.4545,0.1,0.00056838,5679.9,0.00057629,6389.3,-1.9952e-05,1909.4,-0.00027395,0.94577,0.0076845
5640,1.1034,3.6364,0.1,0.00056665,5662.6,0.00057475,6364,-2.2132e-05,1879.3,-0.00027212,0.93916,0.0076473
5641,1.1034,3.8182,0.1,0.00056444,5640.5,0.00057281,6330.7,-2.5247e-05,1837.1,-0.00026963,0.92997,0.0075958
5642,1.1034,4,0.1,0.00056187,5614.8,0.00057059,6290.1,-2.9496e-05,1781.3,-0.00026645,0.91765,0.0075285
5643,1.1034,4.1818,0.1,0.00055913,5587.5,0.00056827,6243.1,-3.5147e-05,1709.3,-0.00026252,0.90115,0.0074428
5644,1.1034,4.3636,0.1,0.00055649,5561.1,0.0005661,6191.4,-4.2547e-05,1618.3,-0.00025781,0.87839,0.0073358
5645,1.1034,4.5455,0.1,0.00055435,5539.7,0.00056442,6137.2,-5.2124e-05,1504.7,-0.00025227,0.84507,0.0072036
5646,1.1034,4.7273,0.1,0.00055324,5528.6,0.0005637,6083.7,-6.4363e-05,1364.7,-0.00024589,0.7938,0.0070408
5647,1.1034,4.9091,0.1,0.00055387,5534.8,0.00056445,6035.2,-7.9737e-05,1195,-0.00023869,0.70772,0.0068411
5648,1.1034,5.0909,0.1,0.00055699,5566.1,0.00056722,5996.5,-9.8562e-05,994.09,-0.00023079,0.57046,0.006596
5649,1.1034,5.2727,0.1,0.00056331,5629.2,0.00057241,5972.4,-0.00012078,764.07,-0.00022243,0.30031,0.0062954
5650,1.1034,5.4545,0.1,0.00057315,5727.5,0.00058015,5966.8,-0.00014569,513.09,-0.00021399,-0.040844,0.0059267
5651,1.1034,5.6364,0.1,0.00058643,5860.3,0.00059031,5982.4,-0.00017205,254.36,-0.00020613,-1.6966,0.0054758
5652,1.1034,5.8182,0.1,0.00060549,6050.7,0.00060517,6041.6,-0.00019659,17.515,-0.00020362,-35.267,0.0049271
5653,1.2874,0.18182,0.1,0.00060786,6074.4,0.00060781,6073.1,-0.00019772,20.719,-0.00020355,-23.077,0.0070051
5654,1.2874,0.36364,0.1,0.00059071,5903,0.00059428,6014.9,-0.00017525,233,-0.00020653,-2.0861,0.0076397
5655,1.2874,0.54545,0.1,0.000578,5776,0.00058439,5990.2,-0.00015211,456.47,-0.00021297,-0.86533,0.008172
5656,1.2874,0.72727,0.1,0.00056772,5673.3,0.00057618,5980.8,-0.00012979,676.37,-0.00021991,-0.68889,0.0086161
5657,1.2874,0.90909,0.1,0.00056004,5596.6,0.0005698,5985.4,-0.00010924,883.35,-0.00022688,-0.51999,0.008985
5658,1.2874,1.0909,0.1,0.00055493,5545.4,0.00056531,6002.2,-9.1112e-05,1070.1,-0.00023359,-0.44352,0.0092908
5659,1.2874,1.2727,0.1,0.00055204,5516.6,0.00056256,6028.5,-7.5677e-05,1233,-0.00023984,-0.39824,0.0095437
5660,1.2874,1.4545,0.1,0.0005509,5505.2,0.00056124,6061.1,-6.2891e-05,1371.5,-0.00024548,-0.37689,0.0097522
5661,1.2874,1.6364,0.1,0.000551,5506.2,0.000561,6096.7,-5.2521e-05,1487,-0.00025047,-0.36722,0.0099235
5662,1.2874,1.8182,0.1,0.00055189,5515,0.00056149,6132.7,-4.4255e-05,1581.4,-0.00025478,-0.36378,0.010063
5663,1.2874,2,0.1,0.00055318,5528,0.00056239,6166.8,-3.7777e-05,1657.4,-0.00025841,-0.3631,0.010176
5664,1.2874,2.1818,0.1,0.0005546,5542.2,0.00056346,6197.2,-3.28e-05,1717.2,-0.00026139,-0.3635,0.010265
5665,1.2874,2.3636,0.1,0.00055594,5555.6,0.00056451,6222.8,-2.9089e-05,1762.7,-0.00026374,-0.36417,0.010333
5666,1.2874,2.5455,0.1,0.00055705,5566.7,0.00056541,6242.6,-2.646e-05,1795.5,-0.00026548,-0.36477,0.010383
5667,1.2874,2.7273,0.1,0.00055784,5574.6,0.00056605,6256,-2.4778e-05,1816.8,-0.00026662,-0.36519,0.010415
5668,1.2874,2.9091,0.1,0.00055825,5578.7,0.00056639,6262.9,-2.3959e-05,1827.2,-0.00026719,-0.3654,0.010431
5669,1.2874,3.0909,0.1,0.00055825,5578.7,0.00056639,6262.9,-2.3959e-05,1827.2,-0.00026719,-0.3654,0.010431
5670,1.2874,3.2727,0.1,0.00055784,5574.6,0.00056605,6256,-2.4778e-05,1816.8,-0.00026662,-0.36519,0.010415
5671,1.2874,3.4545,0.1,0.00055705,5566.7,0.00056541,6242.6,-2.646e-05,1795.5,-0.00026548,-0.36477,0.010383
5672,1.2874,3.6364,0.1,0.00055594,5555.6,0.00056451,6222.8,-2.9089e-05,1762.7,-0.00026374,-0.36417,0.010333
5673,1.2874,3.8182,0.1,0.0005546,5542.2,0.00056346,6197.2,-3.28e-05,1717.2,-0.00026139,-0.3635,0.010265
5674,1.2874,4,0.1,0.00055318,5528,0.00056239,6166.8,-3.7777e-05,1657.4,-0.00025841,-0.3631,0.010176
5675,1.2874,4.1818,0.1,0.00055189,5515,0.00056149,6132.7,-4.4255e-05,1581.4,-0.00025478,-0.36378,0.010063
5676,1.2874,4.3636,0.1,0.000551,5506.2,0.000561,6096.7,-5.2521e-05,1487,-0.00025047,-0.36722,0.0099235
5677,1.2874,4.5455,0.1,0.0005509,5505.2,0.00056124,6061.1,-6.2891e-05,1371.5,-0.00024548,-0.37689,0.0097522
5678,1.2874,4.7273,0.1,0.00055204,5516.6,0.00056256,6028.5,-7.5677e-05,1233,-0.00023984,-0.39824,0.0095437
5679,1.2874,4.9091,0.1,0.00055492,5545.4,0.00056531,6002.2,-9.1112e-05,1070.1,-0.00023359,-0.44352,0.0092908
5680,1.2874,5.0909,0.1,0.00056004,5596.6,0.0005698,5985.4,-0.00010924,883.35,-0.00022688,-0.51999,0.008985
5681,1.2874,5.2727,0.1,0.00056772,5673.3,0.00057618,5980.8,-0.00012979,676.37,-0.00021991,-0.68889,0.0086161
5682,1.2874,5.4545,0.1,0.000578,5776,0.00058439,5990.2,-0.00015211,456.47,-0.00021297,-0.86533,0.008172
5683,1.2874,5.6364,0.1,0.00059071,5903,0.00059428,6014.9,-0.00017525,233,-0.00020653,-2.0861,0.0076397
5684,1.2874,5.8182,0.1,0.00060786,6074.4,0.00060781,6073.1,-0.00019772,20.719,-0.00020355,-23.077,0.0070051
5685,1.4713,0.18182,0.1,0.00060723,6068.1,0.0006074,6073.3,-0.00019751,25.55,-0.00020288,-14.817,0.0094783
5686,1.4713,0.36364,0.1,0.00059172,5913.1,0.00059508,6017.9,-0.00017692,217.35,-0.00020607,-1.6538,0.010192
5687,1.4713,0.54545,0.1,0.00057972,5793.2,0.00058564,5988.6,-0.00015637,413.48,-0.00021147,-0.53799,0.0108
5688,1.4713,0.72727,0.1,0.00056951,5691.1,0.0005774,5970.4,-0.00013633,607.81,-0.00021727,-0.3661,0.011315
5689,1.4713,0.90909,0.1,0.00056123,5608.4,0.0005705,5962.9,-0.00011747,793.81,-0.00022315,-0.19928,0.01175
5690,1.4713,1.0909,0.1,0.00055497,5545.9,0.00056505,5965.2,-0.00010037,965.42,-0.00022888,-0.11593,0.012115
5691,1.4713,1.2727,0.1,0.00055061,5502.3,0.00056104,5975.7,-8.5365e-05,1118.9,-0.00023429,-0.061978,0.012421
5692,1.4713,1.4545,0.1,0.00054786,5474.8,0.00055831,5992.6,-7.2541e-05,1252.6,-0.00023926,-0.032123,0.012676
5693,1.4713,1.6364,0.1,0.00054638,5460,0.00055664,6013.5,-6.1831e-05,1366.6,-0.00024371,-0.01569,0.012887
5694,1.4713,1.8182,0.1,0.00054582,5454.4,0.00055578,6036.3,-5.3066e-05,1461.7,-0.00024761,-0.0074102,0.013061
5695,1.4713,2,0.1,0.00054586,5454.8,0.00055549,6059.1,-4.6036e-05,1539.5,-0.00025093,-0.0035513,0.013202
5696,1.4713,2.1818,0.1,0.00054625,5458.7,0.00055556,6080.3,-4.0532e-05,1601.5,-0.00025367,-0.0020034,0.013314
5697,1.4713,2.3636,0.1,0.00054677,5464,0.00055582,6098.6,-3.6363e-05,1649.2,-0.00025585,-0.0015515,0.0134
5698,1.4713,2.5455,0.1,0.00054729,5469.1,0.00055612,6113.1,-3.3373e-05,1683.8,-0.00025747,-0.0015508,0.013463
5699,1.4713,2.7273,0.1,0.00054769,5473.1,0.00055638,6123.1,-3.1445e-05,1706.4,-0.00025855,-0.0016722,0.013504
5700,1.4713,2.9091,0.1,0.00054791,5475.3,0.00055652,6128.2,-3.0501e-05,1717.5,-0.00025909,-0.0017624,0.013524
5701,1.4713,3.0909,0.1,0.00054791,5475.3,0.00055652,6128.2,-3.0501e-05,1717.5,-0.00025909,-0.0017624,0.013524
5702,1.4713,3.2727,0.1,0.00054769,5473.1,0.00055638,6123.1,-3.1445e-05,1706.4,-0.00025855,-0.0016721,0.013504
5703,1.4713,3.4545,0.1,0.00054729,5469.1,0.00055612,6113.1,-3.3373e-05,1683.8,-0.00025747,-0.0015508,0.013463
5704,1.4713,3.6364,0.1,0.00054677,5464,0.00055582,6098.6,-3.6363e-05,1649.2,-0.00025585,-0.0015516,0.0134
5705,1.4713,3.8182,0.1,0.00054625,5458.7,0.00055556,6080.3,-4.0532e-05,1601.5,-0.00025367,-0.0020035,0.013314
5706,1.4713,4,0.1,0.00054586,5454.8,0.00055549,6059.1,-4.6036e-05,1539.5,-0.00025093,-0.0035513,0.013202
5707,1.4713,4.1818,0.1,0.00054582,5454.4,0.00055578,6036.3,-5.3066e-05,1461.7,-0.00024761,-0.0074101,0.013061
5708,1.4713,4.3636,0.1,0.00054638,5460,0.00055664,6013.5,-6.1831e-05,1366.6,-0.00024371,-0.01569,0.012887
5709,1.4713,4.5455,0.1,0.00054786,5474.8,0.00055831,5992.6,-7.2541e-05,1252.6,-0.00023926,-0.032123,0.012676
5710,1.4713,4.7273,0.1,0.00055061,5502.3,0.00056104,5975.7,-8.5365e-05,1118.9,-0.00023429,-0.061977,0.012421
5711,1.4713,4.9091,0.1,0.00055497,5545.9,0.00056505,5965.2,-0.00010037,965.42,-0.00022888,-0.11593,0.012115
5712,1.4713,5.0909,0.1,0.00056123,5608.4,0.0005705,5962.9,-0.00011747,793.81,-0.00022315,-0.19928,0.01175
5713,1.4713,5.2727,0.1,0.00056951,5691.1,0.0005774,5970.4,-0.00013633,607.81,-0.00021727,-0.3661,0.011315
5714,1.4713,5.4545,0.1,0.00057972,5793.2,0.00058564,5988.6,-0.00015637,413.48,-0.00021147,-0.53799,0.0108
5715,1.4713,5.6364,0.1,0.00059172,5913.1,0.00059508,6017.9,-0.00017692,217.35,-0.00020607,-1.6538,0.010192
5716,1.4713,5.8182,0.1,0.00060723,6068.1,0.0006074,6073.3,-0.00019751,25.55,-0.00020288,-14.817,0.0094783
5717,1.6552,0.18182,0.1,0.00060458,6041.6,0.00060493,6052.1,-0.00019644,30.966,-0.00020186,-9.7803,0.012349
5718,1.6552,0.36364,0.1,0.00059052,5901.1,0.00059371,6000.1,-0.0001776,204.73,-0.00020505,-1.4882,0.013135
5719,1.6552,0.54545,0.1,0.00057928,5788.8,0.00058478,5968.7,-0.00015917,378.92,-0.00020967,-0.52505,0.013813
5720,1.6552,0.72727,0.1,0.00056938,5689.8,0.00057674,5945.5,-0.00014108,552.05,-0.00021461,-0.38946,0.014395
5721,1.6552,0.90909,0.1,0.00056094,5605.6,0.0005697,5930.4,-0.00012383,719.48,-0.00021962,-0.24672,0.014892
5722,1.6552,1.0909,0.1,0.0005541,5537.2,0.00056377,5923,-0.00010789,876.39,-0.00022455,-0.17386,0.015315
5723,1.6552,1.2727,0.1,0.00054883,5484.5,0.00055901,5922.6,-9.3573e-05,1019.3,-0.00022925,-0.12432,0.015672
5724,1.6552,1.4545,0.1,0.00054498,5446,0.00055535,5927.9,-8.1047e-05,1146.3,-0.00023362,-0.095526,0.015973
5725,1.6552,1.6364,0.1,0.00054234,5419.6,0.00055267,5937.5,-7.0338e-05,1256.4,-0.00023757,-0.078979,0.016224
5726,1.6552,1.8182,0.1,0.00054065,5402.8,0.00055081,5949.7,-6.1381e-05,1350,-0.00024106,-0.070416,0.016433
5727,1.6552,2,0.1,0.00053967,5393,0.00054959,5963.2,-5.4056e-05,1427.6,-0.00024407,-0.066499,0.016602
5728,1.6552,2.1818,0.1,0.00053919,5388.2,0.00054884,5976.4,-4.8223e-05,1490.3,-0.00024658,-0.065159,0.016738
5729,1.6552,2.3636,0.1,0.00053901,5386.4,0.00054842,5988.3,-4.3743e-05,1539,-0.00024858,-0.065082,0.016843
5730,1.6552,2.5455,0.1,0.00053899,5386.2,0.00054822,5998,-4.0495e-05,1574.6,-0.00025008,-0.065495,0.01692
5731,1.6552,2.7273,0.1,0.00053904,5386.7,0.00054813,6004.8,-3.8385e-05,1598,-0.00025107,-0.065957,0.01697
5732,1.6552,2.9091,0.1,0.00053908,5387.1,0.0005481,6008.3,-3.7346e-05,1609.5,-0.00025157,-0.066236,0.016995
5733,1.6552,3.0909,0.1,0.00053908,5387.1,0.0005481,6008.3,-3.7346e-05,1609.5,-0.00025157,-0.066236,0.016995
5734,1.6552,3.2727,0.1,0.00053904,5386.7,0.00054813,6004.8,-3.8385e-05,1598,-0.00025107,-0.065957,0.01697
5735,1.6552,3.4545,0.1,0.00053899,5386.2,0.00054822,5998,-4.0495e-05,1574.6,-0.00025008,-0.065495,0.01692
5736,1.6552,3.6364,0.1,0.00053901,5386.4,0.00054842,5988.3,-4.3743e-05,1539,-0.00024858,-0.065082,0.016843
5737,1.6552,3.8182,0.1,0.00053919,5388.2,0.00054884,5976.4,-4.8223e-05,1490.3,-0.00024658,-0.065158,0.016738
5738,1.6552,4,0.1,0.00053967,5393,0.00054959,5963.2,-5.4056e-05,1427.6,-0.00024407,-0.066499,0.016602
5739,1.6552,4.1818,0.1,0.00054065,5402.8,0.00055081,5949.7,-6.1381e-05,1350,-0.00024106,-0.070416,0.016433
5740,1.6552,4.3636,0.1,0.00054234,5419.6,0.00055267,5937.5,-7.0338e-05,1256.4,-0.00023757,-0.078979,0.016224
5741,1.6552,4.5455,0.1,0.00054498,5446,0.00055535,5927.9,-8.1047e-05,1146.3,-0.00023362,-0.095525,0.015973
5742,1.6552,4.7273,0.1,0.00054883,5484.5,0.00055901,5922.6,-9.3573e-05,1019.3,-0.00022925,-0.12432,0.015672
5743,1.6552,4.9091,0.1,0.0005541,5537.2,0.00056377,5923,-0.00010789,876.39,-0.00022455,-0.17386,0.015315
5744,1.6552,5.0909,0.1,0.00056094,5605.6,0.0005697,5930.4,-0.00012383,719.48,-0.00021962,-0.24672,0.014892
5745,1.6552,5.2727,0.1,0.00056938,5689.8,0.00057674,5945.5,-0.00014108,552.05,-0.00021461,-0.38946,0.014395
5746,1.6552,5.4545,0.1,0.00057928,5788.8,0.00058478,5968.7,-0.00015917,378.92,-0.00020967,-0.52505,0.013813
5747,1.6552,5.6364,0.1,0.00059052,5901.1,0.00059371,6000.1,-0.0001776,204.73,-0.00020505,-1.4882,0.013135
5748,1.6552,5.8182,0.1,0.00060458,6041.6,0.00060493,6052.1,-0.00019644,30.966,-0.00020186,-9.7803,0.012349
5749,1.8391,0.18182,0.1,0.00060055,6001.3,0.00060104,6016,-0.00019481,36.26,-0.00020053,-6.7213,0.015619
5750,1.8391,0.36364,0.1,0.00058776,5873.6,0.0005908,5967.5,-0.00017761,193.99,-0.0002036,-1.3016,0.016471
5751,1.8391,0.54545,0.1,0.00057726,5768.6,0.00058241,5935.5,-0.00016095,350.13,-0.00020761,-0.44915,0.017213
5752,1.8391,0.72727,0.1,0.00056779,5673.9,0.00057468,5909.6,-0.00014456,505.46,-0.00021188,-0.33439,0.017857
5753,1.8391,0.90909,0.1,0.00055945,5590.6,0.00056771,5889.8,-0.00012878,656.65,-0.0002162,-0.20702,0.018412
5754,1.8391,1.0909,0.1,0.00055237,5519.9,0.00056161,5876.1,-0.000114,799.86,-0.00022047,-0.14027,0.018889
5755,1.8391,1.2727,0.1,0.00054659,5462.1,0.00055644,5868.1,-0.00010051,932.07,-0.00022457,-0.092758,0.019296
5756,1.8391,1.4545,0.1,0.00054203,5416.6,0.00055221,5865.1,-8.8485e-05,1051.2,-0.0002284,-0.063346,0.019641
5757,1.8391,1.6364,0.1,0.00053858,5382.1,0.00054885,5866.2,-7.8017e-05,1156.2,-0.00023191,-0.04515,0.019932
5758,1.8391,1.8182,0.1,0.00053607,5357,0.00054627,5870.3,-6.9105e-05,1246.6,-0.00023503,-0.03475,0.020174
5759,1.8391,2,0.1,0.0005343,5339.3,0.00054436,5876.3,-6.1697e-05,1322.6,-0.00023773,-0.029254,0.020373
5760,1.8391,2.1818,0.1,0.00053311,5327.4,0.00054298,5883,-5.5713e-05,1384.6,-0.00024,-0.02673,0.020532
5761,1.8391,2.3636,0.1,0.00053234,5319.8,0.00054203,5889.5,-5.1062e-05,1433.3,-0.00024182,-0.025853,0.020656
5762,1.8391,2.5455,0.1,0.00053188,5315.1,0.00054141,5895.1,-4.7658e-05,1469.1,-0.00024319,-0.025772,0.020747
5763,1.8391,2.7273,0.1,0.00053162,5312.5,0.00054103,5899.2,-4.5431e-05,1492.7,-0.0002441,-0.025959,0.020806
5764,1.8391,2.9091,0.1,0.00053151,5311.4,0.00054086,5901.3,-4.433e-05,1504.4,-0.00024456,-0.026119,0.020836
5765,1.8391,3.0909,0.1,0.00053151,5311.4,0.00054086,5901.3,-4.433e-05,1504.4,-0.00024456,-0.026119,0.020836
5766,1.8391,3.2727,0.1,0.00053162,5312.5,0.00054103,5899.2,-4.5431e-05,1492.7,-0.0002441,-0.025959,0.020806
5767,1.8391,3.4545,0.1,0.00053188,5315.1,0.00054141,5895.1,-4.7658e-05,1469.1,-0.00024319,-0.025772,0.020747
5768,1.8391,3.6364,0.1,0.00053234,5319.8,0.00054203,5889.5,-5.1062e-05,1433.3,-0.00024182,-0.025853,0.020656
5769,1.8391,3.8182,0.1,0.00053311,5327.4,0.00054298,5883,-5.5713e-05,1384.6,-0.00024,-0.02673,0.020532
5770,1.8391,4,0.1,0.0005343,5339.3,0.00054436,5876.3,-6.1697e-05,1322.6,-0.00023773,-0.029254,0.020373
5771,1.8391,4.1818,0.1,0.00053607,5357,0.00054627,5870.3,-6.9105e-05,1246.6,-0.00023503,-0.03475,0.020174
5772,1.8391,4.3636,0.1,0.00053858,5382.1,0.00054885,5866.2,-7.8017e-05,1156.2,-0.00023191,-0.04515,0.019932
5773,1.8391,4.5455,0.1,0.00054203,5416.6,0.00055221,5865.1,-8.8485e-05,1051.2,-0.0002284,-0.063346,0.019641
5774,1.8391,4.7273,0.1,0.00054659,5462.1,0.00055644,5868.1,-0.00010051,932.07,-0.00022457,-0.092758,0.019296
5775,1.8391,4.9091,0.1,0.00055237,5519.9,0.00056161,5876.1,-0.000114,799.86,-0.00022047,-0.14027,0.018889
5776,1.8391,5.0909,0.1,0.00055945,5590.6,0.00056771,5889.8,-0.00012878,656.65,-0.0002162,-0.20702,0.018412
5777,1.8391,5.2727,0.1,0.00056779,5673.9,0.00057468,5909.6,-0.00014456,505.46,-0.00021188,-0.33439,0.017857
5778,1.8391,5.4545,0.1,0.00057726,5768.6,0.00058241,5935.5,-0.00016095,350.13,-0.00020761,-0.44915,0.017213
5779,1.8391,5.6364,0.1,0.00058776,5873.6,0.0005908,5967.5,-0.00017761,193.99,-0.0002036,-1.3016,0.016471
5780,1.8391,5.8182,0.1,0.00060055,6001.3,0.00060104,6016,-0.00019481,36.26,-0.00020053,-6.7213,0.015619
5781,2.023,0.18182,0.1,0.00059557,5951.5,0.00059617,5969.4,-0.00019288,40.879,-0.00019896,-4.8255,0.019285
5782,2.023,0.36364,0.1,0.00058391,5835,0.0005868,5924.4,-0.00017715,184.36,-0.00020184,-1.156,0.020197
5783,2.023,0.54545,0.1,0.0005741,5737.1,0.00057894,5892.6,-0.00016202,325.32,-0.00020537,-0.40106,0.020999
5784,2.023,0.72727,0.1,0.00056511,5647.2,0.00057158,5865.4,-0.0001471,465.51,-0.00020909,-0.30536,0.0217
5785,2.023,0.90909,0.1,0.00055701,5566.3,0.0005648,5842.9,-0.00013265,602.47,-0.00021286,-0.19273,0.02231
5786,2.023,1.0909,0.1,0.00054992,5495.4,0.00055871,5825.1,-0.00011899,733.15,-0.00021659,-0.13288,0.022837
5787,2.023,1.2727,0.1,0.0005439,5435.3,0.00055338,5812.1,-0.00010637,854.97,-0.00022017,-0.088662,0.023291
5788,2.023,1.4545,0.1,0.00053894,5385.7,0.00054883,5803.3,-9.4971e-05,966.01,-0.00022355,-0.059948,0.023679
5789,2.023,1.6364,0.1,0.00053496,5345.9,0.00054506,5798.2,-8.4901e-05,1065,-0.00022665,-0.041114,0.024008
5790,2.023,1.8182,0.1,0.00053186,5315,0.00054201,5796.2,-7.6205e-05,1151.2,-0.00022943,-0.029503,0.024283
5791,2.023,2,0.1,0.00052951,5291.5,0.0005396,5796.4,-6.888e-05,1224.5,-0.00023185,-0.022712,0.02451
5792,2.023,2.1818,0.1,0.00052779,5274.2,0.00053776,5797.9,-6.2892e-05,1284.8,-0.00023389,-0.019054,0.024693
5793,2.023,2.3636,0.1,0.00052656,5262,0.00053641,5800.1,-5.8191e-05,1332.5,-0.00023554,-0.017296,0.024835
5794,2.023,2.5455,0.1,0.00052573,5253.7,0.00053546,5802.4,-5.4723e-05,1367.9,-0.00023678,-0.016594,0.02494
5795,2.023,2.7273,0.1,0.00052523,5248.7,0.00053487,5804.1,-5.244e-05,1391.3,-0.00023762,-0.016395,0.025009
5796,2.023,2.9091,0.1,0.00052499,5246.3,0.00053458,5805.1,-5.1308e-05,1403,-0.00023803,-0.016371,0.025042
5797,2.023,3.0909,0.1,0.00052499,5246.3,0.00053458,5805.1,-5.1308e-05,1403,-0.00023803,-0.016371,0.025042
5798,2.023,3.2727,0.1,0.00052523,5248.7,0.00053487,5804.1,-5.244e-05,1391.3,-0.00023762,-0.016394,0.025009
5799,2.023,3.4545,0.1,0.00052573,5253.7,0.00053546,5802.4,-5.4723e-05,1367.9,-0.00023678,-0.016594,0.02494
5800,2.023,3.6364,0.1,0.00052656,5262,0.00053641,5800.1,-5.8191e-05,1332.5,-0.00023554,-0.017296,0.024835
5801,2.023,3.8182,0.1,0.00052779,5274.2,0.00053776,5797.9,-6.2892e-05,1284.8,-0.00023389,-0.019054,0.024693
5802,2.023,4,0.1,0.00052951,5291.5,0.0005396,5796.4,-6.888e-05,1224.5,-0.00023185,-0.022712,0.02451
5803,2.023,4.1818,0.1,0.00053186,5315,0.00054201,5796.2,-7.6205e-05,1151.2,-0.00022943,-0.029502,0.024283
5804,2.023,4.3636,0.1,0.00053496,5345.9,0.00054506,5798.2,-8.4901e-05,1065,-0.00022665,-0.041113,0.024008
5805,2.023,4.5455,0.1,0.00053894,5385.7,0.00054883,5803.3,-9.4971e-05,966.01,-0.00022355,-0.059947,0.023679
5806,2.023,4.7273,0.1,0.0005439,5435.3,0.00055338,5812.1,-0.00010637,854.97,-0.00022017,-0.088662,0.023291
5807,2.023,4.9091,0.1,0.00054992,5495.4,0.00055871,5825.1,-0.00011899,733.15,-0.00021659,-0.13288,0.022837
5808,2.023,5.0909,0.1,0.00055701,5566.3,0.0005648,5842.9,-0.00013265,602.47,-0.00021286,-0.19273,0.02231
5809,2.023,5.2727,0.1,0.00056511,5647.2,0.00057158,5865.4,-0.0001471,465.51,-0.00020909,-0.30536,0.0217
5810,2.023,5.4545,0.1,0.0005741,5737.1,0.00057894,5892.6,-0.00016202,325.32,-0.00020537,-0.40106,0.020999
5811,2.023,5.6364,0.1,0.00058391,5835,0.0005868,5924.4,-0.00017715,184.36,-0.00020184,-1.156,0.020197
5812,2.023,5.8182,0.1,0.00059557,5951.5,0.00059617,5969.4,-0.00019288,40.879,-0.00019896,-4.8255,0.019285
5813,2.2069,0.18182,0.1,0.00058993,5895.2,0.00059061,5915.6,-0.00019077,44.605,-0.00019718,-3.5928,0.023348
5814,2.2069,0.36364,0.1,0.00057927,5788.7,0.00058203,5873.9,-0.00017638,175.43,-0.00019987,-1.0285,0.024315
5815,2.2069,0.54545,0.1,0.00057013,5697.4,0.00057468,5842.8,-0.00016257,303.38,-0.000203,-0.35535,0.02517
5816,2.2069,0.72727,0.1,0.00056164,5612.5,0.00056771,5815.2,-0.00014895,430.5,-0.00020628,-0.27463,0.025923
5817,2.2069,0.90909,0.1,0.00055386,5534.8,0.0005612,5791.2,-0.0001357,554.95,-0.00020959,-0.17437,0.026583
5818,2.2069,1.0909,0.1,0.0005469,5465.2,0.00055524,5771,-0.0001231,674.27,-0.00021285,-0.12058,0.027158
5819,2.2069,1.2727,0.1,0.00054083,5404.6,0.0005499,5754.6,-0.00011135,786.28,-0.00021601,-0.07966,0.027656
5820,2.2069,1.4545,0.1,0.00053567,5353,0.00054522,5741.9,-0.00010063,889.23,-0.00021898,-0.052021,0.028084
5821,2.2069,1.6364,0.1,0.00053138,5310.1,0.00054122,5732.5,-9.105e-05,981.84,-0.00022173,-0.032984,0.028449
5822,2.2069,1.8182,0.1,0.0005279,5275.3,0.00053788,5726,-8.2687e-05,1063.3,-0.0002242,-0.020488,0.028756
5823,2.2069,2,0.1,0.00052515,5247.9,0.00053516,5721.8,-7.5568e-05,1133,-0.00022637,-0.012572,0.02901
5824,2.2069,2.1818,0.1,0.00052303,5226.7,0.00053301,5719.4,-6.9691e-05,1191,-0.0002282,-0.007811,0.029216
5825,2.2069,2.3636,0.1,0.00052146,5211,0.00053137,5718.3,-6.5039e-05,1237.1,-0.00022969,-0.0051149,0.029377
5826,2.2069,2.5455,0.1,0.00052036,5200,0.00053019,5717.9,-6.1583e-05,1271.5,-0.00023081,-0.0036996,0.029495
5827,2.2069,2.7273,0.1,0.00051966,5193.1,0.00052943,5717.8,-5.9297e-05,1294.3,-0.00023156,-0.0030281,0.029573
5828,2.2069,2.9091,0.1,0.00051933,5189.7,0.00052906,5717.8,-5.816e-05,1305.7,-0.00023194,-0.0027708,0.029611
5829,2.2069,3.0909,0.1,0.00051933,5189.7,0.00052906,5717.8,-5.816e-05,1305.7,-0.00023194,-0.0027707,0.029611
5830,2.2069,3.2727,0.1,0.00051966,5193.1,0.00052943,5717.8,-5.9297e-05,1294.3,-0.00023156,-0.0030281,0.029573
5831,2.2069,3.4545,0.1,0.00052036,5200,0.00053019,5717.9,-6.1583e-05,1271.5,-0.00023081,-0.0036995,0.029495
5832,2.2069,3.6364,0.1,0.00052146,5211,0.00053137,5718.3,-6.5039e-05,1237.1,-0.00022969,-0.0051147,0.029377
5833,2.2069,3.8182,0.1,0.00052303,5226.7,0.00053301,5719.4,-6.9691e-05,1191,-0.0002282,-0.0078109,0.029216
5834,2.2069,4,0.1,0.00052515,5247.9,0.00053516,5721.8,-7.5568e-05,1133,-0.00022637,-0.012571,0.02901
5835,2.2069,4.1818,0.1,0.0005279,5275.3,0.00053788,5726,-8.2687e-05,1063.3,-0.0002242,-0.020488,0.028756
5836,2.2069,4.3636,0.1,0.00053138,5310.1,0.00054122,5732.5,-9.105e-05,981.84,-0.00022173,-0.032984,0.028449
5837,2.2069,4.5455,0.1,0.00053567,5353,0.00054522,5741.9,-0.00010063,889.23,-0.00021898,-0.052021,0.028084
5838,2.2069,4.7273,0.1,0.00054083,5404.6,0.0005499,5754.6,-0.00011135,786.28,-0.00021601,-0.07966,0.027656
5839,2.2069,4.9091,0.1,0.0005469,5465.2,0.00055524,5771,-0.0001231,674.27,-0.00021285,-0.12058,0.027158
5840,2.2069,5.0909,0.1,0.00055386,5534.8,0.0005612,5791.2,-0.0001357,554.95,-0.00020959,-0.17437,0.026583
5841,2.2069,5.2727,0.1,0.00056164,5612.5,0.00056771,5815.2,-0.00014895,430.5,-0.00020628,-0.27463,0.025923
5842,2.2069,5.4545,0.1,0.00057013,5697.3,0.00057468,5842.8,-0.00016257,303.38,-0.000203,-0.35535,0.02517
5843,2.2069,5.6364,0.1,0.00057927,5788.7,0.00058203,5873.9,-0.00017638,175.43,-0.00019987,-1.0285,0.024315
5844,2.2069,5.8182,0.1,0.00058993,5895.2,0.00059061,5915.6,-0.00019077,44.605,-0.00019718,-3.5928,0.023348
5845,2.3908,0.18182,0.1,0.00058384,5834.4,0.00058458,5856.5,-0.00018857,47.394,-0.00019524,-2.7554,0.027804
5846,2.3908,0.36364,0.1,0.00057408,5736.8,0.00057672,5818,-0.00017539,166.94,-0.00019773,-0.91948,0.02882
5847,2.3908,0.54545,0.1,0.00056556,5651.7,0.00056984,5788,-0.00016275,283.56,-0.00020053,-0.31669,0.029724
5848,2.3908,0.72727,0.1,0.00055757,5571.8,0.00056328,5760.6,-0.00015027,399.28,-0.00020344,-0.2484,0.030525
5849,2.3908,0.90909,0.1,0.00055015,5497.8,0.00055708,5736,-0.00013811,512.66,-0.00020637,-0.15892,0.031232
5850,2.3908,1.0909,0.1,0.00054342,5430.4,0.00055132,5714.5,-0.00012649,621.7,-0.00020925,-0.11068,0.031851
5851,2.3908,1.2727,0.1,0.00053743,5370.6,0.00054607,5696,-0.00011559,724.57,-0.00021203,-0.073086,0.032389
5852,2.3908,1.4545,0.1,0.00053222,5318.5,0.0005414,5680.7,-0.00010556,819.71,-0.00021467,-0.0469,0.032855
5853,2.3908,1.6364,0.1,0.00052778,5274.1,0.00053731,5668.4,-9.6533e-05,905.88,-0.0002171,-0.02814,0.033254
5854,2.3908,1.8182,0.1,0.00052408,5237.2,0.00053383,5658.7,-8.8579e-05,982.19,-0.0002193,-0.015203,0.033591
5855,2.3908,2,0.1,0.00052107,5207.1,0.00053092,5651.4,-8.175e-05,1048,-0.00022124,-0.0064991,0.033871
5856,2.3908,2.1818,0.1,0.0005187,5183.4,0.00052858,5646.1,-7.6068e-05,1103.1,-0.00022288,-0.00085756,0.034099
5857,2.3908,2.3636,0.1,0.00051689,5165.3,0.00052675,5642.5,-7.1539e-05,1147.1,-0.00022421,0.0026528,0.034277
5858,2.3908,2.5455,0.1,0.00051559,5152.3,0.00052542,5640,-6.8157e-05,1180.1,-0.00022522,0.0047244,0.034408
5859,2.3908,2.7273,0.1,0.00051475,5144,0.00052455,5638.6,-6.591e-05,1202.1,-0.0002259,0.0058489,0.034495
5860,2.3908,2.9091,0.1,0.00051434,5139.9,0.00052412,5637.9,-6.4789e-05,1213.1,-0.00022624,0.0063361,0.034538
5861,2.3908,3.0909,0.1,0.00051434,5139.9,0.00052412,5637.9,-6.4789e-05,1213.1,-0.00022624,0.0063362,0.034538
5862,2.3908,3.2727,0.1,0.00051475,5144,0.00052455,5638.6,-6.591e-05,1202.1,-0.0002259,0.0058489,0.034495
5863,2.3908,3.4545,0.1,0.00051559,5152.3,0.00052542,5640,-6.8157e-05,1180.1,-0.00022522,0.0047245,0.034408
5864,2.3908,3.6364,0.1,0.00051689,5165.3,0.00052675,5642.5,-7.1539e-05,1147.1,-0.00022421,0.002653,0.034277
5865,2.3908,3.8182,0.1,0.0005187,5183.4,0.00052858,5646.1,-7.6068e-05,1103.1,-0.00022288,-0.00085736,0.034099
5866,2.3908,4,0.1,0.00052107,5207.1,0.00053092,5651.4,-8.175e-05,1048,-0.00022124,-0.0064988,0.033871
5867,2.3908,4.1818,0.1,0.00052408,5237.2,0.00053383,5658.7,-8.8579e-05,982.19,-0.0002193,-0.015202,0.033591
5868,2.3908,4.3636,0.1,0.00052778,5274.1,0.00053731,5668.4,-9.6533e-05,905.88,-0.0002171,-0.02814,0.033254
5869,2.3908,4.5455,0.1,0.00053222,5318.5,0.0005414,5680.7,-0.00010556,819.71,-0.00021467,-0.046899,0.032855
5870,2.3908,4.7273,0.1,0.00053743,5370.6,0.00054607,5696,-0.00011559,724.57,-0.00021203,-0.073085,0.032389
5871,2.3908,4.9091,0.1,0.00054342,5430.4,0.00055132,5714.5,-0.00012649,621.7,-0.00020925,-0.11068,0.031851
5872,2.3908,5.0909,0.1,0.00055015,5497.8,0.00055708,5736,-0.00013811,512.66,-0.00020637,-0.15892,0.031232
5873,2.3908,5.2727,0.1,0.00055757,5571.8,0.00056328,5760.6,-0.00015027,399.28,-0.00020344,-0.2484,0.030525
5874,2.3908,5.4545,0.1,0.00056556,5651.7,0.00056984,5788,-0.00016275,283.56,-0.00020053,-0.31669,0.029724
5875,2.3908,5.6364,0.1,0.00057408,5736.8,0.00057672,5818,-0.00017539,166.94,-0.00019773,-0.91948,0.02882
5876,2.3908,5.8182,0.1,0.00058384,5834.4,0.00058458,5856.5,-0.00018857,47.394,-0.00019524,-2.7554,0.027804
5877,2.5747,0.18182,0.1,0.00057746,5770.6,0.00057824,5794,-0.00018633,49.298,-0.00019318,-2.1634,0.032651
5878,2.5747,0.36364,0.1,0.0005685,5681.1,0.00057102,5758.4,-0.00017424,158.75,-0.00019548,-0.82465,0.033711
5879,2.5747,0.54545,0.1,0.00056056,5601.8,0.0005646,5729.6,-0.00016264,265.39,-0.000198,-0.28262,0.034659
5880,2.5747,0.72727,0.1,0.00055306,5526.8,0.00055843,5702.9,-0.00015119,371.03,-0.0002006,-0.22456,0.035504
5881,2.5747,0.90909,0.1,0.00054604,5456.6,0.00055256,5678.3,-0.00014002,474.56,-0.0002032,-0.14441,0.036253
5882,2.5747,1.0909,0.1,0.00053958,5392.1,0.00054705,5656.2,-0.00012931,574.31,-0.00020576,-0.10109,0.036912
5883,2.5747,1.2727,0.1,0.00053375,5333.9,0.00054197,5636.7,-0.00011922,668.73,-0.00020823,-0.066685,0.037489
5884,2.5747,1.4545,0.1,0.0005286,5282.3,0.00053739,5619.8,-0.00010988,756.44,-0.00021056,-0.042121,0.037989
5885,2.5747,1.6364,0.1,0.00052413,5237.7,0.00053332,5605.5,-0.00010142,836.3,-0.00021273,-0.023961,0.03842
5886,2.5747,1.8182,0.1,0.00052034,5199.8,0.0005298,5593.7,-9.3917e-05,907.41,-0.00021469,-0.010938,0.038785
5887,2.5747,2,0.1,0.00051719,5168.4,0.00052681,5584.3,-8.7432e-05,969.11,-0.00021641,-0.0017641,0.03909
5888,2.5747,2.1818,0.1,0.00051466,5143.1,0.00052437,5577,-8.2003e-05,1020.9,-0.00021788,0.0045114,0.039338
5889,2.5747,2.3636,0.1,0.0005127,5123.5,0.00052244,5571.5,-7.7652e-05,1062.6,-0.00021907,0.008663,0.039533
5890,2.5747,2.5455,0.1,0.00051127,5109.2,0.00052102,5567.6,-7.4388e-05,1093.9,-0.00021998,0.011281,0.039677
5891,2.5747,2.7273,0.1,0.00051034,5099.9,0.00052008,5565.1,-7.2212e-05,1114.9,-0.00022059,0.012797,0.039772
5892,2.5747,2.9091,0.1,0.00050988,5095.3,0.00051961,5563.9,-7.1125e-05,1125.3,-0.0002209,0.013487,0.039819
5893,2.5747,3.0909,0.1,0.00050988,5095.3,0.00051961,5563.9,-7.1125e-05,1125.3,-0.0002209,0.013487,0.039819
5894,2.5747,3.2727,0.1,0.00051034,5099.9,0.00052008,5565.1,-7.2212e-05,1114.9,-0.00022059,0.012797,0.039772
5895,2.5747,3.4545,0.1,0.00051127,5109.2,0.00052102,5567.6,-7.4388e-05,1093.9,-0.00021998,0.011281,0.039677
5896,2.5747,3.6364,0.1,0.0005127,5123.5,0.00052244,5571.5,-7.7652e-05,1062.6,-0.00021907,0.0086632,0.039533
5897,2.5747,3.8182,0.1,0.00051466,5143.1,0.00052437,5577,-8.2003e-05,1020.9,-0.00021788,0.0045117,0.039338
5898,2.5747,4,0.1,0.00051719,5168.4,0.00052681,5584.3,-8.7432e-05,969.11,-0.00021641,-0.0017639,0.03909
5899,2.5747,4.1818,0.1,0.00052034,5199.8,0.0005298,5593.7,-9.3917e-05,907.41,-0.00021469,-0.010938,0.038785
5900,2.5747,4.3636,0.1,0.00052413,5237.7,0.00053332,5605.5,-0.00010142,836.3,-0.00021273,-0.023961,0.03842
5901,2.5747,4.5455,0.1,0.0005286,5282.3,0.00053739,5619.8,-0.00010988,756.44,-0.00021056,-0.042121,0.037989
5902,2.5747,4.7273,0.1,0.00053375,5333.9,0.00054197,5636.7,-0.00011922,668.73,-0.00020823,-0.066684,0.037489
5903,2.5747,4.9091,0.1,0.00053958,5392.1,0.00054705,5656.2,-0.00012931,574.31,-0.00020576,-0.10109,0.036912
5904,2.5747,5.0909,0.1,0.00054604,5456.6,0.00055256,5678.3,-0.00014002,474.56,-0.0002032,-0.14441,0.036253
5905,2.5747,5.2727,0.1,0.00055306,5526.8,0.00055843,5702.9,-0.00015119,371.03,-0.0002006,-0.22456,0.035504
5906,2.5747,5.4545,0.1,0.00056056,5601.8,0.0005646,5729.6,-0.00016264,265.39,-0.000198,-0.28262,0.034659
5907,2.5747,5.6364,0.1,0.0005685,5681.1,0.00057102,5758.4,-0.00017424,158.75,-0.00019548,-0.82465,0.033711
5908,2.5747,5.8182,0.1,0.00057746,5770.6,0.00057824,5794,-0.00018633,49.298,-0.00019318,-2.1634,0.032651
5909,2.7586,0.18182,0.1,0.00057089,5705,0.0005717,5729.1,-0.00018409,50.401,-0.00019103,-1.7311,0.037884
5910,2.7586,0.36364,0.1,0.00056266,5622.7,0.00056506,5696.2,-0.00017299,150.77,-0.00019316,-0.74183,0.038984
5911,2.7586,0.54545,0.1,0.00055527,5548.9,0.00055907,5668.8,-0.00016232,248.52,-0.00019543,-0.25278,0.039973
5912,2.7586,0.72727,0.1,0.00054824,5478.6,0.00055329,5642.9,-0.0001518,345.19,-0.00019777,-0.20322,0.040857
5913,2.7586,0.90909,0.1,0.00054161,5412.4,0.00054775,5618.8,-0.00014153,439.89,-0.00020009,-0.13122,0.041644
5914,2.7586,1.0909,0.1,0.00053547,5351,0.00054252,5596.7,-0.00013166,531.23,-0.00020237,-0.092277,0.04234
5915,2.7586,1.2727,0.1,0.00052986,5294.9,0.00053766,5576.7,-0.00012233,617.87,-0.00020457,-0.060852,0.042952
5916,2.7586,1.4545,0.1,0.00052484,5244.7,0.00053322,5559,-0.00011366,698.61,-0.00020665,-0.037983,0.043485
5917,2.7586,1.6364,0.1,0.00052042,5200.7,0.00052924,5543.6,-0.00010577,772.41,-0.00020858,-0.020643,0.043945
5918,2.7586,1.8182,0.1,0.00051663,5162.7,0.00052575,5530.6,-9.8739e-05,838.39,-0.00021032,-0.0078184,0.044336
5919,2.7586,2,0.1,0.00051344,5130.8,0.00052277,5519.8,-9.2629e-05,895.87,-0.00021186,0.0015429,0.044664
5920,2.7586,2.1818,0.1,0.00051083,5104.8,0.0005203,5511.1,-8.749e-05,944.36,-0.00021317,0.0082074,0.044932
5921,2.7586,2.3636,0.1,0.00050879,5084.4,0.00051833,5504.3,-8.3353e-05,983.48,-0.00021424,0.012808,0.045142
5922,2.7586,2.5455,0.1,0.00050729,5069.4,0.00051687,5499.4,-8.0238e-05,1013,-0.00021506,0.015837,0.045297
5923,2.7586,2.7273,0.1,0.0005063,5059.5,0.0005159,5496.2,-7.8157e-05,1032.7,-0.0002156,0.017658,0.0454
5924,2.7586,2.9091,0.1,0.00050581,5054.6,0.00051541,5494.7,-7.7115e-05,1042.6,-0.00021588,0.018509,0.045451
5925,2.7586,3.0909,0.1,0.00050581,5054.6,0.00051541,5494.7,-7.7115e-05,1042.6,-0.00021588,0.018509,0.045451
5926,2.7586,3.2727,0.1,0.0005063,5059.5,0.0005159,5496.2,-7.8157e-05,1032.7,-0.0002156,0.017658,0.0454
5927,2.7586,3.4545,0.1,0.00050729,5069.4,0.00051687,5499.4,-8.0238e-05,1013,-0.00021506,0.015837,0.045297
5928,2.7586,3.6364,0.1,0.00050879,5084.4,0.00051833,5504.3,-8.3353e-05,983.48,-0.00021424,0.012808,0.045142
5929,2.7586,3.8182,0.1,0.00051083,5104.8,0.0005203,5511.1,-8.749e-05,944.36,-0.00021317,0.0082075,0.044932
5930,2.7586,4,0.1,0.00051344,5130.8,0.00052277,5519.8,-9.2629e-05,895.87,-0.00021186,0.0015433,0.044664
5931,2.7586,4.1818,0.1,0.00051663,5162.7,0.00052575,5530.6,-9.8739e-05,838.39,-0.00021032,-0.0078181,0.044336
5932,2.7586,4.3636,0.1,0.00052042,5200.7,0.00052924,5543.6,-0.00010577,772.41,-0.00020858,-0.020643,0.043945
5933,2.7586,4.5455,0.1,0.00052484,5244.7,0.00053322,5559,-0.00011366,698.61,-0.00020665,-0.037983,0.043485
5934,2.7586,4.7273,0.1,0.00052986,5294.9,0.00053766,5576.7,-0.00012233,617.87,-0.00020457,-0.060852,0.042952
5935,2.7586,4.9091,0.1,0.00053547,5351,0.00054252,5596.7,-0.00013166,531.23,-0.00020237,-0.092276,0.04234
5936,2.7586,5.0909,0.1,0.00054161,5412.4,0.00054775,5618.8,-0.00014153,439.89,-0.00020009,-0.13122,0.041644
5937,2.7586,5.2727,0.1,0.00054824,5478.6,0.00055329,5642.9,-0.0001518,345.19,-0.00019777,-0.20322,0.040857
5938,2.7586,5.4545,0.1,0.00055527,5548.9,0.00055907,5668.8,-0.00016232,248.52,-0.00019543,-0.25278,0.039973
5939,2.7586,5.6364,0.1,0.00056266,5622.7,0.00056506,5696.2,-0.00017299,150.77,-0.00019316,-0.74183,0.038984
5940,2.7586,5.8182,0.1,0.00057089,5705,0.0005717,5729.1,-0.00018409,50.401,-0.00019103,-1.7311,0.037884
5941,2.9425,0.18182,0.1,0.00056422,5638.3,0.00056504,5662.8,-0.00018187,50.803,-0.00018882,-1.4067,0.043502
5942,2.9425,0.36364,0.1,0.00055664,5562.6,0.00055893,5632.4,-0.00017167,142.96,-0.00019078,-0.66901,0.044637
5943,2.9425,0.54545,0.1,0.00054976,5493.8,0.00055335,5606.4,-0.00016184,232.73,-0.00019285,-0.22647,0.045661
5944,2.9425,0.72727,0.1,0.00054319,5428.1,0.00054794,5581.6,-0.00015216,321.36,-0.00019495,-0.18401,0.046581
5945,2.9425,0.90909,0.1,0.00053696,5365.9,0.00054273,5558.2,-0.0001427,408.11,-0.00019704,-0.11915,0.047403
5946,2.9425,1.0909,0.1,0.00053114,5307.7,0.00053779,5536.4,-0.00013361,491.8,-0.00019908,-0.084084,0.048132
5947,2.9425,1.2727,0.1,0.00052578,5254.2,0.00053317,5516.5,-0.000125,571.31,-0.00020104,-0.05542,0.048776
5948,2.9425,1.4545,0.1,0.00052095,5205.9,0.00052891,5498.5,-0.00011698,645.55,-0.0002029,-0.034239,0.049339
5949,2.9425,1.6364,0.1,0.00051665,5163,0.00052508,5482.6,-0.00010964,713.59,-0.00020462,-0.017851,0.049826
5950,2.9425,1.8182,0.1,0.00051292,5125.7,0.00052168,5468.9,-0.00010308,774.61,-0.00020618,-0.0054303,0.050242
5951,2.9425,2,0.1,0.00050975,5094,0.00051876,5457.2,-9.7362e-05,827.94,-0.00020755,0.0038912,0.050591
5952,2.9425,2.1818,0.1,0.00050714,5067.9,0.00051631,5447.7,-9.2532e-05,873.06,-0.00020873,0.010731,0.050876
5953,2.9425,2.3636,0.1,0.00050507,5047.2,0.00051436,5440.2,-8.8631e-05,909.57,-0.00020968,0.015602,0.051101
5954,2.9425,2.5455,0.1,0.00050354,5031.9,0.00051289,5434.6,-8.5686e-05,937.17,-0.00021041,0.018904,0.051268
5955,2.9425,2.7273,0.1,0.00050253,5021.8,0.00051191,5431,-8.3714e-05,955.67,-0.0002109,0.02094,0.051378
5956,2.9425,2.9091,0.1,0.00050202,5016.8,0.00051143,5429.2,-8.2725e-05,964.95,-0.00021115,0.021909,0.051432
5957,2.9425,3.0909,0.1,0.00050202,5016.8,0.00051143,5429.2,-8.2725e-05,964.95,-0.00021115,0.021909,0.051432
5958,2.9425,3.2727,0.1,0.00050253,5021.8,0.00051191,5431,-8.3714e-05,955.67,-0.0002109,0.020941,0.051378
5959,2.9425,3.4545,0.1,0.00050354,5031.9,0.00051289,5434.6,-8.5686e-05,937.17,-0.00021041,0.018904,0.051268
5960,2.9425,3.6364,0.1,0.00050507,5047.2,0.00051436,5440.2,-8.8631e-05,909.57,-0.00020968,0.015602,0.051101
5961,2.9425,3.8182,0.1,0.00050714,5067.9,0.00051631,5447.7,-9.2532e-05,873.06,-0.00020873,0.010731,0.050876
5962,2.9425,4,0.1,0.00050975,5094,0.00051876,5457.2,-9.7362e-05,827.94,-0.00020755,0.0038914,0.050591
5963,2.9425,4.1818,0.1,0.00051292,5125.7,0.00052168,5468.9,-0.00010308,774.61,-0.00020618,-0.0054299,0.050242
5964,2.9425,4.3636,0.1,0.00051665,5163,0.00052508,5482.6,-0.00010964,713.59,-0.00020462,-0.017851,0.049826
5965,2.9425,4.5455,0.1,0.00052095,5205.9,0.00052891,5498.5,-0.00011698,645.55,-0.0002029,-0.034238,0.049339
5966,2.9425,4.7273,0.1,0.00052578,5254.2,0.00053317,5516.5,-0.000125,571.31,-0.00020104,-0.055419,0.048776
5967,2.9425,4.9091,0.1,0.00053114,5307.7,0.00053779,5536.4,-0.00013361,491.8,-0.00019908,-0.084083,0.048132
5968,2.9425,5.0909,0.1,0.00053696,5365.9,0.00054273,5558.2,-0.0001427,408.11,-0.00019704,-0.11915,0.047403
5969,2.9425,5.2727,0.1,0.00054319,5428.1,0.00054794,5581.6,-0.00015216,321.36,-0.00019495,-0.18401,0.046581
5970,2.9425,5.4545,0.1,0.00054976,5493.8,0.00055335,5606.4,-0.00016184,232.73,-0.00019285,-0.22647,0.045661
5971,2.9425,5.6364,0.1,0.00055664,5562.6,0.00055893,5632.4,-0.00017167,142.96,-0.00019078,-0.66901,0.044637
5972,2.9425,5.8182,0.1,0.00056422,5638.3,0.00056504,5662.8,-0.00018187,50.803,-0.00018882,-1.4067,0.043502
5973,3.1264,0.18182,0.1,0.00055749,5571,0.00055831,5595.6,-0.00017968,50.603,-0.00018657,-1.158,0.049498
5974,3.1264,0.36364,0.1,0.00055052,5501.4,0.00055268,5567.5,-0.00017029,135.31,-0.00018838,-0.60465,0.050665
5975,3.1264,0.54545,0.1,0.00054412,5437.4,0.00054749,5542.9,-0.00016124,217.87,-0.00019026,-0.20323,0.051722
5976,3.1264,0.72727,0.1,0.00053798,5376,0.00054244,5519.3,-0.00015231,299.23,-0.00019216,-0.16672,0.052673
5977,3.1264,0.90909,0.1,0.00053213,5317.6,0.00053756,5496.8,-0.00014361,378.79,-0.00019404,-0.10815,0.053526
5978,3.1264,1.0909,0.1,0.00052664,5262.8,0.00053291,5475.7,-0.00013524,455.54,-0.00019587,-0.076534,0.054286
5979,3.1264,1.2727,0.1,0.00052157,5212.1,0.00052854,5456.1,-0.00012729,528.5,-0.00019763,-0.050404,0.054959
5980,3.1264,1.4545,0.1,0.00051694,5165.9,0.0005245,5438.3,-0.00011987,596.72,-0.0001993,-0.03086,0.055549
5981,3.1264,1.6364,0.1,0.00051281,5124.6,0.00052083,5422.3,-0.00011308,659.35,-0.00020084,-0.015493,0.056061
5982,3.1264,1.8182,0.1,0.00050919,5088.4,0.00051757,5408.3,-0.00010698,715.64,-0.00020223,-0.0036168,0.056499
5983,3.1264,2,0.1,0.00050609,5057.4,0.00051474,5396.3,-0.00010165,764.96,-0.00020346,0.0054918,0.056867
5984,3.1264,2.1818,0.1,0.00050352,5031.7,0.00051237,5386.4,-9.714e-05,806.77,-0.00020451,0.012333,0.057169
5985,3.1264,2.3636,0.1,0.00050147,5011.2,0.00051045,5378.4,-9.3485e-05,840.68,-0.00020537,0.017318,0.057408
5986,3.1264,2.5455,0.1,0.00049994,4996,0.00050901,5372.5,-9.072e-05,866.36,-0.00020602,0.020773,0.057585
5987,3.1264,2.7273,0.1,0.00049893,4985.8,0.00050805,5368.6,-8.8866e-05,883.59,-0.00020646,0.02294,0.057701
5988,3.1264,2.9091,0.1,0.00049842,4980.8,0.00050757,5366.6,-8.7936e-05,892.24,-0.00020668,0.023984,0.05776
5989,3.1264,3.0909,0.1,0.00049842,4980.8,0.00050757,5366.6,-8.7936e-05,892.24,-0.00020668,0.023984,0.05776
5990,3.1264,3.2727,0.1,0.00049893,4985.8,0.00050805,5368.6,-8.8866e-05,883.59,-0.00020646,0.022941,0.057701
5991,3.1264,3.4545,0.1,0.00049994,4996,0.00050901,5372.5,-9.072e-05,866.36,-0.00020602,0.020773,0.057585
5992,3.1264,3.6364,0.1,0.00050147,5011.2,0.00051045,5378.4,-9.3485e-05,840.68,-0.00020537,0.017319,0.057408
5993,3.1264,3.8182,0.1,0.00050352,5031.7,0.00051237,5386.4,-9.714e-05,806.77,-0.00020451,0.012333,0.057169
5994,3.1264,4,0.1,0.00050609,5057.4,0.00051474,5396.3,-0.00010165,764.96,-0.00020346,0.0054921,0.056867
5995,3.1264,4.1818,0.1,0.00050919,5088.4,0.00051757,5408.3,-0.00010698,715.64,-0.00020223,-0.0036165,0.056499
5996,3.1264,4.3636,0.1,0.00051281,5124.6,0.00052083,5422.3,-0.00011308,659.35,-0.00020084,-0.015492,0.056061
5997,3.1264,4.5455,0.1,0.00051694,5165.9,0.0005245,5438.3,-0.00011987,596.72,-0.0001993,-0.030859,0.055549
5998,3.1264,4.7273,0.1,0.00052157,5212.1,0.00052854,5456.1,-0.00012729,528.5,-0.00019763,-0.050403,0.054959
5999,3.1264,4.9091,0.1,0.00052664,5262.8,0.00053291,5475.7,-0.00013524,455.54,-0.00019587,-0.076533,0.054286
6000,3.1264,5.0909,0.1,0.00053213,5317.6,0.00053756,5496.8,-0.00014361,378.79,-0.00019404,-0.10815,0.053526
6001,3.1264,5.2727,0.1,0.00053798,5376,0.00054244,5519.3,-0.00015231,299.23,-0.00019216,-0.16672,0.052673
6002,3.1264,5.4545,0.1,0.00054412,5437.4,0.00054749,5542.9,-0.00016124,217.87,-0.00019026,-0.20323,0.051722
6003,3.1264,5.6364,0.1,0.00055052,5501.4,0.00055268,5567.5,-0.00017029,135.31,-0.00018838,-0.60465,0.050665
6004,3.1264,5.8182,0.1,0.00055749,5571,0.00055831,5595.6,-0.00017968,50.603,-0.00018657,-1.158,0.049498
6005,3.3103,0.18182,0.1,0.00055075,5503.7,0.00055157,5528,-0.00017753,49.895,-0.00018429,-0.96374,0.055871
6006,3.3103,0.36364,0.1,0.00054433,5439.6,0.00054638,5502.1,-0.00016888,127.83,-0.00018597,-0.54749,0.057066
6007,3.3103,0.54545,0.1,0.00053837,5380,0.00054155,5478.9,-0.00016053,203.82,-0.00018768,-0.18263,0.05815
6008,3.3103,0.72727,0.1,0.00053265,5322.8,0.00053684,5456.5,-0.00015231,278.6,-0.00018941,-0.15115,0.059131
6009,3.3103,0.90909,0.1,0.00052718,5268.1,0.00053228,5435.1,-0.00014429,351.63,-0.0001911,-0.098159,0.060012
6010,3.3103,1.0909,0.1,0.00052202,5216.6,0.00052792,5414.8,-0.00013657,422.05,-0.00019276,-0.069602,0.060799
6011,3.3103,1.2727,0.1,0.00051723,5168.7,0.00052381,5395.8,-0.00012925,489,-0.00019434,-0.045787,0.061497
6012,3.3103,1.4545,0.1,0.00051284,5124.9,0.00051999,5378.4,-0.00012241,551.66,-0.00019583,-0.027804,0.062112
6013,3.3103,1.6364,0.1,0.0005089,5085.5,0.00051652,5362.7,-0.00011612,609.24,-0.00019721,-0.013479,0.062646
6014,3.3103,1.8182,0.1,0.00050542,5050.7,0.00051341,5348.7,-0.00011048,661.08,-0.00019846,-0.0022367,0.063105
6015,3.3103,2,0.1,0.00050243,5020.8,0.0005107,5336.7,-0.00010553,706.57,-0.00019956,0.0065352,0.063492
6016,3.3103,2.1818,0.1,0.00049993,4995.9,0.00050842,5326.6,-0.00010133,745.2,-0.00020051,0.013243,0.063809
6017,3.3103,2.3636,0.1,0.00049793,4975.9,0.00050657,5318.5,-9.7923e-05,776.57,-0.00020127,0.018219,0.064059
6018,3.3103,2.5455,0.1,0.00049643,4960.9,0.00050518,5312.4,-9.5342e-05,800.36,-0.00020186,0.021723,0.064246
6019,3.3103,2.7273,0.1,0.00049544,4951,0.00050425,5308.4,-9.3608e-05,816.34,-0.00020225,0.02395,0.064369
6020,3.3103,2.9091,0.1,0.00049494,4946,0.00050378,5306.4,-9.2738e-05,824.37,-0.00020245,0.025032,0.06443
6021,3.3103,3.0909,0.1,0.00049494,4946,0.00050378,5306.4,-9.2738e-05,824.37,-0.00020245,0.025032,0.06443
6022,3.3103,3.2727,0.1,0.00049544,4951,0.00050425,5308.4,-9.3608e-05,816.34,-0.00020225,0.02395,0.064369
6023,3.3103,3.4545,0.1,0.00049643,4960.9,0.00050518,5312.4,-9.5342e-05,800.36,-0.00020186,0.021723,0.064246
6024,3.3103,3.6364,0.1,0.00049793,4975.9,0.00050657,5318.5,-9.7923e-05,776.57,-0.00020127,0.01822,0.064059
6025,3.3103,3.8182,0.1,0.00049993,4995.9,0.00050842,5326.6,-0.00010133,745.2,-0.00020051,0.013243,0.063809
6026,3.3103,4,0.1,0.00050243,5020.8,0.0005107,5336.7,-0.00010553,706.57,-0.00019956,0.0065356,0.063492
6027,3.3103,4.1818,0.1,0.00050542,5050.7,0.00051341,5348.7,-0.00011048,661.08,-0.00019846,-0.0022363,0.063105
6028,3.3103,4.3636,0.1,0.0005089,5085.5,0.00051652,5362.7,-0.00011612,609.24,-0.00019721,-0.013479,0.062646
6029,3.3103,4.5455,0.1,0.00051284,5124.9,0.00051999,5378.4,-0.00012241,551.66,-0.00019583,-0.027803,0.062112
6030,3.3103,4.7273,0.1,0.00051723,5168.7,0.00052381,5395.8,-0.00012925,489,-0.00019434,-0.045786,0.061497
6031,3.3103,4.9091,0.1,0.00052202,5216.6,0.00052792,5414.8,-0.00013657,422.05,-0.00019276,-0.069601,0.060799
6032,3.3103,5.0909,0.1,0.00052718,5268.1,0.00053228,5435.1,-0.00014429,351.63,-0.0001911,-0.098158,0.060012
6033,3.3103,5.2727,0.1,0.00053265,5322.8,0.00053684,5456.5,-0.00015231,278.6,-0.00018941,-0.15115,0.059131
6034,3.3103,5.4545,0.1,0.00053837,5380,0.00054155,5478.9,-0.00016053,203.82,-0.00018768,-0.18263,0.05815
6035,3.3103,5.6364,0.1,0.00054433,5439.6,0.00054638,5502.1,-0.00016888,127.83,-0.00018597,-0.54749,0.057066
6036,3.3103,5.8182,0.1,0.00055075,5503.7,0.00055157,5528,-0.00017753,49.895,-0.00018429,-0.96374,0.055871
6037,3.4943,0.18182,0.1,0.00054403,5436.6,0.00054483,5460.4,-0.00017541,48.765,-0.00018201,-0.80968,0.062615
6038,3.4943,0.36364,0.1,0.00053811,5377.4,0.00054005,5436.4,-0.00016745,120.51,-0.00018355,-0.49652,0.063834
6039,3.4943,0.54545,0.1,0.00053258,5322.1,0.00053556,5414.7,-0.00015974,190.51,-0.00018512,-0.16434,0.064944
6040,3.4943,0.72727,0.1,0.00052724,5268.8,0.00053117,5393.6,-0.00015216,259.29,-0.00018669,-0.13712,0.065949
6041,3.4943,0.90909,0.1,0.00052213,5217.7,0.00052692,5373.2,-0.00014477,326.38,-0.00018823,-0.089089,0.066856
6042,3.4943,1.0909,0.1,0.0005173,5169.5,0.00052284,5353.8,-0.00013767,391.03,-0.00018972,-0.063265,0.067667
6043,3.4943,1.2727,0.1,0.0005128,5124.4,0.00051899,5335.6,-0.00013092,452.48,-0.00019114,-0.04156,0.068389
6044,3.4943,1.4545,0.1,0.00050866,5083.1,0.00051541,5318.8,-0.00012461,510,-0.00019249,-0.025047,0.069026
6045,3.4943,1.6364,0.1,0.00050492,5045.7,0.00051213,5303.5,-0.00011881,562.91,-0.00019373,-0.011756,0.069581
6046,3.4943,1.8182,0.1,0.00050161,5012.6,0.00050919,5289.9,-0.00011359,610.57,-0.00019485,-0.0011956,0.070058
6047,3.4943,2,0.1,0.00049874,4984,0.00050663,5278.1,-0.00010901,652.44,-0.00019584,0.0071562,0.07046
6048,3.4943,2.1818,0.1,0.00049634,4960,0.00050445,5268.1,-0.00010512,688.05,-0.00019669,0.013633,0.070792
6049,3.4943,2.3636,0.1,0.00049441,4940.7,0.00050269,5260.1,-0.00010195,716.99,-0.00019738,0.018505,0.071054
6050,3.4943,2.5455,0.1,0.00049296,4926.2,0.00050136,5254,-9.9555e-05,738.96,-0.0001979,0.021976,0.071248
6051,3.4943,2.7273,0.1,0.000492,4916.6,0.00050046,5249.9,-9.7943e-05,753.73,-0.00019826,0.024205,0.071377
6052,3.4943,2.9091,0.1,0.00049151,4911.7,0.00050002,5247.9,-9.7133e-05,761.15,-0.00019843,0.025294,0.071441
6053,3.4943,3.0909,0.1,0.00049151,4911.7,0.00050002,5247.9,-9.7133e-05,761.15,-0.00019843,0.025294,0.071441
6054,3.4943,3.2727,0.1,0.000492,4916.6,0.00050046,5249.9,-9.7943e-05,753.73,-0.00019826,0.024205,0.071377
6055,3.4943,3.4545,0.1,0.00049296,4926.2,0.00050136,5254,-9.9555e-05,738.96,-0.0001979,0.021977,0.071248
6056,3.4943,3.6364,0.1,0.00049441,4940.7,0.00050269,5260.1,-0.00010195,716.99,-0.00019738,0.018505,0.071054
6057,3.4943,3.8182,0.1,0.00049634,4960,0.00050445,5268.1,-0.00010512,688.05,-0.00019669,0.013634,0.070792
6058,3.4943,4,0.1,0.00049874,4984,0.00050663,5278.1,-0.00010901,652.44,-0.00019584,0.0071565,0.07046
6059,3.4943,4.1818,0.1,0.00050161,5012.6,0.00050919,5289.9,-0.00011359,610.57,-0.00019485,-0.0011953,0.070058
6060,3.4943,4.3636,0.1,0.00050492,5045.7,0.00051213,5303.5,-0.00011881,562.91,-0.00019373,-0.011755,0.069581
6061,3.4943,4.5455,0.1,0.00050866,5083.1,0.00051541,5318.8,-0.00012461,510,-0.00019249,-0.025046,0.069026
6062,3.4943,4.7273,0.1,0.0005128,5124.4,0.00051899,5335.6,-0.00013092,452.48,-0.00019114,-0.04156,0.068389
6063,3.4943,4.9091,0.1,0.0005173,5169.5,0.00052284,5353.8,-0.00013767,391.03,-0.00018972,-0.063264,0.067667
6064,3.4943,5.0909,0.1,0.00052213,5217.7,0.00052692,5373.2,-0.00014477,326.38,-0.00018823,-0.089088,0.066856
6065,3.4943,5.2727,0.1,0.00052724,5268.8,0.00053117,5393.6,-0.00015216,259.29,-0.00018669,-0.13712,0.065949
6066,3.4943,5.4545,0.1,0.00053258,5322.1,0.00053556,5414.7,-0.00015974,190.51,-0.00018512,-0.16434,0.064944
6067,3.4943,5.6364,0.1,0.00053811,5377.4,0.00054005,5436.4,-0.00016745,120.51,-0.00018355,-0.49652,0.063834
6068,3.4943,5.8182,0.1,0.00054403,5436.6,0.00054483,5460.4,-0.00017541,48.765,-0.00018201,-0.80968,0.062615
6069,3.6782,0.18182,0.1,0.00053735,5369.8,0.00053813,5393,-0.00017334,47.293,-0.00017972,-0.68593,0.069726
6070,3.6782,0.36364,0.1,0.0005319,5315.3,0.00053373,5370.8,-0.000166,113.37,-0.00018115,-0.4509,0.070966
6071,3.6782,0.54545,0.1,0.00052675,5263.9,0.00052955,5350.5,-0.00015888,177.9,-0.00018258,-0.14805,0.072098
6072,3.6782,0.72727,0.1,0.00052178,5214.2,0.00052547,5330.6,-0.00015189,241.2,-0.00018401,-0.12447,0.073126
6073,3.6782,0.90909,0.1,0.00051702,5166.6,0.0005215,5311.4,-0.00014509,302.86,-0.00018541,-0.080873,0.074055
6074,3.6782,1.0909,0.1,0.00051251,5121.5,0.0005177,5293,-0.00013854,362.23,-0.00018676,-0.057493,0.074888
6075,3.6782,1.2727,0.1,0.00050828,5079.3,0.00051411,5275.7,-0.00013232,418.64,-0.00018805,-0.037712,0.075631
6076,3.6782,1.4545,0.1,0.00050439,5040.4,0.00051075,5259.6,-0.00012651,471.43,-0.00018926,-0.022572,0.076287
6077,3.6782,1.6364,0.1,0.00050086,5005.2,0.00050768,5244.9,-0.00012116,520.01,-0.00019037,-0.010284,0.07686
6078,3.6782,1.8182,0.1,0.00049773,4973.9,0.00050492,5231.7,-0.00011635,563.8,-0.00019139,-0.00042611,0.077354
6079,3.6782,2,0.1,0.00049501,4946.7,0.0005025,5220.3,-0.00011212,602.29,-0.00019228,0.0074543,0.077772
6080,3.6782,2.1818,0.1,0.00049272,4923.8,0.00050044,5210.6,-0.00010852,635.04,-0.00019304,0.013634,0.078115
6081,3.6782,2.3636,0.1,0.00049088,4905.4,0.00049878,5202.7,-0.00010559,661.68,-0.00019366,0.018331,0.078387
6082,3.6782,2.5455,0.1,0.00048949,4891.6,0.00049752,5196.8,-0.00010337,681.92,-0.00019413,0.021711,0.07859
6083,3.6782,2.7273,0.1,0.00048857,4882.3,0.00049667,5192.8,-0.00010188,695.53,-0.00019445,0.023896,0.078724
6084,3.6782,2.9091,0.1,0.0004881,4877.7,0.00049624,5190.8,-0.00010113,702.38,-0.00019461,0.024969,0.078791
6085,3.6782,3.0909,0.1,0.0004881,4877.7,0.00049624,5190.8,-0.00010113,702.38,-0.00019461,0.024969,0.078791
6086,3.6782,3.2727,0.1,0.00048857,4882.3,0.00049667,5192.8,-0.00010188,695.53,-0.00019445,0.023896,0.078724
6087,3.6782,3.4545,0.1,0.00048949,4891.6,0.00049752,5196.8,-0.00010337,681.92,-0.00019413,0.021711,0.07859
6088,3.6782,3.6364,0.1,0.00049088,4905.4,0.00049878,5202.7,-0.00010559,661.68,-0.00019366,0.018332,0.078387
6089,3.6782,3.8182,0.1,0.00049272,4923.8,0.00050044,5210.6,-0.00010852,635.04,-0.00019304,0.013634,0.078115
6090,3.6782,4,0.1,0.00049501,4946.7,0.0005025,5220.3,-0.00011212,602.29,-0.00019228,0.0074546,0.077772
6091,3.6782,4.1818,0.1,0.00049773,4973.9,0.00050492,5231.7,-0.00011635,563.8,-0.00019139,-0.00042565,0.077354
6092,3.6782,4.3636,0.1,0.00050086,5005.2,0.00050768,5244.9,-0.00012116,520.01,-0.00019037,-0.010284,0.07686
6093,3.6782,4.5455,0.1,0.00050439,5040.4,0.00051075,5259.6,-0.00012651,471.43,-0.00018926,-0.022571,0.076287
6094,3.6782,4.7273,0.1,0.00050828,5079.3,0.00051411,5275.7,-0.00013232,418.64,-0.00018805,-0.037712,0.075631
6095,3.6782,4.9091,0.1,0.00051251,5121.5,0.0005177,5293,-0.00013854,362.23,-0.00018676,-0.057492,0.074888
6096,3.6782,5.0909,0.1,0.00051702,5166.6,0.0005215,5311.4,-0.00014509,302.86,-0.00018541,-0.080872,0.074055
6097,3.6782,5.2727,0.1,0.00052178,5214.2,0.00052547,5330.6,-0.00015189,241.2,-0.00018401,-0.12446,0.073126
6098,3.6782,5.4545,0.1,0.00052675,5263.9,0.00052955,5350.5,-0.00015888,177.9,-0.00018258,-0.14805,0.072098
6099,3.6782,5.6364,0.1,0.0005319,5315.3,0.00053373,5370.8,-0.000166,113.37,-0.00018115,-0.45089,0.070966
6100,3.6782,5.8182,0.1,0.00053735,5369.8,0.00053813,5393,-0.00017334,47.293,-0.00017972,-0.68593,0.069726
6101,3.8621,0.18182,0.1,0.00053073,5303.6,0.00053148,5326,-0.0001713,45.547,-0.00017744,-0.58544,0.0772
6102,3.8621,0.36364,0.1,0.00052569,5253.3,0.00052741,5305.5,-0.00016454,106.43,-0.00017876,-0.40993,0.078459
6103,3.8621,0.54545,0.1,0.00052091,5205.5,0.00052354,5286.5,-0.00015796,165.93,-0.00018007,-0.13352,0.07961
6104,3.8621,0.72727,0.1,0.00051629,5159.4,0.00051974,5267.8,-0.00015152,224.21,-0.00018137,-0.11304,0.080657
6105,3.8621,0.90909,0.1,0.00051186,5115.1,0.00051606,5249.7,-0.00014525,280.91,-0.00018264,-0.073434,0.081605
6106,3.8621,1.0909,0.1,0.00050765,5073,0.00051252,5232.3,-0.00013922,335.45,-0.00018387,-0.052248,0.082458
6107,3.8621,1.2727,0.1,0.0005037,5033.5,0.00050917,5216,-0.00013349,387.24,-0.00018504,-0.03422,0.083219
6108,3.8621,1.4545,0.1,0.00050006,4997.1,0.00050604,5200.7,-0.00012814,435.69,-0.00018613,-0.020356,0.083893
6109,3.8621,1.6364,0.1,0.00049674,4964,0.00050317,5186.7,-0.00012322,480.28,-0.00018714,-0.0090285,0.084483
6110,3.8621,1.8182,0.1,0.00049379,4934.5,0.00050058,5174.1,-0.00011878,520.47,-0.00018805,0.00012926,0.084992
6111,3.8621,2,0.1,0.00049123,4908.9,0.00049831,5163.1,-0.00011488,555.82,-0.00018885,0.0075122,0.085422
6112,3.8621,2.1818,0.1,0.00048906,4887.2,0.00049639,5153.8,-0.00011156,585.9,-0.00018954,0.013352,0.085777
6113,3.8621,2.3636,0.1,0.00048731,4869.8,0.00049482,5146.2,-0.00010886,610.39,-0.0001901,0.017828,0.086058
6114,3.8621,2.5455,0.1,0.000486,4856.6,0.00049363,5140.5,-0.00010681,629,-0.00019052,0.021072,0.086268
6115,3.8621,2.7273,0.1,0.00048511,4847.8,0.00049283,5136.6,-0.00010543,641.52,-0.00019081,0.023181,0.086407
6116,3.8621,2.9091,0.1,0.00048467,4843.4,0.00049243,5134.7,-0.00010474,647.81,-0.00019095,0.024221,0.086476
6117,3.8621,3.0909,0.1,0.00048467,4843.4,0.00049243,5134.7,-0.00010474,647.81,-0.00019095,0.024221,0.086476
6118,3.8621,3.2727,0.1,0.00048511,4847.8,0.00049283,5136.6,-0.00010543,641.52,-0.00019081,0.023182,0.086407
6119,3.8621,3.4545,0.1,0.000486,4856.6,0.00049363,5140.5,-0.00010681,629,-0.00019052,0.021072,0.086268
6120,3.8621,3.6364,0.1,0.00048731,4869.8,0.00049482,5146.2,-0.00010886,610.39,-0.0001901,0.017828,0.086058
6121,3.8621,3.8182,0.1,0.00048906,4887.2,0.00049639,5153.8,-0.00011156,585.9,-0.00018954,0.013352,0.085777
6122,3.8621,4,0.1,0.00049123,4908.9,0.00049831,5163.1,-0.00011488,555.82,-0.00018885,0.0075124,0.085422
6123,3.8621,4.1818,0.1,0.00049379,4934.5,0.00050058,5174.1,-0.00011878,520.47,-0.00018805,0.00012973,0.084992
6124,3.8621,4.3636,0.1,0.00049674,4964,0.00050317,5186.7,-0.00012322,480.28,-0.00018714,-0.009028,0.084483
6125,3.8621,4.5455,0.1,0.00050006,4997.1,0.00050604,5200.7,-0.00012814,435.69,-0.00018613,-0.020355,0.083893
6126,3.8621,4.7273,0.1,0.0005037,5033.5,0.00050917,5216,-0.00013349,387.24,-0.00018504,-0.034219,0.083219
6127,3.8621,4.9091,0.1,0.00050765,5073,0.00051252,5232.3,-0.00013922,335.45,-0.00018387,-0.052247,0.082458
6128,3.8621,5.0909,0.1,0.00051186,5115.1,0.00051606,5249.7,-0.00014525,280.91,-0.00018264,-0.073433,0.081605
6129,3.8621,5.2727,0.1,0.00051629,5159.4,0.00051974,5267.8,-0.00015152,224.21,-0.00018137,-0.11304,0.080657
6130,3.8621,5.4545,0.1,0.00052091,5205.5,0.00052354,5286.5,-0.00015796,165.93,-0.00018007,-0.13352,0.07961
6131,3.8621,5.6364,0.1,0.00052569,5253.3,0.00052741,5305.5,-0.00016454,106.43,-0.00017876,-0.40992,0.078459
6132,3.8621,5.8182,0.1,0.00053073,5303.6,0.00053148,5326,-0.0001713,45.547,-0.00017744,-0.58544,0.0772
6133,4.046,0.18182,0.1,0.00052416,5238,0.00052488,5259.4,-0.0001693,43.59,-0.00017517,-0.50309,0.085033
6134,4.046,0.36364,0.1,0.00051952,5191.6,0.00052113,5240.5,-0.00016307,99.709,-0.00017639,-0.37303,0.086308
6135,4.046,0.54545,0.1,0.00051508,5147.2,0.00051753,5222.7,-0.000157,154.58,-0.00017759,-0.12053,0.087475
6136,4.046,0.72727,0.1,0.00051079,5104.3,0.00051401,5205.2,-0.00015105,208.26,-0.00017878,-0.10271,0.088539
6137,4.046,0.90909,0.1,0.00050666,5063.1,0.00051059,5188.3,-0.00014527,260.41,-0.00017994,-0.066698,0.089504
6138,4.046,1.0909,0.1,0.00050274,5023.9,0.0005073,5172,-0.00013972,310.53,-0.00018105,-0.047487,0.090374
6139,4.046,1.2727,0.1,0.00049906,4987.2,0.00050419,5156.5,-0.00013445,358.08,-0.00018211,-0.031056,0.091152
6140,4.046,1.4545,0.1,0.00049565,4953.1,0.00050127,5142.1,-0.00012952,402.55,-0.0001831,-0.018374,0.091841
6141,4.046,1.6364,0.1,0.00049255,4922.1,0.0004986,5128.9,-0.00012499,443.46,-0.00018401,-0.0079566,0.092445
6142,4.046,1.8182,0.1,0.00048979,4894.5,0.00049619,5117,-0.00012091,480.33,-0.00018484,0.00051684,0.092967
6143,4.046,2,0.1,0.00048738,4870.4,0.00049407,5106.5,-0.00011732,512.77,-0.00018556,0.0073938,0.093409
6144,4.046,2.1818,0.1,0.00048534,4850,0.00049227,5097.6,-0.00011426,540.38,-0.00018618,0.012871,0.093775
6145,4.046,2.3636,0.1,0.00048369,4833.6,0.0004908,5090.4,-0.00011177,562.85,-0.00018668,0.017096,0.094064
6146,4.046,2.5455,0.1,0.00048245,4821.1,0.00048969,5084.9,-0.00010988,579.94,-0.00018707,0.020175,0.09428
6147,4.046,2.7273,0.1,0.00048161,4812.8,0.00048894,5081.2,-0.00010861,591.44,-0.00018732,0.022187,0.094423
6148,4.046,2.9091,0.1,0.00048119,4808.6,0.00048856,5079.3,-0.00010797,597.22,-0.00018745,0.023181,0.094495
6149,4.046,3.0909,0.1,0.00048119,4808.6,0.00048856,5079.3,-0.00010797,597.22,-0.00018745,0.023181,0.094495
6150,4.046,3.2727,0.1,0.00048161,4812.8,0.00048894,5081.2,-0.00010861,591.44,-0.00018732,0.022187,0.094423
6151,4.046,3.4545,0.1,0.00048245,4821.1,0.00048969,5084.9,-0.00010988,579.94,-0.00018707,0.020175,0.09428
6152,4.046,3.6364,0.1,0.00048369,4833.6,0.0004908,5090.4,-0.00011177,562.85,-0.00018668,0.017097,0.094064
6153,4.046,3.8182,0.1,0.00048534,4850,0.00049227,5097.6,-0.00011426,540.38,-0.00018618,0.012871,0.093775
6154,4.046,4,0.1,0.00048738,4870.4,0.00049407,5106.5,-0.00011732,512.77,-0.00018556,0.0073942,0.093409
6155,4.046,4.1818,0.1,0.00048979,4894.5,0.00049619,5117,-0.00012091,480.33,-0.00018484,0.00051734,0.092967
6156,4.046,4.3636,0.1,0.00049255,4922.1,0.0004986,5128.9,-0.00012499,443.46,-0.00018401,-0.0079561,0.092445
6157,4.046,4.5455,0.1,0.00049565,4953.1,0.00050127,5142.1,-0.00012952,402.55,-0.0001831,-0.018373,0.091841
6158,4.046,4.7273,0.1,0.00049906,4987.2,0.00050419,5156.5,-0.00013445,358.08,-0.00018211,-0.031056,0.091152
6159,4.046,4.9091,0.1,0.00050274,5023.9,0.0005073,5172,-0.00013972,310.53,-0.00018105,-0.047486,0.090374
6160,4.046,5.0909,0.1,0.00050666,5063.1,0.00051059,5188.3,-0.00014527,260.41,-0.00017994,-0.066697,0.089504
6161,4.046,5.2727,0.1,0.00051079,5104.3,0.00051401,5205.2,-0.00015105,208.26,-0.00017878,-0.10271,0.088539
6162,4.046,5.4545,0.1,0.00051508,5147.2,0.00051753,5222.7,-0.000157,154.58,-0.00017759,-0.12053,0.087475
6163,4.046,5.6364,0.1,0.00051952,5191.6,0.00052113,5240.5,-0.00016307,99.709,-0.00017639,-0.37302,0.086308
6164,4.046,5.8182,0.1,0.00052416,5238,0.00052488,5259.4,-0.0001693,43.59,-0.00017517,-0.50308,0.085033
6165,4.2299,0.18182,0.1,0.00051767,5173.1,0.00051835,5193.5,-0.00016734,41.475,-0.00017292,-0.43506,0.093221
6166,4.2299,0.36364,0.1,0.00051337,5130.2,0.00051489,5176,-0.00016159,93.214,-0.00017404,-0.33971,0.094508
6167,4.2299,0.54545,0.1,0.00050926,5089.1,0.00051155,5159.4,-0.00015598,143.83,-0.00017514,-0.1089,0.09569
6168,4.2299,0.72727,0.1,0.00050527,5049.2,0.00050828,5143,-0.00015049,193.27,-0.00017623,-0.09338,0.096769
6169,4.2299,0.90909,0.1,0.00050144,5010.9,0.00050511,5127.2,-0.00014517,241.26,-0.00017729,-0.060612,0.097748
6170,4.2299,1.0909,0.1,0.00049779,4974.5,0.00050206,5111.9,-0.00014006,287.31,-0.0001783,-0.043182,0.098632
6171,4.2299,1.2727,0.1,0.00049437,4940.3,0.00049916,5097.4,-0.00013521,330.98,-0.00017926,-0.028208,0.099424
6172,4.2299,1.4545,0.1,0.00049119,4908.5,0.00049646,5083.9,-0.00013068,371.8,-0.00018016,-0.016617,0.10013
6173,4.2299,1.6364,0.1,0.0004883,4879.6,0.00049397,5071.4,-0.00012651,409.33,-0.00018099,-0.0070556,0.10074
6174,4.2299,1.8182,0.1,0.00048571,4853.8,0.00049173,5060.2,-0.00012276,443.15,-0.00018173,0.00075966,0.10128
6175,4.2299,2,0.1,0.00048346,4831.2,0.00048976,5050.3,-0.00011945,472.89,-0.00018239,0.0071358,0.10173
6176,4.2299,2.1818,0.1,0.00048155,4812.1,0.00048808,5041.9,-0.00011664,498.21,-0.00018295,0.012242,0.1021
6177,4.2299,2.3636,0.1,0.00048,4796.7,0.00048672,5035,-0.00011435,518.83,-0.0001834,0.0162,0.1024
6178,4.2299,2.5455,0.1,0.00047883,4785,0.00048568,5029.8,-0.00011261,534.5,-0.00018375,0.019098,0.10262
6179,4.2299,2.7273,0.1,0.00047805,4777.2,0.00048498,5026.3,-0.00011144,545.04,-0.00018398,0.020997,0.10277
6180,4.2299,2.9091,0.1,0.00047765,4773.2,0.00048463,5024.6,-0.00011085,550.35,-0.0001841,0.021938,0.10284
6181,4.2299,3.0909,0.1,0.00047765,4773.2,0.00048463,5024.6,-0.00011085,550.35,-0.0001841,0.021938,0.10284
6182,4.2299,3.2727,0.1,0.00047805,4777.2,0.00048498,5026.3,-0.00011144,545.04,-0.00018398,0.020997,0.10277
6183,4.2299,3.4545,0.1,0.00047883,4785,0.00048568,5029.8,-0.00011261,534.5,-0.00018375,0.019098,0.10262
6184,4.2299,3.6364,0.1,0.00048,4796.7,0.00048672,5035,-0.00011435,518.83,-0.0001834,0.0162,0.1024
6185,4.2299,3.8182,0.1,0.00048155,4812.1,0.00048808,5041.9,-0.00011664,498.21,-0.00018295,0.012242,0.1021
6186,4.2299,4,0.1,0.00048346,4831.2,0.00048976,5050.3,-0.00011945,472.89,-0.00018239,0.0071361,0.10173
6187,4.2299,4.1818,0.1,0.00048571,4853.8,0.00049173,5060.2,-0.00012276,443.15,-0.00018173,0.00076013,0.10128
6188,4.2299,4.3636,0.1,0.0004883,4879.6,0.00049397,5071.4,-0.00012651,409.33,-0.00018099,-0.0070551,0.10074
6189,4.2299,4.5455,0.1,0.00049119,4908.5,0.00049646,5083.9,-0.00013068,371.8,-0.00018016,-0.016616,0.10013
6190,4.2299,4.7273,0.1,0.00049437,4940.3,0.00049916,5097.4,-0.00013521,330.98,-0.00017926,-0.028208,0.099424
6191,4.2299,4.9091,0.1,0.00049779,4974.5,0.00050206,5111.9,-0.00014006,287.31,-0.0001783,-0.043181,0.098632
6192,4.2299,5.0909,0.1,0.00050144,5010.9,0.00050511,5127.2,-0.00014517,241.26,-0.00017729,-0.06061,0.097748
6193,4.2299,5.2727,0.1,0.00050527,5049.2,0.00050828,5143,-0.00015049,193.27,-0.00017623,-0.09338,0.096769
6194,4.2299,5.4545,0.1,0.00050926,5089.1,0.00051155,5159.4,-0.00015598,143.83,-0.00017514,-0.1089,0.09569
6195,4.2299,5.6364,0.1,0.00051337,5130.2,0.00051489,5176,-0.00016159,93.214,-0.00017404,-0.33971,0.094508
6196,4.2299,5.8182,0.1,0.00051767,5173.1,0.00051835,5193.5,-0.00016734,41.475,-0.00017292,-0.43506,0.093221
6197,4.4138,0.18182,0.1,0.00051124,5108.8,0.00051189,5128.2,-0.00016541,39.249,-0.00017068,-0.37849,0.10176
6198,4.4138,0.36364,0.1,0.00050727,5069.2,0.00050869,5112,-0.0001601,86.96,-0.00017171,-0.30958,0.10306
6199,4.4138,0.54545,0.1,0.00050345,5031.1,0.00050559,5096.5,-0.00015492,133.65,-0.00017272,-0.098469,0.10425
6200,4.4138,0.72727,0.1,0.00049976,4994.1,0.00050256,5081.3,-0.00014986,179.2,-0.00017372,-0.084936,0.10534
6201,4.4138,0.90909,0.1,0.0004962,4958.6,0.00049962,5066.4,-0.00014496,223.35,-0.00017469,-0.055109,0.10633
6202,4.4138,1.0909,0.1,0.00049281,4924.7,0.00049679,5052.2,-0.00014025,265.69,-0.00017561,-0.03929,0.10723
6203,4.4138,1.2727,0.1,0.00048963,4892.9,0.00049411,5038.6,-0.00013579,305.79,-0.00017649,-0.025647,0.10803
6204,4.4138,1.4545,0.1,0.00048668,4863.4,0.0004916,5025.9,-0.00013162,343.26,-0.00017731,-0.015062,0.10875
6205,4.4138,1.6364,0.1,0.00048398,4836.5,0.0004893,5014.2,-0.00012779,377.68,-0.00017806,-0.0062996,0.10938
6206,4.4138,1.8182,0.1,0.00048157,4812.4,0.00048722,5003.7,-0.00012434,408.7,-0.00017873,0.00088916,0.10992
6207,4.4138,2,0.1,0.00047946,4791.3,0.00048539,4994.4,-0.0001213,435.97,-0.00017933,0.0067786,0.11038
6208,4.4138,2.1818,0.1,0.00047768,4773.5,0.00048383,4986.5,-0.00011872,459.18,-0.00017983,0.011515,0.11076
6209,4.4138,2.3636,0.1,0.00047624,4759.1,0.00048256,4980.1,-0.00011662,478.07,-0.00018024,0.015201,0.11107
6210,4.4138,2.5455,0.1,0.00047514,4748.1,0.0004816,4975.2,-0.00011502,492.43,-0.00018055,0.017909,0.11129
6211,4.4138,2.7273,0.1,0.00047441,4740.8,0.00048095,4971.9,-0.00011394,502.1,-0.00018076,0.019689,0.11145
6212,4.4138,2.9091,0.1,0.00047404,4737.1,0.00048062,4970.2,-0.0001134,506.96,-0.00018087,0.020572,0.11152
6213,4.4138,3.0909,0.1,0.00047404,4737.1,0.00048062,4970.2,-0.0001134,506.96,-0.00018087,0.020572,0.11152
6214,4.4138,3.2727,0.1,0.00047441,4740.8,0.00048095,4971.9,-0.00011394,502.1,-0.00018076,0.019689,0.11145
6215,4.4138,3.4545,0.1,0.00047514,4748.1,0.0004816,4975.2,-0.00011502,492.43,-0.00018055,0.017909,0.11129
6216,4.4138,3.6364,0.1,0.00047624,4759.1,0.00048256,4980.1,-0.00011662,478.07,-0.00018024,0.015201,0.11107
6217,4.4138,3.8182,0.1,0.00047768,4773.5,0.00048383,4986.5,-0.00011872,459.18,-0.00017983,0.011515,0.11076
6218,4.4138,4,0.1,0.00047946,4791.3,0.00048539,4994.4,-0.0001213,435.97,-0.00017933,0.0067791,0.11038
6219,4.4138,4.1818,0.1,0.00048157,4812.4,0.00048722,5003.7,-0.00012434,408.7,-0.00017873,0.00088965,0.10992
6220,4.4138,4.3636,0.1,0.00048398,4836.5,0.0004893,5014.2,-0.00012779,377.68,-0.00017806,-0.0062989,0.10938
6221,4.4138,4.5455,0.1,0.00048668,4863.4,0.0004916,5025.9,-0.00013162,343.26,-0.00017731,-0.015061,0.10875
6222,4.4138,4.7273,0.1,0.00048963,4892.9,0.00049411,5038.6,-0.00013579,305.79,-0.00017649,-0.025647,0.10803
6223,4.4138,4.9091,0.1,0.00049281,4924.7,0.00049679,5052.2,-0.00014025,265.69,-0.00017561,-0.039289,0.10723
6224,4.4138,5.0909,0.1,0.0004962,4958.6,0.00049962,5066.4,-0.00014496,223.35,-0.00017469,-0.055107,0.10633
6225,4.4138,5.2727,0.1,0.00049976,4994.1,0.00050256,5081.3,-0.00014986,179.2,-0.00017372,-0.084936,0.10534
6226,4.4138,5.4545,0.1,0.00050345,5031.1,0.00050559,5096.5,-0.00015492,133.65,-0.00017272,-0.098469,0.10425
6227,4.4138,5.6364,0.1,0.00050727,5069.2,0.00050869,5112,-0.0001601,86.96,-0.00017171,-0.30957,0.10306
6228,4.4138,5.8182,0.1,0.00051124,5108.8,0.00051189,5128.2,-0.00016541,39.249,-0.00017068,-0.37849,0.10176
6229,4.5977,0.18182,0.1,0.00050488,5045.3,0.00050549,5063.5,-0.0001635,36.95,-0.00016846,-0.33117,0.11064
6230,4.5977,0.36364,0.1,0.00050121,5008.7,0.00050253,5048.5,-0.00015861,80.954,-0.00016942,-0.28225,0.11195
6231,4.5977,0.54545,0.1,0.00049767,4973.3,0.00049967,5034.1,-0.00015383,124.02,-0.00017034,-0.089096,0.11315
6232,4.5977,0.72727,0.1,0.00049425,4939,0.00049686,5019.9,-0.00014916,165.98,-0.00017126,-0.077286,0.11425
6233,4.5977,0.90909,0.1,0.00049094,4906.1,0.00049413,5006.1,-0.00014464,206.62,-0.00017214,-0.050129,0.11526
6234,4.5977,1.0909,0.1,0.0004878,4874.7,0.00049151,4992.8,-0.0001403,245.54,-0.00017299,-0.035771,0.11616
6235,4.5977,1.2727,0.1,0.00048485,4845.1,0.00048903,4980.1,-0.0001362,282.38,-0.00017378,-0.023343,0.11698
6236,4.5977,1.4545,0.1,0.0004821,4817.7,0.00048671,4968.3,-0.00013237,316.76,-0.00017453,-0.013684,0.1177
6237,4.5977,1.6364,0.1,0.0004796,4792.7,0.00048458,4957.4,-0.00012885,348.35,-0.00017521,-0.0056659,0.11834
6238,4.5977,1.8182,0.1,0.00047736,4770.3,0.00048265,4947.5,-0.00012568,376.79,-0.00017582,0.00093204,0.11889
6239,4.5977,2,0.1,0.0004754,4750.7,0.00048096,4938.8,-0.00012289,401.78,-0.00017636,0.006355,0.11936
6240,4.5977,2.1818,0.1,0.00047374,4734.1,0.00047951,4931.4,-0.00012052,423.05,-0.00017682,0.01073,0.11975
6241,4.5977,2.3636,0.1,0.00047239,4720.6,0.00047834,4925.4,-0.00011858,440.36,-0.00017719,0.014147,0.12006
6242,4.5977,2.5455,0.1,0.00047137,4710.4,0.00047744,4920.8,-0.00011712,453.52,-0.00017747,0.016663,0.12029
6243,4.5977,2.7273,0.1,0.00047068,4703.6,0.00047684,4917.7,-0.00011613,462.37,-0.00017766,0.01832,0.12045
6244,4.5977,2.9091,0.1,0.00047034,4700.2,0.00047654,4916.2,-0.00011563,466.83,-0.00017776,0.019144,0.12052
6245,4.5977,3.0909,0.1,0.00047034,4700.2,0.00047654,4916.2,-0.00011563,466.83,-0.00017776,0.019144,0.12052
6246,4.5977,3.2727,0.1,0.00047068,4703.6,0.00047684,4917.7,-0.00011613,462.37,-0.00017766,0.01832,0.12045
6247,4.5977,3.4545,0.1,0.00047137,4710.4,0.00047744,4920.8,-0.00011712,453.52,-0.00017747,0.016663,0.12029
6248,4.5977,3.6364,0.1,0.00047239,4720.6,0.00047834,4925.4,-0.00011858,440.36,-0.00017719,0.014147,0.12006
6249,4.5977,3.8182,0.1,0.00047374,4734.1,0.00047951,4931.4,-0.00012052,423.05,-0.00017682,0.010731,0.11975
6250,4.5977,4,0.1,0.0004754,4750.7,0.00048096,4938.8,-0.00012289,401.78,-0.00017636,0.0063555,0.11936
6251,4.5977,4.1818,0.1,0.00047736,4770.3,0.00048265,4947.5,-0.00012568,376.79,-0.00017582,0.0009325,0.11889
6252,4.5977,4.3636,0.1,0.0004796,4792.7,0.00048458,4957.4,-0.00012885,348.34,-0.00017521,-0.0056653,0.11834
6253,4.5977,4.5455,0.1,0.0004821,4817.7,0.00048671,4968.3,-0.00013237,316.76,-0.00017453,-0.013683,0.1177
6254,4.5977,4.7273,0.1,0.00048485,4845.1,0.00048903,4980.1,-0.0001362,282.38,-0.00017378,-0.023343,0.11698
6255,4.5977,4.9091,0.1,0.0004878,4874.7,0.00049151,4992.8,-0.0001403,245.54,-0.00017299,-0.03577,0.11616
6256,4.5977,5.0909,0.1,0.00049094,4906.1,0.00049413,5006.1,-0.00014464,206.62,-0.00017214,-0.050128,0.11526
6257,4.5977,5.2727,0.1,0.00049425,4939,0.00049686,5019.9,-0.00014916,165.98,-0.00017126,-0.077285,0.11425
6258,4.5977,5.4545,0.1,0.00049767,4973.3,0.00049967,5034.1,-0.00015383,124.02,-0.00017034,-0.089095,0.11315
6259,4.5977,5.6364,0.1,0.00050121,5008.7,0.00050253,5048.5,-0.00015861,80.954,-0.00016942,-0.28225,0.11195
6260,4.5977,5.8182,0.1,0.00050488,5045.3,0.00050549,5063.5,-0.0001635,36.95,-0.00016846,-0.33117,0.11064
6261,4.7816,0.18182,0.1,0.00049859,4982.4,0.00049916,4999.5,-0.00016162,34.612,-0.00016627,-0.29141,0.11987
6262,4.7816,0.36364,0.1,0.0004952,4948.6,0.00049643,4985.6,-0.0001571,75.204,-0.00016715,-0.25743,0.12118
6263,4.7816,0.54545,0.1,0.00049192,4915.8,0.00049377,4972.2,-0.00015269,114.92,-0.000168,-0.080661,0.12239
6264,4.7816,0.72727,0.1,0.00048874,4884,0.00049117,4959,-0.00014839,153.59,-0.00016884,-0.07035,0.1235
6265,4.7816,0.90909,0.1,0.00048568,4853.5,0.00048865,4946.1,-0.00014422,190.99,-0.00016965,-0.045624,0.12451
6266,4.7816,1.0909,0.1,0.00048277,4824.4,0.00048623,4933.7,-0.00014023,226.77,-0.00017042,-0.032592,0.12543
6267,4.7816,1.2727,0.1,0.00048003,4797,0.00048393,4921.9,-0.00013646,260.61,-0.00017114,-0.021276,0.12625
6268,4.7816,1.4545,0.1,0.00047748,4771.5,0.00048178,4910.9,-0.00013293,292.17,-0.00017182,-0.012468,0.12699
6269,4.7816,1.6364,0.1,0.00047516,4748.3,0.00047981,4900.7,-0.0001297,321.15,-0.00017244,-0.0051404,0.12763
6270,4.7816,1.8182,0.1,0.00047308,4727.5,0.00047803,4891.6,-0.00012679,347.22,-0.000173,0.0009036,0.12819
6271,4.7816,2,0.1,0.00047126,4709.3,0.00047646,4883.5,-0.00012423,370.13,-0.00017349,0.0058841,0.12867
6272,4.7816,2.1818,0.1,0.00046971,4693.9,0.00047513,4876.6,-0.00012205,389.62,-0.0001739,0.009913,0.12906
6273,4.7816,2.3636,0.1,0.00046846,4681.4,0.00047404,4870.9,-0.00012028,405.48,-0.00017424,0.013066,0.12938
6274,4.7816,2.5455,0.1,0.00046751,4671.9,0.00047321,4866.7,-0.00011893,417.53,-0.0001745,0.015393,0.12961
6275,4.7816,2.7273,0.1,0.00046687,4665.5,0.00047266,4863.8,-0.00011802,425.64,-0.00017467,0.016929,0.12977
6276,4.7816,2.9091,0.1,0.00046655,4662.3,0.00047238,4862.3,-0.00011757,429.72,-0.00017476,0.017693,0.12985
6277,4.7816,3.0909,0.1,0.00046655,4662.3,0.00047238,4862.3,-0.00011757,429.72,-0.00017476,0.017693,0.12985
6278,4.7816,3.2727,0.1,0.00046687,4665.5,0.00047266,4863.8,-0.00011802,425.64,-0.00017467,0.016929,0.12977
6279,4.7816,3.4545,0.1,0.00046751,4671.9,0.00047321,4866.7,-0.00011893,417.53,-0.0001745,0.015394,0.12961
6280,4.7816,3.6364,0.1,0.00046846,4681.4,0.00047404,4870.9,-0.00012028,405.48,-0.00017424,0.013067,0.12938
6281,4.7816,3.8182,0.1,0.00046971,4693.9,0.00047513,4876.6,-0.00012205,389.62,-0.0001739,0.0099134,0.12906
6282,4.7816,4,0.1,0.00047126,4709.3,0.00047646,4883.5,-0.00012423,370.13,-0.00017349,0.0058845,0.12867
6283,4.7816,4.1818,0.1,0.00047308,4727.5,0.00047803,4891.6,-0.00012679,347.22,-0.000173,0.00090413,0.12819
6284,4.7816,4.3636,0.1,0.00047516,4748.3,0.00047981,4900.7,-0.0001297,321.15,-0.00017244,-0.0051397,0.12763
6285,4.7816,4.5455,0.1,0.00047748,4771.5,0.00048178,4910.9,-0.00013293,292.17,-0.00017182,-0.012467,0.12699
6286,4.7816,4.7273,0.1,0.00048003,4797,0.00048393,4921.9,-0.00013646,260.61,-0.00017114,-0.021275,0.12625
6287,4.7816,4.9091,0.1,0.00048277,4824.4,0.00048623,4933.7,-0.00014023,226.77,-0.00017042,-0.032592,0.12543
6288,4.7816,5.0909,0.1,0.00048568,4853.5,0.00048865,4946.1,-0.00014422,190.99,-0.00016965,-0.045622,0.12451
6289,4.7816,5.2727,0.1,0.00048874,4884,0.00049117,4959,-0.00014839,153.59,-0.00016884,-0.070349,0.1235
6290,4.7816,5.4545,0.1,0.00049192,4915.8,0.00049377,4972.2,-0.00015269,114.92,-0.000168,-0.08066,0.12239
6291,4.7816,5.6364,0.1,0.0004952,4948.6,0.00049643,4985.6,-0.0001571,75.204,-0.00016715,-0.25743,0.12118
6292,4.7816,5.8182,0.1,0.00049859,4982.4,0.00049916,4999.5,-0.00016162,34.612,-0.00016627,-0.2914,0.11987
6293,4.9655,0.18182,0.1,0.00049236,4920.2,0.0004929,4936.1,-0.00015977,32.264,-0.0001641,-0.25785,0.12943
6294,4.9655,0.36364,0.1,0.00048923,4888.9,0.00049037,4923.3,-0.0001556,69.713,-0.00016491,-0.23486,0.13075
6295,4.9655,0.54545,0.1,0.00048619,4858.5,0.00048791,4910.8,-0.00015152,106.34,-0.00016569,-0.073057,0.13197
6296,4.9655,0.72727,0.1,0.00048325,4829.1,0.0004855,4898.5,-0.00014755,141.96,-0.00016646,-0.064056,0.13308
6297,4.9655,0.90909,0.1,0.00048041,4800.8,0.00048317,4886.5,-0.00014372,176.38,-0.0001672,-0.041545,0.1341
6298,4.9655,1.0909,0.1,0.00047771,4773.8,0.00048093,4875,-0.00014004,209.29,-0.0001679,-0.029721,0.13502
6299,4.9655,1.2727,0.1,0.00047517,4748.5,0.00047881,4864.1,-0.00013657,240.38,-0.00016857,-0.019421,0.13585
6300,4.9655,1.4545,0.1,0.00047282,4724.9,0.00047682,4853.8,-0.00013333,269.35,-0.00016918,-0.011396,0.1366
6301,4.9655,1.6364,0.1,0.00047066,4703.4,0.000475,4844.4,-0.00013036,295.93,-0.00016975,-0.004707,0.13725
6302,4.9655,1.8182,0.1,0.00046873,4684.1,0.00047335,4835.8,-0.00012769,319.84,-0.00017025,0.00082028,0.13782
6303,4.9655,2,0.1,0.00046704,4667.2,0.00047191,4828.3,-0.00012534,340.83,-0.0001707,0.0053842,0.1383
6304,4.9655,2.1818,0.1,0.00046561,4652.9,0.00047068,4821.9,-0.00012334,358.69,-0.00017108,0.0090839,0.1387
6305,4.9655,2.3636,0.1,0.00046445,4641.3,0.00046967,4816.6,-0.00012171,373.21,-0.00017138,0.011985,0.13902
6306,4.9655,2.5455,0.1,0.00046357,4632.5,0.00046891,4812.7,-0.00012048,384.25,-0.00017161,0.014129,0.13925
6307,4.9655,2.7273,0.1,0.00046298,4626.6,0.00046839,4810,-0.00011964,391.67,-0.00017177,0.015546,0.13941
6308,4.9655,2.9091,0.1,0.00046268,4623.6,0.00046814,4808.6,-0.00011923,395.41,-0.00017185,0.016251,0.13949
6309,4.9655,3.0909,0.1,0.00046268,4623.6,0.00046814,4808.6,-0.00011923,395.41,-0.00017185,0.016251,0.13949
6310,4.9655,3.2727,0.1,0.00046298,4626.6,0.00046839,4810,-0.00011964,391.67,-0.00017177,0.015546,0.13941
6311,4.9655,3.4545,0.1,0.00046357,4632.5,0.00046891,4812.7,-0.00012048,384.25,-0.00017161,0.014129,0.13925
6312,4.9655,3.6364,0.1,0.00046445,4641.3,0.00046967,4816.6,-0.00012171,373.21,-0.00017138,0.011985,0.13902
6313,4.9655,3.8182,0.1,0.00046561,4652.9,0.00047068,4821.9,-0.00012334,358.69,-0.00017108,0.0090841,0.1387
6314,4.9655,4,0.1,0.00046704,4667.2,0.00047191,4828.3,-0.00012534,340.83,-0.0001707,0.0053847,0.1383
6315,4.9655,4.1818,0.1,0.00046873,4684.1,0.00047335,4835.8,-0.00012769,319.84,-0.00017025,0.00082084,0.13782
6316,4.9655,4.3636,0.1,0.00047066,4703.4,0.000475,4844.4,-0.00013036,295.93,-0.00016975,-0.0047065,0.13725
6317,4.9655,4.5455,0.1,0.00047282,4724.9,0.00047682,4853.8,-0.00013333,269.35,-0.00016918,-0.011395,0.1366
6318,4.9655,4.7273,0.1,0.00047517,4748.5,0.00047881,4864.1,-0.00013657,240.38,-0.00016857,-0.01942,0.13585
6319,4.9655,4.9091,0.1,0.00047771,4773.8,0.00048093,4875,-0.00014004,209.29,-0.0001679,-0.02972,0.13502
6320,4.9655,5.0909,0.1,0.00048041,4800.8,0.00048317,4886.5,-0.00014372,176.38,-0.0001672,-0.041544,0.1341
6321,4.9655,5.2727,0.1,0.00048325,4829.1,0.0004855,4898.5,-0.00014755,141.96,-0.00016646,-0.064055,0.13308
6322,4.9655,5.4545,0.1,0.00048619,4858.5,0.00048791,4910.8,-0.00015152,106.34,-0.00016569,-0.073057,0.13197
6323,4.9655,5.6364,0.1,0.00048923,4888.9,0.00049037,4923.3,-0.0001556,69.713,-0.00016491,-0.23485,0.13075
6324,4.9655,5.8182,0.1,0.00049236,4920.2,0.0004929,4936.1,-0.00015977,32.264,-0.0001641,-0.25785,0.12943
6325,5.1494,0.18182,0.1,0.0004862,4858.6,0.0004867,4873.4,-0.00015793,29.928,-0.00016195,-0.22945,0.13933
6326,5.1494,0.36364,0.1,0.0004833,4829.7,0.00048436,4861.5,-0.00015408,64.483,-0.00016269,-0.21429,0.14065
6327,5.1494,0.54545,0.1,0.00048049,4801.6,0.00048208,4849.9,-0.00015032,98.259,-0.00016341,-0.066194,0.14187
6328,5.1494,0.72727,0.1,0.00047776,4774.3,0.00047986,4838.5,-0.00014666,131.07,-0.00016411,-0.058339,0.14299
6329,5.1494,0.90909,0.1,0.00047514,4748.1,0.0004777,4827.4,-0.00014313,162.75,-0.00016479,-0.037851,0.14401
6330,5.1494,1.0909,0.1,0.00047264,4723.1,0.00047563,4816.7,-0.00013975,193,-0.00016544,-0.027126,0.14494
6331,5.1494,1.2727,0.1,0.00047029,4699.7,0.00047367,4806.5,-0.00013655,221.57,-0.00016604,-0.017757,0.14578
6332,5.1494,1.4545,0.1,0.00046811,4677.8,0.00047183,4797,-0.00013358,248.17,-0.00016661,-0.010451,0.14653
6333,5.1494,1.6364,0.1,0.00046611,4657.9,0.00047015,4788.2,-0.00013085,272.55,-0.00016712,-0.0043526,0.14719
6334,5.1494,1.8182,0.1,0.00046433,4640.1,0.00046863,4780.3,-0.00012839,294.48,-0.00016758,0.00069464,0.14776
6335,5.1494,2,0.1,0.00046276,4624.4,0.0004673,4773.3,-0.00012623,313.72,-0.00016799,0.0048689,0.14824
6336,5.1494,2.1818,0.1,0.00046143,4611.2,0.00046616,4767.3,-0.0001244,330.08,-0.00016833,0.0082579,0.14865
6337,5.1494,2.3636,0.1,0.00046036,4600.4,0.00046524,4762.5,-0.00012291,343.38,-0.00016861,0.01092,0.14897
6338,5.1494,2.5455,0.1,0.00045954,4592.2,0.00046453,4758.8,-0.00012178,353.49,-0.00016882,0.012889,0.14921
6339,5.1494,2.7273,0.1,0.00045899,4586.8,0.00046406,4756.3,-0.00012101,360.28,-0.00016896,0.014192,0.14937
6340,5.1494,2.9091,0.1,0.00045872,4584,0.00046382,4755,-0.00012063,363.7,-0.00016903,0.014841,0.14945
6341,5.1494,3.0909,0.1,0.00045872,4584,0.00046382,4755,-0.00012063,363.7,-0.00016903,0.014841,0.14945
6342,5.1494,3.2727,0.1,0.00045899,4586.8,0.00046406,4756.3,-0.00012101,360.28,-0.00016896,0.014192,0.14937
6343,5.1494,3.4545,0.1,0.00045954,4592.2,0.00046453,4758.8,-0.00012178,353.49,-0.00016882,0.01289,0.14921
6344,5.1494,3.6364,0.1,0.00046036,4600.4,0.00046524,4762.5,-0.00012291,343.38,-0.00016861,0.01092,0.14897
6345,5.1494,3.8182,0.1,0.00046143,4611.2,0.00046616,4767.3,-0.0001244,330.08,-0.00016833,0.0082583,0.14865
6346,5.1494,4,0.1,0.00046276,4624.4,0.0004673,4773.3,-0.00012623,313.72,-0.00016799,0.0048693,0.14824
6347,5.1494,4.1818,0.1,0.00046433,4640.1,0.00046863,4780.3,-0.00012839,294.48,-0.00016758,0.00069515,0.14776
6348,5.1494,4.3636,0.1,0.00046611,4657.9,0.00047015,4788.2,-0.00013085,272.55,-0.00016712,-0.004352,0.14719
6349,5.1494,4.5455,0.1,0.00046811,4677.8,0.00047183,4797,-0.00013358,248.17,-0.00016661,-0.010451,0.14653
6350,5.1494,4.7273,0.1,0.00047029,4699.7,0.00047367,4806.5,-0.00013655,221.57,-0.00016604,-0.017756,0.14578
6351,5.1494,4.9091,0.1,0.00047264,4723.1,0.00047563,4816.7,-0.00013975,193,-0.00016544,-0.027125,0.14494
6352,5.1494,5.0909,0.1,0.00047514,4748.1,0.0004777,4827.4,-0.00014313,162.75,-0.00016479,-0.03785,0.14401
6353,5.1494,5.2727,0.1,0.00047776,4774.3,0.00047986,4838.5,-0.00014666,131.07,-0.00016411,-0.058338,0.14299
6354,5.1494,5.4545,0.1,0.00048049,4801.6,0.00048208,4849.9,-0.00015032,98.259,-0.00016341,-0.066194,0.14187
6355,5.1494,5.6364,0.1,0.0004833,4829.7,0.00048436,4861.5,-0.00015408,64.483,-0.00016269,-0.21429,0.14065
6356,5.1494,5.8182,0.1,0.0004862,4858.6,0.0004867,4873.4,-0.00015793,29.928,-0.00016195,-0.22944,0.13933
6357,5.3333,0.18182,0.1,0.0004801,4797.7,0.00048056,4811.3,-0.00015611,27.624,-0.00015982,-0.20535,0.14955
6358,5.3333,0.36364,0.1,0.00047742,4770.9,0.0004784,4800.3,-0.00015256,59.511,-0.0001605,-0.19554,0.15088
6359,5.3333,0.54545,0.1,0.00047481,4744.9,0.00047629,4789.5,-0.00014909,90.65,-0.00016116,-0.05999,0.1521
6360,5.3333,0.72727,0.1,0.00047229,4719.6,0.00047423,4778.9,-0.00014571,120.88,-0.00016181,-0.053141,0.15322
6361,5.3333,0.90909,0.1,0.00046986,4695.4,0.00047223,4768.6,-0.00014246,150.03,-0.00016243,-0.034502,0.15425
6362,5.3333,1.0909,0.1,0.00046755,4672.3,0.00047032,4758.7,-0.00013935,177.85,-0.00016302,-0.024781,0.15518
6363,5.3333,1.2727,0.1,0.00046538,4650.5,0.00046851,4749.2,-0.00013641,204.09,-0.00016357,-0.016264,0.15603
6364,5.3333,1.4545,0.1,0.00046336,4630.4,0.00046682,4740.4,-0.00013367,228.51,-0.00016409,-0.0096195,0.15678
6365,5.3333,1.6364,0.1,0.00046151,4611.9,0.00046527,4732.3,-0.00013117,250.88,-0.00016456,-0.0040652,0.15744
6366,5.3333,1.8182,0.1,0.00045986,4595.4,0.00046387,4724.9,-0.00012891,270.99,-0.00016498,0.0005371,0.15802
6367,5.3333,2,0.1,0.00045841,4580.9,0.00046264,4718.4,-0.00012693,288.63,-0.00016535,0.0043482,0.15851
6368,5.3333,2.1818,0.1,0.00045718,4568.7,0.00046159,4712.9,-0.00012525,303.61,-0.00016566,0.0074467,0.15891
6369,5.3333,2.3636,0.1,0.00045619,4558.7,0.00046074,4708.4,-0.00012388,315.8,-0.00016591,0.009883,0.15924
6370,5.3333,2.5455,0.1,0.00045543,4551.2,0.00046009,4705,-0.00012284,325.05,-0.0001661,0.011687,0.15948
6371,5.3333,2.7273,0.1,0.00045492,4546.1,0.00045965,4702.7,-0.00012215,331.28,-0.00016623,0.012882,0.15964
6372,5.3333,2.9091,0.1,0.00045467,4543.5,0.00045943,4701.5,-0.00012179,334.41,-0.0001663,0.013478,0.15972
6373,5.3333,3.0909,0.1,0.00045467,4543.5,0.00045943,4701.5,-0.00012179,334.41,-0.0001663,0.013477,0.15972
6374,5.3333,3.2727,0.1,0.00045492,4546.1,0.00045965,4702.7,-0.00012215,331.28,-0.00016623,0.012882,0.15964
6375,5.3333,3.4545,0.1,0.00045543,4551.2,0.00046009,4705,-0.00012284,325.05,-0.0001661,0.011688,0.15948
6376,5.3333,3.6364,0.1,0.00045619,4558.7,0.00046074,4708.4,-0.00012388,315.8,-0.00016591,0.0098833,0.15924
6377,5.3333,3.8182,0.1,0.00045718,4568.7,0.00046159,4712.9,-0.00012525,303.61,-0.00016566,0.007447,0.15891
6378,5.3333,4,0.1,0.00045841,4580.9,0.00046264,4718.4,-0.00012693,288.63,-0.00016535,0.0043487,0.15851
6379,5.3333,4.1818,0.1,0.00045986,4595.4,0.00046387,4724.9,-0.00012891,270.99,-0.00016498,0.0005376,0.15802
6380,5.3333,4.3636,0.1,0.00046151,4611.9,0.00046527,4732.3,-0.00013117,250.88,-0.00016456,-0.0040647,0.15744
6381,5.3333,4.5455,0.1,0.00046336,4630.4,0.00046682,4740.4,-0.00013367,228.51,-0.00016409,-0.0096188,0.15678
6382,5.3333,4.7273,0.1,0.00046538,4650.5,0.00046851,4749.2,-0.00013641,204.09,-0.00016357,-0.016264,0.15603
6383,5.3333,4.9091,0.1,0.00046755,4672.3,0.00047032,4758.7,-0.00013935,177.85,-0.00016302,-0.02478,0.15518
6384,5.3333,5.0909,0.1,0.00046986,4695.4,0.00047223,4768.6,-0.00014246,150.03,-0.00016243,-0.034501,0.15425
6385,5.3333,5.2727,0.1,0.00047229,4719.6,0.00047423,4778.9,-0.00014571,120.88,-0.00016181,-0.05314,0.15322
6386,5.3333,5.4545,0.1,0.00047481,4744.9,0.00047629,4789.5,-0.00014909,90.65,-0.00016116,-0.05999,0.1521
6387,5.3333,5.6364,0.1,0.00047742,4770.9,0.0004784,4800.3,-0.00015256,59.511,-0.0001605,-0.19554,0.15088
6388,5.3333,5.8182,0.1,0.0004801,4797.7,0.00048056,4811.3,-0.00015611,27.624,-0.00015982,-0.20535,0.14955
6389,5.5172,0.18182,0.1,0.00047406,4737.3,0.00047448,4749.9,-0.00015431,25.367,-0.00015771,-0.1849,0.1601
6390,5.5172,0.36364,0.1,0.00047157,4712.5,0.00047248,4739.6,-0.00015102,54.795,-0.00015834,-0.17842,0.16143
6391,5.5172,0.54545,0.1,0.00046916,4688.4,0.00047053,4729.6,-0.00014783,83.498,-0.00015895,-0.054373,0.16265
6392,5.5172,0.72727,0.1,0.00046683,4665.1,0.00046862,4719.7,-0.00014472,111.33,-0.00015954,-0.048411,0.16378
6393,5.5172,0.90909,0.1,0.00046458,4642.6,0.00046678,4710.2,-0.00014172,138.16,-0.00016011,-0.031465,0.16481
6394,5.5172,1.0909,0.1,0.00046245,4621.3,0.00046501,4701,-0.00013885,163.74,-0.00016065,-0.022659,0.16574
6395,5.5172,1.2727,0.1,0.00046044,4601.2,0.00046334,4692.2,-0.00013615,187.85,-0.00016115,-0.014925,0.16659
6396,5.5172,1.4545,0.1,0.00045857,4582.5,0.00046178,4684,-0.00013364,210.27,-0.00016162,-0.0088874,0.16734
6397,5.5172,1.6364,0.1,0.00045686,4565.5,0.00046035,4676.5,-0.00013133,230.8,-0.00016205,-0.0038347,0.16801
6398,5.5172,1.8182,0.1,0.00045533,4550.2,0.00045906,4669.7,-0.00012927,249.24,-0.00016244,0.00035622,0.16859
6399,5.5172,2,0.1,0.000454,4536.8,0.00045793,4663.7,-0.00012745,265.4,-0.00016277,0.0038305,0.16908
6400,5.5172,2.1818,0.1,0.00045286,4525.5,0.00045696,4658.6,-0.00012591,279.14,-0.00016306,0.006658,0.16949
6401,5.5172,2.3636,0.1,0.00045194,4516.3,0.00045618,4654.4,-0.00012465,290.3,-0.00016329,0.0088832,0.16982
6402,5.5172,2.5455,0.1,0.00045124,4509.3,0.00045558,4651.3,-0.0001237,298.77,-0.00016346,0.010533,0.17006
6403,5.5172,2.7273,0.1,0.00045077,4504.6,0.00045518,4649.1,-0.00012306,304.47,-0.00016358,0.011626,0.17023
6404,5.5172,2.9091,0.1,0.00045054,4502.3,0.00045498,4648.1,-0.00012274,307.34,-0.00016364,0.01217,0.17031
6405,5.5172,3.0909,0.1,0.00045054,4502.3,0.00045498,4648.1,-0.00012274,307.34,-0.00016364,0.01217,0.17031
6406,5.5172,3.2727,0.1,0.00045077,4504.6,0.00045518,4649.1,-0.00012306,304.47,-0.00016358,0.011626,0.17023
6407,5.5172,3.4545,0.1,0.00045124,4509.3,0.00045558,4651.3,-0.0001237,298.77,-0.00016346,0.010533,0.17006
6408,5.5172,3.6364,0.1,0.00045194,4516.3,0.00045618,4654.4,-0.00012465,290.3,-0.00016329,0.0088836,0.16982
6409,5.5172,3.8182,0.1,0.00045286,4525.5,0.00045696,4658.6,-0.00012591,279.14,-0.00016306,0.0066582,0.16949
6410,5.5172,4,0.1,0.000454,4536.8,0.00045793,4663.7,-0.00012745,265.4,-0.00016277,0.0038309,0.16908
6411,5.5172,4.1818,0.1,0.00045533,4550.2,0.00045906,4669.7,-0.00012927,249.24,-0.00016244,0.00035676,0.16859
6412,5.5172,4.3636,0.1,0.00045686,4565.5,0.00046035,4676.5,-0.00013133,230.8,-0.00016205,-0.0038341,0.16801
6413,5.5172,4.5455,0.1,0.00045857,4582.5,0.00046178,4684,-0.00013364,210.27,-0.00016162,-0.0088866,0.16734
6414,5.5172,4.7273,0.1,0.00046044,4601.2,0.00046334,4692.2,-0.00013615,187.85,-0.00016115,-0.014925,0.16659
6415,5.5172,4.9091,0.1,0.00046245,4621.3,0.00046501,4701,-0.00013885,163.74,-0.00016065,-0.022659,0.16574
6416,5.5172,5.0909,0.1,0.00046458,4642.6,0.00046678,4710.2,-0.00014172,138.16,-0.00016011,-0.031463,0.16481
6417,5.5172,5.2727,0.1,0.00046683,4665.1,0.00046862,4719.7,-0.00014472,111.33,-0.00015954,-0.04841,0.16378
6418,5.5172,5.4545,0.1,0.00046916,4688.4,0.00047053,4729.6,-0.00014783,83.498,-0.00015895,-0.054373,0.16265
6419,5.5172,5.6364,0.1,0.00047157,4712.5,0.00047248,4739.6,-0.00015102,54.795,-0.00015834,-0.17842,0.16143
6420,5.5172,5.8182,0.1,0.00047406,4737.3,0.00047448,4749.9,-0.00015431,25.367,-0.00015771,-0.18489,0.1601
6421,5.7011,0.18182,0.1,0.00046808,4677.5,0.00046846,4689,-0.00015252,23.168,-0.00015563,-0.16754,0.17098
6422,5.7011,0.36364,0.1,0.00046577,4654.5,0.0004666,4679.4,-0.00014948,50.33,-0.0001562,-0.16277,0.1723
6423,5.7011,0.54545,0.1,0.00046354,4632.2,0.0004648,4670.1,-0.00014653,76.781,-0.00015676,-0.049282,0.17352
6424,5.7011,0.72727,0.1,0.00046138,4610.6,0.00046304,4661,-0.00014367,102.41,-0.0001573,-0.044102,0.17465
6425,5.7011,0.90909,0.1,0.00045931,4589.9,0.00046133,4652.1,-0.00014091,127.09,-0.00015782,-0.028707,0.17568
6426,5.7011,1.0909,0.1,0.00045733,4570.1,0.0004597,4643.6,-0.00013827,150.61,-0.00015832,-0.02074,0.17662
6427,5.7011,1.2727,0.1,0.00045547,4551.6,0.00045816,4635.5,-0.00013579,172.76,-0.00015878,-0.013723,0.17746
6428,5.7011,1.4545,0.1,0.00045375,4534.3,0.00045672,4627.9,-0.00013348,193.35,-0.00015921,-0.008243,0.17822
6429,5.7011,1.6364,0.1,0.00045217,4518.6,0.00045541,4620.9,-0.00013136,212.18,-0.0001596,-0.003652,0.17889
6430,5.7011,1.8182,0.1,0.00045076,4504.5,0.00045422,4614.6,-0.00012946,229.09,-0.00015995,0.00015889,0.17947
6431,5.7011,2,0.1,0.00044952,4492.1,0.00045317,4609.1,-0.0001278,243.91,-0.00016026,0.0033212,0.17997
6432,5.7011,2.1818,0.1,0.00044847,4481.6,0.00045229,4604.4,-0.00012638,256.5,-0.00016052,0.0058972,0.18038
6433,5.7011,2.3636,0.1,0.00044762,4473.1,0.00045156,4600.5,-0.00012523,266.72,-0.00016073,0.0079259,0.18071
6434,5.7011,2.5455,0.1,0.00044698,4466.7,0.00045101,4597.6,-0.00012436,274.48,-0.00016089,0.0094305,0.18096
6435,5.7011,2.7273,0.1,0.00044654,4462.4,0.00045064,4595.6,-0.00012377,279.7,-0.000161,0.010428,0.18112
6436,5.7011,2.9091,0.1,0.00044633,4460.2,0.00045046,4594.6,-0.00012348,282.32,-0.00016105,0.010926,0.1812
6437,5.7011,3.0909,0.1,0.00044633,4460.2,0.00045046,4594.6,-0.00012348,282.32,-0.00016105,0.010926,0.1812
6438,5.7011,3.2727,0.1,0.00044654,4462.4,0.00045064,4595.6,-0.00012377,279.7,-0.000161,0.010428,0.18112
6439,5.7011,3.4545,0.1,0.00044698,4466.7,0.00045101,4597.6,-0.00012436,274.48,-0.00016089,0.0094307,0.18096
6440,5.7011,3.6364,0.1,0.00044762,4473.1,0.00045156,4600.5,-0.00012523,266.72,-0.00016073,0.0079261,0.18071
6441,5.7011,3.8182,0.1,0.00044847,4481.6,0.00045229,4604.4,-0.00012638,256.5,-0.00016052,0.0058975,0.18038
6442,5.7011,4,0.1,0.00044952,4492.1,0.00045317,4609.1,-0.0001278,243.91,-0.00016026,0.0033216,0.17997
6443,5.7011,4.1818,0.1,0.00045076,4504.5,0.00045422,4614.6,-0.00012946,229.09,-0.00015995,0.00015957,0.17947
6444,5.7011,4.3636,0.1,0.00045217,4518.6,0.00045541,4620.9,-0.00013136,212.18,-0.0001596,-0.0036515,0.17889
6445,5.7011,4.5455,0.1,0.00045375,4534.3,0.00045672,4627.9,-0.00013348,193.35,-0.00015921,-0.0082424,0.17822
6446,5.7011,4.7273,0.1,0.00045547,4551.6,0.00045816,4635.5,-0.00013579,172.76,-0.00015878,-0.013722,0.17746
6447,5.7011,4.9091,0.1,0.00045733,4570.1,0.0004597,4643.6,-0.00013827,150.61,-0.00015832,-0.020739,0.17662
6448,5.7011,5.0909,0.1,0.00045931,4589.9,0.00046133,4652.1,-0.00014091,127.09,-0.00015782,-0.028705,0.17568
6449,5.7011,5.2727,0.1,0.00046138,4610.6,0.00046304,4661,-0.00014367,102.41,-0.0001573,-0.044102,0.17465
6450,5.7011,5.4545,0.1,0.00046354,4632.2,0.0004648,4670.1,-0.00014653,76.781,-0.00015676,-0.049282,0.17352
6451,5.7011,5.6364,0.1,0.00046577,4654.5,0.0004666,4679.4,-0.00014948,50.33,-0.0001562,-0.16277,0.1723
6452,5.7011,5.8182,0.1,0.00046808,4677.5,0.00046846,4689,-0.00015252,23.168,-0.00015563,-0.16753,0.17098
6453,5.8851,0.18182,0.1,0.00046214,4618.3,0.0004625,4628.7,-0.00015074,21.037,-0.00015356,-0.15284,0.18216
6454,5.8851,0.36364,0.1,0.00046001,4596.9,0.00046077,4619.7,-0.00014794,46.109,-0.00015409,-0.14845,0.18348
6455,5.8851,0.54545,0.1,0.00045794,4576.3,0.0004591,4611.1,-0.00014522,70.479,-0.0001546,-0.044661,0.18471
6456,5.8851,0.72727,0.1,0.00045595,4556.3,0.00045747,4602.6,-0.00014258,94.075,-0.0001551,-0.040174,0.18583
6457,5.8851,0.90909,0.1,0.00045403,4537.1,0.0004559,4594.4,-0.00014003,116.78,-0.00015558,-0.026201,0.18686
6458,5.8851,1.0909,0.1,0.0004522,4518.9,0.0004544,4586.5,-0.00013761,138.4,-0.00015603,-0.019001,0.1878
6459,5.8851,1.2727,0.1,0.00045048,4501.7,0.00045297,4579,-0.00013533,158.75,-0.00015645,-0.012643,0.18865
6460,5.8851,1.4545,0.1,0.00044889,4485.8,0.00045165,4572,-0.0001332,177.65,-0.00015685,-0.0076759,0.18941
6461,5.8851,1.6364,0.1,0.00044743,4471.3,0.00045043,4565.5,-0.00013126,194.93,-0.0001572,-0.00351,0.19008
6462,5.8851,1.8182,0.1,0.00044613,4458.2,0.00044934,4559.7,-0.00012952,210.44,-0.00015752,-4.9167e-05,0.19066
6463,5.8851,2,0.1,0.00044499,4446.8,0.00044838,4554.6,-0.00012799,224.03,-0.0001578,0.0028248,0.19116
6464,5.8851,2.1818,0.1,0.00044402,4437.2,0.00044756,4550.2,-0.00012669,235.56,-0.00015804,0.0051677,0.19158
6465,5.8851,2.3636,0.1,0.00044324,4429.3,0.00044689,4546.7,-0.00012564,244.93,-0.00015823,0.0070141,0.19191
6466,5.8851,2.5455,0.1,0.00044264,4423.4,0.00044639,4544,-0.00012483,252.03,-0.00015838,0.0083842,0.19215
6467,5.8851,2.7273,0.1,0.00044224,4419.4,0.00044605,4542.2,-0.0001243,256.81,-0.00015847,0.009293,0.19232
6468,5.8851,2.9091,0.1,0.00044204,4417.3,0.00044588,4541.3,-0.00012403,259.21,-0.00015852,0.0097464,0.1924
6469,5.8851,3.0909,0.1,0.00044204,4417.3,0.00044588,4541.3,-0.00012403,259.21,-0.00015852,0.0097463,0.1924
6470,5.8851,3.2727,0.1,0.00044224,4419.4,0.00044605,4542.2,-0.0001243,256.81,-0.00015847,0.0092931,0.19232
6471,5.8851,3.4545,0.1,0.00044264,4423.4,0.00044639,4544,-0.00012483,252.03,-0.00015838,0.0083844,0.19215
6472,5.8851,3.6364,0.1,0.00044324,4429.3,0.00044689,4546.7,-0.00012564,244.93,-0.00015823,0.0070144,0.19191
6473,5.8851,3.8182,0.1,0.00044402,4437.2,0.00044756,4550.2,-0.00012669,235.56,-0.00015804,0.0051681,0.19158
6474,5.8851,4,0.1,0.00044499,4446.8,0.00044838,4554.6,-0.00012799,224.03,-0.0001578,0.0028252,0.19116
6475,5.8851,4.1818,0.1,0.00044613,4458.2,0.00044934,4559.7,-0.00012952,210.44,-0.00015752,-4.8575e-05,0.19066
6476,5.8851,4.3636,0.1,0.00044743,4471.3,0.00045043,4565.5,-0.00013126,194.93,-0.0001572,-0.0035094,0.19008
6477,5.8851,4.5455,0.1,0.00044889,4485.8,0.00045165,4572,-0.0001332,177.65,-0.00015685,-0.0076751,0.18941
6478,5.8851,4.7273,0.1,0.00045048,4501.7,0.00045297,4579,-0.00013533,158.75,-0.00015645,-0.012642,0.18865
6479,5.8851,4.9091,0.1,0.0004522,4518.9,0.0004544,4586.5,-0.00013761,138.4,-0.00015603,-0.019001,0.1878
6480,5.8851,5.0909,0.1,0.00045403,4537.1,0.0004559,4594.4,-0.00014003,116.78,-0.00015558,-0.0262,0.18686
6481,5.8851,5.2727,0.1,0.00045595,4556.3,0.00045747,4602.6,-0.00014258,94.075,-0.0001551,-0.040173,0.18583
6482,5.8851,5.4545,0.1,0.00045794,4576.3,0.0004591,4611.1,-0.00014522,70.479,-0.0001546,-0.044661,0.18471
6483,5.8851,5.6364,0.1,0.00046001,4596.9,0.00046077,4619.7,-0.00014794,46.109,-0.00015409,-0.14845,0.18348
6484,5.8851,5.8182,0.1,0.00046214,4618.3,0.0004625,4628.7,-0.00015074,21.037,-0.00015356,-0.15284,0.18216
6485,6.069,0.18182,0.1,0.00045626,4559.5,0.00045658,4568.9,-0.00014897,18.98,-0.00015152,-0.14046,0.19367
6486,6.069,0.36364,0.1,0.00045428,4539.7,0.00045498,4560.5,-0.00014638,42.126,-0.00015201,-0.13534,0.19498
6487,6.069,0.54545,0.1,0.00045237,4520.6,0.00045343,4552.5,-0.00014387,64.571,-0.00015247,-0.040461,0.1962
6488,6.069,0.72727,0.1,0.00045052,4502.1,0.00045193,4544.6,-0.00014144,86.288,-0.00015293,-0.03659,0.19733
6489,6.069,0.90909,0.1,0.00044875,4484.4,0.00045048,4537,-0.0001391,107.17,-0.00015337,-0.023922,0.19836
6490,6.069,1.0909,0.1,0.00044706,4467.5,0.00044909,4529.7,-0.00013687,127.04,-0.00015378,-0.017426,0.19929
6491,6.069,1.2727,0.1,0.00044548,4451.7,0.00044778,4522.8,-0.00013477,145.73,-0.00015417,-0.011673,0.20014
6492,6.069,1.4545,0.1,0.00044401,4437,0.00044655,4516.3,-0.00013282,163.08,-0.00015453,-0.0071766,0.2009
6493,6.069,1.6364,0.1,0.00044266,4423.6,0.00044543,4510.3,-0.00013104,178.94,-0.00015485,-0.0034021,0.20157
6494,6.069,1.8182,0.1,0.00044146,4411.5,0.00044443,4504.9,-0.00012944,193.17,-0.00015514,-0.00026374,0.20216
6495,6.069,2,0.1,0.00044041,4401,0.00044354,4500.2,-0.00012803,205.62,-0.0001554,0.0023441,0.20266
6496,6.069,2.1818,0.1,0.00043951,4392.1,0.00044279,4496.2,-0.00012684,216.19,-0.00015562,0.0044718,0.20307
6497,6.069,2.3636,0.1,0.00043879,4384.9,0.00044218,4492.9,-0.00012588,224.77,-0.00015579,0.0061495,0.2034
6498,6.069,2.5455,0.1,0.00043824,4379.4,0.00044171,4490.4,-0.00012514,231.28,-0.00015592,0.0073949,0.20365
6499,6.069,2.7273,0.1,0.00043787,4375.7,0.0004414,4488.7,-0.00012465,235.66,-0.00015601,0.0082214,0.20381
6500,6.069,2.9091,0.1,0.00043768,4373.8,0.00044125,4487.9,-0.0001244,237.86,-0.00015606,0.0086338,0.2039
6501,6.069,3.0909,0.1,0.00043768,4373.8,0.00044125,4487.9,-0.0001244,237.86,-0.00015606,0.0086338,0.2039
6502,6.069,3.2727,0.1,0.00043787,4375.7,0.0004414,4488.7,-0.00012465,235.66,-0.00015601,0.0082215,0.20381
6503,6.069,3.4545,0.1,0.00043824,4379.4,0.00044171,4490.4,-0.00012514,231.28,-0.00015592,0.0073951,0.20365
6504,6.069,3.6364,0.1,0.00043879,4384.9,0.00044218,4492.9,-0.00012588,224.77,-0.00015579,0.0061497,0.2034
6505,6.069,3.8182,0.1,0.00043951,4392.1,0.00044279,4496.2,-0.00012684,216.19,-0.00015562,0.0044721,0.20307
6506,6.069,4,0.1,0.00044041,4401,0.00044354,4500.2,-0.00012803,205.62,-0.0001554,0.0023445,0.20266
6507,6.069,4.1818,0.1,0.00044146,4411.5,0.00044443,4504.9,-0.00012944,193.17,-0.00015514,-0.00026333,0.20216
6508,6.069,4.3636,0.1,0.00044266,4423.6,0.00044543,4510.3,-0.00013104,178.94,-0.00015485,-0.0034013,0.20157
6509,6.069,4.5455,0.1,0.00044401,4437,0.00044655,4516.3,-0.00013282,163.08,-0.00015453,-0.007176,0.2009
6510,6.069,4.7273,0.1,0.00044548,4451.7,0.00044778,4522.8,-0.00013477,145.73,-0.00015417,-0.011672,0.20014
6511,6.069,4.9091,0.1,0.00044706,4467.5,0.00044909,4529.7,-0.00013687,127.04,-0.00015378,-0.017425,0.19929
6512,6.069,5.0909,0.1,0.00044875,4484.4,0.00045048,4537,-0.0001391,107.17,-0.00015337,-0.023921,0.19836
6513,6.069,5.2727,0.1,0.00045052,4502.1,0.00045193,4544.6,-0.00014144,86.288,-0.00015293,-0.036589,0.19733
6514,6.069,5.4545,0.1,0.00045237,4520.6,0.00045343,4552.5,-0.00014387,64.571,-0.00015247,-0.040461,0.1962
6515,6.069,5.6364,0.1,0.00045428,4539.7,0.00045498,4560.5,-0.00014638,42.126,-0.00015201,-0.13533,0.19498
6516,6.069,5.8182,0.1,0.00045626,4559.5,0.00045658,4568.9,-0.00014897,18.98,-0.00015152,-0.14046,0.19367
6517,6.2529,0.18182,0.1,0.00045043,4501.2,0.00045071,4509.6,-0.00014721,17.003,-0.00014949,-0.13015,0.20548
6518,6.2529,0.36364,0.1,0.00044859,4482.8,0.00044922,4501.8,-0.00014482,38.372,-0.00014994,-0.12332,0.20679
6519,6.2529,0.54545,0.1,0.00044682,4465.1,0.00044779,4494.3,-0.00014251,59.038,-0.00015037,-0.03664,0.208
6520,6.2529,0.72727,0.1,0.00044511,4448.1,0.0004464,4487,-0.00014027,79.018,-0.00015079,-0.033317,0.20912
6521,6.2529,0.90909,0.1,0.00044347,4431.7,0.00044506,4480,-0.00013811,98.218,-0.00015119,-0.021849,0.21015
6522,6.2529,1.0909,0.1,0.00044192,4416.1,0.00044378,4473.2,-0.00013606,116.48,-0.00015157,-0.015997,0.21109
6523,6.2529,1.2727,0.1,0.00044045,4401.5,0.00044257,4466.8,-0.00013413,133.64,-0.00015192,-0.0108,0.21194
6524,6.2529,1.4545,0.1,0.00043909,4387.9,0.00044145,4460.8,-0.00013234,149.57,-0.00015225,-0.0067374,0.2127
6525,6.2529,1.6364,0.1,0.00043785,4375.5,0.00044042,4455.3,-0.0001307,164.13,-0.00015255,-0.0033227,0.21337
6526,6.2529,1.8182,0.1,0.00043674,4364.4,0.00043949,4450.3,-0.00012923,177.17,-0.00015281,-0.00048169,0.21395
6527,6.2529,2,0.1,0.00043577,4354.7,0.00043867,4446,-0.00012795,188.59,-0.00015305,0.0018811,0.21445
6528,6.2529,2.1818,0.1,0.00043495,4346.5,0.00043798,4442.2,-0.00012685,198.27,-0.00015324,0.00381,0.21487
6529,6.2529,2.3636,0.1,0.00043428,4339.8,0.00043742,4439.2,-0.00012597,206.13,-0.0001534,0.0053321,0.2152
6530,6.2529,2.5455,0.1,0.00043377,4334.8,0.00043699,4436.9,-0.0001253,212.09,-0.00015352,0.006462,0.21545
6531,6.2529,2.7273,0.1,0.00043343,4331.4,0.00043671,4435.4,-0.00012484,216.1,-0.0001536,0.0072127,0.21561
6532,6.2529,2.9091,0.1,0.00043326,4329.6,0.00043656,4434.6,-0.00012462,218.12,-0.00015364,0.0075871,0.21569
6533,6.2529,3.0909,0.1,0.00043326,4329.6,0.00043656,4434.6,-0.00012462,218.12,-0.00015364,0.0075871,0.21569
6534,6.2529,3.2727,0.1,0.00043343,4331.4,0.00043671,4435.4,-0.00012484,216.1,-0.0001536,0.0072127,0.21561
6535,6.2529,3.4545,0.1,0.00043377,4334.8,0.00043699,4436.9,-0.0001253,212.09,-0.00015352,0.0064624,0.21545
6536,6.2529,3.6364,0.1,0.00043428,4339.8,0.00043742,4439.2,-0.00012597,206.13,-0.0001534,0.0053325,0.2152
6537,6.2529,3.8182,0.1,0.00043495,4346.5,0.00043798,4442.2,-0.00012685,198.27,-0.00015324,0.0038105,0.21487
6538,6.2529,4,0.1,0.00043577,4354.7,0.00043867,4446,-0.00012795,188.59,-0.00015305,0.0018815,0.21445
6539,6.2529,4.1818,0.1,0.00043674,4364.4,0.00043949,4450.3,-0.00012923,177.17,-0.00015281,-0.0004811,0.21395
6540,6.2529,4.3636,0.1,0.00043785,4375.5,0.00044042,4455.3,-0.0001307,164.13,-0.00015255,-0.0033222,0.21337
6541,6.2529,4.5455,0.1,0.00043909,4387.9,0.00044145,4460.8,-0.00013234,149.57,-0.00015225,-0.0067368,0.2127
6542,6.2529,4.7273,0.1,0.00044045,4401.5,0.00044257,4466.8,-0.00013413,133.64,-0.00015192,-0.010799,0.21194
6543,6.2529,4.9091,0.1,0.00044192,4416.1,0.00044378,4473.2,-0.00013606,116.48,-0.00015157,-0.015997,0.21109
6544,6.2529,5.0909,0.1,0.00044347,4431.7,0.00044506,4480,-0.00013811,98.218,-0.00015119,-0.021847,0.21015
6545,6.2529,5.2727,0.1,0.00044511,4448.1,0.0004464,4487,-0.00014027,79.018,-0.00015079,-0.033316,0.20912
6546,6.2529,5.4545,0.1,0.00044682,4465.1,0.00044779,4494.3,-0.00014251,59.038,-0.00015037,-0.03664,0.208
6547,6.2529,5.6364,0.1,0.00044859,4482.8,0.00044922,4501.8,-0.00014482,38.372,-0.00014994,-0.12331,0.20679
6548,6.2529,5.8182,0.1,0.00045043,4501.2,0.00045071,4509.6,-0.00014721,17.003,-0.00014949,-0.13015,0.20548
6549,6.4368,0.18182,0.1,0.00044464,4443.3,0.00044489,4450.8,-0.00014546,15.109,-0.00014749,-0.1217,0.21759
6550,6.4368,0.36364,0.1,0.00044292,4426.2,0.00044351,4443.5,-0.00014325,34.837,-0.0001479,-0.11229,0.2189
6551,6.4368,0.54545,0.1,0.00044129,4409.9,0.00044218,4436.6,-0.00014112,53.858,-0.00014829,-0.033159,0.22011
6552,6.4368,0.72727,0.1,0.00043972,4394.1,0.0004409,4429.8,-0.00013905,72.234,-0.00014867,-0.030325,0.22123
6553,6.4368,0.90909,0.1,0.0004382,4379,0.00043966,4423.2,-0.00013707,89.883,-0.00014904,-0.01996,0.22225
6554,6.4368,1.0909,0.1,0.00043676,4364.6,0.00043848,4417,-0.00013519,106.66,-0.00014938,-0.014701,0.22319
6555,6.4368,1.2727,0.1,0.00043541,4351.1,0.00043736,4411,-0.00013341,122.42,-0.00014971,-0.010015,0.22403
6556,6.4368,1.4545,0.1,0.00043416,4338.6,0.00043633,4405.5,-0.00013177,137.04,-0.00015001,-0.0063513,0.22479
6557,6.4368,1.6364,0.1,0.00043302,4327.2,0.00043538,4400.4,-0.00013026,150.39,-0.00015028,-0.0032676,0.22546
6558,6.4368,1.8182,0.1,0.00043199,4316.9,0.00043452,4395.8,-0.00012892,162.35,-0.00015052,-0.00070008,0.22605
6559,6.4368,2,0.1,0.0004311,4308,0.00043378,4391.8,-0.00012774,172.81,-0.00015074,0.001437,0.22655
6560,6.4368,2.1818,0.1,0.00043034,4300.4,0.00043314,4388.4,-0.00012673,181.69,-0.00015092,0.0031829,0.22696
6561,6.4368,2.3636,0.1,0.00042972,4294.2,0.00043262,4385.6,-0.00012592,188.89,-0.00015106,0.0045613,0.22729
6562,6.4368,2.5455,0.1,0.00042925,4289.6,0.00043223,4383.4,-0.00012531,194.35,-0.00015117,0.0055851,0.22754
6563,6.4368,2.7273,0.1,0.00042894,4286.4,0.00043197,4382,-0.00012489,198.02,-0.00015125,0.006265,0.2277
6564,6.4368,2.9091,0.1,0.00042878,4284.9,0.00043183,4381.3,-0.00012468,199.87,-0.00015128,0.0066047,0.22779
6565,6.4368,3.0909,0.1,0.00042878,4284.9,0.00043183,4381.3,-0.00012468,199.87,-0.00015128,0.0066046,0.22779
6566,6.4368,3.2727,0.1,0.00042894,4286.4,0.00043197,4382,-0.00012489,198.02,-0.00015125,0.0062652,0.2277
6567,6.4368,3.4545,0.1,0.00042925,4289.6,0.00043223,4383.4,-0.00012531,194.35,-0.00015117,0.0055853,0.22754
6568,6.4368,3.6364,0.1,0.00042972,4294.2,0.00043262,4385.6,-0.00012592,188.89,-0.00015106,0.0045615,0.22729
6569,6.4368,3.8182,0.1,0.00043034,4300.4,0.00043314,4388.4,-0.00012673,181.69,-0.00015092,0.0031832,0.22696
6570,6.4368,4,0.1,0.0004311,4308,0.00043378,4391.8,-0.00012774,172.81,-0.00015074,0.0014375,0.22655
6571,6.4368,4.1818,0.1,0.00043199,4316.9,0.00043452,4395.8,-0.00012892,162.35,-0.00015052,-0.00069955,0.22605
6572,6.4368,4.3636,0.1,0.00043302,4327.2,0.00043538,4400.4,-0.00013026,150.39,-0.00015028,-0.0032669,0.22546
6573,6.4368,4.5455,0.1,0.00043416,4338.6,0.00043633,4405.5,-0.00013177,137.04,-0.00015001,-0.0063504,0.22479
6574,6.4368,4.7273,0.1,0.00043541,4351.1,0.00043736,4411,-0.00013341,122.42,-0.00014971,-0.010015,0.22403
6575,6.4368,4.9091,0.1,0.00043676,4364.6,0.00043848,4417,-0.00013519,106.66,-0.00014938,-0.014701,0.22319
6576,6.4368,5.0909,0.1,0.0004382,4379,0.00043966,4423.2,-0.00013707,89.883,-0.00014904,-0.019959,0.22225
6577,6.4368,5.2727,0.1,0.00043972,4394.1,0.0004409,4429.8,-0.00013905,72.234,-0.00014867,-0.030324,0.22123
6578,6.4368,5.4545,0.1,0.00044129,4409.9,0.00044218,4436.6,-0.00014112,53.858,-0.00014829,-0.033159,0.22011
6579,6.4368,5.6364,0.1,0.00044292,4426.2,0.00044351,4443.4,-0.00014325,34.837,-0.0001479,-0.11229,0.2189
6580,6.4368,5.8182,0.1,0.00044464,4443.3,0.00044489,4450.8,-0.00014546,15.109,-0.00014749,-0.1217,0.21759
6581,6.6207,0.18182,0.1,0.00043889,4385.9,0.00043911,4392.4,-0.00014372,13.298,-0.0001455,-0.11501,0.23001
6582,6.6207,0.36364,0.1,0.0004373,4369.9,0.00043782,4385.6,-0.00014167,31.513,-0.00014587,-0.10216,0.23131
6583,6.6207,0.54545,0.1,0.00043579,4354.9,0.0004366,4379.2,-0.00013971,49.011,-0.00014623,-0.029985,0.23251
6584,6.6207,0.72727,0.1,0.00043433,4340.3,0.00043541,4372.9,-0.00013781,65.905,-0.00014658,-0.027589,0.23363
6585,6.6207,0.90909,0.1,0.00043293,4326.3,0.00043427,4366.8,-0.00013599,82.122,-0.00014692,-0.018239,0.23465
6586,6.6207,1.0909,0.1,0.0004316,4313.1,0.00043318,4361,-0.00013425,97.528,-0.00014723,-0.013525,0.23558
6587,6.6207,1.2727,0.1,0.00043036,4300.6,0.00043215,4355.5,-0.00013262,112,-0.00014753,-0.0093095,0.23642
6588,6.6207,1.4545,0.1,0.0004292,4289.1,0.0004312,4350.4,-0.00013111,125.41,-0.0001478,-0.0060118,0.23718
6589,6.6207,1.6364,0.1,0.00042815,4278.5,0.00043032,4345.7,-0.00012973,137.65,-0.00014805,-0.0032329,0.23785
6590,6.6207,1.8182,0.1,0.0004272,4269.1,0.00042954,4341.5,-0.00012849,148.62,-0.00014827,-0.00091723,0.23843
6591,6.6207,2,0.1,0.00042638,4260.8,0.00042885,4337.7,-0.00012741,158.21,-0.00014847,0.0010119,0.23893
6592,6.6207,2.1818,0.1,0.00042568,4253.8,0.00042826,4334.6,-0.00012649,166.34,-0.00014863,0.0025897,0.23935
6593,6.6207,2.3636,0.1,0.00042511,4248.2,0.00042779,4332,-0.00012575,172.94,-0.00014877,0.0038356,0.23968
6594,6.6207,2.5455,0.1,0.00042468,4243.9,0.00042743,4330,-0.00012518,177.94,-0.00014887,0.0047614,0.23992
6595,6.6207,2.7273,0.1,0.00042439,4241,0.00042718,4328.7,-0.0001248,181.3,-0.00014893,0.0053769,0.24009
6596,6.6207,2.9091,0.1,0.00042425,4239.5,0.00042706,4328.1,-0.00012461,182.99,-0.00014897,0.0056843,0.24017
6597,6.6207,3.0909,0.1,0.00042425,4239.5,0.00042706,4328.1,-0.00012461,182.99,-0.00014897,0.0056842,0.24017
6598,6.6207,3.2727,0.1,0.00042439,4241,0.00042718,4328.7,-0.0001248,181.3,-0.00014893,0.0053769,0.24009
6599,6.6207,3.4545,0.1,0.00042468,4243.9,0.00042743,4330,-0.00012518,177.94,-0.00014887,0.0047617,0.23992
6600,6.6207,3.6364,0.1,0.00042511,4248.2,0.00042779,4332,-0.00012575,172.94,-0.00014877,0.0038359,0.23968
6601,6.6207,3.8182,0.1,0.00042568,4253.8,0.00042826,4334.6,-0.00012649,166.34,-0.00014863,0.0025899,0.23935
6602,6.6207,4,0.1,0.00042638,4260.8,0.00042885,4337.7,-0.00012741,158.21,-0.00014847,0.0010125,0.23893
6603,6.6207,4.1818,0.1,0.0004272,4269.1,0.00042954,4341.5,-0.00012849,148.62,-0.00014827,-0.00091663,0.23843
6604,6.6207,4.3636,0.1,0.00042815,4278.5,0.00043032,4345.7,-0.00012973,137.65,-0.00014805,-0.0032324,0.23785
6605,6.6207,4.5455,0.1,0.0004292,4289.1,0.0004312,4350.4,-0.00013111,125.41,-0.0001478,-0.0060111,0.23718
6606,6.6207,4.7273,0.1,0.00043036,4300.6,0.00043215,4355.5,-0.00013262,112,-0.00014753,-0.0093086,0.23642
6607,6.6207,4.9091,0.1,0.0004316,4313.1,0.00043318,4361,-0.00013425,97.528,-0.00014723,-0.013524,0.23558
6608,6.6207,5.0909,0.1,0.00043293,4326.3,0.00043427,4366.8,-0.00013599,82.122,-0.00014692,-0.018238,0.23465
6609,6.6207,5.2727,0.1,0.00043433,4340.3,0.00043541,4372.9,-0.00013781,65.905,-0.00014658,-0.027588,0.23363
6610,6.6207,5.4545,0.1,0.00043579,4354.9,0.0004366,4379.2,-0.00013971,49.011,-0.00014623,-0.029985,0.23251
6611,6.6207,5.6364,0.1,0.0004373,4369.9,0.00043782,4385.6,-0.00014167,31.513,-0.00014587,-0.10216,0.23131
6612,6.6207,5.8182,0.1,0.00043889,4385.9,0.00043911,4392.4,-0.00014372,13.298,-0.0001455,-0.11501,0.23001
6613,6.8046,0.18182,0.1,0.00043318,4328.8,0.00043337,4334.5,-0.00014198,11.572,-0.00014353,-0.11004,0.24272
6614,6.8046,0.36364,0.1,0.0004317,4314,0.00043217,4328.1,-0.00014008,28.389,-0.00014387,-0.09286,0.24401
6615,6.8046,0.54545,0.1,0.0004303,4300.1,0.00043104,4322.1,-0.00013828,44.479,-0.0001442,-0.027087,0.24521
6616,6.8046,0.72727,0.1,0.00042896,4286.6,0.00042995,4316.3,-0.00013653,60.002,-0.00014452,-0.025084,0.24632
6617,6.8046,0.90909,0.1,0.00042767,4273.7,0.00042889,4310.7,-0.00013486,74.896,-0.00014483,-0.01667,0.24734
6618,6.8046,1.0909,0.1,0.00042644,4261.5,0.00042789,4305.3,-0.00013326,89.039,-0.00014511,-0.012456,0.24827
6619,6.8046,1.2727,0.1,0.00042529,4250,0.00042694,4300.2,-0.00013177,102.32,-0.00014538,-0.0086744,0.24911
6620,6.8046,1.4545,0.1,0.00042423,4239.3,0.00042606,4295.5,-0.00013038,114.62,-0.00014563,-0.0057144,0.24986
6621,6.8046,1.6364,0.1,0.00042325,4229.6,0.00042525,4291.1,-0.00012911,125.85,-0.00014586,-0.0032157,0.25053
6622,6.8046,1.8182,0.1,0.00042238,4220.9,0.00042453,4287.2,-0.00012798,135.9,-0.00014606,-0.0011315,0.25111
6623,6.8046,2,0.1,0.00042162,4213.3,0.0004239,4283.8,-0.00012698,144.69,-0.00014624,0.00060645,0.25161
6624,6.8046,2.1818,0.1,0.00042098,4206.9,0.00042336,4280.9,-0.00012614,152.13,-0.00014639,0.0020291,0.25202
6625,6.8046,2.3636,0.1,0.00042046,4201.7,0.00042292,4278.5,-0.00012546,158.18,-0.00014651,0.0031532,0.25235
6626,6.8046,2.5455,0.1,0.00042006,4197.7,0.00042259,4276.7,-0.00012494,162.76,-0.0001466,0.003989,0.2526
6627,6.8046,2.7273,0.1,0.00041979,4195,0.00042237,4275.5,-0.00012459,165.83,-0.00014666,0.0045449,0.25276
6628,6.8046,2.9091,0.1,0.00041966,4193.7,0.00042226,4274.9,-0.00012442,167.38,-0.0001467,0.0048225,0.25285
6629,6.8046,3.0909,0.1,0.00041966,4193.7,0.00042226,4274.9,-0.00012442,167.38,-0.0001467,0.0048225,0.25285
6630,6.8046,3.2727,0.1,0.00041979,4195,0.00042237,4275.5,-0.00012459,165.83,-0.00014666,0.004545,0.25276
6631,6.8046,3.4545,0.1,0.00042006,4197.7,0.00042259,4276.7,-0.00012494,162.76,-0.0001466,0.0039892,0.2526
6632,6.8046,3.6364,0.1,0.00042046,4201.7,0.00042292,4278.5,-0.00012546,158.18,-0.00014651,0.0031536,0.25235
6633,6.8046,3.8182,0.1,0.00042098,4206.9,0.00042336,4280.9,-0.00012614,152.13,-0.00014639,0.0020292,0.25202
6634,6.8046,4,0.1,0.00042162,4213.3,0.0004239,4283.8,-0.00012698,144.69,-0.00014624,0.00060699,0.25161
6635,6.8046,4.1818,0.1,0.00042238,4220.9,0.00042453,4287.2,-0.00012798,135.9,-0.00014606,-0.0011311,0.25111
6636,6.8046,4.3636,0.1,0.00042325,4229.6,0.00042525,4291.1,-0.00012911,125.85,-0.00014586,-0.0032152,0.25053
6637,6.8046,4.5455,0.1,0.00042423,4239.3,0.00042606,4295.5,-0.00013038,114.62,-0.00014563,-0.0057134,0.24986
6638,6.8046,4.7273,0.1,0.00042529,4250,0.00042694,4300.2,-0.00013177,102.32,-0.00014538,-0.0086737,0.24911
6639,6.8046,4.9091,0.1,0.00042644,4261.5,0.00042789,4305.3,-0.00013326,89.039,-0.00014511,-0.012456,0.24827
6640,6.8046,5.0909,0.1,0.00042767,4273.7,0.00042889,4310.7,-0.00013486,74.896,-0.00014483,-0.016669,0.24734
6641,6.8046,5.2727,0.1,0.00042896,4286.6,0.00042995,4316.3,-0.00013653,60.002,-0.00014452,-0.025083,0.24632
6642,6.8046,5.4545,0.1,0.0004303,4300.1,0.00043104,4322.1,-0.00013828,44.479,-0.0001442,-0.027086,0.24521
6643,6.8046,5.6364,0.1,0.0004317,4314,0.00043217,4328.1,-0.00014008,28.389,-0.00014387,-0.092858,0.24401
6644,6.8046,5.8182,0.1,0.00043318,4328.8,0.00043337,4334.5,-0.00014198,11.572,-0.00014353,-0.11004,0.24272
6645,6.9885,0.18182,0.1,0.00042751,4272.1,0.00042768,4277,-0.00014024,9.931,-0.00014158,-0.10686,0.25573
6646,6.9885,0.36364,0.1,0.00042613,4258.3,0.00042655,4271,-0.00013849,25.455,-0.00014189,-0.084302,0.25701
6647,6.9885,0.54545,0.1,0.00042484,4245.5,0.00042551,4265.4,-0.00013683,40.241,-0.00014219,-0.024437,0.2582
6648,6.9885,0.72727,0.1,0.0004236,4233.1,0.0004245,4260,-0.00013522,54.497,-0.00014248,-0.02279,0.2593
6649,6.9885,0.90909,0.1,0.00042241,4221.2,0.00042353,4254.8,-0.00013368,68.169,-0.00014276,-0.01524,0.26032
6650,6.9885,1.0909,0.1,0.00042128,4209.9,0.0004226,4249.8,-0.00013222,81.146,-0.00014302,-0.011487,0.26124
6651,6.9885,1.2727,0.1,0.00042022,4199.3,0.00042173,4245.1,-0.00013085,93.325,-0.00014327,-0.0081036,0.26208
6652,6.9885,1.4545,0.1,0.00041923,4189.4,0.00042091,4240.8,-0.00012957,104.61,-0.0001435,-0.005454,0.26283
6653,6.9885,1.6364,0.1,0.00041834,4180.5,0.00042017,4236.7,-0.00012841,114.89,-0.0001437,-0.0032138,0.26349
6654,6.9885,1.8182,0.1,0.00041754,4172.5,0.00041951,4233.1,-0.00012737,124.1,-0.00014389,-0.0013426,0.26407
6655,6.9885,2,0.1,0.00041683,4165.5,0.00041893,4230,-0.00012646,132.15,-0.00014405,0.00021958,0.26457
6656,6.9885,2.1818,0.1,0.00041624,4159.5,0.00041843,4227.3,-0.00012569,138.98,-0.00014419,0.0014997,0.26498
6657,6.9885,2.3636,0.1,0.00041576,4154.7,0.00041803,4225.1,-0.00012506,144.51,-0.0001443,0.0025123,0.26531
6658,6.9885,2.5455,0.1,0.00041539,4151.1,0.00041772,4223.4,-0.00012459,148.7,-0.00014438,0.003265,0.26556
6659,6.9885,2.7273,0.1,0.00041515,4148.6,0.00041752,4222.3,-0.00012427,151.52,-0.00014444,0.0037663,0.26572
6660,6.9885,2.9091,0.1,0.00041503,4147.4,0.00041742,4221.8,-0.00012411,152.93,-0.00014446,0.0040166,0.2658
6661,6.9885,3.0909,0.1,0.00041503,4147.4,0.00041742,4221.8,-0.00012411,152.93,-0.00014446,0.0040166,0.2658
6662,6.9885,3.2727,0.1,0.00041515,4148.6,0.00041752,4222.3,-0.00012427,151.52,-0.00014444,0.0037662,0.26572
6663,6.9885,3.4545,0.1,0.00041539,4151.1,0.00041772,4223.4,-0.00012459,148.7,-0.00014438,0.0032654,0.26556
6664,6.9885,3.6364,0.1,0.00041576,4154.7,0.00041803,4225.1,-0.00012506,144.51,-0.0001443,0.0025125,0.26531
6665,6.9885,3.8182,0.1,0.00041624,4159.5,0.00041843,4227.3,-0.00012569,138.98,-0.00014419,0.0015001,0.26498
6666,6.9885,4,0.1,0.00041683,4165.5,0.00041893,4230,-0.00012646,132.15,-0.00014405,0.00021999,0.26457
6667,6.9885,4.1818,0.1,0.00041754,4172.5,0.00041951,4233.1,-0.00012737,124.1,-0.00014389,-0.0013419,0.26407
6668,6.9885,4.3636,0.1,0.00041834,4180.5,0.00042017,4236.7,-0.00012841,114.89,-0.0001437,-0.0032134,0.26349
6669,6.9885,4.5455,0.1,0.00041923,4189.4,0.00042091,4240.8,-0.00012957,104.61,-0.0001435,-0.0054534,0.26283
6670,6.9885,4.7273,0.1,0.00042022,4199.3,0.00042173,4245.1,-0.00013085,93.325,-0.00014327,-0.0081029,0.26208
6671,6.9885,4.9091,0.1,0.00042128,4209.9,0.0004226,4249.8,-0.00013222,81.146,-0.00014302,-0.011486,0.26124
6672,6.9885,5.0909,0.1,0.00042241,4221.2,0.00042353,4254.8,-0.00013368,68.169,-0.00014276,-0.015238,0.26032
6673,6.9885,5.2727,0.1,0.0004236,4233.1,0.0004245,4260,-0.00013522,54.497,-0.00014248,-0.022789,0.2593
6674,6.9885,5.4545,0.1,0.00042484,4245.5,0.00042551,4265.4,-0.00013683,40.241,-0.00014219,-0.024437,0.2582
6675,6.9885,5.6364,0.1,0.00042613,4258.3,0.00042655,4271,-0.00013849,25.455,-0.00014189,-0.0843,0.25701
6676,6.9885,5.8182,0.1,0.00042751,4272.1,0.00042768,4277,-0.00014024,9.931,-0.00014158,-0.10686,0.25573
6677,7.1724,0.18182,0.1,0.00042187,4215.8,0.00042201,4220,-0.00013851,8.3733,-0.00013964,-0.10571,0.26902
6678,7.1724,0.36364,0.1,0.00042059,4203,0.00042097,4214.2,-0.00013689,22.701,-0.00013992,-0.076422,0.2703
6679,7.1724,0.54545,0.1,0.0004194,4191.1,0.00042,4209.1,-0.00013536,36.28,-0.0001402,-0.022014,0.27148
6680,7.1724,0.72727,0.1,0.00041825,4179.6,0.00041907,4204.1,-0.00013389,49.363,-0.00014046,-0.020689,0.27258
6681,7.1724,0.90909,0.1,0.00041715,4168.6,0.00041817,4199.2,-0.00013248,61.904,-0.00014072,-0.013935,0.27358
6682,7.1724,1.0909,0.1,0.00041611,4158.2,0.00041732,4194.6,-0.00013113,73.804,-0.00014096,-0.010606,0.2745
6683,7.1724,1.2727,0.1,0.00041513,4148.5,0.00041651,4190.3,-0.00012987,84.968,-0.00014118,-0.0075911,0.27534
6684,7.1724,1.4545,0.1,0.00041423,4139.4,0.00041577,4186.2,-0.0001287,95.306,-0.00014139,-0.0052273,0.27608
6685,7.1724,1.6364,0.1,0.0004134,4131.2,0.00041508,4182.5,-0.00012764,104.73,-0.00014158,-0.0032248,0.27674
6686,7.1724,1.8182,0.1,0.00041266,4123.8,0.00041447,4179.2,-0.00012668,113.17,-0.00014175,-0.0015495,0.27732
6687,7.1724,2,0.1,0.00041202,4117.3,0.00041394,4176.3,-0.00012585,120.54,-0.00014189,-0.00014884,0.27782
6688,7.1724,2.1818,0.1,0.00041147,4111.9,0.00041348,4173.8,-0.00012514,126.78,-0.00014202,0.0010001,0.27823
6689,7.1724,2.3636,0.1,0.00041103,4107.4,0.00041311,4171.8,-0.00012457,131.85,-0.00014212,0.0019097,0.27855
6690,7.1724,2.5455,0.1,0.00041069,4104.1,0.00041283,4170.2,-0.00012414,135.69,-0.00014219,0.0025867,0.2788
6691,7.1724,2.7273,0.1,0.00041047,4101.8,0.00041264,4169.2,-0.00012384,138.26,-0.00014224,0.0030377,0.27896
6692,7.1724,2.9091,0.1,0.00041035,4100.7,0.00041255,4168.7,-0.0001237,139.56,-0.00014227,0.003263,0.27905
6693,7.1724,3.0909,0.1,0.00041035,4100.7,0.00041255,4168.7,-0.0001237,139.56,-0.00014227,0.003263,0.27905
6694,7.1724,3.2727,0.1,0.00041047,4101.8,0.00041264,4169.2,-0.00012384,138.26,-0.00014224,0.0030375,0.27896
6695,7.1724,3.4545,0.1,0.00041069,4104.1,0.00041283,4170.2,-0.00012414,135.69,-0.00014219,0.0025869,0.2788
6696,7.1724,3.6364,0.1,0.00041103,4107.4,0.00041311,4171.8,-0.00012457,131.85,-0.00014212,0.0019102,0.27855
6697,7.1724,3.8182,0.1,0.00041147,4111.9,0.00041348,4173.8,-0.00012514,126.78,-0.00014202,0.0010003,0.27823
6698,7.1724,4,0.1,0.00041202,4117.3,0.00041394,4176.3,-0.00012585,120.54,-0.00014189,-0.00014867,0.27782
6699,7.1724,4.1818,0.1,0.00041266,4123.8,0.00041447,4179.2,-0.00012668,113.17,-0.00014175,-0.0015488,0.27732
6700,7.1724,4.3636,0.1,0.0004134,4131.2,0.00041508,4182.5,-0.00012764,104.73,-0.00014158,-0.0032244,0.27674
6701,7.1724,4.5455,0.1,0.00041423,4139.4,0.00041577,4186.2,-0.0001287,95.306,-0.00014139,-0.0052268,0.27608
6702,7.1724,4.7273,0.1,0.00041513,4148.5,0.00041651,4190.3,-0.00012987,84.968,-0.00014118,-0.0075901,0.27534
6703,7.1724,4.9091,0.1,0.00041611,4158.2,0.00041732,4194.6,-0.00013113,73.804,-0.00014096,-0.010605,0.2745
6704,7.1724,5.0909,0.1,0.00041715,4168.6,0.00041817,4199.2,-0.00013248,61.904,-0.00014072,-0.013933,0.27358
6705,7.1724,5.2727,0.1,0.00041825,4179.6,0.00041907,4204.1,-0.00013389,49.363,-0.00014046,-0.020687,0.27258
6706,7.1724,5.4545,0.1,0.0004194,4191.1,0.00042,4209.1,-0.00013536,36.28,-0.0001402,-0.022014,0.27148
6707,7.1724,5.6364,0.1,0.00042059,4203,0.00042097,4214.2,-0.00013689,22.701,-0.00013992,-0.076421,0.2703
6708,7.1724,5.8182,0.1,0.00042187,4215.8,0.00042201,4220,-0.00013851,8.3733,-0.00013964,-0.10571,0.26902
6709,7.3563,0.18182,0.1,0.00041627,4159.9,0.00041639,4163.3,-0.00013679,6.8977,-0.00013772,-0.10711,0.2826
6710,7.3563,0.36364,0.1,0.00041507,4147.9,0.00041541,4157.8,-0.00013529,20.117,-0.00013797,-0.069161,0.28387
6711,7.3563,0.54545,0.1,0.00041397,4136.9,0.00041452,4153.1,-0.00013388,32.577,-0.00013822,-0.019795,0.28504
6712,7.3563,0.72727,0.1,0.00041292,4126.3,0.00041366,4148.4,-0.00013253,44.573,-0.00013847,-0.018762,0.28613
6713,7.3563,0.90909,0.1,0.0004119,4116.2,0.00041283,4143.9,-0.00013123,56.069,-0.0001387,-0.012745,0.28713
6714,7.3563,1.0909,0.1,0.00041094,4106.6,0.00041204,4139.7,-0.00013,66.973,-0.00013892,-0.009807,0.28805
6715,7.3563,1.2727,0.1,0.00041004,4097.6,0.0004113,4135.6,-0.00012884,77.2,-0.00013912,-0.0071315,0.28887
6716,7.3563,1.4545,0.1,0.00040921,4089.3,0.00041061,4131.9,-0.00012777,86.668,-0.00013931,-0.0050315,0.28962
6717,7.3563,1.6364,0.1,0.00040845,4081.7,0.00040998,4128.5,-0.0001268,95.298,-0.00013948,-0.0032477,0.29028
6718,7.3563,1.8182,0.1,0.00040777,4074.9,0.00040942,4125.4,-0.00012592,103.02,-0.00013963,-0.0017525,0.29085
6719,7.3563,2,0.1,0.00040717,4068.9,0.00040893,4122.7,-0.00012516,109.77,-0.00013977,-0.00050018,0.29134
6720,7.3563,2.1818,0.1,0.00040667,4063.9,0.00040851,4120.4,-0.00012451,115.48,-0.00013988,0.00052853,0.29175
6721,7.3563,2.3636,0.1,0.00040626,4059.8,0.00040817,4118.5,-0.00012399,120.11,-0.00013997,0.001344,0.29208
6722,7.3563,2.5455,0.1,0.00040595,4056.7,0.00040792,4117.1,-0.00012359,123.63,-0.00014004,0.0019513,0.29232
6723,7.3563,2.7273,0.1,0.00040575,4054.7,0.00040774,4116.2,-0.00012332,125.98,-0.00014009,0.0023559,0.29249
6724,7.3563,2.9091,0.1,0.00040564,4053.6,0.00040766,4115.7,-0.00012319,127.17,-0.00014011,0.0025582,0.29257
6725,7.3563,3.0909,0.1,0.00040564,4053.6,0.00040766,4115.7,-0.00012319,127.17,-0.00014011,0.0025585,0.29257
6726,7.3563,3.2727,0.1,0.00040575,4054.7,0.00040774,4116.2,-0.00012332,125.98,-0.00014009,0.002356,0.29249
6727,7.3563,3.4545,0.1,0.00040595,4056.7,0.00040792,4117.1,-0.00012359,123.63,-0.00014004,0.0019514,0.29232
6728,7.3563,3.6364,0.1,0.00040626,4059.8,0.00040817,4118.5,-0.00012399,120.11,-0.00013997,0.0013443,0.29208
6729,7.3563,3.8182,0.1,0.00040667,4063.9,0.00040851,4120.4,-0.00012451,115.48,-0.00013988,0.00052888,0.29175
6730,7.3563,4,0.1,0.00040717,4068.9,0.00040893,4122.7,-0.00012516,109.77,-0.00013977,-0.0005,0.29134
6731,7.3563,4.1818,0.1,0.00040777,4074.9,0.00040942,4125.4,-0.00012592,103.02,-0.00013963,-0.0017519,0.29085
6732,7.3563,4.3636,0.1,0.00040845,4081.7,0.00040998,4128.5,-0.0001268,95.298,-0.00013948,-0.0032472,0.29028
6733,7.3563,4.5455,0.1,0.00040921,4089.2,0.00041061,4131.9,-0.00012777,86.668,-0.00013931,-0.0050308,0.28962
6734,7.3563,4.7273,0.1,0.00041004,4097.6,0.0004113,4135.6,-0.00012884,77.2,-0.00013912,-0.0071309,0.28887
6735,7.3563,4.9091,0.1,0.00041094,4106.6,0.00041204,4139.7,-0.00013,66.973,-0.00013892,-0.0098065,0.28805
6736,7.3563,5.0909,0.1,0.0004119,4116.2,0.00041283,4143.9,-0.00013123,56.069,-0.0001387,-0.012743,0.28713
6737,7.3563,5.2727,0.1,0.00041292,4126.3,0.00041366,4148.4,-0.00013253,44.573,-0.00013847,-0.018761,0.28613
6738,7.3563,5.4545,0.1,0.00041397,4136.9,0.00041452,4153.1,-0.00013388,32.577,-0.00013822,-0.019795,0.28504
6739,7.3563,5.6364,0.1,0.00041507,4147.9,0.00041541,4157.8,-0.00013529,20.117,-0.00013797,-0.069159,0.28387
6740,7.3563,5.8182,0.1,0.00041627,4159.9,0.00041639,4163.3,-0.00013679,6.8977,-0.00013772,-0.10711,0.2826
6741,7.5402,0.18182,0.1,0.0004107,4104.2,0.0004108,4106.9,-0.00013507,5.5032,-0.00013581,-0.11211,0.29646
6742,7.5402,0.36364,0.1,0.00040958,4093,0.00040988,4101.8,-0.00013368,17.693,-0.00013604,-0.062462,0.29772
6743,7.5402,0.54545,0.1,0.00040857,4082.9,0.00040906,4097.3,-0.00013239,29.115,-0.00013627,-0.017761,0.29888
6744,7.5402,0.72727,0.1,0.00040759,4073.1,0.00040826,4093,-0.00013115,40.104,-0.00013649,-0.016995,0.29997
6745,7.5402,0.90909,0.1,0.00040666,4063.8,0.0004075,4088.9,-0.00012996,50.631,-0.0001367,-0.011659,0.30096
6746,7.5402,1.0909,0.1,0.00040578,4055,0.00040677,4084.9,-0.00012883,60.614,-0.0001369,-0.0090835,0.30187
6747,7.5402,1.2727,0.1,0.00040495,4046.7,0.00040609,4081.2,-0.00012777,69.975,-0.00013708,-0.0067209,0.30269
6748,7.5402,1.4545,0.1,0.00040418,4039,0.00040546,4077.7,-0.00012679,78.639,-0.00013726,-0.0048636,0.30343
6749,7.5402,1.6364,0.1,0.00040348,4032,0.00040488,4074.6,-0.00012589,86.536,-0.00013741,-0.0032811,0.30408
6750,7.5402,1.8182,0.1,0.00040285,4025.8,0.00040436,4071.7,-0.00012509,93.599,-0.00013755,-0.0019516,0.30466
6751,7.5402,2,0.1,0.00040231,4020.3,0.00040391,4069.3,-0.00012439,99.77,-0.00013767,-0.00083579,0.30514
6752,7.5402,2.1818,0.1,0.00040184,4015.7,0.00040353,4067.1,-0.0001238,105,-0.00013778,8.2962e-05,0.30555
6753,7.5402,2.3636,0.1,0.00040147,4011.9,0.00040322,4065.4,-0.00012332,109.23,-0.00013786,0.00081179,0.30588
6754,7.5402,2.5455,0.1,0.00040119,4009.1,0.00040298,4064.1,-0.00012296,112.44,-0.00013792,0.0013554,0.30612
6755,7.5402,2.7273,0.1,0.00040099,4007.2,0.00040282,4063.2,-0.00012271,114.6,-0.00013796,0.0017181,0.30628
6756,7.5402,2.9091,0.1,0.0004009,4006.2,0.00040274,4062.8,-0.00012259,115.68,-0.00013799,0.0018996,0.30636
6757,7.5402,3.0909,0.1,0.0004009,4006.2,0.00040274,4062.8,-0.00012259,115.68,-0.00013799,0.0018996,0.30636
6758,7.5402,3.2727,0.1,0.00040099,4007.2,0.00040282,4063.2,-0.00012271,114.6,-0.00013796,0.0017182,0.30628
6759,7.5402,3.4545,0.1,0.00040119,4009.1,0.00040298,4064.1,-0.00012296,112.44,-0.00013792,0.0013554,0.30612
6760,7.5402,3.6364,0.1,0.00040147,4011.9,0.00040322,4065.4,-0.00012332,109.23,-0.00013786,0.00081239,0.30588
6761,7.5402,3.8182,0.1,0.00040184,4015.7,0.00040353,4067.1,-0.0001238,105,-0.00013778,8.2961e-05,0.30555
6762,7.5402,4,0.1,0.00040231,4020.3,0.00040391,4069.3,-0.00012439,99.77,-0.00013767,-0.00083519,0.30514
6763,7.5402,4.1818,0.1,0.00040285,4025.8,0.00040436,4071.7,-0.00012509,93.599,-0.00013755,-0.0019512,0.30466
6764,7.5402,4.3636,0.1,0.00040348,4032,0.00040488,4074.6,-0.00012589,86.536,-0.00013741,-0.0032803,0.30408
6765,7.5402,4.5455,0.1,0.00040418,4039,0.00040546,4077.7,-0.00012679,78.639,-0.00013726,-0.0048628,0.30343
6766,7.5402,4.7273,0.1,0.00040495,4046.7,0.00040609,4081.2,-0.00012777,69.975,-0.00013708,-0.0067199,0.30269
6767,7.5402,4.9091,0.1,0.00040578,4055,0.00040677,4084.9,-0.00012883,60.614,-0.0001369,-0.0090825,0.30187
6768,7.5402,5.0909,0.1,0.00040666,4063.8,0.0004075,4088.9,-0.00012996,50.631,-0.0001367,-0.011658,0.30096
6769,7.5402,5.2727,0.1,0.00040759,4073.1,0.00040826,4093,-0.00013115,40.104,-0.00013649,-0.016994,0.29997
6770,7.5402,5.4545,0.1,0.00040857,4082.9,0.00040906,4097.3,-0.00013239,29.115,-0.00013627,-0.01776,0.29888
6771,7.5402,5.6364,0.1,0.00040958,4093,0.00040988,4101.8,-0.00013368,17.693,-0.00013604,-0.062461,0.29772
6772,7.5402,5.8182,0.1,0.0004107,4104.2,0.0004108,4106.9,-0.00013507,5.5032,-0.00013581,-0.11211,0.29646
6773,7.7241,0.18182,0.1,0.00040517,4048.9,0.00040524,4050.9,-0.00013335,4.1892,-0.00013392,-0.12301,0.3106
6774,7.7241,0.36364,0.1,0.00040412,4038.4,0.00040438,4046.1,-0.00013207,15.419,-0.00013413,-0.056275,0.31185
6775,7.7241,0.54545,0.1,0.00040318,4029.1,0.00040362,4041.9,-0.00013089,25.876,-0.00013433,-0.015896,0.313
6776,7.7241,0.72727,0.1,0.00040229,4020.1,0.00040288,4037.9,-0.00012975,35.931,-0.00013453,-0.015375,0.31408
6777,7.7241,0.90909,0.1,0.00040143,4011.5,0.00040218,4034.1,-0.00012866,45.561,-0.00013472,-0.010671,0.31506
6778,7.7241,1.0909,0.1,0.00040061,4003.4,0.00040151,4030.4,-0.00012762,54.691,-0.0001349,-0.008429,0.31596
6779,7.7241,1.2727,0.1,0.00039985,3995.7,0.00040089,4027,-0.00012665,63.251,-0.00013507,-0.0063552,0.31678
6780,7.7241,1.4545,0.1,0.00039914,3988.7,0.00040031,4023.8,-0.00012575,71.172,-0.00013523,-0.0047219,0.31752
6781,7.7241,1.6364,0.1,0.0003985,3982.2,0.00039977,4020.9,-0.00012494,78.39,-0.00013537,-0.0033242,0.31817
6782,7.7241,1.8182,0.1,0.00039792,3976.5,0.0003993,4018.2,-0.0001242,84.847,-0.0001355,-0.0021469,0.31873
6783,7.7241,2,0.1,0.00039742,3971.5,0.00039888,4015.9,-0.00012356,90.487,-0.00013561,-0.0011563,0.31922
6784,7.7241,2.1818,0.1,0.000397,3967.2,0.00039853,4014,-0.00012302,95.264,-0.0001357,-0.00033874,0.31962
6785,7.7241,2.3636,0.1,0.00039665,3963.8,0.00039824,4012.4,-0.00012258,99.136,-0.00013577,0.00031151,0.31995
6786,7.7241,2.5455,0.1,0.00039639,3961.2,0.00039803,4011.2,-0.00012225,102.07,-0.00013583,0.00079658,0.32019
6787,7.7241,2.7273,0.1,0.00039621,3959.4,0.00039788,4010.4,-0.00012202,104.04,-0.00013587,0.0011204,0.32035
6788,7.7241,2.9091,0.1,0.00039613,3958.5,0.00039781,4010,-0.00012191,105.03,-0.00013589,0.001283,0.32043
6789,7.7241,3.0909,0.1,0.00039613,3958.5,0.00039781,4010,-0.00012191,105.03,-0.00013589,0.0012828,0.32043
6790,7.7241,3.2727,0.1,0.00039621,3959.4,0.00039788,4010.4,-0.00012202,104.04,-0.00013587,0.0011207,0.32035
6791,7.7241,3.4545,0.1,0.00039639,3961.2,0.00039803,4011.2,-0.00012225,102.07,-0.00013583,0.0007967,0.32019
6792,7.7241,3.6364,0.1,0.00039665,3963.8,0.00039824,4012.4,-0.00012258,99.136,-0.00013577,0.00031181,0.31995
6793,7.7241,3.8182,0.1,0.000397,3967.2,0.00039853,4014,-0.00012302,95.264,-0.0001357,-0.00033832,0.31962
6794,7.7241,4,0.1,0.00039742,3971.5,0.00039888,4015.9,-0.00012356,90.487,-0.00013561,-0.0011558,0.31922
6795,7.7241,4.1818,0.1,0.00039792,3976.5,0.0003993,4018.2,-0.0001242,84.847,-0.0001355,-0.0021466,0.31873
6796,7.7241,4.3636,0.1,0.0003985,3982.2,0.00039977,4020.9,-0.00012494,78.39,-0.00013537,-0.0033236,0.31817
6797,7.7241,4.5455,0.1,0.00039914,3988.7,0.0004003,4023.8,-0.00012575,71.172,-0.00013523,-0.0047211,0.31752
6798,7.7241,4.7273,0.1,0.00039985,3995.7,0.00040089,4027,-0.00012665,63.251,-0.00013507,-0.0063546,0.31678
6799,7.7241,4.9091,0.1,0.00040061,4003.4,0.00040151,4030.4,-0.00012762,54.691,-0.0001349,-0.0084283,0.31596
6800,7.7241,5.0909,0.1,0.00040143,4011.5,0.00040218,4034.1,-0.00012866,45.561,-0.00013472,-0.01067,0.31506
6801,7.7241,5.2727,0.1,0.00040229,4020.1,0.00040288,4037.9,-0.00012975,35.931,-0.00013453,-0.015375,0.31408
6802,7.7241,5.4545,0.1,0.00040318,4029.1,0.00040362,4041.9,-0.00013089,25.876,-0.00013433,-0.015895,0.313
6803,7.7241,5.6364,0.1,0.00040412,4038.4,0.00040438,4046.1,-0.00013207,15.419,-0.00013413,-0.056274,0.31185
6804,7.7241,5.8182,0.1,0.00040517,4048.9,0.00040524,4050.9,-0.00013335,4.1892,-0.00013392,-0.12301,0.3106
6805,7.908,0.18182,0.1,0.00039966,3993.8,0.00039971,3995.2,-0.00013163,2.9584,-0.00013205,-0.14547,0.32501
6806,7.908,0.36364,0.1,0.00039868,3984.1,0.0003989,3990.7,-0.00013045,13.285,-0.00013223,-0.050554,0.32625
6807,7.908,0.54545,0.1,0.00039782,3975.4,0.0003982,3986.8,-0.00012937,22.846,-0.00013241,-0.014183,0.3274
6808,7.908,0.72727,0.1,0.00039699,3967.2,0.00039753,3983.1,-0.00012833,32.033,-0.00013259,-0.013891,0.32846
6809,7.908,0.90909,0.1,0.0003962,3959.3,0.00039688,3979.5,-0.00012733,40.83,-0.00013276,-0.0097727,0.32944
6810,7.908,1.0909,0.1,0.00039545,3951.8,0.00039626,3976.1,-0.00012638,49.169,-0.00013293,-0.0078388,0.33033
6811,7.908,1.2727,0.1,0.00039475,3944.8,0.00039569,3972.9,-0.00012549,56.987,-0.00013308,-0.006032,0.33114
6812,7.908,1.4545,0.1,0.0003941,3938.3,0.00039515,3970,-0.00012467,64.22,-0.00013322,-0.0046047,0.33187
6813,7.908,1.6364,0.1,0.00039351,3932.4,0.00039467,3967.3,-0.00012392,70.812,-0.00013335,-0.0033772,0.33252
6814,7.908,1.8182,0.1,0.00039298,3927.1,0.00039423,3964.9,-0.00012326,76.708,-0.00013346,-0.0023397,0.33308
6815,7.908,2,0.1,0.00039252,3922.5,0.00039385,3962.8,-0.00012267,81.859,-0.00013356,-0.0014633,0.33357
6816,7.908,2.1818,0.1,0.00039213,3918.6,0.00039352,3961,-0.00012217,86.221,-0.00013365,-0.00073797,0.33397
6817,7.908,2.3636,0.1,0.00039181,3915.4,0.00039326,3959.5,-0.00012177,89.757,-0.00013372,-0.00016,0.33429
6818,7.908,2.5455,0.1,0.00039157,3913,0.00039306,3958.4,-0.00012147,92.436,-0.00013377,0.00027172,0.33453
6819,7.908,2.7273,0.1,0.00039141,3911.4,0.00039293,3957.7,-0.00012126,94.236,-0.0001338,0.00056077,0.33469
6820,7.908,2.9091,0.1,0.00039133,3910.6,0.00039286,3957.3,-0.00012116,95.139,-0.00013382,0.0007056,0.33477
6821,7.908,3.0909,0.1,0.00039133,3910.6,0.00039286,3957.3,-0.00012116,95.139,-0.00013382,0.00070566,0.33477
6822,7.908,3.2727,0.1,0.00039141,3911.4,0.00039293,3957.7,-0.00012126,94.236,-0.0001338,0.00056083,0.33469
6823,7.908,3.4545,0.1,0.00039157,3913,0.00039306,3958.4,-0.00012147,92.436,-0.00013377,0.0002719,0.33453
6824,7.908,3.6364,0.1,0.00039181,3915.4,0.00039326,3959.5,-0.00012177,89.757,-0.00013372,-0.00015989,0.33429
6825,7.908,3.8182,0.1,0.00039213,3918.6,0.00039352,3961,-0.00012217,86.221,-0.00013365,-0.00073779,0.33397
6826,7.908,4,0.1,0.00039252,3922.5,0.00039385,3962.8,-0.00012267,81.859,-0.00013356,-0.0014629,0.33357
6827,7.908,4.1818,0.1,0.00039298,3927.1,0.00039423,3964.9,-0.00012326,76.708,-0.00013346,-0.0023391,0.33308
6828,7.908,4.3636,0.1,0.00039351,3932.4,0.00039467,3967.3,-0.00012392,70.812,-0.00013335,-0.0033768,0.33252
6829,7.908,4.5455,0.1,0.0003941,3938.3,0.00039515,3970,-0.00012467,64.22,-0.00013322,-0.004604,0.33187
6830,7.908,4.7273,0.1,0.00039475,3944.8,0.00039569,3972.9,-0.00012549,56.987,-0.00013308,-0.0060311,0.33114
6831,7.908,4.9091,0.1,0.00039545,3951.8,0.00039626,3976.1,-0.00012638,49.169,-0.00013293,-0.0078382,0.33033
6832,7.908,5.0909,0.1,0.0003962,3959.3,0.00039688,3979.5,-0.00012733,40.83,-0.00013276,-0.0097713,0.32944
6833,7.908,5.2727,0.1,0.00039699,3967.2,0.00039753,3983.1,-0.00012833,32.033,-0.00013259,-0.01389,0.32846
6834,7.908,5.4545,0.1,0.00039782,3975.4,0.0003982,3986.8,-0.00012937,22.846,-0.00013241,-0.014183,0.3274
6835,7.908,5.6364,0.1,0.00039868,3984.1,0.0003989,3990.7,-0.00013045,13.285,-0.00013223,-0.050553,0.32625
6836,7.908,5.8182,0.1,0.00039966,3993.8,0.00039971,3995.2,-0.00013163,2.9584,-0.00013205,-0.14547,0.32501
6837,8.092,0.18182,0.1,0.00039418,3939.1,0.00039421,3939.9,-0.00012992,1.825,-0.00013019,-0.19682,0.33969
6838,8.092,0.36364,0.1,0.00039326,3929.9,0.00039345,3935.5,-0.00012883,11.281,-0.00013034,-0.045258,0.34092
6839,8.092,0.54545,0.1,0.00039247,3922,0.00039281,3932,-0.00012784,20.008,-0.00013051,-0.012612,0.34206
6840,8.092,0.72727,0.1,0.00039171,3914.4,0.00039218,3928.5,-0.00012689,28.388,-0.00013067,-0.012531,0.34311
6841,8.092,0.90909,0.1,0.00039098,3907.1,0.00039159,3925.2,-0.00012598,36.41,-0.00013082,-0.0089576,0.34408
6842,8.092,1.0909,0.1,0.00039029,3900.3,0.00039102,3922.1,-0.00012511,44.015,-0.00013097,-0.0073093,0.34497
6843,8.092,1.2727,0.1,0.00038965,3893.8,0.00039049,3919.1,-0.0001243,51.145,-0.00013111,-0.0057489,0.34577
6844,8.092,1.4545,0.1,0.00038905,3887.8,0.00039,3916.4,-0.00012355,57.742,-0.00013124,-0.0045109,0.3465
6845,8.092,1.6364,0.1,0.00038851,3882.4,0.00038956,3913.9,-0.00012287,63.755,-0.00013135,-0.0034398,0.34714
6846,8.092,1.8182,0.1,0.00038803,3877.6,0.00038915,3911.7,-0.00012226,69.133,-0.00013146,-0.0025301,0.3477
6847,8.092,2,0.1,0.0003876,3873.3,0.0003888,3909.7,-0.00012172,73.831,-0.00013155,-0.0017585,0.34818
6848,8.092,2.1818,0.1,0.00038724,3869.8,0.00038851,3908.1,-0.00012127,77.811,-0.00013162,-0.0011173,0.34858
6849,8.092,2.3636,0.1,0.00038695,3866.8,0.00038827,3906.7,-0.0001209,81.037,-0.00013169,-0.00060504,0.3489
6850,8.092,2.5455,0.1,0.00038673,3864.6,0.00038808,3905.7,-0.00012062,83.481,-0.00013173,-0.0002216,0.34913
6851,8.092,2.7273,0.1,0.00038658,3863.2,0.00038796,3905,-0.00012044,85.123,-0.00013177,3.5516e-05,0.34929
6852,8.092,2.9091,0.1,0.00038651,3862.4,0.0003879,3904.7,-0.00012034,85.948,-0.00013178,0.00016464,0.34937
6853,8.092,3.0909,0.1,0.00038651,3862.4,0.0003879,3904.7,-0.00012034,85.948,-0.00013178,0.00016482,0.34937
6854,8.092,3.2727,0.1,0.00038658,3863.2,0.00038796,3905,-0.00012044,85.123,-0.00013177,3.5634e-05,0.34929
6855,8.092,3.4545,0.1,0.00038673,3864.6,0.00038808,3905.7,-0.00012062,83.481,-0.00013173,-0.00022142,0.34913
6856,8.092,3.6364,0.1,0.00038695,3866.8,0.00038827,3906.7,-0.0001209,81.037,-0.00013169,-0.00060469,0.3489
6857,8.092,3.8182,0.1,0.00038724,3869.8,0.00038851,3908.1,-0.00012127,77.811,-0.00013162,-0.001117,0.34858
6858,8.092,4,0.1,0.0003876,3873.3,0.0003888,3909.7,-0.00012172,73.831,-0.00013155,-0.001758,0.34818
6859,8.092,4.1818,0.1,0.00038803,3877.6,0.00038915,3911.7,-0.00012226,69.133,-0.00013146,-0.0025296,0.3477
6860,8.092,4.3636,0.1,0.00038851,3882.4,0.00038956,3913.9,-0.00012287,63.755,-0.00013135,-0.0034394,0.34714
6861,8.092,4.5455,0.1,0.00038905,3887.8,0.00039,3916.4,-0.00012355,57.742,-0.00013124,-0.0045104,0.3465
6862,8.092,4.7273,0.1,0.00038965,3893.8,0.00039049,3919.1,-0.0001243,51.145,-0.00013111,-0.0057482,0.34577
6863,8.092,4.9091,0.1,0.00039029,3900.3,0.00039102,3922.1,-0.00012511,44.015,-0.00013097,-0.0073087,0.34497
6864,8.092,5.0909,0.1,0.00039098,3907.1,0.00039159,3925.2,-0.00012598,36.41,-0.00013082,-0.0089563,0.34408
6865,8.092,5.2727,0.1,0.00039171,3914.4,0.00039218,3928.5,-0.00012689,28.388,-0.00013067,-0.01253,0.34311
6866,8.092,5.4545,0.1,0.00039247,3922,0.00039281,3932,-0.00012784,20.008,-0.00013051,-0.012611,0.34206
6867,8.092,5.6364,0.1,0.00039326,3929.9,0.00039345,3935.5,-0.00012883,11.281,-0.00013034,-0.045256,0.34092
6868,8.092,5.8182,0.1,0.00039418,3939.1,0.00039421,3939.9,-0.00012992,1.825,-0.00013019,-0.19682,0.33969
6869,8.2759,0.18182,0.1,0.00038873,3884.6,0.00038874,3884.8,-0.00012819,0.85769,-0.00012835,-0.34913,0.35464
6870,8.2759,0.36364,0.1,0.00038787,3876,0.00038803,3880.7,-0.00012721,9.3978,-0.00012847,-0.04035,0.35585
6871,8.2759,0.54545,0.1,0.00038714,3868.7,0.00038743,3877.4,-0.00012631,17.347,-0.00012862,-0.011168,0.35698
6872,8.2759,0.72727,0.1,0.00038644,3861.8,0.00038686,3874.2,-0.00012544,24.975,-0.00012876,-0.011287,0.35803
6873,8.2759,0.90909,0.1,0.00038578,3855.1,0.00038631,3871.1,-0.00012461,32.277,-0.0001289,-0.0082219,0.35899
6874,8.2759,1.0909,0.1,0.00038514,3848.8,0.0003858,3868.2,-0.00012382,39.2,-0.00012903,-0.0068373,0.35987
6875,8.2759,1.2727,0.1,0.00038455,3842.9,0.00038531,3865.5,-0.00012308,45.69,-0.00012916,-0.0055037,0.36067
6876,8.2759,1.4545,0.1,0.00038401,3837.4,0.00038486,3863,-0.00012239,51.698,-0.00012927,-0.0044403,0.36139
6877,8.2759,1.6364,0.1,0.00038351,3832.4,0.00038445,3860.7,-0.00012177,57.174,-0.00012938,-0.0035127,0.36202
6878,8.2759,1.8182,0.1,0.00038306,3828,0.00038408,3858.6,-0.00012121,62.072,-0.00012947,-0.0027195,0.36258
6879,8.2759,2,0.1,0.00038267,3824.1,0.00038376,3856.8,-0.00012072,66.353,-0.00012955,-0.0020434,0.36305
6880,8.2759,2.1818,0.1,0.00038234,3820.8,0.00038349,3855.3,-0.00012031,69.98,-0.00012962,-0.0014789,0.36345
6881,8.2759,2.3636,0.1,0.00038208,3818.1,0.00038327,3854.1,-0.00011998,72.92,-0.00012968,-0.001026,0.36377
6882,8.2759,2.5455,0.1,0.00038188,3816.1,0.0003831,3853.1,-0.00011972,75.149,-0.00012972,-0.00068626,0.364
6883,8.2759,2.7273,0.1,0.00038174,3814.8,0.00038299,3852.5,-0.00011955,76.646,-0.00012975,-0.00045766,0.36416
6884,8.2759,2.9091,0.1,0.00038167,3814.1,0.00038293,3852.2,-0.00011946,77.398,-0.00012977,-0.00034294,0.36424
6885,8.2759,3.0909,0.1,0.00038167,3814.1,0.00038293,3852.2,-0.00011946,77.398,-0.00012977,-0.0003427,0.36424
6886,8.2759,3.2727,0.1,0.00038174,3814.8,0.00038299,3852.5,-0.00011955,76.646,-0.00012975,-0.00045766,0.36416
6887,8.2759,3.4545,0.1,0.00038188,3816.1,0.0003831,3853.1,-0.00011972,75.149,-0.00012972,-0.00068602,0.364
6888,8.2759,3.6364,0.1,0.00038208,3818.1,0.00038327,3854.1,-0.00011998,72.92,-0.00012968,-0.0010256,0.36377
6889,8.2759,3.8182,0.1,0.00038234,3820.8,0.00038349,3855.3,-0.00012031,69.98,-0.00012962,-0.0014786,0.36345
6890,8.2759,4,0.1,0.00038267,3824.1,0.00038376,3856.8,-0.00012072,66.353,-0.00012955,-0.002043,0.36305
6891,8.2759,4.1818,0.1,0.00038306,3828,0.00038408,3858.6,-0.00012121,62.072,-0.00012947,-0.0027189,0.36258
6892,8.2759,4.3636,0.1,0.00038351,3832.4,0.00038445,3860.7,-0.00012177,57.174,-0.00012938,-0.0035119,0.36202
6893,8.2759,4.5455,0.1,0.00038401,3837.4,0.00038486,3863,-0.00012239,51.698,-0.00012927,-0.0044396,0.36139
6894,8.2759,4.7273,0.1,0.00038455,3842.9,0.00038531,3865.5,-0.00012308,45.69,-0.00012916,-0.0055028,0.36067
6895,8.2759,4.9091,0.1,0.00038514,3848.8,0.0003858,3868.2,-0.00012382,39.2,-0.00012903,-0.0068366,0.35987
6896,8.2759,5.0909,0.1,0.00038578,3855.1,0.00038631,3871.1,-0.00012461,32.277,-0.0001289,-0.0082203,0.35899
6897,8.2759,5.2727,0.1,0.00038644,3861.8,0.00038686,3874.2,-0.00012544,24.975,-0.00012876,-0.011287,0.35803
6898,8.2759,5.4545,0.1,0.00038714,3868.7,0.00038743,3877.4,-0.00012631,17.347,-0.00012862,-0.011168,0.35698
6899,8.2759,5.6364,0.1,0.00038787,3876,0.00038803,3880.7,-0.00012721,9.3978,-0.00012847,-0.040348,0.35585
6900,8.2759,5.8182,0.1,0.00038873,3884.6,0.00038874,3884.8,-0.00012819,0.85769,-0.00012835,-0.34913,0.35464
6901,8.4598,0.18182,0.1,0.0003833,3830.4,0.00038329,3830.1,-0.00012642,0.29504,-0.00012657,-0.84448,0.36985
6902,8.4598,0.36364,0.1,0.0003825,3822.4,0.00038263,3826.2,-0.00012559,7.6268,-0.00012661,-0.035797,0.37105
6903,8.4598,0.54545,0.1,0.00038183,3815.7,0.00038208,3823.1,-0.00012476,14.849,-0.00012674,-0.0098447,0.37217
6904,8.4598,0.72727,0.1,0.00038119,3809.3,0.00038155,3820.1,-0.00012397,21.774,-0.00012687,-0.010153,0.37321
6905,8.4598,0.90909,0.1,0.00038058,3803.1,0.00038105,3817.3,-0.00012321,28.405,-0.000127,-0.0075608,0.37416
6906,8.4598,1.0909,0.1,0.00038,3797.4,0.00038058,3814.6,-0.0001225,34.692,-0.00012711,-0.0064201,0.37503
6907,8.4598,1.2727,0.1,0.00037946,3792,0.00038013,3812.1,-0.00012182,40.589,-0.00012723,-0.0052965,0.37582
6908,8.4598,1.4545,0.1,0.00037896,3787,0.00037972,3809.8,-0.0001212,46.049,-0.00012733,-0.0043928,0.37653
6909,8.4598,1.6364,0.1,0.0003785,3782.4,0.00037934,3807.6,-0.00012063,51.027,-0.00012742,-0.0035958,0.37716
6910,8.4598,1.8182,0.1,0.00037809,3778.3,0.00037901,3805.8,-0.00012012,55.483,-0.00012751,-0.0029091,0.37772
6911,8.4598,2,0.1,0.00037774,3774.8,0.00037871,3804.1,-0.00011968,59.378,-0.00012758,-0.0023197,0.37819
6912,8.4598,2.1818,0.1,0.00037744,3771.7,0.00037846,3802.7,-0.0001193,62.679,-0.00012765,-0.0018241,0.37858
6913,8.4598,2.3636,0.1,0.00037719,3769.3,0.00037826,3801.6,-0.000119,65.356,-0.0001277,-0.0014249,0.37889
6914,8.4598,2.5455,0.1,0.00037701,3767.5,0.00037811,3800.7,-0.00011877,67.385,-0.00012773,-0.0011242,0.37913
6915,8.4598,2.7273,0.1,0.00037688,3766.2,0.000378,3800.1,-0.00011861,68.749,-0.00012776,-0.00092176,0.37929
6916,8.4598,2.9091,0.1,0.00037682,3765.6,0.00037795,3799.8,-0.00011853,69.434,-0.00012777,-0.00081966,0.37936
6917,8.4598,3.0909,0.1,0.00037682,3765.6,0.00037795,3799.8,-0.00011853,69.434,-0.00012777,-0.00081937,0.37936
6918,8.4598,3.2727,0.1,0.00037688,3766.2,0.000378,3800.1,-0.00011861,68.749,-0.00012776,-0.00092176,0.37929
6919,8.4598,3.4545,0.1,0.00037701,3767.5,0.00037811,3800.7,-0.00011877,67.385,-0.00012773,-0.001124,0.37913
6920,8.4598,3.6364,0.1,0.00037719,3769.3,0.00037826,3801.6,-0.000119,65.356,-0.0001277,-0.0014245,0.37889
6921,8.4598,3.8182,0.1,0.00037744,3771.7,0.00037846,3802.7,-0.0001193,62.679,-0.00012765,-0.0018237,0.37858
6922,8.4598,4,0.1,0.00037774,3774.8,0.00037871,3804.1,-0.00011968,59.378,-0.00012758,-0.0023192,0.37819
6923,8.4598,4.1818,0.1,0.00037809,3778.3,0.00037901,3805.8,-0.00012012,55.483,-0.00012751,-0.0029088,0.37772
6924,8.4598,4.3636,0.1,0.0003785,3782.4,0.00037934,3807.6,-0.00012063,51.027,-0.00012742,-0.0035954,0.37716
6925,8.4598,4.5455,0.1,0.00037896,3787,0.00037972,3809.8,-0.0001212,46.049,-0.00012733,-0.004392,0.37653
6926,8.4598,4.7273,0.1,0.00037946,3792,0.00038013,3812.1,-0.00012182,40.589,-0.00012723,-0.0052956,0.37582
6927,8.4598,4.9091,0.1,0.00038,3797.4,0.00038058,3814.6,-0.0001225,34.692,-0.00012711,-0.0064197,0.37503
6928,8.4598,5.0909,0.1,0.00038058,3803.1,0.00038105,3817.3,-0.00012321,28.405,-0.000127,-0.0075595,0.37416
6929,8.4598,5.2727,0.1,0.00038119,3809.3,0.00038155,3820.1,-0.00012397,21.774,-0.00012687,-0.010152,0.37321
6930,8.4598,5.4545,0.1,0.00038183,3815.7,0.00038208,3823.1,-0.00012476,14.849,-0.00012674,-0.0098445,0.37217
6931,8.4598,5.6364,0.1,0.0003825,3822.4,0.00038263,3826.2,-0.00012559,7.6268,-0.00012661,-0.035796,0.37105
6932,8.4598,5.8182,0.1,0.0003833,3830.4,0.00038329,3830.1,-0.00012642,0.29504,-0.00012657,-0.84447,0.36985
6933,8.6437,0.18182,0.1,0.0003779,3776.4,0.00037787,3775.6,-0.00012461,0.12356,-0.00012485,-1.6729,0.38532
6934,8.6437,0.36364,0.1,0.00037715,3768.9,0.00037725,3771.9,-0.00012396,5.9588,-0.00012476,-0.031578,0.38651
6935,8.6437,0.54545,0.1,0.00037654,3762.8,0.00037675,3769,-0.00012321,12.5,-0.00012488,-0.0086331,0.38762
6936,8.6437,0.72727,0.1,0.00037595,3756.9,0.00037627,3766.2,-0.00012249,18.768,-0.00012499,-0.0091235,0.38864
6937,8.6437,0.90909,0.1,0.00037539,3751.3,0.00037581,3763.6,-0.00012181,24.77,-0.0001251,-0.0069726,0.38959
6938,8.6437,1.0909,0.1,0.00037486,3746,0.00037537,3761.2,-0.00012116,30.466,-0.00012521,-0.0060573,0.39045
6939,8.6437,1.2727,0.1,0.00037437,3741.1,0.00037496,3758.9,-0.00012054,35.81,-0.00012531,-0.005126,0.39123
6940,8.6437,1.4545,0.1,0.00037391,3736.5,0.00037459,3756.7,-0.00011998,40.76,-0.0001254,-0.0043681,0.39194
6941,8.6437,1.6364,0.1,0.00037349,3732.3,0.00037424,3754.8,-0.00011946,45.278,-0.00012549,-0.003691,0.39256
6942,8.6437,1.8182,0.1,0.00037312,3728.6,0.00037393,3753,-0.000119,49.323,-0.00012556,-0.0031004,0.39311
6943,8.6437,2,0.1,0.00037279,3725.4,0.00037367,3751.5,-0.0001186,52.861,-0.00012563,-0.0025888,0.39358
6944,8.6437,2.1818,0.1,0.00037252,3722.6,0.00037344,3750.2,-0.00011825,55.861,-0.00012569,-0.0021552,0.39397
6945,8.6437,2.3636,0.1,0.00037229,3720.4,0.00037325,3749.2,-0.00011797,58.296,-0.00012573,-0.001804,0.39428
6946,8.6437,2.5455,0.1,0.00037212,3718.7,0.00037311,3748.4,-0.00011776,60.142,-0.00012577,-0.0015384,0.39451
6947,8.6437,2.7273,0.1,0.00037201,3717.5,0.00037302,3747.9,-0.00011762,61.383,-0.00012579,-0.0013585,0.39467
6948,8.6437,2.9091,0.1,0.00037195,3717,0.00037297,3747.6,-0.00011755,62.006,-0.0001258,-0.0012677,0.39475
6949,8.6437,3.0909,0.1,0.00037195,3717,0.00037297,3747.6,-0.00011755,62.006,-0.0001258,-0.0012679,0.39475
6950,8.6437,3.2727,0.1,0.00037201,3717.5,0.00037302,3747.9,-0.00011762,61.383,-0.00012579,-0.0013585,0.39467
6951,8.6437,3.4545,0.1,0.00037212,3718.7,0.00037311,3748.4,-0.00011776,60.142,-0.00012577,-0.001538,0.39451
6952,8.6437,3.6364,0.1,0.00037229,3720.4,0.00037325,3749.2,-0.00011797,58.296,-0.00012573,-0.0018038,0.39428
6953,8.6437,3.8182,0.1,0.00037252,3722.6,0.00037344,3750.2,-0.00011825,55.861,-0.00012569,-0.0021549,0.39397
6954,8.6437,4,0.1,0.00037279,3725.4,0.00037367,3751.5,-0.0001186,52.861,-0.00012563,-0.0025884,0.39358
6955,8.6437,4.1818,0.1,0.00037312,3728.6,0.00037393,3753,-0.000119,49.323,-0.00012556,-0.0031001,0.39311
6956,8.6437,4.3636,0.1,0.00037349,3732.3,0.00037424,3754.8,-0.00011946,45.278,-0.00012549,-0.0036904,0.39256
6957,8.6437,4.5455,0.1,0.00037391,3736.5,0.00037459,3756.7,-0.00011998,40.76,-0.0001254,-0.0043677,0.39194
6958,8.6437,4.7273,0.1,0.00037437,3741.1,0.00037496,3758.9,-0.00012054,35.81,-0.00012531,-0.0051249,0.39123
6959,8.6437,4.9091,0.1,0.00037486,3746,0.00037537,3761.2,-0.00012116,30.466,-0.00012521,-0.0060567,0.39045
6960,8.6437,5.0909,0.1,0.00037539,3751.3,0.00037581,3763.6,-0.00012181,24.77,-0.0001251,-0.0069713,0.38959
6961,8.6437,5.2727,0.1,0.00037595,3756.9,0.00037627,3766.2,-0.00012249,18.768,-0.00012499,-0.0091219,0.38864
6962,8.6437,5.4545,0.1,0.00037654,3762.8,0.00037675,3769,-0.00012321,12.5,-0.00012488,-0.0086325,0.38762
6963,8.6437,5.6364,0.1,0.00037715,3768.9,0.00037725,3771.9,-0.00012396,5.9588,-0.00012476,-0.031576,0.38651
6964,8.6437,5.8182,0.1,0.0003779,3776.4,0.00037787,3775.6,-0.00012461,0.12357,-0.00012485,-1.6729,0.38532
6965,8.8276,0.18182,0.1,0.00037252,3722.7,0.00037248,3721.4,-0.0001228,0.066681,-0.00012315,-2.5614,0.40105
6966,8.8276,0.36364,0.1,0.00037182,3715.7,0.0003719,3717.8,-0.00012233,4.3848,-0.00012292,-0.027685,0.40222
6967,8.8276,0.54545,0.1,0.00037126,3710,0.00037143,3715.2,-0.00012166,10.285,-0.00012303,-0.0075275,0.40332
6968,8.8276,0.72727,0.1,0.00037073,3704.7,0.00037099,3712.6,-0.00012101,15.936,-0.00012313,-0.0081943,0.40433
6969,8.8276,0.90909,0.1,0.00037022,3699.6,0.00037057,3710.2,-0.00012039,21.351,-0.00012323,-0.006457,0.40527
6970,8.8276,1.0909,0.1,0.00036973,3694.8,0.00037018,3708,-0.0001198,26.492,-0.00012332,-0.0057483,0.40612
6971,8.8276,1.2727,0.1,0.00036928,3690.3,0.00036981,3705.8,-0.00011924,31.321,-0.00012341,-0.0049929,0.4069
6972,8.8276,1.4545,0.1,0.00036887,3686.1,0.00036946,3703.9,-0.00011873,35.798,-0.00012349,-0.0043684,0.4076
6973,8.8276,1.6364,0.1,0.00036848,3682.3,0.00036915,3702.1,-0.00011826,39.887,-0.00012357,-0.0037989,0.40822
6974,8.8276,1.8182,0.1,0.00036814,3678.9,0.00036887,3700.5,-0.00011784,43.553,-0.00012364,-0.003295,0.40876
6975,8.8276,2,0.1,0.00036785,3675.9,0.00036862,3699.1,-0.00011747,46.762,-0.0001237,-0.0028529,0.40922
6976,8.8276,2.1818,0.1,0.0003676,3673.4,0.00036841,3697.9,-0.00011716,49.484,-0.00012375,-0.0024746,0.40961
6977,8.8276,2.3636,0.1,0.00036739,3671.4,0.00036824,3697,-0.00011691,51.695,-0.00012379,-0.0021655,0.40992
6978,8.8276,2.5455,0.1,0.00036724,3669.8,0.00036812,3696.2,-0.00011672,53.373,-0.00012382,-0.0019304,0.41015
6979,8.8276,2.7273,0.1,0.00036713,3668.8,0.00036803,3695.7,-0.00011659,54.501,-0.00012384,-0.001771,0.4103
6980,8.8276,2.9091,0.1,0.00036708,3668.3,0.00036799,3695.5,-0.00011652,55.068,-0.00012385,-0.0016902,0.41038
6981,8.8276,3.0909,0.1,0.00036708,3668.3,0.00036799,3695.5,-0.00011652,55.068,-0.00012385,-0.0016901,0.41038
6982,8.8276,3.2727,0.1,0.00036713,3668.8,0.00036803,3695.7,-0.00011659,54.501,-0.00012384,-0.0017707,0.4103
6983,8.8276,3.4545,0.1,0.00036724,3669.8,0.00036812,3696.2,-0.00011672,53.373,-0.00012382,-0.0019306,0.41015
6984,8.8276,3.6364,0.1,0.00036739,3671.4,0.00036824,3697,-0.00011691,51.695,-0.00012379,-0.0021654,0.40992
6985,8.8276,3.8182,0.1,0.0003676,3673.4,0.00036841,3697.9,-0.00011716,49.484,-0.00012375,-0.0024741,0.40961
6986,8.8276,4,0.1,0.00036785,3675.9,0.00036862,3699.1,-0.00011747,46.762,-0.0001237,-0.0028524,0.40922
6987,8.8276,4.1818,0.1,0.00036814,3678.9,0.00036887,3700.5,-0.00011784,43.553,-0.00012364,-0.0032947,0.40876
6988,8.8276,4.3636,0.1,0.00036848,3682.3,0.00036915,3702.1,-0.00011826,39.887,-0.00012357,-0.0037985,0.40822
6989,8.8276,4.5455,0.1,0.00036887,3686.1,0.00036946,3703.9,-0.00011873,35.798,-0.00012349,-0.0043677,0.4076
6990,8.8276,4.7273,0.1,0.00036928,3690.3,0.00036981,3705.8,-0.00011924,31.321,-0.00012341,-0.0049923,0.4069
6991,8.8276,4.9091,0.1,0.00036973,3694.8,0.00037018,3708,-0.0001198,26.492,-0.00012332,-0.0057476,0.40612
6992,8.8276,5.0909,0.1,0.00037022,3699.6,0.00037057,3710.2,-0.00012039,21.351,-0.00012323,-0.0064555,0.40527
6993,8.8276,5.2727,0.1,0.00037073,3704.7,0.00037099,3712.6,-0.00012101,15.936,-0.00012313,-0.0081935,0.40433
6994,8.8276,5.4545,0.1,0.00037126,3710,0.00037143,3715.2,-0.00012166,10.285,-0.00012303,-0.0075274,0.40332
6995,8.8276,5.6364,0.1,0.00037182,3715.7,0.0003719,3717.8,-0.00012233,4.3848,-0.00012292,-0.027684,0.40222
6996,8.8276,5.8182,0.1,0.00037252,3722.7,0.00037248,3721.4,-0.0001228,0.066682,-0.00012315,-2.5614,0.40105
6997,9.0115,0.18182,0.1,0.00036717,3669.1,0.00036711,3667.4,-0.00012099,0.040912,-0.00012145,-3.4302,0.41702
6998,9.0115,0.36364,0.1,0.00036651,3662.6,0.00036656,3664,-0.00012071,2.8963,-0.00012109,-0.024168,0.41819
6999,9.0115,0.54545,0.1,0.000366,3657.5,0.00036614,3661.6,-0.0001201,8.1923,-0.00012119,-0.0065292,0.41927
7000,9.0115,0.72727,0.1,0.00036552,3652.6,0.00036574,3659.2,-0.00011951,13.262,-0.00012128,-0.0073688,0.42027
7001,9.0115,0.90909,0.1,0.00036505,3648,0.00036536,3657,-0.00011895,18.124,-0.00012136,-0.0060156,0.4212
7002,9.0115,1.0909,0.1,0.00036462,3643.6,0.000365,3655,-0.00011842,22.747,-0.00012145,-0.0054951,0.42205
7003,9.0115,1.2727,0.1,0.00036421,3639.5,0.00036466,3653,-0.00011792,27.094,-0.00012153,-0.0048995,0.42281
7004,9.0115,1.4545,0.1,0.00036383,3635.7,0.00036435,3651.2,-0.00011746,31.13,-0.0001216,-0.0043949,0.42351
7005,9.0115,1.6364,0.1,0.00036348,3632.3,0.00036406,3649.6,-0.00011703,34.821,-0.00012167,-0.003922,0.42412
7006,9.0115,1.8182,0.1,0.00036317,3629.2,0.0003638,3648.1,-0.00011665,38.135,-0.00012173,-0.0034952,0.42466
7007,9.0115,2,0.1,0.0003629,3626.5,0.00036358,3646.8,-0.00011632,41.04,-0.00012178,-0.0031143,0.42511
7008,9.0115,2.1818,0.1,0.00036267,3624.2,0.00036339,3645.8,-0.00011604,43.507,-0.00012183,-0.0027842,0.4255
7009,9.0115,2.3636,0.1,0.00036248,3622.3,0.00036324,3644.9,-0.00011581,45.513,-0.00012187,-0.0025118,0.4258
7010,9.0115,2.5455,0.1,0.00036234,3620.9,0.00036312,3644.2,-0.00011564,47.036,-0.0001219,-0.0023033,0.42603
7011,9.0115,2.7273,0.1,0.00036225,3620,0.00036304,3643.8,-0.00011552,48.061,-0.00012191,-0.002161,0.42618
7012,9.0115,2.9091,0.1,0.0003622,3619.5,0.000363,3643.5,-0.00011546,48.576,-0.00012192,-0.0020882,0.42626
7013,9.0115,3.0909,0.1,0.0003622,3619.5,0.000363,3643.5,-0.00011546,48.576,-0.00012192,-0.0020882,0.42626
7014,9.0115,3.2727,0.1,0.00036225,3620,0.00036304,3643.8,-0.00011552,48.061,-0.00012191,-0.0021607,0.42618
7015,9.0115,3.4545,0.1,0.00036234,3620.9,0.00036312,3644.2,-0.00011564,47.036,-0.0001219,-0.0023031,0.42603
7016,9.0115,3.6364,0.1,0.00036248,3622.3,0.00036324,3644.9,-0.00011581,45.513,-0.00012187,-0.0025115,0.4258
7017,9.0115,3.8182,0.1,0.00036267,3624.2,0.00036339,3645.8,-0.00011604,43.507,-0.00012183,-0.0027838,0.4255
7018,9.0115,4,0.1,0.0003629,3626.5,0.00036358,3646.8,-0.00011632,41.04,-0.00012178,-0.0031141,0.42511
7019,9.0115,4.1818,0.1,0.00036317,3629.2,0.0003638,3648.1,-0.00011665,38.135,-0.00012173,-0.0034945,0.42466
7020,9.0115,4.3636,0.1,0.00036348,3632.3,0.00036406,3649.6,-0.00011703,34.821,-0.00012167,-0.0039213,0.42412
7021,9.0115,4.5455,0.1,0.00036383,3635.7,0.00036435,3651.2,-0.00011746,31.13,-0.0001216,-0.0043942,0.42351
7022,9.0115,4.7273,0.1,0.00036421,3639.5,0.00036466,3653,-0.00011792,27.094,-0.00012153,-0.0048991,0.42281
7023,9.0115,4.9091,0.1,0.00036462,3643.6,0.000365,3655,-0.00011842,22.747,-0.00012145,-0.0054943,0.42205
7024,9.0115,5.0909,0.1,0.00036505,3648,0.00036536,3657,-0.00011895,18.124,-0.00012136,-0.0060139,0.4212
7025,9.0115,5.2727,0.1,0.00036552,3652.6,0.00036574,3659.2,-0.00011951,13.262,-0.00012128,-0.0073679,0.42027
7026,9.0115,5.4545,0.1,0.000366,3657.5,0.00036614,3661.6,-0.0001201,8.1923,-0.00012119,-0.0065289,0.41927
7027,9.0115,5.6364,0.1,0.00036651,3662.6,0.00036656,3664,-0.00012071,2.8963,-0.00012109,-0.024167,0.41819
7028,9.0115,5.8182,0.1,0.00036717,3669.1,0.00036711,3667.4,-0.00012099,0.040914,-0.00012145,-3.4302,0.41702
7029,9.1954,0.18182,0.1,0.00036183,3615.8,0.00036176,3613.7,-0.00011919,0.026845,-0.00011976,-4.2635,0.43325
7030,9.1954,0.36364,0.1,0.00036122,3609.8,0.00036125,3610.5,-0.00011908,1.4849,-0.00011928,-0.021355,0.4344
7031,9.1954,0.54545,0.1,0.00036076,3605.1,0.00036087,3608.2,-0.00011853,6.2071,-0.00011936,-0.0056468,0.43547
7032,9.1954,0.72727,0.1,0.00036032,3600.7,0.0003605,3606.1,-0.00011801,10.727,-0.00011944,-0.0066539,0.43646
7033,9.1954,0.90909,0.1,0.0003599,3596.5,0.00036016,3604.1,-0.00011751,15.069,-0.00011951,-0.0056531,0.43738
7034,9.1954,1.0909,0.1,0.00035951,3592.6,0.00035983,3602.1,-0.00011703,19.204,-0.00011959,-0.0053003,0.43821
7035,9.1954,1.2727,0.1,0.00035914,3588.9,0.00035952,3600.4,-0.00011658,23.1,-0.00011966,-0.0048479,0.43898
7036,9.1954,1.4545,0.1,0.00035879,3585.4,0.00035924,3598.7,-0.00011617,26.725,-0.00011972,-0.0044493,0.43966
7037,9.1954,1.6364,0.1,0.00035848,3582.3,0.00035898,3597.2,-0.00011578,30.047,-0.00011978,-0.0040616,0.44027
7038,9.1954,1.8182,0.1,0.0003582,3579.5,0.00035875,3595.9,-0.00011544,33.035,-0.00011984,-0.0037022,0.4408
7039,9.1954,2,0.1,0.00035795,3577.1,0.00035855,3594.7,-0.00011514,35.66,-0.00011989,-0.0033747,0.44125
7040,9.1954,2.1818,0.1,0.00035774,3575,0.00035837,3593.8,-0.00011488,37.892,-0.00011993,-0.0030856,0.44163
7041,9.1954,2.3636,0.1,0.00035757,3573.3,0.00035823,3593,-0.00011468,39.71,-0.00011996,-0.0028443,0.44193
7042,9.1954,2.5455,0.1,0.00035745,3572,0.00035813,3592.4,-0.00011452,41.092,-0.00011999,-0.0026579,0.44216
7043,9.1954,2.7273,0.1,0.00035736,3571.1,0.00035805,3591.9,-0.00011441,42.022,-0.00012,-0.0025294,0.44231
7044,9.1954,2.9091,0.1,0.00035732,3570.7,0.00035802,3591.7,-0.00011436,42.49,-0.00012001,-0.0024642,0.44239
7045,9.1954,3.0909,0.1,0.00035732,3570.7,0.00035802,3591.7,-0.00011436,42.49,-0.00012001,-0.0024641,0.44239
7046,9.1954,3.2727,0.1,0.00035736,3571.1,0.00035805,3591.9,-0.00011441,42.022,-0.00012,-0.0025296,0.44231
7047,9.1954,3.4545,0.1,0.00035745,3572,0.00035813,3592.4,-0.00011452,41.092,-0.00011999,-0.002658,0.44216
7048,9.1954,3.6364,0.1,0.00035757,3573.3,0.00035823,3593,-0.00011468,39.71,-0.00011996,-0.0028439,0.44193
7049,9.1954,3.8182,0.1,0.00035774,3575,0.00035837,3593.8,-0.00011488,37.892,-0.00011993,-0.0030855,0.44163
7050,9.1954,4,0.1,0.00035795,3577.1,0.00035855,3594.7,-0.00011514,35.66,-0.00011989,-0.0033743,0.44125
7051,9.1954,4.1818,0.1,0.0003582,3579.5,0.00035875,3595.9,-0.00011544,33.035,-0.00011984,-0.0037016,0.4408
7052,9.1954,4.3636,0.1,0.00035848,3582.3,0.00035898,3597.2,-0.00011578,30.047,-0.00011978,-0.0040611,0.44027
7053,9.1954,4.5455,0.1,0.00035879,3585.4,0.00035924,3598.7,-0.00011617,26.725,-0.00011972,-0.0044487,0.43966
7054,9.1954,4.7273,0.1,0.00035914,3588.9,0.00035952,3600.4,-0.00011658,23.1,-0.00011966,-0.0048471,0.43898
7055,9.1954,4.9091,0.1,0.00035951,3592.6,0.00035983,3602.1,-0.00011703,19.204,-0.00011959,-0.0052996,0.43821
7056,9.1954,5.0909,0.1,0.0003599,3596.5,0.00036016,3604.1,-0.00011751,15.069,-0.00011951,-0.0056518,0.43738
7057,9.1954,5.2727,0.1,0.00036032,3600.7,0.0003605,3606.1,-0.00011801,10.727,-0.00011944,-0.0066527,0.43646
7058,9.1954,5.4545,0.1,0.00036076,3605.1,0.00036087,3608.2,-0.00011853,6.207,-0.00011936,-0.0056465,0.43547
7059,9.1954,5.6364,0.1,0.00036122,3609.8,0.00036125,3610.5,-0.00011908,1.4849,-0.00011928,-0.021354,0.4344
7060,9.1954,5.8182,0.1,0.00036183,3615.8,0.00036176,3613.7,-0.00011919,0.026846,-0.00011976,-4.2635,0.43325
7061,9.3793,0.18182,0.1,0.00035652,3562.8,0.00035644,3560.2,-0.0001174,0.01827,-0.00011808,-5.0588,0.44972
7062,9.3793,0.36364,0.1,0.00035595,3557.1,0.00035596,3557.2,-0.00011745,0.15308,-0.00011748,-0.030531,0.45085
7063,9.3793,0.54545,0.1,0.00035554,3552.9,0.00035561,3555.1,-0.00011697,4.3165,-0.00011754,-0.0049168,0.45191
7064,9.3793,0.72727,0.1,0.00035514,3549,0.00035528,3553.1,-0.0001165,8.3148,-0.00011761,-0.0060718,0.45289
7065,9.3793,0.90909,0.1,0.00035477,3545.2,0.00035497,3551.3,-0.00011606,12.164,-0.00011768,-0.0053836,0.4538
7066,9.3793,1.0909,0.1,0.00035441,3541.7,0.00035468,3549.5,-0.00011563,15.839,-0.00011774,-0.0051726,0.45463
7067,9.3793,1.2727,0.1,0.00035408,3538.3,0.0003544,3547.9,-0.00011523,19.312,-0.0001178,-0.0048436,0.45538
7068,9.3793,1.4545,0.1,0.00035377,3535.2,0.00035414,3546.4,-0.00011486,22.553,-0.00011786,-0.0045364,0.45606
7069,9.3793,1.6364,0.1,0.00035348,3532.4,0.00035391,3545.1,-0.00011451,25.533,-0.00011791,-0.004222,0.45666
7070,9.3793,1.8182,0.1,0.00035323,3529.9,0.0003537,3543.9,-0.00011421,28.22,-0.00011796,-0.00392,0.45718
7071,9.3793,2,0.1,0.00035301,3527.6,0.00035352,3542.8,-0.00011393,30.586,-0.000118,-0.0036372,0.45763
7072,9.3793,2.1818,0.1,0.00035282,3525.8,0.00035336,3541.9,-0.0001137,32.604,-0.00011804,-0.0033823,0.45801
7073,9.3793,2.3636,0.1,0.00035266,3524.2,0.00035324,3541.2,-0.00011351,34.25,-0.00011807,-0.0031662,0.45831
7074,9.3793,2.5455,0.1,0.00035255,3523,0.00035314,3540.7,-0.00011337,35.504,-0.0001181,-0.0029977,0.45853
7075,9.3793,2.7273,0.1,0.00035247,3522.3,0.00035307,3540.3,-0.00011327,36.348,-0.00011811,-0.0028804,0.45868
7076,9.3793,2.9091,0.1,0.00035243,3521.9,0.00035304,3540.1,-0.00011322,36.774,-0.00011812,-0.0028202,0.45876
7077,9.3793,3.0909,0.1,0.00035243,3521.9,0.00035304,3540.1,-0.00011322,36.774,-0.00011812,-0.0028208,0.45876
7078,9.3793,3.2727,0.1,0.00035247,3522.3,0.00035307,3540.3,-0.00011327,36.348,-0.00011811,-0.0028805,0.45868
7079,9.3793,3.4545,0.1,0.00035255,3523,0.00035314,3540.7,-0.00011337,35.504,-0.0001181,-0.0029973,0.45853
7080,9.3793,3.6364,0.1,0.00035266,3524.2,0.00035324,3541.2,-0.00011351,34.25,-0.00011807,-0.0031662,0.45831
7081,9.3793,3.8182,0.1,0.00035282,3525.8,0.00035336,3541.9,-0.0001137,32.604,-0.00011804,-0.0033821,0.45801
7082,9.3793,4,0.1,0.00035301,3527.6,0.00035352,3542.8,-0.00011393,30.586,-0.000118,-0.0036367,0.45763
7083,9.3793,4.1818,0.1,0.00035323,3529.9,0.0003537,3543.9,-0.00011421,28.22,-0.00011796,-0.0039195,0.45718
7084,9.3793,4.3636,0.1,0.00035348,3532.4,0.00035391,3545.1,-0.00011451,25.533,-0.00011791,-0.0042212,0.45666
7085,9.3793,4.5455,0.1,0.00035377,3535.2,0.00035414,3546.4,-0.00011486,22.553,-0.00011786,-0.004536,0.45606
7086,9.3793,4.7273,0.1,0.00035408,3538.3,0.0003544,3547.9,-0.00011523,19.312,-0.0001178,-0.0048429,0.45538
7087,9.3793,4.9091,0.1,0.00035441,3541.7,0.00035468,3549.5,-0.00011563,15.839,-0.00011774,-0.0051722,0.45463
7088,9.3793,5.0909,0.1,0.00035477,3545.2,0.00035497,3551.3,-0.00011606,12.164,-0.00011768,-0.0053824,0.4538
7089,9.3793,5.2727,0.1,0.00035514,3549,0.00035528,3553.1,-0.0001165,8.3148,-0.00011761,-0.0060704,0.45289
7090,9.3793,5.4545,0.1,0.00035554,3552.9,0.00035561,3555.1,-0.00011697,4.3165,-0.00011754,-0.004916,0.45191
7091,9.3793,5.6364,0.1,0.00035595,3557.1,0.00035596,3557.2,-0.00011745,0.15309,-0.00011748,-0.03053,0.45085
7092,9.3793,5.8182,0.1,0.00035652,3562.8,0.00035644,3560.2,-0.0001174,0.018271,-0.00011808,-5.0588,0.44972
7093,9.5632,0.18182,0.1,0.00035123,3509.9,0.00035113,3507,-0.00011562,0.012672,-0.00011639,-5.8174,0.46642
7094,9.5632,0.36364,0.1,0.0003507,3504.6,0.00035068,3504,-0.00011568,-0.010977,-0.00011583,-1.1487,0.46755
7095,9.5632,0.54545,0.1,0.00035033,3500.9,0.00035037,3502.1,-0.0001154,2.5073,-0.00011573,-0.0044841,0.46859
7096,9.5632,0.72727,0.1,0.00034998,3497.4,0.00035008,3500.3,-0.00011499,6.0067,-0.00011579,-0.0056772,0.46956
7097,9.5632,0.90909,0.1,0.00034964,3494,0.0003498,3498.7,-0.0001146,9.3868,-0.00011585,-0.0052294,0.47046
7098,9.5632,1.0909,0.1,0.00034932,3490.8,0.00034954,3497.1,-0.00011422,12.627,-0.0001159,-0.0051209,0.47128
7099,9.5632,1.2727,0.1,0.00034903,3487.9,0.00034929,3495.7,-0.00011387,15.703,-0.00011596,-0.0048901,0.47202
7100,9.5632,1.4545,0.1,0.00034875,3485.1,0.00034906,3494.3,-0.00011353,18.586,-0.00011601,-0.0046567,0.47269
7101,9.5632,1.6364,0.1,0.0003485,3482.6,0.00034885,3493.1,-0.00011323,21.247,-0.00011606,-0.0044021,0.47329
7102,9.5632,1.8182,0.1,0.00034827,3480.3,0.00034867,3492.1,-0.00011295,23.657,-0.0001161,-0.0041464,0.47381
7103,9.5632,2,0.1,0.00034807,3478.3,0.0003485,3491.1,-0.00011271,25.787,-0.00011614,-0.0039001,0.47425
7104,9.5632,2.1818,0.1,0.0003479,3476.6,0.00034836,3490.3,-0.0001125,27.61,-0.00011617,-0.003672,0.47462
7105,9.5632,2.3636,0.1,0.00034776,3475.2,0.00034824,3489.6,-0.00011233,29.1,-0.0001162,-0.0034754,0.47492
7106,9.5632,2.5455,0.1,0.00034765,3474.1,0.00034816,3489.1,-0.0001122,30.238,-0.00011622,-0.0033201,0.47514
7107,9.5632,2.7273,0.1,0.00034758,3473.4,0.0003481,3488.8,-0.00011211,31.006,-0.00011623,-0.0032112,0.47529
7108,9.5632,2.9091,0.1,0.00034755,3473.1,0.00034807,3488.6,-0.00011206,31.393,-0.00011624,-0.003155,0.47537
7109,9.5632,3.0909,0.1,0.00034755,3473.1,0.00034807,3488.6,-0.00011206,31.393,-0.00011624,-0.0031549,0.47537
7110,9.5632,3.2727,0.1,0.00034758,3473.4,0.0003481,3488.8,-0.00011211,31.006,-0.00011623,-0.0032108,0.47529
7111,9.5632,3.4545,0.1,0.00034765,3474.1,0.00034816,3489.1,-0.0001122,30.238,-0.00011622,-0.00332,0.47514
7112,9.5632,3.6364,0.1,0.00034776,3475.2,0.00034824,3489.6,-0.00011233,29.1,-0.0001162,-0.0034752,0.47492
7113,9.5632,3.8182,0.1,0.0003479,3476.6,0.00034836,3490.3,-0.0001125,27.61,-0.00011617,-0.0036717,0.47462
7114,9.5632,4,0.1,0.00034807,3478.3,0.0003485,3491.1,-0.00011271,25.787,-0.00011614,-0.0038995,0.47425
7115,9.5632,4.1818,0.1,0.00034827,3480.3,0.00034867,3492.1,-0.00011295,23.657,-0.0001161,-0.0041461,0.47381
7116,9.5632,4.3636,0.1,0.0003485,3482.6,0.00034885,3493.1,-0.00011323,21.247,-0.00011606,-0.0044016,0.47329
7117,9.5632,4.5455,0.1,0.00034875,3485.1,0.00034906,3494.3,-0.00011353,18.586,-0.00011601,-0.0046563,0.47269
7118,9.5632,4.7273,0.1,0.00034903,3487.9,0.00034929,3495.7,-0.00011387,15.703,-0.00011596,-0.0048893,0.47202
7119,9.5632,4.9091,0.1,0.00034932,3490.8,0.00034954,3497.1,-0.00011422,12.627,-0.0001159,-0.0051202,0.47128
7120,9.5632,5.0909,0.1,0.00034964,3494,0.0003498,3498.7,-0.0001146,9.3868,-0.00011585,-0.0052282,0.47046
7121,9.5632,5.2727,0.1,0.00034998,3497.4,0.00035008,3500.3,-0.00011499,6.0067,-0.00011579,-0.0056763,0.46956
7122,9.5632,5.4545,0.1,0.00035033,3500.9,0.00035037,3502.1,-0.0001154,2.5073,-0.00011573,-0.0044838,0.46859
7123,9.5632,5.6364,0.1,0.0003507,3504.6,0.00035068,3504,-0.00011568,-0.010975,-0.00011583,-1.1486,0.46755
7124,9.5632,5.8182,0.1,0.00035123,3509.9,0.00035113,3507,-0.00011562,0.012673,-0.00011639,-5.8173,0.46642
7125,9.7471,0.18182,0.1,0.00034595,3457.1,0.00034584,3453.9,-0.00011384,0.0088352,-0.00011471,-6.5418,0.48337
7126,9.7471,0.36364,0.1,0.00034547,3452.3,0.00034543,3451.1,-0.00011389,-0.0089545,-0.0001142,-2.3832,0.48448
7127,9.7471,0.54545,0.1,0.00034514,3449,0.00034515,3449.4,-0.00011383,0.76715,-0.00011393,-0.0058743,0.48551
7128,9.7471,0.72727,0.1,0.00034483,3445.9,0.00034489,3447.8,-0.00011348,3.7854,-0.00011398,-0.0056863,0.48647
7129,9.7471,0.90909,0.1,0.00034453,3442.9,0.00034465,3446.3,-0.00011313,6.7172,-0.00011403,-0.0052755,0.48736
7130,9.7471,1.0909,0.1,0.00034425,3440.2,0.00034441,3444.9,-0.00011281,9.5451,-0.00011408,-0.0051907,0.48817
7131,9.7471,1.2727,0.1,0.00034399,3437.5,0.0003442,3443.6,-0.00011249,12.246,-0.00011412,-0.0050176,0.4889
7132,9.7471,1.4545,0.1,0.00034374,3435.1,0.00034399,3442.4,-0.0001122,14.794,-0.00011417,-0.0048341,0.48957
7133,9.7471,1.6364,0.1,0.00034352,3432.8,0.00034381,3441.4,-0.00011193,17.161,-0.00011421,-0.0046233,0.49015
7134,9.7471,1.8182,0.1,0.00034332,3430.8,0.00034364,3440.4,-0.00011168,19.316,-0.00011425,-0.0044033,0.49067
7135,9.7471,2,0.1,0.00034314,3429,0.00034349,3439.6,-0.00011146,21.231,-0.00011429,-0.0041828,0.49111
7136,9.7471,2.1818,0.1,0.00034298,3427.5,0.00034337,3438.8,-0.00011127,22.877,-0.00011432,-0.0039747,0.49148
7137,9.7471,2.3636,0.1,0.00034286,3426.2,0.00034326,3438.3,-0.00011112,24.228,-0.00011434,-0.0037908,0.49177
7138,9.7471,2.5455,0.1,0.00034276,3425.3,0.00034319,3437.8,-0.000111,25.263,-0.00011436,-0.0036438,0.49199
7139,9.7471,2.7273,0.1,0.0003427,3424.6,0.00034313,3437.5,-0.00011092,25.962,-0.00011437,-0.0035398,0.49214
7140,9.7471,2.9091,0.1,0.00034267,3424.3,0.00034311,3437.4,-0.00011088,26.315,-0.00011438,-0.0034858,0.49221
7141,9.7471,3.0909,0.1,0.00034267,3424.3,0.00034311,3437.4,-0.00011088,26.315,-0.00011438,-0.003486,0.49221
7142,9.7471,3.2727,0.1,0.0003427,3424.6,0.00034313,3437.5,-0.00011092,25.962,-0.00011437,-0.00354,0.49214
7143,9.7471,3.4545,0.1,0.00034276,3425.3,0.00034319,3437.8,-0.000111,25.263,-0.00011436,-0.0036438,0.49199
7144,9.7471,3.6364,0.1,0.00034286,3426.2,0.00034326,3438.3,-0.00011112,24.228,-0.00011434,-0.0037905,0.49177
7145,9.7471,3.8182,0.1,0.00034298,3427.5,0.00034337,3438.8,-0.00011127,22.877,-0.00011432,-0.0039738,0.49148
7146,9.7471,4,0.1,0.00034314,3429,0.00034349,3439.6,-0.00011146,21.231,-0.00011429,-0.0041825,0.49111
7147,9.7471,4.1818,0.1,0.00034332,3430.8,0.00034364,3440.4,-0.00011168,19.316,-0.00011425,-0.0044028,0.49067
7148,9.7471,4.3636,0.1,0.00034352,3432.8,0.00034381,3441.4,-0.00011193,17.161,-0.00011421,-0.0046226,0.49015
7149,9.7471,4.5455,0.1,0.00034374,3435.1,0.00034399,3442.4,-0.0001122,14.794,-0.00011417,-0.0048335,0.48957
7150,9.7471,4.7273,0.1,0.00034399,3437.5,0.0003442,3443.6,-0.00011249,12.246,-0.00011412,-0.005017,0.4889
7151,9.7471,4.9091,0.1,0.00034425,3440.2,0.00034441,3444.9,-0.00011281,9.5451,-0.00011408,-0.0051905,0.48817
7152,9.7471,5.0909,0.1,0.00034453,3442.9,0.00034465,3446.3,-0.00011313,6.7172,-0.00011403,-0.0052737,0.48736
7153,9.7471,5.2727,0.1,0.00034483,3445.9,0.00034489,3447.8,-0.00011348,3.7854,-0.00011398,-0.0056852,0.48647
7154,9.7471,5.4545,0.1,0.00034514,3449,0.00034515,3449.4,-0.00011383,0.76714,-0.00011393,-0.0058733,0.48551
7155,9.7471,5.6364,0.1,0.00034547,3452.3,0.00034543,3451.1,-0.00011389,-0.0089534,-0.0001142,-2.3832,0.48448
7156,9.7471,5.8182,0.1,0.00034595,3457.1,0.00034584,3453.9,-0.00011384,0.008836,-0.00011471,-6.5418,0.48337
7157,9.931,0.18182,0.1,0.00034069,3404.6,0.00034057,3401,-0.00011207,0.0061516,-0.00011303,-7.2354,0.50055
7158,9.931,0.36364,0.1,0.00034025,3400.1,0.00034019,3398.3,-0.00011211,-0.006248,-0.00011258,-3.5782,0.50164
7159,9.931,0.54545,0.1,0.00033996,3397.3,0.00033994,3396.8,-0.00011214,0.00045235,-0.00011226,-0.92789,0.50266
7160,9.931,0.72727,0.1,0.00033969,3394.6,0.00033972,3395.4,-0.00011196,1.6335,-0.00011218,-0.0072982,0.50361
7161,9.931,0.90909,0.1,0.00033944,3392,0.00033951,3394.1,-0.00011167,4.1331,-0.00011222,-0.0057227,0.50449
7162,9.931,1.0909,0.1,0.00033919,3389.6,0.00033931,3392.9,-0.00011139,6.5673,-0.00011226,-0.0054304,0.50529
7163,9.931,1.2727,0.1,0.00033897,3387.3,0.00033912,3391.8,-0.00011111,8.9147,-0.0001123,-0.005229,0.50602
7164,9.931,1.4545,0.1,0.00033875,3385.2,0.00033894,3390.7,-0.00011086,11.15,-0.00011234,-0.0050554,0.50667
7165,9.931,1.6364,0.1,0.00033855,3383.2,0.00033878,3389.8,-0.00011061,13.244,-0.00011238,-0.0048662,0.50725
7166,9.931,1.8182,0.1,0.00033837,3381.4,0.00033863,3388.9,-0.00011039,15.167,-0.00011241,-0.0046668,0.50776
7167,9.931,2,0.1,0.00033821,3379.8,0.0003385,3388.2,-0.0001102,16.888,-0.00011245,-0.0044633,0.5082
7168,9.931,2.1818,0.1,0.00033808,3378.4,0.00033839,3387.6,-0.00011003,18.377,-0.00011247,-0.0042654,0.50856
7169,9.931,2.3636,0.1,0.00033797,3377.3,0.00033829,3387.1,-0.00010989,19.605,-0.0001125,-0.0040891,0.50885
7170,9.931,2.5455,0.1,0.00033788,3376.5,0.00033822,3386.7,-0.00010978,20.549,-0.00011252,-0.0039457,0.50907
7171,9.931,2.7273,0.1,0.00033782,3375.9,0.00033818,3386.4,-0.00010971,21.189,-0.00011253,-0.0038432,0.50921
7172,9.931,2.9091,0.1,0.00033779,3375.6,0.00033815,3386.3,-0.00010967,21.513,-0.00011254,-0.0037895,0.50929
7173,9.931,3.0909,0.1,0.00033779,3375.6,0.00033815,3386.3,-0.00010967,21.513,-0.00011254,-0.0037898,0.50929
7174,9.931,3.2727,0.1,0.00033782,3375.9,0.00033818,3386.4,-0.00010971,21.189,-0.00011253,-0.0038431,0.50921
7175,9.931,3.4545,0.1,0.00033788,3376.5,0.00033822,3386.7,-0.00010978,20.549,-0.00011252,-0.0039454,0.50907
7176,9.931,3.6364,0.1,0.00033797,3377.3,0.00033829,3387.1,-0.00010989,19.605,-0.0001125,-0.0040889,0.50885
7177,9.931,3.8182,0.1,0.00033808,3378.4,0.00033839,3387.6,-0.00011003,18.377,-0.00011247,-0.0042654,0.50856
7178,9.931,4,0.1,0.00033821,3379.8,0.0003385,3388.2,-0.0001102,16.888,-0.00011245,-0.0044627,0.5082
7179,9.931,4.1818,0.1,0.00033837,3381.4,0.00033863,3388.9,-0.00011039,15.167,-0.00011241,-0.0046663,0.50776
7180,9.931,4.3636,0.1,0.00033855,3383.2,0.00033878,3389.8,-0.00011061,13.244,-0.00011238,-0.0048655,0.50725
7181,9.931,4.5455,0.1,0.00033875,3385.2,0.00033894,3390.7,-0.00011086,11.15,-0.00011234,-0.0050544,0.50667
7182,9.931,4.7273,0.1,0.00033897,3387.3,0.00033912,3391.8,-0.00011111,8.9147,-0.0001123,-0.0052281,0.50602
7183,9.931,4.9091,0.1,0.00033919,3389.6,0.00033931,3392.9,-0.00011139,6.5673,-0.00011226,-0.0054301,0.50529
7184,9.931,5.0909,0.1,0.00033944,3392,0.00033951,3394.1,-0.00011167,4.133,-0.00011222,-0.0057213,0.50449
7185,9.931,5.2727,0.1,0.00033969,3394.6,0.00033972,3395.4,-0.00011196,1.6335,-0.00011218,-0.0072973,0.50361
7186,9.931,5.4545,0.1,0.00033996,3397.3,0.00033994,3396.8,-0.00011214,0.00045252,-0.00011226,-0.9279,0.50266
7187,9.931,5.6364,0.1,0.00034025,3400.1,0.00034019,3398.3,-0.00011211,-0.0062469,-0.00011258,-3.5782,0.50164
7188,9.931,5.8182,0.1,0.00034069,3404.6,0.00034057,3401,-0.00011207,0.0061523,-0.00011303,-7.2354,0.50055
7189,10.115,0.18182,0.1,0.00033545,3352.2,0.00033531,3348.2,-0.00011031,0.0042559,-0.00011136,-7.9019,0.51795
7190,10.115,0.36364,0.1,0.00033504,3348.1,0.00033496,3345.8,-0.00011033,-0.0034231,-0.00011096,-4.743,0.51904
7191,10.115,0.54545,0.1,0.0003348,3345.7,0.00033475,3344.4,-0.00011036,-0.00056262,-0.0001107,-2.5778,0.52005
7192,10.115,0.72727,0.1,0.00033457,3343.4,0.00033456,3343.2,-0.00011038,0.0096891,-0.00011045,-0.48852,0.52098
7193,10.115,0.90909,0.1,0.00033436,3341.3,0.00033438,3342.1,-0.0001102,1.6131,-0.00011042,-0.0081845,0.52185
7194,10.115,1.0909,0.1,0.00033415,3339.2,0.00033421,3341,-0.00010996,3.6689,-0.00011045,-0.0061351,0.52264
7195,10.115,1.2727,0.1,0.00033396,3337.2,0.00033405,3340.1,-0.00010973,5.6814,-0.00011049,-0.0056126,0.52336
7196,10.115,1.4545,0.1,0.00033377,3335.4,0.0003339,3339.2,-0.00010951,7.6245,-0.00011052,-0.0053533,0.52401
7197,10.115,1.6364,0.1,0.0003336,3333.7,0.00033376,3338.4,-0.0001093,9.4686,-0.00011056,-0.0051474,0.52458
7198,10.115,1.8182,0.1,0.00033344,3332.1,0.00033363,3337.7,-0.0001091,11.182,-0.00011059,-0.0049492,0.52508
7199,10.115,2,0.1,0.0003333,3330.7,0.00033352,3337.1,-0.00010893,12.73,-0.00011062,-0.0047508,0.52551
7200,10.115,2.1818,0.1,0.00033318,3329.5,0.00033342,3336.5,-0.00010877,14.08,-0.00011065,-0.0045563,0.52587
7201,10.115,2.3636,0.1,0.00033308,3328.5,0.00033334,3336.1,-0.00010865,15.203,-0.00011067,-0.0043795,0.52616
7202,10.115,2.5455,0.1,0.00033301,3327.8,0.00033328,3335.8,-0.00010855,16.07,-0.00011069,-0.0042346,0.52638
7203,10.115,2.7273,0.1,0.00033295,3327.2,0.00033323,3335.5,-0.00010848,16.66,-0.0001107,-0.00413,0.52652
7204,10.115,2.9091,0.1,0.00033293,3327,0.00033321,3335.4,-0.00010845,16.96,-0.00011071,-0.0040752,0.52659
7205,10.115,3.0909,0.1,0.00033293,3327,0.00033321,3335.4,-0.00010845,16.96,-0.00011071,-0.0040751,0.52659
7206,10.115,3.2727,0.1,0.00033295,3327.2,0.00033323,3335.5,-0.00010848,16.66,-0.0001107,-0.0041301,0.52652
7207,10.115,3.4545,0.1,0.00033301,3327.8,0.00033328,3335.8,-0.00010855,16.07,-0.00011069,-0.0042344,0.52638
7208,10.115,3.6364,0.1,0.00033308,3328.5,0.00033334,3336.1,-0.00010865,15.203,-0.00011067,-0.0043794,0.52616
7209,10.115,3.8182,0.1,0.00033318,3329.5,0.00033342,3336.5,-0.00010877,14.08,-0.00011065,-0.004556,0.52587
7210,10.115,4,0.1,0.0003333,3330.7,0.00033352,3337.1,-0.00010893,12.73,-0.00011062,-0.0047502,0.52551
7211,10.115,4.1818,0.1,0.00033344,3332.1,0.00033363,3337.7,-0.0001091,11.182,-0.00011059,-0.0049486,0.52508
7212,10.115,4.3636,0.1,0.0003336,3333.7,0.00033376,3338.4,-0.0001093,9.4686,-0.00011056,-0.0051465,0.52458
7213,10.115,4.5455,0.1,0.00033377,3335.4,0.0003339,3339.2,-0.00010951,7.6245,-0.00011052,-0.005353,0.52401
7214,10.115,4.7273,0.1,0.00033396,3337.2,0.00033405,3340.1,-0.00010973,5.6814,-0.00011049,-0.0056122,0.52336
7215,10.115,4.9091,0.1,0.00033415,3339.2,0.00033421,3341,-0.00010996,3.6688,-0.00011045,-0.0061342,0.52264
7216,10.115,5.0909,0.1,0.00033436,3341.3,0.00033438,3342.1,-0.0001102,1.6131,-0.00011042,-0.0081833,0.52185
7217,10.115,5.2727,0.1,0.00033457,3343.4,0.00033456,3343.2,-0.00011038,0.0096902,-0.00011045,-0.48853,0.52098
7218,10.115,5.4545,0.1,0.0003348,3345.7,0.00033475,3344.4,-0.00011036,-0.00056182,-0.0001107,-2.5778,0.52005
7219,10.115,5.6364,0.1,0.00033504,3348.1,0.00033496,3345.8,-0.00011033,-0.0034224,-0.00011096,-4.743,0.51904
7220,10.115,5.8182,0.1,0.00033545,3352.2,0.00033531,3348.2,-0.00011031,0.0042571,-0.00011136,-7.9019,0.51795
7221,10.299,0.18182,0.1,0.00033021,3299.9,0.00033007,3295.6,-0.00010855,0.0029341,-0.00010968,-8.5456,0.53559
7222,10.299,0.36364,0.1,0.00032985,3296.2,0.00032975,3293.3,-0.00010856,-0.00055964,-0.00010934,-5.8886,0.53666
7223,10.299,0.54545,0.1,0.00032965,3294.2,0.00032958,3292.1,-0.00010858,-0.00036277,-0.00010914,-4.2074,0.53765
7224,10.299,0.72727,0.1,0.00032947,3292.4,0.00032942,3291.1,-0.0001086,-0.00024117,-0.00010894,-2.556,0.53858
7225,10.299,0.90909,0.1,0.00032929,3290.6,0.00032928,3290.2,-0.00010862,0.0039179,-0.00010874,-0.88353,0.53943
7226,10.299,1.0909,0.1,0.00032912,3289,0.00032914,3289.4,-0.00010854,0.82697,-0.00010865,-0.011441,0.54022
7227,10.299,1.2727,0.1,0.00032896,3287.3,0.000329,3288.6,-0.00010835,2.5182,-0.00010868,-0.0066347,0.54093
7228,10.299,1.4545,0.1,0.00032881,3285.8,0.00032888,3287.9,-0.00010816,4.1889,-0.00010871,-0.00583,0.54157
7229,10.299,1.6364,0.1,0.00032866,3284.3,0.00032876,3287.2,-0.00010797,5.8047,-0.00010875,-0.0054935,0.54213
7230,10.299,1.8182,0.1,0.00032853,3283,0.00032865,3286.7,-0.0001078,7.33,-0.00010878,-0.0052611,0.54263
7231,10.299,2,0.1,0.00032841,3281.8,0.00032855,3286.1,-0.00010764,8.7278,-0.00010881,-0.0050529,0.54306
7232,10.299,2.1818,0.1,0.0003283,3280.7,0.00032847,3285.7,-0.00010751,9.961,-0.00010883,-0.0048531,0.54341
7233,10.299,2.3636,0.1,0.00032821,3279.9,0.0003284,3285.3,-0.00010739,10.995,-0.00010885,-0.0046704,0.5437
7234,10.299,2.5455,0.1,0.00032815,3279.2,0.00032834,3285.1,-0.0001073,11.8,-0.00010887,-0.0045184,0.54391
7235,10.299,2.7273,0.1,0.0003281,3278.7,0.00032831,3284.9,-0.00010724,12.351,-0.00010888,-0.0044077,0.54405
7236,10.299,2.9091,0.1,0.00032808,3278.5,0.00032829,3284.8,-0.00010721,12.63,-0.00010889,-0.0043487,0.54412
7237,10.299,3.0909,0.1,0.00032808,3278.5,0.00032829,3284.8,-0.00010721,12.63,-0.00010889,-0.004349,0.54412
7238,10.299,3.2727,0.1,0.0003281,3278.7,0.00032831,3284.9,-0.00010724,12.351,-0.00010888,-0.0044071,0.54405
7239,10.299,3.4545,0.1,0.00032815,3279.2,0.00032834,3285.1,-0.0001073,11.8,-0.00010887,-0.004518,0.54391
7240,10.299,3.6364,0.1,0.00032821,3279.9,0.0003284,3285.3,-0.00010739,10.995,-0.00010885,-0.0046703,0.5437
7241,10.299,3.8182,0.1,0.0003283,3280.7,0.00032847,3285.7,-0.00010751,9.961,-0.00010883,-0.004853,0.54341
7242,10.299,4,0.1,0.00032841,3281.8,0.00032855,3286.1,-0.00010764,8.7278,-0.00010881,-0.0050524,0.54306
7243,10.299,4.1818,0.1,0.00032853,3283,0.00032865,3286.7,-0.0001078,7.33,-0.00010878,-0.0052611,0.54263
7244,10.299,4.3636,0.1,0.00032866,3284.3,0.00032876,3287.2,-0.00010797,5.8047,-0.00010875,-0.0054931,0.54213
7245,10.299,4.5455,0.1,0.00032881,3285.8,0.00032888,3287.9,-0.00010816,4.1889,-0.00010871,-0.0058293,0.54157
7246,10.299,4.7273,0.1,0.00032896,3287.3,0.000329,3288.6,-0.00010835,2.5181,-0.00010868,-0.0066342,0.54093
7247,10.299,4.9091,0.1,0.00032912,3289,0.00032914,3289.4,-0.00010854,0.82696,-0.00010865,-0.011441,0.54022
7248,10.299,5.0909,0.1,0.00032929,3290.6,0.00032928,3290.2,-0.00010862,0.0039187,-0.00010874,-0.88355,0.53943
7249,10.299,5.2727,0.1,0.00032947,3292.4,0.00032942,3291.1,-0.0001086,-0.00023998,-0.00010894,-2.556,0.53858
7250,10.299,5.4545,0.1,0.00032965,3294.2,0.00032958,3292.1,-0.00010858,-0.00036172,-0.00010914,-4.2074,0.53765
7251,10.299,5.6364,0.1,0.00032985,3296.2,0.00032975,3293.3,-0.00010856,-0.00055852,-0.00010934,-5.8885,0.53666
7252,10.299,5.8182,0.1,0.00033021,3299.9,0.00033007,3295.6,-0.00010855,0.002935,-0.00010968,-8.5456,0.53559
7253,10.483,0.18182,0.1,0.00032499,3247.7,0.00032483,3243.1,-0.00010679,0.0020876,-0.00010801,-9.1705,0.55344
7254,10.483,0.36364,0.1,0.00032467,3244.5,0.00032455,3241,-0.00010679,0.0023686,-0.00010773,-7.0261,0.5545
7255,10.483,0.54545,0.1,0.00032452,3242.9,0.00032442,3240,-0.0001068,-8.8147e-06,-0.00010758,-5.8329,0.55548
7256,10.483,0.72727,0.1,0.00032438,3241.5,0.0003243,3239.2,-0.00010681,-0.00099099,-0.00010743,-4.6269,0.5564
7257,10.483,0.90909,0.1,0.00032424,3240.2,0.00032418,3238.5,-0.00010683,-0.0018472,-0.00010728,-3.3499,0.55724
7258,10.483,1.0909,0.1,0.00032411,3238.9,0.00032408,3237.9,-0.00010686,-0.0020781,-0.00010712,-2.0055,0.55801
7259,10.483,1.2727,0.1,0.00032398,3237.6,0.00032397,3237.3,-0.00010688,0.00062132,-0.00010697,-0.61317,0.55872
7260,10.483,1.4545,0.1,0.00032386,3236.3,0.00032387,3236.7,-0.0001068,0.81502,-0.00010691,-0.0080296,0.55935
7261,10.483,1.6364,0.1,0.00032374,3235.2,0.00032378,3236.3,-0.00010665,2.2231,-0.00010694,-0.0060131,0.55991
7262,10.483,1.8182,0.1,0.00032363,3234,0.00032369,3235.8,-0.0001065,3.5842,-0.00010697,-0.0055912,0.5604
7263,10.483,2,0.1,0.00032353,3233,0.00032361,3235.4,-0.00010636,4.855,-0.000107,-0.0053473,0.56082
7264,10.483,2.1818,0.1,0.00032344,3232.1,0.00032354,3235.1,-0.00010623,5.993,-0.00010703,-0.0051352,0.56117
7265,10.483,2.3636,0.1,0.00032336,3231.4,0.00032348,3234.8,-0.00010613,6.9586,-0.00010705,-0.00494,0.56145
7266,10.483,2.5455,0.1,0.0003233,3230.8,0.00032343,3234.6,-0.00010604,7.7165,-0.00010707,-0.0047746,0.56166
7267,10.483,2.7273,0.1,0.00032326,3230.4,0.0003234,3234.5,-0.00010599,8.2384,-0.00010708,-0.0046527,0.5618
7268,10.483,2.9091,0.1,0.00032324,3230.2,0.00032338,3234.4,-0.00010596,8.5045,-0.00010709,-0.0045877,0.56187
7269,10.483,3.0909,0.1,0.00032324,3230.2,0.00032338,3234.4,-0.00010596,8.5045,-0.00010709,-0.004588,0.56187
7270,10.483,3.2727,0.1,0.00032326,3230.4,0.0003234,3234.5,-0.00010599,8.2384,-0.00010708,-0.0046526,0.5618
7271,10.483,3.4545,0.1,0.0003233,3230.8,0.00032343,3234.6,-0.00010604,7.7165,-0.00010707,-0.0047749,0.56166
7272,10.483,3.6364,0.1,0.00032336,3231.4,0.00032348,3234.8,-0.00010613,6.9586,-0.00010705,-0.0049401,0.56145
7273,10.483,3.8182,0.1,0.00032344,3232.1,0.00032354,3235.1,-0.00010623,5.993,-0.00010703,-0.0051343,0.56117
7274,10.483,4,0.1,0.00032353,3233,0.00032361,3235.4,-0.00010636,4.8549,-0.000107,-0.0053468,0.56082
7275,10.483,4.1818,0.1,0.00032363,3234,0.00032369,3235.8,-0.0001065,3.5842,-0.00010697,-0.0055901,0.5604
7276,10.483,4.3636,0.1,0.00032374,3235.2,0.00032378,3236.3,-0.00010665,2.2231,-0.00010694,-0.0060129,0.55991
7277,10.483,4.5455,0.1,0.00032386,3236.3,0.00032387,3236.7,-0.0001068,0.81501,-0.00010691,-0.0080291,0.55935
7278,10.483,4.7273,0.1,0.00032398,3237.6,0.00032397,3237.3,-0.00010688,0.00062127,-0.00010697,-0.61319,0.55872
7279,10.483,4.9091,0.1,0.00032411,3238.9,0.00032408,3237.9,-0.00010686,-0.0020774,-0.00010712,-2.0056,0.55801
7280,10.483,5.0909,0.1,0.00032424,3240.2,0.00032418,3238.5,-0.00010683,-0.0018454,-0.00010728,-3.3499,0.55724
7281,10.483,5.2727,0.1,0.00032438,3241.5,0.0003243,3239.2,-0.00010681,-0.00099007,-0.00010743,-4.6269,0.5564
7282,10.483,5.4545,0.1,0.00032452,3242.9,0.00032442,3240,-0.0001068,-8.5084e-06,-0.00010758,-5.8329,0.55548
7283,10.483,5.6364,0.1,0.00032467,3244.5,0.00032455,3241,-0.00010679,0.002369,-0.00010773,-7.0261,0.5545
7284,10.483,5.8182,0.1,0.00032499,3247.7,0.00032483,3243.1,-0.00010679,0.0020882,-0.00010801,-9.1705,0.55344
7285,10.667,0.18182,0.1,0.00031977,3195.5,0.0003196,3190.6,-0.00010504,0.0015523,-0.00010634,-9.7821,0.57152
7286,10.667,0.36364,0.1,0.0003195,3192.8,0.00031936,3188.7,-0.00010503,0.005283,-0.00010612,-8.1689,0.57256
7287,10.667,0.54545,0.1,0.00031939,3191.7,0.00031926,3188,-0.00010503,0.00026118,-0.00010602,-7.4738,0.57353
7288,10.667,0.72727,0.1,0.0003193,3190.8,0.00031918,3187.4,-0.00010503,-0.0012337,-0.00010593,-6.7174,0.57444
7289,10.667,0.90909,0.1,0.0003192,3189.8,0.0003191,3186.9,-0.00010505,-0.0028998,-0.00010582,-5.8371,0.57527
7290,10.667,1.0909,0.1,0.00031911,3188.9,0.00031903,3186.5,-0.00010507,-0.004034,-0.00010571,-4.8335,0.57603
7291,10.667,1.2727,0.1,0.00031902,3188,0.00031896,3186.1,-0.00010509,-0.0048468,-0.00010559,-3.7236,0.57673
7292,10.667,1.4545,0.1,0.00031893,3187.1,0.00031888,3185.8,-0.00010512,-0.0053352,-0.00010546,-2.5359,0.57735
7293,10.667,1.6364,0.1,0.00031884,3186.2,0.00031881,3185.5,-0.00010515,-0.0055419,-0.00010533,-1.3085,0.5779
7294,10.667,1.8182,0.1,0.00031875,3185.3,0.00031875,3185.2,-0.00010518,-0.0041582,-0.00010519,-0.08727,0.57839
7295,10.667,2,0.1,0.00031866,3184.4,0.00031868,3185,-0.00010507,1.0838,-0.00010521,-0.0057355,0.57881
7296,10.667,2.1818,0.1,0.00031859,3183.7,0.00031863,3184.8,-0.00010495,2.1509,-0.00010524,-0.0055181,0.57915
7297,10.667,2.3636,0.1,0.00031853,3183.1,0.00031858,3184.6,-0.00010486,3.0693,-0.00010527,-0.0053086,0.57943
7298,10.667,2.5455,0.1,0.00031848,3182.6,0.00031854,3184.5,-0.00010478,3.7978,-0.00010529,-0.0051187,0.57964
7299,10.667,2.7273,0.1,0.00031844,3182.2,0.00031851,3184.4,-0.00010473,4.3031,-0.0001053,-0.0049738,0.57978
7300,10.667,2.9091,0.1,0.00031842,3182,0.0003185,3184.3,-0.0001047,4.5618,-0.00010531,-0.0048952,0.57984
7301,10.667,3.0909,0.1,0.00031842,3182,0.0003185,3184.3,-0.0001047,4.5618,-0.00010531,-0.0048954,0.57984
7302,10.667,3.2727,0.1,0.00031844,3182.2,0.00031851,3184.4,-0.00010473,4.3031,-0.0001053,-0.0049737,0.57978
7303,10.667,3.4545,0.1,0.00031848,3182.6,0.00031854,3184.5,-0.00010478,3.7978,-0.00010529,-0.0051184,0.57964
7304,10.667,3.6364,0.1,0.00031853,3183.1,0.00031858,3184.6,-0.00010486,3.0693,-0.00010527,-0.0053085,0.57943
7305,10.667,3.8182,0.1,0.00031859,3183.7,0.00031863,3184.8,-0.00010495,2.1509,-0.00010524,-0.0055182,0.57915
7306,10.667,4,0.1,0.00031866,3184.4,0.00031868,3185,-0.00010507,1.0838,-0.00010521,-0.0057348,0.57881
7307,10.667,4.1818,0.1,0.00031875,3185.3,0.00031875,3185.2,-0.00010518,-0.004158,-0.00010519,-0.087277,0.57839
7308,10.667,4.3636,0.1,0.00031884,3186.2,0.00031881,3185.5,-0.00010515,-0.0055414,-0.00010533,-1.3085,0.5779
7309,10.667,4.5455,0.1,0.00031893,3187.1,0.00031888,3185.8,-0.00010512,-0.0053347,-0.00010546,-2.5359,0.57735
7310,10.667,4.7273,0.1,0.00031902,3188,0.00031896,3186.1,-0.00010509,-0.004846,-0.00010559,-3.7236,0.57673
7311,10.667,4.9091,0.1,0.00031911,3188.9,0.00031903,3186.5,-0.00010507,-0.0040337,-0.00010571,-4.8336,0.57603
7312,10.667,5.0909,0.1,0.0003192,3189.8,0.0003191,3186.9,-0.00010505,-0.0028987,-0.00010582,-5.8371,0.57527
7313,10.667,5.2727,0.1,0.0003193,3190.8,0.00031918,3187.4,-0.00010503,-0.0012326,-0.00010593,-6.7174,0.57444
7314,10.667,5.4545,0.1,0.00031939,3191.7,0.00031926,3188,-0.00010503,0.00026162,-0.00010602,-7.4738,0.57353
7315,10.667,5.6364,0.1,0.0003195,3192.8,0.00031936,3188.7,-0.00010503,0.0052845,-0.00010612,-8.1689,0.57256
7316,10.667,5.8182,0.1,0.00031977,3195.5,0.0003196,3190.6,-0.00010504,0.0015531,-0.00010634,-9.7821,0.57152
7317,10.851,0.18182,0.1,0.00031455,3143.4,0.00031437,3138.2,-0.00010329,0.0014134,-0.00010467,-10.385,0.58981
7318,10.851,0.36364,0.1,0.00031433,3141.2,0.00031417,3136.5,-0.00010327,0.0083321,-0.00010451,-9.3308,0.59084
7319,10.851,0.54545,0.1,0.00031427,3140.6,0.00031412,3136,-0.00010326,0.00051817,-0.00010447,-9.1511,0.5918
7320,10.851,0.72727,0.1,0.00031423,3140.1,0.00031408,3135.7,-0.00010326,-0.0013376,-0.00010443,-8.8535,0.59269
7321,10.851,0.90909,0.1,0.00031418,3139.7,0.00031404,3135.5,-0.00010327,-0.0034991,-0.00010438,-8.3711,0.59351
7322,10.851,1.0909,0.1,0.00031413,3139.2,0.000314,3135.3,-0.00010328,-0.004842,-0.00010431,-7.7021,0.59427
7323,10.851,1.2727,0.1,0.00031408,3138.6,0.00031396,3135.2,-0.00010331,-0.0057507,-0.00010422,-6.8638,0.59495
7324,10.851,1.4545,0.1,0.00031402,3138,0.00031392,3135.1,-0.00010333,-0.0062379,-0.00010412,-5.8883,0.59557
7325,10.851,1.6364,0.1,0.00031396,3137.4,0.00031387,3135,-0.00010337,-0.006408,-0.00010401,-4.8192,0.59611
7326,10.851,1.8182,0.1,0.00031389,3136.7,0.00031383,3134.9,-0.0001034,-0.0063389,-0.00010389,-3.7084,0.59659
7327,10.851,2,0.1,0.00031383,3136.1,0.00031378,3134.8,-0.00010343,-0.0061058,-0.00010378,-2.6127,0.597
7328,10.851,2.1818,0.1,0.00031377,3135.5,0.00031374,3134.7,-0.00010346,-0.0057633,-0.00010368,-1.5896,0.59735
7329,10.851,2.3636,0.1,0.00031372,3135,0.0003137,3134.6,-0.00010349,-0.0052952,-0.00010358,-0.69452,0.59762
7330,10.851,2.5455,0.1,0.00031367,3134.6,0.00031367,3134.6,-0.00010351,0.029594,-0.00010351,-0.010484,0.59783
7331,10.851,2.7273,0.1,0.00031364,3134.3,0.00031365,3134.5,-0.00010346,0.52717,-0.00010353,-0.0053997,0.59796
7332,10.851,2.9091,0.1,0.00031363,3134.1,0.00031364,3134.5,-0.00010343,0.78546,-0.00010354,-0.0051732,0.59803
7333,10.851,3.0909,0.1,0.00031363,3134.1,0.00031364,3134.5,-0.00010343,0.78546,-0.00010354,-0.0051731,0.59803
7334,10.851,3.2727,0.1,0.00031364,3134.3,0.00031365,3134.5,-0.00010346,0.52717,-0.00010353,-0.0053995,0.59796
7335,10.851,3.4545,0.1,0.00031367,3134.6,0.00031367,3134.6,-0.00010351,0.029592,-0.00010351,-0.010484,0.59783
7336,10.851,3.6364,0.1,0.00031372,3135,0.0003137,3134.6,-0.00010349,-0.0052951,-0.00010358,-0.69452,0.59762
7337,10.851,3.8182,0.1,0.00031377,3135.5,0.00031374,3134.7,-0.00010346,-0.0057628,-0.00010368,-1.5897,0.59735
7338,10.851,4,0.1,0.00031383,3136.1,0.00031378,3134.8,-0.00010343,-0.0061054,-0.00010378,-2.6127,0.597
7339,10.851,4.1818,0.1,0.00031389,3136.7,0.00031383,3134.9,-0.0001034,-0.0063384,-0.00010389,-3.7085,0.59659
7340,10.851,4.3636,0.1,0.00031396,3137.4,0.00031387,3135,-0.00010337,-0.0064071,-0.00010401,-4.8193,0.59611
7341,10.851,4.5455,0.1,0.00031402,3138,0.00031392,3135.1,-0.00010333,-0.0062375,-0.00010412,-5.8884,0.59557
7342,10.851,4.7273,0.1,0.00031408,3138.6,0.00031396,3135.2,-0.00010331,-0.00575,-0.00010422,-6.8638,0.59495
7343,10.851,4.9091,0.1,0.00031413,3139.2,0.000314,3135.3,-0.00010328,-0.0048416,-0.00010431,-7.7021,0.59427
7344,10.851,5.0909,0.1,0.00031418,3139.7,0.00031404,3135.5,-0.00010327,-0.0034976,-0.00010438,-8.3711,0.59351
7345,10.851,5.2727,0.1,0.00031423,3140.1,0.00031408,3135.7,-0.00010326,-0.0013363,-0.00010443,-8.8535,0.59269
7346,10.851,5.4545,0.1,0.00031427,3140.6,0.00031412,3136,-0.00010326,0.00051824,-0.00010447,-9.1511,0.5918
7347,10.851,5.6364,0.1,0.00031433,3141.2,0.00031417,3136.5,-0.00010327,0.008333,-0.00010451,-9.3308,0.59084
7348,10.851,5.8182,0.1,0.00031455,3143.4,0.00031437,3138.2,-0.00010329,0.0014146,-0.00010467,-10.385,0.58981
7349,11.034,0.18182,0.1,0.00030933,3091.2,0.00030914,3085.7,-0.00010153,0.0016835,-0.000103,-10.986,0.60831
7350,11.034,0.36364,0.1,0.00030917,3089.5,0.00030899,3084.3,-0.0001015,0.011559,-0.0001029,-10.528,0.60933
7351,11.034,0.54545,0.1,0.00030916,3089.5,0.00030898,3084,-0.00010148,0.00074259,-0.00010293,-10.889,0.61027
7352,11.034,0.72727,0.1,0.00030917,3089.6,0.00030898,3084,-0.00010148,-0.0014182,-0.00010295,-11.065,0.61115
7353,11.034,0.90909,0.1,0.00030917,3089.6,0.00030898,3084.1,-0.00010148,-0.0040089,-0.00010294,-10.986,0.61197
7354,11.034,1.0909,0.1,0.00030917,3089.6,0.00030899,3084.2,-0.0001015,-0.0054833,-0.00010291,-10.646,0.61271
7355,11.034,1.2727,0.1,0.00030915,3089.4,0.00030898,3084.4,-0.00010152,-0.0064213,-0.00010286,-10.066,0.61339
7356,11.034,1.4545,0.1,0.00030913,3089.2,0.00030897,3084.5,-0.00010155,-0.0068551,-0.00010279,-9.2823,0.614
7357,11.034,1.6364,0.1,0.0003091,3088.8,0.00030896,3084.7,-0.00010159,-0.0069315,-0.0001027,-8.345,0.61454
7358,11.034,1.8182,0.1,0.00030906,3088.5,0.00030893,3084.8,-0.00010163,-0.0067626,-0.0001026,-7.3159,0.61501
7359,11.034,2,0.1,0.00030902,3088,0.00030891,3084.9,-0.00010167,-0.0064526,-0.0001025,-6.2622,0.61542
7360,11.034,2.1818,0.1,0.00030897,3087.6,0.00030888,3085,-0.0001017,-0.0060942,-0.0001024,-5.2527,0.61575
7361,11.034,2.3636,0.1,0.00030893,3087.2,0.00030886,3085,-0.00010173,-0.0057706,-0.00010231,-4.353,0.61602
7362,11.034,2.5455,0.1,0.0003089,3086.9,0.00030884,3085,-0.00010176,-0.0055387,-0.00010224,-3.6217,0.61623
7363,11.034,2.7273,0.1,0.00030888,3086.6,0.00030882,3085.1,-0.00010178,-0.0054159,-0.00010219,-3.1061,0.61636
7364,11.034,2.9091,0.1,0.00030886,3086.5,0.00030881,3085.1,-0.00010178,-0.0053747,-0.00010216,-2.8397,0.61643
7365,11.034,3.0909,0.1,0.00030886,3086.5,0.00030881,3085.1,-0.00010178,-0.0053751,-0.00010216,-2.8397,0.61643
7366,11.034,3.2727,0.1,0.00030888,3086.6,0.00030882,3085.1,-0.00010178,-0.0054158,-0.00010219,-3.1061,0.61636
7367,11.034,3.4545,0.1,0.0003089,3086.9,0.00030884,3085,-0.00010176,-0.0055386,-0.00010224,-3.6217,0.61623
7368,11.034,3.6364,0.1,0.00030893,3087.2,0.00030886,3085,-0.00010173,-0.0057706,-0.00010231,-4.353,0.61602
7369,11.034,3.8182,0.1,0.00030897,3087.6,0.00030888,3085,-0.0001017,-0.0060941,-0.0001024,-5.2527,0.61575
7370,11.034,4,0.1,0.00030902,3088,0.00030891,3084.9,-0.00010167,-0.0064523,-0.0001025,-6.2622,0.61542
7371,11.034,4.1818,0.1,0.00030906,3088.5,0.00030893,3084.8,-0.00010163,-0.0067621,-0.0001026,-7.3159,0.61501
7372,11.034,4.3636,0.1,0.0003091,3088.8,0.00030896,3084.7,-0.00010159,-0.0069314,-0.0001027,-8.345,0.61454
7373,11.034,4.5455,0.1,0.00030913,3089.2,0.00030897,3084.5,-0.00010155,-0.0068542,-0.00010279,-9.2823,0.614
7374,11.034,4.7273,0.1,0.00030915,3089.4,0.00030898,3084.4,-0.00010152,-0.0064206,-0.00010286,-10.066,0.61339
7375,11.034,4.9091,0.1,0.00030917,3089.6,0.00030899,3084.2,-0.0001015,-0.0054832,-0.00010291,-10.646,0.61271
7376,11.034,5.0909,0.1,0.00030917,3089.6,0.00030898,3084.1,-0.00010148,-0.0040077,-0.00010294,-10.986,0.61197
7377,11.034,5.2727,0.1,0.00030917,3089.6,0.00030898,3084,-0.00010148,-0.0014173,-0.00010295,-11.065,0.61115
7378,11.034,5.4545,0.1,0.00030916,3089.5,0.00030898,3084,-0.00010148,0.00074288,-0.00010293,-10.889,0.61027
7379,11.034,5.6364,0.1,0.00030917,3089.5,0.00030899,3084.3,-0.0001015,0.011561,-0.0001029,-10.528,0.60933
7380,11.034,5.8182,0.1,0.00030933,3091.2,0.00030914,3085.7,-0.00010153,0.0016845,-0.000103,-10.986,0.60831
7381,11.218,0.18182,0.1,0.0003041,3038.9,0.0003039,3033.1,-9.9778e-05,0.0023306,-0.00010132,-11.591,0.62702
7382,11.218,0.36364,0.1,0.000304,3037.9,0.00030379,3032,-9.9733e-05,0.014942,-0.0001013,-11.779,0.62802
7383,11.218,0.54545,0.1,0.00030405,3038.4,0.00030383,3032.1,-9.9707e-05,0.00084513,-0.0001014,-12.714,0.62896
7384,11.218,0.72727,0.1,0.00030412,3039.1,0.00030389,3032.4,-9.9695e-05,-0.0015989,-0.00010148,-13.386,0.62983
7385,11.218,0.90909,0.1,0.00030418,3039.7,0.00030394,3032.8,-9.9698e-05,-0.004604,-0.00010152,-13.719,0.63063
7386,11.218,1.0909,0.1,0.00030422,3040.1,0.00030399,3033.2,-9.9714e-05,-0.0061869,-0.00010154,-13.707,0.63136
7387,11.218,1.2727,0.1,0.00030425,3040.4,0.00030402,3033.7,-9.9741e-05,-0.0071398,-0.00010152,-13.372,0.63203
7388,11.218,1.4545,0.1,0.00030427,3040.6,0.00030405,3034.2,-9.9776e-05,-0.0075126,-0.00010147,-12.757,0.63263
7389,11.218,1.6364,0.1,0.00030427,3040.6,0.00030406,3034.6,-9.9818e-05,-0.0074993,-0.0001014,-11.922,0.63317
7390,11.218,1.8182,0.1,0.00030426,3040.5,0.00030407,3035,-9.9863e-05,-0.0072341,-0.00010132,-10.941,0.63364
7391,11.218,2,0.1,0.00030424,3040.3,0.00030407,3035.3,-9.9908e-05,-0.006843,-0.00010122,-9.8938,0.63404
7392,11.218,2.1818,0.1,0.00030421,3040,0.00030406,3035.6,-9.9951e-05,-0.0064308,-0.00010113,-8.863,0.63437
7393,11.218,2.3636,0.1,0.00030418,3039.7,0.00030405,3035.8,-9.9988e-05,-0.0060777,-0.00010104,-7.9275,0.63464
7394,11.218,2.5455,0.1,0.00030416,3039.5,0.00030404,3035.9,-0.00010002,-0.0058303,-0.00010097,-7.1578,0.63484
7395,11.218,2.7273,0.1,0.00030414,3039.3,0.00030403,3036,-0.00010004,-0.0056909,-0.00010092,-6.6109,0.63497
7396,11.218,2.9091,0.1,0.00030413,3039.2,0.00030402,3036.1,-0.00010005,-0.0056361,-0.00010089,-6.327,0.63504
7397,11.218,3.0909,0.1,0.00030413,3039.2,0.00030402,3036.1,-0.00010005,-0.0056355,-0.00010089,-6.327,0.63504
7398,11.218,3.2727,0.1,0.00030414,3039.3,0.00030403,3036,-0.00010004,-0.005691,-0.00010092,-6.6109,0.63497
7399,11.218,3.4545,0.1,0.00030416,3039.5,0.00030404,3035.9,-0.00010002,-0.0058305,-0.00010097,-7.1578,0.63484
7400,11.218,3.6364,0.1,0.00030418,3039.7,0.00030405,3035.8,-9.9988e-05,-0.0060775,-0.00010104,-7.9275,0.63464
7401,11.218,3.8182,0.1,0.00030421,3040,0.00030406,3035.6,-9.9951e-05,-0.0064305,-0.00010113,-8.863,0.63437
7402,11.218,4,0.1,0.00030424,3040.3,0.00030407,3035.3,-9.9908e-05,-0.0068426,-0.00010122,-9.8938,0.63404
7403,11.218,4.1818,0.1,0.00030426,3040.5,0.00030407,3035,-9.9863e-05,-0.007234,-0.00010132,-10.941,0.63364
7404,11.218,4.3636,0.1,0.00030427,3040.6,0.00030406,3034.6,-9.9818e-05,-0.0074985,-0.0001014,-11.922,0.63317
7405,11.218,4.5455,0.1,0.00030427,3040.6,0.00030405,3034.2,-9.9776e-05,-0.007512,-0.00010147,-12.757,0.63263
7406,11.218,4.7273,0.1,0.00030425,3040.4,0.00030402,3033.7,-9.9741e-05,-0.0071393,-0.00010152,-13.372,0.63203
7407,11.218,4.9091,0.1,0.00030422,3040.1,0.00030399,3033.2,-9.9714e-05,-0.006186,-0.00010154,-13.707,0.63136
7408,11.218,5.0909,0.1,0.00030418,3039.7,0.00030394,3032.8,-9.9698e-05,-0.0046025,-0.00010152,-13.719,0.63063
7409,11.218,5.2727,0.1,0.00030412,3039.1,0.00030389,3032.4,-9.9695e-05,-0.0015978,-0.00010148,-13.386,0.62983
7410,11.218,5.4545,0.1,0.00030405,3038.4,0.00030383,3032.1,-9.9707e-05,0.00084525,-0.0001014,-12.714,0.62896
7411,11.218,5.6364,0.1,0.000304,3037.9,0.00030379,3032,-9.9733e-05,0.014943,-0.0001013,-11.779,0.62802
7412,11.218,5.8182,0.1,0.0003041,3038.9,0.0003039,3033.1,-9.9778e-05,0.0023312,-0.00010132,-11.591,0.62702
7413,11.402,0.18182,0.1,0.00029885,2986.4,0.00029864,2980.3,-9.8014e-05,0.0034796,-9.9639e-05,-12.208,0.64594
7414,11.402,0.36364,0.1,0.00029881,2986.1,0.00029859,2979.5,-9.7957e-05,0.01859,-9.9704e-05,-13.104,0.64693
7415,11.402,0.54545,0.1,0.00029894,2987.3,0.00029869,2980,-9.7923e-05,0.00086553,-9.9874e-05,-14.657,0.64785
7416,11.402,0.72727,0.1,0.00029907,2988.6,0.0002988,2980.7,-9.7907e-05,-0.0018493,-0.00010002,-15.854,0.64871
7417,11.402,0.90909,0.1,0.00029919,2989.8,0.0002989,2981.5,-9.7909e-05,-0.005272,-0.00010012,-16.613,0.6495
7418,11.402,1.0909,0.1,0.00029929,2990.8,0.000299,2982.3,-9.7927e-05,-0.0069453,-0.00010018,-16.929,0.65022
7419,11.402,1.2727,0.1,0.00029937,2991.7,0.00029908,2983.2,-9.7959e-05,-0.0078961,-0.0001002,-16.826,0.65088
7420,11.402,1.4545,0.1,0.00029943,2992.2,0.00029915,2984,-9.8002e-05,-0.0081925,-0.00010018,-16.356,0.65148
7421,11.402,1.6364,0.1,0.00029947,2992.6,0.0002992,2984.8,-9.8052e-05,-0.0080725,-0.00010013,-15.591,0.652
7422,11.402,1.8182,0.1,0.00029949,2992.8,0.00029924,2985.5,-9.8107e-05,-0.007696,-0.00010005,-14.619,0.65247
7423,11.402,2,0.1,0.00029949,2992.9,0.00029926,2986.1,-9.8162e-05,-0.0072106,-9.9962e-05,-13.537,0.65286
7424,11.402,2.1818,0.1,0.00029949,2992.8,0.00029927,2986.5,-9.8214e-05,-0.0067306,-9.9869e-05,-12.445,0.65319
7425,11.402,2.3636,0.1,0.00029947,2992.7,0.00029928,2986.9,-9.826e-05,-0.0063395,-9.9781e-05,-11.438,0.65345
7426,11.402,2.5455,0.1,0.00029946,2992.5,0.00029928,2987.2,-9.8297e-05,-0.0060777,-9.9707e-05,-10.599,0.65365
7427,11.402,2.7273,0.1,0.00029945,2992.4,0.00029928,2987.4,-9.8323e-05,-0.0059349,-9.9653e-05,-9.9999,0.65378
7428,11.402,2.9091,0.1,0.00029944,2992.4,0.00029928,2987.5,-9.8337e-05,-0.0058793,-9.9625e-05,-9.6875,0.65385
7429,11.402,3.0909,0.1,0.00029944,2992.4,0.00029928,2987.5,-9.8337e-05,-0.0058789,-9.9625e-05,-9.6875,0.65385
7430,11.402,3.2727,0.1,0.00029945,2992.4,0.00029928,2987.4,-9.8323e-05,-0.0059347,-9.9653e-05,-9.9999,0.65378
7431,11.402,3.4545,0.1,0.00029946,2992.5,0.00029928,2987.2,-9.8297e-05,-0.006077,-9.9707e-05,-10.599,0.65365
7432,11.402,3.6364,0.1,0.00029947,2992.7,0.00029928,2986.9,-9.826e-05,-0.0063398,-9.9781e-05,-11.438,0.65345
7433,11.402,3.8182,0.1,0.00029949,2992.8,0.00029927,2986.5,-9.8214e-05,-0.0067307,-9.9869e-05,-12.445,0.65319
7434,11.402,4,0.1,0.00029949,2992.9,0.00029926,2986.1,-9.8162e-05,-0.0072102,-9.9962e-05,-13.537,0.65286
7435,11.402,4.1818,0.1,0.00029949,2992.8,0.00029924,2985.5,-9.8107e-05,-0.0076956,-0.00010005,-14.619,0.65247
7436,11.402,4.3636,0.1,0.00029947,2992.6,0.0002992,2984.8,-9.8052e-05,-0.0080718,-0.00010013,-15.591,0.652
7437,11.402,4.5455,0.1,0.00029943,2992.2,0.00029915,2984,-9.8002e-05,-0.0081919,-0.00010018,-16.356,0.65148
7438,11.402,4.7273,0.1,0.00029937,2991.7,0.00029908,2983.2,-9.7959e-05,-0.007896,-0.0001002,-16.826,0.65088
7439,11.402,4.9091,0.1,0.00029929,2990.8,0.000299,2982.3,-9.7927e-05,-0.0069442,-0.00010018,-16.929,0.65022
7440,11.402,5.0909,0.1,0.00029919,2989.8,0.0002989,2981.5,-9.7909e-05,-0.0052709,-0.00010012,-16.613,0.6495
7441,11.402,5.2727,0.1,0.00029907,2988.6,0.0002988,2980.7,-9.7907e-05,-0.0018484,-0.00010002,-15.854,0.64871
7442,11.402,5.4545,0.1,0.00029894,2987.3,0.00029869,2980,-9.7923e-05,0.00086573,-9.9874e-05,-14.657,0.64785
7443,11.402,5.6364,0.1,0.00029881,2986.1,0.00029859,2979.5,-9.7957e-05,0.01859,-9.9704e-05,-13.104,0.64693
7444,11.402,5.8182,0.1,0.00029885,2986.4,0.00029864,2980.3,-9.8014e-05,0.0034816,-9.9639e-05,-12.208,0.64594
7445,11.586,0.18182,0.1,0.00029357,2933.7,0.00029335,2927.2,-9.624e-05,0.0051476,-9.795e-05,-12.846,0.66506
7446,11.586,0.36364,0.1,0.00029361,2934.1,0.00029336,2926.8,-9.617e-05,0.022473,-9.8106e-05,-14.526,0.66603
7447,11.586,0.54545,0.1,0.00029382,2936.1,0.00029353,2927.7,-9.6128e-05,0.00069377,-9.8358e-05,-16.754,0.66694
7448,11.586,0.72727,0.1,0.00029402,2938.2,0.0002937,2928.9,-9.6108e-05,-0.002283,-9.8572e-05,-18.512,0.66779
7449,11.586,0.90909,0.1,0.00029421,2940.1,0.00029387,2930.1,-9.6111e-05,-0.0061321,-9.8735e-05,-19.718,0.66857
7450,11.586,1.0909,0.1,0.00029437,2941.7,0.00029402,2931.5,-9.6134e-05,-0.0078755,-9.8843e-05,-20.363,0.66928
7451,11.586,1.2727,0.1,0.00029451,2943.1,0.00029416,2932.8,-9.6174e-05,-0.008799,-9.8898e-05,-20.479,0.66994
7452,11.586,1.4545,0.1,0.00029462,2944.2,0.00029427,2934.1,-9.6227e-05,-0.0089919,-9.8905e-05,-20.127,0.67052
7453,11.586,1.6364,0.1,0.0002947,2945,0.00029437,2935.2,-9.629e-05,-0.0087384,-9.8871e-05,-19.395,0.67104
7454,11.586,1.8182,0.1,0.00029476,2945.5,0.00029444,2936.3,-9.6359e-05,-0.0082276,-9.8805e-05,-18.389,0.6715
7455,11.586,2,0.1,0.00029479,2945.9,0.00029449,2937.2,-9.6427e-05,-0.0076302,-9.8719e-05,-17.226,0.67189
7456,11.586,2.1818,0.1,0.00029481,2946,0.00029453,2938,-9.6492e-05,-0.0070751,-9.8624e-05,-16.026,0.67222
7457,11.586,2.3636,0.1,0.00029481,2946.1,0.00029456,2938.6,-9.655e-05,-0.0066486,-9.8532e-05,-14.904,0.67248
7458,11.586,2.5455,0.1,0.00029481,2946.1,0.00029457,2939.1,-9.6596e-05,-0.0063829,-9.8453e-05,-13.962,0.67267
7459,11.586,2.7273,0.1,0.00029481,2946,0.00029458,2939.4,-9.6628e-05,-0.0062542,-9.8396e-05,-13.285,0.6728
7460,11.586,2.9091,0.1,0.00029481,2946,0.00029458,2939.5,-9.6645e-05,-0.0062106,-9.8365e-05,-12.932,0.67287
7461,11.586,3.0909,0.1,0.00029481,2946,0.00029458,2939.5,-9.6645e-05,-0.0062108,-9.8365e-05,-12.932,0.67287
7462,11.586,3.2727,0.1,0.00029481,2946,0.00029458,2939.4,-9.6628e-05,-0.0062543,-9.8396e-05,-13.285,0.6728
7463,11.586,3.4545,0.1,0.00029481,2946.1,0.00029457,2939.1,-9.6596e-05,-0.0063829,-9.8453e-05,-13.962,0.67267
7464,11.586,3.6364,0.1,0.00029481,2946.1,0.00029456,2938.6,-9.655e-05,-0.0066487,-9.8532e-05,-14.904,0.67248
7465,11.586,3.8182,0.1,0.00029481,2946,0.00029453,2938,-9.6492e-05,-0.0070749,-9.8624e-05,-16.026,0.67222
7466,11.586,4,0.1,0.00029479,2945.9,0.00029449,2937.2,-9.6427e-05,-0.0076298,-9.8719e-05,-17.226,0.67189
7467,11.586,4.1818,0.1,0.00029476,2945.5,0.00029444,2936.3,-9.6359e-05,-0.0082267,-9.8805e-05,-18.389,0.6715
7468,11.586,4.3636,0.1,0.0002947,2945,0.00029437,2935.2,-9.629e-05,-0.0087379,-9.8871e-05,-19.395,0.67104
7469,11.586,4.5455,0.1,0.00029462,2944.2,0.00029427,2934.1,-9.6227e-05,-0.0089918,-9.8905e-05,-20.127,0.67052
7470,11.586,4.7273,0.1,0.00029451,2943.1,0.00029416,2932.8,-9.6174e-05,-0.008799,-9.8898e-05,-20.479,0.66994
7471,11.586,4.9091,0.1,0.00029437,2941.7,0.00029402,2931.5,-9.6134e-05,-0.0078748,-9.8843e-05,-20.363,0.66928
7472,11.586,5.0909,0.1,0.00029421,2940.1,0.00029387,2930.1,-9.6111e-05,-0.006131,-9.8735e-05,-19.718,0.66857
7473,11.586,5.2727,0.1,0.00029402,2938.2,0.0002937,2928.9,-9.6108e-05,-0.0022809,-9.8572e-05,-18.512,0.66779
7474,11.586,5.4545,0.1,0.00029382,2936.1,0.00029353,2927.7,-9.6128e-05,0.00069336,-9.8358e-05,-16.754,0.66694
7475,11.586,5.6364,0.1,0.00029361,2934.1,0.00029336,2926.8,-9.617e-05,0.022473,-9.8106e-05,-14.526,0.66603
7476,11.586,5.8182,0.1,0.00029357,2933.7,0.00029335,2927.2,-9.624e-05,0.0051484,-9.795e-05,-12.846,0.66506
7477,11.77,0.18182,0.1,0.00028825,2880.5,0.00028801,2873.7,-9.4451e-05,0.007567,-9.625e-05,-13.514,0.68437
7478,11.77,0.36364,0.1,0.00028838,2881.8,0.00028811,2873.8,-9.4367e-05,0.026755,-9.651e-05,-16.073,0.68533
7479,11.77,0.54545,0.1,0.00028867,2884.7,0.00028834,2875.2,-9.4317e-05,0.0004072,-9.6852e-05,-19.043,0.68623
7480,11.77,0.72727,0.1,0.00028896,2887.6,0.00028859,2876.9,-9.4295e-05,-0.0028162,-9.7144e-05,-21.41,0.68707
7481,11.77,0.90909,0.1,0.00028923,2890.3,0.00028883,2878.7,-9.4301e-05,-0.0071012,-9.7373e-05,-23.087,0.68784
7482,11.77,1.0909,0.1,0.00028947,2892.7,0.00028906,2880.6,-9.4332e-05,-0.0088869,-9.7534e-05,-24.067,0.68854
7483,11.77,1.2727,0.1,0.00028968,2894.8,0.00028925,2882.5,-9.4384e-05,-0.0097538,-9.7628e-05,-24.387,0.68919
7484,11.77,1.4545,0.1,0.00028985,2896.5,0.00028943,2884.3,-9.4452e-05,-0.009801,-9.7662e-05,-24.124,0.68977
7485,11.77,1.6364,0.1,0.00028998,2897.8,0.00028957,2886,-9.4532e-05,-0.0093769,-9.7643e-05,-23.384,0.69028
7486,11.77,1.8182,0.1,0.00029007,2898.7,0.00028969,2887.5,-9.4619e-05,-0.0087021,-9.7585e-05,-22.294,0.69073
7487,11.77,2,0.1,0.00029014,2899.4,0.00028978,2888.8,-9.4705e-05,-0.0079745,-9.7499e-05,-20.995,0.69112
7488,11.77,2.1818,0.1,0.00029018,2899.8,0.00028985,2890,-9.4787e-05,-0.0073406,-9.7399e-05,-19.633,0.69144
7489,11.77,2.3636,0.1,0.00029021,2900.1,0.00028989,2890.9,-9.486e-05,-0.0068917,-9.73e-05,-18.347,0.6917
7490,11.77,2.5455,0.1,0.00029022,2900.2,0.00028993,2891.6,-9.4918e-05,-0.0066469,-9.7214e-05,-17.262,0.69189
7491,11.77,2.7273,0.1,0.00029023,2900.3,0.00028994,2892,-9.4959e-05,-0.0065574,-9.7151e-05,-16.478,0.69202
7492,11.77,2.9091,0.1,0.00029023,2900.3,0.00028995,2892.2,-9.498e-05,-0.0065437,-9.7117e-05,-16.068,0.69208
7493,11.77,3.0909,0.1,0.00029023,2900.3,0.00028995,2892.2,-9.498e-05,-0.0065443,-9.7117e-05,-16.068,0.69208
7494,11.77,3.2727,0.1,0.00029023,2900.3,0.00028994,2892,-9.4959e-05,-0.0065573,-9.7151e-05,-16.478,0.69202
7495,11.77,3.4545,0.1,0.00029022,2900.2,0.00028993,2891.6,-9.4918e-05,-0.0066465,-9.7214e-05,-17.262,0.69189
7496,11.77,3.6364,0.1,0.00029021,2900.1,0.00028989,2890.9,-9.486e-05,-0.0068915,-9.73e-05,-18.347,0.6917
7497,11.77,3.8182,0.1,0.00029018,2899.8,0.00028985,2890,-9.4787e-05,-0.0073409,-9.7399e-05,-19.633,0.69144
7498,11.77,4,0.1,0.00029014,2899.4,0.00028978,2888.8,-9.4705e-05,-0.0079743,-9.7499e-05,-20.995,0.69112
7499,11.77,4.1818,0.1,0.00029007,2898.7,0.00028969,2887.5,-9.4619e-05,-0.0087019,-9.7585e-05,-22.294,0.69073
7500,11.77,4.3636,0.1,0.00028998,2897.8,0.00028957,2886,-9.4532e-05,-0.0093767,-9.7643e-05,-23.384,0.69028
7501,11.77,4.5455,0.1,0.00028985,2896.5,0.00028943,2884.3,-9.4452e-05,-0.0098006,-9.7662e-05,-24.124,0.68977
7502,11.77,4.7273,0.1,0.00028968,2894.8,0.00028925,2882.5,-9.4384e-05,-0.0097525,-9.7628e-05,-24.387,0.68919
7503,11.77,4.9091,0.1,0.00028947,2892.7,0.00028906,2880.6,-9.4332e-05,-0.0088864,-9.7534e-05,-24.067,0.68854
7504,11.77,5.0909,0.1,0.00028923,2890.3,0.00028883,2878.7,-9.4301e-05,-0.0071004,-9.7373e-05,-23.087,0.68784
7505,11.77,5.2727,0.1,0.00028896,2887.6,0.00028859,2876.9,-9.4295e-05,-0.0028153,-9.7144e-05,-21.41,0.68707
7506,11.77,5.4545,0.1,0.00028867,2884.7,0.00028834,2875.2,-9.4317e-05,0.00040795,-9.6852e-05,-19.043,0.68623
7507,11.77,5.6364,0.1,0.00028838,2881.8,0.00028811,2873.8,-9.4367e-05,0.026756,-9.651e-05,-16.073,0.68533
7508,11.77,5.8182,0.1,0.00028825,2880.5,0.00028801,2873.7,-9.4451e-05,0.0075687,-9.625e-05,-13.513,0.68437
7509,11.954,0.18182,0.1,0.00028287,2826.7,0.00028262,2819.6,-9.264e-05,0.010923,-9.4535e-05,-14.223,0.70388
7510,11.954,0.36364,0.1,0.00028311,2829.1,0.0002828,2820.2,-9.2541e-05,0.031517,-9.4911e-05,-17.776,0.70483
7511,11.954,0.54545,0.1,0.0002835,2833,0.00028313,2822.2,-9.2485e-05,-1.2323e-05,-9.5355e-05,-21.569,0.70571
7512,11.954,0.72727,0.1,0.00028389,2836.9,0.00028346,2824.5,-9.2462e-05,-0.0034583,-9.5736e-05,-24.602,0.70654
7513,11.954,0.90909,0.1,0.00028425,2840.6,0.00028379,2827.1,-9.2474e-05,-0.008186,-9.6038e-05,-26.783,0.7073
7514,11.954,1.0909,0.1,0.00028458,2843.8,0.00028409,2829.7,-9.2517e-05,-0.0099736,-9.6256e-05,-28.105,0.708
7515,11.954,1.2727,0.1,0.00028486,2846.7,0.00028437,2832.3,-9.2585e-05,-0.010735,-9.6392e-05,-28.617,0.70863
7516,11.954,1.4545,0.1,0.0002851,2849.1,0.00028461,2834.7,-9.2674e-05,-0.010589,-9.6454e-05,-28.41,0.70921
7517,11.954,1.6364,0.1,0.00028529,2851,0.00028481,2837.1,-9.2777e-05,-0.0099476,-9.6451e-05,-27.614,0.70971
7518,11.954,1.8182,0.1,0.00028544,2852.4,0.00028498,2839.2,-9.2887e-05,-0.009072,-9.6397e-05,-26.381,0.71016
7519,11.954,2,0.1,0.00028555,2853.5,0.00028512,2841,-9.2997e-05,-0.0081955,-9.6308e-05,-24.884,0.71054
7520,11.954,2.1818,0.1,0.00028563,2854.3,0.00028522,2842.6,-9.3101e-05,-0.0074859,-9.6201e-05,-23.298,0.71086
7521,11.954,2.3636,0.1,0.00028568,2854.8,0.0002853,2843.8,-9.3193e-05,-0.007039,-9.6092e-05,-21.791,0.71111
7522,11.954,2.5455,0.1,0.00028571,2855.1,0.00028535,2844.8,-9.3266e-05,-0.0068561,-9.5996e-05,-20.514,0.7113
7523,11.954,2.7273,0.1,0.00028573,2855.3,0.00028539,2845.4,-9.3318e-05,-0.0068498,-9.5924e-05,-19.589,0.71143
7524,11.954,2.9091,0.1,0.00028573,2855.4,0.0002854,2845.8,-9.3345e-05,-0.0068942,-9.5886e-05,-19.105,0.71149
7525,11.954,3.0909,0.1,0.00028573,2855.4,0.0002854,2845.8,-9.3345e-05,-0.0068942,-9.5886e-05,-19.105,0.71149
7526,11.954,3.2727,0.1,0.00028573,2855.3,0.00028539,2845.4,-9.3318e-05,-0.0068498,-9.5924e-05,-19.589,0.71143
7527,11.954,3.4545,0.1,0.00028571,2855.1,0.00028535,2844.8,-9.3266e-05,-0.0068559,-9.5996e-05,-20.514,0.7113
7528,11.954,3.6364,0.1,0.00028568,2854.8,0.0002853,2843.8,-9.3193e-05,-0.0070385,-9.6092e-05,-21.791,0.71111
7529,11.954,3.8182,0.1,0.00028563,2854.3,0.00028522,2842.6,-9.3101e-05,-0.0074857,-9.6201e-05,-23.298,0.71086
7530,11.954,4,0.1,0.00028555,2853.5,0.00028512,2841,-9.2997e-05,-0.0081956,-9.6308e-05,-24.884,0.71054
7531,11.954,4.1818,0.1,0.00028544,2852.4,0.00028498,2839.2,-9.2887e-05,-0.0090716,-9.6397e-05,-26.381,0.71016
7532,11.954,4.3636,0.1,0.00028529,2851,0.00028481,2837.1,-9.2777e-05,-0.0099466,-9.6451e-05,-27.614,0.70971
7533,11.954,4.5455,0.1,0.0002851,2849.1,0.00028461,2834.7,-9.2674e-05,-0.010588,-9.6454e-05,-28.41,0.70921
7534,11.954,4.7273,0.1,0.00028486,2846.7,0.00028437,2832.3,-9.2585e-05,-0.010734,-9.6392e-05,-28.617,0.70863
7535,11.954,4.9091,0.1,0.00028458,2843.8,0.00028409,2829.7,-9.2517e-05,-0.0099731,-9.6256e-05,-28.105,0.708
7536,11.954,5.0909,0.1,0.00028425,2840.6,0.00028379,2827.1,-9.2474e-05,-0.0081848,-9.6038e-05,-26.783,0.7073
7537,11.954,5.2727,0.1,0.00028389,2836.9,0.00028346,2824.5,-9.2462e-05,-0.0034568,-9.5736e-05,-24.602,0.70654
7538,11.954,5.4545,0.1,0.0002835,2833,0.00028313,2822.2,-9.2485e-05,-1.162e-05,-9.5355e-05,-21.569,0.70571
7539,11.954,5.6364,0.1,0.00028311,2829.1,0.0002828,2820.2,-9.2541e-05,0.031517,-9.4911e-05,-17.776,0.70483
7540,11.954,5.8182,0.1,0.00028287,2826.7,0.00028262,2819.6,-9.264e-05,0.010923,-9.4535e-05,-14.223,0.70388
7541,12.138,0.18182,0.1,0.00027741,2772.2,0.00027715,2764.7,-9.0801e-05,0.015364,-9.2798e-05,-14.987,0.72358
7542,12.138,0.36364,0.1,0.00027777,2775.8,0.00027744,2766,-9.0687e-05,0.036764,-9.3309e-05,-19.668,0.72451
7543,12.138,0.54545,0.1,0.00027828,2780.9,0.00027786,2768.7,-9.0623e-05,-0.00065861,-9.3869e-05,-24.385,0.72539
7544,12.138,0.72727,0.1,0.00027879,2786,0.0002783,2771.8,-9.0603e-05,-0.0042855,-9.4349e-05,-28.152,0.7262
7545,12.138,0.90909,0.1,0.00027926,2790.7,0.00027873,2775.1,-9.0624e-05,-0.0094544,-9.4732e-05,-30.875,0.72696
7546,12.138,1.0909,0.1,0.0002797,2795,0.00027913,2778.6,-9.0683e-05,-0.01119,-9.5014e-05,-32.552,0.72765
7547,12.138,1.2727,0.1,0.00028007,2798.8,0.00027949,2782,-9.0774e-05,-0.011785,-9.5197e-05,-33.241,0.72827
7548,12.138,1.4545,0.1,0.0002804,2802,0.00027982,2785.4,-9.089e-05,-0.011379,-9.5288e-05,-33.055,0.72884
7549,12.138,1.6364,0.1,0.00028066,2804.7,0.0002801,2788.5,-9.1022e-05,-0.01046,-9.53e-05,-32.149,0.72934
7550,12.138,1.8182,0.1,0.00028087,2806.8,0.00028034,2791.3,-9.1163e-05,-0.0093406,-9.5249e-05,-30.708,0.72978
7551,12.138,2,0.1,0.00028103,2808.4,0.00028053,2793.8,-9.1304e-05,-0.008296,-9.5155e-05,-28.941,0.73016
7552,12.138,2.1818,0.1,0.00028115,2809.6,0.00028068,2795.9,-9.1437e-05,-0.0075225,-9.5037e-05,-27.057,0.73047
7553,12.138,2.3636,0.1,0.00028123,2810.4,0.00028079,2797.7,-9.1553e-05,-0.0071211,-9.4914e-05,-25.261,0.73072
7554,12.138,2.5455,0.1,0.00028129,2810.9,0.00028087,2799,-9.1647e-05,-0.007066,-9.4805e-05,-23.736,0.73091
7555,12.138,2.7273,0.1,0.00028132,2811.2,0.00028093,2799.8,-9.1712e-05,-0.0072111,-9.4723e-05,-22.632,0.73103
7556,12.138,2.9091,0.1,0.00028133,2811.4,0.00028095,2800.3,-9.1746e-05,-0.007356,-9.468e-05,-22.052,0.7311
7557,12.138,3.0909,0.1,0.00028133,2811.4,0.00028095,2800.3,-9.1746e-05,-0.007356,-9.468e-05,-22.052,0.7311
7558,12.138,3.2727,0.1,0.00028132,2811.2,0.00028093,2799.8,-9.1712e-05,-0.0072113,-9.4723e-05,-22.632,0.73103
7559,12.138,3.4545,0.1,0.00028129,2810.9,0.00028087,2799,-9.1647e-05,-0.0070662,-9.4805e-05,-23.736,0.73091
7560,12.138,3.6364,0.1,0.00028123,2810.4,0.00028079,2797.7,-9.1553e-05,-0.0071211,-9.4914e-05,-25.261,0.73072
7561,12.138,3.8182,0.1,0.00028115,2809.6,0.00028068,2795.9,-9.1437e-05,-0.0075223,-9.5037e-05,-27.057,0.73047
7562,12.138,4,0.1,0.00028103,2808.4,0.00028053,2793.8,-9.1304e-05,-0.0082957,-9.5155e-05,-28.941,0.73016
7563,12.138,4.1818,0.1,0.00028087,2806.8,0.00028034,2791.3,-9.1163e-05,-0.0093403,-9.5249e-05,-30.708,0.72978
7564,12.138,4.3636,0.1,0.00028066,2804.7,0.0002801,2788.5,-9.1022e-05,-0.01046,-9.53e-05,-32.149,0.72934
7565,12.138,4.5455,0.1,0.0002804,2802,0.00027982,2785.4,-9.089e-05,-0.011378,-9.5288e-05,-33.055,0.72884
7566,12.138,4.7273,0.1,0.00028007,2798.8,0.00027949,2782,-9.0774e-05,-0.011784,-9.5197e-05,-33.241,0.72827
7567,12.138,4.9091,0.1,0.0002797,2795,0.00027913,2778.6,-9.0683e-05,-0.011189,-9.5014e-05,-32.552,0.72765
7568,12.138,5.0909,0.1,0.00027926,2790.7,0.00027873,2775.1,-9.0624e-05,-0.0094527,-9.4732e-05,-30.875,0.72696
7569,12.138,5.2727,0.1,0.00027879,2786,0.0002783,2771.8,-9.0603e-05,-0.0042842,-9.4349e-05,-28.152,0.7262
7570,12.138,5.4545,0.1,0.00027828,2780.9,0.00027786,2768.7,-9.0623e-05,-0.00065851,-9.3869e-05,-24.385,0.72539
7571,12.138,5.6364,0.1,0.00027777,2775.8,0.00027744,2766,-9.0687e-05,0.036765,-9.3309e-05,-19.668,0.72451
7572,12.138,5.8182,0.1,0.00027741,2772.2,0.00027715,2764.7,-9.0801e-05,0.015364,-9.2798e-05,-14.987,0.72358
7573,12.322,0.18182,0.1,0.00027185,2716.6,0.00027158,2708.7,-8.8925e-05,0.021191,-9.1033e-05,-15.82,0.74346
7574,12.322,0.36364,0.1,0.00027236,2721.7,0.00027198,2710.8,-8.8793e-05,0.042629,-9.1699e-05,-21.789,0.74439
7575,12.322,0.54545,0.1,0.00027301,2728.2,0.00027253,2714.3,-8.8724e-05,-0.0015105,-9.2391e-05,-27.547,0.74525
7576,12.322,0.72727,0.1,0.00027365,2734.6,0.00027309,2718.4,-8.8708e-05,-0.005249,-9.2984e-05,-32.129,0.74606
7577,12.322,0.90909,0.1,0.00027426,2740.7,0.00027364,2722.8,-8.8744e-05,-0.010843,-9.346e-05,-35.444,0.7468
7578,12.322,1.0909,0.1,0.00027481,2746.2,0.00027415,2727.3,-8.8826e-05,-0.012452,-9.3814e-05,-37.49,0.74748
7579,12.322,1.2727,0.1,0.00027531,2751.2,0.00027463,2731.8,-8.8946e-05,-0.012799,-9.4048e-05,-38.343,0.7481
7580,12.322,1.4545,0.1,0.00027573,2755.4,0.00027506,2736.1,-8.9097e-05,-0.012048,-9.4171e-05,-38.139,0.74866
7581,12.322,1.6364,0.1,0.00027609,2759,0.00027544,2740.2,-8.9268e-05,-0.010779,-9.4199e-05,-37.062,0.74916
7582,12.322,1.8182,0.1,0.00027638,2761.9,0.00027576,2744,-8.9449e-05,-0.0093601,-9.4151e-05,-35.339,0.74959
7583,12.322,2,0.1,0.0002766,2764.1,0.00027602,2747.3,-8.9629e-05,-0.0081266,-9.4049e-05,-33.217,0.74996
7584,12.322,2.1818,0.1,0.00027677,2765.8,0.00027623,2750.2,-8.9798e-05,-0.0073132,-9.3916e-05,-30.952,0.75027
7585,12.322,2.3636,0.1,0.00027689,2767,0.00027639,2752.5,-8.9946e-05,-0.0070272,-9.3776e-05,-28.79,0.75052
7586,12.322,2.5455,0.1,0.00027698,2767.9,0.00027651,2754.3,-9.0064e-05,-0.0072023,-9.3651e-05,-26.952,0.7507
7587,12.322,2.7273,0.1,0.00027703,2768.4,0.00027658,2755.5,-9.0148e-05,-0.0076029,-9.3556e-05,-25.62,0.75083
7588,12.322,2.9091,0.1,0.00027705,2768.6,0.00027662,2756.1,-9.019e-05,-0.0079161,-9.3506e-05,-24.921,0.75089
7589,12.322,3.0909,0.1,0.00027705,2768.6,0.00027662,2756.1,-9.019e-05,-0.0079163,-9.3506e-05,-24.921,0.75089
7590,12.322,3.2727,0.1,0.00027703,2768.4,0.00027658,2755.5,-9.0148e-05,-0.0076026,-9.3556e-05,-25.62,0.75083
7591,12.322,3.4545,0.1,0.00027698,2767.9,0.00027651,2754.3,-9.0064e-05,-0.0072019,-9.3651e-05,-26.952,0.7507
7592,12.322,3.6364,0.1,0.00027689,2767,0.00027639,2752.5,-8.9946e-05,-0.0070271,-9.3776e-05,-28.79,0.75052
7593,12.322,3.8182,0.1,0.00027677,2765.8,0.00027623,2750.2,-8.9798e-05,-0.0073128,-9.3916e-05,-30.952,0.75027
7594,12.322,4,0.1,0.0002766,2764.1,0.00027602,2747.3,-8.9629e-05,-0.0081262,-9.4049e-05,-33.217,0.74996
7595,12.322,4.1818,0.1,0.00027638,2761.9,0.00027576,2744,-8.9449e-05,-0.0093597,-9.4151e-05,-35.339,0.74959
7596,12.322,4.3636,0.1,0.00027609,2759,0.00027544,2740.2,-8.9268e-05,-0.010779,-9.4199e-05,-37.062,0.74916
7597,12.322,4.5455,0.1,0.00027573,2755.4,0.00027506,2736.1,-8.9097e-05,-0.012047,-9.4171e-05,-38.139,0.74866
7598,12.322,4.7273,0.1,0.00027531,2751.2,0.00027463,2731.8,-8.8946e-05,-0.012798,-9.4048e-05,-38.343,0.7481
7599,12.322,4.9091,0.1,0.00027481,2746.2,0.00027415,2727.3,-8.8826e-05,-0.012451,-9.3814e-05,-37.49,0.74748
7600,12.322,5.0909,0.1,0.00027426,2740.7,0.00027364,2722.8,-8.8744e-05,-0.010842,-9.346e-05,-35.444,0.7468
7601,12.322,5.2727,0.1,0.00027365,2734.6,0.00027309,2718.4,-8.8708e-05,-0.0052478,-9.2984e-05,-32.13,0.74606
7602,12.322,5.4545,0.1,0.00027301,2728.2,0.00027253,2714.3,-8.8724e-05,-0.0015096,-9.2391e-05,-27.547,0.74525
7603,12.322,5.6364,0.1,0.00027236,2721.7,0.00027198,2710.8,-8.8793e-05,0.04263,-9.1699e-05,-21.789,0.74439
7604,12.322,5.8182,0.1,0.00027185,2716.6,0.00027158,2708.7,-8.8925e-05,0.021192,-9.1033e-05,-15.82,0.74346
7605,12.506,0.18182,0.1,0.00026616,2659.8,0.00026587,2651.4,-8.6999e-05,0.028588,-8.9231e-05,-16.74,0.76353
7606,12.506,0.36364,0.1,0.00026683,2666.5,0.00026641,2654.3,-8.685e-05,0.049099,-9.0075e-05,-24.182,0.76444
7607,12.506,0.54545,0.1,0.00026764,2674.6,0.0002671,2658.9,-8.6777e-05,-0.002684,-9.0918e-05,-31.118,0.7653
7608,12.506,0.72727,0.1,0.00026845,2682.6,0.00026781,2664.1,-8.6769e-05,-0.0064291,-9.1641e-05,-36.613,0.76609
7609,12.506,0.90909,0.1,0.00026921,2690.3,0.0002685,2669.8,-8.6824e-05,-0.012413,-9.2223e-05,-40.577,0.76683
7610,12.506,1.0909,0.1,0.00026992,2697.4,0.00026916,2675.6,-8.6936e-05,-0.013794,-9.2659e-05,-43.015,0.7675
7611,12.506,1.2727,0.1,0.00027056,2703.7,0.00026978,2681.4,-8.7096e-05,-0.013787,-9.2952e-05,-44.02,0.76812
7612,12.506,1.4545,0.1,0.00027111,2709.2,0.00027034,2687.1,-8.7292e-05,-0.012583,-9.3113e-05,-43.755,0.76867
7613,12.506,1.6364,0.1,0.00027158,2713.9,0.00027083,2692.5,-8.7512e-05,-0.010867,-9.3159e-05,-42.442,0.76916
7614,12.506,1.8182,0.1,0.00027197,2717.8,0.00027126,2697.4,-8.7744e-05,-0.0090817,-9.3113e-05,-40.35,0.76959
7615,12.506,2,0.1,0.00027228,2720.9,0.00027161,2701.8,-8.7974e-05,-0.0076386,-9.3001e-05,-37.778,0.76995
7616,12.506,2.1818,0.1,0.00027251,2723.2,0.0002719,2705.6,-8.8189e-05,-0.0068243,-9.2851e-05,-35.034,0.77026
7617,12.506,2.3636,0.1,0.00027269,2725,0.00027212,2708.6,-8.8377e-05,-0.0067584,-9.269e-05,-32.415,0.7705
7618,12.506,2.5455,0.1,0.00027281,2726.2,0.00027228,2711,-8.8528e-05,-0.0073168,-9.2545e-05,-30.189,0.77069
7619,12.506,2.7273,0.1,0.00027289,2727,0.00027239,2712.6,-8.8634e-05,-0.0081313,-9.2436e-05,-28.575,0.77081
7620,12.506,2.9091,0.1,0.00027292,2727.3,0.00027244,2713.4,-8.8688e-05,-0.0087149,-9.2377e-05,-27.728,0.77087
7621,12.506,3.0909,0.1,0.00027292,2727.3,0.00027244,2713.4,-8.8688e-05,-0.0087146,-9.2377e-05,-27.728,0.77087
7622,12.506,3.2727,0.1,0.00027289,2727,0.00027239,2712.6,-8.8634e-05,-0.0081313,-9.2436e-05,-28.575,0.77081
7623,12.506,3.4545,0.1,0.00027281,2726.2,0.00027228,2711,-8.8528e-05,-0.0073172,-9.2545e-05,-30.189,0.77069
7624,12.506,3.6364,0.1,0.00027269,2725,0.00027212,2708.6,-8.8377e-05,-0.0067577,-9.269e-05,-32.415,0.7705
7625,12.506,3.8182,0.1,0.00027251,2723.2,0.0002719,2705.6,-8.8189e-05,-0.0068244,-9.2851e-05,-35.034,0.77026
7626,12.506,4,0.1,0.00027228,2720.9,0.00027161,2701.8,-8.7974e-05,-0.0076379,-9.3001e-05,-37.778,0.76995
7627,12.506,4.1818,0.1,0.00027197,2717.8,0.00027126,2697.4,-8.7744e-05,-0.0090818,-9.3113e-05,-40.35,0.76959
7628,12.506,4.3636,0.1,0.00027158,2713.9,0.00027083,2692.5,-8.7512e-05,-0.010866,-9.3159e-05,-42.442,0.76916
7629,12.506,4.5455,0.1,0.00027111,2709.2,0.00027034,2687.1,-8.7292e-05,-0.012582,-9.3113e-05,-43.755,0.76867
7630,12.506,4.7273,0.1,0.00027056,2703.7,0.00026978,2681.4,-8.7096e-05,-0.013787,-9.2952e-05,-44.02,0.76812
7631,12.506,4.9091,0.1,0.00026992,2697.4,0.00026916,2675.6,-8.6936e-05,-0.013793,-9.2659e-05,-43.015,0.7675
7632,12.506,5.0909,0.1,0.00026921,2690.3,0.0002685,2669.8,-8.6824e-05,-0.012412,-9.2223e-05,-40.577,0.76683
7633,12.506,5.2727,0.1,0.00026845,2682.6,0.00026781,2664.1,-8.6769e-05,-0.0064268,-9.1641e-05,-36.613,0.76609
7634,12.506,5.4545,0.1,0.00026764,2674.6,0.0002671,2658.9,-8.6777e-05,-0.0026833,-9.0918e-05,-31.118,0.7653
7635,12.506,5.6364,0.1,0.00026683,2666.5,0.00026641,2654.3,-8.685e-05,0.0491,-9.0075e-05,-24.182,0.76444
7636,12.506,5.8182,0.1,0.00026616,2659.8,0.00026587,2651.4,-8.6999e-05,0.028588,-8.9231e-05,-16.74,0.76353
7637,12.69,0.18182,0.1,0.00026029,2601.1,0.00025999,2592.2,-8.5012e-05,0.037885,-8.7381e-05,-17.766,0.78378
7638,12.69,0.36364,0.1,0.00026116,2609.8,0.0002607,2596.3,-8.4843e-05,0.05632,-8.8431e-05,-26.896,0.78468
7639,12.69,0.54545,0.1,0.00026217,2619.9,0.00026155,2602.1,-8.4768e-05,-0.0041249,-8.9448e-05,-35.168,0.78553
7640,12.69,0.72727,0.1,0.00026317,2629.9,0.00026243,2608.8,-8.4773e-05,-0.0077171,-9.032e-05,-41.689,0.78631
7641,12.69,0.90909,0.1,0.00026412,2639.4,0.0002633,2615.9,-8.4855e-05,-0.014026,-9.1025e-05,-46.372,0.78704
7642,12.69,1.0909,0.1,0.00026502,2648.3,0.00026414,2623.4,-8.5006e-05,-0.015042,-9.1557e-05,-49.233,0.78771
7643,12.69,1.2727,0.1,0.00026582,2656.4,0.00026493,2630.9,-8.5216e-05,-0.014545,-9.1919e-05,-50.382,0.78831
7644,12.69,1.4545,0.1,0.00026654,2663.5,0.00026565,2638.2,-8.547e-05,-0.012749,-9.2124e-05,-50.012,0.78886
7645,12.69,1.6364,0.1,0.00026715,2669.7,0.00026629,2645.1,-8.5753e-05,-0.010464,-9.2192e-05,-48.389,0.78934
7646,12.69,1.8182,0.1,0.00026766,2674.8,0.00026685,2651.6,-8.6049e-05,-0.0082267,-9.2148e-05,-45.834,0.78977
7647,12.69,2,0.1,0.00026808,2678.9,0.00026733,2657.3,-8.6343e-05,-0.0065493,-9.2025e-05,-42.704,0.79013
7648,12.69,2.1818,0.1,0.0002684,2682.2,0.00026771,2662.3,-8.6616e-05,-0.0057936,-9.1855e-05,-39.369,0.79043
7649,12.69,2.3636,0.1,0.00026865,2684.6,0.00026801,2666.3,-8.6856e-05,-0.0061005,-9.1671e-05,-36.188,0.79067
7650,12.69,2.5455,0.1,0.00026882,2686.3,0.00026824,2669.4,-8.7048e-05,-0.007269,-9.1503e-05,-33.486,0.79086
7651,12.69,2.7273,0.1,0.00026893,2687.5,0.00026838,2671.5,-8.7182e-05,-0.0087326,-9.1376e-05,-31.526,0.79098
7652,12.69,2.9091,0.1,0.00026898,2688,0.00026845,2672.6,-8.7251e-05,-0.0097403,-9.1308e-05,-30.498,0.79104
7653,12.69,3.0909,0.1,0.00026898,2688,0.00026845,2672.6,-8.7251e-05,-0.0097406,-9.1308e-05,-30.498,0.79104
7654,12.69,3.2727,0.1,0.00026893,2687.5,0.00026838,2671.5,-8.7182e-05,-0.0087331,-9.1376e-05,-31.526,0.79098
7655,12.69,3.4545,0.1,0.00026882,2686.3,0.00026824,2669.4,-8.7048e-05,-0.0072688,-9.1503e-05,-33.486,0.79086
7656,12.69,3.6364,0.1,0.00026865,2684.6,0.00026801,2666.3,-8.6856e-05,-0.0061002,-9.1671e-05,-36.188,0.79067
7657,12.69,3.8182,0.1,0.0002684,2682.2,0.00026771,2662.3,-8.6616e-05,-0.0057932,-9.1855e-05,-39.369,0.79043
7658,12.69,4,0.1,0.00026808,2678.9,0.00026733,2657.3,-8.6343e-05,-0.0065483,-9.2025e-05,-42.704,0.79013
7659,12.69,4.1818,0.1,0.00026766,2674.8,0.00026685,2651.6,-8.6049e-05,-0.0082269,-9.2148e-05,-45.834,0.78977
7660,12.69,4.3636,0.1,0.00026715,2669.7,0.00026629,2645.1,-8.5753e-05,-0.010464,-9.2192e-05,-48.389,0.78934
7661,12.69,4.5455,0.1,0.00026654,2663.5,0.00026565,2638.2,-8.547e-05,-0.012749,-9.2124e-05,-50.012,0.78886
7662,12.69,4.7273,0.1,0.00026582,2656.4,0.00026493,2630.9,-8.5216e-05,-0.014544,-9.1919e-05,-50.382,0.78831
7663,12.69,4.9091,0.1,0.00026502,2648.3,0.00026414,2623.4,-8.5006e-05,-0.015041,-9.1557e-05,-49.233,0.78771
7664,12.69,5.0909,0.1,0.00026412,2639.4,0.0002633,2615.9,-8.4855e-05,-0.014025,-9.1025e-05,-46.372,0.78704
7665,12.69,5.2727,0.1,0.00026317,2629.9,0.00026243,2608.8,-8.4773e-05,-0.0077156,-9.032e-05,-41.689,0.78631
7666,12.69,5.4545,0.1,0.00026217,2619.9,0.00026155,2602.1,-8.4768e-05,-0.0041238,-8.9448e-05,-35.168,0.78553
7667,12.69,5.6364,0.1,0.00026116,2609.8,0.0002607,2596.3,-8.4843e-05,0.056321,-8.8431e-05,-26.896,0.78468
7668,12.69,5.8182,0.1,0.00026029,2601.1,0.00025999,2592.2,-8.5012e-05,0.037886,-8.7381e-05,-17.766,0.78378
7669,12.874,0.18182,0.1,0.00025421,2540.3,0.00025388,2530.8,-8.2945e-05,0.049246,-8.547e-05,-18.92,0.8042
7670,12.874,0.36364,0.1,0.00025531,2551.3,0.00025479,2536.2,-8.2757e-05,0.064323,-8.6755e-05,-29.98,0.80509
7671,12.874,0.54545,0.1,0.00025654,2563.6,0.00025584,2543.5,-8.2681e-05,-0.0058661,-8.7974e-05,-39.769,0.80593
7672,12.874,0.72727,0.1,0.00025777,2575.9,0.00025693,2551.9,-8.2704e-05,-0.0090727,-8.9018e-05,-47.448,0.80671
7673,12.874,0.90909,0.1,0.00025896,2587.8,0.00025802,2560.9,-8.2823e-05,-0.015598,-8.9866e-05,-52.939,0.80743
7674,12.874,1.0909,0.1,0.00026008,2599,0.00025908,2570.4,-8.3025e-05,-0.016072,-9.0511e-05,-56.264,0.80809
7675,12.874,1.2727,0.1,0.0002611,2609.2,0.00026008,2580,-8.3299e-05,-0.01491,-9.0957e-05,-57.554,0.80869
7676,12.874,1.4545,0.1,0.00026202,2618.4,0.000261,2589.4,-8.3626e-05,-0.012348,-9.1216e-05,-57.039,0.80923
7677,12.874,1.6364,0.1,0.00026281,2626.3,0.00026183,2598.4,-8.3989e-05,-0.0093377,-9.1312e-05,-55.028,0.80971
7678,12.874,1.8182,0.1,0.00026349,2633,0.00026256,2606.7,-8.4367e-05,-0.0065387,-9.1274e-05,-51.904,0.81013
7679,12.874,2,0.1,0.00026404,2638.6,0.00026319,2614.2,-8.474e-05,-0.0045951,-9.114e-05,-48.092,0.81049
7680,12.874,2.1818,0.1,0.00026448,2643,0.0002637,2620.7,-8.5088e-05,-0.0039832,-9.0949e-05,-44.037,0.81079
7681,12.874,2.3636,0.1,0.00026482,2646.3,0.00026411,2626,-8.5392e-05,-0.0048811,-9.0738e-05,-40.174,0.81103
7682,12.874,2.5455,0.1,0.00026506,2648.7,0.00026441,2630.1,-8.5635e-05,-0.0069847,-9.0545e-05,-36.893,0.8112
7683,12.874,2.7273,0.1,0.00026521,2650.3,0.00026461,2632.9,-8.5805e-05,-0.0094441,-9.0398e-05,-34.515,0.81132
7684,12.874,2.9091,0.1,0.00026529,2651,0.00026471,2634.3,-8.5893e-05,-0.011105,-9.0319e-05,-33.267,0.81138
7685,12.874,3.0909,0.1,0.00026529,2651,0.00026471,2634.3,-8.5893e-05,-0.011104,-9.0319e-05,-33.267,0.81138
7686,12.874,3.2727,0.1,0.00026521,2650.3,0.00026461,2632.9,-8.5805e-05,-0.0094446,-9.0398e-05,-34.515,0.81132
7687,12.874,3.4545,0.1,0.00026506,2648.7,0.00026441,2630.1,-8.5635e-05,-0.0069852,-9.0545e-05,-36.893,0.8112
7688,12.874,3.6364,0.1,0.00026482,2646.3,0.00026411,2626,-8.5392e-05,-0.0048802,-9.0738e-05,-40.174,0.81103
7689,12.874,3.8182,0.1,0.00026448,2643,0.0002637,2620.7,-8.5088e-05,-0.0039826,-9.0949e-05,-44.037,0.81079
7690,12.874,4,0.1,0.00026404,2638.6,0.00026319,2614.2,-8.474e-05,-0.0045949,-9.114e-05,-48.092,0.81049
7691,12.874,4.1818,0.1,0.00026349,2633,0.00026256,2606.7,-8.4367e-05,-0.0065386,-9.1274e-05,-51.904,0.81013
7692,12.874,4.3636,0.1,0.00026281,2626.3,0.00026183,2598.4,-8.3989e-05,-0.0093377,-9.1312e-05,-55.028,0.80971
7693,12.874,4.5455,0.1,0.00026202,2618.4,0.000261,2589.4,-8.3626e-05,-0.012347,-9.1216e-05,-57.039,0.80923
7694,12.874,4.7273,0.1,0.0002611,2609.2,0.00026008,2580,-8.3299e-05,-0.01491,-9.0957e-05,-57.554,0.80869
7695,12.874,4.9091,0.1,0.00026008,2599,0.00025908,2570.4,-8.3025e-05,-0.016072,-9.0511e-05,-56.264,0.80809
7696,12.874,5.0909,0.1,0.00025896,2587.8,0.00025802,2560.9,-8.2823e-05,-0.015597,-8.9866e-05,-52.939,0.80743
7697,12.874,5.2727,0.1,0.00025777,2575.9,0.00025693,2551.9,-8.2704e-05,-0.0090717,-8.9018e-05,-47.448,0.80671
7698,12.874,5.4545,0.1,0.00025654,2563.6,0.00025584,2543.5,-8.2681e-05,-0.0058645,-8.7974e-05,-39.769,0.80593
7699,12.874,5.6364,0.1,0.00025531,2551.3,0.00025479,2536.2,-8.2757e-05,0.064324,-8.6755e-05,-29.98,0.80509
7700,12.874,5.8182,0.1,0.00025421,2540.3,0.00025388,2530.8,-8.2945e-05,0.049247,-8.547e-05,-18.92,0.8042
7701,13.057,0.18182,0.1,0.00024784,2476.7,0.00024749,2466.5,-8.0778e-05,0.06258,-8.3478e-05,-20.227,0.82479
7702,13.057,0.36364,0.1,0.00024921,2490.4,0.00024862,2473.5,-8.0569e-05,0.073018,-8.5035e-05,-33.486,0.82568
7703,13.057,0.54545,0.1,0.00025071,2505.4,0.00024992,2482.6,-8.0497e-05,-0.0080038,-8.6485e-05,-44.997,0.82651
7704,13.057,0.72727,0.1,0.00025222,2520.5,0.00025126,2493.1,-8.0546e-05,-0.010495,-8.773e-05,-53.988,0.82728
7705,13.057,0.90909,0.1,0.00025369,2535.2,0.00025261,2504.5,-8.0711e-05,-0.017068,-8.8747e-05,-60.393,0.82799
7706,13.057,1.0909,0.1,0.00025509,2549.2,0.00025394,2516.4,-8.098e-05,-0.016771,-8.9527e-05,-64.242,0.82864
7707,13.057,1.2727,0.1,0.00025639,2562.1,0.00025521,2528.6,-8.1334e-05,-0.014724,-9.0074e-05,-65.687,0.82924
7708,13.057,1.4545,0.1,0.00025755,2573.8,0.00025639,2540.7,-8.1754e-05,-0.011177,-9.0402e-05,-64.988,0.82977
7709,13.057,1.6364,0.1,0.00025858,2584,0.00025746,2552.2,-8.2218e-05,-0.0072458,-9.0536e-05,-62.51,0.83025
7710,13.057,1.8182,0.1,0.00025946,2592.8,0.00025841,2563,-8.2699e-05,-0.0037411,-9.0511e-05,-58.701,0.83066
7711,13.057,2,0.1,0.0002602,2600.2,0.00025923,2572.7,-8.3173e-05,-0.0014926,-9.0369e-05,-54.068,0.83102
7712,13.057,2.1818,0.1,0.00026079,2606.1,0.00025992,2581.2,-8.3614e-05,-0.0011397,-9.0155e-05,-49.147,0.83132
7713,13.057,2.3636,0.1,0.00026124,2610.6,0.00026046,2588.1,-8.3999e-05,-0.0029316,-8.9917e-05,-44.463,0.83155
7714,13.057,2.5455,0.1,0.00026158,2614,0.00026087,2593.5,-8.4308e-05,-0.0064353,-8.9695e-05,-40.486,0.83173
7715,13.057,2.7273,0.1,0.00026179,2616.1,0.00026113,2597.1,-8.4523e-05,-0.01039,-8.9527e-05,-37.605,0.83185
7716,13.057,2.9091,0.1,0.0002619,2617.2,0.00026127,2599,-8.4634e-05,-0.013037,-8.9436e-05,-36.093,0.83191
7717,13.057,3.0909,0.1,0.0002619,2617.2,0.00026127,2599,-8.4634e-05,-0.013038,-8.9436e-05,-36.093,0.83191
7718,13.057,3.2727,0.1,0.00026179,2616.1,0.00026113,2597.1,-8.4523e-05,-0.01039,-8.9527e-05,-37.605,0.83185
7719,13.057,3.4545,0.1,0.00026158,2614,0.00026087,2593.5,-8.4308e-05,-0.0064351,-8.9695e-05,-40.486,0.83173
7720,13.057,3.6364,0.1,0.00026124,2610.6,0.00026046,2588.1,-8.3999e-05,-0.0029317,-8.9917e-05,-44.463,0.83155
7721,13.057,3.8182,0.1,0.00026079,2606.1,0.00025992,2581.2,-8.3614e-05,-0.0011396,-9.0155e-05,-49.147,0.83132
7722,13.057,4,0.1,0.0002602,2600.2,0.00025923,2572.7,-8.3173e-05,-0.0014921,-9.0369e-05,-54.068,0.83102
7723,13.057,4.1818,0.1,0.00025946,2592.8,0.00025841,2563,-8.2699e-05,-0.0037404,-9.0511e-05,-58.7,0.83066
7724,13.057,4.3636,0.1,0.00025858,2584,0.00025746,2552.2,-8.2218e-05,-0.0072451,-9.0536e-05,-62.51,0.83025
7725,13.057,4.5455,0.1,0.00025755,2573.8,0.00025639,2540.7,-8.1754e-05,-0.011176,-9.0402e-05,-64.988,0.82977
7726,13.057,4.7273,0.1,0.00025639,2562.1,0.00025521,2528.6,-8.1334e-05,-0.014723,-9.0074e-05,-65.687,0.82924
7727,13.057,4.9091,0.1,0.00025509,2549.2,0.00025394,2516.4,-8.098e-05,-0.01677,-8.9527e-05,-64.242,0.82864
7728,13.057,5.0909,0.1,0.00025369,2535.2,0.00025261,2504.5,-8.0711e-05,-0.017067,-8.8747e-05,-60.393,0.82799
7729,13.057,5.2727,0.1,0.00025222,2520.5,0.00025126,2493.1,-8.0546e-05,-0.010494,-8.773e-05,-53.988,0.82728
7730,13.057,5.4545,0.1,0.00025071,2505.4,0.00024992,2482.6,-8.0497e-05,-0.0080039,-8.6485e-05,-44.997,0.82651
7731,13.057,5.6364,0.1,0.00024921,2490.4,0.00024862,2473.5,-8.0569e-05,0.073019,-8.5035e-05,-33.486,0.82568
7732,13.057,5.8182,0.1,0.00024784,2476.7,0.00024749,2466.5,-8.0778e-05,0.06258,-8.3478e-05,-20.227,0.82479
7733,13.241,0.18182,0.1,0.00024112,2409.5,0.00024074,2398.6,-7.8485e-05,0.077547,-8.1385e-05,-21.712,0.84556
7734,13.241,0.36364,0.1,0.0002428,2426.4,0.00024215,2407.5,-7.8256e-05,0.082332,-8.3253e-05,-37.465,0.84643
7735,13.241,0.54545,0.1,0.00024463,2444.6,0.00024372,2418.7,-7.8193e-05,-0.010525,-8.4969e-05,-50.925,0.84725
7736,13.241,0.72727,0.1,0.00024647,2463,0.00024537,2431.7,-7.8276e-05,-0.011831,-8.6448e-05,-61.408,0.84801
7737,13.241,0.90909,0.1,0.00024829,2481.2,0.00024705,2446,-7.8502e-05,-0.018202,-8.7665e-05,-68.862,0.84872
7738,13.241,1.0909,0.1,0.00025003,2498.6,0.0002487,2461.1,-7.8853e-05,-0.01684,-8.861e-05,-73.322,0.84937
7739,13.241,1.2727,0.1,0.00025166,2514.9,0.00025031,2476.6,-7.931e-05,-0.013639,-8.9284e-05,-74.954,0.84996
7740,13.241,1.4545,0.1,0.00025315,2529.8,0.00025181,2492,-7.9847e-05,-0.0088393,-8.9701e-05,-74.049,0.85049
7741,13.241,1.6364,0.1,0.00025448,2543.1,0.0002532,2506.8,-8.0436e-05,-0.0037392,-8.9889e-05,-71.024,0.85096
7742,13.241,1.8182,0.1,0.00025563,2554.5,0.00025444,2520.7,-8.1047e-05,0.00065369,-8.9885e-05,-66.404,0.85138
7743,13.241,2,0.1,0.0002566,2564.2,0.00025551,2533.3,-8.1648e-05,0.0032603,-8.974e-05,-60.795,0.85173
7744,13.241,2.1818,0.1,0.00025739,2572.1,0.00025641,2544.3,-8.2207e-05,0.0031961,-8.9506e-05,-54.84,0.85203
7745,13.241,2.3636,0.1,0.00025801,2578.3,0.00025713,2553.3,-8.2695e-05,9.0915e-05,-8.9239e-05,-49.174,0.85226
7746,13.241,2.5455,0.1,0.00025846,2582.8,0.00025768,2560.4,-8.3085e-05,-0.0054611,-8.8989e-05,-44.366,0.85244
7747,13.241,2.7273,0.1,0.00025876,2585.8,0.00025804,2565.1,-8.3358e-05,-0.011624,-8.8798e-05,-40.885,0.85255
7748,13.241,2.9091,0.1,0.00025891,2587.3,0.00025822,2567.5,-8.3498e-05,-0.01574,-8.8695e-05,-39.06,0.85261
7749,13.241,3.0909,0.1,0.00025891,2587.3,0.00025822,2567.5,-8.3498e-05,-0.01574,-8.8695e-05,-39.06,0.85261
7750,13.241,3.2727,0.1,0.00025876,2585.8,0.00025804,2565.1,-8.3358e-05,-0.011624,-8.8798e-05,-40.885,0.85255
7751,13.241,3.4545,0.1,0.00025846,2582.8,0.00025768,2560.4,-8.3085e-05,-0.005461,-8.8989e-05,-44.366,0.85244
7752,13.241,3.6364,0.1,0.00025801,2578.3,0.00025713,2553.3,-8.2695e-05,9.0832e-05,-8.9239e-05,-49.174,0.85226
7753,13.241,3.8182,0.1,0.00025739,2572.1,0.00025641,2544.3,-8.2207e-05,0.0031966,-8.9506e-05,-54.84,0.85203
7754,13.241,4,0.1,0.0002566,2564.2,0.00025551,2533.3,-8.1648e-05,0.0032603,-8.974e-05,-60.795,0.85173
7755,13.241,4.1818,0.1,0.00025563,2554.5,0.00025444,2520.7,-8.1047e-05,0.00065375,-8.9885e-05,-66.404,0.85138
7756,13.241,4.3636,0.1,0.00025448,2543.1,0.0002532,2506.8,-8.0436e-05,-0.0037391,-8.9889e-05,-71.024,0.85096
7757,13.241,4.5455,0.1,0.00025315,2529.8,0.00025181,2492,-7.9847e-05,-0.008839,-8.9701e-05,-74.049,0.85049
7758,13.241,4.7273,0.1,0.00025166,2514.9,0.00025031,2476.6,-7.931e-05,-0.013638,-8.9284e-05,-74.954,0.84996
7759,13.241,4.9091,0.1,0.00025003,2498.6,0.0002487,2461.1,-7.8853e-05,-0.016839,-8.861e-05,-73.322,0.84937
7760,13.241,5.0909,0.1,0.00024829,2481.2,0.00024705,2446,-7.8502e-05,-0.0182,-8.7665e-05,-68.862,0.84872
7761,13.241,5.2727,0.1,0.00024647,2463,0.00024537,2431.7,-7.8276e-05,-0.011829,-8.6448e-05,-61.408,0.84801
7762,13.241,5.4545,0.1,0.00024463,2444.6,0.00024372,2418.7,-7.8193e-05,-0.010524,-8.4969e-05,-50.925,0.84725
7763,13.241,5.6364,0.1,0.0002428,2426.4,0.00024215,2407.5,-7.8256e-05,0.082333,-8.3253e-05,-37.465,0.84643
7764,13.241,5.8182,0.1,0.00024112,2409.5,0.00024074,2398.6,-7.8485e-05,0.077549,-8.1385e-05,-21.712,0.84556
7765,13.425,0.18182,0.1,0.00023396,2338,0.00023355,2326.2,-7.6036e-05,0.093099,-7.9164e-05,-23.405,0.86648
7766,13.425,0.36364,0.1,0.00023601,2358.4,0.00023527,2337.2,-7.5787e-05,0.091921,-8.1384e-05,-41.959,0.86735
7767,13.425,0.54545,0.1,0.00023821,2380.4,0.00023718,2351.1,-7.5739e-05,-0.013529,-8.3405e-05,-57.618,0.86816
7768,13.425,0.72727,0.1,0.00024046,2402.9,0.00023919,2367.2,-7.5869e-05,-0.012996,-8.5157e-05,-69.804,0.86892
7769,13.425,0.90909,0.1,0.00024269,2425.3,0.00024126,2385.1,-7.6171e-05,-0.018803,-8.6614e-05,-78.481,0.86962
7770,13.425,1.0909,0.1,0.00024487,2447,0.00024334,2404.1,-7.6627e-05,-0.016013,-8.7762e-05,-83.68,0.87027
7771,13.425,1.2727,0.1,0.00024693,2467.6,0.00024536,2423.6,-7.7211e-05,-0.011334,-8.8598e-05,-85.567,0.87085
7772,13.425,1.4545,0.1,0.00024883,2486.5,0.00024728,2443.2,-7.7894e-05,-0.0049637,-8.9134e-05,-84.456,0.87138
7773,13.425,1.6364,0.1,0.00025054,2503.6,0.00024906,2462.2,-7.8641e-05,0.0016061,-8.9397e-05,-80.814,0.87185
7774,13.425,1.8182,0.1,0.00025203,2518.6,0.00025067,2480.1,-7.9415e-05,0.0071209,-8.9431e-05,-75.25,0.87226
7775,13.425,2,0.1,0.00025331,2531.3,0.00025207,2496.4,-8.0175e-05,0.010149,-8.9292e-05,-68.488,0.87261
7776,13.425,2.1818,0.1,0.00025436,2541.8,0.00025326,2510.6,-8.0882e-05,0.0094523,-8.9043e-05,-61.307,0.87291
7777,13.425,2.3636,0.1,0.00025519,2550.1,0.00025422,2522.5,-8.1499e-05,0.0044587,-8.875e-05,-54.474,0.87314
7778,13.425,2.5455,0.1,0.00025581,2556.3,0.00025494,2531.6,-8.1993e-05,-0.0040421,-8.8472e-05,-48.682,0.87332
7779,13.425,2.7273,0.1,0.00025621,2560.4,0.00025543,2537.8,-8.2338e-05,-0.013406,-8.8258e-05,-44.492,0.87343
7780,13.425,2.9091,0.1,0.00025642,2562.4,0.00025567,2541,-8.2516e-05,-0.019668,-8.8142e-05,-42.296,0.87349
7781,13.425,3.0909,0.1,0.00025642,2562.4,0.00025567,2541,-8.2516e-05,-0.019668,-8.8142e-05,-42.296,0.87349
7782,13.425,3.2727,0.1,0.00025621,2560.4,0.00025543,2537.8,-8.2338e-05,-0.013406,-8.8258e-05,-44.492,0.87343
7783,13.425,3.4545,0.1,0.00025581,2556.3,0.00025494,2531.6,-8.1993e-05,-0.0040424,-8.8472e-05,-48.682,0.87332
7784,13.425,3.6364,0.1,0.00025519,2550.1,0.00025422,2522.5,-8.1499e-05,0.0044589,-8.875e-05,-54.474,0.87314
7785,13.425,3.8182,0.1,0.00025436,2541.8,0.00025326,2510.6,-8.0882e-05,0.0094523,-8.9043e-05,-61.307,0.87291
7786,13.425,4,0.1,0.00025331,2531.3,0.00025207,2496.4,-8.0175e-05,0.010149,-8.9292e-05,-68.488,0.87261
7787,13.425,4.1818,0.1,0.00025203,2518.6,0.00025067,2480.1,-7.9415e-05,0.0071212,-8.9431e-05,-75.25,0.87226
7788,13.425,4.3636,0.1,0.00025054,2503.6,0.00024906,2462.2,-7.8641e-05,0.0016068,-8.9397e-05,-80.814,0.87185
7789,13.425,4.5455,0.1,0.00024883,2486.5,0.00024728,2443.2,-7.7894e-05,-0.0049625,-8.9134e-05,-84.456,0.87138
7790,13.425,4.7273,0.1,0.00024693,2467.6,0.00024536,2423.6,-7.7211e-05,-0.011334,-8.8598e-05,-85.567,0.87085
7791,13.425,4.9091,0.1,0.00024487,2447,0.00024334,2404.1,-7.6627e-05,-0.016012,-8.7762e-05,-83.68,0.87027
7792,13.425,5.0909,0.1,0.00024269,2425.3,0.00024126,2385.1,-7.6171e-05,-0.018802,-8.6614e-05,-78.481,0.86962
7793,13.425,5.2727,0.1,0.00024046,2402.9,0.00023919,2367.2,-7.5869e-05,-0.012994,-8.5157e-05,-69.804,0.86892
7794,13.425,5.4545,0.1,0.00023821,2380.4,0.00023718,2351.1,-7.5739e-05,-0.013528,-8.3405e-05,-57.618,0.86816
7795,13.425,5.6364,0.1,0.00023601,2358.4,0.00023527,2337.2,-7.5787e-05,0.091921,-8.1384e-05,-41.959,0.86735
7796,13.425,5.8182,0.1,0.00023396,2338,0.00023355,2326.2,-7.6036e-05,0.0931,-7.9164e-05,-23.405,0.86648
7797,13.609,0.18182,0.1,0.00022625,2260.9,0.00022581,2248.2,-7.3395e-05,0.10743,-7.678e-05,-25.329,0.88756
7798,13.609,0.36364,0.1,0.00022871,2285.6,0.00022788,2261.8,-7.3128e-05,0.10137,-7.9396e-05,-46.995,0.88842
7799,13.609,0.54545,0.1,0.00023136,2312,0.00023018,2278.7,-7.3102e-05,-0.016946,-8.1766e-05,-65.122,0.88923
7800,13.609,0.72727,0.1,0.00023409,2339.3,0.00023264,2298.6,-7.3292e-05,-0.013674,-8.3839e-05,-79.262,0.88998
7801,13.609,0.90909,0.1,0.00023685,2366.8,0.0002352,2320.9,-7.3691e-05,-0.0184,-8.5586e-05,-89.393,0.89068
7802,13.609,1.0909,0.1,0.00023956,2393.9,0.00023779,2344.7,-7.4276e-05,-0.013732,-8.6987e-05,-95.521,0.89133
7803,13.609,1.2727,0.1,0.00024215,2419.9,0.00024034,2369.5,-7.5018e-05,-0.0072009,-8.8033e-05,-97.792,0.89191
7804,13.609,1.4545,0.1,0.00024458,2444.1,0.00024279,2394.4,-7.5883e-05,0.0011081,-8.8729e-05,-96.516,0.89244
7805,13.609,1.6364,0.1,0.00024678,2466.1,0.00024508,2418.7,-7.6827e-05,0.0095093,-8.91e-05,-92.202,0.89291
7806,13.609,1.8182,0.1,0.00024873,2485.6,0.00024716,2441.7,-7.7805e-05,0.016433,-8.9194e-05,-85.554,0.89332
7807,13.609,2,0.1,0.0002504,2502.3,0.000249,2462.7,-7.8766e-05,0.019956,-8.9075e-05,-77.438,0.89367
7808,13.609,2.1818,0.1,0.0002518,2516.2,0.00025055,2481.1,-7.966e-05,0.018317,-8.8819e-05,-68.804,0.89396
7809,13.609,2.3636,0.1,0.00025291,2527.3,0.00025182,2496.5,-8.044e-05,0.010635,-8.8505e-05,-60.591,0.89419
7810,13.609,2.5455,0.1,0.00025374,2535.7,0.00025279,2508.4,-8.1064e-05,-0.002051,-8.8203e-05,-53.64,0.89437
7811,13.609,2.7273,0.1,0.0002543,2541.2,0.00025344,2516.6,-8.15e-05,-0.015971,-8.7969e-05,-48.62,0.89448
7812,13.609,2.9091,0.1,0.00025458,2544,0.00025376,2520.7,-8.1725e-05,-0.025299,-8.7843e-05,-45.994,0.89454
7813,13.609,3.0909,0.1,0.00025458,2544,0.00025376,2520.7,-8.1725e-05,-0.025299,-8.7843e-05,-45.994,0.89454
7814,13.609,3.2727,0.1,0.0002543,2541.2,0.00025344,2516.6,-8.15e-05,-0.015971,-8.7969e-05,-48.62,0.89448
7815,13.609,3.4545,0.1,0.00025374,2535.7,0.00025279,2508.4,-8.1064e-05,-0.0020511,-8.8203e-05,-53.64,0.89437
7816,13.609,3.6364,0.1,0.00025291,2527.3,0.00025182,2496.5,-8.044e-05,0.010635,-8.8505e-05,-60.591,0.89419
7817,13.609,3.8182,0.1,0.0002518,2516.2,0.00025055,2481.1,-7.966e-05,0.018318,-8.8819e-05,-68.804,0.89396
7818,13.609,4,0.1,0.0002504,2502.3,0.000249,2462.7,-7.8766e-05,0.019956,-8.9075e-05,-77.438,0.89367
7819,13.609,4.1818,0.1,0.00024873,2485.6,0.00024716,2441.7,-7.7805e-05,0.016433,-8.9194e-05,-85.554,0.89332
7820,13.609,4.3636,0.1,0.00024678,2466.1,0.00024508,2418.7,-7.6827e-05,0.0095099,-8.91e-05,-92.201,0.89291
7821,13.609,4.5455,0.1,0.00024458,2444.1,0.00024279,2394.4,-7.5883e-05,0.0011077,-8.8729e-05,-96.516,0.89244
7822,13.609,4.7273,0.1,0.00024215,2419.9,0.00024034,2369.5,-7.5018e-05,-0.0072008,-8.8033e-05,-97.792,0.89191
7823,13.609,4.9091,0.1,0.00023956,2393.9,0.00023779,2344.7,-7.4276e-05,-0.013731,-8.6987e-05,-95.521,0.89133
7824,13.609,5.0909,0.1,0.00023685,2366.8,0.0002352,2320.9,-7.3691e-05,-0.018398,-8.5586e-05,-89.393,0.89068
7825,13.609,5.2727,0.1,0.00023409,2339.3,0.00023264,2298.6,-7.3292e-05,-0.013673,-8.3839e-05,-79.262,0.88998
7826,13.609,5.4545,0.1,0.00023136,2312,0.00023018,2278.7,-7.3102e-05,-0.016947,-8.1766e-05,-65.122,0.88923
7827,13.609,5.6364,0.1,0.00022871,2285.6,0.00022788,2261.8,-7.3128e-05,0.10137,-7.9396e-05,-46.995,0.88842
7828,13.609,5.8182,0.1,0.00022625,2260.9,0.00022581,2248.2,-7.3395e-05,0.10743,-7.678e-05,-25.329,0.88756
7829,13.793,0.18182,0.1,0.00021786,2177.1,0.00021738,2163.3,-7.0518e-05,0.11736,-7.4194e-05,-27.507,0.90879
7830,13.793,0.36364,0.1,0.0002208,2206.5,0.00021986,2179.8,-7.0236e-05,0.10984,-7.7247e-05,-52.571,0.90965
7831,13.793,0.54545,0.1,0.00022396,2238.1,0.00022262,2200.5,-7.0242e-05,-0.020776,-8.0015e-05,-73.449,0.91045
7832,13.793,0.72727,0.1,0.00022728,2271.2,0.00022562,2224.9,-7.0508e-05,-0.013519,-8.2464e-05,-89.848,0.91121
7833,13.793,0.90909,0.1,0.00023067,2305.1,0.00022877,2252.5,-7.1026e-05,-0.016435,-8.4566e-05,-101.75,0.91191
7834,13.793,1.0909,0.1,0.00023405,2338.9,0.000232,2282.4,-7.177e-05,-0.0093448,-8.629e-05,-109.1,0.91255
7835,13.793,1.2727,0.1,0.00023733,2371.7,0.00023523,2313.7,-7.2708e-05,-0.00055201,-8.7611e-05,-111.98,0.91313
7836,13.793,1.4545,0.1,0.00024043,2402.6,0.00023836,2345.4,-7.3797e-05,0.010086,-8.8524e-05,-110.64,0.91366
7837,13.793,1.6364,0.1,0.00024327,2431,0.0002413,2376.5,-7.4988e-05,0.020718,-8.9049e-05,-105.63,0.91413
7838,13.793,1.8182,0.1,0.0002458,2456.3,0.00024399,2406,-7.6221e-05,0.029376,-8.9234e-05,-97.748,0.91454
7839,13.793,2,0.1,0.00024799,2478.2,0.00024638,2433,-7.7434e-05,0.033441,-8.9156e-05,-88.041,0.91489
7840,13.793,2.1818,0.1,0.00024983,2496.6,0.00024842,2456.9,-7.8564e-05,0.030397,-8.8907e-05,-77.683,0.91518
7841,13.793,2.3636,0.1,0.00025132,2511.4,0.00025009,2476.8,-7.955e-05,0.018907,-8.8581e-05,-67.839,0.91541
7842,13.793,2.5455,0.1,0.00025244,2522.7,0.00025137,2492.4,-8.0339e-05,0.00035659,-8.8262e-05,-59.532,0.91559
7843,13.793,2.7273,0.1,0.0002532,2530.2,0.00025224,2503,-8.089e-05,-0.019907,-8.8015e-05,-53.555,0.91571
7844,13.793,2.9091,0.1,0.00025358,2534,0.00025268,2508.4,-8.1173e-05,-0.033484,-8.7881e-05,-50.436,0.91576
7845,13.793,3.0909,0.1,0.00025358,2534,0.00025268,2508.4,-8.1173e-05,-0.033485,-8.7881e-05,-50.436,0.91576
7846,13.793,3.2727,0.1,0.0002532,2530.2,0.00025224,2503,-8.089e-05,-0.019907,-8.8015e-05,-53.555,0.91571
7847,13.793,3.4545,0.1,0.00025244,2522.7,0.00025137,2492.4,-8.0339e-05,0.00035688,-8.8262e-05,-59.532,0.91559
7848,13.793,3.6364,0.1,0.00025132,2511.4,0.00025009,2476.8,-7.955e-05,0.018907,-8.8581e-05,-67.839,0.91541
7849,13.793,3.8182,0.1,0.00024983,2496.6,0.00024842,2456.9,-7.8564e-05,0.030398,-8.8907e-05,-77.683,0.91518
7850,13.793,4,0.1,0.00024799,2478.2,0.00024638,2433,-7.7434e-05,0.033441,-8.9156e-05,-88.041,0.91489
7851,13.793,4.1818,0.1,0.0002458,2456.3,0.00024399,2406,-7.6221e-05,0.029376,-8.9234e-05,-97.748,0.91454
7852,13.793,4.3636,0.1,0.00024327,2431,0.0002413,2376.5,-7.4988e-05,0.020719,-8.9049e-05,-105.63,0.91413
7853,13.793,4.5455,0.1,0.00024043,2402.6,0.00023836,2345.4,-7.3797e-05,0.010087,-8.8524e-05,-110.64,0.91366
7854,13.793,4.7273,0.1,0.00023733,2371.7,0.00023523,2313.7,-7.2708e-05,-0.00055134,-8.7611e-05,-111.98,0.91313
7855,13.793,4.9091,0.1,0.00023405,2338.9,0.000232,2282.4,-7.177e-05,-0.0093445,-8.629e-05,-109.1,0.91255
7856,13.793,5.0909,0.1,0.00023067,2305.1,0.00022877,2252.5,-7.1026e-05,-0.016433,-8.4566e-05,-101.75,0.91191
7857,13.793,5.2727,0.1,0.00022728,2271.2,0.00022562,2224.9,-7.0508e-05,-0.013517,-8.2464e-05,-89.848,0.91121
7858,13.793,5.4545,0.1,0.00022396,2238.1,0.00022262,2200.5,-7.0242e-05,-0.020776,-8.0015e-05,-73.449,0.91045
7859,13.793,5.6364,0.1,0.0002208,2206.5,0.00021986,2179.8,-7.0236e-05,0.10984,-7.7247e-05,-52.571,0.90965
7860,13.793,5.8182,0.1,0.00021786,2177.1,0.00021738,2163.3,-7.0518e-05,0.11736,-7.4194e-05,-27.507,0.90879
7861,13.977,0.18182,0.1,0.00020865,2085,0.00020812,2070,-6.7355e-05,0.11797,-7.1357e-05,-29.949,0.93017
7862,13.977,0.36364,0.1,0.00021211,2119.7,0.00021106,2089.8,-6.7063e-05,0.11597,-7.4883e-05,-58.639,0.93103
7863,13.977,0.54545,0.1,0.00021588,2157.3,0.00021436,2114.8,-6.7114e-05,-0.025051,-7.8099e-05,-82.563,0.93183
7864,13.977,0.72727,0.1,0.00021989,2197.4,0.00021799,2144.8,-6.7474e-05,-0.012112,-8.0995e-05,-101.6,0.93258
7865,13.977,0.90909,0.1,0.00022407,2239.1,0.00022187,2179,-6.8137e-05,-0.012183,-8.3536e-05,-115.72,0.93328
7866,13.977,1.0909,0.1,0.00022829,2281.3,0.00022591,2216.4,-6.9073e-05,-0.0020124,-8.5675e-05,-124.74,0.93393
7867,13.977,1.2727,0.1,0.00023245,2322.9,0.00022999,2255.9,-7.0249e-05,0.0094743,-8.7364e-05,-128.59,0.93451
7868,13.977,1.4545,0.1,0.0002364,2362.4,0.00023398,2296.1,-7.1615e-05,0.022823,-8.8576e-05,-127.42,0.93504
7869,13.977,1.6364,0.1,0.00024006,2399,0.00023776,2335.8,-7.3111e-05,0.036117,-8.9317e-05,-121.73,0.93551
7870,13.977,1.8182,0.1,0.00024335,2431.8,0.00024124,2373.6,-7.4666e-05,0.046878,-8.9638e-05,-112.45,0.93593
7871,13.977,2,0.1,0.00024621,2460.4,0.00024434,2408.4,-7.6198e-05,0.051508,-8.9627e-05,-100.85,0.93628
7872,13.977,2.1818,0.1,0.00024863,2484.6,0.00024701,2439.3,-7.7626e-05,0.046294,-8.9402e-05,-88.432,0.93657
7873,13.977,2.3636,0.1,0.00025061,2504.4,0.00024922,2465.2,-7.8872e-05,0.029276,-8.9078e-05,-76.655,0.93681
7874,13.977,2.5455,0.1,0.00025212,2519.4,0.00025092,2485.4,-7.9869e-05,0.0025303,-8.8756e-05,-66.773,0.93698
7875,13.977,2.7273,0.1,0.00025314,2529.7,0.00025207,2499.3,-8.0564e-05,-0.026341,-8.8508e-05,-59.71,0.9371
7876,13.977,2.9091,0.1,0.00025366,2534.9,0.00025266,2506.4,-8.0921e-05,-0.045572,-8.8374e-05,-56.044,0.93716
7877,13.977,3.0909,0.1,0.00025366,2534.9,0.00025266,2506.4,-8.0921e-05,-0.045572,-8.8374e-05,-56.044,0.93716
7878,13.977,3.2727,0.1,0.00025314,2529.7,0.00025207,2499.3,-8.0564e-05,-0.026341,-8.8508e-05,-59.71,0.9371
7879,13.977,3.4545,0.1,0.00025212,2519.4,0.00025092,2485.4,-7.9869e-05,0.0025308,-8.8756e-05,-66.773,0.93698
7880,13.977,3.6364,0.1,0.00025061,2504.4,0.00024922,2465.2,-7.8872e-05,0.029277,-8.9078e-05,-76.655,0.93681
7881,13.977,3.8182,0.1,0.00024863,2484.6,0.00024701,2439.3,-7.7626e-05,0.046294,-8.9402e-05,-88.432,0.93657
7882,13.977,4,0.1,0.00024621,2460.4,0.00024434,2408.4,-7.6198e-05,0.051507,-8.9627e-05,-100.85,0.93628
7883,13.977,4.1818,0.1,0.00024335,2431.8,0.00024124,2373.6,-7.4666e-05,0.046879,-8.9638e-05,-112.45,0.93593
7884,13.977,4.3636,0.1,0.00024006,2399,0.00023776,2335.8,-7.3111e-05,0.036117,-8.9317e-05,-121.73,0.93551
7885,13.977,4.5455,0.1,0.0002364,2362.4,0.00023398,2296.1,-7.1615e-05,0.022824,-8.8576e-05,-127.42,0.93504
7886,13.977,4.7273,0.1,0.00023245,2322.9,0.00022999,2255.9,-7.0249e-05,0.0094744,-8.7364e-05,-128.59,0.93451
7887,13.977,4.9091,0.1,0.00022829,2281.3,0.00022591,2216.4,-6.9073e-05,-0.0020112,-8.5675e-05,-124.74,0.93393
7888,13.977,5.0909,0.1,0.00022407,2239.1,0.00022187,2179,-6.8137e-05,-0.012181,-8.3536e-05,-115.72,0.93328
7889,13.977,5.2727,0.1,0.00021989,2197.4,0.00021799,2144.8,-6.7474e-05,-0.012111,-8.0995e-05,-101.6,0.93258
7890,13.977,5.4545,0.1,0.00021588,2157.3,0.00021436,2114.8,-6.7114e-05,-0.025051,-7.8099e-05,-82.563,0.93183
7891,13.977,5.6364,0.1,0.00021211,2119.7,0.00021106,2089.8,-6.7063e-05,0.11597,-7.4883e-05,-58.639,0.93103
7892,13.977,5.8182,0.1,0.00020865,2085,0.00020812,2070,-6.7355e-05,0.11797,-7.1357e-05,-29.949,0.93017
7893,14.161,0.18182,0.1,0.00019843,1982.9,0.00019786,1966.5,-6.385e-05,0.10251,-6.8209e-05,-32.645,0.95169
7894,14.161,0.36364,0.1,0.00020247,2023.4,0.00020129,1990.1,-6.3557e-05,0.11777,-7.2235e-05,-65.082,0.95255
7895,14.161,0.54545,0.1,0.00020693,2067.9,0.00020521,2020.2,-6.3665e-05,-0.029732,-7.5952e-05,-92.35,0.95335
7896,14.161,0.72727,0.1,0.00021178,2116.3,0.0002096,2056.8,-6.4139e-05,-0.0088085,-7.9379e-05,-114.52,0.95411
7897,14.161,0.90909,0.1,0.00021692,2167.7,0.00021438,2099,-6.4972e-05,-0.0045532,-8.2471e-05,-131.49,0.95481
7898,14.161,1.0909,0.1,0.00022221,2220.6,0.00021943,2145.7,-6.6137e-05,0.009516,-8.5154e-05,-142.88,0.95546
7899,14.161,1.2727,0.1,0.00022748,2273.2,0.00022459,2195.4,-6.7599e-05,0.024081,-8.7342e-05,-148.32,0.95605
7900,14.161,1.4545,0.1,0.00023255,2323.9,0.00022968,2246.5,-6.9305e-05,0.04037,-8.8968e-05,-147.7,0.95658
7901,14.161,1.6364,0.1,0.00023726,2371,0.00023454,2297.2,-7.1182e-05,0.056558,-9.0013e-05,-141.43,0.95706
7902,14.161,1.8182,0.1,0.00024152,2413.5,0.00023903,2345.6,-7.3142e-05,0.069629,-9.0525e-05,-130.54,0.95748
7903,14.161,2,0.1,0.00024525,2450.8,0.00024306,2390.4,-7.5079e-05,0.074426,-9.0616e-05,-116.66,0.95783
7904,14.161,2.1818,0.1,0.00024843,2482.6,0.00024655,2430.2,-7.6886e-05,0.06578,-9.0434e-05,-101.73,0.95813
7905,14.161,2.3636,0.1,0.00025105,2508.7,0.00024944,2463.8,-7.8463e-05,0.040998,-9.0132e-05,-87.638,0.95837
7906,14.161,2.5455,0.1,0.00025306,2528.9,0.00025169,2490.1,-7.9721e-05,0.0030419,-8.9829e-05,-75.944,0.95854
7907,14.161,2.7273,0.1,0.00025445,2542.7,0.00025323,2508.2,-8.0596e-05,-0.037104,-8.9599e-05,-67.687,0.95866
7908,14.161,2.9091,0.1,0.00025515,2549.8,0.00025401,2517.4,-8.1044e-05,-0.063412,-8.9479e-05,-63.44,0.95872
7909,14.161,3.0909,0.1,0.00025515,2549.8,0.00025401,2517.4,-8.1044e-05,-0.063412,-8.9479e-05,-63.44,0.95872
7910,14.161,3.2727,0.1,0.00025445,2542.7,0.00025323,2508.2,-8.0596e-05,-0.037103,-8.9599e-05,-67.687,0.95866
7911,14.161,3.4545,0.1,0.00025306,2528.9,0.00025169,2490.1,-7.9721e-05,0.0030421,-8.9829e-05,-75.944,0.95854
7912,14.161,3.6364,0.1,0.00025105,2508.7,0.00024944,2463.8,-7.8463e-05,0.040997,-9.0132e-05,-87.638,0.95837
7913,14.161,3.8182,0.1,0.00024843,2482.6,0.00024655,2430.2,-7.6886e-05,0.065781,-9.0434e-05,-101.73,0.95813
7914,14.161,4,0.1,0.00024525,2450.8,0.00024306,2390.4,-7.5079e-05,0.074427,-9.0616e-05,-116.66,0.95783
7915,14.161,4.1818,0.1,0.00024152,2413.5,0.00023903,2345.6,-7.3142e-05,0.06963,-9.0525e-05,-130.54,0.95748
7916,14.161,4.3636,0.1,0.00023726,2371,0.00023454,2297.2,-7.1182e-05,0.056558,-9.0013e-05,-141.43,0.95706
7917,14.161,4.5455,0.1,0.00023255,2323.9,0.00022968,2246.5,-6.9305e-05,0.040371,-8.8968e-05,-147.7,0.95658
7918,14.161,4.7273,0.1,0.00022748,2273.2,0.00022459,2195.4,-6.7599e-05,0.024081,-8.7342e-05,-148.32,0.95605
7919,14.161,4.9091,0.1,0.00022221,2220.6,0.00021943,2145.7,-6.6137e-05,0.0095166,-8.5154e-05,-142.88,0.95546
7920,14.161,5.0909,0.1,0.00021692,2167.7,0.00021438,2099,-6.4972e-05,-0.0045519,-8.2471e-05,-131.49,0.95481
7921,14.161,5.2727,0.1,0.00021178,2116.3,0.0002096,2056.8,-6.4139e-05,-0.0088064,-7.9379e-05,-114.52,0.95411
7922,14.161,5.4545,0.1,0.00020693,2067.9,0.00020521,2020.2,-6.3665e-05,-0.029731,-7.5952e-05,-92.35,0.95335
7923,14.161,5.6364,0.1,0.00020247,2023.4,0.00020129,1990.1,-6.3557e-05,0.11777,-7.2235e-05,-65.082,0.95255
7924,14.161,5.8182,0.1,0.00019843,1982.9,0.00019786,1966.5,-6.385e-05,0.10251,-6.8209e-05,-32.645,0.95169
7925,14.345,0.18182,0.1,0.00018702,1868.9,0.00018639,1850.9,-5.9942e-05,0.062486,-6.4682e-05,-35.551,0.97335
7926,14.345,0.36364,0.1,0.00019167,1915.4,0.00019035,1878.6,-5.9659e-05,0.11244,-6.9214e-05,-71.684,0.9742
7927,14.345,0.54545,0.1,0.00019692,1967.9,0.00019498,1914.5,-5.9839e-05,-0.034832,-7.3489e-05,-102.6,0.97501
7928,14.345,0.72727,0.1,0.00020276,2026.2,0.00020027,1958.9,-6.0444e-05,-0.0028587,-7.7552e-05,-128.55,0.97577
7929,14.345,0.90909,0.1,0.0002091,2089.5,0.00020615,2010.8,-6.1472e-05,0.0078534,-8.1346e-05,-149.32,0.97648
7930,14.345,1.0909,0.1,0.00021573,2155.8,0.00021247,2069.1,-6.2902e-05,0.026934,-8.4753e-05,-164.15,0.97714
7931,14.345,1.2727,0.1,0.00022243,2222.8,0.000219,2131.7,-6.4704e-05,0.045073,-8.7625e-05,-172.17,0.97774
7932,14.345,1.4545,0.1,0.00022894,2287.8,0.00022551,2196.5,-6.6822e-05,0.064487,-8.9828e-05,-172.79,0.97828
7933,14.345,1.6364,0.1,0.00023502,2348.6,0.00023176,2261.2,-6.9175e-05,0.083981,-9.1298e-05,-166.14,0.97876
7934,14.345,1.8182,0.1,0.00024053,2403.7,0.00023756,2323.3,-7.1648e-05,0.099618,-9.2075e-05,-153.38,0.97919
7935,14.345,2,0.1,0.00024538,2452.1,0.00024277,2381,-7.4104e-05,0.10465,-9.2301e-05,-136.62,0.97955
7936,14.345,2.1818,0.1,0.00024953,2493.6,0.0002473,2432.3,-7.6397e-05,0.090182,-9.2183e-05,-118.51,0.97985
7937,14.345,2.3636,0.1,0.00025297,2528,0.00025109,2475.7,-7.8393e-05,0.052486,-9.1924e-05,-101.62,0.98009
7938,14.345,2.5455,0.1,0.00025566,2554.9,0.00025405,2509.8,-7.9979e-05,-0.001307,-9.1672e-05,-87.861,0.98028
7939,14.345,2.7273,0.1,0.00025752,2573.4,0.0002561,2533.3,-8.1076e-05,-0.055414,-9.1497e-05,-78.353,0.9804
7940,14.345,2.9091,0.1,0.00025848,2583,0.00025715,2545.4,-8.1636e-05,-0.089724,-9.1412e-05,-73.544,0.98046
7941,14.345,3.0909,0.1,0.00025848,2583,0.00025715,2545.4,-8.1636e-05,-0.089723,-9.1412e-05,-73.544,0.98046
7942,14.345,3.2727,0.1,0.00025752,2573.4,0.0002561,2533.3,-8.1076e-05,-0.055414,-9.1497e-05,-78.353,0.9804
7943,14.345,3.4545,0.1,0.00025566,2554.9,0.00025405,2509.8,-7.9979e-05,-0.0013065,-9.1672e-05,-87.861,0.98028
7944,14.345,3.6364,0.1,0.00025297,2528,0.00025109,2475.7,-7.8393e-05,0.052486,-9.1924e-05,-101.62,0.98009
7945,14.345,3.8182,0.1,0.00024953,2493.6,0.0002473,2432.3,-7.6397e-05,0.090182,-9.2183e-05,-118.51,0.97985
7946,14.345,4,0.1,0.00024538,2452.1,0.00024277,2381,-7.4104e-05,0.10465,-9.2301e-05,-136.62,0.97955
7947,14.345,4.1818,0.1,0.00024053,2403.7,0.00023756,2323.3,-7.1648e-05,0.099618,-9.2075e-05,-153.38,0.97919
7948,14.345,4.3636,0.1,0.00023502,2348.6,0.00023176,2261.2,-6.9175e-05,0.083983,-9.1298e-05,-166.14,0.97876
7949,14.345,4.5455,0.1,0.00022894,2287.8,0.00022551,2196.5,-6.6822e-05,0.064487,-8.9828e-05,-172.79,0.97828
7950,14.345,4.7273,0.1,0.00022243,2222.8,0.000219,2131.7,-6.4704e-05,0.045074,-8.7625e-05,-172.17,0.97774
7951,14.345,4.9091,0.1,0.00021573,2155.8,0.00021247,2069.1,-6.2902e-05,0.026934,-8.4753e-05,-164.15,0.97714
7952,14.345,5.0909,0.1,0.0002091,2089.5,0.00020615,2010.8,-6.1472e-05,0.0078549,-8.1346e-05,-149.32,0.97648
7953,14.345,5.2727,0.1,0.00020276,2026.2,0.00020027,1958.9,-6.0444e-05,-0.002857,-7.7552e-05,-128.55,0.97577
7954,14.345,5.4545,0.1,0.00019692,1967.9,0.00019498,1914.5,-5.9839e-05,-0.034831,-7.3489e-05,-102.6,0.97501
7955,14.345,5.6364,0.1,0.00019167,1915.4,0.00019035,1878.6,-5.9659e-05,0.11244,-6.9214e-05,-71.684,0.9742
7956,14.345,5.8182,0.1,0.00018702,1868.9,0.00018639,1850.9,-5.9942e-05,0.062487,-6.4682e-05,-35.551,0.97335
7957,14.529,0.18182,0.1,0.00017421,1740.9,0.00017352,1721.2,-5.5568e-05,-0.011032,-6.07e-05,-38.57,0.99513
7958,14.529,0.36364,0.1,0.00017948,1793.6,0.00017802,1753.3,-5.5309e-05,0.096234,-6.5716e-05,-78.096,0.99599
7959,14.529,0.54545,0.1,0.00018561,1854.9,0.00018343,1795.8,-5.5576e-05,-0.040541,-7.0604e-05,-112.96,0.9968
7960,14.529,0.72727,0.1,0.00019264,1925.1,0.00018979,1849.2,-5.6324e-05,0.0063086,-7.5437e-05,-143.6,0.99757
7961,14.529,0.90909,0.1,0.00020044,2003,0.00019702,1912.8,-5.7565e-05,0.026549,-8.0138e-05,-169.58,0.99829
7962,14.529,1.0909,0.1,0.00020878,2086.3,0.00020491,1985.1,-5.9291e-05,0.052435,-8.4522e-05,-189.52,0.99896
7963,14.529,1.2727,0.1,0.00021732,2171.7,0.00021319,2063.9,-6.1486e-05,0.074488,-8.8344e-05,-201.72,0.99957
7964,14.529,1.4545,0.1,0.0002257,2255.5,0.00022152,2146.2,-6.4102e-05,0.096039,-9.1362e-05,-204.72,1.0001
7965,14.529,1.6364,0.1,0.00023357,2334.1,0.00022957,2228.8,-6.7048e-05,0.11658,-9.3428e-05,-198.09,1.0006
7966,14.529,1.8182,0.1,0.0002407,2405.3,0.00023706,2308.6,-7.0179e-05,0.13356,-9.4558e-05,-183.04,1.0011
7967,14.529,2,0.1,0.00024697,2468,0.0002438,2382.8,-7.3308e-05,0.13366,-9.4946e-05,-162.45,1.0014
7968,14.529,2.1818,0.1,0.00025236,2521.9,0.00024968,2448.9,-7.6231e-05,0.10899,-9.4897e-05,-140.14,1.0017
7969,14.529,2.3636,0.1,0.00025687,2566.9,0.00025462,2505,-7.8761e-05,0.057223,-9.4704e-05,-119.73,1.002
7970,14.529,2.5455,0.1,0.00026042,2602.4,0.0002585,2549,-8.0754e-05,-0.015926,-9.4549e-05,-103.67,1.0022
7971,14.529,2.7273,0.1,0.0002629,2627.2,0.0002612,2579.4,-8.2119e-05,-0.085949,-9.4481e-05,-92.967,1.0023
7972,14.529,2.9091,0.1,0.00026418,2640,0.00026258,2595,-8.281e-05,-0.12766,-9.4467e-05,-87.712,1.0024
7973,14.529,3.0909,0.1,0.00026418,2640,0.00026258,2595,-8.281e-05,-0.12766,-9.4467e-05,-87.712,1.0024
7974,14.529,3.2727,0.1,0.0002629,2627.2,0.0002612,2579.4,-8.2119e-05,-0.085949,-9.4481e-05,-92.967,1.0023
7975,14.529,3.4545,0.1,0.00026042,2602.4,0.0002585,2549,-8.0754e-05,-0.015926,-9.4549e-05,-103.67,1.0022
7976,14.529,3.6364,0.1,0.00025687,2566.9,0.00025462,2505,-7.8761e-05,0.057224,-9.4704e-05,-119.73,1.002
7977,14.529,3.8182,0.1,0.00025236,2521.9,0.00024968,2448.9,-7.6231e-05,0.10899,-9.4897e-05,-140.14,1.0017
7978,14.529,4,0.1,0.00024697,2468,0.0002438,2382.8,-7.3308e-05,0.13366,-9.4946e-05,-162.45,1.0014
7979,14.529,4.1818,0.1,0.0002407,2405.3,0.00023706,2308.6,-7.0179e-05,0.13356,-9.4558e-05,-183.04,1.0011
7980,14.529,4.3636,0.1,0.00023357,2334.1,0.00022957,2228.8,-6.7048e-05,0.11658,-9.3428e-05,-198.09,1.0006
7981,14.529,4.5455,0.1,0.0002257,2255.5,0.00022152,2146.2,-6.4102e-05,0.096039,-9.1361e-05,-204.72,1.0001
7982,14.529,4.7273,0.1,0.00021732,2171.7,0.00021319,2063.9,-6.1486e-05,0.074488,-8.8344e-05,-201.72,0.99957
7983,14.529,4.9091,0.1,0.00020878,2086.3,0.00020491,1985.1,-5.9291e-05,0.052436,-8.4522e-05,-189.52,0.99896
7984,14.529,5.0909,0.1,0.00020044,2003,0.00019702,1912.8,-5.7565e-05,0.02655,-8.0138e-05,-169.58,0.99829
7985,14.529,5.2727,0.1,0.00019264,1925.1,0.00018979,1849.2,-5.6324e-05,0.0063111,-7.5437e-05,-143.6,0.99757
7986,14.529,5.4545,0.1,0.00018561,1854.9,0.00018343,1795.8,-5.5576e-05,-0.040541,-7.0604e-05,-112.96,0.9968
7987,14.529,5.6364,0.1,0.00017948,1793.6,0.00017802,1753.3,-5.5309e-05,0.096234,-6.5716e-05,-78.096,0.99599
7988,14.529,5.8182,0.1,0.00017421,1740.9,0.00017352,1721.2,-5.5568e-05,-0.011031,-6.07e-05,-38.57,0.99513
7989,14.713,0.18182,0.1,0.00015978,1596.7,0.00015903,1575.5,-5.0667e-05,-0.1225,-5.6178e-05,-41.534,1.017
7990,14.713,0.36364,0.1,0.00016565,1655.4,0.00016406,1611.9,-5.0454e-05,0.066409,-6.1619e-05,-83.82,1.0179
7991,14.713,0.54545,0.1,0.00017277,1726.5,0.00017035,1661.7,-5.0816e-05,-0.045758,-6.7179e-05,-122.99,1.0187
7992,14.713,0.72727,0.1,0.00018119,1810.7,0.00017795,1725.6,-5.1712e-05,0.020283,-7.2956e-05,-159.6,1.0195
7993,14.713,0.90909,0.1,0.00019081,1906.7,0.00018679,1803,-5.3167e-05,0.054411,-7.884e-05,-192.85,1.0202
7994,14.713,1.0909,0.1,0.00020131,2011.7,0.00019665,1892.4,-5.5202e-05,0.089996,-8.4558e-05,-220.48,1.0209
7995,14.713,1.2727,0.1,0.00021224,2121,0.00020715,1991.1,-5.7834e-05,0.1182,-8.9717e-05,-239.44,1.0215
7996,14.713,1.4545,0.1,0.00022307,2229.2,0.00021785,2095.6,-6.104e-05,0.14499,-9.3901e-05,-246.76,1.0221
7997,14.713,1.6364,0.1,0.00023328,2331.2,0.00022825,2201.5,-6.4728e-05,0.17248,-9.6808e-05,-240.86,1.0226
7998,14.713,1.8182,0.1,0.0002425,2423.3,0.00023794,2304.3,-6.8717e-05,0.18721,-9.8398e-05,-222.83,1.0231
7999,14.713,2,0.1,0.00025058,2504,0.00024665,2399.9,-7.2737e-05,0.19183,-9.8947e-05,-196.74,1.0235
8000,14.713,2.1818,0.1,0.00025753,2573.5,0.00025425,2485.2,-7.6488e-05,0.15046,-9.8937e-05,-168.52,1.0238
8001,14.713,2.3636,0.1,0.00026338,2632,0.00026064,2557.3,-7.9703e-05,0.051778,-9.8815e-05,-143.55,1.0241
8002,14.713,2.5455,0.1,0.00026803,2678.4,0.00026568,2613.7,-8.2191e-05,-0.053053,-9.8814e-05,-124.95,1.0243
8003,14.713,2.7273,0.1,0.00027129,2711,0.00026918,2652.5,-8.3864e-05,-0.13486,-9.8929e-05,-113.33,1.0244
8004,14.713,2.9091,0.1,0.00027298,2727.9,0.00027098,2672.2,-8.4699e-05,-0.17979,-9.9037e-05,-107.91,1.0245
8005,14.713,3.0909,0.1,0.00027298,2727.9,0.00027098,2672.2,-8.4699e-05,-0.17979,-9.9037e-05,-107.91,1.0245
8006,14.713,3.2727,0.1,0.00027129,2711,0.00026918,2652.5,-8.3864e-05,-0.13486,-9.8929e-05,-113.33,1.0244
8007,14.713,3.4545,0.1,0.00026803,2678.4,0.00026568,2613.7,-8.2191e-05,-0.053052,-9.8814e-05,-124.95,1.0243
8008,14.713,3.6364,0.1,0.00026338,2632,0.00026064,2557.3,-7.9703e-05,0.051779,-9.8815e-05,-143.55,1.0241
8009,14.713,3.8182,0.1,0.00025753,2573.5,0.00025425,2485.2,-7.6488e-05,0.15046,-9.8937e-05,-168.52,1.0238
8010,14.713,4,0.1,0.00025058,2504,0.00024665,2399.9,-7.2737e-05,0.19183,-9.8947e-05,-196.74,1.0235
8011,14.713,4.1818,0.1,0.0002425,2423.3,0.00023794,2304.3,-6.8717e-05,0.18721,-9.8398e-05,-222.83,1.0231
8012,14.713,4.3636,0.1,0.00023328,2331.2,0.00022825,2201.5,-6.4728e-05,0.17248,-9.6808e-05,-240.86,1.0226
8013,14.713,4.5455,0.1,0.00022307,2229.2,0.00021785,2095.6,-6.104e-05,0.14499,-9.3901e-05,-246.76,1.0221
8014,14.713,4.7273,0.1,0.00021224,2121,0.00020715,1991.1,-5.7834e-05,0.1182,-8.9717e-05,-239.44,1.0215
8015,14.713,4.9091,0.1,0.00020131,2011.7,0.00019665,1892.4,-5.5202e-05,0.089996,-8.4558e-05,-220.48,1.0209
8016,14.713,5.0909,0.1,0.00019081,1906.7,0.00018679,1803,-5.3167e-05,0.054413,-7.884e-05,-192.85,1.0202
8017,14.713,5.2727,0.1,0.00018119,1810.7,0.00017795,1725.6,-5.1712e-05,0.020286,-7.2956e-05,-159.6,1.0195
8018,14.713,5.4545,0.1,0.00017277,1726.5,0.00017035,1661.7,-5.0816e-05,-0.045758,-6.7179e-05,-122.99,1.0187
8019,14.713,5.6364,0.1,0.00016565,1655.4,0.00016406,1611.9,-5.0454e-05,0.066408,-6.1619e-05,-83.82,1.0179
8020,14.713,5.8182,0.1,0.00015978,1596.7,0.00015903,1575.5,-5.0667e-05,-0.1225,-5.6178e-05,-41.534,1.017
8021,14.897,0.18182,0.1,0.00014355,1434.5,0.00014275,1411.8,-4.519e-05,-0.2681,-5.1035e-05,-44.185,1.039
8022,14.897,0.36364,0.1,0.00014996,1498.6,0.00014827,1452.5,-4.5051e-05,0.019186,-5.6796e-05,-88.227,1.0399
8023,14.897,0.54545,0.1,0.00015816,1580.5,0.0001555,1510.3,-4.5514e-05,-0.052457,-6.31e-05,-132.19,1.0407
8024,14.897,0.72727,0.1,0.00016825,1681.3,0.00016454,1586,-4.6539e-05,0.035359,-7.005e-05,-176.62,1.0415
8025,14.897,0.90909,0.1,0.00018008,1799.6,0.00017533,1679.4,-4.8181e-05,0.087072,-7.7494e-05,-220.16,1.0423
8026,14.897,1.0909,0.1,0.00019332,1931.9,0.0001876,1789.1,-5.0505e-05,0.13826,-8.5039e-05,-259.34,1.043
8027,14.897,1.2727,0.1,0.00020736,2072.2,0.00020092,1912.5,-5.3588e-05,0.18044,-9.2099e-05,-289.18,1.0437
8028,14.897,1.4545,0.1,0.00022145,2212.9,0.0002147,2045.2,-5.7472e-05,0.20016,-9.7985e-05,-304.19,1.0443
8029,14.897,1.6364,0.1,0.00023477,2346.1,0.00022821,2181.4,-6.2096e-05,0.19144,-0.00010211,-300.46,1.0448
8030,14.897,1.8182,0.1,0.00024672,2465.5,0.00024081,2314.7,-6.7226e-05,0.21315,-0.00010429,-278.26,1.0453
8031,14.897,2,0.1,0.0002571,2569.2,0.00025208,2438.7,-7.2472e-05,0.14615,-0.00010492,-243.69,1.0457
8032,14.897,2.1818,0.1,0.00026598,2658,0.00026187,2548.8,-7.7344e-05,0.051087,-0.00010483,-206.47,1.046
8033,14.897,2.3636,0.1,0.00027346,2732.7,0.00027006,2640.9,-8.1423e-05,-0.0061258,-0.00010474,-175.23,1.0463
8034,14.897,2.5455,0.1,0.00027941,2792.2,0.00027648,2712,-8.4486e-05,-0.11704,-0.00010496,-153.94,1.0465
8035,14.897,2.7273,0.1,0.00028358,2833.8,0.00028089,2760.1,-8.6477e-05,-0.2098,-0.00010535,-141.98,1.0467
8036,14.897,2.9091,0.1,0.00028572,2855.2,0.00028314,2784.2,-8.7444e-05,-0.24436,-0.00010563,-136.9,1.0467
8037,14.897,3.0909,0.1,0.00028572,2855.2,0.00028314,2784.2,-8.7444e-05,-0.24436,-0.00010563,-136.9,1.0467
8038,14.897,3.2727,0.1,0.00028358,2833.8,0.00028089,2760.1,-8.6477e-05,-0.2098,-0.00010535,-141.98,1.0467
8039,14.897,3.4545,0.1,0.00027941,2792.2,0.00027648,2712,-8.4486e-05,-0.11704,-0.00010496,-153.94,1.0465
8040,14.897,3.6364,0.1,0.00027346,2732.7,0.00027006,2640.9,-8.1423e-05,-0.006125,-0.00010474,-175.23,1.0463
8041,14.897,3.8182,0.1,0.00026598,2658,0.00026187,2548.8,-7.7344e-05,0.051087,-0.00010483,-206.47,1.046
8042,14.897,4,0.1,0.0002571,2569.2,0.00025208,2438.7,-7.2472e-05,0.14615,-0.00010492,-243.69,1.0457
8043,14.897,4.1818,0.1,0.00024672,2465.5,0.00024081,2314.7,-6.7226e-05,0.21315,-0.00010429,-278.26,1.0453
8044,14.897,4.3636,0.1,0.00023477,2346.1,0.00022821,2181.4,-6.2096e-05,0.19144,-0.00010211,-300.46,1.0448
8045,14.897,4.5455,0.1,0.00022145,2212.9,0.0002147,2045.2,-5.7472e-05,0.20016,-9.7985e-05,-304.19,1.0443
8046,14.897,4.7273,0.1,0.00020736,2072.2,0.00020092,1912.5,-5.3588e-05,0.18044,-9.2099e-05,-289.18,1.0437
8047,14.897,4.9091,0.1,0.00019332,1931.9,0.0001876,1789.1,-5.0505e-05,0.13826,-8.5039e-05,-259.34,1.043
8048,14.897,5.0909,0.1,0.00018008,1799.6,0.00017533,1679.4,-4.8181e-05,0.087074,-7.7494e-05,-220.16,1.0423
8049,14.897,5.2727,0.1,0.00016825,1681.3,0.00016454,1586,-4.6539e-05,0.03536,-7.005e-05,-176.62,1.0415
8050,14.897,5.4545,0.1,0.00015816,1580.5,0.0001555,1510.3,-4.5514e-05,-0.052458,-6.31e-05,-132.19,1.0407
8051,14.897,5.6364,0.1,0.00014996,1498.6,0.00014827,1452.5,-4.5051e-05,0.019186,-5.6796e-05,-88.227,1.0399
8052,14.897,5.8182,0.1,0.00014355,1434.5,0.00014275,1411.8,-4.519e-05,-0.2681,-5.1035e-05,-44.185,1.039
8053,15.08,0.18182,0.1,0.0001254,1253.1,0.00012454,1229.2,-3.9107e-05,-0.39627,-4.5199e-05,-46.165,1.0611
8054,15.08,0.36364,0.1,0.00013227,1321.8,0.00013049,1274.1,-3.9081e-05,-0.021114,-5.1146e-05,-90.67,1.062
8055,15.08,0.54545,0.1,0.0001417,1416,0.00013879,1340.6,-3.964e-05,-0.038586,-5.8309e-05,-140.31,1.0629
8056,15.08,0.72727,0.1,0.00015376,1536.5,0.0001495,1429.6,-4.0753e-05,0.066231,-6.6751e-05,-195.27,1.0637
8057,15.08,0.90909,0.1,0.00016831,1681.9,0.00016256,1540.9,-4.2505e-05,0.14192,-7.6244e-05,-253.36,1.0645
8058,15.08,1.0909,0.1,0.00018495,1848.2,0.00017773,1673.9,-4.503e-05,0.22044,-8.6273e-05,-309.66,1.0652
8059,15.08,1.2727,0.1,0.00020301,2028.7,0.00019457,1826.7,-4.8511e-05,0.27383,-9.6041e-05,-356.85,1.0659
8060,15.08,1.4545,0.1,0.00022146,2213.1,0.00021237,1995.1,-5.3116e-05,0.34486,-0.00010448,-385.59,1.0665
8061,15.08,1.6364,0.1,0.00023903,2388.6,0.00023008,2171.7,-5.8885e-05,0.5187,-0.00011046,-386.97,1.0671
8062,15.08,1.8182,0.1,0.00025466,2544.9,0.00024665,2346.5,-6.5601e-05,0.38067,-0.00011341,-358.86,1.0676
8063,15.08,2,0.1,0.00026795,2677.7,0.00026133,2509.4,-7.2582e-05,0.48325,-0.0001139,-309.98,1.0681
8064,15.08,2.1818,0.1,0.00027917,2789.8,0.00027389,2652.1,-7.9022e-05,0.40187,-0.0001134,-257.91,1.0684
8065,15.08,2.3636,0.1,0.00028856,2883.6,0.00028424,2768.5,-8.4249e-05,-0.1273,-0.0001132,-217.67,1.0687
8066,15.08,2.5455,0.1,0.00029588,2956.8,0.00029211,2855.1,-8.7915e-05,-0.2799,-0.00011365,-193.67,1.069
8067,15.08,2.7273,0.1,0.00030085,3006.5,0.00029733,2911,-9.0139e-05,-0.29302,-0.00011437,-182.32,1.0691
8068,15.08,2.9091,0.1,0.00030334,3031.3,0.00029991,2938.1,-9.117e-05,-0.30741,-0.00011485,-178.21,1.0692
8069,15.08,3.0909,0.1,0.00030334,3031.3,0.00029991,2938.1,-9.117e-05,-0.30741,-0.00011485,-178.21,1.0692
8070,15.08,3.2727,0.1,0.00030085,3006.5,0.00029733,2911,-9.0139e-05,-0.29302,-0.00011437,-182.32,1.0691
8071,15.08,3.4545,0.1,0.00029588,2956.8,0.00029211,2855.1,-8.7915e-05,-0.2799,-0.00011365,-193.67,1.069
8072,15.08,3.6364,0.1,0.00028856,2883.6,0.00028424,2768.5,-8.4249e-05,-0.1273,-0.0001132,-217.67,1.0687
8073,15.08,3.8182,0.1,0.00027917,2789.8,0.00027389,2652.1,-7.9022e-05,0.40188,-0.0001134,-257.91,1.0684
8074,15.08,4,0.1,0.00026795,2677.7,0.00026133,2509.4,-7.2582e-05,0.48325,-0.0001139,-309.98,1.0681
8075,15.08,4.1818,0.1,0.00025466,2544.9,0.00024665,2346.5,-6.5601e-05,0.38067,-0.00011341,-358.86,1.0676
8076,15.08,4.3636,0.1,0.00023903,2388.6,0.00023008,2171.7,-5.8885e-05,0.5187,-0.00011046,-386.97,1.0671
8077,15.08,4.5455,0.1,0.00022146,2213.1,0.00021237,1995.1,-5.3116e-05,0.34486,-0.00010448,-385.59,1.0665
8078,15.08,4.7273,0.1,0.00020301,2028.7,0.00019457,1826.7,-4.8511e-05,0.27383,-9.6041e-05,-356.85,1.0659
8079,15.08,4.9091,0.1,0.00018495,1848.2,0.00017773,1673.9,-4.503e-05,0.22044,-8.6273e-05,-309.66,1.0652
8080,15.08,5.0909,0.1,0.00016831,1681.9,0.00016256,1540.9,-4.2505e-05,0.14192,-7.6244e-05,-253.36,1.0645
8081,15.08,5.2727,0.1,0.00015376,1536.5,0.0001495,1429.6,-4.0753e-05,0.066232,-6.6751e-05,-195.27,1.0637
8082,15.08,5.4545,0.1,0.0001417,1416,0.00013879,1340.6,-3.964e-05,-0.038586,-5.8309e-05,-140.31,1.0629
8083,15.08,5.6364,0.1,0.00013227,1321.8,0.00013049,1274.1,-3.9081e-05,-0.021113,-5.1146e-05,-90.67,1.062
8084,15.08,5.8182,0.1,0.0001254,1253.1,0.00012454,1229.2,-3.9107e-05,-0.39626,-4.5199e-05,-46.165,1.0611
8085,15.264,0.18182,0.1,0.00010529,1052.1,0.0001044,1027.6,-3.2424e-05,-0.44823,-3.8632e-05,-47.093,1.0833
8086,15.264,0.36364,0.1,0.0001126,1125.2,0.00011078,1077,-3.2571e-05,-0.061718,-4.466e-05,-90.895,1.0842
8087,15.264,0.54545,0.1,0.00012355,1234.6,0.00012036,1153.8,-3.3216e-05,-0.038844,-5.2925e-05,-148.13,1.0851
8088,15.264,0.72727,0.1,0.00013803,1379.3,0.00013303,1257.6,-3.4339e-05,0.05515,-6.3307e-05,-217.6,1.0859
8089,15.264,0.90909,0.1,0.00015584,1557.3,0.00014868,1388.2,-3.606e-05,0.13483,-7.5449e-05,-295.83,1.0868
8090,15.264,1.0909,0.1,0.00017661,1764.8,0.00016715,1546.1,-3.8596e-05,0.21409,-8.8762e-05,-376.71,1.0875
8091,15.264,1.2727,0.1,0.00019974,1996,0.0001882,1732.1,-4.227e-05,0.37782,-0.00010233,-450.91,1.0883
8092,15.264,1.4545,0.1,0.00022411,2239.6,0.00021122,1944.5,-4.7498e-05,0.54669,-0.00011471,-504.49,1.089
8093,15.264,1.6364,0.1,0.00024791,2477.4,0.00023495,2176.4,-5.4741e-05,-0.24324,-0.00012384,-519.45,1.0896
8094,15.264,1.8182,0.1,0.00026872,2685.4,0.00025724,2411.4,-6.3667e-05,0.23743,-0.00012794,-482.7,1.0901
8095,15.264,2,0.1,0.00028591,2857.1,0.00027676,2630.6,-7.3483e-05,-0.9686,-0.0001277,-408.3,1.0906
8096,15.264,2.1818,0.1,0.00029986,2996.6,0.00029287,2817.3,-8.231e-05,-1.6429,-0.00012598,-329.78,1.091
8097,15.264,2.3636,0.1,0.00031099,3107.8,0.0003054,2961,-8.8725e-05,-0.24546,-0.00012529,-274.99,1.0914
8098,15.264,2.5455,0.1,0.0003192,3189.8,0.00031425,3058.2,-9.2835e-05,-0.44194,-0.00012583,-248.32,1.0916
8099,15.264,2.7273,0.1,0.00032425,3240.2,0.00031953,3114.3,-9.501e-05,-0.3852,-0.00012668,-238.35,1.0918
8100,15.264,2.9091,0.1,0.00032655,3263.3,0.00032191,3139.1,-9.5919e-05,-0.31752,-0.00012721,-235.39,1.0919
8101,15.264,3.0909,0.1,0.00032655,3263.3,0.00032191,3139.1,-9.5919e-05,-0.31752,-0.00012721,-235.39,1.0919
8102,15.264,3.2727,0.1,0.00032425,3240.2,0.00031953,3114.3,-9.501e-05,-0.38521,-0.00012668,-238.35,1.0918
8103,15.264,3.4545,0.1,0.0003192,3189.8,0.00031425,3058.2,-9.2835e-05,-0.44194,-0.00012583,-248.32,1.0916
8104,15.264,3.6364,0.1,0.00031099,3107.8,0.0003054,2961,-8.8725e-05,-0.24546,-0.00012529,-274.99,1.0914
8105,15.264,3.8182,0.1,0.00029986,2996.6,0.00029287,2817.3,-8.231e-05,-1.6429,-0.00012598,-329.78,1.091
8106,15.264,4,0.1,0.00028591,2857.1,0.00027676,2630.6,-7.3483e-05,-0.9686,-0.0001277,-408.3,1.0906
8107,15.264,4.1818,0.1,0.00026872,2685.4,0.00025724,2411.4,-6.3667e-05,0.23743,-0.00012794,-482.7,1.0901
8108,15.264,4.3636,0.1,0.00024791,2477.4,0.00023495,2176.4,-5.4741e-05,-0.24324,-0.00012384,-519.45,1.0896
8109,15.264,4.5455,0.1,0.00022411,2239.6,0.00021122,1944.5,-4.7498e-05,0.54669,-0.00011471,-504.49,1.089
8110,15.264,4.7273,0.1,0.00019974,1996,0.0001882,1732.1,-4.227e-05,0.37782,-0.00010233,-450.91,1.0883
8111,15.264,4.9091,0.1,0.00017661,1764.8,0.00016715,1546.1,-3.8596e-05,0.21409,-8.8762e-05,-376.71,1.0875
8112,15.264,5.0909,0.1,0.00015584,1557.3,0.00014868,1388.2,-3.606e-05,0.13483,-7.5449e-05,-295.83,1.0868
8113,15.264,5.2727,0.1,0.00013803,1379.3,0.00013303,1257.6,-3.4339e-05,0.055152,-6.3307e-05,-217.6,1.0859
8114,15.264,5.4545,0.1,0.00012355,1234.6,0.00012036,1153.8,-3.3216e-05,-0.038843,-5.2925e-05,-148.13,1.0851
8115,15.264,5.6364,0.1,0.0001126,1125.2,0.00011078,1077,-3.2571e-05,-0.061717,-4.466e-05,-90.895,1.0842
8116,15.264,5.8182,0.1,0.00010529,1052.1,0.0001044,1027.6,-3.2424e-05,-0.44823,-3.8632e-05,-47.093,1.0833
8117,15.448,0.18182,0.1,8.3346e-05,832.88,8.2456e-05,808.65,-2.5154e-05,0.10777,-3.137e-05,-46.597,1.1056
8118,15.448,0.36364,0.1,9.1428e-05,913.65,8.9564e-05,865.39,-2.5575e-05,0.27308,-3.7601e-05,-90.086,1.1065
8119,15.448,0.54545,0.1,0.00010457,1045,0.00010095,956.33,-2.63e-05,0.23928,-4.7519e-05,-159.19,1.1074
8120,15.448,0.72727,0.1,0.00012212,1220.4,0.00011597,1077,-2.7323e-05,0.27909,-6.0462e-05,-248.72,1.1083
8121,15.448,0.90909,0.1,0.00014368,1435.8,0.00013437,1226.3,-2.8795e-05,0.33944,-7.5863e-05,-353.31,1.1091
8122,15.448,1.0909,0.1,0.00016911,1689.9,0.00015624,1407.3,-3.0988e-05,0.54759,-9.3247e-05,-467.24,1.11
8123,15.448,1.2727,0.1,0.00019829,1981.6,0.00018189,1625.9,-3.4421e-05,0.67223,-0.00011191,-581.53,1.1108
8124,15.448,1.4545,0.1,0.00023084,2306.8,0.0002116,1890.2,-3.9881e-05,0.65826,-0.00013054,-680.52,1.1115
8125,15.448,1.6364,0.1,0.00026389,2637,0.00024381,2197.4,-4.8088e-05,4.2166,-0.0001456,-728.46,1.1122
8126,15.448,1.8182,0.1,0.0002934,2932,0.00027566,2529.1,-6.067e-05,2.0926,-0.0001522,-685.6,1.1128
8127,15.448,2,0.1,0.00031614,3159.2,0.00030283,2842.7,-7.4746e-05,5.7448,-0.00015028,-561.81,1.1134
8128,15.448,2.1818,0.1,0.00033254,3323.1,0.00032319,3089.5,-8.7449e-05,4.1121,-0.00014508,-428.91,1.1138
8129,15.448,2.3636,0.1,0.00034495,3447.1,0.00033756,3256,-9.6117e-05,-2.5018,-0.00014276,-352.94,1.1142
8130,15.448,2.5455,0.1,0.0003516,3513.6,0.00034498,3340.6,-9.9668e-05,-0.33962,-0.00014267,-323.43,1.1145
8131,15.448,2.7273,0.1,0.0003543,3540.6,0.00034794,3373.6,-0.00010111,-0.33858,-0.0001427,-312.79,1.1146
8132,15.448,2.9091,0.1,0.00035507,3548.3,0.00034879,3383.3,-0.00010153,-0.2077,-0.00014269,-309.48,1.1147
8133,15.448,3.0909,0.1,0.00035507,3548.3,0.00034879,3383.3,-0.00010153,-0.2077,-0.00014269,-309.48,1.1147
8134,15.448,3.2727,0.1,0.0003543,3540.6,0.00034794,3373.6,-0.00010111,-0.33858,-0.0001427,-312.79,1.1146
8135,15.448,3.4545,0.1,0.0003516,3513.6,0.00034498,3340.6,-9.9668e-05,-0.33962,-0.00014267,-323.43,1.1145
8136,15.448,3.6364,0.1,0.00034495,3447.1,0.00033756,3256,-9.6117e-05,-2.5018,-0.00014276,-352.94,1.1142
8137,15.448,3.8182,0.1,0.00033254,3323.1,0.00032319,3089.5,-8.7449e-05,4.1121,-0.00014508,-428.91,1.1138
8138,15.448,4,0.1,0.00031614,3159.2,0.00030283,2842.7,-7.4746e-05,5.7448,-0.00015028,-561.81,1.1134
8139,15.448,4.1818,0.1,0.0002934,2932,0.00027566,2529.1,-6.067e-05,2.0926,-0.0001522,-685.6,1.1128
8140,15.448,4.3636,0.1,0.00026389,2637,0.00024381,2197.4,-4.8088e-05,4.2166,-0.0001456,-728.46,1.1122
8141,15.448,4.5455,0.1,0.00023084,2306.8,0.0002116,1890.2,-3.9881e-05,0.65826,-0.00013054,-680.52,1.1115
8142,15.448,4.7273,0.1,0.00019829,1981.6,0.00018189,1625.9,-3.4421e-05,0.67223,-0.00011191,-581.53,1.1108
8143,15.448,4.9091,0.1,0.00016911,1689.9,0.00015624,1407.3,-3.0988e-05,0.54759,-9.3247e-05,-467.24,1.11
8144,15.448,5.0909,0.1,0.00014368,1435.8,0.00013437,1226.3,-2.8795e-05,0.33944,-7.5863e-05,-353.31,1.1091
8145,15.448,5.2727,0.1,0.00012212,1220.4,0.00011597,1077,-2.7323e-05,0.27909,-6.0462e-05,-248.72,1.1083
8146,15.448,5.4545,0.1,0.00010457,1045,0.00010095,956.33,-2.63e-05,0.23928,-4.7519e-05,-159.19,1.1074
8147,15.448,5.6364,0.1,9.1428e-05,913.65,8.9564e-05,865.39,-2.5575e-05,0.27308,-3.7601e-05,-90.086,1.1065
8148,15.448,5.8182,0.1,8.3346e-05,832.88,8.2456e-05,808.65,-2.5154e-05,0.10777,-3.137e-05,-46.597,1.1056
8149,15.632,0.18182,0.1,6.0127e-05,600.86,5.9208e-05,576.6,-1.74e-05,1.0018,-2.3744e-05,-46.668,1.1279
8150,15.632,0.36364,0.1,7.0449e-05,704.01,6.8323e-05,651.11,-1.8312e-05,0.17463,-3.112e-05,-96.064,1.1288
8151,15.632,0.54545,0.1,8.731e-05,872.5,8.2648e-05,764.48,-1.9127e-05,-0.21339,-4.3843e-05,-185.92,1.1297
8152,15.632,0.72727,0.1,0.00010873,1086.6,0.00010041,903.69,-1.9927e-05,-0.49422,-6.0022e-05,-301.75,1.1307
8153,15.632,0.90909,0.1,0.00013426,1341.7,0.00012135,1068.1,-2.0882e-05,-0.60924,-7.9041e-05,-437.59,1.1316
8154,15.632,1.0909,0.1,0.00016431,1642,0.00014606,1264.2,-2.2299e-05,-0.78493,-0.0001009,-591.33,1.1325
8155,15.632,1.2727,0.1,0.0002001,1999.6,0.00017593,1506.3,-2.4646e-05,-0.68938,-0.00012598,-762.09,1.1333
8156,15.632,1.4545,0.1,0.00024243,2422.7,0.00021255,1815.1,-2.9092e-05,-0.55344,-0.00015357,-935.8,1.1342
8157,15.632,1.6364,0.1,0.00029294,2927.4,0.00025901,2229.3,-3.8081e-05,-2.9651,-0.0001821,-1085.1,1.1349
8158,15.632,1.8182,0.1,0.00034309,3428.5,0.000311,2742.7,-5.5113e-05,-8.1168,-0.00020022,-1098.4,1.1357
8159,15.632,2,0.1,0.00037278,3725.3,0.00035141,3224.9,-8.2011e-05,-31.632,-0.00018923,-837.27,1.1363
8160,15.632,2.1818,0.1,0.00039225,3919.8,0.00037899,3589.7,-0.00010096,-16.371,-0.00017626,-582.19,1.1368
8161,15.632,2.3636,0.1,0.00039719,3969.2,0.00038734,3719.3,-0.00010734,2.4394,-0.00016908,-461.45,1.1372
8162,15.632,2.5455,0.1,0.00039445,3941.7,0.00038557,3713.8,-0.00010878,-0.62709,-0.0001648,-421.53,1.1375
8163,15.632,2.7273,0.1,0.00038933,3890.6,0.00038094,3674.4,-0.00010807,0.081003,-0.00016151,-401.4,1.1378
8164,15.632,2.9091,0.1,0.00038617,3859,0.00037797,3647.3,-0.00010745,0.12233,-0.00015981,-393.3,1.1379
8165,15.632,3.0909,0.1,0.00038617,3859,0.00037797,3647.3,-0.00010745,0.12233,-0.00015981,-393.3,1.1379
8166,15.632,3.2727,0.1,0.00038933,3890.6,0.00038094,3674.4,-0.00010807,0.081002,-0.00016151,-401.4,1.1378
8167,15.632,3.4545,0.1,0.00039445,3941.7,0.00038557,3713.8,-0.00010878,-0.62709,-0.0001648,-421.53,1.1375
8168,15.632,3.6364,0.1,0.00039719,3969.2,0.00038734,3719.3,-0.00010734,2.4394,-0.00016908,-461.45,1.1372
8169,15.632,3.8182,0.1,0.00039225,3919.8,0.00037899,3589.7,-0.00010096,-16.371,-0.00017626,-582.19,1.1368
8170,15.632,4,0.1,0.00037278,3725.3,0.00035141,3224.9,-8.2011e-05,-31.632,-0.00018923,-837.27,1.1363
8171,15.632,4.1818,0.1,0.00034309,3428.5,0.000311,2742.7,-5.5113e-05,-8.1168,-0.00020022,-1098.4,1.1357
8172,15.632,4.3636,0.1,0.00029294,2927.4,0.00025901,2229.3,-3.8081e-05,-2.9651,-0.0001821,-1085.1,1.1349
8173,15.632,4.5455,0.1,0.00024243,2422.7,0.00021255,1815.1,-2.9092e-05,-0.55344,-0.00015357,-935.8,1.1342
8174,15.632,4.7273,0.1,0.0002001,1999.6,0.00017593,1506.3,-2.4646e-05,-0.68938,-0.00012598,-762.09,1.1333
8175,15.632,4.9091,0.1,0.00016431,1642,0.00014606,1264.2,-2.2299e-05,-0.78493,-0.0001009,-591.33,1.1325
8176,15.632,5.0909,0.1,0.00013426,1341.7,0.00012135,1068.1,-2.0882e-05,-0.60924,-7.9041e-05,-437.59,1.1316
8177,15.632,5.2727,0.1,0.00010873,1086.6,0.00010041,903.69,-1.9927e-05,-0.49422,-6.0022e-05,-301.75,1.1307
8178,15.632,5.4545,0.1,8.731e-05,872.5,8.2648e-05,764.48,-1.9127e-05,-0.21339,-4.3843e-05,-185.92,1.1297
8179,15.632,5.6364,0.1,7.0449e-05,704.01,6.8323e-05,651.11,-1.8312e-05,0.17463,-3.112e-05,-96.064,1.1288
8180,15.632,5.8182,0.1,6.0127e-05,600.86,5.9208e-05,576.6,-1.74e-05,1.0018,-2.3744e-05,-46.668,1.1279
8181,15.816,0.18182,0.1,3.8727e-05,387.01,3.7295e-05,354.63,-8.7782e-06,8.455,-1.8313e-05,-63.189,1.1502
8182,15.816,0.36364,0.1,5.7058e-05,570.19,5.309e-05,483.15,-1.0703e-05,3.8364,-3.0833e-05,-147.41,1.1512
8183,15.816,0.54545,0.1,8.044e-05,803.84,7.2197e-05,632.29,-1.1558e-05,2.9794,-4.8322e-05,-273.24,1.1521
8184,15.816,0.72727,0.1,0.00010695,1068.7,9.3223e-05,792.82,-1.1939e-05,2.6753,-6.8617e-05,-423.18,1.1531
8185,15.816,0.90909,0.1,0.00013714,1370.4,0.00011679,970.89,-1.2078e-05,2.6332,-9.1906e-05,-597.17,1.1541
8186,15.816,1.0909,0.1,0.00017244,1723.2,0.00014417,1177.7,-1.2108e-05,3.4538,-0.00011912,-800.57,1.155
8187,15.816,1.2727,0.1,0.00021542,2152.7,0.00017763,1431,-1.2515e-05,2.2881,-0.00015191,-1045,1.156
8188,15.816,1.4545,0.1,0.00027084,2706.6,0.00022143,1772.9,-1.3127e-05,10.527,-0.00019334,-1343.5,1.1569
8189,15.816,1.6364,0.1,0.00034899,3487.5,0.00028461,2262.3,-1.7814e-05,-9.9459,-0.0002498,-1753,1.1578
8190,15.816,1.8182,0.1,0.0004643,4639.8,0.00039191,3252.9,-3.3228e-05,58.557,-0.00031642,-2069.2,1.1587
8191,15.816,2,0.1,0.00054459,5442.1,0.00049914,4558.5,-7.3119e-05,258.8,-0.0003152,-1560.1,1.1594
8192,15.816,2.1818,0.1,0.00050825,5079,0.00049001,4630.5,-0.00012799,-12.914,-0.00023191,-793.71,1.16
8193,15.816,2.3636,0.1,0.00047497,4746.5,0.00046157,4412.1,-0.00012461,7.8096,-0.0002075,-614.95,1.1605
8194,15.816,2.5455,0.1,0.00044167,4413.6,0.00043043,4128,-0.00011931,-2.4789,-0.00018854,-522.62,1.1609
8195,15.816,2.7273,0.1,0.00042237,4220.8,0.00041208,3959,-0.00011461,1.5905,-0.00017916,-483.43,1.1611
8196,15.816,2.9091,0.1,0.0004132,4129.2,0.00040333,3877.2,-0.00011265,0.36963,-0.00017457,-464.87,1.1612
8197,15.816,3.0909,0.1,0.0004132,4129.2,0.00040333,3877.2,-0.00011265,0.36963,-0.00017457,-464.87,1.1612
8198,15.816,3.2727,0.1,0.00042237,4220.8,0.00041208,3959,-0.00011461,1.5905,-0.00017916,-483.43,1.1611
8199,15.816,3.4545,0.1,0.00044167,4413.6,0.00043043,4128,-0.00011931,-2.4789,-0.00018854,-522.62,1.1609
8200,15.816,3.6364,0.1,0.00047497,4746.5,0.00046157,4412.1,-0.00012461,7.8096,-0.0002075,-614.95,1.1605
8201,15.816,3.8182,0.1,0.00050825,5079,0.00049001,4630.5,-0.00012799,-12.914,-0.00023191,-793.71,1.16
8202,15.816,4,0.1,0.00054459,5442.1,0.00049914,4558.5,-7.3119e-05,258.8,-0.0003152,-1560.1,1.1594
8203,15.816,4.1818,0.1,0.0004643,4639.8,0.00039191,3252.9,-3.3228e-05,58.557,-0.00031642,-2069.2,1.1587
8204,15.816,4.3636,0.1,0.00034899,3487.5,0.00028461,2262.3,-1.7814e-05,-9.9459,-0.0002498,-1753,1.1578
8205,15.816,4.5455,0.1,0.00027084,2706.6,0.00022143,1772.9,-1.3127e-05,10.527,-0.00019334,-1343.5,1.1569
8206,15.816,4.7273,0.1,0.00021542,2152.7,0.00017763,1431,-1.2515e-05,2.2881,-0.00015191,-1045,1.156
8207,15.816,4.9091,0.1,0.00017244,1723.2,0.00014417,1177.7,-1.2108e-05,3.4538,-0.00011912,-800.57,1.155
8208,15.816,5.0909,0.1,0.00013714,1370.4,0.00011679,970.89,-1.2078e-05,2.6332,-9.1906e-05,-597.17,1.1541
8209,15.816,5.2727,0.1,0.00010695,1068.7,9.3223e-05,792.82,-1.1939e-05,2.6753,-6.8617e-05,-423.18,1.1531
8210,15.816,5.4545,0.1,8.044e-05,803.84,7.2197e-05,632.29,-1.1558e-05,2.9794,-4.8322e-05,-273.24,1.1521
8211,15.816,5.6364,0.1,5.7058e-05,570.19,5.309e-05,483.15,-1.0703e-05,3.8364,-3.0833e-05,-147.41,1.1512
8212,15.816,5.8182,0.1,3.8727e-05,387.01,3.7295e-05,354.63,-8.7782e-06,8.455,-1.8313e-05,-63.189,1.1502
8213,16.167,3.8182,0.1,0.00066633,6658.7,0.00065291,6307.4,-0.00018859,-15.283,-0.0002721,-642.75,1.2053
8214,16.167,3.6364,0.1,0.00053147,5311,0.00051886,4993.1,-0.00014326,18.167,-0.00022552,-599.88,1.2058
8215,16.167,3.4545,0.1,0.00046778,4674.6,0.0004568,4393.6,-0.00012804,-0.68111,-0.00019693,-518.33,1.2062
8216,16.167,3.2727,0.1,0.00043511,4348.1,0.00042514,4092.9,-0.00011933,1.9021,-0.00018259,-473.39,1.2064
8217,16.167,3.0909,0.1,0.00042113,4208.4,0.00041162,3964.4,-0.00011589,0.90828,-0.0001762,-452.26,1.2066
8218,16.167,2.9091,0.1,0.00042113,4208.4,0.00041162,3964.4,-0.00011589,0.90828,-0.0001762,-452.26,1.2066
8219,16.167,2.7273,0.1,0.00043511,4348.1,0.00042514,4092.9,-0.00011933,1.9021,-0.00018259,-473.39,1.2064
8220,16.167,2.5455,0.1,0.00046778,4674.6,0.0004568,4393.6,-0.00012804,-0.68111,-0.00019693,-518.33,1.2062
8221,16.167,2.3636,0.1,0.00053147,5311,0.00051886,4993.1,-0.00014326,18.167,-0.00022552,-599.88,1.2058
8222,16.167,2.1818,0.1,0.00066633,6658.7,0.00065291,6307.4,-0.00018859,-15.283,-0.0002721,-642.75,1.2053
8223,16,3.8182,0.1,0.00067952,6790.5,0.000659,6258.5,-0.00018574,-88.501,-0.00029402,-902.05,1.1836
8224,16,3.6364,0.1,0.00053588,5355.1,0.00052115,4988.5,-0.00014061,16.253,-0.00023344,-681.18,1.1841
8225,16,3.4545,0.1,0.00047313,4728.1,0.00046079,4415.7,-0.00012695,-0.29964,-0.00020308,-572.32,1.1845
8226,16,3.2727,0.1,0.0004406,4403,0.00042958,4123.4,-0.00011897,1.8388,-0.00018779,-515.31,1.1848
8227,16,3.0909,0.1,0.00042674,4264.4,0.00041629,3998.7,-0.00011577,0.98573,-0.00018111,-489.96,1.1849
8228,16,2.9091,0.1,0.00042674,4264.4,0.00041629,3998.7,-0.00011577,0.98573,-0.00018111,-489.96,1.1849
8229,16,2.7273,0.1,0.0004406,4403,0.00042958,4123.4,-0.00011897,1.8388,-0.00018779,-515.31,1.1848
8230,16,2.5455,0.1,0.00047313,4728.1,0.00046079,4415.7,-0.00012695,-0.29964,-0.00020308,-572.32,1.1845
8231,16,2.3636,0.1,0.00053588,5355.1,0.00052115,4988.5,-0.00014061,16.253,-0.00023344,-681.18,1.1841
8232,16,2.1818,0.1,0.00067952,6790.5,0.000659,6258.5,-0.00018574,-88.501,-0.00029402,-902.05,1.1836
8233,16.167,5.8182,0.1,1.7417e-05,174.05,1.6746e-05,156.77,-4.6497e-06,-3.9895,-7.8529e-06,-28.057,1.1986
8234,16.167,5.6364,0.1,3.2026e-05,320.04,3.029e-05,278.03,-7.5114e-06,-5.9935,-1.5862e-05,-68.734,1.1991
8235,16.167,5.4545,0.1,4.5857e-05,458.25,4.2758e-05,386.78,-9.5318e-06,-6.1023,-2.4242e-05,-116.63,1.1996
8236,16.167,5.2727,0.1,6.0523e-05,604.81,5.5738e-05,497.76,-1.1421e-05,-6.8473,-3.3489e-05,-172.66,1.2001
8237,16.167,5.0909,0.1,7.7017e-05,769.64,7.0158e-05,619.48,-1.3362e-05,-8.056,-4.4134e-05,-239.26,1.2006
8238,16.167,4.9091,0.1,9.6604e-05,965.38,8.7129e-05,761.73,-1.547e-05,-9.1627,-5.6977e-05,-321.04,1.2012
8239,16.167,4.7273,0.1,0.00012124,1211.6,0.00010838,937.99,-1.8266e-05,-13.576,-7.3155e-05,-425.98,1.2018
8240,16.167,4.5455,0.1,0.00015573,1556.2,0.00013765,1179.8,-2.1021e-05,-12.324,-9.6657e-05,-580.62,1.2024
8241,16.167,4.3636,0.1,0.00019899,1988.6,0.00017697,1512.9,-3.0862e-05,-48.675,-0.00012098,-725.82,1.2031
8242,16.167,4.1818,0.1,0.00034687,3466.3,0.00028571,2301.9,-1.9417e-05,9.2932,-0.00024501,-1685.7,1.2038
8243,16.167,4,0.1,0.0009477,9470.4,0.00092919,9144.3,-0.00020467,624.83,-0.00042796,-1052.9,1.2046
8244,16,4,0.1,0.0010127,10120,0.00095311,8866.3,-0.00018556,310.82,-0.00053374,-2305.2,1.1829
8245,16,4.1818,0.1,0.00041321,4129.3,0.00029433,2053,2.2148e-05,7.9367,-0.00033821,-2699.7,1.1818
8246,16,4.3636,0.1,0.00023917,2390.1,0.00018453,1366.2,-4.5782e-06,-54.697,-0.00018273,-1393.3,1.1808
8247,16,4.5455,0.1,0.00018735,1872.2,0.00014513,1093.1,-2.2224e-06,-14.117,-0.00014256,-1068.5,1.1797
8248,16,4.7273,0.1,0.00014651,1464.1,0.0001162,893.07,-4.8742e-06,-16.638,-0.00010859,-795.89,1.1786
8249,16,4.9091,0.1,0.0001168,1167.1,9.4734e-05,745.23,-5.9876e-06,-11.551,-8.4162e-05,-598.92,1.1776
8250,16,5.0909,0.1,9.2842e-05,927.78,7.721e-05,621.83,-6.9473e-06,-10.499,-6.4545e-05,-443.27,1.1766
8251,16,5.2727,0.1,7.2531e-05,724.81,6.1985e-05,512.35,-7.424e-06,-9.165,-4.8169e-05,-315.31,1.1755
8252,16,5.4545,0.1,5.4517e-05,544.8,4.801e-05,408.32,-7.4452e-06,-8.3542,-3.404e-05,-208.18,1.1745
8253,16,5.6364,0.1,3.7778e-05,377.52,3.4391e-05,301.85,-6.8718e-06,-8.1853,-2.1562e-05,-118.56,1.1735
8254,16,5.8182,0.1,2.0554e-05,205.4,1.9393e-05,176.73,-4.9644e-06,-6.2813,-1.0175e-05,-45.431,1.1726
8255,16.167,0.18182,0.1,1.7417e-05,174.05,1.6746e-05,156.77,-4.6497e-06,-3.9895,-7.8529e-06,-28.057,1.1986
8256,16.167,0.36364,0.1,3.2026e-05,320.04,3.029e-05,278.03,-7.5114e-06,-5.9935,-1.5862e-05,-68.734,1.1991
8257,16.167,0.54545,0.1,4.5857e-05,458.25,4.2758e-05,386.78,-9.5318e-06,-6.1023,-2.4242e-05,-116.63,1.1996
8258,16.167,0.72727,0.1,6.0523e-05,604.81,5.5738e-05,497.76,-1.1421e-05,-6.8473,-3.3489e-05,-172.66,1.2001
8259,16.167,0.90909,0.1,7.7017e-05,769.64,7.0158e-05,619.48,-1.3362e-05,-8.056,-4.4134e-05,-239.26,1.2006
8260,16.167,1.0909,0.1,9.6604e-05,965.38,8.7129e-05,761.73,-1.547e-05,-9.1627,-5.6977e-05,-321.04,1.2012
8261,16.167,1.2727,0.1,0.00012124,1211.6,0.00010838,937.99,-1.8266e-05,-13.576,-7.3155e-05,-425.98,1.2018
8262,16.167,1.4545,0.1,0.00015573,1556.2,0.00013765,1179.8,-2.1021e-05,-12.324,-9.6657e-05,-580.62,1.2024
8263,16.167,1.6364,0.1,0.00019899,1988.6,0.00017697,1512.9,-3.0862e-05,-48.675,-0.00012098,-725.82,1.2031
8264,16.167,1.8182,0.1,0.00034687,3466.3,0.00028571,2301.9,-1.9417e-05,9.2931,-0.00024501,-1685.7,1.2038
8265,16.167,2,0.1,0.0009477,9470.4,0.00092919,9144.3,-0.00020467,624.83,-0.00042796,-1052.9,1.2046
8266,16,2,0.1,0.0010127,10120,0.00095311,8866.3,-0.00018556,310.83,-0.00053374,-2305.2,1.1829
8267,16,1.8182,0.1,0.00041321,4129.3,0.00029433,2053,2.2148e-05,7.9366,-0.00033821,-2699.7,1.1818
8268,16,1.6364,0.1,0.00023917,2390.1,0.00018453,1366.2,-4.5782e-06,-54.697,-0.00018273,-1393.3,1.1808
8269,16,1.4545,0.1,0.00018735,1872.2,0.00014513,1093.1,-2.2224e-06,-14.117,-0.00014256,-1068.5,1.1797
8270,16,1.2727,0.1,0.00014651,1464.1,0.0001162,893.07,-4.8742e-06,-16.638,-0.00010859,-795.89,1.1786
8271,16,1.0909,0.1,0.0001168,1167.1,9.4734e-05,745.23,-5.9876e-06,-11.551,-8.4162e-05,-598.92,1.1776
8272,16,0.90909,0.1,9.2842e-05,927.78,7.721e-05,621.83,-6.9473e-06,-10.499,-6.4545e-05,-443.27,1.1766
8273,16,0.72727,0.1,7.2531e-05,724.81,6.1985e-05,512.35,-7.424e-06,-9.165,-4.8169e-05,-315.31,1.1755
8274,16,0.54545,0.1,5.4517e-05,544.8,4.801e-05,408.32,-7.4452e-06,-8.3542,-3.404e-05,-208.18,1.1745
8275,16,0.36364,0.1,3.7778e-05,377.52,3.4391e-05,301.85,-6.8718e-06,-8.1853,-2.1562e-05,-118.56,1.1735
8276,16,0.18182,0.1,2.0554e-05,205.4,1.9393e-05,176.73,-4.9644e-06,-6.2813,-1.0175e-05,-45.431,1.1726
8277,16.167,6,0.1,2.157e-06,21.555,1.655e-06,19.401,8.3477e-07,13.238,-1.5346e-06,-4.5647,1.1981
8278,16.349,6,0.1,2.0364e-05,203.5,2.0233e-05,199.94,-6.2102e-06,1.263,-7.4509e-06,-8.0598,1.2233
8279,16.531,6,0.1,3.9306e-05,392.79,3.9103e-05,386.96,-1.258e-05,-1.3648,-1.3749e-05,-10.149,1.2485
8280,16.713,6,0.1,5.5505e-05,554.66,5.5291e-05,548.55,-1.7781e-05,-0.48735,-1.9256e-05,-11.569,1.2738
8281,16.895,6,0.1,6.9385e-05,693.37,6.9172e-05,687.24,-2.2329e-05,-0.26522,-2.3873e-05,-11.864,1.2991
8282,17.078,6,0.1,8.0921e-05,808.65,8.0721e-05,802.91,-2.6137e-05,0.012357,-2.7653e-05,-11.373,1.3244
8283,17.26,6,0.1,9.0182e-05,901.2,9.0001e-05,895.97,-2.9224e-05,0.15983,-3.0646e-05,-10.529,1.3498
8284,17.442,6,0.1,9.7312e-05,972.45,9.715e-05,967.76,-3.1619e-05,0.24001,-3.2922e-05,-9.5517,1.3752
8285,17.624,6,0.1,0.00010252,1024.5,0.00010237,1020.3,-3.3383e-05,0.26335,-3.456e-05,-8.5868,1.4007
8286,17.806,6,0.1,0.00010604,1059.6,0.00010591,1055.9,-3.4588e-05,0.25204,-3.5648e-05,-7.7105,1.4263
8287,17.988,6,0.1,0.00010811,1080.4,0.00010799,1077,-3.5313e-05,0.22063,-3.6269e-05,-6.9603,1.4519
8288,18.171,6,0.1,0.00010897,1089,0.00010887,1085.9,-3.5631e-05,0.18017,-3.65e-05,-6.3483,1.4776
8289,18.353,6,0.1,0.00010883,1087.6,0.00010873,1084.7,-3.5612e-05,0.13779,-3.6412e-05,-5.873,1.5034
8290,18.535,6,0.1,0.00010787,1078,0.00010778,1075.2,-3.5315e-05,0.097949,-3.6064e-05,-5.5258,1.5293
8291,18.717,6,0.1,0.00010625,1061.7,0.00010616,1059.1,-3.4793e-05,0.063104,-3.5506e-05,-5.2947,1.5552
8292,18.899,6,0.1,0.00010409,1040.1,0.000104,1037.6,-3.4089e-05,0.034401,-3.4781e-05,-5.1671,1.5812
8293,19.081,6,0.1,0.0001015,1014.3,0.00010141,1011.7,-3.3239e-05,0.012135,-3.3924e-05,-5.1305,1.6073
8294,19.264,6,0.1,9.8578e-05,985.1,9.8489e-05,982.5,-3.2274e-05,-0.0038966,-3.2962e-05,-5.1731,1.6334
8295,19.446,6,0.1,9.5391e-05,953.25,9.53e-05,950.59,-3.1218e-05,-0.014177,-3.192e-05,-5.2843,1.6596
8296,19.628,6,0.1,9.1999e-05,919.35,9.1904e-05,916.6,-3.0091e-05,-0.019311,-3.0814e-05,-5.4544,1.6859
8297,19.81,6,0.1,8.8447e-05,883.86,8.8349e-05,881,-2.8908e-05,-0.01994,-2.966e-05,-5.6748,1.7122
8298,19.992,6,0.1,8.4774e-05,847.15,8.4671e-05,844.16,-2.7682e-05,-0.016655,-2.847e-05,-5.9374,1.7386
8299,20.174,6,0.1,8.1009e-05,809.53,8.0901e-05,806.39,-2.6424e-05,-0.010034,-2.7253e-05,-6.2353,1.765
8300,20.357,6,0.1,7.7176e-05,771.22,7.7062e-05,767.92,-2.5142e-05,-0.00055433,-2.6016e-05,-6.5622,1.7915
8301,20.539,6,0.1,7.3293e-05,732.43,7.3173e-05,728.95,-2.3843e-05,0.011391,-2.4764e-05,-6.9121,1.818
8302,20.721,6,0.1,6.9377e-05,693.29,6.925e-05,689.63,-2.2531e-05,0.025461,-2.3503e-05,-7.2799,1.8446
8303,20.903,6,0.1,6.5437e-05,653.92,6.5304e-05,650.07,-2.121e-05,0.041407,-2.2235e-05,-7.6607,1.8712
8304,21.085,6,0.1,6.1483e-05,614.41,6.1344e-05,610.38,-1.9885e-05,0.05904,-2.0964e-05,-8.0499,1.8979
8305,21.267,6,0.1,5.7523e-05,574.84,5.7376e-05,570.61,-1.8556e-05,0.078246,-1.9691e-05,-8.4435,1.9246
8306,21.45,6,0.1,5.3562e-05,535.26,5.3408e-05,530.83,-1.7228e-05,0.098981,-1.8417e-05,-8.8373,1.9514
8307,21.632,6,0.1,4.9605e-05,495.71,4.9443e-05,491.09,-1.59e-05,0.12126,-1.7144e-05,-9.2273,1.9782
8308,21.814,6,0.1,4.5655e-05,456.23,4.5486e-05,451.42,-1.4575e-05,0.14517,-1.5874e-05,-9.6095,2.005
8309,21.996,6,0.1,4.1714e-05,416.86,4.1538e-05,411.86,-1.3254e-05,0.17089,-1.4605e-05,-9.9797,2.0318
8310,22.178,6,0.1,3.7787e-05,377.61,3.7604e-05,372.43,-1.1938e-05,0.19868,-1.3339e-05,-10.333,2.0587
8311,22.36,6,0.1,3.3876e-05,338.52,3.3685e-05,333.17,-1.0627e-05,0.22894,-1.2077e-05,-10.664,2.0856
8312,22.543,6,0.1,2.9983e-05,299.62,2.9785e-05,294.11,-9.324e-06,0.26222,-1.0819e-05,-10.967,2.1125
8313,22.725,6,0.1,2.6113e-05,260.94,2.5907e-05,255.29,-8.0294e-06,0.29936,-9.5643e-06,-11.234,2.1394
8314,22.907,6,0.1,2.2269e-05,222.54,2.2057e-05,216.75,-6.7453e-06,0.3413,-8.3149e-06,-11.452,2.1664
8315,23.089,6,0.1,1.846e-05,184.47,1.824e-05,178.57,-5.4745e-06,0.39081,-7.0712e-06,-11.607,2.1934
8316,23.271,6,0.1,1.4695e-05,146.85,1.4467e-05,140.86,-4.2215e-06,0.44645,-5.8348e-06,-11.675,2.2203
8317,23.453,6,0.1,1.0993e-05,109.85,1.0754e-05,103.82,-2.9924e-06,0.53227,-4.6057e-06,-11.59,2.2473
8318,23.636,6,0.1,7.3971e-06,73.92,7.1406e-06,67.8,-1.8031e-06,0.60027,-3.3974e-06,-11.378,2.2743
8319,23.818,6,0.1,3.9284e-06,39.256,3.6649e-06,33.701,-6.9203e-07,0.96516,-2.1275e-06,-9.8204,2.3013
8320,24,6,0.1,9.4546e-07,9.4481,7.5464e-07,5.3773,-1.0638e-07,-1.092,-6.884e-07,-5.4651,2.3283
8321,24,5.8182,0.1,3.6313e-06,36.288,1.837e-06,6.6499,6.5586e-07,-2.2248,-3.4737e-06,-33.252,2.3285
8322,24,5.6364,0.1,6.0286e-06,60.244,2.6622e-06,6.9224,1.4407e-06,-2.255,-5.8965e-06,-57.384,2.3286
8323,24,5.4545,0.1,7.8295e-06,78.241,3.2749e-06,6.9966,2.0194e-06,-2.4368,-7.7091e-06,-75.533,2.3287
8324,24,5.2727,0.1,9.2957e-06,92.893,3.7633e-06,7.0102,2.5026e-06,-2.4622,-9.182e-06,-90.256,2.3288
8325,24,5.0909,0.1,1.0518e-05,105.1,4.167e-06,6.9808,2.9063e-06,-2.4915,-1.0409e-05,-102.54,2.3289
8326,24,4.9091,0.1,1.155e-05,115.42,4.5061e-06,6.9416,3.2486e-06,-2.5067,-1.1445e-05,-112.91,2.329
8327,24,4.7273,0.1,1.2426e-05,124.17,4.7928e-06,6.8982,3.5396e-06,-2.5182,-1.2324e-05,-121.71,2.3291
8328,24,4.5455,0.1,1.3169e-05,131.6,5.0355e-06,6.8559,3.7868e-06,-2.5258,-1.307e-05,-129.18,2.3292
8329,24,4.3636,0.1,1.3797e-05,137.87,5.2401e-06,6.8168,3.996e-06,-2.5312,-1.37e-05,-135.49,2.3293
8330,24,4.1818,0.1,1.4323e-05,143.13,5.4113e-06,6.782,4.1713e-06,-2.535,-1.4228e-05,-140.78,2.3294
8331,24,4,0.1,1.4757e-05,147.47,5.5526e-06,6.7521,4.3162e-06,-2.5375,-1.4664e-05,-145.15,2.3294
8332,24,3.8182,0.1,1.5108e-05,150.98,5.6666e-06,6.7272,4.4333e-06,-2.5393,-1.5016e-05,-148.67,2.3295
8333,24,3.6364,0.1,1.5382e-05,153.71,5.7554e-06,6.7073,4.5246e-06,-2.5404,-1.529e-05,-151.42,2.3295
8334,24,3.4545,0.1,1.5583e-05,155.72,5.8207e-06,6.6925,4.5918e-06,-2.5412,-1.5492e-05,-153.44,2.3295
8335,24,3.2727,0.1,1.5715e-05,157.04,5.8636e-06,6.6826,4.636e-06,-2.5416,-1.5625e-05,-154.77,2.3296
8336,24,3.0909,0.1,1.5781e-05,157.7,5.8849e-06,6.6777,4.6579e-06,-2.5418,-1.569e-05,-155.43,2.3296
8337,24,2.9091,0.1,1.5781e-05,157.7,5.8849e-06,6.6777,4.6579e-06,-2.5418,-1.569e-05,-155.43,2.3296
8338,24,2.7273,0.1,1.5715e-05,157.04,5.8636e-06,6.6826,4.636e-06,-2.5416,-1.5625e-05,-154.77,2.3296
8339,24,2.5455,0.1,1.5583e-05,155.72,5.8207e-06,6.6925,4.5918e-06,-2.5412,-1.5492e-05,-153.44,2.3295
8340,24,2.3636,0.1,1.5382e-05,153.71,5.7554e-06,6.7073,4.5246e-06,-2.5404,-1.529e-05,-151.42,2.3295
8341,24,2.1818,0.1,1.5108e-05,150.98,5.6666e-06,6.7272,4.4333e-06,-2.5393,-1.5016e-05,-148.67,2.3295
8342,24,2,0.1,1.4757e-05,147.47,5.5526e-06,6.7521,4.3162e-06,-2.5375,-1.4664e-05,-145.15,2.3294
8343,24,1.8182,0.1,1.4323e-05,143.13,5.4113e-06,6.7821,4.1713e-06,-2.535,-1.4228e-05,-140.78,2.3294
8344,24,1.6364,0.1,1.3797e-05,137.87,5.2401e-06,6.8168,3.996e-06,-2.5312,-1.37e-05,-135.49,2.3293
8345,24,1.4545,0.1,1.3169e-05,131.6,5.0355e-06,6.8559,3.7868e-06,-2.5258,-1.307e-05,-129.18,2.3292
8346,24,1.2727,0.1,1.2426e-05,124.17,4.7928e-06,6.8982,3.5396e-06,-2.5182,-1.2324e-05,-121.71,2.3291
8347,24,1.0909,0.1,1.155e-05,115.42,4.5061e-06,6.9416,3.2486e-06,-2.5067,-1.1445e-05,-112.91,2.329
8348,24,0.90909,0.1,1.0518e-05,105.1,4.167e-06,6.9808,2.9063e-06,-2.4915,-1.0409e-05,-102.54,2.3289
8349,24,0.72727,0.1,9.2957e-06,92.893,3.7633e-06,7.0102,2.5026e-06,-2.4622,-9.182e-06,-90.256,2.3288
8350,24,0.54545,0.1,7.8295e-06,78.241,3.2749e-06,6.9966,2.0194e-06,-2.4368,-7.7091e-06,-75.533,2.3287
8351,24,0.36364,0.1,6.0286e-06,60.244,2.6622e-06,6.9224,1.4407e-06,-2.255,-5.8965e-06,-57.384,2.3286
8352,24,0.18182,0.1,3.6313e-06,36.288,1.837e-06,6.6499,6.5586e-07,-2.2248,-3.4737e-06,-33.253,2.3285
8353,1.5894e-15,0.18182,0.1,0.00013761,1375.2,0.00017549,2497.9,1.9379e-06,1193.8,-1.5724e-05,1061.1,0
8354,3.1789e-15,0.36364,0.1,0.00023646,2363,0.0003138,4637.4,3.775e-06,2308,-4.984e-06,2242.2,0
8355,4.7683e-15,0.54545,0.1,0.00028844,2882.4,0.00038386,5687.4,2.8752e-06,2824.8,-2.3437e-06,2785.6,0
8356,6.3578e-15,0.72727,0.1,0.00032132,3211,0.00042754,6333,1.789e-06,3134.1,-1.4131e-06,3110,0
8357,7.9472e-15,0.90909,0.1,0.00034329,3430.6,0.0004567,6763.9,1.2037e-06,3341.5,-9.5033e-07,3325.3,0
8358,9.5366e-15,1.0909,0.1,0.00035897,3587.2,0.00047751,7071.5,8.6034e-07,3490.1,-6.7971e-07,3478.5,0
8359,1.1126e-14,1.2727,0.1,0.00037057,3703.1,0.00049292,7299.2,6.3481e-07,3600.4,-5.0443e-07,3591.8,0
8360,1.2716e-14,1.4545,0.1,0.00037937,3791,0.0005046,7472,4.8024e-07,3684.2,-3.8264e-07,3677.7,0
8361,1.4305e-14,1.6364,0.1,0.00038614,3858.7,0.0005136,7605,3.69e-07,3748.8,-2.9364e-07,3743.8,0
8362,1.5894e-14,1.8182,0.1,0.00039139,3911.2,0.00052058,7708.2,2.858e-07,3798.9,-2.2592e-07,3795.1,0
8363,1.7484e-14,2,0.1,0.00039546,3951.8,0.00052598,7788.2,2.2147e-07,3837.8,-1.7252e-07,3834.8,0
8364,1.9073e-14,2.1818,0.1,0.00039858,3983,0.00053013,7849.5,1.7014e-07,3867.6,-1.2898e-07,3865.3,0
8365,2.0663e-14,2.3636,0.1,0.00040091,4006.4,0.00053323,7895.4,1.2796e-07,3889.9,-9.228e-08,3888.2,0
8366,2.2252e-14,2.5455,0.1,0.00040258,4023,0.00053544,7928.1,9.2279e-08,3905.7,-6.0346e-08,3904.6,0
8367,2.3842e-14,2.7273,0.1,0.00040365,4033.7,0.00053687,7949.2,6.1549e-08,3915.8,-3.1947e-08,3915.1,0
8368,2.5431e-14,2.9091,0.1,0.00040417,4038.9,0.00053756,7959.5,3.7021e-08,3920.7,-8.5391e-09,3920.4,0
8369,2.702e-14,3.0909,0.1,0.00040417,4038.9,0.00053756,7959.5,3.7021e-08,3920.7,-8.5391e-09,3920.4,0
8370,2.861e-14,3.2727,0.1,0.00040365,4033.7,0.00053687,7949.2,6.1549e-08,3915.8,-3.1947e-08,3915.1,0
8371,3.0199e-14,3.4545,0.1,0.00040258,4023,0.00053544,7928.1,9.2279e-08,3905.7,-6.0346e-08,3904.6,0
8372,3.1789e-14,3.6364,0.1,0.00040091,4006.4,0.00053323,7895.4,1.2796e-07,3889.9,-9.228e-08,3888.2,0
8373,3.3378e-14,3.8182,0.1,0.00039858,3983,0.00053013,7849.5,1.7014e-07,3867.6,-1.2898e-07,3865.3,0
8374,3.4968e-14,4,0.1,0.00039546,3951.8,0.00052598,7788.2,2.2147e-07,3837.8,-1.7252e-07,3834.8,0
8375,3.6557e-14,4.1818,0.1,0.00039139,3911.2,0.00052058,7708.2,2.8581e-07,3798.9,-2.2592e-07,3795.1,0
8376,3.8147e-14,4.3636,0.1,0.00038614,3858.7,0.0005136,7605,3.69e-07,3748.8,-2.9364e-07,3743.8,0
8377,3.9736e-14,4.5455,0.1,0.00037937,3791,0.0005046,7472,4.8024e-07,3684.2,-3.8264e-07,3677.7,0
8378,4.1325e-14,4.7273,0.1,0.00037057,3703.1,0.00049292,7299.2,6.3481e-07,3600.4,-5.0443e-07,3591.8,0
8379,4.2915e-14,4.9091,0.1,0.00035897,3587.2,0.00047751,7071.5,8.6034e-07,3490.1,-6.7971e-07,3478.5,0
8380,4.4504e-14,5.0909,0.1,0.00034329,3430.6,0.0004567,6763.9,1.2037e-06,3341.5,-9.5033e-07,3325.3,0
8381,4.6094e-14,5.2727,0.1,0.00032132,3211,0.00042754,6333,1.789e-06,3134.1,-1.4131e-06,3110,0
8382,4.7683e-14,5.4545,0.1,0.00028844,2882.4,0.00038386,5687.4,2.8752e-06,2824.8,-2.3437e-06,2785.6,0
8383,4.9273e-14,5.6364,0.1,0.00023646,2363,0.0003138,4637.4,3.775e-06,2308,-4.984e-06,2242.2,0
8384,5.0862e-14,5.8182,0.1,0.00013761,1375.2,0.00017549,2497.9,1.9379e-06,1193.8,-1.5724e-05,1061.1,0
8385,24,0,0.1,9.4546e-07,9.4481,7.5463e-07,5.3773,-1.0638e-07,-1.092,-6.884e-07,-5.4651,2.3283
8386,23.818,0,0.1,3.9284e-06,39.256,3.6649e-06,33.701,-6.9203e-07,0.96516,-2.1275e-06,-9.8205,2.3013
8387,23.636,0,0.1,7.3971e-06,73.92,7.1406e-06,67.8,-1.8031e-06,0.60027,-3.3974e-06,-11.378,2.2743
8388,23.453,0,0.1,1.0993e-05,109.85,1.0754e-05,103.82,-2.9924e-06,0.53227,-4.6057e-06,-11.59,2.2473
8389,23.271,0,0.1,1.4695e-05,146.85,1.4467e-05,140.86,-4.2215e-06,0.44645,-5.8348e-06,-11.675,2.2203
8390,23.089,0,0.1,1.846e-05,184.47,1.824e-05,178.57,-5.4745e-06,0.39081,-7.0712e-06,-11.607,2.1934
8391,22.907,0,0.1,2.2269e-05,222.54,2.2057e-05,216.75,-6.7453e-06,0.3413,-8.3149e-06,-11.452,2.1664
8392,22.725,0,0.1,2.6113e-05,260.94,2.5907e-05,255.29,-8.0294e-06,0.29936,-9.5643e-06,-11.234,2.1394
8393,22.543,0,0.1,2.9983e-05,299.62,2.9785e-05,294.11,-9.324e-06,0.26222,-1.0819e-05,-10.967,2.1125
8394,22.36,0,0.1,3.3876e-05,338.52,3.3685e-05,333.17,-1.0627e-05,0.22894,-1.2077e-05,-10.664,2.0856
8395,22.178,0,0.1,3.7787e-05,377.61,3.7604e-05,372.43,-1.1938e-05,0.19868,-1.3339e-05,-10.333,2.0587
8396,21.996,0,0.1,4.1714e-05,416.86,4.1538e-05,411.86,-1.3254e-05,0.17089,-1.4605e-05,-9.9797,2.0318
8397,21.814,0,0.1,4.5655e-05,456.23,4.5486e-05,451.42,-1.4575e-05,0.14517,-1.5874e-05,-9.6095,2.005
8398,21.632,0,0.1,4.9605e-05,495.71,4.9443e-05,491.09,-1.59e-05,0.12126,-1.7144e-05,-9.2273,1.9782
8399,21.45,0,0.1,5.3562e-05,535.26,5.3408e-05,530.83,-1.7228e-05,0.098978,-1.8417e-05,-8.8373,1.9514
8400,21.267,0,0.1,5.7523e-05,574.84,5.7376e-05,570.61,-1.8556e-05,0.078245,-1.9691e-05,-8.4435,1.9246
8401,21.085,0,0.1,6.1483e-05,614.41,6.1344e-05,610.38,-1.9885e-05,0.05904,-2.0964e-05,-8.0499,1.8979
8402,20.903,0,0.1,6.5437e-05,653.92,6.5304e-05,650.07,-2.121e-05,0.04141,-2.2235e-05,-7.6607,1.8712
8403,20.721,0,0.1,6.9377e-05,693.29,6.925e-05,689.63,-2.2531e-05,0.025461,-2.3503e-05,-7.2799,1.8446
8404,20.539,0,0.1,7.3293e-05,732.43,7.3173e-05,728.95,-2.3843e-05,0.011392,-2.4764e-05,-6.9121,1.818
8405,20.357,0,0.1,7.7176e-05,771.22,7.7062e-05,767.92,-2.5142e-05,-0.00055161,-2.6016e-05,-6.5622,1.7915
8406,20.174,0,0.1,8.1009e-05,809.53,8.0901e-05,806.39,-2.6424e-05,-0.010029,-2.7253e-05,-6.2353,1.765
8407,19.992,0,0.1,8.4774e-05,847.15,8.4671e-05,844.16,-2.7682e-05,-0.016654,-2.847e-05,-5.9374,1.7386
8408,19.81,0,0.1,8.8447e-05,883.86,8.8349e-05,881,-2.8908e-05,-0.019938,-2.966e-05,-5.6748,1.7122
8409,19.628,0,0.1,9.1999e-05,919.35,9.1904e-05,916.6,-3.0091e-05,-0.019311,-3.0814e-05,-5.4544,1.6859
8410,19.446,0,0.1,9.5391e-05,953.25,9.53e-05,950.59,-3.1218e-05,-0.014178,-3.192e-05,-5.2843,1.6596
8411,19.264,0,0.1,9.8578e-05,985.1,9.8489e-05,982.5,-3.2274e-05,-0.003896,-3.2962e-05,-5.1731,1.6334
8412,19.081,0,0.1,0.0001015,1014.3,0.00010141,1011.7,-3.3239e-05,0.012136,-3.3924e-05,-5.1305,1.6073
8413,18.899,0,0.1,0.00010409,1040.1,0.000104,1037.6,-3.4089e-05,0.034402,-3.4781e-05,-5.1671,1.5812
8414,18.717,0,0.1,0.00010625,1061.7,0.00010616,1059.1,-3.4793e-05,0.063105,-3.5506e-05,-5.2947,1.5552
8415,18.535,0,0.1,0.00010787,1078,0.00010778,1075.2,-3.5315e-05,0.097951,-3.6064e-05,-5.5258,1.5293
8416,18.353,0,0.1,0.00010883,1087.6,0.00010873,1084.7,-3.5612e-05,0.13779,-3.6412e-05,-5.873,1.5034
8417,18.171,0,0.1,0.00010897,1089,0.00010887,1085.9,-3.5631e-05,0.18017,-3.65e-05,-6.3483,1.4776
8418,17.988,0,0.1,0.00010811,1080.4,0.00010799,1077,-3.5313e-05,0.22063,-3.6269e-05,-6.9603,1.4519
8419,17.806,0,0.1,0.00010604,1059.6,0.00010591,1055.9,-3.4588e-05,0.25203,-3.5648e-05,-7.7105,1.4263
8420,17.624,0,0.1,0.00010252,1024.5,0.00010237,1020.3,-3.3383e-05,0.26335,-3.456e-05,-8.5868,1.4007
8421,17.442,0,0.1,9.7312e-05,972.45,9.715e-05,967.76,-3.1619e-05,0.24001,-3.2922e-05,-9.5517,1.3752
8422,17.26,0,0.1,9.0182e-05,901.2,9.0001e-05,895.97,-2.9224e-05,0.15983,-3.0646e-05,-10.529,1.3498
8423,17.078,0,0.1,8.0921e-05,808.65,8.0721e-05,802.91,-2.6137e-05,0.012356,-2.7653e-05,-11.373,1.3244
8424,16.895,0,0.1,6.9385e-05,693.37,6.9172e-05,687.24,-2.2329e-05,-0.26522,-2.3873e-05,-11.864,1.2991
8425,16.713,0,0.1,5.5505e-05,554.66,5.5291e-05,548.55,-1.7781e-05,-0.48735,-1.9256e-05,-11.569,1.2738
8426,16.531,0,0.1,3.9306e-05,392.79,3.9103e-05,386.96,-1.258e-05,-1.3648,-1.3749e-05,-10.149,1.2485
8427,16.349,0,0.1,2.0364e-05,203.5,2.0233e-05,199.94,-6.2102e-06,1.263,-7.4509e-06,-8.0598,1.2233
8428,16.167,0,0.1,2.157e-06,21.555,1.655e-06,19.401,8.3477e-07,13.238,-1.5346e-06,-4.5647,1.1981
8429,16,0,0.1,2.6546e-06,26.528,2.0688e-06,24.066,9.7829e-07,15.872,-1.8785e-06,-5.5925,1.1716
8430,15.816,4.0774e-30,0.1,2.6159e-05,261.41,2.6069e-05,258.97,-8.1126e-06,2.1458,-9.3034e-06,-6.8015,1.1492
8431,15.632,4.03e-30,0.1,5.2567e-05,525.31,5.2438e-05,521.56,-1.7082e-05,-0.77995,-1.7863e-05,-6.6521,1.1269
8432,15.448,3.9826e-30,0.1,7.6937e-05,768.84,7.6828e-05,765.69,-2.5035e-05,0.32729,-2.5954e-05,-6.5758,1.1046
8433,15.264,3.9352e-30,0.1,9.9575e-05,995.07,9.948e-05,992.3,-3.2506e-05,0.60714,-3.34e-05,-6.1102,1.0824
8434,15.08,3.8878e-30,0.1,0.00012029,1202,0.00012021,1199.8,-3.9344e-05,0.9629,-4.0197e-05,-5.4453,1.0602
8435,14.897,3.8404e-30,0.1,0.000139,1389,0.00013893,1387.2,-4.5532e-05,1.1455,-4.6332e-05,-4.8659,1.0381
8436,14.713,3.7929e-30,0.1,0.00015574,1556.3,0.00015568,1554.7,-5.107e-05,1.233,-5.1824e-05,-4.4381,1.0161
8437,14.529,3.7455e-30,0.1,0.00017062,1705.1,0.00017057,1703.6,-5.5996e-05,1.2367,-5.6717e-05,-4.1806,0.99423
8438,14.345,3.6981e-30,0.1,0.00018385,1837.2,0.0001838,1835.8,-6.0369e-05,1.1852,-6.1068e-05,-4.0704,0.97245
8439,14.161,3.6507e-30,0.1,0.00019561,1954.8,0.00019556,1953.3,-6.4258e-05,1.0995,-6.4947e-05,-4.0737,0.9508
8440,13.977,3.6033e-30,0.1,0.00020613,2059.9,0.00020608,2058.3,-6.7734e-05,0.99624,-6.842e-05,-4.1555,0.92927
8441,13.793,3.5559e-30,0.1,0.0002156,2154.6,0.00021555,2152.9,-7.0863e-05,0.88737,-7.1551e-05,-4.2851,0.90789
8442,13.609,3.5085e-30,0.1,0.00022421,2240.5,0.00022415,2238.7,-7.3704e-05,0.78057,-7.4398e-05,-4.4381,0.88665
8443,13.425,3.4611e-30,0.1,0.0002321,2319.4,0.00023204,2317.5,-7.631e-05,0.68038,-7.7012e-05,-4.5964,0.86556
8444,13.241,3.4136e-30,0.1,0.00023942,2392.6,0.00023935,2390.5,-7.8725e-05,0.58909,-7.9435e-05,-4.7475,0.84463
8445,13.057,3.3662e-30,0.1,0.00024628,2461.1,0.0002462,2458.9,-8.0987e-05,0.50744,-8.1704e-05,-4.8834,0.82386
8446,12.874,3.3188e-30,0.1,0.00025276,2525.8,0.00025268,2523.6,-8.3126e-05,0.43539,-8.3849e-05,-4.9995,0.80325
8447,12.69,3.2714e-30,0.1,0.00025894,2587.7,0.00025886,2585.3,-8.5168e-05,0.37227,-8.5895e-05,-5.0935,0.78282
8448,12.506,3.224e-30,0.1,0.0002649,2647.1,0.00026481,2644.7,-8.7134e-05,0.31729,-8.7863e-05,-5.1649,0.76256
8449,12.322,3.1766e-30,0.1,0.00027067,2704.8,0.00027058,2702.3,-8.9039e-05,0.26948,-8.9769e-05,-5.2139,0.74248
8450,12.138,3.1292e-30,0.1,0.00027629,2761,0.00027621,2758.5,-9.0898e-05,0.2278,-9.1626e-05,-5.2418,0.72258
8451,11.954,3.0818e-30,0.1,0.00028181,2816.2,0.00028173,2813.7,-9.2722e-05,0.19141,-9.3446e-05,-5.2497,0.70287
8452,11.77,3.0344e-30,0.1,0.00028725,2870.5,0.00028716,2868,-9.4519e-05,0.15944,-9.5238e-05,-5.2392,0.68334
8453,11.586,2.9869e-30,0.1,0.00029262,2924.2,0.00029254,2921.7,-9.6297e-05,0.13118,-9.7008e-05,-5.2114,0.66402
8454,11.402,2.9395e-30,0.1,0.00029795,2977.5,0.00029787,2975,-9.806e-05,0.10599,-9.8762e-05,-5.1677,0.64489
8455,11.218,2.8921e-30,0.1,0.00030325,3030.4,0.00030317,3027.9,-9.9813e-05,0.083206,-0.0001005,-5.1092,0.62596
8456,11.034,2.8447e-30,0.1,0.00030853,3083.2,0.00030845,3080.7,-0.00010156,0.062406,-0.00010224,-5.0367,0.60723
8457,10.851,2.7973e-30,0.1,0.0003138,3135.8,0.00031372,3133.4,-0.00010331,0.043106,-0.00010397,-4.9512,0.58871
8458,10.667,2.7499e-30,0.1,0.00031907,3188.5,0.00031898,3186,-0.00010505,0.024992,-0.0001057,-4.8531,0.57041
8459,10.483,2.7025e-30,0.1,0.00032433,3241.1,0.00032425,3238.7,-0.00010679,0.0077364,-0.00010743,-4.7429,0.55232
8460,10.299,2.6551e-30,0.1,0.00032961,3293.8,0.00032953,3291.5,-0.00010854,-0.0090453,-0.00010916,-4.6211,0.53445
8461,10.115,2.6076e-30,0.1,0.00033489,3346.6,0.00033481,3344.3,-0.00011029,-0.025514,-0.00011089,-4.4876,0.5168
8462,9.931,2.5602e-30,0.1,0.00034019,3399.5,0.00034011,3397.3,-0.00011205,-0.041926,-0.00011262,-4.3429,0.49938
8463,9.7471,2.5128e-30,0.1,0.0003455,3452.6,0.00034543,3450.5,-0.00011381,-0.058471,-0.00011436,-4.1867,0.48218
8464,9.5632,2.4654e-30,0.1,0.00035083,3505.9,0.00035076,3503.8,-0.00011558,-0.075335,-0.00011611,-4.0191,0.46522
8465,9.3793,2.418e-30,0.1,0.00035618,3559.4,0.00035612,3557.4,-0.00011736,-0.092711,-0.00011786,-3.84,0.4485
8466,9.1954,2.3706e-30,0.1,0.00036156,3613.1,0.00036149,3611.2,-0.00011914,-0.11075,-0.00011961,-3.6494,0.43202
8467,9.0115,2.3232e-30,0.1,0.00036696,3667,0.0003669,3665.3,-0.00012094,-0.12961,-0.00012138,-3.4469,0.41578
8468,8.8276,2.2758e-30,0.1,0.00037238,3721.2,0.00037232,3719.5,-0.00012274,-0.14945,-0.00012315,-3.2325,0.39979
8469,8.6437,2.2284e-30,0.1,0.00037783,3775.7,0.00037778,3774.1,-0.00012455,-0.17043,-0.00012493,-3.0059,0.38405
8470,8.4598,2.1809e-30,0.1,0.00038331,3830.5,0.00038326,3829,-0.00012637,-0.19269,-0.00012671,-2.7671,0.36857
8471,8.2759,2.1335e-30,0.1,0.00038882,3885.5,0.00038877,3884.1,-0.0001282,-0.21641,-0.00012851,-2.5159,0.35335
8472,8.092,2.0861e-30,0.1,0.00039436,3940.8,0.00039431,3939.6,-0.00013005,-0.24173,-0.00013031,-2.2522,0.33839
8473,7.908,2.0387e-30,0.1,0.00039993,3996.5,0.00039989,3995.4,-0.0001319,-0.26885,-0.00013213,-1.9762,0.32369
8474,7.7241,1.9913e-30,0.1,0.00040553,4052.5,0.0004055,4051.5,-0.00013377,-0.29792,-0.00013395,-1.6879,0.30927
8475,7.5402,1.9439e-30,0.1,0.00041117,4108.9,0.00041114,4108,-0.00013564,-0.32915,-0.00013579,-1.3877,0.29512
8476,7.3563,1.8965e-30,0.1,0.00041684,4165.6,0.00041682,4164.8,-0.00013754,-0.36271,-0.00013763,-1.0761,0.28124
8477,7.1724,1.8491e-30,0.1,0.00042256,4222.7,0.00042254,4222.1,-0.00013944,-0.39877,-0.00013949,-0.75373,0.26765
8478,6.9885,1.8016e-30,0.1,0.00042831,4280.2,0.0004283,4279.7,-0.00014136,-0.41772,-0.00014136,-0.44154,0.25435
8479,6.8046,1.7542e-30,0.1,0.00043411,4338.1,0.0004341,4337.8,-0.00014324,-0.080464,-0.00014329,-0.48013,0.24133
8480,6.6207,1.7068e-30,0.1,0.00043994,4396.4,0.00043994,4396.3,-0.00014513,0.26684,-0.00014524,-0.52535,0.22861
8481,6.4368,1.6594e-30,0.1,0.00044583,4455.2,0.00044583,4455.2,-0.00014704,0.61872,-0.0001472,-0.57421,0.21619
8482,6.2529,1.612e-30,0.1,0.00045176,4514.5,0.00045177,4514.7,-0.00014897,0.97235,-0.00014918,-0.62696,0.20407
8483,6.069,1.5646e-30,0.1,0.00045774,4574.3,0.00045775,4574.6,-0.00015091,1.3243,-0.00015118,-0.68393,0.19225
8484,5.8851,1.5172e-30,0.1,0.00046378,4634.6,0.00046379,4635,-0.00015287,1.6702,-0.00015319,-0.74545,0.18075
8485,5.7011,1.4698e-30,0.1,0.00046986,4695.4,0.00046988,4696,-0.00015485,2.0049,-0.00015522,-0.81191,0.16955
8486,5.5172,1.4224e-30,0.1,0.00047601,4756.8,0.00047603,4757.5,-0.00015684,2.3222,-0.00015727,-0.88373,0.15868
8487,5.3333,1.3749e-30,0.1,0.00048221,4818.8,0.00048224,4819.6,-0.00015886,2.6144,-0.00015934,-0.96135,0.14813
8488,5.1494,1.3275e-30,0.1,0.00048847,4881.4,0.0004885,4882.3,-0.0001609,2.8725,-0.00016143,-1.0453,0.1379
8489,4.9655,1.2801e-30,0.1,0.0004948,4944.5,0.00049483,4945.5,-0.00016297,3.0858,-0.00016353,-1.1361,0.12801
8490,4.7816,1.2327e-30,0.1,0.00050118,5008.4,0.00050122,5009.4,-0.00016506,3.2414,-0.00016565,-1.2344,0.11845
8491,4.5977,1.1853e-30,0.1,0.00050763,5072.8,0.00050766,5073.8,-0.00016717,3.3245,-0.00016779,-1.3411,0.10923
8492,4.4138,1.1379e-30,0.1,0.00051414,5137.8,0.00051417,5138.8,-0.00016932,3.3174,-0.00016995,-1.4571,0.10035
8493,4.2299,1.0905e-30,0.1,0.00052071,5203.5,0.00052073,5204.3,-0.00017149,3.1998,-0.00017212,-1.5835,0.091822
8494,4.046,1.0431e-30,0.1,0.00052733,5269.6,0.00052735,5270.2,-0.00017369,2.948,-0.00017431,-1.7223,0.083647
8495,3.8621,9.9565e-31,0.1,0.000534,5336.3,0.00053401,5336.6,-0.00017591,2.535,-0.0001765,-1.8762,0.075828
8496,3.6782,9.4824e-31,0.1,0.0005407,5403.3,0.0005407,5403.2,-0.00017817,1.9314,-0.0001787,-2.0503,0.068371
8497,3.4943,9.0082e-31,0.1,0.00054743,5470.5,0.00054741,5469.9,-0.00018045,1.1075,-0.0001809,-2.2558,0.06128
8498,3.3103,8.5341e-31,0.1,0.00055416,5537.8,0.00055412,5536.5,-0.00018274,0.048469,-0.00018309,-2.5254,0.05456
8499,3.1264,8.06e-31,0.1,0.00056086,5604.8,0.00056079,5602.7,-0.00018503,-1.1675,-0.00018528,-2.9936,0.048215
8500,2.9425,7.5859e-31,0.1,0.0005675,5671.1,0.00056739,5667.9,-0.00018725,-2.1157,-0.00018752,-4.1515,0.042249
8501,2.7586,7.1118e-31,0.1,0.00057402,5736.2,0.00057387,5731.8,-0.00018933,-2.5988,-0.00018982,-6.2763,0.036666
8502,2.5747,6.6377e-31,0.1,0.00058035,5799.5,0.00058015,5793.5,-0.00019131,-2.9332,-0.00019214,-9.1471,0.031472
8503,2.3908,6.1635e-31,0.1,0.00058641,5860,0.00058614,5852,-0.00019315,-3.2411,-0.00019442,-12.759,0.026669
8504,2.2069,5.6894e-31,0.1,0.00059206,5916.5,0.00059171,5906.1,-0.00019482,-3.5567,-0.00019664,-17.224,0.022262
8505,2.023,5.2153e-31,0.1,0.00059714,5967.3,0.00059669,5954,-0.00019626,-3.8951,-0.00019876,-22.713,0.018253
8506,1.8391,4.7412e-31,0.1,0.00060141,6010,0.00060084,5993.1,-0.00019736,-4.2663,-0.00020072,-29.456,0.014647
8507,1.6552,4.2671e-31,0.1,0.00060456,6041.4,0.00060383,6020.1,-0.00019802,-4.6849,-0.00020243,-37.768,0.011444
8508,1.4713,3.7929e-31,0.1,0.00060612,6057,0.0006052,6030.3,-0.00019807,-5.1512,-0.00020378,-48.081,0.0086467
8509,1.2874,3.3188e-31,0.1,0.00060542,6050,0.00060427,6016.5,-0.00019724,-5.7284,-0.0002046,-61.071,0.0062547
8510,1.1034,2.8447e-31,0.1,0.00060143,6010.2,0.00059997,5967.9,-0.00019514,-6.2871,-0.00020464,-77.637,0.0042661
8511,0.91954,2.3706e-31,0.1,0.00059251,5921,0.00059064,5866.9,-0.00019118,-7.3568,-0.00020348,-99.781,0.0026766
8512,0.73563,1.8965e-31,0.1,0.00057584,5754.4,0.00057341,5684.8,-0.00018419,-7.5217,-0.00020047,-129.79,0.0014779
8513,0.55172,1.4224e-31,0.1,0.00054588,5455.1,0.00054252,5359.9,-0.0001722,-10.271,-0.0001943,-176.34,0.00065623
8514,0.36782,9.4824e-32,0.1,0.00049278,4924.4,0.0004877,4783.4,-0.00015114,-16.524,-0.0001831,-256.64,0.00019002
8515,0.18391,4.7412e-32,0.1,0.00037925,3789.9,0.00037017,3570.1,-9.8088e-05,51.817,-0.00016391,-442.77,4.9339e-05
8516,0,0,0.1,0.00022468,2245.2,0.00014809,761.44,-3.7236e-07,-354.06,-0.00019588,-1823.1,0
8517,3.937e-14,6,0.1,0.00022468,2245.2,0.00014809,761.44,-3.7236e-07,-354.06,-0.00019588,-1823.1,0
8518,0.18391,6,0.1,0.00037925,3789.9,0.00037017,3570.1,-9.8088e-05,51.818,-0.00016391,-442.77,4.9339e-05
8519,0.36782,6,0.1,0.00049278,4924.4,0.0004877,4783.4,-0.00015114,-16.524,-0.0001831,-256.64,0.00019002
8520,0.55172,6,0.1,0.00054588,5455.1,0.00054252,5359.9,-0.0001722,-10.271,-0.0001943,-176.34,0.00065623
8521,0.73563,6,0.1,0.00057584,5754.4,0.00057341,5684.8,-0.00018419,-7.5217,-0.00020047,-129.79,0.0014779
8522,0.91954,6,0.1,0.00059251,5921,0.00059064,5866.9,-0.00019118,-7.3568,-0.00020348,-99.781,0.0026766
8523,1.1034,6,0.1,0.00060143,6010.2,0.00059997,5967.9,-0.00019514,-6.2871,-0.00020464,-77.637,0.0042661
8524,1.2874,6,0.1,0.00060542,6050,0.00060427,6016.5,-0.00019724,-5.7284,-0.0002046,-61.071,0.0062547
8525,1.4713,6,0.1,0.00060612,6057,0.0006052,6030.3,-0.00019807,-5.1512,-0.00020378,-48.081,0.0086467
8526,1.6552,6,0.1,0.00060456,6041.4,0.00060383,6020.1,-0.00019802,-4.6849,-0.00020243,-37.768,0.011444
8527,1.8391,6,0.1,0.00060141,6010,0.00060084,5993.1,-0.00019736,-4.2663,-0.00020072,-29.456,0.014647
8528,2.023,6,0.1,0.00059714,5967.3,0.00059668,5954,-0.00019626,-3.8951,-0.00019876,-22.713,0.018253
8529,2.2069,6,0.1,0.00059206,5916.5,0.00059171,5906.1,-0.00019482,-3.5567,-0.00019664,-17.224,0.022262
8530,2.3908,6,0.1,0.00058641,5860,0.00058614,5852,-0.00019315,-3.2411,-0.00019442,-12.759,0.026669
8531,2.5747,6,0.1,0.00058035,5799.5,0.00058015,5793.5,-0.00019131,-2.9332,-0.00019214,-9.1471,0.031472
8532,2.7586,6,0.1,0.00057402,5736.2,0.00057387,5731.8,-0.00018933,-2.5988,-0.00018982,-6.2763,0.036666
8533,2.9425,6,0.1,0.0005675,5671.1,0.00056739,5667.9,-0.00018725,-2.1157,-0.00018752,-4.1516,0.042249
8534,3.1264,6,0.1,0.00056086,5604.7,0.00056079,5602.7,-0.00018503,-1.1675,-0.00018528,-2.9936,0.048215
8535,3.3103,6,0.1,0.00055416,5537.8,0.00055412,5536.5,-0.00018274,0.048464,-0.00018309,-2.5254,0.05456
8536,3.4943,6,0.1,0.00054743,5470.5,0.00054741,5469.9,-0.00018045,1.1075,-0.0001809,-2.2558,0.06128
8537,3.6782,6,0.1,0.0005407,5403.3,0.0005407,5403.2,-0.00017817,1.9314,-0.0001787,-2.0503,0.068371
8538,3.8621,6,0.1,0.000534,5336.3,0.00053401,5336.6,-0.00017591,2.535,-0.0001765,-1.8762,0.075828
8539,4.046,6,0.1,0.00052733,5269.6,0.00052735,5270.2,-0.00017369,2.948,-0.00017431,-1.7223,0.083647
8540,4.2299,6,0.1,0.00052071,5203.5,0.00052073,5204.3,-0.00017149,3.1998,-0.00017212,-1.5835,0.091822
8541,4.4138,6,0.1,0.00051414,5137.8,0.00051417,5138.8,-0.00016932,3.3174,-0.00016995,-1.4571,0.10035
8542,4.5977,6,0.1,0.00050763,5072.8,0.00050766,5073.8,-0.00016717,3.3245,-0.00016779,-1.3411,0.10923
8543,4.7816,6,0.1,0.00050118,5008.4,0.00050122,5009.4,-0.00016506,3.2414,-0.00016565,-1.2344,0.11845
8544,4.9655,6,0.1,0.0004948,4944.5,0.00049483,4945.5,-0.00016297,3.0858,-0.00016353,-1.1361,0.12801
8545,5.1494,6,0.1,0.00048847,4881.4,0.0004885,4882.3,-0.0001609,2.8725,-0.00016143,-1.0453,0.1379
8546,5.3333,6,0.1,0.00048221,4818.8,0.00048224,4819.6,-0.00015886,2.6144,-0.00015934,-0.96135,0.14813
8547,5.5172,6,0.1,0.00047601,4756.8,0.00047603,4757.5,-0.00015684,2.3222,-0.00015727,-0.88373,0.15868
8548,5.7011,6,0.1,0.00046986,4695.4,0.00046988,4696,-0.00015485,2.0049,-0.00015522,-0.81191,0.16955
8549,5.8851,6,0.1,0.00046378,4634.6,0.00046379,4635,-0.00015287,1.6702,-0.00015319,-0.74545,0.18075
8550,6.069,6,0.1,0.00045774,4574.3,0.00045775,4574.6,-0.00015091,1.3243,-0.00015118,-0.68393,0.19225
8551,6.2529,6,0.1,0.00045176,4514.5,0.00045177,4514.7,-0.00014897,0.97235,-0.00014918,-0.62696,0.20407
8552,6.4368,6,0.1,0.00044583,4455.2,0.00044583,4455.2,-0.00014704,0.61872,-0.0001472,-0.57421,0.21619
8553,6.6207,6,0.1,0.00043994,4396.4,0.00043994,4396.3,-0.00014513,0.26684,-0.00014524,-0.52535,0.22861
8554,6.8046,6,0.1,0.00043411,4338.1,0.0004341,4337.8,-0.00014324,-0.080461,-0.00014329,-0.48013,0.24133
8555,6.9885,6,0.1,0.00042831,4280.2,0.0004283,4279.7,-0.00014136,-0.41771,-0.00014136,-0.44154,0.25435
8556,7.1724,6,0.1,0.00042256,4222.7,0.00042254,4222.1,-0.00013944,-0.39877,-0.00013949,-0.75372,0.26765
8557,7.3563,6,0.1,0.00041684,4165.6,0.00041682,4164.8,-0.00013754,-0.36271,-0.00013763,-1.0761,0.28124
8558,7.5402,6,0.1,0.00041117,4108.9,0.00041114,4108,-0.00013564,-0.32915,-0.00013579,-1.3877,0.29512
8559,7.7241,6,0.1,0.00040553,4052.5,0.0004055,4051.5,-0.00013377,-0.29792,-0.00013395,-1.6879,0.30927
8560,7.908,6,0.1,0.00039993,3996.5,0.00039989,3995.4,-0.0001319,-0.26885,-0.00013213,-1.9762,0.32369
8561,8.092,6,0.1,0.00039436,3940.8,0.00039431,3939.6,-0.00013005,-0.24173,-0.00013031,-2.2522,0.33839
8562,8.2759,6,0.1,0.00038882,3885.5,0.00038877,3884.1,-0.0001282,-0.21641,-0.00012851,-2.5158,0.35335
8563,8.4598,6,0.1,0.00038331,3830.5,0.00038326,3829,-0.00012637,-0.19269,-0.00012671,-2.7671,0.36857
8564,8.6437,6,0.1,0.00037783,3775.7,0.00037778,3774.1,-0.00012455,-0.17043,-0.00012493,-3.0059,0.38405
8565,8.8276,6,0.1,0.00037238,3721.2,0.00037232,3719.5,-0.00012274,-0.14945,-0.00012315,-3.2324,0.39979
8566,9.0115,6,0.1,0.00036696,3667,0.0003669,3665.3,-0.00012094,-0.12961,-0.00012138,-3.4469,0.41578
8567,9.1954,6,0.1,0.00036156,3613.1,0.00036149,3611.2,-0.00011914,-0.11075,-0.00011961,-3.6494,0.43202
8568,9.3793,6,0.1,0.00035618,3559.4,0.00035612,3557.4,-0.00011736,-0.09271,-0.00011786,-3.84,0.4485
8569,9.5632,6,0.1,0.00035083,3505.9,0.00035076,3503.8,-0.00011558,-0.075335,-0.00011611,-4.0191,0.46522
8570,9.7471,6,0.1,0.0003455,3452.6,0.00034543,3450.5,-0.00011381,-0.05847,-0.00011436,-4.1867,0.48218
8571,9.931,6,0.1,0.00034019,3399.5,0.00034011,3397.3,-0.00011205,-0.041925,-0.00011262,-4.3429,0.49938
8572,10.115,6,0.1,0.00033489,3346.6,0.00033481,3344.3,-0.00011029,-0.025514,-0.00011089,-4.4876,0.5168
8573,10.299,6,0.1,0.00032961,3293.8,0.00032953,3291.5,-0.00010854,-0.0090447,-0.00010916,-4.6211,0.53445
8574,10.483,6,0.1,0.00032433,3241.1,0.00032425,3238.7,-0.00010679,0.0077369,-0.00010743,-4.7429,0.55232
8575,10.667,6,0.1,0.00031907,3188.5,0.00031898,3186,-0.00010505,0.024992,-0.0001057,-4.8531,0.57041
8576,10.851,6,0.1,0.0003138,3135.8,0.00031372,3133.4,-0.00010331,0.043106,-0.00010397,-4.9512,0.58871
8577,11.034,6,0.1,0.00030853,3083.2,0.00030845,3080.7,-0.00010156,0.062407,-0.00010224,-5.0367,0.60723
8578,11.218,6,0.1,0.00030325,3030.4,0.00030317,3027.9,-9.9813e-05,0.083207,-0.0001005,-5.1092,0.62596
8579,11.402,6,0.1,0.00029795,2977.5,0.00029787,2975,-9.806e-05,0.10599,-9.8762e-05,-5.1676,0.64489
8580,11.586,6,0.1,0.00029262,2924.2,0.00029254,2921.7,-9.6297e-05,0.13118,-9.7008e-05,-5.2114,0.66402
8581,11.77,6,0.1,0.00028725,2870.5,0.00028716,2868,-9.4519e-05,0.15944,-9.5238e-05,-5.2392,0.68334
8582,11.954,6,0.1,0.00028181,2816.2,0.00028173,2813.7,-9.2722e-05,0.19141,-9.3446e-05,-5.2497,0.70287
8583,12.138,6,0.1,0.00027629,2761,0.00027621,2758.5,-9.0898e-05,0.2278,-9.1626e-05,-5.2418,0.72258
8584,12.322,6,0.1,0.00027067,2704.8,0.00027058,2702.3,-8.9039e-05,0.26948,-8.9769e-05,-5.2139,0.74248
8585,12.506,6,0.1,0.0002649,2647.1,0.00026481,2644.7,-8.7133e-05,0.31729,-8.7863e-05,-5.1649,0.76256
8586,12.69,6,0.1,0.00025894,2587.7,0.00025886,2585.3,-8.5168e-05,0.37227,-8.5895e-05,-5.0935,0.78282
8587,12.874,6,0.1,0.00025276,2525.8,0.00025268,2523.6,-8.3126e-05,0.43538,-8.3849e-05,-4.9995,0.80325
8588,13.057,6,0.1,0.00024628,2461.1,0.0002462,2458.9,-8.0987e-05,0.50744,-8.1704e-05,-4.8834,0.82386
8589,13.241,6,0.1,0.00023942,2392.6,0.00023935,2390.5,-7.8725e-05,0.58909,-7.9435e-05,-4.7475,0.84463
8590,13.425,6,0.1,0.0002321,2319.4,0.00023204,2317.5,-7.631e-05,0.68038,-7.7012e-05,-4.5964,0.86556
8591,13.609,6,0.1,0.00022421,2240.5,0.00022415,2238.7,-7.3704e-05,0.78057,-7.4398e-05,-4.4381,0.88665
8592,13.793,6,0.1,0.0002156,2154.6,0.00021555,2152.9,-7.0863e-05,0.88737,-7.1551e-05,-4.2851,0.90789
8593,13.977,6,0.1,0.00020613,2059.9,0.00020608,2058.3,-6.7734e-05,0.99624,-6.842e-05,-4.1555,0.92927
8594,14.161,6,0.1,0.00019561,1954.8,0.00019556,1953.3,-6.4258e-05,1.0995,-6.4947e-05,-4.0737,0.9508
8595,14.345,6,0.1,0.00018385,1837.2,0.0001838,1835.8,-6.0369e-05,1.1852,-6.1068e-05,-4.0704,0.97245
8596,14.529,6,0.1,0.00017062,1705.1,0.00017057,1703.6,-5.5996e-05,1.2367,-5.6717e-05,-4.1806,0.99423
8597,14.713,6,0.1,0.00015574,1556.3,0.00015568,1554.7,-5.107e-05,1.233,-5.1824e-05,-4.4381,1.0161
8598,14.897,6,0.1,0.000139,1389,0.00013893,1387.2,-4.5532e-05,1.1455,-4.6332e-05,-4.8659,1.0381
8599,15.08,6,0.1,0.00012029,1202,0.00012021,1199.8,-3.9344e-05,0.9629,-4.0197e-05,-5.4453,1.0602
8600,15.264,6,0.1,9.9575e-05,995.07,9.948e-05,992.3,-3.2506e-05,0.60714,-3.34e-05,-6.1102,1.0824
8601,15.448,6,0.1,7.6937e-05,768.84,7.6828e-05,765.69,-2.5035e-05,0.32729,-2.5954e-05,-6.5758,1.1046
8602,15.632,6,0.1,5.2567e-05,525.31,5.2438e-05,521.56,-1.7082e-05,-0.77995,-1.7863e-05,-6.6521,1.1269
8603,15.816,6,0.1,2.6159e-05,261.41,2.6069e-05,258.97,-8.1126e-06,2.1458,-9.3034e-06,-6.8015,1.1492
8604,16,6,0.1,2.6546e-06,26.528,2.0688e-06,24.066,9.7829e-07,15.872,-1.8785e-06,-5.5925,1.1716
8605,15.816,6,0,2.6159e-05,261.41,9.3034e-06,6.8015,8.1126e-06,-2.1458,-2.6069e-05,-258.97,1.1492
8606,15.632,6,0,5.2567e-05,525.31,1.7863e-05,6.6521,1.7082e-05,0.77995,-5.2438e-05,-521.56,1.1269
8607,15.448,6,0,7.6937e-05,768.84,2.5954e-05,6.5758,2.5035e-05,-0.32729,-7.6828e-05,-765.69,1.1046
8608,15.264,6,0,9.9575e-05,995.07,3.34e-05,6.1102,3.2506e-05,-0.60714,-9.948e-05,-992.3,1.0824
8609,15.08,6,0,0.00012029,1202,4.0197e-05,5.4453,3.9344e-05,-0.9629,-0.00012021,-1199.8,1.0602
8610,14.897,6,0,0.000139,1389,4.6332e-05,4.8659,4.5532e-05,-1.1455,-0.00013893,-1387.2,1.0381
8611,14.713,6,0,0.00015574,1556.3,5.1824e-05,4.4381,5.107e-05,-1.233,-0.00015568,-1554.7,1.0161
8612,14.529,6,0,0.00017062,1705.1,5.6717e-05,4.1806,5.5996e-05,-1.2367,-0.00017057,-1703.6,0.99423
8613,14.345,6,0,0.00018385,1837.2,6.1068e-05,4.0704,6.0369e-05,-1.1852,-0.0001838,-1835.8,0.97245
8614,14.161,6,0,0.00019561,1954.8,6.4947e-05,4.0737,6.4258e-05,-1.0995,-0.00019556,-1953.3,0.9508
8615,13.977,6,0,0.00020613,2059.9,6.842e-05,4.1556,6.7734e-05,-0.99624,-0.00020608,-2058.3,0.92927
8616,13.793,6,0,0.0002156,2154.6,7.1551e-05,4.2851,7.0863e-05,-0.88737,-0.00021555,-2152.9,0.90789
8617,13.609,6,0,0.00022421,2240.5,7.4398e-05,4.4381,7.3704e-05,-0.78056,-0.00022415,-2238.7,0.88665
8618,13.425,6,0,0.0002321,2319.4,7.7012e-05,4.5964,7.631e-05,-0.68038,-0.00023204,-2317.5,0.86556
8619,13.241,6,0,0.00023942,2392.6,7.9435e-05,4.7475,7.8725e-05,-0.58909,-0.00023935,-2390.5,0.84463
8620,13.057,6,0,0.00024628,2461.1,8.1704e-05,4.8834,8.0987e-05,-0.50744,-0.0002462,-2458.9,0.82386
8621,12.874,6,0,0.00025276,2525.8,8.3849e-05,4.9995,8.3126e-05,-0.43538,-0.00025268,-2523.6,0.80325
8622,12.69,6,0,0.00025894,2587.7,8.5895e-05,5.0935,8.5168e-05,-0.37227,-0.00025886,-2585.3,0.78282
8623,12.506,6,0,0.0002649,2647.1,8.7863e-05,5.1649,8.7134e-05,-0.31729,-0.00026481,-2644.7,0.76256
8624,12.322,6,0,0.00027067,2704.8,8.9769e-05,5.2139,8.9039e-05,-0.26948,-0.00027058,-2702.3,0.74248
8625,12.138,6,0,0.00027629,2761,9.1626e-05,5.2418,9.0898e-05,-0.2278,-0.00027621,-2758.5,0.72258
8626,11.954,6,0,0.00028181,2816.2,9.3446e-05,5.2497,9.2722e-05,-0.19141,-0.00028173,-2813.7,0.70287
8627,11.77,6,0,0.00028725,2870.5,9.5238e-05,5.2392,9.4519e-05,-0.15943,-0.00028716,-2868,0.68334
8628,11.586,6,0,0.00029262,2924.2,9.7008e-05,5.2114,9.6297e-05,-0.13118,-0.00029254,-2921.7,0.66402
8629,11.402,6,0,0.00029795,2977.5,9.8762e-05,5.1677,9.806e-05,-0.10599,-0.00029787,-2975,0.64489
8630,11.218,6,0,0.00030325,3030.4,0.0001005,5.1092,9.9813e-05,-0.083206,-0.00030317,-3027.9,0.62596
8631,11.034,6,0,0.00030853,3083.2,0.00010224,5.0367,0.00010156,-0.062407,-0.00030845,-3080.7,0.60723
8632,10.851,6,0,0.0003138,3135.8,0.00010397,4.9512,0.00010331,-0.043106,-0.00031372,-3133.4,0.58871
8633,10.667,6,0,0.00031907,3188.5,0.0001057,4.8531,0.00010505,-0.024992,-0.00031898,-3186,0.57041
8634,10.483,6,0,0.00032433,3241.1,0.00010743,4.7429,0.00010679,-0.0077359,-0.00032425,-3238.7,0.55232
8635,10.299,6,0,0.00032961,3293.8,0.00010916,4.6211,0.00010854,0.009045,-0.00032953,-3291.5,0.53445
8636,10.115,6,0,0.00033489,3346.6,0.00011089,4.4876,0.00011029,0.025514,-0.00033481,-3344.3,0.5168
8637,9.931,6,0,0.00034019,3399.5,0.00011262,4.3429,0.00011205,0.041925,-0.00034011,-3397.3,0.49938
8638,9.7471,6,0,0.0003455,3452.6,0.00011436,4.1867,0.00011381,0.058471,-0.00034543,-3450.5,0.48218
8639,9.5632,6,0,0.00035083,3505.9,0.00011611,4.0191,0.00011558,0.075335,-0.00035076,-3503.8,0.46522
8640,9.3793,6,0,0.00035618,3559.4,0.00011786,3.84,0.00011736,0.09271,-0.00035612,-3557.4,0.4485
8641,9.1954,6,0,0.00036156,3613.1,0.00011961,3.6494,0.00011914,0.11075,-0.00036149,-3611.2,0.43202
8642,9.0115,6,0,0.00036696,3667,0.00012138,3.4469,0.00012094,0.12961,-0.0003669,-3665.3,0.41578
8643,8.8276,6,0,0.00037238,3721.2,0.00012315,3.2325,0.00012274,0.14945,-0.00037232,-3719.5,0.39979
8644,8.6437,6,0,0.00037783,3775.7,0.00012493,3.0059,0.00012455,0.17043,-0.00037778,-3774.1,0.38405
8645,8.4598,6,0,0.00038331,3830.5,0.00012671,2.7671,0.00012637,0.19269,-0.00038326,-3829,0.36857
8646,8.2759,6,0,0.00038882,3885.5,0.00012851,2.5159,0.0001282,0.21641,-0.00038877,-3884.1,0.35335
8647,8.092,6,0,0.00039436,3940.8,0.00013031,2.2522,0.00013005,0.24173,-0.00039431,-3939.6,0.33839
8648,7.908,6,0,0.00039993,3996.5,0.00013213,1.9762,0.0001319,0.26885,-0.00039989,-3995.4,0.32369
8649,7.7241,6,0,0.00040553,4052.5,0.00013395,1.6879,0.00013377,0.29792,-0.0004055,-4051.5,0.30927
8650,7.5402,6,0,0.00041117,4108.9,0.00013579,1.3877,0.00013564,0.32915,-0.00041114,-4108,0.29512
8651,7.3563,6,0,0.00041684,4165.6,0.00013763,1.0761,0.00013754,0.36271,-0.00041682,-4164.8,0.28124
8652,7.1724,6,0,0.00042256,4222.7,0.00013949,0.75373,0.00013944,0.39877,-0.00042254,-4222.1,0.26765
8653,6.9885,6,0,0.00042831,4280.2,0.00014136,0.44154,0.00014136,0.41771,-0.0004283,-4279.7,0.25435
8654,6.8046,6,0,0.00043411,4338.1,0.00014329,0.48013,0.00014324,0.080462,-0.0004341,-4337.8,0.24133
8655,6.6207,6,0,0.00043994,4396.4,0.00014524,0.52535,0.00014513,-0.26684,-0.00043994,-4396.3,0.22861
8656,6.4368,6,0,0.00044583,4455.2,0.0001472,0.57421,0.00014704,-0.61872,-0.00044583,-4455.2,0.21619
8657,6.2529,6,0,0.00045176,4514.5,0.00014918,0.62696,0.00014897,-0.97235,-0.00045177,-4514.7,0.20407
8658,6.069,6,0,0.00045774,4574.3,0.00015118,0.68393,0.00015091,-1.3243,-0.00045775,-4574.6,0.19225
8659,5.8851,6,0,0.00046378,4634.6,0.00015319,0.74545,0.00015287,-1.6702,-0.00046379,-4635,0.18075
8660,5.7011,6,0,0.00046986,4695.4,0.00015522,0.81191,0.00015485,-2.0049,-0.00046988,-4696,0.16955
8661,5.5172,6,0,0.00047601,4756.8,0.00015727,0.88373,0.00015684,-2.3222,-0.00047603,-4757.5,0.15868
8662,5.3333,6,0,0.00048221,4818.8,0.00015934,0.96135,0.00015886,-2.6144,-0.00048224,-4819.6,0.14813
8663,5.1494,6,0,0.00048847,4881.4,0.00016143,1.0453,0.0001609,-2.8725,-0.0004885,-4882.3,0.1379
8664,4.9655,6,0,0.0004948,4944.5,0.00016353,1.1361,0.00016297,-3.0858,-0.00049483,-4945.5,0.12801
8665,4.7816,6,0,0.00050118,5008.4,0.00016565,1.2344,0.00016506,-3.2414,-0.00050122,-5009.4,0.11845
8666,4.5977,6,0,0.00050763,5072.8,0.00016779,1.3411,0.00016717,-3.3245,-0.00050766,-5073.8,0.10923
8667,4.4138,6,0,0.00051414,5137.8,0.00016995,1.4571,0.00016932,-3.3174,-0.00051417,-5138.8,0.10035
8668,4.2299,6,0,0.00052071,5203.5,0.00017212,1.5835,0.00017149,-3.1998,-0.00052073,-5204.3,0.091822
8669,4.046,6,0,0.00052733,5269.6,0.00017431,1.7223,0.00017369,-2.948,-0.00052735,-5270.2,0.083647
8670,3.8621,6,0,0.000534,5336.3,0.0001765,1.8762,0.00017591,-2.535,-0.00053401,-5336.6,0.075828
8671,3.6782,6,0,0.0005407,5403.3,0.0001787,2.0503,0.00017817,-1.9314,-0.0005407,-5403.2,0.068371
8672,3.4943,6,0,0.00054743,5470.5,0.0001809,2.2558,0.00018045,-1.1075,-0.00054741,-5469.9,0.06128
8673,3.3103,6,0,0.00055416,5537.8,0.00018309,2.5254,0.00018274,-0.048464,-0.00055412,-5536.5,0.05456
8674,3.1264,6,0,0.00056086,5604.8,0.00018528,2.9936,0.00018503,1.1675,-0.00056079,-5602.7,0.048215
8675,2.9425,6,0,0.0005675,5671.1,0.00018752,4.1516,0.00018725,2.1157,-0.00056739,-5667.9,0.042249
8676,2.7586,6,0,0.00057402,5736.2,0.00018982,6.2763,0.00018933,2.5988,-0.00057387,-5731.8,0.036666
8677,2.5747,6,0,0.00058035,5799.5,0.00019214,9.1471,0.00019131,2.9332,-0.00058015,-5793.5,0.031472
8678,2.3908,6,0,0.00058641,5860,0.00019442,12.759,0.00019315,3.2411,-0.00058614,-5852,0.026669
8679,2.2069,6,0,0.00059206,5916.5,0.00019664,17.224,0.00019482,3.5567,-0.00059171,-5906.1,0.022262
8680,2.023,6,0,0.00059714,5967.3,0.00019876,22.713,0.00019626,3.8951,-0.00059669,-5954,0.018253
8681,1.8391,6,0,0.00060141,6010,0.00020072,29.456,0.00019736,4.2663,-0.00060084,-5993.1,0.014647
8682,1.6552,6,0,0.00060456,6041.4,0.00020243,37.768,0.00019802,4.6849,-0.00060383,-6020.1,0.011444
8683,1.4713,6,0,0.00060612,6057,0.00020378,48.081,0.00019807,5.1512,-0.0006052,-6030.3,0.0086467
8684,1.2874,6,0,0.00060542,6050,0.0002046,61.071,0.00019724,5.7284,-0.00060427,-6016.5,0.0062547
8685,1.1034,6,0,0.00060143,6010.2,0.00020464,77.637,0.00019514,6.2871,-0.00059997,-5967.9,0.0042661
8686,0.91954,6,0,0.00059251,5921,0.00020348,99.781,0.00019118,7.3568,-0.00059064,-5866.9,0.0026766
8687,0.73563,6,0,0.00057584,5754.4,0.00020047,129.79,0.00018419,7.5217,-0.00057341,-5684.8,0.0014779
8688,0.55172,6,0,0.00054588,5455.1,0.0001943,176.34,0.0001722,10.271,-0.00054252,-5359.9,0.00065623
8689,0.36782,6,0,0.00049278,4924.4,0.0001831,256.64,0.00015114,16.524,-0.0004877,-4783.4,0.00019002
8690,0.18391,6,0,0.00037925,3789.9,0.00016391,442.77,9.8088e-05,-51.818,-0.00037017,-3570.1,4.9339e-05
8691,16,6,0,2.6546e-06,26.528,1.8785e-06,5.5925,-9.7829e-07,-15.872,-2.0688e-06,-24.066,1.1716
8692,3.937e-14,6,0,0.00022468,2245.2,0.00019588,1823.1,3.7236e-07,354.06,-0.00014809,-761.44,0
8693,0.18391,4.7412e-32,0,0.00037925,3789.9,0.00016391,442.77,9.8088e-05,-51.818,-0.00037017,-3570.1,4.9339e-05
8694,0.36782,9.4824e-32,0,0.00049278,4924.4,0.0001831,256.64,0.00015114,16.524,-0.0004877,-4783.4,0.00019002
8695,0.55172,1.4224e-31,0,0.00054588,5455.1,0.0001943,176.34,0.0001722,10.271,-0.00054252,-5359.9,0.00065623
8696,0.73563,1.8965e-31,0,0.00057584,5754.4,0.00020047,129.79,0.00018419,7.5217,-0.00057341,-5684.8,0.0014779
8697,0.91954,2.3706e-31,0,0.00059251,5921,0.00020348,99.781,0.00019118,7.3568,-0.00059064,-5866.9,0.0026766
8698,1.1034,2.8447e-31,0,0.00060143,6010.2,0.00020464,77.637,0.00019514,6.2871,-0.00059997,-5967.9,0.0042661
8699,1.2874,3.3188e-31,0,0.00060542,6050,0.0002046,61.071,0.00019724,5.7284,-0.00060427,-6016.5,0.0062547
8700,1.4713,3.7929e-31,0,0.00060612,6057,0.00020378,48.081,0.00019807,5.1512,-0.0006052,-6030.3,0.0086467
8701,1.6552,4.2671e-31,0,0.00060456,6041.4,0.00020243,37.768,0.00019802,4.6849,-0.00060383,-6020.1,0.011444
8702,1.8391,4.7412e-31,0,0.00060141,6010,0.00020072,29.456,0.00019736,4.2663,-0.00060084,-5993.1,0.014647
8703,2.023,5.2153e-31,0,0.00059714,5967.3,0.00019876,22.713,0.00019626,3.8951,-0.00059669,-5954,0.018253
8704,2.2069,5.6894e-31,0,0.00059206,5916.5,0.00019664,17.224,0.00019482,3.5567,-0.00059171,-5906.1,0.022262
8705,2.3908,6.1635e-31,0,0.00058641,5860,0.00019442,12.759,0.00019315,3.2411,-0.00058614,-5852,0.026669
8706,2.5747,6.6377e-31,0,0.00058035,5799.5,0.00019214,9.1471,0.00019131,2.9332,-0.00058015,-5793.5,0.031472
8707,2.7586,7.1118e-31,0,0.00057402,5736.2,0.00018982,6.2763,0.00018933,2.5988,-0.00057387,-5731.8,0.036666
8708,2.9425,7.5859e-31,0,0.0005675,5671.1,0.00018752,4.1515,0.00018725,2.1157,-0.00056739,-5667.9,0.042249
8709,3.1264,8.06e-31,0,0.00056086,5604.7,0.00018528,2.9936,0.00018503,1.1675,-0.00056079,-5602.7,0.048215
8710,3.3103,8.5341e-31,0,0.00055416,5537.8,0.00018309,2.5254,0.00018274,-0.048469,-0.00055412,-5536.5,0.05456
8711,3.4943,9.0082e-31,0,0.00054743,5470.5,0.0001809,2.2558,0.00018045,-1.1075,-0.00054741,-5469.9,0.06128
8712,3.6782,9.4824e-31,0,0.0005407,5403.3,0.0001787,2.0503,0.00017817,-1.9314,-0.0005407,-5403.2,0.068371
8713,3.8621,9.9565e-31,0,0.000534,5336.3,0.0001765,1.8762,0.00017591,-2.535,-0.00053401,-5336.6,0.075828
8714,4.046,1.0431e-30,0,0.00052733,5269.6,0.00017431,1.7223,0.00017369,-2.948,-0.00052735,-5270.2,0.083647
8715,4.2299,1.0905e-30,0,0.00052071,5203.5,0.00017212,1.5835,0.00017149,-3.1998,-0.00052073,-5204.3,0.091822
8716,4.4138,1.1379e-30,0,0.00051414,5137.8,0.00016995,1.4571,0.00016932,-3.3174,-0.00051417,-5138.8,0.10035
8717,4.5977,1.1853e-30,0,0.00050763,5072.8,0.00016779,1.3411,0.00016717,-3.3245,-0.00050766,-5073.8,0.10923
8718,4.7816,1.2327e-30,0,0.00050118,5008.4,0.00016565,1.2344,0.00016506,-3.2414,-0.00050122,-5009.4,0.11845
8719,4.9655,1.2801e-30,0,0.0004948,4944.5,0.00016353,1.1361,0.00016297,-3.0858,-0.00049483,-4945.5,0.12801
8720,5.1494,1.3275e-30,0,0.00048847,4881.4,0.00016143,1.0453,0.0001609,-2.8725,-0.0004885,-4882.3,0.1379
8721,5.3333,1.3749e-30,0,0.00048221,4818.8,0.00015934,0.96135,0.00015886,-2.6144,-0.00048224,-4819.6,0.14813
8722,5.5172,1.4224e-30,0,0.00047601,4756.8,0.00015727,0.88373,0.00015684,-2.3222,-0.00047603,-4757.5,0.15868
8723,5.7011,1.4698e-30,0,0.00046986,4695.4,0.00015522,0.81192,0.00015485,-2.0049,-0.00046988,-4696,0.16955
8724,5.8851,1.5172e-30,0,0.00046378,4634.6,0.00015319,0.74545,0.00015287,-1.6702,-0.00046379,-4635,0.18075
8725,6.069,1.5646e-30,0,0.00045774,4574.3,0.00015118,0.68393,0.00015091,-1.3243,-0.00045775,-4574.6,0.19225
8726,6.2529,1.612e-30,0,0.00045176,4514.5,0.00014918,0.62696,0.00014897,-0.97234,-0.00045177,-4514.7,0.20407
8727,6.4368,1.6594e-30,0,0.00044583,4455.2,0.0001472,0.57421,0.00014704,-0.61871,-0.00044583,-4455.2,0.21619
8728,6.6207,1.7068e-30,0,0.00043994,4396.4,0.00014524,0.52535,0.00014513,-0.26684,-0.00043994,-4396.3,0.22861
8729,6.8046,1.7542e-30,0,0.00043411,4338.1,0.00014329,0.48013,0.00014324,0.080466,-0.0004341,-4337.8,0.24133
8730,6.9885,1.8016e-30,0,0.00042831,4280.2,0.00014136,0.44154,0.00014136,0.41772,-0.0004283,-4279.7,0.25435
8731,7.1724,1.8491e-30,0,0.00042256,4222.7,0.00013949,0.75373,0.00013944,0.39878,-0.00042254,-4222.1,0.26765
8732,7.3563,1.8965e-30,0,0.00041684,4165.6,0.00013763,1.0761,0.00013754,0.36271,-0.00041682,-4164.8,0.28124
8733,7.5402,1.9439e-30,0,0.00041117,4108.9,0.00013579,1.3877,0.00013564,0.32915,-0.00041114,-4108,0.29512
8734,7.7241,1.9913e-30,0,0.00040553,4052.5,0.00013395,1.6879,0.00013377,0.29792,-0.0004055,-4051.5,0.30927
8735,7.908,2.0387e-30,0,0.00039993,3996.5,0.00013213,1.9762,0.0001319,0.26885,-0.00039989,-3995.4,0.32369
8736,8.092,2.0861e-30,0,0.00039436,3940.8,0.00013031,2.2522,0.00013005,0.24173,-0.00039431,-3939.6,0.33839
8737,8.2759,2.1335e-30,0,0.00038882,3885.5,0.00012851,2.5159,0.0001282,0.21641,-0.00038877,-3884.1,0.35335
8738,8.4598,2.1809e-30,0,0.00038331,3830.5,0.00012671,2.7671,0.00012637,0.19269,-0.00038326,-3829,0.36857
8739,8.6437,2.2284e-30,0,0.00037783,3775.7,0.00012493,3.0059,0.00012455,0.17043,-0.00037778,-3774.1,0.38405
8740,8.8276,2.2758e-30,0,0.00037238,3721.2,0.00012315,3.2325,0.00012274,0.14945,-0.00037232,-3719.5,0.39979
8741,9.0115,2.3232e-30,0,0.00036696,3667,0.00012138,3.4469,0.00012094,0.12961,-0.0003669,-3665.3,0.41578
8742,9.1954,2.3706e-30,0,0.00036156,3613.1,0.00011961,3.6494,0.00011914,0.11075,-0.00036149,-3611.2,0.43202
8743,9.3793,2.418e-30,0,0.00035618,3559.4,0.00011786,3.8401,0.00011736,0.09271,-0.00035612,-3557.4,0.4485
8744,9.5632,2.4654e-30,0,0.00035083,3505.9,0.00011611,4.0191,0.00011558,0.075335,-0.00035076,-3503.8,0.46522
8745,9.7471,2.5128e-30,0,0.0003455,3452.6,0.00011436,4.1867,0.00011381,0.058471,-0.00034543,-3450.5,0.48218
8746,9.931,2.5602e-30,0,0.00034019,3399.5,0.00011262,4.3429,0.00011205,0.041926,-0.00034011,-3397.3,0.49938
8747,10.115,2.6076e-30,0,0.00033489,3346.6,0.00011089,4.4876,0.00011029,0.025514,-0.00033481,-3344.3,0.5168
8748,10.299,2.6551e-30,0,0.00032961,3293.8,0.00010916,4.6211,0.00010854,0.0090452,-0.00032953,-3291.5,0.53445
8749,10.483,2.7025e-30,0,0.00032433,3241.1,0.00010743,4.7429,0.00010679,-0.0077365,-0.00032425,-3238.7,0.55232
8750,10.667,2.7499e-30,0,0.00031907,3188.5,0.0001057,4.8531,0.00010505,-0.024992,-0.00031898,-3186,0.57041
8751,10.851,2.7973e-30,0,0.0003138,3135.8,0.00010397,4.9512,0.00010331,-0.043106,-0.00031372,-3133.4,0.58871
8752,11.034,2.8447e-30,0,0.00030853,3083.2,0.00010224,5.0367,0.00010156,-0.062407,-0.00030845,-3080.7,0.60723
8753,11.218,2.8921e-30,0,0.00030325,3030.4,0.0001005,5.1092,9.9813e-05,-0.083206,-0.00030317,-3027.9,0.62596
8754,11.402,2.9395e-30,0,0.00029795,2977.5,9.8762e-05,5.1677,9.806e-05,-0.10599,-0.00029787,-2975,0.64489
8755,11.586,2.9869e-30,0,0.00029262,2924.2,9.7008e-05,5.2114,9.6297e-05,-0.13118,-0.00029254,-2921.7,0.66402
8756,11.77,3.0344e-30,0,0.00028725,2870.5,9.5238e-05,5.2392,9.4519e-05,-0.15944,-0.00028716,-2868,0.68334
8757,11.954,3.0818e-30,0,0.00028181,2816.2,9.3446e-05,5.2498,9.2722e-05,-0.19141,-0.00028173,-2813.7,0.70287
8758,12.138,3.1292e-30,0,0.00027629,2761,9.1626e-05,5.2418,9.0898e-05,-0.2278,-0.00027621,-2758.5,0.72258
8759,12.322,3.1766e-30,0,0.00027067,2704.8,8.9769e-05,5.2139,8.9039e-05,-0.26948,-0.00027058,-2702.3,0.74248
8760,12.506,3.224e-30,0,0.0002649,2647.1,8.7863e-05,5.1649,8.7133e-05,-0.31729,-0.00026481,-2644.7,0.76256
8761,12.69,3.2714e-30,0,0.00025894,2587.7,8.5895e-05,5.0935,8.5168e-05,-0.37227,-0.00025886,-2585.3,0.78282
8762,12.874,3.3188e-30,0,0.00025276,2525.8,8.3849e-05,4.9995,8.3126e-05,-0.43539,-0.00025268,-2523.6,0.80325
8763,13.057,3.3662e-30,0,0.00024628,2461.1,8.1704e-05,4.8834,8.0987e-05,-0.50744,-0.0002462,-2458.9,0.82386
8764,13.241,3.4136e-30,0,0.00023942,2392.6,7.9435e-05,4.7475,7.8725e-05,-0.58909,-0.00023935,-2390.5,0.84463
8765,13.425,3.4611e-30,0,0.0002321,2319.4,7.7012e-05,4.5964,7.631e-05,-0.68038,-0.00023204,-2317.5,0.86556
8766,13.609,3.5085e-30,0,0.00022421,2240.5,7.4398e-05,4.4381,7.3704e-05,-0.78056,-0.00022415,-2238.7,0.88665
8767,13.793,3.5559e-30,0,0.0002156,2154.6,7.1551e-05,4.2851,7.0863e-05,-0.88737,-0.00021555,-2152.9,0.90789
8768,13.977,3.6033e-30,0,0.00020613,2059.9,6.842e-05,4.1556,6.7734e-05,-0.99624,-0.00020608,-2058.3,0.92927
8769,14.161,3.6507e-30,0,0.00019561,1954.8,6.4947e-05,4.0737,6.4258e-05,-1.0995,-0.00019556,-1953.3,0.9508
8770,14.345,3.6981e-30,0,0.00018385,1837.2,6.1068e-05,4.0704,6.0369e-05,-1.1852,-0.0001838,-1835.8,0.97245
8771,14.529,3.7455e-30,0,0.00017062,1705.1,5.6717e-05,4.1806,5.5996e-05,-1.2367,-0.00017057,-1703.6,0.99423
8772,14.713,3.7929e-30,0,0.00015574,1556.3,5.1824e-05,4.4381,5.107e-05,-1.233,-0.00015568,-1554.7,1.0161
8773,14.897,3.8404e-30,0,0.000139,1389,4.6332e-05,4.8659,4.5532e-05,-1.1455,-0.00013893,-1387.2,1.0381
8774,15.08,3.8878e-30,0,0.00012029,1202,4.0197e-05,5.4453,3.9344e-05,-0.9629,-0.00012021,-1199.8,1.0602
8775,15.264,3.9352e-30,0,9.9575e-05,995.07,3.34e-05,6.1102,3.2506e-05,-0.60714,-9.948e-05,-992.3,1.0824
8776,15.448,3.9826e-30,0,7.6937e-05,768.84,2.5954e-05,6.5758,2.5035e-05,-0.32729,-7.6828e-05,-765.69,1.1046
8777,15.632,4.03e-30,0,5.2567e-05,525.31,1.7863e-05,6.6521,1.7082e-05,0.77995,-5.2438e-05,-521.56,1.1269
8778,15.816,4.0774e-30,0,2.6159e-05,261.41,9.3034e-06,6.8015,8.1126e-06,-2.1458,-2.6069e-05,-258.97,1.1492
8779,16,0,0,2.6546e-06,26.528,1.8785e-06,5.5925,-9.7829e-07,-15.872,-2.0688e-06,-24.066,1.1716
8780,0,0,0,0.00022468,2245.2,0.00019588,1823.1,3.7236e-07,354.06,-0.00014809,-761.44,0
8781,16.349,0,0,2.0364e-05,203.5,7.4509e-06,8.0598,6.2102e-06,-1.263,-2.0233e-05,-199.94,1.2233
8782,16.531,0,0,3.9306e-05,392.79,1.3749e-05,10.149,1.258e-05,1.3648,-3.9103e-05,-386.96,1.2485
8783,16.713,0,0,5.5505e-05,554.66,1.9256e-05,11.569,1.7781e-05,0.48735,-5.5291e-05,-548.55,1.2738
8784,16.895,0,0,6.9385e-05,693.37,2.3873e-05,11.864,2.2329e-05,0.26522,-6.9171e-05,-687.24,1.2991
8785,17.078,0,0,8.0921e-05,808.65,2.7653e-05,11.373,2.6137e-05,-0.012355,-8.0721e-05,-802.91,1.3244
8786,17.26,0,0,9.0182e-05,901.2,3.0646e-05,10.529,2.9224e-05,-0.15983,-9.0001e-05,-895.97,1.3498
8787,17.442,0,0,9.7312e-05,972.45,3.2922e-05,9.5517,3.1619e-05,-0.24001,-9.715e-05,-967.76,1.3752
8788,17.624,0,0,0.00010252,1024.5,3.456e-05,8.5868,3.3383e-05,-0.26335,-0.00010237,-1020.3,1.4007
8789,17.806,0,0,0.00010604,1059.6,3.5648e-05,7.7105,3.4588e-05,-0.25203,-0.00010591,-1055.9,1.4263
8790,17.988,0,0,0.00010811,1080.4,3.6269e-05,6.9603,3.5313e-05,-0.22063,-0.00010799,-1077,1.4519
8791,18.171,0,0,0.00010897,1089,3.65e-05,6.3483,3.5631e-05,-0.18017,-0.00010887,-1085.9,1.4776
8792,18.353,0,0,0.00010883,1087.6,3.6412e-05,5.873,3.5612e-05,-0.13779,-0.00010873,-1084.7,1.5034
8793,18.535,0,0,0.00010787,1078,3.6064e-05,5.5258,3.5315e-05,-0.09795,-0.00010778,-1075.2,1.5293
8794,18.717,0,0,0.00010625,1061.7,3.5506e-05,5.2947,3.4793e-05,-0.063105,-0.00010616,-1059.1,1.5552
8795,18.899,0,0,0.00010409,1040.1,3.4781e-05,5.1671,3.4089e-05,-0.034402,-0.000104,-1037.6,1.5812
8796,19.081,0,0,0.0001015,1014.3,3.3924e-05,5.1305,3.3239e-05,-0.012133,-0.00010141,-1011.7,1.6073
8797,19.264,0,0,9.8578e-05,985.1,3.2962e-05,5.1731,3.2274e-05,0.003895,-9.8489e-05,-982.5,1.6334
8798,19.446,0,0,9.5391e-05,953.25,3.192e-05,5.2843,3.1218e-05,0.014178,-9.53e-05,-950.59,1.6596
8799,19.628,0,0,9.1999e-05,919.35,3.0814e-05,5.4544,3.0091e-05,0.019311,-9.1904e-05,-916.6,1.6859
8800,19.81,0,0,8.8447e-05,883.86,2.966e-05,5.6748,2.8908e-05,0.019937,-8.8349e-05,-881,1.7122
8801,19.992,0,0,8.4774e-05,847.15,2.847e-05,5.9374,2.7682e-05,0.016656,-8.4671e-05,-844.16,1.7386
8802,20.174,0,0,8.1009e-05,809.53,2.7253e-05,6.2354,2.6424e-05,0.010032,-8.0901e-05,-806.39,1.765
8803,20.357,0,0,7.7176e-05,771.22,2.6016e-05,6.5622,2.5142e-05,0.00055436,-7.7062e-05,-767.92,1.7915
8804,20.539,0,0,7.3293e-05,732.43,2.4764e-05,6.9121,2.3843e-05,-0.01139,-7.3173e-05,-728.95,1.818
8805,20.721,0,0,6.9377e-05,693.29,2.3503e-05,7.2799,2.2531e-05,-0.025461,-6.925e-05,-689.63,1.8446
8806,20.903,0,0,6.5437e-05,653.92,2.2235e-05,7.6607,2.121e-05,-0.041406,-6.5304e-05,-650.07,1.8712
8807,21.085,0,0,6.1483e-05,614.41,2.0964e-05,8.05,1.9885e-05,-0.059038,-6.1344e-05,-610.38,1.8979
8808,21.267,0,0,5.7523e-05,574.84,1.9691e-05,8.4435,1.8556e-05,-0.078246,-5.7376e-05,-570.61,1.9246
8809,21.45,0,0,5.3562e-05,535.26,1.8417e-05,8.8373,1.7228e-05,-0.098975,-5.3408e-05,-530.83,1.9514
8810,21.632,0,0,4.9605e-05,495.71,1.7144e-05,9.2273,1.59e-05,-0.12126,-4.9443e-05,-491.09,1.9782
8811,21.814,0,0,4.5655e-05,456.23,1.5874e-05,9.6096,1.4575e-05,-0.14517,-4.5486e-05,-451.42,2.005
8812,21.996,0,0,4.1714e-05,416.86,1.4605e-05,9.9797,1.3254e-05,-0.17089,-4.1538e-05,-411.86,2.0318
8813,22.178,0,0,3.7787e-05,377.61,1.3339e-05,10.333,1.1938e-05,-0.19868,-3.7604e-05,-372.43,2.0587
8814,22.36,0,0,3.3876e-05,338.52,1.2077e-05,10.664,1.0627e-05,-0.22894,-3.3685e-05,-333.17,2.0856
8815,22.543,0,0,2.9983e-05,299.62,1.0819e-05,10.967,9.324e-06,-0.26222,-2.9785e-05,-294.11,2.1125
8816,22.725,0,0,2.6113e-05,260.94,9.5643e-06,11.234,8.0294e-06,-0.29936,-2.5907e-05,-255.29,2.1394
8817,22.907,0,0,2.2269e-05,222.54,8.3149e-06,11.452,6.7453e-06,-0.34129,-2.2057e-05,-216.75,2.1664
8818,23.089,0,0,1.846e-05,184.47,7.0712e-06,11.607,5.4745e-06,-0.3908,-1.824e-05,-178.57,2.1934
8819,23.271,0,0,1.4695e-05,146.85,5.8348e-06,11.675,4.2215e-06,-0.44645,-1.4467e-05,-140.86,2.2203
8820,23.453,0,0,1.0993e-05,109.85,4.6057e-06,11.59,2.9924e-06,-0.53228,-1.0754e-05,-103.82,2.2473
8821,23.636,0,0,7.3971e-06,73.92,3.3974e-06,11.378,1.8031e-06,-0.60027,-7.1406e-06,-67.8,2.2743
8822,23.818,0,0,3.9284e-06,39.256,2.1275e-06,9.8205,6.9203e-07,-0.96515,-3.6649e-06,-33.701,2.3013
8823,16.167,0,0,2.157e-06,21.555,1.5346e-06,4.5647,-8.3477e-07,-13.238,-1.655e-06,-19.401,1.1981
8824,24,0,0,9.4546e-07,9.4481,6.884e-07,5.4651,1.0638e-07,1.092,-7.5464e-07,-5.3773,2.3283
8825,5.0862e-14,5.8182,0,0.00013761,1375.2,1.5724e-05,-1061.1,-1.9379e-06,-1193.8,-0.00017549,-2497.9,0
8826,4.9273e-14,5.6364,0,0.00023646,2363,4.984e-06,-2242.2,-3.775e-06,-2308,-0.0003138,-4637.4,0
8827,4.7683e-14,5.4545,0,0.00028844,2882.4,2.3437e-06,-2785.6,-2.8752e-06,-2824.8,-0.00038386,-5687.4,0
8828,4.6094e-14,5.2727,0,0.00032132,3211,1.4131e-06,-3110,-1.789e-06,-3134.1,-0.00042754,-6333,0
8829,4.4504e-14,5.0909,0,0.00034329,3430.6,9.5033e-07,-3325.3,-1.2037e-06,-3341.5,-0.0004567,-6763.9,0
8830,4.2915e-14,4.9091,0,0.00035897,3587.2,6.7971e-07,-3478.5,-8.6034e-07,-3490.1,-0.00047751,-7071.5,0
8831,4.1325e-14,4.7273,0,0.00037057,3703.1,5.0443e-07,-3591.8,-6.3481e-07,-3600.4,-0.00049292,-7299.2,0
8832,3.9736e-14,4.5455,0,0.00037937,3791,3.8264e-07,-3677.7,-4.8024e-07,-3684.2,-0.0005046,-7472,0
8833,3.8147e-14,4.3636,0,0.00038614,3858.7,2.9364e-07,-3743.8,-3.69e-07,-3748.8,-0.0005136,-7605,0
8834,3.6557e-14,4.1818,0,0.00039139,3911.2,2.2592e-07,-3795.1,-2.8581e-07,-3798.9,-0.00052058,-7708.2,0
8835,3.4968e-14,4,0,0.00039546,3951.8,1.7252e-07,-3834.8,-2.2147e-07,-3837.8,-0.00052598,-7788.2,0
8836,3.3378e-14,3.8182,0,0.00039858,3983,1.2898e-07,-3865.3,-1.7014e-07,-3867.6,-0.00053013,-7849.5,0
8837,3.1789e-14,3.6364,0,0.00040091,4006.4,9.228e-08,-3888.2,-1.2796e-07,-3889.9,-0.00053323,-7895.4,0
8838,3.0199e-14,3.4545,0,0.00040258,4023,6.0346e-08,-3904.6,-9.2279e-08,-3905.7,-0.00053544,-7928.1,0
8839,2.861e-14,3.2727,0,0.00040365,4033.7,3.1947e-08,-3915.1,-6.1549e-08,-3915.8,-0.00053687,-7949.2,0
8840,2.702e-14,3.0909,0,0.00040417,4038.9,8.5391e-09,-3920.4,-3.7021e-08,-3920.7,-0.00053756,-7959.5,0
8841,2.5431e-14,2.9091,0,0.00040417,4038.9,8.5391e-09,-3920.4,-3.7021e-08,-3920.7,-0.00053756,-7959.5,0
8842,2.3842e-14,2.7273,0,0.00040365,4033.7,3.1947e-08,-3915.1,-6.1549e-08,-3915.8,-0.00053687,-7949.2,0
8843,2.2252e-14,2.5455,0,0.00040258,4023,6.0346e-08,-3904.6,-9.2279e-08,-3905.7,-0.00053544,-7928.1,0
8844,2.0663e-14,2.3636,0,0.00040091,4006.4,9.228e-08,-3888.2,-1.2796e-07,-3889.9,-0.00053323,-7895.4,0
8845,1.9073e-14,2.1818,0,0.00039858,3983,1.2898e-07,-3865.3,-1.7014e-07,-3867.6,-0.00053013,-7849.5,0
8846,1.7484e-14,2,0,0.00039546,3951.8,1.7252e-07,-3834.8,-2.2147e-07,-3837.8,-0.00052598,-7788.2,0
8847,1.5894e-14,1.8182,0,0.00039139,3911.2,2.2592e-07,-3795.1,-2.858e-07,-3798.9,-0.00052058,-7708.2,0
8848,1.4305e-14,1.6364,0,0.00038614,3858.7,2.9364e-07,-3743.8,-3.69e-07,-3748.8,-0.0005136,-7605,0
8849,1.2716e-14,1.4545,0,0.00037937,3791,3.8264e-07,-3677.7,-4.8024e-07,-3684.2,-0.0005046,-7472,0
8850,1.1126e-14,1.2727,0,0.00037057,3703.1,5.0443e-07,-3591.8,-6.3481e-07,-3600.4,-0.00049292,-7299.2,0
8851,9.5366e-15,1.0909,0,0.00035897,3587.2,6.7971e-07,-3478.5,-8.6034e-07,-3490.1,-0.00047751,-7071.5,0
8852,7.9472e-15,0.90909,0,0.00034329,3430.6,9.5033e-07,-3325.3,-1.2037e-06,-3341.5,-0.0004567,-6763.9,0
8853,6.3578e-15,0.72727,0,0.00032132,3211,1.4131e-06,-3110,-1.789e-06,-3134.1,-0.00042754,-6333,0
8854,4.7683e-15,0.54545,0,0.00028844,2882.4,2.3437e-06,-2785.6,-2.8752e-06,-2824.8,-0.00038386,-5687.4,0
8855,3.1789e-15,0.36364,0,0.00023646,2363,4.984e-06,-2242.2,-3.775e-06,-2308,-0.0003138,-4637.4,0
8856,1.5894e-15,0.18182,0,0.00013761,1375.2,1.5724e-05,-1061.1,-1.9379e-06,-1193.8,-0.00017549,-2497.9,0
8857,24,0.18182,0,3.6313e-06,36.288,3.4737e-06,33.253,-6.5586e-07,2.2248,-1.837e-06,-6.6499,2.3285
8858,24,0.36364,0,6.0286e-06,60.244,5.8965e-06,57.384,-1.4407e-06,2.255,-2.6622e-06,-6.9224,2.3286
8859,24,0.54545,0,7.8295e-06,78.241,7.7091e-06,75.533,-2.0194e-06,2.4368,-3.2749e-06,-6.9966,2.3287
8860,24,0.72727,0,9.2957e-06,92.893,9.182e-06,90.256,-2.5026e-06,2.4622,-3.7633e-06,-7.0102,2.3288
8861,24,0.90909,0,1.0518e-05,105.1,1.0409e-05,102.54,-2.9063e-06,2.4915,-4.167e-06,-6.9808,2.3289
8862,24,1.0909,0,1.155e-05,115.42,1.1445e-05,112.91,-3.2486e-06,2.5067,-4.5061e-06,-6.9416,2.329
8863,24,1.2727,0,1.2426e-05,124.17,1.2324e-05,121.71,-3.5396e-06,2.5182,-4.7928e-06,-6.8982,2.3291
8864,24,1.4545,0,1.3169e-05,131.6,1.307e-05,129.18,-3.7868e-06,2.5258,-5.0355e-06,-6.8559,2.3292
8865,24,1.6364,0,1.3797e-05,137.87,1.37e-05,135.49,-3.996e-06,2.5312,-5.2401e-06,-6.8168,2.3293
8866,24,1.8182,0,1.4323e-05,143.13,1.4228e-05,140.78,-4.1713e-06,2.535,-5.4113e-06,-6.782,2.3294
8867,24,2,0,1.4757e-05,147.47,1.4664e-05,145.15,-4.3162e-06,2.5376,-5.5526e-06,-6.7521,2.3294
8868,24,2.1818,0,1.5108e-05,150.98,1.5016e-05,148.67,-4.4333e-06,2.5393,-5.6666e-06,-6.7271,2.3295
8869,24,2.3636,0,1.5382e-05,153.71,1.529e-05,151.42,-4.5246e-06,2.5404,-5.7554e-06,-6.7073,2.3295
8870,24,2.5455,0,1.5583e-05,155.72,1.5492e-05,153.44,-4.5918e-06,2.5412,-5.8207e-06,-6.6925,2.3295
8871,24,2.7273,0,1.5715e-05,157.04,1.5625e-05,154.77,-4.636e-06,2.5416,-5.8636e-06,-6.6826,2.3296
8872,24,2.9091,0,1.5781e-05,157.7,1.569e-05,155.43,-4.6579e-06,2.5418,-5.8849e-06,-6.6777,2.3296
8873,24,3.0909,0,1.5781e-05,157.7,1.569e-05,155.43,-4.6579e-06,2.5418,-5.8849e-06,-6.6777,2.3296
8874,24,3.2727,0,1.5715e-05,157.04,1.5625e-05,154.77,-4.636e-06,2.5416,-5.8636e-06,-6.6826,2.3296
8875,24,3.4545,0,1.5583e-05,155.72,1.5492e-05,153.44,-4.5918e-06,2.5412,-5.8207e-06,-6.6925,2.3295
8876,24,3.6364,0,1.5382e-05,153.71,1.529e-05,151.42,-4.5246e-06,2.5404,-5.7554e-06,-6.7073,2.3295
8877,24,3.8182,0,1.5108e-05,150.98,1.5016e-05,148.67,-4.4333e-06,2.5393,-5.6666e-06,-6.7272,2.3295
8878,24,4,0,1.4757e-05,147.47,1.4664e-05,145.15,-4.3162e-06,2.5376,-5.5526e-06,-6.7521,2.3294
8879,24,4.1818,0,1.4323e-05,143.13,1.4228e-05,140.78,-4.1713e-06,2.535,-5.4113e-06,-6.782,2.3294
8880,24,4.3636,0,1.3797e-05,137.87,1.37e-05,135.49,-3.996e-06,2.5312,-5.2401e-06,-6.8168,2.3293
8881,24,4.5455,0,1.3169e-05,131.6,1.307e-05,129.18,-3.7868e-06,2.5258,-5.0355e-06,-6.8559,2.3292
8882,24,4.7273,0,1.2426e-05,124.17,1.2324e-05,121.71,-3.5396e-06,2.5182,-4.7928e-06,-6.8982,2.3291
8883,24,4.9091,0,1.155e-05,115.42,1.1445e-05,112.91,-3.2486e-06,2.5067,-4.5061e-06,-6.9416,2.329
8884,24,5.0909,0,1.0518e-05,105.1,1.0409e-05,102.54,-2.9063e-06,2.4915,-4.167e-06,-6.9808,2.3289
8885,24,5.2727,0,9.2957e-06,92.893,9.182e-06,90.256,-2.5026e-06,2.4622,-3.7633e-06,-7.0102,2.3288
8886,24,5.4545,0,7.8295e-06,78.241,7.7091e-06,75.533,-2.0194e-06,2.4368,-3.2749e-06,-6.9966,2.3287
8887,24,5.6364,0,6.0286e-06,60.244,5.8965e-06,57.384,-1.4407e-06,2.255,-2.6622e-06,-6.9224,2.3286
8888,24,5.8182,0,3.6313e-06,36.288,3.4737e-06,33.252,-6.5586e-07,2.2248,-1.837e-06,-6.6499,2.3285
8889,24,6,0,9.4546e-07,9.4481,6.884e-07,5.4651,1.0638e-07,1.092,-7.5463e-07,-5.3773,2.3283
8890,23.818,6,0,3.9284e-06,39.256,2.1275e-06,9.8205,6.9203e-07,-0.96516,-3.6649e-06,-33.701,2.3013
8891,23.636,6,0,7.3971e-06,73.92,3.3974e-06,11.378,1.8031e-06,-0.60027,-7.1406e-06,-67.8,2.2743
8892,23.453,6,0,1.0993e-05,109.85,4.6057e-06,11.59,2.9924e-06,-0.53228,-1.0754e-05,-103.82,2.2473
8893,23.271,6,0,1.4695e-05,146.85,5.8348e-06,11.675,4.2215e-06,-0.44644,-1.4467e-05,-140.86,2.2203
8894,23.089,6,0,1.846e-05,184.47,7.0712e-06,11.607,5.4745e-06,-0.39081,-1.824e-05,-178.57,2.1934
8895,22.907,6,0,2.2269e-05,222.54,8.3149e-06,11.452,6.7453e-06,-0.3413,-2.2057e-05,-216.75,2.1664
8896,22.725,6,0,2.6113e-05,260.94,9.5643e-06,11.234,8.0294e-06,-0.29936,-2.5907e-05,-255.29,2.1394
8897,22.543,6,0,2.9983e-05,299.62,1.0819e-05,10.967,9.324e-06,-0.26221,-2.9785e-05,-294.11,2.1125
8898,22.36,6,0,3.3876e-05,338.52,1.2077e-05,10.664,1.0627e-05,-0.22894,-3.3685e-05,-333.17,2.0856
8899,22.178,6,0,3.7787e-05,377.61,1.3339e-05,10.333,1.1938e-05,-0.19868,-3.7604e-05,-372.43,2.0587
8900,21.996,6,0,4.1714e-05,416.86,1.4605e-05,9.9797,1.3254e-05,-0.17089,-4.1538e-05,-411.86,2.0318
8901,21.814,6,0,4.5655e-05,456.23,1.5874e-05,9.6096,1.4575e-05,-0.14517,-4.5486e-05,-451.42,2.005
8902,21.632,6,0,4.9605e-05,495.71,1.7144e-05,9.2273,1.59e-05,-0.12126,-4.9443e-05,-491.09,1.9782
8903,21.45,6,0,5.3562e-05,535.26,1.8417e-05,8.8373,1.7228e-05,-0.098979,-5.3408e-05,-530.83,1.9514
8904,21.267,6,0,5.7523e-05,574.84,1.9691e-05,8.4435,1.8556e-05,-0.078247,-5.7376e-05,-570.61,1.9246
8905,21.085,6,0,6.1483e-05,614.41,2.0964e-05,8.05,1.9885e-05,-0.059039,-6.1344e-05,-610.38,1.8979
8906,20.903,6,0,6.5437e-05,653.92,2.2235e-05,7.6607,2.121e-05,-0.041405,-6.5304e-05,-650.07,1.8712
8907,20.721,6,0,6.9377e-05,693.29,2.3503e-05,7.2799,2.2531e-05,-0.02546,-6.925e-05,-689.63,1.8446
8908,20.539,6,0,7.3293e-05,732.43,2.4764e-05,6.9121,2.3843e-05,-0.01139,-7.3173e-05,-728.95,1.818
8909,20.357,6,0,7.7176e-05,771.22,2.6016e-05,6.5622,2.5142e-05,0.0005554,-7.7062e-05,-767.92,1.7915
8910,20.174,6,0,8.1009e-05,809.53,2.7253e-05,6.2354,2.6424e-05,0.010034,-8.0901e-05,-806.39,1.765
8911,19.992,6,0,8.4774e-05,847.15,2.847e-05,5.9374,2.7682e-05,0.016657,-8.4671e-05,-844.16,1.7386
8912,19.81,6,0,8.8447e-05,883.86,2.966e-05,5.6748,2.8908e-05,0.019938,-8.8349e-05,-881,1.7122
8913,19.628,6,0,9.1999e-05,919.35,3.0814e-05,5.4544,3.0091e-05,0.019312,-9.1904e-05,-916.6,1.6859
8914,19.446,6,0,9.5391e-05,953.25,3.192e-05,5.2843,3.1218e-05,0.01418,-9.53e-05,-950.59,1.6596
8915,19.264,6,0,9.8578e-05,985.1,3.2962e-05,5.1731,3.2274e-05,0.0038974,-9.8489e-05,-982.5,1.6334
8916,19.081,6,0,0.0001015,1014.3,3.3924e-05,5.1305,3.3239e-05,-0.012134,-0.00010141,-1011.7,1.6073
8917,18.899,6,0,0.00010409,1040.1,3.4781e-05,5.1671,3.4089e-05,-0.034401,-0.000104,-1037.6,1.5812
8918,18.717,6,0,0.00010625,1061.7,3.5506e-05,5.2947,3.4793e-05,-0.063102,-0.00010616,-1059.1,1.5552
8919,18.535,6,0,0.00010787,1078,3.6064e-05,5.5258,3.5315e-05,-0.097949,-0.00010778,-1075.2,1.5293
8920,18.353,6,0,0.00010883,1087.6,3.6412e-05,5.873,3.5612e-05,-0.13779,-0.00010873,-1084.7,1.5034
8921,18.171,6,0,0.00010897,1089,3.65e-05,6.3483,3.5631e-05,-0.18016,-0.00010887,-1085.9,1.4776
8922,17.988,6,0,0.00010811,1080.4,3.6269e-05,6.9603,3.5313e-05,-0.22063,-0.00010799,-1077,1.4519
8923,17.806,6,0,0.00010604,1059.6,3.5648e-05,7.7105,3.4588e-05,-0.25204,-0.00010591,-1055.9,1.4263
8924,17.624,6,0,0.00010252,1024.5,3.456e-05,8.5868,3.3383e-05,-0.26335,-0.00010237,-1020.3,1.4007
8925,17.442,6,0,9.7312e-05,972.45,3.2922e-05,9.5517,3.1619e-05,-0.24001,-9.715e-05,-967.76,1.3752
8926,17.26,6,0,9.0182e-05,901.2,3.0646e-05,10.529,2.9224e-05,-0.15983,-9.0001e-05,-895.97,1.3498
8927,17.078,6,0,8.0921e-05,808.65,2.7653e-05,11.373,2.6137e-05,-0.012357,-8.0721e-05,-802.91,1.3244
8928,16.895,6,0,6.9385e-05,693.37,2.3873e-05,11.864,2.2329e-05,0.26522,-6.9171e-05,-687.24,1.2991
8929,16.713,6,0,5.5505e-05,554.66,1.9256e-05,11.569,1.7781e-05,0.48735,-5.5291e-05,-548.55,1.2738
8930,16.531,6,0,3.9306e-05,392.79,1.3749e-05,10.149,1.258e-05,1.3648,-3.9103e-05,-386.96,1.2485
8931,16.349,6,0,2.0364e-05,203.5,7.4509e-06,8.0598,6.2102e-06,-1.263,-2.0233e-05,-199.94,1.2233
8932,16.167,6,0,2.157e-06,21.555,1.5346e-06,4.5647,-8.3477e-07,-13.238,-1.655e-06,-19.401,1.1981
8933,16,1.8182,0,0.00041321,4129.3,0.00033821,2699.7,-2.2148e-05,-7.9366,-0.00029433,-2053,1.1818
8934,16,1.6364,0,0.00023917,2390.1,0.00018273,1393.3,4.5782e-06,54.697,-0.00018453,-1366.2,1.1808
8935,16,1.4545,0,0.00018735,1872.2,0.00014256,1068.5,2.2224e-06,14.117,-0.00014513,-1093.1,1.1797
8936,16,1.2727,0,0.00014651,1464.1,0.00010859,795.89,4.8742e-06,16.638,-0.0001162,-893.07,1.1786
8937,16,1.0909,0,0.0001168,1167.1,8.4162e-05,598.92,5.9876e-06,11.551,-9.4734e-05,-745.23,1.1776
8938,16,0.90909,0,9.2842e-05,927.78,6.4545e-05,443.27,6.9473e-06,10.499,-7.721e-05,-621.83,1.1766
8939,16,0.72727,0,7.2531e-05,724.81,4.8169e-05,315.31,7.424e-06,9.165,-6.1985e-05,-512.35,1.1755
8940,16,0.54545,0,5.4517e-05,544.8,3.404e-05,208.18,7.4452e-06,8.3542,-4.801e-05,-408.32,1.1745
8941,16,0.36364,0,3.7778e-05,377.52,2.1562e-05,118.56,6.8718e-06,8.1853,-3.4391e-05,-301.85,1.1735
8942,16,0.18182,0,2.0554e-05,205.4,1.0175e-05,45.431,4.9644e-06,6.2813,-1.9393e-05,-176.73,1.1726
8943,16,2,0,0.0010127,10120,0.00053374,2305.2,0.00018556,-310.83,-0.00095311,-8866.3,1.1829
8944,16.167,0.18182,0,1.7417e-05,174.05,7.8529e-06,28.057,4.6497e-06,3.9895,-1.6746e-05,-156.77,1.1986
8945,16.167,0.36364,0,3.2026e-05,320.04,1.5862e-05,68.734,7.5114e-06,5.9935,-3.029e-05,-278.03,1.1991
8946,16.167,0.54545,0,4.5857e-05,458.25,2.4242e-05,116.63,9.5318e-06,6.1023,-4.2758e-05,-386.78,1.1996
8947,16.167,0.72727,0,6.0523e-05,604.81,3.3489e-05,172.66,1.1421e-05,6.8473,-5.5738e-05,-497.76,1.2001
8948,16.167,0.90909,0,7.7017e-05,769.64,4.4134e-05,239.26,1.3362e-05,8.056,-7.0158e-05,-619.48,1.2006
8949,16.167,1.0909,0,9.6604e-05,965.38,5.6977e-05,321.04,1.547e-05,9.1627,-8.7129e-05,-761.73,1.2012
8950,16.167,1.2727,0,0.00012124,1211.6,7.3155e-05,425.98,1.8266e-05,13.576,-0.00010838,-937.99,1.2018
8951,16.167,1.4545,0,0.00015573,1556.2,9.6657e-05,580.62,2.1021e-05,12.324,-0.00013765,-1179.8,1.2024
8952,16.167,1.6364,0,0.00019899,1988.6,0.00012098,725.82,3.0862e-05,48.675,-0.00017697,-1512.9,1.2031
8953,16.167,1.8182,0,0.00034687,3466.3,0.00024501,1685.7,1.9417e-05,-9.2931,-0.00028571,-2301.9,1.2038
8954,16.167,2,0,0.0009477,9470.4,0.00042796,1052.9,0.00020467,-624.83,-0.00092919,-9144.3,1.2046
8955,16,4.1818,0,0.00041321,4129.3,0.00033821,2699.7,-2.2148e-05,-7.9366,-0.00029433,-2053,1.1818
8956,16,4.3636,0,0.00023917,2390.1,0.00018273,1393.3,4.5782e-06,54.697,-0.00018453,-1366.2,1.1808
8957,16,4.5455,0,0.00018735,1872.2,0.00014256,1068.5,2.2224e-06,14.117,-0.00014513,-1093.1,1.1797
8958,16,4.7273,0,0.00014651,1464.1,0.00010859,795.89,4.8742e-06,16.638,-0.0001162,-893.07,1.1786
8959,16,4.9091,0,0.0001168,1167.1,8.4162e-05,598.92,5.9876e-06,11.551,-9.4734e-05,-745.23,1.1776
8960,16,5.0909,0,9.2842e-05,927.78,6.4545e-05,443.27,6.9473e-06,10.499,-7.721e-05,-621.83,1.1766
8961,16,5.2727,0,7.2531e-05,724.81,4.8169e-05,315.31,7.424e-06,9.165,-6.1985e-05,-512.35,1.1755
8962,16,5.4545,0,5.4517e-05,544.8,3.404e-05,208.18,7.4452e-06,8.3542,-4.801e-05,-408.32,1.1745
8963,16,5.6364,0,3.7778e-05,377.52,2.1562e-05,118.56,6.8718e-06,8.1853,-3.4391e-05,-301.85,1.1735
8964,16,5.8182,0,2.0554e-05,205.4,1.0175e-05,45.431,4.9644e-06,6.2813,-1.9393e-05,-176.73,1.1726
8965,16,4,0,0.0010127,10120,0.00053374,2305.2,0.00018556,-310.83,-0.00095311,-8866.3,1.1829
8966,16.167,5.8182,0,1.7417e-05,174.05,7.8529e-06,28.057,4.6497e-06,3.9895,-1.6746e-05,-156.77,1.1986
8967,16.167,5.6364,0,3.2026e-05,320.04,1.5862e-05,68.734,7.5114e-06,5.9935,-3.029e-05,-278.03,1.1991
8968,16.167,5.4545,0,4.5857e-05,458.25,2.4242e-05,116.63,9.5318e-06,6.1023,-4.2758e-05,-386.78,1.1996
8969,16.167,5.2727,0,6.0523e-05,604.81,3.3489e-05,172.66,1.1421e-05,6.8473,-5.5738e-05,-497.76,1.2001
8970,16.167,5.0909,0,7.7017e-05,769.64,4.4134e-05,239.26,1.3362e-05,8.056,-7.0158e-05,-619.48,1.2006
8971,16.167,4.9091,0,9.6604e-05,965.38,5.6977e-05,321.04,1.547e-05,9.1627,-8.7129e-05,-761.73,1.2012
8972,16.167,4.7273,0,0.00012124,1211.6,7.3155e-05,425.98,1.8266e-05,13.576,-0.00010838,-937.99,1.2018
8973,16.167,4.5455,0,0.00015573,1556.2,9.6657e-05,580.62,2.1021e-05,12.324,-0.00013765,-1179.8,1.2024
8974,16.167,4.3636,0,0.00019899,1988.6,0.00012098,725.82,3.0862e-05,48.675,-0.00017697,-1512.9,1.2031
8975,16.167,4.1818,0,0.00034687,3466.3,0.00024501,1685.7,1.9417e-05,-9.2931,-0.00028571,-2301.9,1.2038
8976,16.167,4,0,0.0009477,9470.4,0.00042796,1052.9,0.00020467,-624.83,-0.00092919,-9144.3,1.2046
8977,16,2.2727,0,0.00060747,6070.5,0.00026372,791.54,0.00016298,34.63,-0.00058987,-5622,1.1839
8978,16.083,2.1818,0,0.00066326,6628.1,0.0002744,707.32,0.00018775,56.242,-0.00064787,-6222.3,1.1944
8979,15.908,2.1818,0,0.00058696,5865.5,0.00025723,804.77,0.00015686,50.638,-0.00056876,-5401.3,1.1718
8980,16,2.1818,0.05,4.2492e-05,424.63,3.2629e-05,245.16,6.937e-12,0.00014259,-3.2629e-05,-245.16,1.1836
8981,16,2.0909,0,0.00082491,8243.4,0.00039964,1496.6,0.00018336,-128.37,-0.00078952,-7438.2,1.1833
8982,16,2.4545,0,0.00050447,5041.2,0.00021822,626.44,0.0001338,-7.8771,-0.00049094,-4701.9,1.1843
8983,16.083,2.3636,0,0.00053078,5304.1,0.00022704,622.21,0.00014195,-17.109,-0.00051758,-4972.6,1.195
8984,15.908,2.3636,0,0.00050368,5033.4,0.000219,637.06,0.00013262,-12.007,-0.0004899,-4689.3,1.1723
8985,16,2.3636,0.05,6.7636e-06,67.59,5.1936e-06,39.023,1.3959e-12,5.9139e-05,-5.1936e-06,-39.023,1.1841
8986,16,2.6364,0,0.00045686,4565.5,0.00019543,543.79,0.00012296,-0.76884,-0.00044518,-4269.6,1.1847
8987,16.083,2.5455,0,0.0004697,4693.7,0.00019937,540.56,0.00012749,0.47377,-0.00045816,-4399.9,1.1953
8988,15.908,2.5455,0,0.00045681,4564.9,0.00019531,543.74,0.00012313,1.3817,-0.00044511,-4268.2,1.1727
8989,16,2.5455,0.05,3.2294e-06,32.272,2.4798e-06,18.632,-1.5531e-12,1.3482e-05,-2.4798e-06,-18.632,1.1845
8990,16,2.8182,0,0.00043367,4333.7,0.00018445,502.62,0.00011737,-1.4042,-0.00042294,-4061,1.1848
8991,16.083,2.7273,0,0.00043766,4373.6,0.00018503,493.11,0.00011915,-1.8803,-0.00042719,-4106.9,1.1956
8992,15.908,2.7273,0,0.00043133,4310.3,0.00018335,498.37,0.00011679,-1.723,-0.0004207,-4040.2,1.1729
8993,16,2.7273,0.05,1.6311e-06,16.299,1.2524e-06,9.4104,-3.9572e-12,-9.1082e-05,-1.2525e-06,-9.4105,1.1847
8994,16,3,0,0.00042674,4264.4,0.00018111,489.95,0.00011577,-0.97992,-0.00041629,-3998.7,1.1849
8995,16.083,2.9091,0,0.00042391,4236.2,0.00017864,471,0.00011583,-0.95602,-0.00041394,-3981.4,1.1957
8996,15.908,2.9091,0,0.00041995,4196.6,0.00017783,477.32,0.00011421,-0.68502,-0.0004098,-3937.9,1.173
8997,16,2.9091,0.05,8.8364e-07,8.8303,6.7852e-07,5.0981,-2.9712e-12,-8.6317e-05,-6.7853e-07,-5.0982,1.1849
8998,16,3.1818,0,0.00043367,4333.7,0.00018445,502.62,0.00011737,-1.4042,-0.00042294,-4061,1.1848
8999,16.083,3.0909,0,0.00042391,4236.2,0.00017864,471,0.00011583,-0.95602,-0.00041394,-3981.4,1.1957
9000,15.908,3.0909,0,0.00041995,4196.6,0.00017783,477.32,0.00011421,-0.68502,-0.0004098,-3937.9,1.173
9001,16,3.0909,0.05,8.8364e-07,8.8303,6.7852e-07,5.0981,-8.1499e-12,-0.00013268,-6.7853e-07,-5.0983,1.1849
9002,16,3.3636,0,0.00045686,4565.5,0.00019543,543.79,0.00012296,-0.76883,-0.00044518,-4269.6,1.1847
9003,16.083,3.2727,0,0.00043766,4373.6,0.00018503,493.11,0.00011915,-1.8803,-0.00042719,-4106.9,1.1956
9004,15.908,3.2727,0,0.00043133,4310.3,0.00018335,498.37,0.00011679,-1.723,-0.0004207,-4040.2,1.1729
9005,16,3.2727,0.05,1.6311e-06,16.299,1.2525e-06,9.4103,-1.0878e-11,-0.00019798,-1.2525e-06,-9.4105,1.1847
9006,16,3.5455,0,0.00050447,5041.2,0.00021822,626.44,0.0001338,-7.8772,-0.00049094,-4701.9,1.1843
9007,16.083,3.4545,0,0.0004697,4693.7,0.00019937,540.56,0.00012749,0.47377,-0.00045816,-4399.9,1.1953
9008,15.908,3.4545,0,0.00045681,4564.9,0.00019531,543.74,0.00012313,1.3817,-0.00044511,-4268.2,1.1727
9009,16,3.4545,0.05,3.2294e-06,32.272,2.4798e-06,18.632,-1.5324e-11,-0.00028492,-2.4798e-06,-18.633,1.1845
9010,16,3.7273,0,0.00060747,6070.5,0.00026372,791.54,0.00016298,34.63,-0.00058987,-5622,1.1839
9011,16.083,3.6364,0,0.00053078,5304.1,0.00022704,622.21,0.00014195,-17.109,-0.00051758,-4972.6,1.195
9012,15.908,3.6364,0,0.00050368,5033.4,0.000219,637.06,0.00013262,-12.007,-0.0004899,-4689.3,1.1723
9013,16,3.6364,0.05,6.7636e-06,67.59,5.1936e-06,39.023,-2.098e-11,-0.00031792,-5.1936e-06,-39.023,1.1841
9014,16.083,3.8182,0,0.00066326,6628.1,0.0002744,707.32,0.00018775,56.242,-0.00064787,-6222.3,1.1944
9015,15.908,3.8182,0,0.00058696,5865.5,0.00025723,804.77,0.00015686,50.638,-0.00056876,-5401.3,1.1718
9016,16,3.8182,0.05,4.2492e-05,424.63,3.2629e-05,245.16,-2.029e-11,-0.00048443,-3.2629e-05,-245.16,1.1836
9017,16,3.9091,0,0.00082491,8243.4,0.00039964,1496.6,0.00018336,-128.37,-0.00078952,-7438.2,1.1833
9018,16.167,2.2727,0,0.00059783,5974.2,0.00024746,611.16,0.00016645,2.5162,-0.00058506,-5644.1,1.2056
9019,16.258,2.1818,0,0.00056949,5691,0.000226,459.01,0.00016443,-3.5576,-0.00056033,-5449.2,1.2173
9020,16.167,2.1818,0.05,3.567e-05,356.46,2.739e-05,205.8,-5.918e-12,4.7592e-05,-2.739e-05,-205.8,1.2053
9021,16.167,2.0909,0,0.00078775,7872,0.00033569,740.04,0.00019513,-316.1,-0.0007752,-7606.8,1.205
9022,16.167,2.4545,0,0.0004993,4989.6,0.00021093,556.88,0.00013568,-8.5327,-0.00048756,-4691.3,1.206
9023,16.258,2.3636,0,0.00049322,4928.8,0.00020291,479.97,0.00013727,-13.262,-0.00048343,-4676.9,1.2178
9024,16.167,2.3636,0.05,7.515e-06,75.098,5.7706e-06,43.358,-4.4211e-12,-3.4607e-05,-5.7706e-06,-43.358,1.2058
9025,16.167,2.6364,0,0.00045133,4510.2,0.00018966,495.12,0.00012369,-0.59176,-0.00044087,-4242.5,1.2063
9026,16.258,2.5455,0,0.00044572,4454.1,0.00018298,436.74,0.00012504,1.3857,-0.00043666,-4219,1.2182
9027,16.167,2.5455,0.05,3.5758e-06,35.733,2.7458e-06,20.631,-6.9654e-12,-4.5539e-05,-2.7458e-06,-20.631,1.2062
9028,16.167,2.8182,0,0.00042805,4277.5,0.00017933,462.33,0.00011761,-1.3906,-0.00041831,-4028.1,1.2065
9029,16.258,2.7273,0,0.00041995,4196.6,0.00017265,412.8,0.00011749,-1.6476,-0.00041142,-3975.7,1.2184
9030,16.167,2.7273,0.05,2.0062e-06,20.048,1.5405e-06,11.575,-8.6948e-12,-0.00010659,-1.5405e-06,-11.575,1.2064
9031,16.167,3,0,0.00042107,4207.8,0.00017615,451.84,0.00011589,-0.89791,-0.00041156,-3964,1.2066
9032,16.258,2.9091,0,0.00040841,4081.3,0.00016774,399.98,0.00011443,-0.53203,-0.00040014,-3866.8,1.2185
9033,16.167,2.9091,0.05,1.3461e-06,13.452,1.0336e-06,7.7663,-7.459e-12,-0.00010989,-1.0336e-06,-7.7664,1.2065
9034,16.167,3.1818,0,0.00042805,4277.5,0.00017933,462.33,0.00011761,-1.3906,-0.00041831,-4028.1,1.2065
9035,16.258,3.0909,0,0.00040841,4081.3,0.00016774,399.98,0.00011443,-0.53203,-0.00040014,-3866.8,1.2185
9036,16.167,3.0909,0.05,1.3461e-06,13.452,1.0336e-06,7.7663,-4.5636e-12,-0.00010253,-1.0336e-06,-7.7665,1.2065
9037,16.167,3.3636,0,0.00045133,4510.2,0.00018966,495.12,0.00012369,-0.59176,-0.00044087,-4242.5,1.2063
9038,16.258,3.2727,0,0.00041995,4196.6,0.00017265,412.8,0.00011749,-1.6476,-0.00041142,-3975.7,1.2184
9039,16.167,3.2727,0.05,2.0062e-06,20.048,1.5405e-06,11.575,-7.1373e-12,-0.00015245,-1.5405e-06,-11.575,1.2064
9040,16.167,3.5455,0,0.0004993,4989.6,0.00021093,556.88,0.00013568,-8.5327,-0.00048756,-4691.3,1.206
9041,16.258,3.4545,0,0.00044572,4454.1,0.00018298,436.74,0.00012504,1.3857,-0.00043666,-4219,1.2182
9042,16.167,3.4545,0.05,3.5758e-06,35.733,2.7458e-06,20.63,-1.0309e-11,-0.00017502,-2.7458e-06,-20.631,1.2062
9043,16.167,3.7273,0,0.00059783,5974.2,0.00024746,611.16,0.00016645,2.5162,-0.00058506,-5644.1,1.2056
9044,16.258,3.6364,0,0.00049322,4928.8,0.00020291,479.97,0.00013727,-13.262,-0.00048343,-4676.9,1.2178
9045,16.167,3.6364,0.05,7.515e-06,75.098,5.7706e-06,43.358,-3.8485e-11,-0.00040024,-5.7706e-06,-43.358,1.2058
9046,16.258,3.8182,0,0.00056949,5691,0.000226,459.01,0.00016443,-3.5577,-0.00056033,-5449.2,1.2173
9047,16.167,3.8182,0.05,3.567e-05,356.46,2.739e-05,205.8,-1.3351e-11,-0.00042361,-2.739e-05,-205.8,1.2053
9048,16.167,3.9091,0,0.00078775,7872,0.00033569,740.04,0.00019513,-316.1,-0.0007752,-7606.8,1.205
9049,15.816,5.7273,0,4.7579e-05,475.46,2.4278e-05,103.08,9.8226e-06,-5.53,-4.4979e-05,-417.29,1.1507
9050,15.724,5.8182,0,4.8323e-05,482.89,2.0169e-05,48.472,1.3057e-05,-4.9702,-4.736e-05,-458.92,1.139
9051,15.816,5.8182,0.05,5.1626e-06,51.59,3.9642e-06,29.786,8.6619e-13,9.5323e-06,-3.9642e-06,-29.786,1.1502
9052,15.816,5.9091,0,3.0656e-05,306.35,1.2394e-05,24.368,8.4043e-06,-5.6089,-3.0227e-05,-295.87,1.1497
9053,15.908,5.8182,0,2.6553e-05,265.35,1.1421e-05,33.099,7.1759e-06,1.2017,-2.5826e-05,-246.76,1.1614
9054,15.816,5.5455,0,6.8667e-05,686.19,3.9528e-05,209.96,1.1154e-05,-3.2327,-6.2618e-05,-557.52,1.1517
9055,15.724,5.6364,0,6.2007e-05,619.64,2.9648e-05,111.76,1.4481e-05,-2.2046,-5.9351e-05,-556.95,1.14
9056,15.816,5.6364,0.05,4.6723e-06,46.691,3.5878e-06,26.957,4.4788e-13,8.6162e-06,-3.5878e-06,-26.957,1.1512
9057,15.908,5.6364,0,4.3977e-05,439.47,2.351e-05,112.8,8.6959e-06,1.4868,-4.0962e-05,-371.62,1.1624
9058,15.816,5.3636,0,9.3659e-05,935.95,5.8461e-05,348.15,1.1755e-05,-2.779,-8.2709e-05,-712.54,1.1526
9059,15.724,5.4545,0,8.2038e-05,819.81,4.4735e-05,219.46,1.5332e-05,-1.4598,-7.6064e-05,-688.18,1.1409
9060,15.816,5.4545,0.05,4.9199e-06,49.166,3.7779e-06,28.386,5.6949e-13,1.3503e-05,-3.7779e-06,-28.386,1.1521
9061,15.908,5.4545,0,6.3516e-05,634.72,3.8225e-05,218.5,9.2738e-06,0.97397,-5.692e-05,-496.38,1.1633
9062,15.816,5.1818,0,0.00012202,1219.3,8.0258e-05,510.14,1.2011e-05,-2.6365,-0.00010501,-881.85,1.1536
9063,15.724,5.2727,0,0.00010599,1059.2,6.2991e-05,352.49,1.5929e-05,-1.1199,-9.5486e-05,-838.25,1.1419
9064,15.816,5.2727,0.05,5.4379e-06,54.341,4.1756e-06,31.374,2.6221e-13,9.9902e-06,-4.1756e-06,-31.374,1.1531
9065,15.908,5.2727,0,8.5035e-05,849.76,5.4932e-05,343.24,9.3763e-06,0.95128,-7.3838e-05,-624.29,1.1643
9066,15.816,5,0,0.00015476,1546.6,0.0001055,698.8,1.2094e-05,-3.0359,-0.00013047,-1074.2,1.1545
9067,15.724,5.0909,0,0.00013375,1336.6,8.4094e-05,507.02,1.648e-05,-1.014,-0.00011769,-1009.1,1.1428
9068,15.816,5.0909,0.05,6.2258e-06,62.215,4.7807e-06,35.92,-2.814e-13,-1.8004e-07,-4.7807e-06,-35.92,1.154
9069,15.908,5.0909,0,0.00010934,1092.7,7.4091e-05,489.15,9.1394e-06,1.1285,-9.2491e-05,-762.49,1.1653
9070,15.816,4.8182,0,0.0001939,1937.6,0.00013549,922.65,1.2312e-05,-2.8698,-0.00016088,-1304.2,1.1555
9071,15.724,4.9091,0,0.00016619,1660.7,0.00010847,684.38,1.7206e-05,-1.3137,-0.00014358,-1209.4,1.1437
9072,15.816,4.9091,0.05,7.3514e-06,73.463,5.645e-06,42.414,-2.4868e-12,-9.2258e-06,-5.645e-06,-42.414,1.155
9073,15.908,4.9091,0,0.00013778,1376.8,9.6667e-05,662.39,8.5571e-06,0.36319,-0.00011399,-920.41,1.1663
9074,15.816,4.6364,0,0.00024305,2428.8,0.00017256,1193.8,1.2821e-05,-6.4086,-0.00019947,-1601.4,1.1564
9075,15.724,4.7273,0,0.00020508,2049.4,0.00013706,889.38,1.859e-05,-0.73453,-0.0001749,-1454.5,1.1446
9076,15.816,4.7273,0.05,9.1095e-06,91.032,6.9949e-06,52.557,-2.2828e-12,-2.5017e-05,-6.9949e-06,-52.557,1.156
9077,15.908,4.7273,0,0.00017258,1724.6,0.00012412,874.46,8.1566e-06,3.1308,-0.00014026,-1112,1.1673
9078,15.816,4.4545,0,0.00030976,3095.4,0.00022145,1547.3,1.5472e-05,-0.27606,-0.0002529,-2016.7,1.1574
9079,15.724,4.5455,0,0.00025309,2529.2,0.00017099,1121.1,2.1117e-05,-4.9309,-0.00021453,-1775.5,1.1455
9080,15.816,4.5455,0.05,1.133e-05,113.22,8.6997e-06,65.366,-9.2834e-12,-9.133e-05,-8.6997e-06,-65.366,1.1569
9081,15.908,4.5455,0,0.0002185,2183.5,0.00016061,1150.9,6.3243e-06,-8.3509,-0.0001746,-1367.7,1.1683
9082,15.816,4.2727,0,0.00040429,4040.1,0.00028138,1898.2,2.5471e-05,-24.681,-0.00033648,-2744.3,1.1582
9083,15.724,4.3636,0,0.00031512,3149.1,0.00021187,1388.4,2.7976e-05,6.6727,-0.00026776,-2215.3,1.1464
9084,15.816,4.3636,0.05,1.7175e-05,171.63,1.3188e-05,99.093,-2.206e-11,-0.00017202,-1.3188e-05,-99.093,1.1578
9085,15.908,4.3636,0,0.00027978,2795.9,0.00020525,1490.4,1.1416e-05,33.971,-0.00022377,-1733.1,1.1693
9086,15.816,4.0909,0,0.00049676,4964.2,0.00031077,1776.8,5.2694e-05,-162.28,-0.00044001,-3864.3,1.1591
9087,15.724,4.1818,0,0.00039855,3982.7,0.00025498,1558.8,4.4116e-05,-25.627,-0.00034807,-2972.3,1.1471
9088,15.816,4.1818,0.05,3.2997e-05,329.74,2.5338e-05,190.38,-4.715e-11,-0.00043427,-2.5338e-05,-190.38,1.1586
9089,15.908,4.1818,0,0.00040209,4018.1,0.00030861,2243.9,-1.0072e-05,-150.55,-0.0003088,-2395.1,1.1702
9090,15.816,3.9091,0,0.00051771,5173.5,0.00026714,1128.7,0.00010152,-115.72,-0.00048912,-4553.5,1.1597
9091,15.724,4,0,0.00045611,4558,0.00025069,1187.2,7.752e-05,-113.92,-0.0004237,-3879.9,1.1478
9092,15.816,4,0.05,5.9586e-05,595.45,4.5755e-05,343.78,-2.5875e-11,-0.00035366,-4.5755e-05,-343.78,1.1594
9093,15.908,4,0,0.00076498,7644.6,0.0004009,1755.6,0.0001464,-156.6,-0.00071962,-6663.6,1.1711
9094,15.816,3.7273,0,0.00049023,4898.9,0.00021856,695.75,0.00012631,2.5885,-0.00047465,-4512.8,1.1603
9095,15.724,3.8182,0,0.00045019,4498.8,0.00020393,686.8,0.0001146,15.575,-0.00043447,-4109.9,1.1484
9096,15.816,3.8182,0.05,2.5378e-05,253.6,1.9487e-05,146.42,9.829e-12,-0.00013185,-1.9487e-05,-146.42,1.16
9097,15.816,3.5455,0,0.00045788,4575.6,0.00019765,566.06,0.00012196,-2.694,-0.00044563,-4267.3,1.1607
9098,15.724,3.6364,0,0.00043594,4356.4,0.00018817,537.33,0.00011598,-5.0933,-0.00042434,-4064.9,1.1488
9099,15.816,3.6364,0.05,1.1049e-05,110.42,8.4846e-06,63.75,-3.829e-12,-0.00018939,-8.4846e-06,-63.75,1.1605
9100,15.816,3.3636,0,0.00043186,4315.6,0.00018371,501.96,0.00011696,0.45998,-0.00042112,-4042.5,1.161
9101,15.724,3.4545,0,0.00041794,4176.6,0.00017657,471.37,0.00011405,1.5671,-0.00040791,-3920.2,1.1492
9102,15.816,3.4545,0.05,6.0353e-06,60.312,4.6344e-06,34.821,-3.8633e-12,-0.00016046,-4.6344e-06,-34.821,1.1609
9103,15.816,3.1818,0,0.0004177,4174.1,0.00017679,473.6,0.00011363,-0.97643,-0.00040763,-3917.6,1.1612
9104,15.724,3.2727,0,0.0004058,4055.2,0.0001703,442.14,0.00011134,-0.83816,-0.00039647,-3816.4,1.1494
9105,15.816,3.2727,0.05,3.5489e-06,35.464,2.7251e-06,20.475,-5.198e-12,-0.00013865,-2.7251e-06,-20.475,1.1611
9106,15.816,3,0,0.00041314,4128.5,0.00017451,464.43,0.00011265,-0.36494,-0.00040327,-3876.8,1.1613
9107,15.724,3.0909,0,0.00039967,3994,0.00016718,429.05,0.00011005,-0.24882,-0.00039064,-3762.3,1.1495
9108,15.816,3.0909,0.05,2.678e-06,26.762,2.0564e-06,15.451,-9.4315e-13,-0.00010027,-2.0564e-06,-15.451,1.1612
9109,15.816,2.8182,0,0.0004177,4174.1,0.00017679,473.6,0.00011363,-0.97643,-0.00040763,-3917.6,1.1612
9110,15.724,2.9091,0,0.00039967,3994,0.00016718,429.05,0.00011005,-0.24882,-0.00039064,-3762.2,1.1495
9111,15.816,2.9091,0.05,2.678e-06,26.762,2.0564e-06,15.451,-2.7549e-12,-7.5687e-05,-2.0564e-06,-15.451,1.1612
9112,15.816,2.6364,0,0.00043186,4315.6,0.00018371,501.96,0.00011696,0.45998,-0.00042112,-4042.5,1.161
9113,15.724,2.7273,0,0.0004058,4055.2,0.0001703,442.14,0.00011134,-0.83816,-0.00039647,-3816.4,1.1494
9114,15.816,2.7273,0.05,3.5489e-06,35.464,2.7251e-06,20.475,-3.7167e-12,-5.8741e-05,-2.7251e-06,-20.475,1.1611
9115,15.816,2.4545,0,0.00045788,4575.6,0.00019765,566.06,0.00012196,-2.694,-0.00044563,-4267.3,1.1607
9116,15.724,2.5455,0,0.00041794,4176.6,0.00017657,471.37,0.00011405,1.5671,-0.00040791,-3920.2,1.1492
9117,15.816,2.5455,0.05,6.0353e-06,60.312,4.6344e-06,34.821,-1.1982e-12,-1.994e-05,-4.6344e-06,-34.821,1.1609
9118,15.816,2.2727,0,0.00049023,4898.9,0.00021856,695.75,0.00012631,2.5885,-0.00047465,-4512.8,1.1603
9119,15.724,2.3636,0,0.00043594,4356.4,0.00018817,537.33,0.00011598,-5.0933,-0.00042434,-4064.9,1.1488
9120,15.816,2.3636,0.05,1.1049e-05,110.42,8.4846e-06,63.75,-1.0714e-12,1.6364e-05,-8.4846e-06,-63.75,1.1605
9121,15.816,2.0909,0,0.00051771,5173.5,0.00026714,1128.7,0.00010152,-115.72,-0.00048912,-4553.5,1.1597
9122,15.724,2.1818,0,0.00045019,4498.8,0.00020393,686.8,0.0001146,15.575,-0.00043447,-4109.9,1.1484
9123,15.816,2.1818,0.05,2.5378e-05,253.6,1.9487e-05,146.42,-3.2421e-12,1.5811e-05,-1.9487e-05,-146.42,1.16
9124,15.816,1.9091,0,0.00049676,4964.2,0.00031077,1776.8,5.2694e-05,-162.28,-0.00044001,-3864.3,1.1591
9125,15.724,2,0,0.00045611,4558,0.00025069,1187.2,7.752e-05,-113.92,-0.0004237,-3879.9,1.1478
9126,15.816,2,0.05,5.9586e-05,595.45,4.5755e-05,343.78,1.0178e-11,5.9166e-05,-4.5755e-05,-343.78,1.1594
9127,15.908,2,0,0.00076498,7644.6,0.0004009,1755.6,0.0001464,-156.6,-0.00071962,-6663.5,1.1711
9128,15.816,1.7273,0,0.00040429,4040.1,0.00028138,1898.2,2.5471e-05,-24.681,-0.00033648,-2744.3,1.1582
9129,15.724,1.8182,0,0.00039855,3982.7,0.00025498,1558.8,4.4116e-05,-25.627,-0.00034807,-2972.3,1.1471
9130,15.816,1.8182,0.05,3.2997e-05,329.74,2.5338e-05,190.38,1.4352e-11,0.00016403,-2.5338e-05,-190.38,1.1586
9131,15.908,1.8182,0,0.00040209,4018.1,0.00030861,2243.9,-1.0072e-05,-150.55,-0.0003088,-2395.1,1.1702
9132,15.816,1.5455,0,0.00030976,3095.4,0.00022145,1547.3,1.5472e-05,-0.27606,-0.0002529,-2016.7,1.1574
9133,15.724,1.6364,0,0.00031512,3149.1,0.00021187,1388.4,2.7976e-05,6.6727,-0.00026776,-2215.3,1.1464
9134,15.816,1.6364,0.05,1.7175e-05,171.63,1.3188e-05,99.093,7.6723e-12,8.0595e-05,-1.3188e-05,-99.093,1.1578
9135,15.908,1.6364,0,0.00027978,2795.9,0.00020525,1490.4,1.1416e-05,33.971,-0.00022377,-1733.1,1.1693
9136,15.816,1.3636,0,0.00024305,2428.8,0.00017256,1193.8,1.2821e-05,-6.4086,-0.00019947,-1601.4,1.1564
9137,15.724,1.4545,0,0.00025309,2529.2,0.00017099,1121.1,2.1117e-05,-4.9309,-0.00021453,-1775.5,1.1455
9138,15.816,1.4545,0.05,1.133e-05,113.22,8.6997e-06,65.366,3.1251e-12,4.792e-05,-8.6997e-06,-65.366,1.1569
9139,15.908,1.4545,0,0.0002185,2183.5,0.00016061,1150.9,6.3243e-06,-8.3509,-0.0001746,-1367.7,1.1683
9140,15.816,1.1818,0,0.0001939,1937.6,0.00013549,922.65,1.2312e-05,-2.8698,-0.00016088,-1304.2,1.1555
9141,15.724,1.2727,0,0.00020508,2049.4,0.00013706,889.38,1.859e-05,-0.73452,-0.0001749,-1454.5,1.1446
9142,15.816,1.2727,0.05,9.1095e-06,91.032,6.9949e-06,52.557,5.3799e-12,2.6595e-05,-6.9949e-06,-52.557,1.156
9143,15.908,1.2727,0,0.00017258,1724.6,0.00012412,874.46,8.1566e-06,3.1308,-0.00014026,-1112,1.1673
9144,15.816,1,0,0.00015476,1546.6,0.0001055,698.8,1.2094e-05,-3.0359,-0.00013047,-1074.2,1.1545
9145,15.724,1.0909,0,0.00016619,1660.7,0.00010847,684.38,1.7206e-05,-1.3137,-0.00014358,-1209.4,1.1437
9146,15.816,1.0909,0.05,7.3514e-06,73.463,5.645e-06,42.414,2.3982e-12,4.4854e-05,-5.645e-06,-42.414,1.155
9147,15.908,1.0909,0,0.00013778,1376.8,9.6667e-05,662.39,8.5571e-06,0.36319,-0.00011399,-920.41,1.1663
9148,15.816,0.81818,0,0.00012202,1219.3,8.0258e-05,510.14,1.2011e-05,-2.6365,-0.00010501,-881.85,1.1536
9149,15.724,0.90909,0,0.00013375,1336.6,8.4094e-05,507.02,1.648e-05,-1.014,-0.00011769,-1009.1,1.1428
9150,15.816,0.90909,0.05,6.2258e-06,62.215,4.7807e-06,35.92,1.9007e-12,1.9759e-05,-4.7807e-06,-35.92,1.154
9151,15.908,0.90909,0,0.00010934,1092.7,7.4091e-05,489.15,9.1394e-06,1.1285,-9.2491e-05,-762.49,1.1653
9152,15.816,0.63636,0,9.3659e-05,935.95,5.8461e-05,348.15,1.1755e-05,-2.779,-8.2709e-05,-712.54,1.1526
9153,15.724,0.72727,0,0.00010599,1059.2,6.2991e-05,352.49,1.5929e-05,-1.1199,-9.5486e-05,-838.25,1.1419
9154,15.816,0.72727,0.05,5.4379e-06,54.341,4.1756e-06,31.374,9.1068e-13,1.1414e-05,-4.1756e-06,-31.374,1.1531
9155,15.908,0.72727,0,8.5035e-05,849.76,5.4932e-05,343.24,9.3763e-06,0.95128,-7.3838e-05,-624.29,1.1643
9156,15.816,0.45455,0,6.8667e-05,686.19,3.9528e-05,209.96,1.1154e-05,-3.2326,-6.2618e-05,-557.52,1.1517
9157,15.724,0.54545,0,8.2038e-05,819.81,4.4735e-05,219.46,1.5332e-05,-1.4598,-7.6064e-05,-688.18,1.1409
9158,15.816,0.54545,0.05,4.9199e-06,49.166,3.7779e-06,28.386,6.3704e-13,8.2408e-06,-3.7779e-06,-28.386,1.1521
9159,15.908,0.54545,0,6.3516e-05,634.72,3.8225e-05,218.5,9.2738e-06,0.97397,-5.692e-05,-496.38,1.1633
9160,15.816,0.27273,0,4.7579e-05,475.46,2.4278e-05,103.08,9.8226e-06,-5.53,-4.4979e-05,-417.29,1.1507
9161,15.724,0.36364,0,6.2007e-05,619.64,2.9648e-05,111.76,1.4481e-05,-2.2046,-5.9351e-05,-556.95,1.14
9162,15.816,0.36364,0.05,4.6723e-06,46.691,3.5878e-06,26.957,5.405e-13,6.5442e-06,-3.5878e-06,-26.957,1.1512
9163,15.908,0.36364,0,4.3977e-05,439.47,2.351e-05,112.8,8.6959e-06,1.4868,-4.0962e-05,-371.62,1.1624
9164,15.724,0.18182,0,4.8323e-05,482.89,2.0169e-05,48.472,1.3057e-05,-4.9702,-4.736e-05,-458.92,1.139
9165,15.816,0.18182,0.05,5.1626e-06,51.59,3.9642e-06,29.786,3.9467e-13,5.8642e-06,-3.9642e-06,-29.786,1.1502
9166,15.816,0.090909,0,3.0656e-05,306.35,1.2394e-05,24.368,8.4043e-06,-5.6089,-3.0227e-05,-295.87,1.1497
9167,15.908,0.18182,0,2.6553e-05,265.35,1.1421e-05,33.099,7.1759e-06,1.2017,-2.5826e-05,-246.76,1.1614
9168,15.632,5.7273,0,6.4994e-05,649.49,2.7191e-05,69.55,1.7867e-05,-0.50259,-6.3535e-05,-612.13,1.1283
9169,15.54,5.8182,0,7.1428e-05,713.79,2.7275e-05,44.513,2.1298e-05,-0.39542,-7.0571e-05,-690.67,1.1167
9170,15.632,5.8182,0.05,4.7983e-06,47.95,3.6845e-06,27.684,1.9021e-13,3.6622e-06,-3.6845e-06,-27.684,1.1279
9171,15.632,5.9091,0,5.531e-05,552.72,1.9908e-05,19.931,1.7257e-05,0.010698,-5.4944e-05,-542.48,1.1274
9172,15.632,5.5455,0,7.8684e-05,786.3,3.7349e-05,139.99,1.8728e-05,0.087649,-7.5361e-05,-706.86,1.1293
9173,15.54,5.6364,0,8.0292e-05,802.37,3.3818e-05,89,2.195e-05,-0.17188,-7.8408e-05,-754.23,1.1176
9174,15.632,5.6364,0.05,4.2719e-06,42.689,3.2803e-06,24.647,-1.0763e-13,1.4446e-06,-3.2803e-06,-24.647,1.1288
9175,15.632,5.3636,0,9.7932e-05,978.64,5.1889e-05,243.51,1.953e-05,0.37803,-9.1489e-05,-833.78,1.1302
9176,15.54,5.4545,0,9.5009e-05,949.43,4.494e-05,166.99,2.2716e-05,0.0033192,-9.1059e-05,-854.86,1.1186
9177,15.632,5.4545,0.05,4.3314e-06,43.284,3.326e-06,24.99,-4.107e-13,-1.9031e-06,-3.326e-06,-24.99,1.1297
9178,15.632,5.1818,0,0.00012146,1213.8,6.9523e-05,369.61,2.0406e-05,0.56128,-0.00011088,-985.84,1.1311
9179,15.54,5.2727,0,0.00011431,1142.3,5.9386e-05,268.8,2.3626e-05,0.11628,-0.00010734,-983.9,1.1195
9180,15.632,5.2727,0.05,4.571e-06,45.678,3.5099e-06,26.372,-9.5193e-13,-1.2038e-05,-3.5099e-06,-26.372,1.1306
9181,15.632,5,0,0.00014927,1491.6,8.9967e-05,514.45,2.1591e-05,0.70104,-0.00013371,-1166.2,1.132
9182,15.54,5.0909,0,0.0001377,1376,7.6506e-05,388.35,2.4839e-05,0.14142,-0.00012692,-1140.1,1.1203
9183,15.632,5.0909,0.05,4.9778e-06,49.743,3.8223e-06,28.719,-1.8393e-12,-2.3471e-05,-3.8223e-06,-28.719,1.1316
9184,15.632,4.8182,0,0.00018217,1820.5,0.00011342,676.58,2.3473e-05,0.73937,-0.00016098,-1385.2,1.1329
9185,15.54,4.9091,0,0.00016527,1651.5,9.602e-05,521.39,2.6644e-05,0.1241,-0.0001501,-1327.9,1.1212
9186,15.632,4.9091,0.05,5.5758e-06,55.72,4.2816e-06,32.17,-3.7451e-12,-4.0954e-05,-4.2816e-06,-32.17,1.1324
9187,15.632,4.6364,0,0.00022116,2210.1,0.00013969,848.35,2.6869e-05,0.62154,-0.00019416,-1660.1,1.1338
9188,15.54,4.7273,0,0.00019754,1974,0.00011776,662.9,2.9534e-05,0.0095072,-0.00017772,-1557.2,1.122
9189,15.632,4.7273,0.05,6.3387e-06,63.343,4.8673e-06,36.571,-5.7796e-12,-6.329e-05,-4.8673e-06,-36.571,1.1333
9190,15.632,4.4545,0,0.00026727,2670.8,0.00016752,1008.1,3.3583e-05,1.7383,-0.00023546,-2019.8,1.1346
9191,15.54,4.5455,0,0.00023475,2345.9,0.00014073,798.19,3.4486e-05,-0.05979,-0.00021075,-1842.7,1.1228
9192,15.632,4.5455,0.05,7.7396e-06,77.343,5.9431e-06,44.654,-1.0012e-11,-0.0001134,-5.9431e-06,-44.654,1.1341
9193,15.632,4.2727,0,0.00031713,3169.1,0.00019052,1086.9,4.6614e-05,5.6688,-0.00028438,-2481.3,1.1353
9194,15.54,4.3636,0,0.00027663,2764.4,0.00016264,897.64,4.3085e-05,-0.62511,-0.0002502,-2204.2,1.1236
9195,15.632,4.3636,0.05,7.2444e-06,72.394,5.5628e-06,41.797,-2.3248e-11,-0.00021981,-5.5628e-06,-41.797,1.1349
9196,15.632,4.0909,0,0.00035609,3558.4,0.00019354,958.88,6.8562e-05,19.875,-0.00033001,-2974.9,1.136
9197,15.54,4.1818,0,0.00031682,3166,0.00017524,884.7,5.7901e-05,3.087,-0.00029237,-2628.7,1.1242
9198,15.632,4.1818,0.05,1.032e-05,103.13,7.9242e-06,59.539,-3.7229e-11,-0.00045407,-7.9242e-06,-59.539,1.1356
9199,15.632,3.9091,0,0.00038156,3812.9,0.00018211,704.96,9.1484e-05,24.006,-0.00036456,-3402.6,1.1366
9200,15.54,4,0,0.00034406,3438.2,0.00016947,697.37,7.8374e-05,12.909,-0.00032682,-3031.6,1.1248
9201,15.632,4,0.05,8.7298e-06,87.237,6.7034e-06,50.366,-5.7949e-12,-0.00019538,-6.7034e-06,-50.367,1.1363
9202,15.632,3.7273,0,0.00039406,3937.9,0.00017213,517.79,0.00010416,7.0313,-0.00038264,-3650.5,1.137
9203,15.54,3.8182,0,0.00036226,3620.1,0.00016057,504.82,9.4193e-05,6.0597,-0.00035098,-3338.8,1.1253
9204,15.632,3.8182,0.05,1.2171e-05,121.63,9.3458e-06,70.221,4.1834e-12,-9.7785e-05,-9.3459e-06,-70.221,1.1368
9205,15.632,3.5455,0,0.00039541,3951.4,0.0001666,438.94,0.00010806,-0.9117,-0.00038612,-3714,1.1374
9206,15.54,3.6364,0,0.00037105,3707.9,0.0001559,407.09,0.00010173,0.06053,-0.00036244,-3487.5,1.1257
9207,15.632,3.6364,0.05,8.3086e-06,83.029,6.38e-06,47.936,5.3978e-12,-0.00010166,-6.38e-06,-47.937,1.1372
9208,15.632,3.3636,0,0.00039164,3913.7,0.00016294,409.89,0.00010843,0.26905,-0.00038305,-3692.5,1.1377
9209,15.54,3.4545,0,0.00037302,3727.6,0.00015373,372.46,0.00010423,0.49662,-0.00036528,-3527.2,1.126
9210,15.632,3.4545,0.05,6.175e-06,61.707,4.7416e-06,35.626,2.5041e-12,-9.3404e-05,-4.7416e-06,-35.627,1.1375
9211,15.632,3.1818,0,0.00038757,3873.1,0.00016051,396.24,0.00010776,-0.099526,-0.00037931,-3659.7,1.1378
9212,15.54,3.2727,0,0.00037181,3715.5,0.0001521,357.08,0.00010459,0.13194,-0.00036444,-3524,1.1262
9213,15.632,3.2727,0.05,4.3897e-06,43.866,3.3707e-06,25.326,-4.2206e-13,-8.104e-05,-3.3707e-06,-25.326,1.1377
9214,15.632,3,0,0.00038602,3857.5,0.00015968,392.34,0.00010745,-0.1198,-0.00037784,-3646.4,1.1379
9215,15.54,3.0909,0,0.00037061,3703.6,0.00015125,351.39,0.00010449,0.042553,-0.00036338,-3515.3,1.1263
9216,15.632,3.0909,0.05,3.6299e-06,36.274,2.7873e-06,20.943,-1.2462e-12,-7.2043e-05,-2.7873e-06,-20.943,1.1378
9217,15.632,2.8182,0,0.00038757,3873.1,0.00016051,396.24,0.00010776,-0.099525,-0.00037931,-3659.7,1.1378
9218,15.54,2.9091,0,0.00037061,3703.6,0.00015125,351.39,0.00010449,0.042554,-0.00036338,-3515.3,1.1263
9219,15.632,2.9091,0.05,3.6299e-06,36.274,2.7873e-06,20.943,-2.3844e-12,-6.5268e-05,-2.7873e-06,-20.943,1.1378
9220,15.632,2.6364,0,0.00039164,3913.7,0.00016294,409.89,0.00010843,0.26905,-0.00038305,-3692.5,1.1377
9221,15.54,2.7273,0,0.00037181,3715.5,0.0001521,357.08,0.00010459,0.13194,-0.00036444,-3524,1.1262
9222,15.632,2.7273,0.05,4.3897e-06,43.866,3.3707e-06,25.326,-3.1538e-12,-4.7369e-05,-3.3707e-06,-25.326,1.1377
9223,15.632,2.4545,0,0.00039541,3951.4,0.0001666,438.94,0.00010806,-0.9117,-0.00038612,-3714,1.1374
9224,15.54,2.5455,0,0.00037302,3727.6,0.00015373,372.46,0.00010423,0.49662,-0.00036528,-3527.2,1.126
9225,15.632,2.5455,0.05,6.175e-06,61.707,4.7416e-06,35.627,-6.0324e-13,-2.351e-05,-4.7416e-06,-35.627,1.1375
9226,15.632,2.2727,0,0.00039406,3937.9,0.00017213,517.79,0.00010416,7.0313,-0.00038264,-3650.5,1.137
9227,15.54,2.3636,0,0.00037105,3707.9,0.0001559,407.09,0.00010173,0.060531,-0.00036244,-3487.5,1.1257
9228,15.632,2.3636,0.05,8.3086e-06,83.029,6.38e-06,47.937,-4.127e-13,-3.9556e-06,-6.38e-06,-47.937,1.1372
9229,15.632,2.0909,0,0.00038156,3812.9,0.00018211,704.96,9.1484e-05,24.006,-0.00036456,-3402.6,1.1366
9230,15.54,2.1818,0,0.00036226,3620.1,0.00016057,504.82,9.4193e-05,6.0597,-0.00035098,-3338.8,1.1253
9231,15.632,2.1818,0.05,1.2171e-05,121.63,9.3458e-06,70.221,-1.0714e-12,2.4886e-05,-9.3459e-06,-70.221,1.1368
9232,15.632,1.9091,0,0.00035609,3558.4,0.00019354,958.88,6.8562e-05,19.875,-0.00033001,-2974.9,1.136
9233,15.54,2,0,0.00034406,3438.2,0.00016947,697.37,7.8374e-05,12.909,-0.00032682,-3031.6,1.1248
9234,15.632,2,0.05,8.7298e-06,87.237,6.7034e-06,50.367,6.9295e-12,7.4719e-05,-6.7034e-06,-50.366,1.1363
9235,15.632,1.7273,0,0.00031713,3169.1,0.00019052,1086.9,4.6614e-05,5.6688,-0.00028438,-2481.3,1.1353
9236,15.54,1.8182,0,0.00031682,3166,0.00017524,884.7,5.7901e-05,3.087,-0.00029237,-2628.7,1.1242
9237,15.632,1.8182,0.05,1.032e-05,103.13,7.9242e-06,59.539,1.1144e-11,0.00015092,-7.9242e-06,-59.539,1.1356
9238,15.632,1.5455,0,0.00026727,2670.8,0.00016752,1008.1,3.3583e-05,1.7383,-0.00023546,-2019.8,1.1346
9239,15.54,1.6364,0,0.00027663,2764.4,0.00016264,897.64,4.3085e-05,-0.62511,-0.0002502,-2204.2,1.1236
9240,15.632,1.6364,0.05,7.2444e-06,72.394,5.5628e-06,41.797,5.3148e-12,3.3134e-05,-5.5628e-06,-41.797,1.1349
9241,15.632,1.3636,0,0.00022116,2210.1,0.00013969,848.35,2.6869e-05,0.62154,-0.00019416,-1660.1,1.1338
9242,15.54,1.4545,0,0.00023475,2345.9,0.00014073,798.19,3.4486e-05,-0.059789,-0.00021075,-1842.7,1.1228
9243,15.632,1.4545,0.05,7.7396e-06,77.343,5.9431e-06,44.654,2.1823e-12,3.4118e-05,-5.9431e-06,-44.654,1.1341
9244,15.632,1.1818,0,0.00018217,1820.5,0.00011342,676.58,2.3473e-05,0.73937,-0.00016098,-1385.2,1.1329
9245,15.54,1.2727,0,0.00019754,1974,0.00011776,662.9,2.9534e-05,0.0095088,-0.00017772,-1557.2,1.122
9246,15.632,1.2727,0.05,6.3387e-06,63.343,4.8673e-06,36.571,2.2733e-12,2.5689e-05,-4.8673e-06,-36.571,1.1333
9247,15.632,1,0,0.00014927,1491.6,8.9967e-05,514.45,2.1591e-05,0.70104,-0.00013371,-1166.2,1.132
9248,15.54,1.0909,0,0.00016527,1651.5,9.602e-05,521.39,2.6644e-05,0.1241,-0.0001501,-1327.9,1.1212
9249,15.632,1.0909,0.05,5.5758e-06,55.72,4.2816e-06,32.17,1.8727e-12,2.0253e-05,-4.2816e-06,-32.17,1.1324
9250,15.632,0.81818,0,0.00012146,1213.8,6.9523e-05,369.61,2.0406e-05,0.56129,-0.00011088,-985.84,1.1311
9251,15.54,0.90909,0,0.0001377,1376,7.6506e-05,388.35,2.4839e-05,0.14142,-0.00012692,-1140.1,1.1203
9252,15.632,0.90909,0.05,4.9778e-06,49.743,3.8223e-06,28.719,1.1574e-12,1.5366e-05,-3.8223e-06,-28.719,1.1316
9253,15.632,0.63636,0,9.7932e-05,978.64,5.1889e-05,243.51,1.953e-05,0.37803,-9.1489e-05,-833.78,1.1302
9254,15.54,0.72727,0,0.00011431,1142.3,5.9386e-05,268.8,2.3626e-05,0.11629,-0.00010734,-983.9,1.1195
9255,15.632,0.72727,0.05,4.571e-06,45.678,3.5099e-06,26.372,9.0898e-13,1.2409e-05,-3.5099e-06,-26.372,1.1306
9256,15.632,0.45455,0,7.8684e-05,786.3,3.7349e-05,139.99,1.8728e-05,0.087648,-7.5361e-05,-706.86,1.1293
9257,15.54,0.54545,0,9.5009e-05,949.43,4.494e-05,166.99,2.2716e-05,0.0033182,-9.1059e-05,-854.86,1.1186
9258,15.632,0.54545,0.05,4.3314e-06,43.284,3.326e-06,24.99,1.0365e-12,1.0989e-05,-3.326e-06,-24.99,1.1297
9259,15.632,0.27273,0,6.4994e-05,649.49,2.7191e-05,69.55,1.7867e-05,-0.50259,-6.3535e-05,-612.13,1.1283
9260,15.54,0.36364,0,8.0292e-05,802.37,3.3818e-05,89,2.195e-05,-0.17188,-7.8408e-05,-754.23,1.1176
9261,15.632,0.36364,0.05,4.2719e-06,42.689,3.2803e-06,24.647,5.2183e-13,7.8068e-06,-3.2803e-06,-24.647,1.1288
9262,15.54,0.18182,0,7.1428e-05,713.79,2.7275e-05,44.513,2.1298e-05,-0.39542,-7.0571e-05,-690.67,1.1167
9263,15.632,0.18182,0.05,4.7983e-06,47.95,3.6845e-06,27.684,4.1593e-13,2.794e-06,-3.6845e-06,-27.684,1.1279
9264,15.632,0.090909,0,5.531e-05,552.72,1.9908e-05,19.931,1.7257e-05,0.010699,-5.4944e-05,-542.48,1.1274
9265,15.448,5.7273,0,8.7218e-05,871.58,3.4354e-05,67.352,2.5365e-05,-0.1881,-8.5879e-05,-836.03,1.106
9266,15.356,5.8182,0,9.4159e-05,940.94,3.4858e-05,45.773,2.8797e-05,0.23304,-9.3294e-05,-917.11,1.0944
9267,15.448,5.8182,0.05,4.5626e-06,45.594,3.5035e-06,26.324,1.2881e-15,3.0399e-06,-3.5035e-06,-26.324,1.1056
9268,15.448,5.9091,0,7.9467e-05,794.12,2.8075e-05,22.177,2.5107e-05,-0.12405,-7.9068e-05,-782.86,1.1051
9269,15.448,5.5455,0,9.7834e-05,977.67,4.2443e-05,123.76,2.5939e-05,-0.24781,-9.5141e-05,-909.99,1.1069
9270,15.356,5.6364,0,0.00010171,1016.4,4.0869e-05,88.527,2.9077e-05,-0.074702,-9.9915e-05,-969.27,1.0953
9271,15.448,5.6364,0.05,4.0821e-06,40.793,3.1346e-06,23.552,-4.5466e-13,-1.5367e-06,-3.1346e-06,-23.552,1.1065
9272,15.448,5.3636,0,0.00011325,1131.7,5.3931e-05,203.51,2.6812e-05,-0.25394,-0.0001084,-1016.2,1.1078
9273,15.356,5.4545,0,0.00011357,1134.9,4.982e-05,150.64,2.9759e-05,-0.086912,-0.00011025,-1052.1,1.0962
9274,15.448,5.4545,0.05,4.1097e-06,41.068,3.1557e-06,23.711,-1.1514e-12,-7.6362e-06,-3.1557e-06,-23.711,1.1074
9275,15.448,5.1818,0,0.00013286,1327.6,6.8144e-05,300.88,2.8059e-05,-0.30677,-0.00012515,-1151.5,1.1087
9276,15.356,5.2727,0,0.00012941,1293.3,6.1362e-05,229.24,3.0831e-05,-0.16135,-0.00012398,-1163.4,1.0971
9277,15.448,5.2727,0.05,4.2468e-06,42.439,3.261e-06,24.502,-9.1849e-13,-1.9149e-05,-3.261e-06,-24.502,1.1083
9278,15.448,5,0,0.00015638,1562.7,8.4554e-05,410.27,2.9892e-05,-0.44263,-0.0001453,-1316.8,1.1096
9279,15.356,5.0909,0,0.00014896,1488.5,7.504e-05,319.94,3.2427e-05,-0.2348,-0.00014091,-1302.6,1.0979
9280,15.448,5.0909,0.05,4.4577e-06,44.546,3.423e-06,25.719,-3.2369e-12,-3.0968e-05,-3.423e-06,-25.719,1.1091
9281,15.448,4.8182,0,0.00018368,1835.6,0.00010257,524.31,3.2705e-05,-0.61093,-0.00016905,-1516.5,1.1104
9282,15.356,4.9091,0,0.00017194,1718.2,9.0316e-05,416.81,3.4792e-05,-0.38088,-0.00016101,-1471.5,1.0987
9283,15.448,4.9091,0.05,4.7183e-06,47.15,3.6231e-06,27.222,-4.4698e-12,-5.1837e-05,-3.6231e-06,-27.222,1.1099
9284,15.448,4.6364,0,0.00021449,2143.5,0.00012117,630.59,3.7151e-05,-0.66844,-0.00019668,-1757.6,1.1111
9285,15.356,4.7273,0,0.00019801,1978.7,0.00010639,510.71,3.8345e-05,-0.52636,-0.00018431,-1673.5,1.0995
9286,15.448,4.7273,0.05,4.9322e-06,49.288,3.7873e-06,28.457,-6.1742e-12,-7.5105e-05,-3.7873e-06,-28.457,1.1107
9287,15.448,4.4545,0,0.00024715,2469.8,0.00013791,703.26,4.3985e-05,-2.4389,-0.00022754,-2042.6,1.1119
9288,15.356,4.5455,0,0.00022647,2263.1,0.00012191,587.09,4.3689e-05,-0.60403,-0.00021069,-1911.9,1.1002
9289,15.448,4.5455,0.05,4.8391e-06,48.357,3.7158e-06,27.919,-1.1986e-11,-0.00012835,-3.7158e-06,-27.919,1.1115
9290,15.448,4.2727,0,0.00027822,2780.2,0.0001486,704.76,5.4376e-05,-3.1753,-0.00025943,-2361,1.1125
9291,15.356,4.3636,0,0.00025503,2548.5,0.00013411,619.38,5.1414e-05,-1.9884,-0.00023877,-2182.3,1.1009
9292,15.448,4.3636,0.05,4.6988e-06,46.955,3.6081e-06,27.11,-2.2899e-11,-0.00021169,-3.6081e-06,-27.11,1.1122
9293,15.448,4.0909,0,0.00030431,3041,0.00015094,621.43,6.7707e-05,-3.9272,-0.00028894,-2683.6,1.1131
9294,15.356,4.1818,0,0.0002805,2803.1,0.00013968,581.21,6.2168e-05,-1.1696,-0.00026606,-2467.3,1.1015
9295,15.448,4.1818,0.05,4.2157e-06,42.128,3.2371e-06,24.323,-3.1996e-11,-0.00029486,-3.2371e-06,-24.323,1.1128
9296,15.448,3.9091,0,0.00032396,3237.4,0.00014743,493.47,8.1097e-05,-4.9276,-0.00031276,-2964.2,1.1136
9297,15.356,4,0,0.00030071,3005,0.00013877,483.39,7.4112e-05,-2.4076,-0.00028957,-2735,1.102
9298,15.448,4,0.05,5.3978e-06,53.941,4.1449e-06,31.143,-8.4263e-12,-0.00018626,-4.1449e-06,-31.143,1.1133
9299,15.448,3.7273,0,0.00033847,3382.4,0.0001437,389.3,9.179e-05,-0.75336,-0.00033017,-3171.2,1.114
9300,15.356,3.8182,0,0.00031606,3158.4,0.00013542,378.52,8.4878e-05,-1.2502,-0.00030792,-2952.6,1.1024
9301,15.448,3.8182,0.05,5.8324e-06,58.284,4.4785e-06,33.65,-2.6953e-12,-0.0001355,-4.4785e-06,-33.65,1.1138
9302,15.448,3.5455,0,0.00034804,3478,0.00014252,336.7,9.7894e-05,1.4288,-0.00034107,-3296.8,1.1143
9303,15.356,3.6364,0,0.00032791,3276.8,0.00013398,313.6,9.2421e-05,1.3756,-0.00032143,-3108.1,1.1027
9304,15.448,3.6364,0.05,5.7363e-06,57.323,4.4047e-06,33.095,2.3002e-12,-6.4008e-05,-4.4047e-06,-33.096,1.1142
9305,15.448,3.3636,0,0.00035275,3525.1,0.00014251,316.83,0.00010039,0.33862,-0.00034629,-3355.8,1.1146
9306,15.356,3.4545,0,0.00033538,3351.5,0.00013423,285.76,9.6252e-05,0.39718,-0.0003296,-3199.3,1.103
9307,15.448,3.4545,0.05,4.8406e-06,48.372,3.717e-06,27.928,4.7752e-12,-6.1084e-05,-3.717e-06,-27.928,1.1144
9308,15.448,3.1818,0,0.00035452,3542.7,0.00014255,310.04,0.00010132,0.27282,-0.00034822,-3377.4,1.1147
9309,15.356,3.2727,0,0.00033926,3390.3,0.00013469,275.55,9.8061e-05,0.36445,-0.00033373,-3244,1.1032
9310,15.448,3.2727,0.05,4.1285e-06,41.257,3.1702e-06,23.819,2.9902e-12,-5.0489e-05,-3.1702e-06,-23.82,1.1146
9311,15.448,3,0,0.00035491,3546.7,0.00014255,308.45,0.00010153,0.20808,-0.00034866,-3382.3,1.1148
9312,15.356,3.0909,0,0.00034081,3405.7,0.00013495,272.44,9.8723e-05,0.26284,-0.00033535,-3261.2,1.1033
9313,15.448,3.0909,0.05,3.7172e-06,37.147,2.8544e-06,21.447,-5.1831e-14,-4.9984e-05,-2.8544e-06,-21.447,1.1147
9314,15.448,2.8182,0,0.00035452,3542.7,0.00014255,310.04,0.00010132,0.27282,-0.00034822,-3377.4,1.1147
9315,15.356,2.9091,0,0.00034081,3405.7,0.00013495,272.44,9.8723e-05,0.26284,-0.00033535,-3261.2,1.1033
9316,15.448,2.9091,0.05,3.7172e-06,37.147,2.8544e-06,21.447,5.1661e-14,-4.5387e-05,-2.8544e-06,-21.447,1.1147
9317,15.448,2.6364,0,0.00035275,3525.1,0.00014251,316.83,0.00010039,0.33862,-0.00034629,-3355.8,1.1146
9318,15.356,2.7273,0,0.00033926,3390.3,0.00013469,275.55,9.8061e-05,0.36445,-0.00033373,-3244,1.1032
9319,15.448,2.7273,0.05,4.1285e-06,41.257,3.1702e-06,23.82,6.1876e-13,-3.3744e-05,-3.1702e-06,-23.82,1.1146
9320,15.448,2.4545,0,0.00034804,3478,0.00014252,336.7,9.7894e-05,1.4288,-0.00034107,-3296.8,1.1143
9321,15.356,2.5455,0,0.00033538,3351.5,0.00013423,285.76,9.6252e-05,0.39718,-0.0003296,-3199.3,1.103
9322,15.448,2.5455,0.05,4.8406e-06,48.372,3.717e-06,27.928,-1.5536e-12,-1.9284e-05,-3.717e-06,-27.928,1.1144
9323,15.448,2.2727,0,0.00033847,3382.4,0.0001437,389.3,9.179e-05,-0.75335,-0.00033017,-3171.2,1.114
9324,15.356,2.3636,0,0.00032791,3276.8,0.00013398,313.6,9.2421e-05,1.3756,-0.00032143,-3108.1,1.1027
9325,15.448,2.3636,0.05,5.7363e-06,57.323,4.4047e-06,33.095,2.9021e-12,2.4543e-06,-4.4047e-06,-33.095,1.1142
9326,15.448,2.0909,0,0.00032396,3237.4,0.00014743,493.47,8.1097e-05,-4.9276,-0.00031276,-2964.2,1.1136
9327,15.356,2.1818,0,0.00031606,3158.4,0.00013542,378.52,8.4877e-05,-1.2502,-0.00030792,-2952.6,1.1024
9328,15.448,2.1818,0.05,5.8324e-06,58.284,4.4785e-06,33.65,2.7801e-12,2.3321e-05,-4.4785e-06,-33.65,1.1138
9329,15.448,1.9091,0,0.00030431,3041,0.00015094,621.43,6.7707e-05,-3.9272,-0.00028894,-2683.6,1.1131
9330,15.356,2,0,0.00030071,3005,0.00013877,483.39,7.4112e-05,-2.4076,-0.00028957,-2735,1.102
9331,15.448,2,0.05,5.3978e-06,53.941,4.1449e-06,31.143,1.4759e-12,-1.1936e-05,-4.1449e-06,-31.143,1.1133
9332,15.448,1.7273,0,0.00027822,2780.2,0.0001486,704.76,5.4376e-05,-3.1753,-0.00025943,-2361,1.1125
9333,15.356,1.8182,0,0.0002805,2803.1,0.00013968,581.21,6.2168e-05,-1.1696,-0.00026606,-2467.3,1.1015
9334,15.448,1.8182,0.05,4.2157e-06,42.128,3.2371e-06,24.323,8.2442e-12,6.7267e-05,-3.2371e-06,-24.323,1.1128
9335,15.448,1.5455,0,0.00024715,2469.8,0.00013791,703.26,4.3985e-05,-2.4389,-0.00022754,-2042.6,1.1119
9336,15.356,1.6364,0,0.00025503,2548.5,0.00013411,619.38,5.1414e-05,-1.9883,-0.00023877,-2182.3,1.1009
9337,15.448,1.6364,0.05,4.6988e-06,46.955,3.6081e-06,27.11,4.4165e-12,4.2048e-05,-3.6081e-06,-27.11,1.1122
9338,15.448,1.3636,0,0.00021449,2143.5,0.00012117,630.59,3.7151e-05,-0.66844,-0.00019668,-1757.6,1.1111
9339,15.356,1.4545,0,0.00022647,2263.1,0.00012191,587.09,4.3689e-05,-0.60403,-0.00021069,-1911.9,1.1002
9340,15.448,1.4545,0.05,4.8391e-06,48.357,3.7158e-06,27.919,2.5952e-12,3.0726e-05,-3.7158e-06,-27.919,1.1115
9341,15.448,1.1818,0,0.00018368,1835.6,0.00010257,524.31,3.2705e-05,-0.61092,-0.00016905,-1516.5,1.1104
9342,15.356,1.2727,0,0.00019801,1978.7,0.00010639,510.71,3.8345e-05,-0.52636,-0.00018431,-1673.5,1.0995
9343,15.448,1.2727,0.05,4.9322e-06,49.288,3.7873e-06,28.457,2.3518e-12,2.1271e-05,-3.7873e-06,-28.457,1.1107
9344,15.448,1,0,0.00015638,1562.7,8.4554e-05,410.27,2.9892e-05,-0.44263,-0.0001453,-1316.8,1.1096
9345,15.356,1.0909,0,0.00017194,1718.2,9.0316e-05,416.81,3.4792e-05,-0.38088,-0.00016101,-1471.5,1.0987
9346,15.448,1.0909,0.05,4.7183e-06,47.15,3.6231e-06,27.222,1.0715e-12,1.3808e-05,-3.6231e-06,-27.222,1.1099
9347,15.448,0.81818,0,0.00013286,1327.6,6.8144e-05,300.88,2.8059e-05,-0.30677,-0.00012515,-1151.5,1.1087
9348,15.356,0.90909,0,0.00014896,1488.5,7.504e-05,319.94,3.2427e-05,-0.2348,-0.00014091,-1302.6,1.0979
9349,15.448,0.90909,0.05,4.4577e-06,44.546,3.423e-06,25.719,1.3502e-14,1.2398e-05,-3.423e-06,-25.719,1.1091
9350,15.448,0.63636,0,0.00011325,1131.7,5.3931e-05,203.51,2.6812e-05,-0.25393,-0.0001084,-1016.2,1.1078
9351,15.356,0.72727,0,0.00012941,1293.3,6.1362e-05,229.24,3.0831e-05,-0.16134,-0.00012398,-1163.4,1.0971
9352,15.448,0.72727,0.05,4.2468e-06,42.439,3.261e-06,24.502,1.8302e-12,1.0547e-05,-3.261e-06,-24.502,1.1083
9353,15.448,0.45455,0,9.7834e-05,977.67,4.2443e-05,123.76,2.5939e-05,-0.24781,-9.5141e-05,-909.99,1.1069
9354,15.356,0.54545,0,0.00011357,1134.9,4.982e-05,150.64,2.9759e-05,-0.086912,-0.00011025,-1052.1,1.0962
9355,15.448,0.54545,0.05,4.1097e-06,41.068,3.1557e-06,23.711,2.3479e-13,9.125e-06,-3.1557e-06,-23.711,1.1074
9356,15.448,0.27273,0,8.7218e-05,871.58,3.4354e-05,67.352,2.5365e-05,-0.1881,-8.5879e-05,-836.03,1.106
9357,15.356,0.36364,0,0.00010171,1016.4,4.0869e-05,88.527,2.9077e-05,-0.074701,-9.9915e-05,-969.27,1.0953
9358,15.448,0.36364,0.05,4.0821e-06,40.793,3.1346e-06,23.552,1.2693e-14,4.024e-06,-3.1346e-06,-23.552,1.1065
9359,15.356,0.18182,0,9.4159e-05,940.94,3.4858e-05,45.773,2.8797e-05,0.23304,-9.3294e-05,-917.11,1.0944
9360,15.448,0.18182,0.05,4.5626e-06,45.594,3.5035e-06,26.324,1.2881e-15,2.3408e-06,-3.5035e-06,-26.324,1.1056
9361,15.448,0.090909,0,7.9467e-05,794.12,2.8075e-05,22.177,2.5107e-05,-0.12405,-7.9068e-05,-782.86,1.1051
9362,15.264,5.7273,0,0.00010884,1087.7,4.1571e-05,68.43,3.2496e-05,0.24771,-0.00010751,-1051.7,1.0838
9363,15.172,5.8182,0,0.00011525,1151.7,4.1829e-05,45.978,3.5768e-05,0.44447,-0.00011439,-1127.8,1.0722
9364,15.264,5.8182,0.05,4.2205e-06,42.176,3.2408e-06,24.35,2.6849e-15,2.1681e-06,-3.2408e-06,-24.35,1.0833
9365,15.264,5.9091,0,0.000102,1019.3,3.5622e-05,23.646,3.2489e-05,0.10562,-0.00010157,-1007.2,1.0829
9366,15.264,5.5455,0,0.00011797,1178.8,4.8714e-05,118.93,3.2893e-05,0.048497,-0.00011549,-1114.8,1.0847
9367,15.172,5.6364,0,0.00012226,1221.8,4.7757e-05,89.684,3.5828e-05,0.052396,-0.00012049,-1174.5,1.0731
9368,15.264,5.6364,0.05,3.7763e-06,37.737,2.8997e-06,21.787,3.251e-14,-3.0676e-06,-2.8997e-06,-21.787,1.0842
9369,15.264,5.3636,0,0.00013071,1306.2,5.8068e-05,182.5,3.3777e-05,-0.0088831,-0.00012665,-1205.4,1.0855
9370,15.172,5.4545,0,0.00013235,1322.5,5.5389e-05,142.5,3.6429e-05,0.044564,-0.00012934,-1245.5,1.074
9371,15.264,5.4545,0.05,3.7648e-06,37.622,2.8909e-06,21.721,-4.3696e-13,-8.8737e-06,-2.8909e-06,-21.721,1.0851
9372,15.264,5.1818,0,0.00014689,1467.9,6.9359e-05,256.57,3.5199e-05,-0.095636,-0.00014084,-1322.8,1.0864
9373,15.172,5.2727,0,0.00014551,1454.1,6.4718e-05,204.1,3.7546e-05,-0.058113,-0.00014096,-1341.3,1.0748
9374,15.264,5.2727,0.05,3.8036e-06,38.01,2.9207e-06,21.945,-1.904e-12,-2.36e-05,-2.9207e-06,-21.945,1.0859
9375,15.264,5,0,0.00016621,1660.9,8.2104e-05,336.26,3.7328e-05,-0.17555,-0.00015791,-1467.2,1.0872
9376,15.172,5.0909,0,0.00016159,1614.8,7.5468e-05,271.75,3.9282e-05,-0.13768,-0.00015524,-1461.7,1.0756
9377,15.264,5.0909,0.05,3.8482e-06,38.456,2.955e-06,22.202,-2.3588e-12,-3.9426e-05,-2.955e-06,-22.202,1.0867
9378,15.264,4.8182,0,0.00018816,1880.3,9.5543e-05,413.78,4.0433e-05,-0.29772,-0.00017767,-1639.1,1.0879
9379,15.172,4.9091,0,0.00018023,1801,8.7094e-05,340,4.1813e-05,-0.21753,-0.00017202,-1606.9,1.0764
9380,15.264,4.9091,0.05,3.8525e-06,38.498,2.9582e-06,22.227,-5.0446e-12,-5.7435e-05,-2.9582e-06,-22.227,1.0875
9381,15.264,4.6364,0,0.00021189,2117.4,0.00010849,477.47,4.4883e-05,-0.46465,-0.00019968,-1838,1.0886
9382,15.172,4.7273,0,0.00020079,2006.5,9.875e-05,400.6,4.539e-05,-0.32636,-0.00019095,-1776.1,1.0771
9383,15.264,4.7273,0.05,3.7417e-06,37.391,2.8732e-06,21.588,-6.2136e-12,-8.4794e-05,-2.8732e-06,-21.588,1.0883
9384,15.264,4.4545,0,0.00023591,2357.5,0.0001192,511.38,5.1119e-05,-0.15447,-0.00022301,-2059.8,1.0893
9385,15.172,4.5455,0,0.00022223,2220.8,0.00010919,441.98,5.0307e-05,-0.44591,-0.00021139,-1966.7,1.0777
9386,15.264,4.5455,0.05,3.4614e-06,34.59,2.6579e-06,19.97,-1.3709e-11,-0.00012997,-2.6579e-06,-19.971,1.0889
9387,15.264,4.2727,0,0.00025815,2579.7,0.00012577,500.18,5.9204e-05,0.0017852,-0.00024597,-2293,1.0899
9388,15.172,4.3636,0,0.00024301,2428.4,0.00011682,450.72,5.6813e-05,-0.13815,-0.00023219,-2171.6,1.0783
9389,15.264,4.3636,0.05,3.0435e-06,30.414,2.337e-06,17.559,-2.6979e-11,-0.00024109,-2.337e-06,-17.559,1.0896
9390,15.264,4.0909,0,0.00027713,2769.3,0.00012769,444.55,6.8575e-05,0.36512,-0.00026687,-2520,1.0904
9391,15.172,4.1818,0,0.00026138,2612,0.00012045,419.04,6.4634e-05,-0.31175,-0.00025171,-2377.2,1.0789
9392,15.264,4.1818,0.05,2.9487e-06,29.467,2.2643e-06,17.013,-2.9892e-11,-0.00028005,-2.2642e-06,-17.013,1.0901
9393,15.264,3.9091,0,0.00029272,2925.2,0.00012673,368.21,7.7897e-05,1.3061,-0.0002847,-2723.1,1.0908
9394,15.172,4,0,0.00027673,2765.4,0.00012065,358.04,7.3032e-05,0.23622,-0.0002689,-2568.9,1.0793
9395,15.264,4,0.05,3.3245e-06,33.222,2.5528e-06,19.181,-2.0677e-11,-0.00020011,-2.5528e-06,-19.181,1.0906
9396,15.264,3.7273,0,0.0003053,3050.9,0.00012554,301.63,8.5519e-05,0.95166,-0.00029903,-2888.4,1.0912
9397,15.172,3.8182,0,0.0002894,2892.1,0.0001196,293.18,8.0665e-05,0.61298,-0.00028329,-2734,1.0797
9398,15.264,3.8182,0.05,3.6372e-06,36.347,2.793e-06,20.985,-4.0878e-12,-0.00012546,-2.793e-06,-20.985,1.091
9399,15.264,3.5455,0,0.00031497,3147.5,0.00012545,260.86,9.0781e-05,0.35437,-0.00030972,-3008.8,1.0915
9400,15.172,3.6364,0,0.00029971,2995,0.0001192,245.95,8.6486e-05,0.18307,-0.00029476,-2864.4,1.08
9401,15.264,3.6364,0.05,3.7404e-06,37.378,2.8722e-06,21.58,2.6091e-12,-6.0865e-05,-2.8722e-06,-21.58,1.0913
9402,15.264,3.3636,0,0.0003216,3213.8,0.00012615,242.52,9.3923e-05,0.41702,-0.00031678,-3085.5,1.0917
9403,15.172,3.4545,0,0.00030751,3073,0.00011972,220.82,9.0375e-05,0.36212,-0.00030316,-2956.5,1.0803
9404,15.264,3.4545,0.05,3.618e-06,36.155,2.7782e-06,20.874,2.4353e-12,-4.5157e-05,-2.7782e-06,-20.874,1.0916
9405,15.264,3.1818,0,0.00032527,3250.5,0.00012684,236.07,9.5465e-05,0.35202,-0.00032061,-3125.9,1.0918
9406,15.172,3.2727,0,0.00031254,3123.2,0.00012052,210.28,9.2575e-05,0.34006,-0.00030842,-3012.6,1.0804
9407,15.264,3.2727,0.05,3.4139e-06,34.115,2.6214e-06,19.696,3.2606e-12,-3.7339e-05,-2.6214e-06,-19.697,1.0918
9408,15.264,3,0,0.00032643,3262,0.0001271,234.6,9.5919e-05,0.31779,-0.0003218,-3138.3,1.0919
9409,15.172,3.0909,0,0.00031494,3147.2,0.00012103,206.8,9.3545e-05,0.31215,-0.00031091,-3038.6,1.0805
9410,15.264,3.0909,0.05,3.2716e-06,32.693,2.5122e-06,18.875,2.9758e-12,-3.357e-05,-2.5122e-06,-18.876,1.0918
9411,15.264,2.8182,0,0.00032527,3250.5,0.00012684,236.07,9.5465e-05,0.35202,-0.00032061,-3125.9,1.0918
9412,15.172,2.9091,0,0.00031494,3147.2,0.00012103,206.8,9.3545e-05,0.31215,-0.00031091,-3038.6,1.0805
9413,15.264,2.9091,0.05,3.2716e-06,32.693,2.5122e-06,18.875,6.3989e-13,-2.5775e-05,-2.5122e-06,-18.876,1.0918
9414,15.264,2.6364,0,0.0003216,3213.8,0.00012615,242.52,9.3923e-05,0.41702,-0.00031678,-3085.5,1.0917
9415,15.172,2.7273,0,0.00031254,3123.2,0.00012052,210.28,9.2575e-05,0.34006,-0.00030842,-3012.6,1.0804
9416,15.264,2.7273,0.05,3.4139e-06,34.115,2.6214e-06,19.696,1.9965e-12,-1.7252e-05,-2.6214e-06,-19.697,1.0918
9417,15.264,2.4545,0,0.00031497,3147.5,0.00012545,260.86,9.0781e-05,0.35437,-0.00030972,-3008.8,1.0915
9418,15.172,2.5455,0,0.00030751,3073,0.00011972,220.82,9.0375e-05,0.36212,-0.00030316,-2956.5,1.0803
9419,15.264,2.5455,0.05,3.618e-06,36.155,2.7782e-06,20.874,2.1931e-12,-3.8804e-06,-2.7782e-06,-20.874,1.0916
9420,15.264,2.2727,0,0.0003053,3050.9,0.00012554,301.63,8.5518e-05,0.95166,-0.00029903,-2888.4,1.0912
9421,15.172,2.3636,0,0.00029971,2995,0.0001192,245.95,8.6486e-05,0.18307,-0.00029476,-2864.4,1.08
9422,15.264,2.3636,0.05,3.7404e-06,37.378,2.8722e-06,21.58,2.7657e-12,1.4028e-05,-2.8722e-06,-21.58,1.0913
9423,15.264,2.0909,0,0.00029272,2925.2,0.00012673,368.21,7.7897e-05,1.3061,-0.0002847,-2723.1,1.0908
9424,15.172,2.1818,0,0.0002894,2892.1,0.0001196,293.18,8.0665e-05,0.61299,-0.00028329,-2734,1.0797
9425,15.264,2.1818,0.05,3.6372e-06,36.347,2.793e-06,20.985,2.3843e-12,1.1716e-05,-2.793e-06,-20.985,1.091
9426,15.264,1.9091,0,0.00027713,2769.3,0.00012769,444.55,6.8575e-05,0.36512,-0.00026687,-2520,1.0904
9427,15.172,2,0,0.00027673,2765.4,0.00012065,358.04,7.3032e-05,0.23621,-0.0002689,-2568.9,1.0793
9428,15.264,2,0.05,3.3245e-06,33.222,2.5528e-06,19.181,7.5352e-12,1.0723e-06,-2.5528e-06,-19.181,1.0906
9429,15.264,1.7273,0,0.00025815,2579.7,0.00012577,500.18,5.9204e-05,0.001786,-0.00024597,-2293,1.0899
9430,15.172,1.8182,0,0.00026138,2612,0.00012045,419.04,6.4634e-05,-0.31175,-0.00025171,-2377.2,1.0789
9431,15.264,1.8182,0.05,2.9487e-06,29.467,2.2642e-06,17.013,4.3904e-12,3.1741e-05,-2.2643e-06,-17.013,1.0901
9432,15.264,1.5455,0,0.00023591,2357.5,0.0001192,511.38,5.1119e-05,-0.15447,-0.00022301,-2059.8,1.0893
9433,15.172,1.6364,0,0.00024301,2428.4,0.00011682,450.72,5.6813e-05,-0.13815,-0.00023219,-2171.6,1.0783
9434,15.264,1.6364,0.05,3.0435e-06,30.414,2.337e-06,17.559,2.9181e-12,3.5632e-05,-2.337e-06,-17.559,1.0896
9435,15.264,1.3636,0,0.00021189,2117.4,0.00010849,477.47,4.4883e-05,-0.46465,-0.00019968,-1838,1.0886
9436,15.172,1.4545,0,0.00022223,2220.8,0.00010919,441.98,5.0307e-05,-0.44591,-0.00021139,-1966.7,1.0777
9437,15.264,1.4545,0.05,3.4614e-06,34.59,2.6579e-06,19.971,2.5263e-12,2.9037e-05,-2.6579e-06,-19.97,1.0889
9438,15.264,1.1818,0,0.00018816,1880.3,9.5543e-05,413.78,4.0433e-05,-0.29772,-0.00017767,-1639.1,1.0879
9439,15.172,1.2727,0,0.00020079,2006.5,9.875e-05,400.6,4.539e-05,-0.32636,-0.00019095,-1776.1,1.0771
9440,15.264,1.2727,0.05,3.7417e-06,37.391,2.8732e-06,21.588,7.6721e-13,1.0613e-05,-2.8732e-06,-21.588,1.0883
9441,15.264,1,0,0.00016621,1660.9,8.2104e-05,336.26,3.7328e-05,-0.17555,-0.00015791,-1467.2,1.0872
9442,15.172,1.0909,0,0.00018023,1801,8.7094e-05,340,4.1813e-05,-0.21753,-0.00017202,-1606.9,1.0764
9443,15.264,1.0909,0.05,3.8525e-06,38.498,2.9582e-06,22.227,1.596e-12,1.0614e-05,-2.9582e-06,-22.227,1.0875
9444,15.264,0.81818,0,0.00014689,1467.9,6.9359e-05,256.57,3.5199e-05,-0.095633,-0.00014084,-1322.8,1.0864
9445,15.172,0.90909,0,0.00016159,1614.8,7.5468e-05,271.75,3.9282e-05,-0.13768,-0.00015524,-1461.7,1.0756
9446,15.264,0.90909,0.05,3.8482e-06,38.456,2.955e-06,22.202,2.2859e-13,6.9904e-06,-2.955e-06,-22.202,1.0867
9447,15.264,0.63636,0,0.00013071,1306.2,5.8068e-05,182.5,3.3777e-05,-0.0088811,-0.00012665,-1205.4,1.0855
9448,15.172,0.72727,0,0.00014551,1454.1,6.4718e-05,204.1,3.7546e-05,-0.058111,-0.00014096,-1341.3,1.0748
9449,15.264,0.72727,0.05,3.8036e-06,38.01,2.9207e-06,21.945,5.0342e-13,8.0356e-06,-2.9207e-06,-21.945,1.0859
9450,15.264,0.45455,0,0.00011797,1178.8,4.8714e-05,118.93,3.2893e-05,0.048498,-0.00011549,-1114.8,1.0847
9451,15.172,0.54545,0,0.00013235,1322.5,5.5389e-05,142.5,3.6429e-05,0.044564,-0.00012934,-1245.5,1.074
9452,15.264,0.54545,0.05,3.7648e-06,37.622,2.8909e-06,21.721,-1.3264e-14,2.7875e-06,-2.8909e-06,-21.721,1.0851
9453,15.264,0.27273,0,0.00010884,1087.7,4.1571e-05,68.43,3.2496e-05,0.24771,-0.00010751,-1051.7,1.0838
9454,15.172,0.36364,0,0.00012226,1221.8,4.7757e-05,89.684,3.5828e-05,0.052396,-0.00012049,-1174.5,1.0731
9455,15.264,0.36364,0.05,3.7763e-06,37.737,2.8997e-06,21.787,-4.9732e-13,8.2779e-07,-2.8997e-06,-21.787,1.0842
9456,15.172,0.18182,0,0.00011525,1151.7,4.1829e-05,45.978,3.5768e-05,0.44447,-0.00011439,-1127.8,1.0722
9457,15.264,0.18182,0.05,4.2205e-06,42.176,3.2408e-06,24.35,-4.9343e-14,1.7194e-06,-3.2408e-06,-24.35,1.0833
9458,15.264,0.090909,0,0.000102,1019.3,3.5622e-05,23.646,3.2489e-05,0.10562,-0.00010157,-1007.2,1.0829
9459,15.08,5.7273,0,0.00012877,1286.8,4.8126e-05,68.066,3.9094e-05,0.20947,-0.00012747,-1251.3,1.0616
9460,14.989,5.8182,0,0.00013441,1343.2,4.806e-05,44.748,4.2149e-05,0.33761,-0.00013359,-1320.1,1.0501
9461,15.08,5.8182,0.05,3.8097e-06,38.07,2.9253e-06,21.98,6.2965e-13,3.5113e-06,-2.9253e-06,-21.98,1.0611
9462,15.08,5.9091,0,0.00012257,1224.9,4.2428e-05,23.78,3.927e-05,0.052806,-0.00012215,-1212.8,1.0607
9463,15.08,5.5455,0,0.00013691,1368.2,5.4679e-05,115.12,3.9361e-05,0.029111,-0.00013459,-1307,1.0625
9464,14.989,5.6364,0,0.00014101,1409.1,5.3882e-05,88.78,4.2067e-05,0.0037973,-0.00013929,-1362.6,1.051
9465,15.08,5.6364,0.05,3.4254e-06,34.23,2.6302e-06,19.763,2.1881e-13,-3.1403e-07,-2.6302e-06,-19.763,1.062
9466,15.08,5.3636,0,0.00014768,1475.7,6.2498e-05,167.55,4.0197e-05,-0.014873,-0.00014411,-1384.8,1.0633
9467,14.989,5.4545,0,0.00014977,1496.6,6.0569e-05,135.23,4.2577e-05,0.047265,-0.00014701,-1424.4,1.0518
9468,15.08,5.4545,0.05,3.3773e-06,33.749,2.5933e-06,19.485,1.0954e-13,-6.8852e-06,-2.5933e-06,-19.485,1.0629
9469,15.08,5.1818,0,0.00016101,1609,7.1483e-05,224.21,4.1629e-05,-0.10517,-0.00015602,-1485.1,1.0641
9470,14.989,5.2727,0,0.00016077,1606.6,6.8215e-05,184.55,4.3646e-05,-0.050025,-0.00015684,-1506.4,1.0526
9471,15.08,5.2727,0.05,3.3424e-06,33.401,2.5666e-06,19.284,-6.9851e-13,-2.2648e-05,-2.5666e-06,-19.284,1.0637
9472,15.08,5,0,0.00017662,1765,8.1257e-05,281.5,4.3767e-05,-0.18243,-0.00017014,-1607.4,1.0649
9473,14.989,5.0909,0,0.00017391,1737.9,7.6642e-05,235.06,4.5343e-05,-0.11438,-0.00016872,-1608.5,1.0534
9474,15.08,5.0909,0.05,3.2793e-06,32.77,2.5181e-06,18.92,-9.7923e-13,-3.4768e-05,-2.5181e-06,-18.92,1.0645
9475,15.08,4.8182,0,0.00019398,1938.4,9.1156e-05,333.25,4.677e-05,-0.24858,-0.00018615,-1750.3,1.0656
9476,14.989,4.9091,0,0.00018881,1886.8,8.5403e-05,282.6,4.7767e-05,-0.17949,-0.00018241,-1729.6,1.0541
9477,15.08,4.9091,0.05,3.1525e-06,31.503,2.4207e-06,18.188,-2.7323e-12,-5.6371e-05,-2.4207e-06,-18.188,1.0652
9478,15.08,4.6364,0,0.00021222,2120.7,0.00010025,371.12,5.0813e-05,-0.31076,-0.00020346,-1910.8,1.0662
9479,14.989,4.7273,0,0.00020485,2047.1,9.3814e-05,321.09,5.1049e-05,-0.22722,-0.00019749,-1867.7,1.0548
9480,15.08,4.7273,0.05,2.9294e-06,29.273,2.2494e-06,16.901,-6.6016e-12,-9.0267e-05,-2.2494e-06,-16.901,1.0659
9481,15.08,4.4545,0,0.0002302,2300.4,0.00010743,386.02,5.6001e-05,-0.43247,-0.00022119,-2083.1,1.0668
9482,14.989,4.5455,0,0.00022114,2209.9,0.000101,343.13,5.5294e-05,-0.27252,-0.0002133,-2018.4,1.0554
9483,15.08,4.5455,0.05,2.6059e-06,26.041,2.001e-06,15.035,-1.3296e-11,-0.0001439,-2.001e-06,-15.035,1.0665
9484,15.08,4.2727,0,0.00024677,2466,0.00011188,372.53,6.2243e-05,-0.44931,-0.00023832,-2258.7,1.0674
9485,14.989,4.3636,0,0.00023664,2364.8,0.00010609,342.28,6.049e-05,-0.35559,-0.00022895,-2175.1,1.0559
9486,15.08,4.3636,0.05,2.2929e-06,22.914,1.7607e-06,13.229,-2.4312e-11,-0.00025979,-1.7607e-06,-13.229,1.0671
9487,15.08,4.0909,0,0.00026123,2610.5,0.0001136,334,6.9092e-05,-0.43185,-0.00025394,-2427.6,1.0679
9488,14.989,4.1818,0,0.0002505,2503.3,0.00010871,317.5,6.6413e-05,-0.29887,-0.00024359,-2329.5,1.0564
9489,15.08,4.1818,0.05,2.1936e-06,21.921,1.6844e-06,12.656,-2.7541e-11,-0.00027227,-1.6844e-06,-12.656,1.0676
9490,15.08,3.9091,0,0.00027349,2733,0.0001136,283.55,7.5802e-05,-0.44289,-0.00026756,-2580.3,1.0683
9491,14.989,4,0,0.0002624,2622.2,0.00010932,276.11,7.2527e-05,-0.31821,-0.00025661,-2473.3,1.0569
9492,15.08,4,0.05,2.3118e-06,23.102,1.7752e-06,13.338,-1.6805e-11,-0.00018353,-1.7752e-06,-13.338,1.0681
9493,15.08,3.7273,0,0.0002838,2836,0.00011325,237.4,8.1636e-05,-0.13463,-0.00027901,-2709.9,1.0686
9494,14.989,3.8182,0,0.0002725,2723.1,0.00010905,231.71,7.8182e-05,-0.2305,-0.00026782,-2599.9,1.0572
9495,15.08,3.8182,0.05,2.4708e-06,24.691,1.8972e-06,14.255,-1.0598e-11,-0.000176,-1.8972e-06,-14.255,1.0684
9496,15.08,3.5455,0,0.00029215,2919.5,0.00011337,205.25,8.6083e-05,0.20942,-0.00028812,-2811.4,1.0689
9497,14.989,3.6364,0,0.00028096,2807.7,0.00010893,196.15,8.2836e-05,0.063903,-0.00027711,-2704.4,1.0575
9498,15.08,3.6364,0.05,2.5825e-06,25.808,1.9831e-06,14.9,1.6003e-13,-7.287e-05,-1.9831e-06,-14.9,1.0687
9499,15.08,3.3636,0,0.0002983,2980.9,0.00011395,187.53,8.9027e-05,0.29111,-0.00029466,-2882.6,1.069
9500,14.989,3.4545,0,0.00028762,2874.2,0.00010929,173.65,8.62e-05,0.19764,-0.00028427,-2783.4,1.0577
9501,15.08,3.4545,0.05,2.6401e-06,26.383,2.0273e-06,15.232,2.7353e-12,-3.5811e-05,-2.0273e-06,-15.232,1.0689
9502,15.08,3.1818,0,0.00030202,3018.1,0.00011454,179.76,9.0655e-05,0.30284,-0.00029856,-2924.1,1.0692
9503,14.989,3.2727,0,0.0002922,2920,0.00010985,162.09,8.8308e-05,0.25115,-0.00028911,-2835.5,1.0579
9504,15.08,3.2727,0.05,2.6422e-06,26.403,2.0288e-06,15.244,4.073e-12,-2.4625e-05,-2.0289e-06,-15.244,1.0691
9505,15.08,3,0,0.00030326,3030.5,0.00011478,177.7,9.1171e-05,0.30935,-0.00029984,-2937.6,1.0692
9506,14.989,3.0909,0,0.00029452,2943.2,0.00011024,157.55,8.9307e-05,0.2752,-0.00029152,-2861.1,1.0579
9507,15.08,3.0909,0.05,2.6286e-06,26.268,2.0184e-06,15.165,5.3088e-12,-1.5521e-05,-2.0184e-06,-15.166,1.0692
9508,15.08,2.8182,0,0.00030202,3018.1,0.00011454,179.76,9.0655e-05,0.30284,-0.00029856,-2924.1,1.0692
9509,14.989,2.9091,0,0.00029452,2943.2,0.00011024,157.55,8.9307e-05,0.2752,-0.00029152,-2861.1,1.0579
9510,15.08,2.9091,0.05,2.6286e-06,26.268,2.0184e-06,15.165,3.7329e-12,-1.1647e-05,-2.0184e-06,-15.166,1.0692
9511,15.08,2.6364,0,0.0002983,2980.9,0.00011395,187.53,8.9027e-05,0.29111,-0.00029466,-2882.6,1.069
9512,14.989,2.7273,0,0.0002922,2920,0.00010985,162.09,8.8308e-05,0.25115,-0.00028911,-2835.5,1.0579
9513,15.08,2.7273,0.05,2.6422e-06,26.403,2.0288e-06,15.244,2.903e-12,-7.5174e-07,-2.0289e-06,-15.244,1.0691
9514,15.08,2.4545,0,0.00029215,2919.5,0.00011337,205.25,8.6083e-05,0.20942,-0.00028812,-2811.4,1.0689
9515,14.989,2.5455,0,0.00028762,2874.2,0.00010929,173.65,8.62e-05,0.19764,-0.00028427,-2783.4,1.0577
9516,15.08,2.5455,0.05,2.6401e-06,26.383,2.0273e-06,15.232,3.9205e-12,1.5041e-05,-2.0273e-06,-15.232,1.0689
9517,15.08,2.2727,0,0.0002838,2836,0.00011325,237.4,8.1636e-05,-0.13463,-0.00027901,-2709.9,1.0686
9518,14.989,2.3636,0,0.00028096,2807.7,0.00010893,196.15,8.2836e-05,0.063904,-0.00027711,-2704.4,1.0575
9519,15.08,2.3636,0.05,2.5825e-06,25.808,1.9831e-06,14.9,4.0815e-12,1.6279e-05,-1.9831e-06,-14.9,1.0687
9520,15.08,2.0909,0,0.00027349,2733,0.0001136,283.55,7.5802e-05,-0.44289,-0.00026756,-2580.3,1.0683
9521,14.989,2.1818,0,0.0002725,2723.1,0.00010905,231.71,7.8182e-05,-0.2305,-0.00026782,-2599.9,1.0572
9522,15.08,2.1818,0.05,2.4708e-06,24.691,1.8972e-06,14.255,3.9007e-12,1.9293e-05,-1.8972e-06,-14.255,1.0684
9523,15.08,1.9091,0,0.00026123,2610.4,0.0001136,334,6.9092e-05,-0.43185,-0.00025394,-2427.6,1.0679
9524,14.989,2,0,0.0002624,2622.2,0.00010932,276.11,7.2527e-05,-0.31821,-0.00025661,-2473.3,1.0569
9525,15.08,2,0.05,2.3118e-06,23.102,1.7752e-06,13.338,6.2432e-13,3.8064e-05,-1.7752e-06,-13.338,1.0681
9526,15.08,1.7273,0,0.00024677,2466,0.00011188,372.53,6.2243e-05,-0.44931,-0.00023832,-2258.7,1.0674
9527,14.989,1.8182,0,0.0002505,2503.3,0.00010871,317.5,6.6413e-05,-0.29887,-0.00024359,-2329.5,1.0564
9528,15.08,1.8182,0.05,2.1936e-06,21.921,1.6844e-06,12.656,5.1402e-12,2.8525e-05,-1.6844e-06,-12.656,1.0676
9529,15.08,1.5455,0,0.0002302,2300.4,0.00010743,386.02,5.6001e-05,-0.43247,-0.00022119,-2083.1,1.0668
9530,14.989,1.6364,0,0.00023664,2364.8,0.00010609,342.28,6.049e-05,-0.35559,-0.00022895,-2175.1,1.0559
9531,15.08,1.6364,0.05,2.2929e-06,22.914,1.7607e-06,13.229,3.224e-12,1.3372e-06,-1.7607e-06,-13.229,1.0671
9532,15.08,1.3636,0,0.00021222,2120.7,0.00010025,371.12,5.0813e-05,-0.31076,-0.00020346,-1910.8,1.0662
9533,14.989,1.4545,0,0.00022114,2209.9,0.000101,343.13,5.5294e-05,-0.27252,-0.0002133,-2018.4,1.0554
9534,15.08,1.4545,0.05,2.6059e-06,26.041,2.001e-06,15.035,2.2473e-12,1.3759e-05,-2.001e-06,-15.035,1.0665
9535,15.08,1.1818,0,0.00019398,1938.4,9.1156e-05,333.25,4.677e-05,-0.24858,-0.00018615,-1750.3,1.0656
9536,14.989,1.2727,0,0.00020485,2047.1,9.3814e-05,321.09,5.1049e-05,-0.22722,-0.00019749,-1867.7,1.0548
9537,15.08,1.2727,0.05,2.9294e-06,29.273,2.2494e-06,16.901,5.316e-13,9.1769e-06,-2.2494e-06,-16.901,1.0659
9538,15.08,1,0,0.00017662,1765,8.1257e-05,281.5,4.3767e-05,-0.18243,-0.00017014,-1607.4,1.0649
9539,14.989,1.0909,0,0.00018881,1886.8,8.5403e-05,282.6,4.7767e-05,-0.17949,-0.00018241,-1729.6,1.0541
9540,15.08,1.0909,0.05,3.1525e-06,31.503,2.4207e-06,18.188,7.2793e-13,4.601e-06,-2.4207e-06,-18.188,1.0652
9541,15.08,0.81818,0,0.00016101,1609,7.1483e-05,224.21,4.1629e-05,-0.10517,-0.00015602,-1485.1,1.0641
9542,14.989,0.90909,0,0.00017391,1737.9,7.6642e-05,235.06,4.5343e-05,-0.11438,-0.00016872,-1608.5,1.0534
9543,15.08,0.90909,0.05,3.2793e-06,32.77,2.5181e-06,18.92,2.9139e-13,4.341e-06,-2.5181e-06,-18.92,1.0645
9544,15.08,0.63636,0,0.00014768,1475.7,6.2498e-05,167.55,4.0197e-05,-0.014873,-0.00014411,-1384.8,1.0633
9545,14.989,0.72727,0,0.00016077,1606.6,6.8215e-05,184.55,4.3646e-05,-0.050025,-0.00015684,-1506.4,1.0526
9546,15.08,0.72727,0.05,3.3424e-06,33.401,2.5666e-06,19.284,-3.8879e-13,3.7622e-07,-2.5666e-06,-19.284,1.0637
9547,15.08,0.45455,0,0.00013691,1368.2,5.4679e-05,115.12,3.9361e-05,0.029111,-0.00013459,-1307,1.0625
9548,14.989,0.54545,0,0.00014977,1496.6,6.0569e-05,135.23,4.2577e-05,0.047265,-0.00014701,-1424.4,1.0518
9549,15.08,0.54545,0.05,3.3773e-06,33.749,2.5933e-06,19.485,-1.3329e-14,4.9227e-07,-2.5933e-06,-19.485,1.0629
9550,15.08,0.27273,0,0.00012877,1286.8,4.8126e-05,68.066,3.9094e-05,0.20947,-0.00012747,-1251.3,1.0616
9551,14.989,0.36364,0,0.00014101,1409.1,5.3882e-05,88.78,4.2067e-05,0.0037976,-0.00013929,-1362.6,1.051
9552,15.08,0.36364,0.05,3.4254e-06,34.23,2.6302e-06,19.763,-1.4588e-13,-5.4428e-07,-2.6302e-06,-19.763,1.062
9553,14.989,0.18182,0,0.00013441,1343.2,4.806e-05,44.748,4.2149e-05,0.33761,-0.00013359,-1320.1,1.0501
9554,15.08,0.18182,0.05,3.8097e-06,38.07,2.9253e-06,21.98,-1.7043e-13,5.1922e-08,-2.9253e-06,-21.98,1.0611
9555,15.08,0.090909,0,0.00012257,1224.9,4.2428e-05,23.78,3.927e-05,0.052807,-0.00012215,-1212.8,1.0607
9556,14.897,5.7273,0,0.00014671,1466.1,5.3883e-05,65.962,4.5122e-05,0.13895,-0.00014548,-1431.9,1.0395
9557,14.805,5.8182,0,0.00015162,1515.2,5.3568e-05,42.571,4.7928e-05,0.19433,-0.00015085,-1493.3,1.028
9558,14.897,5.8182,0.05,3.3689e-06,33.666,2.5869e-06,19.437,3.3488e-13,4.4733e-06,-2.5869e-06,-19.437,1.039
9559,14.897,5.9091,0,0.00014112,1410.2,4.8494e-05,23.101,4.5424e-05,0.034359,-0.00014071,-1398.5,1.0386
9560,14.897,5.5455,0,0.00015402,1539.1,5.9918e-05,109.98,4.5283e-05,0.01835,-0.00015185,-1481.2,1.0403
9561,14.805,5.6364,0,0.00015774,1576.3,5.9151e-05,85.598,4.7753e-05,-0.042727,-0.00015611,-1531.8,1.0289
9562,14.897,5.6364,0.05,3.0652e-06,30.631,2.3537e-06,17.685,1.3179e-12,2.114e-07,-2.3537e-06,-17.685,1.0399
9563,14.897,5.3636,0,0.00016317,1630.6,6.6555e-05,154.25,4.6026e-05,0.0085133,-0.00016,-1548,1.0412
9564,14.805,5.4545,0,0.00016537,1652.5,6.5056e-05,126.96,4.8165e-05,0.049281,-0.00016284,-1585.4,1.0297
9565,14.897,5.4545,0.05,2.9923e-06,29.902,2.2977e-06,17.264,1.1228e-12,-6.2362e-06,-2.2977e-06,-17.264,1.0407
9566,14.897,5.1818,0,0.00017415,1740.3,7.3763e-05,198.32,4.736e-05,-0.061751,-0.00016993,-1632.7,1.0419
9567,14.805,5.2727,0,0.00017458,1744.6,7.1392e-05,167.27,4.9125e-05,-0.027748,-0.00017113,-1655,1.0305
9568,14.897,5.2727,0.05,2.9124e-06,29.104,2.2364e-06,16.803,-3.4172e-13,-1.7903e-05,-2.2364e-06,-16.803,1.0415
9569,14.897,5,0,0.0001867,1865.7,8.1265e-05,239.74,4.9342e-05,-0.11339,-0.00018146,-1734.3,1.0427
9570,14.805,5.0909,0,0.00018528,1851.5,7.8032e-05,205.49,5.0674e-05,-0.070761,-0.00018092,-1740.2,1.0313
9571,14.897,5.0909,0.05,2.7941e-06,27.921,2.1455e-06,16.12,3.1034e-13,-3.0788e-05,-2.1455e-06,-16.12,1.0423
9572,14.897,4.8182,0,0.00020034,2002,8.8568e-05,274.25,5.2046e-05,-0.1601,-0.00019426,-1850.8,1.0433
9573,14.805,4.9091,0,0.00019712,1969.9,8.4649e-05,238.79,5.2853e-05,-0.11415,-0.00019197,-1839.6,1.0319
9574,14.897,4.9091,0.05,2.6183e-06,26.165,2.0105e-06,15.106,-3.9745e-12,-4.8991e-05,-2.0105e-06,-15.106,1.043
9575,14.897,4.6364,0,0.0002144,2142.5,9.5036e-05,296.64,5.553e-05,-0.19079,-0.0002078,-1978.8,1.044
9576,14.805,4.7273,0,0.00020961,2094.7,9.0758e-05,263.18,5.5711e-05,-0.1493,-0.00020389,-1950.7,1.0326
9577,14.897,4.7273,0.05,2.3762e-06,23.745,1.8246e-06,13.709,-5.4603e-12,-8.918e-05,-1.8246e-06,-13.709,1.0436
9578,14.897,4.4545,0,0.00022809,2279.3,0.00010003,302.21,5.9784e-05,-0.19575,-0.00022144,-2113.2,1.0445
9579,14.805,4.5455,0,0.00022208,2219.3,9.5806e-05,274.45,5.9256e-05,-0.17263,-0.00021614,-2069.4,1.0332
9580,14.897,4.5455,0.05,2.0914e-06,20.9,1.6059e-06,12.066,-1.2714e-11,-0.00012889,-1.6059e-06,-12.066,1.0442
9581,14.897,4.2727,0,0.00024071,2405.5,0.00010318,289.18,6.4661e-05,-0.20177,-0.00023449,-2247.9,1.0451
9582,14.805,4.3636,0,0.00023388,2337.2,9.9346e-05,269.81,6.3412e-05,-0.18242,-0.00022812,-2190.6,1.0337
9583,14.897,4.3636,0.05,1.8366e-06,18.354,1.4103e-06,10.597,-1.9855e-11,-0.00022279,-1.4103e-06,-10.597,1.0448
9584,14.897,4.0909,0,0.00025187,2517,0.00010458,260.78,6.9849e-05,-0.17936,-0.00024642,-2376.5,1.0455
9585,14.805,4.1818,0,0.0002445,2443.3,0.00010126,249.89,6.7971e-05,-0.20134,-0.00023929,-2308.8,1.0342
9586,14.897,4.1818,0.05,1.7021e-06,17.009,1.307e-06,9.8203,-2.7406e-11,-0.00021007,-1.307e-06,-9.8203,1.0453
9587,14.897,3.9091,0,0.0002615,2613.2,0.00010485,224.88,7.4908e-05,-0.098824,-0.00025695,-2493.5,1.0459
9588,14.805,4,0,0.00025376,2535.8,0.00010187,219.75,7.2604e-05,-0.17086,-0.0002493,-2418.9,1.0346
9589,14.897,4,0.05,1.6939e-06,16.928,1.3007e-06,9.7732,-2.5293e-11,-0.00021408,-1.3007e-06,-9.7732,1.0457
9590,14.897,3.7273,0,0.00026968,2695,0.00010476,190.64,7.9384e-05,-0.021737,-0.00026594,-2594.6,1.0462
9591,14.805,3.8182,0,0.0002617,2615.2,0.00010184,187.17,7.6916e-05,-0.10303,-0.00025802,-2516.7,1.0349
9592,14.897,3.8182,0.05,1.7486e-06,17.474,1.3427e-06,10.089,-1.1443e-11,-0.00020814,-1.3427e-06,-10.089,1.046
9593,14.897,3.5455,0,0.0002764,2762.1,0.00010482,164.35,8.2955e-05,0.064543,-0.00027324,-2676.2,1.0464
9594,14.805,3.6364,0,0.00026838,2682,0.00010175,159.18,8.0563e-05,-0.024805,-0.00026532,-2598.9,1.0352
9595,14.897,3.6364,0.05,1.8233e-06,18.221,1.4001e-06,10.52,-4.4658e-12,-7.9923e-05,-1.4001e-06,-10.52,1.0463
9596,14.897,3.3636,0,0.00028146,2812.6,0.00010512,147.7,8.5482e-05,0.1676,-0.00027865,-2735.8,1.0466
9597,14.805,3.4545,0,0.0002737,2735.1,0.00010187,139.33,8.3339e-05,0.083838,-0.00027106,-2662.8,1.0354
9598,14.897,3.4545,0.05,1.8989e-06,18.976,1.4581e-06,10.956,1.1685e-12,-4.2841e-05,-1.4582e-06,-10.956,1.0465
9599,14.897,3.1818,0,0.0002846,2844.1,0.00010545,139.16,8.6961e-05,0.23104,-0.00028198,-2771.8,1.0467
9600,14.805,3.2727,0,0.00027742,2772.3,0.00010213,127.61,8.5171e-05,0.17161,-0.00027503,-2706.2,1.0355
9601,14.897,3.2727,0.05,1.9546e-06,19.533,1.5009e-06,11.277,4.9959e-12,-1.9559e-05,-1.5009e-06,-11.277,1.0466
9602,14.897,3,0,0.00028567,2854.7,0.00010559,136.61,8.7445e-05,0.24806,-0.0002831,-2783.9,1.0467
9603,14.805,3.0909,0,0.00027934,2791.5,0.00010233,122.4,8.6071e-05,0.21134,-0.00027706,-2728.2,1.0356
9604,14.897,3.0909,0.05,1.9819e-06,19.806,1.5219e-06,11.435,4.1626e-12,-7.5942e-06,-1.5219e-06,-11.435,1.0467
9605,14.897,2.8182,0,0.0002846,2844.1,0.00010545,139.16,8.6961e-05,0.23105,-0.00028198,-2771.8,1.0467
9606,14.805,2.9091,0,0.00027934,2791.5,0.00010233,122.4,8.6071e-05,0.21134,-0.00027706,-2728.2,1.0356
9607,14.897,2.9091,0.05,1.9819e-06,19.806,1.5219e-06,11.435,4.8275e-12,1.3204e-06,-1.5219e-06,-11.435,1.0467
9608,14.897,2.6364,0,0.00028146,2812.6,0.00010512,147.7,8.5482e-05,0.1676,-0.00027865,-2735.8,1.0466
9609,14.805,2.7273,0,0.00027742,2772.3,0.00010213,127.61,8.5171e-05,0.17161,-0.00027503,-2706.2,1.0355
9610,14.897,2.7273,0.05,1.9546e-06,19.533,1.5009e-06,11.277,4.9219e-12,1.0156e-05,-1.5009e-06,-11.277,1.0466
9611,14.897,2.4545,0,0.0002764,2762.1,0.00010482,164.35,8.2955e-05,0.064543,-0.00027324,-2676.2,1.0464
9612,14.805,2.5455,0,0.0002737,2735.1,0.00010187,139.33,8.3339e-05,0.083838,-0.00027106,-2662.8,1.0354
9613,14.897,2.5455,0.05,1.8989e-06,18.976,1.4581e-06,10.956,4.9531e-12,8.4856e-06,-1.4582e-06,-10.956,1.0465
9614,14.897,2.2727,0,0.00026968,2695,0.00010476,190.64,7.9384e-05,-0.021737,-0.00026594,-2594.6,1.0462
9615,14.805,2.3636,0,0.00026838,2682,0.00010175,159.18,8.0563e-05,-0.024804,-0.00026532,-2598.9,1.0352
9616,14.897,2.3636,0.05,1.8233e-06,18.221,1.4001e-06,10.52,5.946e-12,3.3726e-05,-1.4001e-06,-10.52,1.0463
9617,14.897,2.0909,0,0.0002615,2613.2,0.00010485,224.88,7.4908e-05,-0.098824,-0.00025695,-2493.5,1.0459
9618,14.805,2.1818,0,0.0002617,2615.2,0.00010184,187.17,7.6916e-05,-0.10303,-0.00025802,-2516.7,1.0349
9619,14.897,2.1818,0.05,1.7486e-06,17.474,1.3427e-06,10.089,3.2624e-12,2.2919e-05,-1.3427e-06,-10.089,1.046
9620,14.897,1.9091,0,0.00025187,2517,0.00010458,260.78,6.9849e-05,-0.17936,-0.00024642,-2376.5,1.0455
9621,14.805,2,0,0.00025376,2535.8,0.00010187,219.75,7.2604e-05,-0.17086,-0.0002493,-2418.9,1.0346
9622,14.897,2,0.05,1.6939e-06,16.928,1.3007e-06,9.7732,7.9701e-13,4.1736e-06,-1.3007e-06,-9.7732,1.0457
9623,14.897,1.7273,0,0.00024071,2405.5,0.00010318,289.18,6.4661e-05,-0.20177,-0.00023449,-2247.9,1.0451
9624,14.805,1.8182,0,0.0002445,2443.3,0.00010126,249.89,6.7971e-05,-0.20134,-0.00023929,-2308.8,1.0342
9625,14.897,1.8182,0.05,1.7021e-06,17.009,1.307e-06,9.8203,-6.2527e-13,2.4923e-05,-1.307e-06,-9.8203,1.0453
9626,14.897,1.5455,0,0.00022809,2279.3,0.00010003,302.21,5.9784e-05,-0.19575,-0.00022144,-2113.2,1.0445
9627,14.805,1.6364,0,0.00023388,2337.2,9.9346e-05,269.81,6.3412e-05,-0.18242,-0.00022812,-2190.6,1.0337
9628,14.897,1.6364,0.05,1.8366e-06,18.354,1.4103e-06,10.597,-1.7414e-13,-7.416e-06,-1.4103e-06,-10.597,1.0448
9629,14.897,1.3636,0,0.0002144,2142.5,9.5036e-05,296.64,5.553e-05,-0.19079,-0.0002078,-1978.8,1.044
9630,14.805,1.4545,0,0.00022208,2219.3,9.5806e-05,274.45,5.9256e-05,-0.17263,-0.00021614,-2069.4,1.0332
9631,14.897,1.4545,0.05,2.0914e-06,20.9,1.6059e-06,12.066,3.5143e-13,3.1479e-06,-1.6059e-06,-12.066,1.0442
9632,14.897,1.1818,0,0.00020034,2002,8.8568e-05,274.25,5.2046e-05,-0.16009,-0.00019426,-1850.8,1.0433
9633,14.805,1.2727,0,0.00020961,2094.6,9.0758e-05,263.18,5.5711e-05,-0.14929,-0.00020389,-1950.7,1.0326
9634,14.897,1.2727,0.05,2.3761e-06,23.745,1.8246e-06,13.709,3.3699e-13,-1.9691e-06,-1.8246e-06,-13.709,1.0436
9635,14.897,1,0,0.0001867,1865.7,8.1265e-05,239.74,4.9342e-05,-0.11339,-0.00018146,-1734.3,1.0427
9636,14.805,1.0909,0,0.00019712,1969.9,8.4649e-05,238.79,5.2853e-05,-0.11415,-0.00019197,-1839.6,1.0319
9637,14.897,1.0909,0.05,2.6183e-06,26.165,2.0105e-06,15.106,-7.1271e-13,3.9687e-06,-2.0105e-06,-15.106,1.043
9638,14.897,0.81818,0,0.00017415,1740.3,7.3763e-05,198.32,4.736e-05,-0.06175,-0.00016993,-1632.7,1.0419
9639,14.805,0.90909,0,0.00018528,1851.5,7.8032e-05,205.49,5.0674e-05,-0.07076,-0.00018092,-1740.2,1.0313
9640,14.897,0.90909,0.05,2.7941e-06,27.921,2.1455e-06,16.12,2.8735e-13,-1.3667e-06,-2.1455e-06,-16.12,1.0423
9641,14.897,0.63636,0,0.00016317,1630.6,6.6555e-05,154.25,4.6026e-05,0.0085133,-0.00016,-1548,1.0412
9642,14.805,0.72727,0,0.00017458,1744.6,7.1392e-05,167.27,4.9125e-05,-0.027747,-0.00017113,-1655,1.0305
9643,14.897,0.72727,0.05,2.9124e-06,29.104,2.2364e-06,16.803,8.4988e-14,-4.14e-06,-2.2364e-06,-16.803,1.0415
9644,14.897,0.45455,0,0.00015402,1539.1,5.9918e-05,109.98,4.5283e-05,0.01835,-0.00015185,-1481.2,1.0403
9645,14.805,0.54545,0,0.00016537,1652.5,6.5056e-05,126.96,4.8165e-05,0.049282,-0.00016284,-1585.4,1.0297
9646,14.897,0.54545,0.05,2.9923e-06,29.902,2.2977e-06,17.264,-4.9839e-13,-3.6841e-07,-2.2977e-06,-17.264,1.0407
9647,14.897,0.27273,0,0.00014671,1466.1,5.3883e-05,65.962,4.5122e-05,0.13895,-0.00014548,-1431.9,1.0395
9648,14.805,0.36364,0,0.00015774,1576.3,5.9151e-05,85.598,4.7753e-05,-0.042726,-0.00015611,-1531.8,1.0289
9649,14.897,0.36364,0.05,3.0652e-06,30.631,2.3537e-06,17.685,-1.66e-13,-1.0954e-06,-2.3537e-06,-17.685,1.0399
9650,14.805,0.18182,0,0.00015162,1515.2,5.3568e-05,42.571,4.7928e-05,0.19433,-0.00015085,-1493.3,1.028
9651,14.897,0.18182,0.05,3.3689e-06,33.666,2.5869e-06,19.437,-9.7851e-13,1.1747e-06,-2.5869e-06,-19.437,1.039
9652,14.897,0.090909,0,0.00014112,1410.2,4.8494e-05,23.101,4.5424e-05,0.034361,-0.00014071,-1398.5,1.0386
9653,14.713,5.7273,0,0.00016268,1625.7,5.8874e-05,62.49,5.0564e-05,0.05496,-0.00016153,-1593.5,1.0175
9654,14.621,5.8182,0,0.00016696,1668.5,5.8413e-05,39.855,5.3117e-05,0.063796,-0.00016625,-1648.1,1.0061
9655,14.713,5.8182,0.05,2.9302e-06,29.282,2.25e-06,16.906,9.1929e-13,4.4415e-06,-2.25e-06,-16.906,1.017
9656,14.713,5.9091,0,0.00015768,1575.7,5.3862e-05,21.941,5.0943e-05,0.0095435,-0.00015729,-1564.6,1.0166
9657,14.713,5.5455,0,0.00016918,1690.6,6.438e-05,103.26,5.0636e-05,-0.0066307,-0.00016719,-1636.6,1.0183
9658,14.621,5.6364,0,0.00017252,1724,6.3631e-05,80.681,5.2882e-05,-0.082015,-0.00017101,-1682.3,1.0069
9659,14.713,5.6364,0.05,2.7211e-06,27.192,2.0895e-06,15.699,1.959e-12,3.4838e-06,-2.0895e-06,-15.7,1.0179
9660,14.713,5.3636,0,0.00017696,1768.4,7.0055e-05,141.2,5.1264e-05,0.013678,-0.00017413,-1693.5,1.0191
9661,14.621,5.4545,0,0.00017913,1790,6.8839e-05,117.58,5.3196e-05,0.042863,-0.00017684,-1728.3,1.0077
9662,14.713,5.4545,0.05,2.6374e-06,26.356,2.0252e-06,15.216,1.2449e-12,-5.4307e-07,-2.0252e-06,-15.216,1.0187
9663,14.713,5.1818,0,0.00018599,1858.6,7.5892e-05,176.18,5.2439e-05,-0.037215,-0.00018236,-1764.3,1.0199
9664,14.621,5.2727,0,0.00018683,1867,7.4129e-05,151.09,5.4018e-05,-0.013418,-0.0001838,-1786.9,1.0085
9665,14.713,5.2727,0.05,2.5364e-06,25.346,1.9476e-06,14.634,-4.3599e-13,-1.0766e-05,-1.9476e-06,-14.634,1.0195
9666,14.713,5,0,0.00019605,1959.2,8.1698e-05,206.65,5.4184e-05,-0.072342,-0.00019172,-1847.7,1.0206
9667,14.621,5.0909,0,0.00019552,1953.9,7.9408e-05,180.61,5.5366e-05,-0.040508,-0.00019182,-1857.3,1.0092
9668,14.713,5.0909,0.05,2.3986e-06,23.969,1.8418e-06,13.839,7.938e-15,-2.1665e-05,-1.8418e-06,-13.839,1.0202
9669,14.713,4.8182,0,0.00020677,2066.3,8.7137e-05,229.96,5.6518e-05,-0.10426,-0.0002019,-1941.8,1.0212
9670,14.621,4.9091,0,0.00020493,2047.9,8.4452e-05,204.34,5.7247e-05,-0.071172,-0.00020069,-1938.1,1.0099
9671,14.713,4.9091,0.05,2.2162e-06,22.147,1.7018e-06,12.786,-1.6903e-12,-4.538e-05,-1.7018e-06,-12.787,1.0209
9672,14.713,4.6364,0,0.00021766,2175.1,9.1806e-05,243.08,5.9437e-05,-0.13159,-0.0002125,-2043.4,1.0218
9673,14.621,4.7273,0,0.00021467,2145.2,8.8943e-05,219.92,5.966e-05,-0.096277,-0.00021008,-2026.8,1.0105
9674,14.713,4.7273,0.05,1.9922e-06,19.909,1.5298e-06,11.494,-5.6934e-12,-7.5017e-05,-1.5298e-06,-11.494,1.0215
9675,14.713,4.4545,0,0.00022817,2280.1,9.5348e-05,243.76,6.2884e-05,-0.15843,-0.00022304,-2148.5,1.0224
9676,14.621,4.5455,0,0.00022428,2241.3,9.2551e-05,225.14,6.2571e-05,-0.12054,-0.00021961,-2120.3,1.0111
9677,14.713,4.5455,0.05,1.7484e-06,17.471,1.3425e-06,10.087,-1.0663e-11,-0.00010892,-1.3425e-06,-10.087,1.0221
9678,14.713,4.2727,0,0.00023787,2377.1,9.7593e-05,231.77,6.6723e-05,-0.17937,-0.00023308,-2252.8,1.0229
9679,14.621,4.3636,0,0.00023334,2331.8,9.5051e-05,218.97,6.5888e-05,-0.1448,-0.00022884,-2214.6,1.0116
9680,14.713,4.3636,0.05,1.5279e-06,15.268,1.1732e-06,8.815,-1.8314e-11,-0.00020076,-1.1732e-06,-8.8151,1.0226
9681,14.713,4.0909,0,0.00024652,2463.5,9.866e-05,209.69,7.0727e-05,-0.18925,-0.00024228,-2352,1.0233
9682,14.621,4.1818,0,0.00024153,2413.6,9.6425e-05,202.54,6.9448e-05,-0.16102,-0.00023745,-2306,1.0121
9683,14.713,4.1818,0.05,1.3728e-06,13.719,1.0542e-06,7.9207,-2.2631e-11,-0.00025717,-1.0542e-06,-7.9206,1.0231
9684,14.713,3.9091,0,0.00025403,2538.6,9.8929e-05,182.53,7.4613e-05,-0.17125,-0.00025044,-2442.5,1.0236
9685,14.621,4,0,0.00024872,2485.5,9.6908e-05,179.3,7.3022e-05,-0.16374,-0.00024519,-2391.1,1.0124
9686,14.713,4,0.05,1.2937e-06,12.928,9.934e-07,7.4639,-2.1452e-11,-0.00024146,-9.9338e-07,-7.4639,1.0235
9687,14.713,3.7273,0,0.00026044,2602.6,9.8862e-05,155.93,7.8096e-05,-0.10094,-0.00025743,-2521.1,1.0239
9688,14.621,3.8182,0,0.00025491,2547.4,9.689e-05,154.12,7.636e-05,-0.13097,-0.00025194,-2466.9,1.0128
9689,14.713,3.8182,0.05,1.2724e-06,12.715,9.7707e-07,7.3413,-1.9844e-11,-0.00018033,-9.7706e-07,-7.3413,1.0238
9690,14.713,3.5455,0,0.00026568,2655,9.8799e-05,134.14,8.0947e-05,0.0022092,-0.00026315,-2585.4,1.0242
9691,14.621,3.6364,0,0.0002601,2599.2,9.6742e-05,131.51,7.9232e-05,-0.055756,-0.00025761,-2531,1.013
9692,14.713,3.6364,0.05,1.2924e-06,12.915,9.9237e-07,7.4562,-7.9873e-12,-0.00011348,-9.9237e-07,-7.4563,1.024
9693,14.713,3.3636,0,0.00026964,2694.5,9.8854e-05,119.01,8.3028e-05,0.097242,-0.00026741,-2633,1.0243
9694,14.621,3.4545,0,0.00026421,2640.3,9.6672e-05,114.24,8.1472e-05,0.033493,-0.00026208,-2581.3,1.0132
9695,14.713,3.4545,0.05,1.337e-06,13.361,1.0267e-06,7.7139,-4.1935e-13,-4.0441e-05,-1.0267e-06,-7.714,1.0242
9696,14.713,3.1818,0,0.00027211,2719.2,9.8964e-05,110.47,8.4282e-05,0.16165,-0.00027006,-2662.2,1.0244
9697,14.621,3.2727,0,0.00026709,2669.1,9.6701e-05,103.12,8.2991e-05,0.10969,-0.00026518,-2615.9,1.0133
9698,14.713,3.2727,0.05,1.3841e-06,13.832,1.0628e-06,7.9857,3.974e-12,-1.9002e-05,-1.0628e-06,-7.9859,1.0244
9699,14.713,3,0,0.00027295,2727.6,9.9017e-05,107.76,8.47e-05,0.1844,-0.00027096,-2672.1,1.0245
9700,14.621,3.0909,0,0.00026858,2683.9,9.6752e-05,97.809,8.3754e-05,0.15311,-0.00026678,-2633.6,1.0134
9701,14.713,3.0909,0.05,1.4128e-06,14.119,1.0849e-06,8.1512,5.8314e-12,1.5124e-06,-1.0849e-06,-8.1514,1.0244
9702,14.713,2.8182,0,0.00027211,2719.2,9.8963e-05,110.47,8.4282e-05,0.16165,-0.00027006,-2662.2,1.0244
9703,14.621,2.9091,0,0.00026858,2683.9,9.6752e-05,97.809,8.3754e-05,0.15311,-0.00026678,-2633.6,1.0134
9704,14.713,2.9091,0.05,1.4128e-06,14.119,1.0849e-06,8.1513,4.8825e-12,1.3196e-05,-1.0849e-06,-8.1514,1.0244
9705,14.713,2.6364,0,0.00026964,2694.5,9.8854e-05,119.01,8.3028e-05,0.097242,-0.00026741,-2633,1.0243
9706,14.621,2.7273,0,0.00026709,2669.1,9.6701e-05,103.12,8.2991e-05,0.10969,-0.00026518,-2615.9,1.0133
9707,14.713,2.7273,0.05,1.3841e-06,13.832,1.0628e-06,7.9858,5.4461e-12,2.0651e-05,-1.0629e-06,-7.9858,1.0244
9708,14.713,2.4545,0,0.00026568,2655,9.8799e-05,134.14,8.0947e-05,0.0022097,-0.00026315,-2585.4,1.0242
9709,14.621,2.5455,0,0.00026421,2640.3,9.6672e-05,114.24,8.1472e-05,0.033493,-0.00026208,-2581.3,1.0132
9710,14.713,2.5455,0.05,1.337e-06,13.361,1.0267e-06,7.7139,4.8641e-12,1.3405e-05,-1.0267e-06,-7.714,1.0242
9711,14.713,2.2727,0,0.00026044,2602.6,9.8862e-05,155.93,7.8096e-05,-0.10094,-0.00025743,-2521.1,1.0239
9712,14.621,2.3636,0,0.0002601,2599.2,9.6742e-05,131.51,7.9232e-05,-0.055755,-0.00025761,-2531,1.013
9713,14.713,2.3636,0.05,1.2924e-06,12.915,9.9237e-07,7.4562,3.079e-12,3.5006e-05,-9.9237e-07,-7.4563,1.024
9714,14.713,2.0909,0,0.00025403,2538.6,9.8929e-05,182.53,7.4613e-05,-0.17125,-0.00025044,-2442.5,1.0236
9715,14.621,2.1818,0,0.00025491,2547.4,9.689e-05,154.12,7.636e-05,-0.13097,-0.00025194,-2466.9,1.0128
9716,14.713,2.1818,0.05,1.2724e-06,12.715,9.7706e-07,7.3413,2.9798e-12,2.3272e-05,-9.7707e-07,-7.3413,1.0238
9717,14.713,1.9091,0,0.00024652,2463.5,9.866e-05,209.69,7.0727e-05,-0.18925,-0.00024228,-2352,1.0233
9718,14.621,2,0,0.00024872,2485.5,9.6908e-05,179.3,7.3022e-05,-0.16374,-0.00024519,-2391.1,1.0124
9719,14.713,2,0.05,1.2937e-06,12.928,9.9339e-07,7.4639,1.5487e-13,1.1054e-06,-9.9339e-07,-7.464,1.0235
9720,14.713,1.7273,0,0.00023787,2377.1,9.7593e-05,231.77,6.6723e-05,-0.17937,-0.00023308,-2252.8,1.0229
9721,14.621,1.8182,0,0.00024153,2413.6,9.6425e-05,202.54,6.9448e-05,-0.16102,-0.00023745,-2306,1.0121
9722,14.713,1.8182,0.05,1.3728e-06,13.719,1.0542e-06,7.9207,-1.1168e-12,-1.0302e-05,-1.0542e-06,-7.9207,1.0231
9723,14.713,1.5455,0,0.00022817,2280.1,9.5348e-05,243.76,6.2884e-05,-0.15843,-0.00022304,-2148.5,1.0224
9724,14.621,1.6364,0,0.00023334,2331.8,9.5051e-05,218.97,6.5888e-05,-0.1448,-0.00022884,-2214.6,1.0116
9725,14.713,1.6364,0.05,1.5279e-06,15.268,1.1732e-06,8.815,8.7137e-13,-9.1744e-06,-1.1732e-06,-8.8151,1.0226
9726,14.713,1.3636,0,0.00021766,2175.1,9.1806e-05,243.08,5.9437e-05,-0.13159,-0.0002125,-2043.4,1.0218
9727,14.621,1.4545,0,0.00022428,2241.3,9.2551e-05,225.14,6.2571e-05,-0.12054,-0.00021961,-2120.3,1.0111
9728,14.713,1.4545,0.05,1.7484e-06,17.471,1.3425e-06,10.087,3.1418e-13,-4.1702e-06,-1.3425e-06,-10.087,1.0221
9729,14.713,1.1818,0,0.00020677,2066.3,8.7137e-05,229.96,5.6518e-05,-0.10426,-0.0002019,-1941.8,1.0212
9730,14.621,1.2727,0,0.00021467,2145.2,8.8943e-05,219.92,5.966e-05,-0.096276,-0.00021008,-2026.8,1.0105
9731,14.713,1.2727,0.05,1.9922e-06,19.909,1.5298e-06,11.494,1.0753e-12,-3.2997e-06,-1.5298e-06,-11.494,1.0215
9732,14.713,1,0,0.00019605,1959.2,8.1698e-05,206.65,5.4184e-05,-0.072341,-0.00019172,-1847.7,1.0206
9733,14.621,1.0909,0,0.00020493,2047.9,8.4452e-05,204.34,5.7247e-05,-0.071172,-0.00020069,-1938.1,1.0099
9734,14.713,1.0909,0.05,2.2162e-06,22.147,1.7018e-06,12.787,-1.9346e-12,-1.779e-06,-1.7018e-06,-12.787,1.0209
9735,14.713,0.81818,0,0.00018599,1858.6,7.5892e-05,176.18,5.2439e-05,-0.037213,-0.00018236,-1764.3,1.0199
9736,14.621,0.90909,0,0.00019552,1953.9,7.9408e-05,180.61,5.5366e-05,-0.040506,-0.00019182,-1857.3,1.0092
9737,14.713,0.90909,0.05,2.3986e-06,23.969,1.8418e-06,13.839,-4.6369e-13,-9.8535e-07,-1.8418e-06,-13.839,1.0202
9738,14.713,0.63636,0,0.00017696,1768.4,7.0055e-05,141.2,5.1264e-05,0.013679,-0.00017413,-1693.5,1.0191
9739,14.621,0.72727,0,0.00018683,1867,7.4129e-05,151.09,5.4018e-05,-0.013416,-0.0001838,-1786.9,1.0085
9740,14.713,0.72727,0.05,2.5364e-06,25.346,1.9476e-06,14.634,-7.9947e-13,-2.7679e-06,-1.9476e-06,-14.634,1.0195
9741,14.713,0.45455,0,0.00016918,1690.6,6.438e-05,103.26,5.0636e-05,-0.0066298,-0.00016719,-1636.6,1.0183
9742,14.621,0.54545,0,0.00017913,1790,6.8839e-05,117.58,5.3196e-05,0.042863,-0.00017684,-1728.3,1.0077
9743,14.713,0.54545,0.05,2.6374e-06,26.356,2.0252e-06,15.216,-1.2552e-13,6.7591e-08,-2.0252e-06,-15.216,1.0187
9744,14.713,0.27273,0,0.00016268,1625.7,5.8874e-05,62.49,5.0564e-05,0.054959,-0.00016153,-1593.5,1.0175
9745,14.621,0.36364,0,0.00017252,1724,6.3631e-05,80.681,5.2882e-05,-0.082016,-0.00017101,-1682.3,1.0069
9746,14.713,0.36364,0.05,2.7211e-06,27.192,2.0895e-06,15.699,-1.1333e-12,6.3488e-07,-2.0895e-06,-15.699,1.0179
9747,14.621,0.18182,0,0.00016696,1668.5,5.8413e-05,39.855,5.3117e-05,0.063795,-0.00016625,-1648.1,1.0061
9748,14.713,0.18182,0.05,2.9302e-06,29.282,2.25e-06,16.906,-1.0447e-12,1.0795e-06,-2.25e-06,-16.906,1.017
9749,14.713,0.090909,0,0.00015768,1575.7,5.3862e-05,21.941,5.0943e-05,0.0095443,-0.00015729,-1564.6,1.0166
9750,14.529,5.7273,0,0.00017682,1766.9,6.3187e-05,58.179,5.5443e-05,-0.0077859,-0.00017575,-1737.1,0.99556
9751,14.437,5.8182,0,0.00018059,1804.7,6.2673e-05,36.926,5.7754e-05,-0.028853,-0.00017994,-1785.9,0.98422
9752,14.529,5.8182,0.05,2.5159e-06,25.142,1.9319e-06,14.515,1.5066e-12,9.0116e-06,-1.9319e-06,-14.515,0.99511
9753,14.529,5.9091,0,0.00017238,1722.6,5.86e-05,20.56,5.5863e-05,-0.0044788,-0.00017202,-1712.2,0.99469
9754,14.529,5.5455,0,0.00018253,1824,6.8147e-05,95.432,5.5443e-05,-0.022929,-0.00018072,-1774.4,0.9964
9755,14.437,5.6364,0,0.00018555,1854.2,6.7441e-05,74.708,5.7484e-05,-0.10511,-0.00018417,-1815.8,0.98508
9756,14.529,5.6364,0.05,2.4079e-06,24.062,1.8489e-06,13.892,1.6357e-12,5.9459e-06,-1.8489e-06,-13.892,0.99597
9757,14.529,5.3636,0,0.00018911,1889.8,7.3013e-05,128.22,5.595e-05,0.018702,-0.00018661,-1822.5,0.99719
9758,14.437,5.4545,0,0.00019123,1911,7.2014e-05,107.53,5.7707e-05,0.037337,-0.00018917,-1854.9,0.98589
9759,14.529,5.4545,0.05,2.3247e-06,23.231,1.7851e-06,13.413,2.2391e-12,3.1302e-06,-1.7851e-06,-13.413,0.99678
9760,14.529,5.1818,0,0.00019653,1964,7.7784e-05,156.56,5.6945e-05,-0.015818,-0.0001934,-1881,0.99794
9761,14.437,5.2727,0,0.00019765,1975.1,7.6453e-05,135.76,5.8384e-05,-0.0018655,-0.00019499,-1903.8,0.98665
9762,14.529,5.2727,0.05,2.2189e-06,22.174,1.7039e-06,12.802,1.409e-12,-5.8166e-06,-1.7039e-06,-12.802,0.99755
9763,14.529,5,0,0.00020461,2044.7,8.2329e-05,179.54,5.8428e-05,-0.039219,-0.00020096,-1949,0.99863
9764,14.437,5.0909,0,0.00020471,2045.7,8.0694e-05,159.09,5.9519e-05,-0.017211,-0.00020154,-1961.5,0.98737
9765,14.529,5.0909,0.05,2.0821e-06,20.807,1.5988e-06,12.013,1.7274e-12,-1.8233e-05,-1.5988e-06,-12.013,0.99827
9766,14.529,4.8182,0,0.00021305,2129,8.6433e-05,195.62,6.0388e-05,-0.063269,-0.00020905,-2024.5,0.99927
9767,14.437,4.9091,0,0.00021219,2120.4,8.4586e-05,176.45,6.1097e-05,-0.039614,-0.00020864,-2026.7,0.98803
9768,14.529,4.9091,0.05,1.9125e-06,19.111,1.4685e-06,11.034,-1.6415e-12,-3.8226e-05,-1.4685e-06,-11.034,0.99894
9769,14.529,4.6364,0,0.00022151,2213.6,8.9852e-05,203.22,6.2794e-05,-0.085007,-0.00021735,-2105,0.99986
9770,14.437,4.7273,0,0.00021981,2196.6,8.7933e-05,186.56,6.3095e-05,-0.059688,-0.00021604,-2097.4,0.98864
9771,14.529,4.7273,0.05,1.7159e-06,17.147,1.3176e-06,9.8996,-4.1726e-12,-6.1444e-05,-1.3176e-06,-9.8997,0.99955
9772,14.529,4.4545,0,0.00022963,2294.7,9.2392e-05,201.39,6.5575e-05,-0.10594,-0.00022554,-2187.5,1.0004
9773,14.437,4.5455,0,0.00022726,2271,9.0548e-05,188.4,6.5462e-05,-0.080225,-0.00022347,-2171,0.98918
9774,14.529,4.5455,0.05,1.5082e-06,15.071,1.1581e-06,8.7014,-7.316e-12,-9.4865e-05,-1.1581e-06,-8.7014,1.0001
9775,14.529,4.2727,0,0.00023713,2369.6,9.3988e-05,190.53,6.8613e-05,-0.12467,-0.00023331,-2268.7,1.0008
9776,14.437,4.3636,0,0.00023425,2340.8,9.2323e-05,181.82,6.8111e-05,-0.10038,-0.00023062,-2244.7,0.98967
9777,14.529,4.3636,0.05,1.3125e-06,13.116,1.0078e-06,7.5723,-1.5487e-11,-0.00013698,-1.0078e-06,-7.5723,1.0006
9778,14.529,4.0909,0,0.00024382,2436.5,9.4746e-05,172.7,7.1744e-05,-0.13338,-0.00024043,-2345.7,1.0013
9779,14.437,4.1818,0,0.00024057,2404.1,9.3285e-05,167.97,7.0913e-05,-0.11687,-0.00023728,-2315.7,0.9901
9780,14.529,4.1818,0.05,1.1497e-06,11.489,8.8284e-07,6.6333,-1.7236e-11,-0.00023632,-8.8283e-07,-6.6333,1.001
9781,14.529,3.9091,0,0.00024965,2494.8,9.4915e-05,151.25,7.477e-05,-0.12136,-0.00024674,-2415.8,1.0016
9782,14.437,4,0,0.00024614,2459.7,9.36e-05,149.35,7.3706e-05,-0.11963,-0.00024326,-2381.7,0.99047
9783,14.529,4,0.05,1.0291e-06,10.283,7.9019e-07,5.9372,-2.1107e-11,-0.00025093,-7.9018e-07,-5.9371,1.0014
9784,14.529,3.7273,0,0.0002546,2544.3,9.4794e-05,129.89,7.7496e-05,-0.083087,-0.00025215,-2476.9,1.0019
9785,14.437,3.8182,0,0.00025092,2507.5,9.3523e-05,129.2,7.6314e-05,-0.10022,-0.00024848,-2440.5,0.99078
9786,14.529,3.8182,0.05,9.5063e-07,9.4997,7.2997e-07,5.4847,-1.9077e-11,-0.00019263,-7.2996e-07,-5.4847,1.0017
9787,14.529,3.5455,0,0.00025863,2584.5,9.4619e-05,111.64,7.9757e-05,-0.019763,-0.00025655,-2526.9,1.0021
9788,14.437,3.6364,0,0.00025491,2547.3,9.3303e-05,110.59,7.8577e-05,-0.055564,-0.00025285,-2490.2,0.99102
9789,14.529,3.6364,0.05,9.1319e-07,9.1256,7.0122e-07,5.2686,-9.3843e-12,-0.00013543,-7.0121e-07,-5.2687,1.002
9790,14.529,3.3636,0,0.00026165,2614.7,9.4506e-05,98.25,8.1437e-05,0.053419,-0.00025984,-2564.2,1.0023
9791,14.437,3.4545,0,0.00025803,2578.6,9.3105e-05,95.719,8.0366e-05,0.0079626,-0.00025627,-2529.4,0.99121
9792,14.529,3.4545,0.05,9.1087e-07,9.1024,6.9943e-07,5.2552,-6.9703e-12,-7.542e-05,-6.9944e-07,-5.2553,1.0022
9793,14.529,3.1818,0,0.00026353,2633.5,9.4464e-05,90.266,8.2465e-05,0.11082,-0.00026188,-2587.2,1.0023
9794,14.437,3.2727,0,0.00026021,2600.3,9.2987e-05,85.643,8.1598e-05,0.070151,-0.00025864,-2556.4,0.99133
9795,14.529,3.2727,0.05,9.2704e-07,9.264,7.1185e-07,5.3485,1.8834e-12,-2.1602e-05,-7.1186e-07,-5.3486,1.0023
9796,14.529,3,0,0.00026417,2639.9,9.4457e-05,87.636,8.2811e-05,0.1323,-0.00026257,-2594.9,1.0024
9797,14.437,3.0909,0,0.00026133,2611.5,9.2939e-05,80.626,8.2223e-05,0.10825,-0.00025986,-2570.2,0.99139
9798,14.529,3.0909,0.05,9.415e-07,9.4085,7.2295e-07,5.4319,4.7689e-12,5.4632e-06,-7.2296e-07,-5.4321,1.0023
9799,14.529,2.8182,0,0.00026353,2633.5,9.4464e-05,90.266,8.2465e-05,0.11082,-0.00026188,-2587.2,1.0023
9800,14.437,2.9091,0,0.00026133,2611.5,9.2939e-05,80.626,8.2223e-05,0.10825,-0.00025986,-2570.2,0.99139
9801,14.529,2.9091,0.05,9.415e-07,9.4085,7.2295e-07,5.4319,7.5599e-12,1.7933e-05,-7.2296e-07,-5.432,1.0023
9802,14.529,2.6364,0,0.00026165,2614.7,9.4506e-05,98.25,8.1437e-05,0.053419,-0.00025984,-2564.2,1.0023
9803,14.437,2.7273,0,0.00026021,2600.3,9.2987e-05,85.643,8.1598e-05,0.070152,-0.00025864,-2556.4,0.99133
9804,14.529,2.7273,0.05,9.2704e-07,9.264,7.1185e-07,5.3485,6.0988e-12,2.5169e-05,-7.1186e-07,-5.3486,1.0023
9805,14.529,2.4545,0,0.00025863,2584.5,9.4619e-05,111.64,7.9757e-05,-0.019763,-0.00025655,-2526.9,1.0021
9806,14.437,2.5455,0,0.00025803,2578.6,9.3105e-05,95.719,8.0366e-05,0.0079623,-0.00025627,-2529.4,0.99121
9807,14.529,2.5455,0.05,9.1087e-07,9.1024,6.9943e-07,5.2552,6.2289e-12,4.2016e-06,-6.9944e-07,-5.2553,1.0022
9808,14.529,2.2727,0,0.0002546,2544.3,9.4794e-05,129.89,7.7496e-05,-0.083087,-0.00025215,-2476.9,1.0019
9809,14.437,2.3636,0,0.00025491,2547.3,9.3303e-05,110.59,7.8577e-05,-0.055564,-0.00025285,-2490.2,0.99102
9810,14.529,2.3636,0.05,9.1319e-07,9.1256,7.0122e-07,5.2686,2.31e-12,-3.1859e-05,-7.0122e-07,-5.2687,1.002
9811,14.529,2.0909,0,0.00024965,2494.8,9.4915e-05,151.25,7.477e-05,-0.12136,-0.00024674,-2415.8,1.0016
9812,14.437,2.1818,0,0.00025092,2507.5,9.3523e-05,129.2,7.6314e-05,-0.10022,-0.00024848,-2440.5,0.99078
9813,14.529,2.1818,0.05,9.5063e-07,9.4997,7.2997e-07,5.4847,-5.2506e-12,-4.6492e-05,-7.2996e-07,-5.4847,1.0017
9814,14.529,1.9091,0,0.00024382,2436.5,9.4746e-05,172.7,7.1744e-05,-0.13338,-0.00024043,-2345.7,1.0013
9815,14.437,2,0,0.00024614,2459.7,9.36e-05,149.35,7.3706e-05,-0.11963,-0.00024326,-2381.7,0.99047
9816,14.529,2,0.05,1.0291e-06,10.283,7.9019e-07,5.9371,-8.9684e-13,-7.2579e-06,-7.9019e-07,-5.9372,1.0014
9817,14.529,1.7273,0,0.00023713,2369.6,9.3988e-05,190.53,6.8613e-05,-0.12467,-0.00023331,-2268.7,1.0008
9818,14.437,1.8182,0,0.00024057,2404.1,9.3285e-05,167.97,7.0913e-05,-0.11687,-0.00023728,-2315.7,0.9901
9819,14.529,1.8182,0.05,1.1497e-06,11.489,8.8283e-07,6.6333,-2.0855e-12,-1.469e-05,-8.8283e-07,-6.6333,1.001
9820,14.529,1.5455,0,0.00022963,2294.7,9.2392e-05,201.39,6.5575e-05,-0.10594,-0.00022554,-2187.5,1.0004
9821,14.437,1.6364,0,0.00023425,2340.8,9.2323e-05,181.82,6.8111e-05,-0.10038,-0.00023062,-2244.7,0.98967
9822,14.529,1.6364,0.05,1.3125e-06,13.116,1.0078e-06,7.5723,-1.8018e-12,-1.508e-05,-1.0078e-06,-7.5723,1.0006
9823,14.529,1.3636,0,0.00022151,2213.6,8.9852e-05,203.22,6.2794e-05,-0.085007,-0.00021735,-2105,0.99986
9824,14.437,1.4545,0,0.00022726,2271,9.0548e-05,188.4,6.5462e-05,-0.080225,-0.00022347,-2171,0.98918
9825,14.529,1.4545,0.05,1.5082e-06,15.071,1.1581e-06,8.7014,-1.1117e-12,-9.6538e-06,-1.1581e-06,-8.7014,1.0001
9826,14.529,1.1818,0,0.00021305,2129,8.6433e-05,195.62,6.0388e-05,-0.063269,-0.00020905,-2024.5,0.99927
9827,14.437,1.2727,0,0.00021981,2196.6,8.7933e-05,186.56,6.3095e-05,-0.059688,-0.00021604,-2097.4,0.98864
9828,14.529,1.2727,0.05,1.7159e-06,17.147,1.3176e-06,9.8997,-3.3448e-13,-3.1874e-06,-1.3176e-06,-9.8997,0.99955
9829,14.529,1,0,0.00020461,2044.7,8.2329e-05,179.54,5.8428e-05,-0.039218,-0.00020096,-1949,0.99863
9830,14.437,1.0909,0,0.00021219,2120.4,8.4586e-05,176.45,6.1097e-05,-0.039614,-0.00020864,-2026.7,0.98803
9831,14.529,1.0909,0.05,1.9125e-06,19.111,1.4685e-06,11.034,-2.7433e-13,-4.1777e-06,-1.4685e-06,-11.034,0.99894
9832,14.529,0.81818,0,0.00019653,1964,7.7784e-05,156.56,5.6945e-05,-0.015817,-0.0001934,-1881,0.99794
9833,14.437,0.90909,0,0.00020471,2045.7,8.0694e-05,159.09,5.9519e-05,-0.017209,-0.00020154,-1961.5,0.98737
9834,14.529,0.90909,0.05,2.0821e-06,20.807,1.5988e-06,12.013,3.4554e-13,-6.2831e-07,-1.5988e-06,-12.013,0.99827
9835,14.529,0.63636,0,0.00018911,1889.8,7.3013e-05,128.22,5.595e-05,0.018703,-0.00018661,-1822.5,0.99719
9836,14.437,0.72727,0,0.00019765,1975.1,7.6453e-05,135.76,5.8384e-05,-0.0018636,-0.00019499,-1903.8,0.98665
9837,14.529,0.72727,0.05,2.2189e-06,22.174,1.7039e-06,12.802,-8.0836e-13,-2.2273e-06,-1.7039e-06,-12.802,0.99755
9838,14.529,0.45455,0,0.00018253,1824,6.8147e-05,95.432,5.5443e-05,-0.022929,-0.00018072,-1774.4,0.9964
9839,14.437,0.54545,0,0.00019123,1911,7.2014e-05,107.53,5.7707e-05,0.037338,-0.00018917,-1854.9,0.98589
9840,14.529,0.54545,0.05,2.3247e-06,23.231,1.7851e-06,13.413,-1.0217e-12,-2.721e-06,-1.7851e-06,-13.413,0.99678
9841,14.529,0.27273,0,0.00017682,1766.9,6.3187e-05,58.179,5.5443e-05,-0.0077863,-0.00017575,-1737.1,0.99556
9842,14.437,0.36364,0,0.00018555,1854.2,6.7441e-05,74.708,5.7484e-05,-0.10511,-0.00018417,-1815.8,0.98508
9843,14.529,0.36364,0.05,2.4079e-06,24.062,1.8489e-06,13.892,-1.1347e-12,2.6935e-07,-1.8489e-06,-13.892,0.99597
9844,14.437,0.18182,0,0.00018059,1804.7,6.2673e-05,36.926,5.7754e-05,-0.028853,-0.00017994,-1785.9,0.98422
9845,14.529,0.18182,0.05,2.5159e-06,25.142,1.9319e-06,14.515,-5.8133e-13,2.7754e-06,-1.9319e-06,-14.515,0.99511
9846,14.529,0.090909,0,0.00017238,1722.6,5.86e-05,20.56,5.5863e-05,-0.0044787,-0.00017202,-1712.2,0.99469
9847,14.345,5.7273,0,0.00018933,1892,6.6931e-05,53.487,5.9805e-05,-0.04982,-0.00018836,-1864.7,0.97378
9848,14.253,5.8182,0,0.00019271,1925.8,6.6433e-05,34.006,6.1896e-05,-0.085103,-0.00019211,-1908.6,0.96251
9849,14.345,5.8182,0.05,2.139e-06,21.375,1.6425e-06,12.341,3.2581e-12,6.5888e-06,-1.6425e-06,-12.341,0.97333
9850,14.345,5.9091,0,0.00018542,1852.9,6.2784e-05,19.125,6.0237e-05,-0.01263,-0.00018508,-1843.3,0.97291
9851,14.345,5.5455,0,0.00019428,1941.5,7.1343e-05,87.072,5.975e-05,-0.033333,-0.00019266,-1896.5,0.97461
9852,14.253,5.6364,0,0.00019706,1969.2,7.0708e-05,68.263,6.1608e-05,-0.11575,-0.00019581,-1934.2,0.96336
9853,14.345,5.6364,0.05,2.1321e-06,21.306,1.6372e-06,12.301,8.7363e-13,9.126e-06,-1.6372e-06,-12.301,0.97418
9854,14.345,5.3636,0,0.00019984,1997,7.5515e-05,115.53,6.0142e-05,0.020759,-0.00019762,-1936.7,0.9754
9855,14.253,5.4545,0,0.0002019,2017.6,7.47e-05,97.316,6.1752e-05,0.031987,-0.00020007,-1967.2,0.96416
9856,14.345,5.4545,0.05,2.0572e-06,20.558,1.5797e-06,11.869,1.4157e-12,7.5553e-06,-1.5797e-06,-11.869,0.97499
9857,14.345,5.1818,0,0.00020593,2057.8,7.9447e-05,138.92,6.0958e-05,-0.0016215,-0.00020321,-1984.9,0.97613
9858,14.253,5.2727,0,0.00020724,2071,7.844e-05,121.34,6.2291e-05,0.0057223,-0.00020491,-2007.6,0.96492
9859,14.345,5.2727,0.05,1.9565e-06,19.551,1.5023e-06,11.288,2.3964e-12,-1.4275e-06,-1.5023e-06,-11.288,0.97575
9860,14.345,5,0,0.00021241,2122.6,8.3049e-05,156.73,6.2187e-05,-0.016893,-0.00020931,-2039.9,0.97681
9861,14.253,5.0909,0,0.00021297,2128.2,8.188e-05,140.19,6.3222e-05,-0.0016428,-0.00021024,-2054.7,0.96563
9862,14.345,5.0909,0.05,1.8305e-06,18.293,1.4056e-06,10.561,1.8169e-12,-9.5771e-06,-1.4056e-06,-10.561,0.97646
9863,14.345,4.8182,0,0.00021908,2189.3,8.6189e-05,168.16,6.3803e-05,-0.035635,-0.00021573,-2100.4,0.97744
9864,14.253,4.9091,0,0.00021893,2187.8,8.4923e-05,153.28,6.452e-05,-0.018146,-0.00021592,-2107.1,0.96628
9865,14.345,4.9091,0.05,1.6805e-06,16.794,1.2905e-06,9.6959,-4.1449e-13,-2.602e-05,-1.2905e-06,-9.696,0.97712
9866,14.345,4.6364,0,0.00022568,2255.3,8.8726e-05,172.48,6.5763e-05,-0.054428,-0.00022225,-2164.1,0.97801
9867,14.253,4.7273,0,0.00022491,2247.6,8.7453e-05,160.02,6.6151e-05,-0.034473,-0.00022177,-2163.3,0.96687
9868,14.345,4.7273,0.05,1.5119e-06,15.109,1.161e-06,8.7232,-2.26e-12,-4.9486e-05,-1.161e-06,-8.7232,0.97772
9869,14.345,4.4545,0,0.00023198,2318.2,9.0562e-05,169.46,6.7999e-05,-0.073869,-0.00022863,-2228.8,0.97853
9870,14.253,4.5455,0,0.00023071,2305.5,8.937e-05,160.04,6.8064e-05,-0.052347,-0.00022757,-2221.3,0.96741
9871,14.345,4.5455,0.05,1.3348e-06,13.339,1.025e-06,7.7012,-6.536e-12,-7.1498e-05,-1.025e-06,-7.7013,0.97826
9872,14.345,4.2727,0,0.00023777,2376.1,9.1685e-05,159.75,7.0411e-05,-0.091473,-0.00023465,-2292.2,0.97898
9873,14.253,4.3636,0,0.00023611,2359.5,9.0632e-05,153.61,7.0179e-05,-0.070254,-0.00023313,-2279,0.96789
9874,14.345,4.3636,0.05,1.1614e-06,11.606,8.9181e-07,6.7007,-1.1529e-11,-9.9228e-05,-8.918e-07,-6.7007,0.97874
9875,14.345,4.0909,0,0.00024295,2427.8,9.2186e-05,144.98,7.2876e-05,-0.10195,-0.00024016,-2352.1,0.97938
9876,14.253,4.1818,0,0.000241,2408.3,9.1281e-05,141.82,7.2395e-05,-0.084701,-0.00023828,-2334.3,0.96831
9877,14.345,4.1818,0.05,1.0017e-06,10.01,7.6919e-07,5.7794,-1.5319e-11,-0.00014031,-7.6918e-07,-5.7793,0.97917
9878,14.345,3.9091,0,0.00024745,2472.8,9.2239e-05,127.55,7.5251e-05,-0.097434,-0.00024503,-2406.6,0.97971
9879,14.253,4,0,0.0002453,2451.3,9.1444e-05,126.53,7.4591e-05,-0.089715,-0.0002429,-2385.6,0.96867
9880,14.345,4,0.05,8.612e-07,8.6061,6.6131e-07,4.9688,-1.9703e-11,-0.00021041,-6.6129e-07,-4.9687,0.97953
9881,14.345,3.7273,0,0.00025125,2510.7,9.205e-05,110.04,7.7395e-05,-0.07136,-0.0002492,-2453.9,0.97998
9882,14.253,3.8182,0,0.00024897,2488,9.1298e-05,110.04,7.6642e-05,-0.078256,-0.00024692,-2431.2,0.96897
9883,14.345,3.8182,0.05,7.4338e-07,7.4286,5.7083e-07,4.2889,-1.8424e-11,-0.00018486,-5.7081e-07,-4.2889,0.97983
9884,14.345,3.5455,0,0.00025431,2541.4,9.1795e-05,94.713,7.9186e-05,-0.025046,-0.00025257,-2492.7,0.98019
9885,14.253,3.6364,0,0.000252,2518.3,9.1022e-05,94.578,7.8428e-05,-0.047082,-0.00025026,-2469.7,0.96921
9886,14.345,3.6364,0.05,6.537e-07,6.5325,5.0196e-07,3.7715,-1.8379e-11,-0.00013119,-5.0195e-07,-3.7715,0.98008
9887,14.345,3.3636,0,0.00025659,2564.1,9.1581e-05,83.077,8.0528e-05,0.030211,-0.00025507,-2521.5,0.98034
9888,14.253,3.4545,0,0.00025436,2541.8,9.0747e-05,81.876,7.985e-05,-0.0012247,-0.00025287,-2499.9,0.96939
9889,14.345,3.4545,0.05,5.972e-07,5.9679,4.5858e-07,3.4455,-1.0435e-11,-0.00012424,-4.5858e-07,-3.4456,0.98026
9890,14.345,3.1818,0,0.00025799,2578.2,9.145e-05,75.915,8.1357e-05,0.075949,-0.00025662,-2539.3,0.98044
9891,14.253,3.2727,0,0.00025598,2558.1,9.0547e-05,73.01,8.0836e-05,0.045928,-0.00025466,-2520.8,0.96951
9892,14.345,3.2727,0.05,5.7083e-07,5.7044,4.3833e-07,3.2934,-5.9014e-14,-3.6558e-05,-4.3833e-07,-3.2935,0.98038
9893,14.345,3,0,0.00025847,2582.9,9.1408e-05,73.509,8.1637e-05,0.093805,-0.00025714,-2545.4,0.98047
9894,14.253,3.0909,0,0.00025681,2566.4,9.0445e-05,68.491,8.134e-05,0.07627,-0.00025558,-2531.4,0.96957
9895,14.345,3.0909,0.05,5.6285e-07,5.6246,4.322e-07,3.2473,5.2032e-12,6.9176e-06,-4.322e-07,-3.2474,0.98044
9896,14.345,2.8182,0,0.00025799,2578.2,9.145e-05,75.915,8.1357e-05,0.075949,-0.00025662,-2539.3,0.98044
9897,14.253,2.9091,0,0.00025681,2566.4,9.0445e-05,68.491,8.134e-05,0.07627,-0.00025558,-2531.4,0.96957
9898,14.345,2.9091,0.05,5.6285e-07,5.6246,4.322e-07,3.2473,6.7019e-12,2.3281e-05,-4.322e-07,-3.2474,0.98044
9899,14.345,2.6364,0,0.00025659,2564.1,9.1581e-05,83.077,8.0528e-05,0.030211,-0.00025507,-2521.5,0.98034
9900,14.253,2.7273,0,0.00025598,2558.1,9.0547e-05,73.01,8.0836e-05,0.045929,-0.00025466,-2520.8,0.96951
9901,14.345,2.7273,0.05,5.7083e-07,5.7044,4.3832e-07,3.2934,3.771e-12,1.0611e-05,-4.3834e-07,-3.2935,0.98038
9902,14.345,2.4545,0,0.00025431,2541.4,9.1795e-05,94.713,7.9186e-05,-0.025046,-0.00025257,-2492.7,0.98019
9903,14.253,2.5455,0,0.00025436,2541.8,9.0747e-05,81.876,7.985e-05,-0.0012252,-0.00025287,-2499.9,0.96939
9904,14.345,2.5455,0.05,5.972e-07,5.9679,4.5858e-07,3.4455,1.8621e-12,-1.7791e-05,-4.5858e-07,-3.4456,0.98026
9905,14.345,2.2727,0,0.00025125,2510.7,9.205e-05,110.04,7.7395e-05,-0.07136,-0.0002492,-2453.9,0.97998
9906,14.253,2.3636,0,0.000252,2518.3,9.1021e-05,94.578,7.8428e-05,-0.047081,-0.00025026,-2469.7,0.96921
9907,14.345,2.3636,0.05,6.537e-07,6.5325,5.0196e-07,3.7715,-6.1054e-13,2.0059e-05,-5.0196e-07,-3.7715,0.98008
9908,14.345,2.0909,0,0.00024745,2472.8,9.2239e-05,127.55,7.5251e-05,-0.097435,-0.00024503,-2406.6,0.97971
9909,14.253,2.1818,0,0.00024897,2488,9.1298e-05,110.04,7.6642e-05,-0.078255,-0.00024692,-2431.2,0.96897
9910,14.345,2.1818,0.05,7.4338e-07,7.4286,5.7082e-07,4.2889,-3.9928e-12,-3.3181e-05,-5.7082e-07,-4.2889,0.97983
9911,14.345,1.9091,0,0.00024295,2427.8,9.2185e-05,144.98,7.2876e-05,-0.10195,-0.00024016,-2352.1,0.97938
9912,14.253,2,0,0.0002453,2451.3,9.1444e-05,126.53,7.4591e-05,-0.089716,-0.0002429,-2385.6,0.96867
9913,14.345,2,0.05,8.6121e-07,8.6061,6.613e-07,4.9687,-3.7028e-12,-1.6684e-05,-6.613e-07,-4.9687,0.97953
9914,14.345,1.7273,0,0.00023777,2376.1,9.1685e-05,159.75,7.0411e-05,-0.091472,-0.00023465,-2292.2,0.97898
9915,14.253,1.8182,0,0.000241,2408.3,9.1281e-05,141.82,7.2395e-05,-0.084701,-0.00023828,-2334.3,0.96831
9916,14.345,1.8182,0.05,1.0017e-06,10.01,7.6919e-07,5.7793,-2.2537e-12,-6.0744e-05,-7.6918e-07,-5.7794,0.97917
9917,14.345,1.5455,0,0.00023198,2318.2,9.0562e-05,169.46,6.7999e-05,-0.073868,-0.00022863,-2228.8,0.97853
9918,14.253,1.6364,0,0.00023611,2359.5,9.0632e-05,153.61,7.0179e-05,-0.070253,-0.00023313,-2279,0.96789
9919,14.345,1.6364,0.05,1.1614e-06,11.606,8.918e-07,6.7007,-1.7593e-12,-1.8202e-05,-8.918e-07,-6.7007,0.97874
9920,14.345,1.3636,0,0.00022568,2255.3,8.8726e-05,172.48,6.5763e-05,-0.054428,-0.00022225,-2164.1,0.97801
9921,14.253,1.4545,0,0.00023071,2305.5,8.937e-05,160.04,6.8064e-05,-0.052347,-0.00022757,-2221.3,0.96741
9922,14.345,1.4545,0.05,1.3348e-06,13.339,1.025e-06,7.7012,-6.4274e-13,-1.132e-05,-1.025e-06,-7.7012,0.97826
9923,14.345,1.1818,0,0.00021908,2189.3,8.6189e-05,168.16,6.3803e-05,-0.035634,-0.00021573,-2100.4,0.97744
9924,14.253,1.2727,0,0.00022491,2247.6,8.7453e-05,160.02,6.6151e-05,-0.034472,-0.00022177,-2163.3,0.96687
9925,14.345,1.2727,0.05,1.5119e-06,15.109,1.161e-06,8.7232,-1.6045e-12,-7.7974e-06,-1.161e-06,-8.7232,0.97772
9926,14.345,1,0,0.00021241,2122.6,8.3049e-05,156.73,6.2187e-05,-0.016892,-0.00020931,-2039.9,0.97681
9927,14.253,1.0909,0,0.00021893,2187.8,8.4923e-05,153.28,6.452e-05,-0.018146,-0.00021592,-2107.1,0.96628
9928,14.345,1.0909,0.05,1.6805e-06,16.794,1.2905e-06,9.696,-5.2649e-13,-3.0072e-06,-1.2905e-06,-9.696,0.97712
9929,14.345,0.81818,0,0.00020593,2057.8,7.9447e-05,138.92,6.0958e-05,-0.0016195,-0.00020321,-1984.9,0.97613
9930,14.253,0.90909,0,0.00021297,2128.2,8.188e-05,140.19,6.3222e-05,-0.0016418,-0.00021024,-2054.7,0.96563
9931,14.345,0.90909,0.05,1.8305e-06,18.293,1.4056e-06,10.561,2.0274e-13,-4.1463e-06,-1.4056e-06,-10.561,0.97646
9932,14.345,0.63636,0,0.00019984,1997,7.5515e-05,115.53,6.0142e-05,0.020761,-0.00019762,-1936.7,0.9754
9933,14.253,0.72727,0,0.00020724,2071,7.844e-05,121.34,6.2291e-05,0.0057244,-0.00020491,-2007.6,0.96492
9934,14.345,0.72727,0.05,1.9565e-06,19.551,1.5023e-06,11.288,-8.5658e-13,-1.6035e-06,-1.5023e-06,-11.288,0.97575
9935,14.345,0.45455,0,0.00019428,1941.5,7.1343e-05,87.072,5.975e-05,-0.033332,-0.00019266,-1896.5,0.97461
9936,14.253,0.54545,0,0.0002019,2017.6,7.47e-05,97.316,6.1752e-05,0.031989,-0.00020007,-1967.2,0.96416
9937,14.345,0.54545,0.05,2.0572e-06,20.558,1.5797e-06,11.869,-1.0178e-12,-2.4775e-06,-1.5797e-06,-11.869,0.97499
9938,14.345,0.27273,0,0.00018933,1892,6.6931e-05,53.487,5.9805e-05,-0.04982,-0.00018836,-1864.7,0.97378
9939,14.253,0.36364,0,0.00019706,1969.2,7.0708e-05,68.263,6.1608e-05,-0.11575,-0.00019581,-1934.2,0.96336
9940,14.345,0.36364,0.05,2.1321e-06,21.306,1.6372e-06,12.301,-1.5954e-13,4.4777e-07,-1.6372e-06,-12.301,0.97418
9941,14.253,0.18182,0,0.00019271,1925.8,6.6433e-05,34.006,6.1896e-05,-0.085103,-0.00019211,-1908.6,0.96251
9942,14.345,0.18182,0.05,2.139e-06,21.375,1.6425e-06,12.341,-1.9509e-12,2.8027e-06,-1.6425e-06,-12.341,0.97333
9943,14.345,0.090909,0,0.00018542,1852.9,6.2784e-05,19.125,6.0237e-05,-0.012629,-0.00018508,-1843.3,0.97291
9944,14.161,5.7273,0,0.00020044,2003,7.0207e-05,48.751,6.3708e-05,-0.07385,-0.00019956,-1978.2,0.95213
9945,14.069,5.8182,0,0.00020353,2033.9,6.9774e-05,31.235,6.5602e-05,-0.11217,-0.00020298,-2018.2,0.94092
9946,14.161,5.8182,0.05,1.8055e-06,18.042,1.3864e-06,10.417,2.3764e-12,6.6824e-06,-1.3864e-06,-10.417,0.95167
9947,14.161,5.9091,0,0.00019701,1968.8,6.6495e-05,17.737,6.4132e-05,-0.015994,-0.0001967,-1959.8,0.95125
9948,14.161,5.5455,0,0.00020469,2045.5,7.4087e-05,78.667,6.3612e-05,-0.038496,-0.00020324,-2005.1,0.95296
9949,14.069,5.6364,0,0.00020728,2071.4,7.3548e-05,61.782,6.531e-05,-0.11735,-0.00020616,-2039.9,0.94177
9950,14.161,5.6364,0.05,1.8951e-06,18.938,1.4552e-06,10.934,2.6307e-12,9.7547e-06,-1.4552e-06,-10.934,0.95253
9951,14.161,5.3636,0,0.00020935,2092.1,7.7662e-05,103.41,6.3902e-05,0.021282,-0.0002074,-2038.4,0.95374
9952,14.069,5.4545,0,0.00021139,2112.5,7.7012e-05,87.356,6.539e-05,0.027174,-0.00020977,-2067.4,0.94257
9953,14.161,5.4545,0.05,1.8327e-06,18.314,1.4072e-06,10.573,2.3879e-12,9.099e-06,-1.4073e-06,-10.574,0.95333
9954,14.161,5.1818,0,0.00021435,2142,8.0923e-05,122.99,6.4556e-05,0.0076604,-0.00021199,-2077.8,0.95446
9955,14.069,5.2727,0,0.00021582,2156.7,8.0171e-05,107.94,6.5807e-05,0.010384,-0.00021378,-2100.7,0.94333
9956,14.161,5.2727,0.05,1.742e-06,17.408,1.3377e-06,10.051,3.4343e-12,4.1737e-06,-1.3377e-06,-10.051,0.95409
9957,14.161,5,0,0.00021956,2194.1,8.3812e-05,137.18,6.5555e-05,-0.0018877,-0.00021691,-2122.3,0.95514
9958,14.069,5.0909,0,0.00022047,2203.2,8.2986e-05,123.47,6.6554e-05,0.0083853,-0.00021811,-2138.9,0.94403
9959,14.161,5.0909,0.05,1.6311e-06,16.299,1.2524e-06,9.4104,2.1051e-12,-3.7232e-06,-1.2525e-06,-9.4105,0.95479
9960,14.161,4.8182,0,0.00022484,2246.9,8.6248e-05,145.6,6.6868e-05,-0.016365,-0.00022201,-2170.6,0.95576
9961,14.069,4.9091,0,0.00022523,2250.7,8.5396e-05,133.67,6.7605e-05,-0.0036755,-0.00022266,-2180.9,0.94467
9962,14.161,4.9091,0.05,1.502e-06,15.01,1.1534e-06,8.6659,1.0752e-12,-1.6065e-05,-1.1534e-06,-8.666,0.95544
9963,14.161,4.6364,0,0.00023001,2298.5,8.8155e-05,148.01,6.8452e-05,-0.031857,-0.00022714,-2221,0.95632
9964,14.069,4.7273,0,0.00022994,2297.8,8.7335e-05,138.32,6.8924e-05,-0.016673,-0.00022727,-2225.5,0.94526
9965,14.161,4.7273,0.05,1.3591e-06,13.582,1.0436e-06,7.8415,-2.6239e-12,-3.3842e-05,-1.0436e-06,-7.8416,0.95603
9966,14.161,4.4545,0,0.00023491,2347.4,8.949e-05,144.56,7.0243e-05,-0.048135,-0.00023211,-2271.8,0.95683
9967,14.069,4.5455,0,0.00023445,2342.9,8.8756e-05,137.44,7.046e-05,-0.031494,-0.00023181,-2271.2,0.94579
9968,14.161,4.5455,0.05,1.2086e-06,12.077,9.2804e-07,6.9729,-2.9442e-12,-5.1603e-05,-9.2804e-07,-6.973,0.95656
9969,14.161,4.2727,0,0.00023939,2392.3,9.0268e-05,135.98,7.2162e-05,-0.062832,-0.00023679,-2321.4,0.95727
9970,14.069,4.3636,0,0.00023865,2384.8,8.9651e-05,131.48,7.2147e-05,-0.046259,-0.00023614,-2316.4,0.94627
9971,14.161,4.3636,0.05,1.0567e-06,10.56,8.1145e-07,6.0969,-7.2949e-12,-7.6058e-05,-8.1145e-07,-6.0969,0.95704
9972,14.161,4.0909,0,0.00024338,2432.2,9.0569e-05,123.6,7.411e-05,-0.071892,-0.00024105,-2368,0.95766
9973,14.069,4.1818,0,0.00024242,2422.5,9.007e-05,121.41,7.3904e-05,-0.058218,-0.00024012,-2359.5,0.94668
9974,14.161,4.1818,0.05,9.0825e-07,9.0762,6.9742e-07,5.2401,-1.1368e-11,-0.0001087,-6.9742e-07,-5.2402,0.95746
9975,14.161,3.9091,0,0.00024684,2466.7,9.0524e-05,109.19,7.5983e-05,-0.070119,-0.0002448,-2410.3,0.95799
9976,14.069,4,0,0.00024572,2455.5,9.0113e-05,108.69,7.5638e-05,-0.06298,-0.00024369,-2399.4,0.94703
9977,14.161,4,0.05,7.6531e-07,7.6479,5.8767e-07,4.4155,-1.4569e-11,-0.00015172,-5.8766e-07,-4.4155,0.95781
9978,14.161,3.7273,0,0.00024974,2495.6,9.0282e-05,94.672,7.7674e-05,-0.053423,-0.00024799,-2447,0.95825
9979,14.069,3.8182,0,0.00024853,2483.5,8.9912e-05,95.033,7.7256e-05,-0.056103,-0.00024677,-2434.7,0.94733
9980,14.161,3.8182,0.05,6.2939e-07,6.2896,4.833e-07,3.6313,-1.7233e-11,-0.0001458,-4.8329e-07,-3.6313,0.95811
9981,14.161,3.5455,0,0.00025205,2518.8,8.9979e-05,81.781,7.9092e-05,-0.021656,-0.00025056,-2476.9,0.95846
9982,14.069,3.6364,0,0.00025082,2506.5,8.9601e-05,82.117,7.8667e-05,-0.035251,-0.00024932,-2464.4,0.94757
9983,14.161,3.6364,0.05,5.0374e-07,5.0339,3.8682e-07,2.9064,-2.1852e-11,-0.00015303,-3.868e-07,-2.9063,0.95835
9984,14.161,3.3636,0,0.00025375,2535.8,8.9713e-05,71.803,8.0159e-05,0.018406,-0.00025246,-2499.1,0.95861
9985,14.069,3.4545,0,0.00025259,2524.1,8.9291e-05,71.343,7.9795e-05,-0.0029399,-0.0002513,-2487.7,0.94774
9986,14.161,3.4545,0.05,3.9471e-07,3.9444,3.031e-07,2.2773,-1.309e-11,-0.00014073,-3.0308e-07,-2.2773,0.95852
9987,14.161,3.1818,0,0.0002548,2546.2,8.9537e-05,65.549,8.082e-05,0.052925,-0.00025362,-2512.8,0.9587
9988,14.069,3.2727,0,0.00025379,2536.2,8.9053e-05,63.693,8.058e-05,0.031544,-0.00025265,-2503.7,0.94786
9989,14.161,3.2727,0.05,3.1145e-07,3.1123,2.3915e-07,1.7969,-7.3192e-12,-9.0028e-05,-2.3915e-07,-1.7969,0.95864
9990,14.161,3,0,0.00025515,2549.8,8.9477e-05,63.425,8.1045e-05,0.066705,-0.00025401,-2517.4,0.95873
9991,14.069,3.0909,0,0.00025441,2542.3,8.8926e-05,59.741,8.0982e-05,0.054304,-0.00025334,-2511.9,0.94792
9992,14.161,3.0909,0.05,2.65e-07,2.6482,2.0349e-07,1.5289,3.4123e-12,-1.8255e-06,-2.0349e-07,-1.529,0.9587
9993,14.161,2.8182,0,0.0002548,2546.2,8.9537e-05,65.549,8.082e-05,0.052926,-0.00025362,-2512.8,0.9587
9994,14.069,2.9091,0,0.00025441,2542.3,8.8926e-05,59.741,8.0982e-05,0.054304,-0.00025334,-2511.9,0.94792
9995,14.161,2.9091,0.05,2.65e-07,2.6482,2.0348e-07,1.5289,7.9984e-12,2.3684e-05,-2.0349e-07,-1.529,0.9587
9996,14.161,2.6364,0,0.00025375,2535.8,8.9713e-05,71.803,8.0159e-05,0.018406,-0.00025246,-2499.1,0.95861
9997,14.069,2.7273,0,0.00025379,2536.2,8.9053e-05,63.693,8.058e-05,0.031544,-0.00025265,-2503.7,0.94786
9998,14.161,2.7273,0.05,3.1145e-07,3.1123,2.3915e-07,1.7969,2.2844e-12,-1.3497e-05,-2.3915e-07,-1.7969,0.95864
9999,14.161,2.4545,0,0.00025205,2518.8,8.9979e-05,81.78,7.9092e-05,-0.021656,-0.00025056,-2476.9,0.95846
10000,14.069,2.5455,0,0.00025259,2524.1,8.9291e-05,71.343,7.9795e-05,-0.0029403,-0.0002513,-2487.7,0.94774
10001,14.161,2.5455,0.05,3.9471e-07,3.9444,3.0309e-07,2.2773,-7.4439e-12,-6.6505e-05,-3.0309e-07,-2.2773,0.95852
10002,14.161,2.2727,0,0.00024974,2495.6,9.0282e-05,94.672,7.7674e-05,-0.053422,-0.00024799,-2447,0.95825
10003,14.069,2.3636,0,0.00025082,2506.5,8.9601e-05,82.117,7.8667e-05,-0.03525,-0.00024932,-2464.4,0.94757
10004,14.161,2.3636,0.05,5.0374e-07,5.0339,3.8681e-07,2.9063,-4.1384e-12,-9.5195e-05,-3.8681e-07,-2.9063,0.95835
10005,14.161,2.0909,0,0.00024684,2466.7,9.0524e-05,109.19,7.5983e-05,-0.070119,-0.0002448,-2410.3,0.95799
10006,14.069,2.1818,0,0.00024853,2483.5,8.9912e-05,95.033,7.7256e-05,-0.056102,-0.00024677,-2434.7,0.94733
10007,14.161,2.1818,0.05,6.2939e-07,6.2896,4.833e-07,3.6313,-1.1992e-11,-7.2641e-05,-4.833e-07,-3.6313,0.95811
10008,14.161,1.9091,0,0.00024338,2432.2,9.0569e-05,123.6,7.411e-05,-0.071892,-0.00024105,-2368,0.95766
10009,14.069,2,0,0.00024572,2455.5,9.0113e-05,108.69,7.5638e-05,-0.06298,-0.00024369,-2399.4,0.94703
10010,14.161,2,0.05,7.6531e-07,7.6479,5.8767e-07,4.4155,-5.2659e-12,-6.6453e-05,-5.8767e-07,-4.4155,0.95781
10011,14.161,1.7273,0,0.00023939,2392.3,9.0268e-05,135.98,7.2162e-05,-0.062831,-0.00023679,-2321.4,0.95727
10012,14.069,1.8182,0,0.00024242,2422.5,9.007e-05,121.41,7.3904e-05,-0.058217,-0.00024012,-2359.5,0.94668
10013,14.161,1.8182,0.05,9.0825e-07,9.0762,6.9742e-07,5.2402,-2.0457e-12,-3.6519e-05,-6.9742e-07,-5.2402,0.95746
10014,14.161,1.5455,0,0.00023491,2347.4,8.949e-05,144.56,7.0243e-05,-0.048134,-0.00023211,-2271.8,0.95683
10015,14.069,1.6364,0,0.00023865,2384.8,8.9651e-05,131.48,7.2147e-05,-0.046259,-0.00023614,-2316.4,0.94627
10016,14.161,1.6364,0.05,1.0567e-06,10.56,8.1145e-07,6.0969,-1.2877e-12,-1.4976e-05,-8.1145e-07,-6.0969,0.95704
10017,14.161,1.3636,0,0.00023001,2298.5,8.8155e-05,148.01,6.8452e-05,-0.031857,-0.00022714,-2221,0.95632
10018,14.069,1.4545,0,0.00023445,2342.9,8.8756e-05,137.44,7.046e-05,-0.031493,-0.00023181,-2271.2,0.94579
10019,14.161,1.4545,0.05,1.2086e-06,12.077,9.2804e-07,6.9729,-2.7557e-13,-1.0676e-05,-9.2804e-07,-6.9729,0.95656
10020,14.161,1.1818,0,0.00022484,2246.9,8.6248e-05,145.6,6.6868e-05,-0.016365,-0.00022201,-2170.6,0.95576
10021,14.069,1.2727,0,0.00022994,2297.8,8.7335e-05,138.32,6.8924e-05,-0.016672,-0.00022727,-2225.5,0.94526
10022,14.161,1.2727,0.05,1.3591e-06,13.582,1.0436e-06,7.8416,-2.5247e-12,-4.4001e-06,-1.0436e-06,-7.8415,0.95603
10023,14.161,1,0,0.00021956,2194.1,8.3812e-05,137.18,6.5555e-05,-0.0018872,-0.00021691,-2122.3,0.95514
10024,14.069,1.0909,0,0.00022523,2250.7,8.5396e-05,133.67,6.7605e-05,-0.0036746,-0.00022266,-2180.9,0.94467
10025,14.161,1.0909,0.05,1.502e-06,15.01,1.1534e-06,8.6659,-7.8153e-13,-3.8477e-06,-1.1534e-06,-8.6659,0.95544
10026,14.161,0.81818,0,0.00021435,2142,8.0923e-05,122.99,6.4556e-05,0.0076615,-0.00021199,-2077.8,0.95446
10027,14.069,0.90909,0,0.00022047,2203.2,8.2986e-05,123.47,6.6554e-05,0.0083862,-0.00021811,-2138.9,0.94403
10028,14.161,0.90909,0.05,1.6311e-06,16.299,1.2525e-06,9.4104,9.4503e-14,-3.0794e-06,-1.2525e-06,-9.4104,0.95479
10029,14.161,0.63636,0,0.00020935,2092.1,7.7662e-05,103.41,6.3902e-05,0.021284,-0.0002074,-2038.4,0.95374
10030,14.069,0.72727,0,0.00021582,2156.7,8.0171e-05,107.94,6.5807e-05,0.010386,-0.00021378,-2100.7,0.94333
10031,14.161,0.72727,0.05,1.742e-06,17.408,1.3377e-06,10.051,-8.7874e-13,1.1637e-06,-1.3377e-06,-10.051,0.95409
10032,14.161,0.45455,0,0.00020469,2045.5,7.4087e-05,78.667,6.3612e-05,-0.038495,-0.00020324,-2005.1,0.95296
10033,14.069,0.54545,0,0.00021139,2112.5,7.7012e-05,87.356,6.539e-05,0.027175,-0.00020977,-2067.4,0.94257
10034,14.161,0.54545,0.05,1.8327e-06,18.314,1.4072e-06,10.574,-9.7044e-13,-5.4203e-07,-1.4072e-06,-10.573,0.95333
10035,14.161,0.27273,0,0.00020044,2003,7.0207e-05,48.751,6.3708e-05,-0.07385,-0.00019956,-1978.2,0.95213
10036,14.069,0.36364,0,0.00020728,2071.4,7.3548e-05,61.782,6.531e-05,-0.11735,-0.00020616,-2039.9,0.94177
10037,14.161,0.36364,0.05,1.8951e-06,18.938,1.4552e-06,10.934,-4.2909e-14,1.876e-06,-1.4552e-06,-10.934,0.95253
10038,14.069,0.18182,0,0.00020353,2033.9,6.9774e-05,31.235,6.5602e-05,-0.11217,-0.00020298,-2018.2,0.94092
10039,14.161,0.18182,0.05,1.8055e-06,18.042,1.3864e-06,10.417,-7.6336e-13,4.375e-06,-1.3864e-06,-10.417,0.95167
10040,14.161,0.090909,0,0.00019701,1968.8,6.6495e-05,17.737,6.4132e-05,-0.015994,-0.0001967,-1959.8,0.95125
10041,13.977,5.7273,0,0.00021037,2102.2,7.3107e-05,44.195,6.7213e-05,-0.084791,-0.00020958,-2079.8,0.93061
10042,13.885,5.8182,0,0.00021325,2131,7.277e-05,28.687,6.8936e-05,-0.11897,-0.00021275,-2116.6,0.91947
10043,13.977,5.8182,0.05,1.5162e-06,15.151,1.1642e-06,8.7476,2.0482e-12,3.6172e-06,-1.1642e-06,-8.7477,0.93015
10044,13.977,5.9091,0,0.00020738,2072.3,6.9808e-05,16.451,6.7617e-05,-0.016472,-0.00020709,-2064.1,0.92973
10045,13.977,5.5455,0,0.00021399,2138.4,7.6486e-05,70.563,6.7089e-05,-0.040206,-0.0002127,-2102.3,0.93144
10046,13.885,5.6364,0,0.00021645,2163,7.6058e-05,55.553,6.8649e-05,-0.11325,-0.00021545,-2134.7,0.92032
10047,13.977,5.6364,0.05,1.695e-06,16.939,1.3016e-06,9.7796,3.455e-12,9.9557e-06,-1.3016e-06,-9.7796,0.93101
10048,13.977,5.3636,0,0.00021788,2177.3,7.9544e-05,92.061,6.7294e-05,0.020543,-0.00021617,-2129.8,0.93221
10049,13.885,5.4545,0,0.00021991,2197.6,7.9048e-05,77.942,6.8678e-05,0.022762,-0.00021848,-2157.6,0.92112
10050,13.977,5.4545,0.05,1.6467e-06,16.456,1.2645e-06,9.5008,4.2098e-12,1.0815e-05,-1.2645e-06,-9.5009,0.93181
10051,13.977,5.1818,0,0.00022198,2218.2,8.2264e-05,108.65,6.7806e-05,0.013127,-0.00021993,-2161.9,0.93294
10052,13.885,5.2727,0,0.00022357,2234.2,8.172e-05,95.65,6.8991e-05,0.012767,-0.00022179,-2184.8,0.92188
10053,13.977,5.2727,0.05,1.5682e-06,15.671,1.2042e-06,9.0477,3.5617e-12,3.2396e-06,-1.2042e-06,-9.0479,0.93256
10054,13.977,5,0,0.00022618,2260.2,8.4605e-05,120.22,6.8605e-05,0.0077006,-0.00022389,-2197.7,0.93361
10055,13.885,5.0909,0,0.00022735,2272,8.404e-05,108.65,6.9582e-05,0.014331,-0.00022531,-2215.7,0.92257
10056,13.977,5.0909,0.05,1.473e-06,14.72,1.1311e-06,8.4985,3.3095e-12,-6.5415e-07,-1.1311e-06,-8.4986,0.93326
10057,13.977,4.8182,0,0.00023037,2302.1,8.6519e-05,126.66,6.9661e-05,-0.0032988,-0.00022795,-2236.2,0.93423
10058,13.885,4.9091,0,0.00023116,2310,8.5971e-05,116.84,7.0422e-05,0.0057484,-0.00022895,-2249.3,0.92322
10059,13.977,4.9091,0.05,1.3638e-06,13.629,1.0472e-06,7.8686,1.6848e-12,-1.2248e-05,-1.0473e-06,-7.8687,0.93391
10060,13.977,4.6364,0,0.00023443,2342.6,8.797e-05,128,7.0932e-05,-0.015804,-0.00023199,-2276,0.93478
10061,13.885,4.7273,0,0.00023488,2347.1,8.7477e-05,120.2,7.1478e-05,-0.0043645,-0.0002326,-2284.7,0.9238
10062,13.977,4.7273,0.05,1.2438e-06,12.429,9.5507e-07,7.1759,1.264e-12,-2.7508e-05,-9.5507e-07,-7.1761,0.93449
10063,13.977,4.4545,0,0.00023823,2380.7,8.8947e-05,124.57,7.2363e-05,-0.029189,-0.00023587,-2316,0.93529
10064,13.885,4.5455,0,0.0002384,2382.4,8.8541e-05,118.96,7.2706e-05,-0.016348,-0.00023616,-2320.7,0.92433
10065,13.977,4.5455,0.05,1.1166e-06,11.159,8.5744e-07,6.4425,-8.9084e-13,-3.6251e-05,-8.5745e-07,-6.4425,0.93502
10066,13.977,4.2727,0,0.0002417,2415.4,8.9477e-05,117.09,7.3888e-05,-0.041292,-0.0002395,-2354.7,0.93573
10067,13.885,4.3636,0,0.00024165,2414.9,8.9175e-05,113.62,7.4049e-05,-0.028315,-0.00023952,-2356.1,0.9248
10068,13.977,4.3636,0.05,9.8589e-07,9.8521,7.5704e-07,5.6881,-4.0459e-12,-5.4202e-05,-7.5704e-07,-5.6881,0.93549
10069,13.977,4.0909,0,0.00024478,2446.1,8.9632e-05,106.65,7.5432e-05,-0.049096,-0.00024279,-2391,0.93611
10070,13.885,4.1818,0,0.00024456,2443.9,8.9429e-05,105.05,7.5443e-05,-0.038038,-0.00024261,-2389.7,0.92521
10071,13.977,4.1818,0.05,8.5373e-07,8.5314,6.5556e-07,4.9256,-7.5663e-12,-6.5207e-05,-6.5556e-07,-4.9256,0.93591
10072,13.977,3.9091,0,0.00024742,2472.5,8.9514e-05,94.639,7.6912e-05,-0.048918,-0.00024568,-2423.8,0.93643
10073,13.885,4,0,0.00024709,2469.2,8.9387e-05,94.409,7.6816e-05,-0.042405,-0.00024535,-2420.7,0.92556
10074,13.977,4,0.05,7.2096e-07,7.2047,5.5361e-07,4.1596,-9.4848e-12,-9.4126e-05,-5.5361e-07,-4.1596,0.93626
10075,13.977,3.7273,0,0.00024962,2494.5,8.924e-05,82.54,7.8249e-05,-0.037816,-0.00024811,-2452.2,0.9367
10076,13.885,3.8182,0,0.00024923,2490.6,8.9151e-05,83.031,7.8095e-05,-0.038303,-0.00024771,-2448,0.92586
10077,13.977,3.8182,0.05,5.8774e-07,5.8734,4.5132e-07,3.391,-1.1787e-11,-0.0001082,-4.5131e-07,-3.391,0.93655
10078,13.977,3.5455,0,0.00025136,2511.9,8.8917e-05,71.711,7.9371e-05,-0.015643,-0.00025007,-2475.3,0.9369
10079,13.885,3.6364,0,0.00025096,2507.9,8.8827e-05,72.23,7.9211e-05,-0.024083,-0.00024965,-2471,0.92609
10080,13.977,3.6364,0.05,4.5455e-07,4.5424,3.4904e-07,2.6225,-1.3307e-11,-0.00014515,-3.4904e-07,-2.6225,0.93679
10081,13.977,3.3636,0,0.00025263,2524.6,8.8631e-05,63.238,8.0217e-05,0.012923,-0.00025149,-2492.3,0.93705
10082,13.885,3.4545,0,0.00025228,2521,8.8508e-05,63.144,8.0104e-05,-0.0014787,-0.00025114,-2488.9,0.92626
10083,13.977,3.4545,0.05,3.2248e-07,3.2226,2.4763e-07,1.8606,-1.238e-11,-0.00013401,-2.4762e-07,-1.8606,0.93696
10084,13.977,3.1818,0,0.0002534,2532.3,8.844e-05,57.872,8.0743e-05,0.037968,-0.00025237,-2502.8,0.93714
10085,13.885,3.2727,0,0.00025317,2529.9,8.8261e-05,56.629,8.0727e-05,0.023042,-0.00025216,-2501.1,0.92638
10086,13.977,3.2727,0.05,1.9269e-07,1.9255,1.4796e-07,1.1117,-1.3813e-11,-0.00011696,-1.4795e-07,-1.1117,0.93708
10087,13.977,3,0,0.00025366,2534.9,8.8373e-05,56.038,8.0921e-05,0.048073,-0.00025266,-2506.4,0.93716
10088,13.885,3.0909,0,0.00025362,2534.4,8.8127e-05,53.239,8.1047e-05,0.039414,-0.00025267,-2507.4,0.92644
10089,13.977,3.0909,0.05,6.6471e-08,0.66426,5.1046e-08,0.38352,-1.4687e-11,-0.00012326,-5.1038e-08,-0.3835,0.93714
10090,13.977,2.8182,0,0.0002534,2532.3,8.844e-05,57.872,8.0743e-05,0.037968,-0.00025237,-2502.8,0.93714
10091,13.885,2.9091,0,0.00025362,2534.4,8.8127e-05,53.239,8.1047e-05,0.039414,-0.00025267,-2507.4,0.92644
10092,13.977,2.9091,0.05,6.6472e-08,0.66426,5.1043e-08,0.38351,-1.2249e-11,-0.00010484,-5.1041e-08,-0.38351,0.93714
10093,13.977,2.6364,0,0.00025263,2524.5,8.8631e-05,63.238,8.0217e-05,0.012923,-0.00025149,-2492.3,0.93705
10094,13.885,2.7273,0,0.00025317,2529.9,8.8261e-05,56.629,8.0727e-05,0.023042,-0.00025216,-2501.1,0.92638
10095,13.977,2.7273,0.05,1.9269e-07,1.9255,1.4796e-07,1.1117,-1.5187e-11,-0.00012699,-1.4795e-07,-1.1117,0.93708
10096,13.977,2.4545,0,0.00025136,2511.9,8.8917e-05,71.711,7.9371e-05,-0.015643,-0.00025007,-2475.3,0.9369
10097,13.885,2.5455,0,0.00025228,2521,8.8508e-05,63.144,8.0104e-05,-0.0014784,-0.00025114,-2488.9,0.92626
10098,13.977,2.5455,0.05,3.2248e-07,3.2226,2.4763e-07,1.8606,-1.179e-11,-7.1519e-05,-2.4763e-07,-1.8606,0.93696
10099,13.977,2.2727,0,0.00024962,2494.5,8.924e-05,82.54,7.8249e-05,-0.037816,-0.00024811,-2452.2,0.9367
10100,13.885,2.3636,0,0.00025096,2507.9,8.8827e-05,72.23,7.9211e-05,-0.024083,-0.00024965,-2471,0.92609
10101,13.977,2.3636,0.05,4.5455e-07,4.5424,3.4904e-07,2.6226,-8.1883e-12,-4.6427e-05,-3.4904e-07,-2.6225,0.93679
10102,13.977,2.0909,0,0.00024742,2472.5,8.9514e-05,94.639,7.6912e-05,-0.048918,-0.00024568,-2423.8,0.93643
10103,13.885,2.1818,0,0.00024923,2490.6,8.9151e-05,83.031,7.8095e-05,-0.038303,-0.00024771,-2448,0.92586
10104,13.977,2.1818,0.05,5.8774e-07,5.8734,4.5132e-07,3.391,-5.1787e-12,-6.4904e-05,-4.5131e-07,-3.391,0.93655
10105,13.977,1.9091,0,0.00024478,2446.1,8.9632e-05,106.65,7.5432e-05,-0.049096,-0.00024279,-2391,0.93611
10106,13.885,2,0,0.00024709,2469.2,8.9387e-05,94.409,7.6816e-05,-0.042405,-0.00024535,-2420.7,0.92556
10107,13.977,2,0.05,7.2096e-07,7.2047,5.5361e-07,4.1596,-2.8413e-12,-3.9635e-05,-5.5361e-07,-4.1596,0.93626
10108,13.977,1.7273,0,0.0002417,2415.4,8.9477e-05,117.09,7.3888e-05,-0.041292,-0.0002395,-2354.7,0.93573
10109,13.885,1.8182,0,0.00024456,2443.9,8.9429e-05,105.05,7.5443e-05,-0.038038,-0.00024261,-2389.7,0.92521
10110,13.977,1.8182,0.05,8.5373e-07,8.5314,6.5556e-07,4.9256,-2.0897e-12,-4.1735e-05,-6.5556e-07,-4.9256,0.93591
10111,13.977,1.5455,0,0.00023823,2380.7,8.8947e-05,124.57,7.2363e-05,-0.029188,-0.00023587,-2316,0.93529
10112,13.885,1.6364,0,0.00024165,2414.9,8.9175e-05,113.62,7.4049e-05,-0.028314,-0.00023952,-2356.1,0.9248
10113,13.977,1.6364,0.05,9.8589e-07,9.8521,7.5704e-07,5.6881,-1.2796e-12,-2.3257e-05,-7.5704e-07,-5.6881,0.93549
10114,13.977,1.3636,0,0.00023443,2342.6,8.797e-05,128,7.0932e-05,-0.015804,-0.00023199,-2276,0.93478
10115,13.885,1.4545,0,0.0002384,2382.4,8.8541e-05,118.96,7.2706e-05,-0.016348,-0.00023616,-2320.7,0.92433
10116,13.977,1.4545,0.05,1.1166e-06,11.159,8.5744e-07,6.4425,-1.7784e-12,-1.1938e-05,-8.5744e-07,-6.4425,0.93502
10117,13.977,1.1818,0,0.00023037,2302.1,8.6519e-05,126.66,6.9661e-05,-0.0032977,-0.00022795,-2236.2,0.93423
10118,13.885,1.2727,0,0.00023488,2347.1,8.7477e-05,120.2,7.1478e-05,-0.0043635,-0.0002326,-2284.7,0.9238
10119,13.977,1.2727,0.05,1.2438e-06,12.429,9.5507e-07,7.176,-1.1136e-12,-8.4629e-06,-9.5507e-07,-7.176,0.93449
10120,13.977,1,0,0.00022618,2260.2,8.4605e-05,120.22,6.8605e-05,0.007702,-0.00022389,-2197.7,0.93361
10121,13.885,1.0909,0,0.00023116,2310,8.5971e-05,116.84,7.0422e-05,0.0057491,-0.00022895,-2249.3,0.92322
10122,13.977,1.0909,0.05,1.3638e-06,13.629,1.0472e-06,7.8686,-4.0566e-14,-4.1996e-06,-1.0473e-06,-7.8686,0.93391
10123,13.977,0.81818,0,0.00022198,2218.2,8.2264e-05,108.65,6.7806e-05,0.013129,-0.00021993,-2161.9,0.93294
10124,13.885,0.90909,0,0.00022735,2272,8.404e-05,108.65,6.9582e-05,0.014333,-0.00022531,-2215.7,0.92257
10125,13.977,0.90909,0.05,1.473e-06,14.72,1.1311e-06,8.4985,-9.123e-13,-2.8376e-06,-1.1311e-06,-8.4985,0.93326
10126,13.977,0.63636,0,0.00021788,2177.3,7.9544e-05,92.061,6.7294e-05,0.020545,-0.00021617,-2129.8,0.93221
10127,13.885,0.72727,0,0.00022357,2234.2,8.172e-05,95.65,6.8991e-05,0.012769,-0.00022179,-2184.8,0.92188
10128,13.977,0.72727,0.05,1.5682e-06,15.671,1.2042e-06,9.0478,-9.0858e-13,1.1322e-08,-1.2042e-06,-9.0478,0.93256
10129,13.977,0.45455,0,0.00021399,2138.4,7.6486e-05,70.563,6.7089e-05,-0.040206,-0.0002127,-2102.3,0.93144
10130,13.885,0.54545,0,0.00021991,2197.6,7.9048e-05,77.942,6.8678e-05,0.022762,-0.00021848,-2157.6,0.92112
10131,13.977,0.54545,0.05,1.6467e-06,16.456,1.2645e-06,9.5009,-9.3591e-13,-2.096e-07,-1.2645e-06,-9.5008,0.93181
10132,13.977,0.27273,0,0.00021037,2102.2,7.3107e-05,44.195,6.7213e-05,-0.084791,-0.00020958,-2079.8,0.93061
10133,13.885,0.36364,0,0.00021645,2163,7.6058e-05,55.553,6.8649e-05,-0.11325,-0.00021545,-2134.7,0.92032
10134,13.977,0.36364,0.05,1.695e-06,16.939,1.3016e-06,9.7796,-2.8786e-14,2.3547e-06,-1.3016e-06,-9.7796,0.93101
10135,13.885,0.18182,0,0.00021325,2131,7.277e-05,28.687,6.8936e-05,-0.11897,-0.00021275,-2116.6,0.91947
10136,13.977,0.18182,0.05,1.5162e-06,15.151,1.1642e-06,8.7476,-7.023e-13,3.4084e-06,-1.1642e-06,-8.7476,0.93015
10137,13.977,0.090909,0,0.00020738,2072.3,6.9808e-05,16.451,6.7617e-05,-0.016471,-0.00020709,-2064.1,0.92973
10138,13.793,5.7273,0,0.00021932,2191.7,7.5709e-05,39.953,7.038e-05,-0.086943,-0.00021861,-2171.5,0.90923
10139,13.701,5.8182,0,0.00022205,2219,7.5484e-05,26.39,7.1956e-05,-0.11321,-0.00022159,-2205.7,0.89816
10140,13.793,5.8182,0.05,1.269e-06,12.681,9.7442e-07,7.3214,2.663e-12,5.5598e-06,-9.7443e-07,-7.3215,0.90877
10141,13.793,5.9091,0,0.00021671,2165.6,7.2792e-05,15.291,7.0755e-05,-0.015346,-0.00021645,-2158,0.90835
10142,13.793,5.5455,0,0.00022238,2222.2,7.8627e-05,62.979,7.0239e-05,-0.039749,-0.00022124,-2190.1,0.91006
10143,13.701,5.6364,0,0.00022475,2246,7.8317e-05,49.749,7.1682e-05,-0.10585,-0.00022387,-2220.7,0.89902
10144,13.793,5.6364,0.05,1.5283e-06,15.273,1.1736e-06,8.8176,3.4326e-12,9.5415e-06,-1.1736e-06,-8.8177,0.90963
10145,13.793,5.3636,0,0.00022562,2254.6,8.1237e-05,81.631,7.0375e-05,0.018973,-0.00022412,-2212.7,0.91084
10146,13.701,5.4545,0,0.00022766,2275,8.0885e-05,69.245,7.1672e-05,0.018759,-0.0002264,-2239.6,0.89982
10147,13.793,5.4545,0.05,1.4943e-06,14.932,1.1474e-06,8.6212,4.2384e-12,1.1079e-05,-1.1474e-06,-8.6213,0.91043
10148,13.793,5.1818,0,0.00022897,2288.1,8.3514e-05,95.789,7.0767e-05,0.0159,-0.00022719,-2238.7,0.91156
10149,13.701,5.2727,0,0.00023068,2305.2,8.3146e-05,84.509,7.19e-05,0.013569,-0.00022912,-2261.7,0.90058
10150,13.793,5.2727,0.05,1.428e-06,14.27,1.0965e-06,8.239,3.6739e-12,7.8989e-06,-1.0966e-06,-8.2391,0.91119
10151,13.793,5,0,0.00023236,2322,8.5427e-05,105.42,7.1399e-05,0.013459,-0.00023039,-2267.5,0.91223
10152,13.701,5.0909,0,0.00023375,2335.9,8.5069e-05,95.521,7.2359e-05,0.017442,-0.00023198,-2286.6,0.90127
10153,13.793,5.0909,0.05,1.3479e-06,13.469,1.035e-06,7.7764,4.4997e-12,1.3469e-06,-1.035e-06,-7.7765,0.91189
10154,13.793,4.8182,0,0.00023569,2355.3,8.695e-05,110.54,7.2239e-05,0.0053485,-0.00023362,-2298.1,0.91285
10155,13.701,4.9091,0,0.0002368,2366.3,8.6632e-05,102.26,7.3023e-05,0.0116,-0.00023489,-2313.5,0.90192
10156,13.793,4.9091,0.05,1.2566e-06,12.557,9.6489e-07,7.2498,3.9639e-12,-4.5008e-06,-9.649e-07,-7.2499,0.91253
10157,13.793,4.6364,0,0.00023888,2387.2,8.8068e-05,111.31,7.3253e-05,-0.0044632,-0.00023679,-2329.6,0.9134
10158,13.701,4.7273,0,0.00023974,2395.7,8.7816e-05,104.84,7.3863e-05,0.0039622,-0.00023778,-2341.6,0.9025
10159,13.793,4.7273,0.05,1.1565e-06,11.557,8.8803e-07,6.6723,1.3758e-12,-1.5435e-05,-8.8804e-07,-6.6724,0.91311
10160,13.793,4.4545,0,0.00024185,2416.8,8.8787e-05,108.14,7.4392e-05,-0.01517,-0.00023983,-2360.9,0.9139
10161,13.701,4.5455,0,0.0002425,2423.3,8.8621e-05,103.54,7.484e-05,-0.0054965,-0.00024057,-2369.9,0.90303
10162,13.793,4.5455,0.05,1.05e-06,10.493,8.0629e-07,6.0581,9.9117e-13,-2.9696e-05,-8.0629e-07,-6.0582,0.91364
10163,13.793,4.2727,0,0.00024453,2443.6,8.9142e-05,101.69,7.5604e-05,-0.024891,-0.00024264,-2391.2,0.91434
10164,13.701,4.3636,0,0.00024502,2448.5,8.907e-05,98.88,7.5908e-05,-0.015008,-0.00024319,-2397.6,0.9035
10165,13.793,4.3636,0.05,9.393e-07,9.3866,7.2127e-07,5.4193,-9.4784e-13,-3.3924e-05,-7.2127e-07,-5.4194,0.91411
10166,13.793,4.0909,0,0.00024689,2467.2,8.9195e-05,92.894,7.6828e-05,-0.031342,-0.00024518,-2419.5,0.91472
10167,13.701,4.1818,0,0.00024726,2470.9,8.921e-05,91.622,7.7013e-05,-0.022798,-0.00024557,-2423.8,0.90391
10168,13.793,4.1818,0.05,8.257e-07,8.2513,6.3403e-07,4.7638,-2.4076e-12,-5.0748e-05,-6.3403e-07,-4.7639,0.91452
10169,13.793,3.9091,0,0.00024891,2487.4,8.9031e-05,82.862,7.7999e-05,-0.031938,-0.0002474,-2444.9,0.91504
10170,13.701,4,0,0.00024919,2490.2,8.9112e-05,82.718,7.81e-05,-0.026597,-0.00024768,-2447.8,0.90426
10171,13.793,4,0.05,7.0993e-07,7.0944,5.4514e-07,4.0959,-6.2901e-12,-4.8456e-05,-5.4514e-07,-4.096,0.91487
10172,13.793,3.7273,0,0.00025057,2504,8.8744e-05,72.761,7.9057e-05,-0.024676,-0.00024926,-2466.8,0.91531
10173,13.701,3.8182,0,0.00025081,2506.4,8.8861e-05,73.228,7.9112e-05,-0.024269,-0.00024948,-2469,0.90455
10174,13.793,3.8182,0.05,5.9262e-07,5.9221,4.5505e-07,3.4191,-5.9715e-12,-7.7026e-05,-4.5506e-07,-3.4191,0.91516
10175,13.793,3.5455,0,0.00025188,2517,8.8421e-05,63.685,7.9944e-05,-0.0094371,-0.00025073,-2484.6,0.91551
10176,13.701,3.6364,0,0.00025211,2519.4,8.8542e-05,64.206,7.9995e-05,-0.014707,-0.00025096,-2486.7,0.90478
10177,13.793,3.6364,0.05,4.7507e-07,4.7474,3.648e-07,2.7409,-7.3121e-12,-4.9304e-05,-3.648e-07,-2.741,0.91539
10178,13.793,3.3636,0,0.00025282,2526.4,8.8138e-05,56.542,8.0614e-05,0.010523,-0.00025181,-2497.7,0.91565
10179,13.701,3.4545,0,0.00025309,2529.2,8.8232e-05,56.581,8.0702e-05,0.00087015,-0.00025208,-2500.4,0.90496
10180,13.793,3.4545,0.05,3.6028e-07,3.6004,2.7665e-07,2.0786,-2.7754e-12,-4.2314e-05,-2.7665e-07,-2.0787,0.91557
10181,13.793,3.1818,0,0.00025339,2532.1,8.7948e-05,51.994,8.1032e-05,0.028163,-0.00025246,-2505.7,0.91574
10182,13.701,3.2727,0,0.00025375,2535.7,8.7992e-05,51.086,8.1195e-05,0.017911,-0.00025284,-2509.8,0.90507
10183,13.793,3.2727,0.05,2.5542e-07,2.5524,1.9613e-07,1.4736,1.3189e-13,-3.1311e-05,-1.9613e-07,-1.4737,0.91569
10184,13.793,3,0,0.00025358,2534,8.7881e-05,50.434,8.1173e-05,0.035305,-0.00025268,-2508.4,0.91577
10185,13.701,3.0909,0,0.00025408,2539,8.7862e-05,48.214,8.1449e-05,0.029325,-0.00025322,-2514.6,0.90513
10186,13.793,3.0909,0.05,1.8122e-07,1.8109,1.3915e-07,1.0455,6.2065e-12,2.0312e-05,-1.3916e-07,-1.0456,0.91574
10187,13.793,2.8182,0,0.00025339,2532.1,8.7948e-05,51.994,8.1032e-05,0.028164,-0.00025246,-2505.7,0.91574
10188,13.701,2.9091,0,0.00025408,2539,8.7862e-05,48.214,8.1449e-05,0.029325,-0.00025322,-2514.6,0.90513
10189,13.793,2.9091,0.05,1.8122e-07,1.8109,1.3915e-07,1.0455,3.0194e-12,-1.7338e-06,-1.3915e-07,-1.0456,0.91574
10190,13.793,2.6364,0,0.00025282,2526.4,8.8138e-05,56.542,8.0614e-05,0.010524,-0.00025181,-2497.7,0.91565
10191,13.701,2.7273,0,0.00025375,2535.7,8.7992e-05,51.086,8.1195e-05,0.017911,-0.00025284,-2509.8,0.90507
10192,13.793,2.7273,0.05,2.5542e-07,2.5524,1.9613e-07,1.4736,-1.2477e-12,-4.511e-05,-1.9613e-07,-1.4737,0.91569
10193,13.793,2.4545,0,0.00025188,2517,8.8421e-05,63.685,7.9944e-05,-0.0094367,-0.00025073,-2484.6,0.91551
10194,13.701,2.5455,0,0.00025309,2529.2,8.8232e-05,56.581,8.0702e-05,0.00087067,-0.00025208,-2500.4,0.90496
10195,13.793,2.5455,0.05,3.6028e-07,3.6004,2.7666e-07,2.0787,-6.271e-12,-4.671e-05,-2.7665e-07,-2.0787,0.91557
10196,13.793,2.2727,0,0.00025057,2504,8.8744e-05,72.761,7.9057e-05,-0.024676,-0.00024926,-2466.8,0.91531
10197,13.701,2.3636,0,0.00025211,2519.4,8.8542e-05,64.206,7.9995e-05,-0.014707,-0.00025096,-2486.7,0.90478
10198,13.793,2.3636,0.05,4.7507e-07,4.7474,3.648e-07,2.7409,-4.4595e-12,-7.6943e-05,-3.6479e-07,-2.741,0.91539
10199,13.793,2.0909,0,0.00024891,2487.4,8.9031e-05,82.862,7.7999e-05,-0.031938,-0.0002474,-2444.9,0.91504
10200,13.701,2.1818,0,0.00025081,2506.4,8.8861e-05,73.228,7.9112e-05,-0.024268,-0.00024948,-2469,0.90455
10201,13.793,2.1818,0.05,5.9262e-07,5.9221,4.5505e-07,3.4191,-5.1961e-12,-2.011e-05,-4.5506e-07,-3.4191,0.91516
10202,13.793,1.9091,0,0.00024689,2467.2,8.9195e-05,92.894,7.6828e-05,-0.031342,-0.00024518,-2419.5,0.91472
10203,13.701,2,0,0.00024919,2490.2,8.9112e-05,82.718,7.81e-05,-0.026597,-0.00024768,-2447.8,0.90426
10204,13.793,2,0.05,7.0993e-07,7.0944,5.4514e-07,4.0959,-2.2603e-12,-1.7447e-05,-5.4513e-07,-4.0959,0.91487
10205,13.793,1.7273,0,0.00024453,2443.6,8.9142e-05,101.69,7.5604e-05,-0.024889,-0.00024264,-2391.2,0.91434
10206,13.701,1.8182,0,0.00024726,2470.9,8.921e-05,91.622,7.7013e-05,-0.022798,-0.00024557,-2423.8,0.90391
10207,13.793,1.8182,0.05,8.257e-07,8.2513,6.3403e-07,4.7639,-3.0877e-12,-2.3262e-05,-6.3403e-07,-4.7639,0.91452
10208,13.793,1.5455,0,0.00024185,2416.8,8.8787e-05,108.14,7.4392e-05,-0.015169,-0.00023983,-2360.9,0.9139
10209,13.701,1.6364,0,0.00024502,2448.5,8.907e-05,98.88,7.5908e-05,-0.015007,-0.00024319,-2397.6,0.9035
10210,13.793,1.6364,0.05,9.393e-07,9.3866,7.2127e-07,5.4193,-1.4313e-12,-1.7636e-05,-7.2127e-07,-5.4193,0.91411
10211,13.793,1.3636,0,0.00023888,2387.2,8.8068e-05,111.31,7.3253e-05,-0.0044627,-0.00023679,-2329.6,0.9134
10212,13.701,1.4545,0,0.0002425,2423.3,8.8621e-05,103.54,7.484e-05,-0.0054964,-0.00024057,-2369.9,0.90303
10213,13.793,1.4545,0.05,1.05e-06,10.493,8.0629e-07,6.0581,-8.2436e-13,-1.0721e-05,-8.0629e-07,-6.0581,0.91364
10214,13.793,1.1818,0,0.00023569,2355.3,8.695e-05,110.54,7.2239e-05,0.005349,-0.00023362,-2298.1,0.91285
10215,13.701,1.2727,0,0.00023974,2395.7,8.7816e-05,104.84,7.3863e-05,0.0039633,-0.00023778,-2341.6,0.9025
10216,13.793,1.2727,0.05,1.1565e-06,11.557,8.8804e-07,6.6724,-2.8133e-13,-8.4234e-06,-8.8804e-07,-6.6724,0.91311
10217,13.793,1,0,0.00023236,2322,8.5427e-05,105.42,7.1399e-05,0.01346,-0.00023039,-2267.5,0.91223
10218,13.701,1.0909,0,0.00023679,2366.3,8.6632e-05,102.26,7.3023e-05,0.011601,-0.00023489,-2313.5,0.90192
10219,13.793,1.0909,0.05,1.2566e-06,12.557,9.649e-07,7.2499,-9.7288e-13,-4.3477e-06,-9.649e-07,-7.2499,0.91253
10220,13.793,0.81818,0,0.00022897,2288.1,8.3514e-05,95.789,7.0767e-05,0.015901,-0.00022719,-2238.7,0.91156
10221,13.701,0.90909,0,0.00023375,2335.9,8.5069e-05,95.521,7.2359e-05,0.017444,-0.00023198,-2286.6,0.90127
10222,13.793,0.90909,0.05,1.3479e-06,13.469,1.035e-06,7.7765,-1.8089e-12,-1.8968e-06,-1.035e-06,-7.7765,0.91189
10223,13.793,0.63636,0,0.00022562,2254.6,8.1237e-05,81.631,7.0375e-05,0.018974,-0.00022412,-2212.7,0.91084
10224,13.701,0.72727,0,0.00023068,2305.2,8.3145e-05,84.509,7.19e-05,0.013571,-0.00022912,-2261.7,0.90058
10225,13.793,0.72727,0.05,1.428e-06,14.27,1.0966e-06,8.2391,-6.9166e-16,-6.6309e-09,-1.0966e-06,-8.2391,0.91119
10226,13.793,0.45455,0,0.00022238,2222.2,7.8627e-05,62.979,7.0239e-05,-0.039749,-0.00022124,-2190.1,0.91006
10227,13.701,0.54545,0,0.00022766,2275,8.0885e-05,69.245,7.1672e-05,0.018759,-0.0002264,-2239.6,0.89982
10228,13.793,0.54545,0.05,1.4943e-06,14.932,1.1474e-06,8.6212,-9.0618e-13,1.9699e-06,-1.1474e-06,-8.6212,0.91043
10229,13.793,0.27273,0,0.00021932,2191.7,7.5709e-05,39.953,7.038e-05,-0.086943,-0.00021861,-2171.5,0.90923
10230,13.701,0.36364,0,0.00022475,2246,7.8317e-05,49.749,7.1682e-05,-0.10585,-0.00022387,-2220.7,0.89902
10231,13.793,0.36364,0.05,1.5283e-06,15.273,1.1736e-06,8.8177,-1.7946e-12,1.256e-06,-1.1736e-06,-8.8177,0.90963
10232,13.701,0.18182,0,0.00022205,2219,7.5484e-05,26.39,7.1956e-05,-0.11321,-0.00022159,-2205.7,0.89816
10233,13.793,0.18182,0.05,1.269e-06,12.681,9.7442e-07,7.3214,-6.5436e-13,3.7749e-06,-9.7442e-07,-7.3214,0.90877
10234,13.793,0.090909,0,0.00021671,2165.6,7.2792e-05,15.291,7.0755e-05,-0.015347,-0.00021645,-2158,0.90835
10235,13.609,5.7273,0,0.00022747,2273.1,7.8078e-05,36.086,7.3264e-05,-0.083613,-0.00022684,-2254.9,0.888
10236,13.517,5.8182,0,0.0002301,2299.4,7.797e-05,24.349,7.4716e-05,-0.10073,-0.00022968,-2287.2,0.877
10237,13.609,5.8182,0.05,1.0601e-06,10.594,8.1402e-07,6.1163,3.0441e-12,1.9514e-06,-8.1404e-07,-6.1164,0.88754
10238,13.609,5.9091,0,0.0002252,2250.4,7.5506e-05,14.26,7.3607e-05,-0.013458,-0.00022495,-2243.3,0.88711
10239,13.609,5.5455,0,0.00023003,2298.7,8.0578e-05,56.032,7.3115e-05,-0.037985,-0.00022903,-2270.2,0.88883
10240,13.517,5.6364,0,0.00023236,2322,8.0387e-05,44.455,7.4457e-05,-0.09681,-0.00023157,-2299.5,0.87786
10241,13.609,5.6364,0.05,1.3908e-06,13.899,1.068e-06,8.0243,3.3823e-12,9.2136e-06,-1.068e-06,-8.0244,0.8884
10242,13.609,5.3636,0,0.00023272,2325.6,8.2801e-05,72.177,7.3197e-05,0.016958,-0.00023141,-2288.7,0.88961
10243,13.517,5.4545,0,0.00023478,2346.2,8.2582e-05,61.344,7.442e-05,0.015171,-0.00023368,-2314.9,0.87867
10244,13.609,5.4545,0.05,1.3702e-06,13.692,1.0521e-06,7.9052,4.2135e-12,1.2151e-05,-1.0521e-06,-7.9053,0.88921
10245,13.609,5.1818,0,0.00023547,2353,8.4711e-05,84.319,7.3491e-05,0.016875,-0.00023392,-2309.7,0.89034
10246,13.517,5.2727,0,0.00023727,2371,8.4494e-05,74.504,7.458e-05,0.013322,-0.00023591,-2332.9,0.87943
10247,13.609,5.2727,0.05,1.3155e-06,13.146,1.0101e-06,7.5895,3.7637e-12,9.5249e-06,-1.0101e-06,-7.5896,0.88996
10248,13.609,5,0,0.0002382,2380.4,8.6286e-05,92.452,7.3983e-05,0.016581,-0.00023649,-2332.8,0.89101
10249,13.517,5.0909,0,0.00023976,2396,8.6096e-05,83.907,7.4931e-05,0.018626,-0.00023823,-2352.9,0.88013
10250,13.609,5.0909,0.05,1.2489e-06,12.48,9.5897e-07,7.2053,3.8681e-12,6.406e-06,-9.5898e-07,-7.2054,0.89066
10251,13.609,4.8182,0,0.00024085,2406.9,8.751e-05,96.654,7.4647e-05,0.010822,-0.00023906,-2357.1,0.89163
10252,13.517,4.9091,0,0.00024221,2420.4,8.7371e-05,89.57,7.5451e-05,0.014926,-0.00024056,-2374.4,0.88078
10253,13.609,4.9091,0.05,1.1733e-06,11.725,9.0093e-07,6.7692,3.659e-12,7.9624e-07,-9.0094e-07,-6.7693,0.89131
10254,13.609,4.6364,0,0.00024337,2432,8.8381e-05,97.153,7.5451e-05,0.0033073,-0.00024157,-2382,0.89218
10255,13.517,4.7273,0,0.00024453,2443.7,8.8312e-05,91.651,7.6115e-05,0.0093419,-0.00024285,-2396.5,0.88136
10256,13.609,4.7273,0.05,1.0904e-06,10.897,8.3732e-07,6.2913,2.2809e-12,-5.4023e-06,-8.3733e-07,-6.2914,0.89189
10257,13.609,4.4545,0,0.00024568,2455.1,8.8914e-05,94.358,7.6355e-05,-0.0051194,-0.00024394,-2406.6,0.89268
10258,13.517,4.5455,0,0.0002467,2465.3,8.8928e-05,90.461,7.6889e-05,0.0020167,-0.00024503,-2418.8,0.88189
10259,13.609,4.5455,0.05,1.0021e-06,10.014,7.6948e-07,5.7816,1.7282e-12,-1.0914e-05,-7.6949e-07,-5.7816,0.89242
10260,13.609,4.2727,0,0.00024776,2475.8,8.9147e-05,88.877,7.7316e-05,-0.012851,-0.00024612,-2430.2,0.89312
10261,13.517,4.3636,0,0.00024866,2484.8,8.9246e-05,86.487,7.7734e-05,-0.0054597,-0.00024707,-2440.5,0.88236
10262,13.609,4.3636,0.05,9.0975e-07,9.0912,6.9857e-07,5.2488,1.2394e-12,-1.8447e-05,-6.9858e-07,-5.2488,0.89289
10263,13.609,4.0909,0,0.00024957,2493.9,8.9134e-05,81.496,7.8285e-05,-0.018149,-0.00024808,-2452.2,0.8935
10264,13.517,4.1818,0,0.00025038,2502.1,8.931e-05,80.385,7.861e-05,-0.011673,-0.00024891,-2460.9,0.88277
10265,13.609,4.1818,0.05,8.1461e-07,8.1404,6.2551e-07,4.6998,2.0155e-13,-2.8169e-05,-6.2552e-07,-4.6999,0.8933
10266,13.609,3.9091,0,0.0002511,2509.3,8.8947e-05,73.121,7.9213e-05,-0.019155,-0.00024978,-2471.9,0.89382
10267,13.517,4,0,0.00025185,2516.8,8.9182e-05,72.951,7.947e-05,-0.014947,-0.00025053,-2479.5,0.88312
10268,13.609,4,0.05,7.1775e-07,7.1725,5.5114e-07,4.141,3.4105e-13,-2.4456e-05,-5.5114e-07,-4.1411,0.89365
10269,13.609,3.7273,0,0.00025235,2521.8,8.8662e-05,64.697,8.005e-05,-0.014492,-0.00025119,-2488.8,0.89408
10270,13.517,3.8182,0,0.00025308,2529,8.893e-05,65.047,8.0271e-05,-0.013787,-0.00025191,-2495.9,0.88341
10271,13.609,3.8182,0.05,6.2065e-07,6.2022,4.7658e-07,3.5808,-1.1933e-12,-2.1649e-05,-4.7658e-07,-3.5809,0.89394
10272,13.609,3.5455,0,0.00025333,2531.5,8.8354e-05,57.115,8.0752e-05,-0.0041418,-0.00025231,-2502.5,0.89429
10273,13.517,3.6364,0,0.00025405,2538.7,8.8627e-05,57.527,8.0969e-05,-0.0074667,-0.00025302,-2509.5,0.88365
10274,13.609,3.6364,0.05,5.2592e-07,5.2556,4.0384e-07,3.0343,3.0766e-13,-1.5354e-05,-4.0384e-07,-3.0343,0.89417
10275,13.609,3.3636,0,0.00025402,2538.5,8.8086e-05,51.129,8.1282e-05,0.0095566,-0.00025311,-2512.5,0.89443
10276,13.517,3.4545,0,0.00025477,2546,8.8337e-05,51.158,8.1529e-05,0.0030911,-0.00025386,-2520,0.88382
10277,13.609,3.4545,0.05,4.3842e-07,4.3812,3.3665e-07,2.5294,3.0269e-12,-3.7365e-06,-3.3666e-07,-2.5295,0.89435
10278,13.609,3.1818,0,0.00025444,2542.6,8.7906e-05,47.306,8.1613e-05,0.02168,-0.0002536,-2518.6,0.89452
10279,13.517,3.2727,0,0.00025526,2550.8,8.8114e-05,46.555,8.1919e-05,0.014687,-0.00025443,-2527.2,0.88394
10280,13.609,3.2727,0.05,3.6679e-07,3.6653,2.8164e-07,2.1161,4.1881e-12,1.3828e-05,-2.8165e-07,-2.1162,0.89446
10281,13.609,3,0,0.00025458,2544,8.7842e-05,45.992,8.1725e-05,0.026585,-0.00025376,-2520.7,0.89455
10282,13.517,3.0909,0,0.0002555,2553.2,8.7993e-05,44.145,8.212e-05,0.022446,-0.00025472,-2530.9,0.88399
10283,13.609,3.0909,0.05,3.2445e-07,3.2422,2.4913e-07,1.8719,6.3064e-12,2.597e-05,-2.4914e-07,-1.872,0.89452
10284,13.609,2.8182,0,0.00025444,2542.6,8.7906e-05,47.306,8.1613e-05,0.02168,-0.0002536,-2518.6,0.89452
10285,13.517,2.9091,0,0.0002555,2553.2,8.7993e-05,44.145,8.212e-05,0.022446,-0.00025472,-2530.9,0.88399
10286,13.609,2.9091,0.05,3.2445e-07,3.2422,2.4913e-07,1.8719,5.616e-12,1.704e-05,-2.4914e-07,-1.872,0.89452
10287,13.609,2.6364,0,0.00025402,2538.5,8.8086e-05,51.129,8.1282e-05,0.0095566,-0.00025311,-2512.5,0.89443
10288,13.517,2.7273,0,0.00025526,2550.8,8.8114e-05,46.555,8.1919e-05,0.014687,-0.00025443,-2527.2,0.88394
10289,13.609,2.7273,0.05,3.6679e-07,3.6653,2.8164e-07,2.1161,1.3718e-12,-9.3315e-06,-2.8165e-07,-2.1162,0.89446
10290,13.609,2.4545,0,0.00025333,2531.5,8.8354e-05,57.115,8.0752e-05,-0.0041421,-0.00025231,-2502.5,0.89429
10291,13.517,2.5455,0,0.00025477,2546,8.8337e-05,51.158,8.1529e-05,0.0030911,-0.00025386,-2520,0.88382
10292,13.609,2.5455,0.05,4.3842e-07,4.3812,3.3665e-07,2.5295,-5.4076e-13,-2.3485e-05,-3.3665e-07,-2.5295,0.89435
10293,13.609,2.2727,0,0.00025235,2521.8,8.8662e-05,64.697,8.005e-05,-0.014492,-0.00025119,-2488.8,0.89408
10294,13.517,2.3636,0,0.00025405,2538.7,8.8627e-05,57.527,8.0969e-05,-0.0074668,-0.00025302,-2509.5,0.88365
10295,13.609,2.3636,0.05,5.2592e-07,5.2556,4.0384e-07,3.0343,-1.1207e-12,-3.1951e-05,-4.0384e-07,-3.0343,0.89417
10296,13.609,2.0909,0,0.0002511,2509.3,8.8947e-05,73.121,7.9213e-05,-0.019155,-0.00024978,-2471.9,0.89382
10297,13.517,2.1818,0,0.00025308,2529,8.893e-05,65.047,8.0271e-05,-0.013786,-0.00025191,-2495.9,0.88341
10298,13.609,2.1818,0.05,6.2064e-07,6.2022,4.7658e-07,3.5808,-1.4614e-12,-1.9198e-05,-4.7658e-07,-3.5808,0.89394
10299,13.609,1.9091,0,0.00024957,2493.9,8.9134e-05,81.496,7.8285e-05,-0.018149,-0.00024808,-2452.2,0.8935
10300,13.517,2,0,0.00025185,2516.8,8.9182e-05,72.951,7.947e-05,-0.014947,-0.00025053,-2479.5,0.88312
10301,13.609,2,0.05,7.1775e-07,7.1725,5.5114e-07,4.1411,4.9857e-13,-1.8112e-05,-5.5114e-07,-4.1411,0.89365
10302,13.609,1.7273,0,0.00024776,2475.8,8.9147e-05,88.877,7.7316e-05,-0.012852,-0.00024612,-2430.2,0.89312
10303,13.517,1.8182,0,0.00025038,2502.1,8.931e-05,80.385,7.861e-05,-0.011673,-0.00024891,-2460.9,0.88277
10304,13.609,1.8182,0.05,8.1461e-07,8.1404,6.2552e-07,4.6999,9.9589e-13,-1.9811e-05,-6.2552e-07,-4.6999,0.8933
10305,13.609,1.5455,0,0.00024568,2455.1,8.8914e-05,94.358,7.6355e-05,-0.0051194,-0.00024394,-2406.6,0.89268
10306,13.517,1.6364,0,0.00024866,2484.8,8.9246e-05,86.487,7.7734e-05,-0.005459,-0.00024707,-2440.5,0.88236
10307,13.609,1.6364,0.05,9.0975e-07,9.0912,6.9857e-07,5.2488,-1.4788e-13,-8.2156e-06,-6.9858e-07,-5.2488,0.89289
10308,13.609,1.3636,0,0.00024337,2432,8.8381e-05,97.153,7.5451e-05,0.003308,-0.00024157,-2382,0.89218
10309,13.517,1.4545,0,0.0002467,2465.3,8.8928e-05,90.461,7.6889e-05,0.002017,-0.00024503,-2418.8,0.88189
10310,13.609,1.4545,0.05,1.0021e-06,10.014,7.6948e-07,5.7816,-6.5014e-13,-5.6483e-06,-7.6948e-07,-5.7816,0.89242
10311,13.609,1.1818,0,0.00024085,2406.9,8.751e-05,96.654,7.4647e-05,0.010823,-0.00023906,-2357.1,0.89163
10312,13.517,1.2727,0,0.00024453,2443.7,8.8312e-05,91.651,7.6115e-05,0.0093423,-0.00024285,-2396.5,0.88136
10313,13.609,1.2727,0.05,1.0904e-06,10.897,8.3732e-07,6.2913,-2.6214e-13,-2.778e-06,-8.3732e-07,-6.2913,0.89189
10314,13.609,1,0,0.0002382,2380.4,8.6286e-05,92.452,7.3983e-05,0.016582,-0.00023649,-2332.8,0.89101
10315,13.517,1.0909,0,0.00024221,2420.4,8.7371e-05,89.57,7.5451e-05,0.014926,-0.00024056,-2374.4,0.88078
10316,13.609,1.0909,0.05,1.1733e-06,11.725,9.0093e-07,6.7693,-9.8233e-13,-1.6786e-06,-9.0093e-07,-6.7693,0.89131
10317,13.609,0.81818,0,0.00023547,2353,8.4711e-05,84.319,7.3491e-05,0.016877,-0.00023392,-2309.7,0.89034
10318,13.517,0.90909,0,0.00023976,2396,8.6096e-05,83.907,7.4931e-05,0.018628,-0.00023823,-2352.9,0.88013
10319,13.609,0.90909,0.05,1.2489e-06,12.48,9.5898e-07,7.2054,-1.4083e-14,-1.9221e-07,-9.5898e-07,-7.2054,0.89066
10320,13.609,0.63636,0,0.00023272,2325.6,8.2801e-05,72.177,7.3197e-05,0.016959,-0.00023141,-2288.7,0.88961
10321,13.517,0.72727,0,0.00023727,2371,8.4494e-05,74.504,7.458e-05,0.013323,-0.00023591,-2332.9,0.87943
10322,13.609,0.72727,0.05,1.3155e-06,13.146,1.0101e-06,7.5896,-1.5049e-15,1.907e-06,-1.0101e-06,-7.5896,0.88996
10323,13.609,0.45455,0,0.00023003,2298.7,8.0578e-05,56.032,7.3115e-05,-0.037985,-0.00022903,-2270.2,0.88883
10324,13.517,0.54545,0,0.00023478,2346.2,8.2582e-05,61.344,7.442e-05,0.015171,-0.00023368,-2314.9,0.87867
10325,13.609,0.54545,0.05,1.3702e-06,13.692,1.0521e-06,7.9052,-1.8037e-12,1.8163e-06,-1.0521e-06,-7.9052,0.88921
10326,13.609,0.27273,0,0.00022747,2273.1,7.8078e-05,36.086,7.3264e-05,-0.083613,-0.00022684,-2254.9,0.888
10327,13.517,0.36364,0,0.00023236,2322,8.0387e-05,44.455,7.4457e-05,-0.096809,-0.00023157,-2299.5,0.87786
10328,13.609,0.36364,0.05,1.3908e-06,13.899,1.068e-06,8.0244,-9.3966e-13,3.6717e-06,-1.068e-06,-8.0243,0.8884
10329,13.517,0.18182,0,0.0002301,2299.4,7.797e-05,24.349,7.4716e-05,-0.10073,-0.00022968,-2287.2,0.877
10330,13.609,0.18182,0.05,1.0601e-06,10.594,8.1403e-07,6.1163,-1.1081e-12,8.2269e-06,-8.1403e-07,-6.1163,0.88754
10331,13.609,0.090909,0,0.0002252,2250.4,7.5506e-05,14.26,7.3607e-05,-0.013457,-0.00022495,-2243.3,0.88711
10332,13.425,5.7273,0,0.00023497,2348.1,8.0265e-05,32.615,7.5914e-05,-0.077243,-0.0002344,-2331.7,0.86692
10333,13.333,5.8182,0,0.00023754,2373.7,8.0273e-05,22.547,7.7261e-05,-0.085555,-0.00023715,-2362.4,0.856
10334,13.425,5.8182,0.05,8.8507e-07,8.8446,6.7962e-07,5.1064,3.2257e-12,-2.445e-06,-6.7962e-07,-5.1065,0.86646
10335,13.425,5.9091,0,0.00023299,2328.3,7.8002e-05,13.352,7.6223e-05,-0.011386,-0.00023276,-2321.6,0.86603
10336,13.425,5.5455,0,0.0002371,2369.4,8.2391e-05,49.766,7.5763e-05,-0.035554,-0.00023622,-2344.1,0.86776
10337,13.333,5.6364,0,0.0002394,2392.4,8.2317e-05,39.698,7.7021e-05,-0.087238,-0.00023871,-2372.3,0.85687
10338,13.425,5.6364,0.05,1.2784e-06,12.775,9.8162e-07,7.3755,4.0116e-12,8.5984e-06,-9.8163e-07,-7.3756,0.86733
10339,13.425,5.3636,0,0.00023933,2391.6,8.4279e-05,63.698,7.5804e-05,0.014717,-0.00023818,-2359.2,0.86855
10340,13.333,5.4545,0,0.00024142,2412.5,8.4185e-05,54.255,7.6966e-05,0.011983,-0.00024045,-2384.9,0.85768
10341,13.425,5.4545,0.05,1.2698e-06,12.689,9.7502e-07,7.3259,4.1338e-12,1.1579e-05,-9.7503e-07,-7.326,0.86814
10342,13.425,5.1818,0,0.00024157,2414.1,8.5885e-05,74.135,7.602e-05,0.016644,-0.00024023,-2376.1,0.86928
10343,13.333,5.2727,0,0.00024346,2432.9,8.58e-05,65.589,7.7072e-05,0.012409,-0.00024228,-2399.5,0.85845
10344,13.425,5.2727,0.05,1.2254e-06,12.245,9.4093e-07,7.0698,4.7294e-12,9.474e-06,-9.4094e-07,-7.0699,0.8689
10345,13.425,5,0,0.00024378,2436.1,8.7187e-05,81.075,7.6399e-05,0.017862,-0.0002423,-2394.6,0.86995
10346,13.333,5.0909,0,0.00024549,2453.2,8.7137e-05,73.653,7.7337e-05,0.018526,-0.00024415,-2415.5,0.85915
10347,13.425,5.0909,0.05,1.1707e-06,11.699,8.9894e-07,6.7542,5.018e-12,8.1409e-06,-8.9895e-07,-6.7544,0.8696
10348,13.425,4.8182,0,0.0002459,2457.3,8.8179e-05,84.62,7.6919e-05,0.013981,-0.00024435,-2413.9,0.87057
10349,13.333,4.9091,0,0.00024745,2472.8,8.8183e-05,78.483,7.774e-05,0.016472,-0.00024602,-2432.6,0.8598
10350,13.425,4.9091,0.05,1.1086e-06,11.078,8.5126e-07,6.396,3.2626e-12,3.5121e-06,-8.5127e-07,-6.3961,0.87025
10351,13.425,4.6364,0,0.00024788,2477,8.8866e-05,85.01,7.7553e-05,0.0083677,-0.00024632,-2433.4,0.87112
10352,13.333,4.7273,0,0.00024929,2491.2,8.8939e-05,80.244,7.8261e-05,0.012549,-0.00024783,-2450.1,0.86039
10353,13.425,4.7273,0.05,1.0405e-06,10.398,7.99e-07,6.0033,4.9144e-12,-9.7227e-07,-7.9901e-07,-6.0034,0.87083
10354,13.425,4.4545,0,0.00024968,2495.1,8.9265e-05,82.634,7.8268e-05,0.0018301,-0.00024817,-2452.7,0.87162
10355,13.333,4.5455,0,0.00025099,2508.1,8.9416e-05,79.238,7.8871e-05,0.0069766,-0.00024955,-2467.6,0.86092
10356,13.425,4.5455,0.05,9.6785e-07,9.6718,7.4319e-07,5.584,3.1947e-12,-3.508e-06,-7.4319e-07,-5.5841,0.87136
10357,13.425,4.2727,0,0.00025128,2511.1,8.9414e-05,78.031,7.9028e-05,-0.0042737,-0.00024987,-2471.2,0.87206
10358,13.333,4.3636,0,0.00025251,2523.3,8.9641e-05,75.907,7.9539e-05,0.001151,-0.00025113,-2484.5,0.86139
10359,13.425,4.3636,0.05,8.918e-07,8.9119,6.8479e-07,5.1452,2.9617e-12,-9.6115e-06,-6.848e-07,-5.1453,0.87183
10360,13.425,4.0909,0,0.00025267,2525,8.9361e-05,71.869,7.9795e-05,-0.0086051,-0.00025137,-2488.3,0.87245
10361,13.333,4.1818,0,0.00025383,2536.5,8.9657e-05,70.818,8.0231e-05,-0.0037953,-0.00025255,-2500.4,0.8618
10362,13.425,4.1818,0.05,8.1361e-07,8.1304,6.2475e-07,4.6941,2.3668e-12,-9.558e-06,-6.2475e-07,-4.6942,0.87224
10363,13.425,3.9091,0,0.00025383,2536.6,8.9167e-05,64.897,8.0529e-05,-0.0098175,-0.00025267,-2503.5,0.87277
10364,13.333,4,0,0.00025495,2547.8,8.9515e-05,64.635,8.0912e-05,-0.0066096,-0.00025379,-2514.8,0.86215
10365,13.425,4,0.05,7.3462e-07,7.3411,5.6409e-07,4.2383,1.6922e-12,-8.8366e-06,-5.641e-07,-4.2384,0.87259
10366,13.425,3.7273,0,0.00025477,2546,8.8896e-05,57.89,8.1191e-05,-0.0069656,-0.00025374,-2516.5,0.87303
10367,13.333,3.8182,0,0.00025587,2557,8.9274e-05,58.069,8.1545e-05,-0.0062339,-0.00025483,-2527.4,0.86244
10368,13.425,3.8182,0.05,6.5675e-07,6.563,5.043e-07,3.7891,2.4657e-12,-4.7941e-06,-5.043e-07,-3.7892,0.87289
10369,13.425,3.5455,0,0.0002555,2553.2,8.8611e-05,51.577,8.1746e-05,-9.3965e-05,-0.00025458,-2527,0.87324
10370,13.333,3.6364,0,0.0002566,2564.2,8.8994e-05,51.821,8.2097e-05,-0.0021989,-0.00025568,-2537.9,0.86268
10371,13.425,3.6364,0.05,5.8298e-07,5.8258,4.4766e-07,3.3635,3.3459e-12,-1.3365e-06,-4.4766e-07,-3.3636,0.87312
10372,13.425,3.3636,0,0.00025601,2558.3,8.8365e-05,46.586,8.2166e-05,0.0091159,-0.00025519,-2534.7,0.87338
10373,13.333,3.4545,0,0.00025713,2569.6,8.8731e-05,46.523,8.2539e-05,0.0047985,-0.00025631,-2546,0.86285
10374,13.425,3.4545,0.05,5.1788e-07,5.1753,3.9767e-07,2.9879,3.9001e-12,1.164e-05,-3.9767e-07,-2.988,0.8733
10375,13.425,3.1818,0,0.00025632,2561.4,8.82e-05,43.392,8.2427e-05,0.017266,-0.00025555,-2539.4,0.87347
10376,13.333,3.2727,0,0.00025749,2573.1,8.8528e-05,42.688,8.2848e-05,0.012523,-0.00025673,-2551.5,0.86297
10377,13.425,3.2727,0.05,4.6781e-07,4.6749,3.5922e-07,2.699,5.582e-12,1.9925e-05,-3.5923e-07,-2.6991,0.87341
10378,13.425,3,0,0.00025642,2562.4,8.8142e-05,42.294,8.2516e-05,0.020557,-0.00025567,-2541,0.8735
10379,13.333,3.0909,0,0.00025766,2574.8,8.8419e-05,40.678,8.3007e-05,0.017683,-0.00025695,-2554.3,0.86303
10380,13.425,3.0909,0.05,4.401e-07,4.3979,3.3793e-07,2.5391,4.5401e-12,2.4426e-05,-3.3795e-07,-2.5392,0.87347
10381,13.425,2.8182,0,0.00025632,2561.4,8.82e-05,43.392,8.2427e-05,0.017266,-0.00025555,-2539.4,0.87347
10382,13.333,2.9091,0,0.00025766,2574.8,8.8419e-05,40.678,8.3007e-05,0.017683,-0.00025695,-2554.3,0.86303
10383,13.425,2.9091,0.05,4.401e-07,4.3979,3.3793e-07,2.5391,4.24e-12,1.9508e-05,-3.3795e-07,-2.5392,0.87347
10384,13.425,2.6364,0,0.00025601,2558.3,8.8365e-05,46.586,8.2166e-05,0.009116,-0.00025519,-2534.7,0.87338
10385,13.333,2.7273,0,0.00025749,2573.1,8.8528e-05,42.688,8.2848e-05,0.012523,-0.00025673,-2551.5,0.86297
10386,13.425,2.7273,0.05,4.6781e-07,4.6749,3.5922e-07,2.699,2.4475e-12,5.1869e-06,-3.5923e-07,-2.6991,0.87341
10387,13.425,2.4545,0,0.0002555,2553.2,8.8611e-05,51.577,8.1746e-05,-9.3849e-05,-0.00025458,-2527,0.87324
10388,13.333,2.5455,0,0.00025713,2569.6,8.8731e-05,46.523,8.2539e-05,0.0047981,-0.00025631,-2546,0.86285
10389,13.425,2.5455,0.05,5.1788e-07,5.1753,3.9767e-07,2.9879,1.4907e-12,-4.9082e-06,-3.9767e-07,-2.988,0.8733
10390,13.425,2.2727,0,0.00025477,2546,8.8896e-05,57.89,8.1191e-05,-0.0069649,-0.00025374,-2516.5,0.87303
10391,13.333,2.3636,0,0.0002566,2564.2,8.8994e-05,51.821,8.2097e-05,-0.002199,-0.00025568,-2537.9,0.86268
10392,13.425,2.3636,0.05,5.8298e-07,5.8258,4.4766e-07,3.3635,-3.3802e-13,-6.0056e-06,-4.4766e-07,-3.3635,0.87312
10393,13.425,2.0909,0,0.00025383,2536.6,8.9167e-05,64.897,8.0529e-05,-0.0098175,-0.00025267,-2503.5,0.87277
10394,13.333,2.1818,0,0.00025587,2557,8.9274e-05,58.069,8.1545e-05,-0.0062328,-0.00025483,-2527.4,0.86244
10395,13.425,2.1818,0.05,6.5675e-07,6.563,5.043e-07,3.7891,1.2594e-14,-9.2389e-06,-5.043e-07,-3.7891,0.87289
10396,13.425,1.9091,0,0.00025267,2525,8.9361e-05,71.869,7.9795e-05,-0.0086056,-0.00025137,-2488.3,0.87245
10397,13.333,2,0,0.00025495,2547.8,8.9515e-05,64.635,8.0912e-05,-0.0066098,-0.00025379,-2514.8,0.86215
10398,13.425,2,0.05,7.3462e-07,7.3411,5.641e-07,4.2384,3.8181e-13,-1.1249e-05,-5.6409e-07,-4.2384,0.87259
10399,13.425,1.7273,0,0.00025128,2511.1,8.9414e-05,78.031,7.9028e-05,-0.0042729,-0.00024987,-2471.2,0.87206
10400,13.333,1.8182,0,0.00025383,2536.5,8.9657e-05,70.818,8.0231e-05,-0.0037951,-0.00025255,-2500.4,0.8618
10401,13.425,1.8182,0.05,8.1361e-07,8.1304,6.2475e-07,4.6941,-1.0524e-13,-5.3965e-06,-6.2475e-07,-4.6941,0.87224
10402,13.425,1.5455,0,0.00024968,2495.1,8.9265e-05,82.634,7.8268e-05,0.0018311,-0.00024817,-2452.7,0.87162
10403,13.333,1.6364,0,0.00025251,2523.3,8.9641e-05,75.907,7.9539e-05,0.0011524,-0.00025113,-2484.5,0.86139
10404,13.425,1.6364,0.05,8.918e-07,8.9119,6.848e-07,5.1453,-6.9484e-13,-6.0583e-06,-6.848e-07,-5.1453,0.87183
10405,13.425,1.3636,0,0.00024788,2477,8.8866e-05,85.01,7.7553e-05,0.0083677,-0.00024632,-2433.4,0.87112
10406,13.333,1.4545,0,0.00025099,2508.1,8.9416e-05,79.238,7.8871e-05,0.0069769,-0.00024955,-2467.6,0.86092
10407,13.425,1.4545,0.05,9.6785e-07,9.6718,7.4319e-07,5.584,-4.3056e-13,-4.679e-06,-7.4319e-07,-5.584,0.87136
10408,13.425,1.1818,0,0.0002459,2457.3,8.8179e-05,84.62,7.6919e-05,0.013981,-0.00024435,-2413.8,0.87057
10409,13.333,1.2727,0,0.00024929,2491.2,8.8939e-05,80.244,7.8261e-05,0.012549,-0.00024783,-2450.1,0.86039
10410,13.425,1.2727,0.05,1.0405e-06,10.398,7.99e-07,6.0034,-2.1748e-13,-2.5922e-06,-7.99e-07,-6.0034,0.87083
10411,13.425,1,0,0.00024378,2436.1,8.7187e-05,81.075,7.6399e-05,0.017863,-0.0002423,-2394.6,0.86995
10412,13.333,1.0909,0,0.00024745,2472.8,8.8183e-05,78.483,7.774e-05,0.016473,-0.00024602,-2432.6,0.8598
10413,13.425,1.0909,0.05,1.1086e-06,11.078,8.5127e-07,6.3961,-9.565e-14,-1.6451e-06,-8.5127e-07,-6.3961,0.87025
10414,13.425,0.81818,0,0.00024157,2414.1,8.5885e-05,74.135,7.602e-05,0.016645,-0.00024023,-2376.1,0.86928
10415,13.333,0.90909,0,0.00024549,2453.2,8.7137e-05,73.653,7.7337e-05,0.018527,-0.00024415,-2415.5,0.85915
10416,13.425,0.90909,0.05,1.1707e-06,11.699,8.9894e-07,6.7543,-1.1073e-14,-1.0604e-07,-8.9894e-07,-6.7543,0.8696
10417,13.425,0.63636,0,0.00023933,2391.6,8.4279e-05,63.698,7.5804e-05,0.014718,-0.00023818,-2359.2,0.86855
10418,13.333,0.72727,0,0.00024346,2432.9,8.58e-05,65.589,7.7072e-05,0.01241,-0.00024228,-2399.5,0.85845
10419,13.425,0.72727,0.05,1.2254e-06,12.245,9.4094e-07,7.0699,-9.0166e-13,7.6539e-08,-9.4094e-07,-7.0698,0.8689
10420,13.425,0.45455,0,0.0002371,2369.4,8.2391e-05,49.766,7.5763e-05,-0.035553,-0.00023622,-2344.1,0.86776
10421,13.333,0.54545,0,0.00024142,2412.5,8.4185e-05,54.255,7.6966e-05,0.011984,-0.00024045,-2384.9,0.85768
10422,13.425,0.54545,0.05,1.2698e-06,12.689,9.7502e-07,7.3259,4.5134e-14,1.4203e-06,-9.7502e-07,-7.3259,0.86814
10423,13.425,0.27273,0,0.00023497,2348.1,8.0265e-05,32.615,7.5914e-05,-0.077242,-0.0002344,-2331.7,0.86692
10424,13.333,0.36364,0,0.0002394,2392.4,8.2317e-05,39.698,7.7021e-05,-0.087238,-0.00023871,-2372.3,0.85687
10425,13.425,0.36364,0.05,1.2784e-06,12.775,9.8162e-07,7.3755,-7.4334e-13,1.3992e-06,-9.8162e-07,-7.3755,0.86733
10426,13.333,0.18182,0,0.00023754,2373.7,8.0273e-05,22.547,7.7261e-05,-0.085555,-0.00023715,-2362.4,0.856
10427,13.425,0.18182,0.05,8.8507e-07,8.8446,6.7962e-07,5.1064,2.5629e-13,5.2347e-06,-6.7962e-07,-5.1064,0.86646
10428,13.425,0.090909,0,0.00023299,2328.3,7.8002e-05,13.352,7.6223e-05,-0.011385,-0.00023276,-2321.6,0.86603
10429,13.241,5.7273,0,0.00024195,2417.9,8.2311e-05,29.529,7.8372e-05,-0.069447,-0.00024144,-2403,0.846
10430,13.149,5.8182,0,0.00024448,2443.1,8.2431e-05,20.962,7.9631e-05,-0.070145,-0.00024412,-2432.6,0.83515
10431,13.241,5.8182,0.05,7.3933e-07,7.3882,5.6771e-07,4.2655,2.8613e-12,-4.125e-06,-5.6771e-07,-4.2656,0.84553
10432,13.241,5.9091,0,0.00024022,2400.5,8.032e-05,12.554,7.8648e-05,-0.0094279,-0.00024,-2394.2,0.8451
10433,13.241,5.5455,0,0.00024371,2435.5,8.4108e-05,44.175,7.8225e-05,-0.032826,-0.00024293,-2413.1,0.84685
10434,13.149,5.6364,0,0.00024601,2458.4,8.4143e-05,35.467,7.9412e-05,-0.07775,-0.00024538,-2440.5,0.83603
10435,13.241,5.6364,0.05,1.1871e-06,11.863,9.1152e-07,6.8488,5.761e-12,7.4666e-06,-9.1153e-07,-6.8489,0.84641
10436,13.241,5.3636,0,0.00024555,2453.8,8.5707e-05,56.154,7.8235e-05,0.012443,-0.00024454,-2425.2,0.84764
10437,13.149,5.4545,0,0.00024767,2475,8.5726e-05,47.951,7.9345e-05,0.009238,-0.00024682,-2450.7,0.83686
10438,13.241,5.4545,0.05,1.189e-06,11.882,9.1299e-07,6.8598,5.8639e-12,1.1255e-05,-9.13e-07,-6.8599,0.84723
10439,13.241,5.1818,0,0.00024738,2472.1,8.7055e-05,65.127,7.8389e-05,0.015666,-0.00024621,-2438.9,0.84837
10440,13.149,5.2727,0,0.00024935,2491.7,8.7087e-05,57.687,7.9411e-05,0.011164,-0.00024831,-2462.4,0.83762
10441,13.241,5.2727,0.05,1.1536e-06,11.528,8.8579e-07,6.6554,4.7554e-12,9.6596e-06,-8.8579e-07,-6.6555,0.84799
10442,13.241,5,0,0.00024916,2489.9,8.8137e-05,71.087,7.8678e-05,0.017915,-0.00024787,-2453.6,0.84905
10443,13.149,5.0909,0,0.00025099,2508.2,8.8204e-05,64.617,7.9607e-05,0.017656,-0.00024983,-2475.2,0.83833
10444,13.241,5.0909,0.05,1.1091e-06,11.083,8.5162e-07,6.3987,6.1152e-12,8.5997e-06,-8.5163e-07,-6.3989,0.8487
10445,13.241,4.8182,0,0.00025085,2506.7,8.8946e-05,74.134,7.9082e-05,0.015502,-0.0002495,-2468.8,0.84967
10446,13.149,4.9091,0,0.00025256,2523.9,8.9067e-05,68.771,7.9917e-05,0.016844,-0.00025132,-2488.8,0.83898
10447,13.241,4.9091,0.05,1.0585e-06,10.577,8.1276e-07,6.1067,4.5828e-12,7.6096e-06,-8.1276e-07,-6.1068,0.84935
10448,13.241,4.6364,0,0.00025241,2522.4,8.9492e-05,74.499,7.9579e-05,0.01142,-0.00025106,-2484.3,0.85023
10449,13.149,4.7273,0,0.00025402,2538.5,8.9678e-05,70.31,8.0322e-05,0.014233,-0.00025275,-2502.6,0.83958
10450,13.241,4.7273,0.05,1.0029e-06,10.022,7.7011e-07,5.7863,3.8447e-12,4.1355e-06,-7.7012e-07,-5.7864,0.84994
10451,13.241,4.4545,0,0.00025382,2536.4,8.9795e-05,72.535,8.0142e-05,0.0064101,-0.00025251,-2499.4,0.85074
10452,13.149,4.5455,0,0.00025535,2551.8,9.0051e-05,69.51,8.0801e-05,0.01007,-0.0002541,-2516.3,0.84011
10453,13.241,4.5455,0.05,9.4359e-07,9.4294,7.2456e-07,5.444,4.0172e-12,1.9785e-06,-7.2456e-07,-5.4441,0.85047
10454,13.241,4.2727,0,0.00025506,2548.8,8.9887e-05,68.712,8.0742e-05,0.0016106,-0.00025382,-2513.7,0.85118
10455,13.149,4.3636,0,0.00025653,2563.5,9.0212e-05,66.76,8.1327e-05,0.005563,-0.00025533,-2529.5,0.84059
10456,13.241,4.3636,0.05,8.8161e-07,8.81,6.7696e-07,5.0864,4.3117e-12,7.7667e-07,-6.7697e-07,-5.0865,0.85094
10457,13.241,4.0909,0,0.00025611,2559.4,8.9812e-05,63.598,8.1348e-05,-0.0019374,-0.00025497,-2527,0.85156
10458,13.149,4.1818,0,0.00025755,2573.7,9.0198e-05,62.547,8.1873e-05,0.0016202,-0.00025642,-2541.8,0.841
10459,13.241,4.1818,0.05,8.1817e-07,8.1761,6.2825e-07,4.7204,3.9488e-12,-3.2774e-07,-6.2826e-07,-4.7205,0.85136
10460,13.241,3.9091,0,0.00025699,2568.2,8.9623e-05,57.816,8.1928e-05,-0.0032425,-0.00025596,-2538.8,0.85189
10461,13.149,4,0,0.0002584,2582.2,9.0054e-05,57.427,8.241e-05,-0.00080429,-0.00025737,-2553,0.84135
10462,13.241,4,0.05,7.5472e-07,7.542,5.7953e-07,4.3543,3.931e-12,2.0984e-06,-5.7954e-07,-4.3544,0.85171
10463,13.241,3.7273,0,0.0002577,2575.2,8.9373e-05,52.005,8.2451e-05,-0.0016488,-0.00025677,-2548.8,0.85215
10464,13.149,3.8182,0,0.00025909,2589.1,8.983e-05,51.991,8.2911e-05,-0.0009522,-0.00025816,-2562.7,0.84165
10465,13.241,3.8182,0.05,6.9321e-07,6.9273,5.323e-07,3.9995,4.2796e-12,5.7469e-06,-5.3231e-07,-3.9996,0.852
10466,13.241,3.5455,0,0.00025823,2580.5,8.9114e-05,46.768,8.289e-05,0.0027719,-0.00025741,-2556.8,0.85236
10467,13.149,3.6364,0,0.00025963,2594.5,8.9578e-05,46.817,8.3347e-05,0.001484,-0.0002588,-2570.7,0.84189
10468,13.241,3.6364,0.05,6.3634e-07,6.359,4.8863e-07,3.6713,4.9679e-12,1.2305e-05,-4.8864e-07,-3.6714,0.85224
10469,13.241,3.3636,0,0.00025861,2584.3,8.8893e-05,42.624,8.3222e-05,0.0088202,-0.00025786,-2562.7,0.8525
10470,13.149,3.4545,0,0.00026002,2598.4,8.9342e-05,42.425,8.3697e-05,0.0059892,-0.00025927,-2576.9,0.84206
10471,13.241,3.4545,0.05,5.8771e-07,5.873,4.5128e-07,3.3907,5.8724e-12,1.7844e-05,-4.5129e-07,-3.3909,0.85242
10472,13.241,3.1818,0,0.00025883,2586.5,8.8746e-05,39.97,8.3428e-05,0.014182,-0.00025813,-2566.3,0.85259
10473,13.149,3.2727,0,0.00026028,2601,8.9162e-05,39.245,8.3941e-05,0.011017,-0.00025959,-2581.1,0.84218
10474,13.241,3.2727,0.05,5.516e-07,5.5122,4.2356e-07,3.1824,5.9538e-12,2.1964e-05,-4.2357e-07,-3.1825,0.85253
10475,13.241,3,0,0.00025891,2587.3,8.8694e-05,39.057,8.3498e-05,0.016343,-0.00025822,-2567.5,0.85262
10476,13.149,3.0909,0,0.0002604,2602.2,8.9065e-05,37.576,8.4066e-05,0.014377,-0.00025974,-2583.2,0.84224
10477,13.241,3.0909,0.05,5.322e-07,5.3183,4.0866e-07,3.0705,5.4488e-12,2.2916e-05,-4.0867e-07,-3.0706,0.85259
10478,13.241,2.8182,0,0.00025883,2586.5,8.8746e-05,39.97,8.3428e-05,0.014182,-0.00025813,-2566.3,0.85259
10479,13.149,2.9091,0,0.0002604,2602.2,8.9065e-05,37.576,8.4066e-05,0.014377,-0.00025974,-2583.2,0.84224
10480,13.241,2.9091,0.05,5.322e-07,5.3183,4.0866e-07,3.0705,5.3082e-12,2.0043e-05,-4.0867e-07,-3.0706,0.85259
10481,13.241,2.6364,0,0.00025861,2584.3,8.8893e-05,42.624,8.3222e-05,0.00882,-0.00025786,-2562.7,0.8525
10482,13.149,2.7273,0,0.00026028,2601,8.9162e-05,39.245,8.3941e-05,0.011018,-0.00025959,-2581.1,0.84218
10483,13.241,2.7273,0.05,5.516e-07,5.5122,4.2356e-07,3.1824,4.8103e-12,1.2976e-05,-4.2356e-07,-3.1825,0.85253
10484,13.241,2.4545,0,0.00025823,2580.5,8.9114e-05,46.768,8.289e-05,0.0027714,-0.00025741,-2556.8,0.85236
10485,13.149,2.5455,0,0.00026002,2598.4,8.9342e-05,42.425,8.3697e-05,0.0059886,-0.00025927,-2576.9,0.84206
10486,13.241,2.5455,0.05,5.8771e-07,5.873,4.5128e-07,3.3908,2.1285e-12,5.4003e-06,-4.5129e-07,-3.3908,0.85242
10487,13.241,2.2727,0,0.0002577,2575.2,8.9373e-05,52.005,8.2451e-05,-0.0016484,-0.00025677,-2548.8,0.85215
10488,13.149,2.3636,0,0.00025963,2594.5,8.9578e-05,46.817,8.3347e-05,0.0014838,-0.0002588,-2570.7,0.84189
10489,13.241,2.3636,0.05,6.3634e-07,6.359,4.8863e-07,3.6713,2.0322e-12,-2.6133e-06,-4.8863e-07,-3.6714,0.85224
10490,13.241,2.0909,0,0.00025699,2568.2,8.9623e-05,57.816,8.1928e-05,-0.0032417,-0.00025596,-2538.8,0.85189
10491,13.149,2.1818,0,0.00025909,2589.1,8.983e-05,51.991,8.2911e-05,-0.00095176,-0.00025816,-2562.7,0.84165
10492,13.241,2.1818,0.05,6.9321e-07,6.9273,5.323e-07,3.9995,7.4651e-13,-2.1994e-06,-5.323e-07,-3.9995,0.852
10493,13.241,1.9091,0,0.00025611,2559.4,8.9812e-05,63.598,8.1348e-05,-0.001937,-0.00025497,-2527,0.85156
10494,13.149,2,0,0.0002584,2582.2,9.0054e-05,57.427,8.241e-05,-0.00080433,-0.00025737,-2553,0.84135
10495,13.241,2,0.05,7.5472e-07,7.542,5.7953e-07,4.3544,-1.0402e-14,-7.1849e-06,-5.7954e-07,-4.3544,0.85171
10496,13.241,1.7273,0,0.00025506,2548.8,8.9887e-05,68.712,8.0742e-05,0.0016113,-0.00025382,-2513.7,0.85118
10497,13.149,1.8182,0,0.00025755,2573.7,9.0198e-05,62.547,8.1873e-05,0.0016209,-0.00025642,-2541.8,0.841
10498,13.241,1.8182,0.05,8.1817e-07,8.1761,6.2825e-07,4.7204,1.0656e-13,-3.8857e-06,-6.2825e-07,-4.7205,0.85136
10499,13.241,1.5455,0,0.00025382,2536.4,8.9795e-05,72.535,8.0142e-05,0.0064108,-0.00025251,-2499.4,0.85074
10500,13.149,1.6364,0,0.00025653,2563.5,9.0212e-05,66.76,8.1327e-05,0.0055636,-0.00025533,-2529.5,0.84059
10501,13.241,1.6364,0.05,8.8161e-07,8.81,6.7697e-07,5.0865,9.5888e-14,-1.5082e-06,-6.7697e-07,-5.0865,0.85094
10502,13.241,1.3636,0,0.00025241,2522.4,8.9492e-05,74.499,7.9579e-05,0.011421,-0.00025106,-2484.3,0.85023
10503,13.149,1.4545,0,0.00025535,2551.8,9.0051e-05,69.51,8.0801e-05,0.010071,-0.0002541,-2516.3,0.84011
10504,13.241,1.4545,0.05,9.4359e-07,9.4294,7.2456e-07,5.4441,5.476e-13,-7.5914e-07,-7.2456e-07,-5.4441,0.85047
10505,13.241,1.1818,0,0.00025085,2506.7,8.8946e-05,74.134,7.9082e-05,0.015502,-0.0002495,-2468.8,0.84967
10506,13.149,1.2727,0,0.00025402,2538.5,8.9678e-05,70.31,8.0322e-05,0.014233,-0.00025275,-2502.6,0.83958
10507,13.241,1.2727,0.05,1.0029e-06,10.022,7.7011e-07,5.7863,6.9337e-13,-1.5431e-06,-7.7011e-07,-5.7863,0.84994
10508,13.241,1,0,0.00024916,2489.9,8.8137e-05,71.087,7.8678e-05,0.017916,-0.00024787,-2453.6,0.84905
10509,13.149,1.0909,0,0.00025256,2523.9,8.9067e-05,68.771,7.9917e-05,0.016845,-0.00025132,-2488.8,0.83898
10510,13.241,1.0909,0.05,1.0585e-06,10.577,8.1276e-07,6.1068,7.7478e-13,1.5853e-07,-8.1276e-07,-6.1068,0.84935
10511,13.241,0.81818,0,0.00024738,2472.1,8.7055e-05,65.127,7.8389e-05,0.015667,-0.00024621,-2438.9,0.84837
10512,13.149,0.90909,0,0.00025099,2508.2,8.8204e-05,64.617,7.9607e-05,0.017658,-0.00024983,-2475.2,0.83833
10513,13.241,0.90909,0.05,1.1091e-06,11.083,8.5163e-07,6.3988,-2.5099e-14,1.2715e-06,-8.5163e-07,-6.3988,0.8487
10514,13.241,0.63636,0,0.00024555,2453.8,8.5707e-05,56.154,7.8235e-05,0.012443,-0.00024454,-2425.2,0.84764
10515,13.149,0.72727,0,0.00024935,2491.7,8.7087e-05,57.687,7.9411e-05,0.011165,-0.00024831,-2462.4,0.83762
10516,13.241,0.72727,0.05,1.1536e-06,11.528,8.8579e-07,6.6555,2.5381e-14,1.0617e-06,-8.8579e-07,-6.6555,0.84799
10517,13.241,0.45455,0,0.00024371,2435.5,8.4108e-05,44.175,7.8225e-05,-0.032825,-0.00024293,-2413.1,0.84685
10518,13.149,0.54545,0,0.00024767,2475,8.5726e-05,47.951,7.9345e-05,0.009238,-0.00024682,-2450.7,0.83686
10519,13.241,0.54545,0.05,1.189e-06,11.882,9.1299e-07,6.8599,-8.6458e-13,1.7423e-06,-9.1299e-07,-6.8599,0.84723
10520,13.241,0.27273,0,0.00024195,2417.9,8.2311e-05,29.529,7.8372e-05,-0.069447,-0.00024144,-2403,0.846
10521,13.149,0.36364,0,0.00024601,2458.4,8.4143e-05,35.467,7.9412e-05,-0.077749,-0.00024538,-2440.5,0.83603
10522,13.241,0.36364,0.05,1.1871e-06,11.863,9.1152e-07,6.8488,-7.4802e-13,2.7935e-06,-9.1152e-07,-6.8488,0.84641
10523,13.149,0.18182,0,0.00024448,2443.1,8.2431e-05,20.962,7.9631e-05,-0.070144,-0.00024412,-2432.6,0.83515
10524,13.241,0.18182,0.05,7.3933e-07,7.3882,5.6771e-07,4.2656,-5.3022e-13,7.257e-06,-5.6771e-07,-4.2655,0.84553
10525,13.241,0.090909,0,0.00024022,2400.5,8.032e-05,12.554,7.8648e-05,-0.0094281,-0.00024,-2394.2,0.8451
10526,13.057,5.7273,0,0.00024852,2483.5,8.4249e-05,26.802,8.0674e-05,-0.061186,-0.00024805,-2470,0.82524
10527,12.966,5.8182,0,0.00025102,2508.5,8.4473e-05,19.569,8.1861e-05,-0.055905,-0.00025068,-2498.7,0.81448
10528,13.057,5.8182,0.05,6.1856e-07,6.1813,4.7497e-07,3.5687,2.6112e-12,-6.4142e-06,-4.7498e-07,-3.5688,0.82477
10529,13.057,5.9091,0,0.00024699,2468.2,8.2498e-05,11.852,8.0919e-05,-0.0076517,-0.00024679,-2462.3,0.82433
10530,13.057,5.5455,0,0.00024996,2497.9,8.5758e-05,39.223,8.0534e-05,-0.02995,-0.00024927,-2478,0.8261
10531,12.966,5.6364,0,0.00025226,2520.8,8.5895e-05,31.728,8.1663e-05,-0.06872,-0.0002517,-2504.9,0.81536
10532,13.057,5.6364,0.05,1.1134e-06,11.127,8.5498e-07,6.424,4.7772e-12,6.5599e-06,-8.5499e-07,-6.4241,0.82566
10533,13.057,5.3636,0,0.00025147,2512.9,8.7106e-05,49.481,8.0522e-05,0.010336,-0.00025059,-2487.8,0.8269
10534,12.966,5.4545,0,0.00025363,2534.5,8.7229e-05,42.377,8.1589e-05,0.006919,-0.00025288,-2513.1,0.8162
10535,13.057,5.4545,0.05,1.1243e-06,11.235,8.6334e-07,6.4867,4.9302e-12,9.8925e-06,-8.6334e-07,-6.4869,0.82648
10536,13.057,5.1818,0,0.00025296,2527.8,8.8237e-05,57.183,8.0629e-05,0.014343,-0.00025194,-2498.8,0.82764
10537,12.966,5.2727,0,0.000255,2548.2,8.8373e-05,50.711,8.1625e-05,0.0097887,-0.0002541,-2522.5,0.81697
10538,13.057,5.2727,0.05,1.0965e-06,10.957,8.4197e-07,6.3262,4.7621e-12,9.2722e-06,-8.4198e-07,-6.3263,0.82725
10539,13.057,5,0,0.00025439,2542.2,8.9136e-05,62.312,8.0846e-05,0.017258,-0.00025328,-2510.4,0.82832
10540,12.966,5.0909,0,0.00025633,2561.5,8.9306e-05,56.659,8.1767e-05,0.016352,-0.00025532,-2532.7,0.81769
10541,13.057,5.0909,0.05,1.0606e-06,10.599,8.1442e-07,6.1192,4.4206e-12,9.0669e-06,-8.1443e-07,-6.1193,0.82797
10542,13.057,4.8182,0,0.00025574,2555.6,8.98e-05,64.96,8.1157e-05,0.01597,-0.00025457,-2522.5,0.82895
10543,12.966,4.9091,0,0.00025758,2574.1,9.0019e-05,60.247,8.2002e-05,0.016454,-0.00025651,-2543.4,0.81834
10544,13.057,4.9091,0.05,1.0196e-06,10.189,7.8296e-07,5.8828,3.9573e-12,6.8966e-06,-7.8296e-07,-5.8829,0.82862
10545,13.057,4.6364,0,0.00025697,2567.9,9.0238e-05,65.334,8.1544e-05,0.013101,-0.0002558,-2534.6,0.82951
10546,12.966,4.7273,0,0.00025874,2585.6,9.0515e-05,61.615,8.2316e-05,0.014859,-0.00025764,-2554.3,0.81894
10547,13.057,4.7273,0.05,9.7462e-07,9.7395,7.4839e-07,5.623,3.4565e-12,5.319e-06,-7.4839e-07,-5.6232,0.82922
10548,13.057,4.4545,0,0.00025807,2578.9,9.0469e-05,63.747,8.1986e-05,0.0093088,-0.00025692,-2546.4,0.83002
10549,12.966,4.5455,0,0.00025978,2596.1,9.0808e-05,61.009,8.269e-05,0.011813,-0.00025869,-2565,0.81948
10550,13.057,4.5455,0.05,9.2655e-07,9.2591,7.1147e-07,5.3457,2.9387e-12,6.1724e-06,-7.1148e-07,-5.3458,0.82975
10551,13.057,4.2727,0,0.00025902,2588.4,9.0523e-05,60.603,8.2458e-05,0.0055459,-0.00025794,-2557.6,0.83046
10552,12.966,4.3636,0,0.0002607,2605.2,9.0923e-05,58.765,8.3103e-05,0.008349,-0.00025965,-2575.3,0.81996
10553,13.057,4.3636,0.05,8.7644e-07,8.7584,6.7299e-07,5.0566,4.2934e-12,4.7853e-06,-6.73e-07,-5.0567,0.83023
10554,13.057,4.0909,0,0.00025983,2596.5,9.044e-05,56.382,8.2936e-05,0.0026307,-0.00025882,-2567.9,0.83085
10555,12.966,4.1818,0,0.00026147,2612.9,9.0892e-05,55.299,8.3533e-05,0.0052011,-0.00026049,-2584.8,0.82037
10556,13.057,4.1818,0.05,8.2545e-07,8.2488,6.3384e-07,4.7624,5.0027e-12,4.7247e-06,-6.3384e-07,-4.7625,0.83064
10557,13.057,3.9091,0,0.00026049,2603.1,9.0262e-05,51.605,8.3394e-05,0.0013058,-0.00025958,-2576.9,0.83118
10558,12.966,4,0,0.00026212,2619.4,9.0754e-05,51.078,8.3957e-05,0.0031073,-0.00026121,-2593.5,0.82073
10559,13.057,4,0.05,7.7494e-07,7.744,5.9505e-07,4.471,5.0338e-12,7.3206e-06,-5.9506e-07,-4.4711,0.831
10560,13.057,3.7273,0,0.00026102,2608.4,9.0035e-05,46.802,8.3807e-05,0.0020332,-0.00026019,-2584.6,0.83144
10561,12.966,3.8182,0,0.00026263,2624.5,9.0552e-05,46.591,8.4351e-05,0.0026215,-0.00026181,-2600.9,0.82103
10562,13.057,3.8182,0.05,7.2667e-07,7.2617,5.5799e-07,4.1925,4.4171e-12,1.0741e-05,-5.5799e-07,-4.1926,0.8313
10563,13.057,3.5455,0,0.00026141,2612.3,8.9806e-05,42.471,8.4154e-05,0.0047471,-0.00026066,-2590.8,0.83165
10564,12.966,3.6364,0,0.00026303,2628.5,9.0327e-05,42.318,8.4696e-05,0.0039558,-0.00026228,-2607.1,0.82127
10565,13.057,3.6364,0.05,6.8287e-07,6.824,5.2435e-07,3.9398,5.7925e-12,1.5548e-05,-5.2436e-07,-3.9399,0.83153
10566,13.057,3.3636,0,0.00026169,2615,8.9611e-05,39.042,8.4416e-05,0.0086063,-0.000261,-2595.3,0.8318
10567,12.966,3.4545,0,0.00026332,2631.4,9.012e-05,38.689,8.4972e-05,0.0067421,-0.00026264,-2611.8,0.82145
10568,13.057,3.4545,0.05,6.4621e-07,6.4576,4.9621e-07,3.7283,6.4937e-12,1.9526e-05,-4.9621e-07,-3.7284,0.83171
10569,13.057,3.1818,0,0.00026185,2616.7,8.9481e-05,36.845,8.4579e-05,0.012052,-0.0002612,-2598,0.83189
10570,12.966,3.2727,0,0.0002635,2633.2,8.9962e-05,36.06,8.5164e-05,0.0099269,-0.00026287,-2615,0.82157
10571,13.057,3.2727,0.05,6.1957e-07,6.1914,4.7575e-07,3.5746,6.0448e-12,2.1104e-05,-4.7576e-07,-3.5747,0.83183
10572,13.057,3,0,0.0002619,2617.2,8.9436e-05,36.089,8.4634e-05,0.013442,-0.00026127,-2599,0.83192
10573,12.966,3.0909,0,0.00026359,2634.1,8.9878e-05,34.68,8.5264e-05,0.012065,-0.00026299,-2616.6,0.82162
10574,13.057,3.0909,0.05,6.0549e-07,6.0507,4.6493e-07,3.4933,5.4352e-12,2.1343e-05,-4.6495e-07,-3.4934,0.83189
10575,13.057,2.8182,0,0.00026185,2616.7,8.9481e-05,36.845,8.4579e-05,0.012052,-0.0002612,-2598,0.83189
10576,12.966,2.9091,0,0.00026359,2634.1,8.9878e-05,34.68,8.5264e-05,0.012065,-0.00026299,-2616.6,0.82162
10577,13.057,2.9091,0.05,6.0549e-07,6.0507,4.6493e-07,3.4933,5.3943e-12,1.9129e-05,-4.6495e-07,-3.4934,0.83189
10578,13.057,2.6364,0,0.00026169,2615,8.9611e-05,39.042,8.4416e-05,0.0086063,-0.000261,-2595.3,0.8318
10579,12.966,2.7273,0,0.0002635,2633.2,8.9962e-05,36.06,8.5164e-05,0.0099269,-0.00026287,-2615,0.82157
10580,13.057,2.7273,0.05,6.1957e-07,6.1914,4.7575e-07,3.5746,4.2049e-12,1.498e-05,-4.7576e-07,-3.5747,0.83183
10581,13.057,2.4545,0,0.00026141,2612.3,8.9806e-05,42.471,8.4154e-05,0.0047468,-0.00026066,-2590.8,0.83165
10582,12.966,2.5455,0,0.00026332,2631.4,9.012e-05,38.689,8.4972e-05,0.0067421,-0.00026264,-2611.8,0.82145
10583,13.057,2.5455,0.05,6.4621e-07,6.4576,4.9621e-07,3.7283,2.9188e-12,9.0776e-06,-4.9621e-07,-3.7284,0.83171
10584,13.057,2.2727,0,0.00026102,2608.4,9.0035e-05,46.802,8.3807e-05,0.002033,-0.00026019,-2584.6,0.83144
10585,12.966,2.3636,0,0.00026303,2628.5,9.0327e-05,42.318,8.4696e-05,0.0039558,-0.00026228,-2607.1,0.82127
10586,13.057,2.3636,0.05,6.8287e-07,6.824,5.2435e-07,3.9398,2.7501e-12,3.4688e-06,-5.2436e-07,-3.9399,0.83153
10587,13.057,2.0909,0,0.00026049,2603.1,9.0262e-05,51.605,8.3394e-05,0.0013054,-0.00025958,-2576.9,0.83118
10588,12.966,2.1818,0,0.00026263,2624.5,9.0552e-05,46.591,8.4351e-05,0.0026216,-0.00026181,-2600.9,0.82103
10589,13.057,2.1818,0.05,7.2667e-07,7.2617,5.5799e-07,4.1925,2.7491e-12,3.1782e-06,-5.5799e-07,-4.1925,0.8313
10590,13.057,1.9091,0,0.00025983,2596.5,9.044e-05,56.382,8.2936e-05,0.0026309,-0.00025882,-2567.9,0.83085
10591,12.966,2,0,0.00026212,2619.4,9.0754e-05,51.078,8.3957e-05,0.003107,-0.00026121,-2593.5,0.82073
10592,13.057,2,0.05,7.7494e-07,7.744,5.9505e-07,4.471,1.8796e-12,2.3403e-06,-5.9506e-07,-4.471,0.831
10593,13.057,1.7273,0,0.00025902,2588.4,9.0523e-05,60.603,8.2458e-05,0.0055464,-0.00025794,-2557.6,0.83046
10594,12.966,1.8182,0,0.00026147,2612.9,9.0892e-05,55.299,8.3533e-05,0.005202,-0.00026049,-2584.8,0.82037
10595,13.057,1.8182,0.05,8.2545e-07,8.2488,6.3384e-07,4.7624,8.1104e-13,-1.4057e-06,-6.3384e-07,-4.7624,0.83064
10596,13.057,1.5455,0,0.00025807,2578.9,9.0469e-05,63.747,8.1986e-05,0.0093094,-0.00025692,-2546.4,0.83002
10597,12.966,1.6364,0,0.0002607,2605.2,9.0923e-05,58.765,8.3103e-05,0.0083493,-0.00025965,-2575.3,0.81996
10598,13.057,1.6364,0.05,8.7644e-07,8.7584,6.73e-07,5.0566,1.3966e-12,-1.1736e-06,-6.73e-07,-5.0567,0.83023
10599,13.057,1.3636,0,0.00025697,2567.9,9.0238e-05,65.334,8.1544e-05,0.013102,-0.0002558,-2534.6,0.82951
10600,12.966,1.4545,0,0.00025978,2596.1,9.0808e-05,61.009,8.269e-05,0.011814,-0.00025869,-2565,0.81948
10601,13.057,1.4545,0.05,9.2655e-07,9.2591,7.1147e-07,5.3457,-2.6525e-13,-8.1029e-08,-7.1147e-07,-5.3457,0.82975
10602,13.057,1.1818,0,0.00025574,2555.6,8.98e-05,64.96,8.1157e-05,0.015971,-0.00025457,-2522.5,0.82895
10603,12.966,1.2727,0,0.00025874,2585.6,9.0515e-05,61.615,8.2316e-05,0.01486,-0.00025764,-2554.3,0.81894
10604,13.057,1.2727,0.05,9.7462e-07,9.7395,7.4839e-07,5.6231,7.4089e-13,1.7059e-06,-7.4839e-07,-5.6231,0.82922
10605,13.057,1,0,0.00025439,2542.2,8.9136e-05,62.312,8.0846e-05,0.01726,-0.00025328,-2510.4,0.82832
10606,12.966,1.0909,0,0.00025758,2574.1,9.0019e-05,60.247,8.2002e-05,0.016455,-0.00025651,-2543.4,0.81834
10607,13.057,1.0909,0.05,1.0196e-06,10.189,7.8296e-07,5.8829,-5.7186e-14,1.3001e-06,-7.8296e-07,-5.8829,0.82862
10608,13.057,0.81818,0,0.00025296,2527.8,8.8237e-05,57.183,8.0629e-05,0.014345,-0.00025194,-2498.8,0.82764
10609,12.966,0.90909,0,0.00025633,2561.5,8.9306e-05,56.659,8.1767e-05,0.016354,-0.00025532,-2532.7,0.81769
10610,13.057,0.90909,0.05,1.0606e-06,10.599,8.1443e-07,6.1193,-1.0556e-14,1.7593e-06,-8.1443e-07,-6.1193,0.82797
10611,13.057,0.63636,0,0.00025147,2512.9,8.7106e-05,49.481,8.0522e-05,0.010337,-0.00025059,-2487.8,0.8269
10612,12.966,0.72727,0,0.000255,2548.2,8.8373e-05,50.711,8.1625e-05,0.0097898,-0.0002541,-2522.5,0.81697
10613,13.057,0.72727,0.05,1.0965e-06,10.957,8.4197e-07,6.3263,2.2843e-14,1.6844e-06,-8.4197e-07,-6.3263,0.82725
10614,13.057,0.45455,0,0.00024996,2497.9,8.5758e-05,39.223,8.0534e-05,-0.02995,-0.00024927,-2478,0.8261
10615,12.966,0.54545,0,0.00025363,2534.5,8.7228e-05,42.377,8.1589e-05,0.0069196,-0.00025288,-2513.1,0.8162
10616,13.057,0.54545,0.05,1.1243e-06,11.235,8.6334e-07,6.4868,5.647e-14,1.2629e-06,-8.6334e-07,-6.4868,0.82648
10617,13.057,0.27273,0,0.00024852,2483.5,8.4249e-05,26.802,8.0674e-05,-0.061185,-0.00024805,-2470,0.82524
10618,12.966,0.36364,0,0.00025226,2520.8,8.5895e-05,31.728,8.1663e-05,-0.06872,-0.0002517,-2504.9,0.81536
10619,13.057,0.36364,0.05,1.1134e-06,11.127,8.5499e-07,6.4241,-6.9943e-13,3.4745e-06,-8.5498e-07,-6.424,0.82566
10620,12.966,0.18182,0,0.00025102,2508.5,8.4473e-05,19.569,8.1861e-05,-0.055905,-0.00025068,-2498.7,0.81448
10621,13.057,0.18182,0.05,6.1856e-07,6.1813,4.7497e-07,3.5688,-1.3343e-13,7.1576e-06,-4.7498e-07,-3.5688,0.82477
10622,13.057,0.090909,0,0.00024699,2468.2,8.2498e-05,11.852,8.0919e-05,-0.0076511,-0.00024679,-2462.3,0.82433
10623,12.874,5.7273,0,0.00025475,2545.7,8.6106e-05,24.399,8.2851e-05,-0.05316,-0.00025433,-2533.5,0.80465
10624,12.782,5.8182,0,0.00025725,2570.7,8.6425e-05,18.34,8.3978e-05,-0.043511,-0.00025693,-2561.5,0.79397
10625,12.874,5.8182,0.05,5.1885e-07,5.1849,3.9841e-07,2.9935,3.3088e-12,-8.0198e-06,-3.9842e-07,-2.9936,0.80418
10626,12.874,5.9091,0,0.00025341,2532.3,8.4563e-05,11.232,8.3067e-05,-0.0061737,-0.00025321,-2526.7,0.80373
10627,12.874,5.5455,0,0.00025592,2557.4,8.7362e-05,34.857,8.2719e-05,-0.027137,-0.00025531,-2539.9,0.80552
10628,12.782,5.6364,0,0.00025823,2580.6,8.7593e-05,28.435,8.38e-05,-0.060354,-0.00025774,-2566.3,0.79487
10629,12.874,5.6364,0.05,1.0544e-06,10.537,8.0968e-07,6.0836,4.7275e-12,6.0966e-06,-8.0969e-07,-6.0837,0.80507
10630,12.874,5.3636,0,0.00025715,2569.8,8.8494e-05,43.597,8.2693e-05,0.0083939,-0.00025638,-2547.7,0.80633
10631,12.782,5.4545,0,0.00025935,2591.8,8.871e-05,37.464,8.3725e-05,0.004986,-0.0002587,-2572.8,0.79571
10632,12.874,5.4545,0.05,1.0728e-06,10.721,8.2381e-07,6.1897,5.7869e-12,8.8058e-06,-8.2381e-07,-6.1898,0.80591
10633,12.874,5.1818,0,0.00025836,2581.9,8.9441e-05,50.185,8.2764e-05,0.012818,-0.00025747,-2556.4,0.80707
10634,12.782,5.2727,0,0.00026047,2602.9,8.9668e-05,44.564,8.3738e-05,0.0084013,-0.00025968,-2580.3,0.79649
10635,12.874,5.2727,0.05,1.0514e-06,10.506,8.0731e-07,6.0658,4.7648e-12,9.2715e-06,-8.0731e-07,-6.0659,0.80669
10636,12.874,5,0,0.00025952,2593.4,9.0188e-05,54.595,8.2924e-05,0.016126,-0.00025855,-2565.7,0.80776
10637,12.782,5.0909,0,0.00026154,2613.6,9.0445e-05,49.652,8.3839e-05,0.01483,-0.00026066,-2588.4,0.79721
10638,12.874,5.0909,0.05,1.0227e-06,10.22,7.8527e-07,5.9002,4.5059e-12,9.6972e-06,-7.8528e-07,-5.9003,0.8074
10639,12.874,4.8182,0,0.00026059,2604.1,9.0733e-05,56.904,8.3162e-05,0.01568,-0.00025958,-2575.2,0.80839
10640,12.782,4.9091,0,0.00026255,2623.7,9.1034e-05,52.745,8.4016e-05,0.015584,-0.00026161,-2596.9,0.79787
10641,12.874,4.9091,0.05,9.897e-07,9.8902,7.5996e-07,5.71,5.9761e-12,9.7972e-06,-7.5997e-07,-5.7102,0.80806
10642,12.874,4.6364,0,0.00026156,2613.8,9.1086e-05,57.292,8.3462e-05,0.013754,-0.00026054,-2584.7,0.80896
10643,12.782,4.7273,0,0.00026346,2632.8,9.1438e-05,53.965,8.4257e-05,0.014761,-0.0002625,-2605.4,0.79848
10644,12.874,4.7273,0.05,9.5343e-07,9.5278,7.3211e-07,5.5008,6.4434e-12,7.4926e-06,-7.3212e-07,-5.5009,0.80867
10645,12.874,4.4545,0,0.00026241,2622.3,9.1263e-05,56.03,8.3808e-05,0.010922,-0.00026142,-2593.9,0.80947
10646,12.782,4.5455,0,0.00026428,2640.9,9.167e-05,53.523,8.4548e-05,0.012589,-0.00026333,-2613.8,0.79902
10647,12.874,4.5455,0.05,9.1472e-07,9.1409,7.0238e-07,5.2774,4.3106e-12,7.8828e-06,-7.0239e-07,-5.2776,0.80921
10648,12.874,4.2727,0,0.00026315,2629.7,9.1292e-05,53.463,8.4178e-05,0.0079794,-0.0002622,-2602.5,0.80992
10649,12.782,4.3636,0,0.00026498,2648,9.1751e-05,51.707,8.4871e-05,0.0099459,-0.00026406,-2621.7,0.7995
10650,12.874,4.3636,0.05,8.7448e-07,8.7387,6.7149e-07,5.0453,4.1364e-12,8.2556e-06,-6.7149e-07,-5.0454,0.80969
10651,12.874,4.0909,0,0.00026376,2635.8,9.1207e-05,49.994,8.4554e-05,0.0055773,-0.00026288,-2610.4,0.81031
10652,12.782,4.1818,0,0.00026557,2653.9,9.1711e-05,48.867,8.5208e-05,0.0074306,-0.00026471,-2629.1,0.79992
10653,12.874,4.1818,0.05,8.3375e-07,8.3317,6.4021e-07,4.8103,4.7939e-12,9.3535e-06,-6.4022e-07,-4.8104,0.81011
10654,12.874,3.9091,0,0.00026426,2640.8,9.1044e-05,46.061,8.4914e-05,0.0042813,-0.00026344,-2617.4,0.81064
10655,12.782,4,0,0.00026606,2658.7,9.1583e-05,45.397,8.5541e-05,0.0056204,-0.00026526,-2635.8,0.80029
10656,12.874,4,0.05,7.9375e-07,7.932,6.095e-07,4.5795,4.8631e-12,9.5157e-06,-6.0951e-07,-4.5796,0.81047
10657,12.874,3.7273,0,0.00026465,2644.6,9.0843e-05,42.102,8.524e-05,0.0044309,-0.00026391,-2623.3,0.81091
10658,12.782,3.8182,0,0.00026644,2662.6,9.1402e-05,41.702,8.5852e-05,0.0049334,-0.00026571,-2641.5,0.80059
10659,12.874,3.8182,0.05,7.5598e-07,7.5546,5.8049e-07,4.3616,4.1752e-12,1.3358e-05,-5.805e-07,-4.3617,0.81076
10660,12.874,3.5455,0,0.00026494,2647.5,9.0641e-05,38.53,8.5514e-05,0.0059783,-0.00026426,-2628,0.81112
10661,12.782,3.6364,0,0.00026673,2665.5,9.1205e-05,38.181,8.6124e-05,0.0055278,-0.00026606,-2646.2,0.80083
10662,12.874,3.6364,0.05,7.2218e-07,7.2168,5.5454e-07,4.1666,5.3942e-12,1.7733e-05,-5.5455e-07,-4.1667,0.811
10663,12.874,3.3636,0,0.00026513,2649.5,9.0471e-05,35.7,8.572e-05,0.008347,-0.00026451,-2631.5,0.81127
10664,12.782,3.4545,0,0.00026694,2667.5,9.1024e-05,35.189,8.6341e-05,0.0071506,-0.00026632,-2649.8,0.80101
10665,12.874,3.4545,0.05,6.9432e-07,6.9384,5.3315e-07,4.0058,6.6853e-12,2.0078e-05,-5.3316e-07,-4.0059,0.81118
10666,12.874,3.1818,0,0.00026525,2650.7,9.0358e-05,33.887,8.5849e-05,0.010501,-0.00026466,-2633.6,0.81136
10667,12.782,3.2727,0,0.00026707,2668.9,9.0887e-05,33.021,8.6494e-05,0.0090966,-0.00026649,-2652.2,0.80113
10668,12.874,3.2727,0.05,6.7435e-07,6.7388,5.1781e-07,3.8906,6.1582e-12,2.0454e-05,-5.1782e-07,-3.8907,0.8113
10669,12.874,3,0,0.00026529,2651,9.0318e-05,33.263,8.5893e-05,0.011373,-0.00026471,-2634.2,0.81139
10670,12.782,3.0909,0,0.00026714,2669.5,9.0814e-05,31.883,8.6572e-05,0.010419,-0.00026658,-2653.4,0.80119
10671,12.874,3.0909,0.05,6.639e-07,6.6344,5.0979e-07,3.8303,5.4319e-12,2.0818e-05,-5.0979e-07,-3.8304,0.81136
10672,12.874,2.8182,0,0.00026525,2650.7,9.0358e-05,33.887,8.5849e-05,0.010501,-0.00026466,-2633.6,0.81136
10673,12.782,2.9091,0,0.00026714,2669.5,9.0814e-05,31.883,8.6572e-05,0.01042,-0.00026658,-2653.4,0.80119
10674,12.874,2.9091,0.05,6.639e-07,6.6344,5.0979e-07,3.8303,4.5321e-12,1.9442e-05,-5.0979e-07,-3.8304,0.81136
10675,12.874,2.6364,0,0.00026513,2649.5,9.0471e-05,35.7,8.572e-05,0.008347,-0.00026451,-2631.5,0.81127
10676,12.782,2.7273,0,0.00026707,2668.9,9.0887e-05,33.021,8.6494e-05,0.0090965,-0.00026649,-2652.2,0.80113
10677,12.874,2.7273,0.05,6.7435e-07,6.7388,5.1781e-07,3.8906,4.3857e-12,1.5715e-05,-5.1782e-07,-3.8907,0.8113
10678,12.874,2.4545,0,0.00026494,2647.5,9.0641e-05,38.53,8.5514e-05,0.0059786,-0.00026426,-2628,0.81112
10679,12.782,2.5455,0,0.00026694,2667.5,9.1024e-05,35.189,8.6341e-05,0.0071507,-0.00026632,-2649.8,0.80101
10680,12.874,2.5455,0.05,6.9432e-07,6.9384,5.3315e-07,4.0059,4.2661e-12,1.2075e-05,-5.3315e-07,-4.0059,0.81118
10681,12.874,2.2727,0,0.00026465,2644.6,9.0843e-05,42.102,8.524e-05,0.0044312,-0.00026391,-2623.3,0.81091
10682,12.782,2.3636,0,0.00026673,2665.5,9.1205e-05,38.181,8.6124e-05,0.0055277,-0.00026606,-2646.2,0.80083
10683,12.874,2.3636,0.05,7.2218e-07,7.2168,5.5454e-07,4.1666,3.228e-12,7.5292e-06,-5.5455e-07,-4.1667,0.811
10684,12.874,2.0909,0,0.00026426,2640.8,9.1044e-05,46.061,8.4914e-05,0.0042815,-0.00026344,-2617.4,0.81064
10685,12.782,2.1818,0,0.00026644,2662.6,9.1402e-05,41.702,8.5852e-05,0.0049336,-0.00026571,-2641.5,0.80059
10686,12.874,2.1818,0.05,7.5598e-07,7.5546,5.8049e-07,4.3616,2.0549e-12,5.3593e-06,-5.805e-07,-4.3617,0.81076
10687,12.874,1.9091,0,0.00026376,2635.8,9.1207e-05,49.994,8.4554e-05,0.0055777,-0.00026288,-2610.4,0.81031
10688,12.782,2,0,0.00026606,2658.7,9.1583e-05,45.397,8.5541e-05,0.0056207,-0.00026526,-2635.8,0.80029
10689,12.874,2,0.05,7.9375e-07,7.932,6.095e-07,4.5796,2.9954e-12,4.2043e-06,-6.0951e-07,-4.5796,0.81047
10690,12.874,1.7273,0,0.00026315,2629.7,9.1292e-05,53.463,8.4178e-05,0.0079801,-0.0002622,-2602.5,0.80992
10691,12.782,1.8182,0,0.00026557,2653.9,9.1711e-05,48.867,8.5208e-05,0.0074311,-0.00026471,-2629.1,0.79992
10692,12.874,1.8182,0.05,8.3375e-07,8.3317,6.4021e-07,4.8103,1.1898e-12,3.7861e-06,-6.4022e-07,-4.8103,0.81011
10693,12.874,1.5455,0,0.00026241,2622.3,9.1263e-05,56.03,8.3807e-05,0.010922,-0.00026142,-2593.9,0.80947
10694,12.782,1.6364,0,0.00026498,2648,9.1751e-05,51.707,8.4871e-05,0.0099466,-0.00026406,-2621.7,0.7995
10695,12.874,1.6364,0.05,8.7448e-07,8.7387,6.7149e-07,5.0453,2.3445e-12,1.4454e-06,-6.7149e-07,-5.0453,0.80969
10696,12.874,1.3636,0,0.00026156,2613.8,9.1086e-05,57.292,8.3462e-05,0.013755,-0.00026054,-2584.7,0.80896
10697,12.782,1.4545,0,0.00026428,2640.9,9.167e-05,53.523,8.4548e-05,0.012589,-0.00026333,-2613.8,0.79902
10698,12.874,1.4545,0.05,9.1472e-07,9.1409,7.0239e-07,5.2775,-1.5713e-13,2.4453e-06,-7.0239e-07,-5.2775,0.80921
10699,12.874,1.1818,0,0.00026059,2604.1,9.0733e-05,56.904,8.3162e-05,0.01568,-0.00025958,-2575.2,0.80839
10700,12.782,1.2727,0,0.00026346,2632.8,9.1437e-05,53.965,8.4257e-05,0.014762,-0.0002625,-2605.4,0.79848
10701,12.874,1.2727,0.05,9.5343e-07,9.5278,7.3212e-07,5.5008,8.2754e-13,1.0705e-06,-7.3212e-07,-5.5009,0.80867
10702,12.874,1,0,0.00025952,2593.4,9.0188e-05,54.595,8.2924e-05,0.016127,-0.00025855,-2565.7,0.80776
10703,12.782,1.0909,0,0.00026255,2623.7,9.1034e-05,52.745,8.4016e-05,0.015585,-0.00026161,-2596.9,0.79787
10704,12.874,1.0909,0.05,9.897e-07,9.8902,7.5997e-07,5.7101,1.7627e-12,1.4637e-06,-7.5997e-07,-5.7101,0.80806
10705,12.874,0.81818,0,0.00025836,2581.9,8.9441e-05,50.185,8.2764e-05,0.01282,-0.00025747,-2556.4,0.80707
10706,12.782,0.90909,0,0.00026154,2613.6,9.0445e-05,49.652,8.3839e-05,0.014831,-0.00026066,-2588.4,0.79721
10707,12.874,0.90909,0.05,1.0227e-06,10.22,7.8528e-07,5.9003,-5.1323e-15,1.8642e-06,-7.8528e-07,-5.9003,0.8074
10708,12.874,0.63636,0,0.00025715,2569.8,8.8494e-05,43.597,8.2693e-05,0.008395,-0.00025638,-2547.7,0.80633
10709,12.782,0.72727,0,0.00026047,2602.9,8.9668e-05,44.564,8.3738e-05,0.008402,-0.00025968,-2580.3,0.79649
10710,12.874,0.72727,0.05,1.0514e-06,10.506,8.0731e-07,6.0658,1.6656e-14,3.1078e-06,-8.0731e-07,-6.0658,0.80669
10711,12.874,0.45455,0,0.00025592,2557.4,8.7362e-05,34.857,8.2719e-05,-0.027136,-0.00025531,-2539.9,0.80552
10712,12.782,0.54545,0,0.00025935,2591.8,8.871e-05,37.464,8.3725e-05,0.004987,-0.0002587,-2572.8,0.79571
10713,12.874,0.54545,0.05,1.0728e-06,10.721,8.2381e-07,6.1898,-1.7474e-22,3.0373e-06,-8.2381e-07,-6.1898,0.80591
10714,12.874,0.27273,0,0.00025475,2545.7,8.6106e-05,24.399,8.2851e-05,-0.053159,-0.00025433,-2533.5,0.80465
10715,12.782,0.36364,0,0.00025823,2580.6,8.7593e-05,28.435,8.38e-05,-0.060354,-0.00025774,-2566.3,0.79487
10716,12.874,0.36364,0.05,1.0544e-06,10.537,8.0969e-07,6.0836,-1.6464e-12,2.1153e-06,-8.0968e-07,-6.0836,0.80507
10717,12.782,0.18182,0,0.00025725,2570.7,8.6425e-05,18.34,8.3978e-05,-0.04351,-0.00025693,-2561.5,0.79397
10718,12.874,0.18182,0.05,5.1885e-07,5.1849,3.9841e-07,2.9935,4.7108e-13,1.7123e-06,-3.9841e-07,-2.9935,0.80418
10719,12.874,0.090909,0,0.00025341,2532.3,8.4563e-05,11.233,8.3067e-05,-0.006174,-0.00025321,-2526.7,0.80373
10720,12.69,5.7273,0,0.00026072,2605.4,8.79e-05,22.283,8.4928e-05,-0.045666,-0.00026034,-2594.2,0.78424
10721,12.598,5.8182,0,0.00026323,2630.4,8.8306e-05,17.251,8.6006e-05,-0.03316,-0.00026293,-2621.8,0.77363
10722,12.69,5.8182,0.05,4.3679e-07,4.3649,3.354e-07,2.52,1.7913e-12,-8.8586e-06,-3.3541e-07,-2.5201,0.78376
10723,12.69,5.9091,0,0.00025954,2593.6,8.6539e-05,10.682,8.5117e-05,-0.0049401,-0.00025935,-2588.2,0.7833
10724,12.69,5.5455,0,0.00026166,2614.8,8.8937e-05,31.016,8.4806e-05,-0.024412,-0.00026112,-2599.2,0.78511
10725,12.598,5.6364,0,0.000264,2638.2,8.9253e-05,25.537,8.5847e-05,-0.052731,-0.00026355,-2625.3,0.77454
10726,12.69,5.6364,0.05,1.0075e-06,10.068,7.7361e-07,5.8126,3.8126e-12,5.7009e-06,-7.7362e-07,-5.8127,0.78466
10727,12.69,5.3636,0,0.00026267,2624.8,8.9883e-05,38.417,8.477e-05,0.0067005,-0.00026199,-2605.4,0.78593
10728,12.598,5.4545,0,0.00026491,2647.2,9.0183e-05,33.141,8.5773e-05,0.0033993,-0.00026433,-2630.5,0.77539
10729,12.69,5.4545,0.05,1.0321e-06,10.314,7.9252e-07,5.9546,7.4937e-12,8.7311e-06,-7.9253e-07,-5.9548,0.7855
10730,12.69,5.1818,0,0.00026364,2634.6,9.0671e-05,44.022,8.4814e-05,0.011284,-0.00026287,-2612.3,0.78668
10731,12.598,5.2727,0,0.00026581,2656.2,9.098e-05,39.149,8.5771e-05,0.0070794,-0.00026512,-2636.4,0.77618
10732,12.69,5.2727,0.05,1.0158e-06,10.151,7.8003e-07,5.8608,6.5525e-12,8.591e-06,-7.8004e-07,-5.861,0.78629
10733,12.69,5,0,0.00026457,2643.9,9.129e-05,47.796,8.4931e-05,0.014782,-0.00026372,-2619.6,0.78738
10734,12.598,5.0909,0,0.00026667,2664.8,9.1624e-05,43.472,8.584e-05,0.013235,-0.0002659,-2642.8,0.77691
10735,12.69,5.0909,0.05,9.9306e-07,9.9237,7.6254e-07,5.7294,6.3785e-12,9.631e-06,-7.6255e-07,-5.7295,0.78702
10736,12.69,4.8182,0,0.00026542,2652.4,9.1737e-05,49.802,8.5111e-05,0.014953,-0.00026454,-2627.1,0.78802
10737,12.598,4.9091,0,0.00026747,2672.8,9.2108e-05,46.122,8.5971e-05,0.01444,-0.00026665,-2649.5,0.77758
10738,12.69,4.9091,0.05,9.6672e-07,9.6606,7.4232e-07,5.5775,4.314e-12,8.6843e-06,-7.4233e-07,-5.5776,0.78768
10739,12.69,4.6364,0,0.00026618,2660,9.2021e-05,50.192,8.5343e-05,0.013751,-0.00026529,-2634.5,0.78859
10740,12.598,4.7273,0,0.00026819,2680.1,9.2436e-05,47.199,8.6156e-05,0.014193,-0.00026736,-2656.1,0.77819
10741,12.69,4.7273,0.05,9.3767e-07,9.3703,7.2001e-07,5.4099,5.8352e-12,7.9946e-06,-7.2002e-07,-5.41,0.78829
10742,12.69,4.4545,0,0.00026684,2666.6,9.2157e-05,49.196,8.5611e-05,0.011671,-0.00026597,-2641.7,0.78911
10743,12.598,4.5455,0,0.00026882,2686.4,9.2618e-05,46.882,8.6381e-05,0.012698,-0.000268,-2662.6,0.77874
10744,12.69,4.5455,0.05,9.0667e-07,9.0605,6.9621e-07,5.231,5.584e-12,1.0379e-05,-6.9622e-07,-5.2311,0.78884
10745,12.69,4.2727,0,0.00026741,2672.2,9.217e-05,47.108,8.5901e-05,0.0093789,-0.00026657,-2648.3,0.78956
10746,12.598,4.3636,0,0.00026937,2691.8,9.2675e-05,45.414,8.6632e-05,0.0107,-0.00026856,-2668.8,0.77923
10747,12.69,4.3636,0.05,8.7453e-07,8.7393,6.7153e-07,5.0455,6.3255e-12,9.2469e-06,-6.7153e-07,-5.0457,0.78932
10748,12.69,4.0909,0,0.00026787,2676.8,9.2086e-05,44.265,8.6196e-05,0.0073966,-0.00026709,-2654.4,0.78996
10749,12.598,4.1818,0,0.00026981,2696.3,9.2631e-05,43.091,8.6897e-05,0.0086909,-0.00026906,-2674.5,0.77965
10750,12.69,4.1818,0.05,8.4215e-07,8.4157,6.4667e-07,4.8588,4.4599e-12,1.0887e-05,-6.4667e-07,-4.8589,0.78975
10751,12.69,3.9091,0,0.00026824,2680.5,9.194e-05,41.032,8.6479e-05,0.0061657,-0.00026752,-2659.8,0.79029
10752,12.598,4,0,0.00027018,2699.9,9.2513e-05,40.241,8.7158e-05,0.0071292,-0.00026947,-2679.5,0.78002
10753,12.69,4,0.05,8.1059e-07,8.1003,6.2243e-07,4.6767,5.3448e-12,1.1057e-05,-6.2244e-07,-4.6768,0.79011
10754,12.69,3.7273,0,0.00026852,2683.4,9.1762e-05,37.774,8.6736e-05,0.0059464,-0.00026786,-2664.3,0.79056
10755,12.598,3.8182,0,0.00027046,2702.7,9.2353e-05,37.201,8.7402e-05,0.0063417,-0.00026981,-2683.9,0.78032
10756,12.69,3.8182,0.05,7.8106e-07,7.8052,5.9975e-07,4.5063,4.6076e-12,1.4718e-05,-5.9976e-07,-4.5064,0.79041
10757,12.69,3.5455,0,0.00026873,2685.5,9.1586e-05,34.832,8.6952e-05,0.0067164,-0.00026812,-2667.9,0.79077
10758,12.598,3.6364,0,0.00027067,2704.8,9.2181e-05,34.302,8.7616e-05,0.0064555,-0.00027007,-2687.5,0.78057
10759,12.69,3.6364,0.05,7.5492e-07,7.544,5.7968e-07,4.3555,6.6183e-12,1.8157e-05,-5.7969e-07,-4.3556,0.79065
10760,12.69,3.3636,0,0.00026887,2686.9,9.1439e-05,32.501,8.7115e-05,0.0080905,-0.00026831,-2670.5,0.79092
10761,12.598,3.4545,0,0.00027081,2706.3,9.2024e-05,31.837,8.7788e-05,0.0073102,-0.00027026,-2690.2,0.78075
10762,12.69,3.4545,0.05,7.336e-07,7.3309,5.6331e-07,4.2324,5.9783e-12,1.9044e-05,-5.6332e-07,-4.2326,0.79083
10763,12.69,3.1818,0,0.00026896,2687.7,9.1342e-05,31.007,8.7216e-05,0.0093868,-0.00026842,-2672.1,0.79101
10764,12.598,3.2727,0,0.00027091,2707.2,9.1906e-05,30.051,8.7908e-05,0.0084381,-0.00027038,-2692.1,0.78087
10765,12.69,3.2727,0.05,7.1846e-07,7.1797,5.5169e-07,4.1451,6.2248e-12,1.9037e-05,-5.5169e-07,-4.1452,0.79095
10766,12.69,3,0,0.00026898,2688,9.1308e-05,30.492,8.7251e-05,0.0099171,-0.00026845,-2672.6,0.79104
10767,12.598,3.0909,0,0.00027095,2707.7,9.1843e-05,29.113,8.7969e-05,0.0092266,-0.00027045,-2693,0.78093
10768,12.69,3.0909,0.05,7.1059e-07,7.101,5.4564e-07,4.0997,5.4341e-12,1.9852e-05,-5.4565e-07,-4.0998,0.79102
10769,12.69,2.8182,0,0.00026896,2687.7,9.1342e-05,31.007,8.7216e-05,0.0093869,-0.00026842,-2672.1,0.79101
10770,12.598,2.9091,0,0.00027095,2707.7,9.1843e-05,29.113,8.7969e-05,0.0092262,-0.00027045,-2693,0.78093
10771,12.69,2.9091,0.05,7.1059e-07,7.101,5.4564e-07,4.0997,4.5466e-12,1.8342e-05,-5.4565e-07,-4.0998,0.79102
10772,12.69,2.6364,0,0.00026887,2686.9,9.1439e-05,32.501,8.7115e-05,0.0080906,-0.00026831,-2670.5,0.79092
10773,12.598,2.7273,0,0.00027091,2707.2,9.1906e-05,30.051,8.7908e-05,0.0084386,-0.00027038,-2692.1,0.78087
10774,12.69,2.7273,0.05,7.1846e-07,7.1797,5.5169e-07,4.1451,3.5781e-12,1.6244e-05,-5.5169e-07,-4.1452,0.79095
10775,12.69,2.4545,0,0.00026873,2685.5,9.1586e-05,34.832,8.6952e-05,0.0067163,-0.00026812,-2667.9,0.79077
10776,12.598,2.5455,0,0.00027081,2706.3,9.2024e-05,31.837,8.7788e-05,0.0073095,-0.00027026,-2690.2,0.78075
10777,12.69,2.5455,0.05,7.336e-07,7.3309,5.6331e-07,4.2325,5.3179e-12,1.267e-05,-5.6331e-07,-4.2325,0.79083
10778,12.69,2.2727,0,0.00026852,2683.4,9.1762e-05,37.774,8.6736e-05,0.0059462,-0.00026786,-2664.3,0.79056
10779,12.598,2.3636,0,0.00027067,2704.8,9.2181e-05,34.302,8.7616e-05,0.0064558,-0.00027007,-2687.5,0.78057
10780,12.69,2.3636,0.05,7.5492e-07,7.544,5.7968e-07,4.3555,1.5753e-12,9.4993e-06,-5.7968e-07,-4.3555,0.79065
10781,12.69,2.0909,0,0.00026824,2680.5,9.194e-05,41.032,8.6479e-05,0.006166,-0.00026752,-2659.8,0.79029
10782,12.598,2.1818,0,0.00027046,2702.7,9.2353e-05,37.201,8.7402e-05,0.0063418,-0.00026981,-2683.9,0.78032
10783,12.69,2.1818,0.05,7.8106e-07,7.8052,5.9976e-07,4.5063,3.3976e-12,6.5343e-06,-5.9976e-07,-4.5064,0.79041
10784,12.69,1.9091,0,0.00026787,2676.8,9.2086e-05,44.265,8.6196e-05,0.0073971,-0.00026709,-2654.4,0.78996
10785,12.598,2,0,0.00027018,2699.9,9.2513e-05,40.241,8.7158e-05,0.00713,-0.00026947,-2679.5,0.78002
10786,12.69,2,0.05,8.1059e-07,8.1003,6.2243e-07,4.6767,5.8267e-13,5.3566e-06,-6.2244e-07,-4.6768,0.79011
10787,12.69,1.7273,0,0.00026741,2672.2,9.217e-05,47.107,8.5901e-05,0.0093795,-0.00026657,-2648.3,0.78956
10788,12.598,1.8182,0,0.00026981,2696.3,9.2631e-05,43.091,8.6897e-05,0.008691,-0.00026906,-2674.5,0.77965
10789,12.69,1.8182,0.05,8.4215e-07,8.4157,6.4667e-07,4.8588,2.4335e-12,4.5699e-06,-6.4667e-07,-4.8588,0.78975
10790,12.69,1.5455,0,0.00026684,2666.6,9.2157e-05,49.196,8.5611e-05,0.011672,-0.00026597,-2641.7,0.78911
10791,12.598,1.6364,0,0.00026937,2691.8,9.2675e-05,45.414,8.6632e-05,0.010701,-0.00026856,-2668.8,0.77923
10792,12.69,1.6364,0.05,8.7453e-07,8.7393,6.7153e-07,5.0456,2.532e-12,3.5441e-06,-6.7153e-07,-5.0456,0.78932
10793,12.69,1.3636,0,0.00026618,2660,9.2021e-05,50.192,8.5343e-05,0.013752,-0.00026529,-2634.5,0.78859
10794,12.598,1.4545,0,0.00026882,2686.4,9.2618e-05,46.882,8.6381e-05,0.012698,-0.000268,-2662.6,0.77874
10795,12.69,1.4545,0.05,9.0667e-07,9.0605,6.9621e-07,5.2311,7.2963e-13,3.4004e-06,-6.9621e-07,-5.2311,0.78884
10796,12.69,1.1818,0,0.00026542,2652.4,9.1737e-05,49.802,8.5111e-05,0.014954,-0.00026454,-2627.1,0.78802
10797,12.598,1.2727,0,0.00026819,2680.1,9.2436e-05,47.199,8.6156e-05,0.014194,-0.00026736,-2656.1,0.77819
10798,12.69,1.2727,0.05,9.3767e-07,9.3703,7.2002e-07,5.4099,8.3375e-13,3.0716e-06,-7.2001e-07,-5.4099,0.78829
10799,12.69,1,0,0.00026457,2643.9,9.129e-05,47.796,8.4931e-05,0.014783,-0.00026372,-2619.6,0.78738
10800,12.598,1.0909,0,0.00026747,2672.8,9.2108e-05,46.122,8.5971e-05,0.014441,-0.00026665,-2649.5,0.77758
10801,12.69,1.0909,0.05,9.6672e-07,9.6606,7.4232e-07,5.5775,8.791e-13,2.611e-06,-7.4232e-07,-5.5775,0.78768
10802,12.69,0.81818,0,0.00026364,2634.6,9.0671e-05,44.022,8.4814e-05,0.011285,-0.00026287,-2612.3,0.78668
10803,12.598,0.90909,0,0.00026667,2664.8,9.1624e-05,43.472,8.584e-05,0.013236,-0.0002659,-2642.8,0.77691
10804,12.69,0.90909,0.05,9.9306e-07,9.9237,7.6255e-07,5.7295,1.3028e-15,2.8756e-06,-7.6255e-07,-5.7295,0.78702
10805,12.69,0.63636,0,0.00026267,2624.8,8.9883e-05,38.417,8.477e-05,0.0067013,-0.00026199,-2605.4,0.78593
10806,12.598,0.72727,0,0.00026581,2656.2,9.098e-05,39.149,8.5771e-05,0.0070808,-0.00026512,-2636.4,0.77618
10807,12.69,0.72727,0.05,1.0158e-06,10.151,7.8003e-07,5.8609,2.5974e-14,2.6712e-06,-7.8003e-07,-5.8609,0.78629
10808,12.69,0.45455,0,0.00026166,2614.8,8.8937e-05,31.016,8.4806e-05,-0.024412,-0.00026112,-2599.2,0.78511
10809,12.598,0.54545,0,0.00026491,2647.2,9.0183e-05,33.141,8.5773e-05,0.0034,-0.00026433,-2630.5,0.77539
10810,12.69,0.54545,0.05,1.0321e-06,10.314,7.9253e-07,5.9547,-2.6447e-12,2.2624e-06,-7.9253e-07,-5.9547,0.7855
10811,12.69,0.27273,0,0.00026072,2605.4,8.79e-05,22.283,8.4928e-05,-0.045666,-0.00026034,-2594.2,0.78424
10812,12.598,0.36364,0,0.000264,2638.2,8.9253e-05,25.537,8.5847e-05,-0.05273,-0.00026355,-2625.3,0.77454
10813,12.69,0.36364,0.05,1.0075e-06,10.068,7.7361e-07,5.8126,-8.4506e-13,2.4614e-06,-7.7361e-07,-5.8126,0.78466
10814,12.598,0.18182,0,0.00026323,2630.4,8.8306e-05,17.251,8.6006e-05,-0.03316,-0.00026293,-2621.8,0.77363
10815,12.69,0.18182,0.05,4.3679e-07,4.3649,3.354e-07,2.5201,-2.9205e-13,2.5593e-06,-3.354e-07,-2.5201,0.78376
10816,12.69,0.090909,0,0.00025954,2593.6,8.6539e-05,10.682,8.5117e-05,-0.0049397,-0.00025935,-2588.2,0.7833
10817,12.506,5.7273,0,0.00026649,2663,8.9647e-05,20.415,8.6925e-05,-0.038925,-0.00026614,-2652.8,0.76399
10818,12.414,5.8182,0,0.00026901,2688.2,9.0132e-05,16.279,8.7962e-05,-0.024808,-0.00026872,-2680,0.75347
10819,12.506,5.8182,0.05,3.6943e-07,3.6917,2.8367e-07,2.1314,2.5059e-12,-1.3598e-05,-2.8368e-07,-2.1315,0.76351
10820,12.506,5.9091,0,0.00026544,2652.5,8.8445e-05,10.188,8.7089e-05,-0.0039741,-0.00026526,-2647.4,0.76305
10821,12.506,5.5455,0,0.00026724,2670.5,9.0495e-05,27.635,8.6814e-05,-0.02187,-0.00026676,-2656.6,0.76488
10822,12.414,5.6364,0,0.0002696,2694.1,9.0887e-05,22.984,8.7822e-05,-0.045878,-0.0002692,-2682.5,0.75439
10823,12.506,5.6364,0.05,9.7033e-07,9.6966,7.4509e-07,5.5983,3.8099e-12,5.0531e-06,-7.451e-07,-5.5984,0.76442
10824,12.506,5.3636,0,0.00026805,2678.6,9.1278e-05,33.855,8.6773e-05,0.0052086,-0.00026745,-2661.5,0.7657
10825,12.414,5.4545,0,0.00027033,2701.4,9.1654e-05,29.331,8.7751e-05,0.002095,-0.00026981,-2686.6,0.75525
10826,12.506,5.4545,0.05,1.0001e-06,9.9938,7.6793e-07,5.7699,4.7236e-12,8.158e-06,-7.6794e-07,-5.77,0.76528
10827,12.506,5.1818,0,0.00026883,2686.5,9.1931e-05,38.586,8.6797e-05,0.0097714,-0.00026815,-2666.9,0.76647
10828,12.414,5.2727,0,0.00027105,2708.6,9.2312e-05,34.37,8.7739e-05,0.0058457,-0.00027045,-2691.3,0.75605
10829,12.506,5.2727,0.05,9.8806e-07,9.8737,7.587e-07,5.7005,5.6149e-12,8.1785e-06,-7.5871e-07,-5.7007,0.76607
10830,12.506,5,0,0.00026957,2693.8,9.244e-05,41.789,8.688e-05,0.013315,-0.00026883,-2672.7,0.76717
10831,12.414,5.0909,0,0.00027173,2715.5,9.2841e-05,38.009,8.7784e-05,0.011642,-0.00027107,-2696.3,0.75679
10832,12.506,5.0909,0.05,9.7012e-07,9.6945,7.4493e-07,5.5971,5.5009e-12,8.3929e-06,-7.4493e-07,-5.5972,0.76681
10833,12.506,4.8182,0,0.00027024,2700.5,9.2805e-05,43.512,8.7016e-05,0.013926,-0.00026947,-2678.5,0.76782
10834,12.414,4.9091,0,0.00027237,2721.8,9.3236e-05,40.252,8.7881e-05,0.013141,-0.00027166,-2701.4,0.75747
10835,12.506,4.9091,0.05,9.4921e-07,9.4855,7.2887e-07,5.4764,6.2194e-12,9.4005e-06,-7.2888e-07,-5.4765,0.76748
10836,12.506,4.6364,0,0.00027083,2706.5,9.3032e-05,43.882,8.7194e-05,0.013273,-0.00027006,-2684.2,0.7684
10837,12.414,4.7273,0,0.00027293,2727.4,9.35e-05,41.181,8.8021e-05,0.013315,-0.00027221,-2706.6,0.75809
10838,12.506,4.7273,0.05,9.2607e-07,9.2543,7.111e-07,5.3429,4.1914e-12,8.3347e-06,-7.1111e-07,-5.3431,0.76809
10839,12.506,4.4545,0,0.00027134,2711.6,9.3135e-05,43.093,8.7402e-05,0.011778,-0.00027059,-2689.8,0.76892
10840,12.414,4.5455,0,0.00027342,2732.3,9.3642e-05,40.946,8.8194e-05,0.01234,-0.0002727,-2711.6,0.75864
10841,12.506,4.5455,0.05,9.0138e-07,9.0076,6.9214e-07,5.2005,4.9514e-12,1.0215e-05,-6.9215e-07,-5.2006,0.76865
10842,12.506,4.2727,0,0.00027177,2715.9,9.3135e-05,41.391,8.7628e-05,0.010002,-0.00027104,-2694.9,0.76938
10843,12.414,4.3636,0,0.00027383,2736.4,9.3679e-05,39.752,8.839e-05,0.010848,-0.00027314,-2716.4,0.75913
10844,12.506,4.3636,0.05,8.7583e-07,8.7522,6.7252e-07,5.053,4.7894e-12,1.0169e-05,-6.7253e-07,-5.0532,0.76914
10845,12.506,4.0909,0,0.00027212,2719.3,9.3056e-05,39.059,8.7859e-05,0.0083678,-0.00027143,-2699.6,0.76978
10846,12.414,4.1818,0,0.00027417,2739.8,9.3632e-05,37.844,8.8596e-05,0.0092481,-0.00027351,-2720.7,0.75956
10847,12.506,4.1818,0.05,8.5019e-07,8.496,6.5283e-07,4.9051,5.6241e-12,1.1356e-05,-6.5284e-07,-4.9052,0.76956
10848,12.506,3.9091,0,0.00027239,2722,9.2925e-05,36.401,8.8081e-05,0.0072275,-0.00027176,-2703.7,0.77011
10849,12.414,4,0,0.00027444,2742.5,9.3525e-05,35.497,8.8801e-05,0.0079083,-0.00027382,-2724.6,0.75993
10850,12.506,4,0.05,8.2535e-07,8.2478,6.3376e-07,4.7618,4.8049e-12,1.3001e-05,-6.3377e-07,-4.7619,0.76993
10851,12.506,3.7273,0,0.0002726,2724.1,9.277e-05,33.719,8.8283e-05,0.0067901,-0.00027201,-2707.1,0.77039
10852,12.414,3.8182,0,0.00027464,2744.5,9.3383e-05,32.993,8.8993e-05,0.0070918,-0.00027407,-2727.9,0.76024
10853,12.506,3.8182,0.05,8.0227e-07,8.0171,6.1604e-07,4.6286,3.9787e-12,1.4653e-05,-6.1604e-07,-4.6287,0.77024
10854,12.506,3.5455,0,0.00027275,2725.6,9.2617e-05,31.297,8.8453e-05,0.0070585,-0.0002722,-2709.8,0.7706
10855,12.414,3.6364,0,0.00027479,2746,9.3233e-05,30.602,8.9161e-05,0.0069104,-0.00027426,-2730.6,0.76049
10856,12.506,3.6364,0.05,7.82e-07,7.8146,6.0047e-07,4.5117,5.9076e-12,1.6938e-05,-6.0048e-07,-4.5118,0.77048
10857,12.506,3.3636,0,0.00027285,2726.6,9.249e-05,29.376,8.8581e-05,0.0077834,-0.00027233,-2711.8,0.77076
10858,12.414,3.4545,0,0.00027489,2747,9.3098e-05,28.571,8.9296e-05,0.0072709,-0.0002744,-2732.6,0.76067
10859,12.506,3.4545,0.05,7.656e-07,7.6507,5.8788e-07,4.4171,5.1956e-12,1.8716e-05,-5.8789e-07,-4.4172,0.77067
10860,12.506,3.1818,0,0.0002729,2727.1,9.2406e-05,28.146,8.8661e-05,0.0085212,-0.00027241,-2713,0.77085
10861,12.414,3.2727,0,0.00027496,2747.7,9.2996e-05,27.098,8.9391e-05,0.0078711,-0.00027449,-2734,0.7608
10862,12.506,3.2727,0.05,7.5404e-07,7.5352,5.79e-07,4.3504,5.334e-12,1.7815e-05,-5.7901e-07,-4.3505,0.77079
10863,12.506,3,0,0.00027292,2727.3,9.2376e-05,27.722,8.8688e-05,0.0088299,-0.00027244,-2713.4,0.77088
10864,12.414,3.0909,0,0.00027499,2748,9.2942e-05,26.324,8.9439e-05,0.0083148,-0.00027453,-2734.7,0.76086
10865,12.506,3.0909,0.05,7.4805e-07,7.4754,5.7441e-07,4.3158,5.4346e-12,1.8661e-05,-5.7441e-07,-4.316,0.77085
10866,12.506,2.8182,0,0.0002729,2727.1,9.2406e-05,28.146,8.8661e-05,0.0085213,-0.00027241,-2713,0.77085
10867,12.414,2.9091,0,0.00027499,2748,9.2942e-05,26.324,8.9439e-05,0.0083148,-0.00027453,-2734.7,0.76086
10868,12.506,2.9091,0.05,7.4805e-07,7.4754,5.7441e-07,4.3158,5.4632e-12,1.7451e-05,-5.7441e-07,-4.3159,0.77085
10869,12.506,2.6364,0,0.00027285,2726.6,9.249e-05,29.376,8.8581e-05,0.0077832,-0.00027233,-2711.8,0.77076
10870,12.414,2.7273,0,0.00027496,2747.7,9.2996e-05,27.098,8.9391e-05,0.0078714,-0.00027449,-2734,0.7608
10871,12.506,2.7273,0.05,7.5404e-07,7.5352,5.79e-07,4.3504,5.4233e-12,1.5845e-05,-5.7901e-07,-4.3505,0.77079
10872,12.506,2.4545,0,0.00027275,2725.6,9.2617e-05,31.297,8.8453e-05,0.0070583,-0.0002722,-2709.8,0.7706
10873,12.414,2.5455,0,0.00027489,2747,9.3098e-05,28.571,8.9296e-05,0.0072707,-0.0002744,-2732.6,0.76067
10874,12.506,2.5455,0.05,7.656e-07,7.6507,5.8788e-07,4.4171,3.5632e-12,1.3068e-05,-5.8789e-07,-4.4172,0.77067
10875,12.506,2.2727,0,0.0002726,2724.1,9.277e-05,33.719,8.8283e-05,0.0067907,-0.00027201,-2707.1,0.77039
10876,12.414,2.3636,0,0.00027479,2746,9.3233e-05,30.602,8.9161e-05,0.0069107,-0.00027426,-2730.6,0.76049
10877,12.506,2.3636,0.05,7.82e-07,7.8146,6.0048e-07,4.5117,3.5277e-12,1.1464e-05,-6.0048e-07,-4.5118,0.77048
10878,12.506,2.0909,0,0.00027239,2722,9.2925e-05,36.401,8.8081e-05,0.0072281,-0.00027176,-2703.7,0.77011
10879,12.414,2.1818,0,0.00027464,2744.5,9.3383e-05,32.993,8.8993e-05,0.0070922,-0.00027407,-2727.9,0.76024
10880,12.506,2.1818,0.05,8.0227e-07,8.0171,6.1604e-07,4.6287,3.4156e-12,9.1889e-06,-6.1605e-07,-4.6287,0.77024
10881,12.506,1.9091,0,0.00027212,2719.3,9.3056e-05,39.059,8.7859e-05,0.0083682,-0.00027143,-2699.6,0.76978
10882,12.414,2,0,0.00027444,2742.5,9.3525e-05,35.497,8.8801e-05,0.0079083,-0.00027382,-2724.6,0.75993
10883,12.506,2,0.05,8.2535e-07,8.2478,6.3376e-07,4.7618,2.5625e-12,7.0274e-06,-6.3376e-07,-4.7619,0.76993
10884,12.506,1.7273,0,0.00027177,2715.9,9.3135e-05,41.391,8.7628e-05,0.010002,-0.00027104,-2694.9,0.76938
10885,12.414,1.8182,0,0.00027417,2739.8,9.3632e-05,37.844,8.8596e-05,0.0092481,-0.00027351,-2720.7,0.75957
10886,12.506,1.8182,0.05,8.5019e-07,8.496,6.5284e-07,4.9052,2.5147e-12,6.0703e-06,-6.5284e-07,-4.9052,0.76956
10887,12.506,1.5455,0,0.00027134,2711.6,9.3135e-05,43.093,8.7402e-05,0.011779,-0.00027059,-2689.8,0.76892
10888,12.414,1.6364,0,0.00027383,2736.4,9.3679e-05,39.751,8.839e-05,0.010849,-0.00027314,-2716.4,0.75913
10889,12.506,1.6364,0.05,8.7583e-07,8.7522,6.7252e-07,5.0531,2.5763e-12,4.9433e-06,-6.7253e-07,-5.0531,0.76914
10890,12.506,1.3636,0,0.00027083,2706.5,9.3032e-05,43.882,8.7194e-05,0.013273,-0.00027006,-2684.2,0.7684
10891,12.414,1.4545,0,0.00027342,2732.3,9.3642e-05,40.946,8.8194e-05,0.01234,-0.0002727,-2711.6,0.75864
10892,12.506,1.4545,0.05,9.0138e-07,9.0076,6.9215e-07,5.2005,-6.2961e-14,3.9233e-06,-6.9215e-07,-5.2006,0.76865
10893,12.506,1.1818,0,0.00027024,2700.5,9.2805e-05,43.512,8.7016e-05,0.013926,-0.00026947,-2678.5,0.76782
10894,12.414,1.2727,0,0.00027293,2727.4,9.35e-05,41.181,8.8021e-05,0.013315,-0.00027221,-2706.6,0.75809
10895,12.506,1.2727,0.05,9.2607e-07,9.2543,7.1111e-07,5.343,1.7609e-12,3.444e-06,-7.1111e-07,-5.343,0.76809
10896,12.506,1,0,0.00026957,2693.8,9.244e-05,41.789,8.688e-05,0.013316,-0.00026883,-2672.7,0.76717
10897,12.414,1.0909,0,0.00027237,2721.8,9.3236e-05,40.252,8.7881e-05,0.013142,-0.00027166,-2701.4,0.75747
10898,12.506,1.0909,0.05,9.4921e-07,9.4855,7.2887e-07,5.4765,8.8456e-13,3.6484e-06,-7.2887e-07,-5.4765,0.76748
10899,12.506,0.81818,0,0.00026883,2686.5,9.1931e-05,38.586,8.6797e-05,0.0097728,-0.00026815,-2666.9,0.76647
10900,12.414,0.90909,0,0.00027173,2715.5,9.2841e-05,38.009,8.7784e-05,0.011643,-0.00027107,-2696.3,0.75679
10901,12.506,0.90909,0.05,9.7012e-07,9.6945,7.4493e-07,5.5971,9.1611e-13,3.8704e-06,-7.4493e-07,-5.5971,0.76681
10902,12.506,0.63636,0,0.00026805,2678.6,9.1278e-05,33.855,8.6773e-05,0.0052099,-0.00026745,-2661.5,0.7657
10903,12.414,0.72727,0,0.00027105,2708.6,9.2312e-05,34.37,8.7739e-05,0.0058469,-0.00027045,-2691.3,0.75605
10904,12.506,0.72727,0.05,9.8806e-07,9.8737,7.587e-07,5.7006,3.4601e-14,2.5984e-06,-7.587e-07,-5.7006,0.76607
10905,12.506,0.45455,0,0.00026724,2670.5,9.0495e-05,27.635,8.6814e-05,-0.02187,-0.00026676,-2656.6,0.76488
10906,12.414,0.54545,0,0.00027033,2701.4,9.1654e-05,29.331,8.7751e-05,0.0020955,-0.00026981,-2686.6,0.75525
10907,12.506,0.54545,0.05,1.0001e-06,9.9938,7.6794e-07,5.77,-8.7146e-13,2.8318e-06,-7.6793e-07,-5.7699,0.76528
10908,12.506,0.27273,0,0.00026649,2663,8.9647e-05,20.415,8.6925e-05,-0.038924,-0.00026614,-2652.8,0.76399
10909,12.414,0.36364,0,0.0002696,2694.1,9.0887e-05,22.984,8.7822e-05,-0.045878,-0.0002692,-2682.5,0.75439
10910,12.506,0.36364,0.05,9.7033e-07,9.6966,7.451e-07,5.5984,4.7423e-14,2.222e-06,-7.451e-07,-5.5983,0.76442
10911,12.414,0.18182,0,0.00026901,2688.2,9.0132e-05,16.279,8.7962e-05,-0.024807,-0.00026872,-2680,0.75347
10912,12.506,0.18182,0.05,3.6943e-07,3.6917,2.8368e-07,2.1314,6.6684e-13,2.4559e-06,-2.8367e-07,-2.1314,0.76351
10913,12.506,0.090909,0,0.00026544,2652.5,8.8445e-05,10.188,8.7089e-05,-0.0039742,-0.00026526,-2647.4,0.76305
10914,12.322,5.7273,0,0.0002721,2719.1,9.136e-05,18.76,8.8859e-05,-0.032978,-0.00027177,-2709.7,0.74393
10915,12.23,5.8182,0,0.00027463,2744.4,9.1915e-05,15.403,8.9863e-05,-0.018198,-0.00027437,-2736.7,0.7335
10916,12.322,5.8182,0.05,3.143e-07,3.1409,2.4134e-07,1.8133,4.045e-12,-1.5292e-05,-2.4135e-07,-1.8134,0.74344
10917,12.322,5.9091,0,0.00027116,2709.8,9.0297e-05,9.7395,8.9001e-05,-0.0032269,-0.000271,-2704.9,0.74298
10918,12.322,5.5455,0,0.00027268,2724.9,9.2043e-05,24.653,8.8759e-05,-0.019516,-0.00027225,-2712.5,0.74483
10919,12.23,5.6364,0,0.00027507,2748.8,9.2504e-05,20.728,8.974e-05,-0.039706,-0.00027471,-2738.4,0.73443
10920,12.322,5.6364,0.05,9.4123e-07,9.4058,7.2274e-07,5.4304,6.3948e-12,4.248e-06,-7.2275e-07,-5.4305,0.74436
10921,12.322,5.3636,0,0.00027333,2731.4,9.2686e-05,29.828,8.8716e-05,0.0039213,-0.00027281,-2716.3,0.74566
10922,12.23,5.4545,0,0.00027565,2754.6,9.313e-05,25.966,8.9674e-05,0.0010843,-0.00027519,-2741.5,0.7353
10923,12.322,5.4545,0.05,9.7514e-07,9.7446,7.4878e-07,5.626,7.4334e-12,7.4972e-06,-7.4879e-07,-5.6261,0.74523
10924,12.322,5.1818,0,0.00027395,2737.6,9.3221e-05,33.778,8.8726e-05,0.0083429,-0.00027336,-2720.6,0.74644
10925,12.23,5.2727,0,0.00027622,2760.3,9.3666e-05,30.14,8.9655e-05,0.0047738,-0.00027569,-2745.1,0.73611
10926,12.322,5.2727,0.05,9.6654e-07,9.6588,7.4218e-07,5.5764,3.7889e-12,6.6431e-06,-7.4219e-07,-5.5766,0.74603
10927,12.322,5,0,0.00027453,2743.4,9.3636e-05,36.46,8.8785e-05,0.011828,-0.00027389,-2725,0.74715
10928,12.23,5.0909,0,0.00027676,2765.7,9.4096e-05,33.159,8.9684e-05,0.01016,-0.00027618,-2749,0.73685
10929,12.322,5.0909,0.05,9.5253e-07,9.5187,7.3142e-07,5.4956,6.4183e-12,7.7896e-06,-7.3143e-07,-5.4957,0.74678
10930,12.322,4.8182,0,0.00027506,2748.7,9.393e-05,37.91,8.8886e-05,0.012741,-0.00027439,-2729.5,0.7478
10931,12.23,4.9091,0,0.00027725,2770.6,9.4414e-05,35.02,8.9754e-05,0.011836,-0.00027664,-2752.9,0.73754
10932,12.322,4.9091,0.05,9.3603e-07,9.3539,7.1875e-07,5.4004,5.3803e-12,8.2361e-06,-7.1876e-07,-5.4005,0.74746
10933,12.322,4.6364,0,0.00027552,2753.3,9.4109e-05,38.235,8.9021e-05,0.012498,-0.00027485,-2734,0.74839
10934,12.23,4.7273,0,0.00027769,2775,9.4622e-05,35.792,8.986e-05,0.01231,-0.00027706,-2756.9,0.73816
10935,12.322,4.7273,0.05,9.1771e-07,9.1708,7.0469e-07,5.2947,5.2258e-12,7.9086e-06,-7.047e-07,-5.2948,0.74808
10936,12.322,4.4545,0,0.00027591,2757.2,9.4184e-05,37.595,8.9182e-05,0.011459,-0.00027525,-2738.2,0.74892
10937,12.23,4.5455,0,0.00027806,2778.7,9.4729e-05,35.596,8.9993e-05,0.011732,-0.00027744,-2760.7,0.73873
10938,12.322,4.5455,0.05,8.9814e-07,8.9752,6.8966e-07,5.1818,5.0981e-12,9.9168e-06,-6.8967e-07,-5.182,0.74864
10939,12.322,4.2727,0,0.00027623,2760.4,9.4174e-05,36.195,8.9358e-05,0.010093,-0.0002756,-2742.1,0.74938
10940,12.23,4.3636,0,0.00027837,2781.8,9.4749e-05,34.605,9.0145e-05,0.010639,-0.00027777,-2764.4,0.73922
10941,12.322,4.3636,0.05,8.7792e-07,8.7731,6.7413e-07,5.0651,5.0058e-12,9.6155e-06,-6.7414e-07,-5.0652,0.74913
10942,12.322,4.0909,0,0.00027649,2763,9.4099e-05,34.272,8.9539e-05,0.008751,-0.00027589,-2745.7,0.74978
10943,12.23,4.1818,0,0.00027862,2784.3,9.47e-05,33.024,9.0306e-05,0.0093696,-0.00027805,-2767.7,0.73966
10944,12.322,4.1818,0.05,8.5769e-07,8.5709,6.5859e-07,4.9484,4.0489e-12,1.078e-05,-6.586e-07,-4.9485,0.74957
10945,12.322,3.9091,0,0.00027669,2764.9,9.3981e-05,32.078,8.9713e-05,0.0077181,-0.00027613,-2748.8,0.75012
10946,12.23,4,0,0.00027882,2786.2,9.4602e-05,31.079,9.0466e-05,0.0082296,-0.00027827,-2770.6,0.74004
10947,12.322,4,0.05,8.3817e-07,8.3759,6.436e-07,4.8358,6.7741e-12,1.2296e-05,-6.4362e-07,-4.8359,0.74994
10948,12.322,3.7273,0,0.00027683,2766.4,9.3845e-05,29.865,8.9872e-05,0.0071692,-0.00027631,-2751.3,0.7504
10949,12.23,3.8182,0,0.00027896,2787.7,9.4476e-05,29.004,9.0617e-05,0.0074336,-0.00027846,-2773.1,0.74035
10950,12.322,3.8182,0.05,8.2014e-07,8.1957,6.2976e-07,4.7318,5.0621e-12,1.3748e-05,-6.2977e-07,-4.7319,0.75025
10951,12.322,3.5455,0,0.00027693,2767.4,9.3713e-05,27.865,9.0005e-05,0.0071275,-0.00027645,-2753.4,0.75062
10952,12.23,3.6364,0,0.00027906,2788.7,9.4345e-05,27.025,9.0749e-05,0.0070861,-0.00027859,-2775.1,0.7406
10953,12.322,3.6364,0.05,8.044e-07,8.0385,6.1768e-07,4.641,5.1412e-12,1.5808e-05,-6.1769e-07,-4.6411,0.7505
10954,12.322,3.3636,0,0.000277,2768.1,9.3603e-05,26.28,9.0106e-05,0.0074403,-0.00027654,-2754.9,0.75077
10955,12.23,3.4545,0,0.00027913,2789.4,9.4228e-05,25.344,9.0856e-05,0.0071411,-0.00027869,-2776.6,0.74078
10956,12.322,3.4545,0.05,7.9175e-07,7.912,6.0796e-07,4.5679,4.3592e-12,1.616e-05,-6.0797e-07,-4.5681,0.75068
10957,12.322,3.1818,0,0.00027704,2768.5,9.353e-05,25.264,9.0169e-05,0.0078227,-0.0002766,-2755.8,0.75087
10958,12.23,3.2727,0,0.00027917,2789.8,9.414e-05,24.126,9.093e-05,0.0074096,-0.00027875,-2777.7,0.74091
10959,12.322,3.2727,0.05,7.8286e-07,7.8232,6.0114e-07,4.5167,4.4553e-12,1.6254e-05,-6.0115e-07,-4.5168,0.75081
10960,12.322,3,0,0.00027705,2768.6,9.3505e-05,24.914,9.019e-05,0.0079903,-0.00027662,-2756,0.7509
10961,12.23,3.0909,0,0.00027919,2790,9.4093e-05,23.486,9.0968e-05,0.0076358,-0.00027878,-2778.2,0.74097
10962,12.322,3.0909,0.05,7.7828e-07,7.7774,5.9762e-07,4.4902,4.5275e-12,1.6061e-05,-5.9763e-07,-4.4904,0.75087
10963,12.322,2.8182,0,0.00027704,2768.5,9.353e-05,25.264,9.0169e-05,0.0078228,-0.0002766,-2755.8,0.75087
10964,12.23,2.9091,0,0.00027919,2790,9.4093e-05,23.486,9.0968e-05,0.0076361,-0.00027878,-2778.2,0.74097
10965,12.322,2.9091,0.05,7.7828e-07,7.7774,5.9762e-07,4.4902,4.5559e-12,1.6276e-05,-5.9763e-07,-4.4904,0.75087
10966,12.322,2.6364,0,0.000277,2768.1,9.3603e-05,26.28,9.0106e-05,0.0074405,-0.00027654,-2754.9,0.75077
10967,12.23,2.7273,0,0.00027917,2789.8,9.414e-05,24.126,9.093e-05,0.0074096,-0.00027875,-2777.7,0.74091
10968,12.322,2.7273,0.05,7.8286e-07,7.8232,6.0114e-07,4.5167,3.6326e-12,1.4262e-05,-6.0115e-07,-4.5168,0.75081
10969,12.322,2.4545,0,0.00027693,2767.4,9.3713e-05,27.865,9.0005e-05,0.0071276,-0.00027645,-2753.4,0.75062
10970,12.23,2.5455,0,0.00027913,2789.4,9.4228e-05,25.344,9.0856e-05,0.0071416,-0.00027869,-2776.6,0.74078
10971,12.322,2.5455,0.05,7.9175e-07,7.912,6.0796e-07,4.5679,3.6029e-12,1.2175e-05,-6.0797e-07,-4.568,0.75068
10972,12.322,2.2727,0,0.00027683,2766.4,9.3845e-05,29.865,8.9872e-05,0.0071692,-0.00027631,-2751.3,0.7504
10973,12.23,2.3636,0,0.00027906,2788.7,9.4345e-05,27.025,9.0749e-05,0.007086,-0.00027859,-2775.1,0.7406
10974,12.322,2.3636,0.05,8.044e-07,8.0385,6.1768e-07,4.641,2.6248e-12,1.0971e-05,-6.1769e-07,-4.641,0.7505
10975,12.322,2.0909,0,0.00027669,2764.9,9.3981e-05,32.078,8.9713e-05,0.007718,-0.00027613,-2748.8,0.75012
10976,12.23,2.1818,0,0.00027896,2787.7,9.4476e-05,29.004,9.0617e-05,0.0074339,-0.00027846,-2773.1,0.74035
10977,12.322,2.1818,0.05,8.2014e-07,8.1957,6.2977e-07,4.7318,2.6796e-12,9.4068e-06,-6.2976e-07,-4.7318,0.75025
10978,12.322,1.9091,0,0.00027649,2763,9.4099e-05,34.272,8.9539e-05,0.0087506,-0.00027589,-2745.7,0.74978
10979,12.23,2,0,0.00027882,2786.2,9.4602e-05,31.079,9.0466e-05,0.0082294,-0.00027827,-2770.6,0.74004
10980,12.322,2,0.05,8.3817e-07,8.3759,6.4361e-07,4.8358,2.6152e-12,7.9774e-06,-6.4361e-07,-4.8358,0.74994
10981,12.322,1.7273,0,0.00027623,2760.4,9.4174e-05,36.195,8.9358e-05,0.010093,-0.0002756,-2742.1,0.74938
10982,12.23,1.8182,0,0.00027862,2784.3,9.47e-05,33.024,9.0306e-05,0.0093702,-0.00027805,-2767.7,0.73966
10983,12.322,1.8182,0.05,8.5769e-07,8.5709,6.5859e-07,4.9484,2.6417e-12,6.2102e-06,-6.586e-07,-4.9484,0.74957
10984,12.322,1.5455,0,0.00027591,2757.2,9.4184e-05,37.595,8.9182e-05,0.011459,-0.00027525,-2738.2,0.74892
10985,12.23,1.6364,0,0.00027837,2781.8,9.4749e-05,34.605,9.0145e-05,0.010639,-0.00027777,-2764.4,0.73922
10986,12.322,1.6364,0.05,8.7792e-07,8.7731,6.7413e-07,5.0651,2.6711e-12,5.1179e-06,-6.7413e-07,-5.0652,0.74913
10987,12.322,1.3636,0,0.00027552,2753.3,9.4109e-05,38.235,8.9021e-05,0.012498,-0.00027485,-2734,0.74839
10988,12.23,1.4545,0,0.00027806,2778.7,9.4729e-05,35.596,8.9993e-05,0.011733,-0.00027744,-2760.7,0.73873
10989,12.322,1.4545,0.05,8.9814e-07,8.9752,6.8966e-07,5.1819,2.6607e-12,4.3512e-06,-6.8966e-07,-5.1819,0.74864
10990,12.322,1.1818,0,0.00027506,2748.7,9.393e-05,37.91,8.8886e-05,0.012741,-0.00027439,-2729.5,0.7478
10991,12.23,1.2727,0,0.00027769,2775,9.4622e-05,35.792,8.986e-05,0.01231,-0.00027706,-2756.9,0.73816
10992,12.322,1.2727,0.05,9.1771e-07,9.1708,7.0469e-07,5.2948,8.6069e-13,3.61e-06,-7.0469e-07,-5.2948,0.74808
10993,12.322,1,0,0.00027453,2743.4,9.3636e-05,36.46,8.8785e-05,0.011829,-0.00027389,-2725,0.74715
10994,12.23,1.0909,0,0.00027725,2770.6,9.4414e-05,35.02,8.9754e-05,0.011837,-0.00027664,-2752.9,0.73754
10995,12.322,1.0909,0.05,9.3603e-07,9.3539,7.1876e-07,5.4004,-1.2831e-14,3.0369e-06,-7.1876e-07,-5.4005,0.74746
10996,12.322,0.81818,0,0.00027395,2737.6,9.3221e-05,33.778,8.8726e-05,0.0083439,-0.00027336,-2720.6,0.74644
10997,12.23,0.90909,0,0.00027676,2765.7,9.4096e-05,33.159,8.9684e-05,0.010161,-0.00027618,-2749,0.73685
10998,12.322,0.90909,0.05,9.5253e-07,9.5187,7.3143e-07,5.4957,9.8675e-15,2.7051e-06,-7.3143e-07,-5.4957,0.74678
10999,12.322,0.63636,0,0.00027333,2731.4,9.2686e-05,29.828,8.8716e-05,0.0039217,-0.00027281,-2716.3,0.74566
11000,12.23,0.72727,0,0.00027622,2760.3,9.3666e-05,30.14,8.9655e-05,0.0047749,-0.00027569,-2745.1,0.73611
11001,12.322,0.72727,0.05,9.6654e-07,9.6588,7.4219e-07,5.5765,1.6715e-14,2.8995e-06,-7.4219e-07,-5.5765,0.74603
11002,12.322,0.45455,0,0.00027268,2724.9,9.2043e-05,24.653,8.8759e-05,-0.019516,-0.00027225,-2712.5,0.74483
11003,12.23,0.54545,0,0.00027565,2754.6,9.313e-05,25.966,8.9674e-05,0.0010848,-0.00027519,-2741.5,0.7353
11004,12.322,0.54545,0.05,9.7514e-07,9.7446,7.4878e-07,5.6261,2.8908e-14,2.7383e-06,-7.4878e-07,-5.6261,0.74523
11005,12.322,0.27273,0,0.0002721,2719.1,9.136e-05,18.76,8.8859e-05,-0.032978,-0.00027177,-2709.7,0.74393
11006,12.23,0.36364,0,0.00027507,2748.8,9.2504e-05,20.728,8.974e-05,-0.039706,-0.00027471,-2738.4,0.73443
11007,12.322,0.36364,0.05,9.4123e-07,9.4058,7.2275e-07,5.4305,-1.5331e-22,1.8922e-06,-7.2275e-07,-5.4305,0.74436
11008,12.23,0.18182,0,0.00027463,2744.4,9.1915e-05,15.403,8.9863e-05,-0.018198,-0.00027437,-2736.7,0.7335
11009,12.322,0.18182,0.05,3.143e-07,3.1409,2.4135e-07,1.8134,1.5839e-13,2.8898e-06,-2.4135e-07,-1.8134,0.74344
11010,12.322,0.090909,0,0.00027116,2709.8,9.0297e-05,9.7395,8.9001e-05,-0.0032264,-0.000271,-2704.9,0.74298
11011,12.138,5.7273,0,0.00027759,2773.9,9.3048e-05,17.284,9.0744e-05,-0.027712,-0.00027729,-2765.3,0.72405
11012,12.046,5.8182,0,0.00028014,2799.5,9.3666e-05,14.605,9.1721e-05,-0.01307,-0.00027989,-2792.1,0.7137
11013,12.138,5.8182,0.05,2.6933e-07,2.6915,2.0681e-07,1.5538,2.2064e-12,-2.005e-05,-2.0682e-07,-1.554,0.72355
11014,12.138,5.9091,0,0.00027675,2765.6,9.2107e-05,9.3281,9.0866e-05,-0.0025703,-0.00027659,-2760.9,0.72309
11015,12.138,5.5455,0,0.00027803,2778.4,9.3587e-05,22.012,9.0655e-05,-0.017255,-0.00027765,-2767.3,0.72496
11016,12.046,5.6364,0,0.00028044,2802.5,9.411e-05,18.721,9.1614e-05,-0.034146,-0.00028012,-2793.1,0.71465
11017,12.138,5.6364,0.05,9.1864e-07,9.1801,7.054e-07,5.3001,4.5793e-12,4.0025e-06,-7.0541e-07,-5.3002,0.72449
11018,12.138,5.3636,0,0.00027854,2783.4,9.4107e-05,26.258,9.0613e-05,0.0029171,-0.00027808,-2770.2,0.7258
11019,12.046,5.4545,0,0.00028089,2807,9.4612e-05,22.977,9.1554e-05,0.00033614,-0.00028049,-2795.4,0.71553
11020,12.138,5.4545,0.05,9.5592e-07,9.5526,7.3402e-07,5.5151,5.5732e-12,6.4905e-06,-7.3403e-07,-5.5152,0.72537
11021,12.138,5.1818,0,0.00027903,2788.3,9.4539e-05,29.505,9.0614e-05,0.0071199,-0.00027851,-2773.5,0.72659
11022,12.046,5.2727,0,0.00028134,2811.4,9.5043e-05,26.377,9.1533e-05,0.003878,-0.00028088,-2798.2,0.71635
11023,12.138,5.2727,0.05,9.5007e-07,9.4941,7.2953e-07,5.4813,5.5663e-12,6.0726e-06,-7.2954e-07,-5.4815,0.72618
11024,12.138,5,0,0.00027948,2792.9,9.4872e-05,31.706,9.0654e-05,0.010476,-0.00027893,-2776.9,0.72731
11025,12.046,5.0909,0,0.00028176,2815.6,9.5385e-05,28.829,9.1549e-05,0.0088303,-0.00028126,-2801.1,0.7171
11026,12.138,5.0909,0.05,9.3922e-07,9.3857,7.212e-07,5.4188,6.4209e-12,7.1158e-06,-7.2121e-07,-5.4189,0.72693
11027,12.138,4.8182,0,0.00027988,2796.9,9.5104e-05,32.889,9.0729e-05,0.011586,-0.00027931,-2780.3,0.72797
11028,12.046,4.9091,0,0.00028214,2819.4,9.5635e-05,30.328,9.16e-05,0.010595,-0.00028161,-2804.1,0.7178
11029,12.138,4.9091,0.05,9.2629e-07,9.2565,7.1127e-07,5.3442,5.4165e-12,7.3188e-06,-7.1128e-07,-5.3443,0.72762
11030,12.138,4.6364,0,0.00028023,2800.4,9.5241e-05,33.141,9.0832e-05,0.011645,-0.00027966,-2783.7,0.72856
11031,12.046,4.7273,0,0.00028247,2822.7,9.5794e-05,30.929,9.168e-05,0.011274,-0.00028193,-2807.1,0.71843
11032,12.138,4.7273,0.05,9.1187e-07,9.1124,7.002e-07,5.261,5.3167e-12,7.1923e-06,-7.0021e-07,-5.2611,0.72825
11033,12.138,4.4545,0,0.00028053,2803.3,9.5293e-05,32.596,9.0956e-05,0.010959,-0.00027996,-2786.9,0.7291
11034,12.046,4.5455,0,0.00028275,2825.5,9.5871e-05,30.733,9.1782e-05,0.010999,-0.00028221,-2810,0.719
11035,12.138,4.5455,0.05,8.9644e-07,8.9582,6.8835e-07,5.172,5.2047e-12,9.614e-06,-6.8836e-07,-5.1721,0.72882
11036,12.138,4.2727,0,0.00028077,2805.7,9.5274e-05,31.422,9.1093e-05,0.0099214,-0.00028022,-2789.9,0.72957
11037,12.046,4.3636,0,0.00028298,2827.8,9.5875e-05,29.881,9.19e-05,0.010219,-0.00028246,-2812.8,0.7195
11038,12.138,4.3636,0.05,8.805e-07,8.7989,6.7611e-07,5.08,4.2285e-12,9.1326e-06,-6.7612e-07,-5.0801,0.72932
11039,12.138,4.0909,0,0.00028095,2807.6,9.5201e-05,29.818,9.1234e-05,0.0088252,-0.00028043,-2792.5,0.72998
11040,12.046,4.1818,0,0.00028316,2829.6,9.5823e-05,28.545,9.2025e-05,0.00922,-0.00028266,-2815.2,0.71995
11041,12.138,4.1818,0.05,8.6458e-07,8.6399,6.6389e-07,4.9882,5.1116e-12,1.05e-05,-6.639e-07,-4.9883,0.72976
11042,12.138,3.9091,0,0.00028109,2809,9.5095e-05,27.992,9.137e-05,0.0079084,-0.0002806,-2794.9,0.73032
11043,12.046,4,0,0.00028329,2831,9.5731e-05,26.912,9.2151e-05,0.0082583,-0.00028282,-2817.4,0.72032
11044,12.138,4,0.05,8.4929e-07,8.487,6.5214e-07,4.8999,3.3176e-12,1.1262e-05,-6.5215e-07,-4.9,0.73013
11045,12.138,3.7273,0,0.00028119,2810,9.4975e-05,26.153,9.1495e-05,0.0073207,-0.00028074,-2796.8,0.7306
11046,12.046,3.8182,0,0.00028339,2831.9,9.5619e-05,25.177,9.2269e-05,0.0075146,-0.00028295,-2819.3,0.72064
11047,12.138,3.8182,0.05,8.3521e-07,8.3464,6.4133e-07,4.8187,4.2539e-12,1.2563e-05,-6.4134e-07,-4.8188,0.73045
11048,12.138,3.5455,0,0.00028126,2810.6,9.4859e-05,24.492,9.16e-05,0.0071014,-0.00028083,-2798.3,0.73082
11049,12.046,3.6364,0,0.00028345,2832.6,9.5503e-05,23.526,9.2373e-05,0.0070876,-0.00028305,-2820.7,0.72089
11050,12.138,3.6364,0.05,8.2298e-07,8.2241,6.3195e-07,4.7482,5.2365e-12,1.4316e-05,-6.3195e-07,-4.7483,0.7307
11051,12.138,3.3636,0,0.0002813,2811.1,9.4763e-05,23.177,9.1679e-05,0.0071518,-0.0002809,-2799.4,0.73098
11052,12.046,3.4545,0,0.0002835,2833,9.54e-05,22.125,9.2456e-05,0.0069657,-0.00028311,-2821.9,0.72108
11053,12.138,3.4545,0.05,8.1319e-07,8.1263,6.2442e-07,4.6916,4.4056e-12,1.4912e-05,-6.2443e-07,-4.6918,0.73089
11054,12.138,3.1818,0,0.00028132,2811.3,9.47e-05,22.335,9.1729e-05,0.0073243,-0.00028094,-2800.1,0.73107
11055,12.046,3.2727,0,0.00028352,2833.3,9.5324e-05,21.11,9.2515e-05,0.0070321,-0.00028316,-2822.6,0.72121
11056,12.138,3.2727,0.05,8.0634e-07,8.0578,6.1916e-07,4.6521,4.4794e-12,1.4756e-05,-6.1917e-07,-4.6522,0.73101
11057,12.138,3,0,0.00028133,2811.4,9.4679e-05,22.045,9.1746e-05,0.0074041,-0.00028095,-2800.3,0.7311
11058,12.046,3.0909,0,0.00028353,2833.4,9.5283e-05,20.578,9.2545e-05,0.0071253,-0.00028318,-2823,0.72127
11059,12.138,3.0909,0.05,8.0281e-07,8.0226,6.1646e-07,4.6318,5.4404e-12,1.5374e-05,-6.1647e-07,-4.6319,0.73107
11060,12.138,2.8182,0,0.00028132,2811.3,9.47e-05,22.335,9.1729e-05,0.0073245,-0.00028094,-2800.1,0.73107
11061,12.046,2.9091,0,0.00028353,2833.4,9.5283e-05,20.578,9.2545e-05,0.0071254,-0.00028318,-2823,0.72127
11062,12.138,2.9091,0.05,8.0281e-07,8.0226,6.1646e-07,4.6318,4.5568e-12,1.509e-05,-6.1647e-07,-4.6319,0.73107
11063,12.138,2.6364,0,0.0002813,2811.1,9.4763e-05,23.177,9.1679e-05,0.0071518,-0.0002809,-2799.4,0.73098
11064,12.046,2.7273,0,0.00028352,2833.3,9.5324e-05,21.11,9.2515e-05,0.0070325,-0.00028316,-2822.6,0.72121
11065,12.138,2.7273,0.05,8.0634e-07,8.0578,6.1916e-07,4.6522,3.6474e-12,1.3467e-05,-6.1917e-07,-4.6522,0.73101
11066,12.138,2.4545,0,0.00028126,2810.6,9.4859e-05,24.492,9.16e-05,0.0071017,-0.00028083,-2798.3,0.73082
11067,12.046,2.5455,0,0.0002835,2833,9.54e-05,22.125,9.2456e-05,0.0069657,-0.00028311,-2821.9,0.72108
11068,12.138,2.5455,0.05,8.1319e-07,8.1263,6.2442e-07,4.6917,3.6253e-12,1.2111e-05,-6.2443e-07,-4.6918,0.73089
11069,12.138,2.2727,0,0.00028119,2810,9.4975e-05,26.153,9.1495e-05,0.0073209,-0.00028074,-2796.8,0.7306
11070,12.046,2.3636,0,0.00028345,2832.6,9.5503e-05,23.526,9.2373e-05,0.0070877,-0.00028305,-2820.7,0.72089
11071,12.138,2.3636,0.05,8.2298e-07,8.2241,6.3194e-07,4.7482,3.6006e-12,1.0704e-05,-6.3195e-07,-4.7483,0.7307
11072,12.138,2.0909,0,0.00028109,2809,9.5095e-05,27.992,9.137e-05,0.0079086,-0.0002806,-2794.9,0.73032
11073,12.046,2.1818,0,0.00028339,2831.9,9.5619e-05,25.177,9.2269e-05,0.0075149,-0.00028295,-2819.3,0.72064
11074,12.138,2.1818,0.05,8.3521e-07,8.3464,6.4133e-07,4.8187,2.6576e-12,9.0081e-06,-6.4134e-07,-4.8188,0.73045
11075,12.138,1.9091,0,0.00028095,2807.6,9.5201e-05,29.818,9.1234e-05,0.008826,-0.00028043,-2792.5,0.72998
11076,12.046,2,0,0.00028329,2831,9.5731e-05,26.912,9.2151e-05,0.0082586,-0.00028282,-2817.4,0.72032
11077,12.138,2,0.05,8.4929e-07,8.487,6.5215e-07,4.8999,3.584e-12,7.5126e-06,-6.5215e-07,-4.9,0.73013
11078,12.138,1.7273,0,0.00028077,2805.7,9.5274e-05,31.422,9.1093e-05,0.0099219,-0.00028022,-2789.9,0.72957
11079,12.046,1.8182,0,0.00028316,2829.6,9.5823e-05,28.545,9.2025e-05,0.0092208,-0.00028266,-2815.2,0.71995
11080,12.138,1.8182,0.05,8.6458e-07,8.6399,6.6389e-07,4.9882,8.3637e-13,6.3586e-06,-6.639e-07,-4.9883,0.72976
11081,12.138,1.5455,0,0.00028053,2803.3,9.5293e-05,32.596,9.0956e-05,0.010959,-0.00027996,-2786.9,0.7291
11082,12.046,1.6364,0,0.00028298,2827.8,9.5875e-05,29.881,9.19e-05,0.010219,-0.00028246,-2812.8,0.7195
11083,12.138,1.6364,0.05,8.805e-07,8.7989,6.7611e-07,5.08,8.549e-13,5.2518e-06,-6.7612e-07,-5.0801,0.72932
11084,12.138,1.3636,0,0.00028023,2800.4,9.5241e-05,33.141,9.0832e-05,0.011646,-0.00027966,-2783.7,0.72856
11085,12.046,1.4545,0,0.00028275,2825.5,9.5871e-05,30.733,9.1782e-05,0.010999,-0.00028221,-2810,0.719
11086,12.138,1.4545,0.05,8.9644e-07,8.9582,6.8835e-07,5.172,1.7918e-12,4.4806e-06,-6.8836e-07,-5.172,0.72882
11087,12.138,1.1818,0,0.00027988,2796.9,9.5104e-05,32.889,9.0729e-05,0.011587,-0.00027931,-2780.3,0.72797
11088,12.046,1.2727,0,0.00028247,2822.7,9.5794e-05,30.929,9.168e-05,0.011275,-0.00028193,-2807.1,0.71843
11089,12.138,1.2727,0.05,9.1187e-07,9.1124,7.0021e-07,5.261,-1.1572e-14,3.9336e-06,-7.002e-07,-5.2611,0.72825
11090,12.138,1,0,0.00027948,2792.9,9.4872e-05,31.706,9.0654e-05,0.010476,-0.00027893,-2776.9,0.72731
11091,12.046,1.0909,0,0.00028214,2819.4,9.5635e-05,30.328,9.16e-05,0.010596,-0.00028161,-2804.1,0.7178
11092,12.138,1.0909,0.05,9.2629e-07,9.2565,7.1128e-07,5.3442,9.0773e-13,3.0688e-06,-7.1128e-07,-5.3443,0.72762
11093,12.138,0.81818,0,0.00027903,2788.3,9.4539e-05,29.505,9.0614e-05,0.007121,-0.00027851,-2773.5,0.72659
11094,12.046,0.90909,0,0.00028176,2815.6,9.5385e-05,28.829,9.1549e-05,0.0088317,-0.00028126,-2801.1,0.7171
11095,12.138,0.90909,0.05,9.3922e-07,9.3857,7.2121e-07,5.4188,9.2091e-13,1.9749e-06,-7.2121e-07,-5.4189,0.72693
11096,12.138,0.63636,0,0.00027854,2783.4,9.4107e-05,26.258,9.0613e-05,0.0029181,-0.00027808,-2770.2,0.7258
11097,12.046,0.72727,0,0.00028134,2811.4,9.5043e-05,26.377,9.1533e-05,0.0038795,-0.00028088,-2798.2,0.71635
11098,12.138,0.72727,0.05,9.5007e-07,9.4941,7.2953e-07,5.4814,9.2408e-13,2.8166e-06,-7.2953e-07,-5.4814,0.72618
11099,12.138,0.45455,0,0.00027803,2778.4,9.3587e-05,22.012,9.0655e-05,-0.017254,-0.00027765,-2767.3,0.72496
11100,12.046,0.54545,0,0.00028089,2807,9.4612e-05,22.977,9.1554e-05,0.00033686,-0.00028049,-2795.4,0.71553
11101,12.138,0.54545,0.05,9.5592e-07,9.5526,7.3403e-07,5.5152,1.1861e-14,3.4063e-06,-7.3402e-07,-5.5152,0.72537
11102,12.138,0.27273,0,0.00027759,2773.9,9.3048e-05,17.284,9.0744e-05,-0.027711,-0.00027729,-2765.3,0.72405
11103,12.046,0.36364,0,0.00028044,2802.5,9.411e-05,18.721,9.1614e-05,-0.034146,-0.00028012,-2793.1,0.71465
11104,12.138,0.36364,0.05,9.1864e-07,9.1801,7.054e-07,5.3001,-8.6579e-13,2.4175e-06,-7.054e-07,-5.3001,0.72449
11105,12.046,0.18182,0,0.00028014,2799.5,9.3666e-05,14.605,9.1721e-05,-0.01307,-0.00027989,-2792.1,0.7137
11106,12.138,0.18182,0.05,2.6933e-07,2.6915,2.0681e-07,1.5539,1.5734e-13,1.6421e-06,-2.0681e-07,-1.5539,0.72355
11107,12.138,0.090909,0,0.00027675,2765.6,9.2107e-05,9.3281,9.0866e-05,-0.00257,-0.00027659,-2760.9,0.72309
11108,11.954,5.7273,0,0.00028298,2827.9,9.4717e-05,15.956,9.2591e-05,-0.023149,-0.00028271,-2819.9,0.70436
11109,11.862,5.8182,0,0.00028556,2853.6,9.5392e-05,13.868,9.3545e-05,-0.0091793,-0.00028532,-2846.7,0.6941
11110,11.954,5.8182,0.05,2.3281e-07,2.3265,1.7876e-07,1.3431,4.6902e-12,-1.1595e-05,-1.7877e-07,-1.3432,0.70386
11111,11.954,5.9091,0,0.00028224,2820.4,9.3885e-05,8.945,9.2694e-05,-0.0020482,-0.00028208,-2815.9,0.70338
11112,11.954,5.5455,0,0.0002833,2831.1,9.5132e-05,19.659,9.2513e-05,-0.015157,-0.00028296,-2821.2,0.70528
11113,11.862,5.6364,0,0.00028575,2855.5,9.571e-05,16.924,9.3454e-05,-0.029139,-0.00028545,-2847,0.69506
11114,11.954,5.6364,0.05,9.0132e-07,9.007,6.921e-07,5.2001,5.5166e-12,3.8634e-06,-6.9211e-07,-5.2003,0.7048
11115,11.954,5.3636,0,0.00028369,2835,9.5544e-05,23.075,9.2474e-05,0.0020961,-0.00028329,-2823.4,0.70613
11116,11.862,5.4545,0,0.00028609,2858.9,9.6103e-05,20.306,9.3401e-05,-0.00019612,-0.00028574,-2848.7,0.69595
11117,11.954,5.4545,0.05,9.4131e-07,9.4066,7.2281e-07,5.4308,6.4734e-12,6.1912e-06,-7.2281e-07,-5.431,0.70569
11118,11.954,5.1818,0,0.00028407,2838.7,9.5886e-05,25.683,9.2468e-05,0.0060308,-0.00028362,-2825.8,0.70693
11119,11.862,5.2727,0,0.00028643,2862.3,9.644e-05,23.006,9.3379e-05,0.003143,-0.00028603,-2850.7,0.69678
11120,11.954,5.2727,0.05,9.3765e-07,9.37,7.1999e-07,5.4097,4.6426e-12,5.5098e-06,-7.2e-07,-5.4099,0.70652
11121,11.954,5,0,0.00028442,2842.2,9.6146e-05,27.436,9.2496e-05,0.0092104,-0.00028394,-2828.4,0.70766
11122,11.862,5.0909,0,0.00028674,2865.4,9.6705e-05,24.935,9.3388e-05,0.0076529,-0.00028631,-2852.9,0.69754
11123,11.954,5.0909,0.05,9.2934e-07,9.287,7.1361e-07,5.3618,5.5105e-12,6.6295e-06,-7.1362e-07,-5.3619,0.70728
11124,11.954,4.8182,0,0.00028472,2845.2,9.6323e-05,28.353,9.2551e-05,0.01044,-0.00028423,-2831,0.70832
11125,11.862,4.9091,0,0.00028703,2868.3,9.6895e-05,26.086,9.3424e-05,0.0094419,-0.00028657,-2855.1,0.69825
11126,11.954,4.9091,0.05,9.1928e-07,9.1865,7.0589e-07,5.3037,4.529e-12,7.0324e-06,-7.059e-07,-5.3039,0.70798
11127,11.954,4.6364,0,0.00028498,2847.9,9.6422e-05,28.507,9.263e-05,0.010718,-0.00028449,-2833.5,0.70893
11128,11.862,4.7273,0,0.00028727,2870.7,9.701e-05,26.502,9.3484e-05,0.010256,-0.00028681,-2857.4,0.69889
11129,11.954,4.7273,0.05,9.08e-07,9.0738,6.9723e-07,5.2387,4.4443e-12,7.3566e-06,-6.9724e-07,-5.2388,0.70861
11130,11.954,4.4545,0,0.0002852,2850,9.6451e-05,28.005,9.2725e-05,0.010303,-0.00028471,-2835.9,0.70947
11131,11.862,4.5455,0,0.00028747,2872.8,9.7058e-05,26.267,9.3563e-05,0.010207,-0.00028702,-2859.5,0.69946
11132,11.954,4.5455,0.05,8.959e-07,8.9528,6.8794e-07,5.1688,4.3862e-12,9.1938e-06,-6.8794e-07,-5.169,0.70918
11133,11.954,4.2727,0,0.00028537,2851.7,9.6423e-05,26.991,9.2832e-05,0.0095285,-0.0002849,-2838.1,0.70994
11134,11.862,4.3636,0,0.00028764,2874.4,9.7047e-05,25.499,9.3655e-05,0.0096731,-0.00028719,-2861.5,0.69997
11135,11.954,4.3636,0.05,8.8339e-07,8.8278,6.7833e-07,5.0967,5.2262e-12,8.8381e-06,-6.7834e-07,-5.0968,0.70969
11136,11.954,4.0909,0,0.0002855,2853,9.6351e-05,25.626,9.2942e-05,0.0086414,-0.00028505,-2840.1,0.71036
11137,11.862,4.1818,0,0.00028776,2875.6,9.6991e-05,24.337,9.3753e-05,0.008897,-0.00028734,-2863.3,0.70042
11138,11.954,4.1818,0.05,8.7092e-07,8.7032,6.6875e-07,5.0247,4.3095e-12,9.8505e-06,-6.6876e-07,-5.0248,0.71014
11139,11.954,3.9091,0,0.00028559,2853.9,9.6254e-05,24.085,9.3049e-05,0.0078414,-0.00028517,-2841.8,0.71071
11140,11.862,4,0,0.00028785,2876.5,9.6903e-05,22.94,9.3851e-05,0.0080935,-0.00028745,-2864.9,0.7008
11141,11.954,4,0.05,8.5895e-07,8.5836,6.5957e-07,4.9557,5.217e-12,1.1329e-05,-6.5957e-07,-4.9558,0.71052
11142,11.954,3.7273,0,0.00028565,2854.5,9.6146e-05,22.538,9.3147e-05,0.0072614,-0.00028526,-2843.2,0.71099
11143,11.862,3.8182,0,0.00028791,2877.1,9.68e-05,21.466,9.3944e-05,0.0074197,-0.00028753,-2866.3,0.70112
11144,11.954,3.8182,0.05,8.4798e-07,8.474,6.5114e-07,4.8924,4.329e-12,1.2218e-05,-6.5115e-07,-4.8925,0.71084
11145,11.954,3.5455,0,0.00028569,2854.9,9.6043e-05,21.145,9.323e-05,0.0069519,-0.00028533,-2844.3,0.71121
11146,11.862,3.6364,0,0.00028794,2877.4,9.6696e-05,20.069,9.4026e-05,0.0069698,-0.0002876,-2867.4,0.70138
11147,11.954,3.6364,0.05,8.3848e-07,8.379,6.4384e-07,4.8376,4.3784e-12,1.4056e-05,-6.4385e-07,-4.8377,0.71109
11148,11.954,3.3636,0,0.00028572,2855.2,9.5959e-05,20.044,9.3292e-05,0.0068679,-0.00028537,-2845.1,0.71137
11149,11.862,3.4545,0,0.00028797,2877.7,9.6605e-05,18.888,9.4092e-05,0.0067537,-0.00028764,-2868.2,0.70157
11150,11.954,3.4545,0.05,8.3089e-07,8.3032,6.3802e-07,4.7938,4.4402e-12,1.3934e-05,-6.3802e-07,-4.7939,0.71128
11151,11.954,3.1818,0,0.00028573,2855.3,9.5904e-05,19.34,9.3331e-05,0.0068979,-0.00028539,-2845.6,0.71147
11152,11.862,3.2727,0,0.00028798,2877.8,9.6538e-05,18.034,9.4138e-05,0.0067047,-0.00028767,-2868.7,0.7017
11153,11.954,3.2727,0.05,8.256e-07,8.2503,6.3395e-07,4.7633,7.2197e-12,1.4136e-05,-6.3396e-07,-4.7634,0.71141
11154,11.954,3,0,0.00028573,2855.3,9.5885e-05,19.097,9.3345e-05,0.0069248,-0.0002854,-2845.7,0.7115
11155,11.862,3.0909,0,0.00028798,2877.8,9.6502e-05,17.586,9.4162e-05,0.0067193,-0.00028768,-2869,0.70176
11156,11.954,3.0909,0.05,8.2288e-07,8.2231,6.3186e-07,4.7476,5.4424e-12,1.396e-05,-6.3188e-07,-4.7476,0.71147
11157,11.954,2.8182,0,0.00028573,2855.3,9.5904e-05,19.34,9.3331e-05,0.0068981,-0.00028539,-2845.6,0.71147
11158,11.862,2.9091,0,0.00028798,2877.8,9.6502e-05,17.586,9.4162e-05,0.0067194,-0.00028768,-2869,0.70176
11159,11.954,2.9091,0.05,8.2288e-07,8.2231,6.3186e-07,4.7476,4.5573e-12,1.4143e-05,-6.3187e-07,-4.7476,0.71147
11160,11.954,2.6364,0,0.00028572,2855.2,9.5959e-05,20.044,9.3292e-05,0.0068681,-0.00028537,-2845.1,0.71137
11161,11.862,2.7273,0,0.00028798,2877.8,9.6538e-05,18.034,9.4138e-05,0.0067049,-0.00028767,-2868.7,0.7017
11162,11.954,2.7273,0.05,8.256e-07,8.2503,6.3395e-07,4.7633,4.5643e-12,1.3474e-05,-6.3396e-07,-4.7634,0.71141
11163,11.954,2.4545,0,0.00028569,2854.9,9.6043e-05,21.145,9.323e-05,0.0069517,-0.00028533,-2844.3,0.71121
11164,11.862,2.5455,0,0.00028797,2877.7,9.6605e-05,18.888,9.4092e-05,0.006754,-0.00028764,-2868.2,0.70157
11165,11.954,2.5455,0.05,8.3089e-07,8.3032,6.3802e-07,4.7938,3.6469e-12,1.2281e-05,-6.3803e-07,-4.7939,0.71128
11166,11.954,2.2727,0,0.00028565,2854.5,9.6146e-05,22.538,9.3147e-05,0.0072616,-0.00028526,-2843.2,0.71099
11167,11.862,2.3636,0,0.00028794,2877.4,9.6696e-05,20.069,9.4026e-05,0.0069696,-0.0002876,-2867.4,0.70138
11168,11.954,2.3636,0.05,8.3848e-07,8.379,6.4385e-07,4.8376,3.6389e-12,1.0682e-05,-6.4385e-07,-4.8377,0.71109
11169,11.954,2.0909,0,0.00028559,2853.9,9.6254e-05,24.085,9.3049e-05,0.0078416,-0.00028517,-2841.8,0.71071
11170,11.862,2.1818,0,0.00028791,2877.1,9.68e-05,21.466,9.3944e-05,0.0074202,-0.00028753,-2866.3,0.70112
11171,11.954,2.1818,0.05,8.4798e-07,8.474,6.5114e-07,4.8924,3.6186e-12,9.3736e-06,-6.5115e-07,-4.8925,0.71084
11172,11.954,1.9091,0,0.0002855,2853,9.6351e-05,25.626,9.2942e-05,0.0086417,-0.00028505,-2840.1,0.71036
11173,11.862,2,0,0.00028785,2876.5,9.6903e-05,22.94,9.3851e-05,0.0080937,-0.00028745,-2864.9,0.7008
11174,11.954,2,0.05,8.5895e-07,8.5836,6.5957e-07,4.9557,2.7062e-12,8.1903e-06,-6.5957e-07,-4.9558,0.71052
11175,11.954,1.7273,0,0.00028537,2851.7,9.6423e-05,26.991,9.2832e-05,0.0095292,-0.0002849,-2838.1,0.70994
11176,11.862,1.8182,0,0.00028776,2875.6,9.6991e-05,24.337,9.3753e-05,0.0088973,-0.00028734,-2863.3,0.70042
11177,11.954,1.8182,0.05,8.7092e-07,8.7032,6.6876e-07,5.0248,1.8049e-12,7.0317e-06,-6.6876e-07,-5.0248,0.71014
11178,11.954,1.5455,0,0.0002852,2850,9.6451e-05,28.005,9.2725e-05,0.010303,-0.00028471,-2835.9,0.70947
11179,11.862,1.6364,0,0.00028764,2874.4,9.7047e-05,25.499,9.3655e-05,0.0096736,-0.00028719,-2861.5,0.69997
11180,11.954,1.6364,0.05,8.8339e-07,8.8278,6.7833e-07,5.0967,8.7842e-13,6.3028e-06,-6.7834e-07,-5.0967,0.70969
11181,11.954,1.3636,0,0.00028498,2847.9,9.6422e-05,28.507,9.263e-05,0.010718,-0.00028449,-2833.5,0.70893
11182,11.862,1.4545,0,0.00028747,2872.8,9.7058e-05,26.267,9.3563e-05,0.010207,-0.00028702,-2859.5,0.69946
11183,11.954,1.4545,0.05,8.959e-07,8.9528,6.8794e-07,5.1689,1.8103e-12,5.0943e-06,-6.8794e-07,-5.1689,0.70918
11184,11.954,1.1818,0,0.00028472,2845.2,9.6323e-05,28.353,9.2551e-05,0.01044,-0.00028423,-2831,0.70832
11185,11.862,1.2727,0,0.00028727,2870.7,9.701e-05,26.502,9.3484e-05,0.010257,-0.00028681,-2857.4,0.69889
11186,11.954,1.2727,0.05,9.08e-07,9.0738,6.9723e-07,5.2387,-9.6496e-15,4.7315e-06,-6.9724e-07,-5.2387,0.70861
11187,11.954,1,0,0.00028442,2842.2,9.6146e-05,27.436,9.2496e-05,0.0092116,-0.00028394,-2828.4,0.70766
11188,11.862,1.0909,0,0.00028703,2868.3,9.6895e-05,26.086,9.3424e-05,0.0094425,-0.00028657,-2855.1,0.69825
11189,11.954,1.0909,0.05,9.1928e-07,9.1865,7.059e-07,5.3038,9.07e-13,4.0322e-06,-7.059e-07,-5.3038,0.70798
11190,11.954,0.81818,0,0.00028407,2838.7,9.5886e-05,25.683,9.2468e-05,0.0060326,-0.00028362,-2825.8,0.70693
11191,11.862,0.90909,0,0.00028674,2865.4,9.6705e-05,24.935,9.3388e-05,0.0076543,-0.00028631,-2852.9,0.69754
11192,11.954,0.90909,0.05,9.2934e-07,9.287,7.1362e-07,5.3618,9.1834e-13,3.814e-06,-7.1362e-07,-5.3618,0.70728
11193,11.954,0.63636,0,0.00028369,2835,9.5544e-05,23.075,9.2474e-05,0.0020973,-0.00028329,-2823.4,0.70613
11194,11.862,0.72727,0,0.00028643,2862.3,9.644e-05,23.006,9.3379e-05,0.0031446,-0.00028603,-2850.7,0.69678
11195,11.954,0.72727,0.05,9.3765e-07,9.37,7.2e-07,5.4098,7.1197e-15,3.1861e-06,-7.2e-07,-5.4098,0.70652
11196,11.954,0.45455,0,0.0002833,2831.1,9.5132e-05,19.659,9.2513e-05,-0.015157,-0.00028296,-2821.2,0.70528
11197,11.862,0.54545,0,0.00028609,2858.9,9.6103e-05,20.306,9.3401e-05,-0.00019587,-0.00028574,-2848.7,0.69595
11198,11.954,0.54545,0.05,9.4131e-07,9.4066,7.2281e-07,5.4309,-8.9802e-13,3.2225e-06,-7.2281e-07,-5.4309,0.70569
11199,11.954,0.27273,0,0.00028298,2827.9,9.4717e-05,15.956,9.259e-05,-0.023149,-0.00028271,-2819.9,0.70436
11200,11.862,0.36364,0,0.00028575,2855.5,9.571e-05,16.924,9.3454e-05,-0.029139,-0.00028545,-2847,0.69506
11201,11.954,0.36364,0.05,9.0132e-07,9.007,6.9211e-07,5.2002,6.5204e-14,2.7276e-06,-6.9211e-07,-5.2002,0.7048
11202,11.862,0.18182,0,0.00028556,2853.6,9.5392e-05,13.868,9.3545e-05,-0.0091784,-0.00028532,-2846.6,0.6941
11203,11.954,0.18182,0.05,2.3281e-07,2.3265,1.7877e-07,1.3432,3.3004e-13,7.2788e-06,-1.7876e-07,-1.3432,0.70386
11204,11.954,0.090909,0,0.00028224,2820.4,9.3885e-05,8.945,9.2694e-05,-0.0020472,-0.00028208,-2815.9,0.70338
11205,11.77,5.7273,0,0.00028831,2881.1,9.6374e-05,14.751,9.4408e-05,-0.019162,-0.00028805,-2873.7,0.68486
11206,11.678,5.8182,0,0.00029091,2907.1,9.71e-05,13.18,9.5345e-05,-0.006299,-0.00029068,-2900.5,0.67469
11207,11.77,5.8182,0.05,2.0335e-07,2.0321,1.5614e-07,1.1732,3.6221e-12,-8.0413e-06,-1.5615e-07,-1.1733,0.68435
11208,11.77,5.9091,0,0.00028764,2874.4,9.5639e-05,8.5836,9.4496e-05,-0.0015801,-0.00028749,-2870.1,0.68386
11209,11.77,5.5455,0,0.00028853,2883.3,9.6679e-05,17.545,9.4342e-05,-0.013153,-0.00028822,-2874.5,0.68579
11210,11.678,5.6364,0,0.000291,2908,9.7308e-05,15.3,9.5268e-05,-0.024616,-0.00029074,-2900.3,0.67566
11211,11.77,5.6364,0.05,8.8827e-07,8.8766,6.8208e-07,5.1248,5.493e-12,3.4439e-06,-6.8209e-07,-5.125,0.68531
11212,11.77,5.3636,0,0.00028882,2886.2,9.6997e-05,20.216,9.4306e-05,0.0014883,-0.00028847,-2876,0.68666
11213,11.678,5.4545,0,0.00029124,2910.4,9.7605e-05,17.898,9.5223e-05,-0.00054815,-0.00029094,-2901.4,0.67656
11214,11.77,5.4545,0.05,9.3043e-07,9.2979,7.1445e-07,5.3681,5.5768e-12,5.4631e-06,-7.1446e-07,-5.3682,0.68621
11215,11.77,5.1818,0,0.0002891,2889,9.7257e-05,22.239,9.4298e-05,0.0051318,-0.00028871,-2877.8,0.68746
11216,11.678,5.2727,0,0.00029149,2912.9,9.7858e-05,19.961,9.5202e-05,0.002555,-0.00029115,-2902.9,0.6774
11217,11.77,5.2727,0.05,9.285e-07,9.2786,7.1297e-07,5.3569,5.5294e-12,5.1986e-06,-7.1298e-07,-5.3571,0.68704
11218,11.77,5,0,0.00028935,2891.5,9.7452e-05,23.568,9.4317e-05,0.0081045,-0.00028894,-2879.7,0.6882
11219,11.678,5.0909,0,0.00029172,2915.2,9.8054e-05,21.402,9.5206e-05,0.0066364,-0.00029135,-2904.4,0.67818
11220,11.77,5.0909,0.05,9.2222e-07,9.2158,7.0815e-07,5.3207,4.5985e-12,5.8454e-06,-7.0816e-07,-5.3208,0.68781
11221,11.77,4.8182,0,0.00028957,2893.7,9.758e-05,24.219,9.4358e-05,0.009393,-0.00028915,-2881.5,0.68887
11222,11.678,4.9091,0,0.00029192,2917.2,9.8188e-05,22.215,9.5233e-05,0.0083914,-0.00029154,-2906,0.67889
11223,11.77,4.9091,0.05,9.1447e-07,9.1384,7.0219e-07,5.276,5.4505e-12,6.3883e-06,-7.022e-07,-5.2761,0.68852
11224,11.77,4.6364,0,0.00028976,2895.6,9.7644e-05,24.249,9.4418e-05,0.0098254,-0.00028934,-2883.4,0.68949
11225,11.678,4.7273,0,0.0002921,2918.9,9.8263e-05,22.433,9.5279e-05,0.0092877,-0.00029171,-2907.7,0.67954
11226,11.77,4.7273,0.05,9.0571e-07,9.0508,6.9546e-07,5.2254,6.3004e-12,6.6071e-06,-6.9548e-07,-5.2255,0.68917
11227,11.77,4.4545,0,0.00028991,2897.1,9.7652e-05,23.747,9.4492e-05,0.0096196,-0.0002895,-2885.1,0.69003
11228,11.678,4.5455,0,0.00029223,2920.3,9.8283e-05,22.126,9.534e-05,0.0094061,-0.00029185,-2909.2,0.68012
11229,11.77,4.5455,0.05,8.9627e-07,8.9565,6.8822e-07,5.171,3.5145e-12,8.6485e-06,-6.8823e-07,-5.1711,0.68974
11230,11.77,4.2727,0,0.00029002,2898.2,9.7613e-05,22.832,9.4576e-05,0.0090571,-0.00028963,-2886.8,0.69051
11231,11.678,4.3636,0,0.00029234,2921.4,9.8257e-05,21.389,9.5411e-05,0.0090656,-0.00029197,-2910.6,0.68064
11232,11.77,4.3636,0.05,8.865e-07,8.8589,6.8072e-07,5.1146,4.3908e-12,7.9527e-06,-6.8073e-07,-5.1148,0.69026
11233,11.77,4.0909,0,0.00029011,2899.1,9.7541e-05,21.637,9.4662e-05,0.0083459,-0.00028973,-2888.2,0.69093
11234,11.678,4.1818,0,0.00029242,2922.1,9.8195e-05,20.341,9.5489e-05,0.0084716,-0.00029206,-2911.9,0.68109
11235,11.77,4.1818,0.05,8.7677e-07,8.7616,6.7325e-07,5.0585,5.2785e-12,8.8535e-06,-6.7325e-07,-5.0586,0.69071
11236,11.77,3.9091,0,0.00029016,2899.6,9.7448e-05,20.307,9.4746e-05,0.0076586,-0.00028981,-2889.4,0.69129
11237,11.678,4,0,0.00029247,2922.6,9.8109e-05,19.11,9.5566e-05,0.0078076,-0.00029214,-2913,0.68148
11238,11.77,4,0.05,8.6744e-07,8.6684,6.6608e-07,5.0047,5.2731e-12,9.8172e-06,-6.6609e-07,-5.0048,0.69109
11239,11.77,3.7273,0,0.0002902,2900,9.7349e-05,18.983,9.4823e-05,0.0071152,-0.00028987,-2890.4,0.69157
11240,11.678,3.8182,0,0.0002925,2922.9,9.8012e-05,17.829,9.564e-05,0.0072112,-0.00029219,-2914,0.6818
11241,11.77,3.8182,0.05,8.589e-07,8.5831,6.5953e-07,4.9554,4.3864e-12,1.0904e-05,-6.5953e-07,-4.9555,0.69142
11242,11.77,3.5455,0,0.00029022,2900.1,9.7256e-05,17.797,9.4889e-05,0.0067709,-0.00028991,-2891.2,0.6918
11243,11.678,3.6364,0,0.00029251,2923.1,9.7916e-05,16.625,9.5705e-05,0.0067725,-0.00029222,-2914.7,0.68206
11244,11.77,3.6364,0.05,8.5152e-07,8.5094,6.5386e-07,4.9128,4.4264e-12,1.2687e-05,-6.5387e-07,-4.9129,0.69167
11245,11.77,3.3636,0,0.00029022,2900.2,9.7182e-05,16.863,9.4938e-05,0.0066108,-0.00028993,-2891.8,0.69196
11246,11.678,3.4545,0,0.00029252,2923.2,9.7834e-05,15.612,9.5757e-05,0.0065158,-0.00029225,-2915.3,0.68225
11247,11.77,3.4545,0.05,8.4565e-07,8.4506,6.4935e-07,4.8789,3.5546e-12,1.319e-05,-6.4935e-07,-4.879,0.69187
11248,11.77,3.1818,0,0.00029023,2900.3,9.7133e-05,16.266,9.4969e-05,0.0065672,-0.00028995,-2892.1,0.69206
11249,11.678,3.2727,0,0.00029252,2923.2,9.7773e-05,14.882,9.5793e-05,0.0064062,-0.00029226,-2915.7,0.68238
11250,11.77,3.2727,0.05,8.4155e-07,8.4097,6.4621e-07,4.8553,3.5932e-12,1.2897e-05,-6.4621e-07,-4.8554,0.69199
11251,11.77,3,0,0.00029023,2900.3,9.7116e-05,16.06,9.498e-05,0.0065638,-0.00028995,-2892.2,0.69209
11252,11.678,3.0909,0,0.00029252,2923.2,9.7741e-05,14.5,9.5812e-05,0.0063776,-0.00029227,-2915.9,0.68245
11253,11.77,3.0909,0.05,8.3945e-07,8.3887,6.4459e-07,4.8432,4.5348e-12,1.3494e-05,-6.446e-07,-4.8433,0.69206
11254,11.77,2.8182,0,0.00029023,2900.3,9.7133e-05,16.266,9.4969e-05,0.0065673,-0.00028995,-2892.1,0.69206
11255,11.678,2.9091,0,0.00029252,2923.2,9.7741e-05,14.5,9.5812e-05,0.0063776,-0.00029227,-2915.9,0.68245
11256,11.77,2.9091,0.05,8.3945e-07,8.3887,6.4459e-07,4.8432,3.6477e-12,1.3543e-05,-6.446e-07,-4.8433,0.69206
11257,11.77,2.6364,0,0.00029022,2900.2,9.7182e-05,16.863,9.4938e-05,0.0066112,-0.00028993,-2891.8,0.69196
11258,11.678,2.7273,0,0.00029252,2923.2,9.7773e-05,14.882,9.5793e-05,0.0064063,-0.00029226,-2915.7,0.68238
11259,11.77,2.7273,0.05,8.4155e-07,8.4097,6.4621e-07,4.8553,3.6585e-12,1.2563e-05,-6.4621e-07,-4.8554,0.69199
11260,11.77,2.4545,0,0.00029022,2900.1,9.7256e-05,17.797,9.4889e-05,0.0067712,-0.00028991,-2891.2,0.6918
11261,11.678,2.5455,0,0.00029252,2923.2,9.7834e-05,15.612,9.5757e-05,0.0065163,-0.00029225,-2915.3,0.68225
11262,11.77,2.5455,0.05,8.4565e-07,8.4506,6.4935e-07,4.879,3.664e-12,1.1549e-05,-6.4935e-07,-4.879,0.69187
11263,11.77,2.2727,0,0.0002902,2900,9.7349e-05,18.983,9.4823e-05,0.0071153,-0.00028987,-2890.4,0.69157
11264,11.678,2.3636,0,0.00029251,2923.1,9.7916e-05,16.625,9.5705e-05,0.0067724,-0.00029222,-2914.7,0.68206
11265,11.77,2.3636,0.05,8.5152e-07,8.5094,6.5386e-07,4.9129,2.7436e-12,1.0539e-05,-6.5387e-07,-4.9129,0.69167
11266,11.77,2.0909,0,0.00029016,2899.6,9.7448e-05,20.307,9.4746e-05,0.0076591,-0.00028981,-2889.4,0.69129
11267,11.678,2.1818,0,0.0002925,2922.9,9.8012e-05,17.829,9.564e-05,0.0072116,-0.00029219,-2914,0.6818
11268,11.77,2.1818,0.05,8.589e-07,8.5831,6.5953e-07,4.9554,2.7401e-12,9.1794e-06,-6.5953e-07,-4.9555,0.69142
11269,11.77,1.9091,0,0.00029011,2899.1,9.7541e-05,21.637,9.4662e-05,0.0083462,-0.00028973,-2888.2,0.69093
11270,11.678,2,0,0.00029247,2922.6,9.8109e-05,19.11,9.5566e-05,0.0078079,-0.00029214,-2913,0.68148
11271,11.77,2,0.05,8.6744e-07,8.6684,6.6609e-07,5.0047,2.7281e-12,7.8856e-06,-6.6609e-07,-5.0047,0.69109
11272,11.77,1.7273,0,0.00029002,2898.2,9.7613e-05,22.832,9.4576e-05,0.0090573,-0.00028963,-2886.8,0.69051
11273,11.678,1.8182,0,0.00029242,2922.1,9.8195e-05,20.341,9.5489e-05,0.0084719,-0.00029206,-2911.9,0.68109
11274,11.77,1.8182,0.05,8.7677e-07,8.7616,6.7325e-07,5.0585,1.8248e-12,7.3718e-06,-6.7325e-07,-5.0586,0.69071
11275,11.77,1.5455,0,0.00028991,2897.1,9.7652e-05,23.747,9.4492e-05,0.0096203,-0.0002895,-2885.1,0.69003
11276,11.678,1.6364,0,0.00029234,2921.4,9.8257e-05,21.389,9.5411e-05,0.0090663,-0.00029197,-2910.6,0.68064
11277,11.77,1.6364,0.05,8.865e-07,8.8589,6.8072e-07,5.1147,1.8137e-12,5.925e-06,-6.8073e-07,-5.1147,0.69026
11278,11.77,1.3636,0,0.00028976,2895.6,9.7644e-05,24.249,9.4418e-05,0.0098262,-0.00028934,-2883.4,0.68949
11279,11.678,1.4545,0,0.00029223,2920.3,9.8283e-05,22.126,9.534e-05,0.0094067,-0.00029185,-2909.2,0.68012
11280,11.77,1.4545,0.05,8.9627e-07,8.9565,6.8822e-07,5.1711,1.8159e-12,5.6736e-06,-6.8823e-07,-5.1711,0.68974
11281,11.77,1.1818,0,0.00028957,2893.7,9.758e-05,24.219,9.4358e-05,0.0093938,-0.00028915,-2881.5,0.68887
11282,11.678,1.2727,0,0.0002921,2918.9,9.8263e-05,22.433,9.5279e-05,0.0092883,-0.00029171,-2907.7,0.67954
11283,11.77,1.2727,0.05,9.0571e-07,9.0508,6.9547e-07,5.2255,9.0554e-13,4.7675e-06,-6.9547e-07,-5.2255,0.68917
11284,11.77,1,0,0.00028935,2891.5,9.7452e-05,23.568,9.4317e-05,0.0081053,-0.00028894,-2879.7,0.6882
11285,11.678,1.0909,0,0.00029192,2917.2,9.8188e-05,22.215,9.5233e-05,0.0083922,-0.00029154,-2906,0.67889
11286,11.77,1.0909,0.05,9.1447e-07,9.1384,7.022e-07,5.276,9.0916e-13,3.8147e-06,-7.022e-07,-5.276,0.68852
11287,11.77,0.81818,0,0.0002891,2889,9.7257e-05,22.239,9.4298e-05,0.005133,-0.00028871,-2877.8,0.68746
11288,11.678,0.90909,0,0.00029172,2915.2,9.8054e-05,21.402,9.5206e-05,0.0066363,-0.00029135,-2904.4,0.67818
11289,11.77,0.90909,0.05,9.2222e-07,9.2159,7.0815e-07,5.3208,5.6889e-15,3.838e-06,-7.0815e-07,-5.3208,0.68781
11290,11.77,0.63636,0,0.00028882,2886.2,9.6997e-05,20.216,9.4306e-05,0.0014882,-0.00028847,-2876,0.68666
11291,11.678,0.72727,0,0.00029149,2912.9,9.7858e-05,19.961,9.5202e-05,0.0025568,-0.00029115,-2902.9,0.6774
11292,11.77,0.72727,0.05,9.285e-07,9.2786,7.1298e-07,5.357,2.5048e-14,4.2449e-06,-7.1298e-07,-5.357,0.68704
11293,11.77,0.45455,0,0.00028853,2883.3,9.6679e-05,17.545,9.4342e-05,-0.013153,-0.00028822,-2874.5,0.68579
11294,11.678,0.54545,0,0.00029124,2910.4,9.7605e-05,17.898,9.5223e-05,-0.00054856,-0.00029094,-2901.4,0.67656
11295,11.77,0.54545,0.05,9.3043e-07,9.2979,7.1446e-07,5.3682,-1.5155e-22,3.5696e-06,-7.1446e-07,-5.3682,0.68621
11296,11.77,0.27273,0,0.00028831,2881.1,9.6374e-05,14.751,9.4408e-05,-0.019161,-0.00028805,-2873.7,0.68486
11297,11.678,0.36364,0,0.000291,2908,9.7308e-05,15.3,9.5268e-05,-0.024615,-0.00029074,-2900.3,0.67566
11298,11.77,0.36364,0.05,8.8827e-07,8.8766,6.8209e-07,5.1249,-1.4154e-14,2.0821e-06,-6.8208e-07,-5.1249,0.68531
11299,11.678,0.18182,0,0.00029091,2907.1,9.71e-05,13.18,9.5345e-05,-0.006298,-0.00029068,-2900.5,0.67469
11300,11.77,0.18182,0.05,2.0335e-07,2.0321,1.5615e-07,1.1732,8.4149e-14,1.3878e-06,-1.5614e-07,-1.1732,0.68435
11301,11.77,0.090909,0,0.00028764,2874.4,9.5639e-05,8.5836,9.4496e-05,-0.0015798,-0.00028749,-2870.1,0.68386
11302,11.586,5.7273,0,0.00029358,2933.8,9.8023e-05,13.644,9.6205e-05,-0.015734,-0.00029335,-2927,0.66555
11303,11.494,5.8182,0,0.00029621,2960,9.8795e-05,12.527,9.7127e-05,-0.0042616,-0.00029599,-2953.8,0.65547
11304,11.586,5.8182,0.05,1.7983e-07,1.7971,1.3809e-07,1.0375,4.3014e-12,-6.5272e-06,-1.3809e-07,-1.0376,0.66503
11305,11.586,5.9091,0,0.00029299,2927.8,9.7374e-05,8.2376,9.6277e-05,-0.0012099,-0.00029285,-2923.7,0.66454
11306,11.586,5.5455,0,0.00029371,2935.1,9.823e-05,15.627,9.6149e-05,-0.011289,-0.00029344,-2927.3,0.66649
11307,11.494,5.6364,0,0.00029621,2960.1,9.8905e-05,13.815,9.7064e-05,-0.020533,-0.00029598,-2953.2,0.65645
11308,11.586,5.6364,0.05,8.7866e-07,8.7805,6.747e-07,5.0694,4.5904e-12,3.2337e-06,-6.7471e-07,-5.0695,0.66601
11309,11.586,5.3636,0,0.00029392,2937.1,9.8463e-05,17.622,9.6118e-05,0.0010191,-0.00029361,-2928.3,0.66737
11310,11.494,5.4545,0,0.00029638,2961.7,9.9116e-05,15.705,9.7025e-05,-0.00077745,-0.00029611,-2953.8,0.65737
11311,11.586,5.4545,0.05,9.2255e-07,9.2192,7.084e-07,5.3226,5.4966e-12,4.7958e-06,-7.0841e-07,-5.3228,0.66692
11312,11.586,5.1818,0,0.00029411,2939.1,9.8652e-05,19.106,9.611e-05,0.0043478,-0.00029378,-2929.5,0.66819
11313,11.494,5.2727,0,0.00029654,2963.4,9.9294e-05,17.183,9.7008e-05,0.0020718,-0.00029625,-2954.8,0.65822
11314,11.586,5.2727,0.05,9.2199e-07,9.2136,7.0797e-07,5.3194,5.5308e-12,4.1131e-06,-7.0798e-07,-5.3195,0.66776
11315,11.586,5,0,0.00029429,2940.9,9.8788e-05,20.032,9.6123e-05,0.0070959,-0.00029394,-2930.8,0.66893
11316,11.494,5.0909,0,0.0002967,2964.9,9.9427e-05,18.166,9.701e-05,0.0057105,-0.00029639,-2955.8,0.65901
11317,11.586,5.0909,0.05,9.1732e-07,9.1669,7.0439e-07,5.2924,5.4991e-12,5.0852e-06,-7.0439e-07,-5.2926,0.66855
11318,11.586,4.8182,0,0.00029444,2942.4,9.887e-05,20.413,9.6154e-05,0.0084006,-0.00029409,-2932.1,0.66962
11319,11.494,4.9091,0,0.00029683,2966.3,9.9511e-05,18.646,9.703e-05,0.0074203,-0.00029651,-2956.9,0.65973
11320,11.586,4.9091,0.05,9.1141e-07,9.1078,6.9984e-07,5.2583,5.4544e-12,5.5825e-06,-6.9985e-07,-5.2584,0.66926
11321,11.586,4.6364,0,0.00029457,2943.6,9.8901e-05,20.295,9.6201e-05,0.0089386,-0.00029422,-2933.4,0.67024
11322,11.494,4.7273,0,0.00029694,2967.4,9.9548e-05,18.652,9.7066e-05,0.0083585,-0.00029662,-2958,0.66038
11323,11.586,4.7273,0.05,9.0466e-07,9.0404,6.9466e-07,5.2194,5.4116e-12,5.4547e-06,-6.9467e-07,-5.2195,0.66991
11324,11.586,4.4545,0,0.00029466,2944.6,9.8887e-05,19.753,9.6259e-05,0.0088923,-0.00029432,-2934.7,0.67079
11325,11.494,4.5455,0,0.00029703,2968.2,9.9541e-05,18.241,9.7115e-05,0.0086008,-0.00029671,-2959,0.66097
11326,11.586,4.5455,0.05,8.9736e-07,8.9674,6.8905e-07,5.1773,5.3641e-12,7.0194e-06,-6.8906e-07,-5.1774,0.6705
11327,11.586,4.2727,0,0.00029473,2945.3,9.8837e-05,18.885,9.6325e-05,0.0084988,-0.0002944,-2935.8,0.67128
11328,11.494,4.3636,0,0.00029709,2968.8,9.9498e-05,17.493,9.7171e-05,0.0084116,-0.00029678,-2960,0.6615
11329,11.586,4.3636,0.05,8.8978e-07,8.8916,6.8323e-07,5.1335,3.5191e-12,6.6753e-06,-6.8324e-07,-5.1337,0.67102
11330,11.586,4.0909,0,0.00029477,2945.7,9.8761e-05,17.8,9.6393e-05,0.0079366,-0.00029447,-2936.8,0.6717
11331,11.494,4.1818,0,0.00029712,2969.2,9.9428e-05,16.504,9.7233e-05,0.0079662,-0.00029684,-2960.9,0.66196
11332,11.586,4.1818,0.05,8.8222e-07,8.8161,6.7743e-07,5.0899,3.4963e-12,7.5234e-06,-6.7744e-07,-5.09,0.67148
11333,11.586,3.9091,0,0.0002948,2946,9.8671e-05,16.619,9.646e-05,0.0073545,-0.00029451,-2937.6,0.67206
11334,11.494,4,0,0.00029714,2969.4,9.9341e-05,15.382,9.7294e-05,0.0074233,-0.00029688,-2961.6,0.66235
11335,11.586,4,0.05,8.7497e-07,8.7437,6.7186e-07,5.0481,6.2228e-12,8.695e-06,-6.7187e-07,-5.0482,0.67187
11336,11.586,3.7273,0,0.00029481,2946.1,9.8577e-05,15.458,9.6521e-05,0.0068612,-0.00029454,-2938.3,0.67235
11337,11.494,3.8182,0,0.00029715,2969.4,9.9247e-05,14.236,9.7353e-05,0.0069042,-0.0002969,-2962.3,0.66268
11338,11.586,3.8182,0.05,8.6834e-07,8.6774,6.6677e-07,5.0099,4.4189e-12,9.6622e-06,-6.6679e-07,-5.01,0.67219
11339,11.586,3.5455,0,0.00029481,2946.1,9.8492e-05,14.426,9.6573e-05,0.0065167,-0.00029456,-2938.8,0.67258
11340,11.494,3.6364,0,0.00029714,2969.4,9.9157e-05,13.171,9.7405e-05,0.0064952,-0.00029692,-2962.8,0.66294
11341,11.586,3.6364,0.05,8.6263e-07,8.6203,6.6239e-07,4.9769,5.3593e-12,1.127e-05,-6.6239e-07,-4.977,0.67245
11342,11.586,3.3636,0,0.00029481,2946.1,9.8424e-05,13.617,9.6612e-05,0.0063237,-0.00029457,-2939.2,0.67274
11343,11.494,3.4545,0,0.00029714,2969.3,9.908e-05,12.281,9.7446e-05,0.0062304,-0.00029693,-2963.1,0.66314
11344,11.586,3.4545,0.05,8.5808e-07,8.5748,6.5889e-07,4.9506,3.5693e-12,1.175e-05,-6.589e-07,-4.9508,0.67265
11345,11.586,3.1818,0,0.00029481,2946,9.838e-05,13.101,9.6637e-05,0.0062428,-0.00029458,-2939.4,0.67284
11346,11.494,3.2727,0,0.00029713,2969.2,9.9024e-05,11.643,9.7476e-05,0.0060943,-0.00029693,-2963.4,0.66327
11347,11.586,3.2727,0.05,8.5491e-07,8.5432,6.5646e-07,4.9324,5.4179e-12,1.1273e-05,-6.5647e-07,-4.9325,0.67278
11348,11.586,3,0,0.0002948,2946,9.8364e-05,12.924,9.6645e-05,0.0062235,-0.00029458,-2939.5,0.67287
11349,11.494,3.0909,0,0.00029712,2969.2,9.8995e-05,11.31,9.7491e-05,0.0060451,-0.00029693,-2963.5,0.66333
11350,11.586,3.0909,0.05,8.5329e-07,8.527,6.5522e-07,4.923,5.4459e-12,1.1718e-05,-6.5522e-07,-4.9231,0.67284
11351,11.586,2.8182,0,0.00029481,2946,9.838e-05,13.101,9.6637e-05,0.0062428,-0.00029458,-2939.4,0.67284
11352,11.494,2.9091,0,0.00029712,2969.2,9.8995e-05,11.31,9.7491e-05,0.0060449,-0.00029693,-2963.5,0.66333
11353,11.586,2.9091,0.05,8.5329e-07,8.527,6.5522e-07,4.923,5.4661e-12,1.187e-05,-6.5522e-07,-4.9231,0.67284
11354,11.586,2.6364,0,0.00029481,2946.1,9.8424e-05,13.617,9.6612e-05,0.0063239,-0.00029457,-2939.2,0.67274
11355,11.494,2.7273,0,0.00029713,2969.2,9.9024e-05,11.643,9.7476e-05,0.0060946,-0.00029693,-2963.4,0.66327
11356,11.586,2.7273,0.05,8.5491e-07,8.5432,6.5646e-07,4.9324,3.6582e-12,1.1119e-05,-6.5647e-07,-4.9325,0.67278
11357,11.586,2.4545,0,0.00029481,2946.1,9.8492e-05,14.426,9.6573e-05,0.0065168,-0.00029456,-2938.8,0.67258
11358,11.494,2.5455,0,0.00029714,2969.3,9.908e-05,12.281,9.7446e-05,0.0062304,-0.00029693,-2963.1,0.66314
11359,11.586,2.5455,0.05,8.5808e-07,8.5748,6.5889e-07,4.9507,3.6649e-12,1.0586e-05,-6.589e-07,-4.9507,0.67265
11360,11.586,2.2727,0,0.00029481,2946.1,9.8577e-05,15.458,9.6521e-05,0.0068614,-0.00029454,-2938.3,0.67235
11361,11.494,2.3636,0,0.00029714,2969.4,9.9157e-05,13.171,9.7405e-05,0.0064949,-0.00029692,-2962.8,0.66294
11362,11.586,2.3636,0.05,8.6263e-07,8.6203,6.6239e-07,4.9769,2.7534e-12,9.7203e-06,-6.6239e-07,-4.9769,0.67245
11363,11.586,2.0909,0,0.0002948,2946,9.8671e-05,16.619,9.646e-05,0.0073548,-0.00029451,-2937.6,0.67206
11364,11.494,2.1818,0,0.00029715,2969.4,9.9247e-05,14.236,9.7353e-05,0.0069044,-0.0002969,-2962.3,0.66268
11365,11.586,2.1818,0.05,8.6834e-07,8.6774,6.6677e-07,5.0099,2.7436e-12,8.3863e-06,-6.6679e-07,-5.01,0.67219
11366,11.586,1.9091,0,0.00029477,2945.7,9.8761e-05,17.8,9.6393e-05,0.007937,-0.00029447,-2936.8,0.6717
11367,11.494,2,0,0.00029714,2969.4,9.9341e-05,15.382,9.7294e-05,0.0074238,-0.00029688,-2961.6,0.66235
11368,11.586,2,0.05,8.7497e-07,8.7437,6.7187e-07,5.0482,9.325e-13,7.8494e-06,-6.7187e-07,-5.0482,0.67187
11369,11.586,1.7273,0,0.00029473,2945.3,9.8837e-05,18.885,9.6325e-05,0.0084995,-0.0002944,-2935.8,0.67128
11370,11.494,1.8182,0,0.00029712,2969.2,9.9428e-05,16.504,9.7233e-05,0.0079667,-0.00029684,-2960.9,0.66196
11371,11.586,1.8182,0.05,8.8222e-07,8.8161,6.7743e-07,5.0899,2.7328e-12,6.5456e-06,-6.7743e-07,-5.09,0.67148
11372,11.586,1.5455,0,0.00029466,2944.6,9.8887e-05,19.753,9.6259e-05,0.0088928,-0.00029432,-2934.7,0.67079
11373,11.494,1.6364,0,0.00029709,2968.8,9.9498e-05,17.493,9.7171e-05,0.0084123,-0.00029678,-2960,0.6615
11374,11.586,1.6364,0.05,8.8978e-07,8.8916,6.8324e-07,5.1336,9.2025e-13,5.842e-06,-6.8324e-07,-5.1336,0.67102
11375,11.586,1.3636,0,0.00029457,2943.6,9.8901e-05,20.295,9.6201e-05,0.008939,-0.00029422,-2933.4,0.67024
11376,11.494,1.4545,0,0.00029703,2968.2,9.9541e-05,18.241,9.7114e-05,0.0086008,-0.00029671,-2959,0.66097
11377,11.586,1.4545,0.05,8.9736e-07,8.9674,6.8906e-07,5.1773,2.7318e-12,5.0301e-06,-6.8906e-07,-5.1773,0.6705
11378,11.586,1.1818,0,0.00029444,2942.4,9.887e-05,20.413,9.6154e-05,0.0084011,-0.00029409,-2932.1,0.66962
11379,11.494,1.2727,0,0.00029694,2967.4,9.9548e-05,18.652,9.7066e-05,0.0083591,-0.00029662,-2958,0.66038
11380,11.586,1.2727,0.05,9.0466e-07,9.0404,6.9467e-07,5.2194,9.114e-13,4.0695e-06,-6.9467e-07,-5.2195,0.66991
11381,11.586,1,0,0.00029429,2940.9,9.8788e-05,20.032,9.6122e-05,0.0070968,-0.00029394,-2930.8,0.66893
11382,11.494,1.0909,0,0.00029683,2966.3,9.9511e-05,18.646,9.703e-05,0.0074212,-0.00029651,-2956.9,0.65973
11383,11.586,1.0909,0.05,9.1141e-07,9.1078,6.9985e-07,5.2584,1.8191e-12,3.4604e-06,-6.9985e-07,-5.2584,0.66926
11384,11.586,0.81818,0,0.00029411,2939.1,9.8652e-05,19.106,9.611e-05,0.0043493,-0.00029378,-2929.5,0.66819
11385,11.494,0.90909,0,0.0002967,2964.9,9.9427e-05,18.166,9.701e-05,0.0057116,-0.00029639,-2955.8,0.65901
11386,11.586,0.90909,0.05,9.1732e-07,9.1669,7.0439e-07,5.2925,-2.4725e-15,3.2147e-06,-7.0439e-07,-5.2925,0.66855
11387,11.586,0.63636,0,0.00029392,2937.1,9.8463e-05,17.622,9.6118e-05,0.0010199,-0.00029361,-2928.3,0.66737
11388,11.494,0.72727,0,0.00029654,2963.4,9.9294e-05,17.183,9.7008e-05,0.0020735,-0.00029625,-2954.8,0.65822
11389,11.586,0.72727,0.05,9.2199e-07,9.2136,7.0798e-07,5.3195,-1.0583e-14,3.4108e-06,-7.0798e-07,-5.3195,0.66776
11390,11.586,0.45455,0,0.00029371,2935.1,9.823e-05,15.627,9.6149e-05,-0.011289,-0.00029344,-2927.3,0.66649
11391,11.494,0.54545,0,0.00029638,2961.7,9.9116e-05,15.705,9.7025e-05,-0.00077761,-0.00029611,-2953.8,0.65737
11392,11.586,0.54545,0.05,9.2255e-07,9.2192,7.0841e-07,5.3227,-1.5026e-22,3.3335e-06,-7.0841e-07,-5.3227,0.66692
11393,11.586,0.27273,0,0.00029358,2933.8,9.8023e-05,13.644,9.6205e-05,-0.015733,-0.00029335,-2927,0.66555
11394,11.494,0.36364,0,0.00029621,2960.1,9.8905e-05,13.815,9.7064e-05,-0.020532,-0.00029598,-2953.2,0.65645
11395,11.586,0.36364,0.05,8.7866e-07,8.7805,6.747e-07,5.0695,-8.6464e-13,2.2205e-06,-6.747e-07,-5.0694,0.66601
11396,11.494,0.18182,0,0.00029621,2960,9.8795e-05,12.527,9.7127e-05,-0.0042608,-0.00029599,-2953.8,0.65547
11397,11.586,0.18182,0.05,1.7983e-07,1.7971,1.3809e-07,1.0376,-4.6787e-14,4.3795e-06,-1.3809e-07,-1.0375,0.66503
11398,11.586,0.090909,0,0.00029299,2927.8,9.7374e-05,8.2376,9.6277e-05,-0.0012097,-0.00029285,-2923.7,0.66454
11399,11.402,5.7273,0,0.00029882,2986.2,9.9666e-05,12.614,9.7985e-05,-0.012786,-0.00029861,-2979.9,0.64644
11400,11.31,5.8182,0,0.00030147,3012.7,0.00010048,11.899,9.8896e-05,-0.002858,-0.00030127,-3006.7,0.63646
11401,11.402,5.8182,0.05,1.6141e-07,1.613,1.2394e-07,0.93117,5.3597e-12,-1.585e-05,-1.2395e-07,-0.93137,0.64592
11402,11.402,5.9091,0,0.00029829,2980.8,9.9096e-05,7.9016,9.8044e-05,-0.00092188,-0.00029816,-2976.9,0.64542
11403,11.402,5.5455,0,0.00029887,2986.7,9.9787e-05,13.868,9.794e-05,-0.009543,-0.00029864,-2979.7,0.6474
11404,11.31,5.6364,0,0.0003014,3012,0.0001005,12.441,9.8845e-05,-0.016767,-0.00030119,-3005.7,0.63745
11405,11.402,5.6364,0.05,8.7185e-07,8.7125,6.6947e-07,5.0301,5.4916e-12,2.4528e-06,-6.6948e-07,-5.0302,0.6469
11406,11.402,5.3636,0,0.000299,2988,9.9944e-05,15.245,9.7915e-05,0.00065993,-0.00029874,-2980.3,0.64829
11407,11.31,5.4545,0,0.0003015,3012.9,0.00010064,13.685,9.8815e-05,-0.00085323,-0.00030126,-3006,0.63838
11408,11.402,5.4545,0.05,9.1712e-07,9.1649,7.0423e-07,5.2913,6.4151e-12,3.7437e-06,-7.0424e-07,-5.2915,0.64783
11409,11.402,5.1818,0,0.00029913,2989.2,0.00010007,16.224,9.7908e-05,0.0036718,-0.00029885,-2981.1,0.64911
11410,11.31,5.2727,0,0.00030159,3013.9,0.00010075,14.62,9.8801e-05,0.0017308,-0.00030134,-3006.5,0.63924
11411,11.402,5.2727,0.05,9.1764e-07,9.1701,7.0463e-07,5.2943,5.508e-12,3.2438e-06,-7.0464e-07,-5.2944,0.64868
11412,11.402,5,0,0.00029924,2990.3,0.00010015,16.762,9.7918e-05,0.006184,-0.00029895,-2981.9,0.64987
11413,11.31,5.0909,0,0.00030168,3014.7,0.00010082,15.166,9.8803e-05,0.0049475,-0.00030142,-3007.1,0.64004
11414,11.402,5.0909,0.05,9.1425e-07,9.1362,7.0203e-07,5.2747,4.5769e-12,3.8801e-06,-7.0203e-07,-5.2748,0.64947
11415,11.402,4.8182,0,0.00029933,2991.2,0.00010019,16.869,9.7943e-05,0.0074734,-0.00029904,-2982.8,0.65056
11416,11.31,4.9091,0,0.00030176,3015.5,0.00010086,15.318,9.882e-05,0.0065767,-0.00030149,-3007.8,0.64077
11417,11.402,4.9091,0.05,9.098e-07,9.0917,6.9861e-07,5.249,5.4534e-12,4.3846e-06,-6.9862e-07,-5.2492,0.6502
11418,11.402,4.6364,0,0.0002994,2991.9,0.00010019,16.583,9.798e-05,0.0080812,-0.00029911,-2983.6,0.65119
11419,11.31,4.7273,0,0.00030181,3016,0.00010086,15.099,9.885e-05,0.0075282,-0.00030155,-3008.5,0.64143
11420,11.402,4.7273,0.05,9.0466e-07,9.0403,6.9466e-07,5.2194,4.5108e-12,4.2423e-06,-6.9467e-07,-5.2195,0.65086
11421,11.402,4.4545,0,0.00029945,2992.4,0.00010015,15.966,9.8027e-05,0.0081572,-0.00029917,-2984.4,0.65175
11422,11.31,4.5455,0,0.00030185,3016.4,0.00010083,14.556,9.8889e-05,0.0078611,-0.0003016,-3009.1,0.64203
11423,11.402,4.5455,0.05,8.9906e-07,8.9843,6.9036e-07,5.187,5.3921e-12,6.1263e-06,-6.9037e-07,-5.1872,0.65145
11424,11.402,4.2727,0,0.00029948,2992.7,0.00010009,15.098,9.8079e-05,0.0078995,-0.00029922,-2985.1,0.65224
11425,11.31,4.3636,0,0.00030187,3016.6,0.00010076,13.756,9.8935e-05,0.0077914,-0.00030163,-3009.7,0.64256
11426,11.402,4.3636,0.05,8.9322e-07,8.926,6.8587e-07,5.1534,4.4504e-12,5.7546e-06,-6.8588e-07,-5.1535,0.65198
11427,11.402,4.0909,0,0.00029949,2992.8,0.00010001,14.071,9.8134e-05,0.0074611,-0.00029925,-2985.8,0.65267
11428,11.31,4.1818,0,0.00030187,3016.6,0.00010068,12.78,9.8985e-05,0.0074683,-0.00030165,-3010.2,0.64303
11429,11.402,4.1818,0.05,8.8738e-07,8.8676,6.8139e-07,5.1197,3.5372e-12,6.484e-06,-6.814e-07,-5.1198,0.65244
11430,11.402,3.9091,0,0.00029949,2992.8,9.9915e-05,12.984,9.8188e-05,0.0069731,-0.00029927,-2986.3,0.65303
11431,11.31,4,0,0.00030186,3016.6,0.00010059,11.716,9.9035e-05,0.0070282,-0.00030166,-3010.7,0.64342
11432,11.402,4,0.05,8.8178e-07,8.8117,6.7709e-07,5.0874,5.3455e-12,7.3097e-06,-6.771e-07,-5.0875,0.65284
11433,11.402,3.7273,0,0.00029948,2992.7,9.9824e-05,11.934,9.8237e-05,0.0065352,-0.00029927,-2986.7,0.65333
11434,11.31,3.8182,0,0.00030185,3016.4,0.0001005,10.654,9.9082e-05,0.0065809,-0.00030167,-3011.1,0.64375
11435,11.402,3.8182,0.05,8.7665e-07,8.7605,6.7316e-07,5.0578,4.4449e-12,8.1844e-06,-6.7317e-07,-5.0579,0.65317
11436,11.402,3.5455,0,0.00029947,2992.6,9.9743e-05,11.011,9.8279e-05,0.0062086,-0.00029928,-2987.1,0.65356
11437,11.31,3.6364,0,0.00030183,3016.2,0.00010041,9.6826,9.9124e-05,0.0062086,-0.00030166,-3011.3,0.64402
11438,11.402,3.6364,0.05,8.7224e-07,8.7163,6.6976e-07,5.0323,4.4661e-12,9.7579e-06,-6.6977e-07,-5.0324,0.65343
11439,11.402,3.3636,0,0.00029945,2992.5,9.9679e-05,10.292,9.831e-05,0.0060088,-0.00029928,-2987.3,0.65373
11440,11.31,3.4545,0,0.00030181,3016,0.00010034,8.8787,9.9158e-05,0.0059535,-0.00030166,-3011.6,0.64422
11441,11.402,3.4545,0.05,8.6872e-07,8.6813,6.6707e-07,5.0121,4.492e-12,1.0084e-05,-6.6708e-07,-5.0122,0.65363
11442,11.402,3.1818,0,0.00029945,2992.4,9.9638e-05,9.8364,9.833e-05,0.0059137,-0.00029928,-2987.5,0.65383
11443,11.31,3.2727,0,0.0003018,3015.9,0.00010029,8.3054,9.9181e-05,0.0058128,-0.00030165,-3011.7,0.64435
11444,11.402,3.2727,0.05,8.6628e-07,8.6569,6.652e-07,4.998,4.5164e-12,9.722e-06,-6.652e-07,-4.9981,0.65376
11445,11.402,3,0,0.00029944,2992.4,9.9624e-05,9.6802,9.8337e-05,0.0058877,-0.00029928,-2987.5,0.65386
11446,11.31,3.0909,0,0.00030179,3015.8,0.00010026,8.0073,9.9194e-05,0.0057575,-0.00030165,-3011.8,0.64442
11447,11.402,3.0909,0.05,8.6503e-07,8.6444,6.6423e-07,4.9908,3.6286e-12,1.0063e-05,-6.6425e-07,-4.9909,0.65383
11448,11.402,2.8182,0,0.00029945,2992.4,9.9638e-05,9.8364,9.833e-05,0.0059138,-0.00029928,-2987.5,0.65383
11449,11.31,2.9091,0,0.00030179,3015.8,0.00010026,8.0073,9.9194e-05,0.0057575,-0.00030165,-3011.8,0.64442
11450,11.402,2.9091,0.05,8.6503e-07,8.6444,6.6423e-07,4.9908,3.6459e-12,1.0489e-05,-6.6424e-07,-4.9909,0.65383
11451,11.402,2.6364,0,0.00029945,2992.5,9.9679e-05,10.292,9.831e-05,0.0060089,-0.00029928,-2987.3,0.65373
11452,11.31,2.7273,0,0.0003018,3015.9,0.00010029,8.3054,9.9181e-05,0.005813,-0.00030165,-3011.7,0.64435
11453,11.402,2.7273,0.05,8.6628e-07,8.6569,6.652e-07,4.998,3.6568e-12,9.9217e-06,-6.652e-07,-4.9981,0.65376
11454,11.402,2.4545,0,0.00029947,2992.6,9.9743e-05,11.011,9.8279e-05,0.0062083,-0.00029928,-2987.1,0.65356
11455,11.31,2.5455,0,0.00030181,3016,0.00010034,8.8787,9.9158e-05,0.0059537,-0.00030166,-3011.6,0.64422
11456,11.402,2.5455,0.05,8.6872e-07,8.6813,6.6707e-07,5.0121,3.6638e-12,9.088e-06,-6.6707e-07,-5.0122,0.65363
11457,11.402,2.2727,0,0.00029948,2992.7,9.9824e-05,11.934,9.8237e-05,0.006535,-0.00029927,-2986.7,0.65333
11458,11.31,2.3636,0,0.00030183,3016.2,0.00010041,9.6826,9.9124e-05,0.0062086,-0.00030166,-3011.3,0.64402
11459,11.402,2.3636,0.05,8.7224e-07,8.7163,6.6976e-07,5.0324,2.7513e-12,8.441e-06,-6.6978e-07,-5.0324,0.65343
11460,11.402,2.0909,0,0.00029949,2992.8,9.9915e-05,12.984,9.8188e-05,0.0069736,-0.00029926,-2986.3,0.65303
11461,11.31,2.1818,0,0.00030185,3016.4,0.0001005,10.654,9.9082e-05,0.006581,-0.00030167,-3011.1,0.64375
11462,11.402,2.1818,0.05,8.7665e-07,8.7605,6.7316e-07,5.0579,1.8418e-12,7.3535e-06,-6.7317e-07,-5.0579,0.65317
11463,11.402,1.9091,0,0.00029949,2992.8,0.00010001,14.071,9.8134e-05,0.0074616,-0.00029925,-2985.8,0.65267
11464,11.31,2,0,0.00030186,3016.6,0.00010059,11.716,9.9035e-05,0.0070285,-0.00030166,-3010.7,0.64342
11465,11.402,2,0.05,8.8178e-07,8.8117,6.7709e-07,5.0874,1.8413e-12,6.7851e-06,-6.771e-07,-5.0875,0.65284
11466,11.402,1.7273,0,0.00029948,2992.7,0.00010009,15.098,9.8079e-05,0.0078999,-0.00029922,-2985.1,0.65224
11467,11.31,1.8182,0,0.00030187,3016.6,0.00010068,12.78,9.8985e-05,0.0074689,-0.00030165,-3010.2,0.64303
11468,11.402,1.8182,0.05,8.8738e-07,8.8676,6.8139e-07,5.1197,1.83e-12,6.0858e-06,-6.814e-07,-5.1198,0.65244
11469,11.402,1.5455,0,0.00029945,2992.4,0.00010015,15.966,9.8027e-05,0.0081574,-0.00029917,-2984.4,0.65175
11470,11.31,1.6364,0,0.00030187,3016.6,0.00010076,13.756,9.8935e-05,0.0077919,-0.00030163,-3009.7,0.64256
11471,11.402,1.6364,0.05,8.9322e-07,8.926,6.8588e-07,5.1534,2.7289e-12,5.0832e-06,-6.8588e-07,-5.1534,0.65198
11472,11.402,1.3636,0,0.0002994,2991.9,0.00010019,16.583,9.798e-05,0.0080814,-0.00029911,-2983.6,0.65119
11473,11.31,1.4545,0,0.00030185,3016.4,0.00010083,14.556,9.8889e-05,0.0078612,-0.0003016,-3009.1,0.64203
11474,11.402,1.4545,0.05,8.9906e-07,8.9844,6.9036e-07,5.1871,1.8328e-12,4.4321e-06,-6.9036e-07,-5.1871,0.65145
11475,11.402,1.1818,0,0.00029933,2991.2,0.00010019,16.869,9.7943e-05,0.0074743,-0.00029904,-2982.8,0.65056
11476,11.31,1.2727,0,0.00030181,3016,0.00010086,15.099,9.885e-05,0.0075288,-0.00030155,-3008.5,0.64143
11477,11.402,1.2727,0.05,9.0466e-07,9.0403,6.9466e-07,5.2194,5.896e-15,3.9856e-06,-6.9467e-07,-5.2194,0.65086
11478,11.402,1,0,0.00029924,2990.3,0.00010015,16.762,9.7918e-05,0.0061851,-0.00029895,-2981.9,0.64987
11479,11.31,1.0909,0,0.00030176,3015.5,0.00010086,15.318,9.882e-05,0.0065778,-0.00030149,-3007.8,0.64077
11480,11.402,1.0909,0.05,9.098e-07,9.0917,6.9861e-07,5.2491,9.0949e-13,3.9391e-06,-6.9861e-07,-5.2491,0.6502
11481,11.402,0.81818,0,0.00029913,2989.2,0.00010007,16.224,9.7908e-05,0.003673,-0.00029885,-2981.1,0.64911
11482,11.31,0.90909,0,0.00030168,3014.7,0.00010082,15.166,9.8803e-05,0.0049487,-0.00030142,-3007.1,0.64004
11483,11.402,0.90909,0.05,9.1425e-07,9.1362,7.0203e-07,5.2748,-1.9231e-15,3.0809e-06,-7.0203e-07,-5.2748,0.64947
11484,11.402,0.63636,0,0.000299,2988,9.9944e-05,15.245,9.7915e-05,0.00066072,-0.00029874,-2980.3,0.64829
11485,11.31,0.72727,0,0.00030159,3013.9,0.00010075,14.62,9.8801e-05,0.001732,-0.00030134,-3006.5,0.63924
11486,11.402,0.72727,0.05,9.1764e-07,9.1701,7.0464e-07,5.2944,-8.466e-15,1.9903e-06,-7.0464e-07,-5.2944,0.64868
11487,11.402,0.45455,0,0.00029887,2986.7,9.9787e-05,13.868,9.794e-05,-0.0095424,-0.00029864,-2979.7,0.6474
11488,11.31,0.54545,0,0.0003015,3012.9,0.00010064,13.685,9.8815e-05,-0.00085351,-0.00030126,-3006,0.63838
11489,11.402,0.54545,0.05,9.1712e-07,9.1649,7.0424e-07,5.2914,-9.056e-13,5.9554e-07,-7.0424e-07,-5.2914,0.64783
11490,11.402,0.27273,0,0.00029882,2986.2,9.9666e-05,12.614,9.7985e-05,-0.012785,-0.00029861,-2979.9,0.64644
11491,11.31,0.36364,0,0.0003014,3012,0.0001005,12.441,9.8845e-05,-0.016766,-0.00030119,-3005.7,0.63745
11492,11.402,0.36364,0.05,8.7185e-07,8.7125,6.6947e-07,5.0302,1.8928e-14,1.9736e-06,-6.6947e-07,-5.0302,0.6469
11493,11.31,0.18182,0,0.00030147,3012.7,0.00010048,11.9,9.8896e-05,-0.0028565,-0.00030127,-3006.7,0.63646
11494,11.402,0.18182,0.05,1.6141e-07,1.613,1.2394e-07,0.93127,-2.629e-23,2.3531e-06,-1.2394e-07,-0.93127,0.64592
11495,11.402,0.090909,0,0.00029829,2980.8,9.9096e-05,7.9016,9.8044e-05,-0.00092099,-0.00029816,-2976.9,0.64542
11496,11.218,5.7273,0,0.00030404,3038.3,0.00010131,11.643,9.9755e-05,-0.01015,-0.00030384,-3032.5,0.62753
11497,11.126,5.8182,0,0.00030671,3065,0.00010216,11.288,0.00010066,-0.0019622,-0.00030652,-3059.4,0.61764
11498,11.218,5.8182,0.05,1.4739e-07,1.4729,1.1317e-07,0.85027,5.3898e-12,-8.4195e-06,-1.1318e-07,-0.85045,0.627
11499,11.218,5.9091,0,0.00030357,3033.6,0.00010081,7.5715,9.9801e-05,-0.00061505,-0.00030344,-3029.8,0.6265
11500,11.218,5.5455,0,0.00030402,3038.1,0.00010135,12.234,9.972e-05,-0.0077934,-0.00030381,-3032,0.6285
11501,11.126,5.6364,0,0.00030658,3063.7,0.0001021,11.153,0.00010062,-0.013251,-0.00030639,-3058.1,0.61865
11502,11.218,5.6364,0.05,8.6731e-07,8.6671,6.6598e-07,5.0038,7.2934e-12,2.5601e-06,-6.6599e-07,-5.004,0.628
11503,11.218,5.3636,0,0.00030408,3038.7,0.00010144,13.039,9.9701e-05,0.0004956,-0.00030386,-3032.2,0.6294
11504,11.126,5.4545,0,0.00030661,3064,0.00010217,11.801,0.0001006,-0.00079147,-0.00030641,-3058,0.61959
11505,11.218,5.4545,0.05,9.1366e-07,9.1303,7.0157e-07,5.2713,6.4068e-12,3.7047e-06,-7.0158e-07,-5.2715,0.62894
11506,11.218,5.1818,0,0.00030415,3039.4,0.0001015,13.543,9.9697e-05,0.0031853,-0.00030391,-3032.6,0.63024
11507,11.126,5.2727,0,0.00030664,3064.3,0.00010221,12.225,0.00010059,0.0015169,-0.00030643,-3058.2,0.62046
11508,11.218,5.2727,0.05,9.1503e-07,9.144,7.0262e-07,5.2792,4.5812e-12,2.8802e-06,-7.0263e-07,-5.2793,0.6298
11509,11.218,5,0,0.0003042,3039.9,0.00010153,13.704,9.9706e-05,0.0054549,-0.00030396,-3033,0.63101
11510,11.126,5.0909,0,0.00030667,3064.6,0.00010223,12.352,0.00010059,0.0043186,-0.00030646,-3058.4,0.62127
11511,11.218,5.0909,0.05,9.1265e-07,9.1202,7.0079e-07,5.2654,4.5666e-12,3.5165e-06,-7.008e-07,-5.2656,0.63061
11512,11.218,4.8182,0,0.00030424,3040.3,0.00010153,13.531,9.9727e-05,0.0067061,-0.000304,-3033.5,0.63171
11513,11.126,4.9091,0,0.0003067,3064.8,0.00010223,12.177,0.00010061,0.0058491,-0.00030649,-3058.7,0.62201
11514,11.218,4.9091,0.05,9.0936e-07,9.0873,6.9827e-07,5.2465,5.4489e-12,3.7003e-06,-6.9828e-07,-5.2466,0.63134
11515,11.218,4.6364,0,0.00030426,3040.5,0.0001015,13.057,9.9759e-05,0.0073573,-0.00030403,-3033.9,0.63234
11516,11.126,4.7273,0,0.0003067,3064.9,0.00010219,11.719,0.00010063,0.0067936,-0.0003065,-3059,0.62268
11517,11.218,4.7273,0.05,9.055e-07,9.0487,6.953e-07,5.2242,6.329e-12,3.6571e-06,-6.9532e-07,-5.2244,0.63201
11518,11.218,4.4545,0,0.00030427,3040.6,0.00010144,12.332,9.9797e-05,0.0075279,-0.00030405,-3034.4,0.63291
11519,11.126,4.5455,0,0.0003067,3064.9,0.00010213,11.02,0.00010066,0.0071941,-0.00030651,-3059.3,0.62329
11520,11.218,4.5455,0.05,9.0125e-07,9.0063,6.9204e-07,5.1997,5.3987e-12,5.2679e-06,-6.9205e-07,-5.1998,0.63261
11521,11.218,4.2727,0,0.00030426,3040.5,0.00010136,11.424,9.984e-05,0.0073812,-0.00030407,-3034.8,0.63341
11522,11.126,4.3636,0,0.00030668,3064.7,0.00010205,10.134,0.0001007,0.0072221,-0.00030651,-3059.6,0.62383
11523,11.218,4.3636,0.05,8.9679e-07,8.9617,6.8862e-07,5.174,5.3856e-12,5.136e-06,-6.8863e-07,-5.1741,0.63314
11524,11.218,4.0909,0,0.00030425,3040.4,0.00010127,10.41,9.9885e-05,0.0070474,-0.00030407,-3035.1,0.63384
11525,11.126,4.1818,0,0.00030666,3064.5,0.00010196,9.1284,0.00010075,0.0070014,-0.0003065,-3059.9,0.6243
11526,11.218,4.1818,0.05,8.9232e-07,8.917,6.8519e-07,5.1482,5.3728e-12,5.5733e-06,-6.8519e-07,-5.1483,0.63361
11527,11.218,3.9091,0,0.00030422,3040.1,0.00010118,9.3711,9.9929e-05,0.0066408,-0.00030406,-3035.4,0.63421
11528,11.126,4,0,0.00030663,3064.1,0.00010186,8.078,0.00010079,0.0066482,-0.00030649,-3060.1,0.6247
11529,11.218,4,0.05,8.8802e-07,8.874,6.8188e-07,5.1234,3.553e-12,6.449e-06,-6.8189e-07,-5.1235,0.63401
11530,11.218,3.7273,0,0.0003042,3039.9,0.00010108,8.388,9.9969e-05,0.0062547,-0.00030405,-3035.7,0.63451
11531,11.126,3.8182,0,0.00030659,3063.8,0.00010176,7.0578,0.00010083,0.006262,-0.00030647,-3060.3,0.62504
11532,11.218,3.8182,0.05,8.8408e-07,8.8347,6.7886e-07,5.1007,4.4707e-12,7.4509e-06,-6.7887e-07,-5.1008,0.63435
11533,11.218,3.5455,0,0.00030417,3039.6,0.00010101,7.5354,0.0001,0.0059535,-0.00030404,-3035.8,0.63475
11534,11.126,3.6364,0,0.00030656,3063.5,0.00010168,6.1403,0.00010086,0.0059248,-0.00030645,-3060.4,0.6253
11535,11.218,3.6364,0.05,8.8068e-07,8.8007,6.7625e-07,5.0811,4.4864e-12,8.6713e-06,-6.7626e-07,-5.0812,0.63461
11536,11.218,3.3636,0,0.00030415,3039.4,0.00010094,6.8771,0.00010003,0.005762,-0.00030403,-3036,0.63491
11537,11.126,3.4545,0,0.00030653,3063.2,0.0001016,5.3898,0.00010089,0.0056864,-0.00030644,-3060.5,0.62551
11538,11.218,3.4545,0.05,8.7798e-07,8.7738,6.7418e-07,5.0655,4.5033e-12,8.7919e-06,-6.7418e-07,-5.0656,0.63481
11539,11.218,3.1818,0,0.00030414,3039.3,0.0001009,6.4616,0.00010005,0.0056681,-0.00030403,-3036,0.63501
11540,11.126,3.2727,0,0.00030651,3063,0.00010155,4.8585,0.00010091,0.0055553,-0.00030643,-3060.5,0.62564
11541,11.218,3.2727,0.05,8.761e-07,8.755,6.7273e-07,5.0546,4.5218e-12,8.6894e-06,-6.7275e-07,-5.0548,0.63495
11542,11.218,3,0,0.00030413,3039.2,0.00010089,6.3197,0.00010005,0.0056423,-0.00030402,-3036,0.63505
11543,11.126,3.0909,0,0.0003065,3062.9,0.00010153,4.5834,0.00010092,0.0055054,-0.00030642,-3060.6,0.62571
11544,11.218,3.0909,0.05,8.7514e-07,8.7454,6.72e-07,5.0491,4.5398e-12,9.1519e-06,-6.72e-07,-5.0492,0.63501
11545,11.218,2.8182,0,0.00030414,3039.3,0.0001009,6.4616,0.00010005,0.0056683,-0.00030403,-3036,0.63501
11546,11.126,2.9091,0,0.0003065,3062.9,0.00010153,4.5834,0.00010092,0.0055058,-0.00030642,-3060.6,0.62571
11547,11.218,2.9091,0.05,8.7514e-07,8.7454,6.72e-07,5.0491,3.6445e-12,9.5869e-06,-6.72e-07,-5.0492,0.63501
11548,11.218,2.6364,0,0.00030415,3039.4,0.00010094,6.8771,0.00010003,0.0057624,-0.00030403,-3036,0.63491
11549,11.126,2.7273,0,0.00030651,3063,0.00010155,4.8585,0.00010091,0.0055553,-0.00030643,-3060.5,0.62564
11550,11.218,2.7273,0.05,8.761e-07,8.755,6.7273e-07,5.0547,2.7449e-12,9.2723e-06,-6.7275e-07,-5.0547,0.63495
11551,11.218,2.4545,0,0.00030417,3039.6,0.00010101,7.5354,0.0001,0.005954,-0.00030404,-3035.8,0.63475
11552,11.126,2.5455,0,0.00030653,3063.2,0.0001016,5.3898,0.00010089,0.0056866,-0.00030644,-3060.5,0.62551
11553,11.218,2.5455,0.05,8.7798e-07,8.7738,6.7418e-07,5.0655,3.6614e-12,8.3891e-06,-6.7418e-07,-5.0656,0.63481
11554,11.218,2.2727,0,0.0003042,3039.9,0.00010108,8.388,9.9969e-05,0.006255,-0.00030405,-3035.7,0.63451
11555,11.126,2.3636,0,0.00030656,3063.5,0.00010168,6.1403,0.00010086,0.0059251,-0.00030645,-3060.4,0.6253
11556,11.218,2.3636,0.05,8.8068e-07,8.8007,6.7625e-07,5.0811,2.7506e-12,7.7935e-06,-6.7626e-07,-5.0811,0.63461
11557,11.218,2.0909,0,0.00030422,3040.1,0.00010118,9.3711,9.9929e-05,0.0066408,-0.00030406,-3035.4,0.63421
11558,11.126,2.1818,0,0.00030659,3063.8,0.00010176,7.0578,0.00010083,0.0062623,-0.00030647,-3060.3,0.62504
11559,11.218,2.1818,0.05,8.8408e-07,8.8347,6.7886e-07,5.1007,1.8427e-12,7.0975e-06,-6.7886e-07,-5.1007,0.63435
11560,11.218,1.9091,0,0.00030425,3040.4,0.00010127,10.41,9.9885e-05,0.0070477,-0.00030407,-3035.1,0.63384
11561,11.126,2,0,0.00030663,3064.1,0.00010186,8.078,0.00010079,0.0066484,-0.00030649,-3060.1,0.6247
11562,11.218,2,0.05,8.8802e-07,8.874,6.8189e-07,5.1234,2.7531e-12,6.215e-06,-6.8189e-07,-5.1235,0.63401
11563,11.218,1.7273,0,0.00030426,3040.5,0.00010136,11.424,9.984e-05,0.0073817,-0.00030407,-3034.8,0.63341
11564,11.126,1.8182,0,0.00030666,3064.5,0.00010196,9.1284,0.00010075,0.0070022,-0.0003065,-3059.9,0.6243
11565,11.218,1.8182,0.05,8.9232e-07,8.917,6.8519e-07,5.1482,2.7487e-12,5.8168e-06,-6.8519e-07,-5.1483,0.63361
11566,11.218,1.5455,0,0.00030427,3040.6,0.00010144,12.332,9.9797e-05,0.0075283,-0.00030405,-3034.4,0.63291
11567,11.126,1.6364,0,0.00030668,3064.7,0.00010205,10.134,0.0001007,0.0072227,-0.00030651,-3059.6,0.62383
11568,11.218,1.6364,0.05,8.9679e-07,8.9617,6.8862e-07,5.174,6.9631e-15,5.0028e-06,-6.8863e-07,-5.1741,0.63314
11569,11.218,1.3636,0,0.00030426,3040.5,0.0001015,13.057,9.9759e-05,0.0073579,-0.00030403,-3033.9,0.63234
11570,11.126,1.4545,0,0.0003067,3064.9,0.00010213,11.02,0.00010066,0.0071947,-0.00030651,-3059.3,0.62329
11571,11.218,1.4545,0.05,9.0125e-07,9.0063,6.9205e-07,5.1998,1.825e-12,4.3383e-06,-6.9205e-07,-5.1998,0.63261
11572,11.218,1.1818,0,0.00030424,3040.3,0.00010153,13.531,9.9727e-05,0.006707,-0.000304,-3033.5,0.63171
11573,11.126,1.2727,0,0.0003067,3064.9,0.00010219,11.719,0.00010063,0.0067942,-0.0003065,-3059,0.62268
11574,11.218,1.2727,0.05,9.055e-07,9.0487,6.9531e-07,5.2243,9.1739e-13,3.7453e-06,-6.9531e-07,-5.2243,0.63201
11575,11.218,1,0,0.0003042,3039.9,0.00010153,13.704,9.9706e-05,0.0054562,-0.00030396,-3033,0.63101
11576,11.126,1.0909,0,0.0003067,3064.8,0.00010223,12.177,0.00010061,0.00585,-0.00030649,-3058.7,0.62201
11577,11.218,1.0909,0.05,9.0936e-07,9.0873,6.9828e-07,5.2466,9.0999e-13,3.4058e-06,-6.9828e-07,-5.2466,0.63134
11578,11.218,0.81818,0,0.00030415,3039.4,0.0001015,13.543,9.9697e-05,0.0031864,-0.00030391,-3032.6,0.63024
11579,11.126,0.90909,0,0.00030667,3064.6,0.00010223,12.352,0.00010059,0.0043199,-0.00030646,-3058.4,0.62127
11580,11.218,0.90909,0.05,9.1265e-07,9.1202,7.008e-07,5.2655,-1.4865e-22,3.2782e-06,-7.008e-07,-5.2655,0.63061
11581,11.218,0.63636,0,0.00030408,3038.7,0.00010144,13.039,9.9701e-05,0.00049567,-0.00030386,-3032.2,0.6294
11582,11.126,0.72727,0,0.00030664,3064.3,0.00010221,12.225,0.00010059,0.001518,-0.00030643,-3058.2,0.62046
11583,11.218,0.72727,0.05,9.1503e-07,9.144,7.0263e-07,5.2793,-6.2116e-15,2.205e-06,-7.0263e-07,-5.2793,0.6298
11584,11.218,0.45455,0,0.00030402,3038.1,0.00010135,12.234,9.972e-05,-0.0077935,-0.00030381,-3032,0.6285
11585,11.126,0.54545,0,0.00030661,3064,0.00010217,11.801,0.0001006,-0.00079136,-0.00030641,-3058,0.61959
11586,11.218,0.54545,0.05,9.1366e-07,9.1303,7.0158e-07,5.2714,-1.0155e-14,2.4247e-07,-7.0158e-07,-5.2714,0.62894
11587,11.218,0.27273,0,0.00030404,3038.3,0.00010131,11.643,9.9755e-05,-0.010149,-0.00030384,-3032.5,0.62753
11588,11.126,0.36364,0,0.00030658,3063.7,0.0001021,11.153,0.00010062,-0.01325,-0.00030639,-3058.1,0.61865
11589,11.218,0.36364,0.05,8.6731e-07,8.6671,6.6598e-07,5.0039,-4.419e-14,1.3203e-06,-6.6598e-07,-5.0039,0.628
11590,11.126,0.18182,0,0.00030671,3065,0.00010216,11.288,0.00010066,-0.0019611,-0.00030652,-3059.4,0.61764
11591,11.218,0.18182,0.05,1.4739e-07,1.4729,1.1318e-07,0.85037,-8.5268e-13,3.3425e-06,-1.1318e-07,-0.85034,0.627
11592,11.218,0.090909,0,0.00030357,3033.6,0.00010081,7.5715,9.9801e-05,-0.00061402,-0.00030344,-3029.8,0.6265
11593,11.034,5.7273,0,0.00030924,3090.3,0.00010295,10.715,0.00010152,-0.0078603,-0.00030906,-3084.9,0.60883
11594,10.943,5.8182,0,0.00031194,3117.3,0.00010383,10.685,0.00010241,-0.001505,-0.00031176,-3111.9,0.59903
11595,11.034,5.8182,0.05,1.3723e-07,1.3713,1.0537e-07,0.79163,5.4805e-12,-3.6967e-06,-1.0538e-07,-0.79181,0.60829
11596,11.034,5.9091,0,0.00030882,3086.1,0.00010252,7.2428,0.00010155,-0.0003831,-0.0003087,-3082.5,0.60778
11597,11.034,5.5455,0,0.00030916,3089.5,0.00010292,10.696,0.00010149,-0.0061163,-0.00030898,-3084.1,0.60981
11598,10.943,5.6364,0,0.00031175,3115.3,0.00010371,9.9293,0.00010238,-0.0099459,-0.00031158,-3110.4,0.60006
11599,11.034,5.6364,0.05,8.6459e-07,8.64,6.639e-07,4.9882,7.3067e-12,2.7909e-06,-6.639e-07,-4.9884,0.6093
11600,11.034,5.3636,0,0.00030916,3089.5,0.00010294,10.966,0.00010148,0.00041161,-0.00030898,-3084,0.61072
11601,10.943,5.4545,0,0.00031172,3115,0.0001037,10.02,0.00010237,-0.0006274,-0.00031155,-3110,0.60101
11602,11.034,5.4545,0.05,9.1179e-07,9.1116,7.0013e-07,5.2605,5.4944e-12,3.7748e-06,-7.0014e-07,-5.2606,0.61025
11603,11.034,5.1818,0,0.00030917,3089.6,0.00010295,11.016,0.00010148,0.0027705,-0.00030898,-3084,0.61157
11604,10.943,5.2727,0,0.0003117,3114.8,0.00010369,9.9591,0.00010237,0.0013891,-0.00031153,-3109.8,0.6019
11605,11.034,5.2727,0.05,9.1382e-07,9.1319,7.0169e-07,5.2722,4.5651e-12,2.7865e-06,-7.0171e-07,-5.2724,0.61113
11606,11.034,5,0,0.00030917,3089.6,0.00010293,10.807,0.00010149,0.0047892,-0.00030898,-3084.1,0.61235
11607,10.943,5.0909,0,0.00031168,3114.6,0.00010366,9.6783,0.00010237,0.0037726,-0.00031151,-3109.8,0.60271
11608,11.034,5.0909,0.05,9.1224e-07,9.1161,7.0048e-07,5.2631,5.4623e-12,3.3158e-06,-7.0049e-07,-5.2633,0.61194
11609,11.034,4.8182,0,0.00030916,3089.5,0.00010289,10.348,0.00010151,0.0059854,-0.00030898,-3084.3,0.61306
11610,10.943,4.9091,0,0.00031165,3114.4,0.00010361,9.1742,0.00010239,0.0051866,-0.00031149,-3109.8,0.60346
11611,11.034,4.9091,0.05,9.0988e-07,9.0925,6.9867e-07,5.2495,4.5327e-12,3.6467e-06,-6.9868e-07,-5.2496,0.61269
11612,11.034,4.6364,0,0.00030914,3089.3,0.00010282,9.6664,0.00010154,0.0066631,-0.00030898,-3084.4,0.6137
11613,10.943,4.7273,0,0.00031162,3114,0.00010354,8.465,0.00010241,0.0061096,-0.00031147,-3109.8,0.60414
11614,11.034,4.7273,0.05,9.0703e-07,9.0641,6.9648e-07,5.233,5.4209e-12,3.3881e-06,-6.9649e-07,-5.2333,0.61336
11615,11.034,4.4545,0,0.00030911,3089,0.00010274,8.806,0.00010157,0.0069123,-0.00030896,-3084.6,0.61427
11616,10.943,4.5455,0,0.00031157,3113.6,0.00010345,7.5852,0.00010244,0.0065664,-0.00031144,-3109.8,0.60476
11617,11.034,4.5455,0.05,9.0386e-07,9.0323,6.9405e-07,5.2147,7.2226e-12,5.0923e-06,-6.9405e-07,-5.2149,0.61397
11618,11.034,4.2727,0,0.00030908,3088.6,0.00010265,7.823,0.00010161,0.0068614,-0.00030894,-3084.7,0.61478
11619,10.943,4.3636,0,0.00031153,3113.1,0.00010335,6.5821,0.00010248,0.0066837,-0.00031141,-3109.8,0.6053
11620,11.034,4.3636,0.05,9.005e-07,8.9988,6.9146e-07,5.1954,6.3047e-12,4.5613e-06,-6.9148e-07,-5.1955,0.61451
11621,11.034,4.0909,0,0.00030904,3088.2,0.00010255,6.7817,0.00010165,0.0066173,-0.00030892,-3084.8,0.61522
11622,10.943,4.1818,0,0.00031147,3112.6,0.00010325,5.5121,0.00010251,0.0065564,-0.00031138,-3109.8,0.60578
11623,11.034,4.1818,0.05,8.971e-07,8.9649,6.8886e-07,5.1758,4.477e-12,5.0934e-06,-6.8887e-07,-5.1759,0.61499
11624,11.034,3.9091,0,0.00030899,3087.8,0.00010245,5.7502,0.00010168,0.006279,-0.00030889,-3084.9,0.61559
11625,10.943,4,0,0.00031142,3112.1,0.00010314,4.4374,0.00010255,0.0062788,-0.00031135,-3109.8,0.60618
11626,11.034,4,0.05,8.9383e-07,8.9321,6.8635e-07,5.1569,5.392e-12,6.0757e-06,-6.8635e-07,-5.157,0.61539
11627,11.034,3.7273,0,0.00030895,3087.4,0.00010235,4.7956,0.00010172,0.0059348,-0.00030887,-3085,0.6159
11628,10.943,3.8182,0,0.00031137,3111.6,0.00010304,3.4211,0.00010258,0.005935,-0.00031131,-3109.8,0.60652
11629,11.034,3.8182,0.05,8.9083e-07,8.9021,6.8404e-07,5.1396,3.5746e-12,6.7796e-06,-6.8405e-07,-5.1397,0.61573
11630,11.034,3.5455,0,0.00030892,3087,0.00010227,3.9802,0.00010175,0.0056547,-0.00030885,-3085,0.61613
11631,10.943,3.6364,0,0.00031132,3111.1,0.00010295,2.5237,0.00010261,0.0056059,-0.00031128,-3109.8,0.6068
11632,11.034,3.6364,0.05,8.8823e-07,8.8762,6.8205e-07,5.1246,4.4958e-12,8.1617e-06,-6.8206e-07,-5.1247,0.616
11633,11.034,3.3636,0,0.00030889,3086.7,0.00010221,3.3567,0.00010177,0.0054779,-0.00030883,-3085.1,0.6163
11634,10.943,3.4545,0,0.00031129,3110.7,0.00010287,1.7987,0.00010264,0.0053641,-0.00031126,-3109.8,0.607
11635,11.034,3.4545,0.05,8.8617e-07,8.8556,6.8046e-07,5.1127,3.6011e-12,8.3778e-06,-6.8047e-07,-5.1128,0.6162
11636,11.034,3.1818,0,0.00030887,3086.6,0.00010217,2.9657,0.00010178,0.0053998,-0.00030882,-3085.1,0.6164
11637,10.943,3.2727,0,0.00031126,3110.4,0.00010282,1.2896,0.00010265,0.0052556,-0.00031124,-3109.8,0.60714
11638,11.034,3.2727,0.05,8.8473e-07,8.8412,6.7936e-07,5.1044,3.6167e-12,8.1021e-06,-6.7937e-07,-5.1045,0.61634
11639,11.034,3,0,0.00030886,3086.5,0.00010216,2.8325,0.00010178,0.005382,-0.00030881,-3085.1,0.61644
11640,10.943,3.0909,0,0.00031125,3110.3,0.0001028,1.0271,0.00010266,0.0052549,-0.00031123,-3109.8,0.6072
11641,11.034,3.0909,0.05,8.84e-07,8.8339,6.788e-07,5.1002,3.6314e-12,8.5122e-06,-6.788e-07,-5.1003,0.61641
11642,11.034,2.8182,0,0.00030887,3086.6,0.00010217,2.9657,0.00010178,0.0054,-0.00030882,-3085.1,0.6164
11643,10.943,2.9091,0,0.00031125,3110.3,0.0001028,1.0271,0.00010266,0.0052552,-0.00031123,-3109.8,0.6072
11644,11.034,2.9091,0.05,8.84e-07,8.8339,6.788e-07,5.1002,3.6437e-12,9.0772e-06,-6.788e-07,-5.1003,0.61641
11645,11.034,2.6364,0,0.00030889,3086.7,0.00010221,3.3567,0.00010177,0.0054778,-0.00030883,-3085.1,0.6163
11646,10.943,2.7273,0,0.00031126,3110.4,0.00010282,1.2896,0.00010265,0.0052558,-0.00031124,-3109.8,0.60714
11647,11.034,2.7273,0.05,8.8473e-07,8.8412,6.7936e-07,5.1044,3.6522e-12,8.6728e-06,-6.7937e-07,-5.1045,0.61634
11648,11.034,2.4545,0,0.00030892,3087,0.00010227,3.9802,0.00010175,0.0056547,-0.00030885,-3085,0.61613
11649,10.943,2.5455,0,0.00031129,3110.7,0.00010287,1.7987,0.00010264,0.0053643,-0.00031126,-3109.8,0.607
11650,11.034,2.5455,0.05,8.8617e-07,8.8556,6.8047e-07,5.1127,3.6584e-12,8.0441e-06,-6.8047e-07,-5.1128,0.6162
11651,11.034,2.2727,0,0.00030895,3087.4,0.00010235,4.7956,0.00010172,0.005935,-0.00030887,-3085,0.6159
11652,10.943,2.3636,0,0.00031132,3111.1,0.00010295,2.5237,0.00010261,0.0056061,-0.00031128,-3109.8,0.6068
11653,11.034,2.3636,0.05,8.8823e-07,8.8762,6.8205e-07,5.1246,3.6606e-12,7.6641e-06,-6.8206e-07,-5.1247,0.616
11654,11.034,2.0909,0,0.00030899,3087.8,0.00010245,5.7502,0.00010168,0.0062795,-0.00030889,-3084.9,0.61559
11655,10.943,2.1818,0,0.00031137,3111.6,0.00010304,3.4211,0.00010258,0.0059353,-0.00031131,-3109.8,0.60652
11656,11.034,2.1818,0.05,8.9083e-07,8.9021,6.8404e-07,5.1396,3.6551e-12,6.8881e-06,-6.8405e-07,-5.1397,0.61573
11657,11.034,1.9091,0,0.00030904,3088.2,0.00010255,6.7817,0.00010165,0.0066178,-0.00030892,-3084.8,0.61522
11658,10.943,2,0,0.00031142,3112.1,0.00010314,4.4374,0.00010255,0.0062792,-0.00031135,-3109.8,0.60618
11659,11.034,2,0.05,8.9383e-07,8.9321,6.8635e-07,5.157,9.2866e-13,6.3404e-06,-6.8635e-07,-5.157,0.61539
11660,11.034,1.7273,0,0.00030908,3088.6,0.00010265,7.823,0.00010161,0.0068622,-0.00030894,-3084.7,0.61478
11661,10.943,1.8182,0,0.00031147,3112.6,0.00010325,5.5121,0.00010251,0.006557,-0.00031138,-3109.8,0.60578
11662,11.034,1.8182,0.05,8.971e-07,8.9649,6.8886e-07,5.1758,2.7416e-12,5.7583e-06,-6.8887e-07,-5.1759,0.61499
11663,11.034,1.5455,0,0.00030911,3089,0.00010274,8.8059,0.00010157,0.0069132,-0.00030896,-3084.6,0.61427
11664,10.943,1.6364,0,0.00031153,3113.1,0.00010335,6.5821,0.00010248,0.0066842,-0.00031141,-3109.8,0.6053
11665,11.034,1.6364,0.05,9.005e-07,8.9988,6.9147e-07,5.1954,1.8287e-12,5.2336e-06,-6.9147e-07,-5.1955,0.61451
11666,11.034,1.3636,0,0.00030914,3089.3,0.00010282,9.6664,0.00010154,0.0066639,-0.00030898,-3084.4,0.6137
11667,10.943,1.4545,0,0.00031157,3113.6,0.00010345,7.5852,0.00010244,0.0065669,-0.00031144,-3109.8,0.60476
11668,11.034,1.4545,0.05,9.0386e-07,9.0323,6.9405e-07,5.2148,1.8272e-12,4.5696e-06,-6.9405e-07,-5.2149,0.61397
11669,11.034,1.1818,0,0.00030916,3089.5,0.00010289,10.348,0.00010151,0.0059861,-0.00030898,-3084.3,0.61306
11670,10.943,1.2727,0,0.00031162,3114,0.00010354,8.465,0.00010241,0.0061104,-0.00031147,-3109.8,0.60414
11671,11.034,1.2727,0.05,9.0703e-07,9.0641,6.9649e-07,5.2331,1.8271e-12,3.7728e-06,-6.9649e-07,-5.2331,0.61336
11672,11.034,1,0,0.00030917,3089.6,0.00010293,10.807,0.00010149,0.0047902,-0.00030898,-3084.1,0.61235
11673,10.943,1.0909,0,0.00031165,3114.4,0.00010361,9.1741,0.00010239,0.005187,-0.00031149,-3109.8,0.60346
11674,11.034,1.0909,0.05,9.0988e-07,9.0925,6.9867e-07,5.2495,2.8253e-15,3.3534e-06,-6.9867e-07,-5.2496,0.61269
11675,11.034,0.81818,0,0.00030917,3089.6,0.00010295,11.016,0.00010148,0.0027719,-0.00030898,-3084,0.61157
11676,10.943,0.90909,0,0.00031168,3114.6,0.00010366,9.6783,0.00010237,0.0037739,-0.00031151,-3109.8,0.60271
11677,11.034,0.90909,0.05,9.1224e-07,9.1161,7.0049e-07,5.2632,9.0825e-13,3.0364e-06,-7.0049e-07,-5.2632,0.61194
11678,11.034,0.63636,0,0.00030916,3089.5,0.00010294,10.966,0.00010148,0.0004128,-0.00030898,-3084,0.61072
11679,10.943,0.72727,0,0.0003117,3114.8,0.00010369,9.9591,0.00010237,0.0013905,-0.00031153,-3109.8,0.6019
11680,11.034,0.72727,0.05,9.1382e-07,9.1319,7.017e-07,5.2723,-1.4884e-22,3.2482e-06,-7.017e-07,-5.2723,0.61113
11681,11.034,0.45455,0,0.00030916,3089.5,0.00010292,10.696,0.00010149,-0.0061153,-0.00030898,-3084.1,0.60981
11682,10.943,0.54545,0,0.00031172,3115,0.0001037,10.02,0.00010237,-0.00062683,-0.00031155,-3110,0.60101
11683,11.034,0.54545,0.05,9.1179e-07,9.1116,7.0014e-07,5.2606,-1.4851e-22,2.6591e-06,-7.0014e-07,-5.2606,0.61025
11684,11.034,0.27273,0,0.00030924,3090.3,0.00010295,10.715,0.00010152,-0.0078594,-0.00030906,-3084.9,0.60883
11685,10.943,0.36364,0,0.00031175,3115.3,0.00010371,9.9293,0.00010238,-0.0099449,-0.00031158,-3110.4,0.60006
11686,11.034,0.36364,0.05,8.6459e-07,8.64,6.6391e-07,4.9883,6.0362e-15,2.0048e-06,-6.6389e-07,-4.9883,0.6093
11687,10.943,0.18182,0,0.00031194,3117.3,0.00010383,10.685,0.00010241,-0.0015041,-0.00031176,-3111.9,0.59903
11688,11.034,0.18182,0.05,1.3722e-07,1.3713,1.0538e-07,0.79174,-1.458e-12,1.6322e-06,-1.0537e-07,-0.79171,0.60829
11689,11.034,0.090909,0,0.00030882,3086.1,0.00010252,7.2428,0.00010155,-0.00038232,-0.0003087,-3082.5,0.60778
11690,10.851,5.7273,0,0.00031444,3142.2,0.00010458,9.8166,0.00010328,-0.0058149,-0.00031427,-3137.3,0.59033
11691,10.759,5.8182,0,0.00031716,3169.4,0.00010551,10.083,0.00010416,-0.0014389,-0.00031699,-3164.4,0.58064
11692,10.851,5.8182,0.05,1.3051e-07,1.3042,1.0021e-07,0.75293,3.3927e-12,8.307e-07,-1.0023e-07,-0.75308,0.58979
11693,10.851,5.9091,0,0.00031407,3138.5,0.00010422,6.9124,0.0001033,-0.00017753,-0.00031395,-3135,0.58927
11694,10.851,5.5455,0,0.0003143,3140.8,0.00010449,9.2286,0.00010326,-0.0044347,-0.00031414,-3136.2,0.59133
11695,10.759,5.6364,0,0.00031692,3167,0.00010531,8.7496,0.00010415,-0.0068072,-0.00031677,-3162.6,0.58167
11696,10.851,5.6364,0.05,8.6338e-07,8.6279,6.6296e-07,4.9812,6.3805e-12,2.7593e-06,-6.6298e-07,-4.9814,0.59081
11697,10.851,5.3636,0,0.00031425,3140.3,0.00010445,8.992,0.00010326,0.00044401,-0.0003141,-3135.8,0.59225
11698,10.759,5.4545,0,0.00031683,3166.1,0.00010525,8.3122,0.00010414,-0.00038542,-0.00031669,-3162,0.58264
11699,10.851,5.4545,0.05,9.1121e-07,9.1058,6.9969e-07,5.2572,5.4712e-12,3.788e-06,-6.997e-07,-5.2573,0.59177
11700,10.851,5.1818,0,0.0003142,3139.9,0.00010441,8.6028,0.00010326,0.0024477,-0.00031406,-3135.6,0.59311
11701,10.759,5.2727,0,0.00031676,3165.4,0.00010518,7.7852,0.00010415,0.0013046,-0.00031663,-3161.5,0.58354
11702,10.851,5.2727,0.05,9.1377e-07,9.1314,7.0166e-07,5.2719,4.5556e-12,2.7124e-06,-7.0167e-07,-5.2721,0.59267
11703,10.851,5,0,0.00031416,3139.4,0.00010434,8.0277,0.00010327,0.004195,-0.00031402,-3135.4,0.5939
11704,10.759,5.0909,0,0.00031669,3164.7,0.0001051,7.104,0.00010416,0.0032379,-0.00031657,-3161.2,0.58436
11705,10.851,5.0909,0.05,9.1283e-07,9.122,7.0093e-07,5.2665,6.3598e-12,3.2396e-06,-7.0094e-07,-5.2666,0.59349
11706,10.851,4.8182,0,0.0003141,3138.9,0.00010426,7.2745,0.00010329,0.0053164,-0.00031398,-3135.2,0.59462
11707,10.759,4.9091,0,0.00031662,3164,0.00010501,6.2676,0.00010418,0.0044969,-0.00031652,-3160.9,0.58512
11708,10.851,4.9091,0.05,9.112e-07,9.1057,6.9968e-07,5.2571,5.4354e-12,3.4557e-06,-6.9969e-07,-5.2572,0.59424
11709,10.851,4.6364,0,0.00031405,3138.3,0.00010417,6.3681,0.00010332,0.0060105,-0.00031394,-3135.1,0.59527
11710,10.759,4.7273,0,0.00031655,3163.3,0.0001049,5.2935,0.0001042,0.0053761,-0.00031646,-3160.7,0.58581
11711,10.851,4.7273,0.05,9.0916e-07,9.0853,6.9812e-07,5.2453,4.5078e-12,3.3452e-06,-6.9812e-07,-5.2455,0.59493
11712,10.851,4.4545,0,0.00031399,3137.7,0.00010406,5.3461,0.00010335,0.0063367,-0.00031389,-3135,0.59585
11713,10.759,4.5455,0,0.00031647,3162.5,0.00010479,4.2119,0.00010423,0.005884,-0.0003164,-3160.4,0.58643
11714,10.851,4.5455,0.05,9.0684e-07,9.0621,6.9633e-07,5.2319,4.4926e-12,4.6896e-06,-6.9634e-07,-5.2321,0.59554
11715,10.851,4.2727,0,0.00031392,3137.1,0.00010395,4.2564,0.00010338,0.0063857,-0.00031385,-3134.9,0.59636
11716,10.759,4.3636,0,0.0003164,3161.8,0.00010467,3.0637,0.00010426,0.0061039,-0.00031634,-3160.2,0.58698
11717,10.851,4.3636,0.05,9.0435e-07,9.0372,6.9442e-07,5.2176,6.3097e-12,4.5063e-06,-6.9443e-07,-5.2177,0.59609
11718,10.851,4.0909,0,0.00031386,3136.4,0.00010384,3.1532,0.00010342,0.0062351,-0.0003138,-3134.8,0.59681
11719,10.759,4.1818,0,0.00031632,3161,0.00010454,1.897,0.00010429,0.006101,-0.00031629,-3160.1,0.58747
11720,10.851,4.1818,0.05,9.0181e-07,9.0119,6.9247e-07,5.203,6.3033e-12,4.9112e-06,-6.9248e-07,-5.2031,0.59657
11721,10.851,3.9091,0,0.0003138,3135.8,0.00010373,2.0939,0.00010345,0.0059519,-0.00031376,-3134.7,0.59718
11722,10.759,4,0,0.00031625,3160.3,0.00010442,0.7644,0.00010432,0.0059191,-0.00031623,-3159.9,0.58788
11723,10.851,4,0.05,8.9935e-07,8.9873,6.9059e-07,5.1888,5.3949e-12,5.5041e-06,-6.9059e-07,-5.1889,0.59698
11724,10.851,3.7273,0,0.00031374,3135.2,0.00010363,1.1349,0.00010348,0.005574,-0.00031372,-3134.7,0.59749
11725,10.759,3.8182,0,0.00031618,3159.6,0.00010435,0.0059545,0.00010432,-0.28096,-0.00031618,-3159.7,0.58822
11726,10.851,3.8182,0.05,8.9708e-07,8.9646,6.8884e-07,5.1757,3.5859e-12,6.3932e-06,-6.8885e-07,-5.1758,0.59732
11727,10.851,3.5455,0,0.00031369,3134.8,0.00010355,0.32835,0.0001035,0.0048979,-0.00031369,-3134.6,0.59773
11728,10.759,3.6364,0,0.00031612,3159,0.00010438,0.0055586,0.00010422,-1.1877,-0.00031614,-3159.6,0.5885
11729,10.851,3.6364,0.05,8.9512e-07,8.945,6.8733e-07,5.1643,3.5911e-12,7.576e-06,-6.8734e-07,-5.1645,0.5976
11730,10.851,3.3636,0,0.00031366,3134.4,0.00010352,0.0057548,0.00010348,-0.28327,-0.00031366,-3134.5,0.5979
11731,10.759,3.4545,0,0.00031607,3158.6,0.0001044,0.0053096,0.00010414,-1.9112,-0.00031611,-3159.5,0.5887
11732,10.851,3.4545,0.05,8.9355e-07,8.9293,6.8613e-07,5.1553,4.5149e-12,7.7721e-06,-6.8614e-07,-5.1554,0.5978
11733,10.851,3.1818,0,0.00031364,3134.2,0.00010353,0.0052572,0.00010344,-0.66336,-0.00031365,-3134.5,0.59801
11734,10.759,3.2727,0,0.00031604,3158.2,0.00010441,0.0051267,0.00010409,-2.4151,-0.00031608,-3159.4,0.58884
11735,10.851,3.2727,0.05,8.9246e-07,8.9185,6.853e-07,5.149,3.6195e-12,7.5628e-06,-6.853e-07,-5.1491,0.59794
11736,10.851,3,0,0.00031363,3134.1,0.00010354,0.0051588,0.00010343,-0.79251,-0.00031364,-3134.5,0.59804
11737,10.759,3.0909,0,0.00031603,3158.1,0.00010442,0.0050295,0.00010406,-2.6736,-0.00031607,-3159.4,0.58891
11738,10.851,3.0909,0.05,8.919e-07,8.9129,6.8487e-07,5.1458,3.6322e-12,8.1371e-06,-6.8487e-07,-5.1459,0.59801
11739,10.851,2.8182,0,0.00031364,3134.2,0.00010353,0.0052575,0.00010344,-0.66336,-0.00031365,-3134.5,0.59801
11740,10.759,2.9091,0,0.00031603,3158.1,0.00010442,0.0050298,0.00010406,-2.6736,-0.00031607,-3159.4,0.58891
11741,10.851,2.9091,0.05,8.919e-07,8.9129,6.8487e-07,5.1458,3.6431e-12,8.607e-06,-6.8487e-07,-5.1459,0.59801
11742,10.851,2.6364,0,0.00031366,3134.4,0.00010352,0.0057553,0.00010348,-0.28328,-0.00031366,-3134.5,0.5979
11743,10.759,2.7273,0,0.00031604,3158.2,0.00010441,0.0051273,0.00010409,-2.4151,-0.00031608,-3159.4,0.58884
11744,10.851,2.7273,0.05,8.9246e-07,8.9185,6.853e-07,5.149,3.6517e-12,8.3691e-06,-6.853e-07,-5.1491,0.59794
11745,10.851,2.4545,0,0.00031369,3134.8,0.00010355,0.32835,0.0001035,0.0048983,-0.00031369,-3134.6,0.59773
11746,10.759,2.5455,0,0.00031607,3158.6,0.0001044,0.0053098,0.00010414,-1.9112,-0.00031611,-3159.5,0.5887
11747,10.851,2.5455,0.05,8.9355e-07,8.9293,6.8613e-07,5.1553,2.7466e-12,7.8082e-06,-6.8614e-07,-5.1554,0.5978
11748,10.851,2.2727,0,0.00031374,3135.2,0.00010363,1.1349,0.00010348,0.0055743,-0.00031372,-3134.7,0.59749
11749,10.759,2.3636,0,0.00031612,3159,0.00010438,0.0055586,0.00010422,-1.1877,-0.00031614,-3159.6,0.5885
11750,10.851,2.3636,0.05,8.9512e-07,8.945,6.8734e-07,5.1644,3.6587e-12,7.3644e-06,-6.8734e-07,-5.1644,0.5976
11751,10.851,2.0909,0,0.0003138,3135.8,0.00010373,2.0939,0.00010345,0.0059522,-0.00031376,-3134.7,0.59718
11752,10.759,2.1818,0,0.00031618,3159.6,0.00010435,0.0059547,0.00010432,-0.28097,-0.00031618,-3159.7,0.58822
11753,10.851,2.1818,0.05,8.9708e-07,8.9646,6.8885e-07,5.1757,1.8433e-12,6.7628e-06,-6.8885e-07,-5.1758,0.59732
11754,10.851,1.9091,0,0.00031386,3136.4,0.00010384,3.1532,0.00010342,0.0062355,-0.0003138,-3134.8,0.59681
11755,10.759,2,0,0.00031625,3160.3,0.00010442,0.7644,0.00010432,0.0059199,-0.00031623,-3159.9,0.58788
11756,10.851,2,0.05,8.9935e-07,8.9873,6.9059e-07,5.1888,9.303e-13,6.1989e-06,-6.9059e-07,-5.1888,0.59698
11757,10.851,1.7273,0,0.00031392,3137.1,0.00010395,4.2564,0.00010338,0.0063861,-0.00031385,-3134.9,0.59636
11758,10.759,1.8182,0,0.00031632,3161,0.00010454,1.8969,0.00010429,0.0061015,-0.00031629,-3160.1,0.58747
11759,10.851,1.8182,0.05,9.0181e-07,9.0119,6.9248e-07,5.203,1.8324e-14,5.781e-06,-6.9248e-07,-5.203,0.59657
11760,10.851,1.5455,0,0.00031399,3137.7,0.00010406,5.3461,0.00010335,0.0063368,-0.00031389,-3135,0.59585
11761,10.759,1.6364,0,0.0003164,3161.8,0.00010467,3.0636,0.00010426,0.006104,-0.00031634,-3160.2,0.58698
11762,10.851,1.6364,0.05,9.0435e-07,9.0372,6.9442e-07,5.2176,1.3709e-14,5.1279e-06,-6.9443e-07,-5.2177,0.59609
11763,10.851,1.3636,0,0.00031405,3138.3,0.00010417,6.3681,0.00010332,0.0060108,-0.00031394,-3135.1,0.59527
11764,10.759,1.4545,0,0.00031647,3162.5,0.00010479,4.2119,0.00010423,0.0058843,-0.0003164,-3160.4,0.58643
11765,10.851,1.4545,0.05,9.0684e-07,9.0621,6.9633e-07,5.232,1.1348e-14,4.5707e-06,-6.9634e-07,-5.232,0.59554
11766,10.851,1.1818,0,0.0003141,3138.9,0.00010426,7.2745,0.00010329,0.0053169,-0.00031398,-3135.2,0.59462
11767,10.759,1.2727,0,0.00031655,3163.3,0.0001049,5.2935,0.0001042,0.0053768,-0.00031646,-3160.7,0.58581
11768,10.851,1.2727,0.05,9.0916e-07,9.0853,6.9812e-07,5.2454,9.1936e-13,4.1005e-06,-6.9812e-07,-5.2454,0.59493
11769,10.851,1,0,0.00031416,3139.4,0.00010434,8.0277,0.00010327,0.0041958,-0.00031402,-3135.4,0.5939
11770,10.759,1.0909,0,0.00031662,3164,0.00010501,6.2676,0.00010418,0.0044975,-0.00031652,-3160.9,0.58512
11771,10.851,1.0909,0.05,9.112e-07,9.1057,6.9969e-07,5.2572,9.1103e-13,3.7235e-06,-6.9969e-07,-5.2572,0.59424
11772,10.851,0.81818,0,0.0003142,3139.9,0.00010441,8.6028,0.00010326,0.002449,-0.00031406,-3135.6,0.59311
11773,10.759,0.90909,0,0.00031669,3164.7,0.0001051,7.1039,0.00010416,0.0032389,-0.00031657,-3161.2,0.58436
11774,10.851,0.90909,0.05,9.1283e-07,9.122,7.0094e-07,5.2666,9.11e-13,2.9631e-06,-7.0094e-07,-5.2666,0.59349
11775,10.851,0.63636,0,0.00031425,3140.3,0.00010445,8.992,0.00010326,0.00044471,-0.0003141,-3135.8,0.59225
11776,10.759,0.72727,0,0.00031676,3165.4,0.00010518,7.7852,0.00010415,0.001306,-0.00031663,-3161.5,0.58354
11777,10.851,0.72727,0.05,9.1377e-07,9.1314,7.0167e-07,5.272,3.3762e-17,3.2964e-06,-7.0166e-07,-5.272,0.59267
11778,10.851,0.45455,0,0.0003143,3140.8,0.00010449,9.2287,0.00010326,-0.0044342,-0.00031414,-3136.2,0.59133
11779,10.759,0.54545,0,0.00031683,3166.1,0.00010525,8.3122,0.00010414,-0.00038474,-0.00031669,-3162,0.58264
11780,10.851,0.54545,0.05,9.1121e-07,9.1058,6.997e-07,5.2573,-9.1335e-13,3.0388e-06,-6.997e-07,-5.2572,0.59177
11781,10.851,0.27273,0,0.00031444,3142.2,0.00010458,9.8166,0.00010328,-0.0058139,-0.00031427,-3137.3,0.59033
11782,10.759,0.36364,0,0.00031692,3167,0.00010531,8.7496,0.00010415,-0.0068062,-0.00031677,-3162.6,0.58167
11783,10.851,0.36364,0.05,8.6338e-07,8.6279,6.6297e-07,4.9813,6.788e-15,2.4395e-06,-6.6297e-07,-4.9813,0.59081
11784,10.759,0.18182,0,0.00031716,3169.4,0.00010551,10.083,0.00010416,-0.0014378,-0.00031699,-3164.4,0.58064
11785,10.851,0.18182,0.05,1.3051e-07,1.3042,1.0022e-07,0.753,-8.1863e-13,2.0883e-06,-1.0022e-07,-0.753,0.58979
11786,10.851,0.090909,0,0.00031407,3138.5,0.00010422,6.9124,0.0001033,-0.00017709,-0.00031395,-3135,0.58927
11787,10.667,5.7273,0,0.00031963,3194.1,0.00010622,8.9343,0.00010503,-0.0040558,-0.00031948,-3189.6,0.57205
11788,10.575,5.8182,0,0.00032238,3221.6,0.00010718,9.4758,0.00010592,-0.0017726,-0.00032222,-3216.8,0.56245
11789,10.667,5.8182,0.05,1.2691e-07,1.2682,9.7448e-08,0.73211,6.3078e-12,1.2738e-06,-9.7455e-08,-0.73232,0.5715
11790,10.667,5.9091,0,0.00031931,3190.9,0.00010592,6.5767,0.00010505,-8.5819e-05,-0.0003192,-3187.6,0.57097
11791,10.667,5.5455,0,0.00031944,3192.2,0.00010607,7.8092,0.00010503,-0.0028063,-0.00031931,-3188.3,0.57306
11792,10.575,5.6364,0,0.00032209,3218.6,0.00010692,7.5971,0.00010591,-0.0038245,-0.00032196,-3214.8,0.5635
11793,10.667,5.6364,0.05,8.634e-07,8.628,6.6298e-07,4.9813,5.4621e-12,2.5421e-06,-6.6299e-07,-4.9815,0.57254
11794,10.667,5.3636,0,0.00031934,3191.2,0.00010597,7.0854,0.00010503,0.00048765,-0.00031922,-3187.7,0.57399
11795,10.575,5.4545,0,0.00032195,3217.3,0.0001068,6.653,0.00010591,-0.0001193,-0.00032184,-3214,0.56448
11796,10.667,5.4545,0.05,9.1169e-07,9.1106,7.0006e-07,5.26,5.4602e-12,3.3131e-06,-7.0007e-07,-5.2601,0.57351
11797,10.667,5.1818,0,0.00031925,3190.3,0.00010588,6.2678,0.00010504,0.0020689,-0.00031914,-3187.1,0.57486
11798,10.575,5.2727,0,0.00032184,3216.1,0.00010668,5.6719,0.00010592,0.0011556,-0.00032174,-3213.3,0.56539
11799,10.667,5.2727,0.05,9.1467e-07,9.1403,7.0235e-07,5.2771,5.4522e-12,2.4513e-06,-7.0235e-07,-5.2772,0.57441
11800,10.667,5,0,0.00031916,3189.4,0.00010577,5.3265,0.00010506,0.0034674,-0.00031907,-3186.7,0.57566
11801,10.575,5.0909,0,0.00032172,3215,0.00010655,4.5932,0.00010594,0.0025007,-0.00032164,-3212.7,0.56623
11802,10.667,5.0909,0.05,9.1422e-07,9.1359,7.02e-07,5.2745,5.4395e-12,2.8864e-06,-7.0201e-07,-5.2747,0.57524
11803,10.667,4.8182,0,0.00031907,3188.5,0.00010565,4.2702,0.00010508,0.0044388,-0.00031899,-3186.3,0.57639
11804,10.575,4.9091,0,0.00032161,3213.9,0.00010642,3.419,0.00010596,0.0034097,-0.00032155,-3212.2,0.567
11805,10.667,4.9091,0.05,9.1318e-07,9.1255,7.012e-07,5.2685,5.4223e-12,2.8864e-06,-7.0121e-07,-5.2686,0.57601
11806,10.667,4.6364,0,0.00031897,3187.5,0.00010552,3.1218,0.00010511,0.0050877,-0.00031892,-3186,0.57705
11807,10.575,4.7273,0,0.0003215,3212.8,0.00010628,2.1664,0.00010599,0.0039539,-0.00032146,-3211.7,0.56769
11808,10.667,4.7273,0.05,9.1178e-07,9.1115,7.0013e-07,5.2605,4.4991e-12,2.85e-06,-7.0014e-07,-5.2606,0.5767
11809,10.667,4.4545,0,0.00031888,3186.6,0.00010539,1.9145,0.00010514,0.0054367,-0.00031885,-3185.6,0.57764
11810,10.575,4.5455,0,0.00032139,3211.7,0.00010613,0.86334,0.00010602,0.0036683,-0.00032138,-3211.3,0.56832
11811,10.667,4.5455,0.05,9.1013e-07,9.0951,6.9886e-07,5.251,6.3126e-12,4.2303e-06,-6.9888e-07,-5.2511,0.57733
11812,10.667,4.2727,0,0.00031879,3185.7,0.00010526,0.68982,0.00010517,0.0054599,-0.00031878,-3185.4,0.57816
11813,10.575,4.3636,0,0.00032129,3210.7,0.00010605,0.0074427,0.00010599,-0.4591,-0.0003213,-3210.9,0.56888
11814,10.667,4.3636,0.05,9.0833e-07,9.0771,6.9748e-07,5.2406,5.3956e-12,3.8751e-06,-6.9749e-07,-5.2407,0.57788
11815,10.667,4.0909,0,0.00031871,3184.9,0.0001052,0.0059299,0.00010513,-0.50649,-0.00031871,-3185.1,0.57861
11816,10.575,4.1818,0,0.00032119,3209.7,0.00010608,0.0058341,0.00010585,-1.7495,-0.00032122,-3210.5,0.56937
11817,10.667,4.1818,0.05,9.0648e-07,9.0585,6.9606e-07,5.2299,6.3094e-12,4.3411e-06,-6.9606e-07,-5.23,0.57837
11818,10.667,3.9091,0,0.00031863,3184.1,0.00010523,0.0056223,0.00010501,-1.6245,-0.00031865,-3184.9,0.57899
11819,10.575,4,0,0.00032109,3208.7,0.00010611,0.0055404,0.00010571,-2.9694,-0.00032115,-3210.2,0.56979
11820,10.667,4,0.05,9.0466e-07,9.0403,6.9466e-07,5.2194,6.3077e-12,4.9004e-06,-6.9467e-07,-5.2195,0.57878
11821,10.667,3.7273,0,0.00031856,3183.4,0.00010525,0.0054134,0.0001049,-2.6171,-0.0003186,-3184.7,0.5793
11822,10.575,3.8182,0,0.00032101,3207.9,0.00010614,0.0053223,0.00010559,-4.072,-0.00032108,-3209.9,0.57014
11823,10.667,3.8182,0.05,9.0297e-07,9.0235,6.9337e-07,5.2096,3.5857e-12,5.65e-06,-6.9337e-07,-5.2098,0.57913
11824,10.667,3.5455,0,0.0003185,3182.8,0.00010528,0.0052131,0.00010482,-3.4405,-0.00031856,-3184.5,0.57954
11825,10.575,3.6364,0,0.00032094,3207.2,0.00010616,0.0051199,0.00010549,-5.014,-0.00032103,-3209.7,0.57041
11826,10.667,3.6364,0.05,9.015e-07,9.0088,6.9224e-07,5.2012,3.5958e-12,6.8738e-06,-6.9225e-07,-5.2013,0.57941
11827,10.667,3.3636,0,0.00031846,3182.4,0.00010529,0.0050447,0.00010475,-4.0574,-0.00031853,-3184.4,0.57971
11828,10.575,3.4545,0,0.00032089,3206.7,0.00010618,0.0049439,0.00010541,-5.7571,-0.00032099,-3209.5,0.57062
11829,10.667,3.4545,0.05,9.0033e-07,8.9971,6.9134e-07,5.1944,4.517e-12,7.1325e-06,-6.9134e-07,-5.1945,0.57961
11830,10.667,3.1818,0,0.00031843,3182.1,0.0001053,0.0049326,0.00010471,-4.4394,-0.00031851,-3184.3,0.57982
11831,10.575,3.2727,0,0.00032085,3206.3,0.00010619,0.0048115,0.00010536,-6.2707,-0.00032096,-3209.4,0.57076
11832,10.667,3.2727,0.05,8.9951e-07,8.9889,6.9071e-07,5.1897,3.6204e-12,6.8432e-06,-6.9072e-07,-5.1898,0.57975
11833,10.667,3,0,0.00031842,3182,0.00010531,0.0048938,0.0001047,-4.5687,-0.0003185,-3184.3,0.57985
11834,10.575,3.0909,0,0.00032083,3206.1,0.0001062,0.004741,0.00010533,-6.5331,-0.00032094,-3209.4,0.57083
11835,10.667,3.0909,0.05,8.9909e-07,8.9847,6.9039e-07,5.1873,3.6324e-12,7.3488e-06,-6.9039e-07,-5.1874,0.57982
11836,10.667,2.8182,0,0.00031843,3182.1,0.0001053,0.0049332,0.00010471,-4.4394,-0.00031851,-3184.3,0.57982
11837,10.575,2.9091,0,0.00032083,3206.1,0.0001062,0.0047416,0.00010533,-6.5331,-0.00032094,-3209.4,0.57083
11838,10.667,2.9091,0.05,8.9909e-07,8.9847,6.9039e-07,5.1873,3.6431e-12,7.9206e-06,-6.9039e-07,-5.1874,0.57982
11839,10.667,2.6364,0,0.00031846,3182.4,0.00010529,0.005045,0.00010475,-4.0574,-0.00031853,-3184.4,0.57971
11840,10.575,2.7273,0,0.00032085,3206.3,0.00010619,0.0048119,0.00010536,-6.2707,-0.00032096,-3209.4,0.57076
11841,10.667,2.7273,0.05,8.9951e-07,8.9889,6.9071e-07,5.1897,3.6514e-12,7.6106e-06,-6.9072e-07,-5.1898,0.57975
11842,10.667,2.4545,0,0.0003185,3182.8,0.00010528,0.0052129,0.00010482,-3.4405,-0.00031856,-3184.5,0.57954
11843,10.575,2.5455,0,0.00032089,3206.7,0.00010618,0.0049437,0.00010541,-5.7571,-0.00032099,-3209.5,0.57062
11844,10.667,2.5455,0.05,9.0033e-07,8.9971,6.9134e-07,5.1944,1.8381e-12,7.2229e-06,-6.9134e-07,-5.1945,0.57961
11845,10.667,2.2727,0,0.00031856,3183.4,0.00010525,0.0054133,0.0001049,-2.6171,-0.0003186,-3184.7,0.5793
11846,10.575,2.3636,0,0.00032094,3207.2,0.00010616,0.0051199,0.00010549,-5.014,-0.00032103,-3209.7,0.57041
11847,10.667,2.3636,0.05,9.015e-07,9.0088,6.9224e-07,5.2012,3.6613e-12,6.8488e-06,-6.9225e-07,-5.2013,0.57941
11848,10.667,2.0909,0,0.00031863,3184.1,0.00010523,0.0056231,0.00010501,-1.6245,-0.00031865,-3184.9,0.57899
11849,10.575,2.1818,0,0.00032101,3207.9,0.00010614,0.0053229,0.00010559,-4.072,-0.00032108,-3209.9,0.57014
11850,10.667,2.1818,0.05,9.0297e-07,9.0235,6.9337e-07,5.2096,3.6634e-12,6.3547e-06,-6.9337e-07,-5.2098,0.57913
11851,10.667,1.9091,0,0.00031871,3184.9,0.0001052,0.0059307,0.00010513,-0.5065,-0.00031871,-3185.1,0.57861
11852,10.575,2,0,0.00032109,3208.7,0.00010611,0.0055414,0.00010571,-2.9694,-0.00032115,-3210.2,0.56979
11853,10.667,2,0.05,9.0466e-07,9.0403,6.9466e-07,5.2194,1.8408e-12,5.8263e-06,-6.9467e-07,-5.2194,0.57878
11854,10.667,1.7273,0,0.00031879,3185.7,0.00010526,0.68982,0.00010517,0.0054601,-0.00031878,-3185.4,0.57816
11855,10.575,1.8182,0,0.00032119,3209.7,0.00010608,0.0058348,0.00010585,-1.7495,-0.00032122,-3210.5,0.56937
11856,10.667,1.8182,0.05,9.0648e-07,9.0585,6.9606e-07,5.2299,1.9336e-14,5.5711e-06,-6.9606e-07,-5.2299,0.57837
11857,10.667,1.5455,0,0.00031888,3186.6,0.00010539,1.9145,0.00010514,0.005437,-0.00031885,-3185.6,0.57764
11858,10.575,1.6364,0,0.00032129,3210.7,0.00010605,0.007443,0.00010599,-0.4591,-0.0003213,-3210.9,0.56888
11859,10.667,1.6364,0.05,9.0833e-07,9.0771,6.9749e-07,5.2406,9.2819e-13,4.8559e-06,-6.9749e-07,-5.2407,0.57788
11860,10.667,1.3636,0,0.00031897,3187.5,0.00010552,3.1218,0.00010511,0.0050883,-0.00031892,-3186,0.57705
11861,10.575,1.4545,0,0.00032139,3211.7,0.00010613,0.86333,0.00010602,0.0036686,-0.00032138,-3211.3,0.56832
11862,10.667,1.4545,0.05,9.1013e-07,9.0951,6.9887e-07,5.251,1.8325e-12,4.4304e-06,-6.9887e-07,-5.2511,0.57733
11863,10.667,1.1818,0,0.00031907,3188.5,0.00010565,4.2702,0.00010508,0.0044397,-0.00031899,-3186.3,0.57639
11864,10.575,1.2727,0,0.0003215,3212.8,0.00010628,2.1664,0.00010599,0.0039545,-0.00032146,-3211.7,0.56769
11865,10.667,1.2727,0.05,9.1178e-07,9.1115,7.0013e-07,5.2605,1.0736e-14,3.8144e-06,-7.0014e-07,-5.2605,0.5767
11866,10.667,1,0,0.00031916,3189.4,0.00010577,5.3265,0.00010506,0.0034683,-0.00031907,-3186.7,0.57566
11867,10.575,1.0909,0,0.00032161,3213.9,0.00010642,3.419,0.00010596,0.0034106,-0.00032155,-3212.2,0.567
11868,10.667,1.0909,0.05,9.1318e-07,9.1255,7.0121e-07,5.2686,9.1871e-13,3.3812e-06,-7.0121e-07,-5.2686,0.57601
11869,10.667,0.81818,0,0.00031925,3190.3,0.00010588,6.2678,0.00010504,0.0020699,-0.00031914,-3187.1,0.57486
11870,10.575,0.90909,0,0.00032172,3215,0.00010655,4.5932,0.00010594,0.0025021,-0.00032164,-3212.7,0.56623
11871,10.667,0.90909,0.05,9.1422e-07,9.1359,7.0201e-07,5.2746,3.0157e-15,3.4055e-06,-7.0201e-07,-5.2746,0.57524
11872,10.667,0.63636,0,0.00031934,3191.2,0.00010597,7.0854,0.00010503,0.00048898,-0.00031922,-3187.7,0.57399
11873,10.575,0.72727,0,0.00032184,3216.1,0.00010668,5.6718,0.00010592,0.0011568,-0.00032174,-3213.3,0.56539
11874,10.667,0.72727,0.05,9.1467e-07,9.1403,7.0235e-07,5.2772,3.4815e-15,3.3003e-06,-7.0235e-07,-5.2772,0.57441
11875,10.667,0.45455,0,0.00031944,3192.2,0.00010607,7.8092,0.00010503,-0.0028051,-0.00031931,-3188.3,0.57306
11876,10.575,0.54545,0,0.00032195,3217.3,0.0001068,6.653,0.00010591,-0.00011861,-0.00032184,-3214,0.56448
11877,10.667,0.54545,0.05,9.1169e-07,9.1106,7.0007e-07,5.26,-1.6586e-15,2.3694e-06,-7.0007e-07,-5.26,0.57351
11878,10.667,0.27273,0,0.00031963,3194.1,0.00010622,8.9343,0.00010503,-0.0040547,-0.00031948,-3189.6,0.57205
11879,10.575,0.36364,0,0.00032209,3218.6,0.00010692,7.5971,0.00010591,-0.0038238,-0.00032196,-3214.8,0.5635
11880,10.667,0.36364,0.05,8.634e-07,8.628,6.6298e-07,4.9814,-1.8188e-12,1.6851e-06,-6.6298e-07,-4.9814,0.57254
11881,10.575,0.18182,0,0.00032238,3221.6,0.00010718,9.4758,0.00010592,-0.0017718,-0.00032222,-3216.8,0.56245
11882,10.667,0.18182,0.05,1.2691e-07,1.2682,9.7453e-08,0.73221,-8.812e-13,1.5845e-06,-9.745e-08,-0.73221,0.5715
11883,10.667,0.090909,0,0.00031931,3190.9,0.00010592,6.5767,0.00010505,-8.5167e-05,-0.0003192,-3187.6,0.57097
11884,10.483,5.7273,0,0.00032482,3246,0.00010787,8.0574,0.00010679,-0.0025669,-0.00032469,-3242,0.55398
11885,10.391,5.8182,0,0.0003276,3273.8,0.00010885,8.8574,0.00010767,-0.0024572,-0.00032745,-3269.3,0.54449
11886,10.483,5.8182,0.05,1.2616e-07,1.2608,9.6873e-08,0.72783,7.2839e-12,2.049e-06,-9.6884e-08,-0.72798,0.55342
11887,10.483,5.9091,0,0.00032455,3243.3,0.00010762,6.233,0.00010679,-0.0001313,-0.00032445,-3240.2,0.55289
11888,10.483,5.5455,0,0.00032459,3243.7,0.00010765,6.4175,0.0001068,-0.0012098,-0.00032448,-3240.5,0.555
11889,10.391,5.6364,0,0.00032726,3270.4,0.00010854,6.4569,0.00010768,-0.00090196,-0.00032715,-3267.1,0.54555
11890,10.483,5.6364,0.05,8.6446e-07,8.6386,6.6379e-07,4.9874,5.4562e-12,2.2285e-06,-6.638e-07,-4.9876,0.55448
11891,10.483,5.3636,0,0.00032444,3242.2,0.0001075,5.2198,0.00010681,0.00048803,-0.00032436,-3239.6,0.55595
11892,10.391,5.4545,0,0.00032708,3268.6,0.00010836,5.0197,0.00010769,0.00019994,-0.000327,-3266.1,0.54654
11893,10.483,5.4545,0.05,9.1307e-07,9.1244,7.0112e-07,5.2679,5.4496e-12,3.0193e-06,-7.0113e-07,-5.2681,0.55546
11894,10.483,5.1818,0,0.00032431,3240.8,0.00010735,3.979,0.00010682,0.0014134,-0.00032424,-3238.8,0.55683
11895,10.391,5.2727,0,0.00032692,3267,0.00010818,3.591,0.00010771,0.00077938,-0.00032686,-3265.2,0.54746
11896,10.483,5.2727,0.05,9.1637e-07,9.1574,7.0366e-07,5.287,6.3461e-12,2.0855e-06,-7.0367e-07,-5.2871,0.55637
11897,10.483,5,0,0.00032417,3239.5,0.0001072,2.6689,0.00010685,0.0019993,-0.00032413,-3238.2,0.55764
11898,10.391,5.0909,0,0.00032677,3265.4,0.00010801,2.1148,0.00010773,0.00065933,-0.00032673,-3264.3,0.54831
11899,10.483,5.0909,0.05,9.1633e-07,9.157,7.0362e-07,5.2867,6.3379e-12,2.3433e-06,-7.0363e-07,-5.2869,0.55722
11900,10.483,4.8182,0,0.00032404,3238.2,0.00010704,1.3002,0.00010687,0.0015307,-0.00032402,-3237.6,0.55837
11901,10.391,4.9091,0,0.00032662,3263.9,0.00010783,0.60033,0.00010775,-0.0045164,-0.00032661,-3263.6,0.54909
11902,10.483,4.9091,0.05,9.1575e-07,9.1512,7.0318e-07,5.2834,6.3242e-12,2.4533e-06,-7.0318e-07,-5.2835,0.55799
11903,10.483,4.6364,0,0.00032392,3236.9,0.0001069,0.026147,0.00010688,-0.13129,-0.00032392,-3237,0.55904
11904,10.391,4.7273,0,0.00032647,3262.5,0.00010778,0.0090717,0.00010765,-0.95875,-0.00032649,-3262.9,0.54979
11905,10.483,4.7273,0.05,9.1486e-07,9.1423,7.0249e-07,5.2782,5.4081e-12,2.2376e-06,-7.0251e-07,-5.2784,0.55869
11906,10.483,4.4545,0,0.0003238,3235.7,0.00010693,0.0065404,0.00010673,-1.5262,-0.00032382,-3236.5,0.55964
11907,10.391,4.5455,0,0.00032633,3261.1,0.00010781,0.0062756,0.00010748,-2.5015,-0.00032637,-3262.3,0.55043
11908,10.483,4.5455,0.05,9.1375e-07,9.1312,7.0165e-07,5.2719,3.5783e-12,3.5912e-06,-7.0165e-07,-5.272,0.55932
11909,10.483,4.2727,0,0.00032368,3234.6,0.00010696,0.0057599,0.00010657,-2.911,-0.00032373,-3236,0.56016
11910,10.391,4.3636,0,0.0003262,3259.7,0.00010785,0.0057003,0.00010731,-4.014,-0.00032627,-3261.7,0.55099
11911,10.483,4.3636,0.05,9.125e-07,9.1187,7.0068e-07,5.2646,3.5749e-12,3.2141e-06,-7.0069e-07,-5.2648,0.55989
11912,10.483,4.0909,0,0.00032358,3233.5,0.00010699,0.0054613,0.00010643,-4.2267,-0.00032365,-3235.6,0.56062
11913,10.391,4.1818,0,0.00032608,3258.5,0.00010788,0.0054193,0.00010715,-5.4572,-0.00032617,-3261.2,0.55149
11914,10.483,4.1818,0.05,9.1118e-07,9.1055,6.9967e-07,5.257,4.4902e-12,3.5183e-06,-6.9968e-07,-5.2571,0.56038
11915,10.483,3.9091,0,0.00032348,3232.6,0.00010702,0.0052396,0.00010629,-5.431,-0.00032357,-3235.3,0.56101
11916,10.391,4,0,0.00032597,3257.4,0.00010791,0.0051992,0.000107,-6.7914,-0.00032608,-3260.8,0.55191
11917,10.483,4,0.05,9.0987e-07,9.0924,6.9866e-07,5.2494,5.4021e-12,4.1127e-06,-6.9867e-07,-5.2496,0.5608
11918,10.483,3.7273,0,0.0003234,3231.7,0.00010704,0.0050372,0.00010618,-6.4827,-0.00032351,-3235,0.56132
11919,10.391,3.8182,0,0.00032587,3256.4,0.00010793,0.0049935,0.00010687,-7.9771,-0.000326,-3260.4,0.55226
11920,10.483,3.8182,0.05,9.0864e-07,9.0801,6.9772e-07,5.2424,3.5899e-12,4.9659e-06,-6.9773e-07,-5.2425,0.56115
11921,10.483,3.5455,0,0.00032333,3231.1,0.00010706,0.0048574,0.00010608,-7.3443,-0.00032345,-3234.7,0.56157
11922,10.391,3.6364,0,0.00032579,3255.6,0.00010795,0.0048049,0.00010676,-8.9769,-0.00032594,-3260.1,0.55255
11923,10.483,3.6364,0.05,9.0756e-07,9.0694,6.9689e-07,5.2361,3.5958e-12,6.0631e-06,-6.969e-07,-5.2363,0.56143
11924,10.483,3.3636,0,0.00032328,3230.6,0.00010708,0.0047132,0.00010601,-7.9842,-0.00032341,-3234.5,0.56174
11925,10.391,3.4545,0,0.00032572,3255,0.00010797,0.004646,0.00010667,-9.7582,-0.00032589,-3259.8,0.55276
11926,10.483,3.4545,0.05,9.067e-07,9.0607,6.9623e-07,5.2312,3.6093e-12,6.2849e-06,-6.9624e-07,-5.2313,0.56164
11927,10.483,3.1818,0,0.00032325,3230.3,0.00010709,0.0046192,0.00010597,-8.3782,-0.00032339,-3234.4,0.56185
11928,10.391,3.2727,0,0.00032568,3254.6,0.00010798,0.0045295,0.00010661,-10.295,-0.00032585,-3259.7,0.5529
11929,10.483,3.2727,0.05,9.061e-07,9.0547,6.9576e-07,5.2277,3.6213e-12,5.8948e-06,-6.9577e-07,-5.2278,0.56178
11930,10.483,3,0,0.00032324,3230.2,0.00010709,0.0045868,0.00010596,-8.5112,-0.00032338,-3234.4,0.56188
11931,10.391,3.0909,0,0.00032566,3254.3,0.00010799,0.0044681,0.00010658,-10.567,-0.00032584,-3259.6,0.55297
11932,10.483,3.0909,0.05,9.0578e-07,9.0516,6.9553e-07,5.2259,3.6327e-12,6.3973e-06,-6.9553e-07,-5.226,0.56185
11933,10.483,2.8182,0,0.00032325,3230.3,0.00010709,0.0046195,0.00010597,-8.3782,-0.00032339,-3234.4,0.56185
11934,10.391,2.9091,0,0.00032566,3254.3,0.00010799,0.0044684,0.00010658,-10.567,-0.00032584,-3259.6,0.55297
11935,10.483,2.9091,0.05,9.0578e-07,9.0516,6.9553e-07,5.2259,3.6429e-12,7.0104e-06,-6.9553e-07,-5.226,0.56185
11936,10.483,2.6364,0,0.00032328,3230.6,0.00010708,0.0047132,0.00010601,-7.9842,-0.00032341,-3234.5,0.56174
11937,10.391,2.7273,0,0.00032568,3254.6,0.00010798,0.0045299,0.00010661,-10.295,-0.00032585,-3259.7,0.5529
11938,10.483,2.7273,0.05,9.0609e-07,9.0547,6.9576e-07,5.2277,2.7414e-12,6.8931e-06,-6.9577e-07,-5.2278,0.56178
11939,10.483,2.4545,0,0.00032333,3231.1,0.00010706,0.0048573,0.00010608,-7.3444,-0.00032345,-3234.7,0.56157
11940,10.391,2.5455,0,0.00032572,3255,0.00010797,0.004646,0.00010667,-9.7582,-0.00032589,-3259.8,0.55276
11941,10.483,2.5455,0.05,9.067e-07,9.0607,6.9623e-07,5.2312,2.7474e-12,6.5242e-06,-6.9624e-07,-5.2313,0.56164
11942,10.483,2.2727,0,0.0003234,3231.7,0.00010704,0.0050379,0.00010618,-6.4827,-0.00032351,-3235,0.56132
11943,10.391,2.3636,0,0.00032579,3255.6,0.00010795,0.004805,0.00010676,-8.9769,-0.00032594,-3260.1,0.55255
11944,10.483,2.3636,0.05,9.0756e-07,9.0694,6.9689e-07,5.2362,3.6597e-12,6.3131e-06,-6.969e-07,-5.2363,0.56143
11945,10.483,2.0909,0,0.00032348,3232.6,0.00010702,0.0052404,0.00010629,-5.431,-0.00032357,-3235.3,0.56101
11946,10.391,2.1818,0,0.00032587,3256.4,0.00010793,0.0049941,0.00010687,-7.9771,-0.000326,-3260.4,0.55226
11947,10.483,2.1818,0.05,9.0864e-07,9.0801,6.9772e-07,5.2424,1.8448e-12,5.7935e-06,-6.9773e-07,-5.2424,0.56115
11948,10.483,1.9091,0,0.00032358,3233.5,0.00010699,0.0054621,0.00010643,-4.2267,-0.00032365,-3235.6,0.56062
11949,10.391,2,0,0.00032597,3257.4,0.00010791,0.0051996,0.000107,-6.7914,-0.00032608,-3260.8,0.55191
11950,10.483,2,0.05,9.0987e-07,9.0924,6.9866e-07,5.2495,1.8439e-12,5.2986e-06,-6.9867e-07,-5.2495,0.5608
11951,10.483,1.7273,0,0.00032368,3234.6,0.00010696,0.0057607,0.00010657,-2.911,-0.00032373,-3236,0.56016
11952,10.391,1.8182,0,0.00032608,3258.5,0.00010788,0.0054199,0.00010715,-5.4572,-0.00032617,-3261.2,0.55149
11953,10.483,1.8182,0.05,9.1118e-07,9.1055,6.9967e-07,5.2571,9.2936e-13,4.9231e-06,-6.9967e-07,-5.2571,0.56038
11954,10.483,1.5455,0,0.0003238,3235.7,0.00010693,0.0065405,0.00010673,-1.5262,-0.00032382,-3236.5,0.55964
11955,10.391,1.6364,0,0.0003262,3259.7,0.00010785,0.0057009,0.00010731,-4.014,-0.00032627,-3261.7,0.55099
11956,10.483,1.6364,0.05,9.125e-07,9.1187,7.0069e-07,5.2647,2.45e-14,4.5463e-06,-7.0069e-07,-5.2647,0.55989
11957,10.483,1.3636,0,0.00032392,3236.9,0.0001069,0.026145,0.00010688,-0.1313,-0.00032392,-3237,0.55904
11958,10.391,1.4545,0,0.00032633,3261.1,0.00010781,0.0062755,0.00010748,-2.5015,-0.00032637,-3262.3,0.55043
11959,10.483,1.4545,0.05,9.1376e-07,9.1312,7.0165e-07,5.2719,1.8342e-12,4.0326e-06,-7.0165e-07,-5.272,0.55932
11960,10.483,1.1818,0,0.00032404,3238.2,0.00010704,1.3002,0.00010687,0.0015313,-0.00032402,-3237.6,0.55837
11961,10.391,1.2727,0,0.00032647,3262.5,0.00010778,0.0090723,0.00010765,-0.95876,-0.00032649,-3262.9,0.54979
11962,10.483,1.2727,0.05,9.1486e-07,9.1423,7.025e-07,5.2783,9.2291e-13,3.6154e-06,-7.025e-07,-5.2783,0.55869
11963,10.483,1,0,0.00032417,3239.5,0.0001072,2.6689,0.00010685,0.0020006,-0.00032413,-3238.2,0.55764
11964,10.391,1.0909,0,0.00032662,3263.9,0.00010783,0.60032,0.00010775,-0.004516,-0.00032661,-3263.6,0.54909
11965,10.483,1.0909,0.05,9.1575e-07,9.1512,7.0318e-07,5.2834,8.1248e-15,3.1014e-06,-7.0318e-07,-5.2834,0.55799
11966,10.483,0.81818,0,0.00032431,3240.8,0.00010735,3.979,0.00010682,0.0014148,-0.00032424,-3238.8,0.55683
11967,10.391,0.90909,0,0.00032677,3265.4,0.00010801,2.1148,0.00010773,0.00066074,-0.00032673,-3264.3,0.54831
11968,10.483,0.90909,0.05,9.1633e-07,9.157,7.0363e-07,5.2868,5.179e-15,2.8743e-06,-7.0363e-07,-5.2868,0.55722
11969,10.483,0.63636,0,0.00032444,3242.2,0.0001075,5.2198,0.00010681,0.00048851,-0.00032436,-3239.6,0.55595
11970,10.391,0.72727,0,0.00032692,3267,0.00010818,3.591,0.00010771,0.00078051,-0.00032686,-3265.2,0.54746
11971,10.483,0.72727,0.05,9.1637e-07,9.1574,7.0366e-07,5.287,-1.4926e-22,2.3562e-06,-7.0366e-07,-5.287,0.55637
11972,10.483,0.45455,0,0.00032459,3243.7,0.00010765,6.4175,0.0001068,-0.0012095,-0.00032448,-3240.5,0.555
11973,10.391,0.54545,0,0.00032708,3268.6,0.00010836,5.0197,0.00010769,0.00020037,-0.000327,-3266.1,0.54654
11974,10.483,0.54545,0.05,9.1307e-07,9.1244,7.0113e-07,5.268,-1.4872e-22,1.8966e-06,-7.0113e-07,-5.268,0.55546
11975,10.483,0.27273,0,0.00032482,3246,0.00010787,8.0574,0.00010679,-0.0025665,-0.00032469,-3242,0.55398
11976,10.391,0.36364,0,0.00032726,3270.4,0.00010854,6.4569,0.00010768,-0.00090144,-0.00032715,-3267.1,0.54555
11977,10.483,0.36364,0.05,8.6446e-07,8.6386,6.638e-07,4.9875,-9.0876e-13,1.9968e-06,-6.638e-07,-4.9875,0.55448
11978,10.391,0.18182,0,0.0003276,3273.8,0.00010885,8.8574,0.00010767,-0.0024565,-0.00032745,-3269.3,0.54449
11979,10.483,0.18182,0.05,1.2616e-07,1.2608,9.6878e-08,0.72792,-9.0848e-13,1.8542e-06,-9.6878e-08,-0.72789,0.55342
11980,10.483,0.090909,0,0.00032455,3243.3,0.00010762,6.233,0.00010679,-0.00013081,-0.00032445,-3240.2,0.55289
11981,10.299,5.7273,0,0.00033003,3298,0.00010951,7.1765,0.00010855,-0.001253,-0.0003299,-3294.4,0.53613
11982,10.207,5.8182,0,0.00033283,3326,0.00011052,8.223,0.00010943,-0.0035311,-0.00033269,-3321.9,0.52674
11983,10.299,5.8182,0.05,1.2801e-07,1.2792,9.8293e-08,0.7385,5.4124e-12,1.0044e-06,-9.83e-08,-0.73862,0.53556
11984,10.299,5.9091,0,0.0003298,3295.8,0.00010933,5.879,0.00010854,-0.00024559,-0.0003297,-3292.8,0.53503
11985,10.299,5.5455,0,0.00032975,3295.2,0.00010924,5.0361,0.00010857,0.0004802,-0.00032966,-3292.7,0.53716
11986,10.207,5.6364,0,0.00033245,3322.2,0.00011015,5.3153,0.00010944,0.0019958,-0.00033236,-3319.5,0.52782
11987,10.299,5.6364,0.05,8.6639e-07,8.6579,6.6527e-07,4.9986,7.2559e-12,2.0054e-06,-6.6529e-07,-4.9987,0.53663
11988,10.299,5.3636,0,0.00032956,3293.3,0.00010904,3.3716,0.00010859,0.00038971,-0.0003295,-3291.6,0.53813
11989,10.207,5.4545,0,0.00033223,3320,0.00010992,3.3921,0.00010947,0.00050722,-0.00033217,-3318.3,0.52882
11990,10.299,5.4545,0.05,9.152e-07,9.1456,7.0275e-07,5.2801,6.3473e-12,2.8487e-06,-7.0276e-07,-5.2803,0.53763
11991,10.299,5.1818,0,0.00032938,3291.5,0.00010884,1.7094,0.00010861,-0.00076017,-0.00032935,-3290.7,0.53902
11992,10.207,5.2727,0,0.00033202,3317.9,0.00010969,1.5184,0.00010949,-0.001208,-0.00033199,-3317.2,0.52975
11993,10.299,5.2727,0.05,9.1875e-07,9.1812,7.0548e-07,5.3007,5.4269e-12,1.8463e-06,-7.055e-07,-5.3009,0.53856
11994,10.299,5,0,0.00032921,3289.8,0.00010865,0.092373,0.00010863,-0.069047,-0.00032921,-3289.8,0.53983
11995,10.207,5.0909,0,0.00033182,3316,0.00010952,0.021497,0.00010947,-0.38448,-0.00033183,-3316.1,0.53061
11996,10.299,5.0909,0.05,9.1903e-07,9.184,7.057e-07,5.3023,6.3186e-12,2.108e-06,-7.0571e-07,-5.3025,0.53941
11997,10.299,4.8182,0,0.00032904,3288.1,0.00010867,0.0077754,0.00010844,-1.6795,-0.00032907,-3289,0.54058
11998,10.207,4.9091,0,0.00033164,3314.1,0.00010955,0.0071291,0.00010925,-2.2465,-0.00033167,-3315.2,0.5314
11999,10.299,4.9091,0.05,9.1882e-07,9.1818,7.0553e-07,5.3011,6.317e-12,2.254e-06,-7.0555e-07,-5.3012,0.54019
12000,10.299,4.6364,0,0.00032888,3286.5,0.0001087,0.006125,0.00010825,-3.3613,-0.00032894,-3288.2,0.54126
12001,10.207,4.7273,0,0.00033146,3312.3,0.00010958,0.0059566,0.00010904,-4.0998,-0.00033153,-3314.3,0.53212
12002,10.299,4.7273,0.05,9.1834e-07,9.177,7.0517e-07,5.2983,6.307e-12,1.9745e-06,-7.0517e-07,-5.2984,0.5409
12003,10.299,4.4545,0,0.00032873,3285.1,0.00010873,0.0056386,0.00010806,-5.0043,-0.00032882,-3287.5,0.54186
12004,10.207,4.5455,0,0.00033129,3310.6,0.00010962,0.0055551,0.00010883,-5.9069,-0.00033139,-3313.5,0.53276
12005,10.299,4.5455,0.05,9.1766e-07,9.1703,7.0464e-07,5.2944,4.4808e-12,3.1337e-06,-7.0465e-07,-5.2945,0.54154
12006,10.299,4.2727,0,0.00032859,3283.7,0.00010876,0.0053711,0.00010789,-6.5746,-0.0003287,-3286.9,0.54239
12007,10.207,4.3636,0,0.00033113,3309,0.00010965,0.0053103,0.00010863,-7.6368,-0.00033126,-3312.8,0.53333
12008,10.299,4.3636,0.05,9.1684e-07,9.1621,7.0401e-07,5.2897,5.3903e-12,2.9252e-06,-7.0403e-07,-5.2898,0.54211
12009,10.299,4.0909,0,0.00032846,3282.4,0.00010879,0.0051557,0.00010772,-8.0359,-0.0003286,-3286.4,0.54285
12010,10.207,4.1818,0,0.00033098,3307.6,0.00010968,0.0051024,0.00010845,-9.2559,-0.00033114,-3312.2,0.53383
12011,10.299,4.1818,0.05,9.1595e-07,9.1531,7.0333e-07,5.2845,4.4797e-12,3.13e-06,-7.0334e-07,-5.2846,0.54261
12012,10.299,3.9091,0,0.00032835,3281.3,0.00010882,0.0049528,0.00010757,-9.3512,-0.00032851,-3285.9,0.54324
12013,10.207,4,0,0.00033085,3306.3,0.00010971,0.0049008,0.00010828,-10.729,-0.00033104,-3311.6,0.53426
12014,10.299,4,0.05,9.1503e-07,9.144,7.0263e-07,5.2793,4.4896e-12,3.7902e-06,-7.0264e-07,-5.2794,0.54303
12015,10.299,3.7273,0,0.00032826,3280.3,0.00010884,0.0047618,0.00010745,-10.485,-0.00032843,-3285.5,0.54356
12016,10.207,3.8182,0,0.00033074,3305.1,0.00010974,0.0047044,0.00010814,-12.021,-0.00033094,-3311.1,0.53461
12017,10.299,3.8182,0.05,9.1417e-07,9.1354,7.0196e-07,5.2742,3.5889e-12,4.4592e-06,-7.0197e-07,-5.2744,0.54339
12018,10.299,3.5455,0,0.00032818,3279.5,0.00010886,0.004594,0.00010735,-11.404,-0.00032837,-3285.2,0.54381
12019,10.207,3.6364,0,0.00033065,3304.2,0.00010976,0.0045249,0.00010802,-13.099,-0.00033087,-3310.7,0.5349
12020,10.299,3.6364,0.05,9.134e-07,9.1277,7.0138e-07,5.2698,3.5987e-12,5.5523e-06,-7.0138e-07,-5.2699,0.54367
12021,10.299,3.3636,0,0.00032812,3279,0.00010888,0.0044621,0.00010727,-12.082,-0.00032833,-3285,0.54399
12022,10.207,3.4545,0,0.00033058,3303.5,0.00010978,0.0043759,0.00010792,-13.935,-0.00033081,-3310.4,0.53511
12023,10.299,3.4545,0.05,9.1278e-07,9.1215,7.009e-07,5.2662,4.5193e-12,5.5064e-06,-7.009e-07,-5.2663,0.54388
12024,10.299,3.1818,0,0.00032809,3278.6,0.00010889,0.0043776,0.00010722,-12.497,-0.0003283,-3284.8,0.54409
12025,10.207,3.2727,0,0.00033053,3303,0.00010979,0.0042683,0.00010786,-14.506,-0.00033077,-3310.2,0.53526
12026,10.299,3.2727,0.05,9.1234e-07,9.1171,7.0056e-07,5.2637,3.6213e-12,5.7177e-06,-7.0057e-07,-5.2638,0.54403
12027,10.299,3,0,0.00032808,3278.5,0.00010889,0.0043485,0.00010721,-12.637,-0.00032829,-3284.8,0.54413
12028,10.207,3.0909,0,0.0003305,3302.7,0.0001098,0.0042117,0.00010783,-14.795,-0.00033075,-3310.1,0.53533
12029,10.299,3.0909,0.05,9.1212e-07,9.1149,7.0039e-07,5.2624,2.7232e-12,6.0401e-06,-7.004e-07,-5.2625,0.5441
12030,10.299,2.8182,0,0.00032809,3278.6,0.00010889,0.0043778,0.00010722,-12.497,-0.0003283,-3284.8,0.54409
12031,10.207,2.9091,0,0.0003305,3302.7,0.0001098,0.004212,0.00010783,-14.795,-0.00033075,-3310.1,0.53533
12032,10.299,2.9091,0.05,9.1212e-07,9.1149,7.0039e-07,5.2624,1.8239e-12,6.5933e-06,-7.0039e-07,-5.2625,0.5441
12033,10.299,2.6364,0,0.00032812,3279,0.00010888,0.0044624,0.00010727,-12.082,-0.00032833,-3285,0.54399
12034,10.207,2.7273,0,0.00033053,3303,0.00010979,0.0042686,0.00010786,-14.506,-0.00033077,-3310.2,0.53526
12035,10.299,2.7273,0.05,9.1234e-07,9.1171,7.0056e-07,5.2637,2.7417e-12,6.4212e-06,-7.0057e-07,-5.2638,0.54403
12036,10.299,2.4545,0,0.00032818,3279.5,0.00010886,0.0045941,0.00010735,-11.404,-0.00032837,-3285.2,0.54381
12037,10.207,2.5455,0,0.00033058,3303.5,0.00010978,0.0043761,0.00010792,-13.935,-0.00033081,-3310.4,0.53511
12038,10.299,2.5455,0.05,9.1278e-07,9.1215,7.009e-07,5.2663,2.7474e-12,5.9928e-06,-7.009e-07,-5.2663,0.54388
12039,10.299,2.2727,0,0.00032826,3280.3,0.00010884,0.0047618,0.00010745,-10.485,-0.00032843,-3285.5,0.54356
12040,10.207,2.3636,0,0.00033065,3304.2,0.00010976,0.0045247,0.00010802,-13.099,-0.00033087,-3310.7,0.5349
12041,10.299,2.3636,0.05,9.134e-07,9.1277,7.0138e-07,5.2699,2.7554e-12,6.0289e-06,-7.0138e-07,-5.2699,0.54367
12042,10.299,2.0909,0,0.00032835,3281.3,0.00010882,0.0049529,0.00010757,-9.3513,-0.00032851,-3285.9,0.54324
12043,10.207,2.1818,0,0.00033074,3305.1,0.00010974,0.0047045,0.00010814,-12.021,-0.00033094,-3311.1,0.53461
12044,10.299,2.1818,0.05,9.1417e-07,9.1354,7.0197e-07,5.2743,2.7559e-12,5.4053e-06,-7.0197e-07,-5.2743,0.54339
12045,10.299,1.9091,0,0.00032846,3282.4,0.00010879,0.0051557,0.00010772,-8.0359,-0.0003286,-3286.4,0.54285
12046,10.207,2,0,0.00033085,3306.3,0.00010971,0.0049012,0.00010828,-10.729,-0.00033104,-3311.6,0.53426
12047,10.299,2,0.05,9.1504e-07,9.144,7.0263e-07,5.2793,1.8462e-12,4.9567e-06,-7.0264e-07,-5.2794,0.54303
12048,10.299,1.7273,0,0.00032859,3283.7,0.00010876,0.0053715,0.00010789,-6.5746,-0.0003287,-3286.9,0.54239
12049,10.207,1.8182,0,0.00033098,3307.6,0.00010968,0.0051027,0.00010845,-9.2559,-0.00033114,-3312.2,0.53383
12050,10.299,1.8182,0.05,9.1595e-07,9.1531,7.0333e-07,5.2845,1.8461e-12,4.7245e-06,-7.0334e-07,-5.2846,0.54261
12051,10.299,1.5455,0,0.00032873,3285.1,0.00010873,0.005639,0.00010806,-5.0043,-0.00032882,-3287.5,0.54186
12052,10.207,1.6364,0,0.00033113,3309,0.00010965,0.0053109,0.00010863,-7.6368,-0.00033126,-3312.8,0.53333
12053,10.299,1.6364,0.05,9.1684e-07,9.1621,7.0402e-07,5.2897,1.8454e-12,4.1912e-06,-7.0402e-07,-5.2897,0.54211
12054,10.299,1.3636,0,0.00032888,3286.5,0.0001087,0.0061253,0.00010825,-3.3613,-0.00032894,-3288.2,0.54126
12055,10.207,1.4545,0,0.00033129,3310.6,0.00010962,0.0055552,0.00010883,-5.9069,-0.00033139,-3313.5,0.53276
12056,10.299,1.4545,0.05,9.1766e-07,9.1703,7.0465e-07,5.2945,1.835e-12,3.7869e-06,-7.0465e-07,-5.2945,0.54154
12057,10.299,1.1818,0,0.00032904,3288.1,0.00010867,0.007776,0.00010844,-1.6796,-0.00032907,-3289,0.54058
12058,10.207,1.2727,0,0.00033146,3312.3,0.00010958,0.0059572,0.00010904,-4.0999,-0.00033153,-3314.3,0.53212
12059,10.299,1.2727,0.05,9.1834e-07,9.177,7.0517e-07,5.2984,1.8359e-12,3.4433e-06,-7.0517e-07,-5.2984,0.5409
12060,10.299,1,0,0.00032921,3289.8,0.00010865,0.092367,0.00010863,-0.069053,-0.00032921,-3289.8,0.53983
12061,10.207,1.0909,0,0.00033164,3314.1,0.00010955,0.0071297,0.00010925,-2.2466,-0.00033167,-3315.2,0.5314
12062,10.299,1.0909,0.05,9.1882e-07,9.1818,7.0554e-07,5.3011,1.8349e-12,3.0487e-06,-7.0554e-07,-5.3011,0.54019
12063,10.299,0.81818,0,0.00032938,3291.5,0.00010884,1.7094,0.00010861,-0.00075905,-0.00032935,-3290.7,0.53902
12064,10.207,0.90909,0,0.00033182,3316,0.00010952,0.021498,0.00010947,-0.38449,-0.00033183,-3316.1,0.53061
12065,10.299,0.90909,0.05,9.1903e-07,9.184,7.057e-07,5.3024,1.497e-14,2.5823e-06,-7.057e-07,-5.3024,0.53941
12066,10.299,0.63636,0,0.00032956,3293.3,0.00010904,3.3716,0.00010859,0.00039078,-0.0003295,-3291.6,0.53813
12067,10.207,0.72727,0,0.00033202,3317.9,0.00010969,1.5183,0.00010949,-0.0012065,-0.00033199,-3317.2,0.52975
12068,10.299,0.72727,0.05,9.1875e-07,9.1812,7.0549e-07,5.3008,1.3001e-14,2.3029e-06,-7.0549e-07,-5.3008,0.53856
12069,10.299,0.45455,0,0.00032975,3295.2,0.00010924,5.0361,0.00010857,0.00048087,-0.00032966,-3292.7,0.53716
12070,10.207,0.54545,0,0.00033222,3320,0.00010992,3.3921,0.00010947,0.00050768,-0.00033217,-3318.3,0.52882
12071,10.299,0.54545,0.05,9.152e-07,9.1456,7.0276e-07,5.2802,-1.4907e-22,1.922e-06,-7.0276e-07,-5.2802,0.53763
12072,10.299,0.27273,0,0.00033003,3298,0.00010951,7.1765,0.00010855,-0.0012522,-0.0003299,-3294.4,0.53613
12073,10.207,0.36364,0,0.00033245,3322.2,0.00011015,5.3153,0.00010944,0.0019966,-0.00033236,-3319.5,0.52782
12074,10.299,0.36364,0.05,8.6639e-07,8.6579,6.6528e-07,4.9987,-9.0941e-13,1.6716e-06,-6.6528e-07,-4.9986,0.53663
12075,10.207,0.18182,0,0.00033283,3326,0.00011052,8.223,0.00010943,-0.0035297,-0.00033269,-3321.9,0.52674
12076,10.299,0.18182,0.05,1.2801e-07,1.2792,9.8295e-08,0.73859,-9.0747e-13,1.92e-06,-9.8298e-08,-0.73853,0.53556
12077,10.299,0.090909,0,0.0003298,3295.8,0.00010933,5.879,0.00010854,-0.00024486,-0.0003297,-3292.8,0.53503
12078,10.115,5.7273,0,0.00033524,3350.1,0.00011115,6.2823,0.00011032,-0.00026718,-0.00033513,-3346.9,0.5185
12079,10.023,5.8182,0,0.00033807,3378.4,0.0001122,7.5678,0.00011119,-0.0051222,-0.00033794,-3374.6,0.50922
12080,10.115,5.8182,0.05,1.3223e-07,1.3214,1.0153e-07,0.76281,6.0959e-12,-1.2071e-06,-1.0154e-07,-0.76299,0.51793
12081,10.115,5.9091,0,0.00033506,3348.3,0.00011103,5.5119,0.0001103,-0.00058338,-0.00033497,-3345.6,0.51739
12082,10.115,5.5455,0,0.00033492,3346.9,0.00011083,3.6485,0.00011034,0.0021775,-0.00033486,-3345.1,0.51955
12083,10.023,5.6364,0,0.00033765,3374.1,0.00011177,4.16,0.00011122,0.0048464,-0.00033758,-3372,0.51031
12084,10.115,5.6364,0.05,8.6906e-07,8.6846,6.6732e-07,5.014,7.2437e-12,1.6935e-06,-6.6733e-07,-5.0141,0.51901
12085,10.115,5.3636,0,0.00033468,3344.5,0.00011057,1.5196,0.00011037,-0.00086252,-0.00033466,-3343.8,0.52052
12086,10.023,5.4545,0,0.00033738,3371.5,0.00011148,1.7519,0.00011125,0.00044458,-0.00033735,-3370.6,0.51133
12087,10.115,5.4545,0.05,9.1794e-07,9.173,7.0485e-07,5.296,6.3321e-12,2.3711e-06,-7.0487e-07,-5.2961,0.52002
12088,10.115,5.1818,0,0.00033446,3342.3,0.0001104,0.015256,0.00011032,-0.58746,-0.00033447,-3342.6,0.52142
12089,10.023,5.2727,0,0.00033713,3369,0.00011128,0.013712,0.0001112,-0.58786,-0.00033714,-3369.3,0.51227
12090,10.115,5.2727,0.05,9.217e-07,9.2107,7.0775e-07,5.3177,4.5023e-12,1.3426e-06,-7.0776e-07,-5.3179,0.52096
12091,10.115,5,0,0.00033425,3340.2,0.00011044,0.0067316,0.00011008,-2.6492,-0.0003343,-3341.5,0.52225
12092,10.023,5.0909,0,0.0003369,3366.6,0.00011132,0.006374,0.00011094,-2.8729,-0.00033695,-3368.1,0.51314
12093,10.115,5.0909,0.05,9.2224e-07,9.216,7.0816e-07,5.3208,5.401e-12,1.5601e-06,-7.0817e-07,-5.3209,0.52182
12094,10.115,4.8182,0,0.00033405,3338.2,0.00011047,0.0058154,0.00010985,-4.6832,-0.00033413,-3340.5,0.52301
12095,10.023,4.9091,0,0.00033667,3364.4,0.00011136,0.0056791,0.00011067,-5.1183,-0.00033676,-3367,0.51394
12096,10.115,4.9091,0.05,9.2232e-07,9.2168,7.0822e-07,5.3213,3.5819e-12,1.3603e-06,-7.0823e-07,-5.3214,0.52262
12097,10.115,4.6364,0,0.00033386,3336.3,0.0001105,0.0054682,0.00010962,-6.6606,-0.00033397,-3339.6,0.52369
12098,10.023,4.7273,0,0.00033646,3362.3,0.00011139,0.0053886,0.00011042,-7.2983,-0.00033658,-3365.9,0.51466
12099,10.115,4.7273,0.05,9.2217e-07,9.2153,7.081e-07,5.3204,3.5806e-12,1.4252e-06,-7.0811e-07,-5.3205,0.52333
12100,10.115,4.4545,0,0.00033368,3334.5,0.00011054,0.0052457,0.0001094,-8.5539,-0.00033383,-3338.8,0.5243
12101,10.023,4.5455,0,0.00033626,3360.3,0.00011143,0.0051928,0.00011018,-9.3874,-0.00033642,-3365,0.51531
12102,10.115,4.5455,0.05,9.2183e-07,9.2119,7.0784e-07,5.3184,5.3905e-12,2.4133e-06,-7.0785e-07,-5.3186,0.52398
12103,10.115,4.2727,0,0.00033352,3332.9,0.00011057,0.0050465,0.0001092,-10.332,-0.00033369,-3338,0.52484
12104,10.023,4.3636,0,0.00033608,3358.4,0.00011147,0.0050017,0.00010996,-11.357,-0.00033627,-3364.1,0.51589
12105,10.115,4.3636,0.05,9.2135e-07,9.2072,7.0748e-07,5.3157,4.4805e-12,2.091e-06,-7.0749e-07,-5.3158,0.52456
12106,10.115,4.0909,0,0.00033337,3331.4,0.00011061,0.004849,0.00010901,-11.963,-0.00033357,-3337.4,0.52531
12107,10.023,4.1818,0,0.00033591,3356.8,0.0001115,0.004806,0.00010975,-13.175,-0.00033613,-3363.3,0.51639
12108,10.115,4.1818,0.05,9.208e-07,9.2016,7.0705e-07,5.3125,3.5727e-12,2.2662e-06,-7.0706e-07,-5.3126,0.52506
12109,10.115,3.9091,0,0.00033324,3330.1,0.00011063,0.004653,0.00010885,-13.412,-0.00033347,-3336.8,0.5257
12110,10.023,4,0,0.00033576,3355.3,0.00011153,0.0046056,0.00010956,-14.809,-0.00033601,-3362.6,0.51683
12111,10.115,4,0.05,9.202e-07,9.1957,7.066e-07,5.3091,4.4865e-12,2.536e-06,-7.0661e-07,-5.3092,0.52549
12112,10.115,3.7273,0,0.00033313,3329,0.00011066,0.0044677,0.00010871,-14.648,-0.00033338,-3336.3,0.52603
12113,10.023,3.8182,0,0.00033563,3354,0.00011156,0.0044105,0.0001094,-16.229,-0.0003359,-3362.1,0.51719
12114,10.115,3.8182,0.05,9.1962e-07,9.1899,7.0615e-07,5.3057,3.5825e-12,3.3243e-06,-7.0616e-07,-5.3058,0.52585
12115,10.115,3.5455,0,0.00033304,3328.1,0.00011068,0.0043065,0.0001086,-15.643,-0.00033331,-3335.9,0.52628
12116,10.023,3.6364,0,0.00033552,3352.9,0.00011158,0.0042339,0.00010927,-17.404,-0.00033582,-3361.6,0.51748
12117,10.115,3.6364,0.05,9.191e-07,9.1846,7.0575e-07,5.3027,4.5073e-12,4.8278e-06,-7.0575e-07,-5.3028,0.52614
12118,10.115,3.3636,0,0.00033298,3327.5,0.00011069,0.0041815,0.00010851,-16.371,-0.00033325,-3335.6,0.52646
12119,10.023,3.4545,0,0.00033544,3352.1,0.0001116,0.0040896,0.00010916,-18.309,-0.00033575,-3361.2,0.51769
12120,10.115,3.4545,0.05,9.1867e-07,9.1803,7.0542e-07,5.3002,4.5173e-12,4.9061e-06,-7.0543e-07,-5.3003,0.52635
12121,10.115,3.1818,0,0.00033294,3327.1,0.0001107,0.0041015,0.00010846,-16.816,-0.00033322,-3335.5,0.52656
12122,10.023,3.2727,0,0.00033539,3351.6,0.00011161,0.0039865,0.0001091,-18.925,-0.00033571,-3361,0.51784
12123,10.115,3.2727,0.05,9.1836e-07,9.1773,7.0519e-07,5.2985,2.7115e-12,4.5198e-06,-7.0519e-07,-5.2986,0.5265
12124,10.115,3,0,0.00033293,3327,0.00011071,0.0040742,0.00010845,-16.966,-0.00033321,-3335.4,0.5266
12125,10.023,3.0909,0,0.00033536,3351.3,0.00011162,0.0039321,0.00010906,-19.236,-0.00033568,-3360.9,0.51791
12126,10.115,3.0909,0.05,9.182e-07,9.1757,7.0506e-07,5.2976,2.723e-12,5.0845e-06,-7.0507e-07,-5.2976,0.52657
12127,10.115,2.8182,0,0.00033294,3327.1,0.0001107,0.0041018,0.00010846,-16.816,-0.00033322,-3335.5,0.52656
12128,10.023,2.9091,0,0.00033536,3351.3,0.00011162,0.0039321,0.00010906,-19.236,-0.00033568,-3360.9,0.51791
12129,10.115,2.9091,0.05,9.182e-07,9.1757,7.0507e-07,5.2976,2.7337e-12,5.4035e-06,-7.0507e-07,-5.2976,0.52657
12130,10.115,2.6364,0,0.00033298,3327.5,0.00011069,0.0041816,0.00010851,-16.371,-0.00033325,-3335.6,0.52646
12131,10.023,2.7273,0,0.00033539,3351.6,0.00011161,0.0039865,0.0001091,-18.925,-0.00033571,-3361,0.51784
12132,10.115,2.7273,0.05,9.1836e-07,9.1773,7.0519e-07,5.2985,2.7427e-12,5.7077e-06,-7.0519e-07,-5.2986,0.5265
12133,10.115,2.4545,0,0.00033304,3328.1,0.00011068,0.0043065,0.0001086,-15.643,-0.00033331,-3335.9,0.52628
12134,10.023,2.5455,0,0.00033544,3352.1,0.0001116,0.0040899,0.00010916,-18.309,-0.00033575,-3361.2,0.51769
12135,10.115,2.5455,0.05,9.1867e-07,9.1803,7.0542e-07,5.3003,2.7496e-12,4.9299e-06,-7.0543e-07,-5.3003,0.52635
12136,10.115,2.2727,0,0.00033313,3329,0.00011066,0.0044676,0.00010871,-14.648,-0.00033338,-3336.3,0.52603
12137,10.023,2.3636,0,0.00033552,3352.9,0.00011158,0.0042341,0.00010927,-17.404,-0.00033582,-3361.6,0.51748
12138,10.115,2.3636,0.05,9.191e-07,9.1846,7.0575e-07,5.3027,1.8485e-12,4.8599e-06,-7.0575e-07,-5.3028,0.52614
12139,10.115,2.0909,0,0.00033324,3330.1,0.00011063,0.0046534,0.00010885,-13.412,-0.00033347,-3336.8,0.5257
12140,10.023,2.1818,0,0.00033563,3354,0.00011156,0.0044107,0.0001094,-16.229,-0.0003359,-3362.1,0.51719
12141,10.115,2.1818,0.05,9.1962e-07,9.1899,7.0615e-07,5.3058,9.4096e-13,4.3984e-06,-7.0616e-07,-5.3058,0.52585
12142,10.115,1.9091,0,0.00033337,3331.4,0.00011061,0.0048496,0.00010901,-11.963,-0.00033357,-3337.4,0.52531
12143,10.023,2,0,0.00033576,3355.3,0.00011153,0.0046064,0.00010956,-14.809,-0.00033601,-3362.6,0.51683
12144,10.115,2,0.05,9.202e-07,9.1957,7.0659e-07,5.3091,2.7568e-12,4.0562e-06,-7.0661e-07,-5.3091,0.52549
12145,10.115,1.7273,0,0.00033352,3332.9,0.00011057,0.0050469,0.0001092,-10.332,-0.00033369,-3338,0.52484
12146,10.023,1.8182,0,0.00033591,3356.8,0.0001115,0.0048064,0.00010975,-13.175,-0.00033613,-3363.3,0.51639
12147,10.115,1.8182,0.05,9.208e-07,9.2016,7.0705e-07,5.3125,1.8484e-12,4.0533e-06,-7.0706e-07,-5.3125,0.52506
12148,10.115,1.5455,0,0.00033368,3334.5,0.00011054,0.005246,0.0001094,-8.5539,-0.00033383,-3338.8,0.5243
12149,10.023,1.6364,0,0.00033608,3358.4,0.00011147,0.0050024,0.00010996,-11.357,-0.00033627,-3364.1,0.51589
12150,10.115,1.6364,0.05,9.2135e-07,9.2072,7.0749e-07,5.3158,9.3446e-13,3.4303e-06,-7.0749e-07,-5.3158,0.52456
12151,10.115,1.3636,0,0.00033386,3336.3,0.0001105,0.0054685,0.00010962,-6.6606,-0.00033397,-3339.6,0.52369
12152,10.023,1.4545,0,0.00033626,3360.3,0.00011143,0.005193,0.00011018,-9.3874,-0.00033642,-3365,0.51531
12153,10.115,1.4545,0.05,9.2183e-07,9.2119,7.0785e-07,5.3185,1.8476e-12,3.3018e-06,-7.0785e-07,-5.3185,0.52398
12154,10.115,1.1818,0,0.00033405,3338.2,0.00011047,0.0058159,0.00010985,-4.6832,-0.00033413,-3340.5,0.52301
12155,10.023,1.2727,0,0.00033646,3362.3,0.00011139,0.0053892,0.00011042,-7.2983,-0.00033658,-3365.9,0.51466
12156,10.115,1.2727,0.05,9.2217e-07,9.2153,7.0811e-07,5.3205,3.5005e-14,2.9175e-06,-7.0811e-07,-5.3205,0.52333
12157,10.115,1,0,0.00033425,3340.2,0.00011044,0.0067326,0.00011008,-2.6492,-0.0003343,-3341.5,0.52225
12158,10.023,1.0909,0,0.00033667,3364.4,0.00011136,0.0056798,0.00011067,-5.1183,-0.00033676,-3367,0.51394
12159,10.115,1.0909,0.05,9.2232e-07,9.2168,7.0823e-07,5.3213,9.2974e-13,2.5111e-06,-7.0823e-07,-5.3214,0.52262
12160,10.115,0.81818,0,0.00033446,3342.3,0.0001104,0.015257,0.00011032,-0.58748,-0.00033447,-3342.6,0.52142
12161,10.023,0.90909,0,0.0003369,3366.6,0.00011132,0.0063755,0.00011094,-2.8729,-0.00033695,-3368.1,0.51314
12162,10.115,0.90909,0.05,9.2224e-07,9.216,7.0816e-07,5.3209,1.4892e-14,2.359e-06,-7.0816e-07,-5.3209,0.52182
12163,10.115,0.63636,0,0.00033468,3344.5,0.00011057,1.5196,0.00011037,-0.00086165,-0.00033466,-3343.8,0.52052
12164,10.023,0.72727,0,0.00033713,3369,0.00011128,0.013713,0.0001112,-0.58787,-0.00033714,-3369.3,0.51227
12165,10.115,0.72727,0.05,9.217e-07,9.2107,7.0775e-07,5.3178,1.8603e-14,1.83e-06,-7.0775e-07,-5.3178,0.52096
12166,10.115,0.45455,0,0.00033492,3346.9,0.00011083,3.6485,0.00011034,0.002178,-0.00033486,-3345.1,0.51955
12167,10.023,0.54545,0,0.00033738,3371.5,0.00011148,1.7519,0.00011125,0.00044446,-0.00033735,-3370.6,0.51133
12168,10.115,0.54545,0.05,9.1794e-07,9.173,7.0486e-07,5.2961,-9.0062e-13,1.4059e-06,-7.0486e-07,-5.2961,0.52002
12169,10.115,0.27273,0,0.00033524,3350.1,0.00011115,6.2824,0.00011032,-0.00026579,-0.00033513,-3346.9,0.5185
12170,10.023,0.36364,0,0.00033765,3374.1,0.00011177,4.16,0.00011122,0.0048473,-0.00033758,-3372,0.51031
12171,10.115,0.36364,0.05,8.6906e-07,8.6846,6.6733e-07,5.0141,8.0685e-15,1.4478e-06,-6.6733e-07,-5.014,0.51901
12172,10.023,0.18182,0,0.00033807,3378.4,0.0001122,7.5678,0.00011119,-0.0051209,-0.00033794,-3374.6,0.50922
12173,10.115,0.18182,0.05,1.3223e-07,1.3214,1.0154e-07,0.7629,4.0076e-14,1.2526e-06,-1.0153e-07,-0.7629,0.51793
12174,10.115,0.090909,0,0.00033506,3348.3,0.00011103,5.5119,0.0001103,-0.00058236,-0.00033497,-3345.6,0.51739
12175,9.931,5.7273,0,0.00034046,3402.3,0.0001128,5.3673,0.00011209,0.00028573,-0.00034037,-3399.6,0.5011
12176,9.8391,5.8182,0,0.00034332,3430.9,0.00011387,6.8876,0.00011295,-0.0073823,-0.00034321,-3427.4,0.49193
12177,9.931,5.8182,0.05,1.3865e-07,1.3855,1.0646e-07,0.79985,6.5801e-12,-2.7241e-06,-1.0647e-07,-0.80003,0.50052
12178,9.931,5.9091,0,0.00034034,3401,0.00011274,5.1298,0.00011206,-0.001199,-0.00034025,-3398.5,0.49997
12179,9.931,5.5455,0,0.0003401,3398.7,0.00011242,2.2405,0.00011212,0.0039133,-0.00034006,-3397.6,0.50216
12180,9.8391,5.6364,0,0.00034286,3426.2,0.00011339,2.9799,0.000113,0.0076346,-0.00034281,-3424.7,0.49303
12181,9.931,5.6364,0.05,8.7237e-07,8.7177,6.6987e-07,5.0331,7.2237e-12,1.5032e-06,-6.6988e-07,-5.0332,0.50162
12182,9.931,5.3636,0,0.00033983,3395.9,0.00011216,0.015187,0.00011211,-0.3743,-0.00033983,-3396.1,0.50315
12183,9.8391,5.4545,0,0.00034255,3423.1,0.00011305,0.10342,0.00011303,-0.020961,-0.00034255,-3423.1,0.49406
12184,9.931,5.4545,0.05,9.2122e-07,9.2059,7.0738e-07,5.3149,4.5087e-12,2.3899e-06,-7.0739e-07,-5.3151,0.50264
12185,9.931,5.1818,0,0.00033956,3393.3,0.0001122,0.0061916,0.00011181,-2.892,-0.00033961,-3394.7,0.50406
12186,9.8391,5.2727,0,0.00034226,3420.2,0.00011308,0.006058,0.00011272,-2.7096,-0.00034231,-3421.6,0.49501
12187,9.931,5.2727,0.05,9.2515e-07,9.2452,7.104e-07,5.3376,4.4945e-12,1.3188e-06,-7.1041e-07,-5.3378,0.50359
12188,9.931,5,0,0.00033931,3390.8,0.00011224,0.0055398,0.00011153,-5.3586,-0.00033941,-3393.5,0.5049
12189,9.8391,5.0909,0,0.00034198,3417.5,0.00011312,0.0054156,0.0001124,-5.4255,-0.00034208,-3420.2,0.49589
12190,9.931,5.0909,0.05,9.259e-07,9.2526,7.1097e-07,5.3419,3.5742e-12,1.5726e-06,-7.1098e-07,-5.3421,0.50446
12191,9.931,4.8182,0,0.00033908,3388.4,0.00011228,0.0053205,0.00011125,-7.749,-0.00033921,-3392.3,0.50566
12192,9.8391,4.9091,0,0.00034172,3414.9,0.00011317,0.0052806,0.0001121,-8.0566,-0.00034186,-3418.9,0.4967
12193,9.931,4.9091,0.05,9.2622e-07,9.2558,7.1122e-07,5.3438,4.4823e-12,1.2829e-06,-7.1123e-07,-5.3439,0.50526
12194,9.931,4.6364,0,0.00033886,3386.2,0.00011232,0.0051392,0.00011098,-10.04,-0.00033903,-3391.2,0.50635
12195,9.8391,4.7273,0,0.00034148,3412.4,0.00011321,0.0051099,0.0001118,-10.581,-0.00034166,-3417.7,0.49743
12196,9.931,4.7273,0.05,9.2633e-07,9.2569,7.113e-07,5.3444,5.3731e-12,9.6153e-07,-7.1131e-07,-5.3445,0.50599
12197,9.931,4.4545,0,0.00033865,3384.2,0.00011236,0.0049596,0.00011073,-12.204,-0.00033886,-3390.3,0.50697
12198,9.8391,4.5455,0,0.00034125,3410.1,0.00011325,0.0049386,0.00011153,-12.972,-0.00034147,-3416.6,0.49809
12199,9.931,4.5455,0.05,9.2626e-07,9.2562,7.1125e-07,5.344,3.5583e-12,2.2631e-06,-7.1126e-07,-5.3441,0.50665
12200,9.931,4.2727,0,0.00033846,3382.3,0.0001124,0.0047658,0.0001105,-14.213,-0.0003387,-3389.4,0.50752
12201,9.8391,4.3636,0,0.00034104,3408,0.00011329,0.0047412,0.00011127,-15.203,-0.00034129,-3415.6,0.49868
12202,9.931,4.3636,0.05,9.2606e-07,9.2542,7.111e-07,5.3429,3.5572e-12,1.9405e-06,-7.1111e-07,-5.343,0.50723
12203,9.931,4.0909,0,0.00033829,3380.6,0.00011243,0.0045646,0.0001103,-16.034,-0.00033856,-3388.6,0.50799
12204,9.8391,4.1818,0,0.00034084,3406.1,0.00011333,0.0045333,0.00011104,-17.242,-0.00034113,-3414.7,0.49919
12205,9.931,4.1818,0.05,9.2577e-07,9.2513,7.1087e-07,5.3412,3.5642e-12,2.2052e-06,-7.1088e-07,-5.3413,0.50774
12206,9.931,3.9091,0,0.00033814,3379.1,0.00011246,0.0043638,0.00011011,-17.639,-0.00033844,-3387.9,0.50839
12207,9.8391,4,0,0.00034067,3404.4,0.00011337,0.0043223,0.00011083,-19.06,-0.000341,-3413.9,0.49963
12208,9.931,4,0.05,9.2543e-07,9.2479,7.1061e-07,5.3392,5.3944e-12,2.5864e-06,-7.1062e-07,-5.3393,0.50817
12209,9.931,3.7273,0,0.00033802,3377.9,0.00011249,0.0041766,0.00010996,-18.997,-0.00033834,-3387.3,0.50871
12210,9.8391,3.8182,0,0.00034053,3403,0.0001134,0.0041193,0.00011065,-20.627,-0.00034088,-3413.2,0.49999
12211,9.931,3.8182,0.05,9.2507e-07,9.2444,7.1034e-07,5.3372,3.5813e-12,3.4087e-06,-7.1035e-07,-5.3373,0.50854
12212,9.931,3.5455,0,0.00033792,3376.9,0.00011251,0.0040163,0.00010983,-20.083,-0.00033826,-3386.9,0.50897
12213,9.8391,3.6364,0,0.00034041,3401.8,0.00011342,0.0039395,0.0001105,-21.917,-0.00034078,-3412.7,0.50028
12214,9.931,3.6364,0.05,9.2474e-07,9.241,7.1008e-07,5.3353,3.5947e-12,3.9624e-06,-7.1009e-07,-5.3354,0.50883
12215,9.931,3.3636,0,0.00033785,3376.2,0.00011252,0.0038936,0.00010974,-20.875,-0.0003382,-3386.6,0.50915
12216,9.8391,3.4545,0,0.00034032,3400.9,0.00011344,0.0037943,0.00011039,-22.906,-0.0003407,-3412.3,0.5005
12217,9.931,3.4545,0.05,9.2446e-07,9.2382,7.0987e-07,5.3337,3.6064e-12,4.0585e-06,-7.0988e-07,-5.3338,0.50904
12218,9.931,3.1818,0,0.00033781,3375.7,0.00011253,0.0038158,0.00010969,-21.357,-0.00033816,-3386.4,0.50926
12219,9.8391,3.2727,0,0.00034026,3400.2,0.00011345,0.0036915,0.00011031,-23.576,-0.00034065,-3412,0.50065
12220,9.931,3.2727,0.05,9.2426e-07,9.2362,7.0972e-07,5.3325,3.6197e-12,3.9136e-06,-7.0972e-07,-5.3326,0.50919
12221,9.931,3,0,0.00033779,3375.6,0.00011254,0.0037886,0.00010967,-21.519,-0.00033815,-3386.3,0.5093
12222,9.8391,3.0909,0,0.00034023,3399.9,0.00011346,0.0036376,0.00011028,-23.914,-0.00034063,-3411.8,0.50072
12223,9.931,3.0909,0.05,9.2416e-07,9.2352,7.0963e-07,5.3319,3.6321e-12,4.7245e-06,-7.0964e-07,-5.332,0.50926
12224,9.931,2.8182,0,0.00033781,3375.7,0.00011253,0.0038155,0.00010969,-21.357,-0.00033816,-3386.4,0.50926
12225,9.8391,2.9091,0,0.00034023,3399.9,0.00011346,0.0036376,0.00011028,-23.914,-0.00034063,-3411.8,0.50072
12226,9.931,2.9091,0.05,9.2416e-07,9.2352,7.0963e-07,5.3319,3.6435e-12,5.2867e-06,-7.0964e-07,-5.332,0.50926
12227,9.931,2.6364,0,0.00033785,3376.2,0.00011252,0.0038938,0.00010974,-20.875,-0.0003382,-3386.6,0.50915
12228,9.8391,2.7273,0,0.00034026,3400.2,0.00011345,0.0036915,0.00011031,-23.576,-0.00034065,-3412,0.50065
12229,9.931,2.7273,0.05,9.2426e-07,9.2362,7.0971e-07,5.3325,2.7437e-12,5.1216e-06,-7.0972e-07,-5.3326,0.50919
12230,9.931,2.4545,0,0.00033792,3376.9,0.00011251,0.0040169,0.00010983,-20.083,-0.00033826,-3386.9,0.50897
12231,9.8391,2.5455,0,0.00034032,3400.9,0.00011344,0.0037948,0.00011039,-22.906,-0.0003407,-3412.3,0.5005
12232,9.931,2.5455,0.05,9.2446e-07,9.2382,7.0987e-07,5.3337,1.8416e-12,4.7061e-06,-7.0988e-07,-5.3338,0.50904
12233,9.931,2.2727,0,0.00033802,3377.9,0.00011249,0.004177,0.00010996,-18.997,-0.00033834,-3387.3,0.50871
12234,9.8391,2.3636,0,0.00034041,3401.8,0.00011342,0.00394,0.0001105,-21.917,-0.00034078,-3412.7,0.50028
12235,9.931,2.3636,0.05,9.2474e-07,9.241,7.1009e-07,5.3353,1.8481e-12,4.7503e-06,-7.1009e-07,-5.3353,0.50883
12236,9.931,2.0909,0,0.00033814,3379.1,0.00011246,0.0043643,0.00011011,-17.639,-0.00033844,-3387.9,0.50839
12237,9.8391,2.1818,0,0.00034053,3403,0.0001134,0.0041197,0.00011065,-20.627,-0.00034088,-3413.2,0.49999
12238,9.931,2.1818,0.05,9.2507e-07,9.2444,7.1034e-07,5.3372,2.7619e-12,4.5534e-06,-7.1034e-07,-5.3372,0.50854
12239,9.931,1.9091,0,0.00033829,3380.6,0.00011243,0.0045652,0.0001103,-16.034,-0.00033856,-3388.6,0.50799
12240,9.8391,2,0,0.00034067,3404.4,0.00011337,0.0043227,0.00011083,-19.06,-0.000341,-3413.9,0.49963
12241,9.931,2,0.05,9.2543e-07,9.2479,7.1062e-07,5.3393,1.8586e-12,4.112e-06,-7.1061e-07,-5.3393,0.50817
12242,9.931,1.7273,0,0.00033846,3382.3,0.0001124,0.0047666,0.0001105,-14.213,-0.0003387,-3389.4,0.50752
12243,9.8391,1.8182,0,0.00034084,3406.1,0.00011333,0.0045338,0.00011104,-17.242,-0.00034113,-3414.7,0.49919
12244,9.931,1.8182,0.05,9.2577e-07,9.2513,7.1088e-07,5.3413,3.6745e-12,4.1472e-06,-7.1088e-07,-5.3413,0.50774
12245,9.931,1.5455,0,0.00033865,3384.2,0.00011236,0.0049603,0.00011073,-12.204,-0.00033886,-3390.3,0.50697
12246,9.8391,1.6364,0,0.00034104,3408,0.00011329,0.0047422,0.00011127,-15.203,-0.00034129,-3415.6,0.49868
12247,9.931,1.6364,0.05,9.2606e-07,9.2542,7.111e-07,5.3429,1.8639e-12,3.7055e-06,-7.111e-07,-5.343,0.50723
12248,9.931,1.3636,0,0.00033886,3386.2,0.00011232,0.0051397,0.00011098,-10.04,-0.00033903,-3391.2,0.50635
12249,9.8391,1.4545,0,0.00034125,3410.1,0.00011325,0.004939,0.00011153,-12.972,-0.00034147,-3416.6,0.49809
12250,9.931,1.4545,0.05,9.2626e-07,9.2562,7.1125e-07,5.3441,3.0334e-14,3.2791e-06,-7.1125e-07,-5.3441,0.50665
12251,9.931,1.1818,0,0.00033908,3388.4,0.00011228,0.0053213,0.00011125,-7.749,-0.00033921,-3392.3,0.50566
12252,9.8391,1.2727,0,0.00034148,3412.4,0.00011321,0.0051106,0.0001118,-10.581,-0.00034166,-3417.7,0.49743
12253,9.931,1.2727,0.05,9.2633e-07,9.2569,7.113e-07,5.3444,9.5254e-13,2.8072e-06,-7.113e-07,-5.3445,0.50599
12254,9.931,1,0,0.00033931,3390.8,0.00011224,0.0055411,0.00011153,-5.3586,-0.00033941,-3393.5,0.5049
12255,9.8391,1.0909,0,0.00034172,3414.9,0.00011317,0.0052814,0.0001121,-8.0566,-0.00034186,-3418.9,0.4967
12256,9.931,1.0909,0.05,9.2622e-07,9.2558,7.1122e-07,5.3439,2.5226e-14,2.6535e-06,-7.1122e-07,-5.3439,0.50526
12257,9.931,0.81818,0,0.00033956,3393.3,0.0001122,0.0061928,0.00011181,-2.892,-0.00033961,-3394.7,0.50406
12258,9.8391,0.90909,0,0.00034198,3417.5,0.00011312,0.0054173,0.0001124,-5.4256,-0.00034208,-3420.2,0.49589
12259,9.931,0.90909,0.05,9.259e-07,9.2526,7.1098e-07,5.342,2.5009e-14,2.4802e-06,-7.1098e-07,-5.342,0.50446
12260,9.931,0.63636,0,0.00033982,3395.9,0.00011216,0.015188,0.00011211,-0.37431,-0.00033983,-3396.1,0.50315
12261,9.8391,0.72727,0,0.00034226,3420.2,0.00011308,0.0060591,0.00011272,-2.7096,-0.00034231,-3421.6,0.49501
12262,9.931,0.72727,0.05,9.2515e-07,9.2452,7.104e-07,5.3377,2.44e-14,1.7403e-06,-7.104e-07,-5.3377,0.50359
12263,9.931,0.45455,0,0.0003401,3398.7,0.00011242,2.2405,0.00011212,0.0039135,-0.00034006,-3397.6,0.50216
12264,9.8391,0.54545,0,0.00034255,3423.1,0.00011305,0.10342,0.00011303,-0.020963,-0.00034255,-3423.1,0.49406
12265,9.931,0.54545,0.05,9.2122e-07,9.2059,7.0739e-07,5.315,2.4391e-15,1.4687e-06,-7.0738e-07,-5.315,0.50264
12266,9.931,0.27273,0,0.00034046,3402.3,0.0001128,5.3673,0.00011209,0.00028662,-0.00034037,-3399.6,0.5011
12267,9.8391,0.36364,0,0.00034286,3426.2,0.00011339,2.9799,0.000113,0.0076354,-0.00034281,-3424.7,0.49303
12268,9.931,0.36364,0.05,8.7237e-07,8.7177,6.6987e-07,5.0332,2.3489e-14,1.7738e-06,-6.6987e-07,-5.0332,0.50162
12269,9.8391,0.18182,0,0.00034332,3430.9,0.00011387,6.8876,0.00011295,-0.0073814,-0.00034321,-3427.4,0.49193
12270,9.931,0.18182,0.05,1.3865e-07,1.3855,1.0647e-07,0.79997,7.0389e-14,3.3015e-06,-1.0647e-07,-0.79991,0.50052
12271,9.931,0.090909,0,0.00034034,3401,0.00011274,5.1298,0.00011206,-0.0011976,-0.00034025,-3398.5,0.49997
12272,9.7471,5.7273,0,0.0003457,3454.7,0.00011445,4.4239,0.00011386,0.00011218,-0.00034563,-3452.4,0.48393
12273,9.6552,5.8182,0,0.00034859,3483.5,0.00011555,6.1784,0.00011473,-0.010592,-0.00034849,-3480.4,0.47487
12274,9.7471,5.8182,0.05,1.4712e-07,1.4702,1.1297e-07,0.84875,6.2976e-12,-4.7743e-06,-1.1298e-07,-0.8489,0.48334
12275,9.7471,5.9091,0,0.00034563,3453.9,0.00011445,4.7305,0.00011382,-0.0022228,-0.00034555,-3451.5,0.48279
12276,9.7471,5.5455,0,0.0003453,3450.6,0.00011402,0.7984,0.00011391,0.0056299,-0.00034529,-3450.2,0.485
12277,9.6552,5.6364,0,0.00034808,3478.4,0.00011501,1.7649,0.00011478,0.010159,-0.00034805,-3477.6,0.47598
12278,9.7471,5.6364,0.05,8.7626e-07,8.7565,6.7285e-07,5.0555,5.4029e-12,1.4965e-06,-6.7286e-07,-5.0557,0.48445
12279,9.7471,5.3636,0,0.00034498,3447.4,0.00011396,0.0053844,0.00011365,-2.2855,-0.00034502,-3448.6,0.486
12280,9.6552,5.4545,0,0.00034773,3474.9,0.00011483,0.004609,0.00011461,-1.6374,-0.00034776,-3475.7,0.47702
12281,9.7471,5.4545,0.05,9.2499e-07,9.2435,7.1027e-07,5.3366,5.3858e-12,1.9945e-06,-7.1028e-07,-5.3368,0.48549
12282,9.7471,5.1818,0,0.00034468,3444.4,0.000114,0.0054629,0.0001133,-5.2602,-0.00034477,-3447,0.48692
12283,9.6552,5.2727,0,0.0003474,3471.6,0.00011489,0.0056083,0.00011423,-4.8966,-0.00034748,-3474.1,0.47799
12284,9.7471,5.2727,0.05,9.2905e-07,9.2841,7.1339e-07,5.3601,6.2822e-12,8.0715e-07,-7.134e-07,-5.3603,0.48645
12285,9.7471,5,0,0.00034439,3441.5,0.00011405,0.005229,0.00011297,-8.1395,-0.00034453,-3445.6,0.48777
12286,9.6552,5.0909,0,0.00034709,3468.5,0.00011494,0.0052231,0.00011387,-8.0526,-0.00034722,-3472.5,0.47888
12287,9.7471,5.0909,0.05,9.2997e-07,9.2933,7.1409e-07,5.3654,5.3503e-12,8.0676e-07,-7.1411e-07,-5.3655,0.48733
12288,9.7471,4.8182,0,0.00034412,3438.8,0.0001141,0.0051029,0.00011265,-10.903,-0.0003443,-3444.3,0.48855
12289,9.6552,4.9091,0,0.00034679,3465.5,0.00011499,0.005142,0.00011351,-11.087,-0.00034698,-3471,0.47969
12290,9.7471,4.9091,0.05,9.3049e-07,9.2984,7.1449e-07,5.3684,4.459e-12,6.6159e-07,-7.145e-07,-5.3685,0.48814
12291,9.7471,4.6364,0,0.00034387,3436.3,0.00011415,0.004925,0.00011234,-13.528,-0.00034409,-3443,0.48924
12292,9.6552,4.7273,0,0.00034651,3462.7,0.00011504,0.0049463,0.00011318,-13.975,-0.00034674,-3469.7,0.48044
12293,9.7471,4.7273,0.05,9.308e-07,9.3016,7.1473e-07,5.3702,4.4547e-12,6.936e-07,-7.1474e-07,-5.3703,0.48888
12294,9.7471,4.4545,0,0.00034363,3433.9,0.00011419,0.0047278,0.00011206,-15.984,-0.0003439,-3441.9,0.48987
12295,9.6552,4.5455,0,0.00034625,3460.1,0.00011509,0.0047413,0.00011287,-16.69,-0.00034653,-3468.4,0.4811
12296,9.7471,4.5455,0.05,9.3095e-07,9.3031,7.1485e-07,5.3711,5.3683e-12,1.4731e-06,-7.1486e-07,-5.3712,0.48954
12297,9.7471,4.2727,0,0.00034342,3431.8,0.00011423,0.0045122,0.0001118,-18.245,-0.00034372,-3440.9,0.49042
12298,9.6552,4.3636,0,0.00034601,3457.7,0.00011513,0.0045103,0.00011258,-19.204,-0.00034633,-3467.3,0.48169
12299,9.7471,4.3636,0.05,9.3097e-07,9.3033,7.1487e-07,5.3712,4.4599e-12,7.1667e-07,-7.1488e-07,-5.3713,0.49013
12300,9.7471,4.0909,0,0.00034323,3429.9,0.00011427,0.0042923,0.00011157,-20.28,-0.00034357,-3440,0.4909
12301,9.6552,4.1818,0,0.00034579,3455.5,0.00011517,0.0042733,0.00011231,-21.487,-0.00034615,-3466.2,0.48221
12302,9.7471,4.1818,0.05,9.3089e-07,9.3025,7.1481e-07,5.3707,3.559e-12,1.2725e-06,-7.1481e-07,-5.3709,0.49064
12303,9.7471,3.9091,0,0.00034306,3428.2,0.0001143,0.0040778,0.00011136,-22.06,-0.00034343,-3439.2,0.4913
12304,9.6552,4,0,0.0003456,3453.6,0.00011521,0.0040407,0.00011208,-23.509,-0.000346,-3465.3,0.48265
12305,9.7471,4,0.05,9.3075e-07,9.3011,7.147e-07,5.3699,3.565e-12,1.8531e-06,-7.1471e-07,-5.37,0.49109
12306,9.7471,3.7273,0,0.00034292,3426.8,0.00011433,0.0038814,0.00011119,-23.559,-0.00034331,-3438.5,0.49163
12307,9.6552,3.8182,0,0.00034544,3452,0.00011524,0.0038224,0.00011188,-25.243,-0.00034586,-3464.6,0.48302
12308,9.7471,3.8182,0.05,9.3057e-07,9.2993,7.1456e-07,5.3689,4.4892e-12,2.6192e-06,-7.1457e-07,-5.369,0.49145
12309,9.7471,3.5455,0,0.00034281,3425.7,0.00011435,0.0037162,0.00011106,-24.751,-0.00034322,-3438,0.49189
12310,9.6552,3.6364,0,0.00034531,3450.7,0.00011527,0.0036327,0.00011172,-26.664,-0.00034575,-3464,0.48332
12311,9.7471,3.6364,0.05,9.3039e-07,9.2975,7.1442e-07,5.3679,3.5922e-12,3.4525e-06,-7.1443e-07,-5.368,0.49175
12312,9.7471,3.3636,0,0.00034273,3424.9,0.00011437,0.0035906,0.00011096,-25.618,-0.00034316,-3437.7,0.49207
12313,9.6552,3.4545,0,0.00034521,3449.7,0.00011529,0.0034816,0.0001116,-27.75,-0.00034567,-3463.5,0.48354
12314,9.7471,3.4545,0.05,9.3023e-07,9.2959,7.143e-07,5.3669,3.6028e-12,3.5603e-06,-7.1431e-07,-5.367,0.49197
12315,9.7471,3.1818,0,0.00034268,3424.4,0.00011438,0.0035115,0.0001109,-26.145,-0.00034312,-3437.4,0.49218
12316,9.6552,3.2727,0,0.00034514,3449,0.0001153,0.0033751,0.00011151,-28.484,-0.00034562,-3463.2,0.48369
12317,9.7471,3.2727,0.05,9.3011e-07,9.2947,7.1421e-07,5.3663,2.7092e-12,3.4309e-06,-7.1421e-07,-5.3663,0.49211
12318,9.7471,3,0,0.00034266,3424.3,0.00011438,0.0034847,0.00011088,-26.321,-0.0003431,-3437.4,0.49222
12319,9.6552,3.0909,0,0.00034511,3448.7,0.00011531,0.0033201,0.00011147,-28.854,-0.00034559,-3463,0.48376
12320,9.7471,3.0909,0.05,9.3005e-07,9.2941,7.1416e-07,5.3659,2.7221e-12,3.767e-06,-7.1417e-07,-5.366,0.49219
12321,9.7471,2.8182,0,0.00034268,3424.4,0.00011438,0.0035117,0.0001109,-26.145,-0.00034312,-3437.4,0.49218
12322,9.6552,2.9091,0,0.00034511,3448.7,0.00011531,0.0033203,0.00011147,-28.854,-0.00034559,-3463,0.48376
12323,9.7471,2.9091,0.05,9.3005e-07,9.2941,7.1416e-07,5.3659,2.7345e-12,4.3365e-06,-7.1417e-07,-5.366,0.49219
12324,9.7471,2.6364,0,0.00034273,3424.9,0.00011437,0.0035908,0.00011096,-25.618,-0.00034316,-3437.7,0.49207
12325,9.6552,2.7273,0,0.00034514,3449,0.0001153,0.0033754,0.00011151,-28.484,-0.00034562,-3463.2,0.48369
12326,9.7471,2.7273,0.05,9.3011e-07,9.2947,7.1421e-07,5.3663,1.8359e-12,4.6572e-06,-7.1421e-07,-5.3663,0.49211
12327,9.7471,2.4545,0,0.00034281,3425.7,0.00011435,0.0037166,0.00011106,-24.751,-0.00034322,-3438,0.49189
12328,9.6552,2.5455,0,0.00034521,3449.7,0.00011529,0.0034818,0.0001116,-27.75,-0.00034567,-3463.5,0.48354
12329,9.7471,2.5455,0.05,9.3023e-07,9.2959,7.143e-07,5.367,1.8437e-12,4.2518e-06,-7.1431e-07,-5.367,0.49197
12330,9.7471,2.2727,0,0.00034292,3426.8,0.00011433,0.0038818,0.00011119,-23.559,-0.00034331,-3438.5,0.49163
12331,9.6552,2.3636,0,0.00034531,3450.7,0.00011527,0.003633,0.00011172,-26.664,-0.00034575,-3464,0.48332
12332,9.7471,2.3636,0.05,9.3039e-07,9.2975,7.1442e-07,5.3679,3.6711e-12,4.0467e-06,-7.1443e-07,-5.368,0.49175
12333,9.7471,2.0909,0,0.00034306,3428.2,0.0001143,0.004078,0.00011136,-22.06,-0.00034343,-3439.2,0.4913
12334,9.6552,2.1818,0,0.00034544,3452,0.00011524,0.0038229,0.00011188,-25.244,-0.00034586,-3464.6,0.48302
12335,9.7471,2.1818,0.05,9.3057e-07,9.2993,7.1456e-07,5.3689,1.8594e-12,4.0781e-06,-7.1456e-07,-5.369,0.49145
12336,9.7471,1.9091,0,0.00034323,3429.9,0.00011427,0.0042925,0.00011157,-20.28,-0.00034357,-3440,0.4909
12337,9.6552,2,0,0.0003456,3453.6,0.00011521,0.0040409,0.00011208,-23.509,-0.000346,-3465.3,0.48265
12338,9.7471,2,0.05,9.3075e-07,9.3011,7.147e-07,5.37,2.7679e-12,3.6897e-06,-7.147e-07,-5.37,0.49109
12339,9.7471,1.7273,0,0.00034342,3431.8,0.00011423,0.0045129,0.0001118,-18.245,-0.00034372,-3440.9,0.49042
12340,9.6552,1.8182,0,0.00034579,3455.5,0.00011517,0.0042738,0.00011231,-21.487,-0.00034615,-3466.2,0.48221
12341,9.7471,1.8182,0.05,9.3089e-07,9.3025,7.1481e-07,5.3708,3.6831e-12,3.1839e-06,-7.1481e-07,-5.3708,0.49064
12342,9.7471,1.5455,0,0.00034363,3433.9,0.00011419,0.0047285,0.00011206,-15.984,-0.0003439,-3441.9,0.48987
12343,9.6552,1.6364,0,0.00034601,3457.7,0.00011513,0.0045108,0.00011258,-19.204,-0.00034633,-3467.3,0.48169
12344,9.7471,1.6364,0.05,9.3097e-07,9.3033,7.1487e-07,5.3712,1.8667e-12,3.1369e-06,-7.1487e-07,-5.3713,0.49013
12345,9.7471,1.3636,0,0.00034387,3436.3,0.00011415,0.0049256,0.00011234,-13.528,-0.00034409,-3443,0.48924
12346,9.6552,1.4545,0,0.00034625,3460.1,0.00011509,0.0047418,0.00011287,-16.69,-0.00034653,-3468.4,0.4811
12347,9.7471,1.4545,0.05,9.3095e-07,9.3031,7.1486e-07,5.3711,3.4887e-14,3.0637e-06,-7.1486e-07,-5.3712,0.48954
12348,9.7471,1.1818,0,0.00034412,3438.8,0.0001141,0.0051036,0.00011265,-10.903,-0.0003443,-3444.3,0.48855
12349,9.6552,1.2727,0,0.00034651,3462.7,0.00011504,0.0049471,0.00011318,-13.975,-0.00034674,-3469.7,0.48044
12350,9.7471,1.2727,0.05,9.308e-07,9.3016,7.1474e-07,5.3703,1.8609e-12,2.7791e-06,-7.1474e-07,-5.3703,0.48888
12351,9.7471,1,0,0.00034439,3441.5,0.00011405,0.0052304,0.00011297,-8.1395,-0.00034453,-3445.6,0.48777
12352,9.6552,1.0909,0,0.00034679,3465.5,0.00011499,0.0051427,0.00011351,-11.087,-0.00034698,-3471,0.47969
12353,9.7471,1.0909,0.05,9.3049e-07,9.2984,7.145e-07,5.3685,5.2591e-14,2.1574e-06,-7.145e-07,-5.3685,0.48814
12354,9.7471,0.81818,0,0.00034468,3444.4,0.000114,0.0054646,0.0001133,-5.2602,-0.00034477,-3447,0.48692
12355,9.6552,0.90909,0,0.00034709,3468.5,0.00011494,0.0052246,0.00011387,-8.0526,-0.00034722,-3472.5,0.47888
12356,9.7471,0.90909,0.05,9.2997e-07,9.2933,7.141e-07,5.3655,3.0435e-14,1.8628e-06,-7.141e-07,-5.3655,0.48733
12357,9.7471,0.63636,0,0.00034498,3447.4,0.00011396,0.0053856,0.00011365,-2.2855,-0.00034502,-3448.6,0.486
12358,9.6552,0.72727,0,0.0003474,3471.6,0.00011489,0.0056097,0.00011423,-4.8967,-0.00034748,-3474.1,0.47799
12359,9.7471,0.72727,0.05,9.2905e-07,9.2841,7.1339e-07,5.3602,-8.4766e-13,1.7989e-06,-7.1339e-07,-5.3602,0.48645
12360,9.7471,0.45455,0,0.0003453,3450.6,0.00011402,0.7984,0.00011391,0.0056306,-0.00034529,-3450.2,0.485
12361,9.6552,0.54545,0,0.00034773,3474.9,0.00011483,0.0046097,0.00011461,-1.6374,-0.00034776,-3475.7,0.47702
12362,9.7471,0.54545,0.05,9.2499e-07,9.2435,7.1028e-07,5.3367,-1.817e-12,1.8641e-06,-7.1028e-07,-5.3367,0.48549
12363,9.7471,0.27273,0,0.0003457,3454.7,0.00011445,4.4239,0.00011386,0.00011307,-0.00034563,-3452.4,0.48393
12364,9.6552,0.36364,0,0.00034808,3478.4,0.00011501,1.7649,0.00011478,0.01016,-0.00034805,-3477.6,0.47598
12365,9.7471,0.36364,0.05,8.7626e-07,8.7565,6.7286e-07,5.0556,1.9674e-14,1.0177e-06,-6.7286e-07,-5.0556,0.48445
12366,9.6552,0.18182,0,0.00034859,3483.5,0.00011555,6.1784,0.00011473,-0.010591,-0.00034849,-3480.4,0.47487
12367,9.7471,0.18182,0.05,1.4712e-07,1.4702,1.1297e-07,0.84884,-9.3527e-23,3.3325e-06,-1.1297e-07,-0.84881,0.48334
12368,9.7471,0.090909,0,0.00034563,3453.9,0.00011445,4.7305,0.00011382,-0.0022223,-0.00034555,-3451.5,0.48279
12369,9.5632,5.7273,0,0.00035096,3507.2,0.0001161,3.4459,0.00011565,-0.0014821,-0.0003509,-3505.5,0.46699
12370,9.4713,5.8182,0,0.00035388,3536.3,0.00011723,5.4367,0.00011651,-0.015218,-0.00035378,-3533.6,0.45804
12371,9.5632,5.8182,0.05,1.5756e-07,1.5745,1.2098e-07,0.90894,4.7396e-12,-7.3738e-06,-1.2099e-07,-0.90909,0.4664
12372,9.5632,5.9091,0,0.00035093,3506.9,0.00011617,4.3122,0.00011559,-0.0038482,-0.00035086,-3504.8,0.46583
12373,9.5632,5.5455,0,0.00035051,3502.7,0.0001157,0.0078464,0.00011561,-0.69068,-0.00035053,-3503.1,0.46808
12374,9.4713,5.6364,0,0.00035333,3530.8,0.00011664,0.50775,0.00011657,0.0098513,-0.00035332,-3530.6,0.45917
12375,9.5632,5.6364,0.05,8.8068e-07,8.8007,6.7625e-07,5.081,6.2839e-12,1.273e-06,-6.7626e-07,-5.0812,0.46752
12376,9.5632,5.3636,0,0.00035015,3499.1,0.00011576,0.0050785,0.00011519,-4.2665,-0.00035022,-3501.2,0.46909
12377,9.4713,5.4545,0,0.00035293,3526.9,0.00011664,0.004646,0.00011618,-3.4127,-0.00035299,-3528.6,0.46022
12378,9.5632,5.4545,0.05,9.2919e-07,9.2855,7.135e-07,5.3609,4.4422e-12,1.4261e-06,-7.1351e-07,-5.3611,0.46857
12379,9.5632,5.1818,0,0.00034981,3495.7,0.00011582,0.0054513,0.00011479,-7.7055,-0.00034994,-3499.5,0.47002
12380,9.4713,5.2727,0,0.00035256,3523.2,0.0001167,0.0058478,0.00011575,-7.1615,-0.00035268,-3526.7,0.4612
12381,9.5632,5.2727,0.05,9.3336e-07,9.3271,7.167e-07,5.3849,5.3452e-12,5.2514e-07,-7.1671e-07,-5.3851,0.46954
12382,9.5632,5,0,0.00034948,3492.4,0.00011587,0.0051735,0.00011441,-11.015,-0.00034967,-3497.9,0.47088
12383,9.4713,5.0909,0,0.0003522,3519.6,0.00011676,0.0052918,0.00011533,-10.776,-0.00035239,-3525,0.4621
12384,9.5632,5.0909,0.05,9.3442e-07,9.3378,7.1752e-07,5.3911,6.2611e-12,6.2879e-07,-7.1753e-07,-5.3912,0.47043
12385,9.5632,4.8182,0,0.00034917,3489.3,0.00011593,0.0050041,0.00011404,-14.173,-0.00034941,-3496.4,0.47166
12386,9.4713,4.9091,0,0.00035187,3516.2,0.00011682,0.005139,0.00011493,-14.234,-0.00035211,-3523.3,0.46292
12387,9.5632,4.9091,0.05,9.351e-07,9.3446,7.1804e-07,5.395,4.4396e-12,1.3289e-07,-7.1805e-07,-5.3952,0.47125
12388,9.5632,4.6364,0,0.00034889,3486.5,0.00011598,0.0047719,0.0001137,-17.152,-0.00034918,-3495,0.47237
12389,9.4713,4.7273,0,0.00035155,3513.1,0.00011688,0.0048618,0.00011455,-17.508,-0.00035185,-3521.8,0.46367
12390,9.5632,4.7273,0.05,9.3559e-07,9.3494,7.1841e-07,5.3978,5.3448e-12,-1.5418e-08,-7.1842e-07,-5.398,0.472
12391,9.5632,4.4545,0,0.00034862,3483.8,0.00011603,0.0045281,0.00011338,-19.923,-0.00034896,-3493.7,0.473
12392,9.4713,4.5455,0,0.00035126,3510.2,0.00011693,0.0045936,0.00011419,-20.57,-0.0003516,-3520.4,0.46435
12393,9.5632,4.5455,0.05,9.3591e-07,9.3527,7.1866e-07,5.3997,3.5198e-12,1.0852e-06,-7.1867e-07,-5.3998,0.47267
12394,9.5632,4.2727,0,0.00034838,3481.4,0.00011608,0.004273,0.00011309,-22.459,-0.00034876,-3492.6,0.47356
12395,9.4713,4.3636,0,0.00035099,3507.5,0.00011698,0.0043101,0.00011387,-23.39,-0.00035138,-3519.1,0.46494
12396,9.5632,4.3636,0.05,9.3611e-07,9.3546,7.1881e-07,5.4008,3.5301e-12,8.5363e-07,-7.1882e-07,-5.401,0.47326
12397,9.5632,4.0909,0,0.00034817,3479.3,0.00011612,0.0040216,0.00011283,-24.728,-0.00034858,-3491.6,0.47404
12398,9.4713,4.1818,0,0.00035075,3505.1,0.00011703,0.0040319,0.00011358,-25.939,-0.00035118,-3518,0.46547
12399,9.5632,4.1818,0.05,9.362e-07,9.3555,7.1888e-07,5.4014,5.3626e-12,7.6287e-07,-7.1889e-07,-5.4015,0.47378
12400,9.5632,3.9091,0,0.00034798,3477.4,0.00011615,0.0037842,0.0001126,-26.704,-0.00034843,-3490.7,0.47445
12401,9.4713,4,0,0.00035054,3503,0.00011707,0.0037677,0.00011332,-28.187,-0.00035101,-3517,0.46591
12402,9.5632,4,0.05,9.3621e-07,9.3557,7.1889e-07,5.4014,4.4643e-12,1.3076e-06,-7.189e-07,-5.4015,0.47423
12403,9.5632,3.7273,0,0.00034783,3475.9,0.00011619,0.0035719,0.00011241,-28.361,-0.0003483,-3490,0.47478
12404,9.4713,3.8182,0,0.00035036,3501.2,0.00011711,0.0035265,0.0001131,-30.107,-0.00035086,-3516.1,0.46629
12405,9.5632,3.8182,0.05,9.3617e-07,9.3553,7.1886e-07,5.4012,3.5733e-12,1.8969e-06,-7.1887e-07,-5.4013,0.4746
12406,9.5632,3.5455,0,0.00034771,3474.7,0.00011621,0.0033959,0.00011226,-29.675,-0.0003482,-3489.4,0.47504
12407,9.4713,3.6364,0,0.00035021,3499.7,0.00011714,0.0033204,0.00011292,-31.675,-0.00035074,-3515.4,0.46659
12408,9.5632,3.6364,0.05,9.3611e-07,9.3547,7.1881e-07,5.4009,3.5862e-12,2.9437e-06,-7.1882e-07,-5.401,0.4749
12409,9.5632,3.3636,0,0.00034762,3473.8,0.00011623,0.0032636,0.00011215,-30.627,-0.00034813,-3489,0.47523
12410,9.4713,3.4545,0,0.0003501,3498.6,0.00011716,0.0031584,0.00011278,-32.871,-0.00035065,-3514.9,0.46681
12411,9.5632,3.4545,0.05,9.3604e-07,9.354,7.1876e-07,5.4005,3.601e-12,2.8129e-06,-7.1877e-07,-5.4006,0.47512
12412,9.5632,3.1818,0,0.00034756,3473.2,0.00011624,0.0031811,0.00011208,-31.205,-0.00034808,-3488.7,0.47534
12413,9.4713,3.2727,0,0.00035003,3497.8,0.00011717,0.0030455,0.00011269,-33.677,-0.00035059,-3514.6,0.46696
12414,9.5632,3.2727,0.05,9.3599e-07,9.3534,7.1872e-07,5.4001,3.6162e-12,2.2193e-06,-7.1873e-07,-5.4003,0.47527
12415,9.5632,3,0,0.00034754,3473.1,0.00011624,0.0031531,0.00011206,-31.398,-0.00034807,-3488.6,0.47538
12416,9.4713,3.0909,0,0.00034999,3497.5,0.00011718,0.0029876,0.00011264,-34.083,-0.00035056,-3514.4,0.46703
12417,9.5632,3.0909,0.05,9.3596e-07,9.3531,7.187e-07,5.4,2.7215e-12,3.5232e-06,-7.1871e-07,-5.4001,0.47534
12418,9.5632,2.8182,0,0.00034756,3473.2,0.00011624,0.0031814,0.00011208,-31.205,-0.00034808,-3488.7,0.47534
12419,9.4713,2.9091,0,0.00034999,3497.5,0.00011718,0.0029875,0.00011264,-34.083,-0.00035056,-3514.4,0.46703
12420,9.5632,2.9091,0.05,9.3596e-07,9.3531,7.187e-07,5.4,2.7351e-12,3.6255e-06,-7.1871e-07,-5.4001,0.47534
12421,9.5632,2.6364,0,0.00034762,3473.8,0.00011623,0.003264,0.00011215,-30.627,-0.00034813,-3489,0.47523
12422,9.4713,2.7273,0,0.00035003,3497.8,0.00011717,0.0030459,0.00011269,-33.677,-0.00035059,-3514.6,0.46696
12423,9.5632,2.7273,0.05,9.3599e-07,9.3534,7.1872e-07,5.4002,1.8375e-12,3.719e-06,-7.1873e-07,-5.4002,0.47527
12424,9.5632,2.4545,0,0.00034771,3474.7,0.00011621,0.0033961,0.00011226,-29.675,-0.0003482,-3489.4,0.47504
12425,9.4713,2.5455,0,0.0003501,3498.6,0.00011716,0.0031587,0.00011278,-32.871,-0.00035065,-3514.9,0.46681
12426,9.5632,2.5455,0.05,9.3604e-07,9.354,7.1876e-07,5.4005,1.8492e-12,3.3244e-06,-7.1877e-07,-5.4006,0.47512
12427,9.5632,2.2727,0,0.00034783,3475.9,0.00011619,0.0035723,0.00011241,-28.361,-0.0003483,-3490,0.47478
12428,9.4713,2.3636,0,0.00035021,3499.7,0.00011714,0.0033207,0.00011292,-31.675,-0.00035074,-3515.4,0.46659
12429,9.5632,2.3636,0.05,9.3611e-07,9.3547,7.1882e-07,5.4009,1.8568e-12,3.4051e-06,-7.1882e-07,-5.4009,0.4749
12430,9.5632,2.0909,0,0.00034798,3477.4,0.00011615,0.0037847,0.0001126,-26.704,-0.00034843,-3490.7,0.47445
12431,9.4713,2.1818,0,0.00035036,3501.2,0.00011711,0.0035269,0.0001131,-30.107,-0.00035086,-3516.1,0.46629
12432,9.5632,2.1818,0.05,9.3617e-07,9.3553,7.1887e-07,5.4012,1.861e-12,3.1839e-06,-7.1887e-07,-5.4013,0.4746
12433,9.5632,1.9091,0,0.00034817,3479.3,0.00011612,0.0040221,0.00011283,-24.728,-0.00034858,-3491.6,0.47404
12434,9.4713,2,0,0.00035054,3503,0.00011707,0.0037681,0.00011332,-28.187,-0.00035101,-3517,0.46591
12435,9.5632,2,0.05,9.3621e-07,9.3557,7.1889e-07,5.4014,2.7741e-12,3.192e-06,-7.1889e-07,-5.4015,0.47423
12436,9.5632,1.7273,0,0.00034838,3481.4,0.00011608,0.0042732,0.00011309,-22.459,-0.00034876,-3492.6,0.47356
12437,9.4713,1.8182,0,0.00035075,3505.1,0.00011703,0.0040325,0.00011358,-25.939,-0.00035118,-3518,0.46547
12438,9.5632,1.8182,0.05,9.362e-07,9.3555,7.1888e-07,5.4014,1.8677e-12,2.8027e-06,-7.1888e-07,-5.4014,0.47378
12439,9.5632,1.5455,0,0.00034862,3483.8,0.00011603,0.0045284,0.00011338,-19.923,-0.00034896,-3493.7,0.473
12440,9.4713,1.6364,0,0.00035099,3507.5,0.00011698,0.0043104,0.00011387,-23.39,-0.00035138,-3519.1,0.46494
12441,9.5632,1.6364,0.05,9.3611e-07,9.3546,7.1881e-07,5.4009,1.8685e-12,3.0835e-06,-7.1882e-07,-5.4009,0.47326
12442,9.5632,1.3636,0,0.00034889,3486.5,0.00011598,0.0047727,0.0001137,-17.152,-0.00034918,-3495,0.47237
12443,9.4713,1.4545,0,0.00035126,3510.2,0.00011693,0.0045943,0.00011419,-20.57,-0.0003516,-3520.4,0.46435
12444,9.5632,1.4545,0.05,9.3591e-07,9.3527,7.1866e-07,5.3998,2.7845e-12,2.5447e-06,-7.1867e-07,-5.3998,0.47267
12445,9.5632,1.1818,0,0.00034917,3489.3,0.00011593,0.0050048,0.00011404,-14.173,-0.00034941,-3496.4,0.47166
12446,9.4713,1.2727,0,0.00035155,3513.1,0.00011688,0.0048627,0.00011455,-17.508,-0.00035185,-3521.8,0.46367
12447,9.5632,1.2727,0.05,9.3559e-07,9.3494,7.1841e-07,5.3979,4.9078e-14,2.0691e-06,-7.1842e-07,-5.3979,0.472
12448,9.5632,1,0,0.00034948,3492.4,0.00011587,0.0051744,0.00011441,-11.015,-0.00034967,-3497.9,0.47088
12449,9.4713,1.0909,0,0.00035187,3516.2,0.00011682,0.0051393,0.00011493,-14.234,-0.00035211,-3523.3,0.46292
12450,9.5632,1.0909,0.05,9.351e-07,9.3446,7.1804e-07,5.3951,3.5196e-14,2.1831e-06,-7.1804e-07,-5.3951,0.47125
12451,9.5632,0.81818,0,0.00034981,3495.7,0.00011582,0.0054527,0.00011479,-7.7055,-0.00034994,-3499.5,0.47002
12452,9.4713,0.90909,0,0.0003522,3519.6,0.00011676,0.005293,0.00011533,-10.776,-0.00035239,-3525,0.4621
12453,9.5632,0.90909,0.05,9.3442e-07,9.3378,7.1752e-07,5.3912,4.5178e-14,1.6124e-06,-7.1752e-07,-5.3912,0.47043
12454,9.5632,0.63636,0,0.00035015,3499.1,0.00011576,0.0050793,0.00011519,-4.2665,-0.00035022,-3501.2,0.46909
12455,9.4713,0.72727,0,0.00035256,3523.2,0.0001167,0.0058492,0.00011575,-7.1615,-0.00035268,-3526.7,0.4612
12456,9.5632,0.72727,0.05,9.3336e-07,9.3271,7.167e-07,5.385,1.833e-14,1.7357e-06,-7.167e-07,-5.385,0.46954
12457,9.5632,0.45455,0,0.00035051,3502.7,0.0001157,0.0078472,0.00011561,-0.69068,-0.00035053,-3503.1,0.46808
12458,9.4713,0.54545,0,0.00035293,3526.9,0.00011664,0.0046464,0.00011618,-3.4127,-0.00035299,-3528.6,0.46022
12459,9.5632,0.54545,0.05,9.2919e-07,9.2855,7.135e-07,5.361,7.9816e-14,2.2999e-06,-7.135e-07,-5.361,0.46857
12460,9.5632,0.27273,0,0.00035096,3507.2,0.0001161,3.4459,0.00011565,-0.0014808,-0.0003509,-3505.5,0.46699
12461,9.4713,0.36364,0,0.00035333,3530.8,0.00011664,0.50776,0.00011657,0.0098529,-0.00035332,-3530.6,0.45917
12462,9.5632,0.36364,0.05,8.8068e-07,8.8007,6.7625e-07,5.0811,5.775e-14,1.2941e-06,-6.7625e-07,-5.0811,0.46752
12463,9.4713,0.18182,0,0.00035388,3536.3,0.00011723,5.4367,0.00011651,-0.015217,-0.00035378,-3533.6,0.45804
12464,9.5632,0.18182,0.05,1.5755e-07,1.5745,1.2098e-07,0.90901,-8.5709e-13,1.8894e-06,-1.2098e-07,-0.90901,0.4664
12465,9.5632,0.090909,0,0.00035093,3506.9,0.00011617,4.3122,0.00011559,-0.0038473,-0.00035086,-3504.8,0.46583
12466,9.3793,5.7273,0,0.00035623,3559.9,0.00011776,2.4285,0.00011744,-0.0064521,-0.00035619,-3558.7,0.45029
12467,9.2874,5.8182,0,0.00035918,3589.3,0.00011892,4.6594,0.0001183,-0.022122,-0.0003591,-3587,0.44145
12468,9.3793,5.8182,0.05,1.6988e-07,1.6976,1.3044e-07,0.98002,4.4296e-12,-1.7847e-05,-1.3045e-07,-0.98024,0.44969
12469,9.3793,5.9091,0,0.00035626,3560.1,0.00011789,3.8731,0.00011737,-0.006349,-0.00035619,-3558.2,0.44912
12470,9.3793,5.5455,0,0.00035574,3555,0.00011751,0.0097173,0.00011721,-2.2378,-0.00035578,-3556.1,0.45139
12471,9.2874,5.6364,0,0.00035859,3583.4,0.00011838,0.020935,0.00011827,-0.81503,-0.0003586,-3583.8,0.44259
12472,9.3793,5.6364,0.05,8.856e-07,8.8499,6.8002e-07,5.1094,6.2565e-12,7.9754e-07,-6.8003e-07,-5.1096,0.45083
12473,9.3793,5.3636,0,0.00035534,3550.9,0.00011757,0.0054504,0.00011673,-6.3249,-0.00035544,-3554.1,0.45241
12474,9.2874,5.4545,0,0.00035815,3579,0.00011845,0.0052652,0.00011775,-5.2627,-0.00035824,-3581.6,0.44366
12475,9.3793,5.4545,0.05,9.338e-07,9.3315,7.1703e-07,5.3875,5.3493e-12,1.3445e-06,-7.1705e-07,-5.3876,0.45189
12476,9.3793,5.1818,0,0.00035495,3547.1,0.00011764,0.0057157,0.00011628,-10.248,-0.00035513,-3552.2,0.45336
12477,9.2874,5.2727,0,0.00035773,3574.8,0.00011852,0.0063494,0.00011725,-9.5219,-0.00035789,-3579.6,0.44465
12478,9.3793,5.2727,0.05,9.3805e-07,9.374,7.203e-07,5.412,6.2545e-12,-4.5759e-08,-7.2031e-07,-5.4122,0.45287
12479,9.3793,5,0,0.00035459,3543.4,0.00011771,0.005272,0.00011584,-14.009,-0.00035482,-3550.4,0.45422
12480,9.2874,5.0909,0,0.00035733,3570.9,0.00011859,0.0055091,0.00011678,-13.617,-0.00035756,-3577.7,0.44556
12481,9.3793,5.0909,0.05,9.3924e-07,9.3859,7.2122e-07,5.4189,7.1447e-12,3.3084e-07,-7.2122e-07,-5.419,0.45377
12482,9.3793,4.8182,0,0.00035424,3540,0.00011777,0.0050042,0.00011543,-17.583,-0.00035454,-3548.7,0.45501
12483,9.2874,4.9091,0,0.00035696,3567.1,0.00011866,0.0052311,0.00011633,-17.522,-0.00035725,-3575.8,0.44639
12484,9.3793,4.9091,0.05,9.4005e-07,9.394,7.2184e-07,5.4236,6.2432e-12,8.2932e-08,-7.2185e-07,-5.4237,0.4546
12485,9.3793,4.6364,0,0.00035392,3536.8,0.00011783,0.0046866,0.00011504,-20.939,-0.00035427,-3547.2,0.45573
12486,9.2874,4.7273,0,0.00035661,3563.6,0.00011873,0.0048421,0.00011591,-21.206,-0.00035696,-3574.2,0.44715
12487,9.3793,4.7273,0.05,9.4068e-07,9.4003,7.2232e-07,5.4272,4.3967e-12,-1.1074e-07,-7.2233e-07,-5.4273,0.45536
12488,9.3793,4.4545,0,0.00035362,3533.8,0.00011789,0.0043762,0.00011468,-24.049,-0.00035403,-3545.8,0.45637
12489,9.2874,4.5455,0,0.00035628,3560.3,0.00011879,0.0044905,0.00011551,-24.639,-0.00035669,-3572.6,0.44783
12490,9.3793,4.5455,0.05,9.4114e-07,9.405,7.2268e-07,5.4299,4.4264e-12,8.6348e-07,-7.2269e-07,-5.43,0.45603
12491,9.3793,4.2727,0,0.00035336,3531.1,0.00011794,0.004068,0.00011436,-26.883,-0.00035381,-3544.5,0.45693
12492,9.2874,4.3636,0,0.00035598,3557.4,0.00011885,0.0041399,0.00011515,-27.79,-0.00035645,-3571.2,0.44843
12493,9.3793,4.3636,0.05,9.4148e-07,9.4083,7.2293e-07,5.4318,4.4384e-12,3.2669e-07,-7.2294e-07,-5.4319,0.45663
12494,9.3793,4.0909,0,0.00035312,3528.7,0.00011798,0.0037759,0.00011407,-29.409,-0.00035361,-3543.4,0.45742
12495,9.2874,4.1818,0,0.00035571,3554.7,0.0001189,0.0038097,0.00011482,-30.628,-0.00035623,-3569.9,0.44896
12496,9.3793,4.1818,0.05,9.417e-07,9.4105,7.2311e-07,5.4331,4.4405e-12,9.0555e-07,-7.2311e-07,-5.4332,0.45716
12497,9.3793,3.9091,0,0.00035291,3526.7,0.00011802,0.0035074,0.00011382,-31.601,-0.00035344,-3542.4,0.45783
12498,9.2874,4,0,0.00035548,3552.3,0.00011895,0.0035052,0.00011454,-33.123,-0.00035603,-3568.8,0.44941
12499,9.3793,4,0.05,9.4184e-07,9.4119,7.2321e-07,5.4339,4.4561e-12,1.0172e-06,-7.2322e-07,-5.434,0.45761
12500,9.3793,3.7273,0,0.00035274,3525,0.00011806,0.003272,0.00011361,-33.433,-0.0003533,-3541.6,0.45817
12501,9.2874,3.8182,0,0.00035528,3550.4,0.00011898,0.0032333,0.00011429,-35.249,-0.00035587,-3567.9,0.44979
12502,9.3793,3.8182,0.05,9.4191e-07,9.4126,7.2327e-07,5.4343,3.5586e-12,1.5886e-06,-7.2328e-07,-5.4344,0.45798
12503,9.3793,3.5455,0,0.00035261,3523.6,0.00011808,0.0030797,0.00011344,-34.882,-0.00035319,-3540.9,0.45843
12504,9.2874,3.6364,0,0.00035512,3548.7,0.00011902,0.0030048,0.00011409,-36.98,-0.00035573,-3567.1,0.45009
12505,9.3793,3.6364,0.05,9.4194e-07,9.4129,7.2329e-07,5.4345,3.5788e-12,2.9404e-06,-7.233e-07,-5.4346,0.45828
12506,9.3793,3.3636,0,0.00035251,3522.6,0.0001181,0.002937,0.00011332,-35.931,-0.00035311,-3540.5,0.45862
12507,9.2874,3.4545,0,0.000355,3547.5,0.00011904,0.0028274,0.00011394,-38.298,-0.00035563,-3566.5,0.45032
12508,9.3793,3.4545,0.05,9.4195e-07,9.413,7.2329e-07,5.4345,3.5948e-12,2.0673e-06,-7.233e-07,-5.4346,0.45851
12509,9.3793,3.1818,0,0.00035245,3522.1,0.00011811,0.0028485,0.00011325,-36.566,-0.00035306,-3540.2,0.45873
12510,9.2874,3.2727,0,0.00035491,3546.7,0.00011906,0.002705,0.00011384,-39.185,-0.00035556,-3566.1,0.45047
12511,9.3793,3.2727,0.05,9.4194e-07,9.4129,7.2329e-07,5.4345,3.6134e-12,2.202e-06,-7.233e-07,-5.4346,0.45866
12512,9.3793,3,0,0.00035243,3521.9,0.00011812,0.0028185,0.00011322,-36.779,-0.00035304,-3540.1,0.45877
12513,9.2874,3.0909,0,0.00035487,3546.3,0.00011907,0.0026421,0.00011379,-39.632,-0.00035553,-3565.9,0.45054
12514,9.3793,3.0909,0.05,9.4194e-07,9.4129,7.2329e-07,5.4345,2.7207e-12,3.2796e-06,-7.2329e-07,-5.4346,0.45873
12515,9.3793,2.8182,0,0.00035245,3522.1,0.00011811,0.0028485,0.00011325,-36.566,-0.00035306,-3540.2,0.45873
12516,9.2874,2.9091,0,0.00035487,3546.3,0.00011907,0.0026424,0.00011379,-39.632,-0.00035553,-3565.9,0.45054
12517,9.3793,2.9091,0.05,9.4194e-07,9.4129,7.2329e-07,5.4345,2.7358e-12,3.3938e-06,-7.2329e-07,-5.4346,0.45873
12518,9.3793,2.6364,0,0.00035251,3522.6,0.0001181,0.0029372,0.00011332,-35.931,-0.00035311,-3540.5,0.45862
12519,9.2874,2.7273,0,0.00035491,3546.7,0.00011906,0.0027049,0.00011384,-39.185,-0.00035556,-3566.1,0.45047
12520,9.3793,2.7273,0.05,9.4194e-07,9.4129,7.2329e-07,5.4345,2.7492e-12,3.4968e-06,-7.233e-07,-5.4346,0.45866
12521,9.3793,2.4545,0,0.00035261,3523.6,0.00011808,0.0030801,0.00011344,-34.882,-0.00035319,-3540.9,0.45843
12522,9.2874,2.5455,0,0.000355,3547.5,0.00011904,0.0028278,0.00011394,-38.298,-0.00035563,-3566.5,0.45032
12523,9.3793,2.5455,0.05,9.4195e-07,9.413,7.2329e-07,5.4345,2.7592e-12,2.6187e-06,-7.233e-07,-5.4346,0.45851
12524,9.3793,2.2727,0,0.00035274,3525,0.00011806,0.0032724,0.00011361,-33.433,-0.0003533,-3541.6,0.45817
12525,9.2874,2.3636,0,0.00035512,3548.7,0.00011902,0.0030051,0.00011409,-36.98,-0.00035573,-3567.1,0.45009
12526,9.3793,2.3636,0.05,9.4194e-07,9.4129,7.2329e-07,5.4346,9.4748e-13,2.7316e-06,-7.233e-07,-5.4346,0.45828
12527,9.3793,2.0909,0,0.00035291,3526.7,0.00011802,0.0035077,0.00011382,-31.601,-0.00035344,-3542.4,0.45783
12528,9.2874,2.1818,0,0.00035528,3550.4,0.00011898,0.0032337,0.00011429,-35.249,-0.00035587,-3567.9,0.44979
12529,9.3793,2.1818,0.05,9.4191e-07,9.4126,7.2327e-07,5.4344,3.6838e-12,3.7154e-06,-7.2327e-07,-5.4344,0.45798
12530,9.3793,1.9091,0,0.00035312,3528.7,0.00011798,0.0037765,0.00011407,-29.409,-0.00035361,-3543.4,0.45742
12531,9.2874,2,0,0.00035548,3552.3,0.00011895,0.0035053,0.00011454,-33.123,-0.00035603,-3568.8,0.44941
12532,9.3793,2,0.05,9.4184e-07,9.4119,7.2322e-07,5.4339,1.8764e-12,2.7962e-06,-7.2322e-07,-5.434,0.45761
12533,9.3793,1.7273,0,0.00035336,3531.1,0.00011794,0.0040687,0.00011436,-26.883,-0.00035381,-3544.5,0.45693
12534,9.2874,1.8182,0,0.00035571,3554.7,0.0001189,0.0038104,0.00011482,-30.628,-0.00035623,-3569.9,0.44896
12535,9.3793,1.8182,0.05,9.417e-07,9.4105,7.2311e-07,5.4332,1.8728e-12,3.3609e-06,-7.2311e-07,-5.4332,0.45716
12536,9.3793,1.5455,0,0.00035362,3533.8,0.00011789,0.0043769,0.00011468,-24.049,-0.00035403,-3545.8,0.45637
12537,9.2874,1.6364,0,0.00035598,3557.4,0.00011885,0.0041403,0.00011515,-27.79,-0.00035645,-3571.2,0.44843
12538,9.3793,1.6364,0.05,9.4148e-07,9.4083,7.2294e-07,5.4319,9.7497e-13,2.8006e-06,-7.2294e-07,-5.4319,0.45663
12539,9.3793,1.3636,0,0.00035392,3536.8,0.00011783,0.0046874,0.00011504,-20.939,-0.00035427,-3547.2,0.45573
12540,9.2874,1.4545,0,0.00035628,3560.3,0.00011879,0.0044913,0.00011551,-24.64,-0.00035669,-3572.6,0.44783
12541,9.3793,1.4545,0.05,9.4114e-07,9.405,7.2268e-07,5.43,1.877e-12,2.4367e-06,-7.2269e-07,-5.43,0.45603
12542,9.3793,1.1818,0,0.00035424,3540,0.00011777,0.0050046,0.00011543,-17.583,-0.00035454,-3548.7,0.45501
12543,9.2874,1.2727,0,0.00035661,3563.6,0.00011873,0.0048427,0.00011591,-21.206,-0.00035696,-3574.2,0.44715
12544,9.3793,1.2727,0.05,9.4068e-07,9.4003,7.2232e-07,5.4273,3.8703e-14,2.3152e-06,-7.2232e-07,-5.4273,0.45536
12545,9.3793,1,0,0.00035459,3543.4,0.00011771,0.0052727,0.00011584,-14.009,-0.00035482,-3550.4,0.45422
12546,9.2874,1.0909,0,0.00035696,3567.1,0.00011866,0.0052316,0.00011633,-17.522,-0.00035725,-3575.8,0.44639
12547,9.3793,1.0909,0.05,9.4005e-07,9.394,7.2184e-07,5.4237,7.1158e-14,1.6161e-06,-7.2184e-07,-5.4237,0.4546
12548,9.3793,0.81818,0,0.00035495,3547.1,0.00011764,0.0057169,0.00011628,-10.248,-0.00035513,-3552.2,0.45336
12549,9.2874,0.90909,0,0.00035733,3570.9,0.00011859,0.0055105,0.00011678,-13.617,-0.00035756,-3577.7,0.44556
12550,9.3793,0.90909,0.05,9.3924e-07,9.3859,7.2122e-07,5.419,5.2682e-14,1.8694e-06,-7.2122e-07,-5.419,0.45377
12551,9.3793,0.63636,0,0.00035534,3550.9,0.00011757,0.0054513,0.00011673,-6.3249,-0.00035544,-3554.1,0.45241
12552,9.2874,0.72727,0,0.00035773,3574.8,0.00011852,0.0063505,0.00011725,-9.5219,-0.00035789,-3579.6,0.44465
12553,9.3793,0.72727,0.05,9.3805e-07,9.3741,7.2031e-07,5.4121,6.4759e-14,1.9084e-06,-7.2031e-07,-5.4121,0.45287
12554,9.3793,0.45455,0,0.00035574,3555,0.00011751,0.0097181,0.00011721,-2.2378,-0.00035578,-3556.1,0.45139
12555,9.2874,0.54545,0,0.00035815,3579,0.00011845,0.0052657,0.00011775,-5.2627,-0.00035824,-3581.6,0.44366
12556,9.3793,0.54545,0.05,9.338e-07,9.3315,7.1704e-07,5.3876,8.5013e-15,1.4272e-06,-7.1704e-07,-5.3876,0.45189
12557,9.3793,0.27273,0,0.00035623,3559.9,0.00011776,2.4285,0.00011744,-0.0064507,-0.00035619,-3558.7,0.45029
12558,9.2874,0.36364,0,0.00035859,3583.4,0.00011838,0.020936,0.00011827,-0.81502,-0.0003586,-3583.8,0.44259
12559,9.3793,0.36364,0.05,8.856e-07,8.8499,6.8003e-07,5.1095,2.3131e-14,2.1872e-06,-6.8003e-07,-5.1095,0.45083
12560,9.2874,0.18182,0,0.00035918,3589.3,0.00011892,4.6594,0.0001183,-0.022121,-0.0003591,-3587,0.44145
12561,9.3793,0.18182,0.05,1.6988e-07,1.6976,1.3045e-07,0.98013,-1.7498e-12,1.6144e-06,-1.3044e-07,-0.98013,0.44969
12562,9.3793,0.090909,0,0.00035626,3560.1,0.00011789,3.8731,0.00011737,-0.0063481,-0.00035619,-3558.2,0.44912
12563,9.1954,5.7273,0,0.00036152,3612.7,0.00011942,1.3737,0.00011923,-0.023247,-0.0003615,-3612.1,0.43383
12564,9.1034,5.8182,0,0.0003645,3642.5,0.00012061,3.8446,0.00012009,-0.033032,-0.00036444,-3640.6,0.4251
12565,9.1954,5.8182,0.05,1.8408e-07,1.8395,1.4134e-07,1.062,2.8949e-12,-1.4534e-05,-1.4135e-07,-1.0621,0.43322
12566,9.1954,5.9091,0,0.00036161,3613.6,0.00011962,3.4117,0.00011916,-0.010242,-0.00036155,-3611.9,0.43264
12567,9.1954,5.5455,0,0.00036099,3607.4,0.00011932,0.011793,0.0001188,-3.8551,-0.00036106,-3609.3,0.43494
12568,9.1034,5.6364,0,0.00036387,3636.2,0.00012019,0.022634,0.00011989,-2.1917,-0.00036391,-3637.3,0.42626
12569,9.1954,5.6364,0.05,8.9099e-07,8.9038,6.8417e-07,5.1405,7.172e-12,4.0538e-07,-6.8418e-07,-5.1407,0.43437
12570,9.1954,5.3636,0,0.00036054,3602.9,0.0001194,0.0060605,0.00011827,-8.4762,-0.00036068,-3607.1,0.43597
12571,9.1034,5.4545,0,0.00036338,3631.3,0.00012027,0.0060805,0.00011931,-7.2007,-0.0003635,-3634.9,0.42734
12572,9.1954,5.4545,0.05,9.3879e-07,9.3814,7.2087e-07,5.4163,5.3306e-12,1.3194e-06,-7.2088e-07,-5.4165,0.43544
12573,9.1954,5.1818,0,0.00036011,3598.6,0.00011948,0.0061268,0.00011776,-12.907,-0.00036033,-3605.1,0.43693
12574,9.1034,5.2727,0,0.00036292,3626.7,0.00012036,0.0070032,0.00011876,-11.996,-0.00036312,-3632.7,0.42834
12575,9.1954,5.2727,0.05,9.4312e-07,9.4247,7.2419e-07,5.4413,6.2281e-12,-4.7791e-08,-7.242e-07,-5.4414,0.43644
12576,9.1954,5,0,0.0003597,3594.6,0.00011955,0.0054633,0.00011727,-17.144,-0.00035999,-3603.1,0.43781
12577,9.1034,5.0909,0,0.00036248,3622.3,0.00012044,0.0058277,0.00011823,-16.598,-0.00036276,-3630.5,0.42926
12578,9.1954,5.0909,0.05,9.4441e-07,9.4376,7.2518e-07,5.4487,4.41e-12,-1.9494e-07,-7.252e-07,-5.4489,0.43735
12579,9.1954,4.8182,0,0.00035932,3590.7,0.00011962,0.0050659,0.00011681,-21.159,-0.00035968,-3601.3,0.4386
12580,9.1034,4.9091,0,0.00036206,3618.1,0.00012052,0.0053935,0.00011773,-20.976,-0.00036241,-3628.5,0.4301
12581,9.1954,4.9091,0.05,9.4534e-07,9.4469,7.259e-07,5.4541,7.1143e-12,9.0205e-08,-7.2591e-07,-5.4542,0.43819
12582,9.1954,4.6364,0,0.00035896,3587.2,0.00011969,0.0046427,0.00011637,-24.919,-0.00035938,-3599.5,0.43933
12583,9.1034,4.7273,0,0.00036167,3614.2,0.00012059,0.0048707,0.00011725,-25.097,-0.00036209,-3626.7,0.43086
12584,9.1954,4.7273,0.05,9.4608e-07,9.4542,7.2647e-07,5.4583,6.2186e-12,-1.4321e-07,-7.2647e-07,-5.4585,0.43895
12585,9.1954,4.4545,0,0.00035863,3583.9,0.00011975,0.0042506,0.00011597,-28.392,-0.00035911,-3598,0.43997
12586,9.1034,4.5455,0,0.00036131,3610.6,0.00012066,0.00442,0.00011681,-28.928,-0.00036179,-3625,0.43155
12587,9.1954,4.5455,0.05,9.4666e-07,9.46,7.2691e-07,5.4617,3.4884e-12,5.5859e-07,-7.2692e-07,-5.4618,0.43963
12588,9.1954,4.2727,0,0.00035834,3580.9,0.00011981,0.0038776,0.00011561,-31.547,-0.00035886,-3596.6,0.44054
12589,9.1034,4.3636,0,0.00036098,3607.3,0.00012073,0.0039901,0.00011641,-32.435,-0.00036152,-3623.4,0.43216
12590,9.1954,4.3636,0.05,9.471e-07,9.4645,7.2725e-07,5.4643,4.4213e-12,1.1569e-07,-7.2726e-07,-5.4644,0.44024
12591,9.1954,4.0909,0,0.00035807,3578.3,0.00011986,0.0035347,0.00011529,-34.353,-0.00035865,-3595.3,0.44103
12592,9.1034,4.1818,0,0.00036068,3604.4,0.00012078,0.0035976,0.00011605,-35.586,-0.00036128,-3622,0.4327
12593,9.1954,4.1818,0.05,9.4743e-07,9.4678,7.2751e-07,5.4661,4.4384e-12,-4.3494e-07,-7.2751e-07,-5.4663,0.44077
12594,9.1954,3.9091,0,0.00035785,3576,0.00011991,0.0032267,0.00011501,-36.781,-0.00035846,-3594.2,0.44145
12595,9.1034,4,0,0.00036043,3601.8,0.00012084,0.0032436,0.00011573,-38.35,-0.00036106,-3620.8,0.43315
12596,9.1954,4,0.05,9.4767e-07,9.4701,7.2769e-07,5.4675,5.3562e-12,1.1992e-06,-7.2769e-07,-5.4676,0.44123
12597,9.1954,3.7273,0,0.00035766,3574.1,0.00011994,0.0029617,0.00011478,-38.806,-0.0003583,-3593.4,0.44179
12598,9.1034,3.8182,0,0.00036021,3599.6,0.00012088,0.0029343,0.00011546,-40.7,-0.00036088,-3619.8,0.43353
12599,9.1954,3.8182,0.05,9.4782e-07,9.4717,7.2781e-07,5.4684,3.5572e-12,1.3054e-06,-7.2781e-07,-5.4685,0.44161
12600,9.1954,3.5455,0,0.00035751,3572.6,0.00011997,0.002748,0.0001146,-40.406,-0.00035818,-3592.7,0.44206
12601,9.1034,3.6364,0,0.00036003,3597.8,0.00012091,0.0026775,0.00011524,-42.612,-0.00036073,-3618.9,0.43384
12602,9.1954,3.6364,0.05,9.4792e-07,9.4727,7.2788e-07,5.469,3.5716e-12,2.8547e-06,-7.2789e-07,-5.4691,0.44191
12603,9.1954,3.3636,0,0.0003574,3571.5,0.00012,0.0025909,0.00011446,-41.562,-0.00035809,-3592.1,0.44225
12604,9.1034,3.4545,0,0.00035989,3596.5,0.00012094,0.0024802,0.00011508,-44.064,-0.00036062,-3618.3,0.43407
12605,9.1954,3.4545,0.05,9.4799e-07,9.4733,7.2793e-07,5.4694,3.5933e-12,2.031e-06,-7.2794e-07,-5.4695,0.44214
12606,9.1954,3.1818,0,0.00035734,3570.9,0.00012001,0.002494,0.00011438,-42.261,-0.00035804,-3591.8,0.44236
12607,9.1034,3.2727,0,0.0003598,3595.5,0.00012096,0.002345,0.00011496,-45.041,-0.00036055,-3617.9,0.43422
12608,9.1954,3.2727,0.05,9.4802e-07,9.4736,7.2796e-07,5.4696,3.6118e-12,2.184e-06,-7.2796e-07,-5.4697,0.44229
12609,9.1954,3,0,0.00035731,3570.7,0.00012001,0.0024614,0.00011436,-42.495,-0.00035802,-3591.7,0.4424
12610,9.1034,3.0909,0,0.00035976,3595.1,0.00012097,0.0022758,0.00011491,-45.533,-0.00036051,-3617.6,0.43429
12611,9.1954,3.0909,0.05,9.4803e-07,9.4738,7.2797e-07,5.4697,2.7199e-12,1.8436e-06,-7.2798e-07,-5.4697,0.44236
12612,9.1954,2.8182,0,0.00035734,3570.9,0.00012001,0.0024943,0.00011438,-42.261,-0.00035804,-3591.8,0.44236
12613,9.1034,2.9091,0,0.00035976,3595.1,0.00012097,0.0022761,0.00011491,-45.533,-0.00036051,-3617.6,0.43429
12614,9.1954,2.9091,0.05,9.4803e-07,9.4738,7.2797e-07,5.4697,2.7365e-12,2.9229e-06,-7.2798e-07,-5.4697,0.44236
12615,9.1954,2.6364,0,0.0003574,3571.5,0.00012,0.002591,0.00011446,-41.562,-0.00035809,-3592.1,0.44225
12616,9.1034,2.7273,0,0.0003598,3595.5,0.00012096,0.002345,0.00011496,-45.041,-0.00036055,-3617.9,0.43422
12617,9.1954,2.7273,0.05,9.4802e-07,9.4736,7.2796e-07,5.4696,1.8421e-12,3.5073e-06,-7.2796e-07,-5.4697,0.44229
12618,9.1954,2.4545,0,0.00035751,3572.6,0.00011997,0.0027484,0.0001146,-40.406,-0.00035818,-3592.7,0.44206
12619,9.1034,2.5455,0,0.00035989,3596.5,0.00012094,0.0024806,0.00011508,-44.064,-0.00036062,-3618.3,0.43407
12620,9.1954,2.5455,0.05,9.4799e-07,9.4733,7.2794e-07,5.4694,1.8563e-12,2.6413e-06,-7.2793e-07,-5.4695,0.44214
12621,9.1954,2.2727,0,0.00035766,3574.1,0.00011994,0.002962,0.00011478,-38.806,-0.0003583,-3593.4,0.44179
12622,9.1034,2.3636,0,0.00036003,3597.8,0.00012091,0.0026778,0.00011524,-42.612,-0.00036073,-3618.9,0.43384
12623,9.1954,2.3636,0.05,9.4792e-07,9.4727,7.2789e-07,5.4691,2.774e-12,2.2682e-06,-7.2789e-07,-5.4691,0.44191
12624,9.1954,2.0909,0,0.00035785,3576,0.00011991,0.0032269,0.00011501,-36.781,-0.00035846,-3594.2,0.44145
12625,9.1034,2.1818,0,0.00036021,3599.6,0.00012088,0.0029348,0.00011546,-40.7,-0.00036088,-3619.8,0.43353
12626,9.1954,2.1818,0.05,9.4782e-07,9.4717,7.2781e-07,5.4685,2.785e-12,2.3451e-06,-7.2781e-07,-5.4685,0.44161
12627,9.1954,1.9091,0,0.00035807,3578.3,0.00011986,0.003535,0.00011529,-34.353,-0.00035865,-3595.3,0.44103
12628,9.1034,2,0,0.00036043,3601.8,0.00012084,0.003244,0.00011573,-38.35,-0.00036106,-3620.8,0.43315
12629,9.1954,2,0.05,9.4767e-07,9.4701,7.2769e-07,5.4676,9.7775e-13,2.4255e-06,-7.2769e-07,-5.4676,0.44123
12630,9.1954,1.7273,0,0.00035834,3580.9,0.00011981,0.0038781,0.00011561,-31.547,-0.00035886,-3596.6,0.44054
12631,9.1034,1.8182,0,0.00036068,3604.4,0.00012078,0.0035981,0.00011605,-35.586,-0.00036128,-3622,0.4327
12632,9.1954,1.8182,0.05,9.4743e-07,9.4678,7.2751e-07,5.4662,9.8791e-13,2.664e-06,-7.2751e-07,-5.4662,0.44077
12633,9.1954,1.5455,0,0.00035863,3583.9,0.00011975,0.0042511,0.00011597,-28.392,-0.00035911,-3598,0.43997
12634,9.1034,1.6364,0,0.00036098,3607.3,0.00012073,0.0039905,0.00011641,-32.435,-0.00036152,-3623.4,0.43216
12635,9.1954,1.6364,0.05,9.471e-07,9.4645,7.2726e-07,5.4643,2.802e-12,2.2429e-06,-7.2726e-07,-5.4643,0.44024
12636,9.1954,1.3636,0,0.00035896,3587.2,0.00011969,0.0046433,0.00011637,-24.919,-0.00035938,-3599.5,0.43933
12637,9.1034,1.4545,0,0.00036131,3610.6,0.00012066,0.0044208,0.00011681,-28.928,-0.00036179,-3625,0.43155
12638,9.1954,1.4545,0.05,9.4666e-07,9.46,7.2692e-07,5.4618,8.1912e-14,1.9429e-06,-7.2692e-07,-5.4618,0.43963
12639,9.1954,1.1818,0,0.00035932,3590.7,0.00011962,0.0050665,0.00011681,-21.159,-0.00035968,-3601.3,0.4386
12640,9.1034,1.2727,0,0.00036167,3614.2,0.00012059,0.0048714,0.00011725,-25.097,-0.00036209,-3626.7,0.43086
12641,9.1954,1.2727,0.05,9.4608e-07,9.4542,7.2647e-07,5.4584,9.7577e-13,2.001e-06,-7.2647e-07,-5.4584,0.43895
12642,9.1954,1,0,0.0003597,3594.6,0.00011955,0.0054645,0.00011727,-17.144,-0.00035999,-3603.1,0.43781
12643,9.1034,1.0909,0,0.00036206,3618.1,0.00012052,0.0053943,0.00011773,-20.976,-0.00036241,-3628.5,0.4301
12644,9.1954,1.0909,0.05,9.4534e-07,9.4469,7.259e-07,5.4541,9.768e-13,2.0113e-06,-7.259e-07,-5.4541,0.43819
12645,9.1954,0.81818,0,0.00036011,3598.6,0.00011948,0.006128,0.00011776,-12.907,-0.00036033,-3605.1,0.43693
12646,9.1034,0.90909,0,0.00036248,3622.3,0.00012044,0.0058292,0.00011823,-16.598,-0.00036276,-3630.5,0.42926
12647,9.1954,0.90909,0.05,9.4441e-07,9.4376,7.2519e-07,5.4488,6.0578e-14,1.6969e-06,-7.2519e-07,-5.4488,0.43735
12648,9.1954,0.63636,0,0.00036054,3602.9,0.0001194,0.0060611,0.00011827,-8.4762,-0.00036068,-3607.1,0.43597
12649,9.1034,0.72727,0,0.00036292,3626.7,0.00012036,0.0070042,0.00011876,-11.996,-0.00036312,-3632.7,0.42834
12650,9.1954,0.72727,0.05,9.4312e-07,9.4247,7.242e-07,5.4413,-7.9577e-13,1.819e-06,-7.242e-07,-5.4413,0.43644
12651,9.1954,0.45455,0,0.00036099,3607.4,0.00011932,0.011794,0.0001188,-3.8551,-0.00036106,-3609.3,0.43494
12652,9.1034,0.54545,0,0.00036338,3631.3,0.00012027,0.0060809,0.00011931,-7.2007,-0.0003635,-3634.9,0.42734
12653,9.1954,0.54545,0.05,9.3879e-07,9.3814,7.2087e-07,5.4164,2.5594e-14,1.7959e-06,-7.2087e-07,-5.4164,0.43544
12654,9.1954,0.27273,0,0.00036152,3612.7,0.00011942,1.3737,0.00011923,-0.023245,-0.0003615,-3612.1,0.43383
12655,9.1034,0.36364,0,0.00036387,3636.2,0.00012019,0.022635,0.00011989,-2.1916,-0.00036391,-3637.3,0.42626
12656,9.1954,0.36364,0.05,8.9099e-07,8.9038,6.8417e-07,5.1406,2.7128e-14,1.5541e-06,-6.8417e-07,-5.1406,0.43437
12657,9.1034,0.18182,0,0.0003645,3642.5,0.00012061,3.8446,0.00012009,-0.033031,-0.00036444,-3640.6,0.4251
12658,9.1954,0.18182,0.05,1.8407e-07,1.8395,1.4135e-07,1.0621,-1.3325e-12,1.2601e-05,-1.4135e-07,-1.062,0.43322
12659,9.1954,0.090909,0,0.00036161,3613.6,0.00011962,3.4118,0.00011916,-0.01024,-0.00036155,-3611.9,0.43264
12660,9.0115,5.7273,0,0.00036684,3665.8,0.00012109,0.37103,0.00012102,-0.14764,-0.00036683,-3665.7,0.41761
12661,8.9195,5.8182,0,0.00036984,3695.9,0.0001223,2.9922,0.0001219,-0.05184,-0.00036979,-3694.4,0.409
12662,9.0115,5.8182,0.05,2.0015e-07,2.0001,1.5369e-07,1.1547,4.2199e-12,-1.8647e-05,-1.5369e-07,-1.1548,0.417
12663,9.0115,5.9091,0,0.00036698,3667.2,0.00012135,2.9271,0.00012096,-0.016417,-0.00036693,-3665.8,0.41641
12664,9.0115,5.5455,0,0.00036626,3660,0.00012114,0.014008,0.0001204,-5.5536,-0.00036635,-3662.8,0.41874
12665,8.9195,5.6364,0,0.00036917,3689.1,0.00012201,0.025896,0.00012152,-3.6419,-0.00036923,-3690.9,0.41017
12666,9.0115,5.6364,0.05,8.9686e-07,8.9624,6.8868e-07,5.1744,6.2358e-12,5.5407e-07,-6.8868e-07,-5.1746,0.41816
12667,9.0115,5.3636,0,0.00036576,3655,0.00012123,0.006818,0.0001198,-10.736,-0.00036594,-3660.4,0.41978
12668,8.9195,5.4545,0,0.00036863,3683.8,0.00012211,0.0070242,0.00012088,-9.2401,-0.00036879,-3688.4,0.41126
12669,9.0115,5.4545,0.05,9.4416e-07,9.4351,7.25e-07,5.4473,6.2341e-12,2.7339e-07,-7.2501e-07,-5.4475,0.41924
12670,9.0115,5.1818,0,0.00036528,3650.3,0.00012132,0.0066495,0.00011923,-15.701,-0.00036555,-3658.1,0.42075
12671,8.9195,5.2727,0,0.00036812,3678.7,0.0001222,0.0077761,0.00012026,-14.6,-0.00036837,-3685.9,0.41227
12672,9.0115,5.2727,0.05,9.4855e-07,9.4789,7.2836e-07,5.4726,4.3862e-12,-9.7127e-07,-7.2837e-07,-5.4728,0.42025
12673,9.0115,5,0,0.00036483,3645.8,0.00012141,0.005734,0.00011868,-20.443,-0.00036518,-3656,0.42163
12674,8.9195,5.0909,0,0.00036763,3673.8,0.0001223,0.0062311,0.00011967,-19.739,-0.00036797,-3683.6,0.4132
12675,9.0115,5.0909,0.05,9.4994e-07,9.4928,7.2943e-07,5.4806,4.381e-12,-1.8373e-07,-7.2944e-07,-5.4808,0.42117
12676,9.0115,4.8182,0,0.00036441,3641.6,0.00012149,0.0051843,0.00011817,-24.927,-0.00036483,-3654,0.42244
12677,8.9195,4.9091,0,0.00036717,3669.2,0.00012239,0.0056184,0.00011911,-24.62,-0.00036759,-3681.5,0.41405
12678,9.0115,4.9091,0.05,9.5096e-07,9.503,7.3021e-07,5.4865,5.2846e-12,-6.8158e-07,-7.3022e-07,-5.4866,0.42202
12679,9.0115,4.6364,0,0.00036401,3637.6,0.00012156,0.0046379,0.00011769,-29.118,-0.0003645,-3652.1,0.42317
12680,8.9195,4.7273,0,0.00036674,3664.9,0.00012247,0.0049437,0.00011858,-29.208,-0.00036723,-3679.4,0.41483
12681,9.0115,4.7273,0.05,9.5179e-07,9.5114,7.3085e-07,5.4913,4.3667e-12,-1.005e-06,-7.3086e-07,-5.4915,0.42279
12682,9.0115,4.4545,0,0.00036365,3634,0.00012164,0.0041513,0.00011725,-32.982,-0.0003642,-3650.4,0.42382
12683,8.9195,4.5455,0,0.00036635,3660.9,0.00012255,0.0043798,0.00011809,-33.465,-0.0003669,-3677.5,0.41552
12684,9.0115,4.5455,0.05,9.5247e-07,9.5181,7.3137e-07,5.4952,4.3835e-12,5.8016e-07,-7.3138e-07,-5.4953,0.42348
12685,9.0115,4.2727,0,0.00036332,3630.7,0.0001217,0.0037028,0.00011684,-36.484,-0.00036393,-3648.8,0.4244
12686,8.9195,4.3636,0,0.00036598,3657.3,0.00012262,0.003859,0.00011765,-37.355,-0.0003666,-3675.8,0.41614
12687,9.0115,4.3636,0.05,9.53e-07,9.5234,7.3178e-07,5.4983,3.5049e-12,2.6709e-07,-7.3179e-07,-5.4984,0.42409
12688,9.0115,4.0909,0,0.00036303,3627.8,0.00012176,0.0032997,0.00011649,-39.593,-0.00036369,-3647.5,0.42489
12689,8.9195,4.1818,0,0.00036566,3654.1,0.00012268,0.0033942,0.00011725,-40.844,-0.00036634,-3674.3,0.41668
12690,9.0115,4.1818,0.05,9.5341e-07,9.5275,7.321e-07,5.5007,3.5105e-12,-3.9146e-08,-7.321e-07,-5.5008,0.42463
12691,9.0115,3.9091,0,0.00036278,3625.3,0.00012181,0.0029447,0.00011618,-42.279,-0.00036348,-3646.3,0.42532
12692,8.9195,4,0,0.00036537,3651.2,0.00012274,0.0029828,0.0001169,-43.901,-0.0003661,-3673,0.41714
12693,9.0115,4,0.05,9.5372e-07,9.5306,7.3233e-07,5.5024,5.3463e-12,6.6074e-07,-7.3234e-07,-5.5025,0.42509
12694,9.0115,3.7273,0,0.00036258,3623.3,0.00012185,0.0026439,0.00011592,-44.515,-0.00036331,-3645.3,0.42566
12695,8.9195,3.8182,0,0.00036513,3648.8,0.00012279,0.0026287,0.0001166,-46.496,-0.0003659,-3671.8,0.41752
12696,9.0115,3.8182,0.05,9.5394e-07,9.5328,7.325e-07,5.5037,3.5507e-12,1.2558e-06,-7.3251e-07,-5.5038,0.42547
12697,9.0115,3.5455,0,0.00036241,3621.6,0.00012188,0.0024036,0.00011572,-46.279,-0.00036318,-3644.5,0.42593
12698,8.9195,3.6364,0,0.00036494,3646.9,0.00012283,0.0023383,0.00011636,-48.604,-0.00036574,-3670.9,0.41783
12699,9.0115,3.6364,0.05,9.541e-07,9.5344,7.3263e-07,5.5046,3.5689e-12,1.3946e-06,-7.3263e-07,-5.5047,0.42578
12700,9.0115,3.3636,0,0.00036229,3620.4,0.0001219,0.0022283,0.00011558,-47.553,-0.00036308,-3644,0.42612
12701,8.9195,3.4545,0,0.00036479,3645.4,0.00012286,0.0021167,0.00011618,-50.205,-0.00036562,-3670.2,0.41806
12702,9.0115,3.4545,0.05,9.542e-07,9.5354,7.327e-07,5.5053,3.5893e-12,2.0331e-06,-7.3271e-07,-5.5053,0.42601
12703,9.0115,3.1818,0,0.00036222,3619.7,0.00012192,0.0021208,0.00011549,-48.323,-0.00036302,-3643.6,0.42623
12704,8.9195,3.2727,0,0.00036469,3644.4,0.00012288,0.0019655,0.00011605,-51.281,-0.00036553,-3669.7,0.41821
12705,9.0115,3.2727,0.05,9.5426e-07,9.536,7.3275e-07,5.5056,3.6099e-12,1.6932e-06,-7.3275e-07,-5.5057,0.42616
12706,9.0115,3,0,0.0003622,3619.5,0.00012192,0.0020845,0.00011546,-48.58,-0.000363,-3643.5,0.42627
12707,8.9195,3.0909,0,0.00036464,3643.9,0.00012289,0.001889,0.00011599,-51.822,-0.00036549,-3669.5,0.41829
12708,9.0115,3.0909,0.05,9.5429e-07,9.5363,7.3277e-07,5.5057,1.8098e-12,3.2676e-06,-7.3278e-07,-5.5058,0.42624
12709,9.0115,2.8182,0,0.00036222,3619.7,0.00012192,0.0021209,0.00011549,-48.323,-0.00036302,-3643.6,0.42623
12710,8.9195,2.9091,0,0.00036464,3643.9,0.00012289,0.001889,0.00011599,-51.822,-0.00036549,-3669.5,0.41829
12711,9.0115,2.9091,0.05,9.5429e-07,9.5363,7.3277e-07,5.5057,8.8941e-15,2.4506e-06,-7.3278e-07,-5.5058,0.42624
12712,9.0115,2.6364,0,0.00036229,3620.4,0.0001219,0.0022286,0.00011558,-47.553,-0.00036308,-3644,0.42612
12713,8.9195,2.7273,0,0.00036469,3644.4,0.00012288,0.0019658,0.00011605,-51.281,-0.00036553,-3669.7,0.41821
12714,9.0115,2.7273,0.05,9.5426e-07,9.536,7.3275e-07,5.5056,3.663e-12,4.0046e-06,-7.3276e-07,-5.5057,0.42616
12715,9.0115,2.4545,0,0.00036241,3621.6,0.00012188,0.0024039,0.00011572,-46.279,-0.00036318,-3644.5,0.42593
12716,8.9195,2.5455,0,0.00036479,3645.4,0.00012286,0.0021169,0.00011618,-50.205,-0.00036562,-3670.2,0.41806
12717,9.0115,2.5455,0.05,9.542e-07,9.5354,7.3271e-07,5.5053,2.7703e-12,2.7087e-06,-7.3271e-07,-5.5053,0.42601
12718,9.0115,2.2727,0,0.00036258,3623.3,0.00012185,0.0026443,0.00011592,-44.515,-0.00036331,-3645.3,0.42566
12719,8.9195,2.3636,0,0.00036494,3646.9,0.00012283,0.0023384,0.00011636,-48.604,-0.00036574,-3670.9,0.41783
12720,9.0115,2.3636,0.05,9.541e-07,9.5344,7.3263e-07,5.5047,1.8743e-12,2.3052e-06,-7.3263e-07,-5.5047,0.42578
12721,9.0115,2.0909,0,0.00036278,3625.3,0.00012181,0.0029454,0.00011618,-42.279,-0.00036348,-3646.3,0.42532
12722,8.9195,2.1818,0,0.00036513,3648.8,0.00012279,0.0026293,0.0001166,-46.496,-0.0003659,-3671.8,0.41752
12723,9.0115,2.1818,0.05,9.5394e-07,9.5328,7.3251e-07,5.5038,9.6983e-13,2.4741e-06,-7.3251e-07,-5.5038,0.42547
12724,9.0115,1.9091,0,0.00036303,3627.8,0.00012176,0.0033003,0.00011649,-39.593,-0.00036369,-3647.5,0.42489
12725,8.9195,2,0,0.00036537,3651.2,0.00012274,0.0029832,0.0001169,-43.901,-0.0003661,-3673,0.41714
12726,9.0115,2,0.05,9.5372e-07,9.5306,7.3233e-07,5.5025,7.2423e-14,2.9547e-06,-7.3234e-07,-5.5025,0.42509
12727,9.0115,1.7273,0,0.00036332,3630.7,0.0001217,0.0037033,0.00011684,-36.484,-0.00036393,-3648.8,0.4244
12728,8.9195,1.8182,0,0.00036566,3654.1,0.00012268,0.0033948,0.00011725,-40.844,-0.00036634,-3674.3,0.41668
12729,9.0115,1.8182,0.05,9.5341e-07,9.5275,7.321e-07,5.5007,1.9001e-12,2.4924e-06,-7.321e-07,-5.5007,0.42463
12730,9.0115,1.5455,0,0.00036365,3634,0.00012164,0.004152,0.00011725,-32.982,-0.0003642,-3650.4,0.42382
12731,8.9195,1.6364,0,0.00036598,3657.3,0.00012262,0.0038596,0.00011765,-37.355,-0.0003666,-3675.8,0.41614
12732,9.0115,1.6364,0.05,9.53e-07,9.5234,7.3179e-07,5.4983,9.9142e-13,2.043e-06,-7.3178e-07,-5.4983,0.42409
12733,9.0115,1.3636,0,0.00036401,3637.6,0.00012156,0.0046389,0.00011769,-29.118,-0.0003645,-3652.1,0.42317
12734,8.9195,1.4545,0,0.00036635,3660.9,0.00012255,0.0043806,0.00011809,-33.465,-0.0003669,-3677.5,0.41552
12735,9.0115,1.4545,0.05,9.5247e-07,9.5181,7.3138e-07,5.4953,9.8764e-13,1.7859e-06,-7.3138e-07,-5.4953,0.42348
12736,9.0115,1.1818,0,0.00036441,3641.6,0.00012149,0.0051852,0.00011817,-24.927,-0.00036483,-3654,0.42244
12737,8.9195,1.2727,0,0.00036674,3664.9,0.00012247,0.0049445,0.00011858,-29.208,-0.00036723,-3679.4,0.41483
12738,9.0115,1.2727,0.05,9.5179e-07,9.5114,7.3086e-07,5.4914,9.935e-13,2.1537e-06,-7.3086e-07,-5.4914,0.42279
12739,9.0115,1,0,0.00036483,3645.8,0.00012141,0.0057353,0.00011868,-20.443,-0.00036518,-3656,0.42163
12740,8.9195,1.0909,0,0.00036717,3669.2,0.00012239,0.0056193,0.00011911,-24.62,-0.00036759,-3681.5,0.41405
12741,9.0115,1.0909,0.05,9.5096e-07,9.503,7.3022e-07,5.4866,6.5745e-14,1.9772e-06,-7.3022e-07,-5.4866,0.42202
12742,9.0115,0.81818,0,0.00036528,3650.3,0.00012132,0.0066508,0.00011923,-15.701,-0.00036555,-3658.1,0.42075
12743,8.9195,0.90909,0,0.00036763,3673.8,0.0001223,0.0062327,0.00011967,-19.739,-0.00036797,-3683.6,0.4132
12744,9.0115,0.90909,0.05,9.4994e-07,9.4928,7.2943e-07,5.4807,5.5113e-14,2.1187e-06,-7.2943e-07,-5.4807,0.42117
12745,9.0115,0.63636,0,0.00036576,3655,0.00012123,0.0068187,0.0001198,-10.736,-0.00036594,-3660.4,0.41978
12746,8.9195,0.72727,0,0.00036812,3678.7,0.0001222,0.007777,0.00012026,-14.6,-0.00036837,-3685.9,0.41227
12747,9.0115,0.72727,0.05,9.4855e-07,9.4789,7.2837e-07,5.4727,8.5654e-14,1.9039e-06,-7.2837e-07,-5.4727,0.42025
12748,9.0115,0.45455,0,0.00036626,3660,0.00012114,0.014009,0.0001204,-5.5536,-0.00036635,-3662.8,0.41874
12749,8.9195,0.54545,0,0.00036863,3683.8,0.00012211,0.0070246,0.00012088,-9.2401,-0.00036879,-3688.4,0.41126
12750,9.0115,0.54545,0.05,9.4416e-07,9.4351,7.25e-07,5.4474,-8.4692e-13,2.1641e-06,-7.25e-07,-5.4474,0.41924
12751,9.0115,0.27273,0,0.00036684,3665.8,0.00012109,0.37104,0.00012102,-0.14763,-0.00036683,-3665.7,0.41761
12752,8.9195,0.36364,0,0.00036917,3689.1,0.00012201,0.025896,0.00012152,-3.6419,-0.00036923,-3690.9,0.41017
12753,9.0115,0.36364,0.05,8.9686e-07,8.9624,6.8868e-07,5.1745,-8.2537e-13,1.5936e-06,-6.8868e-07,-5.1745,0.41816
12754,8.9195,0.18182,0,0.00036984,3695.9,0.0001223,2.9923,0.0001219,-0.051838,-0.00036979,-3694.4,0.409
12755,9.0115,0.18182,0.05,2.0015e-07,2.0001,1.5369e-07,1.1548,6.4932e-13,7.3298e-06,-1.5369e-07,-1.1547,0.417
12756,9.0115,0.090909,0,0.00036698,3667.2,0.00012135,2.9271,0.00012096,-0.016416,-0.00036693,-3665.8,0.41641
12757,8.8276,5.7273,0,0.00037217,3719.1,0.00012287,0.081491,0.00012272,-1.0469,-0.00037218,-3719.6,0.40165
12758,8.7356,5.8182,0,0.00037521,3749.5,0.000124,2.1095,0.00012371,-0.089234,-0.00037518,-3748.5,0.39315
12759,8.8276,5.8182,0.05,2.1814e-07,2.1799,1.675e-07,1.2585,3.533e-12,-2.3286e-05,-1.6751e-07,-1.2587,0.40102
12760,8.8276,5.9091,0,0.00037237,3721.1,0.00012309,2.419,0.00012276,-0.026633,-0.00037233,-3719.9,0.40043
12761,8.8276,5.5455,0,0.00037154,3712.8,0.00012297,0.01637,0.00012199,-7.3444,-0.00037166,-3716.5,0.40278
12762,8.7356,5.6364,0,0.00037449,3742.3,0.00012384,0.029618,0.00012315,-5.1733,-0.00037457,-3744.8,0.39434
12763,8.8276,5.6364,0.05,9.0321e-07,9.0259,6.9355e-07,5.211,4.372e-12,6.6054e-07,-6.9356e-07,-5.2112,0.4022
12764,8.8276,5.3636,0,0.00037099,3707.4,0.00012308,0.0076922,0.00012133,-13.119,-0.00037121,-3713.9,0.40383
12765,8.7356,5.4545,0,0.0003739,3736.4,0.00012395,0.0080774,0.00012243,-11.394,-0.00037409,-3742.1,0.39544
12766,8.8276,5.4545,0.05,9.4992e-07,9.4926,7.2941e-07,5.4805,7.0657e-12,7.501e-07,-7.2943e-07,-5.4806,0.40329
12767,8.8276,5.1818,0,0.00037047,3702.1,0.00012318,0.0072668,0.00012069,-18.651,-0.00037078,-3711.4,0.40481
12768,8.7356,5.2727,0,0.00037334,3730.8,0.00012406,0.0086546,0.00012175,-17.353,-0.00037363,-3739.4,0.39646
12769,8.8276,5.2727,0.05,9.5435e-07,9.5369,7.3281e-07,5.506,7.0316e-12,-5.3754e-07,-7.3283e-07,-5.5062,0.40431
12770,8.8276,5,0,0.00036997,3697.2,0.00012328,0.0060731,0.00012009,-23.929,-0.00037037,-3709.1,0.4057
12771,8.7356,5.0909,0,0.0003728,3725.5,0.00012417,0.0067107,0.0001211,-23.062,-0.00037319,-3736.9,0.39739
12772,8.8276,5.0909,0.05,9.5582e-07,9.5516,7.3394e-07,5.5146,4.3803e-12,-2.9759e-07,-7.3396e-07,-5.5147,0.40524
12773,8.8276,4.8182,0,0.00036951,3692.5,0.00012337,0.0053529,0.00011952,-28.913,-0.00036999,-3706.9,0.40652
12774,8.7356,4.9091,0,0.0003723,3720.4,0.00012427,0.0059004,0.00012048,-28.48,-0.00037277,-3734.6,0.39825
12775,8.8276,4.9091,0.05,9.5693e-07,9.5627,7.348e-07,5.5209,5.2687e-12,-4.4634e-07,-7.348e-07,-5.5211,0.4061
12776,8.8276,4.6364,0,0.00036907,3688.2,0.00012345,0.0046683,0.00011899,-33.566,-0.00036963,-3704.8,0.40726
12777,8.7356,4.7273,0,0.00037182,3715.7,0.00012436,0.0050573,0.00011989,-33.566,-0.00037238,-3732.3,0.39904
12778,8.8276,4.7273,0.05,9.5784e-07,9.5718,7.355e-07,5.5262,5.2434e-12,-4.3746e-07,-7.355e-07,-5.5263,0.40687
12779,8.8276,4.4545,0,0.00036867,3684.2,0.00012353,0.0040742,0.00011849,-37.848,-0.0003693,-3703,0.40792
12780,8.7356,4.5455,0,0.00037139,3711.3,0.00012445,0.0043668,0.00011935,-38.28,-0.00037202,-3730.3,0.39974
12781,8.8276,4.5455,0.05,9.5859e-07,9.5792,7.3607e-07,5.5305,5.2517e-12,5.5106e-07,-7.3608e-07,-5.5307,0.40757
12782,8.8276,4.2727,0,0.00036831,3680.6,0.0001236,0.0035394,0.00011805,-41.725,-0.00036901,-3701.3,0.4085
12783,8.7356,4.3636,0,0.00037099,3707.3,0.00012453,0.0037437,0.00011886,-42.583,-0.00037169,-3728.4,0.40036
12784,8.8276,4.3636,0.05,9.5919e-07,9.5853,7.3653e-07,5.534,3.4827e-12,-2.0447e-07,-7.3654e-07,-5.5341,0.40819
12785,8.8276,4.0909,0,0.000368,3677.4,0.00012367,0.0030676,0.00011766,-45.162,-0.00036874,-3699.8,0.409
12786,8.7356,4.1818,0,0.00037063,3703.8,0.0001246,0.0031968,0.00011842,-46.438,-0.0003714,-3726.8,0.4009
12787,8.8276,4.1818,0.05,9.5966e-07,9.59,7.369e-07,5.5367,3.496e-12,2.7972e-07,-7.369e-07,-5.5369,0.40873
12788,8.8276,3.9091,0,0.00036772,3674.7,0.00012372,0.0026579,0.00011732,-48.128,-0.00036852,-3698.5,0.40942
12789,8.7356,4,0,0.00037032,3700.7,0.00012467,0.0027202,0.00011804,-49.812,-0.00037114,-3725.3,0.40137
12790,8.8276,4,0.05,9.6002e-07,9.5936,7.3718e-07,5.5388,3.515e-12,4.8203e-07,-7.3718e-07,-5.5389,0.4092
12791,8.8276,3.7273,0,0.00036749,3672.4,0.00012377,0.0023148,0.00011704,-50.594,-0.00036833,-3697.4,0.40977
12792,8.7356,3.8182,0,0.00037006,3698,0.00012472,0.0023141,0.00011771,-52.673,-0.00037092,-3724.1,0.40176
12793,8.8276,3.8182,0.05,9.6029e-07,9.5963,7.3738e-07,5.5404,4.452e-12,1.9008e-07,-7.3739e-07,-5.5405,0.40958
12794,8.8276,3.5455,0,0.00036731,3670.6,0.00012381,0.0020435,0.00011681,-52.539,-0.00036818,-3696.6,0.41004
12795,8.7356,3.6364,0,0.00036984,3695.9,0.00012476,0.0019844,0.00011744,-54.996,-0.00037075,-3723.1,0.40207
12796,8.8276,3.6364,0.05,9.6049e-07,9.5983,7.3753e-07,5.5415,3.5599e-12,1.301e-06,-7.3754e-07,-5.5416,0.40989
12797,8.8276,3.3636,0,0.00036718,3669.3,0.00012383,0.0018463,0.00011665,-53.941,-0.00036807,-3696,0.41023
12798,8.7356,3.4545,0,0.00036968,3694.3,0.0001248,0.0017344,0.00011724,-56.758,-0.00037061,-3722.3,0.4023
12799,8.8276,3.4545,0.05,9.6062e-07,9.5996,7.3763e-07,5.5423,3.5836e-12,2.4503e-06,-7.3764e-07,-5.5424,0.41012
12800,8.8276,3.1818,0,0.00036711,3668.5,0.00012385,0.0017261,0.00011656,-54.788,-0.00036801,-3695.6,0.41035
12801,8.7356,3.2727,0,0.00036957,3693.2,0.00012482,0.0015644,0.00011711,-57.942,-0.00037052,-3721.8,0.40245
12802,8.8276,3.2727,0.05,9.6071e-07,9.6004,7.377e-07,5.5427,1.7872e-12,1.6686e-06,-7.3771e-07,-5.5429,0.41028
12803,8.8276,3,0,0.00036708,3668.3,0.00012385,0.001686,0.00011652,-55.072,-0.00036799,-3695.5,0.41039
12804,8.7356,3.0909,0,0.00036952,3692.6,0.00012483,0.0014789,0.00011704,-58.537,-0.00037048,-3721.5,0.40253
12805,8.8276,3.0909,0.05,9.6074e-07,9.6008,7.3773e-07,5.543,2.7183e-12,1.8313e-06,-7.3773e-07,-5.5431,0.41035
12806,8.8276,2.8182,0,0.00036711,3668.5,0.00012385,0.0017264,0.00011656,-54.788,-0.00036801,-3695.6,0.41035
12807,8.7356,2.9091,0,0.00036952,3692.6,0.00012483,0.0014789,0.00011704,-58.537,-0.00037048,-3721.5,0.40253
12808,8.8276,2.9091,0.05,9.6074e-07,9.6008,7.3773e-07,5.543,1.8287e-12,2.9344e-06,-7.3773e-07,-5.5431,0.41035
12809,8.8276,2.6364,0,0.00036718,3669.3,0.00012383,0.0018465,0.00011665,-53.941,-0.00036807,-3696,0.41023
12810,8.7356,2.7273,0,0.00036957,3693.2,0.00012482,0.0015647,0.00011711,-57.942,-0.00037052,-3721.8,0.40245
12811,8.8276,2.7273,0.05,9.6071e-07,9.6004,7.377e-07,5.5427,1.8471e-12,2.5852e-06,-7.377e-07,-5.5429,0.41028
12812,8.8276,2.4545,0,0.00036731,3670.6,0.00012381,0.0020435,0.00011681,-52.539,-0.00036818,-3696.6,0.41004
12813,8.7356,2.5455,0,0.00036968,3694.3,0.0001248,0.0017343,0.00011724,-56.758,-0.00037061,-3722.3,0.4023
12814,8.8276,2.5455,0.05,9.6062e-07,9.5996,7.3764e-07,5.5423,2.772e-12,3.1905e-06,-7.3764e-07,-5.5423,0.41012
12815,8.8276,2.2727,0,0.00036749,3672.4,0.00012377,0.0023152,0.00011704,-50.594,-0.00036833,-3697.4,0.40977
12816,8.7356,2.3636,0,0.00036984,3695.9,0.00012476,0.0019847,0.00011744,-54.996,-0.00037075,-3723.1,0.40207
12817,8.8276,2.3636,0.05,9.6049e-07,9.5983,7.3754e-07,5.5415,1.8775e-12,2.3037e-06,-7.3754e-07,-5.5416,0.40989
12818,8.8276,2.0909,0,0.00036772,3674.7,0.00012372,0.0026583,0.00011732,-48.128,-0.00036852,-3698.5,0.40942
12819,8.7356,2.1818,0,0.00037006,3698,0.00012472,0.0023148,0.00011771,-52.673,-0.00037092,-3724.1,0.40176
12820,8.8276,2.1818,0.05,9.6029e-07,9.5963,7.3738e-07,5.5404,1.8804e-12,2.9778e-06,-7.3739e-07,-5.5405,0.40958
12821,8.8276,1.9091,0,0.000368,3677.4,0.00012367,0.003068,0.00011766,-45.162,-0.00036874,-3699.8,0.409
12822,8.7356,2,0,0.00037032,3700.7,0.00012467,0.0027206,0.00011804,-49.812,-0.00037114,-3725.3,0.40137
12823,8.8276,2,0.05,9.6002e-07,9.5936,7.3717e-07,5.5389,2.7971e-12,2.5358e-06,-7.3718e-07,-5.5389,0.4092
12824,8.8276,1.7273,0,0.00036831,3680.6,0.0001236,0.0035401,0.00011805,-41.725,-0.00036901,-3701.3,0.4085
12825,8.7356,1.8182,0,0.00037063,3703.8,0.0001246,0.0031975,0.00011842,-46.438,-0.0003714,-3726.8,0.4009
12826,8.8276,1.8182,0.05,9.5966e-07,9.59,7.369e-07,5.5368,2.8139e-12,2.6009e-06,-7.369e-07,-5.5368,0.40873
12827,8.8276,1.5455,0,0.00036867,3684.2,0.00012353,0.004075,0.00011849,-37.848,-0.0003693,-3703,0.40792
12828,8.7356,1.6364,0,0.00037099,3707.3,0.00012453,0.0037444,0.00011886,-42.583,-0.00037169,-3728.4,0.40036
12829,8.8276,1.6364,0.05,9.5919e-07,9.5853,7.3654e-07,5.534,9.3429e-14,2.5563e-06,-7.3654e-07,-5.5341,0.40819
12830,8.8276,1.3636,0,0.00036907,3688.2,0.00012345,0.004669,0.00011899,-33.566,-0.00036963,-3704.8,0.40726
12831,8.7356,1.4545,0,0.00037139,3711.3,0.00012445,0.0043674,0.00011935,-38.28,-0.00037202,-3730.3,0.39974
12832,8.8276,1.4545,0.05,9.5859e-07,9.5792,7.3607e-07,5.5306,7.8254e-14,2.6654e-06,-7.3608e-07,-5.5306,0.40757
12833,8.8276,1.1818,0,0.00036951,3692.5,0.00012337,0.0053536,0.00011952,-28.913,-0.00036999,-3706.9,0.40652
12834,8.7356,1.2727,0,0.00037182,3715.7,0.00012436,0.005058,0.00011989,-33.566,-0.00037238,-3732.3,0.39904
12835,8.8276,1.2727,0.05,9.5784e-07,9.5718,7.355e-07,5.5263,1.0171e-12,2.5986e-06,-7.355e-07,-5.5263,0.40687
12836,8.8276,1,0,0.00036997,3697.2,0.00012328,0.0060743,0.00012009,-23.929,-0.00037037,-3709.1,0.4057
12837,8.7356,1.0909,0,0.0003723,3720.4,0.00012427,0.0059011,0.00012048,-28.48,-0.00037277,-3734.6,0.39825
12838,8.8276,1.0909,0.05,9.5693e-07,9.5627,7.348e-07,5.521,8.8642e-14,2.292e-06,-7.348e-07,-5.521,0.4061
12839,8.8276,0.81818,0,0.00037047,3702.1,0.00012318,0.007268,0.00012069,-18.651,-0.00037078,-3711.4,0.40481
12840,8.7356,0.90909,0,0.0003728,3725.5,0.00012417,0.0067122,0.0001211,-23.062,-0.00037319,-3736.9,0.3974
12841,8.8276,0.90909,0.05,9.5582e-07,9.5516,7.3395e-07,5.5146,1.0871e-13,2.0752e-06,-7.3395e-07,-5.5146,0.40524
12842,8.8276,0.63636,0,0.00037099,3707.4,0.00012308,0.0076926,0.00012133,-13.119,-0.00037121,-3713.9,0.40383
12843,8.7356,0.72727,0,0.00037334,3730.8,0.00012406,0.0086557,0.00012175,-17.353,-0.00037363,-3739.4,0.39646
12844,8.8276,0.72727,0.05,9.5435e-07,9.5369,7.3282e-07,5.5061,9.6867e-14,1.8632e-06,-7.3282e-07,-5.5061,0.40431
12845,8.8276,0.45455,0,0.00037154,3712.8,0.00012297,0.016371,0.00012199,-7.3444,-0.00037166,-3716.5,0.40278
12846,8.7356,0.54545,0,0.0003739,3736.4,0.00012395,0.0080778,0.00012243,-11.394,-0.00037409,-3742.1,0.39544
12847,8.8276,0.54545,0.05,9.4992e-07,9.4926,7.2942e-07,5.4806,-8.379e-13,2.1007e-06,-7.2942e-07,-5.4806,0.40329
12848,8.8276,0.27273,0,0.00037217,3719.1,0.00012287,0.081492,0.00012272,-1.0469,-0.00037218,-3719.6,0.40165
12849,8.7356,0.36364,0,0.00037449,3742.3,0.00012384,0.029619,0.00012315,-5.1733,-0.00037457,-3744.8,0.39434
12850,8.8276,0.36364,0.05,9.0321e-07,9.0259,6.9355e-07,5.2111,-1.7722e-12,2.1347e-06,-6.9355e-07,-5.2111,0.4022
12851,8.7356,0.18182,0,0.00037521,3749.5,0.000124,2.1095,0.00012371,-0.089233,-0.00037518,-3748.5,0.39315
12852,8.8276,0.18182,0.05,2.1814e-07,2.1799,1.6751e-07,1.2586,-1.611e-12,1.3264e-06,-1.6751e-07,-1.2586,0.40102
12853,8.8276,0.090909,0,0.00037237,3721.1,0.00012309,2.419,0.00012276,-0.026632,-0.00037233,-3719.9,0.40043
12854,8.6437,5.7273,0,0.00037752,3772.6,0.0001247,0.054857,0.00012439,-2.277,-0.00037756,-3773.7,0.38593
12855,8.5517,5.8182,0,0.0003806,3803.4,0.00012571,1.2319,0.00012552,-0.18454,-0.00038058,-3802.9,0.37756
12856,8.6437,5.8182,0.05,2.3812e-07,2.3796,1.8284e-07,1.3738,3.2059e-12,-2.4234e-05,-1.8285e-07,-1.3739,0.3853
12857,8.6437,5.9091,0,0.00037779,3775.3,0.00012483,1.8895,0.00012457,-0.04479,-0.00037776,-3774.3,0.3847
12858,8.6437,5.5455,0,0.00037684,3765.8,0.00012482,0.018894,0.00012358,-9.2384,-0.000377,-3770.4,0.38707
12859,8.5517,5.6364,0,0.00037983,3795.6,0.00012568,0.033679,0.00012477,-6.7944,-0.00037994,-3799,0.37875
12860,8.6437,5.6364,0.05,9.1005e-07,9.0942,6.988e-07,5.2504,5.2606e-12,-9.212e-07,-6.9881e-07,-5.2506,0.38648
12861,8.6437,5.3636,0,0.00037624,3759.8,0.00012493,0.0086719,0.00012285,-15.642,-0.0003765,-3767.6,0.38814
12862,8.5517,5.4545,0,0.00037918,3789.2,0.00012581,0.0092366,0.00012399,-13.676,-0.00037941,-3796,0.37986
12863,8.6437,5.4545,0.05,9.5606e-07,9.554,7.3413e-07,5.5159,5.2454e-12,-1.9636e-07,-7.3415e-07,-5.5161,0.38759
12864,8.6437,5.1818,0,0.00037567,3754.1,0.00012505,0.007972,0.00012215,-21.777,-0.00037603,-3764.9,0.38912
12865,8.5517,5.2727,0,0.00037857,3783.1,0.00012593,0.0096346,0.00012323,-20.272,-0.00037891,-3793.2,0.38089
12866,8.6437,5.2727,0.05,9.6053e-07,9.5986,7.3756e-07,5.5417,4.2988e-12,-8.2888e-07,-7.3757e-07,-5.5419,0.38862
12867,8.6437,5,0,0.00037513,3748.7,0.00012516,0.0064766,0.00012148,-27.625,-0.00037559,-3762.4,0.39003
12868,8.5517,5.0909,0,0.00037798,3777.2,0.00012605,0.0072632,0.00012251,-26.589,-0.00037843,-3790.5,0.38184
12869,8.6437,5.0909,0.05,9.6208e-07,9.6141,7.3875e-07,5.5506,6.1219e-12,-3.4907e-07,-7.3876e-07,-5.5508,0.38956
12870,8.6437,4.8182,0,0.00037461,3743.6,0.00012526,0.0055683,0.00012085,-33.144,-0.00037517,-3760,0.39085
12871,8.5517,4.9091,0,0.00037743,3771.7,0.00012616,0.0062366,0.00012183,-32.58,-0.00037797,-3787.9,0.38271
12872,8.6437,4.9091,0.05,9.6325e-07,9.6259,7.3965e-07,5.5574,5.2357e-12,-3.5265e-07,-7.3967e-07,-5.5576,0.39042
12873,8.6437,4.6364,0,0.00037414,3738.8,0.00012536,0.0047309,0.00012026,-38.291,-0.00037477,-3757.8,0.3916
12874,8.5517,4.7273,0,0.00037691,3766.5,0.00012627,0.0052092,0.00012118,-38.2,-0.00037755,-3785.5,0.3835
12875,8.6437,4.7273,0.05,9.6423e-07,9.6357,7.4041e-07,5.5631,4.3351e-12,-7.9659e-07,-7.4041e-07,-5.5632,0.39121
12876,8.6437,4.4545,0,0.0003737,3734.4,0.00012545,0.0040175,0.00011972,-43.024,-0.00037441,-3755.7,0.39226
12877,8.5517,4.5455,0,0.00037643,3761.7,0.00012637,0.0043788,0.00012059,-43.406,-0.00037715,-3783.2,0.3842
12878,8.6437,4.5455,0.05,9.6504e-07,9.6437,7.4102e-07,5.5677,4.3577e-12,-1.3726e-07,-7.4104e-07,-5.5679,0.39191
12879,8.6437,4.2727,0,0.00037331,3730.5,0.00012553,0.003386,0.00011923,-47.305,-0.00037409,-3753.9,0.39285
12880,8.5517,4.3636,0,0.000376,3757.4,0.00012646,0.0036424,0.00012005,-48.153,-0.00037679,-3781.2,0.38483
12881,8.6437,4.3636,0.05,9.6569e-07,9.6503,7.4153e-07,5.5715,3.448e-12,5.7927e-07,-7.4154e-07,-5.5716,0.39254
12882,8.6437,4.0909,0,0.00037296,3727,0.0001256,0.0028365,0.0001188,-51.097,-0.0003738,-3752.3,0.39335
12883,8.5517,4.1818,0,0.00037561,3753.5,0.00012654,0.0030039,0.00011956,-52.403,-0.00037647,-3779.4,0.38538
12884,8.6437,4.1818,0.05,9.6621e-07,9.6554,7.4192e-07,5.5745,3.4761e-12,-2.3189e-07,-7.4194e-07,-5.5746,0.39308
12885,8.6437,3.9091,0,0.00037266,3724,0.00012566,0.0023649,0.00011842,-54.366,-0.00037355,-3750.9,0.39378
12886,8.5517,4,0,0.00037527,3750.1,0.00012661,0.0024535,0.00011914,-56.12,-0.00037619,-3777.8,0.38585
12887,8.6437,4,0.05,9.6661e-07,9.6595,7.4223e-07,5.5768,5.326e-12,-3.3951e-08,-7.4224e-07,-5.577,0.39355
12888,8.6437,3.7273,0,0.00037241,3721.5,0.00012571,0.0019732,0.00011811,-57.083,-0.00037334,-3749.7,0.39413
12889,8.5517,3.8182,0,0.00037498,3747.2,0.00012667,0.0019891,0.00011878,-59.27,-0.00037595,-3776.5,0.38624
12890,8.6437,3.8182,0.05,9.6692e-07,9.6625,7.4247e-07,5.5786,3.5323e-12,6.8084e-07,-7.4247e-07,-5.5787,0.39394
12891,8.6437,3.5455,0,0.00037221,3719.5,0.00012575,0.0016655,0.00011787,-59.223,-0.00037318,-3748.8,0.39441
12892,8.5517,3.6364,0,0.00037474,3744.8,0.00012672,0.0016138,0.00011849,-61.826,-0.00037576,-3775.4,0.38655
12893,8.6437,3.6364,0.05,9.6714e-07,9.6647,7.4264e-07,5.5799,3.5554e-12,1.2812e-06,-7.4264e-07,-5.58,0.39425
12894,8.6437,3.3636,0,0.00037207,3718.1,0.00012578,0.0014431,0.00011769,-60.766,-0.00037306,-3748.1,0.3946
12895,8.5517,3.4545,0,0.00037457,3743.1,0.00012675,0.0013312,0.00011827,-63.764,-0.00037561,-3774.5,0.38679
12896,8.6437,3.4545,0.05,9.6729e-07,9.6663,7.4276e-07,5.5808,3.5786e-12,1.9145e-06,-7.4277e-07,-5.5809,0.39449
12897,8.6437,3.1818,0,0.00037198,3717.3,0.0001258,0.0013079,0.00011759,-61.698,-0.00037299,-3747.7,0.39472
12898,8.5517,3.2727,0,0.00037445,3741.9,0.00012678,0.0011399,0.00011812,-65.066,-0.00037551,-3774,0.38695
12899,8.6437,3.2727,0.05,9.6739e-07,9.6672,7.4283e-07,5.5813,3.6041e-12,2.13e-06,-7.4284e-07,-5.5814,0.39464
12900,8.6437,3,0,0.00037195,3717,0.0001258,0.0012626,0.00011755,-62.01,-0.00037297,-3747.6,0.39476
12901,8.5517,3.0909,0,0.00037439,3741.3,0.00012679,0.0010436,0.00011804,-65.72,-0.00037546,-3773.7,0.38702
12902,8.6437,3.0909,0.05,9.6744e-07,9.6677,7.4286e-07,5.5816,2.7173e-12,1.8236e-06,-7.4288e-07,-5.5817,0.39472
12903,8.6437,2.8182,0,0.00037198,3717.3,0.0001258,0.0013079,0.00011759,-61.698,-0.00037299,-3747.7,0.39472
12904,8.5517,2.9091,0,0.00037439,3741.3,0.00012679,0.0010436,0.00011804,-65.72,-0.00037546,-3773.7,0.38702
12905,8.6437,2.9091,0.05,9.6744e-07,9.6677,7.4287e-07,5.5816,1.8296e-12,3.4175e-06,-7.4287e-07,-5.5817,0.39472
12906,8.6437,2.6364,0,0.00037207,3718.1,0.00012578,0.001443,0.00011769,-60.766,-0.00037306,-3748.1,0.3946
12907,8.5517,2.7273,0,0.00037445,3741.9,0.00012678,0.00114,0.00011812,-65.066,-0.00037551,-3774,0.38695
12908,8.6437,2.7273,0.05,9.6739e-07,9.6672,7.4283e-07,5.5814,2.7583e-12,1.6649e-06,-7.4284e-07,-5.5814,0.39464
12909,8.6437,2.4545,0,0.00037221,3719.5,0.00012575,0.0016656,0.00011787,-59.223,-0.00037318,-3748.8,0.39441
12910,8.5517,2.5455,0,0.00037457,3743.1,0.00012675,0.0013311,0.00011827,-63.764,-0.00037561,-3774.5,0.38679
12911,8.6437,2.5455,0.05,9.6729e-07,9.6663,7.4276e-07,5.5808,1.867e-12,2.7431e-06,-7.4276e-07,-5.5808,0.39449
12912,8.6437,2.2727,0,0.00037241,3721.5,0.00012571,0.0019738,0.00011811,-57.083,-0.00037334,-3749.7,0.39413
12913,8.5517,2.3636,0,0.00037474,3744.8,0.00012672,0.0016143,0.00011849,-61.826,-0.00037576,-3775.4,0.38655
12914,8.6437,2.3636,0.05,9.6714e-07,9.6647,7.4264e-07,5.5799,1.8818e-12,2.3375e-06,-7.4265e-07,-5.58,0.39425
12915,8.6437,2.0909,0,0.00037266,3724,0.00012566,0.0023655,0.00011842,-54.366,-0.00037355,-3750.9,0.39378
12916,8.5517,2.1818,0,0.00037498,3747.2,0.00012667,0.0019896,0.00011878,-59.27,-0.00037595,-3776.5,0.38624
12917,8.6437,2.1818,0.05,9.6692e-07,9.6625,7.4247e-07,5.5786,1.8946e-12,2.519e-06,-7.4247e-07,-5.5787,0.39394
12918,8.6437,1.9091,0,0.00037296,3727,0.0001256,0.0028371,0.0001188,-51.097,-0.0003738,-3752.3,0.39335
12919,8.5517,2,0,0.00037527,3750.1,0.00012661,0.002454,0.00011914,-56.12,-0.00037619,-3777.8,0.38585
12920,8.6437,2,0.05,9.6661e-07,9.6595,7.4224e-07,5.5769,9.9531e-14,2.4962e-06,-7.4224e-07,-5.5769,0.39355
12921,8.6437,1.7273,0,0.00037331,3730.5,0.00012553,0.0033866,0.00011923,-47.305,-0.00037409,-3753.9,0.39285
12922,8.5517,1.8182,0,0.00037561,3753.5,0.00012654,0.0030044,0.00011956,-52.404,-0.00037647,-3779.4,0.38538
12923,8.6437,1.8182,0.05,9.6621e-07,9.6554,7.4193e-07,5.5746,3.7265e-12,2.645e-06,-7.4193e-07,-5.5746,0.39308
12924,8.6437,1.5455,0,0.0003737,3734.4,0.00012545,0.0040181,0.00011972,-43.024,-0.00037441,-3755.7,0.39226
12925,8.5517,1.6364,0,0.000376,3757.4,0.00012646,0.0036429,0.00012005,-48.153,-0.00037679,-3781.2,0.38483
12926,8.6437,1.6364,0.05,9.6569e-07,9.6503,7.4153e-07,5.5716,1.0367e-13,2.617e-06,-7.4153e-07,-5.5716,0.39254
12927,8.6437,1.3636,0,0.00037414,3738.8,0.00012536,0.0047316,0.00012026,-38.291,-0.00037477,-3757.8,0.3916
12928,8.5517,1.4545,0,0.00037643,3761.7,0.00012637,0.0043795,0.00012059,-43.406,-0.00037715,-3783.2,0.3842
12929,8.6437,1.4545,0.05,9.6504e-07,9.6437,7.4103e-07,5.5678,1.0201e-12,2.0237e-06,-7.4103e-07,-5.5678,0.39191
12930,8.6437,1.1818,0,0.00037461,3743.6,0.00012526,0.005569,0.00012085,-33.144,-0.00037517,-3760,0.39085
12931,8.5517,1.2727,0,0.00037691,3766.5,0.00012627,0.00521,0.00012118,-38.2,-0.00037755,-3785.5,0.3835
12932,8.6437,1.2727,0.05,9.6423e-07,9.6357,7.4041e-07,5.5632,9.2745e-14,2.3315e-06,-7.4041e-07,-5.5632,0.39121
12933,8.6437,1,0,0.00037513,3748.7,0.00012516,0.0064775,0.00012148,-27.625,-0.00037559,-3762.4,0.39003
12934,8.5517,1.0909,0,0.00037743,3771.7,0.00012616,0.0062372,0.00012183,-32.58,-0.00037797,-3787.9,0.38271
12935,8.6437,1.0909,0.05,9.6325e-07,9.6259,7.3966e-07,5.5575,1.1545e-13,2.6286e-06,-7.3966e-07,-5.5575,0.39042
12936,8.6437,0.81818,0,0.00037567,3754.1,0.00012505,0.0079734,0.00012215,-21.777,-0.00037603,-3764.9,0.38912
12937,8.5517,0.90909,0,0.00037798,3777.2,0.00012605,0.0072647,0.00012251,-26.589,-0.00037843,-3790.5,0.38184
12938,8.6437,0.90909,0.05,9.6208e-07,9.6141,7.3876e-07,5.5507,8.6887e-14,2.625e-06,-7.3876e-07,-5.5507,0.38956
12939,8.6437,0.63636,0,0.00037624,3759.8,0.00012493,0.008673,0.00012285,-15.642,-0.0003765,-3767.6,0.38814
12940,8.5517,0.72727,0,0.00037857,3783.1,0.00012593,0.0096359,0.00012323,-20.272,-0.00037891,-3793.2,0.38089
12941,8.6437,0.72727,0.05,9.6053e-07,9.5986,7.3757e-07,5.5418,-8.0803e-13,2.029e-06,-7.3756e-07,-5.5418,0.38862
12942,8.6437,0.45455,0,0.00037684,3765.8,0.00012482,0.018895,0.00012358,-9.2384,-0.000377,-3770.4,0.38707
12943,8.5517,0.54545,0,0.00037918,3789.2,0.00012581,0.0092368,0.00012399,-13.676,-0.00037941,-3796,0.37986
12944,8.6437,0.54545,0.05,9.5606e-07,9.554,7.3414e-07,5.516,-1.7691e-12,1.4189e-06,-7.3414e-07,-5.516,0.38759
12945,8.6437,0.27273,0,0.00037752,3772.6,0.0001247,0.054859,0.00012439,-2.277,-0.00037756,-3773.7,0.38593
12946,8.5517,0.36364,0,0.00037983,3795.6,0.00012568,0.03368,0.00012477,-6.7944,-0.00037994,-3799,0.37875
12947,8.6437,0.36364,0.05,9.1005e-07,9.0942,6.988e-07,5.2505,8.0072e-14,1.7169e-06,-6.988e-07,-5.2505,0.38648
12948,8.5517,0.18182,0,0.0003806,3803.4,0.00012571,1.2319,0.00012552,-0.18453,-0.00038058,-3802.9,0.37756
12949,8.6437,0.18182,0.05,2.3812e-07,2.3796,1.8284e-07,1.3739,-1.785e-24,1.0138e-05,-1.8285e-07,-1.3738,0.3853
12950,8.6437,0.090909,0,0.00037779,3775.3,0.00012483,1.8895,0.00012457,-0.044789,-0.00037776,-3774.3,0.3847
12951,8.4598,5.7273,0,0.0003829,3826.3,0.00012654,0.048654,0.00012605,-3.6016,-0.00038296,-3828.1,0.37046
12952,8.3678,5.8182,0,0.00038601,3857.5,0.00012745,0.53224,0.00012732,-0.51405,-0.00038601,-3857.5,0.36222
12953,8.4598,5.8182,0.05,2.6018e-07,2.6,1.9978e-07,1.501,3.2588e-12,-2.8588e-05,-1.9979e-07,-1.5012,0.36983
12954,8.4598,5.9091,0,0.00038323,3829.7,0.00012658,1.3469,0.00012639,-0.081173,-0.00038321,-3829,0.36922
12955,8.4598,5.5455,0,0.00038216,3819,0.00012667,0.021597,0.00012517,-11.247,-0.00038235,-3824.6,0.37162
12956,8.3678,5.6364,0,0.00038519,3849.2,0.00012754,0.038067,0.0001264,-8.5141,-0.00038533,-3853.4,0.36342
12957,8.4598,5.6364,0.05,9.174e-07,9.1676,7.0444e-07,5.2928,5.1723e-12,-9.6639e-07,-7.0445e-07,-5.2931,0.37103
12958,8.4598,5.3636,0,0.00038151,3812.4,0.0001268,0.0097564,0.00012437,-18.32,-0.00038182,-3821.6,0.3727
12959,8.3678,5.4545,0,0.00038448,3842.2,0.00012768,0.010505,0.00012553,-16.1,-0.00038476,-3850.2,0.36454
12960,8.4598,5.4545,0.05,9.6261e-07,9.6195,7.3916e-07,5.5537,7.0167e-12,-5.5328e-07,-7.3918e-07,-5.5539,0.37214
12961,8.4598,5.1818,0,0.00038088,3806.2,0.00012693,0.0087635,0.00012359,-25.097,-0.0003813,-3818.7,0.37369
12962,8.3678,5.2727,0,0.00038382,3835.5,0.00012782,0.010717,0.0001247,-23.376,-0.00038421,-3847.1,0.36558
12963,8.4598,5.2727,0.05,9.6711e-07,9.6644,7.4261e-07,5.5796,5.1973e-12,-1.184e-06,-7.4262e-07,-5.5798,0.37318
12964,8.4598,5,0,0.00038029,3800.2,0.00012706,0.0069421,0.00012285,-31.555,-0.00038081,-3815.9,0.37461
12965,8.3678,5.0909,0,0.00038318,3829.1,0.00012795,0.0078882,0.00012391,-30.342,-0.00038368,-3844.2,0.36654
12966,8.4598,5.0909,0.05,9.6873e-07,9.6806,7.4386e-07,5.589,5.1689e-12,-8.8526e-07,-7.4387e-07,-5.5892,0.37413
12967,8.4598,4.8182,0,0.00037973,3794.7,0.00012717,0.0058289,0.00012216,-37.647,-0.00038035,-3813.3,0.37544
12968,8.3678,4.9091,0,0.00038257,3823.1,0.00012807,0.0066267,0.00012316,-36.947,-0.00038319,-3841.4,0.36742
12969,8.4598,4.9091,0.05,9.6996e-07,9.693,7.4481e-07,5.5962,5.1798e-12,-6.504e-07,-7.4482e-07,-5.5963,0.375
12970,8.4598,4.6364,0,0.00037921,3789.4,0.00012728,0.0048242,0.00012151,-43.325,-0.00037992,-3810.9,0.37619
12971,8.3678,4.7273,0,0.000382,3817.4,0.00012819,0.0053983,0.00012245,-43.141,-0.00038272,-3838.8,0.36821
12972,8.4598,4.7273,0.05,9.71e-07,9.7033,7.456e-07,5.6021,5.1848e-12,-1.5475e-06,-7.4561e-07,-5.6023,0.3758
12973,8.4598,4.4545,0,0.00037873,3784.7,0.00012738,0.0039792,0.00012092,-48.543,-0.00037953,-3808.7,0.37686
12974,8.3678,4.5455,0,0.00038148,3812.2,0.0001283,0.0044151,0.0001218,-48.874,-0.00038229,-3836.4,0.36893
12975,8.4598,4.5455,0.05,9.7185e-07,9.7118,7.4625e-07,5.607,5.2176e-12,-1.1787e-06,-7.4627e-07,-5.6072,0.37651
12976,8.4598,4.2727,0,0.0003783,3780.3,0.00012747,0.0032408,0.00012038,-53.26,-0.00037917,-3806.7,0.37745
12977,8.3678,4.3636,0,0.000381,3807.4,0.0001284,0.0035531,0.0001212,-54.101,-0.0003819,-3834.2,0.36956
12978,8.4598,4.3636,0.05,9.7254e-07,9.7187,7.4678e-07,5.611,4.3496e-12,-5.5824e-07,-7.468e-07,-5.6111,0.37714
12979,8.4598,4.0909,0,0.00037791,3776.5,0.00012755,0.0026045,0.0001199,-57.435,-0.00037886,-3804.9,0.37796
12980,8.3678,4.1818,0,0.00038058,3803.1,0.00012849,0.0028135,0.00012067,-58.778,-0.00038154,-3832.2,0.37011
12981,8.4598,4.1818,0.05,9.7309e-07,9.7242,7.4721e-07,5.6142,3.4766e-12,-9.2073e-07,-7.4721e-07,-5.6143,0.37769
12982,8.4598,3.9091,0,0.00037759,3773.2,0.00012761,0.0020633,0.00011949,-61.033,-0.00037859,-3803.4,0.37839
12983,8.3678,4,0,0.0003802,3799.4,0.00012857,0.0021808,0.0001202,-62.866,-0.00038124,-3830.5,0.37059
12984,8.4598,4,0.05,9.7352e-07,9.7285,7.4754e-07,5.6167,4.4015e-12,-1.1668e-07,-7.4754e-07,-5.6168,0.37816
12985,8.4598,3.7273,0,0.00037731,3770.5,0.00012767,0.0016167,0.00011915,-64.021,-0.00037836,-3802.1,0.37875
12986,8.3678,3.8182,0,0.00037989,3796.3,0.00012863,0.0016509,0.00011981,-66.33,-0.00038097,-3829,0.37098
12987,8.4598,3.8182,0.05,9.7384e-07,9.7317,7.4779e-07,5.6185,3.5198e-12,-9.6389e-07,-7.4779e-07,-5.6187,0.37855
12988,8.4598,3.5455,0,0.0003771,3768.4,0.00012772,0.0012674,0.00011888,-66.374,-0.00037818,-3801.1,0.37902
12989,8.3678,3.6364,0,0.00037963,3793.7,0.00012869,0.0012251,0.00011949,-69.138,-0.00038076,-3827.8,0.3713
12990,8.4598,3.6364,0.05,9.7408e-07,9.7341,7.4797e-07,5.6199,3.5478e-12,2.1769e-06,-7.4797e-07,-5.62,0.37887
12991,8.4598,3.3636,0,0.00037694,3766.8,0.00012775,0.0010164,0.00011869,-68.071,-0.00037805,-3800.4,0.37922
12992,8.3678,3.4545,0,0.00037944,3791.8,0.00012873,0.0009048,0.00011924,-71.267,-0.0003806,-3826.9,0.37153
12993,8.4598,3.4545,0.05,9.7424e-07,9.7357,7.4809e-07,5.6209,2.6661e-12,4.8516e-07,-7.481e-07,-5.6209,0.3791
12994,8.4598,3.1818,0,0.00037685,3765.9,0.00012777,0.00086429,0.00011857,-69.095,-0.00037798,-3800,0.37934
12995,8.3678,3.2727,0,0.00037931,3790.5,0.00012876,0.00068956,0.00011908,-72.697,-0.00038049,-3826.3,0.37169
12996,8.4598,3.2727,0.05,9.7435e-07,9.7367,7.4817e-07,5.6215,3.5998e-12,6.6016e-07,-7.4818e-07,-5.6216,0.37926
12997,8.4598,3,0,0.00037682,3765.6,0.00012777,0.00081337,0.00011853,-69.437,-0.00037795,-3799.8,0.37937
12998,8.3678,3.0909,0,0.00037924,3789.8,0.00012877,0.00058107,0.000119,-73.416,-0.00038044,-3826,0.37177
12999,8.4598,3.0909,0.05,9.744e-07,9.7372,7.4821e-07,5.6217,3.6257e-12,2.768e-06,-7.4822e-07,-5.6219,0.37934
13000,8.4598,2.8182,0,0.00037685,3765.9,0.00012777,0.00086444,0.00011857,-69.095,-0.00037798,-3800,0.37934
13001,8.3678,2.9091,0,0.00037924,3789.8,0.00012877,0.00058122,0.000119,-73.416,-0.00038044,-3826,0.37177
13002,8.4598,2.9091,0.05,9.744e-07,9.7372,7.4821e-07,5.6217,3.6496e-12,1.9945e-06,-7.4822e-07,-5.6219,0.37934
13003,8.4598,2.6364,0,0.00037694,3766.8,0.00012775,0.0010165,0.00011869,-68.071,-0.00037805,-3800.4,0.37922
13004,8.3678,2.7273,0,0.00037931,3790.5,0.00012876,0.0006897,0.00011908,-72.697,-0.00038049,-3826.3,0.37169
13005,8.4598,2.7273,0.05,9.7435e-07,9.7367,7.4818e-07,5.6215,3.6711e-12,2.1646e-06,-7.4818e-07,-5.6215,0.37926
13006,8.4598,2.4545,0,0.0003771,3768.4,0.00012772,0.0012677,0.00011888,-66.374,-0.00037818,-3801.1,0.37902
13007,8.3678,2.5455,0,0.00037944,3791.8,0.00012873,0.00090486,0.00011924,-71.267,-0.0003806,-3826.9,0.37153
13008,8.4598,2.5455,0.05,9.7424e-07,9.7357,7.481e-07,5.6209,2.7797e-12,2.3265e-06,-7.481e-07,-5.6209,0.3791
13009,8.4598,2.2727,0,0.00037731,3770.5,0.00012767,0.0016171,0.00011915,-64.021,-0.00037836,-3802.1,0.37875
13010,8.3678,2.3636,0,0.00037963,3793.7,0.00012869,0.0012253,0.00011949,-69.138,-0.00038076,-3827.8,0.3713
13011,8.4598,2.3636,0.05,9.7408e-07,9.7341,7.4797e-07,5.6199,2.8013e-12,2.9097e-06,-7.4797e-07,-5.62,0.37887
13012,8.4598,2.0909,0,0.00037759,3773.2,0.00012761,0.0020637,0.00011949,-61.033,-0.00037859,-3803.4,0.37839
13013,8.3678,2.1818,0,0.00037989,3796.3,0.00012863,0.0016512,0.00011981,-66.33,-0.00038097,-3829,0.37098
13014,8.4598,2.1818,0.05,9.7384e-07,9.7317,7.4779e-07,5.6186,1.9015e-12,2.6707e-06,-7.4779e-07,-5.6186,0.37855
13015,8.4598,1.9091,0,0.00037791,3776.5,0.00012755,0.0026049,0.0001199,-57.435,-0.00037886,-3804.9,0.37796
13016,8.3678,2,0,0.0003802,3799.4,0.00012857,0.0021813,0.0001202,-62.866,-0.00038124,-3830.5,0.37059
13017,8.4598,2,0.05,9.7352e-07,9.7285,7.4754e-07,5.6167,1.9105e-12,2.6144e-06,-7.4754e-07,-5.6167,0.37816
13018,8.4598,1.7273,0,0.0003783,3780.3,0.00012747,0.0032412,0.00012038,-53.26,-0.00037917,-3806.7,0.37745
13019,8.3678,1.8182,0,0.00038058,3803.1,0.00012849,0.0028139,0.00012067,-58.778,-0.00038154,-3832.2,0.37011
13020,8.4598,1.8182,0.05,9.7309e-07,9.7242,7.4721e-07,5.6142,1.0097e-12,2.2902e-06,-7.4721e-07,-5.6143,0.37769
13021,8.4598,1.5455,0,0.00037873,3784.7,0.00012738,0.0039798,0.00012092,-48.543,-0.00037953,-3808.7,0.37686
13022,8.3678,1.6364,0,0.000381,3807.4,0.0001284,0.0035539,0.0001212,-54.101,-0.0003819,-3834.2,0.36956
13023,8.4598,1.6364,0.05,9.7254e-07,9.7187,7.4679e-07,5.6111,1.0348e-12,1.668e-06,-7.4679e-07,-5.6111,0.37714
13024,8.4598,1.3636,0,0.00037921,3789.4,0.00012728,0.004825,0.00012151,-43.325,-0.00037992,-3810.9,0.37619
13025,8.3678,1.4545,0,0.00038148,3812.2,0.0001283,0.0044156,0.0001218,-48.874,-0.00038229,-3836.4,0.36893
13026,8.4598,1.4545,0.05,9.7185e-07,9.7118,7.4626e-07,5.6071,1.2643e-13,1.7445e-06,-7.4626e-07,-5.6071,0.37651
13027,8.4598,1.1818,0,0.00037973,3794.7,0.00012717,0.0058296,0.00012216,-37.647,-0.00038035,-3813.3,0.37544
13028,8.3678,1.2727,0,0.000382,3817.4,0.00012819,0.0053991,0.00012245,-43.141,-0.00038272,-3838.8,0.36821
13029,8.4598,1.2727,0.05,9.71e-07,9.7033,7.456e-07,5.6022,1.1995e-13,1.667e-06,-7.456e-07,-5.6022,0.3758
13030,8.4598,1,0,0.00038029,3800.2,0.00012706,0.0069432,0.00012285,-31.555,-0.00038081,-3815.9,0.37461
13031,8.3678,1.0909,0,0.00038257,3823.1,0.00012807,0.0066273,0.00012316,-36.947,-0.00038319,-3841.4,0.36742
13032,8.4598,1.0909,0.05,9.6996e-07,9.693,7.4481e-07,5.5962,1.0987e-13,1.7155e-06,-7.4481e-07,-5.5962,0.375
13033,8.4598,0.81818,0,0.00038088,3806.2,0.00012693,0.0087648,0.00012359,-25.097,-0.0003813,-3818.7,0.37369
13034,8.3678,0.90909,0,0.00038318,3829.1,0.00012795,0.0078896,0.00012391,-30.342,-0.00038368,-3844.2,0.36654
13035,8.4598,0.90909,0.05,9.6873e-07,9.6806,7.4386e-07,5.5891,9.6633e-14,1.9195e-06,-7.4386e-07,-5.5891,0.37413
13036,8.4598,0.63636,0,0.00038151,3812.4,0.0001268,0.009757,0.00012437,-18.32,-0.00038182,-3821.6,0.3727
13037,8.3678,0.72727,0,0.00038382,3835.5,0.00012782,0.010718,0.0001247,-23.376,-0.00038421,-3847.1,0.36558
13038,8.4598,0.72727,0.05,9.6711e-07,9.6644,7.4262e-07,5.5797,1.0957e-13,1.6231e-06,-7.4262e-07,-5.5797,0.37318
13039,8.4598,0.45455,0,0.00038216,3819,0.00012667,0.021598,0.00012517,-11.247,-0.00038235,-3824.6,0.37162
13040,8.3678,0.54545,0,0.00038448,3842.2,0.00012768,0.010505,0.00012553,-16.1,-0.00038476,-3850.2,0.36454
13041,8.4598,0.54545,0.05,9.6261e-07,9.6195,7.3917e-07,5.5538,1.458e-13,2.1444e-06,-7.3917e-07,-5.5538,0.37214
13042,8.4598,0.27273,0,0.0003829,3826.3,0.00012654,0.048656,0.00012605,-3.6016,-0.00038296,-3828.1,0.37046
13043,8.3678,0.36364,0,0.00038519,3849.2,0.00012754,0.038068,0.0001264,-8.5141,-0.00038533,-3853.4,0.36342
13044,8.4598,0.36364,0.05,9.174e-07,9.1676,7.0445e-07,5.2929,4.4707e-14,1.0624e-06,-7.0445e-07,-5.2929,0.37103
13045,8.3678,0.18182,0,0.00038601,3857.5,0.00012745,0.53225,0.00012732,-0.51404,-0.00038601,-3857.5,0.36222
13046,8.4598,0.18182,0.05,2.6018e-07,2.6,1.9978e-07,1.5011,4.8286e-13,6.0943e-06,-1.9978e-07,-1.5011,0.36983
13047,8.4598,0.090909,0,0.00038323,3829.7,0.00012658,1.3469,0.00012639,-0.081172,-0.00038321,-3829,0.36922
13048,8.2759,5.7273,0,0.00038829,3880.3,0.00012839,0.047548,0.00012772,-5.0117,-0.00038838,-3882.7,0.35526
13049,8.1839,5.8182,0,0.00039145,3911.8,0.00012927,0.2489,0.00012906,-1.3198,-0.00039147,-3912.4,0.34714
13050,8.2759,5.8182,0.05,2.8442e-07,2.8422,2.184e-07,1.6409,3.91e-12,-2.4309e-05,-2.184e-07,-1.641,0.35462
13051,8.2759,5.9091,0,0.0003887,3884.4,0.00012835,0.82284,0.00012822,-0.16928,-0.00038869,-3884,0.35401
13052,8.2759,5.5455,0,0.0003875,3872.4,0.00012854,0.0245,0.00012676,-13.381,-0.00038773,-3879,0.35643
13053,8.1839,5.6364,0,0.00039057,3903,0.0001294,0.042798,0.00012802,-10.341,-0.00039074,-3908.1,0.34835
13054,8.2759,5.6364,0.05,9.2529e-07,9.2465,7.105e-07,5.3384,6.8265e-12,-1.8998e-06,-7.1051e-07,-5.3386,0.35583
13055,8.2759,5.3636,0,0.00038679,3865.2,0.00012869,0.010948,0.00012587,-21.169,-0.00038715,-3875.8,0.35752
13056,8.1839,5.4545,0,0.00038981,3895.4,0.00012956,0.011888,0.00012707,-18.68,-0.00039012,-3904.7,0.34949
13057,8.2759,5.4545,0.05,9.696e-07,9.6893,7.4452e-07,5.594,5.0618e-12,-1.1402e-06,-7.4454e-07,-5.5942,0.35696
13058,8.2759,5.1818,0,0.00038611,3858.4,0.00012883,0.0096429,0.00012502,-28.633,-0.00038659,-3872.6,0.35852
13059,8.1839,5.2727,0,0.00038908,3888.1,0.00012972,0.011907,0.00012616,-26.683,-0.00038952,-3901.3,0.35054
13060,8.2759,5.2727,0.05,9.7411e-07,9.7344,7.4799e-07,5.62,5.1013e-12,-2.1263e-06,-7.48e-07,-5.6202,0.358
13061,8.2759,5,0,0.00038546,3851.9,0.00012897,0.0074712,0.00012421,-35.745,-0.00038605,-3869.7,0.35944
13062,8.1839,5.0909,0,0.00038838,3881.1,0.00012986,0.0085871,0.00012529,-34.345,-0.00038895,-3898.2,0.3515
13063,8.2759,5.0909,0.05,9.7579e-07,9.7512,7.4928e-07,5.6298,6.9315e-12,-1.2567e-06,-7.4929e-07,-5.6299,0.35896
13064,8.2759,4.8182,0,0.00038485,3845.8,0.0001291,0.0061347,0.00012345,-42.451,-0.00038555,-3866.9,0.36028
13065,8.1839,4.9091,0,0.00038772,3874.5,0.00013,0.0070716,0.00012446,-41.609,-0.00038841,-3895.1,0.35239
13066,8.2759,4.9091,0.05,9.7708e-07,9.7641,7.5027e-07,5.6372,3.3422e-12,-1.5348e-06,-7.5028e-07,-5.6374,0.35984
13067,8.2759,4.6364,0,0.00038428,3840.1,0.00012922,0.0049476,0.00012273,-48.699,-0.00038508,-3864.2,0.36104
13068,8.1839,4.7273,0,0.0003871,3868.3,0.00013013,0.0056248,0.00012369,-48.419,-0.0003879,-3892.3,0.35319
13069,8.2759,4.7273,0.05,9.7816e-07,9.7748,7.511e-07,5.6434,3.3599e-12,-2.333e-06,-7.5111e-07,-5.6436,0.36064
13070,8.2759,4.4545,0,0.00038376,3834.9,0.00012933,0.0039582,0.00012208,-54.44,-0.00038465,-3861.8,0.36171
13071,8.1839,4.5455,0,0.00038653,3862.6,0.00013026,0.0044744,0.00012297,-54.721,-0.00038743,-3889.7,0.35391
13072,8.2759,4.5455,0.05,9.7904e-07,9.7837,7.5178e-07,5.6485,5.1644e-12,-8.6996e-07,-7.5179e-07,-5.6487,0.36136
13073,8.2759,4.2727,0,0.00038328,3830.2,0.00012943,0.0031015,0.00012149,-59.627,-0.00038426,-3859.7,0.36231
13074,8.1839,4.3636,0,0.00038601,3857.4,0.00013037,0.0034753,0.00012232,-60.465,-0.000387,-3887.3,0.35455
13075,8.2759,4.3636,0.05,9.7976e-07,9.7908,7.5233e-07,5.6527,3.4254e-12,-7.0137e-07,-7.5233e-07,-5.6528,0.362
13076,8.2759,4.0909,0,0.00038287,3826,0.00012951,0.0023695,0.00012097,-64.217,-0.00038392,-3857.7,0.36283
13077,8.1839,4.1818,0,0.00038554,3852.8,0.00013047,0.002624,0.00012173,-65.603,-0.00038662,-3885.2,0.35511
13078,8.2759,4.1818,0.05,9.8033e-07,9.7965,7.5276e-07,5.6559,4.3349e-12,-1.6371e-06,-7.5278e-07,-5.6561,0.36255
13079,8.2759,3.9091,0,0.00038251,3822.4,0.00012959,0.0017508,0.00012052,-68.17,-0.00038362,-3856.1,0.36326
13080,8.1839,4,0,0.00038514,3848.7,0.00013055,0.0019003,0.00012122,-70.093,-0.00038628,-3883.3,0.35558
13081,8.2759,4,0.05,9.8077e-07,9.8009,7.5311e-07,5.6585,3.4863e-12,-3.0626e-07,-7.5311e-07,-5.6586,0.36303
13082,8.2759,3.7273,0,0.00038221,3819.5,0.00012965,0.0012434,0.00012014,-71.453,-0.00038338,-3854.7,0.36362
13083,8.1839,3.8182,0,0.00038479,3845.3,0.00013062,0.0012976,0.00012079,-73.895,-0.000386,-3881.7,0.35598
13084,8.2759,3.8182,0.05,9.811e-07,9.8042,7.5336e-07,5.6604,4.4046e-12,-1.0182e-06,-7.5337e-07,-5.6605,0.36342
13085,8.2759,3.5455,0,0.00038198,3817.1,0.0001297,0.00084783,0.00011985,-74.038,-0.00038318,-3853.6,0.36389
13086,8.1839,3.6364,0,0.00038451,3842.5,0.00013068,0.00081527,0.00012044,-76.979,-0.00038577,-3880.4,0.3563
13087,8.2759,3.6364,0.05,9.8134e-07,9.8066,7.5355e-07,5.6618,3.5337e-12,1.126e-06,-7.5355e-07,-5.6619,0.36374
13088,8.2759,3.3636,0,0.00038181,3815.4,0.00012974,0.00056408,0.00011964,-75.9,-0.00038304,-3852.8,0.36409
13089,8.1839,3.4545,0,0.0003843,3840.4,0.00013073,0.0004535,0.00012017,-79.315,-0.00038559,-3879.4,0.35654
13090,8.2759,3.4545,0.05,9.8151e-07,9.8083,7.5367e-07,5.6628,3.5631e-12,4.1625e-07,-7.5368e-07,-5.6629,0.36398
13091,8.2759,3.1818,0,0.00038171,3814.4,0.00012976,0.00039288,0.00011951,-77.025,-0.00038296,-3852.3,0.36421
13092,8.1839,3.2727,0,0.00038416,3839,0.00013076,0.00021099,0.00011999,-80.885,-0.00038547,-3878.8,0.35669
13093,8.2759,3.2727,0.05,9.8161e-07,9.8093,7.5375e-07,5.6634,3.5958e-12,6.3242e-07,-7.5376e-07,-5.6635,0.36413
13094,8.2759,3,0,0.00038167,3814.1,0.00012977,0.0003356,0.00011946,-77.401,-0.00038293,-3852.2,0.36425
13095,8.1839,3.0909,0,0.00038409,3838.3,0.00013077,8.9016e-05,0.0001199,-81.673,-0.00038541,-3878.4,0.35677
13096,8.2759,3.0909,0.05,9.8166e-07,9.8098,7.5379e-07,5.6637,1.8056e-12,2.7602e-06,-7.5379e-07,-5.6637,0.36421
13097,8.2759,2.8182,0,0.00038171,3814.4,0.00012976,0.00039302,0.00011951,-77.025,-0.00038296,-3852.3,0.36421
13098,8.1839,2.9091,0,0.00038409,3838.3,0.00013077,8.9224e-05,0.0001199,-81.673,-0.00038541,-3878.4,0.35677
13099,8.2759,2.9091,0.05,9.8166e-07,9.8098,7.5379e-07,5.6637,1.8318e-12,1.05e-06,-7.5379e-07,-5.6637,0.36421
13100,8.2759,2.6364,0,0.00038181,3815.4,0.00012974,0.00056414,0.00011964,-75.9,-0.00038304,-3852.8,0.36409
13101,8.1839,2.7273,0,0.00038416,3839,0.00013076,0.00021096,0.00011999,-80.885,-0.00038547,-3878.8,0.35669
13102,8.2759,2.7273,0.05,9.8161e-07,9.8093,7.5375e-07,5.6634,2.7658e-12,1.2323e-06,-7.5376e-07,-5.6635,0.36413
13103,8.2759,2.4545,0,0.00038198,3817.1,0.0001297,0.00084782,0.00011985,-74.038,-0.00038318,-3853.6,0.36389
13104,8.1839,2.5455,0,0.0003843,3840.4,0.00013073,0.00045359,0.00012017,-79.315,-0.00038559,-3879.4,0.35654
13105,8.2759,2.5455,0.05,9.8151e-07,9.8083,7.5368e-07,5.6628,1.8792e-12,2.3659e-06,-7.5368e-07,-5.6628,0.36398
13106,8.2759,2.2727,0,0.00038221,3819.5,0.00012965,0.0012436,0.00012014,-71.453,-0.00038338,-3854.7,0.36362
13107,8.1839,2.3636,0,0.00038451,3842.5,0.00013068,0.00081551,0.00012044,-76.979,-0.00038577,-3880.4,0.3563
13108,8.2759,2.3636,0.05,9.8134e-07,9.8066,7.5355e-07,5.6618,2.8039e-12,1.4723e-06,-7.5355e-07,-5.6619,0.36374
13109,8.2759,2.0909,0,0.00038251,3822.4,0.00012959,0.0017512,0.00012052,-68.17,-0.00038362,-3856.1,0.36326
13110,8.1839,2.1818,0,0.00038479,3845.3,0.00013062,0.0012978,0.00012079,-73.895,-0.000386,-3881.7,0.35598
13111,8.2759,2.1818,0.05,9.811e-07,9.8042,7.5336e-07,5.6604,9.9896e-13,6.3902e-07,-7.5336e-07,-5.6605,0.36342
13112,8.2759,1.9091,0,0.00038287,3826,0.00012951,0.00237,0.00012097,-64.217,-0.00038392,-3857.7,0.36283
13113,8.1839,2,0,0.00038514,3848.7,0.00013055,0.0019007,0.00012122,-70.093,-0.00038628,-3883.3,0.35558
13114,8.2759,2,0.05,9.8077e-07,9.8009,7.5311e-07,5.6585,1.9407e-12,2.1656e-06,-7.531e-07,-5.6586,0.36303
13115,8.2759,1.7273,0,0.00038328,3830.2,0.00012943,0.0031022,0.00012149,-59.627,-0.00038426,-3859.7,0.36231
13116,8.1839,1.8182,0,0.00038554,3852.8,0.00013047,0.0026244,0.00012173,-65.603,-0.00038662,-3885.2,0.35511
13117,8.2759,1.8182,0.05,9.8033e-07,9.7965,7.5277e-07,5.656,1.9312e-12,1.473e-06,-7.5277e-07,-5.656,0.36255
13118,8.2759,1.5455,0,0.00038376,3834.9,0.00012933,0.0039589,0.00012208,-54.44,-0.00038465,-3861.8,0.36171
13119,8.1839,1.6364,0,0.00038601,3857.4,0.00013037,0.0034759,0.00012232,-60.465,-0.000387,-3887.3,0.35455
13120,8.2759,1.6364,0.05,9.7976e-07,9.7908,7.5233e-07,5.6527,2.8573e-12,2.3351e-06,-7.5233e-07,-5.6527,0.362
13121,8.2759,1.3636,0,0.00038428,3840.1,0.00012922,0.0049481,0.00012273,-48.699,-0.00038508,-3864.2,0.36104
13122,8.1839,1.4545,0,0.00038653,3862.6,0.00013026,0.0044749,0.00012297,-54.721,-0.00038743,-3889.7,0.35391
13123,8.2759,1.4545,0.05,9.7904e-07,9.7837,7.5178e-07,5.6486,1.3943e-13,1.4243e-06,-7.5178e-07,-5.6486,0.36136
13124,8.2759,1.1818,0,0.00038485,3845.8,0.0001291,0.0061353,0.00012345,-42.451,-0.00038555,-3866.9,0.36028
13125,8.1839,1.2727,0,0.0003871,3868.3,0.00013013,0.0056255,0.00012369,-48.419,-0.0003879,-3892.3,0.35319
13126,8.2759,1.2727,0.05,9.7816e-07,9.7748,7.511e-07,5.6435,1.9576e-12,2.0578e-06,-7.511e-07,-5.6435,0.36064
13127,8.2759,1,0,0.00038546,3851.9,0.00012897,0.0074719,0.00012421,-35.745,-0.00038605,-3869.7,0.35944
13128,8.1839,1.0909,0,0.00038772,3874.5,0.00013,0.0070721,0.00012446,-41.609,-0.00038841,-3895.1,0.35239
13129,8.2759,1.0909,0.05,9.7708e-07,9.7641,7.5028e-07,5.6373,1.4166e-13,1.3219e-06,-7.5028e-07,-5.6373,0.35984
13130,8.2759,0.81818,0,0.00038611,3858.4,0.00012883,0.0096439,0.00012502,-28.633,-0.00038659,-3872.6,0.35852
13131,8.1839,0.90909,0,0.00038838,3881.1,0.00012986,0.0085884,0.00012529,-34.345,-0.00038895,-3898.2,0.3515
13132,8.2759,0.90909,0.05,9.7579e-07,9.7512,7.4929e-07,5.6299,1.3939e-13,1.2262e-06,-7.4928e-07,-5.6298,0.35896
13133,8.2759,0.63636,0,0.00038679,3865.2,0.00012869,0.010948,0.00012587,-21.169,-0.00038715,-3875.8,0.35752
13134,8.1839,0.72727,0,0.00038908,3888.1,0.00012972,0.011907,0.00012616,-26.683,-0.00038952,-3901.3,0.35054
13135,8.2759,0.72727,0.05,9.7411e-07,9.7344,7.48e-07,5.6202,-3.4552e-12,1.9922e-06,-7.4799e-07,-5.6201,0.358
13136,8.2759,0.45455,0,0.0003875,3872.4,0.00012854,0.024501,0.00012676,-13.381,-0.00038773,-3879,0.35643
13137,8.1839,0.54545,0,0.00038981,3895.4,0.00012956,0.011889,0.00012707,-18.68,-0.00039012,-3904.7,0.34949
13138,8.2759,0.54545,0.05,9.696e-07,9.6893,7.4453e-07,5.5941,-1.707e-12,2.1941e-06,-7.4453e-07,-5.5941,0.35696
13139,8.2759,0.27273,0,0.00038829,3880.3,0.00012839,0.047549,0.00012772,-5.0116,-0.00038838,-3882.7,0.35526
13140,8.1839,0.36364,0,0.00039057,3903,0.0001294,0.042799,0.00012802,-10.341,-0.00039074,-3908.1,0.34835
13141,8.2759,0.36364,0.05,9.2529e-07,9.2465,7.1051e-07,5.3385,-1.6979e-12,1.6353e-06,-7.1051e-07,-5.3385,0.35583
13142,8.1839,0.18182,0,0.00039145,3911.8,0.00012927,0.2489,0.00012906,-1.3198,-0.00039147,-3912.4,0.34714
13143,8.2759,0.18182,0.05,2.8442e-07,2.8422,2.184e-07,1.641,8.2379e-13,6.4851e-06,-2.184e-07,-1.6409,0.35462
13144,8.2759,0.090909,0,0.0003887,3884.4,0.00012835,0.82284,0.00012822,-0.16928,-0.00038869,-3884,0.35401
13145,8.092,5.7273,0,0.00039372,3934.5,0.00013025,0.048614,0.00012938,-6.5104,-0.00039383,-3937.7,0.34032
13146,8,5.8182,0,0.00039692,3966.5,0.00013112,0.16489,0.00013078,-2.3882,-0.00039696,-3967.6,0.33232
13147,8.092,5.8182,0.05,3.1098e-07,3.1076,2.3879e-07,1.7941,3.5685e-12,-2.833e-05,-2.388e-07,-1.7943,0.33967
13148,8.092,5.9091,0,0.0003942,3939.3,0.00013014,0.42205,0.00013003,-0.4156,-0.0003942,-3939.3,0.33905
13149,8.092,5.5455,0,0.00039287,3925.9,0.00013042,0.027624,0.00012834,-15.653,-0.00039313,-3933.7,0.3415
13150,8,5.6364,0,0.00039597,3957,0.00013128,0.047901,0.00012964,-12.285,-0.00039618,-3963.1,0.33355
13151,8.092,5.6364,0.05,9.3376e-07,9.3312,7.1701e-07,5.3873,5.1631e-12,-1.8718e-06,-7.1702e-07,-5.3874,0.34089
13152,8.092,5.3636,0,0.00039209,3918.2,0.00013059,0.012252,0.00012736,-24.205,-0.00039249,-3930.2,0.34259
13153,8,5.4545,0,0.00039514,3948.7,0.00013146,0.013396,0.0001286,-21.429,-0.0003955,-3959.4,0.33469
13154,8.092,5.4545,0.05,9.7705e-07,9.7637,7.5024e-07,5.637,6.7739e-12,-7.8074e-07,-7.5026e-07,-5.6372,0.34203
13155,8.092,5.1818,0,0.00039135,3910.8,0.00013075,0.010613,0.00012643,-32.406,-0.00039189,-3926.8,0.34361
13156,8,5.2727,0,0.00039435,3940.8,0.00013163,0.013208,0.00012761,-30.212,-0.00039486,-3955.8,0.33575
13157,8.092,5.2727,0.05,9.8156e-07,9.8089,7.5371e-07,5.6631,6.8313e-12,-1.8261e-06,-7.5373e-07,-5.6632,0.34308
13158,8.092,5,0,0.00039064,3903.7,0.0001309,0.0080642,0.00012554,-40.219,-0.00039131,-3923.6,0.34454
13159,8,5.0909,0,0.00039359,3933.2,0.00013179,0.0093626,0.00012665,-38.622,-0.00039423,-3952.4,0.33673
13160,8.092,5.0909,0.05,9.833e-07,9.8263,7.5505e-07,5.6731,5.0355e-12,-1.9745e-06,-7.5506e-07,-5.6733,0.34405
13161,8.092,4.8182,0,0.00038997,3897,0.00013104,0.0064866,0.00012471,-47.586,-0.00039076,-3920.6,0.34538
13162,8,4.9091,0,0.00039287,3926,0.00013195,0.0075726,0.00012575,-46.594,-0.00039364,-3949.1,0.33762
13163,8.092,4.9091,0.05,9.8464e-07,9.8397,7.5608e-07,5.6808,5.0849e-12,-2.2365e-06,-7.5609e-07,-5.681,0.34494
13164,8.092,4.6364,0,0.00038935,3890.8,0.00013117,0.0051007,0.00012393,-54.449,-0.00039025,-3917.8,0.34615
13165,8,4.7273,0,0.0003922,3919.3,0.0001321,0.0058891,0.0001249,-54.067,-0.00039309,-3946,0.33843
13166,8.092,4.7273,0.05,9.8575e-07,9.8507,7.5693e-07,5.6872,3.3388e-12,-2.0371e-06,-7.5694e-07,-5.6874,0.34575
13167,8.092,4.4545,0,0.00038878,3885.1,0.0001313,0.0039539,0.00012321,-60.753,-0.00038978,-3915.1,0.34683
13168,8,4.5455,0,0.00039158,3913.1,0.00013223,0.0045565,0.00012411,-60.982,-0.00039258,-3943.2,0.33915
13169,8.092,4.5455,0.05,9.8666e-07,9.8598,7.5762e-07,5.6925,1.5487e-12,-6.5734e-07,-7.5764e-07,-5.6926,0.34647
13170,8.092,4.2727,0,0.00038827,3880,0.00013141,0.0029683,0.00012256,-66.448,-0.00038935,-3912.8,0.34743
13171,8,4.3636,0,0.00039101,3907.4,0.00013235,0.0034079,0.0001234,-67.284,-0.00039211,-3940.6,0.3398
13172,8.092,4.3636,0.05,9.8738e-07,9.867,7.5818e-07,5.6967,3.3929e-12,-1.8773e-06,-7.5819e-07,-5.6968,0.34711
13173,8.092,4.0909,0,0.00038781,3875.4,0.0001315,0.0021303,0.00012199,-71.485,-0.00038898,-3910.7,0.34795
13174,8,4.1818,0,0.0003905,3902.3,0.00013246,0.0024341,0.00012276,-72.921,-0.00039169,-3938.3,0.34036
13175,8.092,4.1818,0.05,9.8795e-07,9.8727,7.5862e-07,5.7,5.2282e-12,-1.7199e-06,-7.5863e-07,-5.7001,0.34767
13176,8.092,3.9091,0,0.00038742,3871.5,0.00013159,0.001426,0.00012149,-75.824,-0.00038866,-3908.9,0.34839
13177,8,4,0,0.00039006,3897.9,0.00013256,0.0016103,0.0001222,-77.845,-0.00039133,-3936.2,0.34084
13178,8.092,4,0.05,9.8839e-07,9.8771,7.5896e-07,5.7025,4.3623e-12,5.3987e-07,-7.5897e-07,-5.7026,0.34815
13179,8.092,3.7273,0,0.0003871,3868.3,0.00013166,0.00085062,0.00012108,-79.427,-0.00038839,-3907.4,0.34875
13180,8,3.8182,0,0.00038968,3894.2,0.00013264,0.00092735,0.00012172,-82.016,-0.00039101,-3934.5,0.34124
13181,8.092,3.8182,0.05,9.8872e-07,9.8804,7.5921e-07,5.7044,3.488e-12,7.3758e-07,-7.5922e-07,-5.7045,0.34855
13182,8.092,3.5455,0,0.00038684,3865.7,0.00013171,0.00040356,0.00012076,-82.262,-0.00038817,-3906.2,0.34903
13183,8,3.6364,0,0.00038938,3891.1,0.0001327,0.00038226,0.00012134,-85.397,-0.00039076,-3933.1,0.34156
13184,8.092,3.6364,0.05,9.8896e-07,9.8828,7.594e-07,5.7058,3.5266e-12,9.0558e-08,-7.594e-07,-5.7059,0.34887
13185,8.092,3.3636,0,0.00038666,3863.9,0.00013175,8.398e-05,0.00012053,-84.305,-0.00038802,-3905.4,0.34922
13186,8,3.4545,0,0.00038915,3888.8,0.00013275,-2.5326e-05,0.00012105,-87.959,-0.00039057,-3932.1,0.3418
13187,8.092,3.4545,0.05,9.8912e-07,9.8844,7.5952e-07,5.7067,3.5608e-12,2.2411e-06,-7.5952e-07,-5.7068,0.34911
13188,8.092,3.1818,0,0.00038655,3862.8,0.00013177,-0.00010877,0.00012039,-85.538,-0.00038793,-3904.8,0.34934
13189,8,3.2727,0,0.000389,3887.3,0.00013279,-0.0002983,0.00012085,-89.68,-0.00039044,-3931.3,0.34196
13190,8.092,3.2727,0.05,9.8922e-07,9.8854,7.596e-07,5.7073,2.6847e-12,-3.4638e-07,-7.596e-07,-5.7074,0.34927
13191,8.092,3,0,0.00038651,3862.4,0.00013178,-0.00017309,0.00012034,-85.951,-0.0003879,-3904.7,0.34938
13192,8,3.0909,0,0.00038892,3886.5,0.0001328,-0.00043527,0.00012075,-90.544,-0.00039038,-3931,0.34204
13193,8.092,3.0909,0.05,9.8927e-07,9.8858,7.5963e-07,5.7075,-1.4948e-14,1.7948e-06,-7.5964e-07,-5.7077,0.34935
13194,8.092,2.8182,0,0.00038655,3862.8,0.00013177,-0.00010874,0.00012039,-85.538,-0.00038793,-3904.8,0.34934
13195,8,2.9091,0,0.00038892,3886.5,0.0001328,-0.00043509,0.00012075,-90.544,-0.00039038,-3931,0.34204
13196,8.092,2.9091,0.05,9.8927e-07,9.8858,7.5963e-07,5.7075,1.4002e-14,2.0115e-06,-7.5964e-07,-5.7077,0.34935
13197,8.092,2.6364,0,0.00038666,3863.9,0.00013175,8.3979e-05,0.00012053,-84.305,-0.00038802,-3905.4,0.34922
13198,8,2.7273,0,0.000389,3887.3,0.00013279,-0.00029821,0.00012085,-89.68,-0.00039044,-3931.3,0.34196
13199,8.092,2.7273,0.05,9.8922e-07,9.8854,7.596e-07,5.7073,2.7703e-12,2.2026e-06,-7.596e-07,-5.7074,0.34927
13200,8.092,2.4545,0,0.00038684,3865.7,0.00013171,0.00040388,0.00012076,-82.262,-0.00038817,-3906.2,0.34903
13201,8,2.5455,0,0.00038915,3888.8,0.00013275,-2.5028e-05,0.00012105,-87.959,-0.00039057,-3932.1,0.3418
13202,8.092,2.5455,0.05,9.8912e-07,9.8844,7.5952e-07,5.7067,2.7925e-12,1.4383e-06,-7.5952e-07,-5.7068,0.34911
13203,8.092,2.2727,0,0.0003871,3868.3,0.00013166,0.00085089,0.00012108,-79.427,-0.00038839,-3907.4,0.34875
13204,8,2.3636,0,0.00038938,3891.1,0.0001327,0.00038232,0.00012134,-85.397,-0.00039076,-3933.1,0.34156
13205,8.092,2.3636,0.05,9.8896e-07,9.8828,7.5939e-07,5.7058,2.8125e-12,2.489e-06,-7.594e-07,-5.7058,0.34887
13206,8.092,2.0909,0,0.00038742,3871.5,0.00013159,0.0014263,0.00012149,-75.824,-0.00038866,-3908.9,0.34839
13207,8,2.1818,0,0.00038968,3894.2,0.00013264,0.00092774,0.00012172,-82.016,-0.00039101,-3934.5,0.34124
13208,8.092,2.1818,0.05,9.8872e-07,9.8804,7.5922e-07,5.7044,1.0175e-12,2.5423e-06,-7.5922e-07,-5.7045,0.34855
13209,8.092,1.9091,0,0.00038781,3875.4,0.0001315,0.0021307,0.00012199,-71.485,-0.00038898,-3910.7,0.34795
13210,8,2,0,0.00039006,3897.9,0.00013256,0.0016106,0.0001222,-77.845,-0.00039133,-3936.2,0.34084
13211,8.092,2,0.05,9.8839e-07,9.8771,7.5896e-07,5.7025,1.2675e-13,1.9025e-06,-7.5897e-07,-5.7026,0.34815
13212,8.092,1.7273,0,0.00038827,3880,0.00013141,0.0029686,0.00012256,-66.448,-0.00038935,-3912.8,0.34743
13213,8,1.8182,0,0.0003905,3902.3,0.00013246,0.0024346,0.00012276,-72.921,-0.00039169,-3938.3,0.34036
13214,8.092,1.8182,0.05,9.8795e-07,9.8727,7.5863e-07,5.7,3.7673e-12,2.8541e-06,-7.5863e-07,-5.7,0.34767
13215,8.092,1.5455,0,0.00038878,3885.1,0.0001313,0.0039544,0.00012321,-60.753,-0.00038978,-3915.1,0.34683
13216,8,1.6364,0,0.00039101,3907.4,0.00013235,0.0034083,0.0001234,-67.284,-0.00039211,-3940.6,0.3398
13217,8.092,1.6364,0.05,9.8738e-07,9.867,7.5819e-07,5.6967,1.4342e-13,2.8812e-06,-7.5819e-07,-5.6967,0.34711
13218,8.092,1.3636,0,0.00038935,3890.8,0.00013117,0.0051014,0.00012393,-54.449,-0.00039025,-3917.8,0.34615
13219,8,1.4545,0,0.00039158,3913.1,0.00013223,0.0045571,0.00012411,-60.983,-0.00039258,-3943.2,0.33915
13220,8.092,1.4545,0.05,9.8666e-07,9.8598,7.5763e-07,5.6925,1.7239e-13,2.545e-06,-7.5763e-07,-5.6925,0.34647
13221,8.092,1.1818,0,0.00038997,3897,0.00013104,0.0064872,0.00012471,-47.586,-0.00039076,-3920.6,0.34538
13222,8,1.2727,0,0.0003922,3919.3,0.0001321,0.0058898,0.0001249,-54.067,-0.00039309,-3946,0.33843
13223,8.092,1.2727,0.05,9.8575e-07,9.8507,7.5693e-07,5.6873,1.4563e-13,2.8146e-06,-7.5693e-07,-5.6873,0.34575
13224,8.092,1,0,0.00039064,3903.7,0.0001309,0.0080652,0.00012554,-40.219,-0.00039131,-3923.6,0.34454
13225,8,1.0909,0,0.00039287,3926,0.00013195,0.0075731,0.00012575,-46.594,-0.00039364,-3949.1,0.33762
13226,8.092,1.0909,0.05,9.8464e-07,9.8397,7.5608e-07,5.6809,1.3365e-13,1.4065e-06,-7.5608e-07,-5.6809,0.34494
13227,8.092,0.81818,0,0.00039135,3910.8,0.00013075,0.010615,0.00012643,-32.406,-0.00039189,-3926.8,0.34361
13228,8,0.90909,0,0.00039359,3933.2,0.00013179,0.0093642,0.00012665,-38.622,-0.00039423,-3952.4,0.33673
13229,8.092,0.90909,0.05,9.833e-07,9.8263,7.5506e-07,5.6732,9.4226e-14,1.4597e-06,-7.5506e-07,-5.6732,0.34405
13230,8.092,0.63636,0,0.00039209,3918.2,0.00013059,0.012253,0.00012736,-24.205,-0.00039249,-3930.2,0.34259
13231,8,0.72727,0,0.00039435,3940.8,0.00013163,0.013209,0.00012761,-30.212,-0.00039486,-3955.8,0.33575
13232,8.092,0.72727,0.05,9.8156e-07,9.8089,7.5372e-07,5.6632,1.4787e-13,2.3677e-06,-7.5372e-07,-5.6631,0.34308
13233,8.092,0.45455,0,0.00039287,3925.9,0.00013042,0.027625,0.00012834,-15.653,-0.00039313,-3933.7,0.3415
13234,8,0.54545,0,0.00039514,3948.7,0.00013146,0.013396,0.0001286,-21.429,-0.0003955,-3959.4,0.33469
13235,8.092,0.54545,0.05,9.7705e-07,9.7637,7.5025e-07,5.6371,1.0244e-13,2.0361e-06,-7.5026e-07,-5.6371,0.34203
13236,8.092,0.27273,0,0.00039372,3934.5,0.00013025,0.048615,0.00012938,-6.5104,-0.00039383,-3937.7,0.34032
13237,8,0.36364,0,0.00039597,3957,0.00013128,0.047902,0.00012964,-12.285,-0.00039618,-3963.1,0.33355
13238,8.092,0.36364,0.05,9.3376e-07,9.3312,7.1701e-07,5.3874,-1.5209e-22,2.2948e-06,-7.1701e-07,-5.3873,0.34089
13239,8,0.18182,0,0.00039692,3966.5,0.00013112,0.16489,0.00013078,-2.3882,-0.00039696,-3967.6,0.33232
13240,8.092,0.18182,0.05,3.1098e-07,3.1076,2.3879e-07,1.7942,5.2964e-13,1.125e-05,-2.3879e-07,-1.7942,0.33967
13241,8.092,0.090909,0,0.0003942,3939.3,0.00013014,0.42205,0.00013003,-0.41559,-0.0003942,-3939.3,0.33905
13242,7.908,5.7273,0,0.00039917,3988.9,0.00013213,0.050932,0.00013104,-8.1032,-0.0003993,-3992.9,0.32564
13243,7.8161,5.8182,0,0.00040241,4021.4,0.00013298,0.13195,0.00013249,-3.5746,-0.00040247,-4023.1,0.31777
13244,7.908,5.8182,0.05,3.4001e-07,3.3977,2.6108e-07,1.9616,3.2836e-12,-3.1694e-05,-2.6109e-07,-1.9618,0.32498
13245,7.908,5.9091,0,0.00039973,3994.6,0.00013198,0.23872,0.00013182,-0.91607,-0.00039975,-3994.9,0.32436
13246,7.908,5.5455,0,0.00039825,3979.7,0.00013232,0.030992,0.00012991,-18.073,-0.00039855,-3988.7,0.32683
13247,7.8161,5.6364,0,0.0004014,4011.2,0.00013318,0.053409,0.00013126,-14.354,-0.00040164,-4018.4,0.31901
13248,7.908,5.6364,0.05,9.4287e-07,9.4222,7.24e-07,5.4398,4.9171e-12,-3.1249e-06,-7.2401e-07,-5.44,0.32622
13249,7.908,5.3636,0,0.0003974,3971.3,0.0001325,0.013677,0.00012885,-27.447,-0.00039786,-3984.9,0.32794
13250,7.8161,5.4545,0,0.0004005,4002.2,0.00013337,0.015038,0.00013013,-24.364,-0.00040091,-4014.4,0.32017
13251,7.908,5.4545,0.05,9.85e-07,9.8432,7.5635e-07,5.6829,4.9483e-12,-1.9157e-06,-7.5636e-07,-5.6831,0.32737
13252,7.908,5.1818,0,0.00039659,3963.2,0.00013268,0.01168,0.00012783,-36.438,-0.0003972,-3981.3,0.32896
13253,7.8161,5.2727,0,0.00039964,3993.6,0.00013356,0.014631,0.00012904,-33.984,-0.00040021,-4010.5,0.32123
13254,7.908,5.2727,0.05,9.8951e-07,9.8883,7.5981e-07,5.7089,4.9043e-12,-1.4876e-06,-7.5983e-07,-5.7091,0.32843
13255,7.908,5,0,0.00039582,3955.5,0.00013285,0.0087246,0.00012685,-45.005,-0.00039657,-3977.8,0.3299
13256,7.8161,5.0909,0,0.00039881,3985.4,0.00013374,0.010219,0.00012799,-43.197,-0.00039953,-4006.8,0.32222
13257,7.908,5.0909,0.05,9.913e-07,9.9062,7.6119e-07,5.7193,6.8132e-12,-2.2124e-06,-7.612e-07,-5.7194,0.32941
13258,7.908,4.8182,0,0.0003951,3948.3,0.000133,0.0068855,0.00012594,-53.083,-0.00039598,-3974.5,0.33075
13259,7.8161,4.9091,0,0.00039803,3977.6,0.00013391,0.0081324,0.000127,-51.932,-0.00039889,-4003.3,0.32311
13260,7.908,4.9091,0.05,9.9268e-07,9.92,7.6225e-07,5.7272,3.212e-12,-2.2207e-06,-7.6226e-07,-5.7274,0.33031
13261,7.908,4.6364,0,0.00039442,3941.5,0.00013315,0.005284,0.00012508,-60.608,-0.00039542,-3971.5,0.33152
13262,7.8161,4.7273,0,0.0003973,3970.2,0.00013408,0.0061923,0.00012607,-60.12,-0.00039829,-4000,0.32393
13263,7.908,4.7273,0.05,9.9381e-07,9.9313,7.6312e-07,5.7337,5.0342e-12,-2.5072e-06,-7.6313e-07,-5.7339,0.33112
13264,7.908,4.4545,0,0.0003938,3935.3,0.00013329,0.0039656,0.0001243,-67.52,-0.00039491,-3968.6,0.33221
13265,7.8161,4.5455,0,0.00039662,3963.5,0.00013422,0.004662,0.00012521,-67.697,-0.00039773,-3996.9,0.32466
13266,7.908,4.5455,0.05,9.9472e-07,9.9404,7.6382e-07,5.739,1.5104e-12,-2.2813e-06,-7.6383e-07,-5.7391,0.33185
13267,7.908,4.2727,0,0.00039324,3929.7,0.00013341,0.0028386,0.00012359,-73.764,-0.00039445,-3966.1,0.33281
13268,7.8161,4.3636,0,0.000396,3957.3,0.00013436,0.00335,0.00012443,-74.602,-0.00039722,-3994.1,0.32531
13269,7.908,4.3636,0.05,9.9545e-07,9.9476,7.6438e-07,5.7432,1.5331e-12,-1.6133e-06,-7.6439e-07,-5.7434,0.33249
13270,7.908,4.0909,0,0.00039275,3924.8,0.00013351,0.001885,0.00012296,-79.287,-0.00039404,-3963.8,0.33333
13271,7.8161,4.1818,0,0.00039545,3951.8,0.00013448,0.0022425,0.00012373,-80.778,-0.00039676,-3991.6,0.32588
13272,7.908,4.1818,0.05,9.9601e-07,9.9532,7.6481e-07,5.7464,1.5775e-12,-2.0124e-06,-7.6482e-07,-5.7466,0.33306
13273,7.908,3.9091,0,0.00039232,3920.5,0.00013361,0.0010866,0.00012242,-84.043,-0.00039368,-3961.9,0.33378
13274,7.8161,4,0,0.00039497,3947,0.00013459,0.0013092,0.00012312,-86.173,-0.00039636,-3989.3,0.32636
13275,7.908,4,0.05,9.9644e-07,9.9575,7.6514e-07,5.7489,3.4335e-12,-1.5939e-06,-7.6514e-07,-5.749,0.33354
13276,7.908,3.7273,0,0.00039197,3917,0.00013368,0.00043674,0.00012197,-87.991,-0.00039339,-3960.2,0.33414
13277,7.8161,3.8182,0,0.00039456,3942.9,0.00013467,0.00053792,0.0001226,-90.743,-0.00039603,-3987.5,0.32676
13278,7.908,3.8182,0.05,9.9675e-07,9.9606,7.6538e-07,5.7507,5.2915e-12,-1.1937e-06,-7.6538e-07,-5.7508,0.33394
13279,7.908,3.5455,0,0.00039169,3914.2,0.00013374,-6.704e-05,0.00012162,-91.099,-0.00039316,-3959,0.33442
13280,7.8161,3.6364,0,0.00039423,3939.6,0.00013475,-7.5941e-05,0.00012218,-94.447,-0.00039575,-3986,0.32709
13281,7.908,3.6364,0.05,9.9697e-07,9.9628,7.6554e-07,5.752,3.5128e-12,-8.969e-07,-7.6555e-07,-5.7521,0.33426
13282,7.908,3.3636,0,0.00039149,3912.2,0.00013379,-0.00042686,0.00012136,-93.338,-0.00039299,-3958,0.33462
13283,7.8161,3.4545,0,0.00039398,3937.1,0.0001348,-0.00053443,0.00012186,-97.253,-0.00039554,-3984.8,0.32733
13284,7.908,3.4545,0.05,9.9712e-07,9.9643,7.6566e-07,5.7529,2.6391e-12,1.2757e-06,-7.6567e-07,-5.7529,0.3345
13285,7.908,3.1818,0,0.00039137,3911,0.00013381,-0.0006434,0.00012121,-94.69,-0.00039289,-3957.5,0.33474
13286,7.8161,3.2727,0,0.00039381,3935.4,0.00013484,-0.00084074,0.00012164,-99.138,-0.0003954,-3984,0.32749
13287,7.908,3.2727,0.05,9.9721e-07,9.9652,7.6573e-07,5.7534,2.6787e-12,1.5353e-06,-7.6573e-07,-5.7534,0.33466
13288,7.908,3,0,0.00039133,3910.6,0.00013382,-0.00071566,0.00012116,-95.142,-0.00039286,-3957.3,0.33478
13289,7.8161,3.0909,0,0.00039373,3934.6,0.00013486,-0.00099433,0.00012154,-100.08,-0.00039533,-3983.6,0.32757
13290,7.908,3.0909,0.05,9.9725e-07,9.9656,7.6576e-07,5.7536,3.6219e-12,8.3321e-07,-7.6576e-07,-5.7537,0.33474
13291,7.908,2.8182,0,0.00039137,3911,0.00013381,-0.00064316,0.00012121,-94.69,-0.00039289,-3957.5,0.33474
13292,7.8161,2.9091,0,0.00039373,3934.6,0.00013486,-0.00099439,0.00012154,-100.08,-0.00039533,-3983.6,0.32757
13293,7.908,2.9091,0.05,9.9725e-07,9.9656,7.6576e-07,5.7536,2.7438e-12,2.9765e-06,-7.6576e-07,-5.7537,0.33474
13294,7.908,2.6364,0,0.00039149,3912.2,0.00013379,-0.00042647,0.00012136,-93.338,-0.00039299,-3958,0.33462
13295,7.8161,2.7273,0,0.00039381,3935.4,0.00013484,-0.0008405,0.00012164,-99.138,-0.0003954,-3984,0.32749
13296,7.908,2.7273,0.05,9.9721e-07,9.9652,7.6573e-07,5.7534,2.7722e-12,1.2901e-06,-7.6573e-07,-5.7534,0.33466
13297,7.908,2.4545,0,0.00039169,3914.2,0.00013374,-6.7011e-05,0.00012162,-91.099,-0.00039316,-3959,0.33442
13298,7.8161,2.5455,0,0.00039398,3937.1,0.0001348,-0.00053417,0.00012186,-97.253,-0.00039554,-3984.8,0.32733
13299,7.908,2.5455,0.05,9.9712e-07,9.9643,7.6566e-07,5.7529,1.8828e-12,1.5345e-06,-7.6567e-07,-5.7529,0.3345
13300,7.908,2.2727,0,0.00039197,3917,0.00013368,0.00043692,0.00012197,-87.991,-0.00039339,-3960.2,0.33414
13301,7.8161,2.3636,0,0.00039423,3939.6,0.00013475,-7.5944e-05,0.00012218,-94.447,-0.00039575,-3986,0.32709
13302,7.908,2.3636,0.05,9.9697e-07,9.9628,7.6554e-07,5.752,9.9728e-13,7.0349e-07,-7.6555e-07,-5.752,0.33426
13303,7.908,2.0909,0,0.00039232,3920.5,0.00013361,0.0010871,0.00012242,-84.043,-0.00039368,-3961.9,0.33378
13304,7.8161,2.1818,0,0.00039456,3942.9,0.00013467,0.00053842,0.0001226,-90.743,-0.00039603,-3987.5,0.32676
13305,7.908,2.1818,0.05,9.9675e-07,9.9606,7.6538e-07,5.7507,1.9435e-12,8.7477e-07,-7.6538e-07,-5.7508,0.33394
13306,7.908,1.9091,0,0.00039275,3924.8,0.00013351,0.0018855,0.00012296,-79.287,-0.00039404,-3963.8,0.33333
13307,7.8161,2,0,0.00039497,3947,0.00013459,0.0013095,0.00012312,-86.173,-0.00039636,-3989.3,0.32636
13308,7.908,2,0.05,9.9644e-07,9.9575,7.6514e-07,5.749,1.9341e-12,2.0449e-06,-7.6514e-07,-5.749,0.33354
13309,7.908,1.7273,0,0.00039324,3929.7,0.00013341,0.0028391,0.00012359,-73.764,-0.00039445,-3966.1,0.33281
13310,7.8161,1.8182,0,0.00039545,3951.8,0.00013448,0.002243,0.00012373,-80.778,-0.00039676,-3991.6,0.32588
13311,7.908,1.8182,0.05,9.9601e-07,9.9532,7.6481e-07,5.7465,1.2817e-13,2.8578e-06,-7.6482e-07,-5.7465,0.33306
13312,7.908,1.5455,0,0.0003938,3935.3,0.00013329,0.0039661,0.0001243,-67.52,-0.00039491,-3968.6,0.33221
13313,7.8161,1.6364,0,0.000396,3957.3,0.00013436,0.0033506,0.00012443,-74.602,-0.00039722,-3994.1,0.32531
13314,7.908,1.6364,0.05,9.9545e-07,9.9476,7.6438e-07,5.7433,1.4534e-13,2.2212e-06,-7.6438e-07,-5.7433,0.33249
13315,7.908,1.3636,0,0.00039442,3941.5,0.00013315,0.0052846,0.00012508,-60.608,-0.00039542,-3971.5,0.33152
13316,7.8161,1.4545,0,0.00039662,3963.5,0.00013422,0.0046626,0.00012521,-67.697,-0.00039773,-3996.9,0.32466
13317,7.908,1.4545,0.05,9.9472e-07,9.9404,7.6383e-07,5.7391,1.6789e-13,3.2113e-06,-7.6383e-07,-5.7391,0.33185
13318,7.908,1.1818,0,0.0003951,3948.3,0.000133,0.0068861,0.00012594,-53.083,-0.00039598,-3974.5,0.33075
13319,7.8161,1.2727,0,0.0003973,3970.2,0.00013408,0.006193,0.00012607,-60.12,-0.00039829,-4000,0.32393
13320,7.908,1.2727,0.05,9.9381e-07,9.9313,7.6312e-07,5.7338,1.9601e-12,2.0623e-06,-7.6312e-07,-5.7338,0.33112
13321,7.908,1,0,0.00039582,3955.5,0.00013285,0.0087258,0.00012685,-45.005,-0.00039657,-3977.8,0.3299
13322,7.8161,1.0909,0,0.00039803,3977.6,0.00013391,0.008133,0.000127,-51.932,-0.00039889,-4003.3,0.32311
13323,7.908,1.0909,0.05,9.9268e-07,9.92,7.6226e-07,5.7273,2.1349e-13,1.9672e-06,-7.6226e-07,-5.7273,0.33031
13324,7.908,0.81818,0,0.00039659,3963.2,0.00013268,0.011681,0.00012783,-36.438,-0.0003972,-3981.3,0.32896
13325,7.8161,0.90909,0,0.00039881,3985.4,0.00013374,0.010221,0.00012799,-43.197,-0.00039953,-4006.8,0.32222
13326,7.908,0.90909,0.05,9.913e-07,9.9062,7.612e-07,5.7194,1.769e-13,2.0254e-06,-7.612e-07,-5.7194,0.32941
13327,7.908,0.63636,0,0.0003974,3971.3,0.0001325,0.013677,0.00012885,-27.447,-0.00039786,-3984.9,0.32794
13328,7.8161,0.72727,0,0.00039964,3993.6,0.00013356,0.014632,0.00012904,-33.984,-0.00040021,-4010.5,0.32123
13329,7.908,0.72727,0.05,9.8951e-07,9.8883,7.5982e-07,5.709,1.3531e-13,2.083e-06,-7.5982e-07,-5.709,0.32843
13330,7.908,0.45455,0,0.00039825,3979.7,0.00013232,0.030992,0.00012991,-18.073,-0.00039855,-3988.7,0.32683
13331,7.8161,0.54545,0,0.0004005,4002.2,0.00013337,0.015038,0.00013013,-24.364,-0.00040091,-4014.4,0.32017
13332,7.908,0.54545,0.05,9.85e-07,9.8432,7.5636e-07,5.683,-3.3837e-12,1.4123e-06,-7.5635e-07,-5.683,0.32737
13333,7.908,0.27273,0,0.00039917,3988.9,0.00013213,0.050934,0.00013104,-8.1032,-0.0003993,-3992.9,0.32564
13334,7.8161,0.36364,0,0.0004014,4011.2,0.00013318,0.05341,0.00013126,-14.354,-0.00040164,-4018.4,0.31901
13335,7.908,0.36364,0.05,9.4287e-07,9.4222,7.2401e-07,5.4399,1.2463e-13,2.4682e-06,-7.24e-07,-5.4399,0.32622
13336,7.8161,0.18182,0,0.00040241,4021.4,0.00013298,0.13195,0.00013249,-3.5746,-0.00040247,-4023.1,0.31777
13337,7.908,0.18182,0.05,3.4e-07,3.3977,2.6108e-07,1.9617,1.4193e-12,6.9406e-06,-2.6108e-07,-1.9617,0.32498
13338,7.908,0.090909,0,0.00039973,3994.6,0.00013198,0.23872,0.00013182,-0.91606,-0.00039975,-3994.9,0.32436
13339,7.7241,5.7273,0,0.00040464,4043.6,0.00013402,0.054142,0.00013271,-9.7961,-0.0004048,-4048.5,0.31123
13340,7.6322,5.8182,0,0.00040794,4076.5,0.00013487,0.11647,0.00013421,-4.8486,-0.00040802,-4078.9,0.3035
13341,7.7241,5.8182,0.05,3.7167e-07,3.7141,2.8539e-07,2.1443,1.6433e-12,-2.7452e-05,-2.854e-07,-2.1444,0.31057
13342,7.7241,5.9091,0,0.00040529,4050.1,0.00013384,0.172,0.00013361,-1.5715,-0.00040532,-4050.8,0.30994
13343,7.7241,5.5455,0,0.00040365,4033.7,0.00013423,0.034628,0.00013148,-20.655,-0.000404,-4044,0.31244
13344,7.6322,5.6364,0,0.00040685,4065.7,0.00013509,0.059363,0.00013287,-16.559,-0.00040713,-4073.9,0.30475
13345,7.7241,5.6364,0.05,9.5265e-07,9.5199,7.3151e-07,5.4962,6.6353e-12,-4.54e-06,-7.3152e-07,-5.4965,0.31182
13346,7.7241,5.3636,0,0.00040273,4024.6,0.00013443,0.015231,0.00013032,-30.911,-0.00040325,-4039.9,0.31355
13347,7.6322,5.4545,0,0.00040588,4056,0.0001353,0.016826,0.00013164,-27.498,-0.00040634,-4069.6,0.30591
13348,7.7241,5.4545,0.05,9.935e-07,9.9281,7.6288e-07,5.7319,6.6765e-12,-2.4592e-06,-7.6289e-07,-5.7321,0.31298
13349,7.7241,5.1818,0,0.00040186,4015.8,0.00013463,0.01285,0.0001292,-40.752,-0.00040253,-4036,0.31458
13350,7.6322,5.2727,0,0.00040494,4046.6,0.00013551,0.016183,0.00013045,-38.02,-0.00040557,-4065.5,0.30699
13351,7.7241,5.2727,0.05,9.98e-07,9.9731,7.6633e-07,5.7579,3.2056e-12,-3.6848e-06,-7.6634e-07,-5.758,0.31405
13352,7.7241,5,0,0.00040102,4007.4,0.00013481,0.0094564,0.00012814,-50.131,-0.00040185,-4032.2,0.31552
13353,7.6322,5.0909,0,0.00040404,4037.6,0.00013571,0.011163,0.00012931,-48.098,-0.00040484,-4061.5,0.30798
13354,7.7241,5.0909,0.05,9.9983e-07,9.9914,7.6774e-07,5.7685,4.8871e-12,-2.4116e-06,-7.6776e-07,-5.7686,0.31504
13355,7.7241,4.8182,0,0.00040023,3999.5,0.00013499,0.0073341,0.00012714,-58.976,-0.0004012,-4028.7,0.31638
13356,7.6322,4.9091,0,0.00040319,4029.2,0.0001359,0.0087545,0.00012823,-57.655,-0.00040414,-4057.7,0.30888
13357,7.7241,4.9091,0.05,1.0012e-06,10.006,7.6883e-07,5.7766,4.9633e-12,-3.2763e-06,-7.6883e-07,-5.7767,0.31594
13358,7.7241,4.6364,0,0.00039949,3992.2,0.00013515,0.0054986,0.0001262,-67.215,-0.0004006,-4025.4,0.31716
13359,7.6322,4.7273,0,0.0004024,4021.2,0.00013608,0.0065366,0.00012721,-66.615,-0.00040349,-4054.1,0.3097
13360,7.7241,4.7273,0.05,1.0024e-06,10.017,7.697e-07,5.7832,5.0142e-12,-2.7392e-06,-7.6971e-07,-5.7833,0.31675
13361,7.7241,4.4545,0,0.00039882,3985.4,0.0001353,0.0039936,0.00012534,-74.785,-0.00040004,-4022.3,0.31785
13362,7.6322,4.5455,0,0.00040166,4013.8,0.00013624,0.0047916,0.00012627,-74.907,-0.00040288,-4050.8,0.31044
13363,7.7241,4.5455,0.05,1.0033e-06,10.026,7.704e-07,5.7884,3.2561e-12,-2.6972e-06,-7.7041e-07,-5.7886,0.31749
13364,7.7241,4.2727,0,0.00039821,3979.4,0.00013543,0.0027125,0.00012457,-81.622,-0.00039954,-4019.5,0.31846
13365,7.6322,4.3636,0,0.00040099,4007.1,0.00013639,0.0033016,0.00012541,-82.464,-0.00040233,-4047.7,0.31109
13366,7.7241,4.3636,0.05,1.004e-06,10.033,7.7094e-07,5.7925,3.309e-12,-2.6727e-06,-7.7095e-07,-5.7927,0.31814
13367,7.7241,4.0909,0,0.00039767,3974,0.00013555,0.0016326,0.00012388,-87.67,-0.00039909,-4017.1,0.31899
13368,7.6322,4.1818,0,0.00040039,4001.1,0.00013652,0.0020485,0.00012465,-89.224,-0.00040183,-4045,0.31166
13369,7.7241,4.1818,0.05,1.0045e-06,10.038,7.7135e-07,5.7956,1.5368e-12,-2.1896e-06,-7.7137e-07,-5.7958,0.31871
13370,7.7241,3.9091,0,0.00039721,3969.3,0.00013565,0.00073128,0.00012329,-92.878,-0.00039871,-4015,0.31943
13371,7.6322,4,0,0.00039986,3995.9,0.00013664,0.00099533,0.00012398,-95.129,-0.0004014,-4042.6,0.31215
13372,7.7241,4,0.05,1.0049e-06,10.042,7.7166e-07,5.7979,3.4086e-12,-1.7582e-06,-7.7167e-07,-5.7981,0.31919
13373,7.7241,3.7273,0,0.00039682,3965.5,0.00013574,-6.8126e-07,0.0001228,-97.202,-0.00039839,-4013.2,0.3198
13374,7.6322,3.8182,0,0.00039942,3991.4,0.00013674,0.00012759,0.00012341,-100.13,-0.00040103,-4040.6,0.31255
13375,7.7241,3.8182,0.05,1.0052e-06,10.045,7.7188e-07,5.7996,-1.872e-13,-1.3296e-06,-7.7189e-07,-5.7997,0.3196
13376,7.7241,3.5455,0,0.00039652,3962.5,0.0001358,-0.00056707,0.00012241,-100.6,-0.00039814,-4011.8,0.32008
13377,7.6322,3.6364,0,0.00039906,3987.8,0.00013682,-0.00056212,0.00012295,-104.19,-0.00040073,-4038.9,0.31288
13378,7.7241,3.6364,0.05,1.0054e-06,10.047,7.7203e-07,5.8007,-1.3164e-13,8.4262e-07,-7.7204e-07,-5.8008,0.31992
13379,7.7241,3.3636,0,0.0003963,3960.3,0.00013585,-0.00097065,0.00012214,-103.06,-0.00039795,-4010.8,0.32028
13380,7.6322,3.4545,0,0.00039879,3985.1,0.00013688,-0.0010762,0.0001226,-107.26,-0.0004005,-4037.7,0.31312
13381,7.7241,3.4545,0.05,1.0055e-06,10.048,7.7212e-07,5.8014,5.3589e-12,2.0103e-07,-7.7213e-07,-5.8015,0.32016
13382,7.7241,3.1818,0,0.00039617,3959,0.00013588,-0.0012132,0.00012197,-104.54,-0.00039784,-4010.2,0.3204
13383,7.6322,3.2727,0,0.0003986,3983.3,0.00013692,-0.0014194,0.00012237,-109.32,-0.00040035,-4036.8,0.31328
13384,7.7241,3.2727,0.05,1.0056e-06,10.049,7.7218e-07,5.8019,3.582e-12,-3.9809e-07,-7.7219e-07,-5.8019,0.32032
13385,7.7241,3,0,0.00039613,3958.5,0.00013589,-0.0012943,0.00012191,-105.03,-0.00039781,-4010,0.32044
13386,7.6322,3.0909,0,0.00039851,3982.4,0.00013694,-0.0015912,0.00012225,-110.36,-0.00040027,-4036.4,0.31336
13387,7.7241,3.0909,0.05,1.0056e-06,10.05,7.7221e-07,5.8021,3.6205e-12,8.2271e-07,-7.7221e-07,-5.8021,0.32041
13388,7.7241,2.8182,0,0.00039617,3959,0.00013588,-0.0012133,0.00012197,-104.54,-0.00039784,-4010.2,0.3204
13389,7.6322,2.9091,0,0.00039851,3982.4,0.00013694,-0.0015914,0.00012225,-110.36,-0.00040027,-4036.4,0.31336
13390,7.7241,2.9091,0.05,1.0056e-06,10.05,7.7221e-07,5.8021,3.6545e-12,1.078e-06,-7.7221e-07,-5.8021,0.32041
13391,7.7241,2.6364,0,0.0003963,3960.3,0.00013585,-0.00097053,0.00012214,-103.06,-0.00039795,-4010.8,0.32028
13392,7.6322,2.7273,0,0.0003986,3983.3,0.00013692,-0.0014194,0.00012237,-109.32,-0.00040035,-4036.8,0.31328
13393,7.7241,2.7273,0.05,1.0056e-06,10.049,7.7218e-07,5.8019,3.6853e-12,1.32e-06,-7.7219e-07,-5.8019,0.32032
13394,7.7241,2.4545,0,0.00039652,3962.5,0.0001358,-0.00056683,0.00012241,-100.61,-0.00039814,-4011.8,0.32008
13395,7.6322,2.5455,0,0.00039879,3985.1,0.00013688,-0.001076,0.0001226,-107.26,-0.0004005,-4037.7,0.31312
13396,7.7241,2.5455,0.05,1.0055e-06,10.048,7.7212e-07,5.8014,3.7084e-12,1.4573e-06,-7.7213e-07,-5.8015,0.32016
13397,7.7241,2.2727,0,0.00039682,3965.5,0.00013574,-3.5632e-07,0.0001228,-97.202,-0.00039839,-4013.2,0.3198
13398,7.6322,2.3636,0,0.00039906,3987.8,0.00013682,-0.00056171,0.00012295,-104.19,-0.00040073,-4038.9,0.31288
13399,7.7241,2.3636,0.05,1.0054e-06,10.047,7.7203e-07,5.8007,9.6313e-14,1.6726e-06,-7.7204e-07,-5.8008,0.31992
13400,7.7241,2.0909,0,0.00039721,3969.3,0.00013565,0.00073163,0.00012329,-92.878,-0.00039871,-4015,0.31943
13401,7.6322,2.1818,0,0.00039942,3991.4,0.00013674,0.00012774,0.00012341,-100.13,-0.00040103,-4040.6,0.31255
13402,7.7241,2.1818,0.05,1.0052e-06,10.045,7.7188e-07,5.7996,1.293e-13,1.8694e-06,-7.7189e-07,-5.7996,0.3196
13403,7.7241,1.9091,0,0.00039767,3974,0.00013555,0.001633,0.00012388,-87.67,-0.00039909,-4017.1,0.31899
13404,7.6322,2,0,0.00039986,3995.9,0.00013664,0.00099574,0.00012398,-95.129,-0.0004014,-4042.6,0.31215
13405,7.7241,2,0.05,1.0049e-06,10.042,7.7166e-07,5.798,1.9508e-12,1.0471e-06,-7.7167e-07,-5.798,0.31919
13406,7.7241,1.7273,0,0.00039821,3979.4,0.00013543,0.0027132,0.00012457,-81.622,-0.00039954,-4019.5,0.31846
13407,7.6322,1.8182,0,0.00040039,4001.1,0.00013652,0.002049,0.00012465,-89.224,-0.00040183,-4045,0.31166
13408,7.7241,1.8182,0.05,1.0045e-06,10.038,7.7136e-07,5.7957,1.7455e-13,9.0891e-07,-7.7136e-07,-5.7957,0.31871
13409,7.7241,1.5455,0,0.00039882,3985.4,0.0001353,0.0039943,0.00012534,-74.785,-0.00040004,-4022.3,0.31785
13410,7.6322,1.6364,0,0.00040099,4007.1,0.00013639,0.0033024,0.00012541,-82.464,-0.00040233,-4047.7,0.31109
13411,7.7241,1.6364,0.05,1.004e-06,10.033,7.7095e-07,5.7926,1.9702e-12,3.0272e-06,-7.7095e-07,-5.7926,0.31814
13412,7.7241,1.3636,0,0.00039949,3992.2,0.00013515,0.0054993,0.0001262,-67.215,-0.0004006,-4025.4,0.31716
13413,7.6322,1.4545,0,0.00040166,4013.8,0.00013624,0.0047923,0.00012627,-74.907,-0.00040288,-4050.8,0.31044
13414,7.7241,1.4545,0.05,1.0033e-06,10.026,7.704e-07,5.7885,1.8345e-13,3.8645e-06,-7.704e-07,-5.7885,0.31749
13415,7.7241,1.1818,0,0.00040023,3999.5,0.00013499,0.0073348,0.00012714,-58.976,-0.0004012,-4028.7,0.31638
13416,7.6322,1.2727,0,0.0004024,4021.2,0.00013608,0.0065375,0.00012721,-66.615,-0.00040349,-4054.1,0.3097
13417,7.7241,1.2727,0.05,1.0024e-06,10.017,7.697e-07,5.7833,1.4954e-13,2.1965e-06,-7.697e-07,-5.7833,0.31675
13418,7.7241,1,0,0.00040102,4007.4,0.00013481,0.0094573,0.00012814,-50.131,-0.00040185,-4032.2,0.31552
13419,7.6322,1.0909,0,0.00040319,4029.2,0.0001359,0.0087553,0.00012823,-57.655,-0.00040414,-4057.7,0.30888
13420,7.7241,1.0909,0.05,1.0012e-06,10.006,7.6883e-07,5.7767,1.8444e-13,2.5086e-06,-7.6883e-07,-5.7767,0.31594
13421,7.7241,0.81818,0,0.00040186,4015.8,0.00013463,0.012851,0.0001292,-40.752,-0.00040253,-4036,0.31458
13422,7.6322,0.90909,0,0.00040404,4037.6,0.00013571,0.011164,0.00012931,-48.098,-0.00040484,-4061.5,0.30798
13423,7.7241,0.90909,0.05,9.9983e-07,9.9914,7.6775e-07,5.7686,1.6963e-13,1.8873e-06,-7.6775e-07,-5.7686,0.31504
13424,7.7241,0.63636,0,0.00040273,4024.6,0.00013443,0.015232,0.00013032,-30.911,-0.00040325,-4039.9,0.31355
13425,7.6322,0.72727,0,0.00040494,4046.6,0.00013551,0.016184,0.00013045,-38.02,-0.00040557,-4065.5,0.30699
13426,7.7241,0.72727,0.05,9.98e-07,9.9731,7.6634e-07,5.758,3.0322e-13,1.2138e-06,-7.6633e-07,-5.758,0.31405
13427,7.7241,0.45455,0,0.00040365,4033.7,0.00013423,0.034629,0.00013148,-20.655,-0.000404,-4044,0.31244
13428,7.6322,0.54545,0,0.00040588,4056,0.0001353,0.016827,0.00013164,-27.498,-0.00040634,-4069.6,0.30591
13429,7.7241,0.54545,0.05,9.935e-07,9.9281,7.6288e-07,5.732,1.2321e-13,3.3449e-06,-7.6289e-07,-5.732,0.31298
13430,7.7241,0.27273,0,0.00040464,4043.6,0.00013402,0.054143,0.00013271,-9.7961,-0.0004048,-4048.5,0.31123
13431,7.6322,0.36364,0,0.00040685,4065.7,0.00013509,0.059364,0.00013287,-16.559,-0.00040713,-4073.9,0.30475
13432,7.7241,0.36364,0.05,9.5265e-07,9.5199,7.3152e-07,5.4963,-1.6043e-12,1.526e-06,-7.3152e-07,-5.4963,0.31182
13433,7.6322,0.18182,0,0.00040794,4076.5,0.00013487,0.11647,0.00013421,-4.8485,-0.00040802,-4078.9,0.3035
13434,7.7241,0.18182,0.05,3.7167e-07,3.7141,2.854e-07,2.1444,1.4608e-13,1.0814e-05,-2.8539e-07,-2.1443,0.31057
13435,7.7241,0.090909,0,0.00040529,4050.1,0.00013384,0.172,0.00013361,-1.5715,-0.00040532,-4050.8,0.30994
13436,7.5402,5.7273,0,0.00041014,4098.6,0.00013593,0.058091,0.00013437,-11.595,-0.00041034,-4104.3,0.2971
13437,7.4483,5.8182,0,0.00041349,4132,0.00013677,0.10899,0.00013593,-6.2037,-0.00041359,-4135.1,0.2895
13438,7.5402,5.8182,0.05,4.0615e-07,4.0587,3.1187e-07,2.3432,1.5658e-12,-2.7894e-05,-3.1188e-07,-2.3434,0.29643
13439,7.5402,5.9091,0,0.00041089,4106,0.00013572,0.14383,0.00013539,-2.3054,-0.00041092,-4107.1,0.2958
13440,7.5402,5.5455,0,0.00040907,4087.9,0.00013616,0.038562,0.00013303,-23.411,-0.00040947,-4099.6,0.29831
13441,7.4483,5.6364,0,0.00041233,4120.4,0.00013701,0.065805,0.00013448,-18.909,-0.00041264,-4129.8,0.29076
13442,7.5402,5.6364,0.05,9.6318e-07,9.6251,7.3959e-07,5.557,6.4306e-12,-2.2921e-06,-7.3961e-07,-5.5571,0.29769
13443,7.5402,5.3636,0,0.00040808,4078,0.00013638,0.016927,0.00013177,-34.616,-0.00040866,-4095.2,0.29944
13444,7.4483,5.4545,0,0.00041127,4109.9,0.00013725,0.018776,0.00013314,-30.849,-0.00041179,-4125.2,0.29193
13445,7.5402,5.4545,0.05,1.0026e-06,10.019,7.6986e-07,5.7844,6.6539e-12,-2.6891e-06,-7.6987e-07,-5.7845,0.29886
13446,7.5402,5.1818,0,0.00040713,4068.5,0.00013659,0.01413,0.00013055,-45.373,-0.00040788,-4090.9,0.30047
13447,7.4483,5.2727,0,0.00041025,4099.7,0.00013748,0.017876,0.00013184,-42.341,-0.00041096,-4120.7,0.29301
13448,7.5402,5.2727,0.05,1.0071e-06,10.064,7.733e-07,5.8102,4.8407e-12,-5.0165e-06,-7.7331e-07,-5.8104,0.29994
13449,7.5402,5,0,0.00040622,4059.4,0.0001368,0.010264,0.00012939,-55.628,-0.00040713,-4086.9,0.30142
13450,7.4483,5.0909,0,0.00040928,4090,0.0001377,0.012199,0.0001306,-53.352,-0.00041016,-4116.4,0.29401
13451,7.5402,5.0909,0.05,1.0089e-06,10.082,7.7474e-07,5.8211,4.8972e-12,-2.8529e-06,-7.7475e-07,-5.8212,0.30093
13452,7.5402,4.8182,0,0.00040536,4050.8,0.00013699,0.0078352,0.0001283,-65.299,-0.00040643,-4083.1,0.30229
13453,7.4483,4.9091,0,0.00040836,4080.8,0.00013791,0.0094436,0.00012941,-63.796,-0.00040941,-4112.3,0.29492
13454,7.5402,4.9091,0.05,1.0104e-06,10.097,7.7583e-07,5.8293,6.7373e-12,-4.783e-06,-7.7585e-07,-5.8295,0.30184
13455,7.5402,4.6364,0,0.00040456,4042.8,0.00013717,0.0057463,0.00012728,-74.311,-0.00040577,-4079.5,0.30307
13456,7.4483,4.7273,0,0.00040749,4072.1,0.0001381,0.0069249,0.00012831,-73.59,-0.0004087,-4108.4,0.29575
13457,7.5402,4.7273,0.05,1.0115e-06,10.108,7.7671e-07,5.8359,4.8971e-12,-3.3634e-06,-7.7672e-07,-5.836,0.30266
13458,7.5402,4.4545,0,0.00040383,4035.5,0.00013733,0.0040384,0.00012634,-82.591,-0.00040517,-4076.2,0.30377
13459,7.4483,4.5455,0,0.00040669,4064.1,0.00013828,0.0049466,0.00012728,-82.655,-0.00040804,-4104.8,0.29649
13460,7.5402,4.5455,0.05,1.0124e-06,10.117,7.774e-07,5.841,3.2155e-12,-2.0187e-06,-7.774e-07,-5.8411,0.3034
13461,7.5402,4.2727,0,0.00040317,4028.9,0.00013748,0.0025896,0.00012549,-90.07,-0.00040462,-4073.2,0.30438
13462,7.4483,4.3636,0,0.00040596,4056.8,0.00013845,0.0032633,0.00012635,-90.918,-0.00040743,-4101.5,0.29715
13463,7.5402,4.3636,0.05,1.0131e-06,10.124,7.7792e-07,5.8449,5.1013e-12,-2.9459e-06,-7.7792e-07,-5.8451,0.30406
13464,7.5402,4.0909,0,0.00040258,4023,0.00013761,0.0013717,0.00012474,-96.687,-0.00040414,-4070.5,0.30491
13465,7.4483,4.1818,0,0.00040531,4050.3,0.00013859,0.0018512,0.00012551,-98.31,-0.00040689,-4098.6,0.29772
13466,7.5402,4.1818,0.05,1.0136e-06,10.129,7.783e-07,5.8478,3.3156e-12,-2.6207e-06,-7.7831e-07,-5.848,0.30463
13467,7.5402,3.9091,0,0.00040208,4018,0.00013772,0.00035788,0.0001241,-102.39,-0.00040372,-4068.2,0.30536
13468,7.4483,4,0,0.00040474,4044.6,0.00013872,0.00066742,0.00012478,-104.77,-0.00040642,-4096,0.29821
13469,7.5402,4,0.05,1.0139e-06,10.132,7.7857e-07,5.8499,3.3598e-12,-2.0114e-06,-7.7858e-07,-5.85,0.30512
13470,7.5402,3.7273,0,0.00040166,4013.8,0.00013782,-0.00046378,0.00012356,-107.12,-0.00040337,-4066.3,0.30572
13471,7.4483,3.8182,0,0.00040426,4039.8,0.00013883,-0.00030597,0.00012416,-110.24,-0.00040602,-4093.8,0.29862
13472,7.5402,3.8182,0.05,1.0142e-06,10.135,7.7876e-07,5.8513,1.621e-12,-1.5715e-06,-7.7877e-07,-5.8514,0.30552
13473,7.5402,3.5455,0,0.00040133,4010.5,0.00013789,-0.0010986,0.00012314,-110.84,-0.0004031,-4064.8,0.30601
13474,7.4483,3.6364,0,0.00040387,4035.9,0.00013892,-0.0010784,0.00012365,-114.67,-0.00040569,-4092,0.29894
13475,7.5402,3.6364,0.05,1.0143e-06,10.136,7.7888e-07,5.8522,3.4686e-12,-1.5252e-07,-7.7888e-07,-5.8523,0.30585
13476,7.5402,3.3636,0,0.00040109,4008.1,0.00013794,-0.0015507,0.00012283,-113.52,-0.0004029,-4063.7,0.30621
13477,7.4483,3.4545,0,0.00040357,4032.9,0.00013898,-0.0016535,0.00012327,-118.04,-0.00040545,-4090.6,0.29919
13478,7.5402,3.4545,0.05,1.0144e-06,10.137,7.7895e-07,5.8527,1.7119e-12,1.1169e-07,-7.7896e-07,-5.8528,0.30609
13479,7.5402,3.1818,0,0.00040095,4006.7,0.00013797,-0.0018221,0.00012265,-115.14,-0.00040278,-4063,0.30633
13480,7.4483,3.2727,0,0.00040337,4030.9,0.00013903,-0.0020372,0.00012302,-120.29,-0.00040528,-4089.7,0.29935
13481,7.5402,3.2727,0.05,1.0145e-06,10.138,7.7899e-07,5.853,1.7586e-12,4.8318e-07,-7.79e-07,-5.8531,0.30626
13482,7.5402,3,0,0.0004009,4006.2,0.00013799,-0.0019127,0.00012259,-115.69,-0.00040274,-4062.8,0.30637
13483,7.4483,3.0909,0,0.00040327,4029.9,0.00013905,-0.002229,0.00012289,-121.43,-0.0004052,-4089.3,0.29943
13484,7.5402,3.0909,0.05,1.0145e-06,10.138,7.7901e-07,5.8531,-1.8653e-14,-1.4574e-07,-7.7901e-07,-5.8532,0.30634
13485,7.5402,2.8182,0,0.00040095,4006.7,0.00013797,-0.0018223,0.00012265,-115.14,-0.00040278,-4063,0.30633
13486,7.4483,2.9091,0,0.00040327,4029.9,0.00013905,-0.002229,0.00012289,-121.43,-0.0004052,-4089.3,0.29943
13487,7.5402,2.9091,0.05,1.0145e-06,10.138,7.7901e-07,5.8531,1.8514e-14,2.0414e-06,-7.7901e-07,-5.8532,0.30634
13488,7.5402,2.6364,0,0.00040109,4008.1,0.00013794,-0.0015506,0.00012283,-113.52,-0.0004029,-4063.7,0.30621
13489,7.4483,2.7273,0,0.00040337,4030.9,0.00013903,-0.0020371,0.00012302,-120.29,-0.00040528,-4089.7,0.29935
13490,7.5402,2.7273,0.05,1.0145e-06,10.138,7.7899e-07,5.853,1.8709e-12,3.6992e-07,-7.7899e-07,-5.8531,0.30626
13491,7.5402,2.4545,0,0.00040133,4010.5,0.00013789,-0.0010982,0.00012314,-110.84,-0.0004031,-4064.8,0.30601
13492,7.4483,2.5455,0,0.00040357,4032.9,0.00013898,-0.0016533,0.00012327,-118.04,-0.00040545,-4090.6,0.29919
13493,7.5402,2.5455,0.05,1.0144e-06,10.137,7.7895e-07,5.8527,8.0293e-14,5.2665e-07,-7.7896e-07,-5.8528,0.30609
13494,7.5402,2.2727,0,0.00040166,4013.8,0.00013782,-0.00046354,0.00012356,-107.12,-0.00040337,-4066.3,0.30572
13495,7.4483,2.3636,0,0.00040387,4035.9,0.00013892,-0.0010781,0.00012365,-114.67,-0.00040569,-4092,0.29894
13496,7.5402,2.3636,0.05,1.0143e-06,10.136,7.7888e-07,5.8522,3.715e-12,8.4884e-07,-7.7888e-07,-5.8522,0.30585
13497,7.5402,2.0909,0,0.00040208,4018,0.00013772,0.00035809,0.0001241,-102.39,-0.00040372,-4068.2,0.30536
13498,7.4483,2.1818,0,0.00040426,4039.8,0.00013883,-0.00030579,0.00012416,-110.24,-0.00040602,-4093.8,0.29862
13499,7.5402,2.1818,0.05,1.0142e-06,10.135,7.7876e-07,5.8513,1.3254e-13,1.8794e-06,-7.7876e-07,-5.8513,0.30552
13500,7.5402,1.9091,0,0.00040258,4023,0.00013761,0.0013723,0.00012474,-96.687,-0.00040414,-4070.5,0.30491
13501,7.4483,2,0,0.00040474,4044.6,0.00013872,0.00066774,0.00012478,-104.77,-0.00040642,-4096,0.29821
13502,7.5402,2,0.05,1.0139e-06,10.132,7.7858e-07,5.8499,1.7697e-13,1.3035e-06,-7.7858e-07,-5.8499,0.30512
13503,7.5402,1.7273,0,0.00040317,4028.9,0.00013748,0.0025902,0.00012549,-90.07,-0.00040462,-4073.2,0.30438
13504,7.4483,1.8182,0,0.00040531,4050.3,0.00013859,0.0018519,0.00012551,-98.31,-0.00040689,-4098.6,0.29772
13505,7.5402,1.8182,0.05,1.0136e-06,10.129,7.783e-07,5.8479,2.0025e-13,3.1657e-06,-7.783e-07,-5.8479,0.30463
13506,7.5402,1.5455,0,0.00040383,4035.5,0.00013733,0.004039,0.00012634,-82.591,-0.00040517,-4076.2,0.30377
13507,7.4483,1.6364,0,0.00040596,4056.8,0.00013845,0.0032639,0.00012635,-90.918,-0.00040743,-4101.5,0.29715
13508,7.5402,1.6364,0.05,1.0131e-06,10.124,7.7792e-07,5.845,1.9216e-13,3.4054e-06,-7.7792e-07,-5.845,0.30406
13509,7.5402,1.3636,0,0.00040456,4042.8,0.00013717,0.0057471,0.00012728,-74.311,-0.00040577,-4079.5,0.30307
13510,7.4483,1.4545,0,0.00040669,4064.1,0.00013828,0.0049472,0.00012728,-82.655,-0.00040804,-4104.8,0.29649
13511,7.5402,1.4545,0.05,1.0124e-06,10.117,7.774e-07,5.8411,1.5544e-13,2.2459e-06,-7.774e-07,-5.8411,0.3034
13512,7.5402,1.1818,0,0.00040536,4050.8,0.00013699,0.0078362,0.0001283,-65.299,-0.00040643,-4083.1,0.30229
13513,7.4483,1.2727,0,0.00040749,4072.1,0.0001381,0.0069256,0.00012831,-73.59,-0.0004087,-4108.4,0.29575
13514,7.5402,1.2727,0.05,1.0115e-06,10.108,7.7671e-07,5.8359,2.0375e-13,2.4769e-06,-7.7671e-07,-5.836,0.30266
13515,7.5402,1,0,0.00040622,4059.4,0.0001368,0.010265,0.00012939,-55.628,-0.00040713,-4086.9,0.30142
13516,7.4483,1.0909,0,0.00040836,4080.8,0.00013791,0.0094445,0.00012941,-63.796,-0.00040941,-4112.3,0.29492
13517,7.5402,1.0909,0.05,1.0104e-06,10.097,7.7584e-07,5.8294,1.7468e-13,1.4654e-06,-7.7584e-07,-5.8294,0.30184
13518,7.5402,0.81818,0,0.00040713,4068.5,0.00013659,0.014131,0.00013055,-45.373,-0.00040788,-4090.9,0.30047
13519,7.4483,0.90909,0,0.00040928,4090,0.0001377,0.012201,0.0001306,-53.352,-0.00041016,-4116.4,0.29401
13520,7.5402,0.90909,0.05,1.0089e-06,10.082,7.7475e-07,5.8211,2.9041e-13,2.2287e-06,-7.7474e-07,-5.8211,0.30093
13521,7.5402,0.63636,0,0.00040808,4078,0.00013638,0.016928,0.00013177,-34.616,-0.00040866,-4095.2,0.29944
13522,7.4483,0.72727,0,0.00041025,4099.7,0.00013748,0.017877,0.00013184,-42.341,-0.00041096,-4120.7,0.29301
13523,7.5402,0.72727,0.05,1.0071e-06,10.064,7.733e-07,5.8103,-1.5774e-12,1.5506e-06,-7.733e-07,-5.8103,0.29994
13524,7.5402,0.45455,0,0.00040907,4087.9,0.00013616,0.038563,0.00013303,-23.411,-0.00040947,-4099.6,0.29831
13525,7.4483,0.54545,0,0.00041127,4109.9,0.00013725,0.018776,0.00013314,-30.849,-0.00041179,-4125.2,0.29193
13526,7.5402,0.54545,0.05,1.0026e-06,10.019,7.6986e-07,5.7845,-1.6439e-12,2.1779e-06,-7.6987e-07,-5.7845,0.29886
13527,7.5402,0.27273,0,0.00041014,4098.6,0.00013593,0.058092,0.00013437,-11.595,-0.00041034,-4104.3,0.2971
13528,7.4483,0.36364,0,0.00041233,4120.4,0.00013701,0.065807,0.00013448,-18.909,-0.00041264,-4129.8,0.29076
13529,7.5402,0.36364,0.05,9.6318e-07,9.6251,7.396e-07,5.5571,2.3526e-13,9.9699e-07,-7.396e-07,-5.5571,0.29769
13530,7.4483,0.18182,0,0.00041349,4132,0.00013677,0.109,0.00013593,-6.2037,-0.00041359,-4135.1,0.2895
13531,7.5402,0.18182,0.05,4.0615e-07,4.0587,3.1188e-07,2.3433,-9.5926e-13,6.5278e-07,-3.1187e-07,-2.3433,0.29643
13532,7.5402,0.090909,0,0.00041089,4106,0.00013572,0.14383,0.00013539,-2.3054,-0.00041092,-4107.1,0.2958
13533,7.3563,5.7273,0,0.00041567,4153.8,0.00013784,0.06272,0.00013604,-13.507,-0.0004159,-4160.5,0.28324
13534,7.2644,5.8182,0,0.00041907,4187.8,0.00013868,0.10602,0.00013765,-7.6395,-0.0004192,-4191.6,0.27577
13535,7.3563,5.8182,0.05,4.4366e-07,4.4335,3.4067e-07,2.5596,3.1972e-12,-2.8727e-05,-3.4068e-07,-2.5598,0.28257
13536,7.3563,5.9091,0,0.00041652,4162.3,0.00013761,0.13054,0.00013718,-3.0955,-0.00041657,-4163.8,0.28193
13537,7.3563,5.5455,0,0.00041452,4142.4,0.0001381,0.042822,0.00013459,-26.354,-0.00041496,-4155.4,0.28446
13538,7.2644,5.6364,0,0.00041783,4175.4,0.00013895,0.072785,0.00013609,-21.413,-0.00041819,-4186,0.27704
13539,7.3563,5.6364,0.05,9.7452e-07,9.7384,7.483e-07,5.6224,4.7081e-12,-3.3914e-06,-7.4831e-07,-5.6226,0.28384
13540,7.3563,5.3636,0,0.00041344,4131.6,0.00013834,0.018777,0.00013321,-38.581,-0.00041409,-4150.7,0.2856
13541,7.2644,5.4545,0,0.00041668,4164,0.00013921,0.020902,0.00013462,-34.432,-0.00041726,-4181.1,0.27823
13542,7.3563,5.4545,0.05,1.0123e-06,10.117,7.7735e-07,5.8407,6.5506e-12,-4.6925e-06,-7.7736e-07,-5.8409,0.28501
13543,7.3563,5.1818,0,0.00041241,4121.2,0.00013858,0.015531,0.00013188,-50.326,-0.00041324,-4146.2,0.28664
13544,7.2644,5.2727,0,0.00041558,4153,0.00013946,0.019723,0.00013321,-46.971,-0.00041636,-4176.2,0.27932
13545,7.3563,5.2727,0.05,1.0168e-06,10.161,7.8076e-07,5.8662,6.5128e-12,-5.1907e-06,-7.8077e-07,-5.8664,0.2861
13546,7.3563,5,0,0.00041142,4111.4,0.00013881,0.011154,0.00013062,-61.526,-0.00041243,-4141.8,0.2876
13547,7.2644,5.0909,0,0.00041453,4142.4,0.00013971,0.013337,0.00013185,-58.989,-0.0004155,-4171.6,0.28032
13548,7.3563,5.0909,0.05,1.0187e-06,10.18,7.8222e-07,5.8773,4.7303e-12,-3.9337e-06,-7.8223e-07,-5.8774,0.2871
13549,7.3563,4.8182,0,0.00041049,4102.1,0.00013902,0.0083935,0.00012942,-72.091,-0.00041167,-4137.6,0.28847
13550,7.2644,4.9091,0,0.00041353,4132.4,0.00013994,0.010205,0.00013057,-70.391,-0.00041468,-4167.1,0.28124
13551,7.3563,4.9091,0.05,1.0201e-06,10.194,7.8333e-07,5.8855,4.903e-12,-6.4208e-06,-7.8334e-07,-5.8858,0.28802
13552,7.3563,4.6364,0,0.00040962,4093.4,0.00013921,0.0060293,0.00012831,-81.938,-0.00041096,-4133.8,0.28926
13553,7.2644,4.7273,0,0.00041259,4123,0.00014015,0.0073601,0.00012936,-81.087,-0.00041391,-4163,0.28207
13554,7.3563,4.7273,0.05,1.0213e-06,10.205,7.8419e-07,5.8921,6.6944e-12,-2.6587e-06,-7.842e-07,-5.8922,0.28885
13555,7.3563,4.4545,0,0.00040883,4085.4,0.00013939,0.0041009,0.00012728,-90.986,-0.0004103,-4130.2,0.28996
13556,7.2644,4.5455,0,0.00041172,4114.3,0.00014035,0.0051284,0.00012824,-90.989,-0.00041319,-4159.1,0.28281
13557,7.3563,4.5455,0.05,1.0221e-06,10.214,7.8485e-07,5.897,6.703e-12,-4.2501e-06,-7.8486e-07,-5.8972,0.28959
13558,7.3563,4.2727,0,0.00040811,4078.3,0.00013956,0.0024697,0.00012636,-99.161,-0.0004097,-4126.9,0.29057
13559,7.2644,4.3636,0,0.00041092,4106.4,0.00014053,0.0032354,0.00012722,-100.02,-0.00041253,-4155.5,0.28348
13560,7.3563,4.3636,0.05,1.0227e-06,10.22,7.8534e-07,5.9007,3.2446e-12,-3.0941e-06,-7.8535e-07,-5.9008,0.29025
13561,7.3563,4.0909,0,0.00040747,4071.9,0.0001397,0.0011015,0.00012554,-106.4,-0.00040918,-4124,0.29111
13562,7.2644,4.1818,0,0.00041021,4099.3,0.00014069,0.0016502,0.0001263,-108.09,-0.00041195,-4152.3,0.28405
13563,7.3563,4.1818,0.05,1.0232e-06,10.225,7.8568e-07,5.9032,5.1202e-12,-3.2487e-06,-7.8568e-07,-5.9034,0.29082
13564,7.3563,3.9091,0,0.00040692,4066.4,0.00013982,-3.5173e-05,0.00012483,-112.63,-0.00040872,-4121.6,0.29156
13565,7.2644,4,0,0.0004096,4093.1,0.00014083,0.00032414,0.0001255,-115.15,-0.00041143,-4149.5,0.28454
13566,7.3563,4,0.05,1.0235e-06,10.228,7.859e-07,5.905,1.5187e-12,-1.1912e-06,-7.8592e-07,-5.9051,0.29131
13567,7.3563,3.7273,0,0.00040647,4061.9,0.00013993,-0.00095489,0.00012425,-117.8,-0.00040834,-4119.5,0.29192
13568,7.2644,3.8182,0,0.00040907,4087.9,0.00014095,-0.00076482,0.00012483,-121.13,-0.000411,-4147.1,0.28495
13569,7.3563,3.8182,0.05,1.0237e-06,10.23,7.8604e-07,5.9061,1.5814e-12,-5.1856e-07,-7.8606e-07,-5.9061,0.29172
13570,7.3563,3.5455,0,0.00040611,4058.3,0.00014001,-0.0016645,0.00012379,-121.87,-0.00040804,-4117.8,0.29221
13571,7.2644,3.6364,0,0.00040864,4083.6,0.00014104,-0.0016272,0.00012428,-125.98,-0.00041064,-4145.2,0.28528
13572,7.3563,3.6364,0.05,1.0238e-06,10.231,7.8613e-07,5.9066,5.2966e-12,-5.5349e-07,-7.8613e-07,-5.9068,0.29205
13573,7.3563,3.3636,0,0.00040585,4055.7,0.00014006,-0.0021693,0.00012345,-124.81,-0.00040783,-4116.7,0.29241
13574,7.2644,3.4545,0,0.00040832,4080.4,0.00014112,-0.0022692,0.00012386,-129.66,-0.00041037,-4143.7,0.28553
13575,7.3563,3.4545,0.05,1.0238e-06,10.231,7.8617e-07,5.9069,1.7098e-12,9.8377e-07,-7.8617e-07,-5.907,0.2923
13576,7.3563,3.1818,0,0.00040569,4054.1,0.0001401,-0.0024723,0.00012325,-126.58,-0.0004077,-4115.9,0.29254
13577,7.2644,3.2727,0,0.00040811,4078.2,0.00014117,-0.0026968,0.00012358,-132.12,-0.00041019,-4142.7,0.28569
13578,7.3563,3.2727,0.05,1.0238e-06,10.231,7.8619e-07,5.907,5.3913e-12,4.0787e-07,-7.8619e-07,-5.9072,0.29246
13579,7.3563,3,0,0.00040564,4053.6,0.00014011,-0.0025733,0.00012319,-127.17,-0.00040766,-4115.7,0.29258
13580,7.2644,3.0909,0,0.000408,4077.2,0.00014119,-0.0029108,0.00012344,-133.36,-0.0004101,-4142.2,0.28577
13581,7.3563,3.0909,0.05,1.0239e-06,10.231,7.8619e-07,5.9071,3.617e-12,8.0291e-07,-7.862e-07,-5.9071,0.29254
13582,7.3563,2.8182,0,0.00040569,4054.1,0.0001401,-0.0024722,0.00012325,-126.58,-0.0004077,-4115.9,0.29254
13583,7.2644,2.9091,0,0.000408,4077.2,0.00014119,-0.0029107,0.00012344,-133.36,-0.0004101,-4142.2,0.28577
13584,7.3563,2.9091,0.05,1.0239e-06,10.231,7.8619e-07,5.9071,3.657e-12,2.057e-06,-7.862e-07,-5.9071,0.29254
13585,7.3563,2.6364,0,0.00040585,4055.7,0.00014006,-0.0021693,0.00012345,-124.81,-0.00040783,-4116.7,0.29241
13586,7.2644,2.7273,0,0.00040811,4078.2,0.00014117,-0.0026968,0.00012358,-132.12,-0.00041019,-4142.7,0.28569
13587,7.3563,2.7273,0.05,1.0238e-06,10.231,7.8619e-07,5.907,3.6912e-12,3.7868e-07,-7.8619e-07,-5.9072,0.29246
13588,7.3563,2.4545,0,0.00040611,4058.3,0.00014001,-0.0016644,0.00012379,-121.87,-0.00040804,-4117.8,0.29221
13589,7.2644,2.5455,0,0.00040832,4080.4,0.00014112,-0.0022691,0.00012386,-129.66,-0.00041037,-4143.7,0.28553
13590,7.3563,2.5455,0.05,1.0238e-06,10.231,7.8617e-07,5.9069,1.9138e-12,6.2307e-07,-7.8617e-07,-5.907,0.2923
13591,7.3563,2.2727,0,0.00040647,4061.9,0.00013993,-0.00095462,0.00012425,-117.8,-0.00040834,-4119.5,0.29192
13592,7.2644,2.3636,0,0.00040864,4083.6,0.00014104,-0.0016271,0.00012428,-125.98,-0.00041064,-4145.2,0.28528
13593,7.3563,2.3636,0.05,1.0238e-06,10.231,7.8613e-07,5.9066,3.7519e-12,8.1386e-07,-7.8613e-07,-5.9067,0.29205
13594,7.3563,2.0909,0,0.00040692,4066.4,0.00013982,-3.4877e-05,0.00012483,-112.63,-0.00040872,-4121.6,0.29156
13595,7.2644,2.1818,0,0.00040907,4087.9,0.00014095,-0.00076434,0.00012483,-121.13,-0.000411,-4147.1,0.28495
13596,7.3563,2.1818,0.05,1.0237e-06,10.23,7.8605e-07,5.9061,1.2165e-13,1.9042e-06,-7.8606e-07,-5.9061,0.29172
13597,7.3563,1.9091,0,0.00040747,4071.9,0.0001397,0.001102,0.00012554,-106.4,-0.00040918,-4124,0.29111
13598,7.2644,2,0,0.0004096,4093.1,0.00014083,0.00032455,0.0001255,-115.15,-0.00041143,-4149.5,0.28454
13599,7.3563,2,0.05,1.0235e-06,10.228,7.8591e-07,5.905,1.3782e-13,1.9851e-06,-7.8591e-07,-5.9051,0.29131
13600,7.3563,1.7273,0,0.00040811,4078.3,0.00013956,0.0024703,0.00012636,-99.161,-0.0004097,-4126.9,0.29057
13601,7.2644,1.8182,0,0.00041021,4099.3,0.00014069,0.0016509,0.0001263,-108.09,-0.00041195,-4152.3,0.28405
13602,7.3563,1.8182,0.05,1.0232e-06,10.225,7.8568e-07,5.9033,2.178e-13,1.9325e-06,-7.8568e-07,-5.9033,0.29082
13603,7.3563,1.5455,0,0.00040883,4085.4,0.00013939,0.0041015,0.00012728,-90.986,-0.0004103,-4130.2,0.28996
13604,7.2644,1.6364,0,0.00041092,4106.4,0.00014053,0.0032359,0.00012722,-100.02,-0.00041253,-4155.5,0.28348
13605,7.3563,1.6364,0.05,1.0227e-06,10.22,7.8534e-07,5.9007,2.031e-12,1.9733e-06,-7.8534e-07,-5.9008,0.29025
13606,7.3563,1.3636,0,0.00040962,4093.4,0.00013921,0.00603,0.00012831,-81.938,-0.00041096,-4133.8,0.28926
13607,7.2644,1.4545,0,0.00041172,4114.3,0.00014035,0.005129,0.00012824,-90.989,-0.00041319,-4159.1,0.28281
13608,7.3563,1.4545,0.05,1.0221e-06,10.214,7.8485e-07,5.8971,1.9981e-12,2.4217e-06,-7.8486e-07,-5.8971,0.28959
13609,7.3563,1.1818,0,0.00041049,4102.1,0.00013902,0.008394,0.00012942,-72.091,-0.00041167,-4137.6,0.28847
13610,7.2644,1.2727,0,0.00041259,4123,0.00014015,0.0073607,0.00012936,-81.087,-0.00041391,-4163,0.28207
13611,7.3563,1.2727,0.05,1.0213e-06,10.205,7.842e-07,5.8921,2.0677e-13,2.6718e-06,-7.842e-07,-5.8921,0.28885
13612,7.3563,1,0,0.00041142,4111.4,0.00013881,0.011155,0.00013062,-61.526,-0.00041243,-4141.8,0.2876
13613,7.2644,1.0909,0,0.00041353,4132.4,0.00013994,0.010206,0.00013057,-70.391,-0.00041468,-4167.1,0.28124
13614,7.3563,1.0909,0.05,1.0201e-06,10.194,7.8333e-07,5.8856,1.5828e-13,1.5933e-06,-7.8333e-07,-5.8857,0.28802
13615,7.3563,0.81818,0,0.00041241,4121.2,0.00013858,0.015532,0.00013188,-50.326,-0.00041324,-4146.2,0.28664
13616,7.2644,0.90909,0,0.00041453,4142.4,0.00013971,0.013339,0.00013185,-58.989,-0.0004155,-4171.6,0.28032
13617,7.3563,0.90909,0.05,1.0187e-06,10.18,7.8223e-07,5.8774,-1.5775e-12,1.1247e-06,-7.8223e-07,-5.8774,0.2871
13618,7.3563,0.63636,0,0.00041344,4131.6,0.00013834,0.018777,0.00013321,-38.581,-0.00041409,-4150.7,0.2856
13619,7.2644,0.72727,0,0.00041558,4153,0.00013946,0.019724,0.00013321,-46.971,-0.00041636,-4176.2,0.27932
13620,7.3563,0.72727,0.05,1.0168e-06,10.161,7.8076e-07,5.8663,1.7559e-13,1.6435e-06,-7.8076e-07,-5.8663,0.2861
13621,7.3563,0.45455,0,0.00041452,4142.4,0.0001381,0.042823,0.00013459,-26.354,-0.00041496,-4155.4,0.28446
13622,7.2644,0.54545,0,0.00041668,4164,0.00013921,0.020902,0.00013462,-34.432,-0.00041726,-4181.1,0.27823
13623,7.3563,0.54545,0.05,1.0123e-06,10.117,7.7736e-07,5.8408,-3.2022e-12,2.7714e-06,-7.7736e-07,-5.8407,0.28501
13624,7.3563,0.27273,0,0.00041567,4153.8,0.00013784,0.062721,0.00013604,-13.507,-0.0004159,-4160.5,0.28324
13625,7.2644,0.36364,0,0.00041783,4175.4,0.00013895,0.072786,0.00013609,-21.413,-0.00041819,-4186,0.27704
13626,7.3563,0.36364,0.05,9.7452e-07,9.7384,7.4831e-07,5.6225,2.2565e-13,1.6703e-06,-7.4831e-07,-5.6225,0.28384
13627,7.2644,0.18182,0,0.00041907,4187.8,0.00013868,0.10602,0.00013765,-7.6395,-0.0004192,-4191.6,0.27577
13628,7.3563,0.18182,0.05,4.4366e-07,4.4335,3.4067e-07,2.5597,-1.4443e-12,1.0377e-05,-3.4067e-07,-2.5597,0.28257
13629,7.3563,0.090909,0,0.00041652,4162.3,0.00013761,0.13054,0.00013718,-3.0955,-0.00041657,-4163.8,0.28193
13630,7.1724,5.7273,0,0.00042123,4209.4,0.00013978,0.068021,0.0001377,-15.538,-0.00042149,-4217.1,0.26967
13631,7.0805,5.8182,0,0.00042469,4244,0.00014061,0.10601,0.00013938,-9.1568,-0.00042484,-4248.5,0.26234
13632,7.1724,5.8182,0.05,4.8441e-07,4.8408,3.7196e-07,2.7948,2.5526e-12,-1.9162e-05,-3.7197e-07,-2.7949,0.26899
13633,7.1724,5.9091,0,0.00042218,4218.9,0.00013952,0.12439,0.00013898,-3.9352,-0.00042224,-4220.8,0.26835
13634,7.1724,5.5455,0,0.00041999,4197,0.00014006,0.047441,0.00013613,-29.497,-0.00042048,-4211.7,0.2709
13635,7.0805,5.6364,0,0.00042336,4230.6,0.00014091,0.080354,0.00013769,-24.082,-0.00042376,-4242.6,0.26362
13636,7.1724,5.6364,0.05,9.8674e-07,9.8606,7.5769e-07,5.693,4.4083e-12,-5.9059e-06,-7.577e-07,-5.6931,0.27027
13637,7.1724,5.3636,0,0.00041882,4185.3,0.00014033,0.020794,0.00013463,-42.827,-0.00041953,-4206.6,0.27204
13638,7.0805,5.4545,0,0.00042212,4218.3,0.00014119,0.023223,0.0001361,-38.265,-0.00042276,-4237.3,0.2648
13639,7.1724,5.4545,0.05,1.0228e-06,10.221,7.854e-07,5.9011,6.4329e-12,-8.1923e-06,-7.8541e-07,-5.9013,0.27145
13640,7.1724,5.1818,0,0.0004177,4174.1,0.00014059,0.017062,0.00013318,-55.639,-0.00041862,-4201.7,0.27309
13641,7.0805,5.2727,0,0.00042092,4206.3,0.00014147,0.021737,0.00013456,-51.934,-0.00042178,-4232,0.2659
13642,7.1724,5.2727,0.05,1.0272e-06,10.265,7.8876e-07,5.9264,6.3497e-12,-4.3419e-06,-7.8877e-07,-5.9265,0.27255
13643,7.1724,5,0,0.00041663,4163.4,0.00014084,0.012133,0.0001318,-67.858,-0.00041774,-4196.9,0.27405
13644,7.0805,5.0909,0,0.00041978,4194.9,0.00014174,0.014585,0.00013308,-65.04,-0.00042085,-4227,0.26691
13645,7.1724,5.0909,0.05,1.0291e-06,10.284,7.9025e-07,5.9375,6.3894e-12,-6.0194e-06,-7.9026e-07,-5.9377,0.27355
13646,7.1724,4.8182,0,0.00041562,4153.3,0.00014107,0.0090123,0.0001305,-79.39,-0.00041691,-4192.5,0.27493
13647,7.0805,4.9091,0,0.00041869,4184,0.00014199,0.011045,0.00013168,-77.478,-0.00041996,-4222.2,0.26784
13648,7.1724,4.9091,0.05,1.0306e-06,10.299,7.9135e-07,5.9459,4.7666e-12,-3.647e-06,-7.9136e-07,-5.946,0.27447
13649,7.1724,4.6364,0,0.00041468,4143.9,0.00014129,0.0063499,0.00012929,-90.14,-0.00041614,-4188.3,0.27572
13650,7.0805,4.7273,0,0.00041767,4173.8,0.00014223,0.0078461,0.00013036,-89.149,-0.00041912,-4217.7,0.26867
13651,7.1724,4.7273,0.05,1.0317e-06,10.31,7.9219e-07,5.9522,4.811e-12,-4.222e-06,-7.922e-07,-5.9523,0.27531
13652,7.1724,4.4545,0,0.00041381,4135.3,0.00014148,0.0041823,0.00012817,-100.02,-0.00041542,-4184.4,0.27642
13653,7.0805,4.5455,0,0.00041673,4164.4,0.00014244,0.0053397,0.00012914,-99.958,-0.00041834,-4213.5,0.26942
13654,7.1724,4.5455,0.05,1.0325e-06,10.318,7.9281e-07,5.9569,4.8787e-12,-3.5732e-06,-7.9283e-07,-5.957,0.27605
13655,7.1724,4.2727,0,0.00041303,4127.5,0.00014166,0.0023528,0.00012716,-108.95,-0.00041478,-4180.9,0.27704
13656,7.0805,4.3636,0,0.00041587,4155.8,0.00014264,0.0032186,0.00012802,-109.82,-0.00041763,-4209.6,0.27008
13657,7.1724,4.3636,0.05,1.0331e-06,10.323,7.9325e-07,5.9601,5.0149e-12,-3.3836e-06,-7.9326e-07,-5.9603,0.27672
13658,7.1724,4.0909,0,0.00041234,4120.5,0.00014182,0.00082106,0.00012627,-116.85,-0.0004142,-4177.7,0.27758
13659,7.0805,4.1818,0,0.0004151,4148.1,0.00014282,0.0014453,0.00012703,-118.64,-0.00041699,-4206.2,0.27066
13660,7.1724,4.1818,0.05,1.0334e-06,10.327,7.9353e-07,5.9622,6.8643e-12,-5.2486e-06,-7.9355e-07,-5.9625,0.27729
13661,7.1724,3.9091,0,0.00041174,4114.6,0.00014195,-0.00044968,0.0001255,-123.66,-0.00041371,-4175,0.27803
13662,7.0805,4,0,0.00041443,4141.4,0.00014297,-3.5972e-05,0.00012616,-126.35,-0.00041643,-4203.1,0.27116
13663,7.1724,4,0.05,1.0336e-06,10.329,7.9371e-07,5.9636,3.2865e-12,-1.9491e-06,-7.9371e-07,-5.9636,0.27779
13664,7.1724,3.7273,0,0.00041125,4109.7,0.00014207,-0.0014762,0.00012486,-129.32,-0.0004133,-4172.8,0.2784
13665,7.0805,3.8182,0,0.00041386,4135.7,0.0001431,-0.0012505,0.00012542,-132.88,-0.00041596,-4200.5,0.27157
13666,7.1724,3.8182,0.05,1.0338e-06,10.33,7.9379e-07,5.9642,5.1755e-12,-1.6214e-06,-7.938e-07,-5.9643,0.2782
13667,7.1724,3.5455,0,0.00041086,4105.8,0.00014216,-0.0022675,0.00012435,-133.77,-0.00041297,-4171,0.27869
13668,7.0805,3.6364,0,0.00041339,4131.1,0.00014321,-0.0022112,0.00012482,-138.18,-0.00041557,-4198.4,0.2719
13669,7.1724,3.6364,0.05,1.0338e-06,10.331,7.9382e-07,5.9644,5.2726e-12,-1.4735e-06,-7.9382e-07,-5.9645,0.27853
13670,7.1724,3.3636,0,0.00041058,4103,0.00014222,-0.0028302,0.00012399,-136.98,-0.00041274,-4169.7,0.27889
13671,7.0805,3.4545,0,0.00041304,4127.6,0.00014329,-0.0029263,0.00012436,-142.19,-0.00041528,-4196.8,0.27214
13672,7.1724,3.4545,0.05,1.0338e-06,10.331,7.9382e-07,5.9644,3.5148e-12,8.962e-07,-7.9383e-07,-5.9645,0.27877
13673,7.1724,3.1818,0,0.00041041,4101.3,0.00014226,-0.0031675,0.00012377,-138.91,-0.0004126,-4169,0.27902
13674,7.0805,3.2727,0,0.00041281,4125.2,0.00014334,-0.003402,0.00012406,-144.89,-0.00041508,-4195.8,0.27231
13675,7.1724,3.2727,0.05,1.0338e-06,10.331,7.9381e-07,5.9643,1.7466e-12,-5.1595e-07,-7.9381e-07,-5.9644,0.27894
13676,7.1724,3,0,0.00041035,4100.7,0.00014227,-0.00328,0.0001237,-139.56,-0.00041255,-4168.7,0.27906
13677,7.0805,3.0909,0,0.00041269,4124,0.00014337,-0.0036398,0.0001239,-146.25,-0.00041498,-4195.2,0.27239
13678,7.1724,3.0909,0.05,1.0338e-06,10.33,7.938e-07,5.9642,1.7961e-12,1.7358e-06,-7.938e-07,-5.9644,0.27902
13679,7.1724,2.8182,0,0.00041041,4101.3,0.00014226,-0.0031675,0.00012377,-138.91,-0.0004126,-4169,0.27902
13680,7.0805,2.9091,0,0.00041269,4124,0.00014337,-0.0036398,0.0001239,-146.25,-0.00041498,-4195.2,0.27239
13681,7.1724,2.9091,0.05,1.0338e-06,10.33,7.938e-07,5.9642,1.8398e-12,2.0613e-06,-7.938e-07,-5.9644,0.27902
13682,7.1724,2.6364,0,0.00041058,4103,0.00014222,-0.00283,0.00012399,-136.98,-0.00041274,-4169.7,0.27889
13683,7.0805,2.7273,0,0.00041281,4125.2,0.00014334,-0.0034019,0.00012406,-144.89,-0.00041508,-4195.8,0.27231
13684,7.1724,2.7273,0.05,1.0338e-06,10.331,7.9381e-07,5.9643,6.2354e-14,2.3512e-06,-7.9381e-07,-5.9644,0.27894
13685,7.1724,2.4545,0,0.00041086,4105.8,0.00014216,-0.0022674,0.00012435,-133.77,-0.00041297,-4171,0.27869
13686,7.0805,2.5455,0,0.00041304,4127.6,0.00014329,-0.002926,0.00012436,-142.19,-0.00041528,-4196.8,0.27214
13687,7.1724,2.5455,0.05,1.0338e-06,10.331,7.9382e-07,5.9644,1.9152e-12,6.7828e-07,-7.9382e-07,-5.9645,0.27877
13688,7.1724,2.2727,0,0.00041125,4109.7,0.00014207,-0.0014759,0.00012486,-129.32,-0.0004133,-4172.8,0.2784
13689,7.0805,2.3636,0,0.00041339,4131.1,0.00014321,-0.002211,0.00012482,-138.18,-0.00041557,-4198.4,0.2719
13690,7.1724,2.3636,0.05,1.0338e-06,10.331,7.9382e-07,5.9644,1.9437e-12,2.796e-06,-7.9382e-07,-5.9645,0.27853
13691,7.1724,2.0909,0,0.00041174,4114.6,0.00014195,-0.00044909,0.0001255,-123.66,-0.00041371,-4175,0.27803
13692,7.0805,2.1818,0,0.00041386,4135.7,0.0001431,-0.0012501,0.00012542,-132.88,-0.00041596,-4200.5,0.27157
13693,7.1724,2.1818,0.05,1.0338e-06,10.33,7.9379e-07,5.9643,1.9623e-12,4.1251e-06,-7.938e-07,-5.9643,0.2782
13694,7.1724,1.9091,0,0.00041234,4120.5,0.00014182,0.00082171,0.00012627,-116.85,-0.0004142,-4177.7,0.27758
13695,7.0805,2,0,0.00041443,4141.4,0.00014297,-3.529e-05,0.00012616,-126.35,-0.00041643,-4203.1,0.27116
13696,7.1724,2,0.05,1.0336e-06,10.329,7.9371e-07,5.9636,1.1542e-13,2.4856e-06,-7.9371e-07,-5.9636,0.27779
13697,7.1724,1.7273,0,0.00041303,4127.5,0.00014166,0.0023534,0.00012716,-108.95,-0.00041478,-4180.9,0.27704
13698,7.0805,1.8182,0,0.0004151,4148.1,0.00014282,0.0014459,0.00012703,-118.64,-0.00041699,-4206.2,0.27066
13699,7.1724,1.8182,0.05,1.0334e-06,10.327,7.9354e-07,5.9623,3.7374e-12,3.6715e-06,-7.9354e-07,-5.9624,0.27729
13700,7.1724,1.5455,0,0.00041381,4135.3,0.00014148,0.0041828,0.00012817,-100.02,-0.00041542,-4184.4,0.27642
13701,7.0805,1.6364,0,0.00041587,4155.8,0.00014264,0.003219,0.00012802,-109.82,-0.00041763,-4209.6,0.27008
13702,7.1724,1.6364,0.05,1.0331e-06,10.323,7.9325e-07,5.9602,2.4014e-13,9.382e-07,-7.9325e-07,-5.9602,0.27672
13703,7.1724,1.3636,0,0.00041468,4143.9,0.00014129,0.0063504,0.00012929,-90.14,-0.00041614,-4188.3,0.27572
13704,7.0805,1.4545,0,0.00041673,4164.4,0.00014244,0.0053402,0.00012914,-99.958,-0.00041834,-4213.5,0.26942
13705,7.1724,1.4545,0.05,1.0325e-06,10.318,7.9282e-07,5.9569,1.991e-12,2.9163e-06,-7.9282e-07,-5.9569,0.27605
13706,7.1724,1.1818,0,0.00041562,4153.3,0.00014107,0.0090131,0.0001305,-79.39,-0.00041691,-4192.5,0.27493
13707,7.0805,1.2727,0,0.00041767,4173.8,0.00014223,0.0078468,0.00013036,-89.149,-0.00041912,-4217.7,0.26867
13708,7.1724,1.2727,0.05,1.0317e-06,10.31,7.922e-07,5.9522,2.4033e-13,1.8816e-06,-7.922e-07,-5.9523,0.27531
13709,7.1724,1,0,0.00041663,4163.4,0.00014084,0.012134,0.0001318,-67.859,-0.00041774,-4196.9,0.27405
13710,7.0805,1.0909,0,0.00041869,4184,0.00014199,0.011046,0.00013168,-77.478,-0.00041996,-4222.2,0.26784
13711,7.1724,1.0909,0.05,1.0306e-06,10.299,7.9135e-07,5.9459,2.4035e-13,1.7282e-06,-7.9135e-07,-5.9459,0.27447
13712,7.1724,0.81818,0,0.0004177,4174.1,0.00014059,0.017063,0.00013318,-55.639,-0.00041862,-4201.7,0.27309
13713,7.0805,0.90909,0,0.00041978,4194.9,0.00014174,0.014586,0.00013308,-65.04,-0.00042085,-4227,0.26691
13714,7.1724,0.90909,0.05,1.0291e-06,10.284,7.9025e-07,5.9377,-1.5531e-12,4.729e-06,-7.9025e-07,-5.9376,0.27355
13715,7.1724,0.63636,0,0.00041882,4185.3,0.00014033,0.020795,0.00013463,-42.827,-0.00041953,-4206.6,0.27204
13716,7.0805,0.72727,0,0.00042092,4206.3,0.00014147,0.021738,0.00013456,-51.934,-0.00042178,-4232,0.2659
13717,7.1724,0.72727,0.05,1.0272e-06,10.265,7.8877e-07,5.9265,2.9555e-13,1.741e-06,-7.8876e-07,-5.9265,0.27255
13718,7.1724,0.45455,0,0.00041999,4197,0.00014006,0.047442,0.00013613,-29.497,-0.00042048,-4211.7,0.2709
13719,7.0805,0.54545,0,0.00042212,4218.3,0.00014119,0.023223,0.0001361,-38.265,-0.00042276,-4237.3,0.26481
13720,7.1724,0.54545,0.05,1.0228e-06,10.221,7.8541e-07,5.9012,-1.6034e-12,2.2535e-06,-7.8541e-07,-5.9012,0.27145
13721,7.1724,0.27273,0,0.00042123,4209.4,0.00013978,0.068022,0.0001377,-15.538,-0.00042149,-4217.1,0.26967
13722,7.0805,0.36364,0,0.00042336,4230.6,0.00014091,0.080356,0.00013769,-24.082,-0.00042376,-4242.6,0.26362
13723,7.1724,0.36364,0.05,9.8674e-07,9.8606,7.5769e-07,5.693,8.398e-14,1.1645e-06,-7.577e-07,-5.693,0.27027
13724,7.0805,0.18182,0,0.00042469,4244,0.00014061,0.10601,0.00013938,-9.1568,-0.00042484,-4248.5,0.26234
13725,7.1724,0.18182,0.05,4.8441e-07,4.8408,3.7197e-07,2.7948,-3.4294e-13,2.0557e-06,-3.7196e-07,-2.7948,0.26899
13726,7.1724,0.090909,0,0.00042218,4218.9,0.00013952,0.1244,0.00013898,-3.9352,-0.00042224,-4220.8,0.26835
13727,6.9885,5.7273,0,0.00042681,4265.2,0.00014173,0.074016,0.00013937,-17.694,-0.00042711,-4274,0.25638
13728,6.8966,5.8182,0,0.00043034,4300.5,0.00014256,0.10824,0.00014111,-10.757,-0.00043052,-4305.8,0.24919
13729,6.9885,5.8182,0.05,5.2865e-07,5.2828,4.0593e-07,3.0499,1.326e-12,-3.9644e-05,-4.0594e-07,-3.0501,0.2557
13730,6.9885,5.9091,0,0.00042788,4275.8,0.00014145,0.12232,0.00014079,-4.8223,-0.00042796,-4278.2,0.25505
13731,6.9885,5.5455,0,0.00042548,4251.9,0.00014204,0.052456,0.00013766,-32.854,-0.00042603,-4268.2,0.25762
13732,6.8966,5.6364,0,0.00042891,4286.2,0.00014288,0.088572,0.00013928,-26.927,-0.00042936,-4299.5,0.25047
13733,6.9885,5.6364,0.05,9.9995e-07,9.9926,7.6783e-07,5.7691,5.98e-12,-9.9573e-06,-7.6784e-07,-5.7693,0.25698
13734,6.9885,5.3636,0,0.00042422,4239.2,0.00014233,0.022997,0.00013603,-47.375,-0.000425,-4262.7,0.25876
13735,6.8966,5.4545,0,0.00042757,4272.8,0.00014319,0.025759,0.00013755,-42.365,-0.00042828,-4293.8,0.25167
13736,6.9885,5.4545,0.05,1.0341e-06,10.334,7.9406e-07,5.9662,4.413e-12,-7.3755e-06,-7.9407e-07,-5.9664,0.25817
13737,6.9885,5.1818,0,0.000423,4227.1,0.00014262,0.018736,0.00013445,-61.338,-0.00042401,-4257.4,0.25982
13738,6.8966,5.2727,0,0.00042628,4259.8,0.0001435,0.023935,0.00013588,-57.254,-0.00042722,-4288.2,0.25278
13739,6.9885,5.2727,0.05,1.0384e-06,10.377,7.9737e-07,5.9911,2.69e-12,-5.0712e-06,-7.9738e-07,-5.9912,0.25928
13740,6.9885,5,0,0.00042184,4215.5,0.00014289,0.013209,0.00013295,-74.661,-0.00042306,-4252.3,0.26079
13741,6.8966,5.0909,0,0.00042504,4247.4,0.00014379,0.015953,0.00013427,-71.536,-0.00042621,-4282.7,0.25379
13742,6.9885,5.0909,0.05,1.0404e-06,10.396,7.9886e-07,6.0023,2.7477e-12,-6.9733e-06,-7.9887e-07,-6.0025,0.26029
13743,6.9885,4.8182,0,0.00042075,4204.5,0.00014315,0.009698,0.00013153,-87.239,-0.00042216,-4247.5,0.26167
13744,6.8966,4.9091,0,0.00042386,4235.7,0.00014407,0.01197,0.00013274,-85.096,-0.00042524,-4277.6,0.25472
13745,6.9885,4.9091,0.05,1.0418e-06,10.411,7.9995e-07,6.0105,4.5475e-12,-8.5748e-06,-7.9996e-07,-6.0107,0.26121
13746,6.9885,4.6364,0,0.00041972,4194.3,0.00014338,0.0067119,0.00013021,-98.968,-0.00042132,-4242.9,0.26246
13747,6.8966,4.7273,0,0.00042275,4224.6,0.00014433,0.0083879,0.00013131,-97.824,-0.00042433,-4272.7,0.25556
13748,6.9885,4.7273,0.05,1.0428e-06,10.421,8.0077e-07,6.0166,2.9614e-12,-4.8021e-06,-8.0077e-07,-6.0167,0.26205
13749,6.9885,4.4545,0,0.00041878,4185,0.0001436,0.0042844,0.00012899,-109.75,-0.00042054,-4238.8,0.26317
13750,6.8966,4.5455,0,0.00042173,4214.4,0.00014457,0.0055829,0.00012998,-109.62,-0.00042349,-4268.1,0.25631
13751,6.9885,4.5455,0.05,1.0436e-06,10.429,8.0133e-07,6.0209,4.7987e-12,-4.3323e-06,-8.0135e-07,-6.021,0.2628
13752,6.9885,4.2727,0,0.00041794,4176.5,0.0001438,0.0022395,0.00012789,-119.5,-0.00041984,-4234.9,0.26379
13753,6.8966,4.3636,0,0.00042079,4205,0.00014478,0.003214,0.00012876,-120.37,-0.00042271,-4263.9,0.25698
13754,6.9885,4.3636,0.05,1.0441e-06,10.433,8.0171e-07,6.0237,4.8825e-12,-4.827e-06,-8.0171e-07,-6.0238,0.26347
13755,6.9885,4.0909,0,0.00041718,4169,0.00014397,0.00052956,0.00012692,-128.13,-0.00041922,-4231.6,0.26433
13756,6.8966,4.1818,0,0.00041996,4196.7,0.00014498,0.0012363,0.00012767,-130,-0.00042202,-4260.2,0.25756
13757,6.9885,4.1818,0.05,1.0443e-06,10.436,8.0192e-07,6.0253,5.0094e-12,-3.2897e-06,-8.0193e-07,-6.0254,0.26405
13758,6.9885,3.9091,0,0.00041654,4162.5,0.00014412,-0.00088685,0.00012608,-135.57,-0.00041868,-4228.6,0.26479
13759,6.8966,4,0,0.00041923,4189.4,0.00014515,-0.00041374,0.00012672,-138.42,-0.00042141,-4256.9,0.25805
13760,6.9885,4,0.05,1.0445e-06,10.437,8.0202e-07,6.026,3.2599e-12,-2.7877e-06,-8.0202e-07,-6.0261,0.26454
13761,6.9885,3.7273,0,0.000416,4157.1,0.00014424,-0.0020298,0.00012538,-141.74,-0.00041823,-4226.2,0.26516
13762,6.8966,3.8182,0,0.00041861,4183.2,0.00014529,-0.0017647,0.00012592,-145.56,-0.0004209,-4254.1,0.25847
13763,6.9885,3.8182,0.05,1.0445e-06,10.438,8.0203e-07,6.0262,1.5467e-12,-1.3881e-06,-8.0204e-07,-6.0262,0.26495
13764,6.9885,3.5455,0,0.00041558,4152.9,0.00014434,-0.0029104,0.00012483,-146.61,-0.00041788,-4224.3,0.26545
13765,6.8966,3.6364,0,0.00041811,4178.2,0.0001454,-0.0028329,0.00012526,-151.34,-0.00042048,-4251.8,0.2588
13766,6.9885,3.6364,0.05,1.0444e-06,10.437,8.0199e-07,6.0259,3.4098e-12,-1.3885e-06,-8.0201e-07,-6.026,0.26528
13767,6.9885,3.3636,0,0.00041527,4149.9,0.00014441,-0.0035359,0.00012443,-150.11,-0.00041762,-4222.9,0.26565
13768,6.8966,3.4545,0,0.00041773,4174.4,0.00014549,-0.0036275,0.00012477,-155.73,-0.00042016,-4250.1,0.25904
13769,6.9885,3.4545,0.05,1.0444e-06,10.437,8.0194e-07,6.0255,3.4858e-12,-8.6049e-07,-8.0196e-07,-6.0255,0.26553
13770,6.9885,3.1818,0,0.00041509,4148,0.00014445,-0.0039108,0.00012419,-152.23,-0.00041747,-4222,0.26577
13771,6.8966,3.2727,0,0.00041747,4171.8,0.00014555,-0.0041556,0.00012443,-158.68,-0.00041994,-4248.9,0.25921
13772,6.9885,3.2727,0.05,1.0443e-06,10.436,8.019e-07,6.0251,-8.1082e-14,-5.7347e-07,-8.0191e-07,-6.0252,0.26569
13773,6.9885,3,0,0.00041503,4147.4,0.00014446,-0.0040356,0.00012411,-152.93,-0.00041742,-4221.8,0.26581
13774,6.8966,3.0909,0,0.00041734,4170.5,0.00014558,-0.0044196,0.00012426,-160.16,-0.00041984,-4248.3,0.25929
13775,6.9885,3.0909,0.05,1.0443e-06,10.436,8.0187e-07,6.0249,-2.3659e-14,-1.8823e-07,-8.0187e-07,-6.025,0.26578
13776,6.9885,2.8182,0,0.00041509,4148,0.00014445,-0.0039107,0.00012419,-152.23,-0.00041747,-4222,0.26577
13777,6.8966,2.9091,0,0.00041734,4170.5,0.00014558,-0.0044195,0.00012426,-160.16,-0.00041984,-4248.3,0.25929
13778,6.9885,2.9091,0.05,1.0443e-06,10.436,8.0187e-07,6.0249,2.3692e-14,1.7299e-07,-8.0187e-07,-6.025,0.26578
13779,6.9885,2.6364,0,0.00041527,4149.9,0.00014441,-0.0035357,0.00012443,-150.11,-0.00041762,-4222.9,0.26565
13780,6.8966,2.7273,0,0.00041747,4171.8,0.00014555,-0.0041555,0.00012443,-158.68,-0.00041994,-4248.9,0.25921
13781,6.9885,2.7273,0.05,1.0443e-06,10.436,8.0189e-07,6.0251,5.941e-14,4.8588e-07,-8.0191e-07,-6.0252,0.26569
13782,6.9885,2.4545,0,0.00041558,4152.9,0.00014434,-0.00291,0.00012483,-146.61,-0.00041788,-4224.3,0.26545
13783,6.8966,2.5455,0,0.00041773,4174.4,0.00014549,-0.003627,0.00012477,-155.73,-0.00042016,-4250.1,0.25904
13784,6.9885,2.5455,0.05,1.0444e-06,10.437,8.0194e-07,6.0255,8.482e-14,8.6597e-07,-8.0196e-07,-6.0255,0.26553
13785,6.9885,2.2727,0,0.000416,4157.1,0.00014424,-0.0020296,0.00012538,-141.74,-0.00041823,-4226.2,0.26516
13786,6.8966,2.3636,0,0.00041811,4178.2,0.0001454,-0.0028327,0.00012526,-151.34,-0.00042048,-4251.8,0.2588
13787,6.9885,2.3636,0.05,1.0444e-06,10.437,8.02e-07,6.0259,3.7511e-12,1.1852e-06,-8.02e-07,-6.0259,0.26528
13788,6.9885,2.0909,0,0.00041654,4162.5,0.00014412,-0.00088641,0.00012608,-135.57,-0.00041868,-4228.6,0.26479
13789,6.8966,2.1818,0,0.00041861,4183.2,0.00014529,-0.0017644,0.00012592,-145.56,-0.0004209,-4254.1,0.25847
13790,6.9885,2.1818,0.05,1.0445e-06,10.438,8.0203e-07,6.0262,1.4746e-13,1.4652e-06,-8.0203e-07,-6.0262,0.26495
13791,6.9885,1.9091,0,0.00041718,4169,0.00014397,0.00053018,0.00012692,-128.13,-0.00041922,-4231.6,0.26433
13792,6.8966,2,0,0.00041923,4189.4,0.00014515,-0.00041308,0.00012672,-138.42,-0.00042141,-4256.9,0.25805
13793,6.9885,2,0.05,1.0445e-06,10.437,8.0202e-07,6.026,2.3212e-13,2.9293e-06,-8.0202e-07,-6.0261,0.26454
13794,6.9885,1.7273,0,0.00041794,4176.5,0.0001438,0.0022399,0.00012789,-119.5,-0.00041984,-4234.9,0.26379
13795,6.8966,1.8182,0,0.00041996,4196.7,0.00014498,0.0012369,0.00012767,-130,-0.00042202,-4260.2,0.25756
13796,6.9885,1.8182,0.05,1.0443e-06,10.436,8.0193e-07,6.0253,2.0518e-12,1.9344e-06,-8.0192e-07,-6.0253,0.26405
13797,6.9885,1.5455,0,0.00041878,4185,0.0001436,0.0042848,0.00012899,-109.75,-0.00042054,-4238.8,0.26317
13798,6.8966,1.6364,0,0.00042079,4205,0.00014478,0.0032145,0.00012876,-120.37,-0.00042271,-4263.9,0.25698
13799,6.9885,1.6364,0.05,1.0441e-06,10.433,8.0171e-07,6.0237,2.0565e-12,1.9397e-06,-8.0171e-07,-6.0237,0.26347
13800,6.9885,1.3636,0,0.00041972,4194.3,0.00014338,0.0067125,0.00013021,-98.968,-0.00042132,-4242.9,0.26246
13801,6.8966,1.4545,0,0.00042173,4214.4,0.00014457,0.0055837,0.00012998,-109.62,-0.00042349,-4268.1,0.25631
13802,6.9885,1.4545,0.05,1.0436e-06,10.429,8.0134e-07,6.0209,2.0698e-12,3.878e-06,-8.0134e-07,-6.0209,0.2628
13803,6.9885,1.1818,0,0.00042075,4204.5,0.00014315,0.0096988,0.00013153,-87.239,-0.00042216,-4247.5,0.26167
13804,6.8966,1.2727,0,0.00042275,4224.6,0.00014433,0.0083885,0.00013131,-97.824,-0.00042433,-4272.7,0.25556
13805,6.9885,1.2727,0.05,1.0428e-06,10.421,8.0077e-07,6.0167,2.0531e-12,3.8988e-06,-8.0077e-07,-6.0167,0.26205
13806,6.9885,1,0,0.00042184,4215.5,0.00014289,0.013209,0.00013295,-74.661,-0.00042306,-4252.3,0.26079
13807,6.8966,1.0909,0,0.00042386,4235.7,0.00014407,0.011971,0.00013274,-85.096,-0.00042524,-4277.6,0.25472
13808,6.9885,1.0909,0.05,1.0418e-06,10.411,7.9996e-07,6.0106,2.4153e-13,4.6297e-06,-7.9996e-07,-6.0106,0.26121
13809,6.9885,0.81818,0,0.000423,4227.1,0.00014262,0.018737,0.00013445,-61.338,-0.00042401,-4257.4,0.25982
13810,6.8966,0.90909,0,0.00042504,4247.4,0.00014379,0.015954,0.00013427,-71.536,-0.00042621,-4282.7,0.25379
13811,6.9885,0.90909,0.05,1.0404e-06,10.396,7.9887e-07,6.0024,3.8765e-13,2.9038e-06,-7.9887e-07,-6.0024,0.26029
13812,6.9885,0.63636,0,0.00042422,4239.2,0.00014233,0.022998,0.00013603,-47.375,-0.000425,-4262.7,0.25876
13813,6.8966,0.72727,0,0.00042628,4259.8,0.0001435,0.023936,0.00013588,-57.254,-0.00042722,-4288.2,0.25278
13814,6.9885,0.72727,0.05,1.0384e-06,10.377,7.9738e-07,5.9911,5.7699e-13,1.8431e-06,-7.9737e-07,-5.9912,0.25928
13815,6.9885,0.45455,0,0.00042548,4251.9,0.00014204,0.052457,0.00013766,-32.854,-0.00042603,-4268.2,0.25762
13816,6.8966,0.54545,0,0.00042757,4272.8,0.00014319,0.025759,0.00013755,-42.365,-0.00042828,-4293.8,0.25167
13817,6.9885,0.54545,0.05,1.0341e-06,10.334,7.9407e-07,5.9663,1.7145e-13,1.5379e-06,-7.9407e-07,-5.9663,0.25817
13818,6.9885,0.27273,0,0.00042681,4265.2,0.00014173,0.074018,0.00013937,-17.694,-0.00042711,-4274,0.25638
13819,6.8966,0.36364,0,0.00042891,4286.2,0.00014288,0.088574,0.00013928,-26.927,-0.00042936,-4299.5,0.25047
13820,6.9885,0.36364,0.05,9.9995e-07,9.9926,7.6783e-07,5.7692,9.0609e-14,4.1251e-06,-7.6784e-07,-5.7692,0.25698
13821,6.8966,0.18182,0,0.00043034,4300.5,0.00014256,0.10824,0.00014111,-10.757,-0.00043052,-4305.8,0.24919
13822,6.9885,0.18182,0.05,5.2865e-07,5.2828,4.0593e-07,3.0501,-3.2729e-13,3.053e-05,-4.0594e-07,-3.05,0.2557
13823,6.9885,0.090909,0,0.00042788,4275.8,0.00014145,0.12232,0.00014079,-4.8223,-0.00042796,-4278.2,0.25505
13824,6.8046,5.7273,0,0.00043244,4321.4,0.0001437,0.080751,0.00014103,-19.981,-0.00043277,-4331.3,0.24338
13825,6.7126,5.8182,0,0.00043603,4357.3,0.00014452,0.11235,0.00014285,-12.441,-0.00043624,-4363.5,0.23633
13826,6.8046,5.8182,0.05,5.7662e-07,5.7622,4.4277e-07,3.3267,1.4612e-12,-4.0395e-05,-4.4278e-07,-3.3269,0.24269
13827,6.8046,5.9091,0,0.00043362,4333.2,0.00014339,0.12288,0.00014261,-5.7559,-0.00043371,-4336,0.24204
13828,6.8046,5.5455,0,0.000431,4307,0.00014404,0.057906,0.00013918,-36.44,-0.00043161,-4325.1,0.24462
13829,6.7126,5.6364,0,0.0004345,4342,0.00014487,0.097502,0.00014087,-29.956,-0.000435,-4356.8,0.23762
13830,6.8046,5.6364,0.05,1.0142e-06,10.135,7.7879e-07,5.8514,5.9e-12,-1.2153e-05,-7.788e-07,-5.8517,0.24398
13831,6.8046,5.3636,0,0.00042963,4293.3,0.00014436,0.025403,0.0001374,-52.246,-0.00043049,-4319.2,0.24578
13832,6.7126,5.4545,0,0.00043304,4327.5,0.00014522,0.028532,0.00013899,-46.75,-0.00043382,-4350.6,0.23882
13833,6.8046,5.4545,0.05,1.0463e-06,10.456,8.034e-07,6.0364,5.833e-12,-5.5961e-06,-8.0342e-07,-6.0366,0.24518
13834,6.8046,5.1818,0,0.00042831,4280.2,0.00014467,0.020566,0.00013569,-67.454,-0.00042942,-4313.5,0.24684
13835,6.7126,5.2727,0,0.00043164,4313.5,0.00014555,0.026334,0.00013717,-62.959,-0.00043268,-4344.6,0.23994
13836,6.8046,5.2727,0.05,1.0505e-06,10.498,8.0664e-07,6.0607,6.2287e-12,-7.869e-06,-8.0665e-07,-6.0609,0.24629
13837,6.8046,5,0,0.00042705,4267.6,0.00014497,0.01439,0.00013406,-81.971,-0.00042839,-4308,0.24781
13838,6.7126,5.0909,0,0.0004303,4300,0.00014587,0.017452,0.00013542,-78.513,-0.00043158,-4338.7,0.24096
13839,6.8046,5.0909,0.05,1.0524e-06,10.517,8.0814e-07,6.0719,6.2315e-12,-9.6941e-06,-8.0815e-07,-6.0722,0.24731
13840,6.8046,4.8182,0,0.00042587,4255.7,0.00014525,0.010456,0.00013251,-95.681,-0.00042741,-4302.7,0.2487
13841,6.7126,4.9091,0,0.00042902,4287.3,0.00014617,0.012989,0.00013376,-93.287,-0.00043053,-4333.1,0.24189
13842,6.8046,4.9091,0.05,1.0538e-06,10.531,8.0921e-07,6.08,2.7717e-12,-5.7797e-06,-8.0921e-07,-6.0802,0.24824
13843,6.8046,4.6364,0,0.00042476,4244.6,0.00014551,0.0071189,0.00013107,-108.47,-0.0004265,-4297.8,0.24949
13844,6.7126,4.7273,0,0.00042782,4275.3,0.00014646,0.0089906,0.00013219,-107.16,-0.00042955,-4327.9,0.24273
13845,6.8046,4.7273,0.05,1.0548e-06,10.541,8.0997e-07,6.0858,2.8298e-12,-5.4549e-06,-8.0998e-07,-6.0859,0.24908
13846,6.8046,4.4545,0,0.00042374,4234.5,0.00014575,0.0044092,0.00012974,-120.24,-0.00042566,-4293.3,0.2502
13847,6.7126,4.5455,0,0.00042671,4264.2,0.00014672,0.0058618,0.00013074,-120.02,-0.00042863,-4322.9,0.24348
13848,6.8046,4.5455,0.05,1.0555e-06,10.547,8.1047e-07,6.0895,2.9412e-12,-5.9257e-06,-8.1048e-07,-6.0897,0.24983
13849,6.8046,4.2727,0,0.00042282,4225.3,0.00014596,0.00213,0.00012854,-130.87,-0.00042489,-4289.2,0.25083
13850,6.7126,4.3636,0,0.0004257,4254.1,0.00014696,0.0032235,0.00012942,-131.75,-0.00042779,-4318.4,0.24415
13851,6.8046,4.3636,0.05,1.0559e-06,10.551,8.1076e-07,6.0917,3.0296e-12,-4.2529e-06,-8.1077e-07,-6.0918,0.2505
13852,6.8046,4.0909,0,0.000422,4217.1,0.00014615,0.00022673,0.00012748,-140.29,-0.00042421,-4285.5,0.25137
13853,6.7126,4.1818,0,0.00042479,4245,0.00014717,0.0010236,0.00012824,-142.26,-0.00042703,-4314.3,0.24474
13854,6.8046,4.1818,0.05,1.056e-06,10.553,8.1089e-07,6.0927,3.1689e-12,-3.7604e-06,-8.109e-07,-6.0928,0.25108
13855,6.8046,3.9091,0,0.0004213,4210.1,0.00014632,-0.0013482,0.00012656,-148.41,-0.00042363,-4282.3,0.25182
13856,6.7126,4,0,0.000424,4237.1,0.00014735,-0.00080986,0.0001272,-151.45,-0.00042637,-4310.8,0.24523
13857,6.8046,4,0.05,1.056e-06,10.553,8.1089e-07,6.0927,6.8012e-12,-3.7819e-06,-8.109e-07,-6.0928,0.25158
13858,6.8046,3.7273,0,0.00042072,4204.3,0.00014645,-0.0026178,0.0001258,-155.16,-0.00042314,-4279.7,0.2522
13859,6.7126,3.8182,0,0.00042333,4230.4,0.00014751,-0.0023097,0.00012632,-159.24,-0.00042581,-4307.7,0.24565
13860,6.8046,3.8182,0.05,1.0559e-06,10.552,8.1082e-07,6.0922,1.4909e-12,-2.467e-06,-8.1083e-07,-6.0923,0.25199
13861,6.8046,3.5455,0,0.00042026,4199.7,0.00014656,-0.0035955,0.0001252,-160.47,-0.00042276,-4277.6,0.25249
13862,6.7126,3.6364,0,0.00042278,4224.9,0.00014764,-0.0034946,0.0001256,-165.56,-0.00042536,-4305.3,0.24598
13863,6.8046,3.6364,0.05,1.0558e-06,10.551,8.1071e-07,6.0913,3.4035e-12,7.9399e-08,-8.1072e-07,-6.0915,0.25232
13864,6.8046,3.3636,0,0.00041993,4196.4,0.00014663,-0.0042898,0.00012477,-164.3,-0.00042248,-4276.1,0.25269
13865,6.7126,3.4545,0,0.00042237,4220.8,0.00014773,-0.0043756,0.00012506,-170.35,-0.00042501,-4303.4,0.24623
13866,6.8046,3.4545,0.05,1.0556e-06,10.549,8.106e-07,6.0905,3.4891e-12,-1.0723e-06,-8.106e-07,-6.0906,0.25257
13867,6.8046,3.1818,0,0.00041973,4194.4,0.00014668,-0.0047055,0.00012451,-166.61,-0.00042231,-4275.2,0.25281
13868,6.7126,3.2727,0,0.00042209,4218,0.0001478,-0.0049609,0.0001247,-173.57,-0.00042478,-4302.1,0.24639
13869,6.8046,3.2727,0.05,1.0555e-06,10.548,8.1051e-07,6.0898,1.7383e-12,1.2282e-06,-8.1051e-07,-6.0899,0.25274
13870,6.8046,3,0,0.00041966,4193.7,0.0001467,-0.0048441,0.00012442,-167.38,-0.00042226,-4274.9,0.25286
13871,6.7126,3.0909,0,0.00042195,4216.6,0.00014783,-0.0052534,0.00012452,-175.19,-0.00042466,-4301.5,0.24647
13872,6.8046,3.0909,0.05,1.0555e-06,10.547,8.1046e-07,6.0894,5.4297e-12,-2.0526e-07,-8.1047e-07,-6.0896,0.25282
13873,6.8046,2.8182,0,0.00041973,4194.4,0.00014668,-0.0047055,0.00012451,-166.61,-0.00042231,-4275.2,0.25281
13874,6.7126,2.9091,0,0.00042195,4216.6,0.00014783,-0.0052533,0.00012452,-175.19,-0.00042466,-4301.5,0.24647
13875,6.8046,2.9091,0.05,1.0555e-06,10.547,8.1046e-07,6.0894,3.6623e-12,1.8097e-07,-8.1047e-07,-6.0896,0.25282
13876,6.8046,2.6364,0,0.00041993,4196.4,0.00014663,-0.0042895,0.00012477,-164.3,-0.00042248,-4276.1,0.25269
13877,6.7126,2.7273,0,0.00042209,4218,0.0001478,-0.0049609,0.0001247,-173.57,-0.00042478,-4302.1,0.24639
13878,6.8046,2.7273,0.05,1.0555e-06,10.548,8.1051e-07,6.0898,1.8908e-12,4.2746e-06,-8.1051e-07,-6.0899,0.25274
13879,6.8046,2.4545,0,0.00042026,4199.7,0.00014656,-0.0035953,0.0001252,-160.47,-0.00042276,-4277.6,0.25249
13880,6.7126,2.5455,0,0.00042237,4220.8,0.00014773,-0.0043753,0.00012506,-170.35,-0.00042501,-4303.4,0.24623
13881,6.8046,2.5455,0.05,1.0556e-06,10.549,8.106e-07,6.0905,1.9405e-12,7.8642e-07,-8.106e-07,-6.0906,0.25257
13882,6.8046,2.2727,0,0.00042072,4204.3,0.00014645,-0.0026175,0.0001258,-155.16,-0.00042314,-4279.7,0.2522
13883,6.7126,2.3636,0,0.00042278,4224.9,0.00014764,-0.0034945,0.0001256,-165.56,-0.00042536,-4305.3,0.24598
13884,6.8046,2.3636,0.05,1.0558e-06,10.551,8.1072e-07,6.0913,1.981e-12,2.5975e-06,-8.1072e-07,-6.0915,0.25232
13885,6.8046,2.0909,0,0.0004213,4210.1,0.00014632,-0.0013476,0.00012656,-148.41,-0.00042363,-4282.3,0.25182
13886,6.7126,2.1818,0,0.00042333,4230.4,0.00014751,-0.0023092,0.00012632,-159.24,-0.00042581,-4307.7,0.24565
13887,6.8046,2.1818,0.05,1.0559e-06,10.552,8.1082e-07,6.0922,1.2969e-13,3.0285e-06,-8.1083e-07,-6.0923,0.25199
13888,6.8046,1.9091,0,0.000422,4217.1,0.00014615,0.00022735,0.00012748,-140.29,-0.00042421,-4285.5,0.25137
13889,6.7126,2,0,0.000424,4237.1,0.00014735,-0.00080933,0.0001272,-151.45,-0.00042637,-4310.8,0.24523
13890,6.8046,2,0.05,1.056e-06,10.553,8.1089e-07,6.0927,3.758e-12,2.3755e-06,-8.109e-07,-6.0928,0.25158
13891,6.8046,1.7273,0,0.00042282,4225.3,0.00014596,0.0021306,0.00012854,-130.87,-0.00042489,-4289.2,0.25083
13892,6.7126,1.8182,0,0.00042479,4245,0.00014717,0.0010242,0.00012824,-142.26,-0.00042703,-4314.3,0.24474
13893,6.8046,1.8182,0.05,1.056e-06,10.553,8.1089e-07,6.0927,2.1537e-13,2.0927e-06,-8.1089e-07,-6.0927,0.25108
13894,6.8046,1.5455,0,0.00042374,4234.5,0.00014575,0.0044099,0.00012974,-120.24,-0.00042566,-4293.3,0.2502
13895,6.7126,1.6364,0,0.0004257,4254.1,0.00014696,0.0032242,0.00012942,-131.75,-0.00042779,-4318.4,0.24415
13896,6.8046,1.6364,0.05,1.0559e-06,10.551,8.1077e-07,6.0918,2.813e-13,3.9681e-06,-8.1076e-07,-6.0918,0.2505
13897,6.8046,1.3636,0,0.00042476,4244.6,0.00014551,0.0071197,0.00013107,-108.47,-0.0004265,-4297.8,0.24949
13898,6.7126,1.4545,0,0.00042671,4264.2,0.00014672,0.0058626,0.00013074,-120.02,-0.00042863,-4322.9,0.24348
13899,6.8046,1.4545,0.05,1.0555e-06,10.547,8.1047e-07,6.0896,2.1615e-13,7.311e-07,-8.1048e-07,-6.0896,0.24983
13900,6.8046,1.1818,0,0.00042587,4255.7,0.00014525,0.010457,0.00013251,-95.681,-0.00042741,-4302.7,0.2487
13901,6.7126,1.2727,0,0.00042782,4275.3,0.00014646,0.0089914,0.00013219,-107.16,-0.00042955,-4327.9,0.24273
13902,6.8046,1.2727,0.05,1.0548e-06,10.541,8.0997e-07,6.0858,2.8107e-13,2.2006e-06,-8.0997e-07,-6.0858,0.24908
13903,6.8046,1,0,0.00042705,4267.6,0.00014497,0.014391,0.00013406,-81.971,-0.00042839,-4308,0.24781
13904,6.7126,1.0909,0,0.00042902,4287.3,0.00014617,0.01299,0.00013376,-93.287,-0.00043053,-4333.1,0.24189
13905,6.8046,1.0909,0.05,1.0538e-06,10.531,8.0921e-07,6.0801,2.8089e-13,2.0197e-06,-8.0921e-07,-6.0801,0.24824
13906,6.8046,0.81818,0,0.00042831,4280.2,0.00014467,0.020567,0.00013569,-67.454,-0.00042942,-4313.5,0.24684
13907,6.7126,0.90909,0,0.0004303,4300,0.00014587,0.017454,0.00013542,-78.513,-0.00043158,-4338.7,0.24096
13908,6.8046,0.90909,0.05,1.0524e-06,10.517,8.0814e-07,6.0721,-1.4984e-12,2.8781e-06,-8.0814e-07,-6.0721,0.24731
13909,6.8046,0.63636,0,0.00042963,4293.3,0.00014436,0.025404,0.0001374,-52.246,-0.00043049,-4319.2,0.24578
13910,6.7126,0.72727,0,0.00043164,4313.5,0.00014555,0.026334,0.00013717,-62.959,-0.00043268,-4344.6,0.23994
13911,6.8046,0.72727,0.05,1.0505e-06,10.498,8.0665e-07,6.0608,-1.3793e-12,2.5093e-06,-8.0664e-07,-6.0608,0.24629
13912,6.8046,0.45455,0,0.000431,4307,0.00014404,0.057907,0.00013918,-36.44,-0.00043161,-4325.1,0.24462
13913,6.7126,0.54545,0,0.00043304,4327.5,0.00014522,0.028532,0.00013899,-46.75,-0.00043382,-4350.6,0.23882
13914,6.8046,0.54545,0.05,1.0463e-06,10.456,8.0341e-07,6.0365,1.3872e-13,4.6461e-06,-8.0341e-07,-6.0365,0.24518
13915,6.8046,0.27273,0,0.00043244,4321.4,0.0001437,0.080752,0.00014103,-19.981,-0.00043277,-4331.3,0.24338
13916,6.7126,0.36364,0,0.0004345,4342,0.00014487,0.097504,0.00014087,-29.956,-0.000435,-4356.8,0.23762
13917,6.8046,0.36364,0.05,1.0142e-06,10.135,7.7879e-07,5.8516,-1.4092e-12,4.2189e-06,-7.788e-07,-5.8515,0.24398
13918,6.7126,0.18182,0,0.00043603,4357.3,0.00014452,0.11235,0.00014285,-12.441,-0.00043624,-4363.5,0.23633
13919,6.8046,0.18182,0.05,5.7662e-07,5.7622,4.4278e-07,3.3268,1.288e-12,1.3056e-06,-4.4277e-07,-3.3268,0.24269
13920,6.8046,0.090909,0,0.00043362,4333.2,0.00014339,0.12288,0.00014261,-5.7559,-0.00043371,-4336,0.24204
13921,6.6207,5.7273,0,0.00043809,4377.9,0.00014569,0.088287,0.00014269,-22.405,-0.00043846,-4389,0.23067
13922,6.5287,5.8182,0,0.00044176,4414.6,0.00014649,0.1182,0.00014459,-14.21,-0.000442,-4421.6,0.22376
13923,6.6207,5.8182,0.05,6.2862e-07,6.2818,4.8269e-07,3.6268,1.7387e-12,-2.0642e-05,-4.8271e-07,-3.6269,0.22998
13924,6.6207,5.9091,0,0.00043939,4390.9,0.00014534,0.12535,0.00014443,-6.7355,-0.00043951,-4394.2,0.22932
13925,6.6207,5.5455,0,0.00043654,4362.4,0.00014605,0.063835,0.00014069,-40.268,-0.00043721,-4382.4,0.23192
13926,6.5287,5.6364,0,0.00044011,4398.1,0.00014689,0.10722,0.00014246,-33.181,-0.00044066,-4414.5,0.22506
13927,6.6207,5.6364,0.05,1.0297e-06,10.29,7.9065e-07,5.9406,5.6916e-12,-1.068e-05,-7.9066e-07,-5.9408,0.23128
13928,6.6207,5.3636,0,0.00043506,4347.6,0.00014641,0.028033,0.00013876,-57.463,-0.00043601,-4376,0.23308
13929,6.5287,5.4545,0,0.00043854,4382.4,0.00014726,0.031568,0.00014041,-51.44,-0.00043939,-4407.8,0.22627
13930,6.6207,5.4545,0.05,1.0594e-06,10.587,8.1349e-07,6.1122,5.7925e-12,-1.3078e-05,-8.1351e-07,-6.1124,0.23248
13931,6.6207,5.1818,0,0.00043363,4333.3,0.00014675,0.022567,0.0001369,-74.018,-0.00043484,-4369.8,0.23415
13932,6.5287,5.2727,0,0.00043702,4367.2,0.00014763,0.028954,0.00013843,-69.075,-0.00043816,-4401.3,0.22739
13933,6.6207,5.2727,0.05,1.0635e-06,10.628,8.1665e-07,6.136,4.3113e-12,-3.0798e-06,-8.1666e-07,-6.136,0.2336
13934,6.6207,5,0,0.00043227,4319.7,0.00014708,0.015688,0.00013512,-89.828,-0.00043373,-4363.9,0.23512
13935,6.5287,5.0909,0,0.00043557,4352.7,0.00014798,0.019097,0.00013653,-86.007,-0.00043697,-4395,0.22841
13936,6.6207,5.0909,0.05,1.0655e-06,10.647,8.1814e-07,6.1471,2.6182e-12,-1.2422e-05,-8.1815e-07,-6.1473,0.23462
13937,6.6207,4.8182,0,0.00043098,4306.8,0.00014738,0.011295,0.00013344,-104.77,-0.00043267,-4358.3,0.23601
13938,6.5287,4.9091,0,0.00043418,4338.8,0.00014831,0.014111,0.00013472,-102.1,-0.00043583,-4389,0.22935
13939,6.6207,4.9091,0.05,1.0668e-06,10.661,8.1917e-07,6.1549,6.0595e-12,-5.6647e-06,-8.1919e-07,-6.155,0.23555
13940,6.6207,4.6364,0,0.00042978,4294.8,0.00014767,0.0075761,0.00013187,-118.71,-0.00043168,-4352.9,0.23681
13941,6.5287,4.7273,0,0.00043288,4325.9,0.00014862,0.009661,0.00013302,-117.21,-0.00043476,-4383.3,0.23019
13942,6.6207,4.7273,0.05,1.0677e-06,10.67,8.1987e-07,6.1601,1.0017e-12,-8.1813e-06,-8.1988e-07,-6.1603,0.2364
13943,6.6207,4.4545,0,0.00042867,4283.8,0.00014793,0.0045598,0.00013042,-131.53,-0.00043076,-4348,0.23753
13944,6.5287,4.5455,0,0.00043168,4313.8,0.00014891,0.0061803,0.00013144,-131.23,-0.00043376,-4377.9,0.23095
13945,6.6207,4.5455,0.05,1.0683e-06,10.675,8.2029e-07,6.1634,4.6072e-12,-3.8699e-06,-8.203e-07,-6.1634,0.23715
13946,6.6207,4.2727,0,0.00042767,4273.8,0.00014816,0.0020261,0.00012911,-143.14,-0.00042993,-4343.6,0.23815
13947,6.5287,4.3636,0,0.00043058,4302.8,0.00014917,0.0032493,0.00013,-144.02,-0.00043285,-4373,0.23162
13948,6.6207,4.3636,0.05,1.0685e-06,10.678,8.2048e-07,6.1648,4.7278e-12,-4.9083e-06,-8.2049e-07,-6.1649,0.23782
13949,6.6207,4.0909,0,0.00042679,4265,0.00014837,-8.7535e-05,0.00012795,-153.42,-0.00042919,-4339.6,0.23869
13950,6.5287,4.1818,0,0.0004296,4293,0.0001494,0.00080792,0.0001287,-155.49,-0.00043203,-4368.6,0.2322
13951,6.6207,4.1818,0.05,1.0685e-06,10.678,8.205e-07,6.1649,-5.3008e-13,-4.1954e-06,-8.2051e-07,-6.165,0.2384
13952,6.6207,3.9091,0,0.00042603,4257.3,0.00014855,-0.001835,0.00012695,-162.28,-0.00042856,-4336.2,0.23915
13953,6.5287,4,0,0.00042874,4284.4,0.0001496,-0.0012251,0.00012757,-165.51,-0.00043131,-4364.8,0.2327
13954,6.6207,4,0.05,1.0684e-06,10.677,8.204e-07,6.1641,4.9426e-12,-2.6709e-06,-8.204e-07,-6.1642,0.2389
13955,6.6207,3.7273,0,0.00042539,4251,0.0001487,-0.0032427,0.00012612,-169.64,-0.00042803,-4333.3,0.23952
13956,6.5287,3.8182,0,0.00042801,4277.1,0.00014977,-0.0028867,0.00012661,-174.02,-0.0004307,-4361.5,0.23312
13957,6.6207,3.8182,0.05,1.0682e-06,10.674,8.2022e-07,6.1628,5.058e-12,-2.1886e-06,-8.2023e-07,-6.1629,0.23932
13958,6.6207,3.5455,0,0.0004249,4246,0.00014882,-0.0043259,0.00012547,-175.44,-0.00042761,-4331,0.23981
13959,6.5287,3.6364,0,0.00042741,4271.2,0.00014991,-0.0041988,0.00012584,-180.92,-0.0004302,-4358.8,0.23345
13960,6.6207,3.6364,0.05,1.0679e-06,10.672,8.2002e-07,6.1613,5.1665e-12,-2.0376e-06,-8.2003e-07,-6.1614,0.23965
13961,6.6207,3.3636,0,0.00042454,4242.4,0.0001489,-0.0050947,0.00012499,-179.62,-0.00042731,-4329.4,0.24002
13962,6.5287,3.4545,0,0.00042697,4266.7,0.00015002,-0.0051735,0.00012524,-186.15,-0.00042983,-4356.7,0.2337
13963,6.6207,3.4545,0.05,1.0677e-06,10.669,8.1984e-07,6.1599,-1.6509e-13,-1.1771e-06,-8.1984e-07,-6.16,0.2399
13964,6.6207,3.1818,0,0.00042432,4240.3,0.00014895,-0.0055549,0.00012471,-182.15,-0.00042712,-4328.4,0.24014
13965,6.5287,3.2727,0,0.00042667,4263.7,0.00015009,-0.0058211,0.00012485,-189.66,-0.00042957,-4355.4,0.23386
13966,6.6207,3.2727,0.05,1.0675e-06,10.667,8.1969e-07,6.1588,1.7311e-12,-7.4509e-07,-8.197e-07,-6.1589,0.24006
13967,6.6207,3,0,0.00042425,4239.5,0.00014897,-0.0057082,0.00012461,-182.99,-0.00042706,-4328.1,0.24018
13968,6.5287,3.0909,0,0.00042651,4262.2,0.00015012,-0.0061445,0.00012465,-191.43,-0.00042945,-4354.7,0.23394
13969,6.6207,3.0909,0.05,1.0674e-06,10.666,8.1961e-07,6.1583,5.4267e-12,-2.1678e-07,-8.1963e-07,-6.1583,0.24014
13970,6.6207,2.8182,0,0.00042432,4240.3,0.00014895,-0.0055549,0.00012471,-182.15,-0.00042712,-4328.4,0.24014
13971,6.5287,2.9091,0,0.00042651,4262.2,0.00015012,-0.0061444,0.00012465,-191.43,-0.00042945,-4354.7,0.23394
13972,6.6207,2.9091,0.05,1.0674e-06,10.666,8.1961e-07,6.1583,3.6638e-12,2.0326e-07,-8.1963e-07,-6.1583,0.24014
13973,6.6207,2.6364,0,0.00042454,4242.4,0.0001489,-0.0050946,0.00012499,-179.62,-0.00042731,-4329.4,0.24002
13974,6.5287,2.7273,0,0.00042667,4263.7,0.00015009,-0.005821,0.00012485,-189.66,-0.00042957,-4355.4,0.23386
13975,6.6207,2.7273,0.05,1.0675e-06,10.667,8.1969e-07,6.1588,1.8965e-12,5.6032e-07,-8.197e-07,-6.1589,0.24006
13976,6.6207,2.4545,0,0.0004249,4246,0.00014882,-0.0043257,0.00012547,-175.44,-0.00042761,-4331,0.23981
13977,6.5287,2.5455,0,0.00042697,4266.7,0.00015002,-0.0051733,0.00012524,-186.15,-0.00042983,-4356.7,0.2337
13978,6.6207,2.5455,0.05,1.0677e-06,10.669,8.1983e-07,6.1599,1.1591e-13,2.9331e-06,-8.1984e-07,-6.1599,0.2399
13979,6.6207,2.2727,0,0.00042539,4251,0.0001487,-0.0032423,0.00012612,-169.64,-0.00042803,-4333.3,0.23952
13980,6.5287,2.3636,0,0.00042741,4271.2,0.00014991,-0.0041986,0.00012584,-180.92,-0.0004302,-4358.8,0.23345
13981,6.6207,2.3636,0.05,1.0679e-06,10.672,8.2002e-07,6.1613,1.9548e-12,6.7542e-06,-8.2003e-07,-6.1614,0.23965
13982,6.6207,2.0909,0,0.00042603,4257.3,0.00014855,-0.0018345,0.00012695,-162.28,-0.00042856,-4336.2,0.23915
13983,6.5287,2.1818,0,0.00042801,4277.1,0.00014977,-0.0028862,0.00012661,-174.02,-0.0004307,-4361.5,0.23312
13984,6.6207,2.1818,0.05,1.0682e-06,10.674,8.2022e-07,6.1628,2.0313e-12,3.6169e-06,-8.2022e-07,-6.1628,0.23932
13985,6.6207,1.9091,0,0.00042679,4265,0.00014837,-8.7001e-05,0.00012795,-153.42,-0.00042919,-4339.6,0.23869
13986,6.5287,2,0,0.00042874,4284.4,0.0001496,-0.0012247,0.00012757,-165.51,-0.00043131,-4364.8,0.2327
13987,6.6207,2,0.05,1.0684e-06,10.677,8.204e-07,6.1641,2.0125e-12,1.2337e-06,-8.204e-07,-6.1642,0.2389
13988,6.6207,1.7273,0,0.00042767,4273.8,0.00014816,0.0020268,0.00012911,-143.14,-0.00042993,-4343.6,0.23815
13989,6.5287,1.8182,0,0.0004296,4293,0.0001494,0.00080845,0.0001287,-155.49,-0.00043203,-4368.6,0.2322
13990,6.6207,1.8182,0.05,1.0685e-06,10.678,8.205e-07,6.1649,2.9192e-13,1.1517e-06,-8.205e-07,-6.165,0.2384
13991,6.6207,1.5455,0,0.00042867,4283.8,0.00014793,0.0045606,0.00013042,-131.53,-0.00043076,-4348,0.23753
13992,6.5287,1.6364,0,0.00043058,4302.8,0.00014917,0.00325,0.00013,-144.02,-0.00043285,-4373,0.23162
13993,6.6207,1.6364,0.05,1.0685e-06,10.678,8.2048e-07,6.1648,2.3015e-13,4.2702e-06,-8.2049e-07,-6.1648,0.23782
13994,6.6207,1.3636,0,0.00042978,4294.8,0.00014767,0.0075769,0.00013187,-118.71,-0.00043168,-4352.9,0.23681
13995,6.5287,1.4545,0,0.00043168,4313.8,0.00014891,0.0061811,0.00013144,-131.23,-0.00043376,-4377.9,0.23095
13996,6.6207,1.4545,0.05,1.0683e-06,10.675,8.203e-07,6.1634,2.1039e-12,2.4208e-06,-8.203e-07,-6.1634,0.23715
13997,6.6207,1.1818,0,0.00043098,4306.8,0.00014738,0.011296,0.00013344,-104.77,-0.00043267,-4358.3,0.23601
13998,6.5287,1.2727,0,0.00043288,4325.9,0.00014862,0.0096618,0.00013302,-117.21,-0.00043476,-4383.3,0.23019
13999,6.6207,1.2727,0.05,1.0677e-06,10.67,8.1988e-07,6.1602,3.2326e-13,3.2953e-06,-8.1988e-07,-6.1602,0.2364
14000,6.6207,1,0,0.00043227,4319.7,0.00014708,0.01569,0.00013512,-89.828,-0.00043373,-4363.9,0.23512
14001,6.5287,1.0909,0,0.00043418,4338.8,0.00014831,0.014112,0.00013472,-102.1,-0.00043583,-4389,0.22935
14002,6.6207,1.0909,0.05,1.0668e-06,10.661,8.1918e-07,6.155,3.4594e-13,2.1764e-06,-8.1918e-07,-6.155,0.23555
14003,6.6207,0.81818,0,0.00043363,4333.3,0.00014675,0.022568,0.0001369,-74.018,-0.00043484,-4369.8,0.23415
14004,6.5287,0.90909,0,0.00043557,4352.7,0.00014798,0.019098,0.00013653,-86.007,-0.00043697,-4395,0.22841
14005,6.6207,0.90909,0.05,1.0655e-06,10.647,8.1814e-07,6.1472,-1.4449e-12,2.1099e-06,-8.1814e-07,-6.1472,0.23462
14006,6.6207,0.63636,0,0.00043506,4347.6,0.00014641,0.028033,0.00013876,-57.463,-0.00043601,-4376,0.23308
14007,6.5287,0.72727,0,0.00043702,4367.2,0.00014763,0.028955,0.00013843,-69.075,-0.00043816,-4401.3,0.22739
14008,6.6207,0.72727,0.05,1.0635e-06,10.628,8.1665e-07,6.136,2.8723e-13,2.2087e-06,-8.1665e-07,-6.136,0.2336
14009,6.6207,0.45455,0,0.00043654,4362.4,0.00014605,0.063836,0.00014069,-40.268,-0.00043721,-4382.4,0.23192
14010,6.5287,0.54545,0,0.00043854,4382.4,0.00014726,0.031568,0.00014041,-51.44,-0.00043939,-4407.8,0.22627
14011,6.6207,0.54545,0.05,1.0594e-06,10.587,8.135e-07,6.1124,5.6603e-13,5.6538e-06,-8.135e-07,-6.1123,0.23248
14012,6.6207,0.27273,0,0.00043809,4377.9,0.00014569,0.088289,0.00014269,-22.405,-0.00043846,-4389,0.23067
14013,6.5287,0.36364,0,0.00044011,4398.1,0.00014689,0.10722,0.00014246,-33.181,-0.00044066,-4414.5,0.22506
14014,6.6207,0.36364,0.05,1.0297e-06,10.29,7.9066e-07,5.9407,-4.8426e-12,5.649e-06,-7.9065e-07,-5.9406,0.23128
14015,6.5287,0.18182,0,0.00044176,4414.6,0.00014649,0.1182,0.00014459,-14.21,-0.000442,-4421.6,0.22376
14016,6.6207,0.18182,0.05,6.2862e-07,6.2818,4.827e-07,3.6268,-9.1023e-13,1.1173e-05,-4.827e-07,-3.6268,0.22998
14017,6.6207,0.090909,0,0.00043939,4390.9,0.00014534,0.12535,0.00014443,-6.7355,-0.00043951,-4394.2,0.22932
14018,6.4368,5.7273,0,0.00044378,4434.7,0.00014769,0.096704,0.00014435,-24.971,-0.0004442,-4447.1,0.21826
14019,6.3448,5.8182,0,0.00044753,4472.2,0.00014849,0.12578,0.00014634,-16.064,-0.0004478,-4480.2,0.2115
14020,6.4368,5.8182,0.05,6.8492e-07,6.8445,5.2593e-07,3.9516,2.9269e-12,-3.0578e-05,-5.2594e-07,-3.9517,0.21756
14021,6.4368,5.9091,0,0.00044522,4449.1,0.00014732,0.12934,0.00014627,-7.7601,-0.00044534,-4452.9,0.2169
14022,6.4368,5.5455,0,0.00044211,4418,0.00014809,0.07029,0.00014218,-44.352,-0.00044284,-4440,0.21951
14023,6.3448,5.6364,0,0.00044575,4454.5,0.00014892,0.11779,0.00014403,-36.611,-0.00044636,-4472.6,0.2128
14024,6.4368,5.6364,0.05,1.0464e-06,10.457,8.035e-07,6.0371,5.5141e-12,-1.2579e-05,-8.035e-07,-6.0373,0.21887
14025,6.4368,5.3636,0,0.0004405,4402,0.00014848,0.030909,0.00014008,-63.051,-0.00044154,-4433.2,0.22068
14026,6.3448,5.4545,0,0.00044406,4437.5,0.00014933,0.034895,0.00014181,-56.454,-0.00044499,-4465.4,0.21402
14027,6.4368,5.4545,0.05,1.0736e-06,10.729,8.2442e-07,6.1943,4.0968e-12,-7.3789e-06,-8.2442e-07,-6.1944,0.22008
14028,6.4368,5.1818,0,0.00043896,4386.5,0.00014885,0.024757,0.00013806,-81.062,-0.00044028,-4426.5,0.22175
14029,6.3448,5.2727,0,0.00044241,4421.1,0.00014973,0.031817,0.00013966,-75.632,-0.00044365,-4458.4,0.21514
14030,6.4368,5.2727,0.05,1.0776e-06,10.769,8.2747e-07,6.2173,4.1436e-12,-4.1236e-06,-8.2748e-07,-6.2173,0.2212
14031,6.4368,5,0,0.00043748,4371.8,0.00014921,0.017115,0.00013613,-98.273,-0.00043907,-4420.1,0.22273
14032,6.3448,5.0909,0,0.00044084,4405.3,0.00015011,0.020901,0.00013759,-94.056,-0.00044236,-4451.6,0.21617
14033,6.4368,5.0909,0.05,1.0795e-06,10.788,8.2894e-07,6.2283,4.2034e-12,-8.0603e-06,-8.2895e-07,-6.2284,0.22222
14034,6.4368,4.8182,0,0.00043609,4357.9,0.00014955,0.012222,0.0001343,-114.54,-0.00043792,-4414,0.22362
14035,6.3448,4.9091,0,0.00043934,4390.4,0.00015047,0.015348,0.00013562,-111.57,-0.00044113,-4445.1,0.2171
14036,6.4368,4.9091,0.05,1.0808e-06,10.801,8.2993e-07,6.2357,5.8713e-12,-7.5829e-06,-8.2994e-07,-6.2359,0.22316
14037,6.4368,4.6364,0,0.00043478,4344.8,0.00014986,0.0080889,0.00013259,-129.73,-0.00043685,-4408.3,0.22442
14038,6.3448,4.7273,0,0.00043793,4376.3,0.00015081,0.010406,0.00013377,-128.04,-0.00043997,-4438.9,0.21795
14039,6.4368,4.7273,0.05,1.0816e-06,10.809,8.3055e-07,6.2404,2.642e-12,-1.1654e-05,-8.3056e-07,-6.2406,0.224
14040,6.4368,4.4545,0,0.00043359,4332.9,0.00015014,0.0047394,0.00013102,-143.72,-0.00043585,-4402.9,0.22514
14041,6.3448,4.5455,0,0.00043663,4363.2,0.00015113,0.0065431,0.00013205,-143.31,-0.00043889,-4433.1,0.21871
14042,6.4368,4.5455,0.05,1.082e-06,10.813,8.3087e-07,6.2427,2.7376e-12,-1.0159e-05,-8.3087e-07,-6.243,0.22476
14043,6.4368,4.2727,0,0.0004325,4322,0.0001504,0.0019291,0.00012959,-156.37,-0.00043495,-4398.1,0.22576
14044,6.3448,4.3636,0,0.00043543,4351.3,0.00015141,0.0032941,0.00013048,-157.26,-0.0004379,-4427.8,0.21938
14045,6.4368,4.3636,0.05,1.0821e-06,10.814,8.3093e-07,6.2433,2.8511e-12,-5.5324e-06,-8.3095e-07,-6.2434,0.22543
14046,6.4368,4.0909,0,0.00043154,4312.5,0.00015063,-0.00041324,0.00012833,-167.58,-0.00043415,-4393.8,0.22631
14047,6.3448,4.1818,0,0.00043437,4340.7,0.00015167,0.00059013,0.00012907,-169.76,-0.00043701,-4423.1,0.21996
14048,6.4368,4.1818,0.05,1.082e-06,10.812,8.3083e-07,6.2424,4.7563e-12,-5.9377e-06,-8.3083e-07,-6.2426,0.22602
14049,6.4368,3.9091,0,0.00043072,4304.2,0.00015083,-0.0023481,0.00012724,-177.25,-0.00043346,-4390.1,0.22676
14050,6.3448,4,0,0.00043343,4331.3,0.00015189,-0.0016596,0.00012784,-180.7,-0.00043622,-4418.9,0.22046
14051,6.4368,4,0.05,1.0817e-06,10.809,8.3059e-07,6.2407,4.8857e-12,-2.931e-06,-8.306e-07,-6.2408,0.22652
14052,6.4368,3.7273,0,0.00043003,4297.3,0.00015099,-0.0039057,0.00012633,-185.29,-0.00043288,-4387,0.22714
14053,6.3448,3.8182,0,0.00043264,4323.4,0.00015208,-0.0034969,0.00012679,-189.98,-0.00043556,-4415.3,0.22088
14054,6.4368,3.8182,0.05,1.0813e-06,10.805,8.303e-07,6.2385,5.0516e-12,-3.0384e-06,-8.303e-07,-6.2386,0.22693
14055,6.4368,3.5455,0,0.00042949,4291.9,0.00015112,-0.0051038,0.00012561,-191.62,-0.00043243,-4384.5,0.22743
14056,6.3448,3.6364,0,0.000432,4317,0.00015223,-0.004947,0.00012594,-197.51,-0.00043502,-4412.4,0.22121
14057,6.4368,3.6364,0.05,1.0809e-06,10.801,8.2999e-07,6.2362,3.3282e-12,-1.4318e-06,-8.3e-07,-6.2362,0.22726
14058,6.4368,3.3636,0,0.0004291,4288,0.00015121,-0.0059537,0.0001251,-196.19,-0.0004321,-4382.7,0.22763
14059,6.3448,3.4545,0,0.00043151,4312.2,0.00015235,-0.0060239,0.0001253,-203.22,-0.00043461,-4410.2,0.22146
14060,6.4368,3.4545,0.05,1.0805e-06,10.798,8.2972e-07,6.2342,3.4709e-12,-1.2766e-06,-8.2972e-07,-6.2342,0.22751
14061,6.4368,3.1818,0,0.00042886,4285.7,0.00015126,-0.0064624,0.00012479,-198.94,-0.0004319,-4381.7,0.22776
14062,6.3448,3.2727,0,0.00043119,4308.9,0.00015242,-0.006739,0.00012487,-207.06,-0.00043434,-4408.7,0.22162
14063,6.4368,3.2727,0.05,1.0803e-06,10.795,8.2951e-07,6.2327,3.5368e-12,-6.5881e-07,-8.2952e-07,-6.2327,0.22768
14064,6.4368,3,0,0.00042878,4284.9,0.00015128,-0.0066318,0.00012468,-199.87,-0.00043183,-4381.3,0.2278
14065,6.3448,3.0909,0,0.00043102,4307.2,0.00015246,-0.007096,0.00012465,-208.99,-0.0004342,-4407.9,0.2217
14066,6.4368,3.0909,0.05,1.0801e-06,10.794,8.294e-07,6.2318,1.7879e-12,-2.4126e-07,-8.2941e-07,-6.2319,0.22776
14067,6.4368,2.8182,0,0.00042886,4285.7,0.00015126,-0.0064623,0.00012479,-198.94,-0.0004319,-4381.7,0.22776
14068,6.3448,2.9091,0,0.00043102,4307.2,0.00015246,-0.007096,0.00012465,-208.99,-0.0004342,-4407.9,0.2217
14069,6.4368,2.9091,0.05,1.0801e-06,10.794,8.294e-07,6.2318,1.8477e-12,2.0856e-07,-8.2941e-07,-6.2319,0.22776
14070,6.4368,2.6364,0,0.0004291,4288,0.00015121,-0.0059535,0.0001251,-196.19,-0.0004321,-4382.7,0.22763
14071,6.3448,2.7273,0,0.00043119,4308.9,0.00015242,-0.0067389,0.00012487,-207.06,-0.00043434,-4408.7,0.22162
14072,6.4368,2.7273,0.05,1.0803e-06,10.795,8.2951e-07,6.2327,3.7184e-12,2.5774e-06,-8.2952e-07,-6.2327,0.22768
14073,6.4368,2.4545,0,0.00042949,4291.9,0.00015112,-0.0051035,0.00012561,-191.62,-0.00043243,-4384.5,0.22743
14074,6.3448,2.5455,0,0.00043151,4312.2,0.00015235,-0.0060237,0.0001253,-203.22,-0.00043461,-4410.2,0.22146
14075,6.4368,2.5455,0.05,1.0805e-06,10.798,8.2972e-07,6.2342,1.96e-12,1.1056e-06,-8.2972e-07,-6.2342,0.22751
14076,6.4368,2.2727,0,0.00043003,4297.3,0.00015099,-0.0039054,0.00012633,-185.29,-0.00043288,-4387,0.22714
14077,6.3448,2.3636,0,0.000432,4317,0.00015223,-0.0049468,0.00012594,-197.51,-0.00043502,-4412.4,0.22121
14078,6.4368,2.3636,0.05,1.0809e-06,10.801,8.2999e-07,6.2362,1.9833e-12,3.4012e-06,-8.2999e-07,-6.2362,0.22726
14079,6.4368,2.0909,0,0.00043072,4304.2,0.00015083,-0.0023477,0.00012724,-177.25,-0.00043346,-4390.1,0.22676
14080,6.3448,2.1818,0,0.00043264,4323.4,0.00015208,-0.0034966,0.00012679,-189.98,-0.00043556,-4415.3,0.22088
14081,6.4368,2.1818,0.05,1.0813e-06,10.805,8.303e-07,6.2385,3.8096e-12,1.8586e-06,-8.303e-07,-6.2385,0.22693
14082,6.4368,1.9091,0,0.00043154,4312.5,0.00015063,-0.00041288,0.00012833,-167.58,-0.00043415,-4393.8,0.22631
14083,6.3448,2,0,0.00043343,4331.3,0.00015189,-0.0016592,0.00012784,-180.7,-0.00043622,-4418.9,0.22046
14084,6.4368,2,0.05,1.0817e-06,10.809,8.306e-07,6.2408,3.8666e-12,2.1655e-06,-8.306e-07,-6.2408,0.22652
14085,6.4368,1.7273,0,0.0004325,4322,0.0001504,0.0019296,0.00012959,-156.37,-0.00043495,-4398.1,0.22576
14086,6.3448,1.8182,0,0.00043437,4340.7,0.00015167,0.00059062,0.00012907,-169.76,-0.00043701,-4423.1,0.21996
14087,6.4368,1.8182,0.05,1.082e-06,10.812,8.3083e-07,6.2425,2.1004e-12,1.1302e-06,-8.3083e-07,-6.2426,0.22602
14088,6.4368,1.5455,0,0.00043359,4332.9,0.00015014,0.0047401,0.00013102,-143.72,-0.00043585,-4402.9,0.22514
14089,6.3448,1.6364,0,0.00043543,4351.3,0.00015141,0.0032948,0.00013048,-157.26,-0.0004379,-4427.8,0.21938
14090,6.4368,1.6364,0.05,1.0821e-06,10.814,8.3094e-07,6.2434,2.408e-13,4.3738e-06,-8.3094e-07,-6.2434,0.22543
14091,6.4368,1.3636,0,0.00043478,4344.8,0.00014986,0.0080897,0.00013259,-129.73,-0.00043685,-4408.3,0.22442
14092,6.3448,1.4545,0,0.00043663,4363.2,0.00015113,0.0065439,0.00013205,-143.31,-0.00043889,-4433.1,0.21871
14093,6.4368,1.4545,0.05,1.082e-06,10.813,8.3087e-07,6.2428,3.4587e-13,2.4915e-06,-8.3087e-07,-6.2429,0.22476
14094,6.4368,1.1818,0,0.00043609,4357.9,0.00014955,0.012223,0.0001343,-114.54,-0.00043792,-4414,0.22362
14095,6.3448,1.2727,0,0.00043793,4376.3,0.00015081,0.010407,0.00013377,-128.04,-0.00043997,-4438.9,0.21795
14096,6.4368,1.2727,0.05,1.0816e-06,10.809,8.3056e-07,6.2405,3.3701e-13,3.4709e-06,-8.3056e-07,-6.2405,0.224
14097,6.4368,1,0,0.00043748,4371.8,0.00014921,0.017116,0.00013613,-98.273,-0.00043907,-4420.1,0.22273
14098,6.3448,1.0909,0,0.00043934,4390.4,0.00015047,0.015348,0.00013562,-111.57,-0.00044113,-4445.1,0.2171
14099,6.4368,1.0909,0.05,1.0808e-06,10.801,8.2993e-07,6.2358,3.2553e-13,3.3501e-06,-8.2993e-07,-6.2358,0.22316
14100,6.4368,0.81818,0,0.00043896,4386.5,0.00014885,0.024758,0.00013806,-81.062,-0.00044028,-4426.5,0.22175
14101,6.3448,0.90909,0,0.00044084,4405.3,0.00015011,0.020903,0.00013759,-94.056,-0.00044236,-4451.6,0.21617
14102,6.4368,0.90909,0.05,1.0795e-06,10.788,8.2895e-07,6.2284,3.1948e-13,2.0615e-06,-8.2895e-07,-6.2284,0.22222
14103,6.4368,0.63636,0,0.0004405,4402,0.00014848,0.03091,0.00014008,-63.051,-0.00044154,-4433.2,0.22068
14104,6.3448,0.72727,0,0.00044241,4421.1,0.00014973,0.031818,0.00013966,-75.632,-0.00044365,-4458.4,0.21514
14105,6.4368,0.72727,0.05,1.0776e-06,10.769,8.2747e-07,6.2173,2.314e-13,2.1568e-06,-8.2747e-07,-6.2173,0.2212
14106,6.4368,0.45455,0,0.00044211,4418,0.00014809,0.070291,0.00014218,-44.352,-0.00044284,-4440,0.21951
14107,6.3448,0.54545,0,0.00044406,4437.5,0.00014933,0.034895,0.00014181,-56.454,-0.00044499,-4465.4,0.21402
14108,6.4368,0.54545,0.05,1.0736e-06,10.729,8.2442e-07,6.1944,4.2697e-13,1.7924e-06,-8.2442e-07,-6.1944,0.22008
14109,6.4368,0.27273,0,0.00044378,4434.7,0.00014769,0.096706,0.00014435,-24.971,-0.0004442,-4447.1,0.21826
14110,6.3448,0.36364,0,0.00044575,4454.5,0.00014892,0.11779,0.00014403,-36.611,-0.00044636,-4472.6,0.2128
14111,6.4368,0.36364,0.05,1.0464e-06,10.457,8.035e-07,6.0372,-2.8189e-12,6.243e-06,-8.035e-07,-6.0372,0.21887
14112,6.3448,0.18182,0,0.00044753,4472.2,0.00014849,0.12578,0.00014634,-16.064,-0.0004478,-4480.2,0.2115
14113,6.4368,0.18182,0.05,6.8492e-07,6.8445,5.2594e-07,3.9517,-1.0315e-12,2.246e-05,-5.2593e-07,-3.9516,0.21756
14114,6.4368,0.090909,0,0.00044522,4449.1,0.00014732,0.12934,0.00014627,-7.7601,-0.00044534,-4452.9,0.2169
14115,6.2529,5.7273,0,0.0004495,4491.9,0.00014971,0.1061,0.00014602,-27.683,-0.00044997,-4505.7,0.20614
14116,6.1609,5.8182,0,0.00045334,4530.3,0.00015051,0.13516,0.00014809,-18.001,-0.00045365,-4539.2,0.19953
14117,6.2529,5.8182,0.05,7.4585e-07,7.4534,5.7272e-07,4.3032,1.769e-12,-2.1661e-05,-5.7273e-07,-4.3033,0.20545
14118,6.2529,5.9091,0,0.00045108,4507.7,0.00014931,0.13461,0.00014811,-8.8284,-0.00045123,-4512,0.20478
14119,6.2529,5.5455,0,0.0004477,4473.9,0.00015015,0.077326,0.00014366,-48.709,-0.00044851,-4498,0.20741
14120,6.1609,5.6364,0,0.00045143,4511.2,0.00015097,0.12931,0.0001456,-40.257,-0.0004521,-4531.1,0.20085
14121,6.2529,5.6364,0.05,1.0645e-06,10.638,8.1742e-07,6.1417,5.2572e-12,-1.4217e-05,-8.1743e-07,-6.1419,0.20676
14122,6.2529,5.3636,0,0.00044597,4456.6,0.00015058,0.034059,0.00014139,-69.032,-0.0004471,-4490.7,0.20858
14123,6.1609,5.4545,0,0.00044959,4492.8,0.00015142,0.038545,0.00014319,-61.812,-0.00045061,-4523.4,0.20206
14124,6.2529,5.4545,0.05,1.089e-06,10.883,8.3625e-07,6.2832,5.375e-12,-1.713e-05,-8.3626e-07,-6.2834,0.20797
14125,6.2529,5.1818,0,0.00044429,4439.9,0.00015099,0.027155,0.00013919,-88.621,-0.00044573,-4483.5,0.20965
14126,6.1609,5.2727,0,0.00044782,4475.1,0.00015186,0.03495,0.00014085,-82.66,-0.00044917,-4515.8,0.20319
14127,6.2529,5.2727,0.05,1.0929e-06,10.921,8.3919e-07,6.3053,5.2315e-12,-1.3209e-05,-8.392e-07,-6.3054,0.2091
14128,6.2529,5,0,0.00044269,4423.9,0.00015138,0.018683,0.00013709,-107.35,-0.00044442,-4476.6,0.21063
14129,6.1609,5.0909,0,0.00044611,4458,0.00015228,0.022882,0.0001386,-102.7,-0.00044777,-4508.5,0.20422
14130,6.2529,5.0909,0.05,1.0948e-06,10.94,8.4064e-07,6.3162,2.3246e-12,-4.5687e-06,-8.4064e-07,-6.3163,0.21012
14131,6.2529,4.8182,0,0.00044118,4408.8,0.00015174,0.013247,0.0001351,-125.06,-0.00044318,-4470,0.21153
14132,6.1609,4.9091,0,0.00044449,4441.8,0.00015267,0.01671,0.00013646,-121.76,-0.00044643,-4501.4,0.20516
14133,6.2529,4.9091,0.05,1.096e-06,10.952,8.4156e-07,6.3231,2.2181e-12,-1.1649e-05,-8.4157e-07,-6.3233,0.21106
14134,6.2529,4.6364,0,0.00043977,4394.7,0.00015208,0.0086636,0.00013324,-141.61,-0.00044201,-4463.8,0.21233
14135,6.1609,4.7273,0,0.00044296,4426.6,0.00015304,0.011235,0.00013445,-139.69,-0.00044517,-4494.8,0.206
14136,6.2529,4.7273,0.05,1.0967e-06,10.959,8.4209e-07,6.3271,5.9853e-12,-7.8382e-06,-8.421e-07,-6.3272,0.21191
14137,6.2529,4.4545,0,0.00043847,4381.7,0.0001524,0.004952,0.00013152,-156.85,-0.00044093,-4458,0.21304
14138,6.1609,4.5455,0,0.00044155,4412.4,0.00015339,0.0069559,0.00013258,-156.33,-0.000444,-4488.5,0.20676
14139,6.2529,4.5455,0.05,1.0969e-06,10.961,8.4228e-07,6.3286,2.63e-12,-2.4863e-06,-8.4229e-07,-6.3286,0.21267
14140,6.2529,4.2727,0,0.0004373,4370,0.00015268,0.001841,0.00012997,-170.65,-0.00043995,-4452.8,0.21367
14141,6.1609,4.3636,0,0.00044026,4399.5,0.0001537,0.0033613,0.00013087,-171.54,-0.00044292,-4482.8,0.20743
14142,6.2529,4.3636,0.05,1.0968e-06,10.961,8.4221e-07,6.328,2.7608e-12,-8.0135e-06,-8.4222e-07,-6.3282,0.21334
14143,6.2529,4.0909,0,0.00043626,4359.6,0.00015293,-0.00074974,0.00012859,-182.88,-0.00043908,-4448.1,0.21421
14144,6.1609,4.1818,0,0.0004391,4388,0.00015398,0.00037191,0.00012933,-185.17,-0.00044196,-4477.6,0.20802
14145,6.2529,4.1818,0.05,1.0965e-06,10.957,8.4194e-07,6.3261,4.6705e-12,-3.7689e-06,-8.4196e-07,-6.3261,0.21393
14146,6.2529,3.9091,0,0.00043536,4350.6,0.00015314,-0.0028882,0.0001274,-193.43,-0.00043833,-4444.1,0.21467
14147,6.1609,4,0,0.00043809,4377.9,0.00015422,-0.0021132,0.00012799,-197.11,-0.00044111,-4473.1,0.20852
14148,6.2529,4,0.05,1.096e-06,10.952,8.4156e-07,6.3231,3.032e-12,-4.2917e-06,-8.4157e-07,-6.3232,0.21442
14149,6.2529,3.7273,0,0.00043462,4343.2,0.00015332,-0.0046087,0.00012641,-202.2,-0.0004377,-4440.7,0.21504
14150,6.1609,3.8182,0,0.00043723,4369.3,0.00015443,-0.0041414,0.00012685,-207.23,-0.00044039,-4469.2,0.20893
14151,6.2529,3.8182,0.05,1.0954e-06,10.946,8.4112e-07,6.3198,5.0087e-12,-4.1136e-06,-8.4113e-07,-6.32,0.21484
14152,6.2529,3.5455,0,0.00043403,4337.3,0.00015346,-0.0059313,0.00012563,-209.11,-0.00043721,-4438.1,0.21533
14153,6.1609,3.6364,0,0.00043653,4362.3,0.0001546,-0.0057411,0.00012592,-215.45,-0.0004398,-4466.1,0.20926
14154,6.2529,3.6364,0.05,1.0948e-06,10.941,8.4069e-07,6.3166,5.1013e-12,-1.5256e-06,-8.4069e-07,-6.3166,0.21517
14155,6.2529,3.3636,0,0.0004336,4333.1,0.00015356,-0.0068694,0.00012507,-214.1,-0.00043685,-4436.1,0.21554
14156,6.1609,3.4545,0,0.00043601,4357.1,0.00015472,-0.0069288,0.00012522,-221.69,-0.00043935,-4463.7,0.20951
14157,6.2529,3.4545,0.05,1.0943e-06,10.936,8.4031e-07,6.3137,3.4427e-12,-2.1057e-06,-8.4032e-07,-6.3139,0.21542
14158,6.2529,3.1818,0,0.00043335,4330.5,0.00015362,-0.0074305,0.00012473,-217.11,-0.00043663,-4435,0.21566
14159,6.1609,3.2727,0,0.00043565,4353.5,0.00015481,-0.0077172,0.00012475,-225.88,-0.00043905,-4462.1,0.20968
14160,6.2529,3.2727,0.05,1.094e-06,10.932,8.4004e-07,6.3117,1.7016e-12,-7.9224e-07,-8.4005e-07,-6.3118,0.21558
14161,6.2529,3,0,0.00043326,4329.6,0.00015364,-0.0076173,0.00012462,-218.12,-0.00043656,-4434.6,0.2157
14162,6.1609,3.0909,0,0.00043547,4351.7,0.00015485,-0.0081105,0.00012451,-227.99,-0.0004389,-4461.2,0.20976
14163,6.2529,3.0909,0.05,1.0938e-06,10.93,8.3989e-07,6.3106,-3.3075e-14,1.6575e-06,-8.399e-07,-6.3107,0.21567
14164,6.2529,2.8182,0,0.00043335,4330.5,0.00015362,-0.0074304,0.00012473,-217.11,-0.00043663,-4435,0.21566
14165,6.1609,2.9091,0,0.00043547,4351.7,0.00015485,-0.0081105,0.00012451,-227.99,-0.0004389,-4461.2,0.20976
14166,6.2529,2.9091,0.05,1.0938e-06,10.93,8.399e-07,6.3106,3.151e-14,2.1384e-06,-8.399e-07,-6.3107,0.21567
14167,6.2529,2.6364,0,0.0004336,4333.1,0.00015356,-0.0068691,0.00012507,-214.1,-0.00043685,-4436.1,0.21554
14168,6.1609,2.7273,0,0.00043565,4353.5,0.00015481,-0.007717,0.00012475,-225.88,-0.00043905,-4462.1,0.20968
14169,6.2529,2.7273,0.05,1.094e-06,10.932,8.4004e-07,6.3117,1.8911e-12,6.3243e-07,-8.4005e-07,-6.3118,0.21558
14170,6.2529,2.4545,0,0.00043403,4337.3,0.00015346,-0.0059311,0.00012563,-209.11,-0.00043721,-4438.1,0.21533
14171,6.1609,2.5455,0,0.00043601,4357.1,0.00015472,-0.0069286,0.00012522,-221.69,-0.00043935,-4463.7,0.20951
14172,6.2529,2.5455,0.05,1.0943e-06,10.936,8.4031e-07,6.3137,1.9406e-12,2.111e-06,-8.4032e-07,-6.3139,0.21542
14173,6.2529,2.2727,0,0.00043462,4343.2,0.00015332,-0.0046084,0.00012641,-202.2,-0.0004377,-4440.7,0.21504
14174,6.1609,2.3636,0,0.00043653,4362.3,0.0001546,-0.0057409,0.00012592,-215.45,-0.0004398,-4466.1,0.20926
14175,6.2529,2.3636,0.05,1.0948e-06,10.941,8.4069e-07,6.3166,1.9642e-12,1.6138e-06,-8.4069e-07,-6.3166,0.21517
14176,6.2529,2.0909,0,0.00043536,4350.6,0.00015314,-0.0028879,0.0001274,-193.43,-0.00043833,-4444.1,0.21467
14177,6.1609,2.1818,0,0.00043723,4369.3,0.00015443,-0.0041411,0.00012685,-207.23,-0.00044039,-4469.2,0.20893
14178,6.2529,2.1818,0.05,1.0954e-06,10.946,8.4112e-07,6.3198,1.9718e-12,3.1108e-06,-8.4112e-07,-6.3199,0.21484
14179,6.2529,1.9091,0,0.00043626,4359.6,0.00015293,-0.00074924,0.00012859,-182.88,-0.00043908,-4448.1,0.21421
14180,6.1609,2,0,0.00043809,4377.9,0.00015422,-0.0021128,0.00012799,-197.11,-0.00044111,-4473.1,0.20852
14181,6.2529,2,0.05,1.096e-06,10.952,8.4156e-07,6.3232,2.0287e-12,1.2228e-06,-8.4157e-07,-6.3232,0.21442
14182,6.2529,1.7273,0,0.0004373,4370,0.00015268,0.0018418,0.00012997,-170.65,-0.00043995,-4452.8,0.21367
14183,6.1609,1.8182,0,0.0004391,4388,0.00015398,0.00037248,0.00012933,-185.17,-0.00044196,-4477.6,0.20802
14184,6.2529,1.8182,0.05,1.0965e-06,10.957,8.4195e-07,6.3261,3.3986e-13,2.5535e-06,-8.4195e-07,-6.3261,0.21393
14185,6.2529,1.5455,0,0.00043847,4381.7,0.0001524,0.0049527,0.00013152,-156.85,-0.00044093,-4458,0.21304
14186,6.1609,1.6364,0,0.00044026,4399.5,0.0001537,0.003362,0.00013087,-171.54,-0.00044292,-4482.8,0.20743
14187,6.2529,1.6364,0.05,1.0968e-06,10.961,8.4221e-07,6.328,3.607e-13,8.5375e-07,-8.4221e-07,-6.3281,0.21334
14188,6.2529,1.3636,0,0.00043977,4394.7,0.00015208,0.0086643,0.00013324,-141.61,-0.00044201,-4463.8,0.21233
14189,6.1609,1.4545,0,0.00044155,4412.4,0.00015339,0.0069564,0.00013258,-156.33,-0.000444,-4488.5,0.20676
14190,6.2529,1.4545,0.05,1.0969e-06,10.961,8.4228e-07,6.3286,3.6914e-13,2.8027e-06,-8.4228e-07,-6.3286,0.21267
14191,6.2529,1.1818,0,0.00044118,4408.8,0.00015174,0.013248,0.0001351,-125.06,-0.00044318,-4470,0.21153
14192,6.1609,1.2727,0,0.00044296,4426.6,0.00015304,0.011236,0.00013445,-139.69,-0.00044517,-4494.8,0.206
14193,6.2529,1.2727,0.05,1.0967e-06,10.959,8.4209e-07,6.3272,3.6199e-13,2.7917e-06,-8.4209e-07,-6.3272,0.21191
14194,6.2529,1,0,0.00044269,4423.9,0.00015138,0.018684,0.00013709,-107.35,-0.00044442,-4476.6,0.21063
14195,6.1609,1.0909,0,0.00044449,4441.8,0.00015267,0.01671,0.00013646,-121.76,-0.00044643,-4501.4,0.20516
14196,6.2529,1.0909,0.05,1.096e-06,10.952,8.4157e-07,6.3232,5.3403e-13,6.6201e-06,-8.4157e-07,-6.3232,0.21106
14197,6.2529,0.81818,0,0.00044429,4439.9,0.00015099,0.027156,0.00013919,-88.621,-0.00044573,-4483.5,0.20965
14198,6.1609,0.90909,0,0.00044611,4458,0.00015228,0.022884,0.0001386,-102.7,-0.00044777,-4508.5,0.20422
14199,6.2529,0.90909,0.05,1.0948e-06,10.94,8.4064e-07,6.3162,-1.4122e-12,2.3214e-06,-8.4064e-07,-6.3162,0.21012
14200,6.2529,0.63636,0,0.00044597,4456.6,0.00015058,0.034059,0.00014139,-69.032,-0.0004471,-4490.7,0.20858
14201,6.1609,0.72727,0,0.00044782,4475.1,0.00015186,0.03495,0.00014085,-82.66,-0.00044917,-4515.8,0.20319
14202,6.2529,0.72727,0.05,1.0929e-06,10.921,8.3919e-07,6.3054,-1.2014e-12,6.9151e-06,-8.3919e-07,-6.3053,0.2091
14203,6.2529,0.45455,0,0.0004477,4473.9,0.00015015,0.077327,0.00014366,-48.709,-0.00044851,-4498,0.20741
14204,6.1609,0.54545,0,0.00044959,4492.8,0.00015142,0.038545,0.00014319,-61.812,-0.00045061,-4523.4,0.20206
14205,6.2529,0.54545,0.05,1.089e-06,10.883,8.3625e-07,6.2833,-1.4666e-12,7.1577e-06,-8.3625e-07,-6.2833,0.20797
14206,6.2529,0.27273,0,0.0004495,4491.9,0.00014971,0.1061,0.00014602,-27.683,-0.00044997,-4505.7,0.20614
14207,6.1609,0.36364,0,0.00045143,4511.2,0.00015097,0.12931,0.0001456,-40.257,-0.0004521,-4531.1,0.20085
14208,6.2529,0.36364,0.05,1.0645e-06,10.638,8.1743e-07,6.1418,-1.2627e-12,5.5542e-06,-8.1742e-07,-6.1418,0.20676
14209,6.1609,0.18182,0,0.00045334,4530.3,0.00015051,0.13516,0.00014809,-18.001,-0.00045365,-4539.2,0.19953
14210,6.2529,0.18182,0.05,7.4585e-07,7.4534,5.7272e-07,4.3032,-1.513e-12,8.5251e-07,-5.7272e-07,-4.3032,0.20545
14211,6.2529,0.090909,0,0.00045108,4507.7,0.00014931,0.13462,0.00014811,-8.8284,-0.00045123,-4512,0.20478
14212,6.069,5.7273,0,0.00045527,4549.5,0.00015176,0.11658,0.00014768,-30.547,-0.00045578,-4564.7,0.19434
14213,5.977,5.8182,0,0.0004592,4588.9,0.00015254,0.1465,0.00014986,-20.018,-0.00045954,-4598.8,0.18788
14214,6.069,5.8182,0.05,8.1174e-07,8.1118,6.2331e-07,4.6834,1.706e-12,-9.7092e-06,-6.2333e-07,-4.6834,0.19364
14215,6.069,5.9091,0,0.00045699,4566.8,0.00015131,0.14106,0.00014997,-9.9385,-0.00045716,-4571.7,0.19297
14216,6.069,5.5455,0,0.00045332,4530.1,0.00015224,0.085001,0.00014513,-53.353,-0.00045421,-4556.5,0.1956
14217,5.977,5.6364,0,0.00045714,4568.3,0.00015305,0.14187,0.00014716,-44.126,-0.00045787,-4590.1,0.18919
14218,6.069,5.6364,0.05,1.0842e-06,10.835,8.3253e-07,6.2552,5.2823e-12,-1.5416e-05,-8.3254e-07,-6.2554,0.19495
14219,6.069,5.3636,0,0.00045145,4511.3,0.0001527,0.03751,0.00014266,-75.433,-0.00045268,-4548.6,0.19678
14220,5.977,5.4545,0,0.00045516,4548.4,0.00015354,0.042555,0.00014454,-67.534,-0.00045627,-4581.8,0.19042
14221,6.069,5.4545,0.05,1.1058e-06,11.05,8.4909e-07,6.3797,1.4588e-12,-2.0416e-05,-8.491e-07,-6.3799,0.19617
14222,6.069,5.1818,0,0.00044964,4493.3,0.00015315,0.029782,0.00014027,-96.731,-0.0004512,-4540.8,0.19785
14223,5.977,5.2727,0,0.00045323,4529.2,0.00015402,0.038378,0.00014201,-90.189,-0.0004547,-4573.6,0.19154
14224,6.069,5.2727,0.05,1.1094e-06,11.087,8.519e-07,6.4008,5.4599e-12,-9.8067e-06,-8.5191e-07,-6.4009,0.1973
14225,6.069,5,0,0.00044791,4476,0.00015357,0.020407,0.00013798,-117.11,-0.00044978,-4533.4,0.19884
14226,5.977,5.0909,0,0.00045139,4510.8,0.00015447,0.025058,0.00013957,-111.98,-0.00045319,-4565.7,0.19257
14227,6.069,5.0909,0.05,1.1113e-06,11.105,8.5331e-07,6.4114,5.2952e-12,-1.3419e-05,-8.5332e-07,-6.4116,0.19833
14228,6.069,4.8182,0,0.00044627,4459.6,0.00015397,0.01438,0.00013582,-136.39,-0.00044843,-4526.2,0.19973
14229,5.977,4.9091,0,0.00044963,4493.2,0.00015491,0.018211,0.00013724,-132.72,-0.00045174,-4558.1,0.19351
14230,6.069,4.9091,0.05,1.1124e-06,11.116,8.5417e-07,6.4178,3.7343e-12,-1.6859e-05,-8.5417e-07,-6.418,0.19927
14231,6.069,4.6364,0,0.00044474,4444.3,0.00015435,0.0093075,0.0001338,-154.41,-0.00044717,-4519.5,0.20053
14232,5.977,4.7273,0,0.00044798,4476.7,0.00015531,0.012156,0.00013505,-152.24,-0.00045037,-4550.9,0.19436
14233,6.069,4.7273,0.05,1.1129e-06,11.121,8.5458e-07,6.4209,3.8985e-12,-1.1982e-05,-8.5459e-07,-6.4211,0.20011
14234,6.069,4.4545,0,0.00044333,4430.3,0.00015469,0.0052025,0.00013193,-171.01,-0.00044599,-4513.3,0.20125
14235,5.977,4.5455,0,0.00044645,4461.4,0.00015569,0.007425,0.00013301,-170.37,-0.0004491,-4544.1,0.19512
14236,6.069,4.5455,0.05,1.113e-06,11.122,8.5463e-07,6.4213,2.4966e-12,-5.3095e-06,-8.5463e-07,-6.4214,0.20087
14237,6.069,4.2727,0,0.00044206,4417.5,0.000155,0.0017649,0.00013024,-186.06,-0.00044493,-4507.6,0.20188
14238,5.977,4.3636,0,0.00044505,4447.4,0.00015603,0.003455,0.00013115,-186.94,-0.00044793,-4537.9,0.19579
14239,6.069,4.3636,0.05,1.1127e-06,11.119,8.5439e-07,6.4196,4.4013e-12,-7.8259e-07,-8.544e-07,-6.4196,0.20154
14240,6.069,4.0909,0,0.00044093,4406.3,0.00015527,-0.0010959,0.00012873,-199.39,-0.00044398,-4502.6,0.20242
14241,5.977,4.1818,0,0.00044379,4434.9,0.00015633,0.00015563,0.00012948,-201.81,-0.00044688,-4532.3,0.19637
14242,6.069,4.1818,0.05,1.1121e-06,11.113,8.5395e-07,6.4162,2.8025e-12,-7.5833e-06,-8.5396e-07,-6.4164,0.20213
14243,6.069,3.9091,0,0.00043996,4396.6,0.00015551,-0.0034554,0.00012744,-210.91,-0.00044317,-4498.2,0.20288
14244,5.977,4,0,0.0004427,4423.9,0.0001566,-0.0025852,0.00012801,-214.83,-0.00044596,-4527.4,0.19687
14245,6.069,4,0.05,1.1114e-06,11.106,8.5339e-07,6.412,6.6673e-12,-4.8345e-06,-8.5339e-07,-6.4121,0.20263
14246,6.069,3.7273,0,0.00043915,4388.5,0.0001557,-0.0053525,0.00012636,-220.48,-0.00044249,-4494.6,0.20325
14247,5.977,3.8182,0,0.00044177,4414.6,0.00015683,-0.0048203,0.00012677,-225.88,-0.00044518,-4523.2,0.19729
14248,6.069,3.8182,0.05,1.1106e-06,11.098,8.5278e-07,6.4075,3.1597e-12,-2.8696e-06,-8.5279e-07,-6.4075,0.20304
14249,6.069,3.5455,0,0.00043851,4382.1,0.00015586,-0.0068102,0.00012551,-228.03,-0.00044195,-4491.7,0.20354
14250,5.977,3.6364,0,0.00044101,4407.1,0.00015701,-0.0065822,0.00012576,-234.85,-0.00044454,-4519.8,0.19762
14251,6.069,3.6364,0.05,1.1098e-06,11.091,8.522e-07,6.4031,5.0578e-12,-3.186e-07,-8.5221e-07,-6.4032,0.20337
14252,6.069,3.3636,0,0.00043805,4377.5,0.00015597,-0.0078436,0.0001249,-233.47,-0.00044156,-4489.6,0.20374
14253,5.977,3.4545,0,0.00044044,4401.4,0.00015715,-0.0078898,0.00012499,-241.66,-0.00044405,-4517.2,0.19786
14254,6.069,3.4545,0.05,1.1092e-06,11.084,8.5171e-07,6.3993,3.39e-12,-2.0836e-06,-8.5172e-07,-6.3995,0.20362
14255,6.069,3.1818,0,0.00043778,4374.7,0.00015603,-0.0084617,0.00012453,-236.76,-0.00044132,-4488.3,0.20387
14256,5.977,3.2727,0,0.00044005,4397.5,0.00015724,-0.0087574,0.00012447,-246.23,-0.00044373,-4515.5,0.19803
14257,6.069,3.2727,0.05,1.1087e-06,11.08,8.5135e-07,6.3967,5.3218e-12,-9.6881e-07,-8.5136e-07,-6.3968,0.20379
14258,6.069,3,0,0.00043768,4373.8,0.00015606,-0.0086674,0.0001244,-237.86,-0.00044125,-4487.9,0.20391
14259,5.977,3.0909,0,0.00043986,4395.6,0.00015729,-0.0091901,0.00012421,-248.53,-0.00044356,-4514.6,0.19811
14260,6.069,3.0909,0.05,1.1085e-06,11.077,8.5117e-07,6.3953,3.6012e-12,1.6348e-06,-8.5117e-07,-6.3954,0.20387
14261,6.069,2.8182,0,0.00043778,4374.7,0.00015603,-0.0084616,0.00012453,-236.76,-0.00044132,-4488.3,0.20387
14262,5.977,2.9091,0,0.00043986,4395.6,0.00015729,-0.0091901,0.00012421,-248.53,-0.00044356,-4514.6,0.19811
14263,6.069,2.9091,0.05,1.1085e-06,11.077,8.5117e-07,6.3953,3.6709e-12,2.1586e-06,-8.5117e-07,-6.3954,0.20387
14264,6.069,2.6364,0,0.00043805,4377.5,0.00015597,-0.0078435,0.0001249,-233.47,-0.00044156,-4489.6,0.20374
14265,5.977,2.7273,0,0.00044005,4397.5,0.00015724,-0.0087572,0.00012447,-246.23,-0.00044373,-4515.5,0.19803
14266,6.069,2.7273,0.05,1.1087e-06,11.08,8.5135e-07,6.3967,5.5273e-12,5.7427e-07,-8.5136e-07,-6.3968,0.20379
14267,6.069,2.4545,0,0.00043851,4382.1,0.00015586,-0.00681,0.00012551,-228.03,-0.00044195,-4491.7,0.20354
14268,5.977,2.5455,0,0.00044044,4401.4,0.00015715,-0.0078896,0.00012499,-241.66,-0.00044405,-4517.2,0.19786
14269,6.069,2.5455,0.05,1.1092e-06,11.084,8.5171e-07,6.3993,3.7423e-12,4.4738e-07,-8.5172e-07,-6.3995,0.20362
14270,6.069,2.2727,0,0.00043915,4388.5,0.0001557,-0.0053521,0.00012636,-220.48,-0.00044249,-4494.6,0.20325
14271,5.977,2.3636,0,0.00044101,4407.1,0.00015701,-0.0065819,0.00012576,-234.85,-0.00044454,-4519.8,0.19762
14272,6.069,2.3636,0.05,1.1098e-06,11.091,8.522e-07,6.4031,1.6872e-13,3.6578e-06,-8.5221e-07,-6.4031,0.20337
14273,6.069,2.0909,0,0.00043996,4396.6,0.00015551,-0.003455,0.00012744,-210.91,-0.00044317,-4498.2,0.20288
14274,5.977,2.1818,0,0.00044177,4414.6,0.00015683,-0.0048198,0.00012677,-225.88,-0.00044518,-4523.2,0.19729
14275,6.069,2.1818,0.05,1.1106e-06,11.098,8.5278e-07,6.4075,1.7942e-13,4.032e-06,-8.5279e-07,-6.4075,0.20304
14276,6.069,1.9091,0,0.00044093,4406.3,0.00015527,-0.0010954,0.00012873,-199.39,-0.00044398,-4502.6,0.20242
14277,5.977,2,0,0.0004427,4423.9,0.0001566,-0.0025847,0.00012801,-214.83,-0.00044596,-4527.4,0.19687
14278,6.069,2,0.05,1.1114e-06,11.106,8.5339e-07,6.412,2.1131e-12,1.2825e-06,-8.5339e-07,-6.4121,0.20263
14279,6.069,1.7273,0,0.00044206,4417.5,0.000155,0.0017654,0.00013024,-186.06,-0.00044493,-4507.6,0.20188
14280,5.977,1.8182,0,0.00044379,4434.9,0.00015633,0.00015616,0.00012948,-201.81,-0.00044688,-4532.3,0.19637
14281,6.069,1.8182,0.05,1.1121e-06,11.113,8.5395e-07,6.4162,2.7038e-13,1.0859e-06,-8.5396e-07,-6.4163,0.20213
14282,6.069,1.5455,0,0.00044333,4430.3,0.00015469,0.0052031,0.00013193,-171.01,-0.00044599,-4513.3,0.20125
14283,5.977,1.6364,0,0.00044505,4447.4,0.00015603,0.0034555,0.00013115,-186.94,-0.00044793,-4537.9,0.19579
14284,6.069,1.6364,0.05,1.1127e-06,11.119,8.544e-07,6.4196,3.9405e-13,2.975e-06,-8.5439e-07,-6.4196,0.20154
14285,6.069,1.3636,0,0.00044474,4444.3,0.00015435,0.0093083,0.0001338,-154.41,-0.00044717,-4519.5,0.20053
14286,5.977,1.4545,0,0.00044645,4461.4,0.00015569,0.0074257,0.00013301,-170.37,-0.0004491,-4544.1,0.19512
14287,6.069,1.4545,0.05,1.113e-06,11.122,8.5463e-07,6.4214,2.1451e-12,3.0442e-06,-8.5463e-07,-6.4214,0.20087
14288,6.069,1.1818,0,0.00044627,4459.6,0.00015397,0.014381,0.00013582,-136.39,-0.00044843,-4526.2,0.19973
14289,5.977,1.2727,0,0.00044798,4476.7,0.00015531,0.012157,0.00013505,-152.24,-0.00045037,-4550.9,0.19436
14290,6.069,1.2727,0.05,1.1129e-06,11.121,8.5458e-07,6.421,4.0139e-13,3.0225e-06,-8.5458e-07,-6.421,0.20011
14291,6.069,1,0,0.00044791,4476,0.00015357,0.020408,0.00013798,-117.11,-0.00044978,-4533.4,0.19884
14292,5.977,1.0909,0,0.00044963,4493.2,0.00015491,0.018212,0.00013724,-132.72,-0.00045174,-4558.1,0.19351
14293,6.069,1.0909,0.05,1.1124e-06,11.116,8.5417e-07,6.4179,3.909e-13,3.8124e-06,-8.5417e-07,-6.4179,0.19927
14294,6.069,0.81818,0,0.00044964,4493.3,0.00015315,0.029783,0.00014027,-96.731,-0.0004512,-4540.8,0.19785
14295,5.977,0.90909,0,0.00045139,4510.8,0.00015447,0.025059,0.00013957,-111.98,-0.00045319,-4565.7,0.19257
14296,6.069,0.90909,0.05,1.1113e-06,11.105,8.5331e-07,6.4115,3.5958e-13,6.8598e-06,-8.5332e-07,-6.4114,0.19833
14297,6.069,0.63636,0,0.00045145,4511.3,0.0001527,0.037511,0.00014266,-75.433,-0.00045268,-4548.6,0.19678
14298,5.977,0.72727,0,0.00045323,4529.2,0.00015402,0.038379,0.00014201,-90.189,-0.0004547,-4573.6,0.19154
14299,6.069,0.72727,0.05,1.1094e-06,11.087,8.5191e-07,6.4009,-8.3644e-13,2.4714e-06,-8.519e-07,-6.4009,0.1973
14300,6.069,0.45455,0,0.00045332,4530.1,0.00015224,0.085002,0.00014513,-53.353,-0.00045421,-4556.5,0.1956
14301,5.977,0.54545,0,0.00045516,4548.4,0.00015354,0.042555,0.00014454,-67.534,-0.00045627,-4581.8,0.19042
14302,6.069,0.54545,0.05,1.1058e-06,11.05,8.491e-07,6.3798,2.4444e-13,2.6731e-06,-8.491e-07,-6.3798,0.19617
14303,6.069,0.27273,0,0.00045527,4549.5,0.00015176,0.11658,0.00014768,-30.547,-0.00045578,-4564.7,0.19434
14304,5.977,0.36364,0,0.00045714,4568.3,0.00015305,0.14188,0.00014716,-44.126,-0.00045787,-4590.1,0.18919
14305,6.069,0.36364,0.05,1.0842e-06,10.835,8.3253e-07,6.2553,-1.5363e-12,1.9389e-06,-8.3253e-07,-6.2553,0.19495
14306,5.977,0.18182,0,0.0004592,4588.9,0.00015254,0.1465,0.00014986,-20.018,-0.00045954,-4598.8,0.18788
14307,6.069,0.18182,0.05,8.1174e-07,8.1118,6.2332e-07,4.6834,-7.2742e-13,5.5541e-07,-6.2332e-07,-4.6834,0.19364
14308,6.069,0.090909,0,0.00045699,4566.8,0.00015131,0.14106,0.00014997,-9.9385,-0.00045716,-4571.7,0.19297
14309,5.8851,5.7273,0,0.00046107,4607.5,0.00015382,0.12829,0.00014934,-33.564,-0.00046163,-4624.2,0.18284
14310,5.7931,5.8182,0,0.00046511,4647.9,0.00015459,0.16002,0.00015163,-22.114,-0.00046548,-4658.8,0.17653
14311,5.8851,5.8182,0.05,8.8295e-07,8.8234,6.7799e-07,5.0941,3.4089e-12,-3.0018e-05,-6.78e-07,-5.0943,0.18213
14312,5.8851,5.9091,0,0.00046295,4626.4,0.00015334,0.14863,0.00015184,-11.087,-0.00046314,-4631.8,0.18147
14313,5.8851,5.5455,0,0.00045897,4586.6,0.00015435,0.09338,0.00014658,-58.297,-0.00045994,-4615.4,0.18411
14314,5.7931,5.6364,0,0.00046289,4625.7,0.00015515,0.15559,0.00014871,-48.229,-0.00046369,-4649.5,0.17785
14315,5.8851,5.6364,0.05,1.1055e-06,11.048,8.4892e-07,6.3784,3.3342e-12,-1.7724e-05,-8.4893e-07,-6.3786,0.18345
14316,5.8851,5.3636,0,0.00045694,4566.3,0.00015485,0.041296,0.0001439,-82.28,-0.00045829,-4606.8,0.18528
14317,5.7931,5.4545,0,0.00046074,4604.2,0.00015568,0.046964,0.00014587,-73.639,-0.00046195,-4640.6,0.17907
14318,5.8851,5.4545,0.05,1.1239e-06,11.232,8.6305e-07,6.4845,4.4409e-12,-1.8144e-05,-8.6306e-07,-6.4847,0.18468
14319,5.8851,5.1818,0,0.00045499,4546.7,0.00015534,0.032662,0.0001413,-105.43,-0.00045669,-4598.5,0.18636
14320,5.7931,5.2727,0,0.00045866,4583.5,0.0001562,0.042133,0.00014312,-98.253,-0.00046025,-4631.8,0.1802
14321,5.8851,5.2727,0.05,1.1274e-06,11.266,8.6571e-07,6.5045,5.1893e-12,-2.2395e-05,-8.6571e-07,-6.5047,0.1858
14322,5.8851,5,0,0.00045311,4528,0.0001558,0.022305,0.00013882,-127.59,-0.00045515,-4590.4,0.18734
14323,5.7931,5.0909,0,0.00045666,4563.5,0.0001567,0.02745,0.00014047,-121.94,-0.00045862,-4623.2,0.18123
14324,5.8851,5.0909,0.05,1.1292e-06,11.284,8.6707e-07,6.5148,1.3914e-12,-2.0879e-05,-8.6709e-07,-6.515,0.18683
14325,5.8851,4.8182,0,0.00045134,4510.3,0.00015624,0.015634,0.00013647,-148.57,-0.00045368,-4582.7,0.18824
14326,5.7931,4.9091,0,0.00045476,4544.5,0.00015717,0.019868,0.00013794,-144.51,-0.00045705,-4615,0.18217
14327,5.8851,4.9091,0.05,1.1302e-06,11.294,8.6785e-07,6.5206,2.0631e-12,-1.4978e-05,-8.6785e-07,-6.5208,0.18777
14328,5.8851,4.6364,0,0.00044969,4493.8,0.00015665,0.010029,0.00013426,-168.2,-0.00045231,-4575.5,0.18904
14329,5.7931,4.7273,0,0.00045298,4526.6,0.00015762,0.013181,0.00013556,-165.76,-0.00045557,-4607.2,0.18302
14330,5.8851,4.7273,0.05,1.1306e-06,11.298,8.6813e-07,6.5227,2.2094e-12,-9.9576e-06,-8.6813e-07,-6.5228,0.18862
14331,5.8851,4.4545,0,0.00044816,4478.5,0.00015703,0.0054964,0.00013223,-186.29,-0.00045104,-4568.8,0.18976
14332,5.7931,4.5455,0,0.00045132,4510.1,0.00015803,0.007958,0.00013334,-185.5,-0.00045419,-4599.9,0.18378
14333,5.8851,4.5455,0.05,1.1304e-06,11.296,8.68e-07,6.5218,5.6305e-12,-1.1965e-05,-8.6802e-07,-6.522,0.18938
14334,5.8851,4.2727,0,0.00044678,4464.7,0.00015736,0.0017039,0.00013039,-202.69,-0.00044988,-4562.6,0.19038
14335,5.7931,4.3636,0,0.0004498,4494.9,0.0001584,0.0035799,0.00013131,-203.56,-0.00045292,-4593.2,0.18445
14336,5.8851,4.3636,0.05,1.1299e-06,11.291,8.6758e-07,6.5186,2.5262e-12,-7.6976e-06,-8.6759e-07,-6.5188,0.19005
14337,5.8851,4.0909,0,0.00044556,4452.5,0.00015766,-0.0014498,0.00012875,-217.23,-0.00044886,-4557.2,0.19092
14338,5.7931,4.1818,0,0.00044844,4481.3,0.00015874,-5.5823e-05,0.00012949,-219.77,-0.00045178,-4587.2,0.18503
14339,5.8851,4.1818,0.05,1.129e-06,11.282,8.6694e-07,6.5138,4.4611e-12,-6.5845e-06,-8.6695e-07,-6.5139,0.19063
14340,5.8851,3.9091,0,0.00044451,4442,0.00015792,-0.0040491,0.00012734,-229.79,-0.00044797,-4552.4,0.19138
14341,5.7931,4,0,0.00044725,4469.5,0.00015903,-0.0030737,0.00012789,-233.97,-0.00045077,-4581.9,0.18553
14342,5.8851,4,0.05,1.128e-06,11.272,8.6617e-07,6.508,6.4349e-12,-6.8003e-06,-8.6618e-07,-6.5082,0.19113
14343,5.8851,3.7273,0,0.00044363,4433.2,0.00015814,-0.0061375,0.00012616,-240.24,-0.00044723,-4548.5,0.19175
14344,5.7931,3.8182,0,0.00044625,4459.4,0.00015928,-0.0055329,0.00012654,-246.03,-0.00044992,-4577.3,0.18594
14345,5.8851,3.8182,0.05,1.127e-06,11.262,8.6538e-07,6.5021,3.1132e-12,-4.1585e-06,-8.6538e-07,-6.5022,0.19155
14346,5.8851,3.5455,0,0.00044294,4426.3,0.0001583,-0.0077415,0.00012523,-248.48,-0.00044664,-4545.3,0.19204
14347,5.7931,3.6364,0,0.00044543,4451.2,0.00015948,-0.0074704,0.00012543,-255.82,-0.00044923,-4573.6,0.18627
14348,5.8851,3.6364,0.05,1.126e-06,11.252,8.6463e-07,6.4965,5.0527e-12,-5.2417e-07,-8.6463e-07,-6.4965,0.19188
14349,5.8851,3.3636,0,0.00044244,4421.4,0.00015843,-0.0088782,0.00012457,-254.42,-0.00044622,-4543.1,0.19224
14350,5.7931,3.4545,0,0.00044481,4445,0.00015963,-0.0089076,0.0001246,-263.26,-0.0004487,-4570.8,0.18652
14351,5.8851,3.4545,0.05,1.1252e-06,11.244,8.64e-07,6.4917,5.2162e-12,-1.9794e-06,-8.6401e-07,-6.4918,0.19212
14352,5.8851,3.1818,0,0.00044214,4418.4,0.0001585,-0.0095577,0.00012416,-258.01,-0.00044596,-4541.7,0.19237
14353,5.7931,3.2727,0,0.00044439,4440.8,0.00015974,-0.0098607,0.00012403,-268.26,-0.00044835,-4568.9,0.18668
14354,5.8851,3.2727,0.05,1.1246e-06,11.238,8.6355e-07,6.4883,1.6853e-12,2.7405e-06,-8.6355e-07,-6.4885,0.19229
14355,5.8851,3,0,0.00044204,4417.3,0.00015852,-0.0097838,0.00012403,-259.21,-0.00044588,-4541.3,0.19241
14356,5.7931,3.0909,0,0.00044418,4438.8,0.00015979,-0.010336,0.00012375,-270.77,-0.00044817,-4567.9,0.18676
14357,5.8851,3.0909,0.05,1.1243e-06,11.235,8.6331e-07,6.4866,3.5977e-12,-3.0554e-07,-8.6332e-07,-6.4867,0.19237
14358,5.8851,2.8182,0,0.00044214,4418.4,0.0001585,-0.0095576,0.00012416,-258.01,-0.00044596,-4541.7,0.19237
14359,5.7931,2.9091,0,0.00044418,4438.8,0.00015979,-0.010336,0.00012375,-270.77,-0.00044817,-4567.9,0.18676
14360,5.8851,2.9091,0.05,1.1243e-06,11.235,8.6331e-07,6.4866,1.8536e-12,2.5469e-07,-8.6332e-07,-6.4867,0.19237
14361,5.8851,2.6364,0,0.00044244,4421.4,0.00015843,-0.0088781,0.00012457,-254.42,-0.00044622,-4543.1,0.19224
14362,5.7931,2.7273,0,0.00044439,4440.8,0.00015974,-0.0098605,0.00012403,-268.26,-0.00044835,-4568.9,0.18668
14363,5.8851,2.7273,0.05,1.1246e-06,11.238,8.6355e-07,6.4883,1.913e-12,5.9897e-07,-8.6356e-07,-6.4885,0.19229
14364,5.8851,2.4545,0,0.00044294,4426.3,0.0001583,-0.0077413,0.00012523,-248.48,-0.00044664,-4545.3,0.19204
14365,5.7931,2.5455,0,0.00044481,4445,0.00015963,-0.0089075,0.0001246,-263.26,-0.0004487,-4570.8,0.18652
14366,5.8851,2.5455,0.05,1.1252e-06,11.244,8.64e-07,6.4918,1.9745e-12,2.9632e-06,-8.6401e-07,-6.4918,0.19212
14367,5.8851,2.2727,0,0.00044363,4433.2,0.00015814,-0.0061371,0.00012616,-240.24,-0.00044723,-4548.5,0.19175
14368,5.7931,2.3636,0,0.00044543,4451.2,0.00015948,-0.0074701,0.00012543,-255.82,-0.00044923,-4573.6,0.18627
14369,5.8851,2.3636,0.05,1.126e-06,11.252,8.6463e-07,6.4965,3.7781e-12,1.2493e-06,-8.6463e-07,-6.4965,0.19188
14370,5.8851,2.0909,0,0.00044451,4442,0.00015792,-0.0040487,0.00012734,-229.79,-0.00044797,-4552.4,0.19138
14371,5.7931,2.1818,0,0.00044625,4459.4,0.00015928,-0.0055325,0.00012654,-246.03,-0.00044992,-4577.3,0.18594
14372,5.8851,2.1818,0.05,1.127e-06,11.262,8.6538e-07,6.5021,2.0334e-12,3.2081e-06,-8.6538e-07,-6.5022,0.19155
14373,5.8851,1.9091,0,0.00044556,4452.5,0.00015766,-0.0014494,0.00012875,-217.23,-0.00044886,-4557.2,0.19092
14374,5.7931,2,0,0.00044725,4469.5,0.00015903,-0.0030733,0.00012789,-233.97,-0.00045077,-4581.9,0.18553
14375,5.8851,2,0.05,1.128e-06,11.272,8.6618e-07,6.5081,2.132e-12,1.199e-06,-8.6618e-07,-6.5081,0.19113
14376,5.8851,1.7273,0,0.00044678,4464.7,0.00015736,0.0017045,0.00013039,-202.69,-0.00044988,-4562.6,0.19038
14377,5.7931,1.8182,0,0.00044844,4481.3,0.00015874,-5.5305e-05,0.00012949,-219.77,-0.00045178,-4587.2,0.18503
14378,5.8851,1.8182,0.05,1.129e-06,11.282,8.6694e-07,6.5138,3.9143e-13,1.0227e-06,-8.6694e-07,-6.5139,0.19063
14379,5.8851,1.5455,0,0.00044816,4478.5,0.00015703,0.0054971,0.00013223,-186.29,-0.00045104,-4568.8,0.18976
14380,5.7931,1.6364,0,0.0004498,4494.9,0.0001584,0.0035805,0.00013131,-203.56,-0.00045292,-4593.2,0.18445
14381,5.8851,1.6364,0.05,1.1299e-06,11.291,8.6759e-07,6.5187,4.1698e-13,3.167e-06,-8.6759e-07,-6.5187,0.19005
14382,5.8851,1.3636,0,0.00044969,4493.8,0.00015665,0.01003,0.00013426,-168.2,-0.00045231,-4575.5,0.18904
14383,5.7931,1.4545,0,0.00045132,4510.1,0.00015803,0.0079588,0.00013334,-185.5,-0.00045419,-4599.9,0.18378
14384,5.8851,1.4545,0.05,1.1304e-06,11.296,8.6801e-07,6.5219,4.3367e-13,3.1702e-06,-8.6801e-07,-6.5219,0.18938
14385,5.8851,1.1818,0,0.00045134,4510.3,0.00015624,0.015635,0.00013647,-148.57,-0.00045368,-4582.7,0.18824
14386,5.7931,1.2727,0,0.00045298,4526.6,0.00015762,0.013182,0.00013556,-165.76,-0.00045557,-4607.2,0.18302
14387,5.8851,1.2727,0.05,1.1306e-06,11.298,8.6813e-07,6.5228,4.2866e-13,3.315e-06,-8.6813e-07,-6.5228,0.18862
14388,5.8851,1,0,0.00045311,4528,0.0001558,0.022306,0.00013882,-127.59,-0.00045515,-4590.4,0.18734
14389,5.7931,1.0909,0,0.00045476,4544.5,0.00015717,0.019869,0.00013794,-144.51,-0.00045705,-4615,0.18217
14390,5.8851,1.0909,0.05,1.1302e-06,11.294,8.6785e-07,6.5207,4.1066e-13,3.1154e-06,-8.6785e-07,-6.5207,0.18777
14391,5.8851,0.81818,0,0.00045499,4546.7,0.00015534,0.032663,0.0001413,-105.43,-0.00045669,-4598.5,0.18636
14392,5.7931,0.90909,0,0.00045666,4563.5,0.0001567,0.027451,0.00014047,-121.94,-0.00045862,-4623.2,0.18123
14393,5.8851,0.90909,0.05,1.1292e-06,11.284,8.6708e-07,6.5149,3.6981e-13,3.644e-06,-8.6708e-07,-6.5149,0.18683
14394,5.8851,0.63636,0,0.00045694,4566.3,0.00015485,0.041297,0.0001439,-82.28,-0.00045829,-4606.8,0.18528
14395,5.7931,0.72727,0,0.00045866,4583.5,0.0001562,0.042134,0.00014312,-98.253,-0.00046025,-4631.8,0.1802
14396,5.8851,0.72727,0.05,1.1274e-06,11.266,8.6572e-07,6.5047,9.1293e-13,1.2483e-05,-8.6571e-07,-6.5046,0.1858
14397,5.8851,0.45455,0,0.00045897,4586.6,0.00015435,0.093381,0.00014658,-58.297,-0.00045994,-4615.4,0.18411
14398,5.7931,0.54545,0,0.00046074,4604.2,0.00015568,0.046964,0.00014587,-73.639,-0.00046195,-4640.6,0.17907
14399,5.8851,0.54545,0.05,1.1239e-06,11.232,8.6305e-07,6.4847,5.8839e-13,7.5501e-06,-8.6305e-07,-6.4846,0.18468
14400,5.8851,0.27273,0,0.00046107,4607.5,0.00015382,0.12829,0.00014934,-33.564,-0.00046163,-4624.2,0.18284
14401,5.7931,0.36364,0,0.00046289,4625.7,0.00015515,0.15559,0.00014871,-48.229,-0.00046369,-4649.5,0.17785
14402,5.8851,0.36364,0.05,1.1055e-06,11.048,8.4893e-07,6.3785,-7.4516e-13,1.9873e-06,-8.4892e-07,-6.3785,0.18345
14403,5.7931,0.18182,0,0.00046511,4647.9,0.00015459,0.16002,0.00015163,-22.114,-0.00046548,-4658.8,0.17653
14404,5.8851,0.18182,0.05,8.8295e-07,8.8234,6.7799e-07,5.0942,-2.2779e-12,1.1706e-05,-6.7799e-07,-5.0941,0.18213
14405,5.8851,0.090909,0,0.00046295,4626.4,0.00015334,0.14863,0.00015184,-11.087,-0.00046314,-4631.8,0.18147
14406,5.7011,5.7273,0,0.00046692,4666,0.00015591,0.14138,0.000151,-36.737,-0.00046753,-4684.2,0.17165
14407,5.6092,5.8182,0,0.00047107,4707.4,0.00015667,0.17603,0.00015341,-24.28,-0.00047147,-4719.4,0.1655
14408,5.7011,5.8182,0.05,9.5983e-07,9.5917,7.3702e-07,5.5377,-2.2821e-12,-3.1057e-05,-7.3703e-07,-5.5378,0.17095
14409,5.7011,5.9091,0,0.00046897,4686.4,0.00015538,0.1573,0.00015373,-12.271,-0.00046917,-4692.5,0.17028
14410,5.7011,5.5455,0,0.00046465,4643.3,0.00015648,0.10254,0.00014801,-63.558,-0.0004657,-4674.7,0.17292
14411,5.6092,5.6364,0,0.00046867,4683.5,0.00015727,0.17057,0.00015025,-52.574,-0.00046954,-4709.5,0.16682
14412,5.7011,5.6364,0.05,1.1287e-06,11.279,8.6671e-07,6.5121,1.8603e-12,-2.7478e-05,-8.6672e-07,-6.5123,0.17227
14413,5.7011,5.3636,0,0.00046246,4621.4,0.00015703,0.045453,0.0001451,-89.6,-0.00046392,-4665.5,0.1741
14414,5.6092,5.4545,0,0.00046635,4660.3,0.00015785,0.051818,0.00014718,-80.15,-0.00046766,-4699.8,0.16805
14415,5.7011,5.4545,0.05,1.1437e-06,11.429,8.7822e-07,6.5986,4.0484e-12,-2.0623e-05,-8.7823e-07,-6.5987,0.17349
14416,5.7011,5.1818,0,0.00046034,4600.2,0.00015756,0.035823,0.00014229,-114.75,-0.00046219,-4656.5,0.17518
14417,5.6092,5.2727,0,0.0004641,4637.8,0.00015842,0.046251,0.00014419,-106.88,-0.00046583,-4690.3,0.16917
14418,5.7011,5.2727,0.05,1.147e-06,11.462,8.8072e-07,6.6174,3.8593e-12,-1.8794e-05,-8.8074e-07,-6.6175,0.17462
14419,5.7011,5,0,0.00045832,4580,0.00015807,0.024395,0.00013959,-138.85,-0.00046052,-4647.8,0.17616
14420,5.6092,5.0909,0,0.00046194,4616.2,0.00015897,0.030081,0.00014131,-132.63,-0.00046406,-4681.1,0.1702
14421,5.7011,5.0909,0.05,1.1487e-06,11.479,8.8204e-07,6.6273,3.0738e-12,-1.3068e-05,-8.8205e-07,-6.6274,0.17565
14422,5.7011,4.8182,0,0.0004564,4560.8,0.00015855,0.017023,0.00013703,-161.68,-0.00045893,-4639.5,0.17705
14423,5.6092,4.9091,0,0.00045989,4595.7,0.00015948,0.021697,0.00013856,-157.18,-0.00046236,-4672.3,0.17114
14424,5.7011,4.9091,0.05,1.1496e-06,11.488,8.8271e-07,6.6323,3.5327e-12,-2.1574e-05,-8.8273e-07,-6.6325,0.17659
14425,5.7011,4.6364,0,0.00045461,4542.9,0.000159,0.010838,0.00013463,-183.05,-0.00045744,-4631.7,0.17785
14426,5.6092,4.7273,0,0.00045795,4576.4,0.00015997,0.014322,0.00013597,-180.31,-0.00046075,-4663.8,0.17199
14427,5.7011,4.7273,0.05,1.1497e-06,11.489,8.8285e-07,6.6333,4.912e-12,-1.7813e-05,-8.8286e-07,-6.6335,0.17744
14428,5.7011,4.4545,0,0.00045296,4526.4,0.00015941,0.0058403,0.00013242,-202.77,-0.00045607,-4624.4,0.17857
14429,5.6092,4.5455,0,0.00045616,4558.4,0.00016042,0.0085637,0.00013356,-201.82,-0.00045925,-4656,0.17274
14430,5.7011,4.5455,0.05,1.1493e-06,11.485,8.8255e-07,6.6311,2.1918e-12,-6.6311e-06,-8.8255e-07,-6.6312,0.17819
14431,5.7011,4.2727,0,0.00045146,4511.5,0.00015978,0.0016625,0.00013041,-220.64,-0.00045481,-4617.8,0.17919
14432,5.6092,4.3636,0,0.00045452,4542,0.00016083,0.003742,0.00013135,-221.5,-0.00045788,-4648.7,0.17341
14433,5.7011,4.3636,0.05,1.1485e-06,11.477,8.819e-07,6.6262,2.3794e-12,-1.1596e-05,-8.8191e-07,-6.6264,0.17886
14434,5.7011,4.0909,0,0.00045014,4498.3,0.00016011,-0.001809,0.00012863,-236.5,-0.0004537,-4611.9,0.17973
14435,5.6092,4.1818,0,0.00045304,4527.3,0.0001612,-0.0002586,0.00012936,-239.17,-0.00045664,-4642.2,0.17399
14436,5.7011,4.1818,0.05,1.1474e-06,11.466,8.8103e-07,6.6197,4.3357e-12,-5.5951e-06,-8.8104e-07,-6.6198,0.17944
14437,5.7011,3.9091,0,0.000449,4486.9,0.00016039,-0.0046678,0.00012709,-250.21,-0.00045273,-4606.7,0.18019
14438,5.6092,4,0,0.00045176,4514.5,0.00016152,-0.0035766,0.00012762,-254.66,-0.00045555,-4636.4,0.17449
14439,5.7011,4,0.05,1.1461e-06,11.453,8.8003e-07,6.6122,1.0194e-12,-6.1274e-06,-8.8004e-07,-6.6123,0.17994
14440,5.7011,3.7273,0,0.00044805,4477.4,0.00016062,-0.0069632,0.00012581,-261.61,-0.00045192,-4602.5,0.18056
14441,5.6092,3.8182,0,0.00045067,4503.6,0.00016179,-0.006278,0.00012614,-267.82,-0.00045462,-4631.5,0.1749
14442,5.7011,3.8182,0.05,1.1447e-06,11.44,8.7902e-07,6.6046,4.8303e-12,-4.7017e-06,-8.7902e-07,-6.6047,0.18035
14443,5.7011,3.5455,0,0.0004473,4469.9,0.00016081,-0.0087252,0.0001248,-270.6,-0.00045129,-4599.1,0.18084
14444,5.6092,3.6364,0,0.00044978,4494.7,0.00016201,-0.008405,0.00012494,-278.51,-0.00045387,-4627.5,0.17523
14445,5.7011,3.6364,0.05,1.1435e-06,11.427,8.7808e-07,6.5974,3.2109e-12,-4.8332e-06,-8.7809e-07,-6.5977,0.18068
14446,5.7011,3.3636,0,0.00044676,4464.5,0.00016094,-0.0099732,0.00012406,-277.09,-0.00045083,-4596.6,0.18105
14447,5.6092,3.4545,0,0.00044911,4488,0.00016218,-0.0099818,0.00012403,-286.63,-0.0004533,-4624.4,0.17547
14448,5.7011,3.4545,0.05,1.1425e-06,11.417,8.773e-07,6.5916,-2.3525e-13,-2.1844e-06,-8.773e-07,-6.5918,0.18093
14449,5.7011,3.1818,0,0.00044643,4461.3,0.00016102,-0.010719,0.00012362,-281.01,-0.00045055,-4595.1,0.18117
14450,5.6092,3.2727,0,0.00044866,4483.5,0.00016229,-0.011027,0.00012342,-292.09,-0.00045291,-4622.4,0.17563
14451,5.7011,3.2727,0.05,1.1418e-06,11.41,8.7674e-07,6.5874,-1.425e-13,-1.3012e-06,-8.7675e-07,-6.5876,0.18109
14452,5.7011,3,0,0.00044633,4460.2,0.00016105,-0.010967,0.00012348,-282.33,-0.00045046,-4594.6,0.18121
14453,5.6092,3.0909,0,0.00044843,4481.2,0.00016234,-0.011548,0.00012311,-294.83,-0.00045272,-4621.3,0.17572
14454,5.7011,3.0909,0.05,1.1414e-06,11.406,8.7645e-07,6.5852,1.7766e-12,-3.3315e-07,-8.7645e-07,-6.5854,0.18117
14455,5.7011,2.8182,0,0.00044643,4461.3,0.00016102,-0.010719,0.00012362,-281.01,-0.00045055,-4595.1,0.18117
14456,5.6092,2.9091,0,0.00044843,4481.2,0.00016234,-0.011548,0.00012311,-294.83,-0.00045272,-4621.3,0.17572
14457,5.7011,2.9091,0.05,1.1414e-06,11.406,8.7645e-07,6.5852,1.8571e-12,4.0867e-06,-8.7645e-07,-6.5854,0.18117
14458,5.7011,2.6364,0,0.00044676,4464.5,0.00016094,-0.009973,0.00012406,-277.09,-0.00045083,-4596.6,0.18105
14459,5.6092,2.7273,0,0.00044866,4483.5,0.00016229,-0.011027,0.00012342,-292.09,-0.00045291,-4622.4,0.17563
14460,5.7011,2.7273,0.05,1.1418e-06,11.41,8.7674e-07,6.5874,9.6305e-14,4.2924e-06,-8.7675e-07,-6.5876,0.18109
14461,5.7011,2.4545,0,0.0004473,4469.9,0.00016081,-0.008725,0.0001248,-270.6,-0.00045129,-4599.1,0.18084
14462,5.6092,2.5455,0,0.00044911,4488,0.00016218,-0.0099816,0.00012403,-286.63,-0.0004533,-4624.4,0.17547
14463,5.7011,2.5455,0.05,1.1425e-06,11.417,8.773e-07,6.5917,1.7404e-13,1.4999e-06,-8.773e-07,-6.5917,0.18093
14464,5.7011,2.2727,0,0.00044805,4477.4,0.00016062,-0.0069629,0.00012581,-261.61,-0.00045192,-4602.5,0.18056
14465,5.6092,2.3636,0,0.00044978,4494.7,0.00016201,-0.0084047,0.00012494,-278.51,-0.00045387,-4627.5,0.17523
14466,5.7011,2.3636,0.05,1.1435e-06,11.427,8.7808e-07,6.5975,2.0194e-12,-1.4105e-07,-8.7808e-07,-6.5977,0.18068
14467,5.7011,2.0909,0,0.000449,4486.9,0.00016039,-0.0046674,0.00012709,-250.21,-0.00045273,-4606.7,0.18019
14468,5.6092,2.1818,0,0.00045067,4503.6,0.00016179,-0.0062777,0.00012614,-267.82,-0.00045462,-4631.5,0.1749
14469,5.7011,2.1818,0.05,1.1447e-06,11.44,8.7903e-07,6.6046,3.4333e-13,1.3801e-06,-8.7902e-07,-6.6047,0.18035
14470,5.7011,1.9091,0,0.00045014,4498.3,0.00016011,-0.0018085,0.00012863,-236.5,-0.0004537,-4611.9,0.17973
14471,5.6092,2,0,0.00045176,4514.5,0.00016152,-0.0035761,0.00012762,-254.66,-0.00045555,-4636.4,0.17449
14472,5.7011,2,0.05,1.1461e-06,11.453,8.8004e-07,6.6123,2.9117e-13,2.9759e-06,-8.8004e-07,-6.6123,0.17994
14473,5.7011,1.7273,0,0.00045146,4511.5,0.00015978,0.0016631,0.00013041,-220.64,-0.00045481,-4617.8,0.17919
14474,5.6092,1.8182,0,0.00045304,4527.3,0.0001612,-0.0002581,0.00012936,-239.17,-0.00045664,-4642.2,0.17399
14475,5.7011,1.8182,0.05,1.1474e-06,11.466,8.8103e-07,6.6197,2.1709e-12,3.2494e-06,-8.8103e-07,-6.6197,0.17944
14476,5.7011,1.5455,0,0.00045296,4526.4,0.00015941,0.005841,0.00013242,-202.77,-0.00045607,-4624.4,0.17857
14477,5.6092,1.6364,0,0.00045452,4542,0.00016083,0.0037427,0.00013135,-221.5,-0.00045788,-4648.7,0.17341
14478,5.7011,1.6364,0.05,1.1485e-06,11.477,8.819e-07,6.6263,2.7439e-13,3.4416e-06,-8.8191e-07,-6.6263,0.17886
14479,5.7011,1.3636,0,0.00045461,4542.9,0.000159,0.010839,0.00013463,-183.05,-0.00045744,-4631.7,0.17785
14480,5.6092,1.4545,0,0.00045616,4558.4,0.00016042,0.0085644,0.00013356,-201.82,-0.00045925,-4656,0.17274
14481,5.7011,1.4545,0.05,1.1493e-06,11.485,8.8255e-07,6.6311,2.5399e-13,3.5567e-06,-8.8255e-07,-6.6311,0.17819
14482,5.7011,1.1818,0,0.0004564,4560.8,0.00015855,0.017024,0.00013703,-161.68,-0.00045893,-4639.5,0.17705
14483,5.6092,1.2727,0,0.00045795,4576.4,0.00015997,0.014323,0.00013597,-180.31,-0.00046075,-4663.8,0.17199
14484,5.7011,1.2727,0.05,1.1497e-06,11.489,8.8285e-07,6.6334,4.5778e-13,5.1379e-06,-8.8285e-07,-6.6334,0.17744
14485,5.7011,1,0,0.00045832,4580,0.00015807,0.024396,0.00013959,-138.85,-0.00046052,-4647.8,0.17616
14486,5.6092,1.0909,0,0.00045989,4595.7,0.00015948,0.021698,0.00013856,-157.18,-0.00046236,-4672.3,0.17114
14487,5.7011,1.0909,0.05,1.1496e-06,11.488,8.8272e-07,6.6324,4.2657e-13,8.205e-06,-8.8272e-07,-6.6324,0.17659
14488,5.7011,0.81818,0,0.00046034,4600.2,0.00015756,0.035824,0.00014229,-114.75,-0.00046219,-4656.5,0.17518
14489,5.6092,0.90909,0,0.00046194,4616.2,0.00015897,0.030083,0.00014131,-132.63,-0.00046406,-4681.1,0.1702
14490,5.7011,0.90909,0.05,1.1487e-06,11.479,8.8205e-07,6.6274,-9.2605e-13,9.2209e-06,-8.8205e-07,-6.6273,0.17565
14491,5.7011,0.63636,0,0.00046246,4621.4,0.00015703,0.045454,0.0001451,-89.6,-0.00046392,-4665.5,0.1741
14492,5.6092,0.72727,0,0.0004641,4637.8,0.00015842,0.046252,0.00014419,-106.88,-0.00046583,-4690.3,0.16917
14493,5.7011,0.72727,0.05,1.147e-06,11.462,8.8073e-07,6.6175,3.5112e-13,3.5273e-06,-8.8073e-07,-6.6175,0.17462
14494,5.7011,0.45455,0,0.00046465,4643.3,0.00015648,0.10254,0.00014801,-63.558,-0.0004657,-4674.7,0.17292
14495,5.6092,0.54545,0,0.00046635,4660.3,0.00015785,0.051819,0.00014718,-80.15,-0.00046766,-4699.8,0.16805
14496,5.7011,0.54545,0.05,1.1437e-06,11.429,8.7823e-07,6.5986,-9.7837e-13,2.1045e-06,-8.7822e-07,-6.5986,0.17349
14497,5.7011,0.27273,0,0.00046692,4666,0.00015591,0.14138,0.000151,-36.737,-0.00046753,-4684.2,0.17165
14498,5.6092,0.36364,0,0.00046867,4683.5,0.00015727,0.17057,0.00015025,-52.574,-0.00046954,-4709.5,0.16682
14499,5.7011,0.36364,0.05,1.1287e-06,11.279,8.6672e-07,6.5122,-9.9829e-13,2.3463e-06,-8.6671e-07,-6.5122,0.17227
14500,5.6092,0.18182,0,0.00047107,4707.4,0.00015667,0.17603,0.00015341,-24.28,-0.00047147,-4719.4,0.1655
14501,5.7011,0.18182,0.05,9.5983e-07,9.5917,7.3703e-07,5.5377,-1.0374e-13,1.6869e-06,-7.3703e-07,-5.5377,0.17095
14502,5.7011,0.090909,0,0.00046897,4686.4,0.00015538,0.1573,0.00015373,-12.271,-0.00046917,-4692.5,0.17028
14503,5.5172,5.7273,0,0.00047281,4724.9,0.00015802,0.15603,0.00015267,-40.066,-0.00047348,-4744.7,0.16078
14504,5.4253,5.8182,0,0.00047708,4767.5,0.00015876,0.19491,0.00015521,-26.51,-0.00047752,-4780.6,0.15479
14505,5.5172,5.8182,0.05,1.0428e-06,10.421,8.0072e-07,6.0163,1.6051e-12,-2.1213e-05,-8.0073e-07,-6.0164,0.16007
14506,5.5172,5.9091,0,0.00047503,4747,0.00015744,0.16709,0.00015563,-13.484,-0.00047526,-4753.7,0.1594
14507,5.5172,5.5455,0,0.00047037,4700.4,0.00015864,0.11256,0.00014942,-69.149,-0.0004715,-4734.6,0.16205
14508,5.4253,5.6364,0,0.00047449,4741.7,0.00015942,0.18695,0.00015179,-57.166,-0.00047544,-4769.9,0.15611
14509,5.5172,5.6364,0.05,1.1539e-06,11.531,8.8602e-07,6.6572,4.362e-12,-1.5796e-05,-8.8603e-07,-6.6573,0.1614
14510,5.5172,5.3636,0,0.000468,4676.7,0.00015924,0.050022,0.00014627,-97.419,-0.00046958,-4724.6,0.16323
14511,5.4253,5.4545,0,0.00047199,4716.6,0.00016005,0.057171,0.00014846,-87.086,-0.00047341,-4759.5,0.15734
14512,5.5172,5.4545,0.05,1.1652e-06,11.644,8.9473e-07,6.7226,3.1642e-12,-2.9742e-05,-8.9475e-07,-6.7228,0.16262
14513,5.5172,5.1818,0,0.0004657,4653.8,0.00015982,0.039294,0.00014322,-124.75,-0.0004677,-4714.9,0.1643
14514,5.4253,5.2727,0,0.00046956,4692.3,0.00016067,0.050769,0.00014521,-116.12,-0.00047142,-4749.3,0.15846
14515,5.5172,5.2727,0.05,1.1683e-06,11.675,8.9707e-07,6.7402,2.5671e-12,-2.0575e-05,-8.9708e-07,-6.7404,0.16375
14516,5.5172,5,0,0.00046351,4631.9,0.00016038,0.026698,0.00014028,-150.95,-0.0004659,-4705.6,0.16529
14517,5.4253,5.0909,0,0.00046722,4669,0.00016127,0.032979,0.00014209,-144.1,-0.00046951,-4739.4,0.15949
14518,5.5172,5.0909,0.05,1.1699e-06,11.691,8.9834e-07,6.7497,4.7375e-12,-2.7248e-05,-8.9835e-07,-6.7499,0.16478
14519,5.5172,4.8182,0,0.00046144,4611.2,0.0001609,0.018561,0.0001375,-175.79,-0.00046418,-4696.6,0.16618
14520,5.4253,4.9091,0,0.000465,4646.8,0.00016183,0.023717,0.0001391,-170.8,-0.00046767,-4729.8,0.16042
14521,5.5172,4.9091,0.05,1.1706e-06,11.698,8.9891e-07,6.754,4.6119e-12,-1.7748e-05,-8.9892e-07,-6.7542,0.16571
14522,5.5172,4.6364,0,0.0004595,4591.8,0.00016139,0.011746,0.00013489,-199.06,-0.00046256,-4688.1,0.16698
14523,5.4253,4.7273,0,0.0004629,4625.8,0.00016236,0.015592,0.00013628,-195.98,-0.00046593,-4720.7,0.16127
14524,5.5172,4.7273,0.05,1.1706e-06,11.698,8.9888e-07,6.7538,5.2068e-12,-1.2595e-05,-8.9889e-07,-6.7539,0.16656
14525,5.5172,4.4545,0,0.00045771,4574,0.00016184,0.006242,0.00013249,-220.53,-0.00046107,-4680.3,0.16769
14526,5.4253,4.5455,0,0.00046096,4606.4,0.00016286,0.0092517,0.00013365,-219.4,-0.0004643,-4712.2,0.16202
14527,5.5172,4.5455,0.05,1.1699e-06,11.691,8.9837e-07,6.7499,3.7064e-12,-1.5697e-05,-8.9838e-07,-6.7501,0.16731
14528,5.5172,4.2727,0,0.0004561,4557.8,0.00016224,0.0016458,0.0001303,-240.02,-0.00045971,-4673.1,0.16831
14529,5.4253,4.3636,0,0.00045919,4588.7,0.00016331,0.0039485,0.00013125,-240.85,-0.00046281,-4704.4,0.16269
14530,5.5172,4.3636,0.05,1.1688e-06,11.68,8.9749e-07,6.7433,3.9547e-12,-1.3216e-05,-8.9749e-07,-6.7435,0.16798
14531,5.5172,4.0909,0,0.00045466,4543.5,0.0001626,-0.0021699,0.00012836,-257.32,-0.00045849,-4666.7,0.16885
14532,5.4253,4.1818,0,0.00045759,4572.8,0.00016371,-0.00044775,0.00012909,-260.12,-0.00046146,-4697.3,0.16326
14533,5.5172,4.1818,0.05,1.1673e-06,11.665,8.9635e-07,6.7348,4.2071e-12,-8.3279e-06,-8.9636e-07,-6.7349,0.16856
14534,5.5172,3.9091,0,0.00045343,4531.2,0.00016291,-0.0053094,0.00012668,-272.27,-0.00045745,-4661.2,0.1693
14535,5.4253,4,0,0.0004562,4558.9,0.00016406,-0.0040903,0.00012719,-277.02,-0.00046028,-4691.1,0.16376
14536,5.5172,4,0.05,1.1657e-06,11.649,8.951e-07,6.7254,4.5527e-12,-4.7236e-06,-8.951e-07,-6.7255,0.16905
14537,5.5172,3.7273,0,0.0004524,4520.9,0.00016317,-0.0078281,0.00012528,-284.72,-0.00045657,-4656.5,0.16967
14538,5.4253,3.8182,0,0.00045502,4547.1,0.00016436,-0.0070529,0.00012558,-291.38,-0.00045928,-4685.8,0.16417
14539,5.5172,3.8182,0.05,1.164e-06,11.632,8.9384e-07,6.716,4.8479e-12,-3.8127e-06,-8.9384e-07,-6.716,0.16946
14540,5.5172,3.5455,0,0.00045159,4512.8,0.00016338,-0.0097602,0.00012418,-294.54,-0.00045588,-4652.8,0.16995
14541,5.4253,3.6364,0,0.00045406,4537.5,0.0001646,-0.0093836,0.00012427,-303.05,-0.00045846,-4681.4,0.16449
14542,5.5172,3.6364,0.05,1.1625e-06,11.617,8.9268e-07,6.7072,3.1082e-12,-4.6427e-06,-8.9269e-07,-6.7074,0.16979
14543,5.5172,3.3636,0,0.00045101,4507,0.00016352,-0.011128,0.00012338,-301.62,-0.00045538,-4650.2,0.17016
14544,5.4253,3.4545,0,0.00045334,4530.2,0.00016478,-0.01111,0.00012327,-311.91,-0.00045784,-4678.1,0.16473
14545,5.5172,3.4545,0.05,1.1613e-06,11.605,8.9173e-07,6.7,3.3528e-12,9.378e-07,-8.9173e-07,-6.7002,0.17004
14546,5.5172,3.1818,0,0.00045065,4503.4,0.00016361,-0.011945,0.0001229,-305.91,-0.00045508,-4648.6,0.17028
14547,5.4253,3.2727,0,0.00045285,4525.3,0.00016491,-0.012254,0.0001226,-317.87,-0.00045742,-4675.9,0.1649
14548,5.5172,3.2727,0.05,1.1604e-06,11.596,8.9105e-07,6.6949,3.4621e-12,-1.4334e-06,-8.9105e-07,-6.6951,0.1702
14549,5.5172,3,0,0.00045054,4502.3,0.00016364,-0.012217,0.00012274,-307.34,-0.00045498,-4648.1,0.17032
14550,5.4253,3.0909,0,0.0004526,4522.9,0.00016497,-0.012824,0.00012227,-320.87,-0.00045721,-4674.8,0.16498
14551,5.5172,3.0909,0.05,1.1599e-06,11.591,8.9069e-07,6.6923,1.771e-12,-3.6195e-07,-8.907e-07,-6.6924,0.17028
14552,5.5172,2.8182,0,0.00045065,4503.4,0.00016361,-0.011945,0.0001229,-305.91,-0.00045508,-4648.6,0.17028
14553,5.4253,2.9091,0,0.0004526,4522.9,0.00016497,-0.012824,0.00012227,-320.87,-0.00045721,-4674.8,0.16498
14554,5.5172,2.9091,0.05,1.1599e-06,11.591,8.9069e-07,6.6923,1.8589e-12,2.9219e-07,-8.907e-07,-6.6924,0.17028
14555,5.5172,2.6364,0,0.00045101,4507,0.00016352,-0.011128,0.00012338,-301.62,-0.00045538,-4650.2,0.17016
14556,5.4253,2.7273,0,0.00045285,4525.3,0.00016491,-0.012254,0.0001226,-317.87,-0.00045742,-4675.9,0.1649
14557,5.5172,2.7273,0.05,1.1604e-06,11.596,8.9105e-07,6.6949,9.937e-14,6.6792e-07,-8.9105e-07,-6.6951,0.1702
14558,5.5172,2.4545,0,0.00045159,4512.8,0.00016338,-0.0097599,0.00012418,-294.54,-0.00045588,-4652.8,0.16995
14559,5.4253,2.5455,0,0.00045334,4530.2,0.00016478,-0.01111,0.00012327,-311.91,-0.00045784,-4678.1,0.16473
14560,5.5172,2.5455,0.05,1.1613e-06,11.605,8.9173e-07,6.7001,3.797e-12,1.173e-06,-8.9173e-07,-6.7001,0.17004
14561,5.5172,2.2727,0,0.0004524,4520.9,0.00016317,-0.0078278,0.00012528,-284.72,-0.00045657,-4656.5,0.16967
14562,5.4253,2.3636,0,0.00045406,4537.5,0.0001646,-0.0093832,0.00012427,-303.05,-0.00045846,-4681.4,0.16449
14563,5.5172,2.3636,0.05,1.1625e-06,11.617,8.9268e-07,6.7073,1.9853e-12,1.3273e-06,-8.9269e-07,-6.7073,0.16979
14564,5.5172,2.0909,0,0.00045343,4531.2,0.00016291,-0.0053091,0.00012668,-272.27,-0.00045745,-4661.2,0.1693
14565,5.4253,2.1818,0,0.00045502,4547.1,0.00016436,-0.0070527,0.00012558,-291.38,-0.00045928,-4685.8,0.16417
14566,5.5172,2.1818,0.05,1.164e-06,11.632,8.9384e-07,6.716,2.0663e-12,2.669e-06,-8.9384e-07,-6.716,0.16946
14567,5.5172,1.9091,0,0.00045466,4543.5,0.0001626,-0.0021694,0.00012836,-257.32,-0.00045849,-4666.7,0.16885
14568,5.4253,2,0,0.0004562,4558.9,0.00016406,-0.0040897,0.00012719,-277.02,-0.00046028,-4691.1,0.16376
14569,5.5172,2,0.05,1.1657e-06,11.649,8.951e-07,6.7255,3.9418e-12,3.1056e-06,-8.951e-07,-6.7255,0.16905
14570,5.5172,1.7273,0,0.0004561,4557.8,0.00016224,0.0016464,0.0001303,-240.02,-0.00045971,-4673.1,0.16831
14571,5.4253,1.8182,0,0.00045759,4572.8,0.00016371,-0.0004473,0.00012909,-260.12,-0.00046146,-4697.3,0.16326
14572,5.5172,1.8182,0.05,1.1673e-06,11.665,8.9636e-07,6.7349,3.7866e-12,3.3816e-06,-8.9636e-07,-6.7349,0.16856
14573,5.5172,1.5455,0,0.00045771,4574,0.00016184,0.0062427,0.00013249,-220.53,-0.00046107,-4680.3,0.16769
14574,5.4253,1.6364,0,0.00045919,4588.7,0.00016331,0.0039491,0.00013125,-240.85,-0.00046281,-4704.4,0.16269
14575,5.5172,1.6364,0.05,1.1688e-06,11.68,8.9749e-07,6.7434,3.1783e-13,3.8951e-06,-8.9749e-07,-6.7434,0.16798
14576,5.5172,1.3636,0,0.0004595,4591.8,0.00016139,0.011747,0.00013489,-199.06,-0.00046256,-4688.1,0.16698
14577,5.4253,1.4545,0,0.00046096,4606.4,0.00016286,0.0092525,0.00013365,-219.4,-0.0004643,-4712.2,0.16202
14578,5.5172,1.4545,0.05,1.1699e-06,11.691,8.9837e-07,6.75,4.8082e-13,3.7962e-06,-8.9837e-07,-6.75,0.16731
14579,5.5172,1.1818,0,0.00046144,4611.2,0.0001609,0.018562,0.0001375,-175.79,-0.00046418,-4696.6,0.16618
14580,5.4253,1.2727,0,0.0004629,4625.8,0.00016236,0.015593,0.00013628,-195.98,-0.00046593,-4720.7,0.16127
14581,5.5172,1.2727,0.05,1.1706e-06,11.698,8.9888e-07,6.7539,4.8789e-13,3.709e-06,-8.9889e-07,-6.7539,0.16656
14582,5.5172,1,0,0.00046351,4631.9,0.00016038,0.026699,0.00014028,-150.95,-0.0004659,-4705.6,0.16529
14583,5.4253,1.0909,0,0.000465,4646.8,0.00016183,0.023718,0.0001391,-170.8,-0.00046767,-4729.8,0.16042
14584,5.5172,1.0909,0.05,1.1706e-06,11.698,8.9891e-07,6.7541,-9.0997e-13,8.7165e-06,-8.9891e-07,-6.7541,0.16571
14585,5.5172,0.81818,0,0.0004657,4653.8,0.00015982,0.039295,0.00014322,-124.75,-0.0004677,-4714.9,0.1643
14586,5.4253,0.90909,0,0.00046722,4669,0.00016127,0.03298,0.00014209,-144.1,-0.00046951,-4739.4,0.15949
14587,5.5172,0.90909,0.05,1.1699e-06,11.691,8.9835e-07,6.7499,-1.2282e-12,9.0997e-06,-8.9835e-07,-6.7498,0.16478
14588,5.5172,0.63636,0,0.000468,4676.7,0.00015924,0.050023,0.00014627,-97.419,-0.00046958,-4724.6,0.16323
14589,5.4253,0.72727,0,0.00046956,4692.3,0.00016067,0.05077,0.00014521,-116.12,-0.00047142,-4749.3,0.15846
14590,5.5172,0.72727,0.05,1.1683e-06,11.675,8.9708e-07,6.7403,7.5311e-13,2.9774e-06,-8.9708e-07,-6.7403,0.16375
14591,5.5172,0.45455,0,0.00047037,4700.4,0.00015864,0.11256,0.00014942,-69.149,-0.0004715,-4734.6,0.16205
14592,5.4253,0.54545,0,0.00047199,4716.6,0.00016005,0.057171,0.00014846,-87.086,-0.00047341,-4759.5,0.15734
14593,5.5172,0.54545,0.05,1.1652e-06,11.644,8.9474e-07,6.7228,-2.906e-12,1.7479e-05,-8.9474e-07,-6.7227,0.16262
14594,5.5172,0.27273,0,0.00047281,4724.9,0.00015802,0.15603,0.00015267,-40.066,-0.00047348,-4744.7,0.16078
14595,5.4253,0.36364,0,0.00047449,4741.7,0.00015942,0.18695,0.00015179,-57.166,-0.00047544,-4769.9,0.15611
14596,5.5172,0.36364,0.05,1.1539e-06,11.531,8.8603e-07,6.6572,-4.6024e-13,2.872e-06,-8.8602e-07,-6.6572,0.1614
14597,5.4253,0.18182,0,0.00047708,4767.5,0.00015876,0.19491,0.00015521,-26.51,-0.00047752,-4780.6,0.15479
14598,5.5172,0.18182,0.05,1.0428e-06,10.421,8.0072e-07,6.0163,7.476e-13,1.1396e-05,-8.0072e-07,-6.0163,0.16007
14599,5.5172,0.090909,0,0.00047503,4747,0.00015744,0.16709,0.00015563,-13.484,-0.00047526,-4753.7,0.1594
14600,5.3333,5.7273,0,0.00047876,4784.3,0.00016016,0.17246,0.00015434,-43.549,-0.00047948,-4805.8,0.15023
14601,5.2414,5.8182,0,0.00048315,4828.1,0.00016088,0.21714,0.00015702,-28.793,-0.00048363,-4842.4,0.1444
14602,5.3333,5.8182,0.05,1.1322e-06,11.314,8.6938e-07,6.5321,2.8403e-12,-4.1964e-05,-8.6938e-07,-6.5323,0.14952
14603,5.3333,5.9091,0,0.00048115,4808.2,0.00015952,0.17804,0.00015754,-14.719,-0.0004814,-4815.5,0.14885
14604,5.3333,5.5455,0,0.00047611,4757.8,0.00016083,0.12353,0.00015082,-75.082,-0.00047734,-4794.9,0.1515
14605,5.2414,5.6364,0,0.00048036,4800.2,0.0001616,0.20488,0.00015332,-62.011,-0.00048138,-4830.9,0.14572
14606,5.3333,5.6364,0.05,1.1811e-06,11.803,9.0697e-07,6.8146,2.9681e-12,-2.6881e-05,-9.0698e-07,-6.8147,0.15085
14607,5.3333,5.3636,0,0.00047355,4732.2,0.00016149,0.05505,0.0001474,-105.77,-0.00047526,-4784.2,0.15267
14608,5.2414,5.4545,0,0.00047765,4773.2,0.00016229,0.063079,0.0001497,-94.469,-0.00047918,-4819.7,0.14694
14609,5.3333,5.4545,0.05,1.1886e-06,11.878,9.1272e-07,6.8577,2.0277e-12,-2.6392e-05,-9.1272e-07,-6.8579,0.15207
14610,5.3333,5.1818,0,0.00047107,4707.5,0.00016212,0.043109,0.00014409,-135.45,-0.00047323,-4773.7,0.15375
14611,5.2414,5.2727,0,0.00047502,4747,0.00016296,0.055732,0.00014619,-125.99,-0.00047704,-4808.7,0.14807
14612,5.3333,5.2727,0.05,1.1915e-06,11.906,9.1489e-07,6.8741,2.2049e-12,-2.4226e-05,-9.149e-07,-6.8742,0.15319
14613,5.3333,5,0,0.0004687,4683.8,0.00016272,0.029239,0.0001409,-163.94,-0.00047128,-4763.6,0.15473
14614,5.2414,5.0909,0,0.0004725,4721.7,0.00016361,0.036171,0.00014279,-156.4,-0.00047496,-4798,0.14909
14615,5.3333,5.0909,0.05,1.1931e-06,11.922,9.1611e-07,6.8833,4.4246e-12,-2.3312e-05,-9.1612e-07,-6.8834,0.15422
14616,5.3333,4.8182,0,0.00046646,4661.4,0.0001633,0.020266,0.00013788,-190.97,-0.00046942,-4753.9,0.15562
14617,5.2414,4.9091,0,0.00047009,4697.7,0.00016423,0.02595,0.00013954,-185.44,-0.00047297,-4787.7,0.15002
14618,5.3333,4.9091,0.05,1.1936e-06,11.928,9.1657e-07,6.8867,-6.3808e-13,-1.988e-05,-9.1658e-07,-6.8869,0.15515
14619,5.3333,4.6364,0,0.00046437,4640.4,0.00016383,0.012764,0.00013504,-216.3,-0.00046767,-4744.8,0.15641
14620,5.2414,4.7273,0,0.00046783,4675.1,0.00016481,0.017008,0.00013648,-212.84,-0.00047109,-4777.9,0.15086
14621,5.3333,4.7273,0.05,1.1934e-06,11.926,9.1637e-07,6.8852,4.5465e-12,-8.9901e-06,-9.1638e-07,-6.8853,0.156
14622,5.3333,4.4545,0,0.00046243,4621.1,0.00016432,0.0067103,0.00013242,-239.7,-0.00046604,-4736.3,0.15712
14623,5.2414,4.5455,0,0.00046573,4654.1,0.00016535,0.010033,0.00013362,-238.35,-0.00046933,-4768.7,0.15161
14624,5.3333,4.5455,0.05,1.1924e-06,11.916,9.1563e-07,6.8796,5.225e-12,-1.5189e-05,-9.1564e-07,-6.8798,0.15675
14625,5.3333,4.2727,0,0.00046068,4603.7,0.00016477,0.0016605,0.00013004,-260.94,-0.00046457,-4728.6,0.15774
14626,5.2414,4.3636,0,0.00046381,4634.9,0.00016584,0.0042073,0.00013101,-261.73,-0.00046771,-4760.2,0.15227
14627,5.3333,4.3636,0.05,1.1909e-06,11.901,9.1448e-07,6.871,3.7655e-12,-1.1096e-05,-9.1449e-07,-6.8711,0.15741
14628,5.3333,4.0909,0,0.00045913,4588.2,0.00016516,-0.0025276,0.00012792,-279.81,-0.00046325,-4721.7,0.15827
14629,5.2414,4.1818,0,0.00046209,4617.7,0.00016628,-0.00061713,0.00012865,-282.74,-0.00046625,-4752.6,0.15285
14630,5.3333,4.1818,0.05,1.1891e-06,11.883,9.1306e-07,6.8604,4.2064e-12,-9.3246e-06,-9.1307e-07,-6.8605,0.15799
14631,5.3333,3.9091,0,0.0004578,4574.8,0.0001655,-0.0059699,0.00012609,-296.12,-0.00046211,-4715.7,0.15872
14632,5.2414,4,0,0.00046058,4602.7,0.00016667,-0.0046095,0.00012658,-301.18,-0.00046497,-4745.9,0.15334
14633,5.3333,4,0.05,1.1871e-06,11.863,9.1152e-07,6.8488,2.6948e-12,-7.3727e-06,-9.1153e-07,-6.8489,0.15848
14634,5.3333,3.7273,0,0.00045668,4563.7,0.00016579,-0.0087287,0.00012457,-309.71,-0.00046116,-4710.7,0.15909
14635,5.2414,3.8182,0,0.00045931,4589.9,0.00016699,-0.007853,0.00012483,-316.85,-0.00046388,-4740.1,0.15374
14636,5.3333,3.8182,0.05,1.1851e-06,11.843,9.0999e-07,6.8373,1.0415e-12,-5.6805e-06,-9.0999e-07,-6.8374,0.15889
14637,5.3333,3.5455,0,0.00045581,4554.9,0.00016601,-0.010843,0.00012336,-320.43,-0.00046041,-4706.7,0.15937
14638,5.2414,3.6364,0,0.00045827,4579.5,0.00016726,-0.010402,0.0001234,-329.59,-0.00046299,-4735.4,0.15407
14639,5.3333,3.6364,0.05,1.1833e-06,11.824,9.0859e-07,6.8268,1.3316e-12,-2.2087e-06,-9.086e-07,-6.8268,0.15921
14640,5.3333,3.3636,0,0.00045518,4548.6,0.00016617,-0.012339,0.00012249,-328.17,-0.00045987,-4703.8,0.15957
14641,5.2414,3.4545,0,0.00045748,4571.7,0.00016746,-0.012289,0.00012231,-339.27,-0.00046231,-4731.9,0.15431
14642,5.3333,3.4545,0.05,1.1818e-06,11.809,9.0744e-07,6.8181,3.2953e-12,-2.1082e-06,-9.0745e-07,-6.8182,0.15945
14643,5.3333,3.1818,0,0.0004548,4544.8,0.00016627,-0.013232,0.00012197,-332.84,-0.00045954,-4702.1,0.15969
14644,5.2414,3.2727,0,0.00045696,4566.4,0.0001676,-0.013538,0.00012158,-345.78,-0.00046186,-4729.5,0.15447
14645,5.3333,3.2727,0.05,1.1807e-06,11.799,9.0662e-07,6.812,5.2918e-12,-1.2081e-06,-9.0663e-07,-6.8121,0.15961
14646,5.3333,3,0,0.00045467,4543.5,0.0001663,-0.013529,0.00012179,-334.41,-0.00045943,-4701.5,0.15973
14647,5.2414,3.0909,0,0.00045669,4563.8,0.00016767,-0.014159,0.00012121,-349.05,-0.00046163,-4728.3,0.15455
14648,5.3333,3.0909,0.05,1.1801e-06,11.793,9.062e-07,6.8088,2.6787e-12,-3.9076e-07,-9.062e-07,-6.8089,0.15969
14649,5.3333,2.8182,0,0.0004548,4544.8,0.00016627,-0.013232,0.00012197,-332.84,-0.00045954,-4702.1,0.15969
14650,5.2414,2.9091,0,0.00045669,4563.8,0.00016767,-0.014159,0.00012121,-349.05,-0.00046163,-4728.3,0.15455
14651,5.3333,2.9091,0.05,1.1801e-06,11.793,9.062e-07,6.8088,2.7717e-12,3.3185e-07,-9.062e-07,-6.8089,0.15969
14652,5.3333,2.6364,0,0.00045518,4548.6,0.00016617,-0.012339,0.00012249,-328.17,-0.00045987,-4703.8,0.15957
14653,5.2414,2.7273,0,0.00045696,4566.4,0.0001676,-0.013537,0.00012158,-345.78,-0.00046186,-4729.5,0.15447
14654,5.3333,2.7273,0.05,1.1807e-06,11.799,9.0662e-07,6.812,5.5685e-12,8.6391e-07,-9.0663e-07,-6.8121,0.15961
14655,5.3333,2.4545,0,0.00045581,4554.9,0.00016601,-0.010843,0.00012336,-320.43,-0.00046041,-4706.7,0.15937
14656,5.2414,2.5455,0,0.00045748,4571.7,0.00016746,-0.012289,0.00012231,-339.27,-0.00046231,-4731.9,0.15431
14657,5.3333,2.5455,0.05,1.1818e-06,11.809,9.0744e-07,6.8182,1.9454e-12,1.7311e-06,-9.0745e-07,-6.8182,0.15945
14658,5.3333,2.2727,0,0.00045668,4563.7,0.00016579,-0.0087284,0.00012457,-309.71,-0.00046116,-4710.7,0.15909
14659,5.2414,2.3636,0,0.00045827,4579.5,0.00016726,-0.010402,0.0001234,-329.59,-0.00046299,-4735.4,0.15407
14660,5.3333,2.3636,0.05,1.1833e-06,11.824,9.086e-07,6.8268,3.1311e-13,2.3281e-06,-9.0859e-07,-6.8268,0.15921
14661,5.3333,2.0909,0,0.0004578,4574.8,0.0001655,-0.0059695,0.00012609,-296.12,-0.00046211,-4715.7,0.15872
14662,5.2414,2.1818,0,0.00045931,4589.9,0.00016699,-0.0078527,0.00012483,-316.85,-0.00046388,-4740.1,0.15374
14663,5.3333,2.1818,0.05,1.1851e-06,11.843,9.0999e-07,6.8373,2.6588e-13,2.8602e-06,-9.0999e-07,-6.8373,0.15889
14664,5.3333,1.9091,0,0.00045913,4588.2,0.00016516,-0.0025271,0.00012792,-279.81,-0.00046325,-4721.7,0.15827
14665,5.2414,2,0,0.00046058,4602.7,0.00016667,-0.004609,0.00012658,-301.18,-0.00046497,-4745.9,0.15334
14666,5.3333,2,0.05,1.1871e-06,11.863,9.1152e-07,6.8488,2.0677e-12,1.3442e-06,-9.1153e-07,-6.8489,0.15848
14667,5.3333,1.7273,0,0.00046068,4603.7,0.00016477,0.0016611,0.00013004,-260.94,-0.00046457,-4728.6,0.15774
14668,5.2414,1.8182,0,0.00046209,4617.7,0.00016628,-0.00061659,0.00012865,-282.74,-0.00046625,-4752.6,0.15285
14669,5.3333,1.8182,0.05,1.1891e-06,11.883,9.1307e-07,6.8604,2.0422e-12,3.5106e-06,-9.1307e-07,-6.8604,0.15799
14670,5.3333,1.5455,0,0.00046243,4621.1,0.00016432,0.006711,0.00013242,-239.7,-0.00046604,-4736.3,0.15712
14671,5.2414,1.6364,0,0.00046381,4634.9,0.00016584,0.004208,0.00013101,-261.73,-0.00046771,-4760.2,0.15227
14672,5.3333,1.6364,0.05,1.1909e-06,11.901,9.1448e-07,6.871,5.2297e-13,-1.2203e-07,-9.1448e-07,-6.8711,0.15741
14673,5.3333,1.3636,0,0.00046437,4640.4,0.00016383,0.012765,0.00013504,-216.3,-0.00046767,-4744.8,0.15641
14674,5.2414,1.4545,0,0.00046573,4654.1,0.00016535,0.010034,0.00013362,-238.35,-0.00046933,-4768.7,0.15161
14675,5.3333,1.4545,0.05,1.1924e-06,11.916,9.1563e-07,6.8797,5.122e-13,5.5535e-06,-9.1563e-07,-6.8797,0.15675
14676,5.3333,1.1818,0,0.00046646,4661.4,0.0001633,0.020267,0.00013788,-190.97,-0.00046942,-4753.9,0.15562
14677,5.2414,1.2727,0,0.00046783,4675.1,0.00016481,0.017009,0.00013648,-212.84,-0.00047109,-4777.9,0.15086
14678,5.3333,1.2727,0.05,1.1934e-06,11.926,9.1637e-07,6.8853,5.1887e-13,3.8085e-06,-9.1637e-07,-6.8853,0.156
14679,5.3333,1,0,0.0004687,4683.8,0.00016272,0.02924,0.0001409,-163.94,-0.00047128,-4763.6,0.15473
14680,5.2414,1.0909,0,0.00047009,4697.7,0.00016423,0.025951,0.00013954,-185.44,-0.00047297,-4787.7,0.15002
14681,5.3333,1.0909,0.05,1.1936e-06,11.928,9.1657e-07,6.8868,4.8201e-13,3.4658e-06,-9.1657e-07,-6.8868,0.15515
14682,5.3333,0.81818,0,0.00047107,4707.5,0.00016212,0.04311,0.00014409,-135.45,-0.00047323,-4773.7,0.15375
14683,5.2414,0.90909,0,0.0004725,4721.7,0.00016361,0.036173,0.00014279,-156.4,-0.00047496,-4798,0.14909
14684,5.3333,0.90909,0.05,1.1931e-06,11.922,9.1612e-07,6.8834,-7.6282e-13,1.1987e-05,-9.1611e-07,-6.8833,0.15422
14685,5.3333,0.63636,0,0.00047355,4732.2,0.00016149,0.055051,0.0001474,-105.77,-0.00047526,-4784.2,0.15267
14686,5.2414,0.72727,0,0.00047502,4747,0.00016296,0.055733,0.00014619,-125.99,-0.00047704,-4808.7,0.14807
14687,5.3333,0.72727,0.05,1.1915e-06,11.906,9.1489e-07,6.8742,4.509e-13,3.9866e-06,-9.1489e-07,-6.8742,0.15319
14688,5.3333,0.45455,0,0.00047611,4757.8,0.00016083,0.12353,0.00015082,-75.082,-0.00047734,-4794.9,0.1515
14689,5.2414,0.54545,0,0.00047765,4773.2,0.00016229,0.06308,0.0001497,-94.469,-0.00047918,-4819.7,0.14694
14690,5.3333,0.54545,0.05,1.1886e-06,11.878,9.1272e-07,6.8578,7.9899e-13,3.2649e-06,-9.1272e-07,-6.8578,0.15207
14691,5.3333,0.27273,0,0.00047876,4784.3,0.00016016,0.17246,0.00015434,-43.549,-0.00047948,-4805.8,0.15023
14692,5.2414,0.36364,0,0.00048036,4800.2,0.0001616,0.20489,0.00015332,-62.011,-0.00048138,-4830.8,0.14572
14693,5.3333,0.36364,0.05,1.1811e-06,11.803,9.0698e-07,6.8147,-3.0714e-13,1.9026e-05,-9.0697e-07,-6.8146,0.15085
14694,5.2414,0.18182,0,0.00048315,4828.1,0.00016088,0.21714,0.00015702,-28.793,-0.00048363,-4842.4,0.1444
14695,5.3333,0.18182,0.05,1.1322e-06,11.314,8.6938e-07,6.5322,-1.0286e-12,2.2139e-05,-8.6938e-07,-6.5321,0.14952
14696,5.3333,0.090909,0,0.00048115,4808.2,0.00015952,0.17805,0.00015754,-14.719,-0.0004814,-4815.5,0.14885
14697,5.1494,5.7273,0,0.00048475,4844.1,0.00016231,0.19092,0.00015601,-47.182,-0.00048553,-4867.4,0.14
14698,5.0575,5.8182,0,0.00048928,4889.4,0.00016302,0.24334,0.00015885,-31.115,-0.0004898,-4904.8,0.13434
14699,5.1494,5.8182,0.05,1.2285e-06,12.276,9.4332e-07,7.0877,3.4541e-12,-3.1862e-05,-9.4332e-07,-7.0878,0.1393
14700,5.1494,5.9091,0,0.00048733,4870,0.00016163,0.19024,0.00015948,-15.968,-0.0004876,-4877.8,0.13863
14701,5.1494,5.5455,0,0.00048189,4815.6,0.00016305,0.13555,0.0001522,-81.372,-0.00048322,-4855.7,0.14127
14702,5.0575,5.6364,0,0.00048626,4859.3,0.0001638,0.22454,0.00015484,-67.115,-0.00048736,-4892.4,0.13566
14703,5.1494,5.6364,0.05,1.2107e-06,12.099,9.2969e-07,6.9853,3.533e-12,-3.0298e-05,-9.2969e-07,-6.9854,0.14062
14704,5.1494,5.3636,0,0.00047912,4787.9,0.00016376,0.060589,0.00014849,-114.67,-0.00048097,-4844.2,0.14244
14705,5.0575,5.4545,0,0.00048334,4830,0.00016455,0.069611,0.00015092,-102.32,-0.00048499,-4880.3,0.13688
14706,5.1494,5.4545,0.05,1.2141e-06,12.133,9.323e-07,7.0049,3.1891e-12,-2.9973e-05,-9.3231e-07,-7.005,0.14184
14707,5.1494,5.1818,0,0.00047645,4761.2,0.00016445,0.047305,0.00014489,-146.91,-0.00047878,-4832.9,0.14351
14708,5.0575,5.2727,0,0.0004805,4801.7,0.00016529,0.061189,0.00014711,-136.53,-0.00048268,-4868.5,0.138
14709,5.1494,5.2727,0.05,1.2168e-06,12.159,9.3431e-07,7.0201,2.8291e-12,-1.9983e-05,-9.3433e-07,-7.0202,0.14296
14710,5.1494,5,0,0.00047389,4735.6,0.00016511,0.032042,0.00014144,-177.88,-0.00047666,-4822,0.14449
14711,5.0575,5.0909,0,0.00047777,4774.4,0.00016599,0.039692,0.00014342,-169.58,-0.00048043,-4856.9,0.13902
14712,5.1494,5.0909,0.05,1.2183e-06,12.175,9.3551e-07,7.029,9.6997e-13,-1.8418e-05,-9.3551e-07,-7.0291,0.14398
14713,5.1494,4.8182,0,0.00047146,4711.4,0.00016574,0.022158,0.00013815,-207.29,-0.00047465,-4811.6,0.14537
14714,5.0575,4.9091,0,0.00047518,4748.5,0.00016667,0.02842,0.00013989,-201.16,-0.00047828,-4845.8,0.13994
14715,5.1494,4.9091,0.05,1.2188e-06,12.179,9.3586e-07,7.0316,-1.0221e-12,-1.7583e-05,-9.3586e-07,-7.0317,0.14491
14716,5.1494,4.6364,0,0.0004692,4688.7,0.00016632,0.013907,0.00013506,-234.87,-0.00047275,-4801.7,0.14616
14717,5.0575,4.7273,0,0.00047273,4724,0.0001673,0.018586,0.00013656,-230.98,-0.00047624,-4835.3,0.14078
14718,5.1494,4.7273,0.05,1.2183e-06,12.174,9.3548e-07,7.0287,2.9335e-12,-2.2148e-05,-9.3548e-07,-7.0289,0.14575
14719,5.1494,4.4545,0,0.00046711,4667.9,0.00016686,0.0072555,0.00013221,-260.36,-0.00047099,-4792.6,0.14687
14720,5.0575,4.5455,0,0.00047046,4701.4,0.00016789,0.010921,0.00013345,-258.77,-0.00047433,-4825.4,0.14152
14721,5.1494,4.5455,0.05,1.217e-06,12.162,9.3449e-07,7.0214,1.2278e-12,-1.9143e-05,-9.345e-07,-7.0215,0.1465
14722,5.1494,4.2727,0,0.00046522,4649,0.00016735,0.0017141,0.00012962,-283.52,-0.00046939,-4784.2,0.14748
14723,5.0575,4.3636,0,0.00046839,4680.6,0.00016843,0.004528,0.0001306,-284.25,-0.00047257,-4816.3,0.14218
14724,5.1494,4.3636,0.05,1.2151e-06,12.143,9.3306e-07,7.0106,5.2437e-12,-1.3506e-05,-9.3307e-07,-7.0108,0.14716
14725,5.1494,4.0909,0,0.00046354,4632.2,0.00016778,-0.002876,0.00012731,-304.1,-0.00046797,-4776.8,0.14801
14726,5.0575,4.1818,0,0.00046653,4662.1,0.00016892,-0.00075885,0.00012804,-307.16,-0.00047099,-4808,0.14275
14727,5.1494,4.1818,0.05,1.2129e-06,12.12,9.3133e-07,6.9976,5.621e-12,-1.021e-05,-9.3134e-07,-6.9978,0.14773
14728,5.1494,3.9091,0,0.0004621,4617.8,0.00016816,-0.0066437,0.00012532,-321.9,-0.00046673,-4770.3,0.14846
14729,5.0575,4,0,0.0004649,4645.8,0.00016934,-0.0051276,0.00012578,-327.28,-0.0004696,-4800.8,0.14323
14730,5.1494,4,0.05,1.2105e-06,12.096,9.2948e-07,6.9836,4.3752e-12,-1.1204e-05,-9.2948e-07,-6.9838,0.14821
14731,5.1494,3.7273,0,0.0004609,4605.8,0.00016847,-0.0096597,0.00012365,-336.73,-0.0004657,-4764.9,0.14882
14732,5.0575,3.8182,0,0.00046352,4632,0.0001697,-0.0086717,0.00012387,-344.39,-0.00046842,-4794.6,0.14363
14733,5.1494,3.8182,0.05,1.2081e-06,12.072,9.2764e-07,6.9699,-6.857e-13,-4.3717e-06,-9.2765e-07,-6.97,0.14862
14734,5.1494,3.5455,0,0.00045995,4596.3,0.00016871,-0.011969,0.00012234,-348.44,-0.00046488,-4760.6,0.1491
14735,5.0575,3.6364,0,0.0004624,4620.8,0.00017,-0.011453,0.00012231,-358.3,-0.00046745,-4789.6,0.14395
14736,5.1494,3.6364,0.05,1.2059e-06,12.051,9.2598e-07,6.9574,1.2807e-12,-3.4209e-06,-9.2599e-07,-6.9575,0.14894
14737,5.1494,3.3636,0,0.00045927,4589.5,0.00016889,-0.013601,0.00012139,-356.89,-0.0004643,-4757.5,0.1493
14738,5.0575,3.4545,0,0.00046155,4612.3,0.00017022,-0.01351,0.00012113,-368.87,-0.00046672,-4785.7,0.14419
14739,5.1494,3.4545,0.05,1.2041e-06,12.033,9.2462e-07,6.9472,2.4408e-12,2.0146e-06,-9.2461e-07,-6.9472,0.14918
14740,5.1494,3.1818,0,0.00045885,4585.4,0.000169,-0.014575,0.00012082,-362,-0.00046394,-4755.7,0.14942
14741,5.0575,3.2727,0,0.00046098,4606.7,0.00017037,-0.01487,0.00012033,-375.98,-0.00046623,-4783.1,0.14435
14742,5.1494,3.2727,0.05,1.2029e-06,12.02,9.2364e-07,6.9399,3.4284e-12,-1.0977e-06,-9.2365e-07,-6.9399,0.14934
14743,5.1494,3,0,0.00045872,4584,0.00016903,-0.014898,0.00012063,-363.71,-0.00046382,-4755,0.14946
14744,5.0575,3.0909,0,0.0004607,4603.8,0.00017044,-0.015547,0.00011993,-379.56,-0.00046598,-4781.8,0.14443
14745,5.1494,3.0909,0.05,1.2022e-06,12.014,9.2314e-07,6.9361,2.6751e-12,-3.7494e-07,-9.2315e-07,-6.9361,0.14942
14746,5.1494,2.8182,0,0.00045885,4585.4,0.000169,-0.014575,0.00012082,-362,-0.00046394,-4755.7,0.14942
14747,5.0575,2.9091,0,0.0004607,4603.8,0.00017044,-0.015546,0.00011993,-379.56,-0.00046598,-4781.8,0.14443
14748,5.1494,2.9091,0.05,1.2022e-06,12.014,9.2314e-07,6.9361,2.776e-12,3.773e-07,-9.2315e-07,-6.9361,0.14942
14749,5.1494,2.6364,0,0.00045927,4589.5,0.00016889,-0.013601,0.00012139,-356.89,-0.0004643,-4757.5,0.1493
14750,5.0575,2.7273,0,0.00046098,4606.7,0.00017037,-0.014869,0.00012033,-375.98,-0.00046623,-4783.1,0.14435
14751,5.1494,2.7273,0.05,1.2029e-06,12.02,9.2364e-07,6.9399,3.7254e-12,1.1258e-06,-9.2365e-07,-6.9399,0.14934
14752,5.1494,2.4545,0,0.00045995,4596.3,0.00016871,-0.011969,0.00012234,-348.44,-0.00046488,-4760.6,0.1491
14753,5.0575,2.5455,0,0.00046155,4612.3,0.00017022,-0.01351,0.00012113,-368.87,-0.00046672,-4785.7,0.14419
14754,5.1494,2.5455,0.05,1.2041e-06,12.033,9.2462e-07,6.9472,1.115e-12,5.6346e-06,-9.2461e-07,-6.9472,0.14918
14755,5.1494,2.2727,0,0.0004609,4605.8,0.00016847,-0.0096593,0.00012365,-336.73,-0.0004657,-4764.9,0.14882
14756,5.0575,2.3636,0,0.0004624,4620.8,0.00017,-0.011453,0.00012231,-358.3,-0.00046745,-4789.6,0.14395
14757,5.1494,2.3636,0.05,1.2059e-06,12.051,9.2598e-07,6.9574,2.0697e-12,1.3118e-06,-9.2598e-07,-6.9575,0.14894
14758,5.1494,2.0909,0,0.0004621,4617.8,0.00016816,-0.0066433,0.00012532,-321.9,-0.00046673,-4770.3,0.14846
14759,5.0575,2.1818,0,0.00046352,4632,0.0001697,-0.0086714,0.00012387,-344.39,-0.00046842,-4794.6,0.14363
14760,5.1494,2.1818,0.05,1.2081e-06,12.072,9.2765e-07,6.97,2.7713e-13,3.0607e-06,-9.2764e-07,-6.97,0.14862
14761,5.1494,1.9091,0,0.00046354,4632.2,0.00016778,-0.0028755,0.00012731,-304.1,-0.00046797,-4776.8,0.14801
14762,5.0575,2,0,0.0004649,4645.8,0.00016934,-0.0051271,0.00012578,-327.28,-0.0004696,-4800.8,0.14323
14763,5.1494,2,0.05,1.2105e-06,12.096,9.2948e-07,6.9837,5.5298e-12,3.6477e-06,-9.2948e-07,-6.9837,0.14821
14764,5.1494,1.7273,0,0.00046522,4649,0.00016735,0.0017147,0.00012962,-283.52,-0.00046939,-4784.2,0.14748
14765,5.0575,1.8182,0,0.00046653,4662.1,0.00016892,-0.00075829,0.00012804,-307.16,-0.00047099,-4808,0.14275
14766,5.1494,1.8182,0.05,1.2129e-06,12.12,9.3134e-07,6.9977,3.1947e-13,3.9656e-06,-9.3134e-07,-6.9977,0.14773
14767,5.1494,1.5455,0,0.00046711,4667.9,0.00016686,0.0072562,0.00013221,-260.36,-0.00047099,-4792.6,0.14687
14768,5.0575,1.6364,0,0.00046839,4680.6,0.00016843,0.0045287,0.0001306,-284.25,-0.00047257,-4816.3,0.14218
14769,5.1494,1.6364,0.05,1.2151e-06,12.143,9.3306e-07,7.0107,5.5697e-13,7.7219e-06,-9.3306e-07,-7.0107,0.14716
14770,5.1494,1.3636,0,0.0004692,4688.7,0.00016632,0.013908,0.00013506,-234.87,-0.00047275,-4801.7,0.14616
14771,5.0575,1.4545,0,0.00047046,4701.4,0.00016789,0.010922,0.00013345,-258.77,-0.00047433,-4825.4,0.14152
14772,5.1494,1.4545,0.05,1.217e-06,12.162,9.345e-07,7.0215,5.7655e-13,4.2991e-06,-9.345e-07,-7.0215,0.1465
14773,5.1494,1.1818,0,0.00047146,4711.4,0.00016574,0.022159,0.00013815,-207.29,-0.00047465,-4811.6,0.14537
14774,5.0575,1.2727,0,0.00047273,4724,0.0001673,0.018587,0.00013656,-230.98,-0.00047624,-4835.3,0.14078
14775,5.1494,1.2727,0.05,1.2183e-06,12.174,9.3548e-07,7.0288,5.506e-13,4.3301e-06,-9.3548e-07,-7.0288,0.14575
14776,5.1494,1,0,0.00047389,4735.6,0.00016511,0.032043,0.00014144,-177.88,-0.00047666,-4822,0.14449
14777,5.0575,1.0909,0,0.00047517,4748.5,0.00016667,0.02842,0.00013989,-201.16,-0.00047828,-4845.8,0.13994
14778,5.1494,1.0909,0.05,1.2188e-06,12.179,9.3586e-07,7.0317,5.8352e-13,4.589e-06,-9.3586e-07,-7.0317,0.14491
14779,5.1494,0.81818,0,0.00047645,4761.2,0.00016445,0.047306,0.00014489,-146.91,-0.00047878,-4832.9,0.14351
14780,5.0575,0.90909,0,0.00047777,4774.4,0.00016599,0.039693,0.00014342,-169.58,-0.00048043,-4856.9,0.13902
14781,5.1494,0.90909,0.05,1.2183e-06,12.175,9.3551e-07,7.029,9.3105e-13,3.847e-06,-9.3551e-07,-7.0291,0.14398
14782,5.1494,0.63636,0,0.00047912,4787.9,0.00016376,0.060589,0.00014849,-114.67,-0.00048097,-4844.2,0.14244
14783,5.0575,0.72727,0,0.0004805,4801.7,0.00016529,0.06119,0.00014711,-136.53,-0.00048268,-4868.5,0.138
14784,5.1494,0.72727,0.05,1.2168e-06,12.159,9.3432e-07,7.0201,-6.8768e-13,4.9644e-06,-9.3432e-07,-7.0201,0.14296
14785,5.1494,0.45455,0,0.00048189,4815.6,0.00016305,0.13555,0.0001522,-81.372,-0.00048322,-4855.7,0.14127
14786,5.0575,0.54545,0,0.00048334,4830,0.00016455,0.069611,0.00015092,-102.32,-0.00048499,-4880.3,0.13688
14787,5.1494,0.54545,0.05,1.2141e-06,12.133,9.323e-07,7.005,-6.6008e-13,1.1705e-05,-9.3231e-07,-7.0049,0.14184
14788,5.1494,0.27273,0,0.00048475,4844.1,0.00016231,0.19092,0.00015601,-47.182,-0.00048553,-4867.4,0.14
14789,5.0575,0.36364,0,0.00048626,4859.3,0.0001638,0.22454,0.00015484,-67.115,-0.00048736,-4892.4,0.13566
14790,5.1494,0.36364,0.05,1.2107e-06,12.099,9.2969e-07,6.9853,1.0507e-12,1.7482e-06,-9.2969e-07,-6.9853,0.14062
14791,5.0575,0.18182,0,0.00048928,4889.4,0.00016302,0.24334,0.00015885,-31.115,-0.0004898,-4904.8,0.13434
14792,5.1494,0.18182,0.05,1.2285e-06,12.276,9.4332e-07,7.0877,-1.5519e-13,1.4728e-06,-9.4332e-07,-7.0877,0.1393
14793,5.1494,0.090909,0,0.00048733,4870,0.00016163,0.19024,0.00015948,-15.968,-0.0004876,-4877.8,0.13863
14794,4.9655,5.7273,0,0.00049079,4904.5,0.0001645,0.21171,0.00015769,-50.96,-0.00049163,-4929.7,0.1301
14795,4.8736,5.8182,0,0.00049547,4951.3,0.00016518,0.27426,0.00016069,-33.459,-0.00049603,-4967.8,0.12461
14796,4.9655,5.8182,0.05,1.3321e-06,13.312,1.0229e-06,7.6853,2.1936e-12,-4.2042e-05,-1.0229e-06,-7.6855,0.1294
14797,4.9655,5.9091,0,0.00049357,4932.3,0.00016375,0.20377,0.00016143,-17.219,-0.00049386,-4940.8,0.12873
14798,4.9655,5.5455,0,0.00048771,4873.7,0.0001653,0.14875,0.00015356,-88.028,-0.00048914,-4917,0.13137
14799,4.8736,5.6364,0,0.00049221,4918.7,0.00016603,0.2461,0.00015635,-72.478,-0.0004934,-4954.4,0.12592
14800,4.9655,5.6364,0.05,1.2428e-06,12.419,9.543e-07,7.1702,-1.1489e-12,-4.3725e-05,-9.5432e-07,-7.1704,0.13072
14801,4.9655,5.3636,0,0.00048472,4843.8,0.00016607,0.066697,0.00014954,-124.16,-0.00048671,-4904.7,0.13254
14802,4.8736,5.4545,0,0.00048905,4887.1,0.00016684,0.076841,0.00015211,-110.65,-0.00049084,-4941.5,0.12714
14803,4.9655,5.4545,0.05,1.2419e-06,12.411,9.5363e-07,7.1651,2.0859e-12,-4.2748e-05,-9.5364e-07,-7.1653,0.13193
14804,4.9655,5.1818,0,0.00048183,4814.9,0.00016683,0.051926,0.00014563,-159.17,-0.00048434,-4892.5,0.1336
14805,4.8736,5.2727,0,0.00048599,4856.6,0.00016765,0.067193,0.00014797,-147.79,-0.00048833,-4928.7,0.12825
14806,4.9655,5.2727,0.05,1.2444e-06,12.435,9.5551e-07,7.1793,2.2621e-12,-3.0844e-05,-9.5552e-07,-7.1795,0.13305
14807,4.9655,5,0,0.00047906,4787.3,0.00016755,0.035139,0.00014188,-192.83,-0.00048205,-4880.8,0.13457
14808,4.8736,5.0909,0,0.00048304,4827.1,0.00016842,0.043578,0.00014397,-183.7,-0.00048591,-4916.3,0.12927
14809,4.9655,5.0909,0.05,1.2459e-06,12.45,9.5669e-07,7.1882,2.6634e-12,-2.0699e-05,-9.567e-07,-7.1883,0.13407
14810,4.9655,4.8182,0,0.00047644,4761.1,0.00016823,0.024256,0.00013831,-224.83,-0.00047987,-4869.6,0.13545
14811,4.8736,4.9091,0,0.00048024,4799.1,0.00016916,0.031152,0.00014014,-218.04,-0.00048358,-4904.4,0.13019
14812,4.9655,4.9091,0.05,1.2462e-06,12.454,9.5695e-07,7.1901,1.3044e-12,-3.6209e-05,-9.5696e-07,-7.1903,0.13499
14813,4.9655,4.6364,0,0.00047399,4736.7,0.00016887,0.01519,0.00013495,-254.86,-0.00047781,-4859,0.13624
14814,4.8736,4.7273,0,0.0004776,4772.7,0.00016986,0.020345,0.00013651,-250.51,-0.00048137,-4893,0.13101
14815,4.9655,4.7273,0.05,1.2455e-06,12.446,9.5639e-07,7.1859,2.6948e-12,-1.7852e-05,-9.564e-07,-7.186,0.13582
14816,4.9655,4.4545,0,0.00047174,4714.1,0.00016946,0.0078891,0.00013185,-282.64,-0.00047591,-4849.1,0.13693
14817,4.8736,4.5455,0,0.00047515,4748.2,0.0001705,0.011929,0.00013313,-280.77,-0.0004793,-4882.4,0.13175
14818,4.9655,4.5455,0.05,1.2439e-06,12.43,9.5516e-07,7.1767,1.0657e-12,-1.6665e-05,-9.5517e-07,-7.1768,0.13657
14819,4.9655,4.2727,0,0.0004697,4693.7,0.00017,0.0018159,0.00012902,-307.88,-0.00047418,-4840.1,0.13754
14820,4.8736,4.3636,0,0.00047291,4725.8,0.00017109,0.0049216,0.00013003,-308.55,-0.0004774,-4872.5,0.1324
14821,4.9655,4.3636,0.05,1.2416e-06,12.408,9.5342e-07,7.1636,4.9916e-12,-1.864e-05,-9.5343e-07,-7.1638,0.13722
14822,4.9655,4.0909,0,0.00046789,4675.6,0.00017048,-0.0032068,0.00012651,-330.34,-0.00047263,-4832.1,0.13807
14823,4.8736,4.1818,0,0.0004709,4705.8,0.00017163,-0.00086346,0.00012724,-333.54,-0.00047569,-4863.7,0.13296
14824,4.9655,4.1818,0.05,1.239e-06,12.381,9.5136e-07,7.1481,1.9015e-12,-1.1654e-05,-9.5137e-07,-7.1482,0.13779
14825,4.9655,3.9091,0,0.00046633,4660.1,0.00017089,-0.0073232,0.00012434,-349.76,-0.00047129,-4825.1,0.13851
14826,4.8736,4,0,0.00046915,4688.2,0.00017209,-0.0056354,0.00012478,-355.49,-0.00047418,-4855.9,0.13344
14827,4.9655,4,0.05,1.2361e-06,12.352,9.4916e-07,7.1316,2.3656e-12,-1.2357e-05,-9.4917e-07,-7.1317,0.13827
14828,4.9655,3.7273,0,0.00046503,4647.1,0.00017123,-0.010613,0.00012252,-365.95,-0.00047017,-4819.3,0.13887
14829,4.8736,3.8182,0,0.00046766,4673.4,0.00017249,-0.0094994,0.00012269,-374.16,-0.0004729,-4849.2,0.13384
14830,4.9655,3.8182,0.05,1.2333e-06,12.324,9.47e-07,7.1154,4.4947e-12,-7.0413e-06,-9.4701e-07,-7.1155,0.13867
14831,4.9655,3.5455,0,0.00046401,4636.9,0.0001715,-0.013129,0.00012109,-378.74,-0.00046929,-4814.6,0.13914
14832,4.8736,3.6364,0,0.00046645,4661.3,0.00017281,-0.012526,0.00012099,-389.35,-0.00047186,-4843.8,0.13416
14833,4.9655,3.6364,0.05,1.2307e-06,12.299,9.4505e-07,7.1007,3.8797e-12,-3.7472e-06,-9.4505e-07,-7.1008,0.13899
14834,4.9655,3.3636,0,0.00046327,4629.5,0.00017169,-0.014905,0.00012006,-387.97,-0.00046865,-4811.3,0.13934
14835,4.8736,3.4545,0,0.00046554,4652.2,0.00017306,-0.014762,0.0001197,-400.89,-0.00047106,-4839.7,0.13439
14836,4.9655,3.4545,0.05,1.2287e-06,12.278,9.4344e-07,7.0887,3.1893e-12,-1.8391e-06,-9.4346e-07,-7.0887,0.13922
14837,4.9655,3.1818,0,0.00046283,4625.1,0.00017181,-0.015963,0.00011943,-393.55,-0.00046826,-4809.3,0.13946
14838,4.8736,3.2727,0,0.00046492,4646,0.00017322,-0.016238,0.00011883,-408.66,-0.00047053,-4836.9,0.13455
14839,4.9655,3.2727,0.05,1.2272e-06,12.263,9.4232e-07,7.0802,3.4431e-12,2.4079e-06,-9.4232e-07,-7.0802,0.13938
14840,4.9655,3,0,0.00046268,4623.6,0.00017185,-0.016315,0.00011923,-395.42,-0.00046814,-4808.6,0.1395
14841,4.8736,3.0909,0,0.00046461,4642.9,0.0001733,-0.016972,0.0001184,-412.56,-0.00047026,-4835.5,0.13463
14842,4.9655,3.0909,0.05,1.2264e-06,12.256,9.4173e-07,7.0757,3.5827e-12,-4.5945e-07,-9.4173e-07,-7.0759,0.13946
14843,4.9655,2.8182,0,0.00046283,4625.1,0.00017181,-0.015963,0.00011943,-393.55,-0.00046826,-4809.3,0.13946
14844,4.8736,2.9091,0,0.00046461,4642.9,0.0001733,-0.016972,0.0001184,-412.56,-0.00047026,-4835.5,0.13463
14845,4.9655,2.9091,0.05,1.2264e-06,12.256,9.4173e-07,7.0757,2.7815e-12,3.4958e-07,-9.4173e-07,-7.0759,0.13946
14846,4.9655,2.6364,0,0.00046327,4629.5,0.00017169,-0.014905,0.00012006,-387.97,-0.00046865,-4811.3,0.13934
14847,4.8736,2.7273,0,0.00046492,4646,0.00017322,-0.016238,0.00011883,-408.66,-0.00047053,-4836.9,0.13455
14848,4.9655,2.7273,0.05,1.2272e-06,12.263,9.4232e-07,7.0802,1.9407e-12,9.6135e-07,-9.4232e-07,-7.0802,0.13938
14849,4.9655,2.4545,0,0.00046401,4636.9,0.0001715,-0.013129,0.00012109,-378.74,-0.00046929,-4814.6,0.13914
14850,4.8736,2.5455,0,0.00046554,4652.2,0.00017306,-0.014762,0.0001197,-400.89,-0.00047106,-4839.7,0.13439
14851,4.9655,2.5455,0.05,1.2287e-06,12.278,9.4345e-07,7.0887,2.8452e-12,1.9882e-06,-9.4346e-07,-7.0887,0.13922
14852,4.9655,2.2727,0,0.00046503,4647.1,0.00017123,-0.010613,0.00012252,-365.95,-0.00047017,-4819.3,0.13887
14853,4.8736,2.3636,0,0.00046645,4661.3,0.00017281,-0.012526,0.00012099,-389.35,-0.00047186,-4843.8,0.13416
14854,4.9655,2.3636,0.05,1.2307e-06,12.299,9.4505e-07,7.1008,2.9535e-12,2.6002e-06,-9.4505e-07,-7.1008,0.13899
14855,4.9655,2.0909,0,0.00046633,4660.1,0.00017089,-0.0073228,0.00012434,-349.76,-0.00047129,-4825.1,0.13851
14856,4.8736,2.1818,0,0.00046766,4673.4,0.00017249,-0.009499,0.00012269,-374.16,-0.0004729,-4849.2,0.13384
14857,4.9655,2.1818,0.05,1.2333e-06,12.324,9.47e-07,7.1154,2.0659e-12,3.4425e-06,-9.4701e-07,-7.1154,0.13867
14858,4.9655,1.9091,0,0.00046789,4675.6,0.00017048,-0.0032063,0.00012651,-330.34,-0.00047263,-4832.1,0.13807
14859,4.8736,2,0,0.00046915,4688.2,0.00017209,-0.005635,0.00012478,-355.49,-0.00047418,-4855.9,0.13344
14860,4.9655,2,0.05,1.2361e-06,12.352,9.4916e-07,7.1316,2.2191e-12,3.8914e-06,-9.4916e-07,-7.1317,0.13827
14861,4.9655,1.7273,0,0.0004697,4693.7,0.00017,0.0018165,0.00012902,-307.88,-0.00047418,-4840.1,0.13754
14862,4.8736,1.8182,0,0.0004709,4705.8,0.00017163,-0.00086293,0.00012724,-333.54,-0.00047569,-4863.7,0.13296
14863,4.9655,1.8182,0.05,1.239e-06,12.381,9.5136e-07,7.1482,3.9619e-12,-1.9582e-07,-9.5137e-07,-7.1482,0.13779
14864,4.9655,1.5455,0,0.00047174,4714.1,0.00016946,0.0078896,0.00013185,-282.64,-0.00047591,-4849.1,0.13693
14865,4.8736,1.6364,0,0.00047291,4725.8,0.00017109,0.0049224,0.00013003,-308.55,-0.0004774,-4872.5,0.1324
14866,4.9655,1.6364,0.05,1.2416e-06,12.408,9.5343e-07,7.1636,6.2318e-13,-2.8856e-07,-9.5343e-07,-7.1637,0.13722
14867,4.9655,1.3636,0,0.00047399,4736.7,0.00016887,0.01519,0.00013495,-254.86,-0.00047781,-4859,0.13624
14868,4.8736,1.4545,0,0.00047515,4748.2,0.0001705,0.01193,0.00013313,-280.77,-0.0004793,-4882.4,0.13175
14869,4.9655,1.4545,0.05,1.2439e-06,12.43,9.5516e-07,7.1767,6.1162e-13,4.5606e-06,-9.5516e-07,-7.1767,0.13657
14870,4.9655,1.1818,0,0.00047644,4761.1,0.00016823,0.024257,0.00013831,-224.83,-0.00047987,-4869.6,0.13545
14871,4.8736,1.2727,0,0.0004776,4772.7,0.00016986,0.020346,0.00013651,-250.51,-0.00048137,-4893,0.13101
14872,4.9655,1.2727,0.05,1.2455e-06,12.446,9.5639e-07,7.186,5.8292e-13,5.9644e-06,-9.5639e-07,-7.186,0.13582
14873,4.9655,1,0,0.00047906,4787.3,0.00016755,0.03514,0.00014188,-192.83,-0.00048205,-4880.8,0.13457
14874,4.8736,1.0909,0,0.00048024,4799.1,0.00016916,0.031153,0.00014014,-218.04,-0.00048358,-4904.4,0.13019
14875,4.9655,1.0909,0.05,1.2462e-06,12.454,9.5695e-07,7.1902,5.3948e-13,1.2608e-05,-9.5696e-07,-7.1902,0.13499
14876,4.9655,0.81818,0,0.00048183,4814.9,0.00016683,0.051927,0.00014563,-159.17,-0.00048434,-4892.5,0.1336
14877,4.8736,0.90909,0,0.00048304,4827.1,0.00016842,0.043579,0.00014397,-183.7,-0.00048591,-4916.3,0.12927
14878,4.9655,0.90909,0.05,1.2459e-06,12.45,9.567e-07,7.1882,4.8364e-13,5.6833e-06,-9.567e-07,-7.1882,0.13407
14879,4.9655,0.63636,0,0.00048472,4843.8,0.00016607,0.066698,0.00014954,-124.16,-0.00048671,-4904.7,0.13254
14880,4.8736,0.72727,0,0.00048599,4856.6,0.00016765,0.067194,0.00014797,-147.79,-0.00048833,-4928.7,0.12825
14881,4.9655,0.72727,0.05,1.2444e-06,12.435,9.5552e-07,7.1794,-2.5519e-12,2.8026e-06,-9.5552e-07,-7.1794,0.13305
14882,4.9655,0.45455,0,0.00048771,4873.7,0.0001653,0.14875,0.00015356,-88.028,-0.00048914,-4917,0.13137
14883,4.8736,0.54545,0,0.00048905,4887.1,0.00016684,0.076842,0.00015211,-110.65,-0.00049084,-4941.5,0.12714
14884,4.9655,0.54545,0.05,1.2419e-06,12.411,9.5364e-07,7.1652,9.7085e-13,2.882e-06,-9.5363e-07,-7.1652,0.13193
14885,4.9655,0.27273,0,0.00049079,4904.5,0.0001645,0.21171,0.00015769,-50.96,-0.00049163,-4929.7,0.1301
14886,4.8736,0.36364,0,0.00049221,4918.7,0.00016603,0.2461,0.00015635,-72.478,-0.0004934,-4954.4,0.12592
14887,4.9655,0.36364,0.05,1.2428e-06,12.419,9.5431e-07,7.1703,1.5235e-12,1.3146e-05,-9.5431e-07,-7.1703,0.13072
14888,4.8736,0.18182,0,0.00049547,4951.3,0.00016518,0.27426,0.00016069,-33.459,-0.00049603,-4967.8,0.12461
14889,4.9655,0.18182,0.05,1.3321e-06,13.311,1.0229e-06,7.6854,1.0774e-12,1.251e-05,-1.0229e-06,-7.6854,0.1294
14890,4.9655,0.090909,0,0.00049357,4932.3,0.00016375,0.20377,0.00016143,-17.219,-0.00049386,-4940.8,0.12873
14891,4.7816,5.7273,0,0.00049689,4965.4,0.0001667,0.23518,0.00015937,-54.874,-0.00049779,-4992.5,0.12054
14892,4.6897,5.8182,0,0.00050173,5013.8,0.00016737,0.31083,0.00016256,-35.805,-0.00050232,-5031.5,0.11521
14893,4.7816,5.8182,0.05,1.4434e-06,14.424,1.1083e-06,8.3275,9.6544e-13,-4.1632e-05,-1.1083e-06,-8.3277,0.11984
14894,4.7816,5.9091,0,0.00049987,4995.3,0.00016589,0.21874,0.0001634,-18.459,-0.00050018,-5004.3,0.11917
14895,4.7816,5.5455,0,0.00049355,4932.1,0.00016757,0.16324,0.0001549,-95.063,-0.0004951,-4978.9,0.1218
14896,4.6897,5.6364,0,0.0004982,4978.6,0.00016828,0.26978,0.00015785,-78.101,-0.00049948,-5017,0.11652
14897,4.7816,5.6364,0.05,1.2775e-06,12.766,9.8096e-07,7.3704,4.2679e-12,-4.9704e-05,-9.8096e-07,-7.3706,0.12115
14898,4.7816,5.3636,0,0.00049033,4899.9,0.00016842,0.073442,0.00015054,-134.26,-0.00049247,-4965.6,0.12296
14899,4.6897,5.4545,0,0.00049479,4944.5,0.00016917,0.084857,0.00015326,-119.49,-0.00049672,-5003.1,0.11773
14900,4.7816,5.4545,0.05,1.2722e-06,12.713,9.7687e-07,7.3397,-1.1643e-13,-4.9719e-05,-9.7688e-07,-7.3399,0.12236
14901,4.7816,5.1818,0,0.00048721,4868.7,0.00016924,0.057017,0.0001463,-172.29,-0.00048991,-4952.5,0.12402
14902,4.6897,5.2727,0,0.00049149,4911.5,0.00017005,0.073806,0.00014877,-159.81,-0.00049401,-4989.4,0.11884
14903,4.7816,5.2727,0.05,1.2745e-06,12.736,9.7865e-07,7.3532,1.499e-13,-2.3645e-05,-9.7866e-07,-7.3533,0.12347
14904,4.7816,5,0,0.00048422,4838.9,0.00017003,0.03856,0.00014223,-208.88,-0.00048744,-4939.9,0.12498
14905,4.6897,5.0909,0,0.00048831,4879.7,0.00017089,0.047868,0.00014443,-198.82,-0.00049139,-4976.1,0.11984
14906,4.7816,5.0909,0.05,1.2761e-06,12.752,9.7986e-07,7.3622,3.2107e-12,-3.339e-05,-9.7987e-07,-7.3624,0.12448
14907,4.7816,4.8182,0,0.0004814,4810.6,0.00017078,0.026585,0.00013834,-243.69,-0.00048508,-4927.8,0.12585
14908,4.6897,4.9091,0,0.00048528,4849.5,0.0001717,0.034177,0.00014027,-236.17,-0.00048887,-4963.2,0.12076
14909,4.7816,4.9091,0.05,1.2763e-06,12.754,9.8005e-07,7.3637,1.9659e-12,-3.0894e-05,-9.8006e-07,-7.3638,0.1254
14910,4.7816,4.6364,0,0.00047875,4784.2,0.00017148,0.01663,0.0001347,-276.39,-0.00048286,-4916.4,0.12663
14911,4.6897,4.7273,0,0.00048243,4821,0.00017246,0.022306,0.00013633,-271.51,-0.00048648,-4951,0.12157
14912,4.7816,4.7273,0.05,1.2754e-06,12.745,9.7932e-07,7.3582,6.9908e-13,-2.0626e-05,-9.7933e-07,-7.3583,0.12622
14913,4.7816,4.4545,0,0.00047632,4759.9,0.00017213,0.0086241,0.00013132,-306.66,-0.00048079,-4905.8,0.12732
14914,4.6897,4.5455,0,0.00047979,4794.6,0.00017317,0.013073,0.00013265,-304.48,-0.00048424,-4939.6,0.1223
14915,4.7816,4.5455,0.05,1.2734e-06,12.726,9.7784e-07,7.347,1.0828e-12,-2.8377e-05,-9.7785e-07,-7.3472,0.12696
14916,4.7816,4.2727,0,0.00047412,4737.9,0.00017272,0.001977,0.00012824,-334.19,-0.00047892,-4896.1,0.12792
14917,4.6897,4.3636,0,0.00047738,4770.5,0.00017383,0.0054008,0.00012927,-334.76,-0.00048219,-4929,0.12295
14918,4.7816,4.3636,0.05,1.2708e-06,12.699,9.7579e-07,7.3317,3.0632e-12,-1.5259e-05,-9.758e-07,-7.3318,0.1276
14919,4.7816,4.0909,0,0.00047217,4718.4,0.00017324,-0.0035099,0.00012551,-358.68,-0.00047724,-4887.5,0.12844
14920,4.6897,4.1818,0,0.00047522,4748.9,0.00017441,-0.00091955,0.00012623,-362.01,-0.00048034,-4919.5,0.1235
14921,4.7816,4.1818,0.05,1.2676e-06,12.668,9.7337e-07,7.3135,5.1887e-12,-1.3003e-05,-9.7339e-07,-7.3137,0.12816
14922,4.7816,3.9091,0,0.00047048,4701.6,0.0001737,-0.0079976,0.00012314,-379.88,-0.00047579,-4880,0.12888
14923,4.6897,4,0,0.00047332,4730,0.00017492,-0.0061209,0.00012356,-385.96,-0.00047871,-4911.1,0.12398
14924,4.7816,4,0.05,1.2643e-06,12.634,9.7082e-07,7.2943,2.7671e-12,-7.082e-06,-9.7081e-07,-7.2944,0.12864
14925,4.7816,3.7273,0,0.00046909,4687.6,0.00017407,-0.011577,0.00012116,-397.55,-0.00047458,-4873.7,0.12923
14926,4.6897,3.8182,0,0.00047172,4714,0.00017536,-0.010323,0.00012128,-406.34,-0.00047732,-4904,0.12437
14927,4.7816,3.8182,0.05,1.261e-06,12.602,9.683e-07,7.2755,2.6829e-12,-3.1214e-06,-9.6831e-07,-7.2755,0.12903
14928,4.7816,3.5455,0,0.00046798,4676.6,0.00017437,-0.014309,0.0001196,-411.51,-0.00047362,-4868.8,0.1295
14929,4.6897,3.6364,0,0.00047042,4701,0.00017572,-0.013608,0.00011943,-422.92,-0.00047619,-4898.2,0.12468
14930,4.7816,3.6364,0.05,1.2581e-06,12.572,9.6604e-07,7.2584,2.8166e-12,-5.5708e-06,-9.6605e-07,-7.2586,0.12935
14931,4.7816,3.3636,0,0.00046719,4668.7,0.00017458,-0.016236,0.00011847,-421.59,-0.00047293,-4865.2,0.1297
14932,4.6897,3.4545,0,0.00046944,4691.1,0.00017599,-0.016029,0.00011802,-435.52,-0.00047533,-4893.7,0.12491
14933,4.7816,3.4545,0.05,1.2557e-06,12.548,9.6419e-07,7.2445,2.3033e-12,-3.6626e-06,-9.642e-07,-7.2446,0.12958
14934,4.7816,3.1818,0,0.00046671,4663.9,0.00017471,-0.017383,0.00011779,-427.69,-0.00047251,-4863,0.12982
14935,4.6897,3.2727,0,0.00046878,4684.5,0.00017617,-0.017625,0.00011708,-444.01,-0.00047475,-4890.7,0.12507
14936,4.7816,3.2727,0.05,1.254e-06,12.531,9.6288e-07,7.2346,3.4016e-12,-2.07e-06,-9.6289e-07,-7.2348,0.12974
14937,4.7816,3,0,0.00046655,4662.3,0.00017476,-0.017763,0.00011757,-429.73,-0.00047237,-4862.3,0.12986
14938,4.6897,3.0909,0,0.00046844,4681.2,0.00017626,-0.018419,0.0001166,-448.27,-0.00047446,-4889.2,0.12514
14939,4.7816,3.0909,0.05,1.2531e-06,12.522,9.6221e-07,7.2295,1.7587e-12,-5.2485e-07,-9.622e-07,-7.2297,0.12982
14940,4.7816,2.8182,0,0.00046671,4663.9,0.00017471,-0.017382,0.00011779,-427.69,-0.00047251,-4863,0.12982
14941,4.6897,2.9091,0,0.00046844,4681.2,0.00017626,-0.018419,0.0001166,-448.27,-0.00047446,-4889.2,0.12514
14942,4.7816,2.9091,0.05,1.2531e-06,12.522,9.6221e-07,7.2295,1.8758e-12,4.1568e-06,-9.622e-07,-7.2297,0.12982
14943,4.7816,2.6364,0,0.00046719,4668.7,0.00017458,-0.016236,0.00011847,-421.59,-0.00047293,-4865.2,0.1297
14944,4.6897,2.7273,0,0.00046878,4684.5,0.00017617,-0.017625,0.00011708,-444.01,-0.00047475,-4890.7,0.12507
14945,4.7816,2.7273,0.05,1.254e-06,12.531,9.6288e-07,7.2347,2.8556e-12,7.2921e-07,-9.6289e-07,-7.2348,0.12974
14946,4.7816,2.4545,0,0.00046798,4676.6,0.00017437,-0.014309,0.0001196,-411.51,-0.00047362,-4868.8,0.1295
14947,4.6897,2.5455,0,0.00046944,4691.1,0.00017599,-0.016029,0.00011802,-435.52,-0.00047533,-4893.7,0.12491
14948,4.7816,2.5455,0.05,1.2557e-06,12.548,9.642e-07,7.2446,2.0749e-12,1.3581e-06,-9.6419e-07,-7.2446,0.12958
14949,4.7816,2.2727,0,0.00046909,4687.6,0.00017407,-0.011577,0.00012116,-397.55,-0.00047458,-4873.7,0.12923
14950,4.6897,2.3636,0,0.00047042,4701,0.00017572,-0.013607,0.00011943,-422.92,-0.00047619,-4898.2,0.12468
14951,4.7816,2.3636,0.05,1.2581e-06,12.572,9.6605e-07,7.2584,1.0609e-12,-1.5461e-08,-9.6605e-07,-7.2586,0.12935
14952,4.7816,2.0909,0,0.00047048,4701.6,0.0001737,-0.0079972,0.00012314,-379.88,-0.00047579,-4880,0.12888
14953,4.6897,2.1818,0,0.00047172,4714,0.00017536,-0.010322,0.00012128,-406.34,-0.00047732,-4904,0.12437
14954,4.7816,2.1818,0.05,1.261e-06,12.602,9.6831e-07,7.2755,2.0464e-12,3.6722e-06,-9.6831e-07,-7.2755,0.12903
14955,4.7816,1.9091,0,0.00047217,4718.4,0.00017324,-0.0035094,0.00012551,-358.68,-0.00047724,-4887.5,0.12844
14956,4.6897,2,0,0.00047332,4730,0.00017492,-0.0061205,0.00012356,-385.96,-0.00047871,-4911.1,0.12398
14957,4.7816,2,0.05,1.2643e-06,12.634,9.7082e-07,7.2943,2.2383e-12,4.3622e-06,-9.7082e-07,-7.2943,0.12864
14958,4.7816,1.7273,0,0.00047412,4737.9,0.00017272,0.0019777,0.00012824,-334.19,-0.00047892,-4896.1,0.12792
14959,4.6897,1.8182,0,0.00047522,4748.9,0.00017441,-0.00091907,0.00012623,-362.01,-0.00048034,-4919.5,0.1235
14960,4.7816,1.8182,0.05,1.2676e-06,12.668,9.7338e-07,7.3136,2.2793e-12,4.4889e-06,-9.7338e-07,-7.3136,0.12816
14961,4.7816,1.5455,0,0.00047632,4759.9,0.00017213,0.0086247,0.00013132,-306.66,-0.00048079,-4905.8,0.12732
14962,4.6897,1.6364,0,0.00047738,4770.5,0.00017383,0.0054015,0.00012927,-334.76,-0.00048219,-4929,0.12295
14963,4.7816,1.6364,0.05,1.2708e-06,12.699,9.7579e-07,7.3317,2.3105e-12,4.9905e-06,-9.7579e-07,-7.3317,0.1276
14964,4.7816,1.3636,0,0.00047875,4784.2,0.00017148,0.01663,0.0001347,-276.39,-0.00048286,-4916.4,0.12663
14965,4.6897,1.4545,0,0.00047979,4794.6,0.00017317,0.013073,0.00013265,-304.48,-0.00048424,-4939.6,0.1223
14966,4.7816,1.4545,0.05,1.2734e-06,12.726,9.7784e-07,7.3471,5.7542e-13,4.827e-06,-9.7784e-07,-7.3471,0.12696
14967,4.7816,1.1818,0,0.0004814,4810.6,0.00017078,0.026586,0.00013834,-243.69,-0.00048508,-4927.8,0.12585
14968,4.6897,1.2727,0,0.00048243,4821,0.00017246,0.022307,0.00013633,-271.51,-0.00048648,-4951,0.12157
14969,4.7816,1.2727,0.05,1.2754e-06,12.745,9.7933e-07,7.3583,6.9257e-13,5.1642e-06,-9.7933e-07,-7.3583,0.12622
14970,4.7816,1,0,0.00048422,4838.9,0.00017003,0.038561,0.00014223,-208.88,-0.00048744,-4939.9,0.12498
14971,4.6897,1.0909,0,0.00048528,4849.5,0.0001717,0.034177,0.00014027,-236.17,-0.00048887,-4963.2,0.12076
14972,4.7816,1.0909,0.05,1.2763e-06,12.754,9.8006e-07,7.3637,1.1146e-12,4.0877e-06,-9.8005e-07,-7.3638,0.1254
14973,4.7816,0.81818,0,0.00048721,4868.7,0.00016924,0.057018,0.0001463,-172.29,-0.00048991,-4952.5,0.12402
14974,4.6897,0.90909,0,0.00048831,4879.7,0.00017089,0.04787,0.00014443,-198.82,-0.00049139,-4976.1,0.11984
14975,4.7816,0.90909,0.05,1.2761e-06,12.752,9.7986e-07,7.3624,-4.848e-13,2.4631e-05,-9.7986e-07,-7.3623,0.12448
14976,4.7816,0.63636,0,0.00049033,4899.9,0.00016842,0.073442,0.00015054,-134.26,-0.00049247,-4965.6,0.12296
14977,4.6897,0.72727,0,0.00049149,4911.5,0.00017005,0.073807,0.00014877,-159.81,-0.00049401,-4989.4,0.11884
14978,4.7816,0.72727,0.05,1.2745e-06,12.736,9.7865e-07,7.3532,-9.6257e-13,3.677e-06,-9.7865e-07,-7.3532,0.12347
14979,4.7816,0.45455,0,0.00049355,4932.1,0.00016757,0.16324,0.0001549,-95.063,-0.0004951,-4978.9,0.1218
14980,4.6897,0.54545,0,0.00049479,4944.5,0.00016917,0.084858,0.00015326,-119.49,-0.00049672,-5003.1,0.11773
14981,4.7816,0.54545,0.05,1.2722e-06,12.713,9.7687e-07,7.3398,-1.1055e-12,1.4883e-05,-9.7687e-07,-7.3398,0.12236
14982,4.7816,0.27273,0,0.00049689,4965.4,0.0001667,0.23518,0.00015937,-54.874,-0.00049779,-4992.5,0.12054
14983,4.6897,0.36364,0,0.0004982,4978.6,0.00016828,0.26979,0.00015785,-78.101,-0.00049948,-5017,0.11652
14984,4.7816,0.36364,0.05,1.2775e-06,12.766,9.8096e-07,7.3705,1.7316e-12,7.636e-07,-9.8096e-07,-7.3705,0.12115
14985,4.6897,0.18182,0,0.00050173,5013.8,0.00016737,0.31083,0.00016256,-35.805,-0.00050232,-5031.5,0.11521
14986,4.7816,0.18182,0.05,1.4434e-06,14.424,1.1083e-06,8.3276,-1.6623e-13,1.199e-05,-1.1083e-06,-8.3276,0.11984
14987,4.7816,0.090909,0,0.00049987,4995.3,0.00016589,0.21874,0.0001634,-18.459,-0.00050018,-5004.3,0.11917
14988,4.5977,5.7273,0,0.00050304,5026.9,0.00016893,0.26175,0.00016106,-58.911,-0.00050401,-5056,0.11131
14989,4.5057,5.8182,0,0.00050805,5077,0.00016957,0.35426,0.00016445,-38.127,-0.00050868,-5095.8,0.10616
14990,4.5977,5.8182,0.05,1.5628e-06,15.617,1.2001e-06,9.0167,3.3278e-12,-3.2398e-05,-1.2001e-06,-9.0168,0.11061
14991,4.5977,5.9091,0,0.00050623,5058.8,0.00016805,0.23531,0.0001654,-19.671,-0.00050656,-5068.5,0.10995
14992,4.5977,5.5455,0,0.00049944,4990.9,0.00016988,0.17919,0.00015622,-102.48,-0.0005011,-5041.3,0.11256
14993,4.5057,5.6364,0,0.00050424,5038.9,0.00017057,0.29585,0.00015935,-83.981,-0.00050561,-5080.2,0.10746
14994,4.5977,5.6364,0.05,1.315e-06,13.141,1.0098e-06,7.587,-9.4032e-13,-2.8046e-05,-1.0098e-06,-7.5871,0.11192
14995,4.5977,5.3636,0,0.00049596,4956.1,0.0001708,0.080897,0.00015149,-145,-0.00049826,-5027,0.11372
14996,4.5057,5.4545,0,0.00050056,5002.2,0.00017153,0.093758,0.00015437,-128.86,-0.00050263,-5065.3,0.10866
14997,4.5977,5.4545,0.05,1.3051e-06,13.042,1.0022e-06,7.5299,6.3728e-13,-5.5689e-05,-1.0022e-06,-7.53,0.11312
14998,4.5977,5.1818,0,0.00049259,4922.5,0.0001717,0.062631,0.0001469,-186.3,-0.00049549,-5013,0.11477
14999,4.5057,5.2727,0,0.000497,4966.5,0.00017249,0.081098,0.00014951,-172.61,-0.00049971,-5050.6,0.10976
15000,4.5977,5.2727,0.05,1.3074e-06,13.065,1.0039e-06,7.543,1.0881e-12,-4.054e-05,-1.0039e-06,-7.5432,0.11422
15001,4.5977,5,0,0.00048937,4890.3,0.00017256,0.042342,0.00014247,-226.08,-0.00049282,-4999.4,0.11572
15002,4.5057,5.0909,0,0.00049357,4932.3,0.00017342,0.05261,0.00014479,-215.01,-0.00049687,-5036.2,0.11075
15003,4.5977,5.0909,0.05,1.3091e-06,13.082,1.0052e-06,7.5528,-1.5999e-12,-2.596e-05,-1.0052e-06,-7.5529,0.11523
15004,4.5977,4.8182,0,0.00048632,4859.9,0.00017339,0.029171,0.00013825,-263.96,-0.00049027,-4986.4,0.11658
15005,4.5057,4.9091,0,0.0004903,4899.7,0.0001743,0.037525,0.00014027,-255.63,-0.00049415,-5022.4,0.11166
15006,4.5977,4.9091,0.05,1.3093e-06,13.084,1.0054e-06,7.554,-1.11e-12,-4.3424e-05,-1.0054e-06,-7.5542,0.11613
15007,4.5977,4.6364,0,0.00048347,4831.4,0.00017416,0.018245,0.00013428,-299.57,-0.00048787,-4974.2,0.11735
15008,4.5057,4.7273,0,0.00048723,4869,0.00017514,0.024491,0.00013599,-294.1,-0.00049157,-5009.4,0.11246
15009,4.5977,4.7273,0.05,1.3082e-06,13.073,1.0045e-06,7.5475,2.5221e-12,-1.3199e-05,-1.0045e-06,-7.5476,0.11695
15010,4.5977,4.4545,0,0.00048085,4805.2,0.00017487,0.009475,0.00013061,-332.56,-0.00048564,-4962.8,0.11803
15011,4.5057,4.5455,0,0.00048439,4840.5,0.00017592,0.014369,0.00013199,-330.03,-0.00048916,-4997.1,0.11319
15012,4.5977,4.5455,0.05,1.3059e-06,13.05,1.0028e-06,7.5345,3.9518e-12,-1.9439e-05,-1.0028e-06,-7.5346,0.11767
15013,4.5977,4.2727,0,0.00047848,4781.5,0.00017552,0.0022101,0.00012726,-362.57,-0.00048361,-4952.4,0.11863
15014,4.5057,4.3636,0,0.00048179,4814.6,0.00017663,0.0059801,0.00012832,-363.03,-0.00048693,-4985.8,0.11382
15015,4.5977,4.3636,0.05,1.3028e-06,13.019,1.0004e-06,7.5167,2.7788e-12,-2.9957e-05,-1.0004e-06,-7.5169,0.11831
15016,4.5977,4.0909,0,0.00047638,4760.5,0.00017609,-0.0037723,0.00012428,-389.29,-0.0004818,-4943.2,0.11914
15017,4.5057,4.1818,0,0.00047946,4791.3,0.00017728,-0.00091262,0.00012501,-392.75,-0.00048493,-4975.6,0.11437
15018,4.5977,4.1818,0.05,1.2992e-06,12.983,9.9764e-07,7.4959,4.875e-12,-1.9611e-05,-9.9765e-07,-7.496,0.11886
15019,4.5977,3.9091,0,0.00047456,4742.4,0.00017659,-0.0086526,0.0001217,-412.42,-0.00048023,-4935.1,0.11957
15020,4.5057,4,0,0.00047743,4771,0.00017784,-0.0065684,0.00012209,-418.88,-0.00048317,-4966.6,0.11483
15021,4.5977,4,0.05,1.2954e-06,12.945,9.947e-07,7.4738,2.0485e-12,-1.1409e-05,-9.9471e-07,-7.4739,0.11933
15022,4.5977,3.7273,0,0.00047306,4727.3,0.000177,-0.012536,0.00011955,-431.71,-0.00047892,-4928.4,0.11992
15023,4.5057,3.8182,0,0.00047571,4753.8,0.00017832,-0.011124,0.00011962,-441.12,-0.00048167,-4959,0.11522
15024,4.5977,3.8182,0.05,1.2917e-06,12.908,9.9183e-07,7.4522,3.2417e-12,-1.1178e-05,-9.9184e-07,-7.4523,0.11972
15025,4.5977,3.5455,0,0.00047188,4715.5,0.00017733,-0.015493,0.00011785,-446.95,-0.00047789,-4923.1,0.12019
15026,4.5057,3.6364,0,0.00047431,4739.8,0.00017872,-0.014675,0.0001176,-459.22,-0.00048045,-4952.7,0.11552
15027,4.5977,3.6364,0.05,1.2883e-06,12.874,9.8925e-07,7.4328,2.8478e-12,-5.8491e-06,-9.8925e-07,-7.4329,0.12003
15028,4.5977,3.3636,0,0.00047102,4707,0.00017757,-0.017574,0.00011662,-457.96,-0.00047714,-4919.2,0.12038
15029,4.5057,3.4545,0,0.00047325,4729.3,0.00017901,-0.017287,0.00011607,-472.98,-0.00047952,-4948,0.11575
15030,4.5977,3.4545,0.05,1.2855e-06,12.846,9.8713e-07,7.4169,3.2105e-12,-3.7978e-06,-9.8714e-07,-7.417,0.12026
15031,4.5977,3.1818,0,0.00047051,4701.9,0.00017771,-0.018811,0.00011588,-464.61,-0.00047669,-4916.9,0.12049
15032,4.5057,3.2727,0,0.00047254,4722.2,0.00017921,-0.019005,0.00011503,-482.24,-0.0004789,-4944.8,0.1159
15033,4.5977,3.2727,0.05,1.2836e-06,12.827,9.8563e-07,7.4057,3.3846e-12,-1.632e-06,-9.8564e-07,-7.4057,0.12042
15034,4.5977,3,0,0.00047034,4700.1,0.00017776,-0.019222,0.00011563,-466.84,-0.00047654,-4916.1,0.12053
15035,4.5057,3.0909,0,0.00047219,4718.6,0.00017931,-0.019858,0.00011452,-486.9,-0.00047858,-4943.2,0.11598
15036,4.5977,3.0909,0.05,1.2826e-06,12.817,9.8486e-07,7.3998,3.5687e-12,-5.2916e-07,-9.8486e-07,-7.3999,0.12049
15037,4.5977,2.8182,0,0.00047051,4701.9,0.00017771,-0.018811,0.00011588,-464.61,-0.00047669,-4916.9,0.12049
15038,4.5057,2.9091,0,0.00047219,4718.6,0.00017931,-0.019858,0.00011452,-486.9,-0.00047858,-4943.2,0.11598
15039,4.5977,2.9091,0.05,1.2826e-06,12.817,9.8486e-07,7.3998,3.6915e-12,3.9101e-07,-9.8486e-07,-7.3999,0.12049
15040,4.5977,2.6364,0,0.00047102,4707,0.00017757,-0.017574,0.00011662,-457.96,-0.00047714,-4919.2,0.12038
15041,4.5057,2.7273,0,0.00047254,4722.2,0.00017921,-0.019005,0.00011503,-482.24,-0.0004789,-4944.8,0.1159
15042,4.5977,2.7273,0.05,1.2836e-06,12.827,9.8563e-07,7.4057,2.8609e-12,1.0932e-06,-9.8564e-07,-7.4057,0.12042
15043,4.5977,2.4545,0,0.00047188,4715.5,0.00017733,-0.015493,0.00011785,-446.95,-0.00047789,-4923.1,0.12019
15044,4.5057,2.5455,0,0.00047325,4729.3,0.00017901,-0.017286,0.00011607,-472.98,-0.00047952,-4948,0.11575
15045,4.5977,2.5455,0.05,1.2855e-06,12.846,9.8713e-07,7.4169,1.2076e-12,1.3929e-06,-9.8713e-07,-7.417,0.12026
15046,4.5977,2.2727,0,0.00047306,4727.3,0.000177,-0.012535,0.00011955,-431.71,-0.00047892,-4928.4,0.11992
15047,4.5057,2.3636,0,0.00047431,4739.8,0.00017872,-0.014675,0.0001176,-459.22,-0.00048045,-4952.7,0.11552
15048,4.5977,2.3636,0.05,1.2883e-06,12.874,9.8924e-07,7.4328,1.112e-12,3.1181e-06,-9.8925e-07,-7.4328,0.12003
15049,4.5977,2.0909,0,0.00047456,4742.4,0.00017659,-0.0086523,0.0001217,-412.42,-0.00048023,-4935.1,0.11957
15050,4.5057,2.1818,0,0.00047571,4753.8,0.00017832,-0.011123,0.00011962,-441.12,-0.00048167,-4959,0.11522
15051,4.5977,2.1818,0.05,1.2917e-06,12.908,9.9183e-07,7.4523,1.1757e-12,3.1282e-06,-9.9184e-07,-7.4523,0.11972
15052,4.5977,1.9091,0,0.00047638,4760.5,0.00017609,-0.0037719,0.00012428,-389.29,-0.0004818,-4943.2,0.11914
15053,4.5057,2,0,0.00047743,4771,0.00017784,-0.006568,0.00012209,-418.88,-0.00048317,-4966.6,0.11483
15054,4.5977,2,0.05,1.2954e-06,12.945,9.9471e-07,7.4738,1.9723e-12,3.2334e-07,-9.9471e-07,-7.4739,0.11933
15055,4.5977,1.7273,0,0.00047848,4781.5,0.00017552,0.0022106,0.00012726,-362.57,-0.00048361,-4952.4,0.11863
15056,4.5057,1.8182,0,0.00047946,4791.3,0.00017728,-0.00091218,0.00012501,-392.75,-0.00048493,-4975.6,0.11437
15057,4.5977,1.8182,0.05,1.2992e-06,12.983,9.9765e-07,7.4959,2.6205e-13,5.2905e-06,-9.9765e-07,-7.4959,0.11886
15058,4.5977,1.5455,0,0.00048085,4805.2,0.00017487,0.0094756,0.00013061,-332.56,-0.00048564,-4962.8,0.11803
15059,4.5057,1.6364,0,0.00048179,4814.6,0.00017663,0.0059808,0.00012832,-363.03,-0.00048693,-4985.8,0.11382
15060,4.5977,1.6364,0.05,1.3028e-06,13.019,1.0004e-06,7.5168,3.144e-13,-1.1806e-06,-1.0004e-06,-7.5168,0.11831
15061,4.5977,1.3636,0,0.00048347,4831.4,0.00017416,0.018245,0.00013428,-299.57,-0.00048787,-4974.2,0.11735
15062,4.5057,1.4545,0,0.00048439,4840.5,0.00017592,0.01437,0.00013199,-330.03,-0.00048916,-4997.1,0.11319
15063,4.5977,1.4545,0.05,1.3059e-06,13.05,1.0028e-06,7.5346,7.5946e-13,8.4233e-06,-1.0028e-06,-7.5346,0.11767
15064,4.5977,1.1818,0,0.00048632,4859.9,0.00017339,0.029171,0.00013825,-263.96,-0.00049027,-4986.4,0.11658
15065,4.5057,1.2727,0,0.00048723,4869,0.00017514,0.024492,0.00013599,-294.1,-0.00049157,-5009.3,0.11246
15066,4.5977,1.2727,0.05,1.3082e-06,13.073,1.0045e-06,7.5475,6.4847e-13,5.4397e-06,-1.0045e-06,-7.5475,0.11695
15067,4.5977,1,0,0.00048937,4890.3,0.00017256,0.042343,0.00014247,-226.08,-0.00049282,-4999.4,0.11572
15068,4.5057,1.0909,0,0.0004903,4899.7,0.0001743,0.037525,0.00014027,-255.63,-0.00049415,-5022.4,0.11166
15069,4.5977,1.0909,0.05,1.3093e-06,13.084,1.0054e-06,7.5541,6.8278e-13,4.2956e-06,-1.0054e-06,-7.5541,0.11613
15070,4.5977,0.81818,0,0.00049259,4922.5,0.0001717,0.062632,0.0001469,-186.3,-0.00049549,-5013,0.11477
15071,4.5057,0.90909,0,0.00049357,4932.3,0.00017342,0.052611,0.00014479,-215.01,-0.00049687,-5036.2,0.11075
15072,4.5977,0.90909,0.05,1.3091e-06,13.082,1.0052e-06,7.5529,7.1104e-13,1.7511e-05,-1.0052e-06,-7.5528,0.11523
15073,4.5977,0.63636,0,0.00049596,4956.1,0.0001708,0.080898,0.00015149,-145,-0.00049826,-5027,0.11372
15074,4.5057,0.72727,0,0.000497,4966.5,0.00017249,0.081098,0.00014951,-172.61,-0.00049971,-5050.6,0.10976
15075,4.5977,0.72727,0.05,1.3074e-06,13.065,1.0039e-06,7.5431,2.039e-12,3.0777e-06,-1.0039e-06,-7.5431,0.11422
15076,4.5977,0.45455,0,0.00049944,4990.9,0.00016988,0.17919,0.00015622,-102.48,-0.0005011,-5041.3,0.11256
15077,4.5057,0.54545,0,0.00050056,5002.2,0.00017153,0.093758,0.00015437,-128.86,-0.00050263,-5065.3,0.10866
15078,4.5977,0.54545,0.05,1.3051e-06,13.042,1.0022e-06,7.53,3.7578e-13,1.7229e-05,-1.0022e-06,-7.5299,0.11312
15079,4.5977,0.27273,0,0.00050304,5026.9,0.00016893,0.26175,0.00016106,-58.911,-0.00050401,-5056,0.11131
15080,4.5057,0.36364,0,0.00050424,5038.9,0.00017057,0.29585,0.00015935,-83.981,-0.00050561,-5080.2,0.10746
15081,4.5977,0.36364,0.05,1.315e-06,13.141,1.0098e-06,7.587,-2.7311e-12,1.442e-05,-1.0098e-06,-7.587,0.11192
15082,4.5057,0.18182,0,0.00050805,5077,0.00016957,0.35427,0.00016445,-38.127,-0.00050868,-5095.8,0.10616
15083,4.5977,0.18182,0.05,1.5628e-06,15.617,1.2001e-06,9.0168,-1.6639e-12,7.2144e-07,-1.2001e-06,-9.0168,0.11061
15084,4.5977,0.090909,0,0.00050623,5058.8,0.00016805,0.23531,0.0001654,-19.671,-0.00050656,-5068.5,0.10995
15085,4.4138,5.7273,0,0.00050925,5089,0.00017119,0.29191,0.00016276,-63.055,-0.00051029,-5120.1,0.10242
15086,4.3218,5.8182,0,0.00051445,5140.9,0.0001718,0.40606,0.00016637,-40.393,-0.00051511,-5160.8,0.097446
15087,4.4138,5.8182,0.05,1.6908e-06,16.897,1.2983e-06,9.7551,6.9227e-13,-4.2447e-05,-1.2983e-06,-9.7553,0.10173
15088,4.4138,5.9091,0,0.00051265,5123,0.00017023,0.25365,0.00016742,-20.836,-0.000513,-5133.2,0.10107
15089,4.4138,5.5455,0,0.00050536,5050.1,0.00017222,0.19676,0.00015751,-110.3,-0.00050714,-5104.2,0.10367
15090,4.3218,5.6364,0,0.00051032,5099.7,0.00017288,0.32457,0.00016084,-90.115,-0.00051179,-5144,0.09874
15091,4.4138,5.6364,0.05,1.3555e-06,13.546,1.0409e-06,7.8207,-1.8389e-12,-4.5382e-05,-1.0409e-06,-7.8208,0.10302
15092,4.4138,5.3636,0,0.0005016,5012.6,0.00017322,0.08915,0.00015239,-156.42,-0.00050408,-5088.9,0.10481
15093,4.3218,5.4545,0,0.00050635,5060,0.00017393,0.10365,0.00015545,-138.76,-0.00050857,-5127.9,0.099927
15094,4.4138,5.4545,0.05,1.341e-06,13.401,1.0297e-06,7.7369,1.5441e-12,-6.0756e-05,-1.0297e-06,-7.7371,0.10422
15095,4.4138,5.1818,0,0.00049797,4976.3,0.00017421,0.068827,0.00014741,-201.27,-0.00050109,-5073.8,0.10585
15096,4.3218,5.2727,0,0.00050251,5021.6,0.00017498,0.089143,0.00015018,-186.26,-0.00050542,-5112.1,0.10101
15097,4.4138,5.2727,0.05,1.3434e-06,13.424,1.0315e-06,7.7505,-3.0569e-12,-3.1254e-05,-1.0315e-06,-7.7506,0.10531
15098,4.4138,5,0,0.0004945,4941.6,0.00017515,0.046525,0.0001426,-244.52,-0.00049821,-5059.3,0.10679
15099,4.3218,5.0909,0,0.00049881,4984.7,0.00017599,0.05785,0.00014506,-232.33,-0.00050236,-5096.8,0.102
15100,4.4138,5.0909,0.05,1.3453e-06,13.443,1.033e-06,7.7615,8.482e-13,-4.3451e-05,-1.033e-06,-7.7616,0.1063
15101,4.4138,4.8182,0,0.00049122,4908.8,0.00017605,0.032039,0.00013802,-285.74,-0.00049545,-5045.4,0.10764
15102,4.3218,4.9091,0,0.0004953,4949.6,0.00017696,0.041229,0.00014015,-276.52,-0.00049942,-5082,0.10289
15103,4.4138,4.9091,0.05,1.3455e-06,13.446,1.0332e-06,7.763,1.0141e-12,-2.1761e-05,-1.0332e-06,-7.7631,0.1072
15104,4.4138,4.6364,0,0.00048815,4878.1,0.0001769,0.020056,0.0001337,-324.53,-0.00049286,-5032.3,0.1084
15105,4.3218,4.7273,0,0.00049199,4916.5,0.00017788,0.026923,0.0001355,-318.41,-0.00049664,-5068,0.10369
15106,4.4138,4.7273,0.05,1.3443e-06,13.433,1.0322e-06,7.7557,1.6852e-12,-2.4878e-05,-1.0322e-06,-7.7558,0.108
15107,4.4138,4.4545,0,0.00048533,4849.9,0.00017768,0.010459,0.0001297,-360.47,-0.00049045,-5020.1,0.10907
15108,4.3218,4.5455,0,0.00048893,4885.9,0.00017873,0.015835,0.00013115,-357.54,-0.00049403,-5054.9,0.1044
15109,4.4138,4.5455,0.05,1.3417e-06,13.408,1.0303e-06,7.7411,4.0276e-12,-1.2856e-05,-1.0303e-06,-7.7412,0.10872
15110,4.4138,4.2727,0,0.00048277,4824.4,0.00017839,0.0025309,0.00012606,-393.2,-0.00048826,-5009,0.10966
15111,4.3218,4.3636,0,0.00048614,4858,0.00017952,0.0066744,0.00012715,-393.52,-0.00049163,-5042.8,0.10502
15112,4.4138,4.3636,0.05,1.3382e-06,13.373,1.0276e-06,7.721,1.5943e-12,-2.6294e-05,-1.0276e-06,-7.7211,0.10935
15113,4.4138,4.0909,0,0.00048051,4801.8,0.00017903,-0.003977,0.00012282,-422.34,-0.0004863,-4999,0.11016
15114,4.3218,4.1818,0,0.00048364,4833,0.00018023,-0.00082683,0.00012354,-425.94,-0.00048947,-5031.9,0.10556
15115,4.4138,4.1818,0.05,1.3342e-06,13.332,1.0245e-06,7.6974,-2.7431e-13,-2.192e-05,-1.0245e-06,-7.6976,0.10989
15116,4.4138,3.9091,0,0.00047857,4782.4,0.00017958,-0.0092688,0.00012001,-447.58,-0.00048461,-4990.5,0.11058
15117,4.3218,4,0,0.00048146,4811.2,0.00018086,-0.0069592,0.00012038,-454.44,-0.00048757,-5022.3,0.10602
15118,4.4138,4,0.05,1.3298e-06,13.289,1.0211e-06,7.6724,2.0683e-12,-1.7047e-05,-1.0212e-06,-7.6726,0.11035
15119,4.4138,3.7273,0,0.00047696,4766.3,0.00018004,-0.013466,0.00011767,-468.64,-0.0004832,-4983.3,0.11093
15120,4.3218,3.8182,0,0.00047961,4792.8,0.00018139,-0.01188,0.00011768,-478.7,-0.00048596,-5014.2,0.10639
15121,4.4138,3.8182,0.05,1.3256e-06,13.247,1.0179e-06,7.6481,2.4155e-12,-1.2473e-05,-1.0179e-06,-7.6482,0.11073
15122,4.4138,3.5455,0,0.00047569,4753.6,0.0001804,-0.016653,0.00011581,-485.27,-0.00048208,-4977.6,0.11119
15123,4.3218,3.6364,0,0.00047811,4777.9,0.00018182,-0.015702,0.00011548,-498.45,-0.00048464,-5007.5,0.10669
15124,4.4138,3.6364,0.05,1.3218e-06,13.209,1.015e-06,7.6262,2.827e-12,-4.7289e-06,-1.015e-06,-7.6262,0.11104
15125,4.4138,3.3636,0,0.00047477,4744.4,0.00018066,-0.018891,0.00011448,-497.28,-0.00048127,-4973.5,0.11138
15126,4.3218,3.4545,0,0.00047698,4766.5,0.00018215,-0.018504,0.00011381,-513.47,-0.00048364,-5002.5,0.10692
15127,4.4138,3.4545,0.05,1.3187e-06,13.178,1.0126e-06,7.6082,3.052e-12,-4.2954e-06,-1.0126e-06,-7.6084,0.11126
15128,4.4138,3.1818,0,0.00047422,4738.9,0.00018082,-0.020219,0.00011367,-504.55,-0.00048078,-4971,0.11149
15129,4.3218,3.2727,0,0.00047622,4759,0.00018237,-0.020344,0.00011269,-523.57,-0.00048296,-4999.1,0.10707
15130,4.4138,3.2727,0.05,1.3165e-06,13.156,1.0109e-06,7.5956,3.3622e-12,-1.8007e-06,-1.0109e-06,-7.5957,0.11141
15131,4.4138,3,0,0.00047404,4737.1,0.00018087,-0.020659,0.0001134,-506.98,-0.00048062,-4970.2,0.11153
15132,4.3218,3.0909,0,0.00047584,4755.1,0.00018248,-0.021256,0.00011213,-528.66,-0.00048263,-4997.4,0.10714
15133,4.4138,3.0909,0.05,1.3154e-06,13.145,1.01e-06,7.5891,2.6611e-12,-5.3502e-07,-1.01e-06,-7.5891,0.11149
15134,4.4138,2.8182,0,0.00047422,4738.9,0.00018082,-0.020219,0.00011367,-504.55,-0.00048078,-4971,0.11149
15135,4.3218,2.9091,0,0.00047584,4755.1,0.00018248,-0.021256,0.00011213,-528.66,-0.00048263,-4997.4,0.10714
15136,4.4138,2.9091,0.05,1.3154e-06,13.145,1.01e-06,7.5891,2.7929e-12,4.5306e-07,-1.01e-06,-7.5891,0.11149
15137,4.4138,2.6364,0,0.00047477,4744.4,0.00018066,-0.018891,0.00011448,-497.28,-0.00048127,-4973.5,0.11138
15138,4.3218,2.7273,0,0.00047622,4759,0.00018237,-0.020344,0.00011269,-523.57,-0.00048296,-4999.1,0.10707
15139,4.4138,2.7273,0.05,1.3165e-06,13.156,1.0109e-06,7.5956,1.9445e-12,1.1062e-06,-1.0109e-06,-7.5957,0.11141
15140,4.4138,2.4545,0,0.00047569,4753.6,0.0001804,-0.016653,0.00011581,-485.27,-0.00048208,-4977.6,0.11119
15141,4.3218,2.5455,0,0.00047698,4766.5,0.00018215,-0.018504,0.00011381,-513.47,-0.00048364,-5002.5,0.10692
15142,4.4138,2.5455,0.05,1.3187e-06,13.178,1.0126e-06,7.6083,1.9135e-12,1.421e-06,-1.0126e-06,-7.6083,0.11126
15143,4.4138,2.2727,0,0.00047696,4766.3,0.00018004,-0.013465,0.00011767,-468.64,-0.0004832,-4983.3,0.11093
15144,4.3218,2.3636,0,0.00047811,4777.9,0.00018182,-0.015702,0.00011548,-498.45,-0.00048464,-5007.5,0.10669
15145,4.4138,2.3636,0.05,1.3218e-06,13.209,1.015e-06,7.6262,2.4736e-13,1.4112e-06,-1.015e-06,-7.6263,0.11104
15146,4.4138,2.0909,0,0.00047857,4782.4,0.00017958,-0.0092684,0.00012001,-447.58,-0.00048461,-4990.5,0.11058
15147,4.3218,2.1818,0,0.00047961,4792.8,0.00018139,-0.011879,0.00011768,-478.7,-0.00048596,-5014.2,0.10639
15148,4.4138,2.1818,0.05,1.3256e-06,13.247,1.0179e-06,7.6481,2.3092e-13,6.9044e-07,-1.0179e-06,-7.6482,0.11073
15149,4.4138,1.9091,0,0.00048051,4801.8,0.00017903,-0.0039766,0.00012282,-422.34,-0.0004863,-4999,0.11016
15150,4.3218,2,0,0.00048146,4811.2,0.00018086,-0.0069587,0.00012038,-454.44,-0.00048757,-5022.3,0.10602
15151,4.4138,2,0.05,1.3298e-06,13.289,1.0211e-06,7.6725,9.6822e-13,3.9344e-06,-1.0212e-06,-7.6725,0.11035
15152,4.4138,1.7273,0,0.00048277,4824.4,0.00017839,0.0025316,0.00012606,-393.2,-0.00048826,-5009,0.10966
15153,4.3218,1.8182,0,0.00048364,4833,0.00018023,-0.00082636,0.00012354,-425.94,-0.00048947,-5031.9,0.10556
15154,4.4138,1.8182,0.05,1.3342e-06,13.332,1.0245e-06,7.6975,6.0073e-13,5.5992e-06,-1.0245e-06,-7.6975,0.10989
15155,4.4138,1.5455,0,0.00048533,4849.9,0.00017768,0.010459,0.0001297,-360.47,-0.00049045,-5020.1,0.10907
15156,4.3218,1.6364,0,0.00048614,4858,0.00017952,0.0066752,0.00012715,-393.52,-0.00049163,-5042.8,0.10502
15157,4.4138,1.6364,0.05,1.3382e-06,13.373,1.0276e-06,7.7211,6.6478e-13,6.1962e-06,-1.0276e-06,-7.7211,0.10935
15158,4.4138,1.3636,0,0.00048815,4878.1,0.0001769,0.020057,0.0001337,-324.53,-0.00049286,-5032.3,0.1084
15159,4.3218,1.4545,0,0.00048893,4885.9,0.00017873,0.015836,0.00013115,-357.54,-0.00049403,-5054.9,0.1044
15160,4.4138,1.4545,0.05,1.3417e-06,13.408,1.0303e-06,7.7412,1.1198e-12,5.3676e-06,-1.0303e-06,-7.7412,0.10872
15161,4.4138,1.1818,0,0.00049122,4908.8,0.00017605,0.03204,0.00013802,-285.74,-0.00049545,-5045.4,0.10764
15162,4.3218,1.2727,0,0.00049199,4916.5,0.00017788,0.026923,0.0001355,-318.41,-0.00049664,-5068,0.10369
15163,4.4138,1.2727,0.05,1.3443e-06,13.433,1.0322e-06,7.7558,3.9643e-13,4.9998e-06,-1.0322e-06,-7.7558,0.108
15164,4.4138,1,0,0.0004945,4941.6,0.00017515,0.046526,0.0001426,-244.52,-0.00049821,-5059.3,0.10679
15165,4.3218,1.0909,0,0.0004953,4949.6,0.00017696,0.04123,0.00014015,-276.52,-0.00049942,-5082,0.10289
15166,4.4138,1.0909,0.05,1.3455e-06,13.446,1.0332e-06,7.7631,7.1538e-13,2.3844e-05,-1.0332e-06,-7.7631,0.1072
15167,4.4138,0.81818,0,0.00049797,4976.3,0.00017421,0.068828,0.00014741,-201.27,-0.00050109,-5073.8,0.10585
15168,4.3218,0.90909,0,0.00049881,4984.7,0.00017599,0.057851,0.00014506,-232.33,-0.00050236,-5096.8,0.102
15169,4.4138,0.90909,0.05,1.3453e-06,13.443,1.033e-06,7.7616,5.5737e-13,4.6756e-06,-1.033e-06,-7.7616,0.1063
15170,4.4138,0.63636,0,0.0005016,5012.6,0.00017322,0.089151,0.00015239,-156.42,-0.00050408,-5088.9,0.10481
15171,4.3218,0.72727,0,0.00050251,5021.6,0.00017498,0.089143,0.00015018,-186.26,-0.00050542,-5112.1,0.10101
15172,4.4138,0.72727,0.05,1.3434e-06,13.424,1.0315e-06,7.7505,8.4437e-13,1.8034e-05,-1.0315e-06,-7.7505,0.10531
15173,4.4138,0.45455,0,0.00050536,5050.1,0.00017222,0.19676,0.00015751,-110.3,-0.00050714,-5104.2,0.10367
15174,4.3218,0.54545,0,0.00050635,5060,0.00017393,0.10366,0.00015545,-138.76,-0.00050857,-5127.9,0.099927
15175,4.4138,0.54545,0.05,1.341e-06,13.401,1.0297e-06,7.737,1.955e-13,1.8214e-05,-1.0297e-06,-7.7369,0.10422
15176,4.4138,0.27273,0,0.00050925,5089,0.00017119,0.29191,0.00016276,-63.055,-0.00051029,-5120.1,0.10242
15177,4.3218,0.36364,0,0.00051032,5099.7,0.00017288,0.32457,0.00016084,-90.115,-0.00051179,-5144,0.09874
15178,4.4138,0.36364,0.05,1.3555e-06,13.546,1.0409e-06,7.8208,6.3151e-13,1.8209e-05,-1.0409e-06,-7.8207,0.10302
15179,4.3218,0.18182,0,0.00051445,5140.9,0.0001718,0.40606,0.00016637,-40.393,-0.00051511,-5160.8,0.097446
15180,4.4138,0.18182,0.05,1.6908e-06,16.897,1.2984e-06,9.7552,3.8813e-12,2.5625e-06,-1.2983e-06,-9.7552,0.10173
15181,4.4138,0.090909,0,0.00051265,5123,0.00017023,0.25365,0.00016742,-20.836,-0.000513,-5133.2,0.10107
15182,4.2299,5.7273,0,0.00051551,5151.6,0.00017347,0.32628,0.00016447,-67.286,-0.00051662,-5184.7,0.093878
15183,4.1379,5.8182,0,0.00052091,5205.5,0.00017404,0.46816,0.00016832,-42.568,-0.00052161,-5226.4,0.089083
15184,4.2299,5.8182,0.05,1.8278e-06,18.265,1.4035e-06,10.545,2.1848e-12,-4.2314e-05,-1.4035e-06,-10.545,0.093188
15185,4.2299,5.9091,0,0.00051913,5187.8,0.00017242,0.27399,0.00016947,-21.93,-0.0005195,-5198.5,0.092535
15186,4.2299,5.5455,0,0.00051131,5109.6,0.00017459,0.21614,0.00015878,-118.52,-0.00051322,-5167.7,0.095112
15187,4.1379,5.6364,0,0.00051644,5160.8,0.00017521,0.35628,0.00016232,-96.493,-0.00051801,-5208.2,0.090364
15188,4.2299,5.6364,0.05,1.3992e-06,13.982,1.0744e-06,8.0727,-2.9084e-12,-5.194e-05,-1.0744e-06,-8.0728,0.094476
15189,4.2299,5.3636,0,0.00050726,5069.1,0.00017568,0.098293,0.00015324,-168.55,-0.00050992,-5151.2,0.096242
15190,4.1379,5.4545,0,0.00051216,5118.1,0.00017636,0.11468,0.00015648,-149.23,-0.00051454,-5191,0.091539
15191,4.2299,5.4545,0.05,1.3801e-06,13.791,1.0597e-06,7.9622,-4.1909e-12,-6.6722e-05,-1.0597e-06,-7.9624,0.095658
15192,4.2299,5.1818,0,0.00050335,5030,0.00017676,0.075666,0.00014783,-217.26,-0.00050669,-5135.1,0.097271
15193,4.1379,5.2727,0,0.00050803,5076.7,0.0001775,0.098028,0.00015077,-200.79,-0.00051114,-5174.1,0.092611
15194,4.2299,5.2727,0.05,1.3827e-06,13.817,1.0617e-06,7.9772,-4.8492e-13,-6.4467e-05,-1.0617e-06,-7.9774,0.096737
15195,4.2299,5,0,0.00049961,4992.7,0.00017779,0.051147,0.00014261,-264.28,-0.00050358,-5119.5,0.098202
15196,4.1379,5.0909,0,0.00050405,5037,0.00017861,0.063643,0.00014522,-250.86,-0.00050784,-5157.7,0.093584
15197,4.2299,5.0909,0.05,1.385e-06,13.84,1.0635e-06,7.9904,1.7037e-12,-4.8367e-05,-1.0635e-06,-7.9906,0.097717
15198,4.2299,4.8182,0,0.00049608,4957.3,0.00017878,0.035218,0.00013763,-309.15,-0.00050061,-5104.7,0.09904
15199,4.1379,4.9091,0,0.00050026,4999.2,0.00017968,0.045326,0.00013988,-298.94,-0.00050468,-5141.9,0.094461
15200,4.2299,4.9091,0.05,1.3854e-06,13.844,1.0638e-06,7.9928,-1.1542e-12,-5.8738e-05,-1.0638e-06,-7.993,0.098601
15201,4.2299,4.6364,0,0.00049278,4924.4,0.00017971,0.022081,0.00013294,-351.39,-0.00049781,-5090.6,0.099787
15202,4.1379,4.7273,0,0.00049671,4963.7,0.00018069,0.029626,0.00013483,-344.55,-0.00050167,-5126.9,0.095246
15203,4.2299,4.7273,0.05,1.3841e-06,13.831,1.0628e-06,7.9852,2.5961e-12,-4.7855e-05,-1.0628e-06,-7.9854,0.099393
15204,4.2299,4.4545,0,0.00048974,4894,0.00018058,0.01159,0.00012859,-390.57,-0.00049522,-5077.6,0.10045
15205,4.1379,4.5455,0,0.00049342,4930.8,0.00018163,0.017491,0.0001301,-387.19,-0.00049886,-5113,0.095942
15206,4.2299,4.5455,0.05,1.3813e-06,13.803,1.0606e-06,7.9693,5.0293e-13,-3.5501e-05,-1.0607e-06,-7.9694,0.1001
15207,4.2299,4.2727,0,0.000487,4866.7,0.00018136,0.0029542,0.00012463,-426.24,-0.00049285,-5065.8,0.10102
15208,4.1379,4.3636,0,0.00049042,4900.8,0.0001825,0.0075025,0.00012575,-426.41,-0.00049628,-5100.1,0.096553
15209,4.2299,4.3636,0.05,1.3774e-06,13.765,1.0577e-06,7.9471,-2.0043e-12,-5.2202e-06,-1.0577e-06,-7.9471,0.10071
15210,4.2299,4.0909,0,0.00048458,4842.5,0.00018206,-0.0041069,0.0001211,-458.03,-0.00049074,-5055.2,0.10151
15211,4.1379,4.1818,0,0.00048775,4874.1,0.00018329,-0.00064118,0.00012183,-461.76,-0.00049396,-5088.5,0.097081
15212,4.2299,4.1818,0.05,1.3729e-06,13.719,1.0542e-06,7.9208,4.2214e-12,-2.3259e-05,-1.0542e-06,-7.921,0.10125
15213,4.2299,3.9091,0,0.0004825,4821.6,0.00018267,-0.0098245,0.00011805,-485.57,-0.00048892,-5046.1,0.10193
15214,4.1379,4,0,0.00048541,4850.8,0.00018398,-0.0072672,0.00011838,-492.84,-0.00049191,-5078.4,0.097529
15215,4.2299,4,0.05,1.3681e-06,13.671,1.0505e-06,7.8931,1.0164e-12,-1.4053e-05,-1.0505e-06,-7.8932,0.1017
15216,4.2299,3.7273,0,0.00048077,4804.4,0.00018318,-0.014341,0.00011549,-508.54,-0.0004874,-5038.4,0.10226
15217,4.1379,3.8182,0,0.00048344,4831,0.00018456,-0.012558,0.00011545,-519.3,-0.00049017,-5069.7,0.097898
15218,4.2299,3.8182,0.05,1.3634e-06,13.624,1.0469e-06,7.8659,2.8891e-12,-1.0872e-05,-1.0469e-06,-7.8661,0.10207
15219,4.2299,3.5455,0,0.00047941,4790.8,0.00018357,-0.017758,0.00011348,-526.68,-0.0004862,-5032.4,0.10252
15220,4.1379,3.6364,0,0.00048184,4815.1,0.00018504,-0.01665,0.00011306,-540.84,-0.00048876,-5062.7,0.098192
15221,4.2299,3.6364,0.05,1.3591e-06,13.582,1.0437e-06,7.8416,2.7024e-12,-7.4958e-06,-1.0437e-06,-7.8417,0.10237
15222,4.2299,3.3636,0,0.00047844,4781.1,0.00018386,-0.02015,0.00011202,-539.79,-0.00048533,-5028.1,0.10271
15223,4.1379,3.4545,0,0.00048064,4803,0.00018541,-0.019638,0.00011125,-557.22,-0.00048768,-5057.4,0.09841
15224,4.2299,3.4545,0.05,1.3557e-06,13.548,1.041e-06,7.8217,3.0614e-12,-4.5793e-06,-1.041e-06,-7.8218,0.10259
15225,4.2299,3.1818,0,0.00047785,4775.2,0.00018404,-0.021566,0.00011114,-547.72,-0.0004848,-5025.4,0.10282
15226,4.1379,3.2727,0,0.00047983,4794.9,0.00018565,-0.021594,0.00011003,-568.24,-0.00048696,-5053.8,0.098555
15227,4.2299,3.2727,0.05,1.3533e-06,13.523,1.0391e-06,7.8076,2.4397e-12,-2.3567e-06,-1.0391e-06,-7.8077,0.10274
15228,4.2299,3,0,0.00047765,4773.2,0.0001841,-0.022035,0.00011085,-550.37,-0.00048463,-5024.5,0.10285
15229,4.1379,3.0909,0,0.00047942,4790.9,0.00018578,-0.022561,0.00010941,-573.78,-0.0004866,-5052,0.098628
15230,4.2299,3.0909,0.05,1.352e-06,13.511,1.0382e-06,7.8004,2.6483e-12,-5.2609e-07,-1.0382e-06,-7.8004,0.10281
15231,4.2299,2.8182,0,0.00047785,4775.2,0.00018404,-0.021566,0.00011114,-547.72,-0.0004848,-5025.4,0.10282
15232,4.1379,2.9091,0,0.00047942,4790.9,0.00018578,-0.022561,0.00010941,-573.78,-0.0004866,-5052,0.098628
15233,4.2299,2.9091,0.05,1.352e-06,13.511,1.0382e-06,7.8004,2.7914e-12,5.2609e-07,-1.0382e-06,-7.8004,0.10281
15234,4.2299,2.6364,0,0.00047844,4781.1,0.00018386,-0.02015,0.00011202,-539.79,-0.00048533,-5028.1,0.10271
15235,4.1379,2.7273,0,0.00047983,4794.9,0.00018565,-0.021594,0.00011003,-568.24,-0.00048696,-5053.8,0.098555
15236,4.2299,2.7273,0.05,1.3533e-06,13.523,1.0391e-06,7.8076,1.9473e-12,7.7663e-07,-1.0391e-06,-7.8077,0.10274
15237,4.2299,2.4545,0,0.00047941,4790.8,0.00018357,-0.017758,0.00011348,-526.68,-0.0004862,-5032.4,0.10252
15238,4.1379,2.5455,0,0.00048064,4803,0.00018541,-0.019638,0.00011125,-557.22,-0.00048768,-5057.4,0.09841
15239,4.2299,2.5455,0.05,1.3557e-06,13.548,1.041e-06,7.8217,3.8558e-12,3.0955e-07,-1.041e-06,-7.8218,0.10259
15240,4.2299,2.2727,0,0.00048077,4804.4,0.00018318,-0.014341,0.00011549,-508.54,-0.0004874,-5038.4,0.10226
15241,4.1379,2.3636,0,0.00048184,4815.1,0.00018504,-0.01665,0.00011306,-540.84,-0.00048876,-5062.7,0.098192
15242,4.2299,2.3636,0.05,1.3591e-06,13.582,1.0437e-06,7.8416,1.0819e-12,-7.9779e-07,-1.0437e-06,-7.8417,0.10237
15243,4.2299,2.0909,0,0.0004825,4821.6,0.00018267,-0.0098242,0.00011805,-485.57,-0.00048892,-5046.1,0.10193
15244,4.1379,2.1818,0,0.00048344,4831,0.00018456,-0.012558,0.00011545,-519.3,-0.00049017,-5069.7,0.097898
15245,4.2299,2.1818,0.05,1.3634e-06,13.624,1.0469e-06,7.866,2.0356e-12,5.1285e-07,-1.0469e-06,-7.866,0.10207
15246,4.2299,1.9091,0,0.00048458,4842.5,0.00018206,-0.0041065,0.0001211,-458.03,-0.00049074,-5055.2,0.10151
15247,4.1379,2,0,0.00048541,4850.8,0.00018398,-0.0072668,0.00011838,-492.84,-0.00049191,-5078.4,0.097529
15248,4.2299,2,0.05,1.3681e-06,13.671,1.0505e-06,7.8931,1.1751e-12,4.1636e-06,-1.0505e-06,-7.8931,0.1017
15249,4.2299,1.7273,0,0.000487,4866.7,0.00018136,0.0029547,0.00012463,-426.24,-0.00049285,-5065.8,0.10102
15250,4.1379,1.8182,0,0.00048775,4874.1,0.00018329,-0.00064065,0.00012183,-461.76,-0.00049396,-5088.5,0.097081
15251,4.2299,1.8182,0.05,1.3729e-06,13.719,1.0542e-06,7.9209,5.6378e-13,-6.5894e-07,-1.0542e-06,-7.9209,0.10125
15252,4.2299,1.5455,0,0.00048974,4894,0.00018058,0.01159,0.00012859,-390.57,-0.00049522,-5077.6,0.10045
15253,4.1379,1.6364,0,0.00049042,4900.8,0.0001825,0.0075031,0.00012575,-426.41,-0.00049628,-5100.1,0.096553
15254,4.2299,1.6364,0.05,1.3774e-06,13.765,1.0577e-06,7.9471,7.7788e-13,5.2202e-06,-1.0577e-06,-7.9471,0.10071
15255,4.2299,1.3636,0,0.00049278,4924.4,0.00017971,0.022082,0.00013294,-351.39,-0.00049781,-5090.6,0.099787
15256,4.1379,1.4545,0,0.00049342,4930.8,0.00018163,0.017491,0.0001301,-387.19,-0.00049886,-5113,0.095942
15257,4.2299,1.4545,0.05,1.3813e-06,13.803,1.0607e-06,7.9693,8.4004e-13,5.6374e-06,-1.0607e-06,-7.9693,0.1001
15258,4.2299,1.1818,0,0.00049608,4957.3,0.00017878,0.035219,0.00013763,-309.15,-0.00050061,-5104.7,0.09904
15259,4.1379,1.2727,0,0.00049671,4963.7,0.00018069,0.029627,0.00013483,-344.55,-0.00050167,-5126.9,0.095246
15260,4.2299,1.2727,0.05,1.3841e-06,13.831,1.0628e-06,7.9853,7.1342e-13,1.7574e-05,-1.0628e-06,-7.9853,0.099393
15261,4.2299,1,0,0.00049961,4992.7,0.00017779,0.051148,0.00014261,-264.28,-0.00050358,-5119.5,0.098202
15262,4.1379,1.0909,0,0.00050026,4999.2,0.00017968,0.045327,0.00013988,-298.94,-0.00050468,-5141.9,0.094461
15263,4.2299,1.0909,0.05,1.3854e-06,13.844,1.0638e-06,7.9929,-6.8087e-13,6.2678e-06,-1.0638e-06,-7.9929,0.098601
15264,4.2299,0.81818,0,0.00050335,5030,0.00017676,0.075667,0.00014783,-217.26,-0.00050669,-5135.1,0.097271
15265,4.1379,0.90909,0,0.00050405,5037,0.00017861,0.063644,0.00014522,-250.86,-0.00050784,-5157.7,0.093584
15266,4.2299,0.90909,0.05,1.385e-06,13.84,1.0635e-06,7.9905,-8.0629e-13,1.7746e-05,-1.0635e-06,-7.9905,0.097717
15267,4.2299,0.63636,0,0.00050726,5069.1,0.00017568,0.098294,0.00015324,-168.55,-0.00050992,-5151.2,0.096242
15268,4.1379,0.72727,0,0.00050803,5076.7,0.0001775,0.098029,0.00015077,-200.79,-0.00051114,-5174.1,0.092611
15269,4.2299,0.72727,0.05,1.3827e-06,13.817,1.0617e-06,7.9773,5.9632e-13,3.6402e-05,-1.0617e-06,-7.9772,0.096737
15270,4.2299,0.45455,0,0.00051131,5109.6,0.00017459,0.21614,0.00015878,-118.52,-0.00051322,-5167.7,0.095112
15271,4.1379,0.54545,0,0.00051216,5118.1,0.00017636,0.11468,0.00015648,-149.23,-0.00051454,-5191,0.091539
15272,4.2299,0.54545,0.05,1.3801e-06,13.791,1.0597e-06,7.9623,1.0719e-12,5.1e-06,-1.0597e-06,-7.9623,0.095658
15273,4.2299,0.27273,0,0.00051551,5151.6,0.00017347,0.32628,0.00016447,-67.286,-0.00051662,-5184.7,0.093878
15274,4.1379,0.36364,0,0.00051644,5160.8,0.00017521,0.35628,0.00016232,-96.493,-0.00051801,-5208.2,0.090364
15275,4.2299,0.36364,0.05,1.3992e-06,13.982,1.0744e-06,8.0728,1.2851e-12,2.3941e-06,-1.0744e-06,-8.0728,0.094476
15276,4.1379,0.18182,0,0.00052091,5205.5,0.00017404,0.46816,0.00016832,-42.568,-0.00052161,-5226.4,0.089083
15277,4.2299,0.18182,0.05,1.8278e-06,18.265,1.4035e-06,10.545,-2.4833e-12,1.3244e-05,-1.4035e-06,-10.545,0.093188
15278,4.2299,0.090909,0,0.00051913,5187.8,0.00017242,0.274,0.00016947,-21.93,-0.0005195,-5198.5,0.092535
15279,4.046,5.7273,0,0.00052183,5214.7,0.00017577,0.36557,0.00016619,-71.579,-0.00052301,-5250,0.085684
15280,3.954,5.8182,0,0.00052744,5270.8,0.00017631,0.54309,0.0001703,-44.609,-0.00052817,-5292.6,0.081072
15281,4.046,5.8182,0.05,1.974e-06,19.726,1.5158e-06,11.389,1.9733e-12,-4.3028e-05,-1.5158e-06,-11.389,0.085
15282,4.046,5.9091,0,0.00052567,5253.1,0.00017463,0.29663,0.00017154,-22.924,-0.00052605,-5264.4,0.084354
15283,4.046,5.5455,0,0.00051729,5169.3,0.00017698,0.23756,0.00016003,-127.14,-0.00051933,-5231.6,0.086905
15284,3.954,5.6364,0,0.0005226,5222.4,0.00017757,0.39136,0.0001638,-103.11,-0.00052427,-5273,0.082339
15285,4.046,5.6364,0.05,1.4462e-06,14.452,1.1105e-06,8.3441,-1.5404e-12,-5.5468e-05,-1.1105e-06,-8.3442,0.086275
15286,4.046,5.3636,0,0.00051293,5125.7,0.00017818,0.10844,0.00015402,-181.42,-0.00051577,-5214,0.08802
15287,3.954,5.4545,0,0.00051799,5176.3,0.00017883,0.12698,0.00015748,-160.29,-0.00052053,-5254.6,0.083499
15288,4.046,5.4545,0.05,1.4226e-06,14.216,1.0924e-06,8.2076,-6.3343e-13,-4.0667e-05,-1.0924e-06,-8.2077,0.087443
15289,4.046,5.1818,0,0.00050872,5083.7,0.00017936,0.083224,0.00014816,-234.33,-0.0005123,-5196.7,0.089034
15290,3.954,5.2727,0,0.00051354,5131.8,0.00018008,0.10785,0.00015128,-216.27,-0.00051687,-5236.5,0.084555
15291,4.046,5.2727,0.05,1.4257e-06,14.247,1.0947e-06,8.2253,3.9e-13,-5.2586e-05,-1.0947e-06,-8.2254,0.088507
15292,4.046,5,0,0.0005047,5043.5,0.00018049,0.056258,0.00014249,-285.47,-0.00050894,-5180.1,0.089951
15293,3.954,5.0909,0,0.00050925,5089,0.00018129,0.070052,0.00014525,-270.69,-0.00051332,-5218.9,0.085512
15294,4.046,5.0909,0.05,1.4285e-06,14.275,1.0969e-06,8.2419,-3.5304e-12,-3.7491e-05,-1.0969e-06,-8.2419,0.089473
15295,4.046,4.8182,0,0.0005009,5005.5,0.00018158,0.038741,0.00013708,-334.3,-0.00050574,-5164.2,0.090774
15296,3.954,4.9091,0,0.00050519,5048.4,0.00018246,0.049858,0.00013946,-323.02,-0.00050991,-5202.1,0.086373
15297,4.046,4.9091,0.05,1.4293e-06,14.283,1.0975e-06,8.2461,-1.6967e-12,-5.0617e-05,-1.0975e-06,-8.2462,0.090342
15298,4.046,4.6364,0,0.00049735,4970.1,0.00018261,0.024346,0.00013199,-380.32,-0.00050273,-5149.3,0.091507
15299,3.954,4.7273,0,0.00050138,5010.3,0.00018357,0.032631,0.00013397,-372.68,-0.00050667,-5186.2,0.087143
15300,4.046,4.7273,0.05,1.428e-06,14.27,1.0965e-06,8.2387,4.4864e-13,-4.214e-05,-1.0965e-06,-8.2389,0.09112
15301,4.046,4.4545,0,0.0004941,4937.6,0.00018356,0.012891,0.00012726,-423.01,-0.00049993,-5135.5,0.092154
15302,3.954,4.5455,0,0.00049785,4975.1,0.00018462,0.019359,0.00012883,-419.14,-0.00050365,-5171.4,0.087825
15303,4.046,4.5455,0.05,1.4251e-06,14.241,1.0943e-06,8.2218,-9.488e-14,-4.917e-05,-1.0943e-06,-8.222,0.09181
15304,4.046,4.2727,0,0.00049117,4908.3,0.00018443,0.0035042,0.00012295,-461.9,-0.00049739,-5122.9,0.092716
15305,3.954,4.3636,0,0.00049464,4943,0.00018558,0.0084885,0.0001241,-461.89,-0.00050088,-5157.8,0.088422
15306,4.046,4.3636,0.05,1.4209e-06,14.199,1.0911e-06,8.1978,2.8644e-12,-5.4824e-06,-1.0911e-06,-8.1978,0.092414
15307,4.046,4.0909,0,0.00048858,4882.4,0.0001852,-0.0041326,0.00011911,-496.56,-0.00049513,-5111.7,0.093198
15308,3.954,4.1818,0,0.00049179,4914.5,0.00018644,-0.00032654,0.00011984,-500.42,-0.00049838,-5145.5,0.088937
15309,4.046,4.1818,0.05,1.4159e-06,14.15,1.0873e-06,8.1692,1.5558e-12,-1.2379e-05,-1.0873e-06,-8.1693,0.092936
15310,4.046,3.9091,0,0.00048635,4860.2,0.00018587,-0.010284,0.00011579,-526.59,-0.00049317,-5102,0.093602
15311,3.954,4,0,0.0004893,4889.6,0.00018721,-0.0074558,0.0001161,-534.3,-0.00049619,-5134.8,0.089374
15312,4.046,4,0.05,1.4107e-06,14.097,1.0832e-06,8.1388,1.6156e-12,-2.1661e-05,-1.0832e-06,-8.1389,0.093378
15313,4.046,3.7273,0,0.00048451,4841.8,0.00018643,-0.015117,0.00011302,-551.64,-0.00049153,-5094,0.093929
15314,3.954,3.8182,0,0.0004872,4868.6,0.00018786,-0.013114,0.00011291,-563.15,-0.00049433,-5125.7,0.089734
15315,4.046,3.8182,0.05,1.4055e-06,14.045,1.0793e-06,8.1091,2.718e-12,-1.5409e-05,-1.0793e-06,-8.1092,0.093744
15316,4.046,3.5455,0,0.00048306,4827.3,0.00018687,-0.018757,0.00011083,-571.42,-0.00049024,-5087.6,0.094181
15317,3.954,3.6364,0,0.0004855,4851.6,0.00018839,-0.017464,0.00011032,-586.62,-0.00049281,-5118.3,0.09002
15318,4.046,3.6364,0.05,1.4009e-06,13.999,1.0757e-06,8.0825,3.0919e-12,-5.7998e-06,-1.0757e-06,-8.0825,0.094033
15319,4.046,3.3636,0,0.00048203,4816.9,0.00018719,-0.021295,0.00010924,-585.71,-0.00048931,-5083,0.094361
15320,3.954,3.4545,0,0.00048422,4838.8,0.00018879,-0.020625,0.00010835,-604.47,-0.00049166,-5112.7,0.090232
15321,4.046,3.4545,0.05,1.3971e-06,13.962,1.0728e-06,8.0607,2.1775e-12,-5.0108e-06,-1.0728e-06,-8.0608,0.094249
15322,4.046,3.1818,0,0.0004814,4810.7,0.00018739,-0.022793,0.00010829,-594.35,-0.00048875,-5080.2,0.094468
15323,3.954,3.2727,0,0.00048336,4830.2,0.00018907,-0.022686,0.00010702,-616.48,-0.00049088,-5108.9,0.090374
15324,4.046,3.2727,0.05,1.3945e-06,13.935,1.0708e-06,8.0454,3.3263e-12,-2.5992e-06,-1.0708e-06,-8.0455,0.094392
15325,4.046,3,0,0.00048119,4808.6,0.00018745,-0.023289,0.00010797,-597.25,-0.00048856,-5079.3,0.094504
15326,3.954,3.0909,0,0.00048293,4825.9,0.0001892,-0.023703,0.00010635,-622.52,-0.0004905,-5107,0.090444
15327,4.046,3.0909,0.05,1.3931e-06,13.921,1.0697e-06,8.0375,3.5528e-12,-6.0432e-07,-1.0697e-06,-8.0376,0.094464
15328,4.046,2.8182,0,0.0004814,4810.7,0.00018739,-0.022793,0.00010829,-594.35,-0.00048875,-5080.2,0.094468
15329,3.954,2.9091,0,0.00048293,4825.9,0.0001892,-0.023702,0.00010635,-622.52,-0.0004905,-5107,0.090444
15330,4.046,2.9091,0.05,1.3931e-06,13.921,1.0697e-06,8.0375,3.7044e-12,5.0641e-07,-1.0697e-06,-8.0376,0.094464
15331,4.046,2.6364,0,0.00048203,4816.9,0.00018719,-0.021295,0.00010924,-585.71,-0.00048931,-5083,0.094361
15332,3.954,2.7273,0,0.00048336,4830.2,0.00018907,-0.022686,0.00010702,-616.48,-0.00049088,-5108.9,0.090374
15333,4.046,2.7273,0.05,1.3945e-06,13.935,1.0708e-06,8.0454,3.7725e-12,1.1957e-06,-1.0708e-06,-8.0455,0.094392
15334,4.046,2.4545,0,0.00048306,4827.3,0.00018687,-0.018757,0.00011083,-571.42,-0.00049024,-5087.6,0.094181
15335,3.954,2.5455,0,0.00048422,4838.8,0.00018879,-0.020625,0.00010835,-604.47,-0.00049166,-5112.7,0.090232
15336,4.046,2.5455,0.05,1.3971e-06,13.962,1.0728e-06,8.0607,1.2647e-12,7.6457e-06,-1.0728e-06,-8.0608,0.094249
15337,4.046,2.2727,0,0.00048451,4841.8,0.00018643,-0.015117,0.00011302,-551.64,-0.00049153,-5094,0.093929
15338,3.954,2.3636,0,0.0004855,4851.6,0.00018839,-0.017464,0.00011032,-586.62,-0.00049281,-5118.3,0.09002
15339,4.046,2.3636,0.05,1.4009e-06,13.999,1.0757e-06,8.0825,2.2807e-12,3.3617e-06,-1.0757e-06,-8.0825,0.094033
15340,4.046,2.0909,0,0.00048635,4860.2,0.00018587,-0.010283,0.00011579,-526.59,-0.00049317,-5102,0.093602
15341,3.954,2.1818,0,0.0004872,4868.6,0.00018786,-0.013114,0.00011291,-563.15,-0.00049433,-5125.7,0.089734
15342,4.046,2.1818,0.05,1.4055e-06,14.045,1.0793e-06,8.1092,9.9857e-13,4.6611e-06,-1.0793e-06,-8.1092,0.093744
15343,4.046,1.9091,0,0.00048858,4882.4,0.0001852,-0.0041321,0.00011911,-496.56,-0.00049513,-5111.7,0.093198
15344,3.954,2,0,0.0004893,4889.6,0.00018721,-0.0074555,0.0001161,-534.3,-0.00049619,-5134.8,0.089374
15345,4.046,2,0.05,1.4107e-06,14.097,1.0832e-06,8.1388,9.4808e-13,-7.8557e-08,-1.0832e-06,-8.1389,0.093378
15346,4.046,1.7273,0,0.00049117,4908.3,0.00018443,0.0035047,0.00012295,-461.9,-0.00049739,-5122.9,0.092716
15347,3.954,1.8182,0,0.00049179,4914.5,0.00018644,-0.00032598,0.00011984,-500.42,-0.00049838,-5145.5,0.088937
15348,4.046,1.8182,0.05,1.4159e-06,14.15,1.0873e-06,8.1692,1.5696e-13,4.9802e-06,-1.0873e-06,-8.1693,0.092936
15349,4.046,1.5455,0,0.0004941,4937.6,0.00018356,0.012891,0.00012726,-423.01,-0.00049993,-5135.5,0.092154
15350,3.954,1.6364,0,0.00049464,4943,0.00018558,0.008489,0.0001241,-461.89,-0.00050088,-5157.8,0.088422
15351,4.046,1.6364,0.05,1.4209e-06,14.199,1.0911e-06,8.1978,2.3589e-12,5.4824e-06,-1.0911e-06,-8.1978,0.092414
15352,4.046,1.3636,0,0.00049735,4970.1,0.00018261,0.024347,0.00013199,-380.32,-0.00050273,-5149.3,0.091507
15353,3.954,1.4545,0,0.00049785,4975.1,0.00018462,0.01936,0.00012883,-419.14,-0.00050365,-5171.4,0.087825
15354,4.046,1.4545,0.05,1.4251e-06,14.241,1.0943e-06,8.2219,8.7967e-13,5.9034e-06,-1.0943e-06,-8.2219,0.09181
15355,4.046,1.1818,0,0.0005009,5005.5,0.00018158,0.038742,0.00013708,-334.3,-0.00050574,-5164.2,0.090774
15356,3.954,1.2727,0,0.00050138,5010.3,0.00018357,0.032632,0.00013397,-372.68,-0.00050667,-5186.2,0.087143
15357,4.046,1.2727,0.05,1.428e-06,14.27,1.0965e-06,8.2388,7.4485e-13,1.9254e-05,-1.0965e-06,-8.2388,0.09112
15358,4.046,1,0,0.0005047,5043.5,0.00018049,0.056259,0.00014249,-285.47,-0.00050894,-5180.1,0.089951
15359,3.954,1.0909,0,0.00050519,5048.4,0.00018246,0.049859,0.00013946,-323.02,-0.00050991,-5202.1,0.086373
15360,4.046,1.0909,0.05,1.4293e-06,14.283,1.0975e-06,8.2461,7.7775e-13,4.8932e-06,-1.0975e-06,-8.2461,0.090342
15361,4.046,0.81818,0,0.00050872,5083.7,0.00017936,0.083225,0.00014816,-234.33,-0.0005123,-5196.7,0.089034
15362,3.954,0.90909,0,0.00050925,5089,0.00018129,0.070053,0.00014525,-270.69,-0.00051332,-5218.9,0.085512
15363,4.046,0.90909,0.05,1.4285e-06,14.275,1.0969e-06,8.2419,-7.3306e-13,2.1273e-05,-1.0969e-06,-8.2419,0.089473
15364,4.046,0.63636,0,0.00051293,5125.7,0.00017818,0.10844,0.00015402,-181.42,-0.00051577,-5214,0.08802
15365,3.954,0.72727,0,0.00051354,5131.8,0.00018008,0.10786,0.00015128,-216.27,-0.00051687,-5236.5,0.084555
15366,4.046,0.72727,0.05,1.4257e-06,14.247,1.0947e-06,8.2254,-1.7702e-12,5.1779e-06,-1.0947e-06,-8.2254,0.088507
15367,4.046,0.45455,0,0.00051729,5169.3,0.00017698,0.23756,0.00016003,-127.14,-0.00051933,-5231.6,0.086905
15368,3.954,0.54545,0,0.00051799,5176.3,0.00017883,0.12698,0.00015748,-160.29,-0.00052053,-5254.6,0.083499
15369,4.046,0.54545,0.05,1.4226e-06,14.216,1.0924e-06,8.2077,-8.4682e-13,2.2089e-05,-1.0924e-06,-8.2077,0.087443
15370,4.046,0.27273,0,0.00052183,5214.7,0.00017577,0.36557,0.00016619,-71.579,-0.00052301,-5250,0.085684
15371,3.954,0.36364,0,0.0005226,5222.4,0.00017757,0.39137,0.0001638,-103.11,-0.00052427,-5273,0.082339
15372,4.046,0.36364,0.05,1.4462e-06,14.452,1.1105e-06,8.3441,4.1793e-13,1.7529e-06,-1.1105e-06,-8.3441,0.086275
15373,3.954,0.18182,0,0.00052744,5270.8,0.00017631,0.54309,0.0001703,-44.609,-0.00052817,-5292.6,0.081072
15374,4.046,0.18182,0.05,1.974e-06,19.726,1.5158e-06,11.389,-2.5886e-13,1.0757e-05,-1.5158e-06,-11.389,0.085
15375,4.046,0.090909,0,0.00052567,5253.1,0.00017463,0.29663,0.00017154,-22.924,-0.00052605,-5264.4,0.084354
15376,3.8621,5.7273,0,0.0005282,5278.4,0.00017809,0.4107,0.00016793,-75.904,-0.00052945,-5315.7,0.077843
15377,3.7701,5.8182,0,0.00053403,5336.7,0.00017858,0.63415,0.00017231,-46.465,-0.0005348,-5359.4,0.073418
15378,3.8621,5.8182,0.05,2.1297e-06,21.283,1.6354e-06,12.288,1.9254e-12,-3.4028e-05,-1.6354e-06,-12.288,0.077167
15379,3.8621,5.9091,0,0.00053226,5318.9,0.00017685,0.32194,0.00017364,-23.785,-0.00053266,-5330.6,0.076528
15380,3.8621,5.5455,0,0.0005233,5229.3,0.00017941,0.26128,0.00016125,-136.17,-0.00052547,-5296,0.079048
15381,3.7701,5.6364,0,0.00052879,5284.2,0.00017995,0.43028,0.00016526,-109.94,-0.00053056,-5338.1,0.074668
15382,3.8621,5.6364,0.05,1.4968e-06,14.958,1.1494e-06,8.6358,-2.221e-13,-8.1466e-05,-1.1494e-06,-8.6359,0.078426
15383,3.8621,5.3636,0,0.0005186,5182.4,0.00018072,0.11972,0.00015474,-195.07,-0.00052164,-5277.1,0.080146
15384,3.7701,5.4545,0,0.00052383,5234.7,0.00018132,0.14074,0.00015842,-171.95,-0.00052654,-5318.4,0.07581
15385,3.8621,5.4545,0.05,1.4689e-06,14.679,1.1279e-06,8.4748,-2.5646e-12,-8.4353e-05,-1.1279e-06,-8.475,0.079578
15386,3.8621,5.1818,0,0.00051407,5137.2,0.00018201,0.091584,0.00014838,-252.56,-0.0005179,-5258.7,0.081144
15387,3.7701,5.2727,0,0.00051903,5186.7,0.00018269,0.11873,0.0001517,-232.74,-0.0005226,-5299.1,0.076848
15388,3.8621,5.2727,0.05,1.4728e-06,14.717,1.1309e-06,8.497,-2.0307e-12,-8.0331e-05,-1.1309e-06,-8.4972,0.080625
15389,3.8621,5,0,0.00050975,5094,0.00018326,0.061912,0.00014223,-308.18,-0.00051429,-5241,0.082043
15390,3.7701,5.0909,0,0.00051443,5140.8,0.00018402,0.077137,0.00014516,-291.92,-0.00051878,-5280.5,0.077786
15391,3.8621,5.0909,0.05,1.4765e-06,14.754,1.1337e-06,8.5184,-2.4058e-14,-5.7753e-05,-1.1337e-06,-8.5185,0.081573
15392,3.8621,4.8182,0,0.00050567,5053.2,0.00018445,0.042643,0.00013636,-361.34,-0.00051084,-5224.1,0.08285
15393,3.7701,4.9091,0,0.00051007,5097.2,0.00018531,0.05486,0.00013887,-348.87,-0.00051511,-5262.6,0.07863
15394,3.8621,4.9091,0.05,1.4777e-06,14.767,1.1347e-06,8.5255,2.7564e-12,-7.0751e-05,-1.1347e-06,-8.5257,0.082426
15395,3.8621,4.6364,0,0.00050187,5015.3,0.00018558,0.026877,0.00013082,-411.47,-0.0005076,-5208.3,0.083567
15396,3.7701,4.7273,0,0.00050599,5056.4,0.00018654,0.035958,0.0001329,-402.96,-0.00051163,-5245.8,0.079382
15397,3.8621,4.7273,0.05,1.4766e-06,14.756,1.1339e-06,8.5193,-1.8214e-12,-6.1441e-05,-1.1339e-06,-8.5195,0.083188
15398,3.8621,4.4545,0,0.00049839,4980.5,0.00018664,0.014386,0.00012568,-457.99,-0.0005046,-5193.7,0.084198
15399,3.7701,4.5455,0,0.00050222,5018.7,0.00018769,0.021458,0.00012732,-453.59,-0.00050839,-5230.1,0.080047
15400,3.8621,4.5455,0.05,1.4736e-06,14.726,1.1316e-06,8.5021,2.0619e-12,-4.0658e-05,-1.1316e-06,-8.5022,0.083862
15401,3.8621,4.2727,0,0.00049526,4949.2,0.0001876,0.0042093,0.000121,-500.39,-0.00050187,-5180.4,0.084747
15402,3.7701,4.3636,0,0.0004988,4984.5,0.00018876,0.0096516,0.00012219,-500.16,-0.00050542,-5215.8,0.080629
15403,3.8621,4.3636,0.05,1.4692e-06,14.682,1.1282e-06,8.4766,-1.5074e-13,-2.3704e-05,-1.1282e-06,-8.4767,0.084451
15404,3.8621,4.0909,0,0.0004925,4921.6,0.00018845,-0.0040181,0.00011683,-538.16,-0.00049945,-5168.6,0.085216
15405,3.7701,4.1818,0,0.00049576,4954.1,0.00018972,0.00014436,0.00011756,-542.15,-0.00050275,-5202.9,0.08113
15406,3.8621,4.1818,0.05,1.4639e-06,14.629,1.1241e-06,8.446,1.1245e-12,-2.1823e-05,-1.1241e-06,-8.4461,0.08496
15407,3.8621,3.9091,0,0.00049014,4898,0.0001892,-0.010601,0.00011322,-570.88,-0.00049735,-5158.4,0.085609
15408,3.7701,4,0,0.00049311,4927.7,0.00019057,-0.0074865,0.0001135,-579.06,-0.0005004,-5191.7,0.081555
15409,3.8621,4,0.05,1.4582e-06,14.572,1.1198e-06,8.4134,2.6471e-12,-1.0878e-05,-1.1198e-06,-8.4134,0.085391
15410,3.8621,3.7273,0,0.00048818,4878.5,0.00018982,-0.015739,0.00011021,-598.17,-0.0004956,-5150,0.085927
15411,3.7701,3.8182,0,0.00049089,4905.5,0.00019129,-0.013496,0.00011004,-610.48,-0.00049841,-5182.2,0.081904
15412,3.8621,3.8182,0.05,1.4527e-06,14.517,1.1155e-06,8.3815,2.2707e-12,-8.3021e-06,-1.1155e-06,-8.3815,0.085746
15413,3.8621,3.5455,0,0.00048665,4863.1,0.00019031,-0.019585,0.00010783,-619.72,-0.00049422,-5143.3,0.086172
15414,3.7701,3.6364,0,0.00048909,4887.6,0.00019188,-0.018082,0.00010723,-636.04,-0.0004968,-5174.5,0.082181
15415,3.8621,3.6364,0.05,1.4478e-06,14.468,1.1117e-06,8.3529,2.7253e-12,-9.0242e-06,-1.1117e-06,-8.353,0.086027
15416,3.8621,3.3636,0,0.00048555,4852.1,0.00019066,-0.022253,0.00010612,-635.29,-0.00049323,-5138.5,0.086346
15417,3.7701,3.4545,0,0.00048774,4874,0.00019232,-0.021393,0.00010509,-655.46,-0.00049557,-5168.6,0.082387
15418,3.8621,3.4545,0.05,1.4437e-06,14.427,1.1086e-06,8.3296,3.1739e-12,-5.4652e-06,-1.1086e-06,-8.3297,0.086237
15419,3.8621,3.1818,0,0.00048489,4845.5,0.00019088,-0.023822,0.00010508,-644.7,-0.00049262,-5135.6,0.08645
15420,3.7701,3.2727,0,0.00048683,4865,0.00019263,-0.023541,0.00010365,-668.53,-0.00049475,-5164.7,0.082524
15421,3.8621,3.2727,0.05,1.4409e-06,14.399,1.1064e-06,8.3133,3.2505e-12,-1.7614e-06,-1.1064e-06,-8.3133,0.086376
15422,3.8621,3,0,0.00048467,4843.3,0.00019095,-0.02434,0.00010473,-647.85,-0.00049242,-5134.6,0.086485
15423,3.7701,3.0909,0,0.00048638,4860.5,0.00019278,-0.024597,0.00010293,-675.1,-0.00049433,-5162.7,0.082592
15424,3.8621,3.0909,0.05,1.4394e-06,14.385,1.1053e-06,8.3048,2.6272e-12,-7.7592e-07,-1.1053e-06,-8.305,0.086445
15425,3.8621,2.8182,0,0.00048489,4845.5,0.00019088,-0.023822,0.00010508,-644.7,-0.00049262,-5135.6,0.08645
15426,3.7701,2.9091,0,0.00048638,4860.5,0.00019278,-0.024597,0.00010293,-675.1,-0.00049433,-5162.7,0.082592
15427,3.8621,2.9091,0.05,1.4394e-06,14.385,1.1053e-06,8.3048,1.8808e-12,4.1542e-07,-1.1053e-06,-8.305,0.086445
15428,3.8621,2.6364,0,0.00048555,4852.1,0.00019066,-0.022253,0.00010612,-635.29,-0.00049323,-5138.5,0.086346
15429,3.7701,2.7273,0,0.00048683,4865,0.00019263,-0.023541,0.00010365,-668.53,-0.00049475,-5164.7,0.082524
15430,3.8621,2.7273,0.05,1.4409e-06,14.399,1.1064e-06,8.3133,1.9927e-12,1.7613e-06,-1.1064e-06,-8.3133,0.086376
15431,3.8621,2.4545,0,0.00048665,4863.1,0.00019031,-0.019585,0.00010783,-619.72,-0.00049422,-5143.3,0.086172
15432,3.7701,2.5455,0,0.00048774,4874,0.00019232,-0.021393,0.00010509,-655.46,-0.00049557,-5168.6,0.082387
15433,3.8621,2.5455,0.05,1.4437e-06,14.427,1.1086e-06,8.3296,2.1894e-12,1.455e-06,-1.1086e-06,-8.3297,0.086237
15434,3.8621,2.2727,0,0.00048818,4878.5,0.00018982,-0.015738,0.00011021,-598.17,-0.0004956,-5150,0.085927
15435,3.7701,2.3636,0,0.00048909,4887.6,0.00019188,-0.018082,0.00010723,-636.04,-0.0004968,-5174.5,0.082181
15436,3.8621,2.3636,0.05,1.4478e-06,14.468,1.1117e-06,8.3529,1.9288e-12,3.9468e-06,-1.1117e-06,-8.3529,0.086027
15437,3.8621,2.0909,0,0.00049014,4898,0.0001892,-0.0106,0.00011322,-570.88,-0.00049735,-5158.4,0.085609
15438,3.7701,2.1818,0,0.00049089,4905.5,0.00019129,-0.013496,0.00011004,-610.48,-0.00049841,-5182.2,0.081904
15439,3.8621,2.1818,0.05,1.4527e-06,14.517,1.1155e-06,8.3815,2.3335e-12,1.0399e-06,-1.1155e-06,-8.3815,0.085746
15440,3.8621,1.9091,0,0.0004925,4921.6,0.00018845,-0.0040177,0.00011683,-538.16,-0.00049945,-5168.6,0.085216
15441,3.7701,2,0,0.00049311,4927.7,0.00019057,-0.0074863,0.0001135,-579.06,-0.0005004,-5191.7,0.081555
15442,3.8621,2,0.05,1.4582e-06,14.572,1.1197e-06,8.4134,-5.5812e-14,6.9397e-06,-1.1198e-06,-8.4134,0.085391
15443,3.8621,1.7273,0,0.00049526,4949.2,0.0001876,0.0042098,0.000121,-500.39,-0.00050187,-5180.4,0.084747
15444,3.7701,1.8182,0,0.00049576,4954.1,0.00018972,0.00014487,0.00011756,-542.15,-0.00050275,-5202.9,0.08113
15445,3.8621,1.8182,0.05,1.4639e-06,14.629,1.1241e-06,8.446,1.091e-12,-3.0674e-06,-1.1241e-06,-8.4461,0.08496
15446,3.8621,1.5455,0,0.00049839,4980.5,0.00018664,0.014387,0.00012568,-457.99,-0.0005046,-5193.7,0.084198
15447,3.7701,1.6364,0,0.0004988,4984.5,0.00018876,0.0096521,0.00012219,-500.16,-0.00050542,-5215.8,0.080629
15448,3.8621,1.6364,0.05,1.4692e-06,14.682,1.1282e-06,8.4767,6.8433e-13,5.7406e-06,-1.1282e-06,-8.4767,0.084451
15449,3.8621,1.3636,0,0.00050187,5015.3,0.00018558,0.026877,0.00013082,-411.47,-0.0005076,-5208.3,0.083567
15450,3.7701,1.4545,0,0.00050222,5018.7,0.00018769,0.021458,0.00012732,-453.59,-0.00050839,-5230.1,0.080047
15451,3.8621,1.4545,0.05,1.4736e-06,14.726,1.1316e-06,8.5021,7.3462e-13,1.2226e-05,-1.1316e-06,-8.5021,0.083862
15452,3.8621,1.1818,0,0.00050567,5053.2,0.00018445,0.042644,0.00013636,-361.34,-0.00051084,-5224.1,0.08285
15453,3.7701,1.2727,0,0.00050599,5056.4,0.00018654,0.035959,0.0001329,-402.96,-0.00051163,-5245.8,0.079382
15454,3.8621,1.2727,0.05,1.4766e-06,14.756,1.1339e-06,8.5194,7.7502e-13,6.5014e-06,-1.1339e-06,-8.5194,0.083188
15455,3.8621,1,0,0.00050975,5094,0.00018326,0.061912,0.00014223,-308.18,-0.00051429,-5241,0.082043
15456,3.7701,1.0909,0,0.00051007,5097.2,0.00018531,0.05486,0.00013887,-348.87,-0.00051511,-5262.6,0.07863
15457,3.8621,1.0909,0.05,1.4777e-06,14.767,1.1347e-06,8.5256,2.5623e-12,3.3832e-06,-1.1347e-06,-8.5256,0.082426
15458,3.8621,0.81818,0,0.00051407,5137.2,0.00018201,0.091585,0.00014838,-252.56,-0.0005179,-5258.7,0.081144
15459,3.7701,0.90909,0,0.00051443,5140.8,0.00018402,0.077138,0.00014516,-291.92,-0.00051878,-5280.5,0.077786
15460,3.8621,0.90909,0.05,1.4765e-06,14.754,1.1337e-06,8.5184,8.3066e-13,3.484e-06,-1.1337e-06,-8.5184,0.081573
15461,3.8621,0.63636,0,0.0005186,5182.4,0.00018072,0.11972,0.00015474,-195.07,-0.00052164,-5277.1,0.080146
15462,3.7701,0.72727,0,0.00051903,5186.7,0.00018269,0.11873,0.0001517,-232.74,-0.0005226,-5299.1,0.076848
15463,3.8621,0.72727,0.05,1.4728e-06,14.717,1.1309e-06,8.4971,2.1209e-13,5.3374e-06,-1.1309e-06,-8.4971,0.080625
15464,3.8621,0.45455,0,0.0005233,5229.3,0.00017941,0.26128,0.00016125,-136.17,-0.00052547,-5296,0.079048
15465,3.7701,0.54545,0,0.00052383,5234.7,0.00018132,0.14074,0.00015842,-171.95,-0.00052654,-5318.4,0.07581
15466,3.8621,0.54545,0.05,1.4689e-06,14.679,1.1279e-06,8.4749,2.7275e-12,5.4139e-06,-1.1279e-06,-8.4749,0.079578
15467,3.8621,0.27273,0,0.0005282,5278.4,0.00017809,0.4107,0.00016793,-75.904,-0.00052945,-5315.7,0.077843
15468,3.7701,0.36364,0,0.00052879,5284.2,0.00017995,0.43028,0.00016526,-109.94,-0.00053056,-5338.1,0.074668
15469,3.8621,0.36364,0.05,1.4968e-06,14.958,1.1494e-06,8.6359,-1.9952e-12,2.5763e-05,-1.1494e-06,-8.6358,0.078426
15470,3.7701,0.18182,0,0.00053403,5336.7,0.00017858,0.63415,0.00017231,-46.466,-0.0005348,-5359.4,0.073418
15471,3.8621,0.18182,0.05,2.1297e-06,21.283,1.6354e-06,12.288,1.739e-13,2.463e-05,-1.6354e-06,-12.288,0.077167
15472,3.8621,0.090909,0,0.00053226,5318.9,0.00017685,0.32194,0.00017364,-23.785,-0.00053266,-5330.6,0.076528
15473,3.6782,5.7273,0,0.00053462,5342.5,0.00018042,0.46273,0.00016968,-80.227,-0.00053593,-5381.9,0.07036
15474,3.5862,5.8182,0,0.00054069,5403.1,0.00018086,0.74576,0.00017437,-48.08,-0.00054147,-5426.6,0.066124
15475,3.6782,5.8182,0.05,2.2953e-06,22.937,1.7625e-06,13.243,5.5707e-13,-4.3918e-05,-1.7625e-06,-13.243,0.069692
15476,3.6782,5.9091,0,0.00053889,5385.2,0.00017907,0.3504,0.00017577,-24.476,-0.0005393,-5397.2,0.069063
15477,3.6782,5.5455,0,0.00052932,5289.5,0.00018186,0.2876,0.00016244,-145.63,-0.00053164,-5360.7,0.071546
15478,3.5862,5.6364,0,0.000535,5346.3,0.00018235,0.47355,0.00016672,-116.98,-0.00053688,-5403.6,0.067355
15479,3.6782,5.6364,0.05,1.5511e-06,15.5,1.1911e-06,8.9491,-7.3145e-13,-9.0796e-05,-1.1911e-06,-8.9492,0.070933
15480,3.6782,5.3636,0,0.00052426,5239,0.00018329,0.13226,0.00015539,-209.54,-0.00052751,-5340.5,0.072625
15481,3.5862,5.4545,0,0.00052966,5292.9,0.00018385,0.15614,0.0001593,-184.25,-0.00053255,-5382.6,0.068476
15482,3.6782,5.4545,0.05,1.5194e-06,15.183,1.1667e-06,8.7661,-3.6284e-12,-7.0451e-05,-1.1667e-06,-8.7662,0.072066
15483,3.6782,5.1818,0,0.00051939,5190.4,0.00018471,0.10082,0.00014849,-272.03,-0.00052348,-5321,0.073603
15484,3.5862,5.2727,0,0.00052451,5241.4,0.00018535,0.13076,0.00015202,-250.29,-0.00052831,-5362,0.069493
15485,3.6782,5.2727,0.05,1.5244e-06,15.234,1.1706e-06,8.7952,-6.9496e-12,-6.8679e-05,-1.1706e-06,-8.7953,0.073094
15486,3.6782,5,0,0.00051476,5144,0.00018608,0.068145,0.00014181,-332.54,-0.0005196,-5302.2,0.074483
15487,3.5862,5.0909,0,0.00051957,5192.1,0.00018682,0.084962,0.00014492,-314.66,-0.0005242,-5342.2,0.070411
15488,3.6782,5.0909,0.05,1.5293e-06,15.282,1.1743e-06,8.8232,-2.7464e-12,-6.3952e-05,-1.1743e-06,-8.8233,0.074022
15489,3.6782,4.8182,0,0.00051039,5100.4,0.0001874,0.046943,0.00013543,-390.43,-0.00051591,-5284.3,0.075271
15490,3.5862,4.9091,0,0.0005149,5145.4,0.00018824,0.060366,0.0001381,-376.67,-0.00052027,-5323.4,0.071234
15491,3.6782,4.9091,0.05,1.5313e-06,15.302,1.1758e-06,8.8347,2.4993e-12,-4.3564e-05,-1.1758e-06,-8.8348,0.074856
15492,3.6782,4.6364,0,0.00050633,5059.8,0.00018865,0.029684,0.00012942,-445.04,-0.00051243,-5267.6,0.07597
15493,3.5862,4.7273,0,0.00051053,5101.8,0.00018959,0.039627,0.00013162,-435.59,-0.00051655,-5305.6,0.071966
15494,3.6782,4.7273,0.05,1.5306e-06,15.295,1.1753e-06,8.8306,-3.1949e-12,-5.5398e-05,-1.1753e-06,-8.8307,0.075599
15495,3.6782,4.4545,0,0.00050262,5022.8,0.00018982,0.016087,0.00012384,-495.73,-0.00050922,-5252.2,0.076584
15496,3.5862,4.5455,0,0.00050652,5061.7,0.00019087,0.023802,0.00012555,-490.74,-0.00051308,-5289.2,0.072613
15497,3.6782,4.5455,0.05,1.5276e-06,15.266,1.173e-06,8.8138,-1.3634e-12,-3.1419e-05,-1.173e-06,-8.8138,0.076255
15498,3.6782,4.2727,0,0.00049929,4989.5,0.00019088,0.0050869,0.00011875,-541.92,-0.0005063,-5238.3,0.077117
15499,3.5862,4.3636,0,0.00050289,5025.4,0.00019205,0.011014,0.00011998,-541.48,-0.0005099,-5274.2,0.073177
15500,3.6782,4.3636,0.05,1.5231e-06,15.22,1.1695e-06,8.7875,9.3121e-13,-2.9245e-05,-1.1695e-06,-8.7876,0.076829
15501,3.6782,4.0909,0,0.00049636,4960.2,0.00019183,-0.0037344,0.00011423,-583.06,-0.0005037,-5226,0.077572
15502,3.5862,4.1818,0,0.00049966,4993.2,0.00019312,0.00080611,0.00011497,-587.2,-0.00050705,-5260.8,0.073663
15503,3.6782,4.1818,0.05,1.5175e-06,15.165,1.1653e-06,8.7554,-1.2116e-12,-2.3998e-05,-1.1653e-06,-8.7555,0.077323
15504,3.6782,3.9091,0,0.00049386,4935.2,0.00019266,-0.010732,0.00011032,-618.69,-0.00050147,-5215.4,0.077952
15505,3.5862,4,0,0.00049687,4965.3,0.00019406,-0.0073093,0.00011056,-627.38,-0.00050456,-5249.2,0.074073
15506,3.6782,4,0.05,1.5116e-06,15.105,1.1607e-06,8.721,1.6668e-12,-1.8811e-05,-1.1607e-06,-8.7211,0.07774
15507,3.6782,3.7273,0,0.0004918,4914.6,0.00019335,-0.016148,0.00010705,-648.39,-0.00049961,-5206.6,0.07826
15508,3.5862,3.8182,0,0.00049453,4941.9,0.00019486,-0.013638,0.00010682,-661.55,-0.00050245,-5239.3,0.074411
15509,3.6782,3.8182,0.05,1.5058e-06,15.047,1.1562e-06,8.6875,2.6077e-12,-9.5286e-06,-1.1562e-06,-8.6876,0.078084
15510,3.6782,3.5455,0,0.00049018,4898.4,0.00019389,-0.020171,0.00010448,-671.84,-0.00049814,-5199.7,0.078497
15511,3.5862,3.6364,0,0.00049264,4923,0.00019552,-0.018422,0.00010377,-689.34,-0.00050073,-5231.4,0.074678
15512,3.6782,3.6364,0.05,1.5006e-06,14.995,1.1523e-06,8.6576,2.2824e-12,-4.5729e-06,-1.1523e-06,-8.6576,0.078356
15513,3.6782,3.3636,0,0.00048902,4886.9,0.00019429,-0.022944,0.00010262,-688.77,-0.00049709,-5194.7,0.078666
15514,3.5862,3.4545,0,0.00049122,4908.8,0.00019601,-0.021847,0.00010146,-710.44,-0.00049944,-5225.4,0.074877
15515,3.6782,3.4545,0.05,1.4964e-06,14.953,1.149e-06,8.6333,2.0309e-12,-6.2414e-06,-1.149e-06,-8.6335,0.078559
15516,3.6782,3.1818,0,0.00048833,4879.9,0.00019453,-0.024567,0.0001015,-699,-0.00049645,-5191.7,0.078766
15517,3.5862,3.2727,0,0.00049028,4899.4,0.00019635,-0.024054,9.9911e-05,-724.63,-0.00049857,-5221.4,0.075009
15518,3.6782,3.2727,0.05,1.4934e-06,14.924,1.1468e-06,8.6164,3.3594e-12,-1.8588e-06,-1.1468e-06,-8.6164,0.078693
15519,3.6782,3,0,0.0004881,4877.6,0.00019461,-0.025102,0.00010112,-702.42,-0.00049624,-5190.7,0.078799
15520,3.5862,3.0909,0,0.0004898,4894.6,0.00019652,-0.025134,9.9131e-05,-731.77,-0.00049813,-5219.3,0.075074
15521,3.6782,3.0909,0.05,1.4919e-06,14.909,1.1456e-06,8.6076,2.628e-12,-7.6394e-07,-1.1456e-06,-8.6077,0.07876
15522,3.6782,2.8182,0,0.00048833,4879.9,0.00019453,-0.024567,0.0001015,-699,-0.00049645,-5191.7,0.078766
15523,3.5862,2.9091,0,0.0004898,4894.6,0.00019652,-0.025134,9.9131e-05,-731.77,-0.00049813,-5219.3,0.075074
15524,3.6782,2.9091,0.05,1.4919e-06,14.909,1.1456e-06,8.6076,2.7947e-12,5.0156e-07,-1.1456e-06,-8.6077,0.07876
15525,3.6782,2.6364,0,0.00048902,4886.9,0.00019429,-0.022944,0.00010262,-688.77,-0.00049709,-5194.7,0.078666
15526,3.5862,2.7273,0,0.00049028,4899.4,0.00019635,-0.024054,9.9911e-05,-724.63,-0.00049857,-5221.4,0.075009
15527,3.6782,2.7273,0.05,1.4934e-06,14.924,1.1468e-06,8.6164,2.9461e-12,1.8588e-06,-1.1468e-06,-8.6164,0.078693
15528,3.6782,2.4545,0,0.00049018,4898.4,0.00019389,-0.020171,0.00010448,-671.84,-0.00049814,-5199.7,0.078497
15529,3.5862,2.5455,0,0.00049122,4908.8,0.00019601,-0.021847,0.00010146,-710.44,-0.00049944,-5225.4,0.074877
15530,3.6782,2.5455,0.05,1.4964e-06,14.953,1.149e-06,8.6334,1.1309e-12,1.4476e-06,-1.149e-06,-8.6334,0.078559
15531,3.6782,2.2727,0,0.0004918,4914.6,0.00019335,-0.016148,0.00010705,-648.39,-0.00049961,-5206.6,0.07826
15532,3.5862,2.3636,0,0.00049264,4923,0.00019552,-0.018421,0.00010377,-689.34,-0.00050073,-5231.4,0.074678
15533,3.6782,2.3636,0.05,1.5006e-06,14.995,1.1523e-06,8.6576,2.3599e-12,4.1572e-06,-1.1523e-06,-8.6576,0.078356
15534,3.6782,2.0909,0,0.00049386,4935.2,0.00019266,-0.010732,0.00011032,-618.69,-0.00050147,-5215.4,0.077952
15535,3.5862,2.1818,0,0.00049453,4941.9,0.00019486,-0.013637,0.00010682,-661.55,-0.00050245,-5239.3,0.074411
15536,3.6782,2.1818,0.05,1.5058e-06,15.047,1.1562e-06,8.6876,3.2502e-12,5.6878e-06,-1.1562e-06,-8.6876,0.078084
15537,3.6782,1.9091,0,0.00049636,4960.2,0.00019183,-0.003734,0.00011423,-583.06,-0.0005037,-5226,0.077572
15538,3.5862,2,0,0.00049687,4965.3,0.00019406,-0.007309,0.00011056,-627.38,-0.00050456,-5249.2,0.074073
15539,3.6782,2,0.05,1.5116e-06,15.105,1.1607e-06,8.7211,2.3345e-12,6.0692e-06,-1.1607e-06,-8.7211,0.07774
15540,3.6782,1.7273,0,0.00049929,4989.5,0.00019088,0.0050874,0.00011875,-541.92,-0.0005063,-5238.3,0.077117
15541,3.5862,1.8182,0,0.00049966,4993.2,0.00019312,0.00080651,0.00011497,-587.2,-0.00050705,-5260.8,0.073663
15542,3.6782,1.8182,0.05,1.5175e-06,15.165,1.1653e-06,8.7554,-1.3925e-12,5.4745e-06,-1.1653e-06,-8.7554,0.077323
15543,3.6782,1.5455,0,0.00050262,5022.8,0.00018982,0.016087,0.00012384,-495.73,-0.00050922,-5252.2,0.076584
15544,3.5862,1.6364,0,0.00050289,5025.4,0.00019205,0.011015,0.00011998,-541.48,-0.0005099,-5274.2,0.073177
15545,3.6782,1.6364,0.05,1.5231e-06,15.22,1.1695e-06,8.7875,7.1429e-13,5.9919e-06,-1.1695e-06,-8.7875,0.076829
15546,3.6782,1.3636,0,0.00050633,5059.8,0.00018865,0.029684,0.00012942,-445.04,-0.00051243,-5267.6,0.07597
15547,3.5862,1.4545,0,0.00050652,5061.7,0.00019087,0.023803,0.00012555,-490.74,-0.00051308,-5289.2,0.072613
15548,3.6782,1.4545,0.05,1.5276e-06,15.266,1.173e-06,8.8138,9.5534e-13,6.4112e-06,-1.173e-06,-8.8138,0.076255
15549,3.6782,1.1818,0,0.00051039,5100.4,0.0001874,0.046944,0.00013543,-390.43,-0.00051591,-5284.3,0.075271
15550,3.5862,1.2727,0,0.00051053,5101.8,0.00018959,0.039628,0.00013162,-435.59,-0.00051655,-5305.6,0.071966
15551,3.6782,1.2727,0.05,1.5306e-06,15.295,1.1753e-06,8.8306,8.0349e-13,6.7402e-06,-1.1753e-06,-8.8307,0.075599
15552,3.6782,1,0,0.00051476,5144,0.00018608,0.068146,0.00014181,-332.54,-0.0005196,-5302.2,0.074483
15553,3.5862,1.0909,0,0.0005149,5145.4,0.00018824,0.060367,0.0001381,-376.67,-0.00052027,-5323.4,0.071234
15554,3.6782,1.0909,0.05,1.5313e-06,15.302,1.1758e-06,8.8347,1.7393e-12,6.9899e-06,-1.1758e-06,-8.8347,0.074856
15555,3.6782,0.81818,0,0.00051939,5190.4,0.00018471,0.10082,0.00014849,-272.03,-0.00052348,-5321,0.073603
15556,3.5862,0.90909,0,0.00051957,5192.1,0.00018682,0.084964,0.00014492,-314.66,-0.0005242,-5342.2,0.070411
15557,3.6782,0.90909,0.05,1.5293e-06,15.282,1.1743e-06,8.8233,-3.6421e-13,3.5865e-06,-1.1743e-06,-8.8233,0.074022
15558,3.6782,0.63636,0,0.00052426,5239,0.00018329,0.13226,0.00015539,-209.54,-0.00052751,-5340.5,0.072625
15559,3.5862,0.72727,0,0.00052451,5241.4,0.00018535,0.13076,0.00015202,-250.29,-0.00052831,-5362,0.069493
15560,3.6782,0.72727,0.05,1.5244e-06,15.234,1.1706e-06,8.7953,-1.0403e-12,2.8383e-05,-1.1706e-06,-8.7953,0.073094
15561,3.6782,0.45455,0,0.00052932,5289.5,0.00018186,0.2876,0.00016244,-145.63,-0.00053164,-5360.7,0.071546
15562,3.5862,0.54545,0,0.00052966,5292.9,0.00018385,0.15614,0.0001593,-184.25,-0.00053255,-5382.6,0.068476
15563,3.6782,0.54545,0.05,1.5194e-06,15.183,1.1667e-06,8.7662,-2.2749e-12,5.5394e-06,-1.1667e-06,-8.7662,0.072066
15564,3.6782,0.27273,0,0.00053462,5342.5,0.00018042,0.46273,0.00016968,-80.227,-0.00053593,-5381.9,0.07036
15565,3.5862,0.36364,0,0.000535,5346.3,0.00018235,0.47355,0.00016672,-116.98,-0.00053688,-5403.6,0.067355
15566,3.6782,0.36364,0.05,1.5511e-06,15.5,1.1911e-06,8.9492,4.1866e-12,1.8385e-06,-1.1911e-06,-8.9492,0.070933
15567,3.5862,0.18182,0,0.00054069,5403.1,0.00018086,0.74576,0.00017437,-48.08,-0.00054147,-5426.6,0.066124
15568,3.6782,0.18182,0.05,2.2953e-06,22.937,1.7625e-06,13.243,-1.5e-12,1.391e-05,-1.7625e-06,-13.243,0.069692
15569,3.6782,0.090909,0,0.00053889,5385.2,0.00017907,0.3504,0.00017577,-24.476,-0.0005393,-5397.2,0.069063
15570,3.4943,5.7273,0,0.00054106,5406.9,0.00018276,0.52305,0.00017145,-84.507,-0.00054244,-5448.4,0.063238
15571,3.4023,5.8182,0,0.00054738,5470.1,0.00018315,0.88395,0.00017646,-49.388,-0.00054819,-5494.1,0.059196
15572,3.4943,5.8182,0.05,2.4708e-06,24.691,1.8973e-06,14.255,3.2947e-12,-4.4529e-05,-1.8973e-06,-14.256,0.062581
15573,3.4943,5.9091,0,0.00054555,5451.8,0.0001813,0.38269,0.00017793,-24.95,-0.00054597,-5464,0.061962
15574,3.4943,5.5455,0,0.00053534,5349.7,0.00018433,0.31685,0.0001636,-155.5,-0.00053781,-5425.6,0.064402
15575,3.4023,5.6364,0,0.00054121,5408.4,0.00018476,0.52181,0.00016816,-124.22,-0.00054321,-5469.2,0.060404
15576,3.4943,5.6364,0.05,1.6094e-06,16.083,1.2358e-06,9.2854,-7.3726e-12,-9.8305e-05,-1.2358e-06,-9.2855,0.063801
15577,3.4943,5.3636,0,0.0005299,5295.3,0.0001859,0.14623,0.00015595,-224.9,-0.00053336,-5404.1,0.065459
15578,3.4023,5.4545,0,0.00053547,5351,0.0001864,0.17342,0.00016013,-197.22,-0.00053855,-5446.8,0.061502
15579,3.4943,5.4545,0.05,1.5745e-06,15.734,1.209e-06,9.0843,-1.0373e-11,-5.0566e-05,-1.2091e-06,-9.0843,0.064911
15580,3.4943,5.1818,0,0.00052468,5243.2,0.00018746,0.11103,0.00014847,-292.84,-0.00052904,-5383.4,0.066415
15581,3.4023,5.2727,0,0.00052994,5295.7,0.00018805,0.1441,0.00015223,-268.99,-0.000534,-5425,0.062495
15582,3.4943,5.2727,0.05,1.5813e-06,15.802,1.2142e-06,9.1233,-6.1665e-12,-9.6054e-05,-1.2142e-06,-9.1234,0.065917
15583,3.4943,5,0,0.00051971,5193.5,0.00018897,0.075016,0.00014122,-358.71,-0.00052488,-5363.5,0.067273
15584,3.4023,5.0909,0,0.00052465,5242.9,0.00018966,0.093603,0.00014453,-339.05,-0.00052959,-5404.1,0.063389
15585,3.4943,5.0909,0.05,1.5877e-06,15.866,1.2192e-06,9.1603,-5.3976e-12,-2.2321e-05,-1.2192e-06,-9.1603,0.066823
15586,3.4943,4.8182,0,0.00051504,5146.9,0.00019043,0.051675,0.00013429,-421.76,-0.00052092,-5344.7,0.068039
15587,3.4023,4.9091,0,0.00051965,5193,0.00019124,0.066419,0.00013711,-406.58,-0.00052537,-5384.3,0.064189
15588,3.4943,4.9091,0.05,1.5907e-06,15.896,1.2215e-06,9.1777,-4.2151e-13,-4.7801e-05,-1.2215e-06,-9.1777,0.067635
15589,3.4943,4.6364,0,0.00051072,5103.7,0.00019182,0.032791,0.00012776,-481.25,-0.0005172,-5327.2,0.068718
15590,3.4023,4.7273,0,0.00051501,5146.5,0.00019274,0.043663,0.00013008,-470.78,-0.0005214,-5365.7,0.064899
15591,3.4943,4.7273,0.05,1.5906e-06,15.895,1.2214e-06,9.1768,-1.7317e-12,-5.7541e-05,-1.2214e-06,-9.177,0.068357
15592,3.4943,4.4545,0,0.00050678,5064.3,0.00019311,0.018019,0.00012171,-536.47,-0.00051377,-5311.2,0.069313
15593,3.4023,4.5455,0,0.00051074,5103.9,0.00019416,0.026417,0.0001235,-530.86,-0.0005177,-5348.6,0.065525
15594,3.4943,4.5455,0.05,1.5879e-06,15.868,1.2193e-06,9.1612,-1.5845e-12,-5.3236e-05,-1.2193e-06,-9.1613,0.068994
15595,3.4943,4.2727,0,0.00050325,5029.1,0.00019429,0.0061757,0.0001162,-586.76,-0.00051066,-5296.7,0.069829
15596,3.4023,4.3636,0,0.0005069,5065.5,0.00019547,0.012611,0.00011746,-586.1,-0.00051432,-5333.1,0.06607
15597,3.4943,4.3636,0.05,1.5833e-06,15.822,1.2158e-06,9.1349,-4.0352e-12,-5.7908e-05,-1.2158e-06,-9.135,0.069549
15598,3.4943,4.0909,0,0.00050017,4998.2,0.00019535,-0.0032263,0.00011129,-631.54,-0.00050791,-5284,0.070268
15599,3.4023,4.1818,0,0.00050351,5031.6,0.00019666,0.0017105,0.00011203,-635.85,-0.0005113,-5319.3,0.066538
15600,3.4943,4.1818,0.05,1.5776e-06,15.765,1.2114e-06,9.1021,-5.786e-13,-5.712e-06,-1.2114e-06,-9.1021,0.070026
15601,3.4943,3.9091,0,0.00049753,4971.9,0.00019626,-0.010604,0.00010706,-670.28,-0.00050553,-5273,0.070635
15602,3.4023,4,0,0.00050058,5002.3,0.0001977,-0.0068507,0.00010727,-679.52,-0.00050866,-5307.4,0.066933
15603,3.4943,4,0.05,1.5715e-06,15.704,1.2067e-06,9.0668,-3.2754e-13,-2.8311e-05,-1.2067e-06,-9.067,0.070429
15604,3.4943,3.7273,0,0.00049537,4950.3,0.00019703,-0.016254,0.00010353,-702.56,-0.00050357,-5264,0.070931
15605,3.4023,3.8182,0,0.00049813,4977.9,0.0001986,-0.013443,0.00010322,-716.63,-0.00050643,-5297.3,0.067257
15606,3.4943,3.8182,0.05,1.5656e-06,15.645,1.2022e-06,9.0327,1.381e-12,-4.3352e-06,-1.2022e-06,-9.0327,0.07076
15607,3.4943,3.5455,0,0.00049368,4933.4,0.00019764,-0.020408,0.00010075,-728.02,-0.00050202,-5257,0.071159
15608,3.4023,3.6364,0,0.00049617,4958.2,0.00019933,-0.018367,9.9937e-05,-746.78,-0.00050463,-5289.3,0.067514
15609,3.4943,3.6364,0.05,1.5603e-06,15.592,1.1981e-06,9.0022,2.9683e-12,-1.1125e-05,-1.1981e-06,-9.0023,0.071022
15610,3.4943,3.3636,0,0.00049247,4921.3,0.00019808,-0.023247,9.8743e-05,-746.39,-0.00050091,-5251.9,0.071321
15611,3.4023,3.4545,0,0.00049469,4943.5,0.00019988,-0.021854,9.7448e-05,-769.66,-0.00050327,-5283.2,0.067704
15612,3.4943,3.4545,0.05,1.5561e-06,15.55,1.1949e-06,8.9778,2.9021e-12,-4.6483e-06,-1.1949e-06,-8.9779,0.071217
15613,3.4943,3.1818,0,0.00049175,4914.1,0.00019834,-0.024899,9.7531e-05,-757.5,-0.00050023,-5248.9,0.071417
15614,3.4023,3.2727,0,0.00049371,4933.7,0.00020025,-0.024082,9.5776e-05,-785.04,-0.00050236,-5279.2,0.067831
15615,3.4943,3.2727,0.05,1.5531e-06,15.521,1.1926e-06,8.9608,2.3778e-12,-2.5037e-06,-1.1926e-06,-8.9609,0.071346
15616,3.4943,3,0,0.00049151,4911.7,0.00019843,-0.025442,9.7126e-05,-761.21,-0.00050001,-5247.8,0.07145
15617,3.4023,3.0909,0,0.00049322,4928.8,0.00020044,-0.025167,9.4936e-05,-792.76,-0.0005019,-5277.1,0.067893
15618,3.4943,3.0909,0.05,1.5516e-06,15.505,1.1915e-06,8.9521,2.6371e-12,-7.3788e-07,-1.1915e-06,-8.9521,0.07141
15619,3.4943,2.8182,0,0.00049175,4914.1,0.00019834,-0.024899,9.7531e-05,-757.5,-0.00050023,-5248.9,0.071417
15620,3.4023,2.9091,0,0.00049322,4928.8,0.00020044,-0.025167,9.4936e-05,-792.76,-0.0005019,-5277.1,0.067893
15621,3.4943,2.9091,0.05,1.5516e-06,15.505,1.1915e-06,8.9521,1.9089e-12,-7.0275e-06,-1.1915e-06,-8.9521,0.07141
15622,3.4943,2.6364,0,0.00049247,4921.3,0.00019808,-0.023247,9.8743e-05,-746.39,-0.00050091,-5251.9,0.071321
15623,3.4023,2.7273,0,0.00049371,4933.7,0.00020025,-0.024082,9.5776e-05,-785.04,-0.00050236,-5279.2,0.067831
15624,3.4943,2.7273,0.05,1.5531e-06,15.521,1.1926e-06,8.9608,2.8902e-12,1.4042e-06,-1.1926e-06,-8.9609,0.071346
15625,3.4943,2.4545,0,0.00049368,4933.4,0.00019764,-0.020408,0.00010075,-728.02,-0.00050202,-5257,0.071159
15626,3.4023,2.5455,0,0.00049469,4943.5,0.00019988,-0.021854,9.7448e-05,-769.66,-0.00050327,-5283.2,0.067704
15627,3.4943,2.5455,0.05,1.5561e-06,15.55,1.1949e-06,8.9778,1.0918e-12,-6.2975e-06,-1.1949e-06,-8.9779,0.071217
15628,3.4943,2.2727,0,0.00049537,4950.3,0.00019703,-0.016253,0.00010353,-702.56,-0.00050357,-5264,0.070931
15629,3.4023,2.3636,0,0.00049617,4958.2,0.00019933,-0.018366,9.9937e-05,-746.78,-0.00050463,-5289.3,0.067514
15630,3.4943,2.3636,0.05,1.5603e-06,15.592,1.1981e-06,9.0023,2.3424e-12,4.7994e-06,-1.1981e-06,-9.0023,0.071022
15631,3.4943,2.0909,0,0.00049753,4971.9,0.00019626,-0.010604,0.00010706,-670.28,-0.00050553,-5273,0.070635
15632,3.4023,2.1818,0,0.00049813,4977.9,0.0001986,-0.013443,0.00010322,-716.63,-0.00050643,-5297.3,0.067257
15633,3.4943,2.1818,0.05,1.5656e-06,15.645,1.2022e-06,9.0327,1.1443e-12,6.5028e-06,-1.2022e-06,-9.0327,0.07076
15634,3.4943,1.9091,0,0.00050017,4998.2,0.00019535,-0.003226,0.00011129,-631.54,-0.00050791,-5284,0.070268
15635,3.4023,2,0,0.00050058,5002.3,0.0001977,-0.0068504,0.00010727,-679.52,-0.00050866,-5307.4,0.066933
15636,3.4943,2,0.05,1.5715e-06,15.704,1.2067e-06,9.0669,4.7637e-13,-1.3956e-06,-1.2067e-06,-9.0669,0.070429
15637,3.4943,1.7273,0,0.00050325,5029.1,0.00019429,0.0061761,0.0001162,-586.76,-0.00051066,-5296.7,0.069829
15638,3.4023,1.8182,0,0.00050351,5031.6,0.00019666,0.0017108,0.00011203,-635.85,-0.0005113,-5319.3,0.066538
15639,3.4943,1.8182,0.05,1.5776e-06,15.765,1.2114e-06,9.1021,1.4371e-12,5.712e-06,-1.2114e-06,-9.1022,0.070026
15640,3.4943,1.5455,0,0.00050678,5064.3,0.00019311,0.01802,0.00012171,-536.47,-0.00051377,-5311.2,0.069313
15641,3.4023,1.6364,0,0.0005069,5065.5,0.00019547,0.012611,0.00011746,-586.1,-0.00051432,-5333.1,0.06607
15642,3.4943,1.6364,0.05,1.5833e-06,15.822,1.2158e-06,9.1349,2.3628e-12,6.233e-06,-1.2158e-06,-9.135,0.069549
15643,3.4943,1.3636,0,0.00051072,5103.7,0.00019182,0.032791,0.00012776,-481.25,-0.0005172,-5327.2,0.068718
15644,3.4023,1.4545,0,0.00051074,5103.9,0.00019416,0.026418,0.0001235,-530.86,-0.0005177,-5348.6,0.065525
15645,3.4943,1.4545,0.05,1.5879e-06,15.868,1.2193e-06,9.1613,9.9032e-13,6.6459e-06,-1.2193e-06,-9.1613,0.068994
15646,3.4943,1.1818,0,0.00051504,5146.9,0.00019043,0.051675,0.00013429,-421.76,-0.00052092,-5344.7,0.068039
15647,3.4023,1.2727,0,0.00051501,5146.5,0.00019274,0.043664,0.00013008,-470.78,-0.0005214,-5365.7,0.064899
15648,3.4943,1.2727,0.05,1.5906e-06,15.895,1.2214e-06,9.1769,8.2974e-13,6.9603e-06,-1.2214e-06,-9.1769,0.068357
15649,3.4943,1,0,0.00051971,5193.5,0.00018897,0.075017,0.00014122,-358.71,-0.00052488,-5363.5,0.067273
15650,3.4023,1.0909,0,0.00051965,5193,0.00019124,0.06642,0.00013711,-406.58,-0.00052537,-5384.3,0.064189
15651,3.4943,1.0909,0.05,1.5907e-06,15.896,1.2215e-06,9.1777,-7.853e-13,7.1896e-06,-1.2215e-06,-9.1777,0.067635
15652,3.4943,0.81818,0,0.00052468,5243.2,0.00018746,0.11104,0.00014847,-292.84,-0.00052904,-5383.4,0.066415
15653,3.4023,0.90909,0,0.00052465,5242.9,0.00018966,0.093604,0.00014453,-339.05,-0.00052959,-5404.1,0.063389
15654,3.4943,0.90909,0.05,1.5877e-06,15.866,1.2192e-06,9.1603,5.0442e-12,3.6745e-06,-1.2192e-06,-9.1603,0.066823
15655,3.4943,0.63636,0,0.0005299,5295.3,0.0001859,0.14623,0.00015595,-224.9,-0.00053336,-5404.1,0.065459
15656,3.4023,0.72727,0,0.00052994,5295.7,0.00018805,0.1441,0.00015223,-268.99,-0.000534,-5425,0.062495
15657,3.4943,0.72727,0.05,1.5813e-06,15.802,1.2142e-06,9.1234,3.0922e-12,7.5768e-05,-1.2142e-06,-9.1233,0.065917
15658,3.4943,0.45455,0,0.00053534,5349.7,0.00018433,0.31685,0.0001636,-155.5,-0.00053781,-5425.6,0.064402
15659,3.4023,0.54545,0,0.00053547,5351,0.0001864,0.17342,0.00016013,-197.22,-0.00053855,-5446.8,0.061502
15660,3.4943,0.54545,0.05,1.5745e-06,15.734,1.209e-06,9.0843,8.9602e-13,2.9041e-05,-1.209e-06,-9.0843,0.064911
15661,3.4943,0.27273,0,0.00054106,5406.9,0.00018276,0.52305,0.00017145,-84.507,-0.00054244,-5448.4,0.063238
15662,3.4023,0.36364,0,0.00054121,5408.4,0.00018476,0.52181,0.00016816,-124.22,-0.00054321,-5469.2,0.060404
15663,3.4943,0.36364,0.05,1.6094e-06,16.083,1.2358e-06,9.2855,1.1608e-13,7.3729e-05,-1.2358e-06,-9.2854,0.063801
15664,3.4023,0.18182,0,0.00054738,5470.1,0.00018315,0.88395,0.00017646,-49.388,-0.00054819,-5494.1,0.059196
15665,3.4943,0.18182,0.05,2.4708e-06,24.691,1.8973e-06,14.256,1.3271e-12,1.2605e-05,-1.8973e-06,-14.255,0.062581
15666,3.4943,0.090909,0,0.00054555,5451.8,0.0001813,0.38269,0.00017793,-24.95,-0.00054597,-5464,0.061962
15667,3.3103,5.7273,0,0.00054753,5471.5,0.00018511,0.59335,0.00017323,-88.7,-0.00054897,-5515,0.056482
15668,3.2184,5.8182,0,0.00055411,5537.3,0.00018543,1.0571,0.00017859,-50.314,-0.00055493,-5561.7,0.052638
15669,3.3103,5.8182,0.05,2.6562e-06,26.544,2.0396e-06,15.325,5.2699e-13,-3.358e-05,-2.0396e-06,-15.325,0.055837
15670,3.3103,5.9091,0,0.00055222,5518.4,0.00018351,0.41974,0.00018011,-25.156,-0.00055264,-5530.8,0.05523
15671,3.3103,5.5455,0,0.00054134,5409.7,0.00018682,0.34947,0.00016471,-165.81,-0.00054396,-5490.5,0.057621
15672,3.2184,5.6364,0,0.00054742,5470.4,0.00018718,0.57583,0.00016958,-131.63,-0.00054953,-5534.7,0.053819
15673,3.3103,5.6364,0.05,1.672e-06,16.708,1.2839e-06,9.6466,-9.2354e-12,-7.9766e-05,-1.2839e-06,-9.6467,0.057032
15674,3.3103,5.3636,0,0.0005355,5351.3,0.00018854,0.16181,0.00015642,-241.2,-0.00053919,-5467.7,0.058653
15675,3.2184,5.4545,0,0.00054124,5408.6,0.00018897,0.19285,0.00016087,-210.9,-0.00054451,-5510.9,0.05489
15676,3.3103,5.4545,0.05,1.635e-06,16.338,1.2554e-06,9.4329,-3.153e-12,-5.5789e-05,-1.2554e-06,-9.4329,0.058117
15677,3.3103,5.1818,0,0.0005299,5295.4,0.00019025,0.12233,0.0001483,-315.11,-0.00053456,-5445.8,0.059583
15678,3.2184,5.2727,0,0.0005353,5349.3,0.00019078,0.1589,0.0001523,-288.97,-0.00053963,-5487.9,0.055857
15679,3.3103,5.2727,0.05,1.6441e-06,16.43,1.2625e-06,9.4855,-2.2154e-12,-0.00011372,-1.2625e-06,-9.4856,0.059098
15680,3.3103,5,0,0.00052459,5242.3,0.00019193,0.082578,0.00014043,-386.84,-0.0005301,-5424.9,0.060417
15681,3.2184,5.0909,0,0.00052965,5292.8,0.00019257,0.10313,0.00014394,-365.26,-0.00053491,-5465.9,0.056724
15682,3.3103,5.0909,0.05,1.6525e-06,16.514,1.2689e-06,9.5342,-5.8382e-12,-5.3133e-05,-1.2689e-06,-9.5343,0.059979
15683,3.3103,4.8182,0,0.00051962,5192.6,0.00019355,0.056867,0.00013291,-455.53,-0.00052586,-5405.3,0.061159
15684,3.2184,4.9091,0,0.00052432,5239.6,0.00019431,0.073051,0.0001359,-438.84,-0.00053041,-5445.2,0.057498
15685,3.3103,4.9091,0.05,1.6569e-06,16.558,1.2723e-06,9.5594,4.1579e-12,-9.3586e-05,-1.2723e-06,-9.5596,0.060767
15686,3.3103,4.6364,0,0.00051503,5146.7,0.00019508,0.03622,0.00012583,-520.34,-0.0005219,-5387.1,0.061815
15687,3.2184,4.7273,0,0.00051939,5190.3,0.00019599,0.048083,0.00012826,-508.79,-0.00052617,-5425.9,0.058184
15688,3.3103,4.7273,0.05,1.6575e-06,16.564,1.2728e-06,9.5632,1.24e-12,-7.0581e-05,-1.2728e-06,-9.5633,0.061465
15689,3.3103,4.4545,0,0.00051086,5105.1,0.00019652,0.020213,0.00011926,-580.47,-0.00051825,-5370.5,0.062389
15690,3.2184,4.5455,0,0.00051489,5145.3,0.00019756,0.029322,0.00012114,-574.22,-0.00052224,-5408.3,0.058786
15691,3.3103,4.5455,0.05,1.6552e-06,16.541,1.271e-06,9.5497,-2.0573e-12,-5.6703e-05,-1.271e-06,-9.5498,0.06208
15692,3.3103,4.2727,0,0.00050715,5068,0.00019784,0.0075218,0.0001133,-635.19,-0.00051496,-5355.7,0.062885
15693,3.2184,4.3636,0,0.00051085,5105,0.00019902,0.014478,0.0001146,-634.32,-0.00051867,-5392.5,0.05931
15694,3.3103,4.3636,0.05,1.6508e-06,16.496,1.2676e-06,9.5241,-2.7067e-12,-6.3595e-05,-1.2676e-06,-9.5243,0.062614
15695,3.3103,4.0909,0,0.00050392,5035.7,0.00019901,-0.0024247,0.000108,-683.86,-0.00051205,-5342.7,0.063307
15696,3.2184,4.1818,0,0.0005073,5069.5,0.00020035,0.00292,0.00010873,-688.38,-0.00051549,-5378.5,0.059758
15697,3.3103,4.1818,0.05,1.6451e-06,16.44,1.2633e-06,9.4917,-6.9e-14,-1.7298e-05,-1.2633e-06,-9.4917,0.063073
15698,3.3103,3.9091,0,0.00050117,5008.2,0.00020004,-0.010123,0.00010342,-725.92,-0.00050956,-5331.6,0.063659
15699,3.2184,4,0,0.00050425,5039,0.00020151,-0.0060197,0.00010359,-735.78,-0.00051272,-5366.5,0.060136
15700,3.3103,4,0.05,1.6391e-06,16.379,1.2586e-06,9.4566,-7.1324e-13,-3.0908e-05,-1.2586e-06,-9.4567,0.06346
15701,3.3103,3.7273,0,0.00049892,4985.8,0.00020089,-0.015937,9.9619e-05,-760.93,-0.00050749,-5322.5,0.063942
15702,3.2184,3.8182,0,0.00050172,5013.7,0.00020251,-0.012794,9.9233e-05,-776,-0.00051039,-5356.5,0.060446
15703,3.3103,3.8182,0.05,1.6332e-06,16.321,1.2541e-06,9.4229,7.2737e-13,-1.0476e-05,-1.2541e-06,-9.423,0.063777
15704,3.3103,3.5455,0,0.00049717,4968.3,0.00020157,-0.020157,9.6625e-05,-788.52,-0.00050587,-5315.4,0.06416
15705,3.2184,3.6364,0,0.00049969,4993.5,0.00020332,-0.017775,9.5703e-05,-808.63,-0.00050851,-5348.5,0.060691
15706,3.3103,3.6364,0.05,1.6281e-06,16.27,1.2502e-06,9.3933,1.544e-12,-1.1992e-05,-1.2502e-06,-9.3934,0.064028
15707,3.3103,3.3636,0,0.00049593,4955.8,0.00020206,-0.02301,9.4467e-05,-808.41,-0.00050471,-5310.4,0.064315
15708,3.2184,3.4545,0,0.00049818,4978.4,0.00020394,-0.021253,9.3031e-05,-833.36,-0.0005071,-5342.5,0.060872
15709,3.3103,3.4545,0.05,1.624e-06,16.229,1.2471e-06,9.3699,2.2826e-12,-5.2878e-06,-1.2471e-06,-9.3699,0.064214
15710,3.3103,3.1818,0,0.00049518,4948.4,0.00020235,-0.024657,9.3165e-05,-820.42,-0.00050401,-5307.3,0.064407
15711,3.2184,3.2727,0,0.00049718,4968.3,0.00020436,-0.023451,9.1237e-05,-849.97,-0.00050615,-5338.5,0.060992
15712,3.3103,3.2727,0.05,1.6212e-06,16.201,1.2449e-06,9.3537,3.134e-12,-2.8567e-06,-1.2449e-06,-9.3537,0.064337
15713,3.3103,3,0,0.00049493,4945.9,0.00020245,-0.025195,9.2729e-05,-824.44,-0.00050377,-5306.3,0.064438
15714,3.2184,3.0909,0,0.00049667,4963.3,0.00020457,-0.024513,9.0337e-05,-858.31,-0.00050567,-5336.5,0.061052
15715,3.3103,3.0909,0.05,1.6198e-06,16.187,1.2438e-06,9.3454,3.5315e-12,-7.0499e-07,-1.2438e-06,-9.3454,0.064398
15716,3.3103,2.8182,0,0.00049518,4948.4,0.00020235,-0.024657,9.3165e-05,-820.42,-0.00050401,-5307.3,0.064407
15717,3.2184,2.9091,0,0.00049667,4963.3,0.00020457,-0.024513,9.0337e-05,-858.31,-0.00050567,-5336.5,0.061052
15718,3.3103,2.9091,0.05,1.6198e-06,16.187,1.2438e-06,9.3454,2.8151e-12,7.2218e-07,-1.2438e-06,-9.3454,0.064398
15719,3.3103,2.6364,0,0.00049593,4955.8,0.00020206,-0.02301,9.4467e-05,-808.41,-0.00050471,-5310.4,0.064315
15720,3.2184,2.7273,0,0.00049718,4968.3,0.00020436,-0.023451,9.1237e-05,-849.97,-0.00050615,-5338.5,0.060992
15721,3.3103,2.7273,0.05,1.6212e-06,16.201,1.2449e-06,9.3537,2.8925e-12,-5.4959e-06,-1.2449e-06,-9.3537,0.064337
15722,3.3103,2.4545,0,0.00049717,4968.3,0.00020157,-0.020157,9.6625e-05,-788.52,-0.00050587,-5315.4,0.06416
15723,3.2184,2.5455,0,0.00049818,4978.4,0.00020394,-0.021253,9.3031e-05,-833.36,-0.0005071,-5342.5,0.060872
15724,3.3103,2.5455,0.05,1.624e-06,16.229,1.2471e-06,9.3699,1.3194e-12,3.6815e-06,-1.2471e-06,-9.3699,0.064214
15725,3.3103,2.2727,0,0.00049892,4985.8,0.00020089,-0.015936,9.9619e-05,-760.93,-0.00050749,-5322.5,0.063942
15726,3.2184,2.3636,0,0.00049969,4993.5,0.00020332,-0.017774,9.5703e-05,-808.63,-0.00050851,-5348.5,0.060691
15727,3.3103,2.3636,0.05,1.6281e-06,16.27,1.2502e-06,9.3934,7.2937e-13,4.5606e-06,-1.2502e-06,-9.3934,0.064028
15728,3.3103,2.0909,0,0.00050117,5008.2,0.00020004,-0.010123,0.00010342,-725.92,-0.00050956,-5331.6,0.063659
15729,3.2184,2.1818,0,0.00050172,5013.7,0.00020251,-0.012793,9.9233e-05,-776,-0.00051039,-5356.5,0.060446
15730,3.3103,2.1818,0.05,1.6332e-06,16.321,1.2541e-06,9.423,7.8596e-13,5.6576e-06,-1.2541e-06,-9.423,0.063777
15731,3.3103,1.9091,0,0.00050392,5035.7,0.00019901,-0.0024243,0.000108,-683.86,-0.00051205,-5342.7,0.063307
15732,3.2184,2,0,0.00050425,5039,0.00020151,-0.0060193,0.00010359,-735.78,-0.00051272,-5366.5,0.060136
15733,3.3103,2,0.05,1.6391e-06,16.379,1.2586e-06,9.4567,1.7287e-12,6.6161e-06,-1.2586e-06,-9.4567,0.06346
15734,3.3103,1.7273,0,0.00050715,5068,0.00019784,0.0075222,0.0001133,-635.19,-0.00051496,-5355.7,0.062885
15735,3.2184,1.8182,0,0.0005073,5069.5,0.00020035,0.0029205,0.00010873,-688.38,-0.00051549,-5378.5,0.059758
15736,3.3103,1.8182,0.05,1.6451e-06,16.44,1.2633e-06,9.4917,-6.4618e-13,7.4233e-06,-1.2633e-06,-9.4917,0.063073
15737,3.3103,1.5455,0,0.00051086,5105.1,0.00019652,0.020214,0.00011926,-580.47,-0.00051825,-5370.5,0.062389
15738,3.2184,1.6364,0,0.00051085,5105,0.00019902,0.014479,0.0001146,-634.32,-0.00051867,-5392.5,0.05931
15739,3.3103,1.6364,0.05,1.6508e-06,16.496,1.2676e-06,9.5242,3.8507e-13,6.4604e-06,-1.2676e-06,-9.5242,0.062614
15740,3.3103,1.3636,0,0.00051503,5146.7,0.00019508,0.03622,0.00012583,-520.34,-0.0005219,-5387.1,0.061815
15741,3.2184,1.4545,0,0.00051489,5145.3,0.00019756,0.029323,0.00012114,-574.22,-0.00052224,-5408.3,0.058786
15742,3.3103,1.4545,0.05,1.6552e-06,16.541,1.271e-06,9.5498,1.2272e-12,6.8628e-06,-1.271e-06,-9.5498,0.06208
15743,3.3103,1.1818,0,0.00051962,5192.6,0.00019355,0.056868,0.00013291,-455.53,-0.00052586,-5405.3,0.061159
15744,3.2184,1.2727,0,0.00051939,5190.3,0.00019599,0.048084,0.00012826,-508.79,-0.00052617,-5425.9,0.058184
15745,3.3103,1.2727,0.05,1.6575e-06,16.564,1.2728e-06,9.5632,1.7064e-12,3.5786e-06,-1.2728e-06,-9.5632,0.061465
15746,3.3103,1,0,0.00052459,5242.3,0.00019193,0.082579,0.00014043,-386.84,-0.0005301,-5424.9,0.060417
15747,3.2184,1.0909,0,0.00052432,5239.6,0.00019431,0.073052,0.0001359,-438.84,-0.00053041,-5445.2,0.057498
15748,3.3103,1.0909,0.05,1.6569e-06,16.558,1.2723e-06,9.5595,4.3868e-13,7.3598e-06,-1.2723e-06,-9.5595,0.060767
15749,3.3103,0.81818,0,0.0005299,5295.4,0.00019025,0.12233,0.0001483,-315.11,-0.00053456,-5445.8,0.059583
15750,3.2184,0.90909,0,0.00052965,5292.8,0.00019257,0.10313,0.00014394,-365.26,-0.00053491,-5465.9,0.056724
15751,3.3103,0.90909,0.05,1.6525e-06,16.514,1.2689e-06,9.5342,-3.8054e-13,3.7446e-06,-1.2689e-06,-9.5342,0.059979
15752,3.3103,0.63636,0,0.0005355,5351.3,0.00018854,0.16181,0.00015642,-241.2,-0.00053919,-5467.7,0.058653
15753,3.2184,0.72727,0,0.0005353,5349.3,0.00019078,0.1589,0.0001523,-288.97,-0.00053963,-5487.9,0.055857
15754,3.3103,0.72727,0.05,1.6441e-06,16.43,1.2625e-06,9.4856,-1.028e-12,3.0322e-05,-1.2625e-06,-9.4856,0.059098
15755,3.3103,0.45455,0,0.00054134,5409.7,0.00018682,0.34947,0.00016471,-165.81,-0.00054396,-5490.5,0.057621
15756,3.2184,0.54545,0,0.00054124,5408.6,0.00018897,0.19285,0.00016087,-210.9,-0.00054451,-5510.9,0.05489
15757,3.3103,0.54545,0.05,1.635e-06,16.338,1.2554e-06,9.4329,-5.346e-13,-2.0009e-15,-1.2554e-06,-9.4329,0.058117
15758,3.3103,0.27273,0,0.00054753,5471.5,0.00018511,0.59335,0.00017323,-88.7,-0.00054897,-5515,0.056482
15759,3.2184,0.36364,0,0.00054742,5470.4,0.00018718,0.57583,0.00016958,-131.63,-0.00054953,-5534.7,0.053819
15760,3.3103,0.36364,0.05,1.672e-06,16.708,1.2839e-06,9.6466,1.6315e-12,2.6944e-05,-1.2839e-06,-9.6466,0.057032
15761,3.2184,0.18182,0,0.00055411,5537.3,0.00018543,1.0571,0.00017859,-50.314,-0.00055493,-5561.7,0.052638
15762,3.3103,0.18182,0.05,2.6562e-06,26.544,2.0396e-06,15.325,-2.6349e-13,1.1323e-05,-2.0396e-06,-15.325,0.055837
15763,3.3103,0.090909,0,0.00055222,5518.4,0.00018351,0.41974,0.00018011,-25.156,-0.00055264,-5530.8,0.05523
15764,3.1264,5.7273,0,0.00055399,5536.1,0.00018745,0.6758,0.00017501,-92.757,-0.0005555,-5581.5,0.050096
15765,3.0345,5.8182,0,0.00056084,5604.5,0.00018769,1.277,0.00018077,-50.777,-0.00056166,-5629.1,0.046453
15766,3.1264,5.8182,0.05,2.8513e-06,28.493,2.1894e-06,16.45,1.7633e-12,-4.5857e-05,-2.1894e-06,-16.45,0.049464
15767,3.1264,5.9091,0,0.00055888,5585,0.00018571,0.46292,0.00018231,-25.033,-0.00055929,-5597.2,0.048871
15768,3.1264,5.5455,0,0.0005473,5469.3,0.00018932,0.38593,0.00016577,-176.58,-0.00055009,-5555.2,0.051207
15769,3.0345,5.6364,0,0.00055357,5531.9,0.00018958,0.63654,0.00017097,-139.21,-0.0005558,-5599.9,0.047604
15770,3.1264,5.6364,0.05,1.7393e-06,17.381,1.3356e-06,10.035,-3.2798e-12,-0.00011806,-1.3356e-06,-10.035,0.050632
15771,3.1264,5.3636,0,0.00054103,5406.6,0.00019121,0.17921,0.00015678,-258.54,-0.00054496,-5531.1,0.05221
15772,3.0345,5.4545,0,0.00054693,5465.5,0.00019155,0.21476,0.00016153,-225.37,-0.00055041,-5574.6,0.048645
15773,3.1264,5.4545,0.05,1.7015e-06,17.003,1.3065e-06,9.8167,-1.1032e-11,-0.00012192,-1.3065e-06,-9.8168,0.051688
15774,3.1264,5.1818,0,0.00053504,5346.7,0.0001931,0.13482,0.00014796,-339.01,-0.00054,-5508.1,0.053112
15775,3.0345,5.2727,0,0.00054057,5402,0.00019356,0.17532,0.00015223,-310.36,-0.00054518,-5550.4,0.049581
15776,3.1264,5.2727,0.05,1.7138e-06,17.126,1.316e-06,9.8877,-7.132e-12,-9.5411e-05,-1.316e-06,-9.8878,0.05264
15777,3.1264,5,0,0.00052937,5290.1,0.00019496,0.090878,0.00013942,-417.17,-0.00053523,-5486.3,0.053918
15778,3.0345,5.0909,0,0.00053453,5341.7,0.00019554,0.11362,0.00014315,-393.51,-0.00054014,-5527.5,0.050419
15779,3.1264,5.0909,0.05,1.7248e-06,17.236,1.3244e-06,9.9513,-2.9191e-12,-5.8279e-05,-1.3244e-06,-9.9513,0.053494
15780,3.1264,4.8182,0,0.00052409,5237.3,0.00019675,0.062538,0.00013126,-492.02,-0.00053072,-5465.9,0.054633
15781,3.0345,4.9091,0,0.00052888,5285.2,0.00019748,0.08029,0.00013442,-473.73,-0.00053534,-5506,0.051164
15782,3.1264,4.9091,0.05,1.7309e-06,17.297,1.3291e-06,9.9862,-1.6291e-13,-9.6926e-05,-1.3291e-06,-9.9864,0.054254
15783,3.1264,4.6364,0,0.00051924,5188.8,0.00019847,0.039984,0.00012358,-562.62,-0.00052652,-5447.2,0.055264
15784,3.0345,4.7273,0,0.00052367,5233,0.00019934,0.052898,0.00012614,-549.95,-0.00053085,-5486.3,0.051823
15785,3.1264,4.7273,0.05,1.7325e-06,17.313,1.3304e-06,9.9958,-2.6275e-12,-2.9323e-05,-1.3304e-06,-9.9958,0.054926
15786,3.1264,4.4545,0,0.00051487,5145.1,0.00020007,0.022695,0.00011647,-628.05,-0.00052266,-5430.3,0.055814
15787,3.0345,4.5455,0,0.00051894,5185.8,0.0002011,0.032539,0.00011842,-621.17,-0.0005267,-5468.4,0.052399
15788,3.1264,4.5455,0.05,1.7307e-06,17.295,1.329e-06,9.9854,-7.4822e-13,-4.8443e-05,-1.329e-06,-9.9854,0.055516
15789,3.1264,4.2727,0,0.00051099,5106.4,0.00020153,0.0091776,0.00011003,-687.53,-0.0005192,-5415.3,0.056289
15790,3.0345,4.3636,0,0.00051472,5143.7,0.00020273,0.016663,0.00011136,-686.5,-0.00052295,-5452.4,0.052899
15791,3.1264,4.3636,0.05,1.7266e-06,17.254,1.3258e-06,9.9615,-2.6371e-12,-6.9493e-05,-1.3258e-06,-9.9617,0.056028
15792,3.1264,4.0909,0,0.00050763,5072.8,0.00020285,-0.0012458,0.00010431,-740.34,-0.00051615,-5402.3,0.056692
15793,3.0345,4.1818,0,0.00051105,5106.9,0.0002042,0.0045156,0.00010503,-745.15,-0.00051963,-5438.6,0.053327
15794,3.1264,4.1818,0.05,1.7212e-06,17.2,1.3217e-06,9.9304,-8.5693e-14,-3.1077e-05,-1.3217e-06,-9.9304,0.056467
15795,3.1264,3.9091,0,0.00050479,5044.4,0.00020399,-0.0091736,9.939e-05,-785.92,-0.00051355,-5391.3,0.057027
15796,3.0345,4,0,0.00050791,5075.6,0.00020551,-0.0046989,9.9505e-05,-796.47,-0.00051675,-5426.8,0.053686
15797,3.1264,4,0.05,1.7154e-06,17.142,1.3172e-06,9.8971,8.0464e-13,-2.5557e-05,-1.3172e-06,-9.8972,0.056835
15798,3.1264,3.7273,0,0.00050248,5021.4,0.00020494,-0.015054,9.5305e-05,-823.79,-0.0005114,-5382.3,0.057296
15799,3.0345,3.8182,0,0.00050532,5049.7,0.00020662,-0.011539,9.4834e-05,-839.93,-0.00051434,-5417,0.053979
15800,3.1264,3.8182,0.05,1.71e-06,17.088,1.313e-06,9.8656,1.7755e-12,-4.7052e-06,-1.313e-06,-9.8656,0.057137
15801,3.1264,3.5455,0,0.0005007,5003.5,0.0002057,-0.019252,9.2094e-05,-853.58,-0.00050972,-5375.4,0.057504
15802,3.0345,3.6364,0,0.00050326,5029.2,0.00020753,-0.016467,9.1057e-05,-875.13,-0.0005124,-5409.3,0.054211
15803,3.1264,3.6364,0.05,1.7053e-06,17.041,1.3094e-06,9.8386,1.9798e-12,-8.316e-06,-1.3094e-06,-9.8386,0.057376
15804,3.1264,3.3636,0,0.00049943,4990.8,0.00020624,-0.022049,8.9784e-05,-875.05,-0.00050852,-5370.5,0.05765
15805,3.0345,3.4545,0,0.00050173,5013.9,0.00020822,-0.019846,8.8203e-05,-901.77,-0.00051095,-5403.6,0.054383
15806,3.1264,3.4545,0.05,1.7016e-06,17.005,1.3066e-06,9.8175,3.0555e-12,-1.5067e-05,-1.3066e-06,-9.8176,0.057552
15807,3.1264,3.1818,0,0.00049867,4983.2,0.00020657,-0.023646,8.8391e-05,-887.99,-0.0005078,-5367.5,0.057738
15808,3.0345,3.2727,0,0.00050072,5003.7,0.00020868,-0.021948,8.629e-05,-919.63,-0.00050998,-5399.8,0.054496
15809,3.1264,3.2727,0.05,1.6992e-06,16.98,1.3047e-06,9.8033,2.2187e-12,-2.8984e-06,-1.3048e-06,-9.8034,0.057669
15810,3.1264,3,0,0.00049841,4980.7,0.00020668,-0.024165,8.7925e-05,-892.32,-0.00050756,-5366.5,0.057767
15811,3.0345,3.0909,0,0.00050021,4998.7,0.00020892,-0.022954,8.5331e-05,-928.6,-0.0005095,-5397.9,0.054553
15812,3.1264,3.0909,0.05,1.6979e-06,16.968,1.3038e-06,9.7962,1.7225e-12,-9.2406e-07,-1.3038e-06,-9.7963,0.057727
15813,3.1264,2.8182,0,0.00049867,4983.2,0.00020657,-0.023646,8.8391e-05,-887.99,-0.0005078,-5367.5,0.057738
15814,3.0345,2.9091,0,0.00050021,4998.7,0.00020892,-0.022954,8.5331e-05,-928.6,-0.0005095,-5397.9,0.054553
15815,3.1264,2.9091,0.05,1.6979e-06,16.968,1.3038e-06,9.7962,1.9167e-12,5.7954e-07,-1.3038e-06,-9.7963,0.057727
15816,3.1264,2.6364,0,0.00049943,4990.8,0.00020624,-0.022048,8.9784e-05,-875.05,-0.00050852,-5370.5,0.05765
15817,3.0345,2.7273,0,0.00050072,5003.7,0.00020868,-0.021948,8.629e-05,-919.63,-0.00050998,-5399.8,0.054496
15818,3.1264,2.7273,0.05,1.6992e-06,16.98,1.3047e-06,9.8033,1.9961e-12,1.4651e-06,-1.3048e-06,-9.8034,0.057669
15819,3.1264,2.4545,0,0.0005007,5003.5,0.0002057,-0.019252,9.2094e-05,-853.58,-0.00050972,-5375.4,0.057504
15820,3.0345,2.5455,0,0.00050173,5013.9,0.00020822,-0.019845,8.8203e-05,-901.77,-0.00051095,-5403.6,0.054383
15821,3.1264,2.5455,0.05,1.7016e-06,17.005,1.3066e-06,9.8175,2.1714e-12,-7.3396e-07,-1.3066e-06,-9.8176,0.057552
15822,3.1264,2.2727,0,0.00050248,5021.4,0.00020494,-0.015054,9.5305e-05,-823.79,-0.0005114,-5382.3,0.057296
15823,3.0345,2.3636,0,0.00050326,5029.2,0.00020753,-0.016467,9.1057e-05,-875.13,-0.0005124,-5409.3,0.054211
15824,3.1264,2.3636,0.05,1.7053e-06,17.041,1.3094e-06,9.8386,1.528e-12,5.2195e-06,-1.3094e-06,-9.8386,0.057376
15825,3.1264,2.0909,0,0.00050479,5044.4,0.00020399,-0.0091733,9.939e-05,-785.92,-0.00051355,-5391.3,0.057027
15826,3.0345,2.1818,0,0.00050532,5049.7,0.00020662,-0.011539,9.4834e-05,-839.93,-0.00051434,-5417,0.053979
15827,3.1264,2.1818,0.05,1.71e-06,17.088,1.313e-06,9.8656,3.1393e-12,7.0578e-06,-1.313e-06,-9.8656,0.057137
15828,3.1264,1.9091,0,0.00050763,5072.8,0.00020285,-0.0012455,0.00010431,-740.34,-0.00051615,-5402.3,0.056692
15829,3.0345,2,0,0.00050791,5075.6,0.00020551,-0.0046987,9.9505e-05,-796.47,-0.00051675,-5426.8,0.053686
15830,3.1264,2,0.05,1.7154e-06,17.142,1.3172e-06,9.8971,-1.3146e-13,5.4944e-06,-1.3172e-06,-9.8971,0.056835
15831,3.1264,1.7273,0,0.00051099,5106.4,0.00020153,0.0091781,0.00011003,-687.53,-0.0005192,-5415.3,0.056289
15832,3.0345,1.8182,0,0.00051105,5106.9,0.0002042,0.0045161,0.00010503,-745.15,-0.00051963,-5438.6,0.053327
15833,3.1264,1.8182,0.05,1.7212e-06,17.2,1.3217e-06,9.9304,1.457e-12,-6.3118e-06,-1.3217e-06,-9.9304,0.056467
15834,3.1264,1.5455,0,0.00051487,5145.1,0.00020007,0.022695,0.00011647,-628.05,-0.00052266,-5430.3,0.055814
15835,3.0345,1.6364,0,0.00051472,5143.7,0.00020273,0.016663,0.00011136,-686.5,-0.00052295,-5452.4,0.052899
15836,3.1264,1.6364,0.05,1.7266e-06,17.254,1.3258e-06,9.9615,1.8682e-12,-9.0352e-06,-1.3258e-06,-9.9616,0.056028
15837,3.1264,1.3636,0,0.00051924,5188.8,0.00019847,0.039985,0.00012358,-562.62,-0.00052652,-5447.2,0.055264
15838,3.0345,1.4545,0,0.00051894,5185.8,0.0002011,0.032539,0.00011842,-621.17,-0.0005267,-5468.4,0.052399
15839,3.1264,1.4545,0.05,1.7307e-06,17.295,1.329e-06,9.9854,8.4136e-13,3.5289e-06,-1.329e-06,-9.9854,0.055516
15840,3.1264,1.1818,0,0.00052409,5237.3,0.00019675,0.062538,0.00013126,-492.02,-0.00053072,-5465.9,0.054633
15841,3.0345,1.2727,0,0.00052367,5233,0.00019934,0.052899,0.00012614,-549.95,-0.00053085,-5486.3,0.051823
15842,3.1264,1.2727,0.05,1.7325e-06,17.313,1.3304e-06,9.9958,5.8322e-13,2.9323e-05,-1.3304e-06,-9.9958,0.054926
15843,3.1264,1,0,0.00052937,5290.1,0.00019496,0.090879,0.00013942,-417.17,-0.00053523,-5486.3,0.053918
15844,3.0345,1.0909,0,0.00052888,5285.2,0.00019748,0.080291,0.00013442,-473.73,-0.00053534,-5506,0.051164
15845,3.1264,1.0909,0.05,1.7309e-06,17.297,1.3291e-06,9.9863,1.3401e-12,7.4942e-06,-1.3291e-06,-9.9863,0.054254
15846,3.1264,0.81818,0,0.00053504,5346.7,0.0001931,0.13482,0.00014796,-339.01,-0.00054,-5508.1,0.053112
15847,3.0345,0.90909,0,0.00053453,5341.7,0.00019554,0.11362,0.00014315,-393.51,-0.00054014,-5527.5,0.050419
15848,3.1264,0.90909,0.05,1.7248e-06,17.236,1.3244e-06,9.9513,9.0424e-13,3.4828e-05,-1.3244e-06,-9.9513,0.053494
15849,3.1264,0.63636,0,0.00054103,5406.6,0.00019121,0.17921,0.00015678,-258.55,-0.00054496,-5531.1,0.05221
15850,3.0345,0.72727,0,0.00054057,5402,0.00019356,0.17532,0.00015223,-310.36,-0.00054518,-5550.4,0.049581
15851,3.1264,0.72727,0.05,1.7138e-06,17.126,1.316e-06,9.8878,1.3631e-12,3.8115e-06,-1.316e-06,-9.8878,0.05264
15852,3.1264,0.45455,0,0.0005473,5469.3,0.00018932,0.38593,0.00016577,-176.58,-0.00055009,-5555.2,0.051207
15853,3.0345,0.54545,0,0.00054693,5465.5,0.00019155,0.21476,0.00016153,-225.37,-0.00055041,-5574.6,0.048645
15854,3.1264,0.54545,0.05,1.7015e-06,17.003,1.3065e-06,9.8168,4.5474e-13,3.0716e-05,-1.3065e-06,-9.8167,0.051688
15855,3.1264,0.27273,0,0.00055399,5536.1,0.00018745,0.6758,0.00017501,-92.757,-0.0005555,-5581.5,0.050096
15856,3.0345,0.36364,0,0.00055357,5531.9,0.00018958,0.63654,0.00017097,-139.21,-0.0005558,-5599.9,0.047604
15857,3.1264,0.36364,0.05,1.7393e-06,17.381,1.3356e-06,10.035,-2.388e-13,2.9516e-05,-1.3356e-06,-10.035,0.050632
15858,3.0345,0.18182,0,0.00056084,5604.5,0.00018769,1.277,0.00018077,-50.777,-0.00056166,-5629.1,0.046453
15859,3.1264,0.18182,0.05,2.8513e-06,28.493,2.1894e-06,16.45,-1.4744e-12,2.6111e-05,-2.1894e-06,-16.45,0.049464
15860,3.1264,0.090909,0,0.00055888,5585,0.00018571,0.46292,0.00018231,-25.033,-0.00055929,-5597.2,0.048871
15861,2.9425,5.7273,0,0.00056041,5600.3,0.00018977,0.77314,0.0001768,-96.623,-0.00056198,-5647.6,0.044084
15862,2.8506,5.8182,0,0.00056754,5671.5,0.00018992,1.5611,0.00018297,-50.685,-0.00056836,-5695.9,0.040645
15863,2.9425,5.8182,0.05,3.0555e-06,30.534,2.3462e-06,17.629,2.0713e-13,-4.7438e-05,-2.3463e-06,-17.629,0.043467
15864,2.9425,5.9091,0,0.00056549,5651,0.00018787,0.51432,0.00018454,-24.512,-0.00056589,-5662.9,0.04289
15865,2.9425,5.5455,0,0.00055319,5528.1,0.00019181,0.42682,0.00016676,-187.83,-0.00055614,-5619.4,0.045163
15866,2.8506,5.6364,0,0.00055964,5592.5,0.00019197,0.70507,0.00017232,-146.94,-0.00056198,-5664.2,0.041763
15867,2.9425,5.6364,0.05,1.8121e-06,18.108,1.3914e-06,10.455,-1.2442e-11,-0.00013309,-1.3914e-06,-10.455,0.044603
15868,2.9425,5.3636,0,0.00054646,5460.8,0.0001939,0.19868,0.000157,-277.04,-0.00055064,-5594,0.046134
15869,2.8506,5.4545,0,0.0005525,5521.2,0.00019414,0.23952,0.00016207,-240.7,-0.0005562,-5637.5,0.04277
15870,2.9425,5.4545,0.05,1.7753e-06,17.741,1.3632e-06,10.243,-1.2845e-11,-0.00013503,-1.3632e-06,-10.243,0.045628
15871,2.9425,5.1818,0,0.00054006,5396.9,0.00019599,0.14861,0.00014743,-364.73,-0.00054533,-5569.9,0.047004
15872,2.8506,5.2727,0,0.0005457,5453.3,0.00019636,0.19356,0.00015197,-333.35,-0.00055061,-5612.2,0.043673
15873,2.9425,5.2727,0.05,1.7918e-06,17.905,1.3759e-06,10.338,-5.1431e-12,-0.00012875,-1.3758e-06,-10.338,0.046548
15874,2.9425,5,0,0.00053403,5336.6,0.00019806,0.09996,0.00013816,-449.96,-0.00054026,-5547.3,0.047779
15875,2.8506,5.0909,0,0.00053927,5389,0.00019856,0.12515,0.00014211,-424.07,-0.00054523,-5588.5,0.044478
15876,2.9425,5.0909,0.05,1.8059e-06,18.047,1.3867e-06,10.419,-4.3672e-12,-8.9903e-05,-1.3867e-06,-10.419,0.04737
15877,2.9425,4.8182,0,0.00052845,5280.8,0.00020006,0.068701,0.0001293,-531.56,-0.00053548,-5526.5,0.048465
15878,2.8506,4.9091,0,0.00053329,5329.2,0.00020072,0.088159,0.00013263,-511.57,-0.00054015,-5566.5,0.045191
15879,2.9425,4.9091,0.05,1.814e-06,18.128,1.3929e-06,10.466,-1.0432e-11,-8.5581e-05,-1.3929e-06,-10.466,0.0481
15880,2.9425,4.6364,0,0.00052335,5229.9,0.00020197,0.044099,0.00012098,-608.45,-0.00053104,-5507.5,0.049067
15881,2.8506,4.7273,0,0.00052781,5274.5,0.00020281,0.058121,0.00012366,-594.64,-0.0005354,-5546.6,0.045819
15882,2.9425,4.7273,0.05,1.8168e-06,18.155,1.3951e-06,10.482,-1.9113e-12,-7.6189e-05,-1.3951e-06,-10.482,0.048743
15883,2.9425,4.4545,0,0.00051879,5184.3,0.00020376,0.025502,0.00011331,-679.6,-0.00052699,-5490.5,0.049591
15884,2.8506,4.5455,0,0.00052288,5225.2,0.00020477,0.036099,0.00011531,-672.12,-0.00053106,-5528.7,0.046367
15885,2.9425,4.5455,0.05,1.8156e-06,18.144,1.3942e-06,10.475,-3.8152e-12,-3.1582e-05,-1.3942e-06,-10.475,0.049306
15886,2.9425,4.2727,0,0.00051477,5144.2,0.0002054,0.011216,0.00010636,-744.14,-0.00052338,-5475.7,0.050042
15887,2.8506,4.3636,0,0.00051853,5181.7,0.0002066,0.019237,0.0001077,-743.03,-0.00052715,-5513.1,0.046841
15888,2.9425,4.3636,0.05,1.812e-06,18.107,1.3914e-06,10.454,-3.687e-12,-4.4616e-05,-1.3914e-06,-10.454,0.049793
15889,2.9425,4.0909,0,0.00051132,5109.7,0.00020687,0.00042364,0.00010022,-801.33,-0.00052022,-5463,0.050424
15890,2.8506,4.1818,0,0.00051476,5144.1,0.00020825,0.0066149,0.00010091,-806.52,-0.00052372,-5499.7,0.047245
15891,2.9425,4.1818,0.05,1.807e-06,18.058,1.3876e-06,10.426,-2.4528e-12,-4.7066e-05,-1.3876e-06,-10.426,0.050209
15892,2.9425,3.9091,0,0.00050843,5080.8,0.00020814,-0.0076031,9.4938e-05,-850.57,-0.00051753,-5452.4,0.050741
15893,2.8506,4,0,0.00051158,5112.3,0.00020971,-0.0027262,9.4993e-05,-861.93,-0.00052076,-5488.5,0.047584
15894,2.9425,4,0.05,1.8019e-06,18.006,1.3836e-06,10.396,1.7066e-12,-4.388e-05,-1.3836e-06,-10.396,0.050558
15895,2.9425,3.7273,0,0.00050609,5057.4,0.00020921,-0.013421,9.0572e-05,-891.39,-0.00051533,-5443.9,0.050996
15896,2.8506,3.8182,0,0.00050898,5086.2,0.00021095,-0.0094783,9.0009e-05,-908.72,-0.00051831,-5479.4,0.04786
15897,2.9425,3.8182,0.05,1.7972e-06,17.96,1.38e-06,10.369,4.1039e-12,-3.295e-05,-1.38e-06,-10.369,0.050844
15898,2.9425,3.5455,0,0.00050429,5039.5,0.00021005,-0.017482,8.7148e-05,-923.45,-0.00051361,-5437.3,0.051192
15899,2.8506,3.6364,0,0.00050692,5065.7,0.00021196,-0.014214,8.5991e-05,-946.53,-0.00051634,-5472.2,0.048078
15900,2.9425,3.6364,0.05,1.7933e-06,17.921,1.3771e-06,10.347,1.7539e-12,-5.8933e-06,-1.3771e-06,-10.347,0.051069
15901,2.9425,3.3636,0,0.00050302,5026.7,0.00021066,-0.020135,8.4688e-05,-946.51,-0.00051239,-5432.7,0.05133
15902,2.8506,3.4545,0,0.00050541,5050.6,0.00021273,-0.01738,8.2962e-05,-975.08,-0.00051488,-5467,0.048239
15903,2.9425,3.4545,0.05,1.7905e-06,17.893,1.3749e-06,10.33,2.4474e-12,-7.7737e-06,-1.3749e-06,-10.33,0.051235
15904,2.9425,3.1818,0,0.00050226,5019.2,0.00021103,-0.021628,8.3208e-05,-960.4,-0.00051166,-5430,0.051412
15905,2.8506,3.2727,0,0.00050441,5040.6,0.00021325,-0.019309,8.0935e-05,-994.2,-0.00051391,-5463.6,0.048345
15906,2.9425,3.2727,0.05,1.7886e-06,17.874,1.3734e-06,10.32,3.2017e-12,-3.0273e-06,-1.3734e-06,-10.32,0.051345
15907,2.9425,3,0,0.00050201,5016.6,0.00021115,-0.022109,8.2713e-05,-965.04,-0.00051141,-5429.1,0.051439
15908,2.8506,3.0909,0,0.00050391,5035.6,0.00021351,-0.020219,7.992e-05,-1003.8,-0.00051342,-5461.9,0.048398
15909,2.9425,3.0909,0.05,1.7877e-06,17.865,1.3727e-06,10.314,2.625e-12,-9.8065e-07,-1.3727e-06,-10.314,0.0514
15910,2.9425,2.8182,0,0.00050226,5019.2,0.00021103,-0.021628,8.3208e-05,-960.4,-0.00051166,-5430,0.051412
15911,2.8506,2.9091,0,0.00050391,5035.6,0.00021351,-0.020219,7.992e-05,-1003.8,-0.00051342,-5461.9,0.048398
15912,2.9425,2.9091,0.05,1.7877e-06,17.865,1.3727e-06,10.314,1.9178e-12,6.1189e-07,-1.3727e-06,-10.314,0.0514
15913,2.9425,2.6364,0,0.00050302,5026.7,0.00021066,-0.020135,8.4688e-05,-946.51,-0.00051239,-5432.7,0.05133
15914,2.8506,2.7273,0,0.00050441,5040.6,0.00021325,-0.019309,8.0935e-05,-994.2,-0.00051391,-5463.6,0.048345
15915,2.9425,2.7273,0.05,1.7886e-06,17.874,1.3734e-06,10.32,2.1671e-13,1.3775e-06,-1.3734e-06,-10.32,0.051345
15916,2.9425,2.4545,0,0.00050429,5039.5,0.00021005,-0.017482,8.7148e-05,-923.45,-0.00051361,-5437.3,0.051192
15917,2.8506,2.5455,0,0.00050541,5050.6,0.00021273,-0.01738,8.2962e-05,-975.08,-0.00051488,-5467,0.048239
15918,2.9425,2.5455,0.05,1.7905e-06,17.893,1.3749e-06,10.33,2.2672e-12,2.0616e-06,-1.3749e-06,-10.33,0.051235
15919,2.9425,2.2727,0,0.00050609,5057.4,0.00020921,-0.013421,9.0572e-05,-891.39,-0.00051533,-5443.9,0.050996
15920,2.8506,2.3636,0,0.00050692,5065.7,0.00021196,-0.014214,8.5991e-05,-946.53,-0.00051634,-5472.2,0.048078
15921,2.9425,2.3636,0.05,1.7933e-06,17.921,1.3771e-06,10.347,3.1191e-12,3.9289e-06,-1.3771e-06,-10.347,0.051069
15922,2.9425,2.0909,0,0.00050843,5080.8,0.00020814,-0.007603,9.4938e-05,-850.57,-0.00051753,-5452.4,0.050741
15923,2.8506,2.1818,0,0.00050898,5086.2,0.00021095,-0.0094782,9.0009e-05,-908.72,-0.00051831,-5479.4,0.04786
15924,2.9425,2.1818,0.05,1.7972e-06,17.96,1.38e-06,10.369,7.2544e-13,-7.9556e-06,-1.38e-06,-10.369,0.050844
15925,2.9425,1.9091,0,0.00051132,5109.7,0.00020687,0.00042394,0.00010022,-801.33,-0.00052022,-5463,0.050424
15926,2.8506,2,0,0.00051158,5112.3,0.00020971,-0.0027259,9.4993e-05,-861.93,-0.00052076,-5488.5,0.047584
15927,2.9425,2,0.05,1.8019e-06,18.006,1.3836e-06,10.396,-5.3171e-13,-4.4603e-06,-1.3836e-06,-10.396,0.050558
15928,2.9425,1.7273,0,0.00051477,5144.2,0.0002054,0.011217,0.00010636,-744.14,-0.00052338,-5475.7,0.050042
15929,2.8506,1.8182,0,0.00051476,5144.1,0.00020825,0.0066152,0.00010091,-806.52,-0.00052372,-5499.7,0.047245
15930,2.9425,1.8182,0.05,1.807e-06,18.058,1.3876e-06,10.426,5.5279e-13,9.5181e-06,-1.3876e-06,-10.426,0.050209
15931,2.9425,1.5455,0,0.00051879,5184.3,0.00020376,0.025503,0.00011331,-679.6,-0.00052699,-5490.5,0.049591
15932,2.8506,1.6364,0,0.00051853,5181.7,0.0002066,0.019237,0.0001077,-743.03,-0.00052715,-5513.1,0.046841
15933,2.9425,1.6364,0.05,1.812e-06,18.107,1.3914e-06,10.454,2.2893e-12,6.8601e-06,-1.3914e-06,-10.454,0.049793
15934,2.9425,1.3636,0,0.00052335,5229.9,0.00020197,0.044099,0.00012098,-608.45,-0.00053104,-5507.5,0.049067
15935,2.8506,1.4545,0,0.00052288,5225.2,0.00020477,0.036099,0.00011531,-672.12,-0.00053106,-5528.7,0.046367
15936,2.9425,1.4545,0.05,1.8156e-06,18.144,1.3942e-06,10.475,8.6157e-13,7.2273e-06,-1.3942e-06,-10.475,0.049306
15937,2.9425,1.1818,0,0.00052845,5280.8,0.00020006,0.068701,0.0001293,-531.56,-0.00053548,-5526.5,0.048465
15938,2.8506,1.2727,0,0.00052781,5274.5,0.00020281,0.058121,0.00012366,-594.64,-0.0005354,-5546.6,0.045819
15939,2.9425,1.2727,0.05,1.8168e-06,18.155,1.3951e-06,10.482,-1.0484e-13,3.7308e-06,-1.3951e-06,-10.482,0.048743
15940,2.9425,1,0,0.00053403,5336.6,0.00019806,0.09996,0.00013816,-449.96,-0.00054026,-5547.3,0.047779
15941,2.8506,1.0909,0,0.00053329,5329.2,0.00020072,0.08816,0.00013263,-511.57,-0.00054015,-5566.5,0.045191
15942,2.9425,1.0909,0.05,1.814e-06,18.128,1.3929e-06,10.466,1.8086e-12,7.5859e-06,-1.3929e-06,-10.466,0.0481
15943,2.9425,0.81818,0,0.00054006,5396.9,0.00019599,0.14861,0.00014743,-364.73,-0.00054533,-5569.9,0.047004
15944,2.8506,0.90909,0,0.00053927,5389,0.00019856,0.12515,0.00014211,-424.07,-0.00054523,-5588.5,0.044478
15945,2.9425,0.90909,0.05,1.8059e-06,18.047,1.3867e-06,10.419,6.6737e-12,1.8724e-06,-1.3867e-06,-10.419,0.04737
15946,2.9425,0.63636,0,0.00054646,5460.8,0.0001939,0.19868,0.000157,-277.04,-0.00055064,-5594,0.046134
15947,2.8506,0.72727,0,0.0005457,5453.3,0.00019636,0.19356,0.00015197,-333.35,-0.00055061,-5612.2,0.043673
15948,2.9425,0.72727,0.05,1.7918e-06,17.905,1.3758e-06,10.338,-4.0568e-13,3.5996e-05,-1.3758e-06,-10.338,0.046548
15949,2.9425,0.45455,0,0.00055319,5528.1,0.00019181,0.42682,0.00016676,-187.83,-0.00055614,-5619.4,0.045163
15950,2.8506,0.54545,0,0.0005525,5521.2,0.00019414,0.23952,0.00016207,-240.7,-0.0005562,-5637.5,0.04277
15951,2.9425,0.54545,0.05,1.7753e-06,17.741,1.3632e-06,10.243,2.3982e-12,-2.1726e-15,-1.3632e-06,-10.243,0.045628
15952,2.9425,0.27273,0,0.00056041,5600.3,0.00018977,0.77314,0.0001768,-96.623,-0.00056198,-5647.6,0.044084
15953,2.8506,0.36364,0,0.00055964,5592.5,0.00019197,0.70507,0.00017232,-146.94,-0.00056198,-5664.2,0.041763
15954,2.9425,0.36364,0.05,1.8121e-06,18.108,1.3914e-06,10.455,4.3067e-12,3.3217e-05,-1.3915e-06,-10.455,0.044603
15955,2.8506,0.18182,0,0.00056754,5671.5,0.00018992,1.5611,0.00018297,-50.685,-0.00056836,-5695.9,0.040645
15956,2.9425,0.18182,0.05,3.0555e-06,30.534,2.3462e-06,17.629,-2.623e-12,2.6738e-05,-2.3462e-06,-17.629,0.043467
15957,2.9425,0.090909,0,0.00056549,5651,0.00018787,0.51432,0.00018454,-24.512,-0.00056589,-5662.9,0.04289
15958,2.7586,5.7273,0,0.00056676,5663.7,0.00019205,0.88895,0.00017859,-100.24,-0.00056838,-5712.7,0.038449
15959,2.6667,5.8182,0,0.00057416,5737.6,0.0001921,1.9355,0.0001852,-49.941,-0.00057496,-5761.5,0.035219
15960,2.7586,5.8182,0.05,3.2681e-06,32.659,2.5095e-06,18.855,1.4412e-12,-4.8945e-05,-2.5095e-06,-18.856,0.03785
15961,2.7586,5.9091,0,0.00057199,5716,0.00018997,0.5773,0.00018676,-23.512,-0.00057238,-5727.4,0.037291
15962,2.7586,5.5455,0,0.00055895,5585.6,0.00019429,0.47285,0.00016766,-199.62,-0.00056207,-5682.5,0.039492
15963,2.6667,5.6364,0,0.00056557,5651.8,0.00019432,0.78281,0.00017361,-154.85,-0.00056803,-5727.2,0.0363
15964,2.7586,5.6364,0.05,1.8912e-06,18.899,1.4522e-06,10.912,-5.3773e-12,-0.00010614,-1.4522e-06,-10.912,0.03895
15965,2.7586,5.3636,0,0.00055174,5513.6,0.0001966,0.2205,0.00015706,-296.85,-0.00055618,-5655.9,0.040428
15966,2.6667,5.4545,0,0.0005579,5575.2,0.00019672,0.26758,0.00016247,-257.04,-0.00056183,-5699.1,0.037269
15967,2.7586,5.4545,0.05,1.8581e-06,18.568,1.4268e-06,10.72,-1.5234e-11,-0.00011479,-1.4268e-06,-10.72,0.039939
15968,2.7586,5.1818,0,0.00054491,5445.3,0.00019893,0.16385,0.00014666,-392.54,-0.00055052,-5630.9,0.041262
15969,2.6667,5.2727,0,0.00055064,5502.6,0.00019918,0.21383,0.00015148,-358.19,-0.00055585,-5672.8,0.038134
15970,2.7586,5.2727,0.05,1.8798e-06,18.785,1.4435e-06,10.846,-1.0777e-11,-0.000145,-1.4435e-06,-10.846,0.040824
15971,2.7586,5,0,0.00053852,5381.5,0.00020123,0.10987,0.00013659,-485.56,-0.00054513,-5607.8,0.042003
15972,2.6667,5.0909,0,0.00054381,5434.4,0.00020164,0.13778,0.00014076,-457.3,-0.00055014,-5648.5,0.038902
15973,2.7586,5.0909,0.05,1.8977e-06,18.964,1.4572e-06,10.949,-9.2325e-12,-0.00013144,-1.4572e-06,-10.949,0.041611
15974,2.7586,4.8182,0,0.00053264,5322.8,0.00020347,0.075373,0.00012699,-574.56,-0.00054008,-5586.7,0.042656
15975,2.6667,4.9091,0,0.00053751,5371.4,0.00020406,0.096663,0.00013047,-552.83,-0.00054477,-5626.4,0.03958
15976,2.7586,4.9091,0.05,1.908e-06,19.067,1.4651e-06,11.008,-3.8565e-12,-8.9572e-05,-1.4651e-06,-11.008,0.042307
15977,2.7586,4.6364,0,0.00052733,5269.7,0.00020561,0.04859,0.00011799,-658.26,-0.00053543,-5567.8,0.043228
15978,2.6667,4.7273,0,0.0005318,5314.3,0.0002064,0.063752,0.00012077,-643.35,-0.00053981,-5606.6,0.040175
15979,2.7586,4.7273,0.05,1.912e-06,19.107,1.4682e-06,11.031,-4.9577e-14,-0.00011314,-1.4682e-06,-11.031,0.042919
15980,2.7586,4.4545,0,0.00052261,5222.5,0.00020761,0.028699,0.00010971,-735.55,-0.00053122,-5551.3,0.043724
15981,2.6667,4.5455,0,0.00052671,5263.4,0.00020861,0.040039,0.00011177,-727.57,-0.0005353,-5589.3,0.040692
15982,2.7586,4.5455,0.05,1.9115e-06,19.102,1.4678e-06,11.028,-1.3564e-13,-7.1477e-05,-1.4678e-06,-11.028,0.043452
15983,2.7586,4.2727,0,0.00051851,5181.5,0.00020945,0.013752,0.00010225,-805.45,-0.00052749,-5537.1,0.044149
15984,2.6667,4.3636,0,0.00052227,5219.1,0.00021065,0.02229,0.00010359,-804.39,-0.00053128,-5574.5,0.041138
15985,2.7586,4.3636,0.05,1.9084e-06,19.071,1.4654e-06,11.01,-2.537e-12,-4.0762e-05,-1.4654e-06,-11.01,0.043912
15986,2.7586,4.0909,0,0.00051502,5146.6,0.00021109,0.0027493,9.5675e-05,-867.19,-0.00052426,-5525.1,0.044508
15987,2.6667,4.1818,0,0.00051847,5181.1,0.0002125,0.009367,9.6325e-05,-872.92,-0.00052777,-5562.1,0.041516
15988,2.7586,4.1818,0.05,1.9042e-06,19.029,1.4622e-06,10.986,2.3946e-13,-5.6296e-05,-1.4622e-06,-10.986,0.044304
15989,2.7586,3.9091,0,0.00051212,5117.7,0.00021252,-0.0052016,9.0049e-05,-920.19,-0.00052153,-5515.3,0.044805
15990,2.6667,4,0,0.0005153,5149.5,0.00021414,9.9289e-05,9.0028e-05,-932.51,-0.00052479,-5552,0.041833
15991,2.7586,4,0.05,1.9001e-06,18.987,1.459e-06,10.962,7.8987e-13,-3.8528e-05,-1.459e-06,-10.962,0.044631
15992,2.7586,3.7273,0,0.0005098,5094.5,0.00021371,-0.010791,8.541e-05,-964,-0.00051931,-5507.6,0.045044
15993,2.6667,3.8182,0,0.00051274,5123.8,0.00021553,-0.0063711,8.4745e-05,-982.66,-0.00052233,-5544,0.042091
15994,2.7586,3.8182,0.05,1.8966e-06,18.953,1.4564e-06,10.943,1.5494e-12,-1.1702e-05,-1.4564e-06,-10.943,0.044899
15995,2.7586,3.5455,0,0.00050803,5076.8,0.00021465,-0.014576,8.1783e-05,-998.32,-0.00051759,-5501.8,0.045226
15996,2.6667,3.6364,0,0.00051074,5103.8,0.00021666,-0.010748,8.0502e-05,-1023,-0.00052039,-5537.9,0.042294
15997,2.7586,3.6364,0.05,1.8941e-06,18.928,1.4544e-06,10.928,1.9657e-12,-1.4325e-05,-1.4544e-06,-10.928,0.045109
15998,2.7586,3.3636,0,0.00050678,5064.3,0.00021533,-0.016981,7.9184e-05,-1023,-0.00051637,-5497.7,0.045355
15999,2.6667,3.4545,0,0.00050927,5089.2,0.00021752,-0.013572,7.7313e-05,-1053.5,-0.00051894,-5533.5,0.042443
16000,2.7586,3.4545,0.05,1.8925e-06,18.911,1.4532e-06,10.918,1.563e-12,-8.1354e-06,-1.4532e-06,-10.919,0.045265
16001,2.7586,3.1818,0,0.00050604,5056.9,0.00021574,-0.018307,7.7622e-05,-1037.8,-0.00051564,-5495.3,0.045432
16002,2.6667,3.2727,0,0.00050831,5079.6,0.0002181,-0.015241,7.5185e-05,-1073.8,-0.00051799,-5530.7,0.042542
16003,2.7586,3.2727,0.05,1.8915e-06,18.902,1.4525e-06,10.913,2.158e-12,-4.0063e-06,-1.4525e-06,-10.913,0.045367
16004,2.7586,3,0,0.0005058,5054.5,0.00021588,-0.018729,7.7101e-05,-1042.7,-0.0005154,-5494.6,0.045458
16005,2.6667,3.0909,0,0.00050784,5074.9,0.00021839,-0.016012,7.412e-05,-1084,-0.00051751,-5529.3,0.042591
16006,2.7586,3.0909,0.05,1.8911e-06,18.898,1.4522e-06,10.911,2.6176e-12,-1.6112e-05,-1.4522e-06,-10.911,0.045418
16007,2.7586,2.8182,0,0.00050604,5056.9,0.00021574,-0.018306,7.7622e-05,-1037.8,-0.00051564,-5495.3,0.045432
16008,2.6667,2.9091,0,0.00050784,5074.9,0.00021839,-0.016012,7.412e-05,-1084,-0.00051751,-5529.3,0.042591
16009,2.7586,2.9091,0.05,1.8911e-06,18.898,1.4522e-06,10.911,2.8284e-12,7.0158e-07,-1.4522e-06,-10.911,0.045418
16010,2.7586,2.6364,0,0.00050678,5064.3,0.00021533,-0.016981,7.9184e-05,-1023,-0.00051637,-5497.7,0.045355
16011,2.6667,2.7273,0,0.00050831,5079.6,0.0002181,-0.01524,7.5185e-05,-1073.8,-0.00051799,-5530.7,0.042542
16012,2.7586,2.7273,0.05,1.8915e-06,18.902,1.4525e-06,10.913,1.0893e-12,1.3914e-06,-1.4525e-06,-10.913,0.045367
16013,2.7586,2.4545,0,0.00050803,5076.8,0.00021465,-0.014576,8.1783e-05,-998.32,-0.00051759,-5501.8,0.045226
16014,2.6667,2.5455,0,0.00050927,5089.2,0.00021752,-0.013572,7.7313e-05,-1053.5,-0.00051894,-5533.5,0.042443
16015,2.7586,2.5455,0.05,1.8925e-06,18.911,1.4532e-06,10.919,2.5352e-12,1.3072e-06,-1.4532e-06,-10.919,0.045265
16016,2.7586,2.2727,0,0.0005098,5094.5,0.00021371,-0.010791,8.541e-05,-964,-0.00051931,-5507.6,0.045044
16017,2.6667,2.3636,0,0.00051074,5103.8,0.00021666,-0.010748,8.0502e-05,-1023,-0.00052039,-5537.9,0.042294
16018,2.7586,2.3636,0.05,1.8941e-06,18.928,1.4544e-06,10.928,-7.0743e-14,-4.2187e-06,-1.4544e-06,-10.928,0.045109
16019,2.7586,2.0909,0,0.00051212,5117.7,0.00021252,-0.0052013,9.0049e-05,-920.19,-0.00052153,-5515.3,0.044805
16020,2.6667,2.1818,0,0.00051274,5123.8,0.00021553,-0.0063709,8.4745e-05,-982.66,-0.00052233,-5544,0.042091
16021,2.7586,2.1818,0.05,1.8966e-06,18.953,1.4564e-06,10.943,1.5443e-12,5.0108e-06,-1.4564e-06,-10.943,0.044899
16022,2.7586,1.9091,0,0.00051502,5146.6,0.00021109,0.0027496,9.5675e-05,-867.19,-0.00052426,-5525.1,0.044508
16023,2.6667,2,0,0.0005153,5149.5,0.00021414,9.9603e-05,9.0028e-05,-932.51,-0.00052479,-5552,0.041833
16024,2.7586,2,0.05,1.9001e-06,18.987,1.459e-06,10.962,1.792e-12,-3.5911e-06,-1.459e-06,-10.962,0.044631
16025,2.7586,1.7273,0,0.00051851,5181.5,0.00020945,0.013753,0.00010225,-805.45,-0.00052749,-5537.1,0.044149
16026,2.6667,1.8182,0,0.00051847,5181.1,0.0002125,0.0093674,9.6325e-05,-872.92,-0.00052777,-5562.1,0.041516
16027,2.7586,1.8182,0.05,1.9042e-06,19.029,1.4622e-06,10.986,-2.7952e-13,6.5186e-06,-1.4622e-06,-10.986,0.044304
16028,2.7586,1.5455,0,0.00052261,5222.5,0.00020761,0.0287,0.00010971,-735.55,-0.00053122,-5551.3,0.043724
16029,2.6667,1.6364,0,0.00052227,5219.1,0.00021065,0.022291,0.00010359,-804.39,-0.00053128,-5574.5,0.041138
16030,2.7586,1.6364,0.05,1.9084e-06,19.071,1.4654e-06,11.01,1.2564e-12,1.0539e-05,-1.4654e-06,-11.01,0.043912
16031,2.7586,1.3636,0,0.00052733,5269.7,0.00020561,0.04859,0.00011799,-658.26,-0.00053543,-5567.8,0.043228
16032,2.6667,1.4545,0,0.00052671,5263.4,0.00020861,0.040039,0.00011177,-727.57,-0.0005353,-5589.3,0.040692
16033,2.7586,1.4545,0.05,1.9115e-06,19.102,1.4678e-06,11.028,-1.3359e-13,7.368e-06,-1.4678e-06,-11.028,0.043452
16034,2.7586,1.1818,0,0.00053264,5322.8,0.00020347,0.075373,0.00012699,-574.56,-0.00054008,-5586.7,0.042656
16035,2.6667,1.2727,0,0.0005318,5314.3,0.0002064,0.063752,0.00012077,-643.35,-0.00053981,-5606.6,0.040175
16036,2.7586,1.2727,0.05,1.912e-06,19.107,1.4682e-06,11.031,1.3517e-12,3.0175e-05,-1.4682e-06,-11.031,0.042919
16037,2.7586,1,0,0.00053852,5381.5,0.00020123,0.10987,0.00013659,-485.56,-0.00054513,-5607.8,0.042003
16038,2.6667,1.0909,0,0.00053751,5371.4,0.00020406,0.096663,0.00013047,-552.83,-0.00054477,-5626.4,0.03958
16039,2.7586,1.0909,0.05,1.908e-06,19.067,1.4651e-06,11.008,4.0139e-12,1.1441e-05,-1.4651e-06,-11.008,0.042307
16040,2.7586,0.81818,0,0.00054491,5445.3,0.00019893,0.16385,0.00014666,-392.54,-0.00055052,-5630.9,0.041262
16041,2.6667,0.90909,0,0.00054381,5434.4,0.00020164,0.13778,0.00014076,-457.3,-0.00055014,-5648.5,0.038902
16042,2.7586,0.90909,0.05,1.8977e-06,18.964,1.4572e-06,10.949,4.3706e-12,8.0934e-05,-1.4572e-06,-10.949,0.041611
16043,2.7586,0.63636,0,0.00055174,5513.6,0.0001966,0.2205,0.00015706,-296.85,-0.00055618,-5655.9,0.040428
16044,2.6667,0.72727,0,0.00055064,5502.6,0.00019918,0.21383,0.00015148,-358.19,-0.00055585,-5672.8,0.038134
16045,2.7586,0.72727,0.05,1.8798e-06,18.785,1.4435e-06,10.846,9.3166e-12,3.5309e-05,-1.4435e-06,-10.846,0.040824
16046,2.7586,0.45455,0,0.00055895,5585.6,0.00019429,0.47285,0.00016766,-199.62,-0.00056207,-5682.5,0.039492
16047,2.6667,0.54545,0,0.0005579,5575.2,0.00019672,0.26758,0.00016247,-257.04,-0.00056183,-5699.1,0.037269
16048,2.7586,0.54545,0.05,1.8581e-06,18.568,1.4268e-06,10.72,3.8704e-12,3.7021e-05,-1.4268e-06,-10.72,0.039939
16049,2.7586,0.27273,0,0.00056676,5663.7,0.00019205,0.88895,0.00017859,-100.24,-0.00056838,-5712.7,0.038449
16050,2.6667,0.36364,0,0.00056557,5651.8,0.00019432,0.78281,0.00017361,-154.85,-0.00056803,-5727.2,0.0363
16051,2.7586,0.36364,0.05,1.8912e-06,18.899,1.4522e-06,10.912,-7.6455e-13,3.5381e-05,-1.4522e-06,-10.912,0.03895
16052,2.6667,0.18182,0,0.00057416,5737.6,0.0001921,1.9355,0.0001852,-49.941,-0.00057496,-5761.5,0.035219
16053,2.7586,0.18182,0.05,3.2681e-06,32.659,2.5095e-06,18.856,1.0967e-12,2.4473e-05,-2.5095e-06,-18.856,0.03785
16054,2.7586,0.090909,0,0.00057199,5716,0.00018997,0.5773,0.00018676,-23.512,-0.00057238,-5727.4,0.037291
16055,2.5747,5.7273,0,0.00057296,5725.6,0.00019427,1.0279,0.00018035,-103.57,-0.00057463,-5776.2,0.033195
16056,2.4828,5.8182,0,0.00058063,5802.3,0.00019421,2.4411,0.00018743,-48.447,-0.0005814,-5825.2,0.030179
16057,2.5747,5.8182,0.05,3.4879e-06,34.855,2.6783e-06,20.123,-3.032e-13,-5.0108e-05,-2.6783e-06,-20.124,0.032616
16058,2.5747,5.9091,0,0.00057834,5779.4,0.00019199,0.65771,0.00018898,-21.942,-0.0005787,-5790,0.032076
16059,2.5747,5.5455,0,0.00056451,5641.2,0.00019674,0.52483,0.00016845,-212.04,-0.00056781,-5744,0.034199
16060,2.4828,5.6364,0,0.00057127,5708.8,0.00019661,0.87153,0.0001748,-162.95,-0.00057385,-5788.1,0.031217
16061,2.5747,5.6364,0.05,1.9785e-06,19.771,1.5192e-06,11.415,-1.1189e-11,-0.00015489,-1.5192e-06,-11.415,0.033676
16062,2.5747,5.3636,0,0.00055679,5564.1,0.0001993,0.24497,0.00015692,-318.2,-0.00056152,-5716.2,0.035094
16063,2.4828,5.4545,0,0.00056305,5626.6,0.00019927,0.29951,0.00016268,-274.57,-0.00056721,-5758.7,0.032144
16064,2.5747,5.4545,0.05,1.9522e-06,19.509,1.4991e-06,11.263,-1.2647e-11,-0.00016199,-1.4991e-06,-11.264,0.034626
16065,2.5747,5.1818,0,0.00054953,5491.5,0.0002019,0.18063,0.0001456,-422.79,-0.0005555,-5690.6,0.03589
16066,2.4828,5.2727,0,0.0005553,5549.2,0.00020202,0.23641,0.00015072,-385.24,-0.00056084,-5731.6,0.032968
16067,2.5747,5.2727,0.05,1.9805e-06,19.791,1.5208e-06,11.427,-7.2017e-12,-8.0906e-05,-1.5208e-06,-11.427,0.035471
16068,2.5747,5,0,0.00054279,5424.1,0.00020448,0.12061,0.00013466,-524.44,-0.0005498,-5667.3,0.036593
16069,2.4828,5.0909,0,0.00054808,5477.1,0.00020478,0.15163,0.00013906,-493.69,-0.00055481,-5707.1,0.033696
16070,2.5747,5.0909,0.05,2.0026e-06,20.012,1.5378e-06,11.554,-1.457e-11,-7.3371e-05,-1.5378e-06,-11.554,0.036219
16071,2.5747,4.8182,0,0.00053665,5362.8,0.00020699,0.082532,0.00012426,-621.53,-0.00054451,-5646.4,0.03721
16072,2.4828,4.9091,0,0.00054149,5411.1,0.0002075,0.10586,0.00012789,-598.07,-0.00054917,-5685.3,0.034335
16073,2.5747,4.9091,0.05,2.0151e-06,20.137,1.5474e-06,11.626,-1.0005e-11,-0.00010148,-1.5474e-06,-11.626,0.036879
16074,2.5747,4.6364,0,0.00053116,5307.9,0.0002094,0.053461,0.00011455,-712.62,-0.00053968,-5628.2,0.037748
16075,2.4828,4.7273,0,0.00053558,5352.1,0.00021013,0.069867,0.0001174,-696.7,-0.00054402,-5666.3,0.034893
16076,2.5747,4.7273,0.05,2.0201e-06,20.187,1.5512e-06,11.655,-7.7964e-12,-6.5004e-05,-1.5512e-06,-11.655,0.037456
16077,2.5747,4.4545,0,0.00052634,5259.8,0.00021165,0.032345,0.00010565,-796.42,-0.00053535,-5612.6,0.038213
16078,2.4828,4.5455,0,0.0005304,5300.3,0.00021262,0.044496,0.00010772,-788.12,-0.00053939,-5650.2,0.035377
16079,2.5747,4.5455,0.05,2.0201e-06,20.187,1.5512e-06,11.655,-7.3597e-12,-8.1691e-05,-1.5512e-06,-11.655,0.037957
16080,2.5747,4.2727,0,0.00052221,5218.5,0.00021371,0.016909,9.7661e-05,-871.92,-0.00053155,-5599.6,0.038611
16081,2.4828,4.3636,0,0.00052594,5255.8,0.00021492,0.026037,9.8973e-05,-871.12,-0.00053531,-5636.9,0.035792
16082,2.5747,4.3636,0.05,2.0176e-06,20.162,1.5492e-06,11.64,-3.1916e-12,-4.3682e-05,-1.5492e-06,-11.64,0.038387
16083,2.5747,4.0909,0,0.00051875,5183.9,0.00021555,0.0059147,9.0664e-05,-938.34,-0.0005283,-5589,0.038945
16084,2.4828,4.1818,0,0.0005222,5218.4,0.000217,0.013057,9.1245e-05,-944.82,-0.00053181,-5626.2,0.036144
16085,2.5747,4.1818,0.05,2.0144e-06,20.13,1.5468e-06,11.622,-1.8304e-12,-5.3713e-05,-1.5468e-06,-11.622,0.038752
16086,2.5747,3.9091,0,0.00051591,5155.5,0.00021715,-0.0017381,8.4706e-05,-995.11,-0.00052558,-5580.6,0.039221
16087,2.4828,4,0,0.00051912,5187.6,0.00021882,0.0041176,8.4589e-05,-1008.6,-0.00052887,-5617.9,0.036436
16088,2.5747,4,0.05,2.0117e-06,20.104,1.5448e-06,11.607,-8.8141e-13,-4.0708e-05,-1.5448e-06,-11.607,0.039057
16089,2.5747,3.7273,0,0.00051367,5133.1,0.00021848,-0.0069014,7.9815e-05,-1041.9,-0.00052339,-5574.1,0.039442
16090,2.4828,3.8182,0,0.00051667,5163.1,0.00022038,-0.001842,7.9035e-05,-1062,-0.00052647,-5611.5,0.036674
16091,2.5747,3.8182,0.05,2.0101e-06,20.087,1.5435e-06,11.597,1.6106e-12,-4.2166e-05,-1.5435e-06,-11.598,0.039305
16092,2.5747,3.5455,0,0.00051197,5116.2,0.00021953,-0.010252,7.6006e-05,-1078.4,-0.00052172,-5569.4,0.039611
16093,2.4828,3.6364,0,0.00051478,5144.3,0.00022164,-0.005674,7.4595e-05,-1104.9,-0.0005246,-5607,0.036861
16094,2.5747,3.6364,0.05,2.0095e-06,20.081,1.5431e-06,11.594,1.9066e-12,-2.0785e-05,-1.5431e-06,-11.594,0.0395
16095,2.5747,3.3636,0,0.00051079,5104.4,0.00022029,-0.012296,7.3285e-05,-1104.5,-0.00052053,-5566.2,0.03973
16096,2.4828,3.4545,0,0.00051342,5130.7,0.0002226,-0.0080198,7.1272e-05,-1137,-0.00052322,-5603.8,0.036998
16097,2.5747,3.4545,0.05,2.0096e-06,20.082,1.5431e-06,11.595,1.2699e-12,-8.4136e-06,-1.5432e-06,-11.595,0.039644
16098,2.5747,3.1818,0,0.0005101,5097.4,0.00022074,-0.013386,7.1653e-05,-1120.2,-0.00051983,-5564.4,0.039801
16099,2.4828,3.2727,0,0.00051254,5121.8,0.00022324,-0.0093405,6.9061e-05,-1158.5,-0.00052232,-5601.8,0.037089
16100,2.5747,3.2727,0.05,2.01e-06,20.086,1.5434e-06,11.597,3.1734e-12,-3.4442e-06,-1.5434e-06,-11.597,0.039738
16101,2.5747,3,0,0.00050987,5095.2,0.0002209,-0.013727,7.1109e-05,-1125.5,-0.0005196,-5563.8,0.039824
16102,2.4828,3.0909,0,0.0005121,5117.5,0.00022357,-0.0099295,6.7957e-05,-1169.2,-0.00052187,-5600.9,0.037134
16103,2.5747,3.0909,0.05,2.0103e-06,20.089,1.5437e-06,11.598,2.6057e-12,-9.9638e-07,-1.5437e-06,-11.599,0.039785
16104,2.5747,2.8182,0,0.0005101,5097.4,0.00022074,-0.013386,7.1653e-05,-1120.2,-0.00051983,-5564.4,0.039801
16105,2.4828,2.9091,0,0.0005121,5117.5,0.00022357,-0.0099294,6.7957e-05,-1169.2,-0.00052187,-5600.9,0.037134
16106,2.5747,2.9091,0.05,2.0103e-06,20.089,1.5437e-06,11.599,1.9102e-12,7.1288e-07,-1.5437e-06,-11.599,0.039785
16107,2.5747,2.6364,0,0.00051079,5104.4,0.00022029,-0.012296,7.3285e-05,-1104.5,-0.00052053,-5566.2,0.03973
16108,2.4828,2.7273,0,0.00051254,5121.8,0.00022324,-0.0093404,6.9061e-05,-1158.5,-0.00052232,-5601.8,0.037089
16109,2.5747,2.7273,0.05,2.01e-06,20.086,1.5434e-06,11.597,3.7784e-12,2.307e-06,-1.5434e-06,-11.597,0.039738
16110,2.5747,2.4545,0,0.00051197,5116.2,0.00021953,-0.010251,7.6006e-05,-1078.4,-0.00052172,-5569.4,0.039611
16111,2.4828,2.5455,0,0.00051342,5130.7,0.0002226,-0.0080197,7.1272e-05,-1137,-0.00052322,-5603.8,0.036998
16112,2.5747,2.5455,0.05,2.0096e-06,20.082,1.5431e-06,11.595,8.1634e-13,1.2791e-06,-1.5432e-06,-11.595,0.039644
16113,2.5747,2.2727,0,0.00051367,5133.1,0.00021848,-0.0069012,7.9815e-05,-1041.9,-0.00052339,-5574.1,0.039442
16114,2.4828,2.3636,0,0.00051478,5144.3,0.00022164,-0.0056738,7.4595e-05,-1104.9,-0.0005246,-5607,0.036861
16115,2.5747,2.3636,0.05,2.0095e-06,20.081,1.5431e-06,11.594,3.2499e-12,-5.5932e-06,-1.5431e-06,-11.594,0.0395
16116,2.5747,2.0909,0,0.00051591,5155.5,0.00021715,-0.0017378,8.4706e-05,-995.11,-0.00052558,-5580.6,0.039221
16117,2.4828,2.1818,0,0.00051667,5163.1,0.00022038,-0.0018417,7.9035e-05,-1062,-0.00052647,-5611.5,0.036674
16118,2.5747,2.1818,0.05,2.0101e-06,20.087,1.5435e-06,11.597,6.1125e-13,6.4094e-06,-1.5435e-06,-11.597,0.039305
16119,2.5747,1.9091,0,0.00051875,5183.9,0.00021555,0.005915,9.0664e-05,-938.34,-0.0005283,-5589,0.038945
16120,2.4828,2,0,0.00051912,5187.6,0.00021882,0.0041179,8.4589e-05,-1008.6,-0.00052887,-5617.9,0.036436
16121,2.5747,2,0.05,2.0117e-06,20.104,1.5448e-06,11.607,7.1309e-13,1.2948e-06,-1.5448e-06,-11.607,0.039057
16122,2.5747,1.7273,0,0.00052221,5218.5,0.00021371,0.016909,9.7661e-05,-871.92,-0.00053155,-5599.6,0.038611
16123,2.4828,1.8182,0,0.0005222,5218.4,0.000217,0.013057,9.1245e-05,-944.82,-0.00053181,-5626.2,0.036144
16124,2.5747,1.8182,0.05,2.0144e-06,20.13,1.5468e-06,11.622,7.9479e-13,6.6672e-06,-1.5468e-06,-11.622,0.038752
16125,2.5747,1.5455,0,0.00052634,5259.8,0.00021165,0.032345,0.00010565,-796.42,-0.00053535,-5612.6,0.038213
16126,2.4828,1.6364,0,0.00052594,5255.8,0.00021492,0.026038,9.8973e-05,-871.12,-0.00053531,-5636.9,0.035792
16127,2.5747,1.6364,0.05,2.0176e-06,20.162,1.5492e-06,11.64,1.7086e-12,7.1665e-06,-1.5492e-06,-11.64,0.038387
16128,2.5747,1.3636,0,0.00053116,5307.9,0.0002094,0.053461,0.00011455,-712.62,-0.00053968,-5628.2,0.037748
16129,2.4828,1.4545,0,0.0005304,5300.3,0.00021262,0.044496,0.00010772,-788.12,-0.00053939,-5650.2,0.035377
16130,2.5747,1.4545,0.05,2.0201e-06,20.187,1.5512e-06,11.655,4.457e-13,7.4776e-06,-1.5512e-06,-11.655,0.037957
16131,2.5747,1.1818,0,0.00053665,5362.8,0.00020699,0.082532,0.00012426,-621.53,-0.00054451,-5646.4,0.03721
16132,2.4828,1.2727,0,0.00053558,5352.1,0.00021013,0.069867,0.0001174,-696.7,-0.00054402,-5666.3,0.034893
16133,2.5747,1.2727,0.05,2.0201e-06,20.187,1.5512e-06,11.655,8.7989e-13,1.1424e-05,-1.5512e-06,-11.655,0.037456
16134,2.5747,1,0,0.00054279,5424.1,0.00020448,0.12061,0.00013466,-524.44,-0.0005498,-5667.3,0.036593
16135,2.4828,1.0909,0,0.00054149,5411.1,0.0002075,0.10586,0.00012789,-598.07,-0.00054917,-5685.3,0.034335
16136,2.5747,1.0909,0.05,2.0151e-06,20.137,1.5474e-06,11.626,4.3349e-12,2.8997e-05,-1.5474e-06,-11.626,0.036879
16137,2.5747,0.81818,0,0.00054953,5491.5,0.0002019,0.18063,0.0001456,-422.79,-0.0005555,-5690.6,0.03589
16138,2.4828,0.90909,0,0.00054808,5477.1,0.00020478,0.15163,0.00013906,-493.69,-0.00055481,-5707.1,0.033696
16139,2.5747,0.90909,0.05,2.0026e-06,20.012,1.5378e-06,11.554,8.7054e-12,3.7549e-06,-1.5378e-06,-11.554,0.036219
16140,2.5747,0.63636,0,0.00055679,5564.1,0.0001993,0.24497,0.00015692,-318.2,-0.00056152,-5716.2,0.035094
16141,2.4828,0.72727,0,0.0005553,5549.2,0.00020202,0.23641,0.00015072,-385.24,-0.00056084,-5731.6,0.032968
16142,2.5747,0.72727,0.05,1.9805e-06,19.791,1.5208e-06,11.427,-3.2258e-22,4.2292e-05,-1.5208e-06,-11.427,0.035471
16143,2.5747,0.45455,0,0.00056451,5641.2,0.00019674,0.52483,0.00016845,-212.04,-0.00056781,-5744,0.034199
16144,2.4828,0.54545,0,0.00056305,5626.6,0.00019927,0.29951,0.00016268,-274.57,-0.00056721,-5758.7,0.032144
16145,2.5747,0.54545,0.05,1.9522e-06,19.509,1.4991e-06,11.263,9.9027e-12,4.0497e-05,-1.4991e-06,-11.263,0.034626
16146,2.5747,0.27273,0,0.00057296,5725.6,0.00019427,1.0279,0.00018035,-103.57,-0.00057463,-5776.2,0.033195
16147,2.4828,0.36364,0,0.00057127,5708.8,0.00019661,0.87153,0.0001748,-162.95,-0.00057385,-5788.1,0.031217
16148,2.5747,0.36364,0.05,1.9785e-06,19.771,1.5192e-06,11.415,-4.5392e-13,4.6071e-05,-1.5192e-06,-11.415,0.033676
16149,2.4828,0.18182,0,0.00058063,5802.3,0.00019421,2.4411,0.00018743,-48.447,-0.0005814,-5825.2,0.030179
16150,2.5747,0.18182,0.05,3.4879e-06,34.855,2.6783e-06,20.124,-1.2884e-12,1.2716e-05,-2.6783e-06,-20.123,0.032616
16151,2.5747,0.090909,0,0.00057834,5779.4,0.00019199,0.65771,0.00018898,-21.942,-0.0005787,-5790,0.032076
16152,2.3908,5.7273,0,0.00057893,5785.3,0.0001964,1.1961,0.00018206,-106.54,-0.00058065,-5837.2,0.028326
16153,2.2989,5.8182,0,0.00058686,5864.6,0.00019621,3.1444,0.00018965,-46.108,-0.00058758,-5885.9,0.025527
16154,2.3908,5.8182,0.05,3.7129e-06,37.103,2.851e-06,21.422,9.1889e-13,-5.2582e-05,-2.8511e-06,-21.422,0.027769
16155,2.3908,5.9091,0,0.00058443,5840.2,0.0001939,0.76678,0.00019118,-19.698,-0.00058475,-5849.7,0.027252
16156,2.3908,5.5455,0,0.00056979,5694,0.00019913,0.58391,0.00016907,-225.22,-0.00057328,-5803,0.029285
16157,2.2989,5.6364,0,0.00057665,5762.6,0.0001988,0.97334,0.00017587,-171.3,-0.00057936,-5845.8,0.026519
16158,2.3908,5.6364,0.05,2.0764e-06,20.749,1.5944e-06,11.98,-7.8698e-12,-0.0001694,-1.5944e-06,-11.98,0.028785
16159,2.3908,5.3636,0,0.00056154,5611.5,0.00020198,0.27258,0.00015651,-341.41,-0.00056656,-5774.3,0.030137
16160,2.2989,5.4545,0,0.00056783,5674.4,0.00020176,0.33585,0.00016265,-293.58,-0.00057224,-5815.3,0.027399
16161,2.3908,5.4545,0.05,2.0614e-06,20.6,1.5829e-06,11.893,-1.3776e-11,-0.0001766,-1.5829e-06,-11.894,0.02969
16162,2.3908,5.1818,0,0.00055384,5534.5,0.0002049,0.19924,0.00014419,-455.97,-0.00056018,-5748.3,0.03089
16163,2.2989,5.2727,0,0.00055959,5592,0.00020486,0.26144,0.00014959,-414.99,-0.00056548,-5787.8,0.028177
16164,2.3908,5.2727,0.05,2.0975e-06,20.96,1.6106e-06,12.101,-7.7676e-12,-0.00013326,-1.6106e-06,-12.101,0.030492
16165,2.3908,5,0,0.00054676,5463.9,0.00020781,0.13234,0.0001323,-567.19,-0.00055419,-5725.2,0.031551
16166,2.2989,5.0909,0,0.00055199,5516.1,0.00020798,0.1666,0.0001369,-533.89,-0.00055913,-5763.5,0.028861
16167,2.3908,5.0909,0.05,2.1239e-06,21.224,1.6309e-06,12.254,-1.2874e-11,-0.00012448,-1.6309e-06,-12.254,0.031198
16168,2.3908,4.8182,0,0.0005404,5400.3,0.00021064,0.090325,0.00012104,-673.16,-0.00054869,-5705.2,0.03213
16169,2.2989,4.9091,0,0.00054515,5447.7,0.00021105,0.1156,0.00012479,-648.05,-0.00055327,-5742.7,0.029458
16170,2.3908,4.9091,0.05,2.1381e-06,21.367,1.6418e-06,12.336,-1.1458e-12,-7.4414e-05,-1.6418e-06,-12.336,0.031817
16171,2.3908,4.6364,0,0.0005348,5344.3,0.00021335,0.058915,0.00011057,-772.18,-0.00054373,-5688.3,0.032631
16172,2.2989,4.7273,0,0.00053912,5387.5,0.00021402,0.076353,0.00011346,-755.48,-0.00054798,-5725.3,0.029977
16173,2.3908,4.7273,0.05,2.1434e-06,21.42,1.6459e-06,12.367,-1.3001e-11,-0.00010827,-1.6459e-06,-12.367,0.032356
16174,2.3908,4.4545,0,0.00052997,5296.1,0.00021588,0.036726,0.00010104,-862.85,-0.00053935,-5674.5,0.033063
16175,2.2989,4.5455,0,0.00053393,5335.6,0.00021683,0.049444,0.00010309,-854.51,-0.0005433,-5711.3,0.030424
16176,2.3908,4.5455,0.05,2.1435e-06,21.42,1.646e-06,12.367,-6.6054e-12,-6.0111e-05,-1.646e-06,-12.367,0.032822
16177,2.3908,4.2727,0,0.0005259,5255.4,0.0002182,0.021059,9.2547e-05,-944.11,-0.00053556,-5663.5,0.03343
16178,2.2989,4.3636,0,0.00052956,5292,0.00021942,0.030547,9.3788e-05,-943.89,-0.00053926,-5700.4,0.030806
16179,2.3908,4.3636,0.05,2.1415e-06,21.401,1.6444e-06,12.356,-2.4213e-12,-5.3689e-05,-1.6444e-06,-12.356,0.033221
16180,2.3908,4.0909,0,0.00052255,5221.9,0.00022027,0.010361,8.5153e-05,-1015.2,-0.00053236,-5655,0.033738
16181,2.2989,4.1818,0,0.00052598,5256.1,0.00022175,0.017829,8.5631e-05,-1022.7,-0.00053585,-5692.3,0.031129
16182,2.3908,4.1818,0.05,2.1397e-06,21.382,1.643e-06,12.345,-1.8575e-12,-6.5505e-05,-1.643e-06,-12.345,0.033558
16183,2.3908,3.9091,0,0.00051986,5195.1,0.00022206,0.0032723,7.8895e-05,-1075.7,-0.00052974,-5648.7,0.033992
16184,2.2989,4,0,0.0005231,5227.4,0.0002238,0.0095176,7.8657e-05,-1090.5,-0.00053304,-5686.6,0.031396
16185,2.3908,4,0.05,2.1391e-06,21.376,1.6426e-06,12.341,1.4699e-12,-2.7323e-05,-1.6425e-06,-12.342,0.033838
16186,2.3908,3.7273,0,0.00051777,5174.2,0.00022354,-0.0012448,7.3789e-05,-1125.2,-0.00052765,-5644.2,0.034194
16187,2.2989,3.8182,0,0.00052085,5204.9,0.00022554,0.0043149,7.2879e-05,-1147,-0.00053079,-5682.8,0.031613
16188,2.3908,3.8182,0.05,2.14e-06,21.385,1.6432e-06,12.347,1.3886e-12,-2.4291e-05,-1.6432e-06,-12.347,0.034066
16189,2.3908,3.5455,0,0.00051622,5158.7,0.00022471,-0.0039952,6.9832e-05,-1163.7,-0.00052607,-5641.1,0.034348
16190,2.2989,3.6364,0,0.00051916,5188.1,0.00022695,0.00121,6.8288e-05,-1192.1,-0.00052906,-5680.4,0.031782
16191,2.3908,3.6364,0.05,2.142e-06,21.405,1.6448e-06,12.358,1.9912e-12,-1.2353e-05,-1.6448e-06,-12.358,0.034244
16192,2.3908,3.3636,0,0.00051515,5148,0.00022556,-0.0055666,6.7016e-05,-1191.2,-0.00052497,-5639.2,0.034457
16193,2.2989,3.4545,0,0.00051796,5176.1,0.00022801,-0.00053465,6.4869e-05,-1225.8,-0.00052781,-5678.9,0.031907
16194,2.3908,3.4545,0.05,2.1444e-06,21.429,1.6466e-06,12.372,9.7971e-13,-1.8446e-05,-1.6466e-06,-12.372,0.034375
16195,2.3908,3.1818,0,0.00051453,5141.8,0.00022607,-0.0063575,6.5332e-05,-1207.7,-0.00052432,-5638.1,0.034522
16196,2.2989,3.2727,0,0.0005172,5168.4,0.00022873,-0.0014334,6.2603e-05,-1248.2,-0.00052699,-5678.2,0.031989
16197,2.3908,3.2727,0.05,2.1465e-06,21.45,1.6482e-06,12.384,3.0286e-12,-4.4156e-06,-1.6482e-06,-12.384,0.034461
16198,2.3908,3,0,0.00051433,5139.7,0.00022624,-0.0065963,6.4772e-05,-1213.2,-0.0005241,-5637.8,0.034543
16199,2.2989,3.0909,0,0.00051682,5164.7,0.00022909,-0.0018062,6.1474e-05,-1259.4,-0.00052659,-5677.9,0.03203
16200,2.3908,3.0909,0.05,2.1477e-06,21.462,1.6491e-06,12.391,3.51e-12,-8.0197e-07,-1.6491e-06,-12.391,0.034504
16201,2.3908,2.8182,0,0.00051453,5141.8,0.00022607,-0.0063574,6.5332e-05,-1207.7,-0.00052432,-5638.1,0.034522
16202,2.2989,2.9091,0,0.00051682,5164.7,0.00022909,-0.0018062,6.1474e-05,-1259.4,-0.00052659,-5677.9,0.03203
16203,2.3908,2.9091,0.05,2.1477e-06,21.462,1.6491e-06,12.391,2.8166e-12,-1.4431e-05,-1.6491e-06,-12.391,0.034504
16204,2.3908,2.6364,0,0.00051515,5148,0.00022556,-0.0055666,6.7016e-05,-1191.2,-0.00052497,-5639.2,0.034457
16205,2.2989,2.7273,0,0.0005172,5168.4,0.00022873,-0.0014334,6.2603e-05,-1248.2,-0.00052699,-5678.2,0.031989
16206,2.3908,2.7273,0.05,2.1465e-06,21.45,1.6482e-06,12.384,1.0085e-12,1.4054e-06,-1.6482e-06,-12.384,0.034461
16207,2.3908,2.4545,0,0.00051622,5158.7,0.00022471,-0.003995,6.9832e-05,-1163.7,-0.00052607,-5641.1,0.034348
16208,2.2989,2.5455,0,0.00051796,5176.1,0.00022801,-0.00053455,6.4869e-05,-1225.8,-0.00052781,-5678.9,0.031907
16209,2.3908,2.5455,0.05,2.1444e-06,21.429,1.6466e-06,12.372,1.3277e-12,3.8296e-06,-1.6466e-06,-12.372,0.034375
16210,2.3908,2.2727,0,0.00051777,5174.2,0.00022354,-0.0012445,7.3789e-05,-1125.2,-0.00052765,-5644.2,0.034194
16211,2.2989,2.3636,0,0.00051916,5188.1,0.00022695,0.0012102,6.8288e-05,-1192.1,-0.00052906,-5680.4,0.031782
16212,2.3908,2.3636,0.05,2.142e-06,21.405,1.6448e-06,12.358,1.5842e-12,-8.2659e-07,-1.6448e-06,-12.358,0.034244
16213,2.3908,2.0909,0,0.00051986,5195.1,0.00022206,0.0032726,7.8895e-05,-1075.7,-0.00052974,-5648.7,0.033992
16214,2.2989,2.1818,0,0.00052085,5204.9,0.00022554,0.0043151,7.2879e-05,-1147,-0.00053079,-5682.8,0.031613
16215,2.3908,2.1818,0.05,2.14e-06,21.385,1.6432e-06,12.347,1.4082e-12,5.2131e-06,-1.6432e-06,-12.347,0.034066
16216,2.3908,1.9091,0,0.00052255,5221.9,0.00022027,0.010361,8.5153e-05,-1015.2,-0.00053236,-5655,0.033738
16217,2.2989,2,0,0.0005231,5227.4,0.0002238,0.0095179,7.8657e-05,-1090.5,-0.00053304,-5686.6,0.031396
16218,2.3908,2,0.05,2.1391e-06,21.376,1.6426e-06,12.341,2.1807e-12,6.0907e-06,-1.6425e-06,-12.341,0.033838
16219,2.3908,1.7273,0,0.0005259,5255.4,0.0002182,0.02106,9.2546e-05,-944.11,-0.00053556,-5663.5,0.03343
16220,2.2989,1.8182,0,0.00052598,5256.1,0.00022175,0.017829,8.5631e-05,-1022.7,-0.00053585,-5692.3,0.031129
16221,2.3908,1.8182,0.05,2.1397e-06,21.382,1.643e-06,12.345,1.2139e-12,4.6268e-06,-1.643e-06,-12.345,0.033558
16222,2.3908,1.5455,0,0.00052997,5296.1,0.00021588,0.036727,0.00010104,-862.85,-0.00053935,-5674.5,0.033063
16223,2.2989,1.6364,0,0.00052956,5292,0.00021942,0.030547,9.3788e-05,-943.89,-0.00053926,-5700.4,0.030806
16224,2.3908,1.6364,0.05,2.1415e-06,21.401,1.6444e-06,12.356,8.6781e-13,7.2797e-06,-1.6444e-06,-12.356,0.033221
16225,2.3908,1.3636,0,0.0005348,5344.3,0.00021335,0.058916,0.00011057,-772.18,-0.00054373,-5688.3,0.032631
16226,2.2989,1.4545,0,0.00053393,5335.6,0.00021683,0.049445,0.00010309,-854.51,-0.0005433,-5711.3,0.030424
16227,2.3908,1.4545,0.05,2.1435e-06,21.42,1.646e-06,12.367,9.0068e-13,-2.6232e-15,-1.646e-06,-12.367,0.032822
16228,2.3908,1.1818,0,0.0005404,5400.3,0.00021064,0.090325,0.00012104,-673.16,-0.00054869,-5705.2,0.03213
16229,2.2989,1.2727,0,0.00053912,5387.5,0.00021402,0.076354,0.00011346,-755.48,-0.00054798,-5725.3,0.029977
16230,2.3908,1.2727,0.05,2.1434e-06,21.42,1.6459e-06,12.367,1.3641e-12,1.5257e-05,-1.6459e-06,-12.367,0.032356
16231,2.3908,1,0,0.00054676,5463.9,0.00020781,0.13234,0.0001323,-567.19,-0.00055419,-5725.2,0.031551
16232,2.2989,1.0909,0,0.00054515,5447.7,0.00021105,0.1156,0.00012479,-648.05,-0.00055327,-5742.7,0.029458
16233,2.3908,1.0909,0.05,2.1381e-06,21.367,1.6418e-06,12.336,5.109e-12,5.5311e-07,-1.6418e-06,-12.336,0.031817
16234,2.3908,0.81818,0,0.00055384,5534.5,0.0002049,0.19924,0.00014419,-455.97,-0.00056018,-5748.3,0.03089
16235,2.2989,0.90909,0,0.00055199,5516.1,0.00020798,0.1666,0.0001369,-533.89,-0.00055913,-5763.5,0.028861
16236,2.3908,0.90909,0.05,2.1239e-06,21.224,1.6309e-06,12.254,8.7321e-13,3.6625e-06,-1.6309e-06,-12.254,0.031198
16237,2.3908,0.63636,0,0.00056154,5611.5,0.00020198,0.27258,0.00015651,-341.41,-0.00056656,-5774.3,0.030137
16238,2.2989,0.72727,0,0.00055959,5592,0.00020486,0.26144,0.00014959,-414.99,-0.00056548,-5787.8,0.028177
16239,2.3908,0.72727,0.05,2.0975e-06,20.96,1.6106e-06,12.101,8.4187e-13,9.0006e-05,-1.6106e-06,-12.101,0.030492
16240,2.3908,0.45455,0,0.00056979,5694,0.00019913,0.58391,0.00016907,-225.22,-0.00057328,-5803,0.029285
16241,2.2989,0.54545,0,0.00056783,5674.4,0.00020176,0.33585,0.00016265,-293.58,-0.00057224,-5815.3,0.027399
16242,2.3908,0.54545,0.05,2.0614e-06,20.6,1.5829e-06,11.893,5.5736e-12,4.415e-05,-1.5829e-06,-11.893,0.02969
16243,2.3908,0.27273,0,0.00057893,5785.3,0.0001964,1.1961,0.00018206,-106.54,-0.00058065,-5837.2,0.028326
16244,2.2989,0.36364,0,0.00057665,5762.6,0.0001988,0.97334,0.00017587,-171.3,-0.00057936,-5845.8,0.026519
16245,2.3908,0.36364,0.05,2.0764e-06,20.749,1.5944e-06,11.98,1.0936e-11,8.4701e-05,-1.5944e-06,-11.98,0.028785
16246,2.2989,0.18182,0,0.00058686,5864.6,0.00019621,3.1444,0.00018965,-46.108,-0.00058758,-5885.9,0.025527
16247,2.3908,0.18182,0.05,3.7129e-06,37.103,2.8511e-06,21.422,1.6759e-13,1.6484e-05,-2.851e-06,-21.422,0.027769
16248,2.3908,0.090909,0,0.00058443,5840.2,0.0001939,0.76678,0.00019118,-19.698,-0.00058475,-5849.7,0.027252
16249,2.2069,5.7273,0,0.00058456,5841.6,0.0001984,1.4017,0.00018369,-109.13,-0.00058632,-5894.7,0.023846
16250,2.1149,5.8182,0,0.00059272,5923.1,0.00019806,4.1586,0.00019181,-42.852,-0.00059337,-5942.3,0.021267
16251,2.2069,5.8182,0.05,3.9405e-06,39.377,3.0258e-06,22.734,2.2212e-12,-5.6536e-05,-3.0258e-06,-22.735,0.023313
16252,2.2069,5.9091,0,0.00059014,5897.4,0.00019565,0.92887,0.00019331,-16.668,-0.00059041,-5905.2,0.02282
16253,2.2069,5.5455,0,0.00057467,5742.7,0.00020143,0.65104,0.00016948,-239.36,-0.00057835,-5858.3,0.024756
16254,2.1149,5.6364,0,0.00058157,5811.7,0.00020086,1.0914,0.00017675,-180.03,-0.0005844,-5899,0.022207
16255,2.2069,5.6364,0.05,2.1893e-06,21.878,1.6811e-06,12.631,-1.477e-11,-0.00018494,-1.6811e-06,-12.631,0.02428
16256,2.2069,5.3636,0,0.00056585,5654.6,0.00020464,0.3034,0.00015576,-366.93,-0.00057119,-5829,0.025559
16257,2.1149,5.4545,0,0.0005721,5717,0.00020419,0.37801,0.00016228,-314.47,-0.00057679,-5867.6,0.023036
16258,2.2069,5.4545,0.05,2.1911e-06,21.896,1.6825e-06,12.641,-1.5565e-11,-0.00019161,-1.6825e-06,-12.641,0.025136
16259,2.2069,5.1818,0,0.00055772,5573.3,0.00020793,0.21938,0.00014232,-492.73,-0.00056446,-5803.2,0.026264
16260,2.1149,5.2727,0,0.00056336,5629.7,0.00020769,0.28991,0.00014801,-448.11,-0.00056963,-5840.2,0.023764
16261,2.2069,5.2727,0.05,2.2358e-06,22.343,1.7168e-06,12.9,-2.036e-11,-0.00014341,-1.7168e-06,-12.9,0.02589
16262,2.2069,5,0,0.00055035,5499.7,0.00021122,0.14464,0.0001294,-614.62,-0.00055822,-5781.1,0.026881
16263,2.1149,5.0909,0,0.00055542,5550.4,0.00021122,0.1835,0.00013417,-578.8,-0.00056299,-5817,0.0244
16264,2.2069,5.0909,0.05,2.266e-06,22.644,1.74e-06,13.074,-8.6756e-12,-0.00013381,-1.74e-06,-13.074,0.02655
16265,2.2069,4.8182,0,0.00054384,5434.6,0.00021443,0.098326,0.00011722,-730.31,-0.00055256,-5762.8,0.027416
16266,2.1149,4.9091,0,0.0005484,5480.2,0.00021472,0.1267,0.00012104,-703.78,-0.00055696,-5798,0.024951
16267,2.2069,4.9091,0.05,2.2807e-06,22.791,1.7513e-06,13.159,-1.1232e-11,-0.00011716,-1.7513e-06,-13.159,0.027125
16268,2.2069,4.6364,0,0.00053822,5378.5,0.00021749,0.064602,0.00010598,-837.81,-0.00054755,-5748.2,0.027879
16269,2.1149,4.7273,0,0.00054235,5419.8,0.00021809,0.084141,0.00010885,-820.68,-0.00055163,-5783.3,0.025428
16270,2.2069,4.7273,0.05,2.2851e-06,22.835,1.7547e-06,13.184,-1.0732e-11,-0.00010359,-1.7547e-06,-13.184,0.027623
16271,2.2069,4.4545,0,0.00053349,5331.3,0.00022036,0.041596,9.5828e-05,-935.61,-0.00054321,-5737.1,0.028274
16272,2.1149,4.5455,0,0.00053729,5369.2,0.00022127,0.055967,9.7794e-05,-927.66,-0.00054702,-5772.5,0.025836
16273,2.2069,4.5455,0.05,2.2845e-06,22.829,1.7542e-06,13.18,-7.9983e-12,-5.9768e-05,-1.7542e-06,-13.18,0.028051
16274,2.2069,4.2727,0,0.00052961,5292.5,0.00022297,0.026042,8.6856e-05,-1022.6,-0.00053954,-5729.1,0.028609
16275,2.1149,4.3636,0,0.00053316,5327.9,0.00022419,0.037031,8.7972e-05,-1023.4,-0.00054314,-5765.3,0.026183
16276,2.2069,4.3636,0.05,2.2828e-06,22.812,1.7529e-06,13.171,-6.0807e-12,-7.1371e-05,-1.7529e-06,-13.171,0.028416
16277,2.2069,4.0909,0,0.0005265,5261.4,0.00022528,0.01598,7.9113e-05,-1098.3,-0.00053651,-5723.8,0.02889
16278,2.1149,4.1818,0,0.00052987,5295,0.00022681,0.024975,7.9444e-05,-1107.3,-0.00053994,-5761.1,0.026474
16279,2.2069,4.1818,0.05,2.2825e-06,22.809,1.7527e-06,13.169,-1.4513e-12,-7.9602e-05,-1.7527e-06,-13.169,0.028723
16280,2.2069,3.9091,0,0.00052407,5237.1,0.00022728,0.0097405,7.2614e-05,-1162.1,-0.00053407,-5720.5,0.029119
16281,2.1149,4,0,0.00052732,5269.5,0.00022911,0.017619,7.2223e-05,-1178.8,-0.00053738,-5759.1,0.026715
16282,2.2069,4,0.05,2.2846e-06,22.83,1.7543e-06,13.181,-1.201e-12,-3.4324e-05,-1.7543e-06,-13.181,0.028977
16283,2.2069,3.7273,0,0.00052223,5218.7,0.00022894,0.0060815,6.7348e-05,-1214.2,-0.00053217,-5718.7,0.029302
16284,2.1149,3.8182,0,0.0005254,5250.3,0.00023105,0.013407,6.6291e-05,-1237.9,-0.00053539,-5758.7,0.026909
16285,2.2069,3.8182,0.05,2.2887e-06,22.871,1.7574e-06,13.205,3.4475e-13,-3.3151e-05,-1.7574e-06,-13.205,0.029182
16286,2.2069,3.5455,0,0.00052089,5205.3,0.00023025,0.0040734,6.3293e-05,-1254.4,-0.00053076,-5717.9,0.029441
16287,2.1149,3.6364,0,0.000524,5236.4,0.00023261,0.011178,6.1615e-05,-1284.8,-0.00053389,-5759.2,0.027061
16288,2.2069,3.6364,0.05,2.2939e-06,22.924,1.7615e-06,13.235,6.6076e-13,-5.2706e-06,-1.7615e-06,-13.235,0.029343
16289,2.2069,3.3636,0,0.00051999,5196.4,0.00023118,0.0030612,6.0421e-05,-1283,-0.00052979,-5717.7,0.029539
16290,2.1149,3.4545,0,0.00052304,5226.7,0.0002338,0.010118,5.8153e-05,-1319.7,-0.00053283,-5760.1,0.027172
16291,2.2069,3.4545,0.05,2.2992e-06,22.976,1.7655e-06,13.265,1.664e-12,-4.2244e-06,-1.7655e-06,-13.265,0.029461
16292,2.2069,3.1818,0,0.00051948,5191.2,0.00023175,0.0026144,5.8709e-05,-1300.1,-0.00052923,-5717.7,0.029597
16293,2.1149,3.2727,0,0.00052243,5220.7,0.00023459,0.0096815,5.5868e-05,-1342.8,-0.00053215,-5761,0.027246
16294,2.2069,3.2727,0.05,2.3034e-06,23.018,1.7687e-06,13.289,1.7952e-12,-4.1852e-06,-1.7687e-06,-13.289,0.029539
16295,2.2069,3,0,0.00051931,5189.5,0.00023194,0.0024913,5.8141e-05,-1305.8,-0.00052904,-5717.7,0.029616
16296,2.1149,3.0909,0,0.00052215,5217.8,0.00023498,0.0095404,5.4734e-05,-1354.3,-0.00053182,-5761.5,0.027282
16297,2.2069,3.0909,0.05,2.3057e-06,23.041,1.7705e-06,13.303,2.1627e-12,-9.0402e-07,-1.7705e-06,-13.303,0.029577
16298,2.2069,2.8182,0,0.00051948,5191.2,0.00023175,0.0026143,5.8709e-05,-1300.1,-0.00052923,-5717.7,0.029597
16299,2.1149,2.9091,0,0.00052215,5217.8,0.00023498,0.0095404,5.4734e-05,-1354.3,-0.00053182,-5761.5,0.027282
16300,2.2069,2.9091,0.05,2.3057e-06,23.041,1.7705e-06,13.303,1.9231e-12,6.7906e-07,-1.7705e-06,-13.303,0.029577
16301,2.2069,2.6364,0,0.00051999,5196.4,0.00023118,0.0030612,6.0421e-05,-1283,-0.00052979,-5717.7,0.029539
16302,2.1149,2.7273,0,0.00052243,5220.7,0.00023459,0.0096815,5.5868e-05,-1342.8,-0.00053215,-5761,0.027246
16303,2.2069,2.7273,0.05,2.3034e-06,23.018,1.7687e-06,13.289,1.9867e-12,2.0989e-06,-1.7687e-06,-13.289,0.029539
16304,2.2069,2.4545,0,0.00052089,5205.3,0.00023025,0.0040735,6.3293e-05,-1254.4,-0.00053076,-5717.9,0.029441
16305,2.1149,2.5455,0,0.00052304,5226.7,0.0002338,0.010118,5.8153e-05,-1319.7,-0.00053283,-5760.1,0.027172
16306,2.2069,2.5455,0.05,2.2992e-06,22.976,1.7655e-06,13.265,2.1998e-12,3.8404e-06,-1.7655e-06,-13.265,0.029461
16307,2.2069,2.2727,0,0.00052223,5218.7,0.00022894,0.0060817,6.7348e-05,-1214.2,-0.00053217,-5718.7,0.029302
16308,2.1149,2.3636,0,0.000524,5236.4,0.00023261,0.011178,6.1615e-05,-1284.8,-0.00053389,-5759.2,0.027061
16309,2.2069,2.3636,0.05,2.2939e-06,22.924,1.7615e-06,13.235,2.2958e-12,5.2706e-06,-1.7615e-06,-13.235,0.029343
16310,2.2069,2.0909,0,0.00052407,5237.1,0.00022728,0.0097408,7.2614e-05,-1162.1,-0.00053407,-5720.5,0.029119
16311,2.1149,2.1818,0,0.0005254,5250.3,0.00023105,0.013408,6.6291e-05,-1237.9,-0.00053539,-5758.7,0.026909
16312,2.2069,2.1818,0.05,2.2887e-06,22.871,1.7574e-06,13.205,6.2726e-13,-1.842e-06,-1.7574e-06,-13.205,0.029182
16313,2.2069,1.9091,0,0.0005265,5261.4,0.00022528,0.01598,7.9113e-05,-1098.3,-0.00053651,-5723.8,0.02889
16314,2.1149,2,0,0.00052732,5269.5,0.00022911,0.017619,7.2223e-05,-1178.8,-0.00053738,-5759.1,0.026715
16315,2.2069,2,0.05,2.2846e-06,22.83,1.7543e-06,13.181,1.825e-12,9.2471e-06,-1.7543e-06,-13.181,0.028977
16316,2.2069,1.7273,0,0.00052961,5292.5,0.00022297,0.026043,8.6856e-05,-1022.6,-0.00053954,-5729.1,0.028609
16317,2.1149,1.8182,0,0.00052987,5295,0.00022681,0.024975,7.9444e-05,-1107.3,-0.00053994,-5761.1,0.026474
16318,2.2069,1.8182,0.05,2.2825e-06,22.809,1.7527e-06,13.169,4.1003e-13,6.8792e-06,-1.7527e-06,-13.169,0.028723
16319,2.2069,1.5455,0,0.00053349,5331.3,0.00022036,0.041596,9.5828e-05,-935.61,-0.00054321,-5737.1,0.028274
16320,2.1149,1.6364,0,0.00053316,5327.9,0.00022419,0.037031,8.7972e-05,-1023.4,-0.00054314,-5765.3,0.026183
16321,2.2069,1.6364,0.05,2.2828e-06,22.812,1.7529e-06,13.171,8.7805e-13,3.6828e-06,-1.7529e-06,-13.171,0.028416
16322,2.2069,1.3636,0,0.00053822,5378.5,0.00021749,0.064602,0.00010598,-837.81,-0.00054755,-5748.2,0.027879
16323,2.1149,1.4545,0,0.00053729,5369.2,0.00022127,0.055967,9.7794e-05,-927.66,-0.00054702,-5772.5,0.025836
16324,2.2069,1.4545,0.05,2.2845e-06,22.829,1.7542e-06,13.18,4.1384e-13,3.8015e-06,-1.7542e-06,-13.18,0.028051
16325,2.2069,1.1818,0,0.00054384,5434.6,0.00021443,0.098326,0.00011722,-730.31,-0.00055256,-5762.8,0.027416
16326,2.1149,1.2727,0,0.00054235,5419.8,0.00021809,0.084141,0.00010885,-820.68,-0.00055163,-5783.3,0.025428
16327,2.2069,1.2727,0.05,2.2851e-06,22.835,1.7547e-06,13.184,-4.1384e-13,3.7992e-06,-1.7547e-06,-13.184,0.027623
16328,2.2069,1,0,0.00055035,5499.7,0.00021122,0.14464,0.0001294,-614.62,-0.00055822,-5781.1,0.026881
16329,2.1149,1.0909,0,0.0005484,5480.2,0.00021472,0.1267,0.00012104,-703.78,-0.00055696,-5798,0.024951
16330,2.2069,1.0909,0.05,2.2807e-06,22.791,1.7513e-06,13.159,4.1998e-12,-2.7911e-15,-1.7513e-06,-13.159,0.027125
16331,2.2069,0.81818,0,0.00055772,5573.3,0.00020793,0.21938,0.00014232,-492.73,-0.00056446,-5803.2,0.026264
16332,2.1149,0.90909,0,0.00055542,5550.4,0.00021122,0.18351,0.00013417,-578.8,-0.00056299,-5817,0.0244
16333,2.2069,0.90909,0.05,2.266e-06,22.644,1.74e-06,13.074,-5.5966e-13,-2.7731e-15,-1.74e-06,-13.074,0.02655
16334,2.2069,0.63636,0,0.00056585,5654.6,0.00020464,0.3034,0.00015576,-366.93,-0.00057119,-5829,0.025559
16335,2.1149,0.72727,0,0.00056336,5629.7,0.00020769,0.28991,0.00014801,-448.11,-0.00056963,-5840.2,0.023764
16336,2.2069,0.72727,0.05,2.2358e-06,22.343,1.7168e-06,12.9,5.7657e-12,-2.7362e-15,-1.7168e-06,-12.9,0.02589
16337,2.2069,0.45455,0,0.00057467,5742.7,0.00020143,0.65104,0.00016948,-239.36,-0.00057835,-5858.3,0.024756
16338,2.1149,0.54545,0,0.0005721,5717,0.00020419,0.37801,0.00016228,-314.47,-0.00057679,-5867.6,0.023036
16339,2.2069,0.54545,0.05,2.1911e-06,21.896,1.6825e-06,12.641,5.319e-12,4.7902e-05,-1.6825e-06,-12.641,0.025136
16340,2.2069,0.27273,0,0.00058456,5841.6,0.0001984,1.4017,0.00018369,-109.13,-0.00058632,-5894.7,0.023846
16341,2.1149,0.36364,0,0.00058157,5811.7,0.00020086,1.0914,0.00017675,-180.03,-0.0005844,-5899,0.022207
16342,2.2069,0.36364,0.05,2.1893e-06,21.878,1.6811e-06,12.631,-2.1544e-22,4.6234e-05,-1.6811e-06,-12.631,0.02428
16343,2.1149,0.18182,0,0.00059272,5923.1,0.00019806,4.1586,0.00019181,-42.852,-0.00059337,-5942.3,0.021267
16344,2.2069,0.18182,0.05,3.9405e-06,39.377,3.0258e-06,22.735,-2.9954e-21,2.0571e-05,-3.0258e-06,-22.735,0.023313
16345,2.2069,0.090909,0,0.00059014,5897.4,0.00019565,0.92887,0.00019331,-16.668,-0.00059041,-5905.2,0.02282
16346,2.023,5.7273,0,0.0005897,5892.9,0.00020023,1.6566,0.00018519,-111.31,-0.00059148,-5946.9,0.019756
16347,1.931,5.8182,0,0.00059803,5976.2,0.00019974,5.6838,0.00019383,-38.669,-0.00059858,-5992.5,0.017402
16348,2.023,5.8182,0.05,4.1667e-06,41.638,3.1995e-06,24.04,2.9463e-14,-6.0788e-05,-3.1995e-06,-24.04,0.01925
16349,2.023,5.9091,0,0.00059532,5949.1,0.00019719,1.2095,0.00019533,-12.75,-0.00059552,-5954.9,0.018785
16350,2.023,5.5455,0,0.00057897,5785.7,0.0002036,0.72915,0.0001696,-254.79,-0.00058287,-5908.5,0.020611
16351,1.931,5.6364,0,0.00058581,5854.1,0.00020272,1.2278,0.00017736,-189.33,-0.00058878,-5945.8,0.018285
16352,2.023,5.6364,0.05,2.3242e-06,23.226,1.7847e-06,13.41,-1.6695e-11,-0.00020109,-1.7847e-06,-13.41,0.020163
16353,2.023,5.3636,0,0.00056957,5691.8,0.00020723,0.33962,0.00015456,-395.4,-0.00057526,-5879,0.021361
16354,1.931,5.4545,0,0.00057566,5752.6,0.00020649,0.42489,0.00016147,-337.86,-0.00058065,-5913.9,0.019058
16355,2.023,5.4545,0.05,2.3493e-06,23.477,1.804e-06,13.554,-1.7335e-11,-0.00021748,-1.804e-06,-13.554,0.020965
16356,2.023,5.1818,0,0.00056103,5606.4,0.00021098,0.24308,0.00013988,-533.99,-0.00056819,-5854.1,0.022016
16357,1.931,5.2727,0,0.00056643,5660.4,0.00021049,0.31979,0.00014581,-485.61,-0.00057312,-5887.4,0.019731
16358,2.023,5.2727,0.05,2.4029e-06,24.012,1.8451e-06,13.864,-1.0281e-11,-0.00015333,-1.8451e-06,-13.864,0.021666
16359,2.023,5,0,0.00055343,5530.5,0.00021472,0.1595,0.00012582,-667.83,-0.00056175,-5834,0.022583
16360,1.931,5.0909,0,0.00055821,5578.3,0.00021453,0.19983,0.0001307,-629.66,-0.00056624,-5866.3,0.020314
16361,2.023,5.0909,0.05,2.4349e-06,24.332,1.8697e-06,14.048,-9.4348e-12,-0.00013628,-1.8697e-06,-14.048,0.022276
16362,2.023,4.8182,0,0.00054688,5465,0.00021838,0.10868,0.00011268,-794.1,-0.00055604,-5818.6,0.023073
16363,1.931,4.9091,0,0.00055113,5507.5,0.00021853,0.13655,0.00011649,-766.57,-0.00056015,-5850.5,0.020816
16364,2.023,4.9091,0.05,2.4475e-06,24.458,1.8794e-06,14.121,-7.6162e-12,-0.00017038,-1.8794e-06,-14.121,0.022804
16365,2.023,4.6364,0,0.00054139,5410.1,0.00022186,0.072873,0.00010066,-910.56,-0.00055109,-5807.6,0.023493
16366,1.931,4.7273,0,0.00054523,5448.5,0.00022237,0.090689,0.00010343,-893.57,-0.0005549,-5840,0.021247
16367,2.023,4.7273,0.05,2.4488e-06,24.471,1.8804e-06,14.128,-7.0408e-12,-7.83e-05,-1.8804e-06,-14.128,0.023258
16368,2.023,4.4545,0,0.00053692,5365.5,0.0002251,0.049491,8.9924e-05,-1015.6,-0.00054693,-5800.7,0.02385
16369,1.931,4.5455,0,0.00054047,5401,0.00022598,0.061627,9.1724e-05,-1008.6,-0.00055051,-5834.2,0.021614
16370,2.023,4.5455,0.05,2.446e-06,24.444,1.8783e-06,14.112,-9.543e-12,-7.0544e-05,-1.8783e-06,-14.112,0.023645
16371,2.023,4.2727,0,0.00053338,5330.1,0.00022804,0.034522,8.0538e-05,-1108.2,-0.00054352,-5797.1,0.024152
16372,1.931,4.3636,0,0.00053676,5363.9,0.00022928,0.043109,8.1457e-05,-1110.6,-0.00054695,-5832.2,0.021924
16373,2.023,4.3636,0.05,2.4442e-06,24.426,1.8769e-06,14.102,-6.4922e-12,-6.0094e-05,-1.8769e-06,-14.102,0.023974
16374,2.023,4.0909,0,0.00053066,5302.9,0.00023064,0.025492,7.2526e-05,-1188,-0.00054079,-5796.2,0.024402
16375,1.931,4.1818,0,0.00053395,5335.8,0.00023223,0.0321,7.2654e-05,-1198.9,-0.00054414,-5833.3,0.022183
16376,2.023,4.1818,0.05,2.4458e-06,24.442,1.8781e-06,14.111,-1.1999e-12,-6.3826e-05,-1.8781e-06,-14.111,0.024249
16377,2.023,3.9091,0,0.00052863,5282.6,0.00023287,0.020386,6.5868e-05,-1254.8,-0.00053867,-5797,0.024607
16378,1.931,4,0,0.00053189,5315.3,0.00023479,0.025953,6.5288e-05,-1273.5,-0.00054198,-5836.3,0.022396
16379,2.023,4,0.05,2.4512e-06,24.495,1.8822e-06,14.142,-2.059e-12,-4.6822e-05,-1.8822e-06,-14.142,0.024476
16380,2.023,3.7273,0,0.00052715,5267.9,0.00023472,0.017759,6.0523e-05,-1308.8,-0.00053707,-5798.9,0.024769
16381,1.931,3.8182,0,0.00053043,5300.7,0.00023695,0.022859,5.9302e-05,-1334.7,-0.00054037,-5840.5,0.022567
16382,2.023,3.8182,0.05,2.4592e-06,24.575,1.8883e-06,14.188,1.8053e-13,-3.6615e-05,-1.8883e-06,-14.188,0.024659
16383,2.023,3.5455,0,0.00052613,5257.6,0.00023616,0.016585,5.6438e-05,-1350.4,-0.00053592,-5801.1,0.024892
16384,1.931,3.6364,0,0.00052944,5290.7,0.00023868,0.021539,5.4626e-05,-1382.9,-0.00053922,-5844.8,0.0227
16385,2.023,3.6364,0.05,2.4683e-06,24.666,1.8953e-06,14.241,2.4193e-12,-3.0389e-05,-1.8953e-06,-14.241,0.024801
16386,2.023,3.3636,0,0.00052546,5251,0.0002372,0.016171,5.3562e-05,-1379.8,-0.00053515,-5803.1,0.024979
16387,1.931,3.4545,0,0.00052879,5284.3,0.00023999,0.021146,5.119e-05,-1418.5,-0.00053844,-5848.7,0.022798
16388,2.023,3.4545,0.05,2.4768e-06,24.751,1.9019e-06,14.29,2.2022e-12,-3.049e-06,-1.9019e-06,-14.29,0.024906
16389,2.023,3.1818,0,0.00052509,5247.3,0.00023782,0.016079,5.1854e-05,-1397.3,-0.00053471,-5804.5,0.02503
16390,1.931,3.2727,0,0.00052841,5280.5,0.00024086,0.021139,4.8936e-05,-1442,-0.00053795,-5851.7,0.022862
16391,2.023,3.2727,0.05,2.4833e-06,24.816,1.9069e-06,14.327,1.8017e-12,-1.8477e-05,-1.9069e-06,-14.327,0.024974
16392,2.023,3,0,0.00052497,5246.1,0.00023803,0.016074,5.1288e-05,-1403.1,-0.00053456,-5805,0.025047
16393,1.931,3.0909,0,0.00052823,5278.7,0.0002413,0.021207,4.7819e-05,-1453.7,-0.00053772,-5853.2,0.022894
16394,2.023,3.0909,0.05,2.4868e-06,24.851,1.9096e-06,14.348,1.7101e-12,-3.156e-05,-1.9095e-06,-14.348,0.025008
16395,2.023,2.8182,0,0.00052509,5247.3,0.00023782,0.016079,5.1854e-05,-1397.3,-0.00053471,-5804.5,0.02503
16396,1.931,2.9091,0,0.00052823,5278.7,0.0002413,0.021207,4.7819e-05,-1453.7,-0.00053772,-5853.2,0.022894
16397,2.023,2.9091,0.05,2.4868e-06,24.851,1.9096e-06,14.348,1.9173e-12,-1.4662e-05,-1.9095e-06,-14.348,0.025008
16398,2.023,2.6364,0,0.00052546,5251,0.0002372,0.016171,5.3562e-05,-1379.8,-0.00053515,-5803.1,0.024979
16399,1.931,2.7273,0,0.00052841,5280.5,0.00024086,0.021139,4.8936e-05,-1442,-0.00053795,-5851.7,0.022862
16400,2.023,2.7273,0.05,2.4833e-06,24.816,1.9069e-06,14.327,1.6741e-12,-2.7987e-05,-1.9069e-06,-14.327,0.024974
16401,2.023,2.4545,0,0.00052613,5257.6,0.00023616,0.016585,5.6438e-05,-1350.4,-0.00053592,-5801.1,0.024892
16402,1.931,2.5455,0,0.00052879,5284.3,0.00023999,0.021146,5.119e-05,-1418.5,-0.00053844,-5848.7,0.022798
16403,2.023,2.5455,0.05,2.4768e-06,24.751,1.9019e-06,14.29,1.8526e-12,3.8113e-06,-1.9019e-06,-14.29,0.024906
16404,2.023,2.2727,0,0.00052715,5267.9,0.00023472,0.017759,6.0523e-05,-1308.8,-0.00053707,-5798.9,0.024769
16405,1.931,2.3636,0,0.00052944,5290.7,0.00023868,0.021539,5.4626e-05,-1382.9,-0.00053922,-5844.8,0.0227
16406,2.023,2.3636,0.05,2.4683e-06,24.666,1.8953e-06,14.241,2.2947e-12,5.2519e-06,-1.8953e-06,-14.241,0.024801
16407,2.023,2.0909,0,0.00052863,5282.6,0.00023287,0.020386,6.5868e-05,-1254.8,-0.00053867,-5797,0.024607
16408,1.931,2.1818,0,0.00053043,5300.7,0.00023695,0.022859,5.9302e-05,-1334.7,-0.00054037,-5840.5,0.022567
16409,2.023,2.1818,0.05,2.4592e-06,24.575,1.8883e-06,14.188,4.8332e-13,-3.1733e-06,-1.8883e-06,-14.188,0.024659
16410,2.023,1.9091,0,0.00053066,5302.9,0.00023064,0.025492,7.2526e-05,-1188,-0.00054079,-5796.2,0.024402
16411,1.931,2,0,0.00053189,5315.3,0.00023479,0.025953,6.5288e-05,-1273.5,-0.00054198,-5836.3,0.022396
16412,2.023,2,0.05,2.4512e-06,24.495,1.8822e-06,14.142,1.4778e-12,9.2973e-06,-1.8822e-06,-14.142,0.024476
16413,2.023,1.7273,0,0.00053338,5330.1,0.00022804,0.034522,8.0538e-05,-1108.2,-0.00054352,-5797.1,0.024152
16414,1.931,1.8182,0,0.00053395,5335.8,0.00023223,0.0321,7.2654e-05,-1198.9,-0.00054414,-5833.3,0.022183
16415,2.023,1.8182,0.05,2.4458e-06,24.442,1.8781e-06,14.111,4.1343e-13,-7.4029e-06,-1.8781e-06,-14.111,0.024249
16416,2.023,1.5455,0,0.00053692,5365.5,0.0002251,0.049492,8.9924e-05,-1015.6,-0.00054693,-5800.7,0.02385
16417,1.931,1.6364,0,0.00053676,5363.9,0.00022928,0.04311,8.1457e-05,-1110.6,-0.00054695,-5832.2,0.021924
16418,2.023,1.6364,0.05,2.4442e-06,24.426,1.8769e-06,14.102,8.8511e-13,3.7124e-06,-1.8769e-06,-14.102,0.023974
16419,2.023,1.3636,0,0.00054139,5410.1,0.00022186,0.072873,0.00010066,-910.56,-0.00055109,-5807.6,0.023493
16420,1.931,1.4545,0,0.00054047,5401,0.00022598,0.061627,9.1724e-05,-1008.6,-0.00055051,-5834.2,0.021614
16421,2.023,1.4545,0.05,2.446e-06,24.444,1.8783e-06,14.112,-4.7009e-13,-3.9434e-06,-1.8783e-06,-14.112,0.023645
16422,2.023,1.1818,0,0.00054688,5465,0.00021838,0.10868,0.00011268,-794.1,-0.00055604,-5818.6,0.023073
16423,1.931,1.2727,0,0.00054523,5448.5,0.00022237,0.09069,0.00010343,-893.57,-0.0005549,-5840,0.021247
16424,2.023,1.2727,0.05,2.4488e-06,24.471,1.8804e-06,14.128,-3.8223e-13,1.1191e-06,-1.8804e-06,-14.128,0.023258
16425,2.023,1,0,0.00055343,5530.5,0.00021472,0.1595,0.00012582,-667.83,-0.00056175,-5834,0.022583
16426,1.931,1.0909,0,0.00055113,5507.5,0.00021853,0.13655,0.00011649,-766.57,-0.00056015,-5850.5,0.020816
16427,2.023,1.0909,0.05,2.4475e-06,24.458,1.8794e-06,14.121,-3.0155e-13,8.1596e-05,-1.8794e-06,-14.121,0.022804
16428,2.023,0.81818,0,0.00056103,5606.4,0.00021098,0.24308,0.00013988,-533.99,-0.00056819,-5854.1,0.022016
16429,1.931,0.90909,0,0.00055821,5578.3,0.00021453,0.19983,0.0001307,-629.66,-0.00056624,-5866.3,0.020314
16430,2.023,0.90909,0.05,2.4349e-06,24.332,1.8697e-06,14.048,6.2088e-12,4.5426e-05,-1.8697e-06,-14.048,0.022276
16431,2.023,0.63636,0,0.00056957,5691.8,0.00020723,0.33962,0.00015456,-395.4,-0.00057526,-5879,0.021361
16432,1.931,0.72727,0,0.00056643,5660.4,0.00021049,0.31979,0.00014581,-485.61,-0.00057312,-5887.4,0.019731
16433,2.023,0.72727,0.05,2.4029e-06,24.012,1.8451e-06,13.864,7.2163e-13,4.7599e-05,-1.8451e-06,-13.864,0.021666
16434,2.023,0.45455,0,0.00057897,5785.7,0.0002036,0.72915,0.0001696,-254.79,-0.00058287,-5908.5,0.020611
16435,1.931,0.54545,0,0.00057566,5752.6,0.00020649,0.42489,0.00016147,-337.86,-0.00058065,-5913.9,0.019058
16436,2.023,0.54545,0.05,2.3493e-06,23.477,1.804e-06,13.554,5.5913e-12,5.1614e-05,-1.804e-06,-13.554,0.020965
16437,2.023,0.27273,0,0.0005897,5892.9,0.00020023,1.6566,0.00018519,-111.31,-0.00059148,-5946.9,0.019756
16438,1.931,0.36364,0,0.00058581,5854.1,0.00020272,1.2278,0.00017736,-189.33,-0.00058878,-5945.8,0.018285
16439,2.023,0.36364,0.05,2.3242e-06,23.226,1.7847e-06,13.41,5.672e-12,4.9599e-05,-1.7847e-06,-13.41,0.020163
16440,1.931,0.18182,0,0.00059803,5976.2,0.00019974,5.6838,0.00019383,-38.669,-0.00059858,-5992.5,0.017402
16441,2.023,0.18182,0.05,4.1667e-06,41.638,3.1995e-06,24.04,-4.0983e-12,1.5197e-05,-3.1995e-06,-24.04,0.01925
16442,2.023,0.090909,0,0.00059532,5949.1,0.00019719,1.2095,0.00019533,-12.75,-0.00059552,-5954.9,0.018785
16443,1.8391,5.7273,0,0.00059411,5937,0.0002018,1.9726,0.00018648,-113.12,-0.00059591,-5991.7,0.016059
16444,1.7471,5.8182,0,0.00060253,6021.1,0.00020118,8.089,0.00019562,-33.676,-0.00060295,-6033.8,0.013934
16445,1.8391,5.8182,0.05,4.3863e-06,43.833,3.3682e-06,25.307,-6.5687e-13,-6.6545e-05,-3.3682e-06,-25.307,0.015583
16446,1.8391,5.9091,0,0.00059974,5993.3,0.00019846,1.8414,0.00019716,-7.9771,-0.00059984,-5996.3,0.015148
16447,1.8391,5.5455,0,0.00058247,5820.7,0.0002056,0.81521,0.00016929,-272,-0.0005866,-5951.5,0.016855
16448,1.7471,5.6364,0,0.00058912,5887.1,0.00020432,1.3937,0.00017758,-199.54,-0.00059223,-5983.6,0.014754
16449,1.8391,5.6364,0.05,2.4928e-06,24.911,1.9142e-06,14.383,-1.8589e-11,-0.00021697,-1.9142e-06,-14.383,0.016436
16450,1.8391,5.3636,0,0.00057248,5720.8,0.00020974,0.37571,0.00015276,-427.78,-0.00057855,-5922.5,0.017547
16451,1.7471,5.4545,0,0.00057824,5778.5,0.00020864,0.48686,0.00016004,-364.68,-0.00058357,-5951.9,0.015465
16452,1.8391,5.4545,0.05,2.5484e-06,25.467,1.9569e-06,14.703,-5.8536e-12,-0.00022028,-1.9569e-06,-14.703,0.017179
16453,1.8391,5.1818,0,0.00056357,5631.8,0.00021404,0.26368,0.00013667,-581.07,-0.00057119,-5899.7,0.018145
16454,1.7471,5.2727,0,0.00056856,5681.7,0.00021324,0.36183,0.0001428,-528.89,-0.0005757,-5927.4,0.016078
16455,1.8391,5.2727,0.05,2.609e-06,26.072,2.0034e-06,15.053,-1.8347e-11,-0.00021494,-2.0034e-06,-15.053,0.017823
16456,1.8391,5,0,0.00055586,5554.8,0.00021834,0.16976,0.00012139,-728.29,-0.00056465,-5882.9,0.01866
16457,1.7471,5.0909,0,0.00056017,5597.9,0.00021791,0.22682,0.00012629,-688.16,-0.00056869,-5910,0.016605
16458,1.8391,5.0909,0.05,2.6384e-06,26.366,2.026e-06,15.222,-1.7295e-11,-0.00010306,-2.026e-06,-15.222,0.018379
16459,1.8391,4.8182,0,0.00054943,5490.5,0.00022252,0.11407,0.00010724,-866.03,-0.00055901,-5872,0.019101
16460,1.7471,4.9091,0,0.00055322,5528.3,0.00022251,0.15704,0.00011094,-838.19,-0.00056268,-5899.5,0.017055
16461,1.8391,4.9091,0.05,2.6443e-06,26.424,2.0305e-06,15.256,-1.0395e-11,-0.0001802,-2.0305e-06,-15.256,0.018855
16462,1.8391,4.6364,0,0.00054427,5438.9,0.00022649,0.076388,9.4483e-05,-991.74,-0.00055431,-5866.5,0.019476
16463,1.7471,4.7273,0,0.00054769,5473.1,0.00022691,0.10852,9.7035e-05,-975.73,-0.00055772,-5895.3,0.017438
16464,1.8391,4.7273,0.05,2.6389e-06,26.371,2.0263e-06,15.225,-1.0844e-11,-0.00011921,-2.0263e-06,-15.225,0.019262
16465,1.8391,4.4545,0,0.00054027,5399,0.00023015,0.053054,8.3236e-05,-1103.8,-0.00055051,-5865.6,0.019793
16466,1.7471,4.5455,0,0.00054349,5431.2,0.00023101,0.079412,8.4763e-05,-1098.8,-0.00055377,-5896.5,0.017761
16467,1.8391,4.5455,0.05,2.6321e-06,26.303,2.0211e-06,15.186,-1.0533e-11,-0.00013796,-2.0211e-06,-15.186,0.019607
16468,1.8391,4.2727,0,0.00053729,5369.2,0.00023347,0.03906,7.3543e-05,-1201.6,-0.00054754,-5868.2,0.020059
16469,1.7471,4.3636,0,0.00054045,5400.7,0.00023474,0.062034,7.4177e-05,-1206.3,-0.00055076,-5901.8,0.018032
16470,1.8391,4.3636,0.05,2.6296e-06,26.278,2.0192e-06,15.172,-4.8753e-12,-5.564e-05,-2.0192e-06,-15.172,0.019898
16471,1.8391,4.0909,0,0.00053515,5347.8,0.00023638,0.031317,6.5382e-05,-1284.8,-0.0005453,-5873.2,0.020279
16472,1.7471,4.1818,0,0.00053834,5379.7,0.00023804,0.052547,6.5243e-05,-1298.3,-0.00054854,-5910,0.018257
16473,1.8391,4.1818,0.05,2.6333e-06,26.315,2.022e-06,15.193,-2.7342e-12,-5.714e-05,-2.0221e-06,-15.193,0.02014
16474,1.8391,3.9091,0,0.00053368,5333.1,0.00023887,0.027447,5.8685e-05,-1353.8,-0.00054365,-5879.5,0.020457
16475,1.7471,4,0,0.00053697,5366,0.0002409,0.047835,5.7877e-05,-1375.1,-0.00054697,-5919.7,0.018442
16476,1.8391,4,0.05,2.6424e-06,26.406,2.029e-06,15.245,-3.1123e-12,-4.6664e-05,-2.029e-06,-15.245,0.020339
16477,1.8391,3.7273,0,0.0005327,5323.3,0.00024091,0.025843,5.3367e-05,-1409.1,-0.00054249,-5886.1,0.020599
16478,1.7471,3.8182,0,0.00053613,5357.6,0.00024329,0.0459,5.1968e-05,-1437.5,-0.00054591,-5929.7,0.018589
16479,1.8391,3.8182,0.05,2.6548e-06,26.529,2.0385e-06,15.317,1.5357e-12,-2.1772e-05,-2.0385e-06,-15.317,0.020498
16480,1.8391,3.5455,0,0.00053209,5317.2,0.00024251,0.025429,4.9339e-05,-1451.4,-0.0005417,-5892.2,0.020706
16481,1.7471,3.6364,0,0.00053566,5352.9,0.0002452,0.045422,4.7402e-05,-1486.1,-0.00054523,-5938.9,0.018704
16482,1.8391,3.6364,0.05,2.668e-06,26.662,2.0487e-06,15.393,1.4403e-12,-2.8992e-05,-2.0487e-06,-15.393,0.020622
16483,1.8391,3.3636,0,0.00053173,5313.6,0.00024365,0.025524,4.6524e-05,-1481.1,-0.0005412,-5897,0.02078
16484,1.7471,3.4545,0,0.00053542,5350.5,0.00024663,0.045587,4.4077e-05,-1521.9,-0.00054481,-5946.6,0.018787
16485,1.8391,3.4545,0.05,2.6799e-06,26.78,2.0578e-06,15.461,2.408e-12,-6.1822e-06,-2.0578e-06,-15.461,0.020712
16486,1.8391,3.1818,0,0.00053154,5311.8,0.00024433,0.025722,4.486e-05,-1498.7,-0.00054093,-5900.1,0.020825
16487,1.7471,3.2727,0,0.00053532,5349.5,0.00024759,0.045911,4.1908e-05,-1545.4,-0.00054458,-5952,0.018842
16488,1.8391,3.2727,0.05,2.6887e-06,26.868,2.0646e-06,15.512,1.6089e-12,-1.9031e-05,-2.0646e-06,-15.512,0.020771
16489,1.8391,3,0,0.00053149,5311.2,0.00024456,0.025809,4.431e-05,-1504.6,-0.00054084,-5901.2,0.020839
16490,1.7471,3.0909,0,0.00053528,5349.1,0.00024807,0.046131,4.0838e-05,-1557,-0.00054448,-5954.8,0.018869
16491,1.8391,3.0909,0.05,2.6933e-06,26.915,2.0682e-06,15.539,1.6945e-12,-8.4932e-07,-2.0682e-06,-15.539,0.020801
16492,1.8391,2.8182,0,0.00053154,5311.8,0.00024433,0.025722,4.486e-05,-1498.7,-0.00054093,-5900.1,0.020825
16493,1.7471,2.9091,0,0.00053528,5349.1,0.00024807,0.046131,4.0838e-05,-1557,-0.00054448,-5954.8,0.018869
16494,1.8391,2.9091,0.05,2.6933e-06,26.915,2.0682e-06,15.539,1.8877e-12,7.1614e-07,-2.0682e-06,-15.539,0.020801
16495,1.8391,2.6364,0,0.00053173,5313.6,0.00024365,0.025524,4.6524e-05,-1481.1,-0.0005412,-5897,0.02078
16496,1.7471,2.7273,0,0.00053532,5349.5,0.00024759,0.045911,4.1908e-05,-1545.4,-0.00054458,-5952,0.018842
16497,1.8391,2.7273,0.05,2.6887e-06,26.868,2.0646e-06,15.512,1.4073e-12,1.1642e-06,-2.0646e-06,-15.512,0.020771
16498,1.8391,2.4545,0,0.00053209,5317.2,0.00024251,0.025429,4.9339e-05,-1451.4,-0.0005417,-5892.2,0.020706
16499,1.7471,2.5455,0,0.00053542,5350.5,0.00024663,0.045587,4.4077e-05,-1521.9,-0.00054481,-5946.6,0.018787
16500,1.8391,2.5455,0.05,2.6799e-06,26.78,2.0578e-06,15.461,1.2297e-12,-1.0161e-05,-2.0578e-06,-15.461,0.020712
16501,1.8391,2.2727,0,0.0005327,5323.3,0.00024091,0.025843,5.3367e-05,-1409.1,-0.00054249,-5886.1,0.020599
16502,1.7471,2.3636,0,0.00053566,5352.9,0.0002452,0.045422,4.7402e-05,-1486.1,-0.00054523,-5938.9,0.018704
16503,1.8391,2.3636,0.05,2.668e-06,26.662,2.0487e-06,15.393,7.476e-13,-7.4695e-07,-2.0487e-06,-15.393,0.020622
16504,1.8391,2.0909,0,0.00053368,5333.1,0.00023887,0.027447,5.8685e-05,-1353.8,-0.00054365,-5879.5,0.020457
16505,1.7471,2.1818,0,0.00053613,5357.6,0.00024329,0.0459,5.1968e-05,-1437.5,-0.00054591,-5929.7,0.018589
16506,1.8391,2.1818,0.05,2.6548e-06,26.529,2.0385e-06,15.317,6.2269e-13,-1.6241e-05,-2.0385e-06,-15.317,0.020498
16507,1.8391,1.9091,0,0.00053515,5347.8,0.00023638,0.031317,6.5382e-05,-1284.8,-0.0005453,-5873.2,0.020279
16508,1.7471,2,0,0.00053697,5366,0.0002409,0.047835,5.7877e-05,-1375.1,-0.00054697,-5919.7,0.018442
16509,1.8391,2,0.05,2.6424e-06,26.406,2.029e-06,15.245,-1.5485e-12,6.1841e-06,-2.029e-06,-15.245,0.020339
16510,1.8391,1.7273,0,0.00053729,5369.2,0.00023347,0.039061,7.3543e-05,-1201.6,-0.00054754,-5868.2,0.020059
16511,1.7471,1.8182,0,0.00053834,5379.7,0.00023804,0.052547,6.5243e-05,-1298.3,-0.00054854,-5910,0.018257
16512,1.8391,1.8182,0.05,2.6333e-06,26.315,2.0221e-06,15.193,8.2908e-13,-7.2887e-06,-2.0221e-06,-15.193,0.02014
16513,1.8391,1.5455,0,0.00054027,5399,0.00023015,0.053055,8.3236e-05,-1103.8,-0.00055051,-5865.6,0.019793
16514,1.7471,1.6364,0,0.00054045,5400.7,0.00023474,0.062035,7.4177e-05,-1206.3,-0.00055076,-5901.8,0.018032
16515,1.8391,1.6364,0.05,2.6296e-06,26.278,2.0192e-06,15.172,3.3859e-13,3.7292e-06,-2.0192e-06,-15.172,0.019898
16516,1.8391,1.3636,0,0.00054427,5438.9,0.00022649,0.076388,9.4483e-05,-991.74,-0.00055431,-5866.5,0.019476
16517,1.7471,1.4545,0,0.00054349,5431.2,0.00023101,0.079412,8.4763e-05,-1098.8,-0.00055377,-5896.5,0.017761
16518,1.8391,1.4545,0.05,2.6321e-06,26.303,2.0211e-06,15.186,4.5664e-12,3.8146e-06,-2.0211e-06,-15.186,0.019607
16519,1.8391,1.1818,0,0.00054943,5490.5,0.00022252,0.11407,0.00010724,-866.03,-0.00055901,-5872,0.019101
16520,1.7471,1.2727,0,0.00054769,5473.1,0.00022691,0.10852,9.7035e-05,-975.73,-0.00055772,-5895.3,0.017438
16521,1.8391,1.2727,0.05,2.6389e-06,26.371,2.0263e-06,15.225,1.4198e-12,5.2139e-05,-2.0263e-06,-15.225,0.019262
16522,1.8391,1,0,0.00055586,5554.8,0.00021834,0.16976,0.00012139,-728.29,-0.00056465,-5882.9,0.01866
16523,1.7471,1.0909,0,0.00055322,5528.3,0.00022251,0.15704,0.00011094,-838.19,-0.00056268,-5899.5,0.017055
16524,1.8391,1.0909,0.05,2.6443e-06,26.424,2.0305e-06,15.256,-4.3069e-22,5.0243e-05,-2.0305e-06,-15.256,0.018855
16525,1.8391,0.81818,0,0.00056357,5631.8,0.00021404,0.26368,0.00013667,-581.07,-0.00057119,-5899.7,0.018145
16526,1.7471,0.90909,0,0.00056017,5597.9,0.00021791,0.22682,0.00012629,-688.16,-0.00056869,-5910,0.016605
16527,1.8391,0.90909,0.05,2.6384e-06,26.366,2.026e-06,15.222,1.1174e-11,0.00010306,-2.026e-06,-15.222,0.018379
16528,1.8391,0.63636,0,0.00057248,5720.8,0.00020974,0.37571,0.00015276,-427.78,-0.00057855,-5922.5,0.017547
16529,1.7471,0.72727,0,0.00056856,5681.7,0.00021324,0.36183,0.0001428,-528.89,-0.0005757,-5927.4,0.016078
16530,1.8391,0.72727,0.05,2.609e-06,26.072,2.0034e-06,15.053,5.9901e-12,5.2406e-05,-2.0034e-06,-15.053,0.017823
16531,1.8391,0.45455,0,0.00058247,5820.7,0.0002056,0.81521,0.00016929,-272,-0.0005866,-5951.5,0.016855
16532,1.7471,0.54545,0,0.00057824,5778.5,0.00020864,0.48686,0.00016004,-364.68,-0.00058357,-5951.9,0.015465
16533,1.8391,0.54545,0.05,2.5484e-06,25.467,1.9569e-06,14.703,6.7494e-12,5.5069e-05,-1.9569e-06,-14.703,0.017179
16534,1.8391,0.27273,0,0.00059411,5937,0.0002018,1.9726,0.00018648,-113.12,-0.00059591,-5991.7,0.016059
16535,1.7471,0.36364,0,0.00058912,5887.1,0.00020432,1.3937,0.00017758,-199.54,-0.00059223,-5983.6,0.014754
16536,1.8391,0.36364,0.05,2.4928e-06,24.911,1.9142e-06,14.383,-4.0603e-22,-3.0507e-15,-1.9142e-06,-14.383,0.016436
16537,1.7471,0.18182,0,0.00060253,6021.1,0.00020118,8.089,0.00019562,-33.676,-0.00060295,-6033.8,0.013934
16538,1.8391,0.18182,0.05,4.3863e-06,43.833,3.3682e-06,25.307,-6.6317e-13,1.6636e-05,-3.3682e-06,-25.307,0.015583
16539,1.8391,0.090909,0,0.00059974,5993.3,0.00019846,1.8414,0.00019716,-7.9771,-0.00059984,-5996.3,0.015148
16540,1.6552,5.7273,0,0.00059749,5970.8,0.00020302,2.383,0.00018744,-114.65,-0.00059931,-6026,0.012756
16541,1.5632,5.8182,0,0.00060586,6054.4,0.00020233,12.018,0.00019697,-28.25,-0.00060613,-6062.4,0.010864
16542,1.6552,5.8182,0.05,4.5921e-06,45.889,3.5262e-06,26.494,-3.4866e-13,-5.5919e-05,-3.5262e-06,-26.494,0.012314
16543,1.6552,5.9091,0,0.00060308,6026.6,0.00019951,3.9946,0.00019855,-3.2516,-0.00060306,-6026.2,0.011912
16544,1.6552,5.5455,0,0.00058485,5844.5,0.00020735,0.93256,0.00016839,-291.75,-0.00058925,-5984.4,0.013487
16545,1.5632,5.6364,0,0.00059109,5906.8,0.00020556,1.5696,0.00017723,-211.26,-0.00059437,-6008.8,0.011615
16546,1.6552,5.6364,0.05,2.7142e-06,27.124,2.0842e-06,15.66,-2.0264e-11,-0.00023446,-2.0842e-06,-15.66,0.013101
16547,1.6552,5.3636,0,0.00057427,5738.8,0.00021213,0.43806,0.00015013,-465.47,-0.00058076,-5957.1,0.014116
16548,1.5632,5.4545,0,0.00057947,5790.7,0.00021057,0.53127,0.00015774,-396.38,-0.00058518,-5978.4,0.012258
16549,1.6552,5.4545,0.05,2.8067e-06,28.048,2.1552e-06,16.193,-2.0768e-11,-0.00023192,-2.1552e-06,-16.193,0.01378
16550,1.6552,5.1818,0,0.0005651,5647.1,0.00021711,0.30973,0.00013245,-635.79,-0.00057322,-5937.9,0.014654
16551,1.5632,5.2727,0,0.00056942,5690.2,0.00021594,0.37769,0.00013869,-580.07,-0.00057705,-5957.8,0.012808
16552,1.6552,5.2727,0.05,2.8685e-06,28.666,2.2027e-06,16.55,-2.0152e-11,-0.00017047,-2.2027e-06,-16.55,0.014362
16553,1.6552,5,0,0.00055746,5570.8,0.00022209,0.20567,0.00011585,-798,-0.00056673,-5926.6,0.015112
16554,1.5632,5.0909,0,0.00056106,5606.8,0.00022138,0.22296,0.00012064,-756.73,-0.00057009,-5946.6,0.013274
16555,1.6552,5.0909,0.05,2.8869e-06,28.849,2.2168e-06,16.656,-1.8085e-11,-0.00020465,-2.2168e-06,-16.656,0.014859
16556,1.6552,4.8182,0,0.00055141,5510.3,0.0002269,0.14621,0.00010072,-947.95,-0.00056138,-5922.7,0.015501
16557,1.5632,4.9091,0,0.00055452,5541.3,0.00022672,0.14487,0.00010412,-920.96,-0.00056441,-5944,0.013668
16558,1.6552,4.9091,0.05,2.8781e-06,28.762,2.2101e-06,16.605,-1.5354e-11,-9.4915e-05,-2.2101e-06,-16.606,0.015281
16559,1.6552,4.6364,0,0.00054686,5464.8,0.00023143,0.10798,8.7293e-05,-1082.9,-0.00055716,-5925.1,0.015829
16560,1.5632,4.7273,0,0.0005497,5493.2,0.00023177,0.093126,8.9466e-05,-1069.1,-0.00056002,-5949.1,0.014
16561,1.6552,4.7273,0.05,2.8608e-06,28.588,2.1968e-06,16.506,-1.2401e-11,-0.00012355,-2.1968e-06,-16.506,0.015638
16562,1.6552,4.4545,0,0.00054362,5432.4,0.00023559,0.085882,7.5673e-05,-1201.5,-0.00055399,-5932.5,0.016104
16563,1.5632,4.5455,0,0.0005464,5460.2,0.00023644,0.06379,7.6793e-05,-1199.5,-0.00055683,-5960.2,0.014278
16564,1.6552,4.5455,0.05,2.8474e-06,28.455,2.1865e-06,16.428,-1.0374e-11,-4.6439e-05,-2.1865e-06,-16.428,0.015939
16565,1.6552,4.2727,0,0.00054146,5410.8,0.00023932,0.073695,6.5838e-05,-1303.4,-0.00055171,-5943.4,0.016334
16566,1.5632,4.3636,0,0.00054434,5439.6,0.00024064,0.04729,6.6084e-05,-1311.5,-0.00055465,-5975.5,0.014509
16567,1.6552,4.3636,0.05,2.8435e-06,28.416,2.1835e-06,16.406,-1.5829e-12,-0.00010435,-2.1835e-06,-16.406,0.01619
16568,1.6552,4.0909,0,0.00054013,5397.6,0.00024257,0.067701,5.7697e-05,-1389,-0.00055017,-5956.3,0.016522
16569,1.5632,4.1818,0,0.00054322,5428.4,0.00024433,0.03886,5.7224e-05,-1405.8,-0.00055329,-5993,0.0147
16570,1.6552,4.1818,0.05,2.8494e-06,28.474,2.188e-06,16.44,-7.7181e-13,-4.2395e-05,-2.188e-06,-16.44,0.016398
16571,1.6552,3.9091,0,0.0005394,5390.3,0.00024532,0.065238,5.1117e-05,-1459.1,-0.00054919,-5969.6,0.016674
16572,1.5632,4,0,0.00054275,5423.8,0.0002475,0.034967,5.0046e-05,-1483.5,-0.00055254,-6011.1,0.014856
16573,1.6552,4,0.05,2.8624e-06,28.605,2.198e-06,16.515,-7.4547e-13,-4.8947e-05,-2.198e-06,-16.515,0.016568
16574,1.6552,3.7273,0,0.00053907,5387,0.00024758,0.064643,4.5961e-05,-1514.8,-0.00054861,-5982.2,0.016794
16575,1.5632,3.8182,0,0.0005427,5423.3,0.00025013,0.033522,4.4377e-05,-1545.9,-0.0005522,-6028.3,0.01498
16576,1.6552,3.8182,0.05,2.8791e-06,28.771,2.2108e-06,16.611,1.0029e-12,-2.0934e-05,-2.2108e-06,-16.611,0.016703
16577,1.6552,3.5455,0,0.00053898,5386.1,0.00024933,0.064887,4.2098e-05,-1557,-0.0005483,-5993,0.016885
16578,1.5632,3.6364,0,0.00054288,5425,0.00025222,0.033258,4.0053e-05,-1594.1,-0.00055212,-6043.4,0.015075
16579,1.6552,3.6364,0.05,2.8961e-06,28.941,2.2238e-06,16.709,2.6088e-13,-3.6859e-05,-2.2238e-06,-16.709,0.016808
16580,1.6552,3.3636,0,0.000539,5386.2,0.00025057,0.065373,3.942e-05,-1586.5,-0.00054815,-6001.3,0.016948
16581,1.5632,3.4545,0,0.00054313,5427.5,0.00025378,0.033465,3.6934e-05,-1629.2,-0.00055217,-6055.5,0.015145
16582,1.6552,3.4545,0.05,2.9108e-06,29.088,2.2351e-06,16.794,2.7111e-12,-6.6322e-06,-2.2351e-06,-16.794,0.016884
16583,1.6552,3.1818,0,0.00053904,5386.7,0.00025132,0.06577,3.7846e-05,-1603.9,-0.00054809,-6006.4,0.016985
16584,1.5632,3.2727,0,0.00054335,5429.8,0.00025481,0.033758,3.4915e-05,-1652.2,-0.00055225,-6063.9,0.01519
16585,1.6552,3.2727,0.05,2.9215e-06,29.195,2.2433e-06,16.855,1.7401e-12,-1.8258e-05,-2.2433e-06,-16.856,0.016934
16586,1.6552,3,0,0.00053906,5386.9,0.00025157,0.065918,3.7326e-05,-1609.7,-0.00054808,-6008.2,0.016998
16587,1.5632,3.0909,0,0.00054348,5431.1,0.00025533,0.033944,3.3924e-05,-1663.5,-0.00055231,-6068.2,0.015213
16588,1.6552,3.0909,0.05,2.9271e-06,29.25,2.2476e-06,16.888,2.1647e-12,-9.0327e-07,-2.2476e-06,-16.888,0.016959
16589,1.6552,2.8182,0,0.00053904,5386.7,0.00025132,0.06577,3.7846e-05,-1603.9,-0.00054809,-6006.4,0.016985
16590,1.5632,2.9091,0,0.00054348,5431.1,0.00025533,0.033943,3.3924e-05,-1663.5,-0.00055231,-6068.2,0.015213
16591,1.6552,2.9091,0.05,2.9271e-06,29.25,2.2476e-06,16.888,1.4383e-12,4.7633e-07,-2.2476e-06,-16.888,0.016959
16592,1.6552,2.6364,0,0.000539,5386.2,0.00025057,0.065373,3.942e-05,-1586.5,-0.00054815,-6001.3,0.016948
16593,1.5632,2.7273,0,0.00054335,5429.8,0.00025481,0.033758,3.4915e-05,-1652.2,-0.00055225,-6063.9,0.01519
16594,1.6552,2.7273,0.05,2.9215e-06,29.195,2.2433e-06,16.855,1.9325e-12,-1.4121e-05,-2.2433e-06,-16.856,0.016934
16595,1.6552,2.4545,0,0.00053898,5386.1,0.00024933,0.064887,4.2098e-05,-1557,-0.0005483,-5993,0.016885
16596,1.5632,2.5455,0,0.00054313,5427.5,0.00025378,0.033465,3.6934e-05,-1629.2,-0.00055217,-6055.5,0.015145
16597,1.6552,2.5455,0.05,2.9108e-06,29.088,2.2351e-06,16.794,1.2208e-12,-1.179e-05,-2.2351e-06,-16.794,0.016884
16598,1.6552,2.2727,0,0.00053907,5387,0.00024758,0.064643,4.5961e-05,-1514.8,-0.00054861,-5982.2,0.016794
16599,1.5632,2.3636,0,0.00054288,5425,0.00025222,0.033258,4.0053e-05,-1594.1,-0.00055212,-6043.4,0.015075
16600,1.6552,2.3636,0.05,2.8961e-06,28.941,2.2238e-06,16.709,9.0127e-13,4.0342e-06,-2.2238e-06,-16.709,0.016808
16601,1.6552,2.0909,0,0.0005394,5390.3,0.00024532,0.065239,5.1117e-05,-1459.1,-0.00054919,-5969.6,0.016674
16602,1.5632,2.1818,0,0.0005427,5423.3,0.00025013,0.033522,4.4377e-05,-1545.9,-0.0005522,-6028.3,0.01498
16603,1.6552,2.1818,0.05,2.8791e-06,28.771,2.2108e-06,16.611,9.1615e-13,5.1235e-06,-2.2108e-06,-16.611,0.016703
16604,1.6552,1.9091,0,0.00054013,5397.6,0.00024257,0.067701,5.7697e-05,-1389,-0.00055017,-5956.3,0.016522
16605,1.5632,2,0,0.00054275,5423.8,0.0002475,0.034967,5.0046e-05,-1483.5,-0.00055254,-6011.1,0.014856
16606,1.6552,2,0.05,2.8624e-06,28.605,2.198e-06,16.515,1.4556e-12,-1.2193e-05,-2.198e-06,-16.515,0.016568
16607,1.6552,1.7273,0,0.00054146,5410.8,0.00023932,0.073696,6.5838e-05,-1303.4,-0.00055171,-5943.4,0.016334
16608,1.5632,1.8182,0,0.00054322,5428.4,0.00024433,0.03886,5.7224e-05,-1405.8,-0.00055329,-5993,0.0147
16609,1.6552,1.8182,0.05,2.8494e-06,28.474,2.188e-06,16.44,8.2585e-13,1.3855e-05,-2.188e-06,-16.44,0.016398
16610,1.6552,1.5455,0,0.00054362,5432.4,0.00023559,0.085882,7.5673e-05,-1201.5,-0.00055399,-5932.5,0.016104
16611,1.5632,1.6364,0,0.00054434,5439.6,0.00024064,0.04729,6.6084e-05,-1311.5,-0.00055465,-5975.5,0.014509
16612,1.6552,1.6364,0.05,2.8435e-06,28.416,2.1835e-06,16.406,8.8992e-13,7.4652e-06,-2.1835e-06,-16.406,0.01619
16613,1.6552,1.3636,0,0.00054686,5464.8,0.00023143,0.10798,8.7293e-05,-1082.9,-0.00055716,-5925.1,0.015829
16614,1.5632,1.4545,0,0.0005464,5460.2,0.00023644,0.06379,7.6793e-05,-1199.5,-0.00055683,-5960.2,0.014278
16615,1.6552,1.4545,0.05,2.8474e-06,28.455,2.1865e-06,16.428,9.0911e-13,3.8131e-06,-2.1865e-06,-16.428,0.015939
16616,1.6552,1.1818,0,0.00055141,5510.3,0.0002269,0.14621,0.00010072,-947.95,-0.00056138,-5922.7,0.015501
16617,1.5632,1.2727,0,0.0005497,5493.2,0.00023177,0.093126,8.9466e-05,-1069.1,-0.00056002,-5949.1,0.014
16618,1.6552,1.2727,0.05,2.8608e-06,28.588,2.1968e-06,16.506,8.7592e-13,7.3478e-06,-2.1968e-06,-16.506,0.015638
16619,1.6552,1,0,0.00055746,5570.8,0.00022209,0.20567,0.00011585,-798,-0.00056673,-5926.6,0.015112
16620,1.5632,1.0909,0,0.00055452,5541.3,0.00022672,0.14487,0.00010412,-920.96,-0.00056441,-5944,0.013668
16621,1.6552,1.0909,0.05,2.8781e-06,28.762,2.2101e-06,16.605,-1.3286e-13,1.3288e-05,-2.2101e-06,-16.605,0.015281
16622,1.6552,0.81818,0,0.0005651,5647.1,0.00021711,0.30973,0.00013245,-635.79,-0.00057322,-5937.9,0.014654
16623,1.5632,0.90909,0,0.00056106,5606.8,0.00022138,0.22296,0.00012064,-756.73,-0.00057009,-5946.6,0.013274
16624,1.6552,0.90909,0.05,2.8869e-06,28.849,2.2168e-06,16.656,5.805e-12,4.3845e-06,-2.2168e-06,-16.656,0.014859
16625,1.6552,0.63636,0,0.00057427,5738.8,0.00021213,0.43806,0.00015013,-465.47,-0.00058076,-5957.1,0.014116
16626,1.5632,0.72727,0,0.00056942,5690.2,0.00021594,0.37769,0.00013869,-580.07,-0.00057705,-5957.8,0.012808
16627,1.6552,0.72727,0.05,2.8685e-06,28.666,2.2027e-06,16.55,-1.696e-13,5.5344e-05,-2.2027e-06,-16.55,0.014362
16628,1.6552,0.45455,0,0.00058485,5844.5,0.00020735,0.93256,0.00016839,-291.75,-0.00058925,-5984.4,0.013487
16629,1.5632,0.54545,0,0.00057947,5790.7,0.00021057,0.53126,0.00015774,-396.38,-0.00058518,-5978.4,0.012258
16630,1.6552,0.54545,0.05,2.8067e-06,28.048,2.1552e-06,16.193,1.422e-11,5.798e-05,-2.1552e-06,-16.193,0.01378
16631,1.6552,0.27273,0,0.00059749,5970.8,0.00020302,2.383,0.00018744,-114.65,-0.00059931,-6026,0.012756
16632,1.5632,0.36364,0,0.00059109,5906.8,0.00020556,1.5696,0.00017723,-211.26,-0.00059437,-6008.8,0.011615
16633,1.6552,0.36364,0.05,2.7142e-06,27.124,2.0842e-06,15.66,-4.4209e-22,5.7755e-05,-2.0842e-06,-15.66,0.013101
16634,1.5632,0.18182,0,0.00060586,6054.4,0.00020233,12.018,0.00019697,-28.25,-0.00060613,-6062.4,0.010864
16635,1.6552,0.18182,0.05,4.5921e-06,45.889,3.5262e-06,26.494,4.444e-12,1.864e-05,-3.5262e-06,-26.494,0.012314
16636,1.6552,0.090909,0,0.00060308,6026.6,0.00019951,3.9946,0.00019855,-3.2516,-0.00060306,-6026.2,0.011912
16637,1.4713,5.7273,0,0.00059939,5989.8,0.00020376,2.8644,0.00018792,-116.16,-0.00060123,-6045.5,0.0098491
16638,1.3793,5.8182,0,0.00060749,6070.7,0.00020316,18.528,0.00019762,-23.054,-0.00060756,-6072.9,0.0081921
16639,1.4713,5.8182,0.05,4.7752e-06,47.719,3.6667e-06,27.55,-3.8567e-12,-8.6097e-05,-3.6667e-06,-27.55,0.009443
16640,1.4713,5.9091,0,0.00060488,6044.7,0.00020052,10.35,0.00019902,-0.95374,-0.00060472,-6040,0.0090778
16641,1.4713,5.5455,0,0.00058565,5852.5,0.00020876,1.0036,0.00016666,-315.32,-0.00059036,-6003.2,0.010508
16642,1.3793,5.6364,0,0.00059117,5907.7,0.0002063,1.8684,0.00017605,-225.43,-0.00059465,-6016.2,0.0088671
16643,1.4713,5.6364,0.05,3.02e-06,30.179,2.319e-06,17.424,-1.4264e-11,-0.00024098,-2.319e-06,-17.424,0.010158
16644,1.4713,5.3636,0,0.00057454,5741.5,0.00021437,0.42882,0.00014635,-510.64,-0.00058151,-5979.5,0.011069
16645,1.3793,5.4545,0,0.00057883,5784.3,0.00021222,0.70141,0.00015421,-435.18,-0.00058498,-5989.2,0.009438
16646,1.4713,5.4545,0.05,3.1515e-06,31.493,2.42e-06,18.183,-1.4423e-11,-0.000244,-2.4199e-06,-18.183,0.010766
16647,1.4713,5.1818,0,0.0005653,5649.1,0.00022021,0.27259,0.00012689,-700.86,-0.00057394,-5966.6,0.011542
16648,1.3793,5.2727,0,0.00056859,5682,0.00021859,0.5274,0.00013304,-642.22,-0.00057677,-5975.5,0.0099182
16649,1.4713,5.2727,0.05,3.2012e-06,31.99,2.4581e-06,18.469,-1.3363e-11,-0.00023085,-2.4581e-06,-18.469,0.011282
16650,1.4713,5,0,0.00055803,5576.5,0.00022601,0.15204,0.00010891,-879.71,-0.00056776,-5963.9,0.011941
16651,1.3793,5.0909,0,0.00056061,5602.3,0.00022501,0.3596,0.00011335,-838.65,-0.00057014,-5974.1,0.01032
16652,1.4713,5.0909,0.05,3.193e-06,31.907,2.4518e-06,18.422,-1.9516e-11,-0.00021971,-2.4518e-06,-18.422,0.011716
16653,1.4713,4.8182,0,0.00055273,5523.5,0.00023158,0.085515,9.2851e-05,-1042.3,-0.00056303,-5970.3,0.012275
16654,1.3793,4.9091,0,0.00055493,5545.4,0.00023124,0.2797,9.5739e-05,-1017.8,-0.00056518,-5983.7,0.010656
16655,1.4713,4.9091,0.05,3.1575e-06,31.553,2.4246e-06,18.217,-2.3773e-11,-0.0001579,-2.4246e-06,-18.217,0.012081
16656,1.4713,4.6364,0,0.00054918,5488,0.00023677,0.044777,7.893e-05,-1185.9,-0.00055965,-5984,0.012554
16657,1.3793,4.7273,0,0.0005513,5509.2,0.00023706,0.23007,8.052e-05,-1176,-0.0005618,-6002.1,0.010936
16658,1.4713,4.7273,0.05,3.1212e-06,31.191,2.3967e-06,18.008,-1.2572e-11,-0.00013684,-2.3967e-06,-18.008,0.012387
16659,1.4713,4.4545,0,0.00054707,5466.9,0.00024149,0.022338,6.7161e-05,-1309.8,-0.00055745,-6002.8,0.012787
16660,1.3793,4.5455,0,0.00054936,5489.8,0.00024237,0.20445,6.7716e-05,-1312.1,-0.00055978,-6026.8,0.011167
16661,1.4713,4.5455,0.05,3.0983e-06,30.962,2.3791e-06,17.876,-1.0879e-11,-4.6503e-05,-2.3791e-06,-17.876,0.012642
16662,1.4713,4.2727,0,0.00054606,5456.8,0.00024566,0.010431,5.7423e-05,-1414.3,-0.00055618,-6024.7,0.012979
16663,1.3793,4.3636,0,0.00054867,5482.9,0.00024709,0.19138,5.7176e-05,-1426.8,-0.00055882,-6055.1,0.011359
16664,1.4713,4.3636,0.05,3.0923e-06,30.901,2.3745e-06,17.841,-7.4922e-12,-3.1196e-05,-2.3745e-06,-17.841,0.012853
16665,1.4713,4.0909,0,0.0005458,5454.3,0.00024927,0.0046568,4.9526e-05,-1500.8,-0.00055561,-6047.5,0.013135
16666,1.3793,4.1818,0,0.00054883,5484.5,0.00025119,0.18551,4.866e-05,-1521.6,-0.00055863,-6084.5,0.011515
16667,1.4713,4.1818,0.05,3.1e-06,30.979,2.3804e-06,17.886,-2.6593e-12,-4.4313e-05,-2.3805e-06,-17.886,0.013026
16668,1.4713,3.9091,0,0.00054602,5456.5,0.0002523,0.0021494,4.3261e-05,-1570.6,-0.0005555,-6069.5,0.013261
16669,1.3793,4,0,0.0005495,5491.2,0.00025467,0.18324,4.1906e-05,-1598.4,-0.00055894,-6113,0.011642
16670,1.4713,4,0.05,3.1164e-06,31.142,2.393e-06,17.98,-2.6071e-12,-4.1453e-05,-2.393e-06,-17.98,0.013167
16671,1.4713,3.7273,0,0.00054649,5461.1,0.00025476,0.00128,3.8426e-05,-1625.5,-0.00055567,-6089.3,0.01336
16672,1.3793,3.8182,0,0.00055041,5500.3,0.00025753,0.18267,3.6665e-05,-1659.3,-0.00055951,-6138.8,0.011742
16673,1.4713,3.8182,0.05,3.1361e-06,31.34,2.4082e-06,18.094,2.6961e-13,-4.0387e-05,-2.4082e-06,-18.094,0.013279
16674,1.4713,3.5455,0,0.00054701,5466.3,0.00025666,0.0011393,3.4848e-05,-1666.6,-0.00055595,-6105.7,0.013435
16675,1.3793,3.6364,0,0.00055134,5509.6,0.0002598,0.18279,3.2726e-05,-1705.9,-0.00056017,-6160.7,0.01182
16676,1.4713,3.6364,0.05,3.1554e-06,31.532,2.423e-06,18.205,1.4231e-12,-1.1014e-05,-2.423e-06,-18.205,0.013365
16677,1.4713,3.3636,0,0.00054747,5471,0.00025801,0.0012533,3.239e-05,-1695.2,-0.00055623,-6117.9,0.013486
16678,1.3793,3.4545,0,0.00055216,5517.8,0.00026148,0.18309,2.9916e-05,-1739.7,-0.00056077,-6177.8,0.011876
16679,1.4713,3.4545,0.05,3.1716e-06,31.694,2.4354e-06,18.299,2.0579e-12,-1.9931e-05,-2.4354e-06,-18.299,0.013427
16680,1.4713,3.1818,0,0.00054778,5474.1,0.00025882,0.0013886,3.0954e-05,-1712.1,-0.00055643,-6125.5,0.013517
16681,1.3793,3.2727,0,0.00055276,5523.7,0.00026259,0.18337,2.8112e-05,-1761.6,-0.00056122,-6189.6,0.011912
16682,1.4713,3.2727,0.05,3.1831e-06,31.809,2.4442e-06,18.365,2.2752e-12,-3.2539e-05,-2.4442e-06,-18.365,0.013468
16683,1.4713,3,0,0.00054789,5475.1,0.00025909,0.0014431,3.0482e-05,-1717.6,-0.0005565,-6128,0.013527
16684,1.3793,3.0909,0,0.00055307,5526.9,0.00026314,0.18352,2.723e-05,-1772.3,-0.00056146,-6195.5,0.01193
16685,1.4713,3.0909,0.05,3.189e-06,31.868,2.4488e-06,18.399,1.7249e-12,-6.5515e-07,-2.4488e-06,-18.399,0.013488
16686,1.4713,2.8182,0,0.00054778,5474.1,0.00025882,0.0013886,3.0954e-05,-1712.1,-0.00055643,-6125.5,0.013517
16687,1.3793,2.9091,0,0.00055307,5526.9,0.00026314,0.18352,2.723e-05,-1772.3,-0.00056146,-6195.5,0.01193
16688,1.4713,2.9091,0.05,3.189e-06,31.868,2.4488e-06,18.399,1.6602e-12,6.2067e-07,-2.4488e-06,-18.399,0.013488
16689,1.4713,2.6364,0,0.00054747,5471,0.00025801,0.0012533,3.239e-05,-1695.2,-0.00055623,-6117.9,0.013486
16690,1.3793,2.7273,0,0.00055276,5523.7,0.00026259,0.18337,2.8112e-05,-1761.6,-0.00056122,-6189.6,0.011912
16691,1.4713,2.7273,0.05,3.1831e-06,31.809,2.4442e-06,18.365,9.2245e-13,-2.8496e-05,-2.4442e-06,-18.365,0.013468
16692,1.4713,2.4545,0,0.00054701,5466.3,0.00025666,0.0011393,3.4848e-05,-1666.6,-0.00055595,-6105.7,0.013435
16693,1.3793,2.5455,0,0.00055216,5517.8,0.00026148,0.18309,2.9916e-05,-1739.7,-0.00056077,-6177.8,0.011876
16694,1.4713,2.5455,0.05,3.1716e-06,31.694,2.4354e-06,18.299,1.0431e-12,-1.4396e-05,-2.4354e-06,-18.299,0.013427
16695,1.4713,2.2727,0,0.00054649,5461.1,0.00025476,0.00128,3.8426e-05,-1625.5,-0.00055567,-6089.3,0.01336
16696,1.3793,2.3636,0,0.00055134,5509.6,0.0002598,0.18279,3.2726e-05,-1705.9,-0.00056017,-6160.7,0.01182
16697,1.4713,2.3636,0.05,3.1554e-06,31.532,2.423e-06,18.205,1.7317e-12,2.9069e-06,-2.423e-06,-18.205,0.013365
16698,1.4713,2.0909,0,0.00054602,5456.5,0.0002523,0.0021494,4.3261e-05,-1570.6,-0.0005555,-6069.5,0.013261
16699,1.3793,2.1818,0,0.00055041,5500.3,0.00025753,0.18267,3.6665e-05,-1659.3,-0.00055951,-6138.8,0.011742
16700,1.4713,2.1818,0.05,3.1361e-06,31.34,2.4082e-06,18.094,7.0874e-13,-2.3722e-06,-2.4082e-06,-18.094,0.013279
16701,1.4713,1.9091,0,0.0005458,5454.3,0.00024927,0.0046568,4.9526e-05,-1500.8,-0.00055561,-6047.5,0.013135
16702,1.3793,2,0,0.0005495,5491.2,0.00025467,0.18324,4.1906e-05,-1598.4,-0.00055894,-6113,0.011642
16703,1.4713,2,0.05,3.1164e-06,31.142,2.393e-06,17.98,7.1254e-13,-6.3934e-06,-2.393e-06,-17.98,0.013167
16704,1.4713,1.7273,0,0.00054606,5456.8,0.00024566,0.010431,5.7423e-05,-1414.3,-0.00055618,-6024.7,0.012979
16705,1.3793,1.8182,0,0.00054883,5484.5,0.00025119,0.18551,4.866e-05,-1521.6,-0.00055863,-6084.5,0.011515
16706,1.4713,1.8182,0.05,3.1e-06,30.979,2.3805e-06,17.886,8.9574e-13,3.4216e-06,-2.3805e-06,-17.886,0.013026
16707,1.4713,1.5455,0,0.00054707,5466.9,0.00024149,0.022338,6.7161e-05,-1309.8,-0.00055745,-6002.8,0.012787
16708,1.3793,1.6364,0,0.00054867,5482.9,0.00024709,0.19138,5.7176e-05,-1426.8,-0.00055882,-6055.1,0.011359
16709,1.4713,1.6364,0.05,3.0923e-06,30.901,2.3745e-06,17.841,-5.555e-13,-1.88e-06,-2.3745e-06,-17.841,0.012853
16710,1.4713,1.3636,0,0.00054918,5488,0.00023677,0.044777,7.893e-05,-1185.9,-0.00055965,-5984,0.012554
16711,1.3793,1.4545,0,0.00054936,5489.8,0.00024237,0.20445,6.7716e-05,-1312.1,-0.00055978,-6026.8,0.011167
16712,1.4713,1.4545,0.05,3.0983e-06,30.962,2.3791e-06,17.876,3.3138e-12,3.8128e-06,-2.3791e-06,-17.876,0.012642
16713,1.4713,1.1818,0,0.00055273,5523.5,0.00023158,0.085515,9.2851e-05,-1042.3,-0.00056303,-5970.3,0.012275
16714,1.3793,1.2727,0,0.0005513,5509.2,0.00023706,0.23007,8.052e-05,-1176,-0.0005618,-6002.1,0.010936
16715,1.4713,1.2727,0.05,3.1212e-06,31.191,2.3967e-06,18.008,-3.1918e-13,-3.8198e-15,-2.3967e-06,-18.008,0.012387
16716,1.4713,1,0,0.00055803,5576.5,0.00022601,0.15204,0.00010891,-879.71,-0.00056776,-5963.9,0.011941
16717,1.3793,1.0909,0,0.00055493,5545.4,0.00023124,0.2797,9.5739e-05,-1017.8,-0.00056518,-5983.7,0.010656
16718,1.4713,1.0909,0.05,3.1575e-06,31.553,2.4246e-06,18.217,-6.1738e-13,6.3845e-06,-2.4246e-06,-18.217,0.012081
16719,1.4713,0.81818,0,0.0005653,5649.1,0.00022021,0.27259,0.00012689,-700.86,-0.00057394,-5966.6,0.011542
16720,1.3793,0.90909,0,0.00056061,5602.3,0.00022501,0.3596,0.00011335,-838.65,-0.00057014,-5974.1,0.01032
16721,1.4713,0.90909,0.05,3.193e-06,31.907,2.4518e-06,18.422,6.1428e-12,5.3431e-05,-2.4518e-06,-18.422,0.011716
16722,1.4713,0.63636,0,0.00057454,5741.5,0.00021437,0.42882,0.00014635,-510.64,-0.00058151,-5979.5,0.011069
16723,1.3793,0.72727,0,0.00056859,5682,0.00021859,0.5274,0.00013304,-642.22,-0.00057677,-5975.5,0.0099182
16724,1.4713,0.72727,0.05,3.2012e-06,31.99,2.4581e-06,18.469,-9.9043e-14,-3.9176e-15,-2.4581e-06,-18.469,0.011282
16725,1.4713,0.45455,0,0.00058565,5852.5,0.00020876,1.0036,0.00016666,-315.32,-0.00059036,-6003.2,0.010508
16726,1.3793,0.54545,0,0.00057883,5784.3,0.00021222,0.70141,0.00015421,-435.18,-0.00058498,-5989.2,0.009438
16727,1.4713,0.54545,0.05,3.1515e-06,31.493,2.4199e-06,18.183,7.3275e-12,-3.8568e-15,-2.42e-06,-18.183,0.010766
16728,1.4713,0.27273,0,0.00059939,5989.8,0.00020376,2.8644,0.00018792,-116.16,-0.00060123,-6045.5,0.0098491
16729,1.3793,0.36364,0,0.00059117,5907.7,0.0002063,1.8684,0.00017605,-225.43,-0.00059465,-6016.2,0.0088671
16730,1.4713,0.36364,0.05,3.02e-06,30.179,2.319e-06,17.424,7.1801e-12,6.0231e-05,-2.319e-06,-17.424,0.010158
16731,1.3793,0.18182,0,0.00060749,6070.7,0.00020316,18.528,0.00019762,-23.054,-0.00060756,-6072.9,0.0081921
16732,1.4713,0.18182,0.05,4.7752e-06,47.719,3.6667e-06,27.55,1.3884e-12,-5.8438e-15,-3.6667e-06,-27.55,0.009443
16733,1.4713,0.090909,0,0.00060488,6044.7,0.00020052,10.35,0.00019902,-0.95374,-0.00060472,-6040,0.0090778
16734,1.2874,5.7273,0,0.00059918,5987.7,0.00020385,3.6535,0.00018765,-118.04,-0.00060103,-6043.9,0.0073361
16735,1.1954,5.8182,0,0.00060661,6061.9,0.00020351,28.638,0.00019717,-19.015,-0.00060643,-6056.9,0.005917
16736,1.2874,5.8182,0.05,4.9256e-06,49.222,3.7823e-06,28.419,-9.0265e-12,-7.7529e-05,-3.7823e-06,-28.419,0.0069701
16737,1.2874,5.9091,0,0.0006045,6040.8,0.00020121,20.568,0.00019845,-0.16359,-0.00060415,-6030.6,0.006645
16738,1.2874,5.5455,0,0.00058426,5838.6,0.00020974,1.3598,0.00016369,-344.63,-0.00058933,-6002.6,0.0079178
16739,1.1954,5.6364,0,0.00058852,5881.2,0.00020633,1.8895,0.0001736,-244,-0.00059226,-5998.4,0.0065095
16740,1.2874,5.6364,0.05,3.4612e-06,34.589,2.6578e-06,19.97,-2.1822e-11,-0.00024387,-2.6578e-06,-19.97,0.0076059
16741,1.2874,5.3636,0,0.00057276,5723.7,0.00021644,0.74857,0.00014095,-566.44,-0.00058027,-5985.4,0.0084042
16742,1.1954,5.4545,0,0.00057553,5751.4,0.00021348,0.4528,0.00014887,-485,-0.00058224,-5978.3,0.0070018
16743,1.2874,5.4545,0.05,3.6226e-06,36.201,2.7817e-06,20.901,-2.1914e-11,-0.00024486,-2.7817e-06,-20.901,0.0081387
16744,1.2874,5.1818,0,0.00056379,5634,0.00022339,0.59202,0.00011951,-779.95,-0.00057297,-5983,0.0088092
16745,1.1954,5.2727,0,0.00056548,5650.9,0.00022117,0.1942,0.00012527,-720.33,-0.00057428,-5976.5,0.0074086
16746,1.2874,5.2727,0.05,3.6324e-06,36.299,2.7892e-06,20.957,-1.4279e-11,-0.00023999,-2.7892e-06,-20.957,0.0085828
16747,1.2874,5,0,0.00055739,5570.1,0.00023023,0.47497,0.00010015,-976.88,-0.00056753,-5993.6,0.0091451
16748,1.1954,5.0909,0,0.00055849,5581,0.00022883,-0.025261,0.0001039,-938.77,-0.0005685,-5990.9,0.0077437
16749,1.2874,5.0909,0.05,3.5711e-06,35.686,2.7422e-06,20.604,-2.0075e-11,-0.00022114,-2.7422e-06,-20.604,0.0089515
16750,1.2874,4.8182,0,0.0005534,5530.2,0.00023671,0.41676,8.3367e-05,-1151.8,-0.00056391,-6015.1,0.0094233
16751,1.1954,4.9091,0,0.00055437,5539.8,0.00023614,-0.13214,8.5423e-05,-1132.6,-0.00056488,-6018.7,0.0080192
16752,1.2874,4.9091,0.05,3.4915e-06,34.891,2.681e-06,20.144,-1.7392e-11,-0.00011509,-2.681e-06,-20.144,0.009257
16753,1.2874,4.6364,0,0.0005514,5510.2,0.00024266,0.38491,6.9254e-05,-1302.5,-0.00056187,-6044.5,0.009653
16754,1.1954,4.7273,0,0.00055261,5522.3,0.00024286,-0.19786,7.002e-05,-1298.9,-0.00056313,-6056.1,0.0082454
16755,1.2874,4.7273,0.05,3.428e-06,34.256,2.6323e-06,19.778,-1.8734e-11,-0.00011897,-2.6323e-06,-19.778,0.0095094
16756,1.2874,4.4545,0,0.0005509,5505.2,0.00024798,0.37028,5.7676e-05,-1429.5,-0.00056109,-6078.7,0.0098421
16757,1.1954,4.5455,0,0.0005526,5522.2,0.00024888,-0.2342,5.7507e-05,-1438.1,-0.00056283,-6099.1,0.0084309
16758,1.2874,4.5455,0.05,3.3929e-06,33.906,2.6053e-06,19.575,-1.1236e-11,-7.2909e-05,-2.6053e-06,-19.575,0.0097175
16759,1.2874,4.2727,0,0.0005514,5510.2,0.00025263,0.36427,4.8359e-05,-1534.4,-0.00056122,-6114.5,0.009997
16760,1.1954,4.3636,0,0.00055372,5533.4,0.00025414,-0.25571,4.7532e-05,-1552.6,-0.00056355,-6144,0.0085824
16761,1.2874,4.3636,0.05,3.3836e-06,33.813,2.5982e-06,19.522,-4.5626e-12,-0.00010732,-2.5982e-06,-19.522,0.0098884
16762,1.2874,4.0909,0,0.0005525,5521.2,0.0002566,0.36256,4.099e-05,-1619.6,-0.00056191,-6149.6,0.010123
16763,1.1954,4.1818,0,0.00055549,5551,0.00025865,-0.26881,3.9698e-05,-1645.4,-0.00056487,-6187.9,0.0087055
16764,1.2874,4.1818,0.05,3.3918e-06,33.894,2.6045e-06,19.569,-4.1534e-12,-6.4258e-05,-2.6045e-06,-19.569,0.010028
16765,1.2874,3.9091,0,0.00055386,5534.8,0.0002599,0.36264,3.5265e-05,-1687.5,-0.0005629,-6181.9,0.010223
16766,1.1954,4,0,0.00055751,5571.2,0.00026243,-0.2774,3.3634e-05,-1719.4,-0.00056649,-6228.4,0.0088044
16767,1.2874,4,0.05,3.409e-06,34.066,2.6177e-06,19.668,-9.0543e-13,-4.4426e-05,-2.6177e-06,-19.668,0.01014
16768,1.2874,3.7273,0,0.00055525,5548.6,0.00026257,0.36333,3.0924e-05,-1740.1,-0.00056396,-6209.9,0.010301
16769,1.1954,3.8182,0,0.0005595,5591.2,0.00026551,-0.28334,2.9021e-05,-1777.2,-0.00056813,-6264,0.0088824
16770,1.2874,3.8182,0.05,3.4289e-06,34.265,2.6329e-06,19.783,2.3992e-12,-2.0267e-05,-2.6329e-06,-19.783,0.010229
16771,1.2874,3.5455,0,0.00055648,5560.9,0.00026461,0.36406,2.7756e-05,-1779.3,-0.00056494,-6232.5,0.01036
16772,1.1954,3.6364,0,0.00056128,5608.9,0.00026793,-0.28759,2.5609e-05,-1821,-0.00056963,-6293.4,0.0089421
16773,1.2874,3.6364,0.05,3.4474e-06,34.45,2.6472e-06,19.89,1.2432e-12,-5.502e-06,-2.6472e-06,-19.89,0.010297
16774,1.2874,3.3636,0,0.00055743,5570.5,0.00026605,0.36463,2.5602e-05,-1806.3,-0.00056571,-6249.2,0.010401
16775,1.1954,3.4545,0,0.00056271,5623.2,0.00026971,-0.29058,2.3205e-05,-1852.5,-0.00057085,-6315.9,0.0089854
16776,1.2874,3.4545,0.05,3.4625e-06,34.601,2.6587e-06,19.977,1.895e-12,-6.9206e-06,-2.6587e-06,-19.977,0.010346
16777,1.2874,3.1818,0,0.00055803,5576.5,0.00026691,0.36497,2.4352e-05,-1822.1,-0.00056621,-6259.3,0.010425
16778,1.1954,3.2727,0,0.0005637,5633.1,0.00027089,-0.29251,2.1674e-05,-1872.8,-0.0005717,-6331.2,0.0090135
16779,1.2874,3.2727,0.05,3.4728e-06,34.705,2.6667e-06,20.037,1.4921e-12,-3.2391e-05,-2.6667e-06,-20.037,0.010378
16780,1.2874,3,0,0.00055824,5578.5,0.00026719,0.36509,2.3942e-05,-1827.3,-0.00056637,-6262.7,0.010433
16781,1.1954,3.0909,0,0.00056421,5638.2,0.00027147,-0.29346,2.0929e-05,-1882.8,-0.00057214,-6338.9,0.0090273
16782,1.2874,3.0909,0.05,3.4781e-06,34.757,2.6708e-06,20.067,1.5083e-12,-7.9089e-07,-2.6708e-06,-20.067,0.010394
16783,1.2874,2.8182,0,0.00055803,5576.5,0.00026691,0.36497,2.4352e-05,-1822.1,-0.00056621,-6259.3,0.010425
16784,1.1954,2.9091,0,0.00056421,5638.2,0.00027147,-0.29346,2.0929e-05,-1882.8,-0.00057214,-6338.9,0.0090273
16785,1.2874,2.9091,0.05,3.4781e-06,34.757,2.6708e-06,20.067,1.6488e-12,3.0644e-07,-2.6708e-06,-20.067,0.010394
16786,1.2874,2.6364,0,0.00055743,5570.5,0.00026605,0.36463,2.5602e-05,-1806.3,-0.00056571,-6249.2,0.010401
16787,1.1954,2.7273,0,0.0005637,5633.1,0.00027089,-0.29251,2.1674e-05,-1872.8,-0.0005717,-6331.2,0.0090135
16788,1.2874,2.7273,0.05,3.4728e-06,34.705,2.6667e-06,20.037,1.2339e-12,-2.9478e-05,-2.6667e-06,-20.037,0.010378
16789,1.2874,2.4545,0,0.00055648,5560.9,0.00026461,0.36406,2.7756e-05,-1779.3,-0.00056494,-6232.5,0.01036
16790,1.1954,2.5455,0,0.00056271,5623.2,0.00026971,-0.29058,2.3205e-05,-1852.5,-0.00057085,-6315.9,0.0089854
16791,1.2874,2.5455,0.05,3.4625e-06,34.601,2.6587e-06,19.977,1.1926e-12,1.9531e-06,-2.6587e-06,-19.977,0.010346
16792,1.2874,2.2727,0,0.00055525,5548.6,0.00026257,0.36333,3.0924e-05,-1740.1,-0.00056396,-6209.9,0.010301
16793,1.1954,2.3636,0,0.00056128,5608.9,0.00026793,-0.28759,2.5609e-05,-1821,-0.00056963,-6293.4,0.0089421
16794,1.2874,2.3636,0.05,3.4474e-06,34.451,2.6472e-06,19.89,1.0774e-12,1.834e-06,-2.6472e-06,-19.89,0.010297
16795,1.2874,2.0909,0,0.00055386,5534.8,0.0002599,0.36264,3.5265e-05,-1687.5,-0.0005629,-6181.9,0.010223
16796,1.1954,2.1818,0,0.0005595,5591.2,0.00026551,-0.28334,2.9021e-05,-1777.2,-0.00056813,-6264,0.0088824
16797,1.2874,2.1818,0.05,3.4289e-06,34.265,2.6329e-06,19.783,4.2319e-13,-4.2166e-06,-2.6329e-06,-19.783,0.010229
16798,1.2874,1.9091,0,0.0005525,5521.2,0.0002566,0.36256,4.099e-05,-1619.6,-0.00056191,-6149.6,0.010123
16799,1.1954,2,0,0.00055751,5571.2,0.00026243,-0.2774,3.3634e-05,-1719.4,-0.00056649,-6228.4,0.0088044
16800,1.2874,2,0.05,3.409e-06,34.066,2.6177e-06,19.668,-9.11e-13,2.882e-06,-2.6177e-06,-19.668,0.01014
16801,1.2874,1.7273,0,0.0005514,5510.2,0.00025263,0.36427,4.8359e-05,-1534.4,-0.00056122,-6114.5,0.009997
16802,1.1954,1.8182,0,0.00055549,5551,0.00025865,-0.26881,3.9698e-05,-1645.4,-0.00056487,-6187.9,0.0087055
16803,1.2874,1.8182,0.05,3.3918e-06,33.894,2.6045e-06,19.569,1.1953e-12,-1.1307e-05,-2.6045e-06,-19.569,0.010028
16804,1.2874,1.5455,0,0.0005509,5505.2,0.00024798,0.37028,5.7676e-05,-1429.5,-0.00056109,-6078.7,0.0098421
16805,1.1954,1.6364,0,0.00055372,5533.4,0.00025414,-0.25571,4.7532e-05,-1552.6,-0.00056355,-6144,0.0085824
16806,1.2874,1.6364,0.05,3.3836e-06,33.813,2.5982e-06,19.522,4.3911e-13,-9.6127e-06,-2.5982e-06,-19.522,0.0098884
16807,1.2874,1.3636,0,0.0005514,5510.2,0.00024266,0.38491,6.9254e-05,-1302.5,-0.00056187,-6044.5,0.009653
16808,1.1954,1.4545,0,0.0005526,5522.2,0.00024888,-0.2342,5.7507e-05,-1438.1,-0.00056283,-6099.1,0.0084309
16809,1.2874,1.4545,0.05,3.3929e-06,33.906,2.6053e-06,19.575,6.837e-13,1.1444e-05,-2.6053e-06,-19.575,0.0097175
16810,1.2874,1.1818,0,0.0005534,5530.2,0.00023671,0.41676,8.3367e-05,-1151.8,-0.00056391,-6015.1,0.0094233
16811,1.1954,1.2727,0,0.00055261,5522.3,0.00024286,-0.19786,7.002e-05,-1298.9,-0.00056313,-6056.1,0.0082454
16812,1.2874,1.2727,0.05,3.428e-06,34.256,2.6323e-06,19.778,8.6775e-13,-4.1952e-15,-2.6323e-06,-19.778,0.0095094
16813,1.2874,1,0,0.00055739,5570.1,0.00023023,0.47497,0.00010015,-976.88,-0.00056753,-5993.6,0.0091451
16814,1.1954,1.0909,0,0.00055437,5539.8,0.00023614,-0.13214,8.5423e-05,-1132.6,-0.00056488,-6018.7,0.0080192
16815,1.2874,1.0909,0.05,3.4915e-06,34.891,2.681e-06,20.144,5.5579e-12,1.2428e-05,-2.681e-06,-20.144,0.009257
16816,1.2874,0.81818,0,0.00056379,5634,0.00022339,0.59202,0.00011951,-779.95,-0.00057297,-5983,0.0088092
16817,1.1954,0.90909,0,0.00055849,5581,0.00022883,-0.025261,0.0001039,-938.77,-0.0005685,-5990.9,0.0077437
16818,1.2874,0.90909,0.05,3.5711e-06,35.686,2.7422e-06,20.604,-5.8166e-22,-4.3703e-15,-2.7422e-06,-20.604,0.0089515
16819,1.2874,0.63636,0,0.00057276,5723.7,0.00021644,0.74857,0.00014095,-566.44,-0.00058027,-5985.4,0.0084042
16820,1.1954,0.72727,0,0.00056548,5650.9,0.00022117,0.1942,0.00012527,-720.33,-0.00057428,-5976.5,0.0074086
16821,1.2874,0.72727,0.05,3.6324e-06,36.299,2.7892e-06,20.957,7.0288e-12,5.9376e-05,-2.7892e-06,-20.957,0.0085828
16822,1.2874,0.45455,0,0.00058426,5838.6,0.00020974,1.3598,0.00016369,-344.63,-0.00058933,-6002.6,0.0079178
16823,1.1954,0.54545,0,0.00057553,5751.4,0.00021348,0.4528,0.00014887,-485,-0.00058224,-5978.3,0.0070018
16824,1.2874,0.54545,0.05,3.6226e-06,36.201,2.7817e-06,20.901,7.3243e-12,0.00018292,-2.7817e-06,-20.901,0.0081387
16825,1.2874,0.27273,0,0.00059918,5987.7,0.00020385,3.6535,0.00018765,-118.04,-0.00060103,-6043.9,0.0073361
16826,1.1954,0.36364,0,0.00058852,5881.2,0.00020633,1.8895,0.0001736,-244,-0.00059226,-5998.4,0.0065095
16827,1.2874,0.36364,0.05,3.4612e-06,34.589,2.6578e-06,19.97,-2.7139e-14,-4.2359e-15,-2.6578e-06,-19.97,0.007606
16828,1.1954,0.18182,0,0.00060661,6061.9,0.00020351,28.638,0.00019717,-19.015,-0.00060643,-6056.9,0.005917
16829,1.2874,0.18182,0.05,4.9256e-06,49.222,3.7823e-06,28.419,9.8314e-13,2.5843e-05,-3.7823e-06,-28.419,0.0069701
16830,1.2874,0.090909,0,0.0006045,6040.8,0.00020121,20.568,0.00019845,-0.16359,-0.00060415,-6030.6,0.006645
16831,1.1034,5.7273,0,0.00059582,5954,0.00020294,3.9922,0.00018623,-121.62,-0.00059772,-6011.9,0.0052147
16832,1.0115,5.8182,0,0.00060196,6015.5,0.00020306,43.492,0.00019516,-15.918,-0.00060147,-6001.5,0.0040349
16833,1.1034,5.8182,0.05,5.0458e-06,50.424,3.8746e-06,29.112,-8.2449e-12,-0.0001302,-3.8746e-06,-29.112,0.0048927
16834,1.1034,5.9091,0,0.0006009,6004.9,0.00020113,33.913,0.00019662,0.0034148,-0.00060032,-5987.8,0.0046113
16835,1.1034,5.5455,0,0.00057967,5792.7,0.00021004,0.7204,0.00015888,-383.62,-0.00058522,-5974.6,0.0057125
16836,1.0115,5.6364,0,0.00058195,5815.5,0.00020552,3.3136,0.00016918,-269.71,-0.000586,-5943.9,0.0045379
16837,1.1034,5.6364,0.05,4.1236e-06,41.208,3.1664e-06,23.791,-2.1198e-11,-0.00023885,-3.1664e-06,-23.791,0.0054426
16838,1.1034,5.3636,0,0.0005681,5677.1,0.0002182,-0.16568,0.00013323,-638.65,-0.00057626,-5969.5,0.0061204
16839,1.0115,5.4545,0,0.00056867,5682.8,0.00021447,2.0017,0.00014082,-551.4,-0.00057599,-5937.2,0.0049462
16840,1.1034,5.4545,0.05,4.2773e-06,42.744,3.2845e-06,24.678,-2.1626e-11,-0.00011985,-3.2845e-06,-24.678,0.0058939
16841,1.1034,5.1818,0,0.00056002,5596.4,0.00022661,-0.45102,0.00010964,-879.27,-0.00056979,-5984.2,0.0064534
16842,1.0115,5.2727,0,0.00055961,5592.2,0.00022398,1.8609,0.0001145,-820.72,-0.00056898,-5956.1,0.0052759
16843,1.1034,5.2727,0.05,4.1932e-06,41.904,3.2199e-06,24.193,-2.8903e-11,-0.00024144,-3.2199e-06,-24.193,0.0062624
16844,1.1034,5,0,0.00055532,5549.3,0.00023474,-0.6475,8.9113e-05,-1094.8,-0.0005658,-6015.6,0.0067248
16845,1.0115,5.0909,0,0.00055467,5542.9,0.00023325,1.7237,9.1655e-05,-1062.2,-0.00056499,-5996,0.0055419
16846,1.1034,5.0909,0.05,4.0376e-06,40.348,3.1004e-06,23.295,-2.667e-11,-0.00012164,-3.1003e-06,-23.295,0.0065627
16847,1.1034,4.8182,0,0.00055346,5530.8,0.00024229,-0.75572,7.2009e-05,-1280.2,-0.00056403,-6059.1,0.0069461
16848,1.0115,4.9091,0,0.0005532,5528.2,0.00024187,1.6854,7.2849e-05,-1268.3,-0.00056369,-6050.9,0.0057566
16849,1.1034,4.9091,0.05,3.8924e-06,38.897,2.9889e-06,22.457,-1.1267e-11,-0.00015394,-2.9889e-06,-22.457,0.0068072
16850,1.1034,4.6364,0,0.00055372,5533.4,0.00024908,-0.82251,5.8204e-05,-1435,-0.00056402,-6110.1,0.0071264
16851,1.0115,4.7273,0,0.00055423,5538.5,0.0002496,1.673,5.7904e-05,-1438.7,-0.00056444,-6114.7,0.0059302
16852,1.1034,4.7273,0.05,3.7947e-06,37.921,2.9138e-06,21.893,-1.013e-11,-0.00013019,-2.9138e-06,-21.893,0.0070063
16853,1.1034,4.4545,0,0.00055537,5549.8,0.00025504,-0.8637,4.7299e-05,-1561.7,-0.00056522,-6164,0.0072732
16854,1.0115,4.5455,0,0.00055682,5564.4,0.00025637,1.6769,4.6286e-05,-1576.8,-0.00056656,-6181.4,0.0060707
16855,1.1034,4.5455,0.05,3.7455e-06,37.429,2.8761e-06,21.61,-3.1023e-12,-0.00010991,-2.8761e-06,-21.61,0.0071685
16856,1.1034,4.2727,0,0.00055777,5573.9,0.00026017,-0.89109,3.8816e-05,-1664,-0.00056715,-6217,0.0073922
16857,1.0115,4.3636,0,0.00056022,5598.3,0.00026217,1.6851,3.7375e-05,-1687.4,-0.00056943,-6246.7,0.0061843
16858,1.1034,4.3636,0.05,3.7309e-06,37.283,2.8649e-06,21.525,-4.2221e-12,-9.6453e-05,-2.8649e-06,-21.525,0.0073003
16859,1.1034,4.0909,0,0.00056047,5600.8,0.00026448,-0.91031,3.2295e-05,-1745.5,-0.0005694,-6266.4,0.0074881
16860,1.0115,4.1818,0,0.00056386,5634.7,0.00026707,1.6937,3.0601e-05,-1775,-0.0005726,-6307.3,0.0062757
16861,1.1034,4.1818,0.05,3.7355e-06,37.329,2.8684e-06,21.552,-7.2913e-13,-5.1887e-05,-2.8684e-06,-21.552,0.0074068
16862,1.1034,3.9091,0,0.00056313,5627.4,0.00026804,-0.92447,2.735e-05,-1809.4,-0.00057168,-6310.2,0.0075643
16863,1.0115,4,0,0.00056739,5669.9,0.00027112,1.701,2.5495e-05,-1843.8,-0.00057571,-6361.1,0.0063487
16864,1.1034,4,0.05,3.7483e-06,37.457,2.8782e-06,21.626,-2.5324e-12,-3.855e-05,-2.8782e-06,-21.626,0.0074921
16865,1.1034,3.7273,0,0.00056552,5651.3,0.00027088,-0.93506,2.3671e-05,-1858.3,-0.00057376,-6347.2,0.0076234
16866,1.0115,3.8182,0,0.00057054,5701.5,0.00027438,1.7068,2.1694e-05,-1896.9,-0.00057854,-6406.9,0.0064059
16867,1.1034,3.8182,0.05,3.7627e-06,37.601,2.8893e-06,21.709,6.6438e-13,-1.1234e-05,-2.8893e-06,-21.709,0.0075592
16868,1.1034,3.5455,0,0.0005675,5671.1,0.00027304,-0.94286,2.1025e-05,-1894.5,-0.0005755,-6376.5,0.0076676
16869,1.0115,3.6364,0,0.00057319,5727.9,0.00027693,1.7109,1.8929e-05,-1936.8,-0.00058094,-6443.9,0.0064495
16870,1.1034,3.6364,0.05,3.7755e-06,37.729,2.8991e-06,21.783,1.1599e-12,-2.4305e-05,-2.8991e-06,-21.783,0.0076104
16871,1.1034,3.3636,0,0.00056896,5685.7,0.00027455,-0.94825,1.9246e-05,-1919.2,-0.0005768,-6397.7,0.0076981
16872,1.0115,3.4545,0,0.00057523,5748.3,0.00027879,1.7138,1.7005e-05,-1965.2,-0.0005828,-6471.9,0.006481
16873,1.1034,3.4545,0.05,3.7853e-06,37.827,2.9066e-06,21.839,1.4134e-12,-1.9442e-05,-2.9066e-06,-21.839,0.0076474
16874,1.1034,3.1818,0,0.00056986,5694.7,0.00027545,-0.95143,1.8221e-05,-1933.7,-0.0005776,-6410.5,0.0077161
16875,1.0115,3.2727,0,0.00057661,5762.2,0.00028001,1.7156,1.5791e-05,-1983.5,-0.00058406,-6490.6,0.0065014
16876,1.1034,3.2727,0.05,3.7918e-06,37.892,2.9116e-06,21.877,1.5024e-12,-1.7643e-05,-2.9116e-06,-21.877,0.0076714
16877,1.1034,3,0,0.00057017,5697.7,0.00027575,-0.95248,1.7886e-05,-1938.5,-0.00057788,-6414.8,0.007722
16878,1.0115,3.0909,0,0.00057731,5769.1,0.00028062,1.7164,1.5203e-05,-1992.5,-0.0005847,-6499.9,0.0065115
16879,1.1034,3.0909,0.05,3.795e-06,37.924,2.9141e-06,21.895,1.2974e-12,-1.5853e-05,-2.9141e-06,-21.895,0.0076833
16880,1.1034,2.8182,0,0.00056986,5694.7,0.00027545,-0.95143,1.8221e-05,-1933.7,-0.0005776,-6410.5,0.0077161
16881,1.0115,2.9091,0,0.00057731,5769.1,0.00028062,1.7164,1.5203e-05,-1992.5,-0.0005847,-6499.9,0.0065115
16882,1.1034,2.9091,0.05,3.795e-06,37.924,2.9141e-06,21.895,1.4108e-12,-1.5021e-05,-2.9141e-06,-21.895,0.0076833
16883,1.1034,2.6364,0,0.00056896,5685.7,0.00027455,-0.94825,1.9246e-05,-1919.2,-0.0005768,-6397.7,0.0076981
16884,1.0115,2.7273,0,0.00057661,5762.2,0.00028001,1.7156,1.5791e-05,-1983.5,-0.00058406,-6490.6,0.0065014
16885,1.1034,2.7273,0.05,3.7918e-06,37.892,2.9116e-06,21.877,1.2328e-12,-1.4233e-05,-2.9116e-06,-21.877,0.0076714
16886,1.1034,2.4545,0,0.0005675,5671.1,0.00027304,-0.94286,2.1025e-05,-1894.5,-0.0005755,-6376.5,0.0076676
16887,1.0115,2.5455,0,0.00057523,5748.3,0.00027879,1.7138,1.7005e-05,-1965.2,-0.0005828,-6471.9,0.006481
16888,1.1034,2.5455,0.05,3.7853e-06,37.827,2.9066e-06,21.839,1.0657e-12,-2.9793e-05,-2.9066e-06,-21.839,0.0076474
16889,1.1034,2.2727,0,0.00056552,5651.3,0.00027088,-0.93506,2.3671e-05,-1858.3,-0.00057376,-6347.2,0.0076234
16890,1.0115,2.3636,0,0.00057319,5727.9,0.00027693,1.7109,1.8929e-05,-1936.8,-0.00058094,-6443.9,0.0064495
16891,1.1034,2.3636,0.05,3.7755e-06,37.729,2.8991e-06,21.783,6.3408e-13,-1.1895e-05,-2.8991e-06,-21.783,0.0076104
16892,1.1034,2.0909,0,0.00056313,5627.4,0.00026804,-0.92447,2.735e-05,-1809.4,-0.00057168,-6310.2,0.0075643
16893,1.0115,2.1818,0,0.00057054,5701.5,0.00027438,1.7068,2.1694e-05,-1896.9,-0.00057854,-6406.9,0.0064059
16894,1.1034,2.1818,0.05,3.7627e-06,37.601,2.8893e-06,21.709,3.9662e-13,3.3271e-06,-2.8893e-06,-21.709,0.0075592
16895,1.1034,1.9091,0,0.00056047,5600.8,0.00026448,-0.91031,3.2295e-05,-1745.5,-0.0005694,-6266.4,0.0074881
16896,1.0115,2,0,0.00056739,5669.9,0.00027112,1.701,2.5495e-05,-1843.8,-0.00057571,-6361.1,0.0063487
16897,1.1034,2,0.05,3.7483e-06,37.457,2.8782e-06,21.626,1.9307e-13,-3.7474e-06,-2.8782e-06,-21.626,0.0074921
16898,1.1034,1.7273,0,0.00055777,5573.9,0.00026017,-0.89109,3.8816e-05,-1664,-0.00056715,-6217,0.0073922
16899,1.0115,1.8182,0,0.00056386,5634.7,0.00026707,1.6937,3.0601e-05,-1775,-0.0005726,-6307.3,0.0062757
16900,1.1034,1.8182,0.05,3.7355e-06,37.329,2.8684e-06,21.552,3.8316e-13,3.2142e-06,-2.8684e-06,-21.552,0.0074068
16901,1.1034,1.5455,0,0.00055537,5549.8,0.00025504,-0.8637,4.7299e-05,-1561.7,-0.00056522,-6164,0.0072732
16902,1.0115,1.6364,0,0.00056022,5598.3,0.00026217,1.6851,3.7375e-05,-1687.4,-0.00056943,-6246.7,0.0061843
16903,1.1034,1.6364,0.05,3.7309e-06,37.283,2.8649e-06,21.525,-1.7243e-13,3.6077e-06,-2.8649e-06,-21.525,0.0073003
16904,1.1034,1.3636,0,0.00055372,5533.4,0.00024908,-0.82251,5.8204e-05,-1435,-0.00056402,-6110.1,0.0071264
16905,1.0115,1.4545,0,0.00055682,5564.4,0.00025637,1.6769,4.6286e-05,-1576.8,-0.00056656,-6181.4,0.0060707
16906,1.1034,1.4545,0.05,3.7455e-06,37.429,2.8761e-06,21.61,-6.1006e-22,-4.2134e-07,-2.8761e-06,-21.61,0.0071685
16907,1.1034,1.1818,0,0.00055346,5530.8,0.00024229,-0.75572,7.2009e-05,-1280.2,-0.00056403,-6059.1,0.0069461
16908,1.0115,1.2727,0,0.00055423,5538.5,0.0002496,1.673,5.7904e-05,-1438.7,-0.00056444,-6114.7,0.0059302
16909,1.1034,1.2727,0.05,3.7947e-06,37.921,2.9138e-06,21.893,1.2519e-12,7.3646e-06,-2.9138e-06,-21.893,0.0070063
16910,1.1034,1,0,0.00055532,5549.3,0.00023474,-0.6475,8.9113e-05,-1094.8,-0.0005658,-6015.6,0.0067248
16911,1.0115,1.0909,0,0.0005532,5528.2,0.00024187,1.6854,7.2849e-05,-1268.3,-0.00056369,-6050.9,0.0057566
16912,1.1034,1.0909,0.05,3.8924e-06,38.897,2.9889e-06,22.457,1.11e-11,9.6334e-05,-2.9889e-06,-22.457,0.0068072
16913,1.1034,0.81818,0,0.00056002,5596.4,0.00022661,-0.45102,0.00010964,-879.27,-0.00056979,-5984.2,0.0064534
16914,1.0115,0.90909,0,0.00055467,5542.9,0.00023325,1.7237,9.1655e-05,-1062.2,-0.00056499,-5996,0.0055419
16915,1.1034,0.90909,0.05,4.0376e-06,40.348,3.1003e-06,23.295,1.3272e-11,4.2039e-06,-3.1003e-06,-23.295,0.0065627
16916,1.1034,0.63636,0,0.0005681,5677.1,0.0002182,-0.16568,0.00013323,-638.65,-0.00057626,-5969.5,0.0061204
16917,1.0115,0.72727,0,0.00055961,5592.2,0.00022398,1.8609,0.0001145,-820.72,-0.00056898,-5956.1,0.0052759
16918,1.1034,0.72727,0.05,4.1932e-06,41.904,3.2199e-06,24.193,-3.2185e-14,6.0315e-05,-3.2199e-06,-24.193,0.0062624
16919,1.1034,0.45455,0,0.00057967,5792.7,0.00021004,0.7204,0.00015888,-383.62,-0.00058522,-5974.6,0.0057125
16920,1.0115,0.54545,0,0.00056867,5682.8,0.00021447,2.0017,0.00014082,-551.4,-0.00057599,-5937.2,0.0049462
16921,1.1034,0.54545,0.05,4.2773e-06,42.744,3.2845e-06,24.678,7.2444e-12,-5.2346e-15,-3.2845e-06,-24.678,0.0058939
16922,1.1034,0.27273,0,0.00059582,5954,0.00020294,3.9922,0.00018623,-121.62,-0.00059772,-6011.9,0.0052147
16923,1.0115,0.36364,0,0.00058195,5815.5,0.00020552,3.3136,0.00016918,-269.71,-0.000586,-5943.9,0.0045379
16924,1.1034,0.36364,0.05,4.1236e-06,41.208,3.1664e-06,23.791,7.079e-12,-5.0465e-15,-3.1664e-06,-23.791,0.0054426
16925,1.0115,0.18182,0,0.00060196,6015.5,0.00020306,43.492,0.00019516,-15.918,-0.00060147,-6001.5,0.0040349
16926,1.1034,0.18182,0.05,5.0458e-06,50.424,3.8746e-06,29.112,3.0313e-12,0.0001302,-3.8746e-06,-29.112,0.0048927
16927,1.1034,0.090909,0,0.0006009,6004.9,0.00020113,33.913,0.00019662,0.0034147,-0.00060032,-5987.8,0.0046113
16928,0.91954,5.7273,0,0.00058789,5874.8,0.00020088,7.0725,0.00018294,-127.75,-0.00058982,-5934,0.0034796
16929,0.82759,5.8182,0,0.00059125,5908.4,0.00020107,61.689,0.00019067,-16.408,-0.00059044,-5885.3,0.0025391
16930,0.91954,5.8182,0.05,5.1714e-06,51.678,3.971e-06,29.836,-1.2646e-11,-0.00017222,-3.971e-06,-29.837,0.0032057
16931,0.91954,5.9091,0,0.00059251,5921,0.00019979,51.644,0.00019305,1.0287,-0.0005916,-5894.5,0.0029719
16932,0.91954,5.5455,0,0.00057075,5703.6,0.00020991,4.2595,0.00015122,-436.7,-0.00057683,-5907,0.0038875
16933,0.82759,5.6364,0,0.00056906,5686.7,0.00020298,-0.40572,0.00016156,-311.61,-0.00057373,-5836.3,0.0029456
16934,0.91954,5.6364,0.05,5.1425e-06,51.389,3.9488e-06,29.67,-2.64e-11,-0.0001695,-3.9488e-06,-29.67,0.0036627
16935,0.91954,5.3636,0,0.00055995,5595.6,0.00022024,3.9464,0.00012209,-733.45,-0.0005687,-5923.8,0.0042128
16936,0.82759,5.4545,0,0.00055626,5558.8,0.00021449,-3.3333,0.0001286,-648.67,-0.00056454,-5856.6,0.0032652
16937,0.91954,5.4545,0.05,5.1942e-06,51.906,3.9885e-06,29.968,-1.3676e-11,-0.00023584,-3.9885e-06,-29.968,0.0040272
16938,0.91954,5.1818,0,0.00055404,5536.5,0.00023062,4,9.6445e-05,-1004.1,-0.00056412,-5967.3,0.0044718
16939,0.82759,5.2727,0,0.00054977,5493.9,0.00022645,-4.2071,9.9553e-05,-957.66,-0.00055989,-5912.5,0.0035157
16940,0.91954,5.2727,0.05,4.9145e-06,49.111,3.7737e-06,28.354,-2.9443e-11,-0.00018549,-3.7737e-06,-28.354,0.004317
16941,0.91954,5,0,0.00055238,5520,0.00024038,4.038,7.5297e-05,-1236.3,-0.00056279,-6030.6,0.0046783
16942,0.82759,5.0909,0,0.00054867,5483,0.00023772,-4.8318,7.6002e-05,-1219.9,-0.00055931,-5993.4,0.0037124
16943,0.91954,5.0909,0.05,4.6032e-06,46,3.5347e-06,26.558,-2.0618e-11,-0.00022359,-3.5347e-06,-26.558,0.0045475
16944,0.91954,4.8182,0,0.00055386,5534.7,0.00024918,4.1037,5.865e-05,-1427.5,-0.000564,-6105.8,0.0048436
16945,0.82759,4.9091,0,0.00055137,5509.9,0.00024783,-5.1972,5.7904e-05,-1432.2,-0.00056178,-6088.2,0.0038678
16946,0.91954,4.9091,0.05,4.3705e-06,43.675,3.356e-06,25.216,-1.5616e-11,-0.00010627,-3.356e-06,-25.216,0.0047314
16947,0.91954,4.6364,0,0.00055727,5568.8,0.00025689,4.1663,4.5907e-05,-1581,-0.00056689,-6185.4,0.0049763
16948,0.82759,4.7273,0,0.00055626,5558.7,0.00025661,-5.4486,4.4396e-05,-1599.9,-0.00056613,-6187.2,0.0039912
16949,0.91954,4.7273,0.05,4.2333e-06,42.304,3.2506e-06,24.424,-9.5376e-12,-0.00017335,-3.2506e-06,-24.424,0.0048788
16950,0.91954,4.4545,0,0.00056164,5612.5,0.0002635,4.222,3.63e-05,-1702.9,-0.0005707,-6263.6,0.005083
16951,0.82759,4.5455,0,0.0005621,5617.1,0.00026409,-5.6253,3.4443e-05,-1731.1,-0.00057139,-6283.1,0.0040897
16952,0.91954,4.5455,0.05,4.1662e-06,41.633,3.1991e-06,24.037,-5.8741e-12,-8.4426e-05,-3.1991e-06,-24.037,0.0049971
16953,0.91954,4.2727,0,0.00056629,5659,0.00026908,4.2676,2.9113e-05,-1798.7,-0.00057483,-6336.5,0.0051687
16954,0.82759,4.3636,0,0.0005681,5677,0.00027037,-5.7576,2.7137e-05,-1833.3,-0.00057686,-6371.5,0.0041685
16955,0.91954,4.3636,0.05,4.1388e-06,41.359,3.1781e-06,23.879,-3.5904e-12,-6.0534e-05,-3.1781e-06,-23.879,0.0050922
16956,0.91954,4.0909,0,0.00057077,5703.7,0.0002737,4.3036,2.3764e-05,-1873.6,-0.00057887,-6401.6,0.0052372
16957,0.82759,4.1818,0,0.00057375,5733.6,0.00027557,-5.8586,2.1777e-05,-1912.8,-0.00058208,-6449.9,0.0042313
16958,0.91954,4.1818,0.05,4.1299e-06,41.27,3.1713e-06,23.827,1.2901e-12,-4.536e-05,-3.1712e-06,-23.828,0.0051684
16959,0.91954,3.9091,0,0.00057479,5744,0.00027746,4.3313,1.981e-05,-1931.6,-0.00058255,-6457.5,0.0052913
16960,0.82759,4,0,0.00057879,5783.9,0.00027982,-5.9367,1.7849e-05,-1974.3,-0.00058677,-6517.1,0.0042811
16961,0.91954,4,0.05,4.1278e-06,41.25,3.1697e-06,23.816,-5.7011e-13,-2.9952e-05,-3.1697e-06,-23.816,0.0052289
16962,0.91954,3.7273,0,0.00057821,5778.1,0.00028043,4.352,1.6927e-05,-1975.5,-0.0005857,-6503.4,0.0053331
16963,0.82759,3.8182,0,0.00058307,5826.7,0.0002832,-5.9966,1.4988e-05,-2021.2,-0.00059079,-6572.8,0.0043199
16964,0.91954,3.8182,0.05,4.1273e-06,41.245,3.1693e-06,23.812,-6.1466e-14,-4.6456e-05,-3.1693e-06,-23.813,0.0052763
16965,0.91954,3.5455,0,0.00058092,5805.2,0.00028268,4.367,1.4885e-05,-2007.7,-0.00058821,-6539.1,0.0053641
16966,0.82759,3.6364,0,0.00058653,5861.2,0.00028581,-6.0416,1.2941e-05,-2056.3,-0.00059405,-6617,0.0043494
16967,0.91954,3.6364,0.05,4.1265e-06,41.237,3.1687e-06,23.808,9.561e-13,-1.2691e-05,-3.1687e-06,-23.808,0.0053123
16968,0.91954,3.3636,0,0.00058287,5824.7,0.00028425,4.3771,1.3527e-05,-2029.7,-0.00059003,-6564.6,0.0053856
16969,0.82759,3.4545,0,0.00058912,5887.1,0.00028771,-6.0738,1.1533e-05,-2081.2,-0.00059651,-6649.8,0.0043706
16970,0.91954,3.4545,0.05,4.1254e-06,41.225,3.1678e-06,23.801,1.0998e-12,-4.7771e-06,-3.1678e-06,-23.802,0.0053382
16971,0.91954,3.1818,0,0.00058405,5836.5,0.00028517,4.3829,1.2749e-05,-2042.5,-0.00059114,-6579.9,0.0053981
16972,0.82759,3.2727,0,0.00059085,5904.4,0.00028895,-6.0946,1.0652e-05,-2097.1,-0.00059815,-6671.5,0.0043843
16973,0.91954,3.2727,0.05,4.1242e-06,41.214,3.1669e-06,23.795,1.092e-12,-2.5666e-06,-3.1669e-06,-23.795,0.005355
16974,0.91954,3,0,0.00058445,5840.5,0.00028548,4.3849,1.2496e-05,-2046.7,-0.00059151,-6584.9,0.0054023
16975,0.82759,3.0909,0,0.00059171,5913,0.00028957,-6.1047,1.0228e-05,-2105,-0.00059897,-6682.3,0.0043911
16976,0.91954,3.0909,0.05,4.1235e-06,41.206,3.1663e-06,23.79,9.7731e-13,-1.557e-05,-3.1663e-06,-23.79,0.0053633
16977,0.91954,2.8182,0,0.00058405,5836.5,0.00028517,4.3829,1.2749e-05,-2042.5,-0.00059114,-6579.9,0.0053981
16978,0.82759,2.9091,0,0.00059171,5913,0.00028957,-6.1047,1.0228e-05,-2105,-0.00059897,-6682.3,0.0043911
16979,0.91954,2.9091,0.05,4.1235e-06,41.206,3.1663e-06,23.79,9.4738e-13,-1.4936e-05,-3.1663e-06,-23.79,0.0053633
16980,0.91954,2.6364,0,0.00058287,5824.7,0.00028425,4.3771,1.3527e-05,-2029.7,-0.00059003,-6564.6,0.0053856
16981,0.82759,2.7273,0,0.00059085,5904.4,0.00028895,-6.0946,1.0652e-05,-2097.1,-0.00059815,-6671.5,0.0043843
16982,0.91954,2.7273,0.05,4.1242e-06,41.214,3.1669e-06,23.795,9.9989e-13,2.8457e-07,-3.1669e-06,-23.795,0.005355
16983,0.91954,2.4545,0,0.00058092,5805.2,0.00028268,4.367,1.4885e-05,-2007.7,-0.00058821,-6539.1,0.0053641
16984,0.82759,2.5455,0,0.00058912,5887.1,0.00028771,-6.0738,1.1533e-05,-2081.2,-0.00059651,-6649.8,0.0043706
16985,0.91954,2.5455,0.05,4.1254e-06,41.225,3.1678e-06,23.801,6.7739e-13,-1.3838e-05,-3.1678e-06,-23.801,0.0053382
16986,0.91954,2.2727,0,0.00057821,5778.1,0.00028043,4.352,1.6927e-05,-1975.5,-0.0005857,-6503.4,0.0053331
16987,0.82759,2.3636,0,0.00058653,5861.2,0.00028581,-6.0416,1.2941e-05,-2056.3,-0.00059405,-6617,0.0043494
16988,0.91954,2.3636,0.05,4.1265e-06,41.237,3.1687e-06,23.808,1.04e-12,4.5088e-07,-3.1687e-06,-23.808,0.0053123
16989,0.91954,2.0909,0,0.00057479,5744,0.00027746,4.3313,1.981e-05,-1931.6,-0.00058255,-6457.5,0.0052913
16990,0.82759,2.1818,0,0.00058307,5826.7,0.0002832,-5.9966,1.4988e-05,-2021.2,-0.00059079,-6572.8,0.0043199
16991,0.91954,2.1818,0.05,4.1273e-06,41.245,3.1693e-06,23.813,2.1935e-13,-1.4073e-05,-3.1693e-06,-23.813,0.0052763
16992,0.91954,1.9091,0,0.00057077,5703.7,0.0002737,4.3036,2.3764e-05,-1873.6,-0.00057887,-6401.6,0.0052372
16993,0.82759,2,0,0.00057879,5783.9,0.00027982,-5.9367,1.7849e-05,-1974.3,-0.00058677,-6517.1,0.0042811
16994,0.91954,2,0.05,4.1278e-06,41.25,3.1697e-06,23.816,1.9853e-13,2.5391e-06,-3.1697e-06,-23.816,0.0052289
16995,0.91954,1.7273,0,0.00056629,5659,0.00026908,4.2676,2.9113e-05,-1798.7,-0.00057483,-6336.5,0.0051687
16996,0.82759,1.8182,0,0.00057375,5733.6,0.00027557,-5.8586,2.1777e-05,-1912.8,-0.00058208,-6449.9,0.0042313
16997,0.91954,1.8182,0.05,4.1299e-06,41.27,3.1712e-06,23.828,7.2298e-13,-2.1484e-05,-3.1713e-06,-23.828,0.0051684
16998,0.91954,1.5455,0,0.00056164,5612.5,0.0002635,4.222,3.63e-05,-1702.9,-0.0005707,-6263.6,0.005083
16999,0.82759,1.6364,0,0.0005681,5677,0.00027037,-5.7576,2.7137e-05,-1833.3,-0.00057686,-6371.5,0.0041685
17000,0.91954,1.6364,0.05,4.1388e-06,41.359,3.1781e-06,23.879,-3.2117e-13,-5.0651e-15,-3.1781e-06,-23.879,0.0050922
17001,0.91954,1.3636,0,0.00055727,5568.8,0.00025689,4.1663,4.5907e-05,-1581,-0.00056689,-6185.4,0.0049763
17002,0.82759,1.4545,0,0.0005621,5617.1,0.00026409,-5.6254,3.4443e-05,-1731.1,-0.00057139,-6283.1,0.0040897
17003,0.91954,1.4545,0.05,4.1662e-06,41.633,3.1991e-06,24.037,3.2733e-12,7.541e-06,-3.1991e-06,-24.037,0.0049971
17004,0.91954,1.1818,0,0.00055386,5534.7,0.00024918,4.1037,5.865e-05,-1427.5,-0.000564,-6105.8,0.0048436
17005,0.82759,1.2727,0,0.00055626,5558.7,0.00025661,-5.4486,4.4396e-05,-1599.9,-0.00056613,-6187.2,0.0039912
17006,0.91954,1.2727,0.05,4.2333e-06,42.304,3.2506e-06,24.424,-3.7567e-13,8.6675e-05,-3.2506e-06,-24.424,0.0048788
17007,0.91954,1,0,0.00055238,5520,0.00024038,4.038,7.5297e-05,-1236.3,-0.00056279,-6030.6,0.0046783
17008,0.82759,1.0909,0,0.00055137,5509.9,0.00024783,-5.1972,5.7904e-05,-1432.2,-0.00056178,-6088.2,0.0038678
17009,0.91954,1.0909,0.05,4.3705e-06,43.675,3.356e-06,25.216,-2.1419e-13,4.6661e-05,-3.356e-06,-25.216,0.0047314
17010,0.91954,0.81818,0,0.00055404,5536.5,0.00023062,4,9.6445e-05,-1004.1,-0.00056412,-5967.3,0.0044718
17011,0.82759,0.90909,0,0.00054867,5483,0.00023772,-4.8318,7.6002e-05,-1219.9,-0.00055931,-5993.4,0.0037124
17012,0.91954,0.90909,0.05,4.6032e-06,46,3.5347e-06,26.558,6.5105e-12,0.0001118,-3.5347e-06,-26.558,0.0045475
17013,0.91954,0.63636,0,0.00055995,5595.6,0.00022024,3.9464,0.00012209,-733.45,-0.0005687,-5923.8,0.0042128
17014,0.82759,0.72727,0,0.00054977,5493.9,0.00022645,-4.2071,9.9553e-05,-957.66,-0.00055989,-5912.5,0.0035157
17015,0.91954,0.72727,0.05,4.9145e-06,49.111,3.7737e-06,28.354,-1.0138e-14,-6.0143e-15,-3.7737e-06,-28.354,0.004317
17016,0.91954,0.45455,0,0.00057075,5703.6,0.00020991,4.2595,0.00015122,-436.7,-0.00057683,-5907,0.0038875
17017,0.82759,0.54545,0,0.00055626,5558.8,0.00021449,-3.3334,0.0001286,-648.67,-0.00056454,-5856.6,0.0032652
17018,0.91954,0.54545,0.05,5.1942e-06,51.906,3.9885e-06,29.968,7.1289e-12,-2.027e-06,-3.9885e-06,-29.968,0.0040272
17019,0.91954,0.27273,0,0.00058789,5874.8,0.00020088,7.0725,0.00018294,-127.75,-0.00058982,-5934,0.0034796
17020,0.82759,0.36364,0,0.00056906,5686.7,0.00020298,-0.40572,0.00016156,-311.61,-0.00057373,-5836.3,0.0029456
17021,0.91954,0.36364,0.05,5.1425e-06,51.389,3.9488e-06,29.67,-1.352e-13,-6.2933e-15,-3.9488e-06,-29.67,0.0036627
17022,0.82759,0.18182,0,0.00059125,5908.4,0.00020107,61.689,0.00019067,-16.408,-0.00059044,-5885.3,0.0025391
17023,0.91954,0.18182,0.05,5.1714e-06,51.678,3.971e-06,29.837,4.0354e-12,8.5825e-05,-3.971e-06,-29.837,0.0032057
17024,0.91954,0.090909,0,0.00059251,5921,0.00019979,51.644,0.00019305,1.0287,-0.0005916,-5894.5,0.0029719
17025,0.73563,5.7273,0,0.00057208,5716.8,0.000196,0.40822,0.00017652,-145.94,-0.00057441,-5788.2,0.0021219
17026,0.64368,5.8182,0,0.00057098,5705.9,0.00019617,87.108,0.00018326,-9.863,-0.00056961,-5666.6,0.0014177
17027,0.73563,5.8182,0.05,5.5748e-06,55.709,4.2807e-06,32.164,-1.9287e-11,-0.00022408,-4.2807e-06,-32.164,0.0019003
17028,0.73563,5.9091,0,0.00057634,5759.4,0.00019634,72.906,0.00018645,-1.4242,-0.00057509,-5723.3,0.001718
17029,0.73563,5.5455,0,0.00055422,5538.4,0.0002075,-8.4441,0.00013903,-522.91,-0.00056147,-5786.1,0.0024344
17030,0.64368,5.6364,0,0.0005479,5475.2,0.00020052,17.395,0.0001482,-375.74,-0.00055294,-5643.8,0.0017215
17031,0.73563,5.6364,0.05,6.755e-06,67.504,5.187e-06,38.973,-1.7833e-11,-0.00018226,-5.187e-06,-38.973,0.0022574
17032,0.73563,5.3636,0,0.00054572,5453.5,0.00022069,-11.596,0.00010599,-873.4,-0.00055564,-5844.7,0.0026747
17033,0.64368,5.4545,0,0.00053859,5382.2,0.00021671,19.311,0.00010974,-784.38,-0.00054708,-5719.5,0.0019496
17034,0.73563,5.4545,0.05,6.4645e-06,64.6,4.9639e-06,37.297,-2.7471e-11,-0.0002322,-4.9639e-06,-37.297,0.0025312
17035,0.73563,5.1818,0,0.00054413,5437.5,0.00023355,-13.086,7.8972e-05,-1174.5,-0.00055494,-5937.5,0.0028598
17036,0.64368,5.2727,0,0.0005384,5380.3,0.00023235,20.733,7.9048e-05,-1131.2,-0.00054795,-5842.2,0.0021213
17037,0.73563,5.2727,0.05,5.8218e-06,58.178,4.4704e-06,33.589,-2.9469e-11,-0.00018461,-4.4704e-06,-33.589,0.002741
17038,0.73563,5,0,0.00054749,5471.1,0.00024516,-14.09,5.8474e-05,-1416.8,-0.00055816,-6050,0.0030036
17039,0.64368,5.0909,0,0.00054432,5439.4,0.00024624,21.729,5.667e-05,-1402.6,-0.00055363,-5988.2,0.0022517
17040,0.73563,5.0909,0.05,5.3001e-06,52.965,4.0698e-06,30.579,-7.008e-12,-0.00012116,-4.0698e-06,-30.579,0.0029029
17041,0.73563,4.8182,0,0.00055368,5533,0.00025525,-14.761,4.355e-05,-1605.4,-0.00056381,-6168.9,0.0031163
17042,0.64368,4.9091,0,0.00055327,5528.9,0.00025807,22.528,4.1028e-05,-1608.2,-0.0005619,-6138.4,0.0023522
17043,0.73563,4.9091,0.05,4.9785e-06,49.751,3.8229e-06,28.724,-1.2381e-11,-0.00017713,-3.8229e-06,-28.724,0.0030291
17044,0.73563,4.6364,0,0.00056105,5606.7,0.00026381,-15.247,3.2867e-05,-1750.4,-0.00057056,-6284.4,0.0032053
17045,0.64368,4.7273,0,0.00056314,5627.6,0.00026794,23.136,3.0224e-05,-1763,-0.00057105,-6280.7,0.0024305
17046,0.73563,4.7273,0.05,4.8054e-06,48.021,3.6899e-06,27.725,-4.8446e-12,-0.00013062,-3.6899e-06,-27.725,0.0031282
17047,0.73563,4.4545,0,0.00056855,5681.5,0.00027096,-15.609,2.5241e-05,-1861.8,-0.00057751,-6390.6,0.003276
17048,0.64368,4.5455,0,0.00057274,5723.4,0.00027609,23.606,2.2734e-05,-1880,-0.00058004,-6409.1,0.0024921
17049,0.73563,4.5455,0.05,4.7139e-06,47.106,3.6197e-06,27.197,-4.789e-12,-9.5092e-05,-3.6197e-06,-27.197,0.0032067
17050,0.73563,4.2727,0,0.00057556,5751.6,0.00027687,-15.886,1.9778e-05,-1947.5,-0.00058408,-6484.7,0.0033321
17051,0.64368,4.3636,0,0.00058147,5810.6,0.00028277,23.971,1.7487e-05,-1969.3,-0.00058831,-6521,0.0025407
17052,0.73563,4.3636,0.05,4.6599e-06,46.567,3.5782e-06,26.885,-1.3664e-12,-6.8067e-05,-3.5782e-06,-26.885,0.003269
17053,0.73563,4.0909,0,0.00058178,5813.8,0.00028169,-16.1,1.5846e-05,-2013.5,-0.00058996,-6565.3,0.0033767
17054,0.64368,4.1818,0,0.00058908,5886.7,0.0002882,24.254,1.3773e-05,-2037.7,-0.00059558,-6616.1,0.0025792
17055,0.73563,4.1818,0.05,4.6217e-06,46.185,3.5489e-06,26.665,-3.5009e-13,-7.6962e-05,-3.5489e-06,-26.665,0.0033185
17056,0.73563,3.9091,0,0.00058708,5866.7,0.00028555,-16.265,1.3013e-05,-2064,-0.000595,-6632.4,0.0034116
17057,0.64368,4,0,0.00059551,5951,0.00029256,24.474,1.1123e-05,-2090.1,-0.00060175,-6695,0.0026095
17058,0.73563,4,0.05,4.5903e-06,45.872,3.5248e-06,26.484,8.8619e-13,-3.0529e-05,-3.5248e-06,-26.484,0.0033576
17059,0.73563,3.7273,0,0.00059139,5909.8,0.00028858,-16.391,1.0988e-05,-2102.1,-0.00059913,-6686.3,0.0034385
17060,0.64368,3.8182,0,0.00060076,6003.5,0.000296,24.643,9.2318e-06,-2130,-0.00060682,-6758.8,0.002633
17061,0.73563,3.8182,0.05,4.5631e-06,45.6,3.5039e-06,26.327,5.0596e-13,-4.3485e-05,-3.5039e-06,-26.327,0.003388
17062,0.73563,3.5455,0,0.00059473,5943.2,0.00029084,-16.483,9.5747e-06,-2129.8,-0.00060234,-6727.5,0.0034584
17063,0.64368,3.6364,0,0.00060488,6044.6,0.00029863,24.769,7.8988e-06,-2159.7,-0.00061081,-6808.4,0.0026508
17064,0.73563,3.6364,0.05,4.54e-06,45.369,3.4862e-06,26.194,1.233e-12,-3.6436e-05,-3.4862e-06,-26.194,0.0034109
17065,0.73563,3.3636,0,0.00059709,5966.8,0.00029242,-16.546,8.6438e-06,-2148.7,-0.00060461,-6756.5,0.0034721
17066,0.64368,3.4545,0,0.00060792,6075,0.00030054,24.858,6.9926e-06,-2180.7,-0.00061376,-6844.8,0.0026635
17067,0.73563,3.4545,0.05,4.5216e-06,45.185,3.4721e-06,26.088,9.8883e-13,-4.252e-06,-3.4721e-06,-26.088,0.0034275
17068,0.73563,3.1818,0,0.0005985,5980.9,0.00029335,-16.583,8.1147e-06,-2159.7,-0.00060597,-6773.7,0.0034801
17069,0.64368,3.2727,0,0.00060991,6094.9,0.00030177,24.916,6.4292e-06,-2194.2,-0.0006157,-6868.7,0.0026718
17070,0.73563,3.2727,0.05,4.5089e-06,45.058,3.4623e-06,26.014,9.3479e-13,-1.2169e-06,-3.4623e-06,-26.014,0.0034381
17071,0.73563,3,0,0.00059897,5985.5,0.00029365,-16.595,7.9431e-06,-2163.3,-0.00060643,-6779.4,0.0034828
17072,0.64368,3.0909,0,0.0006109,6104.8,0.00030238,24.945,6.159e-06,-2200.8,-0.00061667,-6880.5,0.0026758
17073,0.73563,3.0909,0.05,4.5023e-06,44.992,3.4572e-06,25.976,9.8806e-13,-6.1224e-05,-3.4572e-06,-25.976,0.0034434
17074,0.73563,2.8182,0,0.0005985,5980.9,0.00029335,-16.583,8.1147e-06,-2159.7,-0.00060597,-6773.7,0.0034801
17075,0.64368,2.9091,0,0.0006109,6104.8,0.00030238,24.945,6.159e-06,-2200.8,-0.00061667,-6880.5,0.0026758
17076,0.73563,2.9091,0.05,4.5023e-06,44.992,3.4572e-06,25.976,9.2999e-13,-6.0818e-05,-3.4572e-06,-25.976,0.0034434
17077,0.73563,2.6364,0,0.00059709,5966.8,0.00029242,-16.546,8.6438e-06,-2148.7,-0.00060461,-6756.5,0.0034721
17078,0.64368,2.7273,0,0.00060991,6094.9,0.00030177,24.916,6.4292e-06,-2194.2,-0.0006157,-6868.7,0.0026718
17079,0.73563,2.7273,0.05,4.5089e-06,45.058,3.4623e-06,26.014,5.8349e-13,1.5372e-07,-3.4623e-06,-26.014,0.0034381
17080,0.73563,2.4545,0,0.00059473,5943.2,0.00029084,-16.483,9.5747e-06,-2129.8,-0.00060234,-6727.5,0.0034584
17081,0.64368,2.5455,0,0.00060792,6075,0.00030054,24.858,6.9926e-06,-2180.7,-0.00061376,-6844.8,0.0026635
17082,0.73563,2.5455,0.05,4.5216e-06,45.185,3.4721e-06,26.088,6.7512e-13,-3.7518e-08,-3.4721e-06,-26.088,0.0034275
17083,0.73563,2.2727,0,0.00059139,5909.8,0.00028858,-16.391,1.0988e-05,-2102.1,-0.00059913,-6686.3,0.0034385
17084,0.64368,2.3636,0,0.00060488,6044.6,0.00029863,24.769,7.8988e-06,-2159.7,-0.00061081,-6808.4,0.0026508
17085,0.73563,2.3636,0.05,4.54e-06,45.369,3.4862e-06,26.194,5.2192e-13,-1.7467e-06,-3.4862e-06,-26.194,0.0034109
17086,0.73563,2.0909,0,0.00058708,5866.7,0.00028555,-16.265,1.3013e-05,-2064,-0.000595,-6632.4,0.0034116
17087,0.64368,2.1818,0,0.00060076,6003.5,0.000296,24.643,9.2318e-06,-2130,-0.00060682,-6758.8,0.002633
17088,0.73563,2.1818,0.05,4.5631e-06,45.6,3.5039e-06,26.327,2.1562e-13,-2.8125e-06,-3.5039e-06,-26.327,0.003388
17089,0.73563,1.9091,0,0.00058178,5813.8,0.00028169,-16.1,1.5846e-05,-2013.5,-0.00058996,-6565.3,0.0033767
17090,0.64368,2,0,0.00059551,5951,0.00029256,24.474,1.1123e-05,-2090.1,-0.00060175,-6695,0.0026095
17091,0.73563,2,0.05,4.5903e-06,45.872,3.5248e-06,26.484,-7.4766e-22,1.1449e-06,-3.5248e-06,-26.484,0.0033576
17092,0.73563,1.7273,0,0.00057556,5751.6,0.00027687,-15.886,1.9778e-05,-1947.5,-0.00058408,-6484.7,0.0033321
17093,0.64368,1.8182,0,0.00058908,5886.7,0.0002882,24.254,1.3773e-05,-2037.7,-0.00059558,-6616.1,0.0025792
17094,0.73563,1.8182,0.05,4.6217e-06,46.185,3.5489e-06,26.665,-1.918e-13,-5.656e-15,-3.5489e-06,-26.665,0.0033185
17095,0.73563,1.5455,0,0.00056855,5681.5,0.00027096,-15.609,2.5241e-05,-1861.8,-0.00057751,-6390.6,0.003276
17096,0.64368,1.6364,0,0.00058147,5810.6,0.00028277,23.971,1.7487e-05,-1969.3,-0.00058831,-6521,0.0025407
17097,0.73563,1.6364,0.05,4.6599e-06,46.567,3.5782e-06,26.885,-5.2027e-13,-5.7028e-15,-3.5782e-06,-26.885,0.003269
17098,0.73563,1.3636,0,0.00056105,5606.7,0.00026381,-15.247,3.2867e-05,-1750.4,-0.00057056,-6284.4,0.0032053
17099,0.64368,1.4545,0,0.00057274,5723.4,0.00027609,23.606,2.2734e-05,-1880,-0.00058004,-6409.1,0.0024921
17100,0.73563,1.4545,0.05,4.7139e-06,47.106,3.6197e-06,27.197,-4.4231e-13,-5.7688e-15,-3.6197e-06,-27.197,0.0032067
17101,0.73563,1.1818,0,0.00055368,5533,0.00025525,-14.761,4.355e-05,-1605.4,-0.00056381,-6168.9,0.0031163
17102,0.64368,1.2727,0,0.00056314,5627.6,0.00026794,23.136,3.0224e-05,-1763,-0.00057105,-6280.7,0.0024305
17103,0.73563,1.2727,0.05,4.8054e-06,48.021,3.6899e-06,27.725,-4.4866e-13,-5.8809e-15,-3.6899e-06,-27.725,0.0031282
17104,0.73563,1,0,0.00054749,5471.1,0.00024516,-14.09,5.8474e-05,-1416.8,-0.00055816,-6050,0.0030036
17105,0.64368,1.0909,0,0.00055327,5528.9,0.00025807,22.528,4.1028e-05,-1608.2,-0.0005619,-6138.4,0.0023522
17106,0.73563,1.0909,0.05,4.9785e-06,49.751,3.8229e-06,28.724,-1.3789e-13,8.5056e-05,-3.8229e-06,-28.724,0.0030291
17107,0.73563,0.81818,0,0.00054413,5437.5,0.00023355,-13.086,7.8972e-05,-1174.5,-0.00055494,-5937.5,0.0028598
17108,0.64368,0.90909,0,0.00054432,5439.4,0.00024624,21.729,5.667e-05,-1402.6,-0.00055363,-5988.2,0.0022517
17109,0.73563,0.90909,0.05,5.3001e-06,52.965,4.0698e-06,30.579,-1.5974e-13,-6.4863e-15,-4.0698e-06,-30.579,0.0029029
17110,0.73563,0.63636,0,0.00054572,5453.5,0.00022069,-11.596,0.00010599,-873.4,-0.00055564,-5844.7,0.0026747
17111,0.64368,0.72727,0,0.0005384,5380.3,0.00023235,20.733,7.9047e-05,-1131.2,-0.00054795,-5842.2,0.0021213
17112,0.73563,0.72727,0.05,5.8218e-06,58.178,4.4704e-06,33.589,1.4426e-11,-7.1247e-15,-4.4704e-06,-33.589,0.002741
17113,0.73563,0.45455,0,0.00055422,5538.4,0.0002075,-8.4441,0.00013903,-522.91,-0.00056147,-5786.1,0.0024344
17114,0.64368,0.54545,0,0.00053859,5382.2,0.00021671,19.311,0.00010974,-784.38,-0.00054708,-5719.5,0.0019496
17115,0.73563,0.54545,0.05,6.4645e-06,64.6,4.9639e-06,37.297,-2.6251e-14,5.6719e-05,-4.9639e-06,-37.297,0.0025312
17116,0.73563,0.27273,0,0.00057208,5716.8,0.000196,0.40822,0.00017652,-145.94,-0.00057441,-5788.2,0.0021219
17117,0.64368,0.36364,0,0.0005479,5475.2,0.00020052,17.395,0.0001482,-375.74,-0.00055294,-5643.8,0.0017215
17118,0.73563,0.36364,0.05,6.755e-06,67.504,5.187e-06,38.973,1.2055e-11,0.00010531,-5.187e-06,-38.973,0.0022574
17119,0.64368,0.18182,0,0.00057098,5705.9,0.00019617,87.108,0.00018326,-9.863,-0.00056961,-5666.6,0.0014177
17120,0.73563,0.18182,0.05,5.5748e-06,55.709,4.2807e-06,32.164,6.3792e-12,5.602e-05,-4.2807e-06,-32.164,0.0019003
17121,0.73563,0.090909,0,0.00057634,5759.4,0.00019634,72.906,0.00018645,-1.4242,-0.00057509,-5723.3,0.001718
17122,0.55172,5.7273,0,0.00054612,5457.4,0.00019134,33.794,0.0001643,-169.33,-0.00054814,-5522.3,0.0011269
17123,0.45977,5.8182,0,0.00053075,5303.9,0.00018519,96.093,0.00016688,-41.484,-0.00052969,-5275.2,0.0006513
17124,0.55172,5.8182,0.05,6.9772e-06,69.724,5.3576e-06,40.255,-2.1392e-11,-0.00024054,-5.3576e-06,-40.255,0.00096169
17125,0.55172,5.9091,0,0.00054773,5473.5,0.00018927,107.6,0.00017616,9.0469,-0.00054568,-5414.5,0.00083436
17126,0.55172,5.5455,0,0.00053165,5312.8,0.00020966,44.584,0.00011888,-637.49,-0.00053844,-5576.3,0.001341
17127,0.45977,5.6364,0,0.00050687,5065.2,0.00018919,-48.853,0.00012425,-536.74,-0.00051506,-5340.3,0.00084856
17128,0.55172,5.6364,0.05,9.3614e-06,93.549,7.1884e-06,54.011,-1.344e-11,-0.00018575,-7.1884e-06,-54.011,0.0012133
17129,0.55172,5.3636,0,0.00053082,5304.6,0.00022836,51.493,8.2577e-05,-1043.8,-0.00053915,-5715.2,0.0014971
17130,0.45977,5.4545,0,0.00050644,5060.9,0.0002107,-67.328,8.1201e-05,-1040.3,-0.00051821,-5544.1,0.00098683
17131,0.55172,5.4545,0.05,8.1458e-06,81.402,6.255e-06,46.997,-2.6118e-11,-0.00011527,-6.255e-06,-46.997,0.0013948
17132,0.55172,5.1818,0,0.0005384,5380.3,0.00024504,55.489,5.6538e-05,-1360.8,-0.00054643,-5891.3,0.0016125
17133,0.45977,5.2727,0,0.00051809,5177.4,0.00023007,-76.575,5.2729e-05,-1409,-0.00053034,-5789.9,0.0010852
17134,0.55172,5.2727,0.05,6.8862e-06,68.815,5.2878e-06,39.73,-2.2012e-11,-0.00024588,-5.2878e-06,-39.73,0.0015272
17135,0.55172,5,0,0.00055009,5497.1,0.00025914,58.321,3.9107e-05,-1594.9,-0.00055724,-6075.7,0.0016993
17136,0.45977,5.0909,0,0.00053406,5336.9,0.00024607,-82.409,3.4948e-05,-1668.7,-0.00054585,-6032.6,0.0011571
17137,0.55172,5.0909,0.05,6.1086e-06,61.044,4.6907e-06,35.244,-1.3145e-11,-0.00016622,-4.6907e-06,-35.244,0.0016255
17138,0.55172,4.8182,0,0.0005628,5624.1,0.00027076,60.413,2.7661e-05,-1766.1,-0.00056909,-6249.9,0.0017658
17139,0.45977,4.9091,0,0.00055029,5499.1,0.00025897,-86.448,2.3923e-05,-1852.5,-0.00056156,-6251.6,0.001211
17140,0.55172,4.9091,0.05,5.6771e-06,56.732,4.3593e-06,32.754,-6.7141e-12,-0.00014636,-4.3593e-06,-32.754,0.0017001
17141,0.55172,4.6364,0,0.00057491,5745.1,0.00028022,61.983,2.009e-05,-1892.6,-0.00058053,-6405.4,0.0018175
17142,0.45977,4.7273,0,0.00056509,5647,0.00026931,-89.381,1.6935e-05,-1985.6,-0.00057596,-6440.4,0.0012522
17143,0.55172,4.7273,0.05,5.4319e-06,54.282,4.171e-06,31.34,-7.1121e-12,-0.00013035,-4.1711e-06,-31.34,0.0017575
17144,0.55172,4.4545,0,0.00058573,5853.3,0.0002879,63.183,1.4994e-05,-1987.3,-0.00059086,-6539.5,0.001858
17145,0.45977,4.5455,0,0.00057792,5775.2,0.00027759,-91.586,1.2379e-05,-2084.3,-0.00058853,-6599.3,0.0012841
17146,0.55172,4.5455,0.05,5.2702e-06,52.666,4.0469e-06,30.407,-1.9574e-12,-6.9907e-05,-4.0469e-06,-30.407,0.0018023
17147,0.55172,4.2727,0,0.00059505,5946.4,0.0002941,64.109,1.1498e-05,-2059.3,-0.00059983,-6652.5,0.0018899
17148,0.45977,4.3636,0,0.00058874,5883.4,0.00028423,-93.274,9.3245e-06,-2158.8,-0.00059918,-6730.9,0.001309
17149,0.55172,4.3636,0.05,5.1471e-06,51.435,3.9523e-06,29.696,-1.2148e-12,-9.4357e-05,-3.9523e-06,-29.696,0.0018375
17150,0.55172,4.0909,0,0.00060286,6024.4,0.00029907,64.827,9.0617e-06,-2114.2,-0.00060738,-6745.9,0.001915
17151,0.45977,4.1818,0,0.0005977,5972.9,0.00028953,-94.577,7.2297e-06,-2215.7,-0.00060804,-6838.6,0.0013286
17152,0.55172,4.1818,0.05,5.0452e-06,50.417,3.8741e-06,29.108,-3.0157e-13,-4.1817e-05,-3.8741e-06,-29.109,0.0018652
17153,0.55172,3.9091,0,0.00060923,6088.1,0.00030301,65.381,7.3475e-06,-2156.1,-0.00061358,-6821.5,0.0019346
17154,0.45977,4,0,0.00060499,6045.7,0.00029374,-95.584,5.7696e-06,-2259.3,-0.00061526,-6925.4,0.001344
17155,0.55172,4,0.05,4.9589e-06,49.555,3.8078e-06,28.61,2.2326e-13,-7.1018e-05,-3.8078e-06,-28.611,0.0018869
17156,0.55172,3.7273,0,0.00061428,6138.5,0.00030606,65.801,6.143e-06,-2187.6,-0.0006185,-6881,0.0019496
17157,0.45977,3.8182,0,0.00061078,6103.6,0.00029702,-96.355,4.745e-06,-2292.4,-0.00062101,-6994.1,0.0013558
17158,0.55172,3.8182,0.05,4.8866e-06,48.833,3.7523e-06,28.194,5.5511e-13,-5.414e-06,-3.7523e-06,-28.194,0.0019037
17159,0.55172,3.5455,0,0.00061809,6176.6,0.00030832,66.109,5.3127e-06,-2210.6,-0.00062224,-6925.7,0.0019606
17160,0.45977,3.6364,0,0.00061523,6148.1,0.00029952,-96.931,4.0316e-06,-2317.1,-0.00062544,-7046.7,0.0013647
17161,0.55172,3.6364,0.05,4.8283e-06,48.25,3.7076e-06,27.857,5.0416e-13,-6.3522e-05,-3.7076e-06,-27.857,0.0019164
17162,0.55172,3.3636,0,0.00062076,6203.3,0.00030989,66.32,4.7706e-06,-2226.2,-0.00062485,-6956.9,0.0019682
17163,0.45977,3.4545,0,0.00061846,6180.4,0.00030131,-97.341,3.5507e-06,-2334.6,-0.00062866,-7084.8,0.0013711
17164,0.55172,3.4545,0.05,4.7843e-06,47.81,3.6737e-06,27.603,8.0943e-13,-3.3627e-05,-3.6737e-06,-27.603,0.0019254
17165,0.55172,3.1818,0,0.00062233,6219,0.00031081,66.443,4.4642e-06,-2235.3,-0.00062639,-6975.3,0.0019727
17166,0.45977,3.2727,0,0.00062057,6201.4,0.00030248,-97.604,3.2535e-06,-2345.9,-0.00063076,-7109.6,0.0013752
17167,0.55172,3.2727,0.05,4.7547e-06,47.514,3.651e-06,27.432,7.6904e-13,-1.0785e-06,-3.651e-06,-27.432,0.0019313
17168,0.55172,3,0,0.00062285,6224.2,0.00031111,66.483,4.3651e-06,-2238.3,-0.0006269,-6981.4,0.0019741
17169,0.45977,3.0909,0,0.00062161,6211.8,0.00030305,-97.733,3.1114e-06,-2351.3,-0.00063179,-7121.8,0.0013772
17170,0.55172,3.0909,0.05,4.7399e-06,47.366,3.6396e-06,27.347,7.7645e-13,-1.5366e-07,-3.6397e-06,-27.347,0.0019342
17171,0.55172,2.8182,0,0.00062233,6219,0.00031081,66.443,4.4642e-06,-2235.3,-0.00062639,-6975.3,0.0019727
17172,0.45977,2.9091,0,0.00062161,6211.8,0.00030305,-97.733,3.1114e-06,-2351.3,-0.00063179,-7121.8,0.0013772
17173,0.55172,2.9091,0.05,4.7399e-06,47.366,3.6396e-06,27.347,6.315e-13,4.4141e-08,-3.6397e-06,-27.347,0.0019342
17174,0.55172,2.6364,0,0.00062076,6203.3,0.00030989,66.32,4.7706e-06,-2226.2,-0.00062485,-6956.9,0.0019682
17175,0.45977,2.7273,0,0.00062057,6201.4,0.00030248,-97.604,3.2535e-06,-2345.9,-0.00063076,-7109.6,0.0013752
17176,0.55172,2.7273,0.05,4.7547e-06,47.514,3.651e-06,27.432,5.7849e-13,-3.6835e-07,-3.651e-06,-27.432,0.0019313
17177,0.55172,2.4545,0,0.00061809,6176.6,0.00030832,66.109,5.3127e-06,-2210.6,-0.00062224,-6925.7,0.0019606
17178,0.45977,2.5455,0,0.00061846,6180.4,0.00030131,-97.341,3.5507e-06,-2334.6,-0.00062866,-7084.8,0.0013711
17179,0.55172,2.5455,0.05,4.7843e-06,47.81,3.6737e-06,27.603,2.9223e-13,2.1796e-07,-3.6737e-06,-27.603,0.0019254
17180,0.55172,2.2727,0,0.00061428,6138.5,0.00030606,65.801,6.143e-06,-2187.6,-0.0006185,-6881,0.0019496
17181,0.45977,2.3636,0,0.00061523,6148.1,0.00029952,-96.931,4.0316e-06,-2317.1,-0.00062544,-7046.7,0.0013647
17182,0.55172,2.3636,0.05,4.8283e-06,48.25,3.7076e-06,27.857,7.7701e-14,-2.9373e-05,-3.7076e-06,-27.857,0.0019164
17183,0.55172,2.0909,0,0.00060923,6088.1,0.00030301,65.381,7.3475e-06,-2156.1,-0.00061358,-6821.5,0.0019346
17184,0.45977,2.1818,0,0.00061078,6103.6,0.00029702,-96.355,4.745e-06,-2292.4,-0.00062101,-6994.1,0.0013558
17185,0.55172,2.1818,0.05,4.8866e-06,48.833,3.7523e-06,28.194,1.6227e-13,-2.9569e-06,-3.7523e-06,-28.194,0.0019037
17186,0.55172,1.9091,0,0.00060286,6024.4,0.00029907,64.827,9.0617e-06,-2114.2,-0.00060738,-6745.9,0.001915
17187,0.45977,2,0,0.00060499,6045.7,0.00029374,-95.584,5.7696e-06,-2259.3,-0.00061526,-6925.4,0.001344
17188,0.55172,2,0.05,4.9589e-06,49.555,3.8078e-06,28.61,-5.7607e-13,-1.0695e-05,-3.8078e-06,-28.611,0.0018869
17189,0.55172,1.7273,0,0.00059505,5946.4,0.0002941,64.109,1.1498e-05,-2059.3,-0.00059982,-6652.5,0.0018899
17190,0.45977,1.8182,0,0.0005977,5972.9,0.00028953,-94.577,7.2297e-06,-2215.7,-0.00060804,-6838.6,0.0013286
17191,0.55172,1.8182,0.05,5.0452e-06,50.417,3.8741e-06,29.109,-1.9929e-13,-1.2551e-06,-3.8741e-06,-29.109,0.0018652
17192,0.55172,1.5455,0,0.00058573,5853.3,0.0002879,63.183,1.4994e-05,-1987.3,-0.00059086,-6539.5,0.001858
17193,0.45977,1.6364,0,0.00058874,5883.4,0.00028423,-93.274,9.3245e-06,-2158.8,-0.00059918,-6730.9,0.001309
17194,0.55172,1.6364,0.05,5.1471e-06,51.435,3.9523e-06,29.696,-3.5504e-13,-6.299e-15,-3.9523e-06,-29.696,0.0018375
17195,0.55172,1.3636,0,0.00057491,5745.1,0.00028022,61.983,2.009e-05,-1892.6,-0.00058053,-6405.4,0.0018175
17196,0.45977,1.4545,0,0.00057792,5775.2,0.00027759,-91.586,1.2379e-05,-2084.3,-0.00058853,-6599.3,0.0012841
17197,0.55172,1.4545,0.05,5.2702e-06,52.666,4.0469e-06,30.407,-3.272e-13,-6.4497e-15,-4.0469e-06,-30.407,0.0018023
17198,0.55172,1.1818,0,0.0005628,5624.1,0.00027076,60.413,2.7661e-05,-1766.1,-0.00056909,-6249.9,0.0017658
17199,0.45977,1.2727,0,0.00056509,5647,0.00026931,-89.381,1.6935e-05,-1985.6,-0.00057596,-6440.4,0.0012522
17200,0.55172,1.2727,0.05,5.4319e-06,54.282,4.171e-06,31.34,-3.9977e-13,-6.6476e-15,-4.171e-06,-31.34,0.0017575
17201,0.55172,1,0,0.00055009,5497.1,0.00025914,58.321,3.9107e-05,-1594.9,-0.00055724,-6075.7,0.0016993
17202,0.45977,1.0909,0,0.00055029,5499.1,0.00025897,-86.448,2.3923e-05,-1852.5,-0.00056156,-6251.6,0.001211
17203,0.55172,1.0909,0.05,5.6771e-06,56.732,4.3593e-06,32.754,3.9704e-12,-6.9477e-15,-4.3593e-06,-32.754,0.0017001
17204,0.55172,0.81818,0,0.0005384,5380.3,0.00024504,55.489,5.6538e-05,-1360.8,-0.00054643,-5891.3,0.0016125
17205,0.45977,0.90909,0,0.00053406,5336.9,0.00024607,-82.409,3.4948e-05,-1668.7,-0.00054585,-6032.6,0.0011571
17206,0.55172,0.90909,0.05,6.1086e-06,61.044,4.6907e-06,35.244,4.5441e-13,0.00011063,-4.6907e-06,-35.244,0.0016255
17207,0.55172,0.63636,0,0.00053082,5304.6,0.00022836,51.493,8.2577e-05,-1043.8,-0.00053915,-5715.2,0.0014971
17208,0.45977,0.72727,0,0.00051809,5177.4,0.00023007,-76.575,5.2729e-05,-1409,-0.00053034,-5789.9,0.0010852
17209,0.55172,0.72727,0.05,6.8862e-06,68.815,5.2878e-06,39.73,7.3412e-12,0.00011891,-5.2878e-06,-39.73,0.0015272
17210,0.55172,0.45455,0,0.00053165,5312.8,0.00020966,44.584,0.00011888,-637.49,-0.00053844,-5576.3,0.001341
17211,0.45977,0.54545,0,0.00050644,5060.9,0.0002107,-67.328,8.1201e-05,-1040.3,-0.00051821,-5544.1,0.00098683
17212,0.55172,0.54545,0.05,8.1458e-06,81.402,6.255e-06,46.997,-8.607e-14,0.00011918,-6.255e-06,-46.997,0.0013948
17213,0.55172,0.27273,0,0.00054612,5457.4,0.00019134,33.794,0.0001643,-169.33,-0.00054814,-5522.3,0.0011269
17214,0.45977,0.36364,0,0.00050687,5065.2,0.00018919,-48.853,0.00012425,-536.74,-0.00051506,-5340.3,0.00084856
17215,0.55172,0.36364,0.05,9.3614e-06,93.549,7.1884e-06,54.011,1.1094e-11,3.7456e-05,-7.1884e-06,-54.011,0.0012133
17216,0.45977,0.18182,0,0.00053075,5303.9,0.00018519,96.093,0.00016688,-41.484,-0.00052969,-5275.2,0.0006513
17217,0.55172,0.18182,0.05,6.9772e-06,69.724,5.3576e-06,40.255,7.0853e-12,0.0001203,-5.3576e-06,-40.255,0.00096169
17218,0.55172,0.090909,0,0.00054773,5473.5,0.00018927,107.6,0.00017616,9.0469,-0.00054568,-5414.5,0.00083436
17219,0.36782,5.7273,0,0.00049001,4896.7,0.00016922,-90.438,0.00014045,-306.59,-0.00049641,-5091.7,0.000471
17220,0.27586,5.8182,0,0.00045445,4541.4,0.00016381,164.73,0.00014148,-3.0524,-0.00045147,-4458.2,0.00020679
17221,0.36782,5.8182,0.05,1.22e-05,121.92,9.3684e-06,70.391,-1.2836e-11,-0.00022157,-9.3684e-06,-70.391,0.00036523
17222,0.36782,5.9091,0,0.0004933,4929.6,0.00017497,132.5,0.00015419,-23.635,-0.00049126,-4873.3,0.00029502
17223,0.36782,5.5455,0,0.00048033,4800,0.0001901,-161.75,8.6194e-05,-942.43,-0.00049433,-5304.2,0.0005888
17224,0.27586,5.6364,0,0.00046492,4646,0.00020737,235.82,7.7056e-05,-743.3,-0.00046574,-4821.7,0.00030088
17225,0.36782,5.6364,0.05,1.3547e-05,135.37,1.0402e-05,78.158,-1.9113e-11,-0.00018644,-1.0402e-05,-78.158,0.00050941
17226,0.36782,5.3636,0,0.00049303,4926.9,0.00021238,-195.61,5.0962e-05,-1408.4,-0.00050898,-5615.6,0.00066842
17227,0.27586,5.4545,0,0.00050105,5007.1,0.00024452,279.69,4.1643e-05,-1244.6,-0.00049974,-5312.4,0.00036008
17228,0.36782,5.4545,0.05,1.0313e-05,103.06,7.9192e-06,59.502,-1.8388e-11,-0.00024577,-7.9192e-06,-59.502,0.00060358
17229,0.36782,5.1818,0,0.00051354,5131.9,0.00023109,-214.55,3.1009e-05,-1717.9,-0.00052962,-5930.2,0.00072427
17230,0.27586,5.2727,0,0.00053728,5369.1,0.00027209,310.94,2.3738e-05,-1555.1,-0.00053353,-5742.1,0.00039927
17231,0.36782,5.2727,0.05,8.4859e-06,84.8,6.5161e-06,48.96,-2.0592e-11,-0.00022799,-6.5161e-06,-48.96,0.00066764
17232,0.36782,5,0,0.00053426,5338.9,0.0002459,-227.2,1.9794e-05,-1926.1,-0.0005502,-6208.8,0.00076493
17233,0.27586,5.0909,0,0.00056802,5676.2,0.00029232,330.95,1.4577e-05,-1755.9,-0.0005627,-6093.3,0.00042674
17234,0.36782,5.0909,0.05,7.5468e-06,75.415,5.795e-06,43.541,-1.0307e-11,-0.00018341,-5.795e-06,-43.541,0.00071318
17235,0.36782,4.8182,0,0.00055264,5522.6,0.00025752,-236.25,1.328e-05,-2071.4,-0.00056852,-6442.8,0.00079538
17236,0.27586,4.9091,0,0.0005929,5924.9,0.00030756,345.54,9.5221e-06,-1893.8,-0.00058658,-6372.7,0.0004468
17237,0.36782,4.9091,0.05,7.0465e-06,70.417,5.4109e-06,40.655,-7.598e-12,-0.00011418,-5.4109e-06,-40.655,0.00074671
17238,0.36782,4.6364,0,0.00056816,5677.7,0.00026667,-242.95,9.3067e-06,-2176.7,-0.00058405,-6634.9,0.00081866
17239,0.27586,4.7273,0,0.00061279,6123.7,0.00031923,356.27,6.5499e-06,-1993.1,-0.00060582,-6594.2,0.00046187
17240,0.36782,4.7273,0.05,6.7084e-06,67.038,5.1512e-06,38.704,-6.3908e-12,-6.833e-05,-5.1512e-06,-38.704,0.00077206
17241,0.36782,4.4545,0,0.00058098,5805.8,0.00027391,-248.04,6.7753e-06,-2255.2,-0.00059692,-6791.1,0.0008367
17242,0.27586,4.5455,0,0.00062866,6282.2,0.00032829,364.43,4.7003e-06,-2066.9,-0.00062125,-6770.1,0.00047342
17243,0.36782,4.5455,0.05,6.4463e-06,64.419,4.95e-06,37.192,-2.692e-12,-0.00011935,-4.95e-06,-37.192,0.00079156
17244,0.36782,4.2727,0,0.00059144,5910.3,0.00027966,-251.96,5.1033e-06,-2314.8,-0.00060744,-6917.3,0.00085079
17245,0.27586,4.3636,0,0.00064131,6408.7,0.00033539,370.71,3.4982e-06,-2123,-0.00063361,-6910,0.00048237
17246,0.36782,4.3636,0.05,6.2304e-06,62.261,4.7841e-06,35.946,-3.0828e-12,-5.5755e-05,-4.7842e-06,-35.946,0.00080673
17247,0.36782,4.0909,0,0.00059987,5994.6,0.0002842,-254.99,3.9686e-06,-2360.5,-0.00061594,-7018.3,0.00086181
17248,0.27586,4.1818,0,0.00065137,6509.3,0.00034097,375.59,2.6905e-06,-2166.1,-0.00064346,-7021,0.00048936
17249,0.36782,4.1818,0.05,6.0498e-06,60.456,4.6455e-06,34.905,-1.305e-12,-1.346e-05,-4.6455e-06,-34.905,0.00081858
17250,0.36782,3.9091,0,0.00060657,6061.5,0.00028776,-257.32,3.1855e-06,-2395.5,-0.0006227,-7098.1,0.00087037
17251,0.27586,4,0,0.00065933,6588.7,0.00034534,379.36,2.1354e-06,-2199.3,-0.00065126,-7108.7,0.00049479
17252,0.36782,4,0.05,5.8999e-06,58.958,4.5304e-06,34.04,-1.8786e-13,-6.3133e-06,-4.5304e-06,-34.04,0.00082782
17253,0.36782,3.7273,0,0.00061176,6113.4,0.00029049,-259.09,2.6427e-06,-2421.8,-0.00062795,-7159.9,0.00087689
17254,0.27586,3.8182,0,0.00066551,6650.6,0.00034872,382.26,1.7496e-06,-2224.7,-0.00065734,-7176.8,0.00049898
17255,0.36782,3.8182,0.05,5.778e-06,57.74,4.4368e-06,33.336,1.7067e-13,-4.1257e-06,-4.4368e-06,-33.336,0.00083494
17256,0.36782,3.5455,0,0.00061563,6152.1,0.00029251,-260.38,2.2722e-06,-2441.1,-0.00063186,-7205.7,0.0008817
17257,0.27586,3.6364,0,0.0006702,6697.4,0.00035126,384.43,1.4828e-06,-2243.7,-0.00066194,-7228.4,0.00050212
17258,0.36782,3.6364,0.05,5.6824e-06,56.785,4.3634e-06,32.785,2.9317e-13,-3.3062e-05,-4.3634e-06,-32.785,0.00084029
17259,0.36782,3.3636,0,0.0006183,6178.8,0.0002939,-261.26,2.0319e-06,-2454.3,-0.00063457,-7237.4,0.00088499
17260,0.27586,3.4545,0,0.00067356,6731,0.00035309,385.98,1.3038e-06,-2257.2,-0.00066525,-7265.4,0.00050436
17261,0.36782,3.4545,0.05,5.6118e-06,56.079,4.3092e-06,32.377,5.0511e-13,-6.1466e-05,-4.3092e-06,-32.377,0.00084412
17262,0.36782,3.1818,0,0.00061988,6194.5,0.00029472,-261.78,1.8967e-06,-2461.9,-0.00063616,-7256,0.00088692
17263,0.27586,3.2727,0,0.00067574,6752.7,0.00035426,386.97,1.1934e-06,-2265.9,-0.00066739,-7289.4,0.00050581
17264,0.36782,3.2727,0.05,5.5652e-06,55.614,4.2734e-06,32.109,5.5299e-13,-3.0733e-05,-4.2734e-06,-32.109,0.00084658
17265,0.36782,3,0,0.00062039,6199.7,0.00029499,-261.95,1.853e-06,-2464.4,-0.00063668,-7262.1,0.00088755
17266,0.27586,3.0909,0,0.00067681,6763.4,0.00035484,387.46,1.1408e-06,-2270.1,-0.00066844,-7301.1,0.00050651
17267,0.36782,3.0909,0.05,5.5421e-06,55.383,4.2556e-06,31.975,5.0308e-13,-3.0508e-05,-4.2557e-06,-31.975,0.00084779
17268,0.36782,2.8182,0,0.00061988,6194.5,0.00029472,-261.78,1.8967e-06,-2461.9,-0.00063616,-7256,0.00088692
17269,0.27586,2.9091,0,0.00067681,6763.4,0.00035484,387.46,1.1408e-06,-2270.1,-0.00066844,-7301.1,0.00050651
17270,0.36782,2.9091,0.05,5.5421e-06,55.383,4.2557e-06,31.975,4.1912e-13,-3.0525e-05,-4.2557e-06,-31.975,0.00084779
17271,0.36782,2.6364,0,0.0006183,6178.8,0.0002939,-261.26,2.0319e-06,-2454.3,-0.00063457,-7237.4,0.00088499
17272,0.27586,2.7273,0,0.00067574,6752.7,0.00035426,386.97,1.1934e-06,-2265.9,-0.00066739,-7289.4,0.00050581
17273,0.36782,2.7273,0.05,5.5652e-06,55.614,4.2734e-06,32.109,3.2488e-13,-3.0532e-05,-4.2734e-06,-32.109,0.00084658
17274,0.36782,2.4545,0,0.00061563,6152.1,0.00029251,-260.38,2.2722e-06,-2441.1,-0.00063186,-7205.7,0.0008817
17275,0.27586,2.5455,0,0.00067356,6731,0.00035309,385.98,1.3038e-06,-2257.2,-0.00066525,-7265.4,0.00050436
17276,0.36782,2.5455,0.05,5.6118e-06,56.079,4.3092e-06,32.377,1.8076e-13,-3.1114e-05,-4.3092e-06,-32.377,0.00084412
17277,0.36782,2.2727,0,0.00061176,6113.4,0.00029049,-259.09,2.6427e-06,-2421.8,-0.00062795,-7159.9,0.00087689
17278,0.27586,2.3636,0,0.0006702,6697.4,0.00035126,384.43,1.4828e-06,-2243.7,-0.00066194,-7228.4,0.00050212
17279,0.36782,2.3636,0.05,5.6824e-06,56.785,4.3634e-06,32.785,-3.2433e-15,-3.0615e-05,-4.3634e-06,-32.785,0.00084029
17280,0.36782,2.0909,0,0.00060657,6061.5,0.00028776,-257.32,3.1855e-06,-2395.5,-0.0006227,-7098.1,0.00087037
17281,0.27586,2.1818,0,0.00066551,6650.6,0.00034872,382.26,1.7496e-06,-2224.7,-0.00065734,-7176.8,0.00049898
17282,0.36782,2.1818,0.05,5.778e-06,57.74,4.4368e-06,33.336,-2.5355e-13,-2.9597e-05,-4.4368e-06,-33.336,0.00083494
17283,0.36782,1.9091,0,0.00059987,5994.6,0.0002842,-254.99,3.9686e-06,-2360.5,-0.00061594,-7018.3,0.00086181
17284,0.27586,2,0,0.00065933,6588.7,0.00034534,379.36,2.1354e-06,-2199.3,-0.00065126,-7108.7,0.00049479
17285,0.36782,2,0.05,5.8999e-06,58.958,4.5304e-06,34.04,-1.4769e-13,-1.2389e-06,-4.5304e-06,-34.04,0.00082782
17286,0.36782,1.7273,0,0.00059144,5910.3,0.00027966,-251.96,5.1033e-06,-2314.8,-0.00060744,-6917.3,0.00085079
17287,0.27586,1.8182,0,0.00065137,6509.3,0.00034097,375.59,2.6905e-06,-2166.1,-0.00064346,-7021,0.00048936
17288,0.36782,1.8182,0.05,6.0498e-06,60.456,4.6455e-06,34.905,-1.212e-13,-1.0167e-06,-4.6455e-06,-34.905,0.00081858
17289,0.36782,1.5455,0,0.00058098,5805.8,0.00027391,-248.04,6.7753e-06,-2255.2,-0.00059692,-6791.1,0.0008367
17290,0.27586,1.6364,0,0.00064131,6408.7,0.00033539,370.71,3.4982e-06,-2123,-0.00063361,-6910,0.00048237
17291,0.36782,1.6364,0.05,6.2304e-06,62.261,4.7842e-06,35.946,-4.9323e-13,-2.4537e-06,-4.7842e-06,-35.946,0.00080673
17292,0.36782,1.3636,0,0.00056816,5677.7,0.00026667,-242.95,9.3066e-06,-2176.7,-0.00058405,-6634.9,0.00081866
17293,0.27586,1.4545,0,0.00062866,6282.2,0.00032829,364.43,4.7003e-06,-2066.9,-0.00062125,-6770.1,0.00047342
17294,0.36782,1.4545,0.05,6.4463e-06,64.419,4.95e-06,37.192,-7.5419e-13,1.0774e-05,-4.95e-06,-37.192,0.00079156
17295,0.36782,1.1818,0,0.00055264,5522.6,0.00025752,-236.25,1.328e-05,-2071.4,-0.00056852,-6442.8,0.00079538
17296,0.27586,1.2727,0,0.00061279,6123.7,0.00031923,356.27,6.5499e-06,-1993.1,-0.00060582,-6594.2,0.00046187
17297,0.36782,1.2727,0.05,6.7084e-06,67.038,5.1512e-06,38.704,-3.3389e-13,-8.2097e-15,-5.1512e-06,-38.704,0.00077206
17298,0.36782,1,0,0.00053426,5338.9,0.0002459,-227.2,1.9794e-05,-1926.1,-0.0005502,-6208.8,0.00076493
17299,0.27586,1.0909,0,0.0005929,5924.9,0.00030756,345.54,9.5221e-06,-1893.8,-0.00058658,-6372.7,0.0004468
17300,0.36782,1.0909,0.05,7.0465e-06,70.417,5.4109e-06,40.655,-3.4035e-13,-8.6236e-15,-5.4109e-06,-40.655,0.00074671
17301,0.36782,0.81818,0,0.00051354,5131.9,0.00023109,-214.55,3.1009e-05,-1717.9,-0.00052962,-5930.2,0.00072427
17302,0.27586,0.90909,0,0.00056802,5676.2,0.00029232,330.95,1.4577e-05,-1755.9,-0.0005627,-6093.3,0.00042674
17303,0.36782,0.90909,0.05,7.5468e-06,75.415,5.795e-06,43.541,-2.731e-13,4.2708e-05,-5.795e-06,-43.541,0.00071318
17304,0.36782,0.63636,0,0.00049303,4926.9,0.00021238,-195.61,5.0962e-05,-1408.4,-0.00050898,-5615.6,0.00066842
17305,0.27586,0.72727,0,0.00053728,5369.1,0.00027209,310.94,2.3738e-05,-1555.1,-0.00053353,-5742.1,0.00039927
17306,0.36782,0.72727,0.05,8.4859e-06,84.8,6.5161e-06,48.96,6.6806e-12,-1.0385e-14,-6.5161e-06,-48.96,0.00066764
17307,0.36782,0.45455,0,0.00048033,4800,0.0001901,-161.75,8.6194e-05,-942.43,-0.00049433,-5304.2,0.0005888
17308,0.27586,0.54545,0,0.00050105,5007.1,0.00024452,279.69,4.1643e-05,-1244.6,-0.00049974,-5312.4,0.00036008
17309,0.36782,0.54545,0.05,1.0313e-05,103.06,7.9192e-06,59.502,3.6334e-12,6.098e-05,-7.9192e-06,-59.502,0.00060358
17310,0.36782,0.27273,0,0.00049001,4896.7,0.00016922,-90.438,0.00014045,-306.59,-0.00049641,-5091.7,0.000471
17311,0.27586,0.36364,0,0.00046492,4646,0.00020737,235.82,7.7056e-05,-743.3,-0.00046574,-4821.7,0.00030088
17312,0.36782,0.36364,0.05,1.3547e-05,135.37,1.0402e-05,78.158,9.2571e-12,9.2659e-07,-1.0402e-05,-78.158,0.00050941
17313,0.27586,0.18182,0,0.00045445,4541.4,0.00016381,164.73,0.00014148,-3.0524,-0.00045147,-4458.2,0.00020679
17314,0.36782,0.18182,0.05,1.22e-05,121.92,9.3684e-06,70.391,1.0667e-11,4.6097e-05,-9.3684e-06,-70.391,0.00036523
17315,0.36782,0.090909,0,0.0004933,4929.6,0.00017497,132.5,0.00015419,-23.635,-0.00049126,-4873.3,0.00029503
17316,0.18391,5.7273,0,0.00042598,4256.9,0.00019627,448.26,8.1762e-05,-412.15,-0.00041879,-4173.1,0.00011715
17317,0.18391,5.8182,0.05,2.9465e-05,294.45,2.2626e-05,170,-1.3968e-11,-0.0002463,-2.2626e-05,-170,6.8979e-05
17318,0.18391,5.9091,0,0.00038488,3846.2,0.00014123,223.26,0.00012328,88.457,-0.0003794,-3688.5,5.2634e-05
17319,0.091954,5.8182,0,0.0002712,2710.2,8.4257e-05,-400.01,6.1408e-05,-571.69,-0.00028733,-3191.9,2.6319e-05
17320,0.18391,5.5455,0,0.0004882,4878.7,0.0002617,676.54,3.2564e-05,-1045.1,-0.00047112,-4829.5,0.00015554
17321,0.18391,5.6364,0.05,1.8778e-05,187.65,1.4419e-05,108.34,-1.2897e-11,-0.00023134,-1.4419e-05,-108.34,0.00011579
17322,0.091954,5.6364,0,0.00034117,3409.4,0.00011863,-831.48,2.1091e-05,-1564.4,-0.00037597,-4547.7,4.3527e-05
17323,0.18391,5.3636,0,0.00054833,5479.6,0.00030422,786.19,1.5383e-05,-1384,-0.00052524,-5446.1,0.00017883
17324,0.18391,5.4545,0.05,1.2748e-05,127.39,9.789e-06,73.55,-2.8733e-11,-0.00024656,-9.789e-06,-73.55,0.00014109
17325,0.091954,5.4545,0,0.0003993,3990.3,0.00014367,-1028.8,8.9961e-06,-2040.7,-0.00044177,-5427.6,5.2992e-05
17326,0.18391,5.1818,0,0.00059408,5936.7,0.00033332,856.47,8.1942e-06,-1586.4,-0.0005675,-5912,0.00019427
17327,0.18391,5.2727,0.05,9.7606e-06,97.539,7.495e-06,56.314,-1.2894e-11,-0.00020662,-7.495e-06,-56.314,0.00015675
17328,0.091954,5.2727,0,0.00044094,4406.3,0.00016076,-1145.3,4.5337e-06,-2319.2,-0.00048798,-6019.7,5.8927e-05
17329,0.18391,5,0,0.00062837,6279.4,0.00035399,903.73,4.922e-06,-1719,-0.0005997,-6261.9,0.00020517
17330,0.18391,5.0909,0.05,8.2097e-06,82.04,6.304e-06,47.366,-1.3688e-11,-0.0001376,-6.304e-06,-47.366,0.00016742
17331,0.091954,5.0909,0,0.00047087,4705.4,0.00017266,-1224,2.6531e-06,-2501.4,-0.00052105,-6436.2,6.2933e-05
17332,0.18391,4.8182,0,0.00065437,6539.2,0.00036927,938.08,3.1898e-06,-1812.5,-0.00062429,-6527.1,0.00021318
17333,0.18391,4.9091,0.05,7.1507e-06,71.458,5.4909e-06,41.256,-4.3665e-12,-0.00011226,-5.4909e-06,-41.256,0.00017508
17334,0.091954,4.9091,0,0.00049302,4926.8,0.00018138,-1279.9,1.6831e-06,-2630.1,-0.00054545,-6741,6.5803e-05
17335,0.18391,4.6364,0,0.00067436,6739,0.00038085,963.67,2.195e-06,-1881.4,-0.00064328,-6731.2,0.00021923
17336,0.18391,4.7273,0.05,6.3786e-06,63.742,4.898e-06,36.801,-3.1643e-12,-7.9445e-05,-4.898e-06,-36.802,0.00018079
17337,0.091954,4.7273,0,0.00050977,5094.2,0.00018793,-1321.4,1.1434e-06,-2724.8,-0.00056388,-6970.2,6.7934e-05
17338,0.18391,4.4545,0,0.00068991,6894.4,0.00038977,983.2,1.581e-06,-1933.5,-0.00065811,-6890.1,0.00022388
17339,0.18391,4.5455,0.05,5.7893e-06,57.853,4.4455e-06,33.402,-2.0976e-12,-6.9442e-05,-4.4455e-06,-33.402,0.00018514
17340,0.091954,4.5455,0,0.00052267,5223.1,0.00019294,-1352.9,8.1484e-07,-2796.5,-0.00057806,-7145.9,6.9553e-05
17341,0.18391,4.2727,0,0.00070208,7016,0.00039671,998.27,1.1836e-06,-1973.5,-0.00066973,-7014.5,0.00022749
17342,0.18391,4.3636,0.05,5.3297e-06,53.26,4.0926e-06,30.75,-1.1973e-12,-6.1541e-05,-4.0926e-06,-30.75,0.00018849
17343,0.091954,4.3636,0,0.0005327,5323.3,0.00019684,-1377.1,6.0456e-07,-2851.6,-0.00058909,-7282.3,7.0802e-05
17344,0.18391,4.0909,0,0.00071161,7111.2,0.00040211,1010,9.1731e-07,-2004.5,-0.00067884,-7111.9,0.0002303
17345,0.18391,4.1818,0.05,4.9678e-06,49.644,3.8147e-06,28.662,-1.4114e-12,-5.5394e-05,-3.8147e-06,-28.662,0.0001911
17346,0.091954,4.1818,0,0.00054054,5401.7,0.00019988,-1395.9,4.6441e-07,-2894.3,-0.0005977,-7388.6,7.1772e-05
17347,0.18391,3.9091,0,0.00071901,7185.2,0.0004063,1019,7.3496e-07,-2028.3,-0.00068593,-7187.7,0.00023247
17348,0.18391,4,0.05,4.6831e-06,46.799,3.5961e-06,27.019,2.1011e-13,-3.2373e-05,-3.5961e-06,-27.02,0.00019313
17349,0.091954,4,0,0.00054665,5462.7,0.00020224,-1410.5,3.6857e-07,-2927.3,-0.0006044,-7471.4,7.2523e-05
17350,0.18391,3.7273,0,0.00072467,7241.7,0.0004095,1025.8,6.0923e-07,-2046.4,-0.00069135,-7245.5,0.00023413
17351,0.18391,3.8182,0.05,4.4618e-06,44.587,3.4261e-06,25.742,1.6449e-14,-1.5766e-05,-3.4261e-06,-25.742,0.00019468
17352,0.091954,3.8182,0,0.00055136,5509.8,0.00020407,-1421.7,3.0215e-07,-2952.7,-0.00060957,-7535,7.31e-05
17353,0.18391,3.5455,0,0.00072883,7283.3,0.00041184,1030.8,5.2368e-07,-2059.7,-0.00069534,-7288.1,0.00023534
17354,0.18391,3.6364,0.05,4.2941e-06,42.911,3.2973e-06,24.775,-3.9161e-14,-1.7922e-06,-3.2973e-06,-24.775,0.00019584
17355,0.091954,3.6364,0,0.00055489,5545.1,0.00020543,-1430.1,2.5629e-07,-2971.7,-0.00061345,-7582.9,7.3533e-05
17356,0.18391,3.3636,0,0.00073169,7311.8,0.00041345,1034.2,4.6832e-07,-2068.8,-0.00069808,-7317.4,0.00023617
17357,0.18391,3.4545,0.05,4.1734e-06,41.705,3.2046e-06,24.078,2.5158e-13,-1.6563e-05,-3.2046e-06,-24.078,0.00019668
17358,0.091954,3.4545,0,0.00055742,5570.3,0.00020641,-1436.1,2.2555e-07,-2985.3,-0.00061622,-7617,7.3841e-05
17359,0.18391,3.1818,0,0.00073336,7328.5,0.00041439,1036.2,4.372e-07,-2074,-0.00069968,-7334.5,0.00023665
17360,0.18391,3.2727,0.05,4.0952e-06,40.924,3.1446e-06,23.627,2.566e-13,-1.53e-05,-3.1446e-06,-23.627,0.00019721
17361,0.091954,3.2727,0,0.00055905,5586.6,0.00020704,-1439.9,2.0661e-07,-2994,-0.00061801,-7639,7.4039e-05
17362,0.18391,3,0,0.00073391,7334,0.0004147,1036.9,4.2715e-07,-2075.8,-0.00070021,-7340.1,0.00023681
17363,0.18391,3.0909,0.05,4.0568e-06,40.54,3.1151e-06,23.406,2.6177e-13,-4.5683e-05,-3.1151e-06,-23.406,0.00019747
17364,0.091954,3.0909,0,0.00055985,5594.6,0.00020735,-1441.8,1.9758e-07,-2998.2,-0.00061889,-7649.8,7.4136e-05
17365,0.18391,2.8182,0,0.00073336,7328.5,0.00041439,1036.2,4.372e-07,-2074,-0.00069968,-7334.5,0.00023665
17366,0.18391,2.9091,0.05,4.0568e-06,40.54,3.1151e-06,23.406,1.9114e-13,-4.592e-05,-3.1151e-06,-23.406,0.00019747
17367,0.091954,2.9091,0,0.00055985,5594.6,0.00020735,-1441.8,1.9758e-07,-2998.2,-0.00061889,-7649.8,7.4136e-05
17368,0.18391,2.6364,0,0.00073169,7311.8,0.00041345,1034.2,4.6832e-07,-2068.8,-0.00069808,-7317.4,0.00023617
17369,0.18391,2.7273,0.05,4.0952e-06,40.924,3.1446e-06,23.627,7.4735e-14,-7.8015e-07,-3.1446e-06,-23.627,0.00019721
17370,0.091954,2.7273,0,0.00055905,5586.6,0.00020704,-1439.9,2.0661e-07,-2994,-0.00061801,-7639,7.4039e-05
17371,0.18391,2.4545,0,0.00072883,7283.3,0.00041184,1030.8,5.2368e-07,-2059.7,-0.00069534,-7288.1,0.00023534
17372,0.18391,2.5455,0.05,4.1734e-06,41.705,3.2046e-06,24.078,5.7794e-15,-1.676e-05,-3.2046e-06,-24.078,0.00019668
17373,0.091954,2.5455,0,0.00055742,5570.3,0.00020641,-1436.1,2.2555e-07,-2985.3,-0.00061622,-7617,7.3841e-05
17374,0.18391,2.2727,0,0.00072467,7241.7,0.0004095,1025.8,6.0923e-07,-2046.4,-0.00069135,-7245.5,0.00023413
17375,0.18391,2.3636,0.05,4.2941e-06,42.911,3.2973e-06,24.775,-1.1027e-13,-1.4752e-06,-3.2973e-06,-24.775,0.00019584
17376,0.091954,2.3636,0,0.00055489,5545.1,0.00020543,-1430.1,2.5629e-07,-2971.7,-0.00061345,-7582.9,7.3533e-05
17377,0.18391,2.0909,0,0.00071901,7185.2,0.0004063,1019,7.3496e-07,-2028.3,-0.00068593,-7187.7,0.00023247
17378,0.18391,2.1818,0.05,4.4618e-06,44.587,3.4261e-06,25.742,-2.1905e-13,-2.1032e-06,-3.4261e-06,-25.742,0.00019468
17379,0.091954,2.1818,0,0.00055136,5509.8,0.00020407,-1421.7,3.0215e-07,-2952.7,-0.00060957,-7535,7.31e-05
17380,0.18391,1.9091,0,0.00071161,7111.2,0.00040211,1010,9.1731e-07,-2004.5,-0.00067884,-7111.9,0.0002303
17381,0.18391,2,0.05,4.6831e-06,46.799,3.5961e-06,27.02,-3.3751e-13,-2.5953e-06,-3.5961e-06,-27.02,0.00019313
17382,0.091954,2,0,0.00054665,5462.7,0.00020224,-1410.5,3.6857e-07,-2927.3,-0.0006044,-7471.4,7.2523e-05
17383,0.18391,1.7273,0,0.00070208,7016,0.00039671,998.27,1.1836e-06,-1973.5,-0.00066973,-7014.5,0.00022749
17384,0.18391,1.8182,0.05,4.9678e-06,49.644,3.8147e-06,28.662,-4.7032e-13,-2.5363e-06,-3.8147e-06,-28.662,0.0001911
17385,0.091954,1.8182,0,0.00054054,5401.7,0.00019988,-1395.9,4.6441e-07,-2894.3,-0.0005977,-7388.6,7.1772e-05
17386,0.18391,1.5455,0,0.00068991,6894.4,0.00038977,983.2,1.581e-06,-1933.5,-0.00065811,-6890.1,0.00022388
17387,0.18391,1.6364,0.05,5.3297e-06,53.26,4.0926e-06,30.75,-5.5589e-13,-2.6291e-06,-4.0926e-06,-30.75,0.00018849
17388,0.091954,1.6364,0,0.0005327,5323.3,0.00019684,-1377.1,6.0456e-07,-2851.6,-0.00058909,-7282.3,7.0802e-05
17389,0.18391,1.3636,0,0.00067436,6739,0.00038085,963.67,2.195e-06,-1881.4,-0.00064328,-6731.2,0.00021923
17390,0.18391,1.4545,0.05,5.7893e-06,57.853,4.4455e-06,33.402,-6.7515e-13,-3.0052e-06,-4.4455e-06,-33.402,0.00018514
17391,0.091954,1.4545,0,0.00052267,5223.1,0.00019294,-1352.9,8.1484e-07,-2796.5,-0.00057806,-7145.9,6.9553e-05
17392,0.18391,1.1818,0,0.00065437,6539.2,0.00036927,938.08,3.1898e-06,-1812.5,-0.00062429,-6527.1,0.00021318
17393,0.18391,1.2727,0.05,6.3786e-06,63.742,4.898e-06,36.801,-5.6846e-13,-3.3663e-06,-4.898e-06,-36.801,0.00018079
17394,0.091954,1.2727,0,0.00050977,5094.2,0.00018793,-1321.4,1.1434e-06,-2724.8,-0.00056388,-6970.2,6.7934e-05
17395,0.18391,1,0,0.00062837,6279.4,0.00035399,903.73,4.922e-06,-1719,-0.0005997,-6261.9,0.00020517
17396,0.18391,1.0909,0.05,7.1507e-06,71.458,5.4909e-06,41.256,2.2294e-12,7.8723e-06,-5.4909e-06,-41.256,0.00017508
17397,0.091954,1.0909,0,0.00049302,4926.8,0.00018138,-1279.9,1.6831e-06,-2630.1,-0.00054545,-6741,6.5803e-05
17398,0.18391,0.81818,0,0.00059408,5936.7,0.00033332,856.47,8.1941e-06,-1586.4,-0.0005675,-5912,0.00019427
17399,0.18391,0.90909,0.05,8.2097e-06,82.04,6.304e-06,47.366,3.4542e-12,7.5991e-06,-6.304e-06,-47.366,0.00016742
17400,0.091954,0.90909,0,0.00047087,4705.4,0.00017266,-1224,2.6531e-06,-2501.4,-0.00052105,-6436.2,6.2933e-05
17401,0.18391,0.63636,0,0.00054833,5479.6,0.00030422,786.19,1.5383e-05,-1384,-0.00052524,-5446.1,0.00017883
17402,0.18391,0.72727,0.05,9.7606e-06,97.539,7.495e-06,56.314,4.8118e-12,4.6655e-05,-7.495e-06,-56.314,0.00015675
17403,0.091954,0.72727,0,0.00044094,4406.3,0.00016076,-1145.3,4.5337e-06,-2319.2,-0.00048798,-6019.7,5.8927e-05
17404,0.18391,0.45455,0,0.0004882,4878.7,0.0002617,676.54,3.2564e-05,-1045.1,-0.00047112,-4829.5,0.00015554
17405,0.18391,0.54545,0.05,1.2748e-05,127.39,9.789e-06,73.55,-8.968e-14,3.7791e-06,-9.789e-06,-73.55,0.00014109
17406,0.091954,0.54545,0,0.0003993,3990.3,0.00014367,-1028.8,8.9961e-06,-2040.7,-0.00044177,-5427.6,5.2992e-05
17407,0.18391,0.27273,0,0.00042598,4256.9,0.00019627,448.26,8.1762e-05,-412.15,-0.00041879,-4173.1,0.00011715
17408,0.18391,0.36364,0.05,1.8778e-05,187.65,1.4419e-05,108.34,1.0556e-11,6.0548e-05,-1.4419e-05,-108.34,0.00011579
17409,0.091954,0.36364,0,0.00034117,3409.4,0.00011863,-831.48,2.1091e-05,-1564.4,-0.00037597,-4547.7,4.3527e-05
17410,0.18391,0.18182,0.05,2.9465e-05,294.45,2.2626e-05,170,5.2033e-13,8.1478e-05,-2.2626e-05,-170,6.8979e-05
17411,0.18391,0.090909,0,0.00038488,3846.2,0.00014123,223.26,0.00012328,88.457,-0.0003794,-3688.5,5.2634e-05
17412,0.091954,0.18182,0,0.0002712,2710.2,8.4257e-05,-400.01,6.1408e-05,-571.69,-0.00028733,-3191.9,2.6319e-05
17413,16.349,0.27273,0,3.8093e-05,380.66,1.8309e-05,66.559,8.4968e-06,-7.1656,-3.6543e-05,-345.57,1.224
17414,16.44,0.18182,0,3.7796e-05,377.7,1.5869e-05,36.981,9.9496e-06,-7.495,-3.7097e-05,-360.99,1.2364
17415,16.349,0.18182,0.05,4.0855e-06,40.827,3.1371e-06,23.571,5.3452e-13,2.7518e-06,-3.1371e-06,-23.571,1.2237
17416,16.349,0.090909,0,2.4136e-05,241.2,9.696e-06,17.632,6.5812e-06,-5.7718,-2.3849e-05,-234.42,1.2235
17417,16.258,0.18182,0,2.1868e-05,218.53,8.8829e-06,20.011,6.1715e-06,-0.3616,-2.1462e-05,-207.99,1.2112
17418,16.349,0.45455,0,5.4568e-05,545.3,2.8264e-05,124.82,1.1088e-05,-4.2344,-5.1358e-05,-473.43,1.2245
17419,16.44,0.36364,0,4.8148e-05,481.15,2.1107e-05,61.043,1.2369e-05,-4.6123,-4.6851e-05,-449.56,1.2368
17420,16.349,0.36364,0.05,3.7127e-06,37.102,2.8509e-06,21.421,5.3076e-13,1.3042e-06,-2.8509e-06,-21.421,1.2242
17421,16.258,0.36364,0,3.6078e-05,360.53,1.6886e-05,61.908,8.8229e-06,1.3212,-3.4618e-05,-325.08,1.2116
17422,16.349,0.63636,0,7.3925e-05,738.74,4.0779e-05,202.62,1.3337e-05,-3.5616,-6.8346e-05,-617.3,1.225
17423,16.44,0.54545,0,6.3548e-05,635.04,3.0525e-05,115.81,1.4696e-05,-3.1192,-6.0789e-05,-570.28,1.2373
17424,16.349,0.54545,0.05,4.0044e-06,40.017,3.0749e-06,23.104,7.0979e-13,6.7929e-06,-3.0749e-06,-23.104,1.2247
17425,16.258,0.54545,0,5.1591e-05,515.56,2.6627e-05,119.5,1.0836e-05,0.85611,-4.8509e-05,-445.03,1.2121
17426,16.349,0.81818,0,9.5956e-05,958.9,5.5217e-05,293.74,1.567e-05,-3.404,-8.7497e-05,-778.56,1.2255
17427,16.44,0.72727,0,8.1893e-05,818.36,4.2092e-05,185.3,1.7099e-05,-2.485,-7.7149e-05,-710.63,1.2378
17428,16.349,0.72727,0.05,4.5574e-06,45.543,3.4995e-06,26.294,2.2737e-13,8.6854e-06,-3.4995e-06,-26.294,1.2252
17429,16.258,0.72727,0,6.8501e-05,684.53,3.7498e-05,186.29,1.2818e-05,0.85291,-6.3405e-05,-571.86,1.2126
17430,16.349,1,0,0.00012175,1216.6,7.2098e-05,400.05,1.8341e-05,-3.8661,-0.00010987,-967.16,1.226
17431,16.44,0.90909,0,0.00010329,1032.2,5.5534e-05,265.76,1.9851e-05,-2.3571,-9.6161e-05,-874.02,1.2383
17432,16.349,0.90909,0.05,5.3752e-06,53.715,4.1275e-06,31.012,2.4719e-13,5.0177e-06,-4.1275e-06,-31.012,1.2257
17433,16.258,0.90909,0,8.7654e-05,875.94,4.9923e-05,263.77,1.495e-05,0.99269,-8.014e-05,-713.48,1.2132
17434,16.349,1.1818,0,0.00015324,1531.4,9.2494e-05,527.25,2.1771e-05,-4.1313,-0.00013726,-1199,1.2265
17435,16.44,1.0909,0,0.00012865,1285.6,7.1177e-05,357.28,2.3263e-05,-2.7304,-0.00011878,-1070,1.2387
17436,16.349,1.0909,0.05,6.5292e-06,65.247,5.0136e-06,37.671,4.7621e-13,6.9008e-06,-5.0136e-06,-37.671,1.2262
17437,16.258,1.0909,0,0.00011033,1102.5,6.468e-05,355.94,1.7363e-05,0.42108,-9.9875e-05,-880.46,1.2137
17438,16.349,1.3636,0,0.00019374,1936.1,0.00011812,681.25,2.6443e-05,-7.6058,-0.00017285,-1505,1.227
17439,16.44,1.2727,0,0.00015972,1596.1,8.9733e-05,461.9,2.7903e-05,-2.6674,-0.00014675,-1314.9,1.2392
17440,16.349,1.2727,0.05,8.2856e-06,82.799,6.3623e-06,47.804,5.9156e-13,7.6294e-06,-6.3623e-06,-47.804,1.2267
17441,16.258,1.2727,0,0.0001386,1385,8.2835e-05,469.35,2.0714e-05,2.595,-0.00012453,-1088.7,1.2143
17442,16.349,1.5455,0,0.00025057,2504,0.00015303,887.48,3.4331e-05,-4.3797,-0.00022333,-1940.4,1.2276
17443,16.44,1.4545,0,0.00019903,1989,0.00011189,574.71,3.4514e-05,-6.6972,-0.00018289,-1640.2,1.2397
17444,16.349,1.4545,0.05,1.0586e-05,105.79,8.1288e-06,61.077,8.4535e-13,2.5122e-05,-8.1288e-06,-61.077,1.2273
17445,16.258,1.4545,0,0.00017654,1764.2,0.00010761,620.63,2.4151e-05,-6.429,-0.00015752,-1371.5,1.2149
17446,16.349,1.7273,0,0.00033371,3334.8,0.00019442,1041,5.1335e-05,-34.01,-0.00030331,-2698.7,1.2281
17447,16.44,1.6364,0,0.00025174,2515.7,0.00013912,700.4,4.5982e-05,0.56147,-0.0002324,-2091.1,1.2402
17448,16.349,1.6364,0.05,1.6018e-05,160.07,1.23e-05,92.419,8.8386e-13,2.1977e-05,-1.23e-05,-92.419,1.2278
17449,16.258,1.6364,0,0.00022824,2280.8,0.00013635,785.66,3.565e-05,29.009,-0.00020476,-1777.3,1.2155
17450,16.349,1.9091,0,0.00042756,4272.7,0.00021732,854.14,8.2525e-05,-158.65,-0.00040663,-3833.9,1.2287
17451,16.44,1.8182,0,0.00032713,3269,0.00016726,715.01,6.7505e-05,-34.48,-0.00030904,-2863.7,1.2407
17452,16.349,1.8182,0.05,2.853e-05,285.11,2.1908e-05,164.61,5.2434e-12,4.9629e-05,-2.1908e-05,-164.61,1.2284
17453,16.258,1.8182,0,0.00032996,3297.3,0.00021148,1238.9,2.9587e-05,-127.77,-0.00028907,-2522,1.2161
17454,16.349,2.0909,0,0.00047467,4743.4,0.00019833,445.8,0.00012492,-105.78,-0.00046647,-4549.3,1.2292
17455,16.44,2,0,0.00039599,3957.2,0.00016989,416.92,0.00010034,-105.61,-0.0003881,-3775.6,1.2412
17456,16.349,2,0.05,5.0093e-05,500.58,3.8465e-05,289.01,3.7289e-12,6.252e-05,-3.8465e-05,-289.01,1.2289
17457,16.258,2,0,0.00070552,7050.3,0.00029726,645.96,0.00017946,-239.21,-0.00069441,-6805.1,1.2168
17458,16.349,2.2727,0,0.00046841,4680.9,0.00018336,342.15,0.00013641,-10.578,-0.00046177,-4505.1,1.2297
17459,16.44,2.1818,0,0.00041815,4178.7,0.00015679,225.14,0.00012645,-2.7705,-0.0004139,-4062.8,1.2416
17460,16.349,2.1818,0.05,2.9498e-05,294.78,2.2651e-05,170.19,-6.9808e-12,-2.2246e-05,-2.2651e-05,-170.19,1.2294
17461,16.349,2.4545,0,0.0004409,4406,0.00017596,367.3,0.00012665,-3.2334,-0.00043354,-4212.2,1.23
17462,16.44,2.3636,0,0.00041197,4116.9,0.00015792,261.16,0.00012219,-7.284,-0.00040699,-3983.4,1.242
17463,16.349,2.3636,0.05,1.2567e-05,125.58,9.6496e-06,72.504,-1.0388e-11,-4.5623e-05,-9.6496e-06,-72.503,1.2299
17464,16.349,2.6364,0,0.00041463,4143.4,0.00016617,355.96,0.00011885,0.35515,-0.00040742,-3953.8,1.2303
17465,16.44,2.5455,0,0.0003949,3946.3,0.00015279,272.25,0.00011667,0.81327,-0.00038955,-3802.7,1.2423
17466,16.349,2.5455,0.05,7.0042e-06,69.994,5.3784e-06,40.411,-9.657e-12,-8.675e-05,-5.3784e-06,-40.411,1.2302
17467,16.349,2.8182,0,0.00040018,3999,0.0001609,349.28,0.00011432,-0.73726,-0.0003931,-3813.2,1.2305
17468,16.44,2.7273,0,0.00038257,3823.1,0.0001492,277.26,0.0001122,-0.7288,-0.00037711,-3677.2,1.2425
17469,16.349,2.7273,0.05,4.2907e-06,42.877,3.2947e-06,24.755,-1.0947e-11,-0.00010121,-3.2947e-06,-24.755,1.2304
17470,16.349,3,0,0.00039551,3952.4,0.00015909,346.3,0.00011298,-0.11635,-0.00038848,-3767.9,1.2305
17471,16.44,2.9091,0,0.0003763,3760.4,0.00014718,278.3,0.00011013,-0.058408,-0.00037079,-3613.6,1.2426
17472,16.349,2.9091,0.05,3.3626e-06,33.603,2.5821e-06,19.401,-4.6787e-12,-9.7065e-05,-2.5821e-06,-19.401,1.2305
17473,16.349,3.1818,0,0.00040018,3999,0.0001609,349.28,0.00011432,-0.73726,-0.0003931,-3813.2,1.2305
17474,16.44,3.0909,0,0.0003763,3760.4,0.00014718,278.3,0.00011013,-0.058408,-0.00037079,-3613.6,1.2426
17475,16.349,3.0909,0.05,3.3626e-06,33.603,2.5821e-06,19.401,-4.5764e-12,-8.6471e-05,-2.5821e-06,-19.401,1.2305
17476,16.349,3.3636,0,0.00041463,4143.4,0.00016617,355.96,0.00011885,0.35515,-0.00040742,-3953.8,1.2303
17477,16.44,3.2727,0,0.00038257,3823.1,0.0001492,277.26,0.0001122,-0.7288,-0.00037711,-3677.2,1.2425
17478,16.349,3.2727,0.05,4.2907e-06,42.877,3.2947e-06,24.755,-6.1156e-13,-8.9525e-05,-3.2947e-06,-24.755,1.2304
17479,16.349,3.5455,0,0.0004409,4406,0.00017596,367.3,0.00012665,-3.2334,-0.00043354,-4212.2,1.23
17480,16.44,3.4545,0,0.0003949,3946.3,0.00015279,272.25,0.00011667,0.81327,-0.00038955,-3802.7,1.2423
17481,16.349,3.4545,0.05,7.0042e-06,69.994,5.3784e-06,40.411,2.9365e-12,-0.00011628,-5.3784e-06,-40.411,1.2302
17482,16.349,3.7273,0,0.00046841,4680.9,0.00018336,342.15,0.00013641,-10.578,-0.00046177,-4505.1,1.2297
17483,16.44,3.6364,0,0.00041197,4116.9,0.00015792,261.16,0.00012219,-7.284,-0.00040699,-3983.4,1.242
17484,16.349,3.6364,0.05,1.2567e-05,125.58,9.6496e-06,72.503,1.9253e-12,-0.00013225,-9.6496e-06,-72.504,1.2299
17485,16.349,3.9091,0,0.00047467,4743.4,0.00019833,445.8,0.00012492,-105.78,-0.00046647,-4549.3,1.2292
17486,16.44,3.8182,0,0.00041815,4178.7,0.00015679,225.14,0.00012645,-2.7705,-0.0004139,-4062.8,1.2416
17487,16.349,3.8182,0.05,2.9498e-05,294.78,2.2651e-05,170.19,1.1629e-11,-0.00012999,-2.2651e-05,-170.19,1.2294
17488,16.349,4.0909,0,0.00042756,4272.7,0.00021732,854.14,8.2525e-05,-158.65,-0.00040663,-3833.9,1.2287
17489,16.44,4,0,0.00039599,3957.2,0.00016989,416.92,0.00010034,-105.61,-0.0003881,-3775.6,1.2412
17490,16.349,4,0.05,5.0093e-05,500.58,3.8465e-05,289.01,-1.2346e-11,-0.00026022,-3.8465e-05,-289.01,1.2289
17491,16.258,4,0,0.00070552,7050.3,0.00029726,645.96,0.00017946,-239.21,-0.00069441,-6805.1,1.2168
17492,16.349,4.2727,0,0.00033371,3334.8,0.00019442,1041,5.1335e-05,-34.01,-0.00030331,-2698.7,1.2281
17493,16.44,4.1818,0,0.00032713,3269,0.00016726,715.01,6.7505e-05,-34.48,-0.00030904,-2863.7,1.2407
17494,16.349,4.1818,0.05,2.853e-05,285.11,2.1908e-05,164.61,-4.2337e-11,-0.00041881,-2.1908e-05,-164.61,1.2284
17495,16.258,4.1818,0,0.00032996,3297.3,0.00021148,1238.9,2.9587e-05,-127.77,-0.00028907,-2522,1.2161
17496,16.349,4.4545,0,0.00025057,2504,0.00015303,887.48,3.4331e-05,-4.3797,-0.00022333,-1940.4,1.2276
17497,16.44,4.3636,0,0.00025174,2515.7,0.00013912,700.4,4.5982e-05,0.56147,-0.0002324,-2091.1,1.2402
17498,16.349,4.3636,0.05,1.6018e-05,160.07,1.23e-05,92.419,-1.0505e-11,-0.00011168,-1.23e-05,-92.419,1.2278
17499,16.258,4.3636,0,0.00022824,2280.8,0.00013635,785.66,3.565e-05,29.009,-0.00020476,-1777.3,1.2155
17500,16.349,4.6364,0,0.00019374,1936.1,0.00011812,681.25,2.6443e-05,-7.6058,-0.00017285,-1505,1.227
17501,16.44,4.5455,0,0.00019903,1989,0.00011189,574.71,3.4514e-05,-6.6972,-0.00018289,-1640.2,1.2397
17502,16.349,4.5455,0.05,1.0586e-05,105.79,8.1289e-06,61.077,-6.9522e-12,-3.1675e-05,-8.1288e-06,-61.077,1.2273
17503,16.258,4.5455,0,0.00017654,1764.2,0.00010761,620.63,2.4151e-05,-6.429,-0.00015752,-1371.5,1.2149
17504,16.349,4.8182,0,0.00015324,1531.4,9.2494e-05,527.25,2.1771e-05,-4.1313,-0.00013726,-1199,1.2265
17505,16.44,4.7273,0,0.00015972,1596.1,8.9733e-05,461.9,2.7903e-05,-2.6675,-0.00014675,-1314.9,1.2392
17506,16.349,4.7273,0.05,8.2856e-06,82.799,6.3623e-06,47.804,-1.4607e-13,-9.9185e-06,-6.3623e-06,-47.804,1.2267
17507,16.258,4.7273,0,0.0001386,1385,8.2835e-05,469.35,2.0714e-05,2.595,-0.00012453,-1088.7,1.2143
17508,16.349,5,0,0.00012175,1216.6,7.2098e-05,400.05,1.8341e-05,-3.8661,-0.00010987,-967.16,1.226
17509,16.44,4.9091,0,0.00012865,1285.6,7.1177e-05,357.28,2.3263e-05,-2.7304,-0.00011878,-1070,1.2387
17510,16.349,4.9091,0.05,6.5292e-06,65.247,5.0136e-06,37.671,-3.4611e-21,1.9974e-06,-5.0136e-06,-37.671,1.2262
17511,16.258,4.9091,0,0.00011033,1102.5,6.468e-05,355.94,1.7363e-05,0.42108,-9.9875e-05,-880.46,1.2137
17512,16.349,5.1818,0,9.5956e-05,958.9,5.5217e-05,293.74,1.567e-05,-3.404,-8.7497e-05,-778.56,1.2255
17513,16.44,5.0909,0,0.00010329,1032.2,5.5534e-05,265.76,1.9851e-05,-2.3571,-9.6161e-05,-874.02,1.2383
17514,16.349,5.0909,0.05,5.3752e-06,53.715,4.1275e-06,31.012,4.2267e-13,1.5562e-05,-4.1275e-06,-31.012,1.2257
17515,16.258,5.0909,0,8.7654e-05,875.94,4.9923e-05,263.77,1.495e-05,0.99269,-8.014e-05,-713.48,1.2132
17516,16.349,5.3636,0,7.3925e-05,738.74,4.0779e-05,202.62,1.3337e-05,-3.5616,-6.8346e-05,-617.3,1.225
17517,16.44,5.2727,0,8.1893e-05,818.36,4.2092e-05,185.3,1.7099e-05,-2.485,-7.7149e-05,-710.63,1.2378
17518,16.349,5.2727,0.05,4.5574e-06,45.543,3.4995e-06,26.294,8.4367e-13,1.4659e-05,-3.4995e-06,-26.294,1.2252
17519,16.258,5.2727,0,6.8501e-05,684.53,3.7498e-05,186.29,1.2818e-05,0.85291,-6.3405e-05,-571.86,1.2126
17520,16.349,5.5455,0,5.4568e-05,545.3,2.8264e-05,124.82,1.1088e-05,-4.2344,-5.1358e-05,-473.43,1.2245
17521,16.44,5.4545,0,6.3548e-05,635.04,3.0525e-05,115.81,1.4696e-05,-3.1192,-6.0789e-05,-570.28,1.2373
17522,16.349,5.4545,0.05,4.0044e-06,40.017,3.0749e-06,23.104,1.9034e-12,1.4298e-05,-3.0749e-06,-23.104,1.2247
17523,16.258,5.4545,0,5.1591e-05,515.56,2.6627e-05,119.5,1.0836e-05,0.85611,-4.8509e-05,-445.03,1.2121
17524,16.349,5.7273,0,3.8093e-05,380.66,1.8309e-05,66.559,8.4968e-06,-7.1656,-3.6543e-05,-345.57,1.224
17525,16.44,5.6364,0,4.8148e-05,481.15,2.1107e-05,61.043,1.2369e-05,-4.6123,-4.6851e-05,-449.56,1.2368
17526,16.349,5.6364,0.05,3.7127e-06,37.102,2.8509e-06,21.421,1.7711e-12,1.4725e-05,-2.8509e-06,-21.421,1.2242
17527,16.258,5.6364,0,3.6078e-05,360.53,1.6886e-05,61.908,8.8229e-06,1.3212,-3.4618e-05,-325.08,1.2116
17528,16.44,5.8182,0,3.7796e-05,377.7,1.5869e-05,36.981,9.9496e-06,-7.495,-3.7097e-05,-360.99,1.2364
17529,16.349,5.8182,0.05,4.0855e-06,40.827,3.1371e-06,23.571,7.3508e-13,1.0534e-05,-3.1371e-06,-23.571,1.2237
17530,16.349,5.9091,0,2.4136e-05,241.2,9.696e-06,17.632,6.5812e-06,-5.7718,-2.3849e-05,-234.42,1.2235
17531,16.258,5.8182,0,2.1868e-05,218.53,8.8829e-06,20.011,6.1715e-06,-0.3616,-2.1462e-05,-207.99,1.2112
17532,16.531,0.27273,0,4.9303e-05,492.69,1.9658e-05,38.915,1.399e-05,-3.6766,-4.8566e-05,-473.69,1.2492
17533,16.622,0.18182,0,5.3423e-05,533.86,2.0598e-05,34.247,1.5668e-05,-2.7938,-5.2791e-05,-517.17,1.2616
17534,16.531,0.18182,0.05,3.5447e-06,35.422,2.7219e-06,20.451,1.1404e-13,1.846e-06,-2.7219e-06,-20.451,1.249
17535,16.531,0.090909,0,4.1532e-05,415.04,1.4954e-05,14.783,1.2934e-05,-0.39204,-4.1267e-05,-407.63,1.2487
17536,16.531,0.45455,0,5.9357e-05,593.16,2.4962e-05,64.021,1.6128e-05,-2.3559,-5.8029e-05,-559.54,1.2497
17537,16.622,0.36364,0,5.9103e-05,590.62,2.2857e-05,38.875,1.7303e-05,-2.8574,-5.8379e-05,-571.51,1.262
17538,16.531,0.36364,0.05,3.0275e-06,30.254,2.3247e-06,17.467,4.7707e-13,3.9872e-06,-2.3247e-06,-17.467,1.2494
17539,16.531,0.63636,0,7.3905e-05,738.54,3.3558e-05,111.42,1.853e-05,-1.4946,-7.1385e-05,-677.08,1.2501
17540,16.622,0.54545,0,6.9875e-05,698.27,2.8704e-05,67.336,1.9461e-05,-2.1106,-6.8506e-05,-663.06,1.2625
17541,16.531,0.54545,0.05,3.0673e-06,30.651,2.3553e-06,17.697,4.5982e-13,2.5533e-06,-2.3553e-06,-17.697,1.2499
17542,16.531,0.81818,0,9.1755e-05,916.91,4.4201e-05,170.78,2.1328e-05,-1.0808,-8.7651e-05,-819.9,1.2506
17543,16.622,0.72727,0,8.4224e-05,841.66,3.6853e-05,109.67,2.2048e-05,-1.5706,-8.1832e-05,-782.08,1.2629
17544,16.531,0.72727,0.05,3.2618e-06,32.596,2.5047e-06,18.819,3.0863e-13,9.6464e-06,-2.5047e-06,-18.819,1.2503
17545,16.531,1,0,0.00011303,1129.5,5.6586e-05,237.81,2.4811e-05,-0.93224,-0.00010709,-991.97,1.251
17546,16.622,0.90909,0,0.00010176,1016.9,4.6684e-05,159.81,2.5229e-05,-1.3917,-9.8098e-05,-928.02,1.2634
17547,16.531,0.90909,0.05,3.6012e-06,35.987,2.7653e-06,20.777,9.9101e-13,1.2257e-05,-2.7653e-06,-20.777,1.2508
17548,16.531,1.1818,0,0.00013855,1384.6,7.0773e-05,309.63,2.9429e-05,-1.0049,-0.00013066,-1203.9,1.2515
17549,16.622,1.0909,0,0.00012267,1225.8,5.7901e-05,213.26,2.9329e-05,-1.4204,-0.00011764,-1105.7,1.2638
17550,16.531,1.0909,0.05,4.1113e-06,41.085,3.157e-06,23.72,5.2735e-13,7.6294e-06,-3.157e-06,-23.72,1.2512
17551,16.531,1.3636,0,0.00016942,1693.1,8.6487e-05,377.77,3.6011e-05,-1.4833,-0.0001598,-1472.8,1.2519
17552,16.622,1.2727,0,0.00014757,1474.7,7.0293e-05,264.62,3.4853e-05,-1.6712,-0.00014128,-1325.1,1.2642
17553,16.531,1.2727,0.05,4.7511e-06,47.478,3.6483e-06,27.412,2.3631e-12,9.1883e-06,-3.6483e-06,-27.412,1.2517
17554,16.531,1.5455,0,0.00020675,2066.1,0.00010235,420.41,4.6208e-05,-1.4363,-0.00019637,-1824,1.2524
17555,16.622,1.4545,0,0.00017709,1769.7,8.3068e-05,301.17,4.2689e-05,-2.2207,-0.00017005,-1600.6,1.2646
17556,16.531,1.4545,0.05,5.9619e-06,59.578,4.578e-06,34.397,2.1246e-12,9.5096e-06,-4.578e-06,-34.397,1.2522
17557,16.531,1.7273,0,0.00025112,2509.5,0.00011562,401.84,6.2217e-05,0.58458,-0.00024186,-2284.1,1.2529
17558,16.622,1.6364,0,0.00021158,2114.3,9.4484e-05,299.59,5.4154e-05,-3.4417,-0.0002049,-1949.9,1.2651
17559,16.531,1.6364,0.05,6.368e-06,63.636,4.8898e-06,36.74,2.4943e-12,3.2345e-05,-4.8898e-06,-36.74,1.2526
17560,16.531,1.9091,0,0.00029493,2947.2,0.00011856,268.31,8.5326e-05,18.581,-0.00028925,-2795.8,1.2533
17561,16.622,1.8182,0,0.00025017,2499.9,0.0001018,232.44,7.0603e-05,-1.9912,-0.00024542,-2376.5,1.2655
17562,16.531,1.8182,0.05,9.7083e-06,97.016,7.4548e-06,56.012,3.626e-12,4.7045e-05,-7.4548e-06,-56.012,1.2531
17563,16.531,2.0909,0,0.00033369,3334.6,0.00011987,132.65,0.00010568,25.973,-0.00033087,-3254,1.2537
17564,16.622,2,0,0.00028553,2853.3,0.0001011,90.597,9.084e-05,13.509,-0.00028368,-2800.5,1.2658
17565,16.531,2,0.05,9.2598e-06,92.534,7.1103e-06,53.424,-1.1015e-13,2.1887e-05,-7.1103e-06,-53.424,1.2535
17566,16.531,2.2727,0,0.00035802,3577.7,0.00012767,116.54,0.00011262,3.4672,-0.00035585,-3516.4,1.254
17567,16.622,2.1818,0,0.00031672,3165,0.0001076,39.753,0.00010294,4.7579,-0.00031595,-3142.6,1.2662
17568,16.531,2.1818,0.05,1.3503e-05,134.93,1.0368e-05,77.904,-4.405e-12,-2.2771e-05,-1.0368e-05,-77.904,1.2538
17569,16.531,2.4545,0,0.00036454,3642.9,0.0001334,155.97,0.00011222,-3.1254,-0.00036168,-3563.8,1.2543
17570,16.622,2.3636,0,0.00033279,3325.6,0.00011584,69.959,0.00010601,-3.8404,-0.0003316,-3291.9,1.2664
17571,16.531,2.3636,0.05,1.0092e-05,100.85,7.7493e-06,58.225,-7.8091e-12,-6.4873e-05,-7.7493e-06,-58.225,1.2542
17572,16.531,2.6364,0,0.00036207,3618.2,0.00013507,187.93,0.00011004,-0.11374,-0.00035851,-3520.7,1.2546
17573,16.622,2.5455,0,0.00033728,3370.5,0.00012033,108.13,0.00010585,-0.64077,-0.00033532,-3315.4,1.2667
17574,16.531,2.5455,0.05,7.5098e-06,75.046,5.7666e-06,43.328,-9.4434e-12,-8.2784e-05,-5.7666e-06,-43.328,1.2544
17575,16.531,2.8182,0,0.0003581,3578.5,0.00013491,201.97,0.00010803,0.01409,-0.00035424,-3473.3,1.2547
17576,16.622,2.7273,0,0.00033663,3364,0.00012191,130.34,0.00010458,0.062081,-0.00033422,-3296.9,1.2668
17577,16.531,2.7273,0.05,5.4768e-06,54.73,4.2055e-06,31.598,-5.8206e-12,-9.1233e-05,-4.2055e-06,-31.599,1.2546
17578,16.531,3,0,0.00035653,3562.8,0.00013473,206.23,0.0001073,0.065183,-0.00035257,-3455.2,1.2547
17579,16.622,2.9091,0,0.00033553,3353,0.00012241,140.83,0.0001037,0.2485,-0.00033291,-3280.2,1.2669
17580,16.531,2.9091,0.05,4.5944e-06,45.913,3.5279e-06,26.508,-5.7837e-12,-7.763e-05,-3.528e-06,-26.508,1.2547
17581,16.531,3.1818,0,0.0003581,3578.5,0.00013491,201.97,0.00010803,0.01409,-0.00035424,-3473.3,1.2547
17582,16.622,3.0909,0,0.00033553,3353,0.00012241,140.83,0.0001037,0.2485,-0.00033291,-3280.2,1.2669
17583,16.531,3.0909,0.05,4.5944e-06,45.913,3.5279e-06,26.508,3.4966e-13,-6.0602e-05,-3.528e-06,-26.508,1.2547
17584,16.531,3.3636,0,0.00036207,3618.2,0.00013507,187.93,0.00011004,-0.11374,-0.00035851,-3520.7,1.2546
17585,16.622,3.2727,0,0.00033663,3364,0.00012191,130.34,0.00010458,0.062081,-0.00033422,-3296.9,1.2668
17586,16.531,3.2727,0.05,5.4768e-06,54.73,4.2055e-06,31.598,5.1414e-12,-4.779e-05,-4.2055e-06,-31.599,1.2546
17587,16.531,3.5455,0,0.00036454,3642.9,0.0001334,155.97,0.00011222,-3.1254,-0.00036168,-3563.8,1.2543
17588,16.622,3.4545,0,0.00033728,3370.5,0.00012033,108.13,0.00010585,-0.64078,-0.00033532,-3315.4,1.2667
17589,16.531,3.4545,0.05,7.5098e-06,75.046,5.7666e-06,43.328,8.571e-12,-5.2882e-05,-5.7666e-06,-43.328,1.2544
17590,16.531,3.7273,0,0.00035802,3577.7,0.00012767,116.54,0.00011262,3.4672,-0.00035585,-3516.4,1.254
17591,16.622,3.6364,0,0.00033279,3325.6,0.00011584,69.959,0.00010601,-3.8404,-0.0003316,-3291.9,1.2664
17592,16.531,3.6364,0.05,1.0092e-05,100.85,7.7493e-06,58.225,1.0047e-11,-4.295e-05,-7.7493e-06,-58.225,1.2542
17593,16.531,3.9091,0,0.00033369,3334.6,0.00011987,132.65,0.00010568,25.973,-0.00033087,-3254,1.2537
17594,16.622,3.8182,0,0.00031672,3165,0.0001076,39.753,0.00010294,4.7579,-0.00031595,-3142.6,1.2662
17595,16.531,3.8182,0.05,1.3503e-05,134.93,1.0368e-05,77.903,1.4523e-11,-2.1941e-05,-1.0368e-05,-77.904,1.2538
17596,16.531,4.0909,0,0.00029493,2947.2,0.00011856,268.31,8.5326e-05,18.581,-0.00028925,-2795.8,1.2533
17597,16.622,4,0,0.00028553,2853.3,0.0001011,90.597,9.084e-05,13.509,-0.00028368,-2800.5,1.2658
17598,16.531,4,0.05,9.2598e-06,92.534,7.1103e-06,53.424,1.0152e-11,-3.3853e-05,-7.1104e-06,-53.425,1.2535
17599,16.531,4.2727,0,0.00025112,2509.5,0.00011562,401.84,6.2217e-05,0.58458,-0.00024186,-2284.1,1.2529
17600,16.622,4.1818,0,0.00025017,2499.9,0.0001018,232.44,7.0603e-05,-1.9912,-0.00024542,-2376.5,1.2655
17601,16.531,4.1818,0.05,9.7083e-06,97.016,7.4548e-06,56.012,-2.3912e-11,-0.0002423,-7.4548e-06,-56.012,1.2531
17602,16.531,4.4545,0,0.00020675,2066.1,0.00010235,420.41,4.6208e-05,-1.4363,-0.00019637,-1824,1.2524
17603,16.622,4.3636,0,0.00021158,2114.3,9.4484e-05,299.59,5.4154e-05,-3.4417,-0.0002049,-1949.9,1.2651
17604,16.531,4.3636,0.05,6.368e-06,63.636,4.8898e-06,36.74,-1.8446e-11,-0.00018653,-4.8898e-06,-36.74,1.2526
17605,16.531,4.6364,0,0.00016942,1693.1,8.6487e-05,377.77,3.6011e-05,-1.4833,-0.0001598,-1472.8,1.2519
17606,16.622,4.5455,0,0.00017709,1769.7,8.3068e-05,301.17,4.2689e-05,-2.2207,-0.00017005,-1600.6,1.2646
17607,16.531,4.5455,0.05,5.9619e-06,59.578,4.578e-06,34.397,-1.0897e-11,-0.00011331,-4.578e-06,-34.397,1.2522
17608,16.531,4.8182,0,0.00013855,1384.6,7.0773e-05,309.63,2.9429e-05,-1.0049,-0.00013066,-1203.9,1.2515
17609,16.622,4.7273,0,0.00014757,1474.7,7.0293e-05,264.62,3.4853e-05,-1.6712,-0.00014128,-1325.1,1.2642
17610,16.531,4.7273,0.05,4.7511e-06,47.478,3.6483e-06,27.412,-6.5807e-12,-6.0668e-05,-3.6483e-06,-27.412,1.2517
17611,16.531,5,0,0.00011303,1129.5,5.6586e-05,237.81,2.4811e-05,-0.93224,-0.00010709,-991.97,1.251
17612,16.622,4.9091,0,0.00012267,1225.8,5.7901e-05,213.26,2.9329e-05,-1.4204,-0.00011764,-1105.7,1.2638
17613,16.531,4.9091,0.05,4.1113e-06,41.085,3.157e-06,23.72,-3.8284e-12,-3.3099e-05,-3.157e-06,-23.72,1.2512
17614,16.531,5.1818,0,9.1755e-05,916.91,4.4201e-05,170.78,2.1328e-05,-1.0808,-8.7651e-05,-819.9,1.2506
17615,16.622,5.0909,0,0.00010176,1016.9,4.6684e-05,159.81,2.5229e-05,-1.3917,-9.8098e-05,-928.02,1.2634
17616,16.531,5.0909,0.05,3.6012e-06,35.987,2.7653e-06,20.777,-1.6498e-12,-8.3029e-06,-2.7653e-06,-20.777,1.2508
17617,16.531,5.3636,0,7.3905e-05,738.54,3.3558e-05,111.42,1.853e-05,-1.4946,-7.1385e-05,-677.08,1.2501
17618,16.622,5.2727,0,8.4224e-05,841.66,3.6853e-05,109.67,2.2048e-05,-1.5706,-8.1832e-05,-782.08,1.2629
17619,16.531,5.2727,0.05,3.2618e-06,32.596,2.5047e-06,18.819,1.8865e-13,-3.3603e-06,-2.5047e-06,-18.819,1.2503
17620,16.531,5.5455,0,5.9357e-05,593.16,2.4962e-05,64.021,1.6128e-05,-2.3559,-5.8029e-05,-559.54,1.2497
17621,16.622,5.4545,0,6.9875e-05,698.27,2.8704e-05,67.336,1.9461e-05,-2.1106,-6.8506e-05,-663.06,1.2625
17622,16.531,5.4545,0.05,3.0673e-06,30.651,2.3553e-06,17.697,2.7612e-13,8.9352e-06,-2.3553e-06,-17.697,1.2499
17623,16.531,5.7273,0,4.9303e-05,492.69,1.9658e-05,38.915,1.399e-05,-3.6766,-4.8566e-05,-473.69,1.2492
17624,16.622,5.6364,0,5.9103e-05,590.62,2.2857e-05,38.875,1.7303e-05,-2.8574,-5.8379e-05,-571.51,1.262
17625,16.531,5.6364,0.05,3.0275e-06,30.254,2.3247e-06,17.467,1.032e-12,7.3471e-06,-2.3247e-06,-17.467,1.2494
17626,16.622,5.8182,0,5.3423e-05,533.86,2.0598e-05,34.247,1.5668e-05,-2.7938,-5.2791e-05,-517.17,1.2616
17627,16.531,5.8182,0.05,3.5447e-06,35.422,2.7219e-06,20.451,6.0085e-13,6.7518e-06,-2.7219e-06,-20.451,1.249
17628,16.531,5.9091,0,4.1532e-05,415.04,1.4954e-05,14.783,1.2934e-05,-0.39204,-4.1267e-05,-407.63,1.2487
17629,16.713,0.27273,0,6.3526e-05,634.82,2.4083e-05,36.355,1.8947e-05,-2.2291,-6.2857e-05,-616.88,1.2744
17630,16.804,0.18182,0,6.7856e-05,678.09,2.5428e-05,35.843,2.0481e-05,-1.3257,-6.7192e-05,-660.07,1.2868
17631,16.713,0.18182,0.05,3.2247e-06,32.225,2.4762e-06,18.605,1.78e-13,4.7316e-06,-2.4762e-06,-18.605,1.2742
17632,16.713,0.090909,0,5.7561e-05,575.21,2.0491e-05,17.881,1.8088e-05,-0.17613,-5.7239e-05,-566.15,1.274
17633,16.713,0.45455,0,7.0505e-05,704.56,2.7295e-05,47.412,2.069e-05,-2.2137,-6.9605e-05,-680.65,1.2749
17634,16.804,0.36364,0,7.1945e-05,718.95,2.6837e-05,36.294,2.1771e-05,-1.765,-7.1282e-05,-700.93,1.2873
17635,16.713,0.36364,0.05,2.6808e-06,26.79,2.0586e-06,15.467,3.0423e-14,3.6048e-06,-2.0586e-06,-15.467,1.2746
17636,16.713,0.63636,0,8.1554e-05,814.98,3.3082e-05,73.721,2.3012e-05,-1.9391,-8.0069e-05,-776.45,1.2753
17637,16.804,0.54545,0,7.9974e-05,799.18,3.0667e-05,50.599,2.3689e-05,-1.8343,-7.9015e-05,-773.51,1.2877
17638,16.713,0.54545,0.05,2.696e-06,26.942,2.0702e-06,15.555,3.6455e-13,4.1052e-06,-2.0702e-06,-15.555,1.2751
17639,16.713,0.81818,0,9.5907e-05,958.4,4.0654e-05,108.6,2.5964e-05,-1.7727,-9.3611e-05,-900.21,1.2757
17640,16.804,0.72727,0,9.1199e-05,911.36,3.6233e-05,73.355,2.6242e-05,-1.7174,-8.9748e-05,-873.22,1.2881
17641,16.713,0.72727,0.05,2.8042e-06,28.023,2.1533e-06,16.179,1.1975e-12,5.1287e-06,-2.1533e-06,-16.179,1.2755
17642,16.713,1,0,0.00011335,1132.7,4.9498e-05,146.52,2.9753e-05,-1.8355,-0.00011016,-1053.1,1.2761
17643,16.804,0.90909,0,0.00010533,1052.6,4.3094e-05,100.22,2.953e-05,-1.6964,-0.00010328,-999.6,1.2885
17644,16.713,0.90909,0.05,2.9763e-06,29.743,2.2855e-06,17.172,9.9528e-13,2.413e-06,-2.2855e-06,-17.172,1.2759
17645,16.713,1.1818,0,0.00013392,1338.3,5.9097e-05,180.83,3.4753e-05,-2.0842,-0.00012994,-1239.5,1.2765
17646,16.804,1.0909,0,0.00012224,1221.5,5.0787e-05,125.93,3.378e-05,-1.8497,-0.00011963,-1154.5,1.2889
17647,16.713,1.0909,0.05,3.2002e-06,31.98,2.4573e-06,18.464,1.9002e-13,4.6969e-06,-2.4573e-06,-18.464,1.2763
17648,16.713,1.3636,0,0.00015773,1576.2,6.8694e-05,201.68,4.1528e-05,-2.4345,-0.00015334,-1466.6,1.2769
17649,16.804,1.2727,0,0.00014186,1417.6,5.8708e-05,143.29,3.9348e-05,-2.1767,-0.00013889,-1341.4,1.2893
17650,16.713,1.2727,0.05,3.456e-06,34.536,2.6538e-06,19.939,8.824e-13,6.2253e-06,-2.6538e-06,-19.939,1.2767
17651,16.713,1.5455,0,0.00018419,1840.6,7.6819e-05,192.51,5.0629e-05,-4.2681,-0.0001802,-1738.6,1.2773
17652,16.804,1.4545,0,0.00016405,1639.4,6.6022e-05,142.56,4.669e-05,-2.6928,-0.00016119,-1564.6,1.2896
17653,16.713,1.4545,0.05,3.6203e-06,36.178,2.7799e-06,20.887,1.3124e-12,2.2152e-05,-2.7799e-06,-20.887,1.2771
17654,16.713,1.7273,0,0.00021225,2121,8.1769e-05,138.47,6.2593e-05,-5.6188,-0.00020962,-2050.9,1.2777
17655,16.804,1.6364,0,0.00018793,1878,7.1368e-05,110.19,5.6079e-05,-4.6889,-0.00018587,-1822.6,1.29
17656,16.713,1.6364,0.05,3.8906e-06,38.879,2.9875e-06,22.447,2.9716e-12,5.1718e-05,-2.9875e-06,-22.447,1.2775
17657,16.713,1.9091,0,0.00024092,2407.5,8.4598e-05,56.657,7.6031e-05,-7.7086,-0.00024002,-2382.4,1.278
17658,16.804,1.8182,0,0.00021262,2124.8,7.4286e-05,45.309,6.7315e-05,-7.073,-0.00021193,-2105.2,1.2903
17659,16.713,1.8182,0.05,4.7226e-06,47.194,3.6264e-06,27.247,3.4591e-12,3.8259e-05,-3.6264e-06,-27.247,1.2778
17660,16.713,2.0909,0,0.00026795,2677.6,8.898e-05,-1.1276,8.7376e-05,-13.184,-0.00026819,-2684.7,1.2783
17661,16.804,2,0,0.00023724,2370.8,8.0082e-05,1.2595,7.5361e-05,-34.214,-0.00023778,-2387,1.2906
17662,16.713,2,0.05,6.0814e-06,60.772,4.6698e-06,35.087,1.5089e-12,2.6863e-05,-4.6698e-06,-35.087,1.2782
17663,16.713,2.2727,0,0.00029006,2898.6,9.6863e-05,1.424,9.3914e-05,-20.731,-0.00029038,-2908.2,1.2786
17664,16.804,2.1818,0,0.00025966,2594.8,8.8756e-05,-0.39244,8.043e-05,-62.951,-0.00026068,-2625.9,1.2909
17665,16.713,2.1818,0.05,6.9176e-06,69.128,5.3118e-06,39.911,-1.1684e-12,-1.0686e-05,-5.3118e-06,-39.911,1.2785
17666,16.713,2.4545,0,0.00030421,3040,0.00010197,16.156,9.9198e-05,-4.6736,-0.00030401,-3034.2,1.2789
17667,16.804,2.3636,0,0.00027707,2768.8,9.4114e-05,2.6648,8.7118e-05,-49.901,-0.00027783,-2792,1.2911
17668,16.713,2.3636,0.05,7.3193e-06,73.142,5.6203e-06,42.229,-5.0509e-12,-4.9656e-05,-5.6203e-06,-42.229,1.2787
17669,16.713,2.6364,0,0.00031088,3106.6,0.00010628,43.869,0.00010035,-0.68355,-0.00031012,-3084.8,1.279
17670,16.804,2.5455,0,0.00028738,2871.9,9.6134e-05,2.9825,9.2914e-05,-21.21,-0.00028769,-2880.9,1.2913
17671,16.713,2.5455,0.05,6.3297e-06,63.253,4.8604e-06,36.519,-6.5315e-12,-6.4644e-05,-4.8604e-06,-36.519,1.2789
17672,16.713,2.8182,0,0.0003133,3130.9,0.00010867,63.632,0.00010025,0.35302,-0.00031216,-3098.4,1.2791
17673,16.804,2.7273,0,0.00029244,2922.4,9.7317e-05,8.3935,9.5904e-05,-2.223,-0.00029234,-2919.3,1.2914
17674,16.713,2.7273,0.05,5.4766e-06,54.728,4.2053e-06,31.597,-3.1482e-12,-6.9927e-05,-4.2053e-06,-31.597,1.2791
17675,16.713,3,0,0.00031384,3136.2,0.00010939,70.26,0.00010011,0.51859,-0.00031257,-3100.2,1.2792
17676,16.804,2.9091,0,0.00029436,2941.6,9.8646e-05,18.284,9.6268e-05,0.42099,-0.00029404,-2932.2,1.2915
17677,16.713,2.9091,0.05,4.966e-06,49.626,3.8133e-06,28.651,-1.3355e-12,-5.7493e-05,-3.8133e-06,-28.652,1.2791
17678,16.713,3.1818,0,0.0003133,3130.9,0.00010867,63.632,0.00010025,0.35302,-0.00031216,-3098.4,1.2791
17679,16.804,3.0909,0,0.00029436,2941.6,9.8646e-05,18.284,9.6268e-05,0.42099,-0.00029404,-2932.2,1.2915
17680,16.713,3.0909,0.05,4.966e-06,49.626,3.8133e-06,28.651,2.2002e-12,-3.9798e-05,-3.8133e-06,-28.652,1.2791
17681,16.713,3.3636,0,0.00031088,3106.6,0.00010628,43.869,0.00010035,-0.68355,-0.00031012,-3084.8,1.279
17682,16.804,3.2727,0,0.00029244,2922.4,9.7317e-05,8.3935,9.5904e-05,-2.223,-0.00029234,-2919.3,1.2914
17683,16.713,3.2727,0.05,5.4766e-06,54.728,4.2053e-06,31.597,6.4088e-12,-2.3621e-05,-4.2053e-06,-31.597,1.2791
17684,16.713,3.5455,0,0.00030421,3040,0.00010197,16.156,9.9198e-05,-4.6737,-0.00030401,-3034.2,1.2789
17685,16.804,3.4545,0,0.00028738,2871.9,9.6134e-05,2.9825,9.2914e-05,-21.21,-0.00028769,-2880.9,1.2913
17686,16.713,3.4545,0.05,6.3297e-06,63.253,4.8604e-06,36.519,9.8527e-12,-1.0572e-05,-4.8604e-06,-36.519,1.2789
17687,16.713,3.7273,0,0.00029006,2898.6,9.6863e-05,1.424,9.3914e-05,-20.731,-0.00029038,-2908.2,1.2786
17688,16.804,3.6364,0,0.00027707,2768.8,9.4114e-05,2.6648,8.7118e-05,-49.901,-0.00027783,-2792,1.2911
17689,16.713,3.6364,0.05,7.3193e-06,73.142,5.6203e-06,42.229,1.1225e-11,-5.9368e-06,-5.6203e-06,-42.229,1.2787
17690,16.713,3.9091,0,0.00026795,2677.6,8.898e-05,-1.1276,8.7376e-05,-13.184,-0.00026819,-2684.7,1.2783
17691,16.804,3.8182,0,0.00025966,2594.8,8.8756e-05,-0.39244,8.043e-05,-62.951,-0.00026068,-2625.9,1.2909
17692,16.713,3.8182,0.05,6.9176e-06,69.128,5.3118e-06,39.911,1.1994e-11,-1.034e-05,-5.3118e-06,-39.911,1.2785
17693,16.713,4.0909,0,0.00024092,2407.5,8.4598e-05,56.657,7.6031e-05,-7.7086,-0.00024002,-2382.4,1.278
17694,16.804,4,0,0.00023724,2370.8,8.0082e-05,1.2595,7.5361e-05,-34.214,-0.00023778,-2387,1.2906
17695,16.713,4,0.05,6.0814e-06,60.772,4.6698e-06,35.087,6.1611e-12,-4.7268e-05,-4.6698e-06,-35.087,1.2782
17696,16.713,4.2727,0,0.00021225,2121,8.1769e-05,138.47,6.2593e-05,-5.6188,-0.00020962,-2050.9,1.2777
17697,16.804,4.1818,0,0.00021262,2124.8,7.4286e-05,45.309,6.7315e-05,-7.073,-0.00021193,-2105.2,1.2903
17698,16.713,4.1818,0.05,4.7226e-06,47.194,3.6264e-06,27.247,-7.6801e-12,-0.00013603,-3.6264e-06,-27.247,1.2778
17699,16.713,4.4545,0,0.00018419,1840.6,7.6819e-05,192.51,5.0629e-05,-4.2681,-0.0001802,-1738.6,1.2773
17700,16.804,4.3636,0,0.00018793,1878,7.1368e-05,110.19,5.6079e-05,-4.6889,-0.00018587,-1822.6,1.29
17701,16.713,4.3636,0.05,3.8906e-06,38.879,2.9875e-06,22.447,-1.973e-11,-0.00022468,-2.9875e-06,-22.447,1.2775
17702,16.713,4.6364,0,0.00015773,1576.2,6.8694e-05,201.68,4.1528e-05,-2.4345,-0.00015334,-1466.6,1.2769
17703,16.804,4.5455,0,0.00016405,1639.4,6.6022e-05,142.56,4.669e-05,-2.6928,-0.00016119,-1564.6,1.2896
17704,16.713,4.5455,0.05,3.6203e-06,36.178,2.78e-06,20.887,-1.5198e-11,-0.0001292,-2.7799e-06,-20.887,1.2771
17705,16.713,4.8182,0,0.00013392,1338.3,5.9097e-05,180.83,3.4753e-05,-2.0842,-0.00012994,-1239.5,1.2765
17706,16.804,4.7273,0,0.00014186,1417.6,5.8708e-05,143.29,3.9348e-05,-2.1767,-0.00013889,-1341.4,1.2893
17707,16.713,4.7273,0.05,3.456e-06,34.536,2.6538e-06,19.939,-8.7432e-12,-9.9234e-05,-2.6538e-06,-19.939,1.2767
17708,16.713,5,0,0.00011335,1132.7,4.9498e-05,146.52,2.9753e-05,-1.8355,-0.00011016,-1053.1,1.2761
17709,16.804,4.9091,0,0.00012224,1221.5,5.0787e-05,125.93,3.378e-05,-1.8497,-0.00011963,-1154.5,1.2889
17710,16.713,4.9091,0.05,3.2002e-06,31.98,2.4573e-06,18.464,-5.8664e-12,-5.0551e-05,-2.4573e-06,-18.464,1.2763
17711,16.713,5.1818,0,9.5907e-05,958.4,4.0654e-05,108.6,2.5964e-05,-1.7727,-9.3611e-05,-900.21,1.2757
17712,16.804,5.0909,0,0.00010533,1052.6,4.3094e-05,100.22,2.953e-05,-1.6964,-0.00010328,-999.6,1.2885
17713,16.713,5.0909,0.05,2.9763e-06,29.743,2.2855e-06,17.172,-3.7091e-12,-3.198e-05,-2.2855e-06,-17.172,1.2759
17714,16.713,5.3636,0,8.1554e-05,814.98,3.3082e-05,73.721,2.3012e-05,-1.9391,-8.0069e-05,-776.45,1.2753
17715,16.804,5.2727,0,9.1199e-05,911.36,3.6233e-05,73.355,2.6242e-05,-1.7174,-8.9748e-05,-873.22,1.2881
17716,16.713,5.2727,0.05,2.8042e-06,28.023,2.1533e-06,16.179,-1.1961e-12,-1.6724e-05,-2.1533e-06,-16.179,1.2755
17717,16.713,5.5455,0,7.0505e-05,704.56,2.7295e-05,47.412,2.069e-05,-2.2137,-6.9605e-05,-680.65,1.2749
17718,16.804,5.4545,0,7.9974e-05,799.18,3.0667e-05,50.599,2.3689e-05,-1.8343,-7.9015e-05,-773.51,1.2877
17719,16.713,5.4545,0.05,2.696e-06,26.942,2.0702e-06,15.555,-4.6575e-13,-3.4319e-06,-2.0702e-06,-15.555,1.2751
17720,16.713,5.7273,0,6.3526e-05,634.82,2.4083e-05,36.355,1.8947e-05,-2.2291,-6.2857e-05,-616.88,1.2744
17721,16.804,5.6364,0,7.1945e-05,718.95,2.6837e-05,36.294,2.1771e-05,-1.765,-7.1282e-05,-700.93,1.2873
17722,16.713,5.6364,0.05,2.6808e-06,26.79,2.0586e-06,15.467,6.4849e-14,2.0274e-06,-2.0586e-06,-15.467,1.2746
17723,16.804,5.8182,0,6.7856e-05,678.09,2.5428e-05,35.842,2.0481e-05,-1.3257,-6.7192e-05,-660.07,1.2868
17724,16.713,5.8182,0.05,3.2247e-06,32.225,2.4762e-06,18.605,8.3172e-14,4.993e-06,-2.4762e-06,-18.605,1.2742
17725,16.713,5.9091,0,5.7561e-05,575.21,2.0491e-05,17.881,1.8088e-05,-0.17613,-5.7239e-05,-566.15,1.274
17726,16.895,0.27273,0,7.6412e-05,763.59,2.8322e-05,36.833,2.3281e-05,-1.0414,-7.5733e-05,-744.99,1.2997
17727,16.986,0.18182,0,8.0048e-05,799.93,2.9434e-05,36.044,2.4563e-05,-0.55949,-7.9381e-05,-781.56,1.3121
17728,16.895,0.18182,0.05,2.857e-06,28.551,2.1938e-06,16.484,1.9514e-13,3.0651e-06,-2.1938e-06,-16.484,1.2995
17729,16.895,0.090909,0,7.1343e-05,712.94,2.5188e-05,19.811,2.2561e-05,0.070379,-7.0984e-05,-702.79,1.2993
17730,16.895,0.45455,0,8.1796e-05,817.4,3.0536e-05,41.932,2.4773e-05,-1.3672,-8.102e-05,-796.26,1.3001
17731,16.986,0.36364,0,8.342e-05,833.62,3.0595e-05,36.382,2.5625e-05,-0.96042,-8.2755e-05,-815.29,1.3126
17732,16.895,0.36364,0.05,2.2775e-06,22.76,1.7489e-06,13.14,3.379e-13,2.1124e-06,-1.7489e-06,-13.14,1.2999
17733,16.895,0.63636,0,9.0343e-05,902.8,3.4418e-05,54.731,2.6932e-05,-1.5122,-8.9306e-05,-874.88,1.3005
17734,16.986,0.54545,0,8.9708e-05,896.46,3.3233e-05,42.996,2.734e-05,-1.2775,-8.8917e-05,-874.78,1.3129
17735,16.895,0.54545,0.05,2.2702e-06,22.687,1.7432e-06,13.098,2.8583e-13,3.6693e-06,-1.7432e-06,-13.098,1.3003
17736,16.895,0.81818,0,0.00010164,1015.7,3.9505e-05,71.216,2.9816e-05,-1.581,-0.00010026,-978.9,1.3009
17737,16.986,0.72727,0,9.8494e-05,984.26,3.6935e-05,52.607,2.9737e-05,-1.4724,-9.7513e-05,-957.58,1.3133
17738,16.895,0.72727,0.05,2.3153e-06,23.137,1.7779e-06,13.358,-4.4569e-14,-7.9814e-07,-1.7779e-06,-13.358,1.3007
17739,16.895,1,0,0.00011545,1153.7,4.5379e-05,87.11,3.3558e-05,-1.7081,-0.00011374,-1108.5,1.3013
17740,16.986,0.90909,0,0.00010962,1095.5,4.1441e-05,62.597,3.2889e-05,-1.6588,-0.00010844,-1063.6,1.3137
17741,16.895,0.90909,0.05,2.376e-06,23.744,1.8245e-06,13.709,-3.87e-22,-1.4573e-06,-1.8245e-06,-13.709,1.3011
17742,16.895,1.1818,0,0.00013155,1314.5,5.1487e-05,96.572,3.8368e-05,-1.9996,-0.00012966,-1264.5,1.3016
17743,16.986,1.0909,0,0.00012288,1227.9,4.6352e-05,68.889,3.6925e-05,-1.9398,-0.00012159,-1192.9,1.314
17744,16.895,1.0909,0.05,2.4405e-06,24.388,1.874e-06,14.08,1.4122e-13,-1.232e-06,-1.874e-06,-14.08,1.3014
17745,16.895,1.3636,0,0.00014955,1494.5,5.712e-05,92.312,4.4489e-05,-2.5927,-0.0001478,-1447.4,1.302
17746,16.986,1.2727,0,0.00013798,1378.8,5.1142e-05,66.155,4.2004e-05,-2.505,-0.00013677,-1345.7,1.3144
17747,16.895,1.2727,0.05,2.4965e-06,24.948,1.917e-06,14.404,2.9542e-13,5.3856e-06,-1.917e-06,-14.404,1.3018
17748,16.895,1.5455,0,0.00016896,1688.5,6.154e-05,67.517,5.2078e-05,-3.5743,-0.00016776,-1655.4,1.3023
17749,16.986,1.4545,0,0.0001545,1543.9,5.5242e-05,48.905,4.8213e-05,-3.9064,-0.00015366,-1520.7,1.3147
17750,16.895,1.4545,0.05,2.6136e-06,26.118,2.007e-06,15.079,-1.1422e-13,-1.4372e-06,-2.007e-06,-15.079,1.3021
17751,16.895,1.7273,0,0.00018908,1889.5,6.486e-05,24.353,6.0448e-05,-8.7949,-0.00018879,-1881.5,1.3026
17752,16.986,1.6364,0,0.0001719,1717.8,5.8739e-05,17.968,5.4956e-05,-10.455,-0.00017175,-1713.8,1.315
17753,16.895,1.6364,0.05,2.937e-06,29.349,2.2552e-06,16.945,-2.2134e-15,8.5493e-07,-2.2552e-06,-16.945,1.3025
17754,16.895,1.9091,0,0.00020937,2092.2,7.1627e-05,3.8588,6.5127e-05,-44.98,-0.00021002,-2112.3,1.3029
17755,16.986,1.8182,0,0.00018958,1894.5,6.5179e-05,3.1957,5.8396e-05,-47.766,-0.00019029,-1916.3,1.3153
17756,16.895,1.8182,0.05,3.4584e-06,34.56,2.6556e-06,19.953,5.0599e-12,1.2246e-05,-2.6556e-06,-19.953,1.3027
17757,16.895,2.0909,0,0.000229,2288.4,7.9897e-05,2.292,6.837e-05,-84.317,-0.00023027,-2328.2,1.3032
17758,16.986,2,0,0.00020724,2070.9,7.3103e-05,1.6001,6.0436e-05,-93.576,-0.00020864,-2115.3,1.3155
17759,16.895,2,0.05,4.1721e-06,41.692,3.2036e-06,24.071,4.6506e-12,5.2204e-06,-3.2036e-06,-24.071,1.303
17760,16.895,2.2727,0,0.00024628,2461.1,8.6077e-05,1.3688,7.317e-05,-95.606,-0.00024774,-2506.8,1.3034
17761,16.986,2.1818,0,0.0002239,2237.5,7.9766e-05,1.1666,6.3866e-05,-118.29,-0.00022565,-2293.6,1.3157
17762,16.895,2.1818,0.05,4.8532e-06,48.499,3.7267e-06,28.001,-1.853e-14,-1.6882e-06,-3.7267e-06,-28.001,1.3033
17763,16.895,2.4545,0,0.00025957,2594,8.9797e-05,0.90647,7.8673e-05,-82.678,-0.00026086,-2633.8,1.3036
17764,16.986,2.3636,0,0.00023801,2378.5,8.4336e-05,0.63184,6.8637e-05,-117.33,-0.00023978,-2434.6,1.3159
17765,16.895,2.3636,0.05,5.218e-06,52.144,4.0068e-06,30.106,-1.2561e-12,-3.0775e-05,-4.0068e-06,-30.106,1.3035
17766,16.895,2.6364,0,0.00026826,2680.7,9.1631e-05,1.0266,8.3333e-05,-61.327,-0.00026923,-2710.4,1.3037
17767,16.986,2.5455,0,0.00024837,2482,8.7013e-05,0.82122,7.3378e-05,-101.62,-0.00024993,-2530.8,1.316
17768,16.895,2.5455,0.05,5.1813e-06,51.777,3.9786e-06,29.893,-2.9135e-12,-4.4251e-05,-3.9786e-06,-29.894,1.3036
17769,16.895,2.8182,0,0.00027286,2726.7,9.2314e-05,0.79283,8.6262e-05,-44.679,-0.00027358,-2748.4,1.3038
17770,16.986,2.7273,0,0.00025474,2545.7,8.8297e-05,0.73307,7.6898e-05,-84.917,-0.00025607,-2586.7,1.3161
17771,16.895,2.7273,0.05,4.9286e-06,49.252,3.7845e-06,28.435,-1.035e-12,-4.7892e-05,-3.7845e-06,-28.436,1.3037
17772,16.895,3,0,0.00027427,2740.8,9.2468e-05,0.63377,8.7242e-05,-38.636,-0.00027489,-2759.6,1.3038
17773,16.986,2.9091,0,0.00025769,2575.1,8.8784e-05,0.6317,7.8701e-05,-75.127,-0.00025887,-2611.5,1.3162
17774,16.895,2.9091,0.05,4.7397e-06,47.364,3.6395e-06,27.345,2.2021e-12,-3.7515e-05,-3.6395e-06,-27.346,1.3038
17775,16.895,3.1818,0,0.00027286,2726.7,9.2314e-05,0.79283,8.6262e-05,-44.679,-0.00027358,-2748.4,1.3038
17776,16.986,3.0909,0,0.00025769,2575.1,8.8784e-05,0.6317,7.8701e-05,-75.127,-0.00025887,-2611.5,1.3162
17777,16.895,3.0909,0.05,4.7397e-06,47.364,3.6395e-06,27.345,4.1365e-12,-2.3933e-05,-3.6395e-06,-27.346,1.3038
17778,16.895,3.3636,0,0.00026826,2680.7,9.1631e-05,1.0266,8.3333e-05,-61.327,-0.00026923,-2710.4,1.3037
17779,16.986,3.2727,0,0.00025474,2545.7,8.8297e-05,0.73307,7.6898e-05,-84.917,-0.00025607,-2586.7,1.3161
17780,16.895,3.2727,0.05,4.9286e-06,49.252,3.7845e-06,28.435,8.1587e-12,-8.3478e-06,-3.7845e-06,-28.436,1.3037
17781,16.895,3.5455,0,0.00025957,2594,8.9797e-05,0.90647,7.8673e-05,-82.678,-0.00026086,-2633.8,1.3036
17782,16.986,3.4545,0,0.00024837,2482,8.7013e-05,0.82122,7.3378e-05,-101.62,-0.00024993,-2530.8,1.316
17783,16.895,3.4545,0.05,5.1813e-06,51.777,3.9786e-06,29.893,1.1064e-11,1.0898e-06,-3.9786e-06,-29.894,1.3036
17784,16.895,3.7273,0,0.00024628,2461.1,8.6077e-05,1.3688,7.317e-05,-95.606,-0.00024774,-2506.8,1.3034
17785,16.986,3.6364,0,0.00023801,2378.5,8.4336e-05,0.63184,6.8637e-05,-117.33,-0.00023978,-2434.6,1.3159
17786,16.895,3.6364,0.05,5.218e-06,52.144,4.0068e-06,30.105,1.123e-11,3.4651e-06,-4.0068e-06,-30.106,1.3035
17787,16.895,3.9091,0,0.000229,2288.4,7.9897e-05,2.292,6.837e-05,-84.317,-0.00023027,-2328.2,1.3032
17788,16.986,3.8182,0,0.0002239,2237.5,7.9766e-05,1.1666,6.3866e-05,-118.29,-0.00022565,-2293.6,1.3157
17789,16.895,3.8182,0.05,4.8532e-06,48.499,3.7267e-06,28.001,9.3526e-12,-3.5993e-06,-3.7267e-06,-28.001,1.3033
17790,16.895,4.0909,0,0.00020937,2092.2,7.1627e-05,3.8588,6.5127e-05,-44.98,-0.00021002,-2112.3,1.3029
17791,16.986,4,0,0.00020724,2070.9,7.3103e-05,1.6001,6.0436e-05,-93.576,-0.00020864,-2115.3,1.3155
17792,16.895,4,0.05,4.1721e-06,41.692,3.2036e-06,24.071,2.9431e-12,-5.1875e-05,-3.2036e-06,-24.071,1.303
17793,16.895,4.2727,0,0.00018908,1889.5,6.486e-05,24.353,6.0448e-05,-8.7949,-0.00018879,-1881.5,1.3026
17794,16.986,4.1818,0,0.00018958,1894.5,6.5179e-05,3.1957,5.8396e-05,-47.766,-0.00019029,-1916.3,1.3153
17795,16.895,4.1818,0.05,3.4584e-06,34.56,2.6556e-06,19.953,-5.9938e-12,-0.00010688,-2.6556e-06,-19.953,1.3027
17796,16.895,4.4545,0,0.00016896,1688.5,6.154e-05,67.517,5.2078e-05,-3.5743,-0.00016776,-1655.4,1.3023
17797,16.986,4.3636,0,0.0001719,1717.8,5.8739e-05,17.968,5.4956e-05,-10.455,-0.00017175,-1713.8,1.315
17798,16.895,4.3636,0.05,2.937e-06,29.349,2.2552e-06,16.945,-1.3762e-11,-0.0001316,-2.2552e-06,-16.945,1.3025
17799,16.895,4.6364,0,0.00014955,1494.5,5.712e-05,92.312,4.4489e-05,-2.5927,-0.0001478,-1447.4,1.302
17800,16.986,4.5455,0,0.0001545,1543.9,5.5242e-05,48.905,4.8213e-05,-3.9064,-0.00015366,-1520.7,1.3147
17801,16.895,4.5455,0.05,2.6136e-06,26.118,2.007e-06,15.079,-1.4668e-11,-0.00014022,-2.007e-06,-15.079,1.3021
17802,16.895,4.8182,0,0.00013155,1314.5,5.1487e-05,96.572,3.8368e-05,-1.9996,-0.00012966,-1264.5,1.3016
17803,16.986,4.7273,0,0.00013798,1378.8,5.1142e-05,66.155,4.2004e-05,-2.505,-0.00013677,-1345.7,1.3144
17804,16.895,4.7273,0.05,2.4965e-06,24.948,1.917e-06,14.404,-1.0264e-11,-0.00012114,-1.917e-06,-14.404,1.3018
17805,16.895,5,0,0.00011545,1153.8,4.5379e-05,87.11,3.3558e-05,-1.7081,-0.00011374,-1108.5,1.3013
17806,16.986,4.9091,0,0.00012288,1227.9,4.6352e-05,68.889,3.6925e-05,-1.9398,-0.00012159,-1192.9,1.314
17807,16.895,4.9091,0.05,2.4405e-06,24.388,1.874e-06,14.08,-7.6825e-12,-7.4871e-05,-1.874e-06,-14.08,1.3014
17808,16.895,5.1818,0,0.00010164,1015.7,3.9505e-05,71.216,2.9816e-05,-1.581,-0.00010026,-978.9,1.3009
17809,16.986,5.0909,0,0.00010962,1095.5,4.1441e-05,62.597,3.2889e-05,-1.6588,-0.00010844,-1063.6,1.3137
17810,16.895,5.0909,0.05,2.376e-06,23.744,1.8245e-06,13.709,-4.7368e-12,-4.8479e-05,-1.8245e-06,-13.709,1.3011
17811,16.895,5.3636,0,9.0343e-05,902.8,3.4418e-05,54.731,2.6932e-05,-1.5122,-8.9306e-05,-874.88,1.3005
17812,16.986,5.2727,0,9.8494e-05,984.26,3.6935e-05,52.607,2.9737e-05,-1.4724,-9.7513e-05,-957.58,1.3133
17813,16.895,5.2727,0.05,2.3153e-06,23.137,1.7779e-06,13.358,-2.4438e-12,-2.5757e-05,-1.7779e-06,-13.358,1.3007
17814,16.895,5.5455,0,8.1796e-05,817.4,3.0536e-05,41.932,2.4773e-05,-1.3672,-8.102e-05,-796.26,1.3001
17815,16.986,5.4545,0,8.9708e-05,896.46,3.3233e-05,42.996,2.734e-05,-1.2775,-8.8917e-05,-874.78,1.3129
17816,16.895,5.4545,0.05,2.2702e-06,22.687,1.7432e-06,13.098,-9.7588e-13,-9.6032e-06,-1.7432e-06,-13.098,1.3003
17817,16.895,5.7273,0,7.6412e-05,763.59,2.8322e-05,36.833,2.3281e-05,-1.0414,-7.5733e-05,-744.99,1.2997
17818,16.986,5.6364,0,8.342e-05,833.62,3.0595e-05,36.382,2.5625e-05,-0.96042,-8.2755e-05,-815.29,1.3126
17819,16.895,5.6364,0.05,2.2775e-06,22.76,1.7489e-06,13.14,-3.2508e-13,-1.8359e-06,-1.7489e-06,-13.14,1.2999
17820,16.986,5.8182,0,8.0048e-05,799.93,2.9434e-05,36.044,2.4563e-05,-0.55949,-7.9381e-05,-781.56,1.3121
17821,16.895,5.8182,0.05,2.857e-06,28.551,2.1938e-06,16.484,-4.1483e-13,2.4053e-06,-2.1938e-06,-16.484,1.2995
17822,16.895,5.9091,0,7.1343e-05,712.94,2.5188e-05,19.811,2.2561e-05,0.07038,-7.0984e-05,-702.79,1.2993
17823,17.078,0.27273,0,8.7149e-05,870.89,3.1799e-05,36.277,2.6896e-05,-0.55921,-8.6483e-05,-852.45,1.325
17824,17.169,0.18182,0,8.9906e-05,898.44,3.255e-05,34.533,2.7921e-05,-0.24905,-8.9272e-05,-880.79,1.3375
17825,17.078,0.18182,0.05,2.4601e-06,24.584,1.889e-06,14.193,-1.7431e-13,3.1209e-06,-1.889e-06,-14.193,1.3248
17826,17.078,0.090909,0,8.2741e-05,826.84,2.8971e-05,20.052,2.631e-05,0.058271,-8.238e-05,-816.6,1.3246
17827,17.078,0.45455,0,9.1532e-05,914.69,3.3469e-05,38.772,2.8189e-05,-0.89949,-9.0824e-05,-895.11,1.3254
17828,17.169,0.36364,0,9.2812e-05,927.47,3.3614e-05,35.598,2.8798e-05,-0.58829,-9.2163e-05,-909.44,1.3379
17829,17.078,0.36364,0.05,1.8643e-06,18.63,1.4315e-06,10.756,5.003e-13,3.468e-06,-1.4315e-06,-10.756,1.3252
17830,17.078,0.63636,0,9.8255e-05,981.87,3.6084e-05,43.383,3.0149e-05,-1.2136,-9.7461e-05,-960.02,1.3258
17831,17.169,0.54545,0,9.7859e-05,977.91,3.5487e-05,37.909,3.0321e-05,-0.90406,-9.7171e-05,-958.83,1.3383
17832,17.078,0.54545,0.05,1.8364e-06,18.352,1.4101e-06,10.595,2.3037e-13,5.5e-06,-1.4101e-06,-10.595,1.3256
17833,17.078,0.81818,0,0.00010706,1069.9,3.9362e-05,47.677,3.2814e-05,-1.523,-0.00010619,-1046,1.3261
17834,17.169,0.72727,0,0.00010475,1046.8,3.7894e-05,39.302,3.2494e-05,-1.2698,-0.00010404,-1027.1,1.3386
17835,17.078,0.72727,0.05,1.8436e-06,18.423,1.4157e-06,10.637,4.0234e-13,9.8775e-06,-1.4157e-06,-10.637,1.3259
17836,17.078,1,0,0.00011778,1176.9,4.3027e-05,48.98,3.6252e-05,-1.9202,-0.00011689,-1152.6,1.3265
17837,17.169,0.90909,0,0.00011339,1133.1,4.0696e-05,38.423,3.5353e-05,-1.7289,-0.00011271,-1114.2,1.339
17838,17.078,0.90909,0.05,1.851e-06,18.497,1.4214e-06,10.68,-1.1132e-14,4.7396e-06,-1.4214e-06,-10.68,1.3263
17839,17.078,1.1818,0,0.00013011,1300.2,4.6693e-05,43.625,4.0536e-05,-2.6334,-0.00012936,-1279.1,1.3268
17840,17.169,1.0909,0,0.00012358,1235,4.3644e-05,32.9,3.8929e-05,-2.5267,-0.00012303,-1219.4,1.3393
17841,17.078,1.0909,0.05,1.8611e-06,18.598,1.4291e-06,10.738,-1.0582e-13,5.9382e-06,-1.4291e-06,-10.738,1.3266
17842,17.078,1.3636,0,0.0001437,1436,5.0009e-05,28.349,4.5621e-05,-4.6185,-0.00014327,-1423.9,1.3271
17843,17.169,1.2727,0,0.00013504,1349.5,4.6514e-05,20.585,4.3142e-05,-4.7559,-0.00013476,-1341.4,1.3396
17844,17.078,1.2727,0.05,1.9023e-06,19.01,1.4607e-06,10.975,1.4454e-12,-5.066e-06,-1.4607e-06,-10.975,1.3269
17845,17.078,1.5455,0,0.00015809,1579.8,5.3654e-05,8.4698,5.0425e-05,-15.789,-0.0001582,-1583.3,1.3274
17846,17.169,1.4545,0,0.0001474,1472.9,4.9992e-05,6.5745,4.6951e-05,-16.275,-0.00014755,-1477.7,1.3399
17847,17.078,1.4545,0.05,2.034e-06,20.326,1.5619e-06,11.735,3.1258e-12,-3.7053e-06,-1.5619e-06,-11.735,1.3272
17848,17.078,1.7273,0,0.00017289,1727.7,5.9779e-05,2.224,5.2603e-05,-51.694,-0.00017367,-1751.8,1.3277
17849,17.169,1.6364,0,0.00016025,1601.4,5.5439e-05,2.1344,4.8711e-05,-48.42,-0.00016098,-1623.9,1.3401
17850,17.078,1.6364,0.05,2.3268e-06,23.252,1.7867e-06,13.425,7.1671e-13,4.007e-06,-1.7867e-06,-13.425,1.3275
17851,17.078,1.9091,0,0.00018778,1876.5,6.6636e-05,0.7963,5.4003e-05,-94.127,-0.00018919,-1921.3,1.3279
17852,17.169,1.8182,0,0.00017332,1732,6.1648e-05,1.0024,4.9618e-05,-89.384,-0.00017465,-1774.4,1.3403
17853,17.078,1.8182,0.05,2.7667e-06,27.648,2.1245e-06,15.963,4.3011e-12,2.2692e-05,-2.1245e-06,-15.963,1.3278
17854,17.078,2.0909,0,0.00020228,2021.4,7.2944e-05,0.27237,5.6068e-05,-126.53,-0.00020413,-2081.5,1.3281
17855,17.169,2,0,0.00018631,1861.9,6.7679e-05,0.4706,5.0788e-05,-126.44,-0.00018813,-1921.6,1.3405
17856,17.078,2,0.05,3.2446e-06,32.424,2.4915e-06,18.72,3.0516e-12,1.7524e-05,-2.4915e-06,-18.72,1.328
17857,17.078,2.2727,0,0.00021555,2154,7.8018e-05,0.3776,5.9244e-05,-140.69,-0.00021759,-2220.7,1.3283
17858,17.169,2.1818,0,0.00019874,1986,7.288e-05,0.33606,5.2929e-05,-149.57,-0.00020085,-2056.4,1.3407
17859,17.078,2.1818,0.05,3.6962e-06,36.937,2.8382e-06,21.325,2.8815e-12,8.0187e-06,-2.8382e-06,-21.325,1.3282
17860,17.078,2.4545,0,0.00022653,2263.7,8.156e-05,0.60546,6.3045e-05,-138.51,-0.00022855,-2329.5,1.3284
17861,17.169,2.3636,0,0.00020973,2095.8,7.6845e-05,0.48684,5.5987e-05,-156.23,-0.00021194,-2169.3,1.3409
17862,17.078,2.3636,0.05,4.0514e-06,40.486,3.111e-06,23.375,2.6442e-13,-8.6112e-06,-3.111e-06,-23.375,1.3284
17863,17.078,2.6364,0,0.00023445,2342.9,8.3693e-05,0.63669,6.6524e-05,-128.37,-0.00023636,-2404.1,1.3286
17864,17.169,2.5455,0,0.00021839,2182.4,7.9491e-05,0.54046,5.9243e-05,-151.6,-0.00022056,-2253.9,1.341
17865,17.078,2.5455,0.05,4.2314e-06,42.284,3.2492e-06,24.413,3.9209e-13,-2.1836e-05,-3.2492e-06,-24.413,1.3285
17866,17.078,2.8182,0,0.00023913,2389.6,8.4774e-05,0.61934,6.8882e-05,-118.79,-0.00024091,-2446.5,1.3286
17867,17.169,2.7273,0,0.00022421,2240.6,8.1029e-05,0.55772,6.1859e-05,-143.48,-0.0002263,-2308.6,1.3411
17868,17.078,2.7273,0.05,4.2595e-06,42.566,3.2708e-06,24.575,4.697e-13,-2.5975e-05,-3.2708e-06,-24.576,1.3286
17869,17.078,3,0,0.00024066,2404.9,8.5098e-05,0.6095,6.9705e-05,-115.05,-0.0002424,-2460,1.3286
17870,17.169,2.9091,0,0.0002271,2269.4,8.1718e-05,0.55963,6.3283e-05,-137.96,-0.00022912,-2335,1.3411
17871,17.078,2.9091,0.05,4.239e-06,42.36,3.255e-06,24.457,1.8669e-12,-1.8714e-05,-3.255e-06,-24.457,1.3286
17872,17.078,3.1818,0,0.00023913,2389.6,8.4774e-05,0.61934,6.8882e-05,-118.79,-0.00024091,-2446.5,1.3286
17873,17.169,3.0909,0,0.0002271,2269.4,8.1718e-05,0.55963,6.3283e-05,-137.96,-0.00022912,-2335,1.3411
17874,17.078,3.0909,0.05,4.239e-06,42.36,3.255e-06,24.457,5.4109e-12,-9.8855e-06,-3.255e-06,-24.457,1.3286
17875,17.078,3.3636,0,0.00023445,2342.9,8.3693e-05,0.63669,6.6524e-05,-128.37,-0.00023636,-2404.1,1.3286
17876,17.169,3.2727,0,0.00022421,2240.6,8.1029e-05,0.55772,6.1859e-05,-143.48,-0.0002263,-2308.6,1.3411
17877,17.078,3.2727,0.05,4.2595e-06,42.566,3.2708e-06,24.575,6.8678e-12,6.6308e-07,-3.2708e-06,-24.576,1.3286
17878,17.078,3.5455,0,0.00022653,2263.7,8.156e-05,0.60546,6.3045e-05,-138.51,-0.00022855,-2329.5,1.3284
17879,17.169,3.4545,0,0.00021839,2182.4,7.9491e-05,0.54046,5.9243e-05,-151.6,-0.00022056,-2253.9,1.341
17880,17.078,3.4545,0.05,4.2314e-06,42.284,3.2492e-06,24.413,9.4051e-12,1.12e-05,-3.2492e-06,-24.413,1.3285
17881,17.078,3.7273,0,0.00021555,2154,7.8018e-05,0.3776,5.9244e-05,-140.69,-0.00021759,-2220.7,1.3283
17882,17.169,3.6364,0,0.00020973,2095.8,7.6845e-05,0.48684,5.5987e-05,-156.23,-0.00021194,-2169.3,1.3409
17883,17.078,3.6364,0.05,4.0514e-06,40.486,3.111e-06,23.375,9.406e-12,1.0937e-05,-3.111e-06,-23.375,1.3284
17884,17.078,3.9091,0,0.00020228,2021.4,7.2944e-05,0.27237,5.6068e-05,-126.53,-0.00020413,-2081.5,1.3281
17885,17.169,3.8182,0,0.00019874,1986,7.288e-05,0.33606,5.2929e-05,-149.57,-0.00020085,-2056.4,1.3407
17886,17.078,3.8182,0.05,3.6962e-06,36.937,2.8382e-06,21.325,8.1133e-12,2.4961e-06,-2.8383e-06,-21.326,1.3282
17887,17.078,4.0909,0,0.00018778,1876.5,6.6636e-05,0.7963,5.4003e-05,-94.127,-0.00018919,-1921.3,1.3279
17888,17.169,4,0,0.00018631,1861.9,6.7679e-05,0.4706,5.0788e-05,-126.44,-0.00018813,-1921.6,1.3405
17889,17.078,4,0.05,3.2446e-06,32.424,2.4915e-06,18.72,3.3253e-12,-3.2967e-05,-2.4915e-06,-18.72,1.328
17890,17.078,4.2727,0,0.00017289,1727.7,5.9779e-05,2.224,5.2603e-05,-51.693,-0.00017367,-1751.8,1.3277
17891,17.169,4.1818,0,0.00017332,1732,6.1648e-05,1.0024,4.9618e-05,-89.383,-0.00017465,-1774.4,1.3403
17892,17.078,4.1818,0.05,2.7667e-06,27.648,2.1245e-06,15.963,-2.9255e-12,-6.7219e-05,-2.1245e-06,-15.963,1.3278
17893,17.078,4.4545,0,0.00015809,1579.8,5.3654e-05,8.4698,5.0425e-05,-15.789,-0.0001582,-1583.3,1.3274
17894,17.169,4.3636,0,0.00016025,1601.4,5.5439e-05,2.1344,4.8711e-05,-48.42,-0.00016098,-1623.9,1.3401
17895,17.078,4.3636,0.05,2.3268e-06,23.252,1.7867e-06,13.425,-8.7194e-12,-0.00011108,-1.7867e-06,-13.425,1.3275
17896,17.078,4.6364,0,0.0001437,1436,5.0009e-05,28.349,4.5621e-05,-4.6184,-0.00014327,-1423.9,1.3271
17897,17.169,4.5455,0,0.0001474,1472.9,4.9992e-05,6.5745,4.6951e-05,-16.275,-0.00014755,-1477.7,1.3399
17898,17.078,4.5455,0.05,2.034e-06,20.326,1.5619e-06,11.735,-1.1817e-11,-0.00014235,-1.5619e-06,-11.735,1.3272
17899,17.078,4.8182,0,0.00013011,1300.2,4.6693e-05,43.625,4.0536e-05,-2.6334,-0.00012936,-1279.1,1.3268
17900,17.169,4.7273,0,0.00013504,1349.5,4.6514e-05,20.585,4.3142e-05,-4.7559,-0.00013476,-1341.4,1.3396
17901,17.078,4.7273,0.05,1.9023e-06,19.01,1.4607e-06,10.975,-1.1146e-11,-0.00012787,-1.4607e-06,-10.975,1.3269
17902,17.078,5,0,0.00011778,1176.9,4.3027e-05,48.98,3.6252e-05,-1.9202,-0.00011689,-1152.6,1.3265
17903,17.169,4.9091,0,0.00012358,1235,4.3644e-05,32.9,3.8929e-05,-2.5267,-0.00012303,-1219.4,1.3393
17904,17.078,4.9091,0.05,1.8611e-06,18.598,1.4291e-06,10.738,-9.173e-12,-7.7327e-05,-1.4291e-06,-10.738,1.3266
17905,17.078,5.1818,0,0.00010706,1069.9,3.9362e-05,47.677,3.2814e-05,-1.523,-0.00010619,-1046,1.3261
17906,17.169,5.0909,0,0.00011339,1133.1,4.0696e-05,38.423,3.5353e-05,-1.7289,-0.00011271,-1114.2,1.339
17907,17.078,5.0909,0.05,1.851e-06,18.497,1.4214e-06,10.68,-6.1935e-12,-5.7019e-05,-1.4214e-06,-10.68,1.3263
17908,17.078,5.3636,0,9.8255e-05,981.87,3.6084e-05,43.383,3.0149e-05,-1.2136,-9.7461e-05,-960.02,1.3258
17909,17.169,5.2727,0,0.00010475,1046.8,3.7894e-05,39.302,3.2494e-05,-1.2698,-0.00010404,-1027.1,1.3386
17910,17.078,5.2727,0.05,1.8436e-06,18.423,1.4157e-06,10.637,-2.8228e-12,-2.9989e-05,-1.4157e-06,-10.637,1.3259
17911,17.078,5.5455,0,9.1532e-05,914.69,3.3469e-05,38.772,2.8189e-05,-0.89948,-9.0824e-05,-895.11,1.3254
17912,17.169,5.4545,0,9.7859e-05,977.91,3.5487e-05,37.909,3.0321e-05,-0.90406,-9.7171e-05,-958.83,1.3383
17913,17.078,5.4545,0.05,1.8364e-06,18.352,1.4101e-06,10.595,-1.7458e-12,-1.6045e-05,-1.4101e-06,-10.595,1.3256
17914,17.078,5.7273,0,8.7149e-05,870.89,3.1799e-05,36.277,2.6896e-05,-0.55921,-8.6483e-05,-852.45,1.325
17915,17.169,5.6364,0,9.2812e-05,927.47,3.3614e-05,35.598,2.8798e-05,-0.58829,-9.2163e-05,-909.44,1.3379
17916,17.078,5.6364,0.05,1.8643e-06,18.63,1.4315e-06,10.756,-2.7325e-13,-4.8374e-06,-1.4315e-06,-10.756,1.3252
17917,17.169,5.8182,0,8.9906e-05,898.44,3.255e-05,34.533,2.7921e-05,-0.24905,-8.9272e-05,-880.79,1.3375
17918,17.078,5.8182,0.05,2.4601e-06,24.584,1.889e-06,14.193,-4.7723e-13,3.395e-06,-1.889e-06,-14.193,1.3248
17919,17.078,5.9091,0,8.2741e-05,826.84,2.8971e-05,20.052,2.631e-05,0.058271,-8.238e-05,-816.6,1.3246
17920,17.26,0.27273,0,9.5637e-05,955.71,3.4429e-05,34.337,2.9818e-05,-0.31224,-9.5011e-05,-938.23,1.3504
17921,17.351,0.18182,0,9.7548e-05,974.81,3.4848e-05,31.891,3.0589e-05,-0.10468,-9.6968e-05,-958.52,1.3629
17922,17.26,0.18182,0.05,2.0617e-06,20.603,1.5831e-06,11.895,-3.5525e-13,3.4259e-06,-1.5831e-06,-11.895,1.3502
17923,17.26,0.090909,0,9.1825e-05,917.62,3.1898e-05,19.192,2.9352e-05,0.059468,-9.1483e-05,-907.84,1.35
17924,17.26,0.45455,0,9.9258e-05,991.89,3.5736e-05,35.52,3.0929e-05,-0.59917,-9.8615e-05,-973.94,1.3507
17925,17.351,0.36364,0,0.00010005,999.76,3.5815e-05,33.451,3.1311e-05,-0.38801,-9.944e-05,-982.8,1.3633
17926,17.26,0.36364,0.05,1.4682e-06,14.672,1.1274e-06,8.4708,2.2415e-13,1.7436e-06,-1.1274e-06,-8.4708,1.3505
17927,17.26,0.63636,0,0.00010458,1045,3.7487e-05,35.259,3.2669e-05,-0.94037,-0.00010394,-1027.4,1.3511
17928,17.351,0.54545,0,0.00010411,1040.4,3.7153e-05,33.237,3.2644e-05,-0.64712,-0.00010352,-1023.7,1.3636
17929,17.26,0.54545,0.05,1.4297e-06,14.288,1.0979e-06,8.2489,1.3091e-13,8.6646e-06,-1.0979e-06,-8.2489,1.3509
17930,17.26,0.81818,0,0.00011141,1113.3,3.9509e-05,32.157,3.5038e-05,-1.438,-0.00011084,-1097.5,1.3514
17931,17.351,0.72727,0,0.0001095,1094.3,3.8663e-05,29.735,3.4561e-05,-1.0835,-0.00010898,-1079.6,1.364
17932,17.26,0.72727,0.05,1.4245e-06,14.235,1.0938e-06,8.2185,-7.6916e-14,2.1624e-06,-1.0938e-06,-8.2184,1.3513
17933,17.26,1,0,0.00011961,1195.3,4.1675e-05,25.05,3.8026e-05,-2.3614,-0.0001192,-1183.7,1.3518
17934,17.351,0.90909,0,0.00011615,1160.7,4.0305e-05,22.604,3.7044e-05,-1.8978,-0.00011578,-1150.1,1.3643
17935,17.26,0.90909,0.05,1.4237e-06,14.227,1.0932e-06,8.2139,-2.3188e-22,-1.6926e-06,-1.0932e-06,-8.2139,1.3516
17936,17.26,1.1818,0,0.00012897,1288.8,4.394e-05,13.422,4.1452e-05,-5.276,-0.00012882,-1284.6,1.3521
17937,17.351,1.0909,0,0.0001239,1238.2,4.21e-05,11.899,3.9922e-05,-4.4627,-0.00012377,-1234.4,1.3646
17938,17.26,1.0909,0.05,1.4428e-06,14.418,1.1079e-06,8.3245,-6.5664e-13,-5.2457e-06,-1.1079e-06,-8.3245,1.3519
17939,17.26,1.3636,0,0.00013918,1390.9,4.7214e-05,4.1935,4.4136e-05,-18.929,-0.00013942,-1398.1,1.3523
17940,17.351,1.2727,0,0.00013253,1324.4,4.4859e-05,3.762,4.2173e-05,-16.422,-0.00013274,-1330.6,1.3648
17941,17.26,1.2727,0.05,1.5167e-06,15.157,1.1646e-06,8.7507,6.8242e-13,9.8064e-06,-1.1646e-06,-8.7507,1.3522
17942,17.26,1.5455,0,0.00014994,1498.4,5.1976e-05,1.7297,4.5376e-05,-47.86,-0.00015067,-1520.8,1.3526
17943,17.351,1.4545,0,0.00014177,1416.7,4.8979e-05,1.6109,4.3185e-05,-41.921,-0.00014241,-1436.4,1.3651
17944,17.26,1.4545,0.05,1.6862e-06,16.85,1.2948e-06,9.7286,2.0487e-12,1.4759e-06,-1.2948e-06,-9.7286,1.3524
17945,17.26,1.7273,0,0.00016099,1608.7,5.7312e-05,0.9415,4.5998e-05,-84.07,-0.00016223,-1648.6,1.3528
17946,17.351,1.6364,0,0.00015136,1512.6,5.37e-05,0.91452,4.3579e-05,-75.127,-0.00015248,-1548.2,1.3653
17947,17.26,1.6364,0.05,1.9579e-06,19.565,1.5034e-06,11.296,2.7607e-12,4.1851e-05,-1.5034e-06,-11.296,1.3527
17948,17.26,1.9091,0,0.00017208,1719.6,6.2682e-05,0.60751,4.6617e-05,-120.1,-0.0001738,-1776.2,1.353
17949,17.351,1.8182,0,0.0001611,1609.9,5.8605e-05,0.57736,4.3781e-05,-110.8,-0.00016269,-1662.1,1.3655
17950,17.26,1.8182,0.05,2.2947e-06,22.931,1.7621e-06,13.239,2.6583e-12,1.9281e-05,-1.7621e-06,-13.239,1.3529
17951,17.26,2.0909,0,0.00018291,1827.8,6.7608e-05,0.47733,4.7771e-05,-148.56,-0.00018497,-1897.3,1.3532
17952,17.351,2,0,0.00017079,1706.7,6.3308e-05,0.42401,4.4277e-05,-142.56,-0.00017275,-1773.2,1.3657
17953,17.26,2,0.05,2.6509e-06,26.491,2.0356e-06,15.294,3.5592e-12,1.842e-05,-2.0356e-06,-15.295,1.3531
17954,17.26,2.2727,0,0.00019293,1928,7.1703e-05,0.41681,4.9675e-05,-165.1,-0.0001952,-2005,1.3533
17955,17.351,2.1818,0,0.00018006,1799.3,6.7435e-05,0.36287,4.5424e-05,-165.02,-0.00018229,-1876,1.3659
17956,17.26,2.1818,0.05,2.9969e-06,29.948,2.3012e-06,17.291,3.7062e-12,1.2609e-05,-2.3013e-06,-17.291,1.3533
17957,17.26,2.4545,0,0.00020147,2013.4,7.4776e-05,0.4199,5.206e-05,-170.26,-0.00020382,-2092.8,1.3535
17958,17.351,2.3636,0,0.00018839,1882.6,7.0731e-05,0.35093,4.72e-05,-176.45,-0.00019076,-1964.4,1.366
17959,17.26,2.3636,0.05,3.2963e-06,32.94,2.5311e-06,19.018,2.9382e-12,4.0575e-06,-2.5311e-06,-19.018,1.3534
17960,17.26,2.6364,0,0.00020793,2077.9,7.6828e-05,0.46971,5.4352e-05,-168.4,-0.00021027,-2156.7,1.3536
17961,17.351,2.5455,0,0.00019516,1950.3,7.3108e-05,0.39424,4.9207e-05,-179.19,-0.00019758,-2033.5,1.3661
17962,17.26,2.5455,0.05,3.5102e-06,35.077,2.6954e-06,20.252,2.2856e-12,-2.4644e-06,-2.6954e-06,-20.252,1.3535
17963,17.26,2.8182,0,0.00021191,2117.6,7.7974e-05,0.50147,5.5977e-05,-164.77,-0.00021422,-2194.9,1.3536
17964,17.351,2.7273,0,0.0001999,1997.6,7.4605e-05,0.43642,5.0908e-05,-177.62,-0.00020232,-2080.3,1.3661
17965,17.26,2.7273,0.05,3.628e-06,36.255,2.7858e-06,20.932,2.2455e-12,-9.2701e-06,-2.7858e-06,-20.932,1.3536
17966,17.26,3,0,0.00021325,2131,7.8339e-05,0.50858,5.6561e-05,-163.13,-0.00021554,-2207.6,1.3536
17967,17.351,2.9091,0,0.00020232,2021.8,7.5318e-05,0.45458,5.187e-05,-175.73,-0.00020473,-2103.7,1.3662
17968,17.26,2.9091,0.05,3.6742e-06,36.717,2.8213e-06,21.198,4.0153e-12,-4.8008e-06,-2.8213e-06,-21.198,1.3536
17969,17.26,3.1818,0,0.00021191,2117.6,7.7974e-05,0.50147,5.5977e-05,-164.77,-0.00021422,-2194.9,1.3536
17970,17.351,3.0909,0,0.00020232,2021.8,7.5318e-05,0.45458,5.187e-05,-175.73,-0.00020473,-2103.7,1.3662
17971,17.26,3.0909,0.05,3.6742e-06,36.717,2.8213e-06,21.198,6.0014e-12,1.1062e-06,-2.8213e-06,-21.199,1.3536
17972,17.26,3.3636,0,0.00020793,2077.9,7.6828e-05,0.46971,5.4352e-05,-168.4,-0.00021027,-2156.7,1.3536
17973,17.351,3.2727,0,0.0001999,1997.6,7.4605e-05,0.43642,5.0908e-05,-177.62,-0.00020232,-2080.3,1.3661
17974,17.26,3.2727,0.05,3.628e-06,36.255,2.7858e-06,20.932,7.0098e-12,8.3313e-06,-2.7858e-06,-20.932,1.3536
17975,17.26,3.5455,0,0.00020147,2013.4,7.4776e-05,0.4199,5.206e-05,-170.26,-0.00020382,-2092.8,1.3535
17976,17.351,3.4545,0,0.00019516,1950.3,7.3108e-05,0.39424,4.9207e-05,-179.19,-0.00019758,-2033.5,1.3661
17977,17.26,3.4545,0.05,3.5102e-06,35.077,2.6954e-06,20.252,7.815e-12,9.0409e-06,-2.6954e-06,-20.252,1.3535
17978,17.26,3.7273,0,0.00019293,1928,7.1703e-05,0.41681,4.9675e-05,-165.1,-0.0001952,-2005,1.3533
17979,17.351,3.6364,0,0.00018839,1882.6,7.0731e-05,0.35093,4.72e-05,-176.45,-0.00019076,-1964.4,1.366
17980,17.26,3.6364,0.05,3.2963e-06,32.94,2.5311e-06,19.018,7.877e-12,9.5124e-06,-2.5312e-06,-19.018,1.3534
17981,17.26,3.9091,0,0.00018291,1827.8,6.7608e-05,0.47733,4.7771e-05,-148.56,-0.00018497,-1897.3,1.3532
17982,17.351,3.8182,0,0.00018006,1799.3,6.7435e-05,0.36288,4.5424e-05,-165.02,-0.00018229,-1876,1.3659
17983,17.26,3.8182,0.05,2.9969e-06,29.948,2.3012e-06,17.291,6.4822e-12,-1.7818e-06,-2.3013e-06,-17.291,1.3533
17984,17.26,4.0909,0,0.00017208,1719.6,6.2682e-05,0.60751,4.6617e-05,-120.1,-0.0001738,-1776.2,1.353
17985,17.351,4,0,0.00017079,1706.7,6.3308e-05,0.42401,4.4277e-05,-142.56,-0.00017275,-1773.2,1.3657
17986,17.26,4,0.05,2.6509e-06,26.491,2.0356e-06,15.294,3.7769e-12,-1.9432e-05,-2.0356e-06,-15.295,1.3531
17987,17.26,4.2727,0,0.00016099,1608.7,5.7312e-05,0.9415,4.5998e-05,-84.07,-0.00016223,-1648.6,1.3528
17988,17.351,4.1818,0,0.0001611,1609.9,5.8606e-05,0.57736,4.3781e-05,-110.8,-0.00016269,-1662.1,1.3655
17989,17.26,4.1818,0.05,2.2947e-06,22.931,1.7621e-06,13.239,-9.992e-13,-5.4158e-05,-1.7621e-06,-13.239,1.3529
17990,17.26,4.4545,0,0.00014994,1498.4,5.1976e-05,1.7297,4.5376e-05,-47.86,-0.00015067,-1520.8,1.3526
17991,17.351,4.3636,0,0.00015136,1512.6,5.37e-05,0.91452,4.3579e-05,-75.127,-0.00015248,-1548.2,1.3653
17992,17.26,4.3636,0.05,1.9579e-06,19.565,1.5034e-06,11.296,-7.179e-12,-7.7186e-05,-1.5034e-06,-11.296,1.3527
17993,17.26,4.6364,0,0.00013918,1390.9,4.7214e-05,4.1935,4.4136e-05,-18.929,-0.00013942,-1398.1,1.3523
17994,17.351,4.5455,0,0.00014177,1416.7,4.8979e-05,1.6109,4.3185e-05,-41.921,-0.00014241,-1436.4,1.3651
17995,17.26,4.5455,0.05,1.6862e-06,16.85,1.2948e-06,9.7286,-9.744e-12,-0.00011276,-1.2948e-06,-9.7286,1.3524
17996,17.26,4.8182,0,0.00012897,1288.8,4.394e-05,13.422,4.1452e-05,-5.276,-0.00012882,-1284.7,1.3521
17997,17.351,4.7273,0,0.00013253,1324.4,4.4859e-05,3.762,4.2173e-05,-16.422,-0.00013274,-1330.6,1.3648
17998,17.26,4.7273,0.05,1.5167e-06,15.157,1.1647e-06,8.7507,-1.2427e-11,-0.00011466,-1.1646e-06,-8.7507,1.3522
17999,17.26,5,0,0.00011961,1195.3,4.1675e-05,25.05,3.8026e-05,-2.3613,-0.0001192,-1183.7,1.3518
18000,17.351,4.9091,0,0.0001239,1238.2,4.21e-05,11.899,3.9922e-05,-4.4627,-0.00012377,-1234.4,1.3646
18001,17.26,4.9091,0.05,1.4428e-06,14.418,1.1079e-06,8.3245,-9.5168e-12,-8.9326e-05,-1.1079e-06,-8.3245,1.3519
18002,17.26,5.1818,0,0.00011141,1113.3,3.9509e-05,32.157,3.5038e-05,-1.438,-0.00011084,-1097.5,1.3514
18003,17.351,5.0909,0,0.00011615,1160.7,4.0305e-05,22.604,3.7044e-05,-1.8978,-0.00011578,-1150.1,1.3643
18004,17.26,5.0909,0.05,1.4237e-06,14.227,1.0932e-06,8.2139,-6.7949e-12,-6.4737e-05,-1.0932e-06,-8.2139,1.3516
18005,17.26,5.3636,0,0.00010458,1045,3.7487e-05,35.259,3.2669e-05,-0.94037,-0.00010394,-1027.4,1.3511
18006,17.351,5.2727,0,0.0001095,1094.3,3.8663e-05,29.735,3.4561e-05,-1.0835,-0.00010898,-1079.6,1.364
18007,17.26,5.2727,0.05,1.4245e-06,14.235,1.0938e-06,8.2184,-4.8792e-12,-4.0531e-05,-1.0938e-06,-8.2184,1.3513
18008,17.26,5.5455,0,9.9258e-05,991.89,3.5736e-05,35.52,3.0929e-05,-0.59917,-9.8615e-05,-973.94,1.3507
18009,17.351,5.4545,0,0.00010411,1040.4,3.7153e-05,33.237,3.2644e-05,-0.64712,-0.00010352,-1023.7,1.3636
18010,17.26,5.4545,0.05,1.4297e-06,14.288,1.0979e-06,8.249,-1.9751e-12,-1.9498e-05,-1.0979e-06,-8.2489,1.3509
18011,17.26,5.7273,0,9.5637e-05,955.71,3.4429e-05,34.337,2.9818e-05,-0.31224,-9.5011e-05,-938.23,1.3504
18012,17.351,5.6364,0,0.00010005,999.76,3.5815e-05,33.451,3.1311e-05,-0.38801,-9.944e-05,-982.8,1.3633
18013,17.26,5.6364,0.05,1.4682e-06,14.672,1.1274e-06,8.4708,-7.8453e-13,-6.7131e-06,-1.1274e-06,-8.4708,1.3505
18014,17.351,5.8182,0,9.7548e-05,974.81,3.4848e-05,31.891,3.0589e-05,-0.10468,-9.6968e-05,-958.52,1.3629
18015,17.26,5.8182,0.05,2.0617e-06,20.603,1.5831e-06,11.895,-1.4151e-13,2.7956e-06,-1.5831e-06,-11.895,1.3502
18016,17.26,5.9091,0,9.1825e-05,917.62,3.1898e-05,19.192,2.9352e-05,0.059469,-9.1483e-05,-907.84,1.35
18017,17.442,0.27273,0,0.00010201,1019.3,3.6278e-05,31.339,3.2081e-05,-0.19398,-0.00010144,-1003.4,1.3758
18018,17.533,0.18182,0,0.00010318,1031.1,3.6435e-05,28.65,3.2616e-05,-0.044052,-0.00010266,-1016.5,1.3883
18019,17.442,0.18182,0.05,1.6838e-06,16.827,1.293e-06,9.7149,-1.4706e-14,3.7366e-06,-1.293e-06,-9.7149,1.3756
18020,17.442,0.090909,0,9.8757e-05,986.89,3.4061e-05,17.685,3.1714e-05,0.051103,-9.8443e-05,-977.9,1.3754
18021,17.442,0.45455,0,0.00010498,1049.1,3.7296e-05,31.652,3.3027e-05,-0.42397,-0.00010441,-1033.1,1.3762
18022,17.533,0.36364,0,0.00010528,1052.1,3.7271e-05,30.238,3.321e-05,-0.2762,-0.00010474,-1036.7,1.3887
18023,17.442,0.36364,0.05,1.1073e-06,11.065,8.5027e-07,6.3886,-4.0396e-13,2.695e-06,-8.5027e-07,-6.3886,1.376
18024,17.442,0.63636,0,0.00010917,1091,3.8437e-05,28.524,3.4541e-05,-0.74622,-0.00010867,-1076.8,1.3765
18025,17.533,0.54545,0,0.00010853,1084.6,3.8208e-05,28.449,3.4357e-05,-0.48137,-0.00010803,-1070.3,1.3891
18026,17.442,0.54545,0.05,1.0705e-06,10.697,8.2198e-07,6.1761,-3.7859e-13,-2.8945e-07,-8.2198e-07,-6.1761,1.3763
18027,17.442,0.81818,0,0.00011443,1143.5,3.9606e-05,21.29,3.6584e-05,-1.4137,-0.00011408,-1133.4,1.3768
18028,17.533,0.72727,0,0.00011272,1126.4,3.9092e-05,22.185,3.6013e-05,-0.94886,-0.00011234,-1115.6,1.3894
18029,17.442,0.72727,0.05,1.0733e-06,10.725,8.2413e-07,6.1922,-4.4958e-13,-3.8055e-06,-8.2413e-07,-6.1922,1.3766
18030,17.442,1,0,0.00012067,1205.9,4.0886e-05,10.624,3.8989e-05,-3.6279,-0.00012054,-1202.3,1.3771
18031,17.533,0.90909,0,0.00011779,1177.1,3.9994e-05,12.088,3.8073e-05,-2.3405,-0.00011762,-1172.1,1.3897
18032,17.442,0.90909,0.05,1.0928e-06,10.92,8.3912e-07,6.3048,-1.911e-13,-3.5564e-06,-8.3912e-07,-6.3048,1.3769
18033,17.442,1.1818,0,0.00012772,1276.3,4.3136e-05,3.1145,4.0754e-05,-14.783,-0.00012791,-1282,1.3774
18034,17.533,1.0909,0,0.00012363,1235.5,4.1594e-05,3.4018,3.9765e-05,-10.334,-0.00012375,-1238.9,1.3899
18035,17.442,1.0909,0.05,1.1473e-06,11.465,8.8096e-07,6.6192,-4.8943e-13,-5.6565e-06,-8.8096e-07,-6.6192,1.3772
18036,17.442,1.3636,0,0.00013537,1352.7,4.6649e-05,1.3624,4.1423e-05,-37.904,-0.00013595,-1370.6,1.3776
18037,17.533,1.2727,0,0.0001301,1300.1,4.4547e-05,1.3448,4.0305e-05,-30.531,-0.00013056,-1314.4,1.3902
18038,17.442,1.2727,0.05,1.2608e-06,12.599,9.6811e-07,7.274,-1.6366e-13,-1.0315e-06,-9.6811e-07,-7.274,1.3775
18039,17.442,1.5455,0,0.00014341,1433.1,5.0703e-05,0.79908,4.1594e-05,-67.642,-0.00014443,-1465.3,1.3779
18040,17.533,1.4545,0,0.00013699,1369,4.8091e-05,0.78492,4.0332e-05,-57.506,-0.00013786,-1396.4,1.3904
18041,17.442,1.4545,0.05,1.4453e-06,14.443,1.1098e-06,8.3388,9.6986e-13,7.1738e-06,-1.1098e-06,-8.3388,1.3777
18042,17.442,1.7273,0,0.00015167,1515.6,5.4989e-05,0.52285,4.1542e-05,-100.51,-0.00015312,-1563.1,1.3781
18043,17.533,1.6364,0,0.00014415,1440.5,5.1927e-05,0.52477,4.0082e-05,-88.471,-0.00014544,-1482.4,1.3906
18044,17.442,1.6364,0.05,1.689e-06,16.878,1.2969e-06,9.7446,3.0641e-12,1.8251e-05,-1.2969e-06,-9.7447,1.3779
18045,17.442,1.9091,0,0.00015995,1598.4,5.9228e-05,0.36337,4.1584e-05,-132.21,-0.00016178,-1660.2,1.3782
18046,17.533,1.8182,0,0.00015141,1513.1,5.583e-05,0.37445,3.9791e-05,-120.14,-0.00015309,-1569.4,1.3908
18047,17.442,1.8182,0.05,1.9636e-06,19.622,1.5078e-06,11.329,4.3832e-12,1.7339e-05,-1.5078e-06,-11.329,1.3781
18048,17.442,2.0909,0,0.00016803,1679.2,6.3132e-05,0.28516,4.2021e-05,-158.34,-0.00017016,-1752.6,1.3784
18049,17.533,2,0,0.00015862,1585.1,5.9554e-05,0.28538,3.9746e-05,-148.54,-0.00016062,-1654,1.391
18050,17.442,2,0.05,2.2447e-06,22.431,1.7236e-06,12.951,4.0459e-12,1.6696e-05,-1.7236e-06,-12.951,1.3783
18051,17.442,2.2727,0,0.00017555,1754.3,6.6461e-05,0.28247,4.2974e-05,-176.19,-0.00017787,-1835.5,1.3785
18052,17.533,2.1818,0,0.00016552,1654.1,6.2867e-05,0.25437,4.0153e-05,-170.4,-0.00016776,-1732.6,1.3911
18053,17.442,2.1818,0.05,2.5164e-06,25.147,1.9323e-06,14.518,4.259e-12,2.5102e-05,-1.9323e-06,-14.519,1.3784
18054,17.442,2.4545,0,0.00018203,1819,6.9062e-05,0.32009,4.4295e-05,-185.77,-0.00018447,-1904.6,1.3786
18055,17.533,2.3636,0,0.00017175,1716.3,6.559e-05,0.27064,4.1007e-05,-184.44,-0.00017414,-1801,1.3912
18056,17.442,2.3636,0.05,2.761e-06,27.591,2.1201e-06,15.93,3.5993e-12,1.1092e-05,-2.1201e-06,-15.93,1.3786
18057,17.442,2.6364,0,0.00018702,1868.9,7.0885e-05,0.3608,4.5641e-05,-189.31,-0.00018951,-1956.1,1.3787
18058,17.533,2.5455,0,0.00017688,1767.6,6.7631e-05,0.30361,4.2083e-05,-191.65,-0.00017935,-1855.4,1.3913
18059,17.442,2.5455,0.05,2.9553e-06,29.532,2.2693e-06,17.05,3.5777e-12,6.1491e-06,-2.2693e-06,-17.051,1.3787
18060,17.442,2.8182,0,0.00019015,1900.2,7.1949e-05,0.39016,4.6633e-05,-189.83,-0.00019266,-1987.8,1.3788
18061,17.533,2.7273,0,0.00018053,1804,6.8969e-05,0.33516,4.3054e-05,-194.38,-0.00018304,-1893.1,1.3914
18062,17.442,2.7273,0.05,3.0842e-06,30.821,2.3683e-06,17.794,3.9944e-12,3.2088e-06,-2.3683e-06,-17.795,1.3787
18063,17.442,3,0,0.00019122,1910.9,7.2298e-05,0.40084,4.6996e-05,-189.7,-0.00019373,-1998.4,1.3788
18064,17.533,2.9091,0,0.00018241,1822.9,6.9627e-05,0.35386,4.3624e-05,-195.03,-0.00018494,-1912.4,1.3914
18065,17.442,2.9091,0.05,3.1464e-06,31.442,2.416e-06,18.153,4.6288e-12,3.9986e-06,-2.416e-06,-18.153,1.3787
18066,17.442,3.1818,0,0.00019015,1900.2,7.1949e-05,0.39016,4.6633e-05,-189.83,-0.00019266,-1987.8,1.3788
18067,17.533,3.0909,0,0.00018241,1822.9,6.9627e-05,0.35385,4.3624e-05,-195.03,-0.00018494,-1912.4,1.3914
18068,17.442,3.0909,0.05,3.1464e-06,31.442,2.416e-06,18.153,6.3015e-12,7.5714e-06,-2.416e-06,-18.153,1.3787
18069,17.442,3.3636,0,0.00018702,1868.9,7.0885e-05,0.3608,4.5641e-05,-189.31,-0.00018951,-1956.1,1.3787
18070,17.533,3.2727,0,0.00018053,1804,6.8969e-05,0.33516,4.3054e-05,-194.38,-0.00018304,-1893.1,1.3914
18071,17.442,3.2727,0.05,3.0842e-06,30.821,2.3683e-06,17.794,7.0831e-12,1.1423e-05,-2.3683e-06,-17.795,1.3787
18072,17.442,3.5455,0,0.00018203,1819,6.9062e-05,0.32008,4.4295e-05,-185.77,-0.00018447,-1904.6,1.3786
18073,17.533,3.4545,0,0.00017688,1767.6,6.7631e-05,0.30361,4.2083e-05,-191.65,-0.00017935,-1855.4,1.3913
18074,17.442,3.4545,0.05,2.9553e-06,29.532,2.2693e-06,17.05,8.3317e-12,1.1255e-05,-2.2693e-06,-17.051,1.3787
18075,17.442,3.7273,0,0.00017555,1754.3,6.6461e-05,0.28247,4.2974e-05,-176.19,-0.00017787,-1835.5,1.3785
18076,17.533,3.6364,0,0.00017175,1716.3,6.559e-05,0.27064,4.1007e-05,-184.44,-0.00017414,-1801,1.3912
18077,17.442,3.6364,0.05,2.761e-06,27.591,2.1201e-06,15.93,6.9871e-12,8.9674e-06,-2.1201e-06,-15.93,1.3786
18078,17.442,3.9091,0,0.00016803,1679.2,6.3132e-05,0.28516,4.2021e-05,-158.34,-0.00017016,-1752.6,1.3784
18079,17.533,3.8182,0,0.00016552,1654.1,6.2867e-05,0.25437,4.0153e-05,-170.4,-0.00016776,-1732.6,1.3911
18080,17.442,3.8182,0.05,2.5164e-06,25.147,1.9323e-06,14.518,6.1096e-12,-4.8566e-06,-1.9323e-06,-14.519,1.3784
18081,17.442,4.0909,0,0.00015995,1598.4,5.9228e-05,0.36337,4.1584e-05,-132.21,-0.00016178,-1660.2,1.3782
18082,17.533,4,0,0.00015862,1585.1,5.9554e-05,0.28538,3.9746e-05,-148.54,-0.00016062,-1654,1.391
18083,17.442,4,0.05,2.2447e-06,22.431,1.7236e-06,12.95,3.2116e-12,-7.5706e-06,-1.7236e-06,-12.951,1.3783
18084,17.442,4.2727,0,0.00015167,1515.6,5.4989e-05,0.52285,4.1542e-05,-100.51,-0.00015312,-1563.1,1.3781
18085,17.533,4.1818,0,0.00015141,1513.1,5.583e-05,0.37445,3.9791e-05,-120.14,-0.00015309,-1569.4,1.3908
18086,17.442,4.1818,0.05,1.9636e-06,19.622,1.5078e-06,11.329,2.7195e-14,-3.9319e-05,-1.5078e-06,-11.329,1.3781
18087,17.442,4.4545,0,0.00014341,1433.1,5.0703e-05,0.79908,4.1594e-05,-67.642,-0.00014443,-1465.3,1.3779
18088,17.533,4.3636,0,0.00014415,1440.5,5.1927e-05,0.52477,4.0082e-05,-88.471,-0.00014544,-1482.4,1.3906
18089,17.442,4.3636,0.05,1.689e-06,16.878,1.2969e-06,9.7446,-3.1618e-12,-4.3418e-05,-1.2969e-06,-9.7447,1.3779
18090,17.442,4.6364,0,0.00013537,1352.7,4.6649e-05,1.3624,4.1423e-05,-37.904,-0.00013595,-1370.6,1.3776
18091,17.533,4.5455,0,0.00013699,1369,4.8091e-05,0.78493,4.0332e-05,-57.506,-0.00013786,-1396.4,1.3904
18092,17.442,4.5455,0.05,1.4453e-06,14.443,1.1098e-06,8.3388,-4.6651e-12,-8.7446e-05,-1.1098e-06,-8.3388,1.3777
18093,17.442,4.8182,0,0.00012772,1276.3,4.3136e-05,3.1145,4.0754e-05,-14.783,-0.00012791,-1282,1.3774
18094,17.533,4.7273,0,0.0001301,1300.1,4.4547e-05,1.3448,4.0305e-05,-30.531,-0.00013056,-1314.4,1.3902
18095,17.442,4.7273,0.05,1.2608e-06,12.599,9.6812e-07,7.274,-9.7134e-12,-8.0853e-05,-9.6811e-07,-7.274,1.3775
18096,17.442,5,0,0.00012067,1205.9,4.0886e-05,10.624,3.8989e-05,-3.6279,-0.00012054,-1202.3,1.3771
18097,17.533,4.9091,0,0.00012363,1235.5,4.1594e-05,3.4019,3.9765e-05,-10.334,-0.00012375,-1238.9,1.3899
18098,17.442,4.9091,0.05,1.1473e-06,11.465,8.8096e-07,6.6192,-9.7995e-12,-9.6205e-05,-8.8095e-07,-6.6192,1.3772
18099,17.442,5.1818,0,0.00011443,1143.5,3.9606e-05,21.29,3.6584e-05,-1.4137,-0.00011408,-1133.4,1.3768
18100,17.533,5.0909,0,0.00011779,1177.1,3.9994e-05,12.088,3.8073e-05,-2.3405,-0.00011762,-1172.1,1.3897
18101,17.442,5.0909,0.05,1.0928e-06,10.92,8.3912e-07,6.3048,-7.3794e-12,-6.9169e-05,-8.3912e-07,-6.3048,1.3769
18102,17.442,5.3636,0,0.00010917,1091,3.8437e-05,28.524,3.4541e-05,-0.74622,-0.00010867,-1076.8,1.3765
18103,17.533,5.2727,0,0.00011272,1126.4,3.9092e-05,22.185,3.6013e-05,-0.94886,-0.00011234,-1115.6,1.3894
18104,17.442,5.2727,0.05,1.0733e-06,10.725,8.2413e-07,6.1922,-4.719e-12,-4.6358e-05,-8.2413e-07,-6.1922,1.3766
18105,17.442,5.5455,0,0.00010498,1049.1,3.7296e-05,31.652,3.3027e-05,-0.42396,-0.00010441,-1033.1,1.3762
18106,17.533,5.4545,0,0.00010853,1084.6,3.8208e-05,28.449,3.4357e-05,-0.48137,-0.00010803,-1070.3,1.3891
18107,17.442,5.4545,0.05,1.0705e-06,10.697,8.2198e-07,6.1761,-2.7413e-12,-2.2742e-05,-8.2198e-07,-6.1761,1.3763
18108,17.442,5.7273,0,0.00010201,1019.3,3.6278e-05,31.339,3.2081e-05,-0.19397,-0.00010144,-1003.4,1.3758
18109,17.533,5.6364,0,0.00010528,1052.1,3.7271e-05,30.238,3.321e-05,-0.2762,-0.00010474,-1036.7,1.3887
18110,17.442,5.6364,0.05,1.1073e-06,11.065,8.5027e-07,6.3886,-9.1376e-13,-6.4609e-06,-8.5027e-07,-6.3886,1.376
18111,17.533,5.8182,0,0.00010318,1031.1,3.6435e-05,28.65,3.2616e-05,-0.04405,-0.00010266,-1016.5,1.3883
18112,17.442,5.8182,0.05,1.6838e-06,16.827,1.293e-06,9.7149,-9.817e-14,2.6903e-06,-1.293e-06,-9.7149,1.3756
18113,17.442,5.9091,0,9.8757e-05,986.89,3.4061e-05,17.685,3.1714e-05,0.051103,-9.8443e-05,-977.9,1.3754
18114,17.624,0.27273,0,0.00010648,1064.1,3.7457e-05,27.766,3.3744e-05,-0.13006,-0.00010599,-1050,1.4013
18115,17.715,0.18182,0,0.00010704,1069.7,3.7426e-05,25.235,3.4065e-05,-0.019166,-0.00010659,-1056.9,1.4139
18116,17.624,0.18182,0.05,1.3409e-06,13.4,1.0297e-06,7.7366,-4.5293e-13,4.7583e-06,-1.0297e-06,-7.7366,1.4011
18117,17.624,0.090909,0,0.00010376,1036.9,3.5563e-05,15.888,3.3455e-05,0.048069,-0.00010348,-1028.8,1.4009
18118,17.624,0.45455,0,0.00010888,1088.1,3.8222e-05,27.332,3.4543e-05,-0.31179,-0.0001084,-1074.3,1.4016
18119,17.715,0.36364,0,0.00010876,1086.8,3.8101e-05,26.436,3.4555e-05,-0.20541,-0.00010829,-1073.5,1.4142
18120,17.624,0.36364,0.05,7.9097e-07,7.9042,6.0736e-07,4.5635,-6.8123e-13,1.0406e-06,-6.0737e-07,-4.5635,1.4014
18121,17.624,0.63636,0,0.00011216,1120.8,3.8921e-05,22.545,3.5839e-05,-0.60911,-0.00011177,-1109.7,1.402
18122,17.715,0.54545,0,0.00011133,1112.5,3.8721e-05,23.601,3.5531e-05,-0.37075,-0.00011091,-1100.7,1.4146
18123,17.624,0.54545,0.05,7.674e-07,7.6687,5.8927e-07,4.4276,8.0731e-14,-4.0223e-06,-5.8927e-07,-4.4275,1.4018
18124,17.624,0.81818,0,0.00011618,1161,3.9523e-05,13.309,3.7554e-05,-1.4882,-0.00011597,-1155,1.4023
18125,17.715,0.72727,0,0.00011454,1144.6,3.9169e-05,15.917,3.6935e-05,-0.86941,-0.00011428,-1137,1.4149
18126,17.624,0.72727,0.05,7.9398e-07,7.9343,6.0968e-07,4.5809,-9.0255e-13,2.7515e-07,-6.0968e-07,-4.5809,1.4021
18127,17.624,1,0,0.00012088,1208,4.0543e-05,3.68,3.9124e-05,-6.9818,-0.00012094,-1209.6,1.4025
18128,17.715,0.90909,0,0.00011837,1182.9,3.9689e-05,5.4361,3.8502e-05,-3.4831,-0.00011834,-1181.9,1.4151
18129,17.624,0.90909,0.05,8.4897e-07,8.4839,6.5191e-07,4.8982,-5.2107e-13,-9.0038e-06,-6.5191e-07,-4.8982,1.4024
18130,17.624,1.1818,0,0.00012616,1260.7,4.2954e-05,1.2543,3.9496e-05,-24.73,-0.00012653,-1272.2,1.4028
18131,17.715,1.0909,0,0.00012275,1226.6,4.1476e-05,1.3757,3.8986e-05,-17.337,-0.00012301,-1234.5,1.4154
18132,17.624,1.0909,0.05,9.4358e-07,9.4293,7.2455e-07,5.444,4.7619e-13,1.143e-05,-7.2455e-07,-5.444,1.4026
18133,17.624,1.3636,0,0.00013186,1317.7,4.5982e-05,0.71811,3.9352e-05,-49.098,-0.00013261,-1341.2,1.403
18134,17.715,1.2727,0,0.00012755,1274.6,4.4077e-05,0.71979,3.8768e-05,-39.172,-0.00012816,-1293.4,1.4156
18135,17.624,1.2727,0.05,1.0858e-06,10.85,8.3373e-07,6.2643,2.3699e-12,5.5852e-06,-8.3373e-07,-6.2643,1.4029
18136,17.624,1.5455,0,0.00013785,1377.6,4.9311e-05,0.48849,3.8947e-05,-77.387,-0.000139,-1414.4,1.4032
18137,17.715,1.4545,0,0.00013267,1325.8,4.7014e-05,0.48218,3.8264e-05,-65.26,-0.00013365,-1357,1.4158
18138,17.624,1.4545,0.05,1.2719e-06,12.71,9.7666e-07,7.3382,1.921e-12,1.5822e-05,-9.7666e-07,-7.3382,1.4031
18139,17.624,1.7273,0,0.000144,1439.1,5.2765e-05,0.35819,3.8442e-05,-107.26,-0.00014552,-1489.5,1.4034
18140,17.715,1.6364,0,0.00013798,1378.9,5.0129e-05,0.35422,3.7604e-05,-93.755,-0.00013933,-1423.2,1.416
18141,17.624,1.6364,0.05,1.4877e-06,14.867,1.1424e-06,8.5832,2.9818e-12,2.4879e-05,-1.1424e-06,-8.5832,1.4033
18142,17.624,1.9091,0,0.00015017,1500.7,5.6155e-05,0.28058,3.8043e-05,-135.8,-0.00015202,-1563.8,1.4036
18143,17.715,1.8182,0,0.00014338,1432.8,5.3265e-05,0.27437,3.6955e-05,-122.27,-0.00014506,-1489.9,1.4162
18144,17.624,1.8182,0.05,1.7159e-06,17.147,1.3176e-06,9.9,4.2651e-12,2.6893e-05,-1.3176e-06,-9.9,1.4035
18145,17.624,2.0909,0,0.00015618,1560.7,5.9287e-05,0.24198,3.794e-05,-160.15,-0.00015828,-1634.5,1.4037
18146,17.715,2,0,0.00014872,1486.2,5.6252e-05,0.22816,3.6503e-05,-148.15,-0.00015068,-1554.6,1.4163
18147,17.624,2,0.05,1.9435e-06,19.422,1.4924e-06,11.213,5.272e-12,2.9105e-05,-1.4924e-06,-11.213,1.4036
18148,17.624,2.2727,0,0.00016176,1616.4,6.1994e-05,0.23415,3.8209e-05,-178.48,-0.00016404,-1698.1,1.4038
18149,17.715,2.1818,0,0.00015382,1537.1,5.8928e-05,0.20995,3.6379e-05,-169.21,-0.00015599,-1614.6,1.4165
18150,17.624,2.1818,0.05,2.1612e-06,21.597,1.6595e-06,12.469,4.3925e-12,2.859e-05,-1.6595e-06,-12.469,1.4038
18151,17.624,2.4545,0,0.00016659,1664.7,6.4158e-05,0.24981,3.8774e-05,-190.48,-0.000169,-1751.6,1.4039
18152,17.715,2.3636,0,0.00015842,1583.1,6.1164e-05,0.21466,3.6591e-05,-184.42,-0.00016074,-1667.1,1.4166
18153,17.624,2.3636,0.05,2.3581e-06,23.564,1.8107e-06,13.605,5.0809e-12,1.7426e-05,-1.8107e-06,-13.605,1.4039
18154,17.624,2.6364,0,0.00017033,1702.1,6.5715e-05,0.27632,3.9433e-05,-197.2,-0.00017282,-1792,1.404
18155,17.715,2.5455,0,0.00016222,1621.1,6.2877e-05,0.23442,3.7017e-05,-194.07,-0.00016464,-1709.3,1.4166
18156,17.624,2.5455,0.05,2.5199e-06,25.182,1.935e-06,14.539,4.6469e-12,1.5466e-05,-1.935e-06,-14.539,1.4039
18157,17.624,2.8182,0,0.0001727,1725.8,6.6647e-05,0.29835,3.9951e-05,-200.29,-0.00017522,-1817,1.404
18158,17.715,2.7273,0,0.00016494,1648.3,6.4025e-05,0.25622,3.7462e-05,-199.33,-0.00016742,-1738.7,1.4167
18159,17.624,2.7273,0.05,2.6335e-06,26.317,2.0222e-06,15.194,5.4453e-12,1.4255e-05,-2.0222e-06,-15.194,1.404
18160,17.624,3,0,0.00017351,1733.9,6.6956e-05,0.30659,4.0145e-05,-201.14,-0.00017604,-1825.5,1.404
18161,17.715,2.9091,0,0.00016636,1662.4,6.4599e-05,0.26964,3.774e-05,-201.54,-0.00016886,-1753.8,1.4167
18162,17.624,2.9091,0.05,2.6916e-06,26.897,2.0668e-06,15.529,5.5912e-12,1.3942e-05,-2.0668e-06,-15.529,1.404
18163,17.624,3.1818,0,0.0001727,1725.8,6.6647e-05,0.29835,3.9951e-05,-200.29,-0.00017522,-1817,1.404
18164,17.715,3.0909,0,0.00016636,1662.4,6.4599e-05,0.26964,3.774e-05,-201.54,-0.00016886,-1753.8,1.4167
18165,17.624,3.0909,0.05,2.6916e-06,26.897,2.0668e-06,15.529,5.8019e-12,1.4789e-05,-2.0668e-06,-15.529,1.404
18166,17.624,3.3636,0,0.00017033,1702.1,6.5715e-05,0.27632,3.9433e-05,-197.2,-0.00017282,-1792,1.404
18167,17.715,3.2727,0,0.00016494,1648.3,6.4025e-05,0.25623,3.7462e-05,-199.33,-0.00016742,-1738.7,1.4167
18168,17.624,3.2727,0.05,2.6335e-06,26.317,2.0222e-06,15.194,6.5144e-12,1.2131e-05,-2.0222e-06,-15.194,1.404
18169,17.624,3.5455,0,0.00016659,1664.7,6.4158e-05,0.24981,3.8774e-05,-190.48,-0.000169,-1751.6,1.4039
18170,17.715,3.4545,0,0.00016222,1621.1,6.2877e-05,0.23442,3.7017e-05,-194.07,-0.00016464,-1709.3,1.4166
18171,17.624,3.4545,0.05,2.5199e-06,25.182,1.935e-06,14.539,6.4727e-12,1.76e-05,-1.935e-06,-14.539,1.4039
18172,17.624,3.7273,0,0.00016176,1616.4,6.1994e-05,0.23415,3.8209e-05,-178.48,-0.00016404,-1698.1,1.4038
18173,17.715,3.6364,0,0.00015842,1583.1,6.1164e-05,0.21466,3.6591e-05,-184.42,-0.00016074,-1667.1,1.4166
18174,17.624,3.6364,0.05,2.3581e-06,23.564,1.8107e-06,13.605,6.1935e-12,1.1957e-05,-1.8107e-06,-13.605,1.4039
18175,17.624,3.9091,0,0.00015618,1560.7,5.9287e-05,0.24198,3.794e-05,-160.15,-0.00015828,-1634.5,1.4037
18176,17.715,3.8182,0,0.00015382,1537.1,5.8928e-05,0.20996,3.6379e-05,-169.21,-0.00015599,-1614.6,1.4165
18177,17.624,3.8182,0.05,2.1612e-06,21.597,1.6595e-06,12.469,4.6377e-12,8.9905e-06,-1.6595e-06,-12.469,1.4038
18178,17.624,4.0909,0,0.00015017,1500.7,5.6155e-05,0.28058,3.8043e-05,-135.8,-0.00015202,-1563.8,1.4036
18179,17.715,4,0,0.00014872,1486.2,5.6252e-05,0.22816,3.6503e-05,-148.15,-0.00015068,-1554.6,1.4163
18180,17.624,4,0.05,1.9435e-06,19.422,1.4924e-06,11.213,3.4938e-12,-9.6593e-06,-1.4924e-06,-11.213,1.4036
18181,17.624,4.2727,0,0.000144,1439.1,5.2765e-05,0.35819,3.8442e-05,-107.26,-0.00014552,-1489.5,1.4034
18182,17.715,4.1818,0,0.00014338,1432.8,5.3265e-05,0.27437,3.6955e-05,-122.27,-0.00014506,-1489.9,1.4162
18183,17.624,4.1818,0.05,1.7159e-06,17.147,1.3176e-06,9.9,1.2282e-14,-1.8029e-05,-1.3176e-06,-9.9001,1.4035
18184,17.624,4.4545,0,0.00013785,1377.6,4.9311e-05,0.48849,3.8947e-05,-77.387,-0.000139,-1414.4,1.4032
18185,17.715,4.3636,0,0.00013798,1378.9,5.0129e-05,0.35422,3.7604e-05,-93.755,-0.00013933,-1423.2,1.416
18186,17.624,4.3636,0.05,1.4877e-06,14.867,1.1424e-06,8.5832,-1.8007e-12,-4.0956e-05,-1.1424e-06,-8.5833,1.4033
18187,17.624,4.6364,0,0.00013186,1317.7,4.5982e-05,0.71811,3.9352e-05,-49.098,-0.00013261,-1341.2,1.403
18188,17.715,4.5455,0,0.00013267,1325.8,4.7014e-05,0.48218,3.8264e-05,-65.26,-0.00013365,-1357,1.4158
18189,17.624,4.5455,0.05,1.2719e-06,12.71,9.7666e-07,7.3382,-5.4947e-12,-6.5856e-05,-9.7666e-07,-7.3382,1.4031
18190,17.624,4.8182,0,0.00012616,1260.7,4.2954e-05,1.2543,3.9496e-05,-24.73,-0.00012653,-1272.2,1.4028
18191,17.715,4.7273,0,0.00012755,1274.6,4.4077e-05,0.71979,3.8768e-05,-39.172,-0.00012816,-1293.4,1.4156
18192,17.624,4.7273,0.05,1.0858e-06,10.85,8.3373e-07,6.2643,-5.1522e-12,-5.9109e-05,-8.3373e-07,-6.2643,1.4029
18193,17.624,5,0,0.00012088,1208,4.0543e-05,3.6801,3.9124e-05,-6.9817,-0.00012094,-1209.6,1.4025
18194,17.715,4.9091,0,0.00012275,1226.6,4.1476e-05,1.3757,3.8986e-05,-17.337,-0.00012301,-1234.5,1.4154
18195,17.624,4.9091,0.05,9.4358e-07,9.4293,7.2455e-07,5.444,-7.5708e-12,-7.0346e-05,-7.2455e-07,-5.444,1.4026
18196,17.624,5.1818,0,0.00011618,1161,3.9523e-05,13.309,3.7554e-05,-1.4882,-0.00011597,-1155,1.4023
18197,17.715,5.0909,0,0.00011837,1182.9,3.9689e-05,5.4361,3.8502e-05,-3.483,-0.00011834,-1181.9,1.4151
18198,17.624,5.0909,0.05,8.4897e-07,8.4839,6.5191e-07,4.8982,-7.9483e-12,-3.9381e-05,-6.519e-07,-4.8982,1.4024
18199,17.624,5.3636,0,0.00011216,1120.8,3.8921e-05,22.545,3.5839e-05,-0.60911,-0.00011177,-1109.7,1.402
18200,17.715,5.2727,0,0.00011454,1144.6,3.9169e-05,15.917,3.6935e-05,-0.86941,-0.00011428,-1137,1.4149
18201,17.624,5.2727,0.05,7.9398e-07,7.9343,6.0968e-07,4.5809,-4.9168e-12,-3.9139e-05,-6.0968e-07,-4.5809,1.4021
18202,17.624,5.5455,0,0.00010888,1088.1,3.8222e-05,27.332,3.4543e-05,-0.31179,-0.0001084,-1074.3,1.4016
18203,17.715,5.4545,0,0.00011133,1112.5,3.8721e-05,23.601,3.5531e-05,-0.37075,-0.00011091,-1100.7,1.4146
18204,17.624,5.4545,0.05,7.674e-07,7.6687,5.8927e-07,4.4276,-2.3448e-12,-2.5612e-05,-5.8927e-07,-4.4275,1.4018
18205,17.624,5.7273,0,0.00010648,1064.1,3.7457e-05,27.766,3.3744e-05,-0.13006,-0.00010599,-1050,1.4013
18206,17.715,5.6364,0,0.00010876,1086.8,3.8101e-05,26.436,3.4555e-05,-0.20541,-0.00010829,-1073.5,1.4142
18207,17.624,5.6364,0.05,7.9097e-07,7.9042,6.0737e-07,4.5635,-8.1159e-13,-6.0457e-06,-6.0736e-07,-4.5635,1.4014
18208,17.715,5.8182,0,0.00010704,1069.7,3.7426e-05,25.235,3.4065e-05,-0.019167,-0.00010659,-1056.9,1.4139
18209,17.624,5.8182,0.05,1.3409e-06,13.4,1.0297e-06,7.7366,4.0372e-13,3.589e-06,-1.0297e-06,-7.7366,1.4011
18210,17.624,5.9091,0,0.00010376,1036.9,3.5563e-05,15.888,3.3455e-05,0.048069,-0.00010348,-1028.8,1.4009
18211,17.806,0.27273,0,0.00010934,1092.6,3.8087e-05,24.031,3.4876e-05,-0.093501,-0.00010891,-1080.4,1.4268
18212,17.897,0.18182,0,0.0001094,1093.2,3.7929e-05,21.938,3.5008e-05,-0.010279,-0.00010901,-1082.1,1.4395
18213,17.806,0.18182,0.05,1.0401e-06,10.394,7.9866e-07,6.0008,-4.6204e-13,3.8234e-06,-7.9865e-07,-6.0008,1.4266
18214,17.806,0.090909,0,0.00010709,1070.1,3.6508e-05,14.045,3.4645e-05,0.047366,-0.00010684,-1063,1.4265
18215,17.806,0.45455,0,0.00011123,1111.5,3.8623e-05,22.877,3.5547e-05,-0.2373,-0.00011083,-1100,1.4272
18216,17.897,0.36364,0,0.00011075,1106.7,3.8426e-05,22.469,3.5414e-05,-0.1568,-0.00011035,-1095.4,1.4398
18217,17.806,0.36364,0.05,5.23e-07,5.2264,4.016e-07,3.0174,1.4208e-13,3.5404e-06,-4.016e-07,-3.0174,1.427
18218,17.806,0.63636,0,0.00011375,1136.8,3.8995e-05,17.162,3.6642e-05,-0.51905,-0.00011346,-1128.3,1.4275
18219,17.897,0.54545,0,0.00011274,1126.6,3.8793e-05,18.903,3.6238e-05,-0.29642,-0.00011241,-1117.2,1.4401
18220,17.806,0.54545,0.05,5.256e-07,5.2523,4.0359e-07,3.0325,6.6237e-15,1.1592e-05,-4.0359e-07,-3.0324,1.4273
18221,17.806,0.81818,0,0.00011679,1167.1,3.9246e-05,7.3736,3.8027e-05,-1.7866,-0.0001167,-1164.3,1.4278
18222,17.897,0.72727,0,0.00011517,1150.9,3.8938e-05,10.643,3.7407e-05,-0.8593,-0.000115,-1146,1.4404
18223,17.806,0.72727,0.05,5.8835e-07,5.8794,4.5178e-07,3.3945,-1.0503e-12,-6.4605e-06,-4.5178e-07,-3.3945,1.4276
18224,17.806,1,0,0.00012031,1202.2,4.0403e-05,1.4895,3.8648e-05,-11.7,-0.00012047,-1207.3,1.428
18225,17.897,0.90909,0,0.00011804,1179.5,3.9425e-05,2.1659,3.8349e-05,-5.9186,-0.0001181,-1181.4,1.4407
18226,17.806,0.90909,0.05,6.8318e-07,6.8271,5.246e-07,3.9416,3.6305e-13,-3.4482e-06,-5.2459e-07,-3.9416,1.4279
18227,17.806,1.1818,0,0.00012422,1241.3,4.2579e-05,0.68798,3.8351e-05,-31.077,-0.0001247,-1256.2,1.4283
18228,17.897,1.0909,0,0.00012127,1211.9,4.1184e-05,0.73563,3.8109e-05,-22.369,-0.00012162,-1222.5,1.4409
18229,17.806,1.0909,0.05,8.0975e-07,8.0919,6.2178e-07,4.6718,4.5936e-13,3.8159e-06,-6.2179e-07,-4.6719,1.4281
18230,17.806,1.3636,0,0.00012844,1283.5,4.5105e-05,0.45066,3.7759e-05,-54.738,-0.00012927,-1309.8,1.4285
18231,17.897,1.2727,0,0.00012482,1247.3,4.3376e-05,0.45142,3.749e-05,-43.769,-0.00012549,-1268.4,1.4412
18232,17.806,1.2727,0.05,9.6546e-07,9.6479,7.4135e-07,5.5702,1.4795e-12,1.2249e-05,-7.4135e-07,-5.5702,1.4284
18233,17.806,1.5455,0,0.00013287,1327.8,4.783e-05,0.33205,3.6996e-05,-81.072,-0.00013406,-1366.3,1.4287
18234,17.897,1.4545,0,0.00012858,1284.9,4.5795e-05,0.32807,3.6669e-05,-68.237,-0.0001296,-1317.5,1.4414
18235,17.806,1.4545,0.05,1.1431e-06,11.423,8.7778e-07,6.5953,2.6502e-12,7.4022e-06,-8.7778e-07,-6.5953,1.4286
18236,17.806,1.7273,0,0.00013742,1373.3,5.0628e-05,0.25896,3.6183e-05,-108.27,-0.00013894,-1424.1,1.4289
18237,17.897,1.6364,0,0.00013249,1324,4.8331e-05,0.25549,3.5748e-05,-94.29,-0.00013384,-1368.5,1.4415
18238,17.806,1.6364,0.05,1.3327e-06,13.318,1.0233e-06,7.689,4.3381e-12,1.7291e-05,-1.0233e-06,-7.689,1.4288
18239,17.806,1.9091,0,0.00014198,1418.8,5.3361e-05,0.21263,3.5469e-05,-134.22,-0.00014378,-1481,1.429
18240,17.897,1.8182,0,0.00013646,1363.7,5.0868e-05,0.20807,3.4854e-05,-120.12,-0.0001381,-1419.6,1.4417
18241,17.806,1.8182,0.05,1.5244e-06,15.233,1.1705e-06,8.7949,5.3129e-12,1.976e-05,-1.1705e-06,-8.795,1.4289
18242,17.806,2.0909,0,0.0001464,1463,5.5892e-05,0.18874,3.4981e-05,-156.93,-0.00014843,-1535,1.4291
18243,17.897,2,0,0.00014038,1402.9,5.3281e-05,0.17922,3.4117e-05,-143.81,-0.00014227,-1469.1,1.4418
18244,17.806,2,0.05,1.7109e-06,17.097,1.3137e-06,9.8708,4.0638e-12,2.5098e-05,-1.3137e-06,-9.8709,1.429
18245,17.806,2.2727,0,0.0001505,1504,5.8097e-05,0.18516,3.4778e-05,-175.03,-0.00015271,-1583.7,1.4292
18246,17.897,2.1818,0,0.00014411,1440.1,5.5453e-05,0.16766,3.363e-05,-163.8,-0.00014619,-1514.9,1.4419
18247,17.806,2.1818,0.05,1.8864e-06,18.851,1.4485e-06,10.883,5.2859e-12,2.1906e-05,-1.4485e-06,-10.883,1.4292
18248,17.806,2.4545,0,0.00015405,1539.4,5.9883e-05,0.19595,3.4825e-05,-188.08,-0.00015638,-1624.7,1.4293
18249,17.897,2.3636,0,0.00014747,1473.7,5.7285e-05,0.17071,3.3412e-05,-179.21,-0.00014969,-1555,1.442
18250,17.806,2.3636,0.05,2.0438e-06,20.424,1.5694e-06,11.792,5.3773e-12,2.2142e-05,-1.5694e-06,-11.792,1.4293
18251,17.806,2.6364,0,0.0001568,1566.9,6.1187e-05,0.2125,3.5013e-05,-196.45,-0.00015921,-1655.8,1.4294
18252,17.897,2.5455,0,0.00015024,1501.4,5.8705e-05,0.1824,3.3401e-05,-189.94,-0.00015257,-1587.2,1.4421
18253,17.806,2.5455,0.05,2.1737e-06,21.722,1.6692e-06,12.541,5.1704e-12,1.7338e-05,-1.6692e-06,-12.542,1.4293
18254,17.806,2.8182,0,0.00015855,1584.4,6.1978e-05,0.22652,3.52e-05,-200.97,-0.000161,-1675.2,1.4294
18255,17.897,2.7273,0,0.00015223,1521.2,5.967e-05,0.19564,3.3491e-05,-196.5,-0.00015461,-1609.8,1.4421
18256,17.806,2.7273,0.05,2.2665e-06,22.649,1.7404e-06,13.077,5.3972e-12,2.0835e-05,-1.7404e-06,-13.077,1.4294
18257,17.806,3,0,0.00015915,1590.4,6.2242e-05,0.23193,3.5277e-05,-202.38,-0.00016162,-1681.7,1.4294
18258,17.897,2.9091,0,0.00015327,1531.6,6.0156e-05,0.2041,3.3569e-05,-199.56,-0.00015568,-1621.5,1.4421
18259,17.806,2.9091,0.05,2.3147e-06,23.131,1.7774e-06,13.355,5.5734e-12,1.9565e-05,-1.7774e-06,-13.355,1.4294
18260,17.806,3.1818,0,0.00015855,1584.4,6.1978e-05,0.22652,3.52e-05,-200.97,-0.000161,-1675.2,1.4294
18261,17.897,3.0909,0,0.00015327,1531.6,6.0156e-05,0.2041,3.3569e-05,-199.56,-0.00015568,-1621.5,1.4421
18262,17.806,3.0909,0.05,2.3147e-06,23.131,1.7774e-06,13.355,6.2679e-12,1.8702e-05,-1.7774e-06,-13.355,1.4294
18263,17.806,3.3636,0,0.0001568,1566.9,6.1187e-05,0.2125,3.5013e-05,-196.45,-0.00015921,-1655.8,1.4294
18264,17.897,3.2727,0,0.00015223,1521.2,5.967e-05,0.19564,3.3491e-05,-196.5,-0.00015461,-1609.8,1.4421
18265,17.806,3.2727,0.05,2.2665e-06,22.649,1.7404e-06,13.077,6.5733e-12,1.6225e-05,-1.7404e-06,-13.077,1.4294
18266,17.806,3.5455,0,0.00015405,1539.4,5.9883e-05,0.19595,3.4825e-05,-188.08,-0.00015638,-1624.7,1.4293
18267,17.897,3.4545,0,0.00015024,1501.4,5.8705e-05,0.1824,3.3401e-05,-189.94,-0.00015257,-1587.2,1.4421
18268,17.806,3.4545,0.05,2.1737e-06,21.722,1.6692e-06,12.541,6.1005e-12,1.8975e-05,-1.6692e-06,-12.542,1.4293
18269,17.806,3.7273,0,0.0001505,1504,5.8097e-05,0.18516,3.4778e-05,-175.03,-0.00015271,-1583.7,1.4292
18270,17.897,3.6364,0,0.00014747,1473.7,5.7285e-05,0.17071,3.3412e-05,-179.21,-0.00014969,-1555,1.442
18271,17.806,3.6364,0.05,2.0438e-06,20.424,1.5694e-06,11.792,6.2063e-12,1.2059e-05,-1.5694e-06,-11.792,1.4293
18272,17.806,3.9091,0,0.0001464,1463,5.5892e-05,0.18874,3.4981e-05,-156.93,-0.00014843,-1535,1.4291
18273,17.897,3.8182,0,0.00014411,1440.1,5.5453e-05,0.16766,3.363e-05,-163.8,-0.00014619,-1514.9,1.4419
18274,17.806,3.8182,0.05,1.8864e-06,18.851,1.4485e-06,10.883,5.1551e-12,4.8161e-06,-1.4485e-06,-10.883,1.4292
18275,17.806,4.0909,0,0.00014198,1418.8,5.3361e-05,0.21263,3.5469e-05,-134.22,-0.00014378,-1481,1.429
18276,17.897,4,0,0.00014038,1402.9,5.3281e-05,0.17922,3.4117e-05,-143.81,-0.00014227,-1469.1,1.4418
18277,17.806,4,0.05,1.7109e-06,17.097,1.3137e-06,9.8708,3.3367e-12,1.7166e-07,-1.3137e-06,-9.8709,1.429
18278,17.806,4.2727,0,0.00013742,1373.3,5.0628e-05,0.25896,3.6183e-05,-108.27,-0.00013894,-1424.1,1.4289
18279,17.897,4.1818,0,0.00013646,1363.7,5.0868e-05,0.20807,3.4854e-05,-120.12,-0.0001381,-1419.6,1.4417
18280,17.806,4.1818,0.05,1.5244e-06,15.233,1.1705e-06,8.7949,2.2566e-12,-2.4929e-05,-1.1705e-06,-8.795,1.4289
18281,17.806,4.4545,0,0.00013287,1327.8,4.783e-05,0.33205,3.6996e-05,-81.072,-0.00013406,-1366.3,1.4287
18282,17.897,4.3636,0,0.00013249,1324,4.8331e-05,0.25549,3.5748e-05,-94.29,-0.00013384,-1368.5,1.4415
18283,17.806,4.3636,0.05,1.3327e-06,13.318,1.0233e-06,7.6889,-7.5254e-13,-3.9784e-05,-1.0233e-06,-7.689,1.4288
18284,17.806,4.6364,0,0.00012844,1283.5,4.5105e-05,0.45066,3.7759e-05,-54.738,-0.00012927,-1309.8,1.4285
18285,17.897,4.5455,0,0.00012858,1284.9,4.5795e-05,0.32807,3.6669e-05,-68.237,-0.0001296,-1317.5,1.4414
18286,17.806,4.5455,0.05,1.1431e-06,11.423,8.7778e-07,6.5953,-3.0823e-12,-4.879e-05,-8.7778e-07,-6.5953,1.4286
18287,17.806,4.8182,0,0.00012422,1241.3,4.2579e-05,0.68798,3.8351e-05,-31.076,-0.0001247,-1256.2,1.4283
18288,17.897,4.7273,0,0.00012482,1247.3,4.3376e-05,0.45142,3.749e-05,-43.769,-0.00012549,-1268.4,1.4412
18289,17.806,4.7273,0.05,9.6546e-07,9.6479,7.4135e-07,5.5702,-3.9616e-12,-6.8253e-05,-7.4135e-07,-5.5702,1.4284
18290,17.806,5,0,0.00012031,1202.2,4.0403e-05,1.4895,3.8648e-05,-11.7,-0.00012047,-1207.3,1.428
18291,17.897,4.9091,0,0.00012127,1211.9,4.1184e-05,0.73563,3.8109e-05,-22.369,-0.00012162,-1222.5,1.4409
18292,17.806,4.9091,0.05,8.0975e-07,8.0919,6.2179e-07,4.6719,-6.0015e-12,-8.2032e-05,-6.2178e-07,-4.6719,1.4281
18293,17.806,5.1818,0,0.00011679,1167.1,3.9246e-05,7.3736,3.8027e-05,-1.7866,-0.0001167,-1164.3,1.4278
18294,17.897,5.0909,0,0.00011804,1179.5,3.9425e-05,2.166,3.8349e-05,-5.9185,-0.0001181,-1181.4,1.4407
18295,17.806,5.0909,0.05,6.8318e-07,6.8271,5.246e-07,3.9416,-5.7942e-12,-6.9616e-05,-5.2459e-07,-3.9416,1.4279
18296,17.806,5.3636,0,0.00011375,1136.8,3.8995e-05,17.162,3.6642e-05,-0.51905,-0.00011346,-1128.3,1.4275
18297,17.897,5.2727,0,0.00011517,1150.9,3.8938e-05,10.643,3.7407e-05,-0.8593,-0.000115,-1146,1.4404
18298,17.806,5.2727,0.05,5.8835e-07,5.8794,4.5178e-07,3.3945,-6.1951e-12,-7.2996e-05,-4.5178e-07,-3.3945,1.4276
18299,17.806,5.5455,0,0.00011123,1111.5,3.8623e-05,22.877,3.5547e-05,-0.2373,-0.00011083,-1100,1.4272
18300,17.897,5.4545,0,0.00011274,1126.6,3.8793e-05,18.903,3.6238e-05,-0.29642,-0.00011241,-1117.2,1.4401
18301,17.806,5.4545,0.05,5.256e-07,5.2523,4.036e-07,3.0324,-4.1286e-12,-4.4886e-05,-4.0359e-07,-3.0324,1.4273
18302,17.806,5.7273,0,0.00010934,1092.6,3.8087e-05,24.031,3.4876e-05,-0.093501,-0.00010891,-1080.4,1.4268
18303,17.897,5.6364,0,0.00011075,1106.7,3.8426e-05,22.469,3.5414e-05,-0.1568,-0.00011035,-1095.4,1.4398
18304,17.806,5.6364,0.05,5.23e-07,5.2264,4.016e-07,3.0174,-1.0487e-12,-9.3968e-06,-4.0159e-07,-3.0174,1.427
18305,17.897,5.8182,0,0.0001094,1093.2,3.7929e-05,21.938,3.5008e-05,-0.010279,-0.00010901,-1082.1,1.4395
18306,17.806,5.8182,0.05,1.0401e-06,10.394,7.9865e-07,6.0008,-5.8923e-14,2.544e-06,-7.9866e-07,-6.0008,1.4266
18307,17.806,5.9091,0,0.00010709,1070.1,3.6508e-05,14.045,3.4645e-05,0.047365,-0.00010684,-1063,1.4265
18308,17.988,0.27273,0,0.00011082,1107.4,3.8276e-05,20.436,3.5547e-05,-0.070261,-0.00011046,-1097.1,1.4525
18309,18.079,0.18182,0,0.00011048,1104.1,3.8039e-05,18.942,3.5517e-05,-0.0077516,-0.00011015,-1094.5,1.4651
18310,17.988,0.18182,0.05,7.8294e-07,7.824,6.012e-07,4.5172,6.0738e-16,3.8809e-06,-6.012e-07,-4.5172,1.4523
18311,17.988,0.090909,0,0.00010899,1089.1,3.6991e-05,12.31,3.5359e-05,0.048372,-0.00010877,-1082.9,1.4521
18312,17.988,0.45455,0,0.00011227,1121.9,3.8607e-05,18.583,3.6109e-05,-0.18527,-0.00011195,-1112.6,1.4528
18313,18.079,0.36364,0,0.0001115,1114.2,3.8356e-05,18.655,3.5857e-05,-0.12093,-0.00011117,-1104.8,1.4655
18314,17.988,0.36364,0.05,3.0677e-07,3.0655,2.3556e-07,1.7699,2.4494e-13,8.1636e-06,-2.3556e-07,-1.7699,1.4526
18315,17.988,0.63636,0,0.00011418,1141,3.8736e-05,12.387,3.7025e-05,-0.46799,-0.00011397,-1135,1.4531
18316,18.079,0.54545,0,0.000113,1129.3,3.8518e-05,14.561,3.6547e-05,-0.24649,-0.00011275,-1122,1.4658
18317,17.988,0.54545,0.05,3.5493e-07,3.5468,2.7254e-07,2.0478,-1.2115e-13,2.1072e-05,-2.7254e-07,-2.0478,1.4529
18318,17.988,0.81818,0,0.00011645,1163.7,3.8837e-05,3.3266,3.8041e-05,-2.6557,-0.00011644,-1163.3,1.4534
18319,18.079,0.72727,0,0.00011482,1147.4,3.8464e-05,6.2956,3.7498e-05,-0.96423,-0.00011473,-1144.7,1.4661
18320,17.988,0.72727,0.05,4.6008e-07,4.5976,3.5328e-07,2.6544,-2.8918e-13,-2.0229e-06,-3.5329e-07,-2.6544,1.4532
18321,17.988,1,0,0.00011904,1189.6,4.012e-05,0.76436,3.7933e-05,-15.667,-0.00011928,-1196.9,1.4536
18322,18.079,0.90909,0,0.00011693,1168.5,3.911e-05,0.97824,3.7788e-05,-8.955,-0.00011706,-1172.4,1.4663
18323,17.988,0.90909,0.05,5.8635e-07,5.8595,4.5024e-07,3.383,2.2815e-12,1.8896e-05,-4.5025e-07,-3.383,1.4535
18324,17.988,1.1818,0,0.00012191,1218.3,4.1972e-05,0.43175,3.7297e-05,-34.691,-0.00012245,-1235,1.4538
18325,18.079,1.0909,0,0.00011929,1192.1,4.0663e-05,0.44941,3.7199e-05,-25.576,-0.0001197,-1204.4,1.4665
18326,17.988,1.0909,0.05,7.2884e-07,7.2834,5.5966e-07,4.2051,2.2873e-12,1.0931e-05,-5.5966e-07,-4.2051,1.4537
18327,17.988,1.3636,0,0.000125,1249.1,4.4063e-05,0.30883,3.6444e-05,-56.934,-0.00012586,-1276.5,1.454
18328,18.079,1.2727,0,0.00012187,1217.8,4.2487e-05,0.30686,3.6355e-05,-45.773,-0.00012257,-1239.9,1.4668
18329,17.988,1.2727,0.05,8.8393e-07,8.8332,6.7875e-07,5.0998,2.5333e-12,1.8931e-05,-6.7875e-07,-5.0999,1.4539
18330,17.988,1.5455,0,0.00012824,1281.5,4.6295e-05,0.24104,3.5464e-05,-81.14,-0.00012942,-1320,1.4542
18331,18.079,1.4545,0,0.0001246,1245.2,4.4477e-05,0.23669,3.5351e-05,-68.332,-0.00012562,-1277.8,1.4669
18332,17.988,1.4545,0.05,1.0467e-06,10.46,8.0375e-07,6.039,3.5845e-12,1.6417e-05,-8.0375e-07,-6.0391,1.4541
18333,17.988,1.7273,0,0.00013157,1314.8,4.8571e-05,0.19718,3.4456e-05,-105.85,-0.00013304,-1364.4,1.4544
18334,18.079,1.6364,0,0.00012745,1273.6,4.6548e-05,0.19274,3.4276e-05,-92.016,-0.00012876,-1317,1.4671
18335,17.988,1.6364,0.05,1.2114e-06,12.106,9.3023e-07,6.9894,4.4185e-12,2.931e-05,-9.3024e-07,-6.9894,1.4543
18336,17.988,1.9091,0,0.00013489,1348,5.0788e-05,0.16876,3.3533e-05,-129.48,-0.00013662,-1408,1.4545
18337,18.079,1.8182,0,0.00013033,1302.4,4.861e-05,0.16306,3.3229e-05,-115.4,-0.0001319,-1356.1,1.4673
18338,17.988,1.8182,0.05,1.3727e-06,13.718,1.0541e-06,7.9199,4.9023e-12,3.0984e-05,-1.0541e-06,-7.92,1.4544
18339,17.988,2.0909,0,0.00013811,1380.2,5.2842e-05,0.15342,3.2789e-05,-150.52,-0.00014005,-1449.2,1.4546
18340,18.079,2,0,0.00013317,1330.7,5.057e-05,0.14455,3.231e-05,-137.05,-0.00013496,-1393.9,1.4674
18341,17.988,2,0.05,1.5263e-06,15.252,1.172e-06,8.8059,5.4066e-12,2.3863e-05,-1.172e-06,-8.806,1.4546
18342,17.988,2.2727,0,0.00014109,1409.9,5.4641e-05,0.14965,3.2274e-05,-167.91,-0.00014319,-1486.3,1.4547
18343,18.079,2.1818,0,0.00013586,1357.7,5.2337e-05,0.13621,3.1591e-05,-155.75,-0.00013783,-1428.7,1.4675
18344,17.988,2.1818,0.05,1.6683e-06,16.671,1.281e-06,9.625,5.6941e-12,2.7116e-05,-1.281e-06,-9.6251,1.4547
18345,17.988,2.4545,0,0.00014366,1435.6,5.6108e-05,0.15466,3.1984e-05,-181.1,-0.00014588,-1517.5,1.4548
18346,18.079,2.3636,0,0.00013828,1381.8,5.3836e-05,0.13653,3.1098e-05,-170.71,-0.00014038,-1459.1,1.4676
18347,17.988,2.3636,0.05,1.7938e-06,17.926,1.3774e-06,10.35,5.5899e-12,2.5723e-05,-1.3775e-06,-10.35,1.4548
18348,17.988,2.6364,0,0.00014565,1455.5,5.7188e-05,0.16388,3.1861e-05,-190.13,-0.00014795,-1541.1,1.4549
18349,18.079,2.5455,0,0.00014027,1401.7,5.5006e-05,0.14251,3.0808e-05,-181.67,-0.00014247,-1483.6,1.4676
18350,17.988,2.5455,0.05,1.8967e-06,18.954,1.4565e-06,10.943,5.4004e-12,2.3652e-05,-1.4565e-06,-10.943,1.4548
18351,17.988,2.8182,0,0.00014692,1468.2,5.7848e-05,0.17209,3.1831e-05,-195.31,-0.00014926,-1555.9,1.4549
18352,18.079,2.7273,0,0.00014169,1415.9,5.5806e-05,0.1499,3.0669e-05,-188.73,-0.00014395,-1500.8,1.4677
18353,17.988,2.7273,0.05,1.9701e-06,19.688,1.5128e-06,11.367,5.2397e-12,2.3336e-05,-1.5128e-06,-11.367,1.4549
18354,17.988,3,0,0.00014735,1472.5,5.807e-05,0.17531,3.1829e-05,-196.99,-0.0001497,-1561,1.4549
18355,18.079,2.9091,0,0.00014244,1423.4,5.6212e-05,0.15477,3.0618e-05,-192.15,-0.00014472,-1509.6,1.4677
18356,17.988,2.9091,0.05,2.0084e-06,20.07,1.5422e-06,11.587,5.0748e-12,2.1156e-05,-1.5422e-06,-11.588,1.4549
18357,17.988,3.1818,0,0.00014692,1468.2,5.7848e-05,0.17209,3.1831e-05,-195.31,-0.00014926,-1555.9,1.4549
18358,18.079,3.0909,0,0.00014244,1423.4,5.6212e-05,0.15477,3.0618e-05,-192.15,-0.00014472,-1509.6,1.4677
18359,17.988,3.0909,0.05,2.0084e-06,20.07,1.5422e-06,11.587,6.7597e-12,2.0923e-05,-1.5422e-06,-11.588,1.4549
18360,17.988,3.3636,0,0.00014565,1455.5,5.7188e-05,0.16388,3.1861e-05,-190.13,-0.00014795,-1541.1,1.4549
18361,18.079,3.2727,0,0.00014169,1415.9,5.5806e-05,0.1499,3.0669e-05,-188.73,-0.00014395,-1500.8,1.4677
18362,17.988,3.2727,0.05,1.9701e-06,19.688,1.5128e-06,11.367,6.2489e-12,1.9282e-05,-1.5128e-06,-11.367,1.4549
18363,17.988,3.5455,0,0.00014366,1435.6,5.6108e-05,0.15466,3.1984e-05,-181.1,-0.00014588,-1517.5,1.4548
18364,18.079,3.4545,0,0.00014027,1401.7,5.5006e-05,0.14251,3.0808e-05,-181.67,-0.00014247,-1483.6,1.4676
18365,17.988,3.4545,0.05,1.8967e-06,18.954,1.4565e-06,10.943,5.8185e-12,1.8479e-05,-1.4565e-06,-10.943,1.4548
18366,17.988,3.7273,0,0.00014109,1409.9,5.4641e-05,0.14965,3.2274e-05,-167.91,-0.00014319,-1486.3,1.4547
18367,18.079,3.6364,0,0.00013828,1381.8,5.3836e-05,0.13653,3.1098e-05,-170.71,-0.00014038,-1459.1,1.4676
18368,17.988,3.6364,0.05,1.7938e-06,17.926,1.3774e-06,10.35,5.5919e-12,1.5674e-05,-1.3775e-06,-10.35,1.4548
18369,17.988,3.9091,0,0.00013811,1380.2,5.2842e-05,0.15342,3.2789e-05,-150.52,-0.00014005,-1449.2,1.4546
18370,18.079,3.8182,0,0.00013586,1357.7,5.2337e-05,0.13621,3.1591e-05,-155.75,-0.00013783,-1428.7,1.4675
18371,17.988,3.8182,0.05,1.6683e-06,16.671,1.281e-06,9.625,5.2104e-12,1.4396e-05,-1.281e-06,-9.6251,1.4547
18372,17.988,4.0909,0,0.00013489,1348,5.0788e-05,0.16875,3.3533e-05,-129.48,-0.00013662,-1408,1.4545
18373,18.079,4,0,0.00013317,1330.7,5.057e-05,0.14455,3.231e-05,-137.05,-0.00013496,-1393.9,1.4674
18374,17.988,4,0.05,1.5263e-06,15.252,1.172e-06,8.8059,4.1714e-12,4.9984e-06,-1.172e-06,-8.806,1.4546
18375,17.988,4.2727,0,0.00013157,1314.8,4.8571e-05,0.19718,3.4456e-05,-105.85,-0.00013304,-1364.4,1.4544
18376,18.079,4.1818,0,0.00013033,1302.4,4.861e-05,0.16306,3.323e-05,-115.4,-0.0001319,-1356.1,1.4673
18377,17.988,4.1818,0.05,1.3727e-06,13.718,1.0541e-06,7.9199,2.3873e-12,-7.2853e-06,-1.0541e-06,-7.92,1.4544
18378,17.988,4.4545,0,0.00012824,1281.5,4.6295e-05,0.24104,3.5464e-05,-81.14,-0.00012942,-1320,1.4542
18379,18.079,4.3636,0,0.00012745,1273.6,4.6548e-05,0.19274,3.4276e-05,-92.016,-0.00012876,-1317,1.4671
18380,17.988,4.3636,0.05,1.2114e-06,12.106,9.3023e-07,6.9894,1.3525e-12,-1.3298e-05,-9.3024e-07,-6.9895,1.4543
18381,17.988,4.6364,0,0.000125,1249.1,4.4063e-05,0.30883,3.6444e-05,-56.934,-0.00012586,-1276.5,1.454
18382,18.079,4.5455,0,0.0001246,1245.2,4.4477e-05,0.23669,3.5351e-05,-68.332,-0.00012562,-1277.8,1.4669
18383,17.988,4.5455,0.05,1.0467e-06,10.46,8.0375e-07,6.039,2.0291e-12,-2.4053e-05,-8.0375e-07,-6.0391,1.4541
18384,17.988,4.8182,0,0.00012191,1218.3,4.1972e-05,0.43175,3.7297e-05,-34.691,-0.00012245,-1235,1.4538
18385,18.079,4.7273,0,0.00012187,1217.8,4.2487e-05,0.30686,3.6355e-05,-45.773,-0.00012257,-1239.9,1.4668
18386,17.988,4.7273,0.05,8.8393e-07,8.8332,6.7875e-07,5.0998,-4.2799e-13,-2.2927e-05,-6.7875e-07,-5.0999,1.4539
18387,17.988,5,0,0.00011904,1189.6,4.012e-05,0.76436,3.7933e-05,-15.667,-0.00011928,-1196.9,1.4536
18388,18.079,4.9091,0,0.00011929,1192.1,4.0663e-05,0.44941,3.7199e-05,-25.576,-0.0001197,-1204.4,1.4665
18389,17.988,4.9091,0.05,7.2884e-07,7.2834,5.5966e-07,4.2051,-3.1237e-12,-3.1064e-05,-5.5966e-07,-4.2051,1.4537
18390,17.988,5.1818,0,0.00011645,1163.7,3.8837e-05,3.3266,3.8041e-05,-2.6557,-0.00011644,-1163.3,1.4534
18391,18.079,5.0909,0,0.00011693,1168.5,3.911e-05,0.97824,3.7788e-05,-8.9549,-0.00011706,-1172.4,1.4663
18392,17.988,5.0909,0.05,5.8635e-07,5.8595,4.5025e-07,3.383,-4.152e-12,-5.0621e-05,-4.5024e-07,-3.383,1.4535
18393,17.988,5.3636,0,0.00011418,1141,3.8736e-05,12.387,3.7025e-05,-0.46799,-0.00011397,-1135,1.4531
18394,18.079,5.2727,0,0.00011482,1147.4,3.8464e-05,6.2957,3.7498e-05,-0.96422,-0.00011473,-1144.7,1.4661
18395,17.988,5.2727,0.05,4.6008e-07,4.5976,3.5329e-07,2.6545,-4.3953e-12,-3.5958e-05,-3.5328e-07,-2.6544,1.4532
18396,17.988,5.5455,0,0.00011227,1121.9,3.8607e-05,18.583,3.6109e-05,-0.18526,-0.00011195,-1112.6,1.4528
18397,18.079,5.4545,0,0.000113,1129.3,3.8518e-05,14.561,3.6547e-05,-0.24648,-0.00011275,-1122,1.4658
18398,17.988,5.4545,0.05,3.5493e-07,3.5468,2.7254e-07,2.0478,-3.4267e-12,-4.2389e-05,-2.7254e-07,-2.0478,1.4529
18399,17.988,5.7273,0,0.00011082,1107.4,3.8276e-05,20.436,3.5547e-05,-0.07026,-0.00011046,-1097.1,1.4525
18400,18.079,5.6364,0,0.0001115,1114.2,3.8356e-05,18.655,3.5857e-05,-0.12093,-0.00011117,-1104.8,1.4655
18401,17.988,5.6364,0.05,3.0677e-07,3.0655,2.3556e-07,1.7699,-1.794e-12,-2.1912e-05,-2.3556e-07,-1.7699,1.4526
18402,18.079,5.8182,0,0.00011048,1104.1,3.8039e-05,18.942,3.5517e-05,-0.0077506,-0.00011015,-1094.5,1.4651
18403,17.988,5.8182,0.05,7.8294e-07,7.824,6.012e-07,4.5172,8.7517e-13,4.6615e-06,-6.012e-07,-4.5172,1.4523
18404,17.988,5.9091,0,0.00010899,1089.1,3.6991e-05,12.31,3.5359e-05,0.048372,-0.00010877,-1082.9,1.4521
18405,18.171,0.27273,0,0.00011117,1110.9,3.812e-05,17.171,3.5827e-05,-0.054186,-0.00011087,-1102.3,1.4782
18406,18.262,0.18182,0,0.00011052,1104.5,3.7836e-05,16.342,3.566e-05,-0.0075097,-0.00011024,-1096.2,1.4909
18407,18.171,0.18182,0.05,5.6772e-07,5.6733,4.3594e-07,3.2755,-9.1287e-13,4.0744e-06,-4.3594e-07,-3.2755,1.478
18408,18.171,0.090909,0,0.0001097,1096.3,3.7098e-05,10.771,3.5671e-05,0.049661,-0.00010951,-1090.8,1.4778
18409,18.171,0.45455,0,0.00011224,1121.7,3.827e-05,14.663,3.6299e-05,-0.14776,-0.00011199,-1114.3,1.4785
18410,18.262,0.36364,0,0.00011124,1111.7,3.7983e-05,15.199,3.5947e-05,-0.093209,-0.00011098,-1104,1.4912
18411,18.171,0.36364,0.05,1.6237e-07,1.6226,1.2468e-07,0.93679,1.0605e-12,1.0236e-05,-1.2468e-07,-0.93678,1.4783
18412,18.171,0.63636,0,0.00011366,1135.8,3.822e-05,8.2759,3.7058e-05,-0.45738,-0.00011352,-1131.8,1.4788
18413,18.262,0.54545,0,0.00011235,1122.7,3.7981e-05,10.725,3.6525e-05,-0.21431,-0.00011217,-1117.4,1.4915
18414,18.171,0.54545,0.05,2.7705e-07,2.7686,2.1274e-07,1.5985,2.0209e-12,3.1949e-05,-2.1274e-07,-1.5985,1.4786
18415,18.171,0.81818,0,0.00011531,1152.3,3.8387e-05,1.3213,3.761e-05,-4.5179,-0.00011537,-1153.9,1.479
18416,18.262,0.72727,0,0.00011367,1135.9,3.7828e-05,2.9984,3.7249e-05,-1.3501,-0.00011364,-1135.1,1.4918
18417,18.171,0.72727,0.05,4.0884e-07,4.0856,3.1394e-07,2.3588,2.5953e-12,2.194e-05,-3.1394e-07,-2.3588,1.4789
18418,18.171,1,0,0.00011719,1171.1,3.9624e-05,0.44926,3.7101e-05,-18.507,-0.00011749,-1180,1.4793
18419,18.262,0.90909,0,0.00011518,1151,3.8627e-05,0.52086,3.7015e-05,-11.588,-0.00011537,-1156.5,1.492
18420,18.171,0.90909,0.05,5.4527e-07,5.4489,4.187e-07,3.1459,2.297e-12,2.4312e-05,-4.187e-07,-3.1459,1.4791
18421,18.171,1.1818,0,0.00011926,1191.8,4.1174e-05,0.29113,3.6282e-05,-36.464,-0.00011984,-1209.5,1.4795
18422,18.262,1.0909,0,0.00011688,1168,3.9944e-05,0.29563,3.6255e-05,-27.425,-0.00011731,-1181.3,1.4922
18423,18.171,1.0909,0.05,6.8616e-07,6.8568,5.2688e-07,3.9588,2.2129e-12,1.7648e-05,-5.2688e-07,-3.9588,1.4794
18424,18.171,1.3636,0,0.00012149,1214.1,4.29e-05,0.22248,3.5285e-05,-56.992,-0.00012235,-1241.4,1.4797
18425,18.262,1.2727,0,0.00011872,1186.4,4.1456e-05,0.21884,3.5291e-05,-46.099,-0.00011943,-1208.6,1.4924
18426,18.171,1.2727,0.05,8.3007e-07,8.295,6.3739e-07,4.7891,3.1458e-12,2.4339e-05,-6.3739e-07,-4.7891,1.4796
18427,18.171,1.5455,0,0.00012383,1237.4,4.473e-05,0.18148,3.4186e-05,-79.037,-0.00012498,-1274.9,1.4799
18428,18.262,1.4545,0,0.00012067,1205.9,4.3092e-05,0.17702,3.4197e-05,-66.661,-0.00012166,-1237.7,1.4926
18429,18.171,1.4545,0.05,9.7437e-07,9.737,7.4819e-07,5.6216,3.7516e-12,2.7665e-05,-7.482e-07,-5.6217,1.4798
18430,18.171,1.7273,0,0.00012622,1261.3,4.6587e-05,0.15367,3.307e-05,-101.41,-0.00012763,-1308.9,1.48
18431,18.262,1.6364,0,0.0001227,1226.1,4.4787e-05,0.14928,3.3045e-05,-88.07,-0.00012396,-1267.7,1.4928
18432,18.171,1.6364,0.05,1.1158e-06,11.15,8.5678e-07,6.4375,4.4447e-12,3.2178e-05,-8.5679e-07,-6.4376,1.4799
18433,18.171,1.9091,0,0.00012861,1285.2,4.8392e-05,0.13493,3.2024e-05,-122.85,-0.00013026,-1342.1,1.4801
18434,18.262,1.8182,0,0.00012475,1246.7,4.6468e-05,0.1298,3.192e-05,-109.18,-0.00012625,-1297.6,1.4929
18435,18.171,1.8182,0.05,1.2512e-06,12.503,9.6074e-07,7.2186,3.3682e-12,2.0153e-05,-9.6074e-07,-7.2187,1.4801
18436,18.171,2.0909,0,0.00013092,1308.3,5.0064e-05,0.12417,3.1125e-05,-142.18,-0.00013275,-1373.5,1.4802
18437,18.262,2,0,0.00012677,1266.8,4.8064e-05,0.11706,3.09e-05,-128.85,-0.00012847,-1326.3,1.493
18438,18.171,2,0.05,1.3778e-06,13.768,1.0579e-06,7.949,4.1879e-12,2.5281e-05,-1.058e-06,-7.9491,1.4802
18439,18.171,2.2727,0,0.00013305,1329.6,5.1532e-05,0.12059,3.042e-05,-158.51,-0.00013503,-1401.6,1.4803
18440,18.262,2.1818,0,0.00012868,1286,4.9505e-05,0.1106,3.0046e-05,-146.1,-0.00013054,-1352.7,1.4931
18441,18.171,2.1818,0.05,1.4929e-06,14.918,1.1463e-06,8.6131,5.1957e-12,2.9778e-05,-1.1463e-06,-8.6132,1.4803
18442,18.171,2.4545,0,0.00013488,1347.9,5.2735e-05,0.12248,2.992e-05,-171.29,-0.00013697,-1425.3,1.4804
18443,18.262,2.3636,0,0.00013039,1303,5.0731e-05,0.10952,2.9391e-05,-160.23,-0.00013238,-1375.7,1.4932
18444,18.171,2.3636,0.05,1.5931e-06,15.92,1.2233e-06,9.1915,5.6498e-12,3.0013e-05,-1.2233e-06,-9.1916,1.4804
18445,18.171,2.6364,0,0.0001363,1362,5.3624e-05,0.12712,2.9606e-05,-180.34,-0.00013846,-1443.1,1.4805
18446,18.262,2.5455,0,0.0001318,1317.1,5.1692e-05,0.11203,2.8935e-05,-170.87,-0.00013387,-1394.1,1.4933
18447,18.171,2.5455,0.05,1.6743e-06,16.731,1.2856e-06,9.6599,5.3272e-12,2.9146e-05,-1.2857e-06,-9.6599,1.4804
18448,18.171,2.8182,0,0.0001372,1371,5.417e-05,0.13149,2.944e-05,-185.68,-0.0001394,-1454.3,1.4805
18449,18.262,2.7273,0,0.0001328,1327.1,5.2351e-05,0.1157,2.8657e-05,-177.92,-0.00013493,-1407,1.4933
18450,18.171,2.7273,0.05,1.7318e-06,17.306,1.3298e-06,9.9915,5.5478e-12,2.7966e-05,-1.3298e-06,-9.9916,1.4805
18451,18.171,3,0,0.0001375,1374.1,5.4354e-05,0.13324,2.9389e-05,-187.45,-0.00013973,-1458.1,1.4805
18452,18.262,2.9091,0,0.00013333,1332.4,5.2687e-05,0.11823,2.8527e-05,-181.41,-0.00013548,-1413.7,1.4933
18453,18.171,2.9091,0.05,1.7616e-06,17.604,1.3527e-06,10.164,5.6998e-12,2.6427e-05,-1.3527e-06,-10.164,1.4805
18454,18.171,3.1818,0,0.0001372,1371,5.417e-05,0.13149,2.944e-05,-185.68,-0.0001394,-1454.3,1.4805
18455,18.262,3.0909,0,0.00013333,1332.4,5.2687e-05,0.11823,2.8527e-05,-181.41,-0.00013548,-1413.7,1.4933
18456,18.171,3.0909,0.05,1.7616e-06,17.604,1.3527e-06,10.164,5.6825e-12,2.5181e-05,-1.3527e-06,-10.164,1.4805
18457,18.171,3.3636,0,0.0001363,1362,5.3624e-05,0.12712,2.9606e-05,-180.34,-0.00013846,-1443.1,1.4805
18458,18.262,3.2727,0,0.0001328,1327.1,5.2351e-05,0.1157,2.8657e-05,-177.92,-0.00013493,-1407,1.4933
18459,18.171,3.2727,0.05,1.7318e-06,17.306,1.3298e-06,9.9915,5.9757e-12,2.2394e-05,-1.3298e-06,-9.9916,1.4805
18460,18.171,3.5455,0,0.00013488,1347.9,5.2735e-05,0.12248,2.992e-05,-171.29,-0.00013697,-1425.3,1.4804
18461,18.262,3.4545,0,0.0001318,1317.1,5.1692e-05,0.11203,2.8935e-05,-170.87,-0.00013387,-1394.1,1.4933
18462,18.171,3.4545,0.05,1.6743e-06,16.731,1.2856e-06,9.6598,5.3847e-12,2.0506e-05,-1.2857e-06,-9.6599,1.4804
18463,18.171,3.7273,0,0.00013305,1329.6,5.1532e-05,0.12059,3.042e-05,-158.51,-0.00013503,-1401.6,1.4803
18464,18.262,3.6364,0,0.00013039,1303,5.0731e-05,0.10952,2.9391e-05,-160.23,-0.00013238,-1375.7,1.4932
18465,18.171,3.6364,0.05,1.5931e-06,15.92,1.2233e-06,9.1915,5.3972e-12,2.0073e-05,-1.2233e-06,-9.1916,1.4804
18466,18.171,3.9091,0,0.00013092,1308.3,5.0064e-05,0.12417,3.1125e-05,-142.18,-0.00013275,-1373.5,1.4802
18467,18.262,3.8182,0,0.00012868,1286,4.9505e-05,0.1106,3.0046e-05,-146.1,-0.00013054,-1352.7,1.4931
18468,18.171,3.8182,0.05,1.4929e-06,14.918,1.1463e-06,8.6131,4.8962e-12,1.6537e-05,-1.1463e-06,-8.6132,1.4803
18469,18.171,4.0909,0,0.00012861,1285.2,4.8392e-05,0.13493,3.2024e-05,-122.85,-0.00013026,-1342.1,1.4801
18470,18.262,4,0,0.00012677,1266.8,4.8064e-05,0.11706,3.09e-05,-128.85,-0.00012847,-1326.3,1.493
18471,18.171,4,0.05,1.3778e-06,13.768,1.0579e-06,7.949,4.4607e-12,1.0002e-05,-1.058e-06,-7.9491,1.4802
18472,18.171,4.2727,0,0.00012622,1261.3,4.6587e-05,0.15367,3.307e-05,-101.41,-0.00012763,-1308.9,1.48
18473,18.262,4.1818,0,0.00012475,1246.7,4.6468e-05,0.1298,3.192e-05,-109.18,-0.00012625,-1297.6,1.4929
18474,18.171,4.1818,0.05,1.2512e-06,12.503,9.6074e-07,7.2186,4.5405e-12,8.5288e-06,-9.6074e-07,-7.2187,1.4801
18475,18.171,4.4545,0,0.00012383,1237.4,4.473e-05,0.18148,3.4186e-05,-79.037,-0.00012498,-1274.9,1.4799
18476,18.262,4.3636,0,0.0001227,1226.1,4.4787e-05,0.14928,3.3045e-05,-88.07,-0.00012396,-1267.7,1.4928
18477,18.171,4.3636,0.05,1.1158e-06,11.15,8.5678e-07,6.4375,3.932e-12,-5.4148e-06,-8.5679e-07,-6.4376,1.4799
18478,18.171,4.6364,0,0.00012149,1214.1,4.29e-05,0.22248,3.5285e-05,-56.991,-0.00012235,-1241.4,1.4797
18479,18.262,4.5455,0,0.00012067,1205.9,4.3092e-05,0.17702,3.4197e-05,-66.661,-0.00012166,-1237.7,1.4926
18480,18.171,4.5455,0.05,9.7437e-07,9.737,7.4819e-07,5.6216,2.473e-12,9.807e-06,-7.482e-07,-5.6217,1.4798
18481,18.171,4.8182,0,0.00011926,1191.8,4.1174e-05,0.29113,3.6282e-05,-36.464,-0.00011984,-1209.5,1.4795
18482,18.262,4.7273,0,0.00011872,1186.4,4.1456e-05,0.21884,3.5291e-05,-46.099,-0.00011943,-1208.6,1.4924
18483,18.171,4.7273,0.05,8.3007e-07,8.295,6.3739e-07,4.7891,1.5657e-12,-9.1583e-07,-6.3739e-07,-4.7891,1.4796
18484,18.171,5,0,0.00011719,1171.1,3.9624e-05,0.44926,3.7101e-05,-18.507,-0.00011749,-1180,1.4793
18485,18.262,4.9091,0,0.00011688,1168,3.9944e-05,0.29563,3.6255e-05,-27.425,-0.00011731,-1181.3,1.4922
18486,18.171,4.9091,0.05,6.8616e-07,6.8568,5.2688e-07,3.9588,-7.0173e-13,-1.3251e-05,-5.2688e-07,-3.9588,1.4794
18487,18.171,5.1818,0,0.00011531,1152.3,3.8387e-05,1.3213,3.761e-05,-4.5178,-0.00011537,-1153.9,1.479
18488,18.262,5.0909,0,0.00011518,1151,3.8627e-05,0.52086,3.7015e-05,-11.588,-0.00011537,-1156.5,1.492
18489,18.171,5.0909,0.05,5.4527e-07,5.4489,4.187e-07,3.1459,-2.0445e-12,-2.6962e-05,-4.187e-07,-3.146,1.4791
18490,18.171,5.3636,0,0.00011366,1135.8,3.822e-05,8.2759,3.7058e-05,-0.45738,-0.00011352,-1131.8,1.4788
18491,18.262,5.2727,0,0.00011367,1135.9,3.7828e-05,2.9984,3.7249e-05,-1.3501,-0.00011364,-1135.1,1.4918
18492,18.171,5.2727,0.05,4.0884e-07,4.0856,3.1394e-07,2.3588,-1.2697e-12,-2.6945e-05,-3.1394e-07,-2.3588,1.4789
18493,18.171,5.5455,0,0.00011224,1121.7,3.827e-05,14.663,3.6299e-05,-0.14776,-0.00011199,-1114.3,1.4785
18494,18.262,5.4545,0,0.00011235,1122.7,3.7981e-05,10.725,3.6525e-05,-0.21431,-0.00011217,-1117.4,1.4915
18495,18.171,5.4545,0.05,2.7705e-07,2.7686,2.1274e-07,1.5985,-1.2003e-12,-1.1077e-05,-2.1274e-07,-1.5985,1.4786
18496,18.171,5.7273,0,0.00011117,1110.9,3.812e-05,17.172,3.5827e-05,-0.054185,-0.00011087,-1102.3,1.4782
18497,18.262,5.6364,0,0.00011124,1111.7,3.7983e-05,15.199,3.5947e-05,-0.093208,-0.00011098,-1104,1.4912
18498,18.171,5.6364,0.05,1.6237e-07,1.6226,1.2468e-07,0.9368,-2.7894e-12,-2.2639e-05,-1.2468e-07,-0.93678,1.4783
18499,18.262,5.8182,0,0.00011052,1104.5,3.7836e-05,16.342,3.566e-05,-0.0075094,-0.00011024,-1096.2,1.4909
18500,18.171,5.8182,0.05,5.6772e-07,5.6733,4.3594e-07,3.2755,8.6968e-13,5.5167e-06,-4.3594e-07,-3.2755,1.478
18501,18.171,5.9091,0,0.0001097,1096.3,3.7098e-05,10.771,3.5671e-05,0.049662,-0.00010951,-1090.8,1.4778
18502,18.353,0.27273,0,0.0001106,1105.2,3.7696e-05,14.345,3.5781e-05,-0.04218,-0.00011035,-1098,1.5039
18503,18.444,0.18182,0,0.00010971,1096.4,3.7387e-05,14.178,3.5499e-05,-0.0078437,-0.00010946,-1089.2,1.5167
18504,18.353,0.18182,0.05,3.9068e-07,3.9041,3e-07,2.2541,-9.2328e-13,4.1955e-06,-3e-07,-2.2541,1.5037
18505,18.353,0.090909,0,0.00010943,1093.6,3.69e-05,9.4712,3.5647e-05,0.050283,-0.00010927,-1088.8,1.5036
18506,18.353,0.45455,0,0.00011135,1112.8,3.7691e-05,11.249,3.6178e-05,-0.11993,-0.00011116,-1107.2,1.5042
18507,18.444,0.36364,0,0.00011017,1101,3.738e-05,12.218,3.5745e-05,-0.071027,-0.00010996,-1094.9,1.517
18508,18.353,0.36364,0.05,1.5998e-07,1.5987,1.2284e-07,0.923,1.3557e-12,1.727e-05,-1.2284e-07,-0.923,1.5041
18509,18.353,0.63636,0,0.00011236,1122.9,3.7514e-05,4.8893,3.6796e-05,-0.50723,-0.00011229,-1120.7,1.5045
18510,18.444,0.54545,0,0.00011095,1108.7,3.7248e-05,7.4845,3.6226e-05,-0.19646,-0.00011083,-1105.1,1.5173
18511,18.353,0.54545,0.05,2.9329e-07,2.9309,2.2521e-07,1.6922,1.0914e-12,2.1228e-05,-2.2521e-07,-1.6922,1.5044
18512,18.353,0.81818,0,0.00011354,1134.7,3.7854e-05,0.60049,3.6874e-05,-6.7672,-0.00011365,-1137.7,1.5048
18513,18.444,0.72727,0,0.00011188,1118,3.7133e-05,1.1237,3.6662e-05,-2.4144,-0.0001119,-1118.6,1.5175
18514,18.353,0.72727,0.05,4.1647e-07,4.1618,3.1979e-07,2.4028,2.3263e-12,2.0963e-05,-3.198e-07,-2.4028,1.5046
18515,18.353,1,0,0.00011487,1147.9,3.8936e-05,0.28616,3.6188e-05,-20.357,-0.0001152,-1157.8,1.505
18516,18.444,0.90909,0,0.00011294,1128.6,3.7963e-05,0.30955,3.612e-05,-13.538,-0.00011315,-1135.1,1.5178
18517,18.353,0.90909,0.05,5.4186e-07,5.4148,4.1608e-07,3.1262,1.9968e-12,2.5211e-05,-4.1608e-07,-3.1263,1.5049
18518,18.353,1.1818,0,0.00011633,1162.5,4.0224e-05,0.20551,3.5277e-05,-36.966,-0.00011692,-1180.5,1.5052
18519,18.444,1.0909,0,0.00011411,1140.4,3.9065e-05,0.20416,3.5278e-05,-28.251,-0.00011456,-1154.1,1.518
18520,18.353,1.0909,0.05,6.6879e-07,6.6833,5.1355e-07,3.8586,2.7157e-12,2.0882e-05,-5.1355e-07,-3.8586,1.5051
18521,18.353,1.3636,0,0.0001179,1178.2,4.1647e-05,0.16574,3.4215e-05,-55.681,-0.00011875,-1205,1.5054
18522,18.444,1.2727,0,0.00011539,1153.1,4.0315e-05,0.16134,3.4265e-05,-45.295,-0.00011609,-1175,1.5182
18523,18.353,1.2727,0.05,7.9559e-07,7.9504,6.1091e-07,4.5902,3.1797e-12,1.8905e-05,-6.1092e-07,-4.5902,1.5053
18524,18.353,1.5455,0,0.00011955,1194.7,4.3148e-05,0.1402,3.3067e-05,-75.609,-0.00012065,-1230.6,1.5056
18525,18.444,1.4545,0,0.00011675,1166.7,4.1661e-05,0.13582,3.3141e-05,-63.878,-0.00011771,-1197.3,1.5184
18526,18.353,1.4545,0.05,9.2011e-07,9.1948,7.0653e-07,5.3086,3.4225e-12,2.8163e-05,-7.0653e-07,-5.3086,1.5055
18527,18.353,1.7273,0,0.00012123,1211.5,4.4667e-05,0.12203,3.1906e-05,-95.76,-0.00012258,-1256.5,1.5057
18528,18.444,1.6364,0,0.00011816,1180.8,4.3048e-05,0.11788,3.197e-05,-83.121,-0.00011936,-1220.1,1.5185
18529,18.353,1.6364,0.05,1.04e-06,10.393,7.9861e-07,6.0005,4.0752e-12,3.137e-05,-7.9862e-07,-6.0005,1.5056
18530,18.353,1.9091,0,0.00012292,1228.3,4.614e-05,0.10923,3.0805e-05,-115.11,-0.00012447,-1281.8,1.5058
18531,18.444,1.8182,0,0.00011959,1195.1,4.4422e-05,0.10471,3.0822e-05,-102.08,-0.000121,-1242.8,1.5187
18532,18.353,1.8182,0.05,1.1531e-06,11.523,8.8547e-07,6.653,5.1762e-12,2.459e-05,-8.8547e-07,-6.6531,1.5058
18533,18.353,2.0909,0,0.00012454,1244.5,4.7505e-05,0.10128,2.9828e-05,-132.72,-0.00012626,-1305.5,1.5059
18534,18.444,2,0,0.000121,1209.1,4.5725e-05,0.095589,2.9763e-05,-119.83,-0.00012259,-1264.5,1.5188
18535,18.353,2,0.05,1.2574e-06,12.566,9.6556e-07,7.2548,4.4706e-12,2.457e-05,-9.6556e-07,-7.2549,1.5059
18536,18.353,2.2727,0,0.00012603,1259.4,4.8704e-05,0.097719,2.902e-05,-147.8,-0.00012789,-1326.8,1.506
18537,18.444,2.1818,0,0.00012232,1222.4,4.6902e-05,0.090306,2.8848e-05,-135.56,-0.00012406,-1284.5,1.5189
18538,18.353,2.1818,0.05,1.3509e-06,13.5,1.0373e-06,7.7941,5.378e-12,2.7351e-05,-1.0373e-06,-7.7942,1.506
18539,18.353,2.4545,0,0.00012731,1272.2,4.9688e-05,0.097613,2.8405e-05,-159.82,-0.00012927,-1344.5,1.5061
18540,18.444,2.3636,0,0.00012351,1234.2,4.7905e-05,0.088378,2.8111e-05,-148.63,-0.00012536,-1301.7,1.5189
18541,18.353,2.3636,0.05,1.4312e-06,14.302,1.099e-06,8.2571,5.0648e-12,2.8196e-05,-1.099e-06,-8.2572,1.506
18542,18.353,2.6364,0,0.0001283,1282.1,5.0419e-05,0.099437,2.7981e-05,-168.49,-0.00013033,-1358,1.5061
18543,18.444,2.5455,0,0.00012448,1243.9,4.8692e-05,0.088815,2.7566e-05,-158.64,-0.00012641,-1315.6,1.519
18544,18.353,2.5455,0.05,1.4953e-06,14.943,1.1482e-06,8.6272,5.4152e-12,2.669e-05,-1.1482e-06,-8.6273,1.5061
18545,18.353,2.8182,0,0.00012893,1288.4,5.0868e-05,0.10146,2.7736e-05,-173.7,-0.000131,-1366.4,1.5062
18546,18.444,2.7273,0,0.00012517,1250.8,4.9233e-05,0.090252,2.7212e-05,-165.37,-0.00012716,-1325.2,1.519
18547,18.353,2.7273,0.05,1.5403e-06,15.393,1.1828e-06,8.8869,5.5414e-12,2.462e-05,-1.1828e-06,-8.887,1.5061
18548,18.353,3,0,0.00012914,1290.5,5.1019e-05,0.1023,2.7656e-05,-175.44,-0.00013123,-1369.2,1.5062
18549,18.444,2.9091,0,0.00012553,1254.4,4.9509e-05,0.091372,2.7038e-05,-168.75,-0.00012754,-1330.2,1.519
18550,18.353,2.9091,0.05,1.5636e-06,15.625,1.2006e-06,9.021,5.8645e-12,2.4035e-05,-1.2006e-06,-9.0211,1.5062
18551,18.353,3.1818,0,0.00012893,1288.4,5.0868e-05,0.10146,2.7736e-05,-173.7,-0.000131,-1366.4,1.5062
18552,18.444,3.0909,0,0.00012553,1254.4,4.9509e-05,0.091372,2.7038e-05,-168.75,-0.00012754,-1330.2,1.519
18553,18.353,3.0909,0.05,1.5636e-06,15.625,1.2006e-06,9.021,5.2907e-12,2.3753e-05,-1.2006e-06,-9.0211,1.5062
18554,18.353,3.3636,0,0.0001283,1282.1,5.0419e-05,0.099438,2.7981e-05,-168.49,-0.00013033,-1358,1.5061
18555,18.444,3.2727,0,0.00012517,1250.8,4.9233e-05,0.090252,2.7212e-05,-165.37,-0.00012716,-1325.2,1.519
18556,18.353,3.2727,0.05,1.5403e-06,15.393,1.1828e-06,8.8869,5.2223e-12,2.214e-05,-1.1828e-06,-8.887,1.5061
18557,18.353,3.5455,0,0.00012731,1272.2,4.9688e-05,0.097614,2.8405e-05,-159.82,-0.00012927,-1344.5,1.5061
18558,18.444,3.4545,0,0.00012448,1243.9,4.8692e-05,0.088815,2.7566e-05,-158.64,-0.00012641,-1315.6,1.519
18559,18.353,3.4545,0.05,1.4953e-06,14.943,1.1482e-06,8.6272,5.5924e-12,1.8757e-05,-1.1482e-06,-8.6273,1.5061
18560,18.353,3.7273,0,0.00012603,1259.4,4.8704e-05,0.097719,2.902e-05,-147.8,-0.00012789,-1326.8,1.506
18561,18.444,3.6364,0,0.00012351,1234.2,4.7905e-05,0.088379,2.8111e-05,-148.63,-0.00012536,-1301.7,1.5189
18562,18.353,3.6364,0.05,1.4312e-06,14.302,1.099e-06,8.2571,5.3176e-12,2.0383e-05,-1.099e-06,-8.2572,1.506
18563,18.353,3.9091,0,0.00012454,1244.5,4.7505e-05,0.10128,2.9828e-05,-132.72,-0.00012626,-1305.5,1.5059
18564,18.444,3.8182,0,0.00012232,1222.4,4.6902e-05,0.090306,2.8848e-05,-135.56,-0.00012406,-1284.5,1.5189
18565,18.353,3.8182,0.05,1.3509e-06,13.5,1.0373e-06,7.7941,4.6873e-12,1.5676e-05,-1.0373e-06,-7.7942,1.506
18566,18.353,4.0909,0,0.00012292,1228.3,4.614e-05,0.10923,3.0805e-05,-115.11,-0.00012447,-1281.8,1.5058
18567,18.444,4,0,0.000121,1209.1,4.5725e-05,0.095589,2.9763e-05,-119.83,-0.00012259,-1264.5,1.5188
18568,18.353,4,0.05,1.2574e-06,12.566,9.6556e-07,7.2548,4.3573e-12,1.413e-05,-9.6556e-07,-7.2549,1.5059
18569,18.353,4.2727,0,0.00012123,1211.5,4.4667e-05,0.12203,3.1906e-05,-95.76,-0.00012258,-1256.5,1.5057
18570,18.444,4.1818,0,0.00011959,1195.1,4.4422e-05,0.10471,3.0822e-05,-102.08,-0.000121,-1242.8,1.5187
18571,18.353,4.1818,0.05,1.1531e-06,11.523,8.8547e-07,6.653,3.1814e-12,1.3403e-05,-8.8547e-07,-6.6531,1.5058
18572,18.353,4.4545,0,0.00011955,1194.7,4.3148e-05,0.1402,3.3067e-05,-75.609,-0.00012065,-1230.6,1.5056
18573,18.444,4.3636,0,0.00011816,1180.8,4.3048e-05,0.11788,3.197e-05,-83.121,-0.00011936,-1220.1,1.5185
18574,18.353,4.3636,0.05,1.04e-06,10.393,7.9861e-07,6.0004,3.0792e-12,5.7885e-06,-7.9862e-07,-6.0005,1.5056
18575,18.353,4.6364,0,0.0001179,1178.2,4.1647e-05,0.16574,3.4215e-05,-55.681,-0.00011875,-1205,1.5054
18576,18.444,4.5455,0,0.00011675,1166.7,4.1661e-05,0.13582,3.3141e-05,-63.878,-0.00011771,-1197.3,1.5184
18577,18.353,4.5455,0.05,9.2011e-07,9.1948,7.0653e-07,5.3086,2.4107e-12,-4.8938e-06,-7.0654e-07,-5.3086,1.5055
18578,18.353,4.8182,0,0.00011633,1162.5,4.0224e-05,0.20551,3.5277e-05,-36.966,-0.00011692,-1180.5,1.5052
18579,18.444,4.7273,0,0.00011539,1153.1,4.0315e-05,0.16134,3.4265e-05,-45.295,-0.00011609,-1175,1.5182
18580,18.353,4.7273,0.05,7.9559e-07,7.9504,6.1091e-07,4.5901,1.9593e-12,8.1643e-07,-6.1092e-07,-4.5902,1.5053
18581,18.353,5,0,0.00011487,1147.9,3.8936e-05,0.28616,3.6188e-05,-20.357,-0.0001152,-1157.8,1.505
18582,18.444,4.9091,0,0.00011411,1140.4,3.9065e-05,0.20416,3.5278e-05,-28.251,-0.00011456,-1154.1,1.518
18583,18.353,4.9091,0.05,6.6879e-07,6.6833,5.1355e-07,3.8586,1.4787e-12,4.2514e-07,-5.1355e-07,-3.8586,1.5051
18584,18.353,5.1818,0,0.00011354,1134.7,3.7854e-05,0.6005,3.6874e-05,-6.7671,-0.00011365,-1137.7,1.5048
18585,18.444,5.0909,0,0.00011294,1128.6,3.7963e-05,0.30955,3.612e-05,-13.538,-0.00011315,-1135.1,1.5178
18586,18.353,5.0909,0.05,5.4186e-07,5.4148,4.1608e-07,3.1262,1.3572e-12,-6.6654e-06,-4.1608e-07,-3.1263,1.5049
18587,18.353,5.3636,0,0.00011236,1122.9,3.7514e-05,4.8894,3.6796e-05,-0.50722,-0.00011229,-1120.7,1.5045
18588,18.444,5.2727,0,0.00011188,1118,3.7133e-05,1.1237,3.6662e-05,-2.4144,-0.0001119,-1118.6,1.5175
18589,18.353,5.2727,0.05,4.1647e-07,4.1618,3.1979e-07,2.4028,9.8248e-13,-4.5193e-06,-3.198e-07,-2.4028,1.5046
18590,18.353,5.5455,0,0.00011135,1112.8,3.7691e-05,11.249,3.6178e-05,-0.11993,-0.00011116,-1107.2,1.5042
18591,18.444,5.4545,0,0.00011095,1108.7,3.7248e-05,7.4846,3.6226e-05,-0.19646,-0.00011083,-1105.1,1.5173
18592,18.353,5.4545,0.05,2.9329e-07,2.9309,2.2521e-07,1.6921,8.4909e-13,1.793e-06,-2.2521e-07,-1.6922,1.5044
18593,18.353,5.7273,0,0.0001106,1105.2,3.7696e-05,14.345,3.5781e-05,-0.04218,-0.00011035,-1098,1.5039
18594,18.444,5.6364,0,0.00011017,1101,3.738e-05,12.218,3.5745e-05,-0.071026,-0.00010996,-1094.9,1.517
18595,18.353,5.6364,0.05,1.5998e-07,1.5987,1.2284e-07,0.92299,1.2286e-12,5.6318e-06,-1.2284e-07,-0.923,1.5041
18596,18.444,5.8182,0,0.00010971,1096.4,3.7387e-05,14.178,3.5499e-05,-0.0078431,-0.00010946,-1089.2,1.5167
18597,18.353,5.8182,0.05,3.9068e-07,3.9041,3e-07,2.2541,1.2892e-12,3.591e-06,-3e-07,-2.2541,1.5037
18598,18.353,5.9091,0,0.00010943,1093.6,3.69e-05,9.4712,3.5647e-05,0.050283,-0.00010927,-1088.8,1.5036
18599,18.535,0.27273,0,0.00010928,1092.1,3.7066e-05,12.001,3.5464e-05,-0.032687,-0.00010907,-1086,1.5298
18600,18.626,0.18182,0,0.00010821,1081.3,3.6747e-05,12.451,3.5089e-05,-0.0081133,-0.00010799,-1075,1.5426
18601,18.535,0.18182,0.05,2.4732e-07,2.4715,1.8991e-07,1.4269,-5.752e-13,4.1331e-06,-1.8991e-07,-1.4269,1.5296
18602,18.535,0.090909,0,0.00010836,1082.9,3.6461e-05,8.4224,3.5346e-05,0.049563,-0.00010822,-1078.6,1.5294
18603,18.535,0.45455,0,0.00010977,1097,3.6932e-05,8.4077,3.58e-05,-0.098615,-0.00010963,-1092.8,1.5301
18604,18.626,0.36364,0,0.00010845,1083.8,3.6607e-05,9.7631,3.5301e-05,-0.052738,-0.00010829,-1078.9,1.5429
18605,18.535,0.36364,0.05,2.4739e-07,2.4722,1.8997e-07,1.4273,2.6664e-13,9.9877e-06,-1.8997e-07,-1.4273,1.5299
18606,18.535,0.63636,0,0.00011046,1103.9,3.6682e-05,2.3262,3.6279e-05,-0.70083,-0.00011044,-1103.1,1.5303
18607,18.626,0.54545,0,0.00010897,1088.9,3.6376e-05,4.8787,3.5701e-05,-0.19225,-0.00010889,-1086.6,1.5431
18608,18.535,0.54545,0.05,3.5463e-07,3.5439,2.7231e-07,2.0461,9.8146e-13,1.5275e-05,-2.7231e-07,-2.0461,1.5302
18609,18.535,0.81818,0,0.00011127,1111.9,3.7174e-05,0.32191,3.5979e-05,-8.6575,-0.00011141,-1116.1,1.5306
18610,18.626,0.72727,0,0.00010958,1095.1,3.6397e-05,0.45996,3.5807e-05,-3.9735,-0.00010964,-1096.8,1.5434
18611,18.535,0.72727,0.05,4.5366e-07,4.5335,3.4835e-07,2.6174,2.6233e-12,1.5741e-05,-3.4835e-07,-2.6174,1.5304
18612,18.535,1,0,0.00011218,1121,3.8088e-05,0.19257,3.5218e-05,-21.373,-0.00011252,-1131.4,1.5308
18613,18.626,0.90909,0,0.00011029,1102.1,3.7142e-05,0.19818,3.5147e-05,-14.79,-0.00011053,-1109.3,1.5436
18614,18.535,0.90909,0.05,5.5867e-07,5.5829,4.2899e-07,3.2233,2.6888e-12,2.1792e-05,-4.2899e-07,-3.2233,1.5307
18615,18.535,1.1818,0,0.00011317,1131,3.9155e-05,0.14998,3.4272e-05,-36.542,-0.00011375,-1148.7,1.531
18616,18.626,1.0909,0,0.00011108,1110,3.8058e-05,0.14625,3.4277e-05,-28.27,-0.00011153,-1123.8,1.5439
18617,18.535,1.0909,0.05,6.665e-07,6.6604,5.1179e-07,3.8454,2.1706e-12,2.4045e-05,-5.1179e-07,-3.8454,1.5309
18618,18.535,1.3636,0,0.00011424,1141.6,4.0328e-05,0.12656,3.3196e-05,-53.455,-0.00011506,-1167.4,1.5312
18619,18.626,1.2727,0,0.00011193,1118.5,3.909e-05,0.12205,3.326e-05,-43.684,-0.00011261,-1139.7,1.544
18620,18.535,1.2727,0.05,7.7423e-07,7.737,5.9451e-07,4.4669,3.4891e-12,2.6831e-05,-5.9452e-07,-4.467,1.5311
18621,18.535,1.5455,0,0.00011537,1152.9,4.156e-05,0.11038,3.2049e-05,-71.354,-0.00011641,-1186.8,1.5314
18622,18.626,1.4545,0,0.00011284,1127.6,4.0196e-05,0.10632,3.2148e-05,-60.364,-0.00011374,-1156.5,1.5442
18623,18.535,1.4545,0.05,8.7943e-07,8.7883,6.7529e-07,5.0739,4.235e-12,1.9432e-05,-6.753e-07,-5.0739,1.5313
18624,18.535,1.7273,0,0.00011652,1164.4,4.2803e-05,0.098212,3.0891e-05,-89.409,-0.00011778,-1206.5,1.5315
18625,18.626,1.6364,0,0.00011379,1137.1,4.1334e-05,0.094531,3.0998e-05,-77.567,-0.00011491,-1173.8,1.5444
18626,18.535,1.6364,0.05,9.7996e-07,9.7928,7.5248e-07,5.6539,4.1756e-12,2.202e-05,-7.5249e-07,-5.6539,1.5314
18627,18.535,1.9091,0,0.00011767,1175.9,4.4007e-05,0.089157,2.9785e-05,-106.78,-0.00011912,-1225.6,1.5316
18628,18.626,1.8182,0,0.00011475,1146.7,4.2459e-05,0.085382,2.9869e-05,-94.51,-0.00011606,-1191,1.5445
18629,18.535,1.8182,0.05,1.0739e-06,10.732,8.2465e-07,6.1961,4.1304e-12,2.6658e-05,-8.2466e-07,-6.1962,1.5315
18630,18.535,2.0909,0,0.00011878,1187,4.5122e-05,0.083026,2.8786e-05,-122.66,-0.00012039,-1243.5,1.5317
18631,18.626,2,0,0.00011569,1156.1,4.3523e-05,0.078623,2.8817e-05,-110.42,-0.00011717,-1207.3,1.5446
18632,18.535,2,0.05,1.1597e-06,11.589,8.9053e-07,6.6911,4.6343e-12,2.482e-05,-8.9054e-07,-6.6912,1.5317
18633,18.535,2.2727,0,0.0001198,1197.1,4.6103e-05,0.079629,2.7939e-05,-136.39,-0.00012153,-1259.5,1.5318
18634,18.626,2.1818,0,0.00011658,1165,4.4485e-05,0.074209,2.7891e-05,-124.61,-0.0001182,-1222.3,1.5447
18635,18.535,2.1818,0.05,1.2357e-06,12.349,9.4889e-07,7.1296,5.0488e-12,2.9079e-05,-9.489e-07,-7.1296,1.5317
18636,18.535,2.4545,0,0.00012067,1205.9,4.6908e-05,0.078459,2.7271e-05,-147.47,-0.0001225,-1272.8,1.5319
18637,18.626,2.3636,0,0.00011738,1173,4.5305e-05,0.071917,2.7127e-05,-136.51,-0.0001191,-1235.2,1.5447
18638,18.535,2.3636,0.05,1.3002e-06,12.993,9.9838e-07,7.5015,5.0156e-12,2.6591e-05,-9.9839e-07,-7.5015,1.5318
18639,18.535,2.6364,0,0.00012134,1212.6,4.7507e-05,0.078679,2.6794e-05,-155.55,-0.00012324,-1282.8,1.5319
18640,18.626,2.5455,0,0.00011803,1179.5,4.595e-05,0.071226,2.6547e-05,-145.71,-0.00011983,-1245.5,1.5448
18641,18.535,2.5455,0.05,1.3511e-06,13.502,1.0375e-06,7.7953,5.3318e-12,2.8301e-05,-1.0375e-06,-7.7954,1.5319
18642,18.535,2.8182,0,0.00012177,1216.8,4.7875e-05,0.079327,2.651e-05,-160.45,-0.0001237,-1289.1,1.5319
18643,18.626,2.7273,0,0.00011849,1184.1,4.6394e-05,0.071396,2.6159e-05,-151.97,-0.00012034,-1252.7,1.5448
18644,18.535,2.7273,0.05,1.3865e-06,13.856,1.0647e-06,7.9996,5.6102e-12,2.5116e-05,-1.0647e-06,-7.9997,1.5319
18645,18.535,3,0,0.00012191,1218.3,4.7999e-05,0.07964,2.6415e-05,-162.09,-0.00012386,-1291.2,1.5319
18646,18.626,2.9091,0,0.00011873,1186.5,4.662e-05,0.071704,2.5965e-05,-155.12,-0.00012061,-1256.4,1.5449
18647,18.535,2.9091,0.05,1.4047e-06,14.038,1.0787e-06,8.1046,5.3518e-12,2.5541e-05,-1.0787e-06,-8.1046,1.5319
18648,18.535,3.1818,0,0.00012177,1216.8,4.7875e-05,0.079326,2.651e-05,-160.45,-0.0001237,-1289.1,1.5319
18649,18.626,3.0909,0,0.00011873,1186.5,4.662e-05,0.071704,2.5965e-05,-155.12,-0.00012061,-1256.4,1.5449
18650,18.535,3.0909,0.05,1.4047e-06,14.038,1.0787e-06,8.1046,5.1157e-12,2.2255e-05,-1.0787e-06,-8.1046,1.5319
18651,18.535,3.3636,0,0.00012134,1212.6,4.7507e-05,0.078678,2.6794e-05,-155.55,-0.00012324,-1282.8,1.5319
18652,18.626,3.2727,0,0.00011849,1184.1,4.6394e-05,0.071396,2.6159e-05,-151.97,-0.00012034,-1252.7,1.5448
18653,18.535,3.2727,0.05,1.3865e-06,13.856,1.0647e-06,7.9996,5.391e-12,2.2986e-05,-1.0647e-06,-7.9997,1.5319
18654,18.535,3.5455,0,0.00012067,1205.9,4.6908e-05,0.078459,2.7271e-05,-147.47,-0.0001225,-1272.8,1.5319
18655,18.626,3.4545,0,0.00011803,1179.5,4.595e-05,0.071227,2.6547e-05,-145.71,-0.00011983,-1245.5,1.5448
18656,18.535,3.4545,0.05,1.3511e-06,13.502,1.0375e-06,7.7953,4.9796e-12,2.276e-05,-1.0375e-06,-7.7954,1.5319
18657,18.535,3.7273,0,0.0001198,1197.1,4.6103e-05,0.079629,2.7939e-05,-136.39,-0.00012153,-1259.5,1.5318
18658,18.626,3.6364,0,0.00011738,1173,4.5305e-05,0.071917,2.7127e-05,-136.51,-0.0001191,-1235.2,1.5447
18659,18.535,3.6364,0.05,1.3002e-06,12.993,9.9838e-07,7.5015,4.9488e-12,2.1654e-05,-9.9839e-07,-7.5015,1.5318
18660,18.535,3.9091,0,0.00011878,1187,4.5122e-05,0.083026,2.8786e-05,-122.66,-0.00012039,-1243.5,1.5317
18661,18.626,3.8182,0,0.00011658,1165,4.4485e-05,0.074207,2.7891e-05,-124.61,-0.0001182,-1222.3,1.5447
18662,18.535,3.8182,0.05,1.2357e-06,12.349,9.4889e-07,7.1296,4.6654e-12,1.8081e-05,-9.489e-07,-7.1297,1.5317
18663,18.535,4.0909,0,0.00011767,1175.9,4.4007e-05,0.089157,2.9785e-05,-106.78,-0.00011912,-1225.6,1.5316
18664,18.626,4,0,0.00011569,1156.1,4.3523e-05,0.078623,2.8817e-05,-110.42,-0.00011717,-1207.3,1.5446
18665,18.535,4,0.05,1.1597e-06,11.589,8.9053e-07,6.6911,4.5752e-12,1.7652e-05,-8.9054e-07,-6.6912,1.5317
18666,18.535,4.2727,0,0.00011652,1164.4,4.2803e-05,0.098212,3.0891e-05,-89.409,-0.00011778,-1206.5,1.5315
18667,18.626,4.1818,0,0.00011475,1146.7,4.2459e-05,0.085381,2.9869e-05,-94.51,-0.00011606,-1191,1.5445
18668,18.535,4.1818,0.05,1.0739e-06,10.732,8.2465e-07,6.1961,3.8507e-12,1.7354e-05,-8.2466e-07,-6.1962,1.5315
18669,18.535,4.4545,0,0.00011537,1152.9,4.156e-05,0.11038,3.2049e-05,-71.354,-0.00011641,-1186.8,1.5314
18670,18.626,4.3636,0,0.00011379,1137.1,4.1334e-05,0.09453,3.0998e-05,-77.567,-0.00011491,-1173.8,1.5444
18671,18.535,4.3636,0.05,9.7996e-07,9.7928,7.5248e-07,5.6538,4.0384e-12,7.9051e-06,-7.5249e-07,-5.6539,1.5314
18672,18.535,4.6364,0,0.00011424,1141.6,4.0328e-05,0.12656,3.3196e-05,-53.455,-0.00011506,-1167.4,1.5312
18673,18.626,4.5455,0,0.00011284,1127.6,4.0196e-05,0.10632,3.2148e-05,-60.364,-0.00011374,-1156.5,1.5442
18674,18.535,4.5455,0.05,8.7943e-07,8.7883,6.7529e-07,5.0739,3.3759e-12,1.0742e-05,-6.753e-07,-5.0739,1.5313
18675,18.535,4.8182,0,0.00011317,1131,3.9155e-05,0.14998,3.4272e-05,-36.542,-0.00011375,-1148.7,1.531
18676,18.626,4.7273,0,0.00011193,1118.5,3.909e-05,0.12205,3.326e-05,-43.684,-0.00011261,-1139.7,1.544
18677,18.535,4.7273,0.05,7.7423e-07,7.737,5.9451e-07,4.4669,3.4362e-12,1.2314e-05,-5.9452e-07,-4.467,1.5311
18678,18.535,5,0,0.00011218,1121,3.8088e-05,0.19257,3.5218e-05,-21.373,-0.00011252,-1131.4,1.5308
18679,18.626,4.9091,0,0.00011108,1110,3.8058e-05,0.14625,3.4277e-05,-28.27,-0.00011153,-1123.8,1.5439
18680,18.535,4.9091,0.05,6.665e-07,6.6604,5.1179e-07,3.8453,2.9239e-12,2.2166e-06,-5.1179e-07,-3.8454,1.5309
18681,18.535,5.1818,0,0.00011127,1111.9,3.7174e-05,0.32191,3.5979e-05,-8.6574,-0.00011141,-1116.1,1.5306
18682,18.626,5.0909,0,0.00011029,1102.1,3.7142e-05,0.19818,3.5147e-05,-14.79,-0.00011053,-1109.3,1.5436
18683,18.535,5.0909,0.05,5.5867e-07,5.5829,4.2899e-07,3.2232,2.202e-12,5.1353e-06,-4.2899e-07,-3.2233,1.5307
18684,18.535,5.3636,0,0.00011046,1103.9,3.6682e-05,2.3263,3.6279e-05,-0.70082,-0.00011044,-1103.1,1.5303
18685,18.626,5.2727,0,0.00010958,1095.1,3.6397e-05,0.45997,3.5807e-05,-3.9734,-0.00010964,-1096.8,1.5434
18686,18.535,5.2727,0.05,4.5366e-07,4.5335,3.4835e-07,2.6174,1.8495e-12,3.1424e-06,-3.4836e-07,-2.6174,1.5304
18687,18.535,5.5455,0,0.00010977,1097,3.6932e-05,8.4077,3.58e-05,-0.098613,-0.00010963,-1092.8,1.5301
18688,18.626,5.4545,0,0.00010897,1088.9,3.6376e-05,4.8787,3.5701e-05,-0.19225,-0.00010889,-1086.6,1.5431
18689,18.535,5.4545,0.05,3.5463e-07,3.5439,2.7231e-07,2.046,2.0409e-12,2.106e-06,-2.7231e-07,-2.0461,1.5302
18690,18.535,5.7273,0,0.00010928,1092.1,3.7066e-05,12.001,3.5464e-05,-0.032686,-0.00010907,-1086,1.5298
18691,18.626,5.6364,0,0.00010845,1083.8,3.6607e-05,9.7632,3.5301e-05,-0.052738,-0.00010829,-1078.9,1.5429
18692,18.535,5.6364,0.05,2.4739e-07,2.4722,1.8997e-07,1.4273,2.0448e-12,1.3547e-05,-1.8997e-07,-1.4273,1.5299
18693,18.626,5.8182,0,0.00010821,1081.3,3.6747e-05,12.451,3.5089e-05,-0.0081138,-0.00010799,-1075,1.5426
18694,18.535,5.8182,0.05,2.4732e-07,2.4715,1.8991e-07,1.4269,1.2146e-12,4.1196e-06,-1.8991e-07,-1.4269,1.5296
18695,18.535,5.9091,0,0.00010836,1082.9,3.6461e-05,8.4224,3.5346e-05,0.049564,-0.00010822,-1078.6,1.5294
18696,18.717,0.27273,0,0.00010737,1073,3.628e-05,10.145,3.4927e-05,-0.024827,-0.00010719,-1067.9,1.5557
18697,18.808,0.18182,0,0.00010615,1060.8,3.596e-05,11.14,3.4476e-05,-0.0080997,-0.00010596,-1055.2,1.5685
18698,18.717,0.18182,0.05,1.3331e-07,1.3322,1.0237e-07,0.76913,-1.1131e-13,3.0436e-06,-1.0236e-07,-0.76913,1.5555
18699,18.717,0.090909,0,0.00010665,1065.8,3.5829e-05,7.62,3.4822e-05,0.047207,-0.00010652,-1061.9,1.5554
18700,18.717,0.45455,0,0.00010765,1075.7,3.6041e-05,6.1556,3.5211e-05,-0.081268,-0.00010754,-1072.7,1.556
18701,18.808,0.36364,0,0.00010622,1061.5,3.5709e-05,7.8402,3.466e-05,-0.037202,-0.00010608,-1057.5,1.5688
18702,18.717,0.36364,0.05,3.3681e-07,3.3658,2.5863e-07,1.9433,2.79e-13,9.1396e-06,-2.5863e-07,-1.9433,1.5558
18703,18.717,0.63636,0,0.00010808,1080.1,3.5801e-05,0.83099,3.5518e-05,-1.2927,-0.00010809,-1080.3,1.5562
18704,18.808,0.54545,0,0.00010652,1064.5,3.5405e-05,2.9101,3.499e-05,-0.20408,-0.00010647,-1063.1,1.5691
18705,18.717,0.54545,0.05,4.2245e-07,4.2216,3.2439e-07,2.4373,1.3814e-12,1.6871e-05,-3.2439e-07,-2.4373,1.5561
18706,18.717,0.81818,0,0.0001086,1085.2,3.6347e-05,0.19309,3.4994e-05,-9.9693,-0.00010876,-1090.1,1.5565
18707,18.808,0.72727,0,0.0001069,1068.2,3.5557e-05,0.23374,3.4821e-05,-5.2909,-0.00010698,-1070.7,1.5693
18708,18.717,0.72727,0.05,4.9913e-07,4.9878,3.8327e-07,2.8797,1.9728e-12,2.3345e-05,-3.8327e-07,-2.8797,1.5563
18709,18.717,1,0,0.00010918,1091.1,3.711e-05,0.13521,3.4208e-05,-21.673,-0.00010953,-1101.7,1.5567
18710,18.808,0.90909,0,0.00010733,1072.6,3.619e-05,0.13414,3.4124e-05,-15.387,-0.00010758,-1080.1,1.5696
18711,18.717,0.90909,0.05,5.8351e-07,5.8311,4.4806e-07,3.3666,2.563e-12,2.3139e-05,-4.4806e-07,-3.3666,1.5566
18712,18.717,1.1818,0,0.00010983,1097.5,3.7993e-05,0.11249,3.3266e-05,-35.405,-0.00011039,-1114.8,1.5569
18713,18.808,1.0909,0,0.00010782,1077.5,3.695e-05,0.10804,3.3259e-05,-27.624,-0.00010826,-1091,1.5698
18714,18.717,1.0909,0.05,6.7208e-07,6.7161,5.1607e-07,3.8775,3.0822e-12,2.3116e-05,-5.1607e-07,-3.8776,1.5568
18715,18.717,1.3636,0,0.00011053,1104.5,3.8958e-05,0.098671,3.2213e-05,-50.586,-0.0001113,-1128.9,1.5571
18716,18.808,1.2727,0,0.00010836,1082.8,3.7801e-05,0.094413,3.2269e-05,-41.467,-0.000109,-1102.9,1.57
18717,18.717,1.2727,0.05,7.6142e-07,7.6089,5.8467e-07,4.393,3.3909e-12,2.1829e-05,-5.8467e-07,-4.393,1.557
18718,18.717,1.5455,0,0.00011126,1111.8,3.997e-05,0.088337,3.1099e-05,-66.569,-0.00011224,-1143.6,1.5572
18719,18.808,1.4545,0,0.00010893,1088.6,3.871e-05,0.084714,3.1199e-05,-56.35,-0.00010978,-1115.6,1.5701
18720,18.717,1.4545,0.05,8.4886e-07,8.4828,6.5182e-07,4.8975,3.5461e-12,2.3958e-05,-6.5182e-07,-4.8975,1.5571
18721,18.717,1.7273,0,0.00011201,1119.3,4.0989e-05,0.080051,2.9977e-05,-82.659,-0.00011319,-1158.3,1.5574
18722,18.808,1.6364,0,0.00010953,1094.6,3.9644e-05,0.076888,3.0098e-05,-71.648,-0.00011058,-1128.6,1.5703
18723,18.717,1.6364,0.05,9.3228e-07,9.3164,7.1588e-07,5.3788,3.8133e-12,3.0443e-05,-7.1588e-07,-5.3788,1.5573
18724,18.717,1.9091,0,0.00011277,1126.9,4.1974e-05,0.073484,2.8902e-05,-98.147,-0.00011411,-1172.7,1.5575
18725,18.808,1.8182,0,0.00011015,1100.7,4.0564e-05,0.070417,2.9015e-05,-86.702,-0.00011136,-1141.5,1.5704
18726,18.717,1.8182,0.05,1.0099e-06,10.092,7.7551e-07,5.8268,4.3508e-12,3.0451e-05,-7.7551e-07,-5.8269,1.5574
18727,18.717,2.0909,0,0.00011349,1134.2,4.2886e-05,0.068643,2.7922e-05,-112.36,-0.00011499,-1186.1,1.5576
18728,18.808,2,0,0.00011075,1106.7,4.1435e-05,0.06529,2.8002e-05,-100.87,-0.00011212,-1153.7,1.5705
18729,18.717,2,0.05,1.0804e-06,10.796,8.2958e-07,6.2331,4.6026e-12,2.7466e-05,-8.2959e-07,-6.2332,1.5575
18730,18.717,2.2727,0,0.00011416,1140.8,4.3688e-05,0.065496,2.7079e-05,-124.73,-0.00011577,-1198,1.5577
18731,18.808,2.1818,0,0.00011132,1112.5,4.2222e-05,0.061575,2.7101e-05,-113.55,-0.00011282,-1164.8,1.5706
18732,18.717,2.1818,0.05,1.1422e-06,11.414,8.7708e-07,6.59,5.129e-12,3.0036e-05,-8.7709e-07,-6.5901,1.5576
18733,18.717,2.4545,0,0.00011474,1146.6,4.4347e-05,0.063815,2.6402e-05,-134.77,-0.00011643,-1208,1.5577
18734,18.808,2.3636,0,0.00011183,1117.6,4.2892e-05,0.059215,2.6348e-05,-124.25,-0.00011342,-1174.4,1.5706
18735,18.717,2.3636,0.05,1.1942e-06,11.934,9.1698e-07,6.8898,4.8325e-12,2.8202e-05,-9.1698e-07,-6.8899,1.5577
18736,18.717,2.6364,0,0.00011518,1151,4.4837e-05,0.063177,2.591e-05,-142.15,-0.00011693,-1215.4,1.5578
18737,18.808,2.5455,0,0.00011225,1121.7,4.342e-05,0.057974,2.5768e-05,-132.57,-0.00011392,-1182.1,1.5707
18738,18.717,2.5455,0.05,1.2348e-06,12.34,9.4821e-07,7.1244,5.3085e-12,2.6065e-05,-9.4821e-07,-7.1245,1.5577
18739,18.717,2.8182,0,0.00011546,1153.8,4.5139e-05,0.063072,2.5612e-05,-146.65,-0.00011725,-1220.1,1.5578
18740,18.808,2.7273,0,0.00011255,1124.7,4.3783e-05,0.057476,2.5374e-05,-138.26,-0.00011426,-1187.4,1.5707
18741,18.717,2.7273,0.05,1.2629e-06,12.62,9.6974e-07,7.2863,4.7516e-12,2.5788e-05,-9.6975e-07,-7.2863,1.5578
18742,18.717,3,0,0.00011555,1154.7,4.5241e-05,0.06309,2.5513e-05,-148.17,-0.00011736,-1221.6,1.5578
18743,18.808,2.9091,0,0.0001127,1126.3,4.3969e-05,0.057344,2.5176e-05,-141.14,-0.00011444,-1190.1,1.5707
18744,18.717,2.9091,0.05,1.2772e-06,12.763,9.8075e-07,7.369,5.2929e-12,2.889e-05,-9.8076e-07,-7.369,1.5578
18745,18.717,3.1818,0,0.00011546,1153.8,4.5139e-05,0.063073,2.5612e-05,-146.65,-0.00011725,-1220.1,1.5578
18746,18.808,3.0909,0,0.0001127,1126.3,4.3969e-05,0.057344,2.5176e-05,-141.14,-0.00011444,-1190.1,1.5707
18747,18.717,3.0909,0.05,1.2772e-06,12.763,9.8075e-07,7.369,5.1737e-12,2.65e-05,-9.8076e-07,-7.369,1.5578
18748,18.717,3.3636,0,0.00011518,1151,4.4837e-05,0.063178,2.591e-05,-142.15,-0.00011693,-1215.4,1.5578
18749,18.808,3.2727,0,0.00011255,1124.7,4.3783e-05,0.057475,2.5374e-05,-138.26,-0.00011426,-1187.4,1.5707
18750,18.717,3.2727,0.05,1.2629e-06,12.62,9.6974e-07,7.2863,5.3327e-12,2.6454e-05,-9.6975e-07,-7.2863,1.5578
18751,18.717,3.5455,0,0.00011474,1146.6,4.4347e-05,0.063816,2.6402e-05,-134.77,-0.00011643,-1208,1.5577
18752,18.808,3.4545,0,0.00011225,1121.7,4.342e-05,0.057974,2.5768e-05,-132.57,-0.00011392,-1182.1,1.5707
18753,18.717,3.4545,0.05,1.2348e-06,12.34,9.4821e-07,7.1244,4.9054e-12,2.3549e-05,-9.4821e-07,-7.1245,1.5577
18754,18.717,3.7273,0,0.00011416,1140.8,4.3688e-05,0.065494,2.7079e-05,-124.73,-0.00011577,-1198,1.5577
18755,18.808,3.6364,0,0.00011183,1117.6,4.2892e-05,0.059215,2.6348e-05,-124.25,-0.00011342,-1174.4,1.5706
18756,18.717,3.6364,0.05,1.1942e-06,11.934,9.1698e-07,6.8898,5.0507e-12,2.5436e-05,-9.1698e-07,-6.8899,1.5577
18757,18.717,3.9091,0,0.00011349,1134.2,4.2886e-05,0.068642,2.7922e-05,-112.36,-0.00011499,-1186.1,1.5576
18758,18.808,3.8182,0,0.00011132,1112.5,4.2222e-05,0.061574,2.7101e-05,-113.55,-0.00011282,-1164.8,1.5706
18759,18.717,3.8182,0.05,1.1422e-06,11.414,8.7708e-07,6.59,4.5935e-12,2.2502e-05,-8.7709e-07,-6.5901,1.5576
18760,18.717,4.0909,0,0.00011277,1126.9,4.1974e-05,0.073484,2.8902e-05,-98.147,-0.00011411,-1172.7,1.5575
18761,18.808,4,0,0.00011075,1106.7,4.1435e-05,0.06529,2.8002e-05,-100.87,-0.00011212,-1153.7,1.5705
18762,18.717,4,0.05,1.0804e-06,10.796,8.2958e-07,6.2331,4.3456e-12,2.1678e-05,-8.2959e-07,-6.2332,1.5575
18763,18.717,4.2727,0,0.00011201,1119.3,4.0989e-05,0.08005,2.9977e-05,-82.659,-0.00011319,-1158.3,1.5574
18764,18.808,4.1818,0,0.00011015,1100.7,4.0564e-05,0.070417,2.9015e-05,-86.702,-0.00011136,-1141.5,1.5704
18765,18.717,4.1818,0.05,1.0099e-06,10.092,7.755e-07,5.8268,4.1911e-12,1.5536e-05,-7.7551e-07,-5.8269,1.5574
18766,18.717,4.4545,0,0.00011126,1111.8,3.997e-05,0.088338,3.1099e-05,-66.569,-0.00011224,-1143.6,1.5572
18767,18.808,4.3636,0,0.00010953,1094.6,3.9644e-05,0.076888,3.0098e-05,-71.648,-0.00011058,-1128.6,1.5703
18768,18.717,4.3636,0.05,9.3228e-07,9.3164,7.1587e-07,5.3788,3.9316e-12,1.9222e-05,-7.1588e-07,-5.3789,1.5573
18769,18.717,4.6364,0,0.00011053,1104.5,3.8958e-05,0.098672,3.2213e-05,-50.586,-0.0001113,-1128.9,1.5571
18770,18.808,4.5455,0,0.00010893,1088.6,3.871e-05,0.084716,3.1199e-05,-56.35,-0.00010978,-1115.6,1.5701
18771,18.717,4.5455,0.05,8.4886e-07,8.4828,6.5182e-07,4.8975,3.6972e-12,1.2011e-05,-6.5182e-07,-4.8976,1.5571
18772,18.717,4.8182,0,0.00010983,1097.5,3.7993e-05,0.11249,3.3266e-05,-35.405,-0.00011039,-1114.8,1.5569
18773,18.808,4.7273,0,0.00010836,1082.8,3.7801e-05,0.094413,3.2269e-05,-41.467,-0.000109,-1102.9,1.57
18774,18.717,4.7273,0.05,7.6142e-07,7.6089,5.8467e-07,4.393,3.683e-12,1.6858e-05,-5.8468e-07,-4.393,1.557
18775,18.717,5,0,0.00010918,1091.1,3.711e-05,0.13521,3.4208e-05,-21.673,-0.00010953,-1101.7,1.5567
18776,18.808,4.9091,0,0.00010782,1077.5,3.695e-05,0.10804,3.3259e-05,-27.624,-0.00010826,-1091,1.5698
18777,18.717,4.9091,0.05,6.7208e-07,6.7161,5.1607e-07,3.8775,3.2916e-12,1.4751e-05,-5.1607e-07,-3.8776,1.5568
18778,18.717,5.1818,0,0.0001086,1085.2,3.6346e-05,0.19309,3.4994e-05,-9.9692,-0.00010876,-1090.1,1.5565
18779,18.808,5.0909,0,0.00010733,1072.6,3.619e-05,0.13414,3.4124e-05,-15.387,-0.00010758,-1080.1,1.5696
18780,18.717,5.0909,0.05,5.8351e-07,5.8311,4.4806e-07,3.3665,3.4149e-12,1.3183e-05,-4.4806e-07,-3.3666,1.5566
18781,18.717,5.3636,0,0.00010808,1080.1,3.5801e-05,0.83101,3.5518e-05,-1.2927,-0.00010809,-1080.3,1.5562
18782,18.808,5.2727,0,0.0001069,1068.2,3.5557e-05,0.23374,3.4821e-05,-5.2908,-0.00010698,-1070.7,1.5693
18783,18.717,5.2727,0.05,4.9913e-07,4.9878,3.8327e-07,2.8797,3.0129e-12,1.0787e-05,-3.8327e-07,-2.8798,1.5563
18784,18.717,5.5455,0,0.00010765,1075.7,3.6041e-05,6.1556,3.5211e-05,-0.081267,-0.00010754,-1072.7,1.556
18785,18.808,5.4545,0,0.00010652,1064.5,3.5405e-05,2.9102,3.499e-05,-0.20407,-0.00010647,-1063.1,1.5691
18786,18.717,5.4545,0.05,4.2245e-07,4.2216,3.2439e-07,2.4373,2.5061e-12,1.1548e-05,-3.2439e-07,-2.4373,1.5561
18787,18.717,5.7273,0,0.00010737,1073,3.628e-05,10.145,3.4927e-05,-0.024828,-0.00010719,-1067.9,1.5557
18788,18.808,5.6364,0,0.00010622,1061.5,3.5709e-05,7.8402,3.466e-05,-0.037201,-0.00010608,-1057.5,1.5688
18789,18.717,5.6364,0.05,3.3681e-07,3.3658,2.5863e-07,1.9432,2.3207e-12,1.3851e-05,-2.5863e-07,-1.9433,1.5558
18790,18.808,5.8182,0,0.00010615,1060.8,3.596e-05,11.14,3.4476e-05,-0.0081006,-0.00010596,-1055.2,1.5685
18791,18.717,5.8182,0.05,1.3331e-07,1.3322,1.0236e-07,0.76913,1.351e-12,3.526e-06,-1.0237e-07,-0.76913,1.5555
18792,18.717,5.9091,0,0.00010665,1065.8,3.5829e-05,7.62,3.4822e-05,0.047208,-0.00010652,-1061.9,1.5554
18793,18.899,0.27273,0,0.00010499,1049.2,3.5378e-05,8.7547,3.421e-05,-0.018103,-0.00010484,-1044.8,1.5817
18794,18.99,0.18182,0,0.00010366,1035.9,3.5059e-05,10.211,3.3699e-05,-0.0077397,-0.00010348,-1030.7,1.5945
18795,18.899,0.18182,0.05,4.7747e-08,0.47714,3.6664e-08,0.27549,4.981e-13,1.1115e-05,-3.6663e-08,-0.27546,1.5815
18796,18.899,0.090909,0,0.00010443,1043.6,3.5047e-05,7.0483,3.4115e-05,0.043268,-0.00010431,-1040,1.5814
18797,18.899,0.45455,0,0.00010509,1050.2,3.5056e-05,4.4762,3.4452e-05,-0.06544,-0.00010501,-1048,1.5819
18798,18.99,0.36364,0,0.00010358,1035.1,3.4719e-05,6.4279,3.386e-05,-0.023679,-0.00010347,-1031.9,1.5948
18799,18.899,0.36364,0.05,4.1266e-07,4.1238,3.1687e-07,2.3809,-1.4321e-13,6.9873e-06,-3.1687e-07,-2.3809,1.5818
18800,18.899,0.63636,0,0.00010533,1052.6,3.4895e-05,0.31753,3.4556e-05,-2.2279,-0.00010536,-1053.5,1.5822
18801,18.99,0.54545,0,0.00010371,1036.4,3.4367e-05,1.5579,3.4128e-05,-0.2374,-0.00010369,-1035.8,1.5951
18802,18.899,0.54545,0.05,4.8345e-07,4.8312,3.7123e-07,2.7893,9.3088e-13,8.4177e-06,-3.7123e-07,-2.7893,1.5821
18803,18.899,0.81818,0,0.00010562,1055.5,3.5394e-05,0.12525,3.3956e-05,-10.679,-0.0001058,-1060.7,1.5824
18804,18.99,0.72727,0,0.0001039,1038.3,3.4602e-05,0.13733,3.3771e-05,-6.1058,-0.000104,-1041.3,1.5953
18805,18.899,0.72727,0.05,5.4277e-07,5.424,4.1678e-07,3.1315,1.7304e-12,1.1952e-05,-4.1678e-07,-3.1315,1.5823
18806,18.899,1,0,0.00010596,1058.9,3.6028e-05,0.098395,3.3174e-05,-21.346,-0.00010631,-1069.4,1.5827
18807,18.99,0.90909,0,0.00010414,1040.6,3.5132e-05,0.094981,3.3072e-05,-15.383,-0.00010439,-1048.2,1.5956
18808,18.899,0.90909,0.05,6.0952e-07,6.091,4.6804e-07,3.5166,2.1251e-12,2.0297e-05,-4.6804e-07,-3.5166,1.5825
18809,18.899,1.1818,0,0.00010635,1062.7,3.6757e-05,0.086451,3.2261e-05,-33.695,-0.00010688,-1079.1,1.5828
18810,18.99,1.0909,0,0.0001044,1043.3,3.576e-05,0.082038,3.2234e-05,-26.413,-0.00010483,-1056.2,1.5958
18811,18.899,1.0909,0.05,6.8097e-07,6.805,5.229e-07,3.9289,2.5263e-12,2.1596e-05,-5.229e-07,-3.9289,1.5827
18812,18.899,1.3636,0,0.00010676,1066.9,3.7552e-05,0.078395,3.1254e-05,-47.239,-0.00010749,-1089.7,1.583
18813,18.99,1.2727,0,0.00010471,1046.3,3.6462e-05,0.074562,3.1292e-05,-38.77,-0.00010531,-1065.1,1.5959
18814,18.899,1.2727,0.05,7.5391e-07,7.5339,5.7891e-07,4.3497,2.9609e-12,2.1598e-05,-5.7891e-07,-4.3497,1.5829
18815,18.899,1.5455,0,0.00010721,1071.3,3.8383e-05,0.071794,3.0197e-05,-61.435,-0.00010812,-1100.7,1.5832
18816,18.99,1.4545,0,0.00010503,1049.6,3.7209e-05,0.068653,3.0282e-05,-51.978,-0.00010582,-1074.6,1.5961
18817,18.899,1.4545,0.05,8.2574e-07,8.2517,6.3406e-07,4.7641,2.9109e-12,2.731e-05,-6.3407e-07,-4.7641,1.5831
18818,18.899,1.7273,0,0.00010766,1075.9,3.9218e-05,0.066085,2.9135e-05,-75.696,-0.00010875,-1111.7,1.5833
18819,18.99,1.6364,0,0.00010538,1053.1,3.7975e-05,0.063443,2.9248e-05,-65.51,-0.00010634,-1084.3,1.5962
18820,18.899,1.6364,0.05,8.9439e-07,8.9377,6.8678e-07,5.1602,3.3363e-12,2.9879e-05,-6.8678e-07,-5.1602,1.5832
18821,18.899,1.9091,0,0.00010813,1080.5,4.0025e-05,0.061236,2.8115e-05,-89.425,-0.00010937,-1122.4,1.5834
18822,18.99,1.8182,0,0.00010574,1056.6,3.8729e-05,0.058808,2.8232e-05,-78.812,-0.00010686,-1093.8,1.5964
18823,18.899,1.8182,0.05,9.5822e-07,9.5756,7.3579e-07,5.5285,4.1765e-12,2.6939e-05,-7.358e-07,-5.5285,1.5833
18824,18.899,2.0909,0,0.00010858,1085,4.0771e-05,0.057363,2.7181e-05,-102.05,-0.00010995,-1132.4,1.5835
18825,18.99,2,0,0.00010609,1060.2,3.9442e-05,0.054864,2.7278e-05,-91.338,-0.00010735,-1102.9,1.5965
18826,18.899,2,0.05,1.0159e-06,10.152,7.8009e-07,5.8613,4.4545e-12,2.4798e-05,-7.8009e-07,-5.8613,1.5834
18827,18.899,2.2727,0,0.00010899,1089.1,4.1427e-05,0.054536,2.637e-05,-113.07,-0.00011047,-1141.2,1.5836
18828,18.99,2.1818,0,0.00010643,1063.6,4.0085e-05,0.051747,2.6426e-05,-102.58,-0.0001078,-1111.1,1.5965
18829,18.899,2.1818,0.05,1.0663e-06,10.655,8.1877e-07,6.1519,4.5213e-12,2.7899e-05,-8.1878e-07,-6.152,1.5835
18830,18.899,2.4545,0,0.00010935,1092.7,4.1966e-05,0.052696,2.5713e-05,-122.06,-0.00011091,-1148.6,1.5836
18831,18.99,2.3636,0,0.00010674,1066.6,4.0634e-05,0.049501,2.5708e-05,-112.1,-0.0001082,-1118.2,1.5966
18832,18.899,2.3636,0.05,1.1083e-06,11.075,8.5104e-07,6.3943,4.6097e-12,2.7939e-05,-8.5104e-07,-6.3944,1.5836
18833,18.899,2.6364,0,0.00010962,1095.5,4.2366e-05,0.051658,2.5231e-05,-128.7,-0.00011124,-1154.1,1.5837
18834,18.99,2.5455,0,0.00010699,1069.1,4.1065e-05,0.048057,2.515e-05,-119.53,-0.00010852,-1123.9,1.5967
18835,18.899,2.5455,0.05,1.141e-06,11.402,8.7611e-07,6.5827,4.8372e-12,2.6468e-05,-8.7612e-07,-6.5828,1.5836
18836,18.899,2.8182,0,0.0001098,1097.2,4.2613e-05,0.051173,2.4937e-05,-132.77,-0.00011145,-1157.5,1.5837
18837,18.99,2.7273,0,0.00010717,1070.9,4.1362e-05,0.04725,2.4769e-05,-124.63,-0.00010874,-1127.8,1.5967
18838,18.899,2.7273,0.05,1.1633e-06,11.625,8.9329e-07,6.7118,4.838e-12,2.6507e-05,-8.933e-07,-6.7119,1.5837
18839,18.899,3,0,0.00010985,1097.8,4.2697e-05,0.051037,2.4838e-05,-134.14,-0.00011152,-1158.7,1.5837
18840,18.99,2.9091,0,0.00010726,1071.9,4.1514e-05,0.046904,2.4576e-05,-127.22,-0.00010886,-1129.8,1.5967
18841,18.899,2.9091,0.05,1.1747e-06,11.739,9.0204e-07,6.7775,4.7888e-12,3.0423e-05,-9.0204e-07,-6.7776,1.5837
18842,18.899,3.1818,0,0.0001098,1097.2,4.2613e-05,0.051172,2.4937e-05,-132.77,-0.00011145,-1157.5,1.5837
18843,18.99,3.0909,0,0.00010726,1071.9,4.1514e-05,0.046903,2.4576e-05,-127.22,-0.00010886,-1129.8,1.5967
18844,18.899,3.0909,0.05,1.1747e-06,11.739,9.0204e-07,6.7776,4.999e-12,2.4981e-05,-9.0204e-07,-6.7776,1.5837
18845,18.899,3.3636,0,0.00010962,1095.5,4.2366e-05,0.051657,2.5231e-05,-128.7,-0.00011124,-1154.1,1.5837
18846,18.99,3.2727,0,0.00010717,1070.9,4.1362e-05,0.04725,2.4769e-05,-124.63,-0.00010874,-1127.8,1.5967
18847,18.899,3.2727,0.05,1.1633e-06,11.625,8.9329e-07,6.7118,5.0188e-12,2.5371e-05,-8.933e-07,-6.7119,1.5837
18848,18.899,3.5455,0,0.00010935,1092.7,4.1966e-05,0.052697,2.5713e-05,-122.06,-0.00011091,-1148.6,1.5836
18849,18.99,3.4545,0,0.00010699,1069.1,4.1065e-05,0.048057,2.515e-05,-119.53,-0.00010852,-1123.9,1.5967
18850,18.899,3.4545,0.05,1.141e-06,11.402,8.7611e-07,6.5827,5.1519e-12,2.4331e-05,-8.7612e-07,-6.5828,1.5836
18851,18.899,3.7273,0,0.00010899,1089.1,4.1427e-05,0.054537,2.637e-05,-113.07,-0.00011047,-1141.2,1.5836
18852,18.99,3.6364,0,0.00010674,1066.6,4.0634e-05,0.049501,2.5708e-05,-112.1,-0.0001082,-1118.2,1.5966
18853,18.899,3.6364,0.05,1.1083e-06,11.075,8.5104e-07,6.3943,4.8795e-12,2.535e-05,-8.5104e-07,-6.3944,1.5836
18854,18.899,3.9091,0,0.00010858,1085,4.0771e-05,0.057364,2.7181e-05,-102.05,-0.00010995,-1132.4,1.5835
18855,18.99,3.8182,0,0.00010643,1063.6,4.0085e-05,0.051748,2.6426e-05,-102.58,-0.0001078,-1111.1,1.5965
18856,18.899,3.8182,0.05,1.0663e-06,10.655,8.1877e-07,6.1519,4.9966e-12,2.3447e-05,-8.1878e-07,-6.152,1.5835
18857,18.899,4.0909,0,0.00010813,1080.5,4.0025e-05,0.061236,2.8115e-05,-89.425,-0.00010937,-1122.4,1.5834
18858,18.99,4,0,0.00010609,1060.2,3.9442e-05,0.054864,2.7278e-05,-91.338,-0.00010735,-1102.9,1.5965
18859,18.899,4,0.05,1.0159e-06,10.152,7.8009e-07,5.8613,4.6346e-12,2.2748e-05,-7.8009e-07,-5.8613,1.5834
18860,18.899,4.2727,0,0.00010766,1075.9,3.9218e-05,0.066084,2.9135e-05,-75.696,-0.00010875,-1111.7,1.5833
18861,18.99,4.1818,0,0.00010574,1056.6,3.8729e-05,0.058808,2.8232e-05,-78.812,-0.00010686,-1093.8,1.5964
18862,18.899,4.1818,0.05,9.5822e-07,9.5756,7.3579e-07,5.5285,4.0672e-12,2.0543e-05,-7.358e-07,-5.5285,1.5833
18863,18.899,4.4545,0,0.00010721,1071.3,3.8383e-05,0.071795,3.0197e-05,-61.435,-0.00010812,-1100.7,1.5832
18864,18.99,4.3636,0,0.00010538,1053.1,3.7975e-05,0.063443,2.9248e-05,-65.51,-0.00010634,-1084.3,1.5962
18865,18.899,4.3636,0.05,8.9439e-07,8.9377,6.8678e-07,5.1602,3.8655e-12,2.2979e-05,-6.8678e-07,-5.1602,1.5832
18866,18.899,4.6364,0,0.00010676,1066.9,3.7552e-05,0.078396,3.1254e-05,-47.239,-0.00010749,-1089.7,1.583
18867,18.99,4.5455,0,0.00010503,1049.6,3.7209e-05,0.068653,3.0282e-05,-51.978,-0.00010582,-1074.6,1.5961
18868,18.899,4.5455,0.05,8.2574e-07,8.2517,6.3406e-07,4.7641,4.3157e-12,1.9845e-05,-6.3407e-07,-4.7641,1.5831
18869,18.899,4.8182,0,0.00010635,1062.7,3.6757e-05,0.086451,3.2261e-05,-33.695,-0.00010688,-1079.1,1.5828
18870,18.99,4.7273,0,0.00010471,1046.3,3.6462e-05,0.074563,3.1292e-05,-38.77,-0.00010531,-1065.1,1.5959
18871,18.899,4.7273,0.05,7.5391e-07,7.5339,5.7891e-07,4.3497,3.2947e-12,2.0342e-05,-5.7892e-07,-4.3497,1.5829
18872,18.899,5,0,0.00010596,1058.9,3.6028e-05,0.098395,3.3174e-05,-21.346,-0.00010631,-1069.4,1.5827
18873,18.99,4.9091,0,0.0001044,1043.3,3.576e-05,0.082037,3.2234e-05,-26.413,-0.00010483,-1056.2,1.5958
18874,18.899,4.9091,0.05,6.8097e-07,6.805,5.229e-07,3.9289,3.7589e-12,2.138e-05,-5.2291e-07,-3.9289,1.5827
18875,18.899,5.1818,0,0.00010562,1055.5,3.5394e-05,0.12525,3.3956e-05,-10.679,-0.0001058,-1060.7,1.5824
18876,18.99,5.0909,0,0.00010414,1040.6,3.5132e-05,0.094981,3.3072e-05,-15.383,-0.00010439,-1048.2,1.5956
18877,18.899,5.0909,0.05,6.0952e-07,6.091,4.6803e-07,3.5166,3.6978e-12,1.7757e-05,-4.6804e-07,-3.5167,1.5825
18878,18.899,5.3636,0,0.00010533,1052.6,3.4895e-05,0.31754,3.4556e-05,-2.2278,-0.00010536,-1053.5,1.5822
18879,18.99,5.2727,0,0.0001039,1038.3,3.4602e-05,0.13733,3.3771e-05,-6.1058,-0.000104,-1041.3,1.5953
18880,18.899,5.2727,0.05,5.4277e-07,5.424,4.1678e-07,3.1315,2.6249e-12,2.0809e-05,-4.1678e-07,-3.1315,1.5823
18881,18.899,5.5455,0,0.00010509,1050.2,3.5056e-05,4.4762,3.4452e-05,-0.065438,-0.00010501,-1048,1.5819
18882,18.99,5.4545,0,0.00010371,1036.4,3.4367e-05,1.558,3.4128e-05,-0.2374,-0.00010369,-1035.8,1.5951
18883,18.899,5.4545,0.05,4.8345e-07,4.8312,3.7123e-07,2.7893,2.5011e-12,1.4893e-05,-3.7123e-07,-2.7893,1.5821
18884,18.899,5.7273,0,0.00010499,1049.2,3.5378e-05,8.7547,3.421e-05,-0.018102,-0.00010484,-1044.8,1.5817
18885,18.99,5.6364,0,0.00010358,1035.1,3.4719e-05,6.4279,3.386e-05,-0.023677,-0.00010347,-1031.9,1.5948
18886,18.899,5.6364,0.05,4.1266e-07,4.1238,3.1687e-07,2.3809,2.2783e-12,1.3351e-05,-3.1687e-07,-2.3809,1.5818
18887,18.99,5.8182,0,0.00010366,1035.9,3.5059e-05,10.211,3.3699e-05,-0.0077384,-0.00010348,-1030.7,1.5945
18888,18.899,5.8182,0.05,4.7746e-08,0.47714,3.6664e-08,0.27547,-8.9721e-13,-6.5315e-06,-3.6663e-08,-0.27548,1.5815
18889,18.899,5.9091,0,0.00010443,1043.6,3.5047e-05,7.0483,3.4115e-05,0.043268,-0.00010431,-1040,1.5814
18890,19.081,0.27273,0,0.00010223,1021.6,3.4389e-05,7.7954,3.3349e-05,-0.012251,-0.0001021,-1017.7,1.6077
18891,19.172,0.18182,0,0.00010082,1007.5,3.4073e-05,9.6268,3.2791e-05,-0.0070422,-0.00010065,-1002.6,1.6206
18892,19.081,0.18182,0.05,4.2521e-08,0.42492,3.2651e-08,0.24533,7.4439e-13,1.739e-05,-3.2651e-08,-0.24532,1.6076
18893,19.081,0.090909,0,0.00010179,1017.2,3.4148e-05,6.6861,3.3263e-05,0.038134,-0.00010168,-1013.9,1.6074
18894,19.081,0.45455,0,0.0001022,1021.3,3.4006e-05,3.332,3.3556e-05,-0.048565,-0.00010214,-1019.6,1.608
18895,19.172,0.36364,0,0.00010062,1005.5,3.3664e-05,5.4889,3.2932e-05,-0.011932,-0.00010053,-1002.8,1.6209
18896,19.081,0.36364,0.05,4.7426e-07,4.7394,3.6418e-07,2.7363,3.8777e-13,1.0039e-05,-3.6418e-07,-2.7363,1.6078
18897,19.081,0.63636,0,0.00010228,1022.1,3.3912e-05,0.15826,3.3501e-05,-2.9239,-0.00010233,-1023.5,1.6082
18898,19.172,0.54545,0,0.00010063,1005.6,3.3286e-05,0.77404,3.3145e-05,-0.28726,-0.00010062,-1005.4,1.6212
18899,19.081,0.54545,0.05,5.3463e-07,5.3426,4.1053e-07,3.0845,6.5252e-13,9.9798e-06,-4.1053e-07,-3.0845,1.6081
18900,19.081,0.81818,0,0.00010241,1023.4,3.4337e-05,0.086216,3.2886e-05,-10.816,-0.00010259,-1028.7,1.6085
18901,19.172,0.72727,0,0.00010068,1006.1,3.3548e-05,0.08871,3.2685e-05,-6.3906,-0.00010079,-1009.2,1.6214
18902,19.081,0.72727,0.05,5.8087e-07,5.8047,4.4604e-07,3.3514,6.5475e-13,1.2239e-05,-4.4604e-07,-3.3514,1.6083
18903,19.081,1,0,0.00010257,1025,3.4863e-05,0.073932,3.2129e-05,-20.469,-0.0001029,-1035,1.6087
18904,19.172,0.90909,0,0.00010076,1006.9,3.3989e-05,0.069912,3.2005e-05,-14.836,-0.000101,-1014.2,1.6216
18905,19.081,0.90909,0.05,6.3344e-07,6.33,4.864e-07,3.6546,2.0298e-12,1.7158e-05,-4.864e-07,-3.6546,1.6086
18906,19.081,1.1818,0,0.00010276,1026.9,3.5465e-05,0.067985,3.1262e-05,-31.507,-0.00010326,-1042.2,1.6089
18907,19.172,1.0909,0,0.00010087,1008,3.4508e-05,0.063931,3.121e-05,-24.716,-0.00010126,-1020.1,1.6218
18908,19.081,1.0909,0.05,6.9057e-07,6.9009,5.3027e-07,3.9843,2.6116e-12,2.3487e-05,-5.3027e-07,-3.9843,1.6088
18909,19.081,1.3636,0,0.00010297,1029,3.6118e-05,0.063454,3.0317e-05,-43.525,-0.00010364,-1050,1.609
18910,19.172,1.2727,0,0.00010099,1009.2,3.5085e-05,0.060098,3.0328e-05,-35.684,-0.00010155,-1026.6,1.622
18911,19.081,1.2727,0.05,7.4955e-07,7.4903,5.7556e-07,4.3245,2.9354e-12,2.3807e-05,-5.7556e-07,-4.3245,1.6089
18912,19.081,1.5455,0,0.0001032,1031.3,3.6801e-05,0.059282,2.9331e-05,-56.066,-0.00010404,-1058.2,1.6092
18913,19.172,1.4545,0,0.00010114,1010.7,3.5699e-05,0.056609,2.9391e-05,-47.342,-0.00010186,-1033.5,1.6221
18914,19.081,1.4545,0.05,8.0805e-07,8.0749,6.2048e-07,4.662,3.1969e-12,2.5501e-05,-6.2048e-07,-4.662,1.6091
18915,19.081,1.7273,0,0.00010345,1033.8,3.7485e-05,0.05533,2.8343e-05,-68.636,-0.00010444,-1066.3,1.6093
18916,19.172,1.6364,0,0.0001013,1012.3,3.6327e-05,0.053164,2.8434e-05,-59.246,-0.00010218,-1040.6,1.6223
18917,19.081,1.6364,0.05,8.6417e-07,8.6358,6.6358e-07,4.9859,3.7684e-12,2.6498e-05,-6.6358e-07,-4.9859,1.6092
18918,19.081,1.9091,0,0.0001037,1036.3,3.8146e-05,0.051715,2.7394e-05,-80.733,-0.00010483,-1074.2,1.6094
18919,19.172,1.8182,0,0.00010148,1014.1,3.6944e-05,0.049829,2.7497e-05,-70.932,-0.0001025,-1047.7,1.6224
18920,19.081,1.8182,0.05,9.1642e-07,9.1579,7.037e-07,5.2873,3.8221e-12,2.7961e-05,-7.037e-07,-5.2873,1.6094
18921,19.081,2.0909,0,0.00010395,1038.7,3.8756e-05,0.048607,2.6522e-05,-91.87,-0.0001052,-1081.6,1.6095
18922,19.172,2,0,0.00010166,1015.9,3.7527e-05,0.04678,2.6616e-05,-81.937,-0.0001028,-1054.3,1.6225
18923,19.081,2,0.05,9.6357e-07,9.6291,7.399e-07,5.5593,3.9515e-12,2.9432e-05,-7.399e-07,-5.5593,1.6095
18924,19.081,2.2727,0,0.00010418,1041,3.9292e-05,0.046135,2.5763e-05,-101.61,-0.00010553,-1088.1,1.6096
18925,19.172,2.1818,0,0.00010183,1017.6,3.8054e-05,0.044188,2.5826e-05,-91.826,-0.00010308,-1060.4,1.6226
18926,19.081,2.1818,0.05,1.0046e-06,10.039,7.7142e-07,5.7961,4.3818e-12,2.7138e-05,-7.7142e-07,-5.7962,1.6095
18927,19.081,2.4545,0,0.00010438,1043.1,3.9733e-05,0.044334,2.5144e-05,-109.57,-0.00010581,-1093.5,1.6096
18928,19.172,2.3636,0,0.00010199,1019.2,3.8502e-05,0.042155,2.5158e-05,-100.21,-0.00010332,-1065.6,1.6226
18929,19.081,2.3636,0.05,1.0387e-06,10.38,7.9758e-07,5.9927,4.3473e-12,2.8188e-05,-7.9759e-07,-5.9928,1.6096
18930,19.081,2.6364,0,0.00010453,1044.6,4.0061e-05,0.043159,2.4687e-05,-115.47,-0.00010602,-1097.5,1.6097
18931,19.172,2.5455,0,0.00010212,1020.5,3.8854e-05,0.040705,2.4637e-05,-106.79,-0.00010352,-1069.7,1.6227
18932,19.081,2.5455,0.05,1.065e-06,10.643,8.1781e-07,6.1447,4.6179e-12,2.8145e-05,-8.1782e-07,-6.1448,1.6097
18933,19.081,2.8182,0,0.00010463,1045.6,4.0263e-05,0.042515,2.4407e-05,-119.09,-0.00010615,-1100,1.6097
18934,19.172,2.7273,0,0.00010222,1021.5,3.9098e-05,0.039798,2.4279e-05,-111.3,-0.00010365,-1072.5,1.6227
18935,19.081,2.7273,0.05,1.083e-06,10.823,8.3162e-07,6.2484,4.6946e-12,2.7336e-05,-8.3162e-07,-6.2485,1.6097
18936,19.081,3,0,0.00010467,1045.9,4.0331e-05,0.042312,2.4313e-05,-120.31,-0.00010619,-1100.9,1.6097
18937,19.172,2.9091,0,0.00010227,1022,3.9222e-05,0.039369,2.4098e-05,-113.6,-0.00010372,-1074,1.6227
18938,19.081,2.9091,0.05,1.0921e-06,10.914,8.3862e-07,6.301,4.5155e-12,2.7218e-05,-8.3862e-07,-6.3011,1.6097
18939,19.081,3.1818,0,0.00010463,1045.6,4.0263e-05,0.042515,2.4407e-05,-119.09,-0.00010615,-1100,1.6097
18940,19.172,3.0909,0,0.00010227,1022,3.9222e-05,0.039367,2.4098e-05,-113.6,-0.00010372,-1074,1.6227
18941,19.081,3.0909,0.05,1.0921e-06,10.914,8.3862e-07,6.301,4.5878e-12,2.6241e-05,-8.3862e-07,-6.3011,1.6097
18942,19.081,3.3636,0,0.00010453,1044.6,4.0061e-05,0.043161,2.4687e-05,-115.47,-0.00010602,-1097.5,1.6097
18943,19.172,3.2727,0,0.00010222,1021.5,3.9098e-05,0.039799,2.4279e-05,-111.3,-0.00010365,-1072.5,1.6227
18944,19.081,3.2727,0.05,1.083e-06,10.823,8.3162e-07,6.2484,4.7123e-12,2.6641e-05,-8.3162e-07,-6.2485,1.6097
18945,19.081,3.5455,0,0.00010438,1043.1,3.9733e-05,0.044334,2.5144e-05,-109.57,-0.00010581,-1093.5,1.6096
18946,19.172,3.4545,0,0.00010212,1020.5,3.8854e-05,0.040706,2.4637e-05,-106.79,-0.00010352,-1069.7,1.6227
18947,19.081,3.4545,0.05,1.065e-06,10.643,8.1781e-07,6.1447,4.6877e-12,2.5732e-05,-8.1782e-07,-6.1448,1.6097
18948,19.081,3.7273,0,0.00010418,1041,3.9292e-05,0.046135,2.5763e-05,-101.61,-0.00010553,-1088.1,1.6096
18949,19.172,3.6364,0,0.00010199,1019.2,3.8502e-05,0.042153,2.5158e-05,-100.21,-0.00010332,-1065.6,1.6226
18950,19.081,3.6364,0.05,1.0387e-06,10.38,7.9758e-07,5.9927,4.6697e-12,2.547e-05,-7.9759e-07,-5.9928,1.6096
18951,19.081,3.9091,0,0.00010395,1038.7,3.8756e-05,0.048609,2.6522e-05,-91.87,-0.0001052,-1081.6,1.6095
18952,19.172,3.8182,0,0.00010183,1017.6,3.8054e-05,0.044188,2.5826e-05,-91.826,-0.00010308,-1060.4,1.6226
18953,19.081,3.8182,0.05,1.0046e-06,10.039,7.7142e-07,5.7961,4.4057e-12,2.5313e-05,-7.7142e-07,-5.7962,1.6095
18954,19.081,4.0909,0,0.0001037,1036.3,3.8146e-05,0.051716,2.7394e-05,-80.733,-0.00010483,-1074.2,1.6094
18955,19.172,4,0,0.00010166,1015.9,3.7527e-05,0.046781,2.6616e-05,-81.937,-0.0001028,-1054.3,1.6225
18956,19.081,4,0.05,9.6357e-07,9.6291,7.399e-07,5.5593,4.2937e-12,2.4417e-05,-7.3991e-07,-5.5594,1.6095
18957,19.081,4.2727,0,0.00010345,1033.8,3.7485e-05,0.055331,2.8343e-05,-68.636,-0.00010444,-1066.3,1.6093
18958,19.172,4.1818,0,0.00010148,1014.1,3.6944e-05,0.049829,2.7497e-05,-70.932,-0.0001025,-1047.7,1.6224
18959,19.081,4.1818,0.05,9.1642e-07,9.1579,7.0369e-07,5.2873,4.0109e-12,2.1869e-05,-7.037e-07,-5.2873,1.6094
18960,19.081,4.4545,0,0.0001032,1031.3,3.6801e-05,0.059281,2.9331e-05,-56.066,-0.00010404,-1058.2,1.6092
18961,19.172,4.3636,0,0.0001013,1012.3,3.6327e-05,0.053164,2.8434e-05,-59.246,-0.00010218,-1040.6,1.6223
18962,19.081,4.3636,0.05,8.6417e-07,8.6358,6.6358e-07,4.9858,3.8794e-12,2.2833e-05,-6.6358e-07,-4.9859,1.6092
18963,19.081,4.6364,0,0.00010297,1029,3.6118e-05,0.063453,3.0317e-05,-43.525,-0.00010364,-1050,1.609
18964,19.172,4.5455,0,0.00010114,1010.7,3.5699e-05,0.056608,2.9391e-05,-47.342,-0.00010186,-1033.5,1.6221
18965,19.081,4.5455,0.05,8.0805e-07,8.0749,6.2048e-07,4.662,3.6887e-12,2.1266e-05,-6.2048e-07,-4.6621,1.6091
18966,19.081,4.8182,0,0.00010276,1026.9,3.5465e-05,0.067985,3.1262e-05,-31.507,-0.00010326,-1042.2,1.6089
18967,19.172,4.7273,0,0.00010099,1009.2,3.5085e-05,0.060098,3.0328e-05,-35.684,-0.00010155,-1026.6,1.622
18968,19.081,4.7273,0.05,7.4955e-07,7.4903,5.7556e-07,4.3245,4.113e-12,1.9744e-05,-5.7556e-07,-4.3246,1.6089
18969,19.081,5,0,0.00010257,1025,3.4863e-05,0.073931,3.2129e-05,-20.469,-0.0001029,-1035,1.6087
18970,19.172,4.9091,0,0.00010087,1008,3.4508e-05,0.063931,3.121e-05,-24.716,-0.00010126,-1020.1,1.6218
18971,19.081,4.9091,0.05,6.9057e-07,6.9009,5.3027e-07,3.9842,3.8486e-12,1.8697e-05,-5.3027e-07,-3.9843,1.6088
18972,19.081,5.1818,0,0.00010241,1023.4,3.4337e-05,0.086215,3.2886e-05,-10.816,-0.00010259,-1028.7,1.6085
18973,19.172,5.0909,0,0.00010076,1006.9,3.3989e-05,0.069912,3.2005e-05,-14.836,-0.000101,-1014.2,1.6216
18974,19.081,5.0909,0.05,6.3344e-07,6.33,4.864e-07,3.6546,3.1451e-12,1.8143e-05,-4.864e-07,-3.6547,1.6086
18975,19.081,5.3636,0,0.00010228,1022.1,3.3912e-05,0.15826,3.3501e-05,-2.9238,-0.00010233,-1023.5,1.6082
18976,19.172,5.2727,0,0.00010068,1006.1,3.3548e-05,0.088709,3.2685e-05,-6.3906,-0.00010079,-1009.2,1.6214
18977,19.081,5.2727,0.05,5.8087e-07,5.8047,4.4604e-07,3.3513,2.8455e-12,1.7916e-05,-4.4604e-07,-3.3514,1.6083
18978,19.081,5.5455,0,0.0001022,1021.3,3.4006e-05,3.332,3.3556e-05,-0.048564,-0.00010214,-1019.6,1.608
18979,19.172,5.4545,0,0.00010063,1005.6,3.3286e-05,0.77407,3.3145e-05,-0.28725,-0.00010062,-1005.4,1.6212
18980,19.081,5.4545,0.05,5.3463e-07,5.3426,4.1053e-07,3.0845,2.675e-12,1.4511e-05,-4.1053e-07,-3.0846,1.6081
18981,19.081,5.7273,0,0.00010223,1021.6,3.4389e-05,7.7954,3.3349e-05,-0.012249,-0.0001021,-1017.7,1.6077
18982,19.172,5.6364,0,0.00010062,1005.5,3.3664e-05,5.4889,3.2932e-05,-0.01193,-0.00010053,-1002.8,1.6209
18983,19.081,5.6364,0.05,4.7426e-07,4.7394,3.6417e-07,2.7363,2.1195e-12,1.2162e-05,-3.6418e-07,-2.7363,1.6078
18984,19.172,5.8182,0,0.00010082,1007.5,3.4073e-05,9.6268,3.2791e-05,-0.0070402,-0.00010065,-1002.6,1.6206
18985,19.081,5.8182,0.05,4.2521e-08,0.42491,3.265e-08,0.24532,9.887e-13,-5.5619e-07,-3.2651e-08,-0.24533,1.6076
18986,19.081,5.9091,0,0.00010179,1017.2,3.4148e-05,6.6861,3.3263e-05,0.038135,-0.00010168,-1013.9,1.6074
18987,19.264,0.27273,0,9.9191e-05,991.22,3.3336e-05,7.2247,3.2374e-05,-0.0072448,-9.9066e-05,-987.59,1.6338
18988,19.355,0.18182,0,9.7708e-05,976.41,3.3024e-05,9.346,3.1779e-05,-0.0060811,-9.7546e-05,-971.7,1.6468
18989,19.264,0.18182,0.05,9.2172e-08,0.92109,7.0778e-08,0.53179,4.5898e-13,7.8971e-06,-7.0776e-08,-0.53179,1.6337
18990,19.264,0.090909,0,9.8837e-05,987.68,3.3158e-05,6.5104,3.2296e-05,0.032387,-9.8724e-05,-984.4,1.6335
18991,19.264,0.45455,0,9.9048e-05,989.79,3.2911e-05,2.6747,3.2551e-05,-0.029196,-9.9002e-05,-988.47,1.6341
18992,19.355,0.36364,0,9.7421e-05,973.54,3.2565e-05,4.9776,3.1902e-05,-0.0023061,-9.7335e-05,-971.04,1.6471
18993,19.264,0.36364,0.05,5.2336e-07,5.2299,4.0187e-07,3.0195,2.2124e-13,7.5191e-06,-4.0187e-07,-3.0195,1.634
18994,19.264,0.63636,0,9.9019e-05,989.51,3.2841e-05,0.093585,3.2406e-05,-3.1751,-9.9071e-05,-991.04,1.6343
18995,19.355,0.54545,0,9.7332e-05,972.65,3.217e-05,0.43648,3.2074e-05,-0.28387,-9.7329e-05,-972.57,1.6473
18996,19.264,0.54545,0.05,5.7618e-07,5.7578,4.4243e-07,3.3243,4.7515e-13,9.9721e-06,-4.4243e-07,-3.3243,1.6342
18997,19.264,0.81818,0,9.9022e-05,989.54,3.3198e-05,0.062263,3.1801e-05,-10.431,-9.9195e-05,-994.68,1.6346
18998,19.355,0.72727,0,9.7279e-05,972.12,3.2413e-05,0.061317,3.1583e-05,-6.1772,-9.7382e-05,-975.17,1.6475
18999,19.264,0.72727,0.05,6.1257e-07,6.1214,4.7037e-07,3.5342,9.3361e-13,1.2481e-05,-4.7038e-07,-3.5342,1.6344
19000,19.264,1,0,9.9049e-05,989.81,3.3633e-05,0.057213,3.1082e-05,-19.108,-9.9359e-05,-999.19,1.6348
19001,19.355,0.90909,0,9.725e-05,971.83,3.2778e-05,0.053266,3.0934e-05,-13.804,-9.7476e-05,-978.63,1.6478
19002,19.264,0.90909,0.05,6.5398e-07,6.5353,5.0217e-07,3.7731,2.1733e-12,1.6626e-05,-5.0217e-07,-3.7731,1.6347
19003,19.264,1.1818,0,9.9096e-05,990.27,3.4128e-05,0.054681,3.0272e-05,-28.916,-9.9555e-05,-1004.4,1.635
19004,19.355,1.0909,0,9.7239e-05,971.71,3.3206e-05,0.051083,3.0191e-05,-22.598,-9.7602e-05,-982.79,1.6479
19005,19.264,1.0909,0.05,6.9948e-07,6.99,5.3711e-07,4.0357,2.3118e-12,1.9581e-05,-5.3712e-07,-4.0357,1.6349
19006,19.264,1.3636,0,9.916e-05,990.92,3.4665e-05,0.05234,2.9398e-05,-39.52,-9.9772e-05,-1010.1,1.6351
19007,19.355,1.2727,0,9.7244e-05,971.77,3.368e-05,0.049449,2.9378e-05,-32.275,-9.7752e-05,-987.48,1.6481
19008,19.264,1.2727,0.05,7.4691e-07,7.4639,5.7353e-07,4.3093,3.0181e-12,2.1899e-05,-5.7353e-07,-4.3093,1.635
19009,19.264,1.5455,0,9.924e-05,991.72,3.5225e-05,0.049781,2.8492e-05,-50.538,-0.0001,-1016,1.6353
19010,19.355,1.4545,0,9.7264e-05,971.97,3.4184e-05,0.047538,2.852e-05,-42.505,-9.7917e-05,-992.5,1.6483
19011,19.264,1.4545,0.05,7.9429e-07,7.9374,6.0991e-07,4.5826,3.0244e-12,2.3563e-05,-6.0991e-07,-4.5827,1.6352
19012,19.264,1.7273,0,9.9333e-05,992.64,3.5785e-05,0.047063,2.7587e-05,-61.555,-0.00010024,-1022,1.6354
19013,19.355,1.6364,0,9.7298e-05,972.31,3.4698e-05,0.045313,2.7649e-05,-52.916,-9.8089e-05,-997.67,1.6484
19014,19.264,1.6364,0.05,8.3996e-07,8.3938,6.4498e-07,4.8461,3.4454e-12,2.5248e-05,-6.4499e-07,-4.8462,1.6353
19015,19.264,1.9091,0,9.9435e-05,993.66,3.6326e-05,0.044365,2.6718e-05,-72.146,-0.00010046,-1027.7,1.6355
19016,19.355,1.8182,0,9.7344e-05,972.77,3.5203e-05,0.042928,2.6796e-05,-63.12,-9.8263e-05,-1002.8,1.6485
19017,19.264,1.8182,0.05,8.8258e-07,8.8197,6.7771e-07,5.092,3.5621e-12,2.4525e-05,-6.7771e-07,-5.0921,1.6354
19018,19.264,2.0909,0,9.954e-05,994.72,3.6825e-05,0.041882,2.5919e-05,-81.9,-0.00010068,-1033.1,1.6356
19019,19.355,2,0,9.7398e-05,973.31,3.568e-05,0.04058,2.5995e-05,-72.724,-9.843e-05,-1007.6,1.6486
19020,19.264,2,0.05,9.2105e-07,9.2042,7.0725e-07,5.314,4.0038e-12,2.6288e-05,-7.0725e-07,-5.314,1.6355
19021,19.264,2.2727,0,9.9643e-05,995.74,3.7263e-05,0.039768,2.5221e-05,-90.439,-0.00010087,-1037.8,1.6357
19022,19.355,2.1818,0,9.7456e-05,973.89,3.611e-05,0.038451,2.5276e-05,-81.359,-9.8584e-05,-1012,1.6487
19023,19.264,2.1818,0.05,9.545e-07,9.5384,7.3293e-07,5.507,3.8338e-12,2.7136e-05,-7.3294e-07,-5.507,1.6356
19024,19.264,2.4545,0,9.9734e-05,996.65,3.7623e-05,0.038116,2.4651e-05,-97.433,-0.00010103,-1041.8,1.6357
19025,19.355,2.3636,0,9.7514e-05,974.46,3.6476e-05,0.036677,2.4667e-05,-88.692,-9.8718e-05,-1015.8,1.6488
19026,19.264,2.3636,0.05,9.822e-07,9.8152,7.542e-07,5.6668,4.0626e-12,2.8261e-05,-7.5421e-07,-5.6668,1.6357
19027,19.264,2.6364,0,9.9806e-05,997.37,3.7891e-05,0.036956,2.4228e-05,-102.62,-0.00010115,-1044.7,1.6358
19028,19.355,2.5455,0,9.7564e-05,974.97,3.6764e-05,0.035332,2.4189e-05,-94.445,-9.8826e-05,-1018.7,1.6488
19029,19.264,2.5455,0.05,1.0035e-06,10.029,7.706e-07,5.7899,4.4157e-12,2.7563e-05,-7.706e-07,-5.79,1.6357
19030,19.264,2.8182,0,9.9853e-05,997.84,3.8056e-05,0.036278,2.3969e-05,-105.81,-0.00010123,-1046.5,1.6358
19031,19.355,2.7273,0,9.7601e-05,975.34,3.6962e-05,0.03444,2.3861e-05,-98.401,-9.8901e-05,-1020.8,1.6488
19032,19.264,2.7273,0.05,1.0181e-06,10.174,7.8175e-07,5.8737,4.1111e-12,2.5499e-05,-7.8175e-07,-5.8738,1.6358
19033,19.264,3,0,9.9869e-05,998,3.8112e-05,0.036056,2.3882e-05,-106.89,-0.00010126,-1047.1,1.6358
19034,19.355,2.9091,0,9.7621e-05,975.54,3.7064e-05,0.034,2.3694e-05,-100.42,-9.894e-05,-1021.8,1.6489
19035,19.264,2.9091,0.05,1.0254e-06,10.247,7.8739e-07,5.9161,4.7013e-12,2.6907e-05,-7.8739e-07,-5.9162,1.6358
19036,19.264,3.1818,0,9.9853e-05,997.84,3.8056e-05,0.036277,2.3969e-05,-105.81,-0.00010123,-1046.5,1.6358
19037,19.355,3.0909,0,9.7621e-05,975.54,3.7064e-05,0.033998,2.3694e-05,-100.42,-9.894e-05,-1021.8,1.6489
19038,19.264,3.0909,0.05,1.0254e-06,10.247,7.8739e-07,5.9161,4.4015e-12,2.6556e-05,-7.874e-07,-5.9162,1.6358
19039,19.264,3.3636,0,9.9806e-05,997.37,3.7891e-05,0.036956,2.4228e-05,-102.62,-0.00010115,-1044.7,1.6358
19040,19.355,3.2727,0,9.7601e-05,975.34,3.6962e-05,0.03444,2.3861e-05,-98.401,-9.8901e-05,-1020.8,1.6488
19041,19.264,3.2727,0.05,1.0181e-06,10.174,7.8175e-07,5.8737,4.1526e-12,2.568e-05,-7.8175e-07,-5.8738,1.6358
19042,19.264,3.5455,0,9.9734e-05,996.65,3.7623e-05,0.038115,2.4651e-05,-97.433,-0.00010103,-1041.8,1.6357
19043,19.355,3.4545,0,9.7564e-05,974.97,3.6764e-05,0.035331,2.4189e-05,-94.445,-9.8826e-05,-1018.7,1.6488
19044,19.264,3.4545,0.05,1.0035e-06,10.029,7.706e-07,5.7899,4.1864e-12,2.5118e-05,-7.706e-07,-5.79,1.6357
19045,19.264,3.7273,0,9.9643e-05,995.74,3.7263e-05,0.039767,2.5221e-05,-90.439,-0.00010087,-1037.8,1.6357
19046,19.355,3.6364,0,9.7514e-05,974.46,3.6476e-05,0.036676,2.4667e-05,-88.692,-9.8718e-05,-1015.8,1.6488
19047,19.264,3.6364,0.05,9.822e-07,9.8152,7.542e-07,5.6668,4.7435e-12,2.4873e-05,-7.5421e-07,-5.6668,1.6357
19048,19.264,3.9091,0,9.954e-05,994.72,3.6825e-05,0.041881,2.5919e-05,-81.9,-0.00010068,-1033.1,1.6356
19049,19.355,3.8182,0,9.7456e-05,973.89,3.611e-05,0.038451,2.5276e-05,-81.359,-9.8584e-05,-1012,1.6487
19050,19.264,3.8182,0.05,9.545e-07,9.5384,7.3293e-07,5.507,4.2568e-12,2.5011e-05,-7.3294e-07,-5.507,1.6356
19051,19.264,4.0909,0,9.9435e-05,993.66,3.6326e-05,0.044365,2.6718e-05,-72.146,-0.00010046,-1027.7,1.6355
19052,19.355,4,0,9.7398e-05,973.31,3.568e-05,0.04058,2.5995e-05,-72.724,-9.843e-05,-1007.6,1.6486
19053,19.264,4,0.05,9.2105e-07,9.2042,7.0725e-07,5.314,4.3214e-12,2.5563e-05,-7.0726e-07,-5.314,1.6355
19054,19.264,4.2727,0,9.9333e-05,992.64,3.5785e-05,0.047063,2.7587e-05,-61.555,-0.00010024,-1022,1.6354
19055,19.355,4.1818,0,9.7344e-05,972.77,3.5203e-05,0.042928,2.6796e-05,-63.12,-9.8263e-05,-1002.8,1.6485
19056,19.264,4.1818,0.05,8.8258e-07,8.8197,6.7771e-07,5.092,3.9606e-12,2.3243e-05,-6.7771e-07,-5.0921,1.6354
19057,19.264,4.4545,0,9.924e-05,991.72,3.5225e-05,0.049782,2.8492e-05,-50.538,-0.0001,-1016,1.6353
19058,19.355,4.3636,0,9.7298e-05,972.31,3.4698e-05,0.045314,2.7649e-05,-52.916,-9.8089e-05,-997.67,1.6484
19059,19.264,4.3636,0.05,8.3996e-07,8.3938,6.4498e-07,4.8461,4.2521e-12,2.5222e-05,-6.4499e-07,-4.8462,1.6353
19060,19.264,4.6364,0,9.916e-05,990.92,3.4665e-05,0.05234,2.9398e-05,-39.52,-9.9772e-05,-1010.1,1.6351
19061,19.355,4.5455,0,9.7264e-05,971.97,3.4184e-05,0.047538,2.852e-05,-42.505,-9.7917e-05,-992.5,1.6483
19062,19.264,4.5455,0.05,7.9429e-07,7.9374,6.0991e-07,4.5826,4.056e-12,2.1114e-05,-6.0991e-07,-4.5827,1.6352
19063,19.264,4.8182,0,9.9096e-05,990.27,3.4128e-05,0.054682,3.0272e-05,-28.916,-9.9555e-05,-1004.4,1.635
19064,19.355,4.7273,0,9.7244e-05,971.77,3.368e-05,0.04945,2.9378e-05,-32.275,-9.7752e-05,-987.48,1.6481
19065,19.264,4.7273,0.05,7.4691e-07,7.4639,5.7353e-07,4.3093,3.6409e-12,2.183e-05,-5.7354e-07,-4.3093,1.635
19066,19.264,5,0,9.9049e-05,989.81,3.3633e-05,0.057214,3.1082e-05,-19.108,-9.9359e-05,-999.19,1.6348
19067,19.355,4.9091,0,9.7239e-05,971.71,3.3206e-05,0.051084,3.0191e-05,-22.597,-9.7602e-05,-982.79,1.6479
19068,19.264,4.9091,0.05,6.9948e-07,6.99,5.3711e-07,4.0357,3.5534e-12,2.1842e-05,-5.3712e-07,-4.0357,1.6349
19069,19.264,5.1818,0,9.9022e-05,989.54,3.3198e-05,0.062261,3.1801e-05,-10.431,-9.9195e-05,-994.68,1.6346
19070,19.355,5.0909,0,9.725e-05,971.83,3.2778e-05,0.053265,3.0934e-05,-13.804,-9.7476e-05,-978.63,1.6478
19071,19.264,5.0909,0.05,6.5398e-07,6.5353,5.0217e-07,3.7731,3.1434e-12,1.778e-05,-5.0218e-07,-3.7732,1.6347
19072,19.264,5.3636,0,9.9019e-05,989.51,3.2841e-05,0.093585,3.2406e-05,-3.175,-9.9071e-05,-991.04,1.6343
19073,19.355,5.2727,0,9.7279e-05,972.12,3.2413e-05,0.061316,3.1583e-05,-6.1771,-9.7382e-05,-975.17,1.6475
19074,19.264,5.2727,0.05,6.1257e-07,6.1214,4.7037e-07,3.5342,3.1015e-12,1.7418e-05,-4.7038e-07,-3.5342,1.6344
19075,19.264,5.5455,0,9.9048e-05,989.79,3.2911e-05,2.6747,3.2551e-05,-0.029196,-9.9002e-05,-988.47,1.6341
19076,19.355,5.4545,0,9.7332e-05,972.65,3.217e-05,0.4365,3.2074e-05,-0.28385,-9.7329e-05,-972.57,1.6473
19077,19.264,5.4545,0.05,5.7618e-07,5.7578,4.4243e-07,3.3243,2.2577e-12,1.4263e-05,-4.4244e-07,-3.3243,1.6342
19078,19.264,5.7273,0,9.9191e-05,991.22,3.3336e-05,7.2247,3.2374e-05,-0.0072437,-9.9066e-05,-987.59,1.6338
19079,19.355,5.6364,0,9.7421e-05,973.54,3.2565e-05,4.9776,3.1902e-05,-0.0023049,-9.7335e-05,-971.04,1.6471
19080,19.264,5.6364,0.05,5.2336e-07,5.2299,4.0187e-07,3.0195,2.0259e-12,1.2619e-05,-4.0187e-07,-3.0195,1.634
19081,19.355,5.8182,0,9.7708e-05,976.41,3.3024e-05,9.346,3.1779e-05,-0.0060796,-9.7546e-05,-971.7,1.6468
19082,19.264,5.8182,0.05,9.2172e-08,0.92109,7.0776e-08,0.53178,9.5242e-13,6.838e-06,-7.0778e-08,-0.5318,1.6337
19083,19.264,5.9091,0,9.8837e-05,987.68,3.3158e-05,6.5104,3.2296e-05,0.032388,-9.8724e-05,-984.4,1.6335
19084,19.446,0.27273,0,9.5923e-05,958.56,3.2239e-05,6.9981,3.1307e-05,-0.0032062,-9.5802e-05,-955.05,1.66
19085,19.537,0.18182,0,9.4389e-05,943.24,3.1927e-05,9.3297,3.0685e-05,-0.0049793,-9.4227e-05,-938.55,1.673
19086,19.446,0.18182,0.05,1.3343e-07,1.3334,1.0246e-07,0.76985,6.1456e-13,7.3219e-06,-1.0246e-07,-0.76984,1.6599
19087,19.446,0.090909,0,9.5628e-05,955.62,3.2098e-05,6.4978,3.1237e-05,0.026644,-9.5515e-05,-952.34,1.6597
19088,19.446,0.45455,0,9.5699e-05,956.33,3.1786e-05,2.4545,3.1458e-05,-0.0097006,-9.5657e-05,-955.11,1.6603
19089,19.537,0.36364,0,9.4032e-05,939.67,3.1435e-05,4.8457,3.0791e-05,0.004559,-9.3949e-05,-937.24,1.6733
19090,19.446,0.36364,0.05,5.6199e-07,5.616,4.3154e-07,3.2424,1.8807e-13,8.9275e-06,-4.3153e-07,-3.2424,1.6601
19091,19.446,0.63636,0,9.5587e-05,955.21,3.1696e-05,0.061529,3.1292e-05,-2.9774,-9.5636e-05,-956.66,1.6605
19092,19.537,0.54545,0,9.3874e-05,938.09,3.1019e-05,0.40403,3.0946e-05,-0.14182,-9.3869e-05,-937.96,1.6735
19093,19.446,0.54545,0.05,6.0924e-07,6.0882,4.6782e-07,3.515,3.4593e-13,1.1257e-05,-4.6782e-07,-3.515,1.6604
19094,19.446,0.81818,0,9.5501e-05,954.35,3.1992e-05,0.04682,3.0711e-05,-9.5773,-9.5659e-05,-959.08,1.6607
19095,19.537,0.72727,0,9.3748e-05,936.83,3.1213e-05,0.044628,3.0473e-05,-5.5144,-9.384e-05,-939.55,1.6737
19096,19.446,0.72727,0.05,6.3815e-07,6.3771,4.9002e-07,3.6818,1.6294e-12,1.394e-05,-4.9002e-07,-3.6818,1.6606
19097,19.446,1,0,9.5433e-05,953.67,3.2351e-05,0.04553,3.0039e-05,-17.322,-9.5715e-05,-962.19,1.6609
19098,19.537,0.90909,0,9.3641e-05,935.76,3.1514e-05,0.041879,2.9866e-05,-12.345,-9.3844e-05,-941.85,1.6739
19099,19.446,0.90909,0.05,6.7086e-07,6.704,5.1514e-07,3.8705,1.4626e-12,1.6163e-05,-5.1514e-07,-3.8706,1.6608
19100,19.446,1.1818,0,9.5381e-05,953.15,3.2758e-05,0.044984,2.9294e-05,-25.982,-9.5796e-05,-965.86,1.6611
19101,19.537,1.0909,0,9.3549e-05,934.84,3.1866e-05,0.041835,2.9183e-05,-20.116,-9.3874e-05,-944.72,1.6741
19102,19.446,1.0909,0.05,7.0707e-07,7.0659,5.4294e-07,4.0795,2.105e-12,1.8976e-05,-5.4295e-07,-4.0795,1.661
19103,19.446,1.3636,0,9.5343e-05,952.77,3.3198e-05,0.044035,2.8497e-05,-35.281,-9.5893e-05,-969.9,1.6613
19104,19.537,1.2727,0,9.347e-05,934.06,3.2254e-05,0.041558,2.8443e-05,-28.597,-9.3923e-05,-948.01,1.6743
19105,19.446,1.2727,0.05,7.4511e-07,7.446,5.7215e-07,4.2989,2.7077e-12,2.062e-05,-5.7215e-07,-4.2989,1.6612
19106,19.446,1.5455,0,9.5318e-05,952.52,3.3656e-05,0.042575,2.7675e-05,-44.901,-9.6002e-05,-974.16,1.6614
19107,19.537,1.4545,0,9.3404e-05,933.4,3.2666e-05,0.040703,2.7668e-05,-37.514,-9.3985e-05,-951.57,1.6745
19108,19.446,1.4545,0.05,7.8336e-07,7.8282,6.0152e-07,4.5196,2.358e-12,2.2415e-05,-6.0152e-07,-4.5196,1.6613
19109,19.446,1.7273,0,9.5306e-05,952.4,3.4115e-05,0.040748,2.6857e-05,-54.496,-9.6115e-05,-978.45,1.6615
19110,19.537,1.6364,0,9.335e-05,932.86,3.3086e-05,0.039346,2.6884e-05,-46.561,-9.4054e-05,-955.25,1.6746
19111,19.446,1.6364,0.05,8.2041e-07,8.1984,6.2997e-07,4.7333,3.0146e-12,2.3905e-05,-6.2997e-07,-4.7334,1.6615
19112,19.446,1.9091,0,9.5304e-05,952.39,3.4557e-05,0.038754,2.6072e-05,-63.709,-9.6227e-05,-982.62,1.6616
19113,19.537,1.8182,0,9.3309e-05,932.45,3.3499e-05,0.037677,2.6119e-05,-55.41,-9.4127e-05,-958.9,1.6747
19114,19.446,1.8182,0.05,8.5509e-07,8.545,6.566e-07,4.9334,3.3077e-12,2.4697e-05,-6.566e-07,-4.9335,1.6616
19115,19.446,2.0909,0,9.5312e-05,952.47,3.4964e-05,0.036791,2.5351e-05,-72.192,-9.6334e-05,-986.49,1.6617
19116,19.537,2,0,9.3279e-05,932.15,3.3888e-05,0.035893,2.5401e-05,-63.733,-9.4199e-05,-962.36,1.6748
19117,19.446,2,0.05,8.8645e-07,8.8584,6.8068e-07,5.1144,3.5523e-12,2.4571e-05,-6.8069e-07,-5.1144,1.6617
19118,19.446,2.2727,0,9.5327e-05,952.61,3.5322e-05,0.035024,2.4721e-05,-79.62,-9.643e-05,-989.9,1.6618
19119,19.537,2.1818,0,9.326e-05,931.96,3.4239e-05,0.034176,2.4756e-05,-71.216,-9.4266e-05,-965.5,1.6749
19120,19.446,2.1818,0.05,9.1372e-07,9.1309,7.0162e-07,5.2717,3.8486e-12,2.732e-05,-7.0162e-07,-5.2717,1.6618
19121,19.446,2.4545,0,9.5343e-05,952.78,3.5616e-05,0.033575,2.4204e-05,-85.709,-9.6511e-05,-992.72,1.6619
19122,19.537,2.3636,0,9.3249e-05,931.85,3.4537e-05,0.032673,2.4209e-05,-77.573,-9.4325e-05,-968.19,1.6749
19123,19.446,2.3636,0.05,9.3628e-07,9.3563,7.1894e-07,5.4018,3.6456e-12,2.591e-05,-7.1895e-07,-5.4019,1.6618
19124,19.446,2.6364,0,9.5359e-05,952.93,3.5835e-05,0.03251,2.3821e-05,-90.23,-9.6572e-05,-994.82,1.6619
19125,19.537,2.5455,0,9.3244e-05,931.8,3.4772e-05,0.031487,2.3779e-05,-82.564,-9.4373e-05,-970.32,1.675
19126,19.446,2.5455,0.05,9.5363e-07,9.5298,7.3227e-07,5.502,4.2908e-12,2.5979e-05,-7.3228e-07,-5.502,1.6619
19127,19.446,2.8182,0,9.537e-05,953.04,3.5969e-05,0.031865,2.3586e-05,-93.012,-9.661e-05,-996.12,1.6619
19128,19.537,2.7273,0,9.3243e-05,931.78,3.4934e-05,0.030669,2.3484e-05,-86,-9.4407e-05,-971.79,1.675
19129,19.446,2.7273,0.05,9.6542e-07,9.6476,7.4132e-07,5.57,4.029e-12,2.5848e-05,-7.4133e-07,-5.57,1.6619
19130,19.446,3,0,9.5374e-05,953.08,3.6015e-05,0.031649,2.3507e-05,-93.95,-9.6623e-05,-996.56,1.6619
19131,19.537,2.9091,0,9.3243e-05,931.78,3.5017e-05,0.030258,2.3334e-05,-87.75,-9.4424e-05,-972.54,1.675
19132,19.446,2.9091,0.05,9.7138e-07,9.7071,7.459e-07,5.6044,4.6748e-12,2.6711e-05,-7.459e-07,-5.6044,1.6619
19133,19.446,3.1818,0,9.537e-05,953.04,3.5969e-05,0.031864,2.3586e-05,-93.012,-9.661e-05,-996.12,1.6619
19134,19.537,3.0909,0,9.3243e-05,931.78,3.5017e-05,0.030257,2.3334e-05,-87.75,-9.4424e-05,-972.54,1.675
19135,19.446,3.0909,0.05,9.7138e-07,9.7071,7.459e-07,5.6044,4.4272e-12,2.5811e-05,-7.459e-07,-5.6044,1.6619
19136,19.446,3.3636,0,9.5359e-05,952.93,3.5835e-05,0.032509,2.3821e-05,-90.23,-9.6572e-05,-994.82,1.6619
19137,19.537,3.2727,0,9.3243e-05,931.78,3.4934e-05,0.030671,2.3484e-05,-86,-9.4407e-05,-971.79,1.675
19138,19.446,3.2727,0.05,9.6542e-07,9.6476,7.4132e-07,5.57,4.2227e-12,2.5197e-05,-7.4133e-07,-5.57,1.6619
19139,19.446,3.5455,0,9.5343e-05,952.78,3.5616e-05,0.033574,2.4204e-05,-85.709,-9.6511e-05,-992.72,1.6619
19140,19.537,3.4545,0,9.3244e-05,931.8,3.4772e-05,0.031486,2.3779e-05,-82.564,-9.4373e-05,-970.32,1.675
19141,19.446,3.4545,0.05,9.5363e-07,9.5298,7.3227e-07,5.502,4.2926e-12,2.4923e-05,-7.3228e-07,-5.502,1.6619
19142,19.446,3.7273,0,9.5327e-05,952.61,3.5322e-05,0.035025,2.4721e-05,-79.62,-9.643e-05,-989.9,1.6618
19143,19.537,3.6364,0,9.3249e-05,931.85,3.4537e-05,0.032674,2.4209e-05,-77.573,-9.4325e-05,-968.19,1.6749
19144,19.446,3.6364,0.05,9.3628e-07,9.3563,7.1894e-07,5.4018,4.2261e-12,2.6437e-05,-7.1895e-07,-5.4019,1.6618
19145,19.446,3.9091,0,9.5312e-05,952.47,3.4964e-05,0.036791,2.5351e-05,-72.192,-9.6334e-05,-986.49,1.6617
19146,19.537,3.8182,0,9.326e-05,931.96,3.4239e-05,0.034176,2.4756e-05,-71.216,-9.4266e-05,-965.5,1.6749
19147,19.446,3.8182,0.05,9.1372e-07,9.1309,7.0162e-07,5.2717,4.0204e-12,2.5101e-05,-7.0162e-07,-5.2717,1.6618
19148,19.446,4.0909,0,9.5304e-05,952.39,3.4557e-05,0.038754,2.6072e-05,-63.709,-9.6227e-05,-982.62,1.6616
19149,19.537,4,0,9.3279e-05,932.15,3.3888e-05,0.035893,2.5401e-05,-63.733,-9.4199e-05,-962.36,1.6748
19150,19.446,4,0.05,8.8645e-07,8.8584,6.8068e-07,5.1144,4.0029e-12,2.4219e-05,-6.8069e-07,-5.1144,1.6617
19151,19.446,4.2727,0,9.5306e-05,952.4,3.4115e-05,0.040748,2.6857e-05,-54.496,-9.6115e-05,-978.45,1.6615
19152,19.537,4.1818,0,9.3309e-05,932.45,3.3499e-05,0.037677,2.6119e-05,-55.41,-9.4127e-05,-958.9,1.6747
19153,19.446,4.1818,0.05,8.5509e-07,8.545,6.566e-07,4.9334,4.0429e-12,2.3748e-05,-6.5661e-07,-4.9335,1.6616
19154,19.446,4.4545,0,9.5318e-05,952.52,3.3656e-05,0.042576,2.7675e-05,-44.901,-9.6002e-05,-974.16,1.6614
19155,19.537,4.3636,0,9.335e-05,932.86,3.3086e-05,0.039348,2.6884e-05,-46.561,-9.4054e-05,-955.25,1.6746
19156,19.446,4.3636,0.05,8.2041e-07,8.1984,6.2997e-07,4.7333,3.8409e-12,2.4388e-05,-6.2997e-07,-4.7334,1.6615
19157,19.446,4.6364,0,9.5343e-05,952.77,3.3198e-05,0.044036,2.8497e-05,-35.281,-9.5893e-05,-969.9,1.6613
19158,19.537,4.5455,0,9.3404e-05,933.4,3.2666e-05,0.040703,2.7668e-05,-37.514,-9.3985e-05,-951.57,1.6745
19159,19.446,4.5455,0.05,7.8336e-07,7.8282,6.0152e-07,4.5196,3.5359e-12,2.1865e-05,-6.0152e-07,-4.5196,1.6613
19160,19.446,4.8182,0,9.5381e-05,953.15,3.2758e-05,0.044985,2.9294e-05,-25.982,-9.5796e-05,-965.86,1.6611
19161,19.537,4.7273,0,9.347e-05,934.06,3.2254e-05,0.041559,2.8443e-05,-28.597,-9.3923e-05,-948.01,1.6743
19162,19.446,4.7273,0.05,7.4511e-07,7.446,5.7215e-07,4.2989,3.6462e-12,2.1019e-05,-5.7216e-07,-4.299,1.6612
19163,19.446,5,0,9.5433e-05,953.67,3.2351e-05,0.045529,3.0039e-05,-17.322,-9.5715e-05,-962.19,1.6609
19164,19.537,4.9091,0,9.3549e-05,934.84,3.1866e-05,0.041834,2.9183e-05,-20.115,-9.3874e-05,-944.72,1.6741
19165,19.446,4.9091,0.05,7.0707e-07,7.0659,5.4294e-07,4.0795,3.1708e-12,1.9895e-05,-5.4295e-07,-4.0795,1.661
19166,19.446,5.1818,0,9.5501e-05,954.35,3.1992e-05,0.046819,3.0711e-05,-9.5773,-9.5659e-05,-959.08,1.6607
19167,19.537,5.0909,0,9.3641e-05,935.76,3.1514e-05,0.041878,2.9866e-05,-12.345,-9.3844e-05,-941.85,1.6739
19168,19.446,5.0909,0.05,6.7086e-07,6.704,5.1514e-07,3.8705,2.8375e-12,1.6321e-05,-5.1514e-07,-3.8706,1.6608
19169,19.446,5.3636,0,9.5587e-05,955.21,3.1696e-05,0.061529,3.1292e-05,-2.9774,-9.5636e-05,-956.66,1.6605
19170,19.537,5.2727,0,9.3748e-05,936.83,3.1213e-05,0.044626,3.0473e-05,-5.5144,-9.384e-05,-939.55,1.6737
19171,19.446,5.2727,0.05,6.3815e-07,6.3771,4.9002e-07,3.6818,2.3542e-12,1.5729e-05,-4.9002e-07,-3.6819,1.6606
19172,19.446,5.5455,0,9.5699e-05,956.33,3.1786e-05,2.4546,3.1458e-05,-0.0096999,-9.5657e-05,-955.11,1.6603
19173,19.537,5.4545,0,9.3874e-05,938.09,3.1019e-05,0.40406,3.0946e-05,-0.14181,-9.3869e-05,-937.96,1.6735
19174,19.446,5.4545,0.05,6.0924e-07,6.0882,4.6782e-07,3.515,2.11e-12,1.3439e-05,-4.6782e-07,-3.5151,1.6604
19175,19.446,5.7273,0,9.5923e-05,958.56,3.2239e-05,6.9981,3.1307e-05,-0.0032045,-9.5802e-05,-955.05,1.66
19176,19.537,5.6364,0,9.4032e-05,939.67,3.1435e-05,4.8458,3.0791e-05,0.0045607,-9.3949e-05,-937.24,1.6733
19177,19.446,5.6364,0.05,5.6199e-07,5.616,4.3153e-07,3.2424,1.9652e-12,1.1965e-05,-4.3154e-07,-3.2424,1.6601
19178,19.537,5.8182,0,9.4389e-05,943.24,3.1927e-05,9.3297,3.0685e-05,-0.0049779,-9.4227e-05,-938.55,1.673
19179,19.446,5.8182,0.05,1.3343e-07,1.3334,1.0246e-07,0.76984,1.7984e-12,1.1447e-05,-1.0246e-07,-0.76985,1.6599
19180,19.446,5.9091,0,9.5628e-05,955.62,3.2098e-05,6.4978,3.1237e-05,0.026645,-9.5515e-05,-952.34,1.6597
19181,19.628,0.27273,0,9.2482e-05,924.18,3.1109e-05,7.0715,3.0168e-05,-0.00029314,-9.236e-05,-920.63,1.6863
19182,19.719,0.18182,0,9.091e-05,908.47,3.0796e-05,9.5407,2.9526e-05,-0.0038829,-9.0744e-05,-903.67,1.6993
19183,19.628,0.18182,0.05,1.6525e-07,1.6513,1.2689e-07,0.95341,1.4575e-13,7.7452e-06,-1.2689e-07,-0.95338,1.6861
19184,19.628,0.090909,0,9.2224e-05,921.6,3.0986e-05,6.626,3.0107e-05,0.02138,-9.2109e-05,-918.26,1.686
19185,19.628,0.45455,0,9.22e-05,921.37,3.0645e-05,2.6238,3.0296e-05,0.004468,-9.2155e-05,-920.05,1.6865
19186,19.719,0.36364,0,9.0501e-05,904.39,3.0286e-05,5.0451,2.9616e-05,0.0083545,-9.0414e-05,-901.85,1.6995
19187,19.628,0.36364,0.05,5.9206e-07,5.9165,4.5463e-07,3.4159,5.7933e-13,9.9794e-06,-4.5463e-07,-3.4159,1.6864
19188,19.628,0.63636,0,9.2029e-05,919.66,3.0491e-05,0.043627,3.0169e-05,-2.3708,-9.2068e-05,-920.82,1.6868
19189,19.719,0.54545,0,9.0295e-05,902.32,2.9863e-05,0.77516,2.9758e-05,-0.015275,-9.0282e-05,-901.94,1.6998
19190,19.628,0.54545,0.05,6.3515e-07,6.3471,4.8772e-07,3.6645,7.3985e-13,1.2348e-05,-4.8772e-07,-3.6645,1.6866
19191,19.628,0.81818,0,9.1882e-05,918.19,3.0735e-05,0.03646,2.9624e-05,-8.3121,-9.202e-05,-922.3,1.687
19192,19.719,0.72727,0,9.012e-05,900.58,2.9963e-05,0.033836,2.9365e-05,-4.4557,-9.0194e-05,-902.78,1.7
19193,19.628,0.72727,0.05,6.5835e-07,6.579,5.0553e-07,3.7984,9.0985e-13,1.278e-05,-5.0553e-07,-3.7984,1.6868
19194,19.628,1,0,9.1751e-05,916.88,3.1029e-05,0.037215,2.9005e-05,-15.168,-9.1999e-05,-924.35,1.6872
19195,19.719,0.90909,0,8.9962e-05,899,3.021e-05,0.033903,2.8806e-05,-10.514,-9.0136e-05,-904.19,1.7002
19196,19.628,0.90909,0.05,6.8429e-07,6.8382,5.2545e-07,3.948,1.0791e-12,1.3732e-05,-5.2545e-07,-3.948,1.6871
19197,19.628,1.1818,0,9.1633e-05,915.7,3.1362e-05,0.03786,2.8328e-05,-22.756,-9.1998e-05,-926.84,1.6873
19198,19.719,1.0909,0,8.9817e-05,897.55,3.0496e-05,0.03511,2.8187e-05,-17.321,-9.0099e-05,-906.07,1.7004
19199,19.628,1.0909,0.05,7.1314e-07,7.1265,5.476e-07,4.1145,1.7315e-12,1.573e-05,-5.4761e-07,-4.1145,1.6872
19200,19.628,1.3636,0,9.1527e-05,914.63,3.1722e-05,0.03782,2.7611e-05,-30.852,-9.2012e-05,-929.65,1.6875
19201,19.719,1.2727,0,8.9684e-05,896.23,3.0814e-05,0.035702,2.7522e-05,-24.693,-9.0078e-05,-908.3,1.7005
19202,19.628,1.2727,0.05,7.4363e-07,7.4312,5.7102e-07,4.2904,1.9334e-12,1.7106e-05,-5.7102e-07,-4.2904,1.6874
19203,19.628,1.5455,0,9.1432e-05,913.69,3.2096e-05,0.037132,2.6875e-05,-39.192,-9.2035e-05,-932.64,1.6876
19204,19.719,1.4545,0,8.9563e-05,895.01,3.1149e-05,0.035575,2.6832e-05,-32.406,-9.0069e-05,-910.76,1.7007
19205,19.628,1.4545,0.05,7.7447e-07,7.7393,5.9469e-07,4.4683,2.4463e-12,1.9001e-05,-5.9469e-07,-4.4683,1.6875
19206,19.628,1.7273,0,9.1351e-05,912.88,3.247e-05,0.035969,2.6145e-05,-47.489,-9.2065e-05,-935.67,1.6878
19207,19.719,1.6364,0,8.9453e-05,893.92,3.1492e-05,0.034859,2.6136e-05,-40.205,-9.0069e-05,-913.32,1.7008
19208,19.628,1.6364,0.05,8.0448e-07,8.0392,6.1774e-07,4.6414,2.7269e-12,2.1174e-05,-6.1774e-07,-4.6415,1.6877
19209,19.628,1.9091,0,9.1282e-05,912.19,3.283e-05,0.034532,2.5447e-05,-55.445,-9.2097e-05,-938.62,1.6879
19210,19.719,1.8182,0,8.9356e-05,892.95,3.1827e-05,0.033745,2.5458e-05,-47.82,-9.0073e-05,-915.88,1.7009
19211,19.628,1.8182,0.05,8.3267e-07,8.3209,6.3938e-07,4.8041,2.9209e-12,2.1859e-05,-6.3939e-07,-4.8041,1.6878
19212,19.628,2.0909,0,9.1225e-05,911.62,3.3163e-05,0.033012,2.4805e-05,-62.766,-9.213e-05,-941.37,1.6879
19213,19.719,2,0,8.9273e-05,892.12,3.2144e-05,0.032426,2.4823e-05,-54.975,-9.0081e-05,-918.32,1.701
19214,19.628,2,0.05,8.5822e-07,8.5763,6.59e-07,4.9515,3.2666e-12,2.2553e-05,-6.5901e-07,-4.9515,1.6879
19215,19.628,2.2727,0,9.1182e-05,911.19,3.3454e-05,0.031571,2.4243e-05,-69.176,-9.2161e-05,-943.79,1.688
19216,19.719,2.1818,0,8.9205e-05,891.43,3.2429e-05,0.031075,2.4253e-05,-61.406,-9.009e-05,-920.53,1.7011
19217,19.628,2.1818,0.05,8.8046e-07,8.7986,6.7608e-07,5.0798,3.1523e-12,2.2253e-05,-6.7609e-07,-5.0799,1.688
19218,19.628,2.4545,0,9.115e-05,910.87,3.3694e-05,0.030341,2.3783e-05,-74.433,-9.2187e-05,-945.79,1.6881
19219,19.719,2.3636,0,8.915e-05,890.89,3.2672e-05,0.029839,2.3768e-05,-66.871,-9.0099e-05,-922.42,1.7012
19220,19.628,2.3636,0.05,8.9887e-07,8.9825,6.9022e-07,5.186,3.4437e-12,2.4322e-05,-6.9022e-07,-5.1861,1.688
19221,19.628,2.6364,0,9.1128e-05,910.66,3.3872e-05,0.029408,2.3442e-05,-78.338,-9.2207e-05,-947.28,1.6881
19222,19.719,2.5455,0,8.911e-05,890.49,3.2863e-05,0.028829,2.3388e-05,-71.163,-9.0107e-05,-923.92,1.7012
19223,19.628,2.5455,0.05,9.1303e-07,9.124,7.0109e-07,5.2677,3.466e-12,2.3906e-05,-7.0109e-07,-5.2677,1.6881
19224,19.628,2.8182,0,9.1116e-05,910.53,3.3981e-05,0.02883,2.3231e-05,-80.742,-9.222e-05,-948.2,1.6881
19225,19.719,2.7273,0,8.9084e-05,890.23,3.2995e-05,0.028118,2.3127e-05,-74.118,-9.0112e-05,-924.95,1.7012
19226,19.628,2.7273,0.05,9.2263e-07,9.22,7.0847e-07,5.3231,3.7197e-12,2.2301e-05,-7.0847e-07,-5.3232,1.6881
19227,19.628,3,0,9.1112e-05,910.49,3.4018e-05,0.028635,2.3161e-05,-81.553,-9.2224e-05,-948.51,1.6881
19228,19.719,2.9091,0,8.9071e-05,890.1,3.3062e-05,0.027753,2.2993e-05,-75.624,-9.0116e-05,-925.48,1.7013
19229,19.628,2.9091,0.05,9.2749e-07,9.2685,7.1219e-07,5.3511,3.7366e-12,2.4586e-05,-7.122e-07,-5.3512,1.6881
19230,19.628,3.1818,0,9.1116e-05,910.53,3.3981e-05,0.028831,2.3231e-05,-80.742,-9.222e-05,-948.2,1.6881
19231,19.719,3.0909,0,8.9071e-05,890.1,3.3062e-05,0.027752,2.2993e-05,-75.624,-9.0116e-05,-925.48,1.7013
19232,19.628,3.0909,0.05,9.2749e-07,9.2685,7.1219e-07,5.3511,3.7732e-12,2.2198e-05,-7.122e-07,-5.3512,1.6881
19233,19.628,3.3636,0,9.1128e-05,910.66,3.3872e-05,0.02941,2.3442e-05,-78.338,-9.2207e-05,-947.28,1.6881
19234,19.719,3.2727,0,8.9084e-05,890.23,3.2995e-05,0.028119,2.3127e-05,-74.118,-9.0112e-05,-924.95,1.7012
19235,19.628,3.2727,0.05,9.2263e-07,9.22,7.0846e-07,5.3231,4.2941e-12,2.2931e-05,-7.0847e-07,-5.3232,1.6881
19236,19.628,3.5455,0,9.115e-05,910.87,3.3694e-05,0.030341,2.3783e-05,-74.433,-9.2187e-05,-945.79,1.6881
19237,19.719,3.4545,0,8.911e-05,890.49,3.2863e-05,0.028829,2.3388e-05,-71.163,-9.0107e-05,-923.92,1.7012
19238,19.628,3.4545,0.05,9.1303e-07,9.124,7.0109e-07,5.2677,3.2777e-12,2.3009e-05,-7.0109e-07,-5.2677,1.6881
19239,19.628,3.7273,0,9.1182e-05,911.19,3.3454e-05,0.031571,2.4243e-05,-69.176,-9.2161e-05,-943.79,1.688
19240,19.719,3.6364,0,8.915e-05,890.89,3.2672e-05,0.029839,2.3768e-05,-66.871,-9.0099e-05,-922.42,1.7012
19241,19.628,3.6364,0.05,8.9887e-07,8.9825,6.9022e-07,5.186,4.1154e-12,2.3367e-05,-6.9022e-07,-5.1861,1.688
19242,19.628,3.9091,0,9.1225e-05,911.62,3.3163e-05,0.033011,2.4805e-05,-62.765,-9.213e-05,-941.37,1.6879
19243,19.719,3.8182,0,8.9205e-05,891.43,3.2429e-05,0.031075,2.4253e-05,-61.406,-9.009e-05,-920.53,1.7011
19244,19.628,3.8182,0.05,8.8046e-07,8.7986,6.7608e-07,5.0798,4.0999e-12,2.3215e-05,-6.7609e-07,-5.0799,1.688
19245,19.628,4.0909,0,9.1282e-05,912.19,3.283e-05,0.034532,2.5447e-05,-55.445,-9.2097e-05,-938.62,1.6879
19246,19.719,4,0,8.9273e-05,892.12,3.2144e-05,0.032426,2.4823e-05,-54.975,-9.0081e-05,-918.32,1.701
19247,19.628,4,0.05,8.5822e-07,8.5763,6.59e-07,4.9515,3.9536e-12,2.3171e-05,-6.5901e-07,-4.9515,1.6879
19248,19.628,4.2727,0,9.1351e-05,912.88,3.247e-05,0.03597,2.6145e-05,-47.489,-9.2065e-05,-935.67,1.6878
19249,19.719,4.1818,0,8.9356e-05,892.95,3.1827e-05,0.033745,2.5459e-05,-47.82,-9.0073e-05,-915.88,1.7009
19250,19.628,4.1818,0.05,8.3267e-07,8.3209,6.3938e-07,4.8041,3.7726e-12,2.0923e-05,-6.3939e-07,-4.8041,1.6878
19251,19.628,4.4545,0,9.1432e-05,913.69,3.2096e-05,0.037133,2.6875e-05,-39.192,-9.2035e-05,-932.64,1.6876
19252,19.719,4.3636,0,8.9453e-05,893.92,3.1492e-05,0.034861,2.6136e-05,-40.205,-9.0069e-05,-913.32,1.7008
19253,19.628,4.3636,0.05,8.0448e-07,8.0392,6.1774e-07,4.6414,3.8995e-12,2.1795e-05,-6.1774e-07,-4.6415,1.6877
19254,19.628,4.6364,0,9.1527e-05,914.63,3.1722e-05,0.037819,2.7611e-05,-30.852,-9.2012e-05,-929.65,1.6875
19255,19.719,4.5455,0,8.9563e-05,895.01,3.1149e-05,0.035574,2.6832e-05,-32.405,-9.0069e-05,-910.76,1.7007
19256,19.628,4.5455,0.05,7.7447e-07,7.7393,5.9469e-07,4.4683,3.5707e-12,1.9838e-05,-5.947e-07,-4.4683,1.6875
19257,19.628,4.8182,0,9.1633e-05,915.7,3.1362e-05,0.03786,2.8328e-05,-22.756,-9.1998e-05,-926.84,1.6873
19258,19.719,4.7273,0,8.9684e-05,896.23,3.0814e-05,0.035702,2.7522e-05,-24.693,-9.0078e-05,-908.3,1.7005
19259,19.628,4.7273,0.05,7.4363e-07,7.4312,5.7102e-07,4.2904,3.0822e-12,1.8954e-05,-5.7102e-07,-4.2904,1.6874
19260,19.628,5,0,9.1751e-05,916.88,3.1029e-05,0.037214,2.9005e-05,-15.168,-9.1999e-05,-924.35,1.6872
19261,19.719,4.9091,0,8.9817e-05,897.55,3.0496e-05,0.03511,2.8187e-05,-17.321,-9.0099e-05,-906.07,1.7004
19262,19.628,4.9091,0.05,7.1314e-07,7.1265,5.476e-07,4.1145,3.1055e-12,1.8036e-05,-5.4761e-07,-4.1145,1.6872
19263,19.628,5.1818,0,9.1882e-05,918.19,3.0735e-05,0.036459,2.9624e-05,-8.3121,-9.202e-05,-922.3,1.687
19264,19.719,5.0909,0,8.9962e-05,899,3.021e-05,0.033902,2.8806e-05,-10.514,-9.0136e-05,-904.19,1.7002
19265,19.628,5.0909,0.05,6.8429e-07,6.8382,5.2545e-07,3.948,2.7888e-12,1.3914e-05,-5.2545e-07,-3.948,1.6871
19266,19.628,5.3636,0,9.2029e-05,919.66,3.0491e-05,0.043626,3.0169e-05,-2.3707,-9.2068e-05,-920.82,1.6868
19267,19.719,5.2727,0,9.012e-05,900.58,2.9963e-05,0.033834,2.9365e-05,-4.4557,-9.0194e-05,-902.78,1.7
19268,19.628,5.2727,0.05,6.5835e-07,6.579,5.0553e-07,3.7984,2.2984e-12,1.3771e-05,-5.0553e-07,-3.7984,1.6868
19269,19.628,5.5455,0,9.22e-05,921.37,3.0645e-05,2.6238,3.0296e-05,0.0044687,-9.2155e-05,-920.05,1.6865
19270,19.719,5.4545,0,9.0295e-05,902.32,2.9863e-05,0.7752,2.9758e-05,-0.015276,-9.0282e-05,-901.94,1.6998
19271,19.628,5.4545,0.05,6.3515e-07,6.3471,4.8772e-07,3.6645,2.5254e-12,1.1493e-05,-4.8772e-07,-3.6645,1.6866
19272,19.628,5.7273,0,9.2482e-05,924.18,3.1109e-05,7.0715,3.0168e-05,-0.0002917,-9.236e-05,-920.63,1.6863
19273,19.719,5.6364,0,9.0501e-05,904.39,3.0286e-05,5.0451,2.9616e-05,0.0083553,-9.0414e-05,-901.85,1.6995
19274,19.628,5.6364,0.05,5.9206e-07,5.9165,4.5462e-07,3.4159,1.9821e-12,1.0195e-05,-4.5463e-07,-3.4159,1.6864
19275,19.719,5.8182,0,9.091e-05,908.47,3.0796e-05,9.5407,2.9526e-05,-0.0038805,-9.0744e-05,-903.67,1.6993
19276,19.628,5.8182,0.05,1.6525e-07,1.6513,1.2689e-07,0.95338,1.7328e-12,8.1537e-06,-1.2689e-07,-0.95341,1.6861
19277,19.628,5.9091,0,9.2224e-05,921.6,3.0986e-05,6.626,3.0107e-05,0.021381,-9.2109e-05,-918.26,1.686
19278,19.81,0.27273,0,8.8911e-05,888.5,2.9958e-05,7.4031,2.8973e-05,0.0014374,-8.8783e-05,-884.77,1.7126
19279,19.901,0.18182,0,8.7308e-05,872.48,2.9641e-05,9.945,2.8317e-05,-0.0029282,-8.7135e-05,-867.47,1.7256
19280,19.81,0.18182,0.05,1.8937e-07,1.8924,1.4542e-07,1.0926,2.9464e-13,8.0011e-06,-1.4542e-07,-1.0926,1.7124
19281,19.81,0.090909,0,8.867e-05,886.09,2.9834e-05,6.8745,2.8921e-05,0.016881,-8.8551e-05,-882.62,1.7123
19282,19.81,0.45455,0,8.8589e-05,885.28,2.9495e-05,3.1332,2.908e-05,0.011042,-8.8535e-05,-883.7,1.7128
19283,19.901,0.36364,0,8.6863e-05,868.03,2.9126e-05,5.5292,2.8391e-05,0.0094157,-8.6767e-05,-865.25,1.7259
19284,19.81,0.36364,0.05,6.1521e-07,6.1479,4.7241e-07,3.5495,5.427e-13,1.0777e-05,-4.7241e-07,-3.5495,1.7127
19285,19.81,0.63636,0,8.8379e-05,883.18,2.9238e-05,0.033282,2.9046e-05,-1.4044,-8.8403e-05,-883.87,1.7131
19286,19.901,0.54545,0,8.6627e-05,865.67,2.8718e-05,1.5805,2.8509e-05,0.012087,-8.6599e-05,-864.87,1.7261
19287,19.81,0.54545,0.05,6.5516e-07,6.5471,5.0308e-07,3.78,1.0656e-12,9.7263e-06,-5.0308e-07,-3.78,1.7129
19288,19.81,0.81818,0,8.8194e-05,881.33,2.9437e-05,0.029289,2.8543e-05,-6.689,-8.8305e-05,-884.64,1.7133
19289,19.901,0.72727,0,8.6422e-05,863.63,2.8673e-05,0.026515,2.8263e-05,-3.0533,-8.6473e-05,-865.13,1.7263
19290,19.81,0.72727,0.05,6.7399e-07,6.7352,5.1754e-07,3.8886,1.1939e-12,1.142e-05,-5.1754e-07,-3.8886,1.7131
19291,19.81,1,0,8.8023e-05,879.62,2.9677e-05,0.031226,2.7983e-05,-12.697,-8.8232e-05,-885.89,1.7134
19292,19.901,0.90909,0,8.6234e-05,861.75,2.8873e-05,0.028217,2.7756e-05,-8.3613,-8.6373e-05,-865.88,1.7265
19293,19.81,0.90909,0.05,6.9466e-07,6.9418,5.3341e-07,4.0079,1.396e-12,1.3897e-05,-5.3341e-07,-4.0078,1.7133
19294,19.81,1.1818,0,8.7864e-05,878.04,2.9948e-05,0.032615,2.7377e-05,-19.284,-8.8176e-05,-887.5,1.7136
19295,19.901,1.0909,0,8.6059e-05,860,2.9106e-05,0.030192,2.7204e-05,-14.259,-8.6293e-05,-867.03,1.7267
19296,19.81,1.0909,0.05,7.1771e-07,7.1722,5.5111e-07,4.1409,1.5384e-12,1.552e-05,-5.5112e-07,-4.1409,1.7135
19297,19.81,1.3636,0,8.7717e-05,876.56,3.0241e-05,0.033194,2.674e-05,-26.269,-8.8133e-05,-889.38,1.7138
19298,19.901,1.2727,0,8.5896e-05,858.36,2.9362e-05,0.031367,2.6616e-05,-20.601,-8.6227e-05,-868.46,1.7269
19299,19.81,1.2727,0.05,7.4219e-07,7.4168,5.6991e-07,4.2821,2.3603e-12,1.5932e-05,-5.6991e-07,-4.2821,1.7137
19300,19.81,1.5455,0,8.758e-05,875.2,3.0545e-05,0.03307,2.609e-05,-33.436,-8.81e-05,-891.42,1.7139
19301,19.901,1.4545,0,8.5742e-05,856.83,2.9635e-05,0.031765,2.601e-05,-27.205,-8.6172e-05,-870.09,1.727
19302,19.81,1.4545,0.05,7.6705e-07,7.6652,5.89e-07,4.4255,2.6074e-12,1.7583e-05,-5.89e-07,-4.4255,1.7138
19303,19.81,1.7273,0,8.7456e-05,873.96,3.0849e-05,0.032421,2.5447e-05,-40.55,-8.8075e-05,-893.51,1.714
19304,19.901,1.6364,0,8.5601e-05,855.42,2.9912e-05,0.031539,2.54e-05,-33.865,-8.6126e-05,-871.83,1.7271
19305,19.81,1.6364,0.05,7.9136e-07,7.9081,6.0766e-07,4.5658,2.6797e-12,1.9199e-05,-6.0767e-07,-4.5658,1.714
19306,19.81,1.9091,0,8.7346e-05,872.86,3.1141e-05,0.031435,2.4833e-05,-47.361,-8.8055e-05,-895.56,1.7141
19307,19.901,1.8182,0,8.5473e-05,854.14,3.0184e-05,0.030871,2.4809e-05,-40.356,-8.6087e-05,-873.58,1.7272
19308,19.81,1.8182,0.05,8.1428e-07,8.1372,6.2526e-07,4.698,2.6911e-12,1.9606e-05,-6.2527e-07,-4.698,1.7141
19309,19.81,2.0909,0,8.7251e-05,871.91,3.1411e-05,0.030293,2.427e-05,-53.624,-8.8039e-05,-897.47,1.7142
19310,19.901,2,0,8.5359e-05,853,3.044e-05,0.029941,2.4254e-05,-46.449,-8.6053e-05,-875.26,1.7273
19311,19.81,2,0.05,8.351e-07,8.3453,6.4125e-07,4.8181,2.8353e-12,2.1312e-05,-6.4126e-07,-4.8182,1.7142
19312,19.81,2.2727,0,8.7172e-05,871.12,3.1647e-05,0.029152,2.3777e-05,-59.108,-8.8027e-05,-899.16,1.7143
19313,19.901,2.1818,0,8.5261e-05,852.03,3.0671e-05,0.028915,2.3757e-05,-51.924,-8.6025e-05,-876.79,1.7274
19314,19.81,2.1818,0.05,8.5327e-07,8.5268,6.552e-07,4.9229,3.1796e-12,2.134e-05,-6.5521e-07,-4.923,1.7142
19315,19.81,2.4545,0,8.7111e-05,870.51,3.1842e-05,0.028142,2.3373e-05,-63.605,-8.8018e-05,-900.55,1.7143
19316,19.901,2.3636,0,8.5182e-05,851.23,3.0868e-05,0.027931,2.3335e-05,-56.576,-8.6003e-05,-878.09,1.7275
19317,19.81,2.3636,0.05,8.6831e-07,8.6772,6.6676e-07,5.0097,3.2863e-12,2.2801e-05,-6.6676e-07,-5.0098,1.7143
19318,19.81,2.6364,0,8.7067e-05,870.06,3.1986e-05,0.027356,2.3073e-05,-66.947,-8.8011e-05,-901.59,1.7144
19319,19.901,2.5455,0,8.5122e-05,850.63,3.1023e-05,0.0271,2.3003e-05,-60.231,-8.5985e-05,-879.13,1.7275
19320,19.81,2.5455,0.05,8.7989e-07,8.7929,6.7565e-07,5.0765,3.3626e-12,2.261e-05,-6.7565e-07,-5.0766,1.7143
19321,19.81,2.8182,0,8.704e-05,869.8,3.2076e-05,0.02686,2.2888e-05,-69.004,-8.8008e-05,-902.23,1.7144
19322,19.901,2.7273,0,8.5081e-05,850.22,3.113e-05,0.026504,2.2775e-05,-62.747,-8.5974e-05,-879.84,1.7275
19323,19.81,2.7273,0.05,8.8775e-07,8.8714,6.8168e-07,5.1219,3.1955e-12,2.0875e-05,-6.8169e-07,-5.1219,1.7144
19324,19.81,3,0,8.7031e-05,869.71,3.2106e-05,0.026691,2.2826e-05,-69.698,-8.8006e-05,-902.45,1.7144
19325,19.901,2.9091,0,8.5061e-05,850.02,3.1184e-05,0.026194,2.2659e-05,-64.03,-8.5968e-05,-880.21,1.7276
19326,19.81,2.9091,0.05,8.9172e-07,8.9111,6.8473e-07,5.1448,3.715e-12,2.2514e-05,-6.8473e-07,-5.1448,1.7144
19327,19.81,3.1818,0,8.704e-05,869.8,3.2076e-05,0.02686,2.2888e-05,-69.004,-8.8008e-05,-902.23,1.7144
19328,19.901,3.0909,0,8.5061e-05,850.02,3.1184e-05,0.026193,2.2659e-05,-64.03,-8.5968e-05,-880.21,1.7276
19329,19.81,3.0909,0.05,8.9172e-07,8.9111,6.8473e-07,5.1448,3.566e-12,2.1392e-05,-6.8473e-07,-5.1448,1.7144
19330,19.81,3.3636,0,8.7067e-05,870.06,3.1986e-05,0.027356,2.3073e-05,-66.947,-8.8011e-05,-901.59,1.7144
19331,19.901,3.2727,0,8.5081e-05,850.22,3.113e-05,0.026504,2.2775e-05,-62.747,-8.5974e-05,-879.84,1.7275
19332,19.81,3.2727,0.05,8.8775e-07,8.8714,6.8168e-07,5.1219,3.6699e-12,2.1418e-05,-6.8169e-07,-5.1219,1.7144
19333,19.81,3.5455,0,8.7111e-05,870.51,3.1842e-05,0.028141,2.3373e-05,-63.605,-8.8018e-05,-900.55,1.7143
19334,19.901,3.4545,0,8.5122e-05,850.63,3.1023e-05,0.0271,2.3003e-05,-60.231,-8.5985e-05,-879.13,1.7275
19335,19.81,3.4545,0.05,8.7989e-07,8.7929,6.7565e-07,5.0765,3.3618e-12,2.0763e-05,-6.7565e-07,-5.0766,1.7143
19336,19.81,3.7273,0,8.7172e-05,871.12,3.1647e-05,0.029152,2.3777e-05,-59.108,-8.8027e-05,-899.16,1.7143
19337,19.901,3.6364,0,8.5182e-05,851.23,3.0868e-05,0.02793,2.3335e-05,-56.576,-8.6003e-05,-878.09,1.7275
19338,19.81,3.6364,0.05,8.6831e-07,8.6772,6.6676e-07,5.0097,3.9967e-12,2.1827e-05,-6.6676e-07,-5.0098,1.7143
19339,19.81,3.9091,0,8.7251e-05,871.91,3.1411e-05,0.030293,2.427e-05,-53.624,-8.8039e-05,-897.47,1.7142
19340,19.901,3.8182,0,8.5261e-05,852.03,3.0671e-05,0.028914,2.3757e-05,-51.924,-8.6025e-05,-876.79,1.7274
19341,19.81,3.8182,0.05,8.5327e-07,8.5268,6.552e-07,4.9229,3.7454e-12,2.1788e-05,-6.5521e-07,-4.923,1.7142
19342,19.81,4.0909,0,8.7346e-05,872.86,3.1141e-05,0.031435,2.4833e-05,-47.361,-8.8055e-05,-895.56,1.7141
19343,19.901,4,0,8.5359e-05,853,3.044e-05,0.029943,2.4254e-05,-46.449,-8.6053e-05,-875.26,1.7273
19344,19.81,4,0.05,8.351e-07,8.3453,6.4125e-07,4.8181,3.5739e-12,2.1157e-05,-6.4126e-07,-4.8182,1.7142
19345,19.81,4.2727,0,8.7456e-05,873.96,3.0849e-05,0.032421,2.5447e-05,-40.55,-8.8075e-05,-893.51,1.714
19346,19.901,4.1818,0,8.5473e-05,854.14,3.0184e-05,0.030871,2.4809e-05,-40.356,-8.6087e-05,-873.58,1.7272
19347,19.81,4.1818,0.05,8.1428e-07,8.1372,6.2526e-07,4.698,3.431e-12,1.9566e-05,-6.2527e-07,-4.698,1.7141
19348,19.81,4.4545,0,8.758e-05,875.2,3.0545e-05,0.033071,2.609e-05,-33.436,-8.81e-05,-891.42,1.7139
19349,19.901,4.3636,0,8.5601e-05,855.42,2.9912e-05,0.031539,2.54e-05,-33.865,-8.6126e-05,-871.83,1.7271
19350,19.81,4.3636,0.05,7.9136e-07,7.9081,6.0766e-07,4.5657,3.5278e-12,1.9876e-05,-6.0767e-07,-4.5658,1.714
19351,19.81,4.6364,0,8.7717e-05,876.56,3.0241e-05,0.033194,2.674e-05,-26.269,-8.8133e-05,-889.38,1.7138
19352,19.901,4.5455,0,8.5742e-05,856.83,2.9635e-05,0.031765,2.601e-05,-27.205,-8.6172e-05,-870.1,1.727
19353,19.81,4.5455,0.05,7.6705e-07,7.6652,5.89e-07,4.4255,2.7508e-12,1.6519e-05,-5.89e-07,-4.4256,1.7138
19354,19.81,4.8182,0,8.7864e-05,878.04,2.9948e-05,0.032615,2.7377e-05,-19.284,-8.8176e-05,-887.5,1.7136
19355,19.901,4.7273,0,8.5896e-05,858.36,2.9362e-05,0.031367,2.6616e-05,-20.601,-8.6227e-05,-868.46,1.7269
19356,19.81,4.7273,0.05,7.4219e-07,7.4168,5.6991e-07,4.282,3.2738e-12,1.7249e-05,-5.6991e-07,-4.2821,1.7137
19357,19.81,5,0,8.8023e-05,879.62,2.9677e-05,0.031226,2.7983e-05,-12.697,-8.8232e-05,-885.89,1.7134
19358,19.901,4.9091,0,8.6059e-05,860,2.9106e-05,0.030193,2.7204e-05,-14.259,-8.6293e-05,-867.03,1.7267
19359,19.81,4.9091,0.05,7.1771e-07,7.1722,5.5111e-07,4.1408,2.6855e-12,1.6073e-05,-5.5112e-07,-4.1409,1.7135
19360,19.81,5.1818,0,8.8194e-05,881.33,2.9437e-05,0.029287,2.8543e-05,-6.689,-8.8305e-05,-884.64,1.7133
19361,19.901,5.0909,0,8.6234e-05,861.75,2.8873e-05,0.028217,2.7756e-05,-8.3612,-8.6373e-05,-865.88,1.7265
19362,19.81,5.0909,0.05,6.9466e-07,6.9418,5.3341e-07,4.0078,2.276e-12,1.2619e-05,-5.3341e-07,-4.0079,1.7133
19363,19.81,5.3636,0,8.8379e-05,883.18,2.9238e-05,0.03328,2.9046e-05,-1.4043,-8.8403e-05,-883.87,1.7131
19364,19.901,5.2727,0,8.6422e-05,863.63,2.8673e-05,0.026512,2.8263e-05,-3.0533,-8.6473e-05,-865.13,1.7263
19365,19.81,5.2727,0.05,6.7399e-07,6.7352,5.1754e-07,3.8886,2.7086e-12,1.1436e-05,-5.1754e-07,-3.8886,1.7131
19366,19.81,5.5455,0,8.8589e-05,885.28,2.9495e-05,3.1333,2.908e-05,0.011041,-8.8535e-05,-883.7,1.7128
19367,19.901,5.4545,0,8.6627e-05,865.67,2.8718e-05,1.5806,2.8509e-05,0.012086,-8.6599e-05,-864.87,1.7261
19368,19.81,5.4545,0.05,6.5516e-07,6.5471,5.0308e-07,3.78,1.9825e-12,9.6567e-06,-5.0309e-07,-3.78,1.7129
19369,19.81,5.7273,0,8.8911e-05,888.5,2.9958e-05,7.4031,2.8973e-05,0.0014391,-8.8783e-05,-884.77,1.7126
19370,19.901,5.6364,0,8.6863e-05,868.03,2.9126e-05,5.5292,2.8391e-05,0.0094165,-8.6767e-05,-865.25,1.7259
19371,19.81,5.6364,0.05,6.1521e-07,6.1479,4.7241e-07,3.5495,1.9246e-12,8.3226e-06,-4.7241e-07,-3.5495,1.7127
19372,19.901,5.8182,0,8.7308e-05,872.48,2.9641e-05,9.945,2.8317e-05,-0.0029255,-8.7135e-05,-867.47,1.7256
19373,19.81,5.8182,0.05,1.8937e-07,1.8924,1.4541e-07,1.0926,1.2175e-12,3.5494e-06,-1.4542e-07,-1.0926,1.7124
19374,19.81,5.9091,0,8.867e-05,886.09,2.9834e-05,6.8745,2.8921e-05,0.016882,-8.8551e-05,-882.62,1.7123
19375,19.992,0.27273,0,8.5242e-05,851.83,2.8793e-05,7.9539,2.7735e-05,0.0020446,-8.5104e-05,-847.82,1.7389
19376,20.083,0.18182,0,8.3615e-05,835.57,2.847e-05,10.511,2.707e-05,-0.0022073,-8.3431e-05,-830.27,1.752
19377,19.992,0.18182,0.05,2.0756e-07,2.0742,1.5938e-07,1.1975,2.8987e-14,5.9451e-06,-1.5938e-07,-1.1975,1.7388
19378,19.992,0.090909,0,8.5002e-05,849.43,2.8653e-05,7.2246,2.7693e-05,0.013214,-8.4876e-05,-845.79,1.7387
19379,19.992,0.45455,0,8.4894e-05,848.36,2.8343e-05,3.9327,2.7821e-05,0.012185,-8.4826e-05,-846.38,1.7392
19380,20.083,0.36364,0,8.3146e-05,830.89,2.796e-05,6.2549,2.7129e-05,0.0084783,-8.3038e-05,-827.74,1.7523
19381,19.992,0.36364,0.05,6.3284e-07,6.324,4.8594e-07,3.6512,6.0445e-14,5.5879e-06,-4.8594e-07,-3.6512,1.7391
19382,19.992,0.63636,0,8.4663e-05,846.05,2.795e-05,0.042472,2.7925e-05,-0.14244,-8.4665e-05,-846.1,1.7394
19383,20.083,0.54545,0,8.2895e-05,828.37,2.758e-05,2.6968,2.7223e-05,0.014692,-8.2848e-05,-827.01,1.7525
19384,19.992,0.54545,0.05,6.7039e-07,6.6993,5.1478e-07,3.8678,8.4753e-13,6.822e-06,-5.1478e-07,-3.8679,1.7393
19385,19.992,0.81818,0,8.4457e-05,843.99,2.8108e-05,0.024205,2.7472e-05,-4.7583,-8.4537e-05,-846.34,1.7396
19386,20.083,0.72727,0,8.2676e-05,826.19,2.7352e-05,0.021359,2.7169e-05,-1.3559,-8.2699e-05,-826.86,1.7527
19387,19.992,0.72727,0.05,6.8585e-07,6.8538,5.2665e-07,3.957,1.4618e-12,1.1125e-05,-5.2665e-07,-3.957,1.7395
19388,19.992,1,0,8.4266e-05,842.07,2.8301e-05,0.026881,2.6973e-05,-9.9539,-8.443e-05,-846.99,1.7398
19389,20.083,0.90909,0,8.2475e-05,824.18,2.7512e-05,0.024143,2.6719e-05,-5.9337,-8.2574e-05,-827.12,1.7529
19390,19.992,0.90909,0.05,7.0243e-07,7.0194,5.3938e-07,4.0527,1.7829e-12,1.2258e-05,-5.3938e-07,-4.0527,1.7397
19391,19.992,1.1818,0,8.4086e-05,840.28,2.852e-05,0.028756,2.644e-05,-15.602,-8.434e-05,-847.96,1.74
19392,20.083,1.0909,0,8.2287e-05,822.3,2.7698e-05,0.026615,2.6235e-05,-10.97,-8.2468e-05,-827.72,1.7531
19393,19.992,1.0909,0.05,7.2093e-07,7.2043,5.5358e-07,4.1594,1.6624e-12,1.2699e-05,-5.5359e-07,-4.1594,1.7399
19394,19.992,1.3636,0,8.3917e-05,838.6,2.8756e-05,0.029778,2.5883e-05,-21.56,-8.4263e-05,-849.15,1.7401
19395,20.083,1.2727,0,8.211e-05,820.53,2.7905e-05,0.028198,2.5725e-05,-16.351,-8.2375e-05,-828.57,1.7532
19396,19.992,1.2727,0.05,7.4063e-07,7.4012,5.6871e-07,4.2731,1.7728e-12,1.3547e-05,-5.6871e-07,-4.2731,1.74
19397,19.992,1.5455,0,8.376e-05,837.02,2.9002e-05,0.030084,2.5317e-05,-27.652,-8.4195e-05,-850.49,1.7402
19398,20.083,1.4545,0,8.1944e-05,818.87,2.8123e-05,0.028993,2.52e-05,-21.933,-8.2294e-05,-829.6,1.7534
19399,19.992,1.4545,0.05,7.6072e-07,7.602,5.8414e-07,4.389,2.0555e-12,1.4402e-05,-5.8414e-07,-4.389,1.7402
19400,19.992,1.7273,0,8.3615e-05,835.57,2.9247e-05,0.029844,2.476e-05,-33.685,-8.4136e-05,-851.89,1.7404
19401,20.083,1.6364,0,8.1789e-05,817.32,2.8346e-05,0.029155,2.4675e-05,-27.549,-8.2222e-05,-830.73,1.7535
19402,19.992,1.6364,0.05,7.8044e-07,7.799,5.9928e-07,4.5027,2.3155e-12,1.5594e-05,-5.9928e-07,-4.5028,1.7403
19403,19.992,1.9091,0,8.3483e-05,834.26,2.9483e-05,0.029234,2.4228e-05,-39.455,-8.4084e-05,-853.27,1.7405
19404,20.083,1.8182,0,8.1647e-05,815.9,2.8565e-05,0.028856,2.4167e-05,-33.015,-8.2157e-05,-831.89,1.7536
19405,19.992,1.8182,0.05,7.9909e-07,7.9854,6.136e-07,4.6104,2.524e-12,1.624e-05,-6.1361e-07,-4.6104,1.7404
19406,19.992,2.0909,0,8.3368e-05,833.1,2.9701e-05,0.028422,2.374e-05,-44.758,-8.4039e-05,-854.57,1.7405
19407,20.083,2,0,8.1519e-05,814.63,2.8771e-05,0.028261,2.3691e-05,-38.144,-8.21e-05,-833.02,1.7537
19408,19.992,2,0.05,8.161e-07,8.1553,6.2666e-07,4.7085,2.4884e-12,1.6809e-05,-6.2666e-07,-4.7085,1.7405
19409,19.992,2.2727,0,8.3271e-05,832.13,2.9892e-05,0.027554,2.3314e-05,-49.399,-8.4e-05,-855.72,1.7406
19410,20.083,2.1818,0,8.1409e-05,813.53,2.8957e-05,0.027521,2.3264e-05,-42.751,-8.2051e-05,-834.04,1.7538
19411,19.992,2.1818,0.05,8.3096e-07,8.3038,6.3807e-07,4.7942,3.0778e-12,1.9058e-05,-6.3807e-07,-4.7942,1.7406
19412,19.992,2.4545,0,8.3193e-05,831.36,3.0049e-05,0.026751,2.2964e-05,-53.207,-8.397e-05,-856.67,1.7407
19413,20.083,2.3636,0,8.1318e-05,812.62,2.9115e-05,0.026768,2.2901e-05,-46.666,-8.201e-05,-834.93,1.7538
19414,19.992,2.3636,0.05,8.4329e-07,8.427,6.4754e-07,4.8653,2.9672e-12,1.873e-05,-6.4754e-07,-4.8654,1.7406
19415,19.992,2.6364,0,8.3137e-05,830.79,3.0166e-05,0.026111,2.2705e-05,-56.036,-8.3948e-05,-857.38,1.7407
19416,20.083,2.5455,0,8.1248e-05,811.92,2.924e-05,0.02611,2.2616e-05,-49.741,-8.1979e-05,-835.63,1.7539
19417,19.992,2.5455,0.05,8.5278e-07,8.522,6.5483e-07,4.9201,3.0545e-12,1.918e-05,-6.5484e-07,-4.9202,1.7407
19418,19.992,2.8182,0,8.3103e-05,830.45,3.0238e-05,0.025701,2.2545e-05,-57.778,-8.3934e-05,-857.82,1.7407
19419,20.083,2.7273,0,8.12e-05,811.44,2.9326e-05,0.025627,2.242e-05,-51.86,-8.1957e-05,-836.11,1.7539
19420,19.992,2.7273,0.05,8.5923e-07,8.5864,6.5978e-07,4.9574,3.3822e-12,1.8186e-05,-6.5979e-07,-4.9574,1.7407
19421,19.992,3,0,8.3091e-05,830.34,3.0262e-05,0.02556,2.2491e-05,-58.366,-8.3929e-05,-857.97,1.7407
19422,20.083,2.9091,0,8.1176e-05,811.2,2.937e-05,0.025372,2.232e-05,-52.941,-8.1946e-05,-836.36,1.7539
19423,19.992,2.9091,0.05,8.6249e-07,8.619,6.6229e-07,4.9761,3.4744e-12,1.955e-05,-6.6229e-07,-4.9762,1.7407
19424,19.992,3.1818,0,8.3103e-05,830.45,3.0238e-05,0.025701,2.2545e-05,-57.778,-8.3934e-05,-857.82,1.7407
19425,20.083,3.0909,0,8.1176e-05,811.2,2.937e-05,0.025372,2.232e-05,-52.941,-8.1946e-05,-836.36,1.7539
19426,19.992,3.0909,0.05,8.6249e-07,8.619,6.6229e-07,4.9761,3.3511e-12,1.7671e-05,-6.6229e-07,-4.9762,1.7407
19427,19.992,3.3636,0,8.3137e-05,830.79,3.0166e-05,0.026111,2.2705e-05,-56.036,-8.3948e-05,-857.38,1.7407
19428,20.083,3.2727,0,8.12e-05,811.44,2.9326e-05,0.025627,2.242e-05,-51.86,-8.1957e-05,-836.11,1.7539
19429,19.992,3.2727,0.05,8.5923e-07,8.5864,6.5978e-07,4.9573,3.4775e-12,1.8814e-05,-6.5979e-07,-4.9574,1.7407
19430,19.992,3.5455,0,8.3193e-05,831.36,3.0049e-05,0.026751,2.2964e-05,-53.207,-8.397e-05,-856.67,1.7407
19431,20.083,3.4545,0,8.1248e-05,811.92,2.924e-05,0.02611,2.2616e-05,-49.741,-8.1979e-05,-835.63,1.7539
19432,19.992,3.4545,0.05,8.5278e-07,8.522,6.5483e-07,4.9201,3.4031e-12,1.8263e-05,-6.5483e-07,-4.9202,1.7407
19433,19.992,3.7273,0,8.3271e-05,832.13,2.9892e-05,0.027553,2.3314e-05,-49.399,-8.4e-05,-855.72,1.7406
19434,20.083,3.6364,0,8.1318e-05,812.62,2.9115e-05,0.026768,2.2901e-05,-46.666,-8.201e-05,-834.93,1.7538
19435,19.992,3.6364,0.05,8.4329e-07,8.427,6.4754e-07,4.8653,3.3633e-12,1.7995e-05,-6.4754e-07,-4.8654,1.7406
19436,19.992,3.9091,0,8.3368e-05,833.1,2.9701e-05,0.028423,2.374e-05,-44.758,-8.4039e-05,-854.57,1.7405
19437,20.083,3.8182,0,8.1409e-05,813.53,2.8957e-05,0.02752,2.3264e-05,-42.751,-8.2051e-05,-834.04,1.7538
19438,19.992,3.8182,0.05,8.3096e-07,8.3038,6.3807e-07,4.7942,3.5749e-12,1.8771e-05,-6.3807e-07,-4.7942,1.7406
19439,19.992,4.0909,0,8.3483e-05,834.26,2.9483e-05,0.029236,2.4228e-05,-39.455,-8.4084e-05,-853.27,1.7405
19440,20.083,4,0,8.1519e-05,814.63,2.8771e-05,0.028262,2.3691e-05,-38.144,-8.21e-05,-833.02,1.7537
19441,19.992,4,0.05,8.161e-07,8.1553,6.2666e-07,4.7085,3.3708e-12,1.8196e-05,-6.2666e-07,-4.7085,1.7405
19442,19.992,4.2727,0,8.3615e-05,835.57,2.9247e-05,0.029844,2.476e-05,-33.685,-8.4136e-05,-851.89,1.7404
19443,20.083,4.1818,0,8.1647e-05,815.9,2.8565e-05,0.028857,2.4167e-05,-33.015,-8.2157e-05,-831.89,1.7536
19444,19.992,4.1818,0.05,7.9909e-07,7.9854,6.136e-07,4.6104,2.9657e-12,1.6126e-05,-6.1361e-07,-4.6104,1.7404
19445,19.992,4.4545,0,8.376e-05,837.02,2.9002e-05,0.030084,2.5317e-05,-27.652,-8.4195e-05,-850.49,1.7402
19446,20.083,4.3636,0,8.1789e-05,817.32,2.8346e-05,0.029156,2.4675e-05,-27.549,-8.2222e-05,-830.73,1.7535
19447,19.992,4.3636,0.05,7.8044e-07,7.799,5.9928e-07,4.5027,3.2863e-12,1.611e-05,-5.9928e-07,-4.5028,1.7403
19448,19.992,4.6364,0,8.3917e-05,838.6,2.8756e-05,0.029778,2.5883e-05,-21.56,-8.4263e-05,-849.15,1.7401
19449,20.083,4.5455,0,8.1944e-05,818.87,2.8123e-05,0.028993,2.52e-05,-21.933,-8.2294e-05,-829.6,1.7534
19450,19.992,4.5455,0.05,7.6072e-07,7.602,5.8414e-07,4.389,2.9035e-12,1.3757e-05,-5.8414e-07,-4.389,1.7402
19451,19.992,4.8182,0,8.4086e-05,840.28,2.852e-05,0.028756,2.644e-05,-15.602,-8.434e-05,-847.96,1.74
19452,20.083,4.7273,0,8.211e-05,820.53,2.7905e-05,0.028197,2.5725e-05,-16.351,-8.2375e-05,-828.57,1.7532
19453,19.992,4.7273,0.05,7.4063e-07,7.4012,5.6871e-07,4.2731,2.7884e-12,1.4316e-05,-5.6871e-07,-4.2731,1.74
19454,19.992,5,0,8.4266e-05,842.07,2.8301e-05,0.026882,2.6973e-05,-9.9538,-8.443e-05,-846.99,1.7398
19455,20.083,4.9091,0,8.2287e-05,822.3,2.7698e-05,0.026615,2.6235e-05,-10.97,-8.2468e-05,-827.72,1.7531
19456,19.992,4.9091,0.05,7.2093e-07,7.2043,5.5358e-07,4.1594,2.3469e-12,1.2376e-05,-5.5359e-07,-4.1594,1.7399
19457,19.992,5.1818,0,8.4457e-05,843.99,2.8108e-05,0.024204,2.7472e-05,-4.7582,-8.4537e-05,-846.34,1.7396
19458,20.083,5.0909,0,8.2475e-05,824.18,2.7512e-05,0.024142,2.6719e-05,-5.9336,-8.2574e-05,-827.12,1.7529
19459,19.992,5.0909,0.05,7.0243e-07,7.0194,5.3938e-07,4.0527,2.1264e-12,9.0409e-06,-5.3938e-07,-4.0527,1.7397
19460,19.992,5.3636,0,8.4663e-05,846.05,2.795e-05,0.042475,2.7925e-05,-0.14239,-8.4665e-05,-846.1,1.7394
19461,20.083,5.2727,0,8.2676e-05,826.19,2.7352e-05,0.021359,2.7169e-05,-1.3558,-8.2699e-05,-826.86,1.7527
19462,19.992,5.2727,0.05,6.8585e-07,6.8538,5.2665e-07,3.957,1.9257e-12,8.6874e-06,-5.2665e-07,-3.957,1.7395
19463,19.992,5.5455,0,8.4894e-05,848.36,2.8343e-05,3.9327,2.7821e-05,0.012185,-8.4826e-05,-846.38,1.7392
19464,20.083,5.4545,0,8.2895e-05,828.37,2.758e-05,2.6968,2.7223e-05,0.014693,-8.2848e-05,-827.01,1.7525
19465,19.992,5.4545,0.05,6.7039e-07,6.6993,5.1478e-07,3.8678,1.8944e-12,7.2815e-06,-5.1478e-07,-3.8679,1.7393
19466,19.992,5.7273,0,8.5242e-05,851.83,2.8793e-05,7.9539,2.7735e-05,0.0020462,-8.5104e-05,-847.82,1.7389
19467,20.083,5.6364,0,8.3146e-05,830.89,2.796e-05,6.2549,2.7129e-05,0.0084794,-8.3038e-05,-827.74,1.7523
19468,19.992,5.6364,0.05,6.3284e-07,6.324,4.8594e-07,3.6512,1.6271e-12,6.4152e-06,-4.8594e-07,-3.6512,1.7391
19469,20.083,5.8182,0,8.3615e-05,835.57,2.847e-05,10.511,2.707e-05,-0.0022072,-8.3431e-05,-830.27,1.752
19470,19.992,5.8182,0.05,2.0756e-07,2.0742,1.5938e-07,1.1975,1.7927e-12,4.0478e-06,-1.5938e-07,-1.1975,1.7388
19471,19.992,5.9091,0,8.5002e-05,849.43,2.8653e-05,7.2246,2.7693e-05,0.013214,-8.4876e-05,-845.79,1.7387
19472,20.174,0.27273,0,8.15e-05,814.44,2.762e-05,8.6889,2.6464e-05,0.0017114,-8.1349e-05,-810.06,1.7654
19473,20.266,0.18182,0,7.9854e-05,797.99,2.7287e-05,11.212,2.5794e-05,-0.0017719,-7.9658e-05,-792.33,1.7785
19474,20.174,0.18182,0.05,2.2132e-07,2.2117,1.6995e-07,1.2769,4.423e-13,3.4141e-06,-1.6995e-07,-1.2769,1.7652
19475,20.174,0.090909,0,8.1248e-05,811.92,2.745e-05,7.6596,2.6432e-05,0.010341,-8.1115e-05,-808.05,1.7651
19476,20.174,0.45455,0,8.114e-05,810.84,2.7191e-05,4.9759,2.653e-05,0.010687,-8.1054e-05,-808.33,1.7656
19477,20.266,0.36364,0,7.9372e-05,793.17,2.6792e-05,7.1834,2.5837e-05,0.0062639,-7.9247e-05,-789.56,1.7787
19478,20.174,0.36364,0.05,6.4607e-07,6.4562,4.961e-07,3.7275,9.2794e-13,4.6051e-06,-4.961e-07,-3.7275,1.7655
19479,20.174,0.63636,0,8.0901e-05,808.45,2.6815e-05,1.4231,2.6628e-05,0.016287,-8.0877e-05,-807.73,1.7658
19480,20.266,0.54545,0,7.9117e-05,790.63,2.6447e-05,4.06,2.5908e-05,0.012883,-7.9047e-05,-788.58,1.7789
19481,20.174,0.54545,0.05,6.8178e-07,6.8131,5.2352e-07,3.9336,1.0622e-12,9.6539e-06,-5.2353e-07,-3.9336,1.7657
19482,20.174,0.81818,0,8.0688e-05,806.33,2.6756e-05,0.020632,2.6412e-05,-2.5649,-8.0731e-05,-807.6,1.766
19483,20.266,0.72727,0,7.8898e-05,788.43,2.6085e-05,0.5932,2.6008e-05,0.017514,-7.8887e-05,-788.13,1.7791
19484,20.174,0.72727,0.05,6.9464e-07,6.9416,5.334e-07,4.0077,1.2182e-12,1.0029e-05,-5.334e-07,-4.0077,1.7659
19485,20.174,1,0,8.0491e-05,804.36,2.6909e-05,0.023784,2.5977e-05,-6.9799,-8.0607e-05,-807.81,1.7662
19486,20.266,0.90909,0,7.8697e-05,786.42,2.6134e-05,0.021337,2.5695e-05,-3.2713,-7.8751e-05,-788.04,1.7793
19487,20.174,0.90909,0.05,7.0804e-07,7.0756,5.4369e-07,4.0851,1.0926e-12,1.0271e-05,-5.4369e-07,-4.0851,1.7661
19488,20.174,1.1818,0,8.0307e-05,802.51,2.7083e-05,0.025981,2.5516e-05,-11.745,-8.0499e-05,-808.31,1.7664
19489,20.266,1.0909,0,7.8509e-05,784.55,2.628e-05,0.024086,2.528e-05,-7.4863,-7.8633e-05,-788.25,1.7795
19490,20.174,1.0909,0.05,7.2298e-07,7.2248,5.5516e-07,4.1712,1.5932e-12,1.0939e-05,-5.5516e-07,-4.1712,1.7663
19491,20.174,1.3636,0,8.0133e-05,800.77,2.7271e-05,0.027331,2.5039e-05,-16.747,-8.0404e-05,-809,1.7665
19492,20.266,1.2727,0,7.8333e-05,782.79,2.6443e-05,0.025958,2.4846e-05,-11.968,-7.8529e-05,-788.69,1.7796
19493,20.174,1.2727,0.05,7.3891e-07,7.384,5.6739e-07,4.2632,1.4642e-12,1.1849e-05,-5.6739e-07,-4.2632,1.7664
19494,20.174,1.5455,0,7.997e-05,799.14,2.7467e-05,0.027977,2.4556e-05,-21.849,-8.0318e-05,-809.83,1.7666
19495,20.266,1.4545,0,7.8168e-05,781.14,2.6616e-05,0.027061,2.4402e-05,-16.604,-7.8436e-05,-789.29,1.7798
19496,20.174,1.4545,0.05,7.5521e-07,7.5469,5.799e-07,4.3572,1.9534e-12,1.2756e-05,-5.7991e-07,-4.3572,1.7665
19497,20.174,1.7273,0,7.9818e-05,797.63,2.7663e-05,0.028076,2.408e-05,-26.894,-8.0241e-05,-810.73,1.7667
19498,20.266,1.6364,0,7.8013e-05,779.59,2.6792e-05,0.027545,2.3959e-05,-21.26,-7.8352e-05,-789.99,1.7799
19499,20.174,1.6364,0.05,7.7125e-07,7.7072,5.9222e-07,4.4497,2.3947e-12,1.3877e-05,-5.9222e-07,-4.4497,1.7667
19500,20.174,1.9091,0,7.9681e-05,796.26,2.7852e-05,0.027788,2.3628e-05,-31.716,-8.0172e-05,-811.63,1.7668
19501,20.266,1.8182,0,7.787e-05,778.17,2.6966e-05,0.027559,2.353e-05,-25.79,-7.8276e-05,-790.73,1.78
19502,20.174,1.8182,0.05,7.8647e-07,7.8593,6.0391e-07,4.5376,2.4071e-12,1.4136e-05,-6.0391e-07,-4.5376,1.7668
19503,20.174,2.0909,0,7.9559e-05,795.04,2.8027e-05,0.027263,2.3213e-05,-36.146,-8.0112e-05,-812.48,1.7669
19504,20.266,2,0,7.7742e-05,776.88,2.7131e-05,0.027253,2.3129e-05,-30.04,-7.8209e-05,-791.45,1.7801
19505,20.174,2,0.05,8.0039e-07,7.9984,6.146e-07,4.6178,2.58e-12,1.5487e-05,-6.146e-07,-4.6179,1.7669
19506,20.174,2.2727,0,7.9456e-05,794.01,2.818e-05,0.026637,2.285e-05,-40.024,-8.006e-05,-813.25,1.767
19507,20.266,2.1818,0,7.763e-05,775.76,2.7279e-05,0.026766,2.2769e-05,-33.859,-7.815e-05,-792.13,1.7802
19508,20.174,2.1818,0.05,8.1258e-07,8.1202,6.2396e-07,4.6882,2.7366e-12,1.5494e-05,-6.2396e-07,-4.6882,1.7669
19509,20.174,2.4545,0,7.9372e-05,793.18,2.8306e-05,0.026028,2.2552e-05,-43.206,-8.0019e-05,-813.88,1.767
19510,20.266,2.3636,0,7.7537e-05,774.84,2.7405e-05,0.026223,2.2463e-05,-37.105,-7.8101e-05,-792.71,1.7802
19511,20.174,2.3636,0.05,8.2271e-07,8.2215,6.3174e-07,4.7466,2.6541e-12,1.6696e-05,-6.3174e-07,-4.7467,1.767
19512,20.174,2.6364,0,7.9312e-05,792.57,2.84e-05,0.025528,2.2331e-05,-45.571,-7.9988e-05,-814.36,1.7671
19513,20.266,2.5455,0,7.7465e-05,774.12,2.7505e-05,0.025726,2.2223e-05,-39.657,-7.8063e-05,-793.17,1.7803
19514,20.174,2.5455,0.05,8.3053e-07,8.2996,6.3774e-07,4.7918,2.9994e-12,1.7337e-05,-6.3775e-07,-4.7918,1.767
19515,20.174,2.8182,0,7.9275e-05,792.2,2.8458e-05,0.0252,2.2195e-05,-47.027,-7.9969e-05,-814.65,1.7671
19516,20.266,2.7273,0,7.7416e-05,773.63,2.7573e-05,0.025351,2.2058e-05,-41.415,-7.8037e-05,-793.49,1.7803
19517,20.174,2.7273,0.05,8.3585e-07,8.3527,6.4182e-07,4.8224,2.8894e-12,1.6961e-05,-6.4183e-07,-4.8224,1.7671
19518,20.174,3,0,7.9262e-05,792.07,2.8477e-05,0.025086,2.2149e-05,-47.519,-7.9963e-05,-814.75,1.7671
19519,20.266,2.9091,0,7.7391e-05,773.38,2.7608e-05,0.02515,2.1974e-05,-42.312,-7.8024e-05,-793.65,1.7803
19520,20.174,2.9091,0.05,8.3853e-07,8.3795,6.4389e-07,4.8379,3.2355e-12,1.756e-05,-6.4389e-07,-4.838,1.7671
19521,20.174,3.1818,0,7.9275e-05,792.2,2.8458e-05,0.0252,2.2195e-05,-47.027,-7.9969e-05,-814.65,1.7671
19522,20.266,3.0909,0,7.7391e-05,773.38,2.7608e-05,0.02515,2.1974e-05,-42.312,-7.8024e-05,-793.65,1.7803
19523,20.174,3.0909,0.05,8.3853e-07,8.3795,6.4389e-07,4.8379,3.134e-12,1.6797e-05,-6.4389e-07,-4.838,1.7671
19524,20.174,3.3636,0,7.9312e-05,792.57,2.84e-05,0.025527,2.2331e-05,-45.571,-7.9988e-05,-814.36,1.7671
19525,20.266,3.2727,0,7.7416e-05,773.63,2.7573e-05,0.025352,2.2058e-05,-41.415,-7.8037e-05,-793.49,1.7803
19526,20.174,3.2727,0.05,8.3585e-07,8.3527,6.4182e-07,4.8224,3.2768e-12,1.7112e-05,-6.4183e-07,-4.8225,1.7671
19527,20.174,3.5455,0,7.9372e-05,793.18,2.8306e-05,0.026028,2.2552e-05,-43.206,-8.0019e-05,-813.88,1.767
19528,20.266,3.4545,0,7.7465e-05,774.12,2.7505e-05,0.025725,2.2223e-05,-39.657,-7.8063e-05,-793.17,1.7803
19529,20.174,3.4545,0.05,8.3053e-07,8.2996,6.3774e-07,4.7918,3.2132e-12,1.6651e-05,-6.3775e-07,-4.7918,1.767
19530,20.174,3.7273,0,7.9456e-05,794.01,2.818e-05,0.026637,2.285e-05,-40.024,-8.006e-05,-813.25,1.767
19531,20.266,3.6364,0,7.7537e-05,774.84,2.7405e-05,0.026224,2.2463e-05,-37.105,-7.8101e-05,-792.71,1.7802
19532,20.174,3.6364,0.05,8.2271e-07,8.2215,6.3174e-07,4.7466,3.4139e-12,1.6365e-05,-6.3174e-07,-4.7467,1.767
19533,20.174,3.9091,0,7.9559e-05,795.04,2.8027e-05,0.027262,2.3213e-05,-36.146,-8.0112e-05,-812.48,1.7669
19534,20.266,3.8182,0,7.763e-05,775.76,2.7279e-05,0.026766,2.2769e-05,-33.859,-7.815e-05,-792.13,1.7802
19535,20.174,3.8182,0.05,8.1258e-07,8.1202,6.2396e-07,4.6882,3.1701e-12,1.7286e-05,-6.2396e-07,-4.6882,1.7669
19536,20.174,4.0909,0,7.9681e-05,796.26,2.7852e-05,0.027787,2.3628e-05,-31.716,-8.0172e-05,-811.63,1.7668
19537,20.266,4,0,7.7742e-05,776.88,2.7131e-05,0.027253,2.3129e-05,-30.04,-7.8209e-05,-791.45,1.7801
19538,20.174,4,0.05,8.0039e-07,7.9984,6.146e-07,4.6178,3.1673e-12,1.5955e-05,-6.146e-07,-4.6179,1.7669
19539,20.174,4.2727,0,7.9818e-05,797.63,2.7663e-05,0.028077,2.408e-05,-26.894,-8.0241e-05,-810.73,1.7667
19540,20.266,4.1818,0,7.787e-05,778.17,2.6966e-05,0.027558,2.353e-05,-25.79,-7.8276e-05,-790.73,1.78
19541,20.174,4.1818,0.05,7.8647e-07,7.8593,6.0391e-07,4.5375,2.7667e-12,1.4135e-05,-6.0392e-07,-4.5376,1.7668
19542,20.174,4.4545,0,7.997e-05,799.14,2.7467e-05,0.027977,2.4556e-05,-21.849,-8.0318e-05,-809.83,1.7666
19543,20.266,4.3636,0,7.8013e-05,779.59,2.6792e-05,0.027545,2.3959e-05,-21.26,-7.8352e-05,-789.99,1.7799
19544,20.174,4.3636,0.05,7.7125e-07,7.7072,5.9222e-07,4.4497,2.5876e-12,1.5243e-05,-5.9222e-07,-4.4497,1.7667
19545,20.174,4.6364,0,8.0133e-05,800.77,2.7271e-05,0.027331,2.5039e-05,-16.747,-8.0404e-05,-809,1.7665
19546,20.266,4.5455,0,7.8168e-05,781.14,2.6616e-05,0.027061,2.4402e-05,-16.604,-7.8436e-05,-789.29,1.7798
19547,20.174,4.5455,0.05,7.5521e-07,7.5469,5.799e-07,4.3572,2.6328e-12,1.1988e-05,-5.7991e-07,-4.3572,1.7665
19548,20.174,4.8182,0,8.0307e-05,802.51,2.7083e-05,0.02598,2.5516e-05,-11.745,-8.0499e-05,-808.31,1.7664
19549,20.266,4.7273,0,7.8333e-05,782.79,2.6443e-05,0.025957,2.4846e-05,-11.968,-7.8529e-05,-788.69,1.7796
19550,20.174,4.7273,0.05,7.3891e-07,7.384,5.6739e-07,4.2631,2.4676e-12,1.2118e-05,-5.6739e-07,-4.2632,1.7664
19551,20.174,5,0,8.0491e-05,804.36,2.6909e-05,0.023782,2.5977e-05,-6.9798,-8.0607e-05,-807.81,1.7662
19552,20.266,4.9091,0,7.8509e-05,784.55,2.628e-05,0.024086,2.528e-05,-7.4863,-7.8633e-05,-788.25,1.7795
19553,20.174,4.9091,0.05,7.2298e-07,7.2248,5.5516e-07,4.1712,2.2894e-12,1.0965e-05,-5.5516e-07,-4.1713,1.7663
19554,20.174,5.1818,0,8.0688e-05,806.33,2.6756e-05,0.020632,2.6412e-05,-2.5648,-8.0731e-05,-807.6,1.766
19555,20.266,5.0909,0,7.8697e-05,786.42,2.6134e-05,0.021335,2.5695e-05,-3.2713,-7.8751e-05,-788.04,1.7793
19556,20.174,5.0909,0.05,7.0804e-07,7.0756,5.4369e-07,4.085,2.1026e-12,7.4846e-06,-5.4369e-07,-4.0851,1.7661
19557,20.174,5.3636,0,8.0901e-05,808.45,2.6815e-05,1.4232,2.6628e-05,0.016288,-8.0877e-05,-807.73,1.7658
19558,20.266,5.2727,0,7.8898e-05,788.43,2.6085e-05,0.59326,2.6008e-05,0.017514,-7.8887e-05,-788.13,1.7791
19559,20.174,5.2727,0.05,6.9464e-07,6.9416,5.334e-07,4.0077,1.8566e-12,7.4124e-06,-5.334e-07,-4.0078,1.7659
19560,20.174,5.5455,0,8.114e-05,810.84,2.7191e-05,4.976,2.653e-05,0.010688,-8.1054e-05,-808.33,1.7656
19561,20.266,5.4545,0,7.9117e-05,790.63,2.6447e-05,4.06,2.5908e-05,0.012883,-7.9047e-05,-788.58,1.7789
19562,20.174,5.4545,0.05,6.8178e-07,6.8131,5.2352e-07,3.9335,1.8839e-12,6.1989e-06,-5.2353e-07,-3.9336,1.7657
19563,20.174,5.7273,0,8.15e-05,814.44,2.762e-05,8.6889,2.6464e-05,0.001711,-8.1349e-05,-810.06,1.7654
19564,20.266,5.6364,0,7.9372e-05,793.17,2.6792e-05,7.1834,2.5837e-05,0.0062653,-7.9247e-05,-789.56,1.7787
19565,20.174,5.6364,0.05,6.4607e-07,6.4562,4.961e-07,3.7275,1.8487e-12,6.3808e-06,-4.961e-07,-3.7275,1.7655
19566,20.266,5.8182,0,7.9854e-05,797.99,2.7287e-05,11.212,2.5794e-05,-0.0017722,-7.9658e-05,-792.33,1.7785
19567,20.174,5.8182,0.05,2.2132e-07,2.2117,1.6994e-07,1.2769,1.373e-12,4.8216e-06,-1.6995e-07,-1.2769,1.7652
19568,20.174,5.9091,0,8.1248e-05,811.92,2.745e-05,7.6596,2.6432e-05,0.010344,-8.1115e-05,-808.05,1.7651
19569,20.357,0.27273,0,7.7706e-05,776.52,2.6442e-05,9.5766,2.5167e-05,0.00061631,-7.7539e-05,-771.69,1.7918
19570,20.448,0.18182,0,7.6044e-05,759.92,2.6097e-05,12.022,2.4497e-05,-0.0016554,-7.5833e-05,-753.84,1.805
19571,20.357,0.18182,0.05,2.3192e-07,2.3176,1.7809e-07,1.3381,2.7114e-13,5.98e-06,-1.7809e-07,-1.3381,1.7917
19572,20.357,0.090909,0,7.7431e-05,773.77,2.6233e-05,8.1645,2.5147e-05,0.008153,-7.7289e-05,-769.65,1.7916
19573,20.357,0.45455,0,7.7343e-05,772.9,2.6042e-05,6.2228,2.5215e-05,0.0081623,-7.7235e-05,-769.76,1.7921
19574,20.448,0.36364,0,7.5558e-05,755.06,2.5625e-05,8.2806,2.4523e-05,0.0032703,-7.5414e-05,-750.89,1.8052
19575,20.357,0.36364,0.05,6.5585e-07,6.554,5.0361e-07,3.7839,9.8402e-13,6.7679e-06,-5.0361e-07,-3.7839,1.7919
19576,20.357,0.63636,0,7.7108e-05,770.55,2.5712e-05,3.1919,2.5289e-05,0.013783,-7.7053e-05,-768.94,1.7923
19577,20.448,0.54545,0,7.531e-05,752.58,2.5322e-05,5.6279,2.4574e-05,0.010443,-7.5213e-05,-749.75,1.8054
19578,20.357,0.54545,0.05,6.9012e-07,6.8965,5.2993e-07,3.9817,5.6973e-13,9.4951e-06,-5.2993e-07,-3.9817,1.7922
19579,20.357,0.81818,0,7.69e-05,768.47,2.5387e-05,0.02282,2.5363e-05,-0.15272,-7.6903e-05,-768.54,1.7925
19580,20.448,0.72727,0,7.51e-05,750.48,2.5012e-05,2.7557,2.4647e-05,0.014764,-7.5052e-05,-749.09,1.8056
19581,20.357,0.72727,0.05,7.0098e-07,7.005,5.3827e-07,4.0443,1.0476e-12,1.0941e-05,-5.3827e-07,-4.0443,1.7924
19582,20.357,1,0,7.671e-05,766.57,2.5504e-05,0.021768,2.4995e-05,-3.8088,-7.6773e-05,-768.45,1.7926
19583,20.448,0.90909,0,7.4909e-05,748.57,2.4742e-05,0.022289,2.4684e-05,-0.41145,-7.4916e-05,-748.77,1.8058
19584,20.357,0.90909,0.05,7.1192e-07,7.1143,5.4667e-07,4.1074,9.3751e-13,1.0995e-05,-5.4667e-07,-4.1074,1.7925
19585,20.357,1.1818,0,7.6532e-05,764.79,2.564e-05,0.024084,2.4607e-05,-7.7363,-7.666e-05,-768.62,1.7928
19586,20.448,1.0909,0,7.4733e-05,746.82,2.4854e-05,0.022506,2.434e-05,-3.8369,-7.4797e-05,-748.72,1.806
19587,20.357,1.0909,0.05,7.2407e-07,7.2357,5.5599e-07,4.1775,1.2772e-12,1.1638e-05,-5.5599e-07,-4.1775,1.7927
19588,20.357,1.3636,0,7.6365e-05,763.12,2.5787e-05,0.02567,2.4207e-05,-11.847,-7.6559e-05,-768.96,1.7929
19589,20.448,1.2727,0,7.4569e-05,745.17,2.4979e-05,0.024481,2.3981e-05,-7.4701,-7.4693e-05,-748.87,1.8061
19590,20.357,1.2727,0.05,7.3704e-07,7.3653,5.6595e-07,4.2523,1.5454e-12,1.2971e-05,-5.6595e-07,-4.2523,1.7929
19591,20.357,1.5455,0,7.6208e-05,761.56,2.5941e-05,0.026591,2.3803e-05,-16.034,-7.6468e-05,-769.43,1.7931
19592,20.448,1.4545,0,7.4415e-05,743.63,2.5113e-05,0.025818,2.3616e-05,-11.224,-7.4599e-05,-749.17,1.8062
19593,20.357,1.4545,0.05,7.5032e-07,7.4981,5.7615e-07,4.329,2.0254e-12,1.405e-05,-5.7616e-07,-4.329,1.793
19594,20.357,1.7273,0,7.6063e-05,760.1,2.6096e-05,0.026979,2.3407e-05,-20.172,-7.6385e-05,-769.97,1.7932
19595,20.448,1.6364,0,7.4271e-05,742.2,2.5251e-05,0.026569,2.3251e-05,-14.995,-7.4514e-05,-749.57,1.8064
19596,20.357,1.6364,0.05,7.6344e-07,7.6291,5.8622e-07,4.4047,2.0509e-12,1.5398e-05,-5.8623e-07,-4.4047,1.7931
19597,20.357,1.9091,0,7.593e-05,758.78,2.6245e-05,0.026968,2.303e-05,-24.127,-7.6311e-05,-770.54,1.7933
19598,20.448,1.8182,0,7.4138e-05,740.87,2.5387e-05,0.026853,2.2899e-05,-18.667,-7.4437e-05,-750.01,1.8065
19599,20.357,1.8182,0.05,7.7592e-07,7.7538,5.9581e-07,4.4767,2.2762e-12,1.5883e-05,-5.9581e-07,-4.4767,1.7932
19600,20.357,2.0909,0,7.5812e-05,757.6,2.6383e-05,0.026695,2.2684e-05,-27.763,-7.6246e-05,-771.08,1.7934
19601,20.448,2,0,7.4018e-05,739.67,2.5515e-05,0.026802,2.2568e-05,-22.114,-7.4369e-05,-750.46,1.8066
19602,20.357,2,0.05,7.8735e-07,7.8681,6.0459e-07,4.5426,2.2388e-12,1.6009e-05,-6.0459e-07,-4.5427,1.7933
19603,20.357,2.2727,0,7.5711e-05,756.59,2.6504e-05,0.026289,2.2382e-05,-30.948,-7.619e-05,-771.58,1.7934
19604,20.448,2.1818,0,7.3913e-05,738.62,2.5632e-05,0.026541,2.2272e-05,-25.216,-7.4309e-05,-750.89,1.8066
19605,20.357,2.1818,0.05,7.974e-07,7.9685,6.123e-07,4.6006,2.4263e-12,1.763e-05,-6.123e-07,-4.6006,1.7934
19606,20.357,2.4545,0,7.563e-05,755.78,2.6604e-05,0.025855,2.2134e-05,-33.562,-7.6145e-05,-771.99,1.7935
19607,20.448,2.3636,0,7.3825e-05,737.74,2.5731e-05,0.026188,2.202e-05,-27.855,-7.4259e-05,-751.26,1.8067
19608,20.357,2.3636,0.05,8.0576e-07,8.052,6.1872e-07,4.6488,2.3516e-12,1.8531e-05,-6.1873e-07,-4.6489,1.7934
19609,20.357,2.6364,0,7.557e-05,755.18,2.6678e-05,0.025482,2.1949e-05,-35.507,-7.6111e-05,-772.3,1.7935
19610,20.448,2.5455,0,7.3757e-05,737.06,2.5809e-05,0.025836,2.1822e-05,-29.931,-7.422e-05,-751.55,1.8067
19611,20.357,2.5455,0.05,8.1222e-07,8.1166,6.2368e-07,4.6861,2.7196e-12,1.8364e-05,-6.2369e-07,-4.6861,1.7935
19612,20.357,2.8182,0,7.5534e-05,754.82,2.6724e-05,0.025234,2.1836e-05,-36.705,-7.6091e-05,-772.49,1.7935
19613,20.448,2.7273,0,7.371e-05,736.59,2.5864e-05,0.02556,2.1686e-05,-31.363,-7.4193e-05,-751.76,1.8068
19614,20.357,2.7273,0.05,8.1662e-07,8.1606,6.2706e-07,4.7115,2.6326e-12,1.7199e-05,-6.2706e-07,-4.7115,1.7935
19615,20.357,3,0,7.5522e-05,754.69,2.674e-05,0.025146,2.1797e-05,-37.109,-7.6084e-05,-772.55,1.7935
19616,20.448,2.9091,0,7.3687e-05,736.36,2.5891e-05,0.025409,2.1616e-05,-32.094,-7.418e-05,-751.87,1.8068
19617,20.357,2.9091,0.05,8.1884e-07,8.1828,6.2877e-07,4.7243,2.7707e-12,1.939e-05,-6.2877e-07,-4.7244,1.7935
19618,20.357,3.1818,0,7.5534e-05,754.82,2.6724e-05,0.025234,2.1836e-05,-36.705,-7.6091e-05,-772.49,1.7935
19619,20.448,3.0909,0,7.3687e-05,736.36,2.5891e-05,0.025408,2.1616e-05,-32.094,-7.418e-05,-751.87,1.8068
19620,20.357,3.0909,0.05,8.1884e-07,8.1828,6.2877e-07,4.7243,2.689e-12,1.83e-05,-6.2877e-07,-4.7244,1.7935
19621,20.357,3.3636,0,7.557e-05,755.18,2.6678e-05,0.025483,2.1949e-05,-35.507,-7.6111e-05,-772.3,1.7935
19622,20.448,3.2727,0,7.371e-05,736.59,2.5864e-05,0.02556,2.1686e-05,-31.363,-7.4193e-05,-751.76,1.8068
19623,20.357,3.2727,0.05,8.1662e-07,8.1606,6.2706e-07,4.7115,2.62e-12,1.8746e-05,-6.2706e-07,-4.7115,1.7935
19624,20.357,3.5455,0,7.563e-05,755.78,2.6604e-05,0.025856,2.2134e-05,-33.562,-7.6145e-05,-771.99,1.7935
19625,20.448,3.4545,0,7.3757e-05,737.06,2.5809e-05,0.025836,2.1822e-05,-29.931,-7.422e-05,-751.55,1.8067
19626,20.357,3.4545,0.05,8.1222e-07,8.1166,6.2369e-07,4.6861,2.7996e-12,1.695e-05,-6.2369e-07,-4.6862,1.7935
19627,20.357,3.7273,0,7.5711e-05,756.59,2.6504e-05,0.026289,2.2382e-05,-30.948,-7.619e-05,-771.58,1.7934
19628,20.448,3.6364,0,7.3825e-05,737.74,2.5731e-05,0.026188,2.202e-05,-27.855,-7.4259e-05,-751.26,1.8067
19629,20.357,3.6364,0.05,8.0576e-07,8.052,6.1872e-07,4.6488,2.9969e-12,1.8647e-05,-6.1873e-07,-4.6489,1.7934
19630,20.357,3.9091,0,7.5812e-05,757.6,2.6383e-05,0.026696,2.2684e-05,-27.763,-7.6246e-05,-771.08,1.7934
19631,20.448,3.8182,0,7.3913e-05,738.62,2.5632e-05,0.026542,2.2272e-05,-25.215,-7.4309e-05,-750.89,1.8066
19632,20.357,3.8182,0.05,7.974e-07,7.9685,6.123e-07,4.6006,2.7621e-12,1.8552e-05,-6.123e-07,-4.6006,1.7934
19633,20.357,4.0909,0,7.593e-05,758.78,2.6245e-05,0.026967,2.303e-05,-24.127,-7.6311e-05,-770.54,1.7933
19634,20.448,4,0,7.4018e-05,739.67,2.5515e-05,0.026802,2.2568e-05,-22.114,-7.4369e-05,-750.46,1.8066
19635,20.357,4,0.05,7.8735e-07,7.8681,6.0459e-07,4.5426,2.762e-12,1.7705e-05,-6.0459e-07,-4.5427,1.7933
19636,20.357,4.2727,0,7.6063e-05,760.1,2.6096e-05,0.026977,2.3407e-05,-20.171,-7.6385e-05,-769.97,1.7932
19637,20.448,4.1818,0,7.4138e-05,740.87,2.5387e-05,0.026852,2.2899e-05,-18.667,-7.4437e-05,-750.01,1.8065
19638,20.357,4.1818,0.05,7.7592e-07,7.7538,5.9581e-07,4.4767,2.5686e-12,1.5577e-05,-5.9581e-07,-4.4767,1.7932
19639,20.357,4.4545,0,7.6208e-05,761.56,2.5941e-05,0.026591,2.3803e-05,-16.033,-7.6468e-05,-769.43,1.7931
19640,20.448,4.3636,0,7.4271e-05,742.2,2.5251e-05,0.02657,2.3251e-05,-14.995,-7.4514e-05,-749.57,1.8064
19641,20.357,4.3636,0.05,7.6344e-07,7.6291,5.8622e-07,4.4047,2.608e-12,1.6256e-05,-5.8623e-07,-4.4047,1.7931
19642,20.357,4.6364,0,7.6365e-05,763.12,2.5787e-05,0.025669,2.4207e-05,-11.847,-7.6559e-05,-768.96,1.7929
19643,20.448,4.5455,0,7.4415e-05,743.63,2.5113e-05,0.025816,2.3616e-05,-11.224,-7.4599e-05,-749.17,1.8062
19644,20.357,4.5455,0.05,7.5032e-07,7.4981,5.7615e-07,4.329,2.6457e-12,1.3549e-05,-5.7616e-07,-4.329,1.793
19645,20.357,4.8182,0,7.6532e-05,764.79,2.564e-05,0.024083,2.4607e-05,-7.7363,-7.666e-05,-768.62,1.7928
19646,20.448,4.7273,0,7.4569e-05,745.17,2.4979e-05,0.024481,2.3981e-05,-7.47,-7.4693e-05,-748.87,1.8061
19647,20.357,4.7273,0.05,7.3704e-07,7.3653,5.6595e-07,4.2523,2.4679e-12,1.3406e-05,-5.6595e-07,-4.2524,1.7929
19648,20.357,5,0,7.671e-05,766.57,2.5504e-05,0.021767,2.4995e-05,-3.8088,-7.6773e-05,-768.45,1.7926
19649,20.448,4.9091,0,7.4733e-05,746.82,2.4854e-05,0.022505,2.434e-05,-3.8368,-7.4797e-05,-748.72,1.806
19650,20.357,4.9091,0.05,7.2407e-07,7.2357,5.5599e-07,4.1775,2.0329e-12,1.238e-05,-5.56e-07,-4.1775,1.7927
19651,20.357,5.1818,0,7.69e-05,768.47,2.5387e-05,0.022821,2.5363e-05,-0.15265,-7.6903e-05,-768.54,1.7925
19652,20.448,5.0909,0,7.4909e-05,748.57,2.4742e-05,0.022288,2.4684e-05,-0.41138,-7.4916e-05,-748.77,1.8058
19653,20.357,5.0909,0.05,7.1192e-07,7.1143,5.4667e-07,4.1074,1.8185e-12,9.3716e-06,-5.4667e-07,-4.1075,1.7925
19654,20.357,5.3636,0,7.7108e-05,770.55,2.5712e-05,3.192,2.5289e-05,0.013783,-7.7053e-05,-768.94,1.7923
19655,20.448,5.2727,0,7.51e-05,750.48,2.5012e-05,2.7557,2.4647e-05,0.014763,-7.5052e-05,-749.09,1.8056
19656,20.357,5.2727,0.05,7.0098e-07,7.005,5.3827e-07,4.0443,1.8721e-12,9.2918e-06,-5.3827e-07,-4.0443,1.7924
19657,20.357,5.5455,0,7.7343e-05,772.9,2.6042e-05,6.2229,2.5215e-05,0.008163,-7.7235e-05,-769.76,1.7921
19658,20.448,5.4545,0,7.531e-05,752.58,2.5322e-05,5.6279,2.4574e-05,0.010442,-7.5213e-05,-749.75,1.8054
19659,20.357,5.4545,0.05,6.9012e-07,6.8965,5.2993e-07,3.9817,1.3956e-12,7.9561e-06,-5.2993e-07,-3.9817,1.7922
19660,20.357,5.7273,0,7.7706e-05,776.52,2.6442e-05,9.5767,2.5167e-05,0.00061778,-7.7539e-05,-771.69,1.7918
19661,20.448,5.6364,0,7.5558e-05,755.06,2.5625e-05,8.2806,2.4523e-05,0.0032725,-7.5414e-05,-750.89,1.8052
19662,20.357,5.6364,0.05,6.5585e-07,6.554,5.0361e-07,3.7839,1.8354e-12,8.4371e-06,-5.0361e-07,-3.7839,1.7919
19663,20.448,5.8182,0,7.6044e-05,759.92,2.6097e-05,12.022,2.4497e-05,-0.0016533,-7.5833e-05,-753.84,1.805
19664,20.357,5.8182,0.05,2.3192e-07,2.3176,1.7809e-07,1.3381,1.36e-12,6.8593e-06,-1.7809e-07,-1.3381,1.7917
19665,20.357,5.9091,0,7.7431e-05,773.77,2.6233e-05,8.1645,2.5147e-05,0.0081516,-7.7289e-05,-769.65,1.7916
19666,20.539,0.27273,0,7.3876e-05,738.25,2.5262e-05,10.589,2.3852e-05,-0.0010853,-7.369e-05,-732.89,1.8184
19667,20.63,0.18182,0,7.22e-05,721.51,2.4903e-05,12.92,2.3183e-05,-0.0018627,-7.1972e-05,-714.96,1.8315
19668,20.539,0.18182,0.05,2.4042e-07,2.4025,1.8461e-07,1.3871,6.8212e-13,6.635e-06,-1.8461e-07,-1.3871,1.8182
19669,20.539,0.090909,0,7.3569e-05,735.18,2.5005e-05,8.7263,2.3845e-05,0.0064816,-7.3416e-05,-730.77,1.8181
19670,20.539,0.45455,0,7.3518e-05,734.68,2.4898e-05,7.6391,2.3882e-05,0.0053098,-7.3385e-05,-730.83,1.8186
19671,20.63,0.36364,0,7.1718e-05,716.68,2.4461e-05,9.5169,2.3194e-05,-0.00019857,-7.1551e-05,-711.88,1.8318
19672,20.539,0.36364,0.05,6.6293e-07,6.6247,5.0905e-07,3.8248,-2.0907e-13,3.937e-06,-5.0905e-07,-3.8248,1.8185
19673,20.539,0.63636,0,7.3296e-05,732.45,2.4617e-05,5.1521,2.3933e-05,0.011344,-7.3207e-05,-729.86,1.8188
19674,20.63,0.54545,0,7.1485e-05,714.35,2.4204e-05,7.367,2.3225e-05,0.0081604,-7.1356e-05,-710.64,1.832
19675,20.539,0.54545,0.05,6.9606e-07,6.9558,5.3449e-07,4.016,5.2174e-13,7.7697e-06,-5.3449e-07,-4.0159,1.8187
19676,20.539,0.81818,0,7.3103e-05,730.52,2.4329e-05,2.4603,2.4003e-05,0.015149,-7.306e-05,-729.28,1.819
19677,20.63,0.72727,0,7.1291e-05,712.42,2.3951e-05,5.0998,2.3274e-05,0.012651,-7.1203e-05,-709.85,1.8322
19678,20.539,0.72727,0.05,7.0538e-07,7.0489,5.4165e-07,4.0697,8.2959e-13,1.1978e-05,-5.4164e-07,-4.0697,1.8189
19679,20.539,1,0,7.2928e-05,728.77,2.4092e-05,0.024546,2.4025e-05,-0.47253,-7.2935e-05,-729,1.8191
19680,20.63,0.90909,0,7.112e-05,710.71,2.3688e-05,2.6282,2.3341e-05,0.016531,-7.1075e-05,-709.38,1.8323
19681,20.539,0.90909,0.05,7.1442e-07,7.1392,5.4858e-07,4.1218,8.9523e-13,1.2083e-05,-5.4858e-07,-4.1218,1.819
19682,20.539,1.1818,0,7.2766e-05,727.16,2.4193e-05,0.023062,2.3711e-05,-3.5979,-7.2826e-05,-728.94,1.8193
19683,20.63,1.0909,0,7.0964e-05,709.15,2.3425e-05,0.045252,2.341e-05,-0.066166,-7.0965e-05,-709.16,1.8325
19684,20.539,1.0909,0.05,7.2439e-07,7.2389,5.5624e-07,4.1794,1.1549e-12,1.2172e-05,-5.5624e-07,-4.1794,1.8192
19685,20.539,1.3636,0,7.2616e-05,725.66,2.4305e-05,0.024671,2.3387e-05,-6.8702,-7.273e-05,-729.05,1.8194
19686,20.63,1.2727,0,7.082e-05,707.71,2.3515e-05,0.023831,2.3129e-05,-2.8705,-7.0868e-05,-709.13,1.8326
19687,20.539,1.2727,0.05,7.3504e-07,7.3453,5.6442e-07,4.2408,1.2043e-12,1.3368e-05,-5.6442e-07,-4.2408,1.8194
19688,20.539,1.5455,0,7.2475e-05,724.25,2.4423e-05,0.025799,2.3061e-05,-10.205,-7.2643e-05,-729.28,1.8196
19689,20.63,1.4545,0,7.0686e-05,706.37,2.3615e-05,0.025173,2.284e-05,-5.7977,-7.0782e-05,-709.24,1.8328
19690,20.539,1.4545,0.05,7.4595e-07,7.4544,5.728e-07,4.3038,1.2361e-12,1.4601e-05,-5.728e-07,-4.3038,1.8195
19691,20.539,1.7273,0,7.2344e-05,722.94,2.4542e-05,0.026429,2.2741e-05,-13.506,-7.2564e-05,-729.59,1.8197
19692,20.63,1.6364,0,7.0561e-05,705.12,2.3719e-05,0.026132,2.2552e-05,-8.7463,-7.0705e-05,-709.44,1.8329
19693,20.539,1.6364,0.05,7.5675e-07,7.5622,5.8109e-07,4.3661,1.471e-12,1.6198e-05,-5.8109e-07,-4.3661,1.8196
19694,20.539,1.9091,0,7.2224e-05,721.75,2.4657e-05,0.026663,2.2435e-05,-16.667,-7.2493e-05,-729.92,1.8198
19695,20.63,1.8182,0,7.0445e-05,703.96,2.3822e-05,0.026653,2.2272e-05,-11.626,-7.0635e-05,-709.69,1.833
19696,20.539,1.8182,0.05,7.6704e-07,7.6651,5.8899e-07,4.4254,2.1639e-12,1.6339e-05,-5.8899e-07,-4.4254,1.8197
19697,20.539,2.0909,0,7.2118e-05,720.68,2.4764e-05,0.026617,2.2155e-05,-19.577,-7.243e-05,-730.25,1.8198
19698,20.63,2,0,7.034e-05,702.91,2.3921e-05,0.02683,2.2009e-05,-14.338,-7.0572e-05,-709.96,1.8331
19699,20.539,2,0.05,7.7649e-07,7.7596,5.9625e-07,4.48,2.1381e-12,1.7173e-05,-5.9625e-07,-4.48,1.8198
19700,20.539,2.2727,0,7.2026e-05,719.76,2.4859e-05,0.026406,2.191e-05,-22.131,-7.2377e-05,-730.56,1.8199
19701,20.63,2.1818,0,7.0247e-05,701.99,2.401e-05,0.026771,2.1773e-05,-16.784,-7.0517e-05,-710.22,1.8331
19702,20.539,2.1818,0.05,7.8481e-07,7.8427,6.0264e-07,4.528,2.1055e-12,1.8333e-05,-6.0264e-07,-4.528,1.8199
19703,20.539,2.4545,0,7.1952e-05,719.02,2.4936e-05,0.026131,2.1708e-05,-24.231,-7.2333e-05,-730.82,1.82
19704,20.63,2.3636,0,7.017e-05,701.22,2.4087e-05,0.026588,2.1572e-05,-18.87,-7.0472e-05,-710.45,1.8332
19705,20.539,2.3636,0.05,7.9175e-07,7.912,6.0797e-07,4.568,2.0541e-12,1.8851e-05,-6.0797e-07,-4.568,1.8199
19706,20.539,2.6364,0,7.1897e-05,718.48,2.4995e-05,0.025874,2.1558e-05,-25.794,-7.2301e-05,-731.01,1.82
19707,20.63,2.5455,0,7.011e-05,700.62,2.4147e-05,0.026367,2.1413e-05,-20.515,-7.0436e-05,-710.63,1.8332
19708,20.539,2.5455,0.05,7.9712e-07,7.9657,6.1209e-07,4.599,2.8949e-12,1.9358e-05,-6.1209e-07,-4.599,1.82
19709,20.539,2.8182,0,7.1864e-05,718.14,2.503e-05,0.025694,2.1466e-05,-26.758,-7.2281e-05,-731.14,1.82
19710,20.63,2.7273,0,7.0069e-05,700.2,2.4189e-05,0.026179,2.1304e-05,-21.651,-7.0411e-05,-710.76,1.8333
19711,20.539,2.7273,0.05,8.0078e-07,8.0023,6.149e-07,4.6201,2.1449e-12,1.8857e-05,-6.149e-07,-4.6201,1.82
19712,20.539,3,0,7.1853e-05,718.03,2.5042e-05,0.02563,2.1434e-05,-27.083,-7.2275e-05,-731.18,1.82
19713,20.63,2.9091,0,7.0048e-05,699.99,2.421e-05,0.026072,2.1248e-05,-22.231,-7.0399e-05,-710.83,1.8333
19714,20.539,2.9091,0.05,8.0263e-07,8.0208,6.1632e-07,4.6308,2.7604e-12,1.9551e-05,-6.1632e-07,-4.6308,1.82
19715,20.539,3.1818,0,7.1864e-05,718.14,2.503e-05,0.025694,2.1466e-05,-26.758,-7.2281e-05,-731.14,1.82
19716,20.63,3.0909,0,7.0048e-05,699.99,2.421e-05,0.026071,2.1248e-05,-22.231,-7.0399e-05,-710.83,1.8333
19717,20.539,3.0909,0.05,8.0263e-07,8.0208,6.1632e-07,4.6308,2.6985e-12,1.8609e-05,-6.1632e-07,-4.6308,1.82
19718,20.539,3.3636,0,7.1897e-05,718.48,2.4995e-05,0.025874,2.1558e-05,-25.794,-7.2301e-05,-731.01,1.82
19719,20.63,3.2727,0,7.0069e-05,700.2,2.4189e-05,0.026178,2.1304e-05,-21.651,-7.0411e-05,-710.76,1.8333
19720,20.539,3.2727,0.05,8.0078e-07,8.0023,6.149e-07,4.6201,2.6472e-12,1.8939e-05,-6.149e-07,-4.6201,1.82
19721,20.539,3.5455,0,7.1952e-05,719.02,2.4936e-05,0.026131,2.1708e-05,-24.231,-7.2333e-05,-730.82,1.82
19722,20.63,3.4545,0,7.011e-05,700.62,2.4147e-05,0.026367,2.1413e-05,-20.515,-7.0436e-05,-710.63,1.8332
19723,20.539,3.4545,0.05,7.9712e-07,7.9657,6.1209e-07,4.599,3.065e-12,1.9137e-05,-6.1209e-07,-4.599,1.82
19724,20.539,3.7273,0,7.2026e-05,719.76,2.4859e-05,0.026406,2.191e-05,-22.131,-7.2377e-05,-730.56,1.8199
19725,20.63,3.6364,0,7.017e-05,701.22,2.4087e-05,0.026587,2.1572e-05,-18.87,-7.0472e-05,-710.45,1.8332
19726,20.539,3.6364,0.05,7.9175e-07,7.912,6.0797e-07,4.568,2.5895e-12,1.9429e-05,-6.0797e-07,-4.568,1.8199
19727,20.539,3.9091,0,7.2118e-05,720.68,2.4764e-05,0.026617,2.2155e-05,-19.577,-7.243e-05,-730.25,1.8198
19728,20.63,3.8182,0,7.0247e-05,701.99,2.401e-05,0.026773,2.1773e-05,-16.784,-7.0517e-05,-710.22,1.8331
19729,20.539,3.8182,0.05,7.8481e-07,7.8427,6.0264e-07,4.528,2.8139e-12,1.9875e-05,-6.0264e-07,-4.528,1.8199
19730,20.539,4.0909,0,7.2224e-05,721.75,2.4657e-05,0.026663,2.2435e-05,-16.666,-7.2493e-05,-729.92,1.8198
19731,20.63,4,0,7.034e-05,702.91,2.3921e-05,0.02683,2.2009e-05,-14.338,-7.0572e-05,-709.96,1.8331
19732,20.539,4,0.05,7.7649e-07,7.7596,5.9625e-07,4.48,2.8117e-12,1.8492e-05,-5.9625e-07,-4.48,1.8198
19733,20.539,4.2727,0,7.2344e-05,722.94,2.4542e-05,0.026431,2.2741e-05,-13.506,-7.2564e-05,-729.59,1.8197
19734,20.63,4.1818,0,7.0445e-05,703.96,2.3822e-05,0.026653,2.2272e-05,-11.626,-7.0635e-05,-709.69,1.833
19735,20.539,4.1818,0.05,7.6704e-07,7.6651,5.8899e-07,4.4254,2.6038e-12,1.6582e-05,-5.8899e-07,-4.4255,1.8197
19736,20.539,4.4545,0,7.2475e-05,724.25,2.4423e-05,0.025799,2.3061e-05,-10.205,-7.2643e-05,-729.28,1.8196
19737,20.63,4.3636,0,7.0561e-05,705.12,2.3719e-05,0.026134,2.2552e-05,-8.7463,-7.0705e-05,-709.44,1.8329
19738,20.539,4.3636,0.05,7.5675e-07,7.5622,5.8109e-07,4.3661,2.4156e-12,1.7692e-05,-5.8109e-07,-4.3661,1.8196
19739,20.539,4.6364,0,7.2616e-05,725.66,2.4305e-05,0.024671,2.3387e-05,-6.8702,-7.273e-05,-729.05,1.8194
19740,20.63,4.5455,0,7.0686e-05,706.37,2.3615e-05,0.025172,2.284e-05,-5.7976,-7.0782e-05,-709.24,1.8328
19741,20.539,4.5455,0.05,7.4595e-07,7.4544,5.728e-07,4.3038,1.9888e-12,1.4846e-05,-5.728e-07,-4.3038,1.8195
19742,20.539,4.8182,0,7.2766e-05,727.16,2.4193e-05,0.023063,2.3711e-05,-3.5979,-7.2826e-05,-728.94,1.8193
19743,20.63,4.7273,0,7.082e-05,707.71,2.3515e-05,0.023831,2.3129e-05,-2.8705,-7.0868e-05,-709.13,1.8326
19744,20.539,4.7273,0.05,7.3504e-07,7.3453,5.6442e-07,4.2408,2.0093e-12,1.4929e-05,-5.6442e-07,-4.2408,1.8194
19745,20.539,5,0,7.2928e-05,728.77,2.4092e-05,0.024546,2.4025e-05,-0.47246,-7.2935e-05,-729,1.8191
19746,20.63,4.9091,0,7.0964e-05,709.15,2.3425e-05,0.045265,2.341e-05,-0.066114,-7.0965e-05,-709.16,1.8325
19747,20.539,4.9091,0.05,7.2439e-07,7.2389,5.5624e-07,4.1794,2.0376e-12,1.3796e-05,-5.5624e-07,-4.1794,1.8192
19748,20.539,5.1818,0,7.3103e-05,730.52,2.4329e-05,2.4604,2.4003e-05,0.015149,-7.306e-05,-729.28,1.819
19749,20.63,5.0909,0,7.112e-05,710.71,2.3688e-05,2.6283,2.3341e-05,0.016531,-7.1075e-05,-709.38,1.8323
19750,20.539,5.0909,0.05,7.1442e-07,7.1392,5.4858e-07,4.1218,1.8267e-12,1.0725e-05,-5.4858e-07,-4.1218,1.819
19751,20.539,5.3636,0,7.3296e-05,732.45,2.4617e-05,5.1521,2.3933e-05,0.011341,-7.3207e-05,-729.86,1.8188
19752,20.63,5.2727,0,7.1291e-05,712.42,2.3951e-05,5.0999,2.3274e-05,0.01265,-7.1203e-05,-709.85,1.8322
19753,20.539,5.2727,0.05,7.0538e-07,7.0489,5.4164e-07,4.0697,1.6015e-12,1.0566e-05,-5.4165e-07,-4.0697,1.8189
19754,20.539,5.5455,0,7.3518e-05,734.68,2.4898e-05,7.6391,2.3882e-05,0.0053101,-7.3385e-05,-730.83,1.8186
19755,20.63,5.4545,0,7.1485e-05,714.35,2.4204e-05,7.367,2.3225e-05,0.0081574,-7.1356e-05,-710.64,1.832
19756,20.539,5.4545,0.05,6.9606e-07,6.9558,5.3449e-07,4.0159,1.6021e-12,9.5022e-06,-5.3449e-07,-4.016,1.8187
19757,20.539,5.7273,0,7.3876e-05,738.25,2.5262e-05,10.589,2.3852e-05,-0.0010824,-7.369e-05,-732.89,1.8184
19758,20.63,5.6364,0,7.1718e-05,716.68,2.4461e-05,9.5169,2.3194e-05,-0.00019628,-7.1551e-05,-711.88,1.8318
19759,20.539,5.6364,0.05,6.6293e-07,6.6247,5.0905e-07,3.8248,1.5982e-12,9.4382e-06,-5.0905e-07,-3.8248,1.8185
19760,20.63,5.8182,0,7.22e-05,721.51,2.4903e-05,12.92,2.3183e-05,-0.0018604,-7.1972e-05,-714.96,1.8315
19761,20.539,5.8182,0.05,2.4042e-07,2.4025,1.8461e-07,1.3871,1.1373e-12,7.3483e-06,-1.8461e-07,-1.3871,1.8182
19762,20.539,5.9091,0,7.3569e-05,735.18,2.5005e-05,8.7263,2.3845e-05,0.0064856,-7.3416e-05,-730.77,1.8181
19763,20.721,0.27273,0,7.002e-05,699.72,2.4082e-05,11.703,2.2524e-05,-0.0032551,-6.9814e-05,-693.8,1.8449
19764,20.812,0.18182,0,6.8333e-05,682.86,2.3707e-05,13.885,2.1859e-05,-0.0023895,-6.8087e-05,-675.82,1.8581
19765,20.721,0.18182,0.05,2.4768e-07,2.4751,1.9019e-07,1.429,-4.0342e-23,4.2353e-06,-1.9019e-07,-1.429,1.8448
19766,20.721,0.090909,0,6.9675e-05,696.27,2.3771e-05,9.333,2.2529e-05,0.0052331,-6.9512e-05,-691.55,1.8447
19767,20.721,0.45455,0,6.9677e-05,696.28,2.376e-05,9.1961,2.2536e-05,0.0024097,-6.9515e-05,-691.64,1.8452
19768,20.812,0.36364,0,6.7861e-05,678.14,2.33e-05,10.867,2.1853e-05,-0.0039699,-6.7669e-05,-672.64,1.8584
19769,20.721,0.36364,0.05,6.6794e-07,6.6748,5.1289e-07,3.8537,2.2974e-13,4.5395e-06,-5.1289e-07,-3.8537,1.845
19770,20.721,0.63636,0,6.9474e-05,694.26,2.3533e-05,7.2737,2.2566e-05,0.0093625,-6.9347e-05,-690.59,1.8453
19771,20.812,0.54545,0,6.7649e-05,676.03,2.3095e-05,9.2498,2.1865e-05,0.0061807,-6.7487e-05,-671.35,1.8586
19772,20.721,0.54545,0.05,7.0013e-07,6.9965,5.3761e-07,4.0394,7.1268e-13,6.8222e-06,-5.3762e-07,-4.0394,1.8452
19773,20.721,0.81818,0,6.9303e-05,692.55,2.3306e-05,5.231,2.2612e-05,0.013871,-6.9212e-05,-689.92,1.8455
19774,20.812,0.72727,0,6.7481e-05,674.34,2.2902e-05,7.5997,2.1892e-05,0.011051,-6.7348e-05,-670.5,1.8587
19775,20.721,0.72727,0.05,7.0827e-07,7.0778,5.4386e-07,4.0864,5.0571e-13,9.0183e-06,-5.4386e-07,-4.0864,1.8454
19776,20.721,1,0,6.9152e-05,691.04,2.3072e-05,3.0218,2.2672e-05,0.017579,-6.9099e-05,-689.51,1.8457
19777,20.812,0.90909,0,6.7335e-05,672.89,2.2705e-05,5.814,2.1933e-05,0.015825,-6.7234e-05,-669.96,1.8589
19778,20.721,0.90909,0.05,7.1583e-07,7.1534,5.4967e-07,4.13,1.0171e-12,9.2235e-06,-5.4967e-07,-4.13,1.8456
19779,20.721,1.1818,0,6.9014e-05,689.66,2.2829e-05,0.66116,2.2743e-05,0.018241,-6.9003e-05,-689.32,1.8458
19780,20.812,1.0909,0,6.7207e-05,671.6,2.2501e-05,3.8833,2.1987e-05,0.019449,-6.7139e-05,-669.64,1.8591
19781,20.721,1.0909,0.05,7.2413e-07,7.2363,5.5604e-07,4.1779,1.0679e-12,1.0506e-05,-5.5604e-07,-4.1779,1.8458
19782,20.721,1.3636,0,6.8887e-05,688.4,2.2825e-05,0.024609,2.2579e-05,-1.8218,-6.8918e-05,-689.29,1.846
19783,20.812,1.2727,0,6.709e-05,670.43,2.2291e-05,1.8256,2.2051e-05,0.022098,-6.7058e-05,-669.51,1.8592
19784,20.721,1.2727,0.05,7.3296e-07,7.3246,5.6283e-07,4.2289,1.1138e-12,1.1643e-05,-5.6283e-07,-4.2289,1.8459
19785,20.721,1.5455,0,6.8769e-05,687.22,2.2911e-05,0.025556,2.2328e-05,-4.3585,-6.8842e-05,-689.37,1.8461
19786,20.812,1.4545,0,6.6981e-05,669.35,2.2122e-05,0.026561,2.2076e-05,-0.32319,-6.6987e-05,-669.5,1.8593
19787,20.721,1.4545,0.05,7.4202e-07,7.4151,5.6978e-07,4.2811,1.375e-12,1.2901e-05,-5.6978e-07,-4.2811,1.846
19788,20.721,1.7273,0,6.866e-05,686.12,2.3e-05,0.026371,2.208e-05,-6.882,-6.8774e-05,-689.52,1.8462
19789,20.812,1.6364,0,6.6881e-05,668.35,2.2197e-05,0.026197,2.186e-05,-2.5009,-6.6923e-05,-669.58,1.8594
19790,20.721,1.6364,0.05,7.5098e-07,7.5046,5.7666e-07,4.3328,2.0705e-12,1.4125e-05,-5.7666e-07,-4.3328,1.8461
19791,20.721,1.9091,0,6.8559e-05,685.12,2.3086e-05,0.026822,2.1844e-05,-9.3096,-6.8712e-05,-689.71,1.8463
19792,20.812,1.8182,0,6.6788e-05,667.42,2.2272e-05,0.026908,2.165e-05,-4.6451,-6.6865e-05,-669.71,1.8595
19793,20.721,1.8182,0.05,7.5954e-07,7.5902,5.8323e-07,4.3822,2.0719e-12,1.4568e-05,-5.8323e-07,-4.3822,1.8462
19794,20.721,2.0909,0,6.8469e-05,684.22,2.3167e-05,0.026979,2.1626e-05,-11.555,-6.8658e-05,-689.91,1.8464
19795,20.812,2,0,6.6703e-05,666.57,2.2344e-05,0.027293,2.1452e-05,-6.6787,-6.6814e-05,-669.87,1.8596
19796,20.721,2,0.05,7.6741e-07,7.6689,5.8928e-07,4.4276,1.6073e-12,1.5428e-05,-5.8928e-07,-4.4276,1.8463
19797,20.721,2.2727,0,6.8392e-05,683.44,2.3238e-05,0.026944,2.1434e-05,-13.532,-6.8611e-05,-690.1,1.8464
19798,20.812,2.1818,0,6.6628e-05,665.82,2.241e-05,0.027421,2.1272e-05,-8.5237,-6.6768e-05,-670.03,1.8597
19799,20.721,2.1818,0.05,7.7436e-07,7.7382,5.9461e-07,4.4677,2.2565e-12,1.6285e-05,-5.9461e-07,-4.4677,1.8464
19800,20.721,2.4545,0,6.8329e-05,682.81,2.3298e-05,0.026811,2.1276e-05,-15.162,-6.8573e-05,-690.25,1.8465
19801,20.812,2.3636,0,6.6565e-05,665.19,2.2467e-05,0.027385,2.1119e-05,-10.105,-6.673e-05,-670.17,1.8597
19802,20.721,2.3636,0.05,7.8016e-07,7.7962,5.9906e-07,4.5011,2.2232e-12,1.6785e-05,-5.9907e-07,-4.5011,1.8465
19803,20.721,2.6364,0,6.8282e-05,682.35,2.3342e-05,0.026657,2.1158e-05,-16.379,-6.8545e-05,-690.38,1.8465
19804,20.812,2.5455,0,6.6515e-05,664.69,2.2512e-05,0.027278,2.0997e-05,-11.356,-6.6701e-05,-670.29,1.8598
19805,20.721,2.5455,0.05,7.8465e-07,7.8411,6.0251e-07,4.5271,2.1723e-12,1.7521e-05,-6.0252e-07,-4.5271,1.8465
19806,20.721,2.8182,0,6.8253e-05,682.06,2.3369e-05,0.02654,2.1086e-05,-17.13,-6.8528e-05,-690.45,1.8465
19807,20.812,2.7273,0,6.6481e-05,664.35,2.2544e-05,0.027167,2.0913e-05,-12.222,-6.668e-05,-670.37,1.8598
19808,20.721,2.7273,0.05,7.8772e-07,7.8717,6.0487e-07,4.5447,2.3498e-12,1.7016e-05,-6.0487e-07,-4.5448,1.8465
19809,20.721,3,0,6.8244e-05,681.97,2.3378e-05,0.026496,2.1061e-05,-17.384,-6.8522e-05,-690.48,1.8466
19810,20.812,2.9091,0,6.6464e-05,664.18,2.256e-05,0.027098,2.087e-05,-12.665,-6.667e-05,-670.41,1.8598
19811,20.721,2.9091,0.05,7.8927e-07,7.8872,6.0606e-07,4.5537,2.0711e-12,1.7948e-05,-6.0606e-07,-4.5537,1.8465
19812,20.721,3.1818,0,6.8253e-05,682.06,2.3369e-05,0.026539,2.1086e-05,-17.13,-6.8528e-05,-690.45,1.8465
19813,20.812,3.0909,0,6.6464e-05,664.18,2.256e-05,0.027098,2.087e-05,-12.665,-6.667e-05,-670.41,1.8598
19814,20.721,3.0909,0.05,7.8927e-07,7.8872,6.0606e-07,4.5537,2.0231e-12,1.6992e-05,-6.0606e-07,-4.5537,1.8465
19815,20.721,3.3636,0,6.8282e-05,682.35,2.3342e-05,0.026656,2.1158e-05,-16.379,-6.8545e-05,-690.38,1.8465
19816,20.812,3.2727,0,6.6481e-05,664.35,2.2544e-05,0.027166,2.0913e-05,-12.222,-6.668e-05,-670.37,1.8598
19817,20.721,3.2727,0.05,7.8772e-07,7.8717,6.0487e-07,4.5447,2.4376e-12,1.752e-05,-6.0487e-07,-4.5448,1.8465
19818,20.721,3.5455,0,6.8329e-05,682.81,2.3298e-05,0.026811,2.1276e-05,-15.162,-6.8573e-05,-690.25,1.8465
19819,20.812,3.4545,0,6.6515e-05,664.69,2.2512e-05,0.027278,2.0997e-05,-11.356,-6.6701e-05,-670.29,1.8598
19820,20.721,3.4545,0.05,7.8465e-07,7.8411,6.0251e-07,4.5271,2.4086e-12,1.7422e-05,-6.0252e-07,-4.5271,1.8465
19821,20.721,3.7273,0,6.8392e-05,683.44,2.3238e-05,0.026945,2.1434e-05,-13.532,-6.8611e-05,-690.1,1.8464
19822,20.812,3.6364,0,6.6565e-05,665.19,2.2467e-05,0.027386,2.1119e-05,-10.105,-6.673e-05,-670.17,1.8597
19823,20.721,3.6364,0.05,7.8016e-07,7.7962,5.9906e-07,4.5011,2.3879e-12,1.7764e-05,-5.9907e-07,-4.5011,1.8465
19824,20.721,3.9091,0,6.8469e-05,684.22,2.3167e-05,0.026981,2.1626e-05,-11.555,-6.8658e-05,-689.91,1.8464
19825,20.812,3.8182,0,6.6628e-05,665.82,2.241e-05,0.027421,2.1272e-05,-8.5237,-6.6768e-05,-670.03,1.8597
19826,20.721,3.8182,0.05,7.7436e-07,7.7382,5.9461e-07,4.4677,2.3827e-12,1.817e-05,-5.9461e-07,-4.4677,1.8464
19827,20.721,4.0909,0,6.8559e-05,685.12,2.3086e-05,0.026822,2.1844e-05,-9.3096,-6.8712e-05,-689.71,1.8463
19828,20.812,4,0,6.6703e-05,666.57,2.2344e-05,0.027294,2.1452e-05,-6.6787,-6.6814e-05,-669.87,1.8596
19829,20.721,4,0.05,7.6741e-07,7.6689,5.8928e-07,4.4276,2.1668e-12,1.6501e-05,-5.8928e-07,-4.4276,1.8463
19830,20.721,4.2727,0,6.866e-05,686.12,2.3e-05,0.026371,2.208e-05,-6.8819,-6.8774e-05,-689.52,1.8462
19831,20.812,4.1818,0,6.6788e-05,667.42,2.2272e-05,0.026908,2.165e-05,-4.6451,-6.6865e-05,-669.71,1.8595
19832,20.721,4.1818,0.05,7.5954e-07,7.5902,5.8323e-07,4.3822,2.6161e-12,1.5251e-05,-5.8324e-07,-4.3822,1.8462
19833,20.721,4.4545,0,6.8769e-05,687.22,2.2911e-05,0.025557,2.2328e-05,-4.3585,-6.8842e-05,-689.37,1.8461
19834,20.812,4.3636,0,6.6881e-05,668.35,2.2197e-05,0.026196,2.186e-05,-2.5008,-6.6923e-05,-669.58,1.8594
19835,20.721,4.3636,0.05,7.5098e-07,7.5046,5.7666e-07,4.3328,2.6447e-12,1.6e-05,-5.7666e-07,-4.3328,1.8461
19836,20.721,4.6364,0,6.8887e-05,688.4,2.2825e-05,0.024609,2.2579e-05,-1.8217,-6.8918e-05,-689.29,1.846
19837,20.812,4.5455,0,6.6981e-05,669.35,2.2122e-05,0.026561,2.2076e-05,-0.32313,-6.6987e-05,-669.5,1.8593
19838,20.721,4.5455,0.05,7.4202e-07,7.4151,5.6978e-07,4.2811,2.6654e-12,1.337e-05,-5.6978e-07,-4.2811,1.846
19839,20.721,4.8182,0,6.9014e-05,689.66,2.2829e-05,0.66122,2.2743e-05,0.018241,-6.9003e-05,-689.32,1.8458
19840,20.812,4.7273,0,6.709e-05,670.43,2.2291e-05,1.8257,2.2051e-05,0.022097,-6.7058e-05,-669.51,1.8592
19841,20.721,4.7273,0.05,7.3296e-07,7.3246,5.6282e-07,4.2288,2.0055e-12,1.3572e-05,-5.6283e-07,-4.2289,1.8459
19842,20.721,5,0,6.9152e-05,691.04,2.3072e-05,3.0219,2.2672e-05,0.017579,-6.9099e-05,-689.51,1.8457
19843,20.812,4.9091,0,6.7207e-05,671.6,2.2501e-05,3.8834,2.1987e-05,0.01945,-6.7139e-05,-669.64,1.8591
19844,20.721,4.9091,0.05,7.2413e-07,7.2363,5.5604e-07,4.1779,1.8069e-12,1.2396e-05,-5.5604e-07,-4.1779,1.8458
19845,20.721,5.1818,0,6.9303e-05,692.55,2.3306e-05,5.2311,2.2612e-05,0.01387,-6.9212e-05,-689.92,1.8455
19846,20.812,5.0909,0,6.7335e-05,672.89,2.2705e-05,5.8141,2.1933e-05,0.015824,-6.7234e-05,-669.96,1.8589
19847,20.721,5.0909,0.05,7.1583e-07,7.1534,5.4967e-07,4.13,1.5822e-12,9.6153e-06,-5.4967e-07,-4.13,1.8456
19848,20.721,5.3636,0,6.9474e-05,694.26,2.3533e-05,7.2737,2.2566e-05,0.0093606,-6.9347e-05,-690.59,1.8453
19849,20.812,5.2727,0,6.7481e-05,674.34,2.2902e-05,7.5997,2.1892e-05,0.01105,-6.7348e-05,-670.5,1.8587
19850,20.721,5.2727,0.05,7.0827e-07,7.0778,5.4386e-07,4.0863,1.5775e-12,9.5998e-06,-5.4386e-07,-4.0864,1.8454
19851,20.721,5.5455,0,6.9677e-05,696.28,2.376e-05,9.1961,2.2536e-05,0.0024086,-6.9515e-05,-691.64,1.8452
19852,20.812,5.4545,0,6.7649e-05,676.03,2.3095e-05,9.2499,2.1865e-05,0.0061802,-6.7487e-05,-671.35,1.8586
19853,20.721,5.4545,0.05,7.0013e-07,6.9965,5.3761e-07,4.0394,1.1391e-12,8.1304e-06,-5.3762e-07,-4.0394,1.8452
19854,20.721,5.7273,0,7.002e-05,699.72,2.4082e-05,11.703,2.2524e-05,-0.0032535,-6.9814e-05,-693.8,1.8449
19855,20.812,5.6364,0,6.7861e-05,678.14,2.33e-05,10.867,2.1853e-05,-0.0039682,-6.7669e-05,-672.64,1.8584
19856,20.721,5.6364,0.05,6.6794e-07,6.6748,5.1289e-07,3.8537,1.1375e-12,7.96e-06,-5.1289e-07,-3.8537,1.845
19857,20.812,5.8182,0,6.8333e-05,682.86,2.3707e-05,13.885,2.1859e-05,-0.0023883,-6.8087e-05,-675.82,1.8581
19858,20.721,5.8182,0.05,2.4768e-07,2.4751,1.9019e-07,1.429,1.1349e-12,5.6198e-06,-1.9019e-07,-1.429,1.8448
19859,20.721,5.9091,0,6.9675e-05,696.27,2.3771e-05,9.333,2.2529e-05,0.0052317,-6.9512e-05,-691.55,1.8447
19860,20.903,0.27273,0,6.615e-05,661.04,2.2904e-05,12.898,2.1187e-05,-0.005808,-6.5921e-05,-654.5,1.8716
19861,20.994,0.18182,0,6.4452e-05,644.08,2.251e-05,14.9,2.0527e-05,-0.0032389,-6.4186e-05,-636.5,1.8848
19862,20.903,0.18182,0.05,2.5443e-07,2.5425,1.9537e-07,1.4679,1.8256e-13,2.355e-06,-1.9537e-07,-1.4679,1.8714
19863,20.903,0.090909,0,6.5761e-05,657.16,2.2533e-05,9.9745,2.1206e-05,0.004292,-6.5586e-05,-652.11,1.8713
19864,20.903,0.45455,0,6.5826e-05,657.8,2.2628e-05,10.87,2.1182e-05,-0.0004487,-6.5634e-05,-652.3,1.8718
19865,20.994,0.36364,0,6.3995e-05,639.5,2.2144e-05,12.311,2.0505e-05,-0.0079582,-6.3776e-05,-633.26,1.885
19866,20.903,0.36364,0.05,6.7136e-07,6.709,5.1552e-07,3.8734,2.0945e-13,3.2339e-06,-5.1552e-07,-3.8734,1.8717
19867,20.903,0.63636,0,6.565e-05,656.04,2.2459e-05,9.5329,2.1191e-05,0.0077912,-6.5482e-05,-651.22,1.872
19868,20.994,0.54545,0,6.3811e-05,637.67,2.1995e-05,11.254,2.0498e-05,0.0045064,-6.3612e-05,-631.97,1.8852
19869,20.903,0.54545,0.05,7.0276e-07,7.0227,5.3963e-07,4.0546,6.7677e-13,8.568e-06,-5.3963e-07,-4.0546,1.8718
19870,20.903,0.81818,0,6.5507e-05,654.62,2.2296e-05,8.1444,2.1214e-05,0.012907,-6.5365e-05,-650.51,1.8721
19871,20.994,0.72727,0,6.3673e-05,636.29,2.1865e-05,10.235,2.0504e-05,0.0098659,-6.3493e-05,-631.11,1.8854
19872,20.903,0.72727,0.05,7.0999e-07,7.095,5.4519e-07,4.0963,4.7939e-13,9.0727e-06,-5.4519e-07,-4.0963,1.872
19873,20.903,1,0,6.5386e-05,653.41,2.2131e-05,6.6422,2.1249e-05,0.017425,-6.527e-05,-650.05,1.8723
19874,20.994,0.90909,0,6.356e-05,635.16,2.1736e-05,9.1351,2.0522e-05,0.015331,-6.34e-05,-630.54,1.8855
19875,20.903,0.90909,0.05,7.1644e-07,7.1594,5.5014e-07,4.1335,5.1709e-13,1.0717e-05,-5.5014e-07,-4.1335,1.8722
19876,20.903,1.1818,0,6.5278e-05,652.33,2.196e-05,5.0214,2.1294e-05,0.020906,-6.5191e-05,-649.8,1.8724
19877,20.994,1.0909,0,6.3464e-05,634.2,2.1603e-05,7.9279,2.0551e-05,0.01947,-6.3325e-05,-630.19,1.8857
19878,20.903,1.0909,0.05,7.2344e-07,7.2295,5.5552e-07,4.1739,7.7614e-13,1.1367e-05,-5.5552e-07,-4.1739,1.8724
19879,20.903,1.3636,0,6.5181e-05,651.36,2.1784e-05,3.3005,2.1348e-05,0.02353,-6.5124e-05,-649.69,1.8726
19880,20.994,1.2727,0,6.338e-05,633.36,2.1466e-05,6.6136,2.0589e-05,0.022694,-6.3264e-05,-630.01,1.8858
19881,20.903,1.2727,0.05,7.3087e-07,7.3037,5.6122e-07,4.2168,1.0405e-12,1.2219e-05,-5.6122e-07,-4.2168,1.8725
19882,20.903,1.5455,0,6.5091e-05,650.46,2.1605e-05,1.5161,2.1407e-05,0.025364,-6.5065e-05,-649.69,1.8727
19883,20.994,1.4545,0,6.3303e-05,632.59,2.1324e-05,5.2115,2.0633e-05,0.025017,-6.3212e-05,-629.96,1.8859
19884,20.903,1.4545,0.05,7.3848e-07,7.3797,5.6706e-07,4.2607,1.298e-12,1.3163e-05,-5.6706e-07,-4.2607,1.8726
19885,20.903,1.7273,0,6.5008e-05,649.63,2.1469e-05,0.026873,2.1428e-05,-0.28074,-6.5012e-05,-649.76,1.8728
19886,20.994,1.6364,0,6.3232e-05,631.88,2.1179e-05,3.7575,2.0682e-05,0.026602,-6.3166e-05,-629.98,1.886
19887,20.903,1.6364,0.05,7.4601e-07,7.4549,5.7284e-07,4.3041,1.5418e-12,1.466e-05,-5.7284e-07,-4.3041,1.8727
19888,20.903,1.9091,0,6.4931e-05,648.86,2.153e-05,0.027405,2.1256e-05,-2.0278,-6.4965e-05,-649.86,1.8729
19889,20.994,1.8182,0,6.3165e-05,631.22,2.1035e-05,2.3001,2.0733e-05,0.027578,-6.3125e-05,-630.05,1.8861
19890,20.903,1.8182,0.05,7.532e-07,7.5268,5.7836e-07,4.3456,1.7741e-12,1.4465e-05,-5.7837e-07,-4.3456,1.8728
19891,20.903,2.0909,0,6.4862e-05,648.17,2.1588e-05,0.027761,2.1097e-05,-3.6589,-6.4923e-05,-649.98,1.873
19892,20.994,2,0,6.3104e-05,630.61,2.0898e-05,0.89622,2.0782e-05,0.028003,-6.3089e-05,-630.15,1.8862
19893,20.903,2,0.05,7.5983e-07,7.593,5.8345e-07,4.3838,1.5424e-12,1.5538e-05,-5.8345e-07,-4.3838,1.8729
19894,20.903,2.2727,0,6.4802e-05,647.57,2.1639e-05,0.027883,2.0956e-05,-5.1062,-6.4886e-05,-650.09,1.873
19895,20.994,2.1818,0,6.305e-05,630.07,2.0828e-05,0.028964,2.0772e-05,-0.39462,-6.3056e-05,-630.25,1.8863
19896,20.903,2.1818,0.05,7.6567e-07,7.6515,5.8794e-07,4.4176,1.7503e-12,1.7089e-05,-5.8794e-07,-4.4176,1.873
19897,20.903,2.4545,0,6.4752e-05,647.08,2.1682e-05,0.027866,2.0839e-05,-6.307,-6.4857e-05,-650.19,1.8731
19898,20.994,2.3636,0,6.3004e-05,629.6,2.0868e-05,0.028682,2.0663e-05,-1.5114,-6.3029e-05,-630.34,1.8863
19899,20.903,2.3636,0.05,7.7057e-07,7.7003,5.917e-07,4.4458,2.1804e-12,1.7338e-05,-5.917e-07,-4.4458,1.873
19900,20.903,2.6364,0,6.4716e-05,646.71,2.1715e-05,0.027796,2.0752e-05,-7.2068,-6.4835e-05,-650.27,1.8731
19901,20.994,2.5455,0,6.2967e-05,629.23,2.09e-05,0.028597,2.0577e-05,-2.4017,-6.3007e-05,-630.42,1.8864
19902,20.903,2.5455,0.05,7.7436e-07,7.7383,5.9461e-07,4.4677,2.1428e-12,1.7785e-05,-5.9461e-07,-4.4677,1.8731
19903,20.903,2.8182,0,6.4693e-05,646.49,2.1734e-05,0.027731,2.0697e-05,-7.7642,-6.4821e-05,-650.32,1.8731
19904,20.994,2.7273,0,6.2941e-05,628.98,2.0923e-05,0.028514,2.0517e-05,-3.0215,-6.2992e-05,-630.47,1.8864
19905,20.903,2.7273,0.05,7.7695e-07,7.7641,5.966e-07,4.4826,2.3329e-12,1.707e-05,-5.966e-07,-4.4826,1.8731
19906,20.903,3,0,6.4686e-05,646.41,2.1741e-05,0.027705,2.0679e-05,-7.953,-6.4817e-05,-650.33,1.8731
19907,20.994,2.9091,0,6.2928e-05,628.85,2.0934e-05,0.028463,2.0486e-05,-3.3395,-6.2984e-05,-630.5,1.8864
19908,20.903,2.9091,0.05,7.7826e-07,7.7773,5.9761e-07,4.4902,2.293e-12,1.7907e-05,-5.9761e-07,-4.4902,1.8731
19909,20.903,3.1818,0,6.4693e-05,646.49,2.1734e-05,0.027731,2.0697e-05,-7.7642,-6.4821e-05,-650.32,1.8731
19910,20.994,3.0909,0,6.2928e-05,628.85,2.0934e-05,0.028463,2.0486e-05,-3.3395,-6.2984e-05,-630.5,1.8864
19911,20.903,3.0909,0.05,7.7826e-07,7.7773,5.9761e-07,4.4902,2.0279e-12,1.7504e-05,-5.9761e-07,-4.4902,1.8731
19912,20.903,3.3636,0,6.4716e-05,646.71,2.1715e-05,0.027797,2.0752e-05,-7.2068,-6.4835e-05,-650.27,1.8731
19913,20.994,3.2727,0,6.2941e-05,628.98,2.0923e-05,0.028515,2.0517e-05,-3.0215,-6.2992e-05,-630.47,1.8864
19914,20.903,3.2727,0.05,7.7695e-07,7.7641,5.966e-07,4.4826,2.2233e-12,1.78e-05,-5.966e-07,-4.4826,1.8731
19915,20.903,3.5455,0,6.4752e-05,647.08,2.1682e-05,0.027867,2.0839e-05,-6.3069,-6.4857e-05,-650.19,1.8731
19916,20.994,3.4545,0,6.2967e-05,629.23,2.09e-05,0.028597,2.0577e-05,-2.4017,-6.3007e-05,-630.42,1.8864
19917,20.903,3.4545,0.05,7.7436e-07,7.7383,5.9461e-07,4.4677,2.198e-12,1.7432e-05,-5.9462e-07,-4.4677,1.8731
19918,20.903,3.7273,0,6.4802e-05,647.57,2.1639e-05,0.027882,2.0956e-05,-5.1062,-6.4886e-05,-650.09,1.873
19919,20.994,3.6364,0,6.3004e-05,629.6,2.0868e-05,0.028682,2.0663e-05,-1.5113,-6.3029e-05,-630.34,1.8863
19920,20.903,3.6364,0.05,7.7057e-07,7.7003,5.917e-07,4.4458,2.1826e-12,1.8261e-05,-5.917e-07,-4.4458,1.873
19921,20.903,3.9091,0,6.4862e-05,648.17,2.1588e-05,0.02776,2.1097e-05,-3.6588,-6.4923e-05,-649.98,1.873
19922,20.994,3.8182,0,6.305e-05,630.07,2.0828e-05,0.028963,2.0772e-05,-0.39459,-6.3056e-05,-630.25,1.8863
19923,20.903,3.8182,0.05,7.6567e-07,7.6515,5.8794e-07,4.4176,2.401e-12,1.8218e-05,-5.8794e-07,-4.4176,1.873
19924,20.903,4.0909,0,6.4931e-05,648.86,2.153e-05,0.027406,2.1256e-05,-2.0278,-6.4965e-05,-649.86,1.8729
19925,20.994,4,0,6.3104e-05,630.61,2.0898e-05,0.89627,2.0782e-05,0.028004,-6.3089e-05,-630.15,1.8862
19926,20.903,4,0.05,7.5983e-07,7.593,5.8345e-07,4.3838,2.1785e-12,1.7051e-05,-5.8345e-07,-4.3838,1.8729
19927,20.903,4.2727,0,6.5008e-05,649.63,2.1469e-05,0.026872,2.1428e-05,-0.28068,-6.5012e-05,-649.76,1.8728
19928,20.994,4.1818,0,6.3165e-05,631.22,2.1035e-05,2.3001,2.0733e-05,0.027578,-6.3125e-05,-630.05,1.8861
19929,20.903,4.1818,0.05,7.532e-07,7.5268,5.7836e-07,4.3456,2.1865e-12,1.5479e-05,-5.7837e-07,-4.3456,1.8728
19930,20.903,4.4545,0,6.5091e-05,650.46,2.1605e-05,1.5162,2.1407e-05,0.025363,-6.5065e-05,-649.69,1.8727
19931,20.994,4.3636,0,6.3232e-05,631.88,2.1179e-05,3.7575,2.0682e-05,0.026601,-6.3166e-05,-629.98,1.886
19932,20.903,4.3636,0.05,7.4601e-07,7.4549,5.7284e-07,4.3041,2.4269e-12,1.637e-05,-5.7284e-07,-4.3041,1.8727
19933,20.903,4.6364,0,6.5181e-05,651.36,2.1784e-05,3.3005,2.1348e-05,0.02353,-6.5124e-05,-649.69,1.8726
19934,20.994,4.5455,0,6.3303e-05,632.59,2.1324e-05,5.2116,2.0633e-05,0.025017,-6.3212e-05,-629.96,1.8859
19935,20.903,4.5455,0.05,7.3848e-07,7.3797,5.6706e-07,4.2607,1.7603e-12,1.3937e-05,-5.6706e-07,-4.2607,1.8726
19936,20.903,4.8182,0,6.5278e-05,652.33,2.196e-05,5.0215,2.1294e-05,0.020907,-6.5191e-05,-649.8,1.8724
19937,20.994,4.7273,0,6.338e-05,633.36,2.1466e-05,6.6137,2.0589e-05,0.022693,-6.3264e-05,-630.01,1.8858
19938,20.903,4.7273,0.05,7.3087e-07,7.3037,5.6122e-07,4.2168,1.7744e-12,1.421e-05,-5.6122e-07,-4.2168,1.8725
19939,20.903,5,0,6.5386e-05,653.41,2.2131e-05,6.6423,2.1249e-05,0.017425,-6.527e-05,-650.05,1.8723
19940,20.994,4.9091,0,6.3464e-05,634.2,2.1603e-05,7.928,2.0551e-05,0.019471,-6.3325e-05,-630.19,1.8857
19941,20.903,4.9091,0.05,7.2344e-07,7.2295,5.5551e-07,4.1739,1.7968e-12,1.3107e-05,-5.5552e-07,-4.1739,1.8724
19942,20.903,5.1818,0,6.5507e-05,654.62,2.2296e-05,8.1445,2.1214e-05,0.012906,-6.5365e-05,-650.51,1.8721
19943,20.994,5.0909,0,6.356e-05,635.16,2.1736e-05,9.1352,2.0522e-05,0.015329,-6.34e-05,-630.54,1.8855
19944,20.903,5.0909,0.05,7.1644e-07,7.1594,5.5014e-07,4.1335,1.5751e-12,1.0308e-05,-5.5014e-07,-4.1335,1.8722
19945,20.903,5.3636,0,6.565e-05,656.04,2.2459e-05,9.5329,2.1191e-05,0.0077919,-6.5482e-05,-651.22,1.872
19946,20.994,5.2727,0,6.3673e-05,636.29,2.1865e-05,10.235,2.0504e-05,0.0098634,-6.3493e-05,-631.11,1.8854
19947,20.903,5.2727,0.05,7.0999e-07,7.095,5.4519e-07,4.0963,1.1332e-12,1.0481e-05,-5.4519e-07,-4.0963,1.872
19948,20.903,5.5455,0,6.5826e-05,657.8,2.2628e-05,10.87,2.1182e-05,-0.00044635,-6.5634e-05,-652.3,1.8718
19949,20.994,5.4545,0,6.3811e-05,637.67,2.1995e-05,11.255,2.0498e-05,0.0045099,-6.3612e-05,-631.97,1.8852
19950,20.903,5.4545,0.05,7.0276e-07,7.0227,5.3963e-07,4.0546,1.3658e-12,9.5456e-06,-5.3963e-07,-4.0546,1.8718
19951,20.903,5.7273,0,6.615e-05,661.04,2.2904e-05,12.898,2.1187e-05,-0.0058066,-6.5921e-05,-654.5,1.8716
19952,20.994,5.6364,0,6.3995e-05,639.5,2.2144e-05,12.311,2.0505e-05,-0.0079574,-6.3776e-05,-633.26,1.885
19953,20.903,5.6364,0.05,6.7136e-07,6.709,5.1552e-07,3.8734,1.3697e-12,9.451e-06,-5.1552e-07,-3.8734,1.8717
19954,20.994,5.8182,0,6.4452e-05,644.08,2.251e-05,14.9,2.0527e-05,-0.0032392,-6.4186e-05,-636.5,1.8848
19955,20.903,5.8182,0.05,2.5443e-07,2.5425,1.9537e-07,1.4679,1.3878e-12,7.2118e-06,-1.9537e-07,-1.4679,1.8714
19956,20.903,5.9091,0,6.5761e-05,657.16,2.2533e-05,9.9744,2.1206e-05,0.0042951,-6.5586e-05,-652.11,1.8713
19957,21.085,0.27273,0,6.2272e-05,622.29,2.1729e-05,14.154,1.9844e-05,-0.0086905,-6.2019e-05,-615.09,1.8982
19958,21.176,0.18182,0,6.0563e-05,605.21,2.1314e-05,15.95,1.919e-05,-0.0044261,-6.0276e-05,-597.08,1.9115
19959,21.085,0.18182,0.05,2.6123e-07,2.6105,2.006e-07,1.5072,-6.2852e-13,-2.5129e-06,-2.006e-07,-1.5072,1.8981
19960,21.085,0.090909,0,6.1835e-05,617.92,2.1292e-05,10.641,1.9876e-05,0.0036066,-6.1647e-05,-612.53,1.898
19961,21.085,0.45455,0,6.1972e-05,619.29,2.1504e-05,12.641,1.9821e-05,-0.003237,-6.1747e-05,-612.88,1.8984
19962,21.176,0.36364,0,6.0126e-05,600.84,2.0994e-05,13.831,1.9152e-05,-0.012125,-5.9879e-05,-593.82,1.9117
19963,21.085,0.36364,0.05,6.736e-07,6.7313,5.1724e-07,3.8864,-5.1677e-13,8.9405e-07,-5.1724e-07,-3.8863,1.8983
19964,21.085,0.63636,0,6.1828e-05,617.85,2.1395e-05,11.911,1.9811e-05,0.0065757,-6.1617e-05,-611.81,1.8986
19965,21.176,0.54545,0,5.9975e-05,599.34,2.0905e-05,13.364,1.9126e-05,0.0031151,-5.9737e-05,-592.55,1.9119
19966,21.085,0.54545,0.05,7.0429e-07,7.038,5.4081e-07,4.0634,-4.1049e-14,9.0488e-06,-5.4081e-07,-4.0634,1.8985
19967,21.085,0.81818,0,6.172e-05,616.78,2.1299e-05,11.186,1.9812e-05,0.012302,-6.1522e-05,-611.1,1.8988
19968,21.176,0.72727,0,5.9874e-05,598.32,2.084e-05,12.992,1.9112e-05,0.0090374,-5.9642e-05,-591.72,1.912
19969,21.085,0.72727,0.05,7.1085e-07,7.1036,5.4584e-07,4.1012,8.8678e-13,9.8834e-06,-5.4584e-07,-4.1012,1.8987
19970,21.085,1,0,6.1634e-05,615.91,2.1204e-05,10.386,1.9824e-05,0.017375,-6.145e-05,-610.65,1.8989
19971,21.176,0.90909,0,5.9798e-05,597.57,2.0781e-05,12.582,1.9108e-05,0.015184,-5.9574e-05,-591.17,1.9122
19972,21.085,0.90909,0.05,7.1645e-07,7.1595,5.5014e-07,4.1336,9.0768e-13,1.0536e-05,-5.5014e-07,-4.1335,1.8988
19973,21.085,1.1818,0,6.1562e-05,615.19,2.1105e-05,9.4903,1.9845e-05,0.02123,-6.1394e-05,-610.38,1.8991
19974,21.176,1.0909,0,5.974e-05,596.99,2.072e-05,12.09,1.9114e-05,0.019726,-5.9525e-05,-590.84,1.9123
19975,21.085,1.0909,0.05,7.2247e-07,7.2197,5.5477e-07,4.1683,7.0784e-13,1.1282e-05,-5.5477e-07,-4.1683,1.899
19976,21.085,1.3636,0,6.1498e-05,614.56,2.1002e-05,8.4996,1.9874e-05,0.024126,-6.1349e-05,-610.25,1.8992
19977,21.176,1.2727,0,5.9692e-05,596.51,2.0655e-05,11.5,1.9128e-05,0.023236,-5.9488e-05,-590.67,1.9125
19978,21.085,1.2727,0.05,7.2882e-07,7.2832,5.5965e-07,4.205,9.6308e-13,1.2198e-05,-5.5965e-07,-4.205,1.8991
19979,21.085,1.5455,0,6.1441e-05,613.99,2.0894e-05,7.4321,1.9909e-05,0.026169,-6.1311e-05,-610.23,1.8993
19980,21.176,1.4545,0,5.9651e-05,596.1,2.0585e-05,10.813,1.9149e-05,0.025762,-5.9459e-05,-590.6,1.9126
19981,21.085,1.4545,0.05,7.3531e-07,7.3481,5.6463e-07,4.2424,1.2137e-12,1.281e-05,-5.6463e-07,-4.2424,1.8992
19982,21.085,1.7273,0,6.1388e-05,613.46,2.0784e-05,6.3209,1.9946e-05,0.027531,-6.1278e-05,-610.26,1.8994
19983,21.176,1.6364,0,5.9613e-05,595.72,2.0508e-05,10.049,1.9175e-05,0.027512,-5.9435e-05,-590.62,1.9127
19984,21.085,1.6364,0.05,7.4173e-07,7.4121,5.6955e-07,4.2794,1.6842e-12,1.437e-05,-5.6955e-07,-4.2794,1.8994
19985,21.085,1.9091,0,6.1338e-05,612.96,2.0675e-05,5.2098,1.9985e-05,0.028368,-6.1248e-05,-610.32,1.8995
19986,21.176,1.8182,0,5.9577e-05,595.36,2.0429e-05,9.2383,1.9203e-05,0.028658,-5.9414e-05,-590.67,1.9128
19987,21.085,1.8182,0.05,7.4785e-07,7.4734,5.7426e-07,4.3148,1.6971e-12,1.4495e-05,-5.7426e-07,-4.3148,1.8994
19988,21.085,2.0909,0,6.1293e-05,612.51,2.0572e-05,4.1492,2.0023e-05,0.028829,-6.1221e-05,-610.41,1.8996
19989,21.176,2,0,5.9543e-05,595.01,2.035e-05,8.4227,1.9233e-05,0.029362,-5.9394e-05,-590.74,1.9129
19990,21.085,2,0.05,7.535e-07,7.5298,5.7859e-07,4.3473,1.6961e-12,1.5423e-05,-5.7859e-07,-4.3473,1.8995
19991,21.085,2.2727,0,6.1253e-05,612.1,2.0478e-05,3.1913,2.0057e-05,0.029046,-6.1197e-05,-610.49,1.8996
19992,21.176,2.1818,0,5.9511e-05,594.7,2.0275e-05,7.6477,1.9261e-05,0.029762,-5.9377e-05,-590.82,1.9129
19993,21.085,2.1818,0.05,7.5848e-07,7.5796,5.8242e-07,4.3761,1.9181e-12,1.6481e-05,-5.8242e-07,-4.3761,1.8996
19994,21.085,2.4545,0,6.1219e-05,611.77,2.04e-05,2.3859,2.0086e-05,0.029133,-6.1178e-05,-610.56,1.8997
19995,21.176,2.3636,0,5.9483e-05,594.42,2.0208e-05,6.9596,1.9286e-05,0.029976,-5.9361e-05,-590.89,1.913
19996,21.085,2.3636,0.05,7.6265e-07,7.6213,5.8562e-07,4.4001,1.6752e-12,1.6751e-05,-5.8562e-07,-4.4001,1.8997
19997,21.085,2.6364,0,6.1194e-05,611.51,2.0341e-05,1.7764,2.0108e-05,0.029175,-6.1163e-05,-610.61,1.8997
19998,21.176,2.5455,0,5.946e-05,594.19,2.0154e-05,6.401,1.9307e-05,0.030081,-5.9348e-05,-590.95,1.913
19999,21.085,2.5455,0.05,7.6589e-07,7.6536,5.8811e-07,4.4188,1.8816e-12,1.7316e-05,-5.8811e-07,-4.4188,1.8997
20000,21.085,2.8182,0,6.1178e-05,611.36,2.0304e-05,1.3964,2.0122e-05,0.029218,-6.1154e-05,-610.64,1.8997
20001,21.176,2.7273,0,5.9444e-05,594.03,2.0116e-05,6.0074,1.9321e-05,0.03013,-5.9339e-05,-590.99,1.9131
20002,21.085,2.7273,0.05,7.681e-07,7.6757,5.8981e-07,4.4316,1.857e-12,1.6916e-05,-5.8981e-07,-4.4316,1.8997
20003,21.085,3,0,6.1173e-05,611.3,2.0291e-05,1.2674,2.0127e-05,0.029242,-6.115e-05,-610.66,1.8997
20004,21.176,2.9091,0,5.9436e-05,593.95,2.0097e-05,5.804,1.9328e-05,0.030153,-5.9335e-05,-591.01,1.9131
20005,21.085,2.9091,0.05,7.6922e-07,7.6869,5.9067e-07,4.438,1.8315e-12,1.7849e-05,-5.9067e-07,-4.4381,1.8997
20006,21.085,3.1818,0,6.1178e-05,611.36,2.0304e-05,1.3965,2.0122e-05,0.029218,-6.1154e-05,-610.64,1.8997
20007,21.176,3.0909,0,5.9436e-05,593.95,2.0097e-05,5.804,1.9328e-05,0.030152,-5.9335e-05,-591.01,1.9131
20008,21.085,3.0909,0.05,7.6922e-07,7.6869,5.9067e-07,4.438,2.0343e-12,1.6561e-05,-5.9067e-07,-4.4381,1.8997
20009,21.085,3.3636,0,6.1194e-05,611.51,2.0341e-05,1.7764,2.0108e-05,0.029176,-6.1163e-05,-610.61,1.8997
20010,21.176,3.2727,0,5.9444e-05,594.03,2.0116e-05,6.0074,1.9321e-05,0.030132,-5.9339e-05,-590.99,1.9131
20011,21.085,3.2727,0.05,7.681e-07,7.6757,5.8981e-07,4.4316,2.0132e-12,1.7394e-05,-5.8981e-07,-4.4316,1.8997
20012,21.085,3.5455,0,6.1219e-05,611.77,2.04e-05,2.3859,2.0086e-05,0.029132,-6.1178e-05,-610.56,1.8997
20013,21.176,3.4545,0,5.946e-05,594.19,2.0154e-05,6.4011,1.9307e-05,0.030082,-5.9348e-05,-590.95,1.913
20014,21.085,3.4545,0.05,7.6589e-07,7.6536,5.8811e-07,4.4188,1.9975e-12,1.7626e-05,-5.8811e-07,-4.4188,1.8997
20015,21.085,3.7273,0,6.1253e-05,612.1,2.0478e-05,3.1913,2.0057e-05,0.029045,-6.1197e-05,-610.49,1.8996
20016,21.176,3.6364,0,5.9483e-05,594.42,2.0208e-05,6.9596,1.9286e-05,0.029974,-5.9361e-05,-590.89,1.913
20017,21.085,3.6364,0.05,7.6265e-07,7.6213,5.8562e-07,4.4001,1.9869e-12,1.74e-05,-5.8563e-07,-4.4001,1.8997
20018,21.085,3.9091,0,6.1293e-05,612.51,2.0572e-05,4.1492,2.0023e-05,0.028829,-6.1221e-05,-610.41,1.8996
20019,21.176,3.8182,0,5.9511e-05,594.7,2.0275e-05,7.6477,1.9261e-05,0.029763,-5.9377e-05,-590.82,1.9129
20020,21.085,3.8182,0.05,7.5848e-07,7.5796,5.8242e-07,4.3761,2.2105e-12,1.8157e-05,-5.8242e-07,-4.3761,1.8996
20021,21.085,4.0909,0,6.1338e-05,612.96,2.0675e-05,5.2099,1.9985e-05,0.028367,-6.1248e-05,-610.32,1.8995
20022,21.176,4,0,5.9543e-05,595.01,2.035e-05,8.4227,1.9233e-05,0.029361,-5.9394e-05,-590.74,1.9129
20023,21.085,4,0.05,7.535e-07,7.5298,5.7859e-07,4.3473,1.9831e-12,1.7167e-05,-5.7859e-07,-4.3473,1.8995
20024,21.085,4.2727,0,6.1388e-05,613.46,2.0784e-05,6.3209,1.9946e-05,0.02753,-6.1278e-05,-610.26,1.8994
20025,21.176,4.1818,0,5.9577e-05,595.36,2.0429e-05,9.2383,1.9203e-05,0.028657,-5.9414e-05,-590.67,1.9128
20026,21.085,4.1818,0.05,7.4785e-07,7.4734,5.7426e-07,4.3147,1.765e-12,1.5382e-05,-5.7426e-07,-4.3148,1.8994
20027,21.085,4.4545,0,6.1441e-05,613.99,2.0894e-05,7.4321,1.9909e-05,0.026169,-6.1311e-05,-610.23,1.8993
20028,21.176,4.3636,0,5.9613e-05,595.72,2.0508e-05,10.049,1.9175e-05,0.027512,-5.9435e-05,-590.62,1.9127
20029,21.085,4.3636,0.05,7.4173e-07,7.4121,5.6955e-07,4.2794,2.2305e-12,1.6441e-05,-5.6955e-07,-4.2794,1.8994
20030,21.085,4.6364,0,6.1498e-05,614.56,2.1002e-05,8.4996,1.9874e-05,0.024126,-6.1349e-05,-610.25,1.8992
20031,21.176,4.5455,0,5.9651e-05,596.1,2.0585e-05,10.813,1.9149e-05,0.025762,-5.9459e-05,-590.6,1.9126
20032,21.085,4.5455,0.05,7.3531e-07,7.3481,5.6463e-07,4.2424,1.7868e-12,1.4011e-05,-5.6463e-07,-4.2424,1.8992
20033,21.085,4.8182,0,6.1562e-05,615.19,2.1105e-05,9.4904,1.9845e-05,0.021231,-6.1394e-05,-610.38,1.8991
20034,21.176,4.7273,0,5.9692e-05,596.51,2.0655e-05,11.5,1.9128e-05,0.023236,-5.9488e-05,-590.67,1.9125
20035,21.085,4.7273,0.05,7.2882e-07,7.2832,5.5965e-07,4.205,1.7985e-12,1.4351e-05,-5.5965e-07,-4.205,1.8991
20036,21.085,5,0,6.1634e-05,615.91,2.1204e-05,10.386,1.9824e-05,0.017374,-6.145e-05,-610.65,1.8989
20037,21.176,4.9091,0,5.974e-05,596.99,2.072e-05,12.09,1.9114e-05,0.019727,-5.9525e-05,-590.84,1.9123
20038,21.085,4.9091,0.05,7.2247e-07,7.2197,5.5477e-07,4.1683,1.8108e-12,1.3892e-05,-5.5477e-07,-4.1683,1.899
20039,21.085,5.1818,0,6.172e-05,616.78,2.1299e-05,11.186,1.9812e-05,0.012299,-6.1522e-05,-611.1,1.8988
20040,21.176,5.0909,0,5.9798e-05,597.57,2.0781e-05,12.582,1.9108e-05,0.015183,-5.9574e-05,-591.17,1.9122
20041,21.085,5.0909,0.05,7.1645e-07,7.1595,5.5014e-07,4.1336,1.3649e-12,1.115e-05,-5.5014e-07,-4.1336,1.8988
20042,21.085,5.3636,0,6.1828e-05,617.85,2.1395e-05,11.912,1.9811e-05,0.0065759,-6.1617e-05,-611.81,1.8986
20043,21.176,5.2727,0,5.9874e-05,598.32,2.084e-05,12.992,1.9112e-05,0.0090346,-5.9642e-05,-591.72,1.912
20044,21.085,5.2727,0.05,7.1085e-07,7.1036,5.4584e-07,4.1012,1.1449e-12,1.1602e-05,-5.4584e-07,-4.1012,1.8987
20045,21.085,5.5455,0,6.1972e-05,619.29,2.1504e-05,12.641,1.9821e-05,-0.0032351,-6.1747e-05,-612.88,1.8984
20046,21.176,5.4545,0,5.9975e-05,599.34,2.0905e-05,13.364,1.9126e-05,0.003117,-5.9737e-05,-592.55,1.9119
20047,21.085,5.4545,0.05,7.0429e-07,7.038,5.4081e-07,4.0634,1.6071e-12,1.0764e-05,-5.4081e-07,-4.0634,1.8985
20048,21.085,5.7273,0,6.2272e-05,622.29,2.1729e-05,14.154,1.9844e-05,-0.0086913,-6.2019e-05,-615.09,1.8982
20049,21.176,5.6364,0,6.0126e-05,600.84,2.0994e-05,13.831,1.9152e-05,-0.012123,-5.9879e-05,-593.82,1.9117
20050,21.085,5.6364,0.05,6.736e-07,6.7313,5.1724e-07,3.8863,1.3876e-12,1.092e-05,-5.1724e-07,-3.8863,1.8983
20051,21.176,5.8182,0,6.0563e-05,605.21,2.1314e-05,15.95,1.919e-05,-0.0044261,-6.0276e-05,-597.08,1.9115
20052,21.085,5.8182,0.05,2.6123e-07,2.6105,2.0059e-07,1.5072,9.4988e-13,8.7782e-06,-2.006e-07,-1.5072,1.8981
20053,21.085,5.9091,0,6.1835e-05,617.92,2.1292e-05,10.641,1.9876e-05,0.0036057,-6.1647e-05,-612.53,1.898
20054,21.267,0.27273,0,5.8391e-05,583.51,2.0556e-05,15.459,1.8497e-05,-0.011885,-5.8113e-05,-575.63,1.9249
20055,21.359,0.18182,0,5.6671e-05,566.32,2.0118e-05,17.022,1.7851e-05,-0.0059745,-5.6362e-05,-557.62,1.9382
20056,21.267,0.18182,0.05,2.6859e-07,2.684,2.0624e-07,1.5496,4.1681e-13,5.006e-06,-2.0624e-07,-1.5496,1.9248
20057,21.267,0.090909,0,5.7904e-05,578.64,2.0052e-05,11.325,1.8545e-05,0.003128,-5.7702e-05,-572.89,1.9247
20058,21.267,0.45455,0,5.8121e-05,580.81,2.0387e-05,14.495,1.8457e-05,-0.0059565,-5.7861e-05,-573.43,1.9251
20059,21.359,0.36364,0,5.6259e-05,562.21,1.9849e-05,15.412,1.7796e-05,-0.01645,-5.5982e-05,-554.35,1.9384
20060,21.267,0.36364,0.05,6.7498e-07,6.7451,5.183e-07,3.8943,4.2508e-13,3.2224e-06,-5.183e-07,-3.8943,1.925
20061,21.267,0.63636,0,5.8014e-05,579.74,2.0343e-05,14.397,1.8428e-05,0.0056723,-5.7756e-05,-572.4,1.9253
20062,21.359,0.54545,0,5.6147e-05,561.08,1.9824e-05,15.566,1.7752e-05,0.001985,-5.5866e-05,-553.13,1.9386
20063,21.267,0.54545,0.05,7.0501e-07,7.0452,5.4136e-07,4.0676,6.0403e-13,6.2123e-06,-5.4136e-07,-4.0676,1.9252
20064,21.267,0.81818,0,5.7946e-05,579.06,2.0316e-05,14.346,1.8408e-05,0.012041,-5.7688e-05,-571.74,1.9255
20065,21.359,0.72727,0,5.6086e-05,560.47,1.9828e-05,15.863,1.7718e-05,0.0085419,-5.5799e-05,-552.37,1.9387
20066,21.267,0.72727,0.05,7.1106e-07,7.1057,5.4601e-07,4.1025,3.7279e-13,8.1088e-06,-5.4601e-07,-4.1025,1.9254
20067,21.267,1,0,5.7899e-05,578.59,2.0292e-05,14.25,1.8398e-05,0.017654,-5.7643e-05,-571.33,1.9256
20068,21.359,0.90909,0,5.6053e-05,560.14,1.984e-05,16.151,1.7693e-05,0.015407,-5.576e-05,-551.88,1.9389
20069,21.267,0.90909,0.05,7.1604e-07,7.1555,5.4983e-07,4.1312,4.0274e-13,7.3435e-06,-5.4983e-07,-4.1312,1.9255
20070,21.267,1.1818,0,5.7867e-05,578.27,2.0266e-05,14.069,1.8397e-05,0.021843,-5.7614e-05,-571.09,1.9257
20071,21.359,1.0909,0,5.6037e-05,559.98,1.9853e-05,16.373,1.7677e-05,0.020353,-5.574e-05,-551.6,1.939
20072,21.267,1.0909,0.05,7.2133e-07,7.2083,5.5389e-07,4.1617,8.7843e-13,9.0576e-06,-5.5389e-07,-4.1617,1.9257
20073,21.267,1.3636,0,5.7842e-05,578.02,2.0235e-05,13.788,1.8403e-05,0.024977,-5.7595e-05,-570.99,1.9259
20074,21.359,1.2727,0,5.603e-05,559.91,1.9861e-05,16.494,1.7669e-05,0.024156,-5.5731e-05,-551.47,1.9392
20075,21.267,1.2727,0.05,7.2688e-07,7.2637,5.5815e-07,4.1937,8.9728e-13,9.0899e-06,-5.5815e-07,-4.1937,1.9258
20076,21.267,1.5455,0,5.7821e-05,577.81,2.0196e-05,13.408,1.8415e-05,0.027207,-5.758e-05,-570.97,1.926
20077,21.359,1.4545,0,5.6028e-05,559.89,1.9861e-05,16.501,1.7668e-05,0.0269,-5.5728e-05,-551.45,1.9393
20078,21.267,1.4545,0.05,7.3251e-07,7.3201,5.6248e-07,4.2263,9.1713e-13,1.0191e-05,-5.6248e-07,-4.2263,1.9259
20079,21.267,1.7273,0,5.7801e-05,577.61,2.0151e-05,12.948,1.8432e-05,0.028737,-5.7569e-05,-571.01,1.9261
20080,21.359,1.6364,0,5.6026e-05,559.87,1.9851e-05,16.397,1.7673e-05,0.028834,-5.5728e-05,-551.48,1.9394
20081,21.267,1.6364,0.05,7.3807e-07,7.3756,5.6675e-07,4.2583,1.1616e-12,1.1154e-05,-5.6675e-07,-4.2583,1.926
20082,21.267,1.9091,0,5.7781e-05,577.41,2.0102e-05,12.436,1.8451e-05,0.02974,-5.7559e-05,-571.07,1.9262
20083,21.359,1.8182,0,5.6022e-05,559.84,1.9834e-05,16.2,1.7682e-05,0.030148,-5.5729e-05,-551.55,1.9395
20084,21.267,1.8182,0.05,7.4338e-07,7.4286,5.7082e-07,4.2889,1.1743e-12,1.1366e-05,-5.7082e-07,-4.2889,1.9261
20085,21.267,2.0909,0,5.7761e-05,577.21,2.0052e-05,11.909,1.8471e-05,0.030365,-5.7549e-05,-571.15,1.9262
20086,21.359,2,0,5.6017e-05,559.78,1.981e-05,15.938,1.7693e-05,0.031008,-5.5728e-05,-551.63,1.9396
20087,21.267,2,0.05,7.4826e-07,7.4774,5.7457e-07,4.3171,1.4081e-12,1.2601e-05,-5.7457e-07,-4.3171,1.9262
20088,21.267,2.2727,0,5.7742e-05,577.02,2.0004e-05,11.406,1.849e-05,0.030736,-5.7539e-05,-571.22,1.9263
20089,21.359,2.1818,0,5.6009e-05,559.71,1.9783e-05,15.644,1.7705e-05,0.031546,-5.5726e-05,-551.71,1.9396
20090,21.267,2.1818,0.05,7.5257e-07,7.5205,5.7788e-07,4.3419,1.8635e-12,1.321e-05,-5.7788e-07,-4.3419,1.9263
20091,21.267,2.4545,0,5.7726e-05,576.86,1.9962e-05,10.966,1.8506e-05,0.030943,-5.7531e-05,-571.28,1.9263
20092,21.359,2.3636,0,5.6001e-05,559.63,1.9757e-05,15.355,1.7717e-05,0.031872,-5.5724e-05,-551.78,1.9397
20093,21.267,2.3636,0.05,7.5617e-07,7.5565,5.8065e-07,4.3628,1.4046e-12,1.4373e-05,-5.8065e-07,-4.3628,1.9263
20094,21.267,2.6364,0,5.7713e-05,576.73,1.9929e-05,10.624,1.8519e-05,0.03105,-5.7524e-05,-571.33,1.9264
20095,21.359,2.5455,0,5.5994e-05,559.55,1.9733e-05,15.103,1.7727e-05,0.032057,-5.5721e-05,-551.83,1.9397
20096,21.267,2.5455,0.05,7.5898e-07,7.5845,5.828e-07,4.3789,1.8506e-12,1.478e-05,-5.828e-07,-4.3789,1.9264
20097,21.267,2.8182,0,5.7704e-05,576.65,1.9908e-05,10.408,1.8527e-05,0.031101,-5.752e-05,-571.36,1.9264
20098,21.359,2.7273,0,5.5988e-05,559.49,1.9716e-05,14.918,1.7735e-05,0.032153,-5.5719e-05,-551.87,1.9397
20099,21.267,2.7273,0.05,7.6089e-07,7.6036,5.8427e-07,4.3899,1.8386e-12,1.3738e-05,-5.8427e-07,-4.39,1.9264
20100,21.267,3,0,5.7701e-05,576.62,1.9901e-05,10.334,1.853e-05,0.031116,-5.7518e-05,-571.37,1.9264
20101,21.359,2.9091,0,5.5985e-05,559.46,1.9707e-05,14.821,1.7739e-05,0.032196,-5.5717e-05,-551.89,1.9398
20102,21.267,2.9091,0.05,7.6186e-07,7.6133,5.8501e-07,4.3955,1.8256e-12,1.4951e-05,-5.8501e-07,-4.3955,1.9264
20103,21.267,3.1818,0,5.7704e-05,576.65,1.9908e-05,10.408,1.8527e-05,0.031101,-5.752e-05,-571.36,1.9264
20104,21.359,3.0909,0,5.5985e-05,559.46,1.9707e-05,14.821,1.7739e-05,0.032195,-5.5717e-05,-551.89,1.9398
20105,21.267,3.0909,0.05,7.6186e-07,7.6133,5.8501e-07,4.3955,1.8127e-12,1.4019e-05,-5.8501e-07,-4.3956,1.9264
20106,21.267,3.3636,0,5.7713e-05,576.73,1.9929e-05,10.624,1.8519e-05,0.03105,-5.7524e-05,-571.33,1.9264
20107,21.359,3.2727,0,5.5988e-05,559.49,1.9716e-05,14.918,1.7735e-05,0.032153,-5.5719e-05,-551.87,1.9397
20108,21.267,3.2727,0.05,7.6089e-07,7.6036,5.8427e-07,4.3899,2.029e-12,1.489e-05,-5.8427e-07,-4.39,1.9264
20109,21.267,3.5455,0,5.7726e-05,576.86,1.9962e-05,10.966,1.8506e-05,0.030942,-5.7531e-05,-571.28,1.9263
20110,21.359,3.4545,0,5.5994e-05,559.55,1.9733e-05,15.103,1.7727e-05,0.032057,-5.5721e-05,-551.83,1.9397
20111,21.267,3.4545,0.05,7.5898e-07,7.5845,5.828e-07,4.3789,1.7938e-12,1.4952e-05,-5.828e-07,-4.3789,1.9264
20112,21.267,3.7273,0,5.7742e-05,577.02,2.0004e-05,11.406,1.849e-05,0.030736,-5.7539e-05,-571.22,1.9263
20113,21.359,3.6364,0,5.6001e-05,559.63,1.9757e-05,15.355,1.7717e-05,0.031872,-5.5724e-05,-551.78,1.9397
20114,21.267,3.6364,0.05,7.5617e-07,7.5565,5.8065e-07,4.3628,2.0172e-12,1.528e-05,-5.8065e-07,-4.3628,1.9263
20115,21.267,3.9091,0,5.7761e-05,577.21,2.0052e-05,11.909,1.8471e-05,0.030365,-5.7549e-05,-571.15,1.9262
20116,21.359,3.8182,0,5.6009e-05,559.71,1.9783e-05,15.644,1.7705e-05,0.031549,-5.5726e-05,-551.71,1.9396
20117,21.267,3.8182,0.05,7.5257e-07,7.5205,5.7788e-07,4.3419,2.4711e-12,1.5751e-05,-5.7788e-07,-4.342,1.9263
20118,21.267,4.0909,0,5.7781e-05,577.41,2.0102e-05,12.436,1.8451e-05,0.02974,-5.7559e-05,-571.07,1.9262
20119,21.359,4,0,5.6017e-05,559.78,1.981e-05,15.938,1.7693e-05,0.031007,-5.5728e-05,-551.63,1.9396
20120,21.267,4,0.05,7.4826e-07,7.4774,5.7457e-07,4.3171,2.0197e-12,1.4341e-05,-5.7457e-07,-4.3171,1.9262
20121,21.267,4.2727,0,5.7801e-05,577.61,2.0151e-05,12.948,1.8432e-05,0.028738,-5.7569e-05,-571.01,1.9261
20122,21.359,4.1818,0,5.6022e-05,559.84,1.9834e-05,16.2,1.7682e-05,0.030148,-5.5729e-05,-551.55,1.9395
20123,21.267,4.1818,0.05,7.4338e-07,7.4286,5.7082e-07,4.2889,1.5713e-12,1.2848e-05,-5.7082e-07,-4.2889,1.9261
20124,21.267,4.4545,0,5.7821e-05,577.81,2.0196e-05,13.408,1.8415e-05,0.027208,-5.758e-05,-570.97,1.926
20125,21.359,4.3636,0,5.6026e-05,559.87,1.9851e-05,16.397,1.7673e-05,0.028835,-5.5728e-05,-551.48,1.9394
20126,21.267,4.3636,0.05,7.3807e-07,7.3756,5.6675e-07,4.2583,2.0338e-12,1.4215e-05,-5.6675e-07,-4.2583,1.926
20127,21.267,4.6364,0,5.7842e-05,578.02,2.0235e-05,13.788,1.8403e-05,0.024978,-5.7595e-05,-570.99,1.9259
20128,21.359,4.5455,0,5.6028e-05,559.89,1.9861e-05,16.501,1.7668e-05,0.026899,-5.5728e-05,-551.45,1.9393
20129,21.267,4.5455,0.05,7.3251e-07,7.3201,5.6248e-07,4.2262,1.5881e-12,1.2017e-05,-5.6248e-07,-4.2263,1.9259
20130,21.267,4.8182,0,5.7867e-05,578.27,2.0266e-05,14.069,1.8397e-05,0.021843,-5.7614e-05,-571.09,1.9257
20131,21.359,4.7273,0,5.603e-05,559.91,1.9861e-05,16.494,1.7669e-05,0.024156,-5.5731e-05,-551.47,1.9392
20132,21.267,4.7273,0.05,7.2688e-07,7.2637,5.5815e-07,4.1937,1.5963e-12,1.2318e-05,-5.5815e-07,-4.1937,1.9258
20133,21.267,5,0,5.7899e-05,578.59,2.0292e-05,14.25,1.8398e-05,0.017654,-5.7643e-05,-571.33,1.9256
20134,21.359,4.9091,0,5.6037e-05,559.98,1.9853e-05,16.373,1.7677e-05,0.020353,-5.574e-05,-551.6,1.939
20135,21.267,4.9091,0.05,7.2133e-07,7.2083,5.5389e-07,4.1617,1.6027e-12,1.1768e-05,-5.5389e-07,-4.1617,1.9257
20136,21.267,5.1818,0,5.7946e-05,579.06,2.0316e-05,14.346,1.8408e-05,0.01204,-5.7688e-05,-571.74,1.9255
20137,21.359,5.0909,0,5.6053e-05,560.14,1.984e-05,16.151,1.7693e-05,0.015408,-5.576e-05,-551.88,1.9389
20138,21.267,5.0909,0.05,7.1604e-07,7.1555,5.4983e-07,4.1312,1.3813e-12,9.3178e-06,-5.4983e-07,-4.1312,1.9255
20139,21.267,5.3636,0,5.8014e-05,579.74,2.0343e-05,14.397,1.8428e-05,0.0056712,-5.7756e-05,-572.4,1.9253
20140,21.359,5.2727,0,5.6086e-05,560.47,1.9828e-05,15.863,1.7718e-05,0.0085411,-5.5799e-05,-552.37,1.9387
20141,21.267,5.2727,0.05,7.1106e-07,7.1057,5.4601e-07,4.1025,1.3855e-12,9.6076e-06,-5.4601e-07,-4.1025,1.9254
20142,21.267,5.5455,0,5.8121e-05,580.81,2.0387e-05,14.495,1.8457e-05,-0.0059553,-5.7861e-05,-573.43,1.9251
20143,21.359,5.4545,0,5.6147e-05,561.08,1.9824e-05,15.566,1.7752e-05,0.0019845,-5.5866e-05,-553.13,1.9386
20144,21.267,5.4545,0.05,7.0501e-07,7.0452,5.4136e-07,4.0676,1.3837e-12,9.4279e-06,-5.4136e-07,-4.0676,1.9252
20145,21.267,5.7273,0,5.8391e-05,583.51,2.0556e-05,15.459,1.8497e-05,-0.011883,-5.8113e-05,-575.63,1.9249
20146,21.359,5.6364,0,5.6259e-05,562.21,1.9849e-05,15.412,1.7796e-05,-0.016448,-5.5982e-05,-554.35,1.9384
20147,21.267,5.6364,0.05,6.7498e-07,6.7451,5.183e-07,3.8943,1.6148e-12,9.9171e-06,-5.183e-07,-3.8943,1.925
20148,21.359,5.8182,0,5.6671e-05,566.32,2.0118e-05,17.022,1.7851e-05,-0.0059728,-5.6362e-05,-557.62,1.9382
20149,21.267,5.8182,0.05,2.6859e-07,2.684,2.0624e-07,1.5496,9.9712e-13,7.4031e-06,-2.0624e-07,-1.5496,1.9248
20150,21.267,5.9091,0,5.7904e-05,578.64,2.0052e-05,11.325,1.8545e-05,0.0031287,-5.7702e-05,-572.89,1.9247
20151,21.45,0.27273,0,5.4512e-05,544.74,1.9387e-05,16.798,1.7149e-05,-0.01538,-5.4207e-05,-536.16,1.9517
20152,21.541,0.18182,0,5.278e-05,527.44,1.8923e-05,18.102,1.6512e-05,-0.0079242,-5.2449e-05,-518.16,1.965
20153,21.45,0.18182,0.05,2.7689e-07,2.767,2.1262e-07,1.5975,2.9226e-13,4.3773e-06,-2.1262e-07,-1.5975,1.9516
20154,21.45,0.090909,0,5.3972e-05,539.34,1.8811e-05,12.019,1.7212e-05,0.0028517,-5.3757e-05,-533.23,1.9515
20155,21.45,0.45455,0,5.4276e-05,542.39,1.9277e-05,16.42,1.7091e-05,-0.008606,-5.3978e-05,-533.99,1.9518
20156,21.541,0.36364,0,5.2399e-05,523.63,1.871e-05,17.046,1.6439e-05,-0.020928,-5.2088e-05,-514.9,1.9651
20157,21.45,0.36364,0.05,6.7576e-07,6.7529,5.189e-07,3.8988,3.8548e-13,5.418e-06,-5.189e-07,-3.8988,1.9517
20158,21.45,0.63636,0,5.4211e-05,541.74,1.9302e-05,16.98,1.7042e-05,0.0050713,-5.3902e-05,-533.05,1.952
20159,21.541,0.54545,0,5.2329e-05,522.93,1.8753e-05,17.853,1.6377e-05,0.0011127,-5.2002e-05,-513.77,1.9653
20160,21.45,0.54545,0.05,7.0514e-07,7.0466,5.4146e-07,4.0683,8.7299e-13,9.1622e-06,-5.4146e-07,-4.0683,1.9519
20161,21.45,0.81818,0,5.4187e-05,541.49,1.9346e-05,17.623,1.7003e-05,0.012136,-5.3865e-05,-532.46,1.9522
20162,21.541,0.72727,0,5.2314e-05,522.78,1.8829e-05,18.843,1.6322e-05,0.0083917,-5.1967e-05,-513.09,1.9655
20163,21.45,0.72727,0.05,7.1084e-07,7.1035,5.4584e-07,4.1012,8.6069e-13,8.576e-06,-5.4584e-07,-4.1012,1.9521
20164,21.45,1,0,5.4185e-05,541.48,1.9396e-05,18.236,1.6972e-05,0.018315,-5.3852e-05,-532.12,1.9523
20165,21.541,0.90909,0,5.2327e-05,522.91,1.8916e-05,19.846,1.6277e-05,0.016031,-5.1961e-05,-512.7,1.9656
20166,21.45,0.90909,0.05,7.1538e-07,7.1488,5.4932e-07,4.1274,6.0767e-13,7.8644e-06,-5.4932e-07,-4.1274,1.9522
20167,21.45,1.1818,0,5.4196e-05,541.59,1.9444e-05,18.766,1.6949e-05,0.02285,-5.3852e-05,-531.95,1.9525
20168,21.541,1.0909,0,5.2358e-05,523.22,1.9004e-05,20.785,1.624e-05,0.021402,-5.1973e-05,-512.5,1.9658
20169,21.45,1.0909,0.05,7.2014e-07,7.1964,5.5298e-07,4.1548,8.3288e-13,9.2129e-06,-5.5298e-07,-4.1548,1.9524
20170,21.45,1.3636,0,5.4213e-05,541.76,1.9483e-05,19.18,1.6934e-05,0.02624,-5.3861e-05,-531.9,1.9526
20171,21.541,1.2727,0,5.2396e-05,523.6,1.9084e-05,21.611,1.6211e-05,0.025515,-5.1994e-05,-512.45,1.9659
20172,21.45,1.2727,0.05,7.2509e-07,7.2459,5.5678e-07,4.1834,6.1921e-13,7.9914e-06,-5.5678e-07,-4.1834,1.9525
20173,21.45,1.5455,0,5.4231e-05,541.94,1.9513e-05,19.468,1.6926e-05,0.028669,-5.3873e-05,-531.93,1.9527
20174,21.541,1.4545,0,5.2436e-05,523.99,1.9154e-05,22.296,1.619e-05,0.028487,-5.202e-05,-512.48,1.966
20175,21.45,1.4545,0.05,7.3009e-07,7.2959,5.6062e-07,4.2123,6.3765e-13,8.6056e-06,-5.6062e-07,-4.2123,1.9526
20176,21.45,1.7273,0,5.4247e-05,542.09,1.9531e-05,19.631,1.6923e-05,0.03037,-5.3886e-05,-532,1.9528
20177,21.541,1.6364,0,5.2472e-05,524.36,1.921e-05,22.831,1.6175e-05,0.030606,-5.2046e-05,-512.56,1.9661
20178,21.45,1.6364,0.05,7.3501e-07,7.345,5.6439e-07,4.2406,8.8134e-13,9.8052e-06,-5.6439e-07,-4.2406,1.9527
20179,21.45,1.9091,0,5.4258e-05,542.21,1.954e-05,19.687,1.6924e-05,0.031527,-5.3896e-05,-532.08,1.9529
20180,21.541,1.8182,0,5.2503e-05,524.67,1.9252e-05,23.22,1.6166e-05,0.03208,-5.2069e-05,-512.66,1.9662
20181,21.45,1.8182,0.05,7.3968e-07,7.3917,5.6799e-07,4.2676,1.1222e-12,1.0139e-05,-5.6799e-07,-4.2676,1.9528
20182,21.45,2.0909,0,5.4266e-05,542.28,1.954e-05,19.661,1.6928e-05,0.032288,-5.3904e-05,-532.17,1.9529
20183,21.541,2,0,5.2528e-05,524.91,1.9282e-05,23.481,1.6161e-05,0.03308,-5.2088e-05,-512.76,1.9663
20184,21.45,2,0.05,7.4398e-07,7.4347,5.7128e-07,4.2924,1.3603e-12,1.0938e-05,-5.7129e-07,-4.2924,1.9529
20185,21.45,2.2727,0,5.427e-05,542.32,1.9535e-05,19.583,1.6933e-05,0.032771,-5.391e-05,-532.25,1.953
20186,21.541,2.1818,0,5.2546e-05,525.1,1.9301e-05,23.639,1.6159e-05,0.033737,-5.2103e-05,-512.86,1.9663
20187,21.45,2.1818,0.05,7.4777e-07,7.4725,5.7419e-07,4.3143,9.1259e-13,1.2421e-05,-5.742e-07,-4.3143,1.953
20188,21.45,2.4545,0,5.4271e-05,542.34,1.9527e-05,19.483,1.6939e-05,0.033067,-5.3913e-05,-532.32,1.953
20189,21.541,2.3636,0,5.2558e-05,525.22,1.9312e-05,23.722,1.6159e-05,0.034157,-5.2114e-05,-512.94,1.9664
20190,21.45,2.3636,0.05,7.5094e-07,7.5042,5.7663e-07,4.3326,1.3709e-12,1.3163e-05,-5.7663e-07,-4.3326,1.953
20191,21.45,2.6364,0,5.4271e-05,542.34,1.9519e-05,19.389,1.6943e-05,0.033237,-5.3915e-05,-532.37,1.9531
20192,21.541,2.5455,0,5.2567e-05,525.3,1.9317e-05,23.755,1.616e-05,0.034413,-5.2122e-05,-513.01,1.9664
20193,21.45,2.5455,0.05,7.534e-07,7.5288,5.7851e-07,4.3467,1.5987e-12,1.3404e-05,-5.7852e-07,-4.3467,1.9531
20194,21.45,2.8182,0,5.4271e-05,542.33,1.9514e-05,19.324,1.6946e-05,0.033323,-5.3915e-05,-532.4,1.9531
20195,21.541,2.7273,0,5.2571e-05,525.35,1.9319e-05,23.764,1.6161e-05,0.034557,-5.2126e-05,-513.05,1.9665
20196,21.45,2.7273,0.05,7.5508e-07,7.5455,5.798e-07,4.3564,1.3693e-12,1.2198e-05,-5.798e-07,-4.3564,1.9531
20197,21.45,3,0,5.427e-05,542.33,1.9512e-05,19.3,1.6947e-05,0.03335,-5.3916e-05,-532.4,1.9531
20198,21.541,2.9091,0,5.2573e-05,525.37,1.932e-05,23.763,1.6162e-05,0.034621,-5.2128e-05,-513.07,1.9665
20199,21.45,2.9091,0.05,7.5593e-07,7.554,5.8046e-07,4.3613,1.5934e-12,1.3365e-05,-5.8046e-07,-4.3613,1.9531
20200,21.45,3.1818,0,5.4271e-05,542.33,1.9514e-05,19.324,1.6946e-05,0.033323,-5.3915e-05,-532.4,1.9531
20201,21.541,3.0909,0,5.2573e-05,525.37,1.932e-05,23.763,1.6162e-05,0.034621,-5.2128e-05,-513.07,1.9665
20202,21.45,3.0909,0.05,7.5593e-07,7.554,5.8046e-07,4.3613,1.8172e-12,1.2861e-05,-5.8046e-07,-4.3613,1.9531
20203,21.45,3.3636,0,5.4271e-05,542.34,1.9519e-05,19.389,1.6943e-05,0.033237,-5.3915e-05,-532.37,1.9531
20204,21.541,3.2727,0,5.2571e-05,525.35,1.9319e-05,23.764,1.6161e-05,0.034557,-5.2126e-05,-513.05,1.9665
20205,21.45,3.2727,0.05,7.5508e-07,7.5455,5.798e-07,4.3564,1.8145e-12,1.4033e-05,-5.798e-07,-4.3564,1.9531
20206,21.45,3.5455,0,5.4271e-05,542.34,1.9527e-05,19.483,1.6939e-05,0.033067,-5.3913e-05,-532.32,1.953
20207,21.541,3.4545,0,5.2567e-05,525.3,1.9317e-05,23.756,1.616e-05,0.034413,-5.2122e-05,-513.01,1.9664
20208,21.45,3.4545,0.05,7.534e-07,7.5288,5.7851e-07,4.3467,1.8133e-12,1.3547e-05,-5.7852e-07,-4.3468,1.9531
20209,21.45,3.7273,0,5.427e-05,542.32,1.9535e-05,19.583,1.6933e-05,0.032773,-5.391e-05,-532.25,1.953
20210,21.541,3.6364,0,5.2558e-05,525.22,1.9312e-05,23.722,1.6159e-05,0.034157,-5.2114e-05,-512.94,1.9664
20211,21.45,3.6364,0.05,7.5094e-07,7.5042,5.7663e-07,4.3326,1.8141e-12,1.4268e-05,-5.7663e-07,-4.3326,1.953
20212,21.45,3.9091,0,5.4266e-05,542.28,1.954e-05,19.661,1.6928e-05,0.032289,-5.3904e-05,-532.17,1.9529
20213,21.541,3.8182,0,5.2546e-05,525.1,1.9301e-05,23.639,1.6159e-05,0.033738,-5.2103e-05,-512.86,1.9663
20214,21.45,3.8182,0.05,7.4777e-07,7.4725,5.7419e-07,4.3143,1.8169e-12,1.5243e-05,-5.742e-07,-4.3143,1.953
20215,21.45,4.0909,0,5.4258e-05,542.21,1.954e-05,19.687,1.6924e-05,0.031527,-5.3896e-05,-532.08,1.9529
20216,21.541,4,0,5.2528e-05,524.91,1.9282e-05,23.481,1.6161e-05,0.03308,-5.2088e-05,-512.76,1.9663
20217,21.45,4,0.05,7.4398e-07,7.4347,5.7128e-07,4.2924,1.8215e-12,1.3609e-05,-5.7129e-07,-4.2924,1.9529
20218,21.45,4.2727,0,5.4247e-05,542.09,1.9531e-05,19.631,1.6923e-05,0.030372,-5.3886e-05,-532,1.9528
20219,21.541,4.1818,0,5.2503e-05,524.67,1.9252e-05,23.22,1.6166e-05,0.032079,-5.2069e-05,-512.66,1.9662
20220,21.45,4.1818,0.05,7.3968e-07,7.3917,5.6798e-07,4.2676,1.5999e-12,1.2217e-05,-5.6799e-07,-4.2676,1.9528
20221,21.45,4.4545,0,5.4231e-05,541.94,1.9513e-05,19.468,1.6926e-05,0.028669,-5.3873e-05,-531.93,1.9527
20222,21.541,4.3636,0,5.2472e-05,524.36,1.921e-05,22.831,1.6175e-05,0.030608,-5.2046e-05,-512.56,1.9661
20223,21.45,4.3636,0.05,7.3501e-07,7.345,5.6439e-07,4.2406,1.8337e-12,1.3698e-05,-5.644e-07,-4.2406,1.9527
20224,21.45,4.6364,0,5.4213e-05,541.76,1.9483e-05,19.18,1.6934e-05,0.026239,-5.3861e-05,-531.9,1.9526
20225,21.541,4.5455,0,5.2436e-05,523.99,1.9154e-05,22.296,1.619e-05,0.028484,-5.202e-05,-512.48,1.966
20226,21.45,4.5455,0.05,7.3009e-07,7.2959,5.6062e-07,4.2123,1.1562e-12,1.0877e-05,-5.6062e-07,-4.2123,1.9526
20227,21.45,4.8182,0,5.4196e-05,541.59,1.9444e-05,18.766,1.6949e-05,0.02285,-5.3852e-05,-531.95,1.9525
20228,21.541,4.7273,0,5.2396e-05,523.6,1.9084e-05,21.611,1.6211e-05,0.025515,-5.1994e-05,-512.45,1.9659
20229,21.45,4.7273,0.05,7.2509e-07,7.2459,5.5677e-07,4.1834,1.3856e-12,1.1624e-05,-5.5678e-07,-4.1834,1.9525
20230,21.45,5,0,5.4185e-05,541.48,1.9396e-05,18.236,1.6972e-05,0.018315,-5.3852e-05,-532.12,1.9523
20231,21.541,4.9091,0,5.2358e-05,523.22,1.9004e-05,20.785,1.624e-05,0.021401,-5.1973e-05,-512.5,1.9658
20232,21.45,4.9091,0.05,7.2014e-07,7.1964,5.5297e-07,4.1548,1.8441e-12,1.1008e-05,-5.5298e-07,-4.1548,1.9524
20233,21.45,5.1818,0,5.4187e-05,541.49,1.9346e-05,17.623,1.7003e-05,0.012137,-5.3865e-05,-532.46,1.9522
20234,21.541,5.0909,0,5.2327e-05,522.91,1.8916e-05,19.846,1.6277e-05,0.016031,-5.1961e-05,-512.7,1.9656
20235,21.45,5.0909,0.05,7.1538e-07,7.1488,5.4932e-07,4.1274,9.4195e-13,9.046e-06,-5.4932e-07,-4.1274,1.9522
20236,21.45,5.3636,0,5.4211e-05,541.74,1.9302e-05,16.98,1.7042e-05,0.0050711,-5.3902e-05,-533.05,1.952
20237,21.541,5.2727,0,5.2314e-05,522.78,1.8829e-05,18.843,1.6322e-05,0.0083931,-5.1967e-05,-513.09,1.9655
20238,21.45,5.2727,0.05,7.1084e-07,7.1035,5.4584e-07,4.1012,1.1508e-12,9.4558e-06,-5.4584e-07,-4.1012,1.9521
20239,21.45,5.5455,0,5.4276e-05,542.39,1.9277e-05,16.421,1.7091e-05,-0.0086057,-5.3978e-05,-533.99,1.9518
20240,21.541,5.4545,0,5.2329e-05,522.93,1.8753e-05,17.853,1.6377e-05,0.0011129,-5.2002e-05,-513.77,1.9653
20241,21.45,5.4545,0.05,7.0514e-07,7.0466,5.4146e-07,4.0683,9.1631e-13,9.4872e-06,-5.4146e-07,-4.0683,1.9519
20242,21.45,5.7273,0,5.4512e-05,544.74,1.9387e-05,16.798,1.7149e-05,-0.015378,-5.4207e-05,-536.16,1.9517
20243,21.541,5.6364,0,5.2399e-05,523.63,1.871e-05,17.046,1.6439e-05,-0.020924,-5.2088e-05,-514.9,1.9651
20244,21.45,5.6364,0.05,6.7576e-07,6.7529,5.189e-07,3.8988,1.3665e-12,1.0321e-05,-5.189e-07,-3.8988,1.9517
20245,21.541,5.8182,0,5.278e-05,527.44,1.8923e-05,18.102,1.6512e-05,-0.0079233,-5.2449e-05,-518.16,1.965
20246,21.45,5.8182,0.05,2.7689e-07,2.767,2.1261e-07,1.5975,9.9584e-13,8.7481e-06,-2.1262e-07,-1.5975,1.9516
20247,21.45,5.9091,0,5.3972e-05,539.34,1.8811e-05,12.019,1.7212e-05,0.0028496,-5.3757e-05,-533.23,1.9515
20248,21.632,0.27273,0,5.0638e-05,506.03,1.8221e-05,18.161,1.5801e-05,-0.019196,-5.0305e-05,-496.71,1.9784
20249,21.723,0.18182,0,4.8893e-05,488.59,1.7728e-05,19.179,1.5175e-05,-0.010344,-4.8539e-05,-478.73,1.9917
20250,21.632,0.18182,0.05,2.8646e-07,2.8626,2.1996e-07,1.6527,1.007e-12,1.2841e-05,-2.1996e-07,-1.6527,1.9783
20251,21.632,0.090909,0,5.0043e-05,500.09,1.7573e-05,12.715,1.5881e-05,0.0027855,-4.9815e-05,-493.61,1.9783
20252,21.632,0.45455,0,5.0441e-05,504.06,1.8176e-05,18.41,1.5724e-05,-0.01118,-5.0103e-05,-494.61,1.9786
20253,21.723,0.36364,0,4.8547e-05,485.13,1.7577e-05,18.723,1.5082e-05,-0.025559,-4.8202e-05,-475.51,1.9919
20254,21.632,0.36364,0.05,6.7614e-07,6.7568,5.1919e-07,3.901,6.9812e-13,9.8811e-06,-5.1919e-07,-3.901,1.9785
20255,21.632,0.63636,0,5.0423e-05,503.88,1.8273e-05,19.66,1.5657e-05,0.0047893,-5.006e-05,-493.76,1.9788
20256,21.723,0.54545,0,4.8524e-05,484.91,1.7692e-05,20.223,1.5001e-05,0.00052309,-4.8149e-05,-474.48,1.9921
20257,21.632,0.54545,0.05,7.0488e-07,7.0439,5.4126e-07,4.0668,6.7907e-13,9.9393e-06,-5.4126e-07,-4.0668,1.9787
20258,21.632,0.81818,0,5.0448e-05,504.13,1.8392e-05,21.019,1.5597e-05,0.012623,-5.0057e-05,-493.28,1.9789
20259,21.723,0.72727,0,4.856e-05,485.27,1.7845e-05,21.938,1.4927e-05,0.0086227,-4.815e-05,-473.92,1.9923
20260,21.632,0.72727,0.05,7.1034e-07,7.0985,5.4545e-07,4.0983,1.1345e-12,1.1906e-05,-5.4546e-07,-4.0983,1.9788
20261,21.632,1,0,5.0495e-05,504.6,1.8518e-05,22.355,1.5545e-05,0.019409,-5.0077e-05,-493.04,1.9791
20262,21.723,0.90909,0,4.8625e-05,485.92,1.801e-05,23.676,1.4861e-05,0.017107,-4.8179e-05,-473.64,1.9924
20263,21.632,0.90909,0.05,7.1459e-07,7.141,5.4872e-07,4.1228,9.0133e-13,1.1456e-05,-5.4872e-07,-4.1228,1.979
20264,21.632,1.1818,0,5.0554e-05,505.19,1.864e-05,23.597,1.5502e-05,0.024312,-5.011e-05,-492.96,1.9792
20265,21.723,1.0909,0,4.8706e-05,486.73,1.8173e-05,25.343,1.4803e-05,0.022933,-4.8226e-05,-473.55,1.9925
20266,21.632,1.0909,0.05,7.1899e-07,7.1849,5.5209e-07,4.1482,1.1062e-12,1.1611e-05,-5.5209e-07,-4.1482,1.9791
20267,21.632,1.3636,0,5.0616e-05,505.81,1.8751e-05,24.699,1.5467e-05,0.02797,-5.015e-05,-492.99,1.9793
20268,21.723,1.2727,0,4.8793e-05,487.59,1.8327e-05,26.873,1.4754e-05,0.027375,-4.828e-05,-473.59,1.9927
20269,21.632,1.2727,0.05,7.2352e-07,7.2302,5.5557e-07,4.1743,8.7215e-13,9.1921e-06,-5.5557e-07,-4.1743,1.9793
20270,21.632,1.5455,0,5.0675e-05,506.4,1.8847e-05,25.636,1.5439e-05,0.030603,-5.019e-05,-493.08,1.9794
20271,21.723,1.4545,0,4.8877e-05,488.44,1.8466e-05,28.226,1.4714e-05,0.03058,-4.8335e-05,-473.7,1.9928
20272,21.632,1.4545,0.05,7.2807e-07,7.2757,5.5907e-07,4.2006,6.3049e-13,9.3657e-06,-5.5907e-07,-4.2006,1.9794
20273,21.632,1.7273,0,5.0728e-05,506.93,1.8928e-05,26.4,1.5418e-05,0.032473,-5.0227e-05,-493.2,1.9795
20274,21.723,1.6364,0,4.8954e-05,489.21,1.8586e-05,29.38,1.4681e-05,0.032884,-4.8388e-05,-473.84,1.9929
20275,21.632,1.6364,0.05,7.3252e-07,7.3201,5.6248e-07,4.2263,1.0877e-12,1.0368e-05,-5.6248e-07,-4.2263,1.9795
20276,21.632,1.9091,0,5.0773e-05,507.38,1.8992e-05,26.998,1.5403e-05,0.033772,-5.0259e-05,-493.33,1.9796
20277,21.723,1.8182,0,4.9022e-05,489.88,1.8687e-05,30.332,1.4654e-05,0.034508,-4.8435e-05,-473.99,1.993
20278,21.632,1.8182,0.05,7.3673e-07,7.3622,5.6572e-07,4.2506,8.6899e-13,1.0427e-05,-5.6572e-07,-4.2506,1.9796
20279,21.632,2.0909,0,5.0809e-05,507.74,1.904e-05,27.447,1.5392e-05,0.034654,-5.0286e-05,-493.44,1.9797
20280,21.723,2,0,4.9077e-05,490.44,1.8767e-05,31.091,1.4634e-05,0.035634,-4.8474e-05,-474.13,1.993
20281,21.632,2,0.05,7.4058e-07,7.4007,5.6868e-07,4.2728,8.7953e-13,1.1215e-05,-5.6868e-07,-4.2728,1.9796
20282,21.632,2.2727,0,5.0836e-05,508.01,1.9076e-05,27.767,1.5385e-05,0.035238,-5.0306e-05,-493.54,1.9797
20283,21.723,2.1818,0,4.9122e-05,490.88,1.883e-05,31.675,1.4619e-05,0.036399,-4.8506e-05,-474.26,1.9931
20284,21.632,2.1818,0.05,7.4398e-07,7.4346,5.7128e-07,4.2924,1.5693e-12,1.1992e-05,-5.7128e-07,-4.2924,1.9797
20285,21.632,2.4545,0,5.0856e-05,508.21,1.91e-05,27.985,1.538e-05,0.035612,-5.0322e-05,-493.62,1.9798
20286,21.723,2.3636,0,4.9155e-05,491.21,1.8876e-05,32.106,1.4608e-05,0.0369,-4.853e-05,-474.36,1.9931
20287,21.632,2.3636,0.05,7.4681e-07,7.4629,5.7346e-07,4.3087,1.1221e-12,1.2526e-05,-5.7346e-07,-4.3087,1.9797
20288,21.632,2.6364,0,5.0869e-05,508.34,1.9116e-05,28.121,1.5378e-05,0.035838,-5.0332e-05,-493.68,1.9798
20289,21.723,2.5455,0,4.9179e-05,491.45,1.8909e-05,32.405,1.4601e-05,0.037222,-4.8547e-05,-474.43,1.9932
20290,21.632,2.5455,0.05,7.49e-07,7.4849,5.7514e-07,4.3214,1.5825e-12,1.3046e-05,-5.7514e-07,-4.3214,1.9798
20291,21.632,2.8182,0,5.0876e-05,508.41,1.9124e-05,28.196,1.5376e-05,0.035957,-5.0338e-05,-493.71,1.9798
20292,21.723,2.7273,0,4.9195e-05,491.61,1.8929e-05,32.593,1.4596e-05,0.037406,-4.8558e-05,-474.48,1.9932
20293,21.632,2.7273,0.05,7.505e-07,7.4998,5.7629e-07,4.33,1.5869e-12,1.2601e-05,-5.7629e-07,-4.33,1.9798
20294,21.632,3,0,5.0879e-05,508.44,1.9127e-05,28.219,1.5376e-05,0.035993,-5.034e-05,-493.72,1.9798
20295,21.723,2.9091,0,4.9202e-05,491.68,1.8939e-05,32.683,1.4594e-05,0.037491,-4.8564e-05,-474.51,1.9932
20296,21.632,2.9091,0.05,7.5126e-07,7.5074,5.7687e-07,4.3344,1.5902e-12,1.3341e-05,-5.7687e-07,-4.3344,1.9798
20297,21.632,3.1818,0,5.0876e-05,508.41,1.9124e-05,28.196,1.5376e-05,0.035957,-5.0338e-05,-493.71,1.9798
20298,21.723,3.0909,0,4.9202e-05,491.68,1.8939e-05,32.683,1.4594e-05,0.03749,-4.8564e-05,-474.51,1.9932
20299,21.632,3.0909,0.05,7.5126e-07,7.5074,5.7687e-07,4.3344,1.3656e-12,1.2647e-05,-5.7687e-07,-4.3344,1.9798
20300,21.632,3.3636,0,5.0869e-05,508.34,1.9116e-05,28.121,1.5378e-05,0.035838,-5.0332e-05,-493.68,1.9798
20301,21.723,3.2727,0,4.9195e-05,491.61,1.8929e-05,32.593,1.4596e-05,0.037407,-4.8558e-05,-474.48,1.9932
20302,21.632,3.2727,0.05,7.505e-07,7.4998,5.7629e-07,4.33,1.5957e-12,1.3859e-05,-5.7629e-07,-4.33,1.9798
20303,21.632,3.5455,0,5.0856e-05,508.21,1.91e-05,27.985,1.538e-05,0.035611,-5.0322e-05,-493.62,1.9798
20304,21.723,3.4545,0,4.9179e-05,491.45,1.8909e-05,32.405,1.4601e-05,0.037221,-4.8547e-05,-474.43,1.9932
20305,21.632,3.4545,0.05,7.49e-07,7.4849,5.7514e-07,4.3214,1.3712e-12,1.3165e-05,-5.7514e-07,-4.3214,1.9798
20306,21.632,3.7273,0,5.0836e-05,508.01,1.9076e-05,27.767,1.5385e-05,0.035237,-5.0306e-05,-493.54,1.9797
20307,21.723,3.6364,0,4.9155e-05,491.21,1.8876e-05,32.106,1.4608e-05,0.036901,-4.853e-05,-474.36,1.9931
20308,21.632,3.6364,0.05,7.4681e-07,7.4629,5.7346e-07,4.3087,1.6017e-12,1.4143e-05,-5.7346e-07,-4.3087,1.9797
20309,21.632,3.9091,0,5.0809e-05,507.74,1.904e-05,27.447,1.5392e-05,0.034654,-5.0286e-05,-493.44,1.9797
20310,21.723,3.8182,0,4.9122e-05,490.88,1.883e-05,31.675,1.4619e-05,0.036398,-4.8506e-05,-474.26,1.9931
20311,21.632,3.8182,0.05,7.4398e-07,7.4346,5.7128e-07,4.2924,1.8331e-12,1.393e-05,-5.7128e-07,-4.2924,1.9797
20312,21.632,4.0909,0,5.0773e-05,507.38,1.8992e-05,26.998,1.5403e-05,0.033771,-5.0259e-05,-493.33,1.9796
20313,21.723,4,0,4.9077e-05,490.44,1.8767e-05,31.091,1.4634e-05,0.035635,-4.8474e-05,-474.13,1.993
20314,21.632,4,0.05,7.4058e-07,7.4007,5.6868e-07,4.2728,1.8369e-12,1.3246e-05,-5.6868e-07,-4.2728,1.9796
20315,21.632,4.2727,0,5.0728e-05,506.93,1.8928e-05,26.401,1.5418e-05,0.032472,-5.0227e-05,-493.2,1.9795
20316,21.723,4.1818,0,4.9022e-05,489.88,1.8687e-05,30.332,1.4654e-05,0.034507,-4.8435e-05,-473.99,1.993
20317,21.632,4.1818,0.05,7.3673e-07,7.3622,5.6571e-07,4.2506,1.8386e-12,1.182e-05,-5.6572e-07,-4.2506,1.9796
20318,21.632,4.4545,0,5.0675e-05,506.4,1.8847e-05,25.636,1.5439e-05,0.030602,-5.019e-05,-493.08,1.9794
20319,21.723,4.3636,0,4.8954e-05,489.21,1.8586e-05,29.38,1.4681e-05,0.032884,-4.8388e-05,-473.84,1.9929
20320,21.632,4.3636,0.05,7.3251e-07,7.3201,5.6248e-07,4.2263,1.6101e-12,1.3488e-05,-5.6248e-07,-4.2263,1.9795
20321,21.632,4.6364,0,5.0616e-05,505.81,1.8751e-05,24.699,1.5467e-05,0.027969,-5.015e-05,-492.99,1.9793
20322,21.723,4.5455,0,4.8877e-05,488.44,1.8466e-05,28.226,1.4714e-05,0.030577,-4.8335e-05,-473.7,1.9928
20323,21.632,4.5455,0.05,7.2807e-07,7.2757,5.5907e-07,4.2006,1.1477e-12,1.1107e-05,-5.5907e-07,-4.2006,1.9794
20324,21.632,4.8182,0,5.0554e-05,505.19,1.864e-05,23.597,1.5502e-05,0.024312,-5.011e-05,-492.96,1.9792
20325,21.723,4.7273,0,4.8793e-05,487.59,1.8327e-05,26.873,1.4754e-05,0.027375,-4.828e-05,-473.59,1.9927
20326,21.632,4.7273,0.05,7.2352e-07,7.2302,5.5557e-07,4.1743,1.1458e-12,1.1521e-05,-5.5557e-07,-4.1743,1.9793
20327,21.632,5,0,5.0495e-05,504.6,1.8518e-05,22.355,1.5545e-05,0.019406,-5.0077e-05,-493.04,1.9791
20328,21.723,4.9091,0,4.8706e-05,486.73,1.8173e-05,25.343,1.4803e-05,0.022932,-4.8226e-05,-473.55,1.9925
20329,21.632,4.9091,0.05,7.1899e-07,7.1849,5.5209e-07,4.1482,1.3617e-12,1.0811e-05,-5.5209e-07,-4.1482,1.9791
20330,21.632,5.1818,0,5.0448e-05,504.13,1.8392e-05,21.019,1.5597e-05,0.012623,-5.0057e-05,-493.28,1.9789
20331,21.723,5.0909,0,4.8625e-05,485.92,1.801e-05,23.676,1.4861e-05,0.017103,-4.8179e-05,-473.64,1.9924
20332,21.632,5.0909,0.05,7.1459e-07,7.141,5.4872e-07,4.1228,1.1443e-12,8.412e-06,-5.4872e-07,-4.1228,1.979
20333,21.632,5.3636,0,5.0423e-05,503.88,1.8273e-05,19.66,1.5657e-05,0.0047912,-5.006e-05,-493.76,1.9788
20334,21.723,5.2727,0,4.856e-05,485.27,1.7845e-05,21.938,1.4927e-05,0.0086242,-4.815e-05,-473.92,1.9923
20335,21.632,5.2727,0.05,7.1034e-07,7.0985,5.4545e-07,4.0983,1.5762e-12,9.8333e-06,-5.4546e-07,-4.0983,1.9788
20336,21.632,5.5455,0,5.0441e-05,504.06,1.8176e-05,18.41,1.5724e-05,-0.011177,-5.0103e-05,-494.61,1.9786
20337,21.723,5.4545,0,4.8524e-05,484.91,1.7692e-05,20.223,1.5001e-05,0.0005243,-4.8149e-05,-474.48,1.9921
20338,21.632,5.4545,0.05,7.0488e-07,7.0439,5.4126e-07,4.0668,1.5693e-12,9.1503e-06,-5.4126e-07,-4.0668,1.9787
20339,21.632,5.7273,0,5.0638e-05,506.03,1.8221e-05,18.161,1.5801e-05,-0.019194,-5.0305e-05,-496.71,1.9784
20340,21.723,5.6364,0,4.8547e-05,485.13,1.7577e-05,18.723,1.5082e-05,-0.025554,-4.8202e-05,-475.51,1.9919
20341,21.632,5.6364,0.05,6.7614e-07,6.7568,5.1919e-07,3.901,1.1049e-12,1.0491e-05,-5.1919e-07,-3.901,1.9785
20342,21.723,5.8182,0,4.8893e-05,488.59,1.7728e-05,19.179,1.5175e-05,-0.010346,-4.8539e-05,-478.73,1.9917
20343,21.632,5.8182,0.05,2.8646e-07,2.8626,2.1996e-07,1.6527,1.0543e-12,7.7181e-06,-2.1996e-07,-1.6527,1.9783
20344,21.632,5.9091,0,5.0043e-05,500.09,1.7573e-05,12.715,1.5881e-05,0.0027841,-4.9815e-05,-493.61,1.9783
20345,21.814,0.27273,0,4.6771e-05,467.39,1.7058e-05,19.54,1.4454e-05,-0.02337,-4.6408e-05,-457.32,2.0052
20346,21.905,0.18182,0,4.5012e-05,449.81,1.6535e-05,20.242,1.3839e-05,-0.013332,-4.4634e-05,-439.35,2.0186
20347,21.814,0.18182,0.05,2.9758e-07,2.9737,2.285e-07,1.7169,1.5439e-12,1.4969e-05,-2.285e-07,-1.7169,2.0051
20348,21.814,0.090909,0,4.6122e-05,460.9,1.6336e-05,13.408,1.4551e-05,0.0029746,-4.5879e-05,-454.05,2.0051
20349,21.814,0.45455,0,4.6619e-05,465.87,1.7084e-05,20.462,1.4358e-05,-0.013657,-4.6237e-05,-455.31,2.0054
20350,21.905,0.36364,0,4.4706e-05,446.76,1.6451e-05,20.44,1.3726e-05,-0.030342,-4.4324e-05,-436.2,2.0187
20351,21.814,0.36364,0.05,6.763e-07,6.7584,5.1932e-07,3.9019,1.48e-12,1.3366e-05,-5.1932e-07,-3.9019,2.0053
20352,21.814,0.63636,0,4.6653e-05,466.21,1.7257e-05,22.44,1.4271e-05,0.0048723,-4.6231e-05,-454.58,2.0056
20353,21.905,0.54545,0,4.4737e-05,447.06,1.6644e-05,22.679,1.3626e-05,0.00027042,-4.4308e-05,-435.29,2.0189
20354,21.814,0.54545,0.05,7.0437e-07,7.0388,5.4087e-07,4.0639,9.603e-13,1.1683e-05,-5.4087e-07,-4.0639,2.0055
20355,21.814,0.81818,0,4.6731e-05,466.99,1.7456e-05,24.544,1.4191e-05,0.013558,-4.6265e-05,-454.23,2.0057
20356,21.905,0.72727,0,4.4829e-05,447.98,1.6878e-05,25.156,1.3531e-05,0.0093047,-4.4348e-05,-434.87,2.0191
20357,21.814,0.72727,0.05,7.097e-07,7.0921,5.4496e-07,4.0947,1.1216e-12,1.3698e-05,-5.4496e-07,-4.0947,2.0056
20358,21.814,1,0,4.6832e-05,468,1.7659e-05,26.621,1.4119e-05,0.021004,-4.6322e-05,-454.11,2.0059
20359,21.905,0.90909,0,4.4951e-05,449.2,1.7123e-05,27.658,1.3444e-05,0.018713,-4.4417e-05,-434.73,2.0192
20360,21.814,0.90909,0.05,7.1379e-07,7.133,5.481e-07,4.1182,1.5073e-12,1.2381e-05,-5.481e-07,-4.1182,2.0058
20361,21.814,1.1818,0,4.6942e-05,469.1,1.7856e-05,28.584,1.4056e-05,0.026302,-4.639e-05,-454.14,2.006
20362,21.905,1.0909,0,4.5087e-05,450.56,1.7365e-05,30.069,1.3367e-05,0.025031,-4.45e-05,-434.76,2.0193
20363,21.814,1.0909,0.05,7.1797e-07,7.1748,5.5131e-07,4.1424,8.4572e-13,1.0979e-05,-5.5131e-07,-4.1423,2.0059
20364,21.814,1.3636,0,4.7052e-05,470.2,1.8039e-05,30.371,1.4001e-05,0.030241,-4.6462e-05,-454.26,2.0061
20365,21.905,1.2727,0,4.5225e-05,451.94,1.7594e-05,32.307,1.3298e-05,0.029824,-4.4589e-05,-434.91,2.0195
20366,21.814,1.2727,0.05,7.2223e-07,7.2174,5.5459e-07,4.1669,8.3792e-13,1.0513e-05,-5.5459e-07,-4.1669,2.006
20367,21.814,1.5455,0,4.7156e-05,471.23,1.8202e-05,31.946,1.3955e-05,0.03308,-4.653e-05,-454.43,2.0062
20368,21.905,1.4545,0,4.5357e-05,453.26,1.7802e-05,34.321,1.3238e-05,0.033265,-4.4675e-05,-435.11,2.0196
20369,21.814,1.4545,0.05,7.2648e-07,7.2598,5.5785e-07,4.1914,8.4804e-13,9.9905e-06,-5.5785e-07,-4.1914,2.0061
20370,21.814,1.7273,0,4.7248e-05,472.15,1.8343e-05,33.292,1.3917e-05,0.035112,-4.6593e-05,-454.61,2.0063
20371,21.905,1.6364,0,4.5477e-05,454.45,1.7985e-05,36.08,1.3188e-05,0.035753,-4.4755e-05,-435.32,2.0197
20372,21.814,1.6364,0.05,7.306e-07,7.3009,5.6101e-07,4.2152,1.0757e-12,9.7926e-06,-5.6101e-07,-4.2152,2.0062
20373,21.814,1.9091,0,4.7327e-05,472.94,1.846e-05,34.409,1.3886e-05,0.036543,-4.6647e-05,-454.78,2.0064
20374,21.905,1.8182,0,4.5581e-05,455.49,1.8141e-05,37.574,1.3145e-05,0.037519,-4.4825e-05,-435.53,2.0197
20375,21.814,1.8182,0.05,7.3448e-07,7.3397,5.6399e-07,4.2376,8.5388e-13,9.3369e-06,-5.6399e-07,-4.2376,2.0063
20376,21.814,2.0909,0,4.7392e-05,473.59,1.8555e-05,35.307,1.3861e-05,0.037537,-4.6692e-05,-454.94,2.0065
20377,21.905,2,0,4.5669e-05,456.37,1.8271e-05,38.808,1.3111e-05,0.038761,-4.4884e-05,-435.71,2.0198
20378,21.814,2,0.05,7.3801e-07,7.375,5.667e-07,4.258,8.625e-13,1.0149e-05,-5.667e-07,-4.258,2.0064
20379,21.814,2.2727,0,4.7443e-05,474.11,1.8629e-05,36.003,1.3842e-05,0.038209,-4.6728e-05,-455.06,2.0065
20380,21.905,2.1818,0,4.574e-05,457.08,1.8374e-05,39.794,1.3083e-05,0.03962,-4.4932e-05,-435.87,2.0199
20381,21.814,2.1818,0.05,7.4111e-07,7.406,5.6908e-07,4.2758,8.7167e-13,1.1164e-05,-5.6908e-07,-4.2758,2.0065
20382,21.814,2.4545,0,4.7482e-05,474.49,1.8684e-05,36.517,1.3829e-05,0.038651,-4.6754e-05,-455.16,2.0066
20383,21.905,2.3636,0,4.5795e-05,457.63,1.8454e-05,40.552,1.3062e-05,0.040196,-4.4969e-05,-435.99,2.0199
20384,21.814,2.3636,0.05,7.4368e-07,7.4317,5.7106e-07,4.2907,1.1088e-12,1.1235e-05,-5.7106e-07,-4.2907,2.0065
20385,21.814,2.6364,0,4.7508e-05,474.75,1.8721e-05,36.868,1.3819e-05,0.038927,-4.6773e-05,-455.23,2.0066
20386,21.905,2.5455,0,4.5834e-05,458.03,1.8512e-05,41.099,1.3047e-05,0.040573,-4.4996e-05,-436.08,2.02
20387,21.814,2.5455,0.05,7.4567e-07,7.4516,5.7258e-07,4.3022,8.909e-13,1.2259e-05,-5.7259e-07,-4.3022,2.0066
20388,21.814,2.8182,0,4.7524e-05,474.91,1.8743e-05,37.072,1.3814e-05,0.039075,-4.6784e-05,-455.27,2.0066
20389,21.905,2.7273,0,4.586e-05,458.29,1.8549e-05,41.453,1.3038e-05,0.040796,-4.5014e-05,-436.13,2.02
20390,21.814,2.7273,0.05,7.4703e-07,7.4651,5.7363e-07,4.31,1.1263e-12,1.1365e-05,-5.7363e-07,-4.31,2.0066
20391,21.814,3,0,4.7529e-05,474.96,1.875e-05,37.139,1.3812e-05,0.039122,-4.6787e-05,-455.28,2.0066
20392,21.905,2.9091,0,4.5873e-05,458.41,1.8567e-05,41.627,1.3033e-05,0.040899,-4.5022e-05,-436.16,2.02
20393,21.814,2.9091,0.05,7.4772e-07,7.472,5.7415e-07,4.314,1.8156e-12,1.2372e-05,-5.7415e-07,-4.314,2.0066
20394,21.814,3.1818,0,4.7524e-05,474.91,1.8743e-05,37.072,1.3814e-05,0.039075,-4.6784e-05,-455.27,2.0066
20395,21.905,3.0909,0,4.5873e-05,458.41,1.8567e-05,41.627,1.3033e-05,0.040899,-4.5022e-05,-436.16,2.02
20396,21.814,3.0909,0.05,7.4772e-07,7.472,5.7415e-07,4.314,1.3675e-12,1.1469e-05,-5.7415e-07,-4.314,2.0066
20397,21.814,3.3636,0,4.7508e-05,474.75,1.8721e-05,36.868,1.3819e-05,0.038927,-4.6773e-05,-455.23,2.0066
20398,21.905,3.2727,0,4.586e-05,458.29,1.8549e-05,41.453,1.3038e-05,0.040796,-4.5014e-05,-436.13,2.02
20399,21.814,3.2727,0.05,7.4703e-07,7.4651,5.7363e-07,4.31,1.6009e-12,1.199e-05,-5.7363e-07,-4.31,2.0066
20400,21.814,3.5455,0,4.7482e-05,474.49,1.8684e-05,36.517,1.3829e-05,0.038653,-4.6754e-05,-455.16,2.0066
20401,21.905,3.4545,0,4.5834e-05,458.03,1.8512e-05,41.099,1.3047e-05,0.040573,-4.4996e-05,-436.08,2.02
20402,21.814,3.4545,0.05,7.4567e-07,7.4516,5.7258e-07,4.3022,9.2392e-13,1.2507e-05,-5.7259e-07,-4.3022,2.0066
20403,21.814,3.7273,0,4.7443e-05,474.11,1.8629e-05,36.003,1.3842e-05,0.03821,-4.6728e-05,-455.06,2.0065
20404,21.905,3.6364,0,4.5795e-05,457.63,1.8454e-05,40.552,1.3062e-05,0.040198,-4.4969e-05,-435.99,2.0199
20405,21.814,3.6364,0.05,7.4368e-07,7.4317,5.7106e-07,4.2907,1.6107e-12,1.2538e-05,-5.7106e-07,-4.2907,2.0065
20406,21.814,3.9091,0,4.7392e-05,473.59,1.8555e-05,35.307,1.3861e-05,0.037536,-4.6692e-05,-454.94,2.0065
20407,21.905,3.8182,0,4.574e-05,457.08,1.8374e-05,39.795,1.3083e-05,0.039619,-4.4932e-05,-435.87,2.0199
20408,21.814,3.8182,0.05,7.4111e-07,7.406,5.6908e-07,4.2758,1.8426e-12,1.3532e-05,-5.6908e-07,-4.2758,2.0065
20409,21.814,4.0909,0,4.7327e-05,472.94,1.846e-05,34.409,1.3886e-05,0.036543,-4.6647e-05,-454.78,2.0064
20410,21.905,4,0,4.5669e-05,456.37,1.8271e-05,38.808,1.3111e-05,0.03876,-4.4884e-05,-435.71,2.0198
20411,21.814,4,0.05,7.3801e-07,7.375,5.667e-07,4.258,1.3908e-12,1.2103e-05,-5.667e-07,-4.258,2.0064
20412,21.814,4.2727,0,4.7248e-05,472.15,1.8343e-05,33.292,1.3917e-05,0.035111,-4.6593e-05,-454.61,2.0063
20413,21.905,4.1818,0,4.5581e-05,455.49,1.8141e-05,37.574,1.3145e-05,0.037519,-4.4825e-05,-435.53,2.0197
20414,21.814,4.1818,0.05,7.3448e-07,7.3397,5.6399e-07,4.2376,1.3913e-12,1.1412e-05,-5.6399e-07,-4.2376,2.0063
20415,21.814,4.4545,0,4.7156e-05,471.23,1.8202e-05,31.946,1.3955e-05,0.033079,-4.653e-05,-454.43,2.0062
20416,21.905,4.3636,0,4.5477e-05,454.45,1.7985e-05,36.08,1.3188e-05,0.035752,-4.4755e-05,-435.32,2.0197
20417,21.814,4.3636,0.05,7.306e-07,7.3009,5.6101e-07,4.2152,1.3842e-12,1.2085e-05,-5.6101e-07,-4.2152,2.0062
20418,21.814,4.6364,0,4.7052e-05,470.2,1.8039e-05,30.371,1.4001e-05,0.03024,-4.6462e-05,-454.26,2.0061
20419,21.905,4.5455,0,4.5357e-05,453.26,1.7802e-05,34.321,1.3238e-05,0.033266,-4.4675e-05,-435.11,2.0196
20420,21.814,4.5455,0.05,7.2648e-07,7.2598,5.5785e-07,4.1914,9.2391e-13,9.675e-06,-5.5785e-07,-4.1914,2.0061
20421,21.814,4.8182,0,4.6942e-05,469.1,1.7856e-05,28.584,1.4056e-05,0.026303,-4.639e-05,-454.14,2.006
20422,21.905,4.7273,0,4.5225e-05,451.94,1.7594e-05,32.307,1.3298e-05,0.029823,-4.4589e-05,-434.91,2.0195
20423,21.814,4.7273,0.05,7.2223e-07,7.2174,5.5459e-07,4.1669,1.1489e-12,1.054e-05,-5.5459e-07,-4.1669,2.006
20424,21.814,5,0,4.6832e-05,468,1.7659e-05,26.621,1.4119e-05,0.021001,-4.6322e-05,-454.11,2.0059
20425,21.905,4.9091,0,4.5087e-05,450.56,1.7365e-05,30.069,1.3367e-05,0.025031,-4.45e-05,-434.76,2.0193
20426,21.814,4.9091,0.05,7.1797e-07,7.1748,5.5131e-07,4.1423,1.3546e-12,1.0427e-05,-5.5131e-07,-4.1424,2.0059
20427,21.814,5.1818,0,4.6731e-05,466.99,1.7456e-05,24.544,1.4191e-05,0.013555,-4.6265e-05,-454.23,2.0057
20428,21.905,5.0909,0,4.4951e-05,449.2,1.7123e-05,27.658,1.3444e-05,0.018709,-4.4417e-05,-434.73,2.0192
20429,21.814,5.0909,0.05,7.1379e-07,7.133,5.481e-07,4.1182,1.1274e-12,7.4123e-06,-5.481e-07,-4.1182,2.0058
20430,21.814,5.3636,0,4.6653e-05,466.21,1.7257e-05,22.44,1.4271e-05,0.0048733,-4.6231e-05,-454.58,2.0056
20431,21.905,5.2727,0,4.4829e-05,447.98,1.6878e-05,25.156,1.3531e-05,0.0093048,-4.4348e-05,-434.87,2.0191
20432,21.814,5.2727,0.05,7.097e-07,7.0921,5.4496e-07,4.0947,8.6435e-13,8.3395e-06,-5.4497e-07,-4.0947,2.0056
20433,21.814,5.5455,0,4.6619e-05,465.87,1.7084e-05,20.462,1.4358e-05,-0.013655,-4.6237e-05,-455.31,2.0054
20434,21.905,5.4545,0,4.4737e-05,447.06,1.6644e-05,22.679,1.3626e-05,0.00027019,-4.4308e-05,-435.29,2.0189
20435,21.814,5.4545,0.05,7.0437e-07,7.0388,5.4087e-07,4.0639,1.0842e-12,7.6597e-06,-5.4087e-07,-4.0639,2.0055
20436,21.814,5.7273,0,4.6771e-05,467.39,1.7058e-05,19.54,1.4454e-05,-0.023369,-4.6408e-05,-457.32,2.0052
20437,21.905,5.6364,0,4.4706e-05,446.76,1.6451e-05,20.44,1.3726e-05,-0.03034,-4.4324e-05,-436.2,2.0187
20438,21.814,5.6364,0.05,6.763e-07,6.7584,5.1932e-07,3.9019,8.3347e-13,8.6474e-06,-5.1932e-07,-3.9019,2.0053
20439,21.905,5.8182,0,4.5012e-05,449.81,1.6535e-05,20.242,1.3839e-05,-0.013331,-4.4634e-05,-439.35,2.0186
20440,21.814,5.8182,0.05,2.9758e-07,2.9737,2.285e-07,1.7169,7.8329e-13,5.8523e-06,-2.285e-07,-1.7169,2.0051
20441,21.814,5.9091,0,4.6122e-05,460.9,1.6336e-05,13.408,1.4551e-05,0.0029719,-4.5879e-05,-454.05,2.0051
20442,21.996,0.27273,0,4.2914e-05,428.84,1.5899e-05,20.928,1.311e-05,-0.027949,-4.252e-05,-418.01,2.0321
20443,22.087,0.18182,0,4.1139e-05,411.1,1.5341e-05,21.281,1.2506e-05,-0.017012,-4.0735e-05,-400.06,2.0454
20444,21.996,0.18182,0.05,3.1049e-07,3.1028,2.3842e-07,1.7914,2.4932e-13,6.3909e-06,-2.3842e-07,-1.7914,2.032
20445,21.996,0.090909,0,4.221e-05,421.81,1.5101e-05,14.09,1.3226e-05,0.0034853,-4.1952e-05,-414.58,2.0319
20446,21.996,0.45455,0,4.2813e-05,427.83,1.6001e-05,22.576,1.2994e-05,-0.015996,-4.2384e-05,-416.1,2.0322
20447,22.087,0.36364,0,4.088e-05,408.52,1.5332e-05,22.197,1.2373e-05,-0.035267,-4.0458e-05,-396.99,2.0456
20448,21.996,0.36364,0.05,6.7638e-07,6.7591,5.1937e-07,3.9024,9.037e-13,1.1925e-05,-5.1937e-07,-3.9024,2.0322
20449,21.996,0.63636,0,4.2904e-05,428.75,1.6256e-05,25.329,1.2886e-05,0.0054035,-4.2417e-05,-415.52,2.0324
20450,22.087,0.54545,0,4.097e-05,409.42,1.5609e-05,25.229,1.2251e-05,0.00044235,-4.0483e-05,-396.22,2.0458
20451,21.996,0.54545,0.05,7.0374e-07,7.0326,5.4039e-07,4.0603,1.3315e-12,1.4964e-05,-5.4039e-07,-4.0602,2.0323
20452,21.996,0.81818,0,4.3042e-05,430.12,1.6538e-05,28.216,1.2785e-05,0.015037,-4.2492e-05,-415.31,2.0325
20453,22.087,0.72727,0,4.1125e-05,410.97,1.5929e-05,28.517,1.2135e-05,0.010555,-4.0566e-05,-395.96,2.0459
20454,21.996,0.72727,0.05,7.0905e-07,7.0856,5.4446e-07,4.0909,1.535e-12,1.6816e-05,-5.4446e-07,-4.0909,2.0325
20455,21.996,1,0,4.3201e-05,431.71,1.6823e-05,31.06,1.2692e-05,0.023203,-4.2589e-05,-415.34,2.0327
20456,22.087,0.90909,0,4.131e-05,412.81,1.6259e-05,31.818,1.2027e-05,0.020978,-4.0676e-05,-395.97,2.046
20457,21.996,0.90909,0.05,7.131e-07,7.1261,5.4757e-07,4.1142,1.3161e-12,1.5774e-05,-5.4757e-07,-4.1142,2.0326
20458,21.996,1.1818,0,4.3367e-05,433.37,1.7098e-05,33.756,1.2609e-05,0.028928,-4.2694e-05,-415.49,2.0328
20459,22.087,1.0909,0,4.1505e-05,414.76,1.6583e-05,34.994,1.1929e-05,0.027834,-4.0799e-05,-396.15,2.0462
20460,21.996,1.0909,0.05,7.1719e-07,7.1669,5.5071e-07,4.1378,8.1266e-13,1.222e-05,-5.5071e-07,-4.1378,2.0327
20461,21.996,1.3636,0,4.3528e-05,434.98,1.7352e-05,36.228,1.2535e-05,0.03316,-4.2798e-05,-415.72,2.0329
20462,22.087,1.2727,0,4.1698e-05,416.69,1.6887e-05,37.948,1.1841e-05,0.032993,-4.0922e-05,-396.41,2.0463
20463,21.996,1.2727,0.05,7.2131e-07,7.2081,5.5388e-07,4.1616,8.2514e-13,1.1591e-05,-5.5388e-07,-4.1616,2.0329
20464,21.996,1.5455,0,4.3677e-05,436.47,1.7581e-05,38.431,1.2471e-05,0.036206,-4.2896e-05,-415.97,2.033
20465,22.087,1.4545,0,4.188e-05,418.51,1.7164e-05,40.618,1.1763e-05,0.036678,-4.104e-05,-396.7,2.0464
20466,21.996,1.4545,0.05,7.2537e-07,7.2487,5.57e-07,4.1851,8.3876e-13,1.0892e-05,-5.57e-07,-4.1851,2.033
20467,21.996,1.7273,0,4.381e-05,437.8,1.778e-05,40.343,1.2416e-05,0.038397,-4.2984e-05,-416.22,2.0331
20468,22.087,1.6364,0,4.2043e-05,420.14,1.7408e-05,42.969,1.1695e-05,0.039342,-4.1147e-05,-396.99,2.0465
20469,21.996,1.6364,0.05,7.2928e-07,7.2878,5.6e-07,4.2076,8.3424e-13,1.136e-05,-5.6e-07,-4.2076,2.0331
20470,21.996,1.9091,0,4.3924e-05,438.94,1.7949e-05,41.958,1.237e-05,0.039953,-4.306e-05,-416.44,2.0332
20471,22.087,1.8182,0,4.2186e-05,421.57,1.7619e-05,44.986,1.1637e-05,0.041243,-4.124e-05,-397.25,2.0466
20472,21.996,1.8182,0.05,7.3293e-07,7.3242,5.628e-07,4.2287,8.3867e-13,1.0449e-05,-5.628e-07,-4.2287,2.0331
20473,21.996,2.0909,0,4.4019e-05,439.89,1.8088e-05,43.283,1.2333e-05,0.041044,-4.3122e-05,-416.63,2.0333
20474,22.087,2,0,4.2306e-05,422.77,1.7795e-05,46.672,1.1589e-05,0.042593,-4.1318e-05,-397.48,2.0466
20475,21.996,2,0.05,7.3623e-07,7.3573,5.6534e-07,4.2477,8.5259e-13,1.1031e-05,-5.6534e-07,-4.2477,2.0332
20476,21.996,2.2727,0,4.4094e-05,440.64,1.8198e-05,44.332,1.2303e-05,0.041797,-4.3172e-05,-416.78,2.0333
20477,22.087,2.1818,0,4.2404e-05,423.74,1.7938e-05,48.038,1.155e-05,0.043536,-4.1381e-05,-397.66,2.0467
20478,21.996,2.1818,0.05,7.3911e-07,7.386,5.6755e-07,4.2643,8.6305e-13,1.1096e-05,-5.6755e-07,-4.2643,2.0333
20479,21.996,2.4545,0,4.4151e-05,441.21,1.8281e-05,45.124,1.2281e-05,0.042301,-4.321e-05,-416.89,2.0334
20480,22.087,2.3636,0,4.248e-05,424.5,1.8049e-05,49.101,1.1519e-05,0.044184,-4.143e-05,-397.8,2.0467
20481,21.996,2.3636,0.05,7.4149e-07,7.4098,5.6938e-07,4.2781,1.5552e-12,1.26e-05,-5.6938e-07,-4.2781,2.0333
20482,21.996,2.6364,0,4.4191e-05,441.61,1.8339e-05,45.675,1.2266e-05,0.042621,-4.3236e-05,-416.97,2.0334
20483,22.087,2.5455,0,4.2535e-05,425.06,1.813e-05,49.879,1.1497e-05,0.044608,-4.1466e-05,-397.9,2.0468
20484,21.996,2.5455,0.05,7.4333e-07,7.4282,5.7078e-07,4.2887,1.1119e-12,1.3164e-05,-5.7079e-07,-4.2887,2.0334
20485,21.996,2.8182,0,4.4214e-05,441.84,1.8373e-05,45.999,1.2256e-05,0.042797,-4.3251e-05,-417.02,2.0334
20486,22.087,2.7273,0,4.2572e-05,425.42,1.8183e-05,50.387,1.1483e-05,0.044867,-4.149e-05,-397.97,2.0468
20487,21.996,2.7273,0.05,7.4458e-07,7.4406,5.7174e-07,4.2958,8.9502e-13,1.229e-05,-5.7174e-07,-4.2958,2.0334
20488,21.996,3,0,4.4222e-05,441.92,1.8384e-05,46.106,1.2253e-05,0.042851,-4.3256e-05,-417.04,2.0334
20489,22.087,2.9091,0,4.259e-05,425.6,1.8209e-05,50.638,1.1475e-05,0.044986,-4.1501e-05,-398,2.0468
20490,21.996,2.9091,0.05,7.4521e-07,7.4469,5.7223e-07,4.2995,9.0474e-13,1.2839e-05,-5.7223e-07,-4.2995,2.0334
20491,21.996,3.1818,0,4.4214e-05,441.84,1.8373e-05,45.999,1.2256e-05,0.042796,-4.3251e-05,-417.02,2.0334
20492,22.087,3.0909,0,4.259e-05,425.6,1.8209e-05,50.638,1.1475e-05,0.044986,-4.1501e-05,-398,2.0468
20493,21.996,3.0909,0.05,7.4521e-07,7.4469,5.7223e-07,4.2995,1.1414e-12,1.2432e-05,-5.7223e-07,-4.2995,2.0334
20494,21.996,3.3636,0,4.4191e-05,441.61,1.8339e-05,45.675,1.2266e-05,0.04262,-4.3236e-05,-416.97,2.0334
20495,22.087,3.2727,0,4.2572e-05,425.42,1.8183e-05,50.387,1.1483e-05,0.044866,-4.149e-05,-397.97,2.0468
20496,21.996,3.2727,0.05,7.4458e-07,7.4406,5.7174e-07,4.2958,1.1496e-12,1.3447e-05,-5.7174e-07,-4.2958,2.0334
20497,21.996,3.5455,0,4.4151e-05,441.21,1.8281e-05,45.124,1.2281e-05,0.042301,-4.321e-05,-416.89,2.0334
20498,22.087,3.4545,0,4.2535e-05,425.06,1.813e-05,49.879,1.1497e-05,0.044608,-4.1466e-05,-397.9,2.0468
20499,21.996,3.4545,0.05,7.4333e-07,7.4282,5.7078e-07,4.2887,1.1568e-12,1.3022e-05,-5.7079e-07,-4.2887,2.0334
20500,21.996,3.7273,0,4.4094e-05,440.64,1.8198e-05,44.332,1.2303e-05,0.041797,-4.3172e-05,-416.78,2.0333
20501,22.087,3.6364,0,4.248e-05,424.5,1.8049e-05,49.101,1.1519e-05,0.044183,-4.143e-05,-397.8,2.0467
20502,21.996,3.6364,0.05,7.4149e-07,7.4098,5.6938e-07,4.2781,9.3524e-13,1.4972e-05,-5.6938e-07,-4.2781,2.0333
20503,21.996,3.9091,0,4.4019e-05,439.89,1.8088e-05,43.283,1.2333e-05,0.041043,-4.3122e-05,-416.63,2.0333
20504,22.087,3.8182,0,4.2404e-05,423.74,1.7938e-05,48.038,1.155e-05,0.043537,-4.1381e-05,-397.66,2.0467
20505,21.996,3.8182,0.05,7.3911e-07,7.386,5.6754e-07,4.2643,1.6221e-12,1.4063e-05,-5.6755e-07,-4.2643,2.0333
20506,21.996,4.0909,0,4.3924e-05,438.94,1.7949e-05,41.958,1.237e-05,0.039951,-4.306e-05,-416.44,2.0332
20507,22.087,4,0,4.2306e-05,422.77,1.7795e-05,46.672,1.1589e-05,0.042591,-4.1318e-05,-397.48,2.0466
20508,21.996,4,0.05,7.3623e-07,7.3573,5.6534e-07,4.2477,9.4062e-13,1.3104e-05,-5.6534e-07,-4.2477,2.0332
20509,21.996,4.2727,0,4.381e-05,437.8,1.778e-05,40.343,1.2416e-05,0.038396,-4.2984e-05,-416.22,2.0331
20510,22.087,4.1818,0,4.2186e-05,421.57,1.7619e-05,44.986,1.1637e-05,0.041243,-4.124e-05,-397.25,2.0466
20511,21.996,4.1818,0.05,7.3293e-07,7.3242,5.628e-07,4.2287,1.1732e-12,1.167e-05,-5.628e-07,-4.2287,2.0331
20512,21.996,4.4545,0,4.3677e-05,436.47,1.7581e-05,38.431,1.2471e-05,0.036206,-4.2896e-05,-415.97,2.033
20513,22.087,4.3636,0,4.2043e-05,420.14,1.7408e-05,42.969,1.1695e-05,0.039342,-4.1147e-05,-396.99,2.0465
20514,21.996,4.3636,0.05,7.2928e-07,7.2878,5.6e-07,4.2076,1.3937e-12,1.3548e-05,-5.6e-07,-4.2076,2.0331
20515,21.996,4.6364,0,4.3528e-05,434.98,1.7352e-05,36.228,1.2535e-05,0.03316,-4.2798e-05,-415.72,2.0329
20516,22.087,4.5455,0,4.188e-05,418.51,1.7164e-05,40.619,1.1763e-05,0.036679,-4.104e-05,-396.7,2.0464
20517,21.996,4.5455,0.05,7.2537e-07,7.2487,5.57e-07,4.1851,9.2938e-13,1.165e-05,-5.57e-07,-4.1851,2.033
20518,21.996,4.8182,0,4.3367e-05,433.37,1.7098e-05,33.756,1.2609e-05,0.028928,-4.2694e-05,-415.49,2.0328
20519,22.087,4.7273,0,4.1698e-05,416.69,1.6887e-05,37.948,1.1841e-05,0.032992,-4.0922e-05,-396.41,2.0463
20520,21.996,4.7273,0.05,7.2131e-07,7.2081,5.5388e-07,4.1616,1.1429e-12,1.1457e-05,-5.5388e-07,-4.1616,2.0329
20521,21.996,5,0,4.3201e-05,431.71,1.6823e-05,31.06,1.2692e-05,0.023203,-4.2589e-05,-415.34,2.0327
20522,22.087,4.9091,0,4.1505e-05,414.76,1.6583e-05,34.994,1.1929e-05,0.027836,-4.0799e-05,-396.15,2.0462
20523,21.996,4.9091,0.05,7.1719e-07,7.1669,5.5071e-07,4.1378,1.3479e-12,1.0905e-05,-5.5071e-07,-4.1378,2.0327
20524,21.996,5.1818,0,4.3042e-05,430.12,1.6538e-05,28.216,1.2785e-05,0.015036,-4.2492e-05,-415.31,2.0325
20525,22.087,5.0909,0,4.131e-05,412.81,1.6259e-05,31.818,1.2027e-05,0.020978,-4.0676e-05,-395.97,2.046
20526,21.996,5.0909,0.05,7.131e-07,7.1261,5.4757e-07,4.1142,8.7708e-13,8.2568e-06,-5.4757e-07,-4.1142,2.0326
20527,21.996,5.3636,0,4.2904e-05,428.75,1.6256e-05,25.33,1.2886e-05,0.0054024,-4.2417e-05,-415.52,2.0324
20528,22.087,5.2727,0,4.1125e-05,410.97,1.5929e-05,28.517,1.2135e-05,0.010555,-4.0566e-05,-395.96,2.0459
20529,21.996,5.2727,0.05,7.0905e-07,7.0856,5.4446e-07,4.0909,8.4825e-13,8.8013e-06,-5.4446e-07,-4.0909,2.0325
20530,21.996,5.5455,0,4.2813e-05,427.83,1.6001e-05,22.576,1.2994e-05,-0.015996,-4.2384e-05,-416.1,2.0322
20531,22.087,5.4545,0,4.097e-05,409.42,1.5609e-05,25.229,1.2251e-05,0.00044166,-4.0483e-05,-396.22,2.0458
20532,21.996,5.4545,0.05,7.0374e-07,7.0326,5.4039e-07,4.0602,7.1317e-13,8.1822e-06,-5.4039e-07,-4.0603,2.0323
20533,21.996,5.7273,0,4.2914e-05,428.84,1.5899e-05,20.928,1.311e-05,-0.027947,-4.252e-05,-418.01,2.0321
20534,22.087,5.6364,0,4.088e-05,408.52,1.5332e-05,22.197,1.2373e-05,-0.035267,-4.0458e-05,-396.99,2.0456
20535,21.996,5.6364,0.05,6.7638e-07,6.7591,5.1937e-07,3.9024,8.4687e-13,8.419e-06,-5.1937e-07,-3.9024,2.0322
20536,22.087,5.8182,0,4.1139e-05,411.1,1.5341e-05,21.281,1.2506e-05,-0.01701,-4.0735e-05,-400.06,2.0454
20537,21.996,5.8182,0.05,3.1049e-07,3.1028,2.3842e-07,1.7914,4.5351e-13,5.838e-06,-2.3842e-07,-1.7914,2.032
20538,21.996,5.9091,0,4.221e-05,421.81,1.5101e-05,14.09,1.3226e-05,0.0034854,-4.1952e-05,-414.58,2.0319
20539,22.178,0.27273,0,3.9069e-05,390.42,1.4743e-05,22.319,1.1768e-05,-0.032991,-3.8641e-05,-378.79,2.0589
20540,22.269,0.18182,0,3.7274e-05,372.48,1.4147e-05,22.285,1.1178e-05,-0.021566,-3.6845e-05,-360.85,2.0723
20541,22.178,0.18182,0.05,3.2543e-07,3.252,2.4989e-07,1.8776,5.0449e-13,7.8372e-06,-2.4989e-07,-1.8776,2.0589
20542,22.178,0.090909,0,3.8309e-05,382.83,1.3868e-05,14.755,1.1905e-05,0.004445,-3.8037e-05,-375.24,2.0588
20543,22.178,0.45455,0,3.9025e-05,389.98,1.4928e-05,24.76,1.1631e-05,-0.018126,-3.8545e-05,-377.02,2.0591
20544,22.269,0.36364,0,3.7071e-05,370.46,1.4221e-05,23.996,1.1022e-05,-0.040311,-3.6605e-05,-357.89,2.0725
20545,22.178,0.36364,0.05,6.7649e-07,6.7602,5.1946e-07,3.903,8.8211e-13,1.1765e-05,-5.1946e-07,-3.903,2.059
20546,22.178,0.63636,0,3.9181e-05,391.54,1.5273e-05,28.345,1.1501e-05,0.0065129,-3.8622e-05,-376.6,2.0593
20547,22.269,0.54545,0,3.7228e-05,372.03,1.459e-05,27.891,1.0878e-05,0.0011823,-3.6675e-05,-357.3,2.0726
20548,22.178,0.54545,0.05,7.0312e-07,7.0263,5.3991e-07,4.0567,1.3578e-12,1.7429e-05,-5.3991e-07,-4.0566,2.0592
20549,22.178,0.81818,0,3.9385e-05,393.58,1.5643e-05,32.061,1.1378e-05,0.017221,-3.8741e-05,-376.56,2.0594
20550,22.269,0.72727,0,3.7453e-05,374.27,1.5003e-05,32.048,1.0739e-05,0.012548,-3.6805e-05,-357.21,2.0728
20551,22.178,0.72727,0.05,7.085e-07,7.0801,5.4404e-07,4.0877,1.4199e-12,1.7973e-05,-5.4404e-07,-4.0877,2.0593
20552,22.178,1,0,3.9608e-05,395.81,1.6013e-05,35.704,1.1264e-05,0.026177,-3.888e-05,-376.74,2.0595
20553,22.269,0.90909,0,3.7707e-05,376.81,1.5423e-05,36.191,1.0609e-05,0.024099,-3.696e-05,-357.39,2.0729
20554,22.178,0.90909,0.05,7.1262e-07,7.1213,5.4721e-07,4.1115,1.4984e-12,1.7603e-05,-5.4721e-07,-4.1115,2.0594
20555,22.178,1.1818,0,3.9834e-05,398.06,1.6367e-05,39.149,1.1161e-05,0.032355,-3.9022e-05,-377.03,2.0596
20556,22.269,1.0909,0,3.7967e-05,379.41,1.583e-05,40.158,1.049e-05,0.031533,-3.7124e-05,-357.72,2.073
20557,22.178,1.0909,0.05,7.1674e-07,7.1624,5.5037e-07,4.1352,1.0374e-12,1.512e-05,-5.5037e-07,-4.1352,2.0596
20558,22.178,1.3636,0,4.0049e-05,400.21,1.6694e-05,42.309,1.1068e-05,0.036892,-3.9161e-05,-377.36,2.0598
20559,22.269,1.2727,0,3.8219e-05,381.92,1.6211e-05,43.838,1.0381e-05,0.037073,-3.7283e-05,-358.1,2.0731
20560,22.178,1.2727,0.05,7.2083e-07,7.2033,5.5351e-07,4.1588,7.7164e-13,1.1953e-05,-5.5351e-07,-4.1588,2.0597
20561,22.178,1.5455,0,4.0246e-05,402.18,1.6988e-05,45.133,1.0986e-05,0.040144,-3.9288e-05,-377.7,2.0599
20562,22.269,1.4545,0,3.8452e-05,384.26,1.6556e-05,47.161,1.0285e-05,0.041004,-3.7432e-05,-358.48,2.0732
20563,22.178,1.4545,0.05,7.2482e-07,7.2432,5.5657e-07,4.1818,7.8186e-13,1.1475e-05,-5.5657e-07,-4.1818,2.0598
20564,22.178,1.7273,0,4.0421e-05,403.93,1.7244e-05,47.594,1.0915e-05,0.042484,-3.94e-05,-378.01,2.0599
20565,22.269,1.6364,0,3.8661e-05,386.34,1.6861e-05,50.089,1.02e-05,0.043841,-3.7564e-05,-358.84,2.0733
20566,22.178,1.6364,0.05,7.286e-07,7.281,5.5948e-07,4.2037,8.1098e-13,1.1191e-05,-5.5948e-07,-4.2037,2.0599
20567,22.178,1.9091,0,4.057e-05,405.43,1.7462e-05,49.685,1.0855e-05,0.044156,-3.9496e-05,-378.27,2.06
20568,22.269,1.8182,0,3.8842e-05,388.16,1.7123e-05,52.609,1.0127e-05,0.045872,-3.7679e-05,-359.15,2.0734
20569,22.178,1.8182,0.05,7.321e-07,7.316,5.6216e-07,4.2239,8.2187e-13,1.0833e-05,-5.6217e-07,-4.2239,2.06
20570,22.178,2.0909,0,4.0695e-05,406.67,1.7643e-05,51.415,1.0806e-05,0.045342,-3.9575e-05,-378.5,2.0601
20571,22.269,2,0,3.8995e-05,389.68,1.7343e-05,54.724,1.0066e-05,0.047323,-3.7774e-05,-359.41,2.0735
20572,22.178,2,0.05,7.3525e-07,7.3474,5.6458e-07,4.242,6.0816e-13,1.1358e-05,-5.6458e-07,-4.242,2.06
20573,22.178,2.2727,0,4.0794e-05,407.66,1.7786e-05,52.796,1.0766e-05,0.046169,-3.9638e-05,-378.67,2.0601
20574,22.269,2.1818,0,3.9119e-05,390.93,1.7522e-05,56.446,1.0016e-05,0.048346,-3.7852e-05,-359.61,2.0735
20575,22.178,2.1818,0.05,7.3796e-07,7.3745,5.6666e-07,4.2577,8.4881e-13,1.2898e-05,-5.6666e-07,-4.2577,2.0601
20576,22.178,2.4545,0,4.0869e-05,408.41,1.7896e-05,53.846,1.0736e-05,0.04673,-3.9686e-05,-378.8,2.0602
20577,22.269,2.3636,0,3.9217e-05,391.9,1.7662e-05,57.794,9.977e-06,0.049057,-3.7912e-05,-359.77,2.0736
20578,22.178,2.3636,0.05,7.402e-07,7.3969,5.6838e-07,4.2706,8.6103e-13,1.2518e-05,-5.6838e-07,-4.2706,2.0601
20579,22.178,2.6364,0,4.0922e-05,408.94,1.7972e-05,54.582,1.0714e-05,0.047089,-3.9719e-05,-378.89,2.0602
20580,22.269,2.5455,0,3.9288e-05,392.61,1.7765e-05,58.784,9.948e-06,0.04953,-3.7956e-05,-359.88,2.0736
20581,22.178,2.5455,0.05,7.4191e-07,7.414,5.697e-07,4.2805,1.1031e-12,1.3572e-05,-5.697e-07,-4.2805,2.0602
20582,22.178,2.8182,0,4.0953e-05,409.25,1.8018e-05,55.018,1.0702e-05,0.047289,-3.9739e-05,-378.94,2.0602
20583,22.269,2.7273,0,3.9335e-05,393.07,1.7833e-05,59.435,9.9289e-06,0.049818,-3.7984e-05,-359.95,2.0736
20584,22.178,2.7273,0.05,7.4307e-07,7.4256,5.7059e-07,4.2872,1.1168e-12,1.2724e-05,-5.7059e-07,-4.2872,2.0602
20585,22.178,3,0,4.0964e-05,409.35,1.8033e-05,55.162,1.0697e-05,0.047353,-3.9745e-05,-378.96,2.0602
20586,22.269,2.9091,0,3.9358e-05,393.3,1.7866e-05,59.757,9.9194e-06,0.049955,-3.7999e-05,-359.99,2.0737
20587,22.178,2.9091,0.05,7.4366e-07,7.4315,5.7104e-07,4.2906,9.0292e-13,1.4256e-05,-5.7104e-07,-4.2905,2.0602
20588,22.178,3.1818,0,4.0953e-05,409.25,1.8018e-05,55.018,1.0702e-05,0.047289,-3.9739e-05,-378.94,2.0602
20589,22.269,3.0909,0,3.9358e-05,393.3,1.7866e-05,59.757,9.9194e-06,0.049955,-3.7999e-05,-359.99,2.0737
20590,22.178,3.0909,0.05,7.4366e-07,7.4315,5.7104e-07,4.2906,9.1596e-13,1.2923e-05,-5.7104e-07,-4.2905,2.0602
20591,22.178,3.3636,0,4.0922e-05,408.94,1.7972e-05,54.582,1.0714e-05,0.047089,-3.9719e-05,-378.89,2.0602
20592,22.269,3.2727,0,3.9335e-05,393.07,1.7833e-05,59.435,9.9289e-06,0.049819,-3.7984e-05,-359.95,2.0736
20593,22.178,3.2727,0.05,7.4307e-07,7.4256,5.7059e-07,4.2872,9.2775e-13,1.3965e-05,-5.7059e-07,-4.2872,2.0602
20594,22.178,3.5455,0,4.0869e-05,408.41,1.7896e-05,53.846,1.0736e-05,0.046729,-3.9686e-05,-378.8,2.0602
20595,22.269,3.4545,0,3.9288e-05,392.61,1.7765e-05,58.784,9.948e-06,0.049528,-3.7956e-05,-359.88,2.0736
20596,22.178,3.4545,0.05,7.4191e-07,7.414,5.697e-07,4.2805,1.1656e-12,1.4043e-05,-5.697e-07,-4.2805,2.0602
20597,22.178,3.7273,0,4.0794e-05,407.66,1.7786e-05,52.796,1.0766e-05,0.046169,-3.9638e-05,-378.67,2.0601
20598,22.269,3.6364,0,3.9217e-05,391.9,1.7662e-05,57.794,9.977e-06,0.049056,-3.7912e-05,-359.77,2.0736
20599,22.178,3.6364,0.05,7.402e-07,7.3969,5.6838e-07,4.2706,1.1737e-12,1.4104e-05,-5.6838e-07,-4.2706,2.0601
20600,22.178,3.9091,0,4.0695e-05,406.67,1.7643e-05,51.415,1.0806e-05,0.045342,-3.9575e-05,-378.5,2.0601
20601,22.269,3.8182,0,3.9119e-05,390.93,1.7522e-05,56.446,1.0016e-05,0.048347,-3.7852e-05,-359.61,2.0735
20602,22.178,3.8182,0.05,7.3796e-07,7.3745,5.6666e-07,4.2577,1.4106e-12,1.5613e-05,-5.6666e-07,-4.2577,2.0601
20603,22.178,4.0909,0,4.0571e-05,405.43,1.7462e-05,49.686,1.0855e-05,0.044156,-3.9496e-05,-378.27,2.06
20604,22.269,4,0,3.8995e-05,389.68,1.7343e-05,54.724,1.0066e-05,0.047322,-3.7774e-05,-359.41,2.0735
20605,22.178,4,0.05,7.3525e-07,7.3474,5.6458e-07,4.242,1.1892e-12,1.4221e-05,-5.6458e-07,-4.242,2.06
20606,22.178,4.2727,0,4.0421e-05,403.93,1.7244e-05,47.594,1.0915e-05,0.042485,-3.94e-05,-378.01,2.0599
20607,22.269,4.1818,0,3.8842e-05,388.16,1.7123e-05,52.609,1.0127e-05,0.045872,-3.7679e-05,-359.15,2.0734
20608,22.178,4.1818,0.05,7.321e-07,7.316,5.6216e-07,4.2239,9.641e-13,1.2368e-05,-5.6217e-07,-4.2239,2.06
20609,22.178,4.4545,0,4.0246e-05,402.18,1.6988e-05,45.133,1.0986e-05,0.040144,-3.9288e-05,-377.7,2.0599
20610,22.269,4.3636,0,3.8661e-05,386.34,1.6861e-05,50.089,1.02e-05,0.043841,-3.7564e-05,-358.84,2.0733
20611,22.178,4.3636,0.05,7.286e-07,7.281,5.5948e-07,4.2037,1.1872e-12,1.4219e-05,-5.5948e-07,-4.2037,2.0599
20612,22.178,4.6364,0,4.0049e-05,400.21,1.6694e-05,42.309,1.1068e-05,0.036891,-3.9161e-05,-377.36,2.0598
20613,22.269,4.5455,0,3.8452e-05,384.26,1.6556e-05,47.161,1.0285e-05,0.041004,-3.7432e-05,-358.48,2.0732
20614,22.178,4.5455,0.05,7.2482e-07,7.2432,5.5657e-07,4.1818,9.5511e-13,1.1774e-05,-5.5657e-07,-4.1818,2.0598
20615,22.178,4.8182,0,3.9834e-05,398.06,1.6367e-05,39.149,1.1161e-05,0.032355,-3.9022e-05,-377.03,2.0596
20616,22.269,4.7273,0,3.8219e-05,381.92,1.6211e-05,43.838,1.0381e-05,0.037073,-3.7283e-05,-358.1,2.0731
20617,22.178,4.7273,0.05,7.2083e-07,7.2033,5.5351e-07,4.1588,1.16e-12,1.265e-05,-5.5351e-07,-4.1588,2.0597
20618,22.178,5,0,3.9608e-05,395.81,1.6013e-05,35.704,1.1264e-05,0.026177,-3.888e-05,-376.74,2.0595
20619,22.269,4.9091,0,3.7967e-05,379.41,1.583e-05,40.158,1.049e-05,0.031532,-3.7124e-05,-357.72,2.073
20620,22.178,4.9091,0.05,7.1674e-07,7.1624,5.5037e-07,4.1352,9.2263e-13,1.2383e-05,-5.5037e-07,-4.1352,2.0596
20621,22.178,5.1818,0,3.9385e-05,393.58,1.5643e-05,32.061,1.1378e-05,0.01722,-3.8741e-05,-376.56,2.0594
20622,22.269,5.0909,0,3.7707e-05,376.81,1.5423e-05,36.191,1.0609e-05,0.024099,-3.696e-05,-357.39,2.0729
20623,22.178,5.0909,0.05,7.1262e-07,7.1213,5.4721e-07,4.1115,6.9815e-13,8.9645e-06,-5.4721e-07,-4.1115,2.0594
20624,22.178,5.3636,0,3.9181e-05,391.54,1.5273e-05,28.345,1.1501e-05,0.0065129,-3.8622e-05,-376.6,2.0593
20625,22.269,5.2727,0,3.7453e-05,374.27,1.5003e-05,32.048,1.0739e-05,0.012548,-3.6805e-05,-357.21,2.0728
20626,22.178,5.2727,0.05,7.085e-07,7.0801,5.4404e-07,4.0877,6.5381e-13,9.78e-06,-5.4404e-07,-4.0877,2.0593
20627,22.178,5.5455,0,3.9025e-05,389.98,1.4928e-05,24.76,1.1631e-05,-0.018125,-3.8545e-05,-377.02,2.0591
20628,22.269,5.4545,0,3.7228e-05,372.03,1.459e-05,27.891,1.0878e-05,0.0011836,-3.6675e-05,-357.3,2.0726
20629,22.178,5.4545,0.05,7.0312e-07,7.0263,5.3991e-07,4.0567,8.4107e-13,8.8126e-06,-5.3991e-07,-4.0567,2.0592
20630,22.178,5.7273,0,3.9069e-05,390.42,1.4743e-05,22.319,1.1768e-05,-0.03299,-3.8641e-05,-378.79,2.0589
20631,22.269,5.6364,0,3.7071e-05,370.46,1.4221e-05,23.996,1.1022e-05,-0.04031,-3.6605e-05,-357.89,2.0725
20632,22.178,5.6364,0.05,6.7649e-07,6.7602,5.1946e-07,3.903,5.8816e-13,9.1171e-06,-5.1946e-07,-3.903,2.059
20633,22.269,5.8182,0,3.7274e-05,372.48,1.4147e-05,22.285,1.1178e-05,-0.021565,-3.6845e-05,-360.85,2.0723
20634,22.178,5.8182,0.05,3.2543e-07,3.2521,2.4989e-07,1.8776,4.5432e-13,6.7013e-06,-2.4989e-07,-1.8776,2.0589
20635,22.178,5.9091,0,3.8309e-05,382.83,1.3868e-05,14.755,1.1905e-05,0.0044454,-3.8037e-05,-375.24,2.0588
20636,22.36,0.27273,0,3.5237e-05,352.13,1.3592e-05,23.711,1.0431e-05,-0.03858,-3.4774e-05,-339.69,2.0858
20637,22.452,0.18182,0,3.342e-05,333.97,1.2952e-05,23.242,9.855e-06,-0.027232,-3.2964e-05,-321.75,2.0992
20638,22.36,0.18182,0.05,3.4262e-07,3.4238,2.6309e-07,1.9768,5.2471e-13,6.9941e-06,-2.6309e-07,-1.9767,2.0857
20639,22.36,0.090909,0,3.4423e-05,343.99,1.2637e-05,15.398,1.0589e-05,0.0060267,-3.4135e-05,-336.03,2.0857
20640,22.36,0.45455,0,3.526e-05,352.35,1.3869e-05,27.026,1.027e-05,-0.01993,-3.4722e-05,-338.07,2.086
20641,22.452,0.36364,0,3.3283e-05,332.6,1.312e-05,25.847,9.6742e-06,-0.045395,-3.2768e-05,-318.94,2.0994
20642,22.36,0.36364,0.05,6.7675e-07,6.7628,5.1966e-07,3.9045,3.6805e-13,7.6253e-06,-5.1966e-07,-3.9045,2.0859
20643,22.36,0.63636,0,3.549e-05,354.65,1.431e-05,31.515,1.0116e-05,0.0084015,-3.4848e-05,-337.84,2.0861
20644,22.452,0.54545,0,3.3517e-05,334.94,1.359e-05,30.691,9.5057e-06,0.0027495,-3.2889e-05,-318.53,2.0995
20645,22.36,0.54545,0.05,7.0261e-07,7.0213,5.3952e-07,4.0537,1.3358e-12,1.5444e-05,-5.3952e-07,-4.0537,2.086
20646,22.36,0.81818,0,3.5767e-05,357.43,1.4775e-05,36.116,9.9707e-06,0.020327,-3.5015e-05,-337.99,2.0863
20647,22.452,0.72727,0,3.3821e-05,337.98,1.4104e-05,35.789,9.3425e-06,0.015577,-3.307e-05,-318.65,2.0996
20648,22.36,0.72727,0.05,7.0817e-07,7.0769,5.4379e-07,4.0858,1.5569e-12,1.8347e-05,-5.4379e-07,-4.0858,2.0862
20649,22.36,1,0,3.6061e-05,360.36,1.5234e-05,40.596,9.8349e-06,0.03015,-3.5198e-05,-338.33,2.0864
20650,22.452,0.90909,0,3.4151e-05,341.28,1.4619e-05,40.826,9.1894e-06,0.028378,-3.3273e-05,-319.01,2.0998
20651,22.36,0.90909,0.05,7.1249e-07,7.12,5.4711e-07,4.1107,1.2961e-12,1.6097e-05,-5.4711e-07,-4.1107,2.0863
20652,22.36,1.1818,0,3.635e-05,363.25,1.5669e-05,44.809,9.7105e-06,0.03681,-3.5379e-05,-338.75,2.0865
20653,22.452,1.0909,0,3.4481e-05,344.58,1.5113e-05,45.613,9.0476e-06,0.03643,-3.3478e-05,-319.48,2.0999
20654,22.36,1.0909,0.05,7.1674e-07,7.1625,5.5037e-07,4.1352,8.8837e-13,1.4125e-05,-5.5037e-07,-4.1352,2.0864
20655,22.36,1.3636,0,3.6622e-05,365.97,1.6069e-05,48.66,9.5983e-06,0.041657,-3.5551e-05,-339.19,2.0866
20656,22.452,1.2727,0,3.4796e-05,347.72,1.5571e-05,50.026,8.9188e-06,0.042368,-3.3673e-05,-319.98,2.1
20657,22.36,1.2727,0.05,7.209e-07,7.204,5.5356e-07,4.1592,8.2915e-13,1.2268e-05,-5.5356e-07,-4.1592,2.0866
20658,22.36,1.5455,0,3.6869e-05,368.44,1.6426e-05,52.094,9.4989e-06,0.045116,-3.5705e-05,-339.6,2.0867
20659,22.452,1.4545,0,3.5084e-05,350.59,1.5984e-05,53.995,8.8036e-06,0.046546,-3.3851e-05,-320.45,2.1001
20660,22.36,1.4545,0.05,7.2489e-07,7.2439,5.5662e-07,4.1823,8.4309e-13,1.0453e-05,-5.5662e-07,-4.1823,2.0867
20661,22.36,1.7273,0,3.7087e-05,370.61,1.6737e-05,55.086,9.4123e-06,0.047606,-3.5841e-05,-339.97,2.0868
20662,22.452,1.6364,0,3.5339e-05,353.15,1.6346e-05,57.484,8.7023e-06,0.049557,-3.4008e-05,-320.86,2.1002
20663,22.36,1.6364,0.05,7.2862e-07,7.2812,5.5949e-07,4.2038,5.921e-13,1.0287e-05,-5.5949e-07,-4.2038,2.0867
20664,22.36,1.9091,0,3.7272e-05,372.47,1.7002e-05,57.633,9.3384e-06,0.049392,-3.5955e-05,-340.27,2.0869
20665,22.452,1.8182,0,3.5559e-05,355.35,1.6658e-05,60.484,8.6149e-06,0.051714,-3.4142e-05,-321.21,2.1003
20666,22.36,1.8182,0.05,7.3203e-07,7.3153,5.6211e-07,4.2235,8.1892e-13,9.6915e-06,-5.6211e-07,-4.2235,2.0868
20667,22.36,2.0909,0,3.7426e-05,374,1.7222e-05,59.743,9.277e-06,0.050665,-3.605e-05,-340.52,2.0869
20668,22.452,2,0,3.5744e-05,357.2,1.6919e-05,63.002,8.5412e-06,0.053266,-3.4253e-05,-321.49,2.1003
20669,22.36,2,0.05,7.3506e-07,7.3455,5.6444e-07,4.241,8.2296e-13,1.081e-05,-5.6444e-07,-4.2409,2.0869
20670,22.36,2.2727,0,3.7549e-05,375.23,1.7397e-05,61.433,9.2275e-06,0.051561,-3.6124e-05,-340.7,2.087
20671,22.452,2.1818,0,3.5895e-05,358.7,1.7132e-05,65.056,8.4807e-06,0.054366,-3.4343e-05,-321.7,2.1004
20672,22.36,2.1818,0.05,7.3765e-07,7.3714,5.6642e-07,4.2559,6.0946e-13,1.1389e-05,-5.6643e-07,-4.2559,2.087
20673,22.36,2.4545,0,3.7643e-05,376.17,1.753e-05,62.723,9.1896e-06,0.052176,-3.6181e-05,-340.84,2.087
20674,22.452,2.3636,0,3.6013e-05,359.88,1.7298e-05,66.666,8.433e-06,0.05514,-3.4412e-05,-321.87,2.1005
20675,22.36,2.3636,0.05,7.3977e-07,7.3926,5.6805e-07,4.2681,8.5297e-13,1.1977e-05,-5.6805e-07,-4.2681,2.087
20676,22.36,2.6364,0,3.7708e-05,376.82,1.7624e-05,63.629,9.1628e-06,0.052574,-3.622e-05,-340.94,2.0871
20677,22.452,2.5455,0,3.6099e-05,360.74,1.7421e-05,67.852,8.3976e-06,0.055658,-3.4463e-05,-321.98,2.1005
20678,22.36,2.5455,0.05,7.4138e-07,7.4087,5.6929e-07,4.2774,8.6959e-13,1.1623e-05,-5.6929e-07,-4.2774,2.087
20679,22.36,2.8182,0,3.7747e-05,377.21,1.768e-05,64.166,9.1468e-06,0.052796,-3.6243e-05,-340.99,2.0871
20680,22.452,2.7273,0,3.6156e-05,361.31,1.7501e-05,68.632,8.3743e-06,0.055978,-3.4496e-05,-322.05,2.1005
20681,22.36,2.7273,0.05,7.4247e-07,7.4196,5.7013e-07,4.2837,8.8537e-13,9.8357e-06,-5.7013e-07,-4.2837,2.0871
20682,22.36,3,0,3.776e-05,377.34,1.7698e-05,64.344,9.1415e-06,0.052868,-3.6251e-05,-341.01,2.0871
20683,22.452,2.9091,0,3.6184e-05,361.59,1.7541e-05,69.019,8.3627e-06,0.05613,-3.4512e-05,-322.09,2.1005
20684,22.36,2.9091,0.05,7.4302e-07,7.4251,5.7055e-07,4.2869,9.0154e-13,1.1861e-05,-5.7055e-07,-4.2869,2.0871
20685,22.36,3.1818,0,3.7747e-05,377.21,1.768e-05,64.166,9.1468e-06,0.052797,-3.6243e-05,-340.99,2.0871
20686,22.452,3.0909,0,3.6184e-05,361.59,1.7541e-05,69.019,8.3627e-06,0.05613,-3.4512e-05,-322.09,2.1005
20687,22.36,3.0909,0.05,7.4302e-07,7.4251,5.7055e-07,4.2869,1.372e-12,1.2933e-05,-5.7055e-07,-4.2869,2.0871
20688,22.36,3.3636,0,3.7708e-05,376.82,1.7624e-05,63.629,9.1628e-06,0.052574,-3.622e-05,-340.94,2.0871
20689,22.452,3.2727,0,3.6156e-05,361.31,1.7501e-05,68.632,8.3743e-06,0.055979,-3.4496e-05,-322.05,2.1005
20690,22.36,3.2727,0.05,7.4247e-07,7.4196,5.7013e-07,4.2837,9.3175e-13,1.2568e-05,-5.7013e-07,-4.2837,2.0871
20691,22.36,3.5455,0,3.7643e-05,376.17,1.753e-05,62.723,9.1896e-06,0.052175,-3.6181e-05,-340.84,2.087
20692,22.452,3.4545,0,3.6099e-05,360.74,1.7421e-05,67.852,8.3976e-06,0.055658,-3.4463e-05,-321.98,2.1005
20693,22.36,3.4545,0.05,7.4138e-07,7.4087,5.6929e-07,4.2774,9.4553e-13,1.314e-05,-5.6929e-07,-4.2774,2.087
20694,22.36,3.7273,0,3.7549e-05,375.23,1.7397e-05,61.433,9.2275e-06,0.051561,-3.6124e-05,-340.7,2.087
20695,22.452,3.6364,0,3.6013e-05,359.88,1.7298e-05,66.666,8.433e-06,0.05514,-3.4412e-05,-321.87,2.1005
20696,22.36,3.6364,0.05,7.3977e-07,7.3926,5.6805e-07,4.2681,9.5627e-13,1.4172e-05,-5.6805e-07,-4.2681,2.087
20697,22.36,3.9091,0,3.7426e-05,374,1.7222e-05,59.743,9.277e-06,0.050664,-3.605e-05,-340.52,2.0869
20698,22.452,3.8182,0,3.5895e-05,358.7,1.7132e-05,65.056,8.4807e-06,0.054366,-3.4343e-05,-321.7,2.1004
20699,22.36,3.8182,0.05,7.3765e-07,7.3714,5.6642e-07,4.2559,1.1955e-12,1.3311e-05,-5.6643e-07,-4.2559,2.087
20700,22.36,4.0909,0,3.7272e-05,372.47,1.7002e-05,57.633,9.3384e-06,0.049391,-3.5955e-05,-340.27,2.0869
20701,22.452,4,0,3.5744e-05,357.2,1.6919e-05,63.002,8.5412e-06,0.053264,-3.4253e-05,-321.49,2.1003
20702,22.36,4,0.05,7.3506e-07,7.3455,5.6444e-07,4.2409,1.4312e-12,1.2881e-05,-5.6444e-07,-4.2409,2.0869
20703,22.36,4.2727,0,3.7087e-05,370.61,1.6737e-05,55.086,9.4123e-06,0.047606,-3.5841e-05,-339.97,2.0868
20704,22.452,4.1818,0,3.5559e-05,355.35,1.6658e-05,60.484,8.6149e-06,0.051715,-3.4142e-05,-321.21,2.1003
20705,22.36,4.1818,0.05,7.3203e-07,7.3153,5.6211e-07,4.2235,9.7802e-13,1.1962e-05,-5.6211e-07,-4.2235,2.0868
20706,22.36,4.4545,0,3.6869e-05,368.44,1.6426e-05,52.094,9.4989e-06,0.045116,-3.5705e-05,-339.6,2.0867
20707,22.452,4.3636,0,3.5339e-05,353.15,1.6346e-05,57.484,8.7023e-06,0.049556,-3.4008e-05,-320.86,2.1002
20708,22.36,4.3636,0.05,7.2862e-07,7.2812,5.5949e-07,4.2038,9.7801e-13,1.3374e-05,-5.5949e-07,-4.2038,2.0867
20709,22.36,4.6364,0,3.6622e-05,365.97,1.6069e-05,48.66,9.5983e-06,0.041657,-3.5551e-05,-339.19,2.0866
20710,22.452,4.5455,0,3.5084e-05,350.59,1.5984e-05,53.995,8.8036e-06,0.046547,-3.3851e-05,-320.45,2.1001
20711,22.36,4.5455,0.05,7.2489e-07,7.2439,5.5662e-07,4.1823,9.6952e-13,1.0487e-05,-5.5662e-07,-4.1823,2.0867
20712,22.36,4.8182,0,3.635e-05,363.25,1.5669e-05,44.809,9.7105e-06,0.036809,-3.5379e-05,-338.75,2.0865
20713,22.452,4.7273,0,3.4796e-05,347.72,1.5571e-05,50.026,8.9188e-06,0.042368,-3.3673e-05,-319.98,2.1
20714,22.36,4.7273,0.05,7.209e-07,7.204,5.5356e-07,4.1592,9.5548e-13,1.0885e-05,-5.5356e-07,-4.1592,2.0866
20715,22.36,5,0,3.6061e-05,360.36,1.5234e-05,40.597,9.8349e-06,0.030149,-3.5198e-05,-338.33,2.0864
20716,22.452,4.9091,0,3.4481e-05,344.58,1.5113e-05,45.613,9.0476e-06,0.036429,-3.3478e-05,-319.48,2.0999
20717,22.36,4.9091,0.05,7.1674e-07,7.1624,5.5037e-07,4.1352,1.0357e-12,1.0618e-05,-5.5037e-07,-4.1352,2.0864
20718,22.36,5.1818,0,3.5767e-05,357.43,1.4775e-05,36.116,9.9707e-06,0.020327,-3.5015e-05,-337.99,2.0863
20719,22.452,5.0909,0,3.4151e-05,341.28,1.4619e-05,40.827,9.1894e-06,0.028377,-3.3273e-05,-319.01,2.0998
20720,22.36,5.0909,0.05,7.1249e-07,7.12,5.4711e-07,4.1107,7.0606e-13,8.9121e-06,-5.4711e-07,-4.1107,2.0863
20721,22.36,5.3636,0,3.549e-05,354.65,1.431e-05,31.515,1.0116e-05,0.0084031,-3.4848e-05,-337.84,2.0861
20722,22.452,5.2727,0,3.3821e-05,337.98,1.4104e-05,35.789,9.3425e-06,0.015578,-3.307e-05,-318.65,2.0996
20723,22.36,5.2727,0.05,7.0817e-07,7.0769,5.4379e-07,4.0858,7.6704e-13,8.9256e-06,-5.4379e-07,-4.0858,2.0862
20724,22.36,5.5455,0,3.526e-05,352.35,1.3869e-05,27.026,1.027e-05,-0.019928,-3.4722e-05,-338.07,2.086
20725,22.452,5.4545,0,3.3517e-05,334.94,1.359e-05,30.691,9.5057e-06,0.0027513,-3.2889e-05,-318.53,2.0995
20726,22.36,5.4545,0.05,7.0261e-07,7.0213,5.3952e-07,4.0537,7.6366e-13,8.1958e-06,-5.3952e-07,-4.0537,2.086
20727,22.36,5.7273,0,3.5237e-05,352.13,1.3592e-05,23.711,1.0431e-05,-0.038579,-3.4774e-05,-339.69,2.0858
20728,22.452,5.6364,0,3.3283e-05,332.6,1.312e-05,25.847,9.6742e-06,-0.045394,-3.2768e-05,-318.94,2.0994
20729,22.36,5.6364,0.05,6.7675e-07,6.7628,5.1966e-07,3.9045,6.3103e-13,8.086e-06,-5.1966e-07,-3.9045,2.0859
20730,22.452,5.8182,0,3.342e-05,333.97,1.2952e-05,23.242,9.855e-06,-0.027231,-3.2964e-05,-321.75,2.0992
20731,22.36,5.8182,0.05,3.4262e-07,3.4238,2.6309e-07,1.9767,4.0659e-13,5.8392e-06,-2.6309e-07,-1.9767,2.0857
20732,22.36,5.9091,0,3.4423e-05,343.99,1.2637e-05,15.398,1.0589e-05,0.0060251,-3.4135e-05,-336.03,2.0857
20733,22.543,0.27273,0,3.1422e-05,314.01,1.2444e-05,25.104,9.0971e-06,-0.044761,-3.092e-05,-300.72,2.1127
20734,22.634,0.18182,0,2.9578e-05,295.58,1.1755e-05,24.141,8.5376e-06,-0.034392,-2.9094e-05,-282.78,2.1261
20735,22.543,0.18182,0.05,3.6231e-07,3.6206,2.7821e-07,2.0904,8.2768e-14,6.4247e-06,-2.7821e-07,-2.0903,2.1127
20736,22.543,0.090909,0,3.0553e-05,305.32,1.141e-05,16.009,9.28e-06,0.0085433,-3.025e-05,-297,2.1126
20737,22.543,0.45455,0,3.1523e-05,315.01,1.2826e-05,29.398,8.9105e-06,-0.021153,-3.092e-05,-299.29,2.1129
20738,22.634,0.36364,0,2.952e-05,295,1.2032e-05,27.767,8.3294e-06,-0.050421,-2.895e-05,-280.15,2.1263
20739,22.543,0.36364,0.05,6.7726e-07,6.768,5.2005e-07,3.9075,5.8653e-13,1.0827e-05,-5.2005e-07,-3.9075,2.1128
20740,22.543,0.63636,0,3.1837e-05,318.15,1.3373e-05,34.88,8.7319e-06,0.011441,-3.11e-05,-299.27,2.113
20741,22.634,0.54545,0,2.9844e-05,298.23,1.2615e-05,33.671,8.1339e-06,0.0054839,-2.9128e-05,-279.97,2.1264
20742,22.543,0.54545,0.05,7.0235e-07,7.0187,5.3932e-07,4.0523,8.4165e-13,1.2885e-05,-5.3932e-07,-4.0522,2.113
20743,22.543,0.81818,0,3.2198e-05,321.75,1.394e-05,40.435,8.5614e-06,0.02475,-3.1318e-05,-299.62,2.1132
20744,22.634,0.72727,0,3.0239e-05,302.19,1.3239e-05,39.8,7.9442e-06,0.020018,-2.9365e-05,-280.31,2.1266
20745,22.543,0.72727,0.05,7.0823e-07,7.0774,5.4383e-07,4.0861,6.3489e-13,1.2866e-05,-5.4383e-07,-4.0861,2.1131
20746,22.543,1,0,3.2568e-05,325.46,1.4492e-05,45.793,8.4022e-06,0.03552,-3.1546e-05,-300.12,2.1133
20747,22.634,0.90909,0,3.0655e-05,306.34,1.3855e-05,45.788,7.7658e-06,0.034206,-2.9618e-05,-280.85,2.1267
20748,22.543,0.90909,0.05,7.1286e-07,7.1237,5.4739e-07,4.1129,9.7731e-13,1.4147e-05,-5.4739e-07,-4.1129,2.1132
20749,22.543,1.1818,0,3.2927e-05,329.04,1.501e-05,50.792,8.2561e-06,0.042689,-3.1767e-05,-300.67,2.1134
20750,22.634,1.0909,0,3.1061e-05,310.4,1.4439e-05,51.421,7.6009e-06,0.042916,-2.9865e-05,-281.46,2.1268
20751,22.543,1.0909,0.05,7.1734e-07,7.1685,5.5083e-07,4.1387,8.1028e-13,1.5723e-05,-5.5083e-07,-4.1387,2.1133
20752,22.543,1.3636,0,3.3259e-05,332.36,1.5482e-05,55.332,8.1242e-06,0.047857,-3.197e-05,-301.21,2.1135
20753,22.634,1.2727,0,3.1442e-05,314.2,1.4974e-05,56.572,7.451e-06,0.04927,-3.0095e-05,-282.05,2.1269
20754,22.543,1.2727,0.05,7.2165e-07,7.2115,5.5414e-07,4.1636,7.8405e-13,1.3265e-05,-5.5414e-07,-4.1636,2.1134
20755,22.543,1.5455,0,3.3557e-05,335.34,1.5901e-05,59.362,8.0071e-06,0.051525,-3.2151e-05,-301.68,2.1136
20756,22.634,1.4545,0,3.1786e-05,317.64,1.5451e-05,61.173,7.3169e-06,0.053701,-3.03e-05,-282.58,2.127
20757,22.543,1.4545,0.05,7.257e-07,7.252,5.5725e-07,4.187,7.6593e-13,1.2785e-05,-5.5725e-07,-4.1869,2.1135
20758,22.543,1.7273,0,3.3818e-05,337.95,1.6264e-05,62.863,7.905e-06,0.054163,-3.2307e-05,-302.08,2.1137
20759,22.634,1.6364,0,3.2088e-05,320.66,1.5869e-05,65.199,7.1991e-06,0.056888,-3.0478e-05,-283.03,2.1271
20760,22.543,1.6364,0.05,7.2943e-07,7.2893,5.6011e-07,4.2085,7.7785e-13,1.3286e-05,-5.6011e-07,-4.2084,2.1136
20761,22.543,1.9091,0,3.4039e-05,340.16,1.6573e-05,65.839,7.8177e-06,0.056061,-3.2438e-05,-302.41,2.1138
20762,22.634,1.8182,0,3.2348e-05,323.26,1.6226e-05,68.651,7.0974e-06,0.059176,-3.0628e-05,-283.4,2.1272
20763,22.543,1.8182,0.05,7.3278e-07,7.3227,5.6268e-07,4.2278,3.3411e-13,1.1448e-05,-5.6268e-07,-4.2278,2.1137
20764,22.543,2.0909,0,3.4223e-05,341.99,1.6828e-05,68.304,7.7449e-06,0.057424,-3.2545e-05,-302.66,2.1138
20765,22.634,2,0,3.2565e-05,325.43,1.6525e-05,71.544,7.0115e-06,0.06083,-3.0752e-05,-283.68,2.1272
20766,22.543,2,0.05,7.3571e-07,7.352,5.6493e-07,4.2447,5.7664e-13,1.0621e-05,-5.6493e-07,-4.2447,2.1138
20767,22.543,2.2727,0,3.4369e-05,343.45,1.7032e-05,70.279,7.6862e-06,0.058391,-3.2629e-05,-302.86,2.1139
20768,22.634,2.1818,0,3.2742e-05,327.19,1.6768e-05,73.902,6.9409e-06,0.062014,-3.0852e-05,-283.9,2.1273
20769,22.543,2.1818,0.05,7.3819e-07,7.3768,5.6684e-07,4.259,8.1731e-13,1.1715e-05,-5.6684e-07,-4.259,2.1138
20770,22.543,2.4545,0,3.448e-05,344.56,1.7187e-05,71.787,7.6411e-06,0.059061,-3.2693e-05,-303,2.1139
20771,22.634,2.3636,0,3.288e-05,328.57,1.6959e-05,75.751,6.8852e-06,0.062852,-3.0929e-05,-284.06,2.1273
20772,22.543,2.3636,0.05,7.402e-07,7.3969,5.6838e-07,4.2706,8.3605e-13,1.3752e-05,-5.6838e-07,-4.2706,2.1139
20773,22.543,2.6364,0,3.4558e-05,345.34,1.7297e-05,72.848,7.6092e-06,0.059498,-3.2737e-05,-303.09,2.1139
20774,22.634,2.5455,0,3.2981e-05,329.58,1.7099e-05,77.113,6.8439e-06,0.063419,-3.0985e-05,-284.17,2.1274
20775,22.543,2.5455,0.05,7.4172e-07,7.412,5.6955e-07,4.2794,8.581e-13,1.2967e-05,-5.6955e-07,-4.2793,2.1139
20776,22.543,2.8182,0,3.4605e-05,345.81,1.7361e-05,73.478,7.5901e-06,0.059745,-3.2764e-05,-303.14,2.114
20777,22.634,2.7273,0,3.3047e-05,330.25,1.7191e-05,78.01,6.8166e-06,0.063772,-3.1022e-05,-284.24,2.1274
20778,22.543,2.7273,0.05,7.4274e-07,7.4222,5.7033e-07,4.2852,8.7797e-13,1.2163e-05,-5.7033e-07,-4.2852,2.1139
20779,22.543,3,0,3.462e-05,345.96,1.7383e-05,73.686,7.5838e-06,0.059825,-3.2772e-05,-303.16,2.114
20780,22.634,2.9091,0,3.308e-05,330.58,1.7236e-05,78.455,6.803e-06,0.06394,-3.104e-05,-284.27,2.1274
20781,22.543,2.9091,0.05,7.4325e-07,7.4273,5.7072e-07,4.2882,8.9904e-13,1.2319e-05,-5.7072e-07,-4.2882,2.114
20782,22.543,3.1818,0,3.4605e-05,345.81,1.7361e-05,73.478,7.5901e-06,0.059746,-3.2764e-05,-303.14,2.114
20783,22.634,3.0909,0,3.308e-05,330.58,1.7236e-05,78.455,6.803e-06,0.06394,-3.104e-05,-284.27,2.1274
20784,22.543,3.0909,0.05,7.4325e-07,7.4273,5.7072e-07,4.2882,9.1987e-13,1.2476e-05,-5.7072e-07,-4.2882,2.114
20785,22.543,3.3636,0,3.4558e-05,345.34,1.7297e-05,72.848,7.6092e-06,0.059499,-3.2737e-05,-303.09,2.1139
20786,22.634,3.2727,0,3.3047e-05,330.25,1.7191e-05,78.01,6.8166e-06,0.063772,-3.1022e-05,-284.24,2.1274
20787,22.543,3.2727,0.05,7.4274e-07,7.4222,5.7033e-07,4.2852,9.3979e-13,1.4533e-05,-5.7033e-07,-4.2852,2.1139
20788,22.543,3.5455,0,3.448e-05,344.56,1.7187e-05,71.787,7.6411e-06,0.059062,-3.2693e-05,-303,2.1139
20789,22.634,3.4545,0,3.2981e-05,329.58,1.7099e-05,77.113,6.8439e-06,0.063419,-3.0985e-05,-284.17,2.1274
20790,22.543,3.4545,0.05,7.4172e-07,7.412,5.6955e-07,4.2794,9.5864e-13,1.3719e-05,-5.6955e-07,-4.2793,2.1139
20791,22.543,3.7273,0,3.4369e-05,343.45,1.7032e-05,70.279,7.6862e-06,0.058392,-3.2629e-05,-302.86,2.1139
20792,22.634,3.6364,0,3.288e-05,328.57,1.6959e-05,75.751,6.8852e-06,0.062852,-3.0929e-05,-284.06,2.1273
20793,22.543,3.6364,0.05,7.402e-07,7.3969,5.6838e-07,4.2706,9.7754e-13,1.4809e-05,-5.6838e-07,-4.2706,2.1139
20794,22.543,3.9091,0,3.4223e-05,341.99,1.6828e-05,68.304,7.7449e-06,0.057423,-3.2545e-05,-302.66,2.1138
20795,22.634,3.8182,0,3.2742e-05,327.19,1.6768e-05,73.902,6.9409e-06,0.062014,-3.0852e-05,-283.9,2.1273
20796,22.543,3.8182,0.05,7.3819e-07,7.3768,5.6684e-07,4.259,1.2214e-12,1.4944e-05,-5.6684e-07,-4.259,2.1138
20797,22.543,4.0909,0,3.4039e-05,340.16,1.6573e-05,65.839,7.8177e-06,0.056061,-3.2438e-05,-302.41,2.1138
20798,22.634,4,0,3.2565e-05,325.43,1.6525e-05,71.544,7.0115e-06,0.060828,-3.0752e-05,-283.68,2.1272
20799,22.543,4,0.05,7.3571e-07,7.352,5.6493e-07,4.2447,1.0074e-12,1.5008e-05,-5.6493e-07,-4.2447,2.1138
20800,22.543,4.2727,0,3.3818e-05,337.95,1.6264e-05,62.864,7.905e-06,0.054163,-3.2307e-05,-302.08,2.1137
20801,22.634,4.1818,0,3.2348e-05,323.26,1.6226e-05,68.651,7.0974e-06,0.059176,-3.0628e-05,-283.4,2.1272
20802,22.543,4.1818,0.05,7.3278e-07,7.3227,5.6268e-07,4.2278,7.8801e-13,1.2768e-05,-5.6268e-07,-4.2278,2.1137
20803,22.543,4.4545,0,3.3557e-05,335.34,1.5901e-05,59.362,8.0071e-06,0.051525,-3.2151e-05,-301.68,2.1136
20804,22.634,4.3636,0,3.2088e-05,320.66,1.5869e-05,65.199,7.1991e-06,0.056887,-3.0478e-05,-283.03,2.1271
20805,22.543,4.3636,0.05,7.2943e-07,7.2893,5.6011e-07,4.2085,1.4755e-12,1.3772e-05,-5.6011e-07,-4.2084,2.1136
20806,22.543,4.6364,0,3.3259e-05,332.36,1.5482e-05,55.332,8.1242e-06,0.047858,-3.197e-05,-301.21,2.1135
20807,22.634,4.5455,0,3.1786e-05,317.64,1.5451e-05,61.173,7.3169e-06,0.053701,-3.03e-05,-282.58,2.127
20808,22.543,4.5455,0.05,7.257e-07,7.252,5.5725e-07,4.187,7.9375e-13,1.2835e-05,-5.5725e-07,-4.1869,2.1135
20809,22.543,4.8182,0,3.2927e-05,329.04,1.501e-05,50.792,8.2561e-06,0.042688,-3.1767e-05,-300.67,2.1134
20810,22.634,4.7273,0,3.1442e-05,314.2,1.4974e-05,56.572,7.451e-06,0.049269,-3.0095e-05,-282.05,2.1269
20811,22.543,4.7273,0.05,7.2165e-07,7.2115,5.5414e-07,4.1636,1.0049e-12,1.2333e-05,-5.5414e-07,-4.1636,2.1134
20812,22.543,5,0,3.2568e-05,325.46,1.4492e-05,45.793,8.4022e-06,0.035519,-3.1546e-05,-300.12,2.1133
20813,22.634,4.9091,0,3.1061e-05,310.4,1.4439e-05,51.421,7.6009e-06,0.042914,-2.9865e-05,-281.46,2.1268
20814,22.543,4.9091,0.05,7.1734e-07,7.1685,5.5083e-07,4.1387,6.7269e-13,1.2626e-05,-5.5083e-07,-4.1387,2.1133
20815,22.543,5.1818,0,3.2198e-05,321.75,1.394e-05,40.435,8.5614e-06,0.02475,-3.1318e-05,-299.62,2.1132
20816,22.634,5.0909,0,3.0655e-05,306.34,1.3855e-05,45.788,7.7658e-06,0.034205,-2.9618e-05,-280.85,2.1267
20817,22.543,5.0909,0.05,7.1286e-07,7.1237,5.4739e-07,4.1129,5.5103e-13,9.7654e-06,-5.4739e-07,-4.1129,2.1132
20818,22.543,5.3636,0,3.1837e-05,318.15,1.3373e-05,34.88,8.7319e-06,0.011442,-3.11e-05,-299.27,2.113
20819,22.634,5.2727,0,3.0239e-05,302.19,1.3239e-05,39.8,7.9442e-06,0.020018,-2.9365e-05,-280.31,2.1266
20820,22.543,5.2727,0.05,7.0823e-07,7.0774,5.4383e-07,4.0861,6.2913e-13,1.0856e-05,-5.4383e-07,-4.0861,2.1131
20821,22.543,5.5455,0,3.1523e-05,315.01,1.2826e-05,29.398,8.9105e-06,-0.021152,-3.092e-05,-299.29,2.1129
20822,22.634,5.4545,0,2.9844e-05,298.23,1.2615e-05,33.671,8.1339e-06,0.0054853,-2.9128e-05,-279.97,2.1264
20823,22.543,5.4545,0.05,7.0235e-07,7.0187,5.3932e-07,4.0522,6.8826e-13,9.7948e-06,-5.3932e-07,-4.0522,2.113
20824,22.543,5.7273,0,3.1422e-05,314.01,1.2444e-05,25.104,9.0971e-06,-0.04476,-3.092e-05,-300.72,2.1127
20825,22.634,5.6364,0,2.952e-05,295,1.2032e-05,27.767,8.3294e-06,-0.050419,-2.895e-05,-280.15,2.1263
20826,22.543,5.6364,0.05,6.7726e-07,6.768,5.2005e-07,3.9075,8.7203e-13,1.0971e-05,-5.2005e-07,-3.9075,2.1128
20827,22.634,5.8182,0,2.9578e-05,295.58,1.1755e-05,24.141,8.5376e-06,-0.034391,-2.9094e-05,-282.78,2.1261
20828,22.543,5.8182,0.05,3.6231e-07,3.6206,2.7821e-07,2.0904,6.8049e-13,9.7838e-06,-2.7821e-07,-2.0903,2.1127
20829,22.543,5.9091,0,3.0553e-05,305.32,1.141e-05,16.009,9.28e-06,0.0085438,-3.025e-05,-297,2.1126
20830,22.725,0.27273,0,2.7628e-05,276.09,1.1302e-05,26.502,7.7683e-06,-0.051709,-2.7082e-05,-261.9,2.1397
20831,22.816,0.18182,0,2.5751e-05,257.33,1.0556e-05,24.97,7.227e-06,-0.043372,-2.5235e-05,-243.95,2.1531
20832,22.725,0.18182,0.05,3.848e-07,3.8453,2.9548e-07,2.2201,-7.3775e-14,1.9616e-06,-2.9548e-07,-2.2201,2.1396
20833,22.725,0.090909,0,2.6703e-05,266.85,1.0184e-05,16.582,7.979e-06,0.012382,-2.6382e-05,-258.17,2.1395
20834,22.725,0.45455,0,2.7822e-05,278.03,1.1803e-05,31.913,7.5531e-06,-0.021556,-2.7141e-05,-260.7,2.1398
20835,22.816,0.36364,0,2.5791e-05,257.73,1.096e-05,29.789,6.9879e-06,-0.054889,-2.5155e-05,-241.56,2.1532
20836,22.725,0.36364,0.05,6.7817e-07,6.777,5.2075e-07,3.9127,5.4295e-14,4.0782e-06,-5.2075e-07,-3.9127,2.1397
20837,22.725,0.63636,0,2.8234e-05,282.15,1.2468e-05,38.499,7.3464e-06,0.016012,-2.7381e-05,-260.92,2.14
20838,22.816,0.54545,0,2.6222e-05,262.04,1.1671e-05,36.897,6.7619e-06,0.010251,-2.5399e-05,-241.63,2.1534
20839,22.725,0.54545,0.05,7.0251e-07,7.0202,5.3944e-07,4.0531,3.7387e-13,6.913e-06,-5.3944e-07,-4.0531,2.1399
20840,22.725,0.81818,0,2.869e-05,286.7,1.3145e-05,45.086,7.1488e-06,0.030893,-2.7655e-05,-261.47,2.1401
20841,22.816,0.72727,0,2.6723e-05,267.05,1.2417e-05,44.162,6.5426e-06,0.026794,-2.5696e-05,-242.2,2.1535
20842,22.725,0.72727,0.05,7.0885e-07,7.0837,5.4431e-07,4.0898,3.5106e-13,7.7424e-06,-5.4431e-07,-4.0897,2.14
20843,22.725,1,0,2.9146e-05,291.26,1.3795e-05,51.366,6.9647e-06,0.042697,-2.793e-05,-262.14,2.1402
20844,22.816,0.90909,0,2.7234e-05,272.15,1.314e-05,51.16,6.337e-06,0.042519,-2.6001e-05,-242.93,2.1536
20845,22.725,0.90909,0.05,7.1394e-07,7.1345,5.4822e-07,4.1191,4.7159e-13,8.4335e-06,-5.4822e-07,-4.1191,2.1401
20846,22.725,1.1818,0,2.9578e-05,295.58,1.4397e-05,57.164,6.7959e-06,0.050402,-2.8188e-05,-262.8,2.1403
20847,22.816,1.0909,0,2.7724e-05,277.04,1.3815e-05,57.66,6.1474e-06,0.051929,-2.6289e-05,-243.66,2.1537
20848,22.725,1.0909,0.05,7.1875e-07,7.1826,5.5191e-07,4.1469,6.0036e-13,1.0521e-05,-5.5191e-07,-4.1469,2.1402
20849,22.725,1.3636,0,2.9973e-05,299.53,1.4939e-05,62.385,6.6438e-06,0.055907,-2.8421e-05,-263.4,2.1404
20850,22.816,1.2727,0,2.8173e-05,281.54,1.4425e-05,63.541,5.9757e-06,0.058722,-2.6549e-05,-244.32,2.1538
20851,22.725,1.2727,0.05,7.2326e-07,7.2276,5.5537e-07,4.1729,6.9329e-13,1.0598e-05,-5.5537e-07,-4.1729,2.1404
20852,22.725,1.5455,0,3.0324e-05,303.03,1.5417e-05,66.989,6.509e-06,0.059791,-2.8624e-05,-263.91,2.1405
20853,22.816,1.4545,0,2.8575e-05,285.55,1.4964e-05,68.75,5.8226e-06,0.063425,-2.6777e-05,-244.88,2.1539
20854,22.725,1.4545,0.05,7.274e-07,7.2689,5.5855e-07,4.1967,5.8792e-13,1.0039e-05,-5.5855e-07,-4.1967,2.1405
20855,22.725,1.7273,0,3.0628e-05,306.07,1.5829e-05,70.97,6.3916e-06,0.062588,-2.8797e-05,-264.33,2.1406
20856,22.816,1.6364,0,2.8925e-05,289.05,1.5433e-05,73.281,5.6884e-06,0.066805,-2.6973e-05,-245.34,2.154
20857,22.725,1.6364,0.05,7.3112e-07,7.3061,5.6141e-07,4.2182,7.3591e-13,9.2205e-06,-5.6141e-07,-4.2182,2.1405
20858,22.725,1.9091,0,3.0885e-05,308.64,1.6177e-05,74.343,6.2912e-06,0.064607,-2.8941e-05,-264.66,2.1407
20859,22.816,1.8182,0,2.9224e-05,292.04,1.5832e-05,77.15,5.5727e-06,0.069241,-2.7136e-05,-245.69,2.1541
20860,22.725,1.8182,0.05,7.344e-07,7.3389,5.6393e-07,4.2371,3.0873e-13,8.4055e-06,-5.6393e-07,-4.2371,2.1406
20861,22.725,2.0909,0,3.1097e-05,310.76,1.6464e-05,77.132,6.2075e-06,0.066066,-2.9058e-05,-264.91,2.1407
20862,22.816,2,0,2.9473e-05,294.53,1.6164e-05,80.384,5.4752e-06,0.07101,-2.7271e-05,-245.97,2.1542
20863,22.725,2,0.05,7.3722e-07,7.3672,5.661e-07,4.2534,5.5323e-13,8.5878e-06,-5.661e-07,-4.2534,2.1407
20864,22.725,2.2727,0,3.1267e-05,312.45,1.6694e-05,79.365,6.14e-06,0.067111,-2.9151e-05,-265.09,2.1408
20865,22.816,2.1818,0,2.9675e-05,296.54,1.6434e-05,83.015,5.3951e-06,0.07229,-2.7378e-05,-246.17,2.1542
20866,22.725,2.1818,0.05,7.3958e-07,7.3907,5.6791e-07,4.267,5.7385e-13,7.7906e-06,-5.6791e-07,-4.267,2.1407
20867,22.725,2.4545,0,3.1395e-05,313.74,1.6869e-05,81.069,6.0881e-06,0.067841,-2.922e-05,-265.22,2.1408
20868,22.816,2.3636,0,2.9833e-05,298.12,1.6645e-05,85.077,5.3318e-06,0.073199,-2.746e-05,-246.31,2.1543
20869,22.725,2.3636,0.05,7.4147e-07,7.4096,5.6936e-07,4.2779,8.2389e-13,9.8555e-06,-5.6936e-07,-4.2779,2.1408
20870,22.725,2.6364,0,3.1486e-05,314.64,1.6992e-05,82.269,6.0514e-06,0.068322,-2.9268e-05,-265.31,2.1408
20871,22.816,2.5455,0,2.9949e-05,299.28,1.68e-05,86.596,5.285e-06,0.073824,-2.752e-05,-246.41,2.1543
20872,22.725,2.5455,0.05,7.4289e-07,7.4238,5.7045e-07,4.2861,6.2244e-13,1.0995e-05,-5.7045e-07,-4.2861,2.1408
20873,22.725,2.8182,0,3.1539e-05,315.17,1.7064e-05,82.981,6.0295e-06,0.068592,-2.9297e-05,-265.36,2.1409
20874,22.816,2.7273,0,3.0025e-05,300.04,1.6902e-05,87.596,5.254e-06,0.074212,-2.7559e-05,-246.47,2.1543
20875,22.725,2.7273,0.05,7.4383e-07,7.4332,5.7117e-07,4.2916,8.7362e-13,8.3138e-06,-5.7117e-07,-4.2916,2.1408
20876,22.725,3,0,3.1557e-05,315.35,1.7089e-05,83.217,6.0222e-06,0.06868,-2.9306e-05,-265.37,2.1409
20877,22.816,2.9091,0,3.0062e-05,300.42,1.6953e-05,88.091,5.2386e-06,0.074398,-2.7579e-05,-246.5,2.1543
20878,22.725,2.9091,0.05,7.4431e-07,7.4379,5.7154e-07,4.2943,6.7004e-13,1.04e-05,-5.7154e-07,-4.2943,2.1409
20879,22.725,3.1818,0,3.1539e-05,315.17,1.7064e-05,82.981,6.0295e-06,0.068592,-2.9297e-05,-265.36,2.1409
20880,22.816,3.0909,0,3.0062e-05,300.42,1.6953e-05,88.091,5.2386e-06,0.0744,-2.7579e-05,-246.5,2.1543
20881,22.725,3.0909,0.05,7.4431e-07,7.4379,5.7154e-07,4.2943,2.3955e-13,9.6278e-06,-5.7154e-07,-4.2943,2.1409
20882,22.725,3.3636,0,3.1486e-05,314.64,1.6992e-05,82.269,6.0514e-06,0.06832,-2.9268e-05,-265.31,2.1408
20883,22.816,3.2727,0,3.0025e-05,300.04,1.6902e-05,87.596,5.254e-06,0.074212,-2.7559e-05,-246.47,2.1543
20884,22.725,3.2727,0.05,7.4383e-07,7.4332,5.7117e-07,4.2916,9.4484e-13,1.0755e-05,-5.7117e-07,-4.2916,2.1408
20885,22.725,3.5455,0,3.1395e-05,313.74,1.6869e-05,81.069,6.0881e-06,0.067841,-2.922e-05,-265.22,2.1408
20886,22.816,3.4545,0,2.9949e-05,299.28,1.68e-05,86.596,5.285e-06,0.073824,-2.752e-05,-246.41,2.1543
20887,22.725,3.4545,0.05,7.4289e-07,7.4238,5.7045e-07,4.2861,9.6637e-13,1.0918e-05,-5.7045e-07,-4.2861,2.1408
20888,22.725,3.7273,0,3.1267e-05,312.45,1.6694e-05,79.365,6.14e-06,0.067111,-2.9151e-05,-265.09,2.1408
20889,22.816,3.6364,0,2.9833e-05,298.12,1.6645e-05,85.077,5.3318e-06,0.0732,-2.746e-05,-246.31,2.1543
20890,22.725,3.6364,0.05,7.4147e-07,7.4096,5.6936e-07,4.2779,9.8695e-13,1.1083e-05,-5.6936e-07,-4.2779,2.1408
20891,22.725,3.9091,0,3.1097e-05,310.76,1.6464e-05,77.132,6.2075e-06,0.066066,-2.9058e-05,-264.91,2.1407
20892,22.816,3.8182,0,2.9675e-05,296.54,1.6434e-05,83.015,5.3951e-06,0.07229,-2.7378e-05,-246.17,2.1542
20893,22.725,3.8182,0.05,7.3958e-07,7.3907,5.6791e-07,4.267,1.0115e-12,1.2211e-05,-5.6791e-07,-4.267,2.1407
20894,22.725,4.0909,0,3.0885e-05,308.64,1.6177e-05,74.343,6.2912e-06,0.064606,-2.8941e-05,-264.66,2.1407
20895,22.816,4,0,2.9473e-05,294.53,1.6164e-05,80.384,5.4752e-06,0.071009,-2.7271e-05,-245.97,2.1542
20896,22.725,4,0.05,7.3722e-07,7.3672,5.661e-07,4.2534,1.0245e-12,1.2356e-05,-5.661e-07,-4.2534,2.1407
20897,22.725,4.2727,0,3.0628e-05,306.07,1.5829e-05,70.97,6.3916e-06,0.062587,-2.8797e-05,-264.33,2.1406
20898,22.816,4.1818,0,2.9224e-05,292.04,1.5832e-05,77.15,5.5727e-06,0.06924,-2.7136e-05,-245.69,2.1541
20899,22.725,4.1818,0.05,7.344e-07,7.3389,5.6393e-07,4.2371,8.2062e-13,9.5416e-06,-5.6393e-07,-4.2371,2.1406
20900,22.725,4.4545,0,3.0324e-05,303.03,1.5417e-05,66.989,6.509e-06,0.059791,-2.8624e-05,-263.91,2.1405
20901,22.816,4.3636,0,2.8925e-05,289.05,1.5433e-05,73.282,5.6884e-06,0.066804,-2.6973e-05,-245.34,2.154
20902,22.725,4.3636,0.05,7.3112e-07,7.3061,5.6141e-07,4.2182,1.0519e-12,1.1532e-05,-5.6141e-07,-4.2182,2.1405
20903,22.725,4.6364,0,2.9973e-05,299.53,1.4939e-05,62.385,6.6438e-06,0.055906,-2.8421e-05,-263.4,2.1404
20904,22.816,4.5455,0,2.8575e-05,285.55,1.4964e-05,68.75,5.8226e-06,0.063425,-2.6777e-05,-244.88,2.1539
20905,22.725,4.5455,0.05,7.274e-07,7.2689,5.5855e-07,4.1967,8.3653e-13,1.0849e-05,-5.5855e-07,-4.1967,2.1405
20906,22.725,4.8182,0,2.9578e-05,295.58,1.4397e-05,57.164,6.7959e-06,0.050401,-2.8188e-05,-262.8,2.1403
20907,22.816,4.7273,0,2.8173e-05,281.54,1.4425e-05,63.541,5.9757e-06,0.058721,-2.6549e-05,-244.32,2.1538
20908,22.725,4.7273,0.05,7.2326e-07,7.2276,5.5537e-07,4.1729,1.0369e-12,1.0516e-05,-5.5537e-07,-4.1729,2.1404
20909,22.725,5,0,2.9146e-05,291.26,1.3795e-05,51.366,6.9647e-06,0.042697,-2.793e-05,-262.14,2.1402
20910,22.816,4.9091,0,2.7724e-05,277.04,1.3815e-05,57.66,6.1474e-06,0.051929,-2.6289e-05,-243.66,2.1537
20911,22.725,4.9091,0.05,7.1875e-07,7.1826,5.5191e-07,4.1469,9.6058e-13,1.0535e-05,-5.5191e-07,-4.1469,2.1402
20912,22.725,5.1818,0,2.869e-05,286.7,1.3145e-05,45.086,7.1488e-06,0.030892,-2.7655e-05,-261.47,2.1401
20913,22.816,5.0909,0,2.7234e-05,272.15,1.314e-05,51.16,6.337e-06,0.042518,-2.6001e-05,-242.93,2.1536
20914,22.725,5.0909,0.05,7.1394e-07,7.1345,5.4822e-07,4.1191,5.8606e-13,8.8274e-06,-5.4822e-07,-4.1191,2.1401
20915,22.725,5.3636,0,2.8234e-05,282.15,1.2468e-05,38.499,7.3464e-06,0.016012,-2.7381e-05,-260.92,2.14
20916,22.816,5.2727,0,2.6723e-05,267.05,1.2417e-05,44.162,6.5426e-06,0.026792,-2.5696e-05,-242.2,2.1535
20917,22.725,5.2727,0.05,7.0885e-07,7.0837,5.4431e-07,4.0898,5.6517e-13,8.2099e-06,-5.4431e-07,-4.0897,2.14
20918,22.725,5.5455,0,2.7822e-05,278.03,1.1803e-05,31.913,7.5531e-06,-0.021554,-2.7141e-05,-260.7,2.1398
20919,22.816,5.4545,0,2.6222e-05,262.04,1.1671e-05,36.897,6.7619e-06,0.01025,-2.5399e-05,-241.63,2.1534
20920,22.725,5.4545,0.05,7.0251e-07,7.0202,5.3944e-07,4.0531,6.6983e-13,7.9303e-06,-5.3944e-07,-4.0531,2.1399
20921,22.725,5.7273,0,2.7628e-05,276.09,1.1302e-05,26.502,7.7683e-06,-0.051707,-2.7082e-05,-261.9,2.1397
20922,22.816,5.6364,0,2.5791e-05,257.73,1.096e-05,29.789,6.9879e-06,-0.054885,-2.5155e-05,-241.56,2.1532
20923,22.725,5.6364,0.05,6.7817e-07,6.777,5.2075e-07,3.9127,7.7695e-13,9.1506e-06,-5.2075e-07,-3.9127,2.1397
20924,22.816,5.8182,0,2.5751e-05,257.33,1.0556e-05,24.97,7.227e-06,-0.043371,-2.5235e-05,-243.95,2.1531
20925,22.725,5.8182,0.05,3.848e-07,3.8453,2.9548e-07,2.2201,7.2688e-13,9.0181e-06,-2.9548e-07,-2.2201,2.1396
20926,22.725,5.9091,0,2.6703e-05,266.85,1.0184e-05,16.581,7.979e-06,0.01238,-2.6382e-05,-258.17,2.1395
20927,22.907,0.27273,0,2.3859e-05,238.43,1.0168e-05,27.918,6.4449e-06,-0.058943,-2.3262e-05,-223.26,2.1666
20928,22.998,0.18182,0,2.1941e-05,219.26,9.3545e-06,25.717,5.9245e-06,-0.055436,-2.1391e-05,-205.29,2.18
20929,22.907,0.18182,0.05,4.1047e-07,4.1019,3.1519e-07,2.3682,2.4853e-13,4.7689e-06,-3.1519e-07,-2.3682,2.1665
20930,22.907,0.090909,0,2.2877e-05,228.61,8.9617e-06,17.104,6.6878e-06,0.018728,-2.2538e-05,-219.57,2.1665
20931,22.907,0.45455,0,2.4169e-05,241.53,1.0809e-05,34.629,6.1971e-06,-0.019916,-2.3393e-05,-222.35,2.1668
20932,22.998,0.36364,0,2.2107e-05,220.92,9.9117e-06,31.967,5.6493e-06,-0.05891,-2.139e-05,-203.22,2.1802
20933,22.907,0.36364,0.05,6.7964e-07,6.7917,5.2188e-07,3.9212,-1.0439e-14,4.2742e-06,-5.2188e-07,-3.9212,2.1667
20934,22.907,0.63636,0,2.4699e-05,246.82,1.1607e-05,42.462,5.9585e-06,0.023583,-2.3701e-05,-222.83,2.1669
20935,22.998,0.54545,0,2.2671e-05,226.55,1.0772e-05,40.47,5.3882e-06,0.017358,-2.1709e-05,-203.58,2.1803
20936,22.907,0.54545,0.05,7.0333e-07,7.0285,5.4007e-07,4.0579,2.2386e-13,8.4562e-06,-5.4007e-07,-4.0579,2.1668
20937,22.907,0.81818,0,2.5263e-05,252.46,1.2402e-05,50.167,5.731e-06,0.040266,-2.4033e-05,-223.59,2.167
20938,22.998,0.72727,0,2.3296e-05,232.8,1.1651e-05,48.989,5.1355e-06,0.036218,-2.2072e-05,-204.39,2.1804
20939,22.907,0.72727,0.05,7.1036e-07,7.0987,5.4547e-07,4.0984,4.7918e-13,1.0385e-05,-5.4547e-07,-4.0984,2.1669
20940,22.907,1,0,2.5813e-05,257.96,1.3153e-05,57.405,5.5199e-06,0.053204,-2.4353e-05,-224.4,2.1671
20941,22.998,0.90909,0,2.3914e-05,238.98,1.2486e-05,57.049,4.9001e-06,0.053657,-2.2427e-05,-205.27,2.1805
20942,22.907,0.90909,0.05,7.1603e-07,7.1554,5.4983e-07,4.1312,5.9375e-13,1.081e-05,-5.4982e-07,-4.1312,2.1671
20943,22.907,1.1818,0,2.6325e-05,263.07,1.3837e-05,64.002,5.3274e-06,0.061485,-2.4645e-05,-225.14,2.1672
20944,22.998,1.0909,0,2.4492e-05,244.75,1.325e-05,64.419,4.6844e-06,0.063821,-2.2751e-05,-206.08,2.1807
20945,22.907,1.0909,0.05,7.2123e-07,7.2074,5.5382e-07,4.1612,3.9292e-13,9.9061e-06,-5.5382e-07,-4.1612,2.1672
20946,22.907,1.3636,0,2.6785e-05,267.66,1.4446e-05,69.881,5.1547e-06,0.067355,-2.4903e-05,-225.77,2.1673
20947,22.998,1.2727,0,2.5014e-05,249.97,1.3931e-05,71.004,4.4903e-06,0.071097,-2.3038e-05,-206.76,2.1808
20948,22.907,1.2727,0.05,7.2595e-07,7.2545,5.5744e-07,4.1884,4.1903e-13,1.0809e-05,-5.5744e-07,-4.1884,2.1673
20949,22.907,1.5455,0,2.7189e-05,271.7,1.4978e-05,75.024,5.0022e-06,0.071486,-2.5124e-05,-226.28,2.1674
20950,22.998,1.4545,0,2.5474e-05,254.56,1.4527e-05,76.783,4.3182e-06,0.076111,-2.3284e-05,-207.31,2.1809
20951,22.907,1.4545,0.05,7.3014e-07,7.2964,5.6066e-07,4.2126,3.1374e-13,9.5802e-06,-5.6066e-07,-4.2126,2.1674
20952,22.907,1.7273,0,2.7536e-05,275.17,1.5433e-05,79.446,4.8697e-06,0.074465,-2.531e-05,-226.69,2.1675
20953,22.998,1.6364,0,2.5872e-05,258.54,1.5041e-05,81.774,4.1679e-06,0.079723,-2.3492e-05,-207.74,2.1809
20954,22.907,1.6364,0.05,7.3381e-07,7.3331,5.6348e-07,4.2338,2.6896e-13,1.0935e-05,-5.6348e-07,-4.2338,2.1675
20955,22.907,1.9091,0,2.7829e-05,278.09,1.5817e-05,83.179,4.7568e-06,0.076629,-2.5464e-05,-226.99,2.1676
20956,22.998,1.8182,0,2.6209e-05,261.91,1.5476e-05,86.016,4.0388e-06,0.082339,-2.3665e-05,-208.07,2.181
20957,22.907,1.8182,0.05,7.3698e-07,7.3647,5.6591e-07,4.252,2.9563e-13,7.4002e-06,-5.6591e-07,-4.252,2.1675
20958,22.907,2.0909,0,2.8069e-05,280.5,1.6133e-05,86.257,4.6628e-06,0.078205,-2.5589e-05,-227.22,2.1676
20959,22.998,2,0,2.649e-05,264.72,1.5837e-05,89.55,3.9302e-06,0.084252,-2.3805e-05,-208.31,2.1811
20960,22.907,2,0.05,7.3965e-07,7.3914,5.6796e-07,4.2674,7.7762e-13,8.5423e-06,-5.6796e-07,-4.2674,2.1676
20961,22.907,2.2727,0,2.8261e-05,282.42,1.6384e-05,88.719,4.587e-06,0.079341,-2.5686e-05,-227.38,2.1677
20962,22.998,2.1818,0,2.6717e-05,266.99,1.613e-05,92.421,3.8412e-06,0.085648,-2.3917e-05,-208.48,2.1811
20963,22.907,2.1818,0.05,7.4185e-07,7.4134,5.6965e-07,4.2801,7.9689e-13,8.7196e-06,-5.6965e-07,-4.2801,2.1677
20964,22.907,2.4545,0,2.8407e-05,283.87,1.6576e-05,90.596,4.5288e-06,0.080141,-2.576e-05,-227.5,2.1677
20965,22.998,2.3636,0,2.6895e-05,268.76,1.6359e-05,94.667,3.7711e-06,0.086648,-2.4003e-05,-208.6,2.1812
20966,22.907,2.3636,0.05,7.4359e-07,7.4307,5.7098e-07,4.2901,5.954e-13,8.8922e-06,-5.7098e-07,-4.2901,2.1677
20967,22.907,2.6364,0,2.8509e-05,284.89,1.671e-05,91.916,4.4877e-06,0.080671,-2.5811e-05,-227.57,2.1678
20968,22.998,2.5455,0,2.7025e-05,270.06,1.6527e-05,96.321,3.7191e-06,0.087337,-2.4066e-05,-208.68,2.1812
20969,22.907,2.5455,0.05,7.4488e-07,7.4436,5.7197e-07,4.2976,8.4755e-13,1.0026e-05,-5.7197e-07,-4.2976,2.1677
20970,22.907,2.8182,0,2.857e-05,285.5,1.679e-05,92.7,4.4632e-06,0.080973,-2.584e-05,-227.61,2.1678
20971,22.998,2.7273,0,2.711e-05,270.92,1.6637e-05,97.409,3.6847e-06,0.087769,-2.4107e-05,-208.72,2.1812
20972,22.907,2.7273,0.05,7.4573e-07,7.4522,5.7263e-07,4.3025,8.7219e-13,9.2574e-06,-5.7263e-07,-4.3025,2.1678
20973,22.907,3,0,2.859e-05,285.7,1.6816e-05,92.96,4.455e-06,0.081072,-2.585e-05,-227.62,2.1678
20974,22.998,2.9091,0,2.7153e-05,271.34,1.6692e-05,97.949,3.6677e-06,0.087977,-2.4127e-05,-208.75,2.1812
20975,22.907,2.9091,0.05,7.4616e-07,7.4565,5.7296e-07,4.305,4.421e-13,1.1349e-05,-5.7296e-07,-4.305,2.1678
20976,22.907,3.1818,0,2.857e-05,285.5,1.679e-05,92.7,4.4632e-06,0.080974,-2.584e-05,-227.61,2.1678
20977,22.998,3.0909,0,2.7153e-05,271.34,1.6692e-05,97.949,3.6677e-06,0.087978,-2.4127e-05,-208.75,2.1812
20978,22.907,3.0909,0.05,7.4616e-07,7.4565,5.7296e-07,4.305,4.6744e-13,9.632e-06,-5.7296e-07,-4.305,2.1678
20979,22.907,3.3636,0,2.8509e-05,284.89,1.671e-05,91.916,4.4877e-06,0.080671,-2.5811e-05,-227.57,2.1678
20980,22.998,3.2727,0,2.711e-05,270.92,1.6637e-05,97.409,3.6847e-06,0.08777,-2.4107e-05,-208.72,2.1812
20981,22.907,3.2727,0.05,7.4573e-07,7.4522,5.7263e-07,4.3025,7.1942e-13,1.1723e-05,-5.7263e-07,-4.3025,2.1678
20982,22.907,3.5455,0,2.8407e-05,283.87,1.6576e-05,90.596,4.5288e-06,0.080142,-2.576e-05,-227.5,2.1677
20983,22.998,3.4545,0,2.7025e-05,270.06,1.6527e-05,96.321,3.7191e-06,0.087337,-2.4066e-05,-208.68,2.1812
20984,22.907,3.4545,0.05,7.4488e-07,7.4436,5.7197e-07,4.2976,9.6993e-13,1.19e-05,-5.7197e-07,-4.2976,2.1677
20985,22.907,3.7273,0,2.8261e-05,282.42,1.6384e-05,88.719,4.587e-06,0.079341,-2.5686e-05,-227.38,2.1677
20986,22.998,3.6364,0,2.6895e-05,268.76,1.6359e-05,94.667,3.771e-06,0.086648,-2.4003e-05,-208.6,2.1812
20987,22.907,3.6364,0.05,7.4359e-07,7.4307,5.7098e-07,4.2901,7.6556e-13,1.1126e-05,-5.7098e-07,-4.2901,2.1677
20988,22.907,3.9091,0,2.8069e-05,280.5,1.6133e-05,86.257,4.6628e-06,0.078204,-2.5589e-05,-227.22,2.1676
20989,22.998,3.8182,0,2.6717e-05,266.99,1.613e-05,92.421,3.8412e-06,0.085648,-2.3917e-05,-208.48,2.1811
20990,22.907,3.8182,0.05,7.4185e-07,7.4134,5.6965e-07,4.2801,7.9162e-13,1.3218e-05,-5.6965e-07,-4.2801,2.1677
20991,22.907,4.0909,0,2.7829e-05,278.09,1.5817e-05,83.179,4.7568e-06,0.076628,-2.5464e-05,-226.99,2.1676
20992,22.998,4,0,2.649e-05,264.72,1.5837e-05,89.55,3.9302e-06,0.084252,-2.3805e-05,-208.31,2.1811
20993,22.907,4,0.05,7.3965e-07,7.3914,5.6796e-07,4.2674,1.0362e-12,1.2404e-05,-5.6796e-07,-4.2674,2.1676
20994,22.907,4.2727,0,2.7536e-05,275.17,1.5433e-05,79.446,4.8697e-06,0.074464,-2.531e-05,-226.69,2.1675
20995,22.998,4.1818,0,2.6209e-05,261.91,1.5476e-05,86.016,4.0388e-06,0.082338,-2.3665e-05,-208.07,2.181
20996,22.907,4.1818,0.05,7.3698e-07,7.3647,5.6591e-07,4.252,1.0556e-12,1.0646e-05,-5.6591e-07,-4.252,2.1675
20997,22.907,4.4545,0,2.7189e-05,271.7,1.4978e-05,75.024,5.0022e-06,0.071485,-2.5124e-05,-226.28,2.1674
20998,22.998,4.3636,0,2.5872e-05,258.54,1.5041e-05,81.774,4.1679e-06,0.079721,-2.3492e-05,-207.74,2.1809
20999,22.907,4.3636,0.05,7.3381e-07,7.3331,5.6348e-07,4.2338,1.0685e-12,1.2671e-05,-5.6348e-07,-4.2338,2.1675
21000,22.907,4.6364,0,2.6785e-05,267.66,1.4446e-05,69.881,5.1547e-06,0.067355,-2.4903e-05,-225.77,2.1673
21001,22.998,4.5455,0,2.5474e-05,254.56,1.4527e-05,76.783,4.3182e-06,0.076112,-2.3284e-05,-207.31,2.1809
21002,22.907,4.5455,0.05,7.3014e-07,7.2964,5.6066e-07,4.2126,7.3412e-13,1.0855e-05,-5.6066e-07,-4.2126,2.1674
21003,22.907,4.8182,0,2.6325e-05,263.07,1.3837e-05,64.002,5.3274e-06,0.061484,-2.4645e-05,-225.14,2.1672
21004,22.998,4.7273,0,2.5014e-05,249.97,1.3931e-05,71.004,4.4903e-06,0.071097,-2.3038e-05,-206.76,2.1808
21005,22.907,4.7273,0.05,7.2595e-07,7.2545,5.5744e-07,4.1884,9.667e-13,1.082e-05,-5.5744e-07,-4.1884,2.1673
21006,22.907,5,0,2.5813e-05,257.96,1.3153e-05,57.405,5.5199e-06,0.053203,-2.4353e-05,-224.4,2.1671
21007,22.998,4.9091,0,2.4492e-05,244.75,1.325e-05,64.419,4.6844e-06,0.06382,-2.2751e-05,-206.08,2.1807
21008,22.907,4.9091,0.05,7.2123e-07,7.2074,5.5382e-07,4.1612,8.3148e-13,1.0811e-05,-5.5382e-07,-4.1612,2.1672
21009,22.907,5.1818,0,2.5263e-05,252.46,1.2402e-05,50.167,5.731e-06,0.040265,-2.4033e-05,-223.59,2.167
21010,22.998,5.0909,0,2.3914e-05,238.98,1.2486e-05,57.049,4.9001e-06,0.053658,-2.2427e-05,-205.27,2.1805
21011,22.907,5.0909,0.05,7.1603e-07,7.1554,5.4982e-07,4.1312,7.5959e-13,9.58e-06,-5.4982e-07,-4.1312,2.1671
21012,22.907,5.3636,0,2.4699e-05,246.82,1.1607e-05,42.462,5.9585e-06,0.02358,-2.3701e-05,-222.83,2.1669
21013,22.998,5.2727,0,2.3296e-05,232.8,1.1651e-05,48.989,5.1355e-06,0.036217,-2.2072e-05,-204.39,2.1804
21014,22.907,5.2727,0.05,7.1036e-07,7.0987,5.4547e-07,4.0984,6.4923e-13,1.0252e-05,-5.4547e-07,-4.0984,2.1669
21015,22.907,5.5455,0,2.4169e-05,241.53,1.0809e-05,34.629,6.1971e-06,-0.019916,-2.3393e-05,-222.35,2.1668
21016,22.998,5.4545,0,2.2671e-05,226.55,1.0772e-05,40.47,5.3882e-06,0.017355,-2.1709e-05,-203.58,2.1803
21017,22.907,5.4545,0.05,7.0333e-07,7.0285,5.4007e-07,4.0579,5.6107e-13,8.9138e-06,-5.4007e-07,-4.0579,2.1668
21018,22.907,5.7273,0,2.3859e-05,238.43,1.0168e-05,27.918,6.4449e-06,-0.058939,-2.3262e-05,-223.26,2.1666
21019,22.998,5.6364,0,2.2107e-05,220.92,9.9117e-06,31.967,5.6493e-06,-0.058906,-2.139e-05,-203.22,2.1802
21020,22.907,5.6364,0.05,6.7964e-07,6.7917,5.2188e-07,3.9212,7.5977e-13,9.6328e-06,-5.2188e-07,-3.9212,2.1667
21021,22.998,5.8182,0,2.1941e-05,219.26,9.3545e-06,25.717,5.9245e-06,-0.055433,-2.1391e-05,-205.29,2.18
21022,22.907,5.8182,0.05,4.1047e-07,4.1019,3.1519e-07,2.3682,4.4097e-13,7.6254e-06,-3.1519e-07,-2.3682,2.1665
21023,22.907,5.9091,0,2.2877e-05,228.61,8.9617e-06,17.104,6.6878e-06,0.018726,-2.2538e-05,-219.57,2.1665
21024,23.089,0.27273,0,2.0127e-05,201.13,9.0465e-06,29.38,5.1272e-06,-0.068019,-1.9466e-05,-184.85,2.1936
21025,23.18,0.18182,0,1.8157e-05,181.44,8.1509e-06,26.373,4.6317e-06,-0.069268,-1.7564e-05,-166.84,2.207
21026,23.089,0.18182,0.05,4.3986e-07,4.3956,3.3776e-07,2.5378,6.7223e-13,1.0992e-05,-3.3776e-07,-2.5378,2.1935
21027,23.089,0.090909,0,1.908e-05,190.67,7.7425e-06,17.562,5.4088e-06,0.027669,-1.872e-05,-181.27,2.1934
21028,23.089,0.45455,0,2.0585e-05,205.71,9.8537e-06,37.646,4.841e-06,-0.017079,-1.9685e-05,-184.29,2.1937
21029,23.18,0.36364,0,1.8493e-05,184.8,8.9005e-06,34.409,4.3132e-06,-0.058184,-1.7666e-05,-165.2,2.2071
21030,23.089,0.36364,0.05,6.82e-07,6.8153,5.2369e-07,3.9348,1.1988e-13,6.8647e-06,-5.2369e-07,-3.9348,2.1936
21031,23.089,0.63636,0,2.1258e-05,212.43,1.0803e-05,46.896,4.5657e-06,0.033435,-2.0068e-05,-185.05,2.1938
21032,23.18,0.54545,0,1.9223e-05,192.1,9.9355e-06,44.552,4.0103e-06,0.032356,-1.8073e-05,-165.9,2.2073
21033,23.089,0.54545,0.05,7.0526e-07,7.0477,5.4155e-07,4.069,2.8051e-13,1.054e-05,-5.4155e-07,-4.069,2.1938
21034,23.089,0.81818,0,2.1947e-05,219.32,1.1725e-05,55.805,4.3049e-06,0.052139,-2.0458e-05,-186.01,2.194
21035,23.18,0.72727,0,1.9994e-05,199.8,1.0959e-05,54.444,3.7197e-06,0.053944,-1.8503e-05,-166.92,2.2074
21036,23.089,0.72727,0.05,7.1323e-07,7.1274,5.4767e-07,4.115,5.162e-13,1.3781e-05,-5.4767e-07,-4.115,2.1939
21037,23.089,1,0,2.26e-05,225.85,1.2576e-05,64.018,4.0648e-06,0.066339,-2.082e-05,-186.91,2.1941
21038,23.18,0.90909,0,2.073e-05,207.16,1.1905e-05,63.59,3.4516e-06,0.073361,-1.8903e-05,-167.89,2.2075
21039,23.089,0.90909,0.05,7.1959e-07,7.1909,5.5255e-07,4.1517,5.6949e-13,1.4696e-05,-5.5255e-07,-4.1516,2.194
21040,23.089,1.1818,0,2.3194e-05,231.78,1.3339e-05,71.39,3.8475e-06,0.07526,-2.114e-05,-187.67,2.1942
21041,23.18,1.0909,0,2.1401e-05,213.87,1.2753e-05,71.8,3.2086e-06,0.084425,-1.9256e-05,-168.71,2.2076
21042,23.089,1.0909,0.05,7.2515e-07,7.2465,5.5683e-07,4.1838,7.8241e-13,1.5603e-05,-5.5683e-07,-4.1838,2.1941
21043,23.089,1.3636,0,2.3721e-05,237.04,1.4009e-05,77.883,3.654e-06,0.081556,-2.1416e-05,-188.29,2.1943
21044,23.18,1.2727,0,2.1997e-05,219.82,1.3498e-05,79.035,2.9919e-06,0.092303,-1.956e-05,-169.36,2.2077
21045,23.089,1.2727,0.05,7.2998e-07,7.2948,5.6054e-07,4.2117,6.3139e-13,1.5837e-05,-5.6054e-07,-4.2116,2.1942
21046,23.089,1.5455,0,2.4178e-05,241.62,1.4588e-05,83.516,3.4841e-06,0.085987,-2.165e-05,-188.76,2.1944
21047,23.18,1.4545,0,2.2516e-05,225.01,1.4144e-05,85.323,2.8011e-06,0.097732,-1.9817e-05,-169.85,2.2078
21048,23.089,1.4545,0.05,7.3413e-07,7.3362,5.6372e-07,4.2356,5.9439e-13,1.1741e-05,-5.6372e-07,-4.2355,2.1943
21049,23.089,1.7273,0,2.4569e-05,245.52,1.5081e-05,88.33,3.3372e-06,0.089201,-2.1844e-05,-189.12,2.1945
21050,23.18,1.6364,0,2.2962e-05,229.46,1.4696e-05,90.717,2.6355e-06,0.10166,-2.0032e-05,-170.22,2.2079
21051,23.089,1.6364,0.05,7.3764e-07,7.3713,5.6641e-07,4.2558,2.2018e-13,1.0575e-05,-5.6641e-07,-4.2558,2.1944
21052,23.089,1.9091,0,2.4897e-05,248.8,1.5495e-05,92.376,3.2124e-06,0.091548,-2.2004e-05,-189.38,2.1945
21053,23.18,1.8182,0,2.3338e-05,233.22,1.5161e-05,95.278,2.4938e-06,0.10452,-2.021e-05,-170.48,2.208
21054,23.089,1.8182,0.05,7.4058e-07,7.4007,5.6868e-07,4.2728,3.4098e-13,1.1547e-05,-5.6868e-07,-4.2728,2.1945
21055,23.089,2.0909,0,2.5166e-05,251.48,1.5834e-05,95.705,3.1088e-06,0.093271,-2.2133e-05,-189.56,2.1946
21056,23.18,2,0,2.365e-05,236.34,1.5546e-05,99.068,2.3751e-06,0.10663,-2.0354e-05,-170.67,2.208
21057,23.089,2,0.05,7.4302e-07,7.425,5.7055e-07,4.2869,3.5551e-13,1.1633e-05,-5.7054e-07,-4.2868,2.1945
21058,23.089,2.2727,0,2.538e-05,253.62,1.6104e-05,98.361,3.0254e-06,0.094526,-2.2233e-05,-189.69,2.1946
21059,23.18,2.1818,0,2.3903e-05,238.86,1.5858e-05,102.14,2.278e-06,0.10818,-2.0468e-05,-170.79,2.2081
21060,23.089,2.1818,0.05,7.4498e-07,7.4447,5.7205e-07,4.2982,5.963e-13,1.2705e-05,-5.7205e-07,-4.2982,2.1946
21061,23.089,2.4545,0,2.5542e-05,255.25,1.6309e-05,100.39,2.9615e-06,0.095415,-2.2309e-05,-189.78,2.1947
21062,23.18,2.3636,0,2.41e-05,240.83,1.6101e-05,104.54,2.2016e-06,0.10929,-2.0556e-05,-170.88,2.2081
21063,23.089,2.3636,0.05,7.4652e-07,7.46,5.7323e-07,4.3071,6.1191e-13,1.2835e-05,-5.7323e-07,-4.307,2.1946
21064,23.089,2.6364,0,2.5657e-05,256.39,1.6453e-05,101.81,2.9163e-06,0.096005,-2.2361e-05,-189.83,2.1947
21065,23.18,2.5455,0,2.4244e-05,242.28,1.6279e-05,106.31,2.1451e-06,0.11007,-2.0619e-05,-170.93,2.2082
21066,23.089,2.5455,0.05,7.4764e-07,7.4713,5.741e-07,4.3136,6.3128e-13,1.298e-05,-5.741e-07,-4.3135,2.1947
21067,23.089,2.8182,0,2.5724e-05,257.06,1.6539e-05,102.65,2.8894e-06,0.096343,-2.2392e-05,-189.86,2.1947
21068,23.18,2.7273,0,2.4339e-05,243.22,1.6396e-05,107.47,2.1078e-06,0.11055,-2.0661e-05,-170.96,2.2082
21069,23.089,2.7273,0.05,7.4839e-07,7.4787,5.7467e-07,4.3178,6.5154e-13,1.217e-05,-5.7467e-07,-4.3178,2.1947
21070,23.089,3,0,2.5747e-05,257.29,1.6567e-05,102.93,2.8805e-06,0.096453,-2.2402e-05,-189.87,2.1947
21071,23.18,2.9091,0,2.4386e-05,243.69,1.6454e-05,108.05,2.0892e-06,0.11079,-2.0681e-05,-170.98,2.2082
21072,23.089,2.9091,0.05,7.4876e-07,7.4824,5.7495e-07,4.32,6.7145e-13,1.4225e-05,-5.7495e-07,-4.3199,2.1947
21073,23.089,3.1818,0,2.5724e-05,257.06,1.6539e-05,102.65,2.8894e-06,0.096344,-2.2392e-05,-189.86,2.1947
21074,23.18,3.0909,0,2.4386e-05,243.69,1.6454e-05,108.05,2.0892e-06,0.11079,-2.0681e-05,-170.98,2.2082
21075,23.089,3.0909,0.05,7.4876e-07,7.4824,5.7495e-07,4.32,2.3822e-13,1.2479e-05,-5.7495e-07,-4.3199,2.1947
21076,23.089,3.3636,0,2.5657e-05,256.39,1.6453e-05,101.81,2.9163e-06,0.096005,-2.2361e-05,-189.83,2.1947
21077,23.18,3.2727,0,2.4339e-05,243.22,1.6396e-05,107.47,2.1078e-06,0.11055,-2.0661e-05,-170.96,2.2082
21078,23.089,3.2727,0.05,7.4839e-07,7.4787,5.7467e-07,4.3178,7.1418e-13,1.4546e-05,-5.7467e-07,-4.3178,2.1947
21079,23.089,3.5455,0,2.5542e-05,255.25,1.6309e-05,100.39,2.9615e-06,0.095413,-2.2309e-05,-189.78,2.1947
21080,23.18,3.4545,0,2.4244e-05,242.28,1.6279e-05,106.31,2.1451e-06,0.11007,-2.0619e-05,-170.93,2.2082
21081,23.089,3.4545,0.05,7.4764e-07,7.4713,5.741e-07,4.3136,5.0692e-13,1.3744e-05,-5.741e-07,-4.3135,2.1947
21082,23.089,3.7273,0,2.538e-05,253.62,1.6104e-05,98.361,3.0254e-06,0.094527,-2.2233e-05,-189.69,2.1946
21083,23.18,3.6364,0,2.41e-05,240.83,1.6101e-05,104.54,2.2016e-06,0.10929,-2.0556e-05,-170.88,2.2081
21084,23.089,3.6364,0.05,7.4652e-07,7.46,5.7323e-07,4.3071,7.5535e-13,1.4857e-05,-5.7323e-07,-4.307,2.1946
21085,23.089,3.9091,0,2.5166e-05,251.48,1.5834e-05,95.705,3.1088e-06,0.093273,-2.2133e-05,-189.56,2.1946
21086,23.18,3.8182,0,2.3903e-05,238.86,1.5858e-05,102.14,2.278e-06,0.10818,-2.0468e-05,-170.79,2.2081
21087,23.089,3.8182,0.05,7.4498e-07,7.4447,5.7205e-07,4.2982,1.0075e-12,1.5043e-05,-5.7205e-07,-4.2982,2.1946
21088,23.089,4.0909,0,2.4897e-05,248.8,1.5495e-05,92.376,3.2124e-06,0.091549,-2.2004e-05,-189.38,2.1945
21089,23.18,4,0,2.365e-05,236.34,1.5546e-05,99.068,2.3751e-06,0.10663,-2.0354e-05,-170.67,2.208
21090,23.089,4,0.05,7.4302e-07,7.425,5.7055e-07,4.2869,1.0245e-12,1.6132e-05,-5.7054e-07,-4.2868,2.1945
21091,23.089,4.2727,0,2.4569e-05,245.52,1.5081e-05,88.33,3.3372e-06,0.0892,-2.1844e-05,-189.12,2.1945
21092,23.18,4.1818,0,2.3338e-05,233.22,1.5161e-05,95.278,2.4938e-06,0.10452,-2.021e-05,-170.48,2.208
21093,23.089,4.1818,0.05,7.4058e-07,7.4007,5.6868e-07,4.2728,5.9205e-13,1.5364e-05,-5.6868e-07,-4.2728,2.1945
21094,23.089,4.4545,0,2.4178e-05,241.62,1.4588e-05,83.516,3.4841e-06,0.085987,-2.165e-05,-188.76,2.1944
21095,23.18,4.3636,0,2.2962e-05,229.46,1.4696e-05,90.717,2.6355e-06,0.10166,-2.0032e-05,-170.22,2.2079
21096,23.089,4.3636,0.05,7.3764e-07,7.3713,5.6641e-07,4.2558,9.4822e-13,1.8276e-05,-5.6641e-07,-4.2558,2.1944
21097,23.089,4.6364,0,2.3721e-05,237.04,1.4009e-05,77.883,3.654e-06,0.081557,-2.1416e-05,-188.29,2.1943
21098,23.18,4.5455,0,2.2516e-05,225.01,1.4144e-05,85.323,2.8011e-06,0.097731,-1.9817e-05,-169.85,2.2078
21099,23.089,4.5455,0.05,7.3413e-07,7.3362,5.6372e-07,4.2356,8.4653e-13,1.4606e-05,-5.6372e-07,-4.2355,2.1943
21100,23.089,4.8182,0,2.3194e-05,231.78,1.3339e-05,71.39,3.8475e-06,0.075259,-2.114e-05,-187.67,2.1942
21101,23.18,4.7273,0,2.1997e-05,219.82,1.3498e-05,79.035,2.9919e-06,0.092303,-1.956e-05,-169.36,2.2077
21102,23.089,4.7273,0.05,7.2998e-07,7.2948,5.6054e-07,4.2117,8.4622e-13,1.6519e-05,-5.6054e-07,-4.2116,2.1942
21103,23.089,5,0,2.26e-05,225.85,1.2576e-05,64.018,4.0648e-06,0.066338,-2.082e-05,-186.91,2.1941
21104,23.18,4.9091,0,2.1401e-05,213.87,1.2753e-05,71.8,3.2086e-06,0.084423,-1.9256e-05,-168.71,2.2076
21105,23.089,4.9091,0.05,7.2515e-07,7.2465,5.5683e-07,4.1838,8.5749e-13,1.6341e-05,-5.5683e-07,-4.1838,2.1941
21106,23.089,5.1818,0,2.1947e-05,219.32,1.1725e-05,55.805,4.3049e-06,0.052139,-2.0458e-05,-186.01,2.194
21107,23.18,5.0909,0,2.073e-05,207.16,1.1905e-05,63.59,3.4516e-06,0.073362,-1.8903e-05,-167.89,2.2075
21108,23.089,5.0909,0.05,7.1959e-07,7.1909,5.5255e-07,4.1517,5.3482e-13,1.3854e-05,-5.5255e-07,-4.1517,2.194
21109,23.089,5.3636,0,2.1258e-05,212.43,1.0803e-05,46.896,4.5657e-06,0.033435,-2.0068e-05,-185.05,2.1938
21110,23.18,5.2727,0,1.9994e-05,199.8,1.0959e-05,54.444,3.7197e-06,0.053943,-1.8503e-05,-166.92,2.2074
21111,23.089,5.2727,0.05,7.1323e-07,7.1274,5.4767e-07,4.115,7.2923e-13,1.3756e-05,-5.4767e-07,-4.115,2.1939
21112,23.089,5.5455,0,2.0585e-05,205.71,9.8537e-06,37.646,4.841e-06,-0.017077,-1.9685e-05,-184.29,2.1937
21113,23.18,5.4545,0,1.9223e-05,192.1,9.9355e-06,44.552,4.0103e-06,0.032354,-1.8073e-05,-165.9,2.2073
21114,23.089,5.4545,0.05,7.0526e-07,7.0477,5.4155e-07,4.069,7.2465e-13,1.2807e-05,-5.4155e-07,-4.069,2.1938
21115,23.089,5.7273,0,2.0127e-05,201.13,9.0465e-06,29.38,5.1272e-06,-0.068016,-1.9466e-05,-184.85,2.1936
21116,23.18,5.6364,0,1.8493e-05,184.8,8.9005e-06,34.409,4.3132e-06,-0.058182,-1.7666e-05,-165.2,2.2071
21117,23.089,5.6364,0.05,6.82e-07,6.8153,5.2369e-07,3.9348,7.8981e-13,1.3566e-05,-5.2369e-07,-3.9348,2.1936
21118,23.18,5.8182,0,1.8157e-05,181.44,8.1509e-06,26.373,4.6317e-06,-0.069266,-1.7564e-05,-166.84,2.207
21119,23.089,5.8182,0.05,4.3986e-07,4.3956,3.3776e-07,2.5378,6.7047e-13,1.1336e-05,-3.3776e-07,-2.5378,2.1935
21120,23.089,5.9091,0,1.908e-05,190.67,7.7425e-06,17.562,5.4088e-06,0.027669,-1.872e-05,-181.27,2.1934
21121,23.271,0.27273,0,1.645e-05,164.39,7.9455e-06,30.955,3.8162e-06,-0.071068,-1.5703e-05,-146.73,2.2206
21122,23.362,0.18182,0,1.4413e-05,144.03,6.9494e-06,26.948,3.3502e-06,-0.094651,-1.3764e-05,-128.69,2.234
21123,23.271,0.18182,0.05,4.7387e-07,4.7355,3.6388e-07,2.734,5.7848e-13,7.2856e-06,-3.6388e-07,-2.734,2.2205
21124,23.271,0.090909,0,1.5323e-05,153.13,6.5277e-06,17.943,4.1459e-06,0.047989,-1.4939e-05,-143.35,2.2204
21125,23.271,0.45455,0,1.7107e-05,170.95,8.9586e-06,41.136,3.4835e-06,-0.0019602,-1.6031e-05,-146.63,2.2207
21126,23.362,0.36364,0,1.4991e-05,149.8,7.9509e-06,37.313,2.9767e-06,-0.061009,-1.4003e-05,-127.64,2.2341
21127,23.271,0.36364,0.05,6.8585e-07,6.8538,5.2665e-07,3.9571,3.3563e-14,5.7059e-06,-5.2665e-07,-3.957,2.2206
21128,23.271,0.63636,0,1.7955e-05,179.42,1.0078e-05,51.998,3.165e-06,0.057814,-1.6496e-05,-147.67,2.2208
21129,23.362,0.54545,0,1.5934e-05,159.23,9.1901e-06,49.39,2.6228e-06,0.045669,-1.4509e-05,-128.67,2.2342
21130,23.271,0.54545,0.05,7.0918e-07,7.0869,5.4456e-07,4.0916,4.5368e-13,8.6865e-06,-5.4456e-07,-4.0916,2.2207
21131,23.271,0.81818,0,1.8786e-05,187.73,1.113e-05,62.167,2.867e-06,0.078963,-1.694e-05,-148.75,2.2209
21132,23.362,0.72727,0,1.6874e-05,168.62,1.0362e-05,60.733,2.2888e-06,0.071075,-1.5e-05,-129.83,2.2344
21133,23.271,0.72727,0.05,7.1828e-07,7.1778,5.5155e-07,4.1441,7.2436e-13,1.2243e-05,-5.5155e-07,-4.1441,2.2209
21134,23.271,1,0,1.955e-05,195.36,1.2077e-05,71.331,2.596e-06,0.094721,-1.7335e-05,-149.66,2.221
21135,23.362,0.90909,0,1.7737e-05,177.24,1.1413e-05,70.926,1.9858e-06,0.092776,-1.5432e-05,-130.78,2.2345
21136,23.271,0.90909,0.05,7.2525e-07,7.2475,5.569e-07,4.1844,5.0871e-13,1.3462e-05,-5.569e-07,-4.1843,2.221
21137,23.271,1.1818,0,2.023e-05,202.16,1.2909e-05,79.418,2.3534e-06,0.1045,-1.7673e-05,-150.37,2.2211
21138,23.362,1.0909,0,1.8504e-05,184.91,1.2334e-05,79.896,1.715e-06,0.10492,-1.5802e-05,-131.51,2.2346
21139,23.271,1.0909,0.05,7.3099e-07,7.3048,5.6131e-07,4.2175,4.4946e-13,1.2497e-05,-5.6131e-07,-4.2174,2.2211
21140,23.271,1.3636,0,2.0823e-05,208.09,1.3631e-05,86.455,2.1394e-06,0.11141,-1.7959e-05,-150.9,2.2212
21141,23.362,1.2727,0,1.9173e-05,191.6,1.3132e-05,87.693,1.4761e-06,0.11361,-1.6114e-05,-132.05,2.2347
21142,23.271,1.2727,0.05,7.357e-07,7.3519,5.6492e-07,4.2446,5.9585e-13,8.9679e-06,-5.6492e-07,-4.2446,2.2212
21143,23.271,1.5455,0,2.1334e-05,213.19,1.425e-05,92.509,1.9529e-06,0.11628,-1.8199e-05,-151.29,2.2213
21144,23.362,1.4545,0,1.9751e-05,197.38,1.3817e-05,94.407,1.2677e-06,0.11961,-1.6374e-05,-132.43,2.2348
21145,23.271,1.4545,0.05,7.3956e-07,7.3905,5.6789e-07,4.2669,2.9021e-13,9.2577e-06,-5.6789e-07,-4.2669,2.2213
21146,23.271,1.7273,0,2.1768e-05,217.53,1.4773e-05,97.653,1.7925e-06,0.11984,-1.8396e-05,-151.57,2.2214
21147,23.362,1.6364,0,2.0245e-05,202.31,1.4398e-05,100.13,1.0879e-06,0.12398,-1.659e-05,-132.7,2.2349
21148,23.271,1.6364,0.05,7.4271e-07,7.422,5.7031e-07,4.2851,3.3581e-13,9.5377e-06,-5.7031e-07,-4.2851,2.2214
21149,23.271,1.9091,0,2.2131e-05,221.15,1.5211e-05,101.96,1.6569e-06,0.12246,-1.8558e-05,-151.76,2.2215
21150,23.362,1.8182,0,2.066e-05,206.45,1.4887e-05,104.95,9.3502e-07,0.1272,-1.6767e-05,-132.88,2.2349
21151,23.271,1.8182,0.05,7.4527e-07,7.4476,5.7228e-07,4.2999,3.3928e-13,7.7428e-06,-5.7228e-07,-4.2999,2.2214
21152,23.271,2.0909,0,2.2428e-05,224.12,1.5569e-05,105.5,1.5447e-06,0.12439,-1.8688e-05,-151.89,2.2215
21153,23.362,2,0,2.1003e-05,209.89,1.529e-05,108.95,8.0727e-07,0.12958,-1.6911e-05,-133,2.235
21154,23.271,2,0.05,7.4734e-07,7.4683,5.7387e-07,4.3118,3.5931e-13,8.8337e-06,-5.7386e-07,-4.3118,2.2215
21155,23.271,2.2727,0,2.2664e-05,226.49,1.5853e-05,108.31,1.4546e-06,0.1258,-1.8789e-05,-151.98,2.2216
21156,23.362,2.1818,0,2.1281e-05,212.66,1.5616e-05,112.18,7.0316e-07,0.13133,-1.7026e-05,-133.08,2.235
21157,23.271,2.1818,0.05,7.4898e-07,7.4846,5.7512e-07,4.3212,6.0248e-13,1.0806e-05,-5.7512e-07,-4.3212,2.2215
21158,23.271,2.4545,0,2.2844e-05,228.28,1.607e-05,110.46,1.3856e-06,0.1268,-1.8865e-05,-152.03,2.2216
21159,23.362,2.3636,0,2.1498e-05,214.83,1.587e-05,114.71,6.2142e-07,0.13261,-1.7114e-05,-133.12,2.2351
21160,23.271,2.3636,0.05,7.5023e-07,7.4972,5.7609e-07,4.3285,1.6102e-13,9.9967e-06,-5.7609e-07,-4.3285,2.2216
21161,23.271,2.6364,0,2.297e-05,229.54,1.6221e-05,111.96,1.3369e-06,0.12748,-1.8918e-05,-152.06,2.2216
21162,23.362,2.5455,0,2.1657e-05,216.42,1.6057e-05,116.56,5.6102e-07,0.13349,-1.7177e-05,-133.15,2.2351
21163,23.271,2.5455,0.05,7.5115e-07,7.5063,5.7679e-07,4.3338,6.3493e-13,1.1094e-05,-5.7679e-07,-4.3337,2.2216
21164,23.271,2.8182,0,2.3045e-05,230.29,1.6311e-05,112.86,1.308e-06,0.12786,-1.8949e-05,-152.08,2.2217
21165,23.362,2.7273,0,2.1761e-05,217.46,1.6179e-05,117.78,5.2119e-07,0.13406,-1.7219e-05,-133.16,2.2351
21166,23.271,2.7273,0.05,7.5174e-07,7.5122,5.7724e-07,4.3372,1.9887e-13,9.3204e-06,-5.7724e-07,-4.3372,2.2216
21167,23.271,3,0,2.3069e-05,230.54,1.6341e-05,113.15,1.2984e-06,0.12799,-1.896e-05,-152.08,2.2217
21168,23.362,2.9091,0,2.1813e-05,217.98,1.624e-05,118.39,5.014e-07,0.13433,-1.724e-05,-133.16,2.2351
21169,23.271,2.9091,0.05,7.5204e-07,7.5152,5.7747e-07,4.3389,2.1722e-13,9.4605e-06,-5.7747e-07,-4.3389,2.2217
21170,23.271,3.1818,0,2.3045e-05,230.29,1.6311e-05,112.86,1.308e-06,0.12786,-1.8949e-05,-152.08,2.2217
21171,23.362,3.0909,0,2.1813e-05,217.98,1.624e-05,118.39,5.014e-07,0.13432,-1.724e-05,-133.16,2.2351
21172,23.271,3.0909,0.05,7.5204e-07,7.5152,5.7747e-07,4.3389,6.9241e-13,1.0568e-05,-5.7747e-07,-4.3389,2.2217
21173,23.271,3.3636,0,2.297e-05,229.54,1.6221e-05,111.96,1.3369e-06,0.12748,-1.8918e-05,-152.06,2.2216
21174,23.362,3.2727,0,2.1761e-05,217.46,1.6179e-05,117.78,5.2119e-07,0.13406,-1.7219e-05,-133.16,2.2351
21175,23.271,3.2727,0.05,7.5174e-07,7.5122,5.7724e-07,4.3372,7.1259e-13,1.2627e-05,-5.7724e-07,-4.3372,2.2216
21176,23.271,3.5455,0,2.2844e-05,228.28,1.607e-05,110.46,1.3856e-06,0.1268,-1.8865e-05,-152.03,2.2216
21177,23.362,3.4545,0,2.1657e-05,216.42,1.6057e-05,116.56,5.6102e-07,0.13349,-1.7177e-05,-133.15,2.2351
21178,23.271,3.4545,0.05,7.5115e-07,7.5063,5.7679e-07,4.3338,9.6029e-13,1.0863e-05,-5.7679e-07,-4.3337,2.2216
21179,23.271,3.7273,0,2.2664e-05,226.49,1.5853e-05,108.31,1.4546e-06,0.1258,-1.8789e-05,-151.98,2.2216
21180,23.362,3.6364,0,2.1498e-05,214.83,1.587e-05,114.71,6.2142e-07,0.13261,-1.7114e-05,-133.12,2.2351
21181,23.271,3.6364,0.05,7.5023e-07,7.4972,5.7609e-07,4.3285,7.5242e-13,1.2921e-05,-5.7609e-07,-4.3285,2.2216
21182,23.271,3.9091,0,2.2428e-05,224.12,1.5569e-05,105.5,1.5447e-06,0.12439,-1.8688e-05,-151.89,2.2215
21183,23.362,3.8182,0,2.1281e-05,212.66,1.5616e-05,112.18,7.0316e-07,0.13133,-1.7026e-05,-133.08,2.235
21184,23.271,3.8182,0.05,7.4898e-07,7.4846,5.7512e-07,4.3212,7.7689e-13,1.5002e-05,-5.7512e-07,-4.3212,2.2215
21185,23.271,4.0909,0,2.2131e-05,221.15,1.5211e-05,101.96,1.6569e-06,0.12245,-1.8558e-05,-151.76,2.2215
21186,23.362,4,0,2.1003e-05,209.89,1.529e-05,108.95,8.0727e-07,0.12958,-1.6911e-05,-133,2.235
21187,23.271,4,0.05,7.4734e-07,7.4683,5.7387e-07,4.3118,1.0204e-12,1.4249e-05,-5.7387e-07,-4.3118,2.2215
21188,23.271,4.2727,0,2.1768e-05,217.53,1.4773e-05,97.653,1.7925e-06,0.11984,-1.8396e-05,-151.57,2.2214
21189,23.362,4.1818,0,2.066e-05,206.45,1.4887e-05,104.95,9.3502e-07,0.12719,-1.6767e-05,-132.88,2.2349
21190,23.271,4.1818,0.05,7.4527e-07,7.4476,5.7228e-07,4.2999,8.1638e-13,1.2456e-05,-5.7228e-07,-4.2999,2.2214
21191,23.271,4.4545,0,2.1334e-05,213.19,1.425e-05,92.509,1.9529e-06,0.11628,-1.8199e-05,-151.29,2.2213
21192,23.362,4.3636,0,2.0245e-05,202.31,1.4398e-05,100.13,1.0879e-06,0.12398,-1.659e-05,-132.7,2.2349
21193,23.271,4.3636,0.05,7.4271e-07,7.422,5.7031e-07,4.2851,9.4581e-13,1.4454e-05,-5.7031e-07,-4.2851,2.2214
21194,23.271,4.6364,0,2.0823e-05,208.09,1.3631e-05,86.455,2.1394e-06,0.1114,-1.7959e-05,-150.9,2.2212
21195,23.362,4.5455,0,1.9751e-05,197.38,1.3817e-05,94.407,1.2677e-06,0.11961,-1.6374e-05,-132.43,2.2348
21196,23.271,4.5455,0.05,7.3956e-07,7.3905,5.6789e-07,4.2669,6.1469e-13,1.2653e-05,-5.6789e-07,-4.2669,2.2213
21197,23.271,4.8182,0,2.023e-05,202.16,1.2909e-05,79.418,2.3534e-06,0.1045,-1.7673e-05,-150.37,2.2211
21198,23.362,4.7273,0,1.9173e-05,191.6,1.3132e-05,87.693,1.4761e-06,0.1136,-1.6114e-05,-132.05,2.2347
21199,23.271,4.7273,0.05,7.357e-07,7.3519,5.6492e-07,4.2446,1.0757e-12,1.2632e-05,-5.6492e-07,-4.2446,2.2212
21200,23.271,5,0,1.955e-05,195.36,1.2077e-05,71.331,2.596e-06,0.094721,-1.7335e-05,-149.66,2.221
21201,23.362,4.9091,0,1.8504e-05,184.91,1.2334e-05,79.896,1.715e-06,0.10492,-1.5802e-05,-131.51,2.2346
21202,23.271,4.9091,0.05,7.3099e-07,7.3048,5.6131e-07,4.2174,8.1787e-13,1.4401e-05,-5.6131e-07,-4.2174,2.2211
21203,23.271,5.1818,0,1.8786e-05,187.73,1.113e-05,62.167,2.867e-06,0.078963,-1.694e-05,-148.75,2.2209
21204,23.362,5.0909,0,1.7737e-05,177.24,1.1413e-05,70.926,1.9858e-06,0.092776,-1.5432e-05,-130.78,2.2345
21205,23.271,5.0909,0.05,7.2525e-07,7.2475,5.569e-07,4.1844,6.4477e-13,1.1029e-05,-5.569e-07,-4.1843,2.221
21206,23.271,5.3636,0,1.7955e-05,179.42,1.0078e-05,51.998,3.165e-06,0.057813,-1.6496e-05,-147.67,2.2208
21207,23.362,5.2727,0,1.6874e-05,168.62,1.0362e-05,60.733,2.2888e-06,0.071074,-1.5e-05,-129.83,2.2344
21208,23.271,5.2727,0.05,7.1828e-07,7.1778,5.5155e-07,4.1441,7.1226e-13,1.1929e-05,-5.5155e-07,-4.1441,2.2209
21209,23.271,5.5455,0,1.7107e-05,170.95,8.9586e-06,41.136,3.4835e-06,-0.0019608,-1.6031e-05,-146.63,2.2207
21210,23.362,5.4545,0,1.5934e-05,159.23,9.1901e-06,49.39,2.6228e-06,0.045668,-1.4509e-05,-128.67,2.2342
21211,23.271,5.4545,0.05,7.0918e-07,7.0869,5.4456e-07,4.0916,5.807e-13,1.118e-05,-5.4456e-07,-4.0916,2.2207
21212,23.271,5.7273,0,1.645e-05,164.39,7.9455e-06,30.955,3.8162e-06,-0.071067,-1.5703e-05,-146.73,2.2206
21213,23.362,5.6364,0,1.4991e-05,149.8,7.9509e-06,37.313,2.9767e-06,-0.061006,-1.4003e-05,-127.64,2.2341
21214,23.271,5.6364,0.05,6.8585e-07,6.8538,5.2665e-07,3.9571,7.2189e-13,1.221e-05,-5.2665e-07,-3.957,2.2206
21215,23.362,5.8182,0,1.4413e-05,144.03,6.9494e-06,26.948,3.3502e-06,-0.094651,-1.3764e-05,-128.69,2.234
21216,23.271,5.8182,0.05,4.7387e-07,4.7355,3.6388e-07,2.734,7.976e-13,1.0114e-05,-3.6388e-07,-2.734,2.2205
21217,23.271,5.9091,0,1.5323e-05,153.13,6.5277e-06,17.943,4.1459e-06,0.047989,-1.4939e-05,-143.35,2.2204
21218,23.453,0.27273,0,1.2869e-05,128.6,6.8853e-06,32.785,2.5096e-06,-0.092287,-1.1993e-05,-109.06,2.2475
21219,23.545,0.18182,0,1.0749e-05,107.41,5.7641e-06,27.54,2.0852e-06,-0.10215,-1.0012e-05,-90.993,2.261
21220,23.453,0.18182,0.05,5.1366e-07,5.133,3.9442e-07,2.9636,2.9773e-13,5.9819e-06,-3.9442e-07,-2.9635,2.2475
21221,23.453,0.090909,0,1.1624e-05,116.16,5.3195e-06,18.215,2.9038e-06,0.063642,-1.1206e-05,-105.95,2.2474
21222,23.453,0.45455,0,1.3801e-05,137.92,8.1578e-06,45.383,2.1174e-06,-0.0024588,-1.2457e-05,-109.51,2.2477
21223,23.545,0.36364,0,1.1698e-05,116.9,7.1142e-06,41.133,1.6379e-06,-0.014515,-1.0442e-05,-90.775,2.2611
21224,23.453,0.36364,0.05,6.929e-07,6.9242,5.3206e-07,3.9977,-2.1975e-13,1.2138e-07,-5.3206e-07,-3.9977,2.2476
21225,23.453,0.63636,0,1.4864e-05,148.54,9.4623e-06,58.032,1.7476e-06,0.067009,-1.3001e-05,-110.75,2.2478
21226,23.545,0.54545,0,1.2908e-05,129,8.5783e-06,55.396,1.222e-06,0.12326,-1.1042e-05,-92.026,2.2612
21227,23.453,0.54545,0.05,7.1683e-07,7.1634,5.5044e-07,4.1358,-5.6278e-14,2.8239e-06,-5.5044e-07,-4.1358,2.2477
21228,23.453,0.81818,0,1.5852e-05,158.41,1.0638e-05,69.439,1.4085e-06,0.091622,-1.3485e-05,-111.82,2.2479
21229,23.545,0.72727,0,1.403e-05,140.2,9.8871e-06,68.13,8.3997e-07,0.15316,-1.1572e-05,-93.102,2.2613
21230,23.453,0.72727,0.05,7.2682e-07,7.2631,5.581e-07,4.1934,5.3137e-13,9.4376e-06,-5.581e-07,-4.1934,2.2478
21231,23.453,1,0,1.6728e-05,167.17,1.1666e-05,79.457,1.1057e-06,0.1092,-1.3896e-05,-112.61,2.248
21232,23.545,0.90909,0,1.502e-05,150.1,1.1022e-05,79.229,5.0146e-07,0.17922,-1.2016e-05,-93.871,2.2615
21233,23.453,0.90909,0.05,7.3389e-07,7.3339,5.6354e-07,4.2342,7.9315e-13,1.0845e-05,-5.6354e-07,-4.2342,2.2479
21234,23.453,1.1818,0,1.7493e-05,174.81,1.2554e-05,88.149,8.3846e-07,0.12007,-1.424e-05,-113.17,2.2481
21235,23.545,1.0909,0,1.5881e-05,158.7,1.1998e-05,88.813,2.0394e-07,0.19362,-1.2386e-05,-94.402,2.2616
21236,23.453,1.0909,0.05,7.3925e-07,7.3874,5.6765e-07,4.2651,6.9603e-13,9.6927e-06,-5.6765e-07,-4.2651,2.2481
21237,23.453,1.3636,0,1.8152e-05,181.4,1.3316e-05,95.629,6.0517e-07,0.12781,-1.4527e-05,-113.57,2.2482
21238,23.545,1.2727,0,1.6623e-05,166.11,1.2834e-05,97.047,-5.5202e-08,0.20402,-1.2694e-05,-94.757,2.2617
21239,23.453,1.2727,0.05,7.4337e-07,7.4285,5.7081e-07,4.2889,1.1786e-13,6.6239e-06,-5.7081e-07,-4.2889,2.2482
21240,23.453,1.5455,0,1.8716e-05,187.03,1.3964e-05,102.02,4.0352e-07,0.13331,-1.4765e-05,-113.83,2.2483
21241,23.545,1.4545,0,1.7258e-05,172.46,1.3546e-05,104.09,-2.7924e-07,0.21124,-1.295e-05,-94.99,2.2617
21242,23.453,1.4545,0.05,7.4657e-07,7.4605,5.7327e-07,4.3073,-1.1189e-13,3.0373e-06,-5.7327e-07,-4.3073,2.2482
21243,23.453,1.7273,0,1.9193e-05,191.79,1.451e-05,107.42,2.3123e-07,0.13736,-1.4961e-05,-114.01,2.2484
21244,23.545,1.6364,0,1.7797e-05,177.85,1.4148e-05,110.06,-4.7113e-07,0.21652,-1.3162e-05,-95.135,2.2618
21245,23.453,1.6364,0.05,7.4907e-07,7.4856,5.7519e-07,4.3218,2.7067e-14,5.0691e-06,-5.7519e-07,-4.3218,2.2483
21246,23.453,1.9091,0,1.959e-05,195.77,1.4965e-05,111.93,8.6191e-08,0.14036,-1.5121e-05,-114.12,2.2484
21247,23.545,1.8182,0,1.8251e-05,182.38,1.4653e-05,115.07,-6.3352e-07,0.22042,-1.3336e-05,-95.221,2.2619
21248,23.453,1.8182,0.05,7.5104e-07,7.5052,5.767e-07,4.3331,1.4345e-13,5.0822e-06,-5.767e-07,-4.3331,2.2484
21249,23.453,2.0909,0,1.9916e-05,199.02,1.5337e-05,115.63,-3.3426e-08,0.14259,-1.5249e-05,-114.18,2.2485
21250,23.545,2,0,1.8625e-05,186.12,1.5069e-05,119.22,-7.6868e-07,0.2233,-1.3478e-05,-95.268,2.262
21251,23.453,2,0.05,7.5257e-07,7.5205,5.7788e-07,4.342,4.4146e-14,4.2526e-06,-5.7788e-07,-4.3419,2.2485
21252,23.453,2.2727,0,2.0175e-05,201.61,1.5632e-05,118.57,-1.2918e-07,0.14423,-1.535e-05,-114.22,2.2485
21253,23.545,2.1818,0,1.8928e-05,189.15,1.5405e-05,122.57,-8.7851e-07,0.22543,-1.3591e-05,-95.288,2.262
21254,23.453,2.1818,0.05,7.5375e-07,7.5323,5.7879e-07,4.3488,1.6539e-13,5.268e-06,-5.7879e-07,-4.3488,2.2485
21255,23.453,2.4545,0,2.0372e-05,203.58,1.5856e-05,120.81,-2.0235e-07,0.1454,-1.5426e-05,-114.24,2.2486
21256,23.545,2.3636,0,1.9164e-05,191.51,1.5667e-05,125.19,-9.6455e-07,0.22698,-1.3678e-05,-95.294,2.2621
21257,23.453,2.3636,0.05,7.5464e-07,7.5412,5.7947e-07,4.3539,4.0469e-13,6.309e-06,-5.7947e-07,-4.3539,2.2486
21258,23.453,2.6364,0,2.051e-05,204.96,1.6014e-05,122.38,-2.5391e-07,0.14619,-1.5478e-05,-114.24,2.2486
21259,23.545,2.5455,0,1.9338e-05,193.25,1.5859e-05,127.11,-1.028e-06,0.22805,-1.3741e-05,-95.291,2.2621
21260,23.453,2.5455,0.05,7.5528e-07,7.5475,5.7996e-07,4.3576,4.1899e-13,6.4128e-06,-5.7996e-07,-4.3576,2.2486
21261,23.453,2.8182,0,2.0592e-05,205.78,1.6107e-05,123.31,-2.8457e-07,0.14664,-1.5509e-05,-114.25,2.2486
21262,23.545,2.7273,0,1.9452e-05,194.39,1.5986e-05,128.38,-1.0699e-06,0.22873,-1.3782e-05,-95.287,2.2621
21263,23.453,2.7273,0.05,7.5568e-07,7.5516,5.8027e-07,4.3599,4.3255e-13,5.5552e-06,-5.8027e-07,-4.3599,2.2486
21264,23.453,3,0,2.0619e-05,206.05,1.6138e-05,123.62,-2.9474e-07,0.14679,-1.552e-05,-114.25,2.2486
21265,23.545,2.9091,0,1.9509e-05,194.95,1.6048e-05,129,-1.0906e-06,0.22906,-1.3803e-05,-95.284,2.2621
21266,23.453,2.9091,0.05,7.5589e-07,7.5536,5.8043e-07,4.3611,4.4686e-13,6.6164e-06,-5.8043e-07,-4.3611,2.2486
21267,23.453,3.1818,0,2.0592e-05,205.78,1.6107e-05,123.31,-2.8457e-07,0.14664,-1.5509e-05,-114.25,2.2486
21268,23.545,3.0909,0,1.9509e-05,194.95,1.6048e-05,129,-1.0906e-06,0.22906,-1.3803e-05,-95.284,2.2621
21269,23.453,3.0909,0.05,7.5589e-07,7.5536,5.8043e-07,4.3611,4.6279e-13,6.7363e-06,-5.8043e-07,-4.3611,2.2486
21270,23.453,3.3636,0,2.051e-05,204.96,1.6014e-05,122.38,-2.5391e-07,0.14619,-1.5478e-05,-114.24,2.2486
21271,23.545,3.2727,0,1.9452e-05,194.39,1.5986e-05,128.38,-1.0699e-06,0.22873,-1.3782e-05,-95.287,2.2621
21272,23.453,3.2727,0.05,7.5568e-07,7.5516,5.8027e-07,4.3599,4.7799e-13,7.8032e-06,-5.8027e-07,-4.3599,2.2486
21273,23.453,3.5455,0,2.0372e-05,203.58,1.5856e-05,120.81,-2.0235e-07,0.1454,-1.5426e-05,-114.24,2.2486
21274,23.545,3.4545,0,1.9338e-05,193.25,1.5859e-05,127.11,-1.028e-06,0.22805,-1.3741e-05,-95.291,2.2621
21275,23.453,3.4545,0.05,7.5528e-07,7.5475,5.7996e-07,4.3576,4.9237e-13,8.8651e-06,-5.7996e-07,-4.3576,2.2486
21276,23.453,3.7273,0,2.0175e-05,201.61,1.5632e-05,118.57,-1.2918e-07,0.14423,-1.535e-05,-114.22,2.2485
21277,23.545,3.6364,0,1.9164e-05,191.51,1.5667e-05,125.19,-9.6455e-07,0.22698,-1.3678e-05,-95.294,2.2621
21278,23.453,3.6364,0.05,7.5464e-07,7.5412,5.7947e-07,4.3539,7.3409e-13,8.9823e-06,-5.7947e-07,-4.3539,2.2486
21279,23.453,3.9091,0,1.9916e-05,199.02,1.5337e-05,115.63,-3.3427e-08,0.14259,-1.5249e-05,-114.18,2.2485
21280,23.545,3.8182,0,1.8928e-05,189.15,1.5405e-05,122.57,-8.7851e-07,0.22544,-1.3591e-05,-95.288,2.262
21281,23.453,3.8182,0.05,7.5375e-07,7.5323,5.7879e-07,4.3488,9.8365e-13,1.1043e-05,-5.7879e-07,-4.3488,2.2485
21282,23.453,4.0909,0,1.959e-05,195.77,1.4965e-05,111.93,8.619e-08,0.14036,-1.5121e-05,-114.12,2.2484
21283,23.545,4,0,1.8625e-05,186.12,1.5069e-05,119.22,-7.6869e-07,0.2233,-1.3478e-05,-95.268,2.262
21284,23.453,4,0.05,7.5257e-07,7.5205,5.7788e-07,4.342,6.5031e-13,9.2361e-06,-5.7788e-07,-4.342,2.2485
21285,23.453,4.2727,0,1.9193e-05,191.79,1.451e-05,107.42,2.3123e-07,0.13736,-1.4961e-05,-114.01,2.2484
21286,23.545,4.1818,0,1.8251e-05,182.38,1.4653e-05,115.07,-6.3353e-07,0.22041,-1.3336e-05,-95.221,2.2619
21287,23.453,4.1818,0.05,7.5104e-07,7.5052,5.767e-07,4.3331,5.6099e-13,1.1279e-05,-5.767e-07,-4.3331,2.2484
21288,23.453,4.4545,0,1.8716e-05,187.03,1.3964e-05,102.02,4.0352e-07,0.13331,-1.4765e-05,-113.83,2.2483
21289,23.545,4.3636,0,1.7797e-05,177.85,1.4148e-05,110.06,-4.7113e-07,0.21652,-1.3162e-05,-95.135,2.2618
21290,23.453,4.3636,0.05,7.4907e-07,7.4856,5.7519e-07,4.3218,7.9188e-13,1.1292e-05,-5.7519e-07,-4.3218,2.2483
21291,23.453,4.6364,0,1.8152e-05,181.4,1.3316e-05,95.629,6.0517e-07,0.12781,-1.4527e-05,-113.57,2.2482
21292,23.545,4.5455,0,1.7258e-05,172.46,1.3546e-05,104.09,-2.7924e-07,0.21124,-1.295e-05,-94.99,2.2617
21293,23.453,4.5455,0.05,7.4657e-07,7.4605,5.7327e-07,4.3073,5.7168e-13,1.0426e-05,-5.7327e-07,-4.3073,2.2482
21294,23.453,4.8182,0,1.7493e-05,174.81,1.2554e-05,88.149,8.3845e-07,0.12007,-1.424e-05,-113.17,2.2481
21295,23.545,4.7273,0,1.6623e-05,166.11,1.2834e-05,97.047,-5.5204e-08,0.20402,-1.2694e-05,-94.757,2.2617
21296,23.453,4.7273,0.05,7.4337e-07,7.4285,5.7081e-07,4.2889,9.1222e-13,1.2315e-05,-5.7081e-07,-4.2889,2.2482
21297,23.453,5,0,1.6728e-05,167.17,1.1666e-05,79.458,1.1057e-06,0.1092,-1.3896e-05,-112.61,2.248
21298,23.545,4.9091,0,1.5881e-05,158.7,1.1998e-05,88.813,2.0394e-07,0.19362,-1.2386e-05,-94.402,2.2616
21299,23.453,4.9091,0.05,7.3925e-07,7.3874,5.6765e-07,4.2651,7.7914e-13,1.1131e-05,-5.6765e-07,-4.2651,2.2481
21300,23.453,5.1818,0,1.5852e-05,158.41,1.0638e-05,69.439,1.4085e-06,0.09162,-1.3485e-05,-111.82,2.2479
21301,23.545,5.0909,0,1.502e-05,150.1,1.1022e-05,79.229,5.0146e-07,0.17922,-1.2016e-05,-93.871,2.2615
21302,23.453,5.0909,0.05,7.3389e-07,7.3339,5.6354e-07,4.2342,6.7926e-13,7.7112e-06,-5.6354e-07,-4.2342,2.2479
21303,23.453,5.3636,0,1.4864e-05,148.54,9.4623e-06,58.032,1.7476e-06,0.067008,-1.3001e-05,-110.75,2.2478
21304,23.545,5.2727,0,1.403e-05,140.2,9.8871e-06,68.13,8.3997e-07,0.15316,-1.1572e-05,-93.102,2.2613
21305,23.453,5.2727,0.05,7.2682e-07,7.2631,5.581e-07,4.1934,6.726e-13,8.9447e-06,-5.581e-07,-4.1934,2.2478
21306,23.453,5.5455,0,1.3801e-05,137.92,8.1578e-06,45.383,2.1174e-06,-0.002457,-1.2457e-05,-109.51,2.2477
21307,23.545,5.4545,0,1.2908e-05,129,8.5783e-06,55.396,1.222e-06,0.12327,-1.1042e-05,-92.026,2.2612
21308,23.453,5.4545,0.05,7.1683e-07,7.1634,5.5044e-07,4.1358,6.5262e-13,8.3356e-06,-5.5044e-07,-4.1358,2.2477
21309,23.453,5.7273,0,1.2869e-05,128.6,6.8853e-06,32.785,2.5096e-06,-0.092285,-1.1993e-05,-109.06,2.2475
21310,23.545,5.6364,0,1.1698e-05,116.9,7.1142e-06,41.133,1.6379e-06,-0.014511,-1.0442e-05,-90.775,2.2611
21311,23.453,5.6364,0.05,6.929e-07,6.9242,5.3206e-07,3.9977,6.9123e-13,8.9496e-06,-5.3206e-07,-3.9977,2.2476
21312,23.545,5.8182,0,1.0749e-05,107.41,5.7641e-06,27.54,2.0852e-06,-0.10215,-1.0012e-05,-90.993,2.261
21313,23.453,5.8182,0.05,5.1366e-07,5.133,3.9442e-07,2.9636,4.4635e-13,7.5347e-06,-3.9442e-07,-2.9636,2.2475
21314,23.453,5.9091,0,1.1624e-05,116.16,5.3195e-06,18.215,2.9038e-06,0.063639,-1.1206e-05,-105.95,2.2474
21315,23.636,0.27273,0,9.489e-06,94.825,5.9143e-06,35.296,1.214e-06,-0.019613,-8.3818e-06,-72.119,2.2745
21316,23.727,0.18182,0,7.3278e-06,73.227,4.6918e-06,28.811,8.1991e-07,-0.2812,-6.395e-06,-54.492,2.288
21317,23.636,0.18182,0.05,5.6466e-07,5.6427,4.3359e-07,3.2578,4.726e-13,7.8582e-06,-4.3359e-07,-3.2578,2.2744
21318,23.636,0.090909,0,8.0318e-06,80.262,4.1309e-06,18.441,1.6992e-06,0.17017,-7.5575e-06,-69.382,2.2744
21319,23.636,0.45455,0,1.0815e-05,108.08,7.5124e-06,50.978,7.4525e-07,0.13221,-9.0073e-06,-73.145,2.2747
21320,23.727,0.36364,0,8.8352e-06,88.291,6.5016e-06,46.757,2.6419e-07,-0.10792,-7.0528e-06,-55.085,2.2881
21321,23.636,0.36364,0.05,7.0943e-07,7.0894,5.4476e-07,4.0931,1.0188e-12,1.2206e-05,-5.4476e-07,-4.0931,2.2746
21322,23.636,0.63636,0,1.2119e-05,121.11,8.9933e-06,65.42,3.1666e-07,0.22666,-9.6051e-06,-74.322,2.2748
21323,23.727,0.54545,0,1.0329e-05,103.22,8.1586e-06,63.056,-2.2235e-07,0.084631,-7.6956e-06,-56.066,2.2882
21324,23.636,0.54545,0.05,7.3226e-07,7.3175,5.6228e-07,4.2248,1.1056e-12,1.4842e-05,-5.6228e-07,-4.2248,2.2747
21325,23.636,0.81818,0,1.3261e-05,132.52,1.0266e-05,77.879,-6.4966e-08,0.25687,-1.0099e-05,-75.134,2.2749
21326,23.727,0.72727,0,1.1619e-05,116.11,9.5601e-06,76.854,-6.5224e-07,0.12258,-8.219e-06,-56.731,2.2883
21327,23.636,0.72727,0.05,7.4152e-07,7.4101,5.6939e-07,4.2782,7.2563e-13,1.268e-05,-5.6939e-07,-4.2782,2.2748
21328,23.636,1,0,1.4245e-05,142.35,1.1351e-05,88.559,-3.9816e-07,0.27956,-1.0504e-05,-75.655,2.275
21329,23.727,0.90909,0,1.2722e-05,127.13,1.0745e-05,88.575,-1.0229e-06,0.15796,-8.6464e-06,-57.122,2.2884
21330,23.636,0.90909,0.05,7.4709e-07,7.4657,5.7367e-07,4.3104,4.45e-13,9.6871e-06,-5.7367e-07,-4.3103,2.2749
21331,23.636,1.1818,0,1.5088e-05,150.78,1.2276e-05,97.694,-6.8759e-07,0.29359,-1.0839e-05,-75.983,2.2751
21332,23.727,1.0909,0,1.3665e-05,136.55,1.175e-05,98.557,-1.343e-06,0.17806,-8.9992e-06,-57.347,2.2885
21333,23.636,1.0909,0.05,7.5092e-07,7.504,5.7661e-07,4.3325,2.7043e-13,9.0062e-06,-5.7661e-07,-4.3324,2.275
21334,23.636,1.3636,0,1.581e-05,157.99,1.3062e-05,105.49,-9.3746e-07,0.30363,-1.1117e-05,-76.182,2.2752
21335,23.727,1.2727,0,1.447e-05,144.6,1.2605e-05,107.07,-1.6186e-06,0.19289,-9.2927e-06,-57.468,2.2886
21336,23.636,1.2727,0.05,7.5363e-07,7.5311,5.7869e-07,4.3481,8.8564e-15,5.8181e-06,-5.7869e-07,-4.348,2.2751
21337,23.636,1.5455,0,1.6423e-05,164.12,1.3729e-05,112.12,-1.1517e-06,0.3108,-1.1348e-05,-76.298,2.2753
21338,23.727,1.4545,0,1.5156e-05,151.45,1.3331e-05,114.31,-1.8548e-06,0.20344,-9.5376e-06,-57.522,2.2887
21339,23.636,1.4545,0.05,7.5557e-07,7.5505,5.8018e-07,4.3593,2.1449e-13,4.6701e-06,-5.8018e-07,-4.3593,2.2752
21340,23.636,1.7273,0,1.6941e-05,169.29,1.4289e-05,117.7,-1.3337e-06,0.31609,-1.1538e-05,-76.357,2.2754
21341,23.727,1.6364,0,1.5737e-05,157.26,1.3945e-05,120.43,-2.0559e-06,0.21131,-9.7415e-06,-57.535,2.2888
21342,23.636,1.6364,0.05,7.5699e-07,7.5647,5.8127e-07,4.3675,7.7475e-14,6.3553e-06,-5.8127e-07,-4.3675,2.2753
21343,23.636,1.9091,0,1.7372e-05,173.6,1.4756e-05,122.36,-1.4862e-06,0.31999,-1.1694e-05,-76.381,2.2754
21344,23.727,1.8182,0,1.6224e-05,162.13,1.4458e-05,125.57,-2.2253e-06,0.2172,-9.9101e-06,-57.523,2.2889
21345,23.636,1.8182,0.05,7.5803e-07,7.5751,5.8207e-07,4.3735,7.0102e-14,4.4173e-06,-5.8207e-07,-4.3735,2.2754
21346,23.636,2.0909,0,1.7724e-05,177.12,1.5137e-05,126.16,-1.6115e-06,0.32289,-1.1821e-05,-76.383,2.2755
21347,23.727,2,0,1.6626e-05,166.15,1.4882e-05,129.81,-2.3658e-06,0.22163,-1.0048e-05,-57.499,2.2889
21348,23.636,2,0.05,7.5879e-07,7.5827,5.8266e-07,4.3779,1.8463e-13,5.4093e-06,-5.8266e-07,-4.3779,2.2754
21349,23.636,2.2727,0,1.8005e-05,179.93,1.5439e-05,129.19,-1.7116e-06,0.325,-1.192e-05,-76.374,2.2755
21350,23.727,2.1818,0,1.6952e-05,169.4,1.5224e-05,133.24,-2.4797e-06,0.22495,-1.0158e-05,-57.469,2.289
21351,23.636,2.1818,0.05,7.5935e-07,7.5882,5.8308e-07,4.3811,4.1287e-13,6.3806e-06,-5.8308e-07,-4.3811,2.2755
21352,23.636,2.4545,0,1.8218e-05,182.06,1.5669e-05,131.49,-1.788e-06,0.32651,-1.1994e-05,-76.36,2.2756
21353,23.727,2.3636,0,1.7205e-05,171.93,1.549e-05,135.91,-2.5687e-06,0.22737,-1.0244e-05,-57.439,2.289
21354,23.636,2.3636,0.05,7.5974e-07,7.5922,5.8339e-07,4.3834,4.2065e-13,5.4584e-06,-5.8339e-07,-4.3833,2.2755
21355,23.636,2.6364,0,1.8368e-05,183.55,1.5831e-05,133.11,-1.8417e-06,0.32752,-1.2046e-05,-76.347,2.2756
21356,23.727,2.5455,0,1.7392e-05,173.8,1.5686e-05,137.88,-2.6343e-06,0.22907,-1.0306e-05,-57.414,2.2891
21357,23.636,2.5455,0.05,7.6001e-07,7.5949,5.836e-07,4.3849,2.0317e-13,7.4441e-06,-5.836e-07,-4.3849,2.2756
21358,23.636,2.8182,0,1.8457e-05,184.44,1.5926e-05,134.07,-1.8736e-06,0.32809,-1.2077e-05,-76.338,2.2756
21359,23.727,2.7273,0,1.7514e-05,175.02,1.5815e-05,139.17,-2.6775e-06,0.23015,-1.0347e-05,-57.396,2.2891
21360,23.636,2.7273,0.05,7.6018e-07,7.5966,5.8373e-07,4.3859,6.6599e-13,7.5082e-06,-5.8373e-07,-4.3859,2.2756
21361,23.636,3,0,1.8486e-05,184.73,1.5958e-05,134.39,-1.8842e-06,0.32828,-1.2087e-05,-76.334,2.2756
21362,23.727,2.9091,0,1.7575e-05,175.63,1.5879e-05,139.81,-2.6989e-06,0.23067,-1.0367e-05,-57.387,2.2891
21363,23.636,2.9091,0.05,7.6026e-07,7.5974,5.8379e-07,4.3864,2.2147e-13,7.585e-06,-5.8379e-07,-4.3864,2.2756
21364,23.636,3.1818,0,1.8457e-05,184.44,1.5926e-05,134.07,-1.8736e-06,0.32809,-1.2077e-05,-76.338,2.2756
21365,23.727,3.0909,0,1.7575e-05,175.63,1.5879e-05,139.81,-2.6989e-06,0.23067,-1.0367e-05,-57.387,2.2891
21366,23.636,3.0909,0.05,7.6026e-07,7.5974,5.8379e-07,4.3864,2.3363e-13,7.6761e-06,-5.8379e-07,-4.3864,2.2756
21367,23.636,3.3636,0,1.8368e-05,183.55,1.5831e-05,133.11,-1.8417e-06,0.32751,-1.2046e-05,-76.347,2.2756
21368,23.727,3.2727,0,1.7514e-05,175.02,1.5815e-05,139.17,-2.6775e-06,0.23015,-1.0347e-05,-57.396,2.2891
21369,23.636,3.2727,0.05,7.6018e-07,7.5966,5.8373e-07,4.3859,2.4513e-13,7.7609e-06,-5.8373e-07,-4.3859,2.2756
21370,23.636,3.5455,0,1.8218e-05,182.06,1.5669e-05,131.49,-1.788e-06,0.32651,-1.1994e-05,-76.36,2.2756
21371,23.727,3.4545,0,1.7392e-05,173.8,1.5686e-05,137.88,-2.6343e-06,0.22907,-1.0306e-05,-57.414,2.2891
21372,23.636,3.4545,0.05,7.6001e-07,7.5949,5.836e-07,4.3849,2.8091e-14,7.8342e-06,-5.836e-07,-4.3849,2.2756
21373,23.636,3.7273,0,1.8005e-05,179.93,1.5439e-05,129.19,-1.7116e-06,0.325,-1.192e-05,-76.374,2.2755
21374,23.727,3.6364,0,1.7205e-05,171.93,1.549e-05,135.91,-2.5687e-06,0.22737,-1.0244e-05,-57.439,2.289
21375,23.636,3.6364,0.05,7.5974e-07,7.5922,5.8339e-07,4.3834,2.6977e-13,7.9431e-06,-5.8339e-07,-4.3833,2.2755
21376,23.636,3.9091,0,1.7724e-05,177.12,1.5137e-05,126.16,-1.6115e-06,0.32289,-1.1821e-05,-76.383,2.2755
21377,23.727,3.8182,0,1.6952e-05,169.4,1.5224e-05,133.24,-2.4797e-06,0.22495,-1.0158e-05,-57.469,2.289
21378,23.636,3.8182,0.05,7.5935e-07,7.5882,5.8308e-07,4.3811,9.6449e-13,1.0941e-05,-5.8308e-07,-4.3811,2.2755
21379,23.636,4.0909,0,1.7372e-05,173.6,1.4756e-05,122.36,-1.4862e-06,0.31999,-1.1694e-05,-76.381,2.2754
21380,23.727,4,0,1.6626e-05,166.15,1.4882e-05,129.81,-2.3658e-06,0.22164,-1.0048e-05,-57.499,2.2889
21381,23.636,4,0.05,7.5879e-07,7.5827,5.8266e-07,4.3779,6.405e-13,1.1963e-05,-5.8266e-07,-4.3779,2.2754
21382,23.636,4.2727,0,1.6941e-05,169.29,1.4289e-05,117.7,-1.3337e-06,0.31609,-1.1538e-05,-76.357,2.2754
21383,23.727,4.1818,0,1.6224e-05,162.13,1.4458e-05,125.57,-2.2253e-06,0.2172,-9.9101e-06,-57.523,2.2889
21384,23.636,4.1818,0.05,7.5803e-07,7.5751,5.8207e-07,4.3735,5.3976e-13,1.1125e-05,-5.8207e-07,-4.3735,2.2754
21385,23.636,4.4545,0,1.6423e-05,164.12,1.3729e-05,112.12,-1.1517e-06,0.3108,-1.1348e-05,-76.298,2.2753
21386,23.727,4.3636,0,1.5737e-05,157.26,1.3945e-05,120.43,-2.0559e-06,0.21131,-9.7415e-06,-57.535,2.2888
21387,23.636,4.3636,0.05,7.5699e-07,7.5647,5.8127e-07,4.3675,7.7531e-13,1.3084e-05,-5.8127e-07,-4.3675,2.2753
21388,23.636,4.6364,0,1.581e-05,157.99,1.3062e-05,105.49,-9.3746e-07,0.30363,-1.1117e-05,-76.182,2.2752
21389,23.727,4.5455,0,1.5156e-05,151.45,1.3331e-05,114.31,-1.8548e-06,0.20344,-9.5376e-06,-57.522,2.2887
21390,23.636,4.5455,0.05,7.5557e-07,7.5505,5.8018e-07,4.3593,8.9071e-13,1.1259e-05,-5.8018e-07,-4.3593,2.2752
21391,23.636,4.8182,0,1.5088e-05,150.78,1.2276e-05,97.694,-6.8759e-07,0.29358,-1.0839e-05,-75.983,2.2751
21392,23.727,4.7273,0,1.447e-05,144.6,1.2605e-05,107.07,-1.6186e-06,0.19289,-9.2927e-06,-57.468,2.2886
21393,23.636,4.7273,0.05,7.5362e-07,7.531,5.7869e-07,4.3481,6.723e-13,1.3119e-05,-5.7869e-07,-4.348,2.2751
21394,23.636,5,0,1.4245e-05,142.35,1.1351e-05,88.559,-3.9816e-07,0.27956,-1.0504e-05,-75.655,2.275
21395,23.727,4.9091,0,1.3665e-05,136.55,1.175e-05,98.557,-1.343e-06,0.17806,-8.9992e-06,-57.347,2.2885
21396,23.636,4.9091,0.05,7.5092e-07,7.504,5.7661e-07,4.3325,8.7268e-13,1.2089e-05,-5.7661e-07,-4.3324,2.275
21397,23.636,5.1818,0,1.3261e-05,132.52,1.0266e-05,77.879,-6.4967e-08,0.25687,-1.0099e-05,-75.134,2.2749
21398,23.727,5.0909,0,1.2722e-05,127.13,1.0745e-05,88.575,-1.0229e-06,0.15796,-8.6464e-06,-57.122,2.2884
21399,23.636,5.0909,0.05,7.4709e-07,7.4657,5.7367e-07,4.3104,5.942e-13,1.0526e-05,-5.7367e-07,-4.3103,2.2749
21400,23.636,5.3636,0,1.2119e-05,121.11,8.9933e-06,65.42,3.1666e-07,0.22667,-9.6051e-06,-74.322,2.2748
21401,23.727,5.2727,0,1.1619e-05,116.11,9.5601e-06,76.854,-6.5224e-07,0.12258,-8.219e-06,-56.731,2.2883
21402,23.636,5.2727,0.05,7.4152e-07,7.4101,5.6939e-07,4.2782,8.7586e-13,1.2384e-05,-5.6939e-07,-4.2782,2.2748
21403,23.636,5.5455,0,1.0815e-05,108.08,7.5124e-06,50.978,7.4525e-07,0.13222,-9.0073e-06,-73.145,2.2747
21404,23.727,5.4545,0,1.0329e-05,103.22,8.1586e-06,63.056,-2.2235e-07,0.084634,-7.6956e-06,-56.066,2.2882
21405,23.636,5.4545,0.05,7.3226e-07,7.3175,5.6228e-07,4.2248,7.5135e-13,1.1605e-05,-5.6228e-07,-4.2248,2.2747
21406,23.636,5.7273,0,9.489e-06,94.825,5.9143e-06,35.296,1.214e-06,-0.019612,-8.3818e-06,-72.119,2.2745
21407,23.727,5.6364,0,8.8352e-06,88.291,6.5016e-06,46.757,2.642e-07,-0.10792,-7.0528e-06,-55.085,2.2881
21408,23.636,5.6364,0.05,7.0943e-07,7.0894,5.4476e-07,4.0931,7.4364e-13,1.1246e-05,-5.4476e-07,-4.0931,2.2746
21409,23.727,5.8182,0,7.3277e-06,73.227,4.6918e-06,28.811,8.1991e-07,-0.2812,-6.395e-06,-54.492,2.288
21410,23.636,5.8182,0.05,5.6466e-07,5.6427,4.3359e-07,3.2578,5.7881e-13,9.5611e-06,-4.3359e-07,-3.2578,2.2744
21411,23.636,5.9091,0,8.0318e-06,80.262,4.1309e-06,18.441,1.6992e-06,0.17017,-7.5575e-06,-69.382,2.2744
21412,23.818,0.27273,0,6.6462e-06,66.416,5.205e-06,39.715,-1.2324e-07,-0.31917,-4.9985e-06,-36.95,2.3015
21413,23.818,0.18182,0.05,6.7146e-07,6.71,5.156e-07,3.874,5.4307e-13,6.4634e-06,-5.156e-07,-3.874,2.3014
21414,23.818,0.090909,0,4.6807e-06,46.775,3.0016e-06,18.552,5.297e-07,-0.021121,-4.08e-06,-34.656,2.3014
21415,23.909,0.18182,0,4.4995e-06,44.964,3.7889e-06,31.126,-3.5202e-07,0.01275,-3.0724e-06,-20.427,2.315
21416,23.818,0.45455,0,8.4424e-06,84.366,7.1315e-06,58.713,-6.9432e-07,-0.087228,-5.7337e-06,-37.952,2.3016
21417,23.818,0.36364,0.05,7.658e-07,7.6528,5.8804e-07,4.4183,4.0786e-13,8.4758e-06,-5.8804e-07,-4.4183,2.3016
21418,23.909,0.36364,0,6.6732e-06,66.686,6.0514e-06,53.533,-1.0456e-06,0.20911,-3.8998e-06,-21.236,2.3151
21419,23.818,0.63636,0,9.9495e-06,99.427,8.7183e-06,74.437,-1.1822e-06,0.048721,-6.3114e-06,-38.49,2.3018
21420,23.818,0.54545,0.05,7.7534e-07,7.7481,5.9537e-07,4.4734,1.2882e-12,1.7776e-05,-5.9537e-07,-4.4733,2.3017
21421,23.909,0.54545,0,8.4139e-06,84.081,7.8331e-06,71.264,-1.6002e-06,0.38588,-4.5312e-06,-21.637,2.3152
21422,23.818,0.81818,0,1.121e-05,112.03,1.0035e-05,87.519,-1.6007e-06,0.094431,-6.7719e-06,-38.76,2.3019
21423,23.818,0.72727,0.05,7.7634e-07,7.758,5.9613e-07,4.4791,1.2147e-12,1.5911e-05,-5.9613e-07,-4.4791,2.3018
21424,23.909,0.72727,0,9.8462e-06,98.394,9.2909e-06,85.768,-2.0713e-06,0.39685,-5.0311e-06,-21.842,2.3153
21425,23.818,1,0,1.2275e-05,122.66,1.1141e-05,98.554,-1.9579e-06,0.13015,-7.1484e-06,-38.869,2.302
21426,23.818,0.90909,0.05,7.7597e-07,7.7543,5.9585e-07,4.477,7.1041e-13,1.2105e-05,-5.9585e-07,-4.477,2.3019
21427,23.909,0.90909,0,1.1045e-05,110.37,1.0508e-05,97.912,-2.4677e-06,0.4174,-5.4406e-06,-21.92,2.3154
21428,23.818,1.1818,0,1.3179e-05,131.7,1.2078e-05,107.92,-2.2639e-06,0.15362,-7.461e-06,-38.895,2.3021
21429,23.818,1.0909,0.05,7.7487e-07,7.7434,5.95e-07,4.4706,6.2978e-13,9.1387e-06,-5.95e-07,-4.4706,2.302
21430,23.909,1.0909,0,1.2059e-05,120.5,1.1536e-05,108.18,-2.8054e-06,0.42608,-5.7818e-06,-21.938,2.3155
21431,23.818,1.3636,0,1.3948e-05,139.39,1.2873e-05,115.87,-2.5256e-06,0.17112,-7.7222e-06,-38.875,2.3022
21432,23.818,1.2727,0.05,7.735e-07,7.7297,5.9395e-07,4.4627,2.9507e-13,8.1997e-06,-5.9395e-07,-4.4627,2.3021
21433,23.909,1.2727,0,1.292e-05,129.11,1.2408e-05,116.9,-3.0932e-06,0.43282,-6.0686e-06,-21.924,2.3156
21434,23.818,1.5455,0,1.4601e-05,145.91,1.3546e-05,122.62,-2.7484e-06,0.18415,-7.941e-06,-38.831,2.3023
21435,23.818,1.4545,0.05,7.7207e-07,7.7154,5.9285e-07,4.4545,4.3625e-14,7.9081e-06,-5.9285e-07,-4.4545,2.3022
21436,23.909,1.4545,0,1.3651e-05,136.41,1.3148e-05,124.31,-3.3382e-06,0.43722,-6.3102e-06,-21.893,2.3157
21437,23.818,1.7273,0,1.515e-05,151.39,1.4112e-05,128.29,-2.9367e-06,0.19408,-8.1233e-06,-38.776,2.3023
21438,23.818,1.6364,0.05,7.7068e-07,7.7015,5.9179e-07,4.4465,1.4229e-13,5.9357e-06,-5.9179e-07,-4.4465,2.3023
21439,23.909,1.6364,0,1.4268e-05,142.58,1.3773e-05,130.56,-3.5458e-06,0.44041,-6.5131e-06,-21.855,2.3158
21440,23.818,1.9091,0,1.5607e-05,155.96,1.4583e-05,133.02,-3.094e-06,0.20167,-8.2739e-06,-38.718,2.3024
21441,23.818,1.8182,0.05,7.6941e-07,7.6888,5.9081e-07,4.4391,6.1624e-15,5.8391e-06,-5.9081e-07,-4.4391,2.3024
21442,23.909,1.8182,0,1.4786e-05,147.75,1.4296e-05,135.81,-3.72e-06,0.4427,-6.6822e-06,-21.814,2.3159
21443,23.818,2.0909,0,1.5981e-05,159.7,1.4968e-05,136.89,-3.2228e-06,0.20745,-8.3962e-06,-38.663,2.3025
21444,23.818,2,0.05,7.6828e-07,7.6775,5.8995e-07,4.4326,-7.3437e-16,3.8573e-06,-5.8995e-07,-4.4326,2.3024
21445,23.909,2,0,1.5213e-05,152.02,1.4728e-05,140.13,-3.8641e-06,0.44437,-6.8214e-06,-21.776,2.3159
21446,23.818,2.2727,0,1.6279e-05,162.67,1.5274e-05,139.96,-3.3255e-06,0.21178,-8.493e-06,-38.614,2.3025
21447,23.818,2.1818,0.05,7.6733e-07,7.668,5.8922e-07,4.4271,1.0515e-13,7.5674e-06,-5.8922e-07,-4.4271,2.3025
21448,23.909,2.1818,0,1.5558e-05,155.47,1.5076e-05,143.63,-3.9805e-06,0.44559,-6.9335e-06,-21.742,2.316
21449,23.818,2.4545,0,1.6505e-05,164.94,1.5506e-05,142.3,-3.4037e-06,0.21492,-8.5663e-06,-38.575,2.3025
21450,23.818,2.3636,0.05,7.6656e-07,7.6603,5.8863e-07,4.4227,-1.0955e-14,7.5298e-06,-5.8862e-07,-4.4227,2.3025
21451,23.909,2.3636,0,1.5827e-05,158.16,1.5348e-05,146.36,-4.0714e-06,0.44646,-7.0207e-06,-21.713,2.316
21452,23.818,2.6364,0,1.6664e-05,166.52,1.567e-05,143.94,-3.4587e-06,0.21705,-8.6176e-06,-38.545,2.3026
21453,23.818,2.5455,0.05,7.6598e-07,7.6545,5.8818e-07,4.4194,4.4473e-13,9.4651e-06,-5.8818e-07,-4.4193,2.3025
21454,23.909,2.5455,0,1.6025e-05,160.14,1.5548e-05,148.36,-4.1383e-06,0.44706,-7.0847e-06,-21.69,2.316
21455,23.818,2.8182,0,1.6758e-05,167.46,1.5766e-05,144.91,-3.4914e-06,0.21828,-8.648e-06,-38.527,2.3026
21456,23.818,2.7273,0.05,7.6559e-07,7.6506,5.8788e-07,4.4171,-6.2722e-15,7.58e-06,-5.8788e-07,-4.4171,2.3026
21457,23.909,2.7273,0,1.6155e-05,161.44,1.5679e-05,149.68,-4.1823e-06,0.44744,-7.1267e-06,-21.675,2.3161
21458,23.818,3,0,1.6789e-05,167.78,1.5799e-05,145.24,-3.5022e-06,0.21869,-8.6581e-06,-38.521,2.3026
21459,23.818,2.9091,0.05,7.654e-07,7.6487,5.8773e-07,4.416,4.5149e-13,7.6052e-06,-5.8773e-07,-4.416,2.3026
21460,23.909,2.9091,0,1.6219e-05,162.08,1.5745e-05,150.33,-4.2041e-06,0.44762,-7.1475e-06,-21.667,2.3161
21461,23.818,3.1818,0,1.6758e-05,167.46,1.5766e-05,144.91,-3.4914e-06,0.21828,-8.648e-06,-38.527,2.3026
21462,23.818,3.0909,0.05,7.654e-07,7.6487,5.8773e-07,4.416,6.8573e-13,7.6567e-06,-5.8773e-07,-4.416,2.3026
21463,23.909,3.0909,0,1.6219e-05,162.08,1.5745e-05,150.33,-4.2041e-06,0.44762,-7.1475e-06,-21.667,2.3161
21464,23.818,3.3636,0,1.6664e-05,166.52,1.567e-05,143.94,-3.4587e-06,0.21705,-8.6176e-06,-38.545,2.3026
21465,23.818,3.2727,0.05,7.6559e-07,7.6506,5.8788e-07,4.4171,6.9156e-13,7.7035e-06,-5.8788e-07,-4.4171,2.3026
21466,23.909,3.2727,0,1.6155e-05,161.44,1.5679e-05,149.68,-4.1823e-06,0.44744,-7.1267e-06,-21.675,2.3161
21467,23.818,3.5455,0,1.6505e-05,164.94,1.5506e-05,142.3,-3.4037e-06,0.21492,-8.5663e-06,-38.575,2.3025
21468,23.818,3.4545,0.05,7.6598e-07,7.6545,5.8818e-07,4.4194,6.9477e-13,9.6369e-06,-5.8818e-07,-4.4193,2.3025
21469,23.909,3.4545,0,1.6025e-05,160.14,1.5548e-05,148.36,-4.1383e-06,0.44706,-7.0847e-06,-21.69,2.316
21470,23.818,3.7273,0,1.6279e-05,162.67,1.5274e-05,139.96,-3.3255e-06,0.21178,-8.493e-06,-38.614,2.3025
21471,23.818,3.6364,0.05,7.6656e-07,7.6603,5.8862e-07,4.4227,9.3219e-13,1.35e-05,-5.8862e-07,-4.4227,2.3025
21472,23.909,3.6364,0,1.5827e-05,158.16,1.5348e-05,146.36,-4.0714e-06,0.44646,-7.0207e-06,-21.713,2.316
21473,23.818,3.9091,0,1.5981e-05,159.7,1.4968e-05,136.89,-3.2228e-06,0.20745,-8.3962e-06,-38.663,2.3025
21474,23.818,3.8182,0.05,7.6733e-07,7.668,5.8922e-07,4.4271,7.1953e-13,1.175e-05,-5.8922e-07,-4.4271,2.3025
21475,23.909,3.8182,0,1.5558e-05,155.47,1.5076e-05,143.63,-3.9805e-06,0.44559,-6.9335e-06,-21.742,2.316
21476,23.818,4.0909,0,1.5607e-05,155.96,1.4583e-05,133.02,-3.094e-06,0.20167,-8.2739e-06,-38.718,2.3024
21477,23.818,4,0.05,7.6828e-07,7.6775,5.8995e-07,4.4326,7.2912e-13,1.557e-05,-5.8995e-07,-4.4326,2.3024
21478,23.909,4,0,1.5213e-05,152.02,1.4728e-05,140.13,-3.8641e-06,0.44437,-6.8214e-06,-21.776,2.3159
21479,23.818,4.2727,0,1.515e-05,151.39,1.4112e-05,128.29,-2.9367e-06,0.19409,-8.1233e-06,-38.776,2.3023
21480,23.818,4.1818,0.05,7.6941e-07,7.6888,5.9081e-07,4.4391,6.1658e-13,1.3742e-05,-5.9081e-07,-4.4391,2.3024
21481,23.909,4.1818,0,1.4786e-05,147.75,1.4296e-05,135.81,-3.72e-06,0.4427,-6.6822e-06,-21.814,2.3159
21482,23.818,4.4545,0,1.4601e-05,145.91,1.3546e-05,122.62,-2.7484e-06,0.18415,-7.941e-06,-38.831,2.3023
21483,23.818,4.3636,0.05,7.7068e-07,7.7015,5.9179e-07,4.4465,9.7231e-13,1.4804e-05,-5.9179e-07,-4.4465,2.3023
21484,23.909,4.3636,0,1.4268e-05,142.58,1.3773e-05,130.56,-3.5458e-06,0.44041,-6.5131e-06,-21.855,2.3158
21485,23.818,4.6364,0,1.3948e-05,139.39,1.2873e-05,115.87,-2.5256e-06,0.17112,-7.7223e-06,-38.875,2.3022
21486,23.818,4.5455,0.05,7.7207e-07,7.7154,5.9285e-07,4.4545,8.6074e-13,1.3888e-05,-5.9285e-07,-4.4545,2.3022
21487,23.909,4.5455,0,1.3651e-05,136.41,1.3148e-05,124.31,-3.3382e-06,0.43722,-6.3102e-06,-21.893,2.3157
21488,23.818,4.8182,0,1.3179e-05,131.7,1.2078e-05,107.92,-2.2639e-06,0.15362,-7.461e-06,-38.895,2.3021
21489,23.818,4.7273,0.05,7.735e-07,7.7297,5.9395e-07,4.4627,9.6026e-13,1.4649e-05,-5.9395e-07,-4.4627,2.3021
21490,23.909,4.7273,0,1.292e-05,129.11,1.2408e-05,116.9,-3.0932e-06,0.43282,-6.0686e-06,-21.924,2.3156
21491,23.818,5,0,1.2275e-05,122.66,1.1141e-05,98.554,-1.9579e-06,0.13015,-7.1484e-06,-38.869,2.302
21492,23.818,4.9091,0.05,7.7487e-07,7.7434,5.95e-07,4.4706,8.4547e-13,1.3768e-05,-5.95e-07,-4.4706,2.302
21493,23.909,4.9091,0,1.2059e-05,120.5,1.1536e-05,108.18,-2.8054e-06,0.42608,-5.7818e-06,-21.938,2.3155
21494,23.818,5.1818,0,1.121e-05,112.03,1.0035e-05,87.519,-1.6007e-06,0.094429,-6.7719e-06,-38.76,2.3019
21495,23.818,5.0909,0.05,7.7597e-07,7.7543,5.9585e-07,4.477,7.5853e-13,1.1925e-05,-5.9585e-07,-4.477,2.3019
21496,23.909,5.0909,0,1.1045e-05,110.37,1.0508e-05,97.912,-2.4677e-06,0.4174,-5.4406e-06,-21.92,2.3154
21497,23.818,5.3636,0,9.9495e-06,99.427,8.7183e-06,74.437,-1.1822e-06,0.048721,-6.3114e-06,-38.49,2.3018
21498,23.818,5.2727,0.05,7.7633e-07,7.758,5.9613e-07,4.4791,1.0205e-12,1.331e-05,-5.9613e-07,-4.4791,2.3018
21499,23.909,5.2727,0,9.8462e-06,98.394,9.2909e-06,85.768,-2.0713e-06,0.39685,-5.0311e-06,-21.842,2.3153
21500,23.818,5.5455,0,8.4424e-06,84.366,7.1315e-06,58.713,-6.9432e-07,-0.087225,-5.7337e-06,-37.952,2.3016
21501,23.818,5.4545,0.05,7.7534e-07,7.7481,5.9537e-07,4.4734,7.8157e-13,1.2616e-05,-5.9537e-07,-4.4733,2.3017
21502,23.909,5.4545,0,8.4139e-06,84.081,7.833e-06,71.264,-1.6002e-06,0.38588,-4.5312e-06,-21.637,2.3152
21503,23.818,5.7273,0,6.6462e-06,66.416,5.205e-06,39.715,-1.2324e-07,-0.31917,-4.9985e-06,-36.95,2.3015
21504,23.818,5.6364,0.05,7.658e-07,7.6528,5.8804e-07,4.4183,9.803e-13,1.418e-05,-5.8804e-07,-4.4183,2.3016
21505,23.909,5.6364,0,6.6732e-06,66.686,6.0514e-06,53.533,-1.0456e-06,0.20912,-3.8998e-06,-21.236,2.3151
21506,23.818,5.8182,0.05,6.7146e-07,6.71,5.156e-07,3.874,9.9796e-13,1.5524e-05,-5.156e-07,-3.874,2.3014
21507,23.909,5.8182,0,4.4995e-06,44.964,3.7889e-06,31.126,-3.5202e-07,0.01275,-3.0724e-06,-20.427,2.315
21508,23.818,5.9091,0,4.6807e-06,46.775,3.0016e-06,18.552,5.2969e-07,-0.02112,-4.08e-06,-34.656,2.3014
21509,23.818,5.7273,0.1,6.6462e-06,66.416,4.9985e-06,36.95,1.2323e-07,0.31917,-5.205e-06,-39.715,2.3015
21510,23.727,5.8182,0.1,7.3278e-06,73.227,6.395e-06,54.492,-8.1991e-07,0.2812,-4.6918e-06,-28.811,2.288
21511,23.818,5.9091,0.1,4.6807e-06,46.775,4.08e-06,34.656,-5.297e-07,0.021124,-3.0016e-06,-18.552,2.3014
21512,23.909,5.8182,0.1,4.4995e-06,44.964,3.0724e-06,20.427,3.5202e-07,-0.012748,-3.7889e-06,-31.126,2.315
21513,23.818,5.5455,0.1,8.4424e-06,84.366,5.7338e-06,37.952,6.9431e-07,0.087228,-7.1315e-06,-58.713,2.3016
21514,23.727,5.6364,0.1,8.8352e-06,88.291,7.0528e-06,55.085,-2.642e-07,0.10792,-6.5016e-06,-46.757,2.2881
21515,23.909,5.6364,0.1,6.6732e-06,66.686,3.8998e-06,21.236,1.0456e-06,-0.20911,-6.0514e-06,-53.533,2.3151
21516,23.818,5.3636,0.1,9.9495e-06,99.427,6.3114e-06,38.49,1.1822e-06,-0.048719,-8.7183e-06,-74.437,2.3018
21517,23.727,5.4545,0.1,1.0329e-05,103.22,7.6956e-06,56.066,2.2235e-07,-0.08463,-8.1586e-06,-63.056,2.2882
21518,23.909,5.4545,0.1,8.4139e-06,84.081,4.5312e-06,21.637,1.6002e-06,-0.38588,-7.833e-06,-71.264,2.3152
21519,23.818,5.1818,0.1,1.121e-05,112.03,6.7719e-06,38.76,1.6007e-06,-0.094428,-1.0035e-05,-87.519,2.3019
21520,23.727,5.2727,0.1,1.1619e-05,116.11,8.219e-06,56.731,6.5224e-07,-0.12258,-9.5601e-06,-76.854,2.2883
21521,23.909,5.2727,0.1,9.8462e-06,98.394,5.0311e-06,21.842,2.0713e-06,-0.39685,-9.2909e-06,-85.768,2.3153
21522,23.818,5,0.1,1.2275e-05,122.66,7.1484e-06,38.869,1.9579e-06,-0.13014,-1.1141e-05,-98.554,2.302
21523,23.727,5.0909,0.1,1.2722e-05,127.13,8.6464e-06,57.122,1.0229e-06,-0.15796,-1.0745e-05,-88.575,2.2884
21524,23.909,5.0909,0.1,1.1045e-05,110.37,5.4406e-06,21.92,2.4677e-06,-0.4174,-1.0508e-05,-97.912,2.3154
21525,23.818,4.8182,0.1,1.3179e-05,131.7,7.461e-06,38.895,2.2639e-06,-0.15362,-1.2078e-05,-107.92,2.3021
21526,23.727,4.9091,0.1,1.3665e-05,136.55,8.9992e-06,57.348,1.343e-06,-0.17806,-1.175e-05,-98.557,2.2885
21527,23.909,4.9091,0.1,1.2059e-05,120.5,5.7818e-06,21.938,2.8054e-06,-0.42608,-1.1536e-05,-108.18,2.3155
21528,23.818,4.6364,0.1,1.3948e-05,139.39,7.7223e-06,38.875,2.5256e-06,-0.17112,-1.2873e-05,-115.87,2.3022
21529,23.727,4.7273,0.1,1.447e-05,144.6,9.2927e-06,57.468,1.6186e-06,-0.19288,-1.2605e-05,-107.07,2.2886
21530,23.909,4.7273,0.1,1.292e-05,129.11,6.0686e-06,21.924,3.0932e-06,-0.43282,-1.2408e-05,-116.9,2.3156
21531,23.818,4.4545,0.1,1.4601e-05,145.91,7.941e-06,38.831,2.7484e-06,-0.18415,-1.3546e-05,-122.62,2.3023
21532,23.727,4.5455,0.1,1.5156e-05,151.45,9.5376e-06,57.522,1.8548e-06,-0.20344,-1.3331e-05,-114.31,2.2887
21533,23.909,4.5455,0.1,1.3651e-05,136.41,6.3102e-06,21.893,3.3382e-06,-0.43722,-1.3148e-05,-124.31,2.3157
21534,23.818,4.2727,0.1,1.515e-05,151.39,8.1233e-06,38.776,2.9367e-06,-0.19408,-1.4112e-05,-128.29,2.3023
21535,23.727,4.3636,0.1,1.5737e-05,157.26,9.7415e-06,57.535,2.0559e-06,-0.21131,-1.3945e-05,-120.43,2.2888
21536,23.909,4.3636,0.1,1.4268e-05,142.58,6.5131e-06,21.855,3.5458e-06,-0.44041,-1.3773e-05,-130.56,2.3158
21537,23.818,4.0909,0.1,1.5607e-05,155.96,8.2739e-06,38.718,3.094e-06,-0.20167,-1.4583e-05,-133.02,2.3024
21538,23.727,4.1818,0.1,1.6224e-05,162.13,9.9101e-06,57.523,2.2253e-06,-0.2172,-1.4458e-05,-125.57,2.2889
21539,23.909,4.1818,0.1,1.4786e-05,147.75,6.6822e-06,21.814,3.72e-06,-0.4427,-1.4296e-05,-135.81,2.3159
21540,23.818,3.9091,0.1,1.5981e-05,159.7,8.3962e-06,38.663,3.2228e-06,-0.20745,-1.4968e-05,-136.89,2.3025
21541,23.727,4,0.1,1.6626e-05,166.15,1.0048e-05,57.499,2.3658e-06,-0.22163,-1.4882e-05,-129.81,2.2889
21542,23.909,4,0.1,1.5213e-05,152.02,6.8214e-06,21.776,3.8641e-06,-0.44437,-1.4728e-05,-140.13,2.3159
21543,23.818,3.7273,0.1,1.6279e-05,162.67,8.493e-06,38.614,3.3255e-06,-0.21178,-1.5274e-05,-139.96,2.3025
21544,23.727,3.8182,0.1,1.6952e-05,169.4,1.0158e-05,57.469,2.4797e-06,-0.22495,-1.5224e-05,-133.24,2.289
21545,23.909,3.8182,0.1,1.5558e-05,155.47,6.9335e-06,21.742,3.9805e-06,-0.44559,-1.5076e-05,-143.63,2.316
21546,23.818,3.5455,0.1,1.6505e-05,164.94,8.5663e-06,38.575,3.4037e-06,-0.21492,-1.5506e-05,-142.3,2.3025
21547,23.727,3.6364,0.1,1.7205e-05,171.93,1.0244e-05,57.44,2.5687e-06,-0.22737,-1.549e-05,-135.91,2.289
21548,23.909,3.6364,0.1,1.5827e-05,158.16,7.0207e-06,21.713,4.0714e-06,-0.44646,-1.5348e-05,-146.36,2.316
21549,23.818,3.3636,0.1,1.6664e-05,166.52,8.6176e-06,38.545,3.4587e-06,-0.21705,-1.567e-05,-143.94,2.3026
21550,23.727,3.4545,0.1,1.7392e-05,173.8,1.0306e-05,57.414,2.6343e-06,-0.22907,-1.5686e-05,-137.88,2.2891
21551,23.909,3.4545,0.1,1.6025e-05,160.14,7.0847e-06,21.69,4.1383e-06,-0.44706,-1.5548e-05,-148.36,2.316
21552,23.818,3.1818,0.1,1.6758e-05,167.46,8.648e-06,38.527,3.4914e-06,-0.21828,-1.5766e-05,-144.91,2.3026
21553,23.727,3.2727,0.1,1.7514e-05,175.02,1.0347e-05,57.396,2.6775e-06,-0.23015,-1.5815e-05,-139.17,2.2891
21554,23.909,3.2727,0.1,1.6155e-05,161.44,7.1267e-06,21.675,4.1823e-06,-0.44743,-1.5679e-05,-149.68,2.3161
21555,23.818,3,0.1,1.6789e-05,167.78,8.6581e-06,38.521,3.5022e-06,-0.21868,-1.5799e-05,-145.24,2.3026
21556,23.727,3.0909,0.1,1.7575e-05,175.63,1.0367e-05,57.387,2.6989e-06,-0.23067,-1.5879e-05,-139.81,2.2891
21557,23.909,3.0909,0.1,1.6219e-05,162.08,7.1475e-06,21.668,4.2041e-06,-0.44762,-1.5745e-05,-150.33,2.3161
21558,23.818,2.8182,0.1,1.6758e-05,167.46,8.648e-06,38.527,3.4914e-06,-0.21828,-1.5766e-05,-144.91,2.3026
21559,23.727,2.9091,0.1,1.7575e-05,175.63,1.0367e-05,57.387,2.6989e-06,-0.23067,-1.5879e-05,-139.81,2.2891
21560,23.909,2.9091,0.1,1.6219e-05,162.08,7.1475e-06,21.668,4.2041e-06,-0.44761,-1.5745e-05,-150.33,2.3161
21561,23.818,2.6364,0.1,1.6664e-05,166.52,8.6176e-06,38.545,3.4587e-06,-0.21705,-1.567e-05,-143.94,2.3026
21562,23.727,2.7273,0.1,1.7514e-05,175.02,1.0347e-05,57.396,2.6775e-06,-0.23015,-1.5815e-05,-139.17,2.2891
21563,23.909,2.7273,0.1,1.6155e-05,161.44,7.1267e-06,21.675,4.1823e-06,-0.44743,-1.5679e-05,-149.68,2.3161
21564,23.818,2.4545,0.1,1.6505e-05,164.94,8.5663e-06,38.575,3.4037e-06,-0.21492,-1.5506e-05,-142.3,2.3025
21565,23.727,2.5455,0.1,1.7392e-05,173.8,1.0306e-05,57.414,2.6343e-06,-0.22907,-1.5686e-05,-137.88,2.2891
21566,23.909,2.5455,0.1,1.6025e-05,160.14,7.0847e-06,21.69,4.1383e-06,-0.44706,-1.5548e-05,-148.36,2.316
21567,23.818,2.2727,0.1,1.6279e-05,162.67,8.493e-06,38.614,3.3255e-06,-0.21178,-1.5274e-05,-139.96,2.3025
21568,23.727,2.3636,0.1,1.7205e-05,171.93,1.0244e-05,57.44,2.5687e-06,-0.22737,-1.549e-05,-135.91,2.289
21569,23.909,2.3636,0.1,1.5827e-05,158.16,7.0207e-06,21.713,4.0714e-06,-0.44646,-1.5348e-05,-146.36,2.316
21570,23.818,2.0909,0.1,1.5981e-05,159.7,8.3962e-06,38.663,3.2228e-06,-0.20745,-1.4968e-05,-136.89,2.3025
21571,23.727,2.1818,0.1,1.6952e-05,169.4,1.0158e-05,57.469,2.4797e-06,-0.22495,-1.5224e-05,-133.24,2.289
21572,23.909,2.1818,0.1,1.5558e-05,155.47,6.9335e-06,21.742,3.9805e-06,-0.44559,-1.5076e-05,-143.63,2.316
21573,23.818,1.9091,0.1,1.5607e-05,155.96,8.2739e-06,38.718,3.094e-06,-0.20167,-1.4583e-05,-133.02,2.3024
21574,23.727,2,0.1,1.6626e-05,166.15,1.0048e-05,57.499,2.3658e-06,-0.22163,-1.4882e-05,-129.81,2.2889
21575,23.909,2,0.1,1.5213e-05,152.02,6.8214e-06,21.776,3.8641e-06,-0.44437,-1.4728e-05,-140.13,2.3159
21576,23.818,1.7273,0.1,1.515e-05,151.39,8.1233e-06,38.776,2.9367e-06,-0.19408,-1.4112e-05,-128.29,2.3023
21577,23.727,1.8182,0.1,1.6224e-05,162.13,9.9101e-06,57.523,2.2253e-06,-0.2172,-1.4458e-05,-125.57,2.2889
21578,23.909,1.8182,0.1,1.4786e-05,147.75,6.6822e-06,21.814,3.72e-06,-0.4427,-1.4296e-05,-135.81,2.3159
21579,23.818,1.5455,0.1,1.4601e-05,145.91,7.941e-06,38.831,2.7484e-06,-0.18415,-1.3546e-05,-122.62,2.3023
21580,23.727,1.6364,0.1,1.5737e-05,157.26,9.7415e-06,57.535,2.0559e-06,-0.21131,-1.3945e-05,-120.43,2.2888
21581,23.909,1.6364,0.1,1.4268e-05,142.58,6.5131e-06,21.855,3.5458e-06,-0.44041,-1.3773e-05,-130.56,2.3158
21582,23.818,1.3636,0.1,1.3948e-05,139.39,7.7223e-06,38.875,2.5256e-06,-0.17112,-1.2873e-05,-115.87,2.3022
21583,23.727,1.4545,0.1,1.5156e-05,151.45,9.5376e-06,57.522,1.8548e-06,-0.20344,-1.3331e-05,-114.31,2.2887
21584,23.909,1.4545,0.1,1.3651e-05,136.41,6.3102e-06,21.893,3.3382e-06,-0.43722,-1.3148e-05,-124.31,2.3157
21585,23.818,1.1818,0.1,1.3179e-05,131.7,7.461e-06,38.895,2.2639e-06,-0.15362,-1.2078e-05,-107.92,2.3021
21586,23.727,1.2727,0.1,1.447e-05,144.6,9.2927e-06,57.468,1.6186e-06,-0.19289,-1.2605e-05,-107.07,2.2886
21587,23.909,1.2727,0.1,1.292e-05,129.11,6.0686e-06,21.924,3.0932e-06,-0.43282,-1.2408e-05,-116.9,2.3156
21588,23.818,1,0.1,1.2275e-05,122.66,7.1484e-06,38.869,1.9579e-06,-0.13014,-1.1141e-05,-98.554,2.302
21589,23.727,1.0909,0.1,1.3665e-05,136.55,8.9992e-06,57.348,1.343e-06,-0.17806,-1.175e-05,-98.557,2.2885
21590,23.909,1.0909,0.1,1.2059e-05,120.5,5.7818e-06,21.938,2.8054e-06,-0.42608,-1.1536e-05,-108.18,2.3155
21591,23.818,0.81818,0.1,1.121e-05,112.03,6.7719e-06,38.76,1.6007e-06,-0.09443,-1.0035e-05,-87.519,2.3019
21592,23.727,0.90909,0.1,1.2722e-05,127.13,8.6464e-06,57.122,1.0229e-06,-0.15796,-1.0745e-05,-88.575,2.2884
21593,23.909,0.90909,0.1,1.1045e-05,110.37,5.4406e-06,21.92,2.4677e-06,-0.4174,-1.0508e-05,-97.912,2.3154
21594,23.818,0.63636,0.1,9.9495e-06,99.427,6.3114e-06,38.49,1.1822e-06,-0.048721,-8.7183e-06,-74.437,2.3018
21595,23.727,0.72727,0.1,1.1619e-05,116.11,8.219e-06,56.731,6.5224e-07,-0.12258,-9.5601e-06,-76.854,2.2883
21596,23.909,0.72727,0.1,9.8462e-06,98.394,5.0311e-06,21.842,2.0713e-06,-0.39685,-9.2909e-06,-85.768,2.3153
21597,23.818,0.45455,0.1,8.4424e-06,84.366,5.7338e-06,37.952,6.9431e-07,0.08723,-7.1315e-06,-58.713,2.3016
21598,23.727,0.54545,0.1,1.0329e-05,103.22,7.6956e-06,56.066,2.2235e-07,-0.08463,-8.1586e-06,-63.056,2.2882
21599,23.909,0.54545,0.1,8.4139e-06,84.081,4.5312e-06,21.637,1.6002e-06,-0.38587,-7.833e-06,-71.264,2.3152
21600,23.818,0.27273,0.1,6.6462e-06,66.416,4.9985e-06,36.95,1.2324e-07,0.31917,-5.205e-06,-39.715,2.3015
21601,23.727,0.36364,0.1,8.8352e-06,88.291,7.0528e-06,55.085,-2.642e-07,0.10792,-6.5016e-06,-46.757,2.2881
21602,23.909,0.36364,0.1,6.6732e-06,66.686,3.8998e-06,21.236,1.0456e-06,-0.20911,-6.0514e-06,-53.533,2.3151
21603,23.727,0.18182,0.1,7.3278e-06,73.227,6.395e-06,54.492,-8.1991e-07,0.2812,-4.6918e-06,-28.811,2.288
21604,23.909,0.18182,0.1,4.4995e-06,44.964,3.0724e-06,20.427,3.5202e-07,-0.012753,-3.7889e-06,-31.126,2.315
21605,23.818,0.090909,0.1,4.6807e-06,46.775,4.08e-06,34.656,-5.297e-07,0.021122,-3.0016e-06,-18.552,2.3014
21606,23.636,5.7273,0.1,9.489e-06,94.825,8.3818e-06,72.119,-1.214e-06,0.019613,-5.9143e-06,-35.296,2.2745
21607,23.545,5.8182,0.1,1.0749e-05,107.41,1.0012e-05,90.993,-2.0852e-06,0.10215,-5.7641e-06,-27.54,2.261
21608,23.636,5.9091,0.1,8.0318e-06,80.262,7.5575e-06,69.382,-1.6992e-06,-0.17017,-4.1309e-06,-18.441,2.2744
21609,23.636,5.5455,0.1,1.0815e-05,108.08,9.0073e-06,73.145,-7.4525e-07,-0.13222,-7.5124e-06,-50.978,2.2747
21610,23.545,5.6364,0.1,1.1698e-05,116.9,1.0442e-05,90.775,-1.6379e-06,0.014511,-7.1142e-06,-41.133,2.2611
21611,23.636,5.3636,0.1,1.2119e-05,121.11,9.6051e-06,74.322,-3.1666e-07,-0.22666,-8.9933e-06,-65.42,2.2748
21612,23.545,5.4545,0.1,1.2908e-05,129,1.1042e-05,92.026,-1.222e-06,-0.12326,-8.5783e-06,-55.396,2.2612
21613,23.636,5.1818,0.1,1.3261e-05,132.52,1.0099e-05,75.134,6.4966e-08,-0.25687,-1.0266e-05,-77.879,2.2749
21614,23.545,5.2727,0.1,1.403e-05,140.2,1.1572e-05,93.102,-8.3997e-07,-0.15315,-9.8871e-06,-68.13,2.2613
21615,23.636,5,0.1,1.4245e-05,142.35,1.0504e-05,75.655,3.9816e-07,-0.27956,-1.1351e-05,-88.559,2.275
21616,23.545,5.0909,0.1,1.502e-05,150.1,1.2016e-05,93.871,-5.0146e-07,-0.17922,-1.1022e-05,-79.229,2.2615
21617,23.636,4.8182,0.1,1.5088e-05,150.78,1.0839e-05,75.983,6.8759e-07,-0.29358,-1.2276e-05,-97.694,2.2751
21618,23.545,4.9091,0.1,1.5881e-05,158.7,1.2386e-05,94.402,-2.0394e-07,-0.19362,-1.1998e-05,-88.813,2.2616
21619,23.636,4.6364,0.1,1.581e-05,157.99,1.1117e-05,76.182,9.3746e-07,-0.30363,-1.3062e-05,-105.49,2.2752
21620,23.545,4.7273,0.1,1.6623e-05,166.11,1.2694e-05,94.757,5.5202e-08,-0.20402,-1.2834e-05,-97.047,2.2617
21621,23.636,4.4545,0.1,1.6423e-05,164.12,1.1348e-05,76.298,1.1517e-06,-0.3108,-1.3729e-05,-112.12,2.2753
21622,23.545,4.5455,0.1,1.7258e-05,172.46,1.295e-05,94.99,2.7924e-07,-0.21124,-1.3546e-05,-104.09,2.2617
21623,23.636,4.2727,0.1,1.6941e-05,169.29,1.1538e-05,76.357,1.3337e-06,-0.31608,-1.4289e-05,-117.7,2.2754
21624,23.545,4.3636,0.1,1.7797e-05,177.85,1.3162e-05,95.135,4.7113e-07,-0.21652,-1.4148e-05,-110.06,2.2618
21625,23.636,4.0909,0.1,1.7372e-05,173.6,1.1694e-05,76.381,1.4862e-06,-0.31999,-1.4756e-05,-122.36,2.2754
21626,23.545,4.1818,0.1,1.8251e-05,182.38,1.3336e-05,95.221,6.3352e-07,-0.22041,-1.4653e-05,-115.07,2.2619
21627,23.636,3.9091,0.1,1.7724e-05,177.12,1.1821e-05,76.383,1.6115e-06,-0.32289,-1.5137e-05,-126.16,2.2755
21628,23.545,4,0.1,1.8625e-05,186.12,1.3478e-05,95.268,7.6868e-07,-0.2233,-1.5069e-05,-119.22,2.262
21629,23.636,3.7273,0.1,1.8005e-05,179.93,1.192e-05,76.374,1.7116e-06,-0.325,-1.5439e-05,-129.19,2.2755
21630,23.545,3.8182,0.1,1.8928e-05,189.15,1.3591e-05,95.288,8.7851e-07,-0.22544,-1.5405e-05,-122.57,2.262
21631,23.636,3.5455,0.1,1.8218e-05,182.06,1.1994e-05,76.36,1.788e-06,-0.32651,-1.5669e-05,-131.49,2.2756
21632,23.545,3.6364,0.1,1.9164e-05,191.51,1.3678e-05,95.294,9.6455e-07,-0.22698,-1.5667e-05,-125.19,2.2621
21633,23.636,3.3636,0.1,1.8368e-05,183.55,1.2046e-05,76.347,1.8417e-06,-0.32751,-1.5831e-05,-133.11,2.2756
21634,23.545,3.4545,0.1,1.9338e-05,193.25,1.3741e-05,95.291,1.028e-06,-0.22805,-1.5859e-05,-127.11,2.2621
21635,23.636,3.1818,0.1,1.8457e-05,184.44,1.2077e-05,76.338,1.8736e-06,-0.32809,-1.5926e-05,-134.07,2.2756
21636,23.545,3.2727,0.1,1.9452e-05,194.39,1.3782e-05,95.287,1.0698e-06,-0.22873,-1.5986e-05,-128.38,2.2621
21637,23.636,3,0.1,1.8486e-05,184.73,1.2087e-05,76.334,1.8842e-06,-0.32828,-1.5958e-05,-134.39,2.2756
21638,23.545,3.0909,0.1,1.9509e-05,194.95,1.3803e-05,95.284,1.0906e-06,-0.22906,-1.6048e-05,-129,2.2621
21639,23.636,2.8182,0.1,1.8457e-05,184.44,1.2077e-05,76.338,1.8736e-06,-0.32809,-1.5926e-05,-134.07,2.2756
21640,23.545,2.9091,0.1,1.9509e-05,194.95,1.3803e-05,95.284,1.0906e-06,-0.22906,-1.6048e-05,-129,2.2621
21641,23.636,2.6364,0.1,1.8368e-05,183.55,1.2046e-05,76.347,1.8417e-06,-0.32751,-1.5831e-05,-133.11,2.2756
21642,23.545,2.7273,0.1,1.9452e-05,194.39,1.3782e-05,95.287,1.0698e-06,-0.22873,-1.5986e-05,-128.38,2.2621
21643,23.636,2.4545,0.1,1.8218e-05,182.06,1.1994e-05,76.36,1.788e-06,-0.32651,-1.5669e-05,-131.49,2.2756
21644,23.545,2.5455,0.1,1.9338e-05,193.25,1.3741e-05,95.291,1.028e-06,-0.22805,-1.5859e-05,-127.11,2.2621
21645,23.636,2.2727,0.1,1.8005e-05,179.93,1.192e-05,76.374,1.7116e-06,-0.325,-1.5439e-05,-129.19,2.2755
21646,23.545,2.3636,0.1,1.9164e-05,191.51,1.3678e-05,95.294,9.6455e-07,-0.22698,-1.5667e-05,-125.19,2.2621
21647,23.636,2.0909,0.1,1.7724e-05,177.12,1.1821e-05,76.383,1.6115e-06,-0.32289,-1.5137e-05,-126.16,2.2755
21648,23.545,2.1818,0.1,1.8928e-05,189.15,1.3591e-05,95.288,8.7851e-07,-0.22544,-1.5405e-05,-122.57,2.262
21649,23.636,1.9091,0.1,1.7372e-05,173.6,1.1694e-05,76.381,1.4862e-06,-0.31999,-1.4756e-05,-122.36,2.2754
21650,23.545,2,0.1,1.8625e-05,186.12,1.3478e-05,95.268,7.6868e-07,-0.2233,-1.5069e-05,-119.22,2.262
21651,23.636,1.7273,0.1,1.6941e-05,169.29,1.1538e-05,76.357,1.3337e-06,-0.31609,-1.4289e-05,-117.7,2.2754
21652,23.545,1.8182,0.1,1.8251e-05,182.38,1.3336e-05,95.221,6.3352e-07,-0.22041,-1.4653e-05,-115.07,2.2619
21653,23.636,1.5455,0.1,1.6423e-05,164.12,1.1348e-05,76.298,1.1517e-06,-0.3108,-1.3729e-05,-112.12,2.2753
21654,23.545,1.6364,0.1,1.7797e-05,177.85,1.3162e-05,95.135,4.7113e-07,-0.21652,-1.4148e-05,-110.06,2.2618
21655,23.636,1.3636,0.1,1.581e-05,157.99,1.1117e-05,76.182,9.3746e-07,-0.30363,-1.3062e-05,-105.49,2.2752
21656,23.545,1.4545,0.1,1.7258e-05,172.46,1.295e-05,94.99,2.7923e-07,-0.21124,-1.3546e-05,-104.09,2.2617
21657,23.636,1.1818,0.1,1.5088e-05,150.78,1.0839e-05,75.983,6.8759e-07,-0.29359,-1.2276e-05,-97.694,2.2751
21658,23.545,1.2727,0.1,1.6623e-05,166.11,1.2694e-05,94.757,5.52e-08,-0.20402,-1.2834e-05,-97.047,2.2617
21659,23.636,1,0.1,1.4245e-05,142.35,1.0504e-05,75.655,3.9816e-07,-0.27956,-1.1351e-05,-88.559,2.275
21660,23.545,1.0909,0.1,1.5881e-05,158.7,1.2386e-05,94.402,-2.0394e-07,-0.19362,-1.1998e-05,-88.813,2.2616
21661,23.636,0.81818,0.1,1.3261e-05,132.52,1.0099e-05,75.134,6.4965e-08,-0.25687,-1.0266e-05,-77.879,2.2749
21662,23.545,0.90909,0.1,1.502e-05,150.1,1.2016e-05,93.871,-5.0146e-07,-0.17922,-1.1022e-05,-79.229,2.2615
21663,23.636,0.63636,0.1,1.2119e-05,121.11,9.6051e-06,74.322,-3.1666e-07,-0.22666,-8.9933e-06,-65.42,2.2748
21664,23.545,0.72727,0.1,1.403e-05,140.2,1.1572e-05,93.102,-8.3997e-07,-0.15316,-9.8871e-06,-68.13,2.2613
21665,23.636,0.45455,0.1,1.0815e-05,108.08,9.0073e-06,73.145,-7.4525e-07,-0.13221,-7.5124e-06,-50.978,2.2747
21666,23.545,0.54545,0.1,1.2908e-05,129,1.1042e-05,92.026,-1.222e-06,-0.12326,-8.5783e-06,-55.396,2.2612
21667,23.636,0.27273,0.1,9.489e-06,94.825,8.3818e-06,72.119,-1.214e-06,0.019613,-5.9143e-06,-35.296,2.2745
21668,23.545,0.36364,0.1,1.1698e-05,116.9,1.0442e-05,90.775,-1.6379e-06,0.014514,-7.1142e-06,-41.133,2.2611
21669,23.545,0.18182,0.1,1.0749e-05,107.41,1.0012e-05,90.993,-2.0852e-06,0.10215,-5.7641e-06,-27.54,2.261
21670,23.636,0.090909,0.1,8.0318e-06,80.262,7.5575e-06,69.382,-1.6992e-06,-0.17017,-4.1309e-06,-18.441,2.2744
21671,23.453,5.7273,0.1,1.2869e-05,128.6,1.1993e-05,109.06,-2.5096e-06,0.092285,-6.8853e-06,-32.785,2.2475
21672,23.362,5.8182,0.1,1.4413e-05,144.03,1.3764e-05,128.69,-3.3502e-06,0.094651,-6.9494e-06,-26.948,2.234
21673,23.453,5.9091,0.1,1.1624e-05,116.16,1.1206e-05,105.95,-2.9038e-06,-0.063639,-5.3195e-06,-18.215,2.2474
21674,23.453,5.5455,0.1,1.3801e-05,137.92,1.2457e-05,109.51,-2.1174e-06,0.0024556,-8.1578e-06,-45.383,2.2477
21675,23.362,5.6364,0.1,1.4991e-05,149.8,1.4003e-05,127.64,-2.9767e-06,0.061007,-7.9509e-06,-37.313,2.2341
21676,23.453,5.3636,0.1,1.4864e-05,148.54,1.3001e-05,110.75,-1.7476e-06,-0.067009,-9.4623e-06,-58.032,2.2478
21677,23.362,5.4545,0.1,1.5934e-05,159.23,1.4509e-05,128.67,-2.6228e-06,-0.045669,-9.1901e-06,-49.39,2.2342
21678,23.453,5.1818,0.1,1.5852e-05,158.41,1.3485e-05,111.82,-1.4085e-06,-0.091621,-1.0638e-05,-69.439,2.2479
21679,23.362,5.2727,0.1,1.6874e-05,168.62,1.5e-05,129.83,-2.2888e-06,-0.071074,-1.0362e-05,-60.733,2.2344
21680,23.453,5,0.1,1.6728e-05,167.17,1.3896e-05,112.61,-1.1057e-06,-0.1092,-1.1666e-05,-79.457,2.248
21681,23.362,5.0909,0.1,1.7737e-05,177.24,1.5432e-05,130.78,-1.9858e-06,-0.092775,-1.1413e-05,-70.926,2.2345
21682,23.453,4.8182,0.1,1.7493e-05,174.81,1.424e-05,113.17,-8.3846e-07,-0.12007,-1.2554e-05,-88.149,2.2481
21683,23.362,4.9091,0.1,1.8504e-05,184.91,1.5802e-05,131.51,-1.715e-06,-0.10492,-1.2334e-05,-79.896,2.2346
21684,23.453,4.6364,0.1,1.8152e-05,181.4,1.4527e-05,113.57,-6.0517e-07,-0.12781,-1.3316e-05,-95.629,2.2482
21685,23.362,4.7273,0.1,1.9173e-05,191.6,1.6114e-05,132.05,-1.4761e-06,-0.11361,-1.3132e-05,-87.693,2.2347
21686,23.453,4.4545,0.1,1.8716e-05,187.03,1.4765e-05,113.83,-4.0352e-07,-0.13331,-1.3964e-05,-102.02,2.2483
21687,23.362,4.5455,0.1,1.9751e-05,197.38,1.6374e-05,132.43,-1.2677e-06,-0.11961,-1.3817e-05,-94.407,2.2348
21688,23.453,4.2727,0.1,1.9193e-05,191.79,1.4961e-05,114.01,-2.3123e-07,-0.13736,-1.451e-05,-107.42,2.2484
21689,23.362,4.3636,0.1,2.0245e-05,202.31,1.659e-05,132.7,-1.0879e-06,-0.12398,-1.4398e-05,-100.13,2.2349
21690,23.453,4.0909,0.1,1.959e-05,195.77,1.5121e-05,114.12,-8.6191e-08,-0.14036,-1.4965e-05,-111.93,2.2484
21691,23.362,4.1818,0.1,2.066e-05,206.45,1.6767e-05,132.88,-9.3502e-07,-0.12719,-1.4887e-05,-104.95,2.2349
21692,23.453,3.9091,0.1,1.9916e-05,199.02,1.5249e-05,114.18,3.3425e-08,-0.14259,-1.5337e-05,-115.63,2.2485
21693,23.362,4,0.1,2.1003e-05,209.89,1.6911e-05,133,-8.0727e-07,-0.12958,-1.529e-05,-108.95,2.235
21694,23.453,3.7273,0.1,2.0175e-05,201.61,1.535e-05,114.22,1.2918e-07,-0.14423,-1.5632e-05,-118.57,2.2485
21695,23.362,3.8182,0.1,2.1281e-05,212.66,1.7026e-05,133.08,-7.0316e-07,-0.13133,-1.5616e-05,-112.18,2.235
21696,23.453,3.5455,0.1,2.0372e-05,203.58,1.5426e-05,114.24,2.0235e-07,-0.1454,-1.5856e-05,-120.81,2.2486
21697,23.362,3.6364,0.1,2.1498e-05,214.83,1.7114e-05,133.12,-6.2142e-07,-0.13261,-1.587e-05,-114.71,2.2351
21698,23.453,3.3636,0.1,2.051e-05,204.96,1.5478e-05,114.24,2.5391e-07,-0.14619,-1.6014e-05,-122.38,2.2486
21699,23.362,3.4545,0.1,2.1657e-05,216.42,1.7177e-05,133.15,-5.6102e-07,-0.1335,-1.6057e-05,-116.56,2.2351
21700,23.453,3.1818,0.1,2.0592e-05,205.78,1.5509e-05,114.25,2.8457e-07,-0.14664,-1.6107e-05,-123.31,2.2486
21701,23.362,3.2727,0.1,2.1761e-05,217.46,1.7219e-05,133.16,-5.2119e-07,-0.13405,-1.6179e-05,-117.78,2.2351
21702,23.453,3,0.1,2.0619e-05,206.05,1.552e-05,114.25,2.9474e-07,-0.14679,-1.6138e-05,-123.62,2.2486
21703,23.362,3.0909,0.1,2.1813e-05,217.98,1.724e-05,133.16,-5.014e-07,-0.13433,-1.624e-05,-118.39,2.2351
21704,23.453,2.8182,0.1,2.0592e-05,205.78,1.5509e-05,114.25,2.8457e-07,-0.14664,-1.6107e-05,-123.31,2.2486
21705,23.362,2.9091,0.1,2.1813e-05,217.98,1.724e-05,133.16,-5.014e-07,-0.13433,-1.624e-05,-118.39,2.2351
21706,23.453,2.6364,0.1,2.051e-05,204.96,1.5478e-05,114.24,2.5391e-07,-0.14619,-1.6014e-05,-122.38,2.2486
21707,23.362,2.7273,0.1,2.1761e-05,217.46,1.7219e-05,133.16,-5.2119e-07,-0.13405,-1.6179e-05,-117.78,2.2351
21708,23.453,2.4545,0.1,2.0372e-05,203.58,1.5426e-05,114.24,2.0235e-07,-0.1454,-1.5856e-05,-120.81,2.2486
21709,23.362,2.5455,0.1,2.1657e-05,216.42,1.7177e-05,133.15,-5.6102e-07,-0.1335,-1.6057e-05,-116.56,2.2351
21710,23.453,2.2727,0.1,2.0175e-05,201.61,1.535e-05,114.22,1.2918e-07,-0.14423,-1.5632e-05,-118.57,2.2485
21711,23.362,2.3636,0.1,2.1498e-05,214.83,1.7114e-05,133.12,-6.2142e-07,-0.13261,-1.587e-05,-114.71,2.2351
21712,23.453,2.0909,0.1,1.9916e-05,199.02,1.5249e-05,114.18,3.3425e-08,-0.14259,-1.5337e-05,-115.63,2.2485
21713,23.362,2.1818,0.1,2.1281e-05,212.66,1.7026e-05,133.08,-7.0316e-07,-0.13133,-1.5616e-05,-112.18,2.235
21714,23.453,1.9091,0.1,1.959e-05,195.77,1.5121e-05,114.12,-8.6192e-08,-0.14036,-1.4965e-05,-111.93,2.2484
21715,23.362,2,0.1,2.1003e-05,209.89,1.6911e-05,133,-8.0727e-07,-0.12958,-1.529e-05,-108.95,2.235
21716,23.453,1.7273,0.1,1.9193e-05,191.79,1.4961e-05,114.01,-2.3123e-07,-0.13736,-1.451e-05,-107.42,2.2484
21717,23.362,1.8182,0.1,2.066e-05,206.45,1.6767e-05,132.88,-9.3502e-07,-0.12719,-1.4887e-05,-104.95,2.2349
21718,23.453,1.5455,0.1,1.8716e-05,187.03,1.4765e-05,113.83,-4.0352e-07,-0.13331,-1.3964e-05,-102.02,2.2483
21719,23.362,1.6364,0.1,2.0245e-05,202.31,1.659e-05,132.7,-1.0879e-06,-0.12398,-1.4398e-05,-100.13,2.2349
21720,23.453,1.3636,0.1,1.8152e-05,181.4,1.4527e-05,113.57,-6.0517e-07,-0.12781,-1.3316e-05,-95.629,2.2482
21721,23.362,1.4545,0.1,1.9751e-05,197.38,1.6374e-05,132.43,-1.2677e-06,-0.11961,-1.3817e-05,-94.407,2.2348
21722,23.453,1.1818,0.1,1.7493e-05,174.81,1.424e-05,113.17,-8.3846e-07,-0.12007,-1.2554e-05,-88.149,2.2481
21723,23.362,1.2727,0.1,1.9173e-05,191.6,1.6114e-05,132.05,-1.4761e-06,-0.11361,-1.3132e-05,-87.693,2.2347
21724,23.453,1,0.1,1.6728e-05,167.17,1.3896e-05,112.61,-1.1057e-06,-0.1092,-1.1666e-05,-79.457,2.248
21725,23.362,1.0909,0.1,1.8504e-05,184.91,1.5802e-05,131.51,-1.715e-06,-0.10492,-1.2334e-05,-79.896,2.2346
21726,23.453,0.81818,0.1,1.5852e-05,158.41,1.3485e-05,111.82,-1.4085e-06,-0.091622,-1.0638e-05,-69.439,2.2479
21727,23.362,0.90909,0.1,1.7737e-05,177.24,1.5432e-05,130.78,-1.9858e-06,-0.092777,-1.1413e-05,-70.926,2.2345
21728,23.453,0.63636,0.1,1.4864e-05,148.54,1.3001e-05,110.75,-1.7476e-06,-0.067009,-9.4623e-06,-58.032,2.2478
21729,23.362,0.72727,0.1,1.6874e-05,168.62,1.5e-05,129.83,-2.2888e-06,-0.071074,-1.0362e-05,-60.733,2.2344
21730,23.453,0.45455,0.1,1.3801e-05,137.92,1.2457e-05,109.51,-2.1174e-06,0.002458,-8.1578e-06,-45.383,2.2477
21731,23.362,0.54545,0.1,1.5934e-05,159.23,1.4509e-05,128.67,-2.6228e-06,-0.045669,-9.1901e-06,-49.39,2.2342
21732,23.453,0.27273,0.1,1.2869e-05,128.6,1.1993e-05,109.06,-2.5096e-06,0.092287,-6.8853e-06,-32.785,2.2475
21733,23.362,0.36364,0.1,1.4991e-05,149.8,1.4003e-05,127.64,-2.9767e-06,0.06101,-7.9509e-06,-37.313,2.2341
21734,23.362,0.18182,0.1,1.4413e-05,144.03,1.3764e-05,128.69,-3.3502e-06,0.094652,-6.9494e-06,-26.948,2.234
21735,23.453,0.090909,0.1,1.1624e-05,116.16,1.1206e-05,105.95,-2.9038e-06,-0.063641,-5.3195e-06,-18.215,2.2474
21736,23.271,5.7273,0.1,1.645e-05,164.39,1.5703e-05,146.73,-3.8162e-06,0.071067,-7.9455e-06,-30.955,2.2206
21737,23.18,5.8182,0.1,1.8157e-05,181.44,1.7564e-05,166.84,-4.6317e-06,0.069266,-8.1509e-06,-26.373,2.207
21738,23.271,5.9091,0.1,1.5323e-05,153.13,1.4939e-05,143.35,-4.1459e-06,-0.047988,-6.5277e-06,-17.943,2.2204
21739,23.271,5.5455,0.1,1.7107e-05,170.95,1.6031e-05,146.63,-3.4835e-06,0.001962,-8.9586e-06,-41.136,2.2207
21740,23.18,5.6364,0.1,1.8493e-05,184.8,1.7666e-05,165.2,-4.3132e-06,0.058184,-8.9005e-06,-34.409,2.2071
21741,23.271,5.3636,0.1,1.7955e-05,179.42,1.6496e-05,147.67,-3.165e-06,-0.057813,-1.0078e-05,-51.998,2.2208
21742,23.18,5.4545,0.1,1.9223e-05,192.1,1.8073e-05,165.9,-4.0103e-06,-0.032354,-9.9355e-06,-44.552,2.2073
21743,23.271,5.1818,0.1,1.8786e-05,187.73,1.694e-05,148.75,-2.867e-06,-0.078962,-1.113e-05,-62.167,2.2209
21744,23.18,5.2727,0.1,1.9994e-05,199.8,1.8503e-05,166.92,-3.7197e-06,-0.053943,-1.0959e-05,-54.444,2.2074
21745,23.271,5,0.1,1.955e-05,195.36,1.7335e-05,149.66,-2.596e-06,-0.094719,-1.2077e-05,-71.331,2.221
21746,23.18,5.0909,0.1,2.073e-05,207.16,1.8903e-05,167.89,-3.4516e-06,-0.07336,-1.1905e-05,-63.59,2.2075
21747,23.271,4.8182,0.1,2.023e-05,202.16,1.7673e-05,150.37,-2.3534e-06,-0.1045,-1.2909e-05,-79.418,2.2211
21748,23.18,4.9091,0.1,2.1401e-05,213.87,1.9256e-05,168.71,-3.2086e-06,-0.084423,-1.2753e-05,-71.8,2.2076
21749,23.271,4.6364,0.1,2.0823e-05,208.09,1.7959e-05,150.9,-2.1394e-06,-0.11141,-1.3631e-05,-86.455,2.2212
21750,23.18,4.7273,0.1,2.1997e-05,219.82,1.956e-05,169.36,-2.9919e-06,-0.092302,-1.3498e-05,-79.035,2.2077
21751,23.271,4.4545,0.1,2.1334e-05,213.19,1.8199e-05,151.29,-1.9529e-06,-0.11628,-1.425e-05,-92.509,2.2213
21752,23.18,4.5455,0.1,2.2516e-05,225.01,1.9817e-05,169.85,-2.8011e-06,-0.09773,-1.4144e-05,-85.323,2.2078
21753,23.271,4.2727,0.1,2.1768e-05,217.53,1.8396e-05,151.57,-1.7925e-06,-0.11984,-1.4773e-05,-97.653,2.2214
21754,23.18,4.3636,0.1,2.2962e-05,229.46,2.0032e-05,170.22,-2.6355e-06,-0.10166,-1.4696e-05,-90.717,2.2079
21755,23.271,4.0909,0.1,2.2131e-05,221.15,1.8558e-05,151.76,-1.6569e-06,-0.12245,-1.5211e-05,-101.96,2.2215
21756,23.18,4.1818,0.1,2.3338e-05,233.22,2.021e-05,170.48,-2.4938e-06,-0.10452,-1.5161e-05,-95.278,2.208
21757,23.271,3.9091,0.1,2.2428e-05,224.12,1.8688e-05,151.89,-1.5447e-06,-0.12439,-1.5569e-05,-105.5,2.2215
21758,23.18,4,0.1,2.365e-05,236.34,2.0354e-05,170.67,-2.3751e-06,-0.10663,-1.5546e-05,-99.068,2.208
21759,23.271,3.7273,0.1,2.2664e-05,226.49,1.8789e-05,151.98,-1.4546e-06,-0.1258,-1.5853e-05,-108.31,2.2216
21760,23.18,3.8182,0.1,2.3903e-05,238.86,2.0468e-05,170.79,-2.278e-06,-0.10818,-1.5858e-05,-102.14,2.2081
21761,23.271,3.5455,0.1,2.2844e-05,228.28,1.8865e-05,152.03,-1.3856e-06,-0.1268,-1.607e-05,-110.46,2.2216
21762,23.18,3.6364,0.1,2.41e-05,240.83,2.0556e-05,170.88,-2.2016e-06,-0.10929,-1.6101e-05,-104.54,2.2081
21763,23.271,3.3636,0.1,2.297e-05,229.54,1.8918e-05,152.06,-1.3369e-06,-0.12747,-1.6221e-05,-111.96,2.2216
21764,23.18,3.4545,0.1,2.4244e-05,242.28,2.0619e-05,170.93,-2.1451e-06,-0.11007,-1.6279e-05,-106.31,2.2082
21765,23.271,3.1818,0.1,2.3045e-05,230.29,1.8949e-05,152.08,-1.308e-06,-0.12786,-1.6311e-05,-112.86,2.2217
21766,23.18,3.2727,0.1,2.4339e-05,243.22,2.0661e-05,170.96,-2.1078e-06,-0.11055,-1.6396e-05,-107.47,2.2082
21767,23.271,3,0.1,2.3069e-05,230.54,1.896e-05,152.08,-1.2984e-06,-0.12798,-1.6341e-05,-113.15,2.2217
21768,23.18,3.0909,0.1,2.4386e-05,243.69,2.0681e-05,170.98,-2.0892e-06,-0.11079,-1.6454e-05,-108.05,2.2082
21769,23.271,2.8182,0.1,2.3045e-05,230.29,1.8949e-05,152.08,-1.308e-06,-0.12786,-1.6311e-05,-112.86,2.2217
21770,23.18,2.9091,0.1,2.4386e-05,243.69,2.0681e-05,170.98,-2.0892e-06,-0.11079,-1.6454e-05,-108.05,2.2082
21771,23.271,2.6364,0.1,2.297e-05,229.54,1.8918e-05,152.06,-1.3369e-06,-0.12747,-1.6221e-05,-111.96,2.2216
21772,23.18,2.7273,0.1,2.4339e-05,243.22,2.0661e-05,170.96,-2.1078e-06,-0.11055,-1.6396e-05,-107.47,2.2082
21773,23.271,2.4545,0.1,2.2844e-05,228.28,1.8865e-05,152.03,-1.3856e-06,-0.1268,-1.607e-05,-110.46,2.2216
21774,23.18,2.5455,0.1,2.4244e-05,242.28,2.0619e-05,170.93,-2.1451e-06,-0.11007,-1.6279e-05,-106.31,2.2082
21775,23.271,2.2727,0.1,2.2664e-05,226.49,1.8789e-05,151.98,-1.4546e-06,-0.1258,-1.5853e-05,-108.31,2.2216
21776,23.18,2.3636,0.1,2.41e-05,240.83,2.0556e-05,170.88,-2.2016e-06,-0.10929,-1.6101e-05,-104.54,2.2081
21777,23.271,2.0909,0.1,2.2428e-05,224.12,1.8688e-05,151.89,-1.5447e-06,-0.12439,-1.5569e-05,-105.5,2.2215
21778,23.18,2.1818,0.1,2.3903e-05,238.86,2.0468e-05,170.79,-2.278e-06,-0.10818,-1.5858e-05,-102.14,2.2081
21779,23.271,1.9091,0.1,2.2131e-05,221.15,1.8558e-05,151.76,-1.6569e-06,-0.12245,-1.5211e-05,-101.96,2.2215
21780,23.18,2,0.1,2.365e-05,236.34,2.0354e-05,170.67,-2.3751e-06,-0.10663,-1.5546e-05,-99.068,2.208
21781,23.271,1.7273,0.1,2.1768e-05,217.53,1.8396e-05,151.57,-1.7925e-06,-0.11984,-1.4773e-05,-97.653,2.2214
21782,23.18,1.8182,0.1,2.3338e-05,233.22,2.021e-05,170.48,-2.4938e-06,-0.10452,-1.5161e-05,-95.278,2.208
21783,23.271,1.5455,0.1,2.1334e-05,213.19,1.8199e-05,151.29,-1.9529e-06,-0.11628,-1.425e-05,-92.509,2.2213
21784,23.18,1.6364,0.1,2.2962e-05,229.46,2.0032e-05,170.22,-2.6355e-06,-0.10166,-1.4696e-05,-90.716,2.2079
21785,23.271,1.3636,0.1,2.0823e-05,208.09,1.7959e-05,150.9,-2.1394e-06,-0.11141,-1.3631e-05,-86.455,2.2212
21786,23.18,1.4545,0.1,2.2516e-05,225.01,1.9817e-05,169.85,-2.8011e-06,-0.09773,-1.4144e-05,-85.322,2.2078
21787,23.271,1.1818,0.1,2.023e-05,202.16,1.7673e-05,150.37,-2.3534e-06,-0.1045,-1.2909e-05,-79.418,2.2211
21788,23.18,1.2727,0.1,2.1997e-05,219.82,1.956e-05,169.36,-2.9919e-06,-0.092304,-1.3498e-05,-79.035,2.2077
21789,23.271,1,0.1,1.955e-05,195.36,1.7335e-05,149.66,-2.596e-06,-0.094719,-1.2077e-05,-71.331,2.221
21790,23.18,1.0909,0.1,2.1401e-05,213.87,1.9256e-05,168.71,-3.2086e-06,-0.084423,-1.2753e-05,-71.8,2.2076
21791,23.271,0.81818,0.1,1.8786e-05,187.73,1.694e-05,148.75,-2.867e-06,-0.078962,-1.113e-05,-62.167,2.2209
21792,23.18,0.90909,0.1,2.073e-05,207.16,1.8903e-05,167.89,-3.4516e-06,-0.073361,-1.1905e-05,-63.59,2.2075
21793,23.271,0.63636,0.1,1.7955e-05,179.42,1.6496e-05,147.67,-3.165e-06,-0.057813,-1.0078e-05,-51.998,2.2208
21794,23.18,0.72727,0.1,1.9994e-05,199.8,1.8503e-05,166.92,-3.7197e-06,-0.053943,-1.0959e-05,-54.444,2.2074
21795,23.271,0.45455,0.1,1.7107e-05,170.95,1.6031e-05,146.63,-3.4835e-06,0.0019621,-8.9586e-06,-41.136,2.2207
21796,23.18,0.54545,0.1,1.9223e-05,192.1,1.8073e-05,165.9,-4.0103e-06,-0.032355,-9.9355e-06,-44.552,2.2073
21797,23.271,0.27273,0.1,1.645e-05,164.39,1.5703e-05,146.73,-3.8162e-06,0.071069,-7.9455e-06,-30.955,2.2206
21798,23.18,0.36364,0.1,1.8493e-05,184.8,1.7666e-05,165.2,-4.3132e-06,0.058185,-8.9005e-06,-34.409,2.2071
21799,23.18,0.18182,0.1,1.8157e-05,181.44,1.7564e-05,166.84,-4.6317e-06,0.069268,-8.1509e-06,-26.373,2.207
21800,23.271,0.090909,0.1,1.5323e-05,153.13,1.4939e-05,143.35,-4.1459e-06,-0.047989,-6.5277e-06,-17.943,2.2204
21801,23.089,5.7273,0.1,2.0127e-05,201.13,1.9466e-05,184.85,-5.1272e-06,0.068018,-9.0465e-06,-29.38,2.1936
21802,22.998,5.8182,0.1,2.1941e-05,219.26,2.1391e-05,205.29,-5.9245e-06,0.055434,-9.3545e-06,-25.717,2.18
21803,23.089,5.9091,0.1,1.908e-05,190.67,1.872e-05,181.27,-5.4088e-06,-0.027666,-7.7425e-06,-17.562,2.1934
21804,23.089,5.5455,0.1,2.0585e-05,205.71,1.9685e-05,184.29,-4.841e-06,0.017079,-9.8537e-06,-37.646,2.1937
21805,22.998,5.6364,0.1,2.2107e-05,220.92,2.139e-05,203.22,-5.6493e-06,0.058907,-9.9117e-06,-31.967,2.1802
21806,23.089,5.3636,0.1,2.1258e-05,212.43,2.0068e-05,185.05,-4.5657e-06,-0.033433,-1.0803e-05,-46.896,2.1938
21807,22.998,5.4545,0.1,2.2671e-05,226.55,2.1709e-05,203.58,-5.3882e-06,-0.017355,-1.0772e-05,-40.47,2.1803
21808,23.089,5.1818,0.1,2.1947e-05,219.32,2.0458e-05,186.01,-4.3049e-06,-0.052138,-1.1725e-05,-55.805,2.194
21809,22.998,5.2727,0.1,2.3296e-05,232.8,2.2072e-05,204.39,-5.1355e-06,-0.036215,-1.1651e-05,-48.989,2.1804
21810,23.089,5,0.1,2.26e-05,225.85,2.082e-05,186.91,-4.0648e-06,-0.066338,-1.2576e-05,-64.018,2.1941
21811,22.998,5.0909,0.1,2.3914e-05,238.98,2.2427e-05,205.27,-4.9001e-06,-0.053658,-1.2486e-05,-57.049,2.1805
21812,23.089,4.8182,0.1,2.3194e-05,231.78,2.114e-05,187.67,-3.8475e-06,-0.075258,-1.3339e-05,-71.39,2.1942
21813,22.998,4.9091,0.1,2.4492e-05,244.75,2.2751e-05,206.08,-4.6844e-06,-0.06382,-1.325e-05,-64.419,2.1807
21814,23.089,4.6364,0.1,2.3721e-05,237.04,2.1416e-05,188.29,-3.654e-06,-0.081554,-1.4009e-05,-77.883,2.1943
21815,22.998,4.7273,0.1,2.5014e-05,249.97,2.3038e-05,206.76,-4.4903e-06,-0.071097,-1.3931e-05,-71.004,2.1808
21816,23.089,4.4545,0.1,2.4178e-05,241.62,2.165e-05,188.76,-3.4841e-06,-0.085986,-1.4588e-05,-83.516,2.1944
21817,22.998,4.5455,0.1,2.5474e-05,254.56,2.3284e-05,207.31,-4.3182e-06,-0.076111,-1.4527e-05,-76.783,2.1809
21818,23.089,4.2727,0.1,2.4569e-05,245.52,2.1844e-05,189.12,-3.3372e-06,-0.089199,-1.5081e-05,-88.33,2.1945
21819,22.998,4.3636,0.1,2.5872e-05,258.54,2.3492e-05,207.74,-4.1679e-06,-0.079721,-1.5041e-05,-81.774,2.1809
21820,23.089,4.0909,0.1,2.4897e-05,248.8,2.2004e-05,189.38,-3.2124e-06,-0.091549,-1.5495e-05,-92.376,2.1945
21821,22.998,4.1818,0.1,2.6209e-05,261.91,2.3665e-05,208.07,-4.0388e-06,-0.082339,-1.5476e-05,-86.016,2.181
21822,23.089,3.9091,0.1,2.5166e-05,251.48,2.2133e-05,189.56,-3.1088e-06,-0.093273,-1.5834e-05,-95.705,2.1946
21823,22.998,4,0.1,2.649e-05,264.72,2.3805e-05,208.31,-3.9302e-06,-0.084252,-1.5837e-05,-89.55,2.1811
21824,23.089,3.7273,0.1,2.538e-05,253.62,2.2233e-05,189.69,-3.0254e-06,-0.094526,-1.6104e-05,-98.361,2.1946
21825,22.998,3.8182,0.1,2.6717e-05,266.99,2.3917e-05,208.48,-3.8412e-06,-0.085648,-1.613e-05,-92.421,2.1811
21826,23.089,3.5455,0.1,2.5542e-05,255.25,2.2309e-05,189.78,-2.9615e-06,-0.095412,-1.6309e-05,-100.39,2.1947
21827,22.998,3.6364,0.1,2.6895e-05,268.76,2.4003e-05,208.6,-3.7711e-06,-0.086648,-1.6359e-05,-94.667,2.1812
21828,23.089,3.3636,0.1,2.5657e-05,256.39,2.2361e-05,189.83,-2.9163e-06,-0.096004,-1.6453e-05,-101.81,2.1947
21829,22.998,3.4545,0.1,2.7025e-05,270.06,2.4066e-05,208.68,-3.7191e-06,-0.087337,-1.6527e-05,-96.321,2.1812
21830,23.089,3.1818,0.1,2.5724e-05,257.06,2.2392e-05,189.86,-2.8894e-06,-0.096343,-1.6539e-05,-102.65,2.1947
21831,22.998,3.2727,0.1,2.711e-05,270.92,2.4107e-05,208.73,-3.6847e-06,-0.087769,-1.6637e-05,-97.409,2.1812
21832,23.089,3,0.1,2.5747e-05,257.29,2.2402e-05,189.87,-2.8805e-06,-0.096452,-1.6567e-05,-102.93,2.1947
21833,22.998,3.0909,0.1,2.7153e-05,271.34,2.4127e-05,208.75,-3.6677e-06,-0.087978,-1.6692e-05,-97.949,2.1812
21834,23.089,2.8182,0.1,2.5724e-05,257.06,2.2392e-05,189.86,-2.8894e-06,-0.096341,-1.6539e-05,-102.65,2.1947
21835,22.998,2.9091,0.1,2.7153e-05,271.34,2.4127e-05,208.75,-3.6677e-06,-0.087976,-1.6692e-05,-97.949,2.1812
21836,23.089,2.6364,0.1,2.5657e-05,256.39,2.2361e-05,189.83,-2.9163e-06,-0.096004,-1.6453e-05,-101.81,2.1947
21837,22.998,2.7273,0.1,2.711e-05,270.92,2.4107e-05,208.73,-3.6847e-06,-0.087769,-1.6637e-05,-97.409,2.1812
21838,23.089,2.4545,0.1,2.5542e-05,255.25,2.2309e-05,189.78,-2.9615e-06,-0.095413,-1.6309e-05,-100.39,2.1947
21839,22.998,2.5455,0.1,2.7025e-05,270.06,2.4066e-05,208.68,-3.7191e-06,-0.087337,-1.6527e-05,-96.321,2.1812
21840,23.089,2.2727,0.1,2.538e-05,253.62,2.2233e-05,189.69,-3.0254e-06,-0.094526,-1.6104e-05,-98.361,2.1946
21841,22.998,2.3636,0.1,2.6895e-05,268.76,2.4003e-05,208.6,-3.7711e-06,-0.086648,-1.6359e-05,-94.667,2.1812
21842,23.089,2.0909,0.1,2.5166e-05,251.48,2.2133e-05,189.56,-3.1088e-06,-0.093272,-1.5834e-05,-95.705,2.1946
21843,22.998,2.1818,0.1,2.6717e-05,266.99,2.3917e-05,208.48,-3.8412e-06,-0.085648,-1.613e-05,-92.421,2.1811
21844,23.089,1.9091,0.1,2.4897e-05,248.8,2.2004e-05,189.38,-3.2124e-06,-0.091547,-1.5495e-05,-92.376,2.1945
21845,22.998,2,0.1,2.649e-05,264.72,2.3805e-05,208.31,-3.9302e-06,-0.084252,-1.5837e-05,-89.55,2.1811
21846,23.089,1.7273,0.1,2.4569e-05,245.52,2.1844e-05,189.12,-3.3372e-06,-0.0892,-1.5081e-05,-88.33,2.1945
21847,22.998,1.8182,0.1,2.6209e-05,261.91,2.3665e-05,208.07,-4.0388e-06,-0.082338,-1.5476e-05,-86.016,2.181
21848,23.089,1.5455,0.1,2.4178e-05,241.62,2.165e-05,188.76,-3.4841e-06,-0.085987,-1.4588e-05,-83.516,2.1944
21849,22.998,1.6364,0.1,2.5872e-05,258.54,2.3492e-05,207.74,-4.1679e-06,-0.079723,-1.5041e-05,-81.774,2.1809
21850,23.089,1.3636,0.1,2.3721e-05,237.04,2.1416e-05,188.29,-3.654e-06,-0.081555,-1.4009e-05,-77.883,2.1943
21851,22.998,1.4545,0.1,2.5474e-05,254.56,2.3284e-05,207.31,-4.3182e-06,-0.076111,-1.4527e-05,-76.783,2.1809
21852,23.089,1.1818,0.1,2.3194e-05,231.78,2.114e-05,187.67,-3.8475e-06,-0.075259,-1.3339e-05,-71.39,2.1942
21853,22.998,1.2727,0.1,2.5014e-05,249.97,2.3038e-05,206.76,-4.4903e-06,-0.071096,-1.3931e-05,-71.004,2.1808
21854,23.089,1,0.1,2.26e-05,225.85,2.082e-05,186.91,-4.0648e-06,-0.06634,-1.2576e-05,-64.018,2.1941
21855,22.998,1.0909,0.1,2.4492e-05,244.75,2.2751e-05,206.08,-4.6844e-06,-0.063821,-1.325e-05,-64.419,2.1807
21856,23.089,0.81818,0.1,2.1947e-05,219.32,2.0458e-05,186.01,-4.3049e-06,-0.052139,-1.1725e-05,-55.805,2.194
21857,22.998,0.90909,0.1,2.3914e-05,238.98,2.2427e-05,205.27,-4.9001e-06,-0.053658,-1.2486e-05,-57.049,2.1805
21858,23.089,0.63636,0.1,2.1258e-05,212.43,2.0068e-05,185.05,-4.5657e-06,-0.033435,-1.0803e-05,-46.896,2.1938
21859,22.998,0.72727,0.1,2.3296e-05,232.8,2.2072e-05,204.39,-5.1355e-06,-0.036217,-1.1651e-05,-48.989,2.1804
21860,23.089,0.45455,0.1,2.0585e-05,205.71,1.9685e-05,184.29,-4.841e-06,0.017079,-9.8537e-06,-37.646,2.1937
21861,22.998,0.54545,0.1,2.2671e-05,226.55,2.1709e-05,203.58,-5.3882e-06,-0.017357,-1.0772e-05,-40.47,2.1803
21862,23.089,0.27273,0.1,2.0127e-05,201.13,1.9466e-05,184.85,-5.1272e-06,0.06802,-9.0465e-06,-29.38,2.1936
21863,22.998,0.36364,0.1,2.2107e-05,220.92,2.139e-05,203.22,-5.6493e-06,0.05891,-9.9117e-06,-31.967,2.1802
21864,22.998,0.18182,0.1,2.1941e-05,219.26,2.1391e-05,205.29,-5.9245e-06,0.055436,-9.3545e-06,-25.717,2.18
21865,23.089,0.090909,0.1,1.908e-05,190.67,1.872e-05,181.27,-5.4088e-06,-0.027667,-7.7425e-06,-17.562,2.1934
21866,22.907,5.7273,0.1,2.3859e-05,238.43,2.3262e-05,223.26,-6.4449e-06,0.058939,-1.0168e-05,-27.918,2.1666
21867,22.816,5.8182,0.1,2.5751e-05,257.33,2.5235e-05,243.95,-7.227e-06,0.04337,-1.0556e-05,-24.97,2.1531
21868,22.907,5.9091,0.1,2.2877e-05,228.61,2.2538e-05,219.57,-6.6878e-06,-0.018725,-8.9617e-06,-17.104,2.1665
21869,22.907,5.5455,0.1,2.4169e-05,241.53,2.3393e-05,222.35,-6.1971e-06,0.019916,-1.0809e-05,-34.629,2.1668
21870,22.816,5.6364,0.1,2.5791e-05,257.73,2.5155e-05,241.56,-6.9879e-06,0.054885,-1.096e-05,-29.789,2.1532
21871,22.907,5.3636,0.1,2.4699e-05,246.82,2.3701e-05,222.83,-5.9585e-06,-0.02358,-1.1607e-05,-42.462,2.1669
21872,22.816,5.4545,0.1,2.6222e-05,262.04,2.5399e-05,241.63,-6.7619e-06,-0.01025,-1.1671e-05,-36.897,2.1534
21873,22.907,5.1818,0.1,2.5263e-05,252.46,2.4033e-05,223.59,-5.731e-06,-0.040265,-1.2402e-05,-50.167,2.167
21874,22.816,5.2727,0.1,2.6723e-05,267.05,2.5696e-05,242.2,-6.5426e-06,-0.026793,-1.2417e-05,-44.162,2.1535
21875,22.907,5,0.1,2.5813e-05,257.96,2.4353e-05,224.4,-5.5199e-06,-0.053204,-1.3153e-05,-57.405,2.1671
21876,22.816,5.0909,0.1,2.7234e-05,272.15,2.6001e-05,242.93,-6.337e-06,-0.042518,-1.314e-05,-51.16,2.1536
21877,22.907,4.8182,0.1,2.6325e-05,263.07,2.4645e-05,225.14,-5.3274e-06,-0.061485,-1.3837e-05,-64.002,2.1672
21878,22.816,4.9091,0.1,2.7724e-05,277.04,2.6289e-05,243.66,-6.1474e-06,-0.051928,-1.3815e-05,-57.66,2.1537
21879,22.907,4.6364,0.1,2.6785e-05,267.66,2.4903e-05,225.77,-5.1547e-06,-0.067356,-1.4446e-05,-69.881,2.1673
21880,22.816,4.7273,0.1,2.8173e-05,281.54,2.6549e-05,244.32,-5.9757e-06,-0.058722,-1.4425e-05,-63.541,2.1538
21881,22.907,4.4545,0.1,2.7189e-05,271.7,2.5124e-05,226.28,-5.0022e-06,-0.071485,-1.4978e-05,-75.024,2.1674
21882,22.816,4.5455,0.1,2.8575e-05,285.55,2.6777e-05,244.88,-5.8226e-06,-0.063425,-1.4964e-05,-68.75,2.1539
21883,22.907,4.2727,0.1,2.7536e-05,275.17,2.531e-05,226.69,-4.8697e-06,-0.074465,-1.5433e-05,-79.446,2.1675
21884,22.816,4.3636,0.1,2.8925e-05,289.05,2.6973e-05,245.34,-5.6884e-06,-0.066804,-1.5433e-05,-73.281,2.154
21885,22.907,4.0909,0.1,2.7829e-05,278.09,2.5464e-05,226.99,-4.7568e-06,-0.076628,-1.5817e-05,-83.179,2.1676
21886,22.816,4.1818,0.1,2.9224e-05,292.04,2.7136e-05,245.69,-5.5727e-06,-0.069241,-1.5832e-05,-77.15,2.1541
21887,22.907,3.9091,0.1,2.8069e-05,280.5,2.5589e-05,227.22,-4.6628e-06,-0.078204,-1.6133e-05,-86.257,2.1676
21888,22.816,4,0.1,2.9473e-05,294.53,2.7271e-05,245.97,-5.4752e-06,-0.071009,-1.6164e-05,-80.384,2.1542
21889,22.907,3.7273,0.1,2.8261e-05,282.42,2.5686e-05,227.38,-4.587e-06,-0.079342,-1.6384e-05,-88.719,2.1677
21890,22.816,3.8182,0.1,2.9675e-05,296.54,2.7378e-05,246.17,-5.3951e-06,-0.07229,-1.6434e-05,-83.015,2.1542
21891,22.907,3.5455,0.1,2.8407e-05,283.87,2.576e-05,227.5,-4.5288e-06,-0.080142,-1.6576e-05,-90.596,2.1677
21892,22.816,3.6364,0.1,2.9833e-05,298.12,2.746e-05,246.31,-5.3318e-06,-0.073201,-1.6645e-05,-85.077,2.1543
21893,22.907,3.3636,0.1,2.8509e-05,284.89,2.5811e-05,227.57,-4.4877e-06,-0.080672,-1.671e-05,-91.916,2.1678
21894,22.816,3.4545,0.1,2.9949e-05,299.28,2.752e-05,246.41,-5.285e-06,-0.073824,-1.68e-05,-86.596,2.1543
21895,22.907,3.1818,0.1,2.857e-05,285.5,2.584e-05,227.61,-4.4632e-06,-0.080974,-1.679e-05,-92.7,2.1678
21896,22.816,3.2727,0.1,3.0025e-05,300.04,2.7559e-05,246.47,-5.254e-06,-0.074212,-1.6902e-05,-87.596,2.1543
21897,22.907,3,0.1,2.859e-05,285.7,2.585e-05,227.62,-4.455e-06,-0.081071,-1.6816e-05,-92.96,2.1678
21898,22.816,3.0909,0.1,3.0062e-05,300.42,2.7579e-05,246.5,-5.2386e-06,-0.0744,-1.6953e-05,-88.091,2.1543
21899,22.907,2.8182,0.1,2.857e-05,285.5,2.584e-05,227.61,-4.4632e-06,-0.080973,-1.679e-05,-92.7,2.1678
21900,22.816,2.9091,0.1,3.0062e-05,300.42,2.7579e-05,246.5,-5.2386e-06,-0.074398,-1.6953e-05,-88.091,2.1543
21901,22.907,2.6364,0.1,2.8509e-05,284.89,2.5811e-05,227.57,-4.4877e-06,-0.080672,-1.671e-05,-91.916,2.1678
21902,22.816,2.7273,0.1,3.0025e-05,300.04,2.7559e-05,246.47,-5.254e-06,-0.074213,-1.6902e-05,-87.596,2.1543
21903,22.907,2.4545,0.1,2.8407e-05,283.87,2.576e-05,227.5,-4.5288e-06,-0.080143,-1.6576e-05,-90.596,2.1677
21904,22.816,2.5455,0.1,2.9949e-05,299.28,2.752e-05,246.41,-5.285e-06,-0.073824,-1.68e-05,-86.596,2.1543
21905,22.907,2.2727,0.1,2.8261e-05,282.42,2.5686e-05,227.38,-4.587e-06,-0.079342,-1.6384e-05,-88.718,2.1677
21906,22.816,2.3636,0.1,2.9833e-05,298.12,2.746e-05,246.31,-5.3318e-06,-0.073201,-1.6645e-05,-85.077,2.1543
21907,22.907,2.0909,0.1,2.8069e-05,280.5,2.5589e-05,227.22,-4.6628e-06,-0.078206,-1.6133e-05,-86.257,2.1676
21908,22.816,2.1818,0.1,2.9675e-05,296.54,2.7378e-05,246.17,-5.3951e-06,-0.07229,-1.6434e-05,-83.015,2.1542
21909,22.907,1.9091,0.1,2.7829e-05,278.09,2.5464e-05,226.99,-4.7568e-06,-0.07663,-1.5817e-05,-83.179,2.1676
21910,22.816,2,0.1,2.9473e-05,294.53,2.7271e-05,245.97,-5.4752e-06,-0.071011,-1.6164e-05,-80.384,2.1542
21911,22.907,1.7273,0.1,2.7536e-05,275.17,2.531e-05,226.69,-4.8697e-06,-0.074465,-1.5433e-05,-79.446,2.1675
21912,22.816,1.8182,0.1,2.9224e-05,292.04,2.7136e-05,245.69,-5.5727e-06,-0.069241,-1.5832e-05,-77.15,2.1541
21913,22.907,1.5455,0.1,2.7189e-05,271.7,2.5124e-05,226.28,-5.0022e-06,-0.071485,-1.4978e-05,-75.024,2.1674
21914,22.816,1.6364,0.1,2.8925e-05,289.05,2.6973e-05,245.34,-5.6884e-06,-0.066805,-1.5433e-05,-73.281,2.154
21915,22.907,1.3636,0.1,2.6785e-05,267.66,2.4903e-05,225.77,-5.1547e-06,-0.067355,-1.4446e-05,-69.881,2.1673
21916,22.816,1.4545,0.1,2.8575e-05,285.55,2.6777e-05,244.88,-5.8226e-06,-0.063425,-1.4964e-05,-68.75,2.1539
21917,22.907,1.1818,0.1,2.6325e-05,263.07,2.4645e-05,225.14,-5.3274e-06,-0.061484,-1.3837e-05,-64.002,2.1672
21918,22.816,1.2727,0.1,2.8173e-05,281.54,2.6549e-05,244.32,-5.9757e-06,-0.058721,-1.4425e-05,-63.541,2.1538
21919,22.907,1,0.1,2.5813e-05,257.96,2.4353e-05,224.4,-5.5199e-06,-0.053203,-1.3153e-05,-57.405,2.1671
21920,22.816,1.0909,0.1,2.7724e-05,277.04,2.6289e-05,243.66,-6.1474e-06,-0.05193,-1.3815e-05,-57.66,2.1537
21921,22.907,0.81818,0.1,2.5263e-05,252.46,2.4033e-05,223.59,-5.731e-06,-0.040265,-1.2402e-05,-50.167,2.167
21922,22.816,0.90909,0.1,2.7234e-05,272.15,2.6001e-05,242.93,-6.337e-06,-0.042518,-1.314e-05,-51.16,2.1536
21923,22.907,0.63636,0.1,2.4699e-05,246.82,2.3701e-05,222.83,-5.9585e-06,-0.023582,-1.1607e-05,-42.462,2.1669
21924,22.816,0.72727,0.1,2.6723e-05,267.05,2.5696e-05,242.2,-6.5426e-06,-0.026794,-1.2417e-05,-44.161,2.1535
21925,22.907,0.45455,0.1,2.4169e-05,241.53,2.3393e-05,222.35,-6.1971e-06,0.019917,-1.0809e-05,-34.629,2.1668
21926,22.816,0.54545,0.1,2.6222e-05,262.04,2.5399e-05,241.63,-6.7619e-06,-0.010251,-1.1671e-05,-36.897,2.1534
21927,22.907,0.27273,0.1,2.3859e-05,238.43,2.3262e-05,223.26,-6.4449e-06,0.058942,-1.0168e-05,-27.918,2.1666
21928,22.816,0.36364,0.1,2.5791e-05,257.73,2.5155e-05,241.56,-6.9879e-06,0.054889,-1.096e-05,-29.789,2.1532
21929,22.816,0.18182,0.1,2.5751e-05,257.33,2.5235e-05,243.95,-7.227e-06,0.04337,-1.0556e-05,-24.97,2.1531
21930,22.907,0.090909,0.1,2.2877e-05,228.61,2.2538e-05,219.57,-6.6878e-06,-0.018728,-8.9617e-06,-17.104,2.1665
21931,22.725,5.7273,0.1,2.7628e-05,276.09,2.7082e-05,261.9,-7.7683e-06,0.051708,-1.1302e-05,-26.502,2.1397
21932,22.634,5.8182,0.1,2.9578e-05,295.58,2.9094e-05,282.78,-8.5376e-06,0.034391,-1.1755e-05,-24.141,2.1261
21933,22.725,5.9091,0.1,2.6703e-05,266.85,2.6382e-05,258.17,-7.979e-06,-0.012378,-1.0184e-05,-16.581,2.1395
21934,22.725,5.5455,0.1,2.7822e-05,278.03,2.7141e-05,260.7,-7.5531e-06,0.021554,-1.1803e-05,-31.913,2.1398
21935,22.634,5.6364,0.1,2.952e-05,295,2.895e-05,280.15,-8.3294e-06,0.05042,-1.2032e-05,-27.767,2.1263
21936,22.725,5.3636,0.1,2.8234e-05,282.15,2.7381e-05,260.92,-7.3464e-06,-0.016013,-1.2468e-05,-38.499,2.14
21937,22.634,5.4545,0.1,2.9844e-05,298.23,2.9128e-05,279.97,-8.1339e-06,-0.005485,-1.2615e-05,-33.671,2.1264
21938,22.725,5.1818,0.1,2.869e-05,286.7,2.7655e-05,261.47,-7.1488e-06,-0.030893,-1.3145e-05,-45.086,2.1401
21939,22.634,5.2727,0.1,3.0239e-05,302.19,2.9365e-05,280.31,-7.9442e-06,-0.020018,-1.3239e-05,-39.8,2.1266
21940,22.725,5,0.1,2.9146e-05,291.26,2.793e-05,262.14,-6.9647e-06,-0.042696,-1.3795e-05,-51.366,2.1402
21941,22.634,5.0909,0.1,3.0655e-05,306.34,2.9618e-05,280.85,-7.7658e-06,-0.034205,-1.3855e-05,-45.788,2.1267
21942,22.725,4.8182,0.1,2.9578e-05,295.58,2.8188e-05,262.8,-6.7959e-06,-0.050401,-1.4397e-05,-57.164,2.1403
21943,22.634,4.9091,0.1,3.1061e-05,310.4,2.9865e-05,281.46,-7.6009e-06,-0.042914,-1.4439e-05,-51.421,2.1268
21944,22.725,4.6364,0.1,2.9973e-05,299.53,2.8421e-05,263.4,-6.6438e-06,-0.055906,-1.4939e-05,-62.385,2.1404
21945,22.634,4.7273,0.1,3.1442e-05,314.2,3.0095e-05,282.05,-7.451e-06,-0.049269,-1.4974e-05,-56.572,2.1269
21946,22.725,4.4545,0.1,3.0324e-05,303.03,2.8624e-05,263.91,-6.509e-06,-0.059791,-1.5417e-05,-66.989,2.1405
21947,22.634,4.5455,0.1,3.1786e-05,317.64,3.03e-05,282.58,-7.3169e-06,-0.053701,-1.5451e-05,-61.173,2.127
21948,22.725,4.2727,0.1,3.0628e-05,306.07,2.8797e-05,264.33,-6.3916e-06,-0.062587,-1.5829e-05,-70.97,2.1406
21949,22.634,4.3636,0.1,3.2088e-05,320.66,3.0478e-05,283.03,-7.1991e-06,-0.056887,-1.5869e-05,-65.199,2.1271
21950,22.725,4.0909,0.1,3.0885e-05,308.64,2.8941e-05,264.66,-6.2912e-06,-0.064606,-1.6177e-05,-74.343,2.1407
21951,22.634,4.1818,0.1,3.2348e-05,323.26,3.0628e-05,283.4,-7.0974e-06,-0.059176,-1.6226e-05,-68.651,2.1272
21952,22.725,3.9091,0.1,3.1097e-05,310.76,2.9058e-05,264.91,-6.2075e-06,-0.066067,-1.6464e-05,-77.132,2.1407
21953,22.634,4,0.1,3.2565e-05,325.43,3.0752e-05,283.68,-7.0115e-06,-0.060829,-1.6525e-05,-71.544,2.1272
21954,22.725,3.7273,0.1,3.1267e-05,312.45,2.9151e-05,265.09,-6.14e-06,-0.067112,-1.6694e-05,-79.365,2.1408
21955,22.634,3.8182,0.1,3.2742e-05,327.19,3.0852e-05,283.9,-6.9409e-06,-0.062014,-1.6768e-05,-73.902,2.1273
21956,22.725,3.5455,0.1,3.1395e-05,313.74,2.922e-05,265.22,-6.0881e-06,-0.067841,-1.6869e-05,-81.069,2.1408
21957,22.634,3.6364,0.1,3.288e-05,328.57,3.0929e-05,284.06,-6.8852e-06,-0.062852,-1.6959e-05,-75.751,2.1273
21958,22.725,3.3636,0.1,3.1486e-05,314.64,2.9268e-05,265.31,-6.0514e-06,-0.068321,-1.6992e-05,-82.269,2.1408
21959,22.634,3.4545,0.1,3.2981e-05,329.58,3.0985e-05,284.17,-6.8439e-06,-0.06342,-1.7099e-05,-77.113,2.1274
21960,22.725,3.1818,0.1,3.1539e-05,315.17,2.9297e-05,265.36,-6.0295e-06,-0.068593,-1.7064e-05,-82.981,2.1409
21961,22.634,3.2727,0.1,3.3047e-05,330.25,3.1022e-05,284.24,-6.8166e-06,-0.063772,-1.7191e-05,-78.01,2.1274
21962,22.725,3,0.1,3.1557e-05,315.35,2.9306e-05,265.37,-6.0222e-06,-0.068681,-1.7089e-05,-83.217,2.1409
21963,22.634,3.0909,0.1,3.308e-05,330.58,3.104e-05,284.27,-6.803e-06,-0.06394,-1.7236e-05,-78.455,2.1274
21964,22.725,2.8182,0.1,3.1539e-05,315.17,2.9297e-05,265.36,-6.0295e-06,-0.068593,-1.7064e-05,-82.981,2.1409
21965,22.634,2.9091,0.1,3.308e-05,330.58,3.104e-05,284.27,-6.803e-06,-0.06394,-1.7236e-05,-78.455,2.1274
21966,22.725,2.6364,0.1,3.1486e-05,314.64,2.9268e-05,265.31,-6.0514e-06,-0.068322,-1.6992e-05,-82.269,2.1408
21967,22.634,2.7273,0.1,3.3047e-05,330.25,3.1022e-05,284.24,-6.8166e-06,-0.063772,-1.7191e-05,-78.01,2.1274
21968,22.725,2.4545,0.1,3.1395e-05,313.74,2.922e-05,265.22,-6.0881e-06,-0.067841,-1.6869e-05,-81.069,2.1408
21969,22.634,2.5455,0.1,3.2981e-05,329.58,3.0985e-05,284.17,-6.8439e-06,-0.06342,-1.7099e-05,-77.113,2.1274
21970,22.725,2.2727,0.1,3.1267e-05,312.45,2.9151e-05,265.09,-6.14e-06,-0.067111,-1.6694e-05,-79.365,2.1408
21971,22.634,2.3636,0.1,3.288e-05,328.57,3.0929e-05,284.06,-6.8852e-06,-0.062852,-1.6959e-05,-75.751,2.1273
21972,22.725,2.0909,0.1,3.1097e-05,310.76,2.9058e-05,264.91,-6.2075e-06,-0.066066,-1.6464e-05,-77.132,2.1407
21973,22.634,2.1818,0.1,3.2742e-05,327.19,3.0852e-05,283.9,-6.9409e-06,-0.062014,-1.6768e-05,-73.902,2.1273
21974,22.725,1.9091,0.1,3.0885e-05,308.64,2.8941e-05,264.66,-6.2912e-06,-0.064607,-1.6177e-05,-74.343,2.1407
21975,22.634,2,0.1,3.2565e-05,325.43,3.0752e-05,283.68,-7.0115e-06,-0.06083,-1.6525e-05,-71.544,2.1272
21976,22.725,1.7273,0.1,3.0628e-05,306.07,2.8797e-05,264.33,-6.3916e-06,-0.062588,-1.5829e-05,-70.97,2.1406
21977,22.634,1.8182,0.1,3.2348e-05,323.26,3.0628e-05,283.4,-7.0974e-06,-0.059176,-1.6226e-05,-68.651,2.1272
21978,22.725,1.5455,0.1,3.0324e-05,303.03,2.8624e-05,263.91,-6.509e-06,-0.059792,-1.5417e-05,-66.989,2.1405
21979,22.634,1.6364,0.1,3.2088e-05,320.66,3.0478e-05,283.03,-7.1991e-06,-0.056888,-1.5869e-05,-65.199,2.1271
21980,22.725,1.3636,0.1,2.9973e-05,299.53,2.8421e-05,263.4,-6.6438e-06,-0.055907,-1.4939e-05,-62.385,2.1404
21981,22.634,1.4545,0.1,3.1786e-05,317.64,3.03e-05,282.58,-7.3169e-06,-0.053702,-1.5451e-05,-61.173,2.127
21982,22.725,1.1818,0.1,2.9578e-05,295.58,2.8188e-05,262.8,-6.7959e-06,-0.050403,-1.4397e-05,-57.164,2.1403
21983,22.634,1.2727,0.1,3.1442e-05,314.2,3.0095e-05,282.05,-7.451e-06,-0.04927,-1.4974e-05,-56.572,2.1269
21984,22.725,1,0.1,2.9146e-05,291.26,2.793e-05,262.14,-6.9647e-06,-0.042698,-1.3795e-05,-51.366,2.1402
21985,22.634,1.0909,0.1,3.1061e-05,310.4,2.9865e-05,281.46,-7.6009e-06,-0.042916,-1.4439e-05,-51.421,2.1268
21986,22.725,0.81818,0.1,2.869e-05,286.7,2.7655e-05,261.47,-7.1488e-06,-0.030894,-1.3145e-05,-45.086,2.1401
21987,22.634,0.90909,0.1,3.0655e-05,306.34,2.9618e-05,280.85,-7.7658e-06,-0.034205,-1.3855e-05,-45.788,2.1267
21988,22.725,0.63636,0.1,2.8234e-05,282.15,2.7381e-05,260.92,-7.3464e-06,-0.016013,-1.2468e-05,-38.499,2.14
21989,22.634,0.72727,0.1,3.0239e-05,302.19,2.9365e-05,280.31,-7.9442e-06,-0.02002,-1.3239e-05,-39.8,2.1266
21990,22.725,0.45455,0.1,2.7822e-05,278.03,2.7141e-05,260.7,-7.5531e-06,0.021556,-1.1803e-05,-31.913,2.1398
21991,22.634,0.54545,0.1,2.9844e-05,298.23,2.9128e-05,279.97,-8.1339e-06,-0.0054835,-1.2615e-05,-33.671,2.1264
21992,22.725,0.27273,0.1,2.7628e-05,276.09,2.7082e-05,261.9,-7.7683e-06,0.051708,-1.1302e-05,-26.502,2.1397
21993,22.634,0.36364,0.1,2.952e-05,295,2.895e-05,280.15,-8.3294e-06,0.050422,-1.2032e-05,-27.767,2.1263
21994,22.634,0.18182,0.1,2.9578e-05,295.58,2.9094e-05,282.78,-8.5376e-06,0.03439,-1.1755e-05,-24.141,2.1261
21995,22.725,0.090909,0.1,2.6703e-05,266.85,2.6382e-05,258.17,-7.979e-06,-0.012382,-1.0184e-05,-16.581,2.1395
21996,22.543,5.7273,0.1,3.1422e-05,314.01,3.092e-05,300.72,-9.0971e-06,0.044761,-1.2444e-05,-25.104,2.1127
21997,22.452,5.8182,0.1,3.342e-05,333.97,3.2964e-05,321.75,-9.855e-06,0.027232,-1.2952e-05,-23.242,2.0992
21998,22.543,5.9091,0.1,3.0553e-05,305.32,3.025e-05,297,-9.28e-06,-0.0085419,-1.141e-05,-16.009,2.1126
21999,22.543,5.5455,0.1,3.1523e-05,315.01,3.092e-05,299.29,-8.9105e-06,0.021153,-1.2826e-05,-29.398,2.1129
22000,22.452,5.6364,0.1,3.3283e-05,332.6,3.2768e-05,318.94,-9.6742e-06,0.045394,-1.312e-05,-25.847,2.0994
22001,22.543,5.3636,0.1,3.1837e-05,318.15,3.11e-05,299.27,-8.7319e-06,-0.011441,-1.3373e-05,-34.88,2.113
22002,22.452,5.4545,0.1,3.3517e-05,334.94,3.2889e-05,318.53,-9.5057e-06,-0.0027508,-1.359e-05,-30.691,2.0995
22003,22.543,5.1818,0.1,3.2198e-05,321.75,3.1318e-05,299.62,-8.5614e-06,-0.024749,-1.394e-05,-40.435,2.1132
22004,22.452,5.2727,0.1,3.3821e-05,337.98,3.307e-05,318.65,-9.3425e-06,-0.015576,-1.4104e-05,-35.789,2.0996
22005,22.543,5,0.1,3.2568e-05,325.46,3.1546e-05,300.12,-8.4022e-06,-0.035519,-1.4492e-05,-45.793,2.1133
22006,22.452,5.0909,0.1,3.4151e-05,341.28,3.3273e-05,319.01,-9.1894e-06,-0.028377,-1.4619e-05,-40.827,2.0998
22007,22.543,4.8182,0.1,3.2927e-05,329.04,3.1767e-05,300.67,-8.2561e-06,-0.042687,-1.501e-05,-50.792,2.1134
22008,22.452,4.9091,0.1,3.4481e-05,344.58,3.3478e-05,319.48,-9.0476e-06,-0.036428,-1.5113e-05,-45.613,2.0999
22009,22.543,4.6364,0.1,3.3259e-05,332.36,3.197e-05,301.21,-8.1242e-06,-0.047858,-1.5482e-05,-55.332,2.1135
22010,22.452,4.7273,0.1,3.4796e-05,347.72,3.3673e-05,319.98,-8.9188e-06,-0.042368,-1.5571e-05,-50.026,2.1
22011,22.543,4.4545,0.1,3.3557e-05,335.34,3.2151e-05,301.68,-8.0071e-06,-0.051525,-1.5901e-05,-59.362,2.1136
22012,22.452,4.5455,0.1,3.5084e-05,350.59,3.3851e-05,320.45,-8.8036e-06,-0.046546,-1.5984e-05,-53.995,2.1001
22013,22.543,4.2727,0.1,3.3818e-05,337.95,3.2307e-05,302.08,-7.905e-06,-0.054163,-1.6264e-05,-62.863,2.1137
22014,22.452,4.3636,0.1,3.5339e-05,353.15,3.4008e-05,320.86,-8.7023e-06,-0.049556,-1.6346e-05,-57.484,2.1002
22015,22.543,4.0909,0.1,3.4039e-05,340.16,3.2438e-05,302.41,-7.8177e-06,-0.056061,-1.6573e-05,-65.839,2.1138
22016,22.452,4.1818,0.1,3.5559e-05,355.35,3.4142e-05,321.21,-8.6149e-06,-0.051715,-1.6658e-05,-60.484,2.1003
22017,22.543,3.9091,0.1,3.4223e-05,341.99,3.2545e-05,302.66,-7.7449e-06,-0.057423,-1.6828e-05,-68.304,2.1138
22018,22.452,4,0.1,3.5744e-05,357.2,3.4253e-05,321.49,-8.5412e-06,-0.053264,-1.6919e-05,-63.002,2.1003
22019,22.543,3.7273,0.1,3.4369e-05,343.45,3.2629e-05,302.86,-7.6862e-06,-0.058391,-1.7032e-05,-70.279,2.1139
22020,22.452,3.8182,0.1,3.5895e-05,358.7,3.4343e-05,321.7,-8.4807e-06,-0.054366,-1.7132e-05,-65.056,2.1004
22021,22.543,3.5455,0.1,3.448e-05,344.56,3.2693e-05,303,-7.6411e-06,-0.059061,-1.7187e-05,-71.787,2.1139
22022,22.452,3.6364,0.1,3.6013e-05,359.88,3.4412e-05,321.87,-8.433e-06,-0.055139,-1.7298e-05,-66.666,2.1005
22023,22.543,3.3636,0.1,3.4558e-05,345.34,3.2737e-05,303.09,-7.6092e-06,-0.059499,-1.7297e-05,-72.848,2.1139
22024,22.452,3.4545,0.1,3.6099e-05,360.74,3.4463e-05,321.98,-8.3976e-06,-0.055658,-1.7421e-05,-67.852,2.1005
22025,22.543,3.1818,0.1,3.4605e-05,345.81,3.2764e-05,303.14,-7.5901e-06,-0.059745,-1.7361e-05,-73.478,2.114
22026,22.452,3.2727,0.1,3.6156e-05,361.31,3.4496e-05,322.05,-8.3743e-06,-0.055978,-1.7501e-05,-68.632,2.1005
22027,22.543,3,0.1,3.462e-05,345.96,3.2772e-05,303.16,-7.5838e-06,-0.059824,-1.7383e-05,-73.686,2.114
22028,22.452,3.0909,0.1,3.6184e-05,361.59,3.4512e-05,322.09,-8.3627e-06,-0.05613,-1.7541e-05,-69.019,2.1005
22029,22.543,2.8182,0.1,3.4605e-05,345.81,3.2764e-05,303.14,-7.5901e-06,-0.059744,-1.7361e-05,-73.478,2.114
22030,22.452,2.9091,0.1,3.6184e-05,361.59,3.4512e-05,322.09,-8.3627e-06,-0.05613,-1.7541e-05,-69.019,2.1005
22031,22.543,2.6364,0.1,3.4558e-05,345.34,3.2737e-05,303.09,-7.6092e-06,-0.059497,-1.7297e-05,-72.848,2.1139
22032,22.452,2.7273,0.1,3.6156e-05,361.31,3.4496e-05,322.05,-8.3743e-06,-0.055977,-1.7501e-05,-68.632,2.1005
22033,22.543,2.4545,0.1,3.448e-05,344.56,3.2693e-05,303,-7.6411e-06,-0.059061,-1.7187e-05,-71.787,2.1139
22034,22.452,2.5455,0.1,3.6099e-05,360.74,3.4463e-05,321.98,-8.3976e-06,-0.055658,-1.7421e-05,-67.852,2.1005
22035,22.543,2.2727,0.1,3.4369e-05,343.45,3.2629e-05,302.86,-7.6862e-06,-0.058391,-1.7032e-05,-70.279,2.1139
22036,22.452,2.3636,0.1,3.6013e-05,359.88,3.4412e-05,321.87,-8.433e-06,-0.055139,-1.7298e-05,-66.666,2.1005
22037,22.543,2.0909,0.1,3.4223e-05,341.99,3.2545e-05,302.66,-7.7449e-06,-0.057423,-1.6828e-05,-68.304,2.1138
22038,22.452,2.1818,0.1,3.5895e-05,358.7,3.4343e-05,321.7,-8.4807e-06,-0.054366,-1.7132e-05,-65.056,2.1004
22039,22.543,1.9091,0.1,3.4039e-05,340.16,3.2438e-05,302.41,-7.8177e-06,-0.056061,-1.6573e-05,-65.839,2.1138
22040,22.452,2,0.1,3.5744e-05,357.2,3.4253e-05,321.49,-8.5412e-06,-0.053264,-1.6919e-05,-63.002,2.1003
22041,22.543,1.7273,0.1,3.3818e-05,337.95,3.2307e-05,302.08,-7.905e-06,-0.054163,-1.6264e-05,-62.863,2.1137
22042,22.452,1.8182,0.1,3.5559e-05,355.35,3.4142e-05,321.21,-8.6149e-06,-0.051715,-1.6658e-05,-60.484,2.1003
22043,22.543,1.5455,0.1,3.3557e-05,335.34,3.2151e-05,301.68,-8.0071e-06,-0.051525,-1.5901e-05,-59.362,2.1136
22044,22.452,1.6364,0.1,3.5339e-05,353.15,3.4008e-05,320.86,-8.7023e-06,-0.049557,-1.6346e-05,-57.484,2.1002
22045,22.543,1.3636,0.1,3.3259e-05,332.36,3.197e-05,301.21,-8.1242e-06,-0.047858,-1.5482e-05,-55.332,2.1135
22046,22.452,1.4545,0.1,3.5084e-05,350.59,3.3851e-05,320.45,-8.8036e-06,-0.046547,-1.5984e-05,-53.995,2.1001
22047,22.543,1.1818,0.1,3.2927e-05,329.04,3.1767e-05,300.68,-8.2561e-06,-0.042689,-1.501e-05,-50.792,2.1134
22048,22.452,1.2727,0.1,3.4796e-05,347.72,3.3673e-05,319.98,-8.9188e-06,-0.042368,-1.5571e-05,-50.026,2.1
22049,22.543,1,0.1,3.2568e-05,325.46,3.1546e-05,300.12,-8.4022e-06,-0.03552,-1.4492e-05,-45.793,2.1133
22050,22.452,1.0909,0.1,3.4481e-05,344.58,3.3478e-05,319.48,-9.0476e-06,-0.03643,-1.5113e-05,-45.613,2.0999
22051,22.543,0.81818,0.1,3.2198e-05,321.75,3.1318e-05,299.62,-8.5614e-06,-0.02475,-1.394e-05,-40.435,2.1132
22052,22.452,0.90909,0.1,3.4151e-05,341.28,3.3273e-05,319.01,-9.1894e-06,-0.028378,-1.4619e-05,-40.826,2.0998
22053,22.543,0.63636,0.1,3.1837e-05,318.15,3.11e-05,299.27,-8.7319e-06,-0.011441,-1.3373e-05,-34.88,2.113
22054,22.452,0.72727,0.1,3.3821e-05,337.98,3.307e-05,318.65,-9.3425e-06,-0.015577,-1.4104e-05,-35.789,2.0996
22055,22.543,0.45455,0.1,3.1523e-05,315.01,3.092e-05,299.29,-8.9105e-06,0.021154,-1.2826e-05,-29.398,2.1129
22056,22.452,0.54545,0.1,3.3517e-05,334.94,3.2889e-05,318.53,-9.5057e-06,-0.0027488,-1.359e-05,-30.691,2.0995
22057,22.543,0.27273,0.1,3.1422e-05,314.01,3.092e-05,300.72,-9.0971e-06,0.044761,-1.2444e-05,-25.104,2.1127
22058,22.452,0.36364,0.1,3.3283e-05,332.6,3.2768e-05,318.94,-9.6742e-06,0.045397,-1.312e-05,-25.847,2.0994
22059,22.452,0.18182,0.1,3.342e-05,333.97,3.2964e-05,321.75,-9.855e-06,0.027231,-1.2952e-05,-23.242,2.0992
22060,22.543,0.090909,0.1,3.0553e-05,305.32,3.025e-05,297,-9.28e-06,-0.0085434,-1.141e-05,-16.009,2.1126
22061,22.36,5.7273,0.1,3.5237e-05,352.13,3.4774e-05,339.69,-1.0431e-05,0.03858,-1.3592e-05,-23.711,2.0858
22062,22.269,5.8182,0.1,3.7274e-05,372.48,3.6845e-05,360.85,-1.1178e-05,0.021566,-1.4147e-05,-22.285,2.0723
22063,22.36,5.9091,0.1,3.4423e-05,343.99,3.4135e-05,336.03,-1.0589e-05,-0.0060235,-1.2637e-05,-15.398,2.0857
22064,22.36,5.5455,0.1,3.526e-05,352.35,3.4722e-05,338.07,-1.027e-05,0.019928,-1.3869e-05,-27.026,2.086
22065,22.269,5.6364,0.1,3.7071e-05,370.46,3.6605e-05,357.89,-1.1022e-05,0.04031,-1.4221e-05,-23.996,2.0725
22066,22.36,5.3636,0.1,3.549e-05,354.65,3.4848e-05,337.84,-1.0116e-05,-0.008403,-1.431e-05,-31.515,2.0861
22067,22.269,5.4545,0.1,3.7228e-05,372.03,3.6675e-05,357.3,-1.0878e-05,-0.001183,-1.459e-05,-27.891,2.0726
22068,22.36,5.1818,0.1,3.5767e-05,357.43,3.5015e-05,337.99,-9.9707e-06,-0.020327,-1.4775e-05,-36.116,2.0863
22069,22.269,5.2727,0.1,3.7453e-05,374.27,3.6805e-05,357.21,-1.0739e-05,-0.012548,-1.5003e-05,-32.048,2.0728
22070,22.36,5,0.1,3.6061e-05,360.36,3.5198e-05,338.33,-9.8349e-06,-0.030148,-1.5234e-05,-40.596,2.0864
22071,22.269,5.0909,0.1,3.7707e-05,376.81,3.696e-05,357.39,-1.0609e-05,-0.024098,-1.5423e-05,-36.191,2.0729
22072,22.36,4.8182,0.1,3.635e-05,363.25,3.5379e-05,338.75,-9.7105e-06,-0.036809,-1.5669e-05,-44.809,2.0865
22073,22.269,4.9091,0.1,3.7967e-05,379.41,3.7124e-05,357.72,-1.049e-05,-0.031531,-1.583e-05,-40.158,2.073
22074,22.36,4.6364,0.1,3.6622e-05,365.97,3.5551e-05,339.19,-9.5983e-06,-0.041657,-1.6069e-05,-48.66,2.0866
22075,22.269,4.7273,0.1,3.8219e-05,381.92,3.7283e-05,358.1,-1.0381e-05,-0.037073,-1.6211e-05,-43.838,2.0731
22076,22.36,4.4545,0.1,3.6869e-05,368.44,3.5705e-05,339.6,-9.4989e-06,-0.045115,-1.6426e-05,-52.094,2.0867
22077,22.269,4.5455,0.1,3.8452e-05,384.26,3.7432e-05,358.48,-1.0285e-05,-0.041004,-1.6556e-05,-47.161,2.0732
22078,22.36,4.2727,0.1,3.7087e-05,370.61,3.5841e-05,339.97,-9.4123e-06,-0.047605,-1.6737e-05,-55.086,2.0868
22079,22.269,4.3636,0.1,3.8661e-05,386.34,3.7564e-05,358.84,-1.02e-05,-0.043841,-1.6861e-05,-50.089,2.0733
22080,22.36,4.0909,0.1,3.7272e-05,372.47,3.5955e-05,340.27,-9.3384e-06,-0.04939,-1.7002e-05,-57.633,2.0869
22081,22.269,4.1818,0.1,3.8842e-05,388.16,3.7679e-05,359.15,-1.0127e-05,-0.045872,-1.7123e-05,-52.609,2.0734
22082,22.36,3.9091,0.1,3.7426e-05,374,3.605e-05,340.52,-9.277e-06,-0.050664,-1.7222e-05,-59.743,2.0869
22083,22.269,4,0.1,3.8995e-05,389.68,3.7774e-05,359.41,-1.0066e-05,-0.047322,-1.7343e-05,-54.724,2.0735
22084,22.36,3.7273,0.1,3.7549e-05,375.23,3.6124e-05,340.7,-9.2275e-06,-0.051561,-1.7397e-05,-61.433,2.087
22085,22.269,3.8182,0.1,3.9119e-05,390.93,3.7852e-05,359.61,-1.0016e-05,-0.048346,-1.7522e-05,-56.446,2.0735
22086,22.36,3.5455,0.1,3.7643e-05,376.17,3.6181e-05,340.84,-9.1896e-06,-0.052176,-1.753e-05,-62.722,2.087
22087,22.269,3.6364,0.1,3.9217e-05,391.9,3.7912e-05,359.77,-9.977e-06,-0.049056,-1.7662e-05,-57.794,2.0736
22088,22.36,3.3636,0.1,3.7708e-05,376.82,3.622e-05,340.94,-9.1628e-06,-0.052573,-1.7624e-05,-63.629,2.0871
22089,22.269,3.4545,0.1,3.9288e-05,392.61,3.7956e-05,359.88,-9.948e-06,-0.04953,-1.7765e-05,-58.784,2.0736
22090,22.36,3.1818,0.1,3.7747e-05,377.21,3.6243e-05,340.99,-9.1468e-06,-0.052796,-1.768e-05,-64.166,2.0871
22091,22.269,3.2727,0.1,3.9335e-05,393.07,3.7984e-05,359.95,-9.9289e-06,-0.049817,-1.7833e-05,-59.435,2.0736
22092,22.36,3,0.1,3.776e-05,377.34,3.6251e-05,341.01,-9.1415e-06,-0.052868,-1.7698e-05,-64.344,2.0871
22093,22.269,3.0909,0.1,3.9358e-05,393.3,3.7999e-05,359.99,-9.9194e-06,-0.049955,-1.7866e-05,-59.757,2.0737
22094,22.36,2.8182,0.1,3.7747e-05,377.21,3.6243e-05,340.99,-9.1468e-06,-0.052796,-1.768e-05,-64.166,2.0871
22095,22.269,2.9091,0.1,3.9358e-05,393.3,3.7999e-05,359.99,-9.9194e-06,-0.049954,-1.7866e-05,-59.757,2.0737
22096,22.36,2.6364,0.1,3.7708e-05,376.82,3.622e-05,340.94,-9.1628e-06,-0.052573,-1.7624e-05,-63.629,2.0871
22097,22.269,2.7273,0.1,3.9335e-05,393.07,3.7984e-05,359.95,-9.9289e-06,-0.049818,-1.7833e-05,-59.435,2.0736
22098,22.36,2.4545,0.1,3.7643e-05,376.17,3.6181e-05,340.84,-9.1896e-06,-0.052175,-1.753e-05,-62.722,2.087
22099,22.269,2.5455,0.1,3.9288e-05,392.61,3.7956e-05,359.88,-9.948e-06,-0.049529,-1.7765e-05,-58.784,2.0736
22100,22.36,2.2727,0.1,3.7549e-05,375.23,3.6124e-05,340.7,-9.2275e-06,-0.051561,-1.7397e-05,-61.433,2.087
22101,22.269,2.3636,0.1,3.9217e-05,391.9,3.7912e-05,359.77,-9.977e-06,-0.049056,-1.7662e-05,-57.794,2.0736
22102,22.36,2.0909,0.1,3.7426e-05,374,3.605e-05,340.52,-9.277e-06,-0.050664,-1.7222e-05,-59.743,2.0869
22103,22.269,2.1818,0.1,3.9119e-05,390.93,3.7852e-05,359.61,-1.0016e-05,-0.048346,-1.7522e-05,-56.446,2.0735
22104,22.36,1.9091,0.1,3.7272e-05,372.47,3.5955e-05,340.27,-9.3384e-06,-0.049391,-1.7002e-05,-57.632,2.0869
22105,22.269,2,0.1,3.8995e-05,389.68,3.7774e-05,359.41,-1.0066e-05,-0.047322,-1.7343e-05,-54.724,2.0735
22106,22.36,1.7273,0.1,3.7087e-05,370.61,3.5841e-05,339.97,-9.4123e-06,-0.047606,-1.6737e-05,-55.086,2.0868
22107,22.269,1.8182,0.1,3.8842e-05,388.16,3.7679e-05,359.15,-1.0127e-05,-0.045872,-1.7123e-05,-52.609,2.0734
22108,22.36,1.5455,0.1,3.6869e-05,368.44,3.5705e-05,339.6,-9.4989e-06,-0.045116,-1.6426e-05,-52.094,2.0867
22109,22.269,1.6364,0.1,3.8661e-05,386.34,3.7564e-05,358.84,-1.02e-05,-0.043841,-1.6861e-05,-50.089,2.0733
22110,22.36,1.3636,0.1,3.6622e-05,365.97,3.5551e-05,339.19,-9.5983e-06,-0.041657,-1.6069e-05,-48.66,2.0866
22111,22.269,1.4545,0.1,3.8452e-05,384.26,3.7432e-05,358.48,-1.0285e-05,-0.041005,-1.6556e-05,-47.161,2.0732
22112,22.36,1.1818,0.1,3.635e-05,363.25,3.5379e-05,338.75,-9.7105e-06,-0.036809,-1.5669e-05,-44.809,2.0865
22113,22.269,1.2727,0.1,3.8219e-05,381.92,3.7283e-05,358.1,-1.0381e-05,-0.037072,-1.6211e-05,-43.838,2.0731
22114,22.36,1,0.1,3.6061e-05,360.36,3.5198e-05,338.33,-9.8349e-06,-0.030151,-1.5234e-05,-40.596,2.0864
22115,22.269,1.0909,0.1,3.7967e-05,379.41,3.7124e-05,357.72,-1.049e-05,-0.031534,-1.583e-05,-40.158,2.073
22116,22.36,0.81818,0.1,3.5767e-05,357.43,3.5015e-05,337.99,-9.9707e-06,-0.020327,-1.4775e-05,-36.116,2.0863
22117,22.269,0.90909,0.1,3.7707e-05,376.81,3.696e-05,357.39,-1.0609e-05,-0.024099,-1.5423e-05,-36.191,2.0729
22118,22.36,0.63636,0.1,3.549e-05,354.65,3.4848e-05,337.84,-1.0116e-05,-0.0084016,-1.431e-05,-31.515,2.0861
22119,22.269,0.72727,0.1,3.7453e-05,374.27,3.6805e-05,357.21,-1.0739e-05,-0.012548,-1.5003e-05,-32.048,2.0728
22120,22.36,0.45455,0.1,3.526e-05,352.35,3.4722e-05,338.07,-1.027e-05,0.019931,-1.3869e-05,-27.026,2.086
22121,22.269,0.54545,0.1,3.7228e-05,372.03,3.6675e-05,357.3,-1.0878e-05,-0.0011822,-1.459e-05,-27.891,2.0726
22122,22.36,0.27273,0.1,3.5237e-05,352.13,3.4774e-05,339.69,-1.0431e-05,0.038581,-1.3592e-05,-23.711,2.0858
22123,22.269,0.36364,0.1,3.7071e-05,370.46,3.6605e-05,357.89,-1.1022e-05,0.040313,-1.4221e-05,-23.996,2.0725
22124,22.269,0.18182,0.1,3.7274e-05,372.48,3.6845e-05,360.85,-1.1178e-05,0.021565,-1.4147e-05,-22.285,2.0723
22125,22.36,0.090909,0.1,3.4423e-05,343.99,3.4135e-05,336.03,-1.0589e-05,-0.0060256,-1.2637e-05,-15.398,2.0857
22126,22.178,5.7273,0.1,3.9069e-05,390.42,3.8641e-05,378.79,-1.1768e-05,0.032991,-1.4743e-05,-22.319,2.0589
22127,22.087,5.8182,0.1,4.1139e-05,411.1,4.0735e-05,400.06,-1.2506e-05,0.017012,-1.5341e-05,-21.281,2.0454
22128,22.178,5.9091,0.1,3.8309e-05,382.83,3.8037e-05,375.24,-1.1905e-05,-0.0044428,-1.3868e-05,-14.755,2.0588
22129,22.178,5.5455,0.1,3.9025e-05,389.98,3.8545e-05,377.02,-1.1631e-05,0.018126,-1.4928e-05,-24.76,2.0591
22130,22.087,5.6364,0.1,4.088e-05,408.52,4.0458e-05,396.99,-1.2373e-05,0.035266,-1.5332e-05,-22.197,2.0456
22131,22.178,5.3636,0.1,3.9181e-05,391.54,3.8622e-05,376.6,-1.1501e-05,-0.0065125,-1.5273e-05,-28.345,2.0593
22132,22.087,5.4545,0.1,4.097e-05,409.42,4.0483e-05,396.22,-1.2251e-05,-0.00044084,-1.5609e-05,-25.229,2.0458
22133,22.178,5.1818,0.1,3.9385e-05,393.58,3.8741e-05,376.56,-1.1378e-05,-0.01722,-1.5643e-05,-32.061,2.0594
22134,22.087,5.2727,0.1,4.1125e-05,410.97,4.0566e-05,395.96,-1.2135e-05,-0.010555,-1.5929e-05,-28.517,2.0459
22135,22.178,5,0.1,3.9608e-05,395.81,3.888e-05,376.74,-1.1264e-05,-0.026176,-1.6013e-05,-35.704,2.0595
22136,22.087,5.0909,0.1,4.131e-05,412.81,4.0676e-05,395.97,-1.2027e-05,-0.020977,-1.6259e-05,-31.818,2.046
22137,22.178,4.8182,0.1,3.9834e-05,398.06,3.9022e-05,377.03,-1.1161e-05,-0.032355,-1.6367e-05,-39.149,2.0596
22138,22.087,4.9091,0.1,4.1505e-05,414.76,4.0799e-05,396.15,-1.1929e-05,-0.027835,-1.6583e-05,-34.994,2.0462
22139,22.178,4.6364,0.1,4.0049e-05,400.21,3.9161e-05,377.36,-1.1068e-05,-0.036891,-1.6694e-05,-42.309,2.0598
22140,22.087,4.7273,0.1,4.1698e-05,416.69,4.0922e-05,396.41,-1.1841e-05,-0.032992,-1.6887e-05,-37.948,2.0463
22141,22.178,4.4545,0.1,4.0246e-05,402.18,3.9288e-05,377.7,-1.0986e-05,-0.040144,-1.6988e-05,-45.133,2.0599
22142,22.087,4.5455,0.1,4.188e-05,418.51,4.104e-05,396.7,-1.1763e-05,-0.036679,-1.7164e-05,-40.619,2.0464
22143,22.178,4.2727,0.1,4.0421e-05,403.93,3.94e-05,378.01,-1.0915e-05,-0.042485,-1.7244e-05,-47.594,2.0599
22144,22.087,4.3636,0.1,4.2043e-05,420.14,4.1147e-05,396.99,-1.1695e-05,-0.039341,-1.7408e-05,-42.969,2.0465
22145,22.178,4.0909,0.1,4.0571e-05,405.43,3.9496e-05,378.27,-1.0855e-05,-0.044157,-1.7462e-05,-49.685,2.06
22146,22.087,4.1818,0.1,4.2186e-05,421.57,4.124e-05,397.25,-1.1637e-05,-0.041243,-1.7619e-05,-44.986,2.0466
22147,22.178,3.9091,0.1,4.0695e-05,406.67,3.9575e-05,378.5,-1.0806e-05,-0.045341,-1.7643e-05,-51.415,2.0601
22148,22.087,4,0.1,4.2306e-05,422.77,4.1318e-05,397.48,-1.1589e-05,-0.042592,-1.7795e-05,-46.672,2.0466
22149,22.178,3.7273,0.1,4.0794e-05,407.66,3.9638e-05,378.67,-1.0766e-05,-0.046168,-1.7786e-05,-52.796,2.0601
22150,22.087,3.8182,0.1,4.2404e-05,423.74,4.1381e-05,397.66,-1.155e-05,-0.043536,-1.7938e-05,-48.038,2.0467
22151,22.178,3.5455,0.1,4.0869e-05,408.41,3.9686e-05,378.8,-1.0736e-05,-0.04673,-1.7896e-05,-53.846,2.0602
22152,22.087,3.6364,0.1,4.248e-05,424.5,4.143e-05,397.8,-1.1519e-05,-0.044182,-1.8049e-05,-49.101,2.0467
22153,22.178,3.3636,0.1,4.0922e-05,408.94,3.9719e-05,378.89,-1.0714e-05,-0.047089,-1.7972e-05,-54.582,2.0602
22154,22.087,3.4545,0.1,4.2535e-05,425.06,4.1466e-05,397.9,-1.1497e-05,-0.044609,-1.813e-05,-49.879,2.0468
22155,22.178,3.1818,0.1,4.0953e-05,409.25,3.9739e-05,378.94,-1.0702e-05,-0.047288,-1.8018e-05,-55.018,2.0602
22156,22.087,3.2727,0.1,4.2572e-05,425.42,4.149e-05,397.97,-1.1483e-05,-0.044865,-1.8183e-05,-50.387,2.0468
22157,22.178,3,0.1,4.0964e-05,409.35,3.9745e-05,378.96,-1.0697e-05,-0.047352,-1.8033e-05,-55.162,2.0602
22158,22.087,3.0909,0.1,4.259e-05,425.6,4.1501e-05,398,-1.1475e-05,-0.044986,-1.8209e-05,-50.638,2.0468
22159,22.178,2.8182,0.1,4.0953e-05,409.25,3.9739e-05,378.94,-1.0702e-05,-0.047288,-1.8018e-05,-55.018,2.0602
22160,22.087,2.9091,0.1,4.259e-05,425.6,4.1501e-05,398,-1.1475e-05,-0.044986,-1.8209e-05,-50.638,2.0468
22161,22.178,2.6364,0.1,4.0922e-05,408.94,3.9719e-05,378.89,-1.0714e-05,-0.047089,-1.7972e-05,-54.582,2.0602
22162,22.087,2.7273,0.1,4.2572e-05,425.42,4.149e-05,397.97,-1.1483e-05,-0.044866,-1.8183e-05,-50.387,2.0468
22163,22.178,2.4545,0.1,4.0869e-05,408.41,3.9686e-05,378.8,-1.0736e-05,-0.04673,-1.7896e-05,-53.846,2.0602
22164,22.087,2.5455,0.1,4.2535e-05,425.06,4.1466e-05,397.9,-1.1497e-05,-0.044608,-1.813e-05,-49.879,2.0468
22165,22.178,2.2727,0.1,4.0794e-05,407.66,3.9638e-05,378.67,-1.0766e-05,-0.046168,-1.7786e-05,-52.796,2.0601
22166,22.087,2.3636,0.1,4.248e-05,424.5,4.143e-05,397.8,-1.1519e-05,-0.044183,-1.8049e-05,-49.101,2.0467
22167,22.178,2.0909,0.1,4.0695e-05,406.67,3.9575e-05,378.5,-1.0806e-05,-0.045341,-1.7643e-05,-51.415,2.0601
22168,22.087,2.1818,0.1,4.2404e-05,423.74,4.1381e-05,397.66,-1.155e-05,-0.043536,-1.7938e-05,-48.038,2.0467
22169,22.178,1.9091,0.1,4.057e-05,405.43,3.9496e-05,378.27,-1.0855e-05,-0.044156,-1.7462e-05,-49.685,2.06
22170,22.087,2,0.1,4.2306e-05,422.77,4.1318e-05,397.48,-1.1589e-05,-0.042592,-1.7795e-05,-46.672,2.0466
22171,22.178,1.7273,0.1,4.0421e-05,403.93,3.94e-05,378.01,-1.0915e-05,-0.042484,-1.7244e-05,-47.594,2.0599
22172,22.087,1.8182,0.1,4.2186e-05,421.57,4.124e-05,397.25,-1.1637e-05,-0.041243,-1.7619e-05,-44.986,2.0466
22173,22.178,1.5455,0.1,4.0246e-05,402.18,3.9288e-05,377.7,-1.0986e-05,-0.040144,-1.6988e-05,-45.133,2.0599
22174,22.087,1.6364,0.1,4.2043e-05,420.14,4.1147e-05,396.99,-1.1695e-05,-0.039341,-1.7408e-05,-42.969,2.0465
22175,22.178,1.3636,0.1,4.0049e-05,400.21,3.9161e-05,377.36,-1.1068e-05,-0.036891,-1.6694e-05,-42.309,2.0598
22176,22.087,1.4545,0.1,4.188e-05,418.51,4.104e-05,396.7,-1.1763e-05,-0.036678,-1.7164e-05,-40.618,2.0464
22177,22.178,1.1818,0.1,3.9834e-05,398.06,3.9022e-05,377.03,-1.1161e-05,-0.032355,-1.6367e-05,-39.149,2.0596
22178,22.087,1.2727,0.1,4.1698e-05,416.69,4.0922e-05,396.41,-1.1841e-05,-0.032993,-1.6887e-05,-37.948,2.0463
22179,22.178,1,0.1,3.9608e-05,395.81,3.888e-05,376.74,-1.1264e-05,-0.026177,-1.6013e-05,-35.704,2.0595
22180,22.087,1.0909,0.1,4.1505e-05,414.76,4.0799e-05,396.15,-1.1929e-05,-0.027836,-1.6583e-05,-34.994,2.0462
22181,22.178,0.81818,0.1,3.9385e-05,393.58,3.8741e-05,376.56,-1.1378e-05,-0.01722,-1.5643e-05,-32.061,2.0594
22182,22.087,0.90909,0.1,4.131e-05,412.81,4.0676e-05,395.97,-1.2027e-05,-0.020979,-1.6259e-05,-31.818,2.046
22183,22.178,0.63636,0.1,3.9181e-05,391.54,3.8622e-05,376.6,-1.1501e-05,-0.0065126,-1.5273e-05,-28.345,2.0593
22184,22.087,0.72727,0.1,4.1125e-05,410.97,4.0566e-05,395.96,-1.2135e-05,-0.010554,-1.5929e-05,-28.517,2.0459
22185,22.178,0.45455,0.1,3.9025e-05,389.98,3.8545e-05,377.02,-1.1631e-05,0.018126,-1.4928e-05,-24.76,2.0591
22186,22.087,0.54545,0.1,4.097e-05,409.42,4.0483e-05,396.22,-1.2251e-05,-0.00044166,-1.5609e-05,-25.229,2.0458
22187,22.178,0.27273,0.1,3.9069e-05,390.42,3.8641e-05,378.79,-1.1768e-05,0.032991,-1.4743e-05,-22.319,2.0589
22188,22.087,0.36364,0.1,4.088e-05,408.52,4.0458e-05,396.99,-1.2373e-05,0.035268,-1.5332e-05,-22.197,2.0456
22189,22.087,0.18182,0.1,4.1139e-05,411.1,4.0735e-05,400.06,-1.2506e-05,0.017012,-1.5341e-05,-21.281,2.0454
22190,22.178,0.090909,0.1,3.8309e-05,382.83,3.8037e-05,375.24,-1.1905e-05,-0.0044465,-1.3868e-05,-14.755,2.0588
22191,21.996,5.7273,0.1,4.2914e-05,428.84,4.252e-05,418.01,-1.311e-05,0.027948,-1.5899e-05,-20.928,2.0321
22192,21.905,5.8182,0.1,4.5012e-05,449.81,4.4634e-05,439.35,-1.3839e-05,0.013331,-1.6535e-05,-20.242,2.0186
22193,21.996,5.9091,0.1,4.221e-05,421.81,4.1952e-05,414.58,-1.3226e-05,-0.0034844,-1.5101e-05,-14.09,2.0319
22194,21.996,5.5455,0.1,4.2813e-05,427.83,4.2384e-05,416.1,-1.2994e-05,0.015996,-1.6001e-05,-22.576,2.0322
22195,21.905,5.6364,0.1,4.4706e-05,446.76,4.4324e-05,436.2,-1.3726e-05,0.03034,-1.6451e-05,-20.44,2.0187
22196,21.996,5.3636,0.1,4.2904e-05,428.75,4.2417e-05,415.52,-1.2886e-05,-0.0054022,-1.6256e-05,-25.329,2.0324
22197,21.905,5.4545,0.1,4.4737e-05,447.06,4.4308e-05,435.29,-1.3626e-05,-0.00027005,-1.6644e-05,-22.679,2.0189
22198,21.996,5.1818,0.1,4.3042e-05,430.12,4.2492e-05,415.31,-1.2785e-05,-0.015036,-1.6538e-05,-28.216,2.0325
22199,21.905,5.2727,0.1,4.4829e-05,447.98,4.4348e-05,434.87,-1.3531e-05,-0.009305,-1.6878e-05,-25.156,2.0191
22200,21.996,5,0.1,4.3201e-05,431.71,4.2589e-05,415.34,-1.2692e-05,-0.023203,-1.6823e-05,-31.06,2.0327
22201,21.905,5.0909,0.1,4.4951e-05,449.2,4.4417e-05,434.73,-1.3444e-05,-0.018709,-1.7123e-05,-27.658,2.0192
22202,21.996,4.8182,0.1,4.3367e-05,433.37,4.2694e-05,415.49,-1.2609e-05,-0.028928,-1.7098e-05,-33.756,2.0328
22203,21.905,4.9091,0.1,4.5087e-05,450.56,4.45e-05,434.76,-1.3367e-05,-0.025031,-1.7365e-05,-30.069,2.0193
22204,21.996,4.6364,0.1,4.3528e-05,434.98,4.2798e-05,415.72,-1.2535e-05,-0.03316,-1.7352e-05,-36.228,2.0329
22205,21.905,4.7273,0.1,4.5225e-05,451.94,4.4589e-05,434.91,-1.3298e-05,-0.029823,-1.7594e-05,-32.307,2.0195
22206,21.996,4.4545,0.1,4.3677e-05,436.47,4.2896e-05,415.97,-1.2471e-05,-0.036206,-1.7581e-05,-38.431,2.033
22207,21.905,4.5455,0.1,4.5357e-05,453.26,4.4675e-05,435.11,-1.3238e-05,-0.033266,-1.7802e-05,-34.321,2.0196
22208,21.996,4.2727,0.1,4.381e-05,437.8,4.2984e-05,416.22,-1.2416e-05,-0.038395,-1.778e-05,-40.343,2.0331
22209,21.905,4.3636,0.1,4.5477e-05,454.45,4.4755e-05,435.32,-1.3188e-05,-0.035752,-1.7985e-05,-36.08,2.0197
22210,21.996,4.0909,0.1,4.3924e-05,438.94,4.306e-05,416.44,-1.237e-05,-0.039951,-1.7949e-05,-41.958,2.0332
22211,21.905,4.1818,0.1,4.5581e-05,455.49,4.4825e-05,435.53,-1.3145e-05,-0.037519,-1.8141e-05,-37.574,2.0197
22212,21.996,3.9091,0.1,4.4019e-05,439.89,4.3122e-05,416.63,-1.2333e-05,-0.041044,-1.8088e-05,-43.283,2.0333
22213,21.905,4,0.1,4.5669e-05,456.37,4.4884e-05,435.71,-1.3111e-05,-0.038761,-1.8271e-05,-38.808,2.0198
22214,21.996,3.7273,0.1,4.4094e-05,440.64,4.3172e-05,416.78,-1.2303e-05,-0.041796,-1.8198e-05,-44.332,2.0333
22215,21.905,3.8182,0.1,4.574e-05,457.08,4.4932e-05,435.87,-1.3083e-05,-0.03962,-1.8374e-05,-39.794,2.0199
22216,21.996,3.5455,0.1,4.4151e-05,441.21,4.321e-05,416.89,-1.2281e-05,-0.042301,-1.8281e-05,-45.124,2.0334
22217,21.905,3.6364,0.1,4.5795e-05,457.63,4.4969e-05,435.99,-1.3062e-05,-0.040197,-1.8454e-05,-40.552,2.0199
22218,21.996,3.3636,0.1,4.4191e-05,441.61,4.3236e-05,416.97,-1.2266e-05,-0.04262,-1.8339e-05,-45.675,2.0334
22219,21.905,3.4545,0.1,4.5834e-05,458.03,4.4996e-05,436.08,-1.3047e-05,-0.040573,-1.8512e-05,-41.099,2.02
22220,21.996,3.1818,0.1,4.4214e-05,441.84,4.3251e-05,417.02,-1.2256e-05,-0.042796,-1.8373e-05,-45.999,2.0334
22221,21.905,3.2727,0.1,4.586e-05,458.29,4.5014e-05,436.13,-1.3038e-05,-0.040796,-1.8549e-05,-41.453,2.02
22222,21.996,3,0.1,4.4222e-05,441.92,4.3256e-05,417.04,-1.2253e-05,-0.042851,-1.8384e-05,-46.106,2.0334
22223,21.905,3.0909,0.1,4.5873e-05,458.41,4.5022e-05,436.16,-1.3033e-05,-0.0409,-1.8567e-05,-41.627,2.02
22224,21.996,2.8182,0.1,4.4214e-05,441.84,4.3251e-05,417.02,-1.2256e-05,-0.042796,-1.8373e-05,-45.999,2.0334
22225,21.905,2.9091,0.1,4.5873e-05,458.41,4.5022e-05,436.16,-1.3033e-05,-0.040899,-1.8567e-05,-41.627,2.02
22226,21.996,2.6364,0.1,4.4191e-05,441.61,4.3236e-05,416.97,-1.2266e-05,-0.042621,-1.8339e-05,-45.675,2.0334
22227,21.905,2.7273,0.1,4.586e-05,458.29,4.5014e-05,436.13,-1.3038e-05,-0.040796,-1.8549e-05,-41.453,2.02
22228,21.996,2.4545,0.1,4.4151e-05,441.21,4.321e-05,416.89,-1.2281e-05,-0.042301,-1.8281e-05,-45.124,2.0334
22229,21.905,2.5455,0.1,4.5834e-05,458.03,4.4996e-05,436.08,-1.3047e-05,-0.040573,-1.8512e-05,-41.099,2.02
22230,21.996,2.2727,0.1,4.4094e-05,440.64,4.3172e-05,416.78,-1.2303e-05,-0.041797,-1.8198e-05,-44.332,2.0333
22231,21.905,2.3636,0.1,4.5795e-05,457.63,4.4969e-05,435.99,-1.3062e-05,-0.040196,-1.8454e-05,-40.552,2.0199
22232,21.996,2.0909,0.1,4.4019e-05,439.89,4.3122e-05,416.63,-1.2333e-05,-0.041044,-1.8088e-05,-43.283,2.0333
22233,21.905,2.1818,0.1,4.574e-05,457.08,4.4932e-05,435.87,-1.3083e-05,-0.03962,-1.8374e-05,-39.794,2.0199
22234,21.996,1.9091,0.1,4.3924e-05,438.94,4.306e-05,416.44,-1.237e-05,-0.039952,-1.7949e-05,-41.958,2.0332
22235,21.905,2,0.1,4.5669e-05,456.37,4.4884e-05,435.71,-1.3111e-05,-0.038761,-1.8271e-05,-38.808,2.0198
22236,21.996,1.7273,0.1,4.381e-05,437.8,4.2984e-05,416.22,-1.2416e-05,-0.038396,-1.778e-05,-40.343,2.0331
22237,21.905,1.8182,0.1,4.5581e-05,455.49,4.4825e-05,435.53,-1.3145e-05,-0.03752,-1.8141e-05,-37.574,2.0197
22238,21.996,1.5455,0.1,4.3677e-05,436.47,4.2896e-05,415.97,-1.2471e-05,-0.036206,-1.7581e-05,-38.431,2.033
22239,21.905,1.6364,0.1,4.5477e-05,454.45,4.4755e-05,435.32,-1.3188e-05,-0.035752,-1.7985e-05,-36.08,2.0197
22240,21.996,1.3636,0.1,4.3528e-05,434.98,4.2798e-05,415.72,-1.2535e-05,-0.03316,-1.7352e-05,-36.228,2.0329
22241,21.905,1.4545,0.1,4.5357e-05,453.26,4.4675e-05,435.11,-1.3238e-05,-0.033266,-1.7802e-05,-34.321,2.0196
22242,21.996,1.1818,0.1,4.3367e-05,433.37,4.2694e-05,415.49,-1.2609e-05,-0.028928,-1.7098e-05,-33.756,2.0328
22243,21.905,1.2727,0.1,4.5225e-05,451.94,4.4589e-05,434.91,-1.3298e-05,-0.029823,-1.7594e-05,-32.307,2.0195
22244,21.996,1,0.1,4.3201e-05,431.71,4.2589e-05,415.34,-1.2692e-05,-0.023204,-1.6823e-05,-31.06,2.0327
22245,21.905,1.0909,0.1,4.5087e-05,450.56,4.45e-05,434.76,-1.3367e-05,-0.025031,-1.7365e-05,-30.069,2.0193
22246,21.996,0.81818,0.1,4.3042e-05,430.12,4.2492e-05,415.31,-1.2785e-05,-0.015037,-1.6538e-05,-28.216,2.0325
22247,21.905,0.90909,0.1,4.4951e-05,449.2,4.4417e-05,434.73,-1.3444e-05,-0.018712,-1.7123e-05,-27.658,2.0192
22248,21.996,0.63636,0.1,4.2904e-05,428.75,4.2417e-05,415.52,-1.2886e-05,-0.0054023,-1.6256e-05,-25.329,2.0324
22249,21.905,0.72727,0.1,4.4829e-05,447.98,4.4348e-05,434.87,-1.3531e-05,-0.0093045,-1.6878e-05,-25.156,2.0191
22250,21.996,0.45455,0.1,4.2813e-05,427.83,4.2384e-05,416.1,-1.2994e-05,0.015996,-1.6001e-05,-22.576,2.0322
22251,21.905,0.54545,0.1,4.4737e-05,447.06,4.4308e-05,435.29,-1.3626e-05,-0.00026967,-1.6644e-05,-22.679,2.0189
22252,21.996,0.27273,0.1,4.2914e-05,428.84,4.252e-05,418.01,-1.311e-05,0.02795,-1.5899e-05,-20.928,2.0321
22253,21.905,0.36364,0.1,4.4706e-05,446.76,4.4324e-05,436.2,-1.3726e-05,0.030342,-1.6451e-05,-20.44,2.0187
22254,21.905,0.18182,0.1,4.5012e-05,449.81,4.4634e-05,439.35,-1.3839e-05,0.013332,-1.6535e-05,-20.242,2.0186
22255,21.996,0.090909,0.1,4.221e-05,421.81,4.1952e-05,414.58,-1.3226e-05,-0.0034823,-1.5101e-05,-14.09,2.0319
22256,21.814,5.7273,0.1,4.6771e-05,467.39,4.6408e-05,457.32,-1.4454e-05,0.023369,-1.7058e-05,-19.54,2.0052
22257,21.723,5.8182,0.1,4.8893e-05,488.59,4.8539e-05,478.73,-1.5175e-05,0.010345,-1.7728e-05,-19.179,1.9917
22258,21.814,5.9091,0.1,4.6122e-05,460.9,4.5879e-05,454.05,-1.4551e-05,-0.0029715,-1.6336e-05,-13.407,2.0051
22259,21.814,5.5455,0.1,4.6619e-05,465.87,4.6237e-05,455.31,-1.4358e-05,0.013655,-1.7084e-05,-20.462,2.0054
22260,21.723,5.6364,0.1,4.8547e-05,485.13,4.8202e-05,475.51,-1.5082e-05,0.025556,-1.7577e-05,-18.723,1.9919
22261,21.814,5.3636,0.1,4.6653e-05,466.21,4.6231e-05,454.58,-1.4271e-05,-0.0048736,-1.7257e-05,-22.44,2.0056
22262,21.723,5.4545,0.1,4.8524e-05,484.91,4.8149e-05,474.48,-1.5001e-05,-0.00052368,-1.7692e-05,-20.223,1.9921
22263,21.814,5.1818,0.1,4.6731e-05,466.99,4.6265e-05,454.23,-1.4191e-05,-0.013556,-1.7456e-05,-24.544,2.0057
22264,21.723,5.2727,0.1,4.856e-05,485.27,4.815e-05,473.92,-1.4927e-05,-0.0086234,-1.7845e-05,-21.938,1.9923
22265,21.814,5,0.1,4.6832e-05,468,4.6322e-05,454.11,-1.4119e-05,-0.021001,-1.7659e-05,-26.621,2.0059
22266,21.723,5.0909,0.1,4.8625e-05,485.92,4.8179e-05,473.64,-1.4861e-05,-0.017104,-1.801e-05,-23.676,1.9924
22267,21.814,4.8182,0.1,4.6942e-05,469.1,4.639e-05,454.14,-1.4056e-05,-0.026301,-1.7856e-05,-28.584,2.006
22268,21.723,4.9091,0.1,4.8706e-05,486.73,4.8226e-05,473.55,-1.4803e-05,-0.022931,-1.8173e-05,-25.343,1.9925
22269,21.814,4.6364,0.1,4.7052e-05,470.2,4.6462e-05,454.26,-1.4001e-05,-0.03024,-1.8039e-05,-30.371,2.0061
22270,21.723,4.7273,0.1,4.8793e-05,487.59,4.828e-05,473.59,-1.4754e-05,-0.027375,-1.8327e-05,-26.873,1.9927
22271,21.814,4.4545,0.1,4.7156e-05,471.23,4.653e-05,454.43,-1.3955e-05,-0.033079,-1.8202e-05,-31.946,2.0062
22272,21.723,4.5455,0.1,4.8877e-05,488.44,4.8335e-05,473.7,-1.4714e-05,-0.030579,-1.8466e-05,-28.226,1.9928
22273,21.814,4.2727,0.1,4.7248e-05,472.15,4.6593e-05,454.61,-1.3917e-05,-0.035111,-1.8343e-05,-33.292,2.0063
22274,21.723,4.3636,0.1,4.8954e-05,489.21,4.8388e-05,473.84,-1.4681e-05,-0.032884,-1.8586e-05,-29.38,1.9929
22275,21.814,4.0909,0.1,4.7327e-05,472.94,4.6647e-05,454.78,-1.3886e-05,-0.036544,-1.846e-05,-34.409,2.0064
22276,21.723,4.1818,0.1,4.9022e-05,489.88,4.8435e-05,473.99,-1.4654e-05,-0.034508,-1.8687e-05,-30.332,1.993
22277,21.814,3.9091,0.1,4.7392e-05,473.59,4.6692e-05,454.94,-1.3861e-05,-0.037537,-1.8555e-05,-35.307,2.0065
22278,21.723,4,0.1,4.9077e-05,490.44,4.8474e-05,474.13,-1.4634e-05,-0.035635,-1.8767e-05,-31.091,1.993
22279,21.814,3.7273,0.1,4.7443e-05,474.11,4.6728e-05,455.06,-1.3842e-05,-0.03821,-1.8629e-05,-36.003,2.0065
22280,21.723,3.8182,0.1,4.9122e-05,490.88,4.8506e-05,474.26,-1.4619e-05,-0.036399,-1.883e-05,-31.675,1.9931
22281,21.814,3.5455,0.1,4.7482e-05,474.49,4.6754e-05,455.16,-1.3829e-05,-0.038652,-1.8684e-05,-36.517,2.0066
22282,21.723,3.6364,0.1,4.9155e-05,491.21,4.853e-05,474.36,-1.4608e-05,-0.036902,-1.8876e-05,-32.106,1.9931
22283,21.814,3.3636,0.1,4.7508e-05,474.75,4.6773e-05,455.23,-1.3819e-05,-0.038927,-1.8721e-05,-36.868,2.0066
22284,21.723,3.4545,0.1,4.9179e-05,491.45,4.8547e-05,474.43,-1.4601e-05,-0.03722,-1.8909e-05,-32.405,1.9932
22285,21.814,3.1818,0.1,4.7524e-05,474.91,4.6784e-05,455.27,-1.3814e-05,-0.039076,-1.8743e-05,-37.072,2.0066
22286,21.723,3.2727,0.1,4.9195e-05,491.61,4.8558e-05,474.48,-1.4596e-05,-0.037407,-1.8929e-05,-32.593,1.9932
22287,21.814,3,0.1,4.7529e-05,474.96,4.6787e-05,455.28,-1.3812e-05,-0.039123,-1.875e-05,-37.139,2.0066
22288,21.723,3.0909,0.1,4.9202e-05,491.68,4.8564e-05,474.51,-1.4594e-05,-0.037491,-1.8939e-05,-32.683,1.9932
22289,21.814,2.8182,0.1,4.7524e-05,474.91,4.6784e-05,455.27,-1.3814e-05,-0.039075,-1.8743e-05,-37.072,2.0066
22290,21.723,2.9091,0.1,4.9202e-05,491.68,4.8564e-05,474.51,-1.4594e-05,-0.037491,-1.8939e-05,-32.683,1.9932
22291,21.814,2.6364,0.1,4.7508e-05,474.75,4.6773e-05,455.23,-1.3819e-05,-0.038926,-1.8721e-05,-36.868,2.0066
22292,21.723,2.7273,0.1,4.9195e-05,491.61,4.8558e-05,474.48,-1.4596e-05,-0.037405,-1.8929e-05,-32.593,1.9932
22293,21.814,2.4545,0.1,4.7482e-05,474.49,4.6754e-05,455.16,-1.3829e-05,-0.038651,-1.8684e-05,-36.517,2.0066
22294,21.723,2.5455,0.1,4.9179e-05,491.45,4.8547e-05,474.43,-1.4601e-05,-0.037221,-1.8909e-05,-32.405,1.9932
22295,21.814,2.2727,0.1,4.7443e-05,474.11,4.6728e-05,455.06,-1.3842e-05,-0.038209,-1.8629e-05,-36.003,2.0065
22296,21.723,2.3636,0.1,4.9155e-05,491.21,4.853e-05,474.36,-1.4608e-05,-0.036901,-1.8876e-05,-32.106,1.9931
22297,21.814,2.0909,0.1,4.7392e-05,473.59,4.6692e-05,454.94,-1.3861e-05,-0.037537,-1.8555e-05,-35.307,2.0065
22298,21.723,2.1818,0.1,4.9122e-05,490.88,4.8506e-05,474.26,-1.4619e-05,-0.036399,-1.883e-05,-31.675,1.9931
22299,21.814,1.9091,0.1,4.7327e-05,472.94,4.6647e-05,454.78,-1.3886e-05,-0.036544,-1.846e-05,-34.409,2.0064
22300,21.723,2,0.1,4.9077e-05,490.44,4.8474e-05,474.13,-1.4634e-05,-0.035635,-1.8767e-05,-31.091,1.993
22301,21.814,1.7273,0.1,4.7248e-05,472.15,4.6593e-05,454.61,-1.3917e-05,-0.035112,-1.8343e-05,-33.292,2.0063
22302,21.723,1.8182,0.1,4.9022e-05,489.88,4.8435e-05,473.99,-1.4654e-05,-0.034508,-1.8687e-05,-30.332,1.993
22303,21.814,1.5455,0.1,4.7156e-05,471.23,4.653e-05,454.43,-1.3955e-05,-0.033079,-1.8202e-05,-31.946,2.0062
22304,21.723,1.6364,0.1,4.8954e-05,489.21,4.8388e-05,473.84,-1.4681e-05,-0.032884,-1.8586e-05,-29.38,1.9929
22305,21.814,1.3636,0.1,4.7052e-05,470.2,4.6462e-05,454.26,-1.4001e-05,-0.03024,-1.8039e-05,-30.371,2.0061
22306,21.723,1.4545,0.1,4.8877e-05,488.44,4.8335e-05,473.7,-1.4714e-05,-0.030579,-1.8466e-05,-28.226,1.9928
22307,21.814,1.1818,0.1,4.6942e-05,469.1,4.639e-05,454.14,-1.4056e-05,-0.026302,-1.7856e-05,-28.584,2.006
22308,21.723,1.2727,0.1,4.8793e-05,487.59,4.828e-05,473.59,-1.4754e-05,-0.027375,-1.8327e-05,-26.873,1.9927
22309,21.814,1,0.1,4.6832e-05,468,4.6322e-05,454.11,-1.4119e-05,-0.021003,-1.7659e-05,-26.621,2.0059
22310,21.723,1.0909,0.1,4.8706e-05,486.73,4.8226e-05,473.55,-1.4803e-05,-0.022934,-1.8173e-05,-25.343,1.9925
22311,21.814,0.81818,0.1,4.6731e-05,466.99,4.6265e-05,454.23,-1.4191e-05,-0.013557,-1.7456e-05,-24.544,2.0057
22312,21.723,0.90909,0.1,4.8625e-05,485.92,4.8179e-05,473.64,-1.4861e-05,-0.017106,-1.801e-05,-23.676,1.9924
22313,21.814,0.63636,0.1,4.6653e-05,466.21,4.6231e-05,454.58,-1.4271e-05,-0.0048727,-1.7257e-05,-22.44,2.0056
22314,21.723,0.72727,0.1,4.856e-05,485.27,4.815e-05,473.92,-1.4927e-05,-0.008623,-1.7845e-05,-21.937,1.9923
22315,21.814,0.45455,0.1,4.6619e-05,465.87,4.6237e-05,455.31,-1.4358e-05,0.013657,-1.7084e-05,-20.462,2.0054
22316,21.723,0.54545,0.1,4.8524e-05,484.91,4.8149e-05,474.48,-1.5001e-05,-0.00052297,-1.7692e-05,-20.223,1.9921
22317,21.814,0.27273,0.1,4.6771e-05,467.39,4.6408e-05,457.32,-1.4454e-05,0.023369,-1.7058e-05,-19.54,2.0052
22318,21.723,0.36364,0.1,4.8547e-05,485.13,4.8202e-05,475.51,-1.5082e-05,0.025558,-1.7577e-05,-18.723,1.9919
22319,21.723,0.18182,0.1,4.8893e-05,488.59,4.8539e-05,478.73,-1.5175e-05,0.010345,-1.7728e-05,-19.179,1.9917
22320,21.814,0.090909,0.1,4.6122e-05,460.9,4.5879e-05,454.05,-1.4551e-05,-0.0029721,-1.6336e-05,-13.407,2.0051
22321,21.632,5.7273,0.1,5.0638e-05,506.03,5.0305e-05,496.71,-1.5801e-05,0.019194,-1.8221e-05,-18.161,1.9784
22322,21.541,5.8182,0.1,5.278e-05,527.44,5.2449e-05,518.16,-1.6512e-05,0.0079224,-1.8923e-05,-18.102,1.965
22323,21.632,5.9091,0.1,5.0043e-05,500.09,4.9815e-05,493.61,-1.5881e-05,-0.0027816,-1.7573e-05,-12.715,1.9783
22324,21.632,5.5455,0.1,5.0441e-05,504.06,5.0103e-05,494.61,-1.5724e-05,0.011179,-1.8176e-05,-18.41,1.9786
22325,21.541,5.6364,0.1,5.2399e-05,523.63,5.2088e-05,514.9,-1.6439e-05,0.020925,-1.871e-05,-17.046,1.9651
22326,21.632,5.3636,0.1,5.0423e-05,503.88,5.006e-05,493.76,-1.5657e-05,-0.0047894,-1.8273e-05,-19.66,1.9788
22327,21.541,5.4545,0.1,5.2329e-05,522.93,5.2002e-05,513.77,-1.6377e-05,-0.0011127,-1.8753e-05,-17.853,1.9653
22328,21.632,5.1818,0.1,5.0448e-05,504.13,5.0057e-05,493.28,-1.5597e-05,-0.012622,-1.8392e-05,-21.019,1.9789
22329,21.541,5.2727,0.1,5.2314e-05,522.78,5.1967e-05,513.09,-1.6322e-05,-0.0083925,-1.8829e-05,-18.843,1.9655
22330,21.632,5,0.1,5.0495e-05,504.6,5.0077e-05,493.04,-1.5545e-05,-0.019406,-1.8518e-05,-22.355,1.9791
22331,21.541,5.0909,0.1,5.2327e-05,522.91,5.1961e-05,512.7,-1.6277e-05,-0.016031,-1.8916e-05,-19.846,1.9656
22332,21.632,4.8182,0.1,5.0554e-05,505.19,5.011e-05,492.96,-1.5502e-05,-0.024311,-1.864e-05,-23.597,1.9792
22333,21.541,4.9091,0.1,5.2358e-05,523.22,5.1973e-05,512.5,-1.624e-05,-0.021401,-1.9004e-05,-20.785,1.9658
22334,21.632,4.6364,0.1,5.0616e-05,505.81,5.015e-05,492.99,-1.5467e-05,-0.027969,-1.8751e-05,-24.699,1.9793
22335,21.541,4.7273,0.1,5.2396e-05,523.6,5.1994e-05,512.45,-1.6211e-05,-0.025515,-1.9084e-05,-21.611,1.9659
22336,21.632,4.4545,0.1,5.0675e-05,506.4,5.019e-05,493.08,-1.5439e-05,-0.030603,-1.8847e-05,-25.636,1.9794
22337,21.541,4.5455,0.1,5.2436e-05,523.99,5.202e-05,512.48,-1.619e-05,-0.028485,-1.9154e-05,-22.296,1.966
22338,21.632,4.2727,0.1,5.0728e-05,506.93,5.0227e-05,493.2,-1.5418e-05,-0.032473,-1.8928e-05,-26.4,1.9795
22339,21.541,4.3636,0.1,5.2472e-05,524.36,5.2046e-05,512.56,-1.6175e-05,-0.030608,-1.921e-05,-22.831,1.9661
22340,21.632,4.0909,0.1,5.0773e-05,507.38,5.0259e-05,493.33,-1.5403e-05,-0.033771,-1.8992e-05,-26.998,1.9796
22341,21.541,4.1818,0.1,5.2503e-05,524.67,5.2069e-05,512.66,-1.6166e-05,-0.03208,-1.9252e-05,-23.22,1.9662
22342,21.632,3.9091,0.1,5.0809e-05,507.74,5.0286e-05,493.44,-1.5392e-05,-0.034654,-1.904e-05,-27.447,1.9797
22343,21.541,4,0.1,5.2528e-05,524.91,5.2088e-05,512.76,-1.6161e-05,-0.033079,-1.9282e-05,-23.481,1.9663
22344,21.632,3.7273,0.1,5.0836e-05,508.01,5.0306e-05,493.54,-1.5385e-05,-0.035238,-1.9076e-05,-27.767,1.9797
22345,21.541,3.8182,0.1,5.2546e-05,525.1,5.2103e-05,512.86,-1.6159e-05,-0.033738,-1.9301e-05,-23.639,1.9663
22346,21.632,3.5455,0.1,5.0856e-05,508.21,5.0322e-05,493.62,-1.538e-05,-0.035611,-1.91e-05,-27.985,1.9798
22347,21.541,3.6364,0.1,5.2558e-05,525.22,5.2114e-05,512.94,-1.6159e-05,-0.034157,-1.9312e-05,-23.722,1.9664
22348,21.632,3.3636,0.1,5.0869e-05,508.34,5.0332e-05,493.68,-1.5378e-05,-0.035837,-1.9116e-05,-28.121,1.9798
22349,21.541,3.4545,0.1,5.2567e-05,525.3,5.2122e-05,513.01,-1.616e-05,-0.034413,-1.9317e-05,-23.755,1.9664
22350,21.632,3.1818,0.1,5.0876e-05,508.41,5.0338e-05,493.71,-1.5376e-05,-0.035956,-1.9124e-05,-28.196,1.9798
22351,21.541,3.2727,0.1,5.2571e-05,525.35,5.2126e-05,513.05,-1.6161e-05,-0.034557,-1.9319e-05,-23.764,1.9665
22352,21.632,3,0.1,5.0879e-05,508.44,5.034e-05,493.72,-1.5376e-05,-0.035993,-1.9127e-05,-28.219,1.9798
22353,21.541,3.0909,0.1,5.2573e-05,525.37,5.2128e-05,513.07,-1.6162e-05,-0.034622,-1.932e-05,-23.763,1.9665
22354,21.632,2.8182,0.1,5.0876e-05,508.41,5.0338e-05,493.71,-1.5376e-05,-0.035956,-1.9124e-05,-28.196,1.9798
22355,21.541,2.9091,0.1,5.2573e-05,525.37,5.2128e-05,513.07,-1.6162e-05,-0.034621,-1.932e-05,-23.763,1.9665
22356,21.632,2.6364,0.1,5.0869e-05,508.34,5.0332e-05,493.68,-1.5378e-05,-0.035836,-1.9116e-05,-28.121,1.9798
22357,21.541,2.7273,0.1,5.2571e-05,525.35,5.2126e-05,513.05,-1.6161e-05,-0.034557,-1.9319e-05,-23.764,1.9665
22358,21.632,2.4545,0.1,5.0856e-05,508.21,5.0322e-05,493.62,-1.538e-05,-0.035611,-1.91e-05,-27.985,1.9798
22359,21.541,2.5455,0.1,5.2567e-05,525.3,5.2122e-05,513.01,-1.616e-05,-0.034413,-1.9317e-05,-23.755,1.9664
22360,21.632,2.2727,0.1,5.0836e-05,508.01,5.0306e-05,493.54,-1.5385e-05,-0.035239,-1.9076e-05,-27.767,1.9797
22361,21.541,2.3636,0.1,5.2558e-05,525.22,5.2114e-05,512.94,-1.6159e-05,-0.034157,-1.9312e-05,-23.722,1.9664
22362,21.632,2.0909,0.1,5.0809e-05,507.74,5.0286e-05,493.44,-1.5392e-05,-0.034655,-1.904e-05,-27.447,1.9797
22363,21.541,2.1818,0.1,5.2546e-05,525.1,5.2103e-05,512.86,-1.6159e-05,-0.033738,-1.9301e-05,-23.639,1.9663
22364,21.632,1.9091,0.1,5.0773e-05,507.38,5.0259e-05,493.33,-1.5403e-05,-0.033771,-1.8992e-05,-26.998,1.9796
22365,21.541,2,0.1,5.2528e-05,524.91,5.2088e-05,512.76,-1.6161e-05,-0.03308,-1.9282e-05,-23.481,1.9663
22366,21.632,1.7273,0.1,5.0728e-05,506.93,5.0227e-05,493.2,-1.5418e-05,-0.032472,-1.8928e-05,-26.4,1.9795
22367,21.541,1.8182,0.1,5.2503e-05,524.67,5.2069e-05,512.66,-1.6166e-05,-0.03208,-1.9252e-05,-23.22,1.9662
22368,21.632,1.5455,0.1,5.0675e-05,506.4,5.019e-05,493.08,-1.5439e-05,-0.030603,-1.8847e-05,-25.636,1.9794
22369,21.541,1.6364,0.1,5.2472e-05,524.36,5.2046e-05,512.56,-1.6175e-05,-0.030607,-1.921e-05,-22.831,1.9661
22370,21.632,1.3636,0.1,5.0616e-05,505.81,5.015e-05,492.99,-1.5467e-05,-0.02797,-1.8751e-05,-24.699,1.9793
22371,21.541,1.4545,0.1,5.2436e-05,523.99,5.202e-05,512.48,-1.619e-05,-0.028487,-1.9154e-05,-22.296,1.966
22372,21.632,1.1818,0.1,5.0554e-05,505.19,5.011e-05,492.96,-1.5502e-05,-0.024313,-1.864e-05,-23.597,1.9792
22373,21.541,1.2727,0.1,5.2396e-05,523.6,5.1994e-05,512.45,-1.6211e-05,-0.025516,-1.9084e-05,-21.611,1.9659
22374,21.632,1,0.1,5.0495e-05,504.6,5.0077e-05,493.04,-1.5545e-05,-0.019409,-1.8518e-05,-22.355,1.9791
22375,21.541,1.0909,0.1,5.2358e-05,523.22,5.1973e-05,512.5,-1.624e-05,-0.021402,-1.9004e-05,-20.785,1.9658
22376,21.632,0.81818,0.1,5.0448e-05,504.13,5.0057e-05,493.28,-1.5597e-05,-0.012622,-1.8392e-05,-21.019,1.9789
22377,21.541,0.90909,0.1,5.2327e-05,522.91,5.1961e-05,512.7,-1.6277e-05,-0.016032,-1.8916e-05,-19.846,1.9656
22378,21.632,0.63636,0.1,5.0423e-05,503.88,5.006e-05,493.76,-1.5657e-05,-0.0047893,-1.8273e-05,-19.66,1.9788
22379,21.541,0.72727,0.1,5.2314e-05,522.78,5.1967e-05,513.09,-1.6322e-05,-0.0083926,-1.8829e-05,-18.843,1.9655
22380,21.632,0.45455,0.1,5.0441e-05,504.06,5.0103e-05,494.61,-1.5724e-05,0.01118,-1.8176e-05,-18.41,1.9786
22381,21.541,0.54545,0.1,5.2329e-05,522.93,5.2002e-05,513.77,-1.6377e-05,-0.0011127,-1.8753e-05,-17.853,1.9653
22382,21.632,0.27273,0.1,5.0638e-05,506.03,5.0305e-05,496.71,-1.5801e-05,0.019197,-1.8221e-05,-18.161,1.9784
22383,21.541,0.36364,0.1,5.2399e-05,523.63,5.2088e-05,514.9,-1.6439e-05,0.020928,-1.871e-05,-17.046,1.9651
22384,21.541,0.18182,0.1,5.278e-05,527.44,5.2449e-05,518.16,-1.6512e-05,0.0079243,-1.8923e-05,-18.102,1.965
22385,21.632,0.090909,0.1,5.0043e-05,500.09,4.9815e-05,493.61,-1.5881e-05,-0.0027841,-1.7573e-05,-12.715,1.9783
22386,21.45,5.7273,0.1,5.4512e-05,544.74,5.4207e-05,536.16,-1.7149e-05,0.015378,-1.9387e-05,-16.798,1.9517
22387,21.359,5.8182,0.1,5.6671e-05,566.32,5.6362e-05,557.62,-1.7851e-05,0.005972,-2.0118e-05,-17.022,1.9382
22388,21.45,5.9091,0.1,5.3972e-05,539.34,5.3757e-05,533.23,-1.7212e-05,-0.00285,-1.8811e-05,-12.019,1.9515
22389,21.45,5.5455,0.1,5.4276e-05,542.39,5.3978e-05,533.99,-1.7091e-05,0.0086051,-1.9277e-05,-16.42,1.9518
22390,21.359,5.6364,0.1,5.6259e-05,562.21,5.5982e-05,554.35,-1.7796e-05,0.016449,-1.9849e-05,-15.412,1.9384
22391,21.45,5.3636,0.1,5.4211e-05,541.74,5.3902e-05,533.05,-1.7042e-05,-0.005072,-1.9302e-05,-16.98,1.952
22392,21.359,5.4545,0.1,5.6147e-05,561.08,5.5866e-05,553.13,-1.7752e-05,-0.0019845,-1.9824e-05,-15.566,1.9386
22393,21.45,5.1818,0.1,5.4187e-05,541.49,5.3865e-05,532.46,-1.7003e-05,-0.012138,-1.9346e-05,-17.623,1.9522
22394,21.359,5.2727,0.1,5.6086e-05,560.47,5.5799e-05,552.37,-1.7718e-05,-0.0085416,-1.9828e-05,-15.863,1.9387
22395,21.45,5,0.1,5.4185e-05,541.48,5.3852e-05,532.12,-1.6972e-05,-0.018315,-1.9396e-05,-18.236,1.9523
22396,21.359,5.0909,0.1,5.6053e-05,560.14,5.576e-05,551.88,-1.7693e-05,-0.015408,-1.984e-05,-16.151,1.9389
22397,21.45,4.8182,0.1,5.4196e-05,541.59,5.3852e-05,531.95,-1.6949e-05,-0.02285,-1.9444e-05,-18.766,1.9525
22398,21.359,4.9091,0.1,5.6037e-05,559.98,5.574e-05,551.6,-1.7677e-05,-0.020352,-1.9853e-05,-16.373,1.939
22399,21.45,4.6364,0.1,5.4213e-05,541.76,5.3861e-05,531.9,-1.6934e-05,-0.026239,-1.9483e-05,-19.18,1.9526
22400,21.359,4.7273,0.1,5.603e-05,559.91,5.5731e-05,551.47,-1.7669e-05,-0.024156,-1.9861e-05,-16.494,1.9392
22401,21.45,4.4545,0.1,5.4231e-05,541.94,5.3873e-05,531.93,-1.6926e-05,-0.028669,-1.9513e-05,-19.468,1.9527
22402,21.359,4.5455,0.1,5.6028e-05,559.89,5.5728e-05,551.44,-1.7668e-05,-0.026899,-1.9861e-05,-16.501,1.9393
22403,21.45,4.2727,0.1,5.4247e-05,542.09,5.3886e-05,532,-1.6923e-05,-0.030371,-1.9531e-05,-19.631,1.9528
22404,21.359,4.3636,0.1,5.6026e-05,559.87,5.5728e-05,551.48,-1.7673e-05,-0.028834,-1.9851e-05,-16.397,1.9394
22405,21.45,4.0909,0.1,5.4258e-05,542.21,5.3896e-05,532.08,-1.6924e-05,-0.031527,-1.954e-05,-19.687,1.9529
22406,21.359,4.1818,0.1,5.6022e-05,559.84,5.5729e-05,551.55,-1.7682e-05,-0.030148,-1.9834e-05,-16.2,1.9395
22407,21.45,3.9091,0.1,5.4266e-05,542.28,5.3904e-05,532.17,-1.6928e-05,-0.032288,-1.954e-05,-19.661,1.9529
22408,21.359,4,0.1,5.6017e-05,559.78,5.5728e-05,551.63,-1.7693e-05,-0.031007,-1.981e-05,-15.938,1.9396
22409,21.45,3.7273,0.1,5.427e-05,542.32,5.391e-05,532.25,-1.6933e-05,-0.032772,-1.9535e-05,-19.583,1.953
22410,21.359,3.8182,0.1,5.6009e-05,559.71,5.5726e-05,551.71,-1.7705e-05,-0.031547,-1.9783e-05,-15.644,1.9396
22411,21.45,3.5455,0.1,5.4271e-05,542.34,5.3913e-05,532.32,-1.6939e-05,-0.033068,-1.9527e-05,-19.483,1.953
22412,21.359,3.6364,0.1,5.6001e-05,559.63,5.5724e-05,551.78,-1.7717e-05,-0.031871,-1.9757e-05,-15.355,1.9397
22413,21.45,3.3636,0.1,5.4271e-05,542.34,5.3915e-05,532.37,-1.6943e-05,-0.033237,-1.9519e-05,-19.389,1.9531
22414,21.359,3.4545,0.1,5.5994e-05,559.55,5.5721e-05,551.83,-1.7727e-05,-0.032057,-1.9733e-05,-15.103,1.9397
22415,21.45,3.1818,0.1,5.4271e-05,542.33,5.3915e-05,532.4,-1.6946e-05,-0.033324,-1.9514e-05,-19.324,1.9531
22416,21.359,3.2727,0.1,5.5988e-05,559.49,5.5719e-05,551.87,-1.7735e-05,-0.032153,-1.9716e-05,-14.918,1.9397
22417,21.45,3,0.1,5.427e-05,542.33,5.3916e-05,532.4,-1.6947e-05,-0.033351,-1.9512e-05,-19.3,1.9531
22418,21.359,3.0909,0.1,5.5985e-05,559.46,5.5717e-05,551.89,-1.7739e-05,-0.032196,-1.9707e-05,-14.821,1.9398
22419,21.45,2.8182,0.1,5.4271e-05,542.33,5.3915e-05,532.4,-1.6946e-05,-0.033324,-1.9514e-05,-19.324,1.9531
22420,21.359,2.9091,0.1,5.5985e-05,559.46,5.5717e-05,551.89,-1.7739e-05,-0.032195,-1.9707e-05,-14.821,1.9398
22421,21.45,2.6364,0.1,5.4271e-05,542.34,5.3915e-05,532.37,-1.6943e-05,-0.033238,-1.9519e-05,-19.389,1.9531
22422,21.359,2.7273,0.1,5.5988e-05,559.49,5.5719e-05,551.87,-1.7735e-05,-0.032154,-1.9716e-05,-14.918,1.9397
22423,21.45,2.4545,0.1,5.4271e-05,542.34,5.3913e-05,532.32,-1.6939e-05,-0.033067,-1.9527e-05,-19.483,1.953
22424,21.359,2.5455,0.1,5.5994e-05,559.55,5.5721e-05,551.83,-1.7727e-05,-0.032056,-1.9733e-05,-15.103,1.9397
22425,21.45,2.2727,0.1,5.427e-05,542.32,5.391e-05,532.25,-1.6933e-05,-0.032771,-1.9535e-05,-19.583,1.953
22426,21.359,2.3636,0.1,5.6001e-05,559.63,5.5724e-05,551.78,-1.7717e-05,-0.031872,-1.9757e-05,-15.355,1.9397
22427,21.45,2.0909,0.1,5.4266e-05,542.28,5.3904e-05,532.17,-1.6928e-05,-0.032289,-1.954e-05,-19.661,1.9529
22428,21.359,2.1818,0.1,5.6009e-05,559.71,5.5726e-05,551.71,-1.7705e-05,-0.031547,-1.9783e-05,-15.644,1.9396
22429,21.45,1.9091,0.1,5.4258e-05,542.21,5.3896e-05,532.08,-1.6924e-05,-0.031528,-1.954e-05,-19.687,1.9529
22430,21.359,2,0.1,5.6017e-05,559.78,5.5728e-05,551.63,-1.7693e-05,-0.031008,-1.981e-05,-15.938,1.9396
22431,21.45,1.7273,0.1,5.4247e-05,542.09,5.3886e-05,532,-1.6923e-05,-0.030371,-1.9531e-05,-19.631,1.9528
22432,21.359,1.8182,0.1,5.6022e-05,559.84,5.5729e-05,551.55,-1.7682e-05,-0.030148,-1.9834e-05,-16.2,1.9395
22433,21.45,1.5455,0.1,5.4231e-05,541.94,5.3873e-05,531.93,-1.6926e-05,-0.028669,-1.9513e-05,-19.468,1.9527
22434,21.359,1.6364,0.1,5.6026e-05,559.87,5.5728e-05,551.48,-1.7673e-05,-0.028835,-1.9851e-05,-16.397,1.9394
22435,21.45,1.3636,0.1,5.4213e-05,541.76,5.3861e-05,531.9,-1.6934e-05,-0.026241,-1.9483e-05,-19.18,1.9526
22436,21.359,1.4545,0.1,5.6028e-05,559.89,5.5728e-05,551.45,-1.7668e-05,-0.0269,-1.9861e-05,-16.501,1.9393
22437,21.45,1.1818,0.1,5.4196e-05,541.59,5.3852e-05,531.95,-1.6949e-05,-0.022851,-1.9444e-05,-18.766,1.9525
22438,21.359,1.2727,0.1,5.603e-05,559.91,5.5731e-05,551.47,-1.7669e-05,-0.024157,-1.9861e-05,-16.494,1.9392
22439,21.45,1,0.1,5.4185e-05,541.48,5.3852e-05,532.12,-1.6972e-05,-0.018315,-1.9396e-05,-18.236,1.9523
22440,21.359,1.0909,0.1,5.6037e-05,559.98,5.574e-05,551.6,-1.7677e-05,-0.020352,-1.9853e-05,-16.373,1.939
22441,21.45,0.81818,0.1,5.4187e-05,541.49,5.3865e-05,532.46,-1.7003e-05,-0.012138,-1.9346e-05,-17.623,1.9522
22442,21.359,0.90909,0.1,5.6053e-05,560.14,5.576e-05,551.88,-1.7693e-05,-0.015408,-1.984e-05,-16.151,1.9389
22443,21.45,0.63636,0.1,5.4211e-05,541.74,5.3902e-05,533.05,-1.7042e-05,-0.0050723,-1.9302e-05,-16.98,1.952
22444,21.359,0.72727,0.1,5.6086e-05,560.47,5.5799e-05,552.37,-1.7718e-05,-0.0085435,-1.9828e-05,-15.862,1.9387
22445,21.45,0.45455,0.1,5.4276e-05,542.39,5.3978e-05,533.99,-1.7091e-05,0.0086066,-1.9277e-05,-16.42,1.9518
22446,21.359,0.54545,0.1,5.6147e-05,561.08,5.5866e-05,553.13,-1.7752e-05,-0.001985,-1.9824e-05,-15.566,1.9386
22447,21.45,0.27273,0.1,5.4512e-05,544.74,5.4207e-05,536.16,-1.7149e-05,0.01538,-1.9387e-05,-16.798,1.9517
22448,21.359,0.36364,0.1,5.6259e-05,562.21,5.5982e-05,554.35,-1.7796e-05,0.016451,-1.9849e-05,-15.412,1.9384
22449,21.359,0.18182,0.1,5.6671e-05,566.32,5.6362e-05,557.62,-1.7851e-05,0.0059737,-2.0118e-05,-17.022,1.9382
22450,21.45,0.090909,0.1,5.3972e-05,539.34,5.3757e-05,533.23,-1.7212e-05,-0.0028514,-1.8811e-05,-12.019,1.9515
22451,21.267,5.7273,0.1,5.8391e-05,583.51,5.8113e-05,575.63,-1.8497e-05,0.011883,-2.0556e-05,-15.459,1.9249
22452,21.176,5.8182,0.1,6.0563e-05,605.21,6.0276e-05,597.08,-1.919e-05,0.0044259,-2.1314e-05,-15.95,1.9115
22453,21.267,5.9091,0.1,5.7904e-05,578.64,5.7702e-05,572.89,-1.8545e-05,-0.0031261,-2.0052e-05,-11.325,1.9247
22454,21.267,5.5455,0.1,5.8121e-05,580.81,5.7861e-05,573.43,-1.8457e-05,0.0059561,-2.0387e-05,-14.495,1.9251
22455,21.176,5.6364,0.1,6.0126e-05,600.84,5.9879e-05,593.82,-1.9152e-05,0.012124,-2.0994e-05,-13.831,1.9117
22456,21.267,5.3636,0.1,5.8014e-05,579.74,5.7756e-05,572.4,-1.8428e-05,-0.0056709,-2.0343e-05,-14.397,1.9253
22457,21.176,5.4545,0.1,5.9975e-05,599.34,5.9737e-05,592.55,-1.9126e-05,-0.0031158,-2.0905e-05,-13.364,1.9119
22458,21.267,5.1818,0.1,5.7946e-05,579.06,5.7688e-05,571.74,-1.8408e-05,-0.01204,-2.0316e-05,-14.346,1.9255
22459,21.176,5.2727,0.1,5.9874e-05,598.32,5.9642e-05,591.72,-1.9112e-05,-0.0090349,-2.084e-05,-12.992,1.912
22460,21.267,5,0.1,5.7899e-05,578.59,5.7643e-05,571.33,-1.8398e-05,-0.017653,-2.0292e-05,-14.25,1.9256
22461,21.176,5.0909,0.1,5.9798e-05,597.57,5.9574e-05,591.17,-1.9108e-05,-0.015182,-2.0781e-05,-12.582,1.9122
22462,21.267,4.8182,0.1,5.7867e-05,578.27,5.7614e-05,571.09,-1.8397e-05,-0.021842,-2.0266e-05,-14.069,1.9257
22463,21.176,4.9091,0.1,5.974e-05,596.99,5.9525e-05,590.84,-1.9114e-05,-0.019725,-2.072e-05,-12.09,1.9123
22464,21.267,4.6364,0.1,5.7842e-05,578.02,5.7595e-05,570.99,-1.8403e-05,-0.024977,-2.0235e-05,-13.788,1.9259
22465,21.176,4.7273,0.1,5.9692e-05,596.51,5.9488e-05,590.67,-1.9128e-05,-0.023236,-2.0655e-05,-11.5,1.9125
22466,21.267,4.4545,0.1,5.7821e-05,577.81,5.758e-05,570.97,-1.8415e-05,-0.027207,-2.0196e-05,-13.408,1.926
22467,21.176,4.5455,0.1,5.9651e-05,596.1,5.9459e-05,590.6,-1.9149e-05,-0.025762,-2.0585e-05,-10.813,1.9126
22468,21.267,4.2727,0.1,5.7801e-05,577.61,5.7569e-05,571.01,-1.8432e-05,-0.028737,-2.0151e-05,-12.948,1.9261
22469,21.176,4.3636,0.1,5.9613e-05,595.72,5.9435e-05,590.62,-1.9175e-05,-0.027512,-2.0508e-05,-10.049,1.9127
22470,21.267,4.0909,0.1,5.7781e-05,577.41,5.7559e-05,571.07,-1.8451e-05,-0.02974,-2.0102e-05,-12.436,1.9262
22471,21.176,4.1818,0.1,5.9577e-05,595.36,5.9414e-05,590.67,-1.9203e-05,-0.028657,-2.0429e-05,-9.2383,1.9128
22472,21.267,3.9091,0.1,5.7761e-05,577.21,5.7549e-05,571.15,-1.8471e-05,-0.030365,-2.0052e-05,-11.909,1.9262
22473,21.176,4,0.1,5.9543e-05,595.01,5.9394e-05,590.74,-1.9233e-05,-0.02936,-2.035e-05,-8.4227,1.9129
22474,21.267,3.7273,0.1,5.7742e-05,577.02,5.7539e-05,571.22,-1.849e-05,-0.030735,-2.0004e-05,-11.406,1.9263
22475,21.176,3.8182,0.1,5.9511e-05,594.7,5.9377e-05,590.82,-1.9261e-05,-0.029762,-2.0275e-05,-7.6477,1.9129
22476,21.267,3.5455,0.1,5.7726e-05,576.86,5.7531e-05,571.28,-1.8506e-05,-0.030941,-1.9962e-05,-10.966,1.9263
22477,21.176,3.6364,0.1,5.9483e-05,594.42,5.9361e-05,590.89,-1.9286e-05,-0.029975,-2.0208e-05,-6.9596,1.913
22478,21.267,3.3636,0.1,5.7713e-05,576.73,5.7524e-05,571.33,-1.8519e-05,-0.03105,-1.9929e-05,-10.624,1.9264
22479,21.176,3.4545,0.1,5.946e-05,594.19,5.9348e-05,590.95,-1.9307e-05,-0.030081,-2.0154e-05,-6.401,1.913
22480,21.267,3.1818,0.1,5.7704e-05,576.65,5.752e-05,571.36,-1.8527e-05,-0.031101,-1.9908e-05,-10.408,1.9264
22481,21.176,3.2727,0.1,5.9444e-05,594.03,5.9339e-05,590.99,-1.9321e-05,-0.030131,-2.0116e-05,-6.0074,1.9131
22482,21.267,3,0.1,5.7701e-05,576.62,5.7518e-05,571.37,-1.853e-05,-0.031116,-1.9901e-05,-10.334,1.9264
22483,21.176,3.0909,0.1,5.9436e-05,593.95,5.9335e-05,591.01,-1.9328e-05,-0.030153,-2.0097e-05,-5.804,1.9131
22484,21.267,2.8182,0.1,5.7704e-05,576.65,5.752e-05,571.36,-1.8527e-05,-0.0311,-1.9908e-05,-10.408,1.9264
22485,21.176,2.9091,0.1,5.9436e-05,593.95,5.9335e-05,591.01,-1.9328e-05,-0.030151,-2.0097e-05,-5.804,1.9131
22486,21.267,2.6364,0.1,5.7713e-05,576.73,5.7524e-05,571.33,-1.8519e-05,-0.03105,-1.9929e-05,-10.624,1.9264
22487,21.176,2.7273,0.1,5.9444e-05,594.03,5.9339e-05,590.99,-1.9321e-05,-0.03013,-2.0116e-05,-6.0074,1.9131
22488,21.267,2.4545,0.1,5.7726e-05,576.86,5.7531e-05,571.28,-1.8506e-05,-0.030942,-1.9962e-05,-10.966,1.9263
22489,21.176,2.5455,0.1,5.946e-05,594.19,5.9348e-05,590.95,-1.9307e-05,-0.030081,-2.0154e-05,-6.401,1.913
22490,21.267,2.2727,0.1,5.7742e-05,577.02,5.7539e-05,571.22,-1.849e-05,-0.030735,-2.0004e-05,-11.406,1.9263
22491,21.176,2.3636,0.1,5.9483e-05,594.42,5.9361e-05,590.89,-1.9286e-05,-0.029975,-2.0208e-05,-6.9596,1.913
22492,21.267,2.0909,0.1,5.7761e-05,577.21,5.7549e-05,571.15,-1.8471e-05,-0.030365,-2.0052e-05,-11.909,1.9262
22493,21.176,2.1818,0.1,5.9511e-05,594.7,5.9377e-05,590.82,-1.9261e-05,-0.029762,-2.0275e-05,-7.6476,1.9129
22494,21.267,1.9091,0.1,5.7781e-05,577.41,5.7559e-05,571.07,-1.8451e-05,-0.02974,-2.0102e-05,-12.436,1.9262
22495,21.176,2,0.1,5.9543e-05,595.01,5.9394e-05,590.74,-1.9233e-05,-0.02936,-2.035e-05,-8.4226,1.9129
22496,21.267,1.7273,0.1,5.7801e-05,577.61,5.7569e-05,571.01,-1.8432e-05,-0.028738,-2.0151e-05,-12.948,1.9261
22497,21.176,1.8182,0.1,5.9577e-05,595.36,5.9414e-05,590.67,-1.9203e-05,-0.028657,-2.0429e-05,-9.2383,1.9128
22498,21.267,1.5455,0.1,5.7821e-05,577.81,5.758e-05,570.97,-1.8415e-05,-0.027208,-2.0196e-05,-13.408,1.926
22499,21.176,1.6364,0.1,5.9613e-05,595.72,5.9435e-05,590.62,-1.9175e-05,-0.027512,-2.0508e-05,-10.049,1.9127
22500,21.267,1.3636,0.1,5.7842e-05,578.02,5.7595e-05,570.99,-1.8403e-05,-0.024978,-2.0235e-05,-13.788,1.9259
22501,21.176,1.4545,0.1,5.9651e-05,596.1,5.9459e-05,590.6,-1.9149e-05,-0.025762,-2.0585e-05,-10.813,1.9126
22502,21.267,1.1818,0.1,5.7867e-05,578.27,5.7614e-05,571.09,-1.8397e-05,-0.021843,-2.0266e-05,-14.069,1.9257
22503,21.176,1.2727,0.1,5.9692e-05,596.51,5.9488e-05,590.67,-1.9128e-05,-0.023236,-2.0655e-05,-11.5,1.9125
22504,21.267,1,0.1,5.7899e-05,578.59,5.7643e-05,571.33,-1.8398e-05,-0.017654,-2.0292e-05,-14.25,1.9256
22505,21.176,1.0909,0.1,5.974e-05,596.99,5.9525e-05,590.84,-1.9114e-05,-0.019725,-2.072e-05,-12.09,1.9123
22506,21.267,0.81818,0.1,5.7946e-05,579.06,5.7688e-05,571.74,-1.8408e-05,-0.012042,-2.0316e-05,-14.346,1.9255
22507,21.176,0.90909,0.1,5.9798e-05,597.57,5.9574e-05,591.17,-1.9108e-05,-0.015184,-2.0781e-05,-12.582,1.9122
22508,21.267,0.63636,0.1,5.8014e-05,579.74,5.7756e-05,572.4,-1.8428e-05,-0.005673,-2.0343e-05,-14.396,1.9253
22509,21.176,0.72727,0.1,5.9874e-05,598.32,5.9642e-05,591.72,-1.9112e-05,-0.0090368,-2.084e-05,-12.992,1.912
22510,21.267,0.45455,0.1,5.8121e-05,580.81,5.7861e-05,573.43,-1.8457e-05,0.0059561,-2.0387e-05,-14.495,1.9251
22511,21.176,0.54545,0.1,5.9975e-05,599.34,5.9737e-05,592.55,-1.9126e-05,-0.0031152,-2.0905e-05,-13.364,1.9119
22512,21.267,0.27273,0.1,5.8391e-05,583.51,5.8113e-05,575.63,-1.8497e-05,0.011884,-2.0556e-05,-15.459,1.9249
22513,21.176,0.36364,0.1,6.0126e-05,600.84,5.9879e-05,593.82,-1.9152e-05,0.012125,-2.0994e-05,-13.831,1.9117
22514,21.176,0.18182,0.1,6.0563e-05,605.21,6.0276e-05,597.08,-1.919e-05,0.004426,-2.1314e-05,-15.95,1.9115
22515,21.267,0.090909,0.1,5.7904e-05,578.64,5.7702e-05,572.89,-1.8545e-05,-0.0031266,-2.0052e-05,-11.325,1.9247
22516,21.085,5.7273,0.1,6.2272e-05,622.29,6.2019e-05,615.09,-1.9844e-05,0.0086918,-2.1729e-05,-14.154,1.8982
22517,20.994,5.8182,0.1,6.4452e-05,644.08,6.4186e-05,636.5,-2.0527e-05,0.0032395,-2.251e-05,-14.9,1.8848
22518,21.085,5.9091,0.1,6.1835e-05,617.92,6.1647e-05,612.53,-1.9876e-05,-0.0036058,-2.1292e-05,-10.641,1.898
22519,21.085,5.5455,0.1,6.1972e-05,619.29,6.1747e-05,612.88,-1.9821e-05,0.0032363,-2.1504e-05,-12.641,1.8984
22520,20.994,5.6364,0.1,6.3995e-05,639.5,6.3776e-05,633.26,-2.0505e-05,0.0079584,-2.2144e-05,-12.311,1.885
22521,21.085,5.3636,0.1,6.1828e-05,617.85,6.1617e-05,611.81,-1.9811e-05,-0.0065752,-2.1395e-05,-11.912,1.8986
22522,20.994,5.4545,0.1,6.3811e-05,637.67,6.3612e-05,631.97,-2.0498e-05,-0.0045088,-2.1995e-05,-11.255,1.8852
22523,21.085,5.1818,0.1,6.172e-05,616.78,6.1522e-05,611.1,-1.9812e-05,-0.012299,-2.1299e-05,-11.186,1.8988
22524,20.994,5.2727,0.1,6.3673e-05,636.29,6.3493e-05,631.11,-2.0504e-05,-0.0098636,-2.1865e-05,-10.235,1.8854
22525,21.085,5,0.1,6.1634e-05,615.91,6.145e-05,610.65,-1.9824e-05,-0.017373,-2.1204e-05,-10.386,1.8989
22526,20.994,5.0909,0.1,6.356e-05,635.16,6.34e-05,630.54,-2.0522e-05,-0.015329,-2.1736e-05,-9.1351,1.8855
22527,21.085,4.8182,0.1,6.1562e-05,615.19,6.1394e-05,610.38,-1.9845e-05,-0.02123,-2.1105e-05,-9.4904,1.8991
22528,20.994,4.9091,0.1,6.3464e-05,634.2,6.3325e-05,630.19,-2.0551e-05,-0.01947,-2.1603e-05,-7.928,1.8857
22529,21.085,4.6364,0.1,6.1498e-05,614.56,6.1349e-05,610.25,-1.9874e-05,-0.024126,-2.1002e-05,-8.4996,1.8992
22530,20.994,4.7273,0.1,6.338e-05,633.36,6.3264e-05,630.01,-2.0589e-05,-0.022693,-2.1466e-05,-6.6136,1.8858
22531,21.085,4.4545,0.1,6.1441e-05,613.99,6.1311e-05,610.23,-1.9909e-05,-0.026169,-2.0894e-05,-7.4321,1.8993
22532,20.994,4.5455,0.1,6.3303e-05,632.59,6.3212e-05,629.96,-2.0633e-05,-0.025017,-2.1324e-05,-5.2115,1.8859
22533,21.085,4.2727,0.1,6.1388e-05,613.46,6.1278e-05,610.26,-1.9946e-05,-0.02753,-2.0784e-05,-6.3209,1.8994
22534,20.994,4.3636,0.1,6.3232e-05,631.88,6.3166e-05,629.98,-2.0682e-05,-0.026601,-2.1179e-05,-3.7575,1.886
22535,21.085,4.0909,0.1,6.1338e-05,612.96,6.1248e-05,610.32,-1.9985e-05,-0.028367,-2.0675e-05,-5.2098,1.8995
22536,20.994,4.1818,0.1,6.3165e-05,631.22,6.3125e-05,630.05,-2.0733e-05,-0.027578,-2.1035e-05,-2.3001,1.8861
22537,21.085,3.9091,0.1,6.1293e-05,612.51,6.1221e-05,610.41,-2.0023e-05,-0.028828,-2.0572e-05,-4.1492,1.8996
22538,20.994,4,0.1,6.3104e-05,630.61,6.3089e-05,630.15,-2.0782e-05,-0.028003,-2.0898e-05,-0.89624,1.8862
22539,21.085,3.7273,0.1,6.1253e-05,612.1,6.1197e-05,610.49,-2.0057e-05,-0.029046,-2.0478e-05,-3.1913,1.8996
22540,20.994,3.8182,0.1,6.305e-05,630.07,6.3056e-05,630.25,-2.0772e-05,0.39462,-2.0828e-05,-0.028963,1.8863
22541,21.085,3.5455,0.1,6.1219e-05,611.77,6.1178e-05,610.56,-2.0086e-05,-0.029132,-2.04e-05,-2.3858,1.8997
22542,20.994,3.6364,0.1,6.3004e-05,629.6,6.3029e-05,630.34,-2.0663e-05,1.5114,-2.0868e-05,-0.028683,1.8863
22543,21.085,3.3636,0.1,6.1194e-05,611.51,6.1163e-05,610.61,-2.0108e-05,-0.029176,-2.0341e-05,-1.7763,1.8997
22544,20.994,3.4545,0.1,6.2967e-05,629.23,6.3007e-05,630.42,-2.0577e-05,2.4017,-2.09e-05,-0.028596,1.8864
22545,21.085,3.1818,0.1,6.1178e-05,611.36,6.1154e-05,610.64,-2.0122e-05,-0.029219,-2.0304e-05,-1.3964,1.8997
22546,20.994,3.2727,0.1,6.2941e-05,628.98,6.2992e-05,630.47,-2.0517e-05,3.0215,-2.0923e-05,-0.028514,1.8864
22547,21.085,3,0.1,6.1173e-05,611.3,6.115e-05,610.66,-2.0127e-05,-0.029242,-2.0291e-05,-1.2673,1.8997
22548,20.994,3.0909,0.1,6.2928e-05,628.85,6.2984e-05,630.5,-2.0486e-05,3.3395,-2.0934e-05,-0.028463,1.8864
22549,21.085,2.8182,0.1,6.1178e-05,611.36,6.1154e-05,610.64,-2.0122e-05,-0.029217,-2.0304e-05,-1.3964,1.8997
22550,20.994,2.9091,0.1,6.2928e-05,628.85,6.2984e-05,630.5,-2.0486e-05,3.3395,-2.0934e-05,-0.028462,1.8864
22551,21.085,2.6364,0.1,6.1194e-05,611.51,6.1163e-05,610.61,-2.0108e-05,-0.029175,-2.0341e-05,-1.7763,1.8997
22552,20.994,2.7273,0.1,6.2941e-05,628.98,6.2992e-05,630.47,-2.0517e-05,3.0215,-2.0923e-05,-0.028514,1.8864
22553,21.085,2.4545,0.1,6.1219e-05,611.77,6.1178e-05,610.56,-2.0086e-05,-0.029132,-2.04e-05,-2.3858,1.8997
22554,20.994,2.5455,0.1,6.2967e-05,629.23,6.3007e-05,630.42,-2.0577e-05,2.4018,-2.09e-05,-0.028597,1.8864
22555,21.085,2.2727,0.1,6.1253e-05,612.1,6.1197e-05,610.49,-2.0057e-05,-0.029045,-2.0478e-05,-3.1912,1.8996
22556,20.994,2.3636,0.1,6.3004e-05,629.6,6.3029e-05,630.34,-2.0663e-05,1.5114,-2.0868e-05,-0.028682,1.8863
22557,21.085,2.0909,0.1,6.1293e-05,612.51,6.1221e-05,610.41,-2.0023e-05,-0.028828,-2.0572e-05,-4.1492,1.8996
22558,20.994,2.1818,0.1,6.305e-05,630.07,6.3056e-05,630.25,-2.0772e-05,0.39466,-2.0828e-05,-0.028962,1.8863
22559,21.085,1.9091,0.1,6.1338e-05,612.96,6.1248e-05,610.32,-1.9985e-05,-0.028367,-2.0675e-05,-5.2098,1.8995
22560,20.994,2,0.1,6.3104e-05,630.61,6.3089e-05,630.15,-2.0782e-05,-0.028003,-2.0898e-05,-0.89619,1.8862
22561,21.085,1.7273,0.1,6.1388e-05,613.46,6.1278e-05,610.26,-1.9946e-05,-0.02753,-2.0784e-05,-6.3208,1.8994
22562,20.994,1.8182,0.1,6.3165e-05,631.22,6.3125e-05,630.05,-2.0733e-05,-0.027578,-2.1035e-05,-2.3,1.8861
22563,21.085,1.5455,0.1,6.1441e-05,613.99,6.1311e-05,610.23,-1.9909e-05,-0.026169,-2.0894e-05,-7.432,1.8993
22564,20.994,1.6364,0.1,6.3232e-05,631.88,6.3166e-05,629.98,-2.0682e-05,-0.026601,-2.1179e-05,-3.7574,1.886
22565,21.085,1.3636,0.1,6.1498e-05,614.56,6.1349e-05,610.25,-1.9874e-05,-0.024126,-2.1002e-05,-8.4995,1.8992
22566,20.994,1.4545,0.1,6.3303e-05,632.59,6.3212e-05,629.96,-2.0633e-05,-0.025018,-2.1324e-05,-5.2115,1.8859
22567,21.085,1.1818,0.1,6.1562e-05,615.19,6.1394e-05,610.38,-1.9845e-05,-0.021229,-2.1105e-05,-9.4903,1.8991
22568,20.994,1.2727,0.1,6.338e-05,633.36,6.3264e-05,630.01,-2.0589e-05,-0.022693,-2.1466e-05,-6.6136,1.8858
22569,21.085,1,0.1,6.1634e-05,615.91,6.145e-05,610.65,-1.9824e-05,-0.017374,-2.1204e-05,-10.386,1.8989
22570,20.994,1.0909,0.1,6.3464e-05,634.2,6.3325e-05,630.19,-2.0551e-05,-0.01947,-2.1603e-05,-7.9279,1.8857
22571,21.085,0.81818,0.1,6.172e-05,616.78,6.1522e-05,611.1,-1.9812e-05,-0.012301,-2.1299e-05,-11.186,1.8988
22572,20.994,0.90909,0.1,6.356e-05,635.16,6.34e-05,630.54,-2.0522e-05,-0.01533,-2.1736e-05,-9.1351,1.8855
22573,21.085,0.63636,0.1,6.1828e-05,617.85,6.1617e-05,611.81,-1.9811e-05,-0.0065746,-2.1395e-05,-11.911,1.8986
22574,20.994,0.72727,0.1,6.3673e-05,636.29,6.3493e-05,631.11,-2.0504e-05,-0.009865,-2.1865e-05,-10.235,1.8854
22575,21.085,0.45455,0.1,6.1972e-05,619.29,6.1747e-05,612.88,-1.9821e-05,0.0032382,-2.1504e-05,-12.641,1.8984
22576,20.994,0.54545,0.1,6.3811e-05,637.67,6.3612e-05,631.97,-2.0498e-05,-0.0045068,-2.1995e-05,-11.254,1.8852
22577,21.085,0.27273,0.1,6.2272e-05,622.29,6.2019e-05,615.09,-1.9844e-05,0.0086921,-2.1729e-05,-14.154,1.8982
22578,20.994,0.36364,0.1,6.3995e-05,639.5,6.3776e-05,633.26,-2.0505e-05,0.00796,-2.2144e-05,-12.311,1.885
22579,20.994,0.18182,0.1,6.4452e-05,644.08,6.4186e-05,636.5,-2.0527e-05,0.0032388,-2.251e-05,-14.9,1.8848
22580,21.085,0.090909,0.1,6.1835e-05,617.92,6.1647e-05,612.53,-1.9876e-05,-0.0036068,-2.1292e-05,-10.641,1.898
22581,20.903,5.7273,0.1,6.615e-05,661.04,6.5921e-05,654.5,-2.1187e-05,0.0058073,-2.2904e-05,-12.898,1.8716
22582,20.812,5.8182,0.1,6.8333e-05,682.86,6.8087e-05,675.82,-2.1859e-05,0.0023882,-2.3707e-05,-13.885,1.8581
22583,20.903,5.9091,0.1,6.5761e-05,657.16,6.5586e-05,652.11,-2.1206e-05,-0.0042929,-2.2533e-05,-9.9744,1.8713
22584,20.903,5.5455,0.1,6.5826e-05,657.8,6.5634e-05,652.3,-2.1182e-05,0.00044711,-2.2628e-05,-10.87,1.8718
22585,20.812,5.6364,0.1,6.7861e-05,678.14,6.7669e-05,672.64,-2.1853e-05,0.0039684,-2.33e-05,-10.867,1.8584
22586,20.903,5.3636,0.1,6.565e-05,656.04,6.5482e-05,651.22,-2.1191e-05,-0.0077918,-2.2459e-05,-9.5329,1.872
22587,20.812,5.4545,0.1,6.7649e-05,676.03,6.7487e-05,671.35,-2.1865e-05,-0.0061806,-2.3095e-05,-9.2499,1.8586
22588,20.903,5.1818,0.1,6.5507e-05,654.62,6.5365e-05,650.51,-2.1214e-05,-0.012906,-2.2296e-05,-8.1445,1.8721
22589,20.812,5.2727,0.1,6.7481e-05,674.34,6.7348e-05,670.5,-2.1892e-05,-0.01105,-2.2902e-05,-7.5997,1.8587
22590,20.903,5,0.1,6.5386e-05,653.41,6.527e-05,650.05,-2.1249e-05,-0.017425,-2.2131e-05,-6.6422,1.8723
22591,20.812,5.0909,0.1,6.7335e-05,672.89,6.7234e-05,669.96,-2.1933e-05,-0.015824,-2.2705e-05,-5.814,1.8589
22592,20.903,4.8182,0.1,6.5278e-05,652.33,6.5191e-05,649.8,-2.1294e-05,-0.020906,-2.196e-05,-5.0214,1.8724
22593,20.812,4.9091,0.1,6.7207e-05,671.6,6.7139e-05,669.64,-2.1987e-05,-0.01945,-2.2501e-05,-3.8833,1.8591
22594,20.903,4.6364,0.1,6.5181e-05,651.36,6.5124e-05,649.69,-2.1348e-05,-0.023529,-2.1784e-05,-3.3005,1.8726
22595,20.812,4.7273,0.1,6.709e-05,670.43,6.7058e-05,669.51,-2.2051e-05,-0.022097,-2.2291e-05,-1.8257,1.8592
22596,20.903,4.4545,0.1,6.5091e-05,650.46,6.5065e-05,649.69,-2.1407e-05,-0.025363,-2.1605e-05,-1.5162,1.8727
22597,20.812,4.5455,0.1,6.6981e-05,669.35,6.6987e-05,669.5,-2.2076e-05,0.32316,-2.2122e-05,-0.026561,1.8593
22598,20.903,4.2727,0.1,6.5008e-05,649.63,6.5012e-05,649.76,-2.1428e-05,0.28071,-2.1469e-05,-0.026872,1.8728
22599,20.812,4.3636,0.1,6.6881e-05,668.35,6.6923e-05,669.58,-2.186e-05,2.5009,-2.2197e-05,-0.026197,1.8594
22600,20.903,4.0909,0.1,6.4931e-05,648.86,6.4965e-05,649.86,-2.1256e-05,2.0278,-2.153e-05,-0.027406,1.8729
22601,20.812,4.1818,0.1,6.6788e-05,667.42,6.6865e-05,669.71,-2.165e-05,4.6451,-2.2272e-05,-0.026907,1.8595
22602,20.903,3.9091,0.1,6.4862e-05,648.17,6.4923e-05,649.98,-2.1097e-05,3.6588,-2.1588e-05,-0.02776,1.873
22603,20.812,4,0.1,6.6703e-05,666.57,6.6814e-05,669.87,-2.1452e-05,6.6787,-2.2344e-05,-0.027294,1.8596
22604,20.903,3.7273,0.1,6.4802e-05,647.57,6.4886e-05,650.09,-2.0956e-05,5.1062,-2.1639e-05,-0.027882,1.873
22605,20.812,3.8182,0.1,6.6628e-05,665.82,6.6768e-05,670.03,-2.1272e-05,8.5237,-2.241e-05,-0.027421,1.8597
22606,20.903,3.5455,0.1,6.4752e-05,647.08,6.4857e-05,650.19,-2.0839e-05,6.307,-2.1682e-05,-0.027866,1.8731
22607,20.812,3.6364,0.1,6.6565e-05,665.19,6.673e-05,670.17,-2.1119e-05,10.105,-2.2467e-05,-0.027385,1.8597
22608,20.903,3.3636,0.1,6.4716e-05,646.71,6.4835e-05,650.27,-2.0752e-05,7.2068,-2.1715e-05,-0.027796,1.8731
22609,20.812,3.4545,0.1,6.6515e-05,664.69,6.6701e-05,670.29,-2.0997e-05,11.356,-2.2512e-05,-0.027278,1.8598
22610,20.903,3.1818,0.1,6.4693e-05,646.49,6.4821e-05,650.32,-2.0697e-05,7.7642,-2.1734e-05,-0.02773,1.8731
22611,20.812,3.2727,0.1,6.6481e-05,664.35,6.668e-05,670.37,-2.0913e-05,12.222,-2.2544e-05,-0.027166,1.8598
22612,20.903,3,0.1,6.4686e-05,646.41,6.4817e-05,650.33,-2.0679e-05,7.953,-2.1741e-05,-0.027704,1.8731
22613,20.812,3.0909,0.1,6.6464e-05,664.18,6.667e-05,670.41,-2.087e-05,12.665,-2.256e-05,-0.027098,1.8598
22614,20.903,2.8182,0.1,6.4693e-05,646.49,6.4821e-05,650.32,-2.0697e-05,7.7642,-2.1734e-05,-0.027731,1.8731
22615,20.812,2.9091,0.1,6.6464e-05,664.18,6.667e-05,670.41,-2.087e-05,12.665,-2.256e-05,-0.027098,1.8598
22616,20.903,2.6364,0.1,6.4716e-05,646.71,6.4835e-05,650.27,-2.0752e-05,7.2068,-2.1715e-05,-0.027797,1.8731
22617,20.812,2.7273,0.1,6.6481e-05,664.35,6.668e-05,670.37,-2.0913e-05,12.222,-2.2544e-05,-0.027167,1.8598
22618,20.903,2.4545,0.1,6.4752e-05,647.08,6.4857e-05,650.19,-2.0839e-05,6.307,-2.1682e-05,-0.027866,1.8731
22619,20.812,2.5455,0.1,6.6515e-05,664.69,6.6701e-05,670.29,-2.0997e-05,11.356,-2.2512e-05,-0.027278,1.8598
22620,20.903,2.2727,0.1,6.4802e-05,647.57,6.4886e-05,650.09,-2.0956e-05,5.1063,-2.1639e-05,-0.027881,1.873
22621,20.812,2.3636,0.1,6.6565e-05,665.19,6.673e-05,670.17,-2.1119e-05,10.105,-2.2467e-05,-0.027385,1.8597
22622,20.903,2.0909,0.1,6.4862e-05,648.17,6.4923e-05,649.98,-2.1097e-05,3.6589,-2.1588e-05,-0.02776,1.873
22623,20.812,2.1818,0.1,6.6628e-05,665.82,6.6768e-05,670.03,-2.1272e-05,8.5238,-2.241e-05,-0.02742,1.8597
22624,20.903,1.9091,0.1,6.4931e-05,648.86,6.4965e-05,649.86,-2.1256e-05,2.0279,-2.153e-05,-0.027406,1.8729
22625,20.812,2,0.1,6.6703e-05,666.57,6.6814e-05,669.87,-2.1452e-05,6.6788,-2.2344e-05,-0.027294,1.8596
22626,20.903,1.7273,0.1,6.5008e-05,649.63,6.5012e-05,649.76,-2.1428e-05,0.28077,-2.1469e-05,-0.026873,1.8728
22627,20.812,1.8182,0.1,6.6788e-05,667.42,6.6865e-05,669.71,-2.165e-05,4.6452,-2.2272e-05,-0.026908,1.8595
22628,20.903,1.5455,0.1,6.5091e-05,650.46,6.5065e-05,649.69,-2.1407e-05,-0.025363,-2.1605e-05,-1.5161,1.8727
22629,20.812,1.6364,0.1,6.6881e-05,668.35,6.6923e-05,669.58,-2.186e-05,2.5009,-2.2197e-05,-0.026197,1.8594
22630,20.903,1.3636,0.1,6.5181e-05,651.36,6.5124e-05,649.69,-2.1348e-05,-0.02353,-2.1784e-05,-3.3005,1.8726
22631,20.812,1.4545,0.1,6.6981e-05,669.35,6.6987e-05,669.5,-2.2076e-05,0.32322,-2.2122e-05,-0.026561,1.8593
22632,20.903,1.1818,0.1,6.5278e-05,652.33,6.5191e-05,649.8,-2.1294e-05,-0.020907,-2.196e-05,-5.0214,1.8724
22633,20.812,1.2727,0.1,6.709e-05,670.43,6.7058e-05,669.51,-2.2051e-05,-0.022097,-2.2291e-05,-1.8256,1.8592
22634,20.903,1,0.1,6.5386e-05,653.41,6.527e-05,650.05,-2.1249e-05,-0.017425,-2.2131e-05,-6.6422,1.8723
22635,20.812,1.0909,0.1,6.7207e-05,671.6,6.7139e-05,669.64,-2.1987e-05,-0.01945,-2.2501e-05,-3.8833,1.8591
22636,20.903,0.81818,0.1,6.5507e-05,654.62,6.5365e-05,650.51,-2.1214e-05,-0.012908,-2.2296e-05,-8.1444,1.8721
22637,20.812,0.90909,0.1,6.7335e-05,672.89,6.7234e-05,669.96,-2.1933e-05,-0.015825,-2.2705e-05,-5.814,1.8589
22638,20.903,0.63636,0.1,6.565e-05,656.04,6.5482e-05,651.22,-2.1191e-05,-0.0077918,-2.2459e-05,-9.5329,1.872
22639,20.812,0.72727,0.1,6.7481e-05,674.34,6.7348e-05,670.5,-2.1892e-05,-0.011051,-2.2902e-05,-7.5997,1.8587
22640,20.903,0.45455,0.1,6.5826e-05,657.8,6.5634e-05,652.3,-2.1182e-05,0.00044886,-2.2628e-05,-10.87,1.8718
22641,20.812,0.54545,0.1,6.7649e-05,676.03,6.7487e-05,671.35,-2.1865e-05,-0.0061806,-2.3095e-05,-9.2498,1.8586
22642,20.903,0.27273,0.1,6.615e-05,661.04,6.5921e-05,654.5,-2.1187e-05,0.0058077,-2.2904e-05,-12.898,1.8716
22643,20.812,0.36364,0.1,6.7861e-05,678.14,6.7669e-05,672.64,-2.1853e-05,0.0039696,-2.33e-05,-10.867,1.8584
22644,20.812,0.18182,0.1,6.8333e-05,682.86,6.8087e-05,675.82,-2.1859e-05,0.0023893,-2.3707e-05,-13.885,1.8581
22645,20.903,0.090909,0.1,6.5761e-05,657.16,6.5586e-05,652.11,-2.1206e-05,-0.0042937,-2.2533e-05,-9.9744,1.8713
22646,20.721,5.7273,0.1,7.002e-05,699.72,6.9814e-05,693.8,-2.2524e-05,0.003253,-2.4082e-05,-11.703,1.8449
22647,20.63,5.8182,0.1,7.22e-05,721.51,7.1972e-05,714.96,-2.3183e-05,0.0018611,-2.4903e-05,-12.92,1.8315
22648,20.721,5.9091,0.1,6.9675e-05,696.27,6.9512e-05,691.55,-2.2529e-05,-0.0052324,-2.3771e-05,-9.333,1.8447
22649,20.721,5.5455,0.1,6.9677e-05,696.28,6.9515e-05,691.64,-2.2536e-05,-0.0024096,-2.376e-05,-9.1961,1.8452
22650,20.63,5.6364,0.1,7.1718e-05,716.68,7.1551e-05,711.88,-2.3194e-05,0.0001969,-2.4461e-05,-9.5169,1.8318
22651,20.721,5.3636,0.1,6.9474e-05,694.26,6.9347e-05,690.59,-2.2566e-05,-0.0093615,-2.3533e-05,-7.2737,1.8453
22652,20.63,5.4545,0.1,7.1485e-05,714.35,7.1356e-05,710.64,-2.3225e-05,-0.0081575,-2.4204e-05,-7.367,1.832
22653,20.721,5.1818,0.1,6.9303e-05,692.55,6.9212e-05,689.92,-2.2612e-05,-0.01387,-2.3306e-05,-5.2311,1.8455
22654,20.63,5.2727,0.1,7.1291e-05,712.42,7.1203e-05,709.85,-2.3274e-05,-0.01265,-2.3951e-05,-5.0999,1.8322
22655,20.721,5,0.1,6.9152e-05,691.04,6.9099e-05,689.51,-2.2672e-05,-0.017579,-2.3072e-05,-3.0219,1.8457
22656,20.63,5.0909,0.1,7.112e-05,710.71,7.1075e-05,709.38,-2.3341e-05,-0.016531,-2.3688e-05,-2.6283,1.8323
22657,20.721,4.8182,0.1,6.9014e-05,689.66,6.9003e-05,689.32,-2.2743e-05,-0.018241,-2.2829e-05,-0.6612,1.8458
22658,20.63,4.9091,0.1,7.0964e-05,709.15,7.0965e-05,709.16,-2.341e-05,0.066135,-2.3425e-05,-0.045259,1.8325
22659,20.721,4.6364,0.1,6.8887e-05,688.4,6.8918e-05,689.29,-2.2579e-05,1.8217,-2.2825e-05,-0.024609,1.846
22660,20.63,4.7273,0.1,7.082e-05,707.71,7.0868e-05,709.13,-2.3129e-05,2.8705,-2.3515e-05,-0.02383,1.8326
22661,20.721,4.4545,0.1,6.8769e-05,687.22,6.8842e-05,689.37,-2.2328e-05,4.3585,-2.2911e-05,-0.025557,1.8461
22662,20.63,4.5455,0.1,7.0686e-05,706.37,7.0782e-05,709.24,-2.284e-05,5.7976,-2.3615e-05,-0.025172,1.8328
22663,20.721,4.2727,0.1,6.866e-05,686.12,6.8774e-05,689.52,-2.208e-05,6.8819,-2.3e-05,-0.026371,1.8462
22664,20.63,4.3636,0.1,7.0561e-05,705.12,7.0705e-05,709.44,-2.2552e-05,8.7463,-2.3719e-05,-0.026132,1.8329
22665,20.721,4.0909,0.1,6.8559e-05,685.12,6.8712e-05,689.71,-2.1844e-05,9.3096,-2.3086e-05,-0.026822,1.8463
22666,20.63,4.1818,0.1,7.0445e-05,703.96,7.0635e-05,709.69,-2.2272e-05,11.626,-2.3822e-05,-0.026653,1.833
22667,20.721,3.9091,0.1,6.8469e-05,684.22,6.8658e-05,689.91,-2.1626e-05,11.555,-2.3167e-05,-0.026981,1.8464
22668,20.63,4,0.1,7.034e-05,702.91,7.0572e-05,709.96,-2.2009e-05,14.338,-2.3921e-05,-0.026829,1.8331
22669,20.721,3.7273,0.1,6.8392e-05,683.44,6.8611e-05,690.1,-2.1434e-05,13.532,-2.3238e-05,-0.026945,1.8464
22670,20.63,3.8182,0.1,7.0247e-05,701.99,7.0517e-05,710.22,-2.1773e-05,16.784,-2.401e-05,-0.026772,1.8331
22671,20.721,3.5455,0.1,6.8329e-05,682.81,6.8573e-05,690.25,-2.1276e-05,15.162,-2.3298e-05,-0.026811,1.8465
22672,20.63,3.6364,0.1,7.017e-05,701.22,7.0472e-05,710.45,-2.1572e-05,18.87,-2.4087e-05,-0.026587,1.8332
22673,20.721,3.3636,0.1,6.8282e-05,682.35,6.8545e-05,690.38,-2.1158e-05,16.379,-2.3342e-05,-0.026656,1.8465
22674,20.63,3.4545,0.1,7.011e-05,700.62,7.0436e-05,710.63,-2.1413e-05,20.515,-2.4147e-05,-0.026366,1.8332
22675,20.721,3.1818,0.1,6.8253e-05,682.06,6.8528e-05,690.45,-2.1086e-05,17.13,-2.3369e-05,-0.026539,1.8465
22676,20.63,3.2727,0.1,7.0069e-05,700.2,7.0411e-05,710.76,-2.1304e-05,21.651,-2.4189e-05,-0.026178,1.8333
22677,20.721,3,0.1,6.8244e-05,681.97,6.8522e-05,690.48,-2.1061e-05,17.384,-2.3378e-05,-0.026496,1.8466
22678,20.63,3.0909,0.1,7.0048e-05,699.99,7.0399e-05,710.83,-2.1248e-05,22.231,-2.421e-05,-0.026072,1.8333
22679,20.721,2.8182,0.1,6.8253e-05,682.06,6.8528e-05,690.45,-2.1086e-05,17.13,-2.3369e-05,-0.026539,1.8465
22680,20.63,2.9091,0.1,7.0048e-05,699.99,7.0399e-05,710.83,-2.1248e-05,22.231,-2.421e-05,-0.026071,1.8333
22681,20.721,2.6364,0.1,6.8282e-05,682.35,6.8545e-05,690.38,-2.1158e-05,16.379,-2.3342e-05,-0.026657,1.8465
22682,20.63,2.7273,0.1,7.0069e-05,700.2,7.0411e-05,710.76,-2.1304e-05,21.651,-2.4189e-05,-0.026178,1.8333
22683,20.721,2.4545,0.1,6.8329e-05,682.81,6.8573e-05,690.25,-2.1276e-05,15.162,-2.3298e-05,-0.026811,1.8465
22684,20.63,2.5455,0.1,7.011e-05,700.62,7.0436e-05,710.63,-2.1413e-05,20.515,-2.4147e-05,-0.026366,1.8332
22685,20.721,2.2727,0.1,6.8392e-05,683.44,6.8611e-05,690.1,-2.1434e-05,13.532,-2.3238e-05,-0.026945,1.8464
22686,20.63,2.3636,0.1,7.017e-05,701.22,7.0472e-05,710.45,-2.1572e-05,18.87,-2.4087e-05,-0.026588,1.8332
22687,20.721,2.0909,0.1,6.8469e-05,684.22,6.8658e-05,689.91,-2.1626e-05,11.555,-2.3167e-05,-0.02698,1.8464
22688,20.63,2.1818,0.1,7.0247e-05,701.99,7.0517e-05,710.22,-2.1773e-05,16.784,-2.401e-05,-0.026772,1.8331
22689,20.721,1.9091,0.1,6.8559e-05,685.12,6.8712e-05,689.71,-2.1844e-05,9.3096,-2.3086e-05,-0.026822,1.8463
22690,20.63,2,0.1,7.034e-05,702.91,7.0572e-05,709.96,-2.2009e-05,14.338,-2.3921e-05,-0.02683,1.8331
22691,20.721,1.7273,0.1,6.866e-05,686.12,6.8774e-05,689.52,-2.208e-05,6.882,-2.3e-05,-0.026371,1.8462
22692,20.63,1.8182,0.1,7.0445e-05,703.96,7.0635e-05,709.69,-2.2272e-05,11.626,-2.3822e-05,-0.026653,1.833
22693,20.721,1.5455,0.1,6.8769e-05,687.22,6.8842e-05,689.37,-2.2328e-05,4.3585,-2.2911e-05,-0.025556,1.8461
22694,20.63,1.6364,0.1,7.0561e-05,705.12,7.0705e-05,709.44,-2.2551e-05,8.7464,-2.3719e-05,-0.026132,1.8329
22695,20.721,1.3636,0.1,6.8887e-05,688.4,6.8918e-05,689.29,-2.2579e-05,1.8218,-2.2825e-05,-0.024609,1.846
22696,20.63,1.4545,0.1,7.0686e-05,706.37,7.0782e-05,709.24,-2.284e-05,5.7977,-2.3615e-05,-0.025173,1.8328
22697,20.721,1.1818,0.1,6.9014e-05,689.66,6.9003e-05,689.32,-2.2743e-05,-0.01824,-2.2829e-05,-0.66114,1.8458
22698,20.63,1.2727,0.1,7.082e-05,707.71,7.0868e-05,709.13,-2.3129e-05,2.8706,-2.3515e-05,-0.02383,1.8326
22699,20.721,1,0.1,6.9152e-05,691.04,6.9099e-05,689.51,-2.2672e-05,-0.017579,-2.3072e-05,-3.0218,1.8457
22700,20.63,1.0909,0.1,7.0964e-05,709.15,7.0965e-05,709.16,-2.341e-05,0.066185,-2.3425e-05,-0.045248,1.8325
22701,20.721,0.81818,0.1,6.9303e-05,692.55,6.9212e-05,689.92,-2.2612e-05,-0.013871,-2.3306e-05,-5.231,1.8455
22702,20.63,0.90909,0.1,7.112e-05,710.71,7.1075e-05,709.38,-2.3341e-05,-0.016531,-2.3688e-05,-2.6282,1.8323
22703,20.721,0.63636,0.1,6.9474e-05,694.26,6.9347e-05,690.59,-2.2566e-05,-0.0093625,-2.3533e-05,-7.2736,1.8453
22704,20.63,0.72727,0.1,7.1291e-05,712.42,7.1203e-05,709.85,-2.3274e-05,-0.012651,-2.3951e-05,-5.0998,1.8322
22705,20.721,0.45455,0.1,6.9677e-05,696.28,6.9515e-05,691.64,-2.2536e-05,-0.0024101,-2.376e-05,-9.1961,1.8452
22706,20.63,0.54545,0.1,7.1485e-05,714.35,7.1356e-05,710.64,-2.3225e-05,-0.0081599,-2.4204e-05,-7.3669,1.832
22707,20.721,0.27273,0.1,7.002e-05,699.72,6.9814e-05,693.8,-2.2524e-05,0.0032548,-2.4082e-05,-11.703,1.8449
22708,20.63,0.36364,0.1,7.1718e-05,716.68,7.1551e-05,711.88,-2.3194e-05,0.00019879,-2.4461e-05,-9.5169,1.8318
22709,20.63,0.18182,0.1,7.22e-05,721.51,7.1972e-05,714.96,-2.3183e-05,0.001863,-2.4903e-05,-12.92,1.8315
22710,20.721,0.090909,0.1,6.9675e-05,696.27,6.9512e-05,691.55,-2.2529e-05,-0.0052303,-2.3771e-05,-9.333,1.8447
22711,20.539,5.7273,0.1,7.3875e-05,738.25,7.369e-05,732.89,-2.3852e-05,0.0010842,-2.5262e-05,-10.589,1.8184
22712,20.448,5.8182,0.1,7.6044e-05,759.92,7.5833e-05,753.84,-2.4497e-05,0.001654,-2.6097e-05,-12.022,1.805
22713,20.539,5.9091,0.1,7.3569e-05,735.18,7.3416e-05,730.77,-2.3845e-05,-0.0064832,-2.5005e-05,-8.7262,1.8181
22714,20.539,5.5455,0.1,7.3518e-05,734.68,7.3385e-05,730.83,-2.3882e-05,-0.0053086,-2.4898e-05,-7.6391,1.8186
22715,20.448,5.6364,0.1,7.5558e-05,755.06,7.5414e-05,750.89,-2.4523e-05,-0.0032711,-2.5625e-05,-8.2806,1.8052
22716,20.539,5.3636,0.1,7.3296e-05,732.45,7.3207e-05,729.86,-2.3933e-05,-0.01134,-2.4617e-05,-5.1521,1.8188
22717,20.448,5.4545,0.1,7.531e-05,752.58,7.5213e-05,749.75,-2.4574e-05,-0.010442,-2.5322e-05,-5.6279,1.8054
22718,20.539,5.1818,0.1,7.3103e-05,730.52,7.306e-05,729.28,-2.4003e-05,-0.015148,-2.4329e-05,-2.4604,1.819
22719,20.448,5.2727,0.1,7.51e-05,750.48,7.5052e-05,749.09,-2.4647e-05,-0.014762,-2.5012e-05,-2.7557,1.8056
22720,20.539,5,0.1,7.2928e-05,728.77,7.2935e-05,729,-2.4025e-05,0.47249,-2.4092e-05,-0.024545,1.8191
22721,20.448,5.0909,0.1,7.4909e-05,748.57,7.4916e-05,748.77,-2.4684e-05,0.4114,-2.4742e-05,-0.022288,1.8058
22722,20.539,4.8182,0.1,7.2766e-05,727.16,7.2826e-05,728.94,-2.3711e-05,3.5979,-2.4193e-05,-0.023061,1.8193
22723,20.448,4.9091,0.1,7.4733e-05,746.82,7.4797e-05,748.72,-2.434e-05,3.8368,-2.4854e-05,-0.022504,1.806
22724,20.539,4.6364,0.1,7.2616e-05,725.66,7.273e-05,729.05,-2.3387e-05,6.8702,-2.4305e-05,-0.02467,1.8194
22725,20.448,4.7273,0.1,7.4569e-05,745.17,7.4693e-05,748.87,-2.3981e-05,7.47,-2.4979e-05,-0.024481,1.8061
22726,20.539,4.4545,0.1,7.2475e-05,724.25,7.2643e-05,729.28,-2.3061e-05,10.205,-2.4423e-05,-0.025798,1.8196
22727,20.448,4.5455,0.1,7.4415e-05,743.63,7.4599e-05,749.17,-2.3616e-05,11.224,-2.5113e-05,-0.025817,1.8062
22728,20.539,4.2727,0.1,7.2344e-05,722.94,7.2564e-05,729.59,-2.2741e-05,13.506,-2.4542e-05,-0.026429,1.8197
22729,20.448,4.3636,0.1,7.4271e-05,742.2,7.4514e-05,749.57,-2.3251e-05,14.995,-2.5251e-05,-0.026568,1.8064
22730,20.539,4.0909,0.1,7.2224e-05,721.75,7.2493e-05,729.92,-2.2435e-05,16.666,-2.4657e-05,-0.026662,1.8198
22731,20.448,4.1818,0.1,7.4138e-05,740.87,7.4437e-05,750.01,-2.2899e-05,18.667,-2.5387e-05,-0.026853,1.8065
22732,20.539,3.9091,0.1,7.2118e-05,720.68,7.243e-05,730.25,-2.2155e-05,19.577,-2.4764e-05,-0.026615,1.8198
22733,20.448,4,0.1,7.4018e-05,739.67,7.4369e-05,750.46,-2.2568e-05,22.114,-2.5515e-05,-0.026801,1.8066
22734,20.539,3.7273,0.1,7.2026e-05,719.76,7.2377e-05,730.56,-2.191e-05,22.131,-2.4859e-05,-0.026405,1.8199
22735,20.448,3.8182,0.1,7.3913e-05,738.62,7.4309e-05,750.89,-2.2272e-05,25.216,-2.5632e-05,-0.026541,1.8066
22736,20.539,3.5455,0.1,7.1952e-05,719.02,7.2333e-05,730.82,-2.1708e-05,24.231,-2.4936e-05,-0.02613,1.82
22737,20.448,3.6364,0.1,7.3825e-05,737.74,7.4259e-05,751.26,-2.202e-05,27.855,-2.5731e-05,-0.026188,1.8067
22738,20.539,3.3636,0.1,7.1897e-05,718.48,7.2301e-05,731.01,-2.1558e-05,25.794,-2.4995e-05,-0.025873,1.82
22739,20.448,3.4545,0.1,7.3757e-05,737.06,7.422e-05,751.55,-2.1822e-05,29.931,-2.5809e-05,-0.025837,1.8067
22740,20.539,3.1818,0.1,7.1864e-05,718.14,7.2281e-05,731.14,-2.1466e-05,26.758,-2.503e-05,-0.025694,1.82
22741,20.448,3.2727,0.1,7.371e-05,736.59,7.4193e-05,751.76,-2.1686e-05,31.363,-2.5864e-05,-0.025559,1.8068
22742,20.539,3,0.1,7.1853e-05,718.03,7.2275e-05,731.18,-2.1434e-05,27.083,-2.5042e-05,-0.02563,1.82
22743,20.448,3.0909,0.1,7.3687e-05,736.36,7.418e-05,751.87,-2.1616e-05,32.094,-2.5891e-05,-0.025409,1.8068
22744,20.539,2.8182,0.1,7.1864e-05,718.14,7.2281e-05,731.14,-2.1466e-05,26.758,-2.503e-05,-0.025694,1.82
22745,20.448,2.9091,0.1,7.3687e-05,736.36,7.418e-05,751.87,-2.1616e-05,32.094,-2.5891e-05,-0.025408,1.8068
22746,20.539,2.6364,0.1,7.1897e-05,718.48,7.2301e-05,731.01,-2.1558e-05,25.794,-2.4995e-05,-0.025873,1.82
22747,20.448,2.7273,0.1,7.371e-05,736.59,7.4193e-05,751.76,-2.1686e-05,31.363,-2.5864e-05,-0.025559,1.8068
22748,20.539,2.4545,0.1,7.1952e-05,719.02,7.2333e-05,730.82,-2.1708e-05,24.231,-2.4936e-05,-0.02613,1.82
22749,20.448,2.5455,0.1,7.3757e-05,737.06,7.422e-05,751.55,-2.1822e-05,29.931,-2.5809e-05,-0.025835,1.8067
22750,20.539,2.2727,0.1,7.2026e-05,719.76,7.2377e-05,730.56,-2.191e-05,22.131,-2.4859e-05,-0.026405,1.8199
22751,20.448,2.3636,0.1,7.3825e-05,737.74,7.4259e-05,751.26,-2.202e-05,27.855,-2.5731e-05,-0.026188,1.8067
22752,20.539,2.0909,0.1,7.2118e-05,720.68,7.243e-05,730.25,-2.2155e-05,19.577,-2.4764e-05,-0.026617,1.8198
22753,20.448,2.1818,0.1,7.3913e-05,738.62,7.4309e-05,750.89,-2.2272e-05,25.216,-2.5632e-05,-0.026541,1.8066
22754,20.539,1.9091,0.1,7.2224e-05,721.75,7.2493e-05,729.92,-2.2435e-05,16.667,-2.4657e-05,-0.026663,1.8198
22755,20.448,2,0.1,7.4018e-05,739.67,7.4369e-05,750.46,-2.2568e-05,22.114,-2.5515e-05,-0.026802,1.8066
22756,20.539,1.7273,0.1,7.2344e-05,722.94,7.2564e-05,729.59,-2.2741e-05,13.506,-2.4542e-05,-0.026429,1.8197
22757,20.448,1.8182,0.1,7.4138e-05,740.87,7.4437e-05,750.01,-2.2899e-05,18.667,-2.5387e-05,-0.026853,1.8065
22758,20.539,1.5455,0.1,7.2475e-05,724.25,7.2643e-05,729.28,-2.3061e-05,10.205,-2.4423e-05,-0.025798,1.8196
22759,20.448,1.6364,0.1,7.4271e-05,742.2,7.4514e-05,749.57,-2.3251e-05,14.995,-2.5251e-05,-0.026569,1.8064
22760,20.539,1.3636,0.1,7.2616e-05,725.66,7.273e-05,729.05,-2.3387e-05,6.8702,-2.4305e-05,-0.02467,1.8194
22761,20.448,1.4545,0.1,7.4415e-05,743.63,7.4599e-05,749.17,-2.3616e-05,11.224,-2.5113e-05,-0.025818,1.8062
22762,20.539,1.1818,0.1,7.2766e-05,727.16,7.2826e-05,728.94,-2.3711e-05,3.598,-2.4193e-05,-0.023062,1.8193
22763,20.448,1.2727,0.1,7.4569e-05,745.17,7.4693e-05,748.87,-2.3981e-05,7.4701,-2.4979e-05,-0.02448,1.8061
22764,20.539,1,0.1,7.2928e-05,728.77,7.2935e-05,729,-2.4025e-05,0.47256,-2.4092e-05,-0.024545,1.8191
22765,20.448,1.0909,0.1,7.4733e-05,746.82,7.4797e-05,748.72,-2.434e-05,3.8369,-2.4854e-05,-0.022506,1.806
22766,20.539,0.81818,0.1,7.3103e-05,730.52,7.306e-05,729.28,-2.4003e-05,-0.015149,-2.4329e-05,-2.4603,1.819
22767,20.448,0.90909,0.1,7.4909e-05,748.57,7.4916e-05,748.77,-2.4684e-05,0.41147,-2.4742e-05,-0.022289,1.8058
22768,20.539,0.63636,0.1,7.3296e-05,732.45,7.3207e-05,729.86,-2.3933e-05,-0.011343,-2.4617e-05,-5.152,1.8188
22769,20.448,0.72727,0.1,7.51e-05,750.48,7.5052e-05,749.09,-2.4647e-05,-0.014764,-2.5012e-05,-2.7557,1.8056
22770,20.539,0.45455,0.1,7.3518e-05,734.68,7.3385e-05,730.83,-2.3882e-05,-0.0053086,-2.4898e-05,-7.6391,1.8186
22771,20.448,0.54545,0.1,7.531e-05,752.58,7.5213e-05,749.75,-2.4574e-05,-0.010443,-2.5322e-05,-5.6278,1.8054
22772,20.539,0.27273,0.1,7.3876e-05,738.25,7.369e-05,732.89,-2.3852e-05,0.0010862,-2.5262e-05,-10.589,1.8184
22773,20.448,0.36364,0.1,7.5558e-05,755.06,7.5414e-05,750.89,-2.4523e-05,-0.0032694,-2.5625e-05,-8.2806,1.8052
22774,20.448,0.18182,0.1,7.6044e-05,759.92,7.5833e-05,753.84,-2.4497e-05,0.0016548,-2.6097e-05,-12.022,1.805
22775,20.539,0.090909,0.1,7.3569e-05,735.18,7.3416e-05,730.77,-2.3845e-05,-0.0064839,-2.5005e-05,-8.7262,1.8181
22776,20.357,5.7273,0.1,7.7706e-05,776.52,7.7539e-05,771.69,-2.5167e-05,-0.00061747,-2.6442e-05,-9.5766,1.7918
22777,20.266,5.8182,0.1,7.9854e-05,797.99,7.9658e-05,792.33,-2.5794e-05,0.0017717,-2.7287e-05,-11.212,1.7785
22778,20.357,5.9091,0.1,7.7431e-05,773.77,7.7289e-05,769.65,-2.5147e-05,-0.0081517,-2.6233e-05,-8.1645,1.7916
22779,20.357,5.5455,0.1,7.7343e-05,772.9,7.7235e-05,769.76,-2.5215e-05,-0.0081629,-2.6042e-05,-6.2228,1.7921
22780,20.266,5.6364,0.1,7.9372e-05,793.17,7.9247e-05,789.56,-2.5837e-05,-0.0062648,-2.6792e-05,-7.1834,1.7787
22781,20.357,5.3636,0.1,7.7108e-05,770.55,7.7053e-05,768.94,-2.5289e-05,-0.013782,-2.5712e-05,-3.192,1.7923
22782,20.266,5.4545,0.1,7.9117e-05,790.63,7.9047e-05,788.58,-2.5908e-05,-0.012883,-2.6447e-05,-4.06,1.7789
22783,20.357,5.1818,0.1,7.69e-05,768.47,7.6903e-05,768.54,-2.5363e-05,0.15267,-2.5387e-05,-0.022819,1.7925
22784,20.266,5.2727,0.1,7.8898e-05,788.43,7.8887e-05,788.13,-2.6008e-05,-0.017514,-2.6085e-05,-0.59324,1.7791
22785,20.357,5,0.1,7.671e-05,766.57,7.6773e-05,768.45,-2.4995e-05,3.8088,-2.5504e-05,-0.021767,1.7926
22786,20.266,5.0909,0.1,7.8697e-05,786.42,7.8751e-05,788.04,-2.5695e-05,3.2713,-2.6134e-05,-0.021336,1.7793
22787,20.357,4.8182,0.1,7.6532e-05,764.79,7.666e-05,768.62,-2.4607e-05,7.7363,-2.564e-05,-0.024084,1.7928
22788,20.266,4.9091,0.1,7.8509e-05,784.55,7.8633e-05,788.25,-2.528e-05,7.4863,-2.628e-05,-0.024085,1.7795
22789,20.357,4.6364,0.1,7.6365e-05,763.12,7.6559e-05,768.96,-2.4207e-05,11.847,-2.5787e-05,-0.02567,1.7929
22790,20.266,4.7273,0.1,7.8333e-05,782.79,7.8529e-05,788.69,-2.4846e-05,11.968,-2.6443e-05,-0.025958,1.7796
22791,20.357,4.4545,0.1,7.6208e-05,761.56,7.6468e-05,769.43,-2.3803e-05,16.034,-2.5941e-05,-0.026591,1.7931
22792,20.266,4.5455,0.1,7.8168e-05,781.14,7.8436e-05,789.29,-2.4402e-05,16.604,-2.6616e-05,-0.027062,1.7798
22793,20.357,4.2727,0.1,7.6063e-05,760.1,7.6385e-05,769.97,-2.3407e-05,20.172,-2.6096e-05,-0.026978,1.7932
22794,20.266,4.3636,0.1,7.8013e-05,779.59,7.8352e-05,789.99,-2.3959e-05,21.26,-2.6792e-05,-0.027546,1.7799
22795,20.357,4.0909,0.1,7.593e-05,758.78,7.6311e-05,770.54,-2.303e-05,24.127,-2.6245e-05,-0.026967,1.7933
22796,20.266,4.1818,0.1,7.787e-05,778.17,7.8276e-05,790.73,-2.353e-05,25.79,-2.6966e-05,-0.027558,1.78
22797,20.357,3.9091,0.1,7.5812e-05,757.6,7.6246e-05,771.08,-2.2684e-05,27.763,-2.6383e-05,-0.026695,1.7934
22798,20.266,4,0.1,7.7742e-05,776.88,7.8209e-05,791.45,-2.3129e-05,30.04,-2.7131e-05,-0.027252,1.7801
22799,20.357,3.7273,0.1,7.5711e-05,756.59,7.619e-05,771.58,-2.2382e-05,30.948,-2.6504e-05,-0.026289,1.7934
22800,20.266,3.8182,0.1,7.763e-05,775.76,7.815e-05,792.13,-2.2769e-05,33.859,-2.7279e-05,-0.026766,1.7802
22801,20.357,3.5455,0.1,7.563e-05,755.78,7.6145e-05,771.99,-2.2134e-05,33.562,-2.6604e-05,-0.025856,1.7935
22802,20.266,3.6364,0.1,7.7537e-05,774.84,7.8101e-05,792.71,-2.2463e-05,37.105,-2.7405e-05,-0.026224,1.7802
22803,20.357,3.3636,0.1,7.557e-05,755.18,7.6111e-05,772.3,-2.1949e-05,35.507,-2.6678e-05,-0.025483,1.7935
22804,20.266,3.4545,0.1,7.7465e-05,774.12,7.8063e-05,793.17,-2.2223e-05,39.657,-2.7505e-05,-0.025727,1.7803
22805,20.357,3.1818,0.1,7.5534e-05,754.82,7.6091e-05,772.49,-2.1836e-05,36.705,-2.6724e-05,-0.025233,1.7935
22806,20.266,3.2727,0.1,7.7416e-05,773.63,7.8037e-05,793.49,-2.2058e-05,41.415,-2.7573e-05,-0.02535,1.7803
22807,20.357,3,0.1,7.5522e-05,754.69,7.6084e-05,772.55,-2.1797e-05,37.109,-2.674e-05,-0.025146,1.7935
22808,20.266,3.0909,0.1,7.7391e-05,773.38,7.8024e-05,793.65,-2.1974e-05,42.312,-2.7608e-05,-0.02515,1.7803
22809,20.357,2.8182,0.1,7.5534e-05,754.82,7.6091e-05,772.49,-2.1836e-05,36.705,-2.6724e-05,-0.025233,1.7935
22810,20.266,2.9091,0.1,7.7391e-05,773.38,7.8024e-05,793.65,-2.1974e-05,42.312,-2.7608e-05,-0.02515,1.7803
22811,20.357,2.6364,0.1,7.557e-05,755.18,7.6111e-05,772.3,-2.1949e-05,35.507,-2.6678e-05,-0.025482,1.7935
22812,20.266,2.7273,0.1,7.7416e-05,773.63,7.8037e-05,793.49,-2.2058e-05,41.415,-2.7573e-05,-0.025351,1.7803
22813,20.357,2.4545,0.1,7.563e-05,755.78,7.6145e-05,771.99,-2.2134e-05,33.562,-2.6604e-05,-0.025855,1.7935
22814,20.266,2.5455,0.1,7.7465e-05,774.12,7.8063e-05,793.17,-2.2223e-05,39.657,-2.7505e-05,-0.025726,1.7803
22815,20.357,2.2727,0.1,7.5711e-05,756.59,7.619e-05,771.58,-2.2382e-05,30.948,-2.6504e-05,-0.026289,1.7934
22816,20.266,2.3636,0.1,7.7537e-05,774.84,7.8101e-05,792.71,-2.2463e-05,37.105,-2.7405e-05,-0.026224,1.7802
22817,20.357,2.0909,0.1,7.5812e-05,757.6,7.6246e-05,771.08,-2.2684e-05,27.763,-2.6383e-05,-0.026695,1.7934
22818,20.266,2.1818,0.1,7.763e-05,775.76,7.815e-05,792.13,-2.2769e-05,33.859,-2.7279e-05,-0.026766,1.7802
22819,20.357,1.9091,0.1,7.593e-05,758.78,7.6311e-05,770.54,-2.303e-05,24.127,-2.6245e-05,-0.026967,1.7933
22820,20.266,2,0.1,7.7742e-05,776.88,7.8209e-05,791.45,-2.3129e-05,30.04,-2.7131e-05,-0.027253,1.7801
22821,20.357,1.7273,0.1,7.6063e-05,760.1,7.6385e-05,769.97,-2.3407e-05,20.172,-2.6096e-05,-0.026978,1.7932
22822,20.266,1.8182,0.1,7.787e-05,778.17,7.8276e-05,790.73,-2.353e-05,25.79,-2.6966e-05,-0.027558,1.78
22823,20.357,1.5455,0.1,7.6208e-05,761.56,7.6468e-05,769.43,-2.3803e-05,16.034,-2.5941e-05,-0.026592,1.7931
22824,20.266,1.6364,0.1,7.8013e-05,779.59,7.8352e-05,789.99,-2.3959e-05,21.26,-2.6792e-05,-0.027545,1.7799
22825,20.357,1.3636,0.1,7.6365e-05,763.12,7.6559e-05,768.96,-2.4207e-05,11.847,-2.5787e-05,-0.02567,1.7929
22826,20.266,1.4545,0.1,7.8168e-05,781.14,7.8436e-05,789.29,-2.4402e-05,16.604,-2.6616e-05,-0.027062,1.7798
22827,20.357,1.1818,0.1,7.6532e-05,764.79,7.666e-05,768.62,-2.4607e-05,7.7364,-2.564e-05,-0.024084,1.7928
22828,20.266,1.2727,0.1,7.8333e-05,782.79,7.8529e-05,788.69,-2.4846e-05,11.968,-2.6443e-05,-0.025958,1.7796
22829,20.357,1,0.1,7.671e-05,766.57,7.6773e-05,768.45,-2.4995e-05,3.8088,-2.5504e-05,-0.021769,1.7926
22830,20.266,1.0909,0.1,7.8509e-05,784.55,7.8633e-05,788.25,-2.528e-05,7.4864,-2.628e-05,-0.024087,1.7795
22831,20.357,0.81818,0.1,7.69e-05,768.47,7.6903e-05,768.54,-2.5363e-05,0.15274,-2.5387e-05,-0.022821,1.7925
22832,20.266,0.90909,0.1,7.8697e-05,786.42,7.8751e-05,788.04,-2.5695e-05,3.2713,-2.6134e-05,-0.021338,1.7793
22833,20.357,0.63636,0.1,7.7108e-05,770.55,7.7053e-05,768.94,-2.5289e-05,-0.013783,-2.5712e-05,-3.1919,1.7923
22834,20.266,0.72727,0.1,7.8898e-05,788.43,7.8887e-05,788.13,-2.6008e-05,-0.017514,-2.6085e-05,-0.59318,1.7791
22835,20.357,0.45455,0.1,7.7343e-05,772.9,7.7235e-05,769.76,-2.5215e-05,-0.0081623,-2.6042e-05,-6.2228,1.7921
22836,20.266,0.54545,0.1,7.9117e-05,790.63,7.9047e-05,788.58,-2.5908e-05,-0.012883,-2.6447e-05,-4.0599,1.7789
22837,20.357,0.27273,0.1,7.7706e-05,776.52,7.7539e-05,771.69,-2.5167e-05,-0.00061711,-2.6442e-05,-9.5766,1.7918
22838,20.266,0.36364,0.1,7.9372e-05,793.17,7.9247e-05,789.56,-2.5837e-05,-0.0062638,-2.6792e-05,-7.1834,1.7787
22839,20.266,0.18182,0.1,7.9854e-05,797.99,7.9658e-05,792.33,-2.5794e-05,0.0017713,-2.7287e-05,-11.212,1.7785
22840,20.357,0.090909,0.1,7.7431e-05,773.77,7.7289e-05,769.65,-2.5147e-05,-0.0081504,-2.6233e-05,-8.1645,1.7916
22841,20.174,5.7273,0.1,8.15e-05,814.44,8.1349e-05,810.06,-2.6464e-05,-0.0017113,-2.762e-05,-8.6889,1.7654
22842,20.083,5.8182,0.1,8.3615e-05,835.57,8.3431e-05,830.27,-2.707e-05,0.0022066,-2.847e-05,-10.511,1.752
22843,20.174,5.9091,0.1,8.1248e-05,811.92,8.1115e-05,808.05,-2.6432e-05,-0.010343,-2.745e-05,-7.6596,1.7651
22844,20.174,5.5455,0.1,8.114e-05,810.84,8.1054e-05,808.33,-2.653e-05,-0.010688,-2.7191e-05,-4.9759,1.7656
22845,20.083,5.6364,0.1,8.3146e-05,830.89,8.3038e-05,827.74,-2.7129e-05,-0.0084793,-2.796e-05,-6.2549,1.7523
22846,20.174,5.3636,0.1,8.0901e-05,808.45,8.0877e-05,807.73,-2.6628e-05,-0.016288,-2.6815e-05,-1.4232,1.7658
22847,20.083,5.4545,0.1,8.2895e-05,828.37,8.2848e-05,827.01,-2.7223e-05,-0.014693,-2.758e-05,-2.6968,1.7525
22848,20.174,5.1818,0.1,8.0688e-05,806.33,8.0731e-05,807.6,-2.6412e-05,2.5648,-2.6756e-05,-0.020633,1.766
22849,20.083,5.2727,0.1,8.2676e-05,826.19,8.2699e-05,826.86,-2.7169e-05,1.3558,-2.7352e-05,-0.021359,1.7527
22850,20.174,5,0.1,8.0491e-05,804.36,8.0607e-05,807.81,-2.5977e-05,6.9798,-2.6909e-05,-0.023783,1.7662
22851,20.083,5.0909,0.1,8.2475e-05,824.18,8.2574e-05,827.12,-2.6719e-05,5.9336,-2.7512e-05,-0.024144,1.7529
22852,20.174,4.8182,0.1,8.0307e-05,802.51,8.0499e-05,808.31,-2.5516e-05,11.745,-2.7083e-05,-0.02598,1.7664
22853,20.083,4.9091,0.1,8.2287e-05,822.3,8.2468e-05,827.72,-2.6235e-05,10.97,-2.7698e-05,-0.026616,1.7531
22854,20.174,4.6364,0.1,8.0133e-05,800.77,8.0404e-05,809,-2.5039e-05,16.747,-2.7271e-05,-0.027332,1.7665
22855,20.083,4.7273,0.1,8.211e-05,820.53,8.2375e-05,828.57,-2.5725e-05,16.351,-2.7905e-05,-0.028198,1.7532
22856,20.174,4.4545,0.1,7.997e-05,799.14,8.0318e-05,809.83,-2.4556e-05,21.849,-2.7467e-05,-0.027978,1.7666
22857,20.083,4.5455,0.1,8.1944e-05,818.87,8.2294e-05,829.6,-2.52e-05,21.933,-2.8123e-05,-0.028993,1.7534
22858,20.174,4.2727,0.1,7.9818e-05,797.63,8.0241e-05,810.73,-2.408e-05,26.894,-2.7663e-05,-0.028077,1.7667
22859,20.083,4.3636,0.1,8.1789e-05,817.32,8.2222e-05,830.73,-2.4675e-05,27.549,-2.8346e-05,-0.029157,1.7535
22860,20.174,4.0909,0.1,7.9681e-05,796.26,8.0172e-05,811.63,-2.3628e-05,31.716,-2.7852e-05,-0.027788,1.7668
22861,20.083,4.1818,0.1,8.1647e-05,815.9,8.2157e-05,831.89,-2.4167e-05,33.015,-2.8565e-05,-0.028858,1.7536
22862,20.174,3.9091,0.1,7.9559e-05,795.04,8.0112e-05,812.48,-2.3213e-05,36.146,-2.8027e-05,-0.027263,1.7669
22863,20.083,4,0.1,8.1519e-05,814.63,8.21e-05,833.02,-2.3691e-05,38.144,-2.8771e-05,-0.028261,1.7537
22864,20.174,3.7273,0.1,7.9456e-05,794.01,8.006e-05,813.25,-2.285e-05,40.024,-2.818e-05,-0.026638,1.767
22865,20.083,3.8182,0.1,8.1409e-05,813.53,8.2051e-05,834.04,-2.3264e-05,42.751,-2.8957e-05,-0.027522,1.7538
22866,20.174,3.5455,0.1,7.9372e-05,793.18,8.0019e-05,813.88,-2.2552e-05,43.206,-2.8306e-05,-0.026028,1.767
22867,20.083,3.6364,0.1,8.1318e-05,812.62,8.201e-05,834.93,-2.2901e-05,46.666,-2.9115e-05,-0.026768,1.7538
22868,20.174,3.3636,0.1,7.9312e-05,792.57,7.9988e-05,814.36,-2.2331e-05,45.571,-2.84e-05,-0.025527,1.7671
22869,20.083,3.4545,0.1,8.1248e-05,811.92,8.1979e-05,835.63,-2.2616e-05,49.741,-2.924e-05,-0.02611,1.7539
22870,20.174,3.1818,0.1,7.9275e-05,792.2,7.9969e-05,814.65,-2.2195e-05,47.027,-2.8458e-05,-0.0252,1.7671
22871,20.083,3.2727,0.1,8.12e-05,811.44,8.1957e-05,836.11,-2.242e-05,51.86,-2.9326e-05,-0.025628,1.7539
22872,20.174,3,0.1,7.9262e-05,792.07,7.9963e-05,814.75,-2.2149e-05,47.519,-2.8477e-05,-0.025087,1.7671
22873,20.083,3.0909,0.1,8.1176e-05,811.2,8.1946e-05,836.36,-2.232e-05,52.941,-2.937e-05,-0.025373,1.7539
22874,20.174,2.8182,0.1,7.9275e-05,792.2,7.9969e-05,814.65,-2.2195e-05,47.027,-2.8458e-05,-0.0252,1.7671
22875,20.083,2.9091,0.1,8.1176e-05,811.2,8.1946e-05,836.36,-2.232e-05,52.941,-2.937e-05,-0.025373,1.7539
22876,20.174,2.6364,0.1,7.9312e-05,792.57,7.9988e-05,814.36,-2.2331e-05,45.571,-2.84e-05,-0.025527,1.7671
22877,20.083,2.7273,0.1,8.12e-05,811.44,8.1957e-05,836.11,-2.242e-05,51.86,-2.9326e-05,-0.025627,1.7539
22878,20.174,2.4545,0.1,7.9372e-05,793.18,8.0019e-05,813.88,-2.2552e-05,43.206,-2.8306e-05,-0.026029,1.767
22879,20.083,2.5455,0.1,8.1248e-05,811.92,8.1979e-05,835.63,-2.2616e-05,49.741,-2.924e-05,-0.026111,1.7539
22880,20.174,2.2727,0.1,7.9456e-05,794.01,8.006e-05,813.25,-2.285e-05,40.024,-2.818e-05,-0.026637,1.767
22881,20.083,2.3636,0.1,8.1318e-05,812.62,8.201e-05,834.93,-2.2901e-05,46.666,-2.9115e-05,-0.026768,1.7538
22882,20.174,2.0909,0.1,7.9559e-05,795.04,8.0112e-05,812.48,-2.3213e-05,36.146,-2.8027e-05,-0.027263,1.7669
22883,20.083,2.1818,0.1,8.1409e-05,813.53,8.2051e-05,834.04,-2.3264e-05,42.751,-2.8957e-05,-0.027521,1.7538
22884,20.174,1.9091,0.1,7.9681e-05,796.26,8.0172e-05,811.63,-2.3628e-05,31.716,-2.7852e-05,-0.027788,1.7668
22885,20.083,2,0.1,8.1519e-05,814.63,8.21e-05,833.02,-2.3691e-05,38.144,-2.8771e-05,-0.028262,1.7537
22886,20.174,1.7273,0.1,7.9818e-05,797.63,8.0241e-05,810.73,-2.408e-05,26.894,-2.7663e-05,-0.028077,1.7667
22887,20.083,1.8182,0.1,8.1647e-05,815.9,8.2157e-05,831.89,-2.4167e-05,33.015,-2.8565e-05,-0.028857,1.7536
22888,20.174,1.5455,0.1,7.997e-05,799.14,8.0318e-05,809.83,-2.4556e-05,21.849,-2.7467e-05,-0.027978,1.7666
22889,20.083,1.6364,0.1,8.1789e-05,817.32,8.2222e-05,830.73,-2.4675e-05,27.549,-2.8346e-05,-0.029156,1.7535
22890,20.174,1.3636,0.1,8.0133e-05,800.77,8.0404e-05,809,-2.5039e-05,16.747,-2.7271e-05,-0.027332,1.7665
22891,20.083,1.4545,0.1,8.1944e-05,818.87,8.2294e-05,829.6,-2.52e-05,21.933,-2.8123e-05,-0.028994,1.7534
22892,20.174,1.1818,0.1,8.0307e-05,802.51,8.0499e-05,808.31,-2.5516e-05,11.745,-2.7083e-05,-0.025981,1.7664
22893,20.083,1.2727,0.1,8.211e-05,820.53,8.2375e-05,828.57,-2.5725e-05,16.351,-2.7905e-05,-0.028198,1.7532
22894,20.174,1,0.1,8.0491e-05,804.36,8.0607e-05,807.81,-2.5977e-05,6.9799,-2.6909e-05,-0.023784,1.7662
22895,20.083,1.0909,0.1,8.2287e-05,822.3,8.2468e-05,827.72,-2.6235e-05,10.97,-2.7698e-05,-0.026616,1.7531
22896,20.174,0.81818,0.1,8.0688e-05,806.33,8.0731e-05,807.6,-2.6412e-05,2.5649,-2.6756e-05,-0.020633,1.766
22897,20.083,0.90909,0.1,8.2475e-05,824.18,8.2574e-05,827.12,-2.6719e-05,5.9337,-2.7512e-05,-0.024145,1.7529
22898,20.174,0.63636,0.1,8.0901e-05,808.45,8.0877e-05,807.73,-2.6628e-05,-0.016288,-2.6815e-05,-1.4231,1.7658
22899,20.083,0.72727,0.1,8.2676e-05,826.19,8.2699e-05,826.86,-2.7169e-05,1.3559,-2.7352e-05,-0.021359,1.7527
22900,20.174,0.45455,0.1,8.114e-05,810.84,8.1054e-05,808.33,-2.653e-05,-0.010686,-2.7191e-05,-4.9759,1.7656
22901,20.083,0.54545,0.1,8.2895e-05,828.37,8.2848e-05,827.01,-2.7223e-05,-0.014693,-2.758e-05,-2.6968,1.7525
22902,20.174,0.27273,0.1,8.15e-05,814.44,8.1349e-05,810.06,-2.6464e-05,-0.0017112,-2.762e-05,-8.6889,1.7654
22903,20.083,0.36364,0.1,8.3146e-05,830.89,8.3038e-05,827.74,-2.7129e-05,-0.0084781,-2.796e-05,-6.2549,1.7523
22904,20.083,0.18182,0.1,8.3615e-05,835.57,8.3431e-05,830.27,-2.707e-05,0.002207,-2.847e-05,-10.511,1.752
22905,20.174,0.090909,0.1,8.1248e-05,811.92,8.1115e-05,808.05,-2.6432e-05,-0.010342,-2.745e-05,-7.6596,1.7651
22906,19.992,5.7273,0.1,8.5242e-05,851.83,8.5104e-05,847.82,-2.7735e-05,-0.0020464,-2.8793e-05,-7.9539,1.7389
22907,19.901,5.8182,0.1,8.7308e-05,872.48,8.7135e-05,867.47,-2.8317e-05,0.0029261,-2.9641e-05,-9.945,1.7256
22908,19.992,5.9091,0.1,8.5002e-05,849.43,8.4876e-05,845.79,-2.7693e-05,-0.013214,-2.8653e-05,-7.2246,1.7387
22909,19.992,5.5455,0.1,8.4894e-05,848.36,8.4826e-05,846.38,-2.7821e-05,-0.012185,-2.8343e-05,-3.9327,1.7392
22910,19.901,5.6364,0.1,8.6863e-05,868.03,8.6767e-05,865.25,-2.8391e-05,-0.0094165,-2.9126e-05,-5.5292,1.7259
22911,19.992,5.3636,0.1,8.4663e-05,846.05,8.4665e-05,846.1,-2.7925e-05,0.14241,-2.795e-05,-0.042475,1.7394
22912,19.901,5.4545,0.1,8.6627e-05,865.67,8.6599e-05,864.87,-2.8509e-05,-0.012086,-2.8718e-05,-1.5805,1.7261
22913,19.992,5.1818,0.1,8.4457e-05,843.99,8.4537e-05,846.34,-2.7472e-05,4.7582,-2.8108e-05,-0.024204,1.7396
22914,19.901,5.2727,0.1,8.6422e-05,863.63,8.6473e-05,865.13,-2.8263e-05,3.0533,-2.8673e-05,-0.026513,1.7263
22915,19.992,5,0.1,8.4266e-05,842.07,8.443e-05,846.99,-2.6973e-05,9.9538,-2.8301e-05,-0.026883,1.7398
22916,19.901,5.0909,0.1,8.6234e-05,861.75,8.6373e-05,865.88,-2.7756e-05,8.3612,-2.8873e-05,-0.028217,1.7265
22917,19.992,4.8182,0.1,8.4086e-05,840.28,8.434e-05,847.96,-2.644e-05,15.602,-2.852e-05,-0.028757,1.74
22918,19.901,4.9091,0.1,8.6059e-05,860,8.6293e-05,867.03,-2.7204e-05,14.259,-2.9105e-05,-0.030193,1.7267
22919,19.992,4.6364,0.1,8.3917e-05,838.6,8.4263e-05,849.15,-2.5883e-05,21.56,-2.8756e-05,-0.029779,1.7401
22920,19.901,4.7273,0.1,8.5896e-05,858.36,8.6227e-05,868.46,-2.6616e-05,20.601,-2.9362e-05,-0.031367,1.7269
22921,19.992,4.4545,0.1,8.376e-05,837.02,8.4195e-05,850.49,-2.5317e-05,27.652,-2.9002e-05,-0.030085,1.7402
22922,19.901,4.5455,0.1,8.5742e-05,856.83,8.6172e-05,870.09,-2.601e-05,27.205,-2.9635e-05,-0.031766,1.727
22923,19.992,4.2727,0.1,8.3615e-05,835.57,8.4136e-05,851.89,-2.476e-05,33.685,-2.9247e-05,-0.029846,1.7404
22924,19.901,4.3636,0.1,8.5601e-05,855.42,8.6126e-05,871.83,-2.54e-05,33.865,-2.9912e-05,-0.03154,1.7271
22925,19.992,4.0909,0.1,8.3483e-05,834.26,8.4084e-05,853.27,-2.4228e-05,39.455,-2.9483e-05,-0.029236,1.7405
22926,19.901,4.1818,0.1,8.5473e-05,854.14,8.6087e-05,873.58,-2.4809e-05,40.356,-3.0184e-05,-0.030872,1.7272
22927,19.992,3.9091,0.1,8.3368e-05,833.1,8.4039e-05,854.57,-2.374e-05,44.758,-2.9701e-05,-0.028423,1.7405
22928,19.901,4,0.1,8.5359e-05,853,8.6053e-05,875.26,-2.4254e-05,46.449,-3.044e-05,-0.029942,1.7273
22929,19.992,3.7273,0.1,8.3271e-05,832.13,8.4e-05,855.72,-2.3314e-05,49.399,-2.9892e-05,-0.027554,1.7406
22930,19.901,3.8182,0.1,8.5261e-05,852.03,8.6025e-05,876.79,-2.3757e-05,51.924,-3.0671e-05,-0.028915,1.7274
22931,19.992,3.5455,0.1,8.3193e-05,831.36,8.397e-05,856.67,-2.2964e-05,53.207,-3.0049e-05,-0.026751,1.7407
22932,19.901,3.6364,0.1,8.5182e-05,851.23,8.6003e-05,878.09,-2.3335e-05,56.576,-3.0868e-05,-0.027931,1.7275
22933,19.992,3.3636,0.1,8.3137e-05,830.79,8.3948e-05,857.38,-2.2705e-05,56.036,-3.0166e-05,-0.026112,1.7407
22934,19.901,3.4545,0.1,8.5122e-05,850.63,8.5985e-05,879.13,-2.3003e-05,60.231,-3.1023e-05,-0.027099,1.7275
22935,19.992,3.1818,0.1,8.3103e-05,830.45,8.3934e-05,857.82,-2.2545e-05,57.778,-3.0238e-05,-0.025702,1.7407
22936,19.901,3.2727,0.1,8.5081e-05,850.22,8.5974e-05,879.84,-2.2775e-05,62.747,-3.113e-05,-0.026504,1.7275
22937,19.992,3,0.1,8.3091e-05,830.34,8.3929e-05,857.97,-2.2491e-05,58.366,-3.0262e-05,-0.02556,1.7407
22938,19.901,3.0909,0.1,8.5061e-05,850.02,8.5968e-05,880.21,-2.2659e-05,64.03,-3.1184e-05,-0.026193,1.7276
22939,19.992,2.8182,0.1,8.3103e-05,830.45,8.3934e-05,857.82,-2.2545e-05,57.778,-3.0238e-05,-0.025702,1.7407
22940,19.901,2.9091,0.1,8.5061e-05,850.02,8.5968e-05,880.21,-2.2659e-05,64.031,-3.1184e-05,-0.026193,1.7276
22941,19.992,2.6364,0.1,8.3137e-05,830.79,8.3948e-05,857.38,-2.2705e-05,56.036,-3.0166e-05,-0.026112,1.7407
22942,19.901,2.7273,0.1,8.5081e-05,850.22,8.5974e-05,879.84,-2.2775e-05,62.747,-3.113e-05,-0.026504,1.7275
22943,19.992,2.4545,0.1,8.3193e-05,831.36,8.397e-05,856.67,-2.2964e-05,53.207,-3.0049e-05,-0.026752,1.7407
22944,19.901,2.5455,0.1,8.5122e-05,850.63,8.5985e-05,879.13,-2.3003e-05,60.231,-3.1023e-05,-0.0271,1.7275
22945,19.992,2.2727,0.1,8.3271e-05,832.13,8.4e-05,855.72,-2.3314e-05,49.399,-2.9892e-05,-0.027554,1.7406
22946,19.901,2.3636,0.1,8.5182e-05,851.23,8.6003e-05,878.09,-2.3335e-05,56.576,-3.0868e-05,-0.027931,1.7275
22947,19.992,2.0909,0.1,8.3368e-05,833.1,8.4039e-05,854.57,-2.374e-05,44.758,-2.9701e-05,-0.028423,1.7405
22948,19.901,2.1818,0.1,8.5261e-05,852.03,8.6025e-05,876.79,-2.3757e-05,51.924,-3.0671e-05,-0.028914,1.7274
22949,19.992,1.9091,0.1,8.3483e-05,834.26,8.4084e-05,853.27,-2.4228e-05,39.455,-2.9483e-05,-0.029236,1.7405
22950,19.901,2,0.1,8.5359e-05,853,8.6053e-05,875.26,-2.4254e-05,46.449,-3.044e-05,-0.029942,1.7273
22951,19.992,1.7273,0.1,8.3615e-05,835.57,8.4136e-05,851.89,-2.476e-05,33.685,-2.9247e-05,-0.029846,1.7404
22952,19.901,1.8182,0.1,8.5473e-05,854.14,8.6087e-05,873.58,-2.4809e-05,40.356,-3.0184e-05,-0.030872,1.7272
22953,19.992,1.5455,0.1,8.376e-05,837.02,8.4195e-05,850.49,-2.5317e-05,27.652,-2.9002e-05,-0.030085,1.7402
22954,19.901,1.6364,0.1,8.5601e-05,855.42,8.6126e-05,871.83,-2.54e-05,33.865,-2.9912e-05,-0.03154,1.7271
22955,19.992,1.3636,0.1,8.3917e-05,838.6,8.4263e-05,849.15,-2.5883e-05,21.56,-2.8756e-05,-0.029779,1.7401
22956,19.901,1.4545,0.1,8.5742e-05,856.83,8.6172e-05,870.09,-2.601e-05,27.205,-2.9635e-05,-0.031765,1.727
22957,19.992,1.1818,0.1,8.4086e-05,840.28,8.434e-05,847.96,-2.644e-05,15.602,-2.852e-05,-0.028757,1.74
22958,19.901,1.2727,0.1,8.5896e-05,858.36,8.6227e-05,868.46,-2.6616e-05,20.601,-2.9362e-05,-0.031367,1.7269
22959,19.992,1,0.1,8.4266e-05,842.07,8.443e-05,846.99,-2.6973e-05,9.9539,-2.8301e-05,-0.026883,1.7398
22960,19.901,1.0909,0.1,8.6059e-05,860,8.6293e-05,867.03,-2.7204e-05,14.259,-2.9106e-05,-0.030193,1.7267
22961,19.992,0.81818,0.1,8.4457e-05,843.99,8.4537e-05,846.34,-2.7472e-05,4.7583,-2.8108e-05,-0.024205,1.7396
22962,19.901,0.90909,0.1,8.6234e-05,861.75,8.6373e-05,865.88,-2.7756e-05,8.3613,-2.8873e-05,-0.028218,1.7265
22963,19.992,0.63636,0.1,8.4663e-05,846.05,8.4665e-05,846.1,-2.7925e-05,0.14245,-2.795e-05,-0.042466,1.7394
22964,19.901,0.72727,0.1,8.6422e-05,863.63,8.6473e-05,865.13,-2.8263e-05,3.0534,-2.8673e-05,-0.026514,1.7263
22965,19.992,0.45455,0.1,8.4894e-05,848.36,8.4826e-05,846.38,-2.7821e-05,-0.012186,-2.8343e-05,-3.9327,1.7392
22966,19.901,0.54545,0.1,8.6627e-05,865.67,8.6599e-05,864.87,-2.8509e-05,-0.012088,-2.8718e-05,-1.5805,1.7261
22967,19.992,0.27273,0.1,8.5242e-05,851.83,8.5104e-05,847.82,-2.7735e-05,-0.002045,-2.8793e-05,-7.9539,1.7389
22968,19.901,0.36364,0.1,8.6863e-05,868.03,8.6767e-05,865.25,-2.8391e-05,-0.0094155,-2.9126e-05,-5.5292,1.7259
22969,19.901,0.18182,0.1,8.7308e-05,872.48,8.7135e-05,867.47,-2.8317e-05,0.0029277,-2.9641e-05,-9.945,1.7256
22970,19.992,0.090909,0.1,8.5002e-05,849.43,8.4876e-05,845.79,-2.7693e-05,-0.013213,-2.8653e-05,-7.2246,1.7387
22971,19.81,5.7273,0.1,8.8911e-05,888.5,8.8783e-05,884.77,-2.8973e-05,-0.0014384,-2.9958e-05,-7.403,1.7126
22972,19.719,5.8182,0.1,9.091e-05,908.47,9.0744e-05,903.67,-2.9526e-05,0.0038815,-3.0796e-05,-9.5407,1.6993
22973,19.81,5.9091,0.1,8.867e-05,886.09,8.8551e-05,882.62,-2.8921e-05,-0.016881,-2.9834e-05,-6.8745,1.7123
22974,19.81,5.5455,0.1,8.8589e-05,885.28,8.8535e-05,883.7,-2.908e-05,-0.011041,-2.9495e-05,-3.1332,1.7128
22975,19.719,5.6364,0.1,9.0501e-05,904.39,9.0414e-05,901.85,-2.9616e-05,-0.0083546,-3.0286e-05,-5.0451,1.6995
22976,19.81,5.3636,0.1,8.8379e-05,883.18,8.8403e-05,883.87,-2.9046e-05,1.4044,-2.9238e-05,-0.03328,1.7131
22977,19.719,5.4545,0.1,9.0295e-05,902.32,9.0282e-05,901.94,-2.9758e-05,0.015276,-2.9863e-05,-0.77518,1.6998
22978,19.81,5.1818,0.1,8.8194e-05,881.33,8.8305e-05,884.64,-2.8543e-05,6.689,-2.9437e-05,-0.029287,1.7133
22979,19.719,5.2727,0.1,9.012e-05,900.58,9.0194e-05,902.78,-2.9365e-05,4.4557,-2.9963e-05,-0.033834,1.7
22980,19.81,5,0.1,8.8023e-05,879.62,8.8232e-05,885.89,-2.7983e-05,12.697,-2.9677e-05,-0.031225,1.7134
22981,19.719,5.0909,0.1,8.9962e-05,899,9.0136e-05,904.19,-2.8806e-05,10.514,-3.021e-05,-0.033901,1.7002
22982,19.81,4.8182,0.1,8.7864e-05,878.04,8.8176e-05,887.5,-2.7377e-05,19.284,-2.9948e-05,-0.032614,1.7136
22983,19.719,4.9091,0.1,8.9817e-05,897.55,9.0099e-05,906.07,-2.8187e-05,17.321,-3.0496e-05,-0.03511,1.7004
22984,19.81,4.6364,0.1,8.7717e-05,876.56,8.8133e-05,889.38,-2.674e-05,26.269,-3.0241e-05,-0.033194,1.7138
22985,19.719,4.7273,0.1,8.9684e-05,896.23,9.0078e-05,908.3,-2.7522e-05,24.693,-3.0814e-05,-0.035702,1.7005
22986,19.81,4.4545,0.1,8.758e-05,875.2,8.81e-05,891.42,-2.609e-05,33.436,-3.0545e-05,-0.033071,1.7139
22987,19.719,4.5455,0.1,8.9563e-05,895.01,9.0069e-05,910.76,-2.6832e-05,32.405,-3.1149e-05,-0.035575,1.7007
22988,19.81,4.2727,0.1,8.7456e-05,873.96,8.8075e-05,893.51,-2.5447e-05,40.55,-3.0849e-05,-0.032421,1.714
22989,19.719,4.3636,0.1,8.9453e-05,893.92,9.0069e-05,913.32,-2.6136e-05,40.205,-3.1492e-05,-0.03486,1.7008
22990,19.81,4.0909,0.1,8.7346e-05,872.86,8.8055e-05,895.56,-2.4833e-05,47.361,-3.1141e-05,-0.031435,1.7141
22991,19.719,4.1818,0.1,8.9356e-05,892.95,9.0073e-05,915.88,-2.5458e-05,47.82,-3.1827e-05,-0.033745,1.7009
22992,19.81,3.9091,0.1,8.7251e-05,871.91,8.8039e-05,897.47,-2.427e-05,53.624,-3.1411e-05,-0.030293,1.7142
22993,19.719,4,0.1,8.9273e-05,892.12,9.0081e-05,918.32,-2.4823e-05,54.975,-3.2144e-05,-0.032425,1.701
22994,19.81,3.7273,0.1,8.7172e-05,871.12,8.8027e-05,899.16,-2.3777e-05,59.108,-3.1647e-05,-0.029152,1.7143
22995,19.719,3.8182,0.1,8.9205e-05,891.43,9.009e-05,920.53,-2.4253e-05,61.406,-3.2429e-05,-0.031075,1.7011
22996,19.81,3.5455,0.1,8.7111e-05,870.51,8.8018e-05,900.55,-2.3373e-05,63.605,-3.1842e-05,-0.028141,1.7143
22997,19.719,3.6364,0.1,8.915e-05,890.89,9.0099e-05,922.42,-2.3768e-05,66.871,-3.2672e-05,-0.029839,1.7012
22998,19.81,3.3636,0.1,8.7066e-05,870.06,8.8011e-05,901.59,-2.3073e-05,66.947,-3.1986e-05,-0.027356,1.7144
22999,19.719,3.4545,0.1,8.911e-05,890.49,9.0107e-05,923.92,-2.3388e-05,71.163,-3.2863e-05,-0.028828,1.7012
23000,19.81,3.1818,0.1,8.704e-05,869.8,8.8008e-05,902.23,-2.2888e-05,69.004,-3.2076e-05,-0.02686,1.7144
23001,19.719,3.2727,0.1,8.9084e-05,890.23,9.0112e-05,924.95,-2.3127e-05,74.118,-3.2995e-05,-0.028119,1.7012
23002,19.81,3,0.1,8.7031e-05,869.71,8.8006e-05,902.45,-2.2826e-05,69.698,-3.2106e-05,-0.02669,1.7144
23003,19.719,3.0909,0.1,8.9071e-05,890.1,9.0116e-05,925.48,-2.2993e-05,75.624,-3.3062e-05,-0.027752,1.7013
23004,19.81,2.8182,0.1,8.704e-05,869.8,8.8008e-05,902.23,-2.2888e-05,69.004,-3.2076e-05,-0.026859,1.7144
23005,19.719,2.9091,0.1,8.9071e-05,890.1,9.0116e-05,925.48,-2.2993e-05,75.624,-3.3062e-05,-0.027752,1.7013
23006,19.81,2.6364,0.1,8.7066e-05,870.06,8.8011e-05,901.59,-2.3073e-05,66.947,-3.1986e-05,-0.027356,1.7144
23007,19.719,2.7273,0.1,8.9084e-05,890.23,9.0112e-05,924.95,-2.3127e-05,74.118,-3.2995e-05,-0.028117,1.7012
23008,19.81,2.4545,0.1,8.7111e-05,870.51,8.8018e-05,900.55,-2.3373e-05,63.605,-3.1842e-05,-0.028141,1.7143
23009,19.719,2.5455,0.1,8.911e-05,890.49,9.0107e-05,923.92,-2.3388e-05,71.163,-3.2863e-05,-0.028828,1.7012
23010,19.81,2.2727,0.1,8.7172e-05,871.12,8.8027e-05,899.16,-2.3777e-05,59.108,-3.1647e-05,-0.029152,1.7143
23011,19.719,2.3636,0.1,8.915e-05,890.89,9.0099e-05,922.42,-2.3768e-05,66.871,-3.2672e-05,-0.029839,1.7012
23012,19.81,2.0909,0.1,8.7251e-05,871.91,8.8039e-05,897.47,-2.427e-05,53.624,-3.1411e-05,-0.030293,1.7142
23013,19.719,2.1818,0.1,8.9205e-05,891.43,9.009e-05,920.53,-2.4253e-05,61.406,-3.2429e-05,-0.031075,1.7011
23014,19.81,1.9091,0.1,8.7346e-05,872.86,8.8055e-05,895.56,-2.4833e-05,47.361,-3.1141e-05,-0.031435,1.7141
23015,19.719,2,0.1,8.9273e-05,892.12,9.0081e-05,918.32,-2.4823e-05,54.975,-3.2144e-05,-0.032426,1.701
23016,19.81,1.7273,0.1,8.7456e-05,873.96,8.8075e-05,893.51,-2.5447e-05,40.55,-3.0849e-05,-0.032421,1.714
23017,19.719,1.8182,0.1,8.9356e-05,892.95,9.0073e-05,915.88,-2.5458e-05,47.82,-3.1827e-05,-0.033745,1.7009
23018,19.81,1.5455,0.1,8.758e-05,875.2,8.81e-05,891.42,-2.609e-05,33.436,-3.0545e-05,-0.03307,1.7139
23019,19.719,1.6364,0.1,8.9453e-05,893.92,9.0069e-05,913.32,-2.6136e-05,40.205,-3.1492e-05,-0.03486,1.7008
23020,19.81,1.3636,0.1,8.7717e-05,876.56,8.8133e-05,889.38,-2.674e-05,26.269,-3.0241e-05,-0.033194,1.7138
23021,19.719,1.4545,0.1,8.9563e-05,895.01,9.0069e-05,910.76,-2.6832e-05,32.406,-3.1149e-05,-0.035575,1.7007
23022,19.81,1.1818,0.1,8.7864e-05,878.04,8.8176e-05,887.5,-2.7377e-05,19.284,-2.9948e-05,-0.032614,1.7136
23023,19.719,1.2727,0.1,8.9684e-05,896.23,9.0078e-05,908.3,-2.7522e-05,24.693,-3.0814e-05,-0.035702,1.7005
23024,19.81,1,0.1,8.8023e-05,879.62,8.8232e-05,885.89,-2.7983e-05,12.697,-2.9677e-05,-0.031226,1.7134
23025,19.719,1.0909,0.1,8.9817e-05,897.55,9.0099e-05,906.07,-2.8187e-05,17.321,-3.0496e-05,-0.03511,1.7004
23026,19.81,0.81818,0.1,8.8194e-05,881.33,8.8305e-05,884.64,-2.8543e-05,6.6891,-2.9437e-05,-0.029289,1.7133
23027,19.719,0.90909,0.1,8.9962e-05,899,9.0136e-05,904.19,-2.8806e-05,10.514,-3.021e-05,-0.033904,1.7002
23028,19.81,0.63636,0.1,8.8379e-05,883.18,8.8403e-05,883.87,-2.9046e-05,1.4044,-2.9238e-05,-0.033282,1.7131
23029,19.719,0.72727,0.1,9.012e-05,900.58,9.0194e-05,902.78,-2.9365e-05,4.4558,-2.9963e-05,-0.033836,1.7
23030,19.81,0.45455,0.1,8.8589e-05,885.28,8.8535e-05,883.7,-2.908e-05,-0.011042,-2.9495e-05,-3.1332,1.7128
23031,19.719,0.54545,0.1,9.0295e-05,902.32,9.0282e-05,901.94,-2.9758e-05,0.015277,-2.9863e-05,-0.77514,1.6998
23032,19.81,0.27273,0.1,8.8911e-05,888.5,8.8783e-05,884.77,-2.8973e-05,-0.0014372,-2.9958e-05,-7.403,1.7126
23033,19.719,0.36364,0.1,9.0501e-05,904.39,9.0414e-05,901.85,-2.9616e-05,-0.0083544,-3.0286e-05,-5.0451,1.6995
23034,19.719,0.18182,0.1,9.091e-05,908.47,9.0744e-05,903.67,-2.9526e-05,0.0038832,-3.0796e-05,-9.5407,1.6993
23035,19.81,0.090909,0.1,8.867e-05,886.09,8.8551e-05,882.62,-2.8921e-05,-0.016879,-2.9834e-05,-6.8745,1.7123
23036,19.628,5.7273,0.1,9.2482e-05,924.18,9.236e-05,920.63,-3.0168e-05,0.00029261,-3.1109e-05,-7.0715,1.6863
23037,19.537,5.8182,0.1,9.4389e-05,943.24,9.4227e-05,938.55,-3.0685e-05,0.0049775,-3.1927e-05,-9.3297,1.673
23038,19.628,5.9091,0.1,9.2224e-05,921.6,9.2109e-05,918.26,-3.0107e-05,-0.02138,-3.0986e-05,-6.626,1.686
23039,19.628,5.5455,0.1,9.22e-05,921.37,9.2155e-05,920.05,-3.0296e-05,-0.0044677,-3.0645e-05,-2.6238,1.6865
23040,19.537,5.6364,0.1,9.4032e-05,939.67,9.3949e-05,937.24,-3.0791e-05,-0.0045589,-3.1435e-05,-4.8457,1.6733
23041,19.628,5.3636,0.1,9.2029e-05,919.66,9.2068e-05,920.82,-3.0169e-05,2.3707,-3.0491e-05,-0.043625,1.6868
23042,19.537,5.4545,0.1,9.3874e-05,938.09,9.3869e-05,937.96,-3.0946e-05,0.14182,-3.1019e-05,-0.40404,1.6735
23043,19.628,5.1818,0.1,9.1882e-05,918.19,9.202e-05,922.3,-2.9624e-05,8.3121,-3.0735e-05,-0.036458,1.687
23044,19.537,5.2727,0.1,9.3748e-05,936.83,9.384e-05,939.55,-3.0473e-05,5.5144,-3.1213e-05,-0.044626,1.6737
23045,19.628,5,0.1,9.1751e-05,916.88,9.1999e-05,924.35,-2.9005e-05,15.168,-3.1029e-05,-0.037214,1.6872
23046,19.537,5.0909,0.1,9.3641e-05,935.76,9.3844e-05,941.85,-2.9866e-05,12.345,-3.1514e-05,-0.041877,1.6739
23047,19.628,4.8182,0.1,9.1633e-05,915.7,9.1998e-05,926.84,-2.8328e-05,22.756,-3.1362e-05,-0.03786,1.6873
23048,19.537,4.9091,0.1,9.3549e-05,934.84,9.3874e-05,944.72,-2.9183e-05,20.116,-3.1866e-05,-0.041835,1.6741
23049,19.628,4.6364,0.1,9.1527e-05,914.63,9.2012e-05,929.65,-2.7611e-05,30.852,-3.1722e-05,-0.03782,1.6875
23050,19.537,4.7273,0.1,9.347e-05,934.06,9.3923e-05,948.01,-2.8443e-05,28.597,-3.2254e-05,-0.041559,1.6743
23051,19.628,4.4545,0.1,9.1432e-05,913.69,9.2035e-05,932.64,-2.6875e-05,39.192,-3.2096e-05,-0.037133,1.6876
23052,19.537,4.5455,0.1,9.3404e-05,933.4,9.3985e-05,951.57,-2.7668e-05,37.514,-3.2666e-05,-0.040703,1.6745
23053,19.628,4.2727,0.1,9.1351e-05,912.87,9.2065e-05,935.67,-2.6145e-05,47.489,-3.247e-05,-0.03597,1.6878
23054,19.537,4.3636,0.1,9.335e-05,932.86,9.4054e-05,955.25,-2.6884e-05,46.561,-3.3086e-05,-0.039347,1.6746
23055,19.628,4.0909,0.1,9.1282e-05,912.19,9.2097e-05,938.62,-2.5447e-05,55.445,-3.283e-05,-0.034532,1.6879
23056,19.537,4.1818,0.1,9.3309e-05,932.45,9.4127e-05,958.9,-2.6119e-05,55.41,-3.3499e-05,-0.037677,1.6747
23057,19.628,3.9091,0.1,9.1225e-05,911.62,9.213e-05,941.37,-2.4805e-05,62.766,-3.3163e-05,-0.033011,1.6879
23058,19.537,4,0.1,9.3279e-05,932.15,9.4199e-05,962.36,-2.5401e-05,63.733,-3.3888e-05,-0.035892,1.6748
23059,19.628,3.7273,0.1,9.1182e-05,911.19,9.2161e-05,943.79,-2.4243e-05,69.176,-3.3454e-05,-0.031571,1.688
23060,19.537,3.8182,0.1,9.326e-05,931.96,9.4266e-05,965.5,-2.4756e-05,71.216,-3.4239e-05,-0.034177,1.6749
23061,19.628,3.5455,0.1,9.115e-05,910.87,9.2187e-05,945.79,-2.3783e-05,74.433,-3.3694e-05,-0.030341,1.6881
23062,19.537,3.6364,0.1,9.3249e-05,931.85,9.4325e-05,968.19,-2.4209e-05,77.573,-3.4537e-05,-0.032674,1.6749
23063,19.628,3.3636,0.1,9.1128e-05,910.66,9.2207e-05,947.28,-2.3442e-05,78.338,-3.3872e-05,-0.029409,1.6881
23064,19.537,3.4545,0.1,9.3244e-05,931.8,9.4373e-05,970.32,-2.3779e-05,82.564,-3.4772e-05,-0.031486,1.675
23065,19.628,3.1818,0.1,9.1116e-05,910.53,9.222e-05,948.2,-2.3231e-05,80.742,-3.3981e-05,-0.028831,1.6881
23066,19.537,3.2727,0.1,9.3243e-05,931.78,9.4407e-05,971.79,-2.3484e-05,86,-3.4934e-05,-0.030671,1.675
23067,19.628,3,0.1,9.1112e-05,910.49,9.2224e-05,948.51,-2.3161e-05,81.553,-3.4018e-05,-0.028635,1.6881
23068,19.537,3.0909,0.1,9.3243e-05,931.78,9.4424e-05,972.54,-2.3334e-05,87.75,-3.5017e-05,-0.030257,1.675
23069,19.628,2.8182,0.1,9.1116e-05,910.53,9.222e-05,948.2,-2.3231e-05,80.742,-3.3981e-05,-0.02883,1.6881
23070,19.537,2.9091,0.1,9.3243e-05,931.78,9.4424e-05,972.54,-2.3334e-05,87.75,-3.5017e-05,-0.030257,1.675
23071,19.628,2.6364,0.1,9.1128e-05,910.66,9.2207e-05,947.28,-2.3442e-05,78.338,-3.3872e-05,-0.029408,1.6881
23072,19.537,2.7273,0.1,9.3243e-05,931.78,9.4407e-05,971.79,-2.3484e-05,86,-3.4934e-05,-0.030669,1.675
23073,19.628,2.4545,0.1,9.115e-05,910.87,9.2187e-05,945.79,-2.3783e-05,74.433,-3.3694e-05,-0.030341,1.6881
23074,19.537,2.5455,0.1,9.3244e-05,931.8,9.4373e-05,970.32,-2.3779e-05,82.564,-3.4772e-05,-0.031486,1.675
23075,19.628,2.2727,0.1,9.1182e-05,911.19,9.2161e-05,943.79,-2.4243e-05,69.176,-3.3454e-05,-0.031572,1.688
23076,19.537,2.3636,0.1,9.3249e-05,931.85,9.4325e-05,968.19,-2.4209e-05,77.573,-3.4537e-05,-0.032673,1.6749
23077,19.628,2.0909,0.1,9.1225e-05,911.62,9.213e-05,941.37,-2.4805e-05,62.766,-3.3163e-05,-0.033011,1.6879
23078,19.537,2.1818,0.1,9.326e-05,931.96,9.4266e-05,965.5,-2.4756e-05,71.216,-3.4239e-05,-0.034176,1.6749
23079,19.628,1.9091,0.1,9.1282e-05,912.19,9.2097e-05,938.62,-2.5447e-05,55.445,-3.283e-05,-0.034532,1.6879
23080,19.537,2,0.1,9.3279e-05,932.15,9.4199e-05,962.36,-2.5401e-05,63.733,-3.3888e-05,-0.035892,1.6748
23081,19.628,1.7273,0.1,9.1351e-05,912.88,9.2065e-05,935.67,-2.6145e-05,47.489,-3.247e-05,-0.035969,1.6878
23082,19.537,1.8182,0.1,9.3309e-05,932.45,9.4127e-05,958.9,-2.6119e-05,55.41,-3.3499e-05,-0.037676,1.6747
23083,19.628,1.5455,0.1,9.1432e-05,913.69,9.2035e-05,932.64,-2.6875e-05,39.192,-3.2096e-05,-0.037132,1.6876
23084,19.537,1.6364,0.1,9.335e-05,932.86,9.4054e-05,955.25,-2.6884e-05,46.561,-3.3086e-05,-0.039347,1.6746
23085,19.628,1.3636,0.1,9.1527e-05,914.63,9.2012e-05,929.65,-2.7611e-05,30.852,-3.1722e-05,-0.037819,1.6875
23086,19.537,1.4545,0.1,9.3404e-05,933.4,9.3985e-05,951.57,-2.7668e-05,37.514,-3.2666e-05,-0.040703,1.6745
23087,19.628,1.1818,0.1,9.1633e-05,915.7,9.1998e-05,926.84,-2.8328e-05,22.756,-3.1362e-05,-0.03786,1.6873
23088,19.537,1.2727,0.1,9.347e-05,934.06,9.3923e-05,948.01,-2.8443e-05,28.597,-3.2254e-05,-0.041558,1.6743
23089,19.628,1,0.1,9.1751e-05,916.88,9.1999e-05,924.35,-2.9005e-05,15.168,-3.1029e-05,-0.037215,1.6872
23090,19.537,1.0909,0.1,9.3549e-05,934.84,9.3874e-05,944.72,-2.9183e-05,20.116,-3.1866e-05,-0.041835,1.6741
23091,19.628,0.81818,0.1,9.1882e-05,918.19,9.202e-05,922.3,-2.9624e-05,8.3122,-3.0735e-05,-0.03646,1.687
23092,19.537,0.90909,0.1,9.3641e-05,935.76,9.3844e-05,941.85,-2.9866e-05,12.345,-3.1514e-05,-0.04188,1.6739
23093,19.628,0.63636,0.1,9.2029e-05,919.66,9.2068e-05,920.82,-3.0169e-05,2.3708,-3.0491e-05,-0.043626,1.6868
23094,19.537,0.72727,0.1,9.3748e-05,936.83,9.384e-05,939.55,-3.0473e-05,5.5145,-3.1213e-05,-0.044627,1.6737
23095,19.628,0.45455,0.1,9.22e-05,921.37,9.2155e-05,920.05,-3.0296e-05,-0.0044675,-3.0645e-05,-2.6238,1.6865
23096,19.537,0.54545,0.1,9.3874e-05,938.09,9.3869e-05,937.96,-3.0946e-05,0.14183,-3.1019e-05,-0.40402,1.6735
23097,19.628,0.27273,0.1,9.2482e-05,924.18,9.236e-05,920.63,-3.0168e-05,0.0002934,-3.1109e-05,-7.0715,1.6863
23098,19.537,0.36364,0.1,9.4032e-05,939.67,9.3949e-05,937.24,-3.0791e-05,-0.0045591,-3.1435e-05,-4.8457,1.6733
23099,19.537,0.18182,0.1,9.4389e-05,943.24,9.4227e-05,938.55,-3.0685e-05,0.0049793,-3.1927e-05,-9.3297,1.673
23100,19.628,0.090909,0.1,9.2224e-05,921.6,9.2109e-05,918.26,-3.0107e-05,-0.021381,-3.0986e-05,-6.626,1.686
23101,19.446,5.7273,0.1,9.5923e-05,958.56,9.5802e-05,955.05,-3.1307e-05,0.0032051,-3.2239e-05,-6.9981,1.66
23102,19.355,5.8182,0.1,9.7708e-05,976.41,9.7546e-05,971.7,-3.1779e-05,0.0060789,-3.3024e-05,-9.346,1.6468
23103,19.446,5.9091,0.1,9.5628e-05,955.62,9.5515e-05,952.34,-3.1237e-05,-0.026644,-3.2098e-05,-6.4978,1.6597
23104,19.446,5.5455,0.1,9.5699e-05,956.33,9.5657e-05,955.11,-3.1458e-05,0.0097013,-3.1786e-05,-2.4546,1.6603
23105,19.355,5.6364,0.1,9.7421e-05,973.54,9.7335e-05,971.04,-3.1902e-05,0.0023063,-3.2565e-05,-4.9776,1.6471
23106,19.446,5.3636,0.1,9.5587e-05,955.21,9.5636e-05,956.66,-3.1292e-05,2.9774,-3.1696e-05,-0.061528,1.6605
23107,19.355,5.4545,0.1,9.7332e-05,972.65,9.7329e-05,972.57,-3.2074e-05,0.28386,-3.217e-05,-0.43649,1.6473
23108,19.446,5.1818,0.1,9.5501e-05,954.35,9.5659e-05,959.08,-3.0711e-05,9.5773,-3.1992e-05,-0.046819,1.6607
23109,19.355,5.2727,0.1,9.7279e-05,972.12,9.7382e-05,975.17,-3.1583e-05,6.1771,-3.2413e-05,-0.061316,1.6475
23110,19.446,5,0.1,9.5433e-05,953.67,9.5715e-05,962.19,-3.0039e-05,17.322,-3.2351e-05,-0.045529,1.6609
23111,19.355,5.0909,0.1,9.725e-05,971.83,9.7476e-05,978.63,-3.0934e-05,13.804,-3.2778e-05,-0.053265,1.6478
23112,19.446,4.8182,0.1,9.5381e-05,953.15,9.5796e-05,965.86,-2.9294e-05,25.982,-3.2758e-05,-0.044984,1.6611
23113,19.355,4.9091,0.1,9.7239e-05,971.71,9.7602e-05,982.79,-3.0191e-05,22.598,-3.3206e-05,-0.051083,1.6479
23114,19.446,4.6364,0.1,9.5343e-05,952.77,9.5893e-05,969.9,-2.8497e-05,35.281,-3.3198e-05,-0.044035,1.6613
23115,19.355,4.7273,0.1,9.7244e-05,971.77,9.7752e-05,987.48,-2.9378e-05,32.275,-3.368e-05,-0.049449,1.6481
23116,19.446,4.4545,0.1,9.5318e-05,952.52,9.6002e-05,974.16,-2.7675e-05,44.901,-3.3656e-05,-0.042575,1.6614
23117,19.355,4.5455,0.1,9.7264e-05,971.97,9.7917e-05,992.5,-2.852e-05,42.505,-3.4184e-05,-0.047538,1.6483
23118,19.446,4.2727,0.1,9.5306e-05,952.4,9.6115e-05,978.45,-2.6857e-05,54.496,-3.4115e-05,-0.040747,1.6615
23119,19.355,4.3636,0.1,9.7298e-05,972.31,9.8089e-05,997.67,-2.7649e-05,52.916,-3.4698e-05,-0.045313,1.6484
23120,19.446,4.0909,0.1,9.5304e-05,952.39,9.6227e-05,982.62,-2.6072e-05,63.709,-3.4557e-05,-0.038754,1.6616
23121,19.355,4.1818,0.1,9.7344e-05,972.77,9.8263e-05,1002.8,-2.6796e-05,63.12,-3.5203e-05,-0.042927,1.6485
23122,19.446,3.9091,0.1,9.5312e-05,952.47,9.6334e-05,986.49,-2.5351e-05,72.192,-3.4964e-05,-0.036791,1.6617
23123,19.355,4,0.1,9.7398e-05,973.31,9.843e-05,1007.6,-2.5995e-05,72.724,-3.568e-05,-0.040579,1.6486
23124,19.446,3.7273,0.1,9.5327e-05,952.61,9.643e-05,989.9,-2.4721e-05,79.62,-3.5322e-05,-0.035025,1.6618
23125,19.355,3.8182,0.1,9.7456e-05,973.89,9.8584e-05,1012,-2.5276e-05,81.359,-3.611e-05,-0.038451,1.6487
23126,19.446,3.5455,0.1,9.5343e-05,952.78,9.6511e-05,992.72,-2.4204e-05,85.71,-3.5616e-05,-0.033574,1.6619
23127,19.355,3.6364,0.1,9.7514e-05,974.46,9.8718e-05,1015.8,-2.4667e-05,88.692,-3.6476e-05,-0.036676,1.6488
23128,19.446,3.3636,0.1,9.5359e-05,952.93,9.6572e-05,994.82,-2.3821e-05,90.23,-3.5835e-05,-0.03251,1.6619
23129,19.355,3.4545,0.1,9.7564e-05,974.97,9.8826e-05,1018.7,-2.4189e-05,94.445,-3.6764e-05,-0.035331,1.6488
23130,19.446,3.1818,0.1,9.537e-05,953.04,9.661e-05,996.12,-2.3586e-05,93.012,-3.5969e-05,-0.031864,1.6619
23131,19.355,3.2727,0.1,9.7601e-05,975.34,9.8901e-05,1020.8,-2.3861e-05,98.401,-3.6962e-05,-0.03444,1.6488
23132,19.446,3,0.1,9.5374e-05,953.08,9.6623e-05,996.56,-2.3507e-05,93.951,-3.6015e-05,-0.031648,1.6619
23133,19.355,3.0909,0.1,9.7621e-05,975.54,9.894e-05,1021.8,-2.3694e-05,100.42,-3.7064e-05,-0.033999,1.6489
23134,19.446,2.8182,0.1,9.537e-05,953.04,9.661e-05,996.12,-2.3586e-05,93.012,-3.5969e-05,-0.031864,1.6619
23135,19.355,2.9091,0.1,9.7621e-05,975.54,9.894e-05,1021.8,-2.3694e-05,100.42,-3.7064e-05,-0.033999,1.6489
23136,19.446,2.6364,0.1,9.5359e-05,952.93,9.6572e-05,994.82,-2.3821e-05,90.23,-3.5835e-05,-0.03251,1.6619
23137,19.355,2.7273,0.1,9.7601e-05,975.34,9.8901e-05,1020.8,-2.3861e-05,98.401,-3.6962e-05,-0.03444,1.6488
23138,19.446,2.4545,0.1,9.5343e-05,952.78,9.6511e-05,992.72,-2.4204e-05,85.71,-3.5616e-05,-0.033574,1.6619
23139,19.355,2.5455,0.1,9.7564e-05,974.97,9.8826e-05,1018.7,-2.4189e-05,94.445,-3.6764e-05,-0.035331,1.6488
23140,19.446,2.2727,0.1,9.5327e-05,952.61,9.643e-05,989.9,-2.4721e-05,79.62,-3.5322e-05,-0.035024,1.6618
23141,19.355,2.3636,0.1,9.7514e-05,974.46,9.8718e-05,1015.8,-2.4667e-05,88.692,-3.6476e-05,-0.036676,1.6488
23142,19.446,2.0909,0.1,9.5312e-05,952.47,9.6334e-05,986.49,-2.5351e-05,72.192,-3.4964e-05,-0.036791,1.6617
23143,19.355,2.1818,0.1,9.7456e-05,973.89,9.8584e-05,1012,-2.5276e-05,81.359,-3.611e-05,-0.038451,1.6487
23144,19.446,1.9091,0.1,9.5304e-05,952.39,9.6227e-05,982.62,-2.6072e-05,63.709,-3.4557e-05,-0.038754,1.6616
23145,19.355,2,0.1,9.7398e-05,973.31,9.843e-05,1007.6,-2.5995e-05,72.724,-3.568e-05,-0.040579,1.6486
23146,19.446,1.7273,0.1,9.5306e-05,952.4,9.6115e-05,978.45,-2.6857e-05,54.496,-3.4115e-05,-0.040748,1.6615
23147,19.355,1.8182,0.1,9.7344e-05,972.77,9.8263e-05,1002.8,-2.6796e-05,63.12,-3.5203e-05,-0.042928,1.6485
23148,19.446,1.5455,0.1,9.5318e-05,952.52,9.6002e-05,974.16,-2.7675e-05,44.901,-3.3656e-05,-0.042575,1.6614
23149,19.355,1.6364,0.1,9.7298e-05,972.31,9.8089e-05,997.67,-2.7649e-05,52.917,-3.4698e-05,-0.045314,1.6484
23150,19.446,1.3636,0.1,9.5343e-05,952.77,9.5893e-05,969.9,-2.8497e-05,35.281,-3.3198e-05,-0.044035,1.6613
23151,19.355,1.4545,0.1,9.7264e-05,971.97,9.7917e-05,992.5,-2.852e-05,42.505,-3.4184e-05,-0.047538,1.6483
23152,19.446,1.1818,0.1,9.5381e-05,953.15,9.5796e-05,965.86,-2.9294e-05,25.982,-3.2758e-05,-0.044984,1.6611
23153,19.355,1.2727,0.1,9.7244e-05,971.77,9.7752e-05,987.48,-2.9378e-05,32.275,-3.368e-05,-0.049448,1.6481
23154,19.446,1,0.1,9.5433e-05,953.67,9.5715e-05,962.19,-3.0039e-05,17.322,-3.2351e-05,-0.04553,1.6609
23155,19.355,1.0909,0.1,9.7239e-05,971.71,9.7602e-05,982.79,-3.0191e-05,22.598,-3.3206e-05,-0.051083,1.6479
23156,19.446,0.81818,0.1,9.5501e-05,954.35,9.5659e-05,959.08,-3.0711e-05,9.5774,-3.1992e-05,-0.04682,1.6607
23157,19.355,0.90909,0.1,9.725e-05,971.83,9.7476e-05,978.63,-3.0934e-05,13.804,-3.2778e-05,-0.053266,1.6478
23158,19.446,0.63636,0.1,9.5587e-05,955.21,9.5636e-05,956.66,-3.1292e-05,2.9775,-3.1696e-05,-0.061528,1.6605
23159,19.355,0.72727,0.1,9.7279e-05,972.12,9.7382e-05,975.17,-3.1583e-05,6.1772,-3.2413e-05,-0.061317,1.6475
23160,19.446,0.45455,0.1,9.5699e-05,956.33,9.5657e-05,955.11,-3.1458e-05,0.0097012,-3.1786e-05,-2.4545,1.6603
23161,19.355,0.54545,0.1,9.7332e-05,972.65,9.7329e-05,972.57,-3.2074e-05,0.28387,-3.217e-05,-0.43646,1.6473
23162,19.446,0.27273,0.1,9.5923e-05,958.56,9.5802e-05,955.05,-3.1307e-05,0.0032058,-3.2239e-05,-6.9981,1.66
23163,19.355,0.36364,0.1,9.7421e-05,973.54,9.7335e-05,971.04,-3.1902e-05,0.0023066,-3.2565e-05,-4.9776,1.6471
23164,19.355,0.18182,0.1,9.7708e-05,976.41,9.7546e-05,971.7,-3.1779e-05,0.0060805,-3.3024e-05,-9.346,1.6468
23165,19.446,0.090909,0.1,9.5628e-05,955.62,9.5515e-05,952.34,-3.1237e-05,-0.026642,-3.2098e-05,-6.4978,1.6597
23166,19.264,5.7273,0.1,9.9191e-05,991.22,9.9066e-05,987.59,-3.2374e-05,0.0072437,-3.3336e-05,-7.2246,1.6338
23167,19.172,5.8182,0.1,0.00010082,1007.5,0.00010065,1002.6,-3.2791e-05,0.0070404,-3.4073e-05,-9.6268,1.6206
23168,19.264,5.9091,0.1,9.8837e-05,987.68,9.8724e-05,984.4,-3.2296e-05,-0.032388,-3.3158e-05,-6.5104,1.6335
23169,19.264,5.5455,0.1,9.9048e-05,989.79,9.9002e-05,988.47,-3.2551e-05,0.029197,-3.2911e-05,-2.6747,1.6341
23170,19.172,5.6364,0.1,0.00010062,1005.5,0.00010053,1002.8,-3.2932e-05,0.011931,-3.3664e-05,-5.4889,1.6209
23171,19.264,5.3636,0.1,9.9019e-05,989.51,9.9071e-05,991.04,-3.2406e-05,3.1751,-3.2841e-05,-0.093585,1.6343
23172,19.172,5.4545,0.1,0.00010063,1005.6,0.00010062,1005.4,-3.3145e-05,0.28725,-3.3286e-05,-0.77405,1.6212
23173,19.264,5.1818,0.1,9.9022e-05,989.54,9.9195e-05,994.68,-3.1801e-05,10.431,-3.3198e-05,-0.062262,1.6346
23174,19.172,5.2727,0.1,0.00010068,1006.1,0.00010079,1009.2,-3.2685e-05,6.3906,-3.3548e-05,-0.088709,1.6214
23175,19.264,5,0.1,9.9049e-05,989.81,9.9359e-05,999.19,-3.1082e-05,19.108,-3.3633e-05,-0.057213,1.6348
23176,19.172,5.0909,0.1,0.00010076,1006.9,0.000101,1014.2,-3.2005e-05,14.836,-3.3989e-05,-0.069911,1.6216
23177,19.264,4.8182,0.1,9.9096e-05,990.27,9.9555e-05,1004.4,-3.0272e-05,28.916,-3.4128e-05,-0.054681,1.635
23178,19.172,4.9091,0.1,0.00010087,1008,0.00010126,1020.1,-3.121e-05,24.716,-3.4508e-05,-0.06393,1.6218
23179,19.264,4.6364,0.1,9.916e-05,990.92,9.9772e-05,1010.1,-2.9398e-05,39.52,-3.4665e-05,-0.05234,1.6351
23180,19.172,4.7273,0.1,0.00010099,1009.2,0.00010155,1026.6,-3.0328e-05,35.684,-3.5085e-05,-0.060098,1.622
23181,19.264,4.4545,0.1,9.924e-05,991.72,0.0001,1016,-2.8492e-05,50.538,-3.5225e-05,-0.049782,1.6353
23182,19.172,4.5455,0.1,0.00010114,1010.7,0.00010186,1033.5,-2.9391e-05,47.342,-3.5699e-05,-0.056609,1.6221
23183,19.264,4.2727,0.1,9.9333e-05,992.64,0.00010024,1022,-2.7587e-05,61.555,-3.5785e-05,-0.047063,1.6354
23184,19.172,4.3636,0.1,0.0001013,1012.3,0.00010218,1040.6,-2.8434e-05,59.246,-3.6327e-05,-0.053164,1.6223
23185,19.264,4.0909,0.1,9.9435e-05,993.66,0.00010046,1027.7,-2.6718e-05,72.146,-3.6326e-05,-0.044365,1.6355
23186,19.172,4.1818,0.1,0.00010148,1014.1,0.0001025,1047.7,-2.7497e-05,70.932,-3.6944e-05,-0.049828,1.6224
23187,19.264,3.9091,0.1,9.954e-05,994.71,0.00010068,1033.1,-2.5919e-05,81.9,-3.6825e-05,-0.041881,1.6356
23188,19.172,4,0.1,0.00010166,1015.9,0.0001028,1054.3,-2.6616e-05,81.937,-3.7527e-05,-0.046781,1.6225
23189,19.264,3.7273,0.1,9.9643e-05,995.74,0.00010087,1037.8,-2.5221e-05,90.439,-3.7263e-05,-0.039767,1.6357
23190,19.172,3.8182,0.1,0.00010183,1017.6,0.00010308,1060.4,-2.5826e-05,91.826,-3.8054e-05,-0.044187,1.6226
23191,19.264,3.5455,0.1,9.9734e-05,996.65,0.00010103,1041.8,-2.4651e-05,97.433,-3.7623e-05,-0.038116,1.6357
23192,19.172,3.6364,0.1,0.00010199,1019.2,0.00010332,1065.6,-2.5158e-05,100.21,-3.8502e-05,-0.042154,1.6226
23193,19.264,3.3636,0.1,9.9806e-05,997.37,0.00010115,1044.7,-2.4228e-05,102.62,-3.7891e-05,-0.036957,1.6358
23194,19.172,3.4545,0.1,0.00010212,1020.5,0.00010352,1069.7,-2.4637e-05,106.79,-3.8854e-05,-0.040706,1.6227
23195,19.264,3.1818,0.1,9.9853e-05,997.84,0.00010123,1046.5,-2.3969e-05,105.81,-3.8056e-05,-0.036278,1.6358
23196,19.172,3.2727,0.1,0.00010222,1021.5,0.00010365,1072.5,-2.4279e-05,111.3,-3.9098e-05,-0.039798,1.6227
23197,19.264,3,0.1,9.9869e-05,998,0.00010126,1047.1,-2.3882e-05,106.89,-3.8112e-05,-0.036056,1.6358
23198,19.172,3.0909,0.1,0.00010227,1022,0.00010372,1074,-2.4098e-05,113.6,-3.9222e-05,-0.039368,1.6227
23199,19.264,2.8182,0.1,9.9853e-05,997.84,0.00010123,1046.5,-2.3969e-05,105.81,-3.8056e-05,-0.036278,1.6358
23200,19.172,2.9091,0.1,0.00010227,1022,0.00010372,1074,-2.4098e-05,113.6,-3.9222e-05,-0.039369,1.6227
23201,19.264,2.6364,0.1,9.9806e-05,997.37,0.00010115,1044.7,-2.4228e-05,102.62,-3.7891e-05,-0.036957,1.6358
23202,19.172,2.7273,0.1,0.00010222,1021.5,0.00010365,1072.5,-2.4279e-05,111.3,-3.9098e-05,-0.039798,1.6227
23203,19.264,2.4545,0.1,9.9734e-05,996.65,0.00010103,1041.8,-2.4651e-05,97.433,-3.7623e-05,-0.038116,1.6357
23204,19.172,2.5455,0.1,0.00010212,1020.5,0.00010352,1069.7,-2.4637e-05,106.79,-3.8854e-05,-0.040705,1.6227
23205,19.264,2.2727,0.1,9.9643e-05,995.74,0.00010087,1037.8,-2.5221e-05,90.439,-3.7263e-05,-0.039767,1.6357
23206,19.172,2.3636,0.1,0.00010199,1019.2,0.00010332,1065.6,-2.5158e-05,100.21,-3.8502e-05,-0.042154,1.6226
23207,19.264,2.0909,0.1,9.954e-05,994.72,0.00010068,1033.1,-2.5919e-05,81.9,-3.6825e-05,-0.041881,1.6356
23208,19.172,2.1818,0.1,0.00010183,1017.6,0.00010308,1060.4,-2.5826e-05,91.826,-3.8054e-05,-0.044188,1.6226
23209,19.264,1.9091,0.1,9.9435e-05,993.66,0.00010046,1027.7,-2.6718e-05,72.146,-3.6326e-05,-0.044365,1.6355
23210,19.172,2,0.1,0.00010166,1015.9,0.0001028,1054.3,-2.6616e-05,81.937,-3.7527e-05,-0.04678,1.6225
23211,19.264,1.7273,0.1,9.9333e-05,992.64,0.00010024,1022,-2.7587e-05,61.555,-3.5785e-05,-0.047064,1.6354
23212,19.172,1.8182,0.1,0.00010148,1014.1,0.0001025,1047.7,-2.7497e-05,70.932,-3.6944e-05,-0.049829,1.6224
23213,19.264,1.5455,0.1,9.924e-05,991.72,0.0001,1016,-2.8492e-05,50.538,-3.5225e-05,-0.049782,1.6353
23214,19.172,1.6364,0.1,0.0001013,1012.3,0.00010218,1040.6,-2.8434e-05,59.246,-3.6327e-05,-0.053164,1.6223
23215,19.264,1.3636,0.1,9.916e-05,990.92,9.9772e-05,1010.1,-2.9398e-05,39.52,-3.4665e-05,-0.05234,1.6351
23216,19.172,1.4545,0.1,0.00010114,1010.7,0.00010186,1033.5,-2.9391e-05,47.342,-3.5699e-05,-0.056609,1.6221
23217,19.264,1.1818,0.1,9.9096e-05,990.27,9.9555e-05,1004.4,-3.0272e-05,28.916,-3.4128e-05,-0.054681,1.635
23218,19.172,1.2727,0.1,0.00010099,1009.2,0.00010155,1026.6,-3.0328e-05,35.684,-3.5085e-05,-0.060098,1.622
23219,19.264,1,0.1,9.9049e-05,989.81,9.9359e-05,999.19,-3.1082e-05,19.108,-3.3633e-05,-0.057213,1.6348
23220,19.172,1.0909,0.1,0.00010087,1008,0.00010126,1020.1,-3.121e-05,24.716,-3.4508e-05,-0.06393,1.6218
23221,19.264,0.81818,0.1,9.9022e-05,989.54,9.9195e-05,994.68,-3.1801e-05,10.431,-3.3198e-05,-0.062263,1.6346
23222,19.172,0.90909,0.1,0.00010076,1006.9,0.000101,1014.2,-3.2005e-05,14.836,-3.3989e-05,-0.069912,1.6216
23223,19.264,0.63636,0.1,9.9019e-05,989.51,9.9071e-05,991.04,-3.2406e-05,3.1751,-3.2841e-05,-0.093585,1.6343
23224,19.172,0.72727,0.1,0.00010068,1006.1,0.00010079,1009.2,-3.2685e-05,6.3906,-3.3548e-05,-0.08871,1.6214
23225,19.264,0.45455,0.1,9.9048e-05,989.79,9.9002e-05,988.47,-3.2551e-05,0.029197,-3.2911e-05,-2.6747,1.6341
23226,19.172,0.54545,0.1,0.00010063,1005.6,0.00010062,1005.4,-3.3145e-05,0.28726,-3.3286e-05,-0.77403,1.6212
23227,19.264,0.27273,0.1,9.9191e-05,991.22,9.9066e-05,987.59,-3.2374e-05,0.007245,-3.3336e-05,-7.2246,1.6338
23228,19.172,0.36364,0.1,0.00010062,1005.5,0.00010053,1002.8,-3.2932e-05,0.011932,-3.3664e-05,-5.4889,1.6209
23229,19.172,0.18182,0.1,0.00010082,1007.5,0.00010065,1002.6,-3.2791e-05,0.0070417,-3.4073e-05,-9.6268,1.6206
23230,19.264,0.090909,0.1,9.8837e-05,987.68,9.8724e-05,984.4,-3.2296e-05,-0.032387,-3.3158e-05,-6.5104,1.6335
23231,19.081,5.7273,0.1,0.00010223,1021.6,0.0001021,1017.7,-3.3349e-05,0.012249,-3.4389e-05,-7.7954,1.6077
23232,18.99,5.8182,0.1,0.00010366,1035.9,0.00010348,1030.7,-3.3699e-05,0.0077381,-3.5059e-05,-10.211,1.5945
23233,19.081,5.9091,0.1,0.00010179,1017.2,0.00010168,1013.9,-3.3263e-05,-0.038134,-3.4148e-05,-6.6861,1.6074
23234,19.081,5.5455,0.1,0.0001022,1021.3,0.00010214,1019.6,-3.3556e-05,0.048565,-3.4006e-05,-3.332,1.608
23235,18.99,5.6364,0.1,0.00010358,1035.1,0.00010347,1031.9,-3.386e-05,0.023677,-3.4719e-05,-6.4279,1.5948
23236,19.081,5.3636,0.1,0.00010228,1022.1,0.00010233,1023.5,-3.3501e-05,2.9238,-3.3912e-05,-0.15826,1.6082
23237,18.99,5.4545,0.1,0.00010371,1036.4,0.00010369,1035.8,-3.4128e-05,0.2374,-3.4367e-05,-1.5579,1.5951
23238,19.081,5.1818,0.1,0.00010241,1023.4,0.00010259,1028.7,-3.2886e-05,10.816,-3.4337e-05,-0.086215,1.6085
23239,18.99,5.2727,0.1,0.0001039,1038.3,0.000104,1041.3,-3.3771e-05,6.1058,-3.4602e-05,-0.13733,1.5953
23240,19.081,5,0.1,0.00010257,1025,0.0001029,1035,-3.2129e-05,20.469,-3.4863e-05,-0.073931,1.6087
23241,18.99,5.0909,0.1,0.00010414,1040.6,0.00010439,1048.2,-3.3072e-05,15.383,-3.5132e-05,-0.09498,1.5956
23242,19.081,4.8182,0.1,0.00010276,1026.9,0.00010326,1042.2,-3.1262e-05,31.507,-3.5465e-05,-0.067986,1.6089
23243,18.99,4.9091,0.1,0.0001044,1043.3,0.00010483,1056.2,-3.2234e-05,26.413,-3.576e-05,-0.082037,1.5958
23244,19.081,4.6364,0.1,0.00010297,1029,0.00010364,1050,-3.0317e-05,43.525,-3.6118e-05,-0.063453,1.609
23245,18.99,4.7273,0.1,0.00010471,1046.3,0.00010531,1065.1,-3.1292e-05,38.77,-3.6462e-05,-0.074562,1.5959
23246,19.081,4.4545,0.1,0.0001032,1031.3,0.00010404,1058.2,-2.9331e-05,56.066,-3.6801e-05,-0.059281,1.6092
23247,18.99,4.5455,0.1,0.00010503,1049.6,0.00010582,1074.6,-3.0282e-05,51.978,-3.7209e-05,-0.068653,1.5961
23248,19.081,4.2727,0.1,0.00010345,1033.8,0.00010444,1066.3,-2.8343e-05,68.636,-3.7485e-05,-0.05533,1.6093
23249,18.99,4.3636,0.1,0.00010538,1053.1,0.00010634,1084.3,-2.9248e-05,65.51,-3.7975e-05,-0.063442,1.5962
23250,19.081,4.0909,0.1,0.0001037,1036.3,0.00010483,1074.2,-2.7394e-05,80.733,-3.8146e-05,-0.051716,1.6094
23251,18.99,4.1818,0.1,0.00010574,1056.6,0.00010686,1093.8,-2.8232e-05,78.812,-3.8729e-05,-0.058808,1.5964
23252,19.081,3.9091,0.1,0.00010395,1038.7,0.0001052,1081.6,-2.6522e-05,91.87,-3.8756e-05,-0.048608,1.6095
23253,18.99,4,0.1,0.00010609,1060.2,0.00010735,1102.9,-2.7278e-05,91.338,-3.9442e-05,-0.054864,1.5965
23254,19.081,3.7273,0.1,0.00010418,1041,0.00010553,1088.1,-2.5763e-05,101.61,-3.9292e-05,-0.046134,1.6096
23255,18.99,3.8182,0.1,0.00010643,1063.6,0.0001078,1111.1,-2.6426e-05,102.58,-4.0085e-05,-0.051747,1.5965
23256,19.081,3.5455,0.1,0.00010438,1043.1,0.00010581,1093.5,-2.5144e-05,109.57,-3.9733e-05,-0.044334,1.6096
23257,18.99,3.6364,0.1,0.00010674,1066.6,0.0001082,1118.2,-2.5708e-05,112.1,-4.0634e-05,-0.049501,1.5966
23258,19.081,3.3636,0.1,0.00010453,1044.6,0.00010602,1097.5,-2.4687e-05,115.47,-4.0061e-05,-0.043159,1.6097
23259,18.99,3.4545,0.1,0.00010699,1069.1,0.00010852,1123.9,-2.515e-05,119.53,-4.1065e-05,-0.048057,1.5967
23260,19.081,3.1818,0.1,0.00010463,1045.6,0.00010615,1100,-2.4407e-05,119.09,-4.0263e-05,-0.042515,1.6097
23261,18.99,3.2727,0.1,0.00010717,1070.9,0.00010874,1127.8,-2.4769e-05,124.63,-4.1362e-05,-0.047249,1.5967
23262,19.081,3,0.1,0.00010467,1045.9,0.00010619,1100.9,-2.4313e-05,120.31,-4.0331e-05,-0.042312,1.6097
23263,18.99,3.0909,0.1,0.00010726,1071.9,0.00010886,1129.8,-2.4576e-05,127.22,-4.1514e-05,-0.046903,1.5967
23264,19.081,2.8182,0.1,0.00010463,1045.6,0.00010615,1100,-2.4407e-05,119.09,-4.0263e-05,-0.042515,1.6097
23265,18.99,2.9091,0.1,0.00010726,1071.9,0.00010886,1129.8,-2.4576e-05,127.22,-4.1514e-05,-0.046904,1.5967
23266,19.081,2.6364,0.1,0.00010453,1044.6,0.00010602,1097.5,-2.4687e-05,115.47,-4.0061e-05,-0.043159,1.6097
23267,18.99,2.7273,0.1,0.00010717,1070.9,0.00010874,1127.8,-2.4769e-05,124.63,-4.1362e-05,-0.047249,1.5967
23268,19.081,2.4545,0.1,0.00010438,1043.1,0.00010581,1093.5,-2.5144e-05,109.57,-3.9733e-05,-0.044334,1.6096
23269,18.99,2.5455,0.1,0.00010699,1069.1,0.00010852,1123.9,-2.515e-05,119.53,-4.1065e-05,-0.048056,1.5967
23270,19.081,2.2727,0.1,0.00010418,1041,0.00010553,1088.1,-2.5763e-05,101.61,-3.9292e-05,-0.046135,1.6096
23271,18.99,2.3636,0.1,0.00010674,1066.6,0.0001082,1118.2,-2.5708e-05,112.1,-4.0634e-05,-0.049501,1.5966
23272,19.081,2.0909,0.1,0.00010395,1038.7,0.0001052,1081.6,-2.6522e-05,91.87,-3.8756e-05,-0.048608,1.6095
23273,18.99,2.1818,0.1,0.00010643,1063.6,0.0001078,1111.1,-2.6426e-05,102.58,-4.0085e-05,-0.051746,1.5965
23274,19.081,1.9091,0.1,0.0001037,1036.3,0.00010483,1074.2,-2.7394e-05,80.733,-3.8146e-05,-0.051715,1.6094
23275,18.99,2,0.1,0.00010609,1060.2,0.00010735,1102.9,-2.7278e-05,91.338,-3.9442e-05,-0.054864,1.5965
23276,19.081,1.7273,0.1,0.00010345,1033.8,0.00010444,1066.3,-2.8343e-05,68.636,-3.7485e-05,-0.05533,1.6093
23277,18.99,1.8182,0.1,0.00010574,1056.6,0.00010686,1093.8,-2.8232e-05,78.812,-3.8729e-05,-0.058808,1.5964
23278,19.081,1.5455,0.1,0.0001032,1031.3,0.00010404,1058.2,-2.9331e-05,56.066,-3.6801e-05,-0.059281,1.6092
23279,18.99,1.6364,0.1,0.00010538,1053.1,0.00010634,1084.3,-2.9248e-05,65.51,-3.7975e-05,-0.063442,1.5962
23280,19.081,1.3636,0.1,0.00010297,1029,0.00010364,1050,-3.0317e-05,43.525,-3.6118e-05,-0.063454,1.609
23281,18.99,1.4545,0.1,0.00010503,1049.6,0.00010582,1074.6,-3.0282e-05,51.978,-3.7209e-05,-0.068653,1.5961
23282,19.081,1.1818,0.1,0.00010276,1026.9,0.00010326,1042.2,-3.1262e-05,31.507,-3.5465e-05,-0.067986,1.6089
23283,18.99,1.2727,0.1,0.00010471,1046.3,0.00010531,1065.1,-3.1292e-05,38.77,-3.6462e-05,-0.074563,1.5959
23284,19.081,1,0.1,0.00010257,1025,0.0001029,1035,-3.2129e-05,20.469,-3.4863e-05,-0.073932,1.6087
23285,18.99,1.0909,0.1,0.0001044,1043.3,0.00010483,1056.2,-3.2234e-05,26.413,-3.576e-05,-0.082037,1.5958
23286,19.081,0.81818,0.1,0.00010241,1023.4,0.00010259,1028.7,-3.2886e-05,10.816,-3.4337e-05,-0.086216,1.6085
23287,18.99,0.90909,0.1,0.00010414,1040.6,0.00010439,1048.2,-3.3072e-05,15.383,-3.5132e-05,-0.09498,1.5956
23288,19.081,0.63636,0.1,0.00010228,1022.1,0.00010233,1023.5,-3.3501e-05,2.9239,-3.3912e-05,-0.15826,1.6082
23289,18.99,0.72727,0.1,0.0001039,1038.3,0.000104,1041.3,-3.3771e-05,6.1058,-3.4602e-05,-0.13733,1.5953
23290,19.081,0.45455,0.1,0.0001022,1021.3,0.00010214,1019.6,-3.3556e-05,0.048565,-3.4006e-05,-3.332,1.608
23291,18.99,0.54545,0.1,0.00010371,1036.4,0.00010369,1035.8,-3.4128e-05,0.2374,-3.4367e-05,-1.5579,1.5951
23292,19.081,0.27273,0.1,0.00010223,1021.6,0.0001021,1017.7,-3.3349e-05,0.012251,-3.4389e-05,-7.7954,1.6077
23293,18.99,0.36364,0.1,0.00010358,1035.1,0.00010347,1031.9,-3.386e-05,0.02368,-3.4719e-05,-6.4279,1.5948
23294,18.99,0.18182,0.1,0.00010366,1035.9,0.00010348,1030.7,-3.3699e-05,0.0077385,-3.5059e-05,-10.211,1.5945
23295,19.081,0.090909,0.1,0.00010179,1017.2,0.00010168,1013.9,-3.3263e-05,-0.038134,-3.4148e-05,-6.6861,1.6074
23296,18.899,5.7273,0.1,0.00010499,1049.2,0.00010484,1044.8,-3.421e-05,0.018101,-3.5378e-05,-8.7547,1.5817
23297,18.808,5.8182,0.1,0.00010615,1060.8,0.00010596,1055.2,-3.4476e-05,0.0080996,-3.596e-05,-11.14,1.5685
23298,18.899,5.9091,0.1,0.00010443,1043.6,0.00010431,1040,-3.4115e-05,-0.043268,-3.5047e-05,-7.0482,1.5814
23299,18.899,5.5455,0.1,0.00010509,1050.2,0.00010501,1048,-3.4452e-05,0.065439,-3.5056e-05,-4.4762,1.5819
23300,18.808,5.6364,0.1,0.00010622,1061.5,0.00010608,1057.5,-3.466e-05,0.037201,-3.5709e-05,-7.8401,1.5688
23301,18.899,5.3636,0.1,0.00010533,1052.6,0.00010536,1053.5,-3.4556e-05,2.2279,-3.4895e-05,-0.31753,1.5822
23302,18.808,5.4545,0.1,0.00010652,1064.5,0.00010647,1063.1,-3.499e-05,0.20407,-3.5405e-05,-2.9101,1.5691
23303,18.899,5.1818,0.1,0.00010562,1055.5,0.0001058,1060.7,-3.3956e-05,10.679,-3.5394e-05,-0.12525,1.5824
23304,18.808,5.2727,0.1,0.0001069,1068.2,0.00010698,1070.7,-3.4821e-05,5.2908,-3.5557e-05,-0.23374,1.5693
23305,18.899,5,0.1,0.00010596,1058.9,0.00010631,1069.4,-3.3174e-05,21.346,-3.6028e-05,-0.098395,1.5827
23306,18.808,5.0909,0.1,0.00010733,1072.6,0.00010758,1080.1,-3.4124e-05,15.387,-3.619e-05,-0.13414,1.5696
23307,18.899,4.8182,0.1,0.00010635,1062.7,0.00010688,1079.1,-3.2261e-05,33.695,-3.6757e-05,-0.086449,1.5828
23308,18.808,4.9091,0.1,0.00010782,1077.5,0.00010826,1091,-3.3259e-05,27.624,-3.695e-05,-0.10804,1.5698
23309,18.899,4.6364,0.1,0.00010676,1066.9,0.00010749,1089.7,-3.1254e-05,47.239,-3.7552e-05,-0.078395,1.583
23310,18.808,4.7273,0.1,0.00010836,1082.8,0.000109,1102.9,-3.2269e-05,41.467,-3.7801e-05,-0.094413,1.57
23311,18.899,4.4545,0.1,0.00010721,1071.3,0.00010812,1100.7,-3.0197e-05,61.435,-3.8383e-05,-0.071794,1.5832
23312,18.808,4.5455,0.1,0.00010893,1088.6,0.00010978,1115.6,-3.1199e-05,56.35,-3.871e-05,-0.084715,1.5701
23313,18.899,4.2727,0.1,0.00010766,1075.9,0.00010875,1111.7,-2.9135e-05,75.696,-3.9218e-05,-0.066084,1.5833
23314,18.808,4.3636,0.1,0.00010953,1094.6,0.00011058,1128.6,-3.0098e-05,71.648,-3.9644e-05,-0.076887,1.5703
23315,18.899,4.0909,0.1,0.00010813,1080.5,0.00010937,1122.4,-2.8115e-05,89.425,-4.0025e-05,-0.061236,1.5834
23316,18.808,4.1818,0.1,0.00011015,1100.7,0.00011136,1141.5,-2.9015e-05,86.702,-4.0564e-05,-0.070417,1.5704
23317,18.899,3.9091,0.1,0.00010858,1085,0.00010995,1132.4,-2.7181e-05,102.05,-4.0771e-05,-0.057363,1.5835
23318,18.808,4,0.1,0.00011075,1106.7,0.00011212,1153.7,-2.8002e-05,100.87,-4.1435e-05,-0.06529,1.5705
23319,18.899,3.7273,0.1,0.00010899,1089.1,0.00011047,1141.2,-2.637e-05,113.07,-4.1427e-05,-0.054536,1.5836
23320,18.808,3.8182,0.1,0.00011132,1112.5,0.00011282,1164.8,-2.7101e-05,113.55,-4.2222e-05,-0.061574,1.5706
23321,18.899,3.5455,0.1,0.00010935,1092.7,0.00011091,1148.6,-2.5713e-05,122.06,-4.1965e-05,-0.052696,1.5836
23322,18.808,3.6364,0.1,0.00011183,1117.6,0.00011342,1174.4,-2.6348e-05,124.25,-4.2892e-05,-0.059215,1.5706
23323,18.899,3.3636,0.1,0.00010962,1095.5,0.00011124,1154.1,-2.5231e-05,128.7,-4.2366e-05,-0.051657,1.5837
23324,18.808,3.4545,0.1,0.00011225,1121.7,0.00011392,1182.1,-2.5768e-05,132.57,-4.342e-05,-0.057973,1.5707
23325,18.899,3.1818,0.1,0.0001098,1097.2,0.00011145,1157.5,-2.4937e-05,132.77,-4.2613e-05,-0.051172,1.5837
23326,18.808,3.2727,0.1,0.00011255,1124.7,0.00011426,1187.4,-2.5374e-05,138.26,-4.3783e-05,-0.057475,1.5707
23327,18.899,3,0.1,0.00010985,1097.8,0.00011152,1158.7,-2.4838e-05,134.14,-4.2697e-05,-0.051037,1.5837
23328,18.808,3.0909,0.1,0.0001127,1126.3,0.00011444,1190.1,-2.5176e-05,141.14,-4.3969e-05,-0.057344,1.5707
23329,18.899,2.8182,0.1,0.0001098,1097.2,0.00011145,1157.5,-2.4937e-05,132.77,-4.2613e-05,-0.051172,1.5837
23330,18.808,2.9091,0.1,0.0001127,1126.3,0.00011444,1190.1,-2.5176e-05,141.14,-4.3969e-05,-0.057344,1.5707
23331,18.899,2.6364,0.1,0.00010962,1095.5,0.00011124,1154.1,-2.5231e-05,128.7,-4.2366e-05,-0.051657,1.5837
23332,18.808,2.7273,0.1,0.00011255,1124.7,0.00011426,1187.4,-2.5374e-05,138.26,-4.3783e-05,-0.057476,1.5707
23333,18.899,2.4545,0.1,0.00010935,1092.7,0.00011091,1148.6,-2.5713e-05,122.06,-4.1965e-05,-0.052697,1.5836
23334,18.808,2.5455,0.1,0.00011225,1121.7,0.00011392,1182.1,-2.5768e-05,132.57,-4.342e-05,-0.057974,1.5707
23335,18.899,2.2727,0.1,0.00010899,1089.1,0.00011047,1141.2,-2.637e-05,113.07,-4.1427e-05,-0.054537,1.5836
23336,18.808,2.3636,0.1,0.00011183,1117.6,0.00011342,1174.4,-2.6348e-05,124.25,-4.2892e-05,-0.059215,1.5706
23337,18.899,2.0909,0.1,0.00010858,1085,0.00010995,1132.4,-2.7181e-05,102.05,-4.0771e-05,-0.057363,1.5835
23338,18.808,2.1818,0.1,0.00011132,1112.5,0.00011282,1164.8,-2.7101e-05,113.55,-4.2222e-05,-0.061574,1.5706
23339,18.899,1.9091,0.1,0.00010813,1080.5,0.00010937,1122.4,-2.8115e-05,89.425,-4.0025e-05,-0.061236,1.5834
23340,18.808,2,0.1,0.00011075,1106.7,0.00011212,1153.7,-2.8002e-05,100.87,-4.1435e-05,-0.065291,1.5705
23341,18.899,1.7273,0.1,0.00010766,1075.9,0.00010875,1111.7,-2.9135e-05,75.696,-3.9218e-05,-0.066085,1.5833
23342,18.808,1.8182,0.1,0.00011015,1100.7,0.00011136,1141.5,-2.9015e-05,86.702,-4.0564e-05,-0.070417,1.5704
23343,18.899,1.5455,0.1,0.00010721,1071.3,0.00010812,1100.7,-3.0197e-05,61.435,-3.8383e-05,-0.071794,1.5832
23344,18.808,1.6364,0.1,0.00010953,1094.6,0.00011058,1128.6,-3.0098e-05,71.648,-3.9644e-05,-0.076888,1.5703
23345,18.899,1.3636,0.1,0.00010676,1066.9,0.00010749,1089.7,-3.1254e-05,47.239,-3.7552e-05,-0.078395,1.583
23346,18.808,1.4545,0.1,0.00010893,1088.6,0.00010978,1115.6,-3.1199e-05,56.35,-3.871e-05,-0.084715,1.5701
23347,18.899,1.1818,0.1,0.00010635,1062.7,0.00010688,1079.1,-3.2261e-05,33.695,-3.6757e-05,-0.086451,1.5828
23348,18.808,1.2727,0.1,0.00010836,1082.8,0.000109,1102.9,-3.2269e-05,41.467,-3.7801e-05,-0.094413,1.57
23349,18.899,1,0.1,0.00010596,1058.9,0.00010631,1069.4,-3.3174e-05,21.346,-3.6028e-05,-0.098395,1.5827
23350,18.808,1.0909,0.1,0.00010782,1077.5,0.00010826,1091,-3.3259e-05,27.624,-3.695e-05,-0.10804,1.5698
23351,18.899,0.81818,0.1,0.00010562,1055.5,0.0001058,1060.7,-3.3956e-05,10.679,-3.5394e-05,-0.12525,1.5824
23352,18.808,0.90909,0.1,0.00010733,1072.6,0.00010758,1080.1,-3.4124e-05,15.387,-3.619e-05,-0.13414,1.5696
23353,18.899,0.63636,0.1,0.00010533,1052.6,0.00010536,1053.5,-3.4556e-05,2.2279,-3.4895e-05,-0.31753,1.5822
23354,18.808,0.72727,0.1,0.0001069,1068.2,0.00010698,1070.7,-3.4821e-05,5.2909,-3.5557e-05,-0.23374,1.5693
23355,18.899,0.45455,0.1,0.00010509,1050.2,0.00010501,1048,-3.4452e-05,0.065441,-3.5056e-05,-4.4762,1.5819
23356,18.808,0.54545,0.1,0.00010652,1064.5,0.00010647,1063.1,-3.499e-05,0.20408,-3.5405e-05,-2.9101,1.5691
23357,18.899,0.27273,0.1,0.00010499,1049.2,0.00010484,1044.8,-3.421e-05,0.018102,-3.5378e-05,-8.7547,1.5817
23358,18.808,0.36364,0.1,0.00010622,1061.5,0.00010608,1057.5,-3.466e-05,0.037203,-3.5709e-05,-7.8401,1.5688
23359,18.808,0.18182,0.1,0.00010615,1060.8,0.00010596,1055.2,-3.4476e-05,0.0080994,-3.596e-05,-11.14,1.5685
23360,18.899,0.090909,0.1,0.00010443,1043.6,0.00010431,1040,-3.4115e-05,-0.043268,-3.5047e-05,-7.0482,1.5814
23361,18.717,5.7273,0.1,0.00010737,1073,0.00010719,1067.9,-3.4927e-05,0.024828,-3.628e-05,-10.145,1.5557
23362,18.626,5.8182,0.1,0.00010821,1081.3,0.00010799,1075,-3.5089e-05,0.0081135,-3.6747e-05,-12.451,1.5426
23363,18.717,5.9091,0.1,0.00010665,1065.8,0.00010652,1061.9,-3.4822e-05,-0.047207,-3.5829e-05,-7.62,1.5554
23364,18.717,5.5455,0.1,0.00010765,1075.7,0.00010754,1072.7,-3.5211e-05,0.081267,-3.6041e-05,-6.1556,1.556
23365,18.626,5.6364,0.1,0.00010845,1083.8,0.00010829,1078.9,-3.5301e-05,0.052739,-3.6607e-05,-9.7631,1.5429
23366,18.717,5.3636,0.1,0.00010808,1080.1,0.00010809,1080.3,-3.5518e-05,1.2927,-3.5801e-05,-0.83099,1.5562
23367,18.626,5.4545,0.1,0.00010897,1088.9,0.00010889,1086.6,-3.5701e-05,0.19225,-3.6376e-05,-4.8787,1.5431
23368,18.717,5.1818,0.1,0.0001086,1085.2,0.00010876,1090.1,-3.4994e-05,9.9692,-3.6346e-05,-0.19309,1.5565
23369,18.626,5.2727,0.1,0.00010958,1095.1,0.00010964,1096.8,-3.5807e-05,3.9735,-3.6397e-05,-0.45997,1.5434
23370,18.717,5,0.1,0.00010918,1091.1,0.00010953,1101.7,-3.4208e-05,21.673,-3.711e-05,-0.13521,1.5567
23371,18.626,5.0909,0.1,0.00011029,1102.1,0.00011053,1109.3,-3.5147e-05,14.79,-3.7142e-05,-0.19818,1.5436
23372,18.717,4.8182,0.1,0.00010983,1097.5,0.00011039,1114.8,-3.3266e-05,35.405,-3.7993e-05,-0.11249,1.5569
23373,18.626,4.9091,0.1,0.00011108,1110,0.00011153,1123.8,-3.4277e-05,28.27,-3.8058e-05,-0.14625,1.5439
23374,18.717,4.6364,0.1,0.00011053,1104.5,0.0001113,1128.9,-3.2213e-05,50.586,-3.8958e-05,-0.098671,1.5571
23375,18.626,4.7273,0.1,0.00011193,1118.5,0.00011261,1139.7,-3.326e-05,43.684,-3.909e-05,-0.12205,1.544
23376,18.717,4.4545,0.1,0.00011126,1111.8,0.00011224,1143.6,-3.1099e-05,66.569,-3.997e-05,-0.088337,1.5572
23377,18.626,4.5455,0.1,0.00011284,1127.6,0.00011374,1156.5,-3.2148e-05,60.364,-4.0196e-05,-0.10632,1.5442
23378,18.717,4.2727,0.1,0.00011201,1119.3,0.00011319,1158.3,-2.9977e-05,82.659,-4.0989e-05,-0.08005,1.5574
23379,18.626,4.3636,0.1,0.00011379,1137.1,0.00011491,1173.8,-3.0998e-05,77.567,-4.1334e-05,-0.094531,1.5444
23380,18.717,4.0909,0.1,0.00011277,1126.9,0.00011411,1172.7,-2.8902e-05,98.147,-4.1974e-05,-0.073484,1.5575
23381,18.626,4.1818,0.1,0.00011475,1146.7,0.00011606,1191,-2.9869e-05,94.51,-4.2459e-05,-0.085382,1.5445
23382,18.717,3.9091,0.1,0.00011349,1134.2,0.00011499,1186.1,-2.7922e-05,112.36,-4.2886e-05,-0.068642,1.5576
23383,18.626,4,0.1,0.00011569,1156.1,0.00011717,1207.3,-2.8817e-05,110.42,-4.3523e-05,-0.078624,1.5446
23384,18.717,3.7273,0.1,0.00011416,1140.8,0.00011577,1198,-2.7079e-05,124.73,-4.3688e-05,-0.065495,1.5577
23385,18.626,3.8182,0.1,0.00011658,1165,0.0001182,1222.3,-2.7891e-05,124.61,-4.4485e-05,-0.074208,1.5447
23386,18.717,3.5455,0.1,0.00011474,1146.6,0.00011643,1208,-2.6402e-05,134.77,-4.4347e-05,-0.063816,1.5577
23387,18.626,3.6364,0.1,0.00011738,1173,0.0001191,1235.2,-2.7127e-05,136.51,-4.5305e-05,-0.071918,1.5447
23388,18.717,3.3636,0.1,0.00011518,1151,0.00011693,1215.4,-2.591e-05,142.15,-4.4837e-05,-0.063177,1.5578
23389,18.626,3.4545,0.1,0.00011803,1179.5,0.00011983,1245.5,-2.6547e-05,145.71,-4.595e-05,-0.071227,1.5448
23390,18.717,3.1818,0.1,0.00011546,1153.8,0.00011725,1220.1,-2.5612e-05,146.65,-4.5139e-05,-0.063072,1.5578
23391,18.626,3.2727,0.1,0.00011849,1184.1,0.00012034,1252.7,-2.6159e-05,151.97,-4.6394e-05,-0.071396,1.5448
23392,18.717,3,0.1,0.00011555,1154.7,0.00011736,1221.6,-2.5513e-05,148.17,-4.5241e-05,-0.063089,1.5578
23393,18.626,3.0909,0.1,0.00011873,1186.5,0.00012061,1256.4,-2.5965e-05,155.12,-4.662e-05,-0.071704,1.5449
23394,18.717,2.8182,0.1,0.00011546,1153.8,0.00011725,1220.1,-2.5612e-05,146.65,-4.5139e-05,-0.063073,1.5578
23395,18.626,2.9091,0.1,0.00011873,1186.5,0.00012061,1256.4,-2.5965e-05,155.12,-4.662e-05,-0.071704,1.5449
23396,18.717,2.6364,0.1,0.00011518,1151,0.00011693,1215.4,-2.591e-05,142.15,-4.4837e-05,-0.063178,1.5578
23397,18.626,2.7273,0.1,0.00011849,1184.1,0.00012034,1252.7,-2.6159e-05,151.97,-4.6394e-05,-0.071396,1.5448
23398,18.717,2.4545,0.1,0.00011474,1146.6,0.00011643,1208,-2.6402e-05,134.77,-4.4347e-05,-0.063816,1.5577
23399,18.626,2.5455,0.1,0.00011803,1179.5,0.00011983,1245.5,-2.6547e-05,145.71,-4.595e-05,-0.071227,1.5448
23400,18.717,2.2727,0.1,0.00011416,1140.8,0.00011577,1198,-2.7079e-05,124.73,-4.3688e-05,-0.065495,1.5577
23401,18.626,2.3636,0.1,0.00011738,1173,0.0001191,1235.2,-2.7127e-05,136.51,-4.5305e-05,-0.071917,1.5447
23402,18.717,2.0909,0.1,0.00011349,1134.2,0.00011499,1186.1,-2.7922e-05,112.36,-4.2886e-05,-0.068643,1.5576
23403,18.626,2.1818,0.1,0.00011658,1165,0.0001182,1222.3,-2.7891e-05,124.61,-4.4485e-05,-0.074208,1.5447
23404,18.717,1.9091,0.1,0.00011277,1126.9,0.00011411,1172.7,-2.8902e-05,98.147,-4.1974e-05,-0.073484,1.5575
23405,18.626,2,0.1,0.00011569,1156.1,0.00011717,1207.3,-2.8817e-05,110.42,-4.3523e-05,-0.078624,1.5446
23406,18.717,1.7273,0.1,0.00011201,1119.3,0.00011319,1158.3,-2.9977e-05,82.659,-4.0989e-05,-0.08005,1.5574
23407,18.626,1.8182,0.1,0.00011475,1146.7,0.00011606,1191,-2.9869e-05,94.51,-4.2459e-05,-0.085382,1.5445
23408,18.717,1.5455,0.1,0.00011126,1111.8,0.00011224,1143.6,-3.1099e-05,66.569,-3.997e-05,-0.088338,1.5572
23409,18.626,1.6364,0.1,0.00011379,1137.1,0.00011491,1173.8,-3.0998e-05,77.567,-4.1334e-05,-0.094531,1.5444
23410,18.717,1.3636,0.1,0.00011053,1104.5,0.0001113,1128.9,-3.2213e-05,50.586,-3.8958e-05,-0.098671,1.5571
23411,18.626,1.4545,0.1,0.00011284,1127.6,0.00011374,1156.5,-3.2148e-05,60.364,-4.0196e-05,-0.10632,1.5442
23412,18.717,1.1818,0.1,0.00010983,1097.5,0.00011039,1114.8,-3.3266e-05,35.405,-3.7993e-05,-0.11249,1.5569
23413,18.626,1.2727,0.1,0.00011193,1118.5,0.00011261,1139.7,-3.326e-05,43.684,-3.909e-05,-0.12205,1.544
23414,18.717,1,0.1,0.00010918,1091.1,0.00010953,1101.7,-3.4208e-05,21.673,-3.711e-05,-0.13521,1.5567
23415,18.626,1.0909,0.1,0.00011108,1110,0.00011153,1123.8,-3.4277e-05,28.27,-3.8058e-05,-0.14625,1.5439
23416,18.717,0.81818,0.1,0.0001086,1085.2,0.00010876,1090.1,-3.4994e-05,9.9693,-3.6347e-05,-0.19309,1.5565
23417,18.626,0.90909,0.1,0.00011029,1102.1,0.00011053,1109.3,-3.5147e-05,14.79,-3.7142e-05,-0.19818,1.5436
23418,18.717,0.63636,0.1,0.00010808,1080.1,0.00010809,1080.3,-3.5518e-05,1.2927,-3.5801e-05,-0.83098,1.5562
23419,18.626,0.72727,0.1,0.00010958,1095.1,0.00010964,1096.8,-3.5807e-05,3.9735,-3.6397e-05,-0.45996,1.5434
23420,18.717,0.45455,0.1,0.00010765,1075.7,0.00010754,1072.7,-3.5211e-05,0.081268,-3.6041e-05,-6.1556,1.556
23421,18.626,0.54545,0.1,0.00010897,1088.9,0.00010889,1086.6,-3.5701e-05,0.19225,-3.6376e-05,-4.8787,1.5431
23422,18.717,0.27273,0.1,0.00010737,1073,0.00010719,1067.9,-3.4927e-05,0.024828,-3.628e-05,-10.145,1.5557
23423,18.626,0.36364,0.1,0.00010845,1083.8,0.00010829,1078.9,-3.5301e-05,0.052739,-3.6607e-05,-9.7631,1.5429
23424,18.626,0.18182,0.1,0.00010821,1081.3,0.00010799,1075,-3.5089e-05,0.0081137,-3.6747e-05,-12.451,1.5426
23425,18.717,0.090909,0.1,0.00010665,1065.8,0.00010652,1061.9,-3.4822e-05,-0.047206,-3.5829e-05,-7.62,1.5554
23426,18.535,5.7273,0.1,0.00010928,1092.1,0.00010907,1086,-3.5464e-05,0.032687,-3.7066e-05,-12.001,1.5298
23427,18.444,5.8182,0.1,0.00010971,1096.4,0.00010946,1089.2,-3.5499e-05,0.0078423,-3.7387e-05,-14.178,1.5167
23428,18.535,5.9091,0.1,0.00010836,1082.9,0.00010822,1078.6,-3.5346e-05,-0.049564,-3.6461e-05,-8.4224,1.5294
23429,18.535,5.5455,0.1,0.00010977,1097,0.00010963,1092.8,-3.58e-05,0.098613,-3.6932e-05,-8.4077,1.5301
23430,18.444,5.6364,0.1,0.00011017,1101,0.00010996,1094.9,-3.5745e-05,0.071026,-3.738e-05,-12.218,1.517
23431,18.535,5.3636,0.1,0.00011046,1103.9,0.00011044,1103.1,-3.6279e-05,0.70083,-3.6682e-05,-2.3263,1.5303
23432,18.444,5.4545,0.1,0.00011095,1108.7,0.00011083,1105.1,-3.6226e-05,0.19646,-3.7248e-05,-7.4846,1.5173
23433,18.535,5.1818,0.1,0.00011127,1111.9,0.00011141,1116.1,-3.5979e-05,8.6574,-3.7174e-05,-0.32191,1.5306
23434,18.444,5.2727,0.1,0.00011188,1118,0.0001119,1118.6,-3.6662e-05,2.4144,-3.7133e-05,-1.1237,1.5175
23435,18.535,5,0.1,0.00011218,1121,0.00011252,1131.4,-3.5218e-05,21.373,-3.8088e-05,-0.19257,1.5308
23436,18.444,5.0909,0.1,0.00011294,1128.6,0.00011315,1135.1,-3.612e-05,13.538,-3.7963e-05,-0.30955,1.5178
23437,18.535,4.8182,0.1,0.00011317,1131,0.00011375,1148.7,-3.4272e-05,36.542,-3.9155e-05,-0.14998,1.531
23438,18.444,4.9091,0.1,0.00011411,1140.4,0.00011456,1154.1,-3.5278e-05,28.251,-3.9065e-05,-0.20416,1.518
23439,18.535,4.6364,0.1,0.00011424,1141.6,0.00011506,1167.4,-3.3196e-05,53.455,-4.0328e-05,-0.12656,1.5312
23440,18.444,4.7273,0.1,0.00011539,1153.1,0.00011609,1175,-3.4265e-05,45.295,-4.0315e-05,-0.16134,1.5182
23441,18.535,4.4545,0.1,0.00011537,1152.9,0.00011641,1186.8,-3.2049e-05,71.354,-4.156e-05,-0.11038,1.5314
23442,18.444,4.5455,0.1,0.00011675,1166.7,0.00011771,1197.3,-3.3141e-05,63.878,-4.1661e-05,-0.13582,1.5184
23443,18.535,4.2727,0.1,0.00011652,1164.4,0.00011778,1206.5,-3.0891e-05,89.409,-4.2803e-05,-0.098213,1.5315
23444,18.444,4.3636,0.1,0.00011816,1180.8,0.00011936,1220.1,-3.197e-05,83.121,-4.3048e-05,-0.11788,1.5185
23445,18.535,4.0909,0.1,0.00011767,1175.9,0.00011912,1225.6,-2.9785e-05,106.78,-4.4007e-05,-0.089158,1.5316
23446,18.444,4.1818,0.1,0.00011959,1195.1,0.000121,1242.8,-3.0822e-05,102.08,-4.4422e-05,-0.10471,1.5187
23447,18.535,3.9091,0.1,0.00011878,1187,0.00012039,1243.5,-2.8786e-05,122.66,-4.5122e-05,-0.083027,1.5317
23448,18.444,4,0.1,0.000121,1209.1,0.00012259,1264.5,-2.9763e-05,119.83,-4.5725e-05,-0.09559,1.5188
23449,18.535,3.7273,0.1,0.0001198,1197.1,0.00012153,1259.5,-2.7939e-05,136.39,-4.6103e-05,-0.079629,1.5318
23450,18.444,3.8182,0.1,0.00012232,1222.4,0.00012406,1284.5,-2.8848e-05,135.56,-4.6902e-05,-0.090306,1.5189
23451,18.535,3.5455,0.1,0.00012067,1205.9,0.0001225,1272.8,-2.7271e-05,147.47,-4.6908e-05,-0.07846,1.5319
23452,18.444,3.6364,0.1,0.00012351,1234.2,0.00012536,1301.7,-2.8111e-05,148.63,-4.7905e-05,-0.088378,1.5189
23453,18.535,3.3636,0.1,0.00012134,1212.6,0.00012324,1282.8,-2.6794e-05,155.55,-4.7507e-05,-0.078679,1.5319
23454,18.444,3.4545,0.1,0.00012448,1243.9,0.00012641,1315.6,-2.7566e-05,158.64,-4.8692e-05,-0.088815,1.519
23455,18.535,3.1818,0.1,0.00012177,1216.8,0.0001237,1289.1,-2.651e-05,160.45,-4.7875e-05,-0.079327,1.5319
23456,18.444,3.2727,0.1,0.00012517,1250.8,0.00012716,1325.2,-2.7212e-05,165.37,-4.9233e-05,-0.090252,1.519
23457,18.535,3,0.1,0.00012191,1218.3,0.00012386,1291.2,-2.6415e-05,162.09,-4.7999e-05,-0.07964,1.5319
23458,18.444,3.0909,0.1,0.00012553,1254.4,0.00012754,1330.2,-2.7038e-05,168.75,-4.9509e-05,-0.091372,1.519
23459,18.535,2.8182,0.1,0.00012177,1216.8,0.0001237,1289.1,-2.651e-05,160.45,-4.7875e-05,-0.079327,1.5319
23460,18.444,2.9091,0.1,0.00012553,1254.4,0.00012754,1330.2,-2.7038e-05,168.75,-4.9509e-05,-0.091372,1.519
23461,18.535,2.6364,0.1,0.00012134,1212.6,0.00012324,1282.8,-2.6794e-05,155.55,-4.7507e-05,-0.078679,1.5319
23462,18.444,2.7273,0.1,0.00012517,1250.8,0.00012716,1325.2,-2.7212e-05,165.37,-4.9233e-05,-0.090252,1.519
23463,18.535,2.4545,0.1,0.00012067,1205.9,0.0001225,1272.8,-2.7271e-05,147.47,-4.6908e-05,-0.078459,1.5319
23464,18.444,2.5455,0.1,0.00012448,1243.9,0.00012641,1315.6,-2.7566e-05,158.64,-4.8692e-05,-0.088815,1.519
23465,18.535,2.2727,0.1,0.0001198,1197.1,0.00012153,1259.5,-2.7939e-05,136.39,-4.6103e-05,-0.079629,1.5318
23466,18.444,2.3636,0.1,0.00012351,1234.2,0.00012536,1301.7,-2.8111e-05,148.63,-4.7905e-05,-0.088378,1.5189
23467,18.535,2.0909,0.1,0.00011878,1187,0.00012039,1243.5,-2.8786e-05,122.66,-4.5122e-05,-0.083027,1.5317
23468,18.444,2.1818,0.1,0.00012232,1222.4,0.00012406,1284.5,-2.8848e-05,135.56,-4.6902e-05,-0.090306,1.5189
23469,18.535,1.9091,0.1,0.00011767,1175.9,0.00011912,1225.6,-2.9785e-05,106.78,-4.4007e-05,-0.089158,1.5316
23470,18.444,2,0.1,0.000121,1209.1,0.00012259,1264.5,-2.9763e-05,119.83,-4.5725e-05,-0.09559,1.5188
23471,18.535,1.7273,0.1,0.00011652,1164.4,0.00011778,1206.5,-3.0891e-05,89.409,-4.2803e-05,-0.098213,1.5315
23472,18.444,1.8182,0.1,0.00011959,1195.1,0.000121,1242.8,-3.0822e-05,102.08,-4.4422e-05,-0.10471,1.5187
23473,18.535,1.5455,0.1,0.00011537,1152.9,0.00011641,1186.8,-3.2049e-05,71.354,-4.156e-05,-0.11038,1.5314
23474,18.444,1.6364,0.1,0.00011816,1180.8,0.00011936,1220.1,-3.197e-05,83.121,-4.3048e-05,-0.11788,1.5185
23475,18.535,1.3636,0.1,0.00011424,1141.6,0.00011506,1167.4,-3.3196e-05,53.455,-4.0328e-05,-0.12656,1.5312
23476,18.444,1.4545,0.1,0.00011675,1166.7,0.00011771,1197.3,-3.3141e-05,63.878,-4.1661e-05,-0.13582,1.5184
23477,18.535,1.1818,0.1,0.00011317,1131,0.00011375,1148.7,-3.4272e-05,36.542,-3.9155e-05,-0.14998,1.531
23478,18.444,1.2727,0.1,0.00011539,1153.1,0.00011609,1175,-3.4265e-05,45.295,-4.0315e-05,-0.16134,1.5182
23479,18.535,1,0.1,0.00011218,1121,0.00011252,1131.4,-3.5218e-05,21.373,-3.8088e-05,-0.19257,1.5308
23480,18.444,1.0909,0.1,0.00011411,1140.4,0.00011456,1154.1,-3.5278e-05,28.251,-3.9065e-05,-0.20416,1.518
23481,18.535,0.81818,0.1,0.00011127,1111.9,0.00011141,1116.1,-3.5979e-05,8.6575,-3.7174e-05,-0.32191,1.5306
23482,18.444,0.90909,0.1,0.00011294,1128.6,0.00011315,1135.1,-3.612e-05,13.538,-3.7963e-05,-0.30955,1.5178
23483,18.535,0.63636,0.1,0.00011046,1103.9,0.00011044,1103.1,-3.6279e-05,0.70083,-3.6682e-05,-2.3262,1.5303
23484,18.444,0.72727,0.1,0.00011188,1118,0.0001119,1118.6,-3.6662e-05,2.4144,-3.7133e-05,-1.1237,1.5175
23485,18.535,0.45455,0.1,0.00010977,1097,0.00010963,1092.8,-3.58e-05,0.098613,-3.6932e-05,-8.4076,1.5301
23486,18.444,0.54545,0.1,0.00011095,1108.7,0.00011083,1105.1,-3.6226e-05,0.19646,-3.7248e-05,-7.4845,1.5173
23487,18.535,0.27273,0.1,0.00010928,1092.1,0.00010907,1086,-3.5464e-05,0.032687,-3.7066e-05,-12.001,1.5298
23488,18.444,0.36364,0.1,0.00011017,1101,0.00010996,1094.9,-3.5745e-05,0.071026,-3.738e-05,-12.218,1.517
23489,18.444,0.18182,0.1,0.00010971,1096.4,0.00010946,1089.2,-3.5499e-05,0.0078432,-3.7387e-05,-14.178,1.5167
23490,18.535,0.090909,0.1,0.00010836,1082.9,0.00010822,1078.6,-3.5346e-05,-0.049563,-3.6461e-05,-8.4224,1.5294
23491,18.353,5.7273,0.1,0.0001106,1105.2,0.00011035,1098,-3.5781e-05,0.042179,-3.7695e-05,-14.345,1.5039
23492,18.262,5.8182,0.1,0.00011052,1104.5,0.00011024,1096.2,-3.566e-05,0.0075082,-3.7836e-05,-16.342,1.4909
23493,18.353,5.9091,0.1,0.00010943,1093.6,0.00010927,1088.8,-3.5647e-05,-0.050283,-3.69e-05,-9.4711,1.5036
23494,18.353,5.5455,0.1,0.00011135,1112.8,0.00011116,1107.2,-3.6178e-05,0.11993,-3.7691e-05,-11.249,1.5042
23495,18.262,5.6364,0.1,0.00011124,1111.7,0.00011098,1104,-3.5947e-05,0.093209,-3.7983e-05,-15.199,1.4912
23496,18.353,5.3636,0.1,0.00011236,1122.9,0.00011229,1120.7,-3.6796e-05,0.50722,-3.7514e-05,-4.8893,1.5045
23497,18.262,5.4545,0.1,0.00011235,1122.7,0.00011217,1117.4,-3.6525e-05,0.21431,-3.7981e-05,-10.725,1.4915
23498,18.353,5.1818,0.1,0.00011354,1134.7,0.00011365,1137.7,-3.6874e-05,6.7671,-3.7854e-05,-0.60049,1.5048
23499,18.262,5.2727,0.1,0.00011367,1135.9,0.00011364,1135.1,-3.7249e-05,1.3501,-3.7828e-05,-2.9984,1.4918
23500,18.353,5,0.1,0.00011487,1147.9,0.0001152,1157.8,-3.6188e-05,20.357,-3.8936e-05,-0.28616,1.505
23501,18.262,5.0909,0.1,0.00011518,1151,0.00011537,1156.5,-3.7015e-05,11.588,-3.8627e-05,-0.52086,1.492
23502,18.353,4.8182,0.1,0.00011633,1162.5,0.00011692,1180.5,-3.5277e-05,36.966,-4.0224e-05,-0.20551,1.5052
23503,18.262,4.9091,0.1,0.00011688,1168,0.00011731,1181.3,-3.6255e-05,27.425,-3.9944e-05,-0.29563,1.4922
23504,18.353,4.6364,0.1,0.0001179,1178.2,0.00011875,1205,-3.4215e-05,55.681,-4.1647e-05,-0.16574,1.5054
23505,18.262,4.7273,0.1,0.00011872,1186.4,0.00011943,1208.6,-3.5291e-05,46.099,-4.1456e-05,-0.21884,1.4924
23506,18.353,4.4545,0.1,0.00011955,1194.7,0.00012065,1230.6,-3.3067e-05,75.609,-4.3148e-05,-0.1402,1.5056
23507,18.262,4.5455,0.1,0.00012067,1205.9,0.00012166,1237.7,-3.4197e-05,66.661,-4.3092e-05,-0.17702,1.4926
23508,18.353,4.2727,0.1,0.00012123,1211.5,0.00012258,1256.5,-3.1906e-05,95.76,-4.4667e-05,-0.12203,1.5057
23509,18.262,4.3636,0.1,0.0001227,1226.1,0.00012396,1267.7,-3.3045e-05,88.07,-4.4787e-05,-0.14928,1.4928
23510,18.353,4.0909,0.1,0.00012292,1228.3,0.00012447,1281.8,-3.0805e-05,115.11,-4.614e-05,-0.10923,1.5058
23511,18.262,4.1818,0.1,0.00012475,1246.7,0.00012625,1297.6,-3.192e-05,109.18,-4.6468e-05,-0.1298,1.4929
23512,18.353,3.9091,0.1,0.00012454,1244.5,0.00012626,1305.5,-2.9828e-05,132.72,-4.7505e-05,-0.10128,1.5059
23513,18.262,4,0.1,0.00012677,1266.8,0.00012847,1326.3,-3.09e-05,128.85,-4.8064e-05,-0.11706,1.493
23514,18.353,3.7273,0.1,0.00012603,1259.4,0.00012789,1326.8,-2.902e-05,147.8,-4.8704e-05,-0.097719,1.506
23515,18.262,3.8182,0.1,0.00012868,1286,0.00013054,1352.7,-3.0046e-05,146.1,-4.9505e-05,-0.1106,1.4931
23516,18.353,3.5455,0.1,0.00012731,1272.2,0.00012927,1344.5,-2.8405e-05,159.82,-4.9688e-05,-0.097614,1.5061
23517,18.262,3.6364,0.1,0.00013039,1303,0.00013238,1375.7,-2.9391e-05,160.23,-5.0731e-05,-0.10952,1.4932
23518,18.353,3.3636,0.1,0.0001283,1282.1,0.00013033,1358,-2.7981e-05,168.49,-5.0419e-05,-0.099438,1.5061
23519,18.262,3.4545,0.1,0.0001318,1317.1,0.00013387,1394.1,-2.8935e-05,170.87,-5.1692e-05,-0.11203,1.4933
23520,18.353,3.1818,0.1,0.00012893,1288.4,0.000131,1366.4,-2.7736e-05,173.7,-5.0868e-05,-0.10146,1.5062
23521,18.262,3.2727,0.1,0.0001328,1327.1,0.00013493,1407,-2.8657e-05,177.92,-5.2351e-05,-0.1157,1.4933
23522,18.353,3,0.1,0.00012914,1290.5,0.00013123,1369.2,-2.7656e-05,175.44,-5.1019e-05,-0.1023,1.5062
23523,18.262,3.0909,0.1,0.00013333,1332.4,0.00013548,1413.7,-2.8527e-05,181.41,-5.2687e-05,-0.11823,1.4933
23524,18.353,2.8182,0.1,0.00012893,1288.4,0.000131,1366.4,-2.7736e-05,173.7,-5.0868e-05,-0.10146,1.5062
23525,18.262,2.9091,0.1,0.00013333,1332.4,0.00013548,1413.7,-2.8527e-05,181.41,-5.2687e-05,-0.11823,1.4933
23526,18.353,2.6364,0.1,0.0001283,1282.1,0.00013033,1358,-2.7981e-05,168.49,-5.0419e-05,-0.099439,1.5061
23527,18.262,2.7273,0.1,0.0001328,1327.1,0.00013493,1407,-2.8657e-05,177.92,-5.2351e-05,-0.1157,1.4933
23528,18.353,2.4545,0.1,0.00012731,1272.2,0.00012927,1344.5,-2.8405e-05,159.82,-4.9688e-05,-0.097614,1.5061
23529,18.262,2.5455,0.1,0.0001318,1317.1,0.00013387,1394.1,-2.8935e-05,170.87,-5.1692e-05,-0.11203,1.4933
23530,18.353,2.2727,0.1,0.00012603,1259.4,0.00012789,1326.8,-2.902e-05,147.8,-4.8704e-05,-0.09772,1.506
23531,18.262,2.3636,0.1,0.00013039,1303,0.00013238,1375.7,-2.9391e-05,160.23,-5.0731e-05,-0.10952,1.4932
23532,18.353,2.0909,0.1,0.00012454,1244.5,0.00012626,1305.5,-2.9828e-05,132.72,-4.7505e-05,-0.10128,1.5059
23533,18.262,2.1818,0.1,0.00012868,1286,0.00013054,1352.7,-3.0046e-05,146.1,-4.9505e-05,-0.1106,1.4931
23534,18.353,1.9091,0.1,0.00012292,1228.3,0.00012447,1281.8,-3.0805e-05,115.11,-4.614e-05,-0.10923,1.5058
23535,18.262,2,0.1,0.00012677,1266.8,0.00012847,1326.3,-3.09e-05,128.85,-4.8064e-05,-0.11706,1.493
23536,18.353,1.7273,0.1,0.00012123,1211.5,0.00012258,1256.5,-3.1906e-05,95.76,-4.4667e-05,-0.12203,1.5057
23537,18.262,1.8182,0.1,0.00012475,1246.7,0.00012625,1297.6,-3.192e-05,109.18,-4.6468e-05,-0.1298,1.4929
23538,18.353,1.5455,0.1,0.00011955,1194.7,0.00012065,1230.6,-3.3067e-05,75.609,-4.3148e-05,-0.1402,1.5056
23539,18.262,1.6364,0.1,0.0001227,1226.1,0.00012396,1267.7,-3.3045e-05,88.07,-4.4787e-05,-0.14928,1.4928
23540,18.353,1.3636,0.1,0.0001179,1178.2,0.00011875,1205,-3.4215e-05,55.681,-4.1647e-05,-0.16574,1.5054
23541,18.262,1.4545,0.1,0.00012067,1205.9,0.00012166,1237.7,-3.4197e-05,66.661,-4.3092e-05,-0.17702,1.4926
23542,18.353,1.1818,0.1,0.00011633,1162.5,0.00011692,1180.5,-3.5277e-05,36.966,-4.0224e-05,-0.20551,1.5052
23543,18.262,1.2727,0.1,0.00011872,1186.4,0.00011943,1208.6,-3.5291e-05,46.099,-4.1456e-05,-0.21884,1.4924
23544,18.353,1,0.1,0.00011487,1147.9,0.0001152,1157.8,-3.6188e-05,20.357,-3.8936e-05,-0.28616,1.505
23545,18.262,1.0909,0.1,0.00011688,1168,0.00011731,1181.3,-3.6255e-05,27.425,-3.9944e-05,-0.29563,1.4922
23546,18.353,0.81818,0.1,0.00011354,1134.7,0.00011365,1137.7,-3.6874e-05,6.7672,-3.7854e-05,-0.60049,1.5048
23547,18.262,0.90909,0.1,0.00011518,1151,0.00011537,1156.5,-3.7015e-05,11.588,-3.8627e-05,-0.52086,1.492
23548,18.353,0.63636,0.1,0.00011236,1122.9,0.00011229,1120.7,-3.6796e-05,0.50723,-3.7514e-05,-4.8893,1.5045
23549,18.262,0.72727,0.1,0.00011367,1135.9,0.00011364,1135.1,-3.7249e-05,1.3501,-3.7828e-05,-2.9984,1.4918
23550,18.353,0.45455,0.1,0.00011135,1112.8,0.00011116,1107.2,-3.6178e-05,0.11993,-3.7691e-05,-11.249,1.5042
23551,18.262,0.54545,0.1,0.00011235,1122.7,0.00011217,1117.4,-3.6525e-05,0.21431,-3.7981e-05,-10.725,1.4915
23552,18.353,0.27273,0.1,0.0001106,1105.2,0.00011035,1098,-3.5781e-05,0.04218,-3.7696e-05,-14.345,1.5039
23553,18.262,0.36364,0.1,0.00011124,1111.7,0.00011098,1104,-3.5947e-05,0.093209,-3.7983e-05,-15.199,1.4912
23554,18.262,0.18182,0.1,0.00011052,1104.5,0.00011024,1096.2,-3.566e-05,0.0075097,-3.7836e-05,-16.342,1.4909
23555,18.353,0.090909,0.1,0.00010943,1093.6,0.00010927,1088.8,-3.5647e-05,-0.050282,-3.69e-05,-9.4711,1.5036
23556,18.171,5.7273,0.1,0.00011117,1110.9,0.00011087,1102.3,-3.5827e-05,0.054185,-3.812e-05,-17.171,1.4782
23557,18.079,5.8182,0.1,0.00011048,1104.1,0.00011015,1094.5,-3.5517e-05,0.00775,-3.8039e-05,-18.942,1.4651
23558,18.171,5.9091,0.1,0.0001097,1096.3,0.00010951,1090.8,-3.5671e-05,-0.049661,-3.7098e-05,-10.771,1.4778
23559,18.171,5.5455,0.1,0.00011224,1121.7,0.00011199,1114.3,-3.6299e-05,0.14776,-3.827e-05,-14.663,1.4785
23560,18.079,5.6364,0.1,0.0001115,1114.2,0.00011117,1104.8,-3.5857e-05,0.12093,-3.8356e-05,-18.655,1.4655
23561,18.171,5.3636,0.1,0.00011366,1135.8,0.00011352,1131.8,-3.7058e-05,0.45738,-3.822e-05,-8.2759,1.4788
23562,18.079,5.4545,0.1,0.000113,1129.3,0.00011275,1122,-3.6547e-05,0.24649,-3.8518e-05,-14.561,1.4658
23563,18.171,5.1818,0.1,0.00011531,1152.3,0.00011537,1153.9,-3.761e-05,4.5179,-3.8387e-05,-1.3213,1.479
23564,18.079,5.2727,0.1,0.00011482,1147.4,0.00011473,1144.7,-3.7498e-05,0.96423,-3.8464e-05,-6.2957,1.4661
23565,18.171,5,0.1,0.00011719,1171.1,0.00011749,1180,-3.7101e-05,18.507,-3.9624e-05,-0.44926,1.4793
23566,18.079,5.0909,0.1,0.00011693,1168.5,0.00011706,1172.4,-3.7788e-05,8.955,-3.911e-05,-0.97824,1.4663
23567,18.171,4.8182,0.1,0.00011926,1191.8,0.00011984,1209.5,-3.6282e-05,36.464,-4.1174e-05,-0.29113,1.4795
23568,18.079,4.9091,0.1,0.00011929,1192.1,0.0001197,1204.4,-3.7199e-05,25.576,-4.0663e-05,-0.44941,1.4665
23569,18.171,4.6364,0.1,0.00012149,1214.1,0.00012235,1241.4,-3.5285e-05,56.992,-4.29e-05,-0.22248,1.4797
23570,18.079,4.7273,0.1,0.00012187,1217.8,0.00012257,1239.9,-3.6355e-05,45.773,-4.2487e-05,-0.30686,1.4668
23571,18.171,4.4545,0.1,0.00012383,1237.4,0.00012498,1274.9,-3.4186e-05,79.037,-4.473e-05,-0.18148,1.4799
23572,18.079,4.5455,0.1,0.0001246,1245.2,0.00012562,1277.8,-3.5351e-05,68.332,-4.4477e-05,-0.23669,1.4669
23573,18.171,4.2727,0.1,0.00012622,1261.3,0.00012763,1308.9,-3.307e-05,101.41,-4.6587e-05,-0.15367,1.48
23574,18.079,4.3636,0.1,0.00012745,1273.6,0.00012876,1317,-3.4276e-05,92.016,-4.6548e-05,-0.19274,1.4671
23575,18.171,4.0909,0.1,0.00012861,1285.2,0.00013026,1342.1,-3.2024e-05,122.85,-4.8392e-05,-0.13493,1.4801
23576,18.079,4.1818,0.1,0.00013033,1302.4,0.0001319,1356.1,-3.3229e-05,115.4,-4.861e-05,-0.16306,1.4673
23577,18.171,3.9091,0.1,0.00013092,1308.3,0.00013275,1373.5,-3.1125e-05,142.18,-5.0064e-05,-0.12416,1.4802
23578,18.079,4,0.1,0.00013317,1330.7,0.00013496,1393.9,-3.231e-05,137.05,-5.057e-05,-0.14455,1.4674
23579,18.171,3.7273,0.1,0.00013305,1329.6,0.00013503,1401.6,-3.042e-05,158.51,-5.1532e-05,-0.12059,1.4803
23580,18.079,3.8182,0.1,0.00013586,1357.7,0.00013783,1428.7,-3.1591e-05,155.75,-5.2337e-05,-0.13621,1.4675
23581,18.171,3.5455,0.1,0.00013488,1347.9,0.00013697,1425.3,-2.992e-05,171.29,-5.2735e-05,-0.12248,1.4804
23582,18.079,3.6364,0.1,0.00013828,1381.8,0.00014038,1459.1,-3.1098e-05,170.71,-5.3836e-05,-0.13653,1.4676
23583,18.171,3.3636,0.1,0.0001363,1362,0.00013846,1443.1,-2.9606e-05,180.34,-5.3624e-05,-0.12712,1.4805
23584,18.079,3.4545,0.1,0.00014027,1401.7,0.00014247,1483.6,-3.0808e-05,181.67,-5.5006e-05,-0.14251,1.4676
23585,18.171,3.1818,0.1,0.0001372,1371,0.0001394,1454.3,-2.944e-05,185.68,-5.417e-05,-0.13149,1.4805
23586,18.079,3.2727,0.1,0.00014169,1415.9,0.00014395,1500.8,-3.0669e-05,188.73,-5.5806e-05,-0.1499,1.4677
23587,18.171,3,0.1,0.0001375,1374.1,0.00013973,1458.1,-2.9389e-05,187.45,-5.4354e-05,-0.13324,1.4805
23588,18.079,3.0909,0.1,0.00014244,1423.4,0.00014472,1509.6,-3.0618e-05,192.15,-5.6212e-05,-0.15477,1.4677
23589,18.171,2.8182,0.1,0.0001372,1371,0.0001394,1454.3,-2.944e-05,185.68,-5.417e-05,-0.13149,1.4805
23590,18.079,2.9091,0.1,0.00014244,1423.4,0.00014472,1509.6,-3.0618e-05,192.15,-5.6212e-05,-0.15477,1.4677
23591,18.171,2.6364,0.1,0.0001363,1362,0.00013846,1443.1,-2.9606e-05,180.34,-5.3624e-05,-0.12712,1.4805
23592,18.079,2.7273,0.1,0.00014169,1415.9,0.00014395,1500.8,-3.0669e-05,188.73,-5.5806e-05,-0.1499,1.4677
23593,18.171,2.4545,0.1,0.00013488,1347.9,0.00013697,1425.3,-2.992e-05,171.29,-5.2735e-05,-0.12248,1.4804
23594,18.079,2.5455,0.1,0.00014027,1401.7,0.00014247,1483.6,-3.0808e-05,181.67,-5.5006e-05,-0.14251,1.4676
23595,18.171,2.2727,0.1,0.00013305,1329.6,0.00013503,1401.6,-3.042e-05,158.51,-5.1532e-05,-0.12059,1.4803
23596,18.079,2.3636,0.1,0.00013828,1381.8,0.00014038,1459.1,-3.1098e-05,170.71,-5.3836e-05,-0.13653,1.4676
23597,18.171,2.0909,0.1,0.00013092,1308.3,0.00013275,1373.5,-3.1125e-05,142.18,-5.0064e-05,-0.12416,1.4802
23598,18.079,2.1818,0.1,0.00013586,1357.7,0.00013783,1428.7,-3.1591e-05,155.75,-5.2337e-05,-0.13621,1.4675
23599,18.171,1.9091,0.1,0.00012861,1285.2,0.00013026,1342.1,-3.2024e-05,122.85,-4.8392e-05,-0.13493,1.4801
23600,18.079,2,0.1,0.00013317,1330.7,0.00013496,1393.9,-3.231e-05,137.05,-5.057e-05,-0.14455,1.4674
23601,18.171,1.7273,0.1,0.00012622,1261.3,0.00012763,1308.9,-3.307e-05,101.41,-4.6587e-05,-0.15367,1.48
23602,18.079,1.8182,0.1,0.00013033,1302.4,0.0001319,1356.1,-3.3229e-05,115.4,-4.861e-05,-0.16306,1.4673
23603,18.171,1.5455,0.1,0.00012383,1237.4,0.00012498,1274.9,-3.4186e-05,79.037,-4.473e-05,-0.18148,1.4799
23604,18.079,1.6364,0.1,0.00012745,1273.6,0.00012876,1317,-3.4276e-05,92.016,-4.6548e-05,-0.19274,1.4671
23605,18.171,1.3636,0.1,0.00012149,1214.1,0.00012235,1241.4,-3.5285e-05,56.992,-4.29e-05,-0.22248,1.4797
23606,18.079,1.4545,0.1,0.0001246,1245.2,0.00012562,1277.8,-3.5351e-05,68.332,-4.4477e-05,-0.23669,1.4669
23607,18.171,1.1818,0.1,0.00011926,1191.8,0.00011984,1209.5,-3.6282e-05,36.464,-4.1174e-05,-0.29113,1.4795
23608,18.079,1.2727,0.1,0.00012187,1217.8,0.00012257,1239.9,-3.6355e-05,45.773,-4.2487e-05,-0.30686,1.4668
23609,18.171,1,0.1,0.00011719,1171.1,0.00011749,1180,-3.7101e-05,18.507,-3.9624e-05,-0.44926,1.4793
23610,18.079,1.0909,0.1,0.00011929,1192.1,0.0001197,1204.4,-3.7199e-05,25.576,-4.0663e-05,-0.44941,1.4665
23611,18.171,0.81818,0.1,0.00011531,1152.3,0.00011537,1153.9,-3.761e-05,4.5179,-3.8387e-05,-1.3213,1.479
23612,18.079,0.90909,0.1,0.00011693,1168.5,0.00011706,1172.4,-3.7788e-05,8.955,-3.911e-05,-0.97824,1.4663
23613,18.171,0.63636,0.1,0.00011366,1135.8,0.00011352,1131.8,-3.7058e-05,0.45738,-3.822e-05,-8.2759,1.4788
23614,18.079,0.72727,0.1,0.00011482,1147.4,0.00011473,1144.7,-3.7498e-05,0.96423,-3.8464e-05,-6.2956,1.4661
23615,18.171,0.45455,0.1,0.00011224,1121.7,0.00011199,1114.3,-3.6299e-05,0.14776,-3.827e-05,-14.663,1.4785
23616,18.079,0.54545,0.1,0.000113,1129.3,0.00011275,1122,-3.6547e-05,0.24649,-3.8518e-05,-14.561,1.4658
23617,18.171,0.27273,0.1,0.00011117,1110.9,0.00011087,1102.3,-3.5827e-05,0.054187,-3.812e-05,-17.171,1.4782
23618,18.079,0.36364,0.1,0.0001115,1114.2,0.00011117,1104.8,-3.5857e-05,0.12093,-3.8356e-05,-18.655,1.4655
23619,18.079,0.18182,0.1,0.00011048,1104.1,0.00011015,1094.5,-3.5517e-05,0.0077508,-3.8039e-05,-18.942,1.4651
23620,18.171,0.090909,0.1,0.0001097,1096.3,0.00010951,1090.8,-3.5671e-05,-0.04966,-3.7098e-05,-10.771,1.4778
23621,17.988,5.7273,0.1,0.00011082,1107.4,0.00011046,1097.1,-3.5547e-05,0.07026,-3.8276e-05,-20.436,1.4525
23622,17.897,5.8182,0.1,0.0001094,1093.2,0.00010901,1082.1,-3.5008e-05,0.010278,-3.7929e-05,-21.938,1.4395
23623,17.988,5.9091,0.1,0.00010899,1089.1,0.00010877,1082.9,-3.5359e-05,-0.048372,-3.6991e-05,-12.31,1.4521
23624,17.988,5.5455,0.1,0.00011227,1121.9,0.00011195,1112.6,-3.6109e-05,0.18526,-3.8607e-05,-18.583,1.4528
23625,17.897,5.6364,0.1,0.00011075,1106.7,0.00011035,1095.4,-3.5414e-05,0.1568,-3.8426e-05,-22.469,1.4398
23626,17.988,5.3636,0.1,0.00011418,1141,0.00011397,1135,-3.7025e-05,0.46799,-3.8736e-05,-12.387,1.4531
23627,17.897,5.4545,0.1,0.00011274,1126.6,0.00011241,1117.2,-3.6238e-05,0.29642,-3.8793e-05,-18.903,1.4401
23628,17.988,5.1818,0.1,0.00011645,1163.7,0.00011644,1163.3,-3.8041e-05,2.6557,-3.8837e-05,-3.3266,1.4534
23629,17.897,5.2727,0.1,0.00011517,1150.9,0.000115,1146,-3.7407e-05,0.8593,-3.8938e-05,-10.643,1.4404
23630,17.988,5,0.1,0.00011904,1189.6,0.00011928,1196.9,-3.7933e-05,15.667,-4.012e-05,-0.76436,1.4536
23631,17.897,5.0909,0.1,0.00011804,1179.5,0.0001181,1181.4,-3.8349e-05,5.9185,-3.9425e-05,-2.1659,1.4407
23632,17.988,4.8182,0.1,0.00012191,1218.3,0.00012245,1235,-3.7297e-05,34.691,-4.1972e-05,-0.43175,1.4538
23633,17.897,4.9091,0.1,0.00012127,1211.9,0.00012162,1222.5,-3.8109e-05,22.369,-4.1184e-05,-0.73563,1.4409
23634,17.988,4.6364,0.1,0.000125,1249.1,0.00012586,1276.4,-3.6444e-05,56.934,-4.4063e-05,-0.30883,1.454
23635,17.897,4.7273,0.1,0.00012482,1247.3,0.00012549,1268.4,-3.749e-05,43.769,-4.3376e-05,-0.45142,1.4412
23636,17.988,4.4545,0.1,0.00012824,1281.5,0.00012942,1320,-3.5464e-05,81.14,-4.6295e-05,-0.24104,1.4542
23637,17.897,4.5455,0.1,0.00012858,1284.9,0.0001296,1317.5,-3.6669e-05,68.237,-4.5795e-05,-0.32807,1.4414
23638,17.988,4.2727,0.1,0.00013157,1314.8,0.00013304,1364.4,-3.4456e-05,105.85,-4.8571e-05,-0.19718,1.4544
23639,17.897,4.3636,0.1,0.00013249,1324,0.00013384,1368.5,-3.5748e-05,94.29,-4.8331e-05,-0.25549,1.4415
23640,17.988,4.0909,0.1,0.00013489,1348,0.00013662,1408,-3.3533e-05,129.48,-5.0788e-05,-0.16876,1.4545
23641,17.897,4.1818,0.1,0.00013646,1363.7,0.0001381,1419.6,-3.4854e-05,120.12,-5.0868e-05,-0.20807,1.4417
23642,17.988,3.9091,0.1,0.00013811,1380.2,0.00014005,1449.2,-3.2789e-05,150.52,-5.2842e-05,-0.15342,1.4546
23643,17.897,4,0.1,0.00014038,1402.9,0.00014227,1469.1,-3.4117e-05,143.81,-5.3281e-05,-0.17922,1.4418
23644,17.988,3.7273,0.1,0.00014109,1409.9,0.00014319,1486.3,-3.2274e-05,167.91,-5.4641e-05,-0.14965,1.4547
23645,17.897,3.8182,0.1,0.00014411,1440.1,0.00014619,1514.9,-3.363e-05,163.8,-5.5453e-05,-0.16766,1.4419
23646,17.988,3.5455,0.1,0.00014366,1435.6,0.00014588,1517.5,-3.1984e-05,181.1,-5.6108e-05,-0.15466,1.4548
23647,17.897,3.6364,0.1,0.00014747,1473.7,0.00014969,1555,-3.3412e-05,179.21,-5.7285e-05,-0.17071,1.442
23648,17.988,3.3636,0.1,0.00014565,1455.5,0.00014795,1541.1,-3.1861e-05,190.13,-5.7188e-05,-0.16388,1.4549
23649,17.897,3.4545,0.1,0.00015024,1501.4,0.00015257,1587.2,-3.3401e-05,189.94,-5.8705e-05,-0.1824,1.4421
23650,17.988,3.1818,0.1,0.00014692,1468.2,0.00014926,1555.9,-3.1831e-05,195.31,-5.7848e-05,-0.17209,1.4549
23651,17.897,3.2727,0.1,0.00015223,1521.2,0.00015461,1609.8,-3.3491e-05,196.5,-5.967e-05,-0.19564,1.4421
23652,17.988,3,0.1,0.00014735,1472.5,0.0001497,1561,-3.1829e-05,196.99,-5.807e-05,-0.17531,1.4549
23653,17.897,3.0909,0.1,0.00015327,1531.6,0.00015568,1621.5,-3.3569e-05,199.56,-6.0156e-05,-0.2041,1.4421
23654,17.988,2.8182,0.1,0.00014692,1468.2,0.00014926,1555.9,-3.1831e-05,195.31,-5.7848e-05,-0.17209,1.4549
23655,17.897,2.9091,0.1,0.00015327,1531.6,0.00015568,1621.5,-3.3569e-05,199.56,-6.0156e-05,-0.2041,1.4421
23656,17.988,2.6364,0.1,0.00014565,1455.5,0.00014795,1541.1,-3.1861e-05,190.13,-5.7188e-05,-0.16388,1.4549
23657,17.897,2.7273,0.1,0.00015223,1521.2,0.00015461,1609.8,-3.3491e-05,196.5,-5.967e-05,-0.19564,1.4421
23658,17.988,2.4545,0.1,0.00014366,1435.6,0.00014588,1517.5,-3.1984e-05,181.1,-5.6108e-05,-0.15466,1.4548
23659,17.897,2.5455,0.1,0.00015024,1501.4,0.00015257,1587.2,-3.3401e-05,189.94,-5.8705e-05,-0.1824,1.4421
23660,17.988,2.2727,0.1,0.00014109,1409.9,0.00014319,1486.3,-3.2274e-05,167.91,-5.4641e-05,-0.14965,1.4547
23661,17.897,2.3636,0.1,0.00014747,1473.7,0.00014969,1555,-3.3412e-05,179.21,-5.7285e-05,-0.17071,1.442
23662,17.988,2.0909,0.1,0.00013811,1380.2,0.00014005,1449.2,-3.2789e-05,150.52,-5.2842e-05,-0.15342,1.4546
23663,17.897,2.1818,0.1,0.00014411,1440.1,0.00014619,1514.9,-3.363e-05,163.8,-5.5453e-05,-0.16766,1.4419
23664,17.988,1.9091,0.1,0.00013489,1348,0.00013662,1408,-3.3533e-05,129.48,-5.0788e-05,-0.16876,1.4545
23665,17.897,2,0.1,0.00014038,1402.9,0.00014227,1469.1,-3.4117e-05,143.81,-5.3281e-05,-0.17922,1.4418
23666,17.988,1.7273,0.1,0.00013157,1314.8,0.00013304,1364.4,-3.4456e-05,105.85,-4.8571e-05,-0.19718,1.4544
23667,17.897,1.8182,0.1,0.00013646,1363.7,0.0001381,1419.6,-3.4854e-05,120.12,-5.0868e-05,-0.20807,1.4417
23668,17.988,1.5455,0.1,0.00012824,1281.5,0.00012942,1320,-3.5464e-05,81.14,-4.6295e-05,-0.24104,1.4542
23669,17.897,1.6364,0.1,0.00013249,1324,0.00013384,1368.5,-3.5748e-05,94.29,-4.8331e-05,-0.25549,1.4415
23670,17.988,1.3636,0.1,0.000125,1249.1,0.00012586,1276.5,-3.6444e-05,56.934,-4.4063e-05,-0.30883,1.454
23671,17.897,1.4545,0.1,0.00012858,1284.9,0.0001296,1317.5,-3.6669e-05,68.237,-4.5795e-05,-0.32807,1.4414
23672,17.988,1.1818,0.1,0.00012191,1218.3,0.00012245,1235,-3.7297e-05,34.691,-4.1972e-05,-0.43175,1.4538
23673,17.897,1.2727,0.1,0.00012482,1247.3,0.00012549,1268.4,-3.749e-05,43.769,-4.3376e-05,-0.45142,1.4412
23674,17.988,1,0.1,0.00011904,1189.6,0.00011928,1196.9,-3.7933e-05,15.667,-4.012e-05,-0.76436,1.4536
23675,17.897,1.0909,0.1,0.00012127,1211.9,0.00012162,1222.5,-3.8109e-05,22.369,-4.1184e-05,-0.73563,1.4409
23676,17.988,0.81818,0.1,0.00011645,1163.7,0.00011644,1163.3,-3.8041e-05,2.6557,-3.8837e-05,-3.3266,1.4534
23677,17.897,0.90909,0.1,0.00011804,1179.5,0.0001181,1181.4,-3.8349e-05,5.9186,-3.9425e-05,-2.1659,1.4407
23678,17.988,0.63636,0.1,0.00011418,1141,0.00011397,1135,-3.7025e-05,0.46799,-3.8736e-05,-12.387,1.4531
23679,17.897,0.72727,0.1,0.00011517,1150.9,0.000115,1146,-3.7407e-05,0.85931,-3.8938e-05,-10.643,1.4404
23680,17.988,0.45455,0.1,0.00011227,1121.9,0.00011195,1112.6,-3.6109e-05,0.18527,-3.8607e-05,-18.583,1.4528
23681,17.897,0.54545,0.1,0.00011274,1126.6,0.00011241,1117.2,-3.6238e-05,0.29642,-3.8793e-05,-18.903,1.4401
23682,17.988,0.27273,0.1,0.00011082,1107.4,0.00011046,1097.1,-3.5547e-05,0.07026,-3.8276e-05,-20.436,1.4525
23683,17.897,0.36364,0.1,0.00011075,1106.7,0.00011035,1095.4,-3.5414e-05,0.1568,-3.8426e-05,-22.469,1.4398
23684,17.897,0.18182,0.1,0.0001094,1093.2,0.00010901,1082.1,-3.5008e-05,0.010278,-3.7929e-05,-21.938,1.4395
23685,17.988,0.090909,0.1,0.00010899,1089.1,0.00010877,1082.9,-3.5359e-05,-0.048372,-3.6991e-05,-12.31,1.4521
23686,17.806,5.7273,0.1,0.00010934,1092.6,0.00010891,1080.4,-3.4876e-05,0.0935,-3.8087e-05,-24.031,1.4268
23687,17.715,5.8182,0.1,0.00010704,1069.7,0.00010659,1056.9,-3.4065e-05,0.019166,-3.7426e-05,-25.235,1.4139
23688,17.806,5.9091,0.1,0.00010709,1070.1,0.00010684,1063,-3.4645e-05,-0.047365,-3.6508e-05,-14.045,1.4265
23689,17.806,5.5455,0.1,0.00011123,1111.5,0.00011083,1100,-3.5547e-05,0.2373,-3.8623e-05,-22.877,1.4272
23690,17.715,5.6364,0.1,0.00010876,1086.8,0.00010829,1073.5,-3.4555e-05,0.20541,-3.8101e-05,-26.436,1.4142
23691,17.806,5.3636,0.1,0.00011375,1136.8,0.00011346,1128.3,-3.6642e-05,0.51905,-3.8995e-05,-17.162,1.4275
23692,17.715,5.4545,0.1,0.00011133,1112.5,0.00011091,1100.7,-3.5531e-05,0.37075,-3.8721e-05,-23.601,1.4146
23693,17.806,5.1818,0.1,0.00011679,1167.1,0.0001167,1164.3,-3.8027e-05,1.7866,-3.9246e-05,-7.3736,1.4278
23694,17.715,5.2727,0.1,0.00011454,1144.6,0.00011428,1137,-3.6935e-05,0.86941,-3.9169e-05,-15.917,1.4149
23695,17.806,5,0.1,0.00012031,1202.2,0.00012047,1207.3,-3.8648e-05,11.7,-4.0403e-05,-1.4895,1.428
23696,17.715,5.0909,0.1,0.00011837,1182.9,0.00011834,1181.9,-3.8502e-05,3.483,-3.9689e-05,-5.4361,1.4151
23697,17.806,4.8182,0.1,0.00012422,1241.3,0.0001247,1256.2,-3.8351e-05,31.076,-4.2579e-05,-0.68798,1.4283
23698,17.715,4.9091,0.1,0.00012275,1226.6,0.00012301,1234.5,-3.8986e-05,17.337,-4.1476e-05,-1.3757,1.4154
23699,17.806,4.6364,0.1,0.00012844,1283.5,0.00012927,1309.8,-3.7759e-05,54.738,-4.5105e-05,-0.45066,1.4285
23700,17.715,4.7273,0.1,0.00012755,1274.6,0.00012816,1293.4,-3.8768e-05,39.172,-4.4077e-05,-0.71979,1.4156
23701,17.806,4.4545,0.1,0.00013287,1327.8,0.00013406,1366.3,-3.6996e-05,81.072,-4.783e-05,-0.33205,1.4287
23702,17.715,4.5455,0.1,0.00013267,1325.8,0.00013365,1357,-3.8264e-05,65.26,-4.7014e-05,-0.48218,1.4158
23703,17.806,4.2727,0.1,0.00013742,1373.3,0.00013894,1424.1,-3.6183e-05,108.27,-5.0628e-05,-0.25896,1.4289
23704,17.715,4.3636,0.1,0.00013798,1378.9,0.00013933,1423.2,-3.7604e-05,93.755,-5.0129e-05,-0.35422,1.416
23705,17.806,4.0909,0.1,0.00014198,1418.8,0.00014378,1481,-3.5469e-05,134.22,-5.3361e-05,-0.21263,1.429
23706,17.715,4.1818,0.1,0.00014338,1432.8,0.00014506,1489.9,-3.6955e-05,122.27,-5.3265e-05,-0.27437,1.4162
23707,17.806,3.9091,0.1,0.0001464,1463,0.00014843,1535,-3.4981e-05,156.93,-5.5892e-05,-0.18874,1.4291
23708,17.715,4,0.1,0.00014872,1486.2,0.00015068,1554.6,-3.6503e-05,148.15,-5.6252e-05,-0.22816,1.4163
23709,17.806,3.7273,0.1,0.0001505,1504,0.00015271,1583.7,-3.4778e-05,175.03,-5.8097e-05,-0.18516,1.4292
23710,17.715,3.8182,0.1,0.00015382,1537.1,0.00015599,1614.6,-3.6379e-05,169.21,-5.8928e-05,-0.20996,1.4165
23711,17.806,3.5455,0.1,0.00015405,1539.4,0.00015638,1624.7,-3.4825e-05,188.08,-5.9883e-05,-0.19595,1.4293
23712,17.715,3.6364,0.1,0.00015842,1583.1,0.00016074,1667.1,-3.6591e-05,184.42,-6.1164e-05,-0.21466,1.4166
23713,17.806,3.3636,0.1,0.0001568,1566.9,0.00015921,1655.8,-3.5013e-05,196.45,-6.1187e-05,-0.2125,1.4294
23714,17.715,3.4545,0.1,0.00016222,1621.1,0.00016464,1709.3,-3.7017e-05,194.07,-6.2877e-05,-0.23442,1.4166
23715,17.806,3.1818,0.1,0.00015855,1584.4,0.000161,1675.2,-3.52e-05,200.97,-6.1978e-05,-0.22652,1.4294
23716,17.715,3.2727,0.1,0.00016494,1648.3,0.00016742,1738.7,-3.7462e-05,199.33,-6.4025e-05,-0.25623,1.4167
23717,17.806,3,0.1,0.00015915,1590.4,0.00016162,1681.7,-3.5277e-05,202.38,-6.2242e-05,-0.23193,1.4294
23718,17.715,3.0909,0.1,0.00016636,1662.4,0.00016886,1753.8,-3.774e-05,201.54,-6.4599e-05,-0.26964,1.4167
23719,17.806,2.8182,0.1,0.00015855,1584.4,0.000161,1675.2,-3.52e-05,200.97,-6.1978e-05,-0.22652,1.4294
23720,17.715,2.9091,0.1,0.00016636,1662.4,0.00016886,1753.8,-3.774e-05,201.54,-6.4599e-05,-0.26964,1.4167
23721,17.806,2.6364,0.1,0.0001568,1566.9,0.00015921,1655.8,-3.5013e-05,196.45,-6.1187e-05,-0.2125,1.4294
23722,17.715,2.7273,0.1,0.00016494,1648.3,0.00016742,1738.7,-3.7462e-05,199.33,-6.4025e-05,-0.25622,1.4167
23723,17.806,2.4545,0.1,0.00015405,1539.4,0.00015638,1624.7,-3.4825e-05,188.08,-5.9883e-05,-0.19595,1.4293
23724,17.715,2.5455,0.1,0.00016222,1621.1,0.00016464,1709.3,-3.7017e-05,194.07,-6.2877e-05,-0.23442,1.4166
23725,17.806,2.2727,0.1,0.0001505,1504,0.00015271,1583.7,-3.4778e-05,175.03,-5.8097e-05,-0.18516,1.4292
23726,17.715,2.3636,0.1,0.00015842,1583.1,0.00016074,1667.1,-3.6591e-05,184.42,-6.1164e-05,-0.21466,1.4166
23727,17.806,2.0909,0.1,0.0001464,1463,0.00014843,1535,-3.4981e-05,156.93,-5.5892e-05,-0.18874,1.4291
23728,17.715,2.1818,0.1,0.00015382,1537.1,0.00015599,1614.6,-3.6379e-05,169.21,-5.8928e-05,-0.20995,1.4165
23729,17.806,1.9091,0.1,0.00014198,1418.8,0.00014378,1481,-3.5469e-05,134.22,-5.3361e-05,-0.21263,1.429
23730,17.715,2,0.1,0.00014872,1486.2,0.00015068,1554.6,-3.6503e-05,148.15,-5.6252e-05,-0.22816,1.4163
23731,17.806,1.7273,0.1,0.00013742,1373.3,0.00013894,1424.1,-3.6183e-05,108.27,-5.0628e-05,-0.25896,1.4289
23732,17.715,1.8182,0.1,0.00014338,1432.8,0.00014506,1489.9,-3.6955e-05,122.27,-5.3265e-05,-0.27437,1.4162
23733,17.806,1.5455,0.1,0.00013287,1327.8,0.00013406,1366.3,-3.6996e-05,81.072,-4.783e-05,-0.33205,1.4287
23734,17.715,1.6364,0.1,0.00013798,1378.9,0.00013933,1423.2,-3.7604e-05,93.755,-5.0129e-05,-0.35422,1.416
23735,17.806,1.3636,0.1,0.00012844,1283.5,0.00012927,1309.8,-3.7759e-05,54.738,-4.5105e-05,-0.45066,1.4285
23736,17.715,1.4545,0.1,0.00013267,1325.8,0.00013365,1357,-3.8264e-05,65.26,-4.7014e-05,-0.48218,1.4158
23737,17.806,1.1818,0.1,0.00012422,1241.3,0.0001247,1256.2,-3.8351e-05,31.077,-4.2579e-05,-0.68798,1.4283
23738,17.715,1.2727,0.1,0.00012755,1274.6,0.00012816,1293.4,-3.8768e-05,39.172,-4.4077e-05,-0.71979,1.4156
23739,17.806,1,0.1,0.00012031,1202.2,0.00012047,1207.3,-3.8648e-05,11.7,-4.0403e-05,-1.4895,1.428
23740,17.715,1.0909,0.1,0.00012275,1226.6,0.00012301,1234.5,-3.8986e-05,17.337,-4.1476e-05,-1.3757,1.4154
23741,17.806,0.81818,0.1,0.00011679,1167.1,0.0001167,1164.3,-3.8027e-05,1.7866,-3.9246e-05,-7.3736,1.4278
23742,17.715,0.90909,0.1,0.00011837,1182.9,0.00011834,1181.9,-3.8502e-05,3.4831,-3.9689e-05,-5.4361,1.4151
23743,17.806,0.63636,0.1,0.00011375,1136.8,0.00011346,1128.3,-3.6642e-05,0.51905,-3.8995e-05,-17.162,1.4275
23744,17.715,0.72727,0.1,0.00011454,1144.6,0.00011428,1137,-3.6935e-05,0.86941,-3.9169e-05,-15.917,1.4149
23745,17.806,0.45455,0.1,0.00011123,1111.5,0.00011083,1100,-3.5547e-05,0.2373,-3.8623e-05,-22.877,1.4272
23746,17.715,0.54545,0.1,0.00011133,1112.5,0.00011091,1100.7,-3.5531e-05,0.37075,-3.8721e-05,-23.601,1.4146
23747,17.806,0.27273,0.1,0.00010934,1092.6,0.00010891,1080.4,-3.4876e-05,0.093501,-3.8087e-05,-24.031,1.4268
23748,17.715,0.36364,0.1,0.00010876,1086.8,0.00010829,1073.5,-3.4555e-05,0.20541,-3.8101e-05,-26.436,1.4142
23749,17.715,0.18182,0.1,0.00010704,1069.7,0.00010659,1056.9,-3.4065e-05,0.019166,-3.7426e-05,-25.235,1.4139
23750,17.806,0.090909,0.1,0.00010709,1070.1,0.00010684,1063,-3.4645e-05,-0.047366,-3.6508e-05,-14.045,1.4265
23751,17.624,5.7273,0.1,0.00010648,1064.1,0.00010599,1050,-3.3744e-05,0.13006,-3.7457e-05,-27.766,1.4013
23752,17.533,5.8182,0.1,0.00010318,1031.1,0.00010266,1016.5,-3.2616e-05,0.04405,-3.6435e-05,-28.65,1.3883
23753,17.624,5.9091,0.1,0.00010376,1036.9,0.00010348,1028.8,-3.3455e-05,-0.048069,-3.5563e-05,-15.888,1.4009
23754,17.624,5.5455,0.1,0.00010888,1088.1,0.0001084,1074.3,-3.4543e-05,0.31179,-3.8222e-05,-27.332,1.4016
23755,17.533,5.6364,0.1,0.00010528,1052.1,0.00010474,1036.7,-3.321e-05,0.2762,-3.7271e-05,-30.238,1.3887
23756,17.624,5.3636,0.1,0.00011216,1120.8,0.00011177,1109.7,-3.5839e-05,0.60911,-3.8921e-05,-22.545,1.402
23757,17.533,5.4545,0.1,0.00010853,1084.6,0.00010803,1070.3,-3.4357e-05,0.48137,-3.8208e-05,-28.449,1.3891
23758,17.624,5.1818,0.1,0.00011618,1161,0.00011597,1155,-3.7554e-05,1.4882,-3.9523e-05,-13.309,1.4023
23759,17.533,5.2727,0.1,0.00011272,1126.4,0.00011234,1115.6,-3.6013e-05,0.94886,-3.9092e-05,-22.185,1.3894
23760,17.624,5,0.1,0.00012088,1208,0.00012094,1209.6,-3.9124e-05,6.9818,-4.0543e-05,-3.6801,1.4025
23761,17.533,5.0909,0.1,0.00011779,1177.1,0.00011762,1172.1,-3.8073e-05,2.3405,-3.9994e-05,-12.088,1.3897
23762,17.624,4.8182,0.1,0.00012616,1260.7,0.00012653,1272.2,-3.9496e-05,24.73,-4.2954e-05,-1.2543,1.4028
23763,17.533,4.9091,0.1,0.00012363,1235.5,0.00012375,1238.9,-3.9765e-05,10.334,-4.1594e-05,-3.4019,1.3899
23764,17.624,4.6364,0.1,0.00013186,1317.7,0.00013261,1341.2,-3.9352e-05,49.098,-4.5982e-05,-0.71812,1.403
23765,17.533,4.7273,0.1,0.0001301,1300.1,0.00013056,1314.4,-4.0305e-05,30.531,-4.4547e-05,-1.3448,1.3902
23766,17.624,4.4545,0.1,0.00013785,1377.6,0.000139,1414.4,-3.8947e-05,77.387,-4.9311e-05,-0.48849,1.4032
23767,17.533,4.5455,0.1,0.00013699,1369,0.00013786,1396.4,-4.0332e-05,57.506,-4.8091e-05,-0.78492,1.3904
23768,17.624,4.2727,0.1,0.000144,1439.1,0.00014552,1489.5,-3.8442e-05,107.26,-5.2765e-05,-0.35819,1.4034
23769,17.533,4.3636,0.1,0.00014415,1440.5,0.00014544,1482.4,-4.0082e-05,88.471,-5.1927e-05,-0.52477,1.3906
23770,17.624,4.0909,0.1,0.00015017,1500.7,0.00015202,1563.8,-3.8043e-05,135.8,-5.6155e-05,-0.28058,1.4036
23771,17.533,4.1818,0.1,0.00015141,1513.1,0.00015309,1569.4,-3.9791e-05,120.14,-5.583e-05,-0.37445,1.3908
23772,17.624,3.9091,0.1,0.00015618,1560.7,0.00015828,1634.5,-3.794e-05,160.15,-5.9287e-05,-0.24198,1.4037
23773,17.533,4,0.1,0.00015862,1585.1,0.00016062,1654,-3.9746e-05,148.54,-5.9554e-05,-0.28538,1.391
23774,17.624,3.7273,0.1,0.00016176,1616.4,0.00016404,1698.1,-3.8209e-05,178.48,-6.1994e-05,-0.23415,1.4038
23775,17.533,3.8182,0.1,0.00016552,1654.1,0.00016776,1732.6,-4.0153e-05,170.4,-6.2867e-05,-0.25437,1.3911
23776,17.624,3.5455,0.1,0.00016659,1664.7,0.000169,1751.6,-3.8774e-05,190.48,-6.4158e-05,-0.24981,1.4039
23777,17.533,3.6364,0.1,0.00017175,1716.3,0.00017414,1801,-4.1007e-05,184.44,-6.559e-05,-0.27064,1.3912
23778,17.624,3.3636,0.1,0.00017033,1702.1,0.00017282,1792,-3.9433e-05,197.2,-6.5715e-05,-0.27632,1.404
23779,17.533,3.4545,0.1,0.00017688,1767.6,0.00017935,1855.4,-4.2083e-05,191.65,-6.7631e-05,-0.30361,1.3913
23780,17.624,3.1818,0.1,0.0001727,1725.8,0.00017522,1817,-3.9951e-05,200.29,-6.6647e-05,-0.29835,1.404
23781,17.533,3.2727,0.1,0.00018053,1804,0.00018304,1893.1,-4.3054e-05,194.38,-6.8969e-05,-0.33516,1.3914
23782,17.624,3,0.1,0.00017351,1733.9,0.00017604,1825.5,-4.0145e-05,201.14,-6.6956e-05,-0.30659,1.404
23783,17.533,3.0909,0.1,0.00018241,1822.9,0.00018494,1912.4,-4.3624e-05,195.03,-6.9627e-05,-0.35385,1.3914
23784,17.624,2.8182,0.1,0.0001727,1725.8,0.00017522,1817,-3.9951e-05,200.29,-6.6647e-05,-0.29835,1.404
23785,17.533,2.9091,0.1,0.00018241,1822.9,0.00018494,1912.4,-4.3624e-05,195.03,-6.9627e-05,-0.35385,1.3914
23786,17.624,2.6364,0.1,0.00017033,1702.1,0.00017282,1792,-3.9433e-05,197.2,-6.5715e-05,-0.27632,1.404
23787,17.533,2.7273,0.1,0.00018053,1804,0.00018304,1893.1,-4.3054e-05,194.38,-6.8969e-05,-0.33516,1.3914
23788,17.624,2.4545,0.1,0.00016659,1664.7,0.000169,1751.6,-3.8774e-05,190.48,-6.4158e-05,-0.24981,1.4039
23789,17.533,2.5455,0.1,0.00017688,1767.6,0.00017935,1855.4,-4.2083e-05,191.65,-6.7631e-05,-0.30361,1.3913
23790,17.624,2.2727,0.1,0.00016176,1616.4,0.00016404,1698.1,-3.8209e-05,178.48,-6.1994e-05,-0.23415,1.4038
23791,17.533,2.3636,0.1,0.00017175,1716.3,0.00017414,1801,-4.1007e-05,184.44,-6.559e-05,-0.27064,1.3912
23792,17.624,2.0909,0.1,0.00015618,1560.7,0.00015828,1634.5,-3.794e-05,160.15,-5.9287e-05,-0.24198,1.4037
23793,17.533,2.1818,0.1,0.00016552,1654.1,0.00016776,1732.6,-4.0153e-05,170.4,-6.2867e-05,-0.25437,1.3911
23794,17.624,1.9091,0.1,0.00015017,1500.7,0.00015202,1563.8,-3.8043e-05,135.8,-5.6155e-05,-0.28058,1.4036
23795,17.533,2,0.1,0.00015862,1585.1,0.00016062,1654,-3.9746e-05,148.54,-5.9554e-05,-0.28538,1.391
23796,17.624,1.7273,0.1,0.000144,1439.1,0.00014552,1489.5,-3.8442e-05,107.26,-5.2765e-05,-0.35819,1.4034
23797,17.533,1.8182,0.1,0.00015141,1513.1,0.00015309,1569.4,-3.9791e-05,120.14,-5.583e-05,-0.37445,1.3908
23798,17.624,1.5455,0.1,0.00013785,1377.6,0.000139,1414.4,-3.8947e-05,77.387,-4.9311e-05,-0.48849,1.4032
23799,17.533,1.6364,0.1,0.00014415,1440.5,0.00014544,1482.4,-4.0082e-05,88.471,-5.1927e-05,-0.52477,1.3906
23800,17.624,1.3636,0.1,0.00013186,1317.7,0.00013261,1341.2,-3.9352e-05,49.098,-4.5982e-05,-0.71811,1.403
23801,17.533,1.4545,0.1,0.00013699,1369,0.00013786,1396.4,-4.0332e-05,57.506,-4.8091e-05,-0.78492,1.3904
23802,17.624,1.1818,0.1,0.00012616,1260.7,0.00012653,1272.2,-3.9496e-05,24.73,-4.2954e-05,-1.2543,1.4028
23803,17.533,1.2727,0.1,0.0001301,1300.1,0.00013056,1314.4,-4.0305e-05,30.531,-4.4547e-05,-1.3448,1.3902
23804,17.624,1,0.1,0.00012088,1208,0.00012094,1209.6,-3.9124e-05,6.9818,-4.0543e-05,-3.68,1.4025
23805,17.533,1.0909,0.1,0.00012363,1235.5,0.00012375,1238.9,-3.9765e-05,10.334,-4.1594e-05,-3.4018,1.3899
23806,17.624,0.81818,0.1,0.00011618,1161,0.00011597,1155,-3.7554e-05,1.4882,-3.9523e-05,-13.309,1.4023
23807,17.533,0.90909,0.1,0.00011779,1177.1,0.00011762,1172.1,-3.8073e-05,2.3405,-3.9994e-05,-12.088,1.3897
23808,17.624,0.63636,0.1,0.00011216,1120.8,0.00011177,1109.7,-3.5839e-05,0.60911,-3.8921e-05,-22.545,1.402
23809,17.533,0.72727,0.1,0.00011272,1126.4,0.00011234,1115.6,-3.6013e-05,0.94886,-3.9092e-05,-22.185,1.3894
23810,17.624,0.45455,0.1,0.00010888,1088.1,0.0001084,1074.3,-3.4543e-05,0.31179,-3.8222e-05,-27.332,1.4016
23811,17.533,0.54545,0.1,0.00010853,1084.6,0.00010803,1070.3,-3.4357e-05,0.48137,-3.8208e-05,-28.449,1.3891
23812,17.624,0.27273,0.1,0.00010648,1064.1,0.00010599,1050,-3.3744e-05,0.13006,-3.7457e-05,-27.766,1.4013
23813,17.533,0.36364,0.1,0.00010528,1052.1,0.00010474,1036.7,-3.321e-05,0.2762,-3.7271e-05,-30.238,1.3887
23814,17.533,0.18182,0.1,0.00010318,1031.1,0.00010266,1016.5,-3.2616e-05,0.044051,-3.6435e-05,-28.65,1.3883
23815,17.624,0.090909,0.1,0.00010376,1036.9,0.00010348,1028.8,-3.3455e-05,-0.048069,-3.5563e-05,-15.888,1.4009
23816,17.442,5.7273,0.1,0.00010201,1019.3,0.00010144,1003.4,-3.2081e-05,0.19397,-3.6278e-05,-31.339,1.3758
23817,17.351,5.8182,0.1,9.7548e-05,974.81,9.6968e-05,958.52,-3.0589e-05,0.10468,-3.4848e-05,-31.891,1.3629
23818,17.442,5.9091,0.1,9.8757e-05,986.89,9.8443e-05,977.9,-3.1714e-05,-0.051103,-3.4061e-05,-17.685,1.3754
23819,17.442,5.5455,0.1,0.00010498,1049.1,0.00010441,1033.1,-3.3027e-05,0.42397,-3.7296e-05,-31.652,1.3762
23820,17.351,5.6364,0.1,0.00010005,999.76,9.944e-05,982.8,-3.1311e-05,0.38801,-3.5815e-05,-33.451,1.3633
23821,17.442,5.3636,0.1,0.00010917,1091,0.00010867,1076.8,-3.4541e-05,0.74622,-3.8437e-05,-28.524,1.3765
23822,17.351,5.4545,0.1,0.00010411,1040.4,0.00010352,1023.7,-3.2644e-05,0.64712,-3.7153e-05,-33.237,1.3636
23823,17.442,5.1818,0.1,0.00011443,1143.5,0.00011408,1133.4,-3.6584e-05,1.4137,-3.9606e-05,-21.29,1.3768
23824,17.351,5.2727,0.1,0.0001095,1094.3,0.00010898,1079.6,-3.4561e-05,1.0835,-3.8663e-05,-29.735,1.364
23825,17.442,5,0.1,0.00012067,1205.9,0.00012054,1202.3,-3.8989e-05,3.6279,-4.0886e-05,-10.624,1.3771
23826,17.351,5.0909,0.1,0.00011615,1160.7,0.00011578,1150.1,-3.7044e-05,1.8978,-4.0305e-05,-22.604,1.3643
23827,17.442,4.8182,0.1,0.00012772,1276.3,0.00012791,1282,-4.0754e-05,14.783,-4.3136e-05,-3.1145,1.3774
23828,17.351,4.9091,0.1,0.0001239,1238.2,0.00012377,1234.4,-3.9922e-05,4.4627,-4.21e-05,-11.899,1.3646
23829,17.442,4.6364,0.1,0.00013537,1352.7,0.00013595,1370.6,-4.1423e-05,37.904,-4.6649e-05,-1.3624,1.3776
23830,17.351,4.7273,0.1,0.00013253,1324.4,0.00013274,1330.6,-4.2173e-05,16.422,-4.4859e-05,-3.762,1.3648
23831,17.442,4.4545,0.1,0.00014341,1433.1,0.00014443,1465.3,-4.1594e-05,67.642,-5.0703e-05,-0.79908,1.3779
23832,17.351,4.5455,0.1,0.00014177,1416.7,0.00014241,1436.4,-4.3185e-05,41.921,-4.8979e-05,-1.6109,1.3651
23833,17.442,4.2727,0.1,0.00015167,1515.6,0.00015312,1563.1,-4.1542e-05,100.51,-5.4989e-05,-0.52285,1.3781
23834,17.351,4.3636,0.1,0.00015136,1512.6,0.00015248,1548.2,-4.3579e-05,75.127,-5.37e-05,-0.91452,1.3653
23835,17.442,4.0909,0.1,0.00015995,1598.4,0.00016178,1660.2,-4.1584e-05,132.21,-5.9228e-05,-0.36337,1.3782
23836,17.351,4.1818,0.1,0.0001611,1609.9,0.00016269,1662.1,-4.3781e-05,110.8,-5.8605e-05,-0.57736,1.3655
23837,17.442,3.9091,0.1,0.00016803,1679.2,0.00017016,1752.6,-4.2021e-05,158.34,-6.3132e-05,-0.28516,1.3784
23838,17.351,4,0.1,0.00017079,1706.7,0.00017275,1773.2,-4.4277e-05,142.56,-6.3308e-05,-0.42401,1.3657
23839,17.442,3.7273,0.1,0.00017555,1754.3,0.00017787,1835.5,-4.2974e-05,176.19,-6.6461e-05,-0.28247,1.3785
23840,17.351,3.8182,0.1,0.00018006,1799.3,0.00018229,1876,-4.5424e-05,165.02,-6.7435e-05,-0.36288,1.3659
23841,17.442,3.5455,0.1,0.00018203,1819,0.00018447,1904.6,-4.4295e-05,185.77,-6.9062e-05,-0.32009,1.3786
23842,17.351,3.6364,0.1,0.00018839,1882.6,0.00019076,1964.4,-4.72e-05,176.45,-7.0731e-05,-0.35093,1.366
23843,17.442,3.3636,0.1,0.00018702,1868.9,0.00018951,1956.1,-4.5641e-05,189.31,-7.0885e-05,-0.3608,1.3787
23844,17.351,3.4545,0.1,0.00019516,1950.3,0.00019758,2033.5,-4.9207e-05,179.19,-7.3108e-05,-0.39425,1.3661
23845,17.442,3.1818,0.1,0.00019015,1900.2,0.00019266,1987.8,-4.6633e-05,189.83,-7.1949e-05,-0.39016,1.3788
23846,17.351,3.2727,0.1,0.0001999,1997.6,0.00020232,2080.3,-5.0908e-05,177.62,-7.4605e-05,-0.43642,1.3661
23847,17.442,3,0.1,0.00019122,1910.9,0.00019373,1998.4,-4.6996e-05,189.7,-7.2298e-05,-0.40084,1.3788
23848,17.351,3.0909,0.1,0.00020232,2021.8,0.00020473,2103.7,-5.187e-05,175.73,-7.5318e-05,-0.45458,1.3662
23849,17.442,2.8182,0.1,0.00019015,1900.2,0.00019266,1987.8,-4.6633e-05,189.83,-7.1949e-05,-0.39016,1.3788
23850,17.351,2.9091,0.1,0.00020232,2021.8,0.00020473,2103.7,-5.187e-05,175.73,-7.5318e-05,-0.45458,1.3662
23851,17.442,2.6364,0.1,0.00018702,1868.9,0.00018951,1956.1,-4.5641e-05,189.31,-7.0885e-05,-0.3608,1.3787
23852,17.351,2.7273,0.1,0.0001999,1997.6,0.00020232,2080.3,-5.0908e-05,177.62,-7.4605e-05,-0.43642,1.3661
23853,17.442,2.4545,0.1,0.00018203,1819,0.00018447,1904.6,-4.4295e-05,185.77,-6.9062e-05,-0.32009,1.3786
23854,17.351,2.5455,0.1,0.00019516,1950.3,0.00019758,2033.5,-4.9207e-05,179.19,-7.3108e-05,-0.39425,1.3661
23855,17.442,2.2727,0.1,0.00017555,1754.3,0.00017787,1835.5,-4.2974e-05,176.19,-6.6461e-05,-0.28247,1.3785
23856,17.351,2.3636,0.1,0.00018839,1882.6,0.00019076,1964.4,-4.72e-05,176.45,-7.0731e-05,-0.35094,1.366
23857,17.442,2.0909,0.1,0.00016803,1679.2,0.00017016,1752.6,-4.2021e-05,158.34,-6.3132e-05,-0.28516,1.3784
23858,17.351,2.1818,0.1,0.00018006,1799.3,0.00018229,1876,-4.5424e-05,165.02,-6.7435e-05,-0.36288,1.3659
23859,17.442,1.9091,0.1,0.00015995,1598.4,0.00016178,1660.2,-4.1584e-05,132.21,-5.9228e-05,-0.36337,1.3782
23860,17.351,2,0.1,0.00017079,1706.7,0.00017275,1773.2,-4.4277e-05,142.56,-6.3308e-05,-0.42401,1.3657
23861,17.442,1.7273,0.1,0.00015167,1515.6,0.00015312,1563.1,-4.1542e-05,100.51,-5.4989e-05,-0.52285,1.3781
23862,17.351,1.8182,0.1,0.0001611,1609.9,0.00016269,1662.1,-4.3781e-05,110.8,-5.8605e-05,-0.57736,1.3655
23863,17.442,1.5455,0.1,0.00014341,1433.1,0.00014443,1465.3,-4.1594e-05,67.642,-5.0703e-05,-0.79908,1.3779
23864,17.351,1.6364,0.1,0.00015136,1512.6,0.00015248,1548.2,-4.3579e-05,75.127,-5.37e-05,-0.91452,1.3653
23865,17.442,1.3636,0.1,0.00013537,1352.7,0.00013595,1370.6,-4.1423e-05,37.904,-4.6649e-05,-1.3624,1.3776
23866,17.351,1.4545,0.1,0.00014177,1416.7,0.00014241,1436.4,-4.3185e-05,41.921,-4.8979e-05,-1.6109,1.3651
23867,17.442,1.1818,0.1,0.00012772,1276.3,0.00012791,1282,-4.0754e-05,14.783,-4.3136e-05,-3.1145,1.3774
23868,17.351,1.2727,0.1,0.00013253,1324.4,0.00013274,1330.6,-4.2173e-05,16.422,-4.4859e-05,-3.762,1.3648
23869,17.442,1,0.1,0.00012067,1205.9,0.00012054,1202.3,-3.8989e-05,3.6279,-4.0886e-05,-10.624,1.3771
23870,17.351,1.0909,0.1,0.0001239,1238.2,0.00012377,1234.4,-3.9922e-05,4.4627,-4.21e-05,-11.899,1.3646
23871,17.442,0.81818,0.1,0.00011443,1143.5,0.00011408,1133.4,-3.6584e-05,1.4137,-3.9606e-05,-21.29,1.3768
23872,17.351,0.90909,0.1,0.00011615,1160.7,0.00011578,1150.1,-3.7044e-05,1.8978,-4.0305e-05,-22.604,1.3643
23873,17.442,0.63636,0.1,0.00010917,1091,0.00010867,1076.8,-3.4541e-05,0.74622,-3.8437e-05,-28.524,1.3765
23874,17.351,0.72727,0.1,0.0001095,1094.3,0.00010898,1079.6,-3.4561e-05,1.0835,-3.8663e-05,-29.735,1.364
23875,17.442,0.45455,0.1,0.00010498,1049.1,0.00010441,1033.1,-3.3027e-05,0.42397,-3.7296e-05,-31.652,1.3762
23876,17.351,0.54545,0.1,0.00010411,1040.4,0.00010352,1023.7,-3.2644e-05,0.64712,-3.7153e-05,-33.237,1.3636
23877,17.442,0.27273,0.1,0.00010201,1019.3,0.00010144,1003.4,-3.2081e-05,0.19397,-3.6278e-05,-31.339,1.3758
23878,17.351,0.36364,0.1,0.00010005,999.76,9.944e-05,982.8,-3.1311e-05,0.38801,-3.5815e-05,-33.451,1.3633
23879,17.351,0.18182,0.1,9.7548e-05,974.81,9.6968e-05,958.52,-3.0589e-05,0.10468,-3.4848e-05,-31.891,1.3629
23880,17.442,0.090909,0.1,9.8757e-05,986.89,9.8443e-05,977.9,-3.1714e-05,-0.051103,-3.4061e-05,-17.685,1.3754
23881,17.26,5.7273,0.1,9.5637e-05,955.71,9.5011e-05,938.23,-2.9818e-05,0.31224,-3.4429e-05,-34.337,1.3504
23882,17.169,5.8182,0.1,8.9906e-05,898.44,8.9272e-05,880.79,-2.7921e-05,0.24905,-3.255e-05,-34.533,1.3375
23883,17.26,5.9091,0.1,9.1825e-05,917.62,9.1483e-05,907.84,-2.9352e-05,-0.059469,-3.1898e-05,-19.192,1.35
23884,17.26,5.5455,0.1,9.9258e-05,991.89,9.8615e-05,973.94,-3.0929e-05,0.59917,-3.5736e-05,-35.52,1.3507
23885,17.169,5.6364,0.1,9.2812e-05,927.47,9.2163e-05,909.44,-2.8798e-05,0.58829,-3.3614e-05,-35.598,1.3379
23886,17.26,5.3636,0.1,0.00010458,1045,0.00010394,1027.4,-3.2669e-05,0.94037,-3.7487e-05,-35.259,1.3511
23887,17.169,5.4545,0.1,9.7859e-05,977.91,9.7171e-05,958.83,-3.0321e-05,0.90406,-3.5487e-05,-37.909,1.3383
23888,17.26,5.1818,0.1,0.00011141,1113.3,0.00011084,1097.5,-3.5038e-05,1.438,-3.9509e-05,-32.157,1.3514
23889,17.169,5.2727,0.1,0.00010475,1046.8,0.00010404,1027.1,-3.2494e-05,1.2698,-3.7894e-05,-39.302,1.3386
23890,17.26,5,0.1,0.00011961,1195.3,0.0001192,1183.7,-3.8026e-05,2.3613,-4.1675e-05,-25.05,1.3518
23891,17.169,5.0909,0.1,0.00011339,1133.1,0.00011271,1114.2,-3.5353e-05,1.7289,-4.0696e-05,-38.423,1.339
23892,17.26,4.8182,0.1,0.00012897,1288.8,0.00012882,1284.6,-4.1452e-05,5.276,-4.394e-05,-13.422,1.3521
23893,17.169,4.9091,0.1,0.00012358,1235,0.00012303,1219.4,-3.8929e-05,2.5267,-4.3644e-05,-32.9,1.3393
23894,17.26,4.6364,0.1,0.00013918,1390.9,0.00013942,1398.1,-4.4136e-05,18.929,-4.7214e-05,-4.1935,1.3523
23895,17.169,4.7273,0.1,0.00013504,1349.5,0.00013476,1341.4,-4.3142e-05,4.7559,-4.6514e-05,-20.585,1.3396
23896,17.26,4.4545,0.1,0.00014994,1498.4,0.00015067,1520.8,-4.5376e-05,47.86,-5.1976e-05,-1.7297,1.3526
23897,17.169,4.5455,0.1,0.0001474,1472.9,0.00014755,1477.7,-4.6951e-05,16.275,-4.9992e-05,-6.5745,1.3399
23898,17.26,4.2727,0.1,0.00016099,1608.7,0.00016223,1648.6,-4.5998e-05,84.07,-5.7312e-05,-0.9415,1.3528
23899,17.169,4.3636,0.1,0.00016025,1601.4,0.00016098,1623.9,-4.8711e-05,48.42,-5.5439e-05,-2.1344,1.3401
23900,17.26,4.0909,0.1,0.00017208,1719.6,0.0001738,1776.2,-4.6617e-05,120.1,-6.2682e-05,-0.60751,1.353
23901,17.169,4.1818,0.1,0.00017332,1732,0.00017464,1774.4,-4.9618e-05,89.384,-6.1648e-05,-1.0024,1.3403
23902,17.26,3.9091,0.1,0.00018291,1827.8,0.00018497,1897.3,-4.7771e-05,148.56,-6.7608e-05,-0.47733,1.3532
23903,17.169,4,0.1,0.00018631,1861.9,0.00018813,1921.6,-5.0788e-05,126.44,-6.7679e-05,-0.4706,1.3405
23904,17.26,3.7273,0.1,0.00019293,1928,0.0001952,2005,-4.9675e-05,165.1,-7.1703e-05,-0.41681,1.3533
23905,17.169,3.8182,0.1,0.00019874,1986,0.00020085,2056.4,-5.2929e-05,149.57,-7.288e-05,-0.33606,1.3407
23906,17.26,3.5455,0.1,0.00020147,2013.4,0.00020382,2092.8,-5.206e-05,170.26,-7.4776e-05,-0.4199,1.3535
23907,17.169,3.6364,0.1,0.00020973,2095.8,0.00021194,2169.3,-5.5987e-05,156.23,-7.6845e-05,-0.48684,1.3409
23908,17.26,3.3636,0.1,0.00020793,2077.9,0.00021027,2156.7,-5.4352e-05,168.4,-7.6828e-05,-0.46971,1.3536
23909,17.169,3.4545,0.1,0.00021839,2182.4,0.00022056,2253.9,-5.9243e-05,151.6,-7.9491e-05,-0.54046,1.341
23910,17.26,3.1818,0.1,0.00021191,2117.6,0.00021422,2194.9,-5.5977e-05,164.77,-7.7974e-05,-0.50147,1.3536
23911,17.169,3.2727,0.1,0.00022421,2240.6,0.0002263,2308.6,-6.1859e-05,143.48,-8.1029e-05,-0.55772,1.3411
23912,17.26,3,0.1,0.00021325,2131,0.00021554,2207.6,-5.656e-05,163.13,-7.8339e-05,-0.50858,1.3536
23913,17.169,3.0909,0.1,0.0002271,2269.4,0.00022912,2335,-6.3283e-05,137.96,-8.1718e-05,-0.55963,1.3411
23914,17.26,2.8182,0.1,0.00021191,2117.6,0.00021422,2194.9,-5.5977e-05,164.77,-7.7974e-05,-0.50147,1.3536
23915,17.169,2.9091,0.1,0.0002271,2269.4,0.00022912,2335,-6.3283e-05,137.96,-8.1718e-05,-0.55963,1.3411
23916,17.26,2.6364,0.1,0.00020793,2077.9,0.00021027,2156.7,-5.4352e-05,168.4,-7.6828e-05,-0.46971,1.3536
23917,17.169,2.7273,0.1,0.00022421,2240.6,0.0002263,2308.6,-6.1859e-05,143.48,-8.1029e-05,-0.55772,1.3411
23918,17.26,2.4545,0.1,0.00020147,2013.4,0.00020382,2092.8,-5.206e-05,170.26,-7.4776e-05,-0.4199,1.3535
23919,17.169,2.5455,0.1,0.00021839,2182.4,0.00022056,2253.9,-5.9243e-05,151.6,-7.9491e-05,-0.54046,1.341
23920,17.26,2.2727,0.1,0.00019293,1928,0.0001952,2005,-4.9675e-05,165.1,-7.1703e-05,-0.41681,1.3533
23921,17.169,2.3636,0.1,0.00020973,2095.8,0.00021194,2169.3,-5.5987e-05,156.23,-7.6845e-05,-0.48684,1.3409
23922,17.26,2.0909,0.1,0.00018291,1827.8,0.00018497,1897.3,-4.7771e-05,148.56,-6.7608e-05,-0.47733,1.3532
23923,17.169,2.1818,0.1,0.00019874,1986,0.00020085,2056.4,-5.2929e-05,149.57,-7.288e-05,-0.33606,1.3407
23924,17.26,1.9091,0.1,0.00017208,1719.6,0.0001738,1776.2,-4.6617e-05,120.1,-6.2682e-05,-0.60751,1.353
23925,17.169,2,0.1,0.00018631,1861.9,0.00018813,1921.6,-5.0788e-05,126.44,-6.7679e-05,-0.4706,1.3405
23926,17.26,1.7273,0.1,0.00016099,1608.7,0.00016223,1648.6,-4.5998e-05,84.07,-5.7312e-05,-0.9415,1.3528
23927,17.169,1.8182,0.1,0.00017332,1732,0.00017465,1774.4,-4.9618e-05,89.384,-6.1648e-05,-1.0024,1.3403
23928,17.26,1.5455,0.1,0.00014994,1498.4,0.00015067,1520.8,-4.5376e-05,47.86,-5.1976e-05,-1.7297,1.3526
23929,17.169,1.6364,0.1,0.00016025,1601.4,0.00016098,1623.9,-4.8711e-05,48.42,-5.5439e-05,-2.1344,1.3401
23930,17.26,1.3636,0.1,0.00013918,1390.9,0.00013942,1398.1,-4.4136e-05,18.929,-4.7214e-05,-4.1935,1.3523
23931,17.169,1.4545,0.1,0.0001474,1472.9,0.00014755,1477.7,-4.6951e-05,16.275,-4.9992e-05,-6.5745,1.3399
23932,17.26,1.1818,0.1,0.00012897,1288.8,0.00012882,1284.6,-4.1452e-05,5.276,-4.394e-05,-13.422,1.3521
23933,17.169,1.2727,0.1,0.00013504,1349.5,0.00013476,1341.4,-4.3142e-05,4.7559,-4.6514e-05,-20.585,1.3396
23934,17.26,1,0.1,0.00011961,1195.3,0.0001192,1183.7,-3.8026e-05,2.3614,-4.1675e-05,-25.05,1.3518
23935,17.169,1.0909,0.1,0.00012358,1235,0.00012303,1219.4,-3.8929e-05,2.5267,-4.3644e-05,-32.9,1.3393
23936,17.26,0.81818,0.1,0.00011141,1113.3,0.00011084,1097.5,-3.5038e-05,1.438,-3.9509e-05,-32.157,1.3514
23937,17.169,0.90909,0.1,0.00011339,1133.1,0.00011271,1114.2,-3.5353e-05,1.7289,-4.0696e-05,-38.423,1.339
23938,17.26,0.63636,0.1,0.00010458,1045,0.00010394,1027.4,-3.2669e-05,0.94037,-3.7487e-05,-35.259,1.3511
23939,17.169,0.72727,0.1,0.00010475,1046.8,0.00010404,1027.1,-3.2494e-05,1.2698,-3.7894e-05,-39.302,1.3386
23940,17.26,0.45455,0.1,9.9258e-05,991.89,9.8615e-05,973.94,-3.0929e-05,0.59918,-3.5736e-05,-35.52,1.3507
23941,17.169,0.54545,0.1,9.7859e-05,977.91,9.7171e-05,958.83,-3.0321e-05,0.90406,-3.5487e-05,-37.909,1.3383
23942,17.26,0.27273,0.1,9.5637e-05,955.71,9.5011e-05,938.23,-2.9818e-05,0.31224,-3.4429e-05,-34.337,1.3504
23943,17.169,0.36364,0.1,9.2812e-05,927.47,9.2163e-05,909.44,-2.8798e-05,0.5883,-3.3614e-05,-35.598,1.3379
23944,17.169,0.18182,0.1,8.9906e-05,898.44,8.9272e-05,880.79,-2.7921e-05,0.24905,-3.255e-05,-34.533,1.3375
23945,17.26,0.090909,0.1,9.1825e-05,917.62,9.1483e-05,907.84,-2.9352e-05,-0.059468,-3.1898e-05,-19.192,1.35
23946,17.078,5.7273,0.1,8.7149e-05,870.89,8.6483e-05,852.45,-2.6896e-05,0.55921,-3.1799e-05,-36.277,1.325
23947,16.986,5.8182,0.1,8.0048e-05,799.93,7.9381e-05,781.56,-2.4563e-05,0.55949,-2.9434e-05,-36.044,1.3121
23948,17.078,5.9091,0.1,8.2741e-05,826.84,8.238e-05,816.6,-2.631e-05,-0.05827,-2.8971e-05,-20.052,1.3246
23949,17.078,5.5455,0.1,9.1532e-05,914.69,9.0824e-05,895.11,-2.8189e-05,0.89948,-3.3469e-05,-38.772,1.3254
23950,16.986,5.6364,0.1,8.342e-05,833.62,8.2755e-05,815.29,-2.5625e-05,0.96042,-3.0595e-05,-36.382,1.3126
23951,17.078,5.3636,0.1,9.8255e-05,981.87,9.7461e-05,960.02,-3.0149e-05,1.2136,-3.6084e-05,-43.383,1.3258
23952,16.986,5.4545,0.1,8.9708e-05,896.46,8.8917e-05,874.78,-2.734e-05,1.2775,-3.3233e-05,-42.996,1.3129
23953,17.078,5.1818,0.1,0.00010706,1069.9,0.00010619,1046,-3.2814e-05,1.523,-3.9362e-05,-47.677,1.3261
23954,16.986,5.2727,0.1,9.8494e-05,984.26,9.7513e-05,957.58,-2.9737e-05,1.4724,-3.6935e-05,-52.607,1.3133
23955,17.078,5,0.1,0.00011778,1176.9,0.00011689,1152.6,-3.6252e-05,1.9202,-4.3027e-05,-48.98,1.3265
23956,16.986,5.0909,0.1,0.00010962,1095.5,0.00010844,1063.6,-3.2889e-05,1.6588,-4.1441e-05,-62.597,1.3137
23957,17.078,4.8182,0.1,0.00013011,1300.2,0.00012936,1279.1,-4.0536e-05,2.6334,-4.6693e-05,-43.625,1.3268
23958,16.986,4.9091,0.1,0.00012288,1227.9,0.00012159,1192.9,-3.6925e-05,1.9398,-4.6352e-05,-68.889,1.314
23959,17.078,4.6364,0.1,0.0001437,1436,0.00014327,1423.9,-4.5621e-05,4.6184,-5.0009e-05,-28.349,1.3271
23960,16.986,4.7273,0.1,0.00013798,1378.8,0.00013677,1345.7,-4.2004e-05,2.505,-5.1142e-05,-66.155,1.3144
23961,17.078,4.4545,0.1,0.00015809,1579.8,0.0001582,1583.3,-5.0425e-05,15.789,-5.3654e-05,-8.4698,1.3274
23962,16.986,4.5455,0.1,0.0001545,1543.9,0.00015366,1520.7,-4.8213e-05,3.9064,-5.5242e-05,-48.905,1.3147
23963,17.078,4.2727,0.1,0.00017289,1727.7,0.00017367,1751.8,-5.2603e-05,51.693,-5.9779e-05,-2.224,1.3277
23964,16.986,4.3636,0.1,0.0001719,1717.8,0.00017175,1713.8,-5.4956e-05,10.455,-5.8739e-05,-17.968,1.315
23965,17.078,4.0909,0.1,0.00018778,1876.5,0.00018918,1921.3,-5.4003e-05,94.127,-6.6636e-05,-0.7963,1.3279
23966,16.986,4.1818,0.1,0.00018958,1894.5,0.00019029,1916.3,-5.8396e-05,47.766,-6.5179e-05,-3.1957,1.3153
23967,17.078,3.9091,0.1,0.00020228,2021.4,0.00020413,2081.5,-5.6067e-05,126.53,-7.2944e-05,-0.27237,1.3281
23968,16.986,4,0.1,0.00020724,2070.9,0.00020864,2115.3,-6.0436e-05,93.576,-7.3103e-05,-1.6001,1.3155
23969,17.078,3.7273,0.1,0.00021555,2154,0.00021759,2220.7,-5.9244e-05,140.69,-7.8018e-05,-0.3776,1.3283
23970,16.986,3.8182,0.1,0.0002239,2237.5,0.00022565,2293.6,-6.3866e-05,118.29,-7.9766e-05,-1.1666,1.3157
23971,17.078,3.5455,0.1,0.00022653,2263.7,0.00022855,2329.5,-6.3045e-05,138.51,-8.156e-05,-0.60546,1.3284
23972,16.986,3.6364,0.1,0.00023801,2378.5,0.00023978,2434.6,-6.8637e-05,117.33,-8.4336e-05,-0.63184,1.3159
23973,17.078,3.3636,0.1,0.00023445,2342.9,0.00023636,2404.1,-6.6524e-05,128.37,-8.3693e-05,-0.63669,1.3286
23974,16.986,3.4545,0.1,0.00024837,2482,0.00024993,2530.8,-7.3378e-05,101.62,-8.7013e-05,-0.82122,1.316
23975,17.078,3.1818,0.1,0.00023913,2389.6,0.00024091,2446.5,-6.8882e-05,118.79,-8.4774e-05,-0.61934,1.3286
23976,16.986,3.2727,0.1,0.00025474,2545.7,0.00025607,2586.7,-7.6898e-05,84.917,-8.8297e-05,-0.73307,1.3161
23977,17.078,3,0.1,0.00024066,2404.9,0.0002424,2460,-6.9705e-05,115.05,-8.5098e-05,-0.6095,1.3286
23978,16.986,3.0909,0.1,0.00025769,2575.1,0.00025887,2611.5,-7.8701e-05,75.127,-8.8784e-05,-0.6317,1.3162
23979,17.078,2.8182,0.1,0.00023913,2389.6,0.00024091,2446.5,-6.8882e-05,118.79,-8.4774e-05,-0.61934,1.3286
23980,16.986,2.9091,0.1,0.00025769,2575.1,0.00025887,2611.5,-7.8701e-05,75.127,-8.8784e-05,-0.6317,1.3162
23981,17.078,2.6364,0.1,0.00023445,2342.9,0.00023636,2404.1,-6.6524e-05,128.37,-8.3693e-05,-0.63669,1.3286
23982,16.986,2.7273,0.1,0.00025474,2545.7,0.00025607,2586.7,-7.6898e-05,84.917,-8.8297e-05,-0.73307,1.3161
23983,17.078,2.4545,0.1,0.00022653,2263.7,0.00022855,2329.5,-6.3045e-05,138.51,-8.156e-05,-0.60546,1.3284
23984,16.986,2.5455,0.1,0.00024837,2482,0.00024993,2530.8,-7.3378e-05,101.62,-8.7013e-05,-0.82122,1.316
23985,17.078,2.2727,0.1,0.00021555,2154,0.00021759,2220.7,-5.9244e-05,140.69,-7.8018e-05,-0.3776,1.3283
23986,16.986,2.3636,0.1,0.00023801,2378.5,0.00023978,2434.6,-6.8637e-05,117.33,-8.4336e-05,-0.63184,1.3159
23987,17.078,2.0909,0.1,0.00020228,2021.4,0.00020413,2081.5,-5.6068e-05,126.53,-7.2944e-05,-0.27237,1.3281
23988,16.986,2.1818,0.1,0.0002239,2237.5,0.00022565,2293.6,-6.3866e-05,118.29,-7.9766e-05,-1.1666,1.3157
23989,17.078,1.9091,0.1,0.00018778,1876.5,0.00018919,1921.3,-5.4003e-05,94.127,-6.6636e-05,-0.7963,1.3279
23990,16.986,2,0.1,0.00020724,2070.9,0.00020864,2115.3,-6.0436e-05,93.576,-7.3103e-05,-1.6001,1.3155
23991,17.078,1.7273,0.1,0.00017289,1727.7,0.00017367,1751.8,-5.2603e-05,51.693,-5.9779e-05,-2.224,1.3277
23992,16.986,1.8182,0.1,0.00018958,1894.5,0.00019029,1916.3,-5.8396e-05,47.766,-6.5179e-05,-3.1957,1.3153
23993,17.078,1.5455,0.1,0.00015809,1579.8,0.0001582,1583.3,-5.0425e-05,15.789,-5.3654e-05,-8.4698,1.3274
23994,16.986,1.6364,0.1,0.0001719,1717.8,0.00017175,1713.8,-5.4956e-05,10.455,-5.8739e-05,-17.968,1.315
23995,17.078,1.3636,0.1,0.0001437,1436,0.00014327,1423.9,-4.5621e-05,4.6184,-5.0009e-05,-28.349,1.3271
23996,16.986,1.4545,0.1,0.0001545,1543.9,0.00015366,1520.7,-4.8213e-05,3.9064,-5.5242e-05,-48.905,1.3147
23997,17.078,1.1818,0.1,0.00013011,1300.2,0.00012936,1279.1,-4.0536e-05,2.6334,-4.6693e-05,-43.625,1.3268
23998,16.986,1.2727,0.1,0.00013798,1378.8,0.00013677,1345.7,-4.2004e-05,2.505,-5.1142e-05,-66.155,1.3144
23999,17.078,1,0.1,0.00011778,1176.9,0.00011689,1152.6,-3.6252e-05,1.9202,-4.3027e-05,-48.98,1.3265
24000,16.986,1.0909,0.1,0.00012288,1227.9,0.00012159,1192.9,-3.6925e-05,1.9398,-4.6352e-05,-68.889,1.314
24001,17.078,0.81818,0.1,0.00010706,1069.9,0.00010619,1046,-3.2814e-05,1.523,-3.9362e-05,-47.677,1.3261
24002,16.986,0.90909,0.1,0.00010962,1095.5,0.00010844,1063.6,-3.2889e-05,1.6588,-4.1441e-05,-62.597,1.3137
24003,17.078,0.63636,0.1,9.8255e-05,981.87,9.7461e-05,960.02,-3.0149e-05,1.2136,-3.6084e-05,-43.383,1.3258
24004,16.986,0.72727,0.1,9.8494e-05,984.26,9.7513e-05,957.58,-2.9737e-05,1.4724,-3.6935e-05,-52.607,1.3133
24005,17.078,0.45455,0.1,9.1532e-05,914.69,9.0824e-05,895.11,-2.8189e-05,0.89949,-3.3469e-05,-38.772,1.3254
24006,16.986,0.54545,0.1,8.9708e-05,896.46,8.8917e-05,874.78,-2.734e-05,1.2775,-3.3233e-05,-42.996,1.3129
24007,17.078,0.27273,0.1,8.7149e-05,870.89,8.6483e-05,852.45,-2.6896e-05,0.55921,-3.1799e-05,-36.277,1.325
24008,16.986,0.36364,0.1,8.342e-05,833.62,8.2755e-05,815.29,-2.5625e-05,0.96042,-3.0595e-05,-36.382,1.3126
24009,16.986,0.18182,0.1,8.0048e-05,799.93,7.9381e-05,781.56,-2.4563e-05,0.55949,-2.9434e-05,-36.044,1.3121
24010,17.078,0.090909,0.1,8.2741e-05,826.84,8.238e-05,816.6,-2.631e-05,-0.058271,-2.8971e-05,-20.052,1.3246
24011,16.895,5.7273,0.1,7.6412e-05,763.59,7.5733e-05,744.99,-2.3281e-05,1.0414,-2.8322e-05,-36.833,1.2997
24012,16.804,5.8182,0.1,6.7856e-05,678.09,6.7192e-05,660.07,-2.0481e-05,1.3257,-2.5428e-05,-35.842,1.2868
24013,16.895,5.9091,0.1,7.1343e-05,712.94,7.0984e-05,702.79,-2.2561e-05,-0.07038,-2.5188e-05,-19.811,1.2993
24014,16.895,5.5455,0.1,8.1796e-05,817.4,8.102e-05,796.26,-2.4773e-05,1.3672,-3.0536e-05,-41.932,1.3001
24015,16.804,5.6364,0.1,7.1945e-05,718.95,7.1282e-05,700.93,-2.1771e-05,1.765,-2.6837e-05,-36.294,1.2873
24016,16.895,5.3636,0.1,9.0343e-05,902.8,8.9306e-05,874.88,-2.6932e-05,1.5122,-3.4418e-05,-54.732,1.3005
24017,16.804,5.4545,0.1,7.9974e-05,799.18,7.9015e-05,773.51,-2.3689e-05,1.8343,-3.0667e-05,-50.599,1.2877
24018,16.895,5.1818,0.1,0.00010164,1015.7,0.00010026,978.9,-2.9816e-05,1.581,-3.9505e-05,-71.216,1.3009
24019,16.804,5.2727,0.1,9.1199e-05,911.36,8.9748e-05,873.22,-2.6242e-05,1.7174,-3.6233e-05,-73.355,1.2881
24020,16.895,5,0.1,0.00011545,1153.7,0.00011374,1108.5,-3.3558e-05,1.7081,-4.5379e-05,-87.11,1.3013
24021,16.804,5.0909,0.1,0.00010533,1052.6,0.00010328,999.6,-2.953e-05,1.6964,-4.3094e-05,-100.22,1.2885
24022,16.895,4.8182,0.1,0.00013155,1314.5,0.00012966,1264.5,-3.8368e-05,1.9996,-5.1487e-05,-96.572,1.3016
24023,16.804,4.9091,0.1,0.00012224,1221.5,0.00011963,1154.5,-3.378e-05,1.8497,-5.0787e-05,-125.93,1.2889
24024,16.895,4.6364,0.1,0.00014955,1494.5,0.0001478,1447.4,-4.4489e-05,2.5927,-5.712e-05,-92.312,1.302
24025,16.804,4.7273,0.1,0.00014186,1417.6,0.00013889,1341.4,-3.9348e-05,2.1767,-5.8708e-05,-143.29,1.2893
24026,16.895,4.4545,0.1,0.00016896,1688.5,0.00016776,1655.4,-5.2078e-05,3.5743,-6.154e-05,-67.517,1.3023
24027,16.804,4.5455,0.1,0.00016405,1639.4,0.00016119,1564.6,-4.669e-05,2.6928,-6.6022e-05,-142.56,1.2896
24028,16.895,4.2727,0.1,0.00018908,1889.5,0.00018879,1881.5,-6.0448e-05,8.7949,-6.486e-05,-24.353,1.3026
24029,16.804,4.3636,0.1,0.00018793,1878,0.00018587,1822.6,-5.6079e-05,4.6889,-7.1368e-05,-110.19,1.29
24030,16.895,4.0909,0.1,0.00020937,2092.2,0.00021002,2112.3,-6.5127e-05,44.98,-7.1627e-05,-3.8588,1.3029
24031,16.804,4.1818,0.1,0.00021262,2124.8,0.00021193,2105.2,-6.7315e-05,7.073,-7.4286e-05,-45.309,1.2903
24032,16.895,3.9091,0.1,0.000229,2288.4,0.00023027,2328.2,-6.837e-05,84.317,-7.9897e-05,-2.292,1.3032
24033,16.804,4,0.1,0.00023724,2370.8,0.00023778,2387,-7.5361e-05,34.214,-8.0082e-05,-1.2595,1.2906
24034,16.895,3.7273,0.1,0.00024628,2461.1,0.00024774,2506.8,-7.317e-05,95.606,-8.6077e-05,-1.3688,1.3034
24035,16.804,3.8182,0.1,0.00025966,2594.8,0.00026068,2625.9,-8.043e-05,62.951,-8.8756e-05,0.39244,1.2909
24036,16.895,3.5455,0.1,0.00025957,2594,0.00026086,2633.8,-7.8673e-05,82.678,-8.9797e-05,-0.90647,1.3036
24037,16.804,3.6364,0.1,0.00027707,2768.8,0.00027783,2792,-8.7118e-05,49.901,-9.4114e-05,-2.6648,1.2911
24038,16.895,3.3636,0.1,0.00026826,2680.7,0.00026923,2710.4,-8.3333e-05,61.327,-9.1631e-05,-1.0266,1.3037
24039,16.804,3.4545,0.1,0.00028738,2871.9,0.00028769,2880.9,-9.2914e-05,21.209,-9.6134e-05,-2.9825,1.2913
24040,16.895,3.1818,0.1,0.00027286,2726.7,0.00027358,2748.4,-8.6262e-05,44.679,-9.2314e-05,-0.79283,1.3038
24041,16.804,3.2727,0.1,0.00029244,2922.4,0.00029234,2919.3,-9.5904e-05,2.223,-9.7317e-05,-8.3936,1.2914
24042,16.895,3,0.1,0.00027427,2740.8,0.00027489,2759.6,-8.7242e-05,38.635,-9.2468e-05,-0.63377,1.3038
24043,16.804,3.0909,0.1,0.00029436,2941.6,0.00029404,2932.2,-9.6268e-05,-0.42099,-9.8646e-05,-18.285,1.2915
24044,16.895,2.8182,0.1,0.00027286,2726.7,0.00027358,2748.4,-8.6262e-05,44.679,-9.2314e-05,-0.79283,1.3038
24045,16.804,2.9091,0.1,0.00029436,2941.6,0.00029404,2932.2,-9.6268e-05,-0.42099,-9.8646e-05,-18.285,1.2915
24046,16.895,2.6364,0.1,0.00026826,2680.7,0.00026923,2710.4,-8.3333e-05,61.327,-9.1631e-05,-1.0266,1.3037
24047,16.804,2.7273,0.1,0.00029244,2922.4,0.00029234,2919.3,-9.5904e-05,2.223,-9.7317e-05,-8.3936,1.2914
24048,16.895,2.4545,0.1,0.00025957,2594,0.00026086,2633.8,-7.8673e-05,82.678,-8.9797e-05,-0.90647,1.3036
24049,16.804,2.5455,0.1,0.00028738,2871.9,0.00028769,2880.9,-9.2914e-05,21.209,-9.6134e-05,-2.9825,1.2913
24050,16.895,2.2727,0.1,0.00024628,2461.1,0.00024774,2506.8,-7.317e-05,95.606,-8.6077e-05,-1.3688,1.3034
24051,16.804,2.3636,0.1,0.00027707,2768.8,0.00027783,2792,-8.7118e-05,49.901,-9.4114e-05,-2.6648,1.2911
24052,16.895,2.0909,0.1,0.000229,2288.4,0.00023027,2328.2,-6.837e-05,84.317,-7.9897e-05,-2.292,1.3032
24053,16.804,2.1818,0.1,0.00025966,2594.8,0.00026068,2625.9,-8.043e-05,62.951,-8.8756e-05,0.39244,1.2909
24054,16.895,1.9091,0.1,0.00020937,2092.2,0.00021002,2112.3,-6.5127e-05,44.98,-7.1627e-05,-3.8588,1.3029
24055,16.804,2,0.1,0.00023724,2370.8,0.00023778,2387,-7.5361e-05,34.214,-8.0082e-05,-1.2595,1.2906
24056,16.895,1.7273,0.1,0.00018908,1889.5,0.00018879,1881.5,-6.0448e-05,8.7949,-6.486e-05,-24.353,1.3026
24057,16.804,1.8182,0.1,0.00021262,2124.8,0.00021193,2105.2,-6.7315e-05,7.073,-7.4286e-05,-45.309,1.2903
24058,16.895,1.5455,0.1,0.00016896,1688.5,0.00016776,1655.4,-5.2078e-05,3.5743,-6.154e-05,-67.517,1.3023
24059,16.804,1.6364,0.1,0.00018793,1878,0.00018587,1822.6,-5.6079e-05,4.6889,-7.1368e-05,-110.19,1.29
24060,16.895,1.3636,0.1,0.00014955,1494.5,0.0001478,1447.4,-4.4489e-05,2.5927,-5.712e-05,-92.312,1.302
24061,16.804,1.4545,0.1,0.00016405,1639.4,0.00016119,1564.6,-4.669e-05,2.6928,-6.6022e-05,-142.56,1.2896
24062,16.895,1.1818,0.1,0.00013155,1314.5,0.00012966,1264.5,-3.8368e-05,1.9996,-5.1487e-05,-96.572,1.3016
24063,16.804,1.2727,0.1,0.00014186,1417.6,0.00013889,1341.4,-3.9348e-05,2.1767,-5.8708e-05,-143.29,1.2893
24064,16.895,1,0.1,0.00011545,1153.8,0.00011374,1108.5,-3.3558e-05,1.7081,-4.5379e-05,-87.11,1.3013
24065,16.804,1.0909,0.1,0.00012224,1221.5,0.00011963,1154.5,-3.378e-05,1.8497,-5.0787e-05,-125.93,1.2889
24066,16.895,0.81818,0.1,0.00010164,1015.7,0.00010026,978.9,-2.9816e-05,1.581,-3.9505e-05,-71.216,1.3009
24067,16.804,0.90909,0.1,0.00010533,1052.6,0.00010328,999.6,-2.953e-05,1.6964,-4.3094e-05,-100.22,1.2885
24068,16.895,0.63636,0.1,9.0343e-05,902.8,8.9306e-05,874.88,-2.6932e-05,1.5122,-3.4418e-05,-54.731,1.3005
24069,16.804,0.72727,0.1,9.1199e-05,911.36,8.9748e-05,873.22,-2.6242e-05,1.7174,-3.6233e-05,-73.355,1.2881
24070,16.895,0.45455,0.1,8.1796e-05,817.4,8.102e-05,796.26,-2.4773e-05,1.3672,-3.0536e-05,-41.932,1.3001
24071,16.804,0.54545,0.1,7.9974e-05,799.18,7.9015e-05,773.51,-2.3689e-05,1.8343,-3.0667e-05,-50.599,1.2877
24072,16.895,0.27273,0.1,7.6412e-05,763.59,7.5733e-05,744.99,-2.3281e-05,1.0414,-2.8322e-05,-36.833,1.2997
24073,16.804,0.36364,0.1,7.1945e-05,718.95,7.1282e-05,700.93,-2.1771e-05,1.765,-2.6837e-05,-36.294,1.2873
24074,16.804,0.18182,0.1,6.7856e-05,678.09,6.7192e-05,660.07,-2.0481e-05,1.3257,-2.5428e-05,-35.842,1.2868
24075,16.895,0.090909,0.1,7.1343e-05,712.94,7.0984e-05,702.79,-2.2561e-05,-0.070379,-2.5188e-05,-19.811,1.2993
24076,16.713,5.7273,0.1,6.3526e-05,634.82,6.2857e-05,616.88,-1.8947e-05,2.2291,-2.4083e-05,-36.355,1.2744
24077,16.622,5.8182,0.1,5.3423e-05,533.86,5.2791e-05,517.17,-1.5668e-05,2.7938,-2.0598e-05,-34.247,1.2616
24078,16.713,5.9091,0.1,5.7561e-05,575.21,5.7239e-05,566.15,-1.8088e-05,0.17613,-2.0491e-05,-17.881,1.274
24079,16.713,5.5455,0.1,7.0505e-05,704.56,6.9605e-05,680.65,-2.069e-05,2.2137,-2.7295e-05,-47.412,1.2749
24080,16.622,5.6364,0.1,5.9103e-05,590.62,5.8379e-05,571.51,-1.7303e-05,2.8574,-2.2857e-05,-38.875,1.262
24081,16.713,5.3636,0.1,8.1554e-05,814.98,8.0069e-05,776.45,-2.3012e-05,1.9391,-3.3082e-05,-73.721,1.2753
24082,16.622,5.4545,0.1,6.9875e-05,698.27,6.8506e-05,663.06,-1.9461e-05,2.1106,-2.8704e-05,-67.336,1.2625
24083,16.713,5.1818,0.1,9.5907e-05,958.4,9.3611e-05,900.21,-2.5964e-05,1.7727,-4.0654e-05,-108.6,1.2757
24084,16.622,5.2727,0.1,8.4224e-05,841.66,8.1832e-05,782.08,-2.2048e-05,1.5706,-3.6853e-05,-109.67,1.2629
24085,16.713,5,0.1,0.00011335,1132.7,0.00011016,1053.1,-2.9753e-05,1.8355,-4.9498e-05,-146.52,1.2761
24086,16.622,5.0909,0.1,0.00010176,1016.9,9.8098e-05,928.02,-2.5229e-05,1.3917,-4.6684e-05,-159.81,1.2634
24087,16.713,4.8182,0.1,0.00013392,1338.3,0.00012994,1239.5,-3.4753e-05,2.0842,-5.9097e-05,-180.83,1.2765
24088,16.622,4.9091,0.1,0.00012267,1225.8,0.00011764,1105.7,-2.9329e-05,1.4204,-5.7901e-05,-213.26,1.2638
24089,16.713,4.6364,0.1,0.00015773,1576.2,0.00015334,1466.6,-4.1528e-05,2.4345,-6.8694e-05,-201.68,1.2769
24090,16.622,4.7273,0.1,0.00014757,1474.7,0.00014128,1325.1,-3.4853e-05,1.6712,-7.0293e-05,-264.62,1.2642
24091,16.713,4.4545,0.1,0.00018419,1840.6,0.0001802,1738.6,-5.0629e-05,4.2681,-7.6819e-05,-192.51,1.2773
24092,16.622,4.5455,0.1,0.00017709,1769.7,0.00017005,1600.6,-4.2689e-05,2.2207,-8.3068e-05,-301.17,1.2646
24093,16.713,4.2727,0.1,0.00021225,2121,0.00020962,2050.9,-6.2593e-05,5.6188,-8.1769e-05,-138.47,1.2777
24094,16.622,4.3636,0.1,0.00021158,2114.3,0.0002049,1949.9,-5.4154e-05,3.4417,-9.4484e-05,-299.59,1.2651
24095,16.713,4.0909,0.1,0.00024092,2407.5,0.00024002,2382.4,-7.6031e-05,7.7086,-8.4598e-05,-56.657,1.278
24096,16.622,4.1818,0.1,0.00025017,2499.9,0.00024542,2376.5,-7.0603e-05,1.9912,-0.0001018,-232.44,1.2655
24097,16.713,3.9091,0.1,0.00026795,2677.6,0.00026819,2684.7,-8.7376e-05,13.184,-8.898e-05,1.1276,1.2783
24098,16.622,4,0.1,0.00028553,2853.3,0.00028368,2800.5,-9.084e-05,-13.509,-0.0001011,-90.597,1.2658
24099,16.713,3.7273,0.1,0.00029006,2898.6,0.00029038,2908.2,-9.3914e-05,20.731,-9.6863e-05,-1.424,1.2786
24100,16.622,3.8182,0.1,0.00031672,3165,0.00031595,3142.6,-0.00010294,-4.7579,-0.0001076,-39.753,1.2662
24101,16.713,3.5455,0.1,0.00030421,3040,0.00030401,3034.2,-9.9198e-05,4.6736,-0.00010197,-16.157,1.2789
24102,16.622,3.6364,0.1,0.00033279,3325.6,0.0003316,3291.9,-0.00010601,3.8404,-0.00011584,-69.959,1.2664
24103,16.713,3.3636,0.1,0.00031088,3106.6,0.00031012,3084.8,-0.00010035,0.68355,-0.00010628,-43.869,1.279
24104,16.622,3.4545,0.1,0.00033728,3370.5,0.00033532,3315.4,-0.00010585,0.64077,-0.00012033,-108.13,1.2667
24105,16.713,3.1818,0.1,0.0003133,3130.9,0.00031216,3098.4,-0.00010025,-0.35302,-0.00010867,-63.632,1.2791
24106,16.622,3.2727,0.1,0.00033663,3364,0.00033422,3296.9,-0.00010458,-0.062081,-0.00012191,-130.34,1.2668
24107,16.713,3,0.1,0.00031384,3136.2,0.00031257,3100.2,-0.00010011,-0.51859,-0.00010939,-70.26,1.2792
24108,16.622,3.0909,0.1,0.00033553,3353,0.00033291,3280.2,-0.0001037,-0.2485,-0.00012241,-140.83,1.2669
24109,16.713,2.8182,0.1,0.0003133,3130.9,0.00031216,3098.4,-0.00010025,-0.35302,-0.00010867,-63.632,1.2791
24110,16.622,2.9091,0.1,0.00033553,3353,0.00033291,3280.2,-0.0001037,-0.2485,-0.00012241,-140.83,1.2669
24111,16.713,2.6364,0.1,0.00031088,3106.6,0.00031012,3084.8,-0.00010035,0.68355,-0.00010628,-43.869,1.279
24112,16.622,2.7273,0.1,0.00033663,3364,0.00033422,3296.9,-0.00010458,-0.062081,-0.00012191,-130.34,1.2668
24113,16.713,2.4545,0.1,0.00030421,3040,0.00030401,3034.2,-9.9198e-05,4.6736,-0.00010197,-16.157,1.2789
24114,16.622,2.5455,0.1,0.00033728,3370.5,0.00033532,3315.4,-0.00010585,0.64077,-0.00012033,-108.13,1.2667
24115,16.713,2.2727,0.1,0.00029006,2898.6,0.00029038,2908.2,-9.3914e-05,20.731,-9.6863e-05,-1.424,1.2786
24116,16.622,2.3636,0.1,0.00033279,3325.6,0.0003316,3291.9,-0.00010601,3.8404,-0.00011584,-69.959,1.2664
24117,16.713,2.0909,0.1,0.00026795,2677.6,0.00026819,2684.7,-8.7376e-05,13.184,-8.898e-05,1.1276,1.2783
24118,16.622,2.1818,0.1,0.00031672,3165,0.00031595,3142.6,-0.00010294,-4.7579,-0.0001076,-39.753,1.2662
24119,16.713,1.9091,0.1,0.00024092,2407.5,0.00024002,2382.4,-7.6031e-05,7.7086,-8.4598e-05,-56.657,1.278
24120,16.622,2,0.1,0.00028553,2853.3,0.00028368,2800.5,-9.084e-05,-13.509,-0.0001011,-90.597,1.2658
24121,16.713,1.7273,0.1,0.00021225,2121,0.00020962,2050.9,-6.2593e-05,5.6188,-8.1769e-05,-138.47,1.2777
24122,16.622,1.8182,0.1,0.00025017,2499.9,0.00024542,2376.5,-7.0603e-05,1.9912,-0.0001018,-232.44,1.2655
24123,16.713,1.5455,0.1,0.00018419,1840.6,0.0001802,1738.6,-5.0629e-05,4.2681,-7.6819e-05,-192.51,1.2773
24124,16.622,1.6364,0.1,0.00021158,2114.3,0.0002049,1949.9,-5.4154e-05,3.4417,-9.4484e-05,-299.59,1.2651
24125,16.713,1.3636,0.1,0.00015773,1576.2,0.00015334,1466.6,-4.1528e-05,2.4345,-6.8694e-05,-201.68,1.2769
24126,16.622,1.4545,0.1,0.00017709,1769.7,0.00017005,1600.6,-4.2689e-05,2.2207,-8.3068e-05,-301.17,1.2646
24127,16.713,1.1818,0.1,0.00013392,1338.3,0.00012994,1239.5,-3.4753e-05,2.0842,-5.9097e-05,-180.83,1.2765
24128,16.622,1.2727,0.1,0.00014757,1474.7,0.00014128,1325.1,-3.4853e-05,1.6712,-7.0293e-05,-264.62,1.2642
24129,16.713,1,0.1,0.00011335,1132.7,0.00011016,1053.1,-2.9753e-05,1.8355,-4.9498e-05,-146.52,1.2761
24130,16.622,1.0909,0.1,0.00012267,1225.8,0.00011764,1105.7,-2.9329e-05,1.4204,-5.7901e-05,-213.26,1.2638
24131,16.713,0.81818,0.1,9.5907e-05,958.4,9.3611e-05,900.21,-2.5964e-05,1.7727,-4.0654e-05,-108.6,1.2757
24132,16.622,0.90909,0.1,0.00010176,1016.9,9.8098e-05,928.02,-2.5229e-05,1.3917,-4.6684e-05,-159.81,1.2634
24133,16.713,0.63636,0.1,8.1554e-05,814.98,8.0069e-05,776.45,-2.3012e-05,1.9391,-3.3082e-05,-73.721,1.2753
24134,16.622,0.72727,0.1,8.4224e-05,841.66,8.1832e-05,782.08,-2.2048e-05,1.5706,-3.6853e-05,-109.67,1.2629
24135,16.713,0.45455,0.1,7.0505e-05,704.56,6.9605e-05,680.65,-2.069e-05,2.2137,-2.7295e-05,-47.412,1.2749
24136,16.622,0.54545,0.1,6.9875e-05,698.27,6.8506e-05,663.06,-1.9461e-05,2.1106,-2.8704e-05,-67.336,1.2625
24137,16.713,0.27273,0.1,6.3526e-05,634.82,6.2857e-05,616.88,-1.8947e-05,2.2291,-2.4083e-05,-36.355,1.2744
24138,16.622,0.36364,0.1,5.9103e-05,590.62,5.8379e-05,571.51,-1.7303e-05,2.8574,-2.2857e-05,-38.875,1.262
24139,16.622,0.18182,0.1,5.3423e-05,533.86,5.2791e-05,517.17,-1.5668e-05,2.7938,-2.0598e-05,-34.247,1.2616
24140,16.713,0.090909,0.1,5.7561e-05,575.21,5.7239e-05,566.15,-1.8088e-05,0.17613,-2.0491e-05,-17.881,1.274
24141,16.531,5.7273,0.1,4.9303e-05,492.69,4.8566e-05,473.69,-1.399e-05,3.6766,-1.9658e-05,-38.915,1.2492
24142,16.44,5.8182,0.1,3.7796e-05,377.7,3.7097e-05,360.99,-9.9496e-06,7.495,-1.5869e-05,-36.981,1.2364
24143,16.531,5.9091,0.1,4.1532e-05,415.04,4.1267e-05,407.63,-1.2934e-05,0.39204,-1.4954e-05,-14.783,1.2487
24144,16.531,5.5455,0.1,5.9357e-05,593.16,5.8029e-05,559.54,-1.6128e-05,2.3559,-2.4962e-05,-64.021,1.2497
24145,16.44,5.6364,0.1,4.8148e-05,481.15,4.6851e-05,449.56,-1.2369e-05,4.6123,-2.1107e-05,-61.043,1.2368
24146,16.531,5.3636,0.1,7.3905e-05,738.54,7.1385e-05,677.08,-1.853e-05,1.4946,-3.3558e-05,-111.42,1.2501
24147,16.44,5.4545,0.1,6.3548e-05,635.04,6.0789e-05,570.28,-1.4696e-05,3.1192,-3.0525e-05,-115.81,1.2373
24148,16.531,5.1818,0.1,9.1755e-05,916.91,8.7651e-05,819.9,-2.1328e-05,1.0808,-4.4201e-05,-170.78,1.2506
24149,16.44,5.2727,0.1,8.1893e-05,818.36,7.7149e-05,710.63,-1.7099e-05,2.485,-4.2092e-05,-185.3,1.2378
24150,16.531,5,0.1,0.00011303,1129.5,0.00010709,991.97,-2.4811e-05,0.93224,-5.6586e-05,-237.81,1.251
24151,16.44,5.0909,0.1,0.00010329,1032.2,9.6161e-05,874.02,-1.9851e-05,2.3571,-5.5534e-05,-265.76,1.2383
24152,16.531,4.8182,0.1,0.00013855,1384.6,0.00013066,1203.9,-2.9429e-05,1.0049,-7.0773e-05,-309.63,1.2515
24153,16.44,4.9091,0.1,0.00012865,1285.6,0.00011878,1070,-2.3263e-05,2.7304,-7.1177e-05,-357.28,1.2387
24154,16.531,4.6364,0.1,0.00016942,1693.1,0.0001598,1472.8,-3.6011e-05,1.4833,-8.6487e-05,-377.77,1.2519
24155,16.44,4.7273,0.1,0.00015972,1596.1,0.00014675,1314.9,-2.7903e-05,2.6675,-8.9733e-05,-461.9,1.2392
24156,16.531,4.4545,0.1,0.00020675,2066.1,0.00019637,1824,-4.6208e-05,1.4363,-0.00010235,-420.41,1.2524
24157,16.44,4.5455,0.1,0.00019903,1989,0.00018289,1640.2,-3.4514e-05,6.6972,-0.00011189,-574.71,1.2397
24158,16.531,4.2727,0.1,0.00025112,2509.5,0.00024186,2284.1,-6.2217e-05,-0.58458,-0.00011562,-401.84,1.2529
24159,16.44,4.3636,0.1,0.00025174,2515.7,0.0002324,2091.1,-4.5982e-05,-0.56146,-0.00013912,-700.4,1.2402
24160,16.531,4.0909,0.1,0.00029493,2947.2,0.00028925,2795.8,-8.5326e-05,-18.581,-0.00011856,-268.31,1.2533
24161,16.44,4.1818,0.1,0.00032713,3269,0.00030904,2863.7,-6.7505e-05,34.48,-0.00016726,-715.01,1.2407
24162,16.531,3.9091,0.1,0.00033369,3334.6,0.00033087,3254,-0.00010568,-25.973,-0.00011987,-132.65,1.2537
24163,16.44,4,0.1,0.00039599,3957.2,0.0003881,3775.6,-0.00010034,105.61,-0.00016989,-416.92,1.2412
24164,16.531,3.7273,0.1,0.00035802,3577.7,0.00035585,3516.4,-0.00011262,-3.4672,-0.00012767,-116.54,1.254
24165,16.44,3.8182,0.1,0.00041815,4178.7,0.0004139,4062.8,-0.00012645,2.7705,-0.00015679,-225.14,1.2416
24166,16.531,3.5455,0.1,0.00036454,3642.9,0.00036168,3563.8,-0.00011222,3.1254,-0.0001334,-155.97,1.2543
24167,16.44,3.6364,0.1,0.00041197,4116.9,0.00040699,3983.4,-0.00012219,7.284,-0.00015792,-261.16,1.242
24168,16.531,3.3636,0.1,0.00036207,3618.2,0.00035851,3520.7,-0.00011004,0.11374,-0.00013507,-187.93,1.2546
24169,16.44,3.4545,0.1,0.0003949,3946.3,0.00038955,3802.7,-0.00011667,-0.81327,-0.00015279,-272.25,1.2423
24170,16.531,3.1818,0.1,0.0003581,3578.5,0.00035424,3473.3,-0.00010803,-0.01409,-0.00013491,-201.97,1.2547
24171,16.44,3.2727,0.1,0.00038257,3823.1,0.00037711,3677.2,-0.0001122,0.7288,-0.0001492,-277.26,1.2425
24172,16.531,3,0.1,0.00035653,3562.8,0.00035257,3455.2,-0.0001073,-0.065182,-0.00013473,-206.23,1.2547
24173,16.44,3.0909,0.1,0.0003763,3760.4,0.00037079,3613.6,-0.00011013,0.058408,-0.00014718,-278.3,1.2426
24174,16.531,2.8182,0.1,0.0003581,3578.5,0.00035424,3473.3,-0.00010803,-0.01409,-0.00013491,-201.97,1.2547
24175,16.44,2.9091,0.1,0.0003763,3760.4,0.00037079,3613.6,-0.00011013,0.058409,-0.00014718,-278.3,1.2426
24176,16.531,2.6364,0.1,0.00036207,3618.2,0.00035851,3520.7,-0.00011004,0.11374,-0.00013507,-187.93,1.2546
24177,16.44,2.7273,0.1,0.00038257,3823.1,0.00037711,3677.2,-0.0001122,0.7288,-0.0001492,-277.26,1.2425
24178,16.531,2.4545,0.1,0.00036454,3642.9,0.00036168,3563.8,-0.00011222,3.1254,-0.0001334,-155.97,1.2543
24179,16.44,2.5455,0.1,0.0003949,3946.3,0.00038955,3802.7,-0.00011667,-0.81327,-0.00015279,-272.25,1.2423
24180,16.531,2.2727,0.1,0.00035802,3577.7,0.00035585,3516.4,-0.00011262,-3.4672,-0.00012767,-116.54,1.254
24181,16.44,2.3636,0.1,0.00041197,4116.9,0.00040699,3983.4,-0.00012219,7.284,-0.00015792,-261.16,1.242
24182,16.531,2.0909,0.1,0.00033369,3334.6,0.00033087,3254,-0.00010568,-25.973,-0.00011987,-132.65,1.2537
24183,16.44,2.1818,0.1,0.00041815,4178.7,0.0004139,4062.8,-0.00012645,2.7705,-0.00015679,-225.14,1.2416
24184,16.531,1.9091,0.1,0.00029493,2947.2,0.00028925,2795.8,-8.5326e-05,-18.581,-0.00011856,-268.31,1.2533
24185,16.44,2,0.1,0.00039599,3957.2,0.0003881,3775.6,-0.00010034,105.61,-0.00016989,-416.92,1.2412
24186,16.531,1.7273,0.1,0.00025112,2509.5,0.00024186,2284.1,-6.2217e-05,-0.58458,-0.00011562,-401.84,1.2529
24187,16.44,1.8182,0.1,0.00032713,3269,0.00030904,2863.7,-6.7505e-05,34.48,-0.00016726,-715.01,1.2407
24188,16.531,1.5455,0.1,0.00020675,2066.1,0.00019637,1824,-4.6208e-05,1.4363,-0.00010235,-420.41,1.2524
24189,16.44,1.6364,0.1,0.00025174,2515.7,0.0002324,2091.1,-4.5982e-05,-0.56147,-0.00013912,-700.4,1.2402
24190,16.531,1.3636,0.1,0.00016942,1693.1,0.0001598,1472.8,-3.6011e-05,1.4833,-8.6487e-05,-377.77,1.2519
24191,16.44,1.4545,0.1,0.00019903,1989,0.00018289,1640.2,-3.4514e-05,6.6972,-0.00011189,-574.71,1.2397
24192,16.531,1.1818,0.1,0.00013855,1384.6,0.00013066,1203.9,-2.9429e-05,1.0049,-7.0773e-05,-309.63,1.2515
24193,16.44,1.2727,0.1,0.00015972,1596.1,0.00014675,1314.9,-2.7903e-05,2.6675,-8.9733e-05,-461.9,1.2392
24194,16.531,1,0.1,0.00011303,1129.5,0.00010709,991.97,-2.4811e-05,0.93224,-5.6586e-05,-237.81,1.251
24195,16.44,1.0909,0.1,0.00012865,1285.6,0.00011878,1070,-2.3263e-05,2.7304,-7.1177e-05,-357.28,1.2387
24196,16.531,0.81818,0.1,9.1755e-05,916.91,8.7651e-05,819.9,-2.1328e-05,1.0808,-4.4201e-05,-170.78,1.2506
24197,16.44,0.90909,0.1,0.00010329,1032.2,9.6161e-05,874.02,-1.9851e-05,2.3571,-5.5534e-05,-265.76,1.2383
24198,16.531,0.63636,0.1,7.3905e-05,738.54,7.1385e-05,677.08,-1.853e-05,1.4946,-3.3558e-05,-111.42,1.2501
24199,16.44,0.72727,0.1,8.1893e-05,818.36,7.7149e-05,710.63,-1.7099e-05,2.485,-4.2092e-05,-185.3,1.2378
24200,16.531,0.45455,0.1,5.9357e-05,593.16,5.8029e-05,559.54,-1.6128e-05,2.3559,-2.4962e-05,-64.021,1.2497
24201,16.44,0.54545,0.1,6.3548e-05,635.04,6.0789e-05,570.28,-1.4696e-05,3.1192,-3.0525e-05,-115.81,1.2373
24202,16.531,0.27273,0.1,4.9303e-05,492.69,4.8566e-05,473.69,-1.399e-05,3.6766,-1.9658e-05,-38.915,1.2492
24203,16.44,0.36364,0.1,4.8148e-05,481.15,4.6851e-05,449.56,-1.2369e-05,4.6123,-2.1107e-05,-61.043,1.2368
24204,16.44,0.18182,0.1,3.7796e-05,377.7,3.7097e-05,360.99,-9.9496e-06,7.495,-1.5869e-05,-36.981,1.2364
24205,16.531,0.090909,0.1,4.1532e-05,415.04,4.1267e-05,407.63,-1.2934e-05,0.39204,-1.4954e-05,-14.783,1.2487
24206,16.349,5.7273,0.1,3.8093e-05,380.66,3.6543e-05,345.57,-8.4968e-06,7.1656,-1.8309e-05,-66.559,1.224
24207,16.258,5.8182,0.1,2.1868e-05,218.53,2.1462e-05,207.99,-6.1715e-06,0.3616,-8.8829e-06,-20.011,1.2112
24208,16.349,5.9091,0.1,2.4136e-05,241.2,2.3849e-05,234.42,-6.5812e-06,5.7718,-9.696e-06,-17.632,1.2235
24209,16.349,5.5455,0.1,5.4568e-05,545.3,5.1358e-05,473.43,-1.1088e-05,4.2344,-2.8264e-05,-124.82,1.2245
24210,16.258,5.6364,0.1,3.6078e-05,360.53,3.4618e-05,325.08,-8.8229e-06,-1.3212,-1.6886e-05,-61.908,1.2116
24211,16.349,5.3636,0.1,7.3925e-05,738.74,6.8346e-05,617.3,-1.3337e-05,3.5616,-4.0779e-05,-202.62,1.225
24212,16.258,5.4545,0.1,5.1591e-05,515.56,4.8509e-05,445.03,-1.0836e-05,-0.85611,-2.6627e-05,-119.5,1.2121
24213,16.349,5.1818,0.1,9.5956e-05,958.9,8.7497e-05,778.56,-1.567e-05,3.404,-5.5217e-05,-293.74,1.2255
24214,16.258,5.2727,0.1,6.8501e-05,684.53,6.3405e-05,571.86,-1.2818e-05,-0.85291,-3.7498e-05,-186.29,1.2126
24215,16.349,5,0.1,0.00012175,1216.6,0.00010987,967.16,-1.8341e-05,3.8661,-7.2098e-05,-400.05,1.226
24216,16.258,5.0909,0.1,8.7654e-05,875.94,8.014e-05,713.48,-1.495e-05,-0.99269,-4.9923e-05,-263.77,1.2132
24217,16.349,4.8182,0.1,0.00015324,1531.4,0.00013726,1199,-2.1771e-05,4.1313,-9.2494e-05,-527.25,1.2265
24218,16.258,4.9091,0.1,0.00011033,1102.5,9.9875e-05,880.46,-1.7363e-05,-0.42108,-6.468e-05,-355.94,1.2137
24219,16.349,4.6364,0.1,0.00019374,1936.1,0.00017285,1505,-2.6443e-05,7.6058,-0.00011812,-681.25,1.227
24220,16.258,4.7273,0.1,0.0001386,1385,0.00012453,1088.7,-2.0714e-05,-2.595,-8.2835e-05,-469.35,1.2143
24221,16.349,4.4545,0.1,0.00025057,2504,0.00022333,1940.4,-3.4331e-05,4.3797,-0.00015303,-887.48,1.2276
24222,16.258,4.5455,0.1,0.00017654,1764.2,0.00015752,1371.5,-2.4151e-05,6.429,-0.00010761,-620.63,1.2149
24223,16.349,4.2727,0.1,0.00033371,3334.8,0.00030331,2698.7,-5.1335e-05,34.01,-0.00019442,-1041,1.2281
24224,16.258,4.3636,0.1,0.00022824,2280.8,0.00020476,1777.3,-3.565e-05,-29.009,-0.00013635,-785.66,1.2155
24225,16.349,4.0909,0.1,0.00042756,4272.7,0.00040663,3833.9,-8.2525e-05,158.65,-0.00021732,-854.14,1.2287
24226,16.258,4.1818,0.1,0.00032996,3297.3,0.00028907,2522,-2.9587e-05,127.77,-0.00021148,-1238.9,1.2161
24227,16.349,3.9091,0.1,0.00047467,4743.4,0.00046647,4549.3,-0.00012492,105.78,-0.00019833,-445.8,1.2292
24228,16.258,4,0.1,0.00070552,7050.3,0.00069441,6805.1,-0.00017946,239.21,-0.00029726,-645.96,1.2168
24229,16.349,3.7273,0.1,0.00046841,4680.9,0.00046177,4505.1,-0.00013641,10.578,-0.00018336,-342.15,1.2297
24230,16.258,3.8182,0.1,0.00056949,5691,0.00056033,5449.2,-0.00016443,3.5576,-0.000226,-459.01,1.2173
24231,16.349,3.5455,0.1,0.0004409,4406,0.00043354,4212.2,-0.00012665,3.2334,-0.00017596,-367.3,1.23
24232,16.258,3.6364,0.1,0.00049322,4928.8,0.00048343,4676.9,-0.00013727,13.262,-0.00020291,-479.97,1.2178
24233,16.349,3.3636,0.1,0.00041463,4143.4,0.00040742,3953.8,-0.00011885,-0.35515,-0.00016617,-355.96,1.2303
24234,16.258,3.4545,0.1,0.00044572,4454.1,0.00043666,4219,-0.00012504,-1.3857,-0.00018298,-436.74,1.2182
24235,16.349,3.1818,0.1,0.00040018,3999,0.0003931,3813.2,-0.00011432,0.73726,-0.0001609,-349.28,1.2305
24236,16.258,3.2727,0.1,0.00041995,4196.6,0.00041142,3975.7,-0.00011749,1.6476,-0.00017265,-412.8,1.2184
24237,16.349,3,0.1,0.00039551,3952.4,0.00038848,3767.9,-0.00011298,0.11635,-0.00015909,-346.3,1.2305
24238,16.258,3.0909,0.1,0.00040841,4081.3,0.00040014,3866.8,-0.00011443,0.53203,-0.00016774,-399.98,1.2185
24239,16.349,2.8182,0.1,0.00040018,3999,0.0003931,3813.2,-0.00011432,0.73726,-0.0001609,-349.28,1.2305
24240,16.258,2.9091,0.1,0.00040841,4081.3,0.00040014,3866.8,-0.00011443,0.53203,-0.00016774,-399.98,1.2185
24241,16.349,2.6364,0.1,0.00041463,4143.4,0.00040742,3953.8,-0.00011885,-0.35515,-0.00016617,-355.96,1.2303
24242,16.258,2.7273,0.1,0.00041995,4196.6,0.00041142,3975.7,-0.00011749,1.6476,-0.00017265,-412.8,1.2184
24243,16.349,2.4545,0.1,0.0004409,4406,0.00043354,4212.2,-0.00012665,3.2334,-0.00017596,-367.3,1.23
24244,16.258,2.5455,0.1,0.00044572,4454.1,0.00043666,4219,-0.00012504,-1.3857,-0.00018298,-436.74,1.2182
24245,16.349,2.2727,0.1,0.00046841,4680.9,0.00046177,4505.1,-0.00013641,10.578,-0.00018336,-342.15,1.2297
24246,16.258,2.3636,0.1,0.00049322,4928.8,0.00048343,4676.9,-0.00013727,13.262,-0.00020291,-479.97,1.2178
24247,16.349,2.0909,0.1,0.00047467,4743.4,0.00046647,4549.3,-0.00012492,105.78,-0.00019833,-445.8,1.2292
24248,16.258,2.1818,0.1,0.00056949,5691,0.00056033,5449.2,-0.00016443,3.5577,-0.000226,-459.01,1.2173
24249,16.349,1.9091,0.1,0.00042756,4272.7,0.00040663,3833.9,-8.2525e-05,158.65,-0.00021732,-854.14,1.2287
24250,16.258,2,0.1,0.00070552,7050.3,0.00069441,6805.1,-0.00017946,239.21,-0.00029726,-645.96,1.2168
24251,16.349,1.7273,0.1,0.00033371,3334.8,0.00030331,2698.7,-5.1335e-05,34.01,-0.00019442,-1041,1.2281
24252,16.258,1.8182,0.1,0.00032996,3297.3,0.00028907,2522,-2.9587e-05,127.77,-0.00021148,-1238.9,1.2161
24253,16.349,1.5455,0.1,0.00025057,2504,0.00022333,1940.4,-3.4331e-05,4.3797,-0.00015303,-887.48,1.2276
24254,16.258,1.6364,0.1,0.00022824,2280.8,0.00020476,1777.3,-3.565e-05,-29.009,-0.00013635,-785.66,1.2155
24255,16.349,1.3636,0.1,0.00019374,1936.1,0.00017285,1505,-2.6443e-05,7.6058,-0.00011812,-681.25,1.227
24256,16.258,1.4545,0.1,0.00017654,1764.2,0.00015752,1371.5,-2.4151e-05,6.429,-0.00010761,-620.63,1.2149
24257,16.349,1.1818,0.1,0.00015324,1531.4,0.00013726,1199,-2.1771e-05,4.1313,-9.2494e-05,-527.25,1.2265
24258,16.258,1.2727,0.1,0.0001386,1385,0.00012453,1088.7,-2.0714e-05,-2.595,-8.2835e-05,-469.35,1.2143
24259,16.349,1,0.1,0.00012175,1216.6,0.00010987,967.16,-1.8341e-05,3.8661,-7.2098e-05,-400.05,1.226
24260,16.258,1.0909,0.1,0.00011033,1102.5,9.9875e-05,880.46,-1.7363e-05,-0.42108,-6.468e-05,-355.94,1.2137
24261,16.349,0.81818,0.1,9.5956e-05,958.9,8.7497e-05,778.56,-1.567e-05,3.404,-5.5217e-05,-293.74,1.2255
24262,16.258,0.90909,0.1,8.7654e-05,875.94,8.014e-05,713.48,-1.495e-05,-0.99269,-4.9923e-05,-263.77,1.2132
24263,16.349,0.63636,0.1,7.3925e-05,738.74,6.8346e-05,617.3,-1.3337e-05,3.5616,-4.0779e-05,-202.62,1.225
24264,16.258,0.72727,0.1,6.8501e-05,684.53,6.3405e-05,571.86,-1.2818e-05,-0.85291,-3.7498e-05,-186.29,1.2126
24265,16.349,0.45455,0.1,5.4568e-05,545.3,5.1358e-05,473.43,-1.1088e-05,4.2344,-2.8264e-05,-124.82,1.2245
24266,16.258,0.54545,0.1,5.1591e-05,515.56,4.8509e-05,445.03,-1.0836e-05,-0.85611,-2.6627e-05,-119.5,1.2121
24267,16.349,0.27273,0.1,3.8093e-05,380.66,3.6543e-05,345.57,-8.4968e-06,7.1656,-1.8309e-05,-66.559,1.224
24268,16.258,0.36364,0.1,3.6078e-05,360.53,3.4618e-05,325.08,-8.8229e-06,-1.3212,-1.6886e-05,-61.908,1.2116
24269,16.258,0.18182,0.1,2.1868e-05,218.53,2.1462e-05,207.99,-6.1715e-06,0.3616,-8.8829e-06,-20.011,1.2112
24270,16.349,0.090909,0.1,2.4136e-05,241.2,2.3849e-05,234.42,-6.5812e-06,5.7718,-9.696e-06,-17.632,1.2235
24271,0.18391,0.27273,0.1,0.00042598,4256.9,0.00041879,4173.1,-8.1762e-05,412.15,-0.00019627,-448.26,0.00011715
24272,0.27586,0.18182,0.1,0.00045445,4541.4,0.00045147,4458.2,-0.00014148,3.0524,-0.00016381,-164.73,0.00020679
24273,0.091954,0.18182,0.1,0.0002712,2710.2,0.00028733,3191.9,-6.1408e-05,571.69,-8.4257e-05,400.01,2.6319e-05
24274,0.18391,0.090909,0.1,0.00038488,3846.2,0.0003794,3688.5,-0.00012328,-88.457,-0.00014123,-223.26,5.2634e-05
24275,0.18391,0.45455,0.1,0.0004882,4878.7,0.00047112,4829.5,-3.2564e-05,1045.1,-0.0002617,-676.54,0.00015554
24276,0.27586,0.36364,0.1,0.00046492,4646,0.00046574,4821.7,-7.7056e-05,743.3,-0.00020737,-235.82,0.00030088
24277,0.091954,0.36364,0.1,0.00034117,3409.4,0.00037597,4547.7,-2.1091e-05,1564.4,-0.00011863,831.48,4.3527e-05
24278,0.18391,0.63636,0.1,0.00054833,5479.6,0.00052524,5446.1,-1.5383e-05,1384,-0.00030422,-786.19,0.00017883
24279,0.27586,0.54545,0.1,0.00050105,5007.1,0.00049974,5312.4,-4.1643e-05,1244.6,-0.00024452,-279.69,0.00036008
24280,0.091954,0.54545,0.1,0.0003993,3990.3,0.00044177,5427.6,-8.9961e-06,2040.7,-0.00014367,1028.8,5.2992e-05
24281,0.18391,0.81818,0.1,0.00059408,5936.7,0.0005675,5912,-8.1942e-06,1586.4,-0.00033332,-856.47,0.00019427
24282,0.27586,0.72727,0.1,0.00053728,5369.1,0.00053353,5742.1,-2.3738e-05,1555.1,-0.00027209,-310.94,0.00039927
24283,0.091954,0.72727,0.1,0.00044094,4406.3,0.00048798,6019.7,-4.5337e-06,2319.2,-0.00016076,1145.3,5.8927e-05
24284,0.18391,1,0.1,0.00062837,6279.4,0.0005997,6261.9,-4.922e-06,1719,-0.00035399,-903.73,0.00020517
24285,0.27586,0.90909,0.1,0.00056802,5676.2,0.0005627,6093.3,-1.4577e-05,1755.9,-0.00029232,-330.95,0.00042674
24286,0.091954,0.90909,0.1,0.00047087,4705.4,0.00052105,6436.2,-2.6531e-06,2501.4,-0.00017266,1224,6.2933e-05
24287,0.18391,1.1818,0.1,0.00065437,6539.2,0.00062429,6527.1,-3.1898e-06,1812.5,-0.00036927,-938.08,0.00021318
24288,0.27586,1.0909,0.1,0.0005929,5924.9,0.00058658,6372.7,-9.5221e-06,1893.8,-0.00030756,-345.54,0.0004468
24289,0.091954,1.0909,0.1,0.00049302,4926.8,0.00054545,6741,-1.6831e-06,2630.1,-0.00018138,1279.9,6.5803e-05
24290,0.18391,1.3636,0.1,0.00067436,6739,0.00064328,6731.2,-2.195e-06,1881.4,-0.00038085,-963.67,0.00021923
24291,0.27586,1.2727,0.1,0.00061279,6123.7,0.00060582,6594.2,-6.5499e-06,1993.1,-0.00031923,-356.27,0.00046187
24292,0.091954,1.2727,0.1,0.00050977,5094.2,0.00056388,6970.2,-1.1434e-06,2724.8,-0.00018793,1321.4,6.7934e-05
24293,0.18391,1.5455,0.1,0.00068991,6894.4,0.00065811,6890.1,-1.581e-06,1933.5,-0.00038977,-983.2,0.00022388
24294,0.27586,1.4545,0.1,0.00062866,6282.2,0.00062125,6770.1,-4.7003e-06,2066.9,-0.00032829,-364.43,0.00047342
24295,0.091954,1.4545,0.1,0.00052267,5223.1,0.00057806,7145.9,-8.1484e-07,2796.5,-0.00019294,1352.9,6.9553e-05
24296,0.18391,1.7273,0.1,0.00070208,7016,0.00066973,7014.5,-1.1836e-06,1973.5,-0.00039671,-998.27,0.00022749
24297,0.27586,1.6364,0.1,0.00064131,6408.7,0.00063361,6910,-3.4982e-06,2123,-0.00033539,-370.71,0.00048237
24298,0.091954,1.6364,0.1,0.0005327,5323.3,0.00058909,7282.3,-6.0456e-07,2851.6,-0.00019684,1377.1,7.0802e-05
24299,0.18391,1.9091,0.1,0.00071161,7111.2,0.00067884,7111.9,-9.1731e-07,2004.5,-0.00040211,-1010,0.0002303
24300,0.27586,1.8182,0.1,0.00065137,6509.3,0.00064346,7021,-2.6905e-06,2166.1,-0.00034097,-375.59,0.00048936
24301,0.091954,1.8182,0.1,0.00054054,5401.7,0.0005977,7388.6,-4.6441e-07,2894.3,-0.00019988,1395.9,7.1772e-05
24302,0.18391,2.0909,0.1,0.00071901,7185.2,0.00068593,7187.7,-7.3496e-07,2028.3,-0.0004063,-1019,0.00023247
24303,0.27586,2,0.1,0.00065933,6588.7,0.00065126,7108.7,-2.1354e-06,2199.3,-0.00034534,-379.36,0.00049479
24304,0.091954,2,0.1,0.00054665,5462.7,0.0006044,7471.4,-3.6857e-07,2927.3,-0.00020224,1410.5,7.2523e-05
24305,0.18391,2.2727,0.1,0.00072467,7241.7,0.00069135,7245.5,-6.0923e-07,2046.4,-0.0004095,-1025.8,0.00023413
24306,0.27586,2.1818,0.1,0.00066551,6650.6,0.00065734,7176.8,-1.7496e-06,2224.7,-0.00034872,-382.26,0.00049898
24307,0.091954,2.1818,0.1,0.00055136,5509.8,0.00060957,7535,-3.0215e-07,2952.7,-0.00020407,1421.7,7.31e-05
24308,0.18391,2.4545,0.1,0.00072883,7283.3,0.00069534,7288.1,-5.2368e-07,2059.7,-0.00041184,-1030.8,0.00023534
24309,0.27586,2.3636,0.1,0.0006702,6697.4,0.00066194,7228.4,-1.4828e-06,2243.7,-0.00035126,-384.43,0.00050212
24310,0.091954,2.3636,0.1,0.00055489,5545.1,0.00061345,7582.9,-2.5629e-07,2971.7,-0.00020543,1430.1,7.3533e-05
24311,0.18391,2.6364,0.1,0.00073169,7311.8,0.00069808,7317.4,-4.6832e-07,2068.8,-0.00041345,-1034.2,0.00023617
24312,0.27586,2.5455,0.1,0.00067356,6731,0.00066525,7265.4,-1.3038e-06,2257.2,-0.00035309,-385.98,0.00050436
24313,0.091954,2.5455,0.1,0.00055742,5570.3,0.00061622,7617,-2.2555e-07,2985.3,-0.00020641,1436.1,7.3841e-05
24314,0.18391,2.8182,0.1,0.00073336,7328.5,0.00069968,7334.5,-4.372e-07,2074,-0.00041439,-1036.2,0.00023665
24315,0.27586,2.7273,0.1,0.00067574,6752.7,0.00066739,7289.4,-1.1934e-06,2265.9,-0.00035426,-386.97,0.00050581
24316,0.091954,2.7273,0.1,0.00055905,5586.6,0.00061801,7639,-2.0661e-07,2994,-0.00020704,1439.9,7.4039e-05
24317,0.18391,3,0.1,0.00073391,7334,0.00070021,7340.1,-4.2715e-07,2075.8,-0.0004147,-1036.9,0.00023681
24318,0.27586,2.9091,0.1,0.00067681,6763.4,0.00066844,7301.1,-1.1408e-06,2270.1,-0.00035484,-387.46,0.00050651
24319,0.091954,2.9091,0.1,0.00055985,5594.6,0.00061889,7649.8,-1.9758e-07,2998.2,-0.00020735,1441.8,7.4136e-05
24320,0.18391,3.1818,0.1,0.00073336,7328.5,0.00069968,7334.5,-4.372e-07,2074,-0.00041439,-1036.2,0.00023665
24321,0.27586,3.0909,0.1,0.00067681,6763.4,0.00066844,7301.1,-1.1408e-06,2270.1,-0.00035484,-387.46,0.00050651
24322,0.091954,3.0909,0.1,0.00055985,5594.6,0.00061889,7649.8,-1.9758e-07,2998.2,-0.00020735,1441.8,7.4136e-05
24323,0.18391,3.3636,0.1,0.00073169,7311.8,0.00069808,7317.4,-4.6832e-07,2068.8,-0.00041345,-1034.2,0.00023617
24324,0.27586,3.2727,0.1,0.00067574,6752.7,0.00066739,7289.4,-1.1934e-06,2265.9,-0.00035426,-386.97,0.00050581
24325,0.091954,3.2727,0.1,0.00055905,5586.6,0.00061801,7639,-2.0661e-07,2994,-0.00020704,1439.9,7.4039e-05
24326,0.18391,3.5455,0.1,0.00072883,7283.3,0.00069534,7288.1,-5.2368e-07,2059.7,-0.00041184,-1030.8,0.00023534
24327,0.27586,3.4545,0.1,0.00067356,6731,0.00066525,7265.4,-1.3038e-06,2257.2,-0.00035309,-385.98,0.00050436
24328,0.091954,3.4545,0.1,0.00055742,5570.3,0.00061622,7617,-2.2555e-07,2985.3,-0.00020641,1436.1,7.3841e-05
24329,0.18391,3.7273,0.1,0.00072467,7241.7,0.00069135,7245.5,-6.0923e-07,2046.4,-0.0004095,-1025.8,0.00023413
24330,0.27586,3.6364,0.1,0.0006702,6697.4,0.00066194,7228.4,-1.4828e-06,2243.7,-0.00035126,-384.43,0.00050212
24331,0.091954,3.6364,0.1,0.00055489,5545.1,0.00061345,7582.9,-2.5629e-07,2971.7,-0.00020543,1430.1,7.3533e-05
24332,0.18391,3.9091,0.1,0.00071901,7185.2,0.00068593,7187.7,-7.3496e-07,2028.3,-0.0004063,-1019,0.00023247
24333,0.27586,3.8182,0.1,0.00066551,6650.6,0.00065734,7176.8,-1.7496e-06,2224.7,-0.00034872,-382.26,0.00049898
24334,0.091954,3.8182,0.1,0.00055136,5509.8,0.00060957,7535,-3.0215e-07,2952.7,-0.00020407,1421.7,7.31e-05
24335,0.18391,4.0909,0.1,0.00071161,7111.2,0.00067884,7111.9,-9.1731e-07,2004.5,-0.00040211,-1010,0.0002303
24336,0.27586,4,0.1,0.00065933,6588.7,0.00065126,7108.7,-2.1354e-06,2199.3,-0.00034534,-379.36,0.00049479
24337,0.091954,4,0.1,0.00054665,5462.7,0.0006044,7471.3,-3.6857e-07,2927.3,-0.00020224,1410.5,7.2523e-05
24338,0.18391,4.2727,0.1,0.00070208,7016,0.00066973,7014.5,-1.1836e-06,1973.5,-0.00039671,-998.27,0.00022749
24339,0.27586,4.1818,0.1,0.00065137,6509.3,0.00064346,7021,-2.6905e-06,2166.1,-0.00034097,-375.59,0.00048936
24340,0.091954,4.1818,0.1,0.00054054,5401.7,0.0005977,7388.6,-4.6441e-07,2894.3,-0.00019988,1395.9,7.1772e-05
24341,0.18391,4.4545,0.1,0.00068991,6894.4,0.00065811,6890.1,-1.581e-06,1933.5,-0.00038977,-983.2,0.00022388
24342,0.27586,4.3636,0.1,0.00064131,6408.7,0.00063361,6910,-3.4982e-06,2123,-0.00033539,-370.71,0.00048237
24343,0.091954,4.3636,0.1,0.0005327,5323.3,0.00058909,7282.3,-6.0456e-07,2851.6,-0.00019684,1377.1,7.0802e-05
24344,0.18391,4.6364,0.1,0.00067436,6739,0.00064328,6731.2,-2.195e-06,1881.4,-0.00038085,-963.67,0.00021923
24345,0.27586,4.5455,0.1,0.00062866,6282.2,0.00062125,6770.1,-4.7003e-06,2066.9,-0.00032829,-364.43,0.00047342
24346,0.091954,4.5455,0.1,0.00052267,5223.1,0.00057806,7145.9,-8.1484e-07,2796.5,-0.00019294,1352.9,6.9553e-05
24347,0.18391,4.8182,0.1,0.00065437,6539.2,0.00062429,6527.1,-3.1898e-06,1812.5,-0.00036927,-938.08,0.00021318
24348,0.27586,4.7273,0.1,0.00061279,6123.7,0.00060582,6594.2,-6.5499e-06,1993.1,-0.00031923,-356.27,0.00046187
24349,0.091954,4.7273,0.1,0.00050977,5094.2,0.00056388,6970.2,-1.1434e-06,2724.8,-0.00018793,1321.4,6.7934e-05
24350,0.18391,5,0.1,0.00062837,6279.4,0.0005997,6261.9,-4.922e-06,1719,-0.00035399,-903.73,0.00020517
24351,0.27586,4.9091,0.1,0.0005929,5924.9,0.00058658,6372.7,-9.5221e-06,1893.8,-0.00030756,-345.54,0.0004468
24352,0.091954,4.9091,0.1,0.00049302,4926.8,0.00054545,6741,-1.6831e-06,2630.1,-0.00018138,1279.9,6.5803e-05
24353,0.18391,5.1818,0.1,0.00059408,5936.7,0.0005675,5912,-8.1941e-06,1586.4,-0.00033332,-856.47,0.00019427
24354,0.27586,5.0909,0.1,0.00056802,5676.2,0.0005627,6093.3,-1.4577e-05,1755.9,-0.00029232,-330.95,0.00042674
24355,0.091954,5.0909,0.1,0.00047087,4705.4,0.00052105,6436.2,-2.6531e-06,2501.4,-0.00017266,1224,6.2933e-05
24356,0.18391,5.3636,0.1,0.00054833,5479.6,0.00052524,5446.1,-1.5383e-05,1384,-0.00030422,-786.19,0.00017883
24357,0.27586,5.2727,0.1,0.00053728,5369.1,0.00053353,5742.1,-2.3738e-05,1555.1,-0.00027209,-310.94,0.00039927
24358,0.091954,5.2727,0.1,0.00044094,4406.3,0.00048798,6019.7,-4.5337e-06,2319.2,-0.00016076,1145.3,5.8927e-05
24359,0.18391,5.5455,0.1,0.0004882,4878.7,0.00047112,4829.5,-3.2564e-05,1045.1,-0.0002617,-676.54,0.00015554
24360,0.27586,5.4545,0.1,0.00050105,5007.1,0.00049974,5312.4,-4.1643e-05,1244.6,-0.00024452,-279.69,0.00036008
24361,0.091954,5.4545,0.1,0.0003993,3990.3,0.00044177,5427.6,-8.9961e-06,2040.7,-0.00014367,1028.8,5.2992e-05
24362,0.18391,5.7273,0.1,0.00042598,4256.9,0.00041879,4173.1,-8.1762e-05,412.15,-0.00019627,-448.26,0.00011715
24363,0.27586,5.6364,0.1,0.00046492,4646,0.00046574,4821.7,-7.7056e-05,743.3,-0.00020737,-235.82,0.00030088
24364,0.091954,5.6364,0.1,0.00034117,3409.4,0.00037597,4547.7,-2.1091e-05,1564.4,-0.00011863,831.48,4.3527e-05
24365,0.27586,5.8182,0.1,0.00045445,4541.4,0.00045147,4458.2,-0.00014148,3.0523,-0.00016381,-164.73,0.00020679
24366,0.091954,5.8182,0.1,0.0002712,2710.2,0.00028733,3191.9,-6.1408e-05,571.69,-8.4257e-05,400.01,2.6319e-05
24367,0.18391,5.9091,0.1,0.00038488,3846.2,0.0003794,3688.5,-0.00012328,-88.457,-0.00014123,-223.26,5.2634e-05
24368,0.36782,0.27273,0.1,0.00049001,4896.7,0.00049641,5091.7,-0.00014045,306.59,-0.00016922,90.438,0.000471
24369,0.45977,0.18182,0.1,0.00053075,5303.9,0.00052969,5275.2,-0.00016688,41.484,-0.00018519,-96.093,0.0006513
24370,0.36782,0.090909,0.1,0.0004933,4929.6,0.00049126,4873.3,-0.00015419,23.635,-0.00017497,-132.5,0.00029503
24371,0.36782,0.45455,0.1,0.00048033,4800,0.00049433,5304.2,-8.6194e-05,942.43,-0.0001901,161.75,0.0005888
24372,0.45977,0.36364,0.1,0.00050687,5065.2,0.00051506,5340.3,-0.00012425,536.74,-0.00018919,48.853,0.00084856
24373,0.36782,0.63636,0.1,0.00049303,4926.9,0.00050898,5615.6,-5.0962e-05,1408.4,-0.00021238,195.61,0.00066842
24374,0.45977,0.54545,0.1,0.00050644,5060.9,0.00051821,5544.1,-8.1201e-05,1040.3,-0.0002107,67.328,0.00098683
24375,0.36782,0.81818,0.1,0.00051354,5131.9,0.00052962,5930.2,-3.1009e-05,1717.9,-0.00023109,214.55,0.00072427
24376,0.45977,0.72727,0.1,0.00051809,5177.4,0.00053034,5789.9,-5.2729e-05,1409,-0.00023007,76.575,0.0010852
24377,0.36782,1,0.1,0.00053426,5338.9,0.0005502,6208.8,-1.9794e-05,1926.1,-0.0002459,227.2,0.00076493
24378,0.45977,0.90909,0.1,0.00053406,5336.9,0.00054585,6032.6,-3.4948e-05,1668.7,-0.00024607,82.409,0.0011571
24379,0.36782,1.1818,0.1,0.00055264,5522.6,0.00056852,6442.8,-1.328e-05,2071.4,-0.00025752,236.25,0.00079538
24380,0.45977,1.0909,0.1,0.00055029,5499.1,0.00056156,6251.6,-2.3923e-05,1852.5,-0.00025897,86.448,0.001211
24381,0.36782,1.3636,0.1,0.00056816,5677.7,0.00058405,6634.9,-9.3066e-06,2176.7,-0.00026667,242.95,0.00081866
24382,0.45977,1.2727,0.1,0.00056509,5647,0.00057596,6440.4,-1.6935e-05,1985.6,-0.00026931,89.381,0.0012522
24383,0.36782,1.5455,0.1,0.00058098,5805.8,0.00059692,6791.1,-6.7753e-06,2255.2,-0.00027391,248.04,0.0008367
24384,0.45977,1.4545,0.1,0.00057792,5775.2,0.00058853,6599.3,-1.2379e-05,2084.3,-0.00027759,91.586,0.0012841
24385,0.36782,1.7273,0.1,0.00059144,5910.3,0.00060744,6917.3,-5.1033e-06,2314.8,-0.00027966,251.96,0.00085079
24386,0.45977,1.6364,0.1,0.00058874,5883.4,0.00059918,6730.9,-9.3245e-06,2158.8,-0.00028423,93.274,0.001309
24387,0.36782,1.9091,0.1,0.00059987,5994.6,0.00061594,7018.3,-3.9686e-06,2360.5,-0.0002842,254.99,0.00086181
24388,0.45977,1.8182,0.1,0.0005977,5972.9,0.00060804,6838.6,-7.2297e-06,2215.7,-0.00028953,94.577,0.0013286
24389,0.36782,2.0909,0.1,0.00060657,6061.5,0.0006227,7098.1,-3.1855e-06,2395.5,-0.00028776,257.32,0.00087037
24390,0.45977,2,0.1,0.00060499,6045.7,0.00061526,6925.4,-5.7696e-06,2259.3,-0.00029374,95.584,0.001344
24391,0.36782,2.2727,0.1,0.00061176,6113.4,0.00062795,7159.9,-2.6427e-06,2421.8,-0.00029049,259.09,0.00087689
24392,0.45977,2.1818,0.1,0.00061078,6103.6,0.00062101,6994.1,-4.745e-06,2292.4,-0.00029702,96.355,0.0013558
24393,0.36782,2.4545,0.1,0.00061563,6152.1,0.00063186,7205.7,-2.2722e-06,2441.1,-0.00029251,260.38,0.0008817
24394,0.45977,2.3636,0.1,0.00061523,6148.1,0.00062544,7046.7,-4.0316e-06,2317.1,-0.00029952,96.931,0.0013647
24395,0.36782,2.6364,0.1,0.0006183,6178.8,0.00063457,7237.4,-2.0319e-06,2454.3,-0.0002939,261.26,0.00088499
24396,0.45977,2.5455,0.1,0.00061846,6180.4,0.00062866,7084.8,-3.5507e-06,2334.6,-0.00030131,97.341,0.0013711
24397,0.36782,2.8182,0.1,0.00061988,6194.5,0.00063616,7256,-1.8967e-06,2461.9,-0.00029472,261.78,0.00088692
24398,0.45977,2.7273,0.1,0.00062057,6201.4,0.00063076,7109.6,-3.2535e-06,2345.9,-0.00030248,97.604,0.0013752
24399,0.36782,3,0.1,0.00062039,6199.7,0.00063668,7262.1,-1.853e-06,2464.4,-0.00029499,261.95,0.00088755
24400,0.45977,2.9091,0.1,0.00062161,6211.8,0.00063179,7121.8,-3.1114e-06,2351.3,-0.00030305,97.733,0.0013772
24401,0.36782,3.1818,0.1,0.00061988,6194.5,0.00063616,7256,-1.8967e-06,2461.9,-0.00029472,261.78,0.00088692
24402,0.45977,3.0909,0.1,0.00062161,6211.8,0.00063179,7121.8,-3.1114e-06,2351.3,-0.00030305,97.733,0.0013772
24403,0.36782,3.3636,0.1,0.0006183,6178.8,0.00063457,7237.4,-2.0319e-06,2454.3,-0.0002939,261.26,0.00088499
24404,0.45977,3.2727,0.1,0.00062057,6201.4,0.00063076,7109.6,-3.2535e-06,2345.9,-0.00030248,97.604,0.0013752
24405,0.36782,3.5455,0.1,0.00061563,6152.1,0.00063186,7205.7,-2.2722e-06,2441.1,-0.00029251,260.38,0.0008817
24406,0.45977,3.4545,0.1,0.00061846,6180.4,0.00062866,7084.8,-3.5507e-06,2334.6,-0.00030131,97.341,0.0013711
24407,0.36782,3.7273,0.1,0.00061176,6113.4,0.00062795,7159.9,-2.6427e-06,2421.8,-0.00029049,259.09,0.00087689
24408,0.45977,3.6364,0.1,0.00061523,6148.1,0.00062544,7046.7,-4.0316e-06,2317.1,-0.00029952,96.931,0.0013647
24409,0.36782,3.9091,0.1,0.00060657,6061.5,0.0006227,7098.1,-3.1855e-06,2395.5,-0.00028776,257.32,0.00087037
24410,0.45977,3.8182,0.1,0.00061078,6103.6,0.00062101,6994.1,-4.745e-06,2292.4,-0.00029702,96.355,0.0013558
24411,0.36782,4.0909,0.1,0.00059987,5994.6,0.00061594,7018.3,-3.9686e-06,2360.5,-0.0002842,254.99,0.00086181
24412,0.45977,4,0.1,0.00060499,6045.7,0.00061526,6925.4,-5.7696e-06,2259.3,-0.00029374,95.584,0.001344
24413,0.36782,4.2727,0.1,0.00059144,5910.3,0.00060744,6917.3,-5.1033e-06,2314.8,-0.00027966,251.96,0.00085079
24414,0.45977,4.1818,0.1,0.0005977,5972.9,0.00060804,6838.6,-7.2297e-06,2215.7,-0.00028953,94.577,0.0013286
24415,0.36782,4.4545,0.1,0.00058098,5805.8,0.00059692,6791.1,-6.7753e-06,2255.2,-0.00027391,248.04,0.0008367
24416,0.45977,4.3636,0.1,0.00058874,5883.4,0.00059918,6730.9,-9.3245e-06,2158.8,-0.00028423,93.274,0.001309
24417,0.36782,4.6364,0.1,0.00056816,5677.7,0.00058405,6634.9,-9.3066e-06,2176.7,-0.00026667,242.95,0.00081866
24418,0.45977,4.5455,0.1,0.00057792,5775.2,0.00058853,6599.3,-1.2379e-05,2084.3,-0.00027759,91.586,0.0012841
24419,0.36782,4.8182,0.1,0.00055264,5522.6,0.00056852,6442.8,-1.328e-05,2071.4,-0.00025752,236.25,0.00079538
24420,0.45977,4.7273,0.1,0.00056509,5647,0.00057596,6440.4,-1.6935e-05,1985.6,-0.00026931,89.381,0.0012522
24421,0.36782,5,0.1,0.00053426,5338.9,0.0005502,6208.8,-1.9794e-05,1926.1,-0.0002459,227.2,0.00076493
24422,0.45977,4.9091,0.1,0.00055029,5499.1,0.00056156,6251.6,-2.3923e-05,1852.5,-0.00025897,86.448,0.001211
24423,0.36782,5.1818,0.1,0.00051354,5131.9,0.00052962,5930.2,-3.1009e-05,1717.9,-0.00023109,214.55,0.00072427
24424,0.45977,5.0909,0.1,0.00053406,5336.9,0.00054585,6032.6,-3.4948e-05,1668.7,-0.00024607,82.409,0.0011571
24425,0.36782,5.3636,0.1,0.00049303,4926.9,0.00050898,5615.6,-5.0962e-05,1408.4,-0.00021238,195.61,0.00066842
24426,0.45977,5.2727,0.1,0.00051809,5177.4,0.00053034,5789.9,-5.2729e-05,1409,-0.00023007,76.575,0.0010852
24427,0.36782,5.5455,0.1,0.00048033,4800,0.00049433,5304.2,-8.6194e-05,942.43,-0.0001901,161.75,0.0005888
24428,0.45977,5.4545,0.1,0.00050644,5060.9,0.00051821,5544.1,-8.1201e-05,1040.3,-0.0002107,67.328,0.00098683
24429,0.36782,5.7273,0.1,0.00049001,4896.7,0.00049641,5091.7,-0.00014045,306.59,-0.00016922,90.438,0.000471
24430,0.45977,5.6364,0.1,0.00050687,5065.2,0.00051506,5340.3,-0.00012425,536.74,-0.00018919,48.853,0.00084856
24431,0.45977,5.8182,0.1,0.00053075,5303.9,0.00052969,5275.2,-0.00016688,41.484,-0.00018519,-96.093,0.0006513
24432,0.36782,5.9091,0.1,0.0004933,4929.6,0.00049126,4873.3,-0.00015419,23.635,-0.00017497,-132.5,0.00029502
24433,0.55172,0.27273,0.1,0.00054612,5457.4,0.00054814,5522.3,-0.0001643,169.33,-0.00019134,-33.794,0.0011269
24434,0.64368,0.18182,0.1,0.00057098,5705.9,0.00056961,5666.6,-0.00018326,9.863,-0.00019617,-87.108,0.0014177
24435,0.55172,0.090909,0.1,0.00054773,5473.5,0.00054568,5414.5,-0.00017616,-9.0469,-0.00018927,-107.6,0.00083436
24436,0.55172,0.45455,0.1,0.00053165,5312.8,0.00053844,5576.3,-0.00011888,637.49,-0.00020966,-44.584,0.001341
24437,0.64368,0.36364,0.1,0.0005479,5475.2,0.00055294,5643.8,-0.0001482,375.74,-0.00020052,-17.395,0.0017215
24438,0.55172,0.63636,0.1,0.00053082,5304.6,0.00053915,5715.2,-8.2577e-05,1043.8,-0.00022836,-51.493,0.0014971
24439,0.64368,0.54545,0.1,0.00053859,5382.2,0.00054708,5719.5,-0.00010974,784.38,-0.00021671,-19.311,0.0019496
24440,0.55172,0.81818,0.1,0.0005384,5380.3,0.00054643,5891.3,-5.6538e-05,1360.8,-0.00024504,-55.489,0.0016125
24441,0.64368,0.72727,0.1,0.0005384,5380.3,0.00054795,5842.2,-7.9048e-05,1131.2,-0.00023235,-20.733,0.0021213
24442,0.55172,1,0.1,0.00055009,5497.1,0.00055724,6075.7,-3.9107e-05,1594.9,-0.00025914,-58.321,0.0016993
24443,0.64368,0.90909,0.1,0.00054432,5439.4,0.00055363,5988.2,-5.667e-05,1402.6,-0.00024624,-21.729,0.0022517
24444,0.55172,1.1818,0.1,0.0005628,5624.1,0.00056909,6249.9,-2.7661e-05,1766.1,-0.00027076,-60.413,0.0017658
24445,0.64368,1.0909,0.1,0.00055327,5528.9,0.0005619,6138.4,-4.1028e-05,1608.2,-0.00025807,-22.528,0.0023522
24446,0.55172,1.3636,0.1,0.00057491,5745.1,0.00058053,6405.4,-2.009e-05,1892.6,-0.00028022,-61.983,0.0018175
24447,0.64368,1.2727,0.1,0.00056314,5627.6,0.00057105,6280.7,-3.0224e-05,1763,-0.00026794,-23.136,0.0024305
24448,0.55172,1.5455,0.1,0.00058573,5853.3,0.00059086,6539.5,-1.4994e-05,1987.3,-0.0002879,-63.183,0.001858
24449,0.64368,1.4545,0.1,0.00057274,5723.4,0.00058004,6409.1,-2.2734e-05,1880,-0.00027609,-23.606,0.0024921
24450,0.55172,1.7273,0.1,0.00059505,5946.4,0.00059982,6652.5,-1.1498e-05,2059.3,-0.0002941,-64.109,0.0018899
24451,0.64368,1.6364,0.1,0.00058147,5810.6,0.00058831,6521,-1.7487e-05,1969.3,-0.00028277,-23.971,0.0025407
24452,0.55172,1.9091,0.1,0.00060286,6024.4,0.00060738,6745.9,-9.0617e-06,2114.2,-0.00029907,-64.827,0.001915
24453,0.64368,1.8182,0.1,0.00058908,5886.7,0.00059558,6616.1,-1.3773e-05,2037.7,-0.0002882,-24.254,0.0025792
24454,0.55172,2.0909,0.1,0.00060923,6088.1,0.00061358,6821.5,-7.3475e-06,2156.1,-0.00030301,-65.381,0.0019346
24455,0.64368,2,0.1,0.00059551,5951,0.00060175,6695,-1.1123e-05,2090.1,-0.00029256,-24.474,0.0026095
24456,0.55172,2.2727,0.1,0.00061428,6138.5,0.0006185,6881,-6.143e-06,2187.6,-0.00030606,-65.801,0.0019496
24457,0.64368,2.1818,0.1,0.00060076,6003.5,0.00060682,6758.8,-9.2318e-06,2130,-0.000296,-24.643,0.002633
24458,0.55172,2.4545,0.1,0.00061809,6176.6,0.00062224,6925.7,-5.3127e-06,2210.6,-0.00030832,-66.109,0.0019606
24459,0.64368,2.3636,0.1,0.00060488,6044.6,0.00061081,6808.4,-7.8988e-06,2159.7,-0.00029863,-24.769,0.0026508
24460,0.55172,2.6364,0.1,0.00062076,6203.3,0.00062485,6956.9,-4.7706e-06,2226.2,-0.00030989,-66.32,0.0019682
24461,0.64368,2.5455,0.1,0.00060792,6075,0.00061376,6844.8,-6.9926e-06,2180.7,-0.00030054,-24.858,0.0026635
24462,0.55172,2.8182,0.1,0.00062233,6219,0.00062639,6975.3,-4.4642e-06,2235.3,-0.00031081,-66.443,0.0019727
24463,0.64368,2.7273,0.1,0.00060991,6094.9,0.0006157,6868.7,-6.4292e-06,2194.2,-0.00030177,-24.916,0.0026718
24464,0.55172,3,0.1,0.00062285,6224.2,0.0006269,6981.4,-4.3651e-06,2238.3,-0.00031111,-66.483,0.0019741
24465,0.64368,2.9091,0.1,0.0006109,6104.8,0.00061667,6880.5,-6.159e-06,2200.8,-0.00030238,-24.945,0.0026758
24466,0.55172,3.1818,0.1,0.00062233,6219,0.00062639,6975.3,-4.4642e-06,2235.3,-0.00031081,-66.443,0.0019727
24467,0.64368,3.0909,0.1,0.0006109,6104.8,0.00061667,6880.5,-6.159e-06,2200.8,-0.00030238,-24.945,0.0026758
24468,0.55172,3.3636,0.1,0.00062076,6203.3,0.00062485,6956.9,-4.7706e-06,2226.2,-0.00030989,-66.32,0.0019682
24469,0.64368,3.2727,0.1,0.00060991,6094.9,0.0006157,6868.7,-6.4292e-06,2194.2,-0.00030177,-24.916,0.0026718
24470,0.55172,3.5455,0.1,0.00061809,6176.6,0.00062224,6925.7,-5.3127e-06,2210.6,-0.00030832,-66.109,0.0019606
24471,0.64368,3.4545,0.1,0.00060792,6075,0.00061376,6844.8,-6.9926e-06,2180.7,-0.00030054,-24.858,0.0026635
24472,0.55172,3.7273,0.1,0.00061428,6138.5,0.0006185,6881,-6.143e-06,2187.6,-0.00030606,-65.801,0.0019496
24473,0.64368,3.6364,0.1,0.00060488,6044.6,0.00061081,6808.4,-7.8988e-06,2159.7,-0.00029863,-24.769,0.0026508
24474,0.55172,3.9091,0.1,0.00060923,6088.1,0.00061358,6821.5,-7.3475e-06,2156.1,-0.00030301,-65.381,0.0019346
24475,0.64368,3.8182,0.1,0.00060076,6003.5,0.00060682,6758.8,-9.2318e-06,2130,-0.000296,-24.643,0.002633
24476,0.55172,4.0909,0.1,0.00060286,6024.4,0.00060738,6745.9,-9.0617e-06,2114.2,-0.00029907,-64.827,0.001915
24477,0.64368,4,0.1,0.00059551,5951,0.00060175,6695,-1.1123e-05,2090.1,-0.00029256,-24.474,0.0026095
24478,0.55172,4.2727,0.1,0.00059505,5946.4,0.00059982,6652.5,-1.1498e-05,2059.3,-0.0002941,-64.109,0.0018899
24479,0.64368,4.1818,0.1,0.00058908,5886.7,0.00059558,6616.1,-1.3773e-05,2037.7,-0.0002882,-24.254,0.0025792
24480,0.55172,4.4545,0.1,0.00058573,5853.3,0.00059086,6539.5,-1.4994e-05,1987.3,-0.0002879,-63.183,0.001858
24481,0.64368,4.3636,0.1,0.00058147,5810.6,0.00058831,6521,-1.7487e-05,1969.3,-0.00028277,-23.971,0.0025407
24482,0.55172,4.6364,0.1,0.00057491,5745.1,0.00058053,6405.4,-2.009e-05,1892.6,-0.00028022,-61.983,0.0018175
24483,0.64368,4.5455,0.1,0.00057274,5723.4,0.00058004,6409.1,-2.2734e-05,1880,-0.00027609,-23.606,0.0024921
24484,0.55172,4.8182,0.1,0.0005628,5624.1,0.00056909,6249.9,-2.7661e-05,1766.1,-0.00027076,-60.413,0.0017658
24485,0.64368,4.7273,0.1,0.00056314,5627.6,0.00057105,6280.7,-3.0224e-05,1763,-0.00026794,-23.136,0.0024305
24486,0.55172,5,0.1,0.00055009,5497.1,0.00055724,6075.7,-3.9107e-05,1594.9,-0.00025914,-58.321,0.0016993
24487,0.64368,4.9091,0.1,0.00055327,5528.9,0.0005619,6138.4,-4.1028e-05,1608.2,-0.00025807,-22.528,0.0023522
24488,0.55172,5.1818,0.1,0.0005384,5380.3,0.00054643,5891.3,-5.6538e-05,1360.8,-0.00024504,-55.489,0.0016125
24489,0.64368,5.0909,0.1,0.00054432,5439.4,0.00055363,5988.2,-5.667e-05,1402.6,-0.00024624,-21.729,0.0022517
24490,0.55172,5.3636,0.1,0.00053082,5304.6,0.00053915,5715.2,-8.2577e-05,1043.8,-0.00022836,-51.493,0.0014971
24491,0.64368,5.2727,0.1,0.0005384,5380.3,0.00054795,5842.2,-7.9047e-05,1131.2,-0.00023235,-20.733,0.0021213
24492,0.55172,5.5455,0.1,0.00053165,5312.8,0.00053844,5576.3,-0.00011888,637.49,-0.00020966,-44.584,0.001341
24493,0.64368,5.4545,0.1,0.00053859,5382.2,0.00054708,5719.5,-0.00010974,784.38,-0.00021671,-19.311,0.0019496
24494,0.55172,5.7273,0.1,0.00054611,5457.4,0.00054814,5522.3,-0.0001643,169.33,-0.00019134,-33.794,0.0011269
24495,0.64368,5.6364,0.1,0.0005479,5475.2,0.00055294,5643.8,-0.0001482,375.74,-0.00020052,-17.395,0.0017215
24496,0.64368,5.8182,0.1,0.00057098,5705.9,0.00056961,5666.6,-0.00018326,9.863,-0.00019617,-87.108,0.0014177
24497,0.55172,5.9091,0.1,0.00054773,5473.5,0.00054568,5414.5,-0.00017616,-9.0469,-0.00018927,-107.6,0.00083436
24498,0.73563,0.27273,0.1,0.00057208,5716.8,0.00057441,5788.2,-0.00017652,145.94,-0.000196,-0.40822,0.0021219
24499,0.82759,0.18182,0.1,0.00059125,5908.4,0.00059044,5885.3,-0.00019067,16.408,-0.00020107,-61.689,0.0025391
24500,0.73563,0.090909,0.1,0.00057634,5759.4,0.00057509,5723.3,-0.00018645,1.4242,-0.00019634,-72.906,0.001718
24501,0.73563,0.45455,0.1,0.00055422,5538.4,0.00056147,5786.1,-0.00013903,522.91,-0.0002075,8.4441,0.0024344
24502,0.82759,0.36364,0.1,0.00056906,5686.7,0.00057373,5836.3,-0.00016156,311.61,-0.00020298,0.40572,0.0029456
24503,0.73563,0.63636,0.1,0.00054572,5453.5,0.00055564,5844.7,-0.00010599,873.4,-0.00022069,11.596,0.0026747
24504,0.82759,0.54545,0.1,0.00055626,5558.8,0.00056454,5856.6,-0.0001286,648.67,-0.00021449,3.3334,0.0032652
24505,0.73563,0.81818,0.1,0.00054413,5437.5,0.00055494,5937.5,-7.8972e-05,1174.5,-0.00023355,13.086,0.0028598
24506,0.82759,0.72727,0.1,0.00054977,5493.9,0.00055989,5912.5,-9.9553e-05,957.66,-0.00022645,4.2071,0.0035157
24507,0.73563,1,0.1,0.00054749,5471.1,0.00055816,6050,-5.8474e-05,1416.8,-0.00024516,14.09,0.0030036
24508,0.82759,0.90909,0.1,0.00054867,5483,0.00055931,5993.4,-7.6002e-05,1219.9,-0.00023772,4.8318,0.0037124
24509,0.73563,1.1818,0.1,0.00055368,5533,0.00056381,6168.9,-4.355e-05,1605.4,-0.00025525,14.761,0.0031163
24510,0.82759,1.0909,0.1,0.00055137,5509.9,0.00056178,6088.2,-5.7904e-05,1432.2,-0.00024783,5.1972,0.0038678
24511,0.73563,1.3636,0.1,0.00056105,5606.7,0.00057056,6284.4,-3.2867e-05,1750.4,-0.00026381,15.247,0.0032053
24512,0.82759,1.2727,0.1,0.00055626,5558.7,0.00056613,6187.2,-4.4396e-05,1599.9,-0.00025661,5.4486,0.0039912
24513,0.73563,1.5455,0.1,0.00056855,5681.5,0.00057751,6390.6,-2.5241e-05,1861.8,-0.00027096,15.609,0.003276
24514,0.82759,1.4545,0.1,0.0005621,5617.1,0.00057139,6283.1,-3.4443e-05,1731.1,-0.00026409,5.6254,0.0040897
24515,0.73563,1.7273,0.1,0.00057556,5751.6,0.00058408,6484.7,-1.9778e-05,1947.5,-0.00027687,15.886,0.0033321
24516,0.82759,1.6364,0.1,0.0005681,5677,0.00057686,6371.5,-2.7137e-05,1833.3,-0.00027037,5.7576,0.0041685
24517,0.73563,1.9091,0.1,0.00058178,5813.8,0.00058996,6565.3,-1.5846e-05,2013.5,-0.00028169,16.1,0.0033767
24518,0.82759,1.8182,0.1,0.00057375,5733.6,0.00058208,6449.9,-2.1777e-05,1912.8,-0.00027557,5.8586,0.0042313
24519,0.73563,2.0909,0.1,0.00058708,5866.7,0.000595,6632.4,-1.3013e-05,2064,-0.00028555,16.265,0.0034116
24520,0.82759,2,0.1,0.00057879,5783.9,0.00058677,6517.1,-1.7849e-05,1974.3,-0.00027982,5.9367,0.0042811
24521,0.73563,2.2727,0.1,0.00059139,5909.8,0.00059913,6686.3,-1.0988e-05,2102.1,-0.00028858,16.391,0.0034385
24522,0.82759,2.1818,0.1,0.00058307,5826.7,0.00059079,6572.8,-1.4988e-05,2021.2,-0.0002832,5.9966,0.0043199
24523,0.73563,2.4545,0.1,0.00059473,5943.2,0.00060234,6727.5,-9.5747e-06,2129.8,-0.00029084,16.483,0.0034584
24524,0.82759,2.3636,0.1,0.00058653,5861.2,0.00059405,6617,-1.2941e-05,2056.3,-0.00028581,6.0416,0.0043494
24525,0.73563,2.6364,0.1,0.00059709,5966.8,0.00060461,6756.5,-8.6438e-06,2148.7,-0.00029242,16.546,0.0034721
24526,0.82759,2.5455,0.1,0.00058912,5887.1,0.00059651,6649.8,-1.1533e-05,2081.2,-0.00028771,6.0738,0.0043706
24527,0.73563,2.8182,0.1,0.0005985,5980.9,0.00060597,6773.7,-8.1147e-06,2159.7,-0.00029335,16.583,0.0034801
24528,0.82759,2.7273,0.1,0.00059085,5904.4,0.00059815,6671.5,-1.0652e-05,2097.1,-0.00028895,6.0946,0.0043843
24529,0.73563,3,0.1,0.00059897,5985.5,0.00060643,6779.4,-7.9431e-06,2163.3,-0.00029365,16.595,0.0034828
24530,0.82759,2.9091,0.1,0.00059171,5913,0.00059897,6682.3,-1.0228e-05,2105,-0.00028957,6.1047,0.0043911
24531,0.73563,3.1818,0.1,0.0005985,5980.9,0.00060597,6773.7,-8.1147e-06,2159.7,-0.00029335,16.583,0.0034801
24532,0.82759,3.0909,0.1,0.00059171,5913,0.00059897,6682.3,-1.0228e-05,2105,-0.00028957,6.1047,0.0043911
24533,0.73563,3.3636,0.1,0.00059709,5966.8,0.00060461,6756.5,-8.6438e-06,2148.7,-0.00029242,16.546,0.0034721
24534,0.82759,3.2727,0.1,0.00059085,5904.4,0.00059815,6671.5,-1.0652e-05,2097.1,-0.00028895,6.0946,0.0043843
24535,0.73563,3.5455,0.1,0.00059473,5943.2,0.00060234,6727.5,-9.5747e-06,2129.8,-0.00029084,16.483,0.0034584
24536,0.82759,3.4545,0.1,0.00058912,5887.1,0.00059651,6649.8,-1.1533e-05,2081.2,-0.00028771,6.0738,0.0043706
24537,0.73563,3.7273,0.1,0.00059139,5909.8,0.00059913,6686.3,-1.0988e-05,2102.1,-0.00028858,16.391,0.0034385
24538,0.82759,3.6364,0.1,0.00058653,5861.2,0.00059405,6617,-1.2941e-05,2056.3,-0.00028581,6.0416,0.0043494
24539,0.73563,3.9091,0.1,0.00058708,5866.7,0.000595,6632.4,-1.3013e-05,2064,-0.00028555,16.265,0.0034116
24540,0.82759,3.8182,0.1,0.00058307,5826.7,0.00059079,6572.8,-1.4988e-05,2021.2,-0.0002832,5.9966,0.0043199
24541,0.73563,4.0909,0.1,0.00058178,5813.8,0.00058996,6565.3,-1.5846e-05,2013.5,-0.00028169,16.1,0.0033767
24542,0.82759,4,0.1,0.00057879,5783.9,0.00058677,6517.1,-1.7849e-05,1974.3,-0.00027982,5.9367,0.0042811
24543,0.73563,4.2727,0.1,0.00057556,5751.6,0.00058408,6484.7,-1.9778e-05,1947.5,-0.00027687,15.886,0.0033321
24544,0.82759,4.1818,0.1,0.00057375,5733.6,0.00058208,6449.9,-2.1777e-05,1912.8,-0.00027557,5.8586,0.0042313
24545,0.73563,4.4545,0.1,0.00056855,5681.5,0.00057751,6390.6,-2.5241e-05,1861.8,-0.00027096,15.609,0.003276
24546,0.82759,4.3636,0.1,0.0005681,5677,0.00057686,6371.5,-2.7137e-05,1833.3,-0.00027037,5.7576,0.0041685
24547,0.73563,4.6364,0.1,0.00056105,5606.7,0.00057056,6284.4,-3.2867e-05,1750.4,-0.00026381,15.247,0.0032053
24548,0.82759,4.5455,0.1,0.0005621,5617.1,0.00057139,6283.1,-3.4443e-05,1731.1,-0.00026409,5.6253,0.0040897
24549,0.73563,4.8182,0.1,0.00055368,5533,0.00056381,6168.9,-4.355e-05,1605.4,-0.00025525,14.761,0.0031163
24550,0.82759,4.7273,0.1,0.00055626,5558.7,0.00056613,6187.2,-4.4396e-05,1599.9,-0.00025661,5.4486,0.0039912
24551,0.73563,5,0.1,0.00054749,5471.1,0.00055816,6050,-5.8474e-05,1416.8,-0.00024516,14.09,0.0030036
24552,0.82759,4.9091,0.1,0.00055137,5509.9,0.00056178,6088.2,-5.7904e-05,1432.2,-0.00024783,5.1972,0.0038678
24553,0.73563,5.1818,0.1,0.00054413,5437.5,0.00055494,5937.5,-7.8972e-05,1174.5,-0.00023355,13.086,0.0028598
24554,0.82759,5.0909,0.1,0.00054867,5483,0.00055931,5993.4,-7.6002e-05,1219.9,-0.00023772,4.8318,0.0037124
24555,0.73563,5.3636,0.1,0.00054572,5453.5,0.00055564,5844.7,-0.00010599,873.4,-0.00022069,11.596,0.0026747
24556,0.82759,5.2727,0.1,0.00054977,5493.9,0.00055989,5912.5,-9.9553e-05,957.66,-0.00022645,4.2071,0.0035157
24557,0.73563,5.5455,0.1,0.00055422,5538.4,0.00056147,5786.1,-0.00013903,522.91,-0.0002075,8.4441,0.0024344
24558,0.82759,5.4545,0.1,0.00055626,5558.8,0.00056454,5856.6,-0.0001286,648.67,-0.00021449,3.3333,0.0032652
24559,0.73563,5.7273,0.1,0.00057208,5716.8,0.00057441,5788.2,-0.00017652,145.94,-0.000196,-0.40822,0.0021219
24560,0.82759,5.6364,0.1,0.00056906,5686.7,0.00057373,5836.3,-0.00016156,311.61,-0.00020298,0.40572,0.0029456
24561,0.82759,5.8182,0.1,0.00059125,5908.4,0.00059044,5885.3,-0.00019067,16.408,-0.00020107,-61.689,0.0025391
24562,0.73563,5.9091,0.1,0.00057634,5759.4,0.00057509,5723.3,-0.00018645,1.4242,-0.00019634,-72.906,0.001718
24563,0.91954,0.27273,0.1,0.00058789,5874.8,0.00058982,5934,-0.00018294,127.75,-0.00020088,-7.0725,0.0034796
24564,1.0115,0.18182,0.1,0.00060196,6015.5,0.00060147,6001.5,-0.00019516,15.918,-0.00020306,-43.492,0.0040349
24565,0.91954,0.090909,0.1,0.00059251,5921,0.0005916,5894.5,-0.00019305,-1.0287,-0.00019979,-51.644,0.0029719
24566,0.91954,0.45455,0.1,0.00057075,5703.6,0.00057683,5907,-0.00015122,436.7,-0.00020991,-4.2595,0.0038875
24567,1.0115,0.36364,0.1,0.00058195,5815.5,0.000586,5943.9,-0.00016918,269.71,-0.00020552,-3.3136,0.0045379
24568,0.91954,0.63636,0.1,0.00055995,5595.6,0.0005687,5923.8,-0.00012209,733.45,-0.00022024,-3.9464,0.0042128
24569,1.0115,0.54545,0.1,0.00056867,5682.8,0.00057599,5937.2,-0.00014082,551.4,-0.00021447,-2.0017,0.0049462
24570,0.91954,0.81818,0.1,0.00055404,5536.5,0.00056412,5967.3,-9.6445e-05,1004.1,-0.00023062,-4,0.0044718
24571,1.0115,0.72727,0.1,0.00055961,5592.2,0.00056898,5956.1,-0.0001145,820.72,-0.00022398,-1.8609,0.0052759
24572,0.91954,1,0.1,0.00055238,5520,0.00056279,6030.6,-7.5297e-05,1236.3,-0.00024038,-4.038,0.0046783
24573,1.0115,0.90909,0.1,0.00055467,5542.9,0.00056499,5996,-9.1655e-05,1062.2,-0.00023325,-1.7237,0.0055419
24574,0.91954,1.1818,0.1,0.00055386,5534.7,0.000564,6105.8,-5.865e-05,1427.5,-0.00024918,-4.1037,0.0048436
24575,1.0115,1.0909,0.1,0.0005532,5528.2,0.00056369,6050.9,-7.2849e-05,1268.3,-0.00024187,-1.6854,0.0057566
24576,0.91954,1.3636,0.1,0.00055727,5568.8,0.00056689,6185.4,-4.5907e-05,1581,-0.00025689,-4.1663,0.0049763
24577,1.0115,1.2727,0.1,0.00055423,5538.5,0.00056444,6114.7,-5.7904e-05,1438.7,-0.0002496,-1.673,0.0059302
24578,0.91954,1.5455,0.1,0.00056164,5612.5,0.0005707,6263.6,-3.63e-05,1702.9,-0.0002635,-4.222,0.005083
24579,1.0115,1.4545,0.1,0.00055682,5564.4,0.00056656,6181.4,-4.6286e-05,1576.8,-0.00025637,-1.6769,0.0060707
24580,0.91954,1.7273,0.1,0.00056629,5659,0.00057483,6336.5,-2.9113e-05,1798.7,-0.00026908,-4.2676,0.0051687
24581,1.0115,1.6364,0.1,0.00056022,5598.3,0.00056943,6246.7,-3.7375e-05,1687.4,-0.00026217,-1.6851,0.0061843
24582,0.91954,1.9091,0.1,0.00057077,5703.7,0.00057887,6401.6,-2.3764e-05,1873.6,-0.0002737,-4.3036,0.0052372
24583,1.0115,1.8182,0.1,0.00056386,5634.7,0.0005726,6307.3,-3.0601e-05,1775,-0.00026707,-1.6937,0.0062757
24584,0.91954,2.0909,0.1,0.00057479,5744,0.00058255,6457.5,-1.981e-05,1931.6,-0.00027746,-4.3313,0.0052913
24585,1.0115,2,0.1,0.00056739,5669.9,0.00057571,6361.1,-2.5495e-05,1843.8,-0.00027112,-1.701,0.0063487
24586,0.91954,2.2727,0.1,0.00057821,5778.1,0.0005857,6503.4,-1.6927e-05,1975.5,-0.00028043,-4.352,0.0053331
24587,1.0115,2.1818,0.1,0.00057054,5701.5,0.00057854,6406.9,-2.1694e-05,1896.9,-0.00027438,-1.7068,0.0064059
24588,0.91954,2.4545,0.1,0.00058092,5805.2,0.00058821,6539.1,-1.4885e-05,2007.7,-0.00028268,-4.367,0.0053641
24589,1.0115,2.3636,0.1,0.00057319,5727.9,0.00058094,6443.9,-1.8929e-05,1936.8,-0.00027693,-1.7109,0.0064495
24590,0.91954,2.6364,0.1,0.00058287,5824.7,0.00059003,6564.6,-1.3527e-05,2029.7,-0.00028425,-4.3771,0.0053856
24591,1.0115,2.5455,0.1,0.00057523,5748.3,0.0005828,6471.9,-1.7005e-05,1965.2,-0.00027879,-1.7138,0.006481
24592,0.91954,2.8182,0.1,0.00058405,5836.5,0.00059114,6579.9,-1.2749e-05,2042.5,-0.00028517,-4.3829,0.0053981
24593,1.0115,2.7273,0.1,0.00057661,5762.2,0.00058406,6490.6,-1.5791e-05,1983.5,-0.00028001,-1.7156,0.0065014
24594,0.91954,3,0.1,0.00058445,5840.5,0.00059151,6584.9,-1.2496e-05,2046.7,-0.00028548,-4.3849,0.0054023
24595,1.0115,2.9091,0.1,0.00057731,5769.1,0.0005847,6499.9,-1.5203e-05,1992.5,-0.00028062,-1.7164,0.0065115
24596,0.91954,3.1818,0.1,0.00058405,5836.5,0.00059114,6579.9,-1.2749e-05,2042.5,-0.00028517,-4.3829,0.0053981
24597,1.0115,3.0909,0.1,0.00057731,5769.1,0.0005847,6499.9,-1.5203e-05,1992.5,-0.00028062,-1.7164,0.0065115
24598,0.91954,3.3636,0.1,0.00058287,5824.7,0.00059003,6564.6,-1.3527e-05,2029.7,-0.00028425,-4.3771,0.0053856
24599,1.0115,3.2727,0.1,0.00057661,5762.2,0.00058406,6490.6,-1.5791e-05,1983.5,-0.00028001,-1.7156,0.0065014
24600,0.91954,3.5455,0.1,0.00058092,5805.2,0.00058821,6539.1,-1.4885e-05,2007.7,-0.00028268,-4.367,0.0053641
24601,1.0115,3.4545,0.1,0.00057523,5748.3,0.0005828,6471.9,-1.7005e-05,1965.2,-0.00027879,-1.7138,0.006481
24602,0.91954,3.7273,0.1,0.00057821,5778.1,0.0005857,6503.4,-1.6927e-05,1975.5,-0.00028043,-4.352,0.0053331
24603,1.0115,3.6364,0.1,0.00057319,5727.9,0.00058094,6443.9,-1.8929e-05,1936.8,-0.00027693,-1.7109,0.0064495
24604,0.91954,3.9091,0.1,0.00057479,5744,0.00058255,6457.5,-1.981e-05,1931.6,-0.00027746,-4.3313,0.0052913
24605,1.0115,3.8182,0.1,0.00057054,5701.5,0.00057854,6406.9,-2.1694e-05,1896.9,-0.00027438,-1.7068,0.0064059
24606,0.91954,4.0909,0.1,0.00057077,5703.7,0.00057887,6401.6,-2.3764e-05,1873.6,-0.0002737,-4.3036,0.0052372
24607,1.0115,4,0.1,0.00056739,5669.9,0.00057571,6361.1,-2.5495e-05,1843.8,-0.00027112,-1.701,0.0063487
24608,0.91954,4.2727,0.1,0.00056629,5659,0.00057483,6336.5,-2.9113e-05,1798.7,-0.00026908,-4.2676,0.0051687
24609,1.0115,4.1818,0.1,0.00056386,5634.7,0.0005726,6307.3,-3.0601e-05,1775,-0.00026707,-1.6937,0.0062757
24610,0.91954,4.4545,0.1,0.00056164,5612.5,0.0005707,6263.6,-3.63e-05,1702.9,-0.0002635,-4.222,0.005083
24611,1.0115,4.3636,0.1,0.00056022,5598.3,0.00056943,6246.7,-3.7375e-05,1687.4,-0.00026217,-1.6851,0.0061843
24612,0.91954,4.6364,0.1,0.00055727,5568.8,0.00056689,6185.4,-4.5907e-05,1581,-0.00025689,-4.1663,0.0049763
24613,1.0115,4.5455,0.1,0.00055682,5564.4,0.00056656,6181.4,-4.6286e-05,1576.8,-0.00025637,-1.6769,0.0060707
24614,0.91954,4.8182,0.1,0.00055386,5534.7,0.000564,6105.8,-5.865e-05,1427.5,-0.00024918,-4.1037,0.0048436
24615,1.0115,4.7273,0.1,0.00055423,5538.5,0.00056444,6114.7,-5.7904e-05,1438.7,-0.0002496,-1.673,0.0059302
24616,0.91954,5,0.1,0.00055238,5520,0.00056279,6030.6,-7.5297e-05,1236.3,-0.00024038,-4.038,0.0046783
24617,1.0115,4.9091,0.1,0.0005532,5528.2,0.00056369,6050.9,-7.2849e-05,1268.3,-0.00024187,-1.6854,0.0057566
24618,0.91954,5.1818,0.1,0.00055404,5536.5,0.00056412,5967.3,-9.6445e-05,1004.1,-0.00023062,-4,0.0044718
24619,1.0115,5.0909,0.1,0.00055467,5542.9,0.00056499,5996,-9.1655e-05,1062.2,-0.00023325,-1.7237,0.0055419
24620,0.91954,5.3636,0.1,0.00055995,5595.6,0.0005687,5923.8,-0.00012209,733.45,-0.00022024,-3.9464,0.0042128
24621,1.0115,5.2727,0.1,0.00055961,5592.2,0.00056898,5956.1,-0.0001145,820.72,-0.00022398,-1.8609,0.0052759
24622,0.91954,5.5455,0.1,0.00057075,5703.6,0.00057683,5907,-0.00015122,436.7,-0.00020991,-4.2595,0.0038875
24623,1.0115,5.4545,0.1,0.00056867,5682.8,0.00057599,5937.2,-0.00014082,551.4,-0.00021447,-2.0017,0.0049462
24624,0.91954,5.7273,0.1,0.00058789,5874.8,0.00058982,5934,-0.00018294,127.75,-0.00020088,-7.0725,0.0034796
24625,1.0115,5.6364,0.1,0.00058195,5815.5,0.000586,5943.9,-0.00016918,269.71,-0.00020552,-3.3136,0.0045379
24626,1.0115,5.8182,0.1,0.00060196,6015.5,0.00060147,6001.5,-0.00019516,15.918,-0.00020306,-43.492,0.0040349
24627,0.91954,5.9091,0.1,0.00059251,5921,0.0005916,5894.5,-0.00019305,-1.0287,-0.00019979,-51.644,0.0029719
24628,1.1034,0.27273,0.1,0.00059582,5954,0.00059772,6011.9,-0.00018623,121.62,-0.00020294,-3.9922,0.0052147
24629,1.1954,0.18182,0.1,0.00060661,6061.9,0.00060643,6056.9,-0.00019717,19.015,-0.00020351,-28.638,0.005917
24630,1.1034,0.090909,0.1,0.0006009,6004.9,0.00060032,5987.8,-0.00019662,-0.0034145,-0.00020113,-33.913,0.0046113
24631,1.1034,0.45455,0.1,0.00057967,5792.7,0.00058522,5974.6,-0.00015888,383.62,-0.00021004,-0.7204,0.0057125
24632,1.1954,0.36364,0.1,0.00058852,5881.2,0.00059226,5998.4,-0.0001736,244,-0.00020633,-1.8895,0.0065095
24633,1.1034,0.63636,0.1,0.0005681,5677.1,0.00057626,5969.5,-0.00013323,638.65,-0.0002182,0.16568,0.0061204
24634,1.1954,0.54545,0.1,0.00057553,5751.4,0.00058224,5978.3,-0.00014887,485,-0.00021348,-0.4528,0.0070018
24635,1.1034,0.81818,0.1,0.00056002,5596.4,0.00056979,5984.2,-0.00010964,879.27,-0.00022661,0.45102,0.0064534
24636,1.1954,0.72727,0.1,0.00056548,5650.9,0.00057428,5976.5,-0.00012527,720.33,-0.00022117,-0.1942,0.0074086
24637,1.1034,1,0.1,0.00055532,5549.3,0.0005658,6015.6,-8.9113e-05,1094.8,-0.00023474,0.6475,0.0067248
24638,1.1954,0.90909,0.1,0.00055849,5581,0.0005685,5990.9,-0.0001039,938.77,-0.00022883,0.025261,0.0077437
24639,1.1034,1.1818,0.1,0.00055346,5530.8,0.00056403,6059.1,-7.2009e-05,1280.2,-0.00024229,0.75572,0.0069461
24640,1.1954,1.0909,0.1,0.00055437,5539.8,0.00056488,6018.7,-8.5423e-05,1132.6,-0.00023614,0.13214,0.0080192
24641,1.1034,1.3636,0.1,0.00055372,5533.4,0.00056402,6110.1,-5.8204e-05,1435,-0.00024908,0.82251,0.0071264
24642,1.1954,1.2727,0.1,0.00055261,5522.3,0.00056313,6056.1,-7.002e-05,1298.9,-0.00024286,0.19786,0.0082454
24643,1.1034,1.5455,0.1,0.00055537,5549.8,0.00056522,6164,-4.7299e-05,1561.7,-0.00025504,0.8637,0.0072732
24644,1.1954,1.4545,0.1,0.0005526,5522.2,0.00056283,6099.1,-5.7507e-05,1438.1,-0.00024888,0.2342,0.0084309
24645,1.1034,1.7273,0.1,0.00055777,5573.9,0.00056715,6217,-3.8816e-05,1664,-0.00026017,0.89109,0.0073922
24646,1.1954,1.6364,0.1,0.00055372,5533.4,0.00056355,6144,-4.7532e-05,1552.6,-0.00025414,0.25571,0.0085824
24647,1.1034,1.9091,0.1,0.00056047,5600.8,0.0005694,6266.4,-3.2295e-05,1745.5,-0.00026448,0.91031,0.0074881
24648,1.1954,1.8182,0.1,0.00055549,5551,0.00056487,6187.9,-3.9698e-05,1645.4,-0.00025865,0.26881,0.0087055
24649,1.1034,2.0909,0.1,0.00056313,5627.4,0.00057168,6310.2,-2.735e-05,1809.4,-0.00026804,0.92447,0.0075643
24650,1.1954,2,0.1,0.00055751,5571.2,0.00056649,6228.4,-3.3634e-05,1719.4,-0.00026243,0.2774,0.0088044
24651,1.1034,2.2727,0.1,0.00056552,5651.3,0.00057376,6347.2,-2.3671e-05,1858.3,-0.00027088,0.93506,0.0076234
24652,1.1954,2.1818,0.1,0.0005595,5591.2,0.00056813,6264,-2.9021e-05,1777.2,-0.00026551,0.28334,0.0088824
24653,1.1034,2.4545,0.1,0.0005675,5671.1,0.0005755,6376.5,-2.1025e-05,1894.5,-0.00027304,0.94286,0.0076676
24654,1.1954,2.3636,0.1,0.00056128,5608.9,0.00056963,6293.4,-2.5609e-05,1821,-0.00026793,0.28759,0.0089421
24655,1.1034,2.6364,0.1,0.00056896,5685.7,0.0005768,6397.7,-1.9246e-05,1919.2,-0.00027455,0.94825,0.0076981
24656,1.1954,2.5455,0.1,0.00056271,5623.2,0.00057085,6315.9,-2.3205e-05,1852.5,-0.00026971,0.29058,0.0089854
24657,1.1034,2.8182,0.1,0.00056986,5694.7,0.0005776,6410.5,-1.8221e-05,1933.7,-0.00027545,0.95143,0.0077161
24658,1.1954,2.7273,0.1,0.0005637,5633.1,0.0005717,6331.2,-2.1674e-05,1872.8,-0.00027089,0.29251,0.0090135
24659,1.1034,3,0.1,0.00057017,5697.7,0.00057788,6414.8,-1.7886e-05,1938.5,-0.00027575,0.95248,0.007722
24660,1.1954,2.9091,0.1,0.00056421,5638.2,0.00057214,6338.9,-2.0929e-05,1882.8,-0.00027147,0.29346,0.0090273
24661,1.1034,3.1818,0.1,0.00056986,5694.7,0.0005776,6410.5,-1.8221e-05,1933.7,-0.00027545,0.95143,0.0077161
24662,1.1954,3.0909,0.1,0.00056421,5638.2,0.00057214,6338.9,-2.0929e-05,1882.8,-0.00027147,0.29346,0.0090273
24663,1.1034,3.3636,0.1,0.00056896,5685.7,0.0005768,6397.7,-1.9246e-05,1919.2,-0.00027455,0.94825,0.0076981
24664,1.1954,3.2727,0.1,0.0005637,5633.1,0.0005717,6331.2,-2.1674e-05,1872.8,-0.00027089,0.29251,0.0090135
24665,1.1034,3.5455,0.1,0.0005675,5671.1,0.0005755,6376.5,-2.1025e-05,1894.5,-0.00027304,0.94286,0.0076676
24666,1.1954,3.4545,0.1,0.00056271,5623.2,0.00057085,6315.9,-2.3205e-05,1852.5,-0.00026971,0.29058,0.0089854
24667,1.1034,3.7273,0.1,0.00056552,5651.3,0.00057376,6347.2,-2.3671e-05,1858.3,-0.00027088,0.93506,0.0076234
24668,1.1954,3.6364,0.1,0.00056128,5608.9,0.00056963,6293.4,-2.5609e-05,1821,-0.00026793,0.28759,0.0089421
24669,1.1034,3.9091,0.1,0.00056313,5627.4,0.00057168,6310.2,-2.735e-05,1809.4,-0.00026804,0.92447,0.0075643
24670,1.1954,3.8182,0.1,0.0005595,5591.2,0.00056813,6264,-2.9021e-05,1777.2,-0.00026551,0.28334,0.0088824
24671,1.1034,4.0909,0.1,0.00056047,5600.8,0.0005694,6266.4,-3.2295e-05,1745.5,-0.00026448,0.91031,0.0074881
24672,1.1954,4,0.1,0.00055751,5571.2,0.00056649,6228.4,-3.3634e-05,1719.4,-0.00026243,0.2774,0.0088044
24673,1.1034,4.2727,0.1,0.00055777,5573.9,0.00056715,6217,-3.8816e-05,1664,-0.00026017,0.89109,0.0073922
24674,1.1954,4.1818,0.1,0.00055549,5551,0.00056487,6187.9,-3.9698e-05,1645.4,-0.00025865,0.26881,0.0087055
24675,1.1034,4.4545,0.1,0.00055537,5549.8,0.00056522,6164,-4.7299e-05,1561.7,-0.00025504,0.8637,0.0072732
24676,1.1954,4.3636,0.1,0.00055372,5533.4,0.00056355,6144,-4.7532e-05,1552.6,-0.00025414,0.25571,0.0085824
24677,1.1034,4.6364,0.1,0.00055372,5533.4,0.00056402,6110.1,-5.8204e-05,1435,-0.00024908,0.82251,0.0071264
24678,1.1954,4.5455,0.1,0.0005526,5522.2,0.00056283,6099.1,-5.7507e-05,1438.1,-0.00024888,0.2342,0.0084309
24679,1.1034,4.8182,0.1,0.00055346,5530.8,0.00056403,6059.1,-7.2009e-05,1280.2,-0.00024229,0.75572,0.0069461
24680,1.1954,4.7273,0.1,0.00055261,5522.3,0.00056313,6056.1,-7.002e-05,1298.9,-0.00024286,0.19786,0.0082454
24681,1.1034,5,0.1,0.00055532,5549.3,0.0005658,6015.6,-8.9113e-05,1094.8,-0.00023474,0.6475,0.0067248
24682,1.1954,4.9091,0.1,0.00055437,5539.8,0.00056488,6018.7,-8.5423e-05,1132.6,-0.00023614,0.13214,0.0080192
24683,1.1034,5.1818,0.1,0.00056002,5596.4,0.00056979,5984.2,-0.00010964,879.27,-0.00022661,0.45102,0.0064534
24684,1.1954,5.0909,0.1,0.00055849,5581,0.0005685,5990.9,-0.0001039,938.77,-0.00022883,0.025261,0.0077437
24685,1.1034,5.3636,0.1,0.0005681,5677.1,0.00057626,5969.5,-0.00013323,638.65,-0.0002182,0.16568,0.0061204
24686,1.1954,5.2727,0.1,0.00056548,5650.9,0.00057428,5976.5,-0.00012527,720.33,-0.00022117,-0.1942,0.0074086
24687,1.1034,5.5455,0.1,0.00057967,5792.7,0.00058522,5974.6,-0.00015888,383.62,-0.00021004,-0.7204,0.0057125
24688,1.1954,5.4545,0.1,0.00057553,5751.4,0.00058224,5978.3,-0.00014887,485,-0.00021348,-0.4528,0.0070018
24689,1.1034,5.7273,0.1,0.00059582,5954,0.00059772,6011.9,-0.00018623,121.62,-0.00020294,-3.9922,0.0052147
24690,1.1954,5.6364,0.1,0.00058852,5881.2,0.00059226,5998.4,-0.0001736,244,-0.00020633,-1.8895,0.0065095
24691,1.1954,5.8182,0.1,0.00060661,6061.9,0.00060643,6056.9,-0.00019717,19.015,-0.00020351,-28.638,0.005917
24692,1.1034,5.9091,0.1,0.0006009,6004.9,0.00060032,5987.8,-0.00019662,-0.003415,-0.00020113,-33.913,0.0046113
24693,1.2874,0.27273,0.1,0.00059918,5987.7,0.00060103,6043.9,-0.00018765,118.04,-0.00020385,-3.6535,0.0073361
24694,1.3793,0.18182,0.1,0.00060749,6070.7,0.00060756,6072.9,-0.00019762,23.054,-0.00020316,-18.528,0.0081921
24695,1.2874,0.090909,0.1,0.0006045,6040.8,0.00060415,6030.6,-0.00019845,0.16359,-0.00020121,-20.568,0.006645
24696,1.2874,0.45455,0.1,0.00058426,5838.6,0.00058933,6002.6,-0.00016369,344.63,-0.00020974,-1.3598,0.0079178
24697,1.3793,0.36364,0.1,0.00059117,5907.7,0.00059465,6016.2,-0.00017605,225.43,-0.0002063,-1.8684,0.0088671
24698,1.2874,0.63636,0.1,0.00057276,5723.7,0.00058027,5985.4,-0.00014095,566.44,-0.00021644,-0.74857,0.0084042
24699,1.3793,0.54545,0.1,0.00057883,5784.3,0.00058498,5989.2,-0.00015421,435.18,-0.00021222,-0.70141,0.009438
24700,1.2874,0.81818,0.1,0.00056379,5634,0.00057297,5983,-0.00011951,779.95,-0.00022339,-0.59202,0.0088092
24701,1.3793,0.72727,0.1,0.00056859,5682,0.00057677,5975.5,-0.00013304,642.22,-0.00021859,-0.5274,0.0099182
24702,1.2874,1,0.1,0.00055739,5570.1,0.00056753,5993.6,-0.00010015,976.88,-0.00023023,-0.47497,0.0091451
24703,1.3793,0.90909,0.1,0.00056061,5602.3,0.00057014,5974.1,-0.00011335,838.65,-0.00022501,-0.3596,0.01032
24704,1.2874,1.1818,0.1,0.0005534,5530.2,0.00056391,6015.1,-8.3367e-05,1151.8,-0.00023671,-0.41676,0.0094233
24705,1.3793,1.0909,0.1,0.00055493,5545.4,0.00056518,5983.7,-9.5739e-05,1017.8,-0.00023124,-0.2797,0.010656
24706,1.2874,1.3636,0.1,0.0005514,5510.2,0.00056187,6044.5,-6.9254e-05,1302.5,-0.00024266,-0.38491,0.009653
24707,1.3793,1.2727,0.1,0.0005513,5509.2,0.0005618,6002.1,-8.052e-05,1176,-0.00023706,-0.23007,0.010936
24708,1.2874,1.5455,0.1,0.0005509,5505.2,0.00056109,6078.7,-5.7676e-05,1429.5,-0.00024798,-0.37028,0.0098421
24709,1.3793,1.4545,0.1,0.00054936,5489.8,0.00055978,6026.8,-6.7716e-05,1312.1,-0.00024237,-0.20445,0.011167
24710,1.2874,1.7273,0.1,0.0005514,5510.2,0.00056122,6114.5,-4.8359e-05,1534.4,-0.00025263,-0.36427,0.009997
24711,1.3793,1.6364,0.1,0.00054867,5482.9,0.00055882,6055.1,-5.7176e-05,1426.8,-0.00024709,-0.19138,0.011359
24712,1.2874,1.9091,0.1,0.0005525,5521.2,0.00056191,6149.6,-4.099e-05,1619.6,-0.0002566,-0.36256,0.010123
24713,1.3793,1.8182,0.1,0.00054883,5484.5,0.00055863,6084.5,-4.866e-05,1521.6,-0.00025119,-0.18551,0.011515
24714,1.2874,2.0909,0.1,0.00055386,5534.8,0.0005629,6181.9,-3.5265e-05,1687.5,-0.0002599,-0.36264,0.010223
24715,1.3793,2,0.1,0.0005495,5491.2,0.00055894,6113,-4.1906e-05,1598.4,-0.00025467,-0.18324,0.011642
24716,1.2874,2.2727,0.1,0.00055525,5548.6,0.00056396,6209.9,-3.0924e-05,1740.1,-0.00026257,-0.36333,0.010301
24717,1.3793,2.1818,0.1,0.00055041,5500.3,0.00055951,6138.8,-3.6665e-05,1659.3,-0.00025753,-0.18267,0.011742
24718,1.2874,2.4545,0.1,0.00055648,5560.9,0.00056494,6232.5,-2.7756e-05,1779.3,-0.00026461,-0.36406,0.01036
24719,1.3793,2.3636,0.1,0.00055134,5509.6,0.00056017,6160.7,-3.2726e-05,1705.9,-0.0002598,-0.18279,0.01182
24720,1.2874,2.6364,0.1,0.00055743,5570.5,0.00056571,6249.2,-2.5602e-05,1806.3,-0.00026605,-0.36463,0.010401
24721,1.3793,2.5455,0.1,0.00055216,5517.8,0.00056077,6177.8,-2.9916e-05,1739.7,-0.00026148,-0.18309,0.011876
24722,1.2874,2.8182,0.1,0.00055803,5576.5,0.00056621,6259.3,-2.4352e-05,1822.1,-0.00026691,-0.36497,0.010425
24723,1.3793,2.7273,0.1,0.00055276,5523.7,0.00056122,6189.6,-2.8112e-05,1761.6,-0.00026259,-0.18337,0.011912
24724,1.2874,3,0.1,0.00055824,5578.5,0.00056637,6262.7,-2.3942e-05,1827.3,-0.00026719,-0.36509,0.010433
24725,1.3793,2.9091,0.1,0.00055307,5526.9,0.00056146,6195.5,-2.723e-05,1772.3,-0.00026314,-0.18352,0.01193
24726,1.2874,3.1818,0.1,0.00055803,5576.5,0.00056621,6259.3,-2.4352e-05,1822.1,-0.00026691,-0.36497,0.010425
24727,1.3793,3.0909,0.1,0.00055307,5526.9,0.00056146,6195.5,-2.723e-05,1772.3,-0.00026314,-0.18352,0.01193
24728,1.2874,3.3636,0.1,0.00055743,5570.5,0.00056571,6249.2,-2.5602e-05,1806.3,-0.00026605,-0.36463,0.010401
24729,1.3793,3.2727,0.1,0.00055276,5523.7,0.00056122,6189.6,-2.8112e-05,1761.6,-0.00026259,-0.18337,0.011912
24730,1.2874,3.5455,0.1,0.00055648,5560.9,0.00056494,6232.5,-2.7756e-05,1779.3,-0.00026461,-0.36406,0.01036
24731,1.3793,3.4545,0.1,0.00055216,5517.8,0.00056077,6177.8,-2.9916e-05,1739.7,-0.00026148,-0.18309,0.011876
24732,1.2874,3.7273,0.1,0.00055525,5548.6,0.00056396,6209.9,-3.0924e-05,1740.1,-0.00026257,-0.36333,0.010301
24733,1.3793,3.6364,0.1,0.00055134,5509.6,0.00056017,6160.7,-3.2726e-05,1705.9,-0.0002598,-0.18279,0.01182
24734,1.2874,3.9091,0.1,0.00055386,5534.8,0.0005629,6181.9,-3.5265e-05,1687.5,-0.0002599,-0.36264,0.010223
24735,1.3793,3.8182,0.1,0.00055041,5500.3,0.00055951,6138.8,-3.6665e-05,1659.3,-0.00025753,-0.18267,0.011742
24736,1.2874,4.0909,0.1,0.0005525,5521.2,0.00056191,6149.6,-4.099e-05,1619.6,-0.0002566,-0.36256,0.010123
24737,1.3793,4,0.1,0.0005495,5491.2,0.00055894,6113,-4.1906e-05,1598.4,-0.00025467,-0.18324,0.011642
24738,1.2874,4.2727,0.1,0.0005514,5510.2,0.00056122,6114.5,-4.8359e-05,1534.4,-0.00025263,-0.36427,0.009997
24739,1.3793,4.1818,0.1,0.00054883,5484.5,0.00055863,6084.5,-4.866e-05,1521.6,-0.00025119,-0.18551,0.011515
24740,1.2874,4.4545,0.1,0.0005509,5505.2,0.00056109,6078.7,-5.7676e-05,1429.5,-0.00024798,-0.37028,0.0098421
24741,1.3793,4.3636,0.1,0.00054867,5482.9,0.00055882,6055.1,-5.7176e-05,1426.8,-0.00024709,-0.19138,0.011359
24742,1.2874,4.6364,0.1,0.0005514,5510.2,0.00056187,6044.5,-6.9254e-05,1302.5,-0.00024266,-0.38491,0.009653
24743,1.3793,4.5455,0.1,0.00054936,5489.8,0.00055978,6026.8,-6.7716e-05,1312.1,-0.00024237,-0.20445,0.011167
24744,1.2874,4.8182,0.1,0.0005534,5530.2,0.00056391,6015.1,-8.3367e-05,1151.8,-0.00023671,-0.41676,0.0094233
24745,1.3793,4.7273,0.1,0.0005513,5509.2,0.0005618,6002.1,-8.052e-05,1176,-0.00023706,-0.23007,0.010936
24746,1.2874,5,0.1,0.00055739,5570.1,0.00056753,5993.6,-0.00010015,976.88,-0.00023023,-0.47497,0.0091451
24747,1.3793,4.9091,0.1,0.00055493,5545.4,0.00056518,5983.7,-9.5739e-05,1017.8,-0.00023124,-0.2797,0.010656
24748,1.2874,5.1818,0.1,0.00056379,5634,0.00057297,5983,-0.00011951,779.95,-0.00022339,-0.59202,0.0088092
24749,1.3793,5.0909,0.1,0.00056061,5602.3,0.00057014,5974.1,-0.00011335,838.65,-0.00022501,-0.3596,0.01032
24750,1.2874,5.3636,0.1,0.00057276,5723.7,0.00058027,5985.4,-0.00014095,566.44,-0.00021644,-0.74857,0.0084042
24751,1.3793,5.2727,0.1,0.00056859,5682,0.00057677,5975.5,-0.00013304,642.22,-0.00021859,-0.5274,0.0099182
24752,1.2874,5.5455,0.1,0.00058426,5838.6,0.00058933,6002.6,-0.00016369,344.63,-0.00020974,-1.3598,0.0079178
24753,1.3793,5.4545,0.1,0.00057883,5784.3,0.00058498,5989.2,-0.00015421,435.18,-0.00021222,-0.70141,0.009438
24754,1.2874,5.7273,0.1,0.00059918,5987.7,0.00060103,6043.9,-0.00018765,118.04,-0.00020385,-3.6535,0.0073361
24755,1.3793,5.6364,0.1,0.00059117,5907.7,0.00059465,6016.2,-0.00017605,225.43,-0.0002063,-1.8684,0.0088671
24756,1.3793,5.8182,0.1,0.00060749,6070.7,0.00060756,6072.9,-0.00019762,23.054,-0.00020316,-18.528,0.0081921
24757,1.2874,5.9091,0.1,0.0006045,6040.8,0.00060415,6030.6,-0.00019845,0.16359,-0.00020121,-20.568,0.006645
24758,1.4713,0.27273,0.1,0.00059939,5989.8,0.00060123,6045.5,-0.00018792,116.16,-0.00020376,-2.8644,0.0098491
24759,1.5632,0.18182,0.1,0.00060586,6054.4,0.00060613,6062.4,-0.00019697,28.25,-0.00020233,-12.018,0.010864
24760,1.4713,0.090909,0.1,0.00060488,6044.7,0.00060472,6040,-0.00019902,0.95374,-0.00020052,-10.35,0.0090778
24761,1.4713,0.45455,0.1,0.00058565,5852.5,0.00059036,6003.2,-0.00016666,315.32,-0.00020876,-1.0036,0.010508
24762,1.5632,0.36364,0.1,0.00059109,5906.8,0.00059437,6008.8,-0.00017723,211.26,-0.00020556,-1.5696,0.011615
24763,1.4713,0.63636,0.1,0.00057454,5741.5,0.00058151,5979.5,-0.00014635,510.64,-0.00021437,-0.42882,0.011069
24764,1.5632,0.54545,0.1,0.00057947,5790.7,0.00058518,5978.4,-0.00015774,396.38,-0.00021057,-0.53126,0.012258
24765,1.4713,0.81818,0.1,0.0005653,5649.1,0.00057394,5966.6,-0.00012689,700.86,-0.00022021,-0.27259,0.011542
24766,1.5632,0.72727,0.1,0.00056942,5690.2,0.00057705,5957.8,-0.00013869,580.07,-0.00021594,-0.37769,0.012808
24767,1.4713,1,0.1,0.00055803,5576.5,0.00056776,5963.9,-0.00010891,879.71,-0.00022601,-0.15204,0.011941
24768,1.5632,0.90909,0.1,0.00056106,5606.8,0.00057009,5946.6,-0.00012064,756.73,-0.00022138,-0.22296,0.013274
24769,1.4713,1.1818,0.1,0.00055273,5523.5,0.00056303,5970.3,-9.2851e-05,1042.3,-0.00023158,-0.085515,0.012275
24770,1.5632,1.0909,0.1,0.00055452,5541.3,0.00056441,5944,-0.00010412,920.96,-0.00022672,-0.14487,0.013668
24771,1.4713,1.3636,0.1,0.00054918,5488,0.00055965,5984,-7.893e-05,1185.9,-0.00023677,-0.044777,0.012554
24772,1.5632,1.2727,0.1,0.0005497,5493.2,0.00056002,5949.1,-8.9466e-05,1069.1,-0.00023177,-0.093126,0.014
24773,1.4713,1.5455,0.1,0.00054707,5466.9,0.00055745,6002.8,-6.7161e-05,1309.8,-0.00024149,-0.022338,0.012787
24774,1.5632,1.4545,0.1,0.0005464,5460.2,0.00055683,5960.2,-7.6793e-05,1199.5,-0.00023644,-0.06379,0.014278
24775,1.4713,1.7273,0.1,0.00054606,5456.8,0.00055618,6024.7,-5.7423e-05,1414.3,-0.00024566,-0.010431,0.012979
24776,1.5632,1.6364,0.1,0.00054434,5439.6,0.00055465,5975.5,-6.6084e-05,1311.5,-0.00024064,-0.04729,0.014509
24777,1.4713,1.9091,0.1,0.0005458,5454.3,0.00055561,6047.5,-4.9526e-05,1500.8,-0.00024927,-0.0046568,0.013135
24778,1.5632,1.8182,0.1,0.00054322,5428.4,0.00055329,5993,-5.7224e-05,1405.8,-0.00024433,-0.03886,0.0147
24779,1.4713,2.0909,0.1,0.00054602,5456.5,0.0005555,6069.5,-4.3261e-05,1570.6,-0.0002523,-0.0021494,0.013261
24780,1.5632,2,0.1,0.00054275,5423.8,0.00055254,6011.1,-5.0046e-05,1483.5,-0.0002475,-0.034967,0.014856
24781,1.4713,2.2727,0.1,0.00054649,5461.1,0.00055567,6089.3,-3.8426e-05,1625.5,-0.00025476,-0.0012799,0.01336
24782,1.5632,2.1818,0.1,0.0005427,5423.3,0.0005522,6028.3,-4.4377e-05,1545.9,-0.00025013,-0.033522,0.01498
24783,1.4713,2.4545,0.1,0.00054701,5466.3,0.00055595,6105.7,-3.4848e-05,1666.6,-0.00025666,-0.0011393,0.013435
24784,1.5632,2.3636,0.1,0.00054288,5425,0.00055212,6043.4,-4.0053e-05,1594.1,-0.00025222,-0.033258,0.015075
24785,1.4713,2.6364,0.1,0.00054747,5471,0.00055623,6117.9,-3.239e-05,1695.2,-0.00025801,-0.0012534,0.013486
24786,1.5632,2.5455,0.1,0.00054313,5427.5,0.00055217,6055.5,-3.6934e-05,1629.2,-0.00025378,-0.033465,0.015145
24787,1.4713,2.8182,0.1,0.00054778,5474.1,0.00055643,6125.5,-3.0954e-05,1712.1,-0.00025882,-0.0013886,0.013517
24788,1.5632,2.7273,0.1,0.00054335,5429.8,0.00055225,6063.9,-3.4915e-05,1652.2,-0.00025481,-0.033758,0.01519
24789,1.4713,3,0.1,0.00054789,5475.1,0.0005565,6128,-3.0482e-05,1717.6,-0.00025909,-0.0014431,0.013527
24790,1.5632,2.9091,0.1,0.00054348,5431.1,0.00055231,6068.2,-3.3924e-05,1663.5,-0.00025533,-0.033944,0.015213
24791,1.4713,3.1818,0.1,0.00054778,5474.1,0.00055643,6125.5,-3.0954e-05,1712.1,-0.00025882,-0.0013886,0.013517
24792,1.5632,3.0909,0.1,0.00054348,5431.1,0.00055231,6068.2,-3.3924e-05,1663.5,-0.00025533,-0.033943,0.015213
24793,1.4713,3.3636,0.1,0.00054747,5471,0.00055623,6117.9,-3.239e-05,1695.2,-0.00025801,-0.0012533,0.013486
24794,1.5632,3.2727,0.1,0.00054335,5429.8,0.00055225,6063.9,-3.4915e-05,1652.2,-0.00025481,-0.033758,0.01519
24795,1.4713,3.5455,0.1,0.00054701,5466.3,0.00055595,6105.7,-3.4848e-05,1666.6,-0.00025666,-0.0011393,0.013435
24796,1.5632,3.4545,0.1,0.00054313,5427.5,0.00055217,6055.5,-3.6934e-05,1629.2,-0.00025378,-0.033465,0.015145
24797,1.4713,3.7273,0.1,0.00054649,5461.1,0.00055567,6089.3,-3.8426e-05,1625.5,-0.00025476,-0.00128,0.01336
24798,1.5632,3.6364,0.1,0.00054288,5425,0.00055212,6043.4,-4.0053e-05,1594.1,-0.00025222,-0.033258,0.015075
24799,1.4713,3.9091,0.1,0.00054602,5456.5,0.0005555,6069.5,-4.3261e-05,1570.6,-0.0002523,-0.0021494,0.013261
24800,1.5632,3.8182,0.1,0.0005427,5423.3,0.0005522,6028.3,-4.4377e-05,1545.9,-0.00025013,-0.033522,0.01498
24801,1.4713,4.0909,0.1,0.0005458,5454.3,0.00055561,6047.5,-4.9526e-05,1500.8,-0.00024927,-0.0046568,0.013135
24802,1.5632,4,0.1,0.00054275,5423.8,0.00055254,6011.1,-5.0046e-05,1483.5,-0.0002475,-0.034967,0.014856
24803,1.4713,4.2727,0.1,0.00054606,5456.8,0.00055618,6024.7,-5.7423e-05,1414.3,-0.00024566,-0.010431,0.012979
24804,1.5632,4.1818,0.1,0.00054322,5428.4,0.00055329,5993,-5.7224e-05,1405.8,-0.00024433,-0.03886,0.0147
24805,1.4713,4.4545,0.1,0.00054707,5466.9,0.00055745,6002.8,-6.7161e-05,1309.8,-0.00024149,-0.022338,0.012787
24806,1.5632,4.3636,0.1,0.00054434,5439.6,0.00055465,5975.5,-6.6084e-05,1311.5,-0.00024064,-0.04729,0.014509
24807,1.4713,4.6364,0.1,0.00054918,5488,0.00055965,5984,-7.893e-05,1185.9,-0.00023677,-0.044777,0.012554
24808,1.5632,4.5455,0.1,0.0005464,5460.2,0.00055683,5960.2,-7.6793e-05,1199.5,-0.00023644,-0.06379,0.014278
24809,1.4713,4.8182,0.1,0.00055273,5523.5,0.00056303,5970.3,-9.2851e-05,1042.3,-0.00023158,-0.085515,0.012275
24810,1.5632,4.7273,0.1,0.0005497,5493.2,0.00056002,5949.1,-8.9466e-05,1069.1,-0.00023177,-0.093126,0.014
24811,1.4713,5,0.1,0.00055803,5576.5,0.00056776,5963.9,-0.00010891,879.71,-0.00022601,-0.15204,0.011941
24812,1.5632,4.9091,0.1,0.00055452,5541.3,0.00056441,5944,-0.00010412,920.96,-0.00022672,-0.14487,0.013668
24813,1.4713,5.1818,0.1,0.0005653,5649.1,0.00057394,5966.6,-0.00012689,700.86,-0.00022021,-0.27259,0.011542
24814,1.5632,5.0909,0.1,0.00056106,5606.8,0.00057009,5946.6,-0.00012064,756.73,-0.00022138,-0.22296,0.013274
24815,1.4713,5.3636,0.1,0.00057454,5741.5,0.00058151,5979.5,-0.00014635,510.64,-0.00021437,-0.42882,0.011069
24816,1.5632,5.2727,0.1,0.00056942,5690.2,0.00057705,5957.8,-0.00013869,580.07,-0.00021594,-0.37769,0.012808
24817,1.4713,5.5455,0.1,0.00058565,5852.5,0.00059036,6003.2,-0.00016666,315.32,-0.00020876,-1.0036,0.010508
24818,1.5632,5.4545,0.1,0.00057947,5790.7,0.00058518,5978.4,-0.00015774,396.38,-0.00021057,-0.53127,0.012258
24819,1.4713,5.7273,0.1,0.00059939,5989.8,0.00060123,6045.5,-0.00018792,116.16,-0.00020376,-2.8644,0.0098491
24820,1.5632,5.6364,0.1,0.00059109,5906.8,0.00059437,6008.8,-0.00017723,211.26,-0.00020556,-1.5696,0.011615
24821,1.5632,5.8182,0.1,0.00060586,6054.4,0.00060613,6062.4,-0.00019697,28.25,-0.00020233,-12.018,0.010864
24822,1.4713,5.9091,0.1,0.00060488,6044.7,0.00060472,6040,-0.00019902,0.95374,-0.00020052,-10.35,0.0090778
24823,1.6552,0.27273,0.1,0.00059749,5970.8,0.00059931,6026,-0.00018744,114.65,-0.00020302,-2.383,0.012756
24824,1.7471,0.18182,0.1,0.00060253,6021.1,0.00060295,6033.8,-0.00019562,33.676,-0.00020118,-8.089,0.013934
24825,1.6552,0.090909,0.1,0.00060308,6026.6,0.00060306,6026.2,-0.00019855,3.2516,-0.00019951,-3.9946,0.011912
24826,1.6552,0.45455,0.1,0.00058485,5844.5,0.00058925,5984.4,-0.00016839,291.75,-0.00020735,-0.93256,0.013487
24827,1.7471,0.36364,0.1,0.00058912,5887.1,0.00059223,5983.6,-0.00017758,199.54,-0.00020432,-1.3937,0.014754
24828,1.6552,0.63636,0.1,0.00057427,5738.8,0.00058076,5957.1,-0.00015013,465.47,-0.00021213,-0.43806,0.014116
24829,1.7471,0.54545,0.1,0.00057824,5778.5,0.00058357,5951.9,-0.00016004,364.68,-0.00020864,-0.48686,0.015465
24830,1.6552,0.81818,0.1,0.0005651,5647.1,0.00057322,5937.9,-0.00013245,635.79,-0.00021711,-0.30973,0.014654
24831,1.7471,0.72727,0.1,0.00056856,5681.7,0.0005757,5927.4,-0.0001428,528.89,-0.00021324,-0.36183,0.016078
24832,1.6552,1,0.1,0.00055746,5570.8,0.00056673,5926.6,-0.00011585,798,-0.00022209,-0.20567,0.015112
24833,1.7471,0.90909,0.1,0.00056017,5597.9,0.00056869,5910,-0.00012629,688.16,-0.00021791,-0.22682,0.016605
24834,1.6552,1.1818,0.1,0.00055141,5510.3,0.00056138,5922.7,-0.00010072,947.95,-0.0002269,-0.14621,0.015501
24835,1.7471,1.0909,0.1,0.00055322,5528.3,0.00056268,5899.5,-0.00011094,838.19,-0.00022251,-0.15704,0.017055
24836,1.6552,1.3636,0.1,0.00054686,5464.8,0.00055716,5925.1,-8.7293e-05,1082.9,-0.00023143,-0.10798,0.015829
24837,1.7471,1.2727,0.1,0.00054769,5473.1,0.00055772,5895.3,-9.7035e-05,975.73,-0.00022691,-0.10852,0.017438
24838,1.6552,1.5455,0.1,0.00054362,5432.4,0.00055399,5932.5,-7.5673e-05,1201.5,-0.00023559,-0.085882,0.016104
24839,1.7471,1.4545,0.1,0.00054349,5431.2,0.00055377,5896.5,-8.4763e-05,1098.8,-0.00023101,-0.079412,0.017761
24840,1.6552,1.7273,0.1,0.00054146,5410.8,0.00055171,5943.4,-6.5838e-05,1303.4,-0.00023932,-0.073696,0.016334
24841,1.7471,1.6364,0.1,0.00054045,5400.7,0.00055076,5901.8,-7.4177e-05,1206.3,-0.00023474,-0.062035,0.018032
24842,1.6552,1.9091,0.1,0.00054013,5397.6,0.00055017,5956.3,-5.7697e-05,1389,-0.00024257,-0.067701,0.016522
24843,1.7471,1.8182,0.1,0.00053834,5379.7,0.00054854,5910,-6.5243e-05,1298.3,-0.00023804,-0.052547,0.018257
24844,1.6552,2.0909,0.1,0.0005394,5390.3,0.00054919,5969.6,-5.1117e-05,1459.1,-0.00024532,-0.065239,0.016674
24845,1.7471,2,0.1,0.00053697,5366,0.00054697,5919.7,-5.7877e-05,1375.1,-0.0002409,-0.047835,0.018442
24846,1.6552,2.2727,0.1,0.00053907,5387,0.00054861,5982.2,-4.5961e-05,1514.8,-0.00024758,-0.064643,0.016794
24847,1.7471,2.1818,0.1,0.00053613,5357.6,0.00054591,5929.7,-5.1968e-05,1437.5,-0.00024329,-0.0459,0.018589
24848,1.6552,2.4545,0.1,0.00053898,5386.1,0.0005483,5993,-4.2098e-05,1557,-0.00024933,-0.064887,0.016885
24849,1.7471,2.3636,0.1,0.00053566,5352.9,0.00054523,5938.9,-4.7402e-05,1486.1,-0.0002452,-0.045422,0.018704
24850,1.6552,2.6364,0.1,0.000539,5386.2,0.00054815,6001.3,-3.942e-05,1586.5,-0.00025057,-0.065373,0.016948
24851,1.7471,2.5455,0.1,0.00053542,5350.5,0.00054481,5946.6,-4.4077e-05,1521.9,-0.00024663,-0.045587,0.018787
24852,1.6552,2.8182,0.1,0.00053904,5386.7,0.00054809,6006.4,-3.7846e-05,1603.9,-0.00025132,-0.06577,0.016985
24853,1.7471,2.7273,0.1,0.00053532,5349.5,0.00054458,5952,-4.1908e-05,1545.4,-0.00024759,-0.045911,0.018842
24854,1.6552,3,0.1,0.00053906,5386.9,0.00054808,6008.2,-3.7326e-05,1609.7,-0.00025157,-0.065918,0.016998
24855,1.7471,2.9091,0.1,0.00053528,5349.1,0.00054448,5954.8,-4.0838e-05,1557,-0.00024807,-0.046131,0.018869
24856,1.6552,3.1818,0.1,0.00053904,5386.7,0.00054809,6006.4,-3.7846e-05,1603.9,-0.00025132,-0.06577,0.016985
24857,1.7471,3.0909,0.1,0.00053528,5349.1,0.00054448,5954.8,-4.0838e-05,1557,-0.00024807,-0.046131,0.018869
24858,1.6552,3.3636,0.1,0.000539,5386.2,0.00054815,6001.3,-3.942e-05,1586.5,-0.00025057,-0.065373,0.016948
24859,1.7471,3.2727,0.1,0.00053532,5349.5,0.00054458,5952,-4.1908e-05,1545.4,-0.00024759,-0.045911,0.018842
24860,1.6552,3.5455,0.1,0.00053898,5386.1,0.0005483,5993,-4.2098e-05,1557,-0.00024933,-0.064887,0.016885
24861,1.7471,3.4545,0.1,0.00053542,5350.5,0.00054481,5946.6,-4.4077e-05,1521.9,-0.00024663,-0.045587,0.018787
24862,1.6552,3.7273,0.1,0.00053907,5387,0.00054861,5982.2,-4.5961e-05,1514.8,-0.00024758,-0.064643,0.016794
24863,1.7471,3.6364,0.1,0.00053566,5352.9,0.00054523,5938.9,-4.7402e-05,1486.1,-0.0002452,-0.045422,0.018704
24864,1.6552,3.9091,0.1,0.0005394,5390.3,0.00054919,5969.6,-5.1117e-05,1459.1,-0.00024532,-0.065238,0.016674
24865,1.7471,3.8182,0.1,0.00053613,5357.6,0.00054591,5929.7,-5.1968e-05,1437.5,-0.00024329,-0.0459,0.018589
24866,1.6552,4.0909,0.1,0.00054013,5397.6,0.00055017,5956.3,-5.7697e-05,1389,-0.00024257,-0.067701,0.016522
24867,1.7471,4,0.1,0.00053697,5366,0.00054697,5919.7,-5.7877e-05,1375.1,-0.0002409,-0.047835,0.018442
24868,1.6552,4.2727,0.1,0.00054146,5410.8,0.00055171,5943.4,-6.5838e-05,1303.4,-0.00023932,-0.073695,0.016334
24869,1.7471,4.1818,0.1,0.00053834,5379.7,0.00054854,5910,-6.5243e-05,1298.3,-0.00023804,-0.052547,0.018257
24870,1.6552,4.4545,0.1,0.00054362,5432.4,0.00055399,5932.5,-7.5673e-05,1201.5,-0.00023559,-0.085882,0.016104
24871,1.7471,4.3636,0.1,0.00054045,5400.7,0.00055076,5901.8,-7.4177e-05,1206.3,-0.00023474,-0.062034,0.018032
24872,1.6552,4.6364,0.1,0.00054686,5464.8,0.00055716,5925.1,-8.7293e-05,1082.9,-0.00023143,-0.10798,0.015829
24873,1.7471,4.5455,0.1,0.00054349,5431.2,0.00055377,5896.5,-8.4763e-05,1098.8,-0.00023101,-0.079412,0.017761
24874,1.6552,4.8182,0.1,0.00055141,5510.3,0.00056138,5922.7,-0.00010072,947.95,-0.0002269,-0.14621,0.015501
24875,1.7471,4.7273,0.1,0.00054769,5473.1,0.00055772,5895.3,-9.7035e-05,975.73,-0.00022691,-0.10852,0.017438
24876,1.6552,5,0.1,0.00055746,5570.8,0.00056673,5926.6,-0.00011585,798,-0.00022209,-0.20567,0.015112
24877,1.7471,4.9091,0.1,0.00055322,5528.3,0.00056268,5899.5,-0.00011094,838.19,-0.00022251,-0.15704,0.017055
24878,1.6552,5.1818,0.1,0.0005651,5647.1,0.00057322,5937.9,-0.00013245,635.79,-0.00021711,-0.30973,0.014654
24879,1.7471,5.0909,0.1,0.00056017,5597.9,0.00056869,5910,-0.00012629,688.16,-0.00021791,-0.22682,0.016605
24880,1.6552,5.3636,0.1,0.00057427,5738.8,0.00058076,5957.1,-0.00015013,465.47,-0.00021213,-0.43806,0.014116
24881,1.7471,5.2727,0.1,0.00056856,5681.7,0.0005757,5927.4,-0.0001428,528.89,-0.00021324,-0.36183,0.016078
24882,1.6552,5.5455,0.1,0.00058485,5844.4,0.00058925,5984.4,-0.00016839,291.75,-0.00020735,-0.93256,0.013487
24883,1.7471,5.4545,0.1,0.00057824,5778.5,0.00058357,5951.9,-0.00016004,364.68,-0.00020864,-0.48686,0.015465
24884,1.6552,5.7273,0.1,0.00059749,5970.7,0.00059931,6026,-0.00018744,114.65,-0.00020302,-2.383,0.012756
24885,1.7471,5.6364,0.1,0.00058912,5887.1,0.00059223,5983.6,-0.00017758,199.54,-0.00020432,-1.3937,0.014754
24886,1.7471,5.8182,0.1,0.00060253,6021.1,0.00060295,6033.8,-0.00019562,33.676,-0.00020118,-8.089,0.013934
24887,1.6552,5.9091,0.1,0.00060308,6026.6,0.00060306,6026.2,-0.00019855,3.2516,-0.00019951,-3.9946,0.011912
24888,1.8391,0.27273,0.1,0.00059411,5937,0.00059591,5991.7,-0.00018648,113.12,-0.0002018,-1.9726,0.016059
24889,1.931,0.18182,0.1,0.00059803,5976.2,0.00059858,5992.5,-0.00019383,38.669,-0.00019974,-5.6838,0.017402
24890,1.8391,0.090909,0.1,0.00059974,5993.3,0.00059984,5996.3,-0.00019716,7.9771,-0.00019846,-1.8414,0.015148
24891,1.8391,0.45455,0.1,0.00058247,5820.7,0.0005866,5951.5,-0.00016929,272,-0.0002056,-0.81521,0.016855
24892,1.931,0.36364,0.1,0.00058581,5854.1,0.00058878,5945.8,-0.00017736,189.33,-0.00020272,-1.2278,0.018285
24893,1.8391,0.63636,0.1,0.00057248,5720.8,0.00057855,5922.5,-0.00015276,427.78,-0.00020974,-0.37571,0.017547
24894,1.931,0.54545,0.1,0.00057566,5752.6,0.00058065,5913.9,-0.00016147,337.86,-0.00020649,-0.42489,0.019058
24895,1.8391,0.81818,0.1,0.00056357,5631.8,0.00057119,5899.7,-0.00013667,581.07,-0.00021404,-0.26368,0.018145
24896,1.931,0.72727,0.1,0.00056643,5660.4,0.00057312,5887.4,-0.00014581,485.61,-0.00021049,-0.31979,0.019731
24897,1.8391,1,0.1,0.00055586,5554.8,0.00056465,5882.9,-0.00012139,728.29,-0.00021834,-0.16976,0.01866
24898,1.931,0.90909,0.1,0.00055821,5578.3,0.00056624,5866.3,-0.0001307,629.66,-0.00021453,-0.19983,0.020314
24899,1.8391,1.1818,0.1,0.00054943,5490.5,0.00055901,5872,-0.00010724,866.03,-0.00022252,-0.11407,0.019101
24900,1.931,1.0909,0.1,0.00055113,5507.5,0.00056015,5850.5,-0.00011649,766.57,-0.00021853,-0.13655,0.020816
24901,1.8391,1.3636,0.1,0.00054427,5438.9,0.00055431,5866.5,-9.4483e-05,991.74,-0.00022649,-0.076388,0.019476
24902,1.931,1.2727,0.1,0.00054523,5448.5,0.0005549,5840,-0.00010343,893.57,-0.00022237,-0.09069,0.021247
24903,1.8391,1.5455,0.1,0.00054027,5399,0.00055051,5865.6,-8.3236e-05,1103.8,-0.00023015,-0.053055,0.019793
24904,1.931,1.4545,0.1,0.00054047,5401,0.00055051,5834.2,-9.1724e-05,1008.6,-0.00022598,-0.061627,0.021614
24905,1.8391,1.7273,0.1,0.00053729,5369.2,0.00054754,5868.2,-7.3543e-05,1201.6,-0.00023347,-0.039061,0.020059
24906,1.931,1.6364,0.1,0.00053676,5363.9,0.00054695,5832.2,-8.1457e-05,1110.6,-0.00022928,-0.04311,0.021924
24907,1.8391,1.9091,0.1,0.00053515,5347.8,0.0005453,5873.2,-6.5382e-05,1284.8,-0.00023638,-0.031317,0.020279
24908,1.931,1.8182,0.1,0.00053395,5335.8,0.00054414,5833.3,-7.2654e-05,1198.9,-0.00023223,-0.0321,0.022183
24909,1.8391,2.0909,0.1,0.00053368,5333.1,0.00054365,5879.5,-5.8685e-05,1353.8,-0.00023887,-0.027447,0.020457
24910,1.931,2,0.1,0.00053189,5315.3,0.00054198,5836.3,-6.5288e-05,1273.5,-0.00023479,-0.025953,0.022396
24911,1.8391,2.2727,0.1,0.0005327,5323.3,0.00054249,5886.1,-5.3367e-05,1409.1,-0.00024091,-0.025843,0.020599
24912,1.931,2.1818,0.1,0.00053043,5300.7,0.00054037,5840.5,-5.9302e-05,1334.7,-0.00023695,-0.022859,0.022567
24913,1.8391,2.4545,0.1,0.00053209,5317.2,0.0005417,5892.2,-4.9339e-05,1451.4,-0.00024251,-0.025429,0.020706
24914,1.931,2.3636,0.1,0.00052944,5290.7,0.00053922,5844.8,-5.4626e-05,1382.9,-0.00023868,-0.021539,0.0227
24915,1.8391,2.6364,0.1,0.00053173,5313.6,0.0005412,5897,-4.6524e-05,1481.1,-0.00024365,-0.025524,0.02078
24916,1.931,2.5455,0.1,0.00052879,5284.3,0.00053844,5848.7,-5.119e-05,1418.5,-0.00023999,-0.021146,0.022798
24917,1.8391,2.8182,0.1,0.00053154,5311.8,0.00054093,5900.1,-4.486e-05,1498.7,-0.00024433,-0.025722,0.020825
24918,1.931,2.7273,0.1,0.00052841,5280.5,0.00053795,5851.7,-4.8936e-05,1442,-0.00024086,-0.021139,0.022862
24919,1.8391,3,0.1,0.00053149,5311.2,0.00054084,5901.2,-4.431e-05,1504.6,-0.00024456,-0.025809,0.020839
24920,1.931,2.9091,0.1,0.00052823,5278.7,0.00053772,5853.2,-4.7819e-05,1453.7,-0.0002413,-0.021207,0.022894
24921,1.8391,3.1818,0.1,0.00053154,5311.8,0.00054093,5900.1,-4.486e-05,1498.7,-0.00024433,-0.025722,0.020825
24922,1.931,3.0909,0.1,0.00052823,5278.7,0.00053772,5853.2,-4.7819e-05,1453.7,-0.0002413,-0.021207,0.022894
24923,1.8391,3.3636,0.1,0.00053173,5313.6,0.0005412,5897,-4.6524e-05,1481.1,-0.00024365,-0.025524,0.02078
24924,1.931,3.2727,0.1,0.00052841,5280.5,0.00053795,5851.7,-4.8936e-05,1442,-0.00024086,-0.021139,0.022862
24925,1.8391,3.5455,0.1,0.00053209,5317.2,0.0005417,5892.2,-4.9339e-05,1451.4,-0.00024251,-0.025429,0.020706
24926,1.931,3.4545,0.1,0.00052879,5284.3,0.00053844,5848.7,-5.119e-05,1418.5,-0.00023999,-0.021146,0.022798
24927,1.8391,3.7273,0.1,0.0005327,5323.3,0.00054249,5886.1,-5.3367e-05,1409.1,-0.00024091,-0.025843,0.020599
24928,1.931,3.6364,0.1,0.00052944,5290.7,0.00053922,5844.8,-5.4626e-05,1382.9,-0.00023868,-0.021539,0.0227
24929,1.8391,3.9091,0.1,0.00053368,5333.1,0.00054365,5879.5,-5.8685e-05,1353.8,-0.00023887,-0.027447,0.020457
24930,1.931,3.8182,0.1,0.00053043,5300.7,0.00054037,5840.5,-5.9302e-05,1334.7,-0.00023695,-0.022859,0.022567
24931,1.8391,4.0909,0.1,0.00053515,5347.8,0.0005453,5873.2,-6.5382e-05,1284.8,-0.00023638,-0.031317,0.020279
24932,1.931,4,0.1,0.00053189,5315.3,0.00054198,5836.3,-6.5288e-05,1273.5,-0.00023479,-0.025953,0.022396
24933,1.8391,4.2727,0.1,0.00053729,5369.2,0.00054754,5868.2,-7.3543e-05,1201.6,-0.00023347,-0.03906,0.020059
24934,1.931,4.1818,0.1,0.00053395,5335.8,0.00054414,5833.3,-7.2654e-05,1198.9,-0.00023223,-0.0321,0.022183
24935,1.8391,4.4545,0.1,0.00054027,5399,0.00055051,5865.6,-8.3236e-05,1103.8,-0.00023015,-0.053054,0.019793
24936,1.931,4.3636,0.1,0.00053676,5363.9,0.00054695,5832.2,-8.1457e-05,1110.6,-0.00022928,-0.043109,0.021924
24937,1.8391,4.6364,0.1,0.00054427,5438.9,0.00055431,5866.5,-9.4483e-05,991.74,-0.00022649,-0.076388,0.019476
24938,1.931,4.5455,0.1,0.00054047,5401,0.00055051,5834.2,-9.1724e-05,1008.6,-0.00022598,-0.061627,0.021614
24939,1.8391,4.8182,0.1,0.00054943,5490.5,0.00055901,5872,-0.00010724,866.03,-0.00022252,-0.11407,0.019101
24940,1.931,4.7273,0.1,0.00054523,5448.5,0.0005549,5840,-0.00010343,893.57,-0.00022237,-0.090689,0.021247
24941,1.8391,5,0.1,0.00055586,5554.8,0.00056465,5882.9,-0.00012139,728.29,-0.00021834,-0.16976,0.01866
24942,1.931,4.9091,0.1,0.00055113,5507.5,0.00056015,5850.5,-0.00011649,766.57,-0.00021853,-0.13655,0.020816
24943,1.8391,5.1818,0.1,0.00056357,5631.8,0.00057119,5899.7,-0.00013667,581.07,-0.00021404,-0.26368,0.018145
24944,1.931,5.0909,0.1,0.00055821,5578.3,0.00056624,5866.3,-0.0001307,629.66,-0.00021453,-0.19983,0.020314
24945,1.8391,5.3636,0.1,0.00057248,5720.8,0.00057855,5922.5,-0.00015276,427.78,-0.00020974,-0.37571,0.017547
24946,1.931,5.2727,0.1,0.00056643,5660.4,0.00057312,5887.4,-0.00014581,485.61,-0.00021049,-0.31979,0.019731
24947,1.8391,5.5455,0.1,0.00058247,5820.7,0.0005866,5951.5,-0.00016929,272,-0.0002056,-0.81521,0.016855
24948,1.931,5.4545,0.1,0.00057566,5752.6,0.00058065,5913.9,-0.00016147,337.86,-0.00020649,-0.42489,0.019058
24949,1.8391,5.7273,0.1,0.00059411,5937,0.00059591,5991.7,-0.00018648,113.12,-0.0002018,-1.9726,0.016059
24950,1.931,5.6364,0.1,0.00058581,5854.1,0.00058878,5945.8,-0.00017736,189.33,-0.00020272,-1.2278,0.018285
24951,1.931,5.8182,0.1,0.00059803,5976.2,0.00059858,5992.5,-0.00019383,38.669,-0.00019974,-5.6838,0.017402
24952,1.8391,5.9091,0.1,0.00059974,5993.3,0.00059984,5996.3,-0.00019716,7.9771,-0.00019846,-1.8414,0.015148
24953,2.023,0.27273,0.1,0.0005897,5892.9,0.00059148,5946.9,-0.00018519,111.31,-0.00020023,-1.6566,0.019756
24954,2.1149,0.18182,0.1,0.00059272,5923.1,0.00059337,5942.3,-0.00019181,42.852,-0.00019806,-4.1586,0.021267
24955,2.023,0.090909,0.1,0.00059532,5949.1,0.00059552,5954.9,-0.00019533,12.75,-0.00019719,-1.2095,0.018785
24956,2.023,0.45455,0.1,0.00057897,5785.7,0.00058287,5908.5,-0.0001696,254.79,-0.0002036,-0.72915,0.020611
24957,2.1149,0.36364,0.1,0.00058157,5811.7,0.0005844,5899,-0.00017675,180.03,-0.00020086,-1.0914,0.022207
24958,2.023,0.63636,0.1,0.00056957,5691.8,0.00057526,5879,-0.00015456,395.4,-0.00020723,-0.33962,0.021361
24959,2.1149,0.54545,0.1,0.0005721,5717,0.00057679,5867.6,-0.00016228,314.47,-0.00020419,-0.37801,0.023036
24960,2.023,0.81818,0.1,0.00056103,5606.4,0.00056819,5854.1,-0.00013988,533.99,-0.00021098,-0.24308,0.022016
24961,2.1149,0.72727,0.1,0.00056336,5629.7,0.00056963,5840.2,-0.00014801,448.11,-0.00020769,-0.28991,0.023764
24962,2.023,1,0.1,0.00055343,5530.5,0.00056175,5834,-0.00012582,667.83,-0.00021472,-0.1595,0.022583
24963,2.1149,0.90909,0.1,0.00055542,5550.4,0.00056299,5817,-0.00013417,578.8,-0.00021122,-0.18351,0.0244
24964,2.023,1.1818,0.1,0.00054688,5465,0.00055604,5818.6,-0.00011268,794.1,-0.00021838,-0.10868,0.023073
24965,2.1149,1.0909,0.1,0.0005484,5480.2,0.00055696,5798,-0.00012104,703.78,-0.00021472,-0.1267,0.024951
24966,2.023,1.3636,0.1,0.00054139,5410.1,0.00055109,5807.6,-0.00010066,910.56,-0.00022186,-0.072874,0.023493
24967,2.1149,1.2727,0.1,0.00054235,5419.8,0.00055163,5783.3,-0.00010885,820.68,-0.00021809,-0.084141,0.025428
24968,2.023,1.5455,0.1,0.00053692,5365.5,0.00054693,5800.7,-8.9924e-05,1015.6,-0.0002251,-0.049492,0.02385
24969,2.1149,1.4545,0.1,0.00053729,5369.2,0.00054702,5772.5,-9.7794e-05,927.66,-0.00022127,-0.055967,0.025836
24970,2.023,1.7273,0.1,0.00053338,5330.1,0.00054352,5797.1,-8.0538e-05,1108.2,-0.00022804,-0.034522,0.024152
24971,2.1149,1.6364,0.1,0.00053316,5327.9,0.00054314,5765.3,-8.7972e-05,1023.4,-0.00022419,-0.037031,0.026183
24972,2.023,1.9091,0.1,0.00053066,5302.9,0.00054079,5796.2,-7.2526e-05,1188,-0.00023064,-0.025492,0.024402
24973,2.1149,1.8182,0.1,0.00052987,5295,0.00053994,5761.1,-7.9444e-05,1107.3,-0.00022681,-0.024975,0.026474
24974,2.023,2.0909,0.1,0.00052863,5282.6,0.00053867,5797,-6.5868e-05,1254.8,-0.00023287,-0.020386,0.024607
24975,2.1149,2,0.1,0.00052732,5269.5,0.00053738,5759.1,-7.2223e-05,1178.8,-0.00022911,-0.017619,0.026715
24976,2.023,2.2727,0.1,0.00052715,5267.9,0.00053707,5798.9,-6.0523e-05,1308.8,-0.00023472,-0.017759,0.024769
24977,2.1149,2.1818,0.1,0.0005254,5250.3,0.00053539,5758.7,-6.6291e-05,1237.9,-0.00023105,-0.013408,0.026909
24978,2.023,2.4545,0.1,0.00052613,5257.6,0.00053592,5801.1,-5.6438e-05,1350.4,-0.00023616,-0.016585,0.024892
24979,2.1149,2.3636,0.1,0.000524,5236.4,0.00053389,5759.2,-6.1615e-05,1284.8,-0.00023261,-0.011178,0.027061
24980,2.023,2.6364,0.1,0.00052546,5251,0.00053515,5803.1,-5.3562e-05,1379.8,-0.0002372,-0.016171,0.024979
24981,2.1149,2.5455,0.1,0.00052304,5226.7,0.00053283,5760.1,-5.8153e-05,1319.7,-0.0002338,-0.010118,0.027172
24982,2.023,2.8182,0.1,0.00052509,5247.3,0.00053471,5804.5,-5.1854e-05,1397.3,-0.00023782,-0.016079,0.02503
24983,2.1149,2.7273,0.1,0.00052243,5220.7,0.00053215,5761,-5.5868e-05,1342.8,-0.00023459,-0.0096815,0.027246
24984,2.023,3,0.1,0.00052497,5246.1,0.00053456,5805,-5.1288e-05,1403.1,-0.00023803,-0.016074,0.025047
24985,2.1149,2.9091,0.1,0.00052215,5217.8,0.00053182,5761.5,-5.4734e-05,1354.3,-0.00023498,-0.0095404,0.027282
24986,2.023,3.1818,0.1,0.00052509,5247.3,0.00053471,5804.5,-5.1854e-05,1397.3,-0.00023782,-0.016079,0.02503
24987,2.1149,3.0909,0.1,0.00052215,5217.8,0.00053182,5761.5,-5.4734e-05,1354.3,-0.00023498,-0.0095404,0.027282
24988,2.023,3.3636,0.1,0.00052546,5251,0.00053515,5803.1,-5.3562e-05,1379.8,-0.0002372,-0.016171,0.024979
24989,2.1149,3.2727,0.1,0.00052243,5220.7,0.00053215,5761,-5.5868e-05,1342.8,-0.00023459,-0.0096815,0.027246
24990,2.023,3.5455,0.1,0.00052613,5257.6,0.00053592,5801.1,-5.6438e-05,1350.4,-0.00023616,-0.016585,0.024892
24991,2.1149,3.4545,0.1,0.00052304,5226.7,0.00053283,5760.1,-5.8153e-05,1319.7,-0.0002338,-0.010118,0.027172
24992,2.023,3.7273,0.1,0.00052715,5267.9,0.00053707,5798.9,-6.0523e-05,1308.8,-0.00023472,-0.017759,0.024769
24993,2.1149,3.6364,0.1,0.000524,5236.4,0.00053389,5759.2,-6.1615e-05,1284.8,-0.00023261,-0.011178,0.027061
24994,2.023,3.9091,0.1,0.00052863,5282.6,0.00053867,5797,-6.5868e-05,1254.8,-0.00023287,-0.020386,0.024607
24995,2.1149,3.8182,0.1,0.0005254,5250.3,0.00053539,5758.7,-6.6291e-05,1237.9,-0.00023105,-0.013407,0.026909
24996,2.023,4.0909,0.1,0.00053066,5302.9,0.00054079,5796.2,-7.2526e-05,1188,-0.00023064,-0.025492,0.024402
24997,2.1149,4,0.1,0.00052732,5269.5,0.00053738,5759.1,-7.2223e-05,1178.8,-0.00022911,-0.017619,0.026715
24998,2.023,4.2727,0.1,0.00053338,5330.1,0.00054352,5797.1,-8.0538e-05,1108.2,-0.00022804,-0.034522,0.024152
24999,2.1149,4.1818,0.1,0.00052987,5295,0.00053994,5761.1,-7.9444e-05,1107.3,-0.00022681,-0.024975,0.026474
25000,2.023,4.4545,0.1,0.00053692,5365.5,0.00054693,5800.7,-8.9924e-05,1015.6,-0.0002251,-0.049491,0.02385
25001,2.1149,4.3636,0.1,0.00053316,5327.9,0.00054314,5765.3,-8.7972e-05,1023.4,-0.00022419,-0.037031,0.026183
25002,2.023,4.6364,0.1,0.00054139,5410.1,0.00055109,5807.6,-0.00010066,910.56,-0.00022186,-0.072873,0.023493
25003,2.1149,4.5455,0.1,0.00053729,5369.2,0.00054702,5772.5,-9.7794e-05,927.66,-0.00022126,-0.055967,0.025836
25004,2.023,4.8182,0.1,0.00054688,5465,0.00055604,5818.6,-0.00011268,794.1,-0.00021838,-0.10868,0.023073
25005,2.1149,4.7273,0.1,0.00054235,5419.8,0.00055163,5783.3,-0.00010885,820.68,-0.00021809,-0.084141,0.025428
25006,2.023,5,0.1,0.00055343,5530.5,0.00056175,5834,-0.00012582,667.83,-0.00021472,-0.1595,0.022583
25007,2.1149,4.9091,0.1,0.0005484,5480.2,0.00055696,5798,-0.00012104,703.78,-0.00021472,-0.1267,0.024951
25008,2.023,5.1818,0.1,0.00056103,5606.4,0.00056819,5854.1,-0.00013988,533.99,-0.00021098,-0.24308,0.022016
25009,2.1149,5.0909,0.1,0.00055542,5550.4,0.00056299,5817,-0.00013417,578.8,-0.00021122,-0.1835,0.0244
25010,2.023,5.3636,0.1,0.00056957,5691.8,0.00057526,5879,-0.00015456,395.4,-0.00020723,-0.33962,0.021361
25011,2.1149,5.2727,0.1,0.00056336,5629.7,0.00056963,5840.2,-0.00014801,448.11,-0.00020769,-0.28991,0.023764
25012,2.023,5.5455,0.1,0.00057897,5785.7,0.00058287,5908.5,-0.0001696,254.79,-0.0002036,-0.72915,0.020611
25013,2.1149,5.4545,0.1,0.0005721,5717,0.00057679,5867.6,-0.00016228,314.47,-0.00020419,-0.37801,0.023036
25014,2.023,5.7273,0.1,0.0005897,5892.9,0.00059148,5946.9,-0.00018519,111.31,-0.00020023,-1.6566,0.019756
25015,2.1149,5.6364,0.1,0.00058157,5811.7,0.0005844,5899,-0.00017675,180.03,-0.00020086,-1.0914,0.022207
25016,2.1149,5.8182,0.1,0.00059272,5923.1,0.00059337,5942.3,-0.00019181,42.852,-0.00019806,-4.1586,0.021267
25017,2.023,5.9091,0.1,0.00059532,5949.1,0.00059552,5954.9,-0.00019533,12.75,-0.00019719,-1.2095,0.018785
25018,2.2069,0.27273,0.1,0.00058456,5841.6,0.00058632,5894.7,-0.00018369,109.13,-0.0001984,-1.4017,0.023846
25019,2.2989,0.18182,0.1,0.00058686,5864.6,0.00058758,5885.9,-0.00018965,46.108,-0.00019621,-3.1444,0.025527
25020,2.2069,0.090909,0.1,0.00059014,5897.4,0.00059041,5905.2,-0.00019331,16.668,-0.00019565,-0.92887,0.02282
25021,2.2069,0.45455,0.1,0.00057467,5742.7,0.00057835,5858.3,-0.00016948,239.36,-0.00020143,-0.65104,0.024756
25022,2.2989,0.36364,0.1,0.00057665,5762.6,0.00057936,5845.8,-0.00017587,171.3,-0.0001988,-0.97334,0.026519
25023,2.2069,0.63636,0.1,0.00056585,5654.6,0.00057119,5829,-0.00015576,366.93,-0.00020464,-0.3034,0.025559
25024,2.2989,0.54545,0.1,0.00056783,5674.4,0.00057224,5815.3,-0.00016265,293.58,-0.00020176,-0.33585,0.027399
25025,2.2069,0.81818,0.1,0.00055772,5573.3,0.00056446,5803.2,-0.00014232,492.73,-0.00020793,-0.21938,0.026264
25026,2.2989,0.72727,0.1,0.00055959,5592,0.00056548,5787.8,-0.00014959,414.99,-0.00020486,-0.26144,0.028177
25027,2.2069,1,0.1,0.00055035,5499.7,0.00055822,5781.1,-0.0001294,614.62,-0.00021122,-0.14464,0.026881
25028,2.2989,0.90909,0.1,0.00055199,5516.1,0.00055913,5763.5,-0.0001369,533.89,-0.00020798,-0.1666,0.028861
25029,2.2069,1.1818,0.1,0.00054384,5434.6,0.00055256,5762.8,-0.00011722,730.31,-0.00021443,-0.098326,0.027416
25030,2.2989,1.0909,0.1,0.00054515,5447.7,0.00055327,5742.7,-0.00012479,648.05,-0.00021105,-0.1156,0.029458
25031,2.2069,1.3636,0.1,0.00053822,5378.5,0.00054755,5748.2,-0.00010598,837.81,-0.00021749,-0.064602,0.027879
25032,2.2989,1.2727,0.1,0.00053912,5387.5,0.00054798,5725.3,-0.00011346,755.48,-0.00021402,-0.076354,0.029977
25033,2.2069,1.5455,0.1,0.00053349,5331.3,0.00054321,5737.1,-9.5828e-05,935.61,-0.00022036,-0.041596,0.028274
25034,2.2989,1.4545,0.1,0.00053393,5335.6,0.0005433,5711.3,-0.00010309,854.51,-0.00021683,-0.049445,0.030424
25035,2.2069,1.7273,0.1,0.00052961,5292.5,0.00053954,5729.1,-8.6856e-05,1022.6,-0.00022297,-0.026043,0.028609
25036,2.2989,1.6364,0.1,0.00052956,5292,0.00053926,5700.4,-9.3788e-05,943.89,-0.00021942,-0.030547,0.030806
25037,2.2069,1.9091,0.1,0.0005265,5261.4,0.00053651,5723.8,-7.9113e-05,1098.3,-0.00022528,-0.01598,0.02889
25038,2.2989,1.8182,0.1,0.00052598,5256.1,0.00053585,5692.3,-8.5631e-05,1022.7,-0.00022175,-0.017829,0.031129
25039,2.2069,2.0909,0.1,0.00052407,5237.1,0.00053407,5720.5,-7.2614e-05,1162.1,-0.00022728,-0.0097407,0.029119
25040,2.2989,2,0.1,0.0005231,5227.4,0.00053304,5686.6,-7.8657e-05,1090.5,-0.0002238,-0.0095178,0.031396
25041,2.2069,2.2727,0.1,0.00052223,5218.7,0.00053217,5718.7,-6.7348e-05,1214.2,-0.00022894,-0.0060816,0.029302
25042,2.2989,2.1818,0.1,0.00052085,5204.9,0.00053079,5682.8,-7.2879e-05,1147,-0.00022554,-0.004315,0.031613
25043,2.2069,2.4545,0.1,0.00052089,5205.3,0.00053076,5717.9,-6.3293e-05,1254.4,-0.00023025,-0.0040736,0.029441
25044,2.2989,2.3636,0.1,0.00051916,5188.1,0.00052906,5680.4,-6.8288e-05,1192.1,-0.00022695,-0.0012102,0.031782
25045,2.2069,2.6364,0.1,0.00051999,5196.4,0.00052979,5717.7,-6.0421e-05,1283,-0.00023118,-0.0030612,0.029539
25046,2.2989,2.5455,0.1,0.00051796,5176.1,0.00052781,5678.9,-6.4869e-05,1225.8,-0.00022801,0.00053455,0.031907
25047,2.2069,2.8182,0.1,0.00051948,5191.2,0.00052923,5717.7,-5.8709e-05,1300.1,-0.00023175,-0.0026144,0.029597
25048,2.2989,2.7273,0.1,0.0005172,5168.4,0.00052699,5678.2,-6.2603e-05,1248.2,-0.00022873,0.0014334,0.031989
25049,2.2069,3,0.1,0.00051931,5189.5,0.00052904,5717.7,-5.8141e-05,1305.8,-0.00023194,-0.0024913,0.029616
25050,2.2989,2.9091,0.1,0.00051682,5164.7,0.00052659,5677.9,-6.1474e-05,1259.4,-0.00022909,0.0018062,0.03203
25051,2.2069,3.1818,0.1,0.00051948,5191.2,0.00052923,5717.7,-5.8709e-05,1300.1,-0.00023175,-0.0026143,0.029597
25052,2.2989,3.0909,0.1,0.00051682,5164.7,0.00052659,5677.9,-6.1474e-05,1259.4,-0.00022909,0.0018063,0.03203
25053,2.2069,3.3636,0.1,0.00051999,5196.4,0.00052979,5717.7,-6.0421e-05,1283,-0.00023118,-0.0030612,0.029539
25054,2.2989,3.2727,0.1,0.0005172,5168.4,0.00052699,5678.2,-6.2603e-05,1248.2,-0.00022873,0.0014334,0.031989
25055,2.2069,3.5455,0.1,0.00052089,5205.3,0.00053076,5717.9,-6.3293e-05,1254.4,-0.00023025,-0.0040734,0.029441
25056,2.2989,3.4545,0.1,0.00051796,5176.1,0.00052781,5678.9,-6.4869e-05,1225.8,-0.00022801,0.00053467,0.031907
25057,2.2069,3.7273,0.1,0.00052223,5218.7,0.00053217,5718.7,-6.7348e-05,1214.2,-0.00022894,-0.0060815,0.029302
25058,2.2989,3.6364,0.1,0.00051916,5188.1,0.00052906,5680.4,-6.8288e-05,1192.1,-0.00022695,-0.00121,0.031782
25059,2.2069,3.9091,0.1,0.00052407,5237.1,0.00053407,5720.5,-7.2614e-05,1162.1,-0.00022728,-0.0097405,0.029119
25060,2.2989,3.8182,0.1,0.00052085,5204.9,0.00053079,5682.8,-7.2879e-05,1147,-0.00022554,-0.0043149,0.031613
25061,2.2069,4.0909,0.1,0.0005265,5261.4,0.00053651,5723.8,-7.9113e-05,1098.3,-0.00022528,-0.01598,0.02889
25062,2.2989,4,0.1,0.0005231,5227.4,0.00053304,5686.6,-7.8657e-05,1090.5,-0.0002238,-0.0095176,0.031396
25063,2.2069,4.2727,0.1,0.00052961,5292.5,0.00053954,5729.1,-8.6856e-05,1022.6,-0.00022297,-0.026042,0.028609
25064,2.2989,4.1818,0.1,0.00052598,5256.1,0.00053585,5692.3,-8.5631e-05,1022.7,-0.00022175,-0.017829,0.031129
25065,2.2069,4.4545,0.1,0.00053349,5331.3,0.00054321,5737.1,-9.5828e-05,935.61,-0.00022036,-0.041596,0.028274
25066,2.2989,4.3636,0.1,0.00052956,5292,0.00053926,5700.4,-9.3788e-05,943.89,-0.00021942,-0.030547,0.030806
25067,2.2069,4.6364,0.1,0.00053822,5378.5,0.00054755,5748.2,-0.00010598,837.81,-0.00021749,-0.064602,0.027879
25068,2.2989,4.5455,0.1,0.00053393,5335.6,0.0005433,5711.3,-0.00010309,854.51,-0.00021683,-0.049444,0.030424
25069,2.2069,4.8182,0.1,0.00054384,5434.6,0.00055256,5762.8,-0.00011722,730.31,-0.00021443,-0.098326,0.027416
25070,2.2989,4.7273,0.1,0.00053912,5387.5,0.00054798,5725.3,-0.00011346,755.48,-0.00021402,-0.076353,0.029977
25071,2.2069,5,0.1,0.00055035,5499.7,0.00055822,5781.1,-0.0001294,614.62,-0.00021122,-0.14464,0.026881
25072,2.2989,4.9091,0.1,0.00054515,5447.7,0.00055327,5742.7,-0.00012479,648.05,-0.00021105,-0.1156,0.029458
25073,2.2069,5.1818,0.1,0.00055772,5573.3,0.00056446,5803.2,-0.00014232,492.73,-0.00020793,-0.21938,0.026264
25074,2.2989,5.0909,0.1,0.00055199,5516.1,0.00055913,5763.5,-0.0001369,533.89,-0.00020798,-0.1666,0.028861
25075,2.2069,5.3636,0.1,0.00056585,5654.6,0.00057119,5829,-0.00015576,366.93,-0.00020464,-0.3034,0.025559
25076,2.2989,5.2727,0.1,0.00055959,5592,0.00056548,5787.8,-0.00014959,414.99,-0.00020486,-0.26144,0.028177
25077,2.2069,5.5455,0.1,0.00057467,5742.7,0.00057835,5858.3,-0.00016948,239.36,-0.00020143,-0.65104,0.024756
25078,2.2989,5.4545,0.1,0.00056783,5674.4,0.00057224,5815.3,-0.00016265,293.58,-0.00020176,-0.33585,0.027399
25079,2.2069,5.7273,0.1,0.00058456,5841.6,0.00058632,5894.7,-0.00018369,109.13,-0.0001984,-1.4017,0.023846
25080,2.2989,5.6364,0.1,0.00057665,5762.6,0.00057936,5845.8,-0.00017587,171.3,-0.0001988,-0.97334,0.026519
25081,2.2989,5.8182,0.1,0.00058686,5864.6,0.00058758,5885.9,-0.00018965,46.108,-0.00019621,-3.1444,0.025527
25082,2.2069,5.9091,0.1,0.00059014,5897.4,0.00059041,5905.2,-0.00019331,16.668,-0.00019565,-0.92887,0.02282
25083,2.3908,0.27273,0.1,0.00057893,5785.3,0.00058065,5837.2,-0.00018206,106.54,-0.0001964,-1.1961,0.028326
25084,2.4828,0.18182,0.1,0.00058063,5802.3,0.0005814,5825.2,-0.00018743,48.447,-0.00019421,-2.4411,0.030179
25085,2.3908,0.090909,0.1,0.00058443,5840.2,0.00058475,5849.7,-0.00019118,19.698,-0.0001939,-0.76678,0.027252
25086,2.3908,0.45455,0.1,0.00056979,5694,0.00057328,5803,-0.00016907,225.22,-0.00019913,-0.58391,0.029285
25087,2.4828,0.36364,0.1,0.00057127,5708.8,0.00057385,5788.1,-0.0001748,162.95,-0.00019661,-0.87153,0.031217
25088,2.3908,0.63636,0.1,0.00056154,5611.5,0.00056656,5774.3,-0.00015651,341.41,-0.00020198,-0.27258,0.030137
25089,2.4828,0.54545,0.1,0.00056305,5626.6,0.00056721,5758.7,-0.00016268,274.57,-0.00019927,-0.29951,0.032144
25090,2.3908,0.81818,0.1,0.00055384,5534.5,0.00056018,5748.3,-0.00014419,455.97,-0.0002049,-0.19924,0.03089
25091,2.4828,0.72727,0.1,0.0005553,5549.2,0.00056084,5731.6,-0.00015072,385.24,-0.00020202,-0.23641,0.032968
25092,2.3908,1,0.1,0.00054676,5463.9,0.00055419,5725.2,-0.0001323,567.19,-0.00020781,-0.13234,0.031551
25093,2.4828,0.90909,0.1,0.00054808,5477.1,0.00055481,5707.1,-0.00013906,493.69,-0.00020478,-0.15163,0.033696
25094,2.3908,1.1818,0.1,0.0005404,5400.3,0.00054869,5705.2,-0.00012104,673.16,-0.00021064,-0.090326,0.03213
25095,2.4828,1.0909,0.1,0.00054149,5411.1,0.00054917,5685.3,-0.00012789,598.07,-0.0002075,-0.10586,0.034335
25096,2.3908,1.3636,0.1,0.0005348,5344.3,0.00054373,5688.3,-0.00011057,772.18,-0.00021335,-0.058916,0.032631
25097,2.4828,1.2727,0.1,0.00053558,5352.1,0.00054402,5666.3,-0.0001174,696.7,-0.00021013,-0.069867,0.034893
25098,2.3908,1.5455,0.1,0.00052997,5296.1,0.00053935,5674.5,-0.00010104,862.85,-0.00021588,-0.036727,0.033063
25099,2.4828,1.4545,0.1,0.0005304,5300.3,0.00053939,5650.2,-0.00010772,788.12,-0.00021262,-0.044496,0.035377
25100,2.3908,1.7273,0.1,0.0005259,5255.4,0.00053556,5663.5,-9.2546e-05,944.11,-0.0002182,-0.02106,0.03343
25101,2.4828,1.6364,0.1,0.00052594,5255.8,0.00053531,5636.9,-9.8973e-05,871.12,-0.00021492,-0.026038,0.035792
25102,2.3908,1.9091,0.1,0.00052255,5221.9,0.00053236,5655,-8.5153e-05,1015.2,-0.00022027,-0.010361,0.033738
25103,2.4828,1.8182,0.1,0.0005222,5218.4,0.00053181,5626.2,-9.1245e-05,944.82,-0.000217,-0.013057,0.036144
25104,2.3908,2.0909,0.1,0.00051986,5195.1,0.00052974,5648.7,-7.8895e-05,1075.7,-0.00022206,-0.0032725,0.033992
25105,2.4828,2,0.1,0.00051912,5187.6,0.00052887,5617.9,-8.4589e-05,1008.6,-0.00021882,-0.0041178,0.036436
25106,2.3908,2.2727,0.1,0.00051777,5174.2,0.00052765,5644.2,-7.3789e-05,1125.2,-0.00022354,0.0012446,0.034194
25107,2.4828,2.1818,0.1,0.00051667,5163.1,0.00052647,5611.5,-7.9035e-05,1062,-0.00022038,0.0018417,0.036674
25108,2.3908,2.4545,0.1,0.00051622,5158.7,0.00052607,5641.1,-6.9832e-05,1163.7,-0.00022471,0.003995,0.034348
25109,2.4828,2.3636,0.1,0.00051478,5144.3,0.0005246,5607,-7.4595e-05,1104.9,-0.00022164,0.0056738,0.036861
25110,2.3908,2.6364,0.1,0.00051515,5148,0.00052497,5639.2,-6.7016e-05,1191.2,-0.00022556,0.0055666,0.034457
25111,2.4828,2.5455,0.1,0.00051342,5130.7,0.00052322,5603.8,-7.1272e-05,1137,-0.0002226,0.0080197,0.036998
25112,2.3908,2.8182,0.1,0.00051453,5141.8,0.00052432,5638.1,-6.5332e-05,1207.7,-0.00022607,0.0063574,0.034522
25113,2.4828,2.7273,0.1,0.00051254,5121.8,0.00052231,5601.8,-6.9061e-05,1158.5,-0.00022324,0.0093404,0.037089
25114,2.3908,3,0.1,0.00051433,5139.7,0.0005241,5637.8,-6.4772e-05,1213.2,-0.00022624,0.0065963,0.034543
25115,2.4828,2.9091,0.1,0.0005121,5117.5,0.00052187,5600.9,-6.7957e-05,1169.2,-0.00022357,0.0099294,0.037134
25116,2.3908,3.1818,0.1,0.00051453,5141.8,0.00052432,5638.1,-6.5332e-05,1207.7,-0.00022607,0.0063575,0.034522
25117,2.4828,3.0909,0.1,0.0005121,5117.5,0.00052187,5600.9,-6.7957e-05,1169.2,-0.00022357,0.0099295,0.037134
25118,2.3908,3.3636,0.1,0.00051515,5148,0.00052497,5639.2,-6.7016e-05,1191.2,-0.00022556,0.0055666,0.034457
25119,2.4828,3.2727,0.1,0.00051254,5121.8,0.00052231,5601.8,-6.9061e-05,1158.5,-0.00022324,0.0093405,0.037089
25120,2.3908,3.5455,0.1,0.00051622,5158.7,0.00052607,5641.1,-6.9832e-05,1163.7,-0.00022471,0.0039952,0.034348
25121,2.4828,3.4545,0.1,0.00051342,5130.7,0.00052322,5603.8,-7.1272e-05,1137,-0.0002226,0.0080198,0.036998
25122,2.3908,3.7273,0.1,0.00051777,5174.2,0.00052765,5644.2,-7.3789e-05,1125.2,-0.00022354,0.0012448,0.034194
25123,2.4828,3.6364,0.1,0.00051478,5144.3,0.0005246,5607,-7.4595e-05,1104.9,-0.00022164,0.005674,0.036861
25124,2.3908,3.9091,0.1,0.00051986,5195.1,0.00052974,5648.7,-7.8895e-05,1075.7,-0.00022206,-0.0032723,0.033992
25125,2.4828,3.8182,0.1,0.00051667,5163.1,0.00052647,5611.5,-7.9035e-05,1062,-0.00022038,0.001842,0.036674
25126,2.3908,4.0909,0.1,0.00052255,5221.9,0.00053236,5655,-8.5153e-05,1015.2,-0.00022027,-0.010361,0.033738
25127,2.4828,4,0.1,0.00051912,5187.6,0.00052887,5617.9,-8.4589e-05,1008.6,-0.00021882,-0.0041176,0.036436
25128,2.3908,4.2727,0.1,0.0005259,5255.4,0.00053556,5663.5,-9.2546e-05,944.11,-0.0002182,-0.021059,0.03343
25129,2.4828,4.1818,0.1,0.0005222,5218.4,0.00053181,5626.2,-9.1245e-05,944.82,-0.000217,-0.013057,0.036144
25130,2.3908,4.4545,0.1,0.00052997,5296.1,0.00053935,5674.5,-0.00010104,862.85,-0.00021588,-0.036726,0.033063
25131,2.4828,4.3636,0.1,0.00052594,5255.8,0.00053531,5636.9,-9.8973e-05,871.12,-0.00021492,-0.026037,0.035792
25132,2.3908,4.6364,0.1,0.0005348,5344.3,0.00054373,5688.3,-0.00011057,772.18,-0.00021335,-0.058915,0.032631
25133,2.4828,4.5455,0.1,0.0005304,5300.3,0.00053939,5650.2,-0.00010772,788.12,-0.00021262,-0.044496,0.035377
25134,2.3908,4.8182,0.1,0.0005404,5400.3,0.00054869,5705.2,-0.00012104,673.16,-0.00021064,-0.090325,0.03213
25135,2.4828,4.7273,0.1,0.00053558,5352.1,0.00054402,5666.3,-0.0001174,696.7,-0.00021013,-0.069867,0.034893
25136,2.3908,5,0.1,0.00054676,5463.9,0.00055419,5725.2,-0.0001323,567.19,-0.00020781,-0.13234,0.031551
25137,2.4828,4.9091,0.1,0.00054149,5411.1,0.00054917,5685.3,-0.00012789,598.07,-0.0002075,-0.10586,0.034335
25138,2.3908,5.1818,0.1,0.00055384,5534.5,0.00056018,5748.3,-0.00014419,455.97,-0.0002049,-0.19924,0.03089
25139,2.4828,5.0909,0.1,0.00054808,5477.1,0.00055481,5707.1,-0.00013906,493.69,-0.00020478,-0.15163,0.033696
25140,2.3908,5.3636,0.1,0.00056154,5611.5,0.00056656,5774.3,-0.00015651,341.41,-0.00020198,-0.27258,0.030137
25141,2.4828,5.2727,0.1,0.0005553,5549.2,0.00056084,5731.6,-0.00015072,385.24,-0.00020202,-0.23641,0.032968
25142,2.3908,5.5455,0.1,0.00056979,5694,0.00057328,5803,-0.00016907,225.22,-0.00019913,-0.58391,0.029285
25143,2.4828,5.4545,0.1,0.00056305,5626.6,0.00056721,5758.7,-0.00016268,274.57,-0.00019927,-0.29951,0.032144
25144,2.3908,5.7273,0.1,0.00057893,5785.3,0.00058065,5837.2,-0.00018206,106.54,-0.0001964,-1.1961,0.028326
25145,2.4828,5.6364,0.1,0.00057127,5708.8,0.00057385,5788.1,-0.0001748,162.95,-0.00019661,-0.87153,0.031217
25146,2.4828,5.8182,0.1,0.00058063,5802.3,0.0005814,5825.2,-0.00018743,48.447,-0.00019421,-2.4411,0.030179
25147,2.3908,5.9091,0.1,0.00058443,5840.2,0.00058475,5849.7,-0.00019118,19.698,-0.0001939,-0.76678,0.027252
25148,2.5747,0.27273,0.1,0.00057296,5725.6,0.00057463,5776.2,-0.00018035,103.57,-0.00019427,-1.0279,0.033195
25149,2.6667,0.18182,0.1,0.00057416,5737.6,0.00057496,5761.5,-0.0001852,49.941,-0.0001921,-1.9355,0.035219
25150,2.5747,0.090909,0.1,0.00057834,5779.4,0.0005787,5790,-0.00018898,21.942,-0.00019199,-0.65771,0.032076
25151,2.5747,0.45455,0.1,0.00056451,5641.2,0.00056781,5744,-0.00016845,212.04,-0.00019674,-0.52483,0.034199
25152,2.6667,0.36364,0.1,0.00056557,5651.8,0.00056803,5727.2,-0.00017361,154.85,-0.00019432,-0.78281,0.0363
25153,2.5747,0.63636,0.1,0.00055679,5564.1,0.00056152,5716.2,-0.00015692,318.2,-0.0001993,-0.24497,0.035094
25154,2.6667,0.54545,0.1,0.0005579,5575.2,0.00056183,5699.1,-0.00016247,257.04,-0.00019672,-0.26758,0.037269
25155,2.5747,0.81818,0.1,0.00054953,5491.5,0.0005555,5690.6,-0.0001456,422.79,-0.0002019,-0.18063,0.03589
25156,2.6667,0.72727,0.1,0.00055064,5502.6,0.00055585,5672.8,-0.00015148,358.19,-0.00019918,-0.21383,0.038134
25157,2.5747,1,0.1,0.00054279,5424.1,0.0005498,5667.3,-0.00013466,524.44,-0.00020448,-0.12061,0.036593
25158,2.6667,0.90909,0.1,0.00054381,5434.4,0.00055014,5648.5,-0.00014076,457.3,-0.00020164,-0.13778,0.038902
25159,2.5747,1.1818,0.1,0.00053665,5362.8,0.00054451,5646.4,-0.00012426,621.53,-0.00020699,-0.082532,0.03721
25160,2.6667,1.0909,0.1,0.00053751,5371.4,0.00054477,5626.4,-0.00013047,552.83,-0.00020406,-0.096663,0.03958
25161,2.5747,1.3636,0.1,0.00053116,5307.9,0.00053968,5628.2,-0.00011455,712.62,-0.0002094,-0.053461,0.037748
25162,2.6667,1.2727,0.1,0.0005318,5314.3,0.00053981,5606.6,-0.00012077,643.35,-0.0002064,-0.063752,0.040175
25163,2.5747,1.5455,0.1,0.00052634,5259.8,0.00053535,5612.6,-0.00010565,796.42,-0.00021165,-0.032345,0.038213
25164,2.6667,1.4545,0.1,0.00052671,5263.4,0.0005353,5589.3,-0.00011177,727.57,-0.00020861,-0.040039,0.040692
25165,2.5747,1.7273,0.1,0.00052221,5218.5,0.00053155,5599.6,-9.7661e-05,871.92,-0.00021371,-0.016909,0.038611
25166,2.6667,1.6364,0.1,0.00052227,5219.1,0.00053128,5574.5,-0.00010359,804.39,-0.00021065,-0.022291,0.041138
25167,2.5747,1.9091,0.1,0.00051875,5183.9,0.0005283,5589,-9.0664e-05,938.34,-0.00021555,-0.005915,0.038945
25168,2.6667,1.8182,0.1,0.00051847,5181.1,0.00052777,5562.1,-9.6325e-05,872.92,-0.0002125,-0.0093674,0.041516
25169,2.5747,2.0909,0.1,0.00051591,5155.5,0.00052558,5580.6,-8.4706e-05,995.11,-0.00021715,0.0017378,0.039221
25170,2.6667,2,0.1,0.0005153,5149.5,0.00052479,5552,-9.0028e-05,932.51,-0.00021414,-9.9596e-05,0.041833
25171,2.5747,2.2727,0.1,0.00051367,5133.1,0.00052339,5574.1,-7.9815e-05,1041.9,-0.00021848,0.0069012,0.039442
25172,2.6667,2.1818,0.1,0.00051274,5123.8,0.00052233,5544,-8.4745e-05,982.66,-0.00021553,0.0063709,0.042091
25173,2.5747,2.4545,0.1,0.00051197,5116.2,0.00052172,5569.4,-7.6006e-05,1078.4,-0.00021953,0.010251,0.039611
25174,2.6667,2.3636,0.1,0.00051074,5103.8,0.00052039,5537.9,-8.0502e-05,1023,-0.00021666,0.010748,0.042294
25175,2.5747,2.6364,0.1,0.00051079,5104.4,0.00052053,5566.2,-7.3285e-05,1104.5,-0.00022029,0.012296,0.03973
25176,2.6667,2.5455,0.1,0.00050927,5089.2,0.00051894,5533.5,-7.7313e-05,1053.5,-0.00021752,0.013572,0.042443
25177,2.5747,2.8182,0.1,0.0005101,5097.4,0.00051983,5564.4,-7.1653e-05,1120.2,-0.00022074,0.013386,0.039801
25178,2.6667,2.7273,0.1,0.00050831,5079.6,0.00051799,5530.7,-7.5185e-05,1073.8,-0.0002181,0.01524,0.042542
25179,2.5747,3,0.1,0.00050987,5095.2,0.0005196,5563.8,-7.1109e-05,1125.5,-0.0002209,0.013727,0.039824
25180,2.6667,2.9091,0.1,0.00050784,5074.9,0.00051751,5529.3,-7.412e-05,1084,-0.00021839,0.016012,0.042591
25181,2.5747,3.1818,0.1,0.0005101,5097.4,0.00051983,5564.4,-7.1653e-05,1120.2,-0.00022074,0.013386,0.039801
25182,2.6667,3.0909,0.1,0.00050784,5074.9,0.00051751,5529.3,-7.412e-05,1084,-0.00021839,0.016012,0.042591
25183,2.5747,3.3636,0.1,0.00051079,5104.4,0.00052053,5566.2,-7.3285e-05,1104.5,-0.00022029,0.012296,0.03973
25184,2.6667,3.2727,0.1,0.00050831,5079.6,0.00051799,5530.7,-7.5185e-05,1073.8,-0.0002181,0.015241,0.042542
25185,2.5747,3.5455,0.1,0.00051197,5116.2,0.00052172,5569.4,-7.6006e-05,1078.4,-0.00021953,0.010252,0.039611
25186,2.6667,3.4545,0.1,0.00050927,5089.2,0.00051894,5533.5,-7.7313e-05,1053.5,-0.00021752,0.013572,0.042443
25187,2.5747,3.7273,0.1,0.00051367,5133.1,0.00052339,5574.1,-7.9815e-05,1041.9,-0.00021848,0.0069015,0.039442
25188,2.6667,3.6364,0.1,0.00051074,5103.8,0.00052039,5537.9,-8.0502e-05,1023,-0.00021666,0.010748,0.042294
25189,2.5747,3.9091,0.1,0.00051591,5155.5,0.00052558,5580.6,-8.4706e-05,995.11,-0.00021715,0.0017381,0.039221
25190,2.6667,3.8182,0.1,0.00051274,5123.8,0.00052233,5544,-8.4745e-05,982.66,-0.00021553,0.0063711,0.042091
25191,2.5747,4.0909,0.1,0.00051875,5183.9,0.0005283,5589,-9.0664e-05,938.34,-0.00021555,-0.0059147,0.038945
25192,2.6667,4,0.1,0.0005153,5149.5,0.00052479,5552,-9.0028e-05,932.51,-0.00021414,-9.9283e-05,0.041833
25193,2.5747,4.2727,0.1,0.00052221,5218.5,0.00053155,5599.6,-9.7661e-05,871.92,-0.00021371,-0.016909,0.038611
25194,2.6667,4.1818,0.1,0.00051847,5181.1,0.00052777,5562.1,-9.6325e-05,872.92,-0.0002125,-0.009367,0.041516
25195,2.5747,4.4545,0.1,0.00052634,5259.8,0.00053535,5612.6,-0.00010565,796.42,-0.00021165,-0.032345,0.038213
25196,2.6667,4.3636,0.1,0.00052227,5219.1,0.00053128,5574.5,-0.00010359,804.39,-0.00021065,-0.02229,0.041138
25197,2.5747,4.6364,0.1,0.00053116,5307.9,0.00053968,5628.2,-0.00011455,712.62,-0.0002094,-0.053461,0.037748
25198,2.6667,4.5455,0.1,0.00052671,5263.4,0.0005353,5589.3,-0.00011177,727.57,-0.00020861,-0.040039,0.040692
25199,2.5747,4.8182,0.1,0.00053665,5362.8,0.00054451,5646.4,-0.00012426,621.53,-0.00020699,-0.082532,0.03721
25200,2.6667,4.7273,0.1,0.0005318,5314.3,0.00053981,5606.6,-0.00012077,643.35,-0.0002064,-0.063751,0.040175
25201,2.5747,5,0.1,0.00054279,5424.1,0.0005498,5667.3,-0.00013466,524.44,-0.00020448,-0.12061,0.036593
25202,2.6667,4.9091,0.1,0.00053751,5371.4,0.00054477,5626.4,-0.00013047,552.83,-0.00020406,-0.096663,0.03958
25203,2.5747,5.1818,0.1,0.00054953,5491.5,0.0005555,5690.6,-0.0001456,422.79,-0.0002019,-0.18063,0.03589
25204,2.6667,5.0909,0.1,0.00054381,5434.4,0.00055014,5648.5,-0.00014076,457.3,-0.00020164,-0.13778,0.038902
25205,2.5747,5.3636,0.1,0.00055679,5564.1,0.00056152,5716.2,-0.00015692,318.2,-0.0001993,-0.24497,0.035094
25206,2.6667,5.2727,0.1,0.00055064,5502.6,0.00055585,5672.8,-0.00015148,358.19,-0.00019918,-0.21383,0.038134
25207,2.5747,5.5455,0.1,0.00056451,5641.2,0.00056781,5744,-0.00016845,212.04,-0.00019674,-0.52483,0.034199
25208,2.6667,5.4545,0.1,0.0005579,5575.2,0.00056183,5699.1,-0.00016247,257.04,-0.00019672,-0.26758,0.037269
25209,2.5747,5.7273,0.1,0.00057296,5725.6,0.00057463,5776.2,-0.00018035,103.57,-0.00019427,-1.0279,0.033195
25210,2.6667,5.6364,0.1,0.00056557,5651.8,0.00056803,5727.2,-0.00017361,154.85,-0.00019432,-0.78281,0.0363
25211,2.6667,5.8182,0.1,0.00057416,5737.6,0.00057496,5761.5,-0.0001852,49.941,-0.0001921,-1.9355,0.035219
25212,2.5747,5.9091,0.1,0.00057834,5779.4,0.0005787,5790,-0.00018898,21.942,-0.00019199,-0.65771,0.032076
25213,2.7586,0.27273,0.1,0.00056676,5663.7,0.00056838,5712.7,-0.00017859,100.24,-0.00019205,-0.88895,0.038449
25214,2.8506,0.18182,0.1,0.00056754,5671.5,0.00056836,5695.9,-0.00018297,50.685,-0.00018992,-1.5611,0.040645
25215,2.7586,0.090909,0.1,0.00057199,5716,0.00057238,5727.4,-0.00018676,23.512,-0.00018997,-0.5773,0.037291
25216,2.7586,0.45455,0.1,0.00055895,5585.6,0.00056207,5682.5,-0.00016766,199.62,-0.00019429,-0.47285,0.039492
25217,2.8506,0.36364,0.1,0.00055964,5592.5,0.00056198,5664.2,-0.00017232,146.94,-0.00019197,-0.70507,0.041763
25218,2.7586,0.63636,0.1,0.00055174,5513.6,0.00055618,5655.9,-0.00015706,296.85,-0.0001966,-0.2205,0.040428
25219,2.8506,0.54545,0.1,0.0005525,5521.2,0.0005562,5637.5,-0.00016207,240.7,-0.00019414,-0.23952,0.04277
25220,2.7586,0.81818,0.1,0.00054491,5445.3,0.00055052,5630.9,-0.00014666,392.54,-0.00019893,-0.16385,0.041262
25221,2.8506,0.72727,0.1,0.0005457,5453.3,0.00055061,5612.2,-0.00015197,333.35,-0.00019636,-0.19356,0.043673
25222,2.7586,1,0.1,0.00053852,5381.5,0.00054513,5607.8,-0.00013659,485.56,-0.00020123,-0.10987,0.042003
25223,2.8506,0.90909,0.1,0.00053927,5389,0.00054523,5588.5,-0.00014211,424.07,-0.00019856,-0.12515,0.044478
25224,2.7586,1.1818,0.1,0.00053264,5322.8,0.00054008,5586.7,-0.00012699,574.56,-0.00020347,-0.075373,0.042656
25225,2.8506,1.0909,0.1,0.00053329,5329.2,0.00054015,5566.5,-0.00013263,511.57,-0.00020072,-0.08816,0.045191
25226,2.7586,1.3636,0.1,0.00052733,5269.7,0.00053543,5567.8,-0.00011799,658.26,-0.00020561,-0.04859,0.043228
25227,2.8506,1.2727,0.1,0.00052781,5274.5,0.0005354,5546.6,-0.00012366,594.64,-0.00020281,-0.058121,0.045819
25228,2.7586,1.5455,0.1,0.00052261,5222.5,0.00053122,5551.3,-0.00010971,735.55,-0.00020761,-0.0287,0.043724
25229,2.8506,1.4545,0.1,0.00052288,5225.2,0.00053106,5528.7,-0.00011531,672.12,-0.00020477,-0.036099,0.046367
25230,2.7586,1.7273,0.1,0.00051851,5181.5,0.00052749,5537.1,-0.00010225,805.45,-0.00020945,-0.013753,0.044149
25231,2.8506,1.6364,0.1,0.00051853,5181.7,0.00052715,5513.1,-0.0001077,743.03,-0.0002066,-0.019237,0.046841
25232,2.7586,1.9091,0.1,0.00051502,5146.6,0.00052426,5525.1,-9.5675e-05,867.19,-0.00021109,-0.0027496,0.044508
25233,2.8506,1.8182,0.1,0.00051476,5144.1,0.00052372,5499.7,-0.00010091,806.52,-0.00020825,-0.0066152,0.047245
25234,2.7586,2.0909,0.1,0.00051212,5117.7,0.00052153,5515.3,-9.0049e-05,920.19,-0.00021252,0.0052013,0.044805
25235,2.8506,2,0.1,0.00051158,5112.3,0.00052076,5488.5,-9.4993e-05,861.93,-0.00020971,0.0027259,0.047584
25236,2.7586,2.2727,0.1,0.0005098,5094.5,0.00051931,5507.6,-8.541e-05,964,-0.00021371,0.010791,0.045044
25237,2.8506,2.1818,0.1,0.00050898,5086.2,0.00051831,5479.4,-9.0009e-05,908.72,-0.00021095,0.0094782,0.04786
25238,2.7586,2.4545,0.1,0.00050803,5076.8,0.00051759,5501.8,-8.1783e-05,998.32,-0.00021465,0.014576,0.045226
25239,2.8506,2.3636,0.1,0.00050692,5065.7,0.00051634,5472.2,-8.5991e-05,946.53,-0.00021196,0.014214,0.048078
25240,2.7586,2.6364,0.1,0.00050678,5064.3,0.00051637,5497.7,-7.9184e-05,1023,-0.00021533,0.016981,0.045355
25241,2.8506,2.5455,0.1,0.00050541,5050.6,0.00051488,5467,-8.2962e-05,975.08,-0.00021273,0.01738,0.048239
25242,2.7586,2.8182,0.1,0.00050604,5056.9,0.00051564,5495.3,-7.7622e-05,1037.8,-0.00021574,0.018306,0.045432
25243,2.8506,2.7273,0.1,0.00050441,5040.6,0.00051391,5463.6,-8.0935e-05,994.2,-0.00021325,0.019309,0.048345
25244,2.7586,3,0.1,0.0005058,5054.5,0.0005154,5494.6,-7.7101e-05,1042.7,-0.00021588,0.018729,0.045458
25245,2.8506,2.9091,0.1,0.00050391,5035.6,0.00051342,5461.9,-7.992e-05,1003.8,-0.00021351,0.020219,0.048398
25246,2.7586,3.1818,0.1,0.00050604,5056.9,0.00051564,5495.3,-7.7622e-05,1037.8,-0.00021574,0.018307,0.045432
25247,2.8506,3.0909,0.1,0.00050391,5035.6,0.00051342,5461.9,-7.992e-05,1003.8,-0.00021351,0.020219,0.048398
25248,2.7586,3.3636,0.1,0.00050678,5064.3,0.00051637,5497.7,-7.9184e-05,1023,-0.00021533,0.016981,0.045355
25249,2.8506,3.2727,0.1,0.00050441,5040.6,0.00051391,5463.6,-8.0935e-05,994.2,-0.00021325,0.019309,0.048345
25250,2.7586,3.5455,0.1,0.00050803,5076.8,0.00051759,5501.8,-8.1783e-05,998.32,-0.00021465,0.014576,0.045226
25251,2.8506,3.4545,0.1,0.00050541,5050.6,0.00051488,5467,-8.2962e-05,975.08,-0.00021273,0.01738,0.048239
25252,2.7586,3.7273,0.1,0.0005098,5094.5,0.00051931,5507.6,-8.541e-05,964,-0.00021371,0.010791,0.045044
25253,2.8506,3.6364,0.1,0.00050692,5065.7,0.00051634,5472.2,-8.5991e-05,946.53,-0.00021196,0.014214,0.048078
25254,2.7586,3.9091,0.1,0.00051212,5117.7,0.00052153,5515.3,-9.0049e-05,920.19,-0.00021252,0.0052016,0.044805
25255,2.8506,3.8182,0.1,0.00050898,5086.2,0.00051831,5479.4,-9.0009e-05,908.72,-0.00021095,0.0094783,0.04786
25256,2.7586,4.0909,0.1,0.00051502,5146.6,0.00052426,5525.1,-9.5675e-05,867.19,-0.00021109,-0.0027493,0.044508
25257,2.8506,4,0.1,0.00051158,5112.3,0.00052076,5488.5,-9.4993e-05,861.93,-0.00020971,0.0027262,0.047584
25258,2.7586,4.2727,0.1,0.00051851,5181.5,0.00052749,5537.1,-0.00010225,805.45,-0.00020945,-0.013752,0.044149
25259,2.8506,4.1818,0.1,0.00051476,5144.1,0.00052372,5499.7,-0.00010091,806.52,-0.00020825,-0.0066149,0.047245
25260,2.7586,4.4545,0.1,0.00052261,5222.5,0.00053122,5551.3,-0.00010971,735.55,-0.00020761,-0.028699,0.043724
25261,2.8506,4.3636,0.1,0.00051853,5181.7,0.00052715,5513.1,-0.0001077,743.03,-0.0002066,-0.019237,0.046841
25262,2.7586,4.6364,0.1,0.00052733,5269.7,0.00053543,5567.8,-0.00011799,658.26,-0.00020561,-0.04859,0.043228
25263,2.8506,4.5455,0.1,0.00052288,5225.2,0.00053106,5528.7,-0.00011531,672.12,-0.00020477,-0.036099,0.046367
25264,2.7586,4.8182,0.1,0.00053264,5322.8,0.00054008,5586.7,-0.00012699,574.56,-0.00020347,-0.075373,0.042656
25265,2.8506,4.7273,0.1,0.00052781,5274.5,0.0005354,5546.6,-0.00012366,594.64,-0.00020281,-0.058121,0.045819
25266,2.7586,5,0.1,0.00053852,5381.5,0.00054513,5607.8,-0.00013659,485.56,-0.00020123,-0.10987,0.042003
25267,2.8506,4.9091,0.1,0.00053329,5329.2,0.00054015,5566.5,-0.00013263,511.57,-0.00020072,-0.088159,0.045191
25268,2.7586,5.1818,0.1,0.00054491,5445.3,0.00055052,5630.9,-0.00014666,392.54,-0.00019893,-0.16385,0.041262
25269,2.8506,5.0909,0.1,0.00053927,5389,0.00054523,5588.5,-0.00014211,424.07,-0.00019856,-0.12515,0.044478
25270,2.7586,5.3636,0.1,0.00055174,5513.6,0.00055618,5655.9,-0.00015706,296.85,-0.0001966,-0.2205,0.040428
25271,2.8506,5.2727,0.1,0.0005457,5453.3,0.00055061,5612.2,-0.00015197,333.35,-0.00019636,-0.19356,0.043673
25272,2.7586,5.5455,0.1,0.00055895,5585.6,0.00056207,5682.5,-0.00016766,199.62,-0.00019429,-0.47285,0.039492
25273,2.8506,5.4545,0.1,0.0005525,5521.2,0.0005562,5637.5,-0.00016207,240.7,-0.00019414,-0.23952,0.04277
25274,2.7586,5.7273,0.1,0.00056676,5663.7,0.00056838,5712.7,-0.00017859,100.24,-0.00019205,-0.88895,0.038449
25275,2.8506,5.6364,0.1,0.00055964,5592.5,0.00056198,5664.2,-0.00017232,146.94,-0.00019197,-0.70507,0.041763
25276,2.8506,5.8182,0.1,0.00056754,5671.5,0.00056836,5695.9,-0.00018297,50.685,-0.00018992,-1.5611,0.040645
25277,2.7586,5.9091,0.1,0.00057199,5716,0.00057238,5727.4,-0.00018676,23.512,-0.00018997,-0.5773,0.037291
25278,2.9425,0.27273,0.1,0.00056041,5600.3,0.00056198,5647.6,-0.0001768,96.623,-0.00018977,-0.77314,0.044084
25279,3.0345,0.18182,0.1,0.00056084,5604.5,0.00056166,5629.1,-0.00018077,50.777,-0.00018769,-1.277,0.046453
25280,2.9425,0.090909,0.1,0.00056549,5651,0.00056589,5662.9,-0.00018454,24.512,-0.00018787,-0.51432,0.04289
25281,2.9425,0.45455,0.1,0.00055319,5528.1,0.00055614,5619.4,-0.00016676,187.83,-0.00019181,-0.42682,0.045163
25282,3.0345,0.36364,0.1,0.00055357,5531.9,0.0005558,5599.9,-0.00017097,139.21,-0.00018958,-0.63654,0.047604
25283,2.9425,0.63636,0.1,0.00054646,5460.8,0.00055064,5594,-0.000157,277.04,-0.0001939,-0.19868,0.046134
25284,3.0345,0.54545,0.1,0.00054693,5465.5,0.00055041,5574.6,-0.00016153,225.37,-0.00019155,-0.21476,0.048645
25285,2.9425,0.81818,0.1,0.00054006,5396.9,0.00054533,5569.9,-0.00014743,364.73,-0.00019599,-0.14861,0.047004
25286,3.0345,0.72727,0.1,0.00054057,5402,0.00054518,5550.4,-0.00015223,310.36,-0.00019356,-0.17532,0.049581
25287,2.9425,1,0.1,0.00053403,5336.6,0.00054026,5547.3,-0.00013816,449.96,-0.00019806,-0.09996,0.047779
25288,3.0345,0.90909,0.1,0.00053453,5341.7,0.00054014,5527.5,-0.00014315,393.51,-0.00019554,-0.11362,0.050419
25289,2.9425,1.1818,0.1,0.00052845,5280.8,0.00053548,5526.5,-0.0001293,531.56,-0.00020006,-0.068701,0.048465
25290,3.0345,1.0909,0.1,0.00052888,5285.2,0.00053534,5506,-0.00013442,473.73,-0.00019748,-0.080291,0.051164
25291,2.9425,1.3636,0.1,0.00052335,5229.9,0.00053104,5507.5,-0.00012098,608.45,-0.00020197,-0.044099,0.049067
25292,3.0345,1.2727,0.1,0.00052367,5233,0.00053085,5486.3,-0.00012614,549.95,-0.00019934,-0.052899,0.051823
25293,2.9425,1.5455,0.1,0.00051879,5184.3,0.00052699,5490.5,-0.00011331,679.6,-0.00020376,-0.025503,0.049591
25294,3.0345,1.4545,0.1,0.00051894,5185.8,0.0005267,5468.4,-0.00011842,621.17,-0.0002011,-0.032539,0.052399
25295,2.9425,1.7273,0.1,0.00051477,5144.2,0.00052338,5475.7,-0.00010636,744.14,-0.0002054,-0.011217,0.050042
25296,3.0345,1.6364,0.1,0.00051472,5143.7,0.00052295,5452.4,-0.00011136,686.5,-0.00020273,-0.016663,0.052899
25297,2.9425,1.9091,0.1,0.00051132,5109.7,0.00052022,5463,-0.00010022,801.33,-0.00020687,-0.00042394,0.050424
25298,3.0345,1.8182,0.1,0.00051105,5106.9,0.00051963,5438.6,-0.00010503,745.15,-0.0002042,-0.004516,0.053327
25299,2.9425,2.0909,0.1,0.00050843,5080.8,0.00051753,5452.4,-9.4938e-05,850.57,-0.00020814,0.007603,0.050741
25300,3.0345,2,0.1,0.00050791,5075.6,0.00051675,5426.8,-9.9505e-05,796.47,-0.00020551,0.0046987,0.053686
25301,2.9425,2.2727,0.1,0.00050609,5057.4,0.00051533,5443.9,-9.0572e-05,891.39,-0.00020921,0.013421,0.050996
25302,3.0345,2.1818,0.1,0.00050532,5049.7,0.00051434,5417,-9.4834e-05,839.93,-0.00020662,0.011539,0.053979
25303,2.9425,2.4545,0.1,0.00050429,5039.5,0.00051361,5437.3,-8.7148e-05,923.45,-0.00021005,0.017482,0.051192
25304,3.0345,2.3636,0.1,0.00050326,5029.2,0.0005124,5409.3,-9.1057e-05,875.13,-0.00020753,0.016467,0.054211
25305,2.9425,2.6364,0.1,0.00050302,5026.7,0.00051239,5432.7,-8.4688e-05,946.51,-0.00021066,0.020135,0.05133
25306,3.0345,2.5455,0.1,0.00050173,5013.9,0.00051095,5403.6,-8.8203e-05,901.77,-0.00020822,0.019846,0.054383
25307,2.9425,2.8182,0.1,0.00050226,5019.2,0.00051166,5430,-8.3208e-05,960.4,-0.00021103,0.021628,0.051412
25308,3.0345,2.7273,0.1,0.00050072,5003.7,0.00050998,5399.8,-8.629e-05,919.63,-0.00020868,0.021948,0.054496
25309,2.9425,3,0.1,0.00050201,5016.6,0.00051141,5429.1,-8.2713e-05,965.04,-0.00021115,0.022109,0.051439
25310,3.0345,2.9091,0.1,0.00050021,4998.7,0.0005095,5397.9,-8.5331e-05,928.6,-0.00020892,0.022954,0.054553
25311,2.9425,3.1818,0.1,0.00050226,5019.2,0.00051166,5430,-8.3208e-05,960.4,-0.00021103,0.021628,0.051412
25312,3.0345,3.0909,0.1,0.00050021,4998.7,0.0005095,5397.9,-8.5331e-05,928.6,-0.00020892,0.022954,0.054553
25313,2.9425,3.3636,0.1,0.00050302,5026.7,0.00051239,5432.7,-8.4688e-05,946.51,-0.00021066,0.020135,0.05133
25314,3.0345,3.2727,0.1,0.00050072,5003.7,0.00050998,5399.8,-8.629e-05,919.63,-0.00020868,0.021948,0.054496
25315,2.9425,3.5455,0.1,0.00050429,5039.5,0.00051361,5437.3,-8.7148e-05,923.45,-0.00021005,0.017482,0.051192
25316,3.0345,3.4545,0.1,0.00050173,5013.9,0.00051095,5403.6,-8.8203e-05,901.77,-0.00020822,0.019846,0.054383
25317,2.9425,3.7273,0.1,0.00050609,5057.4,0.00051533,5443.9,-9.0572e-05,891.39,-0.00020921,0.013421,0.050996
25318,3.0345,3.6364,0.1,0.00050326,5029.2,0.0005124,5409.3,-9.1057e-05,875.13,-0.00020753,0.016467,0.054211
25319,2.9425,3.9091,0.1,0.00050843,5080.8,0.00051753,5452.4,-9.4938e-05,850.57,-0.00020814,0.0076031,0.050741
25320,3.0345,3.8182,0.1,0.00050532,5049.7,0.00051434,5417,-9.4834e-05,839.93,-0.00020662,0.011539,0.053979
25321,2.9425,4.0909,0.1,0.00051132,5109.7,0.00052022,5463,-0.00010022,801.33,-0.00020687,-0.00042365,0.050424
25322,3.0345,4,0.1,0.00050791,5075.6,0.00051675,5426.8,-9.9505e-05,796.47,-0.00020551,0.0046989,0.053686
25323,2.9425,4.2727,0.1,0.00051477,5144.2,0.00052338,5475.7,-0.00010636,744.14,-0.0002054,-0.011216,0.050042
25324,3.0345,4.1818,0.1,0.00051105,5106.9,0.00051963,5438.6,-0.00010503,745.15,-0.0002042,-0.0045156,0.053327
25325,2.9425,4.4545,0.1,0.00051879,5184.3,0.00052699,5490.5,-0.00011331,679.6,-0.00020376,-0.025502,0.049591
25326,3.0345,4.3636,0.1,0.00051472,5143.7,0.00052295,5452.4,-0.00011136,686.5,-0.00020273,-0.016663,0.052899
25327,2.9425,4.6364,0.1,0.00052335,5229.9,0.00053104,5507.5,-0.00012098,608.45,-0.00020197,-0.044099,0.049067
25328,3.0345,4.5455,0.1,0.00051894,5185.8,0.0005267,5468.4,-0.00011842,621.17,-0.0002011,-0.032539,0.052399
25329,2.9425,4.8182,0.1,0.00052845,5280.8,0.00053548,5526.5,-0.0001293,531.56,-0.00020006,-0.068701,0.048465
25330,3.0345,4.7273,0.1,0.00052367,5233,0.00053085,5486.3,-0.00012614,549.95,-0.00019934,-0.052898,0.051823
25331,2.9425,5,0.1,0.00053403,5336.6,0.00054026,5547.3,-0.00013816,449.96,-0.00019806,-0.09996,0.047779
25332,3.0345,4.9091,0.1,0.00052888,5285.2,0.00053534,5506,-0.00013442,473.73,-0.00019748,-0.08029,0.051164
25333,2.9425,5.1818,0.1,0.00054006,5396.9,0.00054533,5569.9,-0.00014743,364.73,-0.00019599,-0.14861,0.047004
25334,3.0345,5.0909,0.1,0.00053453,5341.7,0.00054014,5527.5,-0.00014315,393.51,-0.00019554,-0.11362,0.050419
25335,2.9425,5.3636,0.1,0.00054646,5460.8,0.00055064,5594,-0.000157,277.04,-0.0001939,-0.19868,0.046134
25336,3.0345,5.2727,0.1,0.00054057,5402,0.00054518,5550.4,-0.00015223,310.36,-0.00019356,-0.17532,0.049581
25337,2.9425,5.5455,0.1,0.00055319,5528.1,0.00055614,5619.4,-0.00016676,187.83,-0.00019181,-0.42682,0.045163
25338,3.0345,5.4545,0.1,0.00054693,5465.5,0.00055041,5574.6,-0.00016153,225.37,-0.00019155,-0.21476,0.048645
25339,2.9425,5.7273,0.1,0.00056041,5600.3,0.00056198,5647.6,-0.0001768,96.623,-0.00018977,-0.77314,0.044084
25340,3.0345,5.6364,0.1,0.00055357,5531.9,0.0005558,5599.9,-0.00017097,139.21,-0.00018958,-0.63654,0.047604
25341,3.0345,5.8182,0.1,0.00056084,5604.5,0.00056166,5629.1,-0.00018077,50.777,-0.00018769,-1.277,0.046453
25342,2.9425,5.9091,0.1,0.00056549,5651,0.00056589,5662.9,-0.00018454,24.512,-0.00018787,-0.51432,0.04289
25343,3.1264,0.27273,0.1,0.00055399,5536.1,0.0005555,5581.5,-0.00017501,92.757,-0.00018745,-0.6758,0.050096
25344,3.2184,0.18182,0.1,0.00055411,5537.3,0.00055493,5561.7,-0.00017859,50.314,-0.00018543,-1.0571,0.052638
25345,3.1264,0.090909,0.1,0.00055888,5585,0.00055929,5597.2,-0.00018231,25.033,-0.00018571,-0.46292,0.048871
25346,3.1264,0.45455,0.1,0.0005473,5469.3,0.00055009,5555.2,-0.00016577,176.58,-0.00018932,-0.38593,0.051207
25347,3.2184,0.36364,0.1,0.00054742,5470.4,0.00054953,5534.7,-0.00016958,131.63,-0.00018718,-0.57583,0.053819
25348,3.1264,0.63636,0.1,0.00054103,5406.6,0.00054496,5531.1,-0.00015678,258.55,-0.00019121,-0.17921,0.05221
25349,3.2184,0.54545,0.1,0.00054124,5408.6,0.00054451,5510.9,-0.00016087,210.9,-0.00018897,-0.19285,0.05489
25350,3.1264,0.81818,0.1,0.00053504,5346.7,0.00054,5508.1,-0.00014796,339.01,-0.0001931,-0.13482,0.053112
25351,3.2184,0.72727,0.1,0.0005353,5349.3,0.00053963,5487.9,-0.0001523,288.97,-0.00019078,-0.1589,0.055857
25352,3.1264,1,0.1,0.00052937,5290.1,0.00053523,5486.3,-0.00013942,417.17,-0.00019496,-0.090879,0.053918
25353,3.2184,0.90909,0.1,0.00052965,5292.8,0.00053491,5465.9,-0.00014394,365.26,-0.00019257,-0.10313,0.056724
25354,3.1264,1.1818,0.1,0.00052409,5237.3,0.00053072,5465.9,-0.00013126,492.02,-0.00019675,-0.062538,0.054633
25355,3.2184,1.0909,0.1,0.00052432,5239.6,0.00053041,5445.2,-0.0001359,438.84,-0.00019431,-0.073052,0.057498
25356,3.1264,1.3636,0.1,0.00051924,5188.8,0.00052652,5447.2,-0.00012358,562.62,-0.00019847,-0.039985,0.055264
25357,3.2184,1.2727,0.1,0.00051939,5190.3,0.00052617,5425.9,-0.00012826,508.79,-0.00019599,-0.048084,0.058184
25358,3.1264,1.5455,0.1,0.00051487,5145.1,0.00052266,5430.3,-0.00011647,628.05,-0.00020007,-0.022695,0.055814
25359,3.2184,1.4545,0.1,0.00051489,5145.3,0.00052224,5408.3,-0.00012114,574.22,-0.00019756,-0.029323,0.058786
25360,3.1264,1.7273,0.1,0.00051099,5106.4,0.0005192,5415.3,-0.00011003,687.53,-0.00020153,-0.009178,0.056289
25361,3.2184,1.6364,0.1,0.00051085,5105,0.00051867,5392.5,-0.0001146,634.32,-0.00019902,-0.014479,0.05931
25362,3.1264,1.9091,0.1,0.00050763,5072.8,0.00051615,5402.3,-0.00010431,740.34,-0.00020285,0.0012456,0.056692
25363,3.2184,1.8182,0.1,0.0005073,5069.5,0.00051549,5378.5,-0.00010873,688.38,-0.00020035,-0.0029204,0.059758
25364,3.1264,2.0909,0.1,0.00050479,5044.4,0.00051355,5391.3,-9.939e-05,785.92,-0.00020399,0.0091733,0.057027
25365,3.2184,2,0.1,0.00050425,5039,0.00051272,5366.5,-0.00010359,735.78,-0.00020151,0.0060193,0.060136
25366,3.1264,2.2727,0.1,0.00050248,5021.4,0.0005114,5382.3,-9.5305e-05,823.79,-0.00020494,0.015054,0.057296
25367,3.2184,2.1818,0.1,0.00050172,5013.7,0.00051039,5356.5,-9.9233e-05,776,-0.00020251,0.012793,0.060446
25368,3.1264,2.4545,0.1,0.0005007,5003.5,0.00050972,5375.4,-9.2094e-05,853.58,-0.0002057,0.019252,0.057504
25369,3.2184,2.3636,0.1,0.00049969,4993.5,0.00050851,5348.5,-9.5703e-05,808.63,-0.00020332,0.017774,0.060691
25370,3.1264,2.6364,0.1,0.00049943,4990.8,0.00050852,5370.5,-8.9784e-05,875.05,-0.00020624,0.022048,0.05765
25371,3.2184,2.5455,0.1,0.00049818,4978.4,0.0005071,5342.5,-9.3031e-05,833.36,-0.00020394,0.021253,0.060872
25372,3.1264,2.8182,0.1,0.00049867,4983.2,0.0005078,5367.5,-8.8391e-05,887.99,-0.00020657,0.023646,0.057738
25373,3.2184,2.7273,0.1,0.00049718,4968.3,0.00050615,5338.5,-9.1237e-05,849.97,-0.00020436,0.023451,0.060992
25374,3.1264,3,0.1,0.00049841,4980.7,0.00050756,5366.5,-8.7925e-05,892.32,-0.00020668,0.024165,0.057767
25375,3.2184,2.9091,0.1,0.00049667,4963.3,0.00050567,5336.5,-9.0337e-05,858.31,-0.00020457,0.024513,0.061052
25376,3.1264,3.1818,0.1,0.00049867,4983.2,0.0005078,5367.5,-8.8391e-05,887.99,-0.00020657,0.023646,0.057738
25377,3.2184,3.0909,0.1,0.00049667,4963.3,0.00050567,5336.5,-9.0337e-05,858.31,-0.00020457,0.024513,0.061052
25378,3.1264,3.3636,0.1,0.00049943,4990.8,0.00050852,5370.5,-8.9784e-05,875.05,-0.00020624,0.022049,0.05765
25379,3.2184,3.2727,0.1,0.00049718,4968.3,0.00050615,5338.5,-9.1237e-05,849.97,-0.00020436,0.023451,0.060992
25380,3.1264,3.5455,0.1,0.0005007,5003.5,0.00050972,5375.4,-9.2094e-05,853.58,-0.0002057,0.019252,0.057504
25381,3.2184,3.4545,0.1,0.00049818,4978.4,0.0005071,5342.5,-9.3031e-05,833.36,-0.00020394,0.021253,0.060872
25382,3.1264,3.7273,0.1,0.00050248,5021.4,0.0005114,5382.3,-9.5305e-05,823.79,-0.00020494,0.015054,0.057296
25383,3.2184,3.6364,0.1,0.00049969,4993.5,0.00050851,5348.5,-9.5703e-05,808.63,-0.00020332,0.017775,0.060691
25384,3.1264,3.9091,0.1,0.00050479,5044.4,0.00051355,5391.3,-9.939e-05,785.92,-0.00020399,0.0091736,0.057027
25385,3.2184,3.8182,0.1,0.00050172,5013.7,0.00051039,5356.5,-9.9233e-05,776,-0.00020251,0.012794,0.060446
25386,3.1264,4.0909,0.1,0.00050763,5072.8,0.00051615,5402.3,-0.00010431,740.34,-0.00020285,0.0012458,0.056692
25387,3.2184,4,0.1,0.00050425,5039,0.00051272,5366.5,-0.00010359,735.78,-0.00020151,0.0060197,0.060136
25388,3.1264,4.2727,0.1,0.00051099,5106.4,0.0005192,5415.3,-0.00011003,687.53,-0.00020153,-0.0091776,0.056289
25389,3.2184,4.1818,0.1,0.0005073,5069.5,0.00051549,5378.5,-0.00010873,688.38,-0.00020035,-0.0029201,0.059758
25390,3.1264,4.4545,0.1,0.00051487,5145.1,0.00052266,5430.3,-0.00011647,628.05,-0.00020007,-0.022695,0.055814
25391,3.2184,4.3636,0.1,0.00051085,5105,0.00051867,5392.5,-0.0001146,634.32,-0.00019902,-0.014478,0.05931
25392,3.1264,4.6364,0.1,0.00051924,5188.8,0.00052652,5447.2,-0.00012358,562.62,-0.00019847,-0.039984,0.055264
25393,3.2184,4.5455,0.1,0.00051489,5145.3,0.00052224,5408.3,-0.00012114,574.22,-0.00019756,-0.029322,0.058786
25394,3.1264,4.8182,0.1,0.00052409,5237.3,0.00053072,5465.9,-0.00013126,492.02,-0.00019675,-0.062538,0.054633
25395,3.2184,4.7273,0.1,0.00051939,5190.3,0.00052617,5425.9,-0.00012826,508.79,-0.00019599,-0.048083,0.058184
25396,3.1264,5,0.1,0.00052937,5290.1,0.00053523,5486.3,-0.00013942,417.17,-0.00019496,-0.090878,0.053918
25397,3.2184,4.9091,0.1,0.00052432,5239.6,0.00053041,5445.2,-0.0001359,438.84,-0.00019431,-0.073051,0.057498
25398,3.1264,5.1818,0.1,0.00053504,5346.7,0.00054,5508.1,-0.00014796,339.01,-0.0001931,-0.13482,0.053112
25399,3.2184,5.0909,0.1,0.00052965,5292.8,0.00053491,5465.9,-0.00014394,365.26,-0.00019257,-0.10313,0.056724
25400,3.1264,5.3636,0.1,0.00054103,5406.6,0.00054496,5531.1,-0.00015678,258.54,-0.00019121,-0.17921,0.05221
25401,3.2184,5.2727,0.1,0.0005353,5349.3,0.00053963,5487.9,-0.0001523,288.97,-0.00019078,-0.1589,0.055857
25402,3.1264,5.5455,0.1,0.0005473,5469.3,0.00055009,5555.2,-0.00016577,176.58,-0.00018932,-0.38593,0.051207
25403,3.2184,5.4545,0.1,0.00054124,5408.6,0.00054451,5510.9,-0.00016087,210.9,-0.00018897,-0.19285,0.05489
25404,3.1264,5.7273,0.1,0.00055399,5536.1,0.0005555,5581.5,-0.00017501,92.757,-0.00018745,-0.6758,0.050096
25405,3.2184,5.6364,0.1,0.00054742,5470.4,0.00054953,5534.7,-0.00016958,131.63,-0.00018718,-0.57583,0.053819
25406,3.2184,5.8182,0.1,0.00055411,5537.3,0.00055493,5561.7,-0.00017859,50.314,-0.00018543,-1.0571,0.052638
25407,3.1264,5.9091,0.1,0.00055888,5585,0.00055929,5597.2,-0.00018231,25.033,-0.00018571,-0.46292,0.048871
25408,3.3103,0.27273,0.1,0.00054753,5471.5,0.00054897,5515,-0.00017323,88.7,-0.00018511,-0.59335,0.056482
25409,3.4023,0.18182,0.1,0.00054738,5470.1,0.00054819,5494.1,-0.00017646,49.388,-0.00018315,-0.88395,0.059196
25410,3.3103,0.090909,0.1,0.00055222,5518.4,0.00055264,5530.8,-0.00018011,25.156,-0.00018351,-0.41974,0.05523
25411,3.3103,0.45455,0.1,0.00054134,5409.7,0.00054396,5490.5,-0.00016471,165.81,-0.00018682,-0.34947,0.057621
25412,3.4023,0.36364,0.1,0.00054121,5408.4,0.00054321,5469.2,-0.00016816,124.22,-0.00018476,-0.52181,0.060404
25413,3.3103,0.63636,0.1,0.0005355,5351.3,0.00053919,5467.7,-0.00015642,241.2,-0.00018854,-0.16181,0.058653
25414,3.4023,0.54545,0.1,0.00053547,5351,0.00053855,5446.8,-0.00016013,197.22,-0.0001864,-0.17342,0.061502
25415,3.3103,0.81818,0.1,0.0005299,5295.4,0.00053456,5445.8,-0.0001483,315.11,-0.00019025,-0.12233,0.059583
25416,3.4023,0.72727,0.1,0.00052994,5295.7,0.000534,5425,-0.00015223,268.99,-0.00018805,-0.1441,0.062495
25417,3.3103,1,0.1,0.00052459,5242.3,0.0005301,5424.9,-0.00014043,386.84,-0.00019193,-0.082579,0.060417
25418,3.4023,0.90909,0.1,0.00052465,5242.9,0.00052959,5404.1,-0.00014453,339.05,-0.00018966,-0.093604,0.063389
25419,3.3103,1.1818,0.1,0.00051962,5192.6,0.00052586,5405.3,-0.00013291,455.53,-0.00019355,-0.056868,0.061159
25420,3.4023,1.0909,0.1,0.00051965,5193,0.00052537,5384.3,-0.00013711,406.58,-0.00019124,-0.06642,0.064189
25421,3.3103,1.3636,0.1,0.00051503,5146.7,0.0005219,5387.1,-0.00012583,520.34,-0.00019508,-0.03622,0.061815
25422,3.4023,1.2727,0.1,0.00051501,5146.5,0.0005214,5365.7,-0.00013008,470.78,-0.00019274,-0.043664,0.064899
25423,3.3103,1.5455,0.1,0.00051086,5105.1,0.00051825,5370.5,-0.00011926,580.47,-0.00019652,-0.020214,0.062389
25424,3.4023,1.4545,0.1,0.00051074,5103.9,0.0005177,5348.6,-0.0001235,530.86,-0.00019416,-0.026418,0.065525
25425,3.3103,1.7273,0.1,0.00050715,5068,0.00051496,5355.7,-0.0001133,635.19,-0.00019784,-0.0075223,0.062885
25426,3.4023,1.6364,0.1,0.0005069,5065.5,0.00051432,5333.1,-0.00011746,586.1,-0.00019547,-0.012611,0.06607
25427,3.3103,1.9091,0.1,0.00050392,5035.7,0.00051205,5342.7,-0.000108,683.86,-0.00019901,0.0024242,0.063307
25428,3.4023,1.8182,0.1,0.00050351,5031.6,0.0005113,5319.3,-0.00011203,635.85,-0.00019666,-0.0017109,0.066538
25429,3.3103,2.0909,0.1,0.00050117,5008.2,0.00050956,5331.6,-0.00010342,725.92,-0.00020004,0.010123,0.063659
25430,3.4023,2,0.1,0.00050058,5002.3,0.00050866,5307.4,-0.00010727,679.52,-0.0001977,0.0068504,0.066933
25431,3.3103,2.2727,0.1,0.00049892,4985.8,0.00050749,5322.5,-9.9619e-05,760.93,-0.00020089,0.015936,0.063942
25432,3.4023,2.1818,0.1,0.00049813,4977.9,0.00050643,5297.3,-0.00010322,716.63,-0.0001986,0.013443,0.067257
25433,3.3103,2.4545,0.1,0.00049717,4968.3,0.00050587,5315.4,-9.6625e-05,788.52,-0.00020157,0.020157,0.06416
25434,3.4023,2.3636,0.1,0.00049617,4958.2,0.00050463,5289.3,-9.9937e-05,746.78,-0.00019933,0.018366,0.067514
25435,3.3103,2.6364,0.1,0.00049593,4955.8,0.00050471,5310.4,-9.4467e-05,808.41,-0.00020206,0.02301,0.064315
25436,3.4023,2.5455,0.1,0.00049469,4943.5,0.00050327,5283.2,-9.7448e-05,769.66,-0.00019988,0.021854,0.067704
25437,3.3103,2.8182,0.1,0.00049518,4948.4,0.00050401,5307.3,-9.3165e-05,820.42,-0.00020235,0.024657,0.064407
25438,3.4023,2.7273,0.1,0.00049371,4933.7,0.00050236,5279.2,-9.5776e-05,785.04,-0.00020025,0.024082,0.067831
25439,3.3103,3,0.1,0.00049493,4945.9,0.00050377,5306.3,-9.2729e-05,824.44,-0.00020245,0.025195,0.064438
25440,3.4023,2.9091,0.1,0.00049322,4928.8,0.0005019,5277.1,-9.4936e-05,792.76,-0.00020044,0.025167,0.067893
25441,3.3103,3.1818,0.1,0.00049518,4948.4,0.00050401,5307.3,-9.3165e-05,820.42,-0.00020235,0.024657,0.064407
25442,3.4023,3.0909,0.1,0.00049322,4928.8,0.0005019,5277.1,-9.4936e-05,792.76,-0.00020044,0.025167,0.067893
25443,3.3103,3.3636,0.1,0.00049593,4955.8,0.00050471,5310.4,-9.4467e-05,808.41,-0.00020206,0.02301,0.064315
25444,3.4023,3.2727,0.1,0.00049371,4933.7,0.00050236,5279.2,-9.5776e-05,785.04,-0.00020025,0.024082,0.067831
25445,3.3103,3.5455,0.1,0.00049717,4968.3,0.00050587,5315.4,-9.6625e-05,788.52,-0.00020157,0.020157,0.06416
25446,3.4023,3.4545,0.1,0.00049469,4943.5,0.00050327,5283.2,-9.7448e-05,769.66,-0.00019988,0.021854,0.067704
25447,3.3103,3.7273,0.1,0.00049892,4985.8,0.00050749,5322.5,-9.9619e-05,760.93,-0.00020089,0.015937,0.063942
25448,3.4023,3.6364,0.1,0.00049617,4958.2,0.00050463,5289.3,-9.9937e-05,746.78,-0.00019933,0.018367,0.067514
25449,3.3103,3.9091,0.1,0.00050117,5008.2,0.00050956,5331.6,-0.00010342,725.92,-0.00020004,0.010123,0.063659
25450,3.4023,3.8182,0.1,0.00049813,4977.9,0.00050643,5297.3,-0.00010322,716.63,-0.0001986,0.013443,0.067257
25451,3.3103,4.0909,0.1,0.00050392,5035.7,0.00051205,5342.7,-0.000108,683.86,-0.00019901,0.0024246,0.063307
25452,3.4023,4,0.1,0.00050058,5002.3,0.00050866,5307.4,-0.00010727,679.52,-0.0001977,0.0068507,0.066933
25453,3.3103,4.2727,0.1,0.00050715,5068,0.00051496,5355.7,-0.0001133,635.19,-0.00019784,-0.0075218,0.062885
25454,3.4023,4.1818,0.1,0.00050351,5031.6,0.0005113,5319.3,-0.00011203,635.85,-0.00019666,-0.0017105,0.066538
25455,3.3103,4.4545,0.1,0.00051086,5105.1,0.00051825,5370.5,-0.00011926,580.47,-0.00019652,-0.020213,0.062389
25456,3.4023,4.3636,0.1,0.0005069,5065.5,0.00051432,5333.1,-0.00011746,586.1,-0.00019547,-0.012611,0.06607
25457,3.3103,4.6364,0.1,0.00051503,5146.7,0.0005219,5387.1,-0.00012583,520.34,-0.00019508,-0.03622,0.061815
25458,3.4023,4.5455,0.1,0.00051074,5103.9,0.0005177,5348.6,-0.0001235,530.86,-0.00019416,-0.026417,0.065525
25459,3.3103,4.8182,0.1,0.00051962,5192.6,0.00052586,5405.3,-0.00013291,455.53,-0.00019355,-0.056867,0.061159
25460,3.4023,4.7273,0.1,0.00051501,5146.5,0.0005214,5365.7,-0.00013008,470.78,-0.00019274,-0.043663,0.064899
25461,3.3103,5,0.1,0.00052459,5242.3,0.0005301,5424.9,-0.00014043,386.84,-0.00019193,-0.082578,0.060417
25462,3.4023,4.9091,0.1,0.00051965,5193,0.00052537,5384.3,-0.00013711,406.58,-0.00019124,-0.066419,0.064189
25463,3.3103,5.1818,0.1,0.0005299,5295.4,0.00053456,5445.8,-0.0001483,315.11,-0.00019025,-0.12233,0.059583
25464,3.4023,5.0909,0.1,0.00052465,5242.9,0.00052959,5404.1,-0.00014453,339.05,-0.00018966,-0.093602,0.063389
25465,3.3103,5.3636,0.1,0.0005355,5351.3,0.00053919,5467.7,-0.00015642,241.2,-0.00018854,-0.16181,0.058653
25466,3.4023,5.2727,0.1,0.00052994,5295.7,0.000534,5425,-0.00015223,268.99,-0.00018805,-0.1441,0.062495
25467,3.3103,5.5455,0.1,0.00054134,5409.7,0.00054396,5490.5,-0.00016471,165.81,-0.00018682,-0.34947,0.057621
25468,3.4023,5.4545,0.1,0.00053547,5351,0.00053855,5446.8,-0.00016013,197.22,-0.0001864,-0.17342,0.061502
25469,3.3103,5.7273,0.1,0.00054753,5471.5,0.00054897,5515,-0.00017323,88.7,-0.00018511,-0.59335,0.056482
25470,3.4023,5.6364,0.1,0.00054121,5408.4,0.00054321,5469.2,-0.00016816,124.22,-0.00018476,-0.52181,0.060404
25471,3.4023,5.8182,0.1,0.00054738,5470.1,0.00054819,5494.1,-0.00017646,49.388,-0.00018315,-0.88395,0.059196
25472,3.3103,5.9091,0.1,0.00055222,5518.4,0.00055264,5530.8,-0.00018011,25.156,-0.00018351,-0.41974,0.05523
25473,3.4943,0.27273,0.1,0.00054106,5406.9,0.00054244,5448.4,-0.00017145,84.507,-0.00018276,-0.52305,0.063238
25474,3.5862,0.18182,0.1,0.00054069,5403.1,0.00054147,5426.6,-0.00017437,48.08,-0.00018086,-0.74576,0.066124
25475,3.4943,0.090909,0.1,0.00054555,5451.8,0.00054597,5464,-0.00017793,24.95,-0.0001813,-0.38269,0.061962
25476,3.4943,0.45455,0.1,0.00053534,5349.7,0.00053781,5425.6,-0.0001636,155.5,-0.00018433,-0.31685,0.064402
25477,3.5862,0.36364,0.1,0.000535,5346.3,0.00053688,5403.6,-0.00016672,116.98,-0.00018235,-0.47355,0.067355
25478,3.4943,0.63636,0.1,0.0005299,5295.3,0.00053336,5404.1,-0.00015595,224.9,-0.0001859,-0.14623,0.065459
25479,3.5862,0.54545,0.1,0.00052966,5292.9,0.00053255,5382.6,-0.0001593,184.25,-0.00018385,-0.15614,0.068476
25480,3.4943,0.81818,0.1,0.00052468,5243.2,0.00052904,5383.4,-0.00014847,292.84,-0.00018746,-0.11104,0.066415
25481,3.5862,0.72727,0.1,0.00052451,5241.4,0.00052831,5362,-0.00015202,250.29,-0.00018535,-0.13076,0.069493
25482,3.4943,1,0.1,0.00051971,5193.5,0.00052488,5363.5,-0.00014122,358.71,-0.00018897,-0.075017,0.067273
25483,3.5862,0.90909,0.1,0.00051957,5192.1,0.0005242,5342.2,-0.00014492,314.66,-0.00018682,-0.084964,0.070411
25484,3.4943,1.1818,0.1,0.00051504,5146.9,0.00052092,5344.7,-0.00013429,421.76,-0.00019043,-0.051675,0.068039
25485,3.5862,1.0909,0.1,0.0005149,5145.4,0.00052027,5323.4,-0.0001381,376.67,-0.00018824,-0.060367,0.071234
25486,3.4943,1.3636,0.1,0.00051072,5103.7,0.0005172,5327.2,-0.00012776,481.25,-0.00019182,-0.032791,0.068718
25487,3.5862,1.2727,0.1,0.00051053,5101.8,0.00051655,5305.6,-0.00013162,435.59,-0.00018959,-0.039628,0.071966
25488,3.4943,1.5455,0.1,0.00050678,5064.3,0.00051377,5311.2,-0.00012171,536.47,-0.00019311,-0.01802,0.069313
25489,3.5862,1.4545,0.1,0.00050652,5061.7,0.00051308,5289.2,-0.00012555,490.74,-0.00019087,-0.023803,0.072613
25490,3.4943,1.7273,0.1,0.00050325,5029.1,0.00051066,5296.7,-0.0001162,586.76,-0.00019429,-0.0061762,0.069829
25491,3.5862,1.6364,0.1,0.00050289,5025.4,0.0005099,5274.2,-0.00011998,541.48,-0.00019205,-0.011015,0.073177
25492,3.4943,1.9091,0.1,0.00050017,4998.2,0.00050791,5284,-0.00011129,631.54,-0.00019535,0.003226,0.070268
25493,3.5862,1.8182,0.1,0.00049966,4993.2,0.00050705,5260.8,-0.00011497,587.2,-0.00019312,-0.00080651,0.073663
25494,3.4943,2.0909,0.1,0.00049753,4971.9,0.00050553,5273,-0.00010706,670.28,-0.00019626,0.010604,0.070635
25495,3.5862,2,0.1,0.00049687,4965.3,0.00050456,5249.2,-0.00011056,627.38,-0.00019406,0.007309,0.074073
25496,3.4943,2.2727,0.1,0.00049537,4950.3,0.00050357,5264,-0.00010353,702.56,-0.00019703,0.016253,0.070931
25497,3.5862,2.1818,0.1,0.00049453,4941.9,0.00050245,5239.3,-0.00010682,661.55,-0.00019486,0.013637,0.074411
25498,3.4943,2.4545,0.1,0.00049368,4933.4,0.00050202,5257,-0.00010075,728.02,-0.00019764,0.020408,0.071159
25499,3.5862,2.3636,0.1,0.00049264,4923,0.00050073,5231.4,-0.00010377,689.34,-0.00019552,0.018421,0.074678
25500,3.4943,2.6364,0.1,0.00049247,4921.3,0.00050091,5251.9,-9.8743e-05,746.39,-0.00019808,0.023247,0.071321
25501,3.5862,2.5455,0.1,0.00049122,4908.8,0.00049944,5225.4,-0.00010146,710.44,-0.00019601,0.021847,0.074877
25502,3.4943,2.8182,0.1,0.00049175,4914.1,0.00050023,5248.9,-9.7531e-05,757.5,-0.00019834,0.024899,0.071417
25503,3.5862,2.7273,0.1,0.00049028,4899.4,0.00049857,5221.4,-9.9911e-05,724.63,-0.00019635,0.024054,0.075009
25504,3.4943,3,0.1,0.00049151,4911.7,0.00050001,5247.8,-9.7126e-05,761.21,-0.00019843,0.025442,0.07145
25505,3.5862,2.9091,0.1,0.0004898,4894.6,0.00049813,5219.3,-9.9131e-05,731.77,-0.00019652,0.025134,0.075074
25506,3.4943,3.1818,0.1,0.00049175,4914.1,0.00050023,5248.9,-9.7531e-05,757.5,-0.00019834,0.024899,0.071417
25507,3.5862,3.0909,0.1,0.0004898,4894.6,0.00049813,5219.3,-9.9131e-05,731.77,-0.00019652,0.025134,0.075074
25508,3.4943,3.3636,0.1,0.00049247,4921.3,0.00050091,5251.9,-9.8743e-05,746.39,-0.00019808,0.023247,0.071321
25509,3.5862,3.2727,0.1,0.00049028,4899.4,0.00049857,5221.4,-9.9911e-05,724.63,-0.00019635,0.024054,0.075009
25510,3.4943,3.5455,0.1,0.00049368,4933.4,0.00050202,5257,-0.00010075,728.02,-0.00019764,0.020408,0.071159
25511,3.5862,3.4545,0.1,0.00049122,4908.8,0.00049944,5225.4,-0.00010146,710.44,-0.00019601,0.021847,0.074877
25512,3.4943,3.7273,0.1,0.00049537,4950.3,0.00050357,5264,-0.00010353,702.56,-0.00019703,0.016254,0.070931
25513,3.5862,3.6364,0.1,0.00049264,4923,0.00050073,5231.4,-0.00010377,689.34,-0.00019552,0.018422,0.074678
25514,3.4943,3.9091,0.1,0.00049753,4971.9,0.00050553,5273,-0.00010706,670.28,-0.00019626,0.010604,0.070635
25515,3.5862,3.8182,0.1,0.00049453,4941.9,0.00050245,5239.3,-0.00010682,661.55,-0.00019486,0.013637,0.074411
25516,3.4943,4.0909,0.1,0.00050017,4998.2,0.00050791,5284,-0.00011129,631.54,-0.00019535,0.0032263,0.070268
25517,3.5862,4,0.1,0.00049687,4965.3,0.00050456,5249.2,-0.00011056,627.38,-0.00019406,0.0073093,0.074073
25518,3.4943,4.2727,0.1,0.00050325,5029.1,0.00051066,5296.7,-0.0001162,586.76,-0.00019429,-0.0061757,0.069829
25519,3.5862,4.1818,0.1,0.00049966,4993.2,0.00050705,5260.8,-0.00011497,587.2,-0.00019312,-0.00080611,0.073663
25520,3.4943,4.4545,0.1,0.00050678,5064.3,0.00051377,5311.2,-0.00012171,536.47,-0.00019311,-0.018019,0.069313
25521,3.5862,4.3636,0.1,0.00050289,5025.4,0.0005099,5274.2,-0.00011998,541.48,-0.00019205,-0.011014,0.073177
25522,3.4943,4.6364,0.1,0.00051072,5103.7,0.0005172,5327.2,-0.00012776,481.25,-0.00019182,-0.03279,0.068718
25523,3.5862,4.5455,0.1,0.00050652,5061.7,0.00051308,5289.2,-0.00012555,490.74,-0.00019087,-0.023802,0.072613
25524,3.4943,4.8182,0.1,0.00051504,5146.9,0.00052092,5344.7,-0.00013429,421.76,-0.00019043,-0.051675,0.068039
25525,3.5862,4.7273,0.1,0.00051053,5101.8,0.00051655,5305.6,-0.00013162,435.59,-0.00018959,-0.039627,0.071966
25526,3.4943,5,0.1,0.00051971,5193.5,0.00052488,5363.5,-0.00014122,358.71,-0.00018897,-0.075016,0.067273
25527,3.5862,4.9091,0.1,0.0005149,5145.4,0.00052027,5323.4,-0.0001381,376.67,-0.00018824,-0.060366,0.071234
25528,3.4943,5.1818,0.1,0.00052468,5243.2,0.00052904,5383.4,-0.00014847,292.84,-0.00018746,-0.11103,0.066415
25529,3.5862,5.0909,0.1,0.00051957,5192.1,0.0005242,5342.2,-0.00014492,314.66,-0.00018682,-0.084962,0.070411
25530,3.4943,5.3636,0.1,0.0005299,5295.3,0.00053336,5404.1,-0.00015595,224.9,-0.0001859,-0.14623,0.065459
25531,3.5862,5.2727,0.1,0.00052451,5241.4,0.00052831,5362,-0.00015202,250.29,-0.00018535,-0.13076,0.069493
25532,3.4943,5.5455,0.1,0.00053534,5349.7,0.00053781,5425.6,-0.0001636,155.5,-0.00018433,-0.31685,0.064402
25533,3.5862,5.4545,0.1,0.00052966,5292.9,0.00053255,5382.6,-0.0001593,184.25,-0.00018385,-0.15614,0.068476
25534,3.4943,5.7273,0.1,0.00054106,5406.9,0.00054244,5448.4,-0.00017145,84.507,-0.00018276,-0.52305,0.063238
25535,3.5862,5.6364,0.1,0.000535,5346.3,0.00053688,5403.6,-0.00016672,116.98,-0.00018235,-0.47355,0.067355
25536,3.5862,5.8182,0.1,0.00054069,5403.1,0.00054147,5426.6,-0.00017437,48.08,-0.00018086,-0.74576,0.066124
25537,3.4943,5.9091,0.1,0.00054555,5451.8,0.00054597,5464,-0.00017793,24.95,-0.0001813,-0.38269,0.061962
25538,3.6782,0.27273,0.1,0.00053462,5342.5,0.00053593,5381.9,-0.00016968,80.227,-0.00018042,-0.46273,0.07036
25539,3.7701,0.18182,0.1,0.00053403,5336.7,0.0005348,5359.4,-0.00017231,46.466,-0.00017858,-0.63415,0.073418
25540,3.6782,0.090909,0.1,0.00053889,5385.2,0.0005393,5397.2,-0.00017577,24.476,-0.00017907,-0.3504,0.069063
25541,3.6782,0.45455,0.1,0.00052932,5289.5,0.00053164,5360.7,-0.00016244,145.63,-0.00018186,-0.2876,0.071546
25542,3.7701,0.36364,0.1,0.00052879,5284.2,0.00053056,5338.1,-0.00016526,109.94,-0.00017995,-0.43028,0.074668
25543,3.6782,0.63636,0.1,0.00052426,5239,0.00052751,5340.5,-0.00015539,209.54,-0.00018329,-0.13226,0.072625
25544,3.7701,0.54545,0.1,0.00052383,5234.7,0.00052654,5318.4,-0.00015842,171.95,-0.00018132,-0.14074,0.07581
25545,3.6782,0.81818,0.1,0.00051939,5190.4,0.00052348,5321,-0.00014849,272.03,-0.00018471,-0.10082,0.073603
25546,3.7701,0.72727,0.1,0.00051903,5186.7,0.0005226,5299.1,-0.0001517,232.74,-0.00018269,-0.11873,0.076848
25547,3.6782,1,0.1,0.00051476,5144,0.0005196,5302.2,-0.00014181,332.54,-0.00018608,-0.068146,0.074483
25548,3.7701,0.90909,0.1,0.00051443,5140.8,0.00051878,5280.5,-0.00014516,291.92,-0.00018402,-0.077138,0.077786
25549,3.6782,1.1818,0.1,0.00051039,5100.4,0.00051591,5284.3,-0.00013543,390.43,-0.0001874,-0.046944,0.075271
25550,3.7701,1.0909,0.1,0.00051007,5097.2,0.00051511,5262.6,-0.00013887,348.87,-0.00018531,-0.05486,0.07863
25551,3.6782,1.3636,0.1,0.00050633,5059.8,0.00051243,5267.6,-0.00012942,445.04,-0.00018865,-0.029684,0.07597
25552,3.7701,1.2727,0.1,0.00050599,5056.4,0.00051163,5245.8,-0.0001329,402.96,-0.00018654,-0.035959,0.079382
25553,3.6782,1.5455,0.1,0.00050262,5022.8,0.00050922,5252.2,-0.00012384,495.73,-0.00018982,-0.016087,0.076584
25554,3.7701,1.4545,0.1,0.00050222,5018.7,0.00050839,5230.1,-0.00012732,453.59,-0.00018769,-0.021458,0.080047
25555,3.6782,1.7273,0.1,0.00049929,4989.5,0.0005063,5238.3,-0.00011875,541.92,-0.00019088,-0.0050874,0.077117
25556,3.7701,1.6364,0.1,0.0004988,4984.5,0.00050542,5215.8,-0.00012219,500.16,-0.00018876,-0.009652,0.080629
25557,3.6782,1.9091,0.1,0.00049636,4960.2,0.0005037,5226,-0.00011423,583.06,-0.00019183,0.003734,0.077572
25558,3.7701,1.8182,0.1,0.00049576,4954.1,0.00050275,5202.9,-0.00011756,542.15,-0.00018972,-0.00014485,0.08113
25559,3.6782,2.0909,0.1,0.00049386,4935.2,0.00050147,5215.4,-0.00011032,618.69,-0.00019266,0.010732,0.077952
25560,3.7701,2,0.1,0.00049311,4927.7,0.0005004,5191.7,-0.0001135,579.06,-0.00019057,0.0074863,0.081555
25561,3.6782,2.2727,0.1,0.0004918,4914.6,0.00049961,5206.6,-0.00010705,648.39,-0.00019335,0.016148,0.07826
25562,3.7701,2.1818,0.1,0.00049089,4905.5,0.00049841,5182.2,-0.00011004,610.48,-0.00019129,0.013496,0.081904
25563,3.6782,2.4545,0.1,0.00049018,4898.4,0.00049814,5199.7,-0.00010448,671.84,-0.00019389,0.020171,0.078497
25564,3.7701,2.3636,0.1,0.00048909,4887.6,0.0004968,5174.5,-0.00010723,636.04,-0.00019188,0.018082,0.082181
25565,3.6782,2.6364,0.1,0.00048902,4886.9,0.00049709,5194.7,-0.00010262,688.77,-0.00019429,0.022944,0.078666
25566,3.7701,2.5455,0.1,0.00048774,4874,0.00049557,5168.6,-0.00010509,655.46,-0.00019232,0.021393,0.082387
25567,3.6782,2.8182,0.1,0.00048833,4879.9,0.00049645,5191.7,-0.0001015,699,-0.00019453,0.024567,0.078766
25568,3.7701,2.7273,0.1,0.00048683,4865,0.00049475,5164.7,-0.00010365,668.53,-0.00019263,0.023541,0.082524
25569,3.6782,3,0.1,0.0004881,4877.6,0.00049624,5190.7,-0.00010112,702.42,-0.00019461,0.025102,0.078799
25570,3.7701,2.9091,0.1,0.00048638,4860.5,0.00049433,5162.7,-0.00010293,675.1,-0.00019278,0.024597,0.082592
25571,3.6782,3.1818,0.1,0.00048833,4879.9,0.00049645,5191.7,-0.0001015,699,-0.00019453,0.024567,0.078766
25572,3.7701,3.0909,0.1,0.00048638,4860.5,0.00049433,5162.7,-0.00010293,675.1,-0.00019278,0.024597,0.082592
25573,3.6782,3.3636,0.1,0.00048902,4886.9,0.00049709,5194.7,-0.00010262,688.77,-0.00019429,0.022944,0.078666
25574,3.7701,3.2727,0.1,0.00048683,4865,0.00049475,5164.7,-0.00010365,668.53,-0.00019263,0.023541,0.082524
25575,3.6782,3.5455,0.1,0.00049018,4898.4,0.00049814,5199.7,-0.00010448,671.84,-0.00019389,0.020171,0.078497
25576,3.7701,3.4545,0.1,0.00048774,4874,0.00049557,5168.6,-0.00010509,655.46,-0.00019232,0.021393,0.082387
25577,3.6782,3.7273,0.1,0.0004918,4914.6,0.00049961,5206.6,-0.00010705,648.39,-0.00019335,0.016148,0.07826
25578,3.7701,3.6364,0.1,0.00048909,4887.6,0.0004968,5174.5,-0.00010723,636.04,-0.00019188,0.018083,0.082181
25579,3.6782,3.9091,0.1,0.00049386,4935.2,0.00050147,5215.4,-0.00011032,618.69,-0.00019266,0.010732,0.077952
25580,3.7701,3.8182,0.1,0.00049089,4905.5,0.00049841,5182.2,-0.00011004,610.48,-0.00019129,0.013496,0.081904
25581,3.6782,4.0909,0.1,0.00049636,4960.2,0.0005037,5226,-0.00011423,583.06,-0.00019183,0.0037344,0.077572
25582,3.7701,4,0.1,0.00049311,4927.7,0.0005004,5191.7,-0.0001135,579.06,-0.00019057,0.0074865,0.081555
25583,3.6782,4.2727,0.1,0.00049929,4989.5,0.0005063,5238.3,-0.00011875,541.92,-0.00019088,-0.0050869,0.077117
25584,3.7701,4.1818,0.1,0.00049576,4954.1,0.00050275,5202.9,-0.00011756,542.15,-0.00018972,-0.00014439,0.08113
25585,3.6782,4.4545,0.1,0.00050262,5022.8,0.00050922,5252.2,-0.00012384,495.73,-0.00018982,-0.016087,0.076584
25586,3.7701,4.3636,0.1,0.0004988,4984.5,0.00050542,5215.8,-0.00012219,500.16,-0.00018876,-0.0096515,0.080629
25587,3.6782,4.6364,0.1,0.00050633,5059.8,0.00051243,5267.6,-0.00012942,445.04,-0.00018865,-0.029684,0.07597
25588,3.7701,4.5455,0.1,0.00050222,5018.7,0.00050839,5230.1,-0.00012732,453.59,-0.00018769,-0.021458,0.080047
25589,3.6782,4.8182,0.1,0.00051039,5100.4,0.00051591,5284.3,-0.00013543,390.43,-0.0001874,-0.046943,0.075271
25590,3.7701,4.7273,0.1,0.00050599,5056.4,0.00051163,5245.8,-0.0001329,402.96,-0.00018654,-0.035958,0.079382
25591,3.6782,5,0.1,0.00051476,5144,0.0005196,5302.2,-0.00014181,332.54,-0.00018608,-0.068145,0.074483
25592,3.7701,4.9091,0.1,0.00051007,5097.2,0.00051511,5262.6,-0.00013887,348.87,-0.00018531,-0.05486,0.07863
25593,3.6782,5.1818,0.1,0.00051939,5190.4,0.00052348,5321,-0.00014849,272.03,-0.00018471,-0.10082,0.073603
25594,3.7701,5.0909,0.1,0.00051443,5140.8,0.00051878,5280.5,-0.00014516,291.92,-0.00018402,-0.077137,0.077786
25595,3.6782,5.3636,0.1,0.00052426,5239,0.00052751,5340.5,-0.00015539,209.54,-0.00018329,-0.13226,0.072625
25596,3.7701,5.2727,0.1,0.00051903,5186.7,0.0005226,5299.1,-0.0001517,232.74,-0.00018269,-0.11873,0.076848
25597,3.6782,5.5455,0.1,0.00052932,5289.5,0.00053164,5360.7,-0.00016244,145.63,-0.00018186,-0.2876,0.071546
25598,3.7701,5.4545,0.1,0.00052383,5234.6,0.00052654,5318.4,-0.00015842,171.95,-0.00018132,-0.14074,0.07581
25599,3.6782,5.7273,0.1,0.00053462,5342.5,0.00053593,5381.9,-0.00016968,80.227,-0.00018042,-0.46273,0.07036
25600,3.7701,5.6364,0.1,0.00052879,5284.2,0.00053056,5338.1,-0.00016526,109.94,-0.00017995,-0.43028,0.074668
25601,3.7701,5.8182,0.1,0.00053403,5336.7,0.0005348,5359.4,-0.00017231,46.465,-0.00017858,-0.63415,0.073418
25602,3.6782,5.9091,0.1,0.00053889,5385.2,0.0005393,5397.2,-0.00017577,24.476,-0.00017907,-0.3504,0.069063
25603,3.8621,0.27273,0.1,0.0005282,5278.4,0.00052945,5315.7,-0.00016793,75.904,-0.00017809,-0.4107,0.077843
25604,3.954,0.18182,0.1,0.00052744,5270.8,0.00052817,5292.6,-0.0001703,44.609,-0.00017631,-0.54309,0.081072
25605,3.8621,0.090909,0.1,0.00053226,5318.9,0.00053266,5330.6,-0.00017364,23.785,-0.00017685,-0.32194,0.076528
25606,3.8621,0.45455,0.1,0.0005233,5229.3,0.00052547,5296,-0.00016125,136.17,-0.00017941,-0.26128,0.079048
25607,3.954,0.36364,0.1,0.0005226,5222.4,0.00052427,5273,-0.0001638,103.11,-0.00017757,-0.39137,0.082339
25608,3.8621,0.63636,0.1,0.0005186,5182.4,0.00052164,5277.1,-0.00015474,195.07,-0.00018072,-0.11972,0.080146
25609,3.954,0.54545,0.1,0.00051799,5176.3,0.00052053,5254.6,-0.00015748,160.29,-0.00017883,-0.12698,0.083499
25610,3.8621,0.81818,0.1,0.00051407,5137.2,0.0005179,5258.7,-0.00014838,252.56,-0.00018201,-0.091585,0.081144
25611,3.954,0.72727,0.1,0.00051354,5131.8,0.00051687,5236.5,-0.00015128,216.27,-0.00018008,-0.10786,0.084555
25612,3.8621,1,0.1,0.00050975,5094,0.00051429,5241,-0.00014223,308.18,-0.00018326,-0.061912,0.082043
25613,3.954,0.90909,0.1,0.00050925,5089,0.00051332,5218.9,-0.00014525,270.69,-0.00018129,-0.070053,0.085512
25614,3.8621,1.1818,0.1,0.00050567,5053.2,0.00051084,5224.1,-0.00013636,361.34,-0.00018445,-0.042644,0.08285
25615,3.954,1.0909,0.1,0.00050519,5048.4,0.00050991,5202.1,-0.00013946,323.02,-0.00018246,-0.049859,0.086373
25616,3.8621,1.3636,0.1,0.00050187,5015.3,0.0005076,5208.3,-0.00013082,411.47,-0.00018558,-0.026877,0.083567
25617,3.954,1.2727,0.1,0.00050138,5010.3,0.00050667,5186.2,-0.00013397,372.68,-0.00018357,-0.032632,0.087143
25618,3.8621,1.5455,0.1,0.00049839,4980.5,0.0005046,5193.7,-0.00012568,457.99,-0.00018664,-0.014387,0.084198
25619,3.954,1.4545,0.1,0.00049785,4975.1,0.00050365,5171.4,-0.00012883,419.14,-0.00018462,-0.01936,0.087825
25620,3.8621,1.7273,0.1,0.00049526,4949.2,0.00050187,5180.4,-0.000121,500.39,-0.0001876,-0.0042098,0.084747
25621,3.954,1.6364,0.1,0.00049464,4943,0.00050088,5157.8,-0.0001241,461.89,-0.00018558,-0.0084889,0.088422
25622,3.8621,1.9091,0.1,0.0004925,4921.6,0.00049945,5168.6,-0.00011683,538.16,-0.00018845,0.0040177,0.085216
25623,3.954,1.8182,0.1,0.00049179,4914.5,0.00049838,5145.5,-0.00011984,500.42,-0.00018644,0.00032598,0.088937
25624,3.8621,2.0909,0.1,0.00049014,4898,0.00049735,5158.4,-0.00011322,570.88,-0.0001892,0.0106,0.085609
25625,3.954,2,0.1,0.0004893,4889.6,0.00049619,5134.8,-0.0001161,534.3,-0.00018721,0.0074554,0.089374
25626,3.8621,2.2727,0.1,0.00048818,4878.5,0.0004956,5150,-0.00011021,598.17,-0.00018982,0.015738,0.085927
25627,3.954,2.1818,0.1,0.0004872,4868.6,0.00049433,5125.7,-0.00011291,563.15,-0.00018786,0.013114,0.089734
25628,3.8621,2.4545,0.1,0.00048665,4863.1,0.00049422,5143.3,-0.00010783,619.72,-0.00019031,0.019585,0.086172
25629,3.954,2.3636,0.1,0.0004855,4851.6,0.00049281,5118.3,-0.00011032,586.62,-0.00018839,0.017464,0.09002
25630,3.8621,2.6364,0.1,0.00048555,4852.1,0.00049323,5138.5,-0.00010612,635.29,-0.00019066,0.022253,0.086346
25631,3.954,2.5455,0.1,0.00048422,4838.8,0.00049166,5112.7,-0.00010835,604.47,-0.00018879,0.020625,0.090232
25632,3.8621,2.8182,0.1,0.00048489,4845.5,0.00049262,5135.6,-0.00010508,644.7,-0.00019088,0.023822,0.08645
25633,3.954,2.7273,0.1,0.00048336,4830.2,0.00049088,5108.9,-0.00010702,616.48,-0.00018907,0.022686,0.090374
25634,3.8621,3,0.1,0.00048467,4843.3,0.00049242,5134.6,-0.00010473,647.85,-0.00019095,0.02434,0.086485
25635,3.954,2.9091,0.1,0.00048293,4825.9,0.0004905,5107,-0.00010635,622.52,-0.0001892,0.023702,0.090444
25636,3.8621,3.1818,0.1,0.00048489,4845.5,0.00049262,5135.6,-0.00010508,644.7,-0.00019088,0.023822,0.08645
25637,3.954,3.0909,0.1,0.00048293,4825.9,0.0004905,5107,-0.00010635,622.52,-0.0001892,0.023703,0.090444
25638,3.8621,3.3636,0.1,0.00048555,4852.1,0.00049323,5138.5,-0.00010612,635.29,-0.00019066,0.022253,0.086346
25639,3.954,3.2727,0.1,0.00048336,4830.2,0.00049088,5108.9,-0.00010702,616.48,-0.00018907,0.022686,0.090374
25640,3.8621,3.5455,0.1,0.00048665,4863.1,0.00049422,5143.3,-0.00010783,619.72,-0.00019031,0.019585,0.086172
25641,3.954,3.4545,0.1,0.00048422,4838.8,0.00049166,5112.7,-0.00010835,604.47,-0.00018879,0.020625,0.090232
25642,3.8621,3.7273,0.1,0.00048818,4878.5,0.0004956,5150,-0.00011021,598.17,-0.00018982,0.015739,0.085927
25643,3.954,3.6364,0.1,0.0004855,4851.6,0.00049281,5118.3,-0.00011032,586.62,-0.00018839,0.017464,0.09002
25644,3.8621,3.9091,0.1,0.00049014,4898,0.00049735,5158.4,-0.00011322,570.88,-0.0001892,0.010601,0.085609
25645,3.954,3.8182,0.1,0.0004872,4868.6,0.00049433,5125.7,-0.00011291,563.15,-0.00018786,0.013114,0.089734
25646,3.8621,4.0909,0.1,0.0004925,4921.6,0.00049945,5168.6,-0.00011683,538.16,-0.00018845,0.0040181,0.085216
25647,3.954,4,0.1,0.0004893,4889.6,0.00049619,5134.8,-0.0001161,534.3,-0.00018721,0.0074557,0.089374
25648,3.8621,4.2727,0.1,0.00049526,4949.2,0.00050187,5180.4,-0.000121,500.39,-0.0001876,-0.0042093,0.084747
25649,3.954,4.1818,0.1,0.00049179,4914.5,0.00049838,5145.5,-0.00011984,500.42,-0.00018644,0.00032646,0.088937
25650,3.8621,4.4545,0.1,0.00049839,4980.5,0.0005046,5193.7,-0.00012568,457.99,-0.00018664,-0.014386,0.084198
25651,3.954,4.3636,0.1,0.00049464,4943,0.00050088,5157.8,-0.0001241,461.89,-0.00018558,-0.0084884,0.088422
25652,3.8621,4.6364,0.1,0.00050187,5015.3,0.0005076,5208.3,-0.00013082,411.47,-0.00018558,-0.026877,0.083567
25653,3.954,4.5455,0.1,0.00049785,4975.1,0.00050365,5171.4,-0.00012883,419.14,-0.00018462,-0.019359,0.087825
25654,3.8621,4.8182,0.1,0.00050567,5053.2,0.00051084,5224.1,-0.00013636,361.34,-0.00018445,-0.042643,0.08285
25655,3.954,4.7273,0.1,0.00050138,5010.3,0.00050667,5186.2,-0.00013397,372.68,-0.00018357,-0.032631,0.087143
25656,3.8621,5,0.1,0.00050975,5094,0.00051429,5241,-0.00014223,308.18,-0.00018326,-0.061912,0.082043
25657,3.954,4.9091,0.1,0.00050519,5048.4,0.00050991,5202.1,-0.00013946,323.02,-0.00018246,-0.049858,0.086373
25658,3.8621,5.1818,0.1,0.00051407,5137.2,0.0005179,5258.7,-0.00014838,252.56,-0.00018201,-0.091584,0.081144
25659,3.954,5.0909,0.1,0.00050925,5089,0.00051332,5218.9,-0.00014525,270.69,-0.00018129,-0.070052,0.085512
25660,3.8621,5.3636,0.1,0.0005186,5182.4,0.00052164,5277.1,-0.00015474,195.07,-0.00018072,-0.11972,0.080146
25661,3.954,5.2727,0.1,0.00051354,5131.8,0.00051687,5236.5,-0.00015128,216.27,-0.00018008,-0.10785,0.084555
25662,3.8621,5.5455,0.1,0.0005233,5229.3,0.00052547,5296,-0.00016125,136.17,-0.00017941,-0.26128,0.079048
25663,3.954,5.4545,0.1,0.00051799,5176.3,0.00052053,5254.6,-0.00015748,160.29,-0.00017883,-0.12698,0.083499
25664,3.8621,5.7273,0.1,0.0005282,5278.4,0.00052945,5315.7,-0.00016793,75.904,-0.00017809,-0.4107,0.077843
25665,3.954,5.6364,0.1,0.0005226,5222.4,0.00052427,5273,-0.0001638,103.11,-0.00017757,-0.39136,0.082339
25666,3.954,5.8182,0.1,0.00052744,5270.8,0.00052817,5292.6,-0.0001703,44.609,-0.00017631,-0.54309,0.081072
25667,3.8621,5.9091,0.1,0.00053226,5318.9,0.00053266,5330.6,-0.00017364,23.785,-0.00017685,-0.32194,0.076528
25668,4.046,0.27273,0.1,0.00052183,5214.7,0.00052301,5250,-0.00016619,71.579,-0.00017577,-0.36557,0.085684
25669,4.1379,0.18182,0.1,0.00052091,5205.5,0.00052161,5226.4,-0.00016832,42.568,-0.00017404,-0.46816,0.089083
25670,4.046,0.090909,0.1,0.00052567,5253.1,0.00052605,5264.4,-0.00017154,22.924,-0.00017463,-0.29663,0.084354
25671,4.046,0.45455,0.1,0.00051729,5169.3,0.00051933,5231.6,-0.00016003,127.14,-0.00017698,-0.23756,0.086905
25672,4.1379,0.36364,0.1,0.00051644,5160.8,0.00051801,5208.2,-0.00016232,96.493,-0.00017521,-0.35628,0.090364
25673,4.046,0.63636,0.1,0.00051293,5125.7,0.00051577,5214,-0.00015402,181.42,-0.00017818,-0.10844,0.08802
25674,4.1379,0.54545,0.1,0.00051216,5118.1,0.00051454,5191,-0.00015648,149.23,-0.00017636,-0.11468,0.091539
25675,4.046,0.81818,0.1,0.00050872,5083.7,0.0005123,5196.7,-0.00014816,234.33,-0.00017936,-0.083225,0.089034
25676,4.1379,0.72727,0.1,0.00050803,5076.7,0.00051114,5174.1,-0.00015077,200.79,-0.0001775,-0.098029,0.092611
25677,4.046,1,0.1,0.0005047,5043.5,0.00050894,5180.1,-0.00014249,285.47,-0.00018049,-0.056259,0.089951
25678,4.1379,0.90909,0.1,0.00050405,5037,0.00050784,5157.7,-0.00014522,250.86,-0.00017861,-0.063644,0.093584
25679,4.046,1.1818,0.1,0.0005009,5005.5,0.00050574,5164.2,-0.00013708,334.3,-0.00018158,-0.038742,0.090774
25680,4.1379,1.0909,0.1,0.00050026,4999.2,0.00050468,5141.9,-0.00013988,298.94,-0.00017968,-0.045327,0.094461
25681,4.046,1.3636,0.1,0.00049735,4970.1,0.00050273,5149.3,-0.00013199,380.32,-0.00018261,-0.024347,0.091507
25682,4.1379,1.2727,0.1,0.00049671,4963.7,0.00050167,5126.9,-0.00013483,344.55,-0.00018069,-0.029627,0.095246
25683,4.046,1.5455,0.1,0.0004941,4937.6,0.00049993,5135.5,-0.00012726,423.01,-0.00018356,-0.012891,0.092154
25684,4.1379,1.4545,0.1,0.00049342,4930.8,0.00049886,5113,-0.0001301,387.19,-0.00018163,-0.017491,0.095942
25685,4.046,1.7273,0.1,0.00049117,4908.3,0.00049739,5122.9,-0.00012295,461.9,-0.00018443,-0.0035047,0.092716
25686,4.1379,1.6364,0.1,0.00049042,4900.8,0.00049628,5100.1,-0.00012575,426.41,-0.0001825,-0.0075031,0.096553
25687,4.046,1.9091,0.1,0.00048858,4882.4,0.00049513,5111.7,-0.00011911,496.56,-0.0001852,0.0041321,0.093198
25688,4.1379,1.8182,0.1,0.00048775,4874.1,0.00049396,5088.5,-0.00012183,461.76,-0.00018329,0.00064064,0.097081
25689,4.046,2.0909,0.1,0.00048635,4860.2,0.00049317,5102,-0.00011579,526.59,-0.00018587,0.010283,0.093602
25690,4.1379,2,0.1,0.00048541,4850.8,0.00049191,5078.4,-0.00011838,492.84,-0.00018398,0.0072668,0.097529
25691,4.046,2.2727,0.1,0.00048451,4841.8,0.00049153,5094,-0.00011302,551.64,-0.00018643,0.015117,0.093929
25692,4.1379,2.1818,0.1,0.00048344,4831,0.00049017,5069.7,-0.00011545,519.3,-0.00018456,0.012558,0.097898
25693,4.046,2.4545,0.1,0.00048306,4827.3,0.00049024,5087.6,-0.00011083,571.42,-0.00018687,0.018757,0.094181
25694,4.1379,2.3636,0.1,0.00048184,4815.1,0.00048876,5062.7,-0.00011306,540.84,-0.00018504,0.01665,0.098192
25695,4.046,2.6364,0.1,0.00048203,4816.9,0.00048931,5083,-0.00010924,585.71,-0.00018719,0.021295,0.094361
25696,4.1379,2.5455,0.1,0.00048064,4803,0.00048768,5057.4,-0.00011125,557.22,-0.00018541,0.019638,0.09841
25697,4.046,2.8182,0.1,0.0004814,4810.7,0.00048875,5080.2,-0.00010829,594.35,-0.00018739,0.022793,0.094468
25698,4.1379,2.7273,0.1,0.00047983,4794.9,0.00048696,5053.8,-0.00011003,568.24,-0.00018565,0.021593,0.098555
25699,4.046,3,0.1,0.00048119,4808.6,0.00048856,5079.3,-0.00010797,597.25,-0.00018745,0.023289,0.094504
25700,4.1379,2.9091,0.1,0.00047942,4790.9,0.0004866,5052,-0.00010941,573.78,-0.00018578,0.022561,0.098628
25701,4.046,3.1818,0.1,0.0004814,4810.7,0.00048875,5080.2,-0.00010829,594.35,-0.00018739,0.022793,0.094468
25702,4.1379,3.0909,0.1,0.00047942,4790.9,0.0004866,5052,-0.00010941,573.78,-0.00018578,0.022561,0.098628
25703,4.046,3.3636,0.1,0.00048203,4816.9,0.00048931,5083,-0.00010924,585.71,-0.00018719,0.021295,0.094361
25704,4.1379,3.2727,0.1,0.00047983,4794.9,0.00048696,5053.8,-0.00011003,568.24,-0.00018565,0.021594,0.098555
25705,4.046,3.5455,0.1,0.00048306,4827.3,0.00049024,5087.6,-0.00011083,571.42,-0.00018687,0.018757,0.094181
25706,4.1379,3.4545,0.1,0.00048064,4803,0.00048768,5057.4,-0.00011125,557.22,-0.00018541,0.019638,0.09841
25707,4.046,3.7273,0.1,0.00048451,4841.8,0.00049153,5094,-0.00011302,551.64,-0.00018643,0.015117,0.093929
25708,4.1379,3.6364,0.1,0.00048184,4815.1,0.00048876,5062.7,-0.00011306,540.84,-0.00018504,0.01665,0.098192
25709,4.046,3.9091,0.1,0.00048635,4860.2,0.00049317,5102,-0.00011579,526.59,-0.00018587,0.010284,0.093602
25710,4.1379,3.8182,0.1,0.00048344,4831,0.00049017,5069.7,-0.00011545,519.3,-0.00018456,0.012558,0.097898
25711,4.046,4.0909,0.1,0.00048858,4882.4,0.00049513,5111.7,-0.00011911,496.56,-0.0001852,0.0041326,0.093198
25712,4.1379,4,0.1,0.00048541,4850.8,0.00049191,5078.4,-0.00011838,492.84,-0.00018398,0.0072671,0.097529
25713,4.046,4.2727,0.1,0.00049117,4908.3,0.00049739,5122.9,-0.00012295,461.9,-0.00018443,-0.0035042,0.092716
25714,4.1379,4.1818,0.1,0.00048775,4874.1,0.00049396,5088.5,-0.00012183,461.76,-0.00018329,0.00064112,0.097081
25715,4.046,4.4545,0.1,0.0004941,4937.6,0.00049993,5135.5,-0.00012726,423.01,-0.00018356,-0.012891,0.092154
25716,4.1379,4.3636,0.1,0.00049042,4900.8,0.00049628,5100.1,-0.00012575,426.41,-0.0001825,-0.0075026,0.096553
25717,4.046,4.6364,0.1,0.00049735,4970.1,0.00050273,5149.3,-0.00013199,380.32,-0.00018261,-0.024346,0.091507
25718,4.1379,4.5455,0.1,0.00049342,4930.8,0.00049886,5113,-0.0001301,387.19,-0.00018163,-0.017491,0.095942
25719,4.046,4.8182,0.1,0.0005009,5005.5,0.00050574,5164.2,-0.00013708,334.3,-0.00018158,-0.038741,0.090774
25720,4.1379,4.7273,0.1,0.00049671,4963.7,0.00050167,5126.9,-0.00013483,344.55,-0.00018069,-0.029626,0.095246
25721,4.046,5,0.1,0.0005047,5043.5,0.00050894,5180.1,-0.00014249,285.47,-0.00018049,-0.056259,0.089951
25722,4.1379,4.9091,0.1,0.00050026,4999.2,0.00050468,5141.9,-0.00013988,298.94,-0.00017968,-0.045326,0.094461
25723,4.046,5.1818,0.1,0.00050872,5083.7,0.0005123,5196.7,-0.00014816,234.33,-0.00017936,-0.083224,0.089034
25724,4.1379,5.0909,0.1,0.00050405,5037,0.00050784,5157.7,-0.00014522,250.86,-0.00017861,-0.063643,0.093584
25725,4.046,5.3636,0.1,0.00051293,5125.7,0.00051577,5214,-0.00015402,181.42,-0.00017818,-0.10844,0.08802
25726,4.1379,5.2727,0.1,0.00050803,5076.7,0.00051114,5174.1,-0.00015077,200.79,-0.0001775,-0.098028,0.092611
25727,4.046,5.5455,0.1,0.00051729,5169.3,0.00051933,5231.6,-0.00016003,127.14,-0.00017698,-0.23756,0.086905
25728,4.1379,5.4545,0.1,0.00051216,5118.1,0.00051454,5191,-0.00015648,149.23,-0.00017636,-0.11468,0.091539
25729,4.046,5.7273,0.1,0.00052183,5214.7,0.00052301,5250,-0.00016619,71.579,-0.00017577,-0.36557,0.085684
25730,4.1379,5.6364,0.1,0.00051644,5160.8,0.00051801,5208.2,-0.00016232,96.493,-0.00017521,-0.35628,0.090364
25731,4.1379,5.8182,0.1,0.00052091,5205.5,0.00052161,5226.4,-0.00016832,42.568,-0.00017404,-0.46816,0.089083
25732,4.046,5.9091,0.1,0.00052567,5253.1,0.00052605,5264.4,-0.00017154,22.924,-0.00017463,-0.29663,0.084354
25733,4.2299,0.27273,0.1,0.00051551,5151.6,0.00051662,5184.7,-0.00016447,67.286,-0.00017347,-0.32628,0.093878
25734,4.3218,0.18182,0.1,0.00051445,5140.9,0.00051511,5160.8,-0.00016637,40.393,-0.0001718,-0.40606,0.097446
25735,4.2299,0.090909,0.1,0.00051913,5187.8,0.0005195,5198.5,-0.00016947,21.93,-0.00017242,-0.274,0.092535
25736,4.2299,0.45455,0.1,0.00051131,5109.6,0.00051322,5167.7,-0.00015878,118.52,-0.00017459,-0.21614,0.095112
25737,4.3218,0.36364,0.1,0.00051032,5099.7,0.00051179,5144,-0.00016084,90.115,-0.00017288,-0.32457,0.09874
25738,4.2299,0.63636,0.1,0.00050726,5069.1,0.00050992,5151.2,-0.00015324,168.55,-0.00017568,-0.098294,0.096242
25739,4.3218,0.54545,0.1,0.00050635,5060,0.00050857,5127.9,-0.00015545,138.76,-0.00017393,-0.10366,0.099927
25740,4.2299,0.81818,0.1,0.00050335,5030,0.00050669,5135.1,-0.00014783,217.26,-0.00017676,-0.075667,0.097271
25741,4.3218,0.72727,0.1,0.00050251,5021.6,0.00050542,5112.1,-0.00015018,186.26,-0.00017498,-0.089143,0.10101
25742,4.2299,1,0.1,0.00049961,4992.7,0.00050358,5119.5,-0.00014261,264.28,-0.00017779,-0.051148,0.098202
25743,4.3218,0.90909,0.1,0.00049881,4984.7,0.00050236,5096.8,-0.00014506,232.33,-0.00017599,-0.057851,0.102
25744,4.2299,1.1818,0.1,0.00049608,4957.3,0.00050061,5104.7,-0.00013763,309.15,-0.00017878,-0.035219,0.09904
25745,4.3218,1.0909,0.1,0.0004953,4949.6,0.00049942,5082,-0.00014015,276.52,-0.00017696,-0.04123,0.10289
25746,4.2299,1.3636,0.1,0.00049278,4924.4,0.00049781,5090.6,-0.00013294,351.39,-0.00017971,-0.022082,0.099787
25747,4.3218,1.2727,0.1,0.00049199,4916.5,0.00049664,5068,-0.0001355,318.41,-0.00017788,-0.026923,0.10369
25748,4.2299,1.5455,0.1,0.00048974,4894,0.00049522,5077.6,-0.00012859,390.57,-0.00018058,-0.01159,0.10045
25749,4.3218,1.4545,0.1,0.00048893,4885.9,0.00049403,5054.9,-0.00013115,357.54,-0.00017873,-0.015836,0.1044
25750,4.2299,1.7273,0.1,0.000487,4866.7,0.00049285,5065.8,-0.00012463,426.24,-0.00018136,-0.0029547,0.10102
25751,4.3218,1.6364,0.1,0.00048614,4858,0.00049163,5042.8,-0.00012715,393.52,-0.00017952,-0.0066751,0.10502
25752,4.2299,1.9091,0.1,0.00048458,4842.5,0.00049074,5055.2,-0.0001211,458.03,-0.00018206,0.0041065,0.10151
25753,4.3218,1.8182,0.1,0.00048364,4833,0.00048947,5031.9,-0.00012354,425.94,-0.00018023,0.00082635,0.10556
25754,4.2299,2.0909,0.1,0.0004825,4821.6,0.00048892,5046.1,-0.00011805,485.57,-0.00018267,0.0098242,0.10193
25755,4.3218,2,0.1,0.00048146,4811.2,0.00048757,5022.3,-0.00012038,454.44,-0.00018086,0.0069588,0.10602
25756,4.2299,2.2727,0.1,0.00048077,4804.4,0.0004874,5038.4,-0.00011549,508.54,-0.00018318,0.014341,0.10226
25757,4.3218,2.1818,0.1,0.00047961,4792.8,0.00048596,5014.2,-0.00011768,478.7,-0.00018139,0.011879,0.10639
25758,4.2299,2.4545,0.1,0.00047941,4790.8,0.0004862,5032.4,-0.00011348,526.68,-0.00018357,0.017758,0.10252
25759,4.3218,2.3636,0.1,0.00047811,4777.9,0.00048464,5007.5,-0.00011548,498.45,-0.00018182,0.015702,0.10669
25760,4.2299,2.6364,0.1,0.00047844,4781.1,0.00048533,5028.1,-0.00011202,539.79,-0.00018386,0.02015,0.10271
25761,4.3218,2.5455,0.1,0.00047698,4766.5,0.00048364,5002.5,-0.00011381,513.47,-0.00018215,0.018504,0.10692
25762,4.2299,2.8182,0.1,0.00047785,4775.2,0.0004848,5025.4,-0.00011114,547.72,-0.00018404,0.021566,0.10282
25763,4.3218,2.7273,0.1,0.00047622,4759,0.00048296,4999.1,-0.00011269,523.57,-0.00018237,0.020344,0.10707
25764,4.2299,3,0.1,0.00047765,4773.2,0.00048463,5024.5,-0.00011085,550.37,-0.0001841,0.022035,0.10285
25765,4.3218,2.9091,0.1,0.00047584,4755.1,0.00048263,4997.4,-0.00011213,528.66,-0.00018248,0.021256,0.10714
25766,4.2299,3.1818,0.1,0.00047785,4775.2,0.0004848,5025.4,-0.00011114,547.72,-0.00018404,0.021566,0.10282
25767,4.3218,3.0909,0.1,0.00047584,4755.1,0.00048263,4997.4,-0.00011213,528.66,-0.00018248,0.021256,0.10714
25768,4.2299,3.3636,0.1,0.00047844,4781.1,0.00048533,5028.1,-0.00011202,539.79,-0.00018386,0.02015,0.10271
25769,4.3218,3.2727,0.1,0.00047622,4759,0.00048296,4999.1,-0.00011269,523.57,-0.00018237,0.020344,0.10707
25770,4.2299,3.5455,0.1,0.00047941,4790.8,0.0004862,5032.4,-0.00011348,526.68,-0.00018357,0.017758,0.10252
25771,4.3218,3.4545,0.1,0.00047698,4766.5,0.00048364,5002.5,-0.00011381,513.47,-0.00018215,0.018504,0.10692
25772,4.2299,3.7273,0.1,0.00048077,4804.4,0.0004874,5038.4,-0.00011549,508.54,-0.00018318,0.014341,0.10226
25773,4.3218,3.6364,0.1,0.00047811,4777.9,0.00048464,5007.5,-0.00011548,498.45,-0.00018182,0.015702,0.10669
25774,4.2299,3.9091,0.1,0.0004825,4821.6,0.00048892,5046.1,-0.00011805,485.57,-0.00018267,0.0098245,0.10193
25775,4.3218,3.8182,0.1,0.00047961,4792.8,0.00048596,5014.2,-0.00011768,478.7,-0.00018139,0.01188,0.10639
25776,4.2299,4.0909,0.1,0.00048458,4842.5,0.00049074,5055.2,-0.0001211,458.03,-0.00018206,0.0041069,0.10151
25777,4.3218,4,0.1,0.00048146,4811.2,0.00048757,5022.3,-0.00012038,454.44,-0.00018086,0.0069592,0.10602
25778,4.2299,4.2727,0.1,0.000487,4866.7,0.00049285,5065.8,-0.00012463,426.24,-0.00018136,-0.0029542,0.10102
25779,4.3218,4.1818,0.1,0.00048364,4833,0.00048947,5031.9,-0.00012354,425.94,-0.00018023,0.00082683,0.10556
25780,4.2299,4.4545,0.1,0.00048974,4894,0.00049522,5077.6,-0.00012859,390.57,-0.00018058,-0.01159,0.10045
25781,4.3218,4.3636,0.1,0.00048614,4858,0.00049163,5042.8,-0.00012715,393.52,-0.00017952,-0.0066745,0.10502
25782,4.2299,4.6364,0.1,0.00049278,4924.4,0.00049781,5090.6,-0.00013294,351.39,-0.00017971,-0.022081,0.099787
25783,4.3218,4.5455,0.1,0.00048893,4885.9,0.00049403,5054.9,-0.00013115,357.54,-0.00017873,-0.015835,0.1044
25784,4.2299,4.8182,0.1,0.00049608,4957.3,0.00050061,5104.7,-0.00013763,309.15,-0.00017878,-0.035218,0.09904
25785,4.3218,4.7273,0.1,0.00049199,4916.5,0.00049664,5068,-0.0001355,318.41,-0.00017788,-0.026923,0.10369
25786,4.2299,5,0.1,0.00049961,4992.7,0.00050358,5119.5,-0.00014261,264.28,-0.00017779,-0.051147,0.098202
25787,4.3218,4.9091,0.1,0.0004953,4949.6,0.00049942,5082,-0.00014015,276.52,-0.00017696,-0.041229,0.10289
25788,4.2299,5.1818,0.1,0.00050335,5030,0.00050669,5135.1,-0.00014783,217.26,-0.00017676,-0.075666,0.097271
25789,4.3218,5.0909,0.1,0.00049881,4984.7,0.00050236,5096.8,-0.00014506,232.33,-0.00017599,-0.05785,0.102
25790,4.2299,5.3636,0.1,0.00050726,5069.1,0.00050992,5151.2,-0.00015324,168.55,-0.00017568,-0.098293,0.096242
25791,4.3218,5.2727,0.1,0.00050251,5021.6,0.00050542,5112.1,-0.00015018,186.26,-0.00017498,-0.089143,0.10101
25792,4.2299,5.5455,0.1,0.00051131,5109.6,0.00051322,5167.7,-0.00015878,118.52,-0.00017459,-0.21614,0.095112
25793,4.3218,5.4545,0.1,0.00050635,5060,0.00050857,5127.9,-0.00015545,138.76,-0.00017393,-0.10366,0.099927
25794,4.2299,5.7273,0.1,0.00051551,5151.6,0.00051662,5184.7,-0.00016447,67.286,-0.00017347,-0.32628,0.093878
25795,4.3218,5.6364,0.1,0.00051032,5099.7,0.00051179,5144,-0.00016084,90.115,-0.00017288,-0.32457,0.09874
25796,4.3218,5.8182,0.1,0.00051445,5140.9,0.00051511,5160.8,-0.00016637,40.393,-0.0001718,-0.40606,0.097446
25797,4.2299,5.9091,0.1,0.00051913,5187.8,0.0005195,5198.5,-0.00016947,21.93,-0.00017242,-0.27399,0.092535
25798,4.4138,0.27273,0.1,0.00050925,5089,0.00051029,5120.1,-0.00016276,63.055,-0.00017119,-0.29191,0.10242
25799,4.5057,0.18182,0.1,0.00050805,5077,0.00050868,5095.8,-0.00016445,38.127,-0.00016957,-0.35427,0.10616
25800,4.4138,0.090909,0.1,0.00051265,5123,0.000513,5133.2,-0.00016742,20.836,-0.00017023,-0.25365,0.10107
25801,4.4138,0.45455,0.1,0.00050536,5050.1,0.00050714,5104.2,-0.00015751,110.3,-0.00017222,-0.19676,0.10367
25802,4.5057,0.36364,0.1,0.00050424,5038.9,0.00050561,5080.2,-0.00015935,83.981,-0.00017057,-0.29585,0.10746
25803,4.4138,0.63636,0.1,0.0005016,5012.6,0.00050408,5088.9,-0.00015239,156.42,-0.00017322,-0.089151,0.10481
25804,4.5057,0.54545,0.1,0.00050056,5002.2,0.00050263,5065.3,-0.00015437,128.86,-0.00017153,-0.093758,0.10866
25805,4.4138,0.81818,0.1,0.00049797,4976.3,0.00050109,5073.8,-0.00014741,201.27,-0.00017421,-0.068828,0.10585
25806,4.5057,0.72727,0.1,0.000497,4966.5,0.00049971,5050.6,-0.00014951,172.61,-0.00017249,-0.081098,0.10976
25807,4.4138,1,0.1,0.0004945,4941.6,0.00049821,5059.3,-0.0001426,244.52,-0.00017515,-0.046526,0.10679
25808,4.5057,0.90909,0.1,0.00049357,4932.3,0.00049687,5036.2,-0.00014479,215.01,-0.00017342,-0.052611,0.11075
25809,4.4138,1.1818,0.1,0.00049122,4908.8,0.00049545,5045.4,-0.00013802,285.74,-0.00017605,-0.03204,0.10764
25810,4.5057,1.0909,0.1,0.0004903,4899.7,0.00049415,5022.4,-0.00014027,255.63,-0.0001743,-0.037525,0.11166
25811,4.4138,1.3636,0.1,0.00048815,4878.1,0.00049286,5032.3,-0.0001337,324.53,-0.0001769,-0.020057,0.1084
25812,4.5057,1.2727,0.1,0.00048723,4869,0.00049157,5009.3,-0.00013599,294.1,-0.00017514,-0.024491,0.11246
25813,4.4138,1.5455,0.1,0.00048533,4849.9,0.00049045,5020.1,-0.0001297,360.47,-0.00017768,-0.010459,0.10907
25814,4.5057,1.4545,0.1,0.00048439,4840.5,0.00048916,4997.1,-0.00013199,330.03,-0.00017592,-0.01437,0.11319
25815,4.4138,1.7273,0.1,0.00048277,4824.4,0.00048826,5009,-0.00012606,393.2,-0.00017839,-0.0025315,0.10966
25816,4.5057,1.6364,0.1,0.00048179,4814.6,0.00048693,4985.8,-0.00012832,363.03,-0.00017663,-0.0059807,0.11382
25817,4.4138,1.9091,0.1,0.00048051,4801.8,0.0004863,4999,-0.00012282,422.34,-0.00017903,0.0039766,0.11016
25818,4.5057,1.8182,0.1,0.00047946,4791.3,0.00048493,4975.6,-0.00012501,392.75,-0.00017728,0.00091218,0.11437
25819,4.4138,2.0909,0.1,0.00047857,4782.4,0.00048461,4990.5,-0.00012001,447.58,-0.00017958,0.0092685,0.11058
25820,4.5057,2,0.1,0.00047743,4771,0.00048317,4966.6,-0.00012209,418.88,-0.00017784,0.0065681,0.11483
25821,4.4138,2.2727,0.1,0.00047696,4766.3,0.0004832,4983.3,-0.00011767,468.64,-0.00018004,0.013466,0.11093
25822,4.5057,2.1818,0.1,0.00047571,4753.8,0.00048167,4959,-0.00011962,441.12,-0.00017832,0.011124,0.11522
25823,4.4138,2.4545,0.1,0.00047569,4753.6,0.00048208,4977.6,-0.00011581,485.27,-0.0001804,0.016653,0.11119
25824,4.5057,2.3636,0.1,0.00047431,4739.8,0.00048045,4952.7,-0.0001176,459.22,-0.00017872,0.014675,0.11552
25825,4.4138,2.6364,0.1,0.00047477,4744.4,0.00048127,4973.5,-0.00011448,497.28,-0.00018066,0.018891,0.11138
25826,4.5057,2.5455,0.1,0.00047325,4729.3,0.00047952,4948,-0.00011607,472.98,-0.00017901,0.017286,0.11575
25827,4.4138,2.8182,0.1,0.00047422,4738.9,0.00048078,4971,-0.00011367,504.55,-0.00018082,0.020219,0.11149
25828,4.5057,2.7273,0.1,0.00047254,4722.2,0.0004789,4944.8,-0.00011503,482.24,-0.00017921,0.019005,0.1159
25829,4.4138,3,0.1,0.00047404,4737.1,0.00048062,4970.2,-0.0001134,506.98,-0.00018087,0.020659,0.11153
25830,4.5057,2.9091,0.1,0.00047219,4718.6,0.00047858,4943.2,-0.00011452,486.9,-0.00017931,0.019858,0.11598
25831,4.4138,3.1818,0.1,0.00047422,4738.9,0.00048078,4971,-0.00011367,504.55,-0.00018082,0.020219,0.11149
25832,4.5057,3.0909,0.1,0.00047219,4718.6,0.00047858,4943.2,-0.00011452,486.9,-0.00017931,0.019858,0.11598
25833,4.4138,3.3636,0.1,0.00047477,4744.4,0.00048127,4973.5,-0.00011448,497.28,-0.00018066,0.018891,0.11138
25834,4.5057,3.2727,0.1,0.00047254,4722.2,0.0004789,4944.8,-0.00011503,482.24,-0.00017921,0.019005,0.1159
25835,4.4138,3.5455,0.1,0.00047569,4753.6,0.00048208,4977.6,-0.00011581,485.27,-0.0001804,0.016653,0.11119
25836,4.5057,3.4545,0.1,0.00047325,4729.3,0.00047952,4948,-0.00011607,472.98,-0.00017901,0.017287,0.11575
25837,4.4138,3.7273,0.1,0.00047696,4766.3,0.0004832,4983.3,-0.00011767,468.64,-0.00018004,0.013466,0.11093
25838,4.5057,3.6364,0.1,0.00047431,4739.8,0.00048045,4952.7,-0.0001176,459.22,-0.00017872,0.014675,0.11552
25839,4.4138,3.9091,0.1,0.00047857,4782.4,0.00048461,4990.5,-0.00012001,447.58,-0.00017958,0.0092689,0.11058
25840,4.5057,3.8182,0.1,0.00047571,4753.8,0.00048167,4959,-0.00011962,441.12,-0.00017832,0.011124,0.11522
25841,4.4138,4.0909,0.1,0.00048051,4801.8,0.0004863,4999,-0.00012282,422.34,-0.00017903,0.0039771,0.11016
25842,4.5057,4,0.1,0.00047743,4771,0.00048317,4966.6,-0.00012209,418.88,-0.00017784,0.0065685,0.11483
25843,4.4138,4.2727,0.1,0.00048277,4824.4,0.00048826,5009,-0.00012606,393.2,-0.00017839,-0.0025309,0.10966
25844,4.5057,4.1818,0.1,0.00047946,4791.3,0.00048493,4975.6,-0.00012501,392.75,-0.00017728,0.00091265,0.11437
25845,4.4138,4.4545,0.1,0.00048533,4849.9,0.00049045,5020.1,-0.0001297,360.47,-0.00017768,-0.010459,0.10907
25846,4.5057,4.3636,0.1,0.00048179,4814.6,0.00048693,4985.8,-0.00012832,363.03,-0.00017663,-0.0059801,0.11382
25847,4.4138,4.6364,0.1,0.00048815,4878.1,0.00049286,5032.3,-0.0001337,324.53,-0.0001769,-0.020056,0.1084
25848,4.5057,4.5455,0.1,0.00048439,4840.5,0.00048916,4997.1,-0.00013199,330.03,-0.00017592,-0.014369,0.11319
25849,4.4138,4.8182,0.1,0.00049122,4908.8,0.00049545,5045.4,-0.00013802,285.74,-0.00017605,-0.03204,0.10764
25850,4.5057,4.7273,0.1,0.00048723,4869,0.00049157,5009.3,-0.00013599,294.1,-0.00017514,-0.024491,0.11246
25851,4.4138,5,0.1,0.0004945,4941.6,0.00049821,5059.3,-0.0001426,244.52,-0.00017515,-0.046525,0.10679
25852,4.5057,4.9091,0.1,0.0004903,4899.7,0.00049415,5022.4,-0.00014027,255.63,-0.0001743,-0.037525,0.11166
25853,4.4138,5.1818,0.1,0.00049797,4976.3,0.00050109,5073.8,-0.00014741,201.27,-0.00017421,-0.068827,0.10585
25854,4.5057,5.0909,0.1,0.00049357,4932.3,0.00049687,5036.2,-0.00014479,215.01,-0.00017342,-0.05261,0.11075
25855,4.4138,5.3636,0.1,0.0005016,5012.6,0.00050408,5088.9,-0.00015239,156.42,-0.00017322,-0.08915,0.10481
25856,4.5057,5.2727,0.1,0.000497,4966.5,0.00049971,5050.6,-0.00014951,172.61,-0.00017249,-0.081097,0.10976
25857,4.4138,5.5455,0.1,0.00050536,5050.1,0.00050714,5104.2,-0.00015751,110.3,-0.00017222,-0.19676,0.10367
25858,4.5057,5.4545,0.1,0.00050056,5002.2,0.00050263,5065.3,-0.00015437,128.86,-0.00017153,-0.093758,0.10866
25859,4.4138,5.7273,0.1,0.00050925,5089,0.00051029,5120.1,-0.00016276,63.055,-0.00017119,-0.29191,0.10242
25860,4.5057,5.6364,0.1,0.00050424,5038.9,0.00050561,5080.2,-0.00015935,83.981,-0.00017057,-0.29585,0.10746
25861,4.5057,5.8182,0.1,0.00050805,5077,0.00050868,5095.8,-0.00016445,38.127,-0.00016957,-0.35426,0.10616
25862,4.4138,5.9091,0.1,0.00051265,5123,0.000513,5133.2,-0.00016742,20.836,-0.00017023,-0.25365,0.10107
25863,4.5977,0.27273,0.1,0.00050304,5026.9,0.00050401,5056,-0.00016106,58.911,-0.00016893,-0.26175,0.11131
25864,4.6897,0.18182,0.1,0.00050173,5013.8,0.00050232,5031.5,-0.00016256,35.805,-0.00016737,-0.31084,0.11521
25865,4.5977,0.090909,0.1,0.00050623,5058.8,0.00050656,5068.5,-0.0001654,19.671,-0.00016805,-0.23531,0.10995
25866,4.5977,0.45455,0.1,0.00049944,4990.9,0.0005011,5041.3,-0.00015622,102.48,-0.00016988,-0.17919,0.11256
25867,4.6897,0.36364,0.1,0.0004982,4978.6,0.00049948,5017,-0.00015785,78.101,-0.00016828,-0.26979,0.11652
25868,4.5977,0.63636,0.1,0.00049596,4956.1,0.00049826,5027,-0.00015149,145,-0.0001708,-0.080898,0.11372
25869,4.6897,0.54545,0.1,0.00049479,4944.5,0.00049672,5003.1,-0.00015326,119.49,-0.00016917,-0.084858,0.11773
25870,4.5977,0.81818,0.1,0.00049259,4922.5,0.00049549,5013,-0.0001469,186.3,-0.0001717,-0.062632,0.11477
25871,4.6897,0.72727,0.1,0.00049149,4911.5,0.00049401,4989.4,-0.00014877,159.81,-0.00017005,-0.073807,0.11884
25872,4.5977,1,0.1,0.00048937,4890.3,0.00049282,4999.4,-0.00014247,226.08,-0.00017256,-0.042343,0.11572
25873,4.6897,0.90909,0.1,0.00048831,4879.7,0.00049139,4976.1,-0.00014443,198.82,-0.00017089,-0.04787,0.11984
25874,4.5977,1.1818,0.1,0.00048632,4859.9,0.00049027,4986.4,-0.00013825,263.96,-0.00017339,-0.029171,0.11658
25875,4.6897,1.0909,0.1,0.00048528,4849.5,0.00048887,4963.2,-0.00014027,236.17,-0.0001717,-0.034177,0.12076
25876,4.5977,1.3636,0.1,0.00048347,4831.4,0.00048787,4974.2,-0.00013428,299.57,-0.00017416,-0.018245,0.11735
25877,4.6897,1.2727,0.1,0.00048243,4821,0.00048648,4951,-0.00013633,271.51,-0.00017246,-0.022306,0.12157
25878,4.5977,1.5455,0.1,0.00048085,4805.2,0.00048564,4962.8,-0.00013061,332.56,-0.00017487,-0.0094756,0.11803
25879,4.6897,1.4545,0.1,0.00047979,4794.6,0.00048424,4939.6,-0.00013265,304.48,-0.00017317,-0.013073,0.1223
25880,4.5977,1.7273,0.1,0.00047848,4781.5,0.00048361,4952.4,-0.00012726,362.57,-0.00017552,-0.0022106,0.11863
25881,4.6897,1.6364,0.1,0.00047738,4770.5,0.00048219,4929,-0.00012927,334.76,-0.00017383,-0.0054014,0.12295
25882,4.5977,1.9091,0.1,0.00047638,4760.5,0.0004818,4943.2,-0.00012428,389.29,-0.00017609,0.0037719,0.11914
25883,4.6897,1.8182,0.1,0.00047522,4748.9,0.00048034,4919.5,-0.00012623,362.01,-0.00017441,0.0009191,0.1235
25884,4.5977,2.0909,0.1,0.00047456,4742.4,0.00048023,4935.1,-0.0001217,412.42,-0.00017659,0.0086523,0.11957
25885,4.6897,2,0.1,0.00047332,4730,0.00047871,4911.1,-0.00012356,385.96,-0.00017492,0.0061206,0.12398
25886,4.5977,2.2727,0.1,0.00047306,4727.3,0.00047892,4928.4,-0.00011955,431.71,-0.000177,0.012535,0.11992
25887,4.6897,2.1818,0.1,0.00047172,4714,0.00047732,4904,-0.00012128,406.34,-0.00017536,0.010322,0.12437
25888,4.5977,2.4545,0.1,0.00047188,4715.5,0.00047789,4923.1,-0.00011785,446.95,-0.00017733,0.015493,0.12019
25889,4.6897,2.3636,0.1,0.00047042,4701,0.00047619,4898.2,-0.00011943,422.92,-0.00017572,0.013607,0.12468
25890,4.5977,2.6364,0.1,0.00047102,4707,0.00047714,4919.2,-0.00011662,457.96,-0.00017757,0.017574,0.12038
25891,4.6897,2.5455,0.1,0.00046944,4691.1,0.00047533,4893.7,-0.00011802,435.52,-0.00017599,0.016029,0.12491
25892,4.5977,2.8182,0.1,0.00047051,4701.9,0.00047669,4916.9,-0.00011588,464.61,-0.00017771,0.018811,0.12049
25893,4.6897,2.7273,0.1,0.00046878,4684.5,0.00047475,4890.7,-0.00011708,444.01,-0.00017617,0.017625,0.12507
25894,4.5977,3,0.1,0.00047034,4700.1,0.00047654,4916.1,-0.00011563,466.84,-0.00017776,0.019222,0.12053
25895,4.6897,2.9091,0.1,0.00046844,4681.2,0.00047446,4889.2,-0.0001166,448.27,-0.00017626,0.018419,0.12514
25896,4.5977,3.1818,0.1,0.00047051,4701.9,0.00047669,4916.9,-0.00011588,464.61,-0.00017771,0.018811,0.12049
25897,4.6897,3.0909,0.1,0.00046844,4681.2,0.00047446,4889.2,-0.0001166,448.27,-0.00017626,0.018419,0.12514
25898,4.5977,3.3636,0.1,0.00047102,4707,0.00047714,4919.2,-0.00011662,457.96,-0.00017757,0.017574,0.12038
25899,4.6897,3.2727,0.1,0.00046878,4684.5,0.00047475,4890.7,-0.00011708,444.01,-0.00017617,0.017625,0.12507
25900,4.5977,3.5455,0.1,0.00047188,4715.5,0.00047789,4923.1,-0.00011785,446.95,-0.00017733,0.015493,0.12019
25901,4.6897,3.4545,0.1,0.00046944,4691.1,0.00047533,4893.7,-0.00011802,435.52,-0.00017599,0.016029,0.12491
25902,4.5977,3.7273,0.1,0.00047306,4727.3,0.00047892,4928.4,-0.00011955,431.71,-0.000177,0.012536,0.11992
25903,4.6897,3.6364,0.1,0.00047042,4701,0.00047619,4898.2,-0.00011943,422.92,-0.00017572,0.013608,0.12468
25904,4.5977,3.9091,0.1,0.00047456,4742.4,0.00048023,4935.1,-0.0001217,412.42,-0.00017659,0.0086527,0.11957
25905,4.6897,3.8182,0.1,0.00047172,4714,0.00047732,4904,-0.00012128,406.34,-0.00017536,0.010323,0.12437
25906,4.5977,4.0909,0.1,0.00047638,4760.5,0.0004818,4943.2,-0.00012428,389.29,-0.00017609,0.0037724,0.11914
25907,4.6897,4,0.1,0.00047332,4730,0.00047871,4911.1,-0.00012356,385.96,-0.00017492,0.006121,0.12398
25908,4.5977,4.2727,0.1,0.00047848,4781.5,0.00048361,4952.4,-0.00012726,362.57,-0.00017552,-0.0022101,0.11863
25909,4.6897,4.1818,0.1,0.00047522,4748.9,0.00048034,4919.5,-0.00012623,362.01,-0.00017441,0.00091959,0.1235
25910,4.5977,4.4545,0.1,0.00048085,4805.2,0.00048564,4962.8,-0.00013061,332.56,-0.00017487,-0.009475,0.11803
25911,4.6897,4.3636,0.1,0.00047738,4770.5,0.00048219,4929,-0.00012927,334.76,-0.00017383,-0.0054009,0.12295
25912,4.5977,4.6364,0.1,0.00048347,4831.4,0.00048787,4974.2,-0.00013428,299.57,-0.00017416,-0.018245,0.11735
25913,4.6897,4.5455,0.1,0.00047979,4794.6,0.00048424,4939.6,-0.00013265,304.48,-0.00017317,-0.013073,0.1223
25914,4.5977,4.8182,0.1,0.00048632,4859.9,0.00049027,4986.4,-0.00013825,263.96,-0.00017339,-0.02917,0.11658
25915,4.6897,4.7273,0.1,0.00048243,4821,0.00048648,4951,-0.00013633,271.51,-0.00017246,-0.022306,0.12157
25916,4.5977,5,0.1,0.00048937,4890.3,0.00049282,4999.4,-0.00014247,226.08,-0.00017256,-0.042342,0.11572
25917,4.6897,4.9091,0.1,0.00048528,4849.5,0.00048887,4963.2,-0.00014027,236.17,-0.0001717,-0.034177,0.12076
25918,4.5977,5.1818,0.1,0.00049259,4922.5,0.00049549,5013,-0.0001469,186.3,-0.0001717,-0.062631,0.11477
25919,4.6897,5.0909,0.1,0.00048831,4879.7,0.00049139,4976.1,-0.00014443,198.82,-0.00017089,-0.047868,0.11984
25920,4.5977,5.3636,0.1,0.00049596,4956.1,0.00049826,5027,-0.00015149,145,-0.0001708,-0.080897,0.11372
25921,4.6897,5.2727,0.1,0.00049149,4911.5,0.00049401,4989.4,-0.00014877,159.81,-0.00017005,-0.073806,0.11884
25922,4.5977,5.5455,0.1,0.00049944,4990.9,0.0005011,5041.3,-0.00015622,102.48,-0.00016988,-0.17919,0.11256
25923,4.6897,5.4545,0.1,0.00049479,4944.5,0.00049672,5003.1,-0.00015326,119.49,-0.00016917,-0.084857,0.11773
25924,4.5977,5.7273,0.1,0.00050304,5026.9,0.00050401,5056,-0.00016106,58.911,-0.00016893,-0.26175,0.11131
25925,4.6897,5.6364,0.1,0.0004982,4978.6,0.00049948,5017,-0.00015785,78.101,-0.00016828,-0.26978,0.11652
25926,4.6897,5.8182,0.1,0.00050173,5013.8,0.00050232,5031.5,-0.00016256,35.805,-0.00016737,-0.31083,0.11521
25927,4.5977,5.9091,0.1,0.00050623,5058.8,0.00050656,5068.5,-0.0001654,19.671,-0.00016805,-0.23531,0.10995
25928,4.7816,0.27273,0.1,0.00049689,4965.4,0.00049779,4992.5,-0.00015937,54.874,-0.0001667,-0.23518,0.12054
25929,4.8736,0.18182,0.1,0.00049547,4951.3,0.00049603,4967.8,-0.00016069,33.459,-0.00016518,-0.27426,0.12461
25930,4.7816,0.090909,0.1,0.00049987,4995.3,0.00050018,5004.3,-0.0001634,18.459,-0.00016589,-0.21874,0.11917
25931,4.7816,0.45455,0.1,0.00049355,4932.1,0.0004951,4978.9,-0.0001549,95.063,-0.00016757,-0.16324,0.1218
25932,4.8736,0.36364,0.1,0.00049221,4918.7,0.0004934,4954.4,-0.00015635,72.478,-0.00016603,-0.2461,0.12592
25933,4.7816,0.63636,0.1,0.00049033,4899.9,0.00049247,4965.6,-0.00015054,134.26,-0.00016842,-0.073442,0.12296
25934,4.8736,0.54545,0.1,0.00048905,4887.1,0.00049084,4941.5,-0.00015211,110.65,-0.00016684,-0.076842,0.12714
25935,4.7816,0.81818,0.1,0.00048721,4868.7,0.00048991,4952.5,-0.0001463,172.29,-0.00016924,-0.057018,0.12402
25936,4.8736,0.72727,0.1,0.00048599,4856.6,0.00048833,4928.7,-0.00014797,147.79,-0.00016765,-0.067194,0.12825
25937,4.7816,1,0.1,0.00048422,4838.9,0.00048744,4939.9,-0.00014223,208.88,-0.00017003,-0.038561,0.12498
25938,4.8736,0.90909,0.1,0.00048304,4827.1,0.00048591,4916.3,-0.00014397,183.7,-0.00016842,-0.043579,0.12927
25939,4.7816,1.1818,0.1,0.0004814,4810.6,0.00048508,4927.8,-0.00013834,243.69,-0.00017078,-0.026586,0.12585
25940,4.8736,1.0909,0.1,0.00048024,4799.1,0.00048358,4904.4,-0.00014014,218.04,-0.00016916,-0.031153,0.13019
25941,4.7816,1.3636,0.1,0.00047875,4784.2,0.00048286,4916.4,-0.0001347,276.39,-0.00017148,-0.01663,0.12663
25942,4.8736,1.2727,0.1,0.0004776,4772.7,0.00048137,4893,-0.00013651,250.51,-0.00016986,-0.020346,0.13101
25943,4.7816,1.5455,0.1,0.00047632,4759.9,0.00048079,4905.8,-0.00013132,306.66,-0.00017213,-0.0086247,0.12732
25944,4.8736,1.4545,0.1,0.00047515,4748.2,0.0004793,4882.4,-0.00013313,280.77,-0.0001705,-0.01193,0.13175
25945,4.7816,1.7273,0.1,0.00047412,4737.9,0.00047892,4896.1,-0.00012824,334.19,-0.00017272,-0.0019776,0.12792
25946,4.8736,1.6364,0.1,0.00047291,4725.8,0.0004774,4872.5,-0.00013003,308.55,-0.00017109,-0.0049223,0.1324
25947,4.7816,1.9091,0.1,0.00047217,4718.4,0.00047724,4887.5,-0.00012551,358.68,-0.00017324,0.0035094,0.12844
25948,4.8736,1.8182,0.1,0.0004709,4705.8,0.00047569,4863.7,-0.00012724,333.54,-0.00017163,0.00086298,0.13296
25949,4.7816,2.0909,0.1,0.00047048,4701.6,0.00047579,4880,-0.00012314,379.88,-0.0001737,0.0079972,0.12888
25950,4.8736,2,0.1,0.00046915,4688.2,0.00047418,4855.9,-0.00012478,355.49,-0.00017209,0.0056349,0.13344
25951,4.7816,2.2727,0.1,0.00046909,4687.6,0.00047458,4873.7,-0.00012116,397.55,-0.00017407,0.011577,0.12923
25952,4.8736,2.1818,0.1,0.00046766,4673.4,0.0004729,4849.2,-0.00012269,374.16,-0.00017249,0.009499,0.13384
25953,4.7816,2.4545,0.1,0.00046798,4676.6,0.00047362,4868.8,-0.0001196,411.51,-0.00017437,0.014309,0.1295
25954,4.8736,2.3636,0.1,0.00046645,4661.3,0.00047186,4843.8,-0.00012099,389.35,-0.00017281,0.012526,0.13416
25955,4.7816,2.6364,0.1,0.00046719,4668.7,0.00047293,4865.2,-0.00011847,421.59,-0.00017458,0.016236,0.1297
25956,4.8736,2.5455,0.1,0.00046554,4652.2,0.00047106,4839.7,-0.0001197,400.89,-0.00017306,0.014762,0.13439
25957,4.7816,2.8182,0.1,0.00046671,4663.9,0.00047251,4863,-0.00011779,427.69,-0.00017471,0.017383,0.12982
25958,4.8736,2.7273,0.1,0.00046492,4646,0.00047053,4836.9,-0.00011883,408.66,-0.00017322,0.016238,0.13455
25959,4.7816,3,0.1,0.00046655,4662.3,0.00047237,4862.3,-0.00011757,429.73,-0.00017476,0.017763,0.12986
25960,4.8736,2.9091,0.1,0.00046461,4642.9,0.00047026,4835.5,-0.0001184,412.56,-0.0001733,0.016972,0.13463
25961,4.7816,3.1818,0.1,0.00046671,4663.9,0.00047251,4863,-0.00011779,427.69,-0.00017471,0.017383,0.12982
25962,4.8736,3.0909,0.1,0.00046461,4642.9,0.00047026,4835.5,-0.0001184,412.56,-0.0001733,0.016972,0.13463
25963,4.7816,3.3636,0.1,0.00046719,4668.7,0.00047293,4865.2,-0.00011847,421.59,-0.00017458,0.016236,0.1297
25964,4.8736,3.2727,0.1,0.00046492,4646,0.00047053,4836.9,-0.00011883,408.66,-0.00017322,0.016238,0.13455
25965,4.7816,3.5455,0.1,0.00046798,4676.6,0.00047362,4868.8,-0.0001196,411.51,-0.00017437,0.014309,0.1295
25966,4.8736,3.4545,0.1,0.00046554,4652.2,0.00047106,4839.7,-0.0001197,400.89,-0.00017306,0.014762,0.13439
25967,4.7816,3.7273,0.1,0.00046909,4687.6,0.00047458,4873.7,-0.00012116,397.55,-0.00017407,0.011577,0.12923
25968,4.8736,3.6364,0.1,0.00046645,4661.3,0.00047186,4843.8,-0.00012099,389.35,-0.00017281,0.012527,0.13416
25969,4.7816,3.9091,0.1,0.00047048,4701.6,0.00047579,4880,-0.00012314,379.88,-0.0001737,0.0079976,0.12888
25970,4.8736,3.8182,0.1,0.00046766,4673.4,0.0004729,4849.2,-0.00012269,374.16,-0.00017249,0.0094994,0.13384
25971,4.7816,4.0909,0.1,0.00047217,4718.4,0.00047724,4887.5,-0.00012551,358.68,-0.00017324,0.0035099,0.12844
25972,4.8736,4,0.1,0.00046915,4688.2,0.00047418,4855.9,-0.00012478,355.49,-0.00017209,0.0056354,0.13344
25973,4.7816,4.2727,0.1,0.00047412,4737.9,0.00047892,4896.1,-0.00012824,334.19,-0.00017272,-0.001977,0.12792
25974,4.8736,4.1818,0.1,0.0004709,4705.8,0.00047569,4863.7,-0.00012724,333.54,-0.00017163,0.00086352,0.13296
25975,4.7816,4.4545,0.1,0.00047632,4759.9,0.00048079,4905.8,-0.00013132,306.66,-0.00017213,-0.0086241,0.12732
25976,4.8736,4.3636,0.1,0.00047291,4725.8,0.0004774,4872.5,-0.00013003,308.55,-0.00017109,-0.0049217,0.1324
25977,4.7816,4.6364,0.1,0.00047875,4784.2,0.00048286,4916.4,-0.0001347,276.39,-0.00017148,-0.01663,0.12663
25978,4.8736,4.5455,0.1,0.00047515,4748.2,0.0004793,4882.4,-0.00013313,280.77,-0.0001705,-0.011929,0.13175
25979,4.7816,4.8182,0.1,0.0004814,4810.6,0.00048508,4927.8,-0.00013834,243.69,-0.00017078,-0.026585,0.12585
25980,4.8736,4.7273,0.1,0.0004776,4772.7,0.00048137,4893,-0.00013651,250.51,-0.00016985,-0.020345,0.13101
25981,4.7816,5,0.1,0.00048422,4838.9,0.00048744,4939.9,-0.00014223,208.88,-0.00017003,-0.03856,0.12498
25982,4.8736,4.9091,0.1,0.00048024,4799.1,0.00048358,4904.4,-0.00014014,218.04,-0.00016916,-0.031152,0.13019
25983,4.7816,5.1818,0.1,0.00048721,4868.7,0.00048991,4952.5,-0.0001463,172.29,-0.00016924,-0.057017,0.12402
25984,4.8736,5.0909,0.1,0.00048304,4827.1,0.00048591,4916.3,-0.00014397,183.7,-0.00016842,-0.043578,0.12927
25985,4.7816,5.3636,0.1,0.00049033,4899.9,0.00049247,4965.6,-0.00015054,134.26,-0.00016842,-0.073442,0.12296
25986,4.8736,5.2727,0.1,0.00048599,4856.6,0.00048833,4928.7,-0.00014797,147.79,-0.00016765,-0.067193,0.12825
25987,4.7816,5.5455,0.1,0.00049355,4932.1,0.0004951,4978.9,-0.0001549,95.063,-0.00016757,-0.16324,0.1218
25988,4.8736,5.4545,0.1,0.00048905,4887.1,0.00049084,4941.5,-0.00015211,110.65,-0.00016684,-0.076841,0.12714
25989,4.7816,5.7273,0.1,0.00049689,4965.4,0.00049779,4992.5,-0.00015937,54.874,-0.0001667,-0.23518,0.12054
25990,4.8736,5.6364,0.1,0.00049221,4918.7,0.0004934,4954.4,-0.00015635,72.478,-0.00016603,-0.2461,0.12592
25991,4.8736,5.8182,0.1,0.00049547,4951.3,0.00049603,4967.8,-0.00016069,33.459,-0.00016518,-0.27426,0.12461
25992,4.7816,5.9091,0.1,0.00049987,4995.2,0.00050018,5004.3,-0.0001634,18.459,-0.00016589,-0.21874,0.11917
25993,4.9655,0.27273,0.1,0.00049079,4904.5,0.00049163,4929.7,-0.00015769,50.96,-0.0001645,-0.21171,0.1301
25994,5.0575,0.18182,0.1,0.00048928,4889.4,0.0004898,4904.8,-0.00015885,31.115,-0.00016302,-0.24334,0.13434
25995,4.9655,0.090909,0.1,0.00049357,4932.3,0.00049386,4940.8,-0.00016143,17.219,-0.00016375,-0.20377,0.12873
25996,4.9655,0.45455,0.1,0.00048771,4873.7,0.00048914,4917,-0.00015356,88.028,-0.0001653,-0.14875,0.13137
25997,5.0575,0.36364,0.1,0.00048626,4859.3,0.00048736,4892.4,-0.00015484,67.115,-0.0001638,-0.22454,0.13566
25998,4.9655,0.63636,0.1,0.00048472,4843.8,0.00048671,4904.7,-0.00014954,124.16,-0.00016607,-0.066698,0.13254
25999,5.0575,0.54545,0.1,0.00048334,4830,0.00048499,4880.3,-0.00015092,102.32,-0.00016455,-0.069611,0.13688
26000,4.9655,0.81818,0.1,0.00048183,4814.9,0.00048434,4892.5,-0.00014563,159.17,-0.00016683,-0.051927,0.1336
26001,5.0575,0.72727,0.1,0.0004805,4801.7,0.00048268,4868.5,-0.00014711,136.53,-0.00016529,-0.061189,0.138
26002,4.9655,1,0.1,0.00047906,4787.3,0.00048205,4880.8,-0.00014188,192.83,-0.00016755,-0.035139,0.13457
26003,5.0575,0.90909,0.1,0.00047777,4774.4,0.00048043,4856.9,-0.00014342,169.58,-0.00016599,-0.039693,0.13902
26004,4.9655,1.1818,0.1,0.00047644,4761.1,0.00047987,4869.6,-0.00013831,224.83,-0.00016823,-0.024257,0.13545
26005,5.0575,1.0909,0.1,0.00047517,4748.5,0.00047828,4845.8,-0.00013989,201.16,-0.00016667,-0.02842,0.13994
26006,4.9655,1.3636,0.1,0.00047399,4736.7,0.00047781,4859,-0.00013495,254.86,-0.00016887,-0.015191,0.13624
26007,5.0575,1.2727,0.1,0.00047273,4724,0.00047624,4835.3,-0.00013656,230.98,-0.0001673,-0.018587,0.14078
26008,4.9655,1.5455,0.1,0.00047174,4714.1,0.00047591,4849.1,-0.00013185,282.64,-0.00016946,-0.0078897,0.13693
26009,5.0575,1.4545,0.1,0.00047046,4701.4,0.00047433,4825.4,-0.00013345,258.77,-0.00016789,-0.010922,0.14152
26010,4.9655,1.7273,0.1,0.0004697,4693.7,0.00047418,4840.1,-0.00012902,307.88,-0.00017,-0.0018165,0.13754
26011,5.0575,1.6364,0.1,0.00046839,4680.6,0.00047257,4816.3,-0.0001306,284.25,-0.00016843,-0.0045287,0.14218
26012,4.9655,1.9091,0.1,0.00046789,4675.6,0.00047263,4832.1,-0.00012651,330.34,-0.00017048,0.0032063,0.13807
26013,5.0575,1.8182,0.1,0.00046653,4662.1,0.00047099,4808,-0.00012804,307.16,-0.00016892,0.0007583,0.14275
26014,4.9655,2.0909,0.1,0.00046633,4660.1,0.00047129,4825.1,-0.00012434,349.76,-0.00017089,0.0073228,0.13851
26015,5.0575,2,0.1,0.0004649,4645.8,0.0004696,4800.8,-0.00012578,327.28,-0.00016934,0.0051272,0.14323
26016,4.9655,2.2727,0.1,0.00046503,4647.1,0.00047017,4819.3,-0.00012252,365.95,-0.00017123,0.010613,0.13887
26017,5.0575,2.1818,0.1,0.00046352,4632,0.00046842,4794.6,-0.00012387,344.39,-0.0001697,0.0086713,0.14363
26018,4.9655,2.4545,0.1,0.00046401,4636.9,0.00046929,4814.6,-0.00012109,378.74,-0.0001715,0.013128,0.13914
26019,5.0575,2.3636,0.1,0.0004624,4620.8,0.00046745,4789.6,-0.00012231,358.3,-0.00017,0.011453,0.14395
26020,4.9655,2.6364,0.1,0.00046327,4629.5,0.00046865,4811.3,-0.00012006,387.97,-0.00017169,0.014905,0.13934
26021,5.0575,2.5455,0.1,0.00046155,4612.3,0.00046672,4785.7,-0.00012113,368.87,-0.00017022,0.01351,0.14419
26022,4.9655,2.8182,0.1,0.00046283,4625.1,0.00046826,4809.3,-0.00011943,393.55,-0.00017181,0.015963,0.13946
26023,5.0575,2.7273,0.1,0.00046098,4606.7,0.00046623,4783.1,-0.00012033,375.98,-0.00017037,0.01487,0.14435
26024,4.9655,3,0.1,0.00046268,4623.6,0.00046814,4808.6,-0.00011923,395.42,-0.00017185,0.016315,0.1395
26025,5.0575,2.9091,0.1,0.0004607,4603.8,0.00046598,4781.8,-0.00011993,379.56,-0.00017044,0.015546,0.14443
26026,4.9655,3.1818,0.1,0.00046283,4625.1,0.00046826,4809.3,-0.00011943,393.55,-0.00017181,0.015963,0.13946
26027,5.0575,3.0909,0.1,0.0004607,4603.8,0.00046598,4781.8,-0.00011993,379.56,-0.00017044,0.015547,0.14443
26028,4.9655,3.3636,0.1,0.00046327,4629.5,0.00046865,4811.3,-0.00012006,387.97,-0.00017169,0.014905,0.13934
26029,5.0575,3.2727,0.1,0.00046098,4606.7,0.00046623,4783.1,-0.00012033,375.98,-0.00017037,0.01487,0.14435
26030,4.9655,3.5455,0.1,0.00046401,4636.9,0.00046929,4814.6,-0.00012109,378.74,-0.0001715,0.013129,0.13914
26031,5.0575,3.4545,0.1,0.00046155,4612.3,0.00046672,4785.7,-0.00012113,368.87,-0.00017022,0.01351,0.14419
26032,4.9655,3.7273,0.1,0.00046503,4647.1,0.00047017,4819.3,-0.00012252,365.95,-0.00017123,0.010613,0.13887
26033,5.0575,3.6364,0.1,0.0004624,4620.8,0.00046745,4789.6,-0.00012231,358.3,-0.00017,0.011453,0.14395
26034,4.9655,3.9091,0.1,0.00046633,4660.1,0.00047129,4825.1,-0.00012434,349.76,-0.00017089,0.0073232,0.13851
26035,5.0575,3.8182,0.1,0.00046352,4632,0.00046842,4794.6,-0.00012387,344.39,-0.0001697,0.0086717,0.14363
26036,4.9655,4.0909,0.1,0.00046789,4675.6,0.00047263,4832.1,-0.00012651,330.34,-0.00017048,0.0032068,0.13807
26037,5.0575,4,0.1,0.0004649,4645.8,0.0004696,4800.8,-0.00012578,327.28,-0.00016934,0.0051276,0.14323
26038,4.9655,4.2727,0.1,0.0004697,4693.7,0.00047418,4840.1,-0.00012902,307.88,-0.00017,-0.001816,0.13754
26039,5.0575,4.1818,0.1,0.00046653,4662.1,0.00047099,4808,-0.00012804,307.16,-0.00016892,0.00075883,0.14275
26040,4.9655,4.4545,0.1,0.00047174,4714.1,0.00047591,4849.1,-0.00013185,282.64,-0.00016946,-0.007889,0.13693
26041,5.0575,4.3636,0.1,0.00046839,4680.6,0.00047257,4816.3,-0.0001306,284.25,-0.00016843,-0.0045281,0.14218
26042,4.9655,4.6364,0.1,0.00047399,4736.7,0.00047781,4859,-0.00013495,254.86,-0.00016887,-0.01519,0.13624
26043,5.0575,4.5455,0.1,0.00047046,4701.4,0.00047433,4825.4,-0.00013345,258.77,-0.00016789,-0.010921,0.14152
26044,4.9655,4.8182,0.1,0.00047644,4761.1,0.00047987,4869.6,-0.00013831,224.83,-0.00016823,-0.024256,0.13545
26045,5.0575,4.7273,0.1,0.00047273,4724,0.00047624,4835.3,-0.00013656,230.98,-0.0001673,-0.018586,0.14078
26046,4.9655,5,0.1,0.00047906,4787.3,0.00048205,4880.8,-0.00014188,192.83,-0.00016755,-0.035139,0.13457
26047,5.0575,4.9091,0.1,0.00047517,4748.5,0.00047828,4845.8,-0.00013989,201.16,-0.00016667,-0.02842,0.13994
26048,4.9655,5.1818,0.1,0.00048183,4814.9,0.00048434,4892.5,-0.00014563,159.17,-0.00016683,-0.051926,0.1336
26049,5.0575,5.0909,0.1,0.00047777,4774.4,0.00048043,4856.9,-0.00014342,169.58,-0.00016599,-0.039692,0.13902
26050,4.9655,5.3636,0.1,0.00048472,4843.8,0.00048671,4904.7,-0.00014954,124.16,-0.00016607,-0.066697,0.13254
26051,5.0575,5.2727,0.1,0.0004805,4801.7,0.00048268,4868.5,-0.00014711,136.53,-0.00016529,-0.061189,0.138
26052,4.9655,5.5455,0.1,0.00048771,4873.7,0.00048914,4917,-0.00015356,88.028,-0.0001653,-0.14875,0.13137
26053,5.0575,5.4545,0.1,0.00048334,4830,0.00048499,4880.3,-0.00015092,102.32,-0.00016455,-0.069611,0.13688
26054,4.9655,5.7273,0.1,0.00049079,4904.5,0.00049163,4929.7,-0.00015769,50.96,-0.0001645,-0.21171,0.1301
26055,5.0575,5.6364,0.1,0.00048626,4859.3,0.00048736,4892.4,-0.00015484,67.115,-0.0001638,-0.22454,0.13566
26056,5.0575,5.8182,0.1,0.00048928,4889.4,0.0004898,4904.8,-0.00015885,31.115,-0.00016302,-0.24334,0.13434
26057,4.9655,5.9091,0.1,0.00049357,4932.3,0.00049386,4940.8,-0.00016143,17.219,-0.00016375,-0.20377,0.12873
26058,5.1494,0.27273,0.1,0.00048475,4844.1,0.00048553,4867.4,-0.00015601,47.182,-0.00016231,-0.19092,0.14
26059,5.2414,0.18182,0.1,0.00048315,4828.1,0.00048363,4842.4,-0.00015702,28.793,-0.00016088,-0.21714,0.1444
26060,5.1494,0.090909,0.1,0.00048733,4870,0.0004876,4877.8,-0.00015948,15.968,-0.00016163,-0.19024,0.13863
26061,5.1494,0.45455,0.1,0.00048189,4815.6,0.00048322,4855.7,-0.0001522,81.372,-0.00016305,-0.13555,0.14127
26062,5.2414,0.36364,0.1,0.00048036,4800.2,0.00048138,4830.9,-0.00015332,62.011,-0.0001616,-0.20489,0.14572
26063,5.1494,0.63636,0.1,0.00047912,4787.9,0.00048097,4844.2,-0.00014849,114.67,-0.00016376,-0.060589,0.14244
26064,5.2414,0.54545,0.1,0.00047765,4773.2,0.00047918,4819.7,-0.0001497,94.469,-0.00016229,-0.06308,0.14694
26065,5.1494,0.81818,0.1,0.00047645,4761.2,0.00047878,4832.9,-0.00014489,146.91,-0.00016445,-0.047306,0.14351
26066,5.2414,0.72727,0.1,0.00047502,4747,0.00047704,4808.7,-0.00014619,125.99,-0.00016296,-0.055733,0.14807
26067,5.1494,1,0.1,0.00047389,4735.6,0.00047666,4822,-0.00014144,177.88,-0.00016511,-0.032043,0.14449
26068,5.2414,0.90909,0.1,0.0004725,4721.7,0.00047496,4798,-0.00014279,156.4,-0.00016361,-0.036173,0.14909
26069,5.1494,1.1818,0.1,0.00047146,4711.4,0.00047465,4811.6,-0.00013815,207.29,-0.00016574,-0.022158,0.14537
26070,5.2414,1.0909,0.1,0.00047009,4697.7,0.00047297,4787.7,-0.00013954,185.44,-0.00016423,-0.025951,0.15002
26071,5.1494,1.3636,0.1,0.0004692,4688.7,0.00047275,4801.7,-0.00013506,234.87,-0.00016632,-0.013908,0.14616
26072,5.2414,1.2727,0.1,0.00046783,4675.1,0.00047109,4777.9,-0.00013648,212.84,-0.00016481,-0.017009,0.15086
26073,5.1494,1.5455,0.1,0.00046711,4667.9,0.00047099,4792.6,-0.00013221,260.36,-0.00016686,-0.0072561,0.14687
26074,5.2414,1.4545,0.1,0.00046573,4654.1,0.00046933,4768.7,-0.00013362,238.35,-0.00016535,-0.010034,0.15161
26075,5.1494,1.7273,0.1,0.00046522,4649,0.00046939,4784.2,-0.00012962,283.52,-0.00016735,-0.0017147,0.14748
26076,5.2414,1.6364,0.1,0.00046381,4634.9,0.00046771,4760.2,-0.00013101,261.73,-0.00016584,-0.004208,0.15227
26077,5.1494,1.9091,0.1,0.00046354,4632.2,0.00046797,4776.8,-0.00012731,304.1,-0.00016778,0.0028755,0.14801
26078,5.2414,1.8182,0.1,0.00046209,4617.7,0.00046625,4752.6,-0.00012865,282.74,-0.00016628,0.00061655,0.15285
26079,5.1494,2.0909,0.1,0.0004621,4617.8,0.00046673,4770.3,-0.00012532,321.9,-0.00016816,0.0066434,0.14846
26080,5.2414,2,0.1,0.00046058,4602.7,0.00046497,4745.9,-0.00012658,301.18,-0.00016667,0.0046091,0.15334
26081,5.1494,2.2727,0.1,0.0004609,4605.8,0.0004657,4764.9,-0.00012365,336.73,-0.00016847,0.0096593,0.14882
26082,5.2414,2.1818,0.1,0.00045931,4589.9,0.00046388,4740.1,-0.00012483,316.85,-0.00016699,0.0078526,0.15374
26083,5.1494,2.4545,0.1,0.00045995,4596.3,0.00046488,4760.6,-0.00012234,348.44,-0.00016871,0.011969,0.1491
26084,5.2414,2.3636,0.1,0.00045827,4579.5,0.00046299,4735.4,-0.0001234,329.59,-0.00016726,0.010402,0.15407
26085,5.1494,2.6364,0.1,0.00045927,4589.5,0.0004643,4757.5,-0.00012139,356.89,-0.00016889,0.013601,0.1493
26086,5.2414,2.5455,0.1,0.00045748,4571.7,0.00046231,4731.9,-0.00012231,339.27,-0.00016746,0.012289,0.15431
26087,5.1494,2.8182,0.1,0.00045885,4585.4,0.00046394,4755.7,-0.00012082,362,-0.000169,0.014575,0.14942
26088,5.2414,2.7273,0.1,0.00045696,4566.4,0.00046186,4729.5,-0.00012158,345.78,-0.0001676,0.013537,0.15447
26089,5.1494,3,0.1,0.00045872,4584,0.00046382,4755,-0.00012063,363.71,-0.00016903,0.014898,0.14946
26090,5.2414,2.9091,0.1,0.00045669,4563.8,0.00046163,4728.3,-0.00012121,349.05,-0.00016767,0.014159,0.15455
26091,5.1494,3.1818,0.1,0.00045885,4585.4,0.00046394,4755.7,-0.00012082,362,-0.000169,0.014575,0.14942
26092,5.2414,3.0909,0.1,0.00045669,4563.8,0.00046163,4728.3,-0.00012121,349.05,-0.00016767,0.014159,0.15455
26093,5.1494,3.3636,0.1,0.00045927,4589.5,0.0004643,4757.5,-0.00012139,356.89,-0.00016889,0.013601,0.1493
26094,5.2414,3.2727,0.1,0.00045696,4566.4,0.00046186,4729.5,-0.00012158,345.78,-0.0001676,0.013538,0.15447
26095,5.1494,3.5455,0.1,0.00045995,4596.3,0.00046488,4760.6,-0.00012234,348.44,-0.00016871,0.011969,0.1491
26096,5.2414,3.4545,0.1,0.00045748,4571.7,0.00046231,4731.9,-0.00012231,339.27,-0.00016746,0.012289,0.15431
26097,5.1494,3.7273,0.1,0.0004609,4605.8,0.0004657,4764.9,-0.00012365,336.73,-0.00016847,0.0096597,0.14882
26098,5.2414,3.6364,0.1,0.00045827,4579.5,0.00046299,4735.4,-0.0001234,329.59,-0.00016726,0.010402,0.15407
26099,5.1494,3.9091,0.1,0.0004621,4617.8,0.00046673,4770.3,-0.00012532,321.9,-0.00016816,0.0066438,0.14846
26100,5.2414,3.8182,0.1,0.00045931,4589.9,0.00046388,4740.1,-0.00012483,316.85,-0.00016699,0.007853,0.15374
26101,5.1494,4.0909,0.1,0.00046354,4632.2,0.00046797,4776.8,-0.00012731,304.1,-0.00016778,0.002876,0.14801
26102,5.2414,4,0.1,0.00046058,4602.7,0.00046497,4745.9,-0.00012658,301.18,-0.00016667,0.0046095,0.15334
26103,5.1494,4.2727,0.1,0.00046522,4649,0.00046939,4784.2,-0.00012962,283.52,-0.00016735,-0.0017142,0.14748
26104,5.2414,4.1818,0.1,0.00046209,4617.7,0.00046625,4752.6,-0.00012865,282.74,-0.00016628,0.00061705,0.15285
26105,5.1494,4.4545,0.1,0.00046711,4667.9,0.00047099,4792.6,-0.00013221,260.36,-0.00016686,-0.0072555,0.14687
26106,5.2414,4.3636,0.1,0.00046381,4634.9,0.00046771,4760.2,-0.00013101,261.73,-0.00016584,-0.0042074,0.15227
26107,5.1494,4.6364,0.1,0.0004692,4688.7,0.00047275,4801.7,-0.00013506,234.87,-0.00016632,-0.013907,0.14616
26108,5.2414,4.5455,0.1,0.00046573,4654.1,0.00046933,4768.7,-0.00013362,238.35,-0.00016535,-0.010033,0.15161
26109,5.1494,4.8182,0.1,0.00047146,4711.4,0.00047465,4811.6,-0.00013815,207.29,-0.00016574,-0.022158,0.14537
26110,5.2414,4.7273,0.1,0.00046783,4675.1,0.00047109,4777.9,-0.00013648,212.84,-0.00016481,-0.017008,0.15086
26111,5.1494,5,0.1,0.00047389,4735.6,0.00047666,4822,-0.00014144,177.88,-0.00016511,-0.032042,0.14449
26112,5.2414,4.9091,0.1,0.00047009,4697.7,0.00047297,4787.7,-0.00013954,185.44,-0.00016423,-0.02595,0.15002
26113,5.1494,5.1818,0.1,0.00047645,4761.2,0.00047878,4832.9,-0.00014489,146.91,-0.00016445,-0.047305,0.14351
26114,5.2414,5.0909,0.1,0.0004725,4721.7,0.00047496,4798,-0.00014279,156.4,-0.00016361,-0.036171,0.14909
26115,5.1494,5.3636,0.1,0.00047912,4787.9,0.00048097,4844.2,-0.00014849,114.67,-0.00016376,-0.060589,0.14244
26116,5.2414,5.2727,0.1,0.00047502,4747,0.00047704,4808.7,-0.00014619,125.99,-0.00016296,-0.055733,0.14807
26117,5.1494,5.5455,0.1,0.00048189,4815.6,0.00048322,4855.7,-0.0001522,81.372,-0.00016305,-0.13555,0.14127
26118,5.2414,5.4545,0.1,0.00047765,4773.2,0.00047918,4819.7,-0.0001497,94.469,-0.00016229,-0.063079,0.14694
26119,5.1494,5.7273,0.1,0.00048475,4844.1,0.00048553,4867.4,-0.00015601,47.182,-0.00016231,-0.19092,0.14
26120,5.2414,5.6364,0.1,0.00048036,4800.2,0.00048138,4830.8,-0.00015332,62.011,-0.0001616,-0.20488,0.14572
26121,5.2414,5.8182,0.1,0.00048315,4828.1,0.00048363,4842.4,-0.00015702,28.793,-0.00016088,-0.21714,0.1444
26122,5.1494,5.9091,0.1,0.00048733,4870,0.0004876,4877.8,-0.00015948,15.968,-0.00016163,-0.19024,0.13863
26123,5.3333,0.27273,0.1,0.00047876,4784.3,0.00047948,4805.8,-0.00015434,43.549,-0.00016016,-0.17246,0.15023
26124,5.4253,0.18182,0.1,0.00047708,4767.5,0.00047752,4780.6,-0.00015521,26.51,-0.00015876,-0.19491,0.15479
26125,5.3333,0.090909,0.1,0.00048115,4808.2,0.0004814,4815.5,-0.00015754,14.719,-0.00015952,-0.17805,0.14885
26126,5.3333,0.45455,0.1,0.00047611,4757.8,0.00047734,4794.9,-0.00015082,75.082,-0.00016083,-0.12353,0.1515
26127,5.4253,0.36364,0.1,0.00047449,4741.7,0.00047544,4769.9,-0.00015179,57.166,-0.00015942,-0.18695,0.15611
26128,5.3333,0.63636,0.1,0.00047355,4732.2,0.00047526,4784.2,-0.0001474,105.77,-0.00016149,-0.055051,0.15267
26129,5.4253,0.54545,0.1,0.00047199,4716.6,0.00047341,4759.5,-0.00014846,87.086,-0.00016005,-0.057171,0.15734
26130,5.3333,0.81818,0.1,0.00047107,4707.5,0.00047323,4773.7,-0.00014409,135.45,-0.00016212,-0.04311,0.15375
26131,5.4253,0.72727,0.1,0.00046956,4692.3,0.00047142,4749.3,-0.00014521,116.12,-0.00016067,-0.05077,0.15846
26132,5.3333,1,0.1,0.0004687,4683.8,0.00047128,4763.6,-0.0001409,163.94,-0.00016272,-0.02924,0.15473
26133,5.4253,0.90909,0.1,0.00046722,4669,0.00046951,4739.4,-0.00014209,144.1,-0.00016127,-0.03298,0.15949
26134,5.3333,1.1818,0.1,0.00046646,4661.4,0.00046942,4753.9,-0.00013788,190.97,-0.0001633,-0.020267,0.15562
26135,5.4253,1.0909,0.1,0.000465,4646.8,0.00046767,4729.8,-0.0001391,170.8,-0.00016183,-0.023718,0.16042
26136,5.3333,1.3636,0.1,0.00046437,4640.4,0.00046767,4744.8,-0.00013504,216.3,-0.00016383,-0.012765,0.15641
26137,5.4253,1.2727,0.1,0.0004629,4625.8,0.00046593,4720.7,-0.00013628,195.98,-0.00016236,-0.015593,0.16127
26138,5.3333,1.5455,0.1,0.00046243,4621.1,0.00046604,4736.3,-0.00013242,239.7,-0.00016432,-0.006711,0.15712
26139,5.4253,1.4545,0.1,0.00046096,4606.4,0.0004643,4712.2,-0.00013365,219.4,-0.00016286,-0.0092524,0.16202
26140,5.3333,1.7273,0.1,0.00046068,4603.7,0.00046457,4728.6,-0.00013004,260.94,-0.00016477,-0.0016611,0.15774
26141,5.4253,1.6364,0.1,0.00045919,4588.7,0.00046281,4704.4,-0.00013125,240.85,-0.00016331,-0.0039492,0.16269
26142,5.3333,1.9091,0.1,0.00045913,4588.2,0.00046325,4721.7,-0.00012792,279.81,-0.00016516,0.0025271,0.15827
26143,5.4253,1.8182,0.1,0.00045759,4572.8,0.00046146,4697.3,-0.00012909,260.12,-0.00016371,0.00044721,0.16326
26144,5.3333,2.0909,0.1,0.0004578,4574.8,0.00046211,4715.7,-0.00012609,296.12,-0.0001655,0.0059694,0.15872
26145,5.4253,2,0.1,0.0004562,4558.9,0.00046028,4691.1,-0.00012719,277.02,-0.00016406,0.0040897,0.16376
26146,5.3333,2.2727,0.1,0.00045668,4563.7,0.00046116,4710.7,-0.00012457,309.71,-0.00016579,0.0087284,0.15909
26147,5.4253,2.1818,0.1,0.00045502,4547.1,0.00045928,4685.8,-0.00012558,291.38,-0.00016436,0.0070526,0.16417
26148,5.3333,2.4545,0.1,0.00045581,4554.9,0.00046041,4706.7,-0.00012336,320.43,-0.00016601,0.010843,0.15937
26149,5.4253,2.3636,0.1,0.00045406,4537.5,0.00045846,4681.4,-0.00012427,303.05,-0.0001646,0.0093833,0.16449
26150,5.3333,2.6364,0.1,0.00045518,4548.6,0.00045987,4703.8,-0.00012249,328.17,-0.00016617,0.012339,0.15957
26151,5.4253,2.5455,0.1,0.00045334,4530.2,0.00045784,4678.1,-0.00012327,311.91,-0.00016478,0.01111,0.16473
26152,5.3333,2.8182,0.1,0.0004548,4544.8,0.00045954,4702.1,-0.00012197,332.84,-0.00016627,0.013232,0.15969
26153,5.4253,2.7273,0.1,0.00045285,4525.3,0.00045742,4675.9,-0.0001226,317.87,-0.00016491,0.012254,0.1649
26154,5.3333,3,0.1,0.00045467,4543.5,0.00045943,4701.5,-0.00012179,334.41,-0.0001663,0.013529,0.15973
26155,5.4253,2.9091,0.1,0.0004526,4522.9,0.00045721,4674.8,-0.00012227,320.87,-0.00016497,0.012824,0.16498
26156,5.3333,3.1818,0.1,0.0004548,4544.8,0.00045954,4702.1,-0.00012197,332.84,-0.00016627,0.013232,0.15969
26157,5.4253,3.0909,0.1,0.0004526,4522.9,0.00045721,4674.8,-0.00012227,320.87,-0.00016497,0.012824,0.16498
26158,5.3333,3.3636,0.1,0.00045518,4548.6,0.00045987,4703.8,-0.00012249,328.17,-0.00016617,0.012339,0.15957
26159,5.4253,3.2727,0.1,0.00045285,4525.3,0.00045742,4675.9,-0.0001226,317.87,-0.00016491,0.012254,0.1649
26160,5.3333,3.5455,0.1,0.00045581,4554.9,0.00046041,4706.7,-0.00012336,320.43,-0.00016601,0.010843,0.15937
26161,5.4253,3.4545,0.1,0.00045334,4530.2,0.00045784,4678.1,-0.00012327,311.91,-0.00016478,0.01111,0.16473
26162,5.3333,3.7273,0.1,0.00045668,4563.7,0.00046116,4710.7,-0.00012457,309.71,-0.00016579,0.0087287,0.15909
26163,5.4253,3.6364,0.1,0.00045406,4537.5,0.00045846,4681.4,-0.00012427,303.05,-0.0001646,0.0093836,0.16449
26164,5.3333,3.9091,0.1,0.0004578,4574.8,0.00046211,4715.7,-0.00012609,296.12,-0.0001655,0.0059699,0.15872
26165,5.4253,3.8182,0.1,0.00045502,4547.1,0.00045928,4685.8,-0.00012558,291.38,-0.00016436,0.0070529,0.16417
26166,5.3333,4.0909,0.1,0.00045913,4588.2,0.00046325,4721.7,-0.00012792,279.81,-0.00016516,0.0025276,0.15827
26167,5.4253,4,0.1,0.0004562,4558.9,0.00046028,4691.1,-0.00012719,277.02,-0.00016406,0.0040902,0.16376
26168,5.3333,4.2727,0.1,0.00046068,4603.7,0.00046457,4728.6,-0.00013004,260.94,-0.00016477,-0.0016606,0.15774
26169,5.4253,4.1818,0.1,0.00045759,4572.8,0.00046146,4697.3,-0.00012909,260.12,-0.00016371,0.00044773,0.16326
26170,5.3333,4.4545,0.1,0.00046243,4621.1,0.00046604,4736.3,-0.00013242,239.7,-0.00016432,-0.0067104,0.15712
26171,5.4253,4.3636,0.1,0.00045919,4588.7,0.00046281,4704.4,-0.00013125,240.85,-0.00016331,-0.0039486,0.16269
26172,5.3333,4.6364,0.1,0.00046436,4640.4,0.00046767,4744.8,-0.00013504,216.3,-0.00016383,-0.012764,0.15641
26173,5.4253,4.5455,0.1,0.00046096,4606.4,0.0004643,4712.2,-0.00013365,219.4,-0.00016286,-0.0092516,0.16202
26174,5.3333,4.8182,0.1,0.00046646,4661.4,0.00046942,4753.9,-0.00013788,190.97,-0.0001633,-0.020266,0.15562
26175,5.4253,4.7273,0.1,0.0004629,4625.8,0.00046593,4720.7,-0.00013628,195.98,-0.00016236,-0.015593,0.16127
26176,5.3333,5,0.1,0.0004687,4683.8,0.00047128,4763.6,-0.0001409,163.94,-0.00016272,-0.029239,0.15473
26177,5.4253,4.9091,0.1,0.000465,4646.8,0.00046767,4729.8,-0.0001391,170.8,-0.00016183,-0.023717,0.16042
26178,5.3333,5.1818,0.1,0.00047107,4707.5,0.00047323,4773.7,-0.00014409,135.45,-0.00016212,-0.043109,0.15375
26179,5.4253,5.0909,0.1,0.00046722,4669,0.00046951,4739.4,-0.00014209,144.1,-0.00016127,-0.032979,0.15949
26180,5.3333,5.3636,0.1,0.00047355,4732.2,0.00047526,4784.2,-0.0001474,105.77,-0.00016149,-0.05505,0.15267
26181,5.4253,5.2727,0.1,0.00046956,4692.3,0.00047142,4749.3,-0.00014521,116.12,-0.00016067,-0.05077,0.15846
26182,5.3333,5.5455,0.1,0.00047611,4757.8,0.00047734,4794.9,-0.00015082,75.082,-0.00016083,-0.12353,0.1515
26183,5.4253,5.4545,0.1,0.00047199,4716.6,0.00047341,4759.5,-0.00014846,87.086,-0.00016005,-0.057171,0.15734
26184,5.3333,5.7273,0.1,0.00047876,4784.3,0.00047948,4805.8,-0.00015434,43.549,-0.00016016,-0.17246,0.15023
26185,5.4253,5.6364,0.1,0.00047449,4741.7,0.00047544,4769.9,-0.00015179,57.166,-0.00015942,-0.18695,0.15611
26186,5.4253,5.8182,0.1,0.00047708,4767.5,0.00047752,4780.6,-0.00015521,26.51,-0.00015876,-0.19491,0.15479
26187,5.3333,5.9091,0.1,0.00048115,4808.2,0.0004814,4815.5,-0.00015754,14.719,-0.00015952,-0.17804,0.14885
26188,5.5172,0.27273,0.1,0.00047281,4724.9,0.00047348,4744.7,-0.00015267,40.066,-0.00015802,-0.15603,0.16078
26189,5.6092,0.18182,0.1,0.00047107,4707.4,0.00047147,4719.4,-0.00015341,24.28,-0.00015667,-0.17603,0.1655
26190,5.5172,0.090909,0.1,0.00047503,4747,0.00047526,4753.7,-0.00015563,13.484,-0.00015744,-0.16709,0.1594
26191,5.5172,0.45455,0.1,0.00047037,4700.4,0.0004715,4734.6,-0.00014942,69.149,-0.00015864,-0.11256,0.16205
26192,5.6092,0.36364,0.1,0.00046867,4683.5,0.00046954,4709.5,-0.00015025,52.574,-0.00015727,-0.17057,0.16682
26193,5.5172,0.63636,0.1,0.000468,4676.7,0.00046958,4724.6,-0.00014627,97.419,-0.00015924,-0.050023,0.16323
26194,5.6092,0.54545,0.1,0.00046635,4660.3,0.00046766,4699.8,-0.00014718,80.15,-0.00015785,-0.051819,0.16805
26195,5.5172,0.81818,0.1,0.0004657,4653.8,0.0004677,4714.9,-0.00014322,124.75,-0.00015982,-0.039295,0.1643
26196,5.6092,0.72727,0.1,0.0004641,4637.8,0.00046583,4690.3,-0.00014419,106.88,-0.00015842,-0.046252,0.16917
26197,5.5172,1,0.1,0.00046351,4631.9,0.0004659,4705.6,-0.00014028,150.95,-0.00016038,-0.026699,0.16529
26198,5.6092,0.90909,0.1,0.00046194,4616.2,0.00046406,4681.1,-0.00014131,132.63,-0.00015897,-0.030083,0.1702
26199,5.5172,1.1818,0.1,0.00046144,4611.2,0.00046418,4696.6,-0.0001375,175.79,-0.0001609,-0.018562,0.16618
26200,5.6092,1.0909,0.1,0.00045989,4595.7,0.00046236,4672.3,-0.00013856,157.18,-0.00015948,-0.021698,0.17114
26201,5.5172,1.3636,0.1,0.0004595,4591.8,0.00046256,4688.1,-0.00013489,199.06,-0.00016139,-0.011747,0.16698
26202,5.6092,1.2727,0.1,0.00045795,4576.4,0.00046075,4663.8,-0.00013597,180.31,-0.00015997,-0.014323,0.17199
26203,5.5172,1.5455,0.1,0.00045771,4574,0.00046107,4680.3,-0.00013249,220.53,-0.00016184,-0.0062427,0.16769
26204,5.6092,1.4545,0.1,0.00045616,4558.4,0.00045925,4656,-0.00013356,201.82,-0.00016042,-0.0085643,0.17274
26205,5.5172,1.7273,0.1,0.0004561,4557.8,0.00045971,4673.1,-0.0001303,240.02,-0.00016224,-0.0016465,0.16831
26206,5.6092,1.6364,0.1,0.00045452,4542,0.00045788,4648.7,-0.00013135,221.5,-0.00016083,-0.0037427,0.17341
26207,5.5172,1.9091,0.1,0.00045466,4543.5,0.00045849,4666.7,-0.00012836,257.32,-0.0001626,0.0021694,0.16885
26208,5.6092,1.8182,0.1,0.00045304,4527.3,0.00045664,4642.2,-0.00012936,239.17,-0.0001612,0.000258,0.17399
26209,5.5172,2.0909,0.1,0.00045343,4531.2,0.00045745,4661.2,-0.00012668,272.27,-0.00016291,0.0053091,0.1693
26210,5.6092,2,0.1,0.00045176,4514.5,0.00045555,4636.4,-0.00012762,254.66,-0.00016152,0.0035762,0.17449
26211,5.5172,2.2727,0.1,0.0004524,4520.9,0.00045657,4656.5,-0.00012528,284.72,-0.00016317,0.0078278,0.16967
26212,5.6092,2.1818,0.1,0.00045067,4503.5,0.00045462,4631.5,-0.00012614,267.82,-0.00016179,0.0062778,0.1749
26213,5.5172,2.4545,0.1,0.00045159,4512.8,0.00045588,4652.8,-0.00012418,294.54,-0.00016338,0.0097599,0.16995
26214,5.6092,2.3636,0.1,0.00044978,4494.7,0.00045387,4627.5,-0.00012494,278.51,-0.00016201,0.0084047,0.17523
26215,5.5172,2.6364,0.1,0.00045101,4507,0.00045538,4650.2,-0.00012338,301.62,-0.00016352,0.011128,0.17016
26216,5.6092,2.5455,0.1,0.00044911,4488,0.0004533,4624.4,-0.00012403,286.63,-0.00016218,0.0099817,0.17547
26217,5.5172,2.8182,0.1,0.00045065,4503.4,0.00045508,4648.6,-0.0001229,305.91,-0.00016361,0.011945,0.17028
26218,5.6092,2.7273,0.1,0.00044866,4483.5,0.00045291,4622.4,-0.00012342,292.09,-0.00016229,0.011027,0.17563
26219,5.5172,3,0.1,0.00045054,4502.3,0.00045498,4648.1,-0.00012274,307.34,-0.00016364,0.012217,0.17032
26220,5.6092,2.9091,0.1,0.00044843,4481.2,0.00045272,4621.3,-0.00012311,294.83,-0.00016234,0.011548,0.17572
26221,5.5172,3.1818,0.1,0.00045065,4503.4,0.00045508,4648.6,-0.0001229,305.91,-0.00016361,0.011945,0.17028
26222,5.6092,3.0909,0.1,0.00044843,4481.2,0.00045272,4621.3,-0.00012311,294.83,-0.00016234,0.011548,0.17572
26223,5.5172,3.3636,0.1,0.00045101,4507,0.00045538,4650.2,-0.00012338,301.62,-0.00016352,0.011128,0.17016
26224,5.6092,3.2727,0.1,0.00044866,4483.5,0.00045291,4622.4,-0.00012342,292.09,-0.00016229,0.011027,0.17563
26225,5.5172,3.5455,0.1,0.00045159,4512.8,0.00045588,4652.8,-0.00012418,294.54,-0.00016338,0.0097602,0.16995
26226,5.6092,3.4545,0.1,0.00044911,4488,0.0004533,4624.4,-0.00012403,286.63,-0.00016218,0.0099818,0.17547
26227,5.5172,3.7273,0.1,0.0004524,4520.9,0.00045657,4656.5,-0.00012528,284.72,-0.00016317,0.0078281,0.16967
26228,5.6092,3.6364,0.1,0.00044978,4494.7,0.00045387,4627.5,-0.00012494,278.51,-0.00016201,0.008405,0.17523
26229,5.5172,3.9091,0.1,0.00045343,4531.2,0.00045745,4661.2,-0.00012668,272.27,-0.00016291,0.0053094,0.1693
26230,5.6092,3.8182,0.1,0.00045067,4503.5,0.00045462,4631.5,-0.00012614,267.82,-0.00016179,0.0062781,0.1749
26231,5.5172,4.0909,0.1,0.00045466,4543.5,0.00045849,4666.7,-0.00012836,257.32,-0.0001626,0.0021699,0.16885
26232,5.6092,4,0.1,0.00045176,4514.5,0.00045555,4636.4,-0.00012762,254.66,-0.00016152,0.0035766,0.17449
26233,5.5172,4.2727,0.1,0.0004561,4557.8,0.00045971,4673.1,-0.0001303,240.02,-0.00016224,-0.0016459,0.16831
26234,5.6092,4.1818,0.1,0.00045304,4527.3,0.00045664,4642.2,-0.00012936,239.17,-0.0001612,0.00025861,0.17399
26235,5.5172,4.4545,0.1,0.00045771,4574,0.00046107,4680.3,-0.00013249,220.53,-0.00016184,-0.0062419,0.16769
26236,5.6092,4.3636,0.1,0.00045452,4542,0.00045788,4648.7,-0.00013135,221.5,-0.00016083,-0.0037421,0.17341
26237,5.5172,4.6364,0.1,0.0004595,4591.8,0.00046256,4688.1,-0.00013489,199.06,-0.00016139,-0.011746,0.16698
26238,5.6092,4.5455,0.1,0.00045616,4558.4,0.00045925,4656,-0.00013356,201.82,-0.00016042,-0.0085636,0.17274
26239,5.5172,4.8182,0.1,0.00046144,4611.2,0.00046418,4696.6,-0.0001375,175.79,-0.0001609,-0.018561,0.16618
26240,5.6092,4.7273,0.1,0.00045795,4576.4,0.00046075,4663.8,-0.00013597,180.31,-0.00015997,-0.014322,0.17199
26241,5.5172,5,0.1,0.00046351,4631.9,0.0004659,4705.6,-0.00014028,150.95,-0.00016038,-0.026698,0.16529
26242,5.6092,4.9091,0.1,0.00045989,4595.7,0.00046236,4672.3,-0.00013856,157.18,-0.00015948,-0.021697,0.17114
26243,5.5172,5.1818,0.1,0.0004657,4653.8,0.0004677,4714.9,-0.00014322,124.75,-0.00015982,-0.039294,0.1643
26244,5.6092,5.0909,0.1,0.00046194,4616.2,0.00046406,4681.1,-0.00014131,132.63,-0.00015897,-0.030081,0.1702
26245,5.5172,5.3636,0.1,0.000468,4676.7,0.00046958,4724.6,-0.00014627,97.419,-0.00015924,-0.050022,0.16323
26246,5.6092,5.2727,0.1,0.0004641,4637.8,0.00046583,4690.3,-0.00014419,106.88,-0.00015842,-0.046251,0.16917
26247,5.5172,5.5455,0.1,0.00047037,4700.4,0.0004715,4734.6,-0.00014942,69.149,-0.00015864,-0.11256,0.16205
26248,5.6092,5.4545,0.1,0.00046635,4660.3,0.00046766,4699.8,-0.00014718,80.15,-0.00015785,-0.051819,0.16805
26249,5.5172,5.7273,0.1,0.00047281,4724.9,0.00047348,4744.7,-0.00015267,40.066,-0.00015802,-0.15603,0.16078
26250,5.6092,5.6364,0.1,0.00046867,4683.5,0.00046954,4709.5,-0.00015025,52.574,-0.00015727,-0.17057,0.16682
26251,5.6092,5.8182,0.1,0.00047107,4707.4,0.00047147,4719.4,-0.00015341,24.28,-0.00015667,-0.17603,0.1655
26252,5.5172,5.9091,0.1,0.00047503,4747,0.00047526,4753.7,-0.00015563,13.484,-0.00015744,-0.16709,0.1594
26253,5.7011,0.27273,0.1,0.00046692,4666,0.00046753,4684.2,-0.000151,36.737,-0.00015591,-0.14138,0.17165
26254,5.7931,0.18182,0.1,0.00046511,4647.9,0.00046548,4658.8,-0.00015163,22.114,-0.00015459,-0.16002,0.17653
26255,5.7011,0.090909,0.1,0.00046897,4686.4,0.00046917,4692.5,-0.00015373,12.271,-0.00015538,-0.1573,0.17028
26256,5.7011,0.45455,0.1,0.00046465,4643.3,0.0004657,4674.7,-0.00014801,63.558,-0.00015648,-0.10254,0.17292
26257,5.7931,0.36364,0.1,0.00046289,4625.7,0.00046369,4649.5,-0.00014871,48.229,-0.00015515,-0.15559,0.17785
26258,5.7011,0.63636,0.1,0.00046246,4621.4,0.00046392,4665.5,-0.0001451,89.6,-0.00015703,-0.045454,0.1741
26259,5.7931,0.54545,0.1,0.00046074,4604.2,0.00046195,4640.6,-0.00014587,73.639,-0.00015568,-0.046964,0.17907
26260,5.7011,0.81818,0.1,0.00046034,4600.2,0.00046219,4656.5,-0.00014229,114.75,-0.00015756,-0.035824,0.17518
26261,5.7931,0.72727,0.1,0.00045866,4583.5,0.00046025,4631.8,-0.00014312,98.253,-0.0001562,-0.042134,0.1802
26262,5.7011,1,0.1,0.00045832,4580,0.00046052,4647.8,-0.00013959,138.85,-0.00015807,-0.024396,0.17616
26263,5.7931,0.90909,0.1,0.00045666,4563.5,0.00045862,4623.2,-0.00014047,121.94,-0.0001567,-0.027451,0.18123
26264,5.7011,1.1818,0.1,0.0004564,4560.8,0.00045893,4639.5,-0.00013703,161.68,-0.00015855,-0.017024,0.17705
26265,5.7931,1.0909,0.1,0.00045476,4544.5,0.00045705,4615,-0.00013794,144.51,-0.00015717,-0.019869,0.18217
26266,5.7011,1.3636,0.1,0.00045461,4542.9,0.00045744,4631.7,-0.00013463,183.05,-0.000159,-0.010839,0.17785
26267,5.7931,1.2727,0.1,0.00045298,4526.6,0.00045557,4607.2,-0.00013556,165.76,-0.00015762,-0.013182,0.18302
26268,5.7011,1.5455,0.1,0.00045296,4526.4,0.00045607,4624.4,-0.00013242,202.77,-0.00015941,-0.0058409,0.17857
26269,5.7931,1.4545,0.1,0.00045132,4510.1,0.00045419,4599.9,-0.00013334,185.5,-0.00015803,-0.0079587,0.18378
26270,5.7011,1.7273,0.1,0.00045146,4511.5,0.00045481,4617.8,-0.00013041,220.64,-0.00015978,-0.0016631,0.17919
26271,5.7931,1.6364,0.1,0.0004498,4494.9,0.00045292,4593.2,-0.00013131,203.56,-0.0001584,-0.0035805,0.18445
26272,5.7011,1.9091,0.1,0.00045014,4498.3,0.0004537,4611.9,-0.00012863,236.5,-0.00016011,0.0018085,0.17973
26273,5.7931,1.8182,0.1,0.00044844,4481.3,0.00045178,4587.2,-0.00012949,219.77,-0.00015874,5.523e-05,0.18503
26274,5.7011,2.0909,0.1,0.000449,4486.9,0.00045273,4606.7,-0.00012709,250.21,-0.00016039,0.0046675,0.18019
26275,5.7931,2,0.1,0.00044725,4469.5,0.00045077,4581.9,-0.00012789,233.97,-0.00015903,0.0030733,0.18553
26276,5.7011,2.2727,0.1,0.00044805,4477.4,0.00045192,4602.5,-0.00012581,261.61,-0.00016062,0.006963,0.18056
26277,5.7931,2.1818,0.1,0.00044625,4459.4,0.00044992,4577.3,-0.00012654,246.03,-0.00015928,0.0055326,0.18594
26278,5.7011,2.4545,0.1,0.0004473,4469.9,0.00045129,4599.1,-0.0001248,270.6,-0.00016081,0.008725,0.18084
26279,5.7931,2.3636,0.1,0.00044543,4451.2,0.00044923,4573.6,-0.00012543,255.82,-0.00015948,0.0074701,0.18627
26280,5.7011,2.6364,0.1,0.00044676,4464.5,0.00045083,4596.6,-0.00012406,277.09,-0.00016094,0.0099732,0.18105
26281,5.7931,2.5455,0.1,0.00044481,4445,0.0004487,4570.8,-0.0001246,263.26,-0.00015963,0.0089074,0.18652
26282,5.7011,2.8182,0.1,0.00044643,4461.3,0.00045055,4595.1,-0.00012362,281.01,-0.00016102,0.010719,0.18117
26283,5.7931,2.7273,0.1,0.00044439,4440.8,0.00044835,4568.9,-0.00012403,268.26,-0.00015974,0.0098606,0.18668
26284,5.7011,3,0.1,0.00044633,4460.2,0.00045046,4594.6,-0.00012348,282.33,-0.00016105,0.010967,0.18121
26285,5.7931,2.9091,0.1,0.00044418,4438.8,0.00044817,4567.9,-0.00012375,270.77,-0.00015979,0.010336,0.18676
26286,5.7011,3.1818,0.1,0.00044643,4461.3,0.00045055,4595.1,-0.00012362,281.01,-0.00016102,0.010719,0.18117
26287,5.7931,3.0909,0.1,0.00044418,4438.8,0.00044817,4567.9,-0.00012375,270.77,-0.00015979,0.010336,0.18676
26288,5.7011,3.3636,0.1,0.00044676,4464.5,0.00045083,4596.6,-0.00012406,277.09,-0.00016094,0.0099733,0.18105
26289,5.7931,3.2727,0.1,0.00044439,4440.8,0.00044835,4568.9,-0.00012403,268.26,-0.00015974,0.0098608,0.18668
26290,5.7011,3.5455,0.1,0.0004473,4469.9,0.00045129,4599.1,-0.0001248,270.6,-0.00016081,0.0087252,0.18084
26291,5.7931,3.4545,0.1,0.00044481,4445,0.0004487,4570.8,-0.0001246,263.26,-0.00015963,0.0089076,0.18652
26292,5.7011,3.7273,0.1,0.00044805,4477.4,0.00045192,4602.5,-0.00012581,261.61,-0.00016062,0.0069632,0.18056
26293,5.7931,3.6364,0.1,0.00044543,4451.2,0.00044923,4573.6,-0.00012543,255.82,-0.00015948,0.0074704,0.18627
26294,5.7011,3.9091,0.1,0.000449,4486.9,0.00045273,4606.7,-0.00012709,250.21,-0.00016039,0.0046678,0.18019
26295,5.7931,3.8182,0.1,0.00044625,4459.4,0.00044992,4577.3,-0.00012654,246.03,-0.00015928,0.005533,0.18594
26296,5.7011,4.0909,0.1,0.00045014,4498.3,0.0004537,4611.9,-0.00012863,236.5,-0.00016011,0.001809,0.17973
26297,5.7931,4,0.1,0.00044725,4469.5,0.00045077,4581.9,-0.00012789,233.97,-0.00015903,0.0030736,0.18553
26298,5.7011,4.2727,0.1,0.00045146,4511.5,0.00045481,4617.8,-0.00013041,220.64,-0.00015978,-0.0016625,0.17919
26299,5.7931,4.1818,0.1,0.00044844,4481.3,0.00045178,4587.2,-0.00012949,219.77,-0.00015874,5.5868e-05,0.18503
26300,5.7011,4.4545,0.1,0.00045296,4526.4,0.00045607,4624.4,-0.00013242,202.77,-0.00015941,-0.0058403,0.17857
26301,5.7931,4.3636,0.1,0.0004498,4494.9,0.00045292,4593.2,-0.00013131,203.56,-0.0001584,-0.0035799,0.18445
26302,5.7011,4.6364,0.1,0.00045461,4542.9,0.00045744,4631.7,-0.00013463,183.05,-0.000159,-0.010838,0.17785
26303,5.7931,4.5455,0.1,0.00045132,4510.1,0.00045419,4599.9,-0.00013334,185.5,-0.00015803,-0.007958,0.18378
26304,5.7011,4.8182,0.1,0.0004564,4560.8,0.00045893,4639.5,-0.00013703,161.68,-0.00015855,-0.017023,0.17705
26305,5.7931,4.7273,0.1,0.00045298,4526.6,0.00045557,4607.2,-0.00013556,165.76,-0.00015762,-0.013181,0.18302
26306,5.7011,5,0.1,0.00045832,4580,0.00046052,4647.8,-0.00013959,138.85,-0.00015807,-0.024395,0.17616
26307,5.7931,4.9091,0.1,0.00045476,4544.5,0.00045705,4615,-0.00013794,144.51,-0.00015717,-0.019868,0.18217
26308,5.7011,5.1818,0.1,0.00046034,4600.2,0.00046219,4656.5,-0.00014229,114.75,-0.00015756,-0.035823,0.17518
26309,5.7931,5.0909,0.1,0.00045666,4563.5,0.00045862,4623.2,-0.00014047,121.94,-0.0001567,-0.02745,0.18123
26310,5.7011,5.3636,0.1,0.00046246,4621.4,0.00046392,4665.5,-0.0001451,89.6,-0.00015703,-0.045453,0.1741
26311,5.7931,5.2727,0.1,0.00045866,4583.5,0.00046025,4631.8,-0.00014312,98.253,-0.0001562,-0.042133,0.1802
26312,5.7011,5.5455,0.1,0.00046465,4643.3,0.0004657,4674.7,-0.00014801,63.558,-0.00015648,-0.10254,0.17292
26313,5.7931,5.4545,0.1,0.00046074,4604.2,0.00046195,4640.6,-0.00014587,73.639,-0.00015568,-0.046964,0.17907
26314,5.7011,5.7273,0.1,0.00046692,4666,0.00046753,4684.2,-0.000151,36.737,-0.00015591,-0.14138,0.17165
26315,5.7931,5.6364,0.1,0.00046289,4625.7,0.00046369,4649.5,-0.00014871,48.229,-0.00015515,-0.15559,0.17785
26316,5.7931,5.8182,0.1,0.00046511,4647.9,0.00046548,4658.8,-0.00015163,22.114,-0.00015459,-0.16002,0.17653
26317,5.7011,5.9091,0.1,0.00046897,4686.4,0.00046917,4692.5,-0.00015373,12.271,-0.00015538,-0.1573,0.17028
26318,5.8851,0.27273,0.1,0.00046107,4607.5,0.00046163,4624.2,-0.00014934,33.564,-0.00015382,-0.12829,0.18284
26319,5.977,0.18182,0.1,0.0004592,4588.9,0.00045954,4598.8,-0.00014986,20.018,-0.00015254,-0.1465,0.18788
26320,5.8851,0.090909,0.1,0.00046295,4626.4,0.00046314,4631.8,-0.00015184,11.087,-0.00015334,-0.14863,0.18147
26321,5.8851,0.45455,0.1,0.00045897,4586.6,0.00045994,4615.4,-0.00014658,58.297,-0.00015435,-0.093381,0.18411
26322,5.977,0.36364,0.1,0.00045714,4568.3,0.00045787,4590.1,-0.00014716,44.126,-0.00015305,-0.14188,0.18919
26323,5.8851,0.63636,0.1,0.00045694,4566.3,0.00045829,4606.8,-0.0001439,82.28,-0.00015485,-0.041297,0.18528
26324,5.977,0.54545,0.1,0.00045516,4548.4,0.00045627,4581.8,-0.00014454,67.534,-0.00015354,-0.042555,0.19042
26325,5.8851,0.81818,0.1,0.00045499,4546.7,0.00045669,4598.5,-0.0001413,105.43,-0.00015534,-0.032663,0.18636
26326,5.977,0.72727,0.1,0.00045323,4529.2,0.0004547,4573.6,-0.00014201,90.189,-0.00015402,-0.038379,0.19154
26327,5.8851,1,0.1,0.00045311,4528,0.00045515,4590.4,-0.00013882,127.59,-0.0001558,-0.022306,0.18734
26328,5.977,0.90909,0.1,0.00045139,4510.8,0.00045319,4565.7,-0.00013957,111.98,-0.00015447,-0.025059,0.19257
26329,5.8851,1.1818,0.1,0.00045134,4510.3,0.00045368,4582.7,-0.00013647,148.57,-0.00015624,-0.015635,0.18824
26330,5.977,1.0909,0.1,0.00044963,4493.2,0.00045174,4558.1,-0.00013724,132.72,-0.00015491,-0.018212,0.19351
26331,5.8851,1.3636,0.1,0.00044969,4493.8,0.00045231,4575.5,-0.00013426,168.2,-0.00015665,-0.01003,0.18904
26332,5.977,1.2727,0.1,0.00044798,4476.7,0.00045037,4550.9,-0.00013505,152.24,-0.00015531,-0.012157,0.19436
26333,5.8851,1.5455,0.1,0.00044816,4478.5,0.00045104,4568.8,-0.00013223,186.29,-0.00015703,-0.005497,0.18976
26334,5.977,1.4545,0.1,0.00044645,4461.4,0.0004491,4544.1,-0.00013301,170.37,-0.00015569,-0.0074256,0.19512
26335,5.8851,1.7273,0.1,0.00044678,4464.7,0.00044988,4562.6,-0.00013039,202.69,-0.00015736,-0.0017045,0.19038
26336,5.977,1.6364,0.1,0.00044505,4447.4,0.00044793,4537.9,-0.00013115,186.94,-0.00015603,-0.0034556,0.19579
26337,5.8851,1.9091,0.1,0.00044556,4452.5,0.00044886,4557.2,-0.00012875,217.23,-0.00015766,0.0014493,0.19092
26338,5.977,1.8182,0.1,0.00044379,4434.9,0.00044688,4532.3,-0.00012948,201.81,-0.00015633,-0.00015615,0.19637
26339,5.8851,2.0909,0.1,0.00044451,4442,0.00044797,4552.4,-0.00012734,229.79,-0.00015792,0.0040486,0.19138
26340,5.977,2,0.1,0.0004427,4423.9,0.00044596,4527.4,-0.00012801,214.83,-0.0001566,0.0025847,0.19687
26341,5.8851,2.2727,0.1,0.00044363,4433.2,0.00044723,4548.5,-0.00012616,240.24,-0.00015814,0.0061371,0.19175
26342,5.977,2.1818,0.1,0.00044177,4414.6,0.00044518,4523.2,-0.00012677,225.88,-0.00015683,0.0048199,0.19729
26343,5.8851,2.4545,0.1,0.00044294,4426.3,0.00044664,4545.3,-0.00012523,248.48,-0.0001583,0.0077412,0.19204
26344,5.977,2.3636,0.1,0.00044101,4407.1,0.00044454,4519.8,-0.00012576,234.85,-0.00015701,0.0065819,0.19762
26345,5.8851,2.6364,0.1,0.00044244,4421.4,0.00044622,4543.1,-0.00012457,254.42,-0.00015843,0.008878,0.19224
26346,5.977,2.5455,0.1,0.00044044,4401.4,0.00044405,4517.2,-0.00012499,241.66,-0.00015715,0.0078896,0.19786
26347,5.8851,2.8182,0.1,0.00044214,4418.4,0.00044596,4541.7,-0.00012416,258.01,-0.0001585,0.0095576,0.19237
26348,5.977,2.7273,0.1,0.00044005,4397.5,0.00044373,4515.5,-0.00012447,246.23,-0.00015724,0.0087572,0.19803
26349,5.8851,3,0.1,0.00044204,4417.3,0.00044588,4541.3,-0.00012403,259.21,-0.00015852,0.0097838,0.19241
26350,5.977,2.9091,0.1,0.00043986,4395.6,0.00044356,4514.6,-0.00012421,248.53,-0.00015729,0.0091901,0.19811
26351,5.8851,3.1818,0.1,0.00044214,4418.4,0.00044596,4541.7,-0.00012416,258.01,-0.0001585,0.0095576,0.19237
26352,5.977,3.0909,0.1,0.00043986,4395.6,0.00044356,4514.6,-0.00012421,248.53,-0.00015729,0.00919,0.19811
26353,5.8851,3.3636,0.1,0.00044244,4421.4,0.00044622,4543.1,-0.00012457,254.42,-0.00015843,0.0088782,0.19224
26354,5.977,3.2727,0.1,0.00044005,4397.5,0.00044373,4515.5,-0.00012447,246.23,-0.00015724,0.0087573,0.19803
26355,5.8851,3.5455,0.1,0.00044294,4426.3,0.00044664,4545.3,-0.00012523,248.48,-0.0001583,0.0077415,0.19204
26356,5.977,3.4545,0.1,0.00044044,4401.4,0.00044405,4517.2,-0.00012499,241.66,-0.00015715,0.0078898,0.19786
26357,5.8851,3.7273,0.1,0.00044363,4433.2,0.00044723,4548.5,-0.00012616,240.24,-0.00015814,0.0061375,0.19175
26358,5.977,3.6364,0.1,0.00044101,4407.1,0.00044454,4519.8,-0.00012576,234.85,-0.00015701,0.0065821,0.19762
26359,5.8851,3.9091,0.1,0.00044451,4442,0.00044797,4552.4,-0.00012734,229.79,-0.00015792,0.0040491,0.19138
26360,5.977,3.8182,0.1,0.00044177,4414.6,0.00044518,4523.2,-0.00012677,225.88,-0.00015683,0.0048203,0.19729
26361,5.8851,4.0909,0.1,0.00044556,4452.5,0.00044886,4557.2,-0.00012875,217.23,-0.00015766,0.0014498,0.19092
26362,5.977,4,0.1,0.0004427,4423.9,0.00044596,4527.4,-0.00012801,214.83,-0.0001566,0.0025851,0.19687
26363,5.8851,4.2727,0.1,0.00044678,4464.7,0.00044988,4562.6,-0.00013039,202.69,-0.00015736,-0.0017039,0.19038
26364,5.977,4.1818,0.1,0.00044379,4434.9,0.00044688,4532.3,-0.00012948,201.81,-0.00015633,-0.00015564,0.19637
26365,5.8851,4.4545,0.1,0.00044816,4478.5,0.00045104,4568.8,-0.00013223,186.29,-0.00015703,-0.0054963,0.18976
26366,5.977,4.3636,0.1,0.00044505,4447.4,0.00044793,4537.9,-0.00013115,186.94,-0.00015603,-0.0034549,0.19579
26367,5.8851,4.6364,0.1,0.00044969,4493.8,0.00045231,4575.5,-0.00013426,168.2,-0.00015665,-0.010029,0.18904
26368,5.977,4.5455,0.1,0.00044645,4461.4,0.0004491,4544.1,-0.00013301,170.37,-0.00015569,-0.0074249,0.19512
26369,5.8851,4.8182,0.1,0.00045134,4510.3,0.00045368,4582.7,-0.00013647,148.57,-0.00015624,-0.015634,0.18824
26370,5.977,4.7273,0.1,0.00044798,4476.7,0.00045037,4550.9,-0.00013505,152.24,-0.00015531,-0.012156,0.19436
26371,5.8851,5,0.1,0.00045311,4528,0.00045515,4590.4,-0.00013882,127.59,-0.0001558,-0.022305,0.18734
26372,5.977,4.9091,0.1,0.00044963,4493.2,0.00045174,4558.1,-0.00013724,132.72,-0.00015491,-0.018212,0.19351
26373,5.8851,5.1818,0.1,0.00045499,4546.7,0.00045669,4598.5,-0.0001413,105.43,-0.00015534,-0.032662,0.18636
26374,5.977,5.0909,0.1,0.00045139,4510.8,0.00045319,4565.7,-0.00013957,111.98,-0.00015447,-0.025058,0.19257
26375,5.8851,5.3636,0.1,0.00045694,4566.3,0.00045829,4606.8,-0.0001439,82.28,-0.00015485,-0.041296,0.18528
26376,5.977,5.2727,0.1,0.00045323,4529.2,0.0004547,4573.6,-0.00014201,90.189,-0.00015402,-0.038378,0.19154
26377,5.8851,5.5455,0.1,0.00045897,4586.6,0.00045994,4615.4,-0.00014658,58.297,-0.00015435,-0.09338,0.18411
26378,5.977,5.4545,0.1,0.00045516,4548.4,0.00045627,4581.8,-0.00014454,67.534,-0.00015354,-0.042555,0.19042
26379,5.8851,5.7273,0.1,0.00046107,4607.5,0.00046163,4624.2,-0.00014934,33.564,-0.00015382,-0.12829,0.18284
26380,5.977,5.6364,0.1,0.00045714,4568.3,0.00045787,4590.1,-0.00014716,44.126,-0.00015305,-0.14187,0.18919
26381,5.977,5.8182,0.1,0.0004592,4588.9,0.00045954,4598.8,-0.00014986,20.018,-0.00015254,-0.1465,0.18788
26382,5.8851,5.9091,0.1,0.00046295,4626.4,0.00046314,4631.8,-0.00015184,11.087,-0.00015334,-0.14863,0.18147
26383,6.069,0.27273,0.1,0.00045527,4549.5,0.00045578,4564.7,-0.00014768,30.547,-0.00015176,-0.11658,0.19434
26384,6.1609,0.18182,0.1,0.00045334,4530.3,0.00045365,4539.2,-0.00014809,18.001,-0.00015051,-0.13516,0.19953
26385,6.069,0.090909,0.1,0.00045699,4566.8,0.00045716,4571.7,-0.00014997,9.9385,-0.00015131,-0.14106,0.19297
26386,6.069,0.45455,0.1,0.00045332,4530.1,0.00045421,4556.5,-0.00014513,53.353,-0.00015224,-0.085002,0.1956
26387,6.1609,0.36364,0.1,0.00045143,4511.2,0.0004521,4531.1,-0.0001456,40.257,-0.00015097,-0.12931,0.20085
26388,6.069,0.63636,0.1,0.00045145,4511.3,0.00045268,4548.6,-0.00014266,75.433,-0.0001527,-0.037511,0.19678
26389,6.1609,0.54545,0.1,0.00044959,4492.8,0.00045061,4523.4,-0.00014319,61.812,-0.00015142,-0.038545,0.20206
26390,6.069,0.81818,0.1,0.00044964,4493.3,0.0004512,4540.8,-0.00014027,96.731,-0.00015315,-0.029783,0.19785
26391,6.1609,0.72727,0.1,0.00044782,4475.1,0.00044917,4515.8,-0.00014085,82.66,-0.00015186,-0.03495,0.20319
26392,6.069,1,0.1,0.00044791,4476,0.00044978,4533.4,-0.00013798,117.11,-0.00015357,-0.020408,0.19884
26393,6.1609,0.90909,0.1,0.00044611,4458,0.00044777,4508.5,-0.0001386,102.7,-0.00015228,-0.022884,0.20422
26394,6.069,1.1818,0.1,0.00044627,4459.6,0.00044843,4526.2,-0.00013582,136.39,-0.00015397,-0.014381,0.19973
26395,6.1609,1.0909,0.1,0.00044449,4441.8,0.00044643,4501.4,-0.00013646,121.76,-0.00015267,-0.016711,0.20516
26396,6.069,1.3636,0.1,0.00044474,4444.3,0.00044717,4519.5,-0.0001338,154.41,-0.00015435,-0.0093082,0.20053
26397,6.1609,1.2727,0.1,0.00044296,4426.6,0.00044517,4494.8,-0.00013445,139.69,-0.00015304,-0.011236,0.206
26398,6.069,1.5455,0.1,0.00044333,4430.3,0.00044599,4513.3,-0.00013193,171.01,-0.00015469,-0.0052032,0.20125
26399,6.1609,1.4545,0.1,0.00044155,4412.4,0.000444,4488.5,-0.00013258,156.33,-0.00015339,-0.0069565,0.20676
26400,6.069,1.7273,0.1,0.00044206,4417.5,0.00044493,4507.6,-0.00013024,186.06,-0.000155,-0.0017655,0.20188
26401,6.1609,1.6364,0.1,0.00044026,4399.5,0.00044292,4482.8,-0.00013087,171.54,-0.0001537,-0.003362,0.20743
26402,6.069,1.9091,0.1,0.00044093,4406.3,0.00044398,4502.6,-0.00012873,199.39,-0.00015527,0.0010954,0.20242
26403,6.1609,1.8182,0.1,0.0004391,4388,0.00044196,4477.6,-0.00012933,185.17,-0.00015398,-0.00037246,0.20802
26404,6.069,2.0909,0.1,0.00043996,4396.6,0.00044317,4498.2,-0.00012744,210.91,-0.00015551,0.003455,0.20288
26405,6.1609,2,0.1,0.00043809,4377.9,0.00044111,4473.1,-0.00012799,197.11,-0.00015422,0.0021128,0.20852
26406,6.069,2.2727,0.1,0.00043915,4388.5,0.00044249,4494.6,-0.00012636,220.48,-0.0001557,0.0053521,0.20325
26407,6.1609,2.1818,0.1,0.00043723,4369.3,0.00044039,4469.2,-0.00012685,207.23,-0.00015443,0.004141,0.20893
26408,6.069,2.4545,0.1,0.00043851,4382.1,0.00044195,4491.7,-0.00012551,228.03,-0.00015586,0.00681,0.20354
26409,6.1609,2.3636,0.1,0.00043653,4362.3,0.0004398,4466.1,-0.00012592,215.45,-0.0001546,0.0057408,0.20926
26410,6.069,2.6364,0.1,0.00043805,4377.5,0.00044156,4489.6,-0.0001249,233.47,-0.00015597,0.0078435,0.20374
26411,6.1609,2.5455,0.1,0.00043601,4357.1,0.00043935,4463.7,-0.00012522,221.69,-0.00015472,0.0069285,0.20951
26412,6.069,2.8182,0.1,0.00043778,4374.7,0.00044132,4488.3,-0.00012453,236.76,-0.00015603,0.0084616,0.20387
26413,6.1609,2.7273,0.1,0.00043565,4353.5,0.00043905,4462.1,-0.00012475,225.88,-0.00015481,0.0077171,0.20968
26414,6.069,3,0.1,0.00043768,4373.8,0.00044125,4487.9,-0.0001244,237.86,-0.00015606,0.0086673,0.20391
26415,6.1609,2.9091,0.1,0.00043547,4351.7,0.0004389,4461.2,-0.00012451,227.99,-0.00015485,0.0081105,0.20976
26416,6.069,3.1818,0.1,0.00043778,4374.7,0.00044132,4488.3,-0.00012453,236.76,-0.00015603,0.0084616,0.20387
26417,6.1609,3.0909,0.1,0.00043547,4351.7,0.0004389,4461.2,-0.00012451,227.99,-0.00015485,0.0081105,0.20976
26418,6.069,3.3636,0.1,0.00043805,4377.5,0.00044156,4489.6,-0.0001249,233.47,-0.00015597,0.0078436,0.20374
26419,6.1609,3.2727,0.1,0.00043565,4353.5,0.00043905,4462.1,-0.00012475,225.88,-0.00015481,0.0077171,0.20968
26420,6.069,3.5455,0.1,0.00043851,4382.1,0.00044195,4491.7,-0.00012551,228.03,-0.00015586,0.0068102,0.20354
26421,6.1609,3.4545,0.1,0.00043601,4357.1,0.00043935,4463.7,-0.00012522,221.69,-0.00015472,0.0069288,0.20951
26422,6.069,3.7273,0.1,0.00043915,4388.5,0.00044249,4494.6,-0.00012636,220.48,-0.0001557,0.0053524,0.20325
26423,6.1609,3.6364,0.1,0.00043653,4362.3,0.0004398,4466.1,-0.00012592,215.45,-0.0001546,0.0057412,0.20926
26424,6.069,3.9091,0.1,0.00043996,4396.6,0.00044317,4498.2,-0.00012744,210.91,-0.00015551,0.0034554,0.20288
26425,6.1609,3.8182,0.1,0.00043723,4369.3,0.00044039,4469.2,-0.00012685,207.23,-0.00015443,0.0041414,0.20893
26426,6.069,4.0909,0.1,0.00044093,4406.3,0.00044398,4502.6,-0.00012873,199.39,-0.00015527,0.0010958,0.20242
26427,6.1609,4,0.1,0.00043809,4377.9,0.00044111,4473.1,-0.00012799,197.11,-0.00015422,0.0021132,0.20852
26428,6.069,4.2727,0.1,0.00044206,4417.5,0.00044493,4507.6,-0.00013024,186.06,-0.000155,-0.0017649,0.20188
26429,6.1609,4.1818,0.1,0.0004391,4388,0.00044196,4477.6,-0.00012933,185.17,-0.00015398,-0.00037195,0.20802
26430,6.069,4.4545,0.1,0.00044333,4430.3,0.00044599,4513.3,-0.00013193,171.01,-0.00015469,-0.0052024,0.20125
26431,6.1609,4.3636,0.1,0.00044026,4399.5,0.00044292,4482.8,-0.00013087,171.54,-0.0001537,-0.0033614,0.20743
26432,6.069,4.6364,0.1,0.00044474,4444.3,0.00044717,4519.5,-0.0001338,154.41,-0.00015435,-0.0093075,0.20053
26433,6.1609,4.5455,0.1,0.00044155,4412.4,0.000444,4488.5,-0.00013258,156.33,-0.00015339,-0.0069558,0.20676
26434,6.069,4.8182,0.1,0.00044627,4459.6,0.00044843,4526.2,-0.00013582,136.39,-0.00015397,-0.01438,0.19973
26435,6.1609,4.7273,0.1,0.00044296,4426.6,0.00044517,4494.8,-0.00013445,139.69,-0.00015304,-0.011235,0.206
26436,6.069,5,0.1,0.00044791,4476,0.00044978,4533.4,-0.00013798,117.11,-0.00015357,-0.020407,0.19884
26437,6.1609,4.9091,0.1,0.00044449,4441.8,0.00044643,4501.4,-0.00013646,121.76,-0.00015267,-0.01671,0.20516
26438,6.069,5.1818,0.1,0.00044964,4493.3,0.0004512,4540.8,-0.00014027,96.731,-0.00015315,-0.029782,0.19785
26439,6.1609,5.0909,0.1,0.00044611,4458,0.00044777,4508.5,-0.0001386,102.7,-0.00015228,-0.022882,0.20422
26440,6.069,5.3636,0.1,0.00045145,4511.3,0.00045268,4548.6,-0.00014266,75.433,-0.0001527,-0.03751,0.19678
26441,6.1609,5.2727,0.1,0.00044782,4475.1,0.00044917,4515.8,-0.00014085,82.66,-0.00015186,-0.03495,0.20319
26442,6.069,5.5455,0.1,0.00045332,4530.1,0.00045421,4556.5,-0.00014513,53.353,-0.00015224,-0.085001,0.1956
26443,6.1609,5.4545,0.1,0.00044959,4492.8,0.00045061,4523.4,-0.00014319,61.812,-0.00015142,-0.038545,0.20206
26444,6.069,5.7273,0.1,0.00045527,4549.5,0.00045578,4564.7,-0.00014768,30.547,-0.00015176,-0.11658,0.19434
26445,6.1609,5.6364,0.1,0.00045143,4511.2,0.0004521,4531.1,-0.0001456,40.257,-0.00015097,-0.12931,0.20085
26446,6.1609,5.8182,0.1,0.00045334,4530.3,0.00045365,4539.2,-0.00014809,18.001,-0.00015051,-0.13516,0.19953
26447,6.069,5.9091,0.1,0.00045699,4566.8,0.00045716,4571.7,-0.00014997,9.9385,-0.00015131,-0.14106,0.19297
26448,6.2529,0.27273,0.1,0.0004495,4491.9,0.00044997,4505.7,-0.00014602,27.683,-0.00014971,-0.1061,0.20614
26449,6.3448,0.18182,0.1,0.00044753,4472.2,0.0004478,4480.2,-0.00014634,16.064,-0.00014849,-0.12578,0.2115
26450,6.2529,0.090909,0.1,0.00045108,4507.7,0.00045123,4512,-0.00014811,8.8284,-0.00014931,-0.13461,0.20478
26451,6.2529,0.45455,0.1,0.0004477,4473.9,0.00044851,4498,-0.00014366,48.709,-0.00015015,-0.077327,0.20741
26452,6.3448,0.36364,0.1,0.00044575,4454.5,0.00044636,4472.6,-0.00014403,36.611,-0.00014892,-0.11779,0.2128
26453,6.2529,0.63636,0.1,0.00044597,4456.6,0.0004471,4490.7,-0.00014139,69.032,-0.00015058,-0.034059,0.20858
26454,6.3448,0.54545,0.1,0.00044406,4437.5,0.00044499,4465.4,-0.00014181,56.454,-0.00014933,-0.034895,0.21402
26455,6.2529,0.81818,0.1,0.00044429,4439.9,0.00044573,4483.5,-0.00013919,88.621,-0.00015099,-0.027156,0.20965
26456,6.3448,0.72727,0.1,0.00044241,4421.1,0.00044365,4458.4,-0.00013966,75.632,-0.00014973,-0.031818,0.21514
26457,6.2529,1,0.1,0.00044269,4423.9,0.00044442,4476.6,-0.00013709,107.35,-0.00015138,-0.018684,0.21063
26458,6.3448,0.90909,0.1,0.00044084,4405.3,0.00044236,4451.6,-0.00013759,94.056,-0.00015011,-0.020903,0.21617
26459,6.2529,1.1818,0.1,0.00044118,4408.8,0.00044318,4470,-0.0001351,125.06,-0.00015174,-0.013248,0.21153
26460,6.3448,1.0909,0.1,0.00043934,4390.4,0.00044113,4445.1,-0.00013562,111.57,-0.00015047,-0.015348,0.2171
26461,6.2529,1.3636,0.1,0.00043977,4394.7,0.00044201,4463.8,-0.00013324,141.61,-0.00015208,-0.0086643,0.21233
26462,6.3448,1.2727,0.1,0.00043793,4376.3,0.00043997,4438.9,-0.00013377,128.04,-0.00015081,-0.010407,0.21795
26463,6.2529,1.5455,0.1,0.00043847,4381.7,0.00044093,4458,-0.00013152,156.85,-0.0001524,-0.0049527,0.21304
26464,6.3448,1.4545,0.1,0.00043663,4363.2,0.00043889,4433.1,-0.00013205,143.31,-0.00015113,-0.0065439,0.21871
26465,6.2529,1.7273,0.1,0.0004373,4370,0.00043995,4452.8,-0.00012997,170.65,-0.00015268,-0.0018417,0.21367
26466,6.3448,1.6364,0.1,0.00043543,4351.3,0.0004379,4427.8,-0.00013048,157.26,-0.00015141,-0.0032948,0.21938
26467,6.2529,1.9091,0.1,0.00043626,4359.6,0.00043908,4448.1,-0.00012859,182.88,-0.00015293,0.00074925,0.21421
26468,6.3448,1.8182,0.1,0.00043437,4340.7,0.00043701,4423.1,-0.00012907,169.76,-0.00015167,-0.00059066,0.21996
26469,6.2529,2.0909,0.1,0.00043536,4350.6,0.00043833,4444.1,-0.0001274,193.43,-0.00015314,0.0028878,0.21467
26470,6.3448,2,0.1,0.00043343,4331.3,0.00043622,4418.9,-0.00012784,180.7,-0.00015189,0.0016592,0.22046
26471,6.2529,2.2727,0.1,0.00043462,4343.2,0.0004377,4440.7,-0.00012641,202.2,-0.00015332,0.0046083,0.21504
26472,6.3448,2.1818,0.1,0.00043264,4323.4,0.00043556,4415.3,-0.00012679,189.98,-0.00015208,0.0034966,0.22088
26473,6.2529,2.4545,0.1,0.00043403,4337.3,0.00043721,4438.1,-0.00012563,209.11,-0.00015346,0.0059309,0.21533
26474,6.3448,2.3636,0.1,0.000432,4317,0.00043502,4412.4,-0.00012594,197.51,-0.00015223,0.0049467,0.22121
26475,6.2529,2.6364,0.1,0.0004336,4333.1,0.00043685,4436.1,-0.00012507,214.1,-0.00015356,0.0068691,0.21554
26476,6.3448,2.5455,0.1,0.00043151,4312.2,0.00043461,4410.2,-0.0001253,203.22,-0.00015235,0.0060236,0.22146
26477,6.2529,2.8182,0.1,0.00043335,4330.5,0.00043663,4435,-0.00012473,217.11,-0.00015362,0.0074305,0.21566
26478,6.3448,2.7273,0.1,0.00043119,4308.9,0.00043434,4408.7,-0.00012487,207.06,-0.00015242,0.0067389,0.22162
26479,6.2529,3,0.1,0.00043326,4329.6,0.00043656,4434.6,-0.00012462,218.12,-0.00015364,0.0076173,0.2157
26480,6.3448,2.9091,0.1,0.00043102,4307.2,0.0004342,4407.9,-0.00012465,208.99,-0.00015246,0.0070959,0.2217
26481,6.2529,3.1818,0.1,0.00043335,4330.5,0.00043663,4435,-0.00012473,217.11,-0.00015362,0.0074304,0.21566
26482,6.3448,3.0909,0.1,0.00043102,4307.2,0.0004342,4407.9,-0.00012465,208.99,-0.00015246,0.0070959,0.2217
26483,6.2529,3.3636,0.1,0.0004336,4333.1,0.00043685,4436.1,-0.00012507,214.1,-0.00015356,0.0068693,0.21554
26484,6.3448,3.2727,0.1,0.00043119,4308.9,0.00043434,4408.7,-0.00012487,207.06,-0.00015242,0.006739,0.22162
26485,6.2529,3.5455,0.1,0.00043403,4337.3,0.00043721,4438.1,-0.00012563,209.11,-0.00015346,0.0059313,0.21533
26486,6.3448,3.4545,0.1,0.00043151,4312.2,0.00043461,4410.2,-0.0001253,203.22,-0.00015235,0.0060239,0.22146
26487,6.2529,3.7273,0.1,0.00043462,4343.2,0.0004377,4440.7,-0.00012641,202.2,-0.00015332,0.0046087,0.21504
26488,6.3448,3.6364,0.1,0.000432,4317,0.00043502,4412.4,-0.00012594,197.51,-0.00015223,0.004947,0.22121
26489,6.2529,3.9091,0.1,0.00043536,4350.6,0.00043833,4444.1,-0.0001274,193.43,-0.00015314,0.0028882,0.21467
26490,6.3448,3.8182,0.1,0.00043264,4323.4,0.00043556,4415.3,-0.00012679,189.98,-0.00015208,0.0034969,0.22088
26491,6.2529,4.0909,0.1,0.00043626,4359.6,0.00043908,4448.1,-0.00012859,182.88,-0.00015293,0.00074974,0.21421
26492,6.3448,4,0.1,0.00043343,4331.3,0.00043622,4418.9,-0.00012784,180.7,-0.00015189,0.0016596,0.22046
26493,6.2529,4.2727,0.1,0.0004373,4370,0.00043995,4452.8,-0.00012997,170.65,-0.00015268,-0.0018412,0.21367
26494,6.3448,4.1818,0.1,0.00043437,4340.7,0.00043701,4423.1,-0.00012907,169.76,-0.00015167,-0.0005901,0.21996
26495,6.2529,4.4545,0.1,0.00043847,4381.7,0.00044093,4458,-0.00013152,156.85,-0.0001524,-0.0049522,0.21304
26496,6.3448,4.3636,0.1,0.00043543,4351.3,0.0004379,4427.8,-0.00013048,157.26,-0.00015141,-0.0032942,0.21938
26497,6.2529,4.6364,0.1,0.00043977,4394.7,0.00044201,4463.8,-0.00013324,141.61,-0.00015208,-0.0086636,0.21233
26498,6.3448,4.5455,0.1,0.00043663,4363.2,0.00043889,4433.1,-0.00013205,143.31,-0.00015113,-0.0065431,0.21871
26499,6.2529,4.8182,0.1,0.00044118,4408.8,0.00044318,4470,-0.0001351,125.06,-0.00015174,-0.013247,0.21153
26500,6.3448,4.7273,0.1,0.00043793,4376.3,0.00043997,4438.9,-0.00013377,128.04,-0.00015081,-0.010406,0.21795
26501,6.2529,5,0.1,0.00044269,4423.9,0.00044442,4476.6,-0.00013709,107.35,-0.00015138,-0.018683,0.21063
26502,6.3448,4.9091,0.1,0.00043934,4390.4,0.00044113,4445.1,-0.00013562,111.57,-0.00015047,-0.015348,0.2171
26503,6.2529,5.1818,0.1,0.00044429,4439.9,0.00044573,4483.5,-0.00013919,88.621,-0.00015099,-0.027155,0.20965
26504,6.3448,5.0909,0.1,0.00044084,4405.3,0.00044236,4451.6,-0.00013759,94.056,-0.00015011,-0.020901,0.21617
26505,6.2529,5.3636,0.1,0.00044597,4456.6,0.0004471,4490.7,-0.00014139,69.032,-0.00015058,-0.034059,0.20858
26506,6.3448,5.2727,0.1,0.00044241,4421.1,0.00044365,4458.4,-0.00013966,75.632,-0.00014973,-0.031818,0.21514
26507,6.2529,5.5455,0.1,0.0004477,4473.9,0.00044851,4498,-0.00014366,48.709,-0.00015015,-0.077326,0.20741
26508,6.3448,5.4545,0.1,0.00044406,4437.5,0.00044499,4465.4,-0.00014181,56.454,-0.00014933,-0.034895,0.21402
26509,6.2529,5.7273,0.1,0.0004495,4491.9,0.00044997,4505.7,-0.00014602,27.683,-0.00014971,-0.1061,0.20614
26510,6.3448,5.6364,0.1,0.00044575,4454.5,0.00044636,4472.6,-0.00014403,36.611,-0.00014892,-0.11779,0.2128
26511,6.3448,5.8182,0.1,0.00044753,4472.2,0.0004478,4480.2,-0.00014634,16.064,-0.00014849,-0.12578,0.2115
26512,6.2529,5.9091,0.1,0.00045108,4507.7,0.00045123,4512,-0.00014811,8.8284,-0.00014931,-0.13461,0.20478
26513,6.4368,0.27273,0.1,0.00044378,4434.7,0.0004442,4447.1,-0.00014435,24.971,-0.00014769,-0.096706,0.21826
26514,6.5287,0.18182,0.1,0.00044176,4414.6,0.000442,4421.6,-0.00014459,14.21,-0.00014649,-0.1182,0.22376
26515,6.4368,0.090909,0.1,0.00044522,4449.1,0.00044534,4452.9,-0.00014627,7.7601,-0.00014732,-0.12934,0.2169
26516,6.4368,0.45455,0.1,0.00044211,4418,0.00044284,4440,-0.00014218,44.352,-0.00014809,-0.070291,0.21951
26517,6.5287,0.36364,0.1,0.00044011,4398.1,0.00044066,4414.5,-0.00014246,33.181,-0.00014689,-0.10722,0.22506
26518,6.4368,0.63636,0.1,0.0004405,4402,0.00044154,4433.2,-0.00014008,63.051,-0.00014848,-0.03091,0.22068
26519,6.5287,0.54545,0.1,0.00043854,4382.4,0.00043939,4407.8,-0.00014041,51.44,-0.00014726,-0.031568,0.22627
26520,6.4368,0.81818,0.1,0.00043896,4386.5,0.00044028,4426.5,-0.00013806,81.062,-0.00014885,-0.024758,0.22175
26521,6.5287,0.72727,0.1,0.00043702,4367.2,0.00043816,4401.3,-0.00013843,69.075,-0.00014763,-0.028955,0.22739
26522,6.4368,1,0.1,0.00043748,4371.8,0.00043907,4420.1,-0.00013613,98.273,-0.00014921,-0.017116,0.22273
26523,6.5287,0.90909,0.1,0.00043557,4352.7,0.00043697,4395,-0.00013653,86.007,-0.00014798,-0.019098,0.22841
26524,6.4368,1.1818,0.1,0.00043609,4357.9,0.00043792,4414,-0.0001343,114.54,-0.00014955,-0.012223,0.22362
26525,6.5287,1.0909,0.1,0.00043418,4338.8,0.00043583,4389,-0.00013472,102.1,-0.00014831,-0.014112,0.22935
26526,6.4368,1.3636,0.1,0.00043478,4344.8,0.00043685,4408.3,-0.00013259,129.73,-0.00014986,-0.0080897,0.22442
26527,6.5287,1.2727,0.1,0.00043288,4325.9,0.00043476,4383.3,-0.00013302,117.21,-0.00014862,-0.0096618,0.23019
26528,6.4368,1.5455,0.1,0.00043359,4332.9,0.00043585,4402.9,-0.00013102,143.72,-0.00015014,-0.0047402,0.22514
26529,6.5287,1.4545,0.1,0.00043168,4313.8,0.00043376,4377.9,-0.00013144,131.23,-0.00014891,-0.0061811,0.23095
26530,6.4368,1.7273,0.1,0.0004325,4322,0.00043495,4398.1,-0.00012959,156.37,-0.0001504,-0.0019297,0.22576
26531,6.5287,1.6364,0.1,0.00043058,4302.8,0.00043285,4373,-0.00013,144.02,-0.00014917,-0.0032499,0.23162
26532,6.4368,1.9091,0.1,0.00043154,4312.5,0.00043415,4393.8,-0.00012833,167.58,-0.00015063,0.0004128,0.22631
26533,6.5287,1.8182,0.1,0.0004296,4293,0.00043203,4368.6,-0.0001287,155.49,-0.0001494,-0.00080845,0.2322
26534,6.4368,2.0909,0.1,0.00043072,4304.2,0.00043346,4390.1,-0.00012724,177.25,-0.00015083,0.0023477,0.22676
26535,6.5287,2,0.1,0.00042874,4284.4,0.00043131,4364.8,-0.00012757,165.51,-0.0001496,0.0012246,0.2327
26536,6.4368,2.2727,0.1,0.00043003,4297.3,0.00043288,4387,-0.00012633,185.29,-0.00015099,0.0039054,0.22714
26537,6.5287,2.1818,0.1,0.00042801,4277.1,0.0004307,4361.5,-0.00012661,174.02,-0.00014977,0.0028864,0.23312
26538,6.4368,2.4545,0.1,0.00042949,4291.9,0.00043243,4384.5,-0.00012561,191.62,-0.00015112,0.0051035,0.22743
26539,6.5287,2.3636,0.1,0.00042741,4271.2,0.0004302,4358.8,-0.00012584,180.92,-0.00014991,0.0041985,0.23345
26540,6.4368,2.6364,0.1,0.0004291,4288,0.0004321,4382.7,-0.0001251,196.19,-0.00015121,0.0059534,0.22763
26541,6.5287,2.5455,0.1,0.00042697,4266.7,0.00042983,4356.7,-0.00012524,186.15,-0.00015002,0.0051733,0.2337
26542,6.4368,2.8182,0.1,0.00042886,4285.7,0.0004319,4381.7,-0.00012479,198.94,-0.00015126,0.0064621,0.22776
26543,6.5287,2.7273,0.1,0.00042667,4263.7,0.00042957,4355.4,-0.00012485,189.66,-0.00015009,0.0058209,0.23386
26544,6.4368,3,0.1,0.00042878,4284.9,0.00043183,4381.3,-0.00012468,199.87,-0.00015128,0.0066316,0.2278
26545,6.5287,2.9091,0.1,0.00042651,4262.2,0.00042945,4354.7,-0.00012465,191.43,-0.00015012,0.0061445,0.23394
26546,6.4368,3.1818,0.1,0.00042886,4285.7,0.0004319,4381.7,-0.00012479,198.94,-0.00015126,0.0064622,0.22776
26547,6.5287,3.0909,0.1,0.00042651,4262.2,0.00042945,4354.7,-0.00012465,191.43,-0.00015012,0.0061444,0.23394
26548,6.4368,3.3636,0.1,0.0004291,4288,0.0004321,4382.7,-0.0001251,196.19,-0.00015121,0.0059537,0.22763
26549,6.5287,3.2727,0.1,0.00042667,4263.7,0.00042957,4355.4,-0.00012485,189.66,-0.00015009,0.005821,0.23386
26550,6.4368,3.5455,0.1,0.00042949,4291.9,0.00043243,4384.5,-0.00012561,191.62,-0.00015112,0.0051037,0.22743
26551,6.5287,3.4545,0.1,0.00042697,4266.7,0.00042983,4356.7,-0.00012524,186.15,-0.00015002,0.0051735,0.2337
26552,6.4368,3.7273,0.1,0.00043003,4297.3,0.00043288,4387,-0.00012633,185.29,-0.00015099,0.0039057,0.22714
26553,6.5287,3.6364,0.1,0.00042741,4271.2,0.0004302,4358.8,-0.00012584,180.92,-0.00014991,0.0041987,0.23345
26554,6.4368,3.9091,0.1,0.00043072,4304.2,0.00043346,4390.1,-0.00012724,177.25,-0.00015083,0.0023481,0.22676
26555,6.5287,3.8182,0.1,0.00042801,4277.1,0.0004307,4361.5,-0.00012661,174.02,-0.00014977,0.0028866,0.23312
26556,6.4368,4.0909,0.1,0.00043154,4312.5,0.00043415,4393.8,-0.00012833,167.58,-0.00015063,0.0004133,0.22631
26557,6.5287,4,0.1,0.00042874,4284.4,0.00043131,4364.8,-0.00012757,165.51,-0.0001496,0.0012251,0.2327
26558,6.4368,4.2727,0.1,0.0004325,4322,0.00043495,4398.1,-0.00012959,156.37,-0.0001504,-0.0019291,0.22576
26559,6.5287,4.1818,0.1,0.0004296,4293,0.00043203,4368.6,-0.0001287,155.49,-0.0001494,-0.00080789,0.2322
26560,6.4368,4.4545,0.1,0.00043359,4332.9,0.00043585,4402.9,-0.00013102,143.72,-0.00015014,-0.0047394,0.22514
26561,6.5287,4.3636,0.1,0.00043058,4302.8,0.00043285,4373,-0.00013,144.02,-0.00014917,-0.0032493,0.23162
26562,6.4368,4.6364,0.1,0.00043478,4344.8,0.00043685,4408.3,-0.00013259,129.73,-0.00014986,-0.0080889,0.22442
26563,6.5287,4.5455,0.1,0.00043168,4313.8,0.00043376,4377.9,-0.00013144,131.23,-0.00014891,-0.0061803,0.23095
26564,6.4368,4.8182,0.1,0.00043609,4357.9,0.00043792,4414,-0.0001343,114.54,-0.00014955,-0.012222,0.22362
26565,6.5287,4.7273,0.1,0.00043288,4325.9,0.00043476,4383.3,-0.00013302,117.21,-0.00014862,-0.009661,0.23019
26566,6.4368,5,0.1,0.00043748,4371.8,0.00043907,4420.1,-0.00013613,98.273,-0.00014921,-0.017115,0.22273
26567,6.5287,4.9091,0.1,0.00043418,4338.8,0.00043583,4389,-0.00013472,102.1,-0.00014831,-0.014111,0.22935
26568,6.4368,5.1818,0.1,0.00043896,4386.5,0.00044028,4426.5,-0.00013806,81.062,-0.00014885,-0.024757,0.22175
26569,6.5287,5.0909,0.1,0.00043557,4352.7,0.00043697,4395,-0.00013653,86.007,-0.00014798,-0.019097,0.22841
26570,6.4368,5.3636,0.1,0.0004405,4402,0.00044154,4433.2,-0.00014008,63.051,-0.00014848,-0.030909,0.22068
26571,6.5287,5.2727,0.1,0.00043702,4367.2,0.00043816,4401.3,-0.00013843,69.075,-0.00014763,-0.028954,0.22739
26572,6.4368,5.5455,0.1,0.00044211,4418,0.00044284,4440,-0.00014218,44.352,-0.00014809,-0.07029,0.21951
26573,6.5287,5.4545,0.1,0.00043854,4382.4,0.00043939,4407.8,-0.00014041,51.44,-0.00014726,-0.031568,0.22627
26574,6.4368,5.7273,0.1,0.00044378,4434.7,0.0004442,4447.1,-0.00014435,24.971,-0.00014769,-0.096704,0.21826
26575,6.5287,5.6364,0.1,0.00044011,4398.1,0.00044066,4414.5,-0.00014246,33.181,-0.00014689,-0.10722,0.22506
26576,6.5287,5.8182,0.1,0.00044176,4414.6,0.000442,4421.6,-0.00014459,14.21,-0.00014649,-0.1182,0.22376
26577,6.4368,5.9091,0.1,0.00044522,4449.1,0.00044534,4452.9,-0.00014627,7.7601,-0.00014732,-0.12934,0.2169
26578,6.6207,0.27273,0.1,0.00043809,4377.9,0.00043846,4389,-0.00014269,22.405,-0.00014569,-0.088289,0.23067
26579,6.7126,0.18182,0.1,0.00043603,4357.3,0.00043624,4363.5,-0.00014285,12.441,-0.00014452,-0.11235,0.23633
26580,6.6207,0.090909,0.1,0.00043939,4390.9,0.00043951,4394.2,-0.00014443,6.7355,-0.00014534,-0.12535,0.22932
26581,6.6207,0.45455,0.1,0.00043654,4362.4,0.00043721,4382.4,-0.00014069,40.268,-0.00014605,-0.063836,0.23192
26582,6.7126,0.36364,0.1,0.0004345,4342,0.000435,4356.8,-0.00014087,29.956,-0.00014487,-0.097504,0.23762
26583,6.6207,0.63636,0.1,0.00043506,4347.6,0.00043601,4376,-0.00013876,57.463,-0.00014641,-0.028033,0.23308
26584,6.7126,0.54545,0.1,0.00043304,4327.5,0.00043382,4350.6,-0.00013899,46.75,-0.00014522,-0.028532,0.23882
26585,6.6207,0.81818,0.1,0.00043363,4333.3,0.00043484,4369.8,-0.0001369,74.018,-0.00014675,-0.022568,0.23415
26586,6.7126,0.72727,0.1,0.00043164,4313.5,0.00043268,4344.6,-0.00013717,62.959,-0.00014555,-0.026334,0.23994
26587,6.6207,1,0.1,0.00043227,4319.7,0.00043373,4363.9,-0.00013512,89.828,-0.00014708,-0.01569,0.23512
26588,6.7126,0.90909,0.1,0.0004303,4300,0.00043158,4338.7,-0.00013542,78.513,-0.00014587,-0.017454,0.24096
26589,6.6207,1.1818,0.1,0.00043098,4306.8,0.00043267,4358.3,-0.00013344,104.77,-0.00014738,-0.011296,0.23601
26590,6.7126,1.0909,0.1,0.00042902,4287.3,0.00043053,4333.1,-0.00013376,93.287,-0.00014617,-0.01299,0.24189
26591,6.6207,1.3636,0.1,0.00042978,4294.8,0.00043168,4352.9,-0.00013187,118.71,-0.00014767,-0.0075769,0.23681
26592,6.7126,1.2727,0.1,0.00042782,4275.3,0.00042955,4327.9,-0.00013219,107.16,-0.00014646,-0.0089914,0.24273
26593,6.6207,1.5455,0.1,0.00042867,4283.8,0.00043076,4348,-0.00013042,131.53,-0.00014793,-0.0045605,0.23753
26594,6.7126,1.4545,0.1,0.00042671,4264.2,0.00042863,4322.9,-0.00013074,120.02,-0.00014672,-0.0058627,0.24348
26595,6.6207,1.7273,0.1,0.00042767,4273.8,0.00042993,4343.6,-0.00012911,143.14,-0.00014816,-0.0020267,0.23815
26596,6.7126,1.6364,0.1,0.0004257,4254.1,0.00042779,4318.4,-0.00012942,131.75,-0.00014696,-0.003224,0.24415
26597,6.6207,1.9091,0.1,0.00042679,4265,0.00042919,4339.6,-0.00012795,153.42,-0.00014837,8.697e-05,0.23869
26598,6.7126,1.8182,0.1,0.00042479,4245,0.00042703,4314.3,-0.00012824,142.26,-0.00014717,-0.0010242,0.24474
26599,6.6207,2.0909,0.1,0.00042603,4257.3,0.00042856,4336.2,-0.00012695,162.28,-0.00014855,0.0018345,0.23915
26600,6.7126,2,0.1,0.000424,4237.1,0.00042637,4310.8,-0.0001272,151.45,-0.00014735,0.00080933,0.24523
26601,6.6207,2.2727,0.1,0.00042539,4251,0.00042803,4333.3,-0.00012612,169.64,-0.0001487,0.0032424,0.23952
26602,6.7126,2.1818,0.1,0.00042333,4230.4,0.00042581,4307.7,-0.00012632,159.24,-0.00014751,0.0023094,0.24565
26603,6.6207,2.4545,0.1,0.0004249,4246,0.00042761,4331,-0.00012547,175.44,-0.00014882,0.0043256,0.23981
26604,6.7126,2.3636,0.1,0.00042278,4224.9,0.00042536,4305.3,-0.0001256,165.56,-0.00014764,0.0034945,0.24598
26605,6.6207,2.6364,0.1,0.00042454,4242.4,0.00042731,4329.4,-0.00012499,179.62,-0.0001489,0.0050945,0.24002
26606,6.7126,2.5455,0.1,0.00042237,4220.8,0.00042501,4303.4,-0.00012506,170.35,-0.00014773,0.0043752,0.24623
26607,6.6207,2.8182,0.1,0.00042432,4240.3,0.00042712,4328.4,-0.00012471,182.15,-0.00014895,0.005555,0.24014
26608,6.7126,2.7273,0.1,0.00042209,4218,0.00042478,4302.1,-0.0001247,173.57,-0.0001478,0.0049609,0.24639
26609,6.6207,3,0.1,0.00042425,4239.5,0.00042706,4328.1,-0.00012461,182.99,-0.00014897,0.0057083,0.24018
26610,6.7126,2.9091,0.1,0.00042195,4216.6,0.00042466,4301.5,-0.00012452,175.19,-0.00014783,0.0052534,0.24647
26611,6.6207,3.1818,0.1,0.00042432,4240.3,0.00042712,4328.4,-0.00012471,182.15,-0.00014895,0.005555,0.24014
26612,6.7126,3.0909,0.1,0.00042195,4216.6,0.00042466,4301.5,-0.00012452,175.19,-0.00014783,0.0052534,0.24647
26613,6.6207,3.3636,0.1,0.00042454,4242.4,0.00042731,4329.4,-0.00012499,179.62,-0.0001489,0.0050947,0.24002
26614,6.7126,3.2727,0.1,0.00042209,4218,0.00042478,4302.1,-0.0001247,173.57,-0.0001478,0.0049609,0.24639
26615,6.6207,3.5455,0.1,0.0004249,4246,0.00042761,4331,-0.00012547,175.44,-0.00014882,0.0043259,0.23981
26616,6.7126,3.4545,0.1,0.00042237,4220.8,0.00042501,4303.4,-0.00012506,170.35,-0.00014773,0.0043755,0.24623
26617,6.6207,3.7273,0.1,0.00042539,4251,0.00042803,4333.3,-0.00012612,169.64,-0.0001487,0.0032427,0.23952
26618,6.7126,3.6364,0.1,0.00042278,4224.9,0.00042536,4305.3,-0.0001256,165.56,-0.00014764,0.0034948,0.24598
26619,6.6207,3.9091,0.1,0.00042603,4257.3,0.00042856,4336.2,-0.00012695,162.28,-0.00014855,0.001835,0.23915
26620,6.7126,3.8182,0.1,0.00042333,4230.4,0.00042581,4307.7,-0.00012632,159.24,-0.00014751,0.0023096,0.24565
26621,6.6207,4.0909,0.1,0.00042679,4265,0.00042919,4339.6,-0.00012795,153.42,-0.00014837,8.7566e-05,0.23869
26622,6.7126,4,0.1,0.000424,4237.1,0.00042637,4310.8,-0.0001272,151.45,-0.00014735,0.00080989,0.24523
26623,6.6207,4.2727,0.1,0.00042767,4273.8,0.00042993,4343.6,-0.00012911,143.14,-0.00014816,-0.0020261,0.23815
26624,6.7126,4.1818,0.1,0.00042479,4245,0.00042703,4314.3,-0.00012824,142.26,-0.00014717,-0.0010237,0.24474
26625,6.6207,4.4545,0.1,0.00042867,4283.8,0.00043076,4348,-0.00013042,131.53,-0.00014793,-0.0045598,0.23753
26626,6.7126,4.3636,0.1,0.0004257,4254.1,0.00042779,4318.4,-0.00012942,131.75,-0.00014696,-0.0032235,0.24415
26627,6.6207,4.6364,0.1,0.00042978,4294.8,0.00043168,4352.9,-0.00013187,118.71,-0.00014767,-0.0075761,0.23681
26628,6.7126,4.5455,0.1,0.00042671,4264.2,0.00042863,4322.9,-0.00013074,120.02,-0.00014672,-0.0058618,0.24348
26629,6.6207,4.8182,0.1,0.00043098,4306.8,0.00043267,4358.2,-0.00013344,104.77,-0.00014738,-0.011295,0.23601
26630,6.7126,4.7273,0.1,0.00042782,4275.3,0.00042955,4327.9,-0.00013219,107.16,-0.00014646,-0.0089905,0.24273
26631,6.6207,5,0.1,0.00043227,4319.7,0.00043373,4363.9,-0.00013512,89.828,-0.00014708,-0.015688,0.23512
26632,6.7126,4.9091,0.1,0.00042902,4287.3,0.00043053,4333.1,-0.00013376,93.287,-0.00014617,-0.012989,0.24189
26633,6.6207,5.1818,0.1,0.00043363,4333.3,0.00043484,4369.8,-0.0001369,74.018,-0.00014675,-0.022567,0.23415
26634,6.7126,5.0909,0.1,0.0004303,4300,0.00043158,4338.7,-0.00013542,78.513,-0.00014587,-0.017452,0.24096
26635,6.6207,5.3636,0.1,0.00043506,4347.6,0.00043601,4376,-0.00013876,57.463,-0.00014641,-0.028033,0.23308
26636,6.7126,5.2727,0.1,0.00043164,4313.5,0.00043268,4344.6,-0.00013717,62.959,-0.00014555,-0.026334,0.23994
26637,6.6207,5.5455,0.1,0.00043654,4362.4,0.00043721,4382.3,-0.00014069,40.268,-0.00014605,-0.063835,0.23192
26638,6.7126,5.4545,0.1,0.00043304,4327.5,0.00043382,4350.6,-0.00013899,46.75,-0.00014522,-0.028532,0.23882
26639,6.6207,5.7273,0.1,0.00043809,4377.9,0.00043846,4389,-0.00014269,22.405,-0.00014569,-0.088287,0.23067
26640,6.7126,5.6364,0.1,0.0004345,4342,0.000435,4356.8,-0.00014087,29.956,-0.00014487,-0.097502,0.23762
26641,6.7126,5.8182,0.1,0.00043603,4357.3,0.00043624,4363.5,-0.00014285,12.441,-0.00014452,-0.11235,0.23633
26642,6.6207,5.9091,0.1,0.00043939,4390.9,0.00043951,4394.2,-0.00014443,6.7355,-0.00014534,-0.12535,0.22932
26643,6.8046,0.27273,0.1,0.00043244,4321.4,0.00043277,4331.3,-0.00014103,19.981,-0.0001437,-0.080752,0.24338
26644,6.8966,0.18182,0.1,0.00043034,4300.5,0.00043052,4305.8,-0.00014111,10.757,-0.00014256,-0.10824,0.24919
26645,6.8046,0.090909,0.1,0.00043362,4333.2,0.00043371,4336,-0.00014261,5.7559,-0.00014339,-0.12288,0.24204
26646,6.8046,0.45455,0.1,0.000431,4307,0.00043161,4325.1,-0.00013918,36.44,-0.00014404,-0.057907,0.24462
26647,6.8966,0.36364,0.1,0.00042891,4286.2,0.00042936,4299.5,-0.00013928,26.927,-0.00014288,-0.088574,0.25047
26648,6.8046,0.63636,0.1,0.00042963,4293.3,0.00043049,4319.2,-0.0001374,52.246,-0.00014436,-0.025404,0.24578
26649,6.8966,0.54545,0.1,0.00042757,4272.8,0.00042828,4293.8,-0.00013755,42.365,-0.00014319,-0.025759,0.25167
26650,6.8046,0.81818,0.1,0.00042831,4280.2,0.00042942,4313.5,-0.00013569,67.454,-0.00014467,-0.020567,0.24684
26651,6.8966,0.72727,0.1,0.00042628,4259.8,0.00042722,4288.2,-0.00013588,57.254,-0.0001435,-0.023936,0.25278
26652,6.8046,1,0.1,0.00042705,4267.6,0.00042839,4308,-0.00013406,81.971,-0.00014497,-0.014391,0.24781
26653,6.8966,0.90909,0.1,0.00042504,4247.4,0.00042621,4282.7,-0.00013427,71.536,-0.00014379,-0.015954,0.25379
26654,6.8046,1.1818,0.1,0.00042587,4255.7,0.00042741,4302.7,-0.00013251,95.681,-0.00014525,-0.010457,0.2487
26655,6.8966,1.0909,0.1,0.00042386,4235.7,0.00042524,4277.6,-0.00013274,85.096,-0.00014407,-0.011971,0.25472
26656,6.8046,1.3636,0.1,0.00042476,4244.6,0.0004265,4297.8,-0.00013107,108.47,-0.00014551,-0.0071198,0.24949
26657,6.8966,1.2727,0.1,0.00042275,4224.6,0.00042433,4272.7,-0.00013131,97.824,-0.00014433,-0.0083885,0.25556
26658,6.8046,1.5455,0.1,0.00042374,4234.5,0.00042566,4293.3,-0.00012974,120.24,-0.00014575,-0.0044099,0.2502
26659,6.8966,1.4545,0.1,0.00042173,4214.4,0.00042349,4268.1,-0.00012998,109.62,-0.00014457,-0.0055838,0.25631
26660,6.8046,1.7273,0.1,0.00042282,4225.3,0.00042489,4289.2,-0.00012854,130.87,-0.00014596,-0.0021305,0.25083
26661,6.8966,1.6364,0.1,0.00042079,4205,0.00042271,4263.9,-0.00012876,120.37,-0.00014478,-0.0032145,0.25698
26662,6.8046,1.9091,0.1,0.000422,4217.1,0.00042421,4285.5,-0.00012748,140.29,-0.00014615,-0.00022723,0.25137
26663,6.8966,1.8182,0.1,0.00041996,4196.7,0.00042202,4260.2,-0.00012767,130,-0.00014498,-0.0012368,0.25756
26664,6.8046,2.0909,0.1,0.0004213,4210.1,0.00042363,4282.3,-0.00012656,148.41,-0.00014632,0.0013478,0.25182
26665,6.8966,2,0.1,0.00041923,4189.4,0.00042141,4256.9,-0.00012672,138.42,-0.00014515,0.00041314,0.25805
26666,6.8046,2.2727,0.1,0.00042072,4204.3,0.00042314,4279.7,-0.0001258,155.16,-0.00014645,0.0026177,0.2522
26667,6.8966,2.1818,0.1,0.00041861,4183.2,0.0004209,4254.1,-0.00012592,145.56,-0.00014529,0.0017645,0.25847
26668,6.8046,2.4545,0.1,0.00042026,4199.7,0.00042276,4277.6,-0.0001252,160.47,-0.00014656,0.0035952,0.25249
26669,6.8966,2.3636,0.1,0.00041811,4178.2,0.00042048,4251.8,-0.00012526,151.34,-0.0001454,0.0028328,0.2588
26670,6.8046,2.6364,0.1,0.00041993,4196.4,0.00042248,4276.1,-0.00012477,164.3,-0.00014663,0.0042896,0.25269
26671,6.8966,2.5455,0.1,0.00041773,4174.4,0.00042016,4250.1,-0.00012477,155.73,-0.00014549,0.003627,0.25904
26672,6.8046,2.8182,0.1,0.00041973,4194.4,0.00042231,4275.2,-0.00012451,166.61,-0.00014668,0.0047055,0.25281
26673,6.8966,2.7273,0.1,0.00041747,4171.8,0.00041994,4248.9,-0.00012443,158.68,-0.00014555,0.0041556,0.25921
26674,6.8046,3,0.1,0.00041966,4193.7,0.00042226,4274.9,-0.00012442,167.38,-0.0001467,0.004844,0.25286
26675,6.8966,2.9091,0.1,0.00041734,4170.5,0.00041984,4248.3,-0.00012426,160.16,-0.00014558,0.0044195,0.25929
26676,6.8046,3.1818,0.1,0.00041973,4194.4,0.00042231,4275.2,-0.00012451,166.61,-0.00014668,0.0047055,0.25281
26677,6.8966,3.0909,0.1,0.00041734,4170.5,0.00041984,4248.3,-0.00012426,160.16,-0.00014558,0.0044196,0.25929
26678,6.8046,3.3636,0.1,0.00041993,4196.4,0.00042248,4276.1,-0.00012477,164.3,-0.00014663,0.0042897,0.25269
26679,6.8966,3.2727,0.1,0.00041747,4171.8,0.00041994,4248.9,-0.00012443,158.68,-0.00014555,0.0041556,0.25921
26680,6.8046,3.5455,0.1,0.00042026,4199.7,0.00042276,4277.6,-0.0001252,160.47,-0.00014656,0.0035956,0.25249
26681,6.8966,3.4545,0.1,0.00041773,4174.4,0.00042016,4250.1,-0.00012477,155.73,-0.00014549,0.0036273,0.25904
26682,6.8046,3.7273,0.1,0.00042072,4204.3,0.00042314,4279.7,-0.0001258,155.16,-0.00014645,0.0026179,0.2522
26683,6.8966,3.6364,0.1,0.00041811,4178.2,0.00042048,4251.8,-0.00012526,151.34,-0.0001454,0.0028331,0.2588
26684,6.8046,3.9091,0.1,0.0004213,4210.1,0.00042363,4282.3,-0.00012656,148.41,-0.00014632,0.0013482,0.25182
26685,6.8966,3.8182,0.1,0.00041861,4183.2,0.0004209,4254.1,-0.00012592,145.56,-0.00014529,0.0017648,0.25847
26686,6.8046,4.0909,0.1,0.000422,4217.1,0.00042421,4285.5,-0.00012748,140.29,-0.00014615,-0.00022679,0.25137
26687,6.8966,4,0.1,0.00041923,4189.4,0.00042141,4256.9,-0.00012672,138.42,-0.00014515,0.00041362,0.25805
26688,6.8046,4.2727,0.1,0.00042282,4225.3,0.00042489,4289.2,-0.00012854,130.87,-0.00014596,-0.0021301,0.25083
26689,6.8966,4.1818,0.1,0.00041996,4196.7,0.00042202,4260.2,-0.00012767,130,-0.00014498,-0.0012363,0.25756
26690,6.8046,4.4545,0.1,0.00042374,4234.5,0.00042566,4293.3,-0.00012974,120.24,-0.00014575,-0.0044092,0.2502
26691,6.8966,4.3636,0.1,0.00042079,4205,0.00042271,4263.9,-0.00012876,120.37,-0.00014478,-0.003214,0.25698
26692,6.8046,4.6364,0.1,0.00042476,4244.6,0.0004265,4297.8,-0.00013107,108.47,-0.00014551,-0.0071189,0.24949
26693,6.8966,4.5455,0.1,0.00042173,4214.4,0.00042349,4268.1,-0.00012998,109.62,-0.00014457,-0.005583,0.25631
26694,6.8046,4.8182,0.1,0.00042587,4255.7,0.00042741,4302.7,-0.00013251,95.681,-0.00014525,-0.010456,0.2487
26695,6.8966,4.7273,0.1,0.00042275,4224.6,0.00042433,4272.7,-0.00013131,97.824,-0.00014433,-0.0083877,0.25556
26696,6.8046,5,0.1,0.00042705,4267.6,0.00042839,4308,-0.00013406,81.971,-0.00014497,-0.01439,0.24781
26697,6.8966,4.9091,0.1,0.00042386,4235.7,0.00042524,4277.6,-0.00013274,85.096,-0.00014407,-0.01197,0.25472
26698,6.8046,5.1818,0.1,0.00042831,4280.2,0.00042942,4313.5,-0.00013569,67.454,-0.00014467,-0.020566,0.24684
26699,6.8966,5.0909,0.1,0.00042504,4247.4,0.00042621,4282.7,-0.00013427,71.536,-0.00014379,-0.015953,0.25379
26700,6.8046,5.3636,0.1,0.00042963,4293.3,0.00043049,4319.2,-0.0001374,52.246,-0.00014436,-0.025403,0.24578
26701,6.8966,5.2727,0.1,0.00042628,4259.8,0.00042722,4288.2,-0.00013588,57.254,-0.0001435,-0.023935,0.25278
26702,6.8046,5.5455,0.1,0.000431,4307,0.00043161,4325.1,-0.00013918,36.44,-0.00014404,-0.057906,0.24462
26703,6.8966,5.4545,0.1,0.00042757,4272.8,0.00042828,4293.8,-0.00013755,42.365,-0.00014319,-0.025759,0.25167
26704,6.8046,5.7273,0.1,0.00043244,4321.4,0.00043277,4331.3,-0.00014103,19.981,-0.0001437,-0.080751,0.24338
26705,6.8966,5.6364,0.1,0.00042891,4286.2,0.00042936,4299.5,-0.00013928,26.927,-0.00014288,-0.088572,0.25047
26706,6.8966,5.8182,0.1,0.00043034,4300.5,0.00043052,4305.8,-0.00014111,10.757,-0.00014256,-0.10824,0.24919
26707,6.8046,5.9091,0.1,0.00043362,4333.2,0.00043371,4336,-0.00014261,5.7559,-0.00014339,-0.12288,0.24204
26708,6.9885,0.27273,0.1,0.00042681,4265.2,0.00042711,4274,-0.00013937,17.694,-0.00014173,-0.074018,0.25638
26709,7.0805,0.18182,0.1,0.00042469,4244,0.00042484,4248.5,-0.00013938,9.1568,-0.00014061,-0.10601,0.26234
26710,6.9885,0.090909,0.1,0.00042788,4275.8,0.00042796,4278.2,-0.00014079,4.8223,-0.00014145,-0.12232,0.25505
26711,6.9885,0.45455,0.1,0.00042548,4251.9,0.00042603,4268.2,-0.00013766,32.854,-0.00014204,-0.052457,0.25762
26712,7.0805,0.36364,0.1,0.00042336,4230.6,0.00042376,4242.6,-0.00013769,24.082,-0.00014091,-0.080356,0.26362
26713,6.9885,0.63636,0.1,0.00042422,4239.2,0.000425,4262.7,-0.00013603,47.375,-0.00014233,-0.022998,0.25876
26714,7.0805,0.54545,0.1,0.00042212,4218.3,0.00042276,4237.3,-0.0001361,38.265,-0.00014119,-0.023223,0.26481
26715,6.9885,0.81818,0.1,0.000423,4227.1,0.00042401,4257.4,-0.00013445,61.338,-0.00014262,-0.018737,0.25982
26716,7.0805,0.72727,0.1,0.00042092,4206.3,0.00042178,4232,-0.00013456,51.934,-0.00014147,-0.021738,0.2659
26717,6.9885,1,0.1,0.00042184,4215.5,0.00042306,4252.3,-0.00013295,74.661,-0.00014289,-0.01321,0.26079
26718,7.0805,0.90909,0.1,0.00041978,4194.9,0.00042085,4227,-0.00013308,65.04,-0.00014174,-0.014586,0.26691
26719,6.9885,1.1818,0.1,0.00042075,4204.5,0.00042216,4247.5,-0.00013153,87.239,-0.00014315,-0.0096987,0.26167
26720,7.0805,1.0909,0.1,0.00041869,4184,0.00041996,4222.2,-0.00013168,77.478,-0.00014199,-0.011045,0.26784
26721,6.9885,1.3636,0.1,0.00041972,4194.3,0.00042132,4242.9,-0.00013021,98.968,-0.00014338,-0.0067125,0.26246
26722,7.0805,1.2727,0.1,0.00041767,4173.8,0.00041912,4217.7,-0.00013036,89.149,-0.00014223,-0.0078469,0.26867
26723,6.9885,1.5455,0.1,0.00041878,4185,0.00042054,4238.8,-0.00012899,109.75,-0.0001436,-0.0042849,0.26317
26724,7.0805,1.4545,0.1,0.00041673,4164.4,0.00041834,4213.5,-0.00012914,99.958,-0.00014244,-0.0053403,0.26942
26725,6.9885,1.7273,0.1,0.00041794,4176.5,0.00041984,4234.9,-0.00012789,119.5,-0.0001438,-0.0022399,0.26379
26726,7.0805,1.6364,0.1,0.00041587,4155.8,0.00041763,4209.6,-0.00012802,109.82,-0.00014264,-0.003219,0.27008
26727,6.9885,1.9091,0.1,0.00041718,4169,0.00041922,4231.6,-0.00012692,128.13,-0.00014397,-0.00053018,0.26433
26728,7.0805,1.8182,0.1,0.0004151,4148.1,0.00041699,4206.2,-0.00012703,118.64,-0.00014282,-0.0014458,0.27066
26729,6.9885,2.0909,0.1,0.00041654,4162.5,0.00041868,4228.6,-0.00012608,135.57,-0.00014412,0.00088635,0.26479
26730,7.0805,2,0.1,0.00041443,4141.4,0.00041643,4203.1,-0.00012616,126.35,-0.00014297,3.5499e-05,0.27116
26731,6.9885,2.2727,0.1,0.000416,4157.1,0.00041823,4226.2,-0.00012538,141.74,-0.00014424,0.0020296,0.26516
26732,7.0805,2.1818,0.1,0.00041386,4135.7,0.00041596,4200.5,-0.00012542,132.88,-0.0001431,0.00125,0.27157
26733,6.9885,2.4545,0.1,0.00041558,4152.9,0.00041788,4224.3,-0.00012483,146.61,-0.00014434,0.0029101,0.26545
26734,7.0805,2.3636,0.1,0.00041339,4131.1,0.00041557,4198.4,-0.00012482,138.18,-0.00014321,0.002211,0.2719
26735,6.9885,2.6364,0.1,0.00041527,4149.9,0.00041762,4222.9,-0.00012443,150.11,-0.00014441,0.0035358,0.26565
26736,7.0805,2.5455,0.1,0.00041304,4127.6,0.00041528,4196.8,-0.00012436,142.19,-0.00014329,0.0029259,0.27214
26737,6.9885,2.8182,0.1,0.00041509,4148,0.00041747,4222,-0.00012419,152.23,-0.00014445,0.0039108,0.26577
26738,7.0805,2.7273,0.1,0.00041281,4125.2,0.00041508,4195.8,-0.00012406,144.89,-0.00014334,0.003402,0.27231
26739,6.9885,3,0.1,0.00041503,4147.4,0.00041742,4221.8,-0.00012411,152.93,-0.00014446,0.0040357,0.26581
26740,7.0805,2.9091,0.1,0.00041269,4124,0.00041498,4195.2,-0.0001239,146.25,-0.00014337,0.0036398,0.27239
26741,6.9885,3.1818,0.1,0.00041509,4148,0.00041747,4222,-0.00012419,152.23,-0.00014445,0.0039108,0.26577
26742,7.0805,3.0909,0.1,0.00041269,4124,0.00041498,4195.2,-0.0001239,146.25,-0.00014337,0.0036398,0.27239
26743,6.9885,3.3636,0.1,0.00041527,4149.9,0.00041762,4222.9,-0.00012443,150.11,-0.00014441,0.0035359,0.26565
26744,7.0805,3.2727,0.1,0.00041281,4125.2,0.00041508,4195.8,-0.00012406,144.89,-0.00014334,0.0034019,0.27231
26745,6.9885,3.5455,0.1,0.00041558,4152.9,0.00041788,4224.3,-0.00012483,146.61,-0.00014434,0.0029104,0.26545
26746,7.0805,3.4545,0.1,0.00041304,4127.6,0.00041528,4196.8,-0.00012436,142.19,-0.00014329,0.0029262,0.27214
26747,6.9885,3.7273,0.1,0.000416,4157.1,0.00041823,4226.2,-0.00012538,141.74,-0.00014424,0.0020299,0.26516
26748,7.0805,3.6364,0.1,0.00041339,4131.1,0.00041557,4198.4,-0.00012482,138.18,-0.00014321,0.0022114,0.2719
26749,6.9885,3.9091,0.1,0.00041654,4162.5,0.00041868,4228.6,-0.00012608,135.57,-0.00014412,0.00088676,0.26479
26750,7.0805,3.8182,0.1,0.00041386,4135.7,0.00041596,4200.5,-0.00012542,132.88,-0.0001431,0.0012503,0.27157
26751,6.9885,4.0909,0.1,0.00041718,4169,0.00041922,4231.6,-0.00012692,128.13,-0.00014397,-0.00052962,0.26433
26752,7.0805,4,0.1,0.00041443,4141.4,0.00041643,4203.1,-0.00012616,126.35,-0.00014297,3.5794e-05,0.27116
26753,6.9885,4.2727,0.1,0.00041794,4176.5,0.00041984,4234.9,-0.00012789,119.5,-0.0001438,-0.0022394,0.26379
26754,7.0805,4.1818,0.1,0.0004151,4148.1,0.00041699,4206.2,-0.00012703,118.64,-0.00014282,-0.0014452,0.27066
26755,6.9885,4.4545,0.1,0.00041878,4185,0.00042054,4238.8,-0.00012899,109.75,-0.0001436,-0.0042844,0.26317
26756,7.0805,4.3636,0.1,0.00041587,4155.8,0.00041763,4209.6,-0.00012802,109.82,-0.00014264,-0.0032186,0.27008
26757,6.9885,4.6364,0.1,0.00041972,4194.3,0.00042132,4242.9,-0.00013021,98.968,-0.00014338,-0.0067119,0.26246
26758,7.0805,4.5455,0.1,0.00041673,4164.4,0.00041834,4213.5,-0.00012914,99.958,-0.00014244,-0.0053397,0.26942
26759,6.9885,4.8182,0.1,0.00042075,4204.5,0.00042216,4247.5,-0.00013153,87.239,-0.00014315,-0.0096979,0.26167
26760,7.0805,4.7273,0.1,0.00041767,4173.8,0.00041912,4217.7,-0.00013036,89.149,-0.00014223,-0.007846,0.26867
26761,6.9885,5,0.1,0.00042184,4215.5,0.00042306,4252.3,-0.00013295,74.661,-0.00014289,-0.013208,0.26079
26762,7.0805,4.9091,0.1,0.00041869,4184,0.00041996,4222.2,-0.00013168,77.478,-0.00014199,-0.011045,0.26784
26763,6.9885,5.1818,0.1,0.000423,4227.1,0.00042401,4257.4,-0.00013445,61.338,-0.00014262,-0.018736,0.25982
26764,7.0805,5.0909,0.1,0.00041978,4194.9,0.00042085,4227,-0.00013308,65.04,-0.00014174,-0.014585,0.26691
26765,6.9885,5.3636,0.1,0.00042422,4239.2,0.000425,4262.7,-0.00013603,47.375,-0.00014233,-0.022997,0.25876
26766,7.0805,5.2727,0.1,0.00042092,4206.3,0.00042178,4232,-0.00013456,51.934,-0.00014147,-0.021737,0.2659
26767,6.9885,5.5455,0.1,0.00042548,4251.9,0.00042603,4268.2,-0.00013766,32.854,-0.00014204,-0.052456,0.25762
26768,7.0805,5.4545,0.1,0.00042212,4218.3,0.00042276,4237.3,-0.0001361,38.265,-0.00014119,-0.023223,0.2648
26769,6.9885,5.7273,0.1,0.00042681,4265.2,0.00042711,4274,-0.00013937,17.694,-0.00014173,-0.074016,0.25638
26770,7.0805,5.6364,0.1,0.00042336,4230.6,0.00042376,4242.6,-0.00013769,24.082,-0.00014091,-0.080354,0.26362
26771,7.0805,5.8182,0.1,0.00042469,4244,0.00042484,4248.5,-0.00013938,9.1568,-0.00014061,-0.10601,0.26234
26772,6.9885,5.9091,0.1,0.00042788,4275.8,0.00042796,4278.2,-0.00014079,4.8223,-0.00014145,-0.12232,0.25505
26773,7.1724,0.27273,0.1,0.00042123,4209.4,0.00042149,4217.1,-0.0001377,15.538,-0.00013978,-0.068022,0.26967
26774,7.2644,0.18182,0.1,0.00041907,4187.8,0.0004192,4191.6,-0.00013765,7.6395,-0.00013868,-0.10602,0.27577
26775,7.1724,0.090909,0.1,0.00042218,4218.9,0.00042224,4220.8,-0.00013898,3.9352,-0.00013952,-0.12439,0.26835
26776,7.1724,0.45455,0.1,0.00041999,4197,0.00042048,4211.7,-0.00013613,29.497,-0.00014006,-0.047442,0.2709
26777,7.2644,0.36364,0.1,0.00041783,4175.4,0.00041819,4186,-0.00013609,21.413,-0.00013895,-0.072786,0.27704
26778,7.1724,0.63636,0.1,0.00041882,4185.3,0.00041953,4206.6,-0.00013463,42.827,-0.00014033,-0.020795,0.27204
26779,7.2644,0.54545,0.1,0.00041668,4164,0.00041726,4181.1,-0.00013462,34.432,-0.00013921,-0.020902,0.27823
26780,7.1724,0.81818,0.1,0.0004177,4174.1,0.00041862,4201.7,-0.00013318,55.639,-0.00014059,-0.017063,0.27309
26781,7.2644,0.72727,0.1,0.00041558,4153,0.00041636,4176.2,-0.00013321,46.971,-0.00013946,-0.019724,0.27932
26782,7.1724,1,0.1,0.00041663,4163.4,0.00041774,4196.9,-0.0001318,67.859,-0.00014084,-0.012134,0.27405
26783,7.2644,0.90909,0.1,0.00041453,4142.4,0.0004155,4171.6,-0.00013185,58.989,-0.00013971,-0.013339,0.28032
26784,7.1724,1.1818,0.1,0.00041562,4153.3,0.00041691,4192.5,-0.0001305,79.39,-0.00014107,-0.0090131,0.27493
26785,7.2644,1.0909,0.1,0.00041353,4132.4,0.00041468,4167.1,-0.00013057,70.391,-0.00013994,-0.010206,0.28124
26786,7.1724,1.3636,0.1,0.00041468,4143.9,0.00041614,4188.3,-0.00012929,90.14,-0.00014129,-0.0063506,0.27572
26787,7.2644,1.2727,0.1,0.00041259,4123,0.00041391,4163,-0.00012936,81.087,-0.00014015,-0.0073608,0.28207
26788,7.1724,1.5455,0.1,0.00041381,4135.3,0.00041542,4184.4,-0.00012817,100.02,-0.00014148,-0.0041828,0.27642
26789,7.2644,1.4545,0.1,0.00041172,4114.3,0.00041319,4159.1,-0.00012824,90.989,-0.00014035,-0.005129,0.28281
26790,7.1724,1.7273,0.1,0.00041303,4127.5,0.00041478,4180.9,-0.00012716,108.95,-0.00014166,-0.0023533,0.27704
26791,7.2644,1.6364,0.1,0.00041092,4106.4,0.00041253,4155.5,-0.00012722,100.02,-0.00014053,-0.003236,0.28348
26792,7.1724,1.9091,0.1,0.00041234,4120.5,0.0004142,4177.7,-0.00012627,116.85,-0.00014182,-0.00082148,0.27758
26793,7.2644,1.8182,0.1,0.00041021,4099.3,0.00041195,4152.3,-0.0001263,108.09,-0.00014069,-0.0016508,0.28405
26794,7.1724,2.0909,0.1,0.00041174,4114.6,0.00041371,4175,-0.0001255,123.66,-0.00014195,0.00044927,0.27803
26795,7.2644,2,0.1,0.00040959,4093.1,0.00041143,4149.5,-0.0001255,115.15,-0.00014083,-0.00032437,0.28454
26796,7.1724,2.2727,0.1,0.00041125,4109.7,0.0004133,4172.8,-0.00012486,129.32,-0.00014207,0.0014758,0.2784
26797,7.2644,2.1818,0.1,0.00040907,4087.9,0.000411,4147.1,-0.00012483,121.13,-0.00014095,0.00076443,0.28495
26798,7.1724,2.4545,0.1,0.00041086,4105.8,0.00041297,4171,-0.00012435,133.77,-0.00014216,0.0022672,0.27869
26799,7.2644,2.3636,0.1,0.00040864,4083.6,0.00041064,4145.2,-0.00012428,125.98,-0.00014104,0.0016269,0.28528
26800,7.1724,2.6364,0.1,0.00041058,4103,0.00041274,4169.7,-0.00012399,136.98,-0.00014222,0.00283,0.27889
26801,7.2644,2.5455,0.1,0.00040832,4080.4,0.00041037,4143.7,-0.00012386,129.66,-0.00014112,0.002269,0.28553
26802,7.1724,2.8182,0.1,0.00041041,4101.3,0.0004126,4169,-0.00012377,138.91,-0.00014226,0.0031674,0.27902
26803,7.2644,2.7273,0.1,0.00040811,4078.2,0.00041019,4142.7,-0.00012358,132.12,-0.00014117,0.0026968,0.28569
26804,7.1724,3,0.1,0.00041035,4100.7,0.00041255,4168.7,-0.0001237,139.56,-0.00014227,0.0032799,0.27906
26805,7.2644,2.9091,0.1,0.000408,4077.2,0.0004101,4142.2,-0.00012344,133.36,-0.00014119,0.0029106,0.28577
26806,7.1724,3.1818,0.1,0.00041041,4101.3,0.0004126,4169,-0.00012377,138.91,-0.00014226,0.0031674,0.27902
26807,7.2644,3.0909,0.1,0.000408,4077.2,0.0004101,4142.2,-0.00012344,133.36,-0.00014119,0.0029107,0.28577
26808,7.1724,3.3636,0.1,0.00041058,4103,0.00041274,4169.7,-0.00012399,136.98,-0.00014222,0.00283,0.27889
26809,7.2644,3.2727,0.1,0.00040811,4078.2,0.00041019,4142.7,-0.00012358,132.12,-0.00014117,0.0026968,0.28569
26810,7.1724,3.5455,0.1,0.00041086,4105.8,0.00041297,4171,-0.00012435,133.77,-0.00014216,0.0022676,0.27869
26811,7.2644,3.4545,0.1,0.00040832,4080.4,0.00041037,4143.7,-0.00012386,129.66,-0.00014112,0.0022692,0.28553
26812,7.1724,3.7273,0.1,0.00041125,4109.7,0.0004133,4172.8,-0.00012486,129.32,-0.00014207,0.0014761,0.2784
26813,7.2644,3.6364,0.1,0.00040864,4083.6,0.00041064,4145.2,-0.00012428,125.98,-0.00014104,0.0016273,0.28528
26814,7.1724,3.9091,0.1,0.00041174,4114.6,0.00041371,4175,-0.0001255,123.66,-0.00014195,0.00044944,0.27803
26815,7.2644,3.8182,0.1,0.00040907,4087.9,0.000411,4147.1,-0.00012483,121.13,-0.00014095,0.0007647,0.28495
26816,7.1724,4.0909,0.1,0.00041234,4120.5,0.0004142,4177.7,-0.00012627,116.85,-0.00014182,-0.00082106,0.27758
26817,7.2644,4,0.1,0.00040959,4093.1,0.00041143,4149.5,-0.0001255,115.15,-0.00014083,-0.0003242,0.28454
26818,7.1724,4.2727,0.1,0.00041303,4127.5,0.00041478,4180.9,-0.00012716,108.95,-0.00014166,-0.0023528,0.27704
26819,7.2644,4.1818,0.1,0.00041021,4099.3,0.00041195,4152.3,-0.0001263,108.09,-0.00014069,-0.0016502,0.28405
26820,7.1724,4.4545,0.1,0.00041381,4135.3,0.00041542,4184.4,-0.00012817,100.02,-0.00014148,-0.0041823,0.27642
26821,7.2644,4.3636,0.1,0.00041092,4106.4,0.00041253,4155.5,-0.00012722,100.02,-0.00014053,-0.0032355,0.28348
26822,7.1724,4.6364,0.1,0.00041468,4143.9,0.00041614,4188.3,-0.00012929,90.14,-0.00014129,-0.0063498,0.27572
26823,7.2644,4.5455,0.1,0.00041172,4114.3,0.00041319,4159.1,-0.00012824,90.989,-0.00014035,-0.0051284,0.28281
26824,7.1724,4.8182,0.1,0.00041562,4153.3,0.00041691,4192.5,-0.0001305,79.39,-0.00014107,-0.0090123,0.27493
26825,7.2644,4.7273,0.1,0.00041259,4123,0.00041391,4163,-0.00012936,81.087,-0.00014015,-0.00736,0.28207
26826,7.1724,5,0.1,0.00041663,4163.4,0.00041774,4196.9,-0.0001318,67.858,-0.00014084,-0.012133,0.27405
26827,7.2644,4.9091,0.1,0.00041353,4132.4,0.00041468,4167.1,-0.00013057,70.391,-0.00013994,-0.010205,0.28124
26828,7.1724,5.1818,0.1,0.0004177,4174.1,0.00041862,4201.7,-0.00013318,55.639,-0.00014059,-0.017062,0.27309
26829,7.2644,5.0909,0.1,0.00041453,4142.4,0.0004155,4171.6,-0.00013185,58.989,-0.00013971,-0.013337,0.28032
26830,7.1724,5.3636,0.1,0.00041882,4185.3,0.00041953,4206.6,-0.00013463,42.827,-0.00014033,-0.020794,0.27204
26831,7.2644,5.2727,0.1,0.00041558,4153,0.00041636,4176.2,-0.00013321,46.971,-0.00013946,-0.019723,0.27932
26832,7.1724,5.5455,0.1,0.00041999,4197,0.00042048,4211.7,-0.00013613,29.497,-0.00014006,-0.047441,0.2709
26833,7.2644,5.4545,0.1,0.00041668,4164,0.00041726,4181.1,-0.00013462,34.432,-0.00013921,-0.020902,0.27823
26834,7.1724,5.7273,0.1,0.00042123,4209.4,0.00042149,4217.1,-0.0001377,15.538,-0.00013978,-0.068021,0.26967
26835,7.2644,5.6364,0.1,0.00041783,4175.4,0.00041819,4186,-0.00013609,21.413,-0.00013895,-0.072785,0.27704
26836,7.2644,5.8182,0.1,0.00041907,4187.8,0.0004192,4191.6,-0.00013765,7.6395,-0.00013868,-0.10602,0.27577
26837,7.1724,5.9091,0.1,0.00042218,4218.9,0.00042224,4220.8,-0.00013898,3.9352,-0.00013952,-0.12439,0.26835
26838,7.3563,0.27273,0.1,0.00041567,4153.8,0.0004159,4160.5,-0.00013604,13.507,-0.00013784,-0.062721,0.28324
26839,7.4483,0.18182,0.1,0.00041349,4132,0.00041359,4135.1,-0.00013593,6.2037,-0.00013677,-0.109,0.2895
26840,7.3563,0.090909,0.1,0.00041652,4162.3,0.00041657,4163.8,-0.00013718,3.0955,-0.00013761,-0.13054,0.28193
26841,7.3563,0.45455,0.1,0.00041452,4142.4,0.00041496,4155.4,-0.00013459,26.354,-0.0001381,-0.042823,0.28446
26842,7.4483,0.36364,0.1,0.00041233,4120.4,0.00041264,4129.8,-0.00013448,18.909,-0.00013701,-0.065807,0.29076
26843,7.3563,0.63636,0.1,0.00041344,4131.6,0.00041409,4150.7,-0.00013321,38.581,-0.00013834,-0.018777,0.2856
26844,7.4483,0.54545,0.1,0.00041127,4109.9,0.00041179,4125.2,-0.00013314,30.849,-0.00013725,-0.018776,0.29193
26845,7.3563,0.81818,0.1,0.00041241,4121.2,0.00041324,4146.2,-0.00013188,50.326,-0.00013858,-0.015532,0.28664
26846,7.4483,0.72727,0.1,0.00041025,4099.7,0.00041096,4120.7,-0.00013184,42.341,-0.00013748,-0.017877,0.29301
26847,7.3563,1,0.1,0.00041142,4111.4,0.00041243,4141.8,-0.00013062,61.526,-0.00013881,-0.011155,0.2876
26848,7.4483,0.90909,0.1,0.00040928,4090,0.00041016,4116.4,-0.0001306,53.352,-0.0001377,-0.012201,0.29401
26849,7.3563,1.1818,0.1,0.00041049,4102.1,0.00041167,4137.6,-0.00012942,72.091,-0.00013902,-0.008394,0.28847
26850,7.4483,1.0909,0.1,0.00040836,4080.8,0.00040941,4112.3,-0.00012941,63.796,-0.00013791,-0.0094445,0.29492
26851,7.3563,1.3636,0.1,0.00040962,4093.4,0.00041096,4133.8,-0.00012831,81.938,-0.00013921,-0.0060299,0.28926
26852,7.4483,1.2727,0.1,0.00040749,4072.1,0.0004087,4108.4,-0.00012831,73.59,-0.0001381,-0.0069256,0.29575
26853,7.3563,1.5455,0.1,0.00040883,4085.4,0.0004103,4130.2,-0.00012728,90.986,-0.00013939,-0.0041016,0.28996
26854,7.4483,1.4545,0.1,0.00040669,4064.1,0.00040804,4104.8,-0.00012728,82.655,-0.00013828,-0.0049472,0.29649
26855,7.3563,1.7273,0.1,0.00040811,4078.3,0.0004097,4126.9,-0.00012636,99.161,-0.00013956,-0.0024704,0.29057
26856,7.4483,1.6364,0.1,0.00040596,4056.8,0.00040743,4101.5,-0.00012635,90.918,-0.00013845,-0.0032641,0.29715
26857,7.3563,1.9091,0.1,0.00040747,4071.9,0.00040918,4124,-0.00012554,106.4,-0.0001397,-0.001102,0.29111
26858,7.4483,1.8182,0.1,0.00040531,4050.3,0.00040689,4098.6,-0.00012551,98.31,-0.00013859,-0.0018519,0.29772
26859,7.3563,2.0909,0.1,0.00040692,4066.4,0.00040872,4121.6,-0.00012483,112.63,-0.00013982,3.4966e-05,0.29156
26860,7.4483,2,0.1,0.00040474,4044.6,0.00040642,4096,-0.00012478,104.77,-0.00013872,-0.00066783,0.29821
26861,7.3563,2.2727,0.1,0.00040647,4061.9,0.00040834,4119.5,-0.00012425,117.8,-0.00013993,0.00095465,0.29192
26862,7.4483,2.1818,0.1,0.00040426,4039.8,0.00040602,4093.8,-0.00012416,110.24,-0.00013883,0.00030585,0.29862
26863,7.3563,2.4545,0.1,0.00040611,4058.3,0.00040804,4117.8,-0.00012379,121.87,-0.00014001,0.0016644,0.29221
26864,7.4483,2.3636,0.1,0.00040387,4035.9,0.00040569,4092,-0.00012365,114.67,-0.00013892,0.001078,0.29894
26865,7.3563,2.6364,0.1,0.00040585,4055.7,0.00040783,4116.7,-0.00012345,124.81,-0.00014006,0.0021693,0.29241
26866,7.4483,2.5455,0.1,0.00040357,4032.9,0.00040545,4090.6,-0.00012327,118.04,-0.00013898,0.0016534,0.29919
26867,7.3563,2.8182,0.1,0.00040569,4054.1,0.0004077,4115.9,-0.00012325,126.58,-0.0001401,0.0024721,0.29254
26868,7.4483,2.7273,0.1,0.00040337,4030.9,0.00040528,4089.7,-0.00012302,120.29,-0.00013903,0.002037,0.29935
26869,7.3563,3,0.1,0.00040564,4053.6,0.00040766,4115.7,-0.00012319,127.17,-0.00014011,0.0025733,0.29258
26870,7.4483,2.9091,0.1,0.00040327,4029.9,0.0004052,4089.3,-0.00012289,121.43,-0.00013905,0.0022289,0.29943
26871,7.3563,3.1818,0.1,0.00040569,4054.1,0.0004077,4115.9,-0.00012325,126.58,-0.0001401,0.0024723,0.29254
26872,7.4483,3.0909,0.1,0.00040327,4029.9,0.0004052,4089.3,-0.00012289,121.43,-0.00013905,0.0022291,0.29943
26873,7.3563,3.3636,0.1,0.00040585,4055.7,0.00040783,4116.7,-0.00012345,124.81,-0.00014006,0.0021694,0.29241
26874,7.4483,3.2727,0.1,0.00040337,4030.9,0.00040528,4089.7,-0.00012302,120.29,-0.00013903,0.0020371,0.29935
26875,7.3563,3.5455,0.1,0.00040611,4058.3,0.00040804,4117.8,-0.00012379,121.87,-0.00014001,0.0016646,0.29221
26876,7.4483,3.4545,0.1,0.00040357,4032.9,0.00040545,4090.6,-0.00012327,118.04,-0.00013898,0.0016535,0.29919
26877,7.3563,3.7273,0.1,0.00040647,4061.9,0.00040834,4119.5,-0.00012425,117.8,-0.00013993,0.00095498,0.29192
26878,7.4483,3.6364,0.1,0.00040387,4035.9,0.00040569,4092,-0.00012365,114.67,-0.00013892,0.0010784,0.29894
26879,7.3563,3.9091,0.1,0.00040692,4066.4,0.00040872,4121.6,-0.00012483,112.63,-0.00013982,3.5233e-05,0.29156
26880,7.4483,3.8182,0.1,0.00040426,4039.8,0.00040602,4093.8,-0.00012416,110.24,-0.00013883,0.00030603,0.29862
26881,7.3563,4.0909,0.1,0.00040747,4071.9,0.00040918,4124,-0.00012554,106.4,-0.0001397,-0.0011016,0.29111
26882,7.4483,4,0.1,0.00040474,4044.6,0.00040642,4096,-0.00012478,104.77,-0.00013872,-0.00066745,0.29821
26883,7.3563,4.2727,0.1,0.00040811,4078.3,0.0004097,4126.9,-0.00012636,99.161,-0.00013956,-0.0024698,0.29057
26884,7.4483,4.1818,0.1,0.00040531,4050.3,0.00040689,4098.6,-0.00012551,98.31,-0.00013859,-0.0018513,0.29772
26885,7.3563,4.4545,0.1,0.00040883,4085.4,0.0004103,4130.2,-0.00012728,90.986,-0.00013939,-0.0041009,0.28996
26886,7.4483,4.3636,0.1,0.00040596,4056.8,0.00040743,4101.5,-0.00012635,90.918,-0.00013845,-0.0032634,0.29715
26887,7.3563,4.6364,0.1,0.00040962,4093.4,0.00041096,4133.8,-0.00012831,81.938,-0.00013921,-0.0060292,0.28926
26888,7.4483,4.5455,0.1,0.00040669,4064.1,0.00040804,4104.8,-0.00012728,82.655,-0.00013828,-0.0049464,0.29649
26889,7.3563,4.8182,0.1,0.00041049,4102.1,0.00041167,4137.6,-0.00012942,72.091,-0.00013902,-0.0083935,0.28847
26890,7.4483,4.7273,0.1,0.00040749,4072.1,0.0004087,4108.4,-0.00012831,73.59,-0.0001381,-0.0069248,0.29575
26891,7.3563,5,0.1,0.00041142,4111.4,0.00041243,4141.8,-0.00013062,61.526,-0.00013881,-0.011154,0.2876
26892,7.4483,4.9091,0.1,0.00040836,4080.8,0.00040941,4112.3,-0.00012941,63.796,-0.00013791,-0.0094438,0.29492
26893,7.3563,5.1818,0.1,0.00041241,4121.2,0.00041324,4146.2,-0.00013188,50.326,-0.00013858,-0.015531,0.28664
26894,7.4483,5.0909,0.1,0.00040928,4090,0.00041016,4116.4,-0.0001306,53.352,-0.0001377,-0.012199,0.29401
26895,7.3563,5.3636,0.1,0.00041344,4131.6,0.00041409,4150.7,-0.00013321,38.581,-0.00013834,-0.018777,0.2856
26896,7.4483,5.2727,0.1,0.00041025,4099.7,0.00041096,4120.7,-0.00013184,42.341,-0.00013748,-0.017876,0.29301
26897,7.3563,5.5455,0.1,0.00041452,4142.4,0.00041496,4155.4,-0.00013459,26.354,-0.0001381,-0.042822,0.28446
26898,7.4483,5.4545,0.1,0.00041127,4109.9,0.00041179,4125.2,-0.00013314,30.849,-0.00013725,-0.018776,0.29193
26899,7.3563,5.7273,0.1,0.00041567,4153.8,0.0004159,4160.5,-0.00013604,13.507,-0.00013784,-0.06272,0.28324
26900,7.4483,5.6364,0.1,0.00041233,4120.4,0.00041264,4129.8,-0.00013448,18.909,-0.00013701,-0.065805,0.29076
26901,7.4483,5.8182,0.1,0.00041349,4132,0.00041359,4135.1,-0.00013593,6.2037,-0.00013677,-0.10899,0.2895
26902,7.3563,5.9091,0.1,0.00041652,4162.3,0.00041657,4163.8,-0.00013718,3.0955,-0.00013761,-0.13054,0.28193
26903,7.5402,0.27273,0.1,0.00041014,4098.6,0.00041034,4104.3,-0.00013437,11.595,-0.00013593,-0.058092,0.2971
26904,7.6322,0.18182,0.1,0.00040794,4076.5,0.00040802,4078.9,-0.00013421,4.8485,-0.00013487,-0.11647,0.3035
26905,7.5402,0.090909,0.1,0.00041089,4106,0.00041092,4107.1,-0.00013539,2.3054,-0.00013572,-0.14383,0.2958
26906,7.5402,0.45455,0.1,0.00040907,4087.9,0.00040947,4099.6,-0.00013303,23.411,-0.00013616,-0.038563,0.29831
26907,7.6322,0.36364,0.1,0.00040685,4065.7,0.00040713,4073.9,-0.00013287,16.559,-0.00013509,-0.059364,0.30475
26908,7.5402,0.63636,0.1,0.00040808,4078,0.00040866,4095.2,-0.00013177,34.616,-0.00013638,-0.016928,0.29944
26909,7.6322,0.54545,0.1,0.00040588,4056,0.00040634,4069.6,-0.00013164,27.498,-0.0001353,-0.016827,0.30591
26910,7.5402,0.81818,0.1,0.00040713,4068.5,0.00040788,4090.9,-0.00013055,45.373,-0.00013659,-0.014132,0.30047
26911,7.6322,0.72727,0.1,0.00040494,4046.6,0.00040557,4065.5,-0.00013045,38.02,-0.00013551,-0.016184,0.30699
26912,7.5402,1,0.1,0.00040622,4059.4,0.00040713,4086.9,-0.00012939,55.628,-0.0001368,-0.010265,0.30142
26913,7.6322,0.90909,0.1,0.00040404,4037.6,0.00040484,4061.5,-0.00012931,48.098,-0.00013571,-0.011164,0.30798
26914,7.5402,1.1818,0.1,0.00040536,4050.8,0.00040643,4083.1,-0.0001283,65.299,-0.00013699,-0.0078363,0.30229
26915,7.6322,1.0909,0.1,0.00040319,4029.2,0.00040414,4057.7,-0.00012823,57.655,-0.0001359,-0.0087554,0.30888
26916,7.5402,1.3636,0.1,0.00040456,4042.8,0.00040577,4079.5,-0.00012728,74.311,-0.00013717,-0.0057471,0.30307
26917,7.6322,1.2727,0.1,0.0004024,4021.2,0.00040349,4054.1,-0.00012721,66.615,-0.00013608,-0.0065374,0.3097
26918,7.5402,1.5455,0.1,0.00040383,4035.5,0.00040517,4076.2,-0.00012634,82.591,-0.00013733,-0.0040391,0.30377
26919,7.6322,1.4545,0.1,0.00040166,4013.8,0.00040288,4050.8,-0.00012627,74.907,-0.00013624,-0.0047923,0.31044
26920,7.5402,1.7273,0.1,0.00040317,4028.9,0.00040462,4073.2,-0.00012549,90.07,-0.00013748,-0.0025904,0.30438
26921,7.6322,1.6364,0.1,0.00040099,4007.1,0.00040233,4047.7,-0.00012541,82.464,-0.00013639,-0.0033024,0.31109
26922,7.5402,1.9091,0.1,0.00040258,4023,0.00040414,4070.5,-0.00012474,96.687,-0.00013761,-0.0013724,0.30491
26923,7.6322,1.8182,0.1,0.00040039,4001.1,0.00040183,4045,-0.00012465,89.224,-0.00013652,-0.002049,0.31166
26924,7.5402,2.0909,0.1,0.00040208,4018,0.00040372,4068.2,-0.0001241,102.39,-0.00013772,-0.0003582,0.30536
26925,7.6322,2,0.1,0.00039986,3995.9,0.0004014,4042.6,-0.00012398,95.129,-0.00013664,-0.00099586,0.31215
26926,7.5402,2.2727,0.1,0.00040166,4013.8,0.00040337,4066.3,-0.00012356,107.12,-0.00013782,0.00046348,0.30572
26927,7.6322,2.1818,0.1,0.00039942,3991.4,0.00040103,4040.6,-0.00012341,100.13,-0.00013674,-0.00012777,0.31255
26928,7.5402,2.4545,0.1,0.00040133,4010.5,0.0004031,4064.8,-0.00012314,110.84,-0.00013789,0.0010983,0.30601
26929,7.6322,2.3636,0.1,0.00039906,3987.8,0.00040073,4038.9,-0.00012295,104.19,-0.00013682,0.00056174,0.31288
26930,7.5402,2.6364,0.1,0.00040109,4008.1,0.0004029,4063.7,-0.00012283,113.52,-0.00013794,0.0015505,0.30621
26931,7.6322,2.5455,0.1,0.00039879,3985.1,0.0004005,4037.7,-0.0001226,107.26,-0.00013688,0.0010761,0.31312
26932,7.5402,2.8182,0.1,0.00040095,4006.7,0.00040278,4063,-0.00012265,115.14,-0.00013797,0.0018221,0.30633
26933,7.6322,2.7273,0.1,0.0003986,3983.3,0.00040035,4036.8,-0.00012237,109.32,-0.00013692,0.0014193,0.31328
26934,7.5402,3,0.1,0.0004009,4006.2,0.00040274,4062.8,-0.00012259,115.69,-0.00013799,0.0019127,0.30637
26935,7.6322,2.9091,0.1,0.00039851,3982.4,0.00040027,4036.4,-0.00012225,110.36,-0.00013694,0.0015913,0.31336
26936,7.5402,3.1818,0.1,0.00040095,4006.7,0.00040278,4063,-0.00012265,115.14,-0.00013797,0.0018222,0.30633
26937,7.6322,3.0909,0.1,0.00039851,3982.4,0.00040027,4036.4,-0.00012225,110.36,-0.00013694,0.0015913,0.31336
26938,7.5402,3.3636,0.1,0.00040109,4008.1,0.0004029,4063.7,-0.00012283,113.52,-0.00013794,0.0015506,0.30621
26939,7.6322,3.2727,0.1,0.0003986,3983.3,0.00040035,4036.8,-0.00012237,109.32,-0.00013692,0.0014195,0.31328
26940,7.5402,3.5455,0.1,0.00040133,4010.5,0.0004031,4064.8,-0.00012314,110.84,-0.00013789,0.0010986,0.30601
26941,7.6322,3.4545,0.1,0.00039879,3985.1,0.0004005,4037.7,-0.0001226,107.26,-0.00013688,0.0010761,0.31312
26942,7.5402,3.7273,0.1,0.00040166,4013.8,0.00040337,4066.3,-0.00012356,107.12,-0.00013782,0.00046378,0.30572
26943,7.6322,3.6364,0.1,0.00039906,3987.8,0.00040073,4038.9,-0.00012295,104.19,-0.00013682,0.00056218,0.31288
26944,7.5402,3.9091,0.1,0.00040208,4018,0.00040372,4068.2,-0.0001241,102.39,-0.00013772,-0.00035791,0.30536
26945,7.6322,3.8182,0.1,0.00039942,3991.4,0.00040103,4040.6,-0.00012341,100.13,-0.00013674,-0.00012756,0.31255
26946,7.5402,4.0909,0.1,0.00040258,4023,0.00040414,4070.5,-0.00012474,96.687,-0.00013761,-0.0013719,0.30491
26947,7.6322,4,0.1,0.00039986,3995.9,0.0004014,4042.6,-0.00012398,95.129,-0.00013664,-0.00099533,0.31215
26948,7.5402,4.2727,0.1,0.00040317,4028.9,0.00040462,4073.2,-0.00012549,90.07,-0.00013748,-0.0025897,0.30438
26949,7.6322,4.1818,0.1,0.00040039,4001.1,0.00040183,4045,-0.00012465,89.224,-0.00013652,-0.0020486,0.31166
26950,7.5402,4.4545,0.1,0.00040383,4035.5,0.00040517,4076.2,-0.00012634,82.591,-0.00013733,-0.0040383,0.30377
26951,7.6322,4.3636,0.1,0.00040099,4007.1,0.00040233,4047.7,-0.00012541,82.464,-0.00013639,-0.0033016,0.31109
26952,7.5402,4.6364,0.1,0.00040456,4042.8,0.00040577,4079.5,-0.00012728,74.311,-0.00013717,-0.0057462,0.30307
26953,7.6322,4.5455,0.1,0.00040166,4013.8,0.00040288,4050.8,-0.00012627,74.907,-0.00013624,-0.0047915,0.31044
26954,7.5402,4.8182,0.1,0.00040536,4050.8,0.00040643,4083.1,-0.0001283,65.299,-0.00013699,-0.0078353,0.30229
26955,7.6322,4.7273,0.1,0.0004024,4021.2,0.00040349,4054.1,-0.00012721,66.615,-0.00013608,-0.0065367,0.3097
26956,7.5402,5,0.1,0.00040622,4059.4,0.00040713,4086.9,-0.00012939,55.628,-0.0001368,-0.010264,0.30142
26957,7.6322,4.9091,0.1,0.00040319,4029.2,0.00040414,4057.7,-0.00012823,57.655,-0.0001359,-0.0087546,0.30888
26958,7.5402,5.1818,0.1,0.00040713,4068.5,0.00040788,4090.9,-0.00013055,45.373,-0.00013659,-0.01413,0.30047
26959,7.6322,5.0909,0.1,0.00040404,4037.6,0.00040484,4061.5,-0.00012931,48.098,-0.00013571,-0.011163,0.30798
26960,7.5402,5.3636,0.1,0.00040808,4078,0.00040866,4095.2,-0.00013177,34.616,-0.00013638,-0.016927,0.29944
26961,7.6322,5.2727,0.1,0.00040494,4046.6,0.00040557,4065.5,-0.00013045,38.02,-0.00013551,-0.016183,0.30699
26962,7.5402,5.5455,0.1,0.00040907,4087.9,0.00040947,4099.6,-0.00013303,23.411,-0.00013616,-0.038562,0.29831
26963,7.6322,5.4545,0.1,0.00040588,4056,0.00040634,4069.6,-0.00013164,27.498,-0.0001353,-0.016826,0.30591
26964,7.5402,5.7273,0.1,0.00041014,4098.6,0.00041033,4104.3,-0.00013437,11.595,-0.00013593,-0.058091,0.2971
26965,7.6322,5.6364,0.1,0.00040685,4065.7,0.00040713,4073.9,-0.00013287,16.559,-0.00013509,-0.059363,0.30475
26966,7.6322,5.8182,0.1,0.00040794,4076.5,0.00040802,4078.9,-0.00013421,4.8486,-0.00013487,-0.11647,0.3035
26967,7.5402,5.9091,0.1,0.00041089,4106,0.00041092,4107.1,-0.00013539,2.3054,-0.00013572,-0.14383,0.2958
26968,7.7241,0.27273,0.1,0.00040464,4043.6,0.0004048,4048.5,-0.00013271,9.7961,-0.00013402,-0.054143,0.31123
26969,7.8161,0.18182,0.1,0.00040241,4021.4,0.00040247,4023.1,-0.00013249,3.5746,-0.00013298,-0.13195,0.31777
26970,7.7241,0.090909,0.1,0.00040529,4050.1,0.00040532,4050.8,-0.00013361,1.5715,-0.00013384,-0.172,0.30994
26971,7.7241,0.45455,0.1,0.00040365,4033.7,0.000404,4044,-0.00013148,20.655,-0.00013423,-0.034629,0.31244
26972,7.8161,0.36364,0.1,0.0004014,4011.2,0.00040164,4018.4,-0.00013126,14.354,-0.00013318,-0.05341,0.31901
26973,7.7241,0.63636,0.1,0.00040273,4024.6,0.00040325,4039.9,-0.00013032,30.911,-0.00013443,-0.015232,0.31355
26974,7.8161,0.54545,0.1,0.0004005,4002.2,0.00040091,4014.4,-0.00013013,24.364,-0.00013337,-0.015038,0.32017
26975,7.7241,0.81818,0.1,0.00040186,4015.8,0.00040253,4036,-0.0001292,40.752,-0.00013463,-0.012851,0.31458
26976,7.8161,0.72727,0.1,0.00039964,3993.6,0.00040021,4010.5,-0.00012904,33.984,-0.00013356,-0.014632,0.32123
26977,7.7241,1,0.1,0.00040102,4007.4,0.00040185,4032.2,-0.00012814,50.131,-0.00013481,-0.0094573,0.31552
26978,7.8161,0.90909,0.1,0.00039881,3985.4,0.00039953,4006.8,-0.00012799,43.197,-0.00013374,-0.010221,0.32222
26979,7.7241,1.1818,0.1,0.00040023,3999.5,0.0004012,4028.7,-0.00012714,58.976,-0.00013499,-0.0073348,0.31638
26980,7.8161,1.0909,0.1,0.00039803,3977.6,0.00039889,4003.3,-0.000127,51.932,-0.00013391,-0.008133,0.32311
26981,7.7241,1.3636,0.1,0.00039949,3992.2,0.0004006,4025.4,-0.0001262,67.215,-0.00013515,-0.0054994,0.31716
26982,7.8161,1.2727,0.1,0.0003973,3970.2,0.00039829,4000,-0.00012607,60.12,-0.00013408,-0.0061929,0.32393
26983,7.7241,1.5455,0.1,0.00039882,3985.4,0.00040004,4022.3,-0.00012534,74.785,-0.0001353,-0.0039942,0.31785
26984,7.8161,1.4545,0.1,0.00039662,3963.5,0.00039773,3996.9,-0.00012521,67.697,-0.00013422,-0.0046628,0.32466
26985,7.7241,1.7273,0.1,0.00039821,3979.4,0.00039954,4019.5,-0.00012457,81.622,-0.00013543,-0.002713,0.31846
26986,7.8161,1.6364,0.1,0.000396,3957.3,0.00039722,3994.1,-0.00012443,74.602,-0.00013436,-0.0033504,0.32531
26987,7.7241,1.9091,0.1,0.00039767,3974,0.00039909,4017.1,-0.00012388,87.67,-0.00013555,-0.0016331,0.31899
26988,7.8161,1.8182,0.1,0.00039545,3951.8,0.00039676,3991.6,-0.00012373,80.778,-0.00013448,-0.002243,0.32588
26989,7.7241,2.0909,0.1,0.00039721,3969.3,0.00039871,4015,-0.00012329,92.878,-0.00013565,-0.00073166,0.31943
26990,7.8161,2,0.1,0.00039497,3947,0.00039636,3989.3,-0.00012312,86.173,-0.00013459,-0.0013096,0.32636
26991,7.7241,2.2727,0.1,0.00039682,3965.5,0.00039839,4013.2,-0.0001228,97.202,-0.00013574,4.1502e-07,0.3198
26992,7.8161,2.1818,0.1,0.00039456,3942.9,0.00039603,3987.5,-0.0001226,90.743,-0.00013467,-0.00053821,0.32676
26993,7.7241,2.4545,0.1,0.00039652,3962.5,0.00039814,4011.8,-0.00012241,100.61,-0.0001358,0.00056686,0.32008
26994,7.8161,2.3636,0.1,0.00039423,3939.6,0.00039575,3986,-0.00012218,94.447,-0.00013475,7.5854e-05,0.32709
26995,7.7241,2.6364,0.1,0.0003963,3960.3,0.00039795,4010.8,-0.00012214,103.06,-0.00013585,0.00097053,0.32028
26996,7.8161,2.5455,0.1,0.00039398,3937.1,0.00039554,3984.8,-0.00012186,97.253,-0.0001348,0.00053423,0.32733
26997,7.7241,2.8182,0.1,0.00039617,3959,0.00039784,4010.2,-0.00012197,104.54,-0.00013588,0.0012133,0.3204
26998,7.8161,2.7273,0.1,0.00039381,3935.4,0.0003954,3984,-0.00012164,99.138,-0.00013484,0.00084065,0.32749
26999,7.7241,3,0.1,0.00039613,3958.5,0.00039781,4010,-0.00012191,105.03,-0.00013589,0.0012943,0.32044
27000,7.8161,2.9091,0.1,0.00039373,3934.6,0.00039533,3983.6,-0.00012154,100.08,-0.00013486,0.00099433,0.32757
27001,7.7241,3.1818,0.1,0.00039617,3959,0.00039784,4010.2,-0.00012197,104.54,-0.00013588,0.0012133,0.3204
27002,7.8161,3.0909,0.1,0.00039373,3934.6,0.00039533,3983.6,-0.00012154,100.08,-0.00013486,0.0009943,0.32757
27003,7.7241,3.3636,0.1,0.0003963,3960.3,0.00039795,4010.8,-0.00012214,103.06,-0.00013585,0.00097071,0.32028
27004,7.8161,3.2727,0.1,0.00039381,3935.4,0.0003954,3984,-0.00012164,99.138,-0.00013484,0.0008408,0.32749
27005,7.7241,3.5455,0.1,0.00039652,3962.5,0.00039814,4011.8,-0.00012241,100.61,-0.0001358,0.00056707,0.32008
27006,7.8161,3.4545,0.1,0.00039398,3937.1,0.00039554,3984.8,-0.00012186,97.253,-0.0001348,0.00053437,0.32733
27007,7.7241,3.7273,0.1,0.00039682,3965.5,0.00039839,4013.2,-0.0001228,97.202,-0.00013574,7.7198e-07,0.3198
27008,7.8161,3.6364,0.1,0.00039423,3939.6,0.00039575,3986,-0.00012218,94.447,-0.00013475,7.6061e-05,0.32709
27009,7.7241,3.9091,0.1,0.00039721,3969.3,0.00039871,4015,-0.00012329,92.878,-0.00013565,-0.00073122,0.31943
27010,7.8161,3.8182,0.1,0.00039456,3942.9,0.00039603,3987.5,-0.0001226,90.743,-0.00013467,-0.00053792,0.32676
27011,7.7241,4.0909,0.1,0.00039767,3974,0.00039909,4017.1,-0.00012388,87.67,-0.00013555,-0.0016327,0.31899
27012,7.8161,4,0.1,0.00039497,3947,0.00039636,3989.3,-0.00012312,86.173,-0.00013459,-0.0013091,0.32636
27013,7.7241,4.2727,0.1,0.00039821,3979.4,0.00039954,4019.5,-0.00012457,81.622,-0.00013543,-0.0027125,0.31846
27014,7.8161,4.1818,0.1,0.00039545,3951.8,0.00039676,3991.6,-0.00012373,80.778,-0.00013448,-0.0022426,0.32588
27015,7.7241,4.4545,0.1,0.00039882,3985.4,0.00040004,4022.3,-0.00012534,74.785,-0.0001353,-0.0039935,0.31785
27016,7.8161,4.3636,0.1,0.000396,3957.3,0.00039722,3994.1,-0.00012443,74.602,-0.00013436,-0.0033499,0.32531
27017,7.7241,4.6364,0.1,0.00039949,3992.2,0.0004006,4025.4,-0.0001262,67.215,-0.00013515,-0.0054987,0.31716
27018,7.8161,4.5455,0.1,0.00039662,3963.5,0.00039773,3996.9,-0.00012521,67.697,-0.00013422,-0.004662,0.32466
27019,7.7241,4.8182,0.1,0.00040023,3999.5,0.0004012,4028.7,-0.00012714,58.976,-0.00013499,-0.0073341,0.31638
27020,7.8161,4.7273,0.1,0.0003973,3970.2,0.00039829,4000,-0.00012607,60.12,-0.00013408,-0.0061922,0.32393
27021,7.7241,5,0.1,0.00040102,4007.4,0.00040185,4032.2,-0.00012814,50.131,-0.00013481,-0.0094564,0.31552
27022,7.8161,4.9091,0.1,0.00039803,3977.6,0.00039889,4003.3,-0.000127,51.932,-0.00013391,-0.0081324,0.32311
27023,7.7241,5.1818,0.1,0.00040185,4015.8,0.00040253,4036,-0.0001292,40.752,-0.00013463,-0.01285,0.31458
27024,7.8161,5.0909,0.1,0.00039881,3985.4,0.00039953,4006.8,-0.00012799,43.197,-0.00013374,-0.010219,0.32222
27025,7.7241,5.3636,0.1,0.00040273,4024.6,0.00040325,4039.9,-0.00013032,30.911,-0.00013443,-0.015231,0.31355
27026,7.8161,5.2727,0.1,0.00039964,3993.6,0.00040021,4010.5,-0.00012904,33.984,-0.00013356,-0.014631,0.32123
27027,7.7241,5.5455,0.1,0.00040365,4033.7,0.000404,4044,-0.00013148,20.655,-0.00013423,-0.034628,0.31244
27028,7.8161,5.4545,0.1,0.0004005,4002.2,0.00040091,4014.4,-0.00013013,24.364,-0.00013337,-0.015038,0.32017
27029,7.7241,5.7273,0.1,0.00040464,4043.6,0.0004048,4048.5,-0.00013271,9.7962,-0.00013402,-0.054142,0.31123
27030,7.8161,5.6364,0.1,0.0004014,4011.2,0.00040164,4018.4,-0.00013126,14.354,-0.00013318,-0.053409,0.31901
27031,7.8161,5.8182,0.1,0.00040241,4021.4,0.00040247,4023.1,-0.00013249,3.5746,-0.00013298,-0.13195,0.31777
27032,7.7241,5.9091,0.1,0.00040529,4050.1,0.00040532,4050.8,-0.00013361,1.5715,-0.00013384,-0.172,0.30994
27033,7.908,0.27273,0.1,0.00039917,3988.9,0.0003993,3992.9,-0.00013104,8.1032,-0.00013213,-0.050934,0.32564
27034,8,0.18182,0.1,0.00039692,3966.5,0.00039696,3967.6,-0.00013078,2.3882,-0.00013112,-0.16489,0.33232
27035,7.908,0.090909,0.1,0.00039973,3994.6,0.00039975,3994.9,-0.00013182,0.91606,-0.00013198,-0.23872,0.32436
27036,7.908,0.45455,0.1,0.00039825,3979.7,0.00039855,3988.7,-0.00012991,18.073,-0.00013232,-0.030992,0.32683
27037,8,0.36364,0.1,0.00039597,3957,0.00039618,3963.1,-0.00012964,12.285,-0.00013128,-0.047902,0.33355
27038,7.908,0.63636,0.1,0.0003974,3971.3,0.00039786,3984.9,-0.00012885,27.447,-0.0001325,-0.013677,0.32794
27039,8,0.54545,0.1,0.00039514,3948.7,0.0003955,3959.4,-0.0001286,21.429,-0.00013146,-0.013396,0.33469
27040,7.908,0.81818,0.1,0.00039659,3963.2,0.0003972,3981.3,-0.00012783,36.438,-0.00013268,-0.011681,0.32896
27041,8,0.72727,0.1,0.00039435,3940.8,0.00039486,3955.8,-0.00012761,30.212,-0.00013163,-0.013209,0.33575
27042,7.908,1,0.1,0.00039582,3955.5,0.00039657,3977.8,-0.00012685,45.005,-0.00013285,-0.0087257,0.3299
27043,8,0.90909,0.1,0.00039359,3933.2,0.00039423,3952.4,-0.00012665,38.622,-0.00013179,-0.009364,0.33673
27044,7.908,1.1818,0.1,0.0003951,3948.3,0.00039598,3974.5,-0.00012594,53.083,-0.000133,-0.0068861,0.33075
27045,8,1.0909,0.1,0.00039287,3926,0.00039364,3949.1,-0.00012575,46.594,-0.00013195,-0.0075731,0.33762
27046,7.908,1.3636,0.1,0.00039442,3941.5,0.00039542,3971.5,-0.00012508,60.608,-0.00013315,-0.0052847,0.33152
27047,8,1.2727,0.1,0.0003922,3919.3,0.00039309,3946,-0.0001249,54.067,-0.0001321,-0.0058897,0.33843
27048,7.908,1.5455,0.1,0.0003938,3935.3,0.00039491,3968.6,-0.0001243,67.52,-0.00013329,-0.0039662,0.33221
27049,8,1.4545,0.1,0.00039158,3913.1,0.00039258,3943.2,-0.00012411,60.983,-0.00013223,-0.0045573,0.33915
27050,7.908,1.7273,0.1,0.00039324,3929.7,0.00039445,3966.1,-0.00012359,73.764,-0.00013341,-0.002839,0.33281
27051,8,1.6364,0.1,0.00039101,3907.4,0.00039211,3940.6,-0.0001234,67.284,-0.00013235,-0.0034081,0.3398
27052,7.908,1.9091,0.1,0.00039275,3924.8,0.00039404,3963.8,-0.00012296,79.287,-0.00013351,-0.0018855,0.33333
27053,8,1.8182,0.1,0.0003905,3902.3,0.00039169,3938.3,-0.00012276,72.921,-0.00013246,-0.0024346,0.34036
27054,7.908,2.0909,0.1,0.00039232,3920.5,0.00039368,3961.9,-0.00012242,84.043,-0.00013361,-0.001087,0.33378
27055,8,2,0.1,0.00039006,3897.9,0.00039133,3936.2,-0.0001222,77.845,-0.00013256,-0.0016107,0.34084
27056,7.908,2.2727,0.1,0.00039197,3917,0.00039339,3960.2,-0.00012197,87.991,-0.00013368,-0.00043686,0.33414
27057,8,2.1818,0.1,0.00038968,3894.2,0.00039101,3934.5,-0.00012172,82.016,-0.00013264,-0.0009275,0.34124
27058,7.908,2.4545,0.1,0.00039169,3914.2,0.00039316,3959,-0.00012162,91.099,-0.00013374,6.6951e-05,0.33442
27059,8,2.3636,0.1,0.00038938,3891.1,0.00039076,3933.1,-0.00012134,85.397,-0.0001327,-0.00038241,0.34156
27060,7.908,2.6364,0.1,0.00039149,3912.2,0.00039299,3958,-0.00012136,93.338,-0.00013379,0.00042668,0.33462
27061,8,2.5455,0.1,0.00038915,3888.8,0.00039057,3932.1,-0.00012105,87.959,-0.00013275,2.5148e-05,0.3418
27062,7.908,2.8182,0.1,0.00039137,3911,0.00039289,3957.5,-0.00012121,94.69,-0.00013381,0.00064325,0.33474
27063,8,2.7273,0.1,0.000389,3887.3,0.00039044,3931.3,-0.00012085,89.68,-0.00013279,0.00029821,0.34196
27064,7.908,3,0.1,0.00039133,3910.6,0.00039286,3957.3,-0.00012116,95.142,-0.00013382,0.00071557,0.33478
27065,8,2.9091,0.1,0.00038892,3886.5,0.00039038,3931,-0.00012075,90.544,-0.0001328,0.00043518,0.34204
27066,7.908,3.1818,0.1,0.00039137,3911,0.00039289,3957.5,-0.00012121,94.69,-0.00013381,0.00064331,0.33474
27067,8,3.0909,0.1,0.00038892,3886.5,0.00039038,3931,-0.00012075,90.544,-0.0001328,0.0004353,0.34204
27068,7.908,3.3636,0.1,0.00039149,3912.2,0.00039299,3958,-0.00012136,93.338,-0.00013379,0.0004268,0.33462
27069,8,3.2727,0.1,0.000389,3887.3,0.00039044,3931.3,-0.00012085,89.68,-0.00013279,0.0002983,0.34196
27070,7.908,3.5455,0.1,0.00039169,3914.2,0.00039316,3959,-0.00012162,91.099,-0.00013374,6.7098e-05,0.33442
27071,8,3.4545,0.1,0.00038915,3888.8,0.00039057,3932.1,-0.00012105,87.959,-0.00013275,2.5325e-05,0.3418
27072,7.908,3.7273,0.1,0.00039197,3917,0.00039339,3960.2,-0.00012197,87.991,-0.00013368,-0.00043671,0.33414
27073,8,3.6364,0.1,0.00038938,3891.1,0.00039076,3933.1,-0.00012134,85.397,-0.0001327,-0.00038217,0.34156
27074,7.908,3.9091,0.1,0.00039232,3920.5,0.00039368,3961.9,-0.00012242,84.043,-0.00013361,-0.0010867,0.33378
27075,8,3.8182,0.1,0.00038968,3894.2,0.00039101,3934.5,-0.00012172,82.016,-0.00013264,-0.00092726,0.34124
27076,7.908,4.0909,0.1,0.00039275,3924.8,0.00039404,3963.8,-0.00012296,79.287,-0.00013351,-0.001885,0.33333
27077,8,4,0.1,0.00039006,3897.9,0.00039133,3936.2,-0.0001222,77.845,-0.00013256,-0.0016102,0.34084
27078,7.908,4.2727,0.1,0.00039324,3929.7,0.00039445,3966.1,-0.00012359,73.764,-0.00013341,-0.0028385,0.33281
27079,8,4.1818,0.1,0.0003905,3902.3,0.00039169,3938.3,-0.00012276,72.921,-0.00013246,-0.002434,0.34036
27080,7.908,4.4545,0.1,0.0003938,3935.3,0.00039491,3968.6,-0.0001243,67.52,-0.00013329,-0.0039656,0.33221
27081,8,4.3636,0.1,0.00039101,3907.4,0.00039211,3940.6,-0.0001234,67.284,-0.00013235,-0.0034077,0.3398
27082,7.908,4.6364,0.1,0.00039442,3941.5,0.00039542,3971.5,-0.00012508,60.608,-0.00013315,-0.0052839,0.33152
27083,8,4.5455,0.1,0.00039158,3913.1,0.00039258,3943.2,-0.00012411,60.982,-0.00013223,-0.0045567,0.33915
27084,7.908,4.8182,0.1,0.0003951,3948.3,0.00039598,3974.5,-0.00012594,53.083,-0.000133,-0.0068854,0.33075
27085,8,4.7273,0.1,0.0003922,3919.3,0.00039309,3946,-0.0001249,54.067,-0.0001321,-0.0058889,0.33843
27086,7.908,5,0.1,0.00039582,3955.5,0.00039657,3977.8,-0.00012685,45.005,-0.00013285,-0.0087247,0.3299
27087,8,4.9091,0.1,0.00039287,3926,0.00039364,3949.1,-0.00012575,46.594,-0.00013195,-0.0075725,0.33762
27088,7.908,5.1818,0.1,0.00039659,3963.2,0.0003972,3981.3,-0.00012783,36.438,-0.00013268,-0.01168,0.32896
27089,8,5.0909,0.1,0.00039359,3933.2,0.00039423,3952.4,-0.00012665,38.622,-0.00013179,-0.0093626,0.33673
27090,7.908,5.3636,0.1,0.0003974,3971.3,0.00039786,3984.9,-0.00012885,27.447,-0.0001325,-0.013677,0.32794
27091,8,5.2727,0.1,0.00039435,3940.8,0.00039486,3955.8,-0.00012761,30.212,-0.00013163,-0.013208,0.33575
27092,7.908,5.5455,0.1,0.00039825,3979.7,0.00039855,3988.7,-0.00012991,18.073,-0.00013232,-0.030992,0.32683
27093,8,5.4545,0.1,0.00039514,3948.7,0.0003955,3959.4,-0.0001286,21.429,-0.00013146,-0.013396,0.33469
27094,7.908,5.7273,0.1,0.00039917,3988.9,0.0003993,3992.9,-0.00013104,8.1032,-0.00013213,-0.050932,0.32564
27095,8,5.6364,0.1,0.00039597,3957,0.00039618,3963.1,-0.00012964,12.285,-0.00013128,-0.047901,0.33355
27096,8,5.8182,0.1,0.00039692,3966.5,0.00039696,3967.6,-0.00013078,2.3882,-0.00013112,-0.16489,0.33232
27097,7.908,5.9091,0.1,0.00039973,3994.6,0.00039975,3994.9,-0.00013182,0.91607,-0.00013198,-0.23872,0.32436
27098,8.092,0.27273,0.1,0.00039372,3934.5,0.00039383,3937.7,-0.00012938,6.5104,-0.00013025,-0.048615,0.34032
27099,8.1839,0.18182,0.1,0.00039145,3911.8,0.00039147,3912.4,-0.00012906,1.3198,-0.00012927,-0.2489,0.34714
27100,8.092,0.090909,0.1,0.0003942,3939.3,0.0003942,3939.3,-0.00013003,0.41559,-0.00013014,-0.42205,0.33905
27101,8.092,0.45455,0.1,0.00039287,3925.9,0.00039313,3933.7,-0.00012834,15.653,-0.00013042,-0.027625,0.3415
27102,8.1839,0.36364,0.1,0.00039057,3903,0.00039074,3908.1,-0.00012802,10.341,-0.0001294,-0.042799,0.34835
27103,8.092,0.63636,0.1,0.00039209,3918.2,0.00039249,3930.2,-0.00012736,24.205,-0.00013059,-0.012253,0.34259
27104,8.1839,0.54545,0.1,0.00038981,3895.4,0.00039012,3904.7,-0.00012707,18.68,-0.00012956,-0.011889,0.34949
27105,8.092,0.81818,0.1,0.00039135,3910.8,0.00039189,3926.8,-0.00012643,32.406,-0.00013075,-0.010614,0.34361
27106,8.1839,0.72727,0.1,0.00038908,3888.1,0.00038952,3901.3,-0.00012616,26.683,-0.00012972,-0.011908,0.35054
27107,8.092,1,0.1,0.00039064,3903.7,0.00039131,3923.6,-0.00012554,40.219,-0.0001309,-0.0080651,0.34454
27108,8.1839,0.90909,0.1,0.00038838,3881.1,0.00038895,3898.2,-0.00012529,34.345,-0.00012986,-0.0085884,0.3515
27109,8.092,1.1818,0.1,0.00038997,3897,0.00039076,3920.6,-0.00012471,47.586,-0.00013104,-0.0064872,0.34538
27110,8.1839,1.0909,0.1,0.00038772,3874.5,0.00038841,3895.1,-0.00012446,41.609,-0.00013,-0.0070722,0.35239
27111,8.092,1.3636,0.1,0.00038935,3890.8,0.00039025,3917.8,-0.00012393,54.449,-0.00013117,-0.0051014,0.34615
27112,8.1839,1.2727,0.1,0.0003871,3868.3,0.0003879,3892.3,-0.00012369,48.419,-0.00013013,-0.0056255,0.35319
27113,8.092,1.5455,0.1,0.00038878,3885.1,0.00038978,3915.1,-0.00012321,60.753,-0.0001313,-0.0039543,0.34683
27114,8.1839,1.4545,0.1,0.00038653,3862.6,0.00038743,3889.7,-0.00012297,54.721,-0.00013026,-0.004475,0.35391
27115,8.092,1.7273,0.1,0.00038827,3880,0.00038935,3912.8,-0.00012256,66.448,-0.00013141,-0.0029684,0.34743
27116,8.1839,1.6364,0.1,0.00038601,3857.4,0.000387,3887.3,-0.00012232,60.465,-0.00013037,-0.0034758,0.35455
27117,8.092,1.9091,0.1,0.00038781,3875.4,0.00038898,3910.7,-0.00012199,71.485,-0.0001315,-0.0021307,0.34795
27118,8.1839,1.8182,0.1,0.00038554,3852.8,0.00038662,3885.2,-0.00012173,65.603,-0.00013047,-0.0026244,0.35511
27119,8.092,2.0909,0.1,0.00038742,3871.5,0.00038866,3908.9,-0.00012149,75.824,-0.00013159,-0.0014262,0.34839
27120,8.1839,2,0.1,0.00038514,3848.7,0.00038628,3883.3,-0.00012122,70.093,-0.00013055,-0.0019007,0.35558
27121,8.092,2.2727,0.1,0.0003871,3868.3,0.00038839,3907.4,-0.00012108,79.427,-0.00013166,-0.0008508,0.34875
27122,8.1839,2.1818,0.1,0.00038479,3845.3,0.000386,3881.7,-0.00012079,73.896,-0.00013062,-0.001298,0.35598
27123,8.092,2.4545,0.1,0.00038684,3865.7,0.00038817,3906.2,-0.00012076,82.262,-0.00013171,-0.00040379,0.34903
27124,8.1839,2.3636,0.1,0.00038451,3842.5,0.00038577,3880.4,-0.00012044,76.979,-0.00013068,-0.00081539,0.3563
27125,8.092,2.6364,0.1,0.00038666,3863.9,0.00038802,3905.4,-0.00012053,84.305,-0.00013175,-8.4068e-05,0.34922
27126,8.1839,2.5455,0.1,0.0003843,3840.4,0.00038559,3879.4,-0.00012017,79.315,-0.00013073,-0.00045383,0.35654
27127,8.092,2.8182,0.1,0.00038655,3862.8,0.00038793,3904.8,-0.00012039,85.538,-0.00013177,0.00010874,0.34934
27128,8.1839,2.7273,0.1,0.00038416,3839,0.00038547,3878.8,-0.00011999,80.885,-0.00013076,-0.00021099,0.35669
27129,8.092,3,0.1,0.00038651,3862.4,0.0003879,3904.7,-0.00012034,85.951,-0.00013178,0.0001733,0.34938
27130,8.1839,2.9091,0.1,0.00038409,3838.3,0.00038541,3878.4,-0.0001199,81.673,-0.00013077,-8.9075e-05,0.35677
27131,8.092,3.1818,0.1,0.00038655,3862.8,0.00038793,3904.8,-0.00012039,85.538,-0.00013177,0.00010889,0.34934
27132,8.1839,3.0909,0.1,0.00038409,3838.3,0.00038541,3878.4,-0.0001199,81.673,-0.00013077,-8.8866e-05,0.35677
27133,8.092,3.3636,0.1,0.00038666,3863.9,0.00038802,3905.4,-0.00012053,84.305,-0.00013175,-8.392e-05,0.34922
27134,8.1839,3.2727,0.1,0.00038416,3839,0.00038547,3878.8,-0.00011999,80.885,-0.00013076,-0.00021093,0.35669
27135,8.092,3.5455,0.1,0.00038684,3865.7,0.00038817,3906.2,-0.00012076,82.262,-0.00013171,-0.00040353,0.34903
27136,8.1839,3.4545,0.1,0.0003843,3840.4,0.00038559,3879.4,-0.00012017,79.315,-0.00013073,-0.00045362,0.35654
27137,8.092,3.7273,0.1,0.0003871,3868.3,0.00038839,3907.4,-0.00012108,79.427,-0.00013166,-0.00085047,0.34875
27138,8.1839,3.6364,0.1,0.00038451,3842.5,0.00038577,3880.4,-0.00012044,76.979,-0.00013068,-0.00081503,0.3563
27139,8.092,3.9091,0.1,0.00038742,3871.5,0.00038866,3908.9,-0.00012149,75.824,-0.00013159,-0.0014258,0.34839
27140,8.1839,3.8182,0.1,0.00038479,3845.3,0.000386,3881.7,-0.00012079,73.895,-0.00013062,-0.0012976,0.35598
27141,8.092,4.0909,0.1,0.00038781,3875.4,0.00038898,3910.7,-0.00012199,71.485,-0.0001315,-0.0021302,0.34795
27142,8.1839,4,0.1,0.00038514,3848.7,0.00038628,3883.3,-0.00012122,70.093,-0.00013055,-0.0019003,0.35558
27143,8.092,4.2727,0.1,0.00038827,3880,0.00038935,3912.8,-0.00012256,66.448,-0.00013141,-0.002968,0.34743
27144,8.1839,4.1818,0.1,0.00038554,3852.8,0.00038662,3885.2,-0.00012173,65.603,-0.00013047,-0.0026239,0.35511
27145,8.092,4.4545,0.1,0.00038878,3885.1,0.00038978,3915.1,-0.00012321,60.753,-0.0001313,-0.0039539,0.34683
27146,8.1839,4.3636,0.1,0.00038601,3857.4,0.000387,3887.3,-0.00012232,60.465,-0.00013037,-0.0034752,0.35455
27147,8.092,4.6364,0.1,0.00038935,3890.8,0.00039025,3917.8,-0.00012393,54.449,-0.00013117,-0.0051008,0.34615
27148,8.1839,4.5455,0.1,0.00038653,3862.6,0.00038743,3889.7,-0.00012297,54.721,-0.00013026,-0.0044744,0.35391
27149,8.092,4.8182,0.1,0.00038997,3897,0.00039076,3920.6,-0.00012471,47.586,-0.00013104,-0.0064866,0.34538
27150,8.1839,4.7273,0.1,0.0003871,3868.3,0.0003879,3892.3,-0.00012369,48.419,-0.00013013,-0.0056247,0.35319
27151,8.092,5,0.1,0.00039064,3903.7,0.00039131,3923.6,-0.00012554,40.219,-0.0001309,-0.0080641,0.34454
27152,8.1839,4.9091,0.1,0.00038772,3874.5,0.00038841,3895.1,-0.00012446,41.609,-0.00013,-0.0070716,0.35239
27153,8.092,5.1818,0.1,0.00039135,3910.8,0.00039189,3926.8,-0.00012643,32.406,-0.00013075,-0.010613,0.34361
27154,8.1839,5.0909,0.1,0.00038838,3881.1,0.00038895,3898.2,-0.00012529,34.345,-0.00012986,-0.0085869,0.3515
27155,8.092,5.3636,0.1,0.00039209,3918.2,0.00039249,3930.2,-0.00012736,24.205,-0.00013059,-0.012252,0.34259
27156,8.1839,5.2727,0.1,0.00038908,3888.1,0.00038952,3901.3,-0.00012616,26.683,-0.00012972,-0.011906,0.35054
27157,8.092,5.5455,0.1,0.00039287,3925.9,0.00039313,3933.7,-0.00012834,15.653,-0.00013042,-0.027624,0.3415
27158,8.1839,5.4545,0.1,0.0003898,3895.4,0.00039012,3904.7,-0.00012707,18.68,-0.00012956,-0.011888,0.34949
27159,8.092,5.7273,0.1,0.00039372,3934.5,0.00039383,3937.7,-0.00012938,6.5104,-0.00013025,-0.048614,0.34032
27160,8.1839,5.6364,0.1,0.00039057,3903,0.00039074,3908.1,-0.00012802,10.341,-0.0001294,-0.042798,0.34835
27161,8.1839,5.8182,0.1,0.00039145,3911.8,0.00039147,3912.4,-0.00012906,1.3198,-0.00012927,-0.2489,0.34714
27162,8.092,5.9091,0.1,0.0003942,3939.3,0.0003942,3939.3,-0.00013003,0.4156,-0.00013014,-0.42205,0.33905
27163,8.2759,0.27273,0.1,0.00038829,3880.3,0.00038838,3882.7,-0.00012772,5.0116,-0.00012839,-0.04755,0.35526
27164,8.3678,0.18182,0.1,0.00038601,3857.5,0.00038601,3857.5,-0.00012732,0.51404,-0.00012745,-0.53224,0.36222
27165,8.2759,0.090909,0.1,0.0003887,3884.4,0.00038869,3884,-0.00012822,0.16928,-0.00012835,-0.82284,0.35401
27166,8.2759,0.45455,0.1,0.0003875,3872.4,0.00038773,3879,-0.00012676,13.381,-0.00012854,-0.024501,0.35643
27167,8.3678,0.36364,0.1,0.00038519,3849.2,0.00038533,3853.4,-0.0001264,8.5141,-0.00012754,-0.038068,0.36342
27168,8.2759,0.63636,0.1,0.00038679,3865.2,0.00038715,3875.8,-0.00012587,21.169,-0.00012869,-0.010948,0.35752
27169,8.3678,0.54545,0.1,0.00038448,3842.2,0.00038476,3850.2,-0.00012553,16.1,-0.00012768,-0.010505,0.36454
27170,8.2759,0.81818,0.1,0.00038611,3858.4,0.00038659,3872.6,-0.00012502,28.633,-0.00012883,-0.0096442,0.35852
27171,8.3678,0.72727,0.1,0.00038382,3835.5,0.00038421,3847.1,-0.0001247,23.376,-0.00012782,-0.010718,0.36558
27172,8.2759,1,0.1,0.00038546,3851.9,0.00038605,3869.7,-0.00012421,35.745,-0.00012897,-0.0074722,0.35944
27173,8.3678,0.90909,0.1,0.00038318,3829.1,0.00038368,3844.2,-0.00012391,30.342,-0.00012795,-0.0078897,0.36654
27174,8.2759,1.1818,0.1,0.00038485,3845.8,0.00038555,3866.9,-0.00012345,42.451,-0.0001291,-0.0061355,0.36028
27175,8.3678,1.0909,0.1,0.00038257,3823.1,0.00038319,3841.4,-0.00012316,36.947,-0.00012807,-0.0066274,0.36742
27176,8.2759,1.3636,0.1,0.00038428,3840.1,0.00038508,3864.2,-0.00012273,48.699,-0.00012922,-0.0049482,0.36104
27177,8.3678,1.2727,0.1,0.000382,3817.4,0.00038272,3838.8,-0.00012245,43.141,-0.00012819,-0.0053991,0.36821
27178,8.2759,1.5455,0.1,0.00038376,3834.9,0.00038465,3861.8,-0.00012208,54.44,-0.00012933,-0.0039589,0.36171
27179,8.3678,1.4545,0.1,0.00038148,3812.2,0.00038229,3836.4,-0.0001218,48.874,-0.0001283,-0.0044158,0.36893
27180,8.2759,1.7273,0.1,0.00038328,3830.2,0.00038426,3859.7,-0.00012149,59.627,-0.00012943,-0.0031022,0.36231
27181,8.3678,1.6364,0.1,0.000381,3807.4,0.0003819,3834.2,-0.0001212,54.101,-0.0001284,-0.0035537,0.36956
27182,8.2759,1.9091,0.1,0.00038287,3826,0.00038392,3857.7,-0.00012097,64.217,-0.00012951,-0.00237,0.36283
27183,8.3678,1.8182,0.1,0.00038058,3803.1,0.00038154,3832.2,-0.00012067,58.778,-0.00012849,-0.0028139,0.37011
27184,8.2759,2.0909,0.1,0.00038251,3822.4,0.00038362,3856.1,-0.00012052,68.17,-0.00012959,-0.0017513,0.36326
27185,8.3678,2,0.1,0.0003802,3799.4,0.00038124,3830.5,-0.0001202,62.866,-0.00012857,-0.0021813,0.37059
27186,8.2759,2.2727,0.1,0.00038221,3819.5,0.00038338,3854.7,-0.00012014,71.453,-0.00012965,-0.0012437,0.36362
27187,8.3678,2.1818,0.1,0.00037989,3796.3,0.00038097,3829,-0.00011981,66.33,-0.00012863,-0.0016513,0.37098
27188,8.2759,2.4545,0.1,0.00038198,3817.1,0.00038318,3853.6,-0.00011985,74.038,-0.0001297,-0.00084803,0.36389
27189,8.3678,2.3636,0.1,0.00037963,3793.7,0.00038076,3827.8,-0.00011949,69.138,-0.00012869,-0.0012253,0.3713
27190,8.2759,2.6364,0.1,0.00038181,3815.4,0.00038304,3852.8,-0.00011964,75.9,-0.00012974,-0.00056431,0.36409
27191,8.3678,2.5455,0.1,0.00037944,3791.8,0.0003806,3826.9,-0.00011924,71.267,-0.00012873,-0.00090513,0.37153
27192,8.2759,2.8182,0.1,0.0003817,3814.4,0.00038296,3852.3,-0.00011951,77.025,-0.00012976,-0.0003929,0.36421
27193,8.3678,2.7273,0.1,0.00037931,3790.5,0.00038049,3826.3,-0.00011908,72.697,-0.00012876,-0.00068961,0.37169
27194,8.2759,3,0.1,0.00038167,3814.1,0.00038293,3852.2,-0.00011946,77.401,-0.00012977,-0.00033551,0.36425
27195,8.3678,2.9091,0.1,0.00037924,3789.8,0.00038044,3826,-0.000119,73.416,-0.00012877,-0.00058122,0.37177
27196,8.2759,3.1818,0.1,0.0003817,3814.4,0.00038296,3852.3,-0.00011951,77.025,-0.00012976,-0.00039279,0.36421
27197,8.3678,3.0909,0.1,0.00037924,3789.8,0.00038044,3826,-0.000119,73.416,-0.00012877,-0.00058095,0.37177
27198,8.2759,3.3636,0.1,0.00038181,3815.4,0.00038304,3852.8,-0.00011964,75.9,-0.00012974,-0.00056419,0.36409
27199,8.3678,3.2727,0.1,0.00037931,3790.5,0.00038049,3826.3,-0.00011908,72.697,-0.00012876,-0.00068962,0.37169
27200,8.2759,3.5455,0.1,0.00038198,3817.1,0.00038318,3853.6,-0.00011985,74.038,-0.0001297,-0.00084774,0.36389
27201,8.3678,3.4545,0.1,0.00037944,3791.8,0.0003806,3826.9,-0.00011924,71.267,-0.00012873,-0.00090492,0.37153
27202,8.2759,3.7273,0.1,0.00038221,3819.5,0.00038338,3854.7,-0.00012014,71.453,-0.00012965,-0.0012433,0.36362
27203,8.3678,3.6364,0.1,0.00037963,3793.7,0.00038076,3827.8,-0.00011949,69.138,-0.00012869,-0.0012249,0.3713
27204,8.2759,3.9091,0.1,0.00038251,3822.4,0.00038362,3856.1,-0.00012052,68.17,-0.00012959,-0.0017509,0.36326
27205,8.3678,3.8182,0.1,0.00037989,3796.3,0.00038097,3829,-0.00011981,66.33,-0.00012863,-0.0016509,0.37098
27206,8.2759,4.0909,0.1,0.00038287,3826,0.00038392,3857.7,-0.00012097,64.217,-0.00012951,-0.0023695,0.36283
27207,8.3678,4,0.1,0.0003802,3799.4,0.00038124,3830.5,-0.0001202,62.866,-0.00012857,-0.0021808,0.37059
27208,8.2759,4.2727,0.1,0.00038328,3830.2,0.00038426,3859.7,-0.00012149,59.627,-0.00012943,-0.0031016,0.36231
27209,8.3678,4.1818,0.1,0.00038058,3803.1,0.00038154,3832.2,-0.00012067,58.778,-0.00012849,-0.0028135,0.37011
27210,8.2759,4.4545,0.1,0.00038376,3834.9,0.00038465,3861.8,-0.00012208,54.44,-0.00012933,-0.0039582,0.36171
27211,8.3678,4.3636,0.1,0.000381,3807.4,0.0003819,3834.2,-0.0001212,54.101,-0.0001284,-0.0035531,0.36956
27212,8.2759,4.6364,0.1,0.00038428,3840.1,0.00038508,3864.2,-0.00012273,48.699,-0.00012922,-0.0049474,0.36104
27213,8.3678,4.5455,0.1,0.00038148,3812.2,0.00038229,3836.4,-0.0001218,48.874,-0.0001283,-0.0044151,0.36893
27214,8.2759,4.8182,0.1,0.00038485,3845.8,0.00038555,3866.9,-0.00012345,42.451,-0.0001291,-0.0061347,0.36028
27215,8.3678,4.7273,0.1,0.000382,3817.4,0.00038272,3838.8,-0.00012245,43.141,-0.00012819,-0.0053983,0.36821
27216,8.2759,5,0.1,0.00038546,3851.9,0.00038605,3869.7,-0.00012421,35.745,-0.00012897,-0.007471,0.35944
27217,8.3678,4.9091,0.1,0.00038257,3823.1,0.00038319,3841.4,-0.00012316,36.947,-0.00012807,-0.0066269,0.36742
27218,8.2759,5.1818,0.1,0.00038611,3858.4,0.00038659,3872.6,-0.00012502,28.633,-0.00012883,-0.0096429,0.35852
27219,8.3678,5.0909,0.1,0.00038318,3829.1,0.00038368,3844.2,-0.00012391,30.342,-0.00012795,-0.0078882,0.36654
27220,8.2759,5.3636,0.1,0.00038679,3865.2,0.00038715,3875.8,-0.00012587,21.169,-0.00012869,-0.010948,0.35752
27221,8.3678,5.2727,0.1,0.00038382,3835.5,0.00038421,3847.1,-0.0001247,23.376,-0.00012782,-0.010717,0.36558
27222,8.2759,5.5455,0.1,0.0003875,3872.4,0.00038773,3879,-0.00012676,13.381,-0.00012854,-0.0245,0.35643
27223,8.3678,5.4545,0.1,0.00038448,3842.2,0.00038476,3850.2,-0.00012553,16.1,-0.00012768,-0.010505,0.36454
27224,8.2759,5.7273,0.1,0.00038829,3880.3,0.00038838,3882.7,-0.00012772,5.0117,-0.00012839,-0.047548,0.35526
27225,8.3678,5.6364,0.1,0.00038519,3849.2,0.00038533,3853.4,-0.0001264,8.5141,-0.00012754,-0.038067,0.36342
27226,8.3678,5.8182,0.1,0.00038601,3857.5,0.00038601,3857.5,-0.00012732,0.51405,-0.00012745,-0.53224,0.36222
27227,8.2759,5.9091,0.1,0.0003887,3884.4,0.00038869,3884,-0.00012822,0.16928,-0.00012835,-0.82283,0.35401
27228,8.4598,0.27273,0.1,0.0003829,3826.3,0.00038296,3828.1,-0.00012605,3.6016,-0.00012654,-0.048656,0.37046
27229,8.5517,0.18182,0.1,0.0003806,3803.4,0.00038058,3802.9,-0.00012552,0.18453,-0.00012571,-1.2319,0.37756
27230,8.4598,0.090909,0.1,0.00038323,3829.7,0.00038321,3829,-0.00012639,0.081172,-0.00012658,-1.3469,0.36922
27231,8.4598,0.45455,0.1,0.00038216,3819,0.00038235,3824.6,-0.00012517,11.247,-0.00012667,-0.021598,0.37162
27232,8.5517,0.36364,0.1,0.00037983,3795.6,0.00037994,3799,-0.00012477,6.7944,-0.00012568,-0.03368,0.37875
27233,8.4598,0.63636,0.1,0.00038151,3812.4,0.00038182,3821.6,-0.00012437,18.32,-0.0001268,-0.009757,0.3727
27234,8.5517,0.54545,0.1,0.00037918,3789.2,0.00037941,3796,-0.00012399,13.676,-0.00012581,-0.009237,0.37986
27235,8.4598,0.81818,0.1,0.00038088,3806.2,0.0003813,3818.7,-0.00012359,25.097,-0.00012693,-0.0087648,0.37369
27236,8.5517,0.72727,0.1,0.00037857,3783.1,0.00037891,3793.2,-0.00012323,20.272,-0.00012593,-0.0096359,0.38089
27237,8.4598,1,0.1,0.00038029,3800.2,0.00038081,3815.9,-0.00012285,31.555,-0.00012706,-0.0069433,0.37461
27238,8.5517,0.90909,0.1,0.00037798,3777.2,0.00037843,3790.5,-0.00012251,26.589,-0.00012605,-0.0072647,0.38184
27239,8.4598,1.1818,0.1,0.00037973,3794.7,0.00038035,3813.3,-0.00012216,37.647,-0.00012717,-0.0058297,0.37544
27240,8.5517,1.0909,0.1,0.00037743,3771.7,0.00037797,3787.9,-0.00012183,32.58,-0.00012616,-0.0062372,0.38271
27241,8.4598,1.3636,0.1,0.00037921,3789.4,0.00037992,3810.9,-0.00012151,43.325,-0.00012728,-0.0048251,0.37619
27242,8.5517,1.2727,0.1,0.00037691,3766.5,0.00037755,3785.5,-0.00012118,38.2,-0.00012627,-0.0052101,0.3835
27243,8.4598,1.5455,0.1,0.00037873,3784.7,0.00037953,3808.7,-0.00012092,48.543,-0.00012738,-0.0039799,0.37686
27244,8.5517,1.4545,0.1,0.00037643,3761.7,0.00037715,3783.2,-0.00012059,43.406,-0.00012637,-0.0043796,0.3842
27245,8.4598,1.7273,0.1,0.0003783,3780.3,0.00037917,3806.7,-0.00012038,53.26,-0.00012747,-0.0032411,0.37745
27246,8.5517,1.6364,0.1,0.000376,3757.4,0.00037679,3781.2,-0.00012005,48.153,-0.00012646,-0.0036428,0.38483
27247,8.4598,1.9091,0.1,0.00037791,3776.5,0.00037886,3804.9,-0.0001199,57.435,-0.00012755,-0.0026049,0.37796
27248,8.5517,1.8182,0.1,0.00037561,3753.5,0.00037647,3779.4,-0.00011956,52.404,-0.00012654,-0.0030043,0.38538
27249,8.4598,2.0909,0.1,0.00037759,3773.2,0.00037859,3803.4,-0.00011949,61.033,-0.00012761,-0.0020637,0.37839
27250,8.5517,2,0.1,0.00037527,3750.1,0.00037619,3777.8,-0.00011914,56.12,-0.00012661,-0.0024539,0.38585
27251,8.4598,2.2727,0.1,0.00037731,3770.5,0.00037836,3802.1,-0.00011915,64.021,-0.00012767,-0.0016171,0.37875
27252,8.5517,2.1818,0.1,0.00037498,3747.2,0.00037595,3776.5,-0.00011878,59.27,-0.00012667,-0.0019894,0.38624
27253,8.4598,2.4545,0.1,0.0003771,3768.4,0.00037818,3801.1,-0.00011888,66.374,-0.00012772,-0.0012677,0.37902
27254,8.5517,2.3636,0.1,0.00037474,3744.8,0.00037576,3775.4,-0.00011849,61.826,-0.00012672,-0.0016143,0.38655
27255,8.4598,2.6364,0.1,0.00037694,3766.8,0.00037805,3800.4,-0.00011869,68.071,-0.00012775,-0.0010165,0.37922
27256,8.5517,2.5455,0.1,0.00037457,3743.1,0.00037561,3774.5,-0.00011827,63.764,-0.00012675,-0.0013312,0.38679
27257,8.4598,2.8182,0.1,0.00037685,3765.9,0.00037798,3800,-0.00011857,69.095,-0.00012777,-0.00086447,0.37934
27258,8.5517,2.7273,0.1,0.00037445,3741.9,0.00037551,3774,-0.00011812,65.066,-0.00012678,-0.00114,0.38695
27259,8.4598,3,0.1,0.00037682,3765.6,0.00037795,3799.8,-0.00011853,69.437,-0.00012777,-0.00081334,0.37937
27260,8.5517,2.9091,0.1,0.00037439,3741.3,0.00037546,3773.7,-0.00011804,65.72,-0.00012679,-0.0010436,0.38702
27261,8.4598,3.1818,0.1,0.00037685,3765.9,0.00037798,3800,-0.00011857,69.095,-0.00012777,-0.00086432,0.37934
27262,8.5517,3.0909,0.1,0.00037439,3741.3,0.00037546,3773.7,-0.00011804,65.72,-0.00012679,-0.0010435,0.38702
27263,8.4598,3.3636,0.1,0.00037694,3766.8,0.00037805,3800.4,-0.00011869,68.071,-0.00012775,-0.0010165,0.37922
27264,8.5517,3.2727,0.1,0.00037445,3741.9,0.00037551,3774,-0.00011812,65.066,-0.00012678,-0.00114,0.38695
27265,8.4598,3.5455,0.1,0.0003771,3768.4,0.00037818,3801.1,-0.00011888,66.374,-0.00012772,-0.0012674,0.37902
27266,8.5517,3.4545,0.1,0.00037457,3743.1,0.00037561,3774.5,-0.00011827,63.764,-0.00012675,-0.0013309,0.38679
27267,8.4598,3.7273,0.1,0.00037731,3770.5,0.00037836,3802.1,-0.00011915,64.021,-0.00012767,-0.0016167,0.37875
27268,8.5517,3.6364,0.1,0.00037474,3744.8,0.00037576,3775.4,-0.00011849,61.826,-0.00012671,-0.001614,0.38655
27269,8.4598,3.9091,0.1,0.00037759,3773.2,0.00037859,3803.4,-0.00011949,61.033,-0.00012761,-0.0020632,0.37839
27270,8.5517,3.8182,0.1,0.00037498,3747.2,0.00037595,3776.5,-0.00011878,59.27,-0.00012667,-0.0019891,0.38624
27271,8.4598,4.0909,0.1,0.00037791,3776.5,0.00037886,3804.9,-0.0001199,57.435,-0.00012755,-0.0026045,0.37796
27272,8.5517,4,0.1,0.00037527,3750.1,0.00037619,3777.8,-0.00011914,56.12,-0.00012661,-0.0024535,0.38585
27273,8.4598,4.2727,0.1,0.0003783,3780.3,0.00037917,3806.7,-0.00012038,53.26,-0.00012747,-0.0032407,0.37745
27274,8.5517,4.1818,0.1,0.00037561,3753.5,0.00037647,3779.4,-0.00011956,52.403,-0.00012654,-0.003004,0.38538
27275,8.4598,4.4545,0.1,0.00037873,3784.7,0.00037953,3808.7,-0.00012092,48.543,-0.00012738,-0.0039793,0.37686
27276,8.5517,4.3636,0.1,0.000376,3757.4,0.00037679,3781.2,-0.00012005,48.153,-0.00012646,-0.0036423,0.38483
27277,8.4598,4.6364,0.1,0.00037921,3789.4,0.00037992,3810.9,-0.00012151,43.325,-0.00012728,-0.0048243,0.37619
27278,8.5517,4.5455,0.1,0.00037643,3761.7,0.00037715,3783.2,-0.00012059,43.406,-0.00012637,-0.004379,0.3842
27279,8.4598,4.8182,0.1,0.00037973,3794.7,0.00038035,3813.3,-0.00012216,37.647,-0.00012717,-0.0058291,0.37544
27280,8.5517,4.7273,0.1,0.00037691,3766.5,0.00037755,3785.5,-0.00012118,38.2,-0.00012627,-0.0052091,0.3835
27281,8.4598,5,0.1,0.00038029,3800.2,0.00038081,3815.9,-0.00012285,31.555,-0.00012706,-0.0069424,0.37461
27282,8.5517,4.9091,0.1,0.00037743,3771.7,0.00037797,3787.9,-0.00012183,32.58,-0.00012616,-0.0062367,0.38271
27283,8.4598,5.1818,0.1,0.00038088,3806.2,0.0003813,3818.7,-0.00012359,25.097,-0.00012693,-0.0087636,0.37369
27284,8.5517,5.0909,0.1,0.00037798,3777.2,0.00037843,3790.5,-0.00012251,26.589,-0.00012605,-0.0072633,0.38184
27285,8.4598,5.3636,0.1,0.00038151,3812.4,0.00038182,3821.6,-0.00012437,18.32,-0.0001268,-0.0097563,0.3727
27286,8.5517,5.2727,0.1,0.00037857,3783.1,0.00037891,3793.2,-0.00012323,20.272,-0.00012593,-0.0096346,0.38089
27287,8.4598,5.5455,0.1,0.00038216,3819,0.00038235,3824.6,-0.00012517,11.247,-0.00012667,-0.021597,0.37162
27288,8.5517,5.4545,0.1,0.00037918,3789.2,0.00037941,3796,-0.00012399,13.676,-0.00012581,-0.0092366,0.37986
27289,8.4598,5.7273,0.1,0.0003829,3826.3,0.00038296,3828.1,-0.00012605,3.6016,-0.00012654,-0.048654,0.37046
27290,8.5517,5.6364,0.1,0.00037983,3795.6,0.00037994,3799,-0.00012477,6.7944,-0.00012568,-0.033679,0.37875
27291,8.5517,5.8182,0.1,0.0003806,3803.4,0.00038058,3802.9,-0.00012552,0.18454,-0.00012571,-1.2319,0.37756
27292,8.4598,5.9091,0.1,0.00038323,3829.7,0.00038321,3829,-0.00012639,0.081174,-0.00012658,-1.3469,0.36922
27293,8.6437,0.27273,0.1,0.00037752,3772.6,0.00037756,3773.7,-0.00012439,2.277,-0.0001247,-0.054859,0.38593
27294,8.7356,0.18182,0.1,0.00037521,3749.5,0.00037518,3748.5,-0.00012371,0.089233,-0.000124,-2.1095,0.39315
27295,8.6437,0.090909,0.1,0.00037779,3775.3,0.00037776,3774.3,-0.00012457,0.04479,-0.00012483,-1.8895,0.3847
27296,8.6437,0.45455,0.1,0.00037684,3765.8,0.000377,3770.4,-0.00012358,9.2384,-0.00012482,-0.018895,0.38707
27297,8.7356,0.36364,0.1,0.00037449,3742.3,0.00037457,3744.8,-0.00012315,5.1733,-0.00012384,-0.029619,0.39434
27298,8.6437,0.63636,0.1,0.00037624,3759.8,0.0003765,3767.6,-0.00012285,15.642,-0.00012493,-0.0086731,0.38814
27299,8.7356,0.54545,0.1,0.0003739,3736.4,0.00037409,3742.1,-0.00012243,11.394,-0.00012395,-0.0080777,0.39544
27300,8.6437,0.81818,0.1,0.00037567,3754.1,0.00037603,3764.9,-0.00012215,21.777,-0.00012505,-0.0079734,0.38912
27301,8.7356,0.72727,0.1,0.00037334,3730.8,0.00037363,3739.4,-0.00012175,17.353,-0.00012406,-0.0086557,0.39646
27302,8.6437,1,0.1,0.00037513,3748.7,0.00037559,3762.4,-0.00012148,27.625,-0.00012516,-0.0064774,0.39003
27303,8.7356,0.90909,0.1,0.0003728,3725.5,0.00037319,3736.9,-0.0001211,23.062,-0.00012417,-0.0067122,0.3974
27304,8.6437,1.1818,0.1,0.00037461,3743.6,0.00037517,3760,-0.00012085,33.144,-0.00012526,-0.005569,0.39085
27305,8.7356,1.0909,0.1,0.0003723,3720.4,0.00037277,3734.6,-0.00012048,28.48,-0.00012427,-0.0059009,0.39825
27306,8.6437,1.3636,0.1,0.00037414,3738.8,0.00037477,3757.8,-0.00012026,38.291,-0.00012536,-0.0047316,0.3916
27307,8.7356,1.2727,0.1,0.00037182,3715.7,0.00037238,3732.3,-0.00011989,33.566,-0.00012436,-0.005058,0.39904
27308,8.6437,1.5455,0.1,0.0003737,3734.4,0.00037441,3755.7,-0.00011972,43.024,-0.00012545,-0.0040181,0.39226
27309,8.7356,1.4545,0.1,0.00037139,3711.3,0.00037202,3730.3,-0.00011935,38.28,-0.00012445,-0.0043673,0.39974
27310,8.6437,1.7273,0.1,0.00037331,3730.5,0.00037409,3753.9,-0.00011923,47.305,-0.00012553,-0.0033866,0.39285
27311,8.7356,1.6364,0.1,0.00037099,3707.3,0.00037169,3728.4,-0.00011886,42.583,-0.00012453,-0.0037443,0.40036
27312,8.6437,1.9091,0.1,0.00037296,3727,0.0003738,3752.3,-0.0001188,51.097,-0.0001256,-0.0028369,0.39335
27313,8.7356,1.8182,0.1,0.00037063,3703.8,0.0003714,3726.8,-0.00011842,46.438,-0.0001246,-0.0031972,0.4009
27314,8.6437,2.0909,0.1,0.00037266,3724,0.00037355,3750.9,-0.00011842,54.366,-0.00012566,-0.0023653,0.39378
27315,8.7356,2,0.1,0.00037032,3700.7,0.00037114,3725.3,-0.00011804,49.812,-0.00012467,-0.0027205,0.40137
27316,8.6437,2.2727,0.1,0.00037241,3721.5,0.00037334,3749.7,-0.00011811,57.083,-0.00012571,-0.0019735,0.39413
27317,8.7356,2.1818,0.1,0.00037006,3698,0.00037092,3724.1,-0.00011771,52.673,-0.00012472,-0.0023146,0.40176
27318,8.6437,2.4545,0.1,0.00037221,3719.5,0.00037318,3748.8,-0.00011787,59.223,-0.00012575,-0.0016656,0.39441
27319,8.7356,2.3636,0.1,0.00036984,3695.9,0.00037075,3723.1,-0.00011744,54.996,-0.00012476,-0.0019846,0.40207
27320,8.6437,2.6364,0.1,0.00037207,3718.1,0.00037306,3748.1,-0.00011769,60.766,-0.00012578,-0.0014431,0.3946
27321,8.7356,2.5455,0.1,0.00036968,3694.3,0.00037061,3722.3,-0.00011724,56.758,-0.0001248,-0.0017343,0.4023
27322,8.6437,2.8182,0.1,0.00037198,3717.3,0.00037299,3747.7,-0.00011759,61.698,-0.0001258,-0.0013079,0.39472
27323,8.7356,2.7273,0.1,0.00036957,3693.2,0.00037052,3721.8,-0.00011711,57.942,-0.00012482,-0.0015647,0.40245
27324,8.6437,3,0.1,0.00037195,3717,0.00037297,3747.6,-0.00011755,62.01,-0.0001258,-0.0012626,0.39476
27325,8.7356,2.9091,0.1,0.00036952,3692.6,0.00037048,3721.5,-0.00011704,58.537,-0.00012483,-0.0014788,0.40253
27326,8.6437,3.1818,0.1,0.00037198,3717.3,0.00037299,3747.7,-0.00011759,61.698,-0.0001258,-0.001308,0.39472
27327,8.7356,3.0909,0.1,0.00036952,3692.6,0.00037048,3721.5,-0.00011704,58.537,-0.00012483,-0.0014789,0.40253
27328,8.6437,3.3636,0.1,0.00037207,3718.1,0.00037306,3748.1,-0.00011769,60.766,-0.00012578,-0.0014429,0.3946
27329,8.7356,3.2727,0.1,0.00036957,3693.2,0.00037052,3721.8,-0.00011711,57.942,-0.00012482,-0.0015645,0.40245
27330,8.6437,3.5455,0.1,0.00037221,3719.5,0.00037318,3748.8,-0.00011787,59.223,-0.00012575,-0.0016653,0.39441
27331,8.7356,3.4545,0.1,0.00036968,3694.3,0.00037061,3722.3,-0.00011724,56.758,-0.0001248,-0.0017342,0.4023
27332,8.6437,3.7273,0.1,0.00037241,3721.5,0.00037334,3749.7,-0.00011811,57.083,-0.00012571,-0.0019733,0.39413
27333,8.7356,3.6364,0.1,0.00036984,3695.9,0.00037075,3723.1,-0.00011744,54.996,-0.00012476,-0.0019844,0.40207
27334,8.6437,3.9091,0.1,0.00037266,3724,0.00037355,3750.9,-0.00011842,54.366,-0.00012566,-0.0023649,0.39378
27335,8.7356,3.8182,0.1,0.00037006,3698,0.00037092,3724.1,-0.00011771,52.673,-0.00012472,-0.0023142,0.40176
27336,8.6437,4.0909,0.1,0.00037296,3727,0.0003738,3752.3,-0.0001188,51.097,-0.0001256,-0.0028365,0.39335
27337,8.7356,4,0.1,0.00037032,3700.7,0.00037114,3725.3,-0.00011804,49.812,-0.00012467,-0.0027201,0.40137
27338,8.6437,4.2727,0.1,0.00037331,3730.5,0.00037409,3753.9,-0.00011923,47.305,-0.00012553,-0.0033861,0.39285
27339,8.7356,4.1818,0.1,0.00037063,3703.8,0.0003714,3726.8,-0.00011842,46.438,-0.0001246,-0.0031969,0.4009
27340,8.6437,4.4545,0.1,0.0003737,3734.4,0.00037441,3755.7,-0.00011972,43.024,-0.00012545,-0.0040175,0.39226
27341,8.7356,4.3636,0.1,0.00037099,3707.3,0.00037169,3728.4,-0.00011886,42.583,-0.00012453,-0.0037438,0.40036
27342,8.6437,4.6364,0.1,0.00037414,3738.8,0.00037477,3757.8,-0.00012026,38.291,-0.00012536,-0.0047308,0.3916
27343,8.7356,4.5455,0.1,0.00037139,3711.3,0.00037202,3730.3,-0.00011935,38.28,-0.00012445,-0.0043667,0.39974
27344,8.6437,4.8182,0.1,0.00037461,3743.6,0.00037517,3760,-0.00012085,33.144,-0.00012526,-0.0055681,0.39085
27345,8.7356,4.7273,0.1,0.00037182,3715.7,0.00037238,3732.3,-0.00011989,33.566,-0.00012436,-0.0050572,0.39904
27346,8.6437,5,0.1,0.00037513,3748.7,0.00037559,3762.4,-0.00012148,27.625,-0.00012516,-0.0064764,0.39003
27347,8.7356,4.9091,0.1,0.0003723,3720.4,0.00037277,3734.6,-0.00012048,28.48,-0.00012427,-0.0059002,0.39825
27348,8.6437,5.1818,0.1,0.00037567,3754.1,0.00037603,3764.9,-0.00012215,21.777,-0.00012505,-0.007972,0.38912
27349,8.7356,5.0909,0.1,0.0003728,3725.5,0.00037319,3736.9,-0.0001211,23.062,-0.00012417,-0.0067108,0.39739
27350,8.6437,5.3636,0.1,0.00037624,3759.8,0.0003765,3767.6,-0.00012285,15.642,-0.00012493,-0.008672,0.38814
27351,8.7356,5.2727,0.1,0.00037334,3730.8,0.00037363,3739.4,-0.00012175,17.353,-0.00012406,-0.0086545,0.39646
27352,8.6437,5.5455,0.1,0.00037684,3765.8,0.000377,3770.4,-0.00012358,9.2384,-0.00012482,-0.018894,0.38707
27353,8.7356,5.4545,0.1,0.0003739,3736.4,0.00037409,3742.1,-0.00012243,11.394,-0.00012395,-0.0080774,0.39544
27354,8.6437,5.7273,0.1,0.00037752,3772.6,0.00037756,3773.7,-0.00012439,2.277,-0.0001247,-0.054857,0.38593
27355,8.7356,5.6364,0.1,0.00037449,3742.3,0.00037457,3744.8,-0.00012315,5.1733,-0.00012384,-0.029618,0.39434
27356,8.7356,5.8182,0.1,0.00037521,3749.5,0.00037518,3748.5,-0.00012371,0.089234,-0.000124,-2.1095,0.39315
27357,8.6437,5.9091,0.1,0.00037779,3775.3,0.00037776,3774.3,-0.00012457,0.044791,-0.00012483,-1.8895,0.3847
27358,8.8276,0.27273,0.1,0.00037217,3719.1,0.00037218,3719.6,-0.00012272,1.0469,-0.00012287,-0.081492,0.40165
27359,8.9195,0.18182,0.1,0.00036984,3695.9,0.00036979,3694.4,-0.0001219,0.051838,-0.0001223,-2.9923,0.409
27360,8.8276,0.090909,0.1,0.00037237,3721.1,0.00037233,3719.9,-0.00012276,0.026633,-0.00012309,-2.419,0.40043
27361,8.8276,0.45455,0.1,0.00037154,3712.8,0.00037166,3716.5,-0.00012199,7.3444,-0.00012297,-0.016371,0.40278
27362,8.9195,0.36364,0.1,0.00036917,3689.1,0.00036923,3690.9,-0.00012152,3.6419,-0.00012201,-0.025896,0.41017
27363,8.8276,0.63636,0.1,0.00037099,3707.4,0.00037121,3713.9,-0.00012133,13.119,-0.00012308,-0.0076925,0.40383
27364,8.9195,0.54545,0.1,0.00036863,3683.8,0.00036879,3688.4,-0.00012088,9.2401,-0.00012211,-0.0070244,0.41126
27365,8.8276,0.81818,0.1,0.00037047,3702.1,0.00037078,3711.4,-0.00012069,18.651,-0.00012318,-0.007268,0.40481
27366,8.9195,0.72727,0.1,0.00036812,3678.7,0.00036837,3685.9,-0.00012026,14.6,-0.0001222,-0.007777,0.41227
27367,8.8276,1,0.1,0.00036997,3697.2,0.00037037,3709.1,-0.00012009,23.929,-0.00012328,-0.0060742,0.4057
27368,8.9195,0.90909,0.1,0.00036763,3673.8,0.00036797,3683.6,-0.00011967,19.739,-0.0001223,-0.0062328,0.4132
27369,8.8276,1.1818,0.1,0.00036951,3692.5,0.00036999,3706.9,-0.00011952,28.913,-0.00012337,-0.0053534,0.40652
27370,8.9195,1.0909,0.1,0.00036717,3669.2,0.00036759,3681.5,-0.00011911,24.62,-0.00012239,-0.0056192,0.41405
27371,8.8276,1.3636,0.1,0.00036907,3688.2,0.00036963,3704.8,-0.00011899,33.566,-0.00012345,-0.0046689,0.40726
27372,8.9195,1.2727,0.1,0.00036674,3664.9,0.00036723,3679.4,-0.00011858,29.208,-0.00012247,-0.0049445,0.41483
27373,8.8276,1.5455,0.1,0.00036867,3684.2,0.0003693,3703,-0.00011849,37.848,-0.00012353,-0.0040748,0.40792
27374,8.9195,1.4545,0.1,0.00036635,3660.9,0.0003669,3677.5,-0.00011809,33.465,-0.00012255,-0.0043804,0.41552
27375,8.8276,1.7273,0.1,0.00036831,3680.6,0.00036901,3701.3,-0.00011805,41.725,-0.0001236,-0.0035398,0.4085
27376,8.9195,1.6364,0.1,0.00036598,3657.3,0.0003666,3675.8,-0.00011765,37.355,-0.00012262,-0.0038597,0.41614
27377,8.8276,1.9091,0.1,0.000368,3677.4,0.00036874,3699.8,-0.00011766,45.162,-0.00012367,-0.0030679,0.409
27378,8.9195,1.8182,0.1,0.00036566,3654.1,0.00036634,3674.3,-0.00011725,40.844,-0.00012268,-0.0033945,0.41668
27379,8.8276,2.0909,0.1,0.00036772,3674.7,0.00036852,3698.5,-0.00011732,48.128,-0.00012372,-0.0026584,0.40942
27380,8.9195,2,0.1,0.00036537,3651.2,0.0003661,3673,-0.0001169,43.901,-0.00012274,-0.0029832,0.41714
27381,8.8276,2.2727,0.1,0.00036749,3672.4,0.00036833,3697.4,-0.00011704,50.594,-0.00012377,-0.0023152,0.40977
27382,8.9195,2.1818,0.1,0.00036513,3648.8,0.0003659,3671.8,-0.0001166,46.496,-0.00012279,-0.0026291,0.41752
27383,8.8276,2.4545,0.1,0.00036731,3670.6,0.00036818,3696.6,-0.00011681,52.539,-0.00012381,-0.0020434,0.41004
27384,8.9195,2.3636,0.1,0.00036494,3646.9,0.00036574,3670.9,-0.00011636,48.604,-0.00012283,-0.0023385,0.41783
27385,8.8276,2.6364,0.1,0.00036718,3669.3,0.00036807,3696,-0.00011665,53.941,-0.00012383,-0.0018463,0.41023
27386,8.9195,2.5455,0.1,0.00036479,3645.4,0.00036562,3670.2,-0.00011618,50.205,-0.00012286,-0.0021167,0.41806
27387,8.8276,2.8182,0.1,0.00036711,3668.5,0.00036801,3695.6,-0.00011656,54.788,-0.00012385,-0.0017263,0.41035
27388,8.9195,2.7273,0.1,0.00036469,3644.4,0.00036553,3669.7,-0.00011605,51.281,-0.00012288,-0.0019659,0.41821
27389,8.8276,3,0.1,0.00036708,3668.3,0.00036799,3695.5,-0.00011652,55.072,-0.00012385,-0.0016859,0.41039
27390,8.9195,2.9091,0.1,0.00036464,3643.9,0.00036549,3669.5,-0.00011599,51.822,-0.00012289,-0.0018891,0.41829
27391,8.8276,3.1818,0.1,0.00036711,3668.5,0.00036801,3695.6,-0.00011656,54.788,-0.00012385,-0.0017261,0.41035
27392,8.9195,3.0909,0.1,0.00036464,3643.9,0.00036549,3669.5,-0.00011599,51.822,-0.00012289,-0.001889,0.41829
27393,8.8276,3.3636,0.1,0.00036718,3669.3,0.00036807,3696,-0.00011665,53.941,-0.00012383,-0.0018463,0.41023
27394,8.9195,3.2727,0.1,0.00036469,3644.4,0.00036553,3669.7,-0.00011605,51.281,-0.00012288,-0.0019655,0.41821
27395,8.8276,3.5455,0.1,0.00036731,3670.6,0.00036818,3696.6,-0.00011681,52.539,-0.00012381,-0.0020434,0.41004
27396,8.9195,3.4545,0.1,0.00036479,3645.4,0.00036562,3670.2,-0.00011618,50.205,-0.00012286,-0.0021167,0.41806
27397,8.8276,3.7273,0.1,0.00036749,3672.4,0.00036833,3697.4,-0.00011704,50.594,-0.00012377,-0.0023148,0.40977
27398,8.9195,3.6364,0.1,0.00036494,3646.9,0.00036574,3670.9,-0.00011636,48.604,-0.00012283,-0.0023382,0.41783
27399,8.8276,3.9091,0.1,0.00036772,3674.7,0.00036852,3698.5,-0.00011732,48.128,-0.00012372,-0.0026579,0.40942
27400,8.9195,3.8182,0.1,0.00036513,3648.8,0.0003659,3671.8,-0.0001166,46.496,-0.00012279,-0.0026287,0.41752
27401,8.8276,4.0909,0.1,0.000368,3677.4,0.00036874,3699.8,-0.00011766,45.162,-0.00012367,-0.0030675,0.409
27402,8.9195,4,0.1,0.00036537,3651.2,0.0003661,3673,-0.0001169,43.901,-0.00012274,-0.0029829,0.41714
27403,8.8276,4.2727,0.1,0.00036831,3680.6,0.00036901,3701.3,-0.00011805,41.725,-0.0001236,-0.0035395,0.4085
27404,8.9195,4.1818,0.1,0.00036566,3654.1,0.00036634,3674.3,-0.00011725,40.844,-0.00012268,-0.003394,0.41668
27405,8.8276,4.4545,0.1,0.00036867,3684.2,0.0003693,3703,-0.00011849,37.848,-0.00012353,-0.0040743,0.40792
27406,8.9195,4.3636,0.1,0.00036598,3657.3,0.0003666,3675.8,-0.00011765,37.355,-0.00012262,-0.0038591,0.41614
27407,8.8276,4.6364,0.1,0.00036907,3688.2,0.00036963,3704.8,-0.00011899,33.566,-0.00012345,-0.0046682,0.40726
27408,8.9195,4.5455,0.1,0.00036635,3660.9,0.0003669,3677.5,-0.00011809,33.465,-0.00012255,-0.0043798,0.41552
27409,8.8276,4.8182,0.1,0.00036951,3692.5,0.00036999,3706.9,-0.00011952,28.913,-0.00012337,-0.0053528,0.40652
27410,8.9195,4.7273,0.1,0.00036674,3664.9,0.00036723,3679.4,-0.00011858,29.208,-0.00012247,-0.0049439,0.41483
27411,8.8276,5,0.1,0.00036997,3697.2,0.00037037,3709.1,-0.00012009,23.929,-0.00012328,-0.0060731,0.4057
27412,8.9195,4.9091,0.1,0.00036717,3669.2,0.00036759,3681.5,-0.00011911,24.62,-0.00012239,-0.0056185,0.41405
27413,8.8276,5.1818,0.1,0.00037047,3702.1,0.00037078,3711.4,-0.00012069,18.651,-0.00012318,-0.0072668,0.40481
27414,8.9195,5.0909,0.1,0.00036763,3673.8,0.00036797,3683.6,-0.00011967,19.739,-0.0001223,-0.0062312,0.4132
27415,8.8276,5.3636,0.1,0.00037099,3707.4,0.00037121,3713.9,-0.00012133,13.119,-0.00012308,-0.007692,0.40383
27416,8.9195,5.2727,0.1,0.00036812,3678.7,0.00036837,3685.9,-0.00012026,14.6,-0.0001222,-0.0077761,0.41227
27417,8.8276,5.5455,0.1,0.00037154,3712.8,0.00037166,3716.5,-0.00012199,7.3444,-0.00012297,-0.01637,0.40278
27418,8.9195,5.4545,0.1,0.00036863,3683.8,0.00036879,3688.4,-0.00012088,9.2401,-0.00012211,-0.0070242,0.41126
27419,8.8276,5.7273,0.1,0.00037217,3719.1,0.00037218,3719.6,-0.00012272,1.0469,-0.00012287,-0.08149,0.40165
27420,8.9195,5.6364,0.1,0.00036917,3689.1,0.00036923,3690.9,-0.00012152,3.6419,-0.00012201,-0.025895,0.41017
27421,8.9195,5.8182,0.1,0.00036984,3695.9,0.00036979,3694.4,-0.0001219,0.05184,-0.0001223,-2.9922,0.409
27422,8.8276,5.9091,0.1,0.00037237,3721.1,0.00037233,3719.9,-0.00012276,0.026634,-0.00012309,-2.419,0.40043
27423,9.0115,0.27273,0.1,0.00036684,3665.8,0.00036683,3665.7,-0.00012102,0.14763,-0.00012109,-0.37104,0.41761
27424,9.1034,0.18182,0.1,0.0003645,3642.5,0.00036444,3640.6,-0.00012009,0.033031,-0.00012061,-3.8446,0.4251
27425,9.0115,0.090909,0.1,0.00036698,3667.2,0.00036693,3665.8,-0.00012096,0.016416,-0.00012135,-2.9271,0.41641
27426,9.0115,0.45455,0.1,0.00036626,3660,0.00036635,3662.8,-0.0001204,5.5536,-0.00012114,-0.014009,0.41874
27427,9.1034,0.36364,0.1,0.00036387,3636.2,0.00036391,3637.3,-0.00011989,2.1917,-0.00012019,-0.022636,0.42626
27428,9.0115,0.63636,0.1,0.00036576,3655,0.00036594,3660.4,-0.0001198,10.736,-0.00012123,-0.0068187,0.41978
27429,9.1034,0.54545,0.1,0.00036338,3631.3,0.0003635,3634.9,-0.00011931,7.2007,-0.00012027,-0.0060809,0.42734
27430,9.0115,0.81818,0.1,0.00036528,3650.3,0.00036555,3658.1,-0.00011923,15.701,-0.00012132,-0.0066509,0.42075
27431,9.1034,0.72727,0.1,0.00036292,3626.7,0.00036312,3632.7,-0.00011876,11.996,-0.00012036,-0.0070043,0.42834
27432,9.0115,1,0.1,0.00036483,3645.8,0.00036518,3656,-0.00011868,20.443,-0.00012141,-0.0057353,0.42163
27433,9.1034,0.90909,0.1,0.00036248,3622.3,0.00036276,3630.5,-0.00011823,16.598,-0.00012044,-0.0058293,0.42926
27434,9.0115,1.1818,0.1,0.00036441,3641.6,0.00036483,3654,-0.00011817,24.927,-0.00012149,-0.0051853,0.42244
27435,9.1034,1.0909,0.1,0.00036206,3618.1,0.00036241,3628.5,-0.00011773,20.976,-0.00012052,-0.0053943,0.4301
27436,9.0115,1.3636,0.1,0.00036401,3637.6,0.0003645,3652.1,-0.00011769,29.118,-0.00012156,-0.0046388,0.42317
27437,9.1034,1.2727,0.1,0.00036167,3614.2,0.00036209,3626.7,-0.00011725,25.097,-0.00012059,-0.0048715,0.43086
27438,9.0115,1.5455,0.1,0.00036365,3634,0.0003642,3650.4,-0.00011725,32.982,-0.00012164,-0.004152,0.42382
27439,9.1034,1.4545,0.1,0.00036131,3610.6,0.00036179,3625,-0.00011681,28.928,-0.00012066,-0.0044206,0.43155
27440,9.0115,1.7273,0.1,0.00036332,3630.7,0.00036393,3648.8,-0.00011684,36.484,-0.0001217,-0.0037033,0.4244
27441,9.1034,1.6364,0.1,0.00036098,3607.3,0.00036152,3623.4,-0.00011641,32.435,-0.00012073,-0.0039908,0.43216
27442,9.0115,1.9091,0.1,0.00036303,3627.8,0.00036369,3647.5,-0.00011649,39.593,-0.00012176,-0.0033002,0.42489
27443,9.1034,1.8182,0.1,0.00036068,3604.4,0.00036128,3622,-0.00011605,35.586,-0.00012078,-0.0035981,0.4327
27444,9.0115,2.0909,0.1,0.00036278,3625.3,0.00036348,3646.3,-0.00011618,42.279,-0.00012181,-0.0029451,0.42532
27445,9.1034,2,0.1,0.00036043,3601.8,0.00036106,3620.8,-0.00011573,38.35,-0.00012084,-0.0032441,0.43315
27446,9.0115,2.2727,0.1,0.00036258,3623.3,0.00036331,3645.3,-0.00011592,44.515,-0.00012185,-0.0026442,0.42566
27447,9.1034,2.1818,0.1,0.00036021,3599.6,0.00036088,3619.8,-0.00011546,40.7,-0.00012088,-0.0029346,0.43353
27448,9.0115,2.4545,0.1,0.00036241,3621.6,0.00036318,3644.5,-0.00011572,46.279,-0.00012188,-0.0024039,0.42593
27449,9.1034,2.3636,0.1,0.00036003,3597.8,0.00036073,3618.9,-0.00011524,42.612,-0.00012091,-0.0026778,0.43384
27450,9.0115,2.6364,0.1,0.00036229,3620.4,0.00036308,3644,-0.00011558,47.553,-0.0001219,-0.0022286,0.42612
27451,9.1034,2.5455,0.1,0.00035989,3596.5,0.00036062,3618.3,-0.00011508,44.064,-0.00012094,-0.0024804,0.43407
27452,9.0115,2.8182,0.1,0.00036222,3619.7,0.00036302,3643.6,-0.00011549,48.323,-0.00012192,-0.0021211,0.42623
27453,9.1034,2.7273,0.1,0.0003598,3595.5,0.00036055,3617.9,-0.00011496,45.041,-0.00012096,-0.002345,0.43422
27454,9.0115,3,0.1,0.0003622,3619.5,0.000363,3643.5,-0.00011546,48.58,-0.00012192,-0.0020847,0.42627
27455,9.1034,2.9091,0.1,0.00035976,3595.1,0.00036051,3617.6,-0.00011491,45.533,-0.00012097,-0.0022761,0.43429
27456,9.0115,3.1818,0.1,0.00036222,3619.7,0.00036302,3643.6,-0.00011549,48.323,-0.00012192,-0.0021209,0.42623
27457,9.1034,3.0909,0.1,0.00035976,3595.1,0.00036051,3617.6,-0.00011491,45.533,-0.00012097,-0.002276,0.43429
27458,9.0115,3.3636,0.1,0.00036229,3620.4,0.00036308,3644,-0.00011558,47.553,-0.0001219,-0.0022283,0.42612
27459,9.1034,3.2727,0.1,0.0003598,3595.5,0.00036055,3617.9,-0.00011496,45.041,-0.00012096,-0.002345,0.43422
27460,9.0115,3.5455,0.1,0.00036241,3621.6,0.00036318,3644.5,-0.00011572,46.279,-0.00012188,-0.0024037,0.42593
27461,9.1034,3.4545,0.1,0.00035989,3596.5,0.00036062,3618.3,-0.00011508,44.064,-0.00012094,-0.0024804,0.43407
27462,9.0115,3.7273,0.1,0.00036258,3623.3,0.00036331,3645.3,-0.00011592,44.515,-0.00012185,-0.0026438,0.42566
27463,9.1034,3.6364,0.1,0.00036003,3597.8,0.00036073,3618.9,-0.00011524,42.612,-0.00012091,-0.0026775,0.43384
27464,9.0115,3.9091,0.1,0.00036278,3625.3,0.00036348,3646.3,-0.00011618,42.279,-0.00012181,-0.0029448,0.42532
27465,9.1034,3.8182,0.1,0.00036021,3599.6,0.00036088,3619.8,-0.00011546,40.7,-0.00012088,-0.0029343,0.43353
27466,9.0115,4.0909,0.1,0.00036303,3627.8,0.00036369,3647.5,-0.00011649,39.593,-0.00012176,-0.0032998,0.42489
27467,9.1034,4,0.1,0.00036043,3601.8,0.00036106,3620.8,-0.00011573,38.35,-0.00012084,-0.0032438,0.43315
27468,9.0115,4.2727,0.1,0.00036332,3630.7,0.00036393,3648.8,-0.00011684,36.484,-0.0001217,-0.0037026,0.4244
27469,9.1034,4.1818,0.1,0.00036068,3604.4,0.00036128,3622,-0.00011605,35.586,-0.00012078,-0.0035974,0.4327
27470,9.0115,4.4545,0.1,0.00036365,3634,0.0003642,3650.4,-0.00011725,32.982,-0.00012164,-0.0041513,0.42382
27471,9.1034,4.3636,0.1,0.00036098,3607.3,0.00036152,3623.4,-0.00011641,32.435,-0.00012073,-0.0039902,0.43216
27472,9.0115,4.6364,0.1,0.00036401,3637.6,0.0003645,3652.1,-0.00011769,29.118,-0.00012156,-0.0046383,0.42317
27473,9.1034,4.5455,0.1,0.00036131,3610.6,0.00036179,3625,-0.00011681,28.928,-0.00012066,-0.00442,0.43155
27474,9.0115,4.8182,0.1,0.00036441,3641.6,0.00036483,3654,-0.00011817,24.927,-0.00012149,-0.0051846,0.42244
27475,9.1034,4.7273,0.1,0.00036167,3614.2,0.00036209,3626.7,-0.00011725,25.097,-0.00012059,-0.0048708,0.43086
27476,9.0115,5,0.1,0.00036483,3645.8,0.00036518,3656,-0.00011868,20.443,-0.00012141,-0.0057341,0.42163
27477,9.1034,4.9091,0.1,0.00036206,3618.1,0.00036241,3628.5,-0.00011773,20.976,-0.00012052,-0.0053936,0.4301
27478,9.0115,5.1818,0.1,0.00036528,3650.3,0.00036555,3658.1,-0.00011923,15.701,-0.00012132,-0.0066496,0.42075
27479,9.1034,5.0909,0.1,0.00036248,3622.3,0.00036276,3630.5,-0.00011823,16.598,-0.00012044,-0.0058279,0.42926
27480,9.0115,5.3636,0.1,0.00036576,3655,0.00036594,3660.4,-0.0001198,10.736,-0.00012123,-0.0068181,0.41978
27481,9.1034,5.2727,0.1,0.00036292,3626.7,0.00036312,3632.7,-0.00011876,11.996,-0.00012036,-0.0070032,0.42834
27482,9.0115,5.5455,0.1,0.00036626,3660,0.00036635,3662.8,-0.0001204,5.5536,-0.00012114,-0.014008,0.41874
27483,9.1034,5.4545,0.1,0.00036338,3631.3,0.0003635,3634.9,-0.00011931,7.2007,-0.00012027,-0.0060806,0.42734
27484,9.0115,5.7273,0.1,0.00036684,3665.8,0.00036683,3665.7,-0.00012102,0.14764,-0.00012109,-0.37103,0.41761
27485,9.1034,5.6364,0.1,0.00036387,3636.2,0.00036391,3637.3,-0.00011989,2.1917,-0.00012019,-0.022634,0.42626
27486,9.1034,5.8182,0.1,0.0003645,3642.5,0.00036444,3640.6,-0.00012009,0.033032,-0.00012061,-3.8446,0.4251
27487,9.0115,5.9091,0.1,0.00036698,3667.2,0.00036693,3665.8,-0.00012096,0.016417,-0.00012135,-2.9271,0.41641
27488,9.1954,0.27273,0.1,0.00036152,3612.7,0.0003615,3612.1,-0.00011923,0.023245,-0.00011942,-1.3737,0.43383
27489,9.2874,0.18182,0.1,0.00035918,3589.3,0.0003591,3587,-0.0001183,0.022121,-0.00011892,-4.6594,0.44145
27490,9.1954,0.090909,0.1,0.00036161,3613.6,0.00036155,3611.9,-0.00011916,0.010241,-0.00011962,-3.4118,0.43264
27491,9.1954,0.45455,0.1,0.00036099,3607.4,0.00036106,3609.3,-0.0001188,3.8551,-0.00011932,-0.011794,0.43494
27492,9.2874,0.36364,0.1,0.00035859,3583.4,0.0003586,3583.8,-0.00011827,0.81502,-0.00011838,-0.020936,0.44259
27493,9.1954,0.63636,0.1,0.00036054,3602.9,0.00036068,3607.1,-0.00011827,8.4762,-0.0001194,-0.0060612,0.43597
27494,9.2874,0.54545,0.1,0.00035815,3579,0.00035824,3581.6,-0.00011775,5.2627,-0.00011845,-0.0052658,0.44366
27495,9.1954,0.81818,0.1,0.00036011,3598.6,0.00036033,3605.1,-0.00011776,12.907,-0.00011948,-0.0061281,0.43693
27496,9.2874,0.72727,0.1,0.00035773,3574.8,0.00035789,3579.6,-0.00011725,9.5219,-0.00011852,-0.0063506,0.44465
27497,9.1954,1,0.1,0.0003597,3594.6,0.00035999,3603.1,-0.00011727,17.144,-0.00011955,-0.0054646,0.43781
27498,9.2874,0.90909,0.1,0.00035733,3570.9,0.00035756,3577.7,-0.00011678,13.617,-0.00011859,-0.0055106,0.44556
27499,9.1954,1.1818,0.1,0.00035932,3590.7,0.00035968,3601.3,-0.00011681,21.159,-0.00011962,-0.0050666,0.4386
27500,9.2874,1.0909,0.1,0.00035696,3567.1,0.00035725,3575.8,-0.00011633,17.522,-0.00011866,-0.0052317,0.44639
27501,9.1954,1.3636,0.1,0.00035896,3587.2,0.00035938,3599.5,-0.00011637,24.919,-0.00011969,-0.0046432,0.43933
27502,9.2874,1.2727,0.1,0.00035661,3563.6,0.00035696,3574.2,-0.00011591,21.206,-0.00011873,-0.0048427,0.44715
27503,9.1954,1.5455,0.1,0.00035863,3583.9,0.00035911,3598,-0.00011597,28.392,-0.00011975,-0.0042512,0.43997
27504,9.2874,1.4545,0.1,0.00035628,3560.3,0.00035669,3572.6,-0.00011551,24.64,-0.00011879,-0.0044909,0.44783
27505,9.1954,1.7273,0.1,0.00035834,3580.9,0.00035886,3596.6,-0.00011561,31.547,-0.00011981,-0.0038783,0.44054
27506,9.2874,1.6364,0.1,0.00035598,3557.4,0.00035645,3571.2,-0.00011515,27.79,-0.00011885,-0.0041406,0.44843
27507,9.1954,1.9091,0.1,0.00035807,3578.3,0.00035865,3595.3,-0.00011529,34.353,-0.00011986,-0.0035352,0.44103
27508,9.2874,1.8182,0.1,0.00035571,3554.7,0.00035623,3569.9,-0.00011482,30.628,-0.0001189,-0.0038104,0.44896
27509,9.1954,2.0909,0.1,0.00035785,3576,0.00035846,3594.2,-0.00011501,36.781,-0.00011991,-0.0032271,0.44145
27510,9.2874,2,0.1,0.00035548,3552.3,0.00035603,3568.8,-0.00011454,33.123,-0.00011895,-0.0035055,0.44941
27511,9.1954,2.2727,0.1,0.00035766,3574.1,0.0003583,3593.4,-0.00011478,38.806,-0.00011994,-0.002962,0.44179
27512,9.2874,2.1818,0.1,0.00035528,3550.4,0.00035587,3567.9,-0.00011429,35.249,-0.00011898,-0.0032336,0.44979
27513,9.1954,2.4545,0.1,0.00035751,3572.6,0.00035818,3592.7,-0.0001146,40.406,-0.00011997,-0.0027483,0.44206
27514,9.2874,2.3636,0.1,0.00035512,3548.7,0.00035573,3567.1,-0.00011409,36.98,-0.00011902,-0.003005,0.45009
27515,9.1954,2.6364,0.1,0.0003574,3571.5,0.00035809,3592.1,-0.00011446,41.562,-0.00012,-0.0025909,0.44225
27516,9.2874,2.5455,0.1,0.000355,3547.5,0.00035563,3566.5,-0.00011394,38.298,-0.00011904,-0.0028276,0.45032
27517,9.1954,2.8182,0.1,0.00035734,3570.9,0.00035804,3591.8,-0.00011438,42.261,-0.00012001,-0.0024941,0.44236
27518,9.2874,2.7273,0.1,0.00035491,3546.7,0.00035556,3566.1,-0.00011384,39.185,-0.00011906,-0.0027048,0.45047
27519,9.1954,3,0.1,0.00035731,3570.7,0.00035802,3591.7,-0.00011436,42.495,-0.00012001,-0.0024614,0.4424
27520,9.2874,2.9091,0.1,0.00035487,3546.3,0.00035553,3565.9,-0.00011379,39.632,-0.00011907,-0.0026421,0.45054
27521,9.1954,3.1818,0.1,0.00035734,3570.9,0.00035804,3591.8,-0.00011438,42.261,-0.00012001,-0.0024941,0.44236
27522,9.2874,3.0909,0.1,0.00035487,3546.3,0.00035553,3565.9,-0.00011379,39.632,-0.00011907,-0.0026423,0.45054
27523,9.1954,3.3636,0.1,0.0003574,3571.5,0.00035809,3592.1,-0.00011446,41.562,-0.00012,-0.002591,0.44225
27524,9.2874,3.2727,0.1,0.00035491,3546.7,0.00035556,3566.1,-0.00011384,39.185,-0.00011906,-0.0027049,0.45047
27525,9.1954,3.5455,0.1,0.00035751,3572.6,0.00035818,3592.7,-0.0001146,40.406,-0.00011997,-0.0027481,0.44206
27526,9.2874,3.4545,0.1,0.000355,3547.5,0.00035563,3566.5,-0.00011394,38.298,-0.00011904,-0.0028275,0.45032
27527,9.1954,3.7273,0.1,0.00035766,3574.1,0.0003583,3593.4,-0.00011478,38.806,-0.00011994,-0.0029618,0.44179
27528,9.2874,3.6364,0.1,0.00035512,3548.7,0.00035573,3567.1,-0.00011409,36.98,-0.00011902,-0.0030048,0.45009
27529,9.1954,3.9091,0.1,0.00035785,3576,0.00035846,3594.2,-0.00011501,36.781,-0.00011991,-0.0032268,0.44145
27530,9.2874,3.8182,0.1,0.00035528,3550.4,0.00035587,3567.9,-0.00011429,35.249,-0.00011898,-0.0032334,0.44979
27531,9.1954,4.0909,0.1,0.00035807,3578.3,0.00035865,3595.3,-0.00011529,34.353,-0.00011986,-0.0035347,0.44103
27532,9.2874,4,0.1,0.00035548,3552.3,0.00035603,3568.8,-0.00011454,33.123,-0.00011895,-0.003505,0.44941
27533,9.1954,4.2727,0.1,0.00035834,3580.9,0.00035886,3596.6,-0.00011561,31.547,-0.00011981,-0.0038777,0.44054
27534,9.2874,4.1818,0.1,0.00035571,3554.7,0.00035623,3569.9,-0.00011482,30.628,-0.0001189,-0.0038098,0.44896
27535,9.1954,4.4545,0.1,0.00035863,3583.9,0.00035911,3598,-0.00011597,28.392,-0.00011975,-0.0042506,0.43997
27536,9.2874,4.3636,0.1,0.00035598,3557.4,0.00035645,3571.2,-0.00011515,27.79,-0.00011885,-0.00414,0.44843
27537,9.1954,4.6364,0.1,0.00035896,3587.2,0.00035938,3599.5,-0.00011637,24.919,-0.00011969,-0.0046425,0.43933
27538,9.2874,4.5455,0.1,0.00035628,3560.3,0.00035669,3572.6,-0.00011551,24.64,-0.00011879,-0.0044904,0.44783
27539,9.1954,4.8182,0.1,0.00035932,3590.7,0.00035968,3601.3,-0.00011681,21.159,-0.00011962,-0.0050659,0.4386
27540,9.2874,4.7273,0.1,0.00035661,3563.6,0.00035696,3574.2,-0.00011591,21.206,-0.00011873,-0.004842,0.44715
27541,9.1954,5,0.1,0.0003597,3594.6,0.00035999,3603.1,-0.00011727,17.144,-0.00011955,-0.0054636,0.43781
27542,9.2874,4.9091,0.1,0.00035696,3567.1,0.00035725,3575.8,-0.00011633,17.522,-0.00011866,-0.0052311,0.44639
27543,9.1954,5.1818,0.1,0.00036011,3598.6,0.00036033,3605.1,-0.00011776,12.907,-0.00011948,-0.0061269,0.43693
27544,9.2874,5.0909,0.1,0.00035733,3570.9,0.00035756,3577.7,-0.00011678,13.617,-0.00011859,-0.0055094,0.44556
27545,9.1954,5.3636,0.1,0.00036054,3602.9,0.00036068,3607.1,-0.00011827,8.4762,-0.0001194,-0.0060605,0.43597
27546,9.2874,5.2727,0.1,0.00035773,3574.8,0.00035789,3579.6,-0.00011725,9.5219,-0.00011852,-0.0063493,0.44465
27547,9.1954,5.5455,0.1,0.00036099,3607.4,0.00036106,3609.3,-0.0001188,3.8551,-0.00011932,-0.011793,0.43494
27548,9.2874,5.4545,0.1,0.00035815,3579,0.00035824,3581.6,-0.00011775,5.2627,-0.00011845,-0.0052653,0.44366
27549,9.1954,5.7273,0.1,0.00036152,3612.7,0.0003615,3612.1,-0.00011923,0.023247,-0.00011942,-1.3737,0.43383
27550,9.2874,5.6364,0.1,0.00035859,3583.4,0.0003586,3583.8,-0.00011827,0.81503,-0.00011838,-0.020935,0.44259
27551,9.2874,5.8182,0.1,0.00035918,3589.3,0.0003591,3587,-0.0001183,0.022122,-0.00011892,-4.6594,0.44145
27552,9.1954,5.9091,0.1,0.00036161,3613.6,0.00036155,3611.9,-0.00011916,0.010242,-0.00011962,-3.4117,0.43264
27553,9.3793,0.27273,0.1,0.00035623,3559.9,0.00035619,3558.7,-0.00011744,0.006451,-0.00011776,-2.4285,0.45029
27554,9.4713,0.18182,0.1,0.00035388,3536.3,0.00035378,3533.6,-0.00011651,0.015217,-0.00011723,-5.4367,0.45804
27555,9.3793,0.090909,0.1,0.00035626,3560.1,0.00035619,3558.2,-0.00011737,0.0063485,-0.00011789,-3.8731,0.44912
27556,9.3793,0.45455,0.1,0.00035574,3555,0.00035578,3556.1,-0.00011721,2.2378,-0.00011751,-0.0097182,0.45139
27557,9.4713,0.36364,0.1,0.00035333,3530.8,0.00035332,3530.6,-0.00011657,-0.0098527,-0.00011664,-0.50776,0.45917
27558,9.3793,0.63636,0.1,0.00035534,3550.9,0.00035544,3554.1,-0.00011673,6.3249,-0.00011757,-0.0054514,0.45241
27559,9.4713,0.54545,0.1,0.00035293,3526.9,0.00035299,3528.6,-0.00011618,3.4127,-0.00011664,-0.0046465,0.46022
27560,9.3793,0.81818,0.1,0.00035495,3547.1,0.00035513,3552.2,-0.00011628,10.248,-0.00011764,-0.005717,0.45336
27561,9.4713,0.72727,0.1,0.00035256,3523.2,0.00035268,3526.7,-0.00011575,7.1615,-0.0001167,-0.0058491,0.4612
27562,9.3793,1,0.1,0.00035459,3543.4,0.00035482,3550.4,-0.00011584,14.009,-0.00011771,-0.0052728,0.45422
27563,9.4713,0.90909,0.1,0.0003522,3519.6,0.00035239,3525,-0.00011533,10.776,-0.00011676,-0.0052932,0.4621
27564,9.3793,1.1818,0.1,0.00035424,3540,0.00035454,3548.7,-0.00011543,17.583,-0.00011777,-0.0050046,0.45501
27565,9.4713,1.0909,0.1,0.00035187,3516.2,0.00035211,3523.3,-0.00011493,14.234,-0.00011682,-0.0051393,0.46292
27566,9.3793,1.3636,0.1,0.00035392,3536.8,0.00035427,3547.2,-0.00011504,20.939,-0.00011783,-0.0046872,0.45573
27567,9.4713,1.2727,0.1,0.00035155,3513.1,0.00035185,3521.8,-0.00011455,17.508,-0.00011688,-0.0048626,0.46367
27568,9.3793,1.5455,0.1,0.00035362,3533.8,0.00035403,3545.8,-0.00011468,24.049,-0.00011789,-0.0043768,0.45637
27569,9.4713,1.4545,0.1,0.00035126,3510.2,0.0003516,3520.4,-0.00011419,20.57,-0.00011693,-0.0045941,0.46435
27570,9.3793,1.7273,0.1,0.00035336,3531.1,0.00035381,3544.5,-0.00011436,26.883,-0.00011794,-0.0040688,0.45693
27571,9.4713,1.6364,0.1,0.00035099,3507.5,0.00035138,3519.1,-0.00011387,23.39,-0.00011698,-0.0043106,0.46494
27572,9.3793,1.9091,0.1,0.00035312,3528.7,0.00035361,3543.4,-0.00011407,29.409,-0.00011798,-0.0037765,0.45742
27573,9.4713,1.8182,0.1,0.00035075,3505.1,0.00035118,3518,-0.00011358,25.939,-0.00011703,-0.0040324,0.46547
27574,9.3793,2.0909,0.1,0.00035291,3526.7,0.00035344,3542.4,-0.00011382,31.601,-0.00011802,-0.0035077,0.45783
27575,9.4713,2,0.1,0.00035054,3503,0.00035101,3517,-0.00011332,28.187,-0.00011707,-0.0037681,0.46591
27576,9.3793,2.2727,0.1,0.00035274,3525,0.0003533,3541.6,-0.00011361,33.433,-0.00011806,-0.0032721,0.45817
27577,9.4713,2.1818,0.1,0.00035036,3501.2,0.00035086,3516.1,-0.0001131,30.107,-0.00011711,-0.0035268,0.46629
27578,9.3793,2.4545,0.1,0.00035261,3523.6,0.00035319,3540.9,-0.00011344,34.882,-0.00011808,-0.0030798,0.45843
27579,9.4713,2.3636,0.1,0.00035021,3499.7,0.00035074,3515.4,-0.00011292,31.675,-0.00011714,-0.0033206,0.46659
27580,9.3793,2.6364,0.1,0.00035251,3522.6,0.00035311,3540.5,-0.00011332,35.931,-0.0001181,-0.0029369,0.45862
27581,9.4713,2.5455,0.1,0.0003501,3498.6,0.00035065,3514.9,-0.00011278,32.871,-0.00011716,-0.0031587,0.46681
27582,9.3793,2.8182,0.1,0.00035245,3522.1,0.00035306,3540.2,-0.00011325,36.566,-0.00011811,-0.0028482,0.45873
27583,9.4713,2.7273,0.1,0.00035003,3497.8,0.00035059,3514.6,-0.00011269,33.677,-0.00011717,-0.0030457,0.46696
27584,9.3793,3,0.1,0.00035243,3521.9,0.00035304,3540.1,-0.00011322,36.779,-0.00011812,-0.0028183,0.45877
27585,9.4713,2.9091,0.1,0.00034999,3497.5,0.00035056,3514.4,-0.00011264,34.083,-0.00011718,-0.0029875,0.46703
27586,9.3793,3.1818,0.1,0.00035245,3522.1,0.00035306,3540.2,-0.00011325,36.566,-0.00011811,-0.0028485,0.45873
27587,9.4713,3.0909,0.1,0.00034999,3497.5,0.00035056,3514.4,-0.00011264,34.083,-0.00011718,-0.0029877,0.46703
27588,9.3793,3.3636,0.1,0.00035251,3522.6,0.00035311,3540.5,-0.00011332,35.931,-0.0001181,-0.0029368,0.45862
27589,9.4713,3.2727,0.1,0.00035003,3497.8,0.00035059,3514.6,-0.00011269,33.677,-0.00011717,-0.0030455,0.46696
27590,9.3793,3.5455,0.1,0.00035261,3523.6,0.00035319,3540.9,-0.00011344,34.882,-0.00011808,-0.0030797,0.45843
27591,9.4713,3.4545,0.1,0.0003501,3498.6,0.00035065,3514.9,-0.00011278,32.871,-0.00011716,-0.0031585,0.46681
27592,9.3793,3.7273,0.1,0.00035274,3525,0.0003533,3541.6,-0.00011361,33.433,-0.00011806,-0.003272,0.45817
27593,9.4713,3.6364,0.1,0.00035021,3499.7,0.00035074,3515.4,-0.00011292,31.675,-0.00011714,-0.0033205,0.46659
27594,9.3793,3.9091,0.1,0.00035291,3526.7,0.00035344,3542.4,-0.00011382,31.601,-0.00011802,-0.0035073,0.45783
27595,9.4713,3.8182,0.1,0.00035036,3501.2,0.00035086,3516.1,-0.0001131,30.107,-0.00011711,-0.0035266,0.46629
27596,9.3793,4.0909,0.1,0.00035312,3528.7,0.00035361,3543.4,-0.00011407,29.409,-0.00011798,-0.003776,0.45742
27597,9.4713,4,0.1,0.00035054,3503,0.00035101,3517,-0.00011332,28.187,-0.00011707,-0.0037676,0.46591
27598,9.3793,4.2727,0.1,0.00035336,3531.1,0.00035381,3544.5,-0.00011436,26.883,-0.00011794,-0.0040681,0.45693
27599,9.4713,4.1818,0.1,0.00035075,3505.1,0.00035118,3518,-0.00011358,25.939,-0.00011703,-0.0040319,0.46547
27600,9.3793,4.4545,0.1,0.00035362,3533.8,0.00035403,3545.8,-0.00011468,24.049,-0.00011789,-0.0043761,0.45637
27601,9.4713,4.3636,0.1,0.00035099,3507.5,0.00035138,3519.1,-0.00011387,23.39,-0.00011698,-0.0043099,0.46494
27602,9.3793,4.6364,0.1,0.00035392,3536.8,0.00035427,3547.2,-0.00011504,20.939,-0.00011783,-0.0046866,0.45573
27603,9.4713,4.5455,0.1,0.00035126,3510.2,0.0003516,3520.4,-0.00011419,20.57,-0.00011693,-0.0045936,0.46435
27604,9.3793,4.8182,0.1,0.00035424,3540,0.00035454,3548.7,-0.00011543,17.583,-0.00011777,-0.005004,0.45501
27605,9.4713,4.7273,0.1,0.00035155,3513.1,0.00035185,3521.8,-0.00011455,17.508,-0.00011688,-0.0048618,0.46367
27606,9.3793,5,0.1,0.00035459,3543.4,0.00035482,3550.4,-0.00011584,14.009,-0.00011771,-0.0052721,0.45422
27607,9.4713,4.9091,0.1,0.00035187,3516.2,0.00035211,3523.3,-0.00011493,14.234,-0.00011682,-0.0051388,0.46292
27608,9.3793,5.1818,0.1,0.00035495,3547.1,0.00035513,3552.2,-0.00011628,10.248,-0.00011764,-0.0057158,0.45336
27609,9.4713,5.0909,0.1,0.0003522,3519.6,0.00035239,3525,-0.00011533,10.776,-0.00011676,-0.005292,0.4621
27610,9.3793,5.3636,0.1,0.00035534,3550.9,0.00035544,3554.1,-0.00011673,6.3249,-0.00011757,-0.0054503,0.45241
27611,9.4713,5.2727,0.1,0.00035256,3523.2,0.00035268,3526.7,-0.00011575,7.1615,-0.0001167,-0.005848,0.4612
27612,9.3793,5.5455,0.1,0.00035574,3555,0.00035578,3556.1,-0.00011721,2.2378,-0.00011751,-0.0097173,0.45139
27613,9.4713,5.4545,0.1,0.00035293,3526.9,0.00035299,3528.6,-0.00011618,3.4127,-0.00011664,-0.004646,0.46022
27614,9.3793,5.7273,0.1,0.00035623,3559.9,0.00035619,3558.7,-0.00011744,0.0064521,-0.00011776,-2.4285,0.45029
27615,9.4713,5.6364,0.1,0.00035333,3530.8,0.00035332,3530.6,-0.00011657,-0.0098513,-0.00011664,-0.50775,0.45917
27616,9.4713,5.8182,0.1,0.00035388,3536.3,0.00035378,3533.6,-0.00011651,0.015218,-0.00011723,-5.4367,0.45804
27617,9.3793,5.9091,0.1,0.00035626,3560.1,0.00035619,3558.2,-0.00011737,0.0063494,-0.00011789,-3.8731,0.44912
27618,9.5632,0.27273,0.1,0.00035096,3507.2,0.0003509,3505.5,-0.00011565,0.0014807,-0.0001161,-3.4459,0.46699
27619,9.6552,0.18182,0.1,0.00034859,3483.5,0.00034849,3480.4,-0.00011473,0.010591,-0.00011555,-6.1784,0.47487
27620,9.5632,0.090909,0.1,0.00035093,3506.9,0.00035086,3504.8,-0.00011559,0.0038473,-0.00011617,-4.3122,0.46583
27621,9.5632,0.45455,0.1,0.00035051,3502.7,0.00035053,3503.1,-0.00011561,0.69068,-0.0001157,-0.0078472,0.46808
27622,9.6552,0.36364,0.1,0.00034808,3478.4,0.00034805,3477.6,-0.00011478,-0.01016,-0.00011501,-1.7649,0.47598
27623,9.5632,0.63636,0.1,0.00035015,3499.1,0.00035022,3501.2,-0.00011519,4.2665,-0.00011576,-0.0050792,0.46909
27624,9.6552,0.54545,0.1,0.00034773,3474.9,0.00034776,3475.7,-0.00011461,1.6374,-0.00011483,-0.0046096,0.47702
27625,9.5632,0.81818,0.1,0.00034981,3495.7,0.00034994,3499.5,-0.00011479,7.7055,-0.00011582,-0.0054526,0.47002
27626,9.6552,0.72727,0.1,0.0003474,3471.6,0.00034748,3474.1,-0.00011423,4.8967,-0.00011489,-0.0056095,0.47799
27627,9.5632,1,0.1,0.00034948,3492.4,0.00034967,3497.9,-0.00011441,11.015,-0.00011587,-0.0051745,0.47088
27628,9.6552,0.90909,0.1,0.00034709,3468.5,0.00034722,3472.5,-0.00011387,8.0526,-0.00011494,-0.0052247,0.47888
27629,9.5632,1.1818,0.1,0.00034917,3489.3,0.00034941,3496.4,-0.00011404,14.173,-0.00011593,-0.0050048,0.47166
27630,9.6552,1.0909,0.1,0.00034679,3465.5,0.00034698,3471,-0.00011351,11.087,-0.00011499,-0.0051427,0.47969
27631,9.5632,1.3636,0.1,0.00034889,3486.5,0.00034918,3495,-0.0001137,17.152,-0.00011598,-0.0047726,0.47237
27632,9.6552,1.2727,0.1,0.00034651,3462.7,0.00034674,3469.7,-0.00011318,13.975,-0.00011504,-0.0049472,0.48044
27633,9.5632,1.5455,0.1,0.00034862,3483.8,0.00034896,3493.7,-0.00011338,19.923,-0.00011603,-0.0045285,0.473
27634,9.6552,1.4545,0.1,0.00034625,3460.1,0.00034653,3468.4,-0.00011287,16.69,-0.00011509,-0.0047419,0.4811
27635,9.5632,1.7273,0.1,0.00034838,3481.4,0.00034876,3492.6,-0.00011309,22.459,-0.00011608,-0.0042732,0.47356
27636,9.6552,1.6364,0.1,0.00034601,3457.7,0.00034633,3467.3,-0.00011258,19.204,-0.00011513,-0.0045108,0.48169
27637,9.5632,1.9091,0.1,0.00034817,3479.3,0.00034858,3491.6,-0.00011283,24.728,-0.00011612,-0.0040221,0.47404
27638,9.6552,1.8182,0.1,0.00034579,3455.5,0.00034615,3466.2,-0.00011231,21.487,-0.00011517,-0.0042738,0.48221
27639,9.5632,2.0909,0.1,0.00034798,3477.4,0.00034843,3490.7,-0.0001126,26.704,-0.00011615,-0.0037847,0.47445
27640,9.6552,2,0.1,0.0003456,3453.6,0.000346,3465.3,-0.00011208,23.509,-0.00011521,-0.0040409,0.48265
27641,9.5632,2.2727,0.1,0.00034783,3475.9,0.0003483,3490,-0.00011241,28.361,-0.00011619,-0.0035723,0.47478
27642,9.6552,2.1818,0.1,0.00034544,3452,0.00034586,3464.6,-0.00011188,25.244,-0.00011524,-0.003823,0.48302
27643,9.5632,2.4545,0.1,0.00034771,3474.7,0.0003482,3489.4,-0.00011226,29.675,-0.00011621,-0.0033962,0.47504
27644,9.6552,2.3636,0.1,0.00034531,3450.7,0.00034575,3464,-0.00011172,26.664,-0.00011527,-0.0036329,0.48332
27645,9.5632,2.6364,0.1,0.00034762,3473.8,0.00034813,3489,-0.00011215,30.627,-0.00011623,-0.0032641,0.47523
27646,9.6552,2.5455,0.1,0.00034521,3449.7,0.00034567,3463.5,-0.0001116,27.75,-0.00011529,-0.0034818,0.48354
27647,9.5632,2.8182,0.1,0.00034756,3473.2,0.00034808,3488.7,-0.00011208,31.205,-0.00011624,-0.0031815,0.47534
27648,9.6552,2.7273,0.1,0.00034514,3449,0.00034562,3463.2,-0.00011151,28.484,-0.0001153,-0.0033753,0.48369
27649,9.5632,3,0.1,0.00034754,3473.1,0.00034807,3488.6,-0.00011206,31.398,-0.00011624,-0.0031533,0.47538
27650,9.6552,2.9091,0.1,0.00034511,3448.7,0.00034559,3463,-0.00011147,28.854,-0.00011531,-0.0033203,0.48376
27651,9.5632,3.1818,0.1,0.00034756,3473.2,0.00034808,3488.7,-0.00011208,31.205,-0.00011624,-0.0031813,0.47534
27652,9.6552,3.0909,0.1,0.00034511,3448.7,0.00034559,3463,-0.00011147,28.854,-0.00011531,-0.0033203,0.48376
27653,9.5632,3.3636,0.1,0.00034762,3473.8,0.00034813,3489,-0.00011215,30.627,-0.00011623,-0.0032639,0.47523
27654,9.6552,3.2727,0.1,0.00034514,3449,0.00034562,3463.2,-0.00011151,28.484,-0.0001153,-0.0033752,0.48369
27655,9.5632,3.5455,0.1,0.00034771,3474.7,0.0003482,3489.4,-0.00011226,29.675,-0.00011621,-0.0033961,0.47504
27656,9.6552,3.4545,0.1,0.00034521,3449.7,0.00034567,3463.5,-0.0001116,27.75,-0.00011529,-0.0034818,0.48354
27657,9.5632,3.7273,0.1,0.00034783,3475.9,0.0003483,3490,-0.00011241,28.361,-0.00011619,-0.003572,0.47478
27658,9.6552,3.6364,0.1,0.00034531,3450.7,0.00034575,3464,-0.00011172,26.664,-0.00011527,-0.0036326,0.48332
27659,9.5632,3.9091,0.1,0.00034798,3477.4,0.00034843,3490.7,-0.0001126,26.704,-0.00011615,-0.0037843,0.47445
27660,9.6552,3.8182,0.1,0.00034544,3452,0.00034586,3464.6,-0.00011188,25.243,-0.00011524,-0.0038224,0.48302
27661,9.5632,4.0909,0.1,0.00034817,3479.3,0.00034858,3491.6,-0.00011283,24.728,-0.00011612,-0.0040216,0.47404
27662,9.6552,4,0.1,0.0003456,3453.6,0.000346,3465.3,-0.00011208,23.509,-0.00011521,-0.0040405,0.48265
27663,9.5632,4.2727,0.1,0.00034838,3481.4,0.00034876,3492.6,-0.00011309,22.459,-0.00011608,-0.0042728,0.47356
27664,9.6552,4.1818,0.1,0.00034579,3455.5,0.00034615,3466.2,-0.00011231,21.487,-0.00011517,-0.0042734,0.48221
27665,9.5632,4.4545,0.1,0.00034862,3483.8,0.00034896,3493.7,-0.00011338,19.923,-0.00011603,-0.004528,0.473
27666,9.6552,4.3636,0.1,0.00034601,3457.7,0.00034633,3467.3,-0.00011258,19.204,-0.00011513,-0.0045102,0.48169
27667,9.5632,4.6364,0.1,0.00034889,3486.5,0.00034918,3495,-0.0001137,17.152,-0.00011598,-0.004772,0.47237
27668,9.6552,4.5455,0.1,0.00034625,3460.1,0.00034653,3468.4,-0.00011287,16.69,-0.00011509,-0.0047414,0.4811
27669,9.5632,4.8182,0.1,0.00034917,3489.3,0.00034941,3496.4,-0.00011404,14.173,-0.00011593,-0.0050041,0.47166
27670,9.6552,4.7273,0.1,0.00034651,3462.7,0.00034674,3469.7,-0.00011318,13.975,-0.00011504,-0.0049465,0.48044
27671,9.5632,5,0.1,0.00034948,3492.4,0.00034967,3497.9,-0.00011441,11.015,-0.00011587,-0.0051736,0.47088
27672,9.6552,4.9091,0.1,0.00034679,3465.5,0.00034698,3471,-0.00011351,11.087,-0.00011499,-0.0051422,0.47969
27673,9.5632,5.1818,0.1,0.00034981,3495.7,0.00034994,3499.5,-0.00011479,7.7055,-0.00011582,-0.0054516,0.47002
27674,9.6552,5.0909,0.1,0.00034709,3468.5,0.00034722,3472.5,-0.00011387,8.0526,-0.00011494,-0.0052232,0.47888
27675,9.5632,5.3636,0.1,0.00035015,3499.1,0.00035022,3501.2,-0.00011519,4.2665,-0.00011576,-0.0050787,0.46909
27676,9.6552,5.2727,0.1,0.0003474,3471.6,0.00034748,3474.1,-0.00011423,4.8966,-0.00011489,-0.0056085,0.47799
27677,9.5632,5.5455,0.1,0.00035051,3502.7,0.00035053,3503.1,-0.00011561,0.69068,-0.0001157,-0.0078463,0.46808
27678,9.6552,5.4545,0.1,0.00034773,3474.9,0.00034776,3475.7,-0.00011461,1.6374,-0.00011483,-0.004609,0.47702
27679,9.5632,5.7273,0.1,0.00035096,3507.2,0.0003509,3505.5,-0.00011565,0.0014821,-0.0001161,-3.4459,0.46699
27680,9.6552,5.6364,0.1,0.00034808,3478.4,0.00034805,3477.6,-0.00011478,-0.010159,-0.00011501,-1.7649,0.47598
27681,9.6552,5.8182,0.1,0.00034859,3483.5,0.00034849,3480.4,-0.00011473,0.010592,-0.00011555,-6.1784,0.47487
27682,9.5632,5.9091,0.1,0.00035093,3506.9,0.00035086,3504.8,-0.00011559,0.003848,-0.00011617,-4.3122,0.46583
27683,9.7471,0.27273,0.1,0.0003457,3454.7,0.00034563,3452.4,-0.00011386,-0.00011312,-0.00011445,-4.4239,0.48393
27684,9.8391,0.18182,0.1,0.00034332,3430.9,0.00034321,3427.4,-0.00011295,0.0073815,-0.00011387,-6.8876,0.49193
27685,9.7471,0.090909,0.1,0.00034563,3453.9,0.00034555,3451.5,-0.00011382,0.0022224,-0.00011445,-4.7305,0.48279
27686,9.7471,0.45455,0.1,0.0003453,3450.6,0.00034529,3450.2,-0.00011391,-0.0056306,-0.00011402,-0.7984,0.485
27687,9.8391,0.36364,0.1,0.00034286,3426.2,0.00034281,3424.7,-0.000113,-0.0076355,-0.00011339,-2.9799,0.49303
27688,9.7471,0.63636,0.1,0.00034498,3447.4,0.00034502,3448.6,-0.00011365,2.2855,-0.00011396,-0.0053854,0.486
27689,9.8391,0.54545,0.1,0.00034255,3423.1,0.00034255,3423.1,-0.00011303,0.020964,-0.00011305,-0.10342,0.49406
27690,9.7471,0.81818,0.1,0.00034468,3444.4,0.00034477,3447,-0.0001133,5.2602,-0.000114,-0.0054644,0.48692
27691,9.8391,0.72727,0.1,0.00034226,3420.2,0.00034231,3421.6,-0.00011272,2.7096,-0.00011308,-0.006059,0.49501
27692,9.7471,1,0.1,0.00034439,3441.5,0.00034453,3445.6,-0.00011297,8.1395,-0.00011405,-0.0052304,0.48777
27693,9.8391,0.90909,0.1,0.00034198,3417.5,0.00034208,3420.2,-0.0001124,5.4256,-0.00011312,-0.0054173,0.49589
27694,9.7471,1.1818,0.1,0.00034412,3438.8,0.0003443,3444.3,-0.00011265,10.903,-0.0001141,-0.0051036,0.48855
27695,9.8391,1.0909,0.1,0.00034172,3414.9,0.00034186,3418.9,-0.0001121,8.0566,-0.00011317,-0.0052813,0.4967
27696,9.7471,1.3636,0.1,0.00034387,3436.3,0.00034409,3443,-0.00011234,13.528,-0.00011415,-0.0049258,0.48924
27697,9.8391,1.2727,0.1,0.00034148,3412.4,0.00034166,3417.7,-0.0001118,10.581,-0.00011321,-0.0051109,0.49743
27698,9.7471,1.5455,0.1,0.00034363,3433.9,0.0003439,3441.9,-0.00011206,15.984,-0.00011419,-0.0047286,0.48987
27699,9.8391,1.4545,0.1,0.00034125,3410.1,0.00034147,3416.6,-0.00011153,12.972,-0.00011325,-0.0049391,0.49809
27700,9.7471,1.7273,0.1,0.00034342,3431.8,0.00034372,3440.9,-0.0001118,18.245,-0.00011423,-0.004513,0.49042
27701,9.8391,1.6364,0.1,0.00034104,3408,0.00034129,3415.6,-0.00011127,15.203,-0.00011329,-0.0047422,0.49868
27702,9.7471,1.9091,0.1,0.00034323,3429.9,0.00034357,3440,-0.00011157,20.28,-0.00011427,-0.0042925,0.4909
27703,9.8391,1.8182,0.1,0.00034084,3406.1,0.00034113,3414.7,-0.00011104,17.242,-0.00011333,-0.0045338,0.49919
27704,9.7471,2.0909,0.1,0.00034306,3428.2,0.00034343,3439.2,-0.00011136,22.06,-0.0001143,-0.004078,0.4913
27705,9.8391,2,0.1,0.00034067,3404.4,0.000341,3413.9,-0.00011083,19.06,-0.00011337,-0.0043224,0.49963
27706,9.7471,2.2727,0.1,0.00034292,3426.8,0.00034331,3438.5,-0.00011119,23.559,-0.00011433,-0.0038818,0.49163
27707,9.8391,2.1818,0.1,0.00034053,3403,0.00034088,3413.2,-0.00011065,20.627,-0.0001134,-0.0041197,0.49999
27708,9.7471,2.4545,0.1,0.00034281,3425.7,0.00034322,3438,-0.00011106,24.751,-0.00011435,-0.0037162,0.49189
27709,9.8391,2.3636,0.1,0.00034041,3401.8,0.00034078,3412.7,-0.0001105,21.917,-0.00011342,-0.0039397,0.50028
27710,9.7471,2.6364,0.1,0.00034273,3424.9,0.00034316,3437.7,-0.00011096,25.618,-0.00011437,-0.0035906,0.49207
27711,9.8391,2.5455,0.1,0.00034032,3400.9,0.0003407,3412.3,-0.00011039,22.906,-0.00011344,-0.0037945,0.5005
27712,9.7471,2.8182,0.1,0.00034268,3424.4,0.00034312,3437.4,-0.0001109,26.145,-0.00011438,-0.0035116,0.49218
27713,9.8391,2.7273,0.1,0.00034026,3400.2,0.00034065,3412,-0.00011031,23.576,-0.00011345,-0.0036913,0.50065
27714,9.7471,3,0.1,0.00034266,3424.3,0.0003431,3437.4,-0.00011088,26.321,-0.00011438,-0.0034847,0.49222
27715,9.8391,2.9091,0.1,0.00034023,3399.9,0.00034063,3411.8,-0.00011028,23.914,-0.00011346,-0.0036375,0.50072
27716,9.7471,3.1818,0.1,0.00034268,3424.4,0.00034312,3437.4,-0.0001109,26.145,-0.00011438,-0.0035118,0.49218
27717,9.8391,3.0909,0.1,0.00034023,3399.9,0.00034063,3411.8,-0.00011028,23.914,-0.00011346,-0.0036377,0.50072
27718,9.7471,3.3636,0.1,0.00034273,3424.9,0.00034316,3437.7,-0.00011096,25.618,-0.00011437,-0.0035907,0.49207
27719,9.8391,3.2727,0.1,0.00034026,3400.2,0.00034065,3412,-0.00011031,23.576,-0.00011345,-0.0036914,0.50065
27720,9.7471,3.5455,0.1,0.00034281,3425.7,0.00034322,3438,-0.00011106,24.751,-0.00011435,-0.0037161,0.49189
27721,9.8391,3.4545,0.1,0.00034032,3400.9,0.0003407,3412.3,-0.00011039,22.906,-0.00011344,-0.0037945,0.5005
27722,9.7471,3.7273,0.1,0.00034292,3426.8,0.00034331,3438.5,-0.00011119,23.559,-0.00011433,-0.0038813,0.49163
27723,9.8391,3.6364,0.1,0.00034041,3401.8,0.00034078,3412.7,-0.0001105,21.917,-0.00011342,-0.0039395,0.50028
27724,9.7471,3.9091,0.1,0.00034306,3428.2,0.00034343,3439.2,-0.00011136,22.06,-0.0001143,-0.0040775,0.4913
27725,9.8391,3.8182,0.1,0.00034053,3403,0.00034088,3413.2,-0.00011065,20.627,-0.0001134,-0.0041193,0.49999
27726,9.7471,4.0909,0.1,0.00034323,3429.9,0.00034357,3440,-0.00011157,20.28,-0.00011427,-0.0042922,0.4909
27727,9.8391,4,0.1,0.00034067,3404.4,0.000341,3413.9,-0.00011083,19.06,-0.00011337,-0.004322,0.49963
27728,9.7471,4.2727,0.1,0.00034342,3431.8,0.00034372,3440.9,-0.0001118,18.245,-0.00011423,-0.0045124,0.49042
27729,9.8391,4.1818,0.1,0.00034084,3406.1,0.00034113,3414.7,-0.00011104,17.242,-0.00011333,-0.0045333,0.49919
27730,9.7471,4.4545,0.1,0.00034363,3433.9,0.0003439,3441.9,-0.00011206,15.984,-0.00011419,-0.004728,0.48987
27731,9.8391,4.3636,0.1,0.00034104,3408,0.00034129,3415.6,-0.00011127,15.203,-0.00011329,-0.0047415,0.49868
27732,9.7471,4.6364,0.1,0.00034387,3436.3,0.00034409,3443,-0.00011234,13.528,-0.00011415,-0.0049252,0.48924
27733,9.8391,4.5455,0.1,0.00034125,3410.1,0.00034147,3416.6,-0.00011153,12.972,-0.00011325,-0.0049383,0.49809
27734,9.7471,4.8182,0.1,0.00034412,3438.8,0.0003443,3444.3,-0.00011265,10.903,-0.0001141,-0.0051032,0.48855
27735,9.8391,4.7273,0.1,0.00034148,3412.4,0.00034166,3417.7,-0.0001118,10.581,-0.00011321,-0.0051101,0.49743
27736,9.7471,5,0.1,0.00034439,3441.5,0.00034453,3445.6,-0.00011297,8.1395,-0.00011405,-0.0052293,0.48777
27737,9.8391,4.9091,0.1,0.00034172,3414.9,0.00034186,3418.9,-0.0001121,8.0566,-0.00011317,-0.0052811,0.4967
27738,9.7471,5.1818,0.1,0.00034468,3444.4,0.00034477,3447,-0.0001133,5.2602,-0.000114,-0.005463,0.48692
27739,9.8391,5.0909,0.1,0.00034198,3417.5,0.00034208,3420.2,-0.0001124,5.4255,-0.00011312,-0.0054157,0.49589
27740,9.7471,5.3636,0.1,0.00034498,3447.4,0.00034502,3448.6,-0.00011365,2.2855,-0.00011396,-0.0053844,0.486
27741,9.8391,5.2727,0.1,0.00034226,3420.2,0.00034231,3421.6,-0.00011272,2.7096,-0.00011308,-0.006058,0.49501
27742,9.7471,5.5455,0.1,0.0003453,3450.6,0.00034529,3450.2,-0.00011391,-0.0056297,-0.00011402,-0.79839,0.485
27743,9.8391,5.4545,0.1,0.00034255,3423.1,0.00034255,3423.1,-0.00011303,0.020962,-0.00011305,-0.10342,0.49406
27744,9.7471,5.7273,0.1,0.0003457,3454.7,0.00034563,3452.4,-0.00011386,-0.00011207,-0.00011445,-4.4239,0.48393
27745,9.8391,5.6364,0.1,0.00034286,3426.2,0.00034281,3424.7,-0.000113,-0.0076343,-0.00011339,-2.9799,0.49303
27746,9.8391,5.8182,0.1,0.00034332,3430.9,0.00034321,3427.4,-0.00011295,0.0073822,-0.00011387,-6.8876,0.49193
27747,9.7471,5.9091,0.1,0.00034563,3453.9,0.00034555,3451.5,-0.00011382,0.0022233,-0.00011445,-4.7305,0.48279
27748,9.931,0.27273,0.1,0.00034046,3402.3,0.00034037,3399.6,-0.00011209,-0.00028659,-0.0001128,-5.3673,0.5011
27749,10.023,0.18182,0.1,0.00033807,3378.4,0.00033794,3374.6,-0.00011119,0.005121,-0.0001122,-7.5678,0.50922
27750,9.931,0.090909,0.1,0.00034034,3401,0.00034025,3398.5,-0.00011206,0.001198,-0.00011274,-5.1298,0.49997
27751,9.931,0.45455,0.1,0.0003401,3398.7,0.00034006,3397.6,-0.00011212,-0.0039137,-0.00011242,-2.2405,0.50216
27752,10.023,0.36364,0.1,0.00033765,3374.1,0.00033758,3372,-0.00011122,-0.0048472,-0.00011177,-4.16,0.51031
27753,9.931,0.63636,0.1,0.00033982,3395.9,0.00033983,3396.1,-0.00011211,0.37431,-0.00011216,-0.015188,0.50315
27754,10.023,0.54545,0.1,0.00033738,3371.5,0.00033735,3370.6,-0.00011125,-0.00044481,-0.00011148,-1.7519,0.51133
27755,9.931,0.81818,0.1,0.00033956,3393.3,0.00033961,3394.7,-0.00011181,2.892,-0.0001122,-0.0061928,0.50406
27756,10.023,0.72727,0.1,0.00033713,3369,0.00033714,3369.3,-0.0001112,0.58788,-0.00011128,-0.013713,0.51227
27757,9.931,1,0.1,0.00033931,3390.8,0.00033941,3393.5,-0.00011153,5.3587,-0.00011224,-0.0055409,0.5049
27758,10.023,0.90909,0.1,0.0003369,3366.6,0.00033695,3368.1,-0.00011094,2.8729,-0.00011132,-0.0063753,0.51314
27759,9.931,1.1818,0.1,0.00033908,3388.4,0.00033921,3392.3,-0.00011125,7.749,-0.00011228,-0.0053214,0.50566
27760,10.023,1.0909,0.1,0.00033667,3364.4,0.00033676,3367,-0.00011067,5.1184,-0.00011136,-0.0056799,0.51394
27761,9.931,1.3636,0.1,0.00033886,3386.2,0.00033903,3391.2,-0.00011098,10.04,-0.00011232,-0.00514,0.50635
27762,10.023,1.2727,0.1,0.00033646,3362.3,0.00033658,3365.9,-0.00011042,7.2983,-0.00011139,-0.0053894,0.51466
27763,9.931,1.5455,0.1,0.00033865,3384.2,0.00033886,3390.3,-0.00011073,12.204,-0.00011236,-0.0049603,0.50697
27764,10.023,1.4545,0.1,0.00033626,3360.3,0.00033642,3365,-0.00011018,9.3874,-0.00011143,-0.0051931,0.51531
27765,9.931,1.7273,0.1,0.00033846,3382.3,0.0003387,3389.4,-0.0001105,14.213,-0.0001124,-0.0047665,0.50752
27766,10.023,1.6364,0.1,0.00033608,3358.4,0.00033627,3364.1,-0.00010996,11.357,-0.00011147,-0.0050026,0.51589
27767,9.931,1.9091,0.1,0.00033829,3380.6,0.00033856,3388.6,-0.0001103,16.034,-0.00011243,-0.004565,0.50799
27768,10.023,1.8182,0.1,0.00033591,3356.8,0.00033613,3363.3,-0.00010975,13.175,-0.0001115,-0.0048064,0.51639
27769,9.931,2.0909,0.1,0.00033814,3379.1,0.00033844,3387.9,-0.00011011,17.639,-0.00011246,-0.0043641,0.50839
27770,10.023,2,0.1,0.00033576,3355.3,0.00033601,3362.6,-0.00010956,14.809,-0.00011153,-0.0046064,0.51683
27771,9.931,2.2727,0.1,0.00033802,3377.9,0.00033834,3387.3,-0.00010996,18.997,-0.00011249,-0.0041768,0.50871
27772,10.023,2.1818,0.1,0.00033563,3354,0.0003359,3362.1,-0.0001094,16.229,-0.00011156,-0.0044106,0.51719
27773,9.931,2.4545,0.1,0.00033792,3376.9,0.00033826,3386.9,-0.00010983,20.083,-0.00011251,-0.0040167,0.50897
27774,10.023,2.3636,0.1,0.00033552,3352.9,0.00033582,3361.6,-0.00010927,17.404,-0.00011158,-0.0042341,0.51748
27775,9.931,2.6364,0.1,0.00033785,3376.2,0.0003382,3386.6,-0.00010974,20.875,-0.00011252,-0.0038936,0.50915
27776,10.023,2.5455,0.1,0.00033544,3352.1,0.00033575,3361.2,-0.00010916,18.309,-0.0001116,-0.00409,0.51769
27777,9.931,2.8182,0.1,0.00033781,3375.7,0.00033816,3386.4,-0.00010969,21.357,-0.00011253,-0.0038154,0.50926
27778,10.023,2.7273,0.1,0.00033539,3351.6,0.00033571,3361,-0.0001091,18.925,-0.00011161,-0.0039864,0.51784
27779,9.931,3,0.1,0.00033779,3375.6,0.00033815,3386.3,-0.00010967,21.519,-0.00011254,-0.0037887,0.5093
27780,10.023,2.9091,0.1,0.00033536,3351.3,0.00033568,3360.9,-0.00010906,19.236,-0.00011162,-0.0039322,0.51791
27781,9.931,3.1818,0.1,0.00033781,3375.7,0.00033816,3386.4,-0.00010969,21.357,-0.00011253,-0.0038155,0.50926
27782,10.023,3.0909,0.1,0.00033536,3351.3,0.00033568,3360.9,-0.00010906,19.236,-0.00011162,-0.0039323,0.51791
27783,9.931,3.3636,0.1,0.00033785,3376.2,0.0003382,3386.6,-0.00010974,20.875,-0.00011252,-0.0038935,0.50915
27784,10.023,3.2727,0.1,0.00033539,3351.6,0.00033571,3361,-0.0001091,18.925,-0.00011161,-0.0039865,0.51784
27785,9.931,3.5455,0.1,0.00033792,3376.9,0.00033826,3386.9,-0.00010983,20.083,-0.00011251,-0.0040165,0.50897
27786,10.023,3.4545,0.1,0.00033544,3352.1,0.00033575,3361.2,-0.00010916,18.309,-0.0001116,-0.0040898,0.51769
27787,9.931,3.7273,0.1,0.00033802,3377.9,0.00033834,3387.3,-0.00010996,18.997,-0.00011249,-0.0041767,0.50871
27788,10.023,3.6364,0.1,0.00033552,3352.9,0.00033582,3361.6,-0.00010927,17.404,-0.00011158,-0.004234,0.51748
27789,9.931,3.9091,0.1,0.00033814,3379.1,0.00033844,3387.9,-0.00011011,17.639,-0.00011246,-0.0043638,0.50839
27790,10.023,3.8182,0.1,0.00033563,3354,0.0003359,3362.1,-0.0001094,16.229,-0.00011156,-0.0044104,0.51719
27791,9.931,4.0909,0.1,0.00033829,3380.6,0.00033856,3388.6,-0.0001103,16.034,-0.00011243,-0.0045644,0.50799
27792,10.023,4,0.1,0.00033576,3355.3,0.00033601,3362.6,-0.00010956,14.809,-0.00011153,-0.0046058,0.51683
27793,9.931,4.2727,0.1,0.00033846,3382.3,0.0003387,3389.4,-0.0001105,14.213,-0.0001124,-0.0047659,0.50752
27794,10.023,4.1818,0.1,0.00033591,3356.8,0.00033613,3363.3,-0.00010975,13.175,-0.0001115,-0.0048059,0.51639
27795,9.931,4.4545,0.1,0.00033865,3384.2,0.00033886,3390.3,-0.00011073,12.204,-0.00011236,-0.0049595,0.50697
27796,10.023,4.3636,0.1,0.00033608,3358.4,0.00033627,3364.1,-0.00010996,11.357,-0.00011147,-0.0050018,0.51589
27797,9.931,4.6364,0.1,0.00033886,3386.2,0.00033903,3391.2,-0.00011098,10.04,-0.00011232,-0.0051391,0.50635
27798,10.023,4.5455,0.1,0.00033626,3360.3,0.00033642,3365,-0.00011018,9.3874,-0.00011143,-0.0051925,0.51531
27799,9.931,4.8182,0.1,0.00033908,3388.4,0.00033921,3392.3,-0.00011125,7.749,-0.00011228,-0.0053209,0.50566
27800,10.023,4.7273,0.1,0.00033646,3362.3,0.00033658,3365.9,-0.00011042,7.2983,-0.00011139,-0.0053888,0.51466
27801,9.931,5,0.1,0.00033931,3390.8,0.00033941,3393.5,-0.00011153,5.3586,-0.00011224,-0.0055401,0.5049
27802,10.023,4.9091,0.1,0.00033667,3364.4,0.00033676,3367,-0.00011067,5.1183,-0.00011136,-0.0056793,0.51394
27803,9.931,5.1818,0.1,0.00033956,3393.3,0.00033961,3394.7,-0.00011181,2.892,-0.0001122,-0.0061916,0.50406
27804,10.023,5.0909,0.1,0.0003369,3366.6,0.00033695,3368.1,-0.00011094,2.8729,-0.00011132,-0.006374,0.51314
27805,9.931,5.3636,0.1,0.00033982,3395.9,0.00033983,3396.1,-0.00011211,0.3743,-0.00011216,-0.015187,0.50315
27806,10.023,5.2727,0.1,0.00033713,3369,0.00033714,3369.3,-0.0001112,0.58787,-0.00011128,-0.013712,0.51227
27807,9.931,5.5455,0.1,0.0003401,3398.7,0.00034006,3397.6,-0.00011212,-0.0039131,-0.00011242,-2.2405,0.50216
27808,10.023,5.4545,0.1,0.00033738,3371.5,0.00033735,3370.6,-0.00011125,-0.0004443,-0.00011148,-1.7519,0.51133
27809,9.931,5.7273,0.1,0.00034046,3402.3,0.00034037,3399.6,-0.00011209,-0.00028561,-0.0001128,-5.3673,0.5011
27810,10.023,5.6364,0.1,0.00033765,3374.1,0.00033758,3372,-0.00011122,-0.0048463,-0.00011177,-4.16,0.51031
27811,10.023,5.8182,0.1,0.00033807,3378.4,0.00033794,3374.6,-0.00011119,0.005122,-0.0001122,-7.5678,0.50922
27812,9.931,5.9091,0.1,0.00034034,3401,0.00034025,3398.5,-0.00011206,0.0011989,-0.00011274,-5.1298,0.49997
27813,10.115,0.27273,0.1,0.00033524,3350.1,0.00033513,3346.9,-0.00011032,0.00026597,-0.00011115,-6.2824,0.5185
27814,10.207,0.18182,0.1,0.00033283,3326,0.00033269,3321.9,-0.00010943,0.0035299,-0.00011052,-8.223,0.52674
27815,10.115,0.090909,0.1,0.00033506,3348.3,0.00033497,3345.6,-0.0001103,0.00058269,-0.00011103,-5.5119,0.51739
27816,10.115,0.45455,0.1,0.00033492,3346.9,0.00033486,3345.1,-0.00011034,-0.0021781,-0.00011083,-3.6485,0.51955
27817,10.207,0.36364,0.1,0.00033245,3322.2,0.00033236,3319.5,-0.00010944,-0.0019968,-0.00011015,-5.3153,0.52782
27818,10.115,0.63636,0.1,0.00033468,3344.5,0.00033466,3343.8,-0.00011037,0.00086152,-0.00011057,-1.5196,0.52052
27819,10.207,0.54545,0.1,0.00033222,3320,0.00033217,3318.3,-0.00010947,-0.00050783,-0.00010992,-3.3921,0.52882
27820,10.115,0.81818,0.1,0.00033446,3342.3,0.00033447,3342.6,-0.00011032,0.58748,-0.0001104,-0.015257,0.52142
27821,10.207,0.72727,0.1,0.00033202,3317.9,0.00033199,3317.2,-0.00010949,0.0012065,-0.00010969,-1.5183,0.52975
27822,10.115,1,0.1,0.00033425,3340.2,0.0003343,3341.5,-0.00011008,2.6492,-0.00011044,-0.0067327,0.52225
27823,10.207,0.90909,0.1,0.00033182,3316,0.00033183,3316.1,-0.00010947,0.3845,-0.00010952,-0.021497,0.53061
27824,10.115,1.1818,0.1,0.00033405,3338.2,0.00033413,3340.5,-0.00010985,4.6832,-0.00011047,-0.005816,0.52301
27825,10.207,1.0909,0.1,0.00033164,3314.1,0.00033167,3315.2,-0.00010925,2.2466,-0.00010955,-0.0071299,0.5314
27826,10.115,1.3636,0.1,0.00033386,3336.3,0.00033397,3339.6,-0.00010962,6.6606,-0.0001105,-0.0054686,0.52369
27827,10.207,1.2727,0.1,0.00033146,3312.3,0.00033153,3314.3,-0.00010904,4.0999,-0.00010958,-0.0059572,0.53212
27828,10.115,1.5455,0.1,0.00033368,3334.5,0.00033383,3338.8,-0.0001094,8.5539,-0.00011054,-0.0052462,0.5243
27829,10.207,1.4545,0.1,0.00033129,3310.6,0.00033139,3313.5,-0.00010883,5.9069,-0.00010962,-0.0055554,0.53276
27830,10.115,1.7273,0.1,0.00033352,3332.9,0.00033369,3338,-0.0001092,10.332,-0.00011057,-0.0050473,0.52484
27831,10.207,1.6364,0.1,0.00033113,3309,0.00033126,3312.8,-0.00010863,7.6368,-0.00010965,-0.0053111,0.53333
27832,10.115,1.9091,0.1,0.00033337,3331.4,0.00033357,3337.4,-0.00010901,11.963,-0.00011061,-0.0048498,0.52531
27833,10.207,1.8182,0.1,0.00033098,3307.6,0.00033114,3312.2,-0.00010845,9.2559,-0.00010968,-0.0051028,0.53383
27834,10.115,2.0909,0.1,0.00033324,3330.1,0.00033347,3336.8,-0.00010885,13.412,-0.00011063,-0.0046535,0.5257
27835,10.207,2,0.1,0.00033085,3306.3,0.00033104,3311.6,-0.00010828,10.729,-0.00010971,-0.0049013,0.53426
27836,10.115,2.2727,0.1,0.00033313,3329,0.00033338,3336.3,-0.00010871,14.648,-0.00011066,-0.0044677,0.52603
27837,10.207,2.1818,0.1,0.00033074,3305.1,0.00033094,3311.1,-0.00010814,12.021,-0.00010974,-0.0047045,0.53461
27838,10.115,2.4545,0.1,0.00033304,3328.1,0.00033331,3335.9,-0.0001086,15.643,-0.00011068,-0.0043067,0.52628
27839,10.207,2.3636,0.1,0.00033065,3304.2,0.00033087,3310.7,-0.00010802,13.099,-0.00010976,-0.0045248,0.5349
27840,10.115,2.6364,0.1,0.00033298,3327.5,0.00033325,3335.6,-0.00010851,16.371,-0.00011069,-0.0041817,0.52646
27841,10.207,2.5455,0.1,0.00033058,3303.5,0.00033081,3310.4,-0.00010792,13.935,-0.00010978,-0.0043763,0.53511
27842,10.115,2.8182,0.1,0.00033294,3327.1,0.00033322,3335.5,-0.00010846,16.816,-0.0001107,-0.0041019,0.52656
27843,10.207,2.7273,0.1,0.00033053,3303,0.00033077,3310.2,-0.00010786,14.506,-0.00010979,-0.0042687,0.53526
27844,10.115,3,0.1,0.00033293,3327,0.00033321,3335.4,-0.00010845,16.966,-0.00011071,-0.0040744,0.5266
27845,10.207,2.9091,0.1,0.0003305,3302.7,0.00033075,3310.1,-0.00010783,14.795,-0.0001098,-0.0042118,0.53533
27846,10.115,3.1818,0.1,0.00033294,3327.1,0.00033322,3335.5,-0.00010846,16.816,-0.0001107,-0.0041019,0.52656
27847,10.207,3.0909,0.1,0.0003305,3302.7,0.00033075,3310.1,-0.00010783,14.795,-0.0001098,-0.0042119,0.53533
27848,10.115,3.3636,0.1,0.00033298,3327.5,0.00033325,3335.6,-0.00010851,16.371,-0.00011069,-0.0041817,0.52646
27849,10.207,3.2727,0.1,0.00033053,3303,0.00033077,3310.2,-0.00010786,14.506,-0.00010979,-0.0042684,0.53526
27850,10.115,3.5455,0.1,0.00033304,3328.1,0.00033331,3335.9,-0.0001086,15.643,-0.00011068,-0.0043065,0.52628
27851,10.207,3.4545,0.1,0.00033058,3303.5,0.00033081,3310.4,-0.00010792,13.935,-0.00010978,-0.004376,0.53511
27852,10.115,3.7273,0.1,0.00033313,3329,0.00033338,3336.3,-0.00010871,14.648,-0.00011066,-0.0044675,0.52603
27853,10.207,3.6364,0.1,0.00033065,3304.2,0.00033087,3310.7,-0.00010802,13.099,-0.00010976,-0.0045247,0.5349
27854,10.115,3.9091,0.1,0.00033324,3330.1,0.00033347,3336.8,-0.00010885,13.412,-0.00011063,-0.0046531,0.5257
27855,10.207,3.8182,0.1,0.00033074,3305.1,0.00033094,3311.1,-0.00010814,12.021,-0.00010974,-0.0047043,0.53461
27856,10.115,4.0909,0.1,0.00033337,3331.4,0.00033357,3337.4,-0.00010901,11.963,-0.00011061,-0.0048493,0.52531
27857,10.207,4,0.1,0.00033085,3306.3,0.00033104,3311.6,-0.00010828,10.729,-0.00010971,-0.0049008,0.53426
27858,10.115,4.2727,0.1,0.00033352,3332.9,0.00033369,3338,-0.0001092,10.332,-0.00011057,-0.0050465,0.52484
27859,10.207,4.1818,0.1,0.00033098,3307.6,0.00033114,3312.2,-0.00010845,9.2559,-0.00010968,-0.0051025,0.53383
27860,10.115,4.4545,0.1,0.00033368,3334.5,0.00033383,3338.8,-0.0001094,8.5539,-0.00011054,-0.0052457,0.5243
27861,10.207,4.3636,0.1,0.00033113,3309,0.00033126,3312.8,-0.00010863,7.6368,-0.00010965,-0.0053105,0.53333
27862,10.115,4.6364,0.1,0.00033386,3336.3,0.00033397,3339.6,-0.00010962,6.6606,-0.0001105,-0.0054682,0.52369
27863,10.207,4.5455,0.1,0.00033129,3310.6,0.00033139,3313.5,-0.00010883,5.9069,-0.00010962,-0.0055549,0.53276
27864,10.115,4.8182,0.1,0.00033405,3338.2,0.00033413,3340.5,-0.00010985,4.6832,-0.00011047,-0.0058154,0.52301
27865,10.207,4.7273,0.1,0.00033146,3312.3,0.00033153,3314.3,-0.00010904,4.0998,-0.00010958,-0.0059568,0.53212
27866,10.115,5,0.1,0.00033425,3340.2,0.0003343,3341.5,-0.00011008,2.6492,-0.00011044,-0.0067316,0.52225
27867,10.207,4.9091,0.1,0.00033164,3314.1,0.00033167,3315.2,-0.00010925,2.2465,-0.00010955,-0.0071292,0.5314
27868,10.115,5.1818,0.1,0.00033446,3342.3,0.00033447,3342.6,-0.00011032,0.58747,-0.0001104,-0.015256,0.52142
27869,10.207,5.0909,0.1,0.00033182,3316,0.00033183,3316.1,-0.00010947,0.38448,-0.00010952,-0.021497,0.53061
27870,10.115,5.3636,0.1,0.00033468,3344.5,0.00033466,3343.8,-0.00011037,0.00086269,-0.00011057,-1.5196,0.52052
27871,10.207,5.2727,0.1,0.00033202,3317.9,0.00033199,3317.2,-0.00010949,0.0012079,-0.00010969,-1.5183,0.52975
27872,10.115,5.5455,0.1,0.00033492,3346.9,0.00033486,3345.1,-0.00011034,-0.0021773,-0.00011083,-3.6485,0.51955
27873,10.207,5.4545,0.1,0.00033222,3320,0.00033217,3318.3,-0.00010947,-0.00050689,-0.00010992,-3.3921,0.52882
27874,10.115,5.7273,0.1,0.00033524,3350.1,0.00033513,3346.9,-0.00011032,0.00026697,-0.00011115,-6.2823,0.5185
27875,10.207,5.6364,0.1,0.00033245,3322.2,0.00033236,3319.5,-0.00010944,-0.0019958,-0.00011015,-5.3153,0.52782
27876,10.207,5.8182,0.1,0.00033283,3326,0.00033269,3321.9,-0.00010943,0.0035309,-0.00011052,-8.223,0.52674
27877,10.115,5.9091,0.1,0.00033506,3348.3,0.00033497,3345.6,-0.0001103,0.00058348,-0.00011103,-5.5119,0.51739
27878,10.299,0.27273,0.1,0.00033003,3298,0.0003299,3294.4,-0.00010855,0.0012521,-0.00010951,-7.1765,0.53613
27879,10.391,0.18182,0.1,0.0003276,3273.8,0.00032745,3269.3,-0.00010767,0.0024564,-0.00010885,-8.8574,0.54449
27880,10.299,0.090909,0.1,0.0003298,3295.8,0.0003297,3292.8,-0.00010854,0.00024474,-0.00010933,-5.879,0.53503
27881,10.299,0.45455,0.1,0.00032975,3295.2,0.00032966,3292.7,-0.00010857,-0.00048109,-0.00010924,-5.0361,0.53716
27882,10.391,0.36364,0.1,0.00032726,3270.4,0.00032715,3267.1,-0.00010768,0.00090152,-0.00010854,-6.4569,0.54555
27883,10.299,0.63636,0.1,0.00032956,3293.3,0.0003295,3291.6,-0.00010859,-0.00039077,-0.00010904,-3.3716,0.53813
27884,10.391,0.54545,0.1,0.00032708,3268.6,0.000327,3266.1,-0.00010769,-0.00020038,-0.00010836,-5.0197,0.54654
27885,10.299,0.81818,0.1,0.00032938,3291.5,0.00032935,3290.7,-0.00010861,0.00075918,-0.00010884,-1.7094,0.53902
27886,10.391,0.72727,0.1,0.00032692,3267,0.00032686,3265.2,-0.00010771,-0.00078035,-0.00010818,-3.5909,0.54746
27887,10.299,1,0.1,0.00032921,3289.8,0.00032921,3289.8,-0.00010863,0.069055,-0.00010865,-0.092364,0.53983
27888,10.391,0.90909,0.1,0.00032677,3265.4,0.00032673,3264.3,-0.00010773,-0.00066089,-0.00010801,-2.1147,0.54831
27889,10.299,1.1818,0.1,0.00032904,3288.1,0.00032907,3289,-0.00010844,1.6796,-0.00010867,-0.0077762,0.54058
27890,10.391,1.0909,0.1,0.00032662,3263.9,0.00032661,3263.6,-0.00010775,0.0045162,-0.00010783,-0.60031,0.54909
27891,10.299,1.3636,0.1,0.00032888,3286.5,0.00032894,3288.2,-0.00010825,3.3613,-0.0001087,-0.0061256,0.54126
27892,10.391,1.2727,0.1,0.00032647,3262.5,0.00032649,3262.9,-0.00010765,0.95877,-0.00010778,-0.0090722,0.54979
27893,10.299,1.5455,0.1,0.00032873,3285.1,0.00032882,3287.5,-0.00010806,5.0043,-0.00010873,-0.0056392,0.54186
27894,10.391,1.4545,0.1,0.00032633,3261.1,0.00032637,3262.3,-0.00010748,2.5015,-0.00010781,-0.0062758,0.55043
27895,10.299,1.7273,0.1,0.00032859,3283.7,0.0003287,3286.9,-0.00010789,6.5746,-0.00010876,-0.0053715,0.54239
27896,10.391,1.6364,0.1,0.0003262,3259.7,0.00032627,3261.7,-0.00010731,4.014,-0.00010785,-0.005701,0.55099
27897,10.299,1.9091,0.1,0.00032846,3282.4,0.0003286,3286.4,-0.00010772,8.0359,-0.00010879,-0.0051557,0.54285
27898,10.391,1.8182,0.1,0.00032608,3258.5,0.00032617,3261.2,-0.00010715,5.4572,-0.00010788,-0.00542,0.55149
27899,10.299,2.0909,0.1,0.00032835,3281.3,0.00032851,3285.9,-0.00010757,9.3513,-0.00010882,-0.0049529,0.54324
27900,10.391,2,0.1,0.00032597,3257.4,0.00032608,3260.8,-0.000107,6.7914,-0.00010791,-0.0051996,0.55191
27901,10.299,2.2727,0.1,0.00032826,3280.3,0.00032843,3285.5,-0.00010745,10.485,-0.00010884,-0.0047618,0.54356
27902,10.391,2.1818,0.1,0.00032587,3256.4,0.000326,3260.4,-0.00010687,7.9771,-0.00010793,-0.0049939,0.55226
27903,10.299,2.4545,0.1,0.00032818,3279.5,0.00032837,3285.2,-0.00010735,11.404,-0.00010886,-0.0045942,0.54381
27904,10.391,2.3636,0.1,0.00032579,3255.6,0.00032594,3260.1,-0.00010676,8.9769,-0.00010795,-0.0048048,0.55255
27905,10.299,2.6364,0.1,0.00032812,3279,0.00032833,3285,-0.00010727,12.082,-0.00010888,-0.0044626,0.54399
27906,10.391,2.5455,0.1,0.00032572,3255,0.00032589,3259.8,-0.00010667,9.7582,-0.00010797,-0.0046461,0.55276
27907,10.299,2.8182,0.1,0.00032809,3278.6,0.0003283,3284.8,-0.00010722,12.497,-0.00010889,-0.0043776,0.54409
27908,10.391,2.7273,0.1,0.00032568,3254.6,0.00032585,3259.7,-0.00010661,10.295,-0.00010798,-0.0045299,0.5529
27909,10.299,3,0.1,0.00032808,3278.5,0.00032829,3284.8,-0.00010721,12.637,-0.00010889,-0.0043482,0.54413
27910,10.391,2.9091,0.1,0.00032566,3254.3,0.00032584,3259.6,-0.00010658,10.567,-0.00010799,-0.004468,0.55297
27911,10.299,3.1818,0.1,0.00032809,3278.6,0.0003283,3284.8,-0.00010722,12.497,-0.00010889,-0.0043774,0.54409
27912,10.391,3.0909,0.1,0.00032566,3254.3,0.00032584,3259.6,-0.00010658,10.567,-0.00010799,-0.0044684,0.55297
27913,10.299,3.3636,0.1,0.00032812,3279,0.00032833,3285,-0.00010727,12.082,-0.00010888,-0.0044621,0.54399
27914,10.391,3.2727,0.1,0.00032568,3254.6,0.00032585,3259.7,-0.00010661,10.295,-0.00010798,-0.0045296,0.5529
27915,10.299,3.5455,0.1,0.00032818,3279.5,0.00032837,3285.2,-0.00010735,11.404,-0.00010886,-0.0045939,0.54381
27916,10.391,3.4545,0.1,0.00032572,3255,0.00032589,3259.8,-0.00010667,9.7582,-0.00010797,-0.004646,0.55276
27917,10.299,3.7273,0.1,0.00032826,3280.3,0.00032843,3285.5,-0.00010745,10.485,-0.00010884,-0.0047616,0.54356
27918,10.391,3.6364,0.1,0.00032579,3255.6,0.00032594,3260.1,-0.00010676,8.9769,-0.00010795,-0.0048048,0.55255
27919,10.299,3.9091,0.1,0.00032835,3281.3,0.00032851,3285.9,-0.00010757,9.3513,-0.00010882,-0.0049526,0.54324
27920,10.391,3.8182,0.1,0.00032587,3256.4,0.000326,3260.4,-0.00010687,7.9771,-0.00010793,-0.0049934,0.55226
27921,10.299,4.0909,0.1,0.00032846,3282.4,0.0003286,3286.4,-0.00010772,8.0359,-0.00010879,-0.0051554,0.54285
27922,10.391,4,0.1,0.00032597,3257.4,0.00032608,3260.8,-0.000107,6.7914,-0.00010791,-0.0051991,0.55191
27923,10.299,4.2727,0.1,0.00032859,3283.7,0.0003287,3286.9,-0.00010789,6.5746,-0.00010876,-0.0053713,0.54239
27924,10.391,4.1818,0.1,0.00032608,3258.5,0.00032617,3261.2,-0.00010715,5.4572,-0.00010788,-0.0054195,0.55149
27925,10.299,4.4545,0.1,0.00032873,3285.1,0.00032882,3287.5,-0.00010806,5.0043,-0.00010873,-0.0056386,0.54186
27926,10.391,4.3636,0.1,0.0003262,3259.7,0.00032627,3261.7,-0.00010731,4.014,-0.00010785,-0.0057007,0.55099
27927,10.299,4.6364,0.1,0.00032888,3286.5,0.00032894,3288.2,-0.00010825,3.3613,-0.0001087,-0.006125,0.54126
27928,10.391,4.5455,0.1,0.00032633,3261.1,0.00032637,3262.3,-0.00010748,2.5015,-0.00010781,-0.0062752,0.55043
27929,10.299,4.8182,0.1,0.00032904,3288.1,0.00032907,3289,-0.00010844,1.6795,-0.00010867,-0.0077756,0.54058
27930,10.391,4.7273,0.1,0.00032647,3262.5,0.00032649,3262.9,-0.00010765,0.95875,-0.00010778,-0.0090718,0.54979
27931,10.299,5,0.1,0.00032921,3289.8,0.00032921,3289.8,-0.00010863,0.069048,-0.00010865,-0.092371,0.53983
27932,10.391,4.9091,0.1,0.00032662,3263.9,0.00032661,3263.6,-0.00010775,0.0045164,-0.00010783,-0.60033,0.54909
27933,10.299,5.1818,0.1,0.00032938,3291.5,0.00032935,3290.7,-0.00010861,0.00076024,-0.00010884,-1.7094,0.53902
27934,10.391,5.0909,0.1,0.00032677,3265.4,0.00032673,3264.3,-0.00010773,-0.00065955,-0.00010801,-2.1148,0.54831
27935,10.299,5.3636,0.1,0.00032956,3293.3,0.0003295,3291.6,-0.00010859,-0.00038965,-0.00010904,-3.3716,0.53813
27936,10.391,5.2727,0.1,0.00032692,3267,0.00032686,3265.2,-0.00010771,-0.0007793,-0.00010818,-3.591,0.54746
27937,10.299,5.5455,0.1,0.00032975,3295.2,0.00032966,3292.7,-0.00010857,-0.00048,-0.00010924,-5.0361,0.53716
27938,10.391,5.4545,0.1,0.00032708,3268.6,0.000327,3266.1,-0.00010769,-0.0001997,-0.00010836,-5.0197,0.54654
27939,10.299,5.7273,0.1,0.00033003,3298,0.0003299,3294.4,-0.00010855,0.0012531,-0.00010951,-7.1765,0.53613
27940,10.391,5.6364,0.1,0.00032726,3270.4,0.00032715,3267.1,-0.00010768,0.00090226,-0.00010854,-6.4569,0.54555
27941,10.391,5.8182,0.1,0.0003276,3273.8,0.00032745,3269.3,-0.00010767,0.0024571,-0.00010885,-8.8574,0.54449
27942,10.299,5.9091,0.1,0.0003298,3295.8,0.0003297,3292.8,-0.00010854,0.00024576,-0.00010933,-5.879,0.53503
27943,10.483,0.27273,0.1,0.00032482,3246,0.00032469,3242,-0.00010679,0.0025666,-0.00010787,-8.0574,0.55398
27944,10.575,0.18182,0.1,0.00032238,3221.6,0.00032222,3216.8,-0.00010592,0.0017717,-0.00010718,-9.4758,0.56245
27945,10.483,0.090909,0.1,0.00032455,3243.3,0.00032445,3240.2,-0.00010679,0.00013112,-0.00010762,-6.233,0.55289
27946,10.483,0.45455,0.1,0.00032459,3243.7,0.00032448,3240.5,-0.0001068,0.0012098,-0.00010765,-6.4175,0.555
27947,10.575,0.36364,0.1,0.00032209,3218.6,0.00032196,3214.8,-0.00010591,0.003824,-0.00010692,-7.5971,0.5635
27948,10.483,0.63636,0.1,0.00032444,3242.2,0.00032436,3239.6,-0.00010681,-0.00048838,-0.0001075,-5.2198,0.55595
27949,10.575,0.54545,0.1,0.00032195,3217.3,0.00032184,3214,-0.00010591,0.00011899,-0.0001068,-6.653,0.56448
27950,10.483,0.81818,0.1,0.00032431,3240.8,0.00032424,3238.8,-0.00010682,-0.0014149,-0.00010735,-3.979,0.55683
27951,10.575,0.72727,0.1,0.00032184,3216.1,0.00032174,3213.3,-0.00010592,-0.0011565,-0.00010668,-5.6718,0.56539
27952,10.483,1,0.1,0.00032417,3239.5,0.00032413,3238.2,-0.00010685,-0.0020007,-0.0001072,-2.6689,0.55764
27953,10.575,0.90909,0.1,0.00032172,3215,0.00032164,3212.7,-0.00010594,-0.0025023,-0.00010655,-4.5932,0.56623
27954,10.483,1.1818,0.1,0.00032404,3238.2,0.00032402,3237.6,-0.00010687,-0.0015309,-0.00010704,-1.3002,0.55837
27955,10.575,1.0909,0.1,0.00032161,3213.9,0.00032155,3212.2,-0.00010596,-0.0034103,-0.00010642,-3.419,0.567
27956,10.483,1.3636,0.1,0.00032392,3236.9,0.00032392,3237,-0.00010688,0.13131,-0.0001069,-0.026145,0.55904
27957,10.575,1.2727,0.1,0.0003215,3212.8,0.00032146,3211.7,-0.00010599,-0.0039542,-0.00010628,-2.1664,0.56769
27958,10.483,1.5455,0.1,0.0003238,3235.7,0.00032382,3236.5,-0.00010673,1.5262,-0.00010693,-0.0065406,0.55964
27959,10.575,1.4545,0.1,0.00032139,3211.7,0.00032138,3211.3,-0.00010602,-0.0036683,-0.00010613,-0.86332,0.56832
27960,10.483,1.7273,0.1,0.00032368,3234.6,0.00032373,3236,-0.00010657,2.911,-0.00010696,-0.0057609,0.56016
27961,10.575,1.6364,0.1,0.00032129,3210.7,0.0003213,3210.9,-0.00010599,0.45911,-0.00010605,-0.0074432,0.56888
27962,10.483,1.9091,0.1,0.00032358,3233.5,0.00032365,3235.6,-0.00010643,4.2267,-0.00010699,-0.0054624,0.56062
27963,10.575,1.8182,0.1,0.00032119,3209.7,0.00032122,3210.5,-0.00010585,1.7495,-0.00010608,-0.0058348,0.56937
27964,10.483,2.0909,0.1,0.00032348,3232.6,0.00032357,3235.3,-0.00010629,5.431,-0.00010702,-0.0052403,0.56101
27965,10.575,2,0.1,0.00032109,3208.7,0.00032115,3210.2,-0.00010571,2.9694,-0.00010611,-0.0055412,0.56979
27966,10.483,2.2727,0.1,0.0003234,3231.7,0.00032351,3235,-0.00010618,6.4827,-0.00010704,-0.0050376,0.56132
27967,10.575,2.1818,0.1,0.00032101,3207.9,0.00032108,3209.9,-0.00010559,4.072,-0.00010614,-0.0053228,0.57014
27968,10.483,2.4545,0.1,0.00032333,3231.1,0.00032345,3234.7,-0.00010608,7.3444,-0.00010706,-0.0048571,0.56157
27969,10.575,2.3636,0.1,0.00032094,3207.2,0.00032103,3209.7,-0.00010549,5.014,-0.00010616,-0.0051198,0.57041
27970,10.483,2.6364,0.1,0.00032328,3230.6,0.00032341,3234.5,-0.00010601,7.9842,-0.00010708,-0.0047132,0.56174
27971,10.575,2.5455,0.1,0.00032089,3206.7,0.00032099,3209.5,-0.00010541,5.7572,-0.00010618,-0.0049437,0.57062
27972,10.483,2.8182,0.1,0.00032325,3230.3,0.00032339,3234.4,-0.00010597,8.3782,-0.00010709,-0.0046195,0.56185
27973,10.575,2.7273,0.1,0.00032085,3206.3,0.00032096,3209.4,-0.00010536,6.2708,-0.00010619,-0.004812,0.57076
27974,10.483,3,0.1,0.00032324,3230.2,0.00032338,3234.4,-0.00010596,8.5112,-0.00010709,-0.004587,0.56188
27975,10.575,2.9091,0.1,0.00032083,3206.1,0.00032094,3209.4,-0.00010533,6.5331,-0.0001062,-0.0047412,0.57083
27976,10.483,3.1818,0.1,0.00032325,3230.3,0.00032339,3234.4,-0.00010597,8.3782,-0.00010709,-0.0046196,0.56185
27977,10.575,3.0909,0.1,0.00032083,3206.1,0.00032094,3209.4,-0.00010533,6.5331,-0.0001062,-0.0047414,0.57083
27978,10.483,3.3636,0.1,0.00032328,3230.6,0.00032341,3234.5,-0.00010601,7.9842,-0.00010708,-0.0047133,0.56174
27979,10.575,3.2727,0.1,0.00032085,3206.3,0.00032096,3209.4,-0.00010536,6.2708,-0.00010619,-0.0048119,0.57076
27980,10.483,3.5455,0.1,0.00032333,3231.1,0.00032345,3234.7,-0.00010608,7.3444,-0.00010706,-0.0048573,0.56157
27981,10.575,3.4545,0.1,0.00032089,3206.7,0.00032099,3209.5,-0.00010541,5.7572,-0.00010618,-0.0049437,0.57062
27982,10.483,3.7273,0.1,0.0003234,3231.7,0.00032351,3235,-0.00010618,6.4827,-0.00010704,-0.0050372,0.56132
27983,10.575,3.6364,0.1,0.00032094,3207.2,0.00032103,3209.7,-0.00010549,5.014,-0.00010616,-0.0051198,0.57041
27984,10.483,3.9091,0.1,0.00032348,3232.6,0.00032357,3235.3,-0.00010629,5.431,-0.00010702,-0.0052396,0.56101
27985,10.575,3.8182,0.1,0.00032101,3207.9,0.00032108,3209.9,-0.00010559,4.072,-0.00010614,-0.0053223,0.57014
27986,10.483,4.0909,0.1,0.00032358,3233.5,0.00032365,3235.6,-0.00010643,4.2267,-0.00010699,-0.0054616,0.56062
27987,10.575,4,0.1,0.00032109,3208.7,0.00032115,3210.2,-0.00010571,2.9694,-0.00010611,-0.0055406,0.56979
27988,10.483,4.2727,0.1,0.00032368,3234.6,0.00032373,3236,-0.00010657,2.911,-0.00010696,-0.0057603,0.56016
27989,10.575,4.1818,0.1,0.00032119,3209.7,0.00032122,3210.5,-0.00010585,1.7495,-0.00010608,-0.0058341,0.56937
27990,10.483,4.4545,0.1,0.0003238,3235.7,0.00032382,3236.5,-0.00010673,1.5262,-0.00010693,-0.0065403,0.55964
27991,10.575,4.3636,0.1,0.00032129,3210.7,0.0003213,3210.9,-0.00010599,0.4591,-0.00010605,-0.0074428,0.56888
27992,10.483,4.6364,0.1,0.00032392,3236.9,0.00032392,3237,-0.00010688,0.13129,-0.0001069,-0.026145,0.55904
27993,10.575,4.5455,0.1,0.00032139,3211.7,0.00032138,3211.3,-0.00010602,-0.003668,-0.00010613,-0.86333,0.56832
27994,10.483,4.8182,0.1,0.00032404,3238.2,0.00032402,3237.6,-0.00010687,-0.0015306,-0.00010704,-1.3002,0.55837
27995,10.575,4.7273,0.1,0.0003215,3212.8,0.00032146,3211.7,-0.00010599,-0.0039538,-0.00010628,-2.1664,0.56769
27996,10.483,5,0.1,0.00032417,3239.5,0.00032413,3238.2,-0.00010685,-0.0019995,-0.0001072,-2.6689,0.55764
27997,10.575,4.9091,0.1,0.00032161,3213.9,0.00032155,3212.2,-0.00010596,-0.0034098,-0.00010642,-3.419,0.567
27998,10.483,5.1818,0.1,0.00032431,3240.8,0.00032424,3238.8,-0.00010682,-0.0014136,-0.00010735,-3.979,0.55683
27999,10.575,5.0909,0.1,0.00032172,3215,0.00032164,3212.7,-0.00010594,-0.0025009,-0.00010655,-4.5932,0.56623
28000,10.483,5.3636,0.1,0.00032444,3242.2,0.00032436,3239.6,-0.00010681,-0.00048776,-0.0001075,-5.2198,0.55595
28001,10.575,5.2727,0.1,0.00032184,3216.1,0.00032174,3213.3,-0.00010592,-0.0011555,-0.00010668,-5.6718,0.56539
28002,10.483,5.5455,0.1,0.00032459,3243.7,0.00032448,3240.5,-0.0001068,0.0012102,-0.00010765,-6.4175,0.555
28003,10.575,5.4545,0.1,0.00032195,3217.3,0.00032184,3214,-0.00010591,0.00011937,-0.0001068,-6.653,0.56448
28004,10.483,5.7273,0.1,0.00032482,3246,0.00032469,3242,-0.00010679,0.0025671,-0.00010787,-8.0574,0.55398
28005,10.575,5.6364,0.1,0.00032209,3218.6,0.00032196,3214.8,-0.00010591,0.0038249,-0.00010692,-7.5971,0.5635
28006,10.575,5.8182,0.1,0.00032238,3221.6,0.00032222,3216.8,-0.00010592,0.0017724,-0.00010718,-9.4758,0.56245
28007,10.483,5.9091,0.1,0.00032455,3243.3,0.00032445,3240.2,-0.00010679,0.00013177,-0.00010762,-6.233,0.55289
28008,10.667,0.27273,0.1,0.00031963,3194.1,0.00031948,3189.6,-0.00010503,0.0040546,-0.00010622,-8.9343,0.57205
28009,10.759,0.18182,0.1,0.00031716,3169.4,0.00031699,3164.4,-0.00010416,0.0014377,-0.00010551,-10.083,0.58064
28010,10.667,0.090909,0.1,0.00031931,3190.9,0.0003192,3187.6,-0.00010505,8.4885e-05,-0.00010592,-6.5767,0.57097
28011,10.667,0.45455,0.1,0.00031944,3192.2,0.00031931,3188.3,-0.00010503,0.0028054,-0.00010607,-7.8092,0.57306
28012,10.759,0.36364,0.1,0.00031692,3167,0.00031677,3162.6,-0.00010415,0.0068064,-0.00010531,-8.7496,0.58167
28013,10.667,0.63636,0.1,0.00031934,3191.2,0.00031922,3187.7,-0.00010503,-0.00048847,-0.00010597,-7.0854,0.57399
28014,10.759,0.54545,0.1,0.00031683,3166.1,0.00031669,3162,-0.00010414,0.00038515,-0.00010525,-8.3122,0.58264
28015,10.667,0.81818,0.1,0.00031925,3190.3,0.00031914,3187.1,-0.00010504,-0.0020698,-0.00010588,-6.2678,0.57486
28016,10.759,0.72727,0.1,0.00031676,3165.4,0.00031663,3161.5,-0.00010415,-0.0013059,-0.00010518,-7.7852,0.58354
28017,10.667,1,0.1,0.00031916,3189.4,0.00031907,3186.7,-0.00010506,-0.0034682,-0.00010577,-5.3265,0.57566
28018,10.759,0.90909,0.1,0.00031669,3164.7,0.00031657,3161.2,-0.00010416,-0.003239,-0.0001051,-7.1039,0.58436
28019,10.667,1.1818,0.1,0.00031907,3188.4,0.00031899,3186.3,-0.00010508,-0.0044395,-0.00010565,-4.2702,0.57639
28020,10.759,1.0909,0.1,0.00031662,3164,0.00031652,3160.9,-0.00010418,-0.0044972,-0.00010501,-6.2676,0.58512
28021,10.667,1.3636,0.1,0.00031897,3187.5,0.00031892,3186,-0.00010511,-0.0050881,-0.00010552,-3.1218,0.57705
28022,10.759,1.2727,0.1,0.00031655,3163.3,0.00031646,3160.7,-0.0001042,-0.0053767,-0.0001049,-5.2935,0.58581
28023,10.667,1.5455,0.1,0.00031888,3186.6,0.00031885,3185.6,-0.00010514,-0.005437,-0.00010539,-1.9145,0.57764
28024,10.759,1.4545,0.1,0.00031647,3162.5,0.0003164,3160.4,-0.00010423,-0.0058844,-0.00010479,-4.2119,0.58643
28025,10.667,1.7273,0.1,0.00031879,3185.7,0.00031878,3185.4,-0.00010517,-0.0054601,-0.00010526,-0.6898,0.57816
28026,10.759,1.6364,0.1,0.0003164,3161.8,0.00031634,3160.2,-0.00010426,-0.0061044,-0.00010467,-3.0636,0.58698
28027,10.667,1.9091,0.1,0.00031871,3184.9,0.00031871,3185.1,-0.00010513,0.50651,-0.0001052,-0.0059303,0.57861
28028,10.759,1.8182,0.1,0.00031632,3161,0.00031629,3160.1,-0.00010429,-0.0061015,-0.00010454,-1.8969,0.58747
28029,10.667,2.0909,0.1,0.00031863,3184.1,0.00031865,3184.9,-0.00010501,1.6245,-0.00010523,-0.0056227,0.57899
28030,10.759,2,0.1,0.00031625,3160.3,0.00031623,3159.9,-0.00010432,-0.0059197,-0.00010442,-0.76439,0.58788
28031,10.667,2.2727,0.1,0.00031856,3183.4,0.0003186,3184.7,-0.0001049,2.6172,-0.00010525,-0.0054133,0.5793
28032,10.759,2.1818,0.1,0.00031618,3159.6,0.00031618,3159.7,-0.00010432,0.28098,-0.00010435,-0.0059546,0.58822
28033,10.667,2.4545,0.1,0.0003185,3182.8,0.00031856,3184.5,-0.00010482,3.4406,-0.00010528,-0.0052131,0.57954
28034,10.759,2.3636,0.1,0.00031612,3159,0.00031614,3159.6,-0.00010422,1.1877,-0.00010438,-0.0055587,0.5885
28035,10.667,2.6364,0.1,0.00031846,3182.4,0.00031853,3184.4,-0.00010475,4.0574,-0.00010529,-0.005045,0.57971
28036,10.759,2.5455,0.1,0.00031607,3158.6,0.00031611,3159.5,-0.00010414,1.9112,-0.0001044,-0.0053098,0.5887
28037,10.667,2.8182,0.1,0.00031843,3182.1,0.00031851,3184.3,-0.00010471,4.4394,-0.0001053,-0.0049329,0.57982
28038,10.759,2.7273,0.1,0.00031604,3158.2,0.00031608,3159.4,-0.00010409,2.4151,-0.00010441,-0.0051271,0.58884
28039,10.667,3,0.1,0.00031842,3182,0.0003185,3184.3,-0.0001047,4.5687,-0.00010531,-0.0048936,0.57985
28040,10.759,2.9091,0.1,0.00031603,3158.1,0.00031607,3159.4,-0.00010406,2.6736,-0.00010442,-0.0050296,0.58891
28041,10.667,3.1818,0.1,0.00031843,3182.1,0.00031851,3184.3,-0.00010471,4.4394,-0.0001053,-0.0049329,0.57982
28042,10.759,3.0909,0.1,0.00031603,3158.1,0.00031607,3159.4,-0.00010406,2.6736,-0.00010442,-0.0050296,0.58891
28043,10.667,3.3636,0.1,0.00031846,3182.4,0.00031853,3184.4,-0.00010475,4.0574,-0.00010529,-0.0050448,0.57971
28044,10.759,3.2727,0.1,0.00031604,3158.2,0.00031608,3159.4,-0.00010409,2.4151,-0.00010441,-0.005127,0.58884
28045,10.667,3.5455,0.1,0.0003185,3182.8,0.00031856,3184.5,-0.00010482,3.4405,-0.00010528,-0.0052128,0.57954
28046,10.759,3.4545,0.1,0.00031607,3158.6,0.00031611,3159.5,-0.00010414,1.9112,-0.0001044,-0.0053096,0.5887
28047,10.667,3.7273,0.1,0.00031856,3183.4,0.0003186,3184.7,-0.0001049,2.6171,-0.00010525,-0.0054133,0.5793
28048,10.759,3.6364,0.1,0.00031612,3159,0.00031614,3159.6,-0.00010422,1.1877,-0.00010438,-0.0055586,0.5885
28049,10.667,3.9091,0.1,0.00031863,3184.1,0.00031865,3184.9,-0.00010501,1.6245,-0.00010523,-0.0056224,0.57899
28050,10.759,3.8182,0.1,0.00031618,3159.6,0.00031618,3159.7,-0.00010432,0.28097,-0.00010435,-0.0059544,0.58822
28051,10.667,4.0909,0.1,0.00031871,3184.9,0.00031871,3185.1,-0.00010513,0.5065,-0.0001052,-0.0059297,0.57861
28052,10.759,4,0.1,0.00031625,3160.3,0.00031623,3159.9,-0.00010432,-0.0059191,-0.00010442,-0.76439,0.58788
28053,10.667,4.2727,0.1,0.00031879,3185.7,0.00031878,3185.4,-0.00010517,-0.0054597,-0.00010526,-0.68981,0.57816
28054,10.759,4.1818,0.1,0.00031632,3161,0.00031629,3160.1,-0.00010429,-0.006101,-0.00010454,-1.8969,0.58747
28055,10.667,4.4545,0.1,0.00031888,3186.6,0.00031885,3185.6,-0.00010514,-0.0054365,-0.00010539,-1.9145,0.57764
28056,10.759,4.3636,0.1,0.0003164,3161.8,0.00031634,3160.2,-0.00010426,-0.0061037,-0.00010467,-3.0636,0.58698
28057,10.667,4.6364,0.1,0.00031897,3187.5,0.00031892,3186,-0.00010511,-0.0050875,-0.00010552,-3.1218,0.57705
28058,10.759,4.5455,0.1,0.00031647,3162.5,0.0003164,3160.4,-0.00010423,-0.0058839,-0.00010479,-4.2119,0.58643
28059,10.667,4.8182,0.1,0.00031907,3188.4,0.00031899,3186.3,-0.00010508,-0.004439,-0.00010565,-4.2702,0.57639
28060,10.759,4.7273,0.1,0.00031655,3163.3,0.00031646,3160.7,-0.0001042,-0.005376,-0.0001049,-5.2935,0.58581
28061,10.667,5,0.1,0.00031916,3189.4,0.00031907,3186.7,-0.00010506,-0.0034674,-0.00010577,-5.3265,0.57566
28062,10.759,4.9091,0.1,0.00031662,3164,0.00031652,3160.9,-0.00010418,-0.0044968,-0.00010501,-6.2676,0.58512
28063,10.667,5.1818,0.1,0.00031925,3190.3,0.00031914,3187.1,-0.00010504,-0.0020687,-0.00010588,-6.2678,0.57486
28064,10.759,5.0909,0.1,0.00031669,3164.7,0.00031657,3161.2,-0.00010416,-0.0032377,-0.0001051,-7.1039,0.58436
28065,10.667,5.3636,0.1,0.00031934,3191.2,0.00031922,3187.7,-0.00010503,-0.0004877,-0.00010597,-7.0854,0.57399
28066,10.759,5.2727,0.1,0.00031676,3165.4,0.00031663,3161.5,-0.00010415,-0.0013047,-0.00010518,-7.7852,0.58354
28067,10.667,5.5455,0.1,0.00031944,3192.2,0.00031931,3188.3,-0.00010503,0.0028064,-0.00010607,-7.8092,0.57306
28068,10.759,5.4545,0.1,0.00031683,3166.1,0.00031669,3162,-0.00010414,0.0003854,-0.00010525,-8.3122,0.58264
28069,10.667,5.7273,0.1,0.00031963,3194.1,0.00031948,3189.6,-0.00010503,0.0040558,-0.00010622,-8.9343,0.57205
28070,10.759,5.6364,0.1,0.00031692,3167,0.00031677,3162.6,-0.00010415,0.0068076,-0.00010531,-8.7496,0.58167
28071,10.759,5.8182,0.1,0.00031716,3169.4,0.00031699,3164.4,-0.00010416,0.0014386,-0.00010551,-10.083,0.58064
28072,10.667,5.9091,0.1,0.00031931,3190.9,0.0003192,3187.6,-0.00010505,8.5795e-05,-0.00010592,-6.5767,0.57097
28073,10.851,0.27273,0.1,0.00031444,3142.2,0.00031427,3137.3,-0.00010328,0.0058141,-0.00010458,-9.8166,0.59033
28074,10.943,0.18182,0.1,0.00031194,3117.3,0.00031176,3111.9,-0.00010241,0.001504,-0.00010383,-10.685,0.59903
28075,10.851,0.090909,0.1,0.00031407,3138.5,0.00031395,3135,-0.0001033,0.0001776,-0.00010422,-6.9124,0.58927
28076,10.851,0.45455,0.1,0.0003143,3140.8,0.00031414,3136.2,-0.00010326,0.0044345,-0.00010449,-9.2286,0.59133
28077,10.943,0.36364,0.1,0.00031175,3115.3,0.00031158,3110.4,-0.00010238,0.009945,-0.00010371,-9.9293,0.60006
28078,10.851,0.63636,0.1,0.00031425,3140.3,0.0003141,3135.8,-0.00010326,-0.00044473,-0.00010445,-8.992,0.59225
28079,10.943,0.54545,0.1,0.00031172,3115,0.00031155,3110,-0.00010237,0.00062702,-0.0001037,-10.02,0.60101
28080,10.851,0.81818,0.1,0.0003142,3139.9,0.00031406,3135.6,-0.00010326,-0.0024492,-0.00010441,-8.6028,0.59311
28081,10.943,0.72727,0.1,0.0003117,3114.8,0.00031153,3109.8,-0.00010237,-0.0013902,-0.00010369,-9.9591,0.6019
28082,10.851,1,0.1,0.00031416,3139.4,0.00031402,3135.4,-0.00010327,-0.0041956,-0.00010434,-8.0277,0.5939
28083,10.943,0.90909,0.1,0.00031168,3114.6,0.00031151,3109.8,-0.00010237,-0.003774,-0.00010366,-9.6783,0.60271
28084,10.851,1.1818,0.1,0.0003141,3138.9,0.00031398,3135.2,-0.00010329,-0.0053167,-0.00010426,-7.2745,0.59462
28085,10.943,1.0909,0.1,0.00031165,3114.4,0.00031149,3109.8,-0.00010239,-0.0051868,-0.00010361,-9.1741,0.60346
28086,10.851,1.3636,0.1,0.00031405,3138.3,0.00031394,3135.1,-0.00010332,-0.006011,-0.00010417,-6.3681,0.59527
28087,10.943,1.2727,0.1,0.00031162,3114,0.00031147,3109.8,-0.00010241,-0.0061102,-0.00010354,-8.465,0.60414
28088,10.851,1.5455,0.1,0.00031399,3137.7,0.00031389,3135,-0.00010335,-0.0063372,-0.00010406,-5.3461,0.59585
28089,10.943,1.4545,0.1,0.00031157,3113.6,0.00031144,3109.8,-0.00010244,-0.0065672,-0.00010345,-7.5852,0.60476
28090,10.851,1.7273,0.1,0.00031392,3137.1,0.00031385,3134.9,-0.00010338,-0.0063864,-0.00010395,-4.2563,0.59636
28091,10.943,1.6364,0.1,0.00031153,3113.1,0.00031141,3109.8,-0.00010248,-0.006684,-0.00010335,-6.582,0.6053
28092,10.851,1.9091,0.1,0.00031386,3136.4,0.0003138,3134.8,-0.00010342,-0.0062356,-0.00010384,-3.1532,0.59681
28093,10.943,1.8182,0.1,0.00031147,3112.6,0.00031138,3109.8,-0.00010251,-0.006557,-0.00010325,-5.5121,0.60578
28094,10.851,2.0909,0.1,0.0003138,3135.8,0.00031376,3134.7,-0.00010345,-0.0059522,-0.00010373,-2.0939,0.59718
28095,10.943,2,0.1,0.00031142,3112.1,0.00031135,3109.8,-0.00010255,-0.0062793,-0.00010314,-4.4374,0.60618
28096,10.851,2.2727,0.1,0.00031374,3135.2,0.00031372,3134.7,-0.00010348,-0.0055744,-0.00010363,-1.1349,0.59749
28097,10.943,2.1818,0.1,0.00031137,3111.6,0.00031131,3109.8,-0.00010258,-0.0059352,-0.00010304,-3.4211,0.60652
28098,10.851,2.4545,0.1,0.00031369,3134.8,0.00031369,3134.6,-0.0001035,-0.0048982,-0.00010355,-0.32834,0.59773
28099,10.943,2.3636,0.1,0.00031132,3111.1,0.00031128,3109.8,-0.00010261,-0.005606,-0.00010295,-2.5237,0.6068
28100,10.851,2.6364,0.1,0.00031366,3134.4,0.00031366,3134.5,-0.00010348,0.28329,-0.00010352,-0.005755,0.5979
28101,10.943,2.5455,0.1,0.00031129,3110.7,0.00031126,3109.8,-0.00010264,-0.0053643,-0.00010287,-1.7987,0.607
28102,10.851,2.8182,0.1,0.00031364,3134.2,0.00031365,3134.5,-0.00010344,0.66337,-0.00010353,-0.0052573,0.59801
28103,10.943,2.7273,0.1,0.00031126,3110.4,0.00031124,3109.8,-0.00010265,-0.0052557,-0.00010282,-1.2896,0.60714
28104,10.851,3,0.1,0.00031363,3134.1,0.00031364,3134.5,-0.00010343,0.79253,-0.00010354,-0.0051588,0.59804
28105,10.943,2.9091,0.1,0.00031125,3110.3,0.00031123,3109.8,-0.00010266,-0.0052551,-0.0001028,-1.0271,0.6072
28106,10.851,3.1818,0.1,0.00031364,3134.2,0.00031365,3134.5,-0.00010344,0.66337,-0.00010353,-0.0052572,0.59801
28107,10.943,3.0909,0.1,0.00031125,3110.3,0.00031123,3109.8,-0.00010266,-0.0052552,-0.0001028,-1.0271,0.6072
28108,10.851,3.3636,0.1,0.00031366,3134.4,0.00031366,3134.5,-0.00010348,0.28329,-0.00010352,-0.0057549,0.5979
28109,10.943,3.2727,0.1,0.00031126,3110.4,0.00031124,3109.8,-0.00010265,-0.0052556,-0.00010282,-1.2896,0.60714
28110,10.851,3.5455,0.1,0.00031369,3134.8,0.00031369,3134.6,-0.0001035,-0.0048981,-0.00010355,-0.32834,0.59773
28111,10.943,3.4545,0.1,0.00031129,3110.7,0.00031126,3109.8,-0.00010264,-0.0053641,-0.00010287,-1.7987,0.607
28112,10.851,3.7273,0.1,0.00031374,3135.2,0.00031372,3134.7,-0.00010348,-0.0055741,-0.00010363,-1.1349,0.59749
28113,10.943,3.6364,0.1,0.00031132,3111.1,0.00031128,3109.8,-0.00010261,-0.005606,-0.00010295,-2.5237,0.6068
28114,10.851,3.9091,0.1,0.0003138,3135.8,0.00031376,3134.7,-0.00010345,-0.0059517,-0.00010373,-2.0939,0.59718
28115,10.943,3.8182,0.1,0.00031137,3111.6,0.00031131,3109.8,-0.00010258,-0.0059349,-0.00010304,-3.4211,0.60652
28116,10.851,4.0909,0.1,0.00031386,3136.4,0.0003138,3134.8,-0.00010342,-0.0062352,-0.00010384,-3.1532,0.59681
28117,10.943,4,0.1,0.00031142,3112.1,0.00031135,3109.8,-0.00010255,-0.0062789,-0.00010314,-4.4374,0.60618
28118,10.851,4.2727,0.1,0.00031392,3137.1,0.00031385,3134.9,-0.00010338,-0.0063857,-0.00010395,-4.2564,0.59636
28119,10.943,4.1818,0.1,0.00031147,3112.6,0.00031138,3109.8,-0.00010251,-0.0065566,-0.00010325,-5.5121,0.60578
28120,10.851,4.4545,0.1,0.00031399,3137.7,0.00031389,3135,-0.00010335,-0.0063366,-0.00010406,-5.3461,0.59585
28121,10.943,4.3636,0.1,0.00031153,3113.1,0.00031141,3109.8,-0.00010248,-0.0066835,-0.00010335,-6.5821,0.6053
28122,10.851,4.6364,0.1,0.00031405,3138.3,0.00031394,3135.1,-0.00010332,-0.0060105,-0.00010417,-6.3681,0.59527
28123,10.943,4.5455,0.1,0.00031157,3113.6,0.00031144,3109.8,-0.00010244,-0.0065666,-0.00010345,-7.5852,0.60476
28124,10.851,4.8182,0.1,0.0003141,3138.9,0.00031398,3135.2,-0.00010329,-0.0053162,-0.00010426,-7.2745,0.59462
28125,10.943,4.7273,0.1,0.00031162,3114,0.00031147,3109.8,-0.00010241,-0.0061096,-0.00010354,-8.465,0.60414
28126,10.851,5,0.1,0.00031416,3139.4,0.00031402,3135.4,-0.00010327,-0.0041947,-0.00010434,-8.0277,0.5939
28127,10.943,4.9091,0.1,0.00031165,3114.4,0.00031149,3109.8,-0.00010239,-0.0051865,-0.00010361,-9.1742,0.60346
28128,10.851,5.1818,0.1,0.0003142,3139.9,0.00031406,3135.6,-0.00010326,-0.0024477,-0.00010441,-8.6028,0.59311
28129,10.943,5.0909,0.1,0.00031168,3114.6,0.00031151,3109.8,-0.00010237,-0.0037726,-0.00010366,-9.6783,0.60271
28130,10.851,5.3636,0.1,0.00031425,3140.3,0.0003141,3135.8,-0.00010326,-0.00044404,-0.00010445,-8.992,0.59225
28131,10.943,5.2727,0.1,0.0003117,3114.8,0.00031153,3109.8,-0.00010237,-0.0013892,-0.00010369,-9.9591,0.6019
28132,10.851,5.5455,0.1,0.0003143,3140.8,0.00031414,3136.2,-0.00010326,0.004435,-0.00010449,-9.2286,0.59133
28133,10.943,5.4545,0.1,0.00031172,3115,0.00031155,3110,-0.00010237,0.0006272,-0.0001037,-10.02,0.60101
28134,10.851,5.7273,0.1,0.00031444,3142.2,0.00031427,3137.3,-0.00010328,0.0058151,-0.00010458,-9.8166,0.59033
28135,10.943,5.6364,0.1,0.00031175,3115.3,0.00031158,3110.4,-0.00010238,0.0099461,-0.00010371,-9.9293,0.60006
28136,10.943,5.8182,0.1,0.00031194,3117.3,0.00031176,3111.9,-0.00010241,0.0015051,-0.00010383,-10.685,0.59903
28137,10.851,5.9091,0.1,0.00031407,3138.5,0.00031395,3135,-0.0001033,0.00017782,-0.00010422,-6.9123,0.58927
28138,11.034,0.27273,0.1,0.00030924,3090.3,0.00030906,3084.9,-0.00010152,0.0078592,-0.00010295,-10.715,0.60883
28139,11.126,0.18182,0.1,0.00030671,3065,0.00030652,3059.4,-0.00010066,0.0019613,-0.00010216,-11.288,0.61764
28140,11.034,0.090909,0.1,0.00030882,3086.1,0.0003087,3082.5,-0.00010155,0.00038273,-0.00010252,-7.2428,0.60778
28141,11.034,0.45455,0.1,0.00030916,3089.5,0.00030898,3084.1,-0.00010149,0.0061153,-0.00010292,-10.696,0.60981
28142,11.126,0.36364,0.1,0.00030658,3063.7,0.00030639,3058.1,-0.00010062,0.01325,-0.0001021,-11.153,0.61865
28143,11.034,0.63636,0.1,0.00030916,3089.5,0.00030898,3084,-0.00010148,-0.00041238,-0.00010294,-10.966,0.61072
28144,11.126,0.54545,0.1,0.00030661,3064,0.00030641,3058,-0.0001006,0.00079109,-0.00010217,-11.801,0.61959
28145,11.034,0.81818,0.1,0.00030917,3089.6,0.00030898,3084,-0.00010148,-0.0027716,-0.00010295,-11.016,0.61157
28146,11.126,0.72727,0.1,0.00030664,3064.3,0.00030643,3058.2,-0.00010059,-0.0015176,-0.00010221,-12.225,0.62046
28147,11.034,1,0.1,0.00030917,3089.6,0.00030898,3084.1,-0.00010149,-0.0047902,-0.00010293,-10.807,0.61235
28148,11.126,0.90909,0.1,0.00030667,3064.6,0.00030646,3058.4,-0.00010059,-0.0043199,-0.00010223,-12.352,0.62127
28149,11.034,1.1818,0.1,0.00030916,3089.5,0.00030898,3084.3,-0.00010151,-0.0059859,-0.00010289,-10.348,0.61306
28150,11.126,1.0909,0.1,0.0003067,3064.8,0.00030649,3058.7,-0.00010061,-0.0058499,-0.00010223,-12.177,0.62201
28151,11.034,1.3636,0.1,0.00030914,3089.3,0.00030898,3084.4,-0.00010154,-0.006664,-0.00010282,-9.6663,0.6137
28152,11.126,1.2727,0.1,0.0003067,3064.9,0.0003065,3059,-0.00010063,-0.0067943,-0.00010219,-11.719,0.62268
28153,11.034,1.5455,0.1,0.00030911,3089,0.00030896,3084.6,-0.00010157,-0.006913,-0.00010274,-8.8059,0.61427
28154,11.126,1.4545,0.1,0.0003067,3064.9,0.00030651,3059.3,-0.00010066,-0.0071948,-0.00010213,-11.02,0.62329
28155,11.034,1.7273,0.1,0.00030908,3088.6,0.00030894,3084.7,-0.00010161,-0.0068617,-0.00010265,-7.8229,0.61478
28156,11.126,1.6364,0.1,0.00030668,3064.7,0.00030651,3059.6,-0.0001007,-0.0072227,-0.00010205,-10.134,0.62383
28157,11.034,1.9091,0.1,0.00030904,3088.2,0.00030892,3084.8,-0.00010165,-0.0066179,-0.00010255,-6.7817,0.61522
28158,11.126,1.8182,0.1,0.00030666,3064.5,0.0003065,3059.9,-0.00010075,-0.0070019,-0.00010196,-9.1284,0.6243
28159,11.034,2.0909,0.1,0.00030899,3087.8,0.00030889,3084.9,-0.00010168,-0.0062795,-0.00010245,-5.7502,0.61559
28160,11.126,2,0.1,0.00030663,3064.1,0.00030649,3060.1,-0.00010079,-0.0066486,-0.00010186,-8.0779,0.6247
28161,11.034,2.2727,0.1,0.00030895,3087.4,0.00030887,3085,-0.00010172,-0.0059347,-0.00010235,-4.7956,0.6159
28162,11.126,2.1818,0.1,0.00030659,3063.8,0.00030647,3060.3,-0.00010083,-0.0062623,-0.00010176,-7.0578,0.62504
28163,11.034,2.4545,0.1,0.00030892,3087,0.00030885,3085,-0.00010175,-0.0056546,-0.00010227,-3.9802,0.61613
28164,11.126,2.3636,0.1,0.00030656,3063.5,0.00030645,3060.4,-0.00010086,-0.0059248,-0.00010168,-6.1403,0.6253
28165,11.034,2.6364,0.1,0.00030889,3086.7,0.00030883,3085.1,-0.00010177,-0.0054779,-0.00010221,-3.3567,0.6163
28166,11.126,2.5455,0.1,0.00030653,3063.2,0.00030644,3060.5,-0.00010089,-0.0056866,-0.0001016,-5.3898,0.62551
28167,11.034,2.8182,0.1,0.00030887,3086.6,0.00030882,3085.1,-0.00010178,-0.0053999,-0.00010217,-2.9657,0.6164
28168,11.126,2.7273,0.1,0.00030651,3063,0.00030643,3060.5,-0.00010091,-0.0055553,-0.00010155,-4.8585,0.62564
28169,11.034,3,0.1,0.00030886,3086.5,0.00030881,3085.1,-0.00010178,-0.0053821,-0.00010216,-2.8325,0.61644
28170,11.126,2.9091,0.1,0.0003065,3062.9,0.00030642,3060.6,-0.00010092,-0.0055057,-0.00010153,-4.5833,0.62571
28171,11.034,3.1818,0.1,0.00030887,3086.6,0.00030882,3085.1,-0.00010178,-0.0054,-0.00010217,-2.9657,0.6164
28172,11.126,3.0909,0.1,0.0003065,3062.9,0.00030642,3060.6,-0.00010092,-0.0055056,-0.00010153,-4.5833,0.62571
28173,11.034,3.3636,0.1,0.00030889,3086.7,0.00030883,3085.1,-0.00010177,-0.0054778,-0.00010221,-3.3567,0.6163
28174,11.126,3.2727,0.1,0.00030651,3063,0.00030643,3060.5,-0.00010091,-0.0055553,-0.00010155,-4.8585,0.62564
28175,11.034,3.5455,0.1,0.00030892,3087,0.00030885,3085,-0.00010175,-0.0056545,-0.00010227,-3.9802,0.61613
28176,11.126,3.4545,0.1,0.00030653,3063.2,0.00030644,3060.5,-0.00010089,-0.0056866,-0.0001016,-5.3898,0.62551
28177,11.034,3.7273,0.1,0.00030895,3087.4,0.00030887,3085,-0.00010172,-0.0059347,-0.00010235,-4.7956,0.6159
28178,11.126,3.6364,0.1,0.00030656,3063.5,0.00030645,3060.4,-0.00010086,-0.0059248,-0.00010168,-6.1403,0.6253
28179,11.034,3.9091,0.1,0.00030899,3087.8,0.00030889,3084.9,-0.00010168,-0.0062793,-0.00010245,-5.7502,0.61559
28180,11.126,3.8182,0.1,0.00030659,3063.8,0.00030647,3060.3,-0.00010083,-0.0062621,-0.00010176,-7.0578,0.62504
28181,11.034,4.0909,0.1,0.00030904,3088.2,0.00030892,3084.8,-0.00010165,-0.0066175,-0.00010255,-6.7817,0.61522
28182,11.126,4,0.1,0.00030663,3064.1,0.00030649,3060.1,-0.00010079,-0.0066483,-0.00010186,-8.0779,0.6247
28183,11.034,4.2727,0.1,0.00030908,3088.6,0.00030894,3084.7,-0.00010161,-0.0068614,-0.00010265,-7.8229,0.61478
28184,11.126,4.1818,0.1,0.00030666,3064.5,0.0003065,3059.9,-0.00010075,-0.0070016,-0.00010196,-9.1284,0.6243
28185,11.034,4.4545,0.1,0.00030911,3089,0.00030896,3084.6,-0.00010157,-0.0069125,-0.00010274,-8.8059,0.61427
28186,11.126,4.3636,0.1,0.00030668,3064.7,0.00030651,3059.6,-0.0001007,-0.0072222,-0.00010205,-10.134,0.62383
28187,11.034,4.6364,0.1,0.00030914,3089.3,0.00030898,3084.4,-0.00010154,-0.0066632,-0.00010282,-9.6664,0.6137
28188,11.126,4.5455,0.1,0.0003067,3064.9,0.00030651,3059.3,-0.00010066,-0.007194,-0.00010213,-11.02,0.62329
28189,11.034,4.8182,0.1,0.00030916,3089.5,0.00030898,3084.3,-0.00010151,-0.0059855,-0.00010289,-10.348,0.61306
28190,11.126,4.7273,0.1,0.0003067,3064.9,0.0003065,3059,-0.00010063,-0.0067937,-0.00010219,-11.719,0.62268
28191,11.034,5,0.1,0.00030917,3089.6,0.00030898,3084.1,-0.00010149,-0.0047895,-0.00010293,-10.807,0.61235
28192,11.126,4.9091,0.1,0.0003067,3064.8,0.00030649,3058.7,-0.00010061,-0.0058494,-0.00010223,-12.177,0.62201
28193,11.034,5.1818,0.1,0.00030917,3089.6,0.00030898,3084,-0.00010148,-0.0027706,-0.00010295,-11.016,0.61157
28194,11.126,5.0909,0.1,0.00030667,3064.6,0.00030646,3058.4,-0.00010059,-0.0043185,-0.00010223,-12.352,0.62127
28195,11.034,5.3636,0.1,0.00030916,3089.5,0.00030898,3084,-0.00010148,-0.00041182,-0.00010294,-10.966,0.61072
28196,11.126,5.2727,0.1,0.00030664,3064.3,0.00030643,3058.2,-0.00010059,-0.0015167,-0.00010221,-12.225,0.62046
28197,11.034,5.5455,0.1,0.00030916,3089.5,0.00030898,3084.1,-0.00010149,0.0061161,-0.00010292,-10.696,0.60981
28198,11.126,5.4545,0.1,0.00030661,3064,0.00030641,3058,-0.0001006,0.0007913,-0.00010217,-11.801,0.61959
28199,11.034,5.7273,0.1,0.00030924,3090.3,0.00030906,3084.9,-0.00010152,0.0078604,-0.00010295,-10.715,0.60883
28200,11.126,5.6364,0.1,0.00030658,3063.7,0.00030639,3058.1,-0.00010062,0.013251,-0.0001021,-11.153,0.61865
28201,11.126,5.8182,0.1,0.00030671,3065,0.00030652,3059.4,-0.00010066,0.0019621,-0.00010216,-11.288,0.61764
28202,11.034,5.9091,0.1,0.00030882,3086.1,0.0003087,3082.5,-0.00010155,0.00038304,-0.00010252,-7.2428,0.60778
28203,11.218,0.27273,0.1,0.00030404,3038.3,0.00030384,3032.5,-9.9755e-05,0.010149,-0.00010131,-11.643,0.62753
28204,11.31,0.18182,0.1,0.00030147,3012.7,0.00030127,3006.7,-9.8896e-05,0.0028564,-0.00010048,-11.9,0.63646
28205,11.218,0.090909,0.1,0.00030357,3033.6,0.00030344,3029.8,-9.9801e-05,0.00061426,-0.00010081,-7.5715,0.6265
28206,11.218,0.45455,0.1,0.00030402,3038.1,0.00030381,3032,-9.972e-05,0.0077932,-0.00010135,-12.234,0.6285
28207,11.31,0.36364,0.1,0.0003014,3012,0.00030119,3005.7,-9.8845e-05,0.016766,-0.0001005,-12.441,0.63745
28208,11.218,0.63636,0.1,0.00030408,3038.7,0.00030386,3032.2,-9.9701e-05,-0.00049598,-0.00010144,-13.039,0.6294
28209,11.31,0.54545,0.1,0.0003015,3012.9,0.00030126,3006,-9.8815e-05,0.0008529,-0.00010064,-13.685,0.63838
28210,11.218,0.81818,0.1,0.00030415,3039.4,0.00030391,3032.6,-9.9697e-05,-0.0031863,-0.0001015,-13.543,0.63024
28211,11.31,0.72727,0.1,0.00030159,3013.9,0.00030134,3006.5,-9.8801e-05,-0.0017318,-0.00010075,-14.62,0.63924
28212,11.218,1,0.1,0.0003042,3039.9,0.00030396,3033,-9.9706e-05,-0.0054561,-0.00010153,-13.704,0.63101
28213,11.31,0.90909,0.1,0.00030168,3014.7,0.00030142,3007.1,-9.8803e-05,-0.0049488,-0.00010082,-15.166,0.64004
28214,11.218,1.1818,0.1,0.00030424,3040.3,0.000304,3033.5,-9.9727e-05,-0.0067072,-0.00010153,-13.531,0.63171
28215,11.31,1.0909,0.1,0.00030176,3015.5,0.00030149,3007.8,-9.882e-05,-0.0065777,-0.00010086,-15.318,0.64077
28216,11.218,1.3636,0.1,0.00030426,3040.5,0.00030403,3033.9,-9.9759e-05,-0.0073579,-0.0001015,-13.057,0.63234
28217,11.31,1.2727,0.1,0.00030181,3016,0.00030155,3008.5,-9.885e-05,-0.0075287,-0.00010086,-15.099,0.64143
28218,11.218,1.5455,0.1,0.00030427,3040.6,0.00030405,3034.4,-9.9797e-05,-0.0075285,-0.00010144,-12.332,0.63291
28219,11.31,1.4545,0.1,0.00030185,3016.4,0.0003016,3009.1,-9.8889e-05,-0.0078613,-0.00010083,-14.556,0.64203
28220,11.218,1.7273,0.1,0.00030426,3040.5,0.00030407,3034.8,-9.984e-05,-0.0073819,-0.00010136,-11.424,0.63341
28221,11.31,1.6364,0.1,0.00030187,3016.6,0.00030163,3009.7,-9.8935e-05,-0.0077922,-0.00010076,-13.756,0.64256
28222,11.218,1.9091,0.1,0.00030425,3040.4,0.00030407,3035.1,-9.9885e-05,-0.0070477,-0.00010127,-10.41,0.63384
28223,11.31,1.8182,0.1,0.00030187,3016.6,0.00030165,3010.2,-9.8985e-05,-0.0074689,-0.00010068,-12.78,0.64303
28224,11.218,2.0909,0.1,0.00030422,3040.1,0.00030406,3035.4,-9.9929e-05,-0.006641,-0.00010118,-9.3711,0.63421
28225,11.31,2,0.1,0.00030186,3016.6,0.00030166,3010.7,-9.9035e-05,-0.0070287,-0.00010059,-11.716,0.64342
28226,11.218,2.2727,0.1,0.0003042,3039.9,0.00030405,3035.7,-9.9969e-05,-0.006255,-0.00010108,-8.388,0.63451
28227,11.31,2.1818,0.1,0.00030185,3016.4,0.00030167,3011.1,-9.9082e-05,-0.0065812,-0.0001005,-10.654,0.64375
28228,11.218,2.4545,0.1,0.00030417,3039.6,0.00030404,3035.8,-0.0001,-0.0059538,-0.00010101,-7.5354,0.63475
28229,11.31,2.3636,0.1,0.00030183,3016.2,0.00030166,3011.3,-9.9124e-05,-0.0062086,-0.00010041,-9.6825,0.64402
28230,11.218,2.6364,0.1,0.00030415,3039.4,0.00030403,3036,-0.00010003,-0.0057622,-0.00010094,-6.8771,0.63491
28231,11.31,2.5455,0.1,0.00030181,3016,0.00030166,3011.6,-9.9158e-05,-0.005954,-0.00010034,-8.8786,0.64422
28232,11.218,2.8182,0.1,0.00030414,3039.3,0.00030403,3036,-0.00010005,-0.0056683,-0.0001009,-6.4616,0.63501
28233,11.31,2.7273,0.1,0.0003018,3015.9,0.00030165,3011.7,-9.9181e-05,-0.0058129,-0.00010029,-8.3054,0.64435
28234,11.218,3,0.1,0.00030413,3039.2,0.00030402,3036,-0.00010005,-0.0056423,-0.00010089,-6.3197,0.63505
28235,11.31,2.9091,0.1,0.00030179,3015.8,0.00030165,3011.8,-9.9194e-05,-0.0057577,-0.00010026,-8.0073,0.64442
28236,11.218,3.1818,0.1,0.00030414,3039.3,0.00030403,3036,-0.00010005,-0.0056681,-0.0001009,-6.4616,0.63501
28237,11.31,3.0909,0.1,0.00030179,3015.8,0.00030165,3011.8,-9.9194e-05,-0.0057572,-0.00010026,-8.0073,0.64442
28238,11.218,3.3636,0.1,0.00030415,3039.4,0.00030403,3036,-0.00010003,-0.0057624,-0.00010094,-6.8771,0.63491
28239,11.31,3.2727,0.1,0.0003018,3015.9,0.00030165,3011.7,-9.9181e-05,-0.0058129,-0.00010029,-8.3054,0.64435
28240,11.218,3.5455,0.1,0.00030417,3039.6,0.00030404,3035.8,-0.0001,-0.0059538,-0.00010101,-7.5354,0.63475
28241,11.31,3.4545,0.1,0.00030181,3016,0.00030166,3011.6,-9.9158e-05,-0.0059537,-0.00010034,-8.8786,0.64422
28242,11.218,3.7273,0.1,0.0003042,3039.9,0.00030405,3035.7,-9.9969e-05,-0.0062548,-0.00010108,-8.388,0.63451
28243,11.31,3.6364,0.1,0.00030183,3016.2,0.00030166,3011.3,-9.9124e-05,-0.0062086,-0.00010041,-9.6825,0.64402
28244,11.218,3.9091,0.1,0.00030422,3040.1,0.00030406,3035.4,-9.9929e-05,-0.0066407,-0.00010118,-9.3711,0.63421
28245,11.31,3.8182,0.1,0.00030185,3016.4,0.00030167,3011.1,-9.9082e-05,-0.0065811,-0.0001005,-10.654,0.64375
28246,11.218,4.0909,0.1,0.00030425,3040.4,0.00030407,3035.1,-9.9885e-05,-0.0070474,-0.00010127,-10.41,0.63384
28247,11.31,4,0.1,0.00030186,3016.6,0.00030166,3010.7,-9.9035e-05,-0.0070283,-0.00010059,-11.716,0.64342
28248,11.218,4.2727,0.1,0.00030426,3040.5,0.00030407,3034.8,-9.984e-05,-0.0073815,-0.00010136,-11.424,0.63341
28249,11.31,4.1818,0.1,0.00030187,3016.6,0.00030165,3010.2,-9.8985e-05,-0.0074687,-0.00010068,-12.78,0.64303
28250,11.218,4.4545,0.1,0.00030427,3040.6,0.00030405,3034.4,-9.9797e-05,-0.0075278,-0.00010144,-12.332,0.63291
28251,11.31,4.3636,0.1,0.00030187,3016.6,0.00030163,3009.7,-9.8935e-05,-0.0077915,-0.00010076,-13.756,0.64256
28252,11.218,4.6364,0.1,0.00030426,3040.5,0.00030403,3033.9,-9.9759e-05,-0.0073574,-0.0001015,-13.057,0.63234
28253,11.31,4.5455,0.1,0.00030185,3016.4,0.0003016,3009.1,-9.8889e-05,-0.0078607,-0.00010083,-14.556,0.64203
28254,11.218,4.8182,0.1,0.00030424,3040.3,0.000304,3033.5,-9.9727e-05,-0.0067065,-0.00010153,-13.531,0.63171
28255,11.31,4.7273,0.1,0.00030181,3016,0.00030155,3008.5,-9.885e-05,-0.0075284,-0.00010086,-15.099,0.64143
28256,11.218,5,0.1,0.0003042,3039.9,0.00030396,3033,-9.9706e-05,-0.0054549,-0.00010153,-13.704,0.63101
28257,11.31,4.9091,0.1,0.00030176,3015.5,0.00030149,3007.8,-9.882e-05,-0.0065768,-0.00010086,-15.318,0.64077
28258,11.218,5.1818,0.1,0.00030415,3039.4,0.00030391,3032.6,-9.9697e-05,-0.003185,-0.0001015,-13.543,0.63024
28259,11.31,5.0909,0.1,0.00030168,3014.7,0.00030142,3007.1,-9.8803e-05,-0.0049475,-0.00010082,-15.166,0.64004
28260,11.218,5.3636,0.1,0.00030408,3038.7,0.00030386,3032.2,-9.9701e-05,-0.00049542,-0.00010144,-13.039,0.6294
28261,11.31,5.2727,0.1,0.00030159,3013.9,0.00030134,3006.5,-9.8801e-05,-0.0017308,-0.00010075,-14.62,0.63924
28262,11.218,5.5455,0.1,0.00030402,3038.1,0.00030381,3032,-9.972e-05,0.0077936,-0.00010135,-12.234,0.6285
28263,11.31,5.4545,0.1,0.0003015,3012.9,0.00030126,3006,-9.8815e-05,0.00085306,-0.00010064,-13.685,0.63838
28264,11.218,5.7273,0.1,0.00030404,3038.3,0.00030384,3032.5,-9.9755e-05,0.01015,-0.00010131,-11.643,0.62753
28265,11.31,5.6364,0.1,0.0003014,3012,0.00030119,3005.7,-9.8845e-05,0.016767,-0.0001005,-12.441,0.63745
28266,11.31,5.8182,0.1,0.00030147,3012.7,0.00030127,3006.7,-9.8896e-05,0.0028576,-0.00010048,-11.899,0.63646
28267,11.218,5.9091,0.1,0.00030357,3033.6,0.00030344,3029.8,-9.9801e-05,0.00061511,-0.00010081,-7.5715,0.6265
28268,11.402,0.27273,0.1,0.00029882,2986.2,0.00029861,2979.9,-9.7985e-05,0.012784,-9.9666e-05,-12.614,0.64644
28269,11.494,0.18182,0.1,0.00029621,2960,0.00029599,2953.8,-9.7127e-05,0.0042602,-9.8795e-05,-12.527,0.65547
28270,11.402,0.090909,0.1,0.00029829,2980.8,0.00029816,2976.9,-9.8044e-05,0.00092104,-9.9096e-05,-7.9016,0.64542
28271,11.402,0.45455,0.1,0.00029887,2986.7,0.00029864,2979.7,-9.794e-05,0.0095422,-9.9787e-05,-13.868,0.6474
28272,11.494,0.36364,0.1,0.00029621,2960.1,0.00029598,2953.2,-9.7064e-05,0.020532,-9.8905e-05,-13.815,0.65645
28273,11.402,0.63636,0.1,0.000299,2988,0.00029874,2980.3,-9.7915e-05,-0.00066084,-9.9944e-05,-15.245,0.64829
28274,11.494,0.54545,0.1,0.00029638,2961.7,0.00029611,2953.8,-9.7025e-05,0.00077746,-9.9116e-05,-15.705,0.65737
28275,11.402,0.81818,0.1,0.00029913,2989.2,0.00029885,2981.1,-9.7908e-05,-0.0036731,-0.00010007,-16.224,0.64911
28276,11.494,0.72727,0.1,0.00029654,2963.4,0.00029625,2954.8,-9.7008e-05,-0.0020733,-9.9294e-05,-17.183,0.65822
28277,11.402,1,0.1,0.00029924,2990.3,0.00029895,2981.9,-9.7918e-05,-0.0061852,-0.00010015,-16.762,0.64987
28278,11.494,0.90909,0.1,0.0002967,2964.9,0.00029639,2955.8,-9.701e-05,-0.005712,-9.9427e-05,-18.166,0.65901
28279,11.402,1.1818,0.1,0.00029933,2991.2,0.00029904,2982.8,-9.7943e-05,-0.0074739,-0.00010019,-16.869,0.65056
28280,11.494,1.0909,0.1,0.00029683,2966.3,0.00029651,2956.9,-9.703e-05,-0.0074211,-9.9511e-05,-18.646,0.65973
28281,11.402,1.3636,0.1,0.0002994,2991.9,0.00029911,2983.6,-9.798e-05,-0.0080814,-0.00010019,-16.583,0.65119
28282,11.494,1.2727,0.1,0.00029694,2967.4,0.00029662,2958,-9.7066e-05,-0.0083588,-9.9548e-05,-18.652,0.66038
28283,11.402,1.5455,0.1,0.00029945,2992.4,0.00029917,2984.4,-9.8027e-05,-0.0081576,-0.00010015,-15.966,0.65175
28284,11.494,1.4545,0.1,0.00029703,2968.2,0.00029671,2959,-9.7114e-05,-0.0086011,-9.9541e-05,-18.241,0.66097
28285,11.402,1.7273,0.1,0.00029948,2992.7,0.00029922,2985.1,-9.8079e-05,-0.0079001,-0.00010009,-15.097,0.65224
28286,11.494,1.6364,0.1,0.00029709,2968.8,0.00029678,2960,-9.7171e-05,-0.0084125,-9.9498e-05,-17.493,0.6615
28287,11.402,1.9091,0.1,0.00029949,2992.8,0.00029925,2985.8,-9.8134e-05,-0.0074619,-0.00010001,-14.071,0.65267
28288,11.494,1.8182,0.1,0.00029712,2969.2,0.00029684,2960.9,-9.7233e-05,-0.007967,-9.9428e-05,-16.504,0.66196
28289,11.402,2.0909,0.1,0.00029949,2992.8,0.00029926,2986.3,-9.8188e-05,-0.0069737,-9.9915e-05,-12.984,0.65303
28290,11.494,2,0.1,0.00029714,2969.4,0.00029688,2961.6,-9.7294e-05,-0.0074238,-9.9341e-05,-15.382,0.66235
28291,11.402,2.2727,0.1,0.00029948,2992.7,0.00029927,2986.7,-9.8237e-05,-0.0065351,-9.9824e-05,-11.934,0.65333
28292,11.494,2.1818,0.1,0.00029715,2969.4,0.0002969,2962.3,-9.7353e-05,-0.0069047,-9.9247e-05,-14.236,0.66268
28293,11.402,2.4545,0.1,0.00029947,2992.6,0.00029928,2987.1,-9.8278e-05,-0.0062087,-9.9743e-05,-11.011,0.65356
28294,11.494,2.3636,0.1,0.00029714,2969.4,0.00029692,2962.8,-9.7405e-05,-0.0064949,-9.9157e-05,-13.171,0.66294
28295,11.402,2.6364,0.1,0.00029945,2992.5,0.00029928,2987.3,-9.831e-05,-0.0060093,-9.9679e-05,-10.292,0.65373
28296,11.494,2.5455,0.1,0.00029714,2969.3,0.00029693,2963.1,-9.7446e-05,-0.0062306,-9.908e-05,-12.281,0.66314
28297,11.402,2.8182,0.1,0.00029945,2992.4,0.00029928,2987.5,-9.833e-05,-0.0059138,-9.9638e-05,-9.8364,0.65383
28298,11.494,2.7273,0.1,0.00029713,2969.2,0.00029693,2963.4,-9.7476e-05,-0.0060946,-9.9024e-05,-11.643,0.66327
28299,11.402,3,0.1,0.00029944,2992.4,0.00029928,2987.5,-9.8337e-05,-0.0058876,-9.9624e-05,-9.6802,0.65386
28300,11.494,2.9091,0.1,0.00029712,2969.2,0.00029693,2963.5,-9.7491e-05,-0.0060449,-9.8995e-05,-11.31,0.66333
28301,11.402,3.1818,0.1,0.00029945,2992.4,0.00029928,2987.5,-9.833e-05,-0.0059136,-9.9638e-05,-9.8364,0.65383
28302,11.494,3.0909,0.1,0.00029712,2969.2,0.00029693,2963.5,-9.7491e-05,-0.0060449,-9.8995e-05,-11.31,0.66333
28303,11.402,3.3636,0.1,0.00029945,2992.5,0.00029928,2987.3,-9.831e-05,-0.0060088,-9.9679e-05,-10.292,0.65373
28304,11.494,3.2727,0.1,0.00029713,2969.2,0.00029693,2963.4,-9.7476e-05,-0.0060946,-9.9024e-05,-11.643,0.66327
28305,11.402,3.5455,0.1,0.00029947,2992.6,0.00029928,2987.1,-9.8278e-05,-0.0062085,-9.9743e-05,-11.011,0.65356
28306,11.494,3.4545,0.1,0.00029714,2969.3,0.00029693,2963.1,-9.7446e-05,-0.0062302,-9.908e-05,-12.281,0.66314
28307,11.402,3.7273,0.1,0.00029948,2992.7,0.00029927,2986.7,-9.8237e-05,-0.0065353,-9.9824e-05,-11.934,0.65333
28308,11.494,3.6364,0.1,0.00029714,2969.4,0.00029692,2962.8,-9.7405e-05,-0.0064951,-9.9157e-05,-13.171,0.66294
28309,11.402,3.9091,0.1,0.00029949,2992.8,0.00029926,2986.3,-9.8188e-05,-0.0069735,-9.9915e-05,-12.984,0.65303
28310,11.494,3.8182,0.1,0.00029715,2969.4,0.0002969,2962.3,-9.7353e-05,-0.0069047,-9.9247e-05,-14.236,0.66268
28311,11.402,4.0909,0.1,0.00029949,2992.8,0.00029925,2985.8,-9.8134e-05,-0.0074614,-0.00010001,-14.071,0.65267
28312,11.494,4,0.1,0.00029714,2969.4,0.00029688,2961.6,-9.7294e-05,-0.0074233,-9.9341e-05,-15.382,0.66235
28313,11.402,4.2727,0.1,0.00029948,2992.7,0.00029922,2985.1,-9.8079e-05,-0.0078996,-0.00010009,-15.098,0.65224
28314,11.494,4.1818,0.1,0.00029712,2969.2,0.00029684,2960.9,-9.7233e-05,-0.0079663,-9.9428e-05,-16.504,0.66196
28315,11.402,4.4545,0.1,0.00029945,2992.4,0.00029917,2984.4,-9.8027e-05,-0.008157,-0.00010015,-15.966,0.65175
28316,11.494,4.3636,0.1,0.00029709,2968.8,0.00029678,2960,-9.7171e-05,-0.0084119,-9.9498e-05,-17.493,0.6615
28317,11.402,4.6364,0.1,0.0002994,2991.9,0.00029911,2983.6,-9.798e-05,-0.008081,-0.00010019,-16.583,0.65119
28318,11.494,4.5455,0.1,0.00029703,2968.2,0.00029671,2959,-9.7114e-05,-0.0086007,-9.9541e-05,-18.241,0.66097
28319,11.402,4.8182,0.1,0.00029933,2991.2,0.00029904,2982.8,-9.7943e-05,-0.0074733,-0.00010019,-16.869,0.65056
28320,11.494,4.7273,0.1,0.00029694,2967.4,0.00029662,2958,-9.7066e-05,-0.0083586,-9.9548e-05,-18.652,0.66038
28321,11.402,5,0.1,0.00029924,2990.3,0.00029895,2981.9,-9.7918e-05,-0.0061842,-0.00010015,-16.762,0.64987
28322,11.494,4.9091,0.1,0.00029683,2966.3,0.00029651,2956.9,-9.703e-05,-0.0074203,-9.9511e-05,-18.646,0.65973
28323,11.402,5.1818,0.1,0.00029913,2989.2,0.00029885,2981.1,-9.7908e-05,-0.0036721,-0.00010007,-16.224,0.64911
28324,11.494,5.0909,0.1,0.0002967,2964.9,0.00029639,2955.8,-9.701e-05,-0.0057109,-9.9427e-05,-18.166,0.65901
28325,11.402,5.3636,0.1,0.000299,2988,0.00029874,2980.3,-9.7915e-05,-0.00066028,-9.9944e-05,-15.245,0.64829
28326,11.494,5.2727,0.1,0.00029654,2963.4,0.00029625,2954.8,-9.7008e-05,-0.0020718,-9.9294e-05,-17.183,0.65822
28327,11.402,5.5455,0.1,0.00029887,2986.7,0.00029864,2979.7,-9.794e-05,0.0095426,-9.9787e-05,-13.868,0.6474
28328,11.494,5.4545,0.1,0.00029638,2961.7,0.00029611,2953.8,-9.7025e-05,0.00077735,-9.9116e-05,-15.705,0.65737
28329,11.402,5.7273,0.1,0.00029882,2986.2,0.00029861,2979.9,-9.7985e-05,0.012786,-9.9666e-05,-12.614,0.64644
28330,11.494,5.6364,0.1,0.00029621,2960.1,0.00029598,2953.2,-9.7064e-05,0.020533,-9.8905e-05,-13.815,0.65645
28331,11.494,5.8182,0.1,0.00029621,2960,0.00029599,2953.8,-9.7127e-05,0.0042616,-9.8795e-05,-12.527,0.65547
28332,11.402,5.9091,0.1,0.00029829,2980.8,0.00029816,2976.9,-9.8044e-05,0.00092186,-9.9096e-05,-7.9016,0.64542
28333,11.586,0.27273,0.1,0.00029358,2933.8,0.00029335,2927,-9.6205e-05,0.015733,-9.8023e-05,-13.644,0.66555
28334,11.678,0.18182,0.1,0.00029091,2907.1,0.00029068,2900.5,-9.5345e-05,0.0062978,-9.71e-05,-13.18,0.67469
28335,11.586,0.090909,0.1,0.00029299,2927.8,0.00029285,2923.7,-9.6277e-05,0.0012095,-9.7374e-05,-8.2376,0.66454
28336,11.586,0.45455,0.1,0.00029371,2935.1,0.00029344,2927.3,-9.6149e-05,0.011289,-9.823e-05,-15.627,0.66649
28337,11.678,0.36364,0.1,0.000291,2908,0.00029074,2900.3,-9.5268e-05,0.024616,-9.7308e-05,-15.3,0.67566
28338,11.586,0.63636,0.1,0.00029392,2937.1,0.00029361,2928.3,-9.6118e-05,-0.0010197,-9.8463e-05,-17.622,0.66737
28339,11.678,0.54545,0.1,0.00029124,2910.4,0.00029094,2901.4,-9.5223e-05,0.00054853,-9.7605e-05,-17.898,0.67656
28340,11.586,0.81818,0.1,0.00029411,2939.1,0.00029378,2929.5,-9.611e-05,-0.0043494,-9.8652e-05,-19.106,0.66819
28341,11.678,0.72727,0.1,0.00029149,2912.9,0.00029115,2902.9,-9.5202e-05,-0.0025566,-9.7858e-05,-19.961,0.6774
28342,11.586,1,0.1,0.00029429,2940.9,0.00029394,2930.8,-9.6122e-05,-0.007097,-9.8788e-05,-20.032,0.66893
28343,11.678,0.90909,0.1,0.00029172,2915.2,0.00029135,2904.4,-9.5206e-05,-0.0066364,-9.8054e-05,-21.402,0.67818
28344,11.586,1.1818,0.1,0.00029444,2942.4,0.00029409,2932.1,-9.6154e-05,-0.0084012,-9.887e-05,-20.413,0.66962
28345,11.678,1.0909,0.1,0.00029192,2917.2,0.00029154,2906,-9.5233e-05,-0.0083922,-9.8188e-05,-22.215,0.67889
28346,11.586,1.3636,0.1,0.00029457,2943.6,0.00029422,2933.4,-9.6201e-05,-0.0089391,-9.8901e-05,-20.295,0.67024
28347,11.678,1.2727,0.1,0.0002921,2918.9,0.00029171,2907.7,-9.5279e-05,-0.0092884,-9.8263e-05,-22.433,0.67954
28348,11.586,1.5455,0.1,0.00029466,2944.6,0.00029432,2934.7,-9.6259e-05,-0.008893,-9.8887e-05,-19.753,0.67079
28349,11.678,1.4545,0.1,0.00029223,2920.3,0.00029185,2909.2,-9.534e-05,-0.0094065,-9.8283e-05,-22.126,0.68012
28350,11.586,1.7273,0.1,0.00029473,2945.3,0.0002944,2935.8,-9.6325e-05,-0.0084997,-9.8837e-05,-18.885,0.67128
28351,11.678,1.6364,0.1,0.00029234,2921.4,0.00029197,2910.6,-9.5411e-05,-0.0090664,-9.8257e-05,-21.389,0.68064
28352,11.586,1.9091,0.1,0.00029477,2945.7,0.00029447,2936.8,-9.6393e-05,-0.0079371,-9.8761e-05,-17.8,0.6717
28353,11.678,1.8182,0.1,0.00029242,2922.1,0.00029206,2911.9,-9.5489e-05,-0.008472,-9.8195e-05,-20.341,0.68109
28354,11.586,2.0909,0.1,0.0002948,2946,0.00029451,2937.6,-9.646e-05,-0.0073549,-9.8671e-05,-16.619,0.67206
28355,11.678,2,0.1,0.00029247,2922.6,0.00029214,2913,-9.5566e-05,-0.0078078,-9.8109e-05,-19.11,0.68148
28356,11.586,2.2727,0.1,0.00029481,2946.1,0.00029454,2938.3,-9.6521e-05,-0.0068614,-9.8577e-05,-15.458,0.67235
28357,11.678,2.1818,0.1,0.0002925,2922.9,0.00029219,2914,-9.564e-05,-0.0072117,-9.8012e-05,-17.829,0.6818
28358,11.586,2.4545,0.1,0.00029481,2946.1,0.00029456,2938.8,-9.6573e-05,-0.0065166,-9.8492e-05,-14.426,0.67258
28359,11.678,2.3636,0.1,0.00029251,2923.1,0.00029222,2914.7,-9.5705e-05,-0.0067725,-9.7916e-05,-16.625,0.68206
28360,11.586,2.6364,0.1,0.00029481,2946.1,0.00029457,2939.2,-9.6612e-05,-0.0063238,-9.8424e-05,-13.617,0.67274
28361,11.678,2.5455,0.1,0.00029252,2923.2,0.00029225,2915.3,-9.5757e-05,-0.0065161,-9.7834e-05,-15.612,0.68225
28362,11.586,2.8182,0.1,0.00029481,2946,0.00029458,2939.4,-9.6637e-05,-0.0062427,-9.838e-05,-13.101,0.67284
28363,11.678,2.7273,0.1,0.00029252,2923.2,0.00029226,2915.7,-9.5793e-05,-0.0064062,-9.7773e-05,-14.882,0.68238
28364,11.586,3,0.1,0.0002948,2946,0.00029458,2939.5,-9.6645e-05,-0.0062233,-9.8364e-05,-12.924,0.67287
28365,11.678,2.9091,0.1,0.00029252,2923.2,0.00029227,2915.9,-9.5812e-05,-0.0063772,-9.7741e-05,-14.5,0.68245
28366,11.586,3.1818,0.1,0.00029481,2946,0.00029458,2939.4,-9.6637e-05,-0.0062429,-9.838e-05,-13.101,0.67284
28367,11.678,3.0909,0.1,0.00029252,2923.2,0.00029227,2915.9,-9.5812e-05,-0.0063776,-9.7741e-05,-14.5,0.68245
28368,11.586,3.3636,0.1,0.00029481,2946.1,0.00029457,2939.2,-9.6612e-05,-0.0063238,-9.8424e-05,-13.617,0.67274
28369,11.678,3.2727,0.1,0.00029252,2923.2,0.00029226,2915.7,-9.5793e-05,-0.0064062,-9.7773e-05,-14.882,0.68238
28370,11.586,3.5455,0.1,0.00029481,2946.1,0.00029456,2938.8,-9.6573e-05,-0.0065166,-9.8492e-05,-14.426,0.67258
28371,11.678,3.4545,0.1,0.00029252,2923.2,0.00029225,2915.3,-9.5757e-05,-0.0065159,-9.7834e-05,-15.612,0.68225
28372,11.586,3.7273,0.1,0.00029481,2946.1,0.00029454,2938.3,-9.6521e-05,-0.0068614,-9.8577e-05,-15.458,0.67235
28373,11.678,3.6364,0.1,0.00029251,2923.1,0.00029222,2914.7,-9.5705e-05,-0.0067724,-9.7916e-05,-16.625,0.68206
28374,11.586,3.9091,0.1,0.0002948,2946,0.00029451,2937.6,-9.646e-05,-0.0073546,-9.8671e-05,-16.619,0.67206
28375,11.678,3.8182,0.1,0.0002925,2922.9,0.00029219,2914,-9.564e-05,-0.0072117,-9.8012e-05,-17.829,0.6818
28376,11.586,4.0909,0.1,0.00029477,2945.7,0.00029447,2936.8,-9.6393e-05,-0.0079364,-9.8761e-05,-17.8,0.6717
28377,11.678,4,0.1,0.00029247,2922.6,0.00029214,2913,-9.5566e-05,-0.0078076,-9.8109e-05,-19.11,0.68148
28378,11.586,4.2727,0.1,0.00029473,2945.3,0.0002944,2935.8,-9.6325e-05,-0.008499,-9.8837e-05,-18.885,0.67128
28379,11.678,4.1818,0.1,0.00029242,2922.1,0.00029206,2911.9,-9.5489e-05,-0.0084715,-9.8195e-05,-20.341,0.68109
28380,11.586,4.4545,0.1,0.00029466,2944.6,0.00029432,2934.7,-9.6259e-05,-0.0088928,-9.8887e-05,-19.753,0.67079
28381,11.678,4.3636,0.1,0.00029234,2921.4,0.00029197,2910.6,-9.5411e-05,-0.0090661,-9.8257e-05,-21.389,0.68064
28382,11.586,4.6364,0.1,0.00029457,2943.6,0.00029422,2933.4,-9.6201e-05,-0.0089389,-9.8901e-05,-20.295,0.67024
28383,11.678,4.5455,0.1,0.00029223,2920.3,0.00029185,2909.2,-9.534e-05,-0.0094063,-9.8283e-05,-22.126,0.68012
28384,11.586,4.8182,0.1,0.00029444,2942.4,0.00029409,2932.1,-9.6154e-05,-0.0084007,-9.887e-05,-20.413,0.66962
28385,11.678,4.7273,0.1,0.0002921,2918.9,0.00029171,2907.7,-9.5279e-05,-0.0092876,-9.8263e-05,-22.433,0.67954
28386,11.586,5,0.1,0.00029429,2940.9,0.00029394,2930.8,-9.6122e-05,-0.0070961,-9.8788e-05,-20.032,0.66893
28387,11.678,4.9091,0.1,0.00029192,2917.2,0.00029154,2906,-9.5233e-05,-0.0083916,-9.8188e-05,-22.215,0.67889
28388,11.586,5.1818,0.1,0.00029411,2939.1,0.00029378,2929.5,-9.611e-05,-0.0043478,-9.8652e-05,-19.106,0.66819
28389,11.678,5.0909,0.1,0.00029172,2915.2,0.00029135,2904.4,-9.5206e-05,-0.0066364,-9.8054e-05,-21.402,0.67818
28390,11.586,5.3636,0.1,0.00029392,2937.1,0.00029361,2928.3,-9.6118e-05,-0.0010189,-9.8463e-05,-17.622,0.66737
28391,11.678,5.2727,0.1,0.00029149,2912.9,0.00029115,2902.9,-9.5202e-05,-0.0025551,-9.7858e-05,-19.961,0.6774
28392,11.586,5.5455,0.1,0.00029371,2935.1,0.00029344,2927.3,-9.6149e-05,0.011289,-9.823e-05,-15.627,0.66649
28393,11.678,5.4545,0.1,0.00029124,2910.4,0.00029094,2901.4,-9.5223e-05,0.0005487,-9.7605e-05,-17.898,0.67656
28394,11.586,5.7273,0.1,0.00029358,2933.8,0.00029335,2927,-9.6205e-05,0.015734,-9.8023e-05,-13.644,0.66555
28395,11.678,5.6364,0.1,0.000291,2908,0.00029074,2900.3,-9.5268e-05,0.024617,-9.7308e-05,-15.3,0.67566
28396,11.678,5.8182,0.1,0.00029091,2907.1,0.00029068,2900.5,-9.5345e-05,0.006299,-9.71e-05,-13.18,0.67469
28397,11.586,5.9091,0.1,0.00029299,2927.8,0.00029285,2923.7,-9.6277e-05,0.00121,-9.7374e-05,-8.2375,0.66454
28398,11.77,0.27273,0.1,0.00028831,2881.1,0.00028805,2873.7,-9.4408e-05,0.01916,-9.6374e-05,-14.751,0.68486
28399,11.862,0.18182,0.1,0.00028556,2853.6,0.00028532,2846.6,-9.3545e-05,0.0091782,-9.5392e-05,-13.868,0.6941
28400,11.77,0.090909,0.1,0.00028764,2874.4,0.00028749,2870.1,-9.4496e-05,0.0015797,-9.5639e-05,-8.5836,0.68386
28401,11.77,0.45455,0.1,0.00028853,2883.3,0.00028822,2874.5,-9.4342e-05,0.013152,-9.6679e-05,-17.545,0.68579
28402,11.862,0.36364,0.1,0.00028575,2855.5,0.00028545,2847,-9.3454e-05,0.029139,-9.571e-05,-16.924,0.69506
28403,11.77,0.63636,0.1,0.00028882,2886.2,0.00028847,2876,-9.4306e-05,-0.0014882,-9.6997e-05,-20.215,0.68666
28404,11.862,0.54545,0.1,0.00028609,2858.9,0.00028574,2848.7,-9.3401e-05,0.00019582,-9.6103e-05,-20.306,0.69595
28405,11.77,0.81818,0.1,0.0002891,2889,0.00028871,2877.8,-9.4298e-05,-0.0051328,-9.7257e-05,-22.239,0.68746
28406,11.862,0.72727,0.1,0.00028643,2862.3,0.00028603,2850.7,-9.3379e-05,-0.0031444,-9.644e-05,-23.006,0.69678
28407,11.77,1,0.1,0.00028935,2891.5,0.00028894,2879.7,-9.4317e-05,-0.0081053,-9.7452e-05,-23.568,0.6882
28408,11.862,0.90909,0.1,0.00028674,2865.4,0.00028631,2852.9,-9.3388e-05,-0.0076541,-9.6705e-05,-24.935,0.69754
28409,11.77,1.1818,0.1,0.00028957,2893.7,0.00028915,2881.5,-9.4358e-05,-0.0093938,-9.758e-05,-24.219,0.68887
28410,11.862,1.0909,0.1,0.00028703,2868.3,0.00028657,2855.1,-9.3424e-05,-0.0094423,-9.6895e-05,-26.086,0.69825
28411,11.77,1.3636,0.1,0.00028976,2895.6,0.00028934,2883.4,-9.4418e-05,-0.0098261,-9.7644e-05,-24.249,0.68949
28412,11.862,1.2727,0.1,0.00028727,2870.7,0.00028681,2857.4,-9.3484e-05,-0.010257,-9.701e-05,-26.502,0.69889
28413,11.77,1.5455,0.1,0.00028991,2897.1,0.0002895,2885.1,-9.4492e-05,-0.0096201,-9.7652e-05,-23.747,0.69003
28414,11.862,1.4545,0.1,0.00028747,2872.8,0.00028702,2859.5,-9.3563e-05,-0.010207,-9.7058e-05,-26.267,0.69946
28415,11.77,1.7273,0.1,0.00029002,2898.2,0.00028963,2886.8,-9.4576e-05,-0.0090574,-9.7613e-05,-22.832,0.69051
28416,11.862,1.6364,0.1,0.00028764,2874.4,0.00028719,2861.5,-9.3655e-05,-0.0096737,-9.7047e-05,-25.499,0.69997
28417,11.77,1.9091,0.1,0.00029011,2899.1,0.00028973,2888.2,-9.4662e-05,-0.0083462,-9.7541e-05,-21.637,0.69093
28418,11.862,1.8182,0.1,0.00028776,2875.6,0.00028734,2863.3,-9.3753e-05,-0.0088973,-9.6991e-05,-24.337,0.70042
28419,11.77,2.0909,0.1,0.00029016,2899.6,0.00028981,2889.4,-9.4746e-05,-0.007659,-9.7448e-05,-20.307,0.69129
28420,11.862,2,0.1,0.00028785,2876.5,0.00028745,2864.9,-9.3851e-05,-0.0080935,-9.6903e-05,-22.94,0.7008
28421,11.77,2.2727,0.1,0.0002902,2900,0.00028987,2890.4,-9.4823e-05,-0.0071154,-9.7349e-05,-18.983,0.69157
28422,11.862,2.1818,0.1,0.00028791,2877.1,0.00028753,2866.3,-9.3944e-05,-0.0074199,-9.68e-05,-21.465,0.70112
28423,11.77,2.4545,0.1,0.00029022,2900.1,0.00028991,2891.2,-9.4889e-05,-0.0067714,-9.7256e-05,-17.797,0.6918
28424,11.862,2.3636,0.1,0.00028794,2877.4,0.0002876,2867.4,-9.4026e-05,-0.0069699,-9.6696e-05,-20.069,0.70138
28425,11.77,2.6364,0.1,0.00029022,2900.2,0.00028993,2891.8,-9.4938e-05,-0.0066111,-9.7182e-05,-16.863,0.69196
28426,11.862,2.5455,0.1,0.00028797,2877.7,0.00028764,2868.2,-9.4092e-05,-0.0067541,-9.6605e-05,-18.888,0.70157
28427,11.77,2.8182,0.1,0.00029023,2900.3,0.00028995,2892.1,-9.4969e-05,-0.0065669,-9.7133e-05,-16.266,0.69206
28428,11.862,2.7273,0.1,0.00028798,2877.8,0.00028767,2868.7,-9.4138e-05,-0.0067046,-9.6538e-05,-18.034,0.7017
28429,11.77,3,0.1,0.00029023,2900.3,0.00028995,2892.2,-9.498e-05,-0.0065635,-9.7116e-05,-16.06,0.69209
28430,11.862,2.9091,0.1,0.00028798,2877.8,0.00028768,2869,-9.4162e-05,-0.0067191,-9.6502e-05,-17.586,0.70176
28431,11.77,3.1818,0.1,0.00029023,2900.3,0.00028995,2892.1,-9.4969e-05,-0.0065671,-9.7133e-05,-16.266,0.69206
28432,11.862,3.0909,0.1,0.00028798,2877.8,0.00028768,2869,-9.4162e-05,-0.0067193,-9.6502e-05,-17.586,0.70176
28433,11.77,3.3636,0.1,0.00029022,2900.2,0.00028993,2891.8,-9.4938e-05,-0.0066108,-9.7182e-05,-16.863,0.69196
28434,11.862,3.2727,0.1,0.00028798,2877.8,0.00028767,2868.7,-9.4138e-05,-0.0067045,-9.6538e-05,-18.034,0.7017
28435,11.77,3.5455,0.1,0.00029022,2900.1,0.00028991,2891.2,-9.4889e-05,-0.0067711,-9.7256e-05,-17.797,0.6918
28436,11.862,3.4545,0.1,0.00028797,2877.7,0.00028764,2868.2,-9.4092e-05,-0.0067537,-9.6605e-05,-18.888,0.70157
28437,11.77,3.7273,0.1,0.0002902,2900,0.00028987,2890.4,-9.4823e-05,-0.0071154,-9.7349e-05,-18.983,0.69157
28438,11.862,3.6364,0.1,0.00028794,2877.4,0.0002876,2867.4,-9.4026e-05,-0.0069695,-9.6696e-05,-20.069,0.70138
28439,11.77,3.9091,0.1,0.00029016,2899.6,0.00028981,2889.4,-9.4746e-05,-0.007659,-9.7448e-05,-20.307,0.69129
28440,11.862,3.8182,0.1,0.00028791,2877.1,0.00028753,2866.3,-9.3944e-05,-0.0074199,-9.68e-05,-21.465,0.70112
28441,11.77,4.0909,0.1,0.00029011,2899.1,0.00028973,2888.2,-9.4662e-05,-0.008346,-9.7541e-05,-21.637,0.69093
28442,11.862,4,0.1,0.00028785,2876.5,0.00028745,2864.9,-9.3851e-05,-0.0080935,-9.6903e-05,-22.94,0.7008
28443,11.77,4.2727,0.1,0.00029002,2898.2,0.00028963,2886.8,-9.4576e-05,-0.0090571,-9.7613e-05,-22.832,0.69051
28444,11.862,4.1818,0.1,0.00028776,2875.6,0.00028734,2863.3,-9.3753e-05,-0.0088969,-9.6991e-05,-24.337,0.70042
28445,11.77,4.4545,0.1,0.00028991,2897.1,0.0002895,2885.1,-9.4492e-05,-0.0096198,-9.7652e-05,-23.747,0.69003
28446,11.862,4.3636,0.1,0.00028764,2874.4,0.00028719,2861.5,-9.3655e-05,-0.0096731,-9.7047e-05,-25.499,0.69997
28447,11.77,4.6364,0.1,0.00028976,2895.6,0.00028934,2883.4,-9.4418e-05,-0.0098253,-9.7644e-05,-24.249,0.68949
28448,11.862,4.5455,0.1,0.00028747,2872.8,0.00028702,2859.5,-9.3563e-05,-0.010207,-9.7058e-05,-26.267,0.69946
28449,11.77,4.8182,0.1,0.00028957,2893.7,0.00028915,2881.5,-9.4358e-05,-0.0093929,-9.758e-05,-24.219,0.68887
28450,11.862,4.7273,0.1,0.00028727,2870.7,0.00028681,2857.4,-9.3484e-05,-0.010256,-9.701e-05,-26.502,0.69889
28451,11.77,5,0.1,0.00028935,2891.5,0.00028894,2879.7,-9.4317e-05,-0.0081046,-9.7452e-05,-23.568,0.6882
28452,11.862,4.9091,0.1,0.00028703,2868.3,0.00028657,2855.1,-9.3424e-05,-0.0094418,-9.6895e-05,-26.086,0.69825
28453,11.77,5.1818,0.1,0.0002891,2889,0.00028871,2877.8,-9.4298e-05,-0.005132,-9.7257e-05,-22.239,0.68746
28454,11.862,5.0909,0.1,0.00028674,2865.4,0.00028631,2852.9,-9.3388e-05,-0.0076531,-9.6705e-05,-24.935,0.69754
28455,11.77,5.3636,0.1,0.00028882,2886.2,0.00028847,2876,-9.4306e-05,-0.0014883,-9.6997e-05,-20.216,0.68666
28456,11.862,5.2727,0.1,0.00028643,2862.3,0.00028603,2850.7,-9.3379e-05,-0.0031432,-9.644e-05,-23.006,0.69678
28457,11.77,5.5455,0.1,0.00028853,2883.3,0.00028822,2874.5,-9.4342e-05,0.013153,-9.6679e-05,-17.545,0.68579
28458,11.862,5.4545,0.1,0.00028609,2858.9,0.00028574,2848.7,-9.3401e-05,0.00019654,-9.6103e-05,-20.306,0.69595
28459,11.77,5.7273,0.1,0.00028831,2881.1,0.00028805,2873.7,-9.4408e-05,0.019162,-9.6374e-05,-14.751,0.68486
28460,11.862,5.6364,0.1,0.00028575,2855.5,0.00028545,2847,-9.3454e-05,0.02914,-9.571e-05,-16.924,0.69506
28461,11.862,5.8182,0.1,0.00028556,2853.6,0.00028532,2846.6,-9.3545e-05,0.0091794,-9.5392e-05,-13.868,0.6941
28462,11.77,5.9091,0.1,0.00028764,2874.4,0.00028749,2870.1,-9.4496e-05,0.0015802,-9.5639e-05,-8.5836,0.68386
28463,11.954,0.27273,0.1,0.00028298,2827.9,0.00028271,2819.9,-9.259e-05,0.023149,-9.4717e-05,-15.956,0.70436
28464,12.046,0.18182,0.1,0.00028014,2799.5,0.00027989,2792.1,-9.1721e-05,0.013069,-9.3666e-05,-14.605,0.7137
28465,11.954,0.090909,0.1,0.00028224,2820.4,0.00028208,2815.9,-9.2694e-05,0.0020476,-9.3885e-05,-8.945,0.70338
28466,11.954,0.45455,0.1,0.0002833,2831.1,0.00028296,2821.2,-9.2513e-05,0.015157,-9.5132e-05,-19.659,0.70528
28467,12.046,0.36364,0.1,0.00028044,2802.5,0.00028012,2793.1,-9.1614e-05,0.034146,-9.411e-05,-18.721,0.71465
28468,11.954,0.63636,0.1,0.00028369,2835,0.00028329,2823.4,-9.2474e-05,-0.0020972,-9.5544e-05,-23.075,0.70613
28469,12.046,0.54545,0.1,0.00028089,2807,0.00028049,2795.4,-9.1554e-05,-0.00033653,-9.4612e-05,-22.977,0.71553
28470,11.954,0.81818,0.1,0.00028407,2838.7,0.00028362,2825.8,-9.2468e-05,-0.0060324,-9.5886e-05,-25.683,0.70693
28471,12.046,0.72727,0.1,0.00028134,2811.4,0.00028088,2798.2,-9.1533e-05,-0.0038794,-9.5043e-05,-26.377,0.71635
28472,11.954,1,0.1,0.00028442,2842.2,0.00028394,2828.4,-9.2496e-05,-0.0092112,-9.6146e-05,-27.436,0.70766
28473,12.046,0.90909,0.1,0.00028176,2815.6,0.00028126,2801.1,-9.1549e-05,-0.0088317,-9.5385e-05,-28.829,0.7171
28474,11.954,1.1818,0.1,0.00028472,2845.2,0.00028423,2831,-9.2551e-05,-0.01044,-9.6323e-05,-28.353,0.70832
28475,12.046,1.0909,0.1,0.00028214,2819.4,0.00028161,2804.1,-9.16e-05,-0.010596,-9.5635e-05,-30.328,0.7178
28476,11.954,1.3636,0.1,0.00028498,2847.9,0.00028449,2833.5,-9.263e-05,-0.010718,-9.6422e-05,-28.507,0.70893
28477,12.046,1.2727,0.1,0.00028247,2822.7,0.00028193,2807.1,-9.168e-05,-0.011275,-9.5794e-05,-30.929,0.71843
28478,11.954,1.5455,0.1,0.0002852,2850,0.00028471,2835.9,-9.2725e-05,-0.010303,-9.6451e-05,-28.005,0.70947
28479,12.046,1.4545,0.1,0.00028275,2825.5,0.00028221,2810,-9.1782e-05,-0.010999,-9.5871e-05,-30.732,0.719
28480,11.954,1.7273,0.1,0.00028537,2851.7,0.0002849,2838.1,-9.2832e-05,-0.0095291,-9.6423e-05,-26.991,0.70994
28481,12.046,1.6364,0.1,0.00028298,2827.8,0.00028246,2812.8,-9.19e-05,-0.010219,-9.5875e-05,-29.881,0.7195
28482,11.954,1.9091,0.1,0.0002855,2853,0.00028505,2840.1,-9.2942e-05,-0.0086415,-9.6351e-05,-25.626,0.71036
28483,12.046,1.8182,0.1,0.00028316,2829.6,0.00028266,2815.2,-9.2025e-05,-0.0092207,-9.5823e-05,-28.545,0.71995
28484,11.954,2.0909,0.1,0.00028559,2853.9,0.00028517,2841.8,-9.3049e-05,-0.0078412,-9.6254e-05,-24.085,0.71071
28485,12.046,2,0.1,0.00028329,2831,0.00028282,2817.4,-9.2151e-05,-0.0082585,-9.5731e-05,-26.912,0.72032
28486,11.954,2.2727,0.1,0.00028565,2854.5,0.00028526,2843.2,-9.3147e-05,-0.0072616,-9.6146e-05,-22.538,0.71099
28487,12.046,2.1818,0.1,0.00028339,2831.9,0.00028295,2819.3,-9.2269e-05,-0.0075147,-9.5619e-05,-25.177,0.72064
28488,11.954,2.4545,0.1,0.00028569,2854.9,0.00028533,2844.3,-9.323e-05,-0.0069519,-9.6043e-05,-21.145,0.71121
28489,12.046,2.3636,0.1,0.00028345,2832.6,0.00028305,2820.7,-9.2373e-05,-0.0070877,-9.5503e-05,-23.526,0.72089
28490,11.954,2.6364,0.1,0.00028572,2855.2,0.00028537,2845.1,-9.3292e-05,-0.0068679,-9.5959e-05,-20.044,0.71137
28491,12.046,2.5455,0.1,0.0002835,2833,0.00028311,2821.9,-9.2456e-05,-0.0069656,-9.54e-05,-22.125,0.72108
28492,11.954,2.8182,0.1,0.00028573,2855.3,0.00028539,2845.6,-9.3331e-05,-0.0068979,-9.5904e-05,-19.34,0.71147
28493,12.046,2.7273,0.1,0.00028352,2833.3,0.00028316,2822.6,-9.2515e-05,-0.0070323,-9.5324e-05,-21.11,0.72121
28494,11.954,3,0.1,0.00028573,2855.3,0.0002854,2845.7,-9.3345e-05,-0.0069248,-9.5885e-05,-19.097,0.7115
28495,12.046,2.9091,0.1,0.00028353,2833.4,0.00028318,2823,-9.2545e-05,-0.0071252,-9.5283e-05,-20.578,0.72127
28496,11.954,3.1818,0.1,0.00028573,2855.3,0.00028539,2845.6,-9.3331e-05,-0.0068978,-9.5904e-05,-19.34,0.71147
28497,12.046,3.0909,0.1,0.00028353,2833.4,0.00028318,2823,-9.2545e-05,-0.0071251,-9.5283e-05,-20.578,0.72127
28498,11.954,3.3636,0.1,0.00028572,2855.2,0.00028537,2845.1,-9.3292e-05,-0.0068677,-9.5959e-05,-20.044,0.71137
28499,12.046,3.2727,0.1,0.00028352,2833.3,0.00028316,2822.6,-9.2515e-05,-0.0070323,-9.5324e-05,-21.11,0.72121
28500,11.954,3.5455,0.1,0.00028569,2854.9,0.00028533,2844.3,-9.323e-05,-0.0069515,-9.6043e-05,-21.145,0.71121
28501,12.046,3.4545,0.1,0.0002835,2833,0.00028311,2821.9,-9.2456e-05,-0.0069656,-9.54e-05,-22.125,0.72108
28502,11.954,3.7273,0.1,0.00028565,2854.5,0.00028526,2843.2,-9.3147e-05,-0.0072612,-9.6146e-05,-22.538,0.71099
28503,12.046,3.6364,0.1,0.00028345,2832.6,0.00028305,2820.7,-9.2373e-05,-0.0070875,-9.5503e-05,-23.526,0.72089
28504,11.954,3.9091,0.1,0.00028559,2853.9,0.00028517,2841.8,-9.3049e-05,-0.0078412,-9.6254e-05,-24.085,0.71071
28505,12.046,3.8182,0.1,0.00028339,2831.9,0.00028295,2819.3,-9.2269e-05,-0.0075145,-9.5619e-05,-25.177,0.72064
28506,11.954,4.0909,0.1,0.0002855,2853,0.00028505,2840.1,-9.2942e-05,-0.0086413,-9.6351e-05,-25.626,0.71036
28507,12.046,4,0.1,0.00028329,2831,0.00028282,2817.4,-9.2151e-05,-0.0082584,-9.5731e-05,-26.912,0.72032
28508,11.954,4.2727,0.1,0.00028537,2851.7,0.0002849,2838.1,-9.2832e-05,-0.0095285,-9.6423e-05,-26.991,0.70994
28509,12.046,4.1818,0.1,0.00028316,2829.6,0.00028266,2815.2,-9.2025e-05,-0.0092203,-9.5823e-05,-28.545,0.71995
28510,11.954,4.4545,0.1,0.0002852,2850,0.00028471,2835.9,-9.2725e-05,-0.010302,-9.6451e-05,-28.005,0.70947
28511,12.046,4.3636,0.1,0.00028298,2827.8,0.00028246,2812.8,-9.19e-05,-0.010219,-9.5875e-05,-29.881,0.7195
28512,11.954,4.6364,0.1,0.00028498,2847.9,0.00028449,2833.5,-9.263e-05,-0.010717,-9.6422e-05,-28.507,0.70893
28513,12.046,4.5455,0.1,0.00028275,2825.5,0.00028221,2810,-9.1782e-05,-0.010998,-9.5871e-05,-30.732,0.719
28514,11.954,4.8182,0.1,0.00028472,2845.2,0.00028423,2831,-9.2551e-05,-0.010439,-9.6323e-05,-28.353,0.70832
28515,12.046,4.7273,0.1,0.00028247,2822.7,0.00028193,2807.1,-9.168e-05,-0.011274,-9.5794e-05,-30.929,0.71843
28516,11.954,5,0.1,0.00028442,2842.2,0.00028394,2828.4,-9.2496e-05,-0.0092104,-9.6146e-05,-27.436,0.70766
28517,12.046,4.9091,0.1,0.00028214,2819.4,0.00028161,2804.1,-9.16e-05,-0.010595,-9.5635e-05,-30.328,0.7178
28518,11.954,5.1818,0.1,0.00028407,2838.7,0.00028362,2825.8,-9.2468e-05,-0.006031,-9.5886e-05,-25.683,0.70693
28519,12.046,5.0909,0.1,0.00028176,2815.6,0.00028126,2801.1,-9.1549e-05,-0.0088303,-9.5385e-05,-28.829,0.7171
28520,11.954,5.3636,0.1,0.00028369,2835,0.00028329,2823.4,-9.2474e-05,-0.0020961,-9.5544e-05,-23.075,0.70613
28521,12.046,5.2727,0.1,0.00028134,2811.4,0.00028088,2798.2,-9.1533e-05,-0.003878,-9.5043e-05,-26.377,0.71635
28522,11.954,5.5455,0.1,0.0002833,2831.1,0.00028296,2821.2,-9.2513e-05,0.015157,-9.5132e-05,-19.659,0.70528
28523,12.046,5.4545,0.1,0.00028089,2807,0.00028049,2795.4,-9.1554e-05,-0.00033613,-9.4612e-05,-22.977,0.71553
28524,11.954,5.7273,0.1,0.00028298,2827.9,0.00028271,2819.9,-9.259e-05,0.023149,-9.4717e-05,-15.956,0.70436
28525,12.046,5.6364,0.1,0.00028044,2802.5,0.00028012,2793.1,-9.1614e-05,0.034146,-9.411e-05,-18.721,0.71465
28526,12.046,5.8182,0.1,0.00028014,2799.5,0.00027989,2792.1,-9.1721e-05,0.01307,-9.3666e-05,-14.605,0.7137
28527,11.954,5.9091,0.1,0.00028224,2820.4,0.00028208,2815.9,-9.2694e-05,0.0020483,-9.3885e-05,-8.945,0.70338
28528,12.138,0.27273,0.1,0.00027759,2773.9,0.00027729,2765.3,-9.0744e-05,0.027711,-9.3048e-05,-17.284,0.72405
28529,12.23,0.18182,0.1,0.00027463,2744.4,0.00027437,2736.7,-8.9863e-05,0.018197,-9.1915e-05,-15.403,0.7335
28530,12.138,0.090909,0.1,0.00027675,2765.6,0.00027659,2760.9,-9.0866e-05,0.0025699,-9.2107e-05,-9.3281,0.72309
28531,12.138,0.45455,0.1,0.00027803,2778.4,0.00027765,2767.3,-9.0655e-05,0.017255,-9.3587e-05,-22.012,0.72496
28532,12.23,0.36364,0.1,0.00027507,2748.8,0.00027471,2738.4,-8.974e-05,0.039705,-9.2504e-05,-20.728,0.73443
28533,12.138,0.63636,0.1,0.00027854,2783.4,0.00027808,2770.2,-9.0613e-05,-0.0029178,-9.4107e-05,-26.258,0.7258
28534,12.23,0.54545,0.1,0.00027565,2754.6,0.00027519,2741.5,-8.9674e-05,-0.0010847,-9.313e-05,-25.966,0.7353
28535,12.138,0.81818,0.1,0.00027903,2788.3,0.00027851,2773.5,-9.0614e-05,-0.0071211,-9.4539e-05,-29.505,0.72659
28536,12.23,0.72727,0.1,0.00027622,2760.3,0.00027569,2745.1,-8.9655e-05,-0.0047751,-9.3666e-05,-30.14,0.73611
28537,12.138,1,0.1,0.00027948,2792.9,0.00027893,2776.9,-9.0654e-05,-0.010477,-9.4872e-05,-31.706,0.72731
28538,12.23,0.90909,0.1,0.00027676,2765.7,0.00027618,2749,-8.9684e-05,-0.010162,-9.4096e-05,-33.159,0.73685
28539,12.138,1.1818,0.1,0.00027988,2796.9,0.00027931,2780.3,-9.0729e-05,-0.011587,-9.5104e-05,-32.889,0.72797
28540,12.23,1.0909,0.1,0.00027725,2770.6,0.00027664,2752.9,-8.9754e-05,-0.011837,-9.4414e-05,-35.02,0.73754
28541,12.138,1.3636,0.1,0.00028023,2800.4,0.00027966,2783.7,-9.0832e-05,-0.011646,-9.5241e-05,-33.141,0.72856
28542,12.23,1.2727,0.1,0.00027769,2775,0.00027706,2756.9,-8.986e-05,-0.01231,-9.4622e-05,-35.792,0.73816
28543,12.138,1.5455,0.1,0.00028053,2803.3,0.00027996,2786.9,-9.0956e-05,-0.010959,-9.5293e-05,-32.595,0.7291
28544,12.23,1.4545,0.1,0.00027806,2778.7,0.00027744,2760.7,-8.9993e-05,-0.011733,-9.4729e-05,-35.596,0.73873
28545,12.138,1.7273,0.1,0.00028077,2805.7,0.00028022,2789.9,-9.1093e-05,-0.0099219,-9.5274e-05,-31.422,0.72957
28546,12.23,1.6364,0.1,0.00027837,2781.8,0.00027777,2764.4,-9.0145e-05,-0.01064,-9.4749e-05,-34.605,0.73922
28547,12.138,1.9091,0.1,0.00028095,2807.6,0.00028043,2792.5,-9.1234e-05,-0.008826,-9.5201e-05,-29.818,0.72998
28548,12.23,1.8182,0.1,0.00027862,2784.3,0.00027805,2767.7,-9.0306e-05,-0.0093703,-9.47e-05,-33.024,0.73966
28549,12.138,2.0909,0.1,0.00028109,2809,0.0002806,2794.9,-9.137e-05,-0.0079087,-9.5095e-05,-27.992,0.73032
28550,12.23,2,0.1,0.00027882,2786.2,0.00027827,2770.6,-9.0466e-05,-0.0082298,-9.4602e-05,-31.079,0.74004
28551,12.138,2.2727,0.1,0.00028119,2810,0.00028074,2796.8,-9.1495e-05,-0.0073208,-9.4975e-05,-26.153,0.7306
28552,12.23,2.1818,0.1,0.00027896,2787.7,0.00027846,2773.1,-9.0617e-05,-0.0074338,-9.4476e-05,-29.004,0.74035
28553,12.138,2.4545,0.1,0.00028126,2810.6,0.00028083,2798.3,-9.16e-05,-0.0071014,-9.4859e-05,-24.492,0.73082
28554,12.23,2.3636,0.1,0.00027906,2788.7,0.00027859,2775.1,-9.0749e-05,-0.0070862,-9.4345e-05,-27.025,0.7406
28555,12.138,2.6364,0.1,0.0002813,2811.1,0.0002809,2799.4,-9.1679e-05,-0.0071518,-9.4763e-05,-23.177,0.73098
28556,12.23,2.5455,0.1,0.00027913,2789.4,0.00027869,2776.6,-9.0856e-05,-0.0071416,-9.4228e-05,-25.344,0.74078
28557,12.138,2.8182,0.1,0.00028132,2811.3,0.00028094,2800.1,-9.1729e-05,-0.0073243,-9.47e-05,-22.335,0.73107
28558,12.23,2.7273,0.1,0.00027917,2789.8,0.00027875,2777.7,-9.093e-05,-0.0074098,-9.414e-05,-24.126,0.74091
28559,12.138,3,0.1,0.00028133,2811.4,0.00028095,2800.3,-9.1746e-05,-0.0074038,-9.4679e-05,-22.045,0.7311
28560,12.23,2.9091,0.1,0.00027919,2790,0.00027878,2778.2,-9.0968e-05,-0.007636,-9.4093e-05,-23.486,0.74097
28561,12.138,3.1818,0.1,0.00028132,2811.3,0.00028094,2800.1,-9.1729e-05,-0.0073244,-9.47e-05,-22.335,0.73107
28562,12.23,3.0909,0.1,0.00027919,2790,0.00027878,2778.2,-9.0968e-05,-0.0076361,-9.4093e-05,-23.486,0.74097
28563,12.138,3.3636,0.1,0.0002813,2811.1,0.0002809,2799.4,-9.1679e-05,-0.0071518,-9.4763e-05,-23.177,0.73098
28564,12.23,3.2727,0.1,0.00027917,2789.8,0.00027875,2777.7,-9.093e-05,-0.0074098,-9.414e-05,-24.126,0.74091
28565,12.138,3.5455,0.1,0.00028126,2810.6,0.00028083,2798.3,-9.16e-05,-0.0071015,-9.4859e-05,-24.492,0.73082
28566,12.23,3.4545,0.1,0.00027913,2789.4,0.00027869,2776.6,-9.0856e-05,-0.0071414,-9.4228e-05,-25.344,0.74078
28567,12.138,3.7273,0.1,0.00028119,2810,0.00028074,2796.8,-9.1495e-05,-0.0073208,-9.4975e-05,-26.153,0.7306
28568,12.23,3.6364,0.1,0.00027906,2788.7,0.00027859,2775.1,-9.0749e-05,-0.0070862,-9.4345e-05,-27.025,0.7406
28569,12.138,3.9091,0.1,0.00028109,2809,0.0002806,2794.9,-9.137e-05,-0.0079085,-9.5095e-05,-27.992,0.73032
28570,12.23,3.8182,0.1,0.00027896,2787.7,0.00027846,2773.1,-9.0617e-05,-0.0074335,-9.4476e-05,-29.004,0.74035
28571,12.138,4.0909,0.1,0.00028095,2807.6,0.00028043,2792.5,-9.1234e-05,-0.0088256,-9.5201e-05,-29.818,0.72998
28572,12.23,4,0.1,0.00027882,2786.2,0.00027827,2770.6,-9.0466e-05,-0.0082295,-9.4602e-05,-31.079,0.74004
28573,12.138,4.2727,0.1,0.00028077,2805.7,0.00028022,2789.9,-9.1093e-05,-0.0099216,-9.5274e-05,-31.422,0.72957
28574,12.23,4.1818,0.1,0.00027862,2784.3,0.00027805,2767.7,-9.0306e-05,-0.0093699,-9.47e-05,-33.024,0.73966
28575,12.138,4.4545,0.1,0.00028053,2803.3,0.00027996,2786.9,-9.0956e-05,-0.010959,-9.5293e-05,-32.595,0.7291
28576,12.23,4.3636,0.1,0.00027837,2781.8,0.00027777,2764.4,-9.0145e-05,-0.01064,-9.4749e-05,-34.605,0.73922
28577,12.138,4.6364,0.1,0.00028023,2800.4,0.00027966,2783.7,-9.0832e-05,-0.011646,-9.5241e-05,-33.141,0.72856
28578,12.23,4.5455,0.1,0.00027806,2778.7,0.00027744,2760.7,-8.9993e-05,-0.011732,-9.4729e-05,-35.596,0.73873
28579,12.138,4.8182,0.1,0.00027988,2796.9,0.00027931,2780.3,-9.0729e-05,-0.011586,-9.5104e-05,-32.889,0.72797
28580,12.23,4.7273,0.1,0.00027769,2775,0.00027706,2756.9,-8.986e-05,-0.01231,-9.4622e-05,-35.792,0.73816
28581,12.138,5,0.1,0.00027948,2792.9,0.00027893,2776.9,-9.0654e-05,-0.010476,-9.4872e-05,-31.706,0.72731
28582,12.23,4.9091,0.1,0.00027725,2770.6,0.00027664,2752.9,-8.9754e-05,-0.011837,-9.4414e-05,-35.02,0.73754
28583,12.138,5.1818,0.1,0.00027903,2788.3,0.00027851,2773.5,-9.0614e-05,-0.0071196,-9.4539e-05,-29.505,0.72659
28584,12.23,5.0909,0.1,0.00027676,2765.7,0.00027618,2749,-8.9684e-05,-0.01016,-9.4096e-05,-33.159,0.73685
28585,12.138,5.3636,0.1,0.00027854,2783.4,0.00027808,2770.2,-9.0613e-05,-0.0029171,-9.4107e-05,-26.258,0.7258
28586,12.23,5.2727,0.1,0.00027622,2760.3,0.00027569,2745.1,-8.9655e-05,-0.0047739,-9.3666e-05,-30.14,0.73611
28587,12.138,5.5455,0.1,0.00027803,2778.4,0.00027765,2767.3,-9.0655e-05,0.017255,-9.3587e-05,-22.012,0.72496
28588,12.23,5.4545,0.1,0.00027565,2754.6,0.00027519,2741.5,-8.9674e-05,-0.0010842,-9.313e-05,-25.966,0.7353
28589,12.138,5.7273,0.1,0.00027759,2773.9,0.00027729,2765.3,-9.0744e-05,0.027712,-9.3048e-05,-17.284,0.72405
28590,12.23,5.6364,0.1,0.00027507,2748.8,0.00027471,2738.4,-8.974e-05,0.039706,-9.2504e-05,-20.728,0.73443
28591,12.23,5.8182,0.1,0.00027463,2744.4,0.00027437,2736.7,-8.9863e-05,0.018198,-9.1915e-05,-15.403,0.7335
28592,12.138,5.9091,0.1,0.00027675,2765.6,0.00027659,2760.9,-9.0866e-05,0.0025706,-9.2107e-05,-9.3281,0.72309
28593,12.322,0.27273,0.1,0.0002721,2719.1,0.00027177,2709.7,-8.8859e-05,0.032977,-9.136e-05,-18.76,0.74393
28594,12.414,0.18182,0.1,0.00026901,2688.2,0.00026872,2680,-8.7962e-05,0.024807,-9.0132e-05,-16.279,0.75347
28595,12.322,0.090909,0.1,0.00027116,2709.8,0.000271,2704.9,-8.9001e-05,0.0032265,-9.0297e-05,-9.7395,0.74298
28596,12.322,0.45455,0.1,0.00027268,2724.9,0.00027225,2712.5,-8.8759e-05,0.019515,-9.2043e-05,-24.653,0.74483
28597,12.414,0.36364,0.1,0.0002696,2694.1,0.0002692,2682.5,-8.7822e-05,0.045877,-9.0887e-05,-22.984,0.75439
28598,12.322,0.63636,0.1,0.00027333,2731.4,0.00027281,2716.3,-8.8716e-05,-0.0039221,-9.2686e-05,-29.828,0.74566
28599,12.414,0.54545,0.1,0.00027033,2701.4,0.00026981,2686.6,-8.7751e-05,-0.0020957,-9.1654e-05,-29.331,0.75525
28600,12.322,0.81818,0.1,0.00027395,2737.6,0.00027336,2720.6,-8.8726e-05,-0.0083442,-9.3221e-05,-33.778,0.74644
28601,12.414,0.72727,0.1,0.00027105,2708.6,0.00027045,2691.3,-8.7739e-05,-0.0058471,-9.2312e-05,-34.37,0.75605
28602,12.322,1,0.1,0.00027453,2743.4,0.00027389,2725,-8.8785e-05,-0.011829,-9.3636e-05,-36.46,0.74715
28603,12.414,0.90909,0.1,0.00027173,2715.5,0.00027107,2696.3,-8.7784e-05,-0.011643,-9.2841e-05,-38.009,0.75679
28604,12.322,1.1818,0.1,0.00027506,2748.7,0.00027439,2729.5,-8.8886e-05,-0.012742,-9.393e-05,-37.91,0.7478
28605,12.414,1.0909,0.1,0.00027237,2721.8,0.00027166,2701.4,-8.7881e-05,-0.013142,-9.3236e-05,-40.252,0.75747
28606,12.322,1.3636,0.1,0.00027552,2753.3,0.00027485,2734,-8.9021e-05,-0.012499,-9.4109e-05,-38.235,0.74839
28607,12.414,1.2727,0.1,0.00027293,2727.4,0.00027221,2706.6,-8.8021e-05,-0.013316,-9.35e-05,-41.181,0.75809
28608,12.322,1.5455,0.1,0.00027591,2757.2,0.00027525,2738.2,-8.9182e-05,-0.01146,-9.4184e-05,-37.595,0.74892
28609,12.414,1.4545,0.1,0.00027342,2732.3,0.0002727,2711.6,-8.8194e-05,-0.012341,-9.3642e-05,-40.946,0.75864
28610,12.322,1.7273,0.1,0.00027623,2760.4,0.0002756,2742.1,-8.9358e-05,-0.010094,-9.4174e-05,-36.195,0.74938
28611,12.414,1.6364,0.1,0.00027383,2736.4,0.00027314,2716.4,-8.839e-05,-0.010849,-9.3679e-05,-39.751,0.75913
28612,12.322,1.9091,0.1,0.00027649,2763,0.00027589,2745.7,-8.9539e-05,-0.008751,-9.4099e-05,-34.272,0.74978
28613,12.414,1.8182,0.1,0.00027417,2739.8,0.00027351,2720.7,-8.8596e-05,-0.0092481,-9.3632e-05,-37.844,0.75957
28614,12.322,2.0909,0.1,0.00027669,2764.9,0.00027613,2748.8,-8.9713e-05,-0.0077182,-9.3981e-05,-32.078,0.75012
28615,12.414,2,0.1,0.00027444,2742.5,0.00027382,2724.6,-8.8801e-05,-0.0079088,-9.3525e-05,-35.497,0.75993
28616,12.322,2.2727,0.1,0.00027683,2766.4,0.00027631,2751.3,-8.9872e-05,-0.0071694,-9.3845e-05,-29.865,0.7504
28617,12.414,2.1818,0.1,0.00027464,2744.5,0.00027407,2727.9,-8.8993e-05,-0.0070921,-9.3383e-05,-32.993,0.76024
28618,12.322,2.4545,0.1,0.00027693,2767.4,0.00027645,2753.4,-9.0005e-05,-0.0071279,-9.3713e-05,-27.865,0.75062
28619,12.414,2.3636,0.1,0.00027479,2746,0.00027426,2730.6,-8.9161e-05,-0.006911,-9.3233e-05,-30.602,0.76049
28620,12.322,2.6364,0.1,0.000277,2768.1,0.00027654,2754.9,-9.0106e-05,-0.0074408,-9.3603e-05,-26.28,0.75077
28621,12.414,2.5455,0.1,0.00027489,2747,0.0002744,2732.6,-8.9296e-05,-0.0072709,-9.3098e-05,-28.571,0.76067
28622,12.322,2.8182,0.1,0.00027704,2768.5,0.0002766,2755.8,-9.0169e-05,-0.0078231,-9.353e-05,-25.264,0.75087
28623,12.414,2.7273,0.1,0.00027496,2747.7,0.00027449,2734,-8.9391e-05,-0.0078713,-9.2996e-05,-27.098,0.7608
28624,12.322,3,0.1,0.00027705,2768.6,0.00027662,2756,-9.019e-05,-0.0079907,-9.3505e-05,-24.914,0.7509
28625,12.414,2.9091,0.1,0.00027499,2748,0.00027453,2734.7,-8.9439e-05,-0.0083151,-9.2942e-05,-26.324,0.76086
28626,12.322,3.1818,0.1,0.00027704,2768.5,0.0002766,2755.8,-9.0169e-05,-0.007823,-9.353e-05,-25.264,0.75087
28627,12.414,3.0909,0.1,0.00027499,2748,0.00027453,2734.7,-8.9439e-05,-0.008315,-9.2942e-05,-26.324,0.76086
28628,12.322,3.3636,0.1,0.000277,2768.1,0.00027654,2754.9,-9.0106e-05,-0.0074404,-9.3603e-05,-26.28,0.75077
28629,12.414,3.2727,0.1,0.00027496,2747.7,0.00027449,2734,-8.9391e-05,-0.0078712,-9.2996e-05,-27.098,0.7608
28630,12.322,3.5455,0.1,0.00027693,2767.4,0.00027645,2753.4,-9.0005e-05,-0.0071277,-9.3713e-05,-27.865,0.75062
28631,12.414,3.4545,0.1,0.00027489,2747,0.0002744,2732.6,-8.9296e-05,-0.0072709,-9.3098e-05,-28.571,0.76067
28632,12.322,3.7273,0.1,0.00027683,2766.4,0.00027631,2751.3,-8.9872e-05,-0.0071691,-9.3845e-05,-29.865,0.7504
28633,12.414,3.6364,0.1,0.00027479,2746,0.00027426,2730.6,-8.9161e-05,-0.0069106,-9.3233e-05,-30.602,0.76049
28634,12.322,3.9091,0.1,0.00027669,2764.9,0.00027613,2748.8,-8.9713e-05,-0.0077178,-9.3981e-05,-32.078,0.75012
28635,12.414,3.8182,0.1,0.00027464,2744.5,0.00027407,2727.9,-8.8993e-05,-0.0070919,-9.3383e-05,-32.993,0.76024
28636,12.322,4.0909,0.1,0.00027649,2763,0.00027589,2745.7,-8.9539e-05,-0.0087507,-9.4099e-05,-34.272,0.74978
28637,12.414,4,0.1,0.00027444,2742.5,0.00027382,2724.6,-8.8801e-05,-0.0079083,-9.3525e-05,-35.497,0.75993
28638,12.322,4.2727,0.1,0.00027623,2760.4,0.0002756,2742.1,-8.9358e-05,-0.010093,-9.4174e-05,-36.195,0.74938
28639,12.414,4.1818,0.1,0.00027417,2739.8,0.00027351,2720.7,-8.8596e-05,-0.009248,-9.3632e-05,-37.844,0.75956
28640,12.322,4.4545,0.1,0.00027591,2757.2,0.00027525,2738.2,-8.9182e-05,-0.011459,-9.4184e-05,-37.595,0.74892
28641,12.414,4.3636,0.1,0.00027383,2736.4,0.00027314,2716.4,-8.839e-05,-0.010849,-9.3679e-05,-39.751,0.75913
28642,12.322,4.6364,0.1,0.00027552,2753.3,0.00027485,2734,-8.9021e-05,-0.012498,-9.4109e-05,-38.235,0.74839
28643,12.414,4.5455,0.1,0.00027342,2732.3,0.0002727,2711.6,-8.8194e-05,-0.01234,-9.3642e-05,-40.946,0.75864
28644,12.322,4.8182,0.1,0.00027506,2748.7,0.00027439,2729.5,-8.8886e-05,-0.012741,-9.393e-05,-37.91,0.7478
28645,12.414,4.7273,0.1,0.00027293,2727.4,0.00027221,2706.6,-8.8021e-05,-0.013315,-9.35e-05,-41.181,0.75809
28646,12.322,5,0.1,0.00027453,2743.4,0.00027389,2725,-8.8785e-05,-0.011828,-9.3636e-05,-36.46,0.74715
28647,12.414,4.9091,0.1,0.00027237,2721.8,0.00027166,2701.4,-8.7881e-05,-0.013141,-9.3236e-05,-40.252,0.75747
28648,12.322,5.1818,0.1,0.00027395,2737.6,0.00027336,2720.6,-8.8726e-05,-0.0083431,-9.3221e-05,-33.778,0.74644
28649,12.414,5.0909,0.1,0.00027173,2715.5,0.00027107,2696.3,-8.7784e-05,-0.011642,-9.2841e-05,-38.009,0.75679
28650,12.322,5.3636,0.1,0.00027333,2731.4,0.00027281,2716.3,-8.8716e-05,-0.0039211,-9.2686e-05,-29.828,0.74566
28651,12.414,5.2727,0.1,0.00027105,2708.6,0.00027045,2691.3,-8.7739e-05,-0.0058454,-9.2312e-05,-34.37,0.75605
28652,12.322,5.5455,0.1,0.00027268,2724.9,0.00027225,2712.5,-8.8759e-05,0.019516,-9.2043e-05,-24.653,0.74483
28653,12.414,5.4545,0.1,0.00027033,2701.4,0.00026981,2686.6,-8.7751e-05,-0.0020949,-9.1654e-05,-29.331,0.75525
28654,12.322,5.7273,0.1,0.0002721,2719.1,0.00027177,2709.7,-8.8859e-05,0.032978,-9.136e-05,-18.76,0.74393
28655,12.414,5.6364,0.1,0.0002696,2694.1,0.0002692,2682.5,-8.7822e-05,0.045878,-9.0887e-05,-22.984,0.75439
28656,12.414,5.8182,0.1,0.00026901,2688.2,0.00026872,2680,-8.7962e-05,0.024807,-9.0132e-05,-16.279,0.75347
28657,12.322,5.9091,0.1,0.00027116,2709.8,0.000271,2704.9,-8.9001e-05,0.0032268,-9.0297e-05,-9.7395,0.74298
28658,12.506,0.27273,0.1,0.00026649,2663,0.00026614,2652.8,-8.6925e-05,0.038925,-8.9647e-05,-20.415,0.76399
28659,12.598,0.18182,0.1,0.00026323,2630.4,0.00026293,2621.8,-8.6006e-05,0.03316,-8.8306e-05,-17.251,0.77363
28660,12.506,0.090909,0.1,0.00026544,2652.5,0.00026526,2647.4,-8.7089e-05,0.0039741,-8.8445e-05,-10.188,0.76305
28661,12.506,0.45455,0.1,0.00026724,2670.5,0.00026676,2656.6,-8.6814e-05,0.021869,-9.0495e-05,-27.635,0.76488
28662,12.598,0.36364,0.1,0.000264,2638.2,0.00026355,2625.3,-8.5847e-05,0.052731,-8.9253e-05,-25.537,0.77454
28663,12.506,0.63636,0.1,0.00026805,2678.6,0.00026745,2661.5,-8.6773e-05,-0.00521,-9.1278e-05,-33.855,0.7657
28664,12.598,0.54545,0.1,0.00026491,2647.2,0.00026433,2630.5,-8.5773e-05,-0.0034002,-9.0183e-05,-33.141,0.77539
28665,12.506,0.81818,0.1,0.00026883,2686.5,0.00026815,2666.9,-8.6797e-05,-0.009773,-9.1931e-05,-38.586,0.76647
28666,12.598,0.72727,0.1,0.00026581,2656.2,0.00026512,2636.4,-8.5771e-05,-0.0070812,-9.098e-05,-39.149,0.77618
28667,12.506,1,0.1,0.00026957,2693.8,0.00026883,2672.7,-8.688e-05,-0.013316,-9.244e-05,-41.789,0.76717
28668,12.598,0.90909,0.1,0.00026667,2664.8,0.0002659,2642.8,-8.584e-05,-0.013236,-9.1624e-05,-43.472,0.77691
28669,12.506,1.1818,0.1,0.00027024,2700.5,0.00026947,2678.5,-8.7016e-05,-0.013927,-9.2805e-05,-43.512,0.76782
28670,12.598,1.0909,0.1,0.00026747,2672.8,0.00026665,2649.5,-8.5971e-05,-0.014441,-9.2108e-05,-46.122,0.77758
28671,12.506,1.3636,0.1,0.00027083,2706.5,0.00027006,2684.2,-8.7194e-05,-0.013273,-9.3032e-05,-43.882,0.7684
28672,12.598,1.2727,0.1,0.00026819,2680.1,0.00026736,2656.1,-8.6156e-05,-0.014194,-9.2436e-05,-47.199,0.77819
28673,12.506,1.5455,0.1,0.00027134,2711.6,0.00027059,2689.8,-8.7402e-05,-0.011779,-9.3135e-05,-43.093,0.76892
28674,12.598,1.4545,0.1,0.00026882,2686.4,0.000268,2662.6,-8.6381e-05,-0.012698,-9.2618e-05,-46.882,0.77874
28675,12.506,1.7273,0.1,0.00027177,2715.9,0.00027104,2694.9,-8.7628e-05,-0.010002,-9.3135e-05,-41.391,0.76938
28676,12.598,1.6364,0.1,0.00026937,2691.8,0.00026856,2668.8,-8.6632e-05,-0.010701,-9.2675e-05,-45.414,0.77923
28677,12.506,1.9091,0.1,0.00027212,2719.3,0.00027143,2699.6,-8.7859e-05,-0.0083683,-9.3056e-05,-39.059,0.76978
28678,12.598,1.8182,0.1,0.00026981,2696.3,0.00026906,2674.5,-8.6897e-05,-0.0086908,-9.263e-05,-43.091,0.77965
28679,12.506,2.0909,0.1,0.00027239,2722,0.00027176,2703.7,-8.8081e-05,-0.0072282,-9.2925e-05,-36.401,0.77011
28680,12.598,2,0.1,0.00027018,2699.9,0.00026947,2679.5,-8.7158e-05,-0.0071301,-9.2513e-05,-40.241,0.78002
28681,12.506,2.2727,0.1,0.0002726,2724.1,0.00027201,2707.1,-8.8283e-05,-0.0067907,-9.277e-05,-33.719,0.77039
28682,12.598,2.1818,0.1,0.00027046,2702.7,0.00026981,2683.9,-8.7402e-05,-0.006342,-9.2353e-05,-37.201,0.78032
28683,12.506,2.4545,0.1,0.00027275,2725.6,0.0002722,2709.8,-8.8453e-05,-0.0070585,-9.2617e-05,-31.297,0.7706
28684,12.598,2.3636,0.1,0.00027067,2704.8,0.00027007,2687.5,-8.7616e-05,-0.0064558,-9.2181e-05,-34.302,0.78057
28685,12.506,2.6364,0.1,0.00027285,2726.6,0.00027233,2711.8,-8.8581e-05,-0.007783,-9.249e-05,-29.376,0.77076
28686,12.598,2.5455,0.1,0.00027081,2706.3,0.00027026,2690.2,-8.7788e-05,-0.0073095,-9.2024e-05,-31.837,0.78075
28687,12.506,2.8182,0.1,0.0002729,2727.1,0.00027241,2713,-8.8661e-05,-0.0085213,-9.2406e-05,-28.146,0.77085
28688,12.598,2.7273,0.1,0.00027091,2707.2,0.00027038,2692.1,-8.7908e-05,-0.0084379,-9.1906e-05,-30.051,0.78087
28689,12.506,3,0.1,0.00027292,2727.3,0.00027244,2713.4,-8.8688e-05,-0.0088299,-9.2376e-05,-27.722,0.77088
28690,12.598,2.9091,0.1,0.00027095,2707.7,0.00027045,2693,-8.7969e-05,-0.0092264,-9.1843e-05,-29.113,0.78093
28691,12.506,3.1818,0.1,0.0002729,2727.1,0.00027241,2713,-8.8661e-05,-0.0085211,-9.2406e-05,-28.146,0.77085
28692,12.598,3.0909,0.1,0.00027095,2707.7,0.00027045,2693,-8.7969e-05,-0.0092264,-9.1843e-05,-29.113,0.78093
28693,12.506,3.3636,0.1,0.00027285,2726.6,0.00027233,2711.8,-8.8581e-05,-0.0077832,-9.249e-05,-29.376,0.77076
28694,12.598,3.2727,0.1,0.00027091,2707.2,0.00027038,2692.1,-8.7908e-05,-0.0084382,-9.1906e-05,-30.051,0.78087
28695,12.506,3.5455,0.1,0.00027275,2725.6,0.0002722,2709.8,-8.8453e-05,-0.0070583,-9.2617e-05,-31.297,0.7706
28696,12.598,3.4545,0.1,0.00027081,2706.3,0.00027026,2690.2,-8.7788e-05,-0.0073096,-9.2024e-05,-31.837,0.78075
28697,12.506,3.7273,0.1,0.0002726,2724.1,0.00027201,2707.1,-8.8283e-05,-0.0067904,-9.277e-05,-33.719,0.77039
28698,12.598,3.6364,0.1,0.00027067,2704.8,0.00027007,2687.5,-8.7616e-05,-0.0064553,-9.2181e-05,-34.301,0.78057
28699,12.506,3.9091,0.1,0.00027239,2722,0.00027176,2703.7,-8.8081e-05,-0.0072279,-9.2925e-05,-36.401,0.77011
28700,12.598,3.8182,0.1,0.00027046,2702.7,0.00026981,2683.9,-8.7402e-05,-0.0063419,-9.2353e-05,-37.201,0.78032
28701,12.506,4.0909,0.1,0.00027212,2719.3,0.00027143,2699.6,-8.7859e-05,-0.008368,-9.3056e-05,-39.059,0.76978
28702,12.598,4,0.1,0.00027018,2699.9,0.00026947,2679.5,-8.7158e-05,-0.0071293,-9.2513e-05,-40.241,0.78002
28703,12.506,4.2727,0.1,0.00027177,2715.9,0.00027104,2694.9,-8.7628e-05,-0.010002,-9.3135e-05,-41.391,0.76938
28704,12.598,4.1818,0.1,0.00026981,2696.3,0.00026906,2674.5,-8.6897e-05,-0.0086909,-9.263e-05,-43.091,0.77965
28705,12.506,4.4545,0.1,0.00027134,2711.6,0.00027059,2689.8,-8.7402e-05,-0.011778,-9.3135e-05,-43.093,0.76892
28706,12.598,4.3636,0.1,0.00026937,2691.8,0.00026856,2668.8,-8.6632e-05,-0.0107,-9.2675e-05,-45.414,0.77923
28707,12.506,4.6364,0.1,0.00027083,2706.5,0.00027006,2684.2,-8.7194e-05,-0.013273,-9.3032e-05,-43.882,0.7684
28708,12.598,4.5455,0.1,0.00026882,2686.4,0.000268,2662.6,-8.6381e-05,-0.012698,-9.2618e-05,-46.882,0.77874
28709,12.506,4.8182,0.1,0.00027024,2700.5,0.00026947,2678.5,-8.7016e-05,-0.013926,-9.2805e-05,-43.512,0.76782
28710,12.598,4.7273,0.1,0.00026819,2680.1,0.00026736,2656.1,-8.6156e-05,-0.014194,-9.2436e-05,-47.199,0.77819
28711,12.506,5,0.1,0.00026957,2693.8,0.00026883,2672.7,-8.688e-05,-0.013315,-9.244e-05,-41.789,0.76717
28712,12.598,4.9091,0.1,0.00026747,2672.8,0.00026665,2649.5,-8.5971e-05,-0.01444,-9.2108e-05,-46.122,0.77758
28713,12.506,5.1818,0.1,0.00026883,2686.5,0.00026815,2666.9,-8.6797e-05,-0.0097712,-9.1931e-05,-38.586,0.76647
28714,12.598,5.0909,0.1,0.00026667,2664.8,0.0002659,2642.8,-8.584e-05,-0.013235,-9.1624e-05,-43.472,0.77691
28715,12.506,5.3636,0.1,0.00026805,2678.6,0.00026745,2661.5,-8.6773e-05,-0.0052085,-9.1278e-05,-33.855,0.7657
28716,12.598,5.2727,0.1,0.00026581,2656.2,0.00026512,2636.4,-8.5771e-05,-0.0070792,-9.098e-05,-39.149,0.77618
28717,12.506,5.5455,0.1,0.00026724,2670.5,0.00026676,2656.6,-8.6814e-05,0.02187,-9.0495e-05,-27.635,0.76488
28718,12.598,5.4545,0.1,0.00026491,2647.2,0.00026433,2630.5,-8.5773e-05,-0.0033993,-9.0183e-05,-33.141,0.77539
28719,12.506,5.7273,0.1,0.00026649,2663,0.00026614,2652.8,-8.6925e-05,0.038925,-8.9647e-05,-20.415,0.76399
28720,12.598,5.6364,0.1,0.000264,2638.2,0.00026355,2625.3,-8.5847e-05,0.052731,-8.9253e-05,-25.537,0.77454
28721,12.598,5.8182,0.1,0.00026323,2630.4,0.00026293,2621.8,-8.6006e-05,0.03316,-8.8306e-05,-17.251,0.77363
28722,12.506,5.9091,0.1,0.00026544,2652.5,0.00026526,2647.4,-8.7089e-05,0.0039742,-8.8445e-05,-10.188,0.76305
28723,12.69,0.27273,0.1,0.00026072,2605.4,0.00026034,2594.2,-8.4928e-05,0.045666,-8.79e-05,-22.283,0.78424
28724,12.782,0.18182,0.1,0.00025725,2570.7,0.00025693,2561.5,-8.3978e-05,0.04351,-8.6425e-05,-18.34,0.79397
28725,12.69,0.090909,0.1,0.00025954,2593.6,0.00025935,2588.2,-8.5117e-05,0.0049399,-8.6539e-05,-10.682,0.7833
28726,12.69,0.45455,0.1,0.00026166,2614.8,0.00026112,2599.2,-8.4806e-05,0.024412,-8.8937e-05,-31.016,0.78511
28727,12.782,0.36364,0.1,0.00025823,2580.6,0.00025774,2566.3,-8.38e-05,0.060354,-8.7593e-05,-28.435,0.79487
28728,12.69,0.63636,0.1,0.00026267,2624.8,0.00026199,2605.4,-8.477e-05,-0.0067018,-8.9883e-05,-38.417,0.78593
28729,12.782,0.54545,0.1,0.00025935,2591.8,0.0002587,2572.8,-8.3725e-05,-0.0049869,-8.871e-05,-37.464,0.79571
28730,12.69,0.81818,0.1,0.00026364,2634.6,0.00026287,2612.3,-8.4814e-05,-0.011285,-9.0671e-05,-44.022,0.78668
28731,12.782,0.72727,0.1,0.00026047,2602.9,0.00025968,2580.3,-8.3738e-05,-0.0084024,-8.9668e-05,-44.564,0.79649
28732,12.69,1,0.1,0.00026457,2643.9,0.00026372,2619.6,-8.4931e-05,-0.014783,-9.129e-05,-47.796,0.78738
28733,12.782,0.90909,0.1,0.00026154,2613.6,0.00026066,2588.4,-8.3839e-05,-0.014831,-9.0445e-05,-49.652,0.79721
28734,12.69,1.1818,0.1,0.00026542,2652.4,0.00026454,2627.1,-8.5111e-05,-0.014954,-9.1737e-05,-49.802,0.78802
28735,12.782,1.0909,0.1,0.00026255,2623.7,0.00026161,2596.9,-8.4016e-05,-0.015585,-9.1034e-05,-52.745,0.79787
28736,12.69,1.3636,0.1,0.00026618,2660,0.00026529,2634.5,-8.5343e-05,-0.013752,-9.2021e-05,-50.192,0.78859
28737,12.782,1.2727,0.1,0.00026346,2632.8,0.0002625,2605.4,-8.4257e-05,-0.014762,-9.1437e-05,-53.965,0.79848
28738,12.69,1.5455,0.1,0.00026684,2666.6,0.00026597,2641.7,-8.5611e-05,-0.011672,-9.2157e-05,-49.196,0.78911
28739,12.782,1.4545,0.1,0.00026428,2640.9,0.00026333,2613.8,-8.4548e-05,-0.012589,-9.167e-05,-53.523,0.79902
28740,12.69,1.7273,0.1,0.00026741,2672.2,0.00026657,2648.3,-8.5901e-05,-0.0093792,-9.217e-05,-47.107,0.78956
28741,12.782,1.6364,0.1,0.00026498,2648,0.00026406,2621.7,-8.4871e-05,-0.0099463,-9.1751e-05,-51.707,0.7995
28742,12.69,1.9091,0.1,0.00026787,2676.8,0.00026709,2654.4,-8.6196e-05,-0.007397,-9.2086e-05,-44.265,0.78996
28743,12.782,1.8182,0.1,0.00026557,2653.9,0.00026471,2629.1,-8.5208e-05,-0.0074309,-9.1711e-05,-48.867,0.79992
28744,12.69,2.0909,0.1,0.00026824,2680.5,0.00026752,2659.8,-8.6479e-05,-0.0061663,-9.194e-05,-41.032,0.79029
28745,12.782,2,0.1,0.00026606,2658.7,0.00026526,2635.8,-8.5541e-05,-0.0056208,-9.1583e-05,-45.397,0.80029
28746,12.69,2.2727,0.1,0.00026852,2683.4,0.00026786,2664.3,-8.6736e-05,-0.0059465,-9.1762e-05,-37.774,0.79056
28747,12.782,2.1818,0.1,0.00026644,2662.6,0.00026571,2641.5,-8.5852e-05,-0.0049338,-9.1402e-05,-41.702,0.80059
28748,12.69,2.4545,0.1,0.00026873,2685.5,0.00026812,2667.9,-8.6952e-05,-0.0067162,-9.1586e-05,-34.832,0.79077
28749,12.782,2.3636,0.1,0.00026673,2665.5,0.00026606,2646.2,-8.6124e-05,-0.0055278,-9.1205e-05,-38.181,0.80083
28750,12.69,2.6364,0.1,0.00026887,2686.9,0.00026831,2670.5,-8.7115e-05,-0.0080901,-9.1439e-05,-32.501,0.79092
28751,12.782,2.5455,0.1,0.00026694,2667.5,0.00026632,2649.8,-8.6341e-05,-0.0071503,-9.1024e-05,-35.189,0.80101
28752,12.69,2.8182,0.1,0.00026896,2687.7,0.00026842,2672.1,-8.7216e-05,-0.0093865,-9.1342e-05,-31.007,0.79101
28753,12.782,2.7273,0.1,0.00026707,2668.9,0.00026649,2652.2,-8.6494e-05,-0.0090963,-9.0887e-05,-33.021,0.80113
28754,12.69,3,0.1,0.00026898,2688,0.00026845,2672.6,-8.7251e-05,-0.0099171,-9.1308e-05,-30.492,0.79104
28755,12.782,2.9091,0.1,0.00026714,2669.5,0.00026658,2653.4,-8.6572e-05,-0.01042,-9.0814e-05,-31.883,0.80119
28756,12.69,3.1818,0.1,0.00026896,2687.7,0.00026842,2672.1,-8.7216e-05,-0.0093869,-9.1342e-05,-31.007,0.79101
28757,12.782,3.0909,0.1,0.00026714,2669.5,0.00026658,2653.4,-8.6572e-05,-0.010419,-9.0814e-05,-31.883,0.80119
28758,12.69,3.3636,0.1,0.00026887,2686.9,0.00026831,2670.5,-8.7115e-05,-0.0080902,-9.1439e-05,-32.501,0.79092
28759,12.782,3.2727,0.1,0.00026707,2668.9,0.00026649,2652.2,-8.6494e-05,-0.0090969,-9.0887e-05,-33.021,0.80113
28760,12.69,3.5455,0.1,0.00026873,2685.5,0.00026812,2667.9,-8.6952e-05,-0.0067159,-9.1586e-05,-34.832,0.79077
28761,12.782,3.4545,0.1,0.00026694,2667.5,0.00026632,2649.8,-8.6341e-05,-0.0071505,-9.1024e-05,-35.189,0.80101
28762,12.69,3.7273,0.1,0.00026852,2683.4,0.00026786,2664.3,-8.6736e-05,-0.0059461,-9.1762e-05,-37.774,0.79056
28763,12.782,3.6364,0.1,0.00026673,2665.5,0.00026606,2646.2,-8.6124e-05,-0.0055272,-9.1205e-05,-38.181,0.80083
28764,12.69,3.9091,0.1,0.00026824,2680.5,0.00026752,2659.8,-8.6479e-05,-0.0061656,-9.194e-05,-41.032,0.79029
28765,12.782,3.8182,0.1,0.00026644,2662.6,0.00026571,2641.5,-8.5852e-05,-0.0049333,-9.1402e-05,-41.702,0.80059
28766,12.69,4.0909,0.1,0.00026787,2676.8,0.00026709,2654.4,-8.6196e-05,-0.0073966,-9.2086e-05,-44.265,0.78996
28767,12.782,4,0.1,0.00026606,2658.7,0.00026526,2635.8,-8.5541e-05,-0.0056202,-9.1583e-05,-45.397,0.80029
28768,12.69,4.2727,0.1,0.00026741,2672.2,0.00026657,2648.3,-8.5901e-05,-0.009379,-9.217e-05,-47.107,0.78956
28769,12.782,4.1818,0.1,0.00026557,2653.9,0.00026471,2629.1,-8.5208e-05,-0.0074309,-9.1711e-05,-48.867,0.79992
28770,12.69,4.4545,0.1,0.00026684,2666.6,0.00026597,2641.7,-8.5611e-05,-0.011672,-9.2157e-05,-49.196,0.78911
28771,12.782,4.3636,0.1,0.00026498,2648,0.00026406,2621.7,-8.4871e-05,-0.0099459,-9.1751e-05,-51.707,0.7995
28772,12.69,4.6364,0.1,0.00026618,2660,0.00026529,2634.5,-8.5343e-05,-0.013752,-9.2021e-05,-50.192,0.78859
28773,12.782,4.5455,0.1,0.00026428,2640.9,0.00026333,2613.8,-8.4548e-05,-0.012589,-9.167e-05,-53.523,0.79902
28774,12.69,4.8182,0.1,0.00026542,2652.4,0.00026454,2627.1,-8.5111e-05,-0.014953,-9.1737e-05,-49.802,0.78802
28775,12.782,4.7273,0.1,0.00026346,2632.8,0.0002625,2605.4,-8.4257e-05,-0.014762,-9.1437e-05,-53.965,0.79848
28776,12.69,5,0.1,0.00026457,2643.9,0.00026372,2619.6,-8.4931e-05,-0.014782,-9.129e-05,-47.796,0.78738
28777,12.782,4.9091,0.1,0.00026255,2623.7,0.00026161,2596.9,-8.4016e-05,-0.015584,-9.1034e-05,-52.745,0.79787
28778,12.69,5.1818,0.1,0.00026364,2634.6,0.00026287,2612.3,-8.4814e-05,-0.011284,-9.0671e-05,-44.022,0.78668
28779,12.782,5.0909,0.1,0.00026154,2613.6,0.00026066,2588.4,-8.3839e-05,-0.01483,-9.0445e-05,-49.652,0.79721
28780,12.69,5.3636,0.1,0.00026267,2624.8,0.00026199,2605.4,-8.477e-05,-0.0067004,-8.9883e-05,-38.417,0.78593
28781,12.782,5.2727,0.1,0.00026047,2602.9,0.00025968,2580.3,-8.3738e-05,-0.0084011,-8.9668e-05,-44.564,0.79649
28782,12.69,5.5455,0.1,0.00026166,2614.8,0.00026112,2599.2,-8.4806e-05,0.024412,-8.8937e-05,-31.016,0.78511
28783,12.782,5.4545,0.1,0.00025935,2591.8,0.0002587,2572.8,-8.3725e-05,-0.0049856,-8.871e-05,-37.464,0.79571
28784,12.69,5.7273,0.1,0.00026072,2605.4,0.00026034,2594.2,-8.4928e-05,0.045666,-8.79e-05,-22.283,0.78424
28785,12.782,5.6364,0.1,0.00025823,2580.6,0.00025774,2566.3,-8.38e-05,0.060354,-8.7592e-05,-28.435,0.79487
28786,12.782,5.8182,0.1,0.00025725,2570.7,0.00025693,2561.5,-8.3978e-05,0.04351,-8.6425e-05,-18.34,0.79397
28787,12.69,5.9091,0.1,0.00025954,2593.6,0.00025935,2588.2,-8.5117e-05,0.0049404,-8.6539e-05,-10.682,0.7833
28788,12.874,0.27273,0.1,0.00025475,2545.7,0.00025433,2533.5,-8.2851e-05,0.053159,-8.6106e-05,-24.399,0.80465
28789,12.966,0.18182,0.1,0.00025102,2508.5,0.00025068,2498.7,-8.1861e-05,0.055905,-8.4473e-05,-19.569,0.81448
28790,12.874,0.090909,0.1,0.00025341,2532.3,0.00025321,2526.7,-8.3067e-05,0.0061742,-8.4563e-05,-11.232,0.80373
28791,12.874,0.45455,0.1,0.00025592,2557.4,0.00025531,2539.9,-8.2719e-05,0.027136,-8.7362e-05,-34.857,0.80552
28792,12.966,0.36364,0.1,0.00025226,2520.8,0.0002517,2504.9,-8.1663e-05,0.06872,-8.5895e-05,-31.728,0.81536
28793,12.874,0.63636,0.1,0.00025715,2569.8,0.00025638,2547.7,-8.2693e-05,-0.0083948,-8.8494e-05,-43.597,0.80633
28794,12.966,0.54545,0.1,0.00025363,2534.5,0.00025288,2513.1,-8.1589e-05,-0.0069195,-8.7228e-05,-42.377,0.8162
28795,12.874,0.81818,0.1,0.00025836,2581.9,0.00025747,2556.4,-8.2764e-05,-0.012819,-8.9441e-05,-50.185,0.80707
28796,12.966,0.72727,0.1,0.000255,2548.2,0.0002541,2522.5,-8.1625e-05,-0.0097897,-8.8373e-05,-50.711,0.81697
28797,12.874,1,0.1,0.00025952,2593.4,0.00025855,2565.7,-8.2924e-05,-0.016127,-9.0188e-05,-54.595,0.80776
28798,12.966,0.90909,0.1,0.00025633,2561.5,0.00025532,2532.7,-8.1767e-05,-0.016354,-8.9306e-05,-56.659,0.81769
28799,12.874,1.1818,0.1,0.00026059,2604.1,0.00025958,2575.2,-8.3162e-05,-0.01568,-9.0733e-05,-56.904,0.80839
28800,12.966,1.0909,0.1,0.00025758,2574.1,0.00025651,2543.4,-8.2002e-05,-0.016455,-9.0019e-05,-60.247,0.81834
28801,12.874,1.3636,0.1,0.00026156,2613.8,0.00026054,2584.7,-8.3462e-05,-0.013755,-9.1086e-05,-57.292,0.80896
28802,12.966,1.2727,0.1,0.00025874,2585.6,0.00025764,2554.3,-8.2316e-05,-0.014859,-9.0515e-05,-61.615,0.81894
28803,12.874,1.5455,0.1,0.00026241,2622.3,0.00026142,2593.9,-8.3807e-05,-0.010922,-9.1263e-05,-56.03,0.80947
28804,12.966,1.4545,0.1,0.00025978,2596.1,0.00025869,2565,-8.269e-05,-0.011813,-9.0808e-05,-61.009,0.81948
28805,12.874,1.7273,0.1,0.00026315,2629.7,0.0002622,2602.5,-8.4178e-05,-0.0079798,-9.1292e-05,-53.463,0.80992
28806,12.966,1.6364,0.1,0.0002607,2605.2,0.00025965,2575.3,-8.3103e-05,-0.008349,-9.0923e-05,-58.765,0.81996
28807,12.874,1.9091,0.1,0.00026376,2635.8,0.00026288,2610.4,-8.4554e-05,-0.0055777,-9.1207e-05,-49.994,0.81031
28808,12.966,1.8182,0.1,0.00026147,2612.9,0.00026049,2584.8,-8.3533e-05,-0.0052017,-9.0892e-05,-55.299,0.82037
28809,12.874,2.0909,0.1,0.00026426,2640.8,0.00026344,2617.4,-8.4914e-05,-0.0042816,-9.1044e-05,-46.061,0.81064
28810,12.966,2,0.1,0.00026212,2619.4,0.00026121,2593.5,-8.3957e-05,-0.0031073,-9.0754e-05,-51.078,0.82073
28811,12.874,2.2727,0.1,0.00026465,2644.6,0.00026391,2623.3,-8.524e-05,-0.0044312,-9.0843e-05,-42.102,0.81091
28812,12.966,2.1818,0.1,0.00026263,2624.5,0.00026181,2600.9,-8.4351e-05,-0.0026216,-9.0552e-05,-46.591,0.82103
28813,12.874,2.4545,0.1,0.00026494,2647.5,0.00026426,2628,-8.5514e-05,-0.0059784,-9.0641e-05,-38.53,0.81112
28814,12.966,2.3636,0.1,0.00026303,2628.5,0.00026228,2607.1,-8.4696e-05,-0.0039562,-9.0327e-05,-42.317,0.82127
28815,12.874,2.6364,0.1,0.00026513,2649.5,0.00026451,2631.5,-8.572e-05,-0.0083469,-9.0471e-05,-35.7,0.81127
28816,12.966,2.5455,0.1,0.00026332,2631.4,0.00026264,2611.8,-8.4972e-05,-0.0067417,-9.012e-05,-38.689,0.82145
28817,12.874,2.8182,0.1,0.00026525,2650.7,0.00026466,2633.6,-8.5849e-05,-0.010501,-9.0358e-05,-33.887,0.81136
28818,12.966,2.7273,0.1,0.0002635,2633.2,0.00026287,2615,-8.5164e-05,-0.009927,-8.9962e-05,-36.06,0.82157
28819,12.874,3,0.1,0.00026529,2651,0.00026471,2634.2,-8.5893e-05,-0.011373,-9.0318e-05,-33.263,0.81139
28820,12.966,2.9091,0.1,0.00026359,2634.1,0.00026299,2616.6,-8.5264e-05,-0.012065,-8.9878e-05,-34.68,0.82162
28821,12.874,3.1818,0.1,0.00026525,2650.7,0.00026466,2633.6,-8.5849e-05,-0.010501,-9.0358e-05,-33.887,0.81136
28822,12.966,3.0909,0.1,0.00026359,2634.1,0.00026299,2616.6,-8.5264e-05,-0.012065,-8.9878e-05,-34.68,0.82162
28823,12.874,3.3636,0.1,0.00026513,2649.5,0.00026451,2631.5,-8.572e-05,-0.0083474,-9.0471e-05,-35.7,0.81127
28824,12.966,3.2727,0.1,0.0002635,2633.2,0.00026287,2615,-8.5164e-05,-0.0099272,-8.9962e-05,-36.06,0.82157
28825,12.874,3.5455,0.1,0.00026494,2647.5,0.00026426,2628,-8.5514e-05,-0.0059782,-9.0641e-05,-38.53,0.81112
28826,12.966,3.4545,0.1,0.00026332,2631.4,0.00026264,2611.8,-8.4972e-05,-0.0067419,-9.012e-05,-38.689,0.82145
28827,12.874,3.7273,0.1,0.00026465,2644.6,0.00026391,2623.3,-8.524e-05,-0.0044304,-9.0843e-05,-42.102,0.81091
28828,12.966,3.6364,0.1,0.00026303,2628.5,0.00026228,2607.1,-8.4696e-05,-0.0039558,-9.0327e-05,-42.317,0.82127
28829,12.874,3.9091,0.1,0.00026426,2640.8,0.00026344,2617.4,-8.4914e-05,-0.0042811,-9.1044e-05,-46.061,0.81064
28830,12.966,3.8182,0.1,0.00026263,2624.5,0.00026181,2600.9,-8.4351e-05,-0.0026212,-9.0552e-05,-46.591,0.82103
28831,12.874,4.0909,0.1,0.00026376,2635.8,0.00026288,2610.4,-8.4554e-05,-0.0055775,-9.1207e-05,-49.994,0.81031
28832,12.966,4,0.1,0.00026212,2619.4,0.00026121,2593.5,-8.3957e-05,-0.0031069,-9.0754e-05,-51.078,0.82073
28833,12.874,4.2727,0.1,0.00026315,2629.7,0.0002622,2602.5,-8.4178e-05,-0.0079797,-9.1292e-05,-53.463,0.80992
28834,12.966,4.1818,0.1,0.00026147,2612.9,0.00026049,2584.8,-8.3533e-05,-0.0052014,-9.0892e-05,-55.299,0.82037
28835,12.874,4.4545,0.1,0.00026241,2622.3,0.00026142,2593.9,-8.3807e-05,-0.010922,-9.1263e-05,-56.03,0.80947
28836,12.966,4.3636,0.1,0.0002607,2605.2,0.00025965,2575.3,-8.3103e-05,-0.0083487,-9.0923e-05,-58.765,0.81996
28837,12.874,4.6364,0.1,0.00026156,2613.8,0.00026054,2584.7,-8.3462e-05,-0.013754,-9.1086e-05,-57.292,0.80896
28838,12.966,4.5455,0.1,0.00025978,2596.1,0.00025869,2565,-8.269e-05,-0.011813,-9.0808e-05,-61.009,0.81948
28839,12.874,4.8182,0.1,0.00026059,2604.1,0.00025958,2575.2,-8.3162e-05,-0.01568,-9.0733e-05,-56.904,0.80839
28840,12.966,4.7273,0.1,0.00025874,2585.6,0.00025764,2554.3,-8.2316e-05,-0.014859,-9.0515e-05,-61.615,0.81894
28841,12.874,5,0.1,0.00025952,2593.4,0.00025855,2565.7,-8.2924e-05,-0.016126,-9.0188e-05,-54.595,0.80776
28842,12.966,4.9091,0.1,0.00025758,2574.1,0.00025651,2543.4,-8.2002e-05,-0.016454,-9.0019e-05,-60.247,0.81834
28843,12.874,5.1818,0.1,0.00025836,2581.9,0.00025747,2556.4,-8.2763e-05,-0.012818,-8.9441e-05,-50.185,0.80707
28844,12.966,5.0909,0.1,0.00025633,2561.5,0.00025532,2532.7,-8.1767e-05,-0.016353,-8.9306e-05,-56.659,0.81769
28845,12.874,5.3636,0.1,0.00025715,2569.8,0.00025638,2547.7,-8.2693e-05,-0.0083935,-8.8494e-05,-43.597,0.80633
28846,12.966,5.2727,0.1,0.000255,2548.2,0.0002541,2522.5,-8.1625e-05,-0.0097886,-8.8373e-05,-50.711,0.81697
28847,12.874,5.5455,0.1,0.00025592,2557.4,0.00025531,2539.9,-8.2719e-05,0.027137,-8.7362e-05,-34.857,0.80552
28848,12.966,5.4545,0.1,0.00025363,2534.5,0.00025288,2513.1,-8.1589e-05,-0.0069187,-8.7228e-05,-42.377,0.8162
28849,12.874,5.7273,0.1,0.00025475,2545.7,0.00025433,2533.5,-8.2851e-05,0.05316,-8.6106e-05,-24.399,0.80465
28850,12.966,5.6364,0.1,0.00025226,2520.8,0.0002517,2504.9,-8.1663e-05,0.06872,-8.5895e-05,-31.728,0.81536
28851,12.966,5.8182,0.1,0.00025102,2508.5,0.00025068,2498.7,-8.1861e-05,0.055905,-8.4473e-05,-19.569,0.81448
28852,12.874,5.9091,0.1,0.00025341,2532.3,0.00025321,2526.7,-8.3067e-05,0.006174,-8.4563e-05,-11.232,0.80373
28853,13.057,0.27273,0.1,0.00024852,2483.5,0.00024805,2470,-8.0674e-05,0.061186,-8.4249e-05,-26.802,0.82524
28854,13.149,0.18182,0.1,0.00024448,2443.1,0.00024412,2432.6,-7.9631e-05,0.070144,-8.2431e-05,-20.962,0.83515
28855,13.057,0.090909,0.1,0.00024699,2468.2,0.00024679,2462.3,-8.0919e-05,0.0076514,-8.2498e-05,-11.852,0.82433
28856,13.057,0.45455,0.1,0.00024996,2497.9,0.00024927,2478,-8.0534e-05,0.02995,-8.5758e-05,-39.223,0.8261
28857,13.149,0.36364,0.1,0.00024601,2458.4,0.00024538,2440.5,-7.9412e-05,0.077749,-8.4143e-05,-35.467,0.83603
28858,13.057,0.63636,0.1,0.00025147,2512.9,0.00025059,2487.8,-8.0522e-05,-0.010337,-8.7106e-05,-49.481,0.8269
28859,13.149,0.54545,0.1,0.00024767,2475,0.00024682,2450.7,-7.9345e-05,-0.0092382,-8.5726e-05,-47.951,0.83686
28860,13.057,0.81818,0.1,0.00025296,2527.8,0.00025194,2498.8,-8.0629e-05,-0.014345,-8.8237e-05,-57.183,0.82764
28861,13.149,0.72727,0.1,0.00024935,2491.7,0.00024831,2462.4,-7.9411e-05,-0.011165,-8.7087e-05,-57.687,0.83762
28862,13.057,1,0.1,0.00025439,2542.2,0.00025328,2510.4,-8.0846e-05,-0.01726,-8.9136e-05,-62.312,0.82832
28863,13.149,0.90909,0.1,0.00025099,2508.2,0.00024983,2475.2,-7.9607e-05,-0.017658,-8.8204e-05,-64.617,0.83833
28864,13.057,1.1818,0.1,0.00025574,2555.6,0.00025457,2522.5,-8.1157e-05,-0.015971,-8.98e-05,-64.96,0.82895
28865,13.149,1.0909,0.1,0.00025256,2523.9,0.00025132,2488.8,-7.9917e-05,-0.016845,-8.9067e-05,-68.771,0.83898
28866,13.057,1.3636,0.1,0.00025697,2567.9,0.0002558,2534.6,-8.1544e-05,-0.013101,-9.0238e-05,-65.334,0.82951
28867,13.149,1.2727,0.1,0.00025402,2538.5,0.00025275,2502.6,-8.0322e-05,-0.014233,-8.9678e-05,-70.31,0.83958
28868,13.057,1.5455,0.1,0.00025807,2578.9,0.00025692,2546.4,-8.1986e-05,-0.0093091,-9.0469e-05,-63.747,0.83002
28869,13.149,1.4545,0.1,0.00025535,2551.8,0.0002541,2516.3,-8.0801e-05,-0.010071,-9.0051e-05,-69.51,0.84011
28870,13.057,1.7273,0.1,0.00025902,2588.4,0.00025794,2557.6,-8.2458e-05,-0.0055462,-9.0523e-05,-60.603,0.83046
28871,13.149,1.6364,0.1,0.00025653,2563.5,0.00025533,2529.5,-8.1327e-05,-0.0055635,-9.0212e-05,-66.76,0.84059
28872,13.057,1.9091,0.1,0.00025983,2596.5,0.00025882,2567.9,-8.2936e-05,-0.002631,-9.044e-05,-56.382,0.83085
28873,13.149,1.8182,0.1,0.00025755,2573.7,0.00025642,2541.8,-8.1873e-05,-0.0016207,-9.0198e-05,-62.547,0.841
28874,13.057,2.0909,0.1,0.00026049,2603.1,0.00025958,2576.9,-8.3394e-05,-0.0013056,-9.0262e-05,-51.605,0.83118
28875,13.149,2,0.1,0.0002584,2582.2,0.00025737,2553,-8.241e-05,0.0008042,-9.0054e-05,-57.427,0.84135
28876,13.057,2.2727,0.1,0.00026102,2608.4,0.00026019,2584.6,-8.3807e-05,-0.0020333,-9.0035e-05,-46.802,0.83144
28877,13.149,2.1818,0.1,0.00025909,2589.1,0.00025816,2562.7,-8.2911e-05,0.00095192,-8.983e-05,-51.991,0.84165
28878,13.057,2.4545,0.1,0.00026141,2612.3,0.00026066,2590.8,-8.4154e-05,-0.0047471,-8.9806e-05,-42.471,0.83165
28879,13.149,2.3636,0.1,0.00025963,2594.5,0.0002588,2570.7,-8.3347e-05,-0.0014842,-8.9578e-05,-46.817,0.84189
28880,13.057,2.6364,0.1,0.00026169,2615,0.000261,2595.3,-8.4416e-05,-0.0086061,-8.9611e-05,-39.042,0.8318
28881,13.149,2.5455,0.1,0.00026002,2598.4,0.00025927,2576.9,-8.3697e-05,-0.0059886,-8.9342e-05,-42.425,0.84206
28882,13.057,2.8182,0.1,0.00026185,2616.7,0.0002612,2598,-8.4579e-05,-0.012052,-8.9481e-05,-36.845,0.83189
28883,13.149,2.7273,0.1,0.00026028,2601,0.00025959,2581.1,-8.3941e-05,-0.011018,-8.9162e-05,-39.245,0.84218
28884,13.057,3,0.1,0.0002619,2617.2,0.00026127,2599,-8.4634e-05,-0.013442,-8.9436e-05,-36.089,0.83192
28885,13.149,2.9091,0.1,0.0002604,2602.2,0.00025974,2583.2,-8.4066e-05,-0.014377,-8.9065e-05,-37.576,0.84224
28886,13.057,3.1818,0.1,0.00026185,2616.7,0.0002612,2598,-8.4579e-05,-0.012053,-8.9481e-05,-36.845,0.83189
28887,13.149,3.0909,0.1,0.0002604,2602.2,0.00025974,2583.2,-8.4066e-05,-0.014378,-8.9065e-05,-37.576,0.84224
28888,13.057,3.3636,0.1,0.00026169,2615,0.000261,2595.3,-8.4416e-05,-0.008606,-8.9611e-05,-39.042,0.8318
28889,13.149,3.2727,0.1,0.00026028,2601,0.00025959,2581.1,-8.3941e-05,-0.011018,-8.9162e-05,-39.245,0.84218
28890,13.057,3.5455,0.1,0.00026141,2612.3,0.00026066,2590.8,-8.4154e-05,-0.004747,-8.9806e-05,-42.471,0.83165
28891,13.149,3.4545,0.1,0.00026002,2598.4,0.00025927,2576.9,-8.3697e-05,-0.0059884,-8.9342e-05,-42.425,0.84206
28892,13.057,3.7273,0.1,0.00026102,2608.4,0.00026019,2584.6,-8.3807e-05,-0.0020334,-9.0035e-05,-46.802,0.83144
28893,13.149,3.6364,0.1,0.00025963,2594.5,0.0002588,2570.7,-8.3347e-05,-0.0014842,-8.9578e-05,-46.817,0.84189
28894,13.057,3.9091,0.1,0.00026049,2603.1,0.00025958,2576.9,-8.3394e-05,-0.0013053,-9.0262e-05,-51.605,0.83118
28895,13.149,3.8182,0.1,0.00025909,2589.1,0.00025816,2562.7,-8.2911e-05,0.00095223,-8.983e-05,-51.991,0.84165
28896,13.057,4.0909,0.1,0.00025983,2596.5,0.00025882,2567.9,-8.2936e-05,-0.0026304,-9.044e-05,-56.382,0.83085
28897,13.149,4,0.1,0.0002584,2582.2,0.00025737,2553,-8.241e-05,0.00080446,-9.0054e-05,-57.427,0.84135
28898,13.057,4.2727,0.1,0.00025902,2588.4,0.00025794,2557.6,-8.2458e-05,-0.0055455,-9.0523e-05,-60.603,0.83046
28899,13.149,4.1818,0.1,0.00025755,2573.7,0.00025642,2541.8,-8.1873e-05,-0.0016204,-9.0198e-05,-62.547,0.841
28900,13.057,4.4545,0.1,0.00025807,2578.9,0.00025692,2546.4,-8.1986e-05,-0.0093085,-9.0469e-05,-63.747,0.83002
28901,13.149,4.3636,0.1,0.00025653,2563.5,0.00025533,2529.5,-8.1327e-05,-0.005563,-9.0212e-05,-66.76,0.84059
28902,13.057,4.6364,0.1,0.00025697,2567.9,0.0002558,2534.6,-8.1544e-05,-0.013101,-9.0238e-05,-65.334,0.82951
28903,13.149,4.5455,0.1,0.00025535,2551.8,0.0002541,2516.3,-8.0801e-05,-0.01007,-9.0051e-05,-69.51,0.84011
28904,13.057,4.8182,0.1,0.00025574,2555.6,0.00025457,2522.5,-8.1157e-05,-0.01597,-8.98e-05,-64.96,0.82895
28905,13.149,4.7273,0.1,0.00025402,2538.5,0.00025275,2502.6,-8.0322e-05,-0.014232,-8.9678e-05,-70.31,0.83958
28906,13.057,5,0.1,0.00025439,2542.2,0.00025328,2510.4,-8.0846e-05,-0.017259,-8.9136e-05,-62.312,0.82832
28907,13.149,4.9091,0.1,0.00025256,2523.9,0.00025132,2488.8,-7.9917e-05,-0.016844,-8.9067e-05,-68.771,0.83898
28908,13.057,5.1818,0.1,0.00025296,2527.8,0.00025194,2498.8,-8.0629e-05,-0.014344,-8.8237e-05,-57.183,0.82764
28909,13.149,5.0909,0.1,0.00025099,2508.2,0.00024983,2475.2,-7.9607e-05,-0.017656,-8.8204e-05,-64.617,0.83833
28910,13.057,5.3636,0.1,0.00025147,2512.9,0.00025059,2487.8,-8.0522e-05,-0.010336,-8.7106e-05,-49.481,0.8269
28911,13.149,5.2727,0.1,0.00024935,2491.7,0.00024831,2462.4,-7.9411e-05,-0.011164,-8.7087e-05,-57.687,0.83762
28912,13.057,5.5455,0.1,0.00024996,2497.9,0.00024927,2478,-8.0534e-05,0.02995,-8.5758e-05,-39.223,0.8261
28913,13.149,5.4545,0.1,0.00024767,2475,0.00024682,2450.7,-7.9345e-05,-0.0092379,-8.5726e-05,-47.951,0.83686
28914,13.057,5.7273,0.1,0.00024852,2483.5,0.00024805,2470,-8.0674e-05,0.061186,-8.4249e-05,-26.802,0.82524
28915,13.149,5.6364,0.1,0.00024601,2458.4,0.00024538,2440.5,-7.9412e-05,0.07775,-8.4143e-05,-35.467,0.83603
28916,13.149,5.8182,0.1,0.00024448,2443.1,0.00024412,2432.6,-7.9631e-05,0.070145,-8.2431e-05,-20.962,0.83515
28917,13.057,5.9091,0.1,0.00024699,2468.2,0.00024679,2462.3,-8.0919e-05,0.0076515,-8.2498e-05,-11.852,0.82433
28918,13.241,0.27273,0.1,0.00024195,2417.9,0.00024144,2403,-7.8372e-05,0.069446,-8.2311e-05,-29.529,0.846
28919,13.333,0.18182,0.1,0.00023754,2373.7,0.00023715,2362.4,-7.7261e-05,0.085554,-8.0273e-05,-22.547,0.856
28920,13.241,0.090909,0.1,0.00024022,2400.5,0.00024,2394.2,-7.8648e-05,0.0094277,-8.032e-05,-12.554,0.8451
28921,13.241,0.45455,0.1,0.00024371,2435.5,0.00024293,2413.1,-7.8225e-05,0.032825,-8.4108e-05,-44.175,0.84685
28922,13.333,0.36364,0.1,0.0002394,2392.4,0.00023871,2372.3,-7.7021e-05,0.087238,-8.2317e-05,-39.698,0.85687
28923,13.241,0.63636,0.1,0.00024555,2453.8,0.00024454,2425.2,-7.8235e-05,-0.012444,-8.5707e-05,-56.154,0.84764
28924,13.333,0.54545,0.1,0.00024142,2412.5,0.00024045,2384.9,-7.6966e-05,-0.011984,-8.4185e-05,-54.255,0.85768
28925,13.241,0.81818,0.1,0.00024738,2472.1,0.00024621,2438.9,-7.8389e-05,-0.015668,-8.7055e-05,-65.127,0.84837
28926,13.333,0.72727,0.1,0.00024346,2432.9,0.00024228,2399.5,-7.7072e-05,-0.01241,-8.58e-05,-65.589,0.85845
28927,13.241,1,0.1,0.00024916,2489.9,0.00024787,2453.6,-7.8678e-05,-0.017916,-8.8137e-05,-71.087,0.84905
28928,13.333,0.90909,0.1,0.00024549,2453.2,0.00024415,2415.5,-7.7337e-05,-0.018527,-8.7137e-05,-73.653,0.85915
28929,13.241,1.1818,0.1,0.00025085,2506.7,0.0002495,2468.8,-7.9082e-05,-0.015503,-8.8946e-05,-74.134,0.84967
28930,13.333,1.0909,0.1,0.00024745,2472.8,0.00024602,2432.6,-7.774e-05,-0.016473,-8.8183e-05,-78.483,0.8598
28931,13.241,1.3636,0.1,0.00025241,2522.4,0.00025106,2484.3,-7.9579e-05,-0.011421,-8.9492e-05,-74.499,0.85023
28932,13.333,1.2727,0.1,0.00024929,2491.2,0.00024783,2450.1,-7.8261e-05,-0.012549,-8.8939e-05,-80.244,0.86039
28933,13.241,1.5455,0.1,0.00025382,2536.4,0.00025251,2499.4,-8.0142e-05,-0.0064109,-8.9795e-05,-72.535,0.85074
28934,13.333,1.4545,0.1,0.00025099,2508.1,0.00024955,2467.6,-7.8871e-05,-0.0069771,-8.9416e-05,-79.238,0.86092
28935,13.241,1.7273,0.1,0.00025506,2548.8,0.00025382,2513.7,-8.0742e-05,-0.0016112,-8.9887e-05,-68.712,0.85118
28936,13.333,1.6364,0.1,0.00025251,2523.3,0.00025113,2484.5,-7.9539e-05,-0.0011519,-8.9641e-05,-75.907,0.86139
28937,13.241,1.9091,0.1,0.00025611,2559.4,0.00025497,2527,-8.1348e-05,0.001937,-8.9812e-05,-63.598,0.85156
28938,13.333,1.8182,0.1,0.00025383,2536.5,0.00025255,2500.4,-8.0231e-05,0.0037951,-8.9657e-05,-70.818,0.8618
28939,13.241,2.0909,0.1,0.00025699,2568.2,0.00025596,2538.8,-8.1927e-05,0.003242,-8.9623e-05,-57.816,0.85189
28940,13.333,2,0.1,0.00025495,2547.8,0.00025379,2514.8,-8.0912e-05,0.0066095,-8.9515e-05,-64.635,0.86215
28941,13.241,2.2727,0.1,0.0002577,2575.2,0.00025677,2548.8,-8.2451e-05,0.0016485,-8.9373e-05,-52.005,0.85215
28942,13.333,2.1818,0.1,0.00025587,2557,0.00025483,2527.4,-8.1545e-05,0.0062332,-8.9274e-05,-58.069,0.86244
28943,13.241,2.4545,0.1,0.00025823,2580.5,0.00025741,2556.8,-8.289e-05,-0.0027715,-8.9114e-05,-46.768,0.85236
28944,13.333,2.3636,0.1,0.0002566,2564.2,0.00025568,2537.9,-8.2097e-05,0.0021989,-8.8994e-05,-51.821,0.86268
28945,13.241,2.6364,0.1,0.00025861,2584.3,0.00025786,2562.7,-8.3222e-05,-0.0088201,-8.8893e-05,-42.624,0.8525
28946,13.333,2.5455,0.1,0.00025713,2569.6,0.00025631,2546,-8.2539e-05,-0.0047982,-8.8731e-05,-46.523,0.86285
28947,13.241,2.8182,0.1,0.00025883,2586.5,0.00025813,2566.3,-8.3428e-05,-0.014182,-8.8746e-05,-39.97,0.85259
28948,13.333,2.7273,0.1,0.00025749,2573.1,0.00025673,2551.5,-8.2848e-05,-0.012523,-8.8528e-05,-42.688,0.86297
28949,13.241,3,0.1,0.00025891,2587.3,0.00025822,2567.5,-8.3498e-05,-0.016344,-8.8694e-05,-39.057,0.85262
28950,13.333,2.9091,0.1,0.00025766,2574.8,0.00025695,2554.3,-8.3007e-05,-0.017683,-8.8419e-05,-40.678,0.86303
28951,13.241,3.1818,0.1,0.00025883,2586.5,0.00025813,2566.3,-8.3428e-05,-0.014182,-8.8746e-05,-39.97,0.85259
28952,13.333,3.0909,0.1,0.00025766,2574.8,0.00025695,2554.3,-8.3007e-05,-0.017683,-8.8419e-05,-40.678,0.86303
28953,13.241,3.3636,0.1,0.00025861,2584.3,0.00025786,2562.7,-8.3222e-05,-0.0088201,-8.8893e-05,-42.624,0.8525
28954,13.333,3.2727,0.1,0.00025749,2573.1,0.00025673,2551.5,-8.2848e-05,-0.012523,-8.8528e-05,-42.688,0.86297
28955,13.241,3.5455,0.1,0.00025823,2580.5,0.00025741,2556.8,-8.289e-05,-0.0027714,-8.9114e-05,-46.768,0.85236
28956,13.333,3.4545,0.1,0.00025713,2569.6,0.00025631,2546,-8.2539e-05,-0.0047982,-8.8731e-05,-46.523,0.86285
28957,13.241,3.7273,0.1,0.0002577,2575.2,0.00025677,2548.8,-8.2451e-05,0.0016488,-8.9373e-05,-52.005,0.85215
28958,13.333,3.6364,0.1,0.0002566,2564.2,0.00025568,2537.9,-8.2097e-05,0.002199,-8.8994e-05,-51.821,0.86268
28959,13.241,3.9091,0.1,0.00025699,2568.2,0.00025596,2538.8,-8.1927e-05,0.0032422,-8.9623e-05,-57.816,0.85189
28960,13.333,3.8182,0.1,0.00025587,2557,0.00025483,2527.4,-8.1545e-05,0.0062334,-8.9274e-05,-58.069,0.86244
28961,13.241,4.0909,0.1,0.00025611,2559.4,0.00025497,2527,-8.1348e-05,0.0019371,-8.9812e-05,-63.598,0.85156
28962,13.333,4,0.1,0.00025495,2547.8,0.00025379,2514.8,-8.0912e-05,0.0066097,-8.9515e-05,-64.635,0.86215
28963,13.241,4.2727,0.1,0.00025506,2548.8,0.00025382,2513.7,-8.0742e-05,-0.0016111,-8.9887e-05,-68.712,0.85118
28964,13.333,4.1818,0.1,0.00025383,2536.5,0.00025255,2500.4,-8.0231e-05,0.0037953,-8.9657e-05,-70.818,0.8618
28965,13.241,4.4545,0.1,0.00025382,2536.4,0.00025251,2499.4,-8.0142e-05,-0.0064107,-8.9795e-05,-72.534,0.85074
28966,13.333,4.3636,0.1,0.00025251,2523.3,0.00025113,2484.5,-7.9539e-05,-0.0011515,-8.9641e-05,-75.907,0.86139
28967,13.241,4.6364,0.1,0.00025241,2522.4,0.00025106,2484.3,-7.9579e-05,-0.011421,-8.9492e-05,-74.499,0.85023
28968,13.333,4.5455,0.1,0.00025099,2508.1,0.00024955,2467.6,-7.8871e-05,-0.0069764,-8.9416e-05,-79.238,0.86092
28969,13.241,4.8182,0.1,0.00025085,2506.7,0.0002495,2468.8,-7.9082e-05,-0.015502,-8.8946e-05,-74.134,0.84967
28970,13.333,4.7273,0.1,0.00024929,2491.2,0.00024783,2450.1,-7.8261e-05,-0.012549,-8.8939e-05,-80.244,0.86039
28971,13.241,5,0.1,0.00024916,2489.9,0.00024787,2453.6,-7.8678e-05,-0.017915,-8.8137e-05,-71.087,0.84905
28972,13.333,4.9091,0.1,0.00024745,2472.8,0.00024602,2432.6,-7.774e-05,-0.016472,-8.8183e-05,-78.483,0.8598
28973,13.241,5.1818,0.1,0.00024738,2472.1,0.00024621,2438.9,-7.8389e-05,-0.015666,-8.7055e-05,-65.127,0.84837
28974,13.333,5.0909,0.1,0.00024549,2453.2,0.00024415,2415.5,-7.7337e-05,-0.018526,-8.7137e-05,-73.653,0.85915
28975,13.241,5.3636,0.1,0.00024555,2453.8,0.00024454,2425.2,-7.8235e-05,-0.012443,-8.5707e-05,-56.154,0.84764
28976,13.333,5.2727,0.1,0.00024346,2432.9,0.00024228,2399.5,-7.7072e-05,-0.012409,-8.58e-05,-65.589,0.85845
28977,13.241,5.5455,0.1,0.00024371,2435.5,0.00024293,2413.1,-7.8225e-05,0.032826,-8.4108e-05,-44.175,0.84685
28978,13.333,5.4545,0.1,0.00024142,2412.5,0.00024045,2384.9,-7.6966e-05,-0.011984,-8.4185e-05,-54.255,0.85768
28979,13.241,5.7273,0.1,0.00024195,2417.9,0.00024144,2403,-7.8372e-05,0.069447,-8.2311e-05,-29.529,0.846
28980,13.333,5.6364,0.1,0.0002394,2392.4,0.00023871,2372.3,-7.7021e-05,0.087238,-8.2317e-05,-39.698,0.85687
28981,13.333,5.8182,0.1,0.00023754,2373.7,0.00023715,2362.4,-7.7261e-05,0.085555,-8.0273e-05,-22.547,0.856
28982,13.241,5.9091,0.1,0.00024022,2400.5,0.00024,2394.2,-7.8648e-05,0.0094284,-8.032e-05,-12.554,0.8451
28983,13.425,0.27273,0.1,0.00023497,2348.1,0.0002344,2331.7,-7.5914e-05,0.077243,-8.0265e-05,-32.615,0.86692
28984,13.517,0.18182,0.1,0.0002301,2299.4,0.00022968,2287.2,-7.4716e-05,0.10073,-7.797e-05,-24.349,0.877
28985,13.425,0.090909,0.1,0.00023299,2328.3,0.00023276,2321.6,-7.6223e-05,0.011385,-7.8002e-05,-13.352,0.86603
28986,13.425,0.45455,0.1,0.0002371,2369.4,0.00023622,2344.1,-7.5763e-05,0.035554,-8.2391e-05,-49.766,0.86776
28987,13.517,0.36364,0.1,0.00023236,2322,0.00023157,2299.5,-7.4457e-05,0.09681,-8.0387e-05,-44.455,0.87786
28988,13.425,0.63636,0.1,0.00023933,2391.6,0.00023818,2359.2,-7.5804e-05,-0.014718,-8.4279e-05,-63.698,0.86855
28989,13.517,0.54545,0.1,0.00023478,2346.2,0.00023368,2314.9,-7.442e-05,-0.015171,-8.2582e-05,-61.344,0.87867
28990,13.425,0.81818,0.1,0.00024157,2414.1,0.00024023,2376.1,-7.602e-05,-0.016645,-8.5885e-05,-74.135,0.86928
28991,13.517,0.72727,0.1,0.00023727,2371,0.00023591,2332.9,-7.458e-05,-0.013323,-8.4494e-05,-74.504,0.87943
28992,13.425,1,0.1,0.00024378,2436.1,0.0002423,2394.6,-7.6399e-05,-0.017863,-8.7187e-05,-81.075,0.86995
28993,13.517,0.90909,0.1,0.00023976,2396,0.00023823,2352.9,-7.4931e-05,-0.018628,-8.6096e-05,-83.907,0.88013
28994,13.425,1.1818,0.1,0.0002459,2457.3,0.00024435,2413.8,-7.6919e-05,-0.013982,-8.8179e-05,-84.62,0.87057
28995,13.517,1.0909,0.1,0.00024221,2420.4,0.00024056,2374.4,-7.5451e-05,-0.014927,-8.7371e-05,-89.57,0.88078
28996,13.425,1.3636,0.1,0.00024788,2477,0.00024632,2433.4,-7.7553e-05,-0.0083679,-8.8866e-05,-85.01,0.87112
28997,13.517,1.2727,0.1,0.00024453,2443.7,0.00024285,2396.5,-7.6115e-05,-0.009342,-8.8312e-05,-91.651,0.88136
28998,13.425,1.5455,0.1,0.00024968,2495.1,0.00024817,2452.7,-7.8268e-05,-0.0018307,-8.9265e-05,-82.634,0.87162
28999,13.517,1.4545,0.1,0.0002467,2465.3,0.00024503,2418.8,-7.6889e-05,-0.0020168,-8.8928e-05,-90.461,0.88189
29000,13.425,1.7273,0.1,0.00025128,2511.1,0.00024987,2471.2,-7.9028e-05,0.0042733,-8.9414e-05,-78.031,0.87206
29001,13.517,1.6364,0.1,0.00024866,2484.8,0.00024707,2440.5,-7.7734e-05,0.0054592,-8.9246e-05,-86.487,0.88236
29002,13.425,1.9091,0.1,0.00025267,2525,0.00025137,2488.3,-7.9795e-05,0.0086052,-8.9361e-05,-71.869,0.87245
29003,13.517,1.8182,0.1,0.00025038,2502.1,0.00024891,2460.9,-7.861e-05,0.011673,-8.931e-05,-80.385,0.88277
29004,13.425,2.0909,0.1,0.00025383,2536.6,0.00025267,2503.5,-8.0529e-05,0.0098173,-8.9167e-05,-64.897,0.87277
29005,13.517,2,0.1,0.00025185,2516.8,0.00025053,2479.5,-7.947e-05,0.014947,-8.9182e-05,-72.951,0.88312
29006,13.425,2.2727,0.1,0.00025477,2546,0.00025374,2516.5,-8.1191e-05,0.0069651,-8.8896e-05,-57.89,0.87303
29007,13.517,2.1818,0.1,0.00025308,2529,0.00025191,2495.9,-8.0271e-05,0.013786,-8.893e-05,-65.047,0.88341
29008,13.425,2.4545,0.1,0.0002555,2553.2,0.00025458,2527,-8.1746e-05,9.3778e-05,-8.8611e-05,-51.577,0.87324
29009,13.517,2.3636,0.1,0.00025405,2538.7,0.00025302,2509.5,-8.0969e-05,0.0074668,-8.8627e-05,-57.527,0.88365
29010,13.425,2.6364,0.1,0.00025601,2558.3,0.00025519,2534.7,-8.2166e-05,-0.0091157,-8.8365e-05,-46.586,0.87338
29011,13.517,2.5455,0.1,0.00025477,2546,0.00025386,2520,-8.1529e-05,-0.003091,-8.8337e-05,-51.158,0.88382
29012,13.425,2.8182,0.1,0.00025632,2561.4,0.00025555,2539.4,-8.2427e-05,-0.017265,-8.82e-05,-43.392,0.87347
29013,13.517,2.7273,0.1,0.00025526,2550.8,0.00025443,2527.2,-8.1919e-05,-0.014686,-8.8114e-05,-46.555,0.88394
29014,13.425,3,0.1,0.00025642,2562.4,0.00025567,2541,-8.2516e-05,-0.020556,-8.8142e-05,-42.294,0.8735
29015,13.517,2.9091,0.1,0.0002555,2553.2,0.00025472,2530.9,-8.212e-05,-0.022445,-8.7993e-05,-44.145,0.88399
29016,13.425,3.1818,0.1,0.00025632,2561.4,0.00025555,2539.4,-8.2427e-05,-0.017266,-8.82e-05,-43.392,0.87347
29017,13.517,3.0909,0.1,0.0002555,2553.2,0.00025472,2530.9,-8.212e-05,-0.022445,-8.7993e-05,-44.145,0.88399
29018,13.425,3.3636,0.1,0.00025601,2558.3,0.00025519,2534.7,-8.2166e-05,-0.009116,-8.8365e-05,-46.586,0.87338
29019,13.517,3.2727,0.1,0.00025526,2550.8,0.00025443,2527.2,-8.1919e-05,-0.014686,-8.8114e-05,-46.555,0.88394
29020,13.425,3.5455,0.1,0.0002555,2553.2,0.00025458,2527,-8.1746e-05,9.3771e-05,-8.8611e-05,-51.577,0.87324
29021,13.517,3.4545,0.1,0.00025477,2546,0.00025386,2520,-8.1529e-05,-0.0030912,-8.8337e-05,-51.158,0.88382
29022,13.425,3.7273,0.1,0.00025477,2546,0.00025374,2516.5,-8.1191e-05,0.0069652,-8.8896e-05,-57.89,0.87303
29023,13.517,3.6364,0.1,0.00025405,2538.7,0.00025302,2509.5,-8.0969e-05,0.007467,-8.8627e-05,-57.527,0.88365
29024,13.425,3.9091,0.1,0.00025383,2536.6,0.00025267,2503.5,-8.0529e-05,0.0098175,-8.9167e-05,-64.897,0.87277
29025,13.517,3.8182,0.1,0.00025308,2529,0.00025191,2495.9,-8.0271e-05,0.013786,-8.893e-05,-65.046,0.88341
29026,13.425,4.0909,0.1,0.00025267,2525,0.00025137,2488.3,-7.9795e-05,0.0086056,-8.9361e-05,-71.869,0.87245
29027,13.517,4,0.1,0.00025185,2516.8,0.00025053,2479.5,-7.947e-05,0.014948,-8.9182e-05,-72.951,0.88312
29028,13.425,4.2727,0.1,0.00025128,2511.1,0.00024987,2471.2,-7.9028e-05,0.0042738,-8.9414e-05,-78.031,0.87206
29029,13.517,4.1818,0.1,0.00025038,2502.1,0.00024891,2460.9,-7.861e-05,0.011673,-8.931e-05,-80.385,0.88277
29030,13.425,4.4545,0.1,0.00024968,2495.1,0.00024817,2452.7,-7.8268e-05,-0.0018298,-8.9265e-05,-82.634,0.87162
29031,13.517,4.3636,0.1,0.00024866,2484.8,0.00024707,2440.5,-7.7734e-05,0.0054599,-8.9246e-05,-86.486,0.88236
29032,13.425,4.6364,0.1,0.00024788,2477,0.00024632,2433.4,-7.7553e-05,-0.0083672,-8.8866e-05,-85.01,0.87112
29033,13.517,4.5455,0.1,0.0002467,2465.3,0.00024503,2418.8,-7.6889e-05,-0.0020164,-8.8928e-05,-90.461,0.88189
29034,13.425,4.8182,0.1,0.0002459,2457.3,0.00024435,2413.8,-7.6919e-05,-0.013981,-8.8179e-05,-84.62,0.87057
29035,13.517,4.7273,0.1,0.00024453,2443.7,0.00024285,2396.5,-7.6115e-05,-0.0093419,-8.8312e-05,-91.651,0.88136
29036,13.425,5,0.1,0.00024378,2436.1,0.0002423,2394.6,-7.6399e-05,-0.017862,-8.7187e-05,-81.075,0.86995
29037,13.517,4.9091,0.1,0.00024221,2420.4,0.00024056,2374.4,-7.5451e-05,-0.014925,-8.7371e-05,-89.57,0.88078
29038,13.425,5.1818,0.1,0.00024157,2414.1,0.00024023,2376.1,-7.602e-05,-0.016644,-8.5885e-05,-74.135,0.86928
29039,13.517,5.0909,0.1,0.00023976,2396,0.00023823,2352.9,-7.4931e-05,-0.018626,-8.6096e-05,-83.907,0.88013
29040,13.425,5.3636,0.1,0.00023933,2391.6,0.00023818,2359.2,-7.5804e-05,-0.014717,-8.4279e-05,-63.698,0.86855
29041,13.517,5.2727,0.1,0.00023727,2371,0.00023591,2332.9,-7.458e-05,-0.013321,-8.4494e-05,-74.504,0.87943
29042,13.425,5.5455,0.1,0.0002371,2369.4,0.00023622,2344.1,-7.5763e-05,0.035554,-8.2391e-05,-49.766,0.86776
29043,13.517,5.4545,0.1,0.00023478,2346.2,0.00023368,2314.9,-7.442e-05,-0.015171,-8.2582e-05,-61.344,0.87867
29044,13.425,5.7273,0.1,0.00023497,2348.1,0.0002344,2331.7,-7.5914e-05,0.077243,-8.0265e-05,-32.615,0.86692
29045,13.517,5.6364,0.1,0.00023236,2322,0.00023157,2299.5,-7.4457e-05,0.09681,-8.0387e-05,-44.455,0.87786
29046,13.517,5.8182,0.1,0.0002301,2299.4,0.00022968,2287.2,-7.4716e-05,0.10073,-7.797e-05,-24.349,0.877
29047,13.425,5.9091,0.1,0.00023299,2328.3,0.00023276,2321.6,-7.6223e-05,0.011386,-7.8002e-05,-13.352,0.86603
29048,13.609,0.27273,0.1,0.00022747,2273.1,0.00022684,2254.9,-7.3264e-05,0.083614,-7.8078e-05,-36.086,0.888
29049,13.701,0.18182,0.1,0.00022205,2219,0.00022159,2205.7,-7.1956e-05,0.11321,-7.5484e-05,-26.39,0.89816
29050,13.609,0.090909,0.1,0.0002252,2250.4,0.00022495,2243.3,-7.3607e-05,0.013458,-7.5506e-05,-14.26,0.88711
29051,13.609,0.45455,0.1,0.00023003,2298.7,0.00022903,2270.2,-7.3115e-05,0.037985,-8.0578e-05,-56.032,0.88883
29052,13.701,0.36364,0.1,0.00022475,2246,0.00022387,2220.7,-7.1682e-05,0.10585,-7.8317e-05,-49.749,0.89902
29053,13.609,0.63636,0.1,0.00023272,2325.6,0.00023141,2288.7,-7.3197e-05,-0.016958,-8.2801e-05,-72.177,0.88961
29054,13.701,0.54545,0.1,0.00022766,2275,0.0002264,2239.6,-7.1672e-05,-0.018759,-8.0885e-05,-69.245,0.89982
29055,13.609,0.81818,0.1,0.00023547,2353,0.00023392,2309.7,-7.3491e-05,-0.016877,-8.4711e-05,-84.319,0.89034
29056,13.701,0.72727,0.1,0.00023068,2305.2,0.00022912,2261.7,-7.19e-05,-0.013571,-8.3145e-05,-84.509,0.90058
29057,13.609,1,0.1,0.0002382,2380.4,0.00023649,2332.8,-7.3983e-05,-0.016582,-8.6286e-05,-92.452,0.89101
29058,13.701,0.90909,0.1,0.00023375,2335.9,0.00023198,2286.6,-7.2359e-05,-0.017443,-8.5069e-05,-95.521,0.90127
29059,13.609,1.1818,0.1,0.00024085,2406.9,0.00023906,2357.1,-7.4647e-05,-0.010822,-8.751e-05,-96.654,0.89163
29060,13.701,1.0909,0.1,0.00023679,2366.3,0.00023489,2313.5,-7.3023e-05,-0.011601,-8.6632e-05,-102.26,0.90192
29061,13.609,1.3636,0.1,0.00024337,2432,0.00024157,2382,-7.5451e-05,-0.0033074,-8.8381e-05,-97.153,0.89218
29062,13.701,1.2727,0.1,0.00023974,2395.7,0.00023778,2341.6,-7.3863e-05,-0.0039633,-8.7816e-05,-104.84,0.9025
29063,13.609,1.5455,0.1,0.00024568,2455.1,0.00024394,2406.6,-7.6355e-05,0.0051194,-8.8914e-05,-94.358,0.89268
29064,13.701,1.4545,0.1,0.0002425,2423.3,0.00024057,2369.9,-7.484e-05,0.0054964,-8.8621e-05,-103.54,0.90303
29065,13.609,1.7273,0.1,0.00024776,2475.8,0.00024612,2430.2,-7.7316e-05,0.012852,-8.9147e-05,-88.877,0.89312
29066,13.701,1.6364,0.1,0.00024502,2448.5,0.00024319,2397.6,-7.5908e-05,0.015007,-8.907e-05,-98.88,0.9035
29067,13.609,1.9091,0.1,0.00024957,2493.9,0.00024808,2452.2,-7.8285e-05,0.01815,-8.9134e-05,-81.496,0.8935
29068,13.701,1.8182,0.1,0.00024726,2470.9,0.00024557,2423.8,-7.7013e-05,0.022798,-8.921e-05,-91.622,0.90391
29069,13.609,2.0909,0.1,0.0002511,2509.3,0.00024978,2471.9,-7.9213e-05,0.019155,-8.8947e-05,-73.121,0.89382
29070,13.701,2,0.1,0.00024919,2490.2,0.00024768,2447.8,-7.81e-05,0.026597,-8.9112e-05,-82.718,0.90426
29071,13.609,2.2727,0.1,0.00025235,2521.8,0.00025119,2488.8,-8.005e-05,0.014492,-8.8662e-05,-64.697,0.89408
29072,13.701,2.1818,0.1,0.00025081,2506.4,0.00024948,2469,-7.9112e-05,0.024269,-8.8861e-05,-73.228,0.90455
29073,13.609,2.4545,0.1,0.00025333,2531.5,0.00025231,2502.5,-8.0752e-05,0.0041422,-8.8354e-05,-57.115,0.89429
29074,13.701,2.3636,0.1,0.00025211,2519.4,0.00025096,2486.7,-7.9995e-05,0.014707,-8.8542e-05,-64.206,0.90478
29075,13.609,2.6364,0.1,0.00025402,2538.5,0.00025311,2512.5,-8.1282e-05,-0.0095563,-8.8086e-05,-51.129,0.89443
29076,13.701,2.5455,0.1,0.00025309,2529.2,0.00025208,2500.4,-8.0702e-05,-0.00087036,-8.8232e-05,-56.581,0.90496
29077,13.609,2.8182,0.1,0.00025444,2542.6,0.0002536,2518.6,-8.1613e-05,-0.021679,-8.7906e-05,-47.306,0.89452
29078,13.701,2.7273,0.1,0.00025375,2535.7,0.00025284,2509.8,-8.1195e-05,-0.017911,-8.7992e-05,-51.086,0.90507
29079,13.609,3,0.1,0.00025458,2544,0.00025376,2520.7,-8.1725e-05,-0.026584,-8.7842e-05,-45.992,0.89455
29080,13.701,2.9091,0.1,0.00025408,2539,0.00025322,2514.6,-8.1449e-05,-0.029325,-8.7862e-05,-48.214,0.90513
29081,13.609,3.1818,0.1,0.00025444,2542.6,0.0002536,2518.6,-8.1613e-05,-0.021679,-8.7906e-05,-47.306,0.89452
29082,13.701,3.0909,0.1,0.00025408,2539,0.00025322,2514.6,-8.1449e-05,-0.029325,-8.7862e-05,-48.214,0.90513
29083,13.609,3.3636,0.1,0.00025402,2538.5,0.00025311,2512.5,-8.1282e-05,-0.0095564,-8.8086e-05,-51.129,0.89443
29084,13.701,3.2727,0.1,0.00025375,2535.7,0.00025284,2509.8,-8.1195e-05,-0.017911,-8.7992e-05,-51.086,0.90507
29085,13.609,3.5455,0.1,0.00025333,2531.5,0.00025231,2502.5,-8.0752e-05,0.0041423,-8.8354e-05,-57.115,0.89429
29086,13.701,3.4545,0.1,0.00025309,2529.2,0.00025208,2500.4,-8.0702e-05,-0.00087023,-8.8232e-05,-56.581,0.90496
29087,13.609,3.7273,0.1,0.00025235,2521.8,0.00025119,2488.8,-8.005e-05,0.014492,-8.8662e-05,-64.697,0.89408
29088,13.701,3.6364,0.1,0.00025211,2519.4,0.00025096,2486.7,-7.9995e-05,0.014707,-8.8542e-05,-64.206,0.90478
29089,13.609,3.9091,0.1,0.0002511,2509.3,0.00024978,2471.9,-7.9213e-05,0.019156,-8.8947e-05,-73.121,0.89382
29090,13.701,3.8182,0.1,0.00025081,2506.4,0.00024948,2469,-7.9112e-05,0.024269,-8.8861e-05,-73.228,0.90455
29091,13.609,4.0909,0.1,0.00024957,2493.9,0.00024808,2452.2,-7.8285e-05,0.01815,-8.9134e-05,-81.496,0.8935
29092,13.701,4,0.1,0.00024919,2490.2,0.00024768,2447.8,-7.81e-05,0.026598,-8.9112e-05,-82.718,0.90426
29093,13.609,4.2727,0.1,0.00024776,2475.8,0.00024612,2430.2,-7.7316e-05,0.012852,-8.9147e-05,-88.877,0.89312
29094,13.701,4.1818,0.1,0.00024726,2470.9,0.00024557,2423.8,-7.7013e-05,0.022798,-8.921e-05,-91.622,0.90391
29095,13.609,4.4545,0.1,0.00024568,2455.1,0.00024394,2406.6,-7.6355e-05,0.0051195,-8.8914e-05,-94.358,0.89268
29096,13.701,4.3636,0.1,0.00024502,2448.5,0.00024319,2397.6,-7.5908e-05,0.015008,-8.907e-05,-98.88,0.9035
29097,13.609,4.6364,0.1,0.00024337,2432,0.00024157,2382,-7.5451e-05,-0.0033075,-8.8381e-05,-97.153,0.89218
29098,13.701,4.5455,0.1,0.0002425,2423.3,0.00024057,2369.9,-7.484e-05,0.0054965,-8.8621e-05,-103.54,0.90303
29099,13.609,4.8182,0.1,0.00024085,2406.9,0.00023906,2357.1,-7.4647e-05,-0.010822,-8.751e-05,-96.654,0.89163
29100,13.701,4.7273,0.1,0.00023974,2395.7,0.00023778,2341.6,-7.3863e-05,-0.0039629,-8.7816e-05,-104.84,0.9025
29101,13.609,5,0.1,0.0002382,2380.4,0.00023649,2332.8,-7.3983e-05,-0.01658,-8.6286e-05,-92.452,0.89101
29102,13.701,4.9091,0.1,0.00023679,2366.3,0.00023489,2313.5,-7.3023e-05,-0.0116,-8.6632e-05,-102.26,0.90192
29103,13.609,5.1818,0.1,0.00023547,2353,0.00023392,2309.7,-7.3491e-05,-0.016875,-8.4711e-05,-84.319,0.89034
29104,13.701,5.0909,0.1,0.00023375,2335.9,0.00023198,2286.6,-7.2359e-05,-0.017441,-8.5069e-05,-95.521,0.90127
29105,13.609,5.3636,0.1,0.00023272,2325.6,0.00023141,2288.7,-7.3197e-05,-0.016958,-8.2801e-05,-72.177,0.88961
29106,13.701,5.2727,0.1,0.00023068,2305.2,0.00022912,2261.7,-7.19e-05,-0.013569,-8.3145e-05,-84.509,0.90058
29107,13.609,5.5455,0.1,0.00023003,2298.7,0.00022903,2270.2,-7.3115e-05,0.037985,-8.0578e-05,-56.032,0.88883
29108,13.701,5.4545,0.1,0.00022766,2275,0.0002264,2239.6,-7.1672e-05,-0.018759,-8.0885e-05,-69.245,0.89982
29109,13.609,5.7273,0.1,0.00022747,2273.1,0.00022684,2254.9,-7.3264e-05,0.083614,-7.8078e-05,-36.086,0.888
29110,13.701,5.6364,0.1,0.00022475,2246,0.00022387,2220.7,-7.1682e-05,0.10585,-7.8317e-05,-49.749,0.89902
29111,13.701,5.8182,0.1,0.00022205,2219,0.00022159,2205.7,-7.1956e-05,0.11321,-7.5484e-05,-26.39,0.89816
29112,13.609,5.9091,0.1,0.0002252,2250.4,0.00022495,2243.3,-7.3607e-05,0.013458,-7.5506e-05,-14.26,0.88711
29113,13.793,0.27273,0.1,0.00021932,2191.7,0.00021861,2171.5,-7.038e-05,0.086943,-7.5709e-05,-39.953,0.90923
29114,13.885,0.18182,0.1,0.00021325,2131,0.00021275,2116.6,-6.8936e-05,0.11897,-7.277e-05,-28.687,0.91947
29115,13.793,0.090909,0.1,0.00021671,2165.6,0.00021645,2158,-7.0755e-05,0.015346,-7.2792e-05,-15.291,0.90835
29116,13.793,0.45455,0.1,0.00022238,2222.2,0.00022124,2190.1,-7.0239e-05,0.039748,-7.8627e-05,-62.979,0.91006
29117,13.885,0.36364,0.1,0.00021645,2163,0.00021545,2134.7,-6.8649e-05,0.11325,-7.6058e-05,-55.553,0.92032
29118,13.793,0.63636,0.1,0.00022562,2254.6,0.00022412,2212.7,-7.0375e-05,-0.018974,-8.1237e-05,-81.631,0.91084
29119,13.885,0.54545,0.1,0.00021991,2197.6,0.00021848,2157.6,-6.8678e-05,-0.022762,-7.9048e-05,-77.942,0.92112
29120,13.793,0.81818,0.1,0.00022897,2288.1,0.00022719,2238.7,-7.0767e-05,-0.015901,-8.3514e-05,-95.789,0.91156
29121,13.885,0.72727,0.1,0.00022357,2234.2,0.00022179,2184.8,-6.8991e-05,-0.012769,-8.172e-05,-95.65,0.92188
29122,13.793,1,0.1,0.00023236,2322,0.00023039,2267.5,-7.1399e-05,-0.01346,-8.5427e-05,-105.42,0.91223
29123,13.885,0.90909,0.1,0.00022735,2272,0.00022531,2215.7,-6.9582e-05,-0.014333,-8.404e-05,-108.65,0.92257
29124,13.793,1.1818,0.1,0.00023569,2355.3,0.00023362,2298.1,-7.2239e-05,-0.0053495,-8.695e-05,-110.54,0.91285
29125,13.885,1.0909,0.1,0.00023116,2310,0.00022895,2249.3,-7.0422e-05,-0.0057494,-8.5971e-05,-116.84,0.92322
29126,13.793,1.3636,0.1,0.00023888,2387.2,0.00023679,2329.6,-7.3253e-05,0.004462,-8.8068e-05,-111.31,0.9134
29127,13.885,1.2727,0.1,0.00023488,2347.1,0.0002326,2284.7,-7.1478e-05,0.0043632,-8.7477e-05,-120.2,0.9238
29128,13.793,1.5455,0.1,0.00024185,2416.8,0.00023983,2360.9,-7.4392e-05,0.015169,-8.8787e-05,-108.14,0.9139
29129,13.885,1.4545,0.1,0.0002384,2382.4,0.00023616,2320.7,-7.2706e-05,0.016347,-8.8541e-05,-118.96,0.92433
29130,13.793,1.7273,0.1,0.00024453,2443.6,0.00024264,2391.2,-7.5604e-05,0.024889,-8.9142e-05,-101.69,0.91434
29131,13.885,1.6364,0.1,0.00024165,2414.9,0.00023952,2356.1,-7.4049e-05,0.028314,-8.9175e-05,-113.62,0.9248
29132,13.793,1.9091,0.1,0.00024689,2467.2,0.00024518,2419.5,-7.6828e-05,0.031341,-8.9195e-05,-92.894,0.91472
29133,13.885,1.8182,0.1,0.00024456,2443.9,0.00024261,2389.7,-7.5443e-05,0.038038,-8.9429e-05,-105.05,0.92521
29134,13.793,2.0909,0.1,0.00024891,2487.4,0.0002474,2444.9,-7.7999e-05,0.031938,-8.9031e-05,-82.862,0.91504
29135,13.885,2,0.1,0.00024709,2469.2,0.00024535,2420.7,-7.6816e-05,0.042405,-8.9387e-05,-94.409,0.92556
29136,13.793,2.2727,0.1,0.00025057,2504,0.00024926,2466.8,-7.9057e-05,0.024676,-8.8744e-05,-72.761,0.91531
29137,13.885,2.1818,0.1,0.00024923,2490.6,0.00024771,2448,-7.8095e-05,0.038303,-8.9151e-05,-83.031,0.92586
29138,13.793,2.4545,0.1,0.00025188,2517,0.00025073,2484.6,-7.9944e-05,0.0094366,-8.8421e-05,-63.685,0.91551
29139,13.885,2.3636,0.1,0.00025096,2507.9,0.00024965,2471,-7.9211e-05,0.024083,-8.8827e-05,-72.23,0.92609
29140,13.793,2.6364,0.1,0.00025282,2526.4,0.00025181,2497.7,-8.0614e-05,-0.010524,-8.8138e-05,-56.542,0.91565
29141,13.885,2.5455,0.1,0.00025228,2521,0.00025114,2488.9,-8.0104e-05,0.0014784,-8.8508e-05,-63.144,0.92626
29142,13.793,2.8182,0.1,0.00025339,2532.1,0.00025246,2505.7,-8.1032e-05,-0.028164,-8.7948e-05,-51.994,0.91574
29143,13.885,2.7273,0.1,0.00025317,2529.9,0.00025216,2501.1,-8.0727e-05,-0.023043,-8.8261e-05,-56.629,0.92638
29144,13.793,3,0.1,0.00025358,2534,0.00025268,2508.4,-8.1173e-05,-0.035306,-8.7881e-05,-50.434,0.91577
29145,13.885,2.9091,0.1,0.00025362,2534.4,0.00025267,2507.4,-8.1047e-05,-0.039415,-8.8127e-05,-53.239,0.92644
29146,13.793,3.1818,0.1,0.00025339,2532.1,0.00025246,2505.7,-8.1032e-05,-0.028164,-8.7948e-05,-51.994,0.91574
29147,13.885,3.0909,0.1,0.00025362,2534.4,0.00025267,2507.4,-8.1047e-05,-0.039415,-8.8127e-05,-53.239,0.92644
29148,13.793,3.3636,0.1,0.00025282,2526.4,0.00025181,2497.7,-8.0614e-05,-0.010524,-8.8138e-05,-56.542,0.91565
29149,13.885,3.2727,0.1,0.00025317,2529.9,0.00025216,2501.1,-8.0727e-05,-0.023042,-8.8261e-05,-56.629,0.92638
29150,13.793,3.5455,0.1,0.00025188,2517,0.00025073,2484.6,-7.9944e-05,0.0094367,-8.8421e-05,-63.685,0.91551
29151,13.885,3.4545,0.1,0.00025228,2521,0.00025114,2488.9,-8.0104e-05,0.0014788,-8.8508e-05,-63.144,0.92626
29152,13.793,3.7273,0.1,0.00025057,2504,0.00024926,2466.8,-7.9057e-05,0.024676,-8.8744e-05,-72.761,0.91531
29153,13.885,3.6364,0.1,0.00025096,2507.9,0.00024965,2471,-7.9211e-05,0.024083,-8.8827e-05,-72.23,0.92609
29154,13.793,3.9091,0.1,0.00024891,2487.4,0.0002474,2444.9,-7.7999e-05,0.031939,-8.9031e-05,-82.862,0.91504
29155,13.885,3.8182,0.1,0.00024923,2490.6,0.00024771,2448,-7.8095e-05,0.038303,-8.9151e-05,-83.031,0.92586
29156,13.793,4.0909,0.1,0.00024689,2467.2,0.00024518,2419.5,-7.6827e-05,0.031342,-8.9195e-05,-92.894,0.91472
29157,13.885,4,0.1,0.00024709,2469.2,0.00024535,2420.7,-7.6816e-05,0.042405,-8.9387e-05,-94.409,0.92556
29158,13.793,4.2727,0.1,0.00024453,2443.6,0.00024264,2391.2,-7.5604e-05,0.02489,-8.9142e-05,-101.69,0.91434
29159,13.885,4.1818,0.1,0.00024456,2443.9,0.00024261,2389.7,-7.5443e-05,0.038038,-8.9429e-05,-105.05,0.92521
29160,13.793,4.4545,0.1,0.00024185,2416.8,0.00023983,2360.9,-7.4392e-05,0.01517,-8.8787e-05,-108.14,0.9139
29161,13.885,4.3636,0.1,0.00024165,2414.9,0.00023952,2356.1,-7.4049e-05,0.028315,-8.9175e-05,-113.62,0.9248
29162,13.793,4.6364,0.1,0.00023888,2387.2,0.00023679,2329.6,-7.3253e-05,0.0044627,-8.8068e-05,-111.31,0.9134
29163,13.885,4.5455,0.1,0.0002384,2382.4,0.00023616,2320.7,-7.2706e-05,0.016348,-8.8541e-05,-118.96,0.92433
29164,13.793,4.8182,0.1,0.00023569,2355.3,0.00023362,2298.1,-7.2239e-05,-0.005349,-8.695e-05,-110.54,0.91285
29165,13.885,4.7273,0.1,0.00023488,2347.1,0.0002326,2284.7,-7.1478e-05,0.0043636,-8.7477e-05,-120.2,0.9238
29166,13.793,5,0.1,0.00023236,2322,0.00023039,2267.5,-7.1399e-05,-0.013459,-8.5427e-05,-105.42,0.91223
29167,13.885,4.9091,0.1,0.00023116,2310,0.00022895,2249.3,-7.0422e-05,-0.0057487,-8.5971e-05,-116.84,0.92322
29168,13.793,5.1818,0.1,0.00022897,2288.1,0.00022719,2238.7,-7.0767e-05,-0.0159,-8.3514e-05,-95.789,0.91156
29169,13.885,5.0909,0.1,0.00022735,2272,0.00022531,2215.7,-6.9582e-05,-0.014331,-8.404e-05,-108.65,0.92257
29170,13.793,5.3636,0.1,0.00022562,2254.6,0.00022412,2212.7,-7.0375e-05,-0.018973,-8.1237e-05,-81.631,0.91084
29171,13.885,5.2727,0.1,0.00022357,2234.2,0.00022179,2184.8,-6.8991e-05,-0.012768,-8.172e-05,-95.65,0.92188
29172,13.793,5.5455,0.1,0.00022238,2222.2,0.00022124,2190.1,-7.0239e-05,0.039749,-7.8627e-05,-62.979,0.91006
29173,13.885,5.4545,0.1,0.00021991,2197.6,0.00021848,2157.6,-6.8678e-05,-0.022762,-7.9048e-05,-77.942,0.92112
29174,13.793,5.7273,0.1,0.00021932,2191.7,0.00021861,2171.5,-7.038e-05,0.086943,-7.5709e-05,-39.953,0.90923
29175,13.885,5.6364,0.1,0.00021645,2163,0.00021545,2134.7,-6.8649e-05,0.11325,-7.6058e-05,-55.553,0.92032
29176,13.885,5.8182,0.1,0.00021325,2131,0.00021275,2116.6,-6.8936e-05,0.11897,-7.277e-05,-28.687,0.91947
29177,13.793,5.9091,0.1,0.00021671,2165.6,0.00021645,2158,-7.0755e-05,0.015347,-7.2792e-05,-15.291,0.90835
29178,13.977,0.27273,0.1,0.00021037,2102.2,0.00020958,2079.8,-6.7213e-05,0.084791,-7.3107e-05,-44.195,0.93061
29179,14.069,0.18182,0.1,0.00020353,2033.9,0.00020298,2018.2,-6.5602e-05,0.11217,-6.9774e-05,-31.235,0.94092
29180,13.977,0.090909,0.1,0.00020738,2072.3,0.00020709,2064.1,-6.7617e-05,0.016471,-6.9808e-05,-16.451,0.92973
29181,13.977,0.45455,0.1,0.00021399,2138.4,0.0002127,2102.3,-6.7089e-05,0.040206,-7.6486e-05,-70.563,0.93144
29182,14.069,0.36364,0.1,0.00020728,2071.4,0.00020616,2039.9,-6.531e-05,0.11736,-7.3548e-05,-61.782,0.94177
29183,13.977,0.63636,0.1,0.00021788,2177.3,0.00021617,2129.8,-6.7294e-05,-0.020544,-7.9544e-05,-92.061,0.93221
29184,14.069,0.54545,0.1,0.00021139,2112.5,0.00020977,2067.4,-6.539e-05,-0.027174,-7.7012e-05,-87.356,0.94257
29185,13.977,0.81818,0.1,0.00022198,2218.2,0.00021993,2161.9,-6.7806e-05,-0.013129,-8.2264e-05,-108.65,0.93294
29186,14.069,0.72727,0.1,0.00021582,2156.7,0.00021378,2100.7,-6.5807e-05,-0.010386,-8.0171e-05,-107.94,0.94333
29187,13.977,1,0.1,0.00022618,2260.2,0.00022389,2197.7,-6.8605e-05,-0.0077023,-8.4605e-05,-120.22,0.93361
29188,14.069,0.90909,0.1,0.00022047,2203.2,0.00021811,2138.9,-6.6554e-05,-0.0083864,-8.2986e-05,-123.47,0.94403
29189,13.977,1.1818,0.1,0.00023037,2302.1,0.00022795,2236.2,-6.9661e-05,0.0032977,-8.6519e-05,-126.66,0.93423
29190,14.069,1.0909,0.1,0.00022523,2250.7,0.00022266,2180.9,-6.7605e-05,0.0036745,-8.5396e-05,-133.67,0.94467
29191,13.977,1.3636,0.1,0.00023443,2342.6,0.00023199,2276,-7.0932e-05,0.015804,-8.797e-05,-128,0.93478
29192,14.069,1.2727,0.1,0.00022994,2297.8,0.00022727,2225.5,-6.8924e-05,0.016672,-8.7335e-05,-138.32,0.94526
29193,13.977,1.5455,0.1,0.00023823,2380.7,0.00023587,2316,-7.2363e-05,0.029188,-8.8947e-05,-124.57,0.93529
29194,14.069,1.4545,0.1,0.00023445,2342.9,0.00023181,2271.2,-7.046e-05,0.031493,-8.8756e-05,-137.44,0.94579
29195,13.977,1.7273,0.1,0.0002417,2415.4,0.0002395,2354.7,-7.3888e-05,0.041292,-8.9477e-05,-117.09,0.93573
29196,14.069,1.6364,0.1,0.00023865,2384.8,0.00023614,2316.4,-7.2147e-05,0.046259,-8.9651e-05,-131.48,0.94627
29197,13.977,1.9091,0.1,0.00024478,2446.1,0.00024279,2391,-7.5432e-05,0.049096,-8.9632e-05,-106.65,0.93611
29198,14.069,1.8182,0.1,0.00024242,2422.5,0.00024012,2359.5,-7.3904e-05,0.058218,-9.007e-05,-121.41,0.94668
29199,13.977,2.0909,0.1,0.00024742,2472.5,0.00024568,2423.8,-7.6912e-05,0.048918,-8.9514e-05,-94.639,0.93643
29200,14.069,2,0.1,0.00024572,2455.5,0.00024369,2399.4,-7.5638e-05,0.06298,-9.0113e-05,-108.69,0.94703
29201,13.977,2.2727,0.1,0.00024962,2494.5,0.00024811,2452.2,-7.8249e-05,0.037816,-8.924e-05,-82.54,0.9367
29202,14.069,2.1818,0.1,0.00024853,2483.5,0.00024677,2434.7,-7.7256e-05,0.056102,-8.9912e-05,-95.033,0.94733
29203,13.977,2.4545,0.1,0.00025136,2511.9,0.00025007,2475.3,-7.9371e-05,0.015643,-8.8917e-05,-71.711,0.9369
29204,14.069,2.3636,0.1,0.00025082,2506.5,0.00024932,2464.4,-7.8667e-05,0.035251,-8.9601e-05,-82.117,0.94757
29205,13.977,2.6364,0.1,0.00025263,2524.5,0.00025149,2492.3,-8.0217e-05,-0.012923,-8.8631e-05,-63.238,0.93705
29206,14.069,2.5455,0.1,0.00025259,2524.1,0.0002513,2487.7,-7.9795e-05,0.0029399,-8.9291e-05,-71.343,0.94774
29207,13.977,2.8182,0.1,0.0002534,2532.3,0.00025237,2502.8,-8.0743e-05,-0.037969,-8.844e-05,-57.872,0.93714
29208,14.069,2.7273,0.1,0.00025379,2536.2,0.00025265,2503.7,-8.058e-05,-0.031544,-8.9053e-05,-63.693,0.94786
29209,13.977,3,0.1,0.00025366,2534.9,0.00025266,2506.4,-8.0921e-05,-0.048074,-8.8373e-05,-56.038,0.93716
29210,14.069,2.9091,0.1,0.00025441,2542.3,0.00025334,2511.9,-8.0982e-05,-0.054304,-8.8926e-05,-59.741,0.94792
29211,13.977,3.1818,0.1,0.0002534,2532.3,0.00025237,2502.8,-8.0743e-05,-0.037969,-8.844e-05,-57.872,0.93714
29212,14.069,3.0909,0.1,0.00025441,2542.3,0.00025334,2511.9,-8.0982e-05,-0.054304,-8.8926e-05,-59.741,0.94792
29213,13.977,3.3636,0.1,0.00025263,2524.5,0.00025149,2492.3,-8.0217e-05,-0.012923,-8.8631e-05,-63.238,0.93705
29214,14.069,3.2727,0.1,0.00025379,2536.2,0.00025265,2503.7,-8.058e-05,-0.031544,-8.9053e-05,-63.693,0.94786
29215,13.977,3.5455,0.1,0.00025136,2511.9,0.00025007,2475.3,-7.9371e-05,0.015643,-8.8917e-05,-71.711,0.9369
29216,14.069,3.4545,0.1,0.00025259,2524.1,0.0002513,2487.7,-7.9795e-05,0.0029403,-8.9291e-05,-71.343,0.94774
29217,13.977,3.7273,0.1,0.00024962,2494.5,0.00024811,2452.2,-7.8249e-05,0.037816,-8.924e-05,-82.54,0.9367
29218,14.069,3.6364,0.1,0.00025082,2506.5,0.00024932,2464.4,-7.8667e-05,0.035251,-8.9601e-05,-82.117,0.94757
29219,13.977,3.9091,0.1,0.00024742,2472.5,0.00024568,2423.8,-7.6912e-05,0.048918,-8.9514e-05,-94.639,0.93643
29220,14.069,3.8182,0.1,0.00024853,2483.5,0.00024677,2434.7,-7.7256e-05,0.056103,-8.9912e-05,-95.033,0.94733
29221,13.977,4.0909,0.1,0.00024478,2446.1,0.00024279,2391,-7.5432e-05,0.049096,-8.9632e-05,-106.65,0.93611
29222,14.069,4,0.1,0.00024572,2455.5,0.00024369,2399.4,-7.5638e-05,0.06298,-9.0113e-05,-108.69,0.94703
29223,13.977,4.2727,0.1,0.0002417,2415.4,0.0002395,2354.7,-7.3888e-05,0.041293,-8.9477e-05,-117.09,0.93573
29224,14.069,4.1818,0.1,0.00024242,2422.5,0.00024012,2359.5,-7.3904e-05,0.058218,-9.007e-05,-121.41,0.94668
29225,13.977,4.4545,0.1,0.00023823,2380.7,0.00023587,2316,-7.2363e-05,0.029189,-8.8947e-05,-124.57,0.93529
29226,14.069,4.3636,0.1,0.00023865,2384.8,0.00023614,2316.4,-7.2147e-05,0.046259,-8.9651e-05,-131.48,0.94627
29227,13.977,4.6364,0.1,0.00023443,2342.6,0.00023199,2276,-7.0932e-05,0.015804,-8.797e-05,-128,0.93478
29228,14.069,4.5455,0.1,0.00023445,2342.9,0.00023181,2271.2,-7.046e-05,0.031494,-8.8756e-05,-137.44,0.94579
29229,13.977,4.8182,0.1,0.00023037,2302.1,0.00022795,2236.2,-6.9661e-05,0.0032983,-8.6519e-05,-126.66,0.93423
29230,14.069,4.7273,0.1,0.00022994,2297.8,0.00022727,2225.5,-6.8924e-05,0.016673,-8.7335e-05,-138.32,0.94526
29231,13.977,5,0.1,0.00022618,2260.2,0.00022389,2197.7,-6.8605e-05,-0.0077007,-8.4605e-05,-120.22,0.93361
29232,14.069,4.9091,0.1,0.00022523,2250.7,0.00022266,2180.9,-6.7605e-05,0.0036754,-8.5396e-05,-133.67,0.94467
29233,13.977,5.1818,0.1,0.00022198,2218.2,0.00021993,2161.9,-6.7806e-05,-0.013127,-8.2264e-05,-108.65,0.93294
29234,14.069,5.0909,0.1,0.00022047,2203.2,0.00021811,2138.9,-6.6554e-05,-0.0083848,-8.2986e-05,-123.47,0.94403
29235,13.977,5.3636,0.1,0.00021788,2177.3,0.00021617,2129.8,-6.7294e-05,-0.020544,-7.9544e-05,-92.061,0.93221
29236,14.069,5.2727,0.1,0.00021582,2156.7,0.00021378,2100.7,-6.5807e-05,-0.010384,-8.0171e-05,-107.94,0.94333
29237,13.977,5.5455,0.1,0.00021399,2138.4,0.0002127,2102.3,-6.7089e-05,0.040206,-7.6486e-05,-70.563,0.93144
29238,14.069,5.4545,0.1,0.00021139,2112.5,0.00020977,2067.4,-6.539e-05,-0.027174,-7.7012e-05,-87.356,0.94257
29239,13.977,5.7273,0.1,0.00021037,2102.2,0.00020958,2079.8,-6.7213e-05,0.084791,-7.3107e-05,-44.195,0.93061
29240,14.069,5.6364,0.1,0.00020728,2071.4,0.00020616,2039.9,-6.531e-05,0.11735,-7.3548e-05,-61.782,0.94177
29241,14.069,5.8182,0.1,0.00020353,2033.9,0.00020298,2018.2,-6.5602e-05,0.11217,-6.9774e-05,-31.235,0.94092
29242,13.977,5.9091,0.1,0.00020738,2072.3,0.00020709,2064.1,-6.7617e-05,0.016472,-6.9808e-05,-16.451,0.92973
29243,14.161,0.27273,0.1,0.00020044,2003,0.00019956,1978.2,-6.3708e-05,0.07385,-7.0207e-05,-48.751,0.95213
29244,14.253,0.18182,0.1,0.00019271,1925.8,0.00019211,1908.6,-6.1896e-05,0.085103,-6.6433e-05,-34.006,0.96251
29245,14.161,0.090909,0.1,0.00019701,1968.8,0.0001967,1959.8,-6.4132e-05,0.015995,-6.6495e-05,-17.737,0.95125
29246,14.161,0.45455,0.1,0.00020469,2045.5,0.00020324,2005.1,-6.3612e-05,0.038495,-7.4087e-05,-78.667,0.95296
29247,14.253,0.36364,0.1,0.00019706,1969.2,0.00019581,1934.2,-6.1608e-05,0.11575,-7.0708e-05,-68.263,0.96336
29248,14.161,0.63636,0.1,0.00020935,2092.1,0.0002074,2038.4,-6.3902e-05,-0.021284,-7.7662e-05,-103.41,0.95374
29249,14.253,0.54545,0.1,0.0002019,2017.6,0.00020007,1967.2,-6.1752e-05,-0.031989,-7.47e-05,-97.316,0.96416
29250,14.161,0.81818,0.1,0.00021435,2142,0.00021199,2077.8,-6.4556e-05,-0.0076615,-8.0923e-05,-122.99,0.95446
29251,14.253,0.72727,0.1,0.00020724,2071,0.00020491,2007.6,-6.2291e-05,-0.0057242,-7.844e-05,-121.34,0.96492
29252,14.161,1,0.1,0.00021956,2194.1,0.00021691,2122.3,-6.5555e-05,0.0018872,-8.3812e-05,-137.18,0.95514
29253,14.253,0.90909,0.1,0.00021297,2128.2,0.00021024,2054.7,-6.3222e-05,0.0016422,-8.188e-05,-140.19,0.96563
29254,14.161,1.1818,0.1,0.00022484,2246.9,0.00022201,2170.6,-6.6868e-05,0.016365,-8.6248e-05,-145.6,0.95576
29255,14.253,1.0909,0.1,0.00021893,2187.8,0.00021592,2107.1,-6.452e-05,0.018146,-8.4923e-05,-153.28,0.96628
29256,14.161,1.3636,0.1,0.00023001,2298.5,0.00022714,2221,-6.8452e-05,0.031857,-8.8155e-05,-148.01,0.95632
29257,14.253,1.2727,0.1,0.00022491,2247.6,0.00022177,2163.3,-6.6151e-05,0.034472,-8.7453e-05,-160.02,0.96687
29258,14.161,1.5455,0.1,0.00023491,2347.4,0.00023211,2271.8,-7.0243e-05,0.048135,-8.949e-05,-144.56,0.95683
29259,14.253,1.4545,0.1,0.00023071,2305.5,0.00022757,2221.3,-6.8064e-05,0.052346,-8.937e-05,-160.04,0.96741
29260,14.161,1.7273,0.1,0.00023939,2392.3,0.00023679,2321.4,-7.2162e-05,0.062831,-9.0268e-05,-135.98,0.95727
29261,14.253,1.6364,0.1,0.00023611,2359.5,0.00023313,2279,-7.0179e-05,0.070253,-9.0632e-05,-153.61,0.96789
29262,14.161,1.9091,0.1,0.00024338,2432.2,0.00024105,2368,-7.411e-05,0.071892,-9.0569e-05,-123.6,0.95766
29263,14.253,1.8182,0.1,0.000241,2408.3,0.00023828,2334.3,-7.2395e-05,0.084701,-9.1281e-05,-141.82,0.96831
29264,14.161,2.0909,0.1,0.00024684,2466.7,0.0002448,2410.3,-7.5983e-05,0.070119,-9.0524e-05,-109.19,0.95799
29265,14.253,2,0.1,0.0002453,2451.3,0.0002429,2385.6,-7.4591e-05,0.089715,-9.1444e-05,-126.53,0.96867
29266,14.161,2.2727,0.1,0.00024974,2495.6,0.00024799,2447,-7.7674e-05,0.053423,-9.0282e-05,-94.672,0.95825
29267,14.253,2.1818,0.1,0.00024897,2488,0.00024692,2431.2,-7.6642e-05,0.078255,-9.1298e-05,-110.04,0.96897
29268,14.161,2.4545,0.1,0.00025205,2518.8,0.00025056,2476.9,-7.9092e-05,0.021657,-8.9979e-05,-81.78,0.95846
29269,14.253,2.3636,0.1,0.000252,2518.3,0.00025026,2469.7,-7.8428e-05,0.047082,-9.1021e-05,-94.578,0.96921
29270,14.161,2.6364,0.1,0.00025375,2535.8,0.00025246,2499.1,-8.0159e-05,-0.018406,-8.9712e-05,-71.803,0.95861
29271,14.253,2.5455,0.1,0.00025436,2541.8,0.00025287,2499.9,-7.985e-05,0.0012252,-9.0747e-05,-81.876,0.96939
29272,14.161,2.8182,0.1,0.0002548,2546.2,0.00025362,2512.8,-8.082e-05,-0.052925,-8.9537e-05,-65.549,0.9587
29273,14.253,2.7273,0.1,0.00025598,2558.1,0.00025466,2520.8,-8.0836e-05,-0.045929,-9.0547e-05,-73.01,0.96951
29274,14.161,3,0.1,0.00025515,2549.8,0.00025401,2517.4,-8.1045e-05,-0.066705,-8.9477e-05,-63.425,0.95873
29275,14.253,2.9091,0.1,0.00025681,2566.4,0.00025558,2531.4,-8.134e-05,-0.07627,-9.0445e-05,-68.491,0.96957
29276,14.161,3.1818,0.1,0.0002548,2546.2,0.00025362,2512.8,-8.082e-05,-0.052925,-8.9537e-05,-65.549,0.9587
29277,14.253,3.0909,0.1,0.00025681,2566.4,0.00025558,2531.4,-8.134e-05,-0.076269,-9.0445e-05,-68.491,0.96957
29278,14.161,3.3636,0.1,0.00025375,2535.8,0.00025246,2499.1,-8.0159e-05,-0.018405,-8.9712e-05,-71.803,0.95861
29279,14.253,3.2727,0.1,0.00025598,2558.1,0.00025466,2520.8,-8.0836e-05,-0.045928,-9.0547e-05,-73.01,0.96951
29280,14.161,3.5455,0.1,0.00025205,2518.8,0.00025056,2476.9,-7.9092e-05,0.021657,-8.9979e-05,-81.78,0.95846
29281,14.253,3.4545,0.1,0.00025436,2541.8,0.00025287,2499.9,-7.985e-05,0.0012255,-9.0747e-05,-81.876,0.96939
29282,14.161,3.7273,0.1,0.00024974,2495.6,0.00024799,2447,-7.7674e-05,0.053423,-9.0282e-05,-94.672,0.95825
29283,14.253,3.6364,0.1,0.000252,2518.3,0.00025026,2469.7,-7.8428e-05,0.047082,-9.1021e-05,-94.578,0.96921
29284,14.161,3.9091,0.1,0.00024684,2466.7,0.0002448,2410.3,-7.5983e-05,0.07012,-9.0524e-05,-109.19,0.95799
29285,14.253,3.8182,0.1,0.00024897,2488,0.00024692,2431.2,-7.6642e-05,0.078256,-9.1298e-05,-110.04,0.96897
29286,14.161,4.0909,0.1,0.00024338,2432.2,0.00024105,2368,-7.411e-05,0.071893,-9.0569e-05,-123.6,0.95766
29287,14.253,4,0.1,0.0002453,2451.3,0.0002429,2385.6,-7.4591e-05,0.089716,-9.1444e-05,-126.53,0.96867
29288,14.161,4.2727,0.1,0.00023939,2392.3,0.00023679,2321.4,-7.2162e-05,0.062832,-9.0268e-05,-135.98,0.95727
29289,14.253,4.1818,0.1,0.000241,2408.3,0.00023828,2334.3,-7.2395e-05,0.084701,-9.1281e-05,-141.82,0.96831
29290,14.161,4.4545,0.1,0.00023491,2347.4,0.00023211,2271.8,-7.0243e-05,0.048135,-8.949e-05,-144.56,0.95683
29291,14.253,4.3636,0.1,0.00023611,2359.5,0.00023313,2279,-7.0179e-05,0.070254,-9.0632e-05,-153.61,0.96789
29292,14.161,4.6364,0.1,0.00023001,2298.5,0.00022714,2221,-6.8452e-05,0.031858,-8.8155e-05,-148.01,0.95632
29293,14.253,4.5455,0.1,0.00023071,2305.5,0.00022757,2221.3,-6.8064e-05,0.052347,-8.937e-05,-160.04,0.96741
29294,14.161,4.8182,0.1,0.00022484,2246.9,0.00022201,2170.6,-6.6868e-05,0.016365,-8.6248e-05,-145.6,0.95576
29295,14.253,4.7273,0.1,0.00022491,2247.6,0.00022177,2163.3,-6.6151e-05,0.034473,-8.7453e-05,-160.02,0.96687
29296,14.161,5,0.1,0.00021956,2194.1,0.00021691,2122.3,-6.5555e-05,0.0018882,-8.3812e-05,-137.18,0.95514
29297,14.253,4.9091,0.1,0.00021893,2187.8,0.00021592,2107.1,-6.452e-05,0.018146,-8.4923e-05,-153.28,0.96628
29298,14.161,5.1818,0.1,0.00021435,2142,0.00021199,2077.8,-6.4556e-05,-0.0076598,-8.0923e-05,-122.99,0.95446
29299,14.253,5.0909,0.1,0.00021297,2128.2,0.00021024,2054.7,-6.3222e-05,0.0016436,-8.188e-05,-140.19,0.96563
29300,14.161,5.3636,0.1,0.00020935,2092.1,0.0002074,2038.4,-6.3902e-05,-0.021282,-7.7662e-05,-103.41,0.95374
29301,14.253,5.2727,0.1,0.00020724,2071,0.00020491,2007.6,-6.2291e-05,-0.0057223,-7.844e-05,-121.34,0.96492
29302,14.161,5.5455,0.1,0.00020469,2045.5,0.00020324,2005.1,-6.3612e-05,0.038496,-7.4087e-05,-78.667,0.95296
29303,14.253,5.4545,0.1,0.0002019,2017.6,0.00020007,1967.2,-6.1752e-05,-0.031988,-7.47e-05,-97.316,0.96416
29304,14.161,5.7273,0.1,0.00020044,2003,0.00019956,1978.2,-6.3708e-05,0.07385,-7.0207e-05,-48.751,0.95213
29305,14.253,5.6364,0.1,0.00019706,1969.2,0.00019581,1934.2,-6.1608e-05,0.11575,-7.0708e-05,-68.263,0.96336
29306,14.253,5.8182,0.1,0.00019271,1925.8,0.00019211,1908.6,-6.1896e-05,0.085103,-6.6433e-05,-34.006,0.96251
29307,14.161,5.9091,0.1,0.00019701,1968.8,0.0001967,1959.8,-6.4132e-05,0.015994,-6.6495e-05,-17.737,0.95125
29308,14.345,0.27273,0.1,0.00018933,1892,0.00018836,1864.7,-5.9805e-05,0.04982,-6.6931e-05,-53.487,0.97378
29309,14.437,0.18182,0.1,0.00018059,1804.7,0.00017994,1785.9,-5.7754e-05,0.028853,-6.2673e-05,-36.926,0.98422
29310,14.345,0.090909,0.1,0.00018542,1852.9,0.00018508,1843.3,-6.0237e-05,0.012629,-6.2784e-05,-19.125,0.97291
29311,14.345,0.45455,0.1,0.00019428,1941.5,0.00019266,1896.5,-5.975e-05,0.033332,-7.1343e-05,-87.072,0.97461
29312,14.437,0.36364,0.1,0.00018555,1854.2,0.00018417,1815.8,-5.7484e-05,0.10511,-6.7441e-05,-74.708,0.98508
29313,14.345,0.63636,0.1,0.00019984,1997,0.00019762,1936.7,-6.0142e-05,-0.020761,-7.5515e-05,-115.53,0.9754
29314,14.437,0.54545,0.1,0.00019123,1911,0.00018917,1854.9,-5.7707e-05,-0.037338,-7.2014e-05,-107.53,0.98589
29315,14.345,0.81818,0.1,0.00020593,2057.8,0.00020321,1984.9,-6.0958e-05,0.0016201,-7.9447e-05,-138.92,0.97613
29316,14.437,0.72727,0.1,0.00019765,1975.1,0.00019499,1903.8,-5.8384e-05,0.0018636,-7.6453e-05,-135.76,0.98665
29317,14.345,1,0.1,0.00021241,2122.6,0.00020931,2039.9,-6.2187e-05,0.016892,-8.3049e-05,-156.73,0.97681
29318,14.437,0.90909,0.1,0.00020471,2045.7,0.00020154,1961.5,-5.9519e-05,0.01721,-8.0694e-05,-159.09,0.98737
29319,14.345,1.1818,0.1,0.00021908,2189.3,0.00021573,2100.4,-6.3803e-05,0.035634,-8.6189e-05,-168.16,0.97744
29320,14.437,1.0909,0.1,0.00021219,2120.4,0.00020864,2026.7,-6.1097e-05,0.039614,-8.4586e-05,-176.45,0.98803
29321,14.345,1.3636,0.1,0.00022568,2255.3,0.00022225,2164.1,-6.5763e-05,0.054428,-8.8726e-05,-172.48,0.97801
29322,14.437,1.2727,0.1,0.00021981,2196.6,0.00021604,2097.4,-6.3095e-05,0.059688,-8.7933e-05,-186.56,0.98864
29323,14.345,1.5455,0.1,0.00023198,2318.2,0.00022863,2228.8,-6.7999e-05,0.073868,-9.0562e-05,-169.46,0.97853
29324,14.437,1.4545,0.1,0.00022726,2271,0.00022347,2171,-6.5462e-05,0.080225,-9.0548e-05,-188.4,0.98918
29325,14.345,1.7273,0.1,0.00023777,2376.1,0.00023465,2292.2,-7.0411e-05,0.091472,-9.1685e-05,-159.75,0.97898
29326,14.437,1.6364,0.1,0.00023425,2340.8,0.00023062,2244.7,-6.8111e-05,0.10038,-9.2323e-05,-181.82,0.98967
29327,14.345,1.9091,0.1,0.00024295,2427.8,0.00024016,2352.1,-7.2876e-05,0.10195,-9.2185e-05,-144.98,0.97938
29328,14.437,1.8182,0.1,0.00024057,2404.1,0.00023728,2315.7,-7.0913e-05,0.11687,-9.3285e-05,-167.97,0.9901
29329,14.345,2.0909,0.1,0.00024745,2472.8,0.00024503,2406.6,-7.5251e-05,0.097434,-9.2239e-05,-127.55,0.97971
29330,14.437,2,0.1,0.00024614,2459.7,0.00024326,2381.7,-7.3706e-05,0.11963,-9.36e-05,-149.35,0.99047
29331,14.345,2.2727,0.1,0.00025125,2510.7,0.0002492,2453.9,-7.7395e-05,0.07136,-9.205e-05,-110.04,0.97998
29332,14.437,2.1818,0.1,0.00025092,2507.5,0.00024848,2440.5,-7.6314e-05,0.10022,-9.3523e-05,-129.2,0.99078
29333,14.345,2.4545,0.1,0.00025431,2541.4,0.00025257,2492.7,-7.9186e-05,0.025046,-9.1795e-05,-94.713,0.98019
29334,14.437,2.3636,0.1,0.00025491,2547.3,0.00025285,2490.2,-7.8577e-05,0.055564,-9.3303e-05,-110.59,0.99102
29335,14.345,2.6364,0.1,0.00025659,2564.1,0.00025507,2521.5,-8.0528e-05,-0.030211,-9.1581e-05,-83.077,0.98034
29336,14.437,2.5455,0.1,0.00025803,2578.6,0.00025627,2529.4,-8.0366e-05,-0.0079621,-9.3105e-05,-95.719,0.99121
29337,14.345,2.8182,0.1,0.00025799,2578.2,0.00025662,2539.3,-8.1357e-05,-0.075949,-9.145e-05,-75.915,0.98044
29338,14.437,2.7273,0.1,0.00026021,2600.3,0.00025864,2556.4,-8.1598e-05,-0.070152,-9.2987e-05,-85.643,0.99133
29339,14.345,3,0.1,0.00025847,2582.9,0.00025714,2545.4,-8.1637e-05,-0.093805,-9.1408e-05,-73.509,0.98047
29340,14.437,2.9091,0.1,0.00026133,2611.5,0.00025986,2570.2,-8.2223e-05,-0.10825,-9.2939e-05,-80.626,0.99139
29341,14.345,3.1818,0.1,0.00025799,2578.2,0.00025662,2539.3,-8.1357e-05,-0.075948,-9.145e-05,-75.915,0.98044
29342,14.437,3.0909,0.1,0.00026133,2611.5,0.00025986,2570.2,-8.2223e-05,-0.10825,-9.2939e-05,-80.626,0.99139
29343,14.345,3.3636,0.1,0.00025659,2564.1,0.00025507,2521.5,-8.0528e-05,-0.030211,-9.1581e-05,-83.077,0.98034
29344,14.437,3.2727,0.1,0.00026021,2600.3,0.00025864,2556.4,-8.1598e-05,-0.070152,-9.2987e-05,-85.643,0.99133
29345,14.345,3.5455,0.1,0.00025431,2541.4,0.00025257,2492.7,-7.9186e-05,0.025046,-9.1795e-05,-94.713,0.98019
29346,14.437,3.4545,0.1,0.00025803,2578.6,0.00025627,2529.4,-8.0366e-05,-0.0079618,-9.3105e-05,-95.719,0.99121
29347,14.345,3.7273,0.1,0.00025125,2510.7,0.0002492,2453.9,-7.7395e-05,0.07136,-9.205e-05,-110.04,0.97998
29348,14.437,3.6364,0.1,0.00025491,2547.3,0.00025285,2490.2,-7.8577e-05,0.055564,-9.3303e-05,-110.59,0.99102
29349,14.345,3.9091,0.1,0.00024745,2472.8,0.00024503,2406.6,-7.5251e-05,0.097434,-9.2239e-05,-127.55,0.97971
29350,14.437,3.8182,0.1,0.00025092,2507.5,0.00024848,2440.5,-7.6314e-05,0.10022,-9.3523e-05,-129.2,0.99078
29351,14.345,4.0909,0.1,0.00024295,2427.8,0.00024016,2352.1,-7.2876e-05,0.10195,-9.2185e-05,-144.98,0.97938
29352,14.437,4,0.1,0.00024614,2459.7,0.00024326,2381.7,-7.3706e-05,0.11963,-9.36e-05,-149.35,0.99047
29353,14.345,4.2727,0.1,0.00023777,2376.1,0.00023465,2292.2,-7.0411e-05,0.091473,-9.1685e-05,-159.75,0.97898
29354,14.437,4.1818,0.1,0.00024057,2404.1,0.00023728,2315.7,-7.0913e-05,0.11687,-9.3285e-05,-167.97,0.9901
29355,14.345,4.4545,0.1,0.00023198,2318.2,0.00022863,2228.8,-6.7999e-05,0.073869,-9.0562e-05,-169.46,0.97853
29356,14.437,4.3636,0.1,0.00023425,2340.8,0.00023062,2244.7,-6.8111e-05,0.10038,-9.2323e-05,-181.82,0.98967
29357,14.345,4.6364,0.1,0.00022568,2255.3,0.00022225,2164.1,-6.5763e-05,0.054428,-8.8726e-05,-172.48,0.97801
29358,14.437,4.5455,0.1,0.00022726,2271,0.00022347,2171,-6.5462e-05,0.080226,-9.0548e-05,-188.4,0.98918
29359,14.345,4.8182,0.1,0.00021908,2189.3,0.00021573,2100.4,-6.3803e-05,0.035634,-8.6189e-05,-168.16,0.97744
29360,14.437,4.7273,0.1,0.00021981,2196.6,0.00021604,2097.4,-6.3095e-05,0.059688,-8.7933e-05,-186.56,0.98864
29361,14.345,5,0.1,0.00021241,2122.6,0.00020931,2039.9,-6.2187e-05,0.016893,-8.3049e-05,-156.73,0.97681
29362,14.437,4.9091,0.1,0.00021219,2120.4,0.00020864,2026.7,-6.1097e-05,0.039614,-8.4586e-05,-176.45,0.98803
29363,14.345,5.1818,0.1,0.00020593,2057.8,0.00020321,1984.9,-6.0958e-05,0.0016217,-7.9447e-05,-138.92,0.97613
29364,14.437,5.0909,0.1,0.00020471,2045.7,0.00020154,1961.5,-5.9518e-05,0.017211,-8.0694e-05,-159.09,0.98737
29365,14.345,5.3636,0.1,0.00019984,1997,0.00019762,1936.7,-6.0142e-05,-0.020759,-7.5515e-05,-115.53,0.9754
29366,14.437,5.2727,0.1,0.00019765,1975.1,0.00019499,1903.8,-5.8384e-05,0.0018657,-7.6453e-05,-135.76,0.98665
29367,14.345,5.5455,0.1,0.00019428,1941.5,0.00019266,1896.5,-5.975e-05,0.033333,-7.1343e-05,-87.072,0.97461
29368,14.437,5.4545,0.1,0.00019123,1911,0.00018917,1854.9,-5.7707e-05,-0.037337,-7.2014e-05,-107.53,0.98589
29369,14.345,5.7273,0.1,0.00018933,1892,0.00018836,1864.7,-5.9805e-05,0.049821,-6.6931e-05,-53.487,0.97378
29370,14.437,5.6364,0.1,0.00018555,1854.2,0.00018417,1815.8,-5.7484e-05,0.10511,-6.7441e-05,-74.708,0.98508
29371,14.437,5.8182,0.1,0.00018059,1804.7,0.00017994,1785.9,-5.7754e-05,0.028854,-6.2673e-05,-36.926,0.98422
29372,14.345,5.9091,0.1,0.00018542,1852.9,0.00018508,1843.3,-6.0237e-05,0.01263,-6.2784e-05,-19.125,0.97291
29373,14.529,0.27273,0.1,0.00017682,1766.9,0.00017575,1737.1,-5.5443e-05,0.0077866,-6.3187e-05,-58.179,0.99556
29374,14.621,0.18182,0.1,0.00016696,1668.5,0.00016625,1648.1,-5.3117e-05,-0.063795,-5.8413e-05,-39.855,1.0061
29375,14.529,0.090909,0.1,0.00017238,1722.6,0.00017202,1712.2,-5.5863e-05,0.00448,-5.86e-05,-20.56,0.99469
29376,14.529,0.45455,0.1,0.00018253,1824,0.00018072,1774.4,-5.5443e-05,0.02293,-6.8147e-05,-95.432,0.9964
29377,14.621,0.36364,0.1,0.00017252,1724,0.00017101,1682.3,-5.2882e-05,0.082016,-6.3631e-05,-80.681,1.0069
29378,14.529,0.63636,0.1,0.00018911,1889.8,0.00018661,1822.5,-5.595e-05,-0.018703,-7.3013e-05,-128.22,0.99719
29379,14.621,0.54545,0.1,0.00017913,1790,0.00017684,1728.3,-5.3196e-05,-0.042863,-6.8839e-05,-117.58,1.0077
29380,14.529,0.81818,0.1,0.00019653,1964,0.0001934,1881,-5.6945e-05,0.015816,-7.7784e-05,-156.56,0.99794
29381,14.621,0.72727,0.1,0.00018683,1867,0.0001838,1786.9,-5.4018e-05,0.013416,-7.4129e-05,-151.09,1.0085
29382,14.529,1,0.1,0.00020461,2044.7,0.00020096,1949,-5.8428e-05,0.039218,-8.2329e-05,-179.54,0.99863
29383,14.621,0.90909,0.1,0.00019552,1953.9,0.00019182,1857.3,-5.5366e-05,0.040506,-7.9408e-05,-180.61,1.0092
29384,14.529,1.1818,0.1,0.00021305,2129,0.00020905,2024.5,-6.0388e-05,0.063269,-8.6433e-05,-195.62,0.99927
29385,14.621,1.0909,0.1,0.00020493,2047.9,0.00020069,1938.1,-5.7247e-05,0.071171,-8.4452e-05,-204.34,1.0099
29386,14.529,1.3636,0.1,0.00022151,2213.6,0.00021735,2105,-6.2794e-05,0.085007,-8.9852e-05,-203.22,0.99986
29387,14.621,1.2727,0.1,0.00021467,2145.2,0.00021008,2026.8,-5.966e-05,0.096276,-8.8943e-05,-219.92,1.0105
29388,14.529,1.5455,0.1,0.00022963,2294.7,0.00022554,2187.5,-6.5575e-05,0.10594,-9.2392e-05,-201.39,1.0004
29389,14.621,1.4545,0.1,0.00022428,2241.3,0.00021961,2120.3,-6.2571e-05,0.12054,-9.2551e-05,-225.14,1.0111
29390,14.529,1.7273,0.1,0.00023713,2369.6,0.00023331,2268.7,-6.8613e-05,0.12467,-9.3988e-05,-190.53,1.0008
29391,14.621,1.6364,0.1,0.00023334,2331.8,0.00022884,2214.6,-6.5888e-05,0.1448,-9.5051e-05,-218.97,1.0116
29392,14.529,1.9091,0.1,0.00024382,2436.5,0.00024043,2345.7,-7.1744e-05,0.13338,-9.4746e-05,-172.7,1.0013
29393,14.621,1.8182,0.1,0.00024153,2413.6,0.00023745,2306,-6.9448e-05,0.16102,-9.6425e-05,-202.54,1.0121
29394,14.529,2.0909,0.1,0.00024965,2494.8,0.00024674,2415.8,-7.477e-05,0.12136,-9.4915e-05,-151.25,1.0016
29395,14.621,2,0.1,0.00024872,2485.5,0.00024519,2391.1,-7.3022e-05,0.16374,-9.6908e-05,-179.3,1.0124
29396,14.529,2.2727,0.1,0.0002546,2544.3,0.00025215,2476.9,-7.7496e-05,0.083087,-9.4794e-05,-129.89,1.0019
29397,14.621,2.1818,0.1,0.00025491,2547.4,0.00025194,2466.9,-7.636e-05,0.13097,-9.689e-05,-154.12,1.0128
29398,14.529,2.4545,0.1,0.00025863,2584.5,0.00025655,2526.9,-7.9757e-05,0.019763,-9.4619e-05,-111.64,1.0021
29399,14.621,2.3636,0.1,0.0002601,2599.2,0.00025761,2531,-7.9232e-05,0.055755,-9.6742e-05,-131.51,1.013
29400,14.529,2.6364,0.1,0.00026165,2614.7,0.00025984,2564.2,-8.1437e-05,-0.053418,-9.4506e-05,-98.25,1.0023
29401,14.621,2.5455,0.1,0.00026421,2640.3,0.00026208,2581.3,-8.1472e-05,-0.033493,-9.6672e-05,-114.24,1.0132
29402,14.529,2.8182,0.1,0.00026353,2633.5,0.00026188,2587.1,-8.2465e-05,-0.11082,-9.4464e-05,-90.266,1.0023
29403,14.621,2.7273,0.1,0.00026709,2669.1,0.00026518,2615.9,-8.2991e-05,-0.10969,-9.6701e-05,-103.12,1.0133
29404,14.529,3,0.1,0.00026417,2639.9,0.00026257,2594.9,-8.2811e-05,-0.1323,-9.4457e-05,-87.636,1.0024
29405,14.621,2.9091,0.1,0.00026858,2683.9,0.00026678,2633.6,-8.3754e-05,-0.15311,-9.6752e-05,-97.809,1.0134
29406,14.529,3.1818,0.1,0.00026353,2633.5,0.00026188,2587.1,-8.2465e-05,-0.11082,-9.4464e-05,-90.266,1.0023
29407,14.621,3.0909,0.1,0.00026858,2683.9,0.00026678,2633.6,-8.3754e-05,-0.15311,-9.6752e-05,-97.809,1.0134
29408,14.529,3.3636,0.1,0.00026165,2614.7,0.00025984,2564.2,-8.1437e-05,-0.053418,-9.4506e-05,-98.25,1.0023
29409,14.621,3.2727,0.1,0.00026709,2669.1,0.00026518,2615.9,-8.2991e-05,-0.10969,-9.6701e-05,-103.12,1.0133
29410,14.529,3.5455,0.1,0.00025863,2584.5,0.00025655,2526.9,-7.9757e-05,0.019763,-9.4619e-05,-111.64,1.0021
29411,14.621,3.4545,0.1,0.00026421,2640.3,0.00026208,2581.3,-8.1472e-05,-0.033493,-9.6672e-05,-114.24,1.0132
29412,14.529,3.7273,0.1,0.0002546,2544.3,0.00025215,2476.9,-7.7496e-05,0.083087,-9.4794e-05,-129.89,1.0019
29413,14.621,3.6364,0.1,0.0002601,2599.2,0.00025761,2531,-7.9232e-05,0.055756,-9.6742e-05,-131.51,1.013
29414,14.529,3.9091,0.1,0.00024965,2494.8,0.00024674,2415.8,-7.477e-05,0.12136,-9.4915e-05,-151.25,1.0016
29415,14.621,3.8182,0.1,0.00025491,2547.4,0.00025194,2466.9,-7.636e-05,0.13097,-9.689e-05,-154.12,1.0128
29416,14.529,4.0909,0.1,0.00024382,2436.5,0.00024043,2345.7,-7.1744e-05,0.13338,-9.4746e-05,-172.7,1.0013
29417,14.621,4,0.1,0.00024872,2485.5,0.00024519,2391.1,-7.3022e-05,0.16374,-9.6908e-05,-179.3,1.0124
29418,14.529,4.2727,0.1,0.00023713,2369.6,0.00023331,2268.7,-6.8613e-05,0.12467,-9.3988e-05,-190.53,1.0008
29419,14.621,4.1818,0.1,0.00024153,2413.6,0.00023745,2306,-6.9448e-05,0.16102,-9.6425e-05,-202.54,1.0121
29420,14.529,4.4545,0.1,0.00022963,2294.7,0.00022554,2187.5,-6.5575e-05,0.10594,-9.2392e-05,-201.39,1.0004
29421,14.621,4.3636,0.1,0.00023334,2331.8,0.00022884,2214.6,-6.5888e-05,0.1448,-9.5051e-05,-218.97,1.0116
29422,14.529,4.6364,0.1,0.00022151,2213.6,0.00021735,2105,-6.2794e-05,0.085007,-8.9852e-05,-203.22,0.99986
29423,14.621,4.5455,0.1,0.00022428,2241.3,0.00021961,2120.3,-6.2571e-05,0.12054,-9.2551e-05,-225.14,1.0111
29424,14.529,4.8182,0.1,0.00021305,2129,0.00020905,2024.5,-6.0388e-05,0.063269,-8.6433e-05,-195.62,0.99927
29425,14.621,4.7273,0.1,0.00021467,2145.2,0.00021008,2026.8,-5.966e-05,0.096277,-8.8943e-05,-219.92,1.0105
29426,14.529,5,0.1,0.00020461,2044.7,0.00020096,1949,-5.8428e-05,0.039219,-8.2329e-05,-179.54,0.99863
29427,14.621,4.9091,0.1,0.00020493,2047.9,0.00020069,1938.1,-5.7247e-05,0.071172,-8.4452e-05,-204.34,1.0099
29428,14.529,5.1818,0.1,0.00019653,1964,0.0001934,1881,-5.6945e-05,0.015818,-7.7784e-05,-156.56,0.99794
29429,14.621,5.0909,0.1,0.00019552,1953.9,0.00019182,1857.3,-5.5366e-05,0.040507,-7.9408e-05,-180.61,1.0092
29430,14.529,5.3636,0.1,0.00018911,1889.8,0.00018661,1822.5,-5.595e-05,-0.018701,-7.3013e-05,-128.22,0.99719
29431,14.621,5.2727,0.1,0.00018683,1867,0.0001838,1786.9,-5.4018e-05,0.013418,-7.4129e-05,-151.09,1.0085
29432,14.529,5.5455,0.1,0.00018253,1824,0.00018072,1774.4,-5.5443e-05,0.02293,-6.8147e-05,-95.432,0.9964
29433,14.621,5.4545,0.1,0.00017913,1790,0.00017684,1728.3,-5.3196e-05,-0.042862,-6.8839e-05,-117.58,1.0077
29434,14.529,5.7273,0.1,0.00017682,1766.9,0.00017575,1737.1,-5.5443e-05,0.0077867,-6.3187e-05,-58.179,0.99556
29435,14.621,5.6364,0.1,0.00017252,1724,0.00017101,1682.3,-5.2882e-05,0.082016,-6.3631e-05,-80.681,1.0069
29436,14.621,5.8182,0.1,0.00016696,1668.5,0.00016625,1648.1,-5.3117e-05,-0.063795,-5.8413e-05,-39.855,1.0061
29437,14.529,5.9091,0.1,0.00017238,1722.6,0.00017202,1712.2,-5.5863e-05,0.0044798,-5.86e-05,-20.56,0.99469
29438,14.713,0.27273,0.1,0.00016268,1625.7,0.00016153,1593.5,-5.0564e-05,-0.05496,-5.8874e-05,-62.49,1.0175
29439,14.805,0.18182,0.1,0.00015162,1515.2,0.00015085,1493.3,-4.7928e-05,-0.19433,-5.3568e-05,-42.571,1.028
29440,14.713,0.090909,0.1,0.00015768,1575.7,0.00015729,1564.6,-5.0943e-05,-0.009545,-5.3862e-05,-21.941,1.0166
29441,14.713,0.45455,0.1,0.00016918,1690.6,0.00016719,1636.6,-5.0636e-05,0.0066306,-6.438e-05,-103.26,1.0183
29442,14.805,0.36364,0.1,0.00015774,1576.3,0.00015611,1531.8,-4.7753e-05,0.042727,-5.9151e-05,-85.598,1.0289
29443,14.713,0.63636,0.1,0.00017696,1768.4,0.00017413,1693.5,-5.1264e-05,-0.013679,-7.0055e-05,-141.2,1.0191
29444,14.805,0.54545,0.1,0.00016537,1652.5,0.00016284,1585.4,-4.8165e-05,-0.049281,-6.5056e-05,-126.96,1.0297
29445,14.713,0.81818,0.1,0.00018599,1858.6,0.00018236,1764.3,-5.2439e-05,0.037213,-7.5892e-05,-176.18,1.0199
29446,14.805,0.72727,0.1,0.00017458,1744.6,0.00017113,1655,-4.9125e-05,0.027747,-7.1392e-05,-167.27,1.0305
29447,14.713,1,0.1,0.00019605,1959.2,0.00019172,1847.7,-5.4184e-05,0.072341,-8.1698e-05,-206.65,1.0206
29448,14.805,0.90909,0.1,0.00018528,1851.5,0.00018092,1740.2,-5.0674e-05,0.070759,-7.8032e-05,-205.49,1.0313
29449,14.713,1.1818,0.1,0.00020677,2066.3,0.0002019,1941.8,-5.6518e-05,0.10426,-8.7137e-05,-229.96,1.0212
29450,14.805,1.0909,0.1,0.00019712,1969.9,0.00019197,1839.6,-5.2853e-05,0.11415,-8.4649e-05,-238.79,1.0319
29451,14.713,1.3636,0.1,0.00021766,2175.1,0.0002125,2043.4,-5.9437e-05,0.13159,-9.1806e-05,-243.08,1.0218
29452,14.805,1.2727,0.1,0.00020961,2094.6,0.00020389,1950.7,-5.5711e-05,0.14929,-9.0758e-05,-263.18,1.0326
29453,14.713,1.5455,0.1,0.00022817,2280.1,0.00022304,2148.5,-6.2884e-05,0.15843,-9.5348e-05,-243.76,1.0224
29454,14.805,1.4545,0.1,0.00022208,2219.3,0.00021614,2069.4,-5.9256e-05,0.17263,-9.5806e-05,-274.45,1.0332
29455,14.713,1.7273,0.1,0.00023787,2377.1,0.00023308,2252.8,-6.6723e-05,0.17937,-9.7593e-05,-231.77,1.0229
29456,14.805,1.6364,0.1,0.00023388,2337.2,0.00022812,2190.6,-6.3412e-05,0.18242,-9.9346e-05,-269.81,1.0337
29457,14.713,1.9091,0.1,0.00024652,2463.5,0.00024228,2352,-7.0727e-05,0.18925,-9.866e-05,-209.69,1.0233
29458,14.805,1.8182,0.1,0.0002445,2443.3,0.00023929,2308.8,-6.7971e-05,0.20134,-0.00010126,-249.89,1.0342
29459,14.713,2.0909,0.1,0.00025403,2538.6,0.00025044,2442.5,-7.4613e-05,0.17125,-9.8929e-05,-182.53,1.0236
29460,14.805,2,0.1,0.00025376,2535.8,0.0002493,2418.9,-7.2604e-05,0.17086,-0.00010187,-219.75,1.0346
29461,14.713,2.2727,0.1,0.00026044,2602.6,0.00025743,2521.1,-7.8096e-05,0.10094,-9.8862e-05,-155.93,1.0239
29462,14.805,2.1818,0.1,0.0002617,2615.2,0.00025802,2516.7,-7.6916e-05,0.10303,-0.00010184,-187.17,1.0349
29463,14.713,2.4545,0.1,0.00026568,2655,0.00026315,2585.4,-8.0947e-05,-0.0022095,-9.8799e-05,-134.14,1.0242
29464,14.805,2.3636,0.1,0.00026838,2682,0.00026532,2598.9,-8.0563e-05,0.024804,-0.00010175,-159.18,1.0352
29465,14.713,2.6364,0.1,0.00026964,2694.5,0.00026741,2633,-8.3028e-05,-0.097242,-9.8854e-05,-119.01,1.0243
29466,14.805,2.5455,0.1,0.0002737,2735.1,0.00027106,2662.8,-8.3339e-05,-0.083838,-0.00010187,-139.33,1.0354
29467,14.713,2.8182,0.1,0.00027211,2719.2,0.00027006,2662.2,-8.4282e-05,-0.16165,-9.8963e-05,-110.47,1.0244
29468,14.805,2.7273,0.1,0.00027742,2772.3,0.00027503,2706.2,-8.5171e-05,-0.17161,-0.00010213,-127.61,1.0355
29469,14.713,3,0.1,0.00027295,2727.6,0.00027096,2672.1,-8.4699e-05,-0.1844,-9.9017e-05,-107.76,1.0245
29470,14.805,2.9091,0.1,0.00027934,2791.5,0.00027706,2728.2,-8.6071e-05,-0.21134,-0.00010233,-122.4,1.0356
29471,14.713,3.1818,0.1,0.00027211,2719.2,0.00027006,2662.2,-8.4282e-05,-0.16165,-9.8963e-05,-110.47,1.0244
29472,14.805,3.0909,0.1,0.00027934,2791.5,0.00027706,2728.2,-8.6071e-05,-0.21134,-0.00010233,-122.4,1.0356
29473,14.713,3.3636,0.1,0.00026964,2694.5,0.00026741,2633,-8.3028e-05,-0.097241,-9.8854e-05,-119.01,1.0243
29474,14.805,3.2727,0.1,0.00027742,2772.3,0.00027503,2706.2,-8.5171e-05,-0.17161,-0.00010213,-127.61,1.0355
29475,14.713,3.5455,0.1,0.00026568,2655,0.00026315,2585.4,-8.0947e-05,-0.0022087,-9.8799e-05,-134.14,1.0242
29476,14.805,3.4545,0.1,0.0002737,2735.1,0.00027106,2662.8,-8.3339e-05,-0.083838,-0.00010187,-139.33,1.0354
29477,14.713,3.7273,0.1,0.00026044,2602.6,0.00025743,2521.1,-7.8096e-05,0.10094,-9.8862e-05,-155.93,1.0239
29478,14.805,3.6364,0.1,0.00026838,2682,0.00026532,2598.9,-8.0563e-05,0.024805,-0.00010175,-159.18,1.0352
29479,14.713,3.9091,0.1,0.00025403,2538.6,0.00025044,2442.5,-7.4613e-05,0.17125,-9.8929e-05,-182.53,1.0236
29480,14.805,3.8182,0.1,0.0002617,2615.2,0.00025802,2516.7,-7.6916e-05,0.10303,-0.00010184,-187.17,1.0349
29481,14.713,4.0909,0.1,0.00024652,2463.5,0.00024228,2352,-7.0727e-05,0.18925,-9.866e-05,-209.69,1.0233
29482,14.805,4,0.1,0.00025376,2535.8,0.0002493,2418.9,-7.2604e-05,0.17086,-0.00010187,-219.75,1.0346
29483,14.713,4.2727,0.1,0.00023787,2377.1,0.00023308,2252.8,-6.6723e-05,0.17937,-9.7593e-05,-231.77,1.0229
29484,14.805,4.1818,0.1,0.0002445,2443.3,0.00023929,2308.8,-6.7971e-05,0.20134,-0.00010126,-249.89,1.0342
29485,14.713,4.4545,0.1,0.00022817,2280.1,0.00022304,2148.5,-6.2884e-05,0.15843,-9.5348e-05,-243.76,1.0224
29486,14.805,4.3636,0.1,0.00023388,2337.2,0.00022812,2190.6,-6.3412e-05,0.18242,-9.9346e-05,-269.81,1.0337
29487,14.713,4.6364,0.1,0.00021766,2175.1,0.0002125,2043.4,-5.9437e-05,0.13159,-9.1806e-05,-243.08,1.0218
29488,14.805,4.5455,0.1,0.00022208,2219.3,0.00021614,2069.4,-5.9256e-05,0.17263,-9.5806e-05,-274.45,1.0332
29489,14.713,4.8182,0.1,0.00020677,2066.3,0.0002019,1941.8,-5.6518e-05,0.10426,-8.7137e-05,-229.96,1.0212
29490,14.805,4.7273,0.1,0.00020961,2094.6,0.00020389,1950.7,-5.5711e-05,0.14929,-9.0758e-05,-263.18,1.0326
29491,14.713,5,0.1,0.00019605,1959.2,0.00019172,1847.7,-5.4184e-05,0.072342,-8.1698e-05,-206.65,1.0206
29492,14.805,4.9091,0.1,0.00019712,1969.9,0.00019197,1839.6,-5.2853e-05,0.11415,-8.4649e-05,-238.79,1.0319
29493,14.713,5.1818,0.1,0.00018599,1858.6,0.00018236,1764.3,-5.2439e-05,0.037215,-7.5892e-05,-176.18,1.0199
29494,14.805,5.0909,0.1,0.00018528,1851.5,0.00018092,1740.2,-5.0674e-05,0.070761,-7.8032e-05,-205.49,1.0313
29495,14.713,5.3636,0.1,0.00017696,1768.4,0.00017413,1693.5,-5.1264e-05,-0.013677,-7.0055e-05,-141.2,1.0191
29496,14.805,5.2727,0.1,0.00017458,1744.6,0.00017113,1655,-4.9125e-05,0.027748,-7.1392e-05,-167.27,1.0305
29497,14.713,5.5455,0.1,0.00016918,1690.6,0.00016719,1636.6,-5.0636e-05,0.0066306,-6.438e-05,-103.26,1.0183
29498,14.805,5.4545,0.1,0.00016537,1652.5,0.00016284,1585.4,-4.8165e-05,-0.049282,-6.5056e-05,-126.96,1.0297
29499,14.713,5.7273,0.1,0.00016268,1625.7,0.00016153,1593.5,-5.0564e-05,-0.05496,-5.8874e-05,-62.49,1.0175
29500,14.805,5.6364,0.1,0.00015774,1576.3,0.00015611,1531.8,-4.7753e-05,0.042727,-5.9151e-05,-85.598,1.0289
29501,14.805,5.8182,0.1,0.00015162,1515.2,0.00015085,1493.3,-4.7928e-05,-0.19433,-5.3568e-05,-42.571,1.028
29502,14.713,5.9091,0.1,0.00015768,1575.7,0.00015729,1564.6,-5.0943e-05,-0.0095434,-5.3862e-05,-21.941,1.0166
29503,14.897,0.27273,0.1,0.00014671,1466.1,0.00014548,1431.9,-4.5122e-05,-0.13895,-5.3883e-05,-65.962,1.0395
29504,14.989,0.18182,0.1,0.00013441,1343.2,0.00013359,1320.1,-4.2149e-05,-0.33761,-4.806e-05,-44.748,1.0501
29505,14.897,0.090909,0.1,0.00014112,1410.2,0.00014071,1398.5,-4.5424e-05,-0.034361,-4.8494e-05,-23.101,1.0386
29506,14.897,0.45455,0.1,0.00015402,1539.1,0.00015185,1481.2,-4.5283e-05,-0.01835,-5.9918e-05,-109.98,1.0403
29507,14.989,0.36364,0.1,0.00014101,1409.1,0.00013929,1362.6,-4.2067e-05,-0.0037974,-5.3882e-05,-88.78,1.051
29508,14.897,0.63636,0.1,0.00016317,1630.6,0.00016,1548,-4.6026e-05,-0.0085132,-6.6555e-05,-154.25,1.0412
29509,14.989,0.54545,0.1,0.00014977,1496.6,0.00014701,1424.4,-4.2577e-05,-0.047265,-6.0569e-05,-135.23,1.0518
29510,14.897,0.81818,0.1,0.00017415,1740.3,0.00016993,1632.7,-4.736e-05,0.061749,-7.3763e-05,-198.32,1.0419
29511,14.989,0.72727,0.1,0.00016077,1606.6,0.00015684,1506.4,-4.3646e-05,0.050025,-6.8215e-05,-184.55,1.0526
29512,14.897,1,0.1,0.0001867,1865.7,0.00018146,1734.3,-4.9342e-05,0.11339,-8.1265e-05,-239.74,1.0427
29513,14.989,0.90909,0.1,0.00017391,1737.9,0.00016872,1608.5,-4.5343e-05,0.11438,-7.6642e-05,-235.06,1.0534
29514,14.897,1.1818,0.1,0.00020034,2002,0.00019426,1850.8,-5.2046e-05,0.16009,-8.8568e-05,-274.25,1.0433
29515,14.989,1.0909,0.1,0.00018881,1886.8,0.00018241,1729.6,-4.7767e-05,0.17949,-8.5403e-05,-282.6,1.0541
29516,14.897,1.3636,0.1,0.0002144,2142.5,0.0002078,1978.8,-5.553e-05,0.19079,-9.5036e-05,-296.64,1.044
29517,14.989,1.2727,0.1,0.00020485,2047.1,0.00019749,1867.7,-5.1049e-05,0.22722,-9.3814e-05,-321.09,1.0548
29518,14.897,1.5455,0.1,0.00022809,2279.3,0.00022144,2113.2,-5.9784e-05,0.19575,-0.00010003,-302.21,1.0445
29519,14.989,1.4545,0.1,0.00022114,2209.9,0.0002133,2018.4,-5.5294e-05,0.27252,-0.000101,-343.13,1.0554
29520,14.897,1.7273,0.1,0.00024071,2405.5,0.00023449,2247.9,-6.4661e-05,0.20177,-0.00010318,-289.18,1.0451
29521,14.989,1.6364,0.1,0.00023664,2364.8,0.00022895,2175.1,-6.049e-05,0.35559,-0.00010609,-342.28,1.0559
29522,14.897,1.9091,0.1,0.00025187,2517,0.00024642,2376.5,-6.9849e-05,0.17936,-0.00010458,-260.78,1.0455
29523,14.989,1.8182,0.1,0.0002505,2503.3,0.00024359,2329.5,-6.6413e-05,0.29887,-0.00010871,-317.5,1.0564
29524,14.897,2.0909,0.1,0.0002615,2613.2,0.00025695,2493.5,-7.4908e-05,0.098824,-0.00010485,-224.88,1.0459
29525,14.989,2,0.1,0.0002624,2622.2,0.00025661,2473.3,-7.2527e-05,0.31821,-0.00010932,-276.11,1.0569
29526,14.897,2.2727,0.1,0.00026968,2695,0.00026594,2594.6,-7.9384e-05,0.021737,-0.00010476,-190.64,1.0462
29527,14.989,2.1818,0.1,0.0002725,2723.1,0.00026782,2599.9,-7.8182e-05,0.2305,-0.00010905,-231.71,1.0572
29528,14.897,2.4545,0.1,0.0002764,2762.1,0.00027324,2676.2,-8.2955e-05,-0.064543,-0.00010482,-164.35,1.0464
29529,14.989,2.3636,0.1,0.00028096,2807.7,0.00027711,2704.4,-8.2836e-05,-0.063904,-0.00010893,-196.15,1.0575
29530,14.897,2.6364,0.1,0.00028146,2812.6,0.00027865,2735.8,-8.5482e-05,-0.1676,-0.00010512,-147.7,1.0466
29531,14.989,2.5455,0.1,0.00028762,2874.2,0.00028427,2783.4,-8.62e-05,-0.19764,-0.00010929,-173.65,1.0577
29532,14.897,2.8182,0.1,0.0002846,2844.1,0.00028198,2771.8,-8.6961e-05,-0.23105,-0.00010545,-139.16,1.0467
29533,14.989,2.7273,0.1,0.0002922,2920,0.00028911,2835.5,-8.8308e-05,-0.25115,-0.00010985,-162.09,1.0579
29534,14.897,3,0.1,0.00028567,2854.7,0.0002831,2783.9,-8.7445e-05,-0.24806,-0.00010559,-136.61,1.0467
29535,14.989,2.9091,0.1,0.00029452,2943.2,0.00029152,2861.1,-8.9307e-05,-0.2752,-0.00011024,-157.55,1.0579
29536,14.897,3.1818,0.1,0.0002846,2844.1,0.00028198,2771.8,-8.6961e-05,-0.23105,-0.00010545,-139.16,1.0467
29537,14.989,3.0909,0.1,0.00029452,2943.2,0.00029152,2861.1,-8.9307e-05,-0.2752,-0.00011024,-157.55,1.0579
29538,14.897,3.3636,0.1,0.00028146,2812.6,0.00027865,2735.8,-8.5482e-05,-0.1676,-0.00010512,-147.7,1.0466
29539,14.989,3.2727,0.1,0.0002922,2920,0.00028911,2835.5,-8.8308e-05,-0.25115,-0.00010985,-162.09,1.0579
29540,14.897,3.5455,0.1,0.0002764,2762.1,0.00027324,2676.2,-8.2955e-05,-0.064543,-0.00010482,-164.35,1.0464
29541,14.989,3.4545,0.1,0.00028762,2874.2,0.00028427,2783.4,-8.62e-05,-0.19764,-0.00010929,-173.65,1.0577
29542,14.897,3.7273,0.1,0.00026968,2695,0.00026594,2594.6,-7.9384e-05,0.021737,-0.00010476,-190.64,1.0462
29543,14.989,3.6364,0.1,0.00028096,2807.7,0.00027711,2704.4,-8.2836e-05,-0.063903,-0.00010893,-196.15,1.0575
29544,14.897,3.9091,0.1,0.0002615,2613.2,0.00025695,2493.5,-7.4908e-05,0.098824,-0.00010485,-224.88,1.0459
29545,14.989,3.8182,0.1,0.0002725,2723.1,0.00026782,2599.9,-7.8182e-05,0.2305,-0.00010905,-231.71,1.0572
29546,14.897,4.0909,0.1,0.00025187,2517,0.00024642,2376.5,-6.9849e-05,0.17936,-0.00010458,-260.78,1.0455
29547,14.989,4,0.1,0.0002624,2622.2,0.00025661,2473.3,-7.2526e-05,0.31821,-0.00010932,-276.11,1.0569
29548,14.897,4.2727,0.1,0.00024071,2405.5,0.00023449,2247.9,-6.4661e-05,0.20177,-0.00010318,-289.18,1.0451
29549,14.989,4.1818,0.1,0.0002505,2503.3,0.00024359,2329.5,-6.6413e-05,0.29887,-0.00010871,-317.5,1.0564
29550,14.897,4.4545,0.1,0.00022809,2279.3,0.00022144,2113.2,-5.9784e-05,0.19575,-0.00010003,-302.21,1.0445
29551,14.989,4.3636,0.1,0.00023664,2364.8,0.00022895,2175.1,-6.049e-05,0.35559,-0.00010609,-342.28,1.0559
29552,14.897,4.6364,0.1,0.0002144,2142.5,0.0002078,1978.8,-5.553e-05,0.19079,-9.5036e-05,-296.64,1.044
29553,14.989,4.5455,0.1,0.00022114,2209.9,0.0002133,2018.4,-5.5294e-05,0.27252,-0.000101,-343.13,1.0554
29554,14.897,4.8182,0.1,0.00020034,2002,0.00019426,1850.8,-5.2046e-05,0.16009,-8.8568e-05,-274.25,1.0433
29555,14.989,4.7273,0.1,0.00020485,2047.1,0.00019749,1867.7,-5.1049e-05,0.22722,-9.3814e-05,-321.09,1.0548
29556,14.897,5,0.1,0.0001867,1865.7,0.00018146,1734.3,-4.9342e-05,0.11339,-8.1265e-05,-239.74,1.0427
29557,14.989,4.9091,0.1,0.00018881,1886.8,0.00018241,1729.6,-4.7767e-05,0.17949,-8.5403e-05,-282.6,1.0541
29558,14.897,5.1818,0.1,0.00017415,1740.3,0.00016993,1632.7,-4.736e-05,0.06175,-7.3763e-05,-198.32,1.0419
29559,14.989,5.0909,0.1,0.00017391,1737.9,0.00016872,1608.5,-4.5343e-05,0.11438,-7.6642e-05,-235.06,1.0534
29560,14.897,5.3636,0.1,0.00016317,1630.6,0.00016,1548,-4.6026e-05,-0.0085135,-6.6555e-05,-154.25,1.0412
29561,14.989,5.2727,0.1,0.00016077,1606.6,0.00015684,1506.4,-4.3646e-05,0.050026,-6.8215e-05,-184.55,1.0526
29562,14.897,5.5455,0.1,0.00015402,1539.1,0.00015185,1481.2,-4.5283e-05,-0.01835,-5.9918e-05,-109.98,1.0403
29563,14.989,5.4545,0.1,0.00014977,1496.6,0.00014701,1424.4,-4.2577e-05,-0.047266,-6.0569e-05,-135.23,1.0518
29564,14.897,5.7273,0.1,0.00014671,1466.1,0.00014548,1431.9,-4.5122e-05,-0.13895,-5.3883e-05,-65.962,1.0395
29565,14.989,5.6364,0.1,0.00014101,1409.1,0.00013929,1362.6,-4.2067e-05,-0.0037967,-5.3882e-05,-88.78,1.051
29566,14.989,5.8182,0.1,0.00013441,1343.2,0.00013359,1320.1,-4.2149e-05,-0.33761,-4.806e-05,-44.748,1.0501
29567,14.897,5.9091,0.1,0.00014112,1410.2,0.00014071,1398.5,-4.5424e-05,-0.034359,-4.8494e-05,-23.101,1.0386
29568,15.08,0.27273,0.1,0.00012877,1286.8,0.00012747,1251.3,-3.9094e-05,-0.20947,-4.8126e-05,-68.066,1.0616
29569,15.172,0.18182,0.1,0.00011525,1151.7,0.00011439,1127.8,-3.5768e-05,-0.44447,-4.1829e-05,-45.978,1.0722
29570,15.08,0.090909,0.1,0.00012257,1224.9,0.00012215,1212.8,-3.927e-05,-0.052806,-4.2428e-05,-23.78,1.0607
29571,15.08,0.45455,0.1,0.00013691,1368.2,0.00013459,1307,-3.9361e-05,-0.029112,-5.4679e-05,-115.12,1.0625
29572,15.172,0.36364,0.1,0.00012226,1221.8,0.00012049,1174.5,-3.5828e-05,-0.052396,-4.7757e-05,-89.684,1.0731
29573,15.08,0.63636,0.1,0.00014768,1475.7,0.00014411,1384.8,-4.0197e-05,0.014872,-6.2498e-05,-167.55,1.0633
29574,15.172,0.54545,0.1,0.00013235,1322.5,0.00012934,1245.5,-3.6429e-05,-0.044565,-5.5389e-05,-142.5,1.074
29575,15.08,0.81818,0.1,0.00016101,1609,0.00015602,1485.1,-4.1629e-05,0.10517,-7.1483e-05,-224.21,1.0641
29576,15.172,0.72727,0.1,0.00014551,1454.1,0.00014096,1341.3,-3.7546e-05,0.058111,-6.4718e-05,-204.1,1.0748
29577,15.08,1,0.1,0.00017662,1765,0.00017014,1607.4,-4.3767e-05,0.18243,-8.1257e-05,-281.5,1.0649
29578,15.172,0.90909,0.1,0.00016159,1614.8,0.00015524,1461.7,-3.9282e-05,0.13768,-7.5468e-05,-271.75,1.0756
29579,15.08,1.1818,0.1,0.00019398,1938.4,0.00018615,1750.3,-4.677e-05,0.24858,-9.1156e-05,-333.25,1.0656
29580,15.172,1.0909,0.1,0.00018023,1801,0.00017202,1606.9,-4.1813e-05,0.21753,-8.7094e-05,-340,1.0764
29581,15.08,1.3636,0.1,0.00021222,2120.7,0.00020346,1910.8,-5.0813e-05,0.31076,-0.00010025,-371.12,1.0662
29582,15.172,1.2727,0.1,0.00020079,2006.5,0.00019095,1776.1,-4.539e-05,0.32636,-9.875e-05,-400.6,1.0771
29583,15.08,1.5455,0.1,0.0002302,2300.4,0.00022119,2083.1,-5.6001e-05,0.43247,-0.00010743,-386.02,1.0668
29584,15.172,1.4545,0.1,0.00022223,2220.8,0.00021139,1966.7,-5.0307e-05,0.44591,-0.00010919,-441.98,1.0777
29585,15.08,1.7273,0.1,0.00024677,2466,0.00023832,2258.7,-6.2243e-05,0.44931,-0.00011188,-372.53,1.0674
29586,15.172,1.6364,0.1,0.00024301,2428.4,0.00023219,2171.6,-5.6813e-05,0.13815,-0.00011682,-450.72,1.0783
29587,15.08,1.9091,0.1,0.00026123,2610.5,0.00025394,2427.6,-6.9092e-05,0.43185,-0.0001136,-334,1.0679
29588,15.172,1.8182,0.1,0.00026138,2612,0.00025171,2377.2,-6.4634e-05,0.31175,-0.00012045,-419.04,1.0789
29589,15.08,2.0909,0.1,0.00027349,2733,0.00026756,2580.3,-7.5802e-05,0.44289,-0.0001136,-283.55,1.0683
29590,15.172,2,0.1,0.00027673,2765.4,0.0002689,2568.9,-7.3032e-05,-0.23622,-0.00012065,-358.04,1.0793
29591,15.08,2.2727,0.1,0.0002838,2836,0.00027901,2709.9,-8.1636e-05,0.13463,-0.00011325,-237.4,1.0686
29592,15.172,2.1818,0.1,0.0002894,2892.1,0.00028329,2734,-8.0665e-05,-0.61299,-0.0001196,-293.18,1.0797
29593,15.08,2.4545,0.1,0.00029215,2919.5,0.00028812,2811.4,-8.6083e-05,-0.20942,-0.00011337,-205.25,1.0689
29594,15.172,2.3636,0.1,0.00029971,2995,0.00029476,2864.4,-8.6486e-05,-0.18307,-0.0001192,-245.95,1.08
29595,15.08,2.6364,0.1,0.0002983,2980.9,0.00029466,2882.6,-8.9027e-05,-0.29111,-0.00011395,-187.53,1.069
29596,15.172,2.5455,0.1,0.00030751,3073,0.00030316,2956.5,-9.0375e-05,-0.36212,-0.00011972,-220.82,1.0803
29597,15.08,2.8182,0.1,0.00030202,3018.1,0.00029856,2924.1,-9.0655e-05,-0.30284,-0.00011454,-179.76,1.0692
29598,15.172,2.7273,0.1,0.00031254,3123.2,0.00030842,3012.6,-9.2575e-05,-0.34006,-0.00012052,-210.28,1.0804
29599,15.08,3,0.1,0.00030326,3030.5,0.00029984,2937.6,-9.1171e-05,-0.30935,-0.00011478,-177.7,1.0692
29600,15.172,2.9091,0.1,0.00031494,3147.2,0.00031091,3038.6,-9.3545e-05,-0.31215,-0.00012103,-206.8,1.0805
29601,15.08,3.1818,0.1,0.00030202,3018.1,0.00029856,2924.1,-9.0655e-05,-0.30284,-0.00011454,-179.76,1.0692
29602,15.172,3.0909,0.1,0.00031494,3147.2,0.00031091,3038.6,-9.3545e-05,-0.31215,-0.00012103,-206.8,1.0805
29603,15.08,3.3636,0.1,0.0002983,2980.9,0.00029466,2882.6,-8.9027e-05,-0.29111,-0.00011395,-187.53,1.069
29604,15.172,3.2727,0.1,0.00031254,3123.2,0.00030842,3012.6,-9.2575e-05,-0.34006,-0.00012052,-210.28,1.0804
29605,15.08,3.5455,0.1,0.00029215,2919.5,0.00028812,2811.4,-8.6083e-05,-0.20942,-0.00011337,-205.25,1.0689
29606,15.172,3.4545,0.1,0.00030751,3073,0.00030316,2956.5,-9.0375e-05,-0.36212,-0.00011972,-220.82,1.0803
29607,15.08,3.7273,0.1,0.0002838,2836,0.00027901,2709.9,-8.1636e-05,0.13464,-0.00011325,-237.4,1.0686
29608,15.172,3.6364,0.1,0.00029971,2995,0.00029476,2864.4,-8.6486e-05,-0.18307,-0.0001192,-245.95,1.08
29609,15.08,3.9091,0.1,0.00027349,2733,0.00026756,2580.3,-7.5802e-05,0.44289,-0.0001136,-283.55,1.0683
29610,15.172,3.8182,0.1,0.0002894,2892.1,0.00028329,2734,-8.0665e-05,-0.61298,-0.0001196,-293.18,1.0797
29611,15.08,4.0909,0.1,0.00026123,2610.4,0.00025394,2427.5,-6.9092e-05,0.43185,-0.0001136,-334,1.0679
29612,15.172,4,0.1,0.00027673,2765.4,0.0002689,2568.9,-7.3032e-05,-0.23622,-0.00012065,-358.04,1.0793
29613,15.08,4.2727,0.1,0.00024677,2466,0.00023832,2258.7,-6.2243e-05,0.44931,-0.00011188,-372.53,1.0674
29614,15.172,4.1818,0.1,0.00026138,2612,0.00025171,2377.2,-6.4634e-05,0.31175,-0.00012045,-419.04,1.0789
29615,15.08,4.4545,0.1,0.0002302,2300.4,0.00022119,2083.1,-5.6001e-05,0.43247,-0.00010743,-386.02,1.0668
29616,15.172,4.3636,0.1,0.00024301,2428.4,0.00023219,2171.6,-5.6813e-05,0.13815,-0.00011682,-450.72,1.0783
29617,15.08,4.6364,0.1,0.00021222,2120.7,0.00020346,1910.8,-5.0813e-05,0.31076,-0.00010025,-371.12,1.0662
29618,15.172,4.5455,0.1,0.00022223,2220.8,0.00021139,1966.7,-5.0307e-05,0.44591,-0.00010919,-441.98,1.0777
29619,15.08,4.8182,0.1,0.00019398,1938.4,0.00018615,1750.3,-4.677e-05,0.24858,-9.1156e-05,-333.25,1.0656
29620,15.172,4.7273,0.1,0.00020079,2006.5,0.00019095,1776.1,-4.539e-05,0.32636,-9.875e-05,-400.6,1.0771
29621,15.08,5,0.1,0.00017662,1765,0.00017014,1607.4,-4.3767e-05,0.18243,-8.1257e-05,-281.5,1.0649
29622,15.172,4.9091,0.1,0.00018023,1801,0.00017202,1606.9,-4.1813e-05,0.21753,-8.7094e-05,-340,1.0764
29623,15.08,5.1818,0.1,0.00016101,1609,0.00015602,1485.1,-4.1629e-05,0.10517,-7.1483e-05,-224.21,1.0641
29624,15.172,5.0909,0.1,0.00016159,1614.8,0.00015524,1461.7,-3.9282e-05,0.13768,-7.5468e-05,-271.75,1.0756
29625,15.08,5.3636,0.1,0.00014768,1475.7,0.00014411,1384.8,-4.0197e-05,0.014874,-6.2498e-05,-167.55,1.0633
29626,15.172,5.2727,0.1,0.00014551,1454.1,0.00014096,1341.3,-3.7546e-05,0.058113,-6.4718e-05,-204.1,1.0748
29627,15.08,5.5455,0.1,0.00013691,1368.2,0.00013459,1307,-3.9361e-05,-0.029111,-5.4679e-05,-115.12,1.0625
29628,15.172,5.4545,0.1,0.00013235,1322.5,0.00012934,1245.5,-3.6429e-05,-0.044564,-5.5389e-05,-142.5,1.074
29629,15.08,5.7273,0.1,0.00012877,1286.8,0.00012747,1251.3,-3.9094e-05,-0.20947,-4.8126e-05,-68.066,1.0616
29630,15.172,5.6364,0.1,0.00012226,1221.8,0.00012049,1174.5,-3.5828e-05,-0.052395,-4.7757e-05,-89.684,1.0731
29631,15.172,5.8182,0.1,0.00011525,1151.7,0.00011439,1127.8,-3.5768e-05,-0.44447,-4.1829e-05,-45.978,1.0722
29632,15.08,5.9091,0.1,0.00012257,1224.9,0.00012215,1212.8,-3.927e-05,-0.052806,-4.2428e-05,-23.78,1.0607
29633,15.264,0.27273,0.1,0.00010884,1087.7,0.00010751,1051.7,-3.2496e-05,-0.24771,-4.1571e-05,-68.43,1.0838
29634,15.356,0.18182,0.1,9.4159e-05,940.94,9.3294e-05,917.11,-2.8797e-05,-0.23304,-3.4858e-05,-45.773,1.0944
29635,15.264,0.090909,0.1,0.000102,1019.3,0.00010157,1007.2,-3.2489e-05,-0.10562,-3.5622e-05,-23.646,1.0829
29636,15.264,0.45455,0.1,0.00011797,1178.8,0.00011549,1114.8,-3.2893e-05,-0.048498,-4.8714e-05,-118.93,1.0847
29637,15.356,0.36364,0.1,0.00010171,1016.4,9.9915e-05,969.27,-2.9077e-05,0.074701,-4.0869e-05,-88.527,1.0953
29638,15.264,0.63636,0.1,0.00013071,1306.2,0.00012665,1205.4,-3.3777e-05,0.0088812,-5.8068e-05,-182.5,1.0855
29639,15.356,0.54545,0.1,0.00011357,1134.9,0.00011025,1052.1,-2.9759e-05,0.086912,-4.982e-05,-150.64,1.0962
29640,15.264,0.81818,0.1,0.00014689,1467.9,0.00014084,1322.8,-3.5199e-05,0.095633,-6.9359e-05,-256.57,1.0864
29641,15.356,0.72727,0.1,0.00012941,1293.3,0.00012398,1163.4,-3.0831e-05,0.16134,-6.1362e-05,-229.24,1.0971
29642,15.264,1,0.1,0.00016621,1660.9,0.00015791,1467.2,-3.7328e-05,0.17555,-8.2104e-05,-336.26,1.0872
29643,15.356,0.90909,0.1,0.00014896,1488.5,0.00014091,1302.6,-3.2427e-05,0.2348,-7.504e-05,-319.94,1.0979
29644,15.264,1.1818,0.1,0.00018816,1880.3,0.00017767,1639.1,-4.0433e-05,0.29772,-9.5543e-05,-413.78,1.0879
29645,15.356,1.0909,0.1,0.00017194,1718.2,0.00016101,1471.5,-3.4792e-05,0.38088,-9.0316e-05,-416.81,1.0987
29646,15.264,1.3636,0.1,0.00021189,2117.4,0.00019968,1838,-4.4883e-05,0.46465,-0.00010849,-477.47,1.0886
29647,15.356,1.2727,0.1,0.00019801,1978.7,0.00018431,1673.5,-3.8345e-05,0.52636,-0.00010639,-510.71,1.0995
29648,15.264,1.5455,0.1,0.00023591,2357.5,0.00022301,2059.8,-5.1119e-05,0.15447,-0.0001192,-511.38,1.0893
29649,15.356,1.4545,0.1,0.00022647,2263.1,0.00021069,1911.9,-4.3689e-05,0.60403,-0.00012191,-587.09,1.1002
29650,15.264,1.7273,0.1,0.00025815,2579.7,0.00024597,2293,-5.9204e-05,-0.0017865,-0.00012577,-500.18,1.0899
29651,15.356,1.6364,0.1,0.00025503,2548.5,0.00023877,2182.3,-5.1414e-05,1.9883,-0.00013411,-619.38,1.1009
29652,15.264,1.9091,0.1,0.00027713,2769.3,0.00026687,2520,-6.8575e-05,-0.36512,-0.00012769,-444.55,1.0904
29653,15.356,1.8182,0.1,0.0002805,2803.1,0.00026606,2467.3,-6.2168e-05,1.1696,-0.00013968,-581.21,1.1015
29654,15.264,2.0909,0.1,0.00029272,2925.2,0.0002847,2723.1,-7.7897e-05,-1.3061,-0.00012673,-368.21,1.0908
29655,15.356,2,0.1,0.00030071,3005,0.00028957,2735,-7.4112e-05,2.4076,-0.00013877,-483.39,1.102
29656,15.264,2.2727,0.1,0.0003053,3050.9,0.00029903,2888.4,-8.5518e-05,-0.95166,-0.00012554,-301.63,1.0912
29657,15.356,2.1818,0.1,0.00031606,3158.4,0.00030792,2952.6,-8.4877e-05,1.2502,-0.00013542,-378.52,1.1024
29658,15.264,2.4545,0.1,0.00031497,3147.5,0.00030972,3008.8,-9.0781e-05,-0.35437,-0.00012545,-260.86,1.0915
29659,15.356,2.3636,0.1,0.00032791,3276.8,0.00032143,3108.1,-9.2421e-05,-1.3756,-0.00013398,-313.6,1.1027
29660,15.264,2.6364,0.1,0.0003216,3213.8,0.00031678,3085.5,-9.3923e-05,-0.41702,-0.00012615,-242.52,1.0917
29661,15.356,2.5455,0.1,0.00033538,3351.5,0.0003296,3199.3,-9.6252e-05,-0.39718,-0.00013423,-285.76,1.103
29662,15.264,2.8182,0.1,0.00032527,3250.5,0.00032061,3125.9,-9.5465e-05,-0.35202,-0.00012684,-236.07,1.0918
29663,15.356,2.7273,0.1,0.00033926,3390.3,0.00033373,3244,-9.8061e-05,-0.36445,-0.00013469,-275.55,1.1032
29664,15.264,3,0.1,0.00032643,3262,0.0003218,3138.3,-9.5919e-05,-0.31779,-0.0001271,-234.6,1.0919
29665,15.356,2.9091,0.1,0.00034081,3405.7,0.00033535,3261.2,-9.8723e-05,-0.26284,-0.00013495,-272.44,1.1033
29666,15.264,3.1818,0.1,0.00032527,3250.5,0.00032061,3125.9,-9.5465e-05,-0.35202,-0.00012684,-236.07,1.0918
29667,15.356,3.0909,0.1,0.00034081,3405.7,0.00033535,3261.2,-9.8723e-05,-0.26284,-0.00013495,-272.44,1.1033
29668,15.264,3.3636,0.1,0.0003216,3213.8,0.00031678,3085.4,-9.3923e-05,-0.41702,-0.00012615,-242.52,1.0917
29669,15.356,3.2727,0.1,0.00033926,3390.3,0.00033373,3244,-9.8061e-05,-0.36445,-0.00013469,-275.55,1.1032
29670,15.264,3.5455,0.1,0.00031497,3147.5,0.00030972,3008.8,-9.0781e-05,-0.35437,-0.00012545,-260.86,1.0915
29671,15.356,3.4545,0.1,0.00033538,3351.5,0.0003296,3199.3,-9.6252e-05,-0.39718,-0.00013423,-285.76,1.103
29672,15.264,3.7273,0.1,0.0003053,3050.9,0.00029903,2888.4,-8.5518e-05,-0.95166,-0.00012554,-301.63,1.0912
29673,15.356,3.6364,0.1,0.00032791,3276.8,0.00032143,3108.1,-9.2421e-05,-1.3756,-0.00013398,-313.6,1.1027
29674,15.264,3.9091,0.1,0.00029272,2925.2,0.0002847,2723.1,-7.7897e-05,-1.3061,-0.00012673,-368.21,1.0908
29675,15.356,3.8182,0.1,0.00031606,3158.4,0.00030792,2952.6,-8.4877e-05,1.2502,-0.00013542,-378.52,1.1024
29676,15.264,4.0909,0.1,0.00027713,2769.3,0.00026687,2520,-6.8575e-05,-0.36512,-0.00012769,-444.55,1.0904
29677,15.356,4,0.1,0.00030071,3005,0.00028957,2735,-7.4112e-05,2.4076,-0.00013877,-483.39,1.102
29678,15.264,4.2727,0.1,0.00025815,2579.7,0.00024597,2293,-5.9204e-05,-0.0017856,-0.00012577,-500.18,1.0899
29679,15.356,4.1818,0.1,0.0002805,2803.1,0.00026606,2467.3,-6.2168e-05,1.1696,-0.00013968,-581.21,1.1015
29680,15.264,4.4545,0.1,0.00023591,2357.5,0.00022301,2059.8,-5.1119e-05,0.15447,-0.0001192,-511.38,1.0893
29681,15.356,4.3636,0.1,0.00025503,2548.5,0.00023877,2182.3,-5.1414e-05,1.9883,-0.00013411,-619.38,1.1009
29682,15.264,4.6364,0.1,0.00021189,2117.4,0.00019968,1838,-4.4883e-05,0.46465,-0.00010849,-477.47,1.0886
29683,15.356,4.5455,0.1,0.00022647,2263.1,0.00021069,1911.9,-4.3689e-05,0.60403,-0.00012191,-587.09,1.1002
29684,15.264,4.8182,0.1,0.00018816,1880.3,0.00017767,1639.1,-4.0433e-05,0.29772,-9.5543e-05,-413.78,1.0879
29685,15.356,4.7273,0.1,0.00019801,1978.7,0.00018431,1673.5,-3.8345e-05,0.52636,-0.00010639,-510.71,1.0995
29686,15.264,5,0.1,0.00016621,1660.9,0.00015791,1467.2,-3.7328e-05,0.17555,-8.2104e-05,-336.26,1.0872
29687,15.356,4.9091,0.1,0.00017194,1718.2,0.00016101,1471.5,-3.4792e-05,0.38088,-9.0316e-05,-416.81,1.0987
29688,15.264,5.1818,0.1,0.00014689,1467.9,0.00014084,1322.8,-3.5199e-05,0.095635,-6.9359e-05,-256.57,1.0864
29689,15.356,5.0909,0.1,0.00014896,1488.5,0.00014091,1302.6,-3.2427e-05,0.2348,-7.504e-05,-319.94,1.0979
29690,15.264,5.3636,0.1,0.00013071,1306.2,0.00012665,1205.4,-3.3777e-05,0.0088827,-5.8068e-05,-182.5,1.0855
29691,15.356,5.2727,0.1,0.00012941,1293.3,0.00012398,1163.4,-3.0831e-05,0.16135,-6.1362e-05,-229.24,1.0971
29692,15.264,5.5455,0.1,0.00011797,1178.8,0.00011549,1114.8,-3.2893e-05,-0.048497,-4.8714e-05,-118.93,1.0847
29693,15.356,5.4545,0.1,0.00011357,1134.9,0.00011025,1052.1,-2.9759e-05,0.086912,-4.982e-05,-150.64,1.0962
29694,15.264,5.7273,0.1,0.00010884,1087.7,0.00010751,1051.7,-3.2496e-05,-0.24771,-4.1571e-05,-68.43,1.0838
29695,15.356,5.6364,0.1,0.00010171,1016.4,9.9915e-05,969.27,-2.9077e-05,0.074702,-4.0869e-05,-88.527,1.0953
29696,15.356,5.8182,0.1,9.4159e-05,940.94,9.3294e-05,917.11,-2.8797e-05,-0.23304,-3.4858e-05,-45.773,1.0944
29697,15.264,5.9091,0.1,0.000102,1019.3,0.00010157,1007.2,-3.2489e-05,-0.10562,-3.5622e-05,-23.646,1.0829
29698,15.448,0.27273,0.1,8.7218e-05,871.58,8.5879e-05,836.03,-2.5365e-05,0.1881,-3.4354e-05,-67.352,1.106
29699,15.54,0.18182,0.1,7.1428e-05,713.79,7.0571e-05,690.67,-2.1298e-05,0.39542,-2.7275e-05,-44.513,1.1167
29700,15.448,0.090909,0.1,7.9467e-05,794.12,7.9068e-05,782.86,-2.5107e-05,0.12405,-2.8075e-05,-22.177,1.1051
29701,15.448,0.45455,0.1,9.7834e-05,977.67,9.5141e-05,909.99,-2.5939e-05,0.24781,-4.2443e-05,-123.76,1.1069
29702,15.54,0.36364,0.1,8.0292e-05,802.37,7.8408e-05,754.23,-2.195e-05,0.17188,-3.3818e-05,-89,1.1176
29703,15.448,0.63636,0.1,0.00011325,1131.7,0.0001084,1016.2,-2.6812e-05,0.25393,-5.3931e-05,-203.51,1.1078
29704,15.54,0.54545,0.1,9.5009e-05,949.43,9.1059e-05,854.86,-2.2716e-05,-0.0033184,-4.494e-05,-166.99,1.1186
29705,15.448,0.81818,0.1,0.00013286,1327.6,0.00012515,1151.5,-2.8059e-05,0.30677,-6.8144e-05,-300.88,1.1087
29706,15.54,0.72727,0.1,0.00011431,1142.3,0.00010734,983.9,-2.3626e-05,-0.11629,-5.9386e-05,-268.8,1.1195
29707,15.448,1,0.1,0.00015638,1562.7,0.0001453,1316.8,-2.9892e-05,0.44263,-8.4554e-05,-410.27,1.1096
29708,15.54,0.90909,0.1,0.0001377,1376,0.00012692,1140.1,-2.4839e-05,-0.14142,-7.6506e-05,-388.35,1.1203
29709,15.448,1.1818,0.1,0.00018368,1835.6,0.00016905,1516.5,-3.2705e-05,0.61093,-0.00010257,-524.31,1.1104
29710,15.54,1.0909,0.1,0.00016527,1651.5,0.0001501,1327.9,-2.6644e-05,-0.1241,-9.602e-05,-521.39,1.1212
29711,15.448,1.3636,0.1,0.00021449,2143.5,0.00019668,1757.6,-3.7151e-05,0.66844,-0.00012117,-630.59,1.1111
29712,15.54,1.2727,0.1,0.00019754,1974,0.00017772,1557.2,-2.9534e-05,-0.0095083,-0.00011776,-662.9,1.122
29713,15.448,1.5455,0.1,0.00024715,2469.8,0.00022754,2042.6,-4.3985e-05,2.4389,-0.00013791,-703.26,1.1119
29714,15.54,1.4545,0.1,0.00023475,2345.9,0.00021075,1842.7,-3.4486e-05,0.059789,-0.00014073,-798.19,1.1228
29715,15.448,1.7273,0.1,0.00027822,2780.2,0.00025943,2361,-5.4376e-05,3.1753,-0.0001486,-704.76,1.1125
29716,15.54,1.6364,0.1,0.00027663,2764.4,0.0002502,2204.2,-4.3085e-05,0.62511,-0.00016264,-897.64,1.1236
29717,15.448,1.9091,0.1,0.00030431,3041,0.00028894,2683.6,-6.7707e-05,3.9272,-0.00015094,-621.43,1.1131
29718,15.54,1.8182,0.1,0.00031682,3166,0.00029237,2628.7,-5.7901e-05,-3.087,-0.00017524,-884.7,1.1242
29719,15.448,2.0909,0.1,0.00032396,3237.4,0.00031276,2964.2,-8.1097e-05,4.9276,-0.00014743,-493.47,1.1136
29720,15.54,2,0.1,0.00034406,3438.2,0.00032682,3031.6,-7.8374e-05,-12.909,-0.00016947,-697.37,1.1248
29721,15.448,2.2727,0.1,0.00033847,3382.4,0.00033017,3171.2,-9.179e-05,0.75336,-0.0001437,-389.3,1.114
29722,15.54,2.1818,0.1,0.00036226,3620.1,0.00035098,3338.8,-9.4193e-05,-6.0597,-0.00016057,-504.82,1.1253
29723,15.448,2.4545,0.1,0.00034804,3478,0.00034107,3296.8,-9.7894e-05,-1.4288,-0.00014252,-336.7,1.1143
29724,15.54,2.3636,0.1,0.00037105,3707.9,0.00036244,3487.5,-0.00010173,-0.06053,-0.0001559,-407.09,1.1257
29725,15.448,2.6364,0.1,0.00035275,3525.1,0.00034629,3355.8,-0.00010039,-0.33862,-0.00014251,-316.83,1.1146
29726,15.54,2.5455,0.1,0.00037302,3727.6,0.00036528,3527.2,-0.00010423,-0.49662,-0.00015373,-372.46,1.126
29727,15.448,2.8182,0.1,0.00035452,3542.7,0.00034822,3377.4,-0.00010132,-0.27282,-0.00014255,-310.04,1.1147
29728,15.54,2.7273,0.1,0.00037181,3715.5,0.00036444,3524,-0.00010459,-0.13194,-0.0001521,-357.08,1.1262
29729,15.448,3,0.1,0.00035491,3546.7,0.00034866,3382.3,-0.00010153,-0.20808,-0.00014255,-308.45,1.1148
29730,15.54,2.9091,0.1,0.00037061,3703.6,0.00036338,3515.3,-0.00010449,-0.042553,-0.00015125,-351.39,1.1263
29731,15.448,3.1818,0.1,0.00035452,3542.7,0.00034822,3377.4,-0.00010132,-0.27282,-0.00014255,-310.04,1.1147
29732,15.54,3.0909,0.1,0.00037061,3703.6,0.00036338,3515.3,-0.00010449,-0.042553,-0.00015125,-351.39,1.1263
29733,15.448,3.3636,0.1,0.00035275,3525.1,0.00034629,3355.8,-0.00010039,-0.33862,-0.00014251,-316.83,1.1146
29734,15.54,3.2727,0.1,0.00037181,3715.5,0.00036444,3524,-0.00010459,-0.13194,-0.0001521,-357.08,1.1262
29735,15.448,3.5455,0.1,0.00034804,3478,0.00034107,3296.8,-9.7894e-05,-1.4288,-0.00014252,-336.7,1.1143
29736,15.54,3.4545,0.1,0.00037302,3727.6,0.00036528,3527.2,-0.00010423,-0.49662,-0.00015373,-372.46,1.126
29737,15.448,3.7273,0.1,0.00033847,3382.4,0.00033017,3171.2,-9.179e-05,0.75336,-0.0001437,-389.3,1.114
29738,15.54,3.6364,0.1,0.00037105,3707.9,0.00036244,3487.5,-0.00010173,-0.060531,-0.0001559,-407.09,1.1257
29739,15.448,3.9091,0.1,0.00032396,3237.4,0.00031276,2964.2,-8.1097e-05,4.9276,-0.00014743,-493.47,1.1136
29740,15.54,3.8182,0.1,0.00036226,3620.1,0.00035098,3338.8,-9.4193e-05,-6.0597,-0.00016057,-504.82,1.1253
29741,15.448,4.0909,0.1,0.00030431,3041,0.00028894,2683.6,-6.7707e-05,3.9272,-0.00015094,-621.43,1.1131
29742,15.54,4,0.1,0.00034406,3438.2,0.00032682,3031.6,-7.8374e-05,-12.909,-0.00016947,-697.37,1.1248
29743,15.448,4.2727,0.1,0.00027822,2780.2,0.00025943,2361,-5.4376e-05,3.1753,-0.0001486,-704.76,1.1125
29744,15.54,4.1818,0.1,0.00031682,3166,0.00029237,2628.7,-5.7901e-05,-3.087,-0.00017524,-884.7,1.1242
29745,15.448,4.4545,0.1,0.00024715,2469.8,0.00022754,2042.6,-4.3985e-05,2.4389,-0.00013791,-703.26,1.1119
29746,15.54,4.3636,0.1,0.00027663,2764.4,0.0002502,2204.2,-4.3085e-05,0.62511,-0.00016264,-897.64,1.1236
29747,15.448,4.6364,0.1,0.00021449,2143.5,0.00019668,1757.6,-3.7151e-05,0.66844,-0.00012117,-630.59,1.1111
29748,15.54,4.5455,0.1,0.00023475,2345.9,0.00021075,1842.7,-3.4486e-05,0.059789,-0.00014073,-798.19,1.1228
29749,15.448,4.8182,0.1,0.00018368,1835.6,0.00016905,1516.5,-3.2705e-05,0.61093,-0.00010257,-524.31,1.1104
29750,15.54,4.7273,0.1,0.00019754,1974,0.00017772,1557.2,-2.9534e-05,-0.0095069,-0.00011776,-662.9,1.122
29751,15.448,5,0.1,0.00015638,1562.7,0.0001453,1316.8,-2.9892e-05,0.44264,-8.4554e-05,-410.27,1.1096
29752,15.54,4.9091,0.1,0.00016527,1651.5,0.0001501,1327.9,-2.6644e-05,-0.1241,-9.602e-05,-521.39,1.1212
29753,15.448,5.1818,0.1,0.00013286,1327.6,0.00012515,1151.5,-2.8059e-05,0.30677,-6.8144e-05,-300.88,1.1087
29754,15.54,5.0909,0.1,0.0001377,1376,0.00012692,1140.1,-2.4839e-05,-0.14142,-7.6506e-05,-388.35,1.1203
29755,15.448,5.3636,0.1,0.00011325,1131.7,0.0001084,1016.2,-2.6812e-05,0.25394,-5.3931e-05,-203.51,1.1078
29756,15.54,5.2727,0.1,0.00011431,1142.3,0.00010734,983.9,-2.3626e-05,-0.11628,-5.9386e-05,-268.8,1.1195
29757,15.448,5.5455,0.1,9.7834e-05,977.67,9.5141e-05,909.99,-2.5939e-05,0.24781,-4.2443e-05,-123.76,1.1069
29758,15.54,5.4545,0.1,9.5009e-05,949.43,9.1059e-05,854.86,-2.2716e-05,-0.0033191,-4.494e-05,-166.99,1.1186
29759,15.448,5.7273,0.1,8.7218e-05,871.58,8.5879e-05,836.03,-2.5365e-05,0.1881,-3.4354e-05,-67.352,1.106
29760,15.54,5.6364,0.1,8.0292e-05,802.37,7.8408e-05,754.23,-2.195e-05,0.17188,-3.3818e-05,-89,1.1176
29761,15.54,5.8182,0.1,7.1428e-05,713.79,7.0571e-05,690.67,-2.1298e-05,0.39542,-2.7275e-05,-44.513,1.1167
29762,15.448,5.9091,0.1,7.9467e-05,794.12,7.9068e-05,782.86,-2.5107e-05,0.12405,-2.8075e-05,-22.177,1.1051
29763,15.632,0.27273,0.1,6.4994e-05,649.49,6.3535e-05,612.13,-1.7867e-05,0.50259,-2.7191e-05,-69.55,1.1283
29764,15.724,0.18182,0.1,4.8323e-05,482.89,4.736e-05,458.92,-1.3057e-05,4.9702,-2.0169e-05,-48.472,1.139
29765,15.632,0.090909,0.1,5.531e-05,552.72,5.4944e-05,542.48,-1.7257e-05,-0.010698,-1.9908e-05,-19.931,1.1274
29766,15.632,0.45455,0.1,7.8684e-05,786.3,7.5361e-05,706.86,-1.8728e-05,-0.087649,-3.7349e-05,-139.99,1.1293
29767,15.724,0.36364,0.1,6.2007e-05,619.64,5.9351e-05,556.95,-1.4481e-05,2.2046,-2.9648e-05,-111.76,1.14
29768,15.632,0.63636,0.1,9.7932e-05,978.64,9.1489e-05,833.78,-1.953e-05,-0.37803,-5.1889e-05,-243.51,1.1302
29769,15.724,0.54545,0.1,8.2038e-05,819.81,7.6064e-05,688.18,-1.5332e-05,1.4598,-4.4735e-05,-219.46,1.1409
29770,15.632,0.81818,0.1,0.00012146,1213.8,0.00011088,985.84,-2.0406e-05,-0.56129,-6.9523e-05,-369.61,1.1311
29771,15.724,0.72727,0.1,0.00010599,1059.2,9.5486e-05,838.25,-1.5929e-05,1.1199,-6.2991e-05,-352.49,1.1419
29772,15.632,1,0.1,0.00014927,1491.6,0.00013371,1166.2,-2.1591e-05,-0.70104,-8.9967e-05,-514.45,1.132
29773,15.724,0.90909,0.1,0.00013375,1336.6,0.00011769,1009.1,-1.648e-05,1.014,-8.4094e-05,-507.02,1.1428
29774,15.632,1.1818,0.1,0.00018217,1820.5,0.00016098,1385.2,-2.3473e-05,-0.73937,-0.00011342,-676.58,1.1329
29775,15.724,1.0909,0.1,0.00016619,1660.7,0.00014358,1209.4,-1.7206e-05,1.3137,-0.00010847,-684.38,1.1437
29776,15.632,1.3636,0.1,0.00022116,2210.1,0.00019416,1660.1,-2.6869e-05,-0.62154,-0.00013969,-848.35,1.1338
29777,15.724,1.2727,0.1,0.00020508,2049.4,0.0001749,1454.5,-1.859e-05,0.73452,-0.00013706,-889.38,1.1446
29778,15.632,1.5455,0.1,0.00026727,2670.8,0.00023546,2019.8,-3.3583e-05,-1.7383,-0.00016752,-1008.1,1.1346
29779,15.724,1.4545,0.1,0.00025309,2529.2,0.00021453,1775.5,-2.1117e-05,4.9309,-0.00017099,-1121.1,1.1455
29780,15.632,1.7273,0.1,0.00031713,3169.1,0.00028438,2481.3,-4.6614e-05,-5.6688,-0.00019052,-1086.9,1.1353
29781,15.724,1.6364,0.1,0.00031512,3149.1,0.00026776,2215.3,-2.7976e-05,-6.6727,-0.00021187,-1388.4,1.1464
29782,15.632,1.9091,0.1,0.00035609,3558.4,0.00033001,2974.9,-6.8562e-05,-19.875,-0.00019354,-958.88,1.136
29783,15.724,1.8182,0.1,0.00039855,3982.7,0.00034807,2972.3,-4.4116e-05,25.627,-0.00025498,-1558.8,1.1471
29784,15.632,2.0909,0.1,0.00038156,3812.9,0.00036456,3402.6,-9.1484e-05,-24.006,-0.00018211,-704.96,1.1366
29785,15.724,2,0.1,0.00045611,4558,0.0004237,3879.9,-7.752e-05,113.92,-0.00025069,-1187.2,1.1478
29786,15.632,2.2727,0.1,0.00039406,3937.9,0.00038264,3650.5,-0.00010416,-7.0313,-0.00017213,-517.79,1.137
29787,15.724,2.1818,0.1,0.00045019,4498.8,0.00043447,4109.9,-0.0001146,-15.575,-0.00020393,-686.8,1.1484
29788,15.632,2.4545,0.1,0.00039541,3951.4,0.00038612,3714,-0.00010806,0.9117,-0.0001666,-438.94,1.1374
29789,15.724,2.3636,0.1,0.00043594,4356.4,0.00042434,4064.9,-0.00011598,5.0933,-0.00018817,-537.33,1.1488
29790,15.632,2.6364,0.1,0.00039164,3913.7,0.00038305,3692.5,-0.00010843,-0.26905,-0.00016294,-409.89,1.1377
29791,15.724,2.5455,0.1,0.00041794,4176.6,0.00040791,3920.2,-0.00011405,-1.5671,-0.00017657,-471.37,1.1492
29792,15.632,2.8182,0.1,0.00038757,3873.1,0.00037931,3659.7,-0.00010776,0.099526,-0.00016051,-396.24,1.1378
29793,15.724,2.7273,0.1,0.0004058,4055.2,0.00039647,3816.4,-0.00011134,0.83816,-0.0001703,-442.14,1.1494
29794,15.632,3,0.1,0.00038602,3857.5,0.00037784,3646.4,-0.00010745,0.1198,-0.00015968,-392.34,1.1379
29795,15.724,2.9091,0.1,0.00039967,3994,0.00039064,3762.2,-0.00011005,0.24882,-0.00016718,-429.05,1.1495
29796,15.632,3.1818,0.1,0.00038757,3873.1,0.00037931,3659.7,-0.00010776,0.099526,-0.00016051,-396.24,1.1378
29797,15.724,3.0909,0.1,0.00039967,3994,0.00039064,3762.2,-0.00011005,0.24882,-0.00016718,-429.05,1.1495
29798,15.632,3.3636,0.1,0.00039164,3913.7,0.00038305,3692.5,-0.00010843,-0.26905,-0.00016294,-409.89,1.1377
29799,15.724,3.2727,0.1,0.0004058,4055.2,0.00039647,3816.4,-0.00011134,0.83816,-0.0001703,-442.14,1.1494
29800,15.632,3.5455,0.1,0.00039541,3951.4,0.00038612,3714,-0.00010806,0.9117,-0.0001666,-438.94,1.1374
29801,15.724,3.4545,0.1,0.00041794,4176.6,0.00040791,3920.2,-0.00011405,-1.5671,-0.00017657,-471.37,1.1492
29802,15.632,3.7273,0.1,0.00039406,3937.9,0.00038264,3650.5,-0.00010416,-7.0313,-0.00017213,-517.79,1.137
29803,15.724,3.6364,0.1,0.00043594,4356.4,0.00042434,4064.9,-0.00011598,5.0933,-0.00018817,-537.33,1.1488
29804,15.632,3.9091,0.1,0.00038156,3812.9,0.00036456,3402.6,-9.1484e-05,-24.006,-0.00018211,-704.96,1.1366
29805,15.724,3.8182,0.1,0.00045019,4498.8,0.00043447,4109.9,-0.0001146,-15.575,-0.00020393,-686.8,1.1484
29806,15.632,4.0909,0.1,0.00035609,3558.4,0.00033001,2974.9,-6.8562e-05,-19.875,-0.00019354,-958.88,1.136
29807,15.724,4,0.1,0.00045611,4558,0.0004237,3879.9,-7.752e-05,113.92,-0.00025069,-1187.2,1.1478
29808,15.632,4.2727,0.1,0.00031713,3169.1,0.00028438,2481.3,-4.6614e-05,-5.6688,-0.00019052,-1086.9,1.1353
29809,15.724,4.1818,0.1,0.00039855,3982.7,0.00034807,2972.3,-4.4116e-05,25.627,-0.00025498,-1558.8,1.1471
29810,15.632,4.4545,0.1,0.00026727,2670.8,0.00023546,2019.8,-3.3583e-05,-1.7383,-0.00016752,-1008.1,1.1346
29811,15.724,4.3636,0.1,0.00031512,3149.1,0.00026776,2215.3,-2.7976e-05,-6.6727,-0.00021187,-1388.4,1.1464
29812,15.632,4.6364,0.1,0.00022116,2210.1,0.00019416,1660.1,-2.6869e-05,-0.62154,-0.00013969,-848.35,1.1338
29813,15.724,4.5455,0.1,0.00025309,2529.2,0.00021453,1775.5,-2.1117e-05,4.9309,-0.00017099,-1121.1,1.1455
29814,15.632,4.8182,0.1,0.00018217,1820.5,0.00016098,1385.2,-2.3473e-05,-0.73937,-0.00011342,-676.58,1.1329
29815,15.724,4.7273,0.1,0.00020508,2049.4,0.0001749,1454.5,-1.859e-05,0.73453,-0.00013706,-889.38,1.1446
29816,15.632,5,0.1,0.00014927,1491.6,0.00013371,1166.2,-2.1591e-05,-0.70104,-8.9967e-05,-514.45,1.132
29817,15.724,4.9091,0.1,0.00016619,1660.7,0.00014358,1209.4,-1.7206e-05,1.3137,-0.00010847,-684.38,1.1437
29818,15.632,5.1818,0.1,0.00012146,1213.8,0.00011088,985.84,-2.0406e-05,-0.56128,-6.9523e-05,-369.61,1.1311
29819,15.724,5.0909,0.1,0.00013375,1336.6,0.00011769,1009.1,-1.648e-05,1.014,-8.4094e-05,-507.02,1.1428
29820,15.632,5.3636,0.1,9.7932e-05,978.64,9.1489e-05,833.78,-1.953e-05,-0.37803,-5.1889e-05,-243.51,1.1302
29821,15.724,5.2727,0.1,0.00010599,1059.2,9.5486e-05,838.25,-1.5929e-05,1.1199,-6.2991e-05,-352.49,1.1419
29822,15.632,5.5455,0.1,7.8684e-05,786.3,7.5361e-05,706.86,-1.8728e-05,-0.087649,-3.7349e-05,-139.99,1.1293
29823,15.724,5.4545,0.1,8.2038e-05,819.81,7.6064e-05,688.18,-1.5332e-05,1.4598,-4.4735e-05,-219.46,1.1409
29824,15.632,5.7273,0.1,6.4994e-05,649.49,6.3535e-05,612.13,-1.7867e-05,0.50259,-2.7191e-05,-69.55,1.1283
29825,15.724,5.6364,0.1,6.2007e-05,619.64,5.9351e-05,556.95,-1.4481e-05,2.2046,-2.9648e-05,-111.76,1.14
29826,15.724,5.8182,0.1,4.8323e-05,482.89,4.736e-05,458.92,-1.3057e-05,4.9702,-2.0169e-05,-48.472,1.139
29827,15.632,5.9091,0.1,5.531e-05,552.72,5.4944e-05,542.48,-1.7257e-05,-0.010697,-1.9908e-05,-19.931,1.1274
29828,15.816,0.27273,0.1,4.7579e-05,475.46,4.4979e-05,417.29,-9.8226e-06,5.53,-2.4278e-05,-103.08,1.1507
29829,15.908,0.18182,0.1,2.6553e-05,265.35,2.5826e-05,246.76,-7.1759e-06,-1.2017,-1.1421e-05,-33.099,1.1614
29830,15.816,0.090909,0.1,3.0656e-05,306.35,3.0227e-05,295.87,-8.4043e-06,5.6089,-1.2394e-05,-24.368,1.1497
29831,15.816,0.45455,0.1,6.8667e-05,686.19,6.2618e-05,557.52,-1.1154e-05,3.2327,-3.9528e-05,-209.96,1.1517
29832,15.908,0.36364,0.1,4.3977e-05,439.47,4.0962e-05,371.62,-8.6959e-06,-1.4868,-2.351e-05,-112.8,1.1624
29833,15.816,0.63636,0.1,9.3659e-05,935.95,8.2709e-05,712.54,-1.1755e-05,2.779,-5.8461e-05,-348.15,1.1526
29834,15.908,0.54545,0.1,6.3516e-05,634.72,5.692e-05,496.38,-9.2738e-06,-0.97397,-3.8225e-05,-218.5,1.1633
29835,15.816,0.81818,0.1,0.00012202,1219.3,0.00010501,881.85,-1.2011e-05,2.6365,-8.0258e-05,-510.14,1.1536
29836,15.908,0.72727,0.1,8.5035e-05,849.76,7.3838e-05,624.29,-9.3763e-06,-0.95128,-5.4932e-05,-343.24,1.1643
29837,15.816,1,0.1,0.00015476,1546.6,0.00013047,1074.2,-1.2094e-05,3.0359,-0.0001055,-698.8,1.1545
29838,15.908,0.90909,0.1,0.00010934,1092.7,9.2491e-05,762.49,-9.1394e-06,-1.1285,-7.4091e-05,-489.15,1.1653
29839,15.816,1.1818,0.1,0.0001939,1937.6,0.00016088,1304.2,-1.2312e-05,2.8698,-0.00013549,-922.65,1.1555
29840,15.908,1.0909,0.1,0.00013778,1376.8,0.00011399,920.41,-8.5571e-06,-0.36319,-9.6667e-05,-662.39,1.1663
29841,15.816,1.3636,0.1,0.00024305,2428.8,0.00019947,1601.4,-1.2821e-05,6.4086,-0.00017256,-1193.8,1.1564
29842,15.908,1.2727,0.1,0.00017258,1724.6,0.00014026,1112,-8.1566e-06,-3.1308,-0.00012412,-874.46,1.1673
29843,15.816,1.5455,0.1,0.00030976,3095.4,0.0002529,2016.7,-1.5472e-05,0.27606,-0.00022145,-1547.3,1.1574
29844,15.908,1.4545,0.1,0.0002185,2183.5,0.0001746,1367.7,-6.3243e-06,8.3509,-0.00016061,-1150.9,1.1683
29845,15.816,1.7273,0.1,0.00040429,4040.1,0.00033648,2744.3,-2.5471e-05,24.681,-0.00028138,-1898.2,1.1582
29846,15.908,1.6364,0.1,0.00027978,2795.9,0.00022377,1733.1,-1.1416e-05,-33.971,-0.00020525,-1490.4,1.1693
29847,15.816,1.9091,0.1,0.00049676,4964.2,0.00044001,3864.3,-5.2694e-05,162.28,-0.00031077,-1776.8,1.1591
29848,15.908,1.8182,0.1,0.00040209,4018.1,0.0003088,2395.1,1.0072e-05,150.55,-0.00030861,-2243.9,1.1702
29849,15.816,2.0909,0.1,0.00051771,5173.5,0.00048912,4553.5,-0.00010152,115.72,-0.00026714,-1128.7,1.1597
29850,15.908,2,0.1,0.00076498,7644.6,0.00071962,6663.5,-0.0001464,156.6,-0.0004009,-1755.6,1.1711
29851,15.816,2.2727,0.1,0.00049023,4898.9,0.00047465,4512.8,-0.00012631,-2.5885,-0.00021856,-695.75,1.1603
29852,15.908,2.1818,0.1,0.00058696,5865.5,0.00056876,5401.3,-0.00015686,-50.638,-0.00025723,-804.77,1.1718
29853,15.816,2.4545,0.1,0.00045788,4575.6,0.00044563,4267.3,-0.00012196,2.694,-0.00019765,-566.06,1.1607
29854,15.908,2.3636,0.1,0.00050368,5033.4,0.0004899,4689.3,-0.00013262,12.007,-0.000219,-637.06,1.1723
29855,15.816,2.6364,0.1,0.00043186,4315.6,0.00042112,4042.5,-0.00011696,-0.45998,-0.00018371,-501.96,1.161
29856,15.908,2.5455,0.1,0.00045681,4564.9,0.00044511,4268.2,-0.00012313,-1.3817,-0.00019531,-543.74,1.1727
29857,15.816,2.8182,0.1,0.0004177,4174.1,0.00040763,3917.6,-0.00011363,0.97643,-0.00017679,-473.6,1.1612
29858,15.908,2.7273,0.1,0.00043133,4310.3,0.0004207,4040.2,-0.00011679,1.723,-0.00018335,-498.37,1.1729
29859,15.816,3,0.1,0.00041314,4128.5,0.00040327,3876.8,-0.00011265,0.36494,-0.00017451,-464.43,1.1613
29860,15.908,2.9091,0.1,0.00041995,4196.6,0.0004098,3937.9,-0.00011421,0.68502,-0.00017783,-477.32,1.173
29861,15.816,3.1818,0.1,0.0004177,4174.1,0.00040763,3917.6,-0.00011363,0.97643,-0.00017679,-473.6,1.1612
29862,15.908,3.0909,0.1,0.00041995,4196.6,0.0004098,3937.9,-0.00011421,0.68502,-0.00017783,-477.32,1.173
29863,15.816,3.3636,0.1,0.00043186,4315.6,0.00042112,4042.5,-0.00011696,-0.45998,-0.00018371,-501.96,1.161
29864,15.908,3.2727,0.1,0.00043133,4310.3,0.0004207,4040.2,-0.00011679,1.723,-0.00018335,-498.37,1.1729
29865,15.816,3.5455,0.1,0.00045788,4575.6,0.00044563,4267.3,-0.00012196,2.694,-0.00019765,-566.06,1.1607
29866,15.908,3.4545,0.1,0.00045681,4564.9,0.00044511,4268.2,-0.00012313,-1.3817,-0.00019531,-543.74,1.1727
29867,15.816,3.7273,0.1,0.00049023,4898.9,0.00047465,4512.8,-0.00012631,-2.5885,-0.00021856,-695.75,1.1603
29868,15.908,3.6364,0.1,0.00050368,5033.4,0.0004899,4689.3,-0.00013262,12.007,-0.000219,-637.06,1.1723
29869,15.816,3.9091,0.1,0.00051771,5173.5,0.00048912,4553.5,-0.00010152,115.72,-0.00026714,-1128.7,1.1597
29870,15.908,3.8182,0.1,0.00058696,5865.5,0.00056876,5401.3,-0.00015686,-50.638,-0.00025723,-804.77,1.1718
29871,15.816,4.0909,0.1,0.00049676,4964.2,0.00044001,3864.3,-5.2694e-05,162.28,-0.00031077,-1776.8,1.1591
29872,15.908,4,0.1,0.00076498,7644.6,0.00071962,6663.5,-0.0001464,156.6,-0.0004009,-1755.6,1.1711
29873,15.816,4.2727,0.1,0.00040429,4040.1,0.00033648,2744.3,-2.5471e-05,24.681,-0.00028138,-1898.2,1.1582
29874,15.908,4.1818,0.1,0.00040209,4018.1,0.0003088,2395.1,1.0072e-05,150.55,-0.00030861,-2243.9,1.1702
29875,15.816,4.4545,0.1,0.00030976,3095.4,0.0002529,2016.7,-1.5472e-05,0.27606,-0.00022145,-1547.3,1.1574
29876,15.908,4.3636,0.1,0.00027978,2795.9,0.00022377,1733.1,-1.1416e-05,-33.971,-0.00020525,-1490.4,1.1693
29877,15.816,4.6364,0.1,0.00024305,2428.8,0.00019947,1601.4,-1.2821e-05,6.4086,-0.00017256,-1193.8,1.1564
29878,15.908,4.5455,0.1,0.0002185,2183.5,0.0001746,1367.7,-6.3243e-06,8.3509,-0.00016061,-1150.9,1.1683
29879,15.816,4.8182,0.1,0.0001939,1937.6,0.00016088,1304.2,-1.2312e-05,2.8698,-0.00013549,-922.65,1.1555
29880,15.908,4.7273,0.1,0.00017258,1724.6,0.00014026,1112,-8.1566e-06,-3.1308,-0.00012412,-874.46,1.1673
29881,15.816,5,0.1,0.00015476,1546.6,0.00013047,1074.2,-1.2094e-05,3.0359,-0.0001055,-698.8,1.1545
29882,15.908,4.9091,0.1,0.00013778,1376.8,0.00011399,920.41,-8.5571e-06,-0.36318,-9.6667e-05,-662.39,1.1663
29883,15.816,5.1818,0.1,0.00012202,1219.3,0.00010501,881.85,-1.2011e-05,2.6365,-8.0258e-05,-510.14,1.1536
29884,15.908,5.0909,0.1,0.00010934,1092.7,9.2491e-05,762.49,-9.1394e-06,-1.1285,-7.4091e-05,-489.15,1.1653
29885,15.816,5.3636,0.1,9.3659e-05,935.95,8.2709e-05,712.54,-1.1755e-05,2.779,-5.8461e-05,-348.15,1.1526
29886,15.908,5.2727,0.1,8.5035e-05,849.76,7.3838e-05,624.29,-9.3763e-06,-0.95128,-5.4932e-05,-343.24,1.1643
29887,15.816,5.5455,0.1,6.8667e-05,686.19,6.2618e-05,557.52,-1.1154e-05,3.2327,-3.9528e-05,-209.96,1.1517
29888,15.908,5.4545,0.1,6.3516e-05,634.72,5.692e-05,496.38,-9.2738e-06,-0.97397,-3.8225e-05,-218.5,1.1633
29889,15.816,5.7273,0.1,4.7579e-05,475.46,4.4979e-05,417.29,-9.8226e-06,5.53,-2.4278e-05,-103.08,1.1507
29890,15.908,5.6364,0.1,4.3977e-05,439.47,4.0962e-05,371.62,-8.6959e-06,-1.4868,-2.351e-05,-112.8,1.1624
29891,15.908,5.8182,0.1,2.6553e-05,265.35,2.5826e-05,246.76,-7.1759e-06,-1.2017,-1.1421e-05,-33.099,1.1614
29892,15.816,5.9091,0.1,3.0656e-05,306.35,3.0227e-05,295.87,-8.4043e-06,5.6089,-1.2394e-05,-24.368,1.1497
29893,16.167,3.7273,0.1,0.00059783,5974.2,0.00058506,5644.1,-0.00016645,-2.5162,-0.00024746,-611.16,1.2056
29894,16.083,3.8182,0.1,0.00066326,6628.1,0.00064787,6222.3,-0.00018775,-56.242,-0.0002744,-707.32,1.1944
29895,16.167,3.9091,0.1,0.00078775,7872,0.0007752,7606.8,-0.00019513,316.1,-0.00033569,-740.04,1.205
29896,16.167,3.5455,0.1,0.0004993,4989.6,0.00048756,4691.3,-0.00013568,8.5327,-0.00021093,-556.88,1.206
29897,16.083,3.6364,0.1,0.00053078,5304.1,0.00051758,4972.6,-0.00014195,17.109,-0.00022704,-622.21,1.195
29898,16.167,3.3636,0.1,0.00045133,4510.2,0.00044087,4242.5,-0.00012369,0.59176,-0.00018966,-495.12,1.2063
29899,16.083,3.4545,0.1,0.0004697,4693.7,0.00045816,4399.9,-0.00012749,-0.47377,-0.00019937,-540.56,1.1953
29900,16.167,3.1818,0.1,0.00042805,4277.5,0.00041831,4028.1,-0.00011761,1.3906,-0.00017933,-462.33,1.2065
29901,16.083,3.2727,0.1,0.00043766,4373.6,0.00042719,4106.9,-0.00011915,1.8803,-0.00018503,-493.11,1.1956
29902,16.167,3,0.1,0.00042107,4207.8,0.00041156,3964,-0.00011589,0.89791,-0.00017615,-451.84,1.2066
29903,16.083,3.0909,0.1,0.00042391,4236.2,0.00041394,3981.4,-0.00011583,0.95602,-0.00017864,-471,1.1957
29904,16.167,2.8182,0.1,0.00042805,4277.5,0.00041831,4028.1,-0.00011761,1.3906,-0.00017933,-462.33,1.2065
29905,16.083,2.9091,0.1,0.00042391,4236.2,0.00041394,3981.4,-0.00011583,0.95602,-0.00017864,-471,1.1957
29906,16.167,2.6364,0.1,0.00045133,4510.2,0.00044087,4242.5,-0.00012369,0.59176,-0.00018966,-495.12,1.2063
29907,16.083,2.7273,0.1,0.00043766,4373.6,0.00042719,4106.9,-0.00011915,1.8803,-0.00018503,-493.11,1.1956
29908,16.167,2.4545,0.1,0.0004993,4989.6,0.00048756,4691.3,-0.00013568,8.5327,-0.00021093,-556.88,1.206
29909,16.083,2.5455,0.1,0.0004697,4693.7,0.00045816,4399.9,-0.00012749,-0.47377,-0.00019937,-540.56,1.1953
29910,16.167,2.2727,0.1,0.00059783,5974.2,0.00058506,5644.1,-0.00016645,-2.5162,-0.00024746,-611.16,1.2056
29911,16.083,2.3636,0.1,0.00053078,5304.1,0.00051758,4972.6,-0.00014195,17.109,-0.00022704,-622.21,1.195
29912,16.083,2.1818,0.1,0.00066326,6628.1,0.00064787,6222.3,-0.00018775,-56.242,-0.0002744,-707.32,1.1944
29913,16.167,2.0909,0.1,0.00078775,7872,0.0007752,7606.8,-0.00019513,316.1,-0.00033569,-740.04,1.205
29914,16,3.7273,0.1,0.00060747,6070.5,0.00058987,5622,-0.00016298,-34.63,-0.00026372,-791.54,1.1839
29915,16,3.9091,0.1,0.00082491,8243.4,0.00078952,7438.2,-0.00018336,128.37,-0.00039964,-1496.6,1.1833
29916,16,3.5455,0.1,0.00050447,5041.2,0.00049094,4701.9,-0.0001338,7.8771,-0.00021822,-626.44,1.1843
29917,16,3.3636,0.1,0.00045686,4565.5,0.00044518,4269.6,-0.00012296,0.76884,-0.00019543,-543.79,1.1847
29918,16,3.1818,0.1,0.00043367,4333.7,0.00042294,4061,-0.00011737,1.4042,-0.00018445,-502.62,1.1848
29919,16,3,0.1,0.00042674,4264.4,0.00041629,3998.7,-0.00011577,0.97992,-0.00018111,-489.95,1.1849
29920,16,2.8182,0.1,0.00043367,4333.7,0.00042294,4061,-0.00011737,1.4042,-0.00018445,-502.62,1.1848
29921,16,2.6364,0.1,0.00045686,4565.5,0.00044518,4269.6,-0.00012296,0.76883,-0.00019543,-543.79,1.1847
29922,16,2.4545,0.1,0.00050447,5041.2,0.00049094,4701.9,-0.0001338,7.8771,-0.00021822,-626.44,1.1843
29923,16,2.2727,0.1,0.00060747,6070.5,0.00058987,5622,-0.00016298,-34.63,-0.00026372,-791.54,1.1839
29924,16,2.0909,0.1,0.00082491,8243.4,0.00078952,7438.2,-0.00018336,128.37,-0.00039964,-1496.6,1.1833
29925,16.167,5.7273,0.1,2.4698e-05,246.81,2.3511e-05,217.34,-6.1142e-06,-5.2442,-1.1816e-05,-48.086,1.1988
29926,16.167,5.9091,0.1,8.8874e-06,88.812,8.719e-06,84.467,-2.489e-06,0.25499,-3.6307e-06,-8.3233,1.1983
29927,16.167,5.8182,0.05,6.0445e-06,60.403,4.6414e-06,34.874,1.57e-14,2.8875e-06,-4.6414e-06,-34.874,1.1985
29928,16.167,5.5455,0.1,3.8923e-05,388.96,3.6515e-05,332.34,-8.5234e-06,-6.0616,-2.0041e-05,-92.601,1.1993
29929,16.167,5.6364,0.05,1.2974e-05,129.65,9.9624e-06,74.853,4.7879e-14,4.289e-06,-9.9624e-06,-74.853,1.199
29930,16.167,5.3636,0.1,5.3171e-05,531.35,4.9238e-05,442.19,-1.0477e-05,-6.4777,-2.8855e-05,-144.57,1.1998
29931,16.167,5.4545,0.05,1.9805e-05,197.92,1.5208e-05,114.27,-4.1026e-13,2.6945e-06,-1.5208e-05,-114.27,1.1995
29932,16.167,5.1818,0.1,6.8752e-05,687.05,6.2938e-05,558.54,-1.2392e-05,-7.4527,-3.8801e-05,-205.88,1.2003
29933,16.167,5.2727,0.05,2.7219e-05,272.01,2.0901e-05,157.04,-4.3327e-13,2.7457e-06,-2.0901e-05,-157.04,1.2001
29934,16.167,5,0.1,8.6792e-05,867.32,7.8632e-05,690.52,-1.4416e-05,-8.6093,-5.0544e-05,-280.06,1.2009
29935,16.167,5.0909,0.05,3.5638e-05,356.13,2.7365e-05,205.61,-8.8513e-13,4.2358e-06,-2.7365e-05,-205.61,1.2006
29936,16.167,4.8182,0.1,0.0001089,1088.3,9.7741e-05,849.76,-1.6868e-05,-11.372,-6.5052e-05,-373.41,1.2015
29937,16.167,4.9091,0.05,4.5673e-05,456.42,3.5071e-05,263.51,-8.8263e-13,6.0384e-06,-3.5071e-05,-263.51,1.2012
29938,16.167,4.6364,0.1,0.00013845,1383.5,0.00012299,1058.8,-1.965e-05,-12.999,-8.488e-05,-503.11,1.2021
29939,16.167,4.7273,0.05,5.8356e-05,583.16,4.481e-05,336.69,-1.1038e-12,2.2973e-07,-4.481e-05,-336.69,1.2018
29940,16.167,4.4545,0.1,0.00017719,1770.7,0.00015724,1345.9,-2.6122e-05,-31.854,-0.00010857,-651.36,1.2028
29941,16.167,4.5455,0.05,7.552e-05,754.67,5.799e-05,435.71,2.8461e-14,1.4938e-05,-5.799e-05,-435.71,1.2024
29942,16.167,4.2727,0.1,0.00027099,2708,0.00023071,1902.7,-2.6228e-05,-27.872,-0.00018128,-1192.9,1.2035
29943,16.167,4.3636,0.05,0.00010259,1025.2,7.8774e-05,591.87,-2.7262e-12,-1.9689e-05,-7.8774e-05,-591.87,1.2031
29944,16.167,4.0909,0.1,0.00056246,5620.7,0.00053417,5172.5,-7.4182e-05,601.56,-0.00030108,-1103.2,1.2042
29945,16.167,4.1818,0.05,0.00017356,1734.4,0.00013327,1001.4,1.6134e-11,0.00017127,-0.00013327,-1001.4,1.2038
29946,16.083,4,0.1,0.00082934,8287.6,0.00080868,8010,-0.00014356,855.22,-0.00039994,-1071.2,1.1937
29947,16.167,4,0.05,0.00014879,1486.9,0.00011425,858.44,-1.2887e-10,-0.0013013,-0.00011425,-858.44,1.2046
29948,16,4.0909,0.1,0.00061706,6166.3,0.00054309,4853.8,-4.2005e-05,457.69,-0.00039505,-2194.9,1.1823
29949,16,4,0.05,0.00019383,1936.9,0.00014884,1118.3,-7.6219e-11,-0.00087675,-0.00014884,-1118.3,1.1828
29950,16,4.2727,0.1,0.00032424,3240.1,0.00023839,1701.8,8.4425e-06,-25.953,-0.00025909,-2036.1,1.1813
29951,16,4.1818,0.05,0.00021123,2110.8,0.0001622,1218.7,1.8941e-11,0.00018797,-0.0001622,-1218.7,1.1818
29952,16,4.4545,0.1,0.00021303,2128.8,0.00016471,1228.7,-3.5213e-06,-35.316,-0.0001624,-1229.1,1.1802
29953,16,4.3636,0.05,0.00013172,1316.3,0.00010114,759.96,-2.0643e-12,-1.3222e-05,-0.00010114,-759.96,1.1807
29954,16,4.6364,0.1,0.00016686,1667.4,0.00013063,992.76,-3.5512e-06,-15.399,-0.00012553,-931.89,1.1792
29955,16,4.5455,0.05,9.8537e-05,984.69,7.5664e-05,568.51,5.5324e-13,1.7169e-05,-7.5664e-05,-568.51,1.1797
29956,16,4.8182,0.1,0.0001316,1315.1,0.00010544,818.91,-5.4312e-06,-14.096,-9.6341e-05,-697.16,1.1781
29957,16,4.7273,0.05,7.7601e-05,775.47,5.9588e-05,447.72,1.048e-14,-1.8634e-06,-5.9588e-05,-447.72,1.1786
29958,16,5,0.1,0.00010476,1046.9,8.5941e-05,683.29,-6.4674e-06,-11.025,-7.4322e-05,-520.86,1.1771
29959,16,4.9091,0.05,6.1583e-05,615.41,4.7288e-05,355.31,-4.6821e-13,7.8385e-06,-4.7288e-05,-355.31,1.1776
29960,16,5.1818,0.1,8.2629e-05,825.72,6.9566e-05,566.85,-7.1857e-06,-9.8329,-5.6326e-05,-379.05,1.1761
29961,16,5.0909,0.05,4.8544e-05,485.1,3.7275e-05,280.07,-5.5212e-13,3.9469e-06,-3.7275e-05,-280.07,1.1766
29962,16,5.3636,0.1,6.3462e-05,634.18,5.4965e-05,460.09,-7.4349e-06,-8.7616,-4.1072e-05,-261.5,1.175
29963,16,5.2727,0.05,3.7317e-05,372.92,2.8655e-05,215.3,-4.3703e-13,4.674e-06,-2.8655e-05,-215.3,1.1755
29964,16,5.5455,0.1,4.6083e-05,460.51,4.117e-05,354.85,-7.1598e-06,-8.2798,-2.7768e-05,-163.12,1.174
29965,16,5.4545,0.05,2.724e-05,272.22,2.0917e-05,157.16,-5.0081e-13,1.3041e-06,-2.0917e-05,-157.16,1.1745
29966,16,5.7273,0.1,2.9107e-05,290.87,2.6872e-05,239.14,-5.9449e-06,-7.4345,-1.5822e-05,-81.646,1.1731
29967,16,5.6364,0.05,1.7865e-05,178.52,1.3718e-05,103.07,3.6247e-13,1.0357e-05,-1.3718e-05,-103.07,1.1735
29968,16,5.9091,0.1,1.0514e-05,105.07,1.0187e-05,96.31,-2.996e-06,-2.7405,-4.4797e-06,-13.888,1.1721
29969,16,5.8182,0.05,8.4785e-06,84.727,6.5104e-06,48.917,-2.7596e-13,-2.5338e-06,-6.5104e-06,-48.917,1.1725
29970,16.167,0.27273,0.1,2.4698e-05,246.81,2.3511e-05,217.34,-6.1142e-06,-5.2442,-1.1816e-05,-48.086,1.1988
29971,16.167,0.090909,0.1,8.8874e-06,88.812,8.719e-06,84.467,-2.489e-06,0.25498,-3.6307e-06,-8.3233,1.1983
29972,16.167,0.18182,0.05,6.0445e-06,60.403,4.6414e-06,34.874,-2.5087e-14,-3.6204e-06,-4.6414e-06,-34.874,1.1985
29973,16.167,0.45455,0.1,3.8923e-05,388.96,3.6515e-05,332.34,-8.5234e-06,-6.0616,-2.0041e-05,-92.601,1.1993
29974,16.167,0.36364,0.05,1.2974e-05,129.65,9.9624e-06,74.853,3.6264e-13,4.9455e-06,-9.9624e-06,-74.853,1.199
29975,16.167,0.63636,0.1,5.3171e-05,531.35,4.9238e-05,442.19,-1.0477e-05,-6.4777,-2.8855e-05,-144.57,1.1998
29976,16.167,0.54545,0.05,1.9805e-05,197.92,1.5208e-05,114.27,-8.1873e-14,2.9326e-06,-1.5208e-05,-114.27,1.1995
29977,16.167,0.81818,0.1,6.8752e-05,687.05,6.2938e-05,558.54,-1.2392e-05,-7.4527,-3.8801e-05,-205.88,1.2003
29978,16.167,0.72727,0.05,2.7219e-05,272.01,2.0901e-05,157.04,6.1366e-15,2.7937e-06,-2.0901e-05,-157.04,1.2001
29979,16.167,1,0.1,8.6792e-05,867.32,7.8632e-05,690.52,-1.4416e-05,-8.6093,-5.0544e-05,-280.06,1.2009
29980,16.167,0.90909,0.05,3.5638e-05,356.13,2.7365e-05,205.61,-6.8349e-21,3.598e-06,-2.7365e-05,-205.61,1.2006
29981,16.167,1.1818,0.1,0.0001089,1088.3,9.7741e-05,849.76,-1.6868e-05,-11.372,-6.5052e-05,-373.41,1.2015
29982,16.167,1.0909,0.05,4.5673e-05,456.42,3.5071e-05,263.51,1.3628e-13,3.3966e-06,-3.5071e-05,-263.51,1.2012
29983,16.167,1.3636,0.1,0.00013845,1383.5,0.00012299,1058.8,-1.965e-05,-12.999,-8.488e-05,-503.11,1.2021
29984,16.167,1.2727,0.05,5.8356e-05,583.16,4.481e-05,336.69,9.1288e-15,4.3466e-06,-4.481e-05,-336.69,1.2018
29985,16.167,1.5455,0.1,0.00017719,1770.7,0.00015724,1345.9,-2.6122e-05,-31.854,-0.00010857,-651.36,1.2028
29986,16.167,1.4545,0.05,7.552e-05,754.67,5.799e-05,435.71,5.6921e-15,1.91e-07,-5.799e-05,-435.71,1.2024
29987,16.167,1.7273,0.1,0.00027099,2708,0.00023071,1902.7,-2.6228e-05,-27.872,-0.00018128,-1192.9,1.2035
29988,16.167,1.6364,0.05,0.00010259,1025.2,7.8774e-05,591.87,-1.6709e-20,1.1105e-05,-7.8774e-05,-591.87,1.2031
29989,16.167,1.9091,0.1,0.00056246,5620.7,0.00053417,5172.5,-7.4182e-05,601.56,-0.00030108,-1103.2,1.2042
29990,16.167,1.8182,0.05,0.00017356,1734.4,0.00013327,1001.4,-5.3907e-12,-4.0139e-05,-0.00013327,-1001.4,1.2038
29991,16.083,2,0.1,0.00082934,8287.6,0.00080869,8010,-0.00014356,855.22,-0.00039994,-1071.2,1.1937
29992,16.167,2,0.05,0.00014879,1486.9,0.00011425,858.44,4.2551e-11,0.00041259,-0.00011425,-858.44,1.2046
29993,16,1.9091,0.1,0.00061706,6166.3,0.00054309,4853.8,-4.2005e-05,457.69,-0.00039505,-2194.9,1.1823
29994,16,2,0.05,0.00019383,1936.9,0.00014884,1118.3,1.205e-11,0.00035296,-0.00014884,-1118.3,1.1828
29995,16,1.7273,0.1,0.00032424,3240.1,0.00023839,1701.8,8.4425e-06,-25.953,-0.00025909,-2036.1,1.1813
29996,16,1.8182,0.05,0.00021123,2110.8,0.0001622,1218.7,-7.6245e-12,-2.0996e-05,-0.0001622,-1218.7,1.1818
29997,16,1.5455,0.1,0.00021303,2128.8,0.00016471,1228.7,-3.5213e-06,-35.316,-0.0001624,-1229.1,1.1802
29998,16,1.6364,0.05,0.00013172,1316.3,0.00010114,759.96,7.618e-13,9.9624e-06,-0.00010114,-759.96,1.1807
29999,16,1.3636,0.1,0.00016686,1667.4,0.00013063,992.76,-3.5512e-06,-15.399,-0.00012553,-931.89,1.1792
30000,16,1.4545,0.05,9.8537e-05,984.69,7.5664e-05,568.51,-1.3361e-12,2.0832e-07,-7.5664e-05,-568.51,1.1797
30001,16,1.1818,0.1,0.0001316,1315.1,0.00010544,818.91,-5.4312e-06,-14.096,-9.6341e-05,-697.16,1.1781
30002,16,1.2727,0.05,7.7601e-05,775.47,5.9588e-05,447.72,-5.8197e-13,6.8475e-06,-5.9588e-05,-447.72,1.1786
30003,16,1,0.1,0.00010476,1046.9,8.5941e-05,683.29,-6.4674e-06,-11.025,-7.4322e-05,-520.86,1.1771
30004,16,1.0909,0.05,6.1583e-05,615.41,4.7288e-05,355.31,2.4934e-13,9.9583e-08,-4.7288e-05,-355.31,1.1776
30005,16,0.81818,0.1,8.2629e-05,825.72,6.9566e-05,566.85,-7.1857e-06,-9.8329,-5.6326e-05,-379.05,1.1761
30006,16,0.90909,0.05,4.8544e-05,485.1,3.7275e-05,280.07,1.344e-13,3.8713e-06,-3.7275e-05,-280.07,1.1766
30007,16,0.63636,0.1,6.3462e-05,634.18,5.4965e-05,460.09,-7.4349e-06,-8.7616,-4.1072e-05,-261.5,1.175
30008,16,0.72727,0.05,3.7317e-05,372.92,2.8655e-05,215.3,-1.4021e-13,3.6274e-06,-2.8655e-05,-215.3,1.1755
30009,16,0.45455,0.1,4.6083e-05,460.51,4.117e-05,354.85,-7.1598e-06,-8.2798,-2.7768e-05,-163.12,1.174
30010,16,0.54545,0.05,2.724e-05,272.22,2.0917e-05,157.16,9.1439e-15,4.3782e-06,-2.0917e-05,-157.16,1.1745
30011,16,0.27273,0.1,2.9107e-05,290.87,2.6872e-05,239.14,-5.9449e-06,-7.4345,-1.5822e-05,-81.646,1.1731
30012,16,0.36364,0.05,1.7865e-05,178.52,1.3718e-05,103.07,2.4164e-13,5.2198e-06,-1.3718e-05,-103.07,1.1735
30013,16,0.090909,0.1,1.0514e-05,105.07,1.0187e-05,96.31,-2.996e-06,-2.7405,-4.4797e-06,-13.888,1.1721
30014,16,0.18182,0.05,8.4785e-06,84.727,6.5104e-06,48.917,2.386e-14,1.5136e-06,-6.5104e-06,-48.917,1.1725
30015,16.258,6,0.1,1.0464e-05,104.56,1.0501e-05,106.35,-2.7153e-06,7.0428,-4.0227e-06,-2.7803,1.2107
30016,16.167,6,0.05,1.9438e-06,19.424,1.4926e-06,11.215,-6.7275e-13,-1.9141e-07,-1.4926e-06,-11.215,1.1981
30017,16.44,6,0.1,2.9785e-05,297.64,2.9626e-05,293.14,-9.4348e-06,-0.34928,-1.0518e-05,-8.4919,1.2359
30018,16.349,6,0.05,1.7769e-06,17.756,1.3644e-06,10.252,-4.1499e-14,-1.1589e-06,-1.3644e-06,-10.252,1.2233
30019,16.622,6,0.1,4.7387e-05,473.54,4.7181e-05,467.64,-1.5187e-05,-0.97528,-1.648e-05,-10.69,1.2611
30020,16.531,6,0.05,4.4246e-06,44.215,3.3975e-06,25.528,-2.7545e-14,5.5953e-06,-3.3975e-06,-25.528,1.2485
30021,16.804,6,0.1,6.2433e-05,623.9,6.2221e-05,617.82,-2.0057e-05,-0.38691,-2.1553e-05,-11.63,1.2864
30022,16.713,6,0.05,5.8969e-06,58.928,4.5281e-06,34.022,-9.0567e-13,4.3283e-06,-4.5281e-06,-34.022,1.2737
30023,16.986,6,0.1,7.5145e-05,750.93,7.4939e-05,745.02,-2.4234e-05,-0.1293,-2.5755e-05,-11.562,1.3117
30024,16.895,6,0.05,6.7872e-06,67.825,5.2117e-06,39.159,-4.5183e-15,4.0563e-06,-5.2117e-06,-39.159,1.299
30025,17.169,6,0.1,8.5546e-05,854.87,8.5356e-05,849.4,-2.7681e-05,0.085047,-2.9144e-05,-10.913,1.3371
30026,17.078,6,0.05,7.2542e-06,72.492,5.5703e-06,41.853,-4.5613e-13,4.7567e-06,-5.5703e-06,-41.853,1.3244
30027,17.351,6,0.1,9.3744e-05,936.79,9.3572e-05,931.84,-3.0421e-05,0.19957,-3.1781e-05,-10.015,1.3625
30028,17.26,6,0.05,7.4467e-06,74.416,5.7181e-06,42.964,-9.1376e-13,5.0709e-06,-5.7181e-06,-42.964,1.3497
30029,17.533,6,0.1,9.9913e-05,998.44,9.976e-05,994,-3.2501e-05,0.25158,-3.3739e-05,-9.0529,1.3879
30030,17.442,6,0.05,7.4684e-06,74.632,5.7348e-06,43.089,-9.1497e-13,4.7767e-06,-5.7348e-06,-43.089,1.3752
30031,17.715,6,0.1,0.00010428,1042,0.00010414,1038.1,-3.3985e-05,0.25768,-3.5103e-05,-8.1388,1.4135
30032,17.624,6,0.05,7.3957e-06,73.906,5.679e-06,42.669,4.0958e-16,5.1306e-06,-5.679e-06,-42.669,1.4007
30033,17.897,6,0.1,0.00010707,1070,0.00010695,1066.4,-3.4951e-05,0.23635,-3.5958e-05,-7.3299,1.4391
30034,17.806,6,0.05,7.2811e-06,72.761,5.591e-06,42.009,-6.5664e-15,3.6396e-06,-5.591e-06,-42.009,1.4263
30035,18.079,6,0.1,0.00010854,1084.7,0.00010843,1081.4,-3.5472e-05,0.20042,-3.6384e-05,-6.6515,1.4648
30036,17.988,6,0.05,7.1586e-06,71.537,5.4969e-06,41.302,8.9202e-13,4.6578e-06,-5.4969e-06,-41.302,1.4519
30037,18.262,6,0.1,0.0001089,1088.3,0.0001088,1085.3,-3.5622e-05,0.15898,-3.6456e-05,-6.1095,1.4905
30038,18.171,6,0.05,7.0483e-06,70.434,5.4122e-06,40.665,-1.148e-21,5.9821e-06,-5.4122e-06,-40.665,1.4776
30039,18.444,6,0.1,0.00010835,1082.8,0.00010826,1080,-3.5464e-05,0.11787,-3.6238e-05,-5.699,1.5163
30040,18.353,6,0.05,6.9602e-06,69.554,5.3446e-06,40.157,9.0915e-13,4.1624e-06,-5.3446e-06,-40.157,1.5034
30041,18.626,6,0.1,0.00010706,1069.8,0.00010697,1067.2,-3.5054e-05,0.080517,-3.5785e-05,-5.4102,1.5422
30042,18.535,6,0.05,6.898e-06,68.932,5.2968e-06,39.798,9.0636e-13,4.3414e-06,-5.2968e-06,-39.798,1.5293
30043,18.808,6,0.1,0.00010517,1050.9,0.00010508,1048.3,-3.4441e-05,0.048739,-3.5144e-05,-5.2308,1.5682
30044,18.717,6,0.05,6.8611e-06,68.563,5.2684e-06,39.585,9.0943e-13,6.1359e-06,-5.2685e-06,-39.585,1.5552
30045,18.99,6,0.1,0.00010279,1027.2,0.0001027,1024.6,-3.3664e-05,0.023254,-3.4353e-05,-5.1483,1.5942
30046,18.899,6,0.05,6.8464e-06,68.417,5.2572e-06,39.501,9.0804e-13,4.1305e-06,-5.2572e-06,-39.501,1.5812
30047,19.172,6,0.1,0.00010004,999.7,9.995e-05,997.11,-3.2757e-05,0.004107,-3.3443e-05,-5.1509,1.6203
30048,19.081,6,0.05,6.8498e-06,68.451,5.2598e-06,39.52,1.8173e-12,6.4301e-06,-5.2598e-06,-39.52,1.6072
30049,19.355,6,0.1,9.6984e-05,969.17,9.6894e-05,966.55,-3.1746e-05,-0.0090466,-3.2441e-05,-5.2273,1.6465
30050,19.264,6,0.05,6.8664e-06,68.616,5.2725e-06,39.616,9.0867e-13,3.9304e-06,-5.2725e-06,-39.616,1.6334
30051,19.537,6,0.1,9.3695e-05,936.3,9.3602e-05,933.6,-3.0654e-05,-0.016751,-3.1367e-05,-5.3675,1.6727
30052,19.446,6,0.05,6.8913e-06,68.865,5.2917e-06,39.76,1.819e-12,1.3769e-05,-5.2917e-06,-39.76,1.6596
30053,19.719,6,0.1,9.0222e-05,901.6,9.0126e-05,898.8,-2.9499e-05,-0.01963,-3.0237e-05,-5.5623,1.699
30054,19.628,6,0.05,6.92e-06,69.153,5.3137e-06,39.925,1.8189e-12,6.8242e-06,-5.3137e-06,-39.925,1.6858
30055,19.901,6,0.1,8.661e-05,865.5,8.6509e-05,862.58,-2.8295e-05,-0.018301,-2.9065e-05,-5.8033,1.7254
30056,19.81,6,0.05,6.9484e-06,69.436,5.3355e-06,40.089,9.0935e-13,-2.8616e-06,-5.3355e-06,-40.089,1.7122
30057,20.083,6,0.1,8.2891e-05,828.33,8.2785e-05,825.27,-2.7053e-05,-0.013347,-2.7861e-05,-6.0831,1.7518
30058,19.992,6,0.05,6.9725e-06,69.677,5.3541e-06,40.228,1.3641e-12,5.6326e-06,-5.3541e-06,-40.228,1.7385
30059,20.266,6,0.1,7.9092e-05,790.37,7.8981e-05,787.15,-2.5783e-05,-0.0052958,-2.6634e-05,-6.395,1.7782
30060,20.174,6,0.05,6.9893e-06,69.845,5.3669e-06,40.325,1.819e-12,5.1561e-06,-5.3669e-06,-40.325,1.765
30061,20.448,6,0.1,7.5234e-05,751.82,7.5117e-05,748.43,-2.4492e-05,0.0054171,-2.5389e-05,-6.733,1.8047
30062,20.357,6,0.05,6.9958e-06,69.909,5.3719e-06,40.362,1.364e-12,6.4358e-06,-5.3719e-06,-40.362,1.7915
30063,20.63,6,0.1,7.1334e-05,712.85,7.1211e-05,709.29,-2.3187e-05,0.018425,-2.4133e-05,-7.0914,1.8313
30064,20.539,6,0.05,6.9894e-06,69.846,5.367e-06,40.326,1.8187e-12,7.0902e-06,-5.367e-06,-40.326,1.818
30065,20.812,6,0.1,6.7406e-05,673.59,6.7276e-05,669.85,-2.187e-05,0.033433,-2.2868e-05,-7.4652,1.8579
30066,20.721,6,0.05,6.9681e-06,69.632,5.3506e-06,40.202,1.8184e-12,5.717e-06,-5.3506e-06,-40.202,1.8446
30067,20.994,6,0.1,6.3459e-05,634.16,6.3323e-05,630.22,-2.0547e-05,0.050223,-2.1599e-05,-7.8498,1.8846
30068,20.903,6,0.05,6.9298e-06,69.25,5.3212e-06,39.981,9.0768e-13,6.4855e-06,-5.3212e-06,-39.981,1.8712
30069,21.176,6,0.1,5.9503e-05,594.62,5.9359e-05,590.49,-1.922e-05,0.068643,-2.0326e-05,-8.2407,1.9113
30070,21.085,6,0.05,6.8728e-06,68.68,5.2774e-06,39.653,9.1011e-13,6.8001e-06,-5.2774e-06,-39.653,1.8979
30071,21.359,6,0.1,5.5542e-05,555.04,5.5391e-05,550.71,-1.7892e-05,0.088613,-1.9053e-05,-8.6339,1.938
30072,21.267,6,0.05,6.7954e-06,67.907,5.2181e-06,39.206,8.2506e-16,5.3939e-06,-5.2181e-06,-39.206,1.9246
30073,21.541,6,0.1,5.1583e-05,515.47,5.1425e-05,510.95,-1.6564e-05,0.11012,-1.778e-05,-9.0252,1.9648
30074,21.45,6,0.05,6.6962e-06,66.916,5.1418e-06,38.634,9.1052e-13,7.4592e-06,-5.1418e-06,-38.634,1.9514
30075,21.723,6,0.1,4.7629e-05,475.96,4.7464e-05,471.25,-1.5238e-05,0.13321,-1.6508e-05,-9.4106,1.9916
30076,21.632,6,0.05,6.5734e-06,65.688,5.0475e-06,37.925,9.1071e-13,8.1874e-06,-5.0475e-06,-37.925,1.9781
30077,21.905,6,0.1,4.3683e-05,436.53,4.3511e-05,431.63,-1.3915e-05,0.15803,-1.5238e-05,-9.7859,2.0184
30078,21.814,6,0.05,6.4254e-06,64.209,4.9339e-06,37.071,9.1095e-13,5.4669e-06,-4.9339e-06,-37.071,2.005
30079,22.087,6,0.1,3.9749e-05,397.22,3.957e-05,392.14,-1.2596e-05,0.18479,-1.3971e-05,-10.147,2.0453
30080,21.996,6,0.05,6.2503e-06,62.46,4.7994e-06,36.061,6.7817e-13,7.1491e-06,-4.7994e-06,-36.061,2.0318
30081,22.269,6,0.1,3.583e-05,358.05,3.5643e-05,352.79,-1.1282e-05,0.21381,-1.2707e-05,-10.488,2.0721
30082,22.178,6,0.05,6.046e-06,60.418,4.6426e-06,34.882,4.5461e-13,6.3577e-06,-4.6426e-06,-34.882,2.0587
30083,22.452,6,0.1,3.1927e-05,319.05,3.1733e-05,313.63,-9.9756e-06,0.24558,-1.1446e-05,-10.803,2.099
30084,22.36,6,0.05,5.8099e-06,58.059,4.4613e-06,33.52,4.4903e-13,7.7012e-06,-4.4613e-06,-33.52,2.0856
30085,22.634,6,0.1,2.8045e-05,280.26,2.7844e-05,274.68,-8.6767e-06,0.28079,-1.0189e-05,-11.085,2.126
30086,22.543,6,0.05,5.539e-06,55.352,4.2533e-06,31.957,4.5465e-13,6.1694e-06,-4.2533e-06,-31.957,2.1125
30087,22.816,6,0.1,2.4188e-05,241.71,2.398e-05,236,-7.3873e-06,0.32034,-8.9371e-06,-11.324,2.1529
30088,22.725,6,0.05,5.2293e-06,52.256,4.0154e-06,30.17,6.8606e-13,9.365e-06,-4.0154e-06,-30.17,2.1394
30089,22.998,6,0.1,2.0361e-05,203.47,2.0145e-05,197.64,-6.1099e-06,0.36607,-7.6899e-06,-11.506,2.1799
30090,22.907,6,0.05,4.8754e-06,48.721,3.7437e-06,28.129,3.3109e-13,5.8587e-06,-3.7437e-06,-28.129,2.1664
30091,23.18,6,0.1,1.6572e-05,165.61,1.6349e-05,159.69,-4.848e-06,0.41867,-6.4489e-06,-11.61,2.2069
30092,23.089,6,0.05,4.4704e-06,44.673,3.4327e-06,25.792,4.5541e-13,9.3406e-06,-3.4327e-06,-25.792,2.1934
30093,23.362,6,0.1,1.2836e-05,128.27,1.2605e-05,122.3,-3.6069e-06,0.48953,-5.2144e-06,-11.589,2.2338
30094,23.271,6,0.05,4.0033e-06,40.005,3.074e-06,23.097,3.7359e-13,8.1898e-06,-3.074e-06,-23.097,2.2203
30095,23.545,6,0.1,9.1818e-06,91.755,8.9384e-06,85.742,-2.3977e-06,0.56669,-3.9925e-06,-11.416,2.2608
30096,23.453,6,0.05,3.4575e-06,34.551,2.6549e-06,19.948,3.5833e-13,6.5785e-06,-2.6549e-06,-19.948,2.2473
30097,23.727,6,0.1,5.6388e-06,56.349,5.3883e-06,50.642,-1.2472e-06,0.78527,-2.7483e-06,-10.493,2.2878
30098,23.636,6,0.05,2.8003e-06,27.984,2.1503e-06,16.156,2.5248e-13,5.3496e-06,-2.1503e-06,-16.156,2.2743
30099,23.909,6,0.1,2.356e-06,23.544,2.1259e-06,18.909,-3.1577e-07,0.56346,-1.4075e-06,-7.6392,2.3148
30100,23.818,6,0.05,1.9318e-06,19.305,1.4834e-06,11.145,5.1948e-13,9.9622e-06,-1.4834e-06,-11.145,2.3013
30101,24,5.9091,0.1,2.1563e-06,21.549,1.2891e-06,5.963,1.7009e-07,-2.4447,-1.9697e-06,-18.522,2.3284
30102,24,6,0.05,7.9024e-07,7.897,6.0681e-07,4.5593,2.7842e-12,2.9448e-05,-6.0681e-07,-4.5593,2.3283
30103,24,5.7273,0.1,4.8221e-06,48.188,2.2491e-06,6.7827,1.0447e-06,-2.2667,-4.6811e-06,-45.288,2.3285
30104,24,5.8182,0.05,7.107e-07,7.1021,5.4573e-07,4.1004,1.0282e-12,1.0528e-05,-5.4573e-07,-4.1004,2.3284
30105,24,5.5455,0.1,6.9275e-06,69.227,2.9681e-06,6.9562,1.7297e-06,-2.3487,-6.802e-06,-66.453,2.3286
30106,24,5.6364,0.05,7.7453e-07,7.74,5.9474e-07,4.4687,9.4507e-13,1.1546e-05,-5.9474e-07,-4.4687,2.3286
30107,24,5.3636,0.1,8.5618e-06,85.559,3.5188e-06,7.001,2.2609e-06,-2.4502,-8.4452e-06,-82.891,2.3288
30108,24,5.4545,0.05,8.342e-07,8.3363,6.4057e-07,4.813,9.7214e-13,1.1774e-05,-6.4057e-07,-4.813,2.3287
30109,24,5.1818,0.1,9.9062e-06,98.994,3.9649e-06,6.9935,2.7044e-06,-2.4772,-9.7954e-06,-96.396,2.3289
30110,24,5.2727,0.05,8.6246e-07,8.6186,6.6226e-07,4.976,9.4613e-13,1.1917e-05,-6.6226e-07,-4.976,2.3288
30111,24,5,0.1,1.1034e-05,110.26,4.3363e-06,6.9595,3.0774e-06,-2.4993,-1.0927e-05,-107.72,2.329
30112,24,5.0909,0.05,8.7258e-07,8.7197,6.7003e-07,5.0343,7.1173e-13,9.3883e-06,-6.7003e-07,-5.0343,2.3289
30113,24,4.8182,0.1,1.1988e-05,119.79,4.6493e-06,6.9185,3.3941e-06,-2.5126,-1.1885e-05,-117.31,2.3291
30114,24,4.9091,0.05,8.7106e-07,8.7046,6.6887e-07,5.0256,8.2527e-13,1.0544e-05,-6.6887e-07,-5.0256,2.329
30115,24,4.6364,0.1,1.2797e-05,127.88,4.914e-06,6.8759,3.6632e-06,-2.5221,-1.2697e-05,-125.45,2.3292
30116,24,4.7273,0.05,8.6228e-07,8.6169,6.6213e-07,4.975,9.1989e-13,1.1248e-05,-6.6213e-07,-4.975,2.3291
30117,24,4.4545,0.1,1.3483e-05,134.74,5.1377e-06,6.8353,3.8914e-06,-2.5286,-1.3385e-05,-132.34,2.3293
30118,24,4.5455,0.05,8.4925e-07,8.4867,6.5212e-07,4.8998,9.4217e-13,1.4272e-05,-6.5212e-07,-4.8998,2.3292
30119,24,4.2727,0.1,1.406e-05,140.5,5.3256e-06,6.7985,4.0836e-06,-2.5331,-1.3964e-05,-138.14,2.3293
30120,24,4.3636,0.05,8.3412e-07,8.3354,6.405e-07,4.8125,9.5275e-13,1.1676e-05,-6.405e-07,-4.8125,2.3293
30121,24,4.0909,0.1,1.454e-05,145.3,5.4818e-06,6.7663,4.2437e-06,-2.5363,-1.4446e-05,-142.96,2.3294
30122,24,4.1818,0.05,8.1844e-07,8.1788,6.2846e-07,4.722,7.4556e-13,8.3123e-06,-6.2846e-07,-4.722,2.3293
30123,24,3.9091,0.1,1.4933e-05,149.22,5.6095e-06,6.7389,4.3747e-06,-2.5384,-1.484e-05,-146.91,2.3294
30124,24,4,0.05,8.0338e-07,8.0282,6.169e-07,4.6351,8.9818e-13,7.8522e-06,-6.169e-07,-4.6351,2.3294
30125,24,3.7273,0.1,1.5245e-05,152.34,5.7109e-06,6.7165,4.4789e-06,-2.5399,-1.5153e-05,-150.04,2.3295
30126,24,3.8182,0.05,7.8977e-07,7.8923,6.0645e-07,4.5566,7.566e-13,1.1768e-05,-6.0645e-07,-4.5566,2.3295
30127,24,3.5455,0.1,1.5482e-05,154.72,5.788e-06,6.6992,4.5582e-06,-2.5408,-1.5391e-05,-152.43,2.3295
30128,24,3.6364,0.05,7.7825e-07,7.7771,5.976e-07,4.4901,9.8588e-13,4.6763e-06,-5.976e-07,-4.4901,2.3295
30129,24,3.3636,0.1,1.5649e-05,156.38,5.8421e-06,6.687,4.6139e-06,-2.5414,-1.5558e-05,-154.11,2.3296
30130,24,3.4545,0.05,7.6926e-07,7.6873,5.9069e-07,4.4382,5.1794e-13,8.014e-06,-5.9069e-07,-4.4382,2.3295
30131,24,3.1818,0.1,1.5748e-05,157.37,5.8742e-06,6.6796,4.6469e-06,-2.5417,-1.5657e-05,-155.1,2.3296
30132,24,3.2727,0.05,7.631e-07,7.6258,5.8597e-07,4.4027,5.0049e-13,7.953e-06,-5.8597e-07,-4.4027,2.3296
30133,24,3,0.1,1.5781e-05,157.7,5.8848e-06,6.6772,4.6578e-06,-2.5418,-1.569e-05,-155.43,2.3296
30134,24,3.0909,0.05,7.5998e-07,7.5945,5.8357e-07,4.3847,4.6974e-13,7.739e-06,-5.8357e-07,-4.3847,2.3296
30135,24,2.8182,0.1,1.5748e-05,157.37,5.8742e-06,6.6796,4.6469e-06,-2.5417,-1.5657e-05,-155.1,2.3296
30136,24,2.9091,0.05,7.5998e-07,7.5945,5.8357e-07,4.3847,-1.3211e-14,3.7134e-06,-5.8357e-07,-4.3847,2.3296
30137,24,2.6364,0.1,1.5649e-05,156.38,5.8421e-06,6.687,4.6139e-06,-2.5414,-1.5558e-05,-154.11,2.3296
30138,24,2.7273,0.05,7.631e-07,7.6258,5.8597e-07,4.4027,-3.3433e-14,-2.4493e-07,-5.8597e-07,-4.4027,2.3296
30139,24,2.4545,0.1,1.5482e-05,154.72,5.788e-06,6.6992,4.5582e-06,-2.5408,-1.5391e-05,-152.43,2.3295
30140,24,2.5455,0.05,7.6926e-07,7.6873,5.9069e-07,4.4382,-3.9642e-14,-2.5814e-07,-5.9069e-07,-4.4382,2.3295
30141,24,2.2727,0.1,1.5245e-05,152.34,5.7109e-06,6.7165,4.4789e-06,-2.5399,-1.5153e-05,-150.04,2.3295
30142,24,2.3636,0.05,7.7825e-07,7.7771,5.976e-07,4.4901,3.6414e-13,3.2182e-06,-5.976e-07,-4.4901,2.3295
30143,24,2.0909,0.1,1.4933e-05,149.22,5.6095e-06,6.7389,4.3747e-06,-2.5384,-1.484e-05,-146.91,2.3294
30144,24,2.1818,0.05,7.8977e-07,7.8923,6.0645e-07,4.5566,-7.8225e-14,3.0332e-06,-6.0645e-07,-4.5566,2.3295
30145,24,1.9091,0.1,1.454e-05,145.3,5.4818e-06,6.7663,4.2437e-06,-2.5363,-1.4446e-05,-142.96,2.3294
30146,24,2,0.05,8.0338e-07,8.0282,6.169e-07,4.6351,-3.1692e-13,-6.6257e-07,-6.169e-07,-4.6351,2.3294
30147,24,1.7273,0.1,1.406e-05,140.5,5.3256e-06,6.7985,4.0836e-06,-2.5331,-1.3964e-05,-138.14,2.3293
30148,24,1.8182,0.05,8.1844e-07,8.1788,6.2846e-07,4.722,-2.552e-13,-1.5139e-07,-6.2846e-07,-4.722,2.3293
30149,24,1.5455,0.1,1.3483e-05,134.74,5.1377e-06,6.8353,3.8914e-06,-2.5286,-1.3385e-05,-132.34,2.3293
30150,24,1.6364,0.05,8.3412e-07,8.3354,6.405e-07,4.8125,1.2879e-13,-2.5406e-08,-6.405e-07,-4.8125,2.3293
30151,24,1.3636,0.1,1.2797e-05,127.88,4.914e-06,6.8759,3.6632e-06,-2.5221,-1.2697e-05,-125.45,2.3292
30152,24,1.4545,0.05,8.4925e-07,8.4867,6.5212e-07,4.8998,-9.0492e-14,2.6777e-06,-6.5212e-07,-4.8998,2.3292
30153,24,1.1818,0.1,1.1988e-05,119.79,4.6493e-06,6.9185,3.3941e-06,-2.5126,-1.1885e-05,-117.31,2.3291
30154,24,1.2727,0.05,8.6228e-07,8.6169,6.6213e-07,4.975,-5.0815e-14,2.8572e-06,-6.6213e-07,-4.975,2.3291
30155,24,1,0.1,1.1033e-05,110.26,4.3363e-06,6.9595,3.0774e-06,-2.4993,-1.0927e-05,-107.72,2.329
30156,24,1.0909,0.05,8.7106e-07,8.7046,6.6887e-07,5.0256,-7.0976e-14,2.9335e-06,-6.6887e-07,-5.0256,2.329
30157,24,0.81818,0.1,9.9062e-06,98.994,3.9649e-06,6.9935,2.7044e-06,-2.4772,-9.7953e-06,-96.396,2.3289
30158,24,0.90909,0.05,8.7258e-07,8.7197,6.7003e-07,5.0343,2.2637e-13,4.2424e-06,-6.7003e-07,-5.0343,2.3289
30159,24,0.63636,0.1,8.5618e-06,85.559,3.5188e-06,7.001,2.2609e-06,-2.4502,-8.4452e-06,-82.891,2.3288
30160,24,0.72727,0.05,8.6246e-07,8.6187,6.6226e-07,4.976,2.3585e-13,5.9239e-06,-6.6226e-07,-4.976,2.3288
30161,24,0.45455,0.1,6.9275e-06,69.227,2.9681e-06,6.9562,1.7297e-06,-2.3487,-6.802e-06,-66.453,2.3286
30162,24,0.54545,0.05,8.3421e-07,8.3363,6.4057e-07,4.813,6.5974e-13,9.7109e-06,-6.4057e-07,-4.813,2.3287
30163,24,0.27273,0.1,4.8221e-06,48.188,2.2491e-06,6.7827,1.0447e-06,-2.2667,-4.6811e-06,-45.288,2.3285
30164,24,0.36364,0.05,7.7453e-07,7.74,5.9474e-07,4.4687,6.7302e-13,8.7681e-06,-5.9474e-07,-4.4687,2.3286
30165,24,0.090909,0.1,2.1563e-06,21.549,1.2891e-06,5.963,1.7009e-07,-2.4447,-1.9697e-06,-18.522,2.3284
30166,24,0.18182,0.05,7.107e-07,7.1021,5.4573e-07,4.1004,4.0147e-13,2.4116e-06,-5.4573e-07,-4.1004,2.3284
30167,2.3842e-15,0.27273,0.1,0.00018317,1830.4,0.00024128,3542.3,4.5353e-06,1763.5,-8.6678e-06,1664.3,0
30168,7.9472e-16,0.090909,0.1,0.00013962,1395.2,0.00013604,1436.2,-4.898e-06,377.2,-7.4371e-05,-144.79,0
30169,1.6109e-15,0.18182,0.05,1.6567e-05,165.55,1.2721e-05,95.582,2.6966e-12,6.1692e-05,-1.2721e-05,-95.582,0
30170,3.9736e-15,0.45455,0.1,0.00026237,2621.9,0.00034876,5161.9,3.3286e-06,2566.4,-3.5979e-06,2514.4,0
30171,3.2219e-15,0.36364,0.05,8.6116e-06,86.057,6.6126e-06,49.685,2.2136e-13,8.8296e-05,-6.6126e-06,-49.685,0
30172,5.563e-15,0.63636,0.1,0.00030487,3046.6,0.00040569,6010.1,2.3345e-06,2979.5,-1.8727e-06,2947.9,0
30173,4.8328e-15,0.54545,0.05,7.786e-06,77.807,5.9787e-06,44.922,-5.7358e-21,5.0497e-05,-5.9787e-06,-44.922,0
30174,7.1525e-15,0.81818,0.1,0.00033231,3320.8,0.00044212,6548.4,1.4966e-06,3237.8,-1.1797e-06,3217.7,0
30175,6.4438e-15,0.72727,0.05,6.848e-06,68.433,5.2584e-06,39.51,4.8936e-13,9.272e-06,-5.2584e-06,-39.51,0
30176,8.7419e-15,1,0.1,0.00035113,3508.9,0.00046711,6917.7,1.032e-06,3415.8,-8.1421e-07,3401.9,0
30177,8.0547e-15,0.90909,0.05,5.827e-06,58.23,4.4744e-06,33.619,-2.5607e-13,6.2589e-05,-4.4744e-06,-33.619,0
30178,1.0331e-14,1.1818,0.1,0.00036477,3645.2,0.00048522,7185.4,7.4758e-07,3545.3,-5.9168e-07,3535.2,0
30179,9.6657e-15,1.0909,0.05,4.9481e-06,49.447,3.7995e-06,28.548,-2.6462e-14,-2.199e-06,-3.7995e-06,-28.548,0
30180,1.1921e-14,1.3636,0.1,0.00037497,3747.1,0.00049876,7385.6,5.5752e-07,3642.3,-4.4333e-07,3634.8,0
30181,1.1277e-14,1.2727,0.05,4.2352e-06,42.323,3.2521e-06,24.435,-3.0485e-13,-2.2376e-06,-3.2521e-06,-24.435,0
30182,1.351e-14,1.5455,0.1,0.00038275,3824.9,0.0005091,7538.5,4.2462e-07,3716.5,-3.3802e-07,3710.8,0
30183,1.2888e-14,1.4545,0.05,3.6562e-06,36.536,2.8075e-06,21.094,-3.0288e-13,-2.2584e-06,-2.8075e-06,-21.094,0
30184,1.51e-14,1.7273,0.1,0.00038876,3884.9,0.00051709,7656.6,3.274e-07,3773.9,-2.5971e-07,3769.5,0
30185,1.4498e-14,1.6364,0.05,3.1872e-06,31.85,2.4474e-06,18.388,-2.7553e-13,-2.0927e-06,-2.4474e-06,-18.388,0
30186,1.6689e-14,1.9091,0.1,0.00039342,3931.5,0.00052328,7748.2,2.5364e-07,3818.4,-1.9917e-07,3815,0
30187,1.6109e-14,1.8182,0.05,2.809e-06,28.07,2.1569e-06,16.206,-2.4875e-13,-1.8671e-06,-2.1569e-06,-16.206,0
30188,1.8279e-14,2.0909,0.1,0.00039702,3967.4,0.00052805,7818.8,1.958e-07,3852.7,-1.5072e-07,3850.1,0
30189,1.772e-14,2,0.05,2.5066e-06,25.048,1.9247e-06,14.462,-2.2066e-13,-1.6493e-06,-1.9247e-06,-14.462,0
30190,1.9868e-14,2.2727,0.1,0.00039974,3994.7,0.00053168,7872.4,1.4904e-07,3878.7,-1.106e-07,3876.8,0
30191,1.9331e-14,2.1818,0.05,2.2687e-06,22.671,1.7421e-06,13.089,-1.8031e-13,-6.197e-05,-1.7421e-06,-13.089,0
30192,2.1457e-14,2.4545,0.1,0.00040174,4014.7,0.00053434,7911.8,1.1008e-07,3897.8,-7.6262e-08,3896.4,0
30193,2.0942e-14,2.3636,0.05,2.0871e-06,20.857,1.6026e-06,12.041,-1.3808e-13,-1.0472e-06,-1.6026e-06,-12.042,0
30194,2.3047e-14,2.6364,0.1,0.00040311,4028.3,0.00053616,7938.7,7.6767e-08,3910.8,-4.5994e-08,3909.9,0
30195,2.2553e-14,2.5455,0.05,1.9556e-06,19.543,1.5017e-06,11.283,-1.3039e-13,-7.2393e-07,-1.5017e-06,-11.283,0
30196,2.4636e-14,2.8182,0.1,0.00040391,4036.3,0.00053721,7954.3,4.8357e-08,3918.3,-1.9312e-08,3917.8,0
30197,2.4164e-14,2.7273,0.05,1.8702e-06,18.689,1.4361e-06,10.79,-5.3992e-14,-6.1495e-05,-1.4361e-06,-10.79,0
30198,2.6226e-14,3,0.1,0.00040417,4038.9,0.00053756,7959.5,3.215e-08,3920.7,-3.6653e-09,3920.4,0
30199,2.5775e-14,2.9091,0.05,1.8281e-06,18.268,1.4038e-06,10.547,-1.7686e-14,-6.1163e-05,-1.4038e-06,-10.547,0
30200,2.7815e-14,3.1818,0.1,0.00040391,4036.3,0.00053721,7954.3,4.8357e-08,3918.3,-1.9312e-08,3917.8,0
30201,2.7386e-14,3.0909,0.05,1.8281e-06,18.268,1.4038e-06,10.547,1.2516e-14,-6.0936e-05,-1.4038e-06,-10.547,0
30202,2.9405e-14,3.3636,0.1,0.00040311,4028.3,0.00053616,7938.7,7.6767e-08,3910.8,-4.5994e-08,3909.9,0
30203,2.8997e-14,3.2727,0.05,1.8702e-06,18.689,1.4361e-06,10.79,3.3574e-14,-0.00012182,-1.4361e-06,-10.79,0
30204,3.0994e-14,3.5455,0.1,0.00040174,4014.7,0.00053434,7911.8,1.1008e-07,3897.8,-7.6263e-08,3896.4,0
30205,3.0608e-14,3.4545,0.05,1.9556e-06,19.543,1.5017e-06,11.283,4.9252e-15,9.4626e-09,-1.5017e-06,-11.283,0
30206,3.2583e-14,3.7273,0.1,0.00039974,3994.7,0.00053168,7872.4,1.4904e-07,3878.7,-1.106e-07,3876.8,0
30207,3.2219e-14,3.6364,0.05,2.0871e-06,20.857,1.6026e-06,12.041,2.9318e-14,-0.00012185,-1.6026e-06,-12.042,0
30208,3.4173e-14,3.9091,0.1,0.00039702,3967.4,0.00052805,7818.8,1.958e-07,3852.7,-1.5072e-07,3850.1,0
30209,3.383e-14,3.8182,0.05,2.2687e-06,22.671,1.7421e-06,13.089,-1.7157e-21,-6.0607e-05,-1.7421e-06,-13.089,0
30210,3.5762e-14,4.0909,0.1,0.00039342,3931.5,0.00052328,7748.2,2.5364e-07,3818.4,-1.9917e-07,3815,0
30211,3.5441e-14,4,0.05,2.5066e-06,25.048,1.9247e-06,14.462,-3.3653e-13,-6.0757e-05,-1.9247e-06,-14.462,0
30212,3.7352e-14,4.2727,0.1,0.00038876,3884.9,0.00051709,7656.6,3.274e-07,3773.9,-2.5971e-07,3769.5,0
30213,3.7052e-14,4.1818,0.05,2.809e-06,28.07,2.1569e-06,16.206,-3.1018e-13,-0.00012292,-2.1569e-06,-16.206,0
30214,3.8941e-14,4.4545,0.1,0.00038275,3824.9,0.0005091,7538.5,4.2462e-07,3716.5,-3.3802e-07,3710.8,0
30215,3.8663e-14,4.3636,0.05,3.1872e-06,31.85,2.4474e-06,18.388,-4.6641e-13,-3.6939e-06,-2.4474e-06,-18.389,0
30216,4.0531e-14,4.6364,0.1,0.00037497,3747.1,0.00049876,7385.6,5.5752e-07,3642.3,-4.4333e-07,3634.8,0
30217,4.0274e-14,4.5455,0.05,3.6562e-06,36.536,2.8075e-06,21.094,-3.3654e-13,-6.5014e-05,-2.8075e-06,-21.094,0
30218,4.212e-14,4.8182,0.1,0.00036477,3645.2,0.00048522,7185.4,7.4758e-07,3545.3,-5.9168e-07,3535.2,0
30219,4.1885e-14,4.7273,0.05,4.2352e-06,42.323,3.2521e-06,24.435,-9.5441e-13,-7.0327e-05,-3.2521e-06,-24.436,0
30220,4.371e-14,5,0.1,0.00035113,3508.9,0.00046711,6917.7,1.032e-06,3415.8,-8.1421e-07,3401.9,0
30221,4.3495e-14,4.9091,0.05,4.9481e-06,49.447,3.7995e-06,28.548,-1.3888e-12,-0.00013271,-3.7995e-06,-28.548,0
30222,4.5299e-14,5.1818,0.1,0.00033231,3320.8,0.00044212,6548.4,1.4966e-06,3237.8,-1.1797e-06,3217.7,0
30223,4.5106e-14,5.0909,0.05,5.827e-06,58.23,4.4744e-06,33.619,-1.958e-12,-7.29e-05,-4.4744e-06,-33.619,0
30224,4.6888e-14,5.3636,0.1,0.00030487,3046.6,0.00040569,6010.1,2.3345e-06,2979.5,-1.8727e-06,2947.9,0
30225,4.6717e-14,5.2727,0.05,6.848e-06,68.433,5.2584e-06,39.509,-3.0041e-12,-0.00013641,-5.2584e-06,-39.51,0
30226,4.8478e-14,5.5455,0.1,0.00026237,2621.9,0.00034876,5161.9,3.3286e-06,2566.4,-3.5979e-06,2514.4,0
30227,4.8328e-14,5.4545,0.05,7.786e-06,77.807,5.9787e-06,44.921,-5.6922e-12,-0.00011716,-5.9787e-06,-44.922,0
30228,5.0067e-14,5.7273,0.1,0.00018317,1830.4,0.00024128,3542.3,4.5353e-06,1763.5,-8.6678e-06,1664.3,0
30229,4.9939e-14,5.6364,0.05,8.6116e-06,86.057,6.6126e-06,49.685,-1.0927e-11,-0.00017253,-6.6126e-06,-49.685,0
30230,5.1657e-14,5.9091,0.1,0.00013962,1395.2,0.00013604,1436.2,-4.898e-06,377.2,-7.4371e-05,-144.79,0
30231,5.155e-14,5.8182,0.05,1.6567e-05,165.55,1.2721e-05,95.582,1.6118e-13,-0.00013821,-1.2721e-05,-95.583,0
30232,23.909,0,0.1,2.356e-06,23.544,2.1259e-06,18.909,-3.1577e-07,0.56346,-1.4075e-06,-7.6392,2.3148
30233,24,0,0.05,7.9024e-07,7.897,6.0681e-07,4.5593,2.3531e-12,2.0878e-05,-6.0681e-07,-4.5593,2.3283
30234,23.727,0,0.1,5.6388e-06,56.349,5.3883e-06,50.642,-1.2472e-06,0.78527,-2.7483e-06,-10.493,2.2878
30235,23.818,0,0.05,1.9318e-06,19.305,1.4834e-06,11.145,3.6985e-13,4.3497e-06,-1.4834e-06,-11.145,2.3013
30236,23.545,0,0.1,9.1818e-06,91.755,8.9384e-06,85.742,-2.3977e-06,0.56669,-3.9925e-06,-11.416,2.2608
30237,23.636,0,0.05,2.8003e-06,27.984,2.1503e-06,16.156,6.3953e-13,8.5667e-06,-2.1503e-06,-16.156,2.2743
30238,23.362,0,0.1,1.2836e-05,128.27,1.2605e-05,122.3,-3.6069e-06,0.48952,-5.2144e-06,-11.589,2.2338
30239,23.453,0,0.05,3.4575e-06,34.551,2.6549e-06,19.948,6.0505e-13,7.6073e-06,-2.6549e-06,-19.948,2.2473
30240,23.18,0,0.1,1.6572e-05,165.61,1.6349e-05,159.69,-4.848e-06,0.41867,-6.4489e-06,-11.61,2.2069
30241,23.271,0,0.05,4.0033e-06,40.005,3.074e-06,23.097,4.787e-13,6.5183e-06,-3.074e-06,-23.097,2.2203
30242,22.998,0,0.1,2.0361e-05,203.47,2.0145e-05,197.64,-6.1099e-06,0.36607,-7.6899e-06,-11.506,2.1799
30243,23.089,0,0.05,4.4704e-06,44.673,3.4327e-06,25.792,3.476e-13,8.4469e-06,-3.4327e-06,-25.792,2.1934
30244,22.816,0,0.1,2.4188e-05,241.71,2.398e-05,236,-7.3873e-06,0.32034,-8.9371e-06,-11.324,2.1529
30245,22.907,0,0.05,4.8754e-06,48.721,3.7437e-06,28.129,4.4984e-13,7.661e-06,-3.7437e-06,-28.129,2.1664
30246,22.634,0,0.1,2.8045e-05,280.26,2.7844e-05,274.68,-8.6767e-06,0.28079,-1.0189e-05,-11.085,2.126
30247,22.725,0,0.05,5.2293e-06,52.256,4.0154e-06,30.17,2.1957e-13,6.6982e-06,-4.0154e-06,-30.17,2.1394
30248,22.452,0,0.1,3.1927e-05,319.05,3.1733e-05,313.63,-9.9756e-06,0.24558,-1.1446e-05,-10.803,2.099
30249,22.543,0,0.05,5.539e-06,55.352,4.2533e-06,31.957,2.2752e-13,6.1412e-06,-4.2533e-06,-31.957,2.1125
30250,22.269,0,0.1,3.583e-05,358.05,3.5643e-05,352.79,-1.1282e-05,0.21381,-1.2707e-05,-10.488,2.0721
30251,22.36,0,0.05,5.8099e-06,58.059,4.4613e-06,33.52,3.0282e-15,8.5487e-06,-4.4613e-06,-33.52,2.0856
30252,22.087,0,0.1,3.9749e-05,397.22,3.957e-05,392.14,-1.2596e-05,0.18479,-1.3971e-05,-10.147,2.0453
30253,22.178,0,0.05,6.046e-06,60.418,4.6426e-06,34.882,2.2523e-13,8.2769e-06,-4.6426e-06,-34.882,2.0587
30254,21.905,0,0.1,4.3683e-05,436.53,4.3511e-05,431.63,-1.3915e-05,0.15803,-1.5238e-05,-9.7859,2.0184
30255,21.996,0,0.05,6.2503e-06,62.46,4.7994e-06,36.061,2.255e-13,4.6929e-06,-4.7994e-06,-36.061,2.0318
30256,21.723,0,0.1,4.7629e-05,475.96,4.7464e-05,471.25,-1.5238e-05,0.13321,-1.6508e-05,-9.4106,1.9916
30257,21.814,0,0.05,6.4254e-06,64.209,4.9339e-06,37.071,2.29e-13,8.1199e-06,-4.9339e-06,-37.071,2.005
30258,21.541,0,0.1,5.1583e-05,515.47,5.1425e-05,510.95,-1.6564e-05,0.11012,-1.778e-05,-9.0252,1.9648
30259,21.632,0,0.05,6.5734e-06,65.688,5.0475e-06,37.925,9.0816e-13,5.2341e-06,-5.0475e-06,-37.925,1.9781
30260,21.359,0,0.1,5.5542e-05,555.04,5.5391e-05,550.71,-1.7892e-05,0.088611,-1.9053e-05,-8.6339,1.938
30261,21.45,0,0.05,6.6962e-06,66.916,5.1418e-06,38.634,9.0629e-13,6.7684e-06,-5.1418e-06,-38.634,1.9514
30262,21.176,0,0.1,5.9503e-05,594.62,5.9359e-05,590.49,-1.922e-05,0.068642,-2.0326e-05,-8.2407,1.9113
30263,21.267,0,0.05,6.7954e-06,67.907,5.2181e-06,39.206,9.0782e-13,6.9231e-06,-5.2181e-06,-39.206,1.9246
30264,20.994,0,0.1,6.3459e-05,634.16,6.3323e-05,630.22,-2.0547e-05,0.050224,-2.1599e-05,-7.8498,1.8846
30265,21.085,0,0.05,6.8728e-06,68.68,5.2774e-06,39.653,9.0948e-13,5.9006e-06,-5.2774e-06,-39.653,1.8979
30266,20.812,0,0.1,6.7406e-05,673.59,6.7276e-05,669.85,-2.187e-05,0.033435,-2.2868e-05,-7.4652,1.8579
30267,20.903,0,0.05,6.9298e-06,69.25,5.3212e-06,39.981,4.5385e-13,7.6257e-06,-5.3212e-06,-39.981,1.8712
30268,20.63,0,0.1,7.1334e-05,712.85,7.1211e-05,709.29,-2.3187e-05,0.018426,-2.4133e-05,-7.0914,1.8313
30269,20.721,0,0.05,6.9681e-06,69.632,5.3506e-06,40.202,4.5475e-13,6.9712e-06,-5.3506e-06,-40.202,1.8446
30270,20.448,0,0.1,7.5234e-05,751.82,7.5117e-05,748.43,-2.4492e-05,0.0054192,-2.5389e-05,-6.733,1.8047
30271,20.539,0,0.05,6.9894e-06,69.846,5.367e-06,40.326,9.0916e-13,5.722e-06,-5.367e-06,-40.326,1.818
30272,20.266,0,0.1,7.9092e-05,790.37,7.8981e-05,787.15,-2.5783e-05,-0.0052919,-2.6634e-05,-6.395,1.7782
30273,20.357,0,0.05,6.9958e-06,69.909,5.3719e-06,40.362,1.1923e-16,6.4969e-06,-5.3719e-06,-40.362,1.7915
30274,20.083,0,0.1,8.2891e-05,828.33,8.2785e-05,825.27,-2.7053e-05,-0.013344,-2.7861e-05,-6.0831,1.7518
30275,20.174,0,0.05,6.9893e-06,69.845,5.3669e-06,40.325,4.5467e-13,7.5395e-06,-5.3669e-06,-40.325,1.765
30276,19.901,0,0.1,8.661e-05,865.5,8.6509e-05,862.58,-2.8295e-05,-0.018299,-2.9065e-05,-5.8032,1.7254
30277,19.992,0,0.05,6.9725e-06,69.677,5.3541e-06,40.228,-3.3191e-21,4.6194e-06,-5.3541e-06,-40.228,1.7385
30278,19.719,0,0.1,9.0223e-05,901.6,9.0126e-05,898.8,-2.9499e-05,-0.019629,-3.0237e-05,-5.5622,1.699
30279,19.81,0,0.05,6.9484e-06,69.436,5.3355e-06,40.089,1.7621e-19,5.9307e-06,-5.3355e-06,-40.089,1.7122
30280,19.537,0,0.1,9.3695e-05,936.3,9.3602e-05,933.6,-3.0654e-05,-0.016751,-3.1367e-05,-5.3675,1.6727
30281,19.628,0,0.05,6.92e-06,69.153,5.3137e-06,39.925,1.3713e-16,6.1101e-06,-5.3137e-06,-39.925,1.6858
30282,19.355,0,0.1,9.6984e-05,969.17,9.6894e-05,966.55,-3.1746e-05,-0.0090464,-3.2441e-05,-5.2274,1.6465
30283,19.446,0,0.05,6.8913e-06,68.865,5.2917e-06,39.76,-1.1109e-16,4.2613e-06,-5.2917e-06,-39.759,1.6596
30284,19.172,0,0.1,0.00010004,999.7,9.995e-05,997.11,-3.2757e-05,0.0041079,-3.3443e-05,-5.1509,1.6203
30285,19.264,0,0.05,6.8664e-06,68.616,5.2725e-06,39.616,4.1482e-16,4.3563e-06,-5.2725e-06,-39.616,1.6334
30286,18.99,0,0.1,0.00010279,1027.2,0.0001027,1024.6,-3.3664e-05,0.023255,-3.4353e-05,-5.1483,1.5942
30287,19.081,0,0.05,6.8498e-06,68.451,5.2598e-06,39.52,-9.0864e-13,6.6758e-06,-5.2598e-06,-39.52,1.6072
30288,18.808,0,0.1,0.00010517,1050.9,0.00010508,1048.3,-3.4441e-05,0.04874,-3.5144e-05,-5.2307,1.5682
30289,18.899,0,0.05,6.8464e-06,68.417,5.2572e-06,39.501,-2.8592e-15,5.4894e-06,-5.2572e-06,-39.501,1.5812
30290,18.626,0,0.1,0.00010706,1069.8,0.00010697,1067.2,-3.5054e-05,0.080518,-3.5785e-05,-5.4102,1.5422
30291,18.717,0,0.05,6.8611e-06,68.563,5.2685e-06,39.585,-9.0943e-13,4.5208e-06,-5.2685e-06,-39.585,1.5552
30292,18.444,0,0.1,0.00010835,1082.8,0.00010826,1080,-3.5464e-05,0.11787,-3.6238e-05,-5.699,1.5163
30293,18.535,0,0.05,6.898e-06,68.932,5.2968e-06,39.798,1.6023e-16,5.3357e-06,-5.2968e-06,-39.798,1.5293
30294,18.262,0,0.1,0.0001089,1088.3,0.0001088,1085.3,-3.5622e-05,0.15898,-3.6456e-05,-6.1095,1.4905
30295,18.353,0,0.05,6.9602e-06,69.554,5.3446e-06,40.157,-9.1312e-13,5.5606e-06,-5.3446e-06,-40.157,1.5034
30296,18.079,0,0.1,0.00010854,1084.7,0.00010843,1081.4,-3.5472e-05,0.20042,-3.6384e-05,-6.6515,1.4648
30297,18.171,0,0.05,7.0483e-06,70.434,5.4122e-06,40.665,-9.0399e-13,5.0476e-06,-5.4122e-06,-40.665,1.4776
30298,17.897,0,0.1,0.00010707,1070,0.00010695,1066.4,-3.4951e-05,0.23635,-3.5958e-05,-7.3299,1.4391
30299,17.988,0,0.05,7.1586e-06,71.537,5.4969e-06,41.302,-9.0286e-13,4.9961e-06,-5.4969e-06,-41.302,1.4519
30300,17.715,0,0.1,0.00010428,1042,0.00010414,1038.1,-3.3985e-05,0.25768,-3.5103e-05,-8.1388,1.4135
30301,17.806,0,0.05,7.2811e-06,72.761,5.591e-06,42.009,7.5868e-16,4.4098e-06,-5.591e-06,-42.009,1.4263
30302,17.533,0,0.1,9.9913e-05,998.44,9.976e-05,994,-3.2501e-05,0.25158,-3.3739e-05,-9.0529,1.3879
30303,17.624,0,0.05,7.3957e-06,73.906,5.679e-06,42.669,-9.0888e-13,4.655e-06,-5.679e-06,-42.669,1.4007
30304,17.351,0,0.1,9.3744e-05,936.79,9.3572e-05,931.84,-3.0421e-05,0.19957,-3.1781e-05,-10.015,1.3625
30305,17.442,0,0.05,7.4684e-06,74.632,5.7348e-06,43.089,-9.1497e-13,4.7201e-06,-5.7348e-06,-43.089,1.3752
30306,17.169,0,0.1,8.5546e-05,854.87,8.5356e-05,849.4,-2.7681e-05,0.085047,-2.9144e-05,-10.913,1.3371
30307,17.26,0,0.05,7.4467e-06,74.416,5.7181e-06,42.964,-9.1396e-13,4.2136e-06,-5.7181e-06,-42.964,1.3497
30308,16.986,0,0.1,7.5145e-05,750.93,7.4939e-05,745.02,-2.4234e-05,-0.1293,-2.5755e-05,-11.562,1.3117
30309,17.078,0,0.05,7.2542e-06,72.492,5.5703e-06,41.853,-4.5615e-13,3.4573e-06,-5.5703e-06,-41.853,1.3244
30310,16.804,0,0.1,6.2433e-05,623.9,6.2221e-05,617.82,-2.0057e-05,-0.38691,-2.1553e-05,-11.63,1.2864
30311,16.895,0,0.05,6.7872e-06,67.825,5.2117e-06,39.159,5.3802e-15,5.725e-06,-5.2117e-06,-39.159,1.299
30312,16.622,0,0.1,4.7387e-05,473.54,4.7181e-05,467.64,-1.5187e-05,-0.97528,-1.648e-05,-10.69,1.2611
30313,16.713,0,0.05,5.8969e-06,58.928,4.5281e-06,34.022,9.0949e-13,4.4282e-06,-4.5281e-06,-34.022,1.2737
30314,16.44,0,0.1,2.9785e-05,297.64,2.9626e-05,293.14,-9.4348e-06,-0.34928,-1.0518e-05,-8.4919,1.2359
30315,16.531,0,0.05,4.4246e-06,44.215,3.3975e-06,25.528,4.0124e-13,4.5961e-06,-3.3975e-06,-25.528,1.2485
30316,16.258,0,0.1,1.0464e-05,104.56,1.0501e-05,106.35,-2.7153e-06,7.0428,-4.0227e-06,-2.7803,1.2107
30317,16.349,0,0.05,1.7769e-06,17.756,1.3644e-06,10.252,2.1837e-13,3.8283e-06,-1.3644e-06,-10.252,1.2233
30318,16.167,0,0.05,1.9438e-06,19.424,1.4926e-06,11.215,-8.1189e-13,-2.9213e-06,-1.4926e-06,-11.215,1.1981
30319,15.908,4.1011e-30,0.1,1.3485e-05,134.75,1.3565e-05,137.73,-3.6123e-06,8.6701,-5.0418e-06,-2.0709,1.1604
30320,16,4.1248e-30,0.05,2.3916e-06,23.899,1.8364e-06,13.798,1.9414e-13,3.6728e-06,-1.8364e-06,-13.798,1.1716
30321,15.724,4.0537e-30,0.1,3.9287e-05,392.6,3.9189e-05,389.78,-1.2625e-05,0.47112,-1.3491e-05,-6.0293,1.1381
30322,15.816,0,0.05,7.8225e-07,7.8171,6.0067e-07,4.5132,-1.7947e-13,9.4903e-07,-6.0067e-07,-4.5132,1.1492
30323,15.54,4.0063e-30,0.1,6.4719e-05,646.74,6.4604e-05,643.41,-2.1069e-05,-0.30116,-2.187e-05,-6.3231,1.1158
30324,15.632,0,0.05,2.5957e-06,25.939,1.9932e-06,14.976,4.9062e-13,3.4776e-06,-1.9932e-06,-14.976,1.1269
30325,15.356,3.9589e-30,0.1,8.8234e-05,881.73,8.8135e-05,878.85,-2.8773e-05,0.44908,-2.9655e-05,-6.1786,1.0935
30326,15.448,0,0.05,2.9847e-06,29.826,2.2919e-06,17.22,4.6848e-13,5.1208e-06,-2.2919e-06,-17.22,1.1046
30327,15.172,3.9115e-30,0.1,0.00010991,1098.4,0.00010983,1095.9,-3.5926e-05,0.7791,-3.6783e-05,-5.6617,1.0713
30328,15.264,0,0.05,2.6658e-06,26.64,2.047e-06,15.381,9.2012e-14,3.4963e-06,-2.047e-06,-15.381,1.0824
30329,14.989,3.8641e-30,0.1,0.00012963,1295.4,0.00012956,1293.4,-4.2438e-05,1.0519,-4.3253e-05,-5.0704,1.0492
30330,15.08,0,0.05,1.8701e-06,18.689,1.436e-06,10.79,4.5371e-14,4.0368e-06,-1.436e-06,-10.79,1.0602
30331,14.805,3.8166e-30,0.1,0.00014736,1472.6,0.0001473,1470.9,-4.8301e-05,1.1888,-4.907e-05,-4.5898,1.0271
30332,14.897,0,0.05,8.4822e-07,8.4764,6.5133e-07,4.8938,9.6067e-13,9.9887e-06,-6.5133e-07,-4.8938,1.0381
30333,14.621,3.7692e-30,0.1,0.00016317,1630.6,0.00016312,1629.1,-5.3533e-05,1.2352,-5.4265e-05,-4.2644,1.0052
30334,14.713,0,0.05,6.8553e-07,6.8506,5.264e-07,3.9552,1.1212e-12,1.5949e-05,-5.264e-07,-3.9552,1.0161
30335,14.437,3.7218e-30,0.1,0.00017723,1771.1,0.00017718,1769.6,-5.8182e-05,1.2117,-5.8888e-05,-4.0935,0.98333
30336,14.529,0,0.05,1.8497e-06,18.484,1.4203e-06,10.672,-8.7754e-13,5.0546e-06,-1.4203e-06,-10.672,0.99421
30337,14.253,3.6744e-30,0.1,0.00018973,1896,0.00018968,1894.5,-6.2314e-05,1.1431,-6.3005e-05,-4.0495,0.96161
30338,14.345,0,0.05,3.0736e-06,30.715,2.3602e-06,17.733,-8.0806e-13,3.5534e-06,-2.3602e-06,-17.733,0.97243
30339,14.069,3.627e-30,0.1,0.00020087,2007.3,0.00020082,2005.8,-6.5996e-05,1.0484,-6.6681e-05,-4.099,0.94002
30340,14.161,0,0.05,4.2378e-06,42.348,3.2541e-06,24.45,3.9045e-14,4.0863e-06,-3.2541e-06,-24.45,0.95078
30341,13.885,3.5796e-30,0.1,0.00021087,2107.2,0.00021081,2105.6,-6.9298e-05,0.94218,-6.9984e-05,-4.2096,0.91856
30342,13.977,0,0.05,5.3095e-06,53.058,4.077e-06,30.633,-1.782e-12,3.2069e-06,-4.077e-06,-30.633,0.92925
30343,13.701,3.5322e-30,0.1,0.00021991,2197.5,0.00021985,2195.8,-7.2283e-05,0.83421,-7.2974e-05,-4.3544,0.89725
30344,13.793,0,0.05,6.2762e-06,62.719,4.8193e-06,36.211,3.8116e-14,2.8858e-06,-4.8193e-06,-36.211,0.90787
30345,13.517,3.4848e-30,0.1,0.00022816,2280,0.00022809,2278.1,-7.5007e-05,0.73062,-7.5705e-05,-4.5125,0.87608
30346,13.609,0,0.05,7.136e-06,71.311,5.4795e-06,41.171,9.734e-15,3.0851e-06,-5.4795e-06,-41.171,0.88663
30347,13.333,3.4374e-30,0.1,0.00023576,2356,0.00023569,2354,-7.7517e-05,0.63482,-7.8223e-05,-4.6688,0.85507
30348,13.425,0,0.05,7.8927e-06,78.873,6.0606e-06,45.537,-1.8175e-12,3.4999e-06,-6.0606e-06,-45.537,0.86554
30349,13.149,3.3899e-30,0.1,0.00024285,2426.8,0.00024278,2424.7,-7.9856e-05,0.54831,-8.0569e-05,-4.8135,0.83422
30350,13.241,0,0.05,8.5538e-06,85.478,6.5682e-06,49.351,1.8895e-15,2.8639e-06,-6.5682e-06,-49.351,0.84461
30351,12.966,3.3425e-30,0.1,0.00024952,2493.4,0.00024944,2491.2,-8.2056e-05,0.47144,-8.2777e-05,-4.9403,0.81353
30352,13.057,0,0.05,9.1278e-06,91.215,7.009e-06,52.663,-3.6368e-12,2.2251e-06,-7.009e-06,-52.663,0.82384
30353,12.782,3.2951e-30,0.1,0.00025585,2556.7,0.00025577,2554.4,-8.4147e-05,0.40384,-8.4872e-05,-5.0458,0.79301
30354,12.874,0,0.05,9.6241e-06,96.174,7.3901e-06,55.526,-1.817e-12,2.5759e-06,-7.3901e-06,-55.526,0.80323
30355,12.598,3.2477e-30,0.1,0.00026192,2617.4,0.00026184,2615,-8.6151e-05,0.34479,-8.6879e-05,-5.1289,0.77267
30356,12.69,0,0.05,1.0052e-05,100.45,7.7183e-06,57.993,-1.8177e-12,2.9292e-06,-7.7183e-06,-57.993,0.7828
30357,12.414,3.2003e-30,0.1,0.00026778,2676,0.0002677,2673.5,-8.8086e-05,0.29339,-8.8816e-05,-5.1892,0.7525
30358,12.506,0,0.05,1.0418e-05,104.11,8.0001e-06,60.11,-1.8233e-12,2.839e-06,-8.0001e-06,-60.11,0.76254
30359,12.23,3.1529e-30,0.1,0.00027348,2732.9,0.0002734,2730.4,-8.9969e-05,0.24864,-9.0698e-05,-5.2278,0.7325
30360,12.322,0,0.05,1.0732e-05,107.25,8.2412e-06,61.921,-1.8226e-12,2.2134e-06,-8.2412e-06,-61.921,0.74245
30361,12.046,3.1055e-30,0.1,0.00027905,2788.6,0.00027897,2786.1,-9.181e-05,0.20961,-9.2536e-05,-5.2458,0.7127
30362,12.138,0,0.05,1.1e-05,109.92,8.4466e-06,63.465,-1.822e-12,2.4124e-06,-8.4466e-06,-63.465,0.72256
30363,11.862,3.0581e-30,0.1,0.00028453,2843.4,0.00028444,2840.8,-9.3621e-05,0.17542,-9.4342e-05,-5.2445,0.69308
30364,11.954,0,0.05,1.1227e-05,112.19,8.6208e-06,64.774,-1.8187e-12,2.0861e-06,-8.6208e-06,-64.774,0.70284
30365,11.678,3.0106e-30,0.1,0.00028994,2897.4,0.00028985,2894.8,-9.5408e-05,0.14531,-9.6123e-05,-5.2253,0.67366
30366,11.77,0,0.05,1.1418e-05,114.1,8.7675e-06,65.876,-1.9011e-15,2.2066e-06,-8.7675e-06,-65.876,0.68332
30367,11.494,2.9632e-30,0.1,0.00029529,2950.9,0.0002952,2948.3,-9.7178e-05,0.11859,-9.7885e-05,-5.1895,0.65443
30368,11.586,0,0.05,1.1577e-05,115.69,8.8899e-06,66.795,9.6826e-17,2.3393e-06,-8.8899e-06,-66.795,0.66399
30369,11.31,2.9158e-30,0.1,0.0003006,3004,0.00030052,3001.4,-9.8937e-05,0.0946,-9.9633e-05,-5.1383,0.6354
30370,11.402,0,0.05,1.1708e-05,117,8.9905e-06,67.551,-1.8189e-12,1.8962e-06,-8.9905e-06,-67.551,0.64486
30371,11.126,2.8684e-30,0.1,0.00030589,3056.8,0.00030581,3054.3,-0.00010069,0.072806,-0.00010137,-5.0728,0.61657
30372,11.218,0,0.05,1.1814e-05,118.06,9.0715e-06,68.16,-1.0281e-15,1.7888e-06,-9.0715e-06,-68.159,0.62593
30373,10.943,2.821e-30,0.1,0.00031117,3109.5,0.00031108,3107.1,-0.00010243,0.052756,-0.0001031,-4.9938,0.59795
30374,11.034,0,0.05,1.1896e-05,118.88,9.1346e-06,68.634,-1.9376e-21,1.7947e-06,-9.1346e-06,-68.634,0.60721
30375,10.759,2.7736e-30,0.1,0.00031643,3162.2,0.00031635,3159.7,-0.00010418,0.034049,-0.00010483,-4.9019,0.57953
30376,10.851,0,0.05,1.1957e-05,119.48,9.1813e-06,68.985,-1.9475e-21,1.733e-06,-9.1813e-06,-68.985,0.58869
30377,10.575,2.7262e-30,0.1,0.0003217,3214.8,0.00032162,3212.4,-0.00010592,0.016364,-0.00010656,-4.7977,0.56134
30378,10.667,0,0.05,1.1997e-05,119.89,9.2125e-06,69.219,-3.067e-16,1.7285e-06,-9.2125e-06,-69.219,0.57038
30379,10.391,2.6788e-30,0.1,0.00032697,3267.4,0.00032689,3265.1,-0.00010767,-0.0006545,-0.00010829,-4.6817,0.54336
30380,10.483,0,0.05,1.2019e-05,120.11,9.2291e-06,69.344,3.3991e-19,1.5489e-06,-9.2291e-06,-69.344,0.55229
30381,10.207,2.6314e-30,0.1,0.00033225,3320.2,0.00033217,3317.9,-0.00010942,-0.01728,-0.00011002,-4.554,0.52559
30382,10.299,0,0.05,1.2022e-05,120.14,9.2315e-06,69.362,-1.0159e-16,1.7881e-06,-9.2315e-06,-69.362,0.53442
30383,10.023,2.5839e-30,0.1,0.00033754,3373.1,0.00033746,3370.8,-0.00011117,-0.03372,-0.00011175,-4.4148,0.50806
30384,10.115,0,0.05,1.2007e-05,119.99,9.2201e-06,69.276,-1.819e-12,1.4901e-06,-9.2201e-06,-69.276,0.51677
30385,9.8391,2.5365e-30,0.1,0.00034284,3426.1,0.00034277,3423.9,-0.00011293,-0.050198,-0.00011349,-4.2643,0.49075
30386,9.931,0,0.05,1.1975e-05,119.66,9.195e-06,69.088,-1.819e-12,1.8478e-06,-9.195e-06,-69.088,0.49935
30387,9.6552,2.4891e-30,0.1,0.00034817,3479.3,0.00034809,3477.2,-0.0001147,-0.066903,-0.00011523,-4.1024,0.47367
30388,9.7471,0,0.05,1.1924e-05,119.16,9.1562e-06,68.796,6.9416e-16,1.4363e-06,-9.1562e-06,-68.796,0.48216
30389,9.4713,2.4417e-30,0.1,0.00035351,3532.6,0.00035344,3530.6,-0.00011647,-0.084023,-0.00011698,-3.929,0.45683
30390,9.5632,0,0.05,1.1855e-05,118.47,9.1034e-06,68.4,-1.931e-21,1.4307e-06,-9.1034e-06,-68.4,0.4652
30391,9.2874,2.3943e-30,0.1,0.00035887,3586.2,0.00035881,3584.3,-0.00011825,-0.10173,-0.00011874,-3.7441,0.44023
30392,9.3793,0,0.05,1.1768e-05,117.6,9.0363e-06,67.895,-1.819e-12,1.4399e-06,-9.0363e-06,-67.895,0.44848
30393,9.1034,2.3469e-30,0.1,0.00036426,3640.1,0.0003642,3638.2,-0.00012004,-0.12018,-0.0001205,-3.5474,0.42387
30394,9.1954,0,0.05,1.1661e-05,116.53,8.9544e-06,67.28,-1.3458e-15,1.1932e-06,-8.9544e-06,-67.28,0.43199
30395,8.9195,2.2995e-30,0.1,0.00036967,3694.1,0.00036961,3692.4,-0.00012184,-0.13953,-0.00012226,-3.3389,0.40776
30396,9.0115,0,0.05,1.1535e-05,115.27,8.8571e-06,66.549,-1.5028e-15,1.2987e-06,-8.8571e-06,-66.549,0.41576
30397,8.7356,2.2521e-30,0.1,0.00037511,3748.5,0.00037505,3746.8,-0.00012364,-0.15994,-0.00012404,-3.1183,0.39189
30398,8.8276,0,0.05,1.1387e-05,113.79,8.7436e-06,65.696,-1.8589e-15,1.4305e-06,-8.7436e-06,-65.696,0.39977
30399,8.5517,2.2046e-30,0.1,0.00038057,3803.1,0.00038052,3801.5,-0.00012546,-0.18156,-0.00012582,-2.8855,0.37628
30400,8.6437,0,0.05,1.1217e-05,112.09,8.613e-06,64.715,2.1511e-15,1.3307e-06,-8.613e-06,-64.714,0.38403
30401,8.3678,2.1572e-30,0.1,0.00038606,3858,0.00038601,3856.5,-0.00012729,-0.20455,-0.00012761,-2.6404,0.36093
30402,8.4598,0,0.05,1.1023e-05,110.15,8.4643e-06,63.597,-7.2757e-12,1.1532e-06,-8.4643e-06,-63.597,0.36854
30403,8.1839,2.1098e-30,0.1,0.00039159,3913.2,0.00039154,3911.9,-0.00012912,-0.22907,-0.00012941,-2.3829,0.34583
30404,8.2759,0,0.05,1.0804e-05,107.97,8.2964e-06,62.336,-3.6378e-12,1.0156e-06,-8.2964e-06,-62.336,0.35332
30405,8,2.0624e-30,0.1,0.00039714,3968.7,0.0003971,3967.5,-0.00013097,-0.25529,-0.00013122,-2.1129,0.331
30406,8.092,0,0.05,1.0559e-05,105.52,8.108e-06,60.92,3.6876e-16,1.3112e-06,-8.1079e-06,-60.92,0.33836
30407,7.8161,2.015e-30,0.1,0.00040273,4024.5,0.00040269,4023.4,-0.00013283,-0.28338,-0.00013304,-1.8306,0.31644
30408,7.908,0,0.05,1.0285e-05,102.78,7.8976e-06,59.34,4.1751e-15,1.0418e-06,-7.8976e-06,-59.34,0.32366
30409,7.6322,1.9676e-30,0.1,0.00040835,4080.7,0.00040832,4079.7,-0.00013471,-0.31353,-0.00013487,-1.5362,0.30216
30410,7.7241,0,0.05,9.9805e-06,99.736,7.6638e-06,57.583,-1.6256e-21,9.5359e-07,-7.6638e-06,-57.583,0.30924
30411,7.4483,1.9202e-30,0.1,0.00041401,4137.2,0.00041398,4136.4,-0.00013659,-0.34593,-0.00013671,-1.2301,0.28814
30412,7.5402,0,0.05,9.6432e-06,96.365,7.4048e-06,55.637,-1.5707e-21,9.4813e-07,-7.4048e-06,-55.637,0.29509
30413,7.2644,1.8728e-30,0.1,0.0004197,4194.1,0.00041968,4193.5,-0.00013849,-0.38076,-0.00013856,-0.91291,0.27441
30414,7.3563,0,0.05,9.2706e-06,92.642,7.1187e-06,53.487,1.0736e-15,8.6562e-07,-7.1187e-06,-53.487,0.28122
30415,7.0805,1.8254e-30,0.1,0.00042543,4251.4,0.00042542,4250.9,-0.0001404,-0.41803,-0.00014042,-0.58564,0.26097
30416,7.1724,0,0.05,8.8602e-06,88.541,6.8035e-06,51.119,-3.6358e-12,8.28e-07,-6.8035e-06,-51.119,0.26762
30417,6.8966,1.7779e-30,0.1,0.00043121,4309.1,0.0004312,4308.8,-0.0001423,-0.24816,-0.00014232,-0.45929,0.24781
30418,6.9885,0,0.05,8.409e-06,84.032,6.4571e-06,48.516,-3.5478e-15,9.5543e-07,-6.457e-06,-48.516,0.25432
30419,6.7126,1.7305e-30,0.1,0.00043702,4367.2,0.00043702,4367,-0.00014419,0.095945,-0.00014427,-0.50272,0.23494
30420,6.8046,0,0.05,7.9138e-06,79.084,6.0769e-06,45.659,5.1408e-15,7.5813e-07,-6.0768e-06,-45.659,0.2413
30421,6.5287,1.6831e-30,0.1,0.00044289,4425.8,0.00044288,4425.8,-0.00014609,0.44589,-0.00014622,-0.54977,0.22236
30422,6.6207,0,0.05,7.3714e-06,73.663,5.6603e-06,42.53,-3.6291e-12,7.7448e-07,-5.6603e-06,-42.53,0.22858
30423,6.3448,1.6357e-30,0.1,0.00044879,4484.8,0.0004488,4484.9,-0.00014801,0.79904,-0.00014819,-0.60058,0.21009
30424,6.4368,0,0.05,6.778e-06,67.734,5.2047e-06,39.106,-3.6305e-12,6.552e-07,-5.2047e-06,-39.106,0.21616
30425,6.1609,1.5883e-30,0.1,0.00045475,4544.4,0.00045476,4544.6,-0.00014994,1.1523,-0.00015018,-0.65544,0.19812
30426,6.2529,0,0.05,6.1298e-06,61.256,4.7069e-06,35.366,9.2874e-17,5.9468e-07,-4.7069e-06,-35.366,0.20404
30427,5.977,1.5409e-30,0.1,0.00046076,4604.4,0.00046077,4604.8,-0.00015189,1.5017,-0.00015218,-0.71468,0.18646
30428,6.069,0,0.05,5.4224e-06,54.187,4.1638e-06,31.285,1.1059e-14,1.0852e-06,-4.1638e-06,-31.285,0.19222
30429,5.7931,1.4935e-30,0.1,0.00046682,4665,0.00046684,4665.5,-0.00015386,1.8426,-0.00015421,-0.77867,0.17511
30430,5.8851,0,0.05,4.6515e-06,46.483,3.5718e-06,26.837,2.4409e-14,-4.5104e-07,-3.5718e-06,-26.837,0.18071
30431,5.6092,1.4461e-30,0.1,0.00047294,4726.1,0.00047296,4726.8,-0.00015585,2.1693,-0.00015625,-0.8478,0.16408
30432,5.7011,0,0.05,3.8124e-06,38.098,2.9275e-06,21.996,-6.2096e-22,1.4837e-06,-2.9275e-06,-21.996,0.16952
30433,5.4253,1.3986e-30,0.1,0.00047911,4787.8,0.00047913,4788.6,-0.00015785,2.4747,-0.00015831,-0.92251,0.15336
30434,5.5172,0,0.05,2.9009e-06,28.989,2.2275e-06,16.737,6.4154e-14,1.3862e-06,-2.2275e-06,-16.737,0.15865
30435,5.2414,1.3512e-30,0.1,0.00048534,4850.1,0.00048537,4850.9,-0.00015988,2.7508,-0.00016038,-1.0033,0.14297
30436,5.3333,0,0.05,1.9145e-06,19.132,1.4701e-06,11.046,-3.3772e-12,5.8913e-07,-1.4701e-06,-11.046,0.1481
30437,5.0575,1.3038e-30,0.1,0.00049163,4912.9,0.00049167,4913.9,-0.00016194,2.9874,-0.00016248,-1.0906,0.13291
30438,5.1494,0,0.05,8.697e-07,8.691,6.6782e-07,5.0178,4.8791e-15,3.6027e-07,-6.6782e-07,-5.0178,0.13787
30439,4.8736,1.2564e-30,0.1,0.00049799,4976.4,0.00049802,4977.4,-0.00016401,3.173,-0.00016459,-1.1852,0.12318
30440,4.9655,0,0.05,5.0743e-07,5.0708,3.8964e-07,2.9277,-1.9488e-12,5.7615e-05,-3.8965e-07,-2.9276,0.12797
30441,4.6897,1.209e-30,0.1,0.0005044,5040.6,0.00050444,5041.6,-0.00016611,3.2936,-0.00016672,-1.2877,0.11379
30442,4.7816,0,0.05,1.6892e-06,16.881,1.2971e-06,9.746,-6.1576e-12,3.6802e-07,-1.2971e-06,-9.746,0.11841
30443,4.5057,1.1616e-30,0.1,0.00051088,5105.3,0.00051091,5106.3,-0.00016824,3.333,-0.00016887,-1.3989,0.10475
30444,4.5977,0,0.05,3.0604e-06,30.583,2.35e-06,17.657,-8.125e-22,2.6341e-07,-2.35e-06,-17.657,0.10919
30445,4.3218,1.1142e-30,0.1,0.00051742,5170.6,0.00051745,5171.5,-0.0001704,3.2723,-0.00017104,-1.5201,0.096043
30446,4.4138,0,0.05,4.5582e-06,45.551,3.5002e-06,26.299,-3.4435e-12,2.6985e-06,-3.5001e-06,-26.299,0.10032
30447,4.1379,1.0668e-30,0.1,0.00052401,5236.5,0.00052404,5237.2,-0.00017258,3.0893,-0.00017322,-1.6526,0.08769
30448,4.2299,0,0.05,6.1855e-06,61.812,4.7497e-06,35.687,8.7815e-14,7.3664e-07,-4.7497e-06,-35.687,0.091789
30449,3.954,1.0194e-30,0.1,0.00053066,5302.9,0.00053068,5303.4,-0.0001748,2.7588,-0.0001754,-1.7986,0.079693
30450,4.046,0,0.05,7.9506e-06,79.451,6.1051e-06,45.871,-3.6224e-12,-9.7299e-15,-6.1051e-06,-45.871,0.083613
30451,3.7701,9.7194e-31,0.1,0.00053735,5369.8,0.00053735,5369.9,-0.00017704,2.2523,-0.0001776,-1.9619,0.072054
30452,3.8621,0,0.05,9.8636e-06,98.568,7.5741e-06,56.909,-3.5788e-12,3.9682e-07,-7.5741e-06,-56.908,0.075794
30453,3.5862,9.2453e-31,0.1,0.00054406,5436.9,0.00054405,5436.6,-0.00017931,1.5397,-0.0001798,-2.1499,0.06478
30454,3.6782,0,0.05,1.1936e-05,119.28,9.1656e-06,68.866,3.7761e-14,-1.4608e-14,-9.1656e-06,-68.866,0.068337
30455,3.4023,8.7712e-31,0.1,0.00055079,5504.1,0.00055076,5503.2,-0.00018159,0.59531,-0.00018199,-2.3812,0.057874
30456,3.4943,0,0.05,1.4181e-05,141.71,1.0889e-05,81.819,3.1252e-14,-1.7355e-14,-1.0889e-05,-81.819,0.061246
30457,3.2184,8.2971e-31,0.1,0.00055751,5571.2,0.00055745,5569.6,-0.00018389,-0.56806,-0.00018418,-2.7204,0.05134
30458,3.3103,0,0.05,1.6613e-05,166.01,1.2756e-05,95.847,-2.7058e-21,2.2306e-07,-1.2756e-05,-95.847,0.054525
30459,3.0345,7.8229e-31,0.1,0.00056418,5637.9,0.00056409,5635.3,-0.00018615,-1.7229,-0.00018638,-3.4562,0.045184
30460,3.1264,0,0.05,1.9246e-05,192.33,1.4779e-05,111.04,-3.6322e-12,1.9399e-07,-1.4779e-05,-111.04,0.04818
30461,2.8506,7.3488e-31,0.1,0.00057075,5703.6,0.00057063,5699.8,-0.00018829,-2.397,-0.00018866,-5.1337,0.039409
30462,2.9425,0,0.05,2.21e-05,220.84,1.697e-05,127.5,-7.2657e-12,1.7173e-07,-1.697e-05,-127.5,0.042213
30463,2.6667,6.8747e-31,0.1,0.00057718,5767.8,0.000577,5762.6,-0.00019032,-2.7769,-0.00019097,-7.654,0.03402
30464,2.7586,0,0.05,2.5193e-05,251.76,1.9345e-05,145.35,-3.6334e-12,1.5429e-07,-1.9345e-05,-145.35,0.03663
30465,2.4828,6.4006e-31,0.1,0.00058337,5829.7,0.00058313,5822.7,-0.00019223,-3.0912,-0.00019327,-10.895,0.029021
30466,2.5747,0,0.05,2.8549e-05,285.29,2.1922e-05,164.71,-1.9266e-20,1.4037e-07,-2.1922e-05,-164.71,0.031435
30467,2.2989,5.9265e-31,0.1,0.00058923,5888.2,0.00058891,5879,-0.00019399,-3.4008,-0.00019552,-14.926,0.024415
30468,2.3908,0,0.05,3.2195e-05,321.72,2.4721e-05,185.75,-7.2529e-12,-3.94e-14,-2.4721e-05,-185.75,0.026632
30469,2.1149,5.4524e-31,0.1,0.00059459,5941.8,0.00059419,5930,-0.00019554,-3.7269,-0.00019769,-19.892,0.020207
30470,2.2069,0,0.05,3.6161e-05,361.36,2.7767e-05,208.63,1.4293e-14,1.1989e-07,-2.7767e-05,-208.63,0.022225
30471,1.931,4.9782e-31,0.1,0.00059926,5988.5,0.00059875,5973.4,-0.00019681,-4.0813,-0.00019973,-25.992,0.016399
30472,2.023,0,0.05,4.0487e-05,404.59,3.1089e-05,233.59,-7.2559e-12,1.1232e-07,-3.1089e-05,-233.59,0.018216
30473,1.7471,4.5041e-31,0.1,0.00060297,6025.5,0.00060232,6006.5,-0.00019769,-4.476,-0.00020156,-33.499,0.012995
30474,1.8391,0,0.05,4.522e-05,451.89,3.4723e-05,260.9,-3.6222e-12,1.0608e-07,-3.4723e-05,-260.9,0.014609
30475,1.5632,4.03e-31,0.1,0.00060532,6049,0.0006045,6025.1,-0.00019804,-4.9183,-0.00020308,-42.783,0.0099947
30476,1.6552,0,0.05,5.0418e-05,503.84,3.8715e-05,290.89,-3.6109e-12,-6.1702e-14,-3.8715e-05,-290.89,0.011406
30477,1.3793,3.5559e-31,0.1,0.00060574,6053.3,0.00060471,6023.2,-0.00019765,-5.4399,-0.00020417,-54.392,0.0074001
30478,1.4713,0,0.05,5.6161e-05,561.23,4.3125e-05,324.02,-7.2587e-12,-6.873e-14,-4.3125e-05,-324.02,0.0086089
30479,1.1954,3.0818e-31,0.1,0.00060339,6029.7,0.00060209,5991.9,-0.00019619,-6.0075,-0.00020459,-69.103,0.0052101
30480,1.2874,0,0.05,6.2554e-05,625.1,4.8033e-05,360.9,-3.6352e-12,9.313e-08,-4.8033e-05,-360.9,0.0062167
30481,1.0115,2.6076e-31,0.1,0.00059692,5965,0.00059525,5917,-0.00019316,-6.8215,-0.00020401,-88.345,0.0034219
30482,1.1034,0,0.05,6.9749e-05,697.01,5.3559e-05,402.42,-3.6138e-12,8.9959e-08,-5.3559e-05,-402.42,0.0042279
30483,0.82759,2.1335e-31,0.1,0.00058408,5836.8,0.00058194,5775.3,-0.00018769,-7.4369,-0.0002019,-114.19,0.0020291
30484,0.91954,0,0.05,7.7962e-05,779.08,5.9865e-05,449.8,-3.625e-12,-9.541e-14,-5.9865e-05,-449.8,0.0026382
30485,0.64368,1.6594e-31,0.1,0.00056069,5603,0.00055782,5521.2,-0.0001782,-8.885,-0.00019724,-151.99,0.0010212
30486,0.73563,0,0.05,8.7624e-05,875.63,6.7284e-05,505.55,9.7322e-15,8.164e-08,-6.7284e-05,-505.55,0.0014391
30487,0.45977,1.1853e-31,0.1,0.00051888,5185.2,0.00051473,5068.8,-0.00016167,-13.41,-0.00018832,-213.64,0.0003804
30488,0.55172,0,0.05,9.9326e-05,992.58,7.627e-05,573.06,-3.6266e-12,7.638e-08,-7.627e-05,-573.06,0.00061596
30489,0.27586,7.1118e-32,0.1,0.00043331,4330.1,0.00042684,4161.1,-0.00012442,19.13,-0.00017161,-335.46,8.3872e-05
30490,0.36782,0,0.05,0.00011511,1150.3,8.8393e-05,664.15,-3.6275e-12,-1.4088e-13,-8.8393e-05,-664.15,0.0001433
30491,0.091954,2.3706e-32,0.1,0.00025622,2560.4,0.00023007,1947.4,-5.1198e-05,-165.91,-0.00014887,-899.8,2.8726e-05
30492,0.18391,0,0.05,0.00014648,1463.8,0.00011248,845.14,-3.638e-12,8.6756e-12,-0.00011248,-845.14,2.6258e-05
30493,0,0,0.05,0.00019398,1938.4,0.00014895,1119.1,-1.5382e-13,5.973e-05,-0.00014895,-1119.1,0
30494,0.091954,6,0.1,0.00025622,2560.4,0.00023007,1947.4,-5.1198e-05,-165.91,-0.00014887,-899.8,2.8726e-05
30495,5.2451e-14,6,0.05,0.00019398,1938.4,0.00014895,1119.1,6.1877e-13,-0.00020843,-0.00014895,-1119.1,0
30496,0.27586,6,0.1,0.00043331,4330.1,0.00042684,4161.1,-0.00012442,19.13,-0.00017161,-335.46,8.3872e-05
30497,0.18391,6,0.05,0.00014648,1463.8,0.00011248,845.13,1.2733e-11,2.6703e-05,-0.00011248,-845.14,2.6258e-05
30498,0.45977,6,0.1,0.00051888,5185.2,0.00051473,5068.8,-0.00016167,-13.41,-0.00018832,-213.64,0.0003804
30499,0.36782,6,0.05,0.00011511,1150.3,8.8393e-05,664.15,1.0891e-11,-1.4093e-07,-8.8393e-05,-664.15,0.0001433
30500,0.64368,6,0.1,0.00056069,5603,0.00055782,5521.2,-0.0001782,-8.885,-0.00019724,-151.99,0.0010212
30501,0.55172,6,0.05,9.9326e-05,992.58,7.627e-05,573.06,7.2623e-12,-1.5276e-07,-7.627e-05,-573.06,0.00061596
30502,0.82759,6,0.1,0.00058408,5836.8,0.00058194,5775.3,-0.00018769,-7.4369,-0.0002019,-114.19,0.0020291
30503,0.73563,6,0.05,8.7624e-05,875.63,6.7284e-05,505.55,7.2711e-12,-1.6328e-07,-6.7284e-05,-505.55,0.0014391
30504,1.0115,6,0.1,0.00059692,5965,0.00059525,5917,-0.00019316,-6.8215,-0.00020401,-88.345,0.0034219
30505,0.91954,6,0.05,7.7962e-05,779.08,5.9865e-05,449.8,7.2604e-12,-1.7385e-07,-5.9865e-05,-449.8,0.0026382
30506,1.1954,6,0.1,0.00060339,6029.7,0.00060209,5991.9,-0.00019619,-6.0075,-0.00020459,-69.103,0.0052101
30507,1.1034,6,0.05,6.9749e-05,697.01,5.3559e-05,402.42,7.2491e-12,-1.7992e-07,-5.3559e-05,-402.42,0.0042279
30508,1.3793,6,0.1,0.00060574,6053.3,0.00060471,6023.2,-0.00019765,-5.4399,-0.00020417,-54.392,0.0074001
30509,1.2874,6,0.05,6.2554e-05,625.1,4.8033e-05,360.9,7.2593e-12,-1.8626e-07,-4.8033e-05,-360.9,0.0062167
30510,1.5632,6,0.1,0.00060532,6049,0.0006045,6025.1,-0.00019804,-4.9183,-0.00020308,-42.783,0.0099947
30511,1.4713,6,0.05,5.6161e-05,561.23,4.3125e-05,324.02,7.2587e-12,-1.9336e-07,-4.3125e-05,-324.02,0.0086089
30512,1.7471,6,0.1,0.00060297,6025.5,0.00060232,6006.5,-0.00019769,-4.476,-0.00020156,-33.499,0.012995
30513,1.6552,6,0.05,5.0418e-05,503.84,3.8715e-05,290.89,7.2459e-12,-2.0186e-07,-3.8715e-05,-290.89,0.011406
30514,1.931,6,0.1,0.00059926,5988.5,0.00059875,5973.4,-0.00019681,-4.0813,-0.00019973,-25.992,0.016399
30515,1.8391,6,0.05,4.522e-05,451.89,3.4723e-05,260.9,7.2443e-12,-2.1216e-07,-3.4723e-05,-260.9,0.014609
30516,2.1149,6,0.1,0.00059459,5941.8,0.00059419,5930,-0.00019554,-3.7269,-0.00019769,-19.892,0.020207
30517,2.023,6,0.05,4.0487e-05,404.59,3.1089e-05,233.59,7.2425e-12,-2.2464e-07,-3.1089e-05,-233.59,0.018216
30518,2.2989,6,0.1,0.00058923,5888.2,0.00058891,5879,-0.00019399,-3.4008,-0.00019552,-14.926,0.024415
30519,2.2069,6,0.05,3.6161e-05,361.36,2.7767e-05,208.63,7.2402e-12,-2.3979e-07,-2.7767e-05,-208.63,0.022225
30520,2.4828,6,0.1,0.00058337,5829.7,0.00058313,5822.7,-0.00019223,-3.0912,-0.00019327,-10.895,0.029021
30521,2.3908,6,0.05,3.2195e-05,321.72,2.4721e-05,185.75,7.2375e-12,-1.291e-07,-2.4721e-05,-185.75,0.026632
30522,2.6667,6,0.1,0.00057718,5767.8,0.000577,5762.6,-0.00019032,-2.7769,-0.00019097,-7.654,0.03402
30523,2.5747,6,0.05,2.8549e-05,285.29,2.1922e-05,164.71,1.0868e-11,-2.8074e-07,-2.1922e-05,-164.71,0.031435
30524,2.8506,6,0.1,0.00057075,5703.6,0.00057063,5699.8,-0.00018829,-2.397,-0.00018866,-5.1337,0.039409
30525,2.7586,6,0.05,2.5193e-05,251.76,1.9345e-05,145.35,1.0863e-11,-3.0858e-07,-1.9345e-05,-145.35,0.03663
30526,3.0345,6,0.1,0.00056418,5637.9,0.00056409,5635.3,-0.00018615,-1.7229,-0.00018638,-3.4562,0.045184
30527,2.9425,6,0.05,2.21e-05,220.84,1.697e-05,127.5,7.2657e-12,-3.4347e-07,-1.697e-05,-127.5,0.042213
30528,3.2184,6,0.1,0.00055751,5571.2,0.00055745,5569.6,-0.00018389,-0.56807,-0.00018418,-2.7204,0.05134
30529,3.1264,6,0.05,1.9246e-05,192.33,1.4779e-05,111.04,7.2181e-12,-3.8798e-07,-1.4779e-05,-111.04,0.04818
30530,3.4023,6,0.1,0.00055079,5504.1,0.00055076,5503.2,-0.00018159,0.5953,-0.00018199,-2.3812,0.057874
30531,3.3103,6,0.05,1.6613e-05,166.01,1.2756e-05,95.847,1.0867e-11,-4.4612e-07,-1.2756e-05,-95.847,0.054525
30532,3.5862,6,0.1,0.00054406,5436.9,0.00054405,5436.6,-0.00017931,1.5397,-0.0001798,-2.1499,0.06478
30533,3.4943,6,0.05,1.4181e-05,141.71,1.0889e-05,81.819,7.1978e-12,-5.2432e-07,-1.0889e-05,-81.819,0.061246
30534,3.7701,6,0.1,0.00053735,5369.8,0.00053735,5369.9,-0.00017704,2.2523,-0.0001776,-1.9619,0.072054
30535,3.6782,6,0.05,1.1936e-05,119.28,9.1656e-06,68.866,7.1816e-12,-8.276e-07,-9.1656e-06,-68.867,0.068337
30536,3.954,6,0.1,0.00053066,5302.9,0.00053068,5303.4,-0.0001748,2.7588,-0.0001754,-1.7986,0.079693
30537,3.8621,6,0.05,9.8637e-06,98.568,7.574e-06,56.908,7.1577e-12,-7.9365e-07,-7.5741e-06,-56.909,0.075794
30538,4.1379,6,0.1,0.00052401,5236.5,0.00052404,5237.2,-0.00017258,3.0893,-0.00017322,-1.6526,0.08769
30539,4.046,6,0.05,7.9506e-06,79.451,6.1051e-06,45.871,7.1826e-12,-1.0442e-06,-6.1051e-06,-45.871,0.083613
30540,4.3218,6,0.1,0.00051742,5170.6,0.00051745,5171.5,-0.0001704,3.2723,-0.00017104,-1.5201,0.096043
30541,4.2299,6,0.05,6.1855e-06,61.812,4.7497e-06,35.687,7.0564e-12,-1.4733e-06,-4.7497e-06,-35.688,0.091789
30542,4.5057,6,0.1,0.00051088,5105.3,0.00051091,5106.3,-0.00016824,3.333,-0.00016887,-1.3989,0.10475
30543,4.4138,6,0.05,4.5582e-06,45.551,3.5001e-06,26.299,6.931e-12,-1.9605e-06,-3.5002e-06,-26.299,0.10032
30544,4.6897,6,0.1,0.0005044,5040.6,0.00050444,5041.6,-0.00016611,3.2936,-0.00016672,-1.2877,0.11379
30545,4.5977,6,0.05,3.0604e-06,30.583,2.35e-06,17.657,6.5936e-12,-1.8957e-06,-2.35e-06,-17.657,0.10919
30546,4.8736,6,0.1,0.00049799,4976.4,0.00049802,4977.4,-0.00016401,3.173,-0.00016459,-1.1852,0.12318
30547,4.7816,6,0.05,1.6892e-06,16.881,1.2971e-06,9.7459,5.4534e-12,-1.1948e-05,-1.2971e-06,-9.7462,0.11841
30548,5.0575,6,0.1,0.00049163,4912.9,0.00049167,4913.9,-0.00016194,2.9874,-0.00016248,-1.0906,0.13291
30549,4.9655,6,0.05,5.0744e-07,5.0709,3.8965e-07,2.9276,-9.8713e-12,-0.00011504,-3.8965e-07,-2.9277,0.12797
30550,5.2414,6,0.1,0.00048534,4850.1,0.00048537,4850.9,-0.00015988,2.7508,-0.00016038,-1.0033,0.14297
30551,5.1494,6,0.05,8.6969e-07,8.6909,6.6781e-07,5.0176,2.3144e-12,-3.2902e-05,-6.6782e-07,-5.0178,0.13787
30552,5.4253,6,0.1,0.00047911,4787.8,0.00047913,4788.6,-0.00015785,2.4747,-0.00015831,-0.92251,0.15336
30553,5.3333,6,0.05,1.9145e-06,19.131,1.4701e-06,11.045,6.5718e-12,-5.398e-06,-1.4701e-06,-11.046,0.1481
30554,5.6092,6,0.1,0.00047294,4726.1,0.00047296,4726.8,-0.00015585,2.1693,-0.00015625,-0.8478,0.16408
30555,5.5172,6,0.05,2.9009e-06,28.989,2.2275e-06,16.736,7.0193e-12,-1.68e-06,-2.2275e-06,-16.737,0.15865
30556,5.7931,6,0.1,0.00046682,4665,0.00046684,4665.5,-0.00015386,1.8426,-0.00015421,-0.77867,0.17511
30557,5.7011,6,0.05,3.8124e-06,38.098,2.9275e-06,21.996,7.1263e-12,-6.3878e-07,-2.9275e-06,-21.996,0.16952
30558,5.977,6,0.1,0.00046076,4604.4,0.00046077,4604.8,-0.00015189,1.5017,-0.00015218,-0.71468,0.18646
30559,5.8851,6,0.05,4.6515e-06,46.483,3.5718e-06,26.837,7.2112e-12,1.0931e-06,-3.5718e-06,-26.837,0.18071
30560,6.1609,6,0.1,0.00045475,4544.4,0.00045476,4544.6,-0.00014994,1.1523,-0.00015018,-0.65543,0.19812
30561,6.069,6,0.05,5.4224e-06,54.187,4.1637e-06,31.285,7.2428e-12,2.6879e-07,-4.1638e-06,-31.285,0.19222
30562,6.3448,6,0.1,0.00044879,4484.8,0.0004488,4484.9,-0.00014801,0.79904,-0.00014819,-0.60058,0.21009
30563,6.2529,6,0.05,6.1298e-06,61.256,4.7069e-06,35.366,7.2468e-12,-2.4437e-07,-4.7069e-06,-35.366,0.20404
30564,6.5287,6,0.1,0.00044289,4425.8,0.00044288,4425.8,-0.00014609,0.44589,-0.00014622,-0.54977,0.22236
30565,6.4368,6,0.05,6.778e-06,67.734,5.2047e-06,39.106,7.2669e-12,7.2559e-07,-5.2047e-06,-39.106,0.21616
30566,6.7126,6,0.1,0.00043702,4367.2,0.00043702,4367,-0.00014419,0.095948,-0.00014426,-0.50272,0.23494
30567,6.6207,6,0.05,7.3714e-06,73.663,5.6603e-06,42.529,7.2553e-12,5.364e-07,-5.6603e-06,-42.53,0.22858
30568,6.8966,6,0.1,0.00043121,4309.1,0.0004312,4308.8,-0.0001423,-0.24816,-0.00014232,-0.45929,0.24781
30569,6.8046,6,0.05,7.9138e-06,79.084,6.0768e-06,45.659,7.2597e-12,5.9291e-07,-6.0768e-06,-45.659,0.2413
30570,7.0805,6,0.1,0.00042543,4251.4,0.00042542,4250.9,-0.0001404,-0.41802,-0.00014042,-0.58564,0.26097
30571,6.9885,6,0.05,8.409e-06,84.032,6.457e-06,48.516,7.2703e-12,6.4939e-07,-6.457e-06,-48.516,0.25432
30572,7.2644,6,0.1,0.0004197,4194.1,0.00041968,4193.5,-0.00013849,-0.38076,-0.00013856,-0.9129,0.27441
30573,7.1724,6,0.05,8.8602e-06,88.541,6.8035e-06,51.119,7.2703e-12,7.8665e-07,-6.8035e-06,-51.119,0.26762
30574,7.4483,6,0.1,0.00041401,4137.2,0.00041398,4136.4,-0.00013659,-0.34593,-0.00013671,-1.2301,0.28814
30575,7.3563,6,0.05,9.2706e-06,92.642,7.1187e-06,53.487,7.2772e-12,7.9832e-07,-7.1187e-06,-53.487,0.28122
30576,7.6322,6,0.1,0.00040835,4080.7,0.00040832,4079.7,-0.00013471,-0.31353,-0.00013487,-1.5362,0.30216
30577,7.5402,6,0.05,9.6432e-06,96.365,7.4048e-06,55.636,7.2679e-12,1.0262e-06,-7.4048e-06,-55.637,0.29509
30578,7.8161,6,0.1,0.00040273,4024.5,0.00040269,4023.4,-0.00013283,-0.28338,-0.00013304,-1.8306,0.31644
30579,7.7241,6,0.05,9.9805e-06,99.736,7.6638e-06,57.583,7.2735e-12,9.6797e-07,-7.6638e-06,-57.583,0.30924
30580,8,6,0.1,0.00039714,3968.7,0.0003971,3967.5,-0.00013097,-0.25529,-0.00013122,-2.1129,0.331
30581,7.908,6,0.05,1.0285e-05,102.78,7.8976e-06,59.339,7.2777e-12,9.661e-07,-7.8976e-06,-59.34,0.32366
30582,8.1839,6,0.1,0.00039159,3913.2,0.00039154,3911.9,-0.00012912,-0.22907,-0.00012941,-2.3829,0.34583
30583,8.092,6,0.05,1.0559e-05,105.52,8.1079e-06,60.92,7.2781e-12,1.0876e-06,-8.1079e-06,-60.92,0.33836
30584,8.3678,6,0.1,0.00038606,3858,0.00038601,3856.5,-0.00012729,-0.20455,-0.00012761,-2.6404,0.36093
30585,8.2759,6,0.05,1.0804e-05,107.97,8.2964e-06,62.336,3.637e-12,1.1491e-06,-8.2964e-06,-62.336,0.35332
30586,8.5517,6,0.1,0.00038057,3803.1,0.00038052,3801.5,-0.00012546,-0.18156,-0.00012582,-2.8855,0.37628
30587,8.4598,6,0.05,1.1023e-05,110.15,8.4643e-06,63.597,7.2749e-12,1.1848e-06,-8.4643e-06,-63.597,0.36854
30588,8.7356,6,0.1,0.00037511,3748.5,0.00037505,3746.8,-0.00012364,-0.15994,-0.00012404,-3.1183,0.39189
30589,8.6437,6,0.05,1.1217e-05,112.09,8.613e-06,64.714,7.2773e-12,1.2476e-06,-8.613e-06,-64.715,0.38403
30590,8.9195,6,0.1,0.00036967,3694.1,0.00036961,3692.4,-0.00012184,-0.13953,-0.00012226,-3.3389,0.40776
30591,8.8276,6,0.05,1.1387e-05,113.79,8.7436e-06,65.696,7.2755e-12,1.3228e-06,-8.7436e-06,-65.696,0.39977
30592,9.1034,6,0.1,0.00036426,3640.1,0.0003642,3638.2,-0.00012004,-0.12018,-0.0001205,-3.5474,0.42387
30593,9.0115,6,0.05,1.1535e-05,115.27,8.8571e-06,66.549,7.2756e-12,1.309e-06,-8.8571e-06,-66.549,0.41576
30594,9.2874,6,0.1,0.00035887,3586.2,0.00035881,3584.3,-0.00011825,-0.10173,-0.00011874,-3.7441,0.44023
30595,9.1954,6,0.05,1.1661e-05,116.53,8.9544e-06,67.28,7.2744e-12,1.3693e-06,-8.9544e-06,-67.28,0.43199
30596,9.4713,6,0.1,0.00035351,3532.6,0.00035344,3530.6,-0.00011647,-0.084022,-0.00011698,-3.929,0.45683
30597,9.3793,6,0.05,1.1768e-05,117.6,9.0363e-06,67.895,7.2758e-12,1.3098e-06,-9.0363e-06,-67.896,0.44848
30598,9.6552,6,0.1,0.00034817,3479.3,0.00034809,3477.2,-0.0001147,-0.066903,-0.00011523,-4.1024,0.47367
30599,9.5632,6,0.05,1.1855e-05,118.47,9.1034e-06,68.399,7.2759e-12,1.3702e-06,-9.1034e-06,-68.4,0.4652
30600,9.8391,6,0.1,0.00034284,3426.1,0.00034277,3423.9,-0.00011293,-0.050198,-0.00011349,-4.2643,0.49075
30601,9.7471,6,0.05,1.1924e-05,119.16,9.1562e-06,68.796,7.2759e-12,1.6029e-06,-9.1562e-06,-68.796,0.48216
30602,10.023,6,0.1,0.00033754,3373.1,0.00033746,3370.8,-0.00011117,-0.03372,-0.00011175,-4.4148,0.50806
30603,9.931,6,0.05,1.1975e-05,119.66,9.195e-06,69.088,7.2759e-12,1.4899e-06,-9.195e-06,-69.088,0.49935
30604,10.207,6,0.1,0.00033225,3320.2,0.00033217,3317.9,-0.00010942,-0.017279,-0.00011002,-4.554,0.52559
30605,10.115,6,0.05,1.2007e-05,119.99,9.2201e-06,69.276,7.2759e-12,1.788e-06,-9.2201e-06,-69.276,0.51677
30606,10.391,6,0.1,0.00032697,3267.4,0.00032689,3265.1,-0.00010767,-0.00065398,-0.00010829,-4.6817,0.54336
30607,10.299,6,0.05,1.2022e-05,120.14,9.2315e-06,69.362,7.2759e-12,1.6093e-06,-9.2315e-06,-69.362,0.53442
30608,10.575,6,0.1,0.0003217,3214.8,0.00032162,3212.4,-0.00010592,0.016365,-0.00010656,-4.7977,0.56134
30609,10.483,6,0.05,1.2019e-05,120.11,9.2291e-06,69.344,7.276e-12,1.8469e-06,-9.2291e-06,-69.344,0.55229
30610,10.759,6,0.1,0.00031643,3162.2,0.00031635,3159.7,-0.00010418,0.034049,-0.00010483,-4.9019,0.57953
30611,10.667,6,0.05,1.1997e-05,119.89,9.2125e-06,69.219,5.4567e-12,1.6092e-06,-9.2125e-06,-69.219,0.57038
30612,10.943,6,0.1,0.00031117,3109.5,0.00031108,3107.1,-0.00010243,0.052756,-0.0001031,-4.9938,0.59795
30613,10.851,6,0.05,1.1957e-05,119.48,9.1813e-06,68.985,7.2759e-12,1.9668e-06,-9.1813e-06,-68.985,0.58869
30614,11.126,6,0.1,0.00030589,3056.8,0.00030581,3054.3,-0.00010069,0.072806,-0.00010137,-5.0728,0.61657
30615,11.034,6,0.05,1.1896e-05,118.88,9.1346e-06,68.634,7.2766e-12,2.2113e-06,-9.1346e-06,-68.634,0.60721
30616,11.31,6,0.1,0.0003006,3004,0.00030052,3001.4,-9.8937e-05,0.0946,-9.9633e-05,-5.1383,0.6354
30617,11.218,6,0.05,1.1814e-05,118.06,9.0715e-06,68.159,5.4569e-12,1.9663e-06,-9.0715e-06,-68.16,0.62593
30618,11.494,6,0.1,0.00029529,2950.9,0.0002952,2948.3,-9.7178e-05,0.11859,-9.7885e-05,-5.1895,0.65443
30619,11.402,6,0.05,1.1708e-05,117,8.9904e-06,67.551,7.2758e-12,1.429e-06,-8.9905e-06,-67.551,0.64486
30620,11.678,6,0.1,0.00028994,2897.4,0.00028985,2894.8,-9.5408e-05,0.14531,-9.6123e-05,-5.2253,0.67366
30621,11.586,6,0.05,1.1577e-05,115.69,8.8898e-06,66.795,5.4567e-12,2.0233e-06,-8.8899e-06,-66.795,0.66399
30622,11.862,6,0.1,0.00028453,2843.4,0.00028444,2840.8,-9.3621e-05,0.17542,-9.4342e-05,-5.2445,0.69308
30623,11.77,6,0.05,1.1418e-05,114.1,8.7675e-06,65.876,5.4566e-12,2.0996e-06,-8.7675e-06,-65.876,0.68332
30624,12.046,6,0.1,0.00027905,2788.6,0.00027897,2786.1,-9.181e-05,0.20961,-9.2536e-05,-5.2458,0.7127
30625,11.954,6,0.05,1.1227e-05,112.19,8.6208e-06,64.774,7.2751e-12,1.9422e-06,-8.6208e-06,-64.774,0.70284
30626,12.23,6,0.1,0.00027348,2732.9,0.0002734,2730.4,-8.9969e-05,0.24864,-9.0698e-05,-5.2278,0.7325
30627,12.138,6,0.05,1.1e-05,109.92,8.4466e-06,63.465,5.453e-12,2.8526e-06,-8.4466e-06,-63.465,0.72256
30628,12.414,6,0.1,0.00026778,2676,0.0002677,2673.5,-8.8086e-05,0.29339,-8.8816e-05,-5.1892,0.7525
30629,12.322,6,0.05,1.0732e-05,107.25,8.2412e-06,61.921,5.4556e-12,2.2878e-06,-8.2412e-06,-61.921,0.74245
30630,12.598,6,0.1,0.00026192,2617.4,0.00026184,2615,-8.6151e-05,0.34479,-8.6879e-05,-5.1288,0.77267
30631,12.506,6,0.05,1.0418e-05,104.11,8.0001e-06,60.11,5.455e-12,2.0679e-06,-8.0001e-06,-60.11,0.76254
30632,12.782,6,0.1,0.00025585,2556.7,0.00025577,2554.4,-8.4147e-05,0.40384,-8.4872e-05,-5.0458,0.79301
30633,12.69,6,0.05,1.0052e-05,100.45,7.7183e-06,57.992,3.6353e-12,3.1317e-06,-7.7183e-06,-57.993,0.7828
30634,12.966,6,0.1,0.00024952,2493.4,0.00024944,2491.2,-8.2056e-05,0.47144,-8.2777e-05,-4.9403,0.81353
30635,12.874,6,0.05,9.6241e-06,96.174,7.3901e-06,55.526,3.6407e-12,1.9962e-06,-7.3901e-06,-55.526,0.80323
30636,13.149,6,0.1,0.00024285,2426.8,0.00024278,2424.7,-7.9856e-05,0.54831,-8.0569e-05,-4.8135,0.83422
30637,13.057,6,0.05,9.1278e-06,91.215,7.009e-06,52.663,3.6319e-12,2.4616e-06,-7.009e-06,-52.663,0.82384
30638,13.333,6,0.1,0.00023576,2356,0.00023569,2354,-7.7517e-05,0.63482,-7.8223e-05,-4.6688,0.85507
30639,13.241,6,0.05,8.5537e-06,85.478,6.5682e-06,49.351,3.6304e-12,2.9153e-06,-6.5682e-06,-49.351,0.84461
30640,13.517,6,0.1,0.00022816,2280,0.00022809,2278.1,-7.5007e-05,0.73062,-7.5705e-05,-4.5125,0.87608
30641,13.425,6,0.05,7.8927e-06,78.873,6.0606e-06,45.537,3.629e-12,2.5797e-06,-6.0606e-06,-45.537,0.86554
30642,13.701,6,0.1,0.00021991,2197.5,0.00021985,2195.8,-7.2283e-05,0.83421,-7.2974e-05,-4.3544,0.89725
30643,13.609,6,0.05,7.136e-06,71.311,5.4795e-06,41.171,1.802e-12,2.6667e-06,-5.4795e-06,-41.171,0.88663
30644,13.885,6,0.1,0.00021087,2107.2,0.00021081,2105.6,-6.9298e-05,0.94218,-6.9984e-05,-4.2096,0.91856
30645,13.793,6,0.05,6.2762e-06,62.719,4.8193e-06,36.211,3.6024e-12,2.4277e-06,-4.8193e-06,-36.211,0.90787
30646,14.069,6,0.1,0.00020087,2007.3,0.00020082,2005.8,-6.5996e-05,1.0484,-6.6681e-05,-4.099,0.94002
30647,13.977,6,0.05,5.3095e-06,53.058,4.077e-06,30.633,-2.9572e-14,3.7978e-06,-4.077e-06,-30.633,0.92925
30648,14.253,6,0.1,0.00018973,1896,0.00018968,1894.5,-6.2314e-05,1.1431,-6.3005e-05,-4.0495,0.96161
30649,14.161,6,0.05,4.2378e-06,42.348,3.2541e-06,24.45,1.7857e-12,1.9052e-06,-3.2541e-06,-24.45,0.95078
30650,14.437,6,0.1,0.00017723,1771.1,0.00017718,1769.6,-5.8182e-05,1.2117,-5.8888e-05,-4.0935,0.98333
30651,14.345,6,0.05,3.0736e-06,30.715,2.3602e-06,17.733,8.4598e-13,2.7977e-06,-2.3602e-06,-17.733,0.97243
30652,14.621,6,0.1,0.00016317,1630.6,0.00016312,1629.1,-5.3533e-05,1.2352,-5.4265e-05,-4.2644,1.0052
30653,14.529,6,0.05,1.8497e-06,18.484,1.4203e-06,10.672,1.6338e-12,4.3667e-06,-1.4203e-06,-10.672,0.99421
30654,14.805,6,0.1,0.00014736,1472.6,0.0001473,1470.9,-4.8301e-05,1.1888,-4.907e-05,-4.5898,1.0271
30655,14.713,6,0.05,6.8553e-07,6.8505,5.264e-07,3.9552,5.6349e-14,1.5514e-06,-5.264e-07,-3.9552,1.0161
30656,14.989,6,0.1,0.00012963,1295.4,0.00012956,1293.4,-4.2438e-05,1.0519,-4.3253e-05,-5.0704,1.0492
30657,14.897,6,0.05,8.4822e-07,8.4764,6.5133e-07,4.8939,1.0023e-13,1.0866e-05,-6.5133e-07,-4.8938,1.0381
30658,15.172,6,0.1,0.00010991,1098.4,0.00010983,1095.9,-3.5926e-05,0.7791,-3.6783e-05,-5.6617,1.0713
30659,15.08,6,0.05,1.8701e-06,18.689,1.436e-06,10.79,-3.046e-22,4.7719e-06,-1.436e-06,-10.79,1.0602
30660,15.356,6,0.1,8.8234e-05,881.73,8.8135e-05,878.85,-2.8773e-05,0.44908,-2.9655e-05,-6.1786,1.0935
30661,15.264,6,0.05,2.6658e-06,26.64,2.047e-06,15.381,-8.3527e-13,4.5979e-06,-2.047e-06,-15.381,1.0824
30662,15.54,6,0.1,6.4719e-05,646.74,6.4604e-05,643.41,-2.1069e-05,-0.30116,-2.187e-05,-6.3231,1.1158
30663,15.448,6,0.05,2.9847e-06,29.826,2.2919e-06,17.22,-4.5077e-13,4.5552e-06,-2.2919e-06,-17.22,1.1046
30664,15.724,6,0.1,3.9287e-05,392.6,3.9189e-05,389.78,-1.2625e-05,0.47112,-1.3491e-05,-6.0293,1.1381
30665,15.632,6,0.05,2.5957e-06,25.939,1.9932e-06,14.976,1.3684e-14,4.08e-06,-1.9932e-06,-14.976,1.1269
30666,15.908,6,0.1,1.3485e-05,134.75,1.3565e-05,137.73,-3.6123e-06,8.6701,-5.0418e-06,-2.0709,1.1604
30667,15.816,6,0.05,7.8225e-07,7.8171,6.0067e-07,4.5132,6.1753e-13,7.508e-06,-6.0067e-07,-4.5132,1.1492
30668,16,6,0.05,2.3916e-06,23.899,1.8364e-06,13.798,-7.2323e-13,-8.2588e-07,-1.8364e-06,-13.798,1.1716
30669,15.724,6,0,3.9287e-05,392.6,1.3491e-05,6.0293,1.2625e-05,-0.47112,-3.9189e-05,-389.78,1.1381
30670,15.908,6,0,1.3485e-05,134.75,5.0418e-06,2.0709,3.6123e-06,-8.6701,-1.3565e-05,-137.73,1.1604
30671,15.54,6,0,6.4719e-05,646.74,2.187e-05,6.3231,2.1069e-05,0.30116,-6.4604e-05,-643.41,1.1158
30672,15.356,6,0,8.8234e-05,881.73,2.9655e-05,6.1786,2.8773e-05,-0.44908,-8.8135e-05,-878.85,1.0935
30673,15.172,6,0,0.00010991,1098.4,3.6783e-05,5.6617,3.5926e-05,-0.7791,-0.00010983,-1095.9,1.0713
30674,14.989,6,0,0.00012963,1295.4,4.3253e-05,5.0704,4.2438e-05,-1.0519,-0.00012956,-1293.4,1.0492
30675,14.805,6,0,0.00014736,1472.6,4.907e-05,4.5898,4.8301e-05,-1.1888,-0.0001473,-1470.9,1.0271
30676,14.621,6,0,0.00016317,1630.6,5.4265e-05,4.2644,5.3533e-05,-1.2352,-0.00016312,-1629.1,1.0052
30677,14.437,6,0,0.00017723,1771.1,5.8888e-05,4.0935,5.8182e-05,-1.2117,-0.00017718,-1769.6,0.98333
30678,14.253,6,0,0.00018973,1896,6.3005e-05,4.0495,6.2314e-05,-1.1431,-0.00018968,-1894.5,0.96161
30679,14.069,6,0,0.00020087,2007.3,6.6681e-05,4.099,6.5996e-05,-1.0484,-0.00020082,-2005.8,0.94002
30680,13.885,6,0,0.00021087,2107.2,6.9984e-05,4.2096,6.9298e-05,-0.94218,-0.00021081,-2105.6,0.91856
30681,13.701,6,0,0.00021991,2197.5,7.2974e-05,4.3544,7.2283e-05,-0.83421,-0.00021985,-2195.8,0.89725
30682,13.517,6,0,0.00022816,2280,7.5705e-05,4.5125,7.5007e-05,-0.73062,-0.00022809,-2278.1,0.87608
30683,13.333,6,0,0.00023576,2356,7.8223e-05,4.6688,7.7517e-05,-0.63482,-0.00023569,-2354,0.85507
30684,13.149,6,0,0.00024285,2426.8,8.0569e-05,4.8135,7.9856e-05,-0.54831,-0.00024278,-2424.7,0.83422
30685,12.966,6,0,0.00024952,2493.4,8.2777e-05,4.9403,8.2056e-05,-0.47144,-0.00024944,-2491.2,0.81353
30686,12.782,6,0,0.00025585,2556.7,8.4872e-05,5.0458,8.4147e-05,-0.40384,-0.00025577,-2554.4,0.79301
30687,12.598,6,0,0.00026192,2617.4,8.6879e-05,5.1289,8.6151e-05,-0.34479,-0.00026184,-2615,0.77267
30688,12.414,6,0,0.00026778,2676,8.8816e-05,5.1892,8.8086e-05,-0.29339,-0.0002677,-2673.5,0.7525
30689,12.23,6,0,0.00027348,2732.9,9.0698e-05,5.2278,8.9969e-05,-0.24864,-0.0002734,-2730.4,0.7325
30690,12.046,6,0,0.00027905,2788.6,9.2536e-05,5.2458,9.181e-05,-0.20961,-0.00027897,-2786.1,0.7127
30691,11.862,6,0,0.00028453,2843.4,9.4342e-05,5.2445,9.3621e-05,-0.17542,-0.00028444,-2840.8,0.69308
30692,11.678,6,0,0.00028994,2897.4,9.6123e-05,5.2253,9.5408e-05,-0.14531,-0.00028985,-2894.8,0.67366
30693,11.494,6,0,0.00029529,2950.9,9.7885e-05,5.1895,9.7178e-05,-0.11859,-0.0002952,-2948.3,0.65443
30694,11.31,6,0,0.0003006,3004,9.9633e-05,5.1383,9.8937e-05,-0.0946,-0.00030052,-3001.4,0.6354
30695,11.126,6,0,0.00030589,3056.8,0.00010137,5.0728,0.00010069,-0.072806,-0.00030581,-3054.3,0.61657
30696,10.943,6,0,0.00031117,3109.5,0.0001031,4.9938,0.00010243,-0.052756,-0.00031108,-3107.1,0.59795
30697,10.759,6,0,0.00031643,3162.2,0.00010483,4.9019,0.00010418,-0.034049,-0.00031635,-3159.7,0.57953
30698,10.575,6,0,0.0003217,3214.8,0.00010656,4.7977,0.00010592,-0.016364,-0.00032162,-3212.4,0.56134
30699,10.391,6,0,0.00032697,3267.4,0.00010829,4.6817,0.00010767,0.0006546,-0.00032689,-3265.1,0.54336
30700,10.207,6,0,0.00033225,3320.2,0.00011002,4.554,0.00010942,0.01728,-0.00033217,-3317.9,0.52559
30701,10.023,6,0,0.00033754,3373.1,0.00011175,4.4148,0.00011117,0.03372,-0.00033746,-3370.8,0.50806
30702,9.8391,6,0,0.00034284,3426.1,0.00011349,4.2643,0.00011293,0.050198,-0.00034277,-3423.9,0.49075
30703,9.6552,6,0,0.00034817,3479.3,0.00011523,4.1024,0.0001147,0.066903,-0.00034809,-3477.2,0.47367
30704,9.4713,6,0,0.00035351,3532.6,0.00011698,3.929,0.00011647,0.084022,-0.00035344,-3530.6,0.45683
30705,9.2874,6,0,0.00035887,3586.2,0.00011874,3.7441,0.00011825,0.10173,-0.00035881,-3584.3,0.44023
30706,9.1034,6,0,0.00036426,3640.1,0.0001205,3.5474,0.00012004,0.12018,-0.0003642,-3638.2,0.42387
30707,8.9195,6,0,0.00036967,3694.1,0.00012226,3.3389,0.00012184,0.13953,-0.00036961,-3692.4,0.40776
30708,8.7356,6,0,0.00037511,3748.5,0.00012404,3.1183,0.00012364,0.15994,-0.00037505,-3746.8,0.39189
30709,8.5517,6,0,0.00038057,3803.1,0.00012582,2.8855,0.00012546,0.18156,-0.00038052,-3801.5,0.37628
30710,8.3678,6,0,0.00038606,3858,0.00012761,2.6404,0.00012729,0.20455,-0.00038601,-3856.5,0.36093
30711,8.1839,6,0,0.00039159,3913.2,0.00012941,2.3829,0.00012912,0.22907,-0.00039154,-3911.9,0.34583
30712,8,6,0,0.00039714,3968.7,0.00013122,2.1129,0.00013097,0.25529,-0.0003971,-3967.5,0.331
30713,7.8161,6,0,0.00040273,4024.5,0.00013304,1.8306,0.00013283,0.28338,-0.00040269,-4023.4,0.31644
30714,7.6322,6,0,0.00040835,4080.7,0.00013487,1.5362,0.00013471,0.31353,-0.00040832,-4079.7,0.30216
30715,7.4483,6,0,0.00041401,4137.2,0.00013671,1.2301,0.00013659,0.34593,-0.00041398,-4136.4,0.28814
30716,7.2644,6,0,0.0004197,4194.1,0.00013856,0.9129,0.00013849,0.38076,-0.00041968,-4193.5,0.27441
30717,7.0805,6,0,0.00042543,4251.4,0.00014042,0.58564,0.0001404,0.41802,-0.00042542,-4250.9,0.26097
30718,6.8966,6,0,0.00043121,4309.1,0.00014232,0.45929,0.0001423,0.24816,-0.0004312,-4308.8,0.24781
30719,6.7126,6,0,0.00043702,4367.2,0.00014427,0.50272,0.00014419,-0.095947,-0.00043702,-4367,0.23494
30720,6.5287,6,0,0.00044289,4425.8,0.00014622,0.54977,0.00014609,-0.44589,-0.00044288,-4425.8,0.22236
30721,6.3448,6,0,0.00044879,4484.8,0.00014819,0.60058,0.00014801,-0.79904,-0.0004488,-4484.9,0.21009
30722,6.1609,6,0,0.00045475,4544.4,0.00015018,0.65543,0.00014994,-1.1523,-0.00045476,-4544.6,0.19812
30723,5.977,6,0,0.00046076,4604.4,0.00015218,0.71468,0.00015189,-1.5017,-0.00046077,-4604.8,0.18646
30724,5.7931,6,0,0.00046682,4665,0.00015421,0.77867,0.00015386,-1.8426,-0.00046684,-4665.5,0.17511
30725,5.6092,6,0,0.00047294,4726.1,0.00015625,0.8478,0.00015585,-2.1693,-0.00047296,-4726.8,0.16408
30726,5.4253,6,0,0.00047911,4787.8,0.00015831,0.92251,0.00015785,-2.4747,-0.00047913,-4788.6,0.15336
30727,5.2414,6,0,0.00048534,4850.1,0.00016038,1.0033,0.00015988,-2.7508,-0.00048537,-4850.9,0.14297
30728,5.0575,6,0,0.00049163,4912.9,0.00016248,1.0906,0.00016194,-2.9874,-0.00049167,-4913.9,0.13291
30729,4.8736,6,0,0.00049799,4976.4,0.00016459,1.1852,0.00016401,-3.173,-0.00049802,-4977.4,0.12318
30730,4.6897,6,0,0.0005044,5040.6,0.00016672,1.2877,0.00016611,-3.2936,-0.00050444,-5041.6,0.11379
30731,4.5057,6,0,0.00051088,5105.3,0.00016887,1.3989,0.00016824,-3.333,-0.00051091,-5106.3,0.10475
30732,4.3218,6,0,0.00051742,5170.6,0.00017104,1.5201,0.0001704,-3.2723,-0.00051745,-5171.5,0.096043
30733,4.1379,6,0,0.00052401,5236.5,0.00017322,1.6526,0.00017258,-3.0893,-0.00052404,-5237.2,0.08769
30734,3.954,6,0,0.00053066,5302.9,0.0001754,1.7986,0.0001748,-2.7588,-0.00053068,-5303.4,0.079693
30735,3.7701,6,0,0.00053735,5369.8,0.0001776,1.9619,0.00017704,-2.2523,-0.00053735,-5369.9,0.072054
30736,3.5862,6,0,0.00054406,5436.9,0.0001798,2.1499,0.00017931,-1.5397,-0.00054405,-5436.6,0.06478
30737,3.4023,6,0,0.00055079,5504.1,0.00018199,2.3812,0.00018159,-0.5953,-0.00055076,-5503.2,0.057874
30738,3.2184,6,0,0.00055751,5571.2,0.00018418,2.7204,0.00018389,0.56807,-0.00055745,-5569.6,0.05134
30739,3.0345,6,0,0.00056418,5637.9,0.00018638,3.4562,0.00018615,1.7229,-0.00056409,-5635.3,0.045184
30740,2.8506,6,0,0.00057075,5703.6,0.00018866,5.1337,0.00018829,2.397,-0.00057063,-5699.8,0.039409
30741,2.6667,6,0,0.00057718,5767.8,0.00019097,7.654,0.00019032,2.7769,-0.000577,-5762.6,0.03402
30742,2.4828,6,0,0.00058337,5829.7,0.00019327,10.895,0.00019223,3.0912,-0.00058313,-5822.7,0.029021
30743,2.2989,6,0,0.00058923,5888.2,0.00019552,14.926,0.00019399,3.4008,-0.00058891,-5879,0.024415
30744,2.1149,6,0,0.00059459,5941.8,0.00019769,19.892,0.00019554,3.7269,-0.00059419,-5930,0.020207
30745,1.931,6,0,0.00059926,5988.5,0.00019973,25.992,0.00019681,4.0813,-0.00059875,-5973.4,0.016399
30746,1.7471,6,0,0.00060297,6025.5,0.00020156,33.499,0.00019769,4.476,-0.00060232,-6006.5,0.012995
30747,1.5632,6,0,0.00060532,6049,0.00020308,42.783,0.00019804,4.9183,-0.0006045,-6025.1,0.0099947
30748,1.3793,6,0,0.00060574,6053.3,0.00020417,54.392,0.00019765,5.4399,-0.00060471,-6023.2,0.0074001
30749,1.1954,6,0,0.00060339,6029.7,0.00020459,69.103,0.00019619,6.0075,-0.00060209,-5991.9,0.0052101
30750,1.0115,6,0,0.00059692,5965,0.00020401,88.345,0.00019316,6.8215,-0.00059525,-5917,0.0034219
30751,0.82759,6,0,0.00058408,5836.8,0.0002019,114.19,0.00018769,7.4369,-0.00058194,-5775.3,0.0020291
30752,0.64368,6,0,0.00056069,5603,0.00019724,151.99,0.0001782,8.885,-0.00055782,-5521.2,0.0010212
30753,0.45977,6,0,0.00051888,5185.2,0.00018832,213.64,0.00016167,13.41,-0.00051473,-5068.8,0.0003804
30754,0.27586,6,0,0.00043331,4330.1,0.00017161,335.46,0.00012442,-19.13,-0.00042684,-4161.1,8.3872e-05
30755,0.091954,6,0,0.00025622,2560.4,0.00014887,899.8,5.1198e-05,165.91,-0.00023007,-1947.4,2.8726e-05
30756,16,5.9091,0,1.0514e-05,105.07,4.4797e-06,13.888,2.996e-06,2.7405,-1.0187e-05,-96.31,1.1721
30757,5.1657e-14,5.9091,0,0.00013962,1395.2,7.4371e-05,144.79,4.898e-06,-377.2,-0.00013604,-1436.2,0
30758,0.27586,7.1118e-32,0,0.00043331,4330.1,0.00017161,335.46,0.00012442,-19.13,-0.00042684,-4161.1,8.3872e-05
30759,0.091954,2.3706e-32,0,0.00025622,2560.4,0.00014887,899.8,5.1198e-05,165.91,-0.00023007,-1947.4,2.8726e-05
30760,0.45977,1.1853e-31,0,0.00051888,5185.2,0.00018832,213.64,0.00016167,13.41,-0.00051473,-5068.8,0.0003804
30761,0.64368,1.6594e-31,0,0.00056069,5603,0.00019724,151.99,0.0001782,8.885,-0.00055782,-5521.2,0.0010212
30762,0.82759,2.1335e-31,0,0.00058408,5836.8,0.0002019,114.19,0.00018769,7.4369,-0.00058194,-5775.3,0.0020291
30763,1.0115,2.6076e-31,0,0.00059692,5965,0.00020401,88.345,0.00019316,6.8215,-0.00059525,-5917,0.0034219
30764,1.1954,3.0818e-31,0,0.00060339,6029.7,0.00020459,69.103,0.00019619,6.0075,-0.00060209,-5991.9,0.0052101
30765,1.3793,3.5559e-31,0,0.00060574,6053.3,0.00020417,54.392,0.00019765,5.4399,-0.00060471,-6023.2,0.0074001
30766,1.5632,4.03e-31,0,0.00060532,6049,0.00020308,42.783,0.00019804,4.9183,-0.0006045,-6025.1,0.0099947
30767,1.7471,4.5041e-31,0,0.00060297,6025.5,0.00020156,33.499,0.00019769,4.476,-0.00060232,-6006.5,0.012995
30768,1.931,4.9782e-31,0,0.00059926,5988.5,0.00019973,25.992,0.00019681,4.0813,-0.00059875,-5973.4,0.016399
30769,2.1149,5.4524e-31,0,0.00059459,5941.8,0.00019769,19.892,0.00019554,3.7269,-0.00059419,-5930,0.020207
30770,2.2989,5.9265e-31,0,0.00058923,5888.2,0.00019552,14.926,0.00019399,3.4008,-0.00058891,-5879,0.024415
30771,2.4828,6.4006e-31,0,0.00058337,5829.7,0.00019327,10.895,0.00019223,3.0912,-0.00058313,-5822.7,0.029021
30772,2.6667,6.8747e-31,0,0.00057718,5767.8,0.00019097,7.654,0.00019032,2.7769,-0.000577,-5762.6,0.03402
30773,2.8506,7.3488e-31,0,0.00057075,5703.6,0.00018866,5.1337,0.00018829,2.397,-0.00057063,-5699.8,0.039409
30774,3.0345,7.8229e-31,0,0.00056418,5637.9,0.00018638,3.4562,0.00018615,1.7229,-0.00056409,-5635.3,0.045184
30775,3.2184,8.2971e-31,0,0.00055751,5571.2,0.00018418,2.7204,0.00018389,0.56806,-0.00055745,-5569.6,0.05134
30776,3.4023,8.7712e-31,0,0.00055079,5504.1,0.00018199,2.3812,0.00018159,-0.59531,-0.00055076,-5503.2,0.057874
30777,3.5862,9.2453e-31,0,0.00054406,5436.9,0.0001798,2.1499,0.00017931,-1.5397,-0.00054405,-5436.6,0.06478
30778,3.7701,9.7194e-31,0,0.00053735,5369.8,0.0001776,1.9619,0.00017704,-2.2523,-0.00053735,-5369.9,0.072054
30779,3.954,1.0194e-30,0,0.00053066,5302.9,0.0001754,1.7986,0.0001748,-2.7588,-0.00053068,-5303.4,0.079693
30780,4.1379,1.0668e-30,0,0.00052401,5236.5,0.00017322,1.6526,0.00017258,-3.0893,-0.00052404,-5237.2,0.08769
30781,4.3218,1.1142e-30,0,0.00051742,5170.6,0.00017104,1.5201,0.0001704,-3.2723,-0.00051745,-5171.5,0.096043
30782,4.5057,1.1616e-30,0,0.00051088,5105.3,0.00016887,1.3989,0.00016824,-3.333,-0.00051091,-5106.3,0.10475
30783,4.6897,1.209e-30,0,0.0005044,5040.6,0.00016672,1.2877,0.00016611,-3.2936,-0.00050444,-5041.6,0.11379
30784,4.8736,1.2564e-30,0,0.00049799,4976.4,0.00016459,1.1852,0.00016401,-3.173,-0.00049802,-4977.4,0.12318
30785,5.0575,1.3038e-30,0,0.00049163,4912.9,0.00016248,1.0906,0.00016194,-2.9874,-0.00049167,-4913.9,0.13291
30786,5.2414,1.3512e-30,0,0.00048534,4850.1,0.00016038,1.0033,0.00015988,-2.7508,-0.00048537,-4850.9,0.14297
30787,5.4253,1.3986e-30,0,0.00047911,4787.8,0.00015831,0.92251,0.00015785,-2.4747,-0.00047913,-4788.6,0.15336
30788,5.6092,1.4461e-30,0,0.00047294,4726.1,0.00015625,0.8478,0.00015585,-2.1693,-0.00047296,-4726.8,0.16408
30789,5.7931,1.4935e-30,0,0.00046682,4665,0.00015421,0.77867,0.00015386,-1.8426,-0.00046684,-4665.5,0.17511
30790,5.977,1.5409e-30,0,0.00046076,4604.4,0.00015218,0.71468,0.00015189,-1.5017,-0.00046077,-4604.8,0.18646
30791,6.1609,1.5883e-30,0,0.00045475,4544.4,0.00015018,0.65544,0.00014994,-1.1523,-0.00045476,-4544.6,0.19812
30792,6.3448,1.6357e-30,0,0.00044879,4484.8,0.00014819,0.60058,0.00014801,-0.79904,-0.0004488,-4484.9,0.21009
30793,6.5287,1.6831e-30,0,0.00044289,4425.8,0.00014622,0.54977,0.00014609,-0.44589,-0.00044288,-4425.8,0.22236
30794,6.7126,1.7305e-30,0,0.00043702,4367.2,0.00014426,0.50272,0.00014419,-0.095944,-0.00043702,-4367,0.23494
30795,6.8966,1.7779e-30,0,0.00043121,4309.1,0.00014232,0.45929,0.0001423,0.24816,-0.0004312,-4308.8,0.24781
30796,7.0805,1.8254e-30,0,0.00042543,4251.4,0.00014042,0.58565,0.0001404,0.41803,-0.00042542,-4250.9,0.26097
30797,7.2644,1.8728e-30,0,0.0004197,4194.1,0.00013856,0.91291,0.00013849,0.38076,-0.00041968,-4193.5,0.27441
30798,7.4483,1.9202e-30,0,0.00041401,4137.2,0.00013671,1.2301,0.00013659,0.34593,-0.00041398,-4136.4,0.28814
30799,7.6322,1.9676e-30,0,0.00040835,4080.7,0.00013487,1.5362,0.00013471,0.31353,-0.00040832,-4079.7,0.30216
30800,7.8161,2.015e-30,0,0.00040273,4024.5,0.00013304,1.8306,0.00013283,0.28338,-0.00040269,-4023.4,0.31644
30801,8,2.0624e-30,0,0.00039714,3968.7,0.00013122,2.1129,0.00013097,0.25529,-0.0003971,-3967.5,0.331
30802,8.1839,2.1098e-30,0,0.00039159,3913.2,0.00012941,2.3829,0.00012912,0.22907,-0.00039154,-3911.9,0.34583
30803,8.3678,2.1572e-30,0,0.00038606,3858,0.00012761,2.6404,0.00012729,0.20455,-0.00038601,-3856.5,0.36093
30804,8.5517,2.2046e-30,0,0.00038057,3803.1,0.00012582,2.8855,0.00012546,0.18156,-0.00038052,-3801.5,0.37628
30805,8.7356,2.2521e-30,0,0.00037511,3748.5,0.00012404,3.1183,0.00012364,0.15994,-0.00037505,-3746.8,0.39189
30806,8.9195,2.2995e-30,0,0.00036967,3694.1,0.00012226,3.3389,0.00012184,0.13953,-0.00036961,-3692.4,0.40776
30807,9.1034,2.3469e-30,0,0.00036426,3640.1,0.0001205,3.5474,0.00012004,0.12018,-0.0003642,-3638.2,0.42387
30808,9.2874,2.3943e-30,0,0.00035887,3586.2,0.00011874,3.7441,0.00011825,0.10173,-0.00035881,-3584.3,0.44023
30809,9.4713,2.4417e-30,0,0.00035351,3532.6,0.00011698,3.929,0.00011647,0.084023,-0.00035344,-3530.6,0.45683
30810,9.6552,2.4891e-30,0,0.00034817,3479.3,0.00011523,4.1024,0.0001147,0.066903,-0.00034809,-3477.2,0.47367
30811,9.8391,2.5365e-30,0,0.00034284,3426.1,0.00011349,4.2643,0.00011293,0.050199,-0.00034277,-3423.9,0.49075
30812,10.023,2.5839e-30,0,0.00033754,3373.1,0.00011175,4.4149,0.00011117,0.03372,-0.00033746,-3370.8,0.50806
30813,10.207,2.6314e-30,0,0.00033225,3320.2,0.00011002,4.554,0.00010942,0.01728,-0.00033217,-3317.9,0.52559
30814,10.391,2.6788e-30,0,0.00032697,3267.4,0.00010829,4.6817,0.00010767,0.00065444,-0.00032689,-3265.1,0.54336
30815,10.575,2.7262e-30,0,0.0003217,3214.8,0.00010656,4.7977,0.00010592,-0.016364,-0.00032162,-3212.4,0.56134
30816,10.759,2.7736e-30,0,0.00031643,3162.2,0.00010483,4.902,0.00010418,-0.034049,-0.00031635,-3159.7,0.57953
30817,10.943,2.821e-30,0,0.00031117,3109.5,0.0001031,4.9938,0.00010243,-0.052756,-0.00031108,-3107.1,0.59795
30818,11.126,2.8684e-30,0,0.00030589,3056.8,0.00010137,5.0728,0.00010069,-0.072806,-0.00030581,-3054.3,0.61657
30819,11.31,2.9158e-30,0,0.0003006,3004,9.9633e-05,5.1383,9.8937e-05,-0.0946,-0.00030052,-3001.4,0.6354
30820,11.494,2.9632e-30,0,0.00029529,2950.9,9.7885e-05,5.1895,9.7178e-05,-0.11859,-0.0002952,-2948.3,0.65443
30821,11.678,3.0106e-30,0,0.00028994,2897.4,9.6123e-05,5.2253,9.5408e-05,-0.14531,-0.00028985,-2894.8,0.67366
30822,11.862,3.0581e-30,0,0.00028453,2843.4,9.4342e-05,5.2445,9.3621e-05,-0.17542,-0.00028444,-2840.8,0.69308
30823,12.046,3.1055e-30,0,0.00027905,2788.6,9.2536e-05,5.2458,9.181e-05,-0.20961,-0.00027897,-2786.1,0.7127
30824,12.23,3.1529e-30,0,0.00027348,2732.9,9.0698e-05,5.2278,8.9969e-05,-0.24864,-0.0002734,-2730.4,0.7325
30825,12.414,3.2003e-30,0,0.00026778,2676,8.8816e-05,5.1892,8.8086e-05,-0.29339,-0.0002677,-2673.5,0.7525
30826,12.598,3.2477e-30,0,0.00026192,2617.4,8.6879e-05,5.1289,8.6151e-05,-0.34479,-0.00026184,-2615,0.77267
30827,12.782,3.2951e-30,0,0.00025585,2556.7,8.4872e-05,5.0458,8.4147e-05,-0.40384,-0.00025577,-2554.4,0.79301
30828,12.966,3.3425e-30,0,0.00024952,2493.4,8.2777e-05,4.9403,8.2056e-05,-0.47144,-0.00024944,-2491.2,0.81353
30829,13.149,3.3899e-30,0,0.00024285,2426.8,8.0569e-05,4.8135,7.9856e-05,-0.54831,-0.00024278,-2424.7,0.83422
30830,13.333,3.4374e-30,0,0.00023576,2356,7.8223e-05,4.6689,7.7517e-05,-0.63482,-0.00023569,-2354,0.85507
30831,13.517,3.4848e-30,0,0.00022816,2280,7.5705e-05,4.5125,7.5007e-05,-0.73062,-0.00022809,-2278.1,0.87608
30832,13.701,3.5322e-30,0,0.00021991,2197.5,7.2974e-05,4.3544,7.2283e-05,-0.83421,-0.00021985,-2195.8,0.89725
30833,13.885,3.5796e-30,0,0.00021087,2107.2,6.9984e-05,4.2096,6.9298e-05,-0.94218,-0.00021081,-2105.6,0.91856
30834,14.069,3.627e-30,0,0.00020087,2007.3,6.6681e-05,4.099,6.5996e-05,-1.0484,-0.00020082,-2005.8,0.94002
30835,14.253,3.6744e-30,0,0.00018973,1896,6.3005e-05,4.0495,6.2314e-05,-1.1431,-0.00018968,-1894.5,0.96161
30836,14.437,3.7218e-30,0,0.00017723,1771.1,5.8888e-05,4.0935,5.8182e-05,-1.2117,-0.00017718,-1769.6,0.98333
30837,14.621,3.7692e-30,0,0.00016317,1630.6,5.4265e-05,4.2644,5.3533e-05,-1.2352,-0.00016312,-1629.1,1.0052
30838,14.805,3.8166e-30,0,0.00014736,1472.6,4.907e-05,4.5898,4.8301e-05,-1.1888,-0.0001473,-1470.9,1.0271
30839,14.989,3.8641e-30,0,0.00012963,1295.4,4.3253e-05,5.0704,4.2438e-05,-1.0519,-0.00012956,-1293.4,1.0492
30840,15.172,3.9115e-30,0,0.00010991,1098.4,3.6783e-05,5.6617,3.5926e-05,-0.7791,-0.00010983,-1095.9,1.0713
30841,15.356,3.9589e-30,0,8.8234e-05,881.73,2.9655e-05,6.1786,2.8773e-05,-0.44908,-8.8135e-05,-878.85,1.0935
30842,15.54,4.0063e-30,0,6.4719e-05,646.74,2.187e-05,6.3231,2.1069e-05,0.30116,-6.4604e-05,-643.41,1.1158
30843,15.724,4.0537e-30,0,3.9287e-05,392.6,1.3491e-05,6.0293,1.2625e-05,-0.47112,-3.9189e-05,-389.78,1.1381
30844,15.908,4.1011e-30,0,1.3485e-05,134.75,5.0418e-06,2.0709,3.6123e-06,-8.6701,-1.3565e-05,-137.73,1.1604
30845,16,0.090909,0,1.0514e-05,105.07,4.4797e-06,13.888,2.996e-06,2.7405,-1.0187e-05,-96.31,1.1721
30846,7.9472e-16,0.090909,0,0.00013962,1395.2,7.4371e-05,144.79,4.898e-06,-377.2,-0.00013604,-1436.2,0
30847,16.44,0,0,2.9785e-05,297.64,1.0518e-05,8.4919,9.4348e-06,0.34928,-2.9626e-05,-293.14,1.2359
30848,16.258,0,0,1.0464e-05,104.56,4.0227e-06,2.7803,2.7153e-06,-7.0428,-1.0501e-05,-106.35,1.2107
30849,16.622,0,0,4.7387e-05,473.54,1.648e-05,10.69,1.5187e-05,0.97528,-4.7181e-05,-467.64,1.2611
30850,16.804,0,0,6.2433e-05,623.9,2.1553e-05,11.63,2.0057e-05,0.38691,-6.2221e-05,-617.82,1.2864
30851,16.986,0,0,7.5145e-05,750.93,2.5755e-05,11.562,2.4234e-05,0.1293,-7.4939e-05,-745.02,1.3117
30852,17.169,0,0,8.5546e-05,854.87,2.9144e-05,10.913,2.7681e-05,-0.085046,-8.5356e-05,-849.4,1.3371
30853,17.351,0,0,9.3744e-05,936.79,3.1781e-05,10.015,3.0421e-05,-0.19957,-9.3572e-05,-931.84,1.3625
30854,17.533,0,0,9.9913e-05,998.44,3.3739e-05,9.0529,3.2501e-05,-0.25158,-9.976e-05,-994,1.3879
30855,17.715,0,0,0.00010428,1042,3.5103e-05,8.1388,3.3985e-05,-0.25769,-0.00010414,-1038.1,1.4135
30856,17.897,0,0,0.00010707,1070,3.5958e-05,7.3299,3.4951e-05,-0.23635,-0.00010695,-1066.4,1.4391
30857,18.079,0,0,0.00010854,1084.7,3.6384e-05,6.6515,3.5472e-05,-0.20041,-0.00010843,-1081.4,1.4648
30858,18.262,0,0,0.0001089,1088.3,3.6456e-05,6.1095,3.5622e-05,-0.15898,-0.0001088,-1085.3,1.4905
30859,18.444,0,0,0.00010835,1082.8,3.6238e-05,5.699,3.5464e-05,-0.11787,-0.00010826,-1080,1.5163
30860,18.626,0,0,0.00010706,1069.8,3.5785e-05,5.4102,3.5054e-05,-0.080518,-0.00010697,-1067.2,1.5422
30861,18.808,0,0,0.00010517,1050.9,3.5144e-05,5.2308,3.4441e-05,-0.04874,-0.00010508,-1048.3,1.5682
30862,18.99,0,0,0.00010279,1027.2,3.4353e-05,5.1483,3.3664e-05,-0.023254,-0.0001027,-1024.6,1.5942
30863,19.172,0,0,0.00010004,999.7,3.3443e-05,5.1509,3.2757e-05,-0.0041067,-9.995e-05,-997.11,1.6203
30864,19.355,0,0,9.6984e-05,969.17,3.2441e-05,5.2274,3.1746e-05,0.0090462,-9.6894e-05,-966.55,1.6465
30865,19.537,0,0,9.3695e-05,936.3,3.1367e-05,5.3675,3.0654e-05,0.016752,-9.3602e-05,-933.6,1.6727
30866,19.719,0,0,9.0222e-05,901.6,3.0237e-05,5.5623,2.9499e-05,0.019629,-9.0126e-05,-898.8,1.699
30867,19.901,0,0,8.661e-05,865.5,2.9065e-05,5.8033,2.8295e-05,0.0183,-8.6509e-05,-862.58,1.7254
30868,20.083,0,0,8.2891e-05,828.33,2.7861e-05,6.0831,2.7053e-05,0.013346,-8.2785e-05,-825.27,1.7518
30869,20.266,0,0,7.9092e-05,790.37,2.6634e-05,6.395,2.5783e-05,0.0052947,-7.8981e-05,-787.15,1.7782
30870,20.448,0,0,7.5234e-05,751.82,2.5389e-05,6.733,2.4492e-05,-0.0054167,-7.5117e-05,-748.43,1.8047
30871,20.63,0,0,7.1334e-05,712.85,2.4133e-05,7.0914,2.3187e-05,-0.018425,-7.1211e-05,-709.29,1.8313
30872,20.812,0,0,6.7406e-05,673.59,2.2868e-05,7.4652,2.187e-05,-0.033433,-6.7276e-05,-669.85,1.8579
30873,20.994,0,0,6.3459e-05,634.16,2.1599e-05,7.8498,2.0547e-05,-0.050222,-6.3323e-05,-630.22,1.8846
30874,21.176,0,0,5.9503e-05,594.62,2.0326e-05,8.2407,1.922e-05,-0.068642,-5.9359e-05,-590.49,1.9113
30875,21.359,0,0,5.5542e-05,555.04,1.9053e-05,8.6339,1.7892e-05,-0.08861,-5.5391e-05,-550.71,1.938
30876,21.541,0,0,5.1583e-05,515.47,1.778e-05,9.0252,1.6564e-05,-0.11011,-5.1425e-05,-510.95,1.9648
30877,21.723,0,0,4.7629e-05,475.96,1.6508e-05,9.4106,1.5238e-05,-0.13321,-4.7464e-05,-471.25,1.9916
30878,21.905,0,0,4.3683e-05,436.53,1.5238e-05,9.7859,1.3915e-05,-0.15803,-4.3511e-05,-431.63,2.0184
30879,22.087,0,0,3.9749e-05,397.22,1.3971e-05,10.147,1.2596e-05,-0.18478,-3.957e-05,-392.14,2.0453
30880,22.269,0,0,3.583e-05,358.05,1.2707e-05,10.488,1.1282e-05,-0.21381,-3.5643e-05,-352.79,2.0721
30881,22.452,0,0,3.1927e-05,319.05,1.1446e-05,10.803,9.9756e-06,-0.24558,-3.1733e-05,-313.63,2.099
30882,22.634,0,0,2.8045e-05,280.26,1.0189e-05,11.085,8.6767e-06,-0.28079,-2.7844e-05,-274.68,2.126
30883,22.816,0,0,2.4188e-05,241.71,8.9371e-06,11.324,7.3873e-06,-0.32033,-2.398e-05,-236,2.1529
30884,22.998,0,0,2.0361e-05,203.47,7.6899e-06,11.506,6.1099e-06,-0.36607,-2.0145e-05,-197.64,2.1799
30885,23.18,0,0,1.6572e-05,165.61,6.4489e-06,11.61,4.848e-06,-0.41867,-1.6349e-05,-159.69,2.2069
30886,23.362,0,0,1.2836e-05,128.27,5.2144e-06,11.589,3.6069e-06,-0.48952,-1.2605e-05,-122.3,2.2338
30887,23.545,0,0,9.1818e-06,91.755,3.9925e-06,11.416,2.3977e-06,-0.56669,-8.9384e-06,-85.742,2.2608
30888,23.727,0,0,5.6388e-06,56.349,2.7483e-06,10.493,1.2472e-06,-0.78527,-5.3883e-06,-50.642,2.2878
30889,23.909,0,0,2.356e-06,23.544,1.4075e-06,7.6392,3.1577e-07,-0.56345,-2.1259e-06,-18.909,2.3148
30890,16.167,0.090909,0,8.8874e-06,88.812,3.6307e-06,8.3233,2.489e-06,-0.25498,-8.719e-06,-84.467,1.1983
30891,24,0.090909,0,2.1563e-06,21.549,1.9697e-06,18.522,-1.7009e-07,2.4447,-1.2891e-06,-5.963,2.3284
30892,5.0067e-14,5.7273,0,0.00018317,1830.4,8.6678e-06,-1664.3,-4.5353e-06,-1763.5,-0.00024128,-3542.3,0
30893,4.8478e-14,5.5455,0,0.00026237,2621.9,3.5979e-06,-2514.4,-3.3286e-06,-2566.4,-0.00034876,-5161.9,0
30894,4.6888e-14,5.3636,0,0.00030487,3046.6,1.8727e-06,-2947.9,-2.3345e-06,-2979.5,-0.00040569,-6010.1,0
30895,4.5299e-14,5.1818,0,0.00033231,3320.8,1.1797e-06,-3217.7,-1.4966e-06,-3237.8,-0.00044212,-6548.4,0
30896,4.371e-14,5,0,0.00035113,3508.9,8.1421e-07,-3401.9,-1.032e-06,-3415.8,-0.00046711,-6917.7,0
30897,4.212e-14,4.8182,0,0.00036477,3645.2,5.9168e-07,-3535.2,-7.4758e-07,-3545.3,-0.00048522,-7185.4,0
30898,4.0531e-14,4.6364,0,0.00037497,3747.1,4.4333e-07,-3634.8,-5.5752e-07,-3642.3,-0.00049876,-7385.6,0
30899,3.8941e-14,4.4545,0,0.00038275,3824.9,3.3802e-07,-3710.8,-4.2462e-07,-3716.5,-0.0005091,-7538.5,0
30900,3.7352e-14,4.2727,0,0.00038876,3884.9,2.5971e-07,-3769.5,-3.274e-07,-3773.9,-0.00051709,-7656.6,0
30901,3.5762e-14,4.0909,0,0.00039342,3931.5,1.9917e-07,-3815,-2.5364e-07,-3818.4,-0.00052328,-7748.2,0
30902,3.4173e-14,3.9091,0,0.00039702,3967.4,1.5072e-07,-3850.1,-1.958e-07,-3852.7,-0.00052805,-7818.8,0
30903,3.2583e-14,3.7273,0,0.00039974,3994.7,1.106e-07,-3876.8,-1.4904e-07,-3878.7,-0.00053168,-7872.4,0
30904,3.0994e-14,3.5455,0,0.00040174,4014.7,7.6263e-08,-3896.4,-1.1008e-07,-3897.8,-0.00053434,-7911.8,0
30905,2.9405e-14,3.3636,0,0.00040311,4028.3,4.5994e-08,-3909.9,-7.6767e-08,-3910.8,-0.00053616,-7938.7,0
30906,2.7815e-14,3.1818,0,0.00040391,4036.3,1.9312e-08,-3917.8,-4.8357e-08,-3918.3,-0.00053721,-7954.3,0
30907,2.6226e-14,3,0,0.00040417,4038.9,3.6653e-09,-3920.4,-3.215e-08,-3920.7,-0.00053756,-7959.5,0
30908,2.4636e-14,2.8182,0,0.00040391,4036.3,1.9312e-08,-3917.8,-4.8357e-08,-3918.3,-0.00053721,-7954.3,0
30909,2.3047e-14,2.6364,0,0.00040311,4028.3,4.5994e-08,-3909.9,-7.6767e-08,-3910.8,-0.00053616,-7938.7,0
30910,2.1457e-14,2.4545,0,0.00040174,4014.7,7.6262e-08,-3896.4,-1.1008e-07,-3897.8,-0.00053434,-7911.8,0
30911,1.9868e-14,2.2727,0,0.00039974,3994.7,1.106e-07,-3876.8,-1.4904e-07,-3878.7,-0.00053168,-7872.4,0
30912,1.8279e-14,2.0909,0,0.00039702,3967.4,1.5072e-07,-3850.1,-1.958e-07,-3852.7,-0.00052805,-7818.8,0
30913,1.6689e-14,1.9091,0,0.00039342,3931.5,1.9917e-07,-3815,-2.5364e-07,-3818.4,-0.00052328,-7748.2,0
30914,1.51e-14,1.7273,0,0.00038876,3884.9,2.5971e-07,-3769.5,-3.274e-07,-3773.9,-0.00051709,-7656.6,0
30915,1.351e-14,1.5455,0,0.00038275,3824.9,3.3802e-07,-3710.8,-4.2462e-07,-3716.5,-0.0005091,-7538.5,0
30916,1.1921e-14,1.3636,0,0.00037497,3747.1,4.4333e-07,-3634.8,-5.5752e-07,-3642.3,-0.00049876,-7385.6,0
30917,1.0331e-14,1.1818,0,0.00036477,3645.2,5.9168e-07,-3535.2,-7.4758e-07,-3545.3,-0.00048522,-7185.4,0
30918,8.7419e-15,1,0,0.00035113,3508.9,8.1421e-07,-3401.9,-1.032e-06,-3415.8,-0.00046711,-6917.7,0
30919,7.1525e-15,0.81818,0,0.00033231,3320.8,1.1797e-06,-3217.7,-1.4966e-06,-3237.8,-0.00044212,-6548.4,0
30920,5.563e-15,0.63636,0,0.00030487,3046.6,1.8727e-06,-2947.9,-2.3345e-06,-2979.5,-0.00040569,-6010.1,0
30921,3.9736e-15,0.45455,0,0.00026237,2621.9,3.5979e-06,-2514.4,-3.3286e-06,-2566.4,-0.00034876,-5161.9,0
30922,2.3842e-15,0.27273,0,0.00018317,1830.4,8.6678e-06,-1664.3,-4.5353e-06,-1763.5,-0.00024128,-3542.3,0
30923,24,0.27273,0,4.8221e-06,48.188,4.6811e-06,45.288,-1.0447e-06,2.2667,-2.2491e-06,-6.7827,2.3285
30924,24,0.45455,0,6.9275e-06,69.227,6.802e-06,66.453,-1.7297e-06,2.3487,-2.9681e-06,-6.9562,2.3286
30925,24,0.63636,0,8.5618e-06,85.559,8.4452e-06,82.892,-2.2609e-06,2.4502,-3.5188e-06,-7.001,2.3288
30926,24,0.81818,0,9.9062e-06,98.994,9.7953e-06,96.396,-2.7044e-06,2.4772,-3.9649e-06,-6.9935,2.3289
30927,24,1,0,1.1033e-05,110.26,1.0927e-05,107.72,-3.0774e-06,2.4993,-4.3363e-06,-6.9595,2.329
30928,24,1.1818,0,1.1988e-05,119.79,1.1885e-05,117.31,-3.3941e-06,2.5126,-4.6493e-06,-6.9185,2.3291
30929,24,1.3636,0,1.2797e-05,127.88,1.2697e-05,125.45,-3.6632e-06,2.5221,-4.914e-06,-6.8758,2.3292
30930,24,1.5455,0,1.3483e-05,134.74,1.3385e-05,132.34,-3.8914e-06,2.5286,-5.1377e-06,-6.8353,2.3293
30931,24,1.7273,0,1.406e-05,140.5,1.3964e-05,138.14,-4.0836e-06,2.5331,-5.3256e-06,-6.7985,2.3293
30932,24,1.9091,0,1.454e-05,145.3,1.4446e-05,142.96,-4.2437e-06,2.5363,-5.4818e-06,-6.7663,2.3294
30933,24,2.0909,0,1.4933e-05,149.22,1.484e-05,146.91,-4.3747e-06,2.5384,-5.6095e-06,-6.7389,2.3294
30934,24,2.2727,0,1.5245e-05,152.34,1.5153e-05,150.04,-4.4789e-06,2.5399,-5.7109e-06,-6.7165,2.3295
30935,24,2.4545,0,1.5482e-05,154.72,1.5391e-05,152.43,-4.5582e-06,2.5408,-5.788e-06,-6.6992,2.3295
30936,24,2.6364,0,1.5649e-05,156.38,1.5558e-05,154.11,-4.6139e-06,2.5414,-5.8421e-06,-6.6869,2.3296
30937,24,2.8182,0,1.5748e-05,157.37,1.5657e-05,155.1,-4.6469e-06,2.5417,-5.8742e-06,-6.6796,2.3296
30938,24,3,0,1.5781e-05,157.7,1.569e-05,155.43,-4.6578e-06,2.5418,-5.8848e-06,-6.6771,2.3296
30939,24,3.1818,0,1.5748e-05,157.37,1.5657e-05,155.1,-4.6469e-06,2.5417,-5.8742e-06,-6.6796,2.3296
30940,24,3.3636,0,1.5649e-05,156.38,1.5558e-05,154.11,-4.6139e-06,2.5414,-5.8421e-06,-6.6869,2.3296
30941,24,3.5455,0,1.5482e-05,154.72,1.5391e-05,152.43,-4.5582e-06,2.5408,-5.788e-06,-6.6992,2.3295
30942,24,3.7273,0,1.5245e-05,152.34,1.5153e-05,150.04,-4.4789e-06,2.5399,-5.7109e-06,-6.7165,2.3295
30943,24,3.9091,0,1.4933e-05,149.22,1.484e-05,146.91,-4.3747e-06,2.5384,-5.6095e-06,-6.7389,2.3294
30944,24,4.0909,0,1.454e-05,145.3,1.4446e-05,142.96,-4.2437e-06,2.5363,-5.4818e-06,-6.7663,2.3294
30945,24,4.2727,0,1.406e-05,140.5,1.3964e-05,138.14,-4.0836e-06,2.5331,-5.3256e-06,-6.7985,2.3293
30946,24,4.4545,0,1.3483e-05,134.74,1.3385e-05,132.34,-3.8914e-06,2.5286,-5.1377e-06,-6.8353,2.3293
30947,24,4.6364,0,1.2797e-05,127.88,1.2697e-05,125.45,-3.6632e-06,2.5221,-4.914e-06,-6.8758,2.3292
30948,24,4.8182,0,1.1988e-05,119.79,1.1885e-05,117.31,-3.3941e-06,2.5126,-4.6493e-06,-6.9185,2.3291
30949,24,5,0,1.1034e-05,110.26,1.0927e-05,107.72,-3.0774e-06,2.4993,-4.3363e-06,-6.9595,2.329
30950,24,5.1818,0,9.9062e-06,98.994,9.7954e-06,96.396,-2.7044e-06,2.4772,-3.9649e-06,-6.9935,2.3289
30951,24,5.3636,0,8.5618e-06,85.559,8.4452e-06,82.892,-2.2609e-06,2.4502,-3.5188e-06,-7.001,2.3288
30952,24,5.5455,0,6.9275e-06,69.227,6.802e-06,66.453,-1.7297e-06,2.3487,-2.9681e-06,-6.9562,2.3286
30953,24,5.7273,0,4.8221e-06,48.188,4.6811e-06,45.288,-1.0447e-06,2.2667,-2.2491e-06,-6.7827,2.3285
30954,24,5.9091,0,2.1563e-06,21.549,1.9697e-06,18.522,-1.701e-07,2.4447,-1.2891e-06,-5.963,2.3284
30955,23.909,6,0,2.356e-06,23.544,1.4075e-06,7.6392,3.1577e-07,-0.56346,-2.1259e-06,-18.909,2.3148
30956,23.727,6,0,5.6388e-06,56.349,2.7483e-06,10.493,1.2472e-06,-0.78527,-5.3883e-06,-50.642,2.2878
30957,23.545,6,0,9.1818e-06,91.755,3.9925e-06,11.416,2.3977e-06,-0.56669,-8.9384e-06,-85.742,2.2608
30958,23.362,6,0,1.2836e-05,128.27,5.2144e-06,11.589,3.6069e-06,-0.48952,-1.2605e-05,-122.3,2.2338
30959,23.18,6,0,1.6572e-05,165.61,6.4489e-06,11.61,4.848e-06,-0.41867,-1.6349e-05,-159.69,2.2069
30960,22.998,6,0,2.0361e-05,203.47,7.6899e-06,11.506,6.1099e-06,-0.36607,-2.0145e-05,-197.64,2.1799
30961,22.816,6,0,2.4188e-05,241.71,8.9371e-06,11.324,7.3873e-06,-0.32034,-2.398e-05,-236,2.1529
30962,22.634,6,0,2.8045e-05,280.26,1.0189e-05,11.085,8.6767e-06,-0.28079,-2.7844e-05,-274.68,2.126
30963,22.452,6,0,3.1927e-05,319.05,1.1446e-05,10.803,9.9756e-06,-0.24558,-3.1733e-05,-313.63,2.099
30964,22.269,6,0,3.583e-05,358.05,1.2707e-05,10.488,1.1282e-05,-0.21381,-3.5643e-05,-352.79,2.0721
30965,22.087,6,0,3.9749e-05,397.22,1.3971e-05,10.147,1.2596e-05,-0.18478,-3.957e-05,-392.14,2.0453
30966,21.905,6,0,4.3683e-05,436.53,1.5238e-05,9.7859,1.3915e-05,-0.15803,-4.3511e-05,-431.63,2.0184
30967,21.723,6,0,4.7629e-05,475.96,1.6508e-05,9.4106,1.5238e-05,-0.13321,-4.7464e-05,-471.25,1.9916
30968,21.541,6,0,5.1583e-05,515.47,1.778e-05,9.0252,1.6564e-05,-0.11012,-5.1425e-05,-510.95,1.9648
30969,21.359,6,0,5.5542e-05,555.04,1.9053e-05,8.6339,1.7892e-05,-0.088612,-5.5391e-05,-550.71,1.938
30970,21.176,6,0,5.9503e-05,594.62,2.0326e-05,8.2407,1.922e-05,-0.068642,-5.9359e-05,-590.49,1.9113
30971,20.994,6,0,6.3459e-05,634.16,2.1599e-05,7.8498,2.0547e-05,-0.050221,-6.3323e-05,-630.22,1.8846
30972,20.812,6,0,6.7406e-05,673.59,2.2868e-05,7.4652,2.187e-05,-0.033432,-6.7276e-05,-669.85,1.8579
30973,20.63,6,0,7.1334e-05,712.85,2.4133e-05,7.0914,2.3187e-05,-0.018424,-7.1211e-05,-709.29,1.8313
30974,20.448,6,0,7.5234e-05,751.82,2.5389e-05,6.733,2.4492e-05,-0.0054162,-7.5117e-05,-748.43,1.8047
30975,20.266,6,0,7.9092e-05,790.37,2.6634e-05,6.395,2.5783e-05,0.0052965,-7.8981e-05,-787.15,1.7782
30976,20.083,6,0,8.2891e-05,828.33,2.7861e-05,6.0831,2.7053e-05,0.013348,-8.2785e-05,-825.27,1.7518
30977,19.901,6,0,8.661e-05,865.5,2.9065e-05,5.8033,2.8295e-05,0.018301,-8.6509e-05,-862.58,1.7254
30978,19.719,6,0,9.0223e-05,901.6,3.0237e-05,5.5623,2.9499e-05,0.01963,-9.0126e-05,-898.8,1.699
30979,19.537,6,0,9.3695e-05,936.3,3.1367e-05,5.3675,3.0654e-05,0.016753,-9.3602e-05,-933.6,1.6727
30980,19.355,6,0,9.6984e-05,969.17,3.2441e-05,5.2274,3.1746e-05,0.0090484,-9.6894e-05,-966.55,1.6465
30981,19.172,6,0,0.00010004,999.7,3.3443e-05,5.1509,3.2757e-05,-0.0041063,-9.995e-05,-997.11,1.6203
30982,18.99,6,0,0.00010279,1027.2,3.4353e-05,5.1483,3.3664e-05,-0.023254,-0.0001027,-1024.6,1.5942
30983,18.808,6,0,0.00010517,1050.9,3.5144e-05,5.2308,3.4441e-05,-0.048738,-0.00010508,-1048.3,1.5682
30984,18.626,6,0,0.00010706,1069.8,3.5785e-05,5.4102,3.5054e-05,-0.080516,-0.00010697,-1067.2,1.5422
30985,18.444,6,0,0.00010835,1082.8,3.6238e-05,5.699,3.5464e-05,-0.11787,-0.00010826,-1080,1.5163
30986,18.262,6,0,0.0001089,1088.3,3.6456e-05,6.1095,3.5622e-05,-0.15898,-0.0001088,-1085.3,1.4905
30987,18.079,6,0,0.00010854,1084.7,3.6384e-05,6.6515,3.5472e-05,-0.20041,-0.00010843,-1081.4,1.4648
30988,17.897,6,0,0.00010707,1070,3.5958e-05,7.3299,3.4951e-05,-0.23635,-0.00010695,-1066.4,1.4391
30989,17.715,6,0,0.00010428,1042,3.5103e-05,8.1388,3.3985e-05,-0.25768,-0.00010414,-1038.1,1.4135
30990,17.533,6,0,9.9913e-05,998.44,3.3739e-05,9.0529,3.2501e-05,-0.25158,-9.976e-05,-994,1.3879
30991,17.351,6,0,9.3744e-05,936.79,3.1781e-05,10.015,3.0421e-05,-0.19957,-9.3572e-05,-931.84,1.3625
30992,17.169,6,0,8.5546e-05,854.87,2.9144e-05,10.913,2.7681e-05,-0.085047,-8.5356e-05,-849.4,1.3371
30993,16.986,6,0,7.5145e-05,750.93,2.5755e-05,11.562,2.4234e-05,0.1293,-7.4939e-05,-745.02,1.3117
30994,16.804,6,0,6.2433e-05,623.9,2.1553e-05,11.63,2.0057e-05,0.38691,-6.2221e-05,-617.82,1.2864
30995,16.622,6,0,4.7387e-05,473.54,1.648e-05,10.69,1.5187e-05,0.97528,-4.7181e-05,-467.64,1.2611
30996,16.44,6,0,2.9785e-05,297.64,1.0518e-05,8.4919,9.4348e-06,0.34928,-2.9626e-05,-293.14,1.2359
30997,16.258,6,0,1.0464e-05,104.56,4.0227e-06,2.7803,2.7153e-06,-7.0428,-1.0501e-05,-106.35,1.2107
30998,16.167,5.9091,0,8.8874e-06,88.812,3.6307e-06,8.3233,2.489e-06,-0.25498,-8.719e-06,-84.467,1.1983
30999,16,1.7273,0,0.00032424,3240.1,0.00025909,2036.1,-8.4425e-06,25.953,-0.00023839,-1701.8,1.1813
31000,16,1.9091,0,0.00061706,6166.3,0.00039505,2194.9,4.2005e-05,-457.69,-0.00054309,-4853.8,1.1823
31001,16,1.5455,0,0.00021303,2128.8,0.0001624,1229.1,3.5213e-06,35.316,-0.00016471,-1228.7,1.1802
31002,16,1.3636,0,0.00016686,1667.4,0.00012553,931.89,3.5512e-06,15.399,-0.00013063,-992.76,1.1792
31003,16,1.1818,0,0.0001316,1315.1,9.6341e-05,697.16,5.4312e-06,14.096,-0.00010544,-818.91,1.1781
31004,16,1,0,0.00010476,1046.9,7.4322e-05,520.86,6.4674e-06,11.025,-8.5941e-05,-683.29,1.1771
31005,16,0.81818,0,8.2629e-05,825.72,5.6326e-05,379.05,7.1857e-06,9.8329,-6.9566e-05,-566.85,1.1761
31006,16,0.63636,0,6.3462e-05,634.18,4.1072e-05,261.5,7.4349e-06,8.7616,-5.4965e-05,-460.09,1.175
31007,16,0.45455,0,4.6083e-05,460.51,2.7768e-05,163.12,7.1598e-06,8.2798,-4.117e-05,-354.85,1.174
31008,16,0.27273,0,2.9107e-05,290.87,1.5822e-05,81.646,5.9449e-06,7.4345,-2.6872e-05,-239.14,1.1731
31009,16.083,2,0,0.00082934,8287.6,0.00039994,1071.2,0.00014356,-855.22,-0.00080868,-8010,1.1937
31010,16.167,0.27273,0,2.4698e-05,246.81,1.1816e-05,48.086,6.1142e-06,5.2442,-2.3511e-05,-217.34,1.1988
31011,16.167,0.45455,0,3.8923e-05,388.96,2.0041e-05,92.601,8.5234e-06,6.0616,-3.6515e-05,-332.34,1.1993
31012,16.167,0.63636,0,5.3171e-05,531.35,2.8855e-05,144.57,1.0477e-05,6.4777,-4.9238e-05,-442.19,1.1998
31013,16.167,0.81818,0,6.8752e-05,687.05,3.8801e-05,205.88,1.2392e-05,7.4527,-6.2938e-05,-558.54,1.2003
31014,16.167,1,0,8.6792e-05,867.32,5.0544e-05,280.06,1.4416e-05,8.6093,-7.8632e-05,-690.52,1.2009
31015,16.167,1.1818,0,0.0001089,1088.3,6.5052e-05,373.41,1.6868e-05,11.372,-9.7741e-05,-849.76,1.2015
31016,16.167,1.3636,0,0.00013845,1383.5,8.488e-05,503.11,1.965e-05,12.999,-0.00012299,-1058.8,1.2021
31017,16.167,1.5455,0,0.00017719,1770.7,0.00010857,651.36,2.6122e-05,31.854,-0.00015724,-1345.9,1.2028
31018,16.167,1.7273,0,0.00027099,2708,0.00018128,1192.9,2.6228e-05,27.872,-0.00023071,-1902.7,1.2035
31019,16.167,1.9091,0,0.00056246,5620.7,0.00030108,1103.2,7.4182e-05,-601.56,-0.00053417,-5172.5,1.2042
31020,16,4.2727,0,0.00032424,3240.1,0.00025909,2036.1,-8.4425e-06,25.953,-0.00023839,-1701.8,1.1813
31021,16,4.0909,0,0.00061706,6166.3,0.00039505,2194.9,4.2005e-05,-457.69,-0.00054309,-4853.8,1.1823
31022,16,4.4545,0,0.00021303,2128.8,0.0001624,1229.1,3.5213e-06,35.316,-0.00016471,-1228.7,1.1802
31023,16,4.6364,0,0.00016686,1667.4,0.00012553,931.89,3.5512e-06,15.399,-0.00013063,-992.76,1.1792
31024,16,4.8182,0,0.0001316,1315.1,9.6341e-05,697.16,5.4311e-06,14.096,-0.00010544,-818.91,1.1781
31025,16,5,0,0.00010476,1046.9,7.4322e-05,520.86,6.4674e-06,11.025,-8.5941e-05,-683.29,1.1771
31026,16,5.1818,0,8.2629e-05,825.72,5.6326e-05,379.05,7.1857e-06,9.8329,-6.9566e-05,-566.85,1.1761
31027,16,5.3636,0,6.3462e-05,634.18,4.1072e-05,261.5,7.4349e-06,8.7616,-5.4965e-05,-460.09,1.175
31028,16,5.5455,0,4.6083e-05,460.51,2.7768e-05,163.12,7.1598e-06,8.2798,-4.117e-05,-354.85,1.174
31029,16,5.7273,0,2.9107e-05,290.87,1.5822e-05,81.646,5.9449e-06,7.4345,-2.6872e-05,-239.14,1.1731
31030,16.083,4,0,0.00082934,8287.6,0.00039994,1071.2,0.00014356,-855.22,-0.00080869,-8010,1.1937
31031,16.167,5.7273,0,2.4698e-05,246.81,1.1816e-05,48.086,6.1142e-06,5.2442,-2.3511e-05,-217.34,1.1988
31032,16.167,5.5455,0,3.8923e-05,388.96,2.0041e-05,92.601,8.5234e-06,6.0616,-3.6515e-05,-332.34,1.1993
31033,16.167,5.3636,0,5.3171e-05,531.35,2.8855e-05,144.57,1.0477e-05,6.4777,-4.9238e-05,-442.19,1.1998
31034,16.167,5.1818,0,6.8752e-05,687.05,3.8801e-05,205.88,1.2392e-05,7.4527,-6.2938e-05,-558.54,1.2003
31035,16.167,5,0,8.6792e-05,867.32,5.0544e-05,280.06,1.4416e-05,8.6093,-7.8632e-05,-690.52,1.2009
31036,16.167,4.8182,0,0.0001089,1088.3,6.5052e-05,373.41,1.6868e-05,11.372,-9.7741e-05,-849.76,1.2015
31037,16.167,4.6364,0,0.00013845,1383.5,8.488e-05,503.11,1.965e-05,12.999,-0.00012299,-1058.8,1.2021
31038,16.167,4.4545,0,0.00017719,1770.7,0.00010857,651.36,2.6122e-05,31.854,-0.00015724,-1345.9,1.2028
31039,16.167,4.2727,0,0.00027099,2708,0.00018128,1192.9,2.6228e-05,27.872,-0.00023071,-1902.7,1.2035
31040,16.167,4.0909,0,0.00056246,5620.7,0.00030108,1103.2,7.4182e-05,-601.56,-0.00053417,-5172.5,1.2042
