Node Number	X Location (in)	Y Location (in)	Z Location (in)	Middle Principal Stress (psi)
1	5.	2.1818	0.	160.8
2	5.	2.3636	0.	-47.205
3	5.	2.5455	0.	-2.1334e-002
4	5.	2.7273	0.	-5.5188
5	5.	2.9091	0.	-2.9439
6	5.	3.0909	0.	-2.9439
7	5.	3.2727	0.	-5.5188
8	5.	3.4545	0.	-2.132e-002
9	5.	3.6364	0.	-47.205
10	5.	3.8182	0.	160.8
11	5.1667	2.1818	0.	115.55
12	5.1667	2.3636	0.	-45.964
13	5.1667	2.5455	0.	0.99634
14	5.1667	2.7273	0.	-4.9891
15	5.1667	2.9091	0.	-2.4835
16	5.1667	3.0909	0.	-2.4835
17	5.1667	3.2727	0.	-4.9891
18	5.1667	3.4545	0.	0.99635
19	5.1667	3.6364	0.	-45.964
20	5.1667	3.8182	0.	115.55
21	4.8214	5.8182	0.	-32.885
22	4.8214	5.6364	0.	-15.209
23	4.8214	5.4545	0.	-11.091
24	4.8214	5.2727	0.	-9.3864
25	4.8214	5.0909	0.	-8.9826
26	4.8214	4.9091	0.	-11.053
27	4.8214	4.7273	0.	-8.4378
28	4.8214	4.5455	0.	-30.623
29	4.8214	4.3636	0.	20.39
30	4.8214	4.1818	0.	-182.37
31	4.8214	4.	0.	-704.4
32	4.8214	3.8182	0.	15.814
33	4.8214	3.6364	0.	-23.04
34	4.8214	3.4545	0.	4.8588
35	4.8214	3.2727	0.	-4.8705
36	4.8214	3.0909	0.	-1.3685
37	4.8214	2.9091	0.	-1.3685
38	4.8214	2.7273	0.	-4.8705
39	4.8214	2.5455	0.	4.8588
40	4.8214	2.3636	0.	-23.041
41	4.8214	2.1818	0.	15.814
42	4.8214	2.	0.	-704.4
43	4.8214	1.8182	0.	-182.37
44	4.8214	1.6364	0.	20.39
45	4.8214	1.4545	0.	-30.623
46	4.8214	1.2727	0.	-8.4378
47	4.8214	1.0909	0.	-11.053
48	4.8214	0.90909	0.	-8.9826
49	4.8214	0.72727	0.	-9.3864
50	4.8214	0.54545	0.	-11.091
51	4.8214	0.36364	0.	-15.209
52	4.8214	0.18182	0.	-32.885
53	4.6429	5.8182	0.	-12.405
54	4.6429	5.6364	0.	-7.9204
55	4.6429	5.4545	0.	-4.0705
56	4.6429	5.2727	0.	-1.9561
57	4.6429	5.0909	0.	-1.1507
58	4.6429	4.9091	0.	-0.63885
59	4.6429	4.7273	0.	-0.91352
60	4.6429	4.5455	0.	-2.3942
61	4.6429	4.3636	0.	1.4637
62	4.6429	4.1818	0.	14.97
63	4.6429	4.	0.	90.284
64	4.6429	3.8182	0.	49.105
65	4.6429	3.6364	0.	-7.8351
66	4.6429	3.4545	0.	1.1643
67	4.6429	3.2727	0.	-0.55919
68	4.6429	3.0909	0.	-0.43871
69	4.6429	2.9091	0.	-0.4387
70	4.6429	2.7273	0.	-0.55919
71	4.6429	2.5455	0.	1.1643
72	4.6429	2.3636	0.	-7.8351
73	4.6429	2.1818	0.	49.105
74	4.6429	2.	0.	90.284
75	4.6429	1.8182	0.	14.97
76	4.6429	1.6364	0.	1.4637
77	4.6429	1.4545	0.	-2.3942
78	4.6429	1.2727	0.	-0.91351
79	4.6429	1.0909	0.	-0.63884
80	4.6429	0.90909	0.	-1.1507
81	4.6429	0.72727	0.	-1.9561
82	4.6429	0.54545	0.	-4.0705
83	4.6429	0.36364	0.	-7.9204
84	4.6429	0.18182	0.	-12.405
85	4.4643	5.8182	0.	-6.6034
86	4.4643	5.6364	0.	-6.2995
87	4.4643	5.4545	0.	-4.8953
88	4.4643	5.2727	0.	-3.8327
89	4.4643	5.0909	0.	-3.4441
90	4.4643	4.9091	0.	-3.7517
91	4.4643	4.7273	0.	-4.2406
92	4.4643	4.5455	0.	-4.3696
93	4.4643	4.3636	0.	-13.569
94	4.4643	4.1818	0.	-9.5549
95	4.4643	4.	0.	-17.78
96	4.4643	3.8182	0.	-11.203
97	4.4643	3.6364	0.	7.9209
98	4.4643	3.4545	0.	0.49321
99	4.4643	3.2727	0.	0.61376
100	4.4643	3.0909	0.	0.66532
101	4.4643	2.9091	0.	0.66532
102	4.4643	2.7273	0.	0.61376
103	4.4643	2.5455	0.	0.49322
104	4.4643	2.3636	0.	7.9209
105	4.4643	2.1818	0.	-11.203
106	4.4643	2.	0.	-17.78
107	4.4643	1.8182	0.	-9.5549
108	4.4643	1.6364	0.	-13.569
109	4.4643	1.4545	0.	-4.3696
110	4.4643	1.2727	0.	-4.2406
111	4.4643	1.0909	0.	-3.7517
112	4.4643	0.90909	0.	-3.4441
113	4.4643	0.72727	0.	-3.8327
114	4.4643	0.54545	0.	-4.8953
115	4.4643	0.36364	0.	-6.2995
116	4.4643	0.18182	0.	-6.6034
117	4.2857	5.8182	0.	-2.8906
118	4.2857	5.6364	0.	-3.4909
119	4.2857	5.4545	0.	-3.4604
120	4.2857	5.2727	0.	-3.0954
121	4.2857	5.0909	0.	-2.9397
122	4.2857	4.9091	0.	-2.9833
123	4.2857	4.7273	0.	-3.4336
124	4.2857	4.5455	0.	-4.1874
125	4.2857	4.3636	0.	-2.9747
126	4.2857	4.1818	0.	-4.6114
127	4.2857	4.	0.	-4.3652
128	4.2857	3.8182	0.	-40.938
129	4.2857	3.6364	0.	-147.22
130	4.2857	3.4545	0.	-189.95
131	4.2857	3.2727	0.	-199.44
132	4.2857	3.0909	0.	-199.83
133	4.2857	2.9091	0.	-199.83
134	4.2857	2.7273	0.	-199.44
135	4.2857	2.5455	0.	-189.95
136	4.2857	2.3636	0.	-147.22
137	4.2857	2.1818	0.	-40.938
138	4.2857	2.	0.	-4.3652
139	4.2857	1.8182	0.	-4.6114
140	4.2857	1.6364	0.	-2.9747
141	4.2857	1.4545	0.	-4.1874
142	4.2857	1.2727	0.	-3.4336
143	4.2857	1.0909	0.	-2.9833
144	4.2857	0.90909	0.	-2.9397
145	4.2857	0.72727	0.	-3.0954
146	4.2857	0.54545	0.	-3.4604
147	4.2857	0.36364	0.	-3.4909
148	4.2857	0.18182	0.	-2.8906
149	4.1071	5.8182	0.	-1.5017
150	4.1071	5.6364	0.	-2.3274
151	4.1071	5.4545	0.	-2.7786
152	4.1071	5.2727	0.	-2.9316
153	4.1071	5.0909	0.	-3.0477
154	4.1071	4.9091	0.	-3.2682
155	4.1071	4.7273	0.	-3.6499
156	4.1071	4.5455	0.	-4.4615
157	4.1071	4.3636	0.	-6.5292
158	4.1071	4.1818	0.	-13.63
159	4.1071	4.	0.	-98.807
160	4.1071	3.8182	0.	-245.89
161	4.1071	3.6364	0.	-347.7
162	4.1071	3.4545	0.	-400.55
163	4.1071	3.2727	0.	-421.78
164	4.1071	3.0909	0.	-428.21
165	4.1071	2.9091	0.	-428.21
166	4.1071	2.7273	0.	-421.78
167	4.1071	2.5455	0.	-400.55
168	4.1071	2.3636	0.	-347.7
169	4.1071	2.1818	0.	-245.89
170	4.1071	2.	0.	-98.807
171	4.1071	1.8182	0.	-13.63
172	4.1071	1.6364	0.	-6.5292
173	4.1071	1.4545	0.	-4.4615
174	4.1071	1.2727	0.	-3.6499
175	4.1071	1.0909	0.	-3.2682
176	4.1071	0.90909	0.	-3.0477
177	4.1071	0.72727	0.	-2.9316
178	4.1071	0.54545	0.	-2.7786
179	4.1071	0.36364	0.	-2.3274
180	4.1071	0.18182	0.	-1.5017
181	3.9286	5.8182	0.	-0.84346
182	3.9286	5.6364	0.	-1.7123
183	3.9286	5.4545	0.	-2.3423
184	3.9286	5.2727	0.	-2.8749
185	3.9286	5.0909	0.	-3.3584
186	3.9286	4.9091	0.	-4.0067
187	3.9286	4.7273	0.	-5.2471
188	3.9286	4.5455	0.	-8.7467
189	3.9286	4.3636	0.	-31.944
190	3.9286	4.1818	0.	-139.88
191	3.9286	4.	0.	-279.25
192	3.9286	3.8182	0.	-406.31
193	3.9286	3.6364	0.	-501.14
194	3.9286	3.4545	0.	-560.19
195	3.9286	3.2727	0.	-591.14
196	3.9286	3.0909	0.	-603.7
197	3.9286	2.9091	0.	-603.7
198	3.9286	2.7273	0.	-591.14
199	3.9286	2.5455	0.	-560.19
200	3.9286	2.3636	0.	-501.14
201	3.9286	2.1818	0.	-406.31
202	3.9286	2.	0.	-279.25
203	3.9286	1.8182	0.	-139.88
204	3.9286	1.6364	0.	-31.944
205	3.9286	1.4545	0.	-8.7467
206	3.9286	1.2727	0.	-5.2471
207	3.9286	1.0909	0.	-4.0067
208	3.9286	0.90909	0.	-3.3584
209	3.9286	0.72727	0.	-2.8749
210	3.9286	0.54545	0.	-2.3423
211	3.9286	0.36364	0.	-1.7122
212	3.9286	0.18182	0.	-0.84345
213	3.75	5.8182	0.	-0.60871
214	3.75	5.6364	0.	-1.4676
215	3.75	5.4545	0.	-2.2822
216	3.75	5.2727	0.	-3.3457
217	3.75	5.0909	0.	-4.905
218	3.75	4.9091	0.	-8.364
219	3.75	4.7273	0.	-22.983
220	3.75	4.5455	0.	-81.091
221	3.75	4.3636	0.	-178.33
222	3.75	4.1818	0.	-296.93
223	3.75	4.	0.	-420.91
224	3.75	3.8182	0.	-533.54
225	3.75	3.6364	0.	-622.76
226	3.75	3.4545	0.	-684.59
227	3.75	3.2727	0.	-721.5
228	3.75	3.0909	0.	-738.3
229	3.75	2.9091	0.	-738.3
230	3.75	2.7273	0.	-721.5
231	3.75	2.5455	0.	-684.59
232	3.75	2.3636	0.	-622.76
233	3.75	2.1818	0.	-533.54
234	3.75	2.	0.	-420.91
235	3.75	1.8182	0.	-296.93
236	3.75	1.6364	0.	-178.33
237	3.75	1.4545	0.	-81.091
238	3.75	1.2727	0.	-22.983
239	3.75	1.0909	0.	-8.364
240	3.75	0.90909	0.	-4.905
241	3.75	0.72727	0.	-3.3457
242	3.75	0.54545	0.	-2.2822
243	3.75	0.36364	0.	-1.4676
244	3.75	0.18182	0.	-0.60871
245	3.5714	5.8182	0.	-0.58216
246	3.5714	5.6364	0.	-1.4671
247	3.5714	5.4545	0.	-2.7649
248	3.5714	5.2727	0.	-5.7699
249	3.5714	5.0909	0.	-17.215
250	3.5714	4.9091	0.	-56.209
251	3.5714	4.7273	0.	-120.9
252	3.5714	4.5455	0.	-206.06
253	3.5714	4.3636	0.	-308.43
254	3.5714	4.1818	0.	-421.39
255	3.5714	4.	0.	-534.94
256	3.5714	3.8182	0.	-638.29
257	3.5714	3.6364	0.	-723.11
258	3.5714	3.4545	0.	-785.44
259	3.5714	3.2727	0.	-825.24
260	3.5714	3.0909	0.	-844.36
261	3.5714	2.9091	0.	-844.36
262	3.5714	2.7273	0.	-825.24
263	3.5714	2.5455	0.	-785.44
264	3.5714	2.3636	0.	-723.11
265	3.5714	2.1818	0.	-638.29
266	3.5714	2.	0.	-534.94
267	3.5714	1.8182	0.	-421.39
268	3.5714	1.6364	0.	-308.43
269	3.5714	1.4545	0.	-206.06
270	3.5714	1.2727	0.	-120.9
271	3.5714	1.0909	0.	-56.209
272	3.5714	0.90909	0.	-17.215
273	3.5714	0.72727	0.	-5.7699
274	3.5714	0.54545	0.	-2.7648
275	3.5714	0.36364	0.	-1.4671
276	3.5714	0.18182	0.	-0.58216
277	3.3929	5.8182	0.	-0.71126
278	3.3929	5.6364	0.	-1.8345
279	3.3929	5.4545	0.	-5.445
280	3.3929	5.2727	0.	-26.22
281	3.3929	5.0909	0.	-74.423
282	3.3929	4.9091	0.	-139.27
283	3.3929	4.7273	0.	-218.87
284	3.3929	4.5455	0.	-312.08
285	3.3929	4.3636	0.	-415.88
286	3.3929	4.1818	0.	-524.83
287	3.3929	4.	0.	-631.63
288	3.3929	3.8182	0.	-728.66
289	3.3929	3.6364	0.	-809.74
290	3.3929	3.4545	0.	-871.22
291	3.3929	3.2727	0.	-911.88
292	3.3929	3.0909	0.	-931.97
293	3.3929	2.9091	0.	-931.97
294	3.3929	2.7273	0.	-911.88
295	3.3929	2.5455	0.	-871.22
296	3.3929	2.3636	0.	-809.74
297	3.3929	2.1818	0.	-728.66
298	3.3929	2.	0.	-631.63
299	3.3929	1.8182	0.	-524.83
300	3.3929	1.6364	0.	-415.88
301	3.3929	1.4545	0.	-312.08
302	3.3929	1.2727	0.	-218.87
303	3.3929	1.0909	0.	-139.27
304	3.3929	0.90909	0.	-74.423
305	3.3929	0.72727	0.	-26.22
306	3.3929	0.54545	0.	-5.445
307	3.3929	0.36364	0.	-1.8345
308	3.3929	0.18182	0.	-0.71126
309	3.2143	5.8182	0.	-1.0166
310	3.2143	5.6364	0.	-3.4865
311	3.2143	5.4545	0.	-24.945
312	3.2143	5.2727	0.	-74.868
313	3.2143	5.0909	0.	-139.68
314	3.2143	4.9091	0.	-217.15
315	3.2143	4.7273	0.	-306.07
316	3.2143	4.5455	0.	-404.52
317	3.2143	4.3636	0.	-509.24
318	3.2143	4.1818	0.	-615.56
319	3.2143	4.	0.	-717.8
320	3.2143	3.8182	0.	-810.25
321	3.2143	3.6364	0.	-888.07
322	3.2143	3.4545	0.	-948.01
323	3.2143	3.2727	0.	-988.37
324	3.2143	3.0909	0.	-1008.6
325	3.2143	2.9091	0.	-1008.6
326	3.2143	2.7273	0.	-988.37
327	3.2143	2.5455	0.	-948.01
328	3.2143	2.3636	0.	-888.07
329	3.2143	2.1818	0.	-810.25
330	3.2143	2.	0.	-717.8
331	3.2143	1.8182	0.	-615.56
332	3.2143	1.6364	0.	-509.24
333	3.2143	1.4545	0.	-404.52
334	3.2143	1.2727	0.	-306.07
335	3.2143	1.0909	0.	-217.15
336	3.2143	0.90909	0.	-139.68
337	3.2143	0.72727	0.	-74.868
338	3.2143	0.54545	0.	-24.945
339	3.2143	0.36364	0.	-3.4865
340	3.2143	0.18182	0.	-1.0166
341	3.0357	5.8182	0.	-1.6148
342	3.0357	5.6364	0.	-13.738
343	3.0357	5.4545	0.	-61.895
344	3.0357	5.2727	0.	-126.14
345	3.0357	5.0909	0.	-202.74
346	3.0357	4.9091	0.	-290.03
347	3.0357	4.7273	0.	-386.18
348	3.0357	4.5455	0.	-488.72
349	3.0357	4.3636	0.	-594.38
350	3.0357	4.1818	0.	-699.04
351	3.0357	4.	0.	-798.12
352	3.0357	3.8182	0.	-887.09
353	3.0357	3.6364	0.	-962.07
354	3.0357	3.4545	0.	-1020.2
355	3.0357	3.2727	0.	-1059.6
356	3.0357	3.0909	0.	-1079.5
357	3.0357	2.9091	0.	-1079.5
358	3.0357	2.7273	0.	-1059.6
359	3.0357	2.5455	0.	-1020.2
360	3.0357	2.3636	0.	-962.07
361	3.0357	2.1818	0.	-887.09
362	3.0357	2.	0.	-798.12
363	3.0357	1.8182	0.	-699.04
364	3.0357	1.6364	0.	-594.38
365	3.0357	1.4545	0.	-488.72
366	3.0357	1.2727	0.	-386.18
367	3.0357	1.0909	0.	-290.03
368	3.0357	0.90909	0.	-202.74
369	3.0357	0.72727	0.	-126.14
370	3.0357	0.54545	0.	-61.895
371	3.0357	0.36364	0.	-13.738
372	3.0357	0.18182	0.	-1.6148
373	2.8571	5.8182	0.	-2.7803
374	2.8571	5.6364	0.	-36.593
375	2.8571	5.4545	0.	-100.26
376	2.8571	5.2727	0.	-176.58
377	2.8571	5.0909	0.	-263.71
378	2.8571	4.9091	0.	-359.64
379	2.8571	4.7273	0.	-462.1
380	2.8571	4.5455	0.	-568.35
381	2.8571	4.3636	0.	-675.19
382	2.8571	4.1818	0.	-778.95
383	2.8571	4.	0.	-875.82
384	2.8571	3.8182	0.	-962.1
385	2.8571	3.6364	0.	-1034.6
386	2.8571	3.4545	0.	-1090.9
387	2.8571	3.2727	0.	-1129.2
388	2.8571	3.0909	0.	-1148.5
389	2.8571	2.9091	0.	-1148.5
390	2.8571	2.7273	0.	-1129.2
391	2.8571	2.5455	0.	-1090.9
392	2.8571	2.3636	0.	-1034.6
393	2.8571	2.1818	0.	-962.1
394	2.8571	2.	0.	-875.82
395	2.8571	1.8182	0.	-778.95
396	2.8571	1.6364	0.	-675.19
397	2.8571	1.4545	0.	-568.35
398	2.8571	1.2727	0.	-462.1
399	2.8571	1.0909	0.	-359.64
400	2.8571	0.90909	0.	-263.71
401	2.8571	0.72727	0.	-176.58
402	2.8571	0.54545	0.	-100.26
403	2.8571	0.36364	0.	-36.593
404	2.8571	0.18182	0.	-2.7803
405	2.6786	5.8182	0.	-5.0023
406	2.6786	5.6364	0.	-60.809
407	2.6786	5.4545	0.	-137.92
408	2.6786	5.2727	0.	-225.99
409	2.6786	5.0909	0.	-323.28
410	2.6786	4.9091	0.	-427.47
411	2.6786	4.7273	0.	-535.99
412	2.6786	4.5455	0.	-646.
413	2.6786	4.3636	0.	-754.38
414	2.6786	4.1818	0.	-857.87
415	2.6786	4.	0.	-953.23
416	2.6786	3.8182	0.	-1037.4
417	2.6786	3.6364	0.	-1107.8
418	2.6786	3.4545	0.	-1162.2
419	2.6786	3.2727	0.	-1199.3
420	2.6786	3.0909	0.	-1218.1
421	2.6786	2.9091	0.	-1218.1
422	2.6786	2.7273	0.	-1199.3
423	2.6786	2.5455	0.	-1162.2
424	2.6786	2.3636	0.	-1107.8
425	2.6786	2.1818	0.	-1037.4
426	2.6786	2.	0.	-953.23
427	2.6786	1.8182	0.	-857.87
428	2.6786	1.6364	0.	-754.38
429	2.6786	1.4545	0.	-646.
430	2.6786	1.2727	0.	-535.99
431	2.6786	1.0909	0.	-427.47
432	2.6786	0.90909	0.	-323.28
433	2.6786	0.72727	0.	-225.99
434	2.6786	0.54545	0.	-137.92
435	2.6786	0.36364	0.	-60.809
436	2.6786	0.18182	0.	-5.0023
437	2.5	5.8182	0.	-8.5956
438	2.5	5.6364	0.	-84.077
439	2.5	5.4545	0.	-174.64
440	2.5	5.2727	0.	-274.65
441	2.5	5.0909	0.	-382.25
442	2.5	4.9091	0.	-494.82
443	2.5	4.7273	0.	-609.59
444	2.5	4.5455	0.	-723.62
445	2.5	4.3636	0.	-833.97
446	2.5	4.1818	0.	-937.72
447	2.5	4.	0.	-1032.1
448	2.5	3.8182	0.	-1114.6
449	2.5	3.6364	0.	-1183.1
450	2.5	3.4545	0.	-1235.9
451	2.5	3.2727	0.	-1271.7
452	2.5	3.0909	0.	-1289.9
453	2.5	2.9091	0.	-1289.9
454	2.5	2.7273	0.	-1271.7
455	2.5	2.5455	0.	-1235.9
456	2.5	2.3636	0.	-1183.1
457	2.5	2.1818	0.	-1114.6
458	2.5	2.	0.	-1032.1
459	2.5	1.8182	0.	-937.72
460	2.5	1.6364	0.	-833.97
461	2.5	1.4545	0.	-723.62
462	2.5	1.2727	0.	-609.59
463	2.5	1.0909	0.	-494.82
464	2.5	0.90909	0.	-382.25
465	2.5	0.72727	0.	-274.65
466	2.5	0.54545	0.	-174.64
467	2.5	0.36364	0.	-84.077
468	2.5	0.18182	0.	-8.5956
469	2.3214	5.8182	0.	-12.886
470	2.3214	5.6364	0.	-106.09
471	2.3214	5.4545	0.	-210.56
472	2.3214	5.2727	0.	-323.08
473	2.3214	5.0909	0.	-441.53
474	2.3214	4.9091	0.	-562.97
475	2.3214	4.7273	0.	-684.41
476	2.3214	4.5455	0.	-802.88
477	2.3214	4.3636	0.	-915.6
478	2.3214	4.1818	0.	-1020.
479	2.3214	4.	0.	-1113.7
480	2.3214	3.8182	0.	-1194.8
481	2.3214	3.6364	0.	-1261.6
482	2.3214	3.4545	0.	-1312.8
483	2.3214	3.2727	0.	-1347.5
484	2.3214	3.0909	0.	-1365.
485	2.3214	2.9091	0.	-1365.
486	2.3214	2.7273	0.	-1347.5
487	2.3214	2.5455	0.	-1312.8
488	2.3214	2.3636	0.	-1261.6
489	2.3214	2.1818	0.	-1194.8
490	2.3214	2.	0.	-1113.7
491	2.3214	1.8182	0.	-1020.
492	2.3214	1.6364	0.	-915.6
493	2.3214	1.4545	0.	-802.88
494	2.3214	1.2727	0.	-684.41
495	2.3214	1.0909	0.	-562.97
496	2.3214	0.90909	0.	-441.53
497	2.3214	0.72727	0.	-323.08
498	2.3214	0.54545	0.	-210.56
499	2.3214	0.36364	0.	-106.09
500	2.3214	0.18182	0.	-12.886
501	2.1429	5.8182	0.	-16.738
502	2.1429	5.6364	0.	-126.9
503	2.1429	5.4545	0.	-246.11
504	2.1429	5.2727	0.	-372.07
505	2.1429	5.0909	0.	-502.25
506	2.1429	4.9091	0.	-633.29
507	2.1429	4.7273	0.	-761.96
508	2.1429	4.5455	0.	-885.29
509	2.1429	4.3636	0.	-1000.7
510	2.1429	4.1818	0.	-1105.9
511	2.1429	4.	0.	-1199.2
512	2.1429	3.8182	0.	-1279.
513	2.1429	3.6364	0.	-1344.1
514	2.1429	3.4545	0.	-1393.7
515	2.1429	3.2727	0.	-1427.1
516	2.1429	3.0909	0.	-1443.9
517	2.1429	2.9091	0.	-1443.9
518	2.1429	2.7273	0.	-1427.1
519	2.1429	2.5455	0.	-1393.7
520	2.1429	2.3636	0.	-1344.1
521	2.1429	2.1818	0.	-1279.
522	2.1429	2.	0.	-1199.2
523	2.1429	1.8182	0.	-1105.9
524	2.1429	1.6364	0.	-1000.7
525	2.1429	1.4545	0.	-885.29
526	2.1429	1.2727	0.	-761.96
527	2.1429	1.0909	0.	-633.29
528	2.1429	0.90909	0.	-502.25
529	2.1429	0.72727	0.	-372.07
530	2.1429	0.54545	0.	-246.11
531	2.1429	0.36364	0.	-126.9
532	2.1429	0.18182	0.	-16.738
533	1.9643	5.8182	0.	-19.467
534	1.9643	5.6364	0.	-146.74
535	1.9643	5.4545	0.	-281.96
536	1.9643	5.2727	0.	-422.68
537	1.9643	5.0909	0.	-565.77
538	1.9643	4.9091	0.	-707.34
539	1.9643	4.7273	0.	-843.85
540	1.9643	4.5455	0.	-972.36
541	1.9643	4.3636	0.	-1090.5
542	1.9643	4.1818	0.	-1196.6
543	1.9643	4.	0.	-1289.3
544	1.9643	3.8182	0.	-1367.6
545	1.9643	3.6364	0.	-1431.
546	1.9643	3.4545	0.	-1478.8
547	1.9643	3.2727	0.	-1510.9
548	1.9643	3.0909	0.	-1527.
549	1.9643	2.9091	0.	-1527.
550	1.9643	2.7273	0.	-1510.9
551	1.9643	2.5455	0.	-1478.8
552	1.9643	2.3636	0.	-1431.
553	1.9643	2.1818	0.	-1367.6
554	1.9643	2.	0.	-1289.3
555	1.9643	1.8182	0.	-1196.6
556	1.9643	1.6364	0.	-1090.5
557	1.9643	1.4545	0.	-972.36
558	1.9643	1.2727	0.	-843.85
559	1.9643	1.0909	0.	-707.34
560	1.9643	0.90909	0.	-565.77
561	1.9643	0.72727	0.	-422.68
562	1.9643	0.54545	0.	-281.96
563	1.9643	0.36364	0.	-146.74
564	1.9643	0.18182	0.	-19.467
565	1.7857	5.8182	0.	-20.849
566	1.7857	5.6364	0.	-166.03
567	1.7857	5.4545	0.	-319.05
568	1.7857	5.2727	0.	-476.35
569	1.7857	5.0909	0.	-633.87
570	1.7857	4.9091	0.	-786.99
571	1.7857	4.7273	0.	-931.88
572	1.7857	4.5455	0.	-1065.7
573	1.7857	4.3636	0.	-1186.4
574	1.7857	4.1818	0.	-1293.
575	1.7857	4.	0.	-1384.6
576	1.7857	3.8182	0.	-1461.1
577	1.7857	3.6364	0.	-1522.3
578	1.7857	3.4545	0.	-1568.2
579	1.7857	3.2727	0.	-1598.7
580	1.7857	3.0909	0.	-1614.
581	1.7857	2.9091	0.	-1614.
582	1.7857	2.7273	0.	-1598.7
583	1.7857	2.5455	0.	-1568.2
584	1.7857	2.3636	0.	-1522.3
585	1.7857	2.1818	0.	-1461.1
586	1.7857	2.	0.	-1384.6
587	1.7857	1.8182	0.	-1293.
588	1.7857	1.6364	0.	-1186.4
589	1.7857	1.4545	0.	-1065.7
590	1.7857	1.2727	0.	-931.88
591	1.7857	1.0909	0.	-786.99
592	1.7857	0.90909	0.	-633.87
593	1.7857	0.72727	0.	-476.35
594	1.7857	0.54545	0.	-319.05
595	1.7857	0.36364	0.	-166.03
596	1.7857	0.18182	0.	-20.849
597	1.6071	5.8182	0.	-20.944
598	1.6071	5.6364	0.	-185.36
599	1.6071	5.4545	0.	-358.76
600	1.6071	5.2727	0.	-535.06
601	1.6071	5.0909	0.	-708.84
602	1.6071	4.9091	0.	-874.55
603	1.6071	4.7273	0.	-1028.1
604	1.6071	4.5455	0.	-1166.8
605	1.6071	4.3636	0.	-1289.5
606	1.6071	4.1818	0.	-1395.7
607	1.6071	4.	0.	-1485.5
608	1.6071	3.8182	0.	-1559.5
609	1.6071	3.6364	0.	-1617.9
610	1.6071	3.4545	0.	-1661.4
611	1.6071	3.2727	0.	-1690.2
612	1.6071	3.0909	0.	-1704.5
613	1.6071	2.9091	0.	-1704.5
614	1.6071	2.7273	0.	-1690.2
615	1.6071	2.5455	0.	-1661.4
616	1.6071	2.3636	0.	-1617.9
617	1.6071	2.1818	0.	-1559.5
618	1.6071	2.	0.	-1485.5
619	1.6071	1.8182	0.	-1395.7
620	1.6071	1.6364	0.	-1289.5
621	1.6071	1.4545	0.	-1166.8
622	1.6071	1.2727	0.	-1028.1
623	1.6071	1.0909	0.	-874.55
624	1.6071	0.90909	0.	-708.84
625	1.6071	0.72727	0.	-535.06
626	1.6071	0.54545	0.	-358.76
627	1.6071	0.36364	0.	-185.36
628	1.6071	0.18182	0.	-20.944
629	1.4286	5.8182	0.	-20.074
630	1.4286	5.6364	0.	-205.68
631	1.4286	5.4545	0.	-403.15
632	1.4286	5.2727	0.	-601.65
633	1.4286	5.0909	0.	-793.79
634	1.4286	4.9091	0.	-972.88
635	1.4286	4.7273	0.	-1134.8
636	1.4286	4.5455	0.	-1277.5
637	1.4286	4.3636	0.	-1400.7
638	1.4286	4.1818	0.	-1505.2
639	1.4286	4.	0.	-1592.1
640	1.4286	3.8182	0.	-1662.5
641	1.4286	3.6364	0.	-1717.5
642	1.4286	3.4545	0.	-1758.1
643	1.4286	3.2727	0.	-1784.7
644	1.4286	3.0909	0.	-1798.
645	1.4286	2.9091	0.	-1798.
646	1.4286	2.7273	0.	-1784.7
647	1.4286	2.5455	0.	-1758.1
648	1.4286	2.3636	0.	-1717.5
649	1.4286	2.1818	0.	-1662.5
650	1.4286	2.	0.	-1592.1
651	1.4286	1.8182	0.	-1505.2
652	1.4286	1.6364	0.	-1400.7
653	1.4286	1.4545	0.	-1277.5
654	1.4286	1.2727	0.	-1134.8
655	1.4286	1.0909	0.	-972.88
656	1.4286	0.90909	0.	-793.79
657	1.4286	0.72727	0.	-601.65
658	1.4286	0.54545	0.	-403.15
659	1.4286	0.36364	0.	-205.68
660	1.4286	0.18182	0.	-20.074
661	1.25	5.8182	0.	-18.617
662	1.25	5.6364	0.	-228.4
663	1.25	5.4545	0.	-455.18
664	1.25	5.2727	0.	-680.
665	1.25	5.0909	0.	-892.62
666	1.25	4.9091	0.	-1085.2
667	1.25	4.7273	0.	-1254.2
668	1.25	4.5455	0.	-1398.9
669	1.25	4.3636	0.	-1520.6
670	1.25	4.1818	0.	-1621.5
671	1.25	4.	0.	-1703.7
672	1.25	3.8182	0.	-1769.4
673	1.25	3.6364	0.	-1820.1
674	1.25	3.4545	0.	-1857.1
675	1.25	3.2727	0.	-1881.3
676	1.25	3.0909	0.	-1893.2
677	1.25	2.9091	0.	-1893.2
678	1.25	2.7273	0.	-1881.3
679	1.25	2.5455	0.	-1857.1
680	1.25	2.3636	0.	-1820.1
681	1.25	2.1818	0.	-1769.4
682	1.25	2.	0.	-1703.7
683	1.25	1.8182	0.	-1621.5
684	1.25	1.6364	0.	-1520.6
685	1.25	1.4545	0.	-1398.9
686	1.25	1.2727	0.	-1254.2
687	1.25	1.0909	0.	-1085.2
688	1.25	0.90909	0.	-892.62
689	1.25	0.72727	0.	-680.
690	1.25	0.54545	0.	-455.18
691	1.25	0.36364	0.	-228.4
692	1.25	0.18182	0.	-18.617
693	1.0714	5.8182	0.	-17.55
694	1.0714	5.6364	0.	-256.47
695	1.0714	5.4545	0.	-520.35
696	1.0714	5.2727	0.	-776.68
697	1.0714	5.0909	0.	-1011.4
698	1.0714	4.9091	0.	-1216.2
699	1.0714	4.7273	0.	-1389.3
700	1.0714	4.5455	0.	-1532.6
701	1.0714	4.3636	0.	-1649.8
702	1.0714	4.1818	0.	-1744.5
703	1.0714	4.	0.	-1820.3
704	1.0714	3.8182	0.	-1879.9
705	1.0714	3.6364	0.	-1925.3
706	1.0714	3.4545	0.	-1958.2
707	1.0714	3.2727	0.	-1979.6
708	1.0714	3.0909	0.	-1990.1
709	1.0714	2.9091	0.	-1990.1
710	1.0714	2.7273	0.	-1979.6
711	1.0714	2.5455	0.	-1958.2
712	1.0714	2.3636	0.	-1925.3
713	1.0714	2.1818	0.	-1879.9
714	1.0714	2.	0.	-1820.3
715	1.0714	1.8182	0.	-1744.5
716	1.0714	1.6364	0.	-1649.8
717	1.0714	1.4545	0.	-1532.6
718	1.0714	1.2727	0.	-1389.3
719	1.0714	1.0909	0.	-1216.2
720	1.0714	0.90909	0.	-1011.4
721	1.0714	0.72727	0.	-776.68
722	1.0714	0.54545	0.	-520.35
723	1.0714	0.36364	0.	-256.47
724	1.0714	0.18182	0.	-17.55
725	0.89286	5.8182	0.	-15.534
726	0.89286	5.6364	0.	-293.09
727	0.89286	5.4545	0.	-604.92
728	0.89286	5.2727	0.	-898.01
729	0.89286	5.0909	0.	-1154.
730	0.89286	4.9091	0.	-1366.6
731	0.89286	4.7273	0.	-1538.4
732	0.89286	4.5455	0.	-1675.4
733	0.89286	4.3636	0.	-1784.
734	0.89286	4.1818	0.	-1869.8
735	0.89286	4.	0.	-1937.2
736	0.89286	3.8182	0.	-1989.4
737	0.89286	3.6364	0.	-2028.8
738	0.89286	3.4545	0.	-2057.2
739	0.89286	3.2727	0.	-2075.5
740	0.89286	3.0909	0.	-2084.5
741	0.89286	2.9091	0.	-2084.5
742	0.89286	2.7273	0.	-2075.5
743	0.89286	2.5455	0.	-2057.2
744	0.89286	2.3636	0.	-2028.8
745	0.89286	2.1818	0.	-1989.4
746	0.89286	2.	0.	-1937.2
747	0.89286	1.8182	0.	-1869.8
748	0.89286	1.6364	0.	-1784.
749	0.89286	1.4545	0.	-1675.4
750	0.89286	1.2727	0.	-1538.4
751	0.89286	1.0909	0.	-1366.6
752	0.89286	0.90909	0.	-1154.
753	0.89286	0.72727	0.	-898.01
754	0.89286	0.54545	0.	-604.92
755	0.89286	0.36364	0.	-293.09
756	0.89286	0.18182	0.	-15.534
757	0.71429	5.8182	0.	-20.553
758	0.71429	5.6364	0.	-354.14
759	0.71429	5.4545	0.	-731.81
760	0.71429	5.2727	0.	-1065.8
761	0.71429	5.0909	0.	-1337.5
762	0.71429	4.9091	0.	-1549.2
763	0.71429	4.7273	0.	-1711.6
764	0.71429	4.5455	0.	-1836.3
765	0.71429	4.3636	0.	-1932.3
766	0.71429	4.1818	0.	-2006.7
767	0.71429	4.	0.	-2064.2
768	0.71429	3.8182	0.	-2108.2
769	0.71429	3.6364	0.	-2141.3
770	0.71429	3.4545	0.	-2164.8
771	0.71429	3.2727	0.	-2180.
772	0.71429	3.0909	0.	-2187.5
773	0.71429	2.9091	0.	-2187.5
774	0.71429	2.7273	0.	-2180.
775	0.71429	2.5455	0.	-2164.8
776	0.71429	2.3636	0.	-2141.3
777	0.71429	2.1818	0.	-2108.2
778	0.71429	2.	0.	-2064.2
779	0.71429	1.8182	0.	-2006.7
780	0.71429	1.6364	0.	-1932.3
781	0.71429	1.4545	0.	-1836.3
782	0.71429	1.2727	0.	-1711.6
783	0.71429	1.0909	0.	-1549.2
784	0.71429	0.90909	0.	-1337.5
785	0.71429	0.72727	0.	-1065.8
786	0.71429	0.54545	0.	-731.81
787	0.71429	0.36364	0.	-354.14
788	0.71429	0.18182	0.	-20.553
789	0.53571	5.8182	0.	-3.4252
790	0.53571	5.6364	0.	-437.14
791	0.53571	5.4545	0.	-892.85
792	0.53571	5.2727	0.	-1256.1
793	0.53571	5.0909	0.	-1523.8
794	0.53571	4.9091	0.	-1717.6
795	0.53571	4.7273	0.	-1859.2
796	0.53571	4.5455	0.	-1964.5
797	0.53571	4.3636	0.	-2044.1
798	0.53571	4.1818	0.	-2104.8
799	0.53571	4.	0.	-2151.4
800	0.53571	3.8182	0.	-2186.8
801	0.53571	3.6364	0.	-2213.2
802	0.53571	3.4545	0.	-2232.
803	0.53571	3.2727	0.	-2244.
804	0.53571	3.0909	0.	-2249.9
805	0.53571	2.9091	0.	-2249.9
806	0.53571	2.7273	0.	-2244.
807	0.53571	2.5455	0.	-2232.
808	0.53571	2.3636	0.	-2213.2
809	0.53571	2.1818	0.	-2186.8
810	0.53571	2.	0.	-2151.4
811	0.53571	1.8182	0.	-2104.8
812	0.53571	1.6364	0.	-2044.1
813	0.53571	1.4545	0.	-1964.5
814	0.53571	1.2727	0.	-1859.2
815	0.53571	1.0909	0.	-1717.6
816	0.53571	0.90909	0.	-1523.8
817	0.53571	0.72727	0.	-1256.1
818	0.53571	0.54545	0.	-892.85
819	0.53571	0.36364	0.	-437.15
820	0.53571	0.18182	0.	-3.4253
821	0.35714	5.8182	0.	-88.646
822	0.35714	5.6364	0.	-696.39
823	0.35714	5.4545	0.	-1256.2
824	0.35714	5.2727	0.	-1623.7
825	0.35714	5.0909	0.	-1865.4
826	0.35714	4.9091	0.	-2030.
827	0.35714	4.7273	0.	-2147.
828	0.35714	4.5455	0.	-2232.9
829	0.35714	4.3636	0.	-2297.4
830	0.35714	4.1818	0.	-2346.4
831	0.35714	4.	0.	-2383.7
832	0.35714	3.8182	0.	-2411.9
833	0.35714	3.6364	0.	-2432.8
834	0.35714	3.4545	0.	-2447.6
835	0.35714	3.2727	0.	-2457.1
836	0.35714	3.0909	0.	-2461.7
837	0.35714	2.9091	0.	-2461.7
838	0.35714	2.7273	0.	-2457.1
839	0.35714	2.5455	0.	-2447.6
840	0.35714	2.3636	0.	-2432.8
841	0.35714	2.1818	0.	-2411.9
842	0.35714	2.	0.	-2383.7
843	0.35714	1.8182	0.	-2346.4
844	0.35714	1.6364	0.	-2297.4
845	0.35714	1.4545	0.	-2232.9
846	0.35714	1.2727	0.	-2147.
847	0.35714	1.0909	0.	-2030.
848	0.35714	0.90909	0.	-1865.4
849	0.35714	0.72727	0.	-1623.7
850	0.35714	0.54545	0.	-1256.2
851	0.35714	0.36364	0.	-696.39
852	0.35714	0.18182	0.	-88.646
853	0.17857	5.8182	0.	-29.546
854	0.17857	5.6364	0.	-856.31
855	0.17857	5.4545	0.	-1285.8
856	0.17857	5.2727	0.	-1530.1
857	0.17857	5.0909	0.	-1683.3
858	0.17857	4.9091	0.	-1788.4
859	0.17857	4.7273	0.	-1863.9
860	0.17857	4.5455	0.	-1920.
861	0.17857	4.3636	0.	-1962.3
862	0.17857	4.1818	0.	-1994.5
863	0.17857	4.	0.	-2019.
864	0.17857	3.8182	0.	-2037.5
865	0.17857	3.6364	0.	-2051.1
866	0.17857	3.4545	0.	-2060.6
867	0.17857	3.2727	0.	-2066.7
868	0.17857	3.0909	0.	-2069.7
869	0.17857	2.9091	0.	-2069.7
870	0.17857	2.7273	0.	-2066.7
871	0.17857	2.5455	0.	-2060.6
872	0.17857	2.3636	0.	-2051.1
873	0.17857	2.1818	0.	-2037.5
874	0.17857	2.	0.	-2019.
875	0.17857	1.8182	0.	-1994.5
876	0.17857	1.6364	0.	-1962.3
877	0.17857	1.4545	0.	-1920.
878	0.17857	1.2727	0.	-1863.9
879	0.17857	1.0909	0.	-1788.4
880	0.17857	0.90909	0.	-1683.3
881	0.17857	0.72727	0.	-1530.1
882	0.17857	0.54545	0.	-1285.8
883	0.17857	0.36364	0.	-856.31
884	0.17857	0.18182	0.	-29.546
885	5.3513	5.8182	0.	-26.478
886	5.5359	5.8182	0.	-8.1741
887	5.7206	5.8182	0.	-3.7849
888	5.9052	5.8182	0.	-1.0227
889	6.0899	5.8182	0.	-0.17158
890	6.2745	5.8182	0.	0.16383
891	6.4592	5.8182	0.	0.22591
892	6.6438	5.8182	0.	0.2027
893	6.8284	5.8182	0.	0.15446
894	7.0131	5.8182	0.	0.10928
895	7.1977	5.8182	0.	7.4516e-002
896	7.3824	5.8182	0.	5.0461e-002
897	7.567	5.8182	0.	3.459e-002
898	7.7516	5.8182	0.	2.3868e-002
899	7.9363	5.8182	0.	1.5421e-002
900	8.1209	5.8182	0.	6.558e-003
901	8.3056	5.8182	0.	-5.5672e-003
902	8.4902	5.8182	0.	-2.474e-002
903	8.6748	5.8182	0.	-5.7022e-002
904	8.8595	5.8182	0.	-0.11204
905	9.0441	5.8182	0.	-0.19846
906	9.2288	5.8182	0.	-0.30038
907	9.4134	5.8182	0.	-0.36616
908	9.598	5.8182	0.	-0.36183
909	9.7827	5.8182	0.	-0.30261
910	9.9673	5.8182	0.	-0.22698
911	10.152	5.8182	0.	-0.16259
912	10.337	5.8182	0.	-0.11631
913	10.521	5.8182	0.	-8.4793e-002
914	10.706	5.8182	0.	-6.3319e-002
915	10.891	5.8182	0.	-4.8394e-002
916	11.075	5.8182	0.	-3.7761e-002
917	11.26	5.8182	0.	-3.0002e-002
918	11.444	5.8182	0.	-2.4214e-002
919	11.629	5.8182	0.	-1.9812e-002
920	11.814	5.8182	0.	-1.6403e-002
921	11.998	5.8182	0.	-1.3739e-002
922	12.183	5.8182	0.	-1.1612e-002
923	12.368	5.8182	0.	-9.8667e-003
924	12.552	5.8182	0.	-8.4683e-003
925	12.737	5.8182	0.	-7.3212e-003
926	12.922	5.8182	0.	-6.3541e-003
927	13.106	5.8182	0.	-5.5438e-003
928	13.291	5.8182	0.	-4.8556e-003
929	13.475	5.8182	0.	-4.2645e-003
930	13.66	5.8182	0.	-3.7551e-003
931	13.845	5.8182	0.	-3.3118e-003
932	14.029	5.8182	0.	-2.9216e-003
933	14.214	5.8182	0.	-2.579e-003
934	14.399	5.8182	0.	-2.2726e-003
935	14.583	5.8182	0.	-1.9986e-003
936	14.768	5.8182	0.	-1.7497e-003
937	14.953	5.8182	0.	-1.5251e-003
938	15.137	5.8182	0.	-1.3191e-003
939	15.322	5.8182	0.	-1.1303e-003
940	15.507	5.8182	0.	-9.5675e-004
941	15.691	5.8182	0.	-7.9335e-004
942	15.876	5.8182	0.	-6.4269e-004
943	16.06	5.8182	0.	-5.0002e-004
944	16.245	5.8182	0.	-3.6676e-004
945	16.43	5.8182	0.	-2.4211e-004
946	16.614	5.8182	0.	-1.198e-004
947	16.799	5.8182	0.	-4.8204e-006
948	16.984	5.8182	0.	8.5016e-005
949	17.168	5.8182	0.	1.852e-004
950	17.353	5.8182	0.	2.8197e-004
951	17.538	5.8182	0.	3.6401e-004
952	17.722	5.8182	0.	4.3937e-004
953	17.907	5.8182	0.	5.0494e-004
954	18.092	5.8182	0.	5.5872e-004
955	18.276	5.8182	0.	5.9994e-004
956	18.461	5.8182	0.	6.2895e-004
957	18.645	5.8182	0.	6.3638e-004
958	18.83	5.8182	0.	6.2354e-004
959	19.015	5.8182	0.	5.8639e-004
960	19.199	5.8182	0.	5.1407e-004
961	19.384	5.8182	0.	4.0757e-004
962	19.569	5.8182	0.	2.4985e-004
963	19.753	5.8182	0.	4.1961e-005
964	19.938	5.8182	0.	-2.3342e-004
965	20.123	5.8182	0.	-5.9226e-004
966	20.307	5.8182	0.	-1.0483e-003
967	20.492	5.8182	0.	-1.6262e-003
968	20.676	5.8182	0.	-2.3441e-003
969	20.861	5.8182	0.	-3.2409e-003
970	21.046	5.8182	0.	-4.352e-003
971	21.23	5.8182	0.	-5.7273e-003
972	21.415	5.8182	0.	-7.4303e-003
973	21.6	5.8182	0.	-9.5371e-003
974	21.784	5.8182	0.	-1.2144e-002
975	21.969	5.8182	0.	-1.5394e-002
976	22.154	5.8182	0.	-1.9456e-002
977	22.338	5.8182	0.	-2.4571e-002
978	22.523	5.8182	0.	-3.1044e-002
979	22.708	5.8182	0.	-3.9434e-002
980	22.892	5.8182	0.	-5.0015e-002
981	23.077	5.8182	0.	-6.5295e-002
982	23.261	5.8182	0.	-8.0877e-002
983	23.446	5.8182	0.	-0.12101
984	23.631	5.8182	0.	-0.11038
985	23.815	5.8182	0.	-0.50914
986	5.3513	5.6364	0.	-13.072
987	5.5359	5.6364	0.	-5.5175
988	5.7206	5.6364	0.	-3.9785
989	5.9052	5.6364	0.	-1.7778
990	6.0899	5.6364	0.	-1.0279
991	6.2745	5.6364	0.	-0.64026
992	6.4592	5.6364	0.	-0.46527
993	6.6438	5.6364	0.	-0.36141
994	6.8284	5.6364	0.	-0.29185
995	7.0131	5.6364	0.	-0.23808
996	7.1977	5.6364	0.	-0.19443
997	7.3824	5.6364	0.	-0.1587
998	7.567	5.6364	0.	-0.13045
999	7.7516	5.6364	0.	-0.11009
1000	7.9363	5.6364	0.	-9.9412e-002
1001	8.1209	5.6364	0.	-0.1044
1002	8.3056	5.6364	0.	-0.15155
1003	8.4902	5.6364	0.	-0.52309
1004	8.6748	5.6364	0.	-2.6734
1005	8.8595	5.6364	0.	-4.8159
1006	9.0441	5.6364	0.	-6.3303
1007	9.2288	5.6364	0.	-7.2856
1008	9.4134	5.6364	0.	-7.7769
1009	9.598	5.6364	0.	-7.8919
1010	9.7827	5.6364	0.	-7.7074
1011	9.9673	5.6364	0.	-7.2885
1012	10.152	5.6364	0.	-6.6903
1013	10.337	5.6364	0.	-5.9583
1014	10.521	5.6364	0.	-5.1302
1015	10.706	5.6364	0.	-4.2366
1016	10.891	5.6364	0.	-3.3021
1017	11.075	5.6364	0.	-2.3467
1018	11.26	5.6364	0.	-1.3864
1019	11.444	5.6364	0.	-0.43977
1020	11.629	5.6364	0.	6.2847e-003
1021	11.814	5.6364	0.	1.2514e-002
1022	11.998	5.6364	0.	1.2259e-002
1023	12.183	5.6364	0.	1.1106e-002
1024	12.368	5.6364	0.	9.7521e-003
1025	12.552	5.6364	0.	8.3221e-003
1026	12.737	5.6364	0.	6.9023e-003
1027	12.922	5.6364	0.	5.5486e-003
1028	13.106	5.6364	0.	4.2508e-003
1029	13.291	5.6364	0.	3.0217e-003
1030	13.475	5.6364	0.	1.8576e-003
1031	13.66	5.6364	0.	7.5877e-004
1032	13.845	5.6364	0.	-2.7916e-004
1033	14.029	5.6364	0.	-1.2595e-003
1034	14.214	5.6364	0.	-2.1863e-003
1035	14.399	5.6364	0.	-3.0652e-003
1036	14.583	5.6364	0.	-3.8971e-003
1037	14.768	5.6364	0.	-4.6909e-003
1038	14.953	5.6364	0.	-5.4497e-003
1039	15.137	5.6364	0.	-6.1757e-003
1040	15.322	5.6364	0.	-6.8759e-003
1041	15.507	5.6364	0.	-7.5541e-003
1042	15.691	5.6364	0.	-8.2149e-003
1043	15.876	5.6364	0.	-8.8576e-003
1044	16.06	5.6364	0.	-9.4953e-003
1045	16.245	5.6364	0.	-1.0125e-002
1046	16.43	5.6364	0.	-1.0755e-002
1047	16.614	5.6364	0.	-1.138e-002
1048	16.799	5.6364	0.	-1.2013e-002
1049	16.984	5.6364	0.	-1.2677e-002
1050	17.168	5.6364	0.	-1.334e-002
1051	17.353	5.6364	0.	-1.4014e-002
1052	17.538	5.6364	0.	-1.4723e-002
1053	17.722	5.6364	0.	-1.5461e-002
1054	17.907	5.6364	0.	-1.6231e-002
1055	18.092	5.6364	0.	-1.7042e-002
1056	18.276	5.6364	0.	-1.7896e-002
1057	18.461	5.6364	0.	-1.8803e-002
1058	18.645	5.6364	0.	-1.9768e-002
1059	18.83	5.6364	0.	-2.0798e-002
1060	19.015	5.6364	0.	-2.1897e-002
1061	19.199	5.6364	0.	-2.3079e-002
1062	19.384	5.6364	0.	-2.4347e-002
1063	19.569	5.6364	0.	-2.5712e-002
1064	19.753	5.6364	0.	-2.7185e-002
1065	19.938	5.6364	0.	-2.8778e-002
1066	20.123	5.6364	0.	-3.0503e-002
1067	20.307	5.6364	0.	-3.2371e-002
1068	20.492	5.6364	0.	-3.4398e-002
1069	20.676	5.6364	0.	-3.6601e-002
1070	20.861	5.6364	0.	-3.8997e-002
1071	21.046	5.6364	0.	-4.16e-002
1072	21.23	5.6364	0.	-4.4436e-002
1073	21.415	5.6364	0.	-4.7532e-002
1074	21.6	5.6364	0.	-5.0899e-002
1075	21.784	5.6364	0.	-5.456e-002
1076	21.969	5.6364	0.	-5.854e-002
1077	22.154	5.6364	0.	-6.2847e-002
1078	22.338	5.6364	0.	-6.7474e-002
1079	22.523	5.6364	0.	-7.2334e-002
1080	22.708	5.6364	0.	-7.7411e-002
1081	22.892	5.6364	0.	-8.186e-002
1082	23.077	5.6364	0.	-8.6937e-002
1083	23.261	5.6364	0.	-8.3114e-002
1084	23.446	5.6364	0.	-9.6465e-002
1085	23.631	5.6364	0.	3.7741e-003
1086	23.815	5.6364	0.	-0.28787
1087	5.3513	5.4545	0.	-9.948
1088	5.5359	5.4545	0.	-3.0655
1089	5.7206	5.4545	0.	-3.494
1090	5.9052	5.4545	0.	-2.0389
1091	6.0899	5.4545	0.	-1.383
1092	6.2745	5.4545	0.	-0.91285
1093	6.4592	5.4545	0.	-0.64307
1094	6.6438	5.4545	0.	-0.46713
1095	6.8284	5.4545	0.	-0.35348
1096	7.0131	5.4545	0.	-0.27854
1097	7.1977	5.4545	0.	-0.23085
1098	7.3824	5.4545	0.	-0.20399
1099	7.567	5.4545	0.	-0.19635
1100	7.7516	5.4545	0.	-0.21329
1101	7.9363	5.4545	0.	-0.28219
1102	8.1209	5.4545	0.	-0.58708
1103	8.3056	5.4545	0.	-3.1222
1104	8.4902	5.4545	0.	-7.5151
1105	8.6748	5.4545	0.	-11.023
1106	8.8595	5.4545	0.	-13.553
1107	9.0441	5.4545	0.	-15.233
1108	9.2288	5.4545	0.	-16.205
1109	9.4134	5.4545	0.	-16.597
1110	9.598	5.4545	0.	-16.523
1111	9.7827	5.4545	0.	-16.081
1112	9.9673	5.4545	0.	-15.355
1113	10.152	5.4545	0.	-14.415
1114	10.337	5.4545	0.	-13.318
1115	10.521	5.4545	0.	-12.113
1116	10.706	5.4545	0.	-10.838
1117	10.891	5.4545	0.	-9.5231
1118	11.075	5.4545	0.	-8.1939
1119	11.26	5.4545	0.	-6.8691
1120	11.444	5.4545	0.	-5.5631
1121	11.629	5.4545	0.	-4.2869
1122	11.814	5.4545	0.	-3.0483
1123	11.998	5.4545	0.	-1.8528
1124	12.183	5.4545	0.	-0.70524
1125	12.368	5.4545	0.	-3.3768e-003
1126	12.552	5.4545	0.	2.4133e-004
1127	12.737	5.4545	0.	3.4714e-004
1128	12.922	5.4545	0.	1.1968e-004
1129	13.106	5.4545	0.	-1.9315e-004
1130	13.291	5.4545	0.	-5.2408e-004
1131	13.475	5.4545	0.	-8.5132e-004
1132	13.66	5.4545	0.	-1.1665e-003
1133	13.845	5.4545	0.	-1.4656e-003
1134	14.029	5.4545	0.	-1.749e-003
1135	14.214	5.4545	0.	-2.0186e-003
1136	14.399	5.4545	0.	-2.2715e-003
1137	14.583	5.4545	0.	-2.5138e-003
1138	14.768	5.4545	0.	-2.7403e-003
1139	14.953	5.4545	0.	-2.9583e-003
1140	15.137	5.4545	0.	-3.1673e-003
1141	15.322	5.4545	0.	-3.3659e-003
1142	15.507	5.4545	0.	-3.5584e-003
1143	15.691	5.4545	0.	-3.745e-003
1144	15.876	5.4545	0.	-3.926e-003
1145	16.06	5.4545	0.	-4.1055e-003
1146	16.245	5.4545	0.	-4.2782e-003
1147	16.43	5.4545	0.	-4.4563e-003
1148	16.614	5.4545	0.	-4.6213e-003
1149	16.799	5.4545	0.	-4.794e-003
1150	16.984	5.4545	0.	-4.9842e-003
1151	17.168	5.4545	0.	-5.1599e-003
1152	17.353	5.4545	0.	-5.3381e-003
1153	17.538	5.4545	0.	-5.5255e-003
1154	17.722	5.4545	0.	-5.7181e-003
1155	17.907	5.4545	0.	-5.9222e-003
1156	18.092	5.4545	0.	-6.1304e-003
1157	18.276	5.4545	0.	-6.3469e-003
1158	18.461	5.4545	0.	-6.5772e-003
1159	18.645	5.4545	0.	-6.8164e-003
1160	18.83	5.4545	0.	-7.0695e-003
1161	19.015	5.4545	0.	-7.3347e-003
1162	19.199	5.4545	0.	-7.6138e-003
1163	19.384	5.4545	0.	-7.911e-003
1164	19.569	5.4545	0.	-8.2212e-003
1165	19.753	5.4545	0.	-8.5459e-003
1166	19.938	5.4545	0.	-8.8872e-003
1167	20.123	5.4545	0.	-9.2434e-003
1168	20.307	5.4545	0.	-9.6108e-003
1169	20.492	5.4545	0.	-9.9896e-003
1170	20.676	5.4545	0.	-1.0372e-002
1171	20.861	5.4545	0.	-1.0753e-002
1172	21.046	5.4545	0.	-1.1118e-002
1173	21.23	5.4545	0.	-1.1455e-002
1174	21.415	5.4545	0.	-1.1741e-002
1175	21.6	5.4545	0.	-1.1939e-002
1176	21.784	5.4545	0.	-1.1992e-002
1177	21.969	5.4545	0.	-1.184e-002
1178	22.154	5.4545	0.	-1.1352e-002
1179	22.338	5.4545	0.	-1.0364e-002
1180	22.523	5.4545	0.	-8.5507e-003
1181	22.708	5.4545	0.	-5.5871e-003
1182	22.892	5.4545	0.	-1.0894e-004
1183	23.077	5.4545	0.	7.0726e-003
1184	23.261	5.4545	0.	2.7986e-002
1185	23.446	5.4545	0.	3.1236e-002
1186	23.631	5.4545	0.	0.18328
1187	23.815	5.4545	0.	-3.5441e-002
1188	5.3513	5.2727	0.	-8.8491
1189	5.5359	5.2727	0.	-1.607
1190	5.7206	5.2727	0.	-3.1015
1191	5.9052	5.2727	0.	-2.1564
1192	6.0899	5.2727	0.	-1.7557
1193	6.2745	5.2727	0.	-1.3476
1194	6.4592	5.2727	0.	-1.065
1195	6.6438	5.2727	0.	-0.85526
1196	6.8284	5.2727	0.	-0.70936
1197	7.0131	5.2727	0.	-0.61262
1198	7.1977	5.2727	0.	-0.56004
1199	7.3824	5.2727	0.	-0.55615
1200	7.567	5.2727	0.	-0.63225
1201	7.7516	5.2727	0.	-0.94541
1202	7.9363	5.2727	0.	-2.8537
1203	8.1209	5.2727	0.	-8.9077
1204	8.3056	5.2727	0.	-14.809
1205	8.4902	5.2727	0.	-19.387
1206	8.6748	5.2727	0.	-22.702
1207	8.8595	5.2727	0.	-24.923
1208	9.0441	5.2727	0.	-26.222
1209	9.2288	5.2727	0.	-26.763
1210	9.4134	5.2727	0.	-26.689
1211	9.598	5.2727	0.	-26.126
1212	9.7827	5.2727	0.	-25.185
1213	9.9673	5.2727	0.	-23.955
1214	10.152	5.2727	0.	-22.515
1215	10.337	5.2727	0.	-20.928
1216	10.521	5.2727	0.	-19.246
1217	10.706	5.2727	0.	-17.51
1218	10.891	5.2727	0.	-15.754
1219	11.075	5.2727	0.	-14.004
1220	11.26	5.2727	0.	-12.279
1221	11.444	5.2727	0.	-10.596
1222	11.629	5.2727	0.	-8.9636
1223	11.814	5.2727	0.	-7.3907
1224	11.998	5.2727	0.	-5.8818
1225	12.183	5.2727	0.	-4.4397
1226	12.368	5.2727	0.	-3.0657
1227	12.552	5.2727	0.	-1.7606
1228	12.737	5.2727	0.	-0.53367
1229	12.922	5.2727	0.	-1.5089e-002
1230	13.106	5.2727	0.	-5.0772e-003
1231	13.291	5.2727	0.	-3.0738e-003
1232	13.475	5.2727	0.	-2.373e-003
1233	13.66	5.2727	0.	-2.1029e-003
1234	13.845	5.2727	0.	-2.022e-003
1235	14.029	5.2727	0.	-2.0347e-003
1236	14.214	5.2727	0.	-2.0968e-003
1237	14.399	5.2727	0.	-2.1866e-003
1238	14.583	5.2727	0.	-2.2914e-003
1239	14.768	5.2727	0.	-2.4036e-003
1240	14.953	5.2727	0.	-2.5217e-003
1241	15.137	5.2727	0.	-2.638e-003
1242	15.322	5.2727	0.	-2.7563e-003
1243	15.507	5.2727	0.	-2.8727e-003
1244	15.691	5.2727	0.	-2.988e-003
1245	15.876	5.2727	0.	-3.0995e-003
1246	16.06	5.2727	0.	-3.2111e-003
1247	16.245	5.2727	0.	-3.3205e-003
1248	16.43	5.2727	0.	-3.4315e-003
1249	16.614	5.2727	0.	-3.5337e-003
1250	16.799	5.2727	0.	-3.6366e-003
1251	16.984	5.2727	0.	-3.7591e-003
1252	17.168	5.2727	0.	-3.8631e-003
1253	17.353	5.2727	0.	-3.9652e-003
1254	17.538	5.2727	0.	-4.0748e-003
1255	17.722	5.2727	0.	-4.1852e-003
1256	17.907	5.2727	0.	-4.2965e-003
1257	18.092	5.2727	0.	-4.4086e-003
1258	18.276	5.2727	0.	-4.5235e-003
1259	18.461	5.2727	0.	-4.6399e-003
1260	18.645	5.2727	0.	-4.759e-003
1261	18.83	5.2727	0.	-4.8775e-003
1262	19.015	5.2727	0.	-4.9969e-003
1263	19.199	5.2727	0.	-5.1206e-003
1264	19.384	5.2727	0.	-5.2375e-003
1265	19.569	5.2727	0.	-5.3532e-003
1266	19.753	5.2727	0.	-5.4637e-003
1267	19.938	5.2727	0.	-5.5636e-003
1268	20.123	5.2727	0.	-5.6507e-003
1269	20.307	5.2727	0.	-5.7193e-003
1270	20.492	5.2727	0.	-5.7553e-003
1271	20.676	5.2727	0.	-5.7567e-003
1272	20.861	5.2727	0.	-5.6998e-003
1273	21.046	5.2727	0.	-5.5713e-003
1274	21.23	5.2727	0.	-5.3391e-003
1275	21.415	5.2727	0.	-4.9717e-003
1276	21.6	5.2727	0.	-4.4098e-003
1277	21.784	5.2727	0.	-3.5809e-003
1278	21.969	5.2727	0.	-2.3897e-003
1279	22.154	5.2727	0.	-6.8434e-004
1280	22.338	5.2727	0.	1.7514e-003
1281	22.523	5.2727	0.	5.2906e-003
1282	22.708	5.2727	0.	1.0312e-002
1283	22.892	5.2727	0.	1.8283e-002
1284	23.077	5.2727	0.	2.8345e-002
1285	23.261	5.2727	0.	5.2924e-002
1286	23.446	5.2727	0.	6.1725e-002
1287	23.631	5.2727	0.	0.22076
1288	23.815	5.2727	0.	1.9293e-002
1289	5.3513	5.0909	0.	-8.8415
1290	5.5359	5.0909	0.	-1.0753
1291	5.7206	5.0909	0.	-3.0446
1292	5.9052	5.0909	0.	-2.3157
1293	6.0899	5.0909	0.	-2.0966
1294	6.2745	5.0909	0.	-1.7749
1295	6.4592	5.0909	0.	-1.5494
1296	6.6438	5.0909	0.	-1.379
1297	6.8284	5.0909	0.	-1.2797
1298	7.0131	5.0909	0.	-1.2646
1299	7.1977	5.0909	0.	-1.3898
1300	7.3824	5.0909	0.	-1.8803
1301	7.567	5.0909	0.	-4.0874
1302	7.7516	5.0909	0.	-11.309
1303	7.9363	5.0909	0.	-19.562
1304	8.1209	5.0909	0.	-26.332
1305	8.3056	5.0909	0.	-31.465
1306	8.4902	5.0909	0.	-35.119
1307	8.6748	5.0909	0.	-37.496
1308	8.8595	5.0909	0.	-38.796
1309	9.0441	5.0909	0.	-39.207
1310	9.2288	5.0909	0.	-38.895
1311	9.4134	5.0909	0.	-38.007
1312	9.598	5.0909	0.	-36.672
1313	9.7827	5.0909	0.	-34.999
1314	9.9673	5.0909	0.	-33.08
1315	10.152	5.0909	0.	-30.99
1316	10.337	5.0909	0.	-28.793
1317	10.521	5.0909	0.	-26.539
1318	10.706	5.0909	0.	-24.269
1319	10.891	5.0909	0.	-22.014
1320	11.075	5.0909	0.	-19.799
1321	11.26	5.0909	0.	-17.642
1322	11.444	5.0909	0.	-15.556
1323	11.629	5.0909	0.	-13.55
1324	11.814	5.0909	0.	-11.631
1325	11.998	5.0909	0.	-9.8003
1326	12.183	5.0909	0.	-8.0603
1327	12.368	5.0909	0.	-6.41
1328	12.552	5.0909	0.	-4.8479
1329	12.737	5.0909	0.	-3.3715
1330	12.922	5.0909	0.	-1.9786
1331	13.106	5.0909	0.	-0.67731
1332	13.291	5.0909	0.	-2.8008e-002
1333	13.475	5.0909	0.	-8.9227e-003
1334	13.66	5.0909	0.	-5.1284e-003
1335	13.845	5.0909	0.	-3.5969e-003
1336	14.029	5.0909	0.	-2.8084e-003
1337	14.214	5.0909	0.	-2.3512e-003
1338	14.399	5.0909	0.	-2.0676e-003
1339	14.583	5.0909	0.	-1.8831e-003
1340	14.768	5.0909	0.	-1.7597e-003
1341	14.953	5.0909	0.	-1.6743e-003
1342	15.137	5.0909	0.	-1.6154e-003
1343	15.322	5.0909	0.	-1.5726e-003
1344	15.507	5.0909	0.	-1.5439e-003
1345	15.691	5.0909	0.	-1.5201e-003
1346	15.876	5.0909	0.	-1.5037e-003
1347	16.06	5.0909	0.	-1.4896e-003
1348	16.245	5.0909	0.	-1.4772e-003
1349	16.43	5.0909	0.	-1.4664e-003
1350	16.614	5.0909	0.	-1.4451e-003
1351	16.799	5.0909	0.	-1.4309e-003
1352	16.984	5.0909	0.	-1.4296e-003
1353	17.168	5.0909	0.	-1.4073e-003
1354	17.353	5.0909	0.	-1.3798e-003
1355	17.538	5.0909	0.	-1.3565e-003
1356	17.722	5.0909	0.	-1.3254e-003
1357	17.907	5.0909	0.	-1.2885e-003
1358	18.092	5.0909	0.	-1.2484e-003
1359	18.276	5.0909	0.	-1.1985e-003
1360	18.461	5.0909	0.	-1.1401e-003
1361	18.645	5.0909	0.	-1.074e-003
1362	18.83	5.0909	0.	-9.9476e-004
1363	19.015	5.0909	0.	-9.0228e-004
1364	19.199	5.0909	0.	-7.936e-004
1365	19.384	5.0909	0.	-6.6414e-004
1366	19.569	5.0909	0.	-5.1097e-004
1367	19.753	5.0909	0.	-3.2991e-004
1368	19.938	5.0909	0.	-1.1382e-004
1369	20.123	5.0909	0.	1.4053e-004
1370	20.307	5.0909	0.	4.5242e-004
1371	20.492	5.0909	0.	8.2505e-004
1372	20.676	5.0909	0.	1.2809e-003
1373	20.861	5.0909	0.	1.8371e-003
1374	21.046	5.0909	0.	2.5206e-003
1375	21.23	5.0909	0.	3.3672e-003
1376	21.415	5.0909	0.	4.4209e-003
1377	21.6	5.0909	0.	5.7478e-003
1378	21.784	5.0909	0.	7.4372e-003
1379	21.969	5.0909	0.	9.5938e-003
1380	22.154	5.0909	0.	1.239e-002
1381	22.338	5.0909	0.	1.6066e-002
1382	22.523	5.0909	0.	2.1009e-002
1383	22.708	5.0909	0.	2.7617e-002
1384	22.892	5.0909	0.	3.7404e-002
1385	23.077	5.0909	0.	4.9542e-002
1386	23.261	5.0909	0.	7.6678e-002
1387	23.446	5.0909	0.	8.841e-002
1388	23.631	5.0909	0.	0.25569
1389	23.815	5.0909	0.	7.1647e-002
1390	5.3513	4.9091	0.	-11.136
1391	5.5359	4.9091	0.	-0.651
1392	5.7206	4.9091	0.	-3.5316
1393	5.9052	4.9091	0.	-2.571
1394	6.0899	4.9091	0.	-2.5134
1395	6.2745	4.9091	0.	-2.326
1396	6.4592	4.9091	0.	-2.2895
1397	6.6438	4.9091	0.	-2.3817
1398	6.8284	4.9091	0.	-2.7267
1399	7.0131	4.9091	0.	-3.7598
1400	7.1977	4.9091	0.	-7.5517
1401	7.3824	4.9091	0.	-17.327
1402	7.567	4.9091	0.	-28.168
1403	7.7516	4.9091	0.	-37.126
1404	7.9363	4.9091	0.	-43.986
1405	8.1209	4.9091	0.	-48.955
1406	8.3056	4.9091	0.	-52.289
1407	8.4902	4.9091	0.	-54.237
1408	8.6748	4.9091	0.	-55.025
1409	8.8595	4.9091	0.	-54.861
1410	9.0441	4.9091	0.	-53.926
1411	9.2288	4.9091	0.	-52.382
1412	9.4134	4.9091	0.	-50.369
1413	9.598	4.9091	0.	-48.005
1414	9.7827	4.9091	0.	-45.393
1415	9.9673	4.9091	0.	-42.615
1416	10.152	4.9091	0.	-39.742
1417	10.337	4.9091	0.	-36.829
1418	10.521	4.9091	0.	-33.92
1419	10.706	4.9091	0.	-31.05
1420	10.891	4.9091	0.	-28.247
1421	11.075	4.9091	0.	-25.53
1422	11.26	4.9091	0.	-22.913
1423	11.444	4.9091	0.	-20.405
1424	11.629	4.9091	0.	-18.013
1425	11.814	4.9091	0.	-15.739
1426	11.998	4.9091	0.	-13.582
1427	12.183	4.9091	0.	-11.543
1428	12.368	4.9091	0.	-9.6176
1429	12.552	4.9091	0.	-7.8021
1430	12.737	4.9091	0.	-6.092
1431	12.922	4.9091	0.	-4.4822
1432	13.106	4.9091	0.	-2.9678
1433	13.291	4.9091	0.	-1.5462
1434	13.475	4.9091	0.	-0.26795
1435	13.66	4.9091	0.	-1.7867e-002
1436	13.845	4.9091	0.	-7.5154e-003
1437	14.029	4.9091	0.	-4.4057e-003
1438	14.214	4.9091	0.	-2.9366e-003
1439	14.399	4.9091	0.	-2.0928e-003
1440	14.583	4.9091	0.	-1.5508e-003
1441	14.768	4.9091	0.	-1.1713e-003
1442	14.953	4.9091	0.	-8.9356e-004
1443	15.137	4.9091	0.	-6.7779e-004
1444	15.322	4.9091	0.	-5.0331e-004
1445	15.507	4.9091	0.	-3.5727e-004
1446	15.691	4.9091	0.	-2.3016e-004
1447	15.876	4.9091	0.	-1.1582e-004
1448	16.06	4.9091	0.	-9.2219e-006
1449	16.245	4.9091	0.	9.1395e-005
1450	16.43	4.9091	0.	1.8866e-004
1451	16.614	4.9091	0.	2.9367e-004
1452	16.799	4.9091	0.	3.9587e-004
1453	16.984	4.9091	0.	4.8107e-004
1454	17.168	4.9091	0.	5.9102e-004
1455	17.353	4.9091	0.	7.0764e-004
1456	17.538	4.9091	0.	8.2539e-004
1457	17.722	4.9091	0.	9.5307e-004
1458	17.907	4.9091	0.	1.0896e-003
1459	18.092	4.9091	0.	1.2367e-003
1460	18.276	4.9091	0.	1.3969e-003
1461	18.461	4.9091	0.	1.5736e-003
1462	18.645	4.9091	0.	1.7645e-003
1463	18.83	4.9091	0.	1.9789e-003
1464	19.015	4.9091	0.	2.2124e-003
1465	19.199	4.9091	0.	2.4756e-003
1466	19.384	4.9091	0.	2.7678e-003
1467	19.569	4.9091	0.	3.0972e-003
1468	19.753	4.9091	0.	3.4663e-003
1469	19.938	4.9091	0.	3.8852e-003
1470	20.123	4.9091	0.	4.366e-003
1471	20.307	4.9091	0.	4.9159e-003
1472	20.492	4.9091	0.	5.5535e-003
1473	20.676	4.9091	0.	6.2927e-003
1474	20.861	4.9091	0.	7.1595e-003
1475	21.046	4.9091	0.	8.1819e-003
1476	21.23	4.9091	0.	9.4036e-003
1477	21.415	4.9091	0.	1.0874e-002
1478	21.6	4.9091	0.	1.2647e-002
1479	21.784	4.9091	0.	1.4834e-002
1480	21.969	4.9091	0.	1.7542e-002
1481	22.154	4.9091	0.	2.0944e-002
1482	22.338	4.9091	0.	2.5282e-002
1483	22.523	4.9091	0.	3.0955e-002
1484	22.708	4.9091	0.	3.835e-002
1485	22.892	4.9091	0.	4.9005e-002
1486	23.077	4.9091	0.	6.2107e-002
1487	23.261	4.9091	0.	9.056e-002
1488	23.446	4.9091	0.	0.10374
1489	23.631	4.9091	0.	0.27603
1490	23.815	4.9091	0.	0.10447
1491	5.3513	4.7273	0.	-9.4679
1492	5.5359	4.7273	0.	-1.0712
1493	5.7206	4.7273	0.	-4.038
1494	5.9052	4.7273	0.	-3.1923
1495	6.0899	4.7273	0.	-3.0705
1496	6.2745	4.7273	0.	-3.2081
1497	6.4592	4.7273	0.	-3.8075
1498	6.6438	4.7273	0.	-5.4942
1499	6.8284	4.7273	0.	-11.525
1500	7.0131	4.7273	0.	-26.7
1501	7.1977	4.7273	0.	-42.419
1502	7.3824	4.7273	0.	-54.572
1503	7.567	4.7273	0.	-63.409
1504	7.7516	4.7273	0.	-69.554
1505	7.9363	4.7273	0.	-73.525
1506	8.1209	4.7273	0.	-75.729
1507	8.3056	4.7273	0.	-76.494
1508	8.4902	4.7273	0.	-76.09
1509	8.6748	4.7273	0.	-74.746
1510	8.8595	4.7273	0.	-72.658
1511	9.0441	4.7273	0.	-69.996
1512	9.2288	4.7273	0.	-66.903
1513	9.4134	4.7273	0.	-63.503
1514	9.598	4.7273	0.	-59.898
1515	9.7827	4.7273	0.	-56.174
1516	9.9673	4.7273	0.	-52.4
1517	10.152	4.7273	0.	-48.633
1518	10.337	4.7273	0.	-44.917
1519	10.521	4.7273	0.	-41.287
1520	10.706	4.7273	0.	-37.768
1521	10.891	4.7273	0.	-34.379
1522	11.075	4.7273	0.	-31.133
1523	11.26	4.7273	0.	-28.037
1524	11.444	4.7273	0.	-25.095
1525	11.629	4.7273	0.	-22.309
1526	11.814	4.7273	0.	-19.677
1527	11.998	4.7273	0.	-17.195
1528	12.183	4.7273	0.	-14.859
1529	12.368	4.7273	0.	-12.662
1530	12.552	4.7273	0.	-10.599
1531	12.737	4.7273	0.	-8.6616
1532	12.922	4.7273	0.	-6.8434
1533	13.106	4.7273	0.	-5.1369
1534	13.291	4.7273	0.	-3.5351
1535	13.475	4.7273	0.	-2.0324
1536	13.66	4.7273	0.	-0.63856
1537	13.845	4.7273	0.	-2.7095e-002
1538	14.029	4.7273	0.	-8.3958e-003
1539	14.214	4.7273	0.	-4.1473e-003
1540	14.399	4.7273	0.	-2.2772e-003
1541	14.583	4.7273	0.	-1.221e-003
1542	14.768	4.7273	0.	-5.3678e-004
1543	14.953	4.7273	0.	-5.017e-005
1544	15.137	4.7273	0.	3.2175e-004
1545	15.322	4.7273	0.	6.1852e-004
1546	15.507	4.7273	0.	8.7064e-004
1547	15.691	4.7273	0.	1.0887e-003
1548	15.876	4.7273	0.	1.2868e-003
1549	16.06	4.7273	0.	1.4703e-003
1550	16.245	4.7273	0.	1.6456e-003
1551	16.43	4.7273	0.	1.814e-003
1552	16.614	4.7273	0.	1.9901e-003
1553	16.799	4.7273	0.	2.1622e-003
1554	16.984	4.7273	0.	2.3224e-003
1555	17.168	4.7273	0.	2.5032e-003
1556	17.353	4.7273	0.	2.6968e-003
1557	17.538	4.7273	0.	2.8906e-003
1558	17.722	4.7273	0.	3.0983e-003
1559	17.907	4.7273	0.	3.3182e-003
1560	18.092	4.7273	0.	3.5524e-003
1561	18.276	4.7273	0.	3.8047e-003
1562	18.461	4.7273	0.	4.0782e-003
1563	18.645	4.7273	0.	4.3743e-003
1564	18.83	4.7273	0.	4.693e-003
1565	19.015	4.7273	0.	5.0427e-003
1566	19.199	4.7273	0.	5.4284e-003
1567	19.384	4.7273	0.	5.8495e-003
1568	19.569	4.7273	0.	6.3196e-003
1569	19.753	4.7273	0.	6.8374e-003
1570	19.938	4.7273	0.	7.4191e-003
1571	20.123	4.7273	0.	8.0709e-003
1572	20.307	4.7273	0.	8.8074e-003
1573	20.492	4.7273	0.	9.6427e-003
1574	20.676	4.7273	0.	1.0598e-002
1575	20.861	4.7273	0.	1.1699e-002
1576	21.046	4.7273	0.	1.2976e-002
1577	21.23	4.7273	0.	1.447e-002
1578	21.415	4.7273	0.	1.6229e-002
1579	21.6	4.7273	0.	1.8327e-002
1580	21.784	4.7273	0.	2.0858e-002
1581	21.969	4.7273	0.	2.3938e-002
1582	22.154	4.7273	0.	2.7739e-002
1583	22.338	4.7273	0.	3.2504e-002
1584	22.523	4.7273	0.	3.8628e-002
1585	22.708	4.7273	0.	4.6512e-002
1586	22.892	4.7273	0.	5.7709e-002
1587	23.077	4.7273	0.	7.1439e-002
1588	23.261	4.7273	0.	0.10079
1589	23.446	4.7273	0.	0.11513
1590	23.631	4.7273	0.	0.29129
1591	23.815	4.7273	0.	0.13015
1592	5.3513	4.5455	0.	-29.854
1593	5.5359	4.5455	0.	-2.1879
1594	5.7206	4.5455	0.	-4.5663
1595	5.9052	4.5455	0.	-4.0821
1596	6.0899	4.5455	0.	-4.1051
1597	6.2745	4.5455	0.	-5.1193
1598	6.4592	4.5455	0.	-9.5162
1599	6.6438	4.5455	0.	-29.175
1600	6.8284	4.5455	0.	-57.467
1601	7.0131	4.5455	0.	-77.965
1602	7.1977	4.5455	0.	-91.353
1603	7.3824	4.5455	0.	-99.687
1604	7.567	4.5455	0.	-104.44
1605	7.7516	4.5455	0.	-106.58
1606	7.9363	4.5455	0.	-106.79
1607	8.1209	4.5455	0.	-105.52
1608	8.3056	4.5455	0.	-103.12
1609	8.4902	4.5455	0.	-99.866
1610	8.6748	4.5455	0.	-95.971
1611	8.8595	4.5455	0.	-91.611
1612	9.0441	4.5455	0.	-86.931
1613	9.2288	4.5455	0.	-82.05
1614	9.4134	4.5455	0.	-77.067
1615	9.598	4.5455	0.	-72.062
1616	9.7827	4.5455	0.	-67.099
1617	9.9673	4.5455	0.	-62.229
1618	10.152	4.5455	0.	-57.491
1619	10.337	4.5455	0.	-52.914
1620	10.521	4.5455	0.	-48.518
1621	10.706	4.5455	0.	-44.318
1622	10.891	4.5455	0.	-40.321
1623	11.075	4.5455	0.	-36.531
1624	11.26	4.5455	0.	-32.948
1625	11.444	4.5455	0.	-29.57
1626	11.629	4.5455	0.	-26.39
1627	11.814	4.5455	0.	-23.404
1628	11.998	4.5455	0.	-20.601
1629	12.183	4.5455	0.	-17.975
1630	12.368	4.5455	0.	-15.516
1631	12.552	4.5455	0.	-13.213
1632	12.737	4.5455	0.	-11.058
1633	12.922	4.5455	0.	-9.0411
1634	13.106	4.5455	0.	-7.1525
1635	13.291	4.5455	0.	-5.3834
1636	13.475	4.5455	0.	-3.725
1637	13.66	4.5455	0.	-2.1704
1638	13.845	4.5455	0.	-0.72437
1639	14.029	4.5455	0.	-2.6481e-002
1640	14.214	4.5455	0.	-6.9136e-003
1641	14.399	4.5455	0.	-2.7399e-003
1642	14.583	4.5455	0.	-9.0875e-004
1643	14.768	4.5455	0.	1.3853e-004
1644	14.953	4.5455	0.	8.3552e-004
1645	15.137	4.5455	0.	1.3436e-003
1646	15.322	4.5455	0.	1.7444e-003
1647	15.507	4.5455	0.	2.0756e-003
1648	15.691	4.5455	0.	2.3647e-003
1649	15.876	4.5455	0.	2.6246e-003
1650	16.06	4.5455	0.	2.8659e-003
1651	16.245	4.5455	0.	3.0953e-003
1652	16.43	4.5455	0.	3.3207e-003
1653	16.614	4.5455	0.	3.5471e-003
1654	16.799	4.5455	0.	3.7753e-003
1655	16.984	4.5455	0.	3.9869e-003
1656	17.168	4.5455	0.	4.2249e-003
1657	17.353	4.5455	0.	4.4718e-003
1658	17.538	4.5455	0.	4.7248e-003
1659	17.722	4.5455	0.	4.9936e-003
1660	17.907	4.5455	0.	5.2753e-003
1661	18.092	4.5455	0.	5.5777e-003
1662	18.276	4.5455	0.	5.8994e-003
1663	18.461	4.5455	0.	6.2448e-003
1664	18.645	4.5455	0.	6.6126e-003
1665	18.83	4.5455	0.	7.018e-003
1666	19.015	4.5455	0.	7.4501e-003
1667	19.199	4.5455	0.	7.9291e-003
1668	19.384	4.5455	0.	8.4483e-003
1669	19.569	4.5455	0.	9.0168e-003
1670	19.753	4.5455	0.	9.6494e-003
1671	19.938	4.5455	0.	1.0347e-002
1672	20.123	4.5455	0.	1.1122e-002
1673	20.307	4.5455	0.	1.1991e-002
1674	20.492	4.5455	0.	1.2973e-002
1675	20.676	4.5455	0.	1.4077e-002
1676	20.861	4.5455	0.	1.534e-002
1677	21.046	4.5455	0.	1.6791e-002
1678	21.23	4.5455	0.	1.8472e-002
1679	21.415	4.5455	0.	2.0431e-002
1680	21.6	4.5455	0.	2.2739e-002
1681	21.784	4.5455	0.	2.5495e-002
1682	21.969	4.5455	0.	2.8807e-002
1683	22.154	4.5455	0.	3.2856e-002
1684	22.338	4.5455	0.	3.7874e-002
1685	22.523	4.5455	0.	4.4269e-002
1686	22.708	4.5455	0.	5.2444e-002
1687	22.892	4.5455	0.	6.3977e-002
1688	23.077	4.5455	0.	7.8117e-002
1689	23.261	4.5455	0.	0.10812
1690	23.446	4.5455	0.	0.1233
1691	23.631	4.5455	0.	0.30245
1692	23.815	4.5455	0.	0.14986
1693	5.3513	4.3636	0.	12.885
1694	5.5359	4.3636	0.	2.4437
1695	5.7206	4.3636	0.	-13.531
1696	5.9052	4.3636	0.	-3.3605
1697	6.0899	4.3636	0.	-6.5802
1698	6.2745	4.3636	0.	-13.293
1699	6.4592	4.3636	0.	-52.401
1700	6.6438	4.3636	0.	-95.805
1701	6.8284	4.3636	0.	-122.96
1702	7.0131	4.3636	0.	-138.46
1703	7.1977	4.3636	0.	-146.38
1704	7.3824	4.3636	0.	-149.34
1705	7.567	4.3636	0.	-148.99
1706	7.7516	4.3636	0.	-146.39
1707	7.9363	4.3636	0.	-142.24
1708	8.1209	4.3636	0.	-137.01
1709	8.3056	4.3636	0.	-131.06
1710	8.4902	4.3636	0.	-124.63
1711	8.6748	4.3636	0.	-117.91
1712	8.8595	4.3636	0.	-111.05
1713	9.0441	4.3636	0.	-104.17
1714	9.2288	4.3636	0.	-97.349
1715	9.4134	4.3636	0.	-90.663
1716	9.598	4.3636	0.	-84.164
1717	9.7827	4.3636	0.	-77.89
1718	9.9673	4.3636	0.	-71.869
1719	10.152	4.3636	0.	-66.119
1720	10.337	4.3636	0.	-60.653
1721	10.521	4.3636	0.	-55.473
1722	10.706	4.3636	0.	-50.581
1723	10.891	4.3636	0.	-45.972
1724	11.075	4.3636	0.	-41.639
1725	11.26	4.3636	0.	-37.574
1726	11.444	4.3636	0.	-33.766
1727	11.629	4.3636	0.	-30.204
1728	11.814	4.3636	0.	-26.873
1729	11.998	4.3636	0.	-23.763
1730	12.183	4.3636	0.	-20.859
1731	12.368	4.3636	0.	-18.149
1732	12.552	4.3636	0.	-15.62
1733	12.737	4.3636	0.	-13.259
1734	12.922	4.3636	0.	-11.056
1735	13.106	4.3636	0.	-8.997
1736	13.291	4.3636	0.	-7.0723
1737	13.475	4.3636	0.	-5.2711
1738	13.66	4.3636	0.	-3.5837
1739	13.845	4.3636	0.	-2.0022
1740	14.029	4.3636	0.	-0.53633
1741	14.214	4.3636	0.	-1.5963e-002
1742	14.399	4.3636	0.	-3.74e-003
1743	14.583	4.3636	0.	-5.999e-004
1744	14.768	4.3636	0.	8.815e-004
1745	14.953	4.3636	0.	1.7742e-003
1746	15.137	4.3636	0.	2.394e-003
1747	15.322	4.3636	0.	2.8676e-003
1748	15.507	4.3636	0.	3.2562e-003
1749	15.691	4.3636	0.	3.5921e-003
1750	15.876	4.3636	0.	3.8923e-003
1751	16.06	4.3636	0.	4.1754e-003
1752	16.245	4.3636	0.	4.4412e-003
1753	16.43	4.3636	0.	4.7012e-003
1754	16.614	4.3636	0.	4.9698e-003
1755	16.799	4.3636	0.	5.2331e-003
1756	16.984	4.3636	0.	5.4847e-003
1757	17.168	4.3636	0.	5.7629e-003
1758	17.353	4.3636	0.	6.053e-003
1759	17.538	4.3636	0.	6.3496e-003
1760	17.722	4.3636	0.	6.6627e-003
1761	17.907	4.3636	0.	6.9933e-003
1762	18.092	4.3636	0.	7.3448e-003
1763	18.276	4.3636	0.	7.7171e-003
1764	18.461	4.3636	0.	8.1174e-003
1765	18.645	4.3636	0.	8.5451e-003
1766	18.83	4.3636	0.	9.0108e-003
1767	19.015	4.3636	0.	9.5106e-003
1768	19.199	4.3636	0.	1.0055e-002
1769	19.384	4.3636	0.	1.0646e-002
1770	19.569	4.3636	0.	1.1296e-002
1771	19.753	4.3636	0.	1.2006e-002
1772	19.938	4.3636	0.	1.2791e-002
1773	20.123	4.3636	0.	1.3658e-002
1774	20.307	4.3636	0.	1.4627e-002
1775	20.492	4.3636	0.	1.5709e-002
1776	20.676	4.3636	0.	1.6925e-002
1777	20.861	4.3636	0.	1.8307e-002
1778	21.046	4.3636	0.	1.988e-002
1779	21.23	4.3636	0.	2.1689e-002
1780	21.415	4.3636	0.	2.3783e-002
1781	21.6	4.3636	0.	2.6231e-002
1782	21.784	4.3636	0.	2.9132e-002
1783	21.969	4.3636	0.	3.2596e-002
1784	22.154	4.3636	0.	3.6798e-002
1785	22.338	4.3636	0.	4.198e-002
1786	22.523	4.3636	0.	4.8544e-002
1787	22.708	4.3636	0.	5.6913e-002
1788	22.892	4.3636	0.	6.8679e-002
1789	23.077	4.3636	0.	8.3129e-002
1790	23.261	4.3636	0.	0.11363
1791	23.446	4.3636	0.	0.12949
1792	23.631	4.3636	0.	0.311
1793	23.815	4.3636	0.	0.16556
1794	5.3513	4.1818	0.	-178.13
1795	5.5359	4.1818	0.	10.767
1796	5.7206	4.1818	0.	-9.4585
1797	5.9052	4.1818	0.	-6.2721
1798	6.0899	4.1818	0.	-15.997
1799	6.2745	4.1818	0.	-76.809
1800	6.4592	4.1818	0.	-138.98
1801	6.6438	4.1818	0.	-175.33
1802	6.8284	4.1818	0.	-194.41
1803	7.0131	4.1818	0.	-202.56
1804	7.1977	4.1818	0.	-203.8
1805	7.3824	4.1818	0.	-200.65
1806	7.567	4.1818	0.	-194.7
1807	7.7516	4.1818	0.	-186.99
1808	7.9363	4.1818	0.	-178.2
1809	8.1209	4.1818	0.	-168.8
1810	8.3056	4.1818	0.	-159.12
1811	8.4902	4.1818	0.	-149.36
1812	8.6748	4.1818	0.	-139.71
1813	8.8595	4.1818	0.	-130.26
1814	9.0441	4.1818	0.	-121.1
1815	9.2288	4.1818	0.	-112.29
1816	9.4134	4.1818	0.	-103.86
1817	9.598	4.1818	0.	-95.843
1818	9.7827	4.1818	0.	-88.243
1819	9.9673	4.1818	0.	-81.065
1820	10.152	4.1818	0.	-74.305
1821	10.337	4.1818	0.	-67.955
1822	10.521	4.1818	0.	-62.002
1823	10.706	4.1818	0.	-56.432
1824	10.891	4.1818	0.	-51.227
1825	11.075	4.1818	0.	-46.369
1826	11.26	4.1818	0.	-41.841
1827	11.444	4.1818	0.	-37.622
1828	11.629	4.1818	0.	-33.694
1829	11.814	4.1818	0.	-30.039
1830	11.998	4.1818	0.	-26.639
1831	12.183	4.1818	0.	-23.476
1832	12.368	4.1818	0.	-20.532
1833	12.552	4.1818	0.	-17.794
1834	12.737	4.1818	0.	-15.244
1835	12.922	4.1818	0.	-12.868
1836	13.106	4.1818	0.	-10.654
1837	13.291	4.1818	0.	-8.5869
1838	13.475	4.1818	0.	-6.6559
1839	13.66	4.1818	0.	-4.8492
1840	13.845	4.1818	0.	-3.1564
1841	14.029	4.1818	0.	-1.5697
1842	14.214	4.1818	0.	-0.15718
1843	14.399	4.1818	0.	-6.0794e-003
1844	14.583	4.1818	0.	-2.7567e-004
1845	14.768	4.1818	0.	1.7101e-003
1846	14.953	4.1818	0.	2.7649e-003
1847	15.137	4.1818	0.	3.4563e-003
1848	15.322	4.1818	0.	3.9699e-003
1849	15.507	4.1818	0.	4.3861e-003
1850	15.691	4.1818	0.	4.7434e-003
1851	15.876	4.1818	0.	5.0686e-003
1852	16.06	4.1818	0.	5.3708e-003
1853	16.245	4.1818	0.	5.662e-003
1854	16.43	4.1818	0.	5.9443e-003
1855	16.614	4.1818	0.	6.2366e-003
1856	16.799	4.1818	0.	6.5262e-003
1857	16.984	4.1818	0.	6.8051e-003
1858	17.168	4.1818	0.	7.1099e-003
1859	17.353	4.1818	0.	7.4297e-003
1860	17.538	4.1818	0.	7.7578e-003
1861	17.722	4.1818	0.	8.1042e-003
1862	17.907	4.1818	0.	8.4682e-003
1863	18.092	4.1818	0.	8.8555e-003
1864	18.276	4.1818	0.	9.2695e-003
1865	18.461	4.1818	0.	9.7103e-003
1866	18.645	4.1818	0.	1.0183e-002
1867	18.83	4.1818	0.	1.0689e-002
1868	19.015	4.1818	0.	1.1239e-002
1869	19.199	4.1818	0.	1.1832e-002
1870	19.384	4.1818	0.	1.2479e-002
1871	19.569	4.1818	0.	1.3183e-002
1872	19.753	4.1818	0.	1.3956e-002
1873	19.938	4.1818	0.	1.4802e-002
1874	20.123	4.1818	0.	1.5737e-002
1875	20.307	4.1818	0.	1.6779e-002
1876	20.492	4.1818	0.	1.7933e-002
1877	20.676	4.1818	0.	1.923e-002
1878	20.861	4.1818	0.	2.0692e-002
1879	21.046	4.1818	0.	2.2348e-002
1880	21.23	4.1818	0.	2.4247e-002
1881	21.415	4.1818	0.	2.643e-002
1882	21.6	4.1818	0.	2.8975e-002
1883	21.784	4.1818	0.	3.1968e-002
1884	21.969	4.1818	0.	3.5529e-002
1885	22.154	4.1818	0.	3.983e-002
1886	22.338	4.1818	0.	4.5114e-002
1887	22.523	4.1818	0.	5.179e-002
1888	22.708	4.1818	0.	6.0289e-002
1889	22.892	4.1818	0.	7.2228e-002
1890	23.077	4.1818	0.	8.6913e-002
1891	23.261	4.1818	0.	0.11781
1892	23.446	4.1818	0.	0.1342
1893	23.631	4.1818	0.	0.3176
1894	23.815	4.1818	0.	0.1781
1895	5.3513	4.	0.	-673.39
1896	5.5359	4.	0.	90.573
1897	5.7206	4.	0.	-20.557
1898	5.9052	4.	0.	-10.882
1899	6.0899	4.	0.	-97.704
1900	6.2745	4.	0.	-181.19
1901	6.4592	4.	0.	-229.78
1902	6.6438	4.	0.	-254.83
1903	6.8284	4.	0.	-264.9
1904	7.0131	4.	0.	-265.42
1905	7.1977	4.	0.	-259.9
1906	7.3824	4.	0.	-250.64
1907	7.567	4.	0.	-239.11
1908	7.7516	4.	0.	-226.33
1909	7.9363	4.	0.	-212.96
1910	8.1209	4.	0.	-199.43
1911	8.3056	4.	0.	-186.05
1912	8.4902	4.	0.	-173.02
1913	8.6748	4.	0.	-160.47
1914	8.8595	4.	0.	-148.48
1915	9.0441	4.	0.	-137.09
1916	9.2288	4.	0.	-126.34
1917	9.4134	4.	0.	-116.22
1918	9.598	4.	0.	-106.73
1919	9.7827	4.	0.	-97.849
1920	9.9673	4.	0.	-89.558
1921	10.152	4.	0.	-81.832
1922	10.337	4.	0.	-74.64
1923	10.521	4.	0.	-67.954
1924	10.706	4.	0.	-61.743
1925	10.891	4.	0.	-55.979
1926	11.075	4.	0.	-50.631
1927	11.26	4.	0.	-45.671
1928	11.444	4.	0.	-41.072
1929	11.629	4.	0.	-36.809
1930	11.814	4.	0.	-32.857
1931	11.998	4.	0.	-29.192
1932	12.183	4.	0.	-25.792
1933	12.368	4.	0.	-22.638
1934	12.552	4.	0.	-19.71
1935	12.737	4.	0.	-16.99
1936	12.922	4.	0.	-14.461
1937	13.106	4.	0.	-12.107
1938	13.291	4.	0.	-9.9137
1939	13.475	4.	0.	-7.8675
1940	13.66	4.	0.	-5.9553
1941	13.845	4.	0.	-4.1654
1942	14.029	4.	0.	-2.487
1943	14.214	4.	0.	-0.91477
1944	14.399	4.	0.	-1.3911e-002
1945	14.583	4.	0.	9.2358e-005
1946	14.768	4.	0.	2.6456e-003
1947	14.953	4.	0.	3.7987e-003
1948	15.137	4.	0.	4.5069e-003
1949	15.322	4.	0.	5.0225e-003
1950	15.507	4.	0.	5.44e-003
1951	15.691	4.	0.	5.8e-003
1952	15.876	4.	0.	6.129e-003
1953	16.06	4.	0.	6.438e-003
1954	16.245	4.	0.	6.7384e-003
1955	16.43	4.	0.	7.0335e-003
1956	16.614	4.	0.	7.3385e-003
1957	16.799	4.	0.	7.6449e-003
1958	16.984	4.	0.	7.9394e-003
1959	17.168	4.	0.	8.264e-003
1960	17.353	4.	0.	8.6045e-003
1961	17.538	4.	0.	8.9534e-003
1962	17.722	4.	0.	9.3232e-003
1963	17.907	4.	0.	9.7155e-003
1964	18.092	4.	0.	1.0126e-002
1965	18.276	4.	0.	1.0567e-002
1966	18.461	4.	0.	1.1037e-002
1967	18.645	4.	0.	1.1541e-002
1968	18.83	4.	0.	1.2084e-002
1969	19.015	4.	0.	1.2669e-002
1970	19.199	4.	0.	1.3298e-002
1971	19.384	4.	0.	1.3983e-002
1972	19.569	4.	0.	1.4729e-002
1973	19.753	4.	0.	1.5546e-002
1974	19.938	4.	0.	1.644e-002
1975	20.123	4.	0.	1.7423e-002
1976	20.307	4.	0.	1.8512e-002
1977	20.492	4.	0.	1.972e-002
1978	20.676	4.	0.	2.1074e-002
1979	20.861	4.	0.	2.2593e-002
1980	21.046	4.	0.	2.4309e-002
1981	21.23	4.	0.	2.6269e-002
1982	21.415	4.	0.	2.8511e-002
1983	21.6	4.	0.	3.1116e-002
1984	21.784	4.	0.	3.4172e-002
1985	21.969	4.	0.	3.7796e-002
1986	22.154	4.	0.	4.2157e-002
1987	22.338	4.	0.	4.7509e-002
1988	22.523	4.	0.	5.4263e-002
1989	22.708	4.	0.	6.2856e-002
1990	22.892	4.	0.	7.4926e-002
1991	23.077	4.	0.	8.9797e-002
1992	23.261	4.	0.	0.12101
1993	23.446	4.	0.	0.13783
1994	23.631	4.	0.	0.32272
1995	23.815	4.	0.	0.18812
1996	5.3513	3.8182	0.	-8.6905
1997	5.5359	3.8182	0.	42.323
1998	5.7206	3.8182	0.	-11.055
1999	5.9052	3.8182	0.	-83.567
2000	6.0899	3.8182	0.	-201.8
2001	6.2745	3.8182	0.	-270.79
2002	6.4592	3.8182	0.	-308.49
2003	6.6438	3.8182	0.	-325.21
2004	6.8284	3.8182	0.	-328.27
2005	7.0131	3.8182	0.	-322.5
2006	7.1977	3.8182	0.	-311.15
2007	7.3824	3.8182	0.	-296.45
2008	7.567	3.8182	0.	-279.87
2009	7.7516	3.8182	0.	-262.44
2010	7.9363	3.8182	0.	-244.82
2011	8.1209	3.8182	0.	-227.46
2012	8.3056	3.8182	0.	-210.66
2013	8.4902	3.8182	0.	-194.58
2014	8.6748	3.8182	0.	-179.34
2015	8.8595	3.8182	0.	-164.99
2016	9.0441	3.8182	0.	-151.54
2017	9.2288	3.8182	0.	-138.99
2018	9.4134	3.8182	0.	-127.31
2019	9.598	3.8182	0.	-116.46
2020	9.7827	3.8182	0.	-106.4
2021	9.9673	3.8182	0.	-97.096
2022	10.152	3.8182	0.	-88.486
2023	10.337	3.8182	0.	-80.53
2024	10.521	3.8182	0.	-73.18
2025	10.706	3.8182	0.	-66.392
2026	10.891	3.8182	0.	-60.124
2027	11.075	3.8182	0.	-54.337
2028	11.26	3.8182	0.	-48.992
2029	11.444	3.8182	0.	-44.056
2030	11.629	3.8182	0.	-39.496
2031	11.814	3.8182	0.	-35.281
2032	11.998	3.8182	0.	-31.383
2033	12.183	3.8182	0.	-27.777
2034	12.368	3.8182	0.	-24.439
2035	12.552	3.8182	0.	-21.346
2036	12.737	3.8182	0.	-18.478
2037	12.922	3.8182	0.	-15.816
2038	13.106	3.8182	0.	-13.342
2039	13.291	3.8182	0.	-11.04
2040	13.475	3.8182	0.	-8.895
2041	13.66	3.8182	0.	-6.8924
2042	13.845	3.8182	0.	-5.0196
2043	14.029	3.8182	0.	-3.2644
2044	14.214	3.8182	0.	-1.6167
2045	14.399	3.8182	0.	-0.12196
2046	14.583	3.8182	0.	5.5777e-004
2047	14.768	3.8182	0.	3.693e-003
2048	14.953	3.8182	0.	4.8434e-003
2049	15.137	3.8182	0.	5.5112e-003
2050	15.322	3.8182	0.	5.9932e-003
2051	15.507	3.8182	0.	6.3862e-003
2052	15.691	3.8182	0.	6.7317e-003
2053	15.876	3.8182	0.	7.0509e-003
2054	16.06	3.8182	0.	7.3569e-003
2055	16.245	3.8182	0.	7.6587e-003
2056	16.43	3.8182	0.	7.9564e-003
2057	16.614	3.8182	0.	8.2688e-003
2058	16.799	3.8182	0.	8.5802e-003
2059	16.984	3.8182	0.	8.8885e-003
2060	17.168	3.8182	0.	9.2225e-003
2061	17.353	3.8182	0.	9.5773e-003
2062	17.538	3.8182	0.	9.9399e-003
2063	17.722	3.8182	0.	1.0326e-002
2064	17.907	3.8182	0.	1.0732e-002
2065	18.092	3.8182	0.	1.1165e-002
2066	18.276	3.8182	0.	1.1626e-002
2067	18.461	3.8182	0.	1.2118e-002
2068	18.645	3.8182	0.	1.2643e-002
2069	18.83	3.8182	0.	1.3209e-002
2070	19.015	3.8182	0.	1.3817e-002
2071	19.199	3.8182	0.	1.4477e-002
2072	19.384	3.8182	0.	1.5188e-002
2073	19.569	3.8182	0.	1.5968e-002
2074	19.753	3.8182	0.	1.6811e-002
2075	19.938	3.8182	0.	1.7742e-002
2076	20.123	3.8182	0.	1.8759e-002
2077	20.307	3.8182	0.	1.9884e-002
2078	20.492	3.8182	0.	2.1133e-002
2079	20.676	3.8182	0.	2.2522e-002
2080	20.861	3.8182	0.	2.408e-002
2081	21.046	3.8182	0.	2.5839e-002
2082	21.23	3.8182	0.	2.7834e-002
2083	21.415	3.8182	0.	3.0121e-002
2084	21.6	3.8182	0.	3.2763e-002
2085	21.784	3.8182	0.	3.586e-002
2086	21.969	3.8182	0.	3.9517e-002
2087	22.154	3.8182	0.	4.3924e-002
2088	22.338	3.8182	0.	4.9319e-002
2089	22.523	3.8182	0.	5.6127e-002
2090	22.708	3.8182	0.	6.4794e-002
2091	22.892	3.8182	0.	7.6966e-002
2092	23.077	3.8182	0.	9.1983e-002
2093	23.261	3.8182	0.	0.12344
2094	23.446	3.8182	0.	0.14059
2095	23.631	3.8182	0.	0.32665
2096	23.815	3.8182	0.	0.19603
2097	5.3513	3.6364	0.	-20.878
2098	5.5359	3.6364	0.	-11.02
2099	5.7206	3.6364	0.	6.048
2100	5.9052	3.6364	0.	-139.53
2101	6.0899	3.6364	0.	-260.25
2102	6.2745	3.6364	0.	-330.08
2103	6.4592	3.6364	0.	-366.4
2104	6.6438	3.6364	0.	-380.51
2105	6.8284	3.6364	0.	-380.06
2106	7.0131	3.6364	0.	-370.25
2107	7.1977	3.6364	0.	-354.63
2108	7.3824	3.6364	0.	-335.63
2109	7.567	3.6364	0.	-314.89
2110	7.7516	3.6364	0.	-293.53
2111	7.9363	3.6364	0.	-272.27
2112	8.1209	3.6364	0.	-251.6
2113	8.3056	3.6364	0.	-231.82
2114	8.4902	3.6364	0.	-213.1
2115	8.6748	3.6364	0.	-195.52
2116	8.8595	3.6364	0.	-179.11
2117	9.0441	3.6364	0.	-163.87
2118	9.2288	3.6364	0.	-149.75
2119	9.4134	3.6364	0.	-136.72
2120	9.598	3.6364	0.	-124.7
2121	9.7827	3.6364	0.	-113.63
2122	9.9673	3.6364	0.	-103.44
2123	10.152	3.6364	0.	-94.075
2124	10.337	3.6364	0.	-85.462
2125	10.521	3.6364	0.	-77.544
2126	10.706	3.6364	0.	-70.263
2127	10.891	3.6364	0.	-63.568
2128	11.075	3.6364	0.	-57.408
2129	11.26	3.6364	0.	-51.738
2130	11.444	3.6364	0.	-46.518
2131	11.629	3.6364	0.	-41.707
2132	11.814	3.6364	0.	-37.273
2133	11.998	3.6364	0.	-33.181
2134	12.183	3.6364	0.	-29.403
2135	12.368	3.6364	0.	-25.911
2136	12.552	3.6364	0.	-22.682
2137	12.737	3.6364	0.	-19.692
2138	12.922	3.6364	0.	-16.92
2139	13.106	3.6364	0.	-14.347
2140	13.291	3.6364	0.	-11.955
2141	13.475	3.6364	0.	-9.729
2142	13.66	3.6364	0.	-7.6524
2143	13.845	3.6364	0.	-5.7118
2144	14.029	3.6364	0.	-3.8942
2145	14.214	3.6364	0.	-2.1879
2146	14.399	3.6364	0.	-0.58647
2147	14.583	3.6364	0.	1.2311e-003
2148	14.768	3.6364	0.	4.8301e-003
2149	14.953	3.6364	0.	5.847e-003
2150	15.137	3.6364	0.	6.421e-003
2151	15.322	3.6364	0.	6.8405e-003
2152	15.507	3.6364	0.	7.1948e-003
2153	15.691	3.6364	0.	7.5126e-003
2154	15.876	3.6364	0.	7.8157e-003
2155	16.06	3.6364	0.	8.1134e-003
2156	16.245	3.6364	0.	8.4086e-003
2157	16.43	3.6364	0.	8.7059e-003
2158	16.614	3.6364	0.	9.0171e-003
2159	16.799	3.6364	0.	9.335e-003
2160	16.984	3.6364	0.	9.6446e-003
2161	17.168	3.6364	0.	9.9868e-003
2162	17.353	3.6364	0.	1.035e-002
2163	17.538	3.6364	0.	1.0723e-002
2164	17.722	3.6364	0.	1.1117e-002
2165	17.907	3.6364	0.	1.1537e-002
2166	18.092	3.6364	0.	1.1981e-002
2167	18.276	3.6364	0.	1.2455e-002
2168	18.461	3.6364	0.	1.296e-002
2169	18.645	3.6364	0.	1.3502e-002
2170	18.83	3.6364	0.	1.4086e-002
2171	19.015	3.6364	0.	1.4712e-002
2172	19.199	3.6364	0.	1.539e-002
2173	19.384	3.6364	0.	1.6125e-002
2174	19.569	3.6364	0.	1.6923e-002
2175	19.753	3.6364	0.	1.7791e-002
2176	19.938	3.6364	0.	1.8742e-002
2177	20.123	3.6364	0.	1.9784e-002
2178	20.307	3.6364	0.	2.0937e-002
2179	20.492	3.6364	0.	2.2207e-002
2180	20.676	3.6364	0.	2.3627e-002
2181	20.861	3.6364	0.	2.521e-002
2182	21.046	3.6364	0.	2.6995e-002
2183	21.23	3.6364	0.	2.9019e-002
2184	21.415	3.6364	0.	3.133e-002
2185	21.6	3.6364	0.	3.3998e-002
2186	21.784	3.6364	0.	3.712e-002
2187	21.969	3.6364	0.	4.0803e-002
2188	22.154	3.6364	0.	4.5235e-002
2189	22.338	3.6364	0.	5.0663e-002
2190	22.523	3.6364	0.	5.7507e-002
2191	22.708	3.6364	0.	6.6226e-002
2192	22.892	3.6364	0.	7.8477e-002
2193	23.077	3.6364	0.	9.3603e-002
2194	23.261	3.6364	0.	0.12525
2195	23.446	3.6364	0.	0.14266
2196	23.631	3.6364	0.	0.32961
2197	23.815	3.6364	0.	0.20209
2198	5.3513	3.4545	0.	5.5168
2199	5.5359	3.4545	0.	0.36523
2200	5.7206	3.4545	0.	-0.79237
2201	5.9052	3.4545	0.	-137.16
2202	6.0899	3.4545	0.	-277.66
2203	6.2745	3.4545	0.	-359.86
2204	6.4592	3.4545	0.	-402.52
2205	6.6438	3.4545	0.	-418.92
2206	6.8284	3.4545	0.	-418.19
2207	7.0131	3.4545	0.	-406.58
2208	7.1977	3.4545	0.	-388.33
2209	7.3824	3.4545	0.	-366.33
2210	7.567	3.4545	0.	-342.5
2211	7.7516	3.4545	0.	-318.11
2212	7.9363	3.4545	0.	-294.02
2213	8.1209	3.4545	0.	-270.73
2214	8.3056	3.4545	0.	-248.59
2215	8.4902	3.4545	0.	-227.75
2216	8.6748	3.4545	0.	-208.3
2217	8.8595	3.4545	0.	-190.26
2218	9.0441	3.4545	0.	-173.58
2219	9.2288	3.4545	0.	-158.22
2220	9.4134	3.4545	0.	-144.11
2221	9.598	3.4545	0.	-131.15
2222	9.7827	3.4545	0.	-119.28
2223	9.9673	3.4545	0.	-108.39
2224	10.152	3.4545	0.	-98.426
2225	10.337	3.4545	0.	-89.295
2226	10.521	3.4545	0.	-80.929
2227	10.706	3.4545	0.	-73.26
2228	10.891	3.4545	0.	-66.228
2229	11.075	3.4545	0.	-59.776
2230	11.26	3.4545	0.	-53.852
2231	11.444	3.4545	0.	-48.409
2232	11.629	3.4545	0.	-43.404
2233	11.814	3.4545	0.	-38.798
2234	11.998	3.4545	0.	-34.556
2235	12.183	3.4545	0.	-30.644
2236	12.368	3.4545	0.	-27.035
2237	12.552	3.4545	0.	-23.7
2238	12.737	3.4545	0.	-20.616
2239	12.922	3.4545	0.	-17.759
2240	13.106	3.4545	0.	-15.11
2241	13.291	3.4545	0.	-12.65
2242	13.475	3.4545	0.	-10.362
2243	13.66	3.4545	0.	-8.2286
2244	13.845	3.4545	0.	-6.2362
2245	14.029	3.4545	0.	-4.3711
2246	14.214	3.4545	0.	-2.6207
2247	14.399	3.4545	0.	-0.97434
2248	14.583	3.4545	0.	2.349e-003
2249	14.768	3.4545	0.	5.9684e-003
2250	14.953	3.4545	0.	6.7337e-003
2251	15.137	3.4545	0.	7.178e-003
2252	15.322	3.4545	0.	7.5259e-003
2253	15.507	3.4545	0.	7.8336e-003
2254	15.691	3.4545	0.	8.1241e-003
2255	15.876	3.4545	0.	8.409e-003
2256	16.06	3.4545	0.	8.6932e-003
2257	16.245	3.4545	0.	8.981e-003
2258	16.43	3.4545	0.	9.2745e-003
2259	16.614	3.4545	0.	9.5832e-003
2260	16.799	3.4545	0.	9.9019e-003
2261	16.984	3.4545	0.	1.0213e-002
2262	17.168	3.4545	0.	1.056e-002
2263	17.353	3.4545	0.	1.0926e-002
2264	17.538	3.4545	0.	1.1304e-002
2265	17.722	3.4545	0.	1.1708e-002
2266	17.907	3.4545	0.	1.2132e-002
2267	18.092	3.4545	0.	1.2585e-002
2268	18.276	3.4545	0.	1.3069e-002
2269	18.461	3.4545	0.	1.3585e-002
2270	18.645	3.4545	0.	1.4137e-002
2271	18.83	3.4545	0.	1.4731e-002
2272	19.015	3.4545	0.	1.537e-002
2273	19.199	3.4545	0.	1.606e-002
2274	19.384	3.4545	0.	1.6807e-002
2275	19.569	3.4545	0.	1.762e-002
2276	19.753	3.4545	0.	1.8504e-002
2277	19.938	3.4545	0.	1.9471e-002
2278	20.123	3.4545	0.	2.053e-002
2279	20.307	3.4545	0.	2.1698e-002
2280	20.492	3.4545	0.	2.2988e-002
2281	20.676	3.4545	0.	2.4424e-002
2282	20.861	3.4545	0.	2.6026e-002
2283	21.046	3.4545	0.	2.7826e-002
2284	21.23	3.4545	0.	2.9867e-002
2285	21.415	3.4545	0.	3.2195e-002
2286	21.6	3.4545	0.	3.488e-002
2287	21.784	3.4545	0.	3.8012e-002
2288	21.969	3.4545	0.	4.1716e-002
2289	22.154	3.4545	0.	4.6162e-002
2290	22.338	3.4545	0.	5.161e-002
2291	22.523	3.4545	0.	5.8483e-002
2292	22.708	3.4545	0.	6.724e-002
2293	22.892	3.4545	0.	7.9546e-002
2294	23.077	3.4545	0.	9.4755e-002
2295	23.261	3.4545	0.	0.12653
2296	23.446	3.4545	0.	0.14413
2297	23.631	3.4545	0.	0.33173
2298	23.815	3.4545	0.	0.20649
2299	5.3513	3.2727	0.	-3.6379
2300	5.5359	3.2727	0.	-0.21576
2301	5.7206	3.2727	0.	0.70787
2302	5.9052	3.2727	0.	-116.02
2303	6.0899	3.2727	0.	-274.34
2304	6.2745	3.2727	0.	-370.3
2305	6.4592	3.2727	0.	-421.37
2306	6.6438	3.2727	0.	-441.97
2307	6.8284	3.2727	0.	-442.63
2308	7.0131	3.2727	0.	-430.69
2309	7.1977	3.2727	0.	-411.14
2310	7.3824	3.2727	0.	-387.34
2311	7.567	3.2727	0.	-361.51
2312	7.7516	3.2727	0.	-335.1
2313	7.9363	3.2727	0.	-309.07
2314	8.1209	3.2727	0.	-283.98
2315	8.3056	3.2727	0.	-260.2
2316	8.4902	3.2727	0.	-237.9
2317	8.6748	3.2727	0.	-217.15
2318	8.8595	3.2727	0.	-197.96
2319	9.0441	3.2727	0.	-180.29
2320	9.2288	3.2727	0.	-164.06
2321	9.4134	3.2727	0.	-149.2
2322	9.598	3.2727	0.	-135.59
2323	9.7827	3.2727	0.	-123.16
2324	9.9673	3.2727	0.	-111.79
2325	10.152	3.2727	0.	-101.41
2326	10.337	3.2727	0.	-91.916
2327	10.521	3.2727	0.	-83.24
2328	10.706	3.2727	0.	-75.303
2329	10.891	3.2727	0.	-68.04
2330	11.075	3.2727	0.	-61.386
2331	11.26	3.2727	0.	-55.287
2332	11.444	3.2727	0.	-49.692
2333	11.629	3.2727	0.	-44.554
2334	11.814	3.2727	0.	-39.831
2335	11.998	3.2727	0.	-35.485
2336	12.183	3.2727	0.	-31.483
2337	12.368	3.2727	0.	-27.793
2338	12.552	3.2727	0.	-24.386
2339	12.737	3.2727	0.	-21.238
2340	12.922	3.2727	0.	-18.324
2341	13.106	3.2727	0.	-15.624
2342	13.291	3.2727	0.	-13.118
2343	13.475	3.2727	0.	-10.787
2344	13.66	3.2727	0.	-8.6156
2345	13.845	3.2727	0.	-6.5884
2346	14.029	3.2727	0.	-4.6913
2347	14.214	3.2727	0.	-2.9113
2348	14.399	3.2727	0.	-1.2365
2349	14.583	3.2727	0.	4.2975e-003
2350	14.768	3.2727	0.	6.9373e-003
2351	14.953	3.2727	0.	7.4046e-003
2352	15.137	3.2727	0.	7.7245e-003
2353	15.322	3.2727	0.	8.0078e-003
2354	15.507	3.2727	0.	8.2778e-003
2355	15.691	3.2727	0.	8.5433e-003
2356	15.876	3.2727	0.	8.8124e-003
2357	16.06	3.2727	0.	9.0844e-003
2358	16.245	3.2727	0.	9.367e-003
2359	16.43	3.2727	0.	9.6541e-003
2360	16.614	3.2727	0.	9.9633e-003
2361	16.799	3.2727	0.	1.028e-002
2362	16.984	3.2727	0.	1.0592e-002
2363	17.168	3.2727	0.	1.094e-002
2364	17.353	3.2727	0.	1.1309e-002
2365	17.538	3.2727	0.	1.1691e-002
2366	17.722	3.2727	0.	1.2096e-002
2367	17.907	3.2727	0.	1.2526e-002
2368	18.092	3.2727	0.	1.2984e-002
2369	18.276	3.2727	0.	1.3472e-002
2370	18.461	3.2727	0.	1.3995e-002
2371	18.645	3.2727	0.	1.4552e-002
2372	18.83	3.2727	0.	1.5155e-002
2373	19.015	3.2727	0.	1.58e-002
2374	19.199	3.2727	0.	1.6501e-002
2375	19.384	3.2727	0.	1.7257e-002
2376	19.569	3.2727	0.	1.8076e-002
2377	19.753	3.2727	0.	1.8972e-002
2378	19.938	3.2727	0.	1.9947e-002
2379	20.123	3.2727	0.	2.1017e-002
2380	20.307	3.2727	0.	2.2195e-002
2381	20.492	3.2727	0.	2.3496e-002
2382	20.676	3.2727	0.	2.4941e-002
2383	20.861	3.2727	0.	2.6554e-002
2384	21.046	3.2727	0.	2.8366e-002
2385	21.23	3.2727	0.	3.0414e-002
2386	21.415	3.2727	0.	3.2752e-002
2387	21.6	3.2727	0.	3.5446e-002
2388	21.784	3.2727	0.	3.8589e-002
2389	21.969	3.2727	0.	4.2297e-002
2390	22.154	3.2727	0.	4.6756e-002
2391	22.338	3.2727	0.	5.2216e-002
2392	22.523	3.2727	0.	5.9105e-002
2393	22.708	3.2727	0.	6.7888e-002
2394	22.892	3.2727	0.	8.0229e-002
2395	23.077	3.2727	0.	9.5492e-002
2396	23.261	3.2727	0.	0.12736
2397	23.446	3.2727	0.	0.14507
2398	23.631	3.2727	0.	0.3331
2399	23.815	3.2727	0.	0.20937
2400	5.3513	3.0909	0.	-0.35391
2401	5.5359	3.0909	0.	2.1627e-002
2402	5.7206	3.0909	0.	1.0697
2403	5.9052	3.0909	0.	-101.03
2404	6.0899	3.0909	0.	-268.26
2405	6.2745	3.0909	0.	-372.33
2406	6.4592	3.0909	0.	-428.87
2407	6.6438	3.0909	0.	-452.49
2408	6.8284	3.0909	0.	-454.41
2409	7.0131	3.0909	0.	-442.64
2410	7.1977	3.0909	0.	-422.61
2411	7.3824	3.0909	0.	-397.99
2412	7.567	3.0909	0.	-371.19
2413	7.7516	3.0909	0.	-343.78
2414	7.9363	3.0909	0.	-316.76
2415	8.1209	3.0909	0.	-290.76
2416	8.3056	3.0909	0.	-266.14
2417	8.4902	3.0909	0.	-243.08
2418	8.6748	3.0909	0.	-221.67
2419	8.8595	3.0909	0.	-201.9
2420	9.0441	3.0909	0.	-183.71
2421	9.2288	3.0909	0.	-167.04
2422	9.4134	3.0909	0.	-151.79
2423	9.598	3.0909	0.	-137.85
2424	9.7827	3.0909	0.	-125.13
2425	9.9673	3.0909	0.	-113.52
2426	10.152	3.0909	0.	-102.92
2427	10.337	3.0909	0.	-93.247
2428	10.521	3.0909	0.	-84.412
2429	10.706	3.0909	0.	-76.339
2430	10.891	3.0909	0.	-68.957
2431	11.075	3.0909	0.	-62.201
2432	11.26	3.0909	0.	-56.013
2433	11.444	3.0909	0.	-50.34
2434	11.629	3.0909	0.	-45.134
2435	11.814	3.0909	0.	-40.352
2436	11.998	3.0909	0.	-35.954
2437	12.183	3.0909	0.	-31.906
2438	12.368	3.0909	0.	-28.175
2439	12.552	3.0909	0.	-24.732
2440	12.737	3.0909	0.	-21.551
2441	12.922	3.0909	0.	-18.609
2442	13.106	3.0909	0.	-15.883
2443	13.291	3.0909	0.	-13.353
2444	13.475	3.0909	0.	-11.001
2445	13.66	3.0909	0.	-8.81
2446	13.845	3.0909	0.	-6.7653
2447	14.029	3.0909	0.	-4.852
2448	14.214	3.0909	0.	-3.0571
2449	14.399	3.0909	0.	-1.3682
2450	14.583	3.0909	0.	6.8264e-003
2451	14.768	3.0909	0.	7.5087e-003
2452	14.953	3.0909	0.	7.768e-003
2453	15.137	3.0909	0.	8.0136e-003
2454	15.322	3.0909	0.	8.2573e-003
2455	15.507	3.0909	0.	8.5039e-003
2456	15.691	3.0909	0.	8.7577e-003
2457	15.876	3.0909	0.	9.0158e-003
2458	16.06	3.0909	0.	9.2834e-003
2459	16.245	3.0909	0.	9.5603e-003
2460	16.43	3.0909	0.	9.8462e-003
2461	16.614	3.0909	0.	1.0152e-002
2462	16.799	3.0909	0.	1.0468e-002
2463	16.984	3.0909	0.	1.0781e-002
2464	17.168	3.0909	0.	1.1129e-002
2465	17.353	3.0909	0.	1.1499e-002
2466	17.538	3.0909	0.	1.1882e-002
2467	17.722	3.0909	0.	1.229e-002
2468	17.907	3.0909	0.	1.2722e-002
2469	18.092	3.0909	0.	1.3183e-002
2470	18.276	3.0909	0.	1.3673e-002
2471	18.461	3.0909	0.	1.4198e-002
2472	18.645	3.0909	0.	1.4759e-002
2473	18.83	3.0909	0.	1.5364e-002
2474	19.015	3.0909	0.	1.6014e-002
2475	19.199	3.0909	0.	1.6717e-002
2476	19.384	3.0909	0.	1.7477e-002
2477	19.569	3.0909	0.	1.8302e-002
2478	19.753	3.0909	0.	1.9201e-002
2479	19.938	3.0909	0.	2.0182e-002
2480	20.123	3.0909	0.	2.1255e-002
2481	20.307	3.0909	0.	2.2441e-002
2482	20.492	3.0909	0.	2.3744e-002
2483	20.676	3.0909	0.	2.5194e-002
2484	20.861	3.0909	0.	2.6814e-002
2485	21.046	3.0909	0.	2.8628e-002
2486	21.23	3.0909	0.	3.0684e-002
2487	21.415	3.0909	0.	3.3025e-002
2488	21.6	3.0909	0.	3.5723e-002
2489	21.784	3.0909	0.	3.8871e-002
2490	21.969	3.0909	0.	4.2584e-002
2491	22.154	3.0909	0.	4.7046e-002
2492	22.338	3.0909	0.	5.2507e-002
2493	22.523	3.0909	0.	5.9413e-002
2494	22.708	3.0909	0.	6.8205e-002
2495	22.892	3.0909	0.	8.0566e-002
2496	23.077	3.0909	0.	9.5849e-002
2497	23.261	3.0909	0.	0.12776
2498	23.446	3.0909	0.	0.14553
2499	23.631	3.0909	0.	0.33377
2500	23.815	3.0909	0.	0.21079
2501	5.3513	2.9091	0.	-0.35391
2502	5.5359	2.9091	0.	2.1628e-002
2503	5.7206	2.9091	0.	1.0697
2504	5.9052	2.9091	0.	-101.03
2505	6.0899	2.9091	0.	-268.26
2506	6.2745	2.9091	0.	-372.33
2507	6.4592	2.9091	0.	-428.87
2508	6.6438	2.9091	0.	-452.49
2509	6.8284	2.9091	0.	-454.41
2510	7.0131	2.9091	0.	-442.64
2511	7.1977	2.9091	0.	-422.61
2512	7.3824	2.9091	0.	-397.99
2513	7.567	2.9091	0.	-371.19
2514	7.7516	2.9091	0.	-343.78
2515	7.9363	2.9091	0.	-316.76
2516	8.1209	2.9091	0.	-290.76
2517	8.3056	2.9091	0.	-266.14
2518	8.4902	2.9091	0.	-243.08
2519	8.6748	2.9091	0.	-221.67
2520	8.8595	2.9091	0.	-201.9
2521	9.0441	2.9091	0.	-183.71
2522	9.2288	2.9091	0.	-167.04
2523	9.4134	2.9091	0.	-151.79
2524	9.598	2.9091	0.	-137.85
2525	9.7827	2.9091	0.	-125.13
2526	9.9673	2.9091	0.	-113.52
2527	10.152	2.9091	0.	-102.92
2528	10.337	2.9091	0.	-93.247
2529	10.521	2.9091	0.	-84.412
2530	10.706	2.9091	0.	-76.339
2531	10.891	2.9091	0.	-68.957
2532	11.075	2.9091	0.	-62.201
2533	11.26	2.9091	0.	-56.013
2534	11.444	2.9091	0.	-50.34
2535	11.629	2.9091	0.	-45.134
2536	11.814	2.9091	0.	-40.352
2537	11.998	2.9091	0.	-35.954
2538	12.183	2.9091	0.	-31.906
2539	12.368	2.9091	0.	-28.175
2540	12.552	2.9091	0.	-24.732
2541	12.737	2.9091	0.	-21.551
2542	12.922	2.9091	0.	-18.609
2543	13.106	2.9091	0.	-15.883
2544	13.291	2.9091	0.	-13.353
2545	13.475	2.9091	0.	-11.001
2546	13.66	2.9091	0.	-8.8101
2547	13.845	2.9091	0.	-6.7653
2548	14.029	2.9091	0.	-4.852
2549	14.214	2.9091	0.	-3.0571
2550	14.399	2.9091	0.	-1.3682
2551	14.583	2.9091	0.	6.8271e-003
2552	14.768	2.9091	0.	7.5068e-003
2553	14.953	2.9091	0.	7.7687e-003
2554	15.137	2.9091	0.	8.0139e-003
2555	15.322	2.9091	0.	8.2569e-003
2556	15.507	2.9091	0.	8.5042e-003
2557	15.691	2.9091	0.	8.7563e-003
2558	15.876	2.9091	0.	9.0161e-003
2559	16.06	2.9091	0.	9.2839e-003
2560	16.245	2.9091	0.	9.5597e-003
2561	16.43	2.9091	0.	9.846e-003
2562	16.614	2.9091	0.	1.0152e-002
2563	16.799	2.9091	0.	1.0468e-002
2564	16.984	2.9091	0.	1.0781e-002
2565	17.168	2.9091	0.	1.1128e-002
2566	17.353	2.9091	0.	1.1499e-002
2567	17.538	2.9091	0.	1.1882e-002
2568	17.722	2.9091	0.	1.2291e-002
2569	17.907	2.9091	0.	1.2723e-002
2570	18.092	2.9091	0.	1.3182e-002
2571	18.276	2.9091	0.	1.3673e-002
2572	18.461	2.9091	0.	1.4198e-002
2573	18.645	2.9091	0.	1.4761e-002
2574	18.83	2.9091	0.	1.5365e-002
2575	19.015	2.9091	0.	1.6015e-002
2576	19.199	2.9091	0.	1.6717e-002
2577	19.384	2.9091	0.	1.7476e-002
2578	19.569	2.9091	0.	1.8302e-002
2579	19.753	2.9091	0.	1.9201e-002
2580	19.938	2.9091	0.	2.0182e-002
2581	20.123	2.9091	0.	2.1255e-002
2582	20.307	2.9091	0.	2.2441e-002
2583	20.492	2.9091	0.	2.3745e-002
2584	20.676	2.9091	0.	2.5195e-002
2585	20.861	2.9091	0.	2.6813e-002
2586	21.046	2.9091	0.	2.8628e-002
2587	21.23	2.9091	0.	3.0685e-002
2588	21.415	2.9091	0.	3.3025e-002
2589	21.6	2.9091	0.	3.5719e-002
2590	21.784	2.9091	0.	3.8869e-002
2591	21.969	2.9091	0.	4.2582e-002
2592	22.154	2.9091	0.	4.7046e-002
2593	22.338	2.9091	0.	5.2512e-002
2594	22.523	2.9091	0.	5.9411e-002
2595	22.708	2.9091	0.	6.8204e-002
2596	22.892	2.9091	0.	8.0565e-002
2597	23.077	2.9091	0.	9.5852e-002
2598	23.261	2.9091	0.	0.12776
2599	23.446	2.9091	0.	0.14553
2600	23.631	2.9091	0.	0.33377
2601	23.815	2.9091	0.	0.21079
2602	5.3513	2.7273	0.	-3.6379
2603	5.5359	2.7273	0.	-0.21576
2604	5.7206	2.7273	0.	0.70787
2605	5.9052	2.7273	0.	-116.02
2606	6.0899	2.7273	0.	-274.34
2607	6.2745	2.7273	0.	-370.3
2608	6.4592	2.7273	0.	-421.37
2609	6.6438	2.7273	0.	-441.97
2610	6.8284	2.7273	0.	-442.63
2611	7.0131	2.7273	0.	-430.69
2612	7.1977	2.7273	0.	-411.14
2613	7.3824	2.7273	0.	-387.34
2614	7.567	2.7273	0.	-361.51
2615	7.7516	2.7273	0.	-335.1
2616	7.9363	2.7273	0.	-309.07
2617	8.1209	2.7273	0.	-283.98
2618	8.3056	2.7273	0.	-260.2
2619	8.4902	2.7273	0.	-237.9
2620	8.6748	2.7273	0.	-217.15
2621	8.8595	2.7273	0.	-197.96
2622	9.0441	2.7273	0.	-180.29
2623	9.2288	2.7273	0.	-164.06
2624	9.4134	2.7273	0.	-149.2
2625	9.598	2.7273	0.	-135.59
2626	9.7827	2.7273	0.	-123.16
2627	9.9673	2.7273	0.	-111.79
2628	10.152	2.7273	0.	-101.41
2629	10.337	2.7273	0.	-91.916
2630	10.521	2.7273	0.	-83.24
2631	10.706	2.7273	0.	-75.303
2632	10.891	2.7273	0.	-68.04
2633	11.075	2.7273	0.	-61.386
2634	11.26	2.7273	0.	-55.287
2635	11.444	2.7273	0.	-49.692
2636	11.629	2.7273	0.	-44.554
2637	11.814	2.7273	0.	-39.831
2638	11.998	2.7273	0.	-35.485
2639	12.183	2.7273	0.	-31.483
2640	12.368	2.7273	0.	-27.793
2641	12.552	2.7273	0.	-24.386
2642	12.737	2.7273	0.	-21.238
2643	12.922	2.7273	0.	-18.324
2644	13.106	2.7273	0.	-15.624
2645	13.291	2.7273	0.	-13.118
2646	13.475	2.7273	0.	-10.787
2647	13.66	2.7273	0.	-8.6156
2648	13.845	2.7273	0.	-6.5884
2649	14.029	2.7273	0.	-4.6913
2650	14.214	2.7273	0.	-2.9113
2651	14.399	2.7273	0.	-1.2365
2652	14.583	2.7273	0.	4.2965e-003
2653	14.768	2.7273	0.	6.9381e-003
2654	14.953	2.7273	0.	7.4037e-003
2655	15.137	2.7273	0.	7.7254e-003
2656	15.322	2.7273	0.	8.0083e-003
2657	15.507	2.7273	0.	8.2764e-003
2658	15.691	2.7273	0.	8.5445e-003
2659	15.876	2.7273	0.	8.8126e-003
2660	16.06	2.7273	0.	9.0853e-003
2661	16.245	2.7273	0.	9.3656e-003
2662	16.43	2.7273	0.	9.654e-003
2663	16.614	2.7273	0.	9.9628e-003
2664	16.799	2.7273	0.	1.0279e-002
2665	16.984	2.7273	0.	1.0593e-002
2666	17.168	2.7273	0.	1.0939e-002
2667	17.353	2.7273	0.	1.1311e-002
2668	17.538	2.7273	0.	1.169e-002
2669	17.722	2.7273	0.	1.2096e-002
2670	17.907	2.7273	0.	1.2526e-002
2671	18.092	2.7273	0.	1.2984e-002
2672	18.276	2.7273	0.	1.3473e-002
2673	18.461	2.7273	0.	1.3994e-002
2674	18.645	2.7273	0.	1.4554e-002
2675	18.83	2.7273	0.	1.5155e-002
2676	19.015	2.7273	0.	1.5801e-002
2677	19.199	2.7273	0.	1.65e-002
2678	19.384	2.7273	0.	1.7255e-002
2679	19.569	2.7273	0.	1.8078e-002
2680	19.753	2.7273	0.	1.897e-002
2681	19.938	2.7273	0.	1.9946e-002
2682	20.123	2.7273	0.	2.1016e-002
2683	20.307	2.7273	0.	2.2195e-002
2684	20.492	2.7273	0.	2.3498e-002
2685	20.676	2.7273	0.	2.494e-002
2686	20.861	2.7273	0.	2.6553e-002
2687	21.046	2.7273	0.	2.8366e-002
2688	21.23	2.7273	0.	3.0417e-002
2689	21.415	2.7273	0.	3.275e-002
2690	21.6	2.7273	0.	3.5445e-002
2691	21.784	2.7273	0.	3.8589e-002
2692	21.969	2.7273	0.	4.23e-002
2693	22.154	2.7273	0.	4.6757e-002
2694	22.338	2.7273	0.	5.2216e-002
2695	22.523	2.7273	0.	5.9105e-002
2696	22.708	2.7273	0.	6.7888e-002
2697	22.892	2.7273	0.	8.0229e-002
2698	23.077	2.7273	0.	9.5493e-002
2699	23.261	2.7273	0.	0.12736
2700	23.446	2.7273	0.	0.14507
2701	23.631	2.7273	0.	0.33309
2702	23.815	2.7273	0.	0.20937
2703	5.3513	2.5455	0.	5.5168
2704	5.5359	2.5455	0.	0.36523
2705	5.7206	2.5455	0.	-0.79238
2706	5.9052	2.5455	0.	-137.16
2707	6.0899	2.5455	0.	-277.66
2708	6.2745	2.5455	0.	-359.86
2709	6.4592	2.5455	0.	-402.52
2710	6.6438	2.5455	0.	-418.92
2711	6.8284	2.5455	0.	-418.19
2712	7.0131	2.5455	0.	-406.58
2713	7.1977	2.5455	0.	-388.33
2714	7.3824	2.5455	0.	-366.33
2715	7.567	2.5455	0.	-342.5
2716	7.7516	2.5455	0.	-318.12
2717	7.9363	2.5455	0.	-294.02
2718	8.1209	2.5455	0.	-270.73
2719	8.3056	2.5455	0.	-248.59
2720	8.4902	2.5455	0.	-227.75
2721	8.6748	2.5455	0.	-208.3
2722	8.8595	2.5455	0.	-190.26
2723	9.0441	2.5455	0.	-173.58
2724	9.2288	2.5455	0.	-158.22
2725	9.4134	2.5455	0.	-144.11
2726	9.598	2.5455	0.	-131.15
2727	9.7827	2.5455	0.	-119.28
2728	9.9673	2.5455	0.	-108.39
2729	10.152	2.5455	0.	-98.426
2730	10.337	2.5455	0.	-89.295
2731	10.521	2.5455	0.	-80.929
2732	10.706	2.5455	0.	-73.26
2733	10.891	2.5455	0.	-66.228
2734	11.075	2.5455	0.	-59.776
2735	11.26	2.5455	0.	-53.852
2736	11.444	2.5455	0.	-48.409
2737	11.629	2.5455	0.	-43.404
2738	11.814	2.5455	0.	-38.798
2739	11.998	2.5455	0.	-34.556
2740	12.183	2.5455	0.	-30.644
2741	12.368	2.5455	0.	-27.035
2742	12.552	2.5455	0.	-23.7
2743	12.737	2.5455	0.	-20.616
2744	12.922	2.5455	0.	-17.759
2745	13.106	2.5455	0.	-15.11
2746	13.291	2.5455	0.	-12.65
2747	13.475	2.5455	0.	-10.362
2748	13.66	2.5455	0.	-8.2286
2749	13.845	2.5455	0.	-6.2363
2750	14.029	2.5455	0.	-4.3712
2751	14.214	2.5455	0.	-2.6208
2752	14.399	2.5455	0.	-0.97434
2753	14.583	2.5455	0.	2.3483e-003
2754	14.768	2.5455	0.	5.9679e-003
2755	14.953	2.5455	0.	6.7332e-003
2756	15.137	2.5455	0.	7.1792e-003
2757	15.322	2.5455	0.	7.5261e-003
2758	15.507	2.5455	0.	7.8335e-003
2759	15.691	2.5455	0.	8.1242e-003
2760	15.876	2.5455	0.	8.4092e-003
2761	16.06	2.5455	0.	8.6924e-003
2762	16.245	2.5455	0.	8.9824e-003
2763	16.43	2.5455	0.	9.275e-003
2764	16.614	2.5455	0.	9.5839e-003
2765	16.799	2.5455	0.	9.9008e-003
2766	16.984	2.5455	0.	1.0214e-002
2767	17.168	2.5455	0.	1.0559e-002
2768	17.353	2.5455	0.	1.0926e-002
2769	17.538	2.5455	0.	1.1304e-002
2770	17.722	2.5455	0.	1.1707e-002
2771	17.907	2.5455	0.	1.2134e-002
2772	18.092	2.5455	0.	1.2585e-002
2773	18.276	2.5455	0.	1.3069e-002
2774	18.461	2.5455	0.	1.3586e-002
2775	18.645	2.5455	0.	1.4137e-002
2776	18.83	2.5455	0.	1.4729e-002
2777	19.015	2.5455	0.	1.5372e-002
2778	19.199	2.5455	0.	1.6061e-002
2779	19.384	2.5455	0.	1.6807e-002
2780	19.569	2.5455	0.	1.7621e-002
2781	19.753	2.5455	0.	1.8504e-002
2782	19.938	2.5455	0.	1.9472e-002
2783	20.123	2.5455	0.	2.0531e-002
2784	20.307	2.5455	0.	2.17e-002
2785	20.492	2.5455	0.	2.2988e-002
2786	20.676	2.5455	0.	2.4424e-002
2787	20.861	2.5455	0.	2.6024e-002
2788	21.046	2.5455	0.	2.7828e-002
2789	21.23	2.5455	0.	2.9869e-002
2790	21.415	2.5455	0.	3.2195e-002
2791	21.6	2.5455	0.	3.4879e-002
2792	21.784	2.5455	0.	3.8014e-002
2793	21.969	2.5455	0.	4.1715e-002
2794	22.154	2.5455	0.	4.6165e-002
2795	22.338	2.5455	0.	5.1609e-002
2796	22.523	2.5455	0.	5.8484e-002
2797	22.708	2.5455	0.	6.724e-002
2798	22.892	2.5455	0.	7.9546e-002
2799	23.077	2.5455	0.	9.4753e-002
2800	23.261	2.5455	0.	0.12653
2801	23.446	2.5455	0.	0.14413
2802	23.631	2.5455	0.	0.33173
2803	23.815	2.5455	0.	0.20649
2804	5.3513	2.3636	0.	-20.878
2805	5.5359	2.3636	0.	-11.02
2806	5.7206	2.3636	0.	6.048
2807	5.9052	2.3636	0.	-139.53
2808	6.0899	2.3636	0.	-260.25
2809	6.2745	2.3636	0.	-330.08
2810	6.4592	2.3636	0.	-366.4
2811	6.6438	2.3636	0.	-380.51
2812	6.8284	2.3636	0.	-380.07
2813	7.0131	2.3636	0.	-370.25
2814	7.1977	2.3636	0.	-354.63
2815	7.3824	2.3636	0.	-335.63
2816	7.567	2.3636	0.	-314.89
2817	7.7516	2.3636	0.	-293.53
2818	7.9363	2.3636	0.	-272.27
2819	8.1209	2.3636	0.	-251.6
2820	8.3056	2.3636	0.	-231.82
2821	8.4902	2.3636	0.	-213.1
2822	8.6748	2.3636	0.	-195.52
2823	8.8595	2.3636	0.	-179.11
2824	9.0441	2.3636	0.	-163.87
2825	9.2288	2.3636	0.	-149.75
2826	9.4134	2.3636	0.	-136.72
2827	9.598	2.3636	0.	-124.7
2828	9.7827	2.3636	0.	-113.63
2829	9.9673	2.3636	0.	-103.44
2830	10.152	2.3636	0.	-94.075
2831	10.337	2.3636	0.	-85.462
2832	10.521	2.3636	0.	-77.544
2833	10.706	2.3636	0.	-70.264
2834	10.891	2.3636	0.	-63.568
2835	11.075	2.3636	0.	-57.408
2836	11.26	2.3636	0.	-51.738
2837	11.444	2.3636	0.	-46.518
2838	11.629	2.3636	0.	-41.707
2839	11.814	2.3636	0.	-37.273
2840	11.998	2.3636	0.	-33.181
2841	12.183	2.3636	0.	-29.403
2842	12.368	2.3636	0.	-25.911
2843	12.552	2.3636	0.	-22.682
2844	12.737	2.3636	0.	-19.692
2845	12.922	2.3636	0.	-16.92
2846	13.106	2.3636	0.	-14.347
2847	13.291	2.3636	0.	-11.955
2848	13.475	2.3636	0.	-9.729
2849	13.66	2.3636	0.	-7.6524
2850	13.845	2.3636	0.	-5.7118
2851	14.029	2.3636	0.	-3.8942
2852	14.214	2.3636	0.	-2.188
2853	14.399	2.3636	0.	-0.58648
2854	14.583	2.3636	0.	1.2314e-003
2855	14.768	2.3636	0.	4.831e-003
2856	14.953	2.3636	0.	5.8469e-003
2857	15.137	2.3636	0.	6.4199e-003
2858	15.322	2.3636	0.	6.8409e-003
2859	15.507	2.3636	0.	7.1941e-003
2860	15.691	2.3636	0.	7.514e-003
2861	15.876	2.3636	0.	7.818e-003
2862	16.06	2.3636	0.	8.1134e-003
2863	16.245	2.3636	0.	8.4092e-003
2864	16.43	2.3636	0.	8.7053e-003
2865	16.614	2.3636	0.	9.0168e-003
2866	16.799	2.3636	0.	9.3341e-003
2867	16.984	2.3636	0.	9.645e-003
2868	17.168	2.3636	0.	9.9873e-003
2869	17.353	2.3636	0.	1.035e-002
2870	17.538	2.3636	0.	1.0722e-002
2871	17.722	2.3636	0.	1.1117e-002
2872	17.907	2.3636	0.	1.1538e-002
2873	18.092	2.3636	0.	1.1981e-002
2874	18.276	2.3636	0.	1.2455e-002
2875	18.461	2.3636	0.	1.2961e-002
2876	18.645	2.3636	0.	1.3503e-002
2877	18.83	2.3636	0.	1.4085e-002
2878	19.015	2.3636	0.	1.4712e-002
2879	19.199	2.3636	0.	1.5391e-002
2880	19.384	2.3636	0.	1.6124e-002
2881	19.569	2.3636	0.	1.6922e-002
2882	19.753	2.3636	0.	1.7792e-002
2883	19.938	2.3636	0.	1.8743e-002
2884	20.123	2.3636	0.	1.9786e-002
2885	20.307	2.3636	0.	2.0934e-002
2886	20.492	2.3636	0.	2.2211e-002
2887	20.676	2.3636	0.	2.3626e-002
2888	20.861	2.3636	0.	2.521e-002
2889	21.046	2.3636	0.	2.6997e-002
2890	21.23	2.3636	0.	2.9018e-002
2891	21.415	2.3636	0.	3.1332e-002
2892	21.6	2.3636	0.	3.3997e-002
2893	21.784	2.3636	0.	3.7119e-002
2894	21.969	2.3636	0.	4.0804e-002
2895	22.154	2.3636	0.	4.5235e-002
2896	22.338	2.3636	0.	5.0662e-002
2897	22.523	2.3636	0.	5.7509e-002
2898	22.708	2.3636	0.	6.6227e-002
2899	22.892	2.3636	0.	7.8478e-002
2900	23.077	2.3636	0.	9.3604e-002
2901	23.261	2.3636	0.	0.12525
2902	23.446	2.3636	0.	0.14266
2903	23.631	2.3636	0.	0.32961
2904	23.815	2.3636	0.	0.20209
2905	5.3513	2.1818	0.	-8.6906
2906	5.5359	2.1818	0.	42.323
2907	5.7206	2.1818	0.	-11.055
2908	5.9052	2.1818	0.	-83.568
2909	6.0899	2.1818	0.	-201.8
2910	6.2745	2.1818	0.	-270.79
2911	6.4592	2.1818	0.	-308.49
2912	6.6438	2.1818	0.	-325.21
2913	6.8284	2.1818	0.	-328.28
2914	7.0131	2.1818	0.	-322.5
2915	7.1977	2.1818	0.	-311.15
2916	7.3824	2.1818	0.	-296.45
2917	7.567	2.1818	0.	-279.87
2918	7.7516	2.1818	0.	-262.44
2919	7.9363	2.1818	0.	-244.82
2920	8.1209	2.1818	0.	-227.46
2921	8.3056	2.1818	0.	-210.66
2922	8.4902	2.1818	0.	-194.58
2923	8.6748	2.1818	0.	-179.34
2924	8.8595	2.1818	0.	-164.99
2925	9.0441	2.1818	0.	-151.54
2926	9.2288	2.1818	0.	-138.99
2927	9.4134	2.1818	0.	-127.31
2928	9.598	2.1818	0.	-116.46
2929	9.7827	2.1818	0.	-106.4
2930	9.9673	2.1818	0.	-97.096
2931	10.152	2.1818	0.	-88.487
2932	10.337	2.1818	0.	-80.53
2933	10.521	2.1818	0.	-73.18
2934	10.706	2.1818	0.	-66.392
2935	10.891	2.1818	0.	-60.124
2936	11.075	2.1818	0.	-54.337
2937	11.26	2.1818	0.	-48.992
2938	11.444	2.1818	0.	-44.056
2939	11.629	2.1818	0.	-39.496
2940	11.814	2.1818	0.	-35.281
2941	11.998	2.1818	0.	-31.383
2942	12.183	2.1818	0.	-27.777
2943	12.368	2.1818	0.	-24.439
2944	12.552	2.1818	0.	-21.346
2945	12.737	2.1818	0.	-18.478
2946	12.922	2.1818	0.	-15.816
2947	13.106	2.1818	0.	-13.342
2948	13.291	2.1818	0.	-11.04
2949	13.475	2.1818	0.	-8.895
2950	13.66	2.1818	0.	-6.8924
2951	13.845	2.1818	0.	-5.0196
2952	14.029	2.1818	0.	-3.2644
2953	14.214	2.1818	0.	-1.6167
2954	14.399	2.1818	0.	-0.12197
2955	14.583	2.1818	0.	5.5771e-004
2956	14.768	2.1818	0.	3.693e-003
2957	14.953	2.1818	0.	4.8429e-003
2958	15.137	2.1818	0.	5.512e-003
2959	15.322	2.1818	0.	5.9943e-003
2960	15.507	2.1818	0.	6.3845e-003
2961	15.691	2.1818	0.	6.7308e-003
2962	15.876	2.1818	0.	7.0511e-003
2963	16.06	2.1818	0.	7.3572e-003
2964	16.245	2.1818	0.	7.6588e-003
2965	16.43	2.1818	0.	7.9569e-003
2966	16.614	2.1818	0.	8.2687e-003
2967	16.799	2.1818	0.	8.5815e-003
2968	16.984	2.1818	0.	8.8874e-003
2969	17.168	2.1818	0.	9.2224e-003
2970	17.353	2.1818	0.	9.577e-003
2971	17.538	2.1818	0.	9.9402e-003
2972	17.722	2.1818	0.	1.0327e-002
2973	17.907	2.1818	0.	1.0733e-002
2974	18.092	2.1818	0.	1.1165e-002
2975	18.276	2.1818	0.	1.1624e-002
2976	18.461	2.1818	0.	1.2117e-002
2977	18.645	2.1818	0.	1.2643e-002
2978	18.83	2.1818	0.	1.3208e-002
2979	19.015	2.1818	0.	1.3818e-002
2980	19.199	2.1818	0.	1.4475e-002
2981	19.384	2.1818	0.	1.519e-002
2982	19.569	2.1818	0.	1.5966e-002
2983	19.753	2.1818	0.	1.6814e-002
2984	19.938	2.1818	0.	1.7741e-002
2985	20.123	2.1818	0.	1.876e-002
2986	20.307	2.1818	0.	1.9886e-002
2987	20.492	2.1818	0.	2.1131e-002
2988	20.676	2.1818	0.	2.2522e-002
2989	20.861	2.1818	0.	2.4082e-002
2990	21.046	2.1818	0.	2.5838e-002
2991	21.23	2.1818	0.	2.7835e-002
2992	21.415	2.1818	0.	3.012e-002
2993	21.6	2.1818	0.	3.2764e-002
2994	21.784	2.1818	0.	3.586e-002
2995	21.969	2.1818	0.	3.952e-002
2996	22.154	2.1818	0.	4.3924e-002
2997	22.338	2.1818	0.	4.9319e-002
2998	22.523	2.1818	0.	5.6131e-002
2999	22.708	2.1818	0.	6.4792e-002
3000	22.892	2.1818	0.	7.6967e-002
3001	23.077	2.1818	0.	9.1982e-002
3002	23.261	2.1818	0.	0.12344
3003	23.446	2.1818	0.	0.14059
3004	23.631	2.1818	0.	0.32665
3005	23.815	2.1818	0.	0.19603
3006	5.3513	2.	0.	-673.39
3007	5.5359	2.	0.	90.573
3008	5.7206	2.	0.	-20.557
3009	5.9052	2.	0.	-10.882
3010	6.0899	2.	0.	-97.704
3011	6.2745	2.	0.	-181.19
3012	6.4592	2.	0.	-229.79
3013	6.6438	2.	0.	-254.83
3014	6.8284	2.	0.	-264.9
3015	7.0131	2.	0.	-265.42
3016	7.1977	2.	0.	-259.9
3017	7.3824	2.	0.	-250.64
3018	7.567	2.	0.	-239.11
3019	7.7516	2.	0.	-226.33
3020	7.9363	2.	0.	-212.96
3021	8.1209	2.	0.	-199.43
3022	8.3056	2.	0.	-186.05
3023	8.4902	2.	0.	-173.02
3024	8.6748	2.	0.	-160.47
3025	8.8595	2.	0.	-148.48
3026	9.0441	2.	0.	-137.09
3027	9.2288	2.	0.	-126.34
3028	9.4134	2.	0.	-116.22
3029	9.598	2.	0.	-106.73
3030	9.7827	2.	0.	-97.849
3031	9.9673	2.	0.	-89.559
3032	10.152	2.	0.	-81.832
3033	10.337	2.	0.	-74.64
3034	10.521	2.	0.	-67.954
3035	10.706	2.	0.	-61.743
3036	10.891	2.	0.	-55.979
3037	11.075	2.	0.	-50.631
3038	11.26	2.	0.	-45.671
3039	11.444	2.	0.	-41.072
3040	11.629	2.	0.	-36.809
3041	11.814	2.	0.	-32.857
3042	11.998	2.	0.	-29.192
3043	12.183	2.	0.	-25.792
3044	12.368	2.	0.	-22.638
3045	12.552	2.	0.	-19.71
3046	12.737	2.	0.	-16.99
3047	12.922	2.	0.	-14.461
3048	13.106	2.	0.	-12.107
3049	13.291	2.	0.	-9.9137
3050	13.475	2.	0.	-7.8675
3051	13.66	2.	0.	-5.9553
3052	13.845	2.	0.	-4.1654
3053	14.029	2.	0.	-2.487
3054	14.214	2.	0.	-0.91479
3055	14.399	2.	0.	-1.3912e-002
3056	14.583	2.	0.	9.3885e-005
3057	14.768	2.	0.	2.6455e-003
3058	14.953	2.	0.	3.7983e-003
3059	15.137	2.	0.	4.5079e-003
3060	15.322	2.	0.	5.0236e-003
3061	15.507	2.	0.	5.4398e-003
3062	15.691	2.	0.	5.8017e-003
3063	15.876	2.	0.	6.1286e-003
3064	16.06	2.	0.	6.4392e-003
3065	16.245	2.	0.	6.7386e-003
3066	16.43	2.	0.	7.0334e-003
3067	16.614	2.	0.	7.3381e-003
3068	16.799	2.	0.	7.6439e-003
3069	16.984	2.	0.	7.9404e-003
3070	17.168	2.	0.	8.2643e-003
3071	17.353	2.	0.	8.6049e-003
3072	17.538	2.	0.	8.9545e-003
3073	17.722	2.	0.	9.324e-003
3074	17.907	2.	0.	9.7135e-003
3075	18.092	2.	0.	1.0126e-002
3076	18.276	2.	0.	1.0568e-002
3077	18.461	2.	0.	1.1036e-002
3078	18.645	2.	0.	1.154e-002
3079	18.83	2.	0.	1.2081e-002
3080	19.015	2.	0.	1.2666e-002
3081	19.199	2.	0.	1.3298e-002
3082	19.384	2.	0.	1.3982e-002
3083	19.569	2.	0.	1.473e-002
3084	19.753	2.	0.	1.5545e-002
3085	19.938	2.	0.	1.6438e-002
3086	20.123	2.	0.	1.7423e-002
3087	20.307	2.	0.	1.8512e-002
3088	20.492	2.	0.	1.9723e-002
3089	20.676	2.	0.	2.1073e-002
3090	20.861	2.	0.	2.2592e-002
3091	21.046	2.	0.	2.4311e-002
3092	21.23	2.	0.	2.6267e-002
3093	21.415	2.	0.	2.8514e-002
3094	21.6	2.	0.	3.1115e-002
3095	21.784	2.	0.	3.4174e-002
3096	21.969	2.	0.	3.7795e-002
3097	22.154	2.	0.	4.2157e-002
3098	22.338	2.	0.	4.7511e-002
3099	22.523	2.	0.	5.4261e-002
3100	22.708	2.	0.	6.2857e-002
3101	22.892	2.	0.	7.4925e-002
3102	23.077	2.	0.	8.9799e-002
3103	23.261	2.	0.	0.12101
3104	23.446	2.	0.	0.13783
3105	23.631	2.	0.	0.32272
3106	23.815	2.	0.	0.18812
3107	5.3513	1.8182	0.	-178.13
3108	5.5359	1.8182	0.	10.767
3109	5.7206	1.8182	0.	-9.4585
3110	5.9052	1.8182	0.	-6.2721
3111	6.0899	1.8182	0.	-15.997
3112	6.2745	1.8182	0.	-76.81
3113	6.4592	1.8182	0.	-138.98
3114	6.6438	1.8182	0.	-175.33
3115	6.8284	1.8182	0.	-194.41
3116	7.0131	1.8182	0.	-202.56
3117	7.1977	1.8182	0.	-203.8
3118	7.3824	1.8182	0.	-200.65
3119	7.567	1.8182	0.	-194.7
3120	7.7516	1.8182	0.	-186.99
3121	7.9363	1.8182	0.	-178.2
3122	8.1209	1.8182	0.	-168.81
3123	8.3056	1.8182	0.	-159.12
3124	8.4902	1.8182	0.	-149.36
3125	8.6748	1.8182	0.	-139.71
3126	8.8595	1.8182	0.	-130.26
3127	9.0441	1.8182	0.	-121.1
3128	9.2288	1.8182	0.	-112.29
3129	9.4134	1.8182	0.	-103.86
3130	9.598	1.8182	0.	-95.843
3131	9.7827	1.8182	0.	-88.243
3132	9.9673	1.8182	0.	-81.065
3133	10.152	1.8182	0.	-74.305
3134	10.337	1.8182	0.	-67.955
3135	10.521	1.8182	0.	-62.002
3136	10.706	1.8182	0.	-56.432
3137	10.891	1.8182	0.	-51.227
3138	11.075	1.8182	0.	-46.369
3139	11.26	1.8182	0.	-41.841
3140	11.444	1.8182	0.	-37.622
3141	11.629	1.8182	0.	-33.694
3142	11.814	1.8182	0.	-30.039
3143	11.998	1.8182	0.	-26.639
3144	12.183	1.8182	0.	-23.476
3145	12.368	1.8182	0.	-20.532
3146	12.552	1.8182	0.	-17.794
3147	12.737	1.8182	0.	-15.244
3148	12.922	1.8182	0.	-12.868
3149	13.106	1.8182	0.	-10.654
3150	13.291	1.8182	0.	-8.5869
3151	13.475	1.8182	0.	-6.6559
3152	13.66	1.8182	0.	-4.8492
3153	13.845	1.8182	0.	-3.1565
3154	14.029	1.8182	0.	-1.5697
3155	14.214	1.8182	0.	-0.15719
3156	14.399	1.8182	0.	-6.0794e-003
3157	14.583	1.8182	0.	-2.7468e-004
3158	14.768	1.8182	0.	1.7104e-003
3159	14.953	1.8182	0.	2.7652e-003
3160	15.137	1.8182	0.	3.4563e-003
3161	15.322	1.8182	0.	3.9705e-003
3162	15.507	1.8182	0.	4.3862e-003
3163	15.691	1.8182	0.	4.7438e-003
3164	15.876	1.8182	0.	5.0695e-003
3165	16.06	1.8182	0.	5.3712e-003
3166	16.245	1.8182	0.	5.6619e-003
3167	16.43	1.8182	0.	5.9456e-003
3168	16.614	1.8182	0.	6.2364e-003
3169	16.799	1.8182	0.	6.5261e-003
3170	16.984	1.8182	0.	6.8048e-003
3171	17.168	1.8182	0.	7.1091e-003
3172	17.353	1.8182	0.	7.4332e-003
3173	17.538	1.8182	0.	7.7588e-003
3174	17.722	1.8182	0.	8.1048e-003
3175	17.907	1.8182	0.	8.4693e-003
3176	18.092	1.8182	0.	8.8575e-003
3177	18.276	1.8182	0.	9.2692e-003
3178	18.461	1.8182	0.	9.7085e-003
3179	18.645	1.8182	0.	1.0182e-002
3180	18.83	1.8182	0.	1.0691e-002
3181	19.015	1.8182	0.	1.124e-002
3182	19.199	1.8182	0.	1.1833e-002
3183	19.384	1.8182	0.	1.2479e-002
3184	19.569	1.8182	0.	1.3184e-002
3185	19.753	1.8182	0.	1.3955e-002
3186	19.938	1.8182	0.	1.4803e-002
3187	20.123	1.8182	0.	1.5739e-002
3188	20.307	1.8182	0.	1.6777e-002
3189	20.492	1.8182	0.	1.7932e-002
3190	20.676	1.8182	0.	1.923e-002
3191	20.861	1.8182	0.	2.0691e-002
3192	21.046	1.8182	0.	2.2348e-002
3193	21.23	1.8182	0.	2.4247e-002
3194	21.415	1.8182	0.	2.6431e-002
3195	21.6	1.8182	0.	2.8974e-002
3196	21.784	1.8182	0.	3.1971e-002
3197	21.969	1.8182	0.	3.5526e-002
3198	22.154	1.8182	0.	3.9832e-002
3199	22.338	1.8182	0.	4.5114e-002
3200	22.523	1.8182	0.	5.179e-002
3201	22.708	1.8182	0.	6.029e-002
3202	22.892	1.8182	0.	7.2228e-002
3203	23.077	1.8182	0.	8.6914e-002
3204	23.261	1.8182	0.	0.11781
3205	23.446	1.8182	0.	0.13421
3206	23.631	1.8182	0.	0.3176
3207	23.815	1.8182	0.	0.1781
3208	5.3513	1.6364	0.	12.885
3209	5.5359	1.6364	0.	2.4437
3210	5.7206	1.6364	0.	-13.531
3211	5.9052	1.6364	0.	-3.3605
3212	6.0899	1.6364	0.	-6.5802
3213	6.2745	1.6364	0.	-13.293
3214	6.4592	1.6364	0.	-52.402
3215	6.6438	1.6364	0.	-95.805
3216	6.8284	1.6364	0.	-122.96
3217	7.0131	1.6364	0.	-138.46
3218	7.1977	1.6364	0.	-146.38
3219	7.3824	1.6364	0.	-149.34
3220	7.567	1.6364	0.	-148.99
3221	7.7516	1.6364	0.	-146.39
3222	7.9363	1.6364	0.	-142.24
3223	8.1209	1.6364	0.	-137.01
3224	8.3056	1.6364	0.	-131.06
3225	8.4902	1.6364	0.	-124.63
3226	8.6748	1.6364	0.	-117.91
3227	8.8595	1.6364	0.	-111.05
3228	9.0441	1.6364	0.	-104.17
3229	9.2288	1.6364	0.	-97.349
3230	9.4134	1.6364	0.	-90.663
3231	9.598	1.6364	0.	-84.164
3232	9.7827	1.6364	0.	-77.89
3233	9.9673	1.6364	0.	-71.869
3234	10.152	1.6364	0.	-66.119
3235	10.337	1.6364	0.	-60.653
3236	10.521	1.6364	0.	-55.473
3237	10.706	1.6364	0.	-50.581
3238	10.891	1.6364	0.	-45.972
3239	11.075	1.6364	0.	-41.639
3240	11.26	1.6364	0.	-37.574
3241	11.444	1.6364	0.	-33.766
3242	11.629	1.6364	0.	-30.204
3243	11.814	1.6364	0.	-26.873
3244	11.998	1.6364	0.	-23.763
3245	12.183	1.6364	0.	-20.859
3246	12.368	1.6364	0.	-18.149
3247	12.552	1.6364	0.	-15.62
3248	12.737	1.6364	0.	-13.259
3249	12.922	1.6364	0.	-11.056
3250	13.106	1.6364	0.	-8.997
3251	13.291	1.6364	0.	-7.0723
3252	13.475	1.6364	0.	-5.2711
3253	13.66	1.6364	0.	-3.5837
3254	13.845	1.6364	0.	-2.0022
3255	14.029	1.6364	0.	-0.53634
3256	14.214	1.6364	0.	-1.5963e-002
3257	14.399	1.6364	0.	-3.7395e-003
3258	14.583	1.6364	0.	-5.9926e-004
3259	14.768	1.6364	0.	8.8168e-004
3260	14.953	1.6364	0.	1.7737e-003
3261	15.137	1.6364	0.	2.3955e-003
3262	15.322	1.6364	0.	2.8679e-003
3263	15.507	1.6364	0.	3.2564e-003
3264	15.691	1.6364	0.	3.5925e-003
3265	15.876	1.6364	0.	3.8941e-003
3266	16.06	1.6364	0.	4.1744e-003
3267	16.245	1.6364	0.	4.4433e-003
3268	16.43	1.6364	0.	4.7021e-003
3269	16.614	1.6364	0.	4.9688e-003
3270	16.799	1.6364	0.	5.2332e-003
3271	16.984	1.6364	0.	5.4855e-003
3272	17.168	1.6364	0.	5.7627e-003
3273	17.353	1.6364	0.	6.0539e-003
3274	17.538	1.6364	0.	6.35e-003
3275	17.722	1.6364	0.	6.6633e-003
3276	17.907	1.6364	0.	6.9931e-003
3277	18.092	1.6364	0.	7.3434e-003
3278	18.276	1.6364	0.	7.7173e-003
3279	18.461	1.6364	0.	8.1191e-003
3280	18.645	1.6364	0.	8.5468e-003
3281	18.83	1.6364	0.	9.0103e-003
3282	19.015	1.6364	0.	9.5115e-003
3283	19.199	1.6364	0.	1.0055e-002
3284	19.384	1.6364	0.	1.0647e-002
3285	19.569	1.6364	0.	1.1295e-002
3286	19.753	1.6364	0.	1.2005e-002
3287	19.938	1.6364	0.	1.2789e-002
3288	20.123	1.6364	0.	1.366e-002
3289	20.307	1.6364	0.	1.4626e-002
3290	20.492	1.6364	0.	1.571e-002
3291	20.676	1.6364	0.	1.6927e-002
3292	20.861	1.6364	0.	1.8306e-002
3293	21.046	1.6364	0.	1.9882e-002
3294	21.23	1.6364	0.	2.169e-002
3295	21.415	1.6364	0.	2.3783e-002
3296	21.6	1.6364	0.	2.6231e-002
3297	21.784	1.6364	0.	2.9134e-002
3298	21.969	1.6364	0.	3.2597e-002
3299	22.154	1.6364	0.	3.6798e-002
3300	22.338	1.6364	0.	4.1981e-002
3301	22.523	1.6364	0.	4.8547e-002
3302	22.708	1.6364	0.	5.6911e-002
3303	22.892	1.6364	0.	6.868e-002
3304	23.077	1.6364	0.	8.3129e-002
3305	23.261	1.6364	0.	0.11363
3306	23.446	1.6364	0.	0.12949
3307	23.631	1.6364	0.	0.311
3308	23.815	1.6364	0.	0.16556
3309	5.3513	1.4545	0.	-29.854
3310	5.5359	1.4545	0.	-2.1879
3311	5.7206	1.4545	0.	-4.5663
3312	5.9052	1.4545	0.	-4.0821
3313	6.0899	1.4545	0.	-4.1051
3314	6.2745	1.4545	0.	-5.1193
3315	6.4592	1.4545	0.	-9.5163
3316	6.6438	1.4545	0.	-29.176
3317	6.8284	1.4545	0.	-57.467
3318	7.0131	1.4545	0.	-77.966
3319	7.1977	1.4545	0.	-91.354
3320	7.3824	1.4545	0.	-99.687
3321	7.567	1.4545	0.	-104.44
3322	7.7516	1.4545	0.	-106.58
3323	7.9363	1.4545	0.	-106.79
3324	8.1209	1.4545	0.	-105.52
3325	8.3056	1.4545	0.	-103.12
3326	8.4902	1.4545	0.	-99.866
3327	8.6748	1.4545	0.	-95.972
3328	8.8595	1.4545	0.	-91.611
3329	9.0441	1.4545	0.	-86.931
3330	9.2288	1.4545	0.	-82.05
3331	9.4134	1.4545	0.	-77.067
3332	9.598	1.4545	0.	-72.062
3333	9.7827	1.4545	0.	-67.099
3334	9.9673	1.4545	0.	-62.229
3335	10.152	1.4545	0.	-57.491
3336	10.337	1.4545	0.	-52.914
3337	10.521	1.4545	0.	-48.518
3338	10.706	1.4545	0.	-44.318
3339	10.891	1.4545	0.	-40.321
3340	11.075	1.4545	0.	-36.531
3341	11.26	1.4545	0.	-32.948
3342	11.444	1.4545	0.	-29.57
3343	11.629	1.4545	0.	-26.39
3344	11.814	1.4545	0.	-23.404
3345	11.998	1.4545	0.	-20.601
3346	12.183	1.4545	0.	-17.975
3347	12.368	1.4545	0.	-15.516
3348	12.552	1.4545	0.	-13.213
3349	12.737	1.4545	0.	-11.058
3350	12.922	1.4545	0.	-9.0411
3351	13.106	1.4545	0.	-7.1525
3352	13.291	1.4545	0.	-5.3834
3353	13.475	1.4545	0.	-3.725
3354	13.66	1.4545	0.	-2.1704
3355	13.845	1.4545	0.	-0.72437
3356	14.029	1.4545	0.	-2.648e-002
3357	14.214	1.4545	0.	-6.912e-003
3358	14.399	1.4545	0.	-2.7402e-003
3359	14.583	1.4545	0.	-9.0921e-004
3360	14.768	1.4545	0.	1.3886e-004
3361	14.953	1.4545	0.	8.3501e-004
3362	15.137	1.4545	0.	1.3447e-003
3363	15.322	1.4545	0.	1.7455e-003
3364	15.507	1.4545	0.	2.0761e-003
3365	15.691	1.4545	0.	2.3644e-003
3366	15.876	1.4545	0.	2.6278e-003
3367	16.06	1.4545	0.	2.8673e-003
3368	16.245	1.4545	0.	3.0953e-003
3369	16.43	1.4545	0.	3.3191e-003
3370	16.614	1.4545	0.	3.5497e-003
3371	16.799	1.4545	0.	3.775e-003
3372	16.984	1.4545	0.	3.9869e-003
3373	17.168	1.4545	0.	4.2231e-003
3374	17.353	1.4545	0.	4.4719e-003
3375	17.538	1.4545	0.	4.7245e-003
3376	17.722	1.4545	0.	4.9926e-003
3377	17.907	1.4545	0.	5.2758e-003
3378	18.092	1.4545	0.	5.5764e-003
3379	18.276	1.4545	0.	5.8982e-003
3380	18.461	1.4545	0.	6.2437e-003
3381	18.645	1.4545	0.	6.6151e-003
3382	18.83	1.4545	0.	7.0201e-003
3383	19.015	1.4545	0.	7.4532e-003
3384	19.199	1.4545	0.	7.928e-003
3385	19.384	1.4545	0.	8.4495e-003
3386	19.569	1.4545	0.	9.0197e-003
3387	19.753	1.4545	0.	9.6486e-003
3388	19.938	1.4545	0.	1.0348e-002
3389	20.123	1.4545	0.	1.1122e-002
3390	20.307	1.4545	0.	1.199e-002
3391	20.492	1.4545	0.	1.297e-002
3392	20.676	1.4545	0.	1.4077e-002
3393	20.861	1.4545	0.	1.5343e-002
3394	21.046	1.4545	0.	1.6793e-002
3395	21.23	1.4545	0.	1.8471e-002
3396	21.415	1.4545	0.	2.0431e-002
3397	21.6	1.4545	0.	2.2739e-002
3398	21.784	1.4545	0.	2.5495e-002
3399	21.969	1.4545	0.	2.8806e-002
3400	22.154	1.4545	0.	3.2852e-002
3401	22.338	1.4545	0.	3.7874e-002
3402	22.523	1.4545	0.	4.4267e-002
3403	22.708	1.4545	0.	5.2445e-002
3404	22.892	1.4545	0.	6.3976e-002
3405	23.077	1.4545	0.	7.8116e-002
3406	23.261	1.4545	0.	0.10812
3407	23.446	1.4545	0.	0.1233
3408	23.631	1.4545	0.	0.30245
3409	23.815	1.4545	0.	0.14986
3410	5.3513	1.2727	0.	-9.4679
3411	5.5359	1.2727	0.	-1.0712
3412	5.7206	1.2727	0.	-4.038
3413	5.9052	1.2727	0.	-3.1923
3414	6.0899	1.2727	0.	-3.0705
3415	6.2745	1.2727	0.	-3.2081
3416	6.4592	1.2727	0.	-3.8075
3417	6.6438	1.2727	0.	-5.4942
3418	6.8284	1.2727	0.	-11.525
3419	7.0131	1.2727	0.	-26.7
3420	7.1977	1.2727	0.	-42.419
3421	7.3824	1.2727	0.	-54.572
3422	7.567	1.2727	0.	-63.41
3423	7.7516	1.2727	0.	-69.554
3424	7.9363	1.2727	0.	-73.525
3425	8.1209	1.2727	0.	-75.729
3426	8.3056	1.2727	0.	-76.494
3427	8.4902	1.2727	0.	-76.09
3428	8.6748	1.2727	0.	-74.746
3429	8.8595	1.2727	0.	-72.658
3430	9.0441	1.2727	0.	-69.996
3431	9.2288	1.2727	0.	-66.903
3432	9.4134	1.2727	0.	-63.503
3433	9.598	1.2727	0.	-59.898
3434	9.7827	1.2727	0.	-56.174
3435	9.9673	1.2727	0.	-52.4
3436	10.152	1.2727	0.	-48.633
3437	10.337	1.2727	0.	-44.917
3438	10.521	1.2727	0.	-41.287
3439	10.706	1.2727	0.	-37.768
3440	10.891	1.2727	0.	-34.379
3441	11.075	1.2727	0.	-31.133
3442	11.26	1.2727	0.	-28.037
3443	11.444	1.2727	0.	-25.095
3444	11.629	1.2727	0.	-22.309
3445	11.814	1.2727	0.	-19.677
3446	11.998	1.2727	0.	-17.195
3447	12.183	1.2727	0.	-14.859
3448	12.368	1.2727	0.	-12.662
3449	12.552	1.2727	0.	-10.599
3450	12.737	1.2727	0.	-8.6616
3451	12.922	1.2727	0.	-6.8434
3452	13.106	1.2727	0.	-5.1369
3453	13.291	1.2727	0.	-3.5351
3454	13.475	1.2727	0.	-2.0324
3455	13.66	1.2727	0.	-0.63856
3456	13.845	1.2727	0.	-2.7094e-002
3457	14.029	1.2727	0.	-8.3963e-003
3458	14.214	1.2727	0.	-4.1471e-003
3459	14.399	1.2727	0.	-2.2784e-003
3460	14.583	1.2727	0.	-1.2214e-003
3461	14.768	1.2727	0.	-5.3679e-004
3462	14.953	1.2727	0.	-4.9523e-005
3463	15.137	1.2727	0.	3.2167e-004
3464	15.322	1.2727	0.	6.1928e-004
3465	15.507	1.2727	0.	8.7017e-004
3466	15.691	1.2727	0.	1.0891e-003
3467	15.876	1.2727	0.	1.2858e-003
3468	16.06	1.2727	0.	1.4707e-003
3469	16.245	1.2727	0.	1.6458e-003
3470	16.43	1.2727	0.	1.8151e-003
3471	16.614	1.2727	0.	1.9912e-003
3472	16.799	1.2727	0.	2.1633e-003
3473	16.984	1.2727	0.	2.3227e-003
3474	17.168	1.2727	0.	2.5044e-003
3475	17.353	1.2727	0.	2.6978e-003
3476	17.538	1.2727	0.	2.8908e-003
3477	17.722	1.2727	0.	3.0994e-003
3478	17.907	1.2727	0.	3.3188e-003
3479	18.092	1.2727	0.	3.5529e-003
3480	18.276	1.2727	0.	3.8065e-003
3481	18.461	1.2727	0.	4.0767e-003
3482	18.645	1.2727	0.	4.3716e-003
3483	18.83	1.2727	0.	4.6932e-003
3484	19.015	1.2727	0.	5.0433e-003
3485	19.199	1.2727	0.	5.4282e-003
3486	19.384	1.2727	0.	5.85e-003
3487	19.569	1.2727	0.	6.3181e-003
3488	19.753	1.2727	0.	6.8388e-003
3489	19.938	1.2727	0.	7.4189e-003
3490	20.123	1.2727	0.	8.0694e-003
3491	20.307	1.2727	0.	8.8072e-003
3492	20.492	1.2727	0.	9.6434e-003
3493	20.676	1.2727	0.	1.0598e-002
3494	20.861	1.2727	0.	1.1698e-002
3495	21.046	1.2727	0.	1.2976e-002
3496	21.23	1.2727	0.	1.447e-002
3497	21.415	1.2727	0.	1.623e-002
3498	21.6	1.2727	0.	1.8326e-002
3499	21.784	1.2727	0.	2.086e-002
3500	21.969	1.2727	0.	2.3937e-002
3501	22.154	1.2727	0.	2.7739e-002
3502	22.338	1.2727	0.	3.2503e-002
3503	22.523	1.2727	0.	3.8628e-002
3504	22.708	1.2727	0.	4.6513e-002
3505	22.892	1.2727	0.	5.7711e-002
3506	23.077	1.2727	0.	7.144e-002
3507	23.261	1.2727	0.	0.10079
3508	23.446	1.2727	0.	0.11513
3509	23.631	1.2727	0.	0.29129
3510	23.815	1.2727	0.	0.13015
3511	5.3513	1.0909	0.	-11.136
3512	5.5359	1.0909	0.	-0.651
3513	5.7206	1.0909	0.	-3.5316
3514	5.9052	1.0909	0.	-2.571
3515	6.0899	1.0909	0.	-2.5134
3516	6.2745	1.0909	0.	-2.326
3517	6.4592	1.0909	0.	-2.2896
3518	6.6438	1.0909	0.	-2.3817
3519	6.8284	1.0909	0.	-2.7268
3520	7.0131	1.0909	0.	-3.7598
3521	7.1977	1.0909	0.	-7.5518
3522	7.3824	1.0909	0.	-17.327
3523	7.567	1.0909	0.	-28.169
3524	7.7516	1.0909	0.	-37.126
3525	7.9363	1.0909	0.	-43.986
3526	8.1209	1.0909	0.	-48.955
3527	8.3056	1.0909	0.	-52.289
3528	8.4902	1.0909	0.	-54.237
3529	8.6748	1.0909	0.	-55.026
3530	8.8595	1.0909	0.	-54.861
3531	9.0441	1.0909	0.	-53.926
3532	9.2288	1.0909	0.	-52.382
3533	9.4134	1.0909	0.	-50.369
3534	9.598	1.0909	0.	-48.006
3535	9.7827	1.0909	0.	-45.393
3536	9.9673	1.0909	0.	-42.615
3537	10.152	1.0909	0.	-39.742
3538	10.337	1.0909	0.	-36.829
3539	10.521	1.0909	0.	-33.92
3540	10.706	1.0909	0.	-31.051
3541	10.891	1.0909	0.	-28.247
3542	11.075	1.0909	0.	-25.53
3543	11.26	1.0909	0.	-22.913
3544	11.444	1.0909	0.	-20.405
3545	11.629	1.0909	0.	-18.013
3546	11.814	1.0909	0.	-15.739
3547	11.998	1.0909	0.	-13.582
3548	12.183	1.0909	0.	-11.543
3549	12.368	1.0909	0.	-9.6176
3550	12.552	1.0909	0.	-7.8021
3551	12.737	1.0909	0.	-6.092
3552	12.922	1.0909	0.	-4.4822
3553	13.106	1.0909	0.	-2.9678
3554	13.291	1.0909	0.	-1.5462
3555	13.475	1.0909	0.	-0.26795
3556	13.66	1.0909	0.	-1.7867e-002
3557	13.845	1.0909	0.	-7.5167e-003
3558	14.029	1.0909	0.	-4.4039e-003
3559	14.214	1.0909	0.	-2.9363e-003
3560	14.399	1.0909	0.	-2.0927e-003
3561	14.583	1.0909	0.	-1.5499e-003
3562	14.768	1.0909	0.	-1.1716e-003
3563	14.953	1.0909	0.	-8.9336e-004
3564	15.137	1.0909	0.	-6.7803e-004
3565	15.322	1.0909	0.	-5.0206e-004
3566	15.507	1.0909	0.	-3.5717e-004
3567	15.691	1.0909	0.	-2.2903e-004
3568	15.876	1.0909	0.	-1.1431e-004
3569	16.06	1.0909	0.	-9.8838e-006
3570	16.245	1.0909	0.	9.2128e-005
3571	16.43	1.0909	0.	1.8786e-004
3572	16.614	1.0909	0.	2.9227e-004
3573	16.799	1.0909	0.	3.9516e-004
3574	16.984	1.0909	0.	4.8257e-004
3575	17.168	1.0909	0.	5.9098e-004
3576	17.353	1.0909	0.	7.0811e-004
3577	17.538	1.0909	0.	8.255e-004
3578	17.722	1.0909	0.	9.5348e-004
3579	17.907	1.0909	0.	1.0889e-003
3580	18.092	1.0909	0.	1.2354e-003
3581	18.276	1.0909	0.	1.3986e-003
3582	18.461	1.0909	0.	1.5735e-003
3583	18.645	1.0909	0.	1.7682e-003
3584	18.83	1.0909	0.	1.9783e-003
3585	19.015	1.0909	0.	2.2145e-003
3586	19.199	1.0909	0.	2.4744e-003
3587	19.384	1.0909	0.	2.7683e-003
3588	19.569	1.0909	0.	3.0947e-003
3589	19.753	1.0909	0.	3.467e-003
3590	19.938	1.0909	0.	3.8851e-003
3591	20.123	1.0909	0.	4.3665e-003
3592	20.307	1.0909	0.	4.9177e-003
3593	20.492	1.0909	0.	5.5516e-003
3594	20.676	1.0909	0.	6.2908e-003
3595	20.861	1.0909	0.	7.1605e-003
3596	21.046	1.0909	0.	8.1856e-003
3597	21.23	1.0909	0.	9.4045e-003
3598	21.415	1.0909	0.	1.0868e-002
3599	21.6	1.0909	0.	1.2648e-002
3600	21.784	1.0909	0.	1.4836e-002
3601	21.969	1.0909	0.	1.7544e-002
3602	22.154	1.0909	0.	2.0945e-002
3603	22.338	1.0909	0.	2.5283e-002
3604	22.523	1.0909	0.	3.0954e-002
3605	22.708	1.0909	0.	3.835e-002
3606	22.892	1.0909	0.	4.9007e-002
3607	23.077	1.0909	0.	6.2107e-002
3608	23.261	1.0909	0.	9.0559e-002
3609	23.446	1.0909	0.	0.10374
3610	23.631	1.0909	0.	0.27603
3611	23.815	1.0909	0.	0.10447
3612	5.3513	0.90909	0.	-8.8415
3613	5.5359	0.90909	0.	-1.0753
3614	5.7206	0.90909	0.	-3.0446
3615	5.9052	0.90909	0.	-2.3157
3616	6.0899	0.90909	0.	-2.0966
3617	6.2745	0.90909	0.	-1.7749
3618	6.4592	0.90909	0.	-1.5494
3619	6.6438	0.90909	0.	-1.379
3620	6.8284	0.90909	0.	-1.2797
3621	7.0131	0.90909	0.	-1.2646
3622	7.1977	0.90909	0.	-1.3898
3623	7.3824	0.90909	0.	-1.8804
3624	7.567	0.90909	0.	-4.0875
3625	7.7516	0.90909	0.	-11.309
3626	7.9363	0.90909	0.	-19.563
3627	8.1209	0.90909	0.	-26.332
3628	8.3056	0.90909	0.	-31.465
3629	8.4902	0.90909	0.	-35.119
3630	8.6748	0.90909	0.	-37.496
3631	8.8595	0.90909	0.	-38.796
3632	9.0441	0.90909	0.	-39.207
3633	9.2288	0.90909	0.	-38.895
3634	9.4134	0.90909	0.	-38.007
3635	9.598	0.90909	0.	-36.672
3636	9.7827	0.90909	0.	-34.999
3637	9.9673	0.90909	0.	-33.08
3638	10.152	0.90909	0.	-30.99
3639	10.337	0.90909	0.	-28.793
3640	10.521	0.90909	0.	-26.539
3641	10.706	0.90909	0.	-24.269
3642	10.891	0.90909	0.	-22.014
3643	11.075	0.90909	0.	-19.799
3644	11.26	0.90909	0.	-17.642
3645	11.444	0.90909	0.	-15.556
3646	11.629	0.90909	0.	-13.55
3647	11.814	0.90909	0.	-11.631
3648	11.998	0.90909	0.	-9.8003
3649	12.183	0.90909	0.	-8.0603
3650	12.368	0.90909	0.	-6.41
3651	12.552	0.90909	0.	-4.8479
3652	12.737	0.90909	0.	-3.3715
3653	12.922	0.90909	0.	-1.9786
3654	13.106	0.90909	0.	-0.6773
3655	13.291	0.90909	0.	-2.8007e-002
3656	13.475	0.90909	0.	-8.9203e-003
3657	13.66	0.90909	0.	-5.1264e-003
3658	13.845	0.90909	0.	-3.595e-003
3659	14.029	0.90909	0.	-2.8081e-003
3660	14.214	0.90909	0.	-2.3505e-003
3661	14.399	0.90909	0.	-2.067e-003
3662	14.583	0.90909	0.	-1.8815e-003
3663	14.768	0.90909	0.	-1.7565e-003
3664	14.953	0.90909	0.	-1.6719e-003
3665	15.137	0.90909	0.	-1.6129e-003
3666	15.322	0.90909	0.	-1.5706e-003
3667	15.507	0.90909	0.	-1.5418e-003
3668	15.691	0.90909	0.	-1.5207e-003
3669	15.876	0.90909	0.	-1.501e-003
3670	16.06	0.90909	0.	-1.489e-003
3671	16.245	0.90909	0.	-1.4743e-003
3672	16.43	0.90909	0.	-1.4629e-003
3673	16.614	0.90909	0.	-1.4457e-003
3674	16.799	0.90909	0.	-1.4291e-003
3675	16.984	0.90909	0.	-1.4286e-003
3676	17.168	0.90909	0.	-1.4059e-003
3677	17.353	0.90909	0.	-1.3778e-003
3678	17.538	0.90909	0.	-1.3531e-003
3679	17.722	0.90909	0.	-1.3223e-003
3680	17.907	0.90909	0.	-1.2872e-003
3681	18.092	0.90909	0.	-1.245e-003
3682	18.276	0.90909	0.	-1.1953e-003
3683	18.461	0.90909	0.	-1.1387e-003
3684	18.645	0.90909	0.	-1.0723e-003
3685	18.83	0.90909	0.	-9.8989e-004
3686	19.015	0.90909	0.	-8.9958e-004
3687	19.199	0.90909	0.	-7.9036e-004
3688	19.384	0.90909	0.	-6.6162e-004
3689	19.569	0.90909	0.	-5.0997e-004
3690	19.753	0.90909	0.	-3.2668e-004
3691	19.938	0.90909	0.	-1.1204e-004
3692	20.123	0.90909	0.	1.458e-004
3693	20.307	0.90909	0.	4.546e-004
3694	20.492	0.90909	0.	8.3164e-004
3695	20.676	0.90909	0.	1.286e-003
3696	20.861	0.90909	0.	1.8395e-003
3697	21.046	0.90909	0.	2.5233e-003
3698	21.23	0.90909	0.	3.3699e-003
3699	21.415	0.90909	0.	4.4231e-003
3700	21.6	0.90909	0.	5.7487e-003
3701	21.784	0.90909	0.	7.4384e-003
3702	21.969	0.90909	0.	9.596e-003
3703	22.154	0.90909	0.	1.2393e-002
3704	22.338	0.90909	0.	1.6069e-002
3705	22.523	0.90909	0.	2.1009e-002
3706	22.708	0.90909	0.	2.762e-002
3707	22.892	0.90909	0.	3.7406e-002
3708	23.077	0.90909	0.	4.9546e-002
3709	23.261	0.90909	0.	7.6676e-002
3710	23.446	0.90909	0.	8.8411e-002
3711	23.631	0.90909	0.	0.25569
3712	23.815	0.90909	0.	7.1649e-002
3713	5.3513	0.72727	0.	-8.8491
3714	5.5359	0.72727	0.	-1.607
3715	5.7206	0.72727	0.	-3.1015
3716	5.9052	0.72727	0.	-2.1564
3717	6.0899	0.72727	0.	-1.7557
3718	6.2745	0.72727	0.	-1.3476
3719	6.4592	0.72727	0.	-1.065
3720	6.6438	0.72727	0.	-0.85526
3721	6.8284	0.72727	0.	-0.70936
3722	7.0131	0.72727	0.	-0.61262
3723	7.1977	0.72727	0.	-0.56004
3724	7.3824	0.72727	0.	-0.55615
3725	7.567	0.72727	0.	-0.63226
3726	7.7516	0.72727	0.	-0.94542
3727	7.9363	0.72727	0.	-2.8538
3728	8.1209	0.72727	0.	-8.9078
3729	8.3056	0.72727	0.	-14.809
3730	8.4902	0.72727	0.	-19.387
3731	8.6748	0.72727	0.	-22.702
3732	8.8595	0.72727	0.	-24.923
3733	9.0441	0.72727	0.	-26.222
3734	9.2288	0.72727	0.	-26.763
3735	9.4134	0.72727	0.	-26.689
3736	9.598	0.72727	0.	-26.126
3737	9.7827	0.72727	0.	-25.185
3738	9.9673	0.72727	0.	-23.955
3739	10.152	0.72727	0.	-22.515
3740	10.337	0.72727	0.	-20.928
3741	10.521	0.72727	0.	-19.246
3742	10.706	0.72727	0.	-17.51
3743	10.891	0.72727	0.	-15.754
3744	11.075	0.72727	0.	-14.004
3745	11.26	0.72727	0.	-12.279
3746	11.444	0.72727	0.	-10.596
3747	11.629	0.72727	0.	-8.9636
3748	11.814	0.72727	0.	-7.3907
3749	11.998	0.72727	0.	-5.8817
3750	12.183	0.72727	0.	-4.4397
3751	12.368	0.72727	0.	-3.0657
3752	12.552	0.72727	0.	-1.7606
3753	12.737	0.72727	0.	-0.53365
3754	12.922	0.72727	0.	-1.5086e-002
3755	13.106	0.72727	0.	-5.0749e-003
3756	13.291	0.72727	0.	-3.0726e-003
3757	13.475	0.72727	0.	-2.3712e-003
3758	13.66	0.72727	0.	-2.101e-003
3759	13.845	0.72727	0.	-2.0197e-003
3760	14.029	0.72727	0.	-2.0326e-003
3761	14.214	0.72727	0.	-2.0956e-003
3762	14.399	0.72727	0.	-2.185e-003
3763	14.583	0.72727	0.	-2.2883e-003
3764	14.768	0.72727	0.	-2.402e-003
3765	14.953	0.72727	0.	-2.5188e-003
3766	15.137	0.72727	0.	-2.6363e-003
3767	15.322	0.72727	0.	-2.7537e-003
3768	15.507	0.72727	0.	-2.8711e-003
3769	15.691	0.72727	0.	-2.9837e-003
3770	15.876	0.72727	0.	-3.0987e-003
3771	16.06	0.72727	0.	-3.2091e-003
3772	16.245	0.72727	0.	-3.3181e-003
3773	16.43	0.72727	0.	-3.4299e-003
3774	16.614	0.72727	0.	-3.5285e-003
3775	16.799	0.72727	0.	-3.6344e-003
3776	16.984	0.72727	0.	-3.7578e-003
3777	17.168	0.72727	0.	-3.8625e-003
3778	17.353	0.72727	0.	-3.963e-003
3779	17.538	0.72727	0.	-4.0742e-003
3780	17.722	0.72727	0.	-4.1835e-003
3781	17.907	0.72727	0.	-4.293e-003
3782	18.092	0.72727	0.	-4.4063e-003
3783	18.276	0.72727	0.	-4.5216e-003
3784	18.461	0.72727	0.	-4.6381e-003
3785	18.645	0.72727	0.	-4.7562e-003
3786	18.83	0.72727	0.	-4.8755e-003
3787	19.015	0.72727	0.	-4.9956e-003
3788	19.199	0.72727	0.	-5.1161e-003
3789	19.384	0.72727	0.	-5.2358e-003
3790	19.569	0.72727	0.	-5.3509e-003
3791	19.753	0.72727	0.	-5.4606e-003
3792	19.938	0.72727	0.	-5.562e-003
3793	20.123	0.72727	0.	-5.649e-003
3794	20.307	0.72727	0.	-5.7161e-003
3795	20.492	0.72727	0.	-5.7543e-003
3796	20.676	0.72727	0.	-5.7532e-003
3797	20.861	0.72727	0.	-5.6985e-003
3798	21.046	0.72727	0.	-5.5686e-003
3799	21.23	0.72727	0.	-5.3379e-003
3800	21.415	0.72727	0.	-4.9672e-003
3801	21.6	0.72727	0.	-4.4072e-003
3802	21.784	0.72727	0.	-3.579e-003
3803	21.969	0.72727	0.	-2.3903e-003
3804	22.154	0.72727	0.	-6.8392e-004
3805	22.338	0.72727	0.	1.753e-003
3806	22.523	0.72727	0.	5.2927e-003
3807	22.708	0.72727	0.	1.0312e-002
3808	22.892	0.72727	0.	1.8285e-002
3809	23.077	0.72727	0.	2.8347e-002
3810	23.261	0.72727	0.	5.2925e-002
3811	23.446	0.72727	0.	6.173e-002
3812	23.631	0.72727	0.	0.22076
3813	23.815	0.72727	0.	1.9294e-002
3814	5.3513	0.54545	0.	-9.948
3815	5.5359	0.54545	0.	-3.0655
3816	5.7206	0.54545	0.	-3.494
3817	5.9052	0.54545	0.	-2.0389
3818	6.0899	0.54545	0.	-1.383
3819	6.2745	0.54545	0.	-0.91285
3820	6.4592	0.54545	0.	-0.64307
3821	6.6438	0.54545	0.	-0.46713
3822	6.8284	0.54545	0.	-0.35348
3823	7.0131	0.54545	0.	-0.27854
3824	7.1977	0.54545	0.	-0.23085
3825	7.3824	0.54545	0.	-0.20399
3826	7.567	0.54545	0.	-0.19635
3827	7.7516	0.54545	0.	-0.2133
3828	7.9363	0.54545	0.	-0.28219
3829	8.1209	0.54545	0.	-0.58708
3830	8.3056	0.54545	0.	-3.1222
3831	8.4902	0.54545	0.	-7.5151
3832	8.6748	0.54545	0.	-11.023
3833	8.8595	0.54545	0.	-13.553
3834	9.0441	0.54545	0.	-15.233
3835	9.2288	0.54545	0.	-16.205
3836	9.4134	0.54545	0.	-16.597
3837	9.598	0.54545	0.	-16.523
3838	9.7827	0.54545	0.	-16.081
3839	9.9673	0.54545	0.	-15.355
3840	10.152	0.54545	0.	-14.415
3841	10.337	0.54545	0.	-13.318
3842	10.521	0.54545	0.	-12.113
3843	10.706	0.54545	0.	-10.838
3844	10.891	0.54545	0.	-9.5231
3845	11.075	0.54545	0.	-8.1939
3846	11.26	0.54545	0.	-6.869
3847	11.444	0.54545	0.	-5.5631
3848	11.629	0.54545	0.	-4.2869
3849	11.814	0.54545	0.	-3.0483
3850	11.998	0.54545	0.	-1.8528
3851	12.183	0.54545	0.	-0.70521
3852	12.368	0.54545	0.	-3.3755e-003
3853	12.552	0.54545	0.	2.3964e-004
3854	12.737	0.54545	0.	3.4697e-004
3855	12.922	0.54545	0.	1.1991e-004
3856	13.106	0.54545	0.	-1.9309e-004
3857	13.291	0.54545	0.	-5.2454e-004
3858	13.475	0.54545	0.	-8.5115e-004
3859	13.66	0.54545	0.	-1.166e-003
3860	13.845	0.54545	0.	-1.4656e-003
3861	14.029	0.54545	0.	-1.7486e-003
3862	14.214	0.54545	0.	-2.0174e-003
3863	14.399	0.54545	0.	-2.2725e-003
3864	14.583	0.54545	0.	-2.5133e-003
3865	14.768	0.54545	0.	-2.7417e-003
3866	14.953	0.54545	0.	-2.9586e-003
3867	15.137	0.54545	0.	-3.1665e-003
3868	15.322	0.54545	0.	-3.3658e-003
3869	15.507	0.54545	0.	-3.5558e-003
3870	15.691	0.54545	0.	-3.7441e-003
3871	15.876	0.54545	0.	-3.926e-003
3872	16.06	0.54545	0.	-4.1042e-003
3873	16.245	0.54545	0.	-4.2786e-003
3874	16.43	0.54545	0.	-4.4549e-003
3875	16.614	0.54545	0.	-4.621e-003
3876	16.799	0.54545	0.	-4.7909e-003
3877	16.984	0.54545	0.	-4.9835e-003
3878	17.168	0.54545	0.	-5.1604e-003
3879	17.353	0.54545	0.	-5.3377e-003
3880	17.538	0.54545	0.	-5.5274e-003
3881	17.722	0.54545	0.	-5.719e-003
3882	17.907	0.54545	0.	-5.9205e-003
3883	18.092	0.54545	0.	-6.1307e-003
3884	18.276	0.54545	0.	-6.3483e-003
3885	18.461	0.54545	0.	-6.5751e-003
3886	18.645	0.54545	0.	-6.815e-003
3887	18.83	0.54545	0.	-7.0691e-003
3888	19.015	0.54545	0.	-7.3335e-003
3889	19.199	0.54545	0.	-7.6154e-003
3890	19.384	0.54545	0.	-7.9102e-003
3891	19.569	0.54545	0.	-8.22e-003
3892	19.753	0.54545	0.	-8.5476e-003
3893	19.938	0.54545	0.	-8.8855e-003
3894	20.123	0.54545	0.	-9.2445e-003
3895	20.307	0.54545	0.	-9.6098e-003
3896	20.492	0.54545	0.	-9.9907e-003
3897	20.676	0.54545	0.	-1.0373e-002
3898	20.861	0.54545	0.	-1.0755e-002
3899	21.046	0.54545	0.	-1.1124e-002
3900	21.23	0.54545	0.	-1.1461e-002
3901	21.415	0.54545	0.	-1.1743e-002
3902	21.6	0.54545	0.	-1.1939e-002
3903	21.784	0.54545	0.	-1.1995e-002
3904	21.969	0.54545	0.	-1.1841e-002
3905	22.154	0.54545	0.	-1.1355e-002
3906	22.338	0.54545	0.	-1.0368e-002
3907	22.523	0.54545	0.	-8.553e-003
3908	22.708	0.54545	0.	-5.587e-003
3909	22.892	0.54545	0.	-1.0909e-004
3910	23.077	0.54545	0.	7.0675e-003
3911	23.261	0.54545	0.	2.7985e-002
3912	23.446	0.54545	0.	3.124e-002
3913	23.631	0.54545	0.	0.18328
3914	23.815	0.54545	0.	-3.5442e-002
3915	5.3513	0.36364	0.	-13.072
3916	5.5359	0.36364	0.	-5.5175
3917	5.7206	0.36364	0.	-3.9785
3918	5.9052	0.36364	0.	-1.7778
3919	6.0899	0.36364	0.	-1.0279
3920	6.2745	0.36364	0.	-0.64026
3921	6.4592	0.36364	0.	-0.46527
3922	6.6438	0.36364	0.	-0.3614
3923	6.8284	0.36364	0.	-0.29185
3924	7.0131	0.36364	0.	-0.23808
3925	7.1977	0.36364	0.	-0.19443
3926	7.3824	0.36364	0.	-0.1587
3927	7.567	0.36364	0.	-0.13045
3928	7.7516	0.36364	0.	-0.11009
3929	7.9363	0.36364	0.	-9.9411e-002
3930	8.1209	0.36364	0.	-0.1044
3931	8.3056	0.36364	0.	-0.15154
3932	8.4902	0.36364	0.	-0.52309
3933	8.6748	0.36364	0.	-2.6734
3934	8.8595	0.36364	0.	-4.8159
3935	9.0441	0.36364	0.	-6.3303
3936	9.2288	0.36364	0.	-7.2856
3937	9.4134	0.36364	0.	-7.7768
3938	9.598	0.36364	0.	-7.8919
3939	9.7827	0.36364	0.	-7.7073
3940	9.9673	0.36364	0.	-7.2885
3941	10.152	0.36364	0.	-6.6902
3942	10.337	0.36364	0.	-5.9582
3943	10.521	0.36364	0.	-5.1301
3944	10.706	0.36364	0.	-4.2365
3945	10.891	0.36364	0.	-3.3021
3946	11.075	0.36364	0.	-2.3467
3947	11.26	0.36364	0.	-1.3863
3948	11.444	0.36364	0.	-0.43971
3949	11.629	0.36364	0.	6.2858e-003
3950	11.814	0.36364	0.	1.2515e-002
3951	11.998	0.36364	0.	1.2259e-002
3952	12.183	0.36364	0.	1.1107e-002
3953	12.368	0.36364	0.	9.7524e-003
3954	12.552	0.36364	0.	8.3214e-003
3955	12.737	0.36364	0.	6.904e-003
3956	12.922	0.36364	0.	5.5491e-003
3957	13.106	0.36364	0.	4.2519e-003
3958	13.291	0.36364	0.	3.0224e-003
3959	13.475	0.36364	0.	1.8571e-003
3960	13.66	0.36364	0.	7.5834e-004
3961	13.845	0.36364	0.	-2.7969e-004
3962	14.029	0.36364	0.	-1.2592e-003
3963	14.214	0.36364	0.	-2.1873e-003
3964	14.399	0.36364	0.	-3.0639e-003
3965	14.583	0.36364	0.	-3.8976e-003
3966	14.768	0.36364	0.	-4.6912e-003
3967	14.953	0.36364	0.	-5.4495e-003
3968	15.137	0.36364	0.	-6.1758e-003
3969	15.322	0.36364	0.	-6.8764e-003
3970	15.507	0.36364	0.	-7.5539e-003
3971	15.691	0.36364	0.	-8.2147e-003
3972	15.876	0.36364	0.	-8.8604e-003
3973	16.06	0.36364	0.	-9.496e-003
3974	16.245	0.36364	0.	-1.0127e-002
3975	16.43	0.36364	0.	-1.0755e-002
3976	16.614	0.36364	0.	-1.1381e-002
3977	16.799	0.36364	0.	-1.2014e-002
3978	16.984	0.36364	0.	-1.2679e-002
3979	17.168	0.36364	0.	-1.334e-002
3980	17.353	0.36364	0.	-1.4016e-002
3981	17.538	0.36364	0.	-1.4725e-002
3982	17.722	0.36364	0.	-1.5463e-002
3983	17.907	0.36364	0.	-1.6232e-002
3984	18.092	0.36364	0.	-1.7043e-002
3985	18.276	0.36364	0.	-1.7898e-002
3986	18.461	0.36364	0.	-1.8806e-002
3987	18.645	0.36364	0.	-1.9771e-002
3988	18.83	0.36364	0.	-2.0799e-002
3989	19.015	0.36364	0.	-2.1898e-002
3990	19.199	0.36364	0.	-2.3079e-002
3991	19.384	0.36364	0.	-2.435e-002
3992	19.569	0.36364	0.	-2.5714e-002
3993	19.753	0.36364	0.	-2.7184e-002
3994	19.938	0.36364	0.	-2.8783e-002
3995	20.123	0.36364	0.	-3.0503e-002
3996	20.307	0.36364	0.	-3.2373e-002
3997	20.492	0.36364	0.	-3.44e-002
3998	20.676	0.36364	0.	-3.6603e-002
3999	20.861	0.36364	0.	-3.8997e-002
4000	21.046	0.36364	0.	-4.1605e-002
4001	21.23	0.36364	0.	-4.4441e-002
4002	21.415	0.36364	0.	-4.7533e-002
4003	21.6	0.36364	0.	-5.0903e-002
4004	21.784	0.36364	0.	-5.4561e-002
4005	21.969	0.36364	0.	-5.8546e-002
4006	22.154	0.36364	0.	-6.285e-002
4007	22.338	0.36364	0.	-6.7477e-002
4008	22.523	0.36364	0.	-7.2337e-002
4009	22.708	0.36364	0.	-7.7413e-002
4010	22.892	0.36364	0.	-8.1865e-002
4011	23.077	0.36364	0.	-8.6943e-002
4012	23.261	0.36364	0.	-8.3119e-002
4013	23.446	0.36364	0.	-9.6467e-002
4014	23.631	0.36364	0.	3.7677e-003
4015	23.815	0.36364	0.	-0.28788
4016	5.3513	0.18182	0.	-26.478
4017	5.5359	0.18182	0.	-8.1741
4018	5.7206	0.18182	0.	-3.7849
4019	5.9052	0.18182	0.	-1.0227
4020	6.0899	0.18182	0.	-0.17158
4021	6.2745	0.18182	0.	0.16383
4022	6.4592	0.18182	0.	0.22591
4023	6.6438	0.18182	0.	0.2027
4024	6.8284	0.18182	0.	0.15446
4025	7.0131	0.18182	0.	0.10928
4026	7.1977	0.18182	0.	7.4517e-002
4027	7.3824	0.18182	0.	5.0462e-002
4028	7.567	0.18182	0.	3.4591e-002
4029	7.7516	0.18182	0.	2.3869e-002
4030	7.9363	0.18182	0.	1.5422e-002
4031	8.1209	0.18182	0.	6.559e-003
4032	8.3056	0.18182	0.	-5.5665e-003
4033	8.4902	0.18182	0.	-2.4738e-002
4034	8.6748	0.18182	0.	-5.702e-002
4035	8.8595	0.18182	0.	-0.11204
4036	9.0441	0.18182	0.	-0.19846
4037	9.2288	0.18182	0.	-0.30037
4038	9.4134	0.18182	0.	-0.36615
4039	9.598	0.18182	0.	-0.36182
4040	9.7827	0.18182	0.	-0.3026
4041	9.9673	0.18182	0.	-0.22698
4042	10.152	0.18182	0.	-0.16258
4043	10.337	0.18182	0.	-0.11631
4044	10.521	0.18182	0.	-8.4791e-002
4045	10.706	0.18182	0.	-6.3317e-002
4046	10.891	0.18182	0.	-4.8393e-002
4047	11.075	0.18182	0.	-3.7761e-002
4048	11.26	0.18182	0.	-3.0002e-002
4049	11.444	0.18182	0.	-2.4213e-002
4050	11.629	0.18182	0.	-1.9812e-002
4051	11.814	0.18182	0.	-1.6404e-002
4052	11.998	0.18182	0.	-1.3738e-002
4053	12.183	0.18182	0.	-1.161e-002
4054	12.368	0.18182	0.	-9.8661e-003
4055	12.552	0.18182	0.	-8.4671e-003
4056	12.737	0.18182	0.	-7.3211e-003
4057	12.922	0.18182	0.	-6.3541e-003
4058	13.106	0.18182	0.	-5.5438e-003
4059	13.291	0.18182	0.	-4.8549e-003
4060	13.475	0.18182	0.	-4.2652e-003
4061	13.66	0.18182	0.	-3.7562e-003
4062	13.845	0.18182	0.	-3.3118e-003
4063	14.029	0.18182	0.	-2.9228e-003
4064	14.214	0.18182	0.	-2.5785e-003
4065	14.399	0.18182	0.	-2.2731e-003
4066	14.583	0.18182	0.	-1.9985e-003
4067	14.768	0.18182	0.	-1.7515e-003
4068	14.953	0.18182	0.	-1.5253e-003
4069	15.137	0.18182	0.	-1.32e-003
4070	15.322	0.18182	0.	-1.13e-003
4071	15.507	0.18182	0.	-9.5666e-004
4072	15.691	0.18182	0.	-7.9357e-004
4073	15.876	0.18182	0.	-6.4166e-004
4074	16.06	0.18182	0.	-5.0151e-004
4075	16.245	0.18182	0.	-3.6702e-004
4076	16.43	0.18182	0.	-2.4489e-004
4077	16.614	0.18182	0.	-1.1909e-004
4078	16.799	0.18182	0.	-6.5423e-006
4079	16.984	0.18182	0.	8.4232e-005
4080	17.168	0.18182	0.	1.8292e-004
4081	17.353	0.18182	0.	2.8027e-004
4082	17.538	0.18182	0.	3.6353e-004
4083	17.722	0.18182	0.	4.3752e-004
4084	17.907	0.18182	0.	5.0355e-004
4085	18.092	0.18182	0.	5.5789e-004
4086	18.276	0.18182	0.	5.9867e-004
4087	18.461	0.18182	0.	6.2686e-004
4088	18.645	0.18182	0.	6.3552e-004
4089	18.83	0.18182	0.	6.2189e-004
4090	19.015	0.18182	0.	5.8328e-004
4091	19.199	0.18182	0.	5.1375e-004
4092	19.384	0.18182	0.	4.0424e-004
4093	19.569	0.18182	0.	2.5131e-004
4094	19.753	0.18182	0.	4.072e-005
4095	19.938	0.18182	0.	-2.3604e-004
4096	20.123	0.18182	0.	-5.9594e-004
4097	20.307	0.18182	0.	-1.0509e-003
4098	20.492	0.18182	0.	-1.6251e-003
4099	20.676	0.18182	0.	-2.3474e-003
4100	20.861	0.18182	0.	-3.2407e-003
4101	21.046	0.18182	0.	-4.3513e-003
4102	21.23	0.18182	0.	-5.7224e-003
4103	21.415	0.18182	0.	-7.4279e-003
4104	21.6	0.18182	0.	-9.5395e-003
4105	21.784	0.18182	0.	-1.2142e-002
4106	21.969	0.18182	0.	-1.5392e-002
4107	22.154	0.18182	0.	-1.9455e-002
4108	22.338	0.18182	0.	-2.4568e-002
4109	22.523	0.18182	0.	-3.1043e-002
4110	22.708	0.18182	0.	-3.9437e-002
4111	22.892	0.18182	0.	-5.0015e-002
4112	23.077	0.18182	0.	-6.5295e-002
4113	23.261	0.18182	0.	-8.0878e-002
4114	23.446	0.18182	0.	-0.12101
4115	23.631	0.18182	0.	-0.11038
4116	23.815	0.18182	0.	-0.50914
4117	23.815	0.18182	0.1	0.50914
4118	23.631	0.18182	0.1	0.11038
4119	23.446	0.18182	0.1	0.12101
4120	23.261	0.18182	0.1	8.0879e-002
4121	23.077	0.18182	0.1	6.5295e-002
4122	22.892	0.18182	0.1	5.0014e-002
4123	22.708	0.18182	0.1	3.9438e-002
4124	22.523	0.18182	0.1	3.1043e-002
4125	22.338	0.18182	0.1	2.4568e-002
4126	22.154	0.18182	0.1	1.9455e-002
4127	21.969	0.18182	0.1	1.5393e-002
4128	21.784	0.18182	0.1	1.2142e-002
4129	21.6	0.18182	0.1	9.5392e-003
4130	21.415	0.18182	0.1	7.4289e-003
4131	21.23	0.18182	0.1	5.7238e-003
4132	21.046	0.18182	0.1	4.3507e-003
4133	20.861	0.18182	0.1	3.2405e-003
4134	20.676	0.18182	0.1	2.3467e-003
4135	20.492	0.18182	0.1	1.626e-003
4136	20.307	0.18182	0.1	1.0518e-003
4137	20.123	0.18182	0.1	5.9433e-004
4138	19.938	0.18182	0.1	2.3587e-004
4139	19.753	0.18182	0.1	-4.0421e-005
4140	19.569	0.18182	0.1	-2.5121e-004
4141	19.384	0.18182	0.1	-4.0401e-004
4142	19.199	0.18182	0.1	-5.1376e-004
4143	19.015	0.18182	0.1	-5.8407e-004
4144	18.83	0.18182	0.1	-6.2275e-004
4145	18.645	0.18182	0.1	-6.3538e-004
4146	18.461	0.18182	0.1	-6.272e-004
4147	18.276	0.18182	0.1	-6.0022e-004
4148	18.092	0.18182	0.1	-5.5815e-004
4149	17.907	0.18182	0.1	-5.0343e-004
4150	17.722	0.18182	0.1	-4.3741e-004
4151	17.538	0.18182	0.1	-3.633e-004
4152	17.353	0.18182	0.1	-2.8097e-004
4153	17.168	0.18182	0.1	-1.8363e-004
4154	16.984	0.18182	0.1	-8.406e-005
4155	16.799	0.18182	0.1	5.2349e-006
4156	16.614	0.18182	0.1	1.1829e-004
4157	16.43	0.18182	0.1	2.4419e-004
4158	16.245	0.18182	0.1	3.669e-004
4159	16.06	0.18182	0.1	5.009e-004
4160	15.876	0.18182	0.1	6.4232e-004
4161	15.691	0.18182	0.1	7.9335e-004
4162	15.507	0.18182	0.1	9.5639e-004
4163	15.322	0.18182	0.1	1.1308e-003
4164	15.137	0.18182	0.1	1.32e-003
4165	14.953	0.18182	0.1	1.5253e-003
4166	14.768	0.18182	0.1	1.751e-003
4167	14.583	0.18182	0.1	1.9988e-003
4168	14.399	0.18182	0.1	2.2726e-003
4169	14.214	0.18182	0.1	2.5789e-003
4170	14.029	0.18182	0.1	2.9227e-003
4171	13.845	0.18182	0.1	3.3119e-003
4172	13.66	0.18182	0.1	3.7553e-003
4173	13.475	0.18182	0.1	4.2647e-003
4174	13.291	0.18182	0.1	4.8549e-003
4175	13.106	0.18182	0.1	5.5444e-003
4176	12.922	0.18182	0.1	6.3541e-003
4177	12.737	0.18182	0.1	7.3212e-003
4178	12.552	0.18182	0.1	8.4667e-003
4179	12.368	0.18182	0.1	9.8662e-003
4180	12.183	0.18182	0.1	1.161e-002
4181	11.998	0.18182	0.1	1.3738e-002
4182	11.814	0.18182	0.1	1.6404e-002
4183	11.629	0.18182	0.1	1.9812e-002
4184	11.444	0.18182	0.1	2.4213e-002
4185	11.26	0.18182	0.1	3.0001e-002
4186	11.075	0.18182	0.1	3.7761e-002
4187	10.891	0.18182	0.1	4.8393e-002
4188	10.706	0.18182	0.1	6.3318e-002
4189	10.521	0.18182	0.1	8.4791e-002
4190	10.337	0.18182	0.1	0.11631
4191	10.152	0.18182	0.1	0.16258
4192	9.9673	0.18182	0.1	0.22698
4193	9.7827	0.18182	0.1	0.3026
4194	9.598	0.18182	0.1	0.36182
4195	9.4134	0.18182	0.1	0.36615
4196	9.2288	0.18182	0.1	0.30037
4197	9.0441	0.18182	0.1	0.19846
4198	8.8595	0.18182	0.1	0.11204
4199	8.6748	0.18182	0.1	5.702e-002
4200	8.4902	0.18182	0.1	2.4738e-002
4201	8.3056	0.18182	0.1	5.5665e-003
4202	8.1209	0.18182	0.1	-6.5589e-003
4203	7.9363	0.18182	0.1	-1.5422e-002
4204	7.7516	0.18182	0.1	-2.3869e-002
4205	7.567	0.18182	0.1	-3.4591e-002
4206	7.3824	0.18182	0.1	-5.0462e-002
4207	7.1977	0.18182	0.1	-7.4517e-002
4208	7.0131	0.18182	0.1	-0.10928
4209	6.8284	0.18182	0.1	-0.15446
4210	6.6438	0.18182	0.1	-0.2027
4211	6.4592	0.18182	0.1	-0.22591
4212	6.2745	0.18182	0.1	-0.16383
4213	6.0899	0.18182	0.1	0.17158
4214	5.9052	0.18182	0.1	1.0227
4215	5.7206	0.18182	0.1	3.7849
4216	5.5359	0.18182	0.1	8.1741
4217	5.3513	0.18182	0.1	26.478
4218	23.815	0.36364	0.1	0.28788
4219	23.631	0.36364	0.1	-3.7721e-003
4220	23.446	0.36364	0.1	9.6468e-002
4221	23.261	0.36364	0.1	8.3118e-002
4222	23.077	0.36364	0.1	8.6941e-002
4223	22.892	0.36364	0.1	8.1865e-002
4224	22.708	0.36364	0.1	7.7415e-002
4225	22.523	0.36364	0.1	7.2336e-002
4226	22.338	0.36364	0.1	6.7475e-002
4227	22.154	0.36364	0.1	6.2849e-002
4228	21.969	0.36364	0.1	5.8545e-002
4229	21.784	0.36364	0.1	5.4564e-002
4230	21.6	0.36364	0.1	5.0904e-002
4231	21.415	0.36364	0.1	4.7535e-002
4232	21.23	0.36364	0.1	4.444e-002
4233	21.046	0.36364	0.1	4.1605e-002
4234	20.861	0.36364	0.1	3.8997e-002
4235	20.676	0.36364	0.1	3.6603e-002
4236	20.492	0.36364	0.1	3.4401e-002
4237	20.307	0.36364	0.1	3.2374e-002
4238	20.123	0.36364	0.1	3.0504e-002
4239	19.938	0.36364	0.1	2.8782e-002
4240	19.753	0.36364	0.1	2.7187e-002
4241	19.569	0.36364	0.1	2.5714e-002
4242	19.384	0.36364	0.1	2.4349e-002
4243	19.199	0.36364	0.1	2.3081e-002
4244	19.015	0.36364	0.1	2.19e-002
4245	18.83	0.36364	0.1	2.0801e-002
4246	18.645	0.36364	0.1	1.977e-002
4247	18.461	0.36364	0.1	1.8806e-002
4248	18.276	0.36364	0.1	1.7899e-002
4249	18.092	0.36364	0.1	1.7044e-002
4250	17.907	0.36364	0.1	1.6232e-002
4251	17.722	0.36364	0.1	1.5463e-002
4252	17.538	0.36364	0.1	1.4726e-002
4253	17.353	0.36364	0.1	1.4016e-002
4254	17.168	0.36364	0.1	1.334e-002
4255	16.984	0.36364	0.1	1.2678e-002
4256	16.799	0.36364	0.1	1.2015e-002
4257	16.614	0.36364	0.1	1.1381e-002
4258	16.43	0.36364	0.1	1.0755e-002
4259	16.245	0.36364	0.1	1.0127e-002
4260	16.06	0.36364	0.1	9.4965e-003
4261	15.876	0.36364	0.1	8.8601e-003
4262	15.691	0.36364	0.1	8.2147e-003
4263	15.507	0.36364	0.1	7.5548e-003
4264	15.322	0.36364	0.1	6.8773e-003
4265	15.137	0.36364	0.1	6.1761e-003
4266	14.953	0.36364	0.1	5.4492e-003
4267	14.768	0.36364	0.1	4.6922e-003
4268	14.583	0.36364	0.1	3.898e-003
4269	14.399	0.36364	0.1	3.064e-003
4270	14.214	0.36364	0.1	2.1872e-003
4271	14.029	0.36364	0.1	1.2598e-003
4272	13.845	0.36364	0.1	2.8017e-004
4273	13.66	0.36364	0.1	-7.574e-004
4274	13.475	0.36364	0.1	-1.8575e-003
4275	13.291	0.36364	0.1	-3.0217e-003
4276	13.106	0.36364	0.1	-4.2515e-003
4277	12.922	0.36364	0.1	-5.548e-003
4278	12.737	0.36364	0.1	-6.9029e-003
4279	12.552	0.36364	0.1	-8.321e-003
4280	12.368	0.36364	0.1	-9.753e-003
4281	12.183	0.36364	0.1	-1.1107e-002
4282	11.998	0.36364	0.1	-1.226e-002
4283	11.814	0.36364	0.1	-1.2515e-002
4284	11.629	0.36364	0.1	-6.2861e-003
4285	11.444	0.36364	0.1	0.43972
4286	11.26	0.36364	0.1	1.3863
4287	11.075	0.36364	0.1	2.3467
4288	10.891	0.36364	0.1	3.3021
4289	10.706	0.36364	0.1	4.2365
4290	10.521	0.36364	0.1	5.1301
4291	10.337	0.36364	0.1	5.9582
4292	10.152	0.36364	0.1	6.6902
4293	9.9673	0.36364	0.1	7.2885
4294	9.7827	0.36364	0.1	7.7073
4295	9.598	0.36364	0.1	7.8919
4296	9.4134	0.36364	0.1	7.7768
4297	9.2288	0.36364	0.1	7.2856
4298	9.0441	0.36364	0.1	6.3303
4299	8.8595	0.36364	0.1	4.8159
4300	8.6748	0.36364	0.1	2.6734
4301	8.4902	0.36364	0.1	0.52308
4302	8.3056	0.36364	0.1	0.15154
4303	8.1209	0.36364	0.1	0.1044
4304	7.9363	0.36364	0.1	9.9411e-002
4305	7.7516	0.36364	0.1	0.11009
4306	7.567	0.36364	0.1	0.13045
4307	7.3824	0.36364	0.1	0.1587
4308	7.1977	0.36364	0.1	0.19443
4309	7.0131	0.36364	0.1	0.23808
4310	6.8284	0.36364	0.1	0.29185
4311	6.6438	0.36364	0.1	0.3614
4312	6.4592	0.36364	0.1	0.46527
4313	6.2745	0.36364	0.1	0.64026
4314	6.0899	0.36364	0.1	1.0279
4315	5.9052	0.36364	0.1	1.7778
4316	5.7206	0.36364	0.1	3.9785
4317	5.5359	0.36364	0.1	5.5175
4318	5.3513	0.36364	0.1	13.072
4319	23.815	0.54545	0.1	3.5442e-002
4320	23.631	0.54545	0.1	-0.18328
4321	23.446	0.54545	0.1	-3.1239e-002
4322	23.261	0.54545	0.1	-2.7986e-002
4323	23.077	0.54545	0.1	-7.0696e-003
4324	22.892	0.54545	0.1	1.1034e-004
4325	22.708	0.54545	0.1	5.5862e-003
4326	22.523	0.54545	0.1	8.5532e-003
4327	22.338	0.54545	0.1	1.0366e-002
4328	22.154	0.54545	0.1	1.1355e-002
4329	21.969	0.54545	0.1	1.1839e-002
4330	21.784	0.54545	0.1	1.1994e-002
4331	21.6	0.54545	0.1	1.1938e-002
4332	21.415	0.54545	0.1	1.1744e-002
4333	21.23	0.54545	0.1	1.1461e-002
4334	21.046	0.54545	0.1	1.1123e-002
4335	20.861	0.54545	0.1	1.0753e-002
4336	20.676	0.54545	0.1	1.0373e-002
4337	20.492	0.54545	0.1	9.9896e-003
4338	20.307	0.54545	0.1	9.6114e-003
4339	20.123	0.54545	0.1	9.2425e-003
4340	19.938	0.54545	0.1	8.8873e-003
4341	19.753	0.54545	0.1	8.5465e-003
4342	19.569	0.54545	0.1	8.2203e-003
4343	19.384	0.54545	0.1	7.9105e-003
4344	19.199	0.54545	0.1	7.6138e-003
4345	19.015	0.54545	0.1	7.3351e-003
4346	18.83	0.54545	0.1	7.0687e-003
4347	18.645	0.54545	0.1	6.8161e-003
4348	18.461	0.54545	0.1	6.5747e-003
4349	18.276	0.54545	0.1	6.3494e-003
4350	18.092	0.54545	0.1	6.13e-003
4351	17.907	0.54545	0.1	5.9209e-003
4352	17.722	0.54545	0.1	5.7191e-003
4353	17.538	0.54545	0.1	5.5268e-003
4354	17.353	0.54545	0.1	5.337e-003
4355	17.168	0.54545	0.1	5.1614e-003
4356	16.984	0.54545	0.1	4.984e-003
4357	16.799	0.54545	0.1	4.7925e-003
4358	16.614	0.54545	0.1	4.6214e-003
4359	16.43	0.54545	0.1	4.4557e-003
4360	16.245	0.54545	0.1	4.2791e-003
4361	16.06	0.54545	0.1	4.1034e-003
4362	15.876	0.54545	0.1	3.9257e-003
4363	15.691	0.54545	0.1	3.743e-003
4364	15.507	0.54545	0.1	3.5565e-003
4365	15.322	0.54545	0.1	3.3666e-003
4366	15.137	0.54545	0.1	3.1671e-003
4367	14.953	0.54545	0.1	2.9575e-003
4368	14.768	0.54545	0.1	2.7411e-003
4369	14.583	0.54545	0.1	2.5121e-003
4370	14.399	0.54545	0.1	2.2728e-003
4371	14.214	0.54545	0.1	2.0168e-003
4372	14.029	0.54545	0.1	1.7487e-003
4373	13.845	0.54545	0.1	1.4647e-003
4374	13.66	0.54545	0.1	1.1657e-003
4375	13.475	0.54545	0.1	8.5048e-004
4376	13.291	0.54545	0.1	5.2441e-004
4377	13.106	0.54545	0.1	1.9335e-004
4378	12.922	0.54545	0.1	-1.2093e-004
4379	12.737	0.54545	0.1	-3.4735e-004
4380	12.552	0.54545	0.1	-2.3972e-004
4381	12.368	0.54545	0.1	3.3757e-003
4382	12.183	0.54545	0.1	0.7052
4383	11.998	0.54545	0.1	1.8528
4384	11.814	0.54545	0.1	3.0483
4385	11.629	0.54545	0.1	4.2869
4386	11.444	0.54545	0.1	5.5631
4387	11.26	0.54545	0.1	6.8691
4388	11.075	0.54545	0.1	8.1939
4389	10.891	0.54545	0.1	9.5231
4390	10.706	0.54545	0.1	10.838
4391	10.521	0.54545	0.1	12.113
4392	10.337	0.54545	0.1	13.318
4393	10.152	0.54545	0.1	14.415
4394	9.9673	0.54545	0.1	15.355
4395	9.7827	0.54545	0.1	16.081
4396	9.598	0.54545	0.1	16.523
4397	9.4134	0.54545	0.1	16.597
4398	9.2288	0.54545	0.1	16.205
4399	9.0441	0.54545	0.1	15.233
4400	8.8595	0.54545	0.1	13.553
4401	8.6748	0.54545	0.1	11.023
4402	8.4902	0.54545	0.1	7.5151
4403	8.3056	0.54545	0.1	3.1222
4404	8.1209	0.54545	0.1	0.58708
4405	7.9363	0.54545	0.1	0.28219
4406	7.7516	0.54545	0.1	0.21329
4407	7.567	0.54545	0.1	0.19635
4408	7.3824	0.54545	0.1	0.20399
4409	7.1977	0.54545	0.1	0.23085
4410	7.0131	0.54545	0.1	0.27854
4411	6.8284	0.54545	0.1	0.35348
4412	6.6438	0.54545	0.1	0.46713
4413	6.4592	0.54545	0.1	0.64307
4414	6.2745	0.54545	0.1	0.91285
4415	6.0899	0.54545	0.1	1.383
4416	5.9052	0.54545	0.1	2.0389
4417	5.7206	0.54545	0.1	3.494
4418	5.5359	0.54545	0.1	3.0655
4419	5.3513	0.54545	0.1	9.948
4420	23.815	0.72727	0.1	-1.9293e-002
4421	23.631	0.72727	0.1	-0.22076
4422	23.446	0.72727	0.1	-6.1727e-002
4423	23.261	0.72727	0.1	-5.2926e-002
4424	23.077	0.72727	0.1	-2.8346e-002
4425	22.892	0.72727	0.1	-1.8285e-002
4426	22.708	0.72727	0.1	-1.0312e-002
4427	22.523	0.72727	0.1	-5.2931e-003
4428	22.338	0.72727	0.1	-1.7538e-003
4429	22.154	0.72727	0.1	6.8344e-004
4430	21.969	0.72727	0.1	2.3932e-003
4431	21.784	0.72727	0.1	3.5799e-003
4432	21.6	0.72727	0.1	4.4087e-003
4433	21.415	0.72727	0.1	4.9675e-003
4434	21.23	0.72727	0.1	5.3375e-003
4435	21.046	0.72727	0.1	5.5692e-003
4436	20.861	0.72727	0.1	5.699e-003
4437	20.676	0.72727	0.1	5.753e-003
4438	20.492	0.72727	0.1	5.7557e-003
4439	20.307	0.72727	0.1	5.7181e-003
4440	20.123	0.72727	0.1	5.6471e-003
4441	19.938	0.72727	0.1	5.563e-003
4442	19.753	0.72727	0.1	5.4623e-003
4443	19.569	0.72727	0.1	5.3512e-003
4444	19.384	0.72727	0.1	5.2361e-003
4445	19.199	0.72727	0.1	5.116e-003
4446	19.015	0.72727	0.1	4.9958e-003
4447	18.83	0.72727	0.1	4.8762e-003
4448	18.645	0.72727	0.1	4.7568e-003
4449	18.461	0.72727	0.1	4.6372e-003
4450	18.276	0.72727	0.1	4.5201e-003
4451	18.092	0.72727	0.1	4.4064e-003
4452	17.907	0.72727	0.1	4.2931e-003
4453	17.722	0.72727	0.1	4.1845e-003
4454	17.538	0.72727	0.1	4.0726e-003
4455	17.353	0.72727	0.1	3.9628e-003
4456	17.168	0.72727	0.1	3.8614e-003
4457	16.984	0.72727	0.1	3.7576e-003
4458	16.799	0.72727	0.1	3.6355e-003
4459	16.614	0.72727	0.1	3.5291e-003
4460	16.43	0.72727	0.1	3.4295e-003
4461	16.245	0.72727	0.1	3.3178e-003
4462	16.06	0.72727	0.1	3.21e-003
4463	15.876	0.72727	0.1	3.098e-003
4464	15.691	0.72727	0.1	2.985e-003
4465	15.507	0.72727	0.1	2.8711e-003
4466	15.322	0.72727	0.1	2.754e-003
4467	15.137	0.72727	0.1	2.6366e-003
4468	14.953	0.72727	0.1	2.5185e-003
4469	14.768	0.72727	0.1	2.4033e-003
4470	14.583	0.72727	0.1	2.289e-003
4471	14.399	0.72727	0.1	2.1842e-003
4472	14.214	0.72727	0.1	2.0942e-003
4473	14.029	0.72727	0.1	2.032e-003
4474	13.845	0.72727	0.1	2.0199e-003
4475	13.66	0.72727	0.1	2.1018e-003
4476	13.475	0.72727	0.1	2.3713e-003
4477	13.291	0.72727	0.1	3.0726e-003
4478	13.106	0.72727	0.1	5.0761e-003
4479	12.922	0.72727	0.1	1.5087e-002
4480	12.737	0.72727	0.1	0.53366
4481	12.552	0.72727	0.1	1.7606
4482	12.368	0.72727	0.1	3.0657
4483	12.183	0.72727	0.1	4.4397
4484	11.998	0.72727	0.1	5.8817
4485	11.814	0.72727	0.1	7.3907
4486	11.629	0.72727	0.1	8.9636
4487	11.444	0.72727	0.1	10.596
4488	11.26	0.72727	0.1	12.279
4489	11.075	0.72727	0.1	14.004
4490	10.891	0.72727	0.1	15.754
4491	10.706	0.72727	0.1	17.51
4492	10.521	0.72727	0.1	19.246
4493	10.337	0.72727	0.1	20.928
4494	10.152	0.72727	0.1	22.515
4495	9.9673	0.72727	0.1	23.955
4496	9.7827	0.72727	0.1	25.185
4497	9.598	0.72727	0.1	26.126
4498	9.4134	0.72727	0.1	26.689
4499	9.2288	0.72727	0.1	26.763
4500	9.0441	0.72727	0.1	26.222
4501	8.8595	0.72727	0.1	24.923
4502	8.6748	0.72727	0.1	22.702
4503	8.4902	0.72727	0.1	19.387
4504	8.3056	0.72727	0.1	14.809
4505	8.1209	0.72727	0.1	8.9077
4506	7.9363	0.72727	0.1	2.8538
4507	7.7516	0.72727	0.1	0.94542
4508	7.567	0.72727	0.1	0.63226
4509	7.3824	0.72727	0.1	0.55615
4510	7.1977	0.72727	0.1	0.56004
4511	7.0131	0.72727	0.1	0.61262
4512	6.8284	0.72727	0.1	0.70936
4513	6.6438	0.72727	0.1	0.85526
4514	6.4592	0.72727	0.1	1.065
4515	6.2745	0.72727	0.1	1.3476
4516	6.0899	0.72727	0.1	1.7557
4517	5.9052	0.72727	0.1	2.1564
4518	5.7206	0.72727	0.1	3.1015
4519	5.5359	0.72727	0.1	1.607
4520	5.3513	0.72727	0.1	8.8491
4521	23.815	0.90909	0.1	-7.1649e-002
4522	23.631	0.90909	0.1	-0.25569
4523	23.446	0.90909	0.1	-8.8409e-002
4524	23.261	0.90909	0.1	-7.6675e-002
4525	23.077	0.90909	0.1	-4.9544e-002
4526	22.892	0.90909	0.1	-3.7404e-002
4527	22.708	0.90909	0.1	-2.7619e-002
4528	22.523	0.90909	0.1	-2.101e-002
4529	22.338	0.90909	0.1	-1.6069e-002
4530	22.154	0.90909	0.1	-1.2392e-002
4531	21.969	0.90909	0.1	-9.5955e-003
4532	21.784	0.90909	0.1	-7.4371e-003
4533	21.6	0.90909	0.1	-5.747e-003
4534	21.415	0.90909	0.1	-4.4203e-003
4535	21.23	0.90909	0.1	-3.3694e-003
4536	21.046	0.90909	0.1	-2.5241e-003
4537	20.861	0.90909	0.1	-1.84e-003
4538	20.676	0.90909	0.1	-1.2848e-003
4539	20.492	0.90909	0.1	-8.3107e-004
4540	20.307	0.90909	0.1	-4.55e-004
4541	20.123	0.90909	0.1	-1.4588e-004
4542	19.938	0.90909	0.1	1.1207e-004
4543	19.753	0.90909	0.1	3.2797e-004
4544	19.569	0.90909	0.1	5.0919e-004
4545	19.384	0.90909	0.1	6.5974e-004
4546	19.199	0.90909	0.1	7.9011e-004
4547	19.015	0.90909	0.1	9.0055e-004
4548	18.83	0.90909	0.1	9.9144e-004
4549	18.645	0.90909	0.1	1.0726e-003
4550	18.461	0.90909	0.1	1.1396e-003
4551	18.276	0.90909	0.1	1.1958e-003
4552	18.092	0.90909	0.1	1.2452e-003
4553	17.907	0.90909	0.1	1.288e-003
4554	17.722	0.90909	0.1	1.3219e-003
4555	17.538	0.90909	0.1	1.3537e-003
4556	17.353	0.90909	0.1	1.3773e-003
4557	17.168	0.90909	0.1	1.4058e-003
4558	16.984	0.90909	0.1	1.4281e-003
4559	16.799	0.90909	0.1	1.4292e-003
4560	16.614	0.90909	0.1	1.4465e-003
4561	16.43	0.90909	0.1	1.4623e-003
4562	16.245	0.90909	0.1	1.4747e-003
4563	16.06	0.90909	0.1	1.4878e-003
4564	15.876	0.90909	0.1	1.5013e-003
4565	15.691	0.90909	0.1	1.5208e-003
4566	15.507	0.90909	0.1	1.542e-003
4567	15.322	0.90909	0.1	1.5711e-003
4568	15.137	0.90909	0.1	1.6135e-003
4569	14.953	0.90909	0.1	1.6725e-003
4570	14.768	0.90909	0.1	1.7569e-003
4571	14.583	0.90909	0.1	1.8812e-003
4572	14.399	0.90909	0.1	2.0663e-003
4573	14.214	0.90909	0.1	2.351e-003
4574	14.029	0.90909	0.1	2.8081e-003
4575	13.845	0.90909	0.1	3.5949e-003
4576	13.66	0.90909	0.1	5.1263e-003
4577	13.475	0.90909	0.1	8.9203e-003
4578	13.291	0.90909	0.1	2.8007e-002
4579	13.106	0.90909	0.1	0.67731
4580	12.922	0.90909	0.1	1.9786
4581	12.737	0.90909	0.1	3.3715
4582	12.552	0.90909	0.1	4.8479
4583	12.368	0.90909	0.1	6.41
4584	12.183	0.90909	0.1	8.0603
4585	11.998	0.90909	0.1	9.8003
4586	11.814	0.90909	0.1	11.631
4587	11.629	0.90909	0.1	13.55
4588	11.444	0.90909	0.1	15.556
4589	11.26	0.90909	0.1	17.642
4590	11.075	0.90909	0.1	19.799
4591	10.891	0.90909	0.1	22.014
4592	10.706	0.90909	0.1	24.269
4593	10.521	0.90909	0.1	26.539
4594	10.337	0.90909	0.1	28.793
4595	10.152	0.90909	0.1	30.99
4596	9.9673	0.90909	0.1	33.08
4597	9.7827	0.90909	0.1	34.999
4598	9.598	0.90909	0.1	36.672
4599	9.4134	0.90909	0.1	38.007
4600	9.2288	0.90909	0.1	38.895
4601	9.0441	0.90909	0.1	39.207
4602	8.8595	0.90909	0.1	38.796
4603	8.6748	0.90909	0.1	37.496
4604	8.4902	0.90909	0.1	35.119
4605	8.3056	0.90909	0.1	31.465
4606	8.1209	0.90909	0.1	26.332
4607	7.9363	0.90909	0.1	19.563
4608	7.7516	0.90909	0.1	11.309
4609	7.567	0.90909	0.1	4.0874
4610	7.3824	0.90909	0.1	1.8804
4611	7.1977	0.90909	0.1	1.3898
4612	7.0131	0.90909	0.1	1.2646
4613	6.8284	0.90909	0.1	1.2797
4614	6.6438	0.90909	0.1	1.379
4615	6.4592	0.90909	0.1	1.5494
4616	6.2745	0.90909	0.1	1.7749
4617	6.0899	0.90909	0.1	2.0966
4618	5.9052	0.90909	0.1	2.3157
4619	5.7206	0.90909	0.1	3.0446
4620	5.5359	0.90909	0.1	1.0753
4621	5.3513	0.90909	0.1	8.8415
4622	23.815	1.0909	0.1	-0.10447
4623	23.631	1.0909	0.1	-0.27603
4624	23.446	1.0909	0.1	-0.10374
4625	23.261	1.0909	0.1	-9.0557e-002
4626	23.077	1.0909	0.1	-6.2107e-002
4627	22.892	1.0909	0.1	-4.9005e-002
4628	22.708	1.0909	0.1	-3.8349e-002
4629	22.523	1.0909	0.1	-3.0953e-002
4630	22.338	1.0909	0.1	-2.5282e-002
4631	22.154	1.0909	0.1	-2.0945e-002
4632	21.969	1.0909	0.1	-1.7543e-002
4633	21.784	1.0909	0.1	-1.4838e-002
4634	21.6	1.0909	0.1	-1.2648e-002
4635	21.415	1.0909	0.1	-1.0869e-002
4636	21.23	1.0909	0.1	-9.4065e-003
4637	21.046	1.0909	0.1	-8.1848e-003
4638	20.861	1.0909	0.1	-7.1598e-003
4639	20.676	1.0909	0.1	-6.2911e-003
4640	20.492	1.0909	0.1	-5.5521e-003
4641	20.307	1.0909	0.1	-4.9167e-003
4642	20.123	1.0909	0.1	-4.3671e-003
4643	19.938	1.0909	0.1	-3.8856e-003
4644	19.753	1.0909	0.1	-3.4663e-003
4645	19.569	1.0909	0.1	-3.096e-003
4646	19.384	1.0909	0.1	-2.7672e-003
4647	19.199	1.0909	0.1	-2.4746e-003
4648	19.015	1.0909	0.1	-2.2125e-003
4649	18.83	1.0909	0.1	-1.9788e-003
4650	18.645	1.0909	0.1	-1.7661e-003
4651	18.461	1.0909	0.1	-1.5737e-003
4652	18.276	1.0909	0.1	-1.3968e-003
4653	18.092	1.0909	0.1	-1.2368e-003
4654	17.907	1.0909	0.1	-1.0891e-003
4655	17.722	1.0909	0.1	-9.5279e-004
4656	17.538	1.0909	0.1	-8.2599e-004
4657	17.353	1.0909	0.1	-7.0851e-004
4658	17.168	1.0909	0.1	-5.9053e-004
4659	16.984	1.0909	0.1	-4.826e-004
4660	16.799	1.0909	0.1	-3.9532e-004
4661	16.614	1.0909	0.1	-2.9259e-004
4662	16.43	1.0909	0.1	-1.8852e-004
4663	16.245	1.0909	0.1	-9.1918e-005
4664	16.06	1.0909	0.1	9.7425e-006
4665	15.876	1.0909	0.1	1.1515e-004
4666	15.691	1.0909	0.1	2.2962e-004
4667	15.507	1.0909	0.1	3.5687e-004
4668	15.322	1.0909	0.1	5.0323e-004
4669	15.137	1.0909	0.1	6.7809e-004
4670	14.953	1.0909	0.1	8.9315e-004
4671	14.768	1.0909	0.1	1.172e-003
4672	14.583	1.0909	0.1	1.5497e-003
4673	14.399	1.0909	0.1	2.0931e-003
4674	14.214	1.0909	0.1	2.9359e-003
4675	14.029	1.0909	0.1	4.4047e-003
4676	13.845	1.0909	0.1	7.5156e-003
4677	13.66	1.0909	0.1	1.7868e-002
4678	13.475	1.0909	0.1	0.26796
4679	13.291	1.0909	0.1	1.5462
4680	13.106	1.0909	0.1	2.9678
4681	12.922	1.0909	0.1	4.4822
4682	12.737	1.0909	0.1	6.092
4683	12.552	1.0909	0.1	7.8021
4684	12.368	1.0909	0.1	9.6176
4685	12.183	1.0909	0.1	11.543
4686	11.998	1.0909	0.1	13.582
4687	11.814	1.0909	0.1	15.739
4688	11.629	1.0909	0.1	18.013
4689	11.444	1.0909	0.1	20.405
4690	11.26	1.0909	0.1	22.913
4691	11.075	1.0909	0.1	25.53
4692	10.891	1.0909	0.1	28.247
4693	10.706	1.0909	0.1	31.051
4694	10.521	1.0909	0.1	33.92
4695	10.337	1.0909	0.1	36.829
4696	10.152	1.0909	0.1	39.742
4697	9.9673	1.0909	0.1	42.615
4698	9.7827	1.0909	0.1	45.393
4699	9.598	1.0909	0.1	48.006
4700	9.4134	1.0909	0.1	50.369
4701	9.2288	1.0909	0.1	52.382
4702	9.0441	1.0909	0.1	53.926
4703	8.8595	1.0909	0.1	54.861
4704	8.6748	1.0909	0.1	55.026
4705	8.4902	1.0909	0.1	54.237
4706	8.3056	1.0909	0.1	52.289
4707	8.1209	1.0909	0.1	48.955
4708	7.9363	1.0909	0.1	43.986
4709	7.7516	1.0909	0.1	37.126
4710	7.567	1.0909	0.1	28.169
4711	7.3824	1.0909	0.1	17.327
4712	7.1977	1.0909	0.1	7.5518
4713	7.0131	1.0909	0.1	3.7598
4714	6.8284	1.0909	0.1	2.7268
4715	6.6438	1.0909	0.1	2.3817
4716	6.4592	1.0909	0.1	2.2896
4717	6.2745	1.0909	0.1	2.326
4718	6.0899	1.0909	0.1	2.5134
4719	5.9052	1.0909	0.1	2.571
4720	5.7206	1.0909	0.1	3.5316
4721	5.5359	1.0909	0.1	0.651
4722	5.3513	1.0909	0.1	11.136
4723	23.815	1.2727	0.1	-0.13015
4724	23.631	1.2727	0.1	-0.29129
4725	23.446	1.2727	0.1	-0.11513
4726	23.261	1.2727	0.1	-0.10079
4727	23.077	1.2727	0.1	-7.1439e-002
4728	22.892	1.2727	0.1	-5.771e-002
4729	22.708	1.2727	0.1	-4.6512e-002
4730	22.523	1.2727	0.1	-3.8627e-002
4731	22.338	1.2727	0.1	-3.2506e-002
4732	22.154	1.2727	0.1	-2.7741e-002
4733	21.969	1.2727	0.1	-2.3938e-002
4734	21.784	1.2727	0.1	-2.0859e-002
4735	21.6	1.2727	0.1	-1.8327e-002
4736	21.415	1.2727	0.1	-1.6229e-002
4737	21.23	1.2727	0.1	-1.447e-002
4738	21.046	1.2727	0.1	-1.2975e-002
4739	20.861	1.2727	0.1	-1.1701e-002
4740	20.676	1.2727	0.1	-1.06e-002
4741	20.492	1.2727	0.1	-9.642e-003
4742	20.307	1.2727	0.1	-8.8072e-003
4743	20.123	1.2727	0.1	-8.0705e-003
4744	19.938	1.2727	0.1	-7.419e-003
4745	19.753	1.2727	0.1	-6.8379e-003
4746	19.569	1.2727	0.1	-6.3186e-003
4747	19.384	1.2727	0.1	-5.8506e-003
4748	19.199	1.2727	0.1	-5.4279e-003
4749	19.015	1.2727	0.1	-5.0435e-003
4750	18.83	1.2727	0.1	-4.6927e-003
4751	18.645	1.2727	0.1	-4.3726e-003
4752	18.461	1.2727	0.1	-4.0783e-003
4753	18.276	1.2727	0.1	-3.8064e-003
4754	18.092	1.2727	0.1	-3.5536e-003
4755	17.907	1.2727	0.1	-3.3184e-003
4756	17.722	1.2727	0.1	-3.0985e-003
4757	17.538	1.2727	0.1	-2.8912e-003
4758	17.353	1.2727	0.1	-2.6968e-003
4759	17.168	1.2727	0.1	-2.5036e-003
4760	16.984	1.2727	0.1	-2.3222e-003
4761	16.799	1.2727	0.1	-2.1635e-003
4762	16.614	1.2727	0.1	-1.9905e-003
4763	16.43	1.2727	0.1	-1.8149e-003
4764	16.245	1.2727	0.1	-1.646e-003
4765	16.06	1.2727	0.1	-1.4702e-003
4766	15.876	1.2727	0.1	-1.2871e-003
4767	15.691	1.2727	0.1	-1.0885e-003
4768	15.507	1.2727	0.1	-8.7029e-004
4769	15.322	1.2727	0.1	-6.1965e-004
4770	15.137	1.2727	0.1	-3.2151e-004
4771	14.953	1.2727	0.1	4.9775e-005
4772	14.768	1.2727	0.1	5.3645e-004
4773	14.583	1.2727	0.1	1.2218e-003
4774	14.399	1.2727	0.1	2.2773e-003
4775	14.214	1.2727	0.1	4.1466e-003
4776	14.029	1.2727	0.1	8.3963e-003
4777	13.845	1.2727	0.1	2.7094e-002
4778	13.66	1.2727	0.1	0.63857
4779	13.475	1.2727	0.1	2.0324
4780	13.291	1.2727	0.1	3.5351
4781	13.106	1.2727	0.1	5.1369
4782	12.922	1.2727	0.1	6.8434
4783	12.737	1.2727	0.1	8.6616
4784	12.552	1.2727	0.1	10.599
4785	12.368	1.2727	0.1	12.662
4786	12.183	1.2727	0.1	14.859
4787	11.998	1.2727	0.1	17.195
4788	11.814	1.2727	0.1	19.677
4789	11.629	1.2727	0.1	22.309
4790	11.444	1.2727	0.1	25.095
4791	11.26	1.2727	0.1	28.037
4792	11.075	1.2727	0.1	31.133
4793	10.891	1.2727	0.1	34.379
4794	10.706	1.2727	0.1	37.768
4795	10.521	1.2727	0.1	41.287
4796	10.337	1.2727	0.1	44.917
4797	10.152	1.2727	0.1	48.633
4798	9.9673	1.2727	0.1	52.4
4799	9.7827	1.2727	0.1	56.174
4800	9.598	1.2727	0.1	59.898
4801	9.4134	1.2727	0.1	63.503
4802	9.2288	1.2727	0.1	66.903
4803	9.0441	1.2727	0.1	69.996
4804	8.8595	1.2727	0.1	72.658
4805	8.6748	1.2727	0.1	74.746
4806	8.4902	1.2727	0.1	76.09
4807	8.3056	1.2727	0.1	76.494
4808	8.1209	1.2727	0.1	75.729
4809	7.9363	1.2727	0.1	73.525
4810	7.7516	1.2727	0.1	69.554
4811	7.567	1.2727	0.1	63.41
4812	7.3824	1.2727	0.1	54.572
4813	7.1977	1.2727	0.1	42.419
4814	7.0131	1.2727	0.1	26.7
4815	6.8284	1.2727	0.1	11.525
4816	6.6438	1.2727	0.1	5.4942
4817	6.4592	1.2727	0.1	3.8075
4818	6.2745	1.2727	0.1	3.2081
4819	6.0899	1.2727	0.1	3.0705
4820	5.9052	1.2727	0.1	3.1923
4821	5.7206	1.2727	0.1	4.038
4822	5.5359	1.2727	0.1	1.0712
4823	5.3513	1.2727	0.1	9.4679
4824	23.815	1.4545	0.1	-0.14986
4825	23.631	1.4545	0.1	-0.30245
4826	23.446	1.4545	0.1	-0.1233
4827	23.261	1.4545	0.1	-0.10812
4828	23.077	1.4545	0.1	-7.8119e-002
4829	22.892	1.4545	0.1	-6.3977e-002
4830	22.708	1.4545	0.1	-5.2444e-002
4831	22.523	1.4545	0.1	-4.4265e-002
4832	22.338	1.4545	0.1	-3.7873e-002
4833	22.154	1.4545	0.1	-3.2852e-002
4834	21.969	1.4545	0.1	-2.8805e-002
4835	21.784	1.4545	0.1	-2.5495e-002
4836	21.6	1.4545	0.1	-2.2737e-002
4837	21.415	1.4545	0.1	-2.043e-002
4838	21.23	1.4545	0.1	-1.8472e-002
4839	21.046	1.4545	0.1	-1.6793e-002
4840	20.861	1.4545	0.1	-1.5343e-002
4841	20.676	1.4545	0.1	-1.4077e-002
4842	20.492	1.4545	0.1	-1.297e-002
4843	20.307	1.4545	0.1	-1.1992e-002
4844	20.123	1.4545	0.1	-1.1123e-002
4845	19.938	1.4545	0.1	-1.0345e-002
4846	19.753	1.4545	0.1	-9.6491e-003
4847	19.569	1.4545	0.1	-9.0195e-003
4848	19.384	1.4545	0.1	-8.4481e-003
4849	19.199	1.4545	0.1	-7.9285e-003
4850	19.015	1.4545	0.1	-7.4529e-003
4851	18.83	1.4545	0.1	-7.0182e-003
4852	18.645	1.4545	0.1	-6.6148e-003
4853	18.461	1.4545	0.1	-6.2438e-003
4854	18.276	1.4545	0.1	-5.8992e-003
4855	18.092	1.4545	0.1	-5.5766e-003
4856	17.907	1.4545	0.1	-5.2765e-003
4857	17.722	1.4545	0.1	-4.9928e-003
4858	17.538	1.4545	0.1	-4.7252e-003
4859	17.353	1.4545	0.1	-4.4732e-003
4860	17.168	1.4545	0.1	-4.2233e-003
4861	16.984	1.4545	0.1	-3.987e-003
4862	16.799	1.4545	0.1	-3.775e-003
4863	16.614	1.4545	0.1	-3.5483e-003
4864	16.43	1.4545	0.1	-3.3195e-003
4865	16.245	1.4545	0.1	-3.0957e-003
4866	16.06	1.4545	0.1	-2.8666e-003
4867	15.876	1.4545	0.1	-2.625e-003
4868	15.691	1.4545	0.1	-2.366e-003
4869	15.507	1.4545	0.1	-2.0762e-003
4870	15.322	1.4545	0.1	-1.7438e-003
4871	15.137	1.4545	0.1	-1.345e-003
4872	14.953	1.4545	0.1	-8.3541e-004
4873	14.768	1.4545	0.1	-1.3871e-004
4874	14.583	1.4545	0.1	9.0899e-004
4875	14.399	1.4545	0.1	2.7406e-003
4876	14.214	1.4545	0.1	6.9121e-003
4877	14.029	1.4545	0.1	2.6481e-002
4878	13.845	1.4545	0.1	0.72438
4879	13.66	1.4545	0.1	2.1704
4880	13.475	1.4545	0.1	3.725
4881	13.291	1.4545	0.1	5.3834
4882	13.106	1.4545	0.1	7.1525
4883	12.922	1.4545	0.1	9.0411
4884	12.737	1.4545	0.1	11.058
4885	12.552	1.4545	0.1	13.213
4886	12.368	1.4545	0.1	15.516
4887	12.183	1.4545	0.1	17.975
4888	11.998	1.4545	0.1	20.601
4889	11.814	1.4545	0.1	23.404
4890	11.629	1.4545	0.1	26.39
4891	11.444	1.4545	0.1	29.57
4892	11.26	1.4545	0.1	32.948
4893	11.075	1.4545	0.1	36.531
4894	10.891	1.4545	0.1	40.321
4895	10.706	1.4545	0.1	44.318
4896	10.521	1.4545	0.1	48.518
4897	10.337	1.4545	0.1	52.914
4898	10.152	1.4545	0.1	57.491
4899	9.9673	1.4545	0.1	62.229
4900	9.7827	1.4545	0.1	67.099
4901	9.598	1.4545	0.1	72.062
4902	9.4134	1.4545	0.1	77.067
4903	9.2288	1.4545	0.1	82.05
4904	9.0441	1.4545	0.1	86.931
4905	8.8595	1.4545	0.1	91.611
4906	8.6748	1.4545	0.1	95.971
4907	8.4902	1.4545	0.1	99.866
4908	8.3056	1.4545	0.1	103.12
4909	8.1209	1.4545	0.1	105.52
4910	7.9363	1.4545	0.1	106.79
4911	7.7516	1.4545	0.1	106.58
4912	7.567	1.4545	0.1	104.44
4913	7.3824	1.4545	0.1	99.687
4914	7.1977	1.4545	0.1	91.354
4915	7.0131	1.4545	0.1	77.966
4916	6.8284	1.4545	0.1	57.467
4917	6.6438	1.4545	0.1	29.176
4918	6.4592	1.4545	0.1	9.5163
4919	6.2745	1.4545	0.1	5.1193
4920	6.0899	1.4545	0.1	4.1051
4921	5.9052	1.4545	0.1	4.0821
4922	5.7206	1.4545	0.1	4.5663
4923	5.5359	1.4545	0.1	2.1879
4924	5.3513	1.4545	0.1	29.854
4925	23.815	1.6364	0.1	-0.16556
4926	23.631	1.6364	0.1	-0.311
4927	23.446	1.6364	0.1	-0.12949
4928	23.261	1.6364	0.1	-0.11363
4929	23.077	1.6364	0.1	-8.3129e-002
4930	22.892	1.6364	0.1	-6.8678e-002
4931	22.708	1.6364	0.1	-5.6911e-002
4932	22.523	1.6364	0.1	-4.8547e-002
4933	22.338	1.6364	0.1	-4.1981e-002
4934	22.154	1.6364	0.1	-3.6799e-002
4935	21.969	1.6364	0.1	-3.2597e-002
4936	21.784	1.6364	0.1	-2.9132e-002
4937	21.6	1.6364	0.1	-2.6231e-002
4938	21.415	1.6364	0.1	-2.3782e-002
4939	21.23	1.6364	0.1	-2.1689e-002
4940	21.046	1.6364	0.1	-1.9881e-002
4941	20.861	1.6364	0.1	-1.8308e-002
4942	20.676	1.6364	0.1	-1.6926e-002
4943	20.492	1.6364	0.1	-1.571e-002
4944	20.307	1.6364	0.1	-1.4625e-002
4945	20.123	1.6364	0.1	-1.366e-002
4946	19.938	1.6364	0.1	-1.279e-002
4947	19.753	1.6364	0.1	-1.2006e-002
4948	19.569	1.6364	0.1	-1.1294e-002
4949	19.384	1.6364	0.1	-1.0647e-002
4950	19.199	1.6364	0.1	-1.0055e-002
4951	19.015	1.6364	0.1	-9.5101e-003
4952	18.83	1.6364	0.1	-9.0103e-003
4953	18.645	1.6364	0.1	-8.5468e-003
4954	18.461	1.6364	0.1	-8.1189e-003
4955	18.276	1.6364	0.1	-7.7174e-003
4956	18.092	1.6364	0.1	-7.3441e-003
4957	17.907	1.6364	0.1	-6.9929e-003
4958	17.722	1.6364	0.1	-6.6627e-003
4959	17.538	1.6364	0.1	-6.35e-003
4960	17.353	1.6364	0.1	-6.0533e-003
4961	17.168	1.6364	0.1	-5.7624e-003
4962	16.984	1.6364	0.1	-5.4854e-003
4963	16.799	1.6364	0.1	-5.2342e-003
4964	16.614	1.6364	0.1	-4.9701e-003
4965	16.43	1.6364	0.1	-4.7026e-003
4966	16.245	1.6364	0.1	-4.4439e-003
4967	16.06	1.6364	0.1	-4.1744e-003
4968	15.876	1.6364	0.1	-3.8936e-003
4969	15.691	1.6364	0.1	-3.5927e-003
4970	15.507	1.6364	0.1	-3.2561e-003
4971	15.322	1.6364	0.1	-2.8684e-003
4972	15.137	1.6364	0.1	-2.3941e-003
4973	14.953	1.6364	0.1	-1.7744e-003
4974	14.768	1.6364	0.1	-8.816e-004
4975	14.583	1.6364	0.1	5.9932e-004
4976	14.399	1.6364	0.1	3.7399e-003
4977	14.214	1.6364	0.1	1.5963e-002
4978	14.029	1.6364	0.1	0.53635
4979	13.845	1.6364	0.1	2.0022
4980	13.66	1.6364	0.1	3.5837
4981	13.475	1.6364	0.1	5.2711
4982	13.291	1.6364	0.1	7.0723
4983	13.106	1.6364	0.1	8.997
4984	12.922	1.6364	0.1	11.056
4985	12.737	1.6364	0.1	13.259
4986	12.552	1.6364	0.1	15.62
4987	12.368	1.6364	0.1	18.149
4988	12.183	1.6364	0.1	20.859
4989	11.998	1.6364	0.1	23.763
4990	11.814	1.6364	0.1	26.873
4991	11.629	1.6364	0.1	30.204
4992	11.444	1.6364	0.1	33.766
4993	11.26	1.6364	0.1	37.574
4994	11.075	1.6364	0.1	41.639
4995	10.891	1.6364	0.1	45.972
4996	10.706	1.6364	0.1	50.581
4997	10.521	1.6364	0.1	55.473
4998	10.337	1.6364	0.1	60.653
4999	10.152	1.6364	0.1	66.119
5000	9.9673	1.6364	0.1	71.869
5001	9.7827	1.6364	0.1	77.89
5002	9.598	1.6364	0.1	84.164
5003	9.4134	1.6364	0.1	90.663
5004	9.2288	1.6364	0.1	97.349
5005	9.0441	1.6364	0.1	104.17
5006	8.8595	1.6364	0.1	111.05
5007	8.6748	1.6364	0.1	117.91
5008	8.4902	1.6364	0.1	124.63
5009	8.3056	1.6364	0.1	131.06
5010	8.1209	1.6364	0.1	137.01
5011	7.9363	1.6364	0.1	142.24
5012	7.7516	1.6364	0.1	146.39
5013	7.567	1.6364	0.1	148.99
5014	7.3824	1.6364	0.1	149.34
5015	7.1977	1.6364	0.1	146.38
5016	7.0131	1.6364	0.1	138.46
5017	6.8284	1.6364	0.1	122.96
5018	6.6438	1.6364	0.1	95.805
5019	6.4592	1.6364	0.1	52.401
5020	6.2745	1.6364	0.1	13.293
5021	6.0899	1.6364	0.1	6.5802
5022	5.9052	1.6364	0.1	3.3605
5023	5.7206	1.6364	0.1	13.531
5024	5.5359	1.6364	0.1	-2.4437
5025	5.3513	1.6364	0.1	-12.885
5026	23.815	1.8182	0.1	-0.1781
5027	23.631	1.8182	0.1	-0.3176
5028	23.446	1.8182	0.1	-0.13421
5029	23.261	1.8182	0.1	-0.11781
5030	23.077	1.8182	0.1	-8.6914e-002
5031	22.892	1.8182	0.1	-7.2229e-002
5032	22.708	1.8182	0.1	-6.0288e-002
5033	22.523	1.8182	0.1	-5.1789e-002
5034	22.338	1.8182	0.1	-4.5115e-002
5035	22.154	1.8182	0.1	-3.983e-002
5036	21.969	1.8182	0.1	-3.5529e-002
5037	21.784	1.8182	0.1	-3.1971e-002
5038	21.6	1.8182	0.1	-2.8973e-002
5039	21.415	1.8182	0.1	-2.6431e-002
5040	21.23	1.8182	0.1	-2.4247e-002
5041	21.046	1.8182	0.1	-2.235e-002
5042	20.861	1.8182	0.1	-2.0691e-002
5043	20.676	1.8182	0.1	-1.923e-002
5044	20.492	1.8182	0.1	-1.7932e-002
5045	20.307	1.8182	0.1	-1.6777e-002
5046	20.123	1.8182	0.1	-1.5739e-002
5047	19.938	1.8182	0.1	-1.4803e-002
5048	19.753	1.8182	0.1	-1.3955e-002
5049	19.569	1.8182	0.1	-1.3184e-002
5050	19.384	1.8182	0.1	-1.2479e-002
5051	19.199	1.8182	0.1	-1.1833e-002
5052	19.015	1.8182	0.1	-1.1239e-002
5053	18.83	1.8182	0.1	-1.0691e-002
5054	18.645	1.8182	0.1	-1.0182e-002
5055	18.461	1.8182	0.1	-9.709e-003
5056	18.276	1.8182	0.1	-9.2697e-003
5057	18.092	1.8182	0.1	-8.8563e-003
5058	17.907	1.8182	0.1	-8.4695e-003
5059	17.722	1.8182	0.1	-8.1054e-003
5060	17.538	1.8182	0.1	-7.7582e-003
5061	17.353	1.8182	0.1	-7.4311e-003
5062	17.168	1.8182	0.1	-7.1102e-003
5063	16.984	1.8182	0.1	-6.8063e-003
5064	16.799	1.8182	0.1	-6.5258e-003
5065	16.614	1.8182	0.1	-6.2366e-003
5066	16.43	1.8182	0.1	-5.9453e-003
5067	16.245	1.8182	0.1	-5.6614e-003
5068	16.06	1.8182	0.1	-5.3712e-003
5069	15.876	1.8182	0.1	-5.0688e-003
5070	15.691	1.8182	0.1	-4.7444e-003
5071	15.507	1.8182	0.1	-4.3863e-003
5072	15.322	1.8182	0.1	-3.9701e-003
5073	15.137	1.8182	0.1	-3.4558e-003
5074	14.953	1.8182	0.1	-2.766e-003
5075	14.768	1.8182	0.1	-1.7102e-003
5076	14.583	1.8182	0.1	2.7442e-004
5077	14.399	1.8182	0.1	6.0795e-003
5078	14.214	1.8182	0.1	0.1572
5079	14.029	1.8182	0.1	1.5697
5080	13.845	1.8182	0.1	3.1565
5081	13.66	1.8182	0.1	4.8492
5082	13.475	1.8182	0.1	6.6559
5083	13.291	1.8182	0.1	8.5869
5084	13.106	1.8182	0.1	10.654
5085	12.922	1.8182	0.1	12.868
5086	12.737	1.8182	0.1	15.244
5087	12.552	1.8182	0.1	17.794
5088	12.368	1.8182	0.1	20.532
5089	12.183	1.8182	0.1	23.476
5090	11.998	1.8182	0.1	26.639
5091	11.814	1.8182	0.1	30.039
5092	11.629	1.8182	0.1	33.694
5093	11.444	1.8182	0.1	37.622
5094	11.26	1.8182	0.1	41.841
5095	11.075	1.8182	0.1	46.369
5096	10.891	1.8182	0.1	51.227
5097	10.706	1.8182	0.1	56.432
5098	10.521	1.8182	0.1	62.002
5099	10.337	1.8182	0.1	67.955
5100	10.152	1.8182	0.1	74.305
5101	9.9673	1.8182	0.1	81.065
5102	9.7827	1.8182	0.1	88.243
5103	9.598	1.8182	0.1	95.843
5104	9.4134	1.8182	0.1	103.86
5105	9.2288	1.8182	0.1	112.29
5106	9.0441	1.8182	0.1	121.1
5107	8.8595	1.8182	0.1	130.26
5108	8.6748	1.8182	0.1	139.71
5109	8.4902	1.8182	0.1	149.36
5110	8.3056	1.8182	0.1	159.12
5111	8.1209	1.8182	0.1	168.81
5112	7.9363	1.8182	0.1	178.2
5113	7.7516	1.8182	0.1	186.99
5114	7.567	1.8182	0.1	194.7
5115	7.3824	1.8182	0.1	200.65
5116	7.1977	1.8182	0.1	203.8
5117	7.0131	1.8182	0.1	202.56
5118	6.8284	1.8182	0.1	194.41
5119	6.6438	1.8182	0.1	175.33
5120	6.4592	1.8182	0.1	138.98
5121	6.2745	1.8182	0.1	76.81
5122	6.0899	1.8182	0.1	15.997
5123	5.9052	1.8182	0.1	6.2721
5124	5.7206	1.8182	0.1	9.4585
5125	5.5359	1.8182	0.1	-10.767
5126	5.3513	1.8182	0.1	178.13
5127	23.815	2.	0.1	-0.18812
5128	23.631	2.	0.1	-0.32272
5129	23.446	2.	0.1	-0.13783
5130	23.261	2.	0.1	-0.12101
5131	23.077	2.	0.1	-8.9797e-002
5132	22.892	2.	0.1	-7.4927e-002
5133	22.708	2.	0.1	-6.2854e-002
5134	22.523	2.	0.1	-5.4261e-002
5135	22.338	2.	0.1	-4.751e-002
5136	22.154	2.	0.1	-4.2156e-002
5137	21.969	2.	0.1	-3.7794e-002
5138	21.784	2.	0.1	-3.4172e-002
5139	21.6	2.	0.1	-3.1115e-002
5140	21.415	2.	0.1	-2.851e-002
5141	21.23	2.	0.1	-2.6267e-002
5142	21.046	2.	0.1	-2.4312e-002
5143	20.861	2.	0.1	-2.2592e-002
5144	20.676	2.	0.1	-2.1074e-002
5145	20.492	2.	0.1	-1.9722e-002
5146	20.307	2.	0.1	-1.8512e-002
5147	20.123	2.	0.1	-1.7424e-002
5148	19.938	2.	0.1	-1.6438e-002
5149	19.753	2.	0.1	-1.5544e-002
5150	19.569	2.	0.1	-1.4731e-002
5151	19.384	2.	0.1	-1.3982e-002
5152	19.199	2.	0.1	-1.3298e-002
5153	19.015	2.	0.1	-1.2667e-002
5154	18.83	2.	0.1	-1.2082e-002
5155	18.645	2.	0.1	-1.1542e-002
5156	18.461	2.	0.1	-1.1038e-002
5157	18.276	2.	0.1	-1.0568e-002
5158	18.092	2.	0.1	-1.0127e-002
5159	17.907	2.	0.1	-9.7132e-003
5160	17.722	2.	0.1	-9.3232e-003
5161	17.538	2.	0.1	-8.9539e-003
5162	17.353	2.	0.1	-8.6056e-003
5163	17.168	2.	0.1	-8.2643e-003
5164	16.984	2.	0.1	-7.9393e-003
5165	16.799	2.	0.1	-7.6439e-003
5166	16.614	2.	0.1	-7.3388e-003
5167	16.43	2.	0.1	-7.0335e-003
5168	16.245	2.	0.1	-6.7389e-003
5169	16.06	2.	0.1	-6.4391e-003
5170	15.876	2.	0.1	-6.1292e-003
5171	15.691	2.	0.1	-5.8007e-003
5172	15.507	2.	0.1	-5.4393e-003
5173	15.322	2.	0.1	-5.0241e-003
5174	15.137	2.	0.1	-4.507e-003
5175	14.953	2.	0.1	-3.7986e-003
5176	14.768	2.	0.1	-2.6454e-003
5177	14.583	2.	0.1	-9.3019e-005
5178	14.399	2.	0.1	1.3912e-002
5179	14.214	2.	0.1	0.9148
5180	14.029	2.	0.1	2.487
5181	13.845	2.	0.1	4.1654
5182	13.66	2.	0.1	5.9553
5183	13.475	2.	0.1	7.8675
5184	13.291	2.	0.1	9.9137
5185	13.106	2.	0.1	12.107
5186	12.922	2.	0.1	14.461
5187	12.737	2.	0.1	16.99
5188	12.552	2.	0.1	19.71
5189	12.368	2.	0.1	22.638
5190	12.183	2.	0.1	25.792
5191	11.998	2.	0.1	29.192
5192	11.814	2.	0.1	32.857
5193	11.629	2.	0.1	36.809
5194	11.444	2.	0.1	41.072
5195	11.26	2.	0.1	45.671
5196	11.075	2.	0.1	50.631
5197	10.891	2.	0.1	55.979
5198	10.706	2.	0.1	61.743
5199	10.521	2.	0.1	67.954
5200	10.337	2.	0.1	74.64
5201	10.152	2.	0.1	81.832
5202	9.9673	2.	0.1	89.558
5203	9.7827	2.	0.1	97.849
5204	9.598	2.	0.1	106.73
5205	9.4134	2.	0.1	116.22
5206	9.2288	2.	0.1	126.34
5207	9.0441	2.	0.1	137.09
5208	8.8595	2.	0.1	148.48
5209	8.6748	2.	0.1	160.47
5210	8.4902	2.	0.1	173.02
5211	8.3056	2.	0.1	186.05
5212	8.1209	2.	0.1	199.43
5213	7.9363	2.	0.1	212.96
5214	7.7516	2.	0.1	226.33
5215	7.567	2.	0.1	239.11
5216	7.3824	2.	0.1	250.64
5217	7.1977	2.	0.1	259.9
5218	7.0131	2.	0.1	265.42
5219	6.8284	2.	0.1	264.9
5220	6.6438	2.	0.1	254.83
5221	6.4592	2.	0.1	229.78
5222	6.2745	2.	0.1	181.19
5223	6.0899	2.	0.1	97.704
5224	5.9052	2.	0.1	10.882
5225	5.7206	2.	0.1	20.557
5226	5.5359	2.	0.1	-90.573
5227	5.3513	2.	0.1	673.39
5228	23.815	2.1818	0.1	-0.19603
5229	23.631	2.1818	0.1	-0.32665
5230	23.446	2.1818	0.1	-0.14059
5231	23.261	2.1818	0.1	-0.12344
5232	23.077	2.1818	0.1	-9.1982e-002
5233	22.892	2.1818	0.1	-7.6967e-002
5234	22.708	2.1818	0.1	-6.4792e-002
5235	22.523	2.1818	0.1	-5.6128e-002
5236	22.338	2.1818	0.1	-4.932e-002
5237	22.154	2.1818	0.1	-4.3924e-002
5238	21.969	2.1818	0.1	-3.9519e-002
5239	21.784	2.1818	0.1	-3.5859e-002
5240	21.6	2.1818	0.1	-3.2763e-002
5241	21.415	2.1818	0.1	-3.0121e-002
5242	21.23	2.1818	0.1	-2.7835e-002
5243	21.046	2.1818	0.1	-2.5837e-002
5244	20.861	2.1818	0.1	-2.4081e-002
5245	20.676	2.1818	0.1	-2.2524e-002
5246	20.492	2.1818	0.1	-2.113e-002
5247	20.307	2.1818	0.1	-1.9885e-002
5248	20.123	2.1818	0.1	-1.876e-002
5249	19.938	2.1818	0.1	-1.7739e-002
5250	19.753	2.1818	0.1	-1.6812e-002
5251	19.569	2.1818	0.1	-1.5966e-002
5252	19.384	2.1818	0.1	-1.5191e-002
5253	19.199	2.1818	0.1	-1.4475e-002
5254	19.015	2.1818	0.1	-1.3818e-002
5255	18.83	2.1818	0.1	-1.3207e-002
5256	18.645	2.1818	0.1	-1.2643e-002
5257	18.461	2.1818	0.1	-1.2116e-002
5258	18.276	2.1818	0.1	-1.1625e-002
5259	18.092	2.1818	0.1	-1.1164e-002
5260	17.907	2.1818	0.1	-1.0733e-002
5261	17.722	2.1818	0.1	-1.0325e-002
5262	17.538	2.1818	0.1	-9.9413e-003
5263	17.353	2.1818	0.1	-9.5769e-003
5264	17.168	2.1818	0.1	-9.2222e-003
5265	16.984	2.1818	0.1	-8.8871e-003
5266	16.799	2.1818	0.1	-8.5815e-003
5267	16.614	2.1818	0.1	-8.2673e-003
5268	16.43	2.1818	0.1	-7.9575e-003
5269	16.245	2.1818	0.1	-7.6587e-003
5270	16.06	2.1818	0.1	-7.357e-003
5271	15.876	2.1818	0.1	-7.0514e-003
5272	15.691	2.1818	0.1	-6.7305e-003
5273	15.507	2.1818	0.1	-6.385e-003
5274	15.322	2.1818	0.1	-5.9929e-003
5275	15.137	2.1818	0.1	-5.5105e-003
5276	14.953	2.1818	0.1	-4.8429e-003
5277	14.768	2.1818	0.1	-3.6936e-003
5278	14.583	2.1818	0.1	-5.574e-004
5279	14.399	2.1818	0.1	0.12197
5280	14.214	2.1818	0.1	1.6168
5281	14.029	2.1818	0.1	3.2644
5282	13.845	2.1818	0.1	5.0196
5283	13.66	2.1818	0.1	6.8924
5284	13.475	2.1818	0.1	8.895
5285	13.291	2.1818	0.1	11.04
5286	13.106	2.1818	0.1	13.342
5287	12.922	2.1818	0.1	15.816
5288	12.737	2.1818	0.1	18.478
5289	12.552	2.1818	0.1	21.346
5290	12.368	2.1818	0.1	24.439
5291	12.183	2.1818	0.1	27.777
5292	11.998	2.1818	0.1	31.383
5293	11.814	2.1818	0.1	35.281
5294	11.629	2.1818	0.1	39.496
5295	11.444	2.1818	0.1	44.056
5296	11.26	2.1818	0.1	48.992
5297	11.075	2.1818	0.1	54.337
5298	10.891	2.1818	0.1	60.124
5299	10.706	2.1818	0.1	66.392
5300	10.521	2.1818	0.1	73.18
5301	10.337	2.1818	0.1	80.53
5302	10.152	2.1818	0.1	88.486
5303	9.9673	2.1818	0.1	97.096
5304	9.7827	2.1818	0.1	106.4
5305	9.598	2.1818	0.1	116.46
5306	9.4134	2.1818	0.1	127.31
5307	9.2288	2.1818	0.1	138.99
5308	9.0441	2.1818	0.1	151.54
5309	8.8595	2.1818	0.1	164.99
5310	8.6748	2.1818	0.1	179.34
5311	8.4902	2.1818	0.1	194.58
5312	8.3056	2.1818	0.1	210.66
5313	8.1209	2.1818	0.1	227.46
5314	7.9363	2.1818	0.1	244.82
5315	7.7516	2.1818	0.1	262.44
5316	7.567	2.1818	0.1	279.87
5317	7.3824	2.1818	0.1	296.45
5318	7.1977	2.1818	0.1	311.15
5319	7.0131	2.1818	0.1	322.5
5320	6.8284	2.1818	0.1	328.27
5321	6.6438	2.1818	0.1	325.21
5322	6.4592	2.1818	0.1	308.49
5323	6.2745	2.1818	0.1	270.79
5324	6.0899	2.1818	0.1	201.8
5325	5.9052	2.1818	0.1	83.568
5326	5.7206	2.1818	0.1	11.055
5327	5.5359	2.1818	0.1	-42.323
5328	5.3513	2.1818	0.1	8.6906
5329	23.815	2.3636	0.1	-0.20209
5330	23.631	2.3636	0.1	-0.32961
5331	23.446	2.3636	0.1	-0.14266
5332	23.261	2.3636	0.1	-0.12525
5333	23.077	2.3636	0.1	-9.3604e-002
5334	22.892	2.3636	0.1	-7.8475e-002
5335	22.708	2.3636	0.1	-6.6226e-002
5336	22.523	2.3636	0.1	-5.7507e-002
5337	22.338	2.3636	0.1	-5.0662e-002
5338	22.154	2.3636	0.1	-4.5236e-002
5339	21.969	2.3636	0.1	-4.0803e-002
5340	21.784	2.3636	0.1	-3.7119e-002
5341	21.6	2.3636	0.1	-3.3998e-002
5342	21.415	2.3636	0.1	-3.133e-002
5343	21.23	2.3636	0.1	-2.9019e-002
5344	21.046	2.3636	0.1	-2.6996e-002
5345	20.861	2.3636	0.1	-2.5211e-002
5346	20.676	2.3636	0.1	-2.3626e-002
5347	20.492	2.3636	0.1	-2.2212e-002
5348	20.307	2.3636	0.1	-2.0934e-002
5349	20.123	2.3636	0.1	-1.9786e-002
5350	19.938	2.3636	0.1	-1.8742e-002
5351	19.753	2.3636	0.1	-1.7791e-002
5352	19.569	2.3636	0.1	-1.6923e-002
5353	19.384	2.3636	0.1	-1.6124e-002
5354	19.199	2.3636	0.1	-1.5391e-002
5355	19.015	2.3636	0.1	-1.4712e-002
5356	18.83	2.3636	0.1	-1.4085e-002
5357	18.645	2.3636	0.1	-1.3503e-002
5358	18.461	2.3636	0.1	-1.2961e-002
5359	18.276	2.3636	0.1	-1.2456e-002
5360	18.092	2.3636	0.1	-1.1981e-002
5361	17.907	2.3636	0.1	-1.1537e-002
5362	17.722	2.3636	0.1	-1.1118e-002
5363	17.538	2.3636	0.1	-1.0722e-002
5364	17.353	2.3636	0.1	-1.0349e-002
5365	17.168	2.3636	0.1	-9.9877e-003
5366	16.984	2.3636	0.1	-9.6449e-003
5367	16.799	2.3636	0.1	-9.3346e-003
5368	16.614	2.3636	0.1	-9.0168e-003
5369	16.43	2.3636	0.1	-8.7066e-003
5370	16.245	2.3636	0.1	-8.4087e-003
5371	16.06	2.3636	0.1	-8.1138e-003
5372	15.876	2.3636	0.1	-7.8171e-003
5373	15.691	2.3636	0.1	-7.5144e-003
5374	15.507	2.3636	0.1	-7.1942e-003
5375	15.322	2.3636	0.1	-6.8413e-003
5376	15.137	2.3636	0.1	-6.4194e-003
5377	14.953	2.3636	0.1	-5.8476e-003
5378	14.768	2.3636	0.1	-4.8299e-003
5379	14.583	2.3636	0.1	-1.2323e-003
5380	14.399	2.3636	0.1	0.58649
5381	14.214	2.3636	0.1	2.188
5382	14.029	2.3636	0.1	3.8942
5383	13.845	2.3636	0.1	5.7118
5384	13.66	2.3636	0.1	7.6524
5385	13.475	2.3636	0.1	9.729
5386	13.291	2.3636	0.1	11.955
5387	13.106	2.3636	0.1	14.347
5388	12.922	2.3636	0.1	16.92
5389	12.737	2.3636	0.1	19.692
5390	12.552	2.3636	0.1	22.682
5391	12.368	2.3636	0.1	25.911
5392	12.183	2.3636	0.1	29.403
5393	11.998	2.3636	0.1	33.181
5394	11.814	2.3636	0.1	37.273
5395	11.629	2.3636	0.1	41.707
5396	11.444	2.3636	0.1	46.518
5397	11.26	2.3636	0.1	51.738
5398	11.075	2.3636	0.1	57.408
5399	10.891	2.3636	0.1	63.568
5400	10.706	2.3636	0.1	70.263
5401	10.521	2.3636	0.1	77.544
5402	10.337	2.3636	0.1	85.462
5403	10.152	2.3636	0.1	94.075
5404	9.9673	2.3636	0.1	103.44
5405	9.7827	2.3636	0.1	113.63
5406	9.598	2.3636	0.1	124.7
5407	9.4134	2.3636	0.1	136.72
5408	9.2288	2.3636	0.1	149.75
5409	9.0441	2.3636	0.1	163.87
5410	8.8595	2.3636	0.1	179.11
5411	8.6748	2.3636	0.1	195.52
5412	8.4902	2.3636	0.1	213.1
5413	8.3056	2.3636	0.1	231.82
5414	8.1209	2.3636	0.1	251.6
5415	7.9363	2.3636	0.1	272.27
5416	7.7516	2.3636	0.1	293.53
5417	7.567	2.3636	0.1	314.89
5418	7.3824	2.3636	0.1	335.63
5419	7.1977	2.3636	0.1	354.63
5420	7.0131	2.3636	0.1	370.25
5421	6.8284	2.3636	0.1	380.06
5422	6.6438	2.3636	0.1	380.51
5423	6.4592	2.3636	0.1	366.4
5424	6.2745	2.3636	0.1	330.08
5425	6.0899	2.3636	0.1	260.25
5426	5.9052	2.3636	0.1	139.53
5427	5.7206	2.3636	0.1	-6.048
5428	5.5359	2.3636	0.1	11.02
5429	5.3513	2.3636	0.1	20.878
5430	23.815	2.5455	0.1	-0.2065
5431	23.631	2.5455	0.1	-0.33173
5432	23.446	2.5455	0.1	-0.14413
5433	23.261	2.5455	0.1	-0.12653
5434	23.077	2.5455	0.1	-9.4755e-002
5435	22.892	2.5455	0.1	-7.9547e-002
5436	22.708	2.5455	0.1	-6.7239e-002
5437	22.523	2.5455	0.1	-5.8483e-002
5438	22.338	2.5455	0.1	-5.161e-002
5439	22.154	2.5455	0.1	-4.6163e-002
5440	21.969	2.5455	0.1	-4.1715e-002
5441	21.784	2.5455	0.1	-3.8013e-002
5442	21.6	2.5455	0.1	-3.4878e-002
5443	21.415	2.5455	0.1	-3.2194e-002
5444	21.23	2.5455	0.1	-2.9869e-002
5445	21.046	2.5455	0.1	-2.7828e-002
5446	20.861	2.5455	0.1	-2.6026e-002
5447	20.676	2.5455	0.1	-2.4424e-002
5448	20.492	2.5455	0.1	-2.2988e-002
5449	20.307	2.5455	0.1	-2.17e-002
5450	20.123	2.5455	0.1	-2.0532e-002
5451	19.938	2.5455	0.1	-1.9472e-002
5452	19.753	2.5455	0.1	-1.8503e-002
5453	19.569	2.5455	0.1	-1.7621e-002
5454	19.384	2.5455	0.1	-1.6809e-002
5455	19.199	2.5455	0.1	-1.6062e-002
5456	19.015	2.5455	0.1	-1.537e-002
5457	18.83	2.5455	0.1	-1.473e-002
5458	18.645	2.5455	0.1	-1.4137e-002
5459	18.461	2.5455	0.1	-1.3585e-002
5460	18.276	2.5455	0.1	-1.3069e-002
5461	18.092	2.5455	0.1	-1.2586e-002
5462	17.907	2.5455	0.1	-1.2133e-002
5463	17.722	2.5455	0.1	-1.1706e-002
5464	17.538	2.5455	0.1	-1.1305e-002
5465	17.353	2.5455	0.1	-1.0926e-002
5466	17.168	2.5455	0.1	-1.056e-002
5467	16.984	2.5455	0.1	-1.0214e-002
5468	16.799	2.5455	0.1	-9.9012e-003
5469	16.614	2.5455	0.1	-9.583e-003
5470	16.43	2.5455	0.1	-9.2741e-003
5471	16.245	2.5455	0.1	-8.9815e-003
5472	16.06	2.5455	0.1	-8.6931e-003
5473	15.876	2.5455	0.1	-8.4095e-003
5474	15.691	2.5455	0.1	-8.1248e-003
5475	15.507	2.5455	0.1	-7.8342e-003
5476	15.322	2.5455	0.1	-7.5259e-003
5477	15.137	2.5455	0.1	-7.1776e-003
5478	14.953	2.5455	0.1	-6.734e-003
5479	14.768	2.5455	0.1	-5.9687e-003
5480	14.583	2.5455	0.1	-2.348e-003
5481	14.399	2.5455	0.1	0.97435
5482	14.214	2.5455	0.1	2.6208
5483	14.029	2.5455	0.1	4.3712
5484	13.845	2.5455	0.1	6.2363
5485	13.66	2.5455	0.1	8.2286
5486	13.475	2.5455	0.1	10.362
5487	13.291	2.5455	0.1	12.65
5488	13.106	2.5455	0.1	15.11
5489	12.922	2.5455	0.1	17.759
5490	12.737	2.5455	0.1	20.616
5491	12.552	2.5455	0.1	23.7
5492	12.368	2.5455	0.1	27.035
5493	12.183	2.5455	0.1	30.644
5494	11.998	2.5455	0.1	34.556
5495	11.814	2.5455	0.1	38.798
5496	11.629	2.5455	0.1	43.404
5497	11.444	2.5455	0.1	48.409
5498	11.26	2.5455	0.1	53.852
5499	11.075	2.5455	0.1	59.776
5500	10.891	2.5455	0.1	66.228
5501	10.706	2.5455	0.1	73.26
5502	10.521	2.5455	0.1	80.929
5503	10.337	2.5455	0.1	89.295
5504	10.152	2.5455	0.1	98.426
5505	9.9673	2.5455	0.1	108.39
5506	9.7827	2.5455	0.1	119.28
5507	9.598	2.5455	0.1	131.15
5508	9.4134	2.5455	0.1	144.11
5509	9.2288	2.5455	0.1	158.22
5510	9.0441	2.5455	0.1	173.58
5511	8.8595	2.5455	0.1	190.26
5512	8.6748	2.5455	0.1	208.3
5513	8.4902	2.5455	0.1	227.75
5514	8.3056	2.5455	0.1	248.59
5515	8.1209	2.5455	0.1	270.73
5516	7.9363	2.5455	0.1	294.02
5517	7.7516	2.5455	0.1	318.11
5518	7.567	2.5455	0.1	342.5
5519	7.3824	2.5455	0.1	366.33
5520	7.1977	2.5455	0.1	388.33
5521	7.0131	2.5455	0.1	406.58
5522	6.8284	2.5455	0.1	418.19
5523	6.6438	2.5455	0.1	418.92
5524	6.4592	2.5455	0.1	402.52
5525	6.2745	2.5455	0.1	359.86
5526	6.0899	2.5455	0.1	277.66
5527	5.9052	2.5455	0.1	137.16
5528	5.7206	2.5455	0.1	0.79238
5529	5.5359	2.5455	0.1	-0.36523
5530	5.3513	2.5455	0.1	-5.5168
5531	23.815	2.7273	0.1	-0.20937
5532	23.631	2.7273	0.1	-0.3331
5533	23.446	2.7273	0.1	-0.14507
5534	23.261	2.7273	0.1	-0.12736
5535	23.077	2.7273	0.1	-9.5492e-002
5536	22.892	2.7273	0.1	-8.023e-002
5537	22.708	2.7273	0.1	-6.7886e-002
5538	22.523	2.7273	0.1	-5.9107e-002
5539	22.338	2.7273	0.1	-5.2217e-002
5540	22.154	2.7273	0.1	-4.6757e-002
5541	21.969	2.7273	0.1	-4.2298e-002
5542	21.784	2.7273	0.1	-3.859e-002
5543	21.6	2.7273	0.1	-3.5444e-002
5544	21.415	2.7273	0.1	-3.2751e-002
5545	21.23	2.7273	0.1	-3.0416e-002
5546	21.046	2.7273	0.1	-2.8365e-002
5547	20.861	2.7273	0.1	-2.6553e-002
5548	20.676	2.7273	0.1	-2.4941e-002
5549	20.492	2.7273	0.1	-2.3497e-002
5550	20.307	2.7273	0.1	-2.2195e-002
5551	20.123	2.7273	0.1	-2.1017e-002
5552	19.938	2.7273	0.1	-1.9946e-002
5553	19.753	2.7273	0.1	-1.8971e-002
5554	19.569	2.7273	0.1	-1.8078e-002
5555	19.384	2.7273	0.1	-1.7255e-002
5556	19.199	2.7273	0.1	-1.6499e-002
5557	19.015	2.7273	0.1	-1.58e-002
5558	18.83	2.7273	0.1	-1.5154e-002
5559	18.645	2.7273	0.1	-1.4553e-002
5560	18.461	2.7273	0.1	-1.3994e-002
5561	18.276	2.7273	0.1	-1.3473e-002
5562	18.092	2.7273	0.1	-1.2984e-002
5563	17.907	2.7273	0.1	-1.2525e-002
5564	17.722	2.7273	0.1	-1.2097e-002
5565	17.538	2.7273	0.1	-1.1689e-002
5566	17.353	2.7273	0.1	-1.131e-002
5567	17.168	2.7273	0.1	-1.094e-002
5568	16.984	2.7273	0.1	-1.0593e-002
5569	16.799	2.7273	0.1	-1.0279e-002
5570	16.614	2.7273	0.1	-9.9633e-003
5571	16.43	2.7273	0.1	-9.6551e-003
5572	16.245	2.7273	0.1	-9.3668e-003
5573	16.06	2.7273	0.1	-9.0848e-003
5574	15.876	2.7273	0.1	-8.8126e-003
5575	15.691	2.7273	0.1	-8.5441e-003
5576	15.507	2.7273	0.1	-8.2776e-003
5577	15.322	2.7273	0.1	-8.0088e-003
5578	15.137	2.7273	0.1	-7.7251e-003
5579	14.953	2.7273	0.1	-7.4046e-003
5580	14.768	2.7273	0.1	-6.937e-003
5581	14.583	2.7273	0.1	-4.2968e-003
5582	14.399	2.7273	0.1	1.2365
5583	14.214	2.7273	0.1	2.9113
5584	14.029	2.7273	0.1	4.6913
5585	13.845	2.7273	0.1	6.5884
5586	13.66	2.7273	0.1	8.6156
5587	13.475	2.7273	0.1	10.787
5588	13.291	2.7273	0.1	13.118
5589	13.106	2.7273	0.1	15.624
5590	12.922	2.7273	0.1	18.324
5591	12.737	2.7273	0.1	21.238
5592	12.552	2.7273	0.1	24.386
5593	12.368	2.7273	0.1	27.793
5594	12.183	2.7273	0.1	31.483
5595	11.998	2.7273	0.1	35.485
5596	11.814	2.7273	0.1	39.831
5597	11.629	2.7273	0.1	44.554
5598	11.444	2.7273	0.1	49.692
5599	11.26	2.7273	0.1	55.287
5600	11.075	2.7273	0.1	61.386
5601	10.891	2.7273	0.1	68.04
5602	10.706	2.7273	0.1	75.303
5603	10.521	2.7273	0.1	83.24
5604	10.337	2.7273	0.1	91.916
5605	10.152	2.7273	0.1	101.41
5606	9.9673	2.7273	0.1	111.79
5607	9.7827	2.7273	0.1	123.16
5608	9.598	2.7273	0.1	135.59
5609	9.4134	2.7273	0.1	149.2
5610	9.2288	2.7273	0.1	164.06
5611	9.0441	2.7273	0.1	180.29
5612	8.8595	2.7273	0.1	197.96
5613	8.6748	2.7273	0.1	217.15
5614	8.4902	2.7273	0.1	237.9
5615	8.3056	2.7273	0.1	260.2
5616	8.1209	2.7273	0.1	283.98
5617	7.9363	2.7273	0.1	309.07
5618	7.7516	2.7273	0.1	335.1
5619	7.567	2.7273	0.1	361.51
5620	7.3824	2.7273	0.1	387.34
5621	7.1977	2.7273	0.1	411.14
5622	7.0131	2.7273	0.1	430.69
5623	6.8284	2.7273	0.1	442.63
5624	6.6438	2.7273	0.1	441.97
5625	6.4592	2.7273	0.1	421.37
5626	6.2745	2.7273	0.1	370.3
5627	6.0899	2.7273	0.1	274.34
5628	5.9052	2.7273	0.1	116.02
5629	5.7206	2.7273	0.1	-0.70786
5630	5.5359	2.7273	0.1	0.21576
5631	5.3513	2.7273	0.1	3.6379
5632	23.815	2.9091	0.1	-0.21079
5633	23.631	2.9091	0.1	-0.33377
5634	23.446	2.9091	0.1	-0.14553
5635	23.261	2.9091	0.1	-0.12776
5636	23.077	2.9091	0.1	-9.5851e-002
5637	22.892	2.9091	0.1	-8.0565e-002
5638	22.708	2.9091	0.1	-6.8202e-002
5639	22.523	2.9091	0.1	-5.9411e-002
5640	22.338	2.9091	0.1	-5.251e-002
5641	22.154	2.9091	0.1	-4.7045e-002
5642	21.969	2.9091	0.1	-4.2582e-002
5643	21.784	2.9091	0.1	-3.8869e-002
5644	21.6	2.9091	0.1	-3.5719e-002
5645	21.415	2.9091	0.1	-3.3023e-002
5646	21.23	2.9091	0.1	-3.0683e-002
5647	21.046	2.9091	0.1	-2.8629e-002
5648	20.861	2.9091	0.1	-2.6813e-002
5649	20.676	2.9091	0.1	-2.5195e-002
5650	20.492	2.9091	0.1	-2.3745e-002
5651	20.307	2.9091	0.1	-2.2439e-002
5652	20.123	2.9091	0.1	-2.1255e-002
5653	19.938	2.9091	0.1	-2.0182e-002
5654	19.753	2.9091	0.1	-1.92e-002
5655	19.569	2.9091	0.1	-1.8303e-002
5656	19.384	2.9091	0.1	-1.7477e-002
5657	19.199	2.9091	0.1	-1.6716e-002
5658	19.015	2.9091	0.1	-1.6013e-002
5659	18.83	2.9091	0.1	-1.5364e-002
5660	18.645	2.9091	0.1	-1.476e-002
5661	18.461	2.9091	0.1	-1.4199e-002
5662	18.276	2.9091	0.1	-1.3673e-002
5663	18.092	2.9091	0.1	-1.3182e-002
5664	17.907	2.9091	0.1	-1.2723e-002
5665	17.722	2.9091	0.1	-1.229e-002
5666	17.538	2.9091	0.1	-1.1883e-002
5667	17.353	2.9091	0.1	-1.1499e-002
5668	17.168	2.9091	0.1	-1.1128e-002
5669	16.984	2.9091	0.1	-1.0781e-002
5670	16.799	2.9091	0.1	-1.0469e-002
5671	16.614	2.9091	0.1	-1.0152e-002
5672	16.43	2.9091	0.1	-9.8455e-003
5673	16.245	2.9091	0.1	-9.5604e-003
5674	16.06	2.9091	0.1	-9.2833e-003
5675	15.876	2.9091	0.1	-9.0151e-003
5676	15.691	2.9091	0.1	-8.7569e-003
5677	15.507	2.9091	0.1	-8.504e-003
5678	15.322	2.9091	0.1	-8.2567e-003
5679	15.137	2.9091	0.1	-8.0136e-003
5680	14.953	2.9091	0.1	-7.7679e-003
5681	14.768	2.9091	0.1	-7.5077e-003
5682	14.583	2.9091	0.1	-6.8262e-003
5683	14.399	2.9091	0.1	1.3682
5684	14.214	2.9091	0.1	3.0571
5685	14.029	2.9091	0.1	4.852
5686	13.845	2.9091	0.1	6.7653
5687	13.66	2.9091	0.1	8.8101
5688	13.475	2.9091	0.1	11.001
5689	13.291	2.9091	0.1	13.353
5690	13.106	2.9091	0.1	15.883
5691	12.922	2.9091	0.1	18.609
5692	12.737	2.9091	0.1	21.551
5693	12.552	2.9091	0.1	24.732
5694	12.368	2.9091	0.1	28.175
5695	12.183	2.9091	0.1	31.906
5696	11.998	2.9091	0.1	35.954
5697	11.814	2.9091	0.1	40.352
5698	11.629	2.9091	0.1	45.134
5699	11.444	2.9091	0.1	50.34
5700	11.26	2.9091	0.1	56.013
5701	11.075	2.9091	0.1	62.201
5702	10.891	2.9091	0.1	68.957
5703	10.706	2.9091	0.1	76.339
5704	10.521	2.9091	0.1	84.412
5705	10.337	2.9091	0.1	93.247
5706	10.152	2.9091	0.1	102.92
5707	9.9673	2.9091	0.1	113.52
5708	9.7827	2.9091	0.1	125.13
5709	9.598	2.9091	0.1	137.85
5710	9.4134	2.9091	0.1	151.79
5711	9.2288	2.9091	0.1	167.04
5712	9.0441	2.9091	0.1	183.71
5713	8.8595	2.9091	0.1	201.9
5714	8.6748	2.9091	0.1	221.67
5715	8.4902	2.9091	0.1	243.08
5716	8.3056	2.9091	0.1	266.14
5717	8.1209	2.9091	0.1	290.76
5718	7.9363	2.9091	0.1	316.76
5719	7.7516	2.9091	0.1	343.78
5720	7.567	2.9091	0.1	371.19
5721	7.3824	2.9091	0.1	397.99
5722	7.1977	2.9091	0.1	422.61
5723	7.0131	2.9091	0.1	442.64
5724	6.8284	2.9091	0.1	454.41
5725	6.6438	2.9091	0.1	452.49
5726	6.4592	2.9091	0.1	428.87
5727	6.2745	2.9091	0.1	372.33
5728	6.0899	2.9091	0.1	268.26
5729	5.9052	2.9091	0.1	101.03
5730	5.7206	2.9091	0.1	-1.0697
5731	5.5359	2.9091	0.1	-2.1626e-002
5732	5.3513	2.9091	0.1	0.35391
5733	23.815	3.0909	0.1	-0.21079
5734	23.631	3.0909	0.1	-0.33377
5735	23.446	3.0909	0.1	-0.14553
5736	23.261	3.0909	0.1	-0.12776
5737	23.077	3.0909	0.1	-9.5851e-002
5738	22.892	3.0909	0.1	-8.0565e-002
5739	22.708	3.0909	0.1	-6.8202e-002
5740	22.523	3.0909	0.1	-5.9411e-002
5741	22.338	3.0909	0.1	-5.251e-002
5742	22.154	3.0909	0.1	-4.7046e-002
5743	21.969	3.0909	0.1	-4.2584e-002
5744	21.784	3.0909	0.1	-3.887e-002
5745	21.6	3.0909	0.1	-3.5721e-002
5746	21.415	3.0909	0.1	-3.3023e-002
5747	21.23	3.0909	0.1	-3.0684e-002
5748	21.046	3.0909	0.1	-2.8628e-002
5749	20.861	3.0909	0.1	-2.6814e-002
5750	20.676	3.0909	0.1	-2.5194e-002
5751	20.492	3.0909	0.1	-2.3745e-002
5752	20.307	3.0909	0.1	-2.2439e-002
5753	20.123	3.0909	0.1	-2.1257e-002
5754	19.938	3.0909	0.1	-2.018e-002
5755	19.753	3.0909	0.1	-1.9199e-002
5756	19.569	3.0909	0.1	-1.8302e-002
5757	19.384	3.0909	0.1	-1.7477e-002
5758	19.199	3.0909	0.1	-1.6717e-002
5759	19.015	3.0909	0.1	-1.6014e-002
5760	18.83	3.0909	0.1	-1.5364e-002
5761	18.645	3.0909	0.1	-1.4759e-002
5762	18.461	3.0909	0.1	-1.4197e-002
5763	18.276	3.0909	0.1	-1.3673e-002
5764	18.092	3.0909	0.1	-1.3182e-002
5765	17.907	3.0909	0.1	-1.2722e-002
5766	17.722	3.0909	0.1	-1.229e-002
5767	17.538	3.0909	0.1	-1.1882e-002
5768	17.353	3.0909	0.1	-1.15e-002
5769	17.168	3.0909	0.1	-1.1129e-002
5770	16.984	3.0909	0.1	-1.0782e-002
5771	16.799	3.0909	0.1	-1.0469e-002
5772	16.614	3.0909	0.1	-1.0152e-002
5773	16.43	3.0909	0.1	-9.8457e-003
5774	16.245	3.0909	0.1	-9.5598e-003
5775	16.06	3.0909	0.1	-9.2834e-003
5776	15.876	3.0909	0.1	-9.0159e-003
5777	15.691	3.0909	0.1	-8.7563e-003
5778	15.507	3.0909	0.1	-8.5042e-003
5779	15.322	3.0909	0.1	-8.2579e-003
5780	15.137	3.0909	0.1	-8.0125e-003
5781	14.953	3.0909	0.1	-7.7696e-003
5782	14.768	3.0909	0.1	-7.5076e-003
5783	14.583	3.0909	0.1	-6.8266e-003
5784	14.399	3.0909	0.1	1.3682
5785	14.214	3.0909	0.1	3.0571
5786	14.029	3.0909	0.1	4.852
5787	13.845	3.0909	0.1	6.7653
5788	13.66	3.0909	0.1	8.8101
5789	13.475	3.0909	0.1	11.001
5790	13.291	3.0909	0.1	13.353
5791	13.106	3.0909	0.1	15.883
5792	12.922	3.0909	0.1	18.609
5793	12.737	3.0909	0.1	21.551
5794	12.552	3.0909	0.1	24.732
5795	12.368	3.0909	0.1	28.175
5796	12.183	3.0909	0.1	31.906
5797	11.998	3.0909	0.1	35.954
5798	11.814	3.0909	0.1	40.352
5799	11.629	3.0909	0.1	45.134
5800	11.444	3.0909	0.1	50.34
5801	11.26	3.0909	0.1	56.013
5802	11.075	3.0909	0.1	62.201
5803	10.891	3.0909	0.1	68.957
5804	10.706	3.0909	0.1	76.339
5805	10.521	3.0909	0.1	84.412
5806	10.337	3.0909	0.1	93.247
5807	10.152	3.0909	0.1	102.92
5808	9.9673	3.0909	0.1	113.52
5809	9.7827	3.0909	0.1	125.13
5810	9.598	3.0909	0.1	137.85
5811	9.4134	3.0909	0.1	151.79
5812	9.2288	3.0909	0.1	167.04
5813	9.0441	3.0909	0.1	183.71
5814	8.8595	3.0909	0.1	201.9
5815	8.6748	3.0909	0.1	221.67
5816	8.4902	3.0909	0.1	243.08
5817	8.3056	3.0909	0.1	266.14
5818	8.1209	3.0909	0.1	290.76
5819	7.9363	3.0909	0.1	316.76
5820	7.7516	3.0909	0.1	343.78
5821	7.567	3.0909	0.1	371.19
5822	7.3824	3.0909	0.1	397.99
5823	7.1977	3.0909	0.1	422.61
5824	7.0131	3.0909	0.1	442.64
5825	6.8284	3.0909	0.1	454.41
5826	6.6438	3.0909	0.1	452.49
5827	6.4592	3.0909	0.1	428.87
5828	6.2745	3.0909	0.1	372.33
5829	6.0899	3.0909	0.1	268.26
5830	5.9052	3.0909	0.1	101.03
5831	5.7206	3.0909	0.1	-1.0697
5832	5.5359	3.0909	0.1	-2.1627e-002
5833	5.3513	3.0909	0.1	0.35391
5834	23.815	3.2727	0.1	-0.20937
5835	23.631	3.2727	0.1	-0.3331
5836	23.446	3.2727	0.1	-0.14507
5837	23.261	3.2727	0.1	-0.12736
5838	23.077	3.2727	0.1	-9.5492e-002
5839	22.892	3.2727	0.1	-8.023e-002
5840	22.708	3.2727	0.1	-6.7887e-002
5841	22.523	3.2727	0.1	-5.9105e-002
5842	22.338	3.2727	0.1	-5.2216e-002
5843	22.154	3.2727	0.1	-4.6756e-002
5844	21.969	3.2727	0.1	-4.2297e-002
5845	21.784	3.2727	0.1	-3.8588e-002
5846	21.6	3.2727	0.1	-3.5444e-002
5847	21.415	3.2727	0.1	-3.275e-002
5848	21.23	3.2727	0.1	-3.0415e-002
5849	21.046	3.2727	0.1	-2.8365e-002
5850	20.861	3.2727	0.1	-2.6553e-002
5851	20.676	3.2727	0.1	-2.4941e-002
5852	20.492	3.2727	0.1	-2.3496e-002
5853	20.307	3.2727	0.1	-2.2195e-002
5854	20.123	3.2727	0.1	-2.1018e-002
5855	19.938	3.2727	0.1	-1.9947e-002
5856	19.753	3.2727	0.1	-1.897e-002
5857	19.569	3.2727	0.1	-1.8077e-002
5858	19.384	3.2727	0.1	-1.7256e-002
5859	19.199	3.2727	0.1	-1.65e-002
5860	19.015	3.2727	0.1	-1.58e-002
5861	18.83	3.2727	0.1	-1.5154e-002
5862	18.645	3.2727	0.1	-1.4553e-002
5863	18.461	3.2727	0.1	-1.3995e-002
5864	18.276	3.2727	0.1	-1.3472e-002
5865	18.092	3.2727	0.1	-1.2984e-002
5866	17.907	3.2727	0.1	-1.2526e-002
5867	17.722	3.2727	0.1	-1.2097e-002
5868	17.538	3.2727	0.1	-1.169e-002
5869	17.353	3.2727	0.1	-1.1309e-002
5870	17.168	3.2727	0.1	-1.0939e-002
5871	16.984	3.2727	0.1	-1.0592e-002
5872	16.799	3.2727	0.1	-1.028e-002
5873	16.614	3.2727	0.1	-9.9628e-003
5874	16.43	3.2727	0.1	-9.6547e-003
5875	16.245	3.2727	0.1	-9.3669e-003
5876	16.06	3.2727	0.1	-9.0844e-003
5877	15.876	3.2727	0.1	-8.8126e-003
5878	15.691	3.2727	0.1	-8.5439e-003
5879	15.507	3.2727	0.1	-8.2775e-003
5880	15.322	3.2727	0.1	-8.0075e-003
5881	15.137	3.2727	0.1	-7.7261e-003
5882	14.953	3.2727	0.1	-7.4036e-003
5883	14.768	3.2727	0.1	-6.9369e-003
5884	14.583	3.2727	0.1	-4.2972e-003
5885	14.399	3.2727	0.1	1.2365
5886	14.214	3.2727	0.1	2.9113
5887	14.029	3.2727	0.1	4.6913
5888	13.845	3.2727	0.1	6.5884
5889	13.66	3.2727	0.1	8.6156
5890	13.475	3.2727	0.1	10.787
5891	13.291	3.2727	0.1	13.118
5892	13.106	3.2727	0.1	15.624
5893	12.922	3.2727	0.1	18.324
5894	12.737	3.2727	0.1	21.238
5895	12.552	3.2727	0.1	24.386
5896	12.368	3.2727	0.1	27.793
5897	12.183	3.2727	0.1	31.483
5898	11.998	3.2727	0.1	35.485
5899	11.814	3.2727	0.1	39.831
5900	11.629	3.2727	0.1	44.554
5901	11.444	3.2727	0.1	49.692
5902	11.26	3.2727	0.1	55.287
5903	11.075	3.2727	0.1	61.386
5904	10.891	3.2727	0.1	68.04
5905	10.706	3.2727	0.1	75.303
5906	10.521	3.2727	0.1	83.24
5907	10.337	3.2727	0.1	91.916
5908	10.152	3.2727	0.1	101.41
5909	9.9673	3.2727	0.1	111.79
5910	9.7827	3.2727	0.1	123.16
5911	9.598	3.2727	0.1	135.59
5912	9.4134	3.2727	0.1	149.2
5913	9.2288	3.2727	0.1	164.06
5914	9.0441	3.2727	0.1	180.29
5915	8.8595	3.2727	0.1	197.96
5916	8.6748	3.2727	0.1	217.15
5917	8.4902	3.2727	0.1	237.9
5918	8.3056	3.2727	0.1	260.2
5919	8.1209	3.2727	0.1	283.98
5920	7.9363	3.2727	0.1	309.07
5921	7.7516	3.2727	0.1	335.1
5922	7.567	3.2727	0.1	361.51
5923	7.3824	3.2727	0.1	387.34
5924	7.1977	3.2727	0.1	411.14
5925	7.0131	3.2727	0.1	430.69
5926	6.8284	3.2727	0.1	442.63
5927	6.6438	3.2727	0.1	441.97
5928	6.4592	3.2727	0.1	421.37
5929	6.2745	3.2727	0.1	370.3
5930	6.0899	3.2727	0.1	274.34
5931	5.9052	3.2727	0.1	116.02
5932	5.7206	3.2727	0.1	-0.70787
5933	5.5359	3.2727	0.1	0.21576
5934	5.3513	3.2727	0.1	3.6379
5935	23.815	3.4545	0.1	-0.20649
5936	23.631	3.4545	0.1	-0.33173
5937	23.446	3.4545	0.1	-0.14413
5938	23.261	3.4545	0.1	-0.12653
5939	23.077	3.4545	0.1	-9.4755e-002
5940	22.892	3.4545	0.1	-7.9549e-002
5941	22.708	3.4545	0.1	-6.7239e-002
5942	22.523	3.4545	0.1	-5.8484e-002
5943	22.338	3.4545	0.1	-5.1611e-002
5944	22.154	3.4545	0.1	-4.6164e-002
5945	21.969	3.4545	0.1	-4.1715e-002
5946	21.784	3.4545	0.1	-3.8015e-002
5947	21.6	3.4545	0.1	-3.4879e-002
5948	21.415	3.4545	0.1	-3.2194e-002
5949	21.23	3.4545	0.1	-2.9867e-002
5950	21.046	3.4545	0.1	-2.7828e-002
5951	20.861	3.4545	0.1	-2.6027e-002
5952	20.676	3.4545	0.1	-2.4424e-002
5953	20.492	3.4545	0.1	-2.2988e-002
5954	20.307	3.4545	0.1	-2.1699e-002
5955	20.123	3.4545	0.1	-2.0531e-002
5956	19.938	3.4545	0.1	-1.9471e-002
5957	19.753	3.4545	0.1	-1.8506e-002
5958	19.569	3.4545	0.1	-1.762e-002
5959	19.384	3.4545	0.1	-1.6808e-002
5960	19.199	3.4545	0.1	-1.606e-002
5961	19.015	3.4545	0.1	-1.537e-002
5962	18.83	3.4545	0.1	-1.4731e-002
5963	18.645	3.4545	0.1	-1.4137e-002
5964	18.461	3.4545	0.1	-1.3585e-002
5965	18.276	3.4545	0.1	-1.3069e-002
5966	18.092	3.4545	0.1	-1.2586e-002
5967	17.907	3.4545	0.1	-1.2133e-002
5968	17.722	3.4545	0.1	-1.1707e-002
5969	17.538	3.4545	0.1	-1.1305e-002
5970	17.353	3.4545	0.1	-1.0927e-002
5971	17.168	3.4545	0.1	-1.0559e-002
5972	16.984	3.4545	0.1	-1.0214e-002
5973	16.799	3.4545	0.1	-9.901e-003
5974	16.614	3.4545	0.1	-9.5835e-003
5975	16.43	3.4545	0.1	-9.2743e-003
5976	16.245	3.4545	0.1	-8.9808e-003
5977	16.06	3.4545	0.1	-8.6934e-003
5978	15.876	3.4545	0.1	-8.4093e-003
5979	15.691	3.4545	0.1	-8.1244e-003
5980	15.507	3.4545	0.1	-7.8348e-003
5981	15.322	3.4545	0.1	-7.5259e-003
5982	15.137	3.4545	0.1	-7.1778e-003
5983	14.953	3.4545	0.1	-6.734e-003
5984	14.768	3.4545	0.1	-5.9685e-003
5985	14.583	3.4545	0.1	-2.3486e-003
5986	14.399	3.4545	0.1	0.97434
5987	14.214	3.4545	0.1	2.6208
5988	14.029	3.4545	0.1	4.3712
5989	13.845	3.4545	0.1	6.2362
5990	13.66	3.4545	0.1	8.2286
5991	13.475	3.4545	0.1	10.362
5992	13.291	3.4545	0.1	12.65
5993	13.106	3.4545	0.1	15.11
5994	12.922	3.4545	0.1	17.759
5995	12.737	3.4545	0.1	20.616
5996	12.552	3.4545	0.1	23.7
5997	12.368	3.4545	0.1	27.035
5998	12.183	3.4545	0.1	30.644
5999	11.998	3.4545	0.1	34.556
6000	11.814	3.4545	0.1	38.798
6001	11.629	3.4545	0.1	43.404
6002	11.444	3.4545	0.1	48.409
6003	11.26	3.4545	0.1	53.852
6004	11.075	3.4545	0.1	59.776
6005	10.891	3.4545	0.1	66.228
6006	10.706	3.4545	0.1	73.26
6007	10.521	3.4545	0.1	80.929
6008	10.337	3.4545	0.1	89.295
6009	10.152	3.4545	0.1	98.426
6010	9.9673	3.4545	0.1	108.39
6011	9.7827	3.4545	0.1	119.28
6012	9.598	3.4545	0.1	131.15
6013	9.4134	3.4545	0.1	144.11
6014	9.2288	3.4545	0.1	158.22
6015	9.0441	3.4545	0.1	173.58
6016	8.8595	3.4545	0.1	190.26
6017	8.6748	3.4545	0.1	208.3
6018	8.4902	3.4545	0.1	227.75
6019	8.3056	3.4545	0.1	248.59
6020	8.1209	3.4545	0.1	270.73
6021	7.9363	3.4545	0.1	294.02
6022	7.7516	3.4545	0.1	318.11
6023	7.567	3.4545	0.1	342.5
6024	7.3824	3.4545	0.1	366.33
6025	7.1977	3.4545	0.1	388.33
6026	7.0131	3.4545	0.1	406.58
6027	6.8284	3.4545	0.1	418.19
6028	6.6438	3.4545	0.1	418.92
6029	6.4592	3.4545	0.1	402.52
6030	6.2745	3.4545	0.1	359.86
6031	6.0899	3.4545	0.1	277.66
6032	5.9052	3.4545	0.1	137.16
6033	5.7206	3.4545	0.1	0.79237
6034	5.5359	3.4545	0.1	-0.36523
6035	5.3513	3.4545	0.1	-5.5168
6036	23.815	3.6364	0.1	-0.20209
6037	23.631	3.6364	0.1	-0.32961
6038	23.446	3.6364	0.1	-0.14266
6039	23.261	3.6364	0.1	-0.12525
6040	23.077	3.6364	0.1	-9.3604e-002
6041	22.892	3.6364	0.1	-7.8477e-002
6042	22.708	3.6364	0.1	-6.6226e-002
6043	22.523	3.6364	0.1	-5.7508e-002
6044	22.338	3.6364	0.1	-5.0662e-002
6045	22.154	3.6364	0.1	-4.5235e-002
6046	21.969	3.6364	0.1	-4.0804e-002
6047	21.784	3.6364	0.1	-3.712e-002
6048	21.6	3.6364	0.1	-3.3997e-002
6049	21.415	3.6364	0.1	-3.133e-002
6050	21.23	3.6364	0.1	-2.9019e-002
6051	21.046	3.6364	0.1	-2.6996e-002
6052	20.861	3.6364	0.1	-2.5211e-002
6053	20.676	3.6364	0.1	-2.3627e-002
6054	20.492	3.6364	0.1	-2.2208e-002
6055	20.307	3.6364	0.1	-2.0936e-002
6056	20.123	3.6364	0.1	-1.9786e-002
6057	19.938	3.6364	0.1	-1.8741e-002
6058	19.753	3.6364	0.1	-1.779e-002
6059	19.569	3.6364	0.1	-1.6922e-002
6060	19.384	3.6364	0.1	-1.6124e-002
6061	19.199	3.6364	0.1	-1.5391e-002
6062	19.015	3.6364	0.1	-1.4712e-002
6063	18.83	3.6364	0.1	-1.4086e-002
6064	18.645	3.6364	0.1	-1.3503e-002
6065	18.461	3.6364	0.1	-1.2961e-002
6066	18.276	3.6364	0.1	-1.2456e-002
6067	18.092	3.6364	0.1	-1.1981e-002
6068	17.907	3.6364	0.1	-1.1536e-002
6069	17.722	3.6364	0.1	-1.1118e-002
6070	17.538	3.6364	0.1	-1.0723e-002
6071	17.353	3.6364	0.1	-1.0349e-002
6072	17.168	3.6364	0.1	-9.9879e-003
6073	16.984	3.6364	0.1	-9.6444e-003
6074	16.799	3.6364	0.1	-9.3348e-003
6075	16.614	3.6364	0.1	-9.0164e-003
6076	16.43	3.6364	0.1	-8.7059e-003
6077	16.245	3.6364	0.1	-8.4098e-003
6078	16.06	3.6364	0.1	-8.1126e-003
6079	15.876	3.6364	0.1	-7.8167e-003
6080	15.691	3.6364	0.1	-7.5131e-003
6081	15.507	3.6364	0.1	-7.194e-003
6082	15.322	3.6364	0.1	-6.8411e-003
6083	15.137	3.6364	0.1	-6.4208e-003
6084	14.953	3.6364	0.1	-5.8469e-003
6085	14.768	3.6364	0.1	-4.8302e-003
6086	14.583	3.6364	0.1	-1.2315e-003
6087	14.399	3.6364	0.1	0.58647
6088	14.214	3.6364	0.1	2.1879
6089	14.029	3.6364	0.1	3.8942
6090	13.845	3.6364	0.1	5.7118
6091	13.66	3.6364	0.1	7.6524
6092	13.475	3.6364	0.1	9.729
6093	13.291	3.6364	0.1	11.955
6094	13.106	3.6364	0.1	14.347
6095	12.922	3.6364	0.1	16.92
6096	12.737	3.6364	0.1	19.692
6097	12.552	3.6364	0.1	22.682
6098	12.368	3.6364	0.1	25.911
6099	12.183	3.6364	0.1	29.403
6100	11.998	3.6364	0.1	33.181
6101	11.814	3.6364	0.1	37.273
6102	11.629	3.6364	0.1	41.707
6103	11.444	3.6364	0.1	46.518
6104	11.26	3.6364	0.1	51.738
6105	11.075	3.6364	0.1	57.408
6106	10.891	3.6364	0.1	63.568
6107	10.706	3.6364	0.1	70.263
6108	10.521	3.6364	0.1	77.544
6109	10.337	3.6364	0.1	85.462
6110	10.152	3.6364	0.1	94.075
6111	9.9673	3.6364	0.1	103.44
6112	9.7827	3.6364	0.1	113.63
6113	9.598	3.6364	0.1	124.7
6114	9.4134	3.6364	0.1	136.72
6115	9.2288	3.6364	0.1	149.75
6116	9.0441	3.6364	0.1	163.87
6117	8.8595	3.6364	0.1	179.11
6118	8.6748	3.6364	0.1	195.52
6119	8.4902	3.6364	0.1	213.1
6120	8.3056	3.6364	0.1	231.82
6121	8.1209	3.6364	0.1	251.6
6122	7.9363	3.6364	0.1	272.27
6123	7.7516	3.6364	0.1	293.53
6124	7.567	3.6364	0.1	314.89
6125	7.3824	3.6364	0.1	335.63
6126	7.1977	3.6364	0.1	354.63
6127	7.0131	3.6364	0.1	370.25
6128	6.8284	3.6364	0.1	380.06
6129	6.6438	3.6364	0.1	380.51
6130	6.4592	3.6364	0.1	366.4
6131	6.2745	3.6364	0.1	330.08
6132	6.0899	3.6364	0.1	260.25
6133	5.9052	3.6364	0.1	139.53
6134	5.7206	3.6364	0.1	-6.048
6135	5.5359	3.6364	0.1	11.02
6136	5.3513	3.6364	0.1	20.878
6137	23.815	3.8182	0.1	-0.19603
6138	23.631	3.8182	0.1	-0.32665
6139	23.446	3.8182	0.1	-0.14059
6140	23.261	3.8182	0.1	-0.12344
6141	23.077	3.8182	0.1	-9.1983e-002
6142	22.892	3.8182	0.1	-7.6966e-002
6143	22.708	3.8182	0.1	-6.4793e-002
6144	22.523	3.8182	0.1	-5.6127e-002
6145	22.338	3.8182	0.1	-4.932e-002
6146	22.154	3.8182	0.1	-4.3925e-002
6147	21.969	3.8182	0.1	-3.9518e-002
6148	21.784	3.8182	0.1	-3.586e-002
6149	21.6	3.8182	0.1	-3.2762e-002
6150	21.415	3.8182	0.1	-3.0119e-002
6151	21.23	3.8182	0.1	-2.7836e-002
6152	21.046	3.8182	0.1	-2.5838e-002
6153	20.861	3.8182	0.1	-2.4081e-002
6154	20.676	3.8182	0.1	-2.2522e-002
6155	20.492	3.8182	0.1	-2.1133e-002
6156	20.307	3.8182	0.1	-1.9885e-002
6157	20.123	3.8182	0.1	-1.8759e-002
6158	19.938	3.8182	0.1	-1.7741e-002
6159	19.753	3.8182	0.1	-1.6812e-002
6160	19.569	3.8182	0.1	-1.5966e-002
6161	19.384	3.8182	0.1	-1.5189e-002
6162	19.199	3.8182	0.1	-1.4477e-002
6163	19.015	3.8182	0.1	-1.3815e-002
6164	18.83	3.8182	0.1	-1.3208e-002
6165	18.645	3.8182	0.1	-1.2641e-002
6166	18.461	3.8182	0.1	-1.2117e-002
6167	18.276	3.8182	0.1	-1.1625e-002
6168	18.092	3.8182	0.1	-1.1164e-002
6169	17.907	3.8182	0.1	-1.0733e-002
6170	17.722	3.8182	0.1	-1.0324e-002
6171	17.538	3.8182	0.1	-9.9406e-003
6172	17.353	3.8182	0.1	-9.577e-003
6173	17.168	3.8182	0.1	-9.2216e-003
6174	16.984	3.8182	0.1	-8.8871e-003
6175	16.799	3.8182	0.1	-8.5806e-003
6176	16.614	3.8182	0.1	-8.2677e-003
6177	16.43	3.8182	0.1	-7.957e-003
6178	16.245	3.8182	0.1	-7.6576e-003
6179	16.06	3.8182	0.1	-7.358e-003
6180	15.876	3.8182	0.1	-7.0509e-003
6181	15.691	3.8182	0.1	-6.7324e-003
6182	15.507	3.8182	0.1	-6.3851e-003
6183	15.322	3.8182	0.1	-5.9928e-003
6184	15.137	3.8182	0.1	-5.511e-003
6185	14.953	3.8182	0.1	-4.8431e-003
6186	14.768	3.8182	0.1	-3.6926e-003
6187	14.583	3.8182	0.1	-5.5745e-004
6188	14.399	3.8182	0.1	0.12196
6189	14.214	3.8182	0.1	1.6167
6190	14.029	3.8182	0.1	3.2644
6191	13.845	3.8182	0.1	5.0196
6192	13.66	3.8182	0.1	6.8924
6193	13.475	3.8182	0.1	8.895
6194	13.291	3.8182	0.1	11.04
6195	13.106	3.8182	0.1	13.342
6196	12.922	3.8182	0.1	15.816
6197	12.737	3.8182	0.1	18.478
6198	12.552	3.8182	0.1	21.346
6199	12.368	3.8182	0.1	24.439
6200	12.183	3.8182	0.1	27.777
6201	11.998	3.8182	0.1	31.383
6202	11.814	3.8182	0.1	35.281
6203	11.629	3.8182	0.1	39.496
6204	11.444	3.8182	0.1	44.056
6205	11.26	3.8182	0.1	48.992
6206	11.075	3.8182	0.1	54.337
6207	10.891	3.8182	0.1	60.124
6208	10.706	3.8182	0.1	66.392
6209	10.521	3.8182	0.1	73.18
6210	10.337	3.8182	0.1	80.53
6211	10.152	3.8182	0.1	88.486
6212	9.9673	3.8182	0.1	97.096
6213	9.7827	3.8182	0.1	106.4
6214	9.598	3.8182	0.1	116.46
6215	9.4134	3.8182	0.1	127.31
6216	9.2288	3.8182	0.1	138.99
6217	9.0441	3.8182	0.1	151.54
6218	8.8595	3.8182	0.1	164.99
6219	8.6748	3.8182	0.1	179.34
6220	8.4902	3.8182	0.1	194.58
6221	8.3056	3.8182	0.1	210.66
6222	8.1209	3.8182	0.1	227.46
6223	7.9363	3.8182	0.1	244.82
6224	7.7516	3.8182	0.1	262.44
6225	7.567	3.8182	0.1	279.87
6226	7.3824	3.8182	0.1	296.45
6227	7.1977	3.8182	0.1	311.15
6228	7.0131	3.8182	0.1	322.5
6229	6.8284	3.8182	0.1	328.27
6230	6.6438	3.8182	0.1	325.21
6231	6.4592	3.8182	0.1	308.49
6232	6.2745	3.8182	0.1	270.79
6233	6.0899	3.8182	0.1	201.8
6234	5.9052	3.8182	0.1	83.567
6235	5.7206	3.8182	0.1	11.055
6236	5.5359	3.8182	0.1	-42.323
6237	5.3513	3.8182	0.1	8.6905
6238	23.815	4.	0.1	-0.18812
6239	23.631	4.	0.1	-0.32272
6240	23.446	4.	0.1	-0.13783
6241	23.261	4.	0.1	-0.12101
6242	23.077	4.	0.1	-8.98e-002
6243	22.892	4.	0.1	-7.4926e-002
6244	22.708	4.	0.1	-6.2855e-002
6245	22.523	4.	0.1	-5.4262e-002
6246	22.338	4.	0.1	-4.7509e-002
6247	22.154	4.	0.1	-4.2157e-002
6248	21.969	4.	0.1	-3.7793e-002
6249	21.784	4.	0.1	-3.4172e-002
6250	21.6	4.	0.1	-3.1115e-002
6251	21.415	4.	0.1	-2.851e-002
6252	21.23	4.	0.1	-2.6268e-002
6253	21.046	4.	0.1	-2.4311e-002
6254	20.861	4.	0.1	-2.2592e-002
6255	20.676	4.	0.1	-2.1074e-002
6256	20.492	4.	0.1	-1.9721e-002
6257	20.307	4.	0.1	-1.8511e-002
6258	20.123	4.	0.1	-1.7424e-002
6259	19.938	4.	0.1	-1.6437e-002
6260	19.753	4.	0.1	-1.5545e-002
6261	19.569	4.	0.1	-1.473e-002
6262	19.384	4.	0.1	-1.3983e-002
6263	19.199	4.	0.1	-1.3298e-002
6264	19.015	4.	0.1	-1.2667e-002
6265	18.83	4.	0.1	-1.2082e-002
6266	18.645	4.	0.1	-1.1541e-002
6267	18.461	4.	0.1	-1.1038e-002
6268	18.276	4.	0.1	-1.0567e-002
6269	18.092	4.	0.1	-1.0127e-002
6270	17.907	4.	0.1	-9.7135e-003
6271	17.722	4.	0.1	-9.3245e-003
6272	17.538	4.	0.1	-8.9539e-003
6273	17.353	4.	0.1	-8.6043e-003
6274	17.168	4.	0.1	-8.2634e-003
6275	16.984	4.	0.1	-7.9396e-003
6276	16.799	4.	0.1	-7.6447e-003
6277	16.614	4.	0.1	-7.3377e-003
6278	16.43	4.	0.1	-7.0343e-003
6279	16.245	4.	0.1	-6.7391e-003
6280	16.06	4.	0.1	-6.4377e-003
6281	15.876	4.	0.1	-6.1281e-003
6282	15.691	4.	0.1	-5.8005e-003
6283	15.507	4.	0.1	-5.439e-003
6284	15.322	4.	0.1	-5.0228e-003
6285	15.137	4.	0.1	-4.5072e-003
6286	14.953	4.	0.1	-3.7983e-003
6287	14.768	4.	0.1	-2.6456e-003
6288	14.583	4.	0.1	-9.3252e-005
6289	14.399	4.	0.1	1.3912e-002
6290	14.214	4.	0.1	0.91478
6291	14.029	4.	0.1	2.487
6292	13.845	4.	0.1	4.1654
6293	13.66	4.	0.1	5.9553
6294	13.475	4.	0.1	7.8675
6295	13.291	4.	0.1	9.9137
6296	13.106	4.	0.1	12.107
6297	12.922	4.	0.1	14.461
6298	12.737	4.	0.1	16.99
6299	12.552	4.	0.1	19.71
6300	12.368	4.	0.1	22.638
6301	12.183	4.	0.1	25.792
6302	11.998	4.	0.1	29.192
6303	11.814	4.	0.1	32.857
6304	11.629	4.	0.1	36.809
6305	11.444	4.	0.1	41.072
6306	11.26	4.	0.1	45.671
6307	11.075	4.	0.1	50.631
6308	10.891	4.	0.1	55.979
6309	10.706	4.	0.1	61.743
6310	10.521	4.	0.1	67.954
6311	10.337	4.	0.1	74.64
6312	10.152	4.	0.1	81.832
6313	9.9673	4.	0.1	89.558
6314	9.7827	4.	0.1	97.849
6315	9.598	4.	0.1	106.73
6316	9.4134	4.	0.1	116.22
6317	9.2288	4.	0.1	126.34
6318	9.0441	4.	0.1	137.09
6319	8.8595	4.	0.1	148.48
6320	8.6748	4.	0.1	160.47
6321	8.4902	4.	0.1	173.02
6322	8.3056	4.	0.1	186.05
6323	8.1209	4.	0.1	199.43
6324	7.9363	4.	0.1	212.96
6325	7.7516	4.	0.1	226.33
6326	7.567	4.	0.1	239.11
6327	7.3824	4.	0.1	250.64
6328	7.1977	4.	0.1	259.9
6329	7.0131	4.	0.1	265.42
6330	6.8284	4.	0.1	264.9
6331	6.6438	4.	0.1	254.83
6332	6.4592	4.	0.1	229.78
6333	6.2745	4.	0.1	181.19
6334	6.0899	4.	0.1	97.704
6335	5.9052	4.	0.1	10.882
6336	5.7206	4.	0.1	20.557
6337	5.5359	4.	0.1	-90.573
6338	5.3513	4.	0.1	673.39
6339	23.815	4.1818	0.1	-0.1781
6340	23.631	4.1818	0.1	-0.3176
6341	23.446	4.1818	0.1	-0.13421
6342	23.261	4.1818	0.1	-0.11781
6343	23.077	4.1818	0.1	-8.6912e-002
6344	22.892	4.1818	0.1	-7.2228e-002
6345	22.708	4.1818	0.1	-6.0288e-002
6346	22.523	4.1818	0.1	-5.179e-002
6347	22.338	4.1818	0.1	-4.5115e-002
6348	22.154	4.1818	0.1	-3.983e-002
6349	21.969	4.1818	0.1	-3.5528e-002
6350	21.784	4.1818	0.1	-3.1968e-002
6351	21.6	4.1818	0.1	-2.8973e-002
6352	21.415	4.1818	0.1	-2.643e-002
6353	21.23	4.1818	0.1	-2.4247e-002
6354	21.046	4.1818	0.1	-2.2349e-002
6355	20.861	4.1818	0.1	-2.0692e-002
6356	20.676	4.1818	0.1	-1.923e-002
6357	20.492	4.1818	0.1	-1.7934e-002
6358	20.307	4.1818	0.1	-1.6777e-002
6359	20.123	4.1818	0.1	-1.5738e-002
6360	19.938	4.1818	0.1	-1.4802e-002
6361	19.753	4.1818	0.1	-1.3955e-002
6362	19.569	4.1818	0.1	-1.3183e-002
6363	19.384	4.1818	0.1	-1.248e-002
6364	19.199	4.1818	0.1	-1.1834e-002
6365	19.015	4.1818	0.1	-1.124e-002
6366	18.83	4.1818	0.1	-1.069e-002
6367	18.645	4.1818	0.1	-1.0182e-002
6368	18.461	4.1818	0.1	-9.7098e-003
6369	18.276	4.1818	0.1	-9.2687e-003
6370	18.092	4.1818	0.1	-8.8565e-003
6371	17.907	4.1818	0.1	-8.4699e-003
6372	17.722	4.1818	0.1	-8.104e-003
6373	17.538	4.1818	0.1	-7.7587e-003
6374	17.353	4.1818	0.1	-7.4302e-003
6375	17.168	4.1818	0.1	-7.111e-003
6376	16.984	4.1818	0.1	-6.8057e-003
6377	16.799	4.1818	0.1	-6.5247e-003
6378	16.614	4.1818	0.1	-6.2367e-003
6379	16.43	4.1818	0.1	-5.945e-003
6380	16.245	4.1818	0.1	-5.6618e-003
6381	16.06	4.1818	0.1	-5.3712e-003
6382	15.876	4.1818	0.1	-5.0685e-003
6383	15.691	4.1818	0.1	-4.7446e-003
6384	15.507	4.1818	0.1	-4.3857e-003
6385	15.322	4.1818	0.1	-3.9702e-003
6386	15.137	4.1818	0.1	-3.4555e-003
6387	14.953	4.1818	0.1	-2.7651e-003
6388	14.768	4.1818	0.1	-1.7104e-003
6389	14.583	4.1818	0.1	2.7492e-004
6390	14.399	4.1818	0.1	6.0802e-003
6391	14.214	4.1818	0.1	0.15718
6392	14.029	4.1818	0.1	1.5697
6393	13.845	4.1818	0.1	3.1564
6394	13.66	4.1818	0.1	4.8492
6395	13.475	4.1818	0.1	6.6559
6396	13.291	4.1818	0.1	8.5869
6397	13.106	4.1818	0.1	10.654
6398	12.922	4.1818	0.1	12.868
6399	12.737	4.1818	0.1	15.244
6400	12.552	4.1818	0.1	17.794
6401	12.368	4.1818	0.1	20.532
6402	12.183	4.1818	0.1	23.476
6403	11.998	4.1818	0.1	26.639
6404	11.814	4.1818	0.1	30.039
6405	11.629	4.1818	0.1	33.694
6406	11.444	4.1818	0.1	37.622
6407	11.26	4.1818	0.1	41.841
6408	11.075	4.1818	0.1	46.369
6409	10.891	4.1818	0.1	51.227
6410	10.706	4.1818	0.1	56.432
6411	10.521	4.1818	0.1	62.002
6412	10.337	4.1818	0.1	67.955
6413	10.152	4.1818	0.1	74.305
6414	9.9673	4.1818	0.1	81.065
6415	9.7827	4.1818	0.1	88.243
6416	9.598	4.1818	0.1	95.843
6417	9.4134	4.1818	0.1	103.86
6418	9.2288	4.1818	0.1	112.29
6419	9.0441	4.1818	0.1	121.1
6420	8.8595	4.1818	0.1	130.26
6421	8.6748	4.1818	0.1	139.71
6422	8.4902	4.1818	0.1	149.36
6423	8.3056	4.1818	0.1	159.12
6424	8.1209	4.1818	0.1	168.81
6425	7.9363	4.1818	0.1	178.2
6426	7.7516	4.1818	0.1	186.99
6427	7.567	4.1818	0.1	194.7
6428	7.3824	4.1818	0.1	200.65
6429	7.1977	4.1818	0.1	203.8
6430	7.0131	4.1818	0.1	202.56
6431	6.8284	4.1818	0.1	194.41
6432	6.6438	4.1818	0.1	175.33
6433	6.4592	4.1818	0.1	138.98
6434	6.2745	4.1818	0.1	76.81
6435	6.0899	4.1818	0.1	15.997
6436	5.9052	4.1818	0.1	6.2721
6437	5.7206	4.1818	0.1	9.4585
6438	5.5359	4.1818	0.1	-10.767
6439	5.3513	4.1818	0.1	178.13
6440	23.815	4.3636	0.1	-0.16556
6441	23.631	4.3636	0.1	-0.311
6442	23.446	4.3636	0.1	-0.12949
6443	23.261	4.3636	0.1	-0.11363
6444	23.077	4.3636	0.1	-8.3129e-002
6445	22.892	4.3636	0.1	-6.868e-002
6446	22.708	4.3636	0.1	-5.691e-002
6447	22.523	4.3636	0.1	-4.8547e-002
6448	22.338	4.3636	0.1	-4.1981e-002
6449	22.154	4.3636	0.1	-3.6799e-002
6450	21.969	4.3636	0.1	-3.2596e-002
6451	21.784	4.3636	0.1	-2.9133e-002
6452	21.6	4.3636	0.1	-2.623e-002
6453	21.415	4.3636	0.1	-2.3783e-002
6454	21.23	4.3636	0.1	-2.1687e-002
6455	21.046	4.3636	0.1	-1.988e-002
6456	20.861	4.3636	0.1	-1.8307e-002
6457	20.676	4.3636	0.1	-1.6926e-002
6458	20.492	4.3636	0.1	-1.5708e-002
6459	20.307	4.3636	0.1	-1.4626e-002
6460	20.123	4.3636	0.1	-1.3659e-002
6461	19.938	4.3636	0.1	-1.2791e-002
6462	19.753	4.3636	0.1	-1.2006e-002
6463	19.569	4.3636	0.1	-1.1295e-002
6464	19.384	4.3636	0.1	-1.0646e-002
6465	19.199	4.3636	0.1	-1.0055e-002
6466	19.015	4.3636	0.1	-9.5104e-003
6467	18.83	4.3636	0.1	-9.0105e-003
6468	18.645	4.3636	0.1	-8.5464e-003
6469	18.461	4.3636	0.1	-8.1175e-003
6470	18.276	4.3636	0.1	-7.7183e-003
6471	18.092	4.3636	0.1	-7.3423e-003
6472	17.907	4.3636	0.1	-6.9934e-003
6473	17.722	4.3636	0.1	-6.6629e-003
6474	17.538	4.3636	0.1	-6.35e-003
6475	17.353	4.3636	0.1	-6.0536e-003
6476	17.168	4.3636	0.1	-5.7622e-003
6477	16.984	4.3636	0.1	-5.4858e-003
6478	16.799	4.3636	0.1	-5.2332e-003
6479	16.614	4.3636	0.1	-4.9695e-003
6480	16.43	4.3636	0.1	-4.7027e-003
6481	16.245	4.3636	0.1	-4.4421e-003
6482	16.06	4.3636	0.1	-4.1741e-003
6483	15.876	4.3636	0.1	-3.8935e-003
6484	15.691	4.3636	0.1	-3.5916e-003
6485	15.507	4.3636	0.1	-3.2566e-003
6486	15.322	4.3636	0.1	-2.8681e-003
6487	15.137	4.3636	0.1	-2.3941e-003
6488	14.953	4.3636	0.1	-1.7742e-003
6489	14.768	4.3636	0.1	-8.8089e-004
6490	14.583	4.3636	0.1	5.9957e-004
6491	14.399	4.3636	0.1	3.7406e-003
6492	14.214	4.3636	0.1	1.5962e-002
6493	14.029	4.3636	0.1	0.53634
6494	13.845	4.3636	0.1	2.0022
6495	13.66	4.3636	0.1	3.5837
6496	13.475	4.3636	0.1	5.2711
6497	13.291	4.3636	0.1	7.0723
6498	13.106	4.3636	0.1	8.997
6499	12.922	4.3636	0.1	11.056
6500	12.737	4.3636	0.1	13.259
6501	12.552	4.3636	0.1	15.62
6502	12.368	4.3636	0.1	18.149
6503	12.183	4.3636	0.1	20.859
6504	11.998	4.3636	0.1	23.763
6505	11.814	4.3636	0.1	26.873
6506	11.629	4.3636	0.1	30.204
6507	11.444	4.3636	0.1	33.766
6508	11.26	4.3636	0.1	37.574
6509	11.075	4.3636	0.1	41.639
6510	10.891	4.3636	0.1	45.972
6511	10.706	4.3636	0.1	50.581
6512	10.521	4.3636	0.1	55.473
6513	10.337	4.3636	0.1	60.653
6514	10.152	4.3636	0.1	66.119
6515	9.9673	4.3636	0.1	71.869
6516	9.7827	4.3636	0.1	77.89
6517	9.598	4.3636	0.1	84.164
6518	9.4134	4.3636	0.1	90.663
6519	9.2288	4.3636	0.1	97.349
6520	9.0441	4.3636	0.1	104.17
6521	8.8595	4.3636	0.1	111.05
6522	8.6748	4.3636	0.1	117.91
6523	8.4902	4.3636	0.1	124.63
6524	8.3056	4.3636	0.1	131.06
6525	8.1209	4.3636	0.1	137.01
6526	7.9363	4.3636	0.1	142.24
6527	7.7516	4.3636	0.1	146.39
6528	7.567	4.3636	0.1	148.99
6529	7.3824	4.3636	0.1	149.34
6530	7.1977	4.3636	0.1	146.38
6531	7.0131	4.3636	0.1	138.46
6532	6.8284	4.3636	0.1	122.96
6533	6.6438	4.3636	0.1	95.805
6534	6.4592	4.3636	0.1	52.401
6535	6.2745	4.3636	0.1	13.293
6536	6.0899	4.3636	0.1	6.5802
6537	5.9052	4.3636	0.1	3.3605
6538	5.7206	4.3636	0.1	13.531
6539	5.5359	4.3636	0.1	-2.4437
6540	5.3513	4.3636	0.1	-12.885
6541	23.815	4.5455	0.1	-0.14986
6542	23.631	4.5455	0.1	-0.30245
6543	23.446	4.5455	0.1	-0.1233
6544	23.261	4.5455	0.1	-0.10812
6545	23.077	4.5455	0.1	-7.8119e-002
6546	22.892	4.5455	0.1	-6.3976e-002
6547	22.708	4.5455	0.1	-5.2443e-002
6548	22.523	4.5455	0.1	-4.4268e-002
6549	22.338	4.5455	0.1	-3.7874e-002
6550	22.154	4.5455	0.1	-3.2854e-002
6551	21.969	4.5455	0.1	-2.8806e-002
6552	21.784	4.5455	0.1	-2.5495e-002
6553	21.6	4.5455	0.1	-2.2739e-002
6554	21.415	4.5455	0.1	-2.0428e-002
6555	21.23	4.5455	0.1	-1.8473e-002
6556	21.046	4.5455	0.1	-1.6792e-002
6557	20.861	4.5455	0.1	-1.5342e-002
6558	20.676	4.5455	0.1	-1.4078e-002
6559	20.492	4.5455	0.1	-1.2971e-002
6560	20.307	4.5455	0.1	-1.1991e-002
6561	20.123	4.5455	0.1	-1.1123e-002
6562	19.938	4.5455	0.1	-1.0346e-002
6563	19.753	4.5455	0.1	-9.6477e-003
6564	19.569	4.5455	0.1	-9.0181e-003
6565	19.384	4.5455	0.1	-8.4494e-003
6566	19.199	4.5455	0.1	-7.9285e-003
6567	19.015	4.5455	0.1	-7.4519e-003
6568	18.83	4.5455	0.1	-7.0172e-003
6569	18.645	4.5455	0.1	-6.6133e-003
6570	18.461	4.5455	0.1	-6.2438e-003
6571	18.276	4.5455	0.1	-5.8995e-003
6572	18.092	4.5455	0.1	-5.5762e-003
6573	17.907	4.5455	0.1	-5.2753e-003
6574	17.722	4.5455	0.1	-4.9928e-003
6575	17.538	4.5455	0.1	-4.7255e-003
6576	17.353	4.5455	0.1	-4.4725e-003
6577	17.168	4.5455	0.1	-4.2235e-003
6578	16.984	4.5455	0.1	-3.9866e-003
6579	16.799	4.5455	0.1	-3.7752e-003
6580	16.614	4.5455	0.1	-3.5482e-003
6581	16.43	4.5455	0.1	-3.3201e-003
6582	16.245	4.5455	0.1	-3.0964e-003
6583	16.06	4.5455	0.1	-2.8662e-003
6584	15.876	4.5455	0.1	-2.6245e-003
6585	15.691	4.5455	0.1	-2.3645e-003
6586	15.507	4.5455	0.1	-2.0755e-003
6587	15.322	4.5455	0.1	-1.7436e-003
6588	15.137	4.5455	0.1	-1.3431e-003
6589	14.953	4.5455	0.1	-8.3521e-004
6590	14.768	4.5455	0.1	-1.3893e-004
6591	14.583	4.5455	0.1	9.089e-004
6592	14.399	4.5455	0.1	2.7398e-003
6593	14.214	4.5455	0.1	6.9125e-003
6594	14.029	4.5455	0.1	2.6481e-002
6595	13.845	4.5455	0.1	0.72437
6596	13.66	4.5455	0.1	2.1704
6597	13.475	4.5455	0.1	3.725
6598	13.291	4.5455	0.1	5.3834
6599	13.106	4.5455	0.1	7.1525
6600	12.922	4.5455	0.1	9.0411
6601	12.737	4.5455	0.1	11.058
6602	12.552	4.5455	0.1	13.213
6603	12.368	4.5455	0.1	15.516
6604	12.183	4.5455	0.1	17.975
6605	11.998	4.5455	0.1	20.601
6606	11.814	4.5455	0.1	23.404
6607	11.629	4.5455	0.1	26.39
6608	11.444	4.5455	0.1	29.57
6609	11.26	4.5455	0.1	32.948
6610	11.075	4.5455	0.1	36.531
6611	10.891	4.5455	0.1	40.321
6612	10.706	4.5455	0.1	44.318
6613	10.521	4.5455	0.1	48.518
6614	10.337	4.5455	0.1	52.914
6615	10.152	4.5455	0.1	57.491
6616	9.9673	4.5455	0.1	62.229
6617	9.7827	4.5455	0.1	67.099
6618	9.598	4.5455	0.1	72.062
6619	9.4134	4.5455	0.1	77.067
6620	9.2288	4.5455	0.1	82.05
6621	9.0441	4.5455	0.1	86.931
6622	8.8595	4.5455	0.1	91.611
6623	8.6748	4.5455	0.1	95.971
6624	8.4902	4.5455	0.1	99.866
6625	8.3056	4.5455	0.1	103.12
6626	8.1209	4.5455	0.1	105.52
6627	7.9363	4.5455	0.1	106.79
6628	7.7516	4.5455	0.1	106.58
6629	7.567	4.5455	0.1	104.44
6630	7.3824	4.5455	0.1	99.687
6631	7.1977	4.5455	0.1	91.354
6632	7.0131	4.5455	0.1	77.965
6633	6.8284	4.5455	0.1	57.467
6634	6.6438	4.5455	0.1	29.176
6635	6.4592	4.5455	0.1	9.5162
6636	6.2745	4.5455	0.1	5.1193
6637	6.0899	4.5455	0.1	4.1051
6638	5.9052	4.5455	0.1	4.0821
6639	5.7206	4.5455	0.1	4.5663
6640	5.5359	4.5455	0.1	2.1879
6641	5.3513	4.5455	0.1	29.854
6642	23.815	4.7273	0.1	-0.13015
6643	23.631	4.7273	0.1	-0.29129
6644	23.446	4.7273	0.1	-0.11513
6645	23.261	4.7273	0.1	-0.10079
6646	23.077	4.7273	0.1	-7.1438e-002
6647	22.892	4.7273	0.1	-5.7711e-002
6648	22.708	4.7273	0.1	-4.6512e-002
6649	22.523	4.7273	0.1	-3.8627e-002
6650	22.338	4.7273	0.1	-3.2503e-002
6651	22.154	4.7273	0.1	-2.774e-002
6652	21.969	4.7273	0.1	-2.3937e-002
6653	21.784	4.7273	0.1	-2.0859e-002
6654	21.6	4.7273	0.1	-1.8327e-002
6655	21.415	4.7273	0.1	-1.6228e-002
6656	21.23	4.7273	0.1	-1.4469e-002
6657	21.046	4.7273	0.1	-1.2975e-002
6658	20.861	4.7273	0.1	-1.17e-002
6659	20.676	4.7273	0.1	-1.0599e-002
6660	20.492	4.7273	0.1	-9.6428e-003
6661	20.307	4.7273	0.1	-8.8063e-003
6662	20.123	4.7273	0.1	-8.0709e-003
6663	19.938	4.7273	0.1	-7.4189e-003
6664	19.753	4.7273	0.1	-6.8382e-003
6665	19.569	4.7273	0.1	-6.3189e-003
6666	19.384	4.7273	0.1	-5.8503e-003
6667	19.199	4.7273	0.1	-5.4286e-003
6668	19.015	4.7273	0.1	-5.0414e-003
6669	18.83	4.7273	0.1	-4.6926e-003
6670	18.645	4.7273	0.1	-4.3727e-003
6671	18.461	4.7273	0.1	-4.078e-003
6672	18.276	4.7273	0.1	-3.8059e-003
6673	18.092	4.7273	0.1	-3.5533e-003
6674	17.907	4.7273	0.1	-3.3183e-003
6675	17.722	4.7273	0.1	-3.0981e-003
6676	17.538	4.7273	0.1	-2.8899e-003
6677	17.353	4.7273	0.1	-2.6969e-003
6678	17.168	4.7273	0.1	-2.5044e-003
6679	16.984	4.7273	0.1	-2.3214e-003
6680	16.799	4.7273	0.1	-2.163e-003
6681	16.614	4.7273	0.1	-1.9896e-003
6682	16.43	4.7273	0.1	-1.8144e-003
6683	16.245	4.7273	0.1	-1.6455e-003
6684	16.06	4.7273	0.1	-1.4696e-003
6685	15.876	4.7273	0.1	-1.2865e-003
6686	15.691	4.7273	0.1	-1.089e-003
6687	15.507	4.7273	0.1	-8.6997e-004
6688	15.322	4.7273	0.1	-6.1969e-004
6689	15.137	4.7273	0.1	-3.2102e-004
6690	14.953	4.7273	0.1	4.9986e-005
6691	14.768	4.7273	0.1	5.3731e-004
6692	14.583	4.7273	0.1	1.2221e-003
6693	14.399	4.7273	0.1	2.2778e-003
6694	14.214	4.7273	0.1	4.1468e-003
6695	14.029	4.7273	0.1	8.3963e-003
6696	13.845	4.7273	0.1	2.7095e-002
6697	13.66	4.7273	0.1	0.63857
6698	13.475	4.7273	0.1	2.0324
6699	13.291	4.7273	0.1	3.5351
6700	13.106	4.7273	0.1	5.1369
6701	12.922	4.7273	0.1	6.8434
6702	12.737	4.7273	0.1	8.6616
6703	12.552	4.7273	0.1	10.599
6704	12.368	4.7273	0.1	12.662
6705	12.183	4.7273	0.1	14.859
6706	11.998	4.7273	0.1	17.195
6707	11.814	4.7273	0.1	19.677
6708	11.629	4.7273	0.1	22.309
6709	11.444	4.7273	0.1	25.095
6710	11.26	4.7273	0.1	28.037
6711	11.075	4.7273	0.1	31.133
6712	10.891	4.7273	0.1	34.379
6713	10.706	4.7273	0.1	37.768
6714	10.521	4.7273	0.1	41.287
6715	10.337	4.7273	0.1	44.917
6716	10.152	4.7273	0.1	48.633
6717	9.9673	4.7273	0.1	52.4
6718	9.7827	4.7273	0.1	56.174
6719	9.598	4.7273	0.1	59.898
6720	9.4134	4.7273	0.1	63.503
6721	9.2288	4.7273	0.1	66.903
6722	9.0441	4.7273	0.1	69.996
6723	8.8595	4.7273	0.1	72.658
6724	8.6748	4.7273	0.1	74.746
6725	8.4902	4.7273	0.1	76.09
6726	8.3056	4.7273	0.1	76.494
6727	8.1209	4.7273	0.1	75.729
6728	7.9363	4.7273	0.1	73.525
6729	7.7516	4.7273	0.1	69.554
6730	7.567	4.7273	0.1	63.409
6731	7.3824	4.7273	0.1	54.572
6732	7.1977	4.7273	0.1	42.419
6733	7.0131	4.7273	0.1	26.7
6734	6.8284	4.7273	0.1	11.525
6735	6.6438	4.7273	0.1	5.4942
6736	6.4592	4.7273	0.1	3.8075
6737	6.2745	4.7273	0.1	3.2081
6738	6.0899	4.7273	0.1	3.0705
6739	5.9052	4.7273	0.1	3.1923
6740	5.7206	4.7273	0.1	4.038
6741	5.5359	4.7273	0.1	1.0712
6742	5.3513	4.7273	0.1	9.4679
6743	23.815	4.9091	0.1	-0.10447
6744	23.631	4.9091	0.1	-0.27603
6745	23.446	4.9091	0.1	-0.10374
6746	23.261	4.9091	0.1	-9.0557e-002
6747	23.077	4.9091	0.1	-6.2107e-002
6748	22.892	4.9091	0.1	-4.9004e-002
6749	22.708	4.9091	0.1	-3.8348e-002
6750	22.523	4.9091	0.1	-3.0952e-002
6751	22.338	4.9091	0.1	-2.5283e-002
6752	22.154	4.9091	0.1	-2.0945e-002
6753	21.969	4.9091	0.1	-1.7542e-002
6754	21.784	4.9091	0.1	-1.4834e-002
6755	21.6	4.9091	0.1	-1.2647e-002
6756	21.415	4.9091	0.1	-1.0868e-002
6757	21.23	4.9091	0.1	-9.4045e-003
6758	21.046	4.9091	0.1	-8.184e-003
6759	20.861	4.9091	0.1	-7.1601e-003
6760	20.676	4.9091	0.1	-6.292e-003
6761	20.492	4.9091	0.1	-5.552e-003
6762	20.307	4.9091	0.1	-4.9149e-003
6763	20.123	4.9091	0.1	-4.366e-003
6764	19.938	4.9091	0.1	-3.8861e-003
6765	19.753	4.9091	0.1	-3.4648e-003
6766	19.569	4.9091	0.1	-3.0949e-003
6767	19.384	4.9091	0.1	-2.7683e-003
6768	19.199	4.9091	0.1	-2.4751e-003
6769	19.015	4.9091	0.1	-2.2127e-003
6770	18.83	4.9091	0.1	-1.9787e-003
6771	18.645	4.9091	0.1	-1.7642e-003
6772	18.461	4.9091	0.1	-1.5733e-003
6773	18.276	4.9091	0.1	-1.3972e-003
6774	18.092	4.9091	0.1	-1.2371e-003
6775	17.907	4.9091	0.1	-1.0887e-003
6776	17.722	4.9091	0.1	-9.5338e-004
6777	17.538	4.9091	0.1	-8.2515e-004
6778	17.353	4.9091	0.1	-7.0806e-004
6779	17.168	4.9091	0.1	-5.9023e-004
6780	16.984	4.9091	0.1	-4.8191e-004
6781	16.799	4.9091	0.1	-3.9406e-004
6782	16.614	4.9091	0.1	-2.9322e-004
6783	16.43	4.9091	0.1	-1.8929e-004
6784	16.245	4.9091	0.1	-9.1837e-005
6785	16.06	4.9091	0.1	9.0842e-006
6786	15.876	4.9091	0.1	1.1541e-004
6787	15.691	4.9091	0.1	2.3019e-004
6788	15.507	4.9091	0.1	3.579e-004
6789	15.322	4.9091	0.1	5.0305e-004
6790	15.137	4.9091	0.1	6.7909e-004
6791	14.953	4.9091	0.1	8.9316e-004
6792	14.768	4.9091	0.1	1.1729e-003
6793	14.583	4.9091	0.1	1.5497e-003
6794	14.399	4.9091	0.1	2.0936e-003
6795	14.214	4.9091	0.1	2.9362e-003
6796	14.029	4.9091	0.1	4.4051e-003
6797	13.845	4.9091	0.1	7.5162e-003
6798	13.66	4.9091	0.1	1.7868e-002
6799	13.475	4.9091	0.1	0.26796
6800	13.291	4.9091	0.1	1.5462
6801	13.106	4.9091	0.1	2.9678
6802	12.922	4.9091	0.1	4.4822
6803	12.737	4.9091	0.1	6.092
6804	12.552	4.9091	0.1	7.8021
6805	12.368	4.9091	0.1	9.6176
6806	12.183	4.9091	0.1	11.543
6807	11.998	4.9091	0.1	13.582
6808	11.814	4.9091	0.1	15.739
6809	11.629	4.9091	0.1	18.013
6810	11.444	4.9091	0.1	20.405
6811	11.26	4.9091	0.1	22.913
6812	11.075	4.9091	0.1	25.53
6813	10.891	4.9091	0.1	28.247
6814	10.706	4.9091	0.1	31.05
6815	10.521	4.9091	0.1	33.92
6816	10.337	4.9091	0.1	36.829
6817	10.152	4.9091	0.1	39.742
6818	9.9673	4.9091	0.1	42.615
6819	9.7827	4.9091	0.1	45.393
6820	9.598	4.9091	0.1	48.005
6821	9.4134	4.9091	0.1	50.369
6822	9.2288	4.9091	0.1	52.382
6823	9.0441	4.9091	0.1	53.926
6824	8.8595	4.9091	0.1	54.861
6825	8.6748	4.9091	0.1	55.026
6826	8.4902	4.9091	0.1	54.237
6827	8.3056	4.9091	0.1	52.289
6828	8.1209	4.9091	0.1	48.955
6829	7.9363	4.9091	0.1	43.986
6830	7.7516	4.9091	0.1	37.126
6831	7.567	4.9091	0.1	28.168
6832	7.3824	4.9091	0.1	17.327
6833	7.1977	4.9091	0.1	7.5518
6834	7.0131	4.9091	0.1	3.7598
6835	6.8284	4.9091	0.1	2.7268
6836	6.6438	4.9091	0.1	2.3817
6837	6.4592	4.9091	0.1	2.2896
6838	6.2745	4.9091	0.1	2.326
6839	6.0899	4.9091	0.1	2.5134
6840	5.9052	4.9091	0.1	2.571
6841	5.7206	4.9091	0.1	3.5316
6842	5.5359	4.9091	0.1	0.651
6843	5.3513	4.9091	0.1	11.136
6844	23.815	5.0909	0.1	-7.165e-002
6845	23.631	5.0909	0.1	-0.2557
6846	23.446	5.0909	0.1	-8.841e-002
6847	23.261	5.0909	0.1	-7.6675e-002
6848	23.077	5.0909	0.1	-4.9544e-002
6849	22.892	5.0909	0.1	-3.7402e-002
6850	22.708	5.0909	0.1	-2.7618e-002
6851	22.523	5.0909	0.1	-2.1009e-002
6852	22.338	5.0909	0.1	-1.6065e-002
6853	22.154	5.0909	0.1	-1.2392e-002
6854	21.969	5.0909	0.1	-9.5919e-003
6855	21.784	5.0909	0.1	-7.4367e-003
6856	21.6	5.0909	0.1	-5.7477e-003
6857	21.415	5.0909	0.1	-4.4214e-003
6858	21.23	5.0909	0.1	-3.3685e-003
6859	21.046	5.0909	0.1	-2.5194e-003
6860	20.861	5.0909	0.1	-1.8377e-003
6861	20.676	5.0909	0.1	-1.2813e-003
6862	20.492	5.0909	0.1	-8.2593e-004
6863	20.307	5.0909	0.1	-4.525e-004
6864	20.123	5.0909	0.1	-1.4268e-004
6865	19.938	5.0909	0.1	1.1513e-004
6866	19.753	5.0909	0.1	3.3108e-004
6867	19.569	5.0909	0.1	5.1138e-004
6868	19.384	5.0909	0.1	6.6406e-004
6869	19.199	5.0909	0.1	7.9276e-004
6870	19.015	5.0909	0.1	9.0228e-004
6871	18.83	5.0909	0.1	9.9392e-004
6872	18.645	5.0909	0.1	1.0734e-003
6873	18.461	5.0909	0.1	1.141e-003
6874	18.276	5.0909	0.1	1.1989e-003
6875	18.092	5.0909	0.1	1.2478e-003
6876	17.907	5.0909	0.1	1.2888e-003
6877	17.722	5.0909	0.1	1.3242e-003
6878	17.538	5.0909	0.1	1.3559e-003
6879	17.353	5.0909	0.1	1.3799e-003
6880	17.168	5.0909	0.1	1.4081e-003
6881	16.984	5.0909	0.1	1.4288e-003
6882	16.799	5.0909	0.1	1.4309e-003
6883	16.614	5.0909	0.1	1.4455e-003
6884	16.43	5.0909	0.1	1.4665e-003
6885	16.245	5.0909	0.1	1.4764e-003
6886	16.06	5.0909	0.1	1.4901e-003
6887	15.876	5.0909	0.1	1.5033e-003
6888	15.691	5.0909	0.1	1.5199e-003
6889	15.507	5.0909	0.1	1.5429e-003
6890	15.322	5.0909	0.1	1.5737e-003
6891	15.137	5.0909	0.1	1.6147e-003
6892	14.953	5.0909	0.1	1.674e-003
6893	14.768	5.0909	0.1	1.7596e-003
6894	14.583	5.0909	0.1	1.883e-003
6895	14.399	5.0909	0.1	2.068e-003
6896	14.214	5.0909	0.1	2.351e-003
6897	14.029	5.0909	0.1	2.8084e-003
6898	13.845	5.0909	0.1	3.5966e-003
6899	13.66	5.0909	0.1	5.1281e-003
6900	13.475	5.0909	0.1	8.9217e-003
6901	13.291	5.0909	0.1	2.8009e-002
6902	13.106	5.0909	0.1	0.67731
6903	12.922	5.0909	0.1	1.9786
6904	12.737	5.0909	0.1	3.3715
6905	12.552	5.0909	0.1	4.8479
6906	12.368	5.0909	0.1	6.41
6907	12.183	5.0909	0.1	8.0603
6908	11.998	5.0909	0.1	9.8003
6909	11.814	5.0909	0.1	11.631
6910	11.629	5.0909	0.1	13.55
6911	11.444	5.0909	0.1	15.556
6912	11.26	5.0909	0.1	17.642
6913	11.075	5.0909	0.1	19.799
6914	10.891	5.0909	0.1	22.014
6915	10.706	5.0909	0.1	24.269
6916	10.521	5.0909	0.1	26.539
6917	10.337	5.0909	0.1	28.793
6918	10.152	5.0909	0.1	30.99
6919	9.9673	5.0909	0.1	33.08
6920	9.7827	5.0909	0.1	34.999
6921	9.598	5.0909	0.1	36.672
6922	9.4134	5.0909	0.1	38.007
6923	9.2288	5.0909	0.1	38.895
6924	9.0441	5.0909	0.1	39.207
6925	8.8595	5.0909	0.1	38.796
6926	8.6748	5.0909	0.1	37.496
6927	8.4902	5.0909	0.1	35.119
6928	8.3056	5.0909	0.1	31.465
6929	8.1209	5.0909	0.1	26.332
6930	7.9363	5.0909	0.1	19.563
6931	7.7516	5.0909	0.1	11.309
6932	7.567	5.0909	0.1	4.0874
6933	7.3824	5.0909	0.1	1.8804
6934	7.1977	5.0909	0.1	1.3898
6935	7.0131	5.0909	0.1	1.2646
6936	6.8284	5.0909	0.1	1.2797
6937	6.6438	5.0909	0.1	1.379
6938	6.4592	5.0909	0.1	1.5494
6939	6.2745	5.0909	0.1	1.7749
6940	6.0899	5.0909	0.1	2.0966
6941	5.9052	5.0909	0.1	2.3157
6942	5.7206	5.0909	0.1	3.0446
6943	5.5359	5.0909	0.1	1.0753
6944	5.3513	5.0909	0.1	8.8415
6945	23.815	5.2727	0.1	-1.9294e-002
6946	23.631	5.2727	0.1	-0.22076
6947	23.446	5.2727	0.1	-6.1727e-002
6948	23.261	5.2727	0.1	-5.2924e-002
6949	23.077	5.2727	0.1	-2.8344e-002
6950	22.892	5.2727	0.1	-1.8284e-002
6951	22.708	5.2727	0.1	-1.0309e-002
6952	22.523	5.2727	0.1	-5.2913e-003
6953	22.338	5.2727	0.1	-1.7526e-003
6954	22.154	5.2727	0.1	6.8408e-004
6955	21.969	5.2727	0.1	2.3907e-003
6956	21.784	5.2727	0.1	3.5798e-003
6957	21.6	5.2727	0.1	4.4106e-003
6958	21.415	5.2727	0.1	4.9723e-003
6959	21.23	5.2727	0.1	5.3385e-003
6960	21.046	5.2727	0.1	5.5709e-003
6961	20.861	5.2727	0.1	5.7003e-003
6962	20.676	5.2727	0.1	5.756e-003
6963	20.492	5.2727	0.1	5.7545e-003
6964	20.307	5.2727	0.1	5.7201e-003
6965	20.123	5.2727	0.1	5.651e-003
6966	19.938	5.2727	0.1	5.5644e-003
6967	19.753	5.2727	0.1	5.4639e-003
6968	19.569	5.2727	0.1	5.3536e-003
6969	19.384	5.2727	0.1	5.2385e-003
6970	19.199	5.2727	0.1	5.118e-003
6971	19.015	5.2727	0.1	4.9993e-003
6972	18.83	5.2727	0.1	4.879e-003
6973	18.645	5.2727	0.1	4.7592e-003
6974	18.461	5.2727	0.1	4.6392e-003
6975	18.276	5.2727	0.1	4.5228e-003
6976	18.092	5.2727	0.1	4.4099e-003
6977	17.907	5.2727	0.1	4.2948e-003
6978	17.722	5.2727	0.1	4.1852e-003
6979	17.538	5.2727	0.1	4.0746e-003
6980	17.353	5.2727	0.1	3.9644e-003
6981	17.168	5.2727	0.1	3.8635e-003
6982	16.984	5.2727	0.1	3.7591e-003
6983	16.799	5.2727	0.1	3.6366e-003
6984	16.614	5.2727	0.1	3.5325e-003
6985	16.43	5.2727	0.1	3.4315e-003
6986	16.245	5.2727	0.1	3.3196e-003
6987	16.06	5.2727	0.1	3.2115e-003
6988	15.876	5.2727	0.1	3.0996e-003
6989	15.691	5.2727	0.1	2.9877e-003
6990	15.507	5.2727	0.1	2.8728e-003
6991	15.322	5.2727	0.1	2.7559e-003
6992	15.137	5.2727	0.1	2.6393e-003
6993	14.953	5.2727	0.1	2.5213e-003
6994	14.768	5.2727	0.1	2.4045e-003
6995	14.583	5.2727	0.1	2.2911e-003
6996	14.399	5.2727	0.1	2.186e-003
6997	14.214	5.2727	0.1	2.0965e-003
6998	14.029	5.2727	0.1	2.0342e-003
6999	13.845	5.2727	0.1	2.0225e-003
7000	13.66	5.2727	0.1	2.1041e-003
7001	13.475	5.2727	0.1	2.3728e-003
7002	13.291	5.2727	0.1	3.0746e-003
7003	13.106	5.2727	0.1	5.077e-003
7004	12.922	5.2727	0.1	1.5089e-002
7005	12.737	5.2727	0.1	0.53368
7006	12.552	5.2727	0.1	1.7606
7007	12.368	5.2727	0.1	3.0657
7008	12.183	5.2727	0.1	4.4397
7009	11.998	5.2727	0.1	5.8818
7010	11.814	5.2727	0.1	7.3907
7011	11.629	5.2727	0.1	8.9636
7012	11.444	5.2727	0.1	10.596
7013	11.26	5.2727	0.1	12.279
7014	11.075	5.2727	0.1	14.004
7015	10.891	5.2727	0.1	15.754
7016	10.706	5.2727	0.1	17.51
7017	10.521	5.2727	0.1	19.246
7018	10.337	5.2727	0.1	20.928
7019	10.152	5.2727	0.1	22.515
7020	9.9673	5.2727	0.1	23.955
7021	9.7827	5.2727	0.1	25.185
7022	9.598	5.2727	0.1	26.126
7023	9.4134	5.2727	0.1	26.689
7024	9.2288	5.2727	0.1	26.763
7025	9.0441	5.2727	0.1	26.222
7026	8.8595	5.2727	0.1	24.923
7027	8.6748	5.2727	0.1	22.702
7028	8.4902	5.2727	0.1	19.387
7029	8.3056	5.2727	0.1	14.809
7030	8.1209	5.2727	0.1	8.9077
7031	7.9363	5.2727	0.1	2.8537
7032	7.7516	5.2727	0.1	0.94542
7033	7.567	5.2727	0.1	0.63225
7034	7.3824	5.2727	0.1	0.55615
7035	7.1977	5.2727	0.1	0.56004
7036	7.0131	5.2727	0.1	0.61262
7037	6.8284	5.2727	0.1	0.70936
7038	6.6438	5.2727	0.1	0.85526
7039	6.4592	5.2727	0.1	1.065
7040	6.2745	5.2727	0.1	1.3476
7041	6.0899	5.2727	0.1	1.7557
7042	5.9052	5.2727	0.1	2.1564
7043	5.7206	5.2727	0.1	3.1015
7044	5.5359	5.2727	0.1	1.607
7045	5.3513	5.2727	0.1	8.8491
7046	23.815	5.4545	0.1	3.5442e-002
7047	23.631	5.4545	0.1	-0.18328
7048	23.446	5.4545	0.1	-3.1235e-002
7049	23.261	5.4545	0.1	-2.7984e-002
7050	23.077	5.4545	0.1	-7.0726e-003
7051	22.892	5.4545	0.1	1.0835e-004
7052	22.708	5.4545	0.1	5.5873e-003
7053	22.523	5.4545	0.1	8.5498e-003
7054	22.338	5.4545	0.1	1.0363e-002
7055	22.154	5.4545	0.1	1.1353e-002
7056	21.969	5.4545	0.1	1.184e-002
7057	21.784	5.4545	0.1	1.1993e-002
7058	21.6	5.4545	0.1	1.194e-002
7059	21.415	5.4545	0.1	1.1742e-002
7060	21.23	5.4545	0.1	1.1455e-002
7061	21.046	5.4545	0.1	1.1118e-002
7062	20.861	5.4545	0.1	1.0752e-002
7063	20.676	5.4545	0.1	1.0371e-002
7064	20.492	5.4545	0.1	9.9906e-003
7065	20.307	5.4545	0.1	9.6101e-003
7066	20.123	5.4545	0.1	9.2431e-003
7067	19.938	5.4545	0.1	8.8871e-003
7068	19.753	5.4545	0.1	8.5472e-003
7069	19.569	5.4545	0.1	8.2196e-003
7070	19.384	5.4545	0.1	7.9104e-003
7071	19.199	5.4545	0.1	7.6152e-003
7072	19.015	5.4545	0.1	7.3357e-003
7073	18.83	5.4545	0.1	7.0688e-003
7074	18.645	5.4545	0.1	6.8169e-003
7075	18.461	5.4545	0.1	6.5761e-003
7076	18.276	5.4545	0.1	6.3478e-003
7077	18.092	5.4545	0.1	6.13e-003
7078	17.907	5.4545	0.1	5.9206e-003
7079	17.722	5.4545	0.1	5.7196e-003
7080	17.538	5.4545	0.1	5.5269e-003
7081	17.353	5.4545	0.1	5.337e-003
7082	17.168	5.4545	0.1	5.1604e-003
7083	16.984	5.4545	0.1	4.9842e-003
7084	16.799	5.4545	0.1	4.7934e-003
7085	16.614	5.4545	0.1	4.6216e-003
7086	16.43	5.4545	0.1	4.4549e-003
7087	16.245	5.4545	0.1	4.2792e-003
7088	16.06	5.4545	0.1	4.1045e-003
7089	15.876	5.4545	0.1	3.9265e-003
7090	15.691	5.4545	0.1	3.7445e-003
7091	15.507	5.4545	0.1	3.5581e-003
7092	15.322	5.4545	0.1	3.3657e-003
7093	15.137	5.4545	0.1	3.1671e-003
7094	14.953	5.4545	0.1	2.9578e-003
7095	14.768	5.4545	0.1	2.7421e-003
7096	14.583	5.4545	0.1	2.5132e-003
7097	14.399	5.4545	0.1	2.2718e-003
7098	14.214	5.4545	0.1	2.0182e-003
7099	14.029	5.4545	0.1	1.7487e-003
7100	13.845	5.4545	0.1	1.4664e-003
7101	13.66	5.4545	0.1	1.166e-003
7102	13.475	5.4545	0.1	8.5123e-004
7103	13.291	5.4545	0.1	5.2371e-004
7104	13.106	5.4545	0.1	1.9456e-004
7105	12.922	5.4545	0.1	-1.1979e-004
7106	12.737	5.4545	0.1	-3.4735e-004
7107	12.552	5.4545	0.1	-2.401e-004
7108	12.368	5.4545	0.1	3.3757e-003
7109	12.183	5.4545	0.1	0.70524
7110	11.998	5.4545	0.1	1.8528
7111	11.814	5.4545	0.1	3.0483
7112	11.629	5.4545	0.1	4.2869
7113	11.444	5.4545	0.1	5.5631
7114	11.26	5.4545	0.1	6.8691
7115	11.075	5.4545	0.1	8.1939
7116	10.891	5.4545	0.1	9.5231
7117	10.706	5.4545	0.1	10.838
7118	10.521	5.4545	0.1	12.113
7119	10.337	5.4545	0.1	13.318
7120	10.152	5.4545	0.1	14.415
7121	9.9673	5.4545	0.1	15.355
7122	9.7827	5.4545	0.1	16.081
7123	9.598	5.4545	0.1	16.523
7124	9.4134	5.4545	0.1	16.597
7125	9.2288	5.4545	0.1	16.205
7126	9.0441	5.4545	0.1	15.233
7127	8.8595	5.4545	0.1	13.553
7128	8.6748	5.4545	0.1	11.023
7129	8.4902	5.4545	0.1	7.5151
7130	8.3056	5.4545	0.1	3.1222
7131	8.1209	5.4545	0.1	0.58708
7132	7.9363	5.4545	0.1	0.28219
7133	7.7516	5.4545	0.1	0.21329
7134	7.567	5.4545	0.1	0.19635
7135	7.3824	5.4545	0.1	0.20399
7136	7.1977	5.4545	0.1	0.23085
7137	7.0131	5.4545	0.1	0.27854
7138	6.8284	5.4545	0.1	0.35348
7139	6.6438	5.4545	0.1	0.46713
7140	6.4592	5.4545	0.1	0.64307
7141	6.2745	5.4545	0.1	0.91285
7142	6.0899	5.4545	0.1	1.383
7143	5.9052	5.4545	0.1	2.0389
7144	5.7206	5.4545	0.1	3.494
7145	5.5359	5.4545	0.1	3.0655
7146	5.3513	5.4545	0.1	9.948
7147	23.815	5.6364	0.1	0.28787
7148	23.631	5.6364	0.1	-3.7718e-003
7149	23.446	5.6364	0.1	9.6465e-002
7150	23.261	5.6364	0.1	8.3115e-002
7151	23.077	5.6364	0.1	8.694e-002
7152	22.892	5.6364	0.1	8.1863e-002
7153	22.708	5.6364	0.1	7.7413e-002
7154	22.523	5.6364	0.1	7.2334e-002
7155	22.338	5.6364	0.1	6.7474e-002
7156	22.154	5.6364	0.1	6.2848e-002
7157	21.969	5.6364	0.1	5.8542e-002
7158	21.784	5.6364	0.1	5.456e-002
7159	21.6	5.6364	0.1	5.0899e-002
7160	21.415	5.6364	0.1	4.7533e-002
7161	21.23	5.6364	0.1	4.4438e-002
7162	21.046	5.6364	0.1	4.1603e-002
7163	20.861	5.6364	0.1	3.8995e-002
7164	20.676	5.6364	0.1	3.6601e-002
7165	20.492	5.6364	0.1	3.44e-002
7166	20.307	5.6364	0.1	3.2373e-002
7167	20.123	5.6364	0.1	3.0503e-002
7168	19.938	5.6364	0.1	2.8781e-002
7169	19.753	5.6364	0.1	2.7187e-002
7170	19.569	5.6364	0.1	2.5712e-002
7171	19.384	5.6364	0.1	2.4347e-002
7172	19.199	5.6364	0.1	2.3078e-002
7173	19.015	5.6364	0.1	2.1898e-002
7174	18.83	5.6364	0.1	2.0798e-002
7175	18.645	5.6364	0.1	1.9769e-002
7176	18.461	5.6364	0.1	1.8804e-002
7177	18.276	5.6364	0.1	1.7899e-002
7178	18.092	5.6364	0.1	1.7042e-002
7179	17.907	5.6364	0.1	1.6231e-002
7180	17.722	5.6364	0.1	1.5462e-002
7181	17.538	5.6364	0.1	1.4724e-002
7182	17.353	5.6364	0.1	1.4016e-002
7183	17.168	5.6364	0.1	1.3339e-002
7184	16.984	5.6364	0.1	1.2678e-002
7185	16.799	5.6364	0.1	1.2014e-002
7186	16.614	5.6364	0.1	1.138e-002
7187	16.43	5.6364	0.1	1.0755e-002
7188	16.245	5.6364	0.1	1.0125e-002
7189	16.06	5.6364	0.1	9.496e-003
7190	15.876	5.6364	0.1	8.8591e-003
7191	15.691	5.6364	0.1	8.2137e-003
7192	15.507	5.6364	0.1	7.5549e-003
7193	15.322	5.6364	0.1	6.8765e-003
7194	15.137	5.6364	0.1	6.1758e-003
7195	14.953	5.6364	0.1	5.4494e-003
7196	14.768	5.6364	0.1	4.6916e-003
7197	14.583	5.6364	0.1	3.8974e-003
7198	14.399	5.6364	0.1	3.0644e-003
7199	14.214	5.6364	0.1	2.1862e-003
7200	14.029	5.6364	0.1	1.2596e-003
7201	13.845	5.6364	0.1	2.7949e-004
7202	13.66	5.6364	0.1	-7.5831e-004
7203	13.475	5.6364	0.1	-1.8575e-003
7204	13.291	5.6364	0.1	-3.0214e-003
7205	13.106	5.6364	0.1	-4.2516e-003
7206	12.922	5.6364	0.1	-5.5479e-003
7207	12.737	5.6364	0.1	-6.9026e-003
7208	12.552	5.6364	0.1	-8.3213e-003
7209	12.368	5.6364	0.1	-9.7521e-003
7210	12.183	5.6364	0.1	-1.1107e-002
7211	11.998	5.6364	0.1	-1.2258e-002
7212	11.814	5.6364	0.1	-1.2514e-002
7213	11.629	5.6364	0.1	-6.284e-003
7214	11.444	5.6364	0.1	0.43977
7215	11.26	5.6364	0.1	1.3864
7216	11.075	5.6364	0.1	2.3467
7217	10.891	5.6364	0.1	3.3022
7218	10.706	5.6364	0.1	4.2366
7219	10.521	5.6364	0.1	5.1302
7220	10.337	5.6364	0.1	5.9583
7221	10.152	5.6364	0.1	6.6903
7222	9.9673	5.6364	0.1	7.2885
7223	9.7827	5.6364	0.1	7.7074
7224	9.598	5.6364	0.1	7.8919
7225	9.4134	5.6364	0.1	7.7769
7226	9.2288	5.6364	0.1	7.2856
7227	9.0441	5.6364	0.1	6.3303
7228	8.8595	5.6364	0.1	4.8159
7229	8.6748	5.6364	0.1	2.6734
7230	8.4902	5.6364	0.1	0.52309
7231	8.3056	5.6364	0.1	0.15155
7232	8.1209	5.6364	0.1	0.1044
7233	7.9363	5.6364	0.1	9.9413e-002
7234	7.7516	5.6364	0.1	0.11009
7235	7.567	5.6364	0.1	0.13045
7236	7.3824	5.6364	0.1	0.1587
7237	7.1977	5.6364	0.1	0.19443
7238	7.0131	5.6364	0.1	0.23808
7239	6.8284	5.6364	0.1	0.29185
7240	6.6438	5.6364	0.1	0.36141
7241	6.4592	5.6364	0.1	0.46527
7242	6.2745	5.6364	0.1	0.64026
7243	6.0899	5.6364	0.1	1.0279
7244	5.9052	5.6364	0.1	1.7778
7245	5.7206	5.6364	0.1	3.9785
7246	5.5359	5.6364	0.1	5.5175
7247	5.3513	5.6364	0.1	13.072
7248	23.815	5.8182	0.1	0.50914
7249	23.631	5.8182	0.1	0.11038
7250	23.446	5.8182	0.1	0.12101
7251	23.261	5.8182	0.1	8.0879e-002
7252	23.077	5.8182	0.1	6.5294e-002
7253	22.892	5.8182	0.1	5.0014e-002
7254	22.708	5.8182	0.1	3.9435e-002
7255	22.523	5.8182	0.1	3.1043e-002
7256	22.338	5.8182	0.1	2.4571e-002
7257	22.154	5.8182	0.1	1.9455e-002
7258	21.969	5.8182	0.1	1.5395e-002
7259	21.784	5.8182	0.1	1.2143e-002
7260	21.6	5.8182	0.1	9.5378e-003
7261	21.415	5.8182	0.1	7.4314e-003
7262	21.23	5.8182	0.1	5.7275e-003
7263	21.046	5.8182	0.1	4.3518e-003
7264	20.861	5.8182	0.1	3.2412e-003
7265	20.676	5.8182	0.1	2.3446e-003
7266	20.492	5.8182	0.1	1.6233e-003
7267	20.307	5.8182	0.1	1.049e-003
7268	20.123	5.8182	0.1	5.9165e-004
7269	19.938	5.8182	0.1	2.3398e-004
7270	19.753	5.8182	0.1	-4.1551e-005
7271	19.569	5.8182	0.1	-2.5231e-004
7272	19.384	5.8182	0.1	-4.0699e-004
7273	19.199	5.8182	0.1	-5.1411e-004
7274	19.015	5.8182	0.1	-5.8542e-004
7275	18.83	5.8182	0.1	-6.2459e-004
7276	18.645	5.8182	0.1	-6.3675e-004
7277	18.461	5.8182	0.1	-6.2928e-004
7278	18.276	5.8182	0.1	-6.0156e-004
7279	18.092	5.8182	0.1	-5.5935e-004
7280	17.907	5.8182	0.1	-5.0527e-004
7281	17.722	5.8182	0.1	-4.3964e-004
7282	17.538	5.8182	0.1	-3.6445e-004
7283	17.353	5.8182	0.1	-2.8302e-004
7284	17.168	5.8182	0.1	-1.8562e-004
7285	16.984	5.8182	0.1	-8.4233e-005
7286	16.799	5.8182	0.1	4.7674e-006
7287	16.614	5.8182	0.1	1.1893e-004
7288	16.43	5.8182	0.1	2.4295e-004
7289	16.245	5.8182	0.1	3.6669e-004
7290	16.06	5.8182	0.1	5.0137e-004
7291	15.876	5.8182	0.1	6.4103e-004
7292	15.691	5.8182	0.1	7.9384e-004
7293	15.507	5.8182	0.1	9.5502e-004
7294	15.322	5.8182	0.1	1.1305e-003
7295	15.137	5.8182	0.1	1.3194e-003
7296	14.953	5.8182	0.1	1.5252e-003
7297	14.768	5.8182	0.1	1.7495e-003
7298	14.583	5.8182	0.1	1.9986e-003
7299	14.399	5.8182	0.1	2.273e-003
7300	14.214	5.8182	0.1	2.5786e-003
7301	14.029	5.8182	0.1	2.9224e-003
7302	13.845	5.8182	0.1	3.3117e-003
7303	13.66	5.8182	0.1	3.7557e-003
7304	13.475	5.8182	0.1	4.2645e-003
7305	13.291	5.8182	0.1	4.8545e-003
7306	13.106	5.8182	0.1	5.5435e-003
7307	12.922	5.8182	0.1	6.3542e-003
7308	12.737	5.8182	0.1	7.3207e-003
7309	12.552	5.8182	0.1	8.4675e-003
7310	12.368	5.8182	0.1	9.8669e-003
7311	12.183	5.8182	0.1	1.1612e-002
7312	11.998	5.8182	0.1	1.3739e-002
7313	11.814	5.8182	0.1	1.6403e-002
7314	11.629	5.8182	0.1	1.9813e-002
7315	11.444	5.8182	0.1	2.4213e-002
7316	11.26	5.8182	0.1	3.0001e-002
7317	11.075	5.8182	0.1	3.7761e-002
7318	10.891	5.8182	0.1	4.8394e-002
7319	10.706	5.8182	0.1	6.3319e-002
7320	10.521	5.8182	0.1	8.4793e-002
7321	10.337	5.8182	0.1	0.11631
7322	10.152	5.8182	0.1	0.16259
7323	9.9673	5.8182	0.1	0.22698
7324	9.7827	5.8182	0.1	0.30261
7325	9.598	5.8182	0.1	0.36183
7326	9.4134	5.8182	0.1	0.36616
7327	9.2288	5.8182	0.1	0.30038
7328	9.0441	5.8182	0.1	0.19846
7329	8.8595	5.8182	0.1	0.11204
7330	8.6748	5.8182	0.1	5.7021e-002
7331	8.4902	5.8182	0.1	2.474e-002
7332	8.3056	5.8182	0.1	5.5672e-003
7333	8.1209	5.8182	0.1	-6.5582e-003
7334	7.9363	5.8182	0.1	-1.5421e-002
7335	7.7516	5.8182	0.1	-2.3868e-002
7336	7.567	5.8182	0.1	-3.459e-002
7337	7.3824	5.8182	0.1	-5.0461e-002
7338	7.1977	5.8182	0.1	-7.4516e-002
7339	7.0131	5.8182	0.1	-0.10928
7340	6.8284	5.8182	0.1	-0.15446
7341	6.6438	5.8182	0.1	-0.2027
7342	6.4592	5.8182	0.1	-0.22591
7343	6.2745	5.8182	0.1	-0.16383
7344	6.0899	5.8182	0.1	0.17158
7345	5.9052	5.8182	0.1	1.0227
7346	5.7206	5.8182	0.1	3.7849
7347	5.5359	5.8182	0.1	8.1741
7348	5.3513	5.8182	0.1	26.478
7349	0.17857	0.18182	0.1	29.547
7350	0.17857	0.36364	0.1	856.31
7351	0.17857	0.54545	0.1	1285.8
7352	0.17857	0.72727	0.1	1530.1
7353	0.17857	0.90909	0.1	1683.3
7354	0.17857	1.0909	0.1	1788.4
7355	0.17857	1.2727	0.1	1863.9
7356	0.17857	1.4545	0.1	1920.
7357	0.17857	1.6364	0.1	1962.3
7358	0.17857	1.8182	0.1	1994.5
7359	0.17857	2.	0.1	2019.
7360	0.17857	2.1818	0.1	2037.5
7361	0.17857	2.3636	0.1	2051.1
7362	0.17857	2.5455	0.1	2060.6
7363	0.17857	2.7273	0.1	2066.7
7364	0.17857	2.9091	0.1	2069.7
7365	0.17857	3.0909	0.1	2069.7
7366	0.17857	3.2727	0.1	2066.7
7367	0.17857	3.4545	0.1	2060.6
7368	0.17857	3.6364	0.1	2051.1
7369	0.17857	3.8182	0.1	2037.5
7370	0.17857	4.	0.1	2019.
7371	0.17857	4.1818	0.1	1994.5
7372	0.17857	4.3636	0.1	1962.3
7373	0.17857	4.5455	0.1	1920.
7374	0.17857	4.7273	0.1	1863.9
7375	0.17857	4.9091	0.1	1788.4
7376	0.17857	5.0909	0.1	1683.3
7377	0.17857	5.2727	0.1	1530.1
7378	0.17857	5.4545	0.1	1285.8
7379	0.17857	5.6364	0.1	856.31
7380	0.17857	5.8182	0.1	29.546
7381	0.35714	0.18182	0.1	88.646
7382	0.35714	0.36364	0.1	696.39
7383	0.35714	0.54545	0.1	1256.2
7384	0.35714	0.72727	0.1	1623.7
7385	0.35714	0.90909	0.1	1865.4
7386	0.35714	1.0909	0.1	2030.
7387	0.35714	1.2727	0.1	2147.
7388	0.35714	1.4545	0.1	2232.9
7389	0.35714	1.6364	0.1	2297.4
7390	0.35714	1.8182	0.1	2346.4
7391	0.35714	2.	0.1	2383.7
7392	0.35714	2.1818	0.1	2411.9
7393	0.35714	2.3636	0.1	2432.8
7394	0.35714	2.5455	0.1	2447.6
7395	0.35714	2.7273	0.1	2457.1
7396	0.35714	2.9091	0.1	2461.7
7397	0.35714	3.0909	0.1	2461.7
7398	0.35714	3.2727	0.1	2457.1
7399	0.35714	3.4545	0.1	2447.6
7400	0.35714	3.6364	0.1	2432.8
7401	0.35714	3.8182	0.1	2411.9
7402	0.35714	4.	0.1	2383.7
7403	0.35714	4.1818	0.1	2346.4
7404	0.35714	4.3636	0.1	2297.4
7405	0.35714	4.5455	0.1	2232.9
7406	0.35714	4.7273	0.1	2147.
7407	0.35714	4.9091	0.1	2030.
7408	0.35714	5.0909	0.1	1865.4
7409	0.35714	5.2727	0.1	1623.7
7410	0.35714	5.4545	0.1	1256.2
7411	0.35714	5.6364	0.1	696.39
7412	0.35714	5.8182	0.1	88.646
7413	0.53571	0.18182	0.1	3.4253
7414	0.53571	0.36364	0.1	437.15
7415	0.53571	0.54545	0.1	892.85
7416	0.53571	0.72727	0.1	1256.1
7417	0.53571	0.90909	0.1	1523.8
7418	0.53571	1.0909	0.1	1717.6
7419	0.53571	1.2727	0.1	1859.2
7420	0.53571	1.4545	0.1	1964.5
7421	0.53571	1.6364	0.1	2044.1
7422	0.53571	1.8182	0.1	2104.8
7423	0.53571	2.	0.1	2151.4
7424	0.53571	2.1818	0.1	2186.8
7425	0.53571	2.3636	0.1	2213.2
7426	0.53571	2.5455	0.1	2232.
7427	0.53571	2.7273	0.1	2244.
7428	0.53571	2.9091	0.1	2249.9
7429	0.53571	3.0909	0.1	2249.9
7430	0.53571	3.2727	0.1	2244.
7431	0.53571	3.4545	0.1	2232.
7432	0.53571	3.6364	0.1	2213.2
7433	0.53571	3.8182	0.1	2186.8
7434	0.53571	4.	0.1	2151.4
7435	0.53571	4.1818	0.1	2104.8
7436	0.53571	4.3636	0.1	2044.1
7437	0.53571	4.5455	0.1	1964.5
7438	0.53571	4.7273	0.1	1859.2
7439	0.53571	4.9091	0.1	1717.6
7440	0.53571	5.0909	0.1	1523.8
7441	0.53571	5.2727	0.1	1256.1
7442	0.53571	5.4545	0.1	892.85
7443	0.53571	5.6364	0.1	437.14
7444	0.53571	5.8182	0.1	3.4252
7445	0.71429	0.18182	0.1	20.553
7446	0.71429	0.36364	0.1	354.14
7447	0.71429	0.54545	0.1	731.81
7448	0.71429	0.72727	0.1	1065.8
7449	0.71429	0.90909	0.1	1337.5
7450	0.71429	1.0909	0.1	1549.2
7451	0.71429	1.2727	0.1	1711.6
7452	0.71429	1.4545	0.1	1836.3
7453	0.71429	1.6364	0.1	1932.3
7454	0.71429	1.8182	0.1	2006.7
7455	0.71429	2.	0.1	2064.2
7456	0.71429	2.1818	0.1	2108.2
7457	0.71429	2.3636	0.1	2141.3
7458	0.71429	2.5455	0.1	2164.8
7459	0.71429	2.7273	0.1	2180.
7460	0.71429	2.9091	0.1	2187.5
7461	0.71429	3.0909	0.1	2187.5
7462	0.71429	3.2727	0.1	2180.
7463	0.71429	3.4545	0.1	2164.8
7464	0.71429	3.6364	0.1	2141.3
7465	0.71429	3.8182	0.1	2108.2
7466	0.71429	4.	0.1	2064.2
7467	0.71429	4.1818	0.1	2006.7
7468	0.71429	4.3636	0.1	1932.3
7469	0.71429	4.5455	0.1	1836.3
7470	0.71429	4.7273	0.1	1711.6
7471	0.71429	4.9091	0.1	1549.2
7472	0.71429	5.0909	0.1	1337.5
7473	0.71429	5.2727	0.1	1065.8
7474	0.71429	5.4545	0.1	731.81
7475	0.71429	5.6364	0.1	354.14
7476	0.71429	5.8182	0.1	20.553
7477	0.89286	0.18182	0.1	15.534
7478	0.89286	0.36364	0.1	293.09
7479	0.89286	0.54545	0.1	604.92
7480	0.89286	0.72727	0.1	898.01
7481	0.89286	0.90909	0.1	1154.
7482	0.89286	1.0909	0.1	1366.6
7483	0.89286	1.2727	0.1	1538.4
7484	0.89286	1.4545	0.1	1675.4
7485	0.89286	1.6364	0.1	1784.
7486	0.89286	1.8182	0.1	1869.8
7487	0.89286	2.	0.1	1937.2
7488	0.89286	2.1818	0.1	1989.4
7489	0.89286	2.3636	0.1	2028.8
7490	0.89286	2.5455	0.1	2057.2
7491	0.89286	2.7273	0.1	2075.5
7492	0.89286	2.9091	0.1	2084.5
7493	0.89286	3.0909	0.1	2084.5
7494	0.89286	3.2727	0.1	2075.5
7495	0.89286	3.4545	0.1	2057.2
7496	0.89286	3.6364	0.1	2028.8
7497	0.89286	3.8182	0.1	1989.4
7498	0.89286	4.	0.1	1937.2
7499	0.89286	4.1818	0.1	1869.8
7500	0.89286	4.3636	0.1	1784.
7501	0.89286	4.5455	0.1	1675.4
7502	0.89286	4.7273	0.1	1538.4
7503	0.89286	4.9091	0.1	1366.6
7504	0.89286	5.0909	0.1	1154.
7505	0.89286	5.2727	0.1	898.01
7506	0.89286	5.4545	0.1	604.92
7507	0.89286	5.6364	0.1	293.09
7508	0.89286	5.8182	0.1	15.534
7509	1.0714	0.18182	0.1	17.55
7510	1.0714	0.36364	0.1	256.47
7511	1.0714	0.54545	0.1	520.35
7512	1.0714	0.72727	0.1	776.68
7513	1.0714	0.90909	0.1	1011.4
7514	1.0714	1.0909	0.1	1216.2
7515	1.0714	1.2727	0.1	1389.3
7516	1.0714	1.4545	0.1	1532.6
7517	1.0714	1.6364	0.1	1649.8
7518	1.0714	1.8182	0.1	1744.5
7519	1.0714	2.	0.1	1820.3
7520	1.0714	2.1818	0.1	1879.9
7521	1.0714	2.3636	0.1	1925.3
7522	1.0714	2.5455	0.1	1958.2
7523	1.0714	2.7273	0.1	1979.6
7524	1.0714	2.9091	0.1	1990.1
7525	1.0714	3.0909	0.1	1990.1
7526	1.0714	3.2727	0.1	1979.6
7527	1.0714	3.4545	0.1	1958.2
7528	1.0714	3.6364	0.1	1925.3
7529	1.0714	3.8182	0.1	1879.9
7530	1.0714	4.	0.1	1820.3
7531	1.0714	4.1818	0.1	1744.5
7532	1.0714	4.3636	0.1	1649.8
7533	1.0714	4.5455	0.1	1532.6
7534	1.0714	4.7273	0.1	1389.3
7535	1.0714	4.9091	0.1	1216.2
7536	1.0714	5.0909	0.1	1011.4
7537	1.0714	5.2727	0.1	776.68
7538	1.0714	5.4545	0.1	520.35
7539	1.0714	5.6364	0.1	256.47
7540	1.0714	5.8182	0.1	17.55
7541	1.25	0.18182	0.1	18.617
7542	1.25	0.36364	0.1	228.4
7543	1.25	0.54545	0.1	455.18
7544	1.25	0.72727	0.1	680.
7545	1.25	0.90909	0.1	892.62
7546	1.25	1.0909	0.1	1085.2
7547	1.25	1.2727	0.1	1254.2
7548	1.25	1.4545	0.1	1398.9
7549	1.25	1.6364	0.1	1520.6
7550	1.25	1.8182	0.1	1621.5
7551	1.25	2.	0.1	1703.7
7552	1.25	2.1818	0.1	1769.4
7553	1.25	2.3636	0.1	1820.1
7554	1.25	2.5455	0.1	1857.1
7555	1.25	2.7273	0.1	1881.3
7556	1.25	2.9091	0.1	1893.2
7557	1.25	3.0909	0.1	1893.2
7558	1.25	3.2727	0.1	1881.3
7559	1.25	3.4545	0.1	1857.1
7560	1.25	3.6364	0.1	1820.1
7561	1.25	3.8182	0.1	1769.4
7562	1.25	4.	0.1	1703.7
7563	1.25	4.1818	0.1	1621.5
7564	1.25	4.3636	0.1	1520.6
7565	1.25	4.5455	0.1	1398.9
7566	1.25	4.7273	0.1	1254.2
7567	1.25	4.9091	0.1	1085.2
7568	1.25	5.0909	0.1	892.62
7569	1.25	5.2727	0.1	680.
7570	1.25	5.4545	0.1	455.18
7571	1.25	5.6364	0.1	228.4
7572	1.25	5.8182	0.1	18.617
7573	1.4286	0.18182	0.1	20.074
7574	1.4286	0.36364	0.1	205.68
7575	1.4286	0.54545	0.1	403.15
7576	1.4286	0.72727	0.1	601.65
7577	1.4286	0.90909	0.1	793.79
7578	1.4286	1.0909	0.1	972.88
7579	1.4286	1.2727	0.1	1134.8
7580	1.4286	1.4545	0.1	1277.5
7581	1.4286	1.6364	0.1	1400.7
7582	1.4286	1.8182	0.1	1505.2
7583	1.4286	2.	0.1	1592.1
7584	1.4286	2.1818	0.1	1662.5
7585	1.4286	2.3636	0.1	1717.5
7586	1.4286	2.5455	0.1	1758.1
7587	1.4286	2.7273	0.1	1784.7
7588	1.4286	2.9091	0.1	1798.
7589	1.4286	3.0909	0.1	1798.
7590	1.4286	3.2727	0.1	1784.7
7591	1.4286	3.4545	0.1	1758.1
7592	1.4286	3.6364	0.1	1717.5
7593	1.4286	3.8182	0.1	1662.5
7594	1.4286	4.	0.1	1592.1
7595	1.4286	4.1818	0.1	1505.2
7596	1.4286	4.3636	0.1	1400.7
7597	1.4286	4.5455	0.1	1277.5
7598	1.4286	4.7273	0.1	1134.8
7599	1.4286	4.9091	0.1	972.88
7600	1.4286	5.0909	0.1	793.79
7601	1.4286	5.2727	0.1	601.65
7602	1.4286	5.4545	0.1	403.15
7603	1.4286	5.6364	0.1	205.68
7604	1.4286	5.8182	0.1	20.074
7605	1.6071	0.18182	0.1	20.944
7606	1.6071	0.36364	0.1	185.36
7607	1.6071	0.54545	0.1	358.76
7608	1.6071	0.72727	0.1	535.06
7609	1.6071	0.90909	0.1	708.84
7610	1.6071	1.0909	0.1	874.55
7611	1.6071	1.2727	0.1	1028.1
7612	1.6071	1.4545	0.1	1166.8
7613	1.6071	1.6364	0.1	1289.5
7614	1.6071	1.8182	0.1	1395.7
7615	1.6071	2.	0.1	1485.5
7616	1.6071	2.1818	0.1	1559.5
7617	1.6071	2.3636	0.1	1617.9
7618	1.6071	2.5455	0.1	1661.4
7619	1.6071	2.7273	0.1	1690.2
7620	1.6071	2.9091	0.1	1704.5
7621	1.6071	3.0909	0.1	1704.5
7622	1.6071	3.2727	0.1	1690.2
7623	1.6071	3.4545	0.1	1661.4
7624	1.6071	3.6364	0.1	1617.9
7625	1.6071	3.8182	0.1	1559.5
7626	1.6071	4.	0.1	1485.5
7627	1.6071	4.1818	0.1	1395.7
7628	1.6071	4.3636	0.1	1289.5
7629	1.6071	4.5455	0.1	1166.8
7630	1.6071	4.7273	0.1	1028.1
7631	1.6071	4.9091	0.1	874.55
7632	1.6071	5.0909	0.1	708.84
7633	1.6071	5.2727	0.1	535.06
7634	1.6071	5.4545	0.1	358.76
7635	1.6071	5.6364	0.1	185.36
7636	1.6071	5.8182	0.1	20.944
7637	1.7857	0.18182	0.1	20.849
7638	1.7857	0.36364	0.1	166.03
7639	1.7857	0.54545	0.1	319.05
7640	1.7857	0.72727	0.1	476.35
7641	1.7857	0.90909	0.1	633.87
7642	1.7857	1.0909	0.1	786.99
7643	1.7857	1.2727	0.1	931.88
7644	1.7857	1.4545	0.1	1065.7
7645	1.7857	1.6364	0.1	1186.4
7646	1.7857	1.8182	0.1	1293.
7647	1.7857	2.	0.1	1384.6
7648	1.7857	2.1818	0.1	1461.1
7649	1.7857	2.3636	0.1	1522.3
7650	1.7857	2.5455	0.1	1568.2
7651	1.7857	2.7273	0.1	1598.7
7652	1.7857	2.9091	0.1	1614.
7653	1.7857	3.0909	0.1	1614.
7654	1.7857	3.2727	0.1	1598.7
7655	1.7857	3.4545	0.1	1568.2
7656	1.7857	3.6364	0.1	1522.3
7657	1.7857	3.8182	0.1	1461.1
7658	1.7857	4.	0.1	1384.6
7659	1.7857	4.1818	0.1	1293.
7660	1.7857	4.3636	0.1	1186.4
7661	1.7857	4.5455	0.1	1065.7
7662	1.7857	4.7273	0.1	931.88
7663	1.7857	4.9091	0.1	786.99
7664	1.7857	5.0909	0.1	633.87
7665	1.7857	5.2727	0.1	476.35
7666	1.7857	5.4545	0.1	319.05
7667	1.7857	5.6364	0.1	166.03
7668	1.7857	5.8182	0.1	20.849
7669	1.9643	0.18182	0.1	19.467
7670	1.9643	0.36364	0.1	146.74
7671	1.9643	0.54545	0.1	281.96
7672	1.9643	0.72727	0.1	422.68
7673	1.9643	0.90909	0.1	565.77
7674	1.9643	1.0909	0.1	707.34
7675	1.9643	1.2727	0.1	843.85
7676	1.9643	1.4545	0.1	972.36
7677	1.9643	1.6364	0.1	1090.5
7678	1.9643	1.8182	0.1	1196.6
7679	1.9643	2.	0.1	1289.3
7680	1.9643	2.1818	0.1	1367.6
7681	1.9643	2.3636	0.1	1431.
7682	1.9643	2.5455	0.1	1478.8
7683	1.9643	2.7273	0.1	1510.9
7684	1.9643	2.9091	0.1	1527.
7685	1.9643	3.0909	0.1	1527.
7686	1.9643	3.2727	0.1	1510.9
7687	1.9643	3.4545	0.1	1478.8
7688	1.9643	3.6364	0.1	1431.
7689	1.9643	3.8182	0.1	1367.6
7690	1.9643	4.	0.1	1289.3
7691	1.9643	4.1818	0.1	1196.6
7692	1.9643	4.3636	0.1	1090.5
7693	1.9643	4.5455	0.1	972.36
7694	1.9643	4.7273	0.1	843.85
7695	1.9643	4.9091	0.1	707.34
7696	1.9643	5.0909	0.1	565.77
7697	1.9643	5.2727	0.1	422.68
7698	1.9643	5.4545	0.1	281.96
7699	1.9643	5.6364	0.1	146.74
7700	1.9643	5.8182	0.1	19.467
7701	2.1429	0.18182	0.1	16.738
7702	2.1429	0.36364	0.1	126.9
7703	2.1429	0.54545	0.1	246.11
7704	2.1429	0.72727	0.1	372.07
7705	2.1429	0.90909	0.1	502.25
7706	2.1429	1.0909	0.1	633.29
7707	2.1429	1.2727	0.1	761.96
7708	2.1429	1.4545	0.1	885.29
7709	2.1429	1.6364	0.1	1000.7
7710	2.1429	1.8182	0.1	1105.9
7711	2.1429	2.	0.1	1199.2
7712	2.1429	2.1818	0.1	1279.
7713	2.1429	2.3636	0.1	1344.1
7714	2.1429	2.5455	0.1	1393.7
7715	2.1429	2.7273	0.1	1427.1
7716	2.1429	2.9091	0.1	1443.9
7717	2.1429	3.0909	0.1	1443.9
7718	2.1429	3.2727	0.1	1427.1
7719	2.1429	3.4545	0.1	1393.7
7720	2.1429	3.6364	0.1	1344.1
7721	2.1429	3.8182	0.1	1279.
7722	2.1429	4.	0.1	1199.2
7723	2.1429	4.1818	0.1	1105.9
7724	2.1429	4.3636	0.1	1000.7
7725	2.1429	4.5455	0.1	885.29
7726	2.1429	4.7273	0.1	761.96
7727	2.1429	4.9091	0.1	633.29
7728	2.1429	5.0909	0.1	502.25
7729	2.1429	5.2727	0.1	372.07
7730	2.1429	5.4545	0.1	246.11
7731	2.1429	5.6364	0.1	126.9
7732	2.1429	5.8182	0.1	16.738
7733	2.3214	0.18182	0.1	12.886
7734	2.3214	0.36364	0.1	106.09
7735	2.3214	0.54545	0.1	210.56
7736	2.3214	0.72727	0.1	323.08
7737	2.3214	0.90909	0.1	441.53
7738	2.3214	1.0909	0.1	562.97
7739	2.3214	1.2727	0.1	684.41
7740	2.3214	1.4545	0.1	802.88
7741	2.3214	1.6364	0.1	915.6
7742	2.3214	1.8182	0.1	1020.
7743	2.3214	2.	0.1	1113.7
7744	2.3214	2.1818	0.1	1194.8
7745	2.3214	2.3636	0.1	1261.6
7746	2.3214	2.5455	0.1	1312.8
7747	2.3214	2.7273	0.1	1347.5
7748	2.3214	2.9091	0.1	1365.
7749	2.3214	3.0909	0.1	1365.
7750	2.3214	3.2727	0.1	1347.5
7751	2.3214	3.4545	0.1	1312.8
7752	2.3214	3.6364	0.1	1261.6
7753	2.3214	3.8182	0.1	1194.8
7754	2.3214	4.	0.1	1113.7
7755	2.3214	4.1818	0.1	1020.
7756	2.3214	4.3636	0.1	915.6
7757	2.3214	4.5455	0.1	802.88
7758	2.3214	4.7273	0.1	684.41
7759	2.3214	4.9091	0.1	562.97
7760	2.3214	5.0909	0.1	441.53
7761	2.3214	5.2727	0.1	323.08
7762	2.3214	5.4545	0.1	210.56
7763	2.3214	5.6364	0.1	106.09
7764	2.3214	5.8182	0.1	12.886
7765	2.5	0.18182	0.1	8.5956
7766	2.5	0.36364	0.1	84.077
7767	2.5	0.54545	0.1	174.64
7768	2.5	0.72727	0.1	274.65
7769	2.5	0.90909	0.1	382.25
7770	2.5	1.0909	0.1	494.82
7771	2.5	1.2727	0.1	609.59
7772	2.5	1.4545	0.1	723.62
7773	2.5	1.6364	0.1	833.97
7774	2.5	1.8182	0.1	937.72
7775	2.5	2.	0.1	1032.1
7776	2.5	2.1818	0.1	1114.6
7777	2.5	2.3636	0.1	1183.1
7778	2.5	2.5455	0.1	1235.9
7779	2.5	2.7273	0.1	1271.7
7780	2.5	2.9091	0.1	1289.9
7781	2.5	3.0909	0.1	1289.9
7782	2.5	3.2727	0.1	1271.7
7783	2.5	3.4545	0.1	1235.9
7784	2.5	3.6364	0.1	1183.1
7785	2.5	3.8182	0.1	1114.6
7786	2.5	4.	0.1	1032.1
7787	2.5	4.1818	0.1	937.72
7788	2.5	4.3636	0.1	833.97
7789	2.5	4.5455	0.1	723.62
7790	2.5	4.7273	0.1	609.59
7791	2.5	4.9091	0.1	494.82
7792	2.5	5.0909	0.1	382.25
7793	2.5	5.2727	0.1	274.65
7794	2.5	5.4545	0.1	174.64
7795	2.5	5.6364	0.1	84.077
7796	2.5	5.8182	0.1	8.5956
7797	2.6786	0.18182	0.1	5.0023
7798	2.6786	0.36364	0.1	60.809
7799	2.6786	0.54545	0.1	137.92
7800	2.6786	0.72727	0.1	225.99
7801	2.6786	0.90909	0.1	323.28
7802	2.6786	1.0909	0.1	427.47
7803	2.6786	1.2727	0.1	535.99
7804	2.6786	1.4545	0.1	646.
7805	2.6786	1.6364	0.1	754.38
7806	2.6786	1.8182	0.1	857.87
7807	2.6786	2.	0.1	953.23
7808	2.6786	2.1818	0.1	1037.4
7809	2.6786	2.3636	0.1	1107.8
7810	2.6786	2.5455	0.1	1162.2
7811	2.6786	2.7273	0.1	1199.3
7812	2.6786	2.9091	0.1	1218.1
7813	2.6786	3.0909	0.1	1218.1
7814	2.6786	3.2727	0.1	1199.3
7815	2.6786	3.4545	0.1	1162.2
7816	2.6786	3.6364	0.1	1107.8
7817	2.6786	3.8182	0.1	1037.4
7818	2.6786	4.	0.1	953.23
7819	2.6786	4.1818	0.1	857.87
7820	2.6786	4.3636	0.1	754.38
7821	2.6786	4.5455	0.1	646.
7822	2.6786	4.7273	0.1	535.99
7823	2.6786	4.9091	0.1	427.47
7824	2.6786	5.0909	0.1	323.28
7825	2.6786	5.2727	0.1	225.99
7826	2.6786	5.4545	0.1	137.92
7827	2.6786	5.6364	0.1	60.809
7828	2.6786	5.8182	0.1	5.0023
7829	2.8571	0.18182	0.1	2.7803
7830	2.8571	0.36364	0.1	36.593
7831	2.8571	0.54545	0.1	100.26
7832	2.8571	0.72727	0.1	176.58
7833	2.8571	0.90909	0.1	263.71
7834	2.8571	1.0909	0.1	359.64
7835	2.8571	1.2727	0.1	462.1
7836	2.8571	1.4545	0.1	568.35
7837	2.8571	1.6364	0.1	675.19
7838	2.8571	1.8182	0.1	778.95
7839	2.8571	2.	0.1	875.82
7840	2.8571	2.1818	0.1	962.1
7841	2.8571	2.3636	0.1	1034.6
7842	2.8571	2.5455	0.1	1090.9
7843	2.8571	2.7273	0.1	1129.2
7844	2.8571	2.9091	0.1	1148.5
7845	2.8571	3.0909	0.1	1148.5
7846	2.8571	3.2727	0.1	1129.2
7847	2.8571	3.4545	0.1	1090.9
7848	2.8571	3.6364	0.1	1034.6
7849	2.8571	3.8182	0.1	962.1
7850	2.8571	4.	0.1	875.82
7851	2.8571	4.1818	0.1	778.95
7852	2.8571	4.3636	0.1	675.19
7853	2.8571	4.5455	0.1	568.35
7854	2.8571	4.7273	0.1	462.1
7855	2.8571	4.9091	0.1	359.64
7856	2.8571	5.0909	0.1	263.71
7857	2.8571	5.2727	0.1	176.58
7858	2.8571	5.4545	0.1	100.26
7859	2.8571	5.6364	0.1	36.593
7860	2.8571	5.8182	0.1	2.7803
7861	3.0357	0.18182	0.1	1.6148
7862	3.0357	0.36364	0.1	13.738
7863	3.0357	0.54545	0.1	61.895
7864	3.0357	0.72727	0.1	126.14
7865	3.0357	0.90909	0.1	202.74
7866	3.0357	1.0909	0.1	290.03
7867	3.0357	1.2727	0.1	386.18
7868	3.0357	1.4545	0.1	488.72
7869	3.0357	1.6364	0.1	594.38
7870	3.0357	1.8182	0.1	699.04
7871	3.0357	2.	0.1	798.12
7872	3.0357	2.1818	0.1	887.09
7873	3.0357	2.3636	0.1	962.07
7874	3.0357	2.5455	0.1	1020.2
7875	3.0357	2.7273	0.1	1059.6
7876	3.0357	2.9091	0.1	1079.5
7877	3.0357	3.0909	0.1	1079.5
7878	3.0357	3.2727	0.1	1059.6
7879	3.0357	3.4545	0.1	1020.2
7880	3.0357	3.6364	0.1	962.07
7881	3.0357	3.8182	0.1	887.09
7882	3.0357	4.	0.1	798.12
7883	3.0357	4.1818	0.1	699.04
7884	3.0357	4.3636	0.1	594.38
7885	3.0357	4.5455	0.1	488.72
7886	3.0357	4.7273	0.1	386.18
7887	3.0357	4.9091	0.1	290.03
7888	3.0357	5.0909	0.1	202.74
7889	3.0357	5.2727	0.1	126.14
7890	3.0357	5.4545	0.1	61.895
7891	3.0357	5.6364	0.1	13.738
7892	3.0357	5.8182	0.1	1.6148
7893	3.2143	0.18182	0.1	1.0166
7894	3.2143	0.36364	0.1	3.4865
7895	3.2143	0.54545	0.1	24.945
7896	3.2143	0.72727	0.1	74.868
7897	3.2143	0.90909	0.1	139.68
7898	3.2143	1.0909	0.1	217.15
7899	3.2143	1.2727	0.1	306.07
7900	3.2143	1.4545	0.1	404.52
7901	3.2143	1.6364	0.1	509.24
7902	3.2143	1.8182	0.1	615.56
7903	3.2143	2.	0.1	717.8
7904	3.2143	2.1818	0.1	810.25
7905	3.2143	2.3636	0.1	888.07
7906	3.2143	2.5455	0.1	948.01
7907	3.2143	2.7273	0.1	988.37
7908	3.2143	2.9091	0.1	1008.6
7909	3.2143	3.0909	0.1	1008.6
7910	3.2143	3.2727	0.1	988.37
7911	3.2143	3.4545	0.1	948.01
7912	3.2143	3.6364	0.1	888.07
7913	3.2143	3.8182	0.1	810.25
7914	3.2143	4.	0.1	717.8
7915	3.2143	4.1818	0.1	615.56
7916	3.2143	4.3636	0.1	509.24
7917	3.2143	4.5455	0.1	404.52
7918	3.2143	4.7273	0.1	306.07
7919	3.2143	4.9091	0.1	217.15
7920	3.2143	5.0909	0.1	139.68
7921	3.2143	5.2727	0.1	74.868
7922	3.2143	5.4545	0.1	24.945
7923	3.2143	5.6364	0.1	3.4865
7924	3.2143	5.8182	0.1	1.0166
7925	3.3929	0.18182	0.1	0.71125
7926	3.3929	0.36364	0.1	1.8345
7927	3.3929	0.54545	0.1	5.445
7928	3.3929	0.72727	0.1	26.22
7929	3.3929	0.90909	0.1	74.423
7930	3.3929	1.0909	0.1	139.27
7931	3.3929	1.2727	0.1	218.87
7932	3.3929	1.4545	0.1	312.08
7933	3.3929	1.6364	0.1	415.88
7934	3.3929	1.8182	0.1	524.83
7935	3.3929	2.	0.1	631.63
7936	3.3929	2.1818	0.1	728.66
7937	3.3929	2.3636	0.1	809.74
7938	3.3929	2.5455	0.1	871.22
7939	3.3929	2.7273	0.1	911.88
7940	3.3929	2.9091	0.1	931.97
7941	3.3929	3.0909	0.1	931.97
7942	3.3929	3.2727	0.1	911.88
7943	3.3929	3.4545	0.1	871.22
7944	3.3929	3.6364	0.1	809.74
7945	3.3929	3.8182	0.1	728.66
7946	3.3929	4.	0.1	631.63
7947	3.3929	4.1818	0.1	524.83
7948	3.3929	4.3636	0.1	415.88
7949	3.3929	4.5455	0.1	312.08
7950	3.3929	4.7273	0.1	218.87
7951	3.3929	4.9091	0.1	139.27
7952	3.3929	5.0909	0.1	74.423
7953	3.3929	5.2727	0.1	26.22
7954	3.3929	5.4545	0.1	5.445
7955	3.3929	5.6364	0.1	1.8345
7956	3.3929	5.8182	0.1	0.71126
7957	3.5714	0.18182	0.1	0.58216
7958	3.5714	0.36364	0.1	1.4671
7959	3.5714	0.54545	0.1	2.7648
7960	3.5714	0.72727	0.1	5.7699
7961	3.5714	0.90909	0.1	17.215
7962	3.5714	1.0909	0.1	56.209
7963	3.5714	1.2727	0.1	120.9
7964	3.5714	1.4545	0.1	206.06
7965	3.5714	1.6364	0.1	308.43
7966	3.5714	1.8182	0.1	421.39
7967	3.5714	2.	0.1	534.94
7968	3.5714	2.1818	0.1	638.29
7969	3.5714	2.3636	0.1	723.11
7970	3.5714	2.5455	0.1	785.44
7971	3.5714	2.7273	0.1	825.24
7972	3.5714	2.9091	0.1	844.36
7973	3.5714	3.0909	0.1	844.36
7974	3.5714	3.2727	0.1	825.24
7975	3.5714	3.4545	0.1	785.44
7976	3.5714	3.6364	0.1	723.11
7977	3.5714	3.8182	0.1	638.29
7978	3.5714	4.	0.1	534.94
7979	3.5714	4.1818	0.1	421.39
7980	3.5714	4.3636	0.1	308.43
7981	3.5714	4.5455	0.1	206.06
7982	3.5714	4.7273	0.1	120.91
7983	3.5714	4.9091	0.1	56.209
7984	3.5714	5.0909	0.1	17.215
7985	3.5714	5.2727	0.1	5.7699
7986	3.5714	5.4545	0.1	2.7649
7987	3.5714	5.6364	0.1	1.4671
7988	3.5714	5.8182	0.1	0.58216
7989	3.75	0.18182	0.1	0.60871
7990	3.75	0.36364	0.1	1.4676
7991	3.75	0.54545	0.1	2.2822
7992	3.75	0.72727	0.1	3.3457
7993	3.75	0.90909	0.1	4.905
7994	3.75	1.0909	0.1	8.364
7995	3.75	1.2727	0.1	22.983
7996	3.75	1.4545	0.1	81.091
7997	3.75	1.6364	0.1	178.33
7998	3.75	1.8182	0.1	296.93
7999	3.75	2.	0.1	420.91
8000	3.75	2.1818	0.1	533.54
8001	3.75	2.3636	0.1	622.76
8002	3.75	2.5455	0.1	684.59
8003	3.75	2.7273	0.1	721.5
8004	3.75	2.9091	0.1	738.3
8005	3.75	3.0909	0.1	738.3
8006	3.75	3.2727	0.1	721.5
8007	3.75	3.4545	0.1	684.59
8008	3.75	3.6364	0.1	622.76
8009	3.75	3.8182	0.1	533.54
8010	3.75	4.	0.1	420.91
8011	3.75	4.1818	0.1	296.93
8012	3.75	4.3636	0.1	178.33
8013	3.75	4.5455	0.1	81.091
8014	3.75	4.7273	0.1	22.983
8015	3.75	4.9091	0.1	8.364
8016	3.75	5.0909	0.1	4.905
8017	3.75	5.2727	0.1	3.3457
8018	3.75	5.4545	0.1	2.2822
8019	3.75	5.6364	0.1	1.4676
8020	3.75	5.8182	0.1	0.60871
8021	3.9286	0.18182	0.1	0.84345
8022	3.9286	0.36364	0.1	1.7122
8023	3.9286	0.54545	0.1	2.3423
8024	3.9286	0.72727	0.1	2.8749
8025	3.9286	0.90909	0.1	3.3584
8026	3.9286	1.0909	0.1	4.0067
8027	3.9286	1.2727	0.1	5.2471
8028	3.9286	1.4545	0.1	8.7467
8029	3.9286	1.6364	0.1	31.943
8030	3.9286	1.8182	0.1	139.88
8031	3.9286	2.	0.1	279.25
8032	3.9286	2.1818	0.1	406.31
8033	3.9286	2.3636	0.1	501.14
8034	3.9286	2.5455	0.1	560.19
8035	3.9286	2.7273	0.1	591.14
8036	3.9286	2.9091	0.1	603.7
8037	3.9286	3.0909	0.1	603.7
8038	3.9286	3.2727	0.1	591.14
8039	3.9286	3.4545	0.1	560.19
8040	3.9286	3.6364	0.1	501.14
8041	3.9286	3.8182	0.1	406.31
8042	3.9286	4.	0.1	279.25
8043	3.9286	4.1818	0.1	139.88
8044	3.9286	4.3636	0.1	31.944
8045	3.9286	4.5455	0.1	8.7468
8046	3.9286	4.7273	0.1	5.2471
8047	3.9286	4.9091	0.1	4.0067
8048	3.9286	5.0909	0.1	3.3584
8049	3.9286	5.2727	0.1	2.8749
8050	3.9286	5.4545	0.1	2.3423
8051	3.9286	5.6364	0.1	1.7123
8052	3.9286	5.8182	0.1	0.84346
8053	4.1071	0.18182	0.1	1.5017
8054	4.1071	0.36364	0.1	2.3274
8055	4.1071	0.54545	0.1	2.7786
8056	4.1071	0.72727	0.1	2.9316
8057	4.1071	0.90909	0.1	3.0477
8058	4.1071	1.0909	0.1	3.2682
8059	4.1071	1.2727	0.1	3.6499
8060	4.1071	1.4545	0.1	4.4615
8061	4.1071	1.6364	0.1	6.5292
8062	4.1071	1.8182	0.1	13.63
8063	4.1071	2.	0.1	98.807
8064	4.1071	2.1818	0.1	245.89
8065	4.1071	2.3636	0.1	347.7
8066	4.1071	2.5455	0.1	400.55
8067	4.1071	2.7273	0.1	421.78
8068	4.1071	2.9091	0.1	428.21
8069	4.1071	3.0909	0.1	428.21
8070	4.1071	3.2727	0.1	421.78
8071	4.1071	3.4545	0.1	400.55
8072	4.1071	3.6364	0.1	347.7
8073	4.1071	3.8182	0.1	245.89
8074	4.1071	4.	0.1	98.807
8075	4.1071	4.1818	0.1	13.63
8076	4.1071	4.3636	0.1	6.5292
8077	4.1071	4.5455	0.1	4.4615
8078	4.1071	4.7273	0.1	3.6499
8079	4.1071	4.9091	0.1	3.2682
8080	4.1071	5.0909	0.1	3.0477
8081	4.1071	5.2727	0.1	2.9316
8082	4.1071	5.4545	0.1	2.7786
8083	4.1071	5.6364	0.1	2.3274
8084	4.1071	5.8182	0.1	1.5017
8085	4.2857	0.18182	0.1	2.8906
8086	4.2857	0.36364	0.1	3.4909
8087	4.2857	0.54545	0.1	3.4604
8088	4.2857	0.72727	0.1	3.0954
8089	4.2857	0.90909	0.1	2.9397
8090	4.2857	1.0909	0.1	2.9833
8091	4.2857	1.2727	0.1	3.4336
8092	4.2857	1.4545	0.1	4.1874
8093	4.2857	1.6364	0.1	2.9747
8094	4.2857	1.8182	0.1	4.6114
8095	4.2857	2.	0.1	4.3652
8096	4.2857	2.1818	0.1	40.938
8097	4.2857	2.3636	0.1	147.22
8098	4.2857	2.5455	0.1	189.95
8099	4.2857	2.7273	0.1	199.44
8100	4.2857	2.9091	0.1	199.83
8101	4.2857	3.0909	0.1	199.83
8102	4.2857	3.2727	0.1	199.44
8103	4.2857	3.4545	0.1	189.95
8104	4.2857	3.6364	0.1	147.22
8105	4.2857	3.8182	0.1	40.939
8106	4.2857	4.	0.1	4.3653
8107	4.2857	4.1818	0.1	4.6114
8108	4.2857	4.3636	0.1	2.9747
8109	4.2857	4.5455	0.1	4.1874
8110	4.2857	4.7273	0.1	3.4336
8111	4.2857	4.9091	0.1	2.9833
8112	4.2857	5.0909	0.1	2.9397
8113	4.2857	5.2727	0.1	3.0954
8114	4.2857	5.4545	0.1	3.4604
8115	4.2857	5.6364	0.1	3.4909
8116	4.2857	5.8182	0.1	2.8906
8117	4.4643	0.18182	0.1	6.6034
8118	4.4643	0.36364	0.1	6.2995
8119	4.4643	0.54545	0.1	4.8953
8120	4.4643	0.72727	0.1	3.8327
8121	4.4643	0.90909	0.1	3.4441
8122	4.4643	1.0909	0.1	3.7517
8123	4.4643	1.2727	0.1	4.2406
8124	4.4643	1.4545	0.1	4.3696
8125	4.4643	1.6364	0.1	13.569
8126	4.4643	1.8182	0.1	9.5548
8127	4.4643	2.	0.1	17.78
8128	4.4643	2.1818	0.1	11.203
8129	4.4643	2.3636	0.1	-7.9209
8130	4.4643	2.5455	0.1	-0.49322
8131	4.4643	2.7273	0.1	-0.61376
8132	4.4643	2.9091	0.1	-0.66532
8133	4.4643	3.0909	0.1	-0.66532
8134	4.4643	3.2727	0.1	-0.61376
8135	4.4643	3.4545	0.1	-0.49321
8136	4.4643	3.6364	0.1	-7.9209
8137	4.4643	3.8182	0.1	11.203
8138	4.4643	4.	0.1	17.78
8139	4.4643	4.1818	0.1	9.5549
8140	4.4643	4.3636	0.1	13.569
8141	4.4643	4.5455	0.1	4.3696
8142	4.4643	4.7273	0.1	4.2406
8143	4.4643	4.9091	0.1	3.7517
8144	4.4643	5.0909	0.1	3.4441
8145	4.4643	5.2727	0.1	3.8327
8146	4.4643	5.4545	0.1	4.8953
8147	4.4643	5.6364	0.1	6.2995
8148	4.4643	5.8182	0.1	6.6034
8149	4.6429	0.18182	0.1	12.405
8150	4.6429	0.36364	0.1	7.9204
8151	4.6429	0.54545	0.1	4.0705
8152	4.6429	0.72727	0.1	1.956
8153	4.6429	0.90909	0.1	1.1507
8154	4.6429	1.0909	0.1	0.63884
8155	4.6429	1.2727	0.1	0.91351
8156	4.6429	1.4545	0.1	2.3942
8157	4.6429	1.6364	0.1	-1.4637
8158	4.6429	1.8182	0.1	-14.97
8159	4.6429	2.	0.1	-90.284
8160	4.6429	2.1818	0.1	-49.105
8161	4.6429	2.3636	0.1	7.8351
8162	4.6429	2.5455	0.1	-1.1643
8163	4.6429	2.7273	0.1	0.55919
8164	4.6429	2.9091	0.1	0.4387
8165	4.6429	3.0909	0.1	0.43871
8166	4.6429	3.2727	0.1	0.55919
8167	4.6429	3.4545	0.1	-1.1643
8168	4.6429	3.6364	0.1	7.8351
8169	4.6429	3.8182	0.1	-49.105
8170	4.6429	4.	0.1	-90.284
8171	4.6429	4.1818	0.1	-14.97
8172	4.6429	4.3636	0.1	-1.4637
8173	4.6429	4.5455	0.1	2.3942
8174	4.6429	4.7273	0.1	0.91352
8175	4.6429	4.9091	0.1	0.63885
8176	4.6429	5.0909	0.1	1.1507
8177	4.6429	5.2727	0.1	1.9561
8178	4.6429	5.4545	0.1	4.0705
8179	4.6429	5.6364	0.1	7.9204
8180	4.6429	5.8182	0.1	12.405
8181	4.8214	0.18182	0.1	32.885
8182	4.8214	0.36364	0.1	15.209
8183	4.8214	0.54545	0.1	11.091
8184	4.8214	0.72727	0.1	9.3864
8185	4.8214	0.90909	0.1	8.9826
8186	4.8214	1.0909	0.1	11.053
8187	4.8214	1.2727	0.1	8.4378
8188	4.8214	1.4545	0.1	30.623
8189	4.8214	1.6364	0.1	-20.39
8190	4.8214	1.8182	0.1	182.37
8191	4.8214	2.	0.1	704.4
8192	4.8214	2.1818	0.1	-15.814
8193	4.8214	2.3636	0.1	23.04
8194	4.8214	2.5455	0.1	-4.8588
8195	4.8214	2.7273	0.1	4.8705
8196	4.8214	2.9091	0.1	1.3685
8197	4.8214	3.0909	0.1	1.3685
8198	4.8214	3.2727	0.1	4.8705
8199	4.8214	3.4545	0.1	-4.8588
8200	4.8214	3.6364	0.1	23.041
8201	4.8214	3.8182	0.1	-15.814
8202	4.8214	4.	0.1	704.4
8203	4.8214	4.1818	0.1	182.37
8204	4.8214	4.3636	0.1	-20.39
8205	4.8214	4.5455	0.1	30.623
8206	4.8214	4.7273	0.1	8.4378
8207	4.8214	4.9091	0.1	11.053
8208	4.8214	5.0909	0.1	8.9826
8209	4.8214	5.2727	0.1	9.3864
8210	4.8214	5.4545	0.1	11.091
8211	4.8214	5.6364	0.1	15.209
8212	4.8214	5.8182	0.1	32.885
8213	5.1667	3.8182	0.1	-115.55
8214	5.1667	3.6364	0.1	45.964
8215	5.1667	3.4545	0.1	-0.99634
8216	5.1667	3.2727	0.1	4.9891
8217	5.1667	3.0909	0.1	2.4835
8218	5.1667	2.9091	0.1	2.4835
8219	5.1667	2.7273	0.1	4.9891
8220	5.1667	2.5455	0.1	-0.99635
8221	5.1667	2.3636	0.1	45.964
8222	5.1667	2.1818	0.1	-115.55
8223	5.	3.8182	0.1	-160.8
8224	5.	3.6364	0.1	47.205
8225	5.	3.4545	0.1	2.1332e-002
8226	5.	3.2727	0.1	5.5188
8227	5.	3.0909	0.1	2.9439
8228	5.	2.9091	0.1	2.9439
8229	5.	2.7273	0.1	5.5188
8230	5.	2.5455	0.1	2.1318e-002
8231	5.	2.3636	0.1	47.205
8232	5.	2.1818	0.1	-160.8
8233	5.1667	5.8182	0.1	-12.305
8234	5.1667	5.6364	0.1	-17.709
8235	5.1667	5.4545	0.1	-18.032
8236	5.1667	5.2727	0.1	-20.076
8237	5.1667	5.0909	0.1	-23.411
8238	5.1667	4.9091	0.1	-26.283
8239	5.1667	4.7273	0.1	-38.664
8240	5.1667	4.5455	0.1	-34.354
8241	5.1667	4.3636	0.1	-132.45
8242	5.1667	4.1818	0.1	23.009
8243	5.1667	4.	0.1	1318.2
8244	5.	4.	0.1	1171.4
8245	5.	4.1818	0.1	7.7311
8246	5.	4.3636	0.1	-152.85
8247	5.	4.5455	0.1	-40.056
8248	5.	4.7273	0.1	-44.92
8249	5.	4.9091	0.1	-31.373
8250	5.	5.0909	0.1	-28.244
8251	5.	5.2727	0.1	-24.699
8252	5.	5.4545	0.1	-22.549
8253	5.	5.6364	0.1	-22.525
8254	5.	5.8182	0.1	-16.059
8255	5.1667	0.18182	0.1	-12.305
8256	5.1667	0.36364	0.1	-17.709
8257	5.1667	0.54545	0.1	-18.032
8258	5.1667	0.72727	0.1	-20.076
8259	5.1667	0.90909	0.1	-23.411
8260	5.1667	1.0909	0.1	-26.283
8261	5.1667	1.2727	0.1	-38.664
8262	5.1667	1.4545	0.1	-34.354
8263	5.1667	1.6364	0.1	-132.45
8264	5.1667	1.8182	0.1	23.009
8265	5.1667	2.	0.1	1318.2
8266	5.	2.	0.1	1171.4
8267	5.	1.8182	0.1	7.7307
8268	5.	1.6364	0.1	-152.85
8269	5.	1.4545	0.1	-40.056
8270	5.	1.2727	0.1	-44.92
8271	5.	1.0909	0.1	-31.373
8272	5.	0.90909	0.1	-28.244
8273	5.	0.72727	0.1	-24.699
8274	5.	0.54545	0.1	-22.549
8275	5.	0.36364	0.1	-22.525
8276	5.	0.18182	0.1	-16.059
8277	5.1667	6.	0.1	39.583
8278	5.3513	6.	0.1	4.3288
8279	5.5359	6.	0.1	-3.2108
8280	5.7206	6.	0.1	-0.62257
8281	5.9052	6.	0.1	-1.9546e-002
8282	6.0899	6.	0.1	0.75305
8283	6.2745	6.	0.1	1.1326
8284	6.4592	6.	0.1	1.3114
8285	6.6438	6.	0.1	1.3212
8286	6.8284	6.	0.1	1.2293
8287	7.0131	6.	0.1	1.0797
8288	7.1977	6.	0.1	0.90541
8289	7.3824	6.	0.1	0.72782
8290	7.567	6.	0.1	0.55996
8291	7.7516	6.	0.1	0.40888
8292	7.9363	6.	0.1	0.27769
8293	8.1209	6.	0.1	0.16697
8294	8.3056	6.	0.1	7.5853e-002
8295	8.4902	6.	0.1	2.6171e-003
8296	8.6748	6.	0.1	-5.4794e-002
8297	8.8595	6.	0.1	-9.854e-002
8298	9.0441	6.	0.1	-0.13071
8299	9.2288	6.	0.1	-0.15324
8300	9.4134	6.	0.1	-0.16789
8301	9.598	6.	0.1	-0.17618
8302	9.7827	6.	0.1	-0.17943
8303	9.9673	6.	0.1	-0.17873
8304	10.152	6.	0.1	-0.17501
8305	10.337	6.	0.1	-0.16902
8306	10.521	6.	0.1	-0.16138
8307	10.706	6.	0.1	-0.15259
8308	10.891	6.	0.1	-0.14304
8309	11.075	6.	0.1	-0.13304
8310	11.26	6.	0.1	-0.12284
8311	11.444	6.	0.1	-0.11263
8312	11.629	6.	0.1	-0.10255
8313	11.814	6.	0.1	-9.2717e-002
8314	11.998	6.	0.1	-8.3183e-002
8315	12.183	6.	0.1	-7.4017e-002
8316	12.368	6.	0.1	-6.5275e-002
8317	12.552	6.	0.1	-5.6923e-002
8318	12.737	6.	0.1	-4.8986e-002
8319	12.922	6.	0.1	-4.148e-002
8320	13.106	6.	0.1	-3.4382e-002
8321	13.291	6.	0.1	-2.768e-002
8322	13.475	6.	0.1	-2.1356e-002
8323	13.66	6.	0.1	-1.539e-002
8324	13.845	6.	0.1	-9.7587e-003
8325	14.029	6.	0.1	-4.4395e-003
8326	14.214	6.	0.1	5.9133e-004
8327	14.399	6.	0.1	5.3586e-003
8328	14.583	6.	0.1	9.8946e-003
8329	14.768	6.	0.1	1.4197e-002
8330	14.953	6.	0.1	1.8316e-002
8331	15.137	6.	0.1	2.2266e-002
8332	15.322	6.	0.1	2.6071e-002
8333	15.507	6.	0.1	2.9752e-002
8334	15.691	6.	0.1	3.333e-002
8335	15.876	6.	0.1	3.683e-002
8336	16.06	6.	0.1	4.0271e-002
8337	16.245	6.	0.1	4.3674e-002
8338	16.43	6.	0.1	4.7064e-002
8339	16.614	6.	0.1	5.0456e-002
8340	16.799	6.	0.1	5.3874e-002
8341	16.984	6.	0.1	5.7358e-002
8342	17.168	6.	0.1	6.09e-002
8343	17.353	6.	0.1	6.4532e-002
8344	17.538	6.	0.1	6.8287e-002
8345	17.722	6.	0.1	7.2181e-002
8346	17.907	6.	0.1	7.6241e-002
8347	18.092	6.	0.1	8.0493e-002
8348	18.276	6.	0.1	8.4967e-002
8349	18.461	6.	0.1	8.9688e-002
8350	18.645	6.	0.1	9.4686e-002
8351	18.83	6.	0.1	9.9996e-002
8352	19.015	6.	0.1	0.10565
8353	19.199	6.	0.1	0.11169
8354	19.384	6.	0.1	0.11815
8355	19.569	6.	0.1	0.12508
8356	19.753	6.	0.1	0.13251
8357	19.938	6.	0.1	0.14052
8358	20.123	6.	0.1	0.14914
8359	20.307	6.	0.1	0.15845
8360	20.492	6.	0.1	0.16851
8361	20.676	6.	0.1	0.1794
8362	20.861	6.	0.1	0.19122
8363	21.046	6.	0.1	0.20408
8364	21.23	6.	0.1	0.21808
8365	21.415	6.	0.1	0.23339
8366	21.6	6.	0.1	0.25018
8367	21.784	6.	0.1	0.26865
8368	21.969	6.	0.1	0.28911
8369	22.154	6.	0.1	0.31187
8370	22.338	6.	0.1	0.33742
8371	22.523	6.	0.1	0.36635
8372	22.708	6.	0.1	0.39958
8373	22.892	6.	0.1	0.43812
8374	23.077	6.	0.1	0.48479
8375	23.261	6.	0.1	0.53858
8376	23.446	6.	0.1	0.6233
8377	23.631	6.	0.1	0.69848
8378	23.815	6.	0.1	1.0594
8379	24.	6.	0.1	-1.0453
8380	24.	5.8182	0.1	-2.1314
8381	24.	5.6364	0.1	-2.1648
8382	24.	5.4545	0.1	-2.3689
8383	24.	5.2727	0.1	-2.4017
8384	24.	5.0909	0.1	-2.4393
8385	24.	4.9091	0.1	-2.4612
8386	24.	4.7273	0.1	-2.4787
8387	24.	4.5455	0.1	-2.4917
8388	24.	4.3636	0.1	-2.502
8389	24.	4.1818	0.1	-2.51
8390	24.	4.	0.1	-2.5163
8391	24.	3.8182	0.1	-2.5212
8392	24.	3.6364	0.1	-2.5249
8393	24.	3.4545	0.1	-2.5275
8394	24.	3.2727	0.1	-2.5292
8395	24.	3.0909	0.1	-2.5301
8396	24.	2.9091	0.1	-2.5301
8397	24.	2.7273	0.1	-2.5292
8398	24.	2.5455	0.1	-2.5275
8399	24.	2.3636	0.1	-2.5249
8400	24.	2.1818	0.1	-2.5212
8401	24.	2.	0.1	-2.5163
8402	24.	1.8182	0.1	-2.51
8403	24.	1.6364	0.1	-2.502
8404	24.	1.4545	0.1	-2.4917
8405	24.	1.2727	0.1	-2.4787
8406	24.	1.0909	0.1	-2.4612
8407	24.	0.90909	0.1	-2.4393
8408	24.	0.72727	0.1	-2.4017
8409	24.	0.54545	0.1	-2.3689
8410	24.	0.36364	0.1	-2.1648
8411	24.	0.18182	0.1	-2.1314
8412	1.5894e-015	0.18182	0.1	1238.5
8413	3.1789e-015	0.36364	0.1	2347.4
8414	4.7683e-015	0.54545	0.1	2857.2
8415	6.3578e-015	0.72727	0.1	3160.1
8416	7.9472e-015	0.90909	0.1	3361.3
8417	9.5366e-015	1.0909	0.1	3503.5
8418	1.1126e-014	1.2727	0.1	3607.2
8419	1.2716e-014	1.4545	0.1	3684.1
8420	1.4305e-014	1.6364	0.1	3741.7
8421	1.5894e-014	1.8182	0.1	3785.
8422	1.7484e-014	2.	0.1	3817.4
8423	1.9073e-014	2.1818	0.1	3841.2
8424	2.0663e-014	2.3636	0.1	3858.4
8425	2.2252e-014	2.5455	0.1	3870.3
8426	2.3842e-014	2.7273	0.1	3877.6
8427	2.5431e-014	2.9091	0.1	3881.1
8428	2.702e-014	3.0909	0.1	3881.1
8429	2.861e-014	3.2727	0.1	3877.6
8430	3.0199e-014	3.4545	0.1	3870.3
8431	3.1789e-014	3.6364	0.1	3858.4
8432	3.3378e-014	3.8182	0.1	3841.2
8433	3.4968e-014	4.	0.1	3817.4
8434	3.6557e-014	4.1818	0.1	3785.
8435	3.8147e-014	4.3636	0.1	3741.7
8436	3.9736e-014	4.5455	0.1	3684.1
8437	4.1325e-014	4.7273	0.1	3607.2
8438	4.2915e-014	4.9091	0.1	3503.5
8439	4.4504e-014	5.0909	0.1	3361.3
8440	4.6094e-014	5.2727	0.1	3160.1
8441	4.7683e-014	5.4545	0.1	2857.2
8442	4.9273e-014	5.6364	0.1	2347.4
8443	5.0862e-014	5.8182	0.1	1238.5
8444	24.	0.	0.1	-1.0454
8445	23.815	0.	0.1	1.0594
8446	23.631	0.	0.1	0.69849
8447	23.446	0.	0.1	0.6233
8448	23.261	0.	0.1	0.53859
8449	23.077	0.	0.1	0.48479
8450	22.892	0.	0.1	0.43812
8451	22.708	0.	0.1	0.39958
8452	22.523	0.	0.1	0.36635
8453	22.338	0.	0.1	0.33742
8454	22.154	0.	0.1	0.31187
8455	21.969	0.	0.1	0.2891
8456	21.784	0.	0.1	0.26866
8457	21.6	0.	0.1	0.25018
8458	21.415	0.	0.1	0.2334
8459	21.23	0.	0.1	0.21808
8460	21.046	0.	0.1	0.20407
8461	20.861	0.	0.1	0.19123
8462	20.676	0.	0.1	0.1794
8463	20.492	0.	0.1	0.16851
8464	20.307	0.	0.1	0.15845
8465	20.123	0.	0.1	0.14914
8466	19.938	0.	0.1	0.14052
8467	19.753	0.	0.1	0.13252
8468	19.569	0.	0.1	0.12508
8469	19.384	0.	0.1	0.11815
8470	19.199	0.	0.1	0.11169
8471	19.015	0.	0.1	0.10566
8472	18.83	0.	0.1	9.9996e-002
8473	18.645	0.	0.1	9.4686e-002
8474	18.461	0.	0.1	8.9688e-002
8475	18.276	0.	0.1	8.4968e-002
8476	18.092	0.	0.1	8.0497e-002
8477	17.907	0.	0.1	7.6243e-002
8478	17.722	0.	0.1	7.2181e-002
8479	17.538	0.	0.1	6.8287e-002
8480	17.353	0.	0.1	6.4534e-002
8481	17.168	0.	0.1	6.0901e-002
8482	16.984	0.	0.1	5.736e-002
8483	16.799	0.	0.1	5.3875e-002
8484	16.614	0.	0.1	5.0456e-002
8485	16.43	0.	0.1	4.7066e-002
8486	16.245	0.	0.1	4.3676e-002
8487	16.06	0.	0.1	4.0272e-002
8488	15.876	0.	0.1	3.683e-002
8489	15.691	0.	0.1	3.3331e-002
8490	15.507	0.	0.1	2.9752e-002
8491	15.322	0.	0.1	2.6072e-002
8492	15.137	0.	0.1	2.2267e-002
8493	14.953	0.	0.1	1.8318e-002
8494	14.768	0.	0.1	1.4198e-002
8495	14.583	0.	0.1	9.896e-003
8496	14.399	0.	0.1	5.3599e-003
8497	14.214	0.	0.1	5.924e-004
8498	14.029	0.	0.1	-4.4384e-003
8499	13.845	0.	0.1	-9.7581e-003
8500	13.66	0.	0.1	-1.5389e-002
8501	13.475	0.	0.1	-2.1356e-002
8502	13.291	0.	0.1	-2.7679e-002
8503	13.106	0.	0.1	-3.4382e-002
8504	12.922	0.	0.1	-4.1481e-002
8505	12.737	0.	0.1	-4.8985e-002
8506	12.552	0.	0.1	-5.6922e-002
8507	12.368	0.	0.1	-6.5274e-002
8508	12.183	0.	0.1	-7.4017e-002
8509	11.998	0.	0.1	-8.3182e-002
8510	11.814	0.	0.1	-9.2717e-002
8511	11.629	0.	0.1	-0.10255
8512	11.444	0.	0.1	-0.11263
8513	11.26	0.	0.1	-0.12284
8514	11.075	0.	0.1	-0.13304
8515	10.891	0.	0.1	-0.14304
8516	10.706	0.	0.1	-0.15259
8517	10.521	0.	0.1	-0.16139
8518	10.337	0.	0.1	-0.16902
8519	10.152	0.	0.1	-0.17501
8520	9.9673	0.	0.1	-0.17873
8521	9.7827	0.	0.1	-0.17943
8522	9.598	0.	0.1	-0.17618
8523	9.4134	0.	0.1	-0.16789
8524	9.2288	0.	0.1	-0.15324
8525	9.0441	0.	0.1	-0.13071
8526	8.8595	0.	0.1	-9.8541e-002
8527	8.6748	0.	0.1	-5.4794e-002
8528	8.4902	0.	0.1	2.6164e-003
8529	8.3056	0.	0.1	7.5852e-002
8530	8.1209	0.	0.1	0.16697
8531	7.9363	0.	0.1	0.27768
8532	7.7516	0.	0.1	0.40888
8533	7.567	0.	0.1	0.55996
8534	7.3824	0.	0.1	0.72782
8535	7.1977	0.	0.1	0.90541
8536	7.0131	0.	0.1	1.0797
8537	6.8284	0.	0.1	1.2293
8538	6.6438	0.	0.1	1.3212
8539	6.4592	0.	0.1	1.3113
8540	6.2745	0.	0.1	1.1326
8541	6.0899	0.	0.1	0.75304
8542	5.9052	0.	0.1	-1.955e-002
8543	5.7206	0.	0.1	-0.62258
8544	5.5359	0.	0.1	-3.2108
8545	5.3513	0.	0.1	4.3288
8546	5.1667	0.	0.1	39.583
8547	5.	0.	0.1	43.724
8548	4.8214	-2.3397e-031	0.1	5.2145
8549	4.6429	-2.2531e-031	0.1	-4.1804
8550	4.4643	-2.1664e-031	0.1	-1.4642
8551	4.2857	-2.0797e-031	0.1	-0.90581
8552	4.1071	-1.9931e-031	0.1	-0.11933
8553	3.9286	-1.9064e-031	0.1	0.22165
8554	3.75	-1.8198e-031	0.1	0.32428
8555	3.5714	-1.7331e-031	0.1	0.2165
8556	3.3929	-1.6465e-031	0.1	-2.922e-002
8557	3.2143	-1.5598e-031	0.1	-0.36464
8558	3.0357	-1.4732e-031	0.1	-0.7528
8559	2.8571	-1.3865e-031	0.1	-1.1701
8560	2.6786	-1.2998e-031	0.1	-1.6028
8561	2.5	-1.2132e-031	0.1	-2.0445
8562	2.3214	-1.1265e-031	0.1	-2.4938
8563	2.1429	-1.0399e-031	0.1	-2.9523
8564	1.9643	-9.5322e-032	0.1	-3.4247
8565	1.7857	-8.6656e-032	0.1	-3.9169
8566	1.6071	-7.799e-032	0.1	-4.4427
8567	1.4286	-6.9325e-032	0.1	-5.0016
8568	1.25	-6.0659e-032	0.1	-5.6612
8569	1.0714	-5.1994e-032	0.1	-6.275
8570	0.89286	-4.3328e-032	0.1	-7.4268
8571	0.71429	-3.4662e-032	0.1	-7.4734
8572	0.53571	-2.5997e-032	0.1	-10.65
8573	0.35714	-1.7331e-032	0.1	-14.711
8574	0.17857	-8.6656e-033	0.1	45.195
8575	0.	0.	0.1	-331.89
8576	3.937e-014	6.	0.1	-331.89
8577	0.17857	6.	0.1	45.195
8578	0.35714	6.	0.1	-14.711
8579	0.53571	6.	0.1	-10.65
8580	0.71429	6.	0.1	-7.4734
8581	0.89286	6.	0.1	-7.4268
8582	1.0714	6.	0.1	-6.275
8583	1.25	6.	0.1	-5.6612
8584	1.4286	6.	0.1	-5.0016
8585	1.6071	6.	0.1	-4.4427
8586	1.7857	6.	0.1	-3.9169
8587	1.9643	6.	0.1	-3.4247
8588	2.1429	6.	0.1	-2.9523
8589	2.3214	6.	0.1	-2.4938
8590	2.5	6.	0.1	-2.0445
8591	2.6786	6.	0.1	-1.6028
8592	2.8571	6.	0.1	-1.1701
8593	3.0357	6.	0.1	-0.7528
8594	3.2143	6.	0.1	-0.36464
8595	3.3929	6.	0.1	-2.922e-002
8596	3.5714	6.	0.1	0.2165
8597	3.75	6.	0.1	0.32428
8598	3.9286	6.	0.1	0.22165
8599	4.1071	6.	0.1	-0.11932
8600	4.2857	6.	0.1	-0.90581
8601	4.4643	6.	0.1	-1.4642
8602	4.6429	6.	0.1	-4.1804
8603	4.8214	6.	0.1	5.2145
8604	5.	6.	0.1	43.724
8605	4.8214	6.	0.	-5.2145
8606	4.6429	6.	0.	4.1804
8607	4.4643	6.	0.	1.4642
8608	4.2857	6.	0.	0.90582
8609	4.1071	6.	0.	0.11933
8610	3.9286	6.	0.	-0.22165
8611	3.75	6.	0.	-0.32428
8612	3.5714	6.	0.	-0.2165
8613	3.3929	6.	0.	2.922e-002
8614	3.2143	6.	0.	0.36464
8615	3.0357	6.	0.	0.7528
8616	2.8571	6.	0.	1.1701
8617	2.6786	6.	0.	1.6028
8618	2.5	6.	0.	2.0445
8619	2.3214	6.	0.	2.4938
8620	2.1429	6.	0.	2.9523
8621	1.9643	6.	0.	3.4247
8622	1.7857	6.	0.	3.9169
8623	1.6071	6.	0.	4.4427
8624	1.4286	6.	0.	5.0016
8625	1.25	6.	0.	5.6612
8626	1.0714	6.	0.	6.275
8627	0.89286	6.	0.	7.4268
8628	0.71429	6.	0.	7.4734
8629	0.53571	6.	0.	10.65
8630	0.35714	6.	0.	14.711
8631	0.17857	6.	0.	-45.195
8632	5.	6.	0.	-43.724
8633	3.937e-014	6.	0.	331.89
8634	0.17857	-8.6656e-033	0.	-45.195
8635	0.35714	-1.7331e-032	0.	14.711
8636	0.53571	-2.5997e-032	0.	10.65
8637	0.71429	-3.4662e-032	0.	7.4734
8638	0.89286	-4.3328e-032	0.	7.4268
8639	1.0714	-5.1994e-032	0.	6.275
8640	1.25	-6.0659e-032	0.	5.6612
8641	1.4286	-6.9325e-032	0.	5.0016
8642	1.6071	-7.799e-032	0.	4.4427
8643	1.7857	-8.6656e-032	0.	3.9169
8644	1.9643	-9.5322e-032	0.	3.4247
8645	2.1429	-1.0399e-031	0.	2.9523
8646	2.3214	-1.1265e-031	0.	2.4938
8647	2.5	-1.2132e-031	0.	2.0445
8648	2.6786	-1.2998e-031	0.	1.6028
8649	2.8571	-1.3865e-031	0.	1.1701
8650	3.0357	-1.4732e-031	0.	0.7528
8651	3.2143	-1.5598e-031	0.	0.36464
8652	3.3929	-1.6465e-031	0.	2.922e-002
8653	3.5714	-1.7331e-031	0.	-0.2165
8654	3.75	-1.8198e-031	0.	-0.32428
8655	3.9286	-1.9064e-031	0.	-0.22165
8656	4.1071	-1.9931e-031	0.	0.11932
8657	4.2857	-2.0797e-031	0.	0.90581
8658	4.4643	-2.1664e-031	0.	1.4642
8659	4.6429	-2.2531e-031	0.	4.1804
8660	4.8214	-2.3397e-031	0.	-5.2145
8661	5.	0.	0.	-43.724
8662	0.	0.	0.	331.89
8663	5.3513	0.	0.	-4.3288
8664	5.5359	0.	0.	3.2108
8665	5.7206	0.	0.	0.62258
8666	5.9052	0.	0.	1.9549e-002
8667	6.0899	0.	0.	-0.75304
8668	6.2745	0.	0.	-1.1326
8669	6.4592	0.	0.	-1.3113
8670	6.6438	0.	0.	-1.3212
8671	6.8284	0.	0.	-1.2293
8672	7.0131	0.	0.	-1.0797
8673	7.1977	0.	0.	-0.90541
8674	7.3824	0.	0.	-0.72782
8675	7.567	0.	0.	-0.55996
8676	7.7516	0.	0.	-0.40888
8677	7.9363	0.	0.	-0.27768
8678	8.1209	0.	0.	-0.16697
8679	8.3056	0.	0.	-7.5852e-002
8680	8.4902	0.	0.	-2.6159e-003
8681	8.6748	0.	0.	5.4795e-002
8682	8.8595	0.	0.	9.8541e-002
8683	9.0441	0.	0.	0.13071
8684	9.2288	0.	0.	0.15324
8685	9.4134	0.	0.	0.16789
8686	9.598	0.	0.	0.17619
8687	9.7827	0.	0.	0.17943
8688	9.9673	0.	0.	0.17874
8689	10.152	0.	0.	0.17501
8690	10.337	0.	0.	0.16902
8691	10.521	0.	0.	0.16139
8692	10.706	0.	0.	0.15259
8693	10.891	0.	0.	0.14304
8694	11.075	0.	0.	0.13304
8695	11.26	0.	0.	0.12284
8696	11.444	0.	0.	0.11263
8697	11.629	0.	0.	0.10256
8698	11.814	0.	0.	9.2718e-002
8699	11.998	0.	0.	8.3183e-002
8700	12.183	0.	0.	7.4016e-002
8701	12.368	0.	0.	6.5275e-002
8702	12.552	0.	0.	5.6923e-002
8703	12.737	0.	0.	4.8987e-002
8704	12.922	0.	0.	4.1482e-002
8705	13.106	0.	0.	3.4383e-002
8706	13.291	0.	0.	2.7681e-002
8707	13.475	0.	0.	2.1357e-002
8708	13.66	0.	0.	1.5391e-002
8709	13.845	0.	0.	9.7584e-003
8710	14.029	0.	0.	4.4399e-003
8711	14.214	0.	0.	-5.9238e-004
8712	14.399	0.	0.	-5.3581e-003
8713	14.583	0.	0.	-9.8957e-003
8714	14.768	0.	0.	-1.4196e-002
8715	14.953	0.	0.	-1.8317e-002
8716	15.137	0.	0.	-2.2268e-002
8717	15.322	0.	0.	-2.6071e-002
8718	15.507	0.	0.	-2.9752e-002
8719	15.691	0.	0.	-3.3331e-002
8720	15.876	0.	0.	-3.6829e-002
8721	16.06	0.	0.	-4.027e-002
8722	16.245	0.	0.	-4.3675e-002
8723	16.43	0.	0.	-4.7065e-002
8724	16.614	0.	0.	-5.0456e-002
8725	16.799	0.	0.	-5.3876e-002
8726	16.984	0.	0.	-5.7357e-002
8727	17.168	0.	0.	-6.09e-002
8728	17.353	0.	0.	-6.4531e-002
8729	17.538	0.	0.	-6.8284e-002
8730	17.722	0.	0.	-7.2179e-002
8731	17.907	0.	0.	-7.624e-002
8732	18.092	0.	0.	-8.0494e-002
8733	18.276	0.	0.	-8.4964e-002
8734	18.461	0.	0.	-8.9686e-002
8735	18.645	0.	0.	-9.4687e-002
8736	18.83	0.	0.	-9.9994e-002
8737	19.015	0.	0.	-0.10565
8738	19.199	0.	0.	-0.11169
8739	19.384	0.	0.	-0.11815
8740	19.569	0.	0.	-0.12507
8741	19.753	0.	0.	-0.13251
8742	19.938	0.	0.	-0.14052
8743	20.123	0.	0.	-0.14914
8744	20.307	0.	0.	-0.15845
8745	20.492	0.	0.	-0.16851
8746	20.676	0.	0.	-0.1794
8747	20.861	0.	0.	-0.19123
8748	21.046	0.	0.	-0.20407
8749	21.23	0.	0.	-0.21808
8750	21.415	0.	0.	-0.2334
8751	21.6	0.	0.	-0.25018
8752	21.784	0.	0.	-0.26865
8753	21.969	0.	0.	-0.2891
8754	22.154	0.	0.	-0.31187
8755	22.338	0.	0.	-0.33742
8756	22.523	0.	0.	-0.36635
8757	22.708	0.	0.	-0.39958
8758	22.892	0.	0.	-0.43811
8759	23.077	0.	0.	-0.4848
8760	23.261	0.	0.	-0.53859
8761	23.446	0.	0.	-0.62329
8762	23.631	0.	0.	-0.69848
8763	23.815	0.	0.	-1.0594
8764	5.1667	0.	0.	-39.583
8765	24.	0.	0.	1.0454
8766	5.0862e-014	5.8182	0.	-1238.5
8767	4.9273e-014	5.6364	0.	-2347.4
8768	4.7683e-014	5.4545	0.	-2857.2
8769	4.6094e-014	5.2727	0.	-3160.1
8770	4.4504e-014	5.0909	0.	-3361.3
8771	4.2915e-014	4.9091	0.	-3503.5
8772	4.1325e-014	4.7273	0.	-3607.2
8773	3.9736e-014	4.5455	0.	-3684.1
8774	3.8147e-014	4.3636	0.	-3741.7
8775	3.6557e-014	4.1818	0.	-3785.
8776	3.4968e-014	4.	0.	-3817.4
8777	3.3378e-014	3.8182	0.	-3841.2
8778	3.1789e-014	3.6364	0.	-3858.4
8779	3.0199e-014	3.4545	0.	-3870.3
8780	2.861e-014	3.2727	0.	-3877.6
8781	2.702e-014	3.0909	0.	-3881.1
8782	2.5431e-014	2.9091	0.	-3881.1
8783	2.3842e-014	2.7273	0.	-3877.6
8784	2.2252e-014	2.5455	0.	-3870.3
8785	2.0663e-014	2.3636	0.	-3858.4
8786	1.9073e-014	2.1818	0.	-3841.2
8787	1.7484e-014	2.	0.	-3817.4
8788	1.5894e-014	1.8182	0.	-3785.
8789	1.4305e-014	1.6364	0.	-3741.7
8790	1.2716e-014	1.4545	0.	-3684.1
8791	1.1126e-014	1.2727	0.	-3607.2
8792	9.5366e-015	1.0909	0.	-3503.5
8793	7.9472e-015	0.90909	0.	-3361.3
8794	6.3578e-015	0.72727	0.	-3160.1
8795	4.7683e-015	0.54545	0.	-2857.2
8796	3.1789e-015	0.36364	0.	-2347.4
8797	1.5894e-015	0.18182	0.	-1238.5
8798	24.	0.18182	0.	2.1314
8799	24.	0.36364	0.	2.1648
8800	24.	0.54545	0.	2.3689
8801	24.	0.72727	0.	2.4018
8802	24.	0.90909	0.	2.4393
8803	24.	1.0909	0.	2.4612
8804	24.	1.2727	0.	2.4787
8805	24.	1.4545	0.	2.4917
8806	24.	1.6364	0.	2.502
8807	24.	1.8182	0.	2.51
8808	24.	2.	0.	2.5163
8809	24.	2.1818	0.	2.5212
8810	24.	2.3636	0.	2.5249
8811	24.	2.5455	0.	2.5275
8812	24.	2.7273	0.	2.5292
8813	24.	2.9091	0.	2.5301
8814	24.	3.0909	0.	2.5301
8815	24.	3.2727	0.	2.5292
8816	24.	3.4545	0.	2.5275
8817	24.	3.6364	0.	2.5249
8818	24.	3.8182	0.	2.5212
8819	24.	4.	0.	2.5163
8820	24.	4.1818	0.	2.51
8821	24.	4.3636	0.	2.502
8822	24.	4.5455	0.	2.4917
8823	24.	4.7273	0.	2.4787
8824	24.	4.9091	0.	2.4612
8825	24.	5.0909	0.	2.4393
8826	24.	5.2727	0.	2.4018
8827	24.	5.4545	0.	2.3689
8828	24.	5.6364	0.	2.1648
8829	24.	5.8182	0.	2.1314
8830	24.	6.	0.	1.0454
8831	23.815	6.	0.	-1.0594
8832	23.631	6.	0.	-0.69848
8833	23.446	6.	0.	-0.62329
8834	23.261	6.	0.	-0.53858
8835	23.077	6.	0.	-0.48479
8836	22.892	6.	0.	-0.43812
8837	22.708	6.	0.	-0.39958
8838	22.523	6.	0.	-0.36635
8839	22.338	6.	0.	-0.33742
8840	22.154	6.	0.	-0.31187
8841	21.969	6.	0.	-0.2891
8842	21.784	6.	0.	-0.26865
8843	21.6	6.	0.	-0.25017
8844	21.415	6.	0.	-0.23339
8845	21.23	6.	0.	-0.21808
8846	21.046	6.	0.	-0.20408
8847	20.861	6.	0.	-0.19123
8848	20.676	6.	0.	-0.1794
8849	20.492	6.	0.	-0.16851
8850	20.307	6.	0.	-0.15845
8851	20.123	6.	0.	-0.14914
8852	19.938	6.	0.	-0.14052
8853	19.753	6.	0.	-0.13251
8854	19.569	6.	0.	-0.12507
8855	19.384	6.	0.	-0.11815
8856	19.199	6.	0.	-0.11169
8857	19.015	6.	0.	-0.10565
8858	18.83	6.	0.	-9.9996e-002
8859	18.645	6.	0.	-9.4686e-002
8860	18.461	6.	0.	-8.9687e-002
8861	18.276	6.	0.	-8.4965e-002
8862	18.092	6.	0.	-8.0494e-002
8863	17.907	6.	0.	-7.624e-002
8864	17.722	6.	0.	-7.218e-002
8865	17.538	6.	0.	-6.8285e-002
8866	17.353	6.	0.	-6.453e-002
8867	17.168	6.	0.	-6.0899e-002
8868	16.984	6.	0.	-5.7358e-002
8869	16.799	6.	0.	-5.3874e-002
8870	16.614	6.	0.	-5.0455e-002
8871	16.43	6.	0.	-4.7063e-002
8872	16.245	6.	0.	-4.3674e-002
8873	16.06	6.	0.	-4.027e-002
8874	15.876	6.	0.	-3.6828e-002
8875	15.691	6.	0.	-3.333e-002
8876	15.507	6.	0.	-2.975e-002
8877	15.322	6.	0.	-2.607e-002
8878	15.137	6.	0.	-2.2264e-002
8879	14.953	6.	0.	-1.8316e-002
8880	14.768	6.	0.	-1.4197e-002
8881	14.583	6.	0.	-9.8948e-003
8882	14.399	6.	0.	-5.3574e-003
8883	14.214	6.	0.	-5.9176e-004
8884	14.029	6.	0.	4.4402e-003
8885	13.845	6.	0.	9.7597e-003
8886	13.66	6.	0.	1.539e-002
8887	13.475	6.	0.	2.1356e-002
8888	13.291	6.	0.	2.7681e-002
8889	13.106	6.	0.	3.4383e-002
8890	12.922	6.	0.	4.1481e-002
8891	12.737	6.	0.	4.8987e-002
8892	12.552	6.	0.	5.6923e-002
8893	12.368	6.	0.	6.5275e-002
8894	12.183	6.	0.	7.4017e-002
8895	11.998	6.	0.	8.3183e-002
8896	11.814	6.	0.	9.2718e-002
8897	11.629	6.	0.	0.10255
8898	11.444	6.	0.	0.11263
8899	11.26	6.	0.	0.12284
8900	11.075	6.	0.	0.13304
8901	10.891	6.	0.	0.14304
8902	10.706	6.	0.	0.15259
8903	10.521	6.	0.	0.16139
8904	10.337	6.	0.	0.16902
8905	10.152	6.	0.	0.17501
8906	9.9673	6.	0.	0.17874
8907	9.7827	6.	0.	0.17943
8908	9.598	6.	0.	0.17618
8909	9.4134	6.	0.	0.16789
8910	9.2288	6.	0.	0.15324
8911	9.0441	6.	0.	0.13071
8912	8.8595	6.	0.	9.854e-002
8913	8.6748	6.	0.	5.4794e-002
8914	8.4902	6.	0.	-2.617e-003
8915	8.3056	6.	0.	-7.5853e-002
8916	8.1209	6.	0.	-0.16697
8917	7.9363	6.	0.	-0.27769
8918	7.7516	6.	0.	-0.40888
8919	7.567	6.	0.	-0.55996
8920	7.3824	6.	0.	-0.72782
8921	7.1977	6.	0.	-0.90541
8922	7.0131	6.	0.	-1.0797
8923	6.8284	6.	0.	-1.2293
8924	6.6438	6.	0.	-1.3212
8925	6.4592	6.	0.	-1.3114
8926	6.2745	6.	0.	-1.1326
8927	6.0899	6.	0.	-0.75305
8928	5.9052	6.	0.	1.9547e-002
8929	5.7206	6.	0.	0.62257
8930	5.5359	6.	0.	3.2108
8931	5.3513	6.	0.	-4.3288
8932	5.1667	6.	0.	-39.583
8933	5.	1.8182	0.	-7.7311
8934	5.	1.6364	0.	152.85
8935	5.	1.4545	0.	40.056
8936	5.	1.2727	0.	44.92
8937	5.	1.0909	0.	31.373
8938	5.	0.90909	0.	28.244
8939	5.	0.72727	0.	24.699
8940	5.	0.54545	0.	22.549
8941	5.	0.36364	0.	22.525
8942	5.	0.18182	0.	16.059
8943	5.	2.	0.	-1171.4
8944	5.1667	0.18182	0.	12.305
8945	5.1667	0.36364	0.	17.709
8946	5.1667	0.54545	0.	18.032
8947	5.1667	0.72727	0.	20.076
8948	5.1667	0.90909	0.	23.411
8949	5.1667	1.0909	0.	26.283
8950	5.1667	1.2727	0.	38.664
8951	5.1667	1.4545	0.	34.354
8952	5.1667	1.6364	0.	132.45
8953	5.1667	1.8182	0.	-23.009
8954	5.1667	2.	0.	-1318.2
8955	5.	4.1818	0.	-7.7307
8956	5.	4.3636	0.	152.85
8957	5.	4.5455	0.	40.056
8958	5.	4.7273	0.	44.92
8959	5.	4.9091	0.	31.373
8960	5.	5.0909	0.	28.244
8961	5.	5.2727	0.	24.699
8962	5.	5.4545	0.	22.549
8963	5.	5.6364	0.	22.525
8964	5.	5.8182	0.	16.059
8965	5.	4.	0.	-1171.4
8966	5.1667	5.8182	0.	12.305
8967	5.1667	5.6364	0.	17.709
8968	5.1667	5.4545	0.	18.032
8969	5.1667	5.2727	0.	20.076
8970	5.1667	5.0909	0.	23.411
8971	5.1667	4.9091	0.	26.283
8972	5.1667	4.7273	0.	38.664
8973	5.1667	4.5455	0.	34.354
8974	5.1667	4.3636	0.	132.45
8975	5.1667	4.1818	0.	-23.009
8976	5.1667	4.	0.	-1318.2
8977	5.	2.2727	0.	55.245
8978	5.0833	2.1818	0.	133.41
8979	4.9107	2.1818	0.	86.275
8980	5.	2.1818	5.e-002	1.6555e-003
8981	5.	2.0909	0.	-573.47
8982	5.	2.4545	0.	-23.218
8983	5.0833	2.3636	0.	-46.556
8984	4.9107	2.3636	0.	-35.164
8985	5.	2.3636	5.e-002	1.3025e-003
8986	5.	2.6364	0.	-2.749
8987	5.0833	2.5455	0.	0.4141
8988	4.9107	2.5455	0.	2.5302
8989	5.	2.5455	5.e-002	7.0918e-004
8990	5.	2.8182	0.	-4.1944
8991	5.0833	2.7273	0.	-5.2834
8992	4.9107	2.7273	0.	-5.2121
8993	5.	2.7273	5.e-002	4.2021e-004
8994	5.	3.	0.	-2.9165
8995	5.0833	2.9091	0.	-2.7384
8996	4.9107	2.9091	0.	-2.1757
8997	5.	2.9091	5.e-002	1.6191e-004
8998	5.	3.1818	0.	-4.1944
8999	5.0833	3.0909	0.	-2.7384
9000	4.9107	3.0909	0.	-2.1757
9001	5.	3.0909	5.e-002	2.2263e-005
9002	5.	3.3636	0.	-2.749
9003	5.0833	3.2727	0.	-5.2835
9004	4.9107	3.2727	0.	-5.2121
9005	5.	3.2727	5.e-002	-1.9822e-004
9006	5.	3.5455	0.	-23.218
9007	5.0833	3.4545	0.	0.41411
9008	4.9107	3.4545	0.	2.5302
9009	5.	3.4545	5.e-002	-4.3999e-004
9010	5.	3.7273	0.	55.245
9011	5.0833	3.6364	0.	-46.556
9012	4.9107	3.6364	0.	-35.164
9013	5.	3.6364	5.e-002	-8.2645e-004
9014	5.0833	3.8182	0.	133.41
9015	4.9107	3.8182	0.	86.275
9016	5.	3.8182	5.e-002	-1.2933e-003
9017	5.	3.9091	0.	-573.47
9018	5.1667	2.2727	0.	37.011
9019	5.259	2.1818	0.	50.308
9020	5.1667	2.1818	5.e-002	1.3986e-003
9021	5.1667	2.0909	0.	-672.25
9022	5.1667	2.4545	0.	-21.953
9023	5.259	2.3636	0.	-33.4
9024	5.1667	2.3636	5.e-002	1.0707e-003
9025	5.1667	2.6364	0.	-1.9634
9026	5.259	2.5455	0.	3.4657
9027	5.1667	2.5455	5.e-002	6.1925e-004
9028	5.1667	2.8182	0.	-3.6948
9029	5.259	2.7273	0.	-4.3284
9030	5.1667	2.7273	5.e-002	3.306e-004
9031	5.1667	3.	0.	-2.4531
9032	5.259	2.9091	0.	-1.442
9033	5.1667	2.9091	5.e-002	1.4231e-004
9034	5.1667	3.1818	0.	-3.6948
9035	5.259	3.0909	0.	-1.442
9036	5.1667	3.0909	5.e-002	5.9474e-005
9037	5.1667	3.3636	0.	-1.9634
9038	5.259	3.2727	0.	-4.3284
9039	5.1667	3.2727	5.e-002	-4.0139e-005
9040	5.1667	3.5455	0.	-21.953
9041	5.259	3.4545	0.	3.4657
9042	5.1667	3.4545	5.e-002	-3.0298e-004
9043	5.1667	3.7273	0.	37.011
9044	5.259	3.6364	0.	-33.4
9045	5.1667	3.6364	5.e-002	-6.6692e-004
9046	5.259	3.8182	0.	50.308
9047	5.1667	3.8182	5.e-002	-1.1073e-003
9048	5.1667	3.9091	0.	-672.25
9049	4.8214	5.7273	0.	-22.428
9050	4.7321	5.8182	0.	-24.791
9051	4.8214	5.8182	5.e-002	4.5618e-006
9052	4.8214	5.9091	0.	-20.075
9053	4.9107	5.8182	0.	1.0146
9054	4.8214	5.5455	0.	-12.435
9055	4.7321	5.6364	0.	-13.118
9056	4.8214	5.6364	5.e-002	6.7465e-006
9057	4.9107	5.6364	0.	5.2472
9058	4.8214	5.3636	0.	-10.035
9059	4.7321	5.4545	0.	-8.2764
9060	4.8214	5.4545	5.e-002	-1.0538e-005
9061	4.9107	5.4545	0.	3.5129
9062	4.8214	5.1818	0.	-9.1111
9063	4.7321	5.2727	0.	-6.103
9064	4.8214	5.2727	5.e-002	-2.9463e-005
9065	4.9107	5.2727	0.	3.482
9066	4.8214	5.	0.	-9.9888
9067	4.7321	5.0909	0.	-5.3788
9068	4.8214	5.0909	5.e-002	-2.669e-005
9069	4.9107	5.0909	0.	3.9358
9070	4.8214	4.8182	0.	-9.7428
9071	4.7321	4.9091	0.	-6.0881
9072	4.8214	4.9091	5.e-002	-7.3013e-005
9073	4.9107	4.9091	0.	2.1276
9074	4.8214	4.6364	0.	-19.541
9075	4.7321	4.7273	0.	-4.8257
9076	4.8214	4.7273	5.e-002	-1.9991e-004
9077	4.9107	4.7273	0.	9.3061
9078	4.8214	4.4545	0.	-5.0778
9079	4.7321	4.5455	0.	-16.683
9080	4.8214	4.5455	5.e-002	-2.1418e-004
9081	4.9107	4.5455	0.	-19.769
9082	4.8214	4.2727	0.	-81.86
9083	4.7321	4.3636	0.	11.046
9084	4.8214	4.3636	5.e-002	-5.8074e-004
9085	4.9107	4.3636	0.	93.437
9086	4.8214	4.0909	0.	-452.39
9087	4.7321	4.1818	0.	-84.262
9088	4.8214	4.1818	5.e-002	-1.362e-003
9089	4.9107	4.1818	0.	-394.97
9090	4.8214	3.9091	0.	-310.46
9091	4.7321	4.	0.	-311.44
9092	4.8214	4.	5.e-002	-9.6367e-004
9093	4.9107	4.	0.	-488.05
9094	4.8214	3.7273	0.	-1.4862
9095	4.7321	3.8182	0.	37.019
9096	4.8214	3.8182	5.e-002	-3.2884e-004
9097	4.8214	3.5455	0.	-9.074
9098	4.7321	3.6364	0.	-15.454
9099	4.8214	3.6364	5.e-002	-3.4538e-004
9100	4.8214	3.3636	0.	0.15912
9101	4.7321	3.4545	0.	3.0151
9102	4.8214	3.4545	5.e-002	-1.9284e-004
9103	4.8214	3.1818	0.	-3.0804
9104	4.7321	3.2727	0.	-2.7001
9105	4.8214	3.2727	5.e-002	-4.1557e-005
9106	4.8214	3.	0.	-1.3302
9107	4.7321	3.0909	0.	-0.91135
9108	4.8214	3.0909	5.e-002	6.5701e-005
9109	4.8214	2.8182	0.	-3.0804
9110	4.7321	2.9091	0.	-0.91135
9111	4.8214	2.9091	5.e-002	1.2802e-004
9112	4.8214	2.6364	0.	0.15912
9113	4.7321	2.7273	0.	-2.7001
9114	4.8214	2.7273	5.e-002	2.4043e-004
9115	4.8214	2.4545	0.	-9.074
9116	4.7321	2.5455	0.	3.0151
9117	4.8214	2.5455	5.e-002	3.9998e-004
9118	4.8214	2.2727	0.	-1.4862
9119	4.7321	2.3636	0.	-15.454
9120	4.8214	2.3636	5.e-002	5.3899e-004
9121	4.8214	2.0909	0.	-310.46
9122	4.7321	2.1818	0.	37.019
9123	4.8214	2.1818	5.e-002	4.5591e-004
9124	4.8214	1.9091	0.	-452.39
9125	4.7321	2.	0.	-311.44
9126	4.8214	2.	5.e-002	1.3615e-003
9127	4.9107	2.	0.	-488.05
9128	4.8214	1.7273	0.	-81.86
9129	4.7321	1.8182	0.	-84.262
9130	4.8214	1.8182	5.e-002	1.69e-003
9131	4.9107	1.8182	0.	-394.97
9132	4.8214	1.5455	0.	-5.0778
9133	4.7321	1.6364	0.	11.046
9134	4.8214	1.6364	5.e-002	5.4709e-004
9135	4.9107	1.6364	0.	93.437
9136	4.8214	1.3636	0.	-19.541
9137	4.7321	1.4545	0.	-16.683
9138	4.8214	1.4545	5.e-002	3.567e-004
9139	4.9107	1.4545	0.	-19.769
9140	4.8214	1.1818	0.	-9.7428
9141	4.7321	1.2727	0.	-4.8257
9142	4.8214	1.2727	5.e-002	8.4227e-005
9143	4.9107	1.2727	0.	9.3061
9144	4.8214	1.	0.	-9.9888
9145	4.7321	1.0909	0.	-6.0881
9146	4.8214	1.0909	5.e-002	7.176e-005
9147	4.9107	1.0909	0.	2.1276
9148	4.8214	0.81818	0.	-9.1111
9149	4.7321	0.90909	0.	-5.3788
9150	4.8214	0.90909	5.e-002	5.1962e-005
9151	4.9107	0.90909	0.	3.9358
9152	4.8214	0.63636	0.	-10.035
9153	4.7321	0.72727	0.	-6.103
9154	4.8214	0.72727	5.e-002	9.9522e-006
9155	4.9107	0.72727	0.	3.482
9156	4.8214	0.45455	0.	-12.435
9157	4.7321	0.54545	0.	-8.2764
9158	4.8214	0.54545	5.e-002	2.3605e-006
9159	4.9107	0.54545	0.	3.5129
9160	4.8214	0.27273	0.	-22.428
9161	4.7321	0.36364	0.	-13.118
9162	4.8214	0.36364	5.e-002	-1.6291e-005
9163	4.9107	0.36364	0.	5.2472
9164	4.7321	0.18182	0.	-24.791
9165	4.8214	0.18182	5.e-002	-9.0845e-006
9166	4.8214	9.0909e-002	0.	-20.075
9167	4.9107	0.18182	0.	1.0146
9168	4.6429	5.7273	0.	-10.551
9169	4.5536	5.8182	0.	-9.3121
9170	4.6429	5.8182	5.e-002	5.6903e-007
9171	4.6429	5.9091	0.	-1.9721
9172	4.6429	5.5455	0.	-5.4165
9173	4.5536	5.6364	0.	-7.455
9174	4.6429	5.6364	5.e-002	-7.1688e-006
9175	4.6429	5.3636	0.	-2.7905
9176	4.5536	5.4545	0.	-4.6717
9177	4.6429	5.4545	5.e-002	-2.3275e-005
9178	4.6429	5.1818	0.	-1.4712
9179	4.5536	5.2727	0.	-2.9723
9180	4.6429	5.2727	5.e-002	-4.9947e-005
9181	4.6429	5.	0.	-0.86305
9182	4.5536	5.0909	0.	-2.3316
9183	4.6429	5.0909	5.e-002	-1.0247e-004
9184	4.6429	4.8182	0.	-0.7617
9185	4.5536	4.9091	0.	-2.21
9186	4.6429	4.9091	5.e-002	-1.6275e-004
9187	4.6429	4.6364	0.	-1.6565
9188	4.5536	4.7273	0.	-2.5756
9189	4.6429	4.7273	5.e-002	-2.4337e-004
9190	4.6429	4.4545	0.	-0.48802
9191	4.5536	4.5455	0.	-3.3807
9192	4.6429	4.5455	5.e-002	-3.4874e-004
9193	4.6429	4.2727	0.	8.6731
9194	4.5536	4.3636	0.	-6.0399
9195	4.6429	4.3636	5.e-002	-6.1619e-004
9196	4.6429	4.0909	0.	52.753
9197	4.5536	4.1818	0.	2.6469
9198	4.6429	4.1818	5.e-002	-1.013e-003
9199	4.6429	3.9091	0.	70.289
9200	4.5536	4.	0.	36.32
9201	4.6429	4.	5.e-002	-3.6173e-004
9202	4.6429	3.7273	0.	21.145
9203	4.5536	3.8182	0.	19.673
9204	4.6429	3.8182	5.e-002	-1.4597e-004
9205	4.6429	3.5455	0.	-3.3303
9206	4.5536	3.6364	0.	8.6824e-002
9207	4.6429	3.6364	5.e-002	-8.9623e-005
9208	4.6429	3.3636	0.	0.3556
9209	4.5536	3.4545	0.	0.91551
9210	4.6429	3.4545	5.e-002	-3.1748e-005
9211	4.6429	3.1818	0.	-0.43989
9212	4.5536	3.2727	0.	0.12687
9213	4.6429	3.2727	5.e-002	3.7532e-005
9214	4.6429	3.	0.	-0.39132
9215	4.5536	3.0909	0.	0.12709
9216	4.6429	3.0909	5.e-002	6.7377e-005
9217	4.6429	2.8182	0.	-0.43988
9218	4.5536	2.9091	0.	0.12709
9219	4.6429	2.9091	5.e-002	7.821e-005
9220	4.6429	2.6364	0.	0.3556
9221	4.5536	2.7273	0.	0.12687
9222	4.6429	2.7273	5.e-002	1.0356e-004
9223	4.6429	2.4545	0.	-3.3303
9224	4.5536	2.5455	0.	0.91551
9225	4.6429	2.5455	5.e-002	1.6601e-004
9226	4.6429	2.2727	0.	21.145
9227	4.5536	2.3636	0.	8.6835e-002
9228	4.6429	2.3636	5.e-002	1.9004e-004
9229	4.6429	2.0909	0.	70.289
9230	4.5536	2.1818	0.	19.673
9231	4.6429	2.1818	5.e-002	2.1823e-004
9232	4.6429	1.9091	0.	52.753
9233	4.5536	2.	0.	36.32
9234	4.6429	2.	5.e-002	4.7485e-004
9235	4.6429	1.7273	0.	8.6731
9236	4.5536	1.8182	0.	2.6469
9237	4.6429	1.8182	5.e-002	1.1997e-003
9238	4.6429	1.5455	0.	-0.48802
9239	4.5536	1.6364	0.	-6.0399
9240	4.6429	1.6364	5.e-002	8.1054e-004
9241	4.6429	1.3636	0.	-1.6565
9242	4.5536	1.4545	0.	-3.3807
9243	4.6429	1.4545	5.e-002	4.5545e-004
9244	4.6429	1.1818	0.	-0.76169
9245	4.5536	1.2727	0.	-2.5756
9246	4.6429	1.2727	5.e-002	2.7154e-004
9247	4.6429	1.	0.	-0.86305
9248	4.5536	1.0909	0.	-2.21
9249	4.6429	1.0909	5.e-002	1.5933e-004
9250	4.6429	0.81818	0.	-1.4712
9251	4.5536	0.90909	0.	-2.3316
9252	4.6429	0.90909	5.e-002	1.0194e-004
9253	4.6429	0.63636	0.	-2.7905
9254	4.5536	0.72727	0.	-2.9723
9255	4.6429	0.72727	5.e-002	4.7565e-005
9256	4.6429	0.45455	0.	-5.4165
9257	4.5536	0.54545	0.	-4.6717
9258	4.6429	0.54545	5.e-002	2.6122e-005
9259	4.6429	0.27273	0.	-10.551
9260	4.5536	0.36364	0.	-7.4549
9261	4.6429	0.36364	5.e-002	1.3467e-005
9262	4.5536	0.18182	0.	-9.3121
9263	4.6429	0.18182	5.e-002	-2.791e-006
9264	4.6429	9.0909e-002	0.	-1.9721
9265	4.4643	5.7273	0.	-6.7239
9266	4.375	5.8182	0.	-4.6225
9267	4.4643	5.8182	5.e-002	-2.8014e-006
9268	4.4643	5.9091	0.	-1.0073
9269	4.4643	5.5455	0.	-5.4597
9270	4.375	5.6364	0.	-4.9039
9271	4.4643	5.6364	5.e-002	-2.0029e-005
9272	4.4643	5.3636	0.	-4.2386
9273	4.375	5.4545	0.	-4.2483
9274	4.4643	5.4545	5.e-002	-3.682e-005
9275	4.4643	5.1818	0.	-3.578
9276	4.375	5.2727	0.	-3.5032
9277	4.4643	5.2727	5.e-002	-8.4656e-005
9278	4.4643	5.	0.	-3.5718
9279	4.375	5.0909	0.	-3.2028
9280	4.4643	5.0909	5.e-002	-1.1621e-004
9281	4.4643	4.8182	0.	-3.9905
9282	4.375	4.9091	0.	-3.3582
9283	4.4643	4.9091	5.e-002	-1.7806e-004
9284	4.4643	4.6364	0.	-4.3071
9285	4.375	4.7273	0.	-3.8137
9286	4.4643	4.7273	5.e-002	-2.4042e-004
9287	4.4643	4.4545	0.	-8.9589
9288	4.375	4.5455	0.	-4.2227
9289	4.4643	4.5455	5.e-002	-4.3364e-004
9290	4.4643	4.2727	0.	-11.528
9291	4.375	4.3636	0.	-8.1511
9292	4.4643	4.3636	5.e-002	-6.5656e-004
9293	4.4643	4.0909	0.	-13.614
9294	4.375	4.1818	0.	-6.8775
9295	4.4643	4.1818	5.e-002	-7.047e-004
9296	4.4643	3.9091	0.	-14.5
9297	4.375	4.	0.	-9.995
9298	4.4643	4.	5.e-002	-3.7129e-004
9299	4.4643	3.7273	0.	-0.988
9300	4.375	3.8182	0.	-6.7902
9301	4.4643	3.8182	5.e-002	-1.7145e-004
9302	4.4643	3.5455	0.	4.3461
9303	4.375	3.6364	0.	-12.574
9304	4.4643	3.6364	5.e-002	-3.5472e-005
9305	4.4643	3.3636	0.	0.52955
9306	4.375	3.4545	0.	-49.987
9307	4.4643	3.4545	5.e-002	2.0025e-005
9308	4.4643	3.1818	0.	0.69502
9309	4.375	3.2727	0.	-57.441
9310	4.4643	3.2727	5.e-002	4.8842e-005
9311	4.4643	3.	0.	0.75156
9312	4.375	3.0909	0.	-57.38
9313	4.4643	3.0909	5.e-002	5.7053e-005
9314	4.4643	2.8182	0.	0.69502
9315	4.375	2.9091	0.	-57.38
9316	4.4643	2.9091	5.e-002	4.6932e-005
9317	4.4643	2.6364	0.	0.52956
9318	4.375	2.7273	0.	-57.441
9319	4.4643	2.7273	5.e-002	4.5841e-005
9320	4.4643	2.4545	0.	4.3461
9321	4.375	2.5455	0.	-49.987
9322	4.4643	2.5455	5.e-002	5.9082e-005
9323	4.4643	2.2727	0.	-0.988
9324	4.375	2.3636	0.	-12.574
9325	4.4643	2.3636	5.e-002	9.2015e-005
9326	4.4643	2.0909	0.	-14.5
9327	4.375	2.1818	0.	-6.7902
9328	4.4643	2.1818	5.e-002	3.032e-004
9329	4.4643	1.9091	0.	-13.614
9330	4.375	2.	0.	-9.995
9331	4.4643	2.	5.e-002	4.2494e-004
9332	4.4643	1.7273	0.	-11.528
9333	4.375	1.8182	0.	-6.8775
9334	4.4643	1.8182	5.e-002	9.6286e-004
9335	4.4643	1.5455	0.	-8.9589
9336	4.375	1.6364	0.	-8.1511
9337	4.4643	1.6364	5.e-002	8.1626e-004
9338	4.4643	1.3636	0.	-4.3071
9339	4.375	1.4545	0.	-4.2227
9340	4.4643	1.4545	5.e-002	5.5241e-004
9341	4.4643	1.1818	0.	-3.9905
9342	4.375	1.2727	0.	-3.8137
9343	4.4643	1.2727	5.e-002	3.2079e-004
9344	4.4643	1.	0.	-3.5718
9345	4.375	1.0909	0.	-3.3582
9346	4.4643	1.0909	5.e-002	2.1177e-004
9347	4.4643	0.81818	0.	-3.578
9348	4.375	0.90909	0.	-3.2028
9349	4.4643	0.90909	5.e-002	1.4105e-004
9350	4.4643	0.63636	0.	-4.2386
9351	4.375	0.72727	0.	-3.5032
9352	4.4643	0.72727	5.e-002	7.9666e-005
9353	4.4643	0.45455	0.	-5.4597
9354	4.375	0.54545	0.	-4.2483
9355	4.4643	0.54545	5.e-002	5.4301e-005
9356	4.4643	0.27273	0.	-6.7239
9357	4.375	0.36364	0.	-4.9038
9358	4.4643	0.36364	5.e-002	2.5793e-005
9359	4.375	0.18182	0.	-4.6225
9360	4.4643	0.18182	5.e-002	3.884e-006
9361	4.4643	9.0909e-002	0.	-1.0073
9362	4.2857	5.7273	0.	-3.3118
9363	4.1964	5.8182	0.	-2.1449
9364	4.2857	5.8182	5.e-002	-8.4842e-006
9365	4.2857	5.9091	0.	-3.9871e-002
9366	4.2857	5.5455	0.	-3.4827
9367	4.1964	5.6364	0.	-2.8933
9368	4.2857	5.6364	5.e-002	-2.5787e-005
9369	4.2857	5.3636	0.	-3.2424
9370	4.1964	5.4545	0.	-3.146
9371	4.2857	5.4545	5.e-002	-5.0639e-005
9372	4.2857	5.1818	0.	-2.9904
9373	4.1964	5.2727	0.	-3.0344
9374	4.2857	5.2727	5.e-002	-9.2366e-005
9375	4.2857	5.	0.	-2.9503
9376	4.1964	5.0909	0.	-2.9897
9377	4.2857	5.0909	5.e-002	-1.2972e-004
9378	4.2857	4.8182	0.	-3.2078
9379	4.1964	4.9091	0.	-3.0919
9380	4.2857	4.9091	5.e-002	-1.8106e-004
9381	4.2857	4.6364	0.	-3.8104
9382	4.1964	4.7273	0.	-3.4631
9383	4.2857	4.7273	5.e-002	-2.545e-004
9384	4.2857	4.4545	0.	-3.5501
9385	4.1964	4.5455	0.	-4.1635
9386	4.2857	4.5455	5.e-002	-3.8779e-004
9387	4.2857	4.2727	0.	-3.6576
9388	4.1964	4.3636	0.	-4.3407
9389	4.2857	4.3636	5.e-002	-5.5472e-004
9390	4.2857	4.0909	0.	-3.7637
9391	4.1964	4.1818	0.	-6.7382
9392	4.2857	4.1818	5.e-002	-6.0213e-004
9393	4.2857	3.9091	0.	-7.7194
9394	4.1964	4.	0.	-19.443
9395	4.2857	4.	5.e-002	-4.5242e-004
9396	4.2857	3.7273	0.	-93.975
9397	4.1964	3.8182	0.	-141.79
9398	4.2857	3.8182	5.e-002	-2.0192e-004
9399	4.2857	3.5455	0.	-172.48
9400	4.1964	3.6364	0.	-248.38
9401	4.2857	3.6364	5.e-002	-7.5112e-005
9402	4.2857	3.3636	0.	-198.98
9403	4.1964	3.4545	0.	-295.63
9404	4.2857	3.4545	5.e-002	3.5191e-006
9405	4.2857	3.1818	0.	-203.91
9406	4.1964	3.2727	0.	-310.71
9407	4.2857	3.2727	5.e-002	3.6658e-005
9408	4.2857	3.	0.	-204.06
9409	4.1964	3.0909	0.	-314.03
9410	4.2857	3.0909	5.e-002	3.6709e-005
9411	4.2857	2.8182	0.	-203.9
9412	4.1964	2.9091	0.	-314.03
9413	4.2857	2.9091	5.e-002	2.6207e-005
9414	4.2857	2.6364	0.	-198.98
9415	4.1964	2.7273	0.	-310.71
9416	4.2857	2.7273	5.e-002	2.311e-005
9417	4.2857	2.4545	0.	-172.48
9418	4.1964	2.5455	0.	-295.63
9419	4.2857	2.5455	5.e-002	4.4464e-005
9420	4.2857	2.2727	0.	-93.975
9421	4.1964	2.3636	0.	-248.38
9422	4.2857	2.3636	5.e-002	9.9024e-005
9423	4.2857	2.0909	0.	-7.7194
9424	4.1964	2.1818	0.	-141.79
9425	4.2857	2.1818	5.e-002	2.3435e-004
9426	4.2857	1.9091	0.	-3.7637
9427	4.1964	2.	0.	-19.443
9428	4.2857	2.	5.e-002	6.7048e-004
9429	4.2857	1.7273	0.	-3.6576
9430	4.1964	1.8182	0.	-6.7382
9431	4.2857	1.8182	5.e-002	7.8117e-004
9432	4.2857	1.5455	0.	-3.5501
9433	4.1964	1.6364	0.	-4.3407
9434	4.2857	1.6364	5.e-002	7.7219e-004
9435	4.2857	1.3636	0.	-3.8104
9436	4.1964	1.4545	0.	-4.1635
9437	4.2857	1.4545	5.e-002	6.2731e-004
9438	4.2857	1.1818	0.	-3.2078
9439	4.1964	1.2727	0.	-3.4631
9440	4.2857	1.2727	5.e-002	4.0123e-004
9441	4.2857	1.	0.	-2.9503
9442	4.1964	1.0909	0.	-3.0919
9443	4.2857	1.0909	5.e-002	2.4395e-004
9444	4.2857	0.81818	0.	-2.9903
9445	4.1964	0.90909	0.	-2.9897
9446	4.2857	0.90909	5.e-002	1.7106e-004
9447	4.2857	0.63636	0.	-3.2424
9448	4.1964	0.72727	0.	-3.0344
9449	4.2857	0.72727	5.e-002	1.0875e-004
9450	4.2857	0.45455	0.	-3.4827
9451	4.1964	0.54545	0.	-3.146
9452	4.2857	0.54545	5.e-002	6.6364e-005
9453	4.2857	0.27273	0.	-3.3118
9454	4.1964	0.36364	0.	-2.8933
9455	4.2857	0.36364	5.e-002	3.2876e-005
9456	4.1964	0.18182	0.	-2.1449
9457	4.2857	0.18182	5.e-002	7.8837e-006
9458	4.2857	9.0909e-002	0.	-3.9869e-002
9459	4.1071	5.7273	0.	-1.9755
9460	4.0179	5.8182	0.	-1.156
9461	4.1071	5.8182	5.e-002	-6.5216e-006
9462	4.1071	5.9091	0.	-4.6348e-003
9463	4.1071	5.5455	0.	-2.5774
9464	4.0179	5.6364	0.	-2.0163
9465	4.1071	5.6364	5.e-002	-2.7694e-005
9466	4.1071	5.3636	0.	-2.8604
9467	4.0179	5.4545	0.	-2.5733
9468	4.1071	5.4545	5.e-002	-5.3973e-005
9469	4.1071	5.1818	0.	-2.9884
9470	4.0179	5.2727	0.	-2.9051
9471	4.1071	5.2727	5.e-002	-9.6581e-005
9472	4.1071	5.	0.	-3.1591
9473	4.0179	5.0909	0.	-3.1605
9474	4.1071	5.0909	5.e-002	-1.3072e-004
9475	4.1071	4.8182	0.	-3.4606
9476	4.0179	4.9091	0.	-3.5077
9477	4.1071	4.9091	5.e-002	-2.0264e-004
9478	4.1071	4.6364	0.	-4.0363
9479	4.0179	4.7273	0.	-4.1137
9480	4.1071	4.7273	5.e-002	-2.8256e-004
9481	4.1071	4.4545	0.	-5.343
9482	4.0179	4.5455	0.	-5.4538
9483	4.1071	4.5455	5.e-002	-4.4405e-004
9484	4.1071	4.2727	0.	-8.5749
9485	4.0179	4.3636	0.	-9.8154
9486	4.1071	4.3636	5.e-002	-4.7372e-004
9487	4.1071	4.0909	0.	-35.367
9488	4.0179	4.1818	0.	-48.539
9489	4.1071	4.1818	5.e-002	-5.9512e-004
9490	4.1071	3.9091	0.	-172.12
9491	4.0179	4.	0.	-188.99
9492	4.1071	4.	5.e-002	-4.5389e-004
9493	4.1071	3.7273	0.	-298.54
9494	4.0179	3.8182	0.	-327.25
9495	4.1071	3.8182	5.e-002	-1.9342e-004
9496	4.1071	3.5455	0.	-376.48
9497	4.0179	3.6364	0.	-425.21
9498	4.1071	3.6364	5.e-002	-1.3221e-004
9499	4.1071	3.3636	0.	-413.93
9500	4.0179	3.4545	0.	-480.77
9501	4.1071	3.4545	5.e-002	-2.6498e-005
9502	4.1071	3.1818	0.	-427.97
9503	4.0179	3.2727	0.	-506.59
9504	4.1071	3.2727	5.e-002	-6.6292e-006
9505	4.1071	3.	0.	-431.25
9506	4.0179	3.0909	0.	-515.97
9507	4.1071	3.0909	5.e-002	1.9844e-005
9508	4.1071	2.8182	0.	-427.97
9509	4.0179	2.9091	0.	-515.97
9510	4.1071	2.9091	5.e-002	2.6064e-005
9511	4.1071	2.6364	0.	-413.93
9512	4.0179	2.7273	0.	-506.59
9513	4.1071	2.7273	5.e-002	2.6482e-005
9514	4.1071	2.4545	0.	-376.48
9515	4.0179	2.5455	0.	-480.77
9516	4.1071	2.5455	5.e-002	6.4214e-005
9517	4.1071	2.2727	0.	-298.54
9518	4.0179	2.3636	0.	-425.21
9519	4.1071	2.3636	5.e-002	1.6457e-004
9520	4.1071	2.0909	0.	-172.12
9521	4.0179	2.1818	0.	-327.25
9522	4.1071	2.1818	5.e-002	3.1338e-004
9523	4.1071	1.9091	0.	-35.367
9524	4.0179	2.	0.	-188.99
9525	4.1071	2.	5.e-002	5.5145e-004
9526	4.1071	1.7273	0.	-8.5749
9527	4.0179	1.8182	0.	-48.539
9528	4.1071	1.8182	5.e-002	7.6971e-004
9529	4.1071	1.5455	0.	-5.343
9530	4.0179	1.6364	0.	-9.8154
9531	4.1071	1.6364	5.e-002	7.0145e-004
9532	4.1071	1.3636	0.	-4.0363
9533	4.0179	1.4545	0.	-5.4538
9534	4.1071	1.4545	5.e-002	5.2891e-004
9535	4.1071	1.1818	0.	-3.4606
9536	4.0179	1.2727	0.	-4.1137
9537	4.1071	1.2727	5.e-002	3.985e-004
9538	4.1071	1.	0.	-3.1591
9539	4.0179	1.0909	0.	-3.5077
9540	4.1071	1.0909	5.e-002	2.782e-004
9541	4.1071	0.81818	0.	-2.9884
9542	4.0179	0.90909	0.	-3.1605
9543	4.1071	0.90909	5.e-002	1.8069e-004
9544	4.1071	0.63636	0.	-2.8604
9545	4.0179	0.72727	0.	-2.9051
9546	4.1071	0.72727	5.e-002	1.2355e-004
9547	4.1071	0.45455	0.	-2.5774
9548	4.0179	0.54545	0.	-2.5733
9549	4.1071	0.54545	5.e-002	7.6569e-005
9550	4.1071	0.27273	0.	-1.9755
9551	4.0179	0.36364	0.	-2.0163
9552	4.1071	0.36364	5.e-002	3.9174e-005
9553	4.0179	0.18182	0.	-1.156
9554	4.1071	0.18182	5.e-002	8.3886e-006
9555	4.1071	9.0909e-002	0.	-4.6335e-003
9556	3.9286	5.7273	0.	-1.3124
9557	3.8393	5.8182	0.	-0.72297
9558	3.9286	5.8182	5.e-002	-5.8042e-006
9559	3.9286	5.9091	0.	5.3103e-002
9560	3.9286	5.5455	0.	-2.041
9561	3.8393	5.6364	0.	-1.5914
9562	3.9286	5.6364	5.e-002	-2.3843e-005
9563	3.9286	5.3636	0.	-2.6204
9564	3.8393	5.4545	0.	-2.3109
9565	3.9286	5.4545	5.e-002	-5.8302e-005
9566	3.9286	5.1818	0.	-3.124
9567	3.8393	5.2727	0.	-3.058
9568	3.9286	5.2727	5.e-002	-9.5431e-005
9569	3.9286	5.	0.	-3.6813
9570	3.8393	5.0909	0.	-3.8838
9571	3.9286	5.0909	5.e-002	-1.2579e-004
9572	3.9286	4.8182	0.	-4.5838
9573	3.8393	4.9091	0.	-5.1738
9574	3.9286	4.9091	5.e-002	-1.8595e-004
9575	3.9286	4.6364	0.	-6.6387
9576	3.8393	4.7273	0.	-8.2983
9577	3.9286	4.7273	5.e-002	-2.7183e-004
9578	3.9286	4.4545	0.	-15.059
9579	3.8393	4.5455	0.	-23.56
9580	3.9286	4.5455	5.e-002	-3.8557e-004
9581	3.9286	4.2727	0.	-79.985
9582	3.8393	4.3636	0.	-98.511
9583	3.9286	4.3636	5.e-002	-4.8756e-004
9584	3.9286	4.0909	0.	-209.71
9585	3.8393	4.1818	0.	-219.16
9586	3.9286	4.1818	5.e-002	-4.8422e-004
9587	3.9286	3.9091	0.	-343.6
9588	3.8393	4.	0.	-351.12
9589	3.9286	4.	5.e-002	-4.1928e-004
9590	3.9286	3.7273	0.	-454.87
9591	3.8393	3.8182	0.	-470.75
9592	3.9286	3.8182	5.e-002	-2.6018e-004
9593	3.9286	3.5455	0.	-532.12
9594	3.8393	3.6364	0.	-562.51
9595	3.9286	3.6364	5.e-002	-1.6918e-004
9596	3.9286	3.3636	0.	-577.42
9597	3.8393	3.4545	0.	-622.69
9598	3.9286	3.4545	5.e-002	-8.6489e-005
9599	3.9286	3.1818	0.	-599.38
9600	3.8393	3.2727	0.	-656.43
9601	3.9286	3.2727	5.e-002	-3.1064e-005
9602	3.9286	3.	0.	-605.73
9603	3.8393	3.0909	0.	-671.01
9604	3.9286	3.0909	5.e-002	-7.0042e-006
9605	3.9286	2.8182	0.	-599.38
9606	3.8393	2.9091	0.	-671.01
9607	3.9286	2.9091	5.e-002	1.4629e-005
9608	3.9286	2.6364	0.	-577.42
9609	3.8393	2.7273	0.	-656.43
9610	3.9286	2.7273	5.e-002	3.6569e-005
9611	3.9286	2.4545	0.	-532.12
9612	3.8393	2.5455	0.	-622.69
9613	3.9286	2.5455	5.e-002	1.0506e-004
9614	3.9286	2.2727	0.	-454.87
9615	3.8393	2.3636	0.	-562.51
9616	3.9286	2.3636	5.e-002	2.022e-004
9617	3.9286	2.0909	0.	-343.6
9618	3.8393	2.1818	0.	-470.75
9619	3.9286	2.1818	5.e-002	3.9495e-004
9620	3.9286	1.9091	0.	-209.71
9621	3.8393	2.	0.	-351.12
9622	3.9286	2.	5.e-002	5.639e-004
9623	3.9286	1.7273	0.	-79.985
9624	3.8393	1.8182	0.	-219.16
9625	3.9286	1.8182	5.e-002	7.2489e-004
9626	3.9286	1.5455	0.	-15.059
9627	3.8393	1.6364	0.	-98.511
9628	3.9286	1.6364	5.e-002	7.1239e-004
9629	3.9286	1.3636	0.	-6.6387
9630	3.8393	1.4545	0.	-23.56
9631	3.9286	1.4545	5.e-002	5.6858e-004
9632	3.9286	1.1818	0.	-4.5837
9633	3.8393	1.2727	0.	-8.2983
9634	3.9286	1.2727	5.e-002	3.8758e-004
9635	3.9286	1.	0.	-3.6813
9636	3.8393	1.0909	0.	-5.1738
9637	3.9286	1.0909	5.e-002	2.8382e-004
9638	3.9286	0.81818	0.	-3.124
9639	3.8393	0.90909	0.	-3.8838
9640	3.9286	0.90909	5.e-002	1.76e-004
9641	3.9286	0.63636	0.	-2.6204
9642	3.8393	0.72727	0.	-3.058
9643	3.9286	0.72727	5.e-002	1.2313e-004
9644	3.9286	0.45455	0.	-2.041
9645	3.8393	0.54545	0.	-2.3109
9646	3.9286	0.54545	5.e-002	7.2862e-005
9647	3.9286	0.27273	0.	-1.3124
9648	3.8393	0.36364	0.	-1.5914
9649	3.9286	0.36364	5.e-002	3.6189e-005
9650	3.8393	0.18182	0.	-0.72297
9651	3.9286	0.18182	5.e-002	7.5553e-006
9652	3.9286	9.0909e-002	0.	5.3103e-002
9653	3.75	5.7273	0.	-1.0564
9654	3.6607	5.8182	0.	-0.59557
9655	3.75	5.8182	5.e-002	-4.8153e-006
9656	3.75	5.9091	0.	7.1618e-002
9657	3.75	5.5455	0.	-1.867
9658	3.6607	5.6364	0.	-1.4624
9659	3.75	5.6364	5.e-002	-2.5846e-005
9660	3.75	5.3636	0.	-2.7964
9661	3.6607	5.4545	0.	-2.4669
9662	3.75	5.4545	5.e-002	-5.8901e-005
9663	3.75	5.1818	0.	-4.068
9664	3.6607	5.2727	0.	-4.121
9665	3.75	5.2727	5.e-002	-8.3166e-005
9666	3.75	5.	0.	-6.3477
9667	3.6607	5.0909	0.	-7.6687
9668	3.75	5.0909	5.e-002	-1.3771e-004
9669	3.75	4.8182	0.	-13.366
9670	3.6607	4.9091	0.	-20.974
9671	3.75	4.9091	5.e-002	-1.3762e-004
9672	3.75	4.6364	0.	-48.218
9673	3.6607	4.7273	0.	-66.519
9674	3.75	4.7273	5.e-002	-3.0436e-004
9675	3.75	4.4545	0.	-129.19
9676	3.6607	4.5455	0.	-143.64
9677	3.75	4.5455	5.e-002	-3.2617e-004
9678	3.75	4.2727	0.	-237.81
9679	3.6607	4.3636	0.	-244.2
9680	3.75	4.3636	5.e-002	-4.0748e-004
9681	3.75	4.0909	0.	-359.34
9682	3.6607	4.1818	0.	-359.98
9683	3.75	4.1818	5.e-002	-4.9312e-004
9684	3.75	3.9091	0.	-477.8
9685	3.6607	4.	0.	-478.6
9686	3.75	4.	5.e-002	-4.2169e-004
9687	3.75	3.7273	0.	-578.89
9688	3.6607	3.8182	0.	-586.43
9689	3.75	3.8182	5.e-002	-3.3631e-004
9690	3.75	3.5455	0.	-654.61
9691	3.6607	3.6364	0.	-673.29
9692	3.75	3.6364	5.e-002	-2.2681e-004
9693	3.75	3.3636	0.	-704.16
9694	3.6607	3.4545	0.	-735.21
9695	3.75	3.4545	5.e-002	-1.1233e-004
9696	3.75	3.1818	0.	-731.16
9697	3.6607	3.2727	0.	-773.45
9698	3.75	3.2727	5.e-002	-5.5209e-005
9699	3.75	3.	0.	-739.6
9700	3.6607	3.0909	0.	-791.34
9701	3.75	3.0909	5.e-002	-1.3126e-005
9702	3.75	2.8182	0.	-731.16
9703	3.6607	2.9091	0.	-791.34
9704	3.75	2.9091	5.e-002	1.3954e-005
9705	3.75	2.6364	0.	-704.16
9706	3.6607	2.7273	0.	-773.45
9707	3.75	2.7273	5.e-002	5.1962e-005
9708	3.75	2.4545	0.	-654.61
9709	3.6607	2.5455	0.	-735.21
9710	3.75	2.5455	5.e-002	1.0772e-004
9711	3.75	2.2727	0.	-578.89
9712	3.6607	2.3636	0.	-673.29
9713	3.75	2.3636	5.e-002	2.2551e-004
9714	3.75	2.0909	0.	-477.8
9715	3.6607	2.1818	0.	-586.43
9716	3.75	2.1818	5.e-002	3.8604e-004
9717	3.75	1.9091	0.	-359.34
9718	3.6607	2.	0.	-478.6
9719	3.75	2.	5.e-002	5.4086e-004
9720	3.75	1.7273	0.	-237.81
9721	3.6607	1.8182	0.	-359.98
9722	3.75	1.8182	5.e-002	6.8054e-004
9723	3.75	1.5455	0.	-129.19
9724	3.6607	1.6364	0.	-244.2
9725	3.75	1.6364	5.e-002	5.662e-004
9726	3.75	1.3636	0.	-48.218
9727	3.6607	1.4545	0.	-143.64
9728	3.75	1.4545	5.e-002	5.4239e-004
9729	3.75	1.1818	0.	-13.366
9730	3.6607	1.2727	0.	-66.519
9731	3.75	1.2727	5.e-002	3.8431e-004
9732	3.75	1.	0.	-6.3477
9733	3.6607	1.0909	0.	-20.974
9734	3.75	1.0909	5.e-002	2.571e-004
9735	3.75	0.81818	0.	-4.068
9736	3.6607	0.90909	0.	-7.6687
9737	3.75	0.90909	5.e-002	1.9967e-004
9738	3.75	0.63636	0.	-2.7964
9739	3.6607	0.72727	0.	-4.121
9740	3.75	0.72727	5.e-002	1.2212e-004
9741	3.75	0.45455	0.	-1.867
9742	3.6607	0.54545	0.	-2.4669
9743	3.75	0.54545	5.e-002	8.3274e-005
9744	3.75	0.27273	0.	-1.0564
9745	3.6607	0.36364	0.	-1.4624
9746	3.75	0.36364	5.e-002	3.1145e-005
9747	3.6607	0.18182	0.	-0.59557
9748	3.75	0.18182	5.e-002	6.1724e-006
9749	3.75	9.0909e-002	0.	7.1619e-002
9750	3.5714	5.7273	0.	-1.0239
9751	3.4821	5.8182	0.	-0.64338
9752	3.5714	5.8182	5.e-002	-3.7532e-006
9753	3.5714	5.9091	0.	0.1084
9754	3.5714	5.5455	0.	-2.0458
9755	3.4821	5.6364	0.	-1.6093
9756	3.5714	5.6364	5.e-002	-2.7887e-005
9757	3.5714	5.3636	0.	-3.9823
9758	3.4821	5.4545	0.	-3.5904
9759	3.5714	5.4545	5.e-002	-5.0899e-005
9760	3.5714	5.1818	0.	-9.7351
9761	3.4821	5.2727	0.	-11.137
9762	3.5714	5.2727	5.e-002	-8.8226e-005
9763	3.5714	5.	0.	-34.293
9764	3.4821	5.0909	0.	-42.295
9765	3.5714	5.0909	5.e-002	-1.2916e-004
9766	3.5714	4.8182	0.	-88.02
9767	3.4821	4.9091	0.	-97.483
9768	3.5714	4.9091	5.e-002	-1.7098e-004
9769	3.5714	4.6364	0.	-163.39
9770	3.4821	4.7273	0.	-170.32
9771	3.5714	4.7273	5.e-002	-2.4018e-004
9772	3.5714	4.4545	0.	-257.34
9773	3.4821	4.5455	0.	-259.65
9774	3.5714	4.5455	5.e-002	-2.5868e-004
9775	3.5714	4.2727	0.	-365.12
9776	3.4821	4.3636	0.	-362.72
9777	3.5714	4.3636	5.e-002	-2.7244e-004
9778	3.5714	4.0909	0.	-478.47
9779	3.4821	4.1818	0.	-473.6
9780	3.5714	4.1818	5.e-002	-3.7191e-004
9781	3.5714	3.9091	0.	-587.01
9782	3.4821	4.	0.	-583.68
9783	3.5714	4.	5.e-002	-3.4654e-004
9784	3.5714	3.7273	0.	-681.2
9785	3.4821	3.8182	0.	-683.78
9786	3.5714	3.8182	5.e-002	-2.6245e-004
9787	3.5714	3.5455	0.	-754.89
9788	3.4821	3.6364	0.	-766.63
9789	3.5714	3.6364	5.e-002	-1.8938e-004
9790	3.5714	3.3636	0.	-806.07
9791	3.4821	3.4545	0.	-828.45
9792	3.5714	3.4545	5.e-002	-1.4847e-004
9793	3.5714	3.1818	0.	-835.62
9794	3.4821	3.2727	0.	-868.61
9795	3.5714	3.2727	5.e-002	-7.5458e-005
9796	3.5714	3.	0.	-845.21
9797	3.4821	3.0909	0.	-888.17
9798	3.5714	3.0909	5.e-002	-4.6241e-005
9799	3.5714	2.8182	0.	-835.62
9800	3.4821	2.9091	0.	-888.17
9801	3.5714	2.9091	5.e-002	1.0746e-005
9802	3.5714	2.6364	0.	-806.07
9803	3.4821	2.7273	0.	-868.61
9804	3.5714	2.7273	5.e-002	7.1975e-005
9805	3.5714	2.4545	0.	-754.89
9806	3.4821	2.5455	0.	-828.45
9807	3.5714	2.5455	5.e-002	1.3334e-004
9808	3.5714	2.2727	0.	-681.2
9809	3.4821	2.3636	0.	-766.63
9810	3.5714	2.3636	5.e-002	2.8028e-004
9811	3.5714	2.0909	0.	-587.01
9812	3.4821	2.1818	0.	-683.78
9813	3.5714	2.1818	5.e-002	4.4898e-004
9814	3.5714	1.9091	0.	-478.47
9815	3.4821	2.	0.	-583.68
9816	3.5714	2.	5.e-002	6.1119e-004
9817	3.5714	1.7273	0.	-365.12
9818	3.4821	1.8182	0.	-473.6
9819	3.5714	1.8182	5.e-002	5.6752e-004
9820	3.5714	1.5455	0.	-257.34
9821	3.4821	1.6364	0.	-362.72
9822	3.5714	1.6364	5.e-002	5.3112e-004
9823	3.5714	1.3636	0.	-163.39
9824	3.4821	1.4545	0.	-259.65
9825	3.5714	1.4545	5.e-002	4.9564e-004
9826	3.5714	1.1818	0.	-88.02
9827	3.4821	1.2727	0.	-170.32
9828	3.5714	1.2727	5.e-002	3.938e-004
9829	3.5714	1.	0.	-34.293
9830	3.4821	1.0909	0.	-97.483
9831	3.5714	1.0909	5.e-002	2.6114e-004
9832	3.5714	0.81818	0.	-9.735
9833	3.4821	0.90909	0.	-42.295
9834	3.5714	0.90909	5.e-002	1.9359e-004
9835	3.5714	0.63636	0.	-3.9823
9836	3.4821	0.72727	0.	-11.137
9837	3.5714	0.72727	5.e-002	1.3354e-004
9838	3.5714	0.45455	0.	-2.0458
9839	3.4821	0.54545	0.	-3.5904
9840	3.5714	0.54545	5.e-002	7.7996e-005
9841	3.5714	0.27273	0.	-1.0239
9842	3.4821	0.36364	0.	-1.6093
9843	3.5714	0.36364	5.e-002	3.7114e-005
9844	3.4821	0.18182	0.	-0.64338
9845	3.5714	0.18182	5.e-002	6.3881e-006
9846	3.5714	9.0909e-002	0.	0.1084
9847	3.3929	5.7273	0.	-1.218
9848	3.3036	5.8182	0.	-0.84938
9849	3.3929	5.8182	5.e-002	-3.5621e-006
9850	3.3929	5.9091	0.	0.15737
9851	3.3929	5.5455	0.	-3.1096
9852	3.3036	5.6364	0.	-2.3752
9853	3.3929	5.6364	5.e-002	-2.6408e-005
9854	3.3929	5.3636	0.	-12.554
9855	3.3036	5.4545	0.	-11.439
9856	3.3929	5.4545	5.e-002	-5.5348e-005
9857	3.3929	5.1818	0.	-49.412
9858	3.3036	5.2727	0.	-49.594
9859	3.3929	5.2727	5.e-002	-9.4264e-005
9860	3.3929	5.	0.	-106.66
9861	3.3036	5.0909	0.	-107.08
9862	3.3929	5.0909	5.e-002	-1.1989e-004
9863	3.3929	4.8182	0.	-179.02
9864	3.3036	4.9091	0.	-178.45
9865	3.3929	4.9091	5.e-002	-1.8225e-004
9866	3.3929	4.6364	0.	-265.5
9867	3.3036	4.7273	0.	-262.79
9868	3.3929	4.7273	5.e-002	-2.4793e-004
9869	3.3929	4.4545	0.	-364.07
9870	3.3036	4.5455	0.	-358.63
9871	3.3929	4.5455	5.e-002	-2.8206e-004
9872	3.3929	4.2727	0.	-470.52
9873	3.3036	4.3636	0.	-462.86
9874	3.3929	4.3636	5.e-002	-2.4737e-004
9875	3.3929	4.0909	0.	-578.46
9876	3.3036	4.1818	0.	-570.46
9877	3.3929	4.1818	5.e-002	-3.0371e-004
9878	3.3929	3.9091	0.	-680.43
9879	3.3036	4.	0.	-674.93
9880	3.3929	4.	5.e-002	-3.0347e-004
9881	3.3929	3.7273	0.	-769.55
9882	3.3036	3.8182	0.	-769.62
9883	3.3929	3.8182	5.e-002	-2.3915e-004
9884	3.3929	3.5455	0.	-840.9
9885	3.3036	3.6364	0.	-849.02
9886	3.3929	3.6364	5.e-002	-2.3635e-004
9887	3.3929	3.3636	0.	-892.05
9888	3.3036	3.4545	0.	-909.68
9889	3.3929	3.4545	5.e-002	-1.4392e-004
9890	3.3929	3.1818	0.	-922.47
9891	3.3036	3.2727	0.	-950.15
9892	3.3929	3.2727	5.e-002	-1.0341e-004
9893	3.3929	3.	0.	-932.53
9894	3.3036	3.0909	0.	-970.28
9895	3.3929	3.0909	5.e-002	-4.1945e-005
9896	3.3929	2.8182	0.	-922.47
9897	3.3036	2.9091	0.	-970.28
9898	3.3929	2.9091	5.e-002	1.4722e-005
9899	3.3929	2.6364	0.	-892.05
9900	3.3036	2.7273	0.	-950.15
9901	3.3929	2.7273	5.e-002	9.409e-005
9902	3.3929	2.4545	0.	-840.9
9903	3.3036	2.5455	0.	-909.68
9904	3.3929	2.5455	5.e-002	2.0732e-004
9905	3.3929	2.2727	0.	-769.55
9906	3.3036	2.3636	0.	-849.02
9907	3.3929	2.3636	5.e-002	3.3337e-004
9908	3.3929	2.0909	0.	-680.43
9909	3.3036	2.1818	0.	-769.62
9910	3.3929	2.1818	5.e-002	4.7476e-004
9911	3.3929	1.9091	0.	-578.46
9912	3.3036	2.	0.	-674.93
9913	3.3929	2.	5.e-002	5.9517e-004
9914	3.3929	1.7273	0.	-470.52
9915	3.3036	1.8182	0.	-570.46
9916	3.3929	1.8182	5.e-002	5.6314e-004
9917	3.3929	1.5455	0.	-364.07
9918	3.3036	1.6364	0.	-462.86
9919	3.3929	1.6364	5.e-002	5.0258e-004
9920	3.3929	1.3636	0.	-265.5
9921	3.3036	1.4545	0.	-358.63
9922	3.3929	1.4545	5.e-002	4.7279e-004
9923	3.3929	1.1818	0.	-179.02
9924	3.3036	1.2727	0.	-262.79
9925	3.3929	1.2727	5.e-002	3.6679e-004
9926	3.3929	1.	0.	-106.66
9927	3.3036	1.0909	0.	-178.45
9928	3.3929	1.0909	5.e-002	2.3712e-004
9929	3.3929	0.81818	0.	-49.412
9930	3.3036	0.90909	0.	-107.08
9931	3.3929	0.90909	5.e-002	2.0919e-004
9932	3.3929	0.63636	0.	-12.554
9933	3.3036	0.72727	0.	-49.594
9934	3.3929	0.72727	5.e-002	1.3774e-004
9935	3.3929	0.45455	0.	-3.1096
9936	3.3036	0.54545	0.	-11.439
9937	3.3929	0.54545	5.e-002	8.5958e-005
9938	3.3929	0.27273	0.	-1.218
9939	3.3036	0.36364	0.	-2.3752
9940	3.3929	0.36364	5.e-002	3.3682e-005
9941	3.3036	0.18182	0.	-0.84937
9942	3.3929	0.18182	5.e-002	5.4935e-006
9943	3.3929	9.0909e-002	0.	0.15737
9944	3.2143	5.7273	0.	-1.8434
9945	3.125	5.8182	0.	-1.2755
9946	3.2143	5.8182	5.e-002	-5.443e-006
9947	3.2143	5.9091	0.	0.21913
9948	3.2143	5.5455	0.	-10.254
9949	3.125	5.6364	0.	-6.5073
9950	3.2143	5.6364	5.e-002	-3.4082e-005
9951	3.2143	5.3636	0.	-49.288
9952	3.125	5.4545	0.	-42.882
9953	3.2143	5.4545	5.e-002	-6.2184e-005
9954	3.2143	5.1818	0.	-107.16
9955	3.125	5.2727	0.	-100.48
9956	3.2143	5.2727	5.e-002	-1.0491e-004
9957	3.2143	5.	0.	-178.37
9958	3.125	5.0909	0.	-171.3
9959	3.2143	5.0909	5.e-002	-1.531e-004
9960	3.2143	4.8182	0.	-261.61
9961	3.125	4.9091	0.	-253.73
9962	3.2143	4.9091	5.e-002	-1.6572e-004
9963	3.2143	4.6364	0.	-355.34
9964	3.125	4.7273	0.	-346.28
9965	3.2143	4.7273	5.e-002	-1.9879e-004
9966	3.2143	4.4545	0.	-456.97
9967	3.125	4.5455	0.	-446.78
9968	3.2143	4.5455	5.e-002	-2.9996e-004
9969	3.2143	4.2727	0.	-562.53
9970	3.125	4.3636	0.	-551.96
9971	3.2143	4.3636	5.e-002	-3.2928e-004
9972	3.2143	4.0909	0.	-666.86
9973	3.125	4.1818	0.	-657.43
9974	3.2143	4.1818	5.e-002	-2.3678e-004
9975	3.2143	3.9091	0.	-764.25
9976	3.125	4.	0.	-758.07
9977	3.2143	4.	5.e-002	-2.4161e-004
9978	3.2143	3.7273	0.	-849.43
9979	3.125	3.8182	0.	-848.75
9980	3.2143	3.8182	5.e-002	-2.5299e-004
9981	3.2143	3.5455	0.	-918.35
9982	3.125	3.6364	0.	-925.13
9983	3.2143	3.6364	5.e-002	-2.5511e-004
9984	3.2143	3.3636	0.	-968.54
9985	3.125	3.4545	0.	-984.12
9986	3.2143	3.4545	5.e-002	-1.3928e-004
9987	3.2143	3.1818	0.	-998.86
9988	3.125	3.2727	0.	-1024.
9989	3.2143	3.2727	5.e-002	-1.0918e-004
9990	3.2143	3.	0.	-1009.
9991	3.125	3.0909	0.	-1044.1
9992	3.2143	3.0909	5.e-002	-5.5442e-005
9993	3.2143	2.8182	0.	-998.86
9994	3.125	2.9091	0.	-1044.1
9995	3.2143	2.9091	5.e-002	2.292e-005
9996	3.2143	2.6364	0.	-968.54
9997	3.125	2.7273	0.	-1024.
9998	3.2143	2.7273	5.e-002	1.0537e-004
9999	3.2143	2.4545	0.	-918.35
10000	3.125	2.5455	0.	-984.12
10001	3.2143	2.5455	5.e-002	2.6237e-004
10002	3.2143	2.2727	0.	-849.43
10003	3.125	2.3636	0.	-925.13
10004	3.2143	2.3636	5.e-002	3.7037e-004
10005	3.2143	2.0909	0.	-764.25
10006	3.125	2.1818	0.	-848.75
10007	3.2143	2.1818	5.e-002	4.1122e-004
10008	3.2143	1.9091	0.	-666.86
10009	3.125	2.	0.	-758.07
10010	3.2143	2.	5.e-002	4.9136e-004
10011	3.2143	1.7273	0.	-562.53
10012	3.125	1.8182	0.	-657.43
10013	3.2143	1.8182	5.e-002	4.9414e-004
10014	3.2143	1.5455	0.	-456.97
10015	3.125	1.6364	0.	-551.96
10016	3.2143	1.6364	5.e-002	4.309e-004
10017	3.2143	1.3636	0.	-355.34
10018	3.125	1.4545	0.	-446.78
10019	3.2143	1.4545	5.e-002	3.8988e-004
10020	3.2143	1.1818	0.	-261.61
10021	3.125	1.2727	0.	-346.28
10022	3.2143	1.2727	5.e-002	2.8428e-004
10023	3.2143	1.	0.	-178.38
10024	3.125	1.0909	0.	-253.73
10025	3.2143	1.0909	5.e-002	2.8053e-004
10026	3.2143	0.81818	0.	-107.16
10027	3.125	0.90909	0.	-171.3
10028	3.2143	0.90909	5.e-002	2.1653e-004
10029	3.2143	0.63636	0.	-49.288
10030	3.125	0.72727	0.	-100.48
10031	3.2143	0.72727	5.e-002	1.4216e-004
10032	3.2143	0.45455	0.	-10.254
10033	3.125	0.54545	0.	-42.882
10034	3.2143	0.54545	5.e-002	9.7839e-005
10035	3.2143	0.27273	0.	-1.8434
10036	3.125	0.36364	0.	-6.5073
10037	3.2143	0.36364	5.e-002	4.9467e-005
10038	3.125	0.18182	0.	-1.2755
10039	3.2143	0.18182	5.e-002	1.0062e-005
10040	3.2143	9.0909e-002	0.	0.21913
10041	3.0357	5.7273	0.	-3.9617
10042	2.9464	5.8182	0.	-2.1022
10043	3.0357	5.8182	5.e-002	-9.2978e-006
10044	3.0357	5.9091	0.	0.29079
10045	3.0357	5.5455	0.	-36.713
10046	2.9464	5.6364	0.	-24.498
10047	3.0357	5.6364	5.e-002	-3.1992e-005
10048	3.0357	5.3636	0.	-93.912
10049	2.9464	5.4545	0.	-81.018
10050	3.0357	5.4545	5.e-002	-8.2646e-005
10051	3.0357	5.1818	0.	-164.4
10052	2.9464	5.2727	0.	-151.37
10053	3.0357	5.2727	5.e-002	-1.066e-004
10054	3.0357	5.	0.	-246.37
10055	2.9464	5.0909	0.	-233.26
10056	3.0357	5.0909	5.e-002	-1.4537e-004
10057	3.0357	4.8182	0.	-338.12
10058	2.9464	4.9091	0.	-324.89
10059	3.0357	4.9091	5.e-002	-1.6953e-004
10060	3.0357	4.6364	0.	-437.49
10061	2.9464	4.7273	0.	-424.2
10062	3.0357	4.7273	5.e-002	-1.8812e-004
10063	3.0357	4.4545	0.	-541.63
10064	2.9464	4.5455	0.	-528.6
10065	3.0357	4.5455	5.e-002	-2.2002e-004
10066	3.0357	4.2727	0.	-646.83
10067	2.9464	4.3636	0.	-634.85
10068	3.0357	4.3636	5.e-002	-2.1372e-004
10069	3.0357	4.0909	0.	-748.73
10070	2.9464	4.1818	0.	-739.06
10071	3.0357	4.1818	5.e-002	-2.1587e-004
10072	3.0357	3.9091	0.	-842.79
10073	2.9464	4.	0.	-837.02
10074	3.0357	4.	5.e-002	-2.2571e-004
10075	3.0357	3.7273	0.	-924.79
10076	2.9464	3.8182	0.	-924.64
10077	3.0357	3.8182	5.e-002	-1.814e-004
10078	3.0357	3.5455	0.	-991.36
10079	2.9464	3.6364	0.	-998.36
10080	3.0357	3.6364	5.e-002	-1.4656e-004
10081	3.0357	3.3636	0.	-1040.2
10082	2.9464	3.4545	0.	-1055.5
10083	3.0357	3.4545	5.e-002	-8.0187e-005
10084	3.0357	3.1818	0.	-1069.9
10085	2.9464	3.2727	0.	-1094.4
10086	3.0357	3.2727	5.e-002	-1.1601e-004
10087	3.0357	3.	0.	-1079.8
10088	2.9464	3.0909	0.	-1114.
10089	3.0357	3.0909	5.e-002	-6.6888e-005
10090	3.0357	2.8182	0.	-1069.9
10091	2.9464	2.9091	0.	-1114.
10092	3.0357	2.9091	5.e-002	5.6297e-005
10093	3.0357	2.6364	0.	-1040.2
10094	2.9464	2.7273	0.	-1094.4
10095	3.0357	2.7273	5.e-002	1.8986e-004
10096	3.0357	2.4545	0.	-991.36
10097	2.9464	2.5455	0.	-1055.5
10098	3.0357	2.5455	5.e-002	3.4548e-004
10099	3.0357	2.2727	0.	-924.79
10100	2.9464	2.3636	0.	-998.36
10101	3.0357	2.3636	5.e-002	3.6663e-004
10102	3.0357	2.0909	0.	-842.79
10103	2.9464	2.1818	0.	-924.64
10104	3.0357	2.1818	5.e-002	3.6595e-004
10105	3.0357	1.9091	0.	-748.73
10106	2.9464	2.	0.	-837.02
10107	3.0357	2.	5.e-002	4.211e-004
10108	3.0357	1.7273	0.	-646.83
10109	2.9464	1.8182	0.	-739.06
10110	3.0357	1.8182	5.e-002	4.1337e-004
10111	3.0357	1.5455	0.	-541.63
10112	2.9464	1.6364	0.	-634.85
10113	3.0357	1.6364	5.e-002	3.4962e-004
10114	3.0357	1.3636	0.	-437.5
10115	2.9464	1.4545	0.	-528.6
10116	3.0357	1.4545	5.e-002	2.9128e-004
10117	3.0357	1.1818	0.	-338.12
10118	2.9464	1.2727	0.	-424.2
10119	3.0357	1.2727	5.e-002	3.0581e-004
10120	3.0357	1.	0.	-246.37
10121	2.9464	1.0909	0.	-324.89
10122	3.0357	1.0909	5.e-002	2.749e-004
10123	3.0357	0.81818	0.	-164.4
10124	2.9464	0.90909	0.	-233.26
10125	3.0357	0.90909	5.e-002	2.2831e-004
10126	3.0357	0.63636	0.	-93.912
10127	2.9464	0.72727	0.	-151.37
10128	3.0357	0.72727	5.e-002	1.5996e-004
10129	3.0357	0.45455	0.	-36.713
10130	2.9464	0.54545	0.	-81.018
10131	3.0357	0.54545	5.e-002	1.1131e-004
10132	3.0357	0.27273	0.	-3.9617
10133	2.9464	0.36364	0.	-24.498
10134	3.0357	0.36364	5.e-002	5.7652e-005
10135	2.9464	0.18182	0.	-2.1022
10136	3.0357	0.18182	5.e-002	1.4221e-005
10137	3.0357	9.0909e-002	0.	0.29079
10138	2.8571	5.7273	0.	-12.129
10139	2.7679	5.8182	0.	-3.7074
10140	2.8571	5.8182	5.e-002	-1.493e-005
10141	2.8571	5.9091	0.	0.36971
10142	2.8571	5.5455	0.	-68.187
10143	2.7679	5.6364	0.	-48.612
10144	2.8571	5.6364	5.e-002	-5.4215e-005
10145	2.8571	5.3636	0.	-138.38
10146	2.7679	5.4545	0.	-119.07
10147	2.8571	5.4545	5.e-002	-9.5558e-005
10148	2.8571	5.1818	0.	-220.13
10149	2.7679	5.2727	0.	-201.29
10150	2.8571	5.2727	5.e-002	-1.0653e-004
10151	2.8571	5.	0.	-311.67
10152	2.7679	5.0909	0.	-293.5
10153	2.8571	5.0909	5.e-002	-1.5412e-004
10154	2.8571	4.8182	0.	-410.89
10155	2.7679	4.9091	0.	-393.57
10156	2.8571	4.9091	5.e-002	-1.574e-004
10157	2.8571	4.6364	0.	-515.27
10158	2.7679	4.7273	0.	-499.06
10159	2.8571	4.7273	5.e-002	-1.8005e-004
10160	2.8571	4.4545	0.	-621.85
10161	2.7679	4.5455	0.	-607.2
10162	2.8571	4.5455	5.e-002	-1.918e-004
10163	2.8571	4.2727	0.	-727.18
10164	2.7679	4.3636	0.	-714.8
10165	2.8571	4.3636	5.e-002	-1.5459e-004
10166	2.8571	4.0909	0.	-827.52
10167	2.7679	4.1818	0.	-818.43
10168	2.8571	4.1818	5.e-002	-1.4728e-004
10169	2.8571	3.9091	0.	-919.12
10170	2.7679	4.	0.	-914.55
10171	2.8571	4.	5.e-002	-2.0071e-004
10172	2.8571	3.7273	0.	-998.53
10173	2.7679	3.8182	0.	-999.77
10174	2.8571	3.8182	5.e-002	-9.3448e-005
10175	2.8571	3.5455	0.	-1062.9
10176	2.7679	3.6364	0.	-1071.2
10177	2.8571	3.6364	5.e-002	1.3568e-005
10178	2.8571	3.3636	0.	-1110.2
10179	2.7679	3.4545	0.	-1126.6
10180	2.8571	3.4545	5.e-002	-1.2656e-005
10181	2.8571	3.1818	0.	-1139.1
10182	2.7679	3.2727	0.	-1164.2
10183	2.8571	3.2727	5.e-002	-6.1885e-005
10184	2.8571	3.	0.	-1148.8
10185	2.7679	3.0909	0.	-1183.3
10186	2.8571	3.0909	5.e-002	-6.3356e-005
10187	2.8571	2.8182	0.	-1139.1
10188	2.7679	2.9091	0.	-1183.3
10189	2.8571	2.9091	5.e-002	1.5421e-004
10190	2.8571	2.6364	0.	-1110.2
10191	2.7679	2.7273	0.	-1164.2
10192	2.8571	2.7273	5.e-002	2.6583e-004
10193	2.8571	2.4545	0.	-1062.9
10194	2.7679	2.5455	0.	-1126.6
10195	2.8571	2.5455	5.e-002	2.5217e-004
10196	2.8571	2.2727	0.	-998.53
10197	2.7679	2.3636	0.	-1071.2
10198	2.8571	2.3636	5.e-002	3.5542e-004
10199	2.8571	2.0909	0.	-919.12
10200	2.7679	2.1818	0.	-999.77
10201	2.8571	2.1818	5.e-002	4.0088e-004
10202	2.8571	1.9091	0.	-827.52
10203	2.7679	2.	0.	-914.55
10204	2.8571	2.	5.e-002	4.4405e-004
10205	2.8571	1.7273	0.	-727.18
10206	2.7679	1.8182	0.	-818.43
10207	2.8571	1.8182	5.e-002	3.8668e-004
10208	2.8571	1.5455	0.	-621.85
10209	2.7679	1.6364	0.	-714.8
10210	2.8571	1.6364	5.e-002	3.2877e-004
10211	2.8571	1.3636	0.	-515.27
10212	2.7679	1.4545	0.	-607.2
10213	2.8571	1.4545	5.e-002	3.6213e-004
10214	2.8571	1.1818	0.	-410.89
10215	2.7679	1.2727	0.	-499.06
10216	2.8571	1.2727	5.e-002	2.3562e-004
10217	2.8571	1.	0.	-311.67
10218	2.7679	1.0909	0.	-393.57
10219	2.8571	1.0909	5.e-002	2.6738e-004
10220	2.8571	0.81818	0.	-220.13
10221	2.7679	0.90909	0.	-293.5
10222	2.8571	0.90909	5.e-002	1.8632e-004
10223	2.8571	0.63636	0.	-138.38
10224	2.7679	0.72727	0.	-201.29
10225	2.8571	0.72727	5.e-002	1.7545e-004
10226	2.8571	0.45455	0.	-68.187
10227	2.7679	0.54545	0.	-119.07
10228	2.8571	0.54545	5.e-002	1.1424e-004
10229	2.8571	0.27273	0.	-12.129
10230	2.7679	0.36364	0.	-48.612
10231	2.8571	0.36364	5.e-002	7.3312e-005
10232	2.7679	0.18182	0.	-3.7074
10233	2.8571	0.18182	5.e-002	1.8131e-005
10234	2.8571	9.0909e-002	0.	0.36971
10235	2.6786	5.7273	0.	-26.808
10236	2.5893	5.8182	0.	-6.5877
10237	2.6786	5.8182	5.e-002	-1.3115e-005
10238	2.6786	5.9091	0.	0.44921
10239	2.6786	5.5455	0.	-99.253
10240	2.5893	5.6364	0.	-72.424
10241	2.6786	5.6364	5.e-002	-5.3407e-005
10242	2.6786	5.3636	0.	-181.93
10243	2.5893	5.4545	0.	-156.27
10244	2.6786	5.4545	5.e-002	-9.1383e-005
10245	2.6786	5.1818	0.	-274.63
10246	2.5893	5.2727	0.	-250.32
10247	2.6786	5.2727	5.e-002	-1.3345e-004
10248	2.6786	5.	0.	-375.38
10249	2.5893	5.0909	0.	-352.76
10250	2.6786	5.0909	5.e-002	-9.5527e-005
10251	2.6786	4.8182	0.	-481.76
10252	2.5893	4.9091	0.	-461.15
10253	2.6786	4.9091	5.e-002	-1.6793e-004
10254	2.6786	4.6364	0.	-591.05
10255	2.5893	4.7273	0.	-572.79
10256	2.6786	4.7273	5.e-002	-1.7647e-004
10257	2.6786	4.4545	0.	-700.26
10258	2.5893	4.5455	0.	-684.81
10259	2.6786	4.5455	5.e-002	-1.4468e-004
10260	2.6786	4.2727	0.	-806.23
10261	2.5893	4.3636	0.	-794.18
10262	2.6786	4.3636	5.e-002	-1.3586e-004
10263	2.6786	4.0909	0.	-905.68
10264	2.5893	4.1818	0.	-897.8
10265	2.6786	4.1818	5.e-002	-1.255e-004
10266	2.6786	3.9091	0.	-995.47
10267	2.5893	4.	0.	-992.67
10268	2.6786	4.	5.e-002	-1.7126e-004
10269	2.6786	3.7273	0.	-1072.8
10270	2.5893	3.8182	0.	-1076.
10271	2.6786	3.8182	5.e-002	-1.1893e-004
10272	2.6786	3.5455	0.	-1135.2
10273	2.5893	3.6364	0.	-1145.4
10274	2.6786	3.6364	5.e-002	4.5744e-005
10275	2.6786	3.3636	0.	-1181.
10276	2.5893	3.4545	0.	-1199.1
10277	2.6786	3.4545	5.e-002	4.812e-005
10278	2.6786	3.1818	0.	-1208.9
10279	2.5893	3.2727	0.	-1235.5
10280	2.6786	3.2727	5.e-002	6.0914e-005
10281	2.6786	3.	0.	-1218.3
10282	2.5893	3.0909	0.	-1254.
10283	2.6786	3.0909	5.e-002	1.7342e-004
10284	2.6786	2.8182	0.	-1208.9
10285	2.5893	2.9091	0.	-1254.
10286	2.6786	2.9091	5.e-002	1.3225e-005
10287	2.6786	2.6364	0.	-1181.
10288	2.5893	2.7273	0.	-1235.5
10289	2.6786	2.7273	5.e-002	9.5715e-005
10290	2.6786	2.4545	0.	-1135.2
10291	2.5893	2.5455	0.	-1199.1
10292	2.6786	2.5455	5.e-002	1.7251e-004
10293	2.6786	2.2727	0.	-1072.8
10294	2.5893	2.3636	0.	-1145.4
10295	2.6786	2.3636	5.e-002	3.4176e-004
10296	2.6786	2.0909	0.	-995.47
10297	2.5893	2.1818	0.	-1076.
10298	2.6786	2.1818	5.e-002	2.8906e-004
10299	2.6786	1.9091	0.	-905.68
10300	2.5893	2.	0.	-992.67
10301	2.6786	2.	5.e-002	3.5025e-004
10302	2.6786	1.7273	0.	-806.23
10303	2.5893	1.8182	0.	-897.8
10304	2.6786	1.8182	5.e-002	2.5715e-004
10305	2.6786	1.5455	0.	-700.26
10306	2.5893	1.6364	0.	-794.18
10307	2.6786	1.6364	5.e-002	3.0936e-004
10308	2.6786	1.3636	0.	-591.05
10309	2.5893	1.4545	0.	-684.81
10310	2.6786	1.4545	5.e-002	2.6032e-004
10311	2.6786	1.1818	0.	-481.76
10312	2.5893	1.2727	0.	-572.79
10313	2.6786	1.2727	5.e-002	3.2955e-004
10314	2.6786	1.	0.	-375.38
10315	2.5893	1.0909	0.	-461.15
10316	2.6786	1.0909	5.e-002	2.7477e-004
10317	2.6786	0.81818	0.	-274.63
10318	2.5893	0.90909	0.	-352.76
10319	2.6786	0.90909	5.e-002	2.1203e-004
10320	2.6786	0.63636	0.	-181.93
10321	2.5893	0.72727	0.	-250.32
10322	2.6786	0.72727	5.e-002	2.4027e-004
10323	2.6786	0.45455	0.	-99.253
10324	2.5893	0.54545	0.	-156.27
10325	2.6786	0.54545	5.e-002	1.4361e-004
10326	2.6786	0.27273	0.	-26.808
10327	2.5893	0.36364	0.	-72.424
10328	2.6786	0.36364	5.e-002	1.1145e-004
10329	2.5893	0.18182	0.	-6.5877
10330	2.6786	0.18182	5.e-002	3.3412e-005
10331	2.6786	9.0909e-002	0.	0.44921
10332	2.5	5.7273	0.	-42.008
10333	2.4107	5.8182	0.	-10.633
10334	2.5	5.8182	5.e-002	-2.7242e-005
10335	2.5	5.9091	0.	0.50337
10336	2.5	5.5455	0.	-129.28
10337	2.4107	5.6364	0.	-95.089
10338	2.5	5.6364	5.e-002	-1.1345e-004
10339	2.5	5.3636	0.	-224.62
10340	2.4107	5.4545	0.	-192.6
10341	2.5	5.4545	5.e-002	-1.3323e-004
10342	2.5	5.1818	0.	-328.44
10343	2.4107	5.2727	0.	-298.87
10344	2.5	5.2727	5.e-002	-1.511e-004
10345	2.5	5.	0.	-438.55
10346	2.4107	5.0909	0.	-411.89
10347	2.5	5.0909	5.e-002	-1.2729e-004
10348	2.5	4.8182	0.	-552.24
10349	2.4107	4.9091	0.	-528.9
10350	2.5	4.9091	5.e-002	-1.7104e-004
10351	2.5	4.6364	0.	-666.66
10352	2.4107	4.7273	0.	-647.
10353	2.5	4.7273	5.e-002	-1.3996e-004
10354	2.5	4.4545	0.	-778.88
10355	2.4107	4.5455	0.	-763.25
10356	2.5	4.5455	5.e-002	-1.4032e-004
10357	2.5	4.2727	0.	-885.95
10358	2.4107	4.3636	0.	-874.78
10359	2.5	4.3636	5.e-002	-1.2678e-004
10360	2.5	4.0909	0.	-985.03
10361	2.4107	4.1818	0.	-978.85
10362	2.5	4.1818	5.e-002	-3.1947e-005
10363	2.5	3.9091	0.	-1073.5
10364	2.4107	4.	0.	-1072.9
10365	2.5	4.	5.e-002	-6.1294e-005
10366	2.5	3.7273	0.	-1149.
10367	2.4107	3.8182	0.	-1154.7
10368	2.5	3.8182	5.e-002	4.2209e-005
10369	2.5	3.5455	0.	-1209.7
10370	2.4107	3.6364	0.	-1222.4
10371	2.5	3.6364	5.e-002	-1.9543e-005
10372	2.5	3.3636	0.	-1254.
10373	2.4107	3.4545	0.	-1274.4
10374	2.5	3.4545	5.e-002	6.5661e-005
10375	2.5	3.1818	0.	-1281.
10376	2.4107	3.2727	0.	-1309.6
10377	2.5	3.2727	5.e-002	1.1622e-004
10378	2.5	3.	0.	-1290.
10379	2.4107	3.0909	0.	-1327.4
10380	2.5	3.0909	5.e-002	3.8258e-005
10381	2.5	2.8182	0.	-1281.
10382	2.4107	2.9091	0.	-1327.4
10383	2.5	2.9091	5.e-002	-4.6019e-005
10384	2.5	2.6364	0.	-1254.
10385	2.4107	2.7273	0.	-1309.6
10386	2.5	2.7273	5.e-002	6.881e-006
10387	2.5	2.4545	0.	-1209.7
10388	2.4107	2.5455	0.	-1274.4
10389	2.5	2.5455	5.e-002	8.5006e-005
10390	2.5	2.2727	0.	-1149.
10391	2.4107	2.3636	0.	-1222.4
10392	2.5	2.3636	5.e-002	1.2013e-004
10393	2.5	2.0909	0.	-1073.5
10394	2.4107	2.1818	0.	-1154.7
10395	2.5	2.1818	5.e-002	1.4622e-004
10396	2.5	1.9091	0.	-985.03
10397	2.4107	2.	0.	-1072.9
10398	2.5	2.	5.e-002	2.1776e-004
10399	2.5	1.7273	0.	-885.95
10400	2.4107	1.8182	0.	-978.85
10401	2.5	1.8182	5.e-002	2.3548e-004
10402	2.5	1.5455	0.	-778.88
10403	2.4107	1.6364	0.	-874.78
10404	2.5	1.6364	5.e-002	2.8681e-004
10405	2.5	1.3636	0.	-666.66
10406	2.4107	1.4545	0.	-763.25
10407	2.5	1.4545	5.e-002	2.545e-004
10408	2.5	1.1818	0.	-552.24
10409	2.4107	1.2727	0.	-647.
10410	2.5	1.2727	5.e-002	2.4969e-004
10411	2.5	1.	0.	-438.55
10412	2.4107	1.0909	0.	-528.9
10413	2.5	1.0909	5.e-002	2.6009e-004
10414	2.5	0.81818	0.	-328.44
10415	2.4107	0.90909	0.	-411.89
10416	2.5	0.90909	5.e-002	2.6061e-004
10417	2.5	0.63636	0.	-224.62
10418	2.4107	0.72727	0.	-298.87
10419	2.5	0.72727	5.e-002	2.1154e-004
10420	2.5	0.45455	0.	-129.28
10421	2.4107	0.54545	0.	-192.6
10422	2.5	0.54545	5.e-002	1.6268e-004
10423	2.5	0.27273	0.	-42.008
10424	2.4107	0.36364	0.	-95.089
10425	2.5	0.36364	5.e-002	1.5911e-004
10426	2.4107	0.18182	0.	-10.633
10427	2.5	0.18182	5.e-002	3.7847e-005
10428	2.5	9.0909e-002	0.	0.50337
10429	2.3214	5.7273	0.	-56.037
10430	2.2321	5.8182	0.	-14.806
10431	2.3214	5.8182	5.e-002	-4.0589e-005
10432	2.3214	5.9091	0.	0.43167
10433	2.3214	5.5455	0.	-158.25
10434	2.2321	5.6364	0.	-116.52
10435	2.3214	5.6364	5.e-002	-1.1732e-004
10436	2.3214	5.3636	0.	-266.8
10437	2.2321	5.4545	0.	-228.36
10438	2.3214	5.4545	5.e-002	-1.5273e-004
10439	2.3214	5.1818	0.	-382.31
10440	2.2321	5.2727	0.	-347.6
10441	2.3214	5.2727	5.e-002	-1.7052e-004
10442	2.3214	5.	0.	-502.27
10443	2.2321	5.0909	0.	-471.9
10444	2.3214	5.0909	5.e-002	-1.6827e-004
10445	2.3214	4.8182	0.	-623.73
10446	2.2321	4.9091	0.	-598.14
10447	2.3214	4.9091	5.e-002	-1.6261e-004
10448	2.3214	4.6364	0.	-743.71
10449	2.2321	4.7273	0.	-723.19
10450	2.3214	4.7273	5.e-002	-1.3567e-004
10451	2.3214	4.4545	0.	-859.33
10452	2.2321	4.5455	0.	-844.09
10453	2.3214	4.5455	5.e-002	-1.6862e-004
10454	2.3214	4.2727	0.	-967.9
10455	2.2321	4.3636	0.	-958.14
10456	2.3214	4.3636	5.e-002	-4.3526e-005
10457	2.3214	4.0909	0.	-1067.
10458	2.2321	4.1818	0.	-1063.
10459	2.3214	4.1818	5.e-002	-6.7449e-005
10460	2.3214	3.9091	0.	-1154.4
10461	2.2321	4.	0.	-1156.5
10462	2.3214	4.	5.e-002	-4.6907e-005
10463	2.3214	3.7273	0.	-1228.4
10464	2.2321	3.8182	0.	-1236.9
10465	2.3214	3.8182	5.e-002	-3.1455e-005
10466	2.3214	3.5455	0.	-1287.4
10467	2.2321	3.6364	0.	-1302.9
10468	2.3214	3.6364	5.e-002	5.3494e-006
10469	2.3214	3.3636	0.	-1330.3
10470	2.2321	3.4545	0.	-1353.3
10471	2.3214	3.4545	5.e-002	3.6631e-005
10472	2.3214	3.1818	0.	-1356.4
10473	2.2321	3.2727	0.	-1387.3
10474	2.3214	3.2727	5.e-002	3.5014e-005
10475	2.3214	3.	0.	-1365.1
10476	2.2321	3.0909	0.	-1404.4
10477	2.3214	3.0909	5.e-002	1.9846e-005
10478	2.3214	2.8182	0.	-1356.4
10479	2.2321	2.9091	0.	-1404.4
10480	2.3214	2.9091	5.e-002	-3.8423e-005
10481	2.3214	2.6364	0.	-1330.3
10482	2.2321	2.7273	0.	-1387.3
10483	2.3214	2.7273	5.e-002	-3.9015e-005
10484	2.3214	2.4545	0.	-1287.4
10485	2.2321	2.5455	0.	-1353.3
10486	2.3214	2.5455	5.e-002	4.407e-005
10487	2.3214	2.2727	0.	-1228.4
10488	2.2321	2.3636	0.	-1302.9
10489	2.3214	2.3636	5.e-002	8.5325e-005
10490	2.3214	2.0909	0.	-1154.4
10491	2.2321	2.1818	0.	-1236.9
10492	2.3214	2.1818	5.e-002	1.5767e-004
10493	2.3214	1.9091	0.	-1067.
10494	2.2321	2.	0.	-1156.5
10495	2.3214	2.	5.e-002	1.8612e-004
10496	2.3214	1.7273	0.	-967.9
10497	2.2321	1.8182	0.	-1063.
10498	2.3214	1.8182	5.e-002	2.1377e-004
10499	2.3214	1.5455	0.	-859.33
10500	2.2321	1.6364	0.	-958.14
10501	2.3214	1.6364	5.e-002	2.274e-004
10502	2.3214	1.3636	0.	-743.71
10503	2.2321	1.4545	0.	-844.09
10504	2.3214	1.4545	5.e-002	2.846e-004
10505	2.3214	1.1818	0.	-623.73
10506	2.2321	1.2727	0.	-723.19
10507	2.3214	1.2727	5.e-002	3.1257e-004
10508	2.3214	1.	0.	-502.27
10509	2.2321	1.0909	0.	-598.14
10510	2.3214	1.0909	5.e-002	2.8266e-004
10511	2.3214	0.81818	0.	-382.31
10512	2.2321	0.90909	0.	-471.9
10513	2.3214	0.90909	5.e-002	3.1312e-004
10514	2.3214	0.63636	0.	-266.8
10515	2.2321	0.72727	0.	-347.6
10516	2.3214	0.72727	5.e-002	2.5288e-004
10517	2.3214	0.45455	0.	-158.25
10518	2.2321	0.54545	0.	-228.36
10519	2.3214	0.54545	5.e-002	2.2753e-004
10520	2.3214	0.27273	0.	-56.037
10521	2.2321	0.36364	0.	-116.52
10522	2.3214	0.36364	5.e-002	2.0265e-004
10523	2.2321	0.18182	0.	-14.806
10524	2.3214	0.18182	5.e-002	4.1453e-005
10525	2.3214	9.0909e-002	0.	0.43167
10526	2.1429	5.7273	0.	-68.583
10527	2.0536	5.8182	0.	-18.149
10528	2.1429	5.8182	5.e-002	-4.8178e-005
10529	2.1429	5.9091	0.	8.0524e-002
10530	2.1429	5.5455	0.	-186.43
10531	2.0536	5.6364	0.	-136.88
10532	2.1429	5.6364	5.e-002	-1.518e-004
10533	2.1429	5.3636	0.	-309.08
10534	2.0536	5.4545	0.	-264.08
10535	2.1429	5.4545	5.e-002	-1.6618e-004
10536	2.1429	5.1818	0.	-437.16
10537	2.0536	5.2727	0.	-397.42
10538	2.1429	5.2727	5.e-002	-1.779e-004
10539	2.1429	5.	0.	-567.8
10540	2.0536	5.0909	0.	-534.04
10541	2.1429	5.0909	5.e-002	-1.7897e-004
10542	2.1429	4.8182	0.	-697.68
10543	2.0536	4.9091	0.	-670.33
10544	2.1429	4.9091	5.e-002	-1.0095e-004
10545	2.1429	4.6364	0.	-823.71
10546	2.0536	4.7273	0.	-802.92
10547	2.1429	4.7273	5.e-002	-1.3174e-004
10548	2.1429	4.4545	0.	-943.09
10549	2.0536	4.5455	0.	-928.83
10550	2.1429	4.5455	5.e-002	-9.241e-005
10551	2.1429	4.2727	0.	-1053.4
10552	2.0536	4.3636	0.	-1045.6
10553	2.1429	4.3636	5.e-002	-8.3795e-005
10554	2.1429	4.0909	0.	-1152.7
10555	2.0536	4.1818	0.	-1151.3
10556	2.1429	4.1818	5.e-002	-6.1602e-005
10557	2.1429	3.9091	0.	-1239.2
10558	2.0536	4.	0.	-1244.2
10559	2.1429	4.	5.e-002	-5.0262e-005
10560	2.1429	3.7273	0.	-1311.7
10561	2.0536	3.8182	0.	-1323.3
10562	2.1429	3.8182	5.e-002	-3.6937e-005
10563	2.1429	3.5455	0.	-1369.1
10564	2.0536	3.6364	0.	-1387.5
10565	2.1429	3.6364	5.e-002	4.7938e-005
10566	2.1429	3.3636	0.	-1410.6
10567	2.0536	3.4545	0.	-1436.3
10568	2.1429	3.4545	5.e-002	3.7521e-005
10569	2.1429	3.1818	0.	-1435.7
10570	2.0536	3.2727	0.	-1469.
10571	2.1429	3.2727	5.e-002	1.8756e-005
10572	2.1429	3.	0.	-1444.1
10573	2.0536	3.0909	0.	-1485.5
10574	2.1429	3.0909	5.e-002	7.2474e-006
10575	2.1429	2.8182	0.	-1435.7
10576	2.0536	2.9091	0.	-1485.5
10577	2.1429	2.9091	5.e-002	-1.9782e-005
10578	2.1429	2.6364	0.	-1410.6
10579	2.0536	2.7273	0.	-1469.
10580	2.1429	2.7273	5.e-002	-2.689e-005
10581	2.1429	2.4545	0.	-1369.1
10582	2.0536	2.5455	0.	-1436.3
10583	2.1429	2.5455	5.e-002	2.3969e-005
10584	2.1429	2.2727	0.	-1311.7
10585	2.0536	2.3636	0.	-1387.5
10586	2.1429	2.3636	5.e-002	8.264e-005
10587	2.1429	2.0909	0.	-1239.2
10588	2.0536	2.1818	0.	-1323.3
10589	2.1429	2.1818	5.e-002	1.2285e-004
10590	2.1429	1.9091	0.	-1152.7
10591	2.0536	2.	0.	-1244.2
10592	2.1429	2.	5.e-002	1.9261e-004
10593	2.1429	1.7273	0.	-1053.4
10594	2.0536	1.8182	0.	-1151.3
10595	2.1429	1.8182	5.e-002	1.8567e-004
10596	2.1429	1.5455	0.	-943.09
10597	2.0536	1.6364	0.	-1045.6
10598	2.1429	1.6364	5.e-002	2.2559e-004
10599	2.1429	1.3636	0.	-823.71
10600	2.0536	1.4545	0.	-928.83
10601	2.1429	1.4545	5.e-002	2.3298e-004
10602	2.1429	1.1818	0.	-697.68
10603	2.0536	1.2727	0.	-802.92
10604	2.1429	1.2727	5.e-002	3.2233e-004
10605	2.1429	1.	0.	-567.8
10606	2.0536	1.0909	0.	-670.33
10607	2.1429	1.0909	5.e-002	2.2095e-004
10608	2.1429	0.81818	0.	-437.16
10609	2.0536	0.90909	0.	-534.04
10610	2.1429	0.90909	5.e-002	3.2612e-004
10611	2.1429	0.63636	0.	-309.08
10612	2.0536	0.72727	0.	-397.42
10613	2.1429	0.72727	5.e-002	2.9669e-004
10614	2.1429	0.45455	0.	-186.43
10615	2.0536	0.54545	0.	-264.08
10616	2.1429	0.54545	5.e-002	2.6908e-004
10617	2.1429	0.27273	0.	-68.583
10618	2.0536	0.36364	0.	-136.88
10619	2.1429	0.36364	5.e-002	2.1769e-004
10620	2.0536	0.18182	0.	-18.149
10621	2.1429	0.18182	5.e-002	7.2666e-005
10622	2.1429	9.0909e-002	0.	8.0516e-002
10623	1.9643	5.7273	0.	-79.635
10624	1.875	5.8182	0.	-20.227
10625	1.9643	5.8182	5.e-002	-7.4707e-005
10626	1.9643	5.9091	0.	-0.25751
10627	1.9643	5.5455	0.	-214.27
10628	1.875	5.6364	0.	-156.47
10629	1.9643	5.6364	5.e-002	-2.2084e-004
10630	1.9643	5.3636	0.	-352.3
10631	1.875	5.4545	0.	-300.58
10632	1.9643	5.4545	5.e-002	-2.7987e-004
10633	1.9643	5.1818	0.	-494.24
10634	1.875	5.2727	0.	-449.57
10635	1.9643	5.2727	5.e-002	-1.9338e-004
10636	1.9643	5.	0.	-636.59
10637	1.875	5.0909	0.	-599.86
10638	1.9643	5.0909	5.e-002	-1.9253e-004
10639	1.9643	4.8182	0.	-775.66
10640	1.875	4.9091	0.	-747.19
10641	1.9643	4.9091	5.e-002	-1.8685e-004
10642	1.9643	4.6364	0.	-908.2
10643	1.875	4.7273	0.	-887.88
10644	1.9643	4.7273	5.e-002	-1.7209e-004
10645	1.9643	4.4545	0.	-1031.6
10646	1.875	4.5455	0.	-1019.
10647	1.9643	4.5455	5.e-002	-1.3257e-004
10648	1.9643	4.2727	0.	-1143.7
10649	1.875	4.3636	0.	-1138.5
10650	1.9643	4.3636	5.e-002	-7.3156e-005
10651	1.9643	4.0909	0.	-1243.1
10652	1.875	4.1818	0.	-1244.8
10653	1.9643	4.1818	5.e-002	-1.2131e-004
10654	1.9643	3.9091	0.	-1328.6
10655	1.875	4.	0.	-1337.
10656	1.9643	4.	5.e-002	1.8414e-005
10657	1.9643	3.7273	0.	-1399.5
10658	1.875	3.8182	0.	-1414.4
10659	1.9643	3.8182	5.e-002	2.1537e-005
10660	1.9643	3.5455	0.	-1455.1
10661	1.875	3.6364	0.	-1476.6
10662	1.9643	3.6364	5.e-002	3.7048e-006
10663	1.9643	3.3636	0.	-1495.
10664	1.875	3.4545	0.	-1523.5
10665	1.9643	3.4545	5.e-002	2.6801e-005
10666	1.9643	3.1818	0.	-1519.1
10667	1.875	3.2727	0.	-1554.8
10668	1.9643	3.2727	5.e-002	9.5026e-006
10669	1.9643	3.	0.	-1527.1
10670	1.875	3.0909	0.	-1570.5
10671	1.9643	3.0909	5.e-002	-2.5896e-005
10672	1.9643	2.8182	0.	-1519.1
10673	1.875	2.9091	0.	-1570.5
10674	1.9643	2.9091	5.e-002	-3.1208e-005
10675	1.9643	2.6364	0.	-1495.
10676	1.875	2.7273	0.	-1554.8
10677	1.9643	2.7273	5.e-002	-2.2922e-006
10678	1.9643	2.4545	0.	-1455.1
10679	1.875	2.5455	0.	-1523.5
10680	1.9643	2.5455	5.e-002	-2.0594e-005
10681	1.9643	2.2727	0.	-1399.5
10682	1.875	2.3636	0.	-1476.6
10683	1.9643	2.3636	5.e-002	2.5755e-005
10684	1.9643	2.0909	0.	-1328.6
10685	1.875	2.1818	0.	-1414.4
10686	1.9643	2.1818	5.e-002	6.89e-005
10687	1.9643	1.9091	0.	-1243.1
10688	1.875	2.	0.	-1337.
10689	1.9643	2.	5.e-002	1.1256e-004
10690	1.9643	1.7273	0.	-1143.7
10691	1.875	1.8182	0.	-1244.8
10692	1.9643	1.8182	5.e-002	1.7832e-004
10693	1.9643	1.5455	0.	-1031.6
10694	1.875	1.6364	0.	-1138.5
10695	1.9643	1.6364	5.e-002	2.4166e-004
10696	1.9643	1.3636	0.	-908.2
10697	1.875	1.4545	0.	-1019.
10698	1.9643	1.4545	5.e-002	2.6204e-004
10699	1.9643	1.1818	0.	-775.66
10700	1.875	1.2727	0.	-887.88
10701	1.9643	1.2727	5.e-002	2.7569e-004
10702	1.9643	1.	0.	-636.59
10703	1.875	1.0909	0.	-747.19
10704	1.9643	1.0909	5.e-002	2.5604e-004
10705	1.9643	0.81818	0.	-494.24
10706	1.875	0.90909	0.	-599.86
10707	1.9643	0.90909	5.e-002	3.5279e-004
10708	1.9643	0.63636	0.	-352.3
10709	1.875	0.72727	0.	-449.57
10710	1.9643	0.72727	5.e-002	3.0875e-004
10711	1.9643	0.45455	0.	-214.28
10712	1.875	0.54545	0.	-300.58
10713	1.9643	0.54545	5.e-002	3.0322e-004
10714	1.9643	0.27273	0.	-79.635
10715	1.875	0.36364	0.	-156.47
10716	1.9643	0.36364	5.e-002	3.3581e-004
10717	1.875	0.18182	0.	-20.227
10718	1.9643	0.18182	5.e-002	9.0891e-005
10719	1.9643	9.0909e-002	0.	-0.25753
10720	1.7857	5.7273	0.	-89.307
10721	1.6964	5.8182	0.	-20.968
10722	1.7857	5.8182	5.e-002	-6.1342e-005
10723	1.7857	5.9091	0.	-0.30194
10724	1.7857	5.5455	0.	-242.46
10725	1.6964	5.6364	0.	-175.82
10726	1.7857	5.6364	5.e-002	-2.9673e-004
10727	1.7857	5.3636	0.	-397.69
10728	1.6964	5.4545	0.	-339.01
10729	1.7857	5.4545	5.e-002	-2.1274e-004
10730	1.7857	5.1818	0.	-555.13
10731	1.6964	5.2727	0.	-505.78
10732	1.7857	5.2727	5.e-002	-2.1571e-004
10733	1.7857	5.	0.	-710.49
10734	1.6964	5.0909	0.	-671.41
10735	1.7857	5.0909	5.e-002	-1.5698e-004
10736	1.7857	4.8182	0.	-859.52
10737	1.6964	4.9091	0.	-830.8
10738	1.7857	4.9091	5.e-002	-1.987e-004
10739	1.7857	4.6364	0.	-998.89
10740	1.6964	4.7273	0.	-979.98
10741	1.7857	4.7273	5.e-002	-9.9958e-005
10742	1.7857	4.4545	0.	-1126.2
10743	1.6964	4.5455	0.	-1116.2
10744	1.7857	4.5455	5.e-002	-1.2117e-004
10745	1.7857	4.2727	0.	-1239.8
10746	1.6964	4.3636	0.	-1237.9
10747	1.7857	4.3636	5.e-002	-1.0379e-004
10748	1.7857	4.0909	0.	-1338.9
10749	1.6964	4.1818	0.	-1344.3
10750	1.7857	4.1818	5.e-002	-4.4944e-005
10751	1.7857	3.9091	0.	-1423.
10752	1.6964	4.	0.	-1435.1
10753	1.7857	4.	5.e-002	1.1799e-005
10754	1.7857	3.7273	0.	-1491.9
10755	1.6964	3.8182	0.	-1510.3
10756	1.7857	3.8182	5.e-002	1.1645e-005
10757	1.7857	3.5455	0.	-1545.4
10758	1.6964	3.6364	0.	-1570.1
10759	1.7857	3.6364	5.e-002	1.5237e-006
10760	1.7857	3.3636	0.	-1583.6
10761	1.6964	3.4545	0.	-1614.8
10762	1.7857	3.4545	5.e-002	5.4684e-006
10763	1.7857	3.1818	0.	-1606.5
10764	1.6964	3.2727	0.	-1644.5
10765	1.7857	3.2727	5.e-002	1.8531e-005
10766	1.7857	3.	0.	-1614.1
10767	1.6964	3.0909	0.	-1659.3
10768	1.7857	3.0909	5.e-002	1.3814e-006
10769	1.7857	2.8182	0.	-1606.5
10770	1.6964	2.9091	0.	-1659.3
10771	1.7857	2.9091	5.e-002	-6.4513e-007
10772	1.7857	2.6364	0.	-1583.6
10773	1.6964	2.7273	0.	-1644.5
10774	1.7857	2.7273	5.e-002	-3.5394e-006
10775	1.7857	2.4545	0.	-1545.4
10776	1.6964	2.5455	0.	-1614.8
10777	1.7857	2.5455	5.e-002	3.2842e-005
10778	1.7857	2.2727	0.	-1491.9
10779	1.6964	2.3636	0.	-1570.1
10780	1.7857	2.3636	5.e-002	3.9441e-005
10781	1.7857	2.0909	0.	-1423.
10782	1.6964	2.1818	0.	-1510.3
10783	1.7857	2.1818	5.e-002	6.1661e-005
10784	1.7857	1.9091	0.	-1338.9
10785	1.6964	2.	0.	-1435.1
10786	1.7857	2.	5.e-002	9.8869e-005
10787	1.7857	1.7273	0.	-1239.8
10788	1.6964	1.8182	0.	-1344.3
10789	1.7857	1.8182	5.e-002	1.699e-004
10790	1.7857	1.5455	0.	-1126.2
10791	1.6964	1.6364	0.	-1237.9
10792	1.7857	1.6364	5.e-002	2.2282e-004
10793	1.7857	1.3636	0.	-998.89
10794	1.6964	1.4545	0.	-1116.2
10795	1.7857	1.4545	5.e-002	2.3669e-004
10796	1.7857	1.1818	0.	-859.52
10797	1.6964	1.2727	0.	-979.98
10798	1.7857	1.2727	5.e-002	2.4475e-004
10799	1.7857	1.	0.	-710.49
10800	1.6964	1.0909	0.	-830.8
10801	1.7857	1.0909	5.e-002	2.6935e-004
10802	1.7857	0.81818	0.	-555.13
10803	1.6964	0.90909	0.	-671.41
10804	1.7857	0.90909	5.e-002	2.7443e-004
10805	1.7857	0.63636	0.	-397.69
10806	1.6964	0.72727	0.	-505.78
10807	1.7857	0.72727	5.e-002	3.8046e-004
10808	1.7857	0.45455	0.	-242.46
10809	1.6964	0.54545	0.	-339.01
10810	1.7857	0.54545	5.e-002	4.2016e-004
10811	1.7857	0.27273	0.	-89.308
10812	1.6964	0.36364	0.	-175.82
10813	1.7857	0.36364	5.e-002	3.5618e-004
10814	1.6964	0.18182	0.	-20.968
10815	1.7857	0.18182	5.e-002	1.0346e-004
10816	1.7857	9.0909e-002	0.	-0.30195
10817	1.6071	5.7273	0.	-97.821
10818	1.5179	5.8182	0.	-20.565
10819	1.6071	5.8182	5.e-002	-7.4094e-005
10820	1.6071	5.9091	0.	-0.17552
10821	1.6071	5.5455	0.	-271.97
10822	1.5179	5.6364	0.	-195.68
10823	1.6071	5.6364	5.e-002	-2.7629e-004
10824	1.6071	5.3636	0.	-446.9
10825	1.5179	5.4545	0.	-381.08
10826	1.6071	5.4545	5.e-002	-2.3106e-004
10827	1.6071	5.1818	0.	-621.99
10828	1.5179	5.2727	0.	-568.45
10829	1.6071	5.2727	5.e-002	-2.2987e-004
10830	1.6071	5.	0.	-791.78
10831	1.5179	5.0909	0.	-751.37
10832	1.6071	5.0909	5.e-002	-1.6921e-004
10833	1.6071	4.8182	0.	-951.43
10834	1.5179	4.9091	0.	-923.74
10835	1.6071	4.9091	5.e-002	-1.9981e-004
10836	1.6071	4.6364	0.	-1097.6
10837	1.5179	4.7273	0.	-1081.4
10838	1.6071	4.7273	5.e-002	-1.0924e-004
10839	1.6071	4.4545	0.	-1228.3
10840	1.5179	4.5455	0.	-1222.1
10841	1.6071	4.5455	5.e-002	-1.6442e-004
10842	1.6071	4.2727	0.	-1342.7
10843	1.5179	4.3636	0.	-1345.1
10844	1.6071	4.3636	5.e-002	-4.5134e-005
10845	1.6071	4.0909	0.	-1440.8
10846	1.5179	4.1818	0.	-1450.5
10847	1.6071	4.1818	5.e-002	-5.5377e-005
10848	1.6071	3.9091	0.	-1522.7
10849	1.5179	4.	0.	-1538.8
10850	1.6071	4.	5.e-002	-1.289e-005
10851	1.6071	3.7273	0.	-1588.9
10852	1.5179	3.8182	0.	-1611.
10853	1.6071	3.8182	5.e-002	-9.0642e-006
10854	1.6071	3.5455	0.	-1639.8
10855	1.5179	3.6364	0.	-1667.7
10856	1.6071	3.6364	5.e-002	2.0993e-006
10857	1.6071	3.3636	0.	-1675.9
10858	1.5179	3.4545	0.	-1709.7
10859	1.6071	3.4545	5.e-002	1.5027e-005
10860	1.6071	3.1818	0.	-1697.5
10861	1.5179	3.2727	0.	-1737.5
10862	1.6071	3.2727	5.e-002	1.011e-006
10863	1.6071	3.	0.	-1704.7
10864	1.5179	3.0909	0.	-1751.2
10865	1.6071	3.0909	5.e-002	7.1069e-007
10866	1.6071	2.8182	0.	-1697.5
10867	1.5179	2.9091	0.	-1751.2
10868	1.6071	2.9091	5.e-002	-4.4816e-005
10869	1.6071	2.6364	0.	-1675.9
10870	1.5179	2.7273	0.	-1737.5
10871	1.6071	2.7273	5.e-002	6.2967e-006
10872	1.6071	2.4545	0.	-1639.8
10873	1.5179	2.5455	0.	-1709.7
10874	1.6071	2.5455	5.e-002	-5.4852e-006
10875	1.6071	2.2727	0.	-1588.9
10876	1.5179	2.3636	0.	-1667.7
10877	1.6071	2.3636	5.e-002	2.8435e-005
10878	1.6071	2.0909	0.	-1522.7
10879	1.5179	2.1818	0.	-1611.
10880	1.6071	2.1818	5.e-002	5.8014e-005
10881	1.6071	1.9091	0.	-1440.8
10882	1.5179	2.	0.	-1538.8
10883	1.6071	2.	5.e-002	9.9434e-005
10884	1.6071	1.7273	0.	-1342.7
10885	1.5179	1.8182	0.	-1450.5
10886	1.6071	1.8182	5.e-002	1.1666e-004
10887	1.6071	1.5455	0.	-1228.3
10888	1.5179	1.6364	0.	-1345.1
10889	1.6071	1.6364	5.e-002	1.5015e-004
10890	1.6071	1.3636	0.	-1097.6
10891	1.5179	1.4545	0.	-1222.1
10892	1.6071	1.4545	5.e-002	2.2976e-004
10893	1.6071	1.1818	0.	-951.43
10894	1.5179	1.2727	0.	-1081.4
10895	1.6071	1.2727	5.e-002	2.4818e-004
10896	1.6071	1.	0.	-791.78
10897	1.5179	1.0909	0.	-923.74
10898	1.6071	1.0909	5.e-002	2.7359e-004
10899	1.6071	0.81818	0.	-621.99
10900	1.5179	0.90909	0.	-751.37
10901	1.6071	0.90909	5.e-002	2.8813e-004
10902	1.6071	0.63636	0.	-446.9
10903	1.5179	0.72727	0.	-568.45
10904	1.6071	0.72727	5.e-002	2.9906e-004
10905	1.6071	0.45455	0.	-271.97
10906	1.5179	0.54545	0.	-381.08
10907	1.6071	0.54545	5.e-002	4.582e-004
10908	1.6071	0.27273	0.	-97.822
10909	1.5179	0.36364	0.	-195.68
10910	1.6071	0.36364	5.e-002	3.926e-004
10911	1.5179	0.18182	0.	-20.565
10912	1.6071	0.18182	5.e-002	1.1905e-004
10913	1.6071	9.0909e-002	0.	-0.17552
10914	1.4286	5.7273	0.	-105.58
10915	1.3393	5.8182	0.	-19.381
10916	1.4286	5.8182	5.e-002	-8.2886e-005
10917	1.4286	5.9091	0.	-3.4064e-002
10918	1.4286	5.5455	0.	-304.31
10919	1.3393	5.6364	0.	-217.25
10920	1.4286	5.6364	5.e-002	-2.3974e-004
10921	1.4286	5.3636	0.	-502.4
10922	1.3393	5.4545	0.	-429.32
10923	1.4286	5.4545	5.e-002	-4.1722e-004
10924	1.4286	5.1818	0.	-697.79
10925	1.3393	5.2727	0.	-640.92
10926	1.4286	5.2727	5.e-002	-3.4158e-004
10927	1.4286	5.	0.	-883.46
10928	1.3393	5.0909	0.	-843.25
10929	1.4286	5.0909	5.e-002	-2.2703e-004
10930	1.4286	4.8182	0.	-1054.
10931	1.3393	4.9091	0.	-1029.1
10932	1.4286	4.9091	5.e-002	-2.0771e-004
10933	1.4286	4.6364	0.	-1206.3
10934	1.3393	4.7273	0.	-1194.5
10935	1.4286	4.7273	5.e-002	-1.852e-004
10936	1.4286	4.4545	0.	-1339.3
10937	1.3393	4.5455	0.	-1338.2
10938	1.4286	4.5455	5.e-002	-1.6002e-004
10939	1.4286	4.2727	0.	-1453.2
10940	1.3393	4.3636	0.	-1460.7
10941	1.4286	4.3636	5.e-002	-7.8614e-005
10942	1.4286	4.0909	0.	-1548.9
10943	1.3393	4.1818	0.	-1563.4
10944	1.4286	4.1818	5.e-002	-3.6652e-005
10945	1.4286	3.9091	0.	-1627.5
10946	1.3393	4.	0.	-1647.9
10947	1.4286	4.	5.e-002	-4.664e-005
10948	1.4286	3.7273	0.	-1690.2
10949	1.3393	3.8182	0.	-1716.
10950	1.4286	3.8182	5.e-002	1.8717e-005
10951	1.4286	3.5455	0.	-1737.9
10952	1.3393	3.6364	0.	-1768.8
10953	1.4286	3.6364	5.e-002	-3.7261e-006
10954	1.4286	3.3636	0.	-1771.5
10955	1.3393	3.4545	0.	-1807.6
10956	1.4286	3.4545	5.e-002	-1.4001e-006
10957	1.4286	3.1818	0.	-1791.5
10958	1.3393	3.2727	0.	-1833.
10959	1.4286	3.2727	5.e-002	5.7628e-007
10960	1.4286	3.	0.	-1798.1
10961	1.3393	3.0909	0.	-1845.6
10962	1.4286	3.0909	5.e-002	-1.5212e-005
10963	1.4286	2.8182	0.	-1791.5
10964	1.3393	2.9091	0.	-1845.6
10965	1.4286	2.9091	5.e-002	9.6682e-007
10966	1.4286	2.6364	0.	-1771.5
10967	1.3393	2.7273	0.	-1833.
10968	1.4286	2.7273	5.e-002	-9.3923e-006
10969	1.4286	2.4545	0.	-1737.9
10970	1.3393	2.5455	0.	-1807.6
10971	1.4286	2.5455	5.e-002	-2.2737e-005
10972	1.4286	2.2727	0.	-1690.2
10973	1.3393	2.3636	0.	-1768.8
10974	1.4286	2.3636	5.e-002	1.6199e-005
10975	1.4286	2.0909	0.	-1627.5
10976	1.3393	2.1818	0.	-1716.
10977	1.4286	2.1818	5.e-002	5.9585e-005
10978	1.4286	1.9091	0.	-1548.9
10979	1.3393	2.	0.	-1647.9
10980	1.4286	2.	5.e-002	7.7813e-005
10981	1.4286	1.7273	0.	-1453.2
10982	1.3393	1.8182	0.	-1563.4
10983	1.4286	1.8182	5.e-002	1.5396e-004
10984	1.4286	1.5455	0.	-1339.3
10985	1.3393	1.6364	0.	-1460.7
10986	1.4286	1.6364	5.e-002	1.9654e-004
10987	1.4286	1.3636	0.	-1206.3
10988	1.3393	1.4545	0.	-1338.2
10989	1.4286	1.4545	5.e-002	2.1685e-004
10990	1.4286	1.1818	0.	-1054.
10991	1.3393	1.2727	0.	-1194.5
10992	1.4286	1.2727	5.e-002	2.0892e-004
10993	1.4286	1.	0.	-883.46
10994	1.3393	1.0909	0.	-1029.1
10995	1.4286	1.0909	5.e-002	3.1909e-004
10996	1.4286	0.81818	0.	-697.79
10997	1.3393	0.90909	0.	-843.25
10998	1.4286	0.90909	5.e-002	4.0373e-004
10999	1.4286	0.63636	0.	-502.4
11000	1.3393	0.72727	0.	-640.92
11001	1.4286	0.72727	5.e-002	4.1892e-004
11002	1.4286	0.45455	0.	-304.31
11003	1.3393	0.54545	0.	-429.32
11004	1.4286	0.54545	5.e-002	4.3002e-004
11005	1.4286	0.27273	0.	-105.58
11006	1.3393	0.36364	0.	-217.25
11007	1.4286	0.36364	5.e-002	3.5928e-004
11008	1.3393	0.18182	0.	-19.381
11009	1.4286	0.18182	5.e-002	1.2786e-004
11010	1.4286	9.0909e-002	0.	-3.4069e-002
11011	1.25	5.7273	0.	-113.14
11012	1.1607	5.8182	0.	-18.103
11013	1.25	5.8182	5.e-002	-1.2016e-004
11014	1.25	5.9091	0.	0.17038
11015	1.25	5.5455	0.	-341.67
11016	1.1607	5.6364	0.	-242.71
11017	1.25	5.6364	5.e-002	-3.6678e-004
11018	1.25	5.3636	0.	-567.62
11019	1.1607	5.4545	0.	-487.94
11020	1.25	5.4545	5.e-002	-3.6275e-004
11021	1.25	5.1818	0.	-786.44
11022	1.1607	5.2727	0.	-728.43
11023	1.25	5.2727	5.e-002	-2.3883e-004
11024	1.25	5.	0.	-989.14
11025	1.1607	5.0909	0.	-952.02
11026	1.25	5.0909	5.e-002	-2.2721e-004
11027	1.25	4.8182	0.	-1170.
11028	1.1607	4.9091	0.	-1150.7
11029	1.25	4.9091	5.e-002	-1.9802e-004
11030	1.25	4.6364	0.	-1326.8
11031	1.1607	4.7273	0.	-1321.7
11032	1.25	4.7273	5.e-002	-1.433e-004
11033	1.25	4.4545	0.	-1460.
11034	1.1607	4.5455	0.	-1465.8
11035	1.25	4.5455	5.e-002	-8.8045e-005
11036	1.25	4.2727	0.	-1571.3
11037	1.1607	4.3636	0.	-1585.2
11038	1.25	4.3636	5.e-002	-7.7073e-005
11039	1.25	4.0909	0.	-1662.8
11040	1.1607	4.1818	0.	-1683.
11041	1.25	4.1818	5.e-002	-9.7888e-005
11042	1.25	3.9091	0.	-1736.7
11043	1.1607	4.	0.	-1762.
11044	1.25	4.	5.e-002	-2.8613e-005
11045	1.25	3.7273	0.	-1794.9
11046	1.1607	3.8182	0.	-1824.6
11047	1.25	3.8182	5.e-002	-1.6222e-005
11048	1.25	3.5455	0.	-1838.7
11049	1.1607	3.6364	0.	-1872.7
11050	1.25	3.6364	5.e-002	3.646e-006
11051	1.25	3.3636	0.	-1869.3
11052	1.1607	3.4545	0.	-1907.7
11053	1.25	3.4545	5.e-002	5.0232e-007
11054	1.25	3.1818	0.	-1887.4
11055	1.1607	3.2727	0.	-1930.4
11056	1.25	3.2727	5.e-002	-1.5068e-006
11057	1.25	3.	0.	-1893.3
11058	1.1607	3.0909	0.	-1941.7
11059	1.25	3.0909	5.e-002	-5.5658e-007
11060	1.25	2.8182	0.	-1887.4
11061	1.1607	2.9091	0.	-1941.7
11062	1.25	2.9091	5.e-002	-1.4178e-005
11063	1.25	2.6364	0.	-1869.3
11064	1.1607	2.7273	0.	-1930.4
11065	1.25	2.7273	5.e-002	5.921e-006
11066	1.25	2.4545	0.	-1838.7
11067	1.1607	2.5455	0.	-1907.7
11068	1.25	2.5455	5.e-002	1.7079e-005
11069	1.25	2.2727	0.	-1794.9
11070	1.1607	2.3636	0.	-1872.7
11071	1.25	2.3636	5.e-002	3.1654e-005
11072	1.25	2.0909	0.	-1736.7
11073	1.1607	2.1818	0.	-1824.6
11074	1.25	2.1818	5.e-002	4.647e-005
11075	1.25	1.9091	0.	-1662.8
11076	1.1607	2.	0.	-1762.
11077	1.25	2.	5.e-002	8.0832e-005
11078	1.25	1.7273	0.	-1571.3
11079	1.1607	1.8182	0.	-1683.
11080	1.25	1.8182	5.e-002	1.2782e-004
11081	1.25	1.5455	0.	-1460.
11082	1.1607	1.6364	0.	-1585.2
11083	1.25	1.6364	5.e-002	1.8328e-004
11084	1.25	1.3636	0.	-1326.8
11085	1.1607	1.4545	0.	-1465.8
11086	1.25	1.4545	5.e-002	2.4375e-004
11087	1.25	1.1818	0.	-1170.
11088	1.1607	1.2727	0.	-1321.7
11089	1.25	1.2727	5.e-002	2.9719e-004
11090	1.25	1.	0.	-989.14
11091	1.1607	1.0909	0.	-1150.7
11092	1.25	1.0909	5.e-002	3.3419e-004
11093	1.25	0.81818	0.	-786.44
11094	1.1607	0.90909	0.	-952.02
11095	1.25	0.90909	5.e-002	4.0467e-004
11096	1.25	0.63636	0.	-567.62
11097	1.1607	0.72727	0.	-728.43
11098	1.25	0.72727	5.e-002	4.3272e-004
11099	1.25	0.45455	0.	-341.67
11100	1.1607	0.54545	0.	-487.94
11101	1.25	0.54545	5.e-002	4.9105e-004
11102	1.25	0.27273	0.	-113.14
11103	1.1607	0.36364	0.	-242.71
11104	1.25	0.36364	5.e-002	4.2931e-004
11105	1.1607	0.18182	0.	-18.103
11106	1.25	0.18182	5.e-002	1.6706e-004
11107	1.25	9.0909e-002	0.	0.17038
11108	1.0714	5.7273	0.	-122.04
11109	0.98214	5.8182	0.	-16.606
11110	1.0714	5.8182	5.e-002	-1.8755e-004
11111	1.0714	5.9091	0.	0.10221
11112	1.0714	5.5455	0.	-388.3
11113	0.98214	5.6364	0.	-275.12
11114	1.0714	5.6364	5.e-002	-2.4047e-004
11115	1.0714	5.3636	0.	-648.61
11116	0.98214	5.4545	0.	-562.81
11117	1.0714	5.4545	5.e-002	-3.0508e-004
11118	1.0714	5.1818	0.	-894.26
11119	0.98214	5.2727	0.	-837.4
11120	1.0714	5.2727	5.e-002	-2.4756e-004
11121	1.0714	5.	0.	-1114.1
11122	0.98214	5.0909	0.	-1082.7
11123	1.0714	5.0909	5.e-002	-2.3229e-004
11124	1.0714	4.8182	0.	-1303.1
11125	0.98214	4.9091	0.	-1291.4
11126	1.0714	4.9091	5.e-002	-2.0701e-004
11127	1.0714	4.6364	0.	-1461.3
11128	0.98214	4.7273	0.	-1463.9
11129	1.0714	4.7273	5.e-002	-1.6748e-004
11130	1.0714	4.4545	0.	-1591.5
11131	0.98214	4.5455	0.	-1604.1
11132	1.0714	4.5455	5.e-002	-1.1198e-004
11133	1.0714	4.2727	0.	-1697.4
11134	0.98214	4.3636	0.	-1716.9
11135	1.0714	4.3636	5.e-002	-8.8897e-005
11136	1.0714	4.0909	0.	-1782.6
11137	0.98214	4.1818	0.	-1807.2
11138	1.0714	4.1818	5.e-002	-5.072e-005
11139	1.0714	3.9091	0.	-1850.2
11140	0.98214	4.	0.	-1878.8
11141	1.0714	4.	5.e-002	-3.4314e-005
11142	1.0714	3.7273	0.	-1902.7
11143	0.98214	3.8182	0.	-1934.7
11144	1.0714	3.8182	5.e-002	-7.4593e-006
11145	1.0714	3.5455	0.	-1941.9
11146	0.98214	3.6364	0.	-1977.1
11147	1.0714	3.6364	5.e-002	-3.9478e-006
11148	1.0714	3.3636	0.	-1969.
11149	0.98214	3.4545	0.	-2007.7
11150	1.0714	3.4545	5.e-002	-2.8632e-006
11151	1.0714	3.1818	0.	-1985.
11152	0.98214	3.2727	0.	-2027.6
11153	1.0714	3.2727	5.e-002	-2.436e-007
11154	1.0714	3.	0.	-1990.2
11155	0.98214	3.0909	0.	-2037.3
11156	1.0714	3.0909	5.e-002	-3.1726e-007
11157	1.0714	2.8182	0.	-1985.
11158	0.98214	2.9091	0.	-2037.3
11159	1.0714	2.9091	5.e-002	1.246e-006
11160	1.0714	2.6364	0.	-1969.
11161	0.98214	2.7273	0.	-2027.6
11162	1.0714	2.7273	5.e-002	5.8727e-006
11163	1.0714	2.4545	0.	-1941.9
11164	0.98214	2.5455	0.	-2007.7
11165	1.0714	2.5455	5.e-002	1.3793e-006
11166	1.0714	2.2727	0.	-1902.7
11167	0.98214	2.3636	0.	-1977.1
11168	1.0714	2.3636	5.e-002	3.0443e-005
11169	1.0714	2.0909	0.	-1850.2
11170	0.98214	2.1818	0.	-1934.7
11171	1.0714	2.1818	5.e-002	5.0628e-005
11172	1.0714	1.9091	0.	-1782.6
11173	0.98214	2.	0.	-1878.8
11174	1.0714	2.	5.e-002	7.4543e-005
11175	1.0714	1.7273	0.	-1697.4
11176	0.98214	1.8182	0.	-1807.2
11177	1.0714	1.8182	5.e-002	1.0503e-004
11178	1.0714	1.5455	0.	-1591.5
11179	0.98214	1.6364	0.	-1716.9
11180	1.0714	1.6364	5.e-002	1.652e-004
11181	1.0714	1.3636	0.	-1461.3
11182	0.98214	1.4545	0.	-1604.1
11183	1.0714	1.4545	5.e-002	2.0189e-004
11184	1.0714	1.1818	0.	-1303.1
11185	0.98214	1.2727	0.	-1463.9
11186	1.0714	1.2727	5.e-002	2.4258e-004
11187	1.0714	1.	0.	-1114.1
11188	0.98214	1.0909	0.	-1291.4
11189	1.0714	1.0909	5.e-002	2.3917e-004
11190	1.0714	0.81818	0.	-894.26
11191	0.98214	0.90909	0.	-1082.7
11192	1.0714	0.90909	5.e-002	3.0565e-004
11193	1.0714	0.63636	0.	-648.62
11194	0.98214	0.72727	0.	-837.4
11195	1.0714	0.72727	5.e-002	4.3581e-004
11196	1.0714	0.45455	0.	-388.3
11197	0.98214	0.54545	0.	-562.81
11198	1.0714	0.54545	5.e-002	4.2682e-004
11199	1.0714	0.27273	0.	-122.04
11200	0.98214	0.36364	0.	-275.12
11201	1.0714	0.36364	5.e-002	4.7807e-004
11202	0.98214	0.18182	0.	-16.606
11203	1.0714	0.18182	5.e-002	2.5127e-004
11204	1.0714	9.0909e-002	0.	0.10221
11205	0.89286	5.7273	0.	-133.36
11206	0.80357	5.8182	0.	-18.116
11207	0.89286	5.8182	5.e-002	-1.6926e-004
11208	0.89286	5.9091	0.	1.0552
11209	0.89286	5.5455	0.	-448.94
11210	0.80357	5.6364	0.	-324.04
11211	0.89286	5.6364	5.e-002	-2.1729e-004
11212	0.89286	5.3636	0.	-751.71
11213	0.80357	5.4545	0.	-668.51
11214	0.89286	5.4545	5.e-002	-3.0029e-004
11215	0.89286	5.1818	0.	-1026.4
11216	0.80357	5.2727	0.	-981.92
11217	0.89286	5.2727	5.e-002	-2.4616e-004
11218	0.89286	5.	0.	-1260.8
11219	0.80357	5.0909	0.	-1245.8
11220	0.89286	5.0909	5.e-002	-2.3663e-004
11221	0.89286	4.8182	0.	-1453.
11222	0.80357	4.9091	0.	-1458.
11223	0.89286	4.9091	5.e-002	-1.171e-004
11224	0.89286	4.6364	0.	-1607.3
11225	0.80357	4.7273	0.	-1625.2
11226	0.89286	4.7273	5.e-002	-1.2027e-004
11227	0.89286	4.4545	0.	-1730.
11228	0.80357	4.5455	0.	-1756.
11229	0.89286	4.5455	5.e-002	-1.0072e-004
11230	0.89286	4.2727	0.	-1827.1
11231	0.80357	4.3636	0.	-1858.3
11232	0.89286	4.3636	5.e-002	-6.5634e-005
11233	0.89286	4.0909	0.	-1903.6
11234	0.80357	4.1818	0.	-1938.3
11235	0.89286	4.1818	5.e-002	-3.8756e-005
11236	0.89286	3.9091	0.	-1963.4
11237	0.80357	4.	0.	-2000.7
11238	0.89286	4.	5.e-002	-2.5781e-005
11239	0.89286	3.7273	0.	-2009.2
11240	0.80357	3.8182	0.	-2048.9
11241	0.89286	3.8182	5.e-002	-4.4305e-006
11242	0.89286	3.5455	0.	-2043.1
11243	0.80357	3.6364	0.	-2085.1
11244	0.89286	3.6364	5.e-002	-4.328e-006
11245	0.89286	3.3636	0.	-2066.4
11246	0.80357	3.4545	0.	-2111.
11247	0.89286	3.4545	5.e-002	-8.2208e-007
11248	0.89286	3.1818	0.	-2080.1
11249	0.80357	3.2727	0.	-2127.8
11250	0.89286	3.2727	5.e-002	5.8953e-005
11251	0.89286	3.	0.	-2084.6
11252	0.80357	3.0909	0.	-2136.
11253	0.89286	3.0909	5.e-002	-6.3048e-007
11254	0.89286	2.8182	0.	-2080.1
11255	0.80357	2.9091	0.	-2136.
11256	0.89286	2.9091	5.e-002	7.9393e-007
11257	0.89286	2.6364	0.	-2066.4
11258	0.80357	2.7273	0.	-2127.8
11259	0.89286	2.7273	5.e-002	3.4977e-005
11260	0.89286	2.4545	0.	-2043.1
11261	0.80357	2.5455	0.	-2111.
11262	0.89286	2.5455	5.e-002	4.253e-005
11263	0.89286	2.2727	0.	-2009.2
11264	0.80357	2.3636	0.	-2085.1
11265	0.89286	2.3636	5.e-002	3.9841e-005
11266	0.89286	2.0909	0.	-1963.4
11267	0.80357	2.1818	0.	-2048.9
11268	0.89286	2.1818	5.e-002	4.0414e-005
11269	0.89286	1.9091	0.	-1903.6
11270	0.80357	2.	0.	-2000.7
11271	0.89286	2.	5.e-002	6.2311e-005
11272	0.89286	1.7273	0.	-1827.1
11273	0.80357	1.8182	0.	-1938.3
11274	0.89286	1.8182	5.e-002	9.8892e-005
11275	0.89286	1.5455	0.	-1730.
11276	0.80357	1.6364	0.	-1858.3
11277	0.89286	1.6364	5.e-002	1.3589e-004
11278	0.89286	1.3636	0.	-1607.3
11279	0.80357	1.4545	0.	-1756.
11280	0.89286	1.4545	5.e-002	2.0167e-004
11281	0.89286	1.1818	0.	-1453.
11282	0.80357	1.2727	0.	-1625.2
11283	0.89286	1.2727	5.e-002	2.7073e-004
11284	0.89286	1.	0.	-1260.8
11285	0.80357	1.0909	0.	-1458.
11286	0.89286	1.0909	5.e-002	2.275e-004
11287	0.89286	0.81818	0.	-1026.4
11288	0.80357	0.90909	0.	-1245.8
11289	0.89286	0.90909	5.e-002	3.6609e-004
11290	0.89286	0.63636	0.	-751.71
11291	0.80357	0.72727	0.	-981.92
11292	0.89286	0.72727	5.e-002	4.944e-004
11293	0.89286	0.45455	0.	-448.94
11294	0.80357	0.54545	0.	-668.51
11295	0.89286	0.54545	5.e-002	4.1489e-004
11296	0.89286	0.27273	0.	-133.36
11297	0.80357	0.36364	0.	-324.04
11298	0.89286	0.36364	5.e-002	4.4145e-004
11299	0.80357	0.18182	0.	-18.116
11300	0.89286	0.18182	5.e-002	3.6724e-004
11301	0.89286	9.0909e-002	0.	1.0552
11302	0.71429	5.7273	0.	-157.17
11303	0.625	5.8182	0.	-12.271
11304	0.71429	5.8182	5.e-002	-3.344e-004
11305	0.71429	5.9091	0.	-1.7098
11306	0.71429	5.5455	0.	-543.09
11307	0.625	5.6364	0.	-396.03
11308	0.71429	5.6364	5.e-002	-2.6218e-004
11309	0.71429	5.3636	0.	-899.42
11310	0.625	5.4545	0.	-812.35
11311	0.71429	5.4545	5.e-002	-2.9475e-004
11312	0.71429	5.1818	0.	-1202.4
11313	0.625	5.2727	0.	-1161.
11314	0.71429	5.2727	5.e-002	-2.487e-004
11315	0.71429	5.	0.	-1444.
11316	0.625	5.0909	0.	-1430.9
11317	0.71429	5.0909	5.e-002	-2.3235e-004
11318	0.71429	4.8182	0.	-1631.
11319	0.625	4.9091	0.	-1633.8
11320	0.71429	4.9091	5.e-002	-1.4899e-004
11321	0.71429	4.6364	0.	-1774.3
11322	0.625	4.7273	0.	-1785.8
11323	0.71429	4.7273	5.e-002	-1.2029e-004
11324	0.71429	4.4545	0.	-1884.6
11325	0.625	4.5455	0.	-1900.7
11326	0.71429	4.5455	5.e-002	-4.5631e-005
11327	0.71429	4.2727	0.	-1969.7
11328	0.625	4.3636	0.	-1988.4
11329	0.71429	4.3636	5.e-002	-5.3954e-005
11330	0.71429	4.0909	0.	-2035.5
11331	0.625	4.1818	0.	-2055.9
11332	0.71429	4.1818	5.e-002	-8.4632e-006
11333	0.71429	3.9091	0.	-2086.3
11334	0.625	4.	0.	-2107.9
11335	0.71429	4.	5.e-002	-2.0287e-005
11336	0.71429	3.7273	0.	-2124.8
11337	0.625	3.8182	0.	-2147.6
11338	0.71429	3.8182	5.e-002	-1.7239e-005
11339	0.71429	3.5455	0.	-2153.1
11340	0.625	3.6364	0.	-2177.3
11341	0.71429	3.6364	5.e-002	-2.9628e-006
11342	0.71429	3.3636	0.	-2172.5
11343	0.625	3.4545	0.	-2198.4
11344	0.71429	3.4545	5.e-002	-1.8408e-006
11345	0.71429	3.1818	0.	-2183.8
11346	0.625	3.2727	0.	-2212.
11347	0.71429	3.2727	5.e-002	-6.8292e-007
11348	0.71429	3.	0.	-2187.5
11349	0.625	3.0909	0.	-2218.7
11350	0.71429	3.0909	5.e-002	-4.7068e-007
11351	0.71429	2.8182	0.	-2183.8
11352	0.625	2.9091	0.	-2218.7
11353	0.71429	2.9091	5.e-002	6.408e-007
11354	0.71429	2.6364	0.	-2172.5
11355	0.625	2.7273	0.	-2212.
11356	0.71429	2.7273	5.e-002	6.3314e-005
11357	0.71429	2.4545	0.	-2153.1
11358	0.625	2.5455	0.	-2198.4
11359	0.71429	2.5455	5.e-002	3.9918e-005
11360	0.71429	2.2727	0.	-2124.8
11361	0.625	2.3636	0.	-2177.3
11362	0.71429	2.3636	5.e-002	4.5394e-005
11363	0.71429	2.0909	0.	-2086.3
11364	0.625	2.1818	0.	-2147.6
11365	0.71429	2.1818	5.e-002	5.9429e-005
11366	0.71429	1.9091	0.	-2035.5
11367	0.625	2.	0.	-2107.9
11368	0.71429	2.	5.e-002	4.5311e-005
11369	0.71429	1.7273	0.	-1969.7
11370	0.625	1.8182	0.	-2055.9
11371	0.71429	1.8182	5.e-002	8.2288e-005
11372	0.71429	1.5455	0.	-1884.6
11373	0.625	1.6364	0.	-1988.4
11374	0.71429	1.6364	5.e-002	1.5027e-004
11375	0.71429	1.3636	0.	-1774.3
11376	0.625	1.4545	0.	-1900.7
11377	0.71429	1.4545	5.e-002	1.6892e-004
11378	0.71429	1.1818	0.	-1631.
11379	0.625	1.2727	0.	-1785.8
11380	0.71429	1.2727	5.e-002	2.5202e-004
11381	0.71429	1.	0.	-1444.
11382	0.625	1.0909	0.	-1633.8
11383	0.71429	1.0909	5.e-002	3.174e-004
11384	0.71429	0.81818	0.	-1202.4
11385	0.625	0.90909	0.	-1430.9
11386	0.71429	0.90909	5.e-002	3.604e-004
11387	0.71429	0.63636	0.	-899.42
11388	0.625	0.72727	0.	-1161.
11389	0.71429	0.72727	5.e-002	4.9654e-004
11390	0.71429	0.45455	0.	-543.09
11391	0.625	0.54545	0.	-812.35
11392	0.71429	0.54545	5.e-002	4.6958e-004
11393	0.71429	0.27273	0.	-157.17
11394	0.625	0.36364	0.	-396.03
11395	0.71429	0.36364	5.e-002	4.055e-004
11396	0.625	0.18182	0.	-12.271
11397	0.71429	0.18182	5.e-002	4.5446e-004
11398	0.71429	9.0909e-002	0.	-1.7098
11399	0.53571	5.7273	0.	-187.01
11400	0.44643	5.8182	0.	-46.28
11401	0.53571	5.8182	5.e-002	-4.1621e-004
11402	0.53571	5.9091	0.	9.2959
11403	0.53571	5.5455	0.	-665.81
11404	0.44643	5.6364	0.	-566.94
11405	0.53571	5.6364	5.e-002	-3.1016e-004
11406	0.53571	5.3636	0.	-1075.8
11407	0.44643	5.4545	0.	-1074.7
11408	0.53571	5.4545	5.e-002	-3.5754e-004
11409	0.53571	5.1818	0.	-1391.1
11410	0.44643	5.2727	0.	-1440.6
11411	0.53571	5.2727	5.e-002	-2.4653e-004
11412	0.53571	5.	0.	-1621.5
11413	0.44643	5.0909	0.	-1695.5
11414	0.53571	5.0909	5.e-002	-2.1784e-004
11415	0.53571	4.8182	0.	-1788.9
11416	0.44643	4.9091	0.	-1874.6
11417	0.53571	4.9091	5.e-002	-1.631e-004
11418	0.53571	4.6364	0.	-1912.2
11419	0.44643	4.7273	0.	-2003.7
11420	0.53571	4.7273	5.e-002	-6.2761e-005
11421	0.53571	4.4545	0.	-2004.5
11422	0.44643	4.5455	0.	-2099.2
11423	0.53571	4.5455	5.e-002	-8.5041e-005
11424	0.53571	4.2727	0.	-2074.6
11425	0.44643	4.3636	0.	-2171.
11426	0.53571	4.3636	5.e-002	-3.26e-005
11427	0.53571	4.0909	0.	-2128.2
11428	0.44643	4.1818	0.	-2225.8
11429	0.53571	4.1818	5.e-002	-7.5015e-006
11430	0.53571	3.9091	0.	-2169.2
11431	0.44643	4.	0.	-2267.7
11432	0.53571	4.	5.e-002	-9.018e-006
11433	0.53571	3.7273	0.	-2200.
11434	0.44643	3.8182	0.	-2299.4
11435	0.53571	3.8182	5.e-002	-2.4895e-006
11436	0.53571	3.5455	0.	-2222.6
11437	0.44643	3.6364	0.	-2323.1
11438	0.53571	3.6364	5.e-002	-1.2702e-006
11439	0.53571	3.3636	0.	-2238.
11440	0.44643	3.4545	0.	-2339.8
11441	0.53571	3.4545	5.e-002	-8.964e-007
11442	0.53571	3.1818	0.	-2247.
11443	0.44643	3.2727	0.	-2350.5
11444	0.53571	3.2727	5.e-002	-5.6695e-007
11445	0.53571	3.	0.	-2249.9
11446	0.44643	3.0909	0.	-2355.8
11447	0.53571	3.0909	5.e-002	3.0268e-005
11448	0.53571	2.8182	0.	-2247.
11449	0.44643	2.9091	0.	-2355.8
11450	0.53571	2.9091	5.e-002	3.0905e-005
11451	0.53571	2.6364	0.	-2238.
11452	0.44643	2.7273	0.	-2350.5
11453	0.53571	2.7273	5.e-002	2.4675e-006
11454	0.53571	2.4545	0.	-2222.6
11455	0.44643	2.5455	0.	-2339.8
11456	0.53571	2.5455	5.e-002	3.5273e-005
11457	0.53571	2.2727	0.	-2200.
11458	0.44643	2.3636	0.	-2323.1
11459	0.53571	2.3636	5.e-002	1.1892e-005
11460	0.53571	2.0909	0.	-2169.2
11461	0.44643	2.1818	0.	-2299.4
11462	0.53571	2.1818	5.e-002	1.9907e-005
11463	0.53571	1.9091	0.	-2128.2
11464	0.44643	2.	0.	-2267.7
11465	0.53571	2.	5.e-002	2.5278e-005
11466	0.53571	1.7273	0.	-2074.6
11467	0.44643	1.8182	0.	-2225.8
11468	0.53571	1.8182	5.e-002	5.3637e-005
11469	0.53571	1.5455	0.	-2004.5
11470	0.44643	1.6364	0.	-2171.
11471	0.53571	1.6364	5.e-002	1.5197e-004
11472	0.53571	1.3636	0.	-1912.2
11473	0.44643	1.4545	0.	-2099.2
11474	0.53571	1.4545	5.e-002	1.7245e-004
11475	0.53571	1.1818	0.	-1788.9
11476	0.44643	1.2727	0.	-2003.7
11477	0.53571	1.2727	5.e-002	1.959e-004
11478	0.53571	1.	0.	-1621.5
11479	0.44643	1.0909	0.	-1874.6
11480	0.53571	1.0909	5.e-002	3.2119e-004
11481	0.53571	0.81818	0.	-1391.1
11482	0.44643	0.90909	0.	-1695.5
11483	0.53571	0.90909	5.e-002	3.4472e-004
11484	0.53571	0.63636	0.	-1075.8
11485	0.44643	0.72727	0.	-1440.6
11486	0.53571	0.72727	5.e-002	4.3543e-004
11487	0.53571	0.45455	0.	-665.81
11488	0.44643	0.54545	0.	-1074.7
11489	0.53571	0.54545	5.e-002	4.7045e-004
11490	0.53571	0.27273	0.	-187.01
11491	0.44643	0.36364	0.	-566.94
11492	0.53571	0.36364	5.e-002	4.2052e-004
11493	0.44643	0.18182	0.	-46.28
11494	0.53571	0.18182	5.e-002	4.7664e-004
11495	0.53571	9.0909e-002	0.	9.2959
11496	0.35714	5.7273	0.	-334.15
11497	0.26786	5.8182	0.	-22.297
11498	0.35714	5.8182	5.e-002	-3.4641e-004
11499	0.35714	5.9091	0.	-26.573
11500	0.35714	5.5455	0.	-979.02
11501	0.26786	5.6364	0.	-779.05
11502	0.35714	5.6364	5.e-002	-2.6961e-004
11503	0.35714	5.3636	0.	-1442.4
11504	0.26786	5.4545	0.	-1277.2
11505	0.35714	5.4545	5.e-002	-2.4734e-004
11506	0.35714	5.1818	0.	-1745.9
11507	0.26786	5.2727	0.	-1581.8
11508	0.35714	5.2727	5.e-002	-2.2858e-004
11509	0.35714	5.	0.	-1948.4
11510	0.26786	5.0909	0.	-1777.5
11511	0.35714	5.0909	5.e-002	-1.8121e-004
11512	0.35714	4.8182	0.	-2088.9
11513	0.26786	4.9091	0.	-1911.1
11514	0.35714	4.9091	5.e-002	-1.6204e-004
11515	0.35714	4.6364	0.	-2190.2
11516	0.26786	4.7273	0.	-2006.6
11517	0.35714	4.7273	5.e-002	-1.2775e-004
11518	0.35714	4.4545	0.	-2265.3
11519	0.26786	4.5455	0.	-2077.2
11520	0.35714	4.5455	5.e-002	-5.4343e-005
11521	0.35714	4.2727	0.	-2322.
11522	0.26786	4.3636	0.	-2130.3
11523	0.35714	4.3636	5.e-002	-7.2614e-005
11524	0.35714	4.0909	0.	-2365.1
11525	0.26786	4.1818	0.	-2170.7
11526	0.35714	4.1818	5.e-002	-6.9496e-006
11527	0.35714	3.9091	0.	-2397.8
11528	0.26786	4.	0.	-2201.5
11529	0.35714	4.	5.e-002	-3.6433e-005
11530	0.35714	3.7273	0.	-2422.4
11531	0.26786	3.8182	0.	-2224.8
11532	0.35714	3.8182	5.e-002	-3.1892e-007
11533	0.35714	3.5455	0.	-2440.2
11534	0.26786	3.6364	0.	-2242.
11535	0.35714	3.6364	5.e-002	-6.4761e-015
11536	0.35714	3.3636	0.	-2452.3
11537	0.26786	3.4545	0.	-2254.1
11538	0.35714	3.4545	5.e-002	-6.3434e-015
11539	0.35714	3.1818	0.	-2459.4
11540	0.26786	3.2727	0.	-2261.9
11541	0.35714	3.2727	5.e-002	-6.2544e-015
11542	0.35714	3.	0.	-2461.7
11543	0.26786	3.0909	0.	-2265.7
11544	0.35714	3.0909	5.e-002	-3.3286e-008
11545	0.35714	2.8182	0.	-2459.4
11546	0.26786	2.9091	0.	-2265.7
11547	0.35714	2.9091	5.e-002	1.6235e-007
11548	0.35714	2.6364	0.	-2452.3
11549	0.26786	2.7273	0.	-2261.9
11550	0.35714	2.7273	5.e-002	3.1107e-005
11551	0.35714	2.4545	0.	-2440.2
11552	0.26786	2.5455	0.	-2254.1
11553	0.35714	2.5455	5.e-002	6.4332e-005
11554	0.35714	2.2727	0.	-2422.4
11555	0.26786	2.3636	0.	-2242.
11556	0.35714	2.3636	5.e-002	3.4872e-005
11557	0.35714	2.0909	0.	-2397.8
11558	0.26786	2.1818	0.	-2224.8
11559	0.35714	2.1818	5.e-002	6.9171e-005
11560	0.35714	1.9091	0.	-2365.1
11561	0.26786	2.	0.	-2201.5
11562	0.35714	2.	5.e-002	4.8583e-005
11563	0.35714	1.7273	0.	-2322.
11564	0.26786	1.8182	0.	-2170.7
11565	0.35714	1.8182	5.e-002	9.0328e-005
11566	0.35714	1.5455	0.	-2265.3
11567	0.26786	1.6364	0.	-2130.3
11568	0.35714	1.6364	5.e-002	1.3129e-004
11569	0.35714	1.3636	0.	-2190.2
11570	0.26786	1.4545	0.	-2077.2
11571	0.35714	1.4545	5.e-002	1.2291e-004
11572	0.35714	1.1818	0.	-2088.9
11573	0.26786	1.2727	0.	-2006.6
11574	0.35714	1.2727	5.e-002	1.9568e-004
11575	0.35714	1.	0.	-1948.4
11576	0.26786	1.0909	0.	-1911.1
11577	0.35714	1.0909	5.e-002	2.2837e-004
11578	0.35714	0.81818	0.	-1745.9
11579	0.26786	0.90909	0.	-1777.5
11580	0.35714	0.90909	5.e-002	3.4003e-004
11581	0.35714	0.63636	0.	-1442.4
11582	0.26786	0.72727	0.	-1581.8
11583	0.35714	0.72727	5.e-002	4.2193e-004
11584	0.35714	0.45455	0.	-979.02
11585	0.26786	0.54545	0.	-1277.2
11586	0.35714	0.54545	5.e-002	4.9751e-004
11587	0.35714	0.27273	0.	-334.15
11588	0.26786	0.36364	0.	-779.05
11589	0.35714	0.36364	5.e-002	4.1017e-004
11590	0.26786	0.18182	0.	-22.297
11591	0.35714	0.18182	5.e-002	5.4083e-004
11592	0.35714	9.0909e-002	0.	-26.573
11593	0.17857	5.7273	0.	-445.9
11594	0.17857	5.8182	5.e-002	-2.357e-004
11595	0.17857	5.9091	0.	91.356
11596	8.9286e-002	5.8182	0.	-606.69
11597	0.17857	5.5455	0.	-1076.4
11598	0.17857	5.6364	5.e-002	-3.5913e-004
11599	8.9286e-002	5.6364	0.	-1600.7
11600	0.17857	5.3636	0.	-1409.5
11601	0.17857	5.4545	5.e-002	-4.03e-004
11602	8.9286e-002	5.4545	0.	-2070.5
11603	0.17857	5.1818	0.	-1607.2
11604	0.17857	5.2727	5.e-002	-2.0979e-004
11605	8.9286e-002	5.2727	0.	-2343.4
11606	0.17857	5.	0.	-1736.
11607	0.17857	5.0909	5.e-002	-1.6411e-004
11608	8.9286e-002	5.0909	0.	-2520.6
11609	0.17857	4.8182	0.	-1826.2
11610	0.17857	4.9091	5.e-002	-1.2958e-004
11611	8.9286e-002	4.9091	0.	-2644.5
11612	0.17857	4.6364	0.	-1892.
11613	0.17857	4.7273	5.e-002	-1.1076e-004
11614	8.9286e-002	4.7273	0.	-2734.3
11615	0.17857	4.4545	0.	-1941.2
11616	0.17857	4.5455	5.e-002	-8.1279e-005
11617	8.9286e-002	4.5455	0.	-2801.1
11618	0.17857	4.2727	0.	-1978.4
11619	0.17857	4.3636	5.e-002	-6.2876e-005
11620	8.9286e-002	4.3636	0.	-2851.3
11621	0.17857	4.0909	0.	-2006.8
11622	0.17857	4.1818	5.e-002	-2.2973e-005
11623	8.9286e-002	4.1818	0.	-2889.2
11624	0.17857	3.9091	0.	-2028.3
11625	0.17857	4.	5.e-002	-1.5755e-005
11626	8.9286e-002	4.	0.	-2917.7
11627	0.17857	3.7273	0.	-2044.3
11628	0.17857	3.8182	5.e-002	-4.2211e-005
11629	8.9286e-002	3.8182	0.	-2939.
11630	0.17857	3.5455	0.	-2055.9
11631	0.17857	3.6364	5.e-002	5.3211e-007
11632	8.9286e-002	3.6364	0.	-2954.5
11633	0.17857	3.3636	0.	-2063.7
11634	0.17857	3.4545	5.e-002	1.2619e-006
11635	8.9286e-002	3.4545	0.	-2965.3
11636	0.17857	3.1818	0.	-2068.2
11637	0.17857	3.2727	5.e-002	8.8146e-007
11638	8.9286e-002	3.2727	0.	-2972.1
11639	0.17857	3.	0.	-2069.7
11640	0.17857	3.0909	5.e-002	3.07e-005
11641	8.9286e-002	3.0909	0.	-2975.4
11642	0.17857	2.8182	0.	-2068.2
11643	0.17857	2.9091	5.e-002	-4.312e-008
11644	8.9286e-002	2.9091	0.	-2975.4
11645	0.17857	2.6364	0.	-2063.7
11646	0.17857	2.7273	5.e-002	1.5684e-005
11647	8.9286e-002	2.7273	0.	-2972.1
11648	0.17857	2.4545	0.	-2055.9
11649	0.17857	2.5455	5.e-002	4.727e-005
11650	8.9286e-002	2.5455	0.	-2965.3
11651	0.17857	2.2727	0.	-2044.3
11652	0.17857	2.3636	5.e-002	2.1965e-005
11653	8.9286e-002	2.3636	0.	-2954.5
11654	0.17857	2.0909	0.	-2028.3
11655	0.17857	2.1818	5.e-002	4.0269e-005
11656	8.9286e-002	2.1818	0.	-2939.
11657	0.17857	1.9091	0.	-2006.8
11658	0.17857	2.	5.e-002	7.5787e-005
11659	8.9286e-002	2.	0.	-2917.7
11660	0.17857	1.7273	0.	-1978.4
11661	0.17857	1.8182	5.e-002	8.874e-005
11662	8.9286e-002	1.8182	0.	-2889.2
11663	0.17857	1.5455	0.	-1941.2
11664	0.17857	1.6364	5.e-002	1.3577e-004
11665	8.9286e-002	1.6364	0.	-2851.3
11666	0.17857	1.3636	0.	-1892.
11667	0.17857	1.4545	5.e-002	1.2955e-004
11668	8.9286e-002	1.4545	0.	-2801.1
11669	0.17857	1.1818	0.	-1826.2
11670	0.17857	1.2727	5.e-002	1.6643e-004
11671	8.9286e-002	1.2727	0.	-2734.3
11672	0.17857	1.	0.	-1736.
11673	0.17857	1.0909	5.e-002	2.4981e-004
11674	8.9286e-002	1.0909	0.	-2644.5
11675	0.17857	0.81818	0.	-1607.2
11676	0.17857	0.90909	5.e-002	3.046e-004
11677	8.9286e-002	0.90909	0.	-2520.6
11678	0.17857	0.63636	0.	-1409.5
11679	0.17857	0.72727	5.e-002	4.233e-004
11680	8.9286e-002	0.72727	0.	-2343.4
11681	0.17857	0.45455	0.	-1076.4
11682	0.17857	0.54545	5.e-002	3.9353e-004
11683	8.9286e-002	0.54545	0.	-2070.5
11684	0.17857	0.27273	0.	-445.9
11685	0.17857	0.36364	5.e-002	5.9557e-004
11686	8.9286e-002	0.36364	0.	-1600.7
11687	0.17857	0.18182	5.e-002	4.3282e-004
11688	0.17857	9.0909e-002	0.	91.356
11689	8.9286e-002	0.18182	0.	-606.69
11690	5.4436	5.8182	0.	-18.808
11691	5.3513	5.7273	0.	-18.587
11692	5.3513	5.8182	5.e-002	-1.47e-014
11693	5.3513	5.9091	0.	-15.979
11694	5.259	5.8182	0.	0.17834
11695	5.6283	5.8182	0.	-5.7154
11696	5.5359	5.7273	0.	-7.1089
11697	5.5359	5.8182	5.e-002	4.4819e-006
11698	5.5359	5.9091	0.	-0.93969
11699	5.8129	5.8182	0.	-2.2623
11700	5.7206	5.7273	0.	-4.0316
11701	5.7206	5.8182	5.e-002	-2.1152e-006
11702	5.7206	5.9091	0.	-0.59431
11703	5.9975	5.8182	0.	-0.53491
11704	5.9052	5.7273	0.	-1.4597
11705	5.9052	5.8182	5.e-002	-3.2709e-006
11706	5.9052	5.9091	0.	0.10749
11707	6.1822	5.8182	0.	2.1572e-002
11708	6.0899	5.7273	0.	-0.6274
11709	6.0899	5.8182	5.e-002	-2.7304e-006
11710	6.0899	5.9091	0.	5.7989e-002
11711	6.3668	5.8182	0.	0.20447
11712	6.2745	5.7273	0.	-0.251
11713	6.2745	5.8182	5.e-002	-5.3908e-007
11714	6.2745	5.9091	0.	5.601e-002
11715	6.5515	5.8182	0.	0.21711
11716	6.4592	5.7273	0.	-0.12244
11717	6.4592	5.8182	5.e-002	8.9885e-007
11718	6.4592	5.9091	0.	2.5299e-002
11719	6.7361	5.8182	0.	0.17868
11720	6.6438	5.7273	0.	-7.4704e-002
11721	6.6438	5.8182	5.e-002	4.3491e-006
11722	6.6438	5.9091	0.	1.1458e-002
11723	6.9208	5.8182	0.	0.13107
11724	6.8284	5.7273	0.	-5.9071e-002
11725	6.8284	5.8182	5.e-002	5.4768e-006
11726	6.8284	5.9091	0.	6.1622e-003
11727	7.1054	5.8182	0.	9.097e-002
11728	7.0131	5.7273	0.	-5.2081e-002
11729	7.0131	5.8182	5.e-002	4.5056e-006
11730	7.0131	5.9091	0.	8.6455e-003
11731	7.29	5.8182	0.	6.172e-002
11732	7.1977	5.7273	0.	-4.6794e-002
11733	7.1977	5.8182	5.e-002	3.636e-006
11734	7.1977	5.9091	0.	1.554e-002
11735	7.4747	5.8182	0.	4.2006e-002
11736	7.3824	5.7273	0.	-4.1366e-002
11737	7.3824	5.8182	5.e-002	3.659e-006
11738	7.3824	5.9091	0.	2.4757e-002
11739	7.6593	5.8182	0.	2.8978e-002
11740	7.567	5.7273	0.	-3.6226e-002
11741	7.567	5.8182	5.e-002	2.8565e-006
11742	7.567	5.9091	0.	3.4691e-002
11743	7.844	5.8182	0.	1.968e-002
11744	7.7516	5.7273	0.	-3.2495e-002
11745	7.7516	5.8182	5.e-002	2.8997e-006
11746	7.7516	5.9091	0.	4.4285e-002
11747	8.0286	5.8182	0.	1.1371e-002
11748	7.9363	5.7273	0.	-3.1769e-002
11749	7.9363	5.8182	5.e-002	2.2402e-006
11750	7.9363	5.9091	0.	5.279e-002
11751	8.2132	5.8182	0.	1.3793e-003
11752	8.1209	5.7273	0.	-3.675e-002
11753	8.1209	5.8182	5.e-002	1.9698e-006
11754	8.1209	5.9091	0.	5.9558e-002
11755	8.3979	5.8182	0.	-1.3421e-002
11756	8.3056	5.7273	0.	-5.4026e-002
11757	8.3056	5.8182	5.e-002	-1.5201e-006
11758	8.3056	5.9091	0.	6.3863e-002
11759	8.5825	5.8182	0.	-3.7603e-002
11760	8.4902	5.7273	0.	-0.10965
11761	8.4902	5.8182	5.e-002	-4.8138e-005
11762	8.4902	5.9091	0.	6.4629e-002
11763	8.7672	5.8182	0.	-7.8625e-002
11764	8.6748	5.7273	0.	-0.41672
11765	8.6748	5.8182	5.e-002	-1.8262e-004
11766	8.6748	5.9091	0.	6.013e-002
11767	8.9518	5.8182	0.	-0.14663
11768	8.8595	5.7273	0.	-1.5976
11769	8.8595	5.8182	5.e-002	-6.9093e-005
11770	8.8595	5.9091	0.	4.8073e-002
11771	9.1364	5.8182	0.	-0.24239
11772	9.0441	5.7273	0.	-2.7045
11773	9.0441	5.8182	5.e-002	-6.7221e-005
11774	9.0441	5.9091	0.	2.712e-002
11775	9.3211	5.8182	0.	-0.33156
11776	9.2288	5.7273	0.	-3.4097
11777	9.2288	5.8182	5.e-002	-5.1863e-005
11778	9.2288	5.9091	0.	5.1244e-004
11779	9.5057	5.8182	0.	-0.36443
11780	9.4134	5.7273	0.	-3.7551
11781	9.4134	5.8182	5.e-002	-3.1959e-005
11782	9.4134	5.9091	0.	-2.3184e-002
11783	9.6904	5.8182	0.	-0.33101
11784	9.598	5.7273	0.	-3.8044
11785	9.598	5.8182	5.e-002	-2.8232e-005
11786	9.598	5.9091	0.	-3.6978e-002
11787	9.875	5.8182	0.	-0.26143
11788	9.7827	5.7273	0.	-3.6166
11789	9.7827	5.8182	5.e-002	-2.5645e-005
11790	9.7827	5.9091	0.	-4.0572e-002
11791	10.06	5.8182	0.	-0.19108
11792	9.9673	5.7273	0.	-3.2432
11793	9.9673	5.8182	5.e-002	-2.7288e-005
11794	9.9673	5.9091	0.	-3.7717e-002
11795	10.244	5.8182	0.	-0.13667
11796	10.152	5.7273	0.	-2.7284
11797	10.152	5.8182	5.e-002	-2.9517e-005
11798	10.152	5.9091	0.	-3.2132e-002
11799	10.429	5.8182	0.	-9.8772e-002
11800	10.337	5.7273	0.	-2.1103
11801	10.337	5.8182	5.e-002	-2.3099e-005
11802	10.337	5.9091	0.	-2.6072e-002
11803	10.614	5.8182	0.	-7.296e-002
11804	10.521	5.7273	0.	-1.4248
11805	10.521	5.8182	5.e-002	-2.2413e-005
11806	10.521	5.9091	0.	-2.0561e-002
11807	10.798	5.8182	0.	-5.5178e-002
11808	10.706	5.7273	0.	-0.7235
11809	10.706	5.8182	5.e-002	-2.3451e-005
11810	10.706	5.9091	0.	-1.5928e-002
11811	10.983	5.8182	0.	-4.2647e-002
11812	10.891	5.7273	0.	-0.20206
11813	10.891	5.8182	5.e-002	-1.126e-005
11814	10.891	5.9091	0.	-1.2192e-002
11815	11.167	5.8182	0.	-3.3601e-002
11816	11.075	5.7273	0.	-5.9054e-002
11817	11.075	5.8182	5.e-002	-1.1197e-005
11818	11.075	5.9091	0.	-9.2483e-003
11819	11.352	5.8182	0.	-2.692e-002
11820	11.26	5.7273	0.	-2.503e-002
11821	11.26	5.8182	5.e-002	-2.1717e-005
11822	11.26	5.9091	0.	-6.9674e-003
11823	11.537	5.8182	0.	-2.1884e-002
11824	11.444	5.7273	0.	-1.2171e-002
11825	11.444	5.8182	5.e-002	-1.2572e-005
11826	11.444	5.9091	0.	-5.2245e-003
11827	11.721	5.8182	0.	-1.8017e-002
11828	11.629	5.7273	0.	-6.0855e-003
11829	11.629	5.8182	5.e-002	-1.7701e-005
11830	11.629	5.9091	0.	-3.9107e-003
11831	11.906	5.8182	0.	-1.5006e-002
11832	11.814	5.7273	0.	-2.902e-003
11833	11.814	5.8182	5.e-002	-1.2272e-005
11834	11.814	5.9091	0.	-2.9327e-003
11835	12.091	5.8182	0.	-1.2629e-002
11836	11.998	5.7273	0.	-1.2006e-003
11837	11.998	5.8182	5.e-002	-1.1323e-005
11838	11.998	5.9091	0.	-2.2359e-003
11839	12.275	5.8182	0.	-1.0705e-002
11840	12.183	5.7273	0.	-3.0997e-004
11841	12.183	5.8182	5.e-002	-1.6411e-005
11842	12.183	5.9091	0.	-1.7418e-003
11843	12.46	5.8182	0.	-9.1416e-003
11844	12.368	5.7273	0.	1.254e-004
11845	12.368	5.8182	5.e-002	-1.178e-005
11846	12.368	5.9091	0.	-1.3818e-003
11847	12.645	5.8182	0.	-7.8752e-003
11848	12.552	5.7273	0.	2.3154e-004
11849	12.552	5.8182	5.e-002	-4.332e-006
11850	12.552	5.9091	0.	-1.1783e-003
11851	12.829	5.8182	0.	-6.8227e-003
11852	12.737	5.7273	0.	1.4089e-004
11853	12.737	5.8182	5.e-002	-8.7557e-006
11854	12.737	5.9091	0.	-1.0797e-003
11855	13.014	5.8182	0.	-5.9374e-003
11856	12.922	5.7273	0.	-5.4545e-005
11857	12.922	5.8182	5.e-002	-1.2465e-005
11858	12.922	5.9091	0.	-1.044e-003
11859	13.199	5.8182	0.	-5.1907e-003
11860	13.106	5.7273	0.	-3.2986e-004
11861	13.106	5.8182	5.e-002	-1.317e-005
11862	13.106	5.9091	0.	-1.0697e-003
11863	13.383	5.8182	0.	-4.5531e-003
11864	13.291	5.7273	0.	-6.4966e-004
11865	13.291	5.8182	5.e-002	-9.9026e-006
11866	13.291	5.9091	0.	-1.139e-003
11867	13.568	5.8182	0.	-4.0043e-003
11868	13.475	5.7273	0.	-9.9557e-004
11869	13.475	5.8182	5.e-002	-9.2165e-006
11870	13.475	5.9091	0.	-1.2397e-003
11871	13.752	5.8182	0.	-3.529e-003
11872	13.66	5.7273	0.	-1.355e-003
11873	13.66	5.8182	5.e-002	-3.3916e-006
11874	13.66	5.9091	0.	-1.3655e-003
11875	13.937	5.8182	0.	-3.1132e-003
11876	13.845	5.7273	0.	-1.7194e-003
11877	13.845	5.8182	5.e-002	-1.6103e-006
11878	13.845	5.9091	0.	-1.5082e-003
11879	14.122	5.8182	0.	-2.7475e-003
11880	14.029	5.7273	0.	-2.0818e-003
11881	14.029	5.8182	5.e-002	3.3939e-006
11882	14.029	5.9091	0.	-1.6634e-003
11883	14.306	5.8182	0.	-2.4235e-003
11884	14.214	5.7273	0.	-2.4404e-003
11885	14.214	5.8182	5.e-002	3.4333e-006
11886	14.214	5.9091	0.	-1.8272e-003
11887	14.491	5.8182	0.	-2.1337e-003
11888	14.399	5.7273	0.	-2.7916e-003
11889	14.399	5.8182	5.e-002	4.6989e-006
11890	14.399	5.9091	0.	-1.9946e-003
11891	14.676	5.8182	0.	-1.8726e-003
11892	14.583	5.7273	0.	-3.1336e-003
11893	14.583	5.8182	5.e-002	-6.7414e-006
11894	14.583	5.9091	0.	-2.1654e-003
11895	14.86	5.8182	0.	-1.6361e-003
11896	14.768	5.7273	0.	-3.4672e-003
11897	14.768	5.8182	5.e-002	-5.5164e-005
11898	14.768	5.9091	0.	-2.3367e-003
11899	15.045	5.8182	0.	-1.421e-003
11900	14.953	5.7273	0.	-3.7935e-003
11901	14.953	5.8182	5.e-002	-8.2121e-007
11902	14.953	5.9091	0.	-2.5081e-003
11903	15.23	5.8182	0.	-1.2238e-003
11904	15.137	5.7273	0.	-4.1108e-003
11905	15.137	5.8182	5.e-002	-2.8699e-005
11906	15.137	5.9091	0.	-2.6775e-003
11907	15.414	5.8182	0.	-1.0427e-003
11908	15.322	5.7273	0.	-4.4222e-003
11909	15.322	5.8182	5.e-002	-1.3856e-005
11910	15.322	5.9091	0.	-2.8466e-003
11911	15.599	5.8182	0.	-8.7431e-004
11912	15.507	5.7273	0.	-4.7288e-003
11913	15.507	5.8182	5.e-002	-4.1887e-005
11914	15.507	5.9091	0.	-3.014e-003
11915	15.783	5.8182	0.	-7.1735e-004
11916	15.691	5.7273	0.	-5.0308e-003
11917	15.691	5.8182	5.e-002	-5.0748e-006
11918	15.691	5.9091	0.	-3.1788e-003
11919	15.968	5.8182	0.	-5.7074e-004
11920	15.876	5.7273	0.	-5.3292e-003
11921	15.876	5.8182	5.e-002	-3.4676e-006
11922	15.876	5.9091	0.	-3.3421e-003
11923	16.153	5.8182	0.	-4.3281e-004
11924	16.06	5.7273	0.	-5.6286e-003
11925	16.06	5.8182	5.e-002	-1.6143e-005
11926	16.06	5.9091	0.	-3.5032e-003
11927	16.337	5.8182	0.	-3.0388e-004
11928	16.245	5.7273	0.	-5.9285e-003
11929	16.245	5.8182	5.e-002	-2.0486e-006
11930	16.245	5.9091	0.	-3.6647e-003
11931	16.522	5.8182	0.	-1.8041e-004
11932	16.43	5.7273	0.	-6.2333e-003
11933	16.43	5.8182	5.e-002	-1.5235e-005
11934	16.43	5.9091	0.	-3.8247e-003
11935	16.707	5.8182	0.	-6.1761e-005
11936	16.614	5.7273	0.	-6.5368e-003
11937	16.614	5.8182	5.e-002	-2.7479e-006
11938	16.614	5.9091	0.	-3.9815e-003
11939	16.891	5.8182	0.	4.0663e-005
11940	16.799	5.7273	0.	-6.8495e-003
11941	16.799	5.8182	5.e-002	-2.6025e-006
11942	16.799	5.9091	0.	-4.1386e-003
11943	17.076	5.8182	0.	1.357e-004
11944	16.984	5.7273	0.	-7.1908e-003
11945	16.984	5.8182	5.e-002	1.1557e-005
11946	16.984	5.9091	0.	-4.3139e-003
11947	17.261	5.8182	0.	2.3422e-004
11948	17.168	5.7273	0.	-7.5284e-003
11949	17.168	5.8182	5.e-002	2.9864e-005
11950	17.168	5.9091	0.	-4.4761e-003
11951	17.445	5.8182	0.	3.2369e-004
11952	17.353	5.7273	0.	-7.8758e-003
11953	17.353	5.8182	5.e-002	2.9528e-005
11954	17.353	5.9091	0.	-4.6355e-003
11955	17.63	5.8182	0.	4.0246e-004
11956	17.538	5.7273	0.	-8.25e-003
11957	17.538	5.8182	5.e-002	6.7719e-009
11958	17.538	5.9091	0.	-4.8052e-003
11959	17.815	5.8182	0.	4.7301e-004
11960	17.722	5.7273	0.	-8.645e-003
11961	17.722	5.8182	5.e-002	1.5666e-005
11962	17.722	5.9091	0.	-4.9777e-003
11963	17.999	5.8182	0.	5.328e-004
11964	17.907	5.7273	0.	-9.0647e-003
11965	17.907	5.8182	5.e-002	3.104e-005
11966	17.907	5.9091	0.	-5.1539e-003
11967	18.184	5.8182	0.	5.8044e-004
11968	18.092	5.7273	0.	-9.5145e-003
11969	18.092	5.8182	5.e-002	3.1701e-005
11970	18.092	5.9091	0.	-5.3357e-003
11971	18.368	5.8182	0.	6.1572e-004
11972	18.276	5.7273	0.	-9.997e-003
11973	18.276	5.8182	5.e-002	1.3415e-006
11974	18.276	5.9091	0.	-5.5221e-003
11975	18.553	5.8182	0.	6.3415e-004
11976	18.461	5.7273	0.	-1.0517e-002
11977	18.461	5.8182	5.e-002	1.8477e-006
11978	18.461	5.9091	0.	-5.7128e-003
11979	18.738	5.8182	0.	6.317e-004
11980	18.645	5.7273	0.	-1.1083e-002
11981	18.645	5.8182	5.e-002	3.8773e-005
11982	18.645	5.9091	0.	-5.9115e-003
11983	18.922	5.8182	0.	6.07e-004
11984	18.83	5.7273	0.	-1.1697e-002
11985	18.83	5.8182	5.e-002	5.2233e-005
11986	18.83	5.9091	0.	-6.1159e-003
11987	19.107	5.8182	0.	5.5263e-004
11988	19.015	5.7273	0.	-1.2366e-002
11989	19.015	5.8182	5.e-002	5.0009e-005
11990	19.015	5.9091	0.	-6.3241e-003
11991	19.292	5.8182	0.	4.6364e-004
11992	19.199	5.7273	0.	-1.3102e-002
11993	19.199	5.8182	5.e-002	3.4601e-005
11994	19.199	5.9091	0.	-6.541e-003
11995	19.476	5.8182	0.	3.3206e-004
11996	19.384	5.7273	0.	-1.3907e-002
11997	19.384	5.8182	5.e-002	4.1777e-005
11998	19.384	5.9091	0.	-6.7594e-003
11999	19.661	5.8182	0.	1.4989e-004
12000	19.569	5.7273	0.	-1.4797e-002
12001	19.569	5.8182	5.e-002	3.667e-005
12002	19.569	5.9091	0.	-6.9868e-003
12003	19.846	5.8182	0.	-9.0972e-005
12004	19.753	5.7273	0.	-1.5777e-002
12005	19.753	5.8182	5.e-002	4.4505e-005
12006	19.753	5.9091	0.	-7.2108e-003
12007	20.03	5.8182	0.	-4.0715e-004
12008	19.938	5.7273	0.	-1.6863e-002
12009	19.938	5.8182	5.e-002	3.3344e-005
12010	19.938	5.9091	0.	-7.4389e-003
12011	20.215	5.8182	0.	-8.1346e-004
12012	20.123	5.7273	0.	-1.8071e-002
12013	20.123	5.8182	5.e-002	1.8568e-005
12014	20.123	5.9091	0.	-7.662e-003
12015	20.4	5.8182	0.	-1.329e-003
12016	20.307	5.7273	0.	-1.9414e-002
12017	20.307	5.8182	5.e-002	3.2814e-005
12018	20.307	5.9091	0.	-7.8795e-003
12019	20.584	5.8182	0.	-1.9752e-003
12020	20.492	5.7273	0.	-2.0916e-002
12021	20.492	5.8182	5.e-002	2.1382e-005
12022	20.492	5.9091	0.	-8.0829e-003
12023	20.769	5.8182	0.	-2.7804e-003
12024	20.676	5.7273	0.	-2.2594e-002
12025	20.676	5.8182	5.e-002	2.3704e-005
12026	20.676	5.9091	0.	-8.263e-003
12027	20.953	5.8182	0.	-3.7816e-003
12028	20.861	5.7273	0.	-2.4479e-002
12029	20.861	5.8182	5.e-002	2.2826e-005
12030	20.861	5.9091	0.	-8.4124e-003
12031	21.138	5.8182	0.	-5.0214e-003
12032	21.046	5.7273	0.	-2.66e-002
12033	21.046	5.8182	5.e-002	2.8613e-005
12034	21.046	5.9091	0.	-8.5127e-003
12035	21.323	5.8182	0.	-6.5562e-003
12036	21.23	5.7273	0.	-2.8995e-002
12037	21.23	5.8182	5.e-002	2.8148e-005
12038	21.23	5.9091	0.	-8.545e-003
12039	21.507	5.8182	0.	-8.4556e-003
12040	21.415	5.7273	0.	-3.1713e-002
12041	21.415	5.8182	5.e-002	2.4879e-005
12042	21.415	5.9091	0.	-8.4853e-003
12043	21.692	5.8182	0.	-1.0805e-002
12044	21.6	5.7273	0.	-3.4801e-002
12045	21.6	5.8182	5.e-002	2.6995e-005
12046	21.6	5.9091	0.	-8.2904e-003
12047	21.877	5.8182	0.	-1.3723e-002
12048	21.784	5.7273	0.	-3.8321e-002
12049	21.784	5.8182	5.e-002	2.9776e-005
12050	21.784	5.9091	0.	-7.9044e-003
12051	22.061	5.8182	0.	-1.7367e-002
12052	21.969	5.7273	0.	-4.236e-002
12053	21.969	5.8182	5.e-002	2.2615e-005
12054	21.969	5.9091	0.	-7.2568e-003
12055	22.246	5.8182	0.	-2.1938e-002
12056	22.154	5.7273	0.	-4.7007e-002
12057	22.154	5.8182	5.e-002	2.1134e-005
12058	22.154	5.9091	0.	-6.2337e-003
12059	22.431	5.8182	0.	-2.7707e-002
12060	22.338	5.7273	0.	-5.2377e-002
12061	22.338	5.8182	5.e-002	2.0109e-005
12062	22.338	5.9091	0.	-4.664e-003
12063	22.615	5.8182	0.	-3.5102e-002
12064	22.523	5.7273	0.	-5.857e-002
12065	22.523	5.8182	5.e-002	1.7317e-005
12066	22.523	5.9091	0.	-2.2611e-003
12067	22.8	5.8182	0.	-4.4535e-002
12068	22.708	5.7273	0.	-6.5834e-002
12069	22.708	5.8182	5.e-002	1.7028e-005
12070	22.708	5.9091	0.	1.3193e-003
12071	22.984	5.8182	0.	-5.739e-002
12072	22.892	5.7273	0.	-7.3826e-002
12073	22.892	5.8182	5.e-002	1.6291e-005
12074	22.892	5.9091	0.	7.1793e-003
12075	23.169	5.8182	0.	-7.2714e-002
12076	23.077	5.7273	0.	-8.4291e-002
12077	23.077	5.8182	5.e-002	1.1202e-005
12078	23.077	5.9091	0.	1.5328e-002
12079	23.354	5.8182	0.	-0.10048
12080	23.261	5.7273	0.	-8.9932e-002
12081	23.261	5.8182	5.e-002	1.3387e-005
12082	23.261	5.9091	0.	3.4028e-002
12083	23.538	5.8182	0.	-0.11546
12084	23.446	5.7273	0.	-0.11513
12085	23.446	5.8182	5.e-002	1.2418e-005
12086	23.446	5.9091	0.	4.7479e-002
12087	23.723	5.8182	0.	-0.31063
12088	23.631	5.7273	0.	-5.4652e-002
12089	23.631	5.8182	5.e-002	4.0366e-006
12090	23.631	5.9091	0.	0.14236
12091	23.815	5.7273	0.	-0.38613
12092	23.815	5.8182	5.e-002	1.3595e-005
12093	23.908	5.8182	0.	-3.8338e-002
12094	23.815	5.9091	0.	-7.3929e-002
12095	5.4436	5.6364	0.	-10.579
12096	5.3513	5.5455	0.	-10.953
12097	5.3513	5.6364	5.e-002	1.2329e-005
12098	5.259	5.6364	0.	3.5976
12099	5.6283	5.6364	0.	-4.8881
12100	5.5359	5.5455	0.	-3.9404
12101	5.5359	5.6364	5.e-002	-1.7992e-006
12102	5.8129	5.6364	0.	-2.8133
12103	5.7206	5.5455	0.	-3.6923
12104	5.7206	5.6364	5.e-002	-1.3785e-005
12105	5.9975	5.6364	0.	-1.3592
12106	5.9052	5.5455	0.	-1.9245
12107	5.9052	5.6364	5.e-002	-2.0422e-005
12108	6.1822	5.6364	0.	-0.81525
12109	6.0899	5.5455	0.	-1.2169
12110	6.0899	5.6364	5.e-002	-1.7335e-005
12111	6.3668	5.6364	0.	-0.54562
12112	6.2745	5.5455	0.	-0.77858
12113	6.2745	5.6364	5.e-002	-1.6467e-005
12114	6.5515	5.6364	0.	-0.41101
12115	6.4592	5.5455	0.	-0.54971
12116	6.4592	5.6364	5.e-002	-1.071e-005
12117	6.7361	5.6364	0.	-0.32614
12118	6.6438	5.5455	0.	-0.40598
12119	6.6438	5.6364	5.e-002	-8.5359e-006
12120	6.9208	5.6364	0.	-0.2651
12121	6.8284	5.5455	0.	-0.31228
12122	6.8284	5.6364	5.e-002	-3.1816e-006
12123	7.1054	5.6364	0.	-0.21652
12124	7.0131	5.5455	0.	-0.24682
12125	7.0131	5.6364	5.e-002	-4.3907e-006
12126	7.29	5.6364	0.	-0.17675
12127	7.1977	5.5455	0.	-0.20045
12128	7.1977	5.6364	5.e-002	-5.9993e-006
12129	7.4747	5.6364	0.	-0.14458
12130	7.3824	5.5455	0.	-0.16832
12131	7.3824	5.6364	5.e-002	-6.8005e-006
12132	7.6593	5.6364	0.	-0.11995
12133	7.567	5.5455	0.	-0.14866
12134	7.567	5.6364	5.e-002	-1.704e-005
12135	7.844	5.6364	0.	-0.10379
12136	7.7516	5.5455	0.	-0.14253
12137	7.7516	5.6364	5.e-002	-6.3711e-005
12138	8.0286	5.6364	0.	-9.9198e-002
12139	7.9363	5.5455	0.	-0.15731
12140	7.9363	5.6364	5.e-002	-1.0365e-004
12141	8.2132	5.6364	0.	-0.11744
12142	8.1209	5.5455	0.	-0.2277
12143	8.1209	5.6364	5.e-002	-2.6855e-005
12144	8.3979	5.6364	0.	-0.22608
12145	8.3056	5.5455	0.	-0.69702
12146	8.3056	5.6364	5.e-002	-1.5222e-005
12147	8.5825	5.6364	0.	-1.3507
12148	8.4902	5.5455	0.	-3.6453
12149	8.4902	5.6364	5.e-002	-9.2751e-006
12150	8.7672	5.6364	0.	-3.7312
12151	8.6748	5.5455	0.	-6.8279
12152	8.6748	5.6364	5.e-002	-5.0706e-006
12153	8.9518	5.6364	0.	-5.5712
12154	8.8595	5.5455	0.	-9.1861
12155	8.8595	5.6364	5.e-002	-5.8248e-006
12156	9.1364	5.6364	0.	-6.8078
12157	9.0441	5.5455	0.	-10.788
12158	9.0441	5.6364	5.e-002	-4.1615e-006
12159	9.3211	5.6364	0.	-7.5318
12160	9.2288	5.5455	0.	-11.753
12161	9.2288	5.6364	5.e-002	-4.2306e-006
12162	9.5057	5.6364	0.	-7.8354
12163	9.4134	5.5455	0.	-12.195
12164	9.4134	5.6364	5.e-002	-3.5226e-006
12165	9.6904	5.6364	0.	-7.8009
12166	9.598	5.5455	0.	-12.216
12167	9.598	5.6364	5.e-002	-2.6899e-006
12168	9.875	5.6364	0.	-7.4994
12169	9.7827	5.5455	0.	-11.904
12170	9.7827	5.6364	5.e-002	-2.3907e-006
12171	10.06	5.6364	0.	-6.9909
12172	9.9673	5.5455	0.	-11.331
12173	9.9673	5.6364	5.e-002	-1.8719e-006
12174	10.244	5.6364	0.	-6.3259
12175	10.152	5.5455	0.	-10.562
12176	10.152	5.6364	5.e-002	-7.9354e-007
12177	10.429	5.6364	0.	-5.5459
12178	10.337	5.5455	0.	-9.6481
12179	10.337	5.6364	5.e-002	-4.6819e-007
12180	10.614	5.6364	0.	-4.6851
12181	10.521	5.5455	0.	-8.6315
12182	10.521	5.6364	5.e-002	7.5721e-007
12183	10.798	5.6364	0.	-3.771
12184	10.706	5.5455	0.	-7.547
12185	10.706	5.6364	5.e-002	1.5825e-006
12186	10.983	5.6364	0.	-2.826
12187	10.891	5.5455	0.	-6.4225
12188	10.891	5.6364	5.e-002	1.3737e-006
12189	11.167	5.6364	0.	-1.868
12190	11.075	5.5455	0.	-5.28
12191	11.075	5.6364	5.e-002	1.7115e-006
12192	11.352	5.6364	0.	-0.91224
12193	11.26	5.5455	0.	-4.1366
12194	11.26	5.6364	5.e-002	2.2014e-006
12195	11.537	5.6364	0.	-5.0411e-002
12196	11.444	5.5455	0.	-3.0057
12197	11.444	5.6364	5.e-002	2.1653e-006
12198	11.721	5.6364	0.	1.1347e-002
12199	11.629	5.5455	0.	-1.897
12200	11.629	5.6364	5.e-002	2.3898e-006
12201	11.906	5.6364	0.	1.2594e-002
12202	11.814	5.5455	0.	-0.81784
12203	11.814	5.6364	5.e-002	2.7509e-006
12204	12.091	5.6364	0.	1.174e-002
12205	11.998	5.5455	0.	8.659e-003
12206	11.998	5.6364	5.e-002	2.4774e-006
12207	12.275	5.6364	0.	1.0451e-002
12208	12.183	5.5455	0.	7.4717e-003
12209	12.183	5.6364	5.e-002	2.617e-006
12210	12.46	5.6364	0.	9.0476e-003
12211	12.368	5.5455	0.	6.2995e-003
12212	12.368	5.6364	5.e-002	3.1543e-006
12213	12.645	5.6364	0.	7.6178e-003
12214	12.552	5.5455	0.	5.1758e-003
12215	12.552	5.6364	5.e-002	3.7539e-006
12216	12.829	5.6364	0.	6.2286e-003
12217	12.737	5.5455	0.	4.1176e-003
12218	12.737	5.6364	5.e-002	3.6886e-006
12219	13.014	5.6364	0.	4.9016e-003
12220	12.922	5.5455	0.	3.146e-003
12221	12.922	5.6364	5.e-002	4.4733e-006
12222	13.199	5.6364	0.	3.6233e-003
12223	13.106	5.5455	0.	2.2361e-003
12224	13.106	5.6364	5.e-002	5.014e-006
12225	13.383	5.6364	0.	2.4404e-003
12226	13.291	5.5455	0.	1.3882e-003
12227	13.291	5.6364	5.e-002	4.4167e-006
12228	13.568	5.6364	0.	1.3087e-003
12229	13.475	5.5455	0.	5.9567e-004
12230	13.475	5.6364	5.e-002	4.6348e-006
12231	13.752	5.6364	0.	2.4016e-004
12232	13.66	5.5455	0.	-1.4514e-004
12233	13.66	5.6364	5.e-002	5.6906e-006
12234	13.937	5.6364	0.	-7.6907e-004
12235	13.845	5.5455	0.	-8.3877e-004
12236	13.845	5.6364	5.e-002	5.7129e-006
12237	14.122	5.6364	0.	-1.7227e-003
12238	14.029	5.5455	0.	-1.4897e-003
12239	14.029	5.6364	5.e-002	5.3797e-006
12240	14.306	5.6364	0.	-2.6256e-003
12241	14.214	5.5455	0.	-2.1026e-003
12242	14.214	5.6364	5.e-002	5.2842e-006
12243	14.491	5.6364	0.	-3.481e-003
12244	14.399	5.5455	0.	-2.6801e-003
12245	14.399	5.6364	5.e-002	5.2318e-006
12246	14.676	5.6364	0.	-4.2939e-003
12247	14.583	5.5455	0.	-3.2264e-003
12248	14.583	5.6364	5.e-002	5.5113e-006
12249	14.86	5.6364	0.	-5.0702e-003
12250	14.768	5.5455	0.	-3.744e-003
12251	14.768	5.6364	5.e-002	6.5494e-006
12252	15.045	5.6364	0.	-5.8127e-003
12253	14.953	5.5455	0.	-4.2384e-003
12254	14.953	5.6364	5.e-002	5.5805e-006
12255	15.23	5.6364	0.	-6.5258e-003
12256	15.137	5.5455	0.	-4.7109e-003
12257	15.137	5.6364	5.e-002	6.8329e-006
12258	15.414	5.6364	0.	-7.2149e-003
12259	15.322	5.5455	0.	-5.1645e-003
12260	15.322	5.6364	5.e-002	6.5621e-006
12261	15.599	5.6364	0.	-7.8844e-003
12262	15.507	5.5455	0.	-5.6033e-003
12263	15.507	5.6364	5.e-002	5.2787e-006
12264	15.783	5.6364	0.	-8.5362e-003
12265	15.691	5.5455	0.	-6.03e-003
12266	15.691	5.6364	5.e-002	5.3677e-006
12267	15.968	5.6364	0.	-9.1764e-003
12268	15.876	5.5455	0.	-6.4445e-003
12269	15.876	5.6364	5.e-002	6.0338e-006
12270	16.153	5.6364	0.	-9.8101e-003
12271	16.06	5.5455	0.	-6.8554e-003
12272	16.06	5.6364	5.e-002	6.6606e-006
12273	16.337	5.6364	0.	-1.044e-002
12274	16.245	5.5455	0.	-7.2585e-003
12275	16.245	5.6364	5.e-002	6.5339e-006
12276	16.522	5.6364	0.	-1.1067e-002
12277	16.43	5.5455	0.	-7.6645e-003
12278	16.43	5.6364	5.e-002	7.2311e-006
12279	16.707	5.6364	0.	-1.1696e-002
12280	16.614	5.5455	0.	-8.0608e-003
12281	16.614	5.6364	5.e-002	7.5134e-006
12282	16.891	5.6364	0.	-1.2345e-002
12283	16.799	5.5455	0.	-8.4654e-003
12284	16.799	5.6364	5.e-002	7.8288e-006
12285	17.076	5.6364	0.	-1.3008e-002
12286	16.984	5.5455	0.	-8.8935e-003
12287	16.984	5.6364	5.e-002	7.7128e-006
12288	17.261	5.6364	0.	-1.3677e-002
12289	17.168	5.5455	0.	-9.3139e-003
12290	17.168	5.6364	5.e-002	6.5284e-006
12291	17.445	5.6364	0.	-1.4369e-002
12292	17.353	5.5455	0.	-9.7414e-003
12293	17.353	5.6364	5.e-002	7.7649e-006
12294	17.63	5.6364	0.	-1.5092e-002
12295	17.538	5.5455	0.	-1.019e-002
12296	17.538	5.6364	5.e-002	7.6216e-006
12297	17.815	5.6364	0.	-1.5846e-002
12298	17.722	5.5455	0.	-1.0656e-002
12299	17.722	5.6364	5.e-002	7.1059e-006
12300	17.999	5.6364	0.	-1.6636e-002
12301	17.907	5.5455	0.	-1.1144e-002
12302	17.907	5.6364	5.e-002	7.2248e-006
12303	18.184	5.6364	0.	-1.7469e-002
12304	18.092	5.5455	0.	-1.1654e-002
12305	18.092	5.6364	5.e-002	8.2269e-006
12306	18.368	5.6364	0.	-1.835e-002
12307	18.276	5.5455	0.	-1.2189e-002
12308	18.276	5.6364	5.e-002	8.6294e-006
12309	18.553	5.6364	0.	-1.9285e-002
12310	18.461	5.5455	0.	-1.2757e-002
12311	18.461	5.6364	5.e-002	8.8476e-006
12312	18.738	5.6364	0.	-2.0283e-002
12313	18.645	5.5455	0.	-1.3359e-002
12314	18.645	5.6364	5.e-002	7.8574e-006
12315	18.922	5.6364	0.	-2.1347e-002
12316	18.83	5.5455	0.	-1.3999e-002
12317	18.83	5.6364	5.e-002	9.5798e-006
12318	19.107	5.6364	0.	-2.2487e-002
12319	19.015	5.5455	0.	-1.4679e-002
12320	19.015	5.6364	5.e-002	9.6294e-006
12321	19.292	5.6364	0.	-2.3712e-002
12322	19.199	5.5455	0.	-1.5408e-002
12323	19.199	5.6364	5.e-002	9.1287e-006
12324	19.476	5.6364	0.	-2.5029e-002
12325	19.384	5.5455	0.	-1.6187e-002
12326	19.384	5.6364	5.e-002	1.0105e-005
12327	19.661	5.6364	0.	-2.6448e-002
12328	19.569	5.5455	0.	-1.702e-002
12329	19.569	5.6364	5.e-002	1.032e-005
12330	19.846	5.6364	0.	-2.7981e-002
12331	19.753	5.5455	0.	-1.7914e-002
12332	19.753	5.6364	5.e-002	1.2788e-005
12333	20.03	5.6364	0.	-2.964e-002
12334	19.938	5.5455	0.	-1.8874e-002
12335	19.938	5.6364	5.e-002	1.0077e-005
12336	20.215	5.6364	0.	-3.1436e-002
12337	20.123	5.5455	0.	-1.9906e-002
12338	20.123	5.6364	5.e-002	8.4953e-006
12339	20.4	5.6364	0.	-3.3384e-002
12340	20.307	5.5455	0.	-2.1012e-002
12341	20.307	5.6364	5.e-002	1.1472e-005
12342	20.584	5.6364	0.	-3.5499e-002
12343	20.492	5.5455	0.	-2.2201e-002
12344	20.492	5.6364	5.e-002	1.0459e-005
12345	20.769	5.6364	0.	-3.7798e-002
12346	20.676	5.5455	0.	-2.3476e-002
12347	20.676	5.6364	5.e-002	1.0163e-005
12348	20.953	5.6364	0.	-4.0298e-002
12349	20.861	5.5455	0.	-2.4842e-002
12350	20.861	5.6364	5.e-002	1.0136e-005
12351	21.138	5.6364	0.	-4.3018e-002
12352	21.046	5.5455	0.	-2.6298e-002
12353	21.046	5.6364	5.e-002	1.2473e-005
12354	21.323	5.6364	0.	-4.5985e-002
12355	21.23	5.5455	0.	-2.785e-002
12356	21.23	5.6364	5.e-002	1.3295e-005
12357	21.507	5.6364	0.	-4.9217e-002
12358	21.415	5.5455	0.	-2.9497e-002
12359	21.415	5.6364	5.e-002	1.3617e-005
12360	21.692	5.6364	0.	-5.2734e-002
12361	21.6	5.5455	0.	-3.1223e-002
12362	21.6	5.6364	5.e-002	1.4055e-005
12363	21.877	5.6364	0.	-5.6558e-002
12364	21.784	5.5455	0.	-3.3009e-002
12365	21.784	5.6364	5.e-002	1.3778e-005
12366	22.061	5.6364	0.	-6.0709e-002
12367	21.969	5.5455	0.	-3.4832e-002
12368	21.969	5.6364	5.e-002	1.3371e-005
12369	22.246	5.6364	0.	-6.5187e-002
12370	22.154	5.5455	0.	-3.6623e-002
12371	22.154	5.6364	5.e-002	1.2106e-005
12372	22.431	5.6364	0.	-6.995e-002
12373	22.338	5.5455	0.	-3.8285e-002
12374	22.338	5.6364	5.e-002	9.9418e-006
12375	22.615	5.6364	0.	-7.4955e-002
12376	22.523	5.5455	0.	-3.9598e-002
12377	22.523	5.6364	5.e-002	1.1868e-005
12378	22.8	5.6364	0.	-7.9788e-002
12379	22.708	5.5455	0.	-4.0369e-002
12380	22.708	5.6364	5.e-002	1.0793e-005
12381	22.984	5.6364	0.	-8.4696e-002
12382	22.892	5.5455	0.	-3.9457e-002
12383	22.892	5.6364	5.e-002	1.0057e-005
12384	23.169	5.6364	0.	-8.5653e-002
12385	23.077	5.5455	0.	-3.7842e-002
12386	23.077	5.6364	5.e-002	1.0717e-005
12387	23.354	5.6364	0.	-9.1288e-002
12388	23.261	5.5455	0.	-2.4668e-002
12389	23.261	5.6364	5.e-002	1.2504e-005
12390	23.538	5.6364	0.	-5.0873e-002
12391	23.446	5.5455	0.	-2.8537e-002
12392	23.446	5.6364	5.e-002	1.2311e-005
12393	23.723	5.6364	0.	-0.16317
12394	23.631	5.5455	0.	9.9233e-002
12395	23.631	5.6364	5.e-002	8.2392e-006
12396	23.815	5.5455	0.	-0.15346
12397	23.815	5.6364	5.e-002	1.437e-005
12398	23.908	5.6364	0.	0.15947
12399	5.4436	5.4545	0.	-7.1042
12400	5.3513	5.3636	0.	-9.2429
12401	5.3513	5.4545	5.e-002	1.3967e-005
12402	5.259	5.4545	0.	2.2543
12403	5.6283	5.4545	0.	-3.4117
12404	5.5359	5.3636	0.	-2.1927
12405	5.5359	5.4545	5.e-002	-1.791e-005
12406	5.8129	5.4545	0.	-2.7841
12407	5.7206	5.3636	0.	-3.245
12408	5.7206	5.4545	5.e-002	-3.3994e-005
12409	5.9975	5.4545	0.	-1.7024
12410	5.9052	5.3636	0.	-2.0971
12411	5.9052	5.4545	5.e-002	-3.6524e-005
12412	6.1822	5.4545	0.	-1.1407
12413	6.0899	5.3636	0.	-1.5779
12414	6.0899	5.4545	5.e-002	-4.1138e-005
12415	6.3668	5.4545	0.	-0.77452
12416	6.2745	5.3636	0.	-1.1329
12417	6.2745	5.4545	5.e-002	-4.4843e-005
12418	6.5515	5.4545	0.	-0.55387
12419	6.4592	5.3636	0.	-0.84921
12420	6.4592	5.4545	5.e-002	-3.3507e-005
12421	6.7361	5.4545	0.	-0.41002
12422	6.6438	5.3636	0.	-0.65047
12423	6.6438	5.4545	5.e-002	-3.5412e-005
12424	6.9208	5.4545	0.	-0.31601
12425	6.8284	5.3636	0.	-0.51622
12426	6.8284	5.4545	5.e-002	-3.233e-005
12427	7.1054	5.4545	0.	-0.25461
12428	7.0131	5.3636	0.	-0.42639
12429	7.0131	5.4545	5.e-002	-3.9101e-005
12430	7.29	5.4545	0.	-0.21695
12431	7.1977	5.3636	0.	-0.37127
12432	7.1977	5.4545	5.e-002	-4.3535e-005
12433	7.4747	5.4545	0.	-0.19883
12434	7.3824	5.3636	0.	-0.34707
12435	7.3824	5.4545	5.e-002	-5.8704e-005
12436	7.6593	5.4545	0.	-0.20127
12437	7.567	5.3636	0.	-0.35973
12438	7.567	5.4545	5.e-002	-1.3008e-004
12439	7.844	5.4545	0.	-0.23625
12440	7.7516	5.3636	0.	-0.44253
12441	7.7516	5.4545	5.e-002	-1.2423e-004
12442	8.0286	5.4545	0.	-0.36475
12443	7.9363	5.3636	0.	-0.79496
12444	7.9363	5.4545	5.e-002	-8.685e-005
12445	8.2132	5.4545	0.	-1.221
12446	8.1209	5.3636	0.	-3.4095
12447	8.1209	5.4545	5.e-002	-4.3215e-005
12448	8.3979	5.4545	0.	-5.2357
12449	8.3056	5.3636	0.	-8.8491
12450	8.3056	5.4545	5.e-002	-2.3179e-005
12451	8.5825	5.4545	0.	-9.2601
12452	8.4902	5.3636	0.	-13.444
12453	8.4902	5.4545	5.e-002	-1.9649e-005
12454	8.7672	5.4545	0.	-12.286
12455	8.6748	5.3636	0.	-16.868
12456	8.6748	5.4545	5.e-002	-1.1688e-005
12457	8.9518	5.4545	0.	-14.392
12458	8.8595	5.3636	0.	-19.245
12459	8.8595	5.4545	5.e-002	-8.9168e-006
12460	9.1364	5.4545	0.	-15.719
12461	9.0441	5.3636	0.	-20.736
12462	9.0441	5.4545	5.e-002	-8.0463e-006
12463	9.3211	5.4545	0.	-16.402
12464	9.2288	5.3636	0.	-21.493
12465	9.2288	5.4545	5.e-002	-5.6002e-006
12466	9.5057	5.4545	0.	-16.561
12467	9.4134	5.3636	0.	-21.652
12468	9.4134	5.4545	5.e-002	-5.7164e-006
12469	9.6904	5.4545	0.	-16.303
12470	9.598	5.3636	0.	-21.334
12471	9.598	5.4545	5.e-002	-4.8578e-006
12472	9.875	5.4545	0.	-15.72
12473	9.7827	5.3636	0.	-20.642
12474	9.7827	5.4545	5.e-002	-4.6929e-006
12475	10.06	5.4545	0.	-14.887
12476	9.9673	5.3636	0.	-19.665
12477	9.9673	5.4545	5.e-002	-4.3156e-006
12478	10.244	5.4545	0.	-13.868
12479	10.152	5.3636	0.	-18.475
12480	10.152	5.4545	5.e-002	-2.1619e-006
12481	10.429	5.4545	0.	-12.717
12482	10.337	5.3636	0.	-17.133
12483	10.337	5.4545	5.e-002	-2.1498e-006
12484	10.614	5.4545	0.	-11.477
12485	10.521	5.3636	0.	-15.689
12486	10.521	5.4545	5.e-002	-1.2677e-006
12487	10.798	5.4545	0.	-10.182
12488	10.706	5.3636	0.	-14.184
12489	10.706	5.4545	5.e-002	-9.0151e-007
12490	10.983	5.4545	0.	-8.8601
12491	10.891	5.3636	0.	-12.649
12492	10.891	5.4545	5.e-002	-7.9495e-007
12493	11.167	5.4545	0.	-7.533
12494	11.075	5.3636	0.	-11.109
12495	11.075	5.4545	5.e-002	-1.573e-007
12496	11.352	5.4545	0.	-6.2176
12497	11.26	5.3636	0.	-9.5847
12498	11.26	5.4545	5.e-002	3.7799e-008
12499	11.537	5.4545	0.	-4.9264
12500	11.444	5.3636	0.	-8.09
12501	11.444	5.4545	5.e-002	5.6117e-007
12502	11.721	5.4545	0.	-3.6689
12503	11.629	5.3636	0.	-6.6361
12504	11.629	5.4545	5.e-002	6.1585e-007
12505	11.906	5.4545	0.	-2.4518
12506	11.814	5.3636	0.	-5.2305
12507	11.814	5.4545	5.e-002	2.0022e-006
12508	12.091	5.4545	0.	-1.2799
12509	11.998	5.3636	0.	-3.8786
12510	11.998	5.4545	5.e-002	1.4084e-006
12511	12.275	5.4545	0.	-0.16625
12512	12.183	5.3636	0.	-2.5835
12513	12.183	5.4545	5.e-002	8.0865e-007
12514	12.46	5.4545	0.	-3.7816e-004
12515	12.368	5.3636	0.	-1.3477
12516	12.368	5.4545	5.e-002	1.4845e-006
12517	12.645	5.4545	0.	3.7991e-004
12518	12.552	5.3636	0.	-0.19703
12519	12.552	5.4545	5.e-002	2.4899e-006
12520	12.829	5.4545	0.	2.5567e-004
12521	12.737	5.3636	0.	-5.4716e-003
12522	12.737	5.4545	5.e-002	2.689e-006
12523	13.014	5.4545	0.	-2.7972e-005
12524	12.922	5.3636	0.	-2.2104e-003
12525	12.922	5.4545	5.e-002	2.9541e-006
12526	13.199	5.4545	0.	-3.5436e-004
12527	13.106	5.3636	0.	-1.5124e-003
12528	13.106	5.4545	5.e-002	3.8388e-006
12529	13.383	5.4545	0.	-6.8535e-004
12530	13.291	5.3636	0.	-1.3629e-003
12531	13.291	5.4545	5.e-002	3.1954e-006
12532	13.568	5.4545	0.	-1.0075e-003
12533	13.475	5.3636	0.	-1.4067e-003
12534	13.475	5.4545	5.e-002	3.5294e-006
12535	13.752	5.4545	0.	-1.3151e-003
12536	13.66	5.3636	0.	-1.5311e-003
12537	13.66	5.4545	5.e-002	3.8415e-006
12538	13.937	5.4545	0.	-1.6067e-003
12539	13.845	5.3636	0.	-1.6922e-003
12540	13.845	5.4545	5.e-002	4.2063e-006
12541	14.122	5.4545	0.	-1.8834e-003
12542	14.029	5.3636	0.	-1.8693e-003
12543	14.029	5.4545	5.e-002	3.9051e-006
12544	14.306	5.4545	0.	-2.1447e-003
12545	14.214	5.3636	0.	-2.0521e-003
12546	14.214	5.4545	5.e-002	3.4366e-006
12547	14.491	5.4545	0.	-2.3924e-003
12548	14.399	5.3636	0.	-2.2336e-003
12549	14.399	5.4545	5.e-002	3.8153e-006
12550	14.676	5.4545	0.	-2.6269e-003
12551	14.583	5.3636	0.	-2.4132e-003
12552	14.583	5.4545	5.e-002	3.8131e-006
12553	14.86	5.4545	0.	-2.8492e-003
12554	14.768	5.3636	0.	-2.5861e-003
12555	14.768	5.4545	5.e-002	5.0864e-006
12556	15.045	5.4545	0.	-3.0627e-003
12557	14.953	5.3636	0.	-2.756e-003
12558	14.953	5.4545	5.e-002	3.6703e-006
12559	15.23	5.4545	0.	-3.2665e-003
12560	15.137	5.3636	0.	-2.9195e-003
12561	15.137	5.4545	5.e-002	5.0698e-006
12562	15.414	5.4545	0.	-3.4621e-003
12563	15.322	5.3636	0.	-3.078e-003
12564	15.322	5.4545	5.e-002	4.501e-006
12565	15.599	5.4545	0.	-3.6516e-003
12566	15.507	5.3636	0.	-3.232e-003
12567	15.507	5.4545	5.e-002	3.1582e-006
12568	15.783	5.4545	0.	-3.8355e-003
12569	15.691	5.3636	0.	-3.3821e-003
12570	15.691	5.4545	5.e-002	3.2907e-006
12571	15.968	5.4545	0.	-4.0158e-003
12572	15.876	5.3636	0.	-3.5273e-003
12573	15.876	5.4545	5.e-002	3.525e-006
12574	16.153	5.4545	0.	-4.1918e-003
12575	16.06	5.3636	0.	-3.6715e-003
12576	16.06	5.4545	5.e-002	3.9364e-006
12577	16.337	5.4545	0.	-4.3673e-003
12578	16.245	5.3636	0.	-3.811e-003
12579	16.245	5.4545	5.e-002	4.6008e-006
12580	16.522	5.4545	0.	-4.5388e-003
12581	16.43	5.3636	0.	-3.9539e-003
12582	16.43	5.4545	5.e-002	4.7637e-006
12583	16.707	5.4545	0.	-4.7077e-003
12584	16.614	5.3636	0.	-4.0857e-003
12585	16.614	5.4545	5.e-002	4.8815e-006
12586	16.891	5.4545	0.	-4.8892e-003
12587	16.799	5.3636	0.	-4.2215e-003
12588	16.799	5.4545	5.e-002	5.4412e-006
12589	17.076	5.4545	0.	-5.0721e-003
12590	16.984	5.3636	0.	-4.3758e-003
12591	16.984	5.4545	5.e-002	5.4552e-006
12592	17.261	5.4545	0.	-5.2491e-003
12593	17.168	5.3636	0.	-4.5133e-003
12594	17.168	5.4545	5.e-002	4.3349e-006
12595	17.445	5.4545	0.	-5.4319e-003
12596	17.353	5.3636	0.	-4.651e-003
12597	17.353	5.4545	5.e-002	4.9542e-006
12598	17.63	5.4545	0.	-5.6219e-003
12599	17.538	5.3636	0.	-4.7968e-003
12600	17.538	5.4545	5.e-002	5.4564e-006
12601	17.815	5.4545	0.	-5.8203e-003
12602	17.722	5.3636	0.	-4.9454e-003
12603	17.722	5.4545	5.e-002	5.9123e-006
12604	17.999	5.4545	0.	-6.0264e-003
12605	17.907	5.3636	0.	-5.0998e-003
12606	17.907	5.4545	5.e-002	5.2287e-006
12607	18.184	5.4545	0.	-6.2388e-003
12608	18.092	5.3636	0.	-5.2564e-003
12609	18.092	5.4545	5.e-002	5.7375e-006
12610	18.368	5.4545	0.	-6.4623e-003
12611	18.276	5.3636	0.	-5.4182e-003
12612	18.276	5.4545	5.e-002	5.2531e-006
12613	18.553	5.4545	0.	-6.6971e-003
12614	18.461	5.3636	0.	-5.5871e-003
12615	18.461	5.4545	5.e-002	5.8486e-006
12616	18.738	5.4545	0.	-6.9433e-003
12617	18.645	5.3636	0.	-5.7613e-003
12618	18.645	5.4545	5.e-002	6.6631e-006
12619	18.922	5.4545	0.	-7.2026e-003
12620	18.83	5.3636	0.	-5.9416e-003
12621	18.83	5.4545	5.e-002	7.9203e-006
12622	19.107	5.4545	0.	-7.4748e-003
12623	19.015	5.3636	0.	-6.1276e-003
12624	19.015	5.4545	5.e-002	7.9927e-006
12625	19.292	5.4545	0.	-7.7631e-003
12626	19.199	5.3636	0.	-6.3219e-003
12627	19.199	5.4545	5.e-002	6.8575e-006
12628	19.476	5.4545	0.	-8.067e-003
12629	19.384	5.3636	0.	-6.521e-003
12630	19.384	5.4545	5.e-002	7.364e-006
12631	19.661	5.4545	0.	-8.3847e-003
12632	19.569	5.3636	0.	-6.7249e-003
12633	19.569	5.4545	5.e-002	7.1871e-006
12634	19.846	5.4545	0.	-8.718e-003
12635	19.753	5.3636	0.	-6.932e-003
12636	19.753	5.4545	5.e-002	1.0408e-005
12637	20.03	5.4545	0.	-9.0671e-003
12638	19.938	5.3636	0.	-7.1408e-003
12639	19.938	5.4545	5.e-002	8.0481e-006
12640	20.215	5.4545	0.	-9.4294e-003
12641	20.123	5.3636	0.	-7.3487e-003
12642	20.123	5.4545	5.e-002	5.6018e-006
12643	20.4	5.4545	0.	-9.8032e-003
12644	20.307	5.3636	0.	-7.551e-003
12645	20.307	5.4545	5.e-002	8.2468e-006
12646	20.584	5.4545	0.	-1.0185e-002
12647	20.492	5.3636	0.	-7.7402e-003
12648	20.492	5.4545	5.e-002	6.7671e-006
12649	20.769	5.4545	0.	-1.0567e-002
12650	20.676	5.3636	0.	-7.9112e-003
12651	20.676	5.4545	5.e-002	7.1051e-006
12652	20.953	5.4545	0.	-1.0942e-002
12653	20.861	5.3636	0.	-8.0484e-003
12654	20.861	5.4545	5.e-002	6.946e-006
12655	21.138	5.4545	0.	-1.1295e-002
12656	21.046	5.3636	0.	-8.1382e-003
12657	21.046	5.4545	5.e-002	8.5988e-006
12658	21.323	5.4545	0.	-1.161e-002
12659	21.23	5.3636	0.	-8.157e-003
12660	21.23	5.4545	5.e-002	9.4306e-006
12661	21.507	5.4545	0.	-1.1857e-002
12662	21.415	5.3636	0.	-8.0767e-003
12663	21.415	5.4545	5.e-002	1.1735e-005
12664	21.692	5.4545	0.	-1.1988e-002
12665	21.6	5.3636	0.	-7.847e-003
12666	21.6	5.4545	5.e-002	1.2383e-005
12667	21.877	5.4545	0.	-1.1949e-002
12668	21.784	5.3636	0.	-7.4024e-003
12669	21.784	5.4545	5.e-002	1.1575e-005
12670	22.061	5.4545	0.	-1.1643e-002
12671	21.969	5.3636	0.	-6.6626e-003
12672	21.969	5.4545	5.e-002	9.7658e-006
12673	22.246	5.4545	0.	-1.0927e-002
12674	22.154	5.3636	0.	-5.4828e-003
12675	22.154	5.4545	5.e-002	7.8441e-006
12676	22.431	5.4545	0.	-9.5625e-003
12677	22.338	5.3636	0.	-3.6685e-003
12678	22.338	5.4545	5.e-002	6.0923e-006
12679	22.615	5.4545	0.	-7.2346e-003
12680	22.523	5.3636	0.	-8.6605e-004
12681	22.523	5.4545	5.e-002	9.0013e-006
12682	22.8	5.4545	0.	-3.121e-003
12683	22.708	5.3636	0.	3.2843e-003
12684	22.708	5.4545	5.e-002	9.7597e-006
12685	22.984	5.4545	0.	3.0027e-003
12686	22.892	5.3636	0.	1.0207e-002
12687	22.892	5.4545	5.e-002	7.2779e-006
12688	23.169	5.4545	0.	1.6608e-002
12689	23.077	5.3636	0.	1.9076e-002
12690	23.077	5.4545	5.e-002	1.0012e-005
12691	23.354	5.4545	0.	2.7563e-002
12692	23.261	5.3636	0.	4.2126e-002
12693	23.261	5.4545	5.e-002	1.0209e-005
12694	23.538	5.4545	0.	0.10148
12695	23.446	5.3636	0.	4.8506e-002
12696	23.446	5.4545	5.e-002	8.7794e-006
12697	23.723	5.4545	0.	4.7305e-002
12698	23.631	5.3636	0.	0.20445
12699	23.631	5.4545	5.e-002	6.1473e-006
12700	23.815	5.3636	0.	-4.9126e-003
12701	23.815	5.4545	5.e-002	1.5943e-005
12702	23.908	5.4545	0.	0.35346
12703	5.4436	5.2727	0.	-5.6072
12704	5.3513	5.1818	0.	-8.7915
12705	5.3513	5.2727	5.e-002	-1.5992e-014
12706	5.259	5.2727	0.	2.2019
12707	5.6283	5.2727	0.	-2.4235
12708	5.5359	5.1818	0.	-1.288
12709	5.5359	5.2727	5.e-002	-4.4407e-005
12710	5.8129	5.2727	0.	-2.6561
12711	5.7206	5.1818	0.	-3.0464
12712	5.7206	5.2727	5.e-002	-5.0465e-005
12713	5.9975	5.2727	0.	-1.9661
12714	5.9052	5.1818	0.	-2.2341
12715	5.9052	5.2727	5.e-002	-7.1345e-005
12716	6.1822	5.2727	0.	-1.5555
12717	6.0899	5.1818	0.	-1.9324
12718	6.0899	5.2727	5.e-002	-7.0471e-005
12719	6.3668	5.2727	0.	-1.2081
12720	6.2745	5.1818	0.	-1.5626
12721	6.2745	5.2727	5.e-002	-7.0503e-005
12722	6.5515	5.2727	0.	-0.96117
12723	6.4592	5.1818	0.	-1.2976
12724	6.4592	5.2727	5.e-002	-7.3098e-005
12725	6.7361	5.2727	0.	-0.78279
12726	6.6438	5.1818	0.	-1.0946
12727	6.6438	5.2727	5.e-002	-7.315e-005
12728	6.9208	5.2727	0.	-0.66069
12729	6.8284	5.1818	0.	-0.95663
12730	6.8284	5.2727	5.e-002	-9.5507e-005
12731	7.1054	5.2727	0.	-0.58464
12732	7.0131	5.1818	0.	-0.87826
12733	7.0131	5.2727	5.e-002	-8.2482e-005
12734	7.29	5.2727	0.	-0.55331
12735	7.1977	5.1818	0.	-0.86922
12736	7.1977	5.2727	5.e-002	-1.1122e-004
12737	7.4747	5.2727	0.	-0.58015
12738	7.3824	5.1818	0.	-0.97422
12739	7.3824	5.2727	5.e-002	-1.1358e-004
12740	7.6593	5.2727	0.	-0.72968
12741	7.567	5.1818	0.	-1.4023
12742	7.567	5.2727	5.e-002	-1.5338e-004
12743	7.844	5.2727	0.	-1.4112
12744	7.7516	5.1818	0.	-3.6653
12745	7.7516	5.2727	5.e-002	-1.1477e-004
12746	8.0286	5.2727	0.	-5.4637
12747	7.9363	5.1818	0.	-10.538
12748	7.9363	5.2727	5.e-002	-8.1573e-005
12749	8.2132	5.2727	0.	-11.82
12750	8.1209	5.1818	0.	-17.558
12751	8.1209	5.2727	5.e-002	-5.2008e-005
12752	8.3979	5.2727	0.	-17.09
12753	8.3056	5.1818	0.	-23.131
12754	8.3056	5.2727	5.e-002	-3.3637e-005
12755	8.5825	5.2727	0.	-21.042
12756	8.4902	5.1818	0.	-27.258
12757	8.4902	5.2727	5.e-002	-2.1961e-005
12758	8.7672	5.2727	0.	-23.811
12759	8.6748	5.1818	0.	-30.107
12760	8.6748	5.2727	5.e-002	-1.2989e-005
12761	8.9518	5.2727	0.	-25.572
12762	8.8595	5.1818	0.	-31.868
12763	8.8595	5.2727	5.e-002	-7.9122e-006
12764	9.1364	5.2727	0.	-26.493
12765	9.0441	5.1818	0.	-32.723
12766	9.0441	5.2727	5.e-002	-1.0476e-005
12767	9.3211	5.2727	0.	-26.726
12768	9.2288	5.1818	0.	-32.838
12769	9.2288	5.2727	5.e-002	-6.2551e-006
12770	9.5057	5.2727	0.	-26.408
12771	9.4134	5.1818	0.	-32.357
12772	9.4134	5.2727	5.e-002	-7.2435e-006
12773	9.6904	5.2727	0.	-25.656
12774	9.598	5.1818	0.	-31.408
12775	9.598	5.2727	5.e-002	-4.4648e-006
12776	9.875	5.2727	0.	-24.571
12777	9.7827	5.1818	0.	-30.101
12778	9.7827	5.2727	5.e-002	-4.6803e-006
12779	10.06	5.2727	0.	-23.237
12780	9.9673	5.1818	0.	-28.526
12781	9.9673	5.2727	5.e-002	-5.2893e-006
12782	10.244	5.2727	0.	-21.723
12783	10.152	5.1818	0.	-26.762
12784	10.152	5.2727	5.e-002	-3.5553e-006
12785	10.429	5.2727	0.	-20.088
12786	10.337	5.1818	0.	-24.87
12787	10.337	5.2727	5.e-002	-3.1823e-006
12788	10.614	5.2727	0.	-18.379
12789	10.521	5.1818	0.	-22.902
12790	10.521	5.2727	5.e-002	-2.5876e-006
12791	10.798	5.2727	0.	-16.634
12792	10.706	5.1818	0.	-20.899
12793	10.706	5.2727	5.e-002	-2.8805e-006
12794	10.983	5.2727	0.	-14.88
12795	10.891	5.1818	0.	-18.894
12796	10.891	5.2727	5.e-002	-2.1366e-006
12797	11.167	5.2727	0.	-13.143
12798	11.075	5.1818	0.	-16.911
12799	11.075	5.2727	5.e-002	-1.8373e-006
12800	11.352	5.2727	0.	-11.439
12801	11.26	5.1818	0.	-14.971
12802	11.26	5.2727	5.e-002	-5.5152e-007
12803	11.537	5.2727	0.	-9.781
12804	11.444	5.1818	0.	-13.086
12805	11.444	5.2727	5.e-002	4.239e-007
12806	11.721	5.2727	0.	-8.1784
12807	11.629	5.1818	0.	-11.267
12808	11.629	5.2727	5.e-002	8.2207e-008
12809	11.906	5.2727	0.	-6.6374
12810	11.814	5.1818	0.	-9.5212
12811	11.814	5.2727	5.e-002	1.0335e-006
12812	12.091	5.2727	0.	-5.1618
12813	11.998	5.1818	0.	-7.8518
12814	11.998	5.2727	5.e-002	7.3281e-007
12815	12.275	5.2727	0.	-3.7537
12816	12.183	5.1818	0.	-6.2609
12817	12.183	5.2727	5.e-002	5.2301e-007
12818	12.46	5.2727	0.	-2.4139
12819	12.368	5.1818	0.	-4.7489
12820	12.368	5.2727	5.e-002	9.8564e-007
12821	12.645	5.2727	0.	-1.1443
12822	12.552	5.1818	0.	-3.3151
12823	12.552	5.2727	5.e-002	2.059e-006
12824	12.829	5.2727	0.	-7.4381e-002
12825	12.737	5.1818	0.	-1.9586
12826	12.737	5.2727	5.e-002	2.4374e-006
12827	13.014	5.2727	0.	-7.767e-003
12828	12.922	5.1818	0.	-0.6861
12829	12.922	5.2727	5.e-002	2.7342e-006
12830	13.199	5.2727	0.	-3.805e-003
12831	13.106	5.1818	0.	-2.5092e-002
12832	13.106	5.2727	5.e-002	3.6867e-006
12833	13.383	5.2727	0.	-2.645e-003
12834	13.291	5.1818	0.	-7.7144e-003
12835	13.291	5.2727	5.e-002	3.1138e-006
12836	13.568	5.2727	0.	-2.2056e-003
12837	13.475	5.1818	0.	-4.4916e-003
12838	13.475	5.2727	5.e-002	3.3382e-006
12839	13.752	5.2727	0.	-2.0463e-003
12840	13.66	5.1818	0.	-3.2603e-003
12841	13.66	5.2727	5.e-002	3.9523e-006
12842	13.937	5.2727	0.	-2.0192e-003
12843	13.845	5.1818	0.	-2.6743e-003
12844	13.845	5.2727	5.e-002	3.8745e-006
12845	14.122	5.2727	0.	-2.0602e-003
12846	14.029	5.1818	0.	-2.3692e-003
12847	14.029	5.2727	5.e-002	3.7281e-006
12848	14.306	5.2727	0.	-2.1381e-003
12849	14.214	5.1818	0.	-2.2081e-003
12850	14.214	5.2727	5.e-002	3.2443e-006
12851	14.491	5.2727	0.	-2.2365e-003
12852	14.399	5.1818	0.	-2.1286e-003
12853	14.399	5.2727	5.e-002	3.4419e-006
12854	14.676	5.2727	0.	-2.3458e-003
12855	14.583	5.1818	0.	-2.0971e-003
12856	14.583	5.2727	5.e-002	3.8342e-006
12857	14.86	5.2727	0.	-2.4614e-003
12858	14.768	5.1818	0.	-2.0954e-003
12859	14.768	5.2727	5.e-002	4.8583e-006
12860	15.045	5.2727	0.	-2.5789e-003
12861	14.953	5.1818	0.	-2.1132e-003
12862	14.953	5.2727	5.e-002	3.5755e-006
12863	15.23	5.2727	0.	-2.6965e-003
12864	15.137	5.1818	0.	-2.1419e-003
12865	15.137	5.2727	5.e-002	5.1034e-006
12866	15.414	5.2727	0.	-2.814e-003
12867	15.322	5.1818	0.	-2.1788e-003
12868	15.322	5.2727	5.e-002	4.4879e-006
12869	15.599	5.2727	0.	-2.9299e-003
12870	15.507	5.1818	0.	-2.2214e-003
12871	15.507	5.2727	5.e-002	3.0359e-006
12872	15.783	5.2727	0.	-3.0434e-003
12873	15.691	5.1818	0.	-2.2655e-003
12874	15.691	5.2727	5.e-002	3.2557e-006
12875	15.968	5.2727	0.	-3.1551e-003
12876	15.876	5.1818	0.	-2.3112e-003
12877	15.876	5.2727	5.e-002	3.0324e-006
12878	16.153	5.2727	0.	-3.2656e-003
12879	16.06	5.1818	0.	-2.358e-003
12880	16.06	5.2727	5.e-002	3.7368e-006
12881	16.337	5.2727	0.	-3.3759e-003
12882	16.245	5.1818	0.	-2.4045e-003
12883	16.245	5.2727	5.e-002	4.0268e-006
12884	16.522	5.2727	0.	-3.4825e-003
12885	16.43	5.1818	0.	-2.4524e-003
12886	16.43	5.2727	5.e-002	4.694e-006
12887	16.707	5.2727	0.	-3.5851e-003
12888	16.614	5.1818	0.	-2.4907e-003
12889	16.614	5.2727	5.e-002	4.1486e-006
12890	16.891	5.2727	0.	-3.6979e-003
12891	16.799	5.1818	0.	-2.5327e-003
12892	16.799	5.2727	5.e-002	5.3856e-006
12893	17.076	5.2727	0.	-3.8111e-003
12894	16.984	5.1818	0.	-2.5909e-003
12895	16.984	5.2727	5.e-002	4.9407e-006
12896	17.261	5.2727	0.	-3.9142e-003
12897	17.168	5.1818	0.	-2.6292e-003
12898	17.168	5.2727	5.e-002	3.8188e-006
12899	17.445	5.2727	0.	-4.0202e-003
12900	17.353	5.1818	0.	-2.6639e-003
12901	17.353	5.2727	5.e-002	4.4885e-006
12902	17.63	5.2727	0.	-4.1302e-003
12903	17.538	5.1818	0.	-2.7042e-003
12904	17.538	5.2727	5.e-002	5.2643e-006
12905	17.815	5.2727	0.	-4.2411e-003
12906	17.722	5.1818	0.	-2.7409e-003
12907	17.722	5.2727	5.e-002	5.3501e-006
12908	17.999	5.2727	0.	-4.3529e-003
12909	17.907	5.1818	0.	-2.7748e-003
12910	17.907	5.2727	5.e-002	5.1424e-006
12911	18.184	5.2727	0.	-4.4665e-003
12912	18.092	5.1818	0.	-2.8073e-003
12913	18.092	5.2727	5.e-002	5.6415e-006
12914	18.368	5.2727	0.	-4.5823e-003
12915	18.276	5.1818	0.	-2.836e-003
12916	18.276	5.2727	5.e-002	4.5095e-006
12917	18.553	5.2727	0.	-4.7001e-003
12918	18.461	5.1818	0.	-2.8608e-003
12919	18.461	5.2727	5.e-002	5.8011e-006
12920	18.738	5.2727	0.	-4.8191e-003
12921	18.645	5.1818	0.	-2.8828e-003
12922	18.645	5.2727	5.e-002	6.7731e-006
12923	18.922	5.2727	0.	-4.9383e-003
12924	18.83	5.1818	0.	-2.8974e-003
12925	18.83	5.2727	5.e-002	8.2842e-006
12926	19.107	5.2727	0.	-5.06e-003
12927	19.015	5.1818	0.	-2.9053e-003
12928	19.015	5.2727	5.e-002	8.5491e-006
12929	19.292	5.2727	0.	-5.1806e-003
12930	19.199	5.1818	0.	-2.9067e-003
12931	19.199	5.2727	5.e-002	6.149e-006
12932	19.476	5.2727	0.	-5.2973e-003
12933	19.384	5.1818	0.	-2.8936e-003
12934	19.384	5.2727	5.e-002	7.4756e-006
12935	19.661	5.2727	0.	-5.4108e-003
12936	19.569	5.1818	0.	-2.8673e-003
12937	19.569	5.2727	5.e-002	6.9418e-006
12938	19.846	5.2727	0.	-5.5166e-003
12939	19.753	5.1818	0.	-2.8235e-003
12940	19.753	5.2727	5.e-002	1.0196e-005
12941	20.03	5.2727	0.	-5.6107e-003
12942	19.938	5.1818	0.	-2.7559e-003
12943	19.938	5.2727	5.e-002	8.4144e-006
12944	20.215	5.2727	0.	-5.6894e-003
12945	20.123	5.1818	0.	-2.6615e-003
12946	20.123	5.2727	5.e-002	5.3443e-006
12947	20.4	5.2727	0.	-5.7429e-003
12948	20.307	5.1818	0.	-2.5277e-003
12949	20.307	5.2727	5.e-002	8.2254e-006
12950	20.584	5.2727	0.	-5.763e-003
12951	20.492	5.1818	0.	-2.3458e-003
12952	20.492	5.2727	5.e-002	5.9683e-006
12953	20.769	5.2727	0.	-5.7372e-003
12954	20.676	5.1818	0.	-2.103e-003
12955	20.676	5.2727	5.e-002	6.2415e-006
12956	20.953	5.2727	0.	-5.647e-003
12957	20.861	5.1818	0.	-1.7789e-003
12958	20.861	5.2727	5.e-002	6.0337e-006
12959	21.138	5.2727	0.	-5.47e-003
12960	21.046	5.1818	0.	-1.3527e-003
12961	21.046	5.2727	5.e-002	8.2585e-006
12962	21.323	5.2727	0.	-5.1747e-003
12963	21.23	5.1818	0.	-7.902e-004
12964	21.23	5.2727	5.e-002	9.4751e-006
12965	21.507	5.2727	0.	-4.7162e-003
12966	21.415	5.1818	0.	-5.2999e-005
12967	21.415	5.2727	5.e-002	1.3069e-005
12968	21.692	5.2727	0.	-4.0295e-003
12969	21.6	5.1818	0.	9.2218e-004
12970	21.6	5.2727	5.e-002	1.2953e-005
12971	21.877	5.2727	0.	-3.0319e-003
12972	21.784	5.1818	0.	2.217e-003
12973	21.784	5.2727	5.e-002	1.0375e-005
12974	22.061	5.2727	0.	-1.6019e-003
12975	21.969	5.1818	0.	3.9326e-003
12976	21.969	5.2727	5.e-002	9.5763e-006
12977	22.246	5.2727	0.	4.4108e-004
12978	22.154	5.1818	0.	6.2323e-003
12979	22.154	5.2727	5.e-002	7.8458e-006
12980	22.431	5.2727	0.	3.3854e-003
12981	22.338	5.1818	0.	9.3453e-003
12982	22.338	5.2727	5.e-002	5.0225e-006
12983	22.615	5.2727	0.	7.595e-003
12984	22.523	5.1818	0.	1.3654e-002
12985	22.523	5.2727	5.e-002	9.1506e-006
12986	22.8	5.2727	0.	1.3968e-002
12987	22.708	5.1818	0.	1.9548e-002
12988	22.708	5.2727	5.e-002	9.0425e-006
12989	22.984	5.2727	0.	2.2751e-002
12990	22.892	5.1818	0.	2.852e-002
12991	22.892	5.2727	5.e-002	6.978e-006
12992	23.169	5.2727	0.	3.9577e-002
12993	23.077	5.1818	0.	3.9724e-002
12994	23.077	5.2727	5.e-002	9.4918e-006
12995	23.354	5.2727	0.	5.501e-002
12996	23.261	5.1818	0.	6.5697e-002
12997	23.261	5.2727	5.e-002	9.4472e-006
12998	23.538	5.2727	0.	0.13474
12999	23.446	5.1818	0.	7.608e-002
13000	23.446	5.2727	5.e-002	7.9187e-006
13001	23.723	5.2727	0.	9.0052e-002
13002	23.631	5.1818	0.	0.23938
13003	23.631	5.2727	5.e-002	4.6043e-006
13004	23.815	5.1818	0.	4.7014e-002
13005	23.815	5.2727	5.e-002	1.0582e-005
13006	23.908	5.2727	0.	0.36613
13007	5.4436	5.0909	0.	-5.2449
13008	5.3513	5.	0.	-9.969
13009	5.3513	5.0909	5.e-002	-1.2373e-005
13010	5.259	5.0909	0.	2.5752
13011	5.6283	5.0909	0.	-2.0964
13012	5.5359	5.	0.	-0.84419
13013	5.5359	5.0909	5.e-002	-5.1121e-005
13014	5.8129	5.0909	0.	-2.6968
13015	5.7206	5.	0.	-3.278
13016	5.7206	5.0909	5.e-002	-9.4808e-005
13017	5.9975	5.0909	0.	-2.2168
13018	5.9052	5.	0.	-2.4451
13019	5.9052	5.0909	5.e-002	-1.0925e-004
13020	6.1822	5.0909	0.	-1.9427
13021	6.0899	5.	0.	-2.3094
13022	6.0899	5.0909	5.e-002	-1.0361e-004
13023	6.3668	5.0909	0.	-1.6664
13024	6.2745	5.	0.	-2.0451
13025	6.2745	5.0909	5.e-002	-1.1909e-004
13026	6.5515	5.0909	0.	-1.4659
13027	6.4592	5.	0.	-1.8902
13028	6.4592	5.0909	5.e-002	-1.266e-004
13029	6.7361	5.0909	0.	-1.3279
13030	6.6438	5.	0.	-1.8057
13031	6.6438	5.0909	5.e-002	-1.1767e-004
13032	6.9208	5.0909	0.	-1.2649
13033	6.8284	5.	0.	-1.832
13034	6.8284	5.0909	5.e-002	-1.1536e-004
13035	7.1054	5.0909	0.	-1.3049
13036	7.0131	5.	0.	-2.0584
13037	7.0131	5.0909	5.e-002	-1.1582e-004
13038	7.29	5.0909	0.	-1.5525
13039	7.1977	5.	0.	-2.8385
13040	7.1977	5.0909	5.e-002	-1.4965e-004
13041	7.4747	5.0909	0.	-2.5135
13042	7.3824	5.	0.	-6.0179
13043	7.3824	5.0909	5.e-002	-1.2791e-004
13044	7.6593	5.0909	0.	-6.9824
13045	7.567	5.	0.	-14.606
13046	7.567	5.0909	5.e-002	-1.4979e-004
13047	7.844	5.0909	0.	-15.339
13048	7.7516	5.	0.	-24.004
13049	7.7516	5.0909	5.e-002	-1.0016e-004
13050	8.0286	5.0909	0.	-22.933
13051	7.9363	5.	0.	-31.737
13052	7.9363	5.0909	5.e-002	-7.6151e-005
13053	8.2132	5.0909	0.	-28.895
13054	8.1209	5.	0.	-37.639
13055	8.1209	5.0909	5.e-002	-5.5498e-005
13056	8.3979	5.0909	0.	-33.29
13057	8.3056	5.	0.	-41.882
13058	8.3056	5.0909	5.e-002	-3.8683e-005
13059	8.5825	5.0909	0.	-36.306
13060	8.4902	5.	0.	-44.685
13061	8.4902	5.0909	5.e-002	-2.9806e-005
13062	8.7672	5.0909	0.	-38.145
13063	8.6748	5.	0.	-46.269
13064	8.6748	5.0909	5.e-002	-1.7423e-005
13065	8.9518	5.0909	0.	-39.001
13066	8.8595	5.	0.	-46.837
13067	8.8595	5.0909	5.e-002	-1.8992e-005
13068	9.1364	5.0909	0.	-39.051
13069	9.0441	5.	0.	-46.575
13070	9.0441	5.0909	5.e-002	-8.1207e-006
13071	9.3211	5.0909	0.	-38.451
13072	9.2288	5.	0.	-45.647
13073	9.2288	5.0909	5.e-002	-9.0302e-006
13074	9.5057	5.0909	0.	-37.34
13075	9.4134	5.	0.	-44.196
13076	9.4134	5.0909	5.e-002	-1.0602e-005
13077	9.6904	5.0909	0.	-35.837
13078	9.598	5.	0.	-42.347
13079	9.598	5.0909	5.e-002	-6.7577e-006
13080	9.875	5.0909	0.	-34.041
13081	9.7827	5.	0.	-40.204
13082	9.7827	5.0909	5.e-002	-6.2243e-006
13083	10.06	5.0909	0.	-32.036
13084	9.9673	5.	0.	-37.856
13085	9.9673	5.0909	5.e-002	-6.3266e-006
13086	10.244	5.0909	0.	-29.893
13087	10.152	5.	0.	-35.374
13088	10.152	5.0909	5.e-002	-5.1745e-006
13089	10.429	5.0909	0.	-27.667
13090	10.337	5.	0.	-32.819
13091	10.337	5.0909	5.e-002	-5.3833e-006
13092	10.614	5.0909	0.	-25.405
13093	10.521	5.	0.	-30.238
13094	10.521	5.0909	5.e-002	-3.6671e-006
13095	10.798	5.0909	0.	-23.143
13096	10.706	5.	0.	-27.668
13097	10.706	5.0909	5.e-002	-2.5206e-006
13098	10.983	5.0909	0.	-20.908
13099	10.891	5.	0.	-25.14
13100	10.891	5.0909	5.e-002	-3.1346e-006
13101	11.167	5.0909	0.	-18.722
13102	11.075	5.	0.	-22.674
13103	11.075	5.0909	5.e-002	-2.0292e-006
13104	11.352	5.0909	0.	-16.6
13105	11.26	5.	0.	-20.287
13106	11.26	5.0909	5.e-002	-9.4913e-007
13107	11.537	5.0909	0.	-14.554
13108	11.444	5.	0.	-17.99
13109	11.444	5.0909	5.e-002	-1.0759e-006
13110	11.721	5.0909	0.	-12.592
13111	11.629	5.	0.	-15.791
13112	11.629	5.0909	5.e-002	-8.5202e-007
13113	11.906	5.0909	0.	-10.717
13114	11.814	5.	0.	-13.695
13115	11.814	5.0909	5.e-002	1.2404e-007
13116	12.091	5.0909	0.	-8.9313
13117	11.998	5.	0.	-11.702
13118	11.998	5.0909	5.e-002	2.5524e-007
13119	12.275	5.0909	0.	-7.2361
13120	12.183	5.	0.	-9.8122
13121	12.183	5.0909	5.e-002	-4.425e-007
13122	12.46	5.0909	0.	-5.6299
13123	12.368	5.	0.	-8.0246
13124	12.368	5.0909	5.e-002	1.7331e-007
13125	12.645	5.0909	0.	-4.1105
13126	12.552	5.	0.	-6.336
13127	12.552	5.0909	5.e-002	1.6651e-006
13128	12.829	5.0909	0.	-2.6754
13129	12.737	5.	0.	-4.7428
13130	12.737	5.0909	5.e-002	2.159e-006
13131	13.014	5.0909	0.	-1.3245
13132	12.922	5.	0.	-3.2412
13133	12.922	5.0909	5.e-002	2.4889e-006
13134	13.199	5.0909	0.	-0.14994
13135	13.106	5.	0.	-1.8283
13136	13.106	5.0909	5.e-002	3.2485e-006
13137	13.383	5.0909	0.	-1.3886e-002
13138	13.291	5.	0.	-0.51977
13139	13.291	5.0909	5.e-002	2.6962e-006
13140	13.568	5.0909	0.	-6.5552e-003
13141	13.475	5.	0.	-2.3899e-002
13142	13.475	5.0909	5.e-002	2.8132e-006
13143	13.752	5.0909	0.	-4.232e-003
13144	13.66	5.	0.	-8.715e-003
13145	13.66	5.0909	5.e-002	3.1169e-006
13146	13.937	5.0909	0.	-3.1499e-003
13147	13.845	5.	0.	-5.0557e-003
13148	13.845	5.0909	5.e-002	3.4151e-006
13149	14.122	5.0909	0.	-2.5538e-003
13150	14.029	5.	0.	-3.4682e-003
13151	14.029	5.0909	5.e-002	3.1959e-006
13152	14.306	5.0909	0.	-2.1948e-003
13153	14.214	5.	0.	-2.6054e-003
13154	14.214	5.0909	5.e-002	2.8468e-006
13155	14.491	5.0909	0.	-1.9665e-003
13156	14.399	5.	0.	-2.0767e-003
13157	14.399	5.0909	5.e-002	3.1498e-006
13158	14.676	5.0909	0.	-1.8157e-003
13159	14.583	5.	0.	-1.7267e-003
13160	14.583	5.0909	5.e-002	3.3323e-006
13161	14.86	5.0909	0.	-1.7131e-003
13162	14.768	5.	0.	-1.48e-003
13163	14.768	5.0909	5.e-002	4.421e-006
13164	15.045	5.0909	0.	-1.6421e-003
13165	14.953	5.	0.	-1.2993e-003
13166	14.953	5.0909	5.e-002	3.1295e-006
13167	15.23	5.0909	0.	-1.592e-003
13168	15.137	5.	0.	-1.1612e-003
13169	15.137	5.0909	5.e-002	4.4722e-006
13170	15.414	5.0909	0.	-1.5568e-003
13171	15.322	5.	0.	-1.0509e-003
13172	15.322	5.0909	5.e-002	4.1719e-006
13173	15.599	5.0909	0.	-1.531e-003
13174	15.507	5.	0.	-9.6156e-004
13175	15.507	5.0909	5.e-002	2.3405e-006
13176	15.783	5.0909	0.	-1.5111e-003
13177	15.691	5.	0.	-8.8391e-004
13178	15.691	5.0909	5.e-002	2.6549e-006
13179	15.968	5.0909	0.	-1.4961e-003
13180	15.876	5.	0.	-8.1627e-004
13181	15.876	5.0909	5.e-002	2.2756e-006
13182	16.153	5.0909	0.	-1.4829e-003
13183	16.06	5.	0.	-7.5359e-004
13184	16.06	5.0909	5.e-002	2.9883e-006
13185	16.337	5.0909	0.	-1.4715e-003
13186	16.245	5.	0.	-6.9478e-004
13187	16.245	5.0909	5.e-002	3.1239e-006
13188	16.522	5.0909	0.	-1.4555e-003
13189	16.43	5.	0.	-6.384e-004
13190	16.43	5.0909	5.e-002	3.6257e-006
13191	16.707	5.0909	0.	-1.4379e-003
13192	16.614	5.	0.	-5.7294e-004
13193	16.614	5.0909	5.e-002	3.8128e-006
13194	16.891	5.0909	0.	-1.4302e-003
13195	16.799	5.	0.	-5.1239e-004
13196	16.799	5.0909	5.e-002	4.6793e-006
13197	17.076	5.0909	0.	-1.4185e-003
13198	16.984	5.	0.	-4.6671e-004
13199	16.984	5.0909	5.e-002	4.3926e-006
13200	17.261	5.0909	0.	-1.3937e-003
13201	17.168	5.	0.	-3.9814e-004
13202	17.168	5.0909	5.e-002	3.3427e-006
13203	17.445	5.0909	0.	-1.3684e-003
13204	17.353	5.	0.	-3.235e-004
13205	17.353	5.0909	5.e-002	4.0439e-006
13206	17.63	5.0909	0.	-1.3413e-003
13207	17.538	5.	0.	-2.5032e-004
13208	17.538	5.0909	5.e-002	4.7718e-006
13209	17.815	5.0909	0.	-1.3074e-003
13210	17.722	5.	0.	-1.6817e-004
13211	17.722	5.0909	5.e-002	4.6876e-006
13212	17.999	5.0909	0.	-1.269e-003
13213	17.907	5.	0.	-7.8487e-005
13214	17.907	5.0909	5.e-002	4.9976e-006
13215	18.184	5.0909	0.	-1.2241e-003
13216	18.092	5.	0.	1.8276e-005
13217	18.092	5.0909	5.e-002	4.7233e-006
13218	18.368	5.0909	0.	-1.1701e-003
13219	18.276	5.	0.	1.2668e-004
13220	18.276	5.0909	5.e-002	4.1364e-006
13221	18.553	5.0909	0.	-1.1081e-003
13222	18.461	5.	0.	2.4781e-004
13223	18.461	5.0909	5.e-002	5.4825e-006
13224	18.738	5.0909	0.	-1.0356e-003
13225	18.645	5.	0.	3.802e-004
13226	18.645	5.0909	5.e-002	6.2237e-006
13227	18.922	5.0909	0.	-9.5008e-004
13228	18.83	5.	0.	5.3122e-004
13229	18.83	5.0909	5.e-002	7.3701e-006
13230	19.107	5.0909	0.	-8.4982e-004
13231	19.015	5.	0.	6.9877e-004
13232	19.015	5.0909	5.e-002	7.5519e-006
13233	19.292	5.0909	0.	-7.3114e-004
13234	19.199	5.	0.	8.8975e-004
13235	19.199	5.0909	5.e-002	5.7394e-006
13236	19.476	5.0909	0.	-5.903e-004
13237	19.384	5.	0.	1.1061e-003
13238	19.384	5.0909	5.e-002	6.5963e-006
13239	19.661	5.0909	0.	-4.2377e-004
13240	19.569	5.	0.	1.3534e-003
13241	19.569	5.0909	5.e-002	6.5706e-006
13242	19.846	5.0909	0.	-2.2593e-004
13243	19.753	5.	0.	1.635e-003
13244	19.753	5.0909	5.e-002	9.5224e-006
13245	20.03	5.0909	0.	8.3915e-006
13246	19.938	5.	0.	1.9598e-003
13247	19.938	5.0909	5.e-002	7.1784e-006
13248	20.215	5.0909	0.	2.9038e-004
13249	20.123	5.	0.	2.3355e-003
13250	20.123	5.0909	5.e-002	4.5737e-006
13251	20.4	5.0909	0.	6.3122e-004
13252	20.307	5.	0.	2.7753e-003
13253	20.307	5.0909	5.e-002	7.0507e-006
13254	20.584	5.0909	0.	1.0437e-003
13255	20.492	5.	0.	3.2904e-003
13256	20.492	5.0909	5.e-002	4.9147e-006
13257	20.769	5.0909	0.	1.5473e-003
13258	20.676	5.	0.	3.899e-003
13259	20.676	5.0909	5.e-002	4.6836e-006
13260	20.953	5.0909	0.	2.1641e-003
13261	20.861	5.	0.	4.6228e-003
13262	20.861	5.0909	5.e-002	4.6976e-006
13263	21.138	5.0909	0.	2.9252e-003
13264	21.046	5.	0.	5.4896e-003
13265	21.046	5.0909	5.e-002	6.2944e-006
13266	21.323	5.0909	0.	3.87e-003
13267	21.23	5.	0.	6.5393e-003
13268	21.23	5.0909	5.e-002	7.9404e-006
13269	21.507	5.0909	0.	5.0531e-003
13270	21.415	5.	0.	7.8166e-003
13271	21.415	5.0909	5.e-002	1.1909e-005
13272	21.692	5.0909	0.	6.5512e-003
13273	21.6	5.	0.	9.3887e-003
13274	21.6	5.0909	5.e-002	1.2504e-005
13275	21.877	5.0909	0.	8.4601e-003
13276	21.784	5.	0.	1.1349e-002
13277	21.784	5.0909	5.e-002	1.0318e-005
13278	22.061	5.0909	0.	1.0916e-002
13279	21.969	5.	0.	1.3807e-002
13280	21.969	5.0909	5.e-002	7.8812e-006
13281	22.246	5.0909	0.	1.4122e-002
13282	22.154	5.	0.	1.6935e-002
13283	22.154	5.0909	5.e-002	5.5932e-006
13284	22.431	5.0909	0.	1.8384e-002
13285	22.338	5.	0.	2.0974e-002
13286	22.338	5.0909	5.e-002	5.1102e-006
13287	22.615	5.0909	0.	2.4083e-002
13288	22.523	5.	0.	2.6318e-002
13289	22.523	5.0909	5.e-002	8.5921e-006
13290	22.8	5.0909	0.	3.2148e-002
13291	22.708	5.	0.	3.3361e-002
13292	22.708	5.0909	5.e-002	9.2866e-006
13293	22.984	5.0909	0.	4.2861e-002
13294	22.892	5.	0.	4.3626e-002
13295	22.892	5.0909	5.e-002	6.5825e-006
13296	23.169	5.0909	0.	6.1966e-002
13297	23.077	5.	0.	5.6292e-002
13298	23.077	5.0909	5.e-002	8.9654e-006
13299	23.354	5.0909	0.	8.005e-002
13300	23.261	5.	0.	8.4134e-002
13301	23.261	5.0909	5.e-002	8.3857e-006
13302	23.538	5.0909	0.	0.16508
13303	23.446	5.	0.	9.6636e-002
13304	23.446	5.0909	5.e-002	5.7631e-006
13305	23.723	5.0909	0.	0.13106
13306	23.631	5.	0.	0.26649
13307	23.631	5.0909	5.e-002	2.4184e-006
13308	23.815	5.	0.	8.896e-002
13309	23.815	5.0909	5.e-002	8.9925e-006
13310	23.908	5.0909	0.	0.3895
13311	5.4436	4.9091	0.	-6.1322
13312	5.3513	4.8182	0.	-10.301
13313	5.3513	4.9091	5.e-002	-3.7893e-005
13314	5.259	4.9091	0.	0.80041
13315	5.6283	4.9091	0.	-2.1105
13316	5.5359	4.8182	0.	-0.85364
13317	5.5359	4.9091	5.e-002	-9.3045e-005
13318	5.8129	4.9091	0.	-3.0535
13319	5.7206	4.8182	0.	-3.7857
13320	5.7206	4.9091	5.e-002	-1.4879e-004
13321	5.9975	4.9091	0.	-2.5419
13322	5.9052	4.8182	0.	-2.885
13323	5.9052	4.9091	5.e-002	-1.6207e-004
13324	6.1822	4.9091	0.	-2.4168
13325	6.0899	4.8182	0.	-2.7886
13326	6.0899	4.9091	5.e-002	-1.7045e-004
13327	6.3668	4.9091	0.	-2.3007
13328	6.2745	4.8182	0.	-2.735
13329	6.2745	4.9091	5.e-002	-1.689e-004
13330	6.5515	4.9091	0.	-2.3184
13331	6.4592	4.8182	0.	-2.9246
13332	6.4592	4.9091	5.e-002	-1.7063e-004
13333	6.7361	4.9091	0.	-2.5078
13334	6.6438	4.8182	0.	-3.4728
13335	6.6438	4.9091	5.e-002	-1.8794e-004
13336	6.9208	4.9091	0.	-3.0847
13337	6.8284	4.8182	0.	-5.0228
13338	6.8284	4.9091	5.e-002	-2.1389e-004
13339	7.1054	4.9091	0.	-4.9617
13340	7.0131	4.8182	0.	-10.49
13341	7.0131	4.9091	5.e-002	-1.6166e-004
13342	7.29	4.9091	0.	-11.643
13343	7.1977	4.8182	0.	-22.868
13344	7.1977	4.9091	5.e-002	-1.5798e-004
13345	7.4747	4.9091	0.	-22.635
13346	7.3824	4.8182	0.	-35.549
13347	7.3824	4.9091	5.e-002	-1.4821e-004
13348	7.6593	4.9091	0.	-32.643
13349	7.567	4.8182	0.	-45.698
13350	7.567	4.9091	5.e-002	-1.3227e-004
13351	7.844	4.9091	0.	-40.561
13352	7.7516	4.8182	0.	-53.316
13353	7.7516	4.9091	5.e-002	-8.6191e-005
13354	8.0286	4.9091	0.	-46.473
13355	7.9363	4.8182	0.	-58.752
13356	7.9363	4.9091	5.e-002	-6.9326e-005
13357	8.2132	4.9091	0.	-50.623
13358	8.1209	4.8182	0.	-62.346
13359	8.1209	4.9091	5.e-002	-5.4455e-005
13360	8.3979	4.9091	0.	-53.263
13361	8.3056	4.8182	0.	-64.398
13362	8.3056	4.9091	5.e-002	-4.234e-005
13363	8.5825	4.9091	0.	-54.631
13364	8.4902	4.8182	0.	-65.171
13365	8.4902	4.9091	5.e-002	-2.4593e-005
13366	8.7672	4.9091	0.	-54.943
13367	8.6748	4.8182	0.	-64.893
13368	8.6748	4.9091	5.e-002	-2.0097e-005
13369	8.9518	4.9091	0.	-54.393
13370	8.8595	4.8182	0.	-63.767
13371	8.8595	4.9091	5.e-002	-1.3323e-005
13372	9.1364	4.9091	0.	-53.154
13373	9.0441	4.8182	0.	-61.969
13374	9.0441	4.9091	5.e-002	-1.9351e-005
13375	9.3211	4.9091	0.	-51.376
13376	9.2288	4.8182	0.	-59.65
13377	9.2288	4.9091	5.e-002	-1.1288e-005
13378	9.5057	4.9091	0.	-49.188
13379	9.4134	4.8182	0.	-56.943
13380	9.4134	4.9091	5.e-002	-1.3491e-005
13381	9.6904	4.9091	0.	-46.7
13382	9.598	4.8182	0.	-53.959
13383	9.598	4.9091	5.e-002	-8.9573e-006
13384	9.875	4.9091	0.	-44.005
13385	9.7827	4.8182	0.	-50.791
13386	9.7827	4.9091	5.e-002	-1.142e-005
13387	10.06	4.9091	0.	-41.18
13388	9.9673	4.8182	0.	-47.515
13389	9.9673	4.9091	5.e-002	-7.4196e-006
13390	10.244	4.9091	0.	-38.287
13391	10.152	4.8182	0.	-44.195
13392	10.152	4.9091	5.e-002	-6.8983e-006
13393	10.429	4.9091	0.	-35.375
13394	10.337	4.8182	0.	-40.881
13395	10.337	4.9091	5.e-002	-4.7972e-006
13396	10.614	4.9091	0.	-32.486
13397	10.521	4.8182	0.	-37.611
13398	10.521	4.9091	5.e-002	-5.29e-006
13399	10.798	4.9091	0.	-29.65
13400	10.706	4.8182	0.	-34.417
13401	10.706	4.9091	5.e-002	-3.5453e-006
13402	10.983	4.9091	0.	-26.89
13403	10.891	4.8182	0.	-31.322
13404	10.891	4.9091	5.e-002	-3.2168e-006
13405	11.167	4.9091	0.	-24.223
13406	11.075	4.8182	0.	-28.34
13407	11.075	4.9091	5.e-002	-2.8973e-006
13408	11.352	4.9091	0.	-21.66
13409	11.26	4.8182	0.	-25.484
13410	11.26	4.9091	5.e-002	-1.7433e-006
13411	11.537	4.9091	0.	-19.21
13412	11.444	4.8182	0.	-22.759
13413	11.444	4.9091	5.e-002	-1.4495e-006
13414	11.721	4.9091	0.	-16.877
13415	11.629	4.8182	0.	-20.17
13416	11.629	4.9091	5.e-002	-1.0607e-006
13417	11.906	4.9091	0.	-14.661
13418	11.814	4.8182	0.	-17.717
13419	11.814	4.9091	5.e-002	2.3182e-007
13420	12.091	4.9091	0.	-12.564
13421	11.998	4.8182	0.	-15.399
13422	11.998	4.9091	5.e-002	9.4827e-008
13423	12.275	4.9091	0.	-10.581
13424	12.183	4.8182	0.	-13.211
13425	12.183	4.9091	5.e-002	-2.8825e-007
13426	12.46	4.9091	0.	-8.7107
13427	12.368	4.8182	0.	-11.15
13428	12.368	4.9091	5.e-002	4.2525e-007
13429	12.645	4.9091	0.	-6.9478
13430	12.552	4.8182	0.	-9.2111
13431	12.552	4.9091	5.e-002	2.103e-006
13432	12.829	4.9091	0.	-5.2878
13433	12.737	4.8182	0.	-7.3877
13434	12.737	4.9091	5.e-002	2.3475e-006
13435	13.014	4.9091	0.	-3.7255
13436	12.922	4.8182	0.	-5.6739
13437	12.922	4.9091	5.e-002	2.9508e-006
13438	13.199	4.9091	0.	-2.2567
13439	13.106	4.8182	0.	-4.0635
13440	13.106	4.9091	5.e-002	3.7039e-006
13441	13.383	4.9091	0.	-0.88459
13442	13.291	4.8182	0.	-2.5509
13443	13.291	4.9091	5.e-002	3.1495e-006
13444	13.568	4.9091	0.	-4.2854e-002
13445	13.475	4.8182	0.	-1.1356
13446	13.475	4.9091	5.e-002	3.5375e-006
13447	13.752	4.9091	0.	-1.0877e-002
13448	13.66	4.8182	0.	-7.334e-002
13449	13.66	4.9091	5.e-002	3.6975e-006
13450	13.937	4.9091	0.	-5.6456e-003
13451	13.845	4.8182	0.	-1.2554e-002
13452	13.845	4.9091	5.e-002	3.7739e-006
13453	14.122	4.9091	0.	-3.5671e-003
13454	14.029	4.8182	0.	-5.9054e-003
13455	14.029	4.9091	5.e-002	3.6704e-006
13456	14.306	4.9091	0.	-2.4688e-003
13457	14.214	4.8182	0.	-3.4452e-003
13458	14.214	4.9091	5.e-002	3.2743e-006
13459	14.491	4.9091	0.	-1.7979e-003
13460	14.399	4.8182	0.	-2.1721e-003
13461	14.399	4.9091	5.e-002	3.7212e-006
13462	14.676	4.9091	0.	-1.3472e-003
13463	14.583	4.8182	0.	-1.3957e-003
13464	14.583	4.9091	5.e-002	3.8958e-006
13465	14.86	4.9091	0.	-1.0238e-003
13466	14.768	4.8182	0.	-8.6952e-004
13467	14.768	4.9091	5.e-002	5.1769e-006
13468	15.045	4.9091	0.	-7.7997e-004
13469	14.953	4.8182	0.	-4.8746e-004
13470	14.953	4.9091	5.e-002	3.7708e-006
13471	15.23	4.9091	0.	-5.8663e-004
13472	15.137	4.8182	0.	-1.9176e-004
13473	15.137	4.9091	5.e-002	5.4865e-006
13474	15.414	4.9091	0.	-4.275e-004
13475	15.322	4.8182	0.	4.6402e-005
13476	15.322	4.9091	5.e-002	4.7039e-006
13477	15.599	4.9091	0.	-2.917e-004
13478	15.507	4.8182	0.	2.482e-004
13479	15.507	4.9091	5.e-002	3.3503e-006
13480	15.783	4.9091	0.	-1.7151e-004
13481	15.691	4.8182	0.	4.2351e-004
13482	15.691	4.9091	5.e-002	3.2027e-006
13483	15.968	4.9091	0.	-6.1431e-005
13484	15.876	4.8182	0.	5.8235e-004
13485	15.876	4.9091	5.e-002	2.9649e-006
13486	16.153	4.9091	0.	4.1883e-005
13487	16.06	4.8182	0.	7.2987e-004
13488	16.06	4.9091	5.e-002	3.5627e-006
13489	16.337	4.9091	0.	1.4059e-004
13490	16.245	4.8182	0.	8.7028e-004
13491	16.245	4.9091	5.e-002	3.56e-006
13492	16.522	4.9091	0.	2.4154e-004
13493	16.43	4.8182	0.	1.0055e-003
13494	16.43	4.9091	5.e-002	4.1501e-006
13495	16.707	4.9091	0.	3.4499e-004
13496	16.614	4.8182	0.	1.1483e-003
13497	16.614	4.9091	5.e-002	4.5866e-006
13498	16.891	4.9091	0.	4.3854e-004
13499	16.799	4.8182	0.	1.2878e-003
13500	16.799	4.9091	5.e-002	5.5187e-006
13501	17.076	4.9091	0.	5.3599e-004
13502	16.984	4.8182	0.	1.4127e-003
13503	16.984	4.9091	5.e-002	4.784e-006
13504	17.261	4.9091	0.	6.4915e-004
13505	17.168	4.8182	0.	1.5604e-003
13506	17.168	4.9091	5.e-002	4.1159e-006
13507	17.445	4.9091	0.	7.662e-004
13508	17.353	4.8182	0.	1.7178e-003
13509	17.353	4.9091	5.e-002	4.9088e-006
13510	17.63	4.9091	0.	8.8878e-004
13511	17.538	4.8182	0.	1.8759e-003
13512	17.538	4.9091	5.e-002	5.6479e-006
13513	17.815	4.9091	0.	1.0207e-003
13514	17.722	4.8182	0.	2.0461e-003
13515	17.722	4.9091	5.e-002	5.5064e-006
13516	17.999	4.9091	0.	1.1624e-003
13517	17.907	4.8182	0.	2.2269e-003
13518	17.907	4.9091	5.e-002	5.6126e-006
13519	18.184	4.9091	0.	1.3159e-003
13520	18.092	4.8182	0.	2.4202e-003
13521	18.092	4.9091	5.e-002	5.6871e-006
13522	18.368	4.9091	0.	1.4841e-003
13523	18.276	4.8182	0.	2.6293e-003
13524	18.276	4.9091	5.e-002	4.8773e-006
13525	18.553	4.9091	0.	1.6677e-003
13526	18.461	4.8182	0.	2.8574e-003
13527	18.461	4.9091	5.e-002	6.342e-006
13528	18.738	4.9091	0.	1.87e-003
13529	18.645	4.8182	0.	3.1041e-003
13530	18.645	4.9091	5.e-002	7.0107e-006
13531	18.922	4.9091	0.	2.0936e-003
13532	18.83	4.8182	0.	3.374e-003
13533	18.83	4.9091	5.e-002	8.7981e-006
13534	19.107	4.9091	0.	2.3416e-003
13535	19.015	4.8182	0.	3.6693e-003
13536	19.015	4.9091	5.e-002	8.8691e-006
13537	19.292	4.9091	0.	2.6188e-003
13538	19.199	4.8182	0.	3.9977e-003
13539	19.199	4.9091	5.e-002	6.5782e-006
13540	19.476	4.9091	0.	2.9291e-003
13541	19.384	4.8182	0.	4.3587e-003
13542	19.384	4.9091	5.e-002	7.1691e-006
13543	19.661	4.9091	0.	3.2776e-003
13544	19.569	4.8182	0.	4.763e-003
13545	19.569	4.9091	5.e-002	7.62e-006
13546	19.846	4.9091	0.	3.6707e-003
13547	19.753	4.8182	0.	5.2115e-003
13548	19.753	4.9091	5.e-002	1.0301e-005
13549	20.03	4.9091	0.	4.1195e-003
13550	19.938	4.8182	0.	5.7173e-003
13551	19.938	4.9091	5.e-002	8.0636e-006
13552	20.215	4.9091	0.	4.6336e-003
13553	20.123	4.8182	0.	6.2895e-003
13554	20.123	4.9091	5.e-002	5.7522e-006
13555	20.4	4.9091	0.	5.2257e-003
13556	20.307	4.8182	0.	6.9392e-003
13557	20.307	4.9091	5.e-002	8.2426e-006
13558	20.584	4.9091	0.	5.912e-003
13559	20.492	4.8182	0.	7.6829e-003
13560	20.492	4.9091	5.e-002	6.7184e-006
13561	20.769	4.9091	0.	6.7123e-003
13562	20.676	4.8182	0.	8.5379e-003
13563	20.676	4.9091	5.e-002	6.1639e-006
13564	20.953	4.9091	0.	7.6535e-003
13565	20.861	4.8182	0.	9.5302e-003
13566	20.861	4.9091	5.e-002	5.9817e-006
13567	21.138	4.9091	0.	8.7711e-003
13568	21.046	4.8182	0.	1.069e-002
13569	21.046	4.9091	5.e-002	7.1772e-006
13570	21.323	4.9091	0.	1.0109e-002
13571	21.23	4.8182	0.	1.2058e-002
13572	21.23	4.9091	5.e-002	9.8327e-006
13573	21.507	4.9091	0.	1.1723e-002
13574	21.415	4.8182	0.	1.3682e-002
13575	21.415	4.9091	5.e-002	1.3223e-005
13576	21.692	4.9091	0.	1.3694e-002
13577	21.6	4.8182	0.	1.5632e-002
13578	21.6	4.9091	5.e-002	1.2423e-005
13579	21.877	4.9091	0.	1.6127e-002
13580	21.784	4.8182	0.	1.8005e-002
13581	21.784	4.9091	5.e-002	1.1378e-005
13582	22.061	4.9091	0.	1.916e-002
13583	21.969	4.8182	0.	2.0915e-002
13584	21.969	4.9091	5.e-002	1.0204e-005
13585	22.246	4.9091	0.	2.2998e-002
13586	22.154	4.8182	0.	2.4534e-002
13587	22.154	4.9091	5.e-002	7.2688e-006
13588	22.431	4.9091	0.	2.7954e-002
13589	22.338	4.8182	0.	2.9103e-002
13590	22.338	4.9091	5.e-002	5.6746e-006
13591	22.615	4.9091	0.	3.4407e-002
13592	22.523	4.8182	0.	3.5022e-002
13593	22.523	4.9091	5.e-002	1.0077e-005
13594	22.8	4.9091	0.	4.3293e-002
13595	22.708	4.8182	0.	4.2683e-002
13596	22.708	4.9091	5.e-002	9.9971e-006
13597	22.984	4.9091	0.	5.4908e-002
13598	22.892	4.8182	0.	5.3631e-002
13599	22.892	4.9091	5.e-002	8.6314e-006
13600	23.169	4.9091	0.	7.5125e-002
13601	23.077	4.8182	0.	6.7069e-002
13602	23.077	4.9091	5.e-002	8.9991e-006
13603	23.354	4.9091	0.	9.4523e-002
13604	23.261	4.8182	0.	9.5994e-002
13605	23.261	4.9091	5.e-002	9.9312e-006
13606	23.538	4.9091	0.	0.18256
13607	23.446	4.8182	0.	0.10978
13608	23.446	4.9091	5.e-002	5.6608e-006
13609	23.723	4.9091	0.	0.15551
13610	23.631	4.8182	0.	0.28405
13611	23.631	4.9091	5.e-002	4.1861e-006
13612	23.815	4.8182	0.	0.1179
13613	23.815	4.9091	5.e-002	9.0951e-006
13614	23.908	4.9091	0.	0.39979
13615	5.4436	4.7273	0.	-5.4472
13616	5.3513	4.6364	0.	-19.67
13617	5.3513	4.7273	5.e-002	-4.572e-005
13618	5.259	4.7273	0.	7.0884
13619	5.6283	4.7273	0.	-2.5564
13620	5.5359	4.6364	0.	-1.6269
13621	5.5359	4.7273	5.e-002	-1.8411e-004
13622	5.8129	4.7273	0.	-3.6038
13623	5.7206	4.6364	0.	-4.305
13624	5.7206	4.7273	5.e-002	-2.226e-004
13625	5.9975	4.7273	0.	-3.105
13626	5.9052	4.6364	0.	-3.6293
13627	5.9052	4.7273	5.e-002	-2.4075e-004
13628	6.1822	4.7273	0.	-3.0975
13629	6.0899	4.6364	0.	-3.5499
13630	6.0899	4.7273	5.e-002	-2.33e-004
13631	6.3668	4.7273	0.	-3.4198
13632	6.2745	4.6364	0.	-3.9935
13633	6.2745	4.7273	5.e-002	-2.8065e-004
13634	6.5515	4.7273	0.	-4.3841
13635	6.4592	4.6364	0.	-5.6614
13636	6.4592	4.7273	5.e-002	-1.9614e-004
13637	6.7361	4.7273	0.	-7.3755
13638	6.6438	4.6364	0.	-11.987
13639	6.6438	4.7273	5.e-002	-2.3435e-004
13640	6.9208	4.7273	0.	-17.924
13641	6.8284	4.6364	0.	-31.223
13642	6.8284	4.7273	5.e-002	-1.9533e-004
13643	7.1054	4.7273	0.	-34.513
13644	7.0131	4.6364	0.	-51.705
13645	7.0131	4.7273	5.e-002	-1.5237e-004
13646	7.29	4.7273	0.	-48.569
13647	7.1977	4.6364	0.	-66.731
13648	7.1977	4.7273	5.e-002	-1.4019e-004
13649	7.4747	4.7273	0.	-59.044
13650	7.3824	4.6364	0.	-77.082
13651	7.3824	4.7273	5.e-002	-1.2767e-004
13652	7.6593	4.7273	0.	-66.512
13653	7.567	4.6364	0.	-83.909
13654	7.567	4.7273	5.e-002	-8.8285e-005
13655	7.844	4.7273	0.	-71.554
13656	7.7516	4.6364	0.	-88.067
13657	7.7516	4.7273	5.e-002	-7.4911e-005
13658	8.0286	4.7273	0.	-74.633
13659	7.9363	4.6364	0.	-90.159
13660	7.9363	4.7273	5.e-002	-6.4905e-005
13661	8.2132	4.7273	0.	-76.114
13662	8.1209	4.6364	0.	-90.628
13663	8.1209	4.7273	5.e-002	-3.9064e-005
13664	8.3979	4.7273	0.	-76.292
13665	8.3056	4.6364	0.	-89.813
13666	8.3056	4.7273	5.e-002	-4.4068e-005
13667	8.5825	4.7273	0.	-75.417
13668	8.4902	4.6364	0.	-87.984
13669	8.4902	4.7273	5.e-002	-2.9202e-005
13670	8.7672	4.7273	0.	-73.702
13671	8.6748	4.6364	0.	-85.365
13672	8.6748	4.7273	5.e-002	-2.439e-005
13673	8.9518	4.7273	0.	-71.327
13674	8.8595	4.6364	0.	-82.141
13675	8.8595	4.7273	5.e-002	-1.5882e-005
13676	9.1364	4.7273	0.	-68.45
13677	9.0441	4.6364	0.	-78.47
13678	9.0441	4.7273	5.e-002	-1.164e-005
13679	9.3211	4.7273	0.	-65.204
13680	9.2288	4.6364	0.	-74.483
13681	9.2288	4.7273	5.e-002	-1.3241e-005
13682	9.5057	4.7273	0.	-61.701
13683	9.4134	4.6364	0.	-70.291
13684	9.4134	4.7273	5.e-002	-1.0797e-005
13685	9.6904	4.7273	0.	-58.037
13686	9.598	4.6364	0.	-65.986
13687	9.598	4.7273	5.e-002	-8.4787e-006
13688	9.875	4.7273	0.	-54.288
13689	9.7827	4.6364	0.	-61.643
13690	9.7827	4.7273	5.e-002	-7.9229e-006
13691	10.06	4.7273	0.	-50.518
13692	9.9673	4.6364	0.	-57.321
13693	9.9673	4.7273	5.e-002	-7.507e-006
13694	10.244	4.7273	0.	-46.776
13695	10.152	4.6364	0.	-53.069
13696	10.152	4.7273	5.e-002	-6.5931e-006
13697	10.429	4.7273	0.	-43.103
13698	10.337	4.6364	0.	-48.923
13699	10.337	4.7273	5.e-002	-6.5999e-006
13700	10.614	4.7273	0.	-39.529
13701	10.521	4.6364	0.	-44.91
13702	10.521	4.7273	5.e-002	-4.8914e-006
13703	10.798	4.7273	0.	-36.075
13704	10.706	4.6364	0.	-41.05
13705	10.706	4.7273	5.e-002	-3.5824e-006
13706	10.983	4.7273	0.	-32.757
13707	10.891	4.6364	0.	-37.358
13708	10.891	4.7273	5.e-002	-3.7954e-006
13709	11.167	4.7273	0.	-29.586
13710	11.075	4.6364	0.	-33.84
13711	11.075	4.7273	5.e-002	-3.132e-006
13712	11.352	4.7273	0.	-26.567
13713	11.26	4.6364	0.	-30.501
13714	11.26	4.7273	5.e-002	-2.2451e-006
13715	11.537	4.7273	0.	-23.703
13716	11.444	4.6364	0.	-27.341
13717	11.444	4.7273	5.e-002	-1.5601e-006
13718	11.721	4.7273	0.	-20.994
13719	11.629	4.6364	0.	-24.359
13720	11.629	4.7273	5.e-002	-1.7664e-006
13721	11.906	4.7273	0.	-18.437
13722	11.814	4.6364	0.	-21.549
13723	11.814	4.7273	5.e-002	-6.934e-007
13724	12.091	4.7273	0.	-16.028
13725	11.998	4.6364	0.	-18.908
13726	11.998	4.7273	5.e-002	-1.0762e-007
13727	12.275	4.7273	0.	-13.761
13728	12.183	4.6364	0.	-16.427
13729	12.183	4.7273	5.e-002	-7.0535e-007
13730	12.46	4.7273	0.	-11.631
13731	12.368	4.6364	0.	-14.099
13732	12.368	4.7273	5.e-002	-1.4088e-007
13733	12.645	4.7273	0.	-9.6308
13734	12.552	4.6364	0.	-11.916
13735	12.552	4.7273	5.e-002	1.6807e-006
13736	12.829	4.7273	0.	-7.7531
13737	12.737	4.6364	0.	-9.8704
13738	12.737	4.7273	5.e-002	1.9218e-006
13739	13.014	4.7273	0.	-5.9907
13740	12.922	4.6364	0.	-7.953
13741	12.922	4.7273	5.e-002	2.5399e-006
13742	13.199	4.7273	0.	-4.3364
13743	13.106	4.6364	0.	-6.1558
13744	13.106	4.7273	5.e-002	3.6677e-006
13745	13.383	4.7273	0.	-2.7837
13746	13.291	4.6364	0.	-4.4704
13747	13.291	4.7273	5.e-002	2.7542e-006
13748	13.568	4.7273	0.	-1.3298
13749	13.475	4.6364	0.	-2.8897
13750	13.475	4.7273	5.e-002	2.9082e-006
13751	13.752	4.7273	0.	-0.12068
13752	13.66	4.6364	0.	-1.4096
13753	13.66	4.7273	5.e-002	3.0552e-006
13754	13.937	4.7273	0.	-1.3591e-002
13755	13.845	4.6364	0.	-0.14485
13756	13.845	4.7273	5.e-002	3.2598e-006
13757	14.122	4.7273	0.	-5.7865e-003
13758	14.029	4.6364	0.	-1.3316e-002
13759	14.029	4.7273	5.e-002	3.3226e-006
13760	14.306	4.7273	0.	-3.0721e-003
13761	14.214	4.6364	0.	-5.2323e-003
13762	14.214	4.7273	5.e-002	2.6843e-006
13763	14.491	4.7273	0.	-1.6914e-003
13764	14.399	4.6364	0.	-2.4754e-003
13765	14.399	4.7273	5.e-002	3.3984e-006
13766	14.676	4.7273	0.	-8.5005e-004
13767	14.583	4.6364	0.	-1.0748e-003
13768	14.583	4.7273	5.e-002	3.8349e-006
13769	14.86	4.7273	0.	-2.772e-004
13770	14.768	4.6364	0.	-2.1588e-004
13771	14.768	4.7273	5.e-002	4.7319e-006
13772	15.045	4.7273	0.	1.4576e-004
13773	14.953	4.6364	0.	3.7719e-004
13774	14.953	4.7273	5.e-002	3.4367e-006
13775	15.23	4.7273	0.	4.7662e-004
13776	15.137	4.6364	0.	8.2043e-004
13777	15.137	4.7273	5.e-002	4.927e-006
13778	15.414	4.7273	0.	7.4898e-004
13779	15.322	4.6364	0.	1.1727e-003
13780	15.322	4.7273	5.e-002	4.1502e-006
13781	15.599	4.7273	0.	9.8276e-004
13782	15.507	4.6364	0.	1.4677e-003
13783	15.507	4.7273	5.e-002	2.9125e-006
13784	15.783	4.7273	0.	1.19e-003
13785	15.691	4.6364	0.	1.7244e-003
13786	15.691	4.7273	5.e-002	2.7036e-006
13787	15.968	4.7273	0.	1.3801e-003
13788	15.876	4.6364	0.	1.9561e-003
13789	15.876	4.7273	5.e-002	2.3897e-006
13790	16.153	4.7273	0.	1.5591e-003
13791	16.06	4.6364	0.	2.1711e-003
13792	16.06	4.7273	5.e-002	3.0271e-006
13793	16.337	4.7273	0.	1.7306e-003
13794	16.245	4.6364	0.	2.3759e-003
13795	16.245	4.7273	5.e-002	3.2715e-006
13796	16.522	4.7273	0.	1.9025e-003
13797	16.43	4.6364	0.	2.575e-003
13798	16.43	4.7273	5.e-002	3.8616e-006
13799	16.707	4.7273	0.	2.0764e-003
13800	16.614	4.6364	0.	2.7784e-003
13801	16.614	4.7273	5.e-002	3.9483e-006
13802	16.891	4.7273	0.	2.2424e-003
13803	16.799	4.6364	0.	2.9806e-003
13804	16.799	4.7273	5.e-002	4.4227e-006
13805	17.076	4.7273	0.	2.4127e-003
13806	16.984	4.6364	0.	3.1685e-003
13807	16.984	4.7273	5.e-002	4.3889e-006
13808	17.261	4.7273	0.	2.5997e-003
13809	17.168	4.6364	0.	3.3799e-003
13810	17.168	4.7273	5.e-002	3.0704e-006
13811	17.445	4.7273	0.	2.7933e-003
13812	17.353	4.6364	0.	3.6022e-003
13813	17.353	4.7273	5.e-002	4.334e-006
13814	17.63	4.7273	0.	2.9938e-003
13815	17.538	4.6364	0.	3.8276e-003
13816	17.538	4.7273	5.e-002	5.1089e-006
13817	17.815	4.7273	0.	3.2075e-003
13818	17.722	4.6364	0.	4.068e-003
13819	17.722	4.7273	5.e-002	5.0759e-006
13820	17.999	4.7273	0.	3.4343e-003
13821	17.907	4.6364	0.	4.3209e-003
13822	17.907	4.7273	5.e-002	5.2856e-006
13823	18.184	4.7273	0.	3.6773e-003
13824	18.092	4.6364	0.	4.5914e-003
13825	18.092	4.7273	5.e-002	4.9523e-006
13826	18.368	4.7273	0.	3.94e-003
13827	18.276	4.6364	0.	4.8807e-003
13828	18.276	4.7273	5.e-002	3.9695e-006
13829	18.553	4.7273	0.	4.2245e-003
13830	18.461	4.6364	0.	5.1926e-003
13831	18.461	4.7273	5.e-002	6.0113e-006
13832	18.738	4.7273	0.	4.5316e-003
13833	18.645	4.6364	0.	5.5271e-003
13834	18.645	4.7273	5.e-002	7.3682e-006
13835	18.922	4.7273	0.	4.8653e-003
13836	18.83	4.6364	0.	5.8919e-003
13837	18.83	4.7273	5.e-002	8.4651e-006
13838	19.107	4.7273	0.	5.2326e-003
13839	19.015	4.6364	0.	6.2856e-003
13840	19.015	4.7273	5.e-002	7.9657e-006
13841	19.292	4.7273	0.	5.6355e-003
13842	19.199	4.6364	0.	6.7211e-003
13843	19.199	4.7273	5.e-002	6.0805e-006
13844	19.476	4.7273	0.	6.0804e-003
13845	19.384	4.6364	0.	7.1945e-003
13846	19.384	4.7273	5.e-002	6.333e-006
13847	19.661	4.7273	0.	6.5736e-003
13848	19.569	4.6364	0.	7.7173e-003
13849	19.569	4.7273	5.e-002	6.9627e-006
13850	19.846	4.7273	0.	7.1224e-003
13851	19.753	4.6364	0.	8.2963e-003
13852	19.753	4.7273	5.e-002	9.4231e-006
13853	20.03	4.7273	0.	7.738e-003
13854	19.938	4.6364	0.	8.9398e-003
13855	19.938	4.7273	5.e-002	7.6712e-006
13856	20.215	4.7273	0.	8.4306e-003
13857	20.123	4.6364	0.	9.6578e-003
13858	20.123	4.7273	5.e-002	5.2226e-006
13859	20.4	4.7273	0.	9.2148e-003
13860	20.307	4.6364	0.	1.0465e-002
13861	20.307	4.7273	5.e-002	7.0533e-006
13862	20.584	4.7273	0.	1.0108e-002
13863	20.492	4.6364	0.	1.1379e-002
13864	20.492	4.7273	5.e-002	5.8532e-006
13865	20.769	4.7273	0.	1.1133e-002
13866	20.676	4.6364	0.	1.2414e-002
13867	20.676	4.7273	5.e-002	5.0866e-006
13868	20.953	4.7273	0.	1.2318e-002
13869	20.861	4.6364	0.	1.3602e-002
13870	20.861	4.7273	5.e-002	5.076e-006
13871	21.138	4.7273	0.	1.37e-002
13872	21.046	4.6364	0.	1.4973e-002
13873	21.046	4.7273	5.e-002	6.7086e-006
13874	21.323	4.7273	0.	1.532e-002
13875	21.23	4.6364	0.	1.6567e-002
13876	21.23	4.7273	5.e-002	9.1438e-006
13877	21.507	4.7273	0.	1.724e-002
13878	21.415	4.6364	0.	1.8434e-002
13879	21.415	4.7273	5.e-002	1.3052e-005
13880	21.692	4.7273	0.	1.9543e-002
13881	21.6	4.6364	0.	2.0645e-002
13882	21.6	4.7273	5.e-002	1.1894e-005
13883	21.877	4.7273	0.	2.2333e-002
13884	21.784	4.6364	0.	2.3297e-002
13885	21.784	4.7273	5.e-002	1.0793e-005
13886	22.061	4.7273	0.	2.5751e-002
13887	21.969	4.6364	0.	2.6503e-002
13888	21.969	4.7273	5.e-002	9.0059e-006
13889	22.246	4.7273	0.	3.e-002
13890	22.154	4.6364	0.	3.0438e-002
13891	22.154	4.7273	5.e-002	6.2968e-006
13892	22.431	4.7273	0.	3.5392e-002
13893	22.338	4.6364	0.	3.5341e-002
13894	22.338	4.7273	5.e-002	5.6694e-006
13895	22.615	4.7273	0.	4.2313e-002
13896	22.523	4.6364	0.	4.1611e-002
13897	22.523	4.7273	5.e-002	8.4964e-006
13898	22.8	4.7273	0.	5.1709e-002
13899	22.708	4.6364	0.	4.9653e-002
13900	22.708	4.7273	5.e-002	9.3941e-006
13901	22.984	4.7273	0.	6.3898e-002
13902	22.892	4.6364	0.	6.103e-002
13903	22.892	4.7273	5.e-002	8.0754e-006
13904	23.169	4.7273	0.	8.4858e-002
13905	23.077	4.6364	0.	7.4976e-002
13906	23.077	4.7273	5.e-002	9.0286e-006
13907	23.354	4.7273	0.	0.10523
13908	23.261	4.6364	0.	0.10467
13909	23.261	4.7273	5.e-002	6.6955e-006
13910	23.538	4.7273	0.	0.19561
13911	23.446	4.6364	0.	0.11944
13912	23.446	4.7273	5.e-002	6.1832e-006
13913	23.723	4.7273	0.	0.1742
13914	23.631	4.6364	0.	0.29713
13915	23.631	4.7273	5.e-002	2.1779e-006
13916	23.815	4.6364	0.	0.14043
13917	23.815	4.7273	5.e-002	5.3266e-006
13918	23.908	4.7273	0.	0.40792
13919	5.4436	4.5455	0.	-16.251
13920	5.3513	4.4545	0.	-8.395
13921	5.3513	4.5455	5.e-002	-1.9947e-004
13922	5.259	4.5455	0.	-19.402
13923	5.6283	4.5455	0.	-3.3727
13924	5.5359	4.4545	0.	0.1051
13925	5.5359	4.5455	5.e-002	-3.1162e-004
13926	5.8129	4.5455	0.	-4.2775
13927	5.7206	4.4545	0.	-9.0222
13928	5.7206	4.5455	5.e-002	-3.4229e-004
13929	5.9975	4.5455	0.	-4.0119
13930	5.9052	4.4545	0.	-3.6557
13931	5.9052	4.5455	5.e-002	-3.8829e-004
13932	6.1822	4.5455	0.	-4.4002
13933	6.0899	4.4545	0.	-5.1241
13934	6.0899	4.5455	5.e-002	-3.072e-004
13935	6.3668	4.5455	0.	-6.4071
13936	6.2745	4.4545	0.	-7.5719
13937	6.2745	4.5455	5.e-002	-2.8443e-004
13938	6.5515	4.5455	0.	-15.751
13939	6.4592	4.4545	0.	-23.166
13940	6.4592	4.5455	5.e-002	-3.1827e-004
13941	6.7361	4.5455	0.	-43.048
13942	6.6438	4.4545	0.	-60.868
13943	6.6438	4.5455	5.e-002	-2.3871e-004
13944	6.9208	4.5455	0.	-68.013
13945	6.8284	4.4545	0.	-89.934
13946	6.8284	4.5455	5.e-002	-1.6515e-004
13947	7.1054	4.5455	0.	-84.873
13948	7.0131	4.4545	0.	-108.14
13949	7.0131	4.5455	5.e-002	-1.5738e-004
13950	7.29	4.5455	0.	-95.645
13951	7.1977	4.4545	0.	-118.84
13952	7.1977	4.5455	5.e-002	-1.4355e-004
13953	7.4747	4.5455	0.	-102.13
13954	7.3824	4.4545	0.	-124.51
13955	7.3824	4.5455	5.e-002	-3.8947e-005
13956	7.6593	4.5455	0.	-105.54
13957	7.567	4.4545	0.	-126.71
13958	7.567	4.5455	5.e-002	-7.7291e-005
13959	7.844	4.5455	0.	-106.7
13960	7.7516	4.4545	0.	-126.49
13961	7.7516	4.5455	5.e-002	-6.9783e-005
13962	8.0286	4.5455	0.	-106.16
13963	7.9363	4.4545	0.	-124.52
13964	7.9363	4.5455	5.e-002	-6.0317e-005
13965	8.2132	4.5455	0.	-104.32
13966	8.1209	4.4545	0.	-121.27
13967	8.1209	4.5455	5.e-002	-4.0533e-005
13968	8.3979	4.5455	0.	-101.49
13969	8.3056	4.4545	0.	-117.1
13970	8.3056	4.5455	5.e-002	-3.6604e-005
13971	8.5825	4.5455	0.	-97.919
13972	8.4902	4.4545	0.	-112.25
13973	8.4902	4.5455	5.e-002	-9.8359e-006
13974	8.7672	4.5455	0.	-93.791
13975	8.6748	4.4545	0.	-106.95
13976	8.6748	4.5455	5.e-002	-1.0245e-005
13977	8.9518	4.5455	0.	-89.271
13978	8.8595	4.4545	0.	-101.34
13979	8.8595	4.5455	5.e-002	-2.2853e-005
13980	9.1364	4.5455	0.	-84.491
13981	9.0441	4.4545	0.	-95.555
13982	9.0441	4.5455	5.e-002	-1.7731e-005
13983	9.3211	4.5455	0.	-79.559
13984	9.2288	4.4545	0.	-89.705
13985	9.2288	4.5455	5.e-002	-1.6266e-005
13986	9.5057	4.5455	0.	-74.565
13987	9.4134	4.4545	0.	-83.87
13988	9.4134	4.5455	5.e-002	-1.3783e-005
13989	9.6904	4.5455	0.	-69.581
13990	9.598	4.4545	0.	-78.118
13991	9.598	4.5455	5.e-002	-9.7719e-006
13992	9.875	4.5455	0.	-64.665
13993	9.7827	4.4545	0.	-72.5
13994	9.7827	4.5455	5.e-002	-1.1028e-005
13995	10.06	4.5455	0.	-59.861
13996	9.9673	4.4545	0.	-67.055
13997	9.9673	4.5455	5.e-002	-1.0825e-005
13998	10.244	4.5455	0.	-55.204
13999	10.152	4.4545	0.	-61.811
14000	10.152	4.5455	5.e-002	-8.0086e-006
14001	10.429	4.5455	0.	-50.717
14002	10.337	4.4545	0.	-56.789
14003	10.337	4.5455	5.e-002	-6.7184e-006
14004	10.614	4.5455	0.	-46.419
14005	10.521	4.4545	0.	-52.002
14006	10.521	4.5455	5.e-002	-5.2308e-006
14007	10.798	4.5455	0.	-42.32
14008	10.706	4.4545	0.	-47.456
14009	10.706	4.5455	5.e-002	-5.2512e-006
14010	10.983	4.5455	0.	-38.427
14011	10.891	4.4545	0.	-43.153
14012	10.891	4.5455	5.e-002	-4.5228e-006
14013	11.167	4.5455	0.	-34.74
14014	11.075	4.4545	0.	-39.092
14015	11.075	4.5455	5.e-002	-4.3622e-006
14016	11.352	4.5455	0.	-31.26
14017	11.26	4.4545	0.	-35.269
14018	11.26	4.5455	5.e-002	-2.8125e-006
14019	11.537	4.5455	0.	-27.981
14020	11.444	4.4545	0.	-31.676
14021	11.444	4.5455	5.e-002	-2.1322e-006
14022	11.721	4.5455	0.	-24.898
14023	11.629	4.4545	0.	-28.305
14024	11.629	4.5455	5.e-002	-1.8689e-006
14025	11.906	4.5455	0.	-22.003
14026	11.814	4.4545	0.	-25.147
14027	11.814	4.5455	5.e-002	-1.0746e-006
14028	12.091	4.5455	0.	-19.289
14029	11.998	4.4545	0.	-22.191
14030	11.998	4.5455	5.e-002	-7.1873e-007
14031	12.275	4.5455	0.	-16.746
14032	12.183	4.4545	0.	-19.426
14033	12.183	4.5455	5.e-002	-1.1803e-006
14034	12.46	4.5455	0.	-14.365
14035	12.368	4.4545	0.	-16.842
14036	12.368	4.5455	5.e-002	-3.5813e-007
14037	12.645	4.5455	0.	-12.136
14038	12.552	4.4545	0.	-14.426
14039	12.552	4.5455	5.e-002	1.3819e-006
14040	12.829	4.5455	0.	-10.05
14041	12.737	4.4545	0.	-12.169
14042	12.737	4.5455	5.e-002	2.0413e-006
14043	13.014	4.5455	0.	-8.0973
14044	12.922	4.4545	0.	-10.059
14045	12.922	4.5455	5.e-002	2.2897e-006
14046	13.199	4.5455	0.	-6.2684
14047	13.106	4.4545	0.	-8.0856
14048	13.106	4.5455	5.e-002	3.1841e-006
14049	13.383	4.5455	0.	-4.5545
14050	13.291	4.4545	0.	-6.2389
14051	13.291	4.5455	5.e-002	2.5506e-006
14052	13.568	4.5455	0.	-2.9476
14053	13.475	4.4545	0.	-4.5093
14054	13.475	4.5455	5.e-002	2.8267e-006
14055	13.752	4.5455	0.	-1.443
14056	13.66	4.4545	0.	-2.8883
14057	13.66	4.5455	5.e-002	3.0542e-006
14058	13.937	4.5455	0.	-0.14759
14059	13.845	4.4545	0.	-1.3706
14060	13.845	4.5455	5.e-002	2.8795e-006
14061	14.122	4.5455	0.	-1.2127e-002
14062	14.029	4.4545	0.	-0.10584
14063	14.029	4.5455	5.e-002	2.8791e-006
14064	14.306	4.5455	0.	-4.3432e-003
14065	14.214	4.4545	0.	-9.8619e-003
14066	14.214	4.5455	5.e-002	2.3676e-006
14067	14.491	4.5455	0.	-1.6884e-003
14068	14.399	4.4545	0.	-3.155e-003
14069	14.399	4.5455	5.e-002	2.9291e-006
14070	14.676	4.5455	0.	-3.2982e-004
14071	14.583	4.4545	0.	-7.646e-004
14072	14.583	4.5455	5.e-002	3.3866e-006
14073	14.86	4.5455	0.	5.1445e-004
14074	14.768	4.4545	0.	4.9177e-004
14075	14.768	4.5455	5.e-002	4.5014e-006
14076	15.045	4.5455	0.	1.105e-003
14077	14.953	4.4545	0.	1.2901e-003
14078	14.953	4.5455	5.e-002	3.3075e-006
14079	15.23	4.5455	0.	1.5534e-003
14080	15.137	4.4545	0.	1.8589e-003
14081	15.137	4.5455	5.e-002	4.7984e-006
14082	15.414	4.5455	0.	1.916e-003
14083	15.322	4.4545	0.	2.3005e-003
14084	15.322	4.5455	5.e-002	4.1569e-006
14085	15.599	4.5455	0.	2.2242e-003
14086	15.507	4.4545	0.	2.6642e-003
14087	15.507	4.5455	5.e-002	2.6318e-006
14088	15.783	4.5455	0.	2.4974e-003
14089	15.691	4.4545	0.	2.9799e-003
14090	15.691	4.5455	5.e-002	2.5743e-006
14091	15.968	4.5455	0.	2.7472e-003
14092	15.876	4.4545	0.	3.2627e-003
14093	15.876	4.5455	5.e-002	2.0829e-006
14094	16.153	4.5455	0.	2.9819e-003
14095	16.06	4.4545	0.	3.5273e-003
14096	16.06	4.5455	5.e-002	2.5642e-006
14097	16.337	4.5455	0.	3.2089e-003
14098	16.245	4.4545	0.	3.7771e-003
14099	16.245	4.5455	5.e-002	2.7e-006
14100	16.522	4.5455	0.	3.4344e-003
14101	16.43	4.4545	0.	4.0218e-003
14102	16.43	4.5455	5.e-002	3.5631e-006
14103	16.707	4.5455	0.	3.6615e-003
14104	16.614	4.4545	0.	4.2712e-003
14105	16.614	4.5455	5.e-002	3.4822e-006
14106	16.891	4.5455	0.	3.8811e-003
14107	16.799	4.4545	0.	4.5188e-003
14108	16.799	4.5455	5.e-002	4.648e-006
14109	17.076	4.5455	0.	4.1057e-003
14110	16.984	4.4545	0.	4.7521e-003
14111	16.984	4.5455	5.e-002	4.3363e-006
14112	17.261	4.5455	0.	4.348e-003
14113	17.168	4.4545	0.	5.0119e-003
14114	17.168	4.5455	5.e-002	3.1767e-006
14115	17.445	4.5455	0.	4.5977e-003
14116	17.353	4.4545	0.	5.2821e-003
14117	17.353	4.5455	5.e-002	3.7254e-006
14118	17.63	4.5455	0.	4.8584e-003
14119	17.538	4.4545	0.	5.5586e-003
14120	17.538	4.5455	5.e-002	4.9666e-006
14121	17.815	4.5455	0.	5.1334e-003
14122	17.722	4.4545	0.	5.8512e-003
14123	17.722	4.5455	5.e-002	4.8718e-006
14124	17.999	4.5455	0.	5.4252e-003
14125	17.907	4.4545	0.	6.159e-003
14126	17.907	4.5455	5.e-002	4.8495e-006
14127	18.184	4.5455	0.	5.737e-003
14128	18.092	4.4545	0.	6.4878e-003
14129	18.092	4.5455	5.e-002	5.0021e-006
14130	18.368	4.5455	0.	6.0703e-003
14131	18.276	4.4545	0.	6.8366e-003
14132	18.276	4.5455	5.e-002	4.277e-006
14133	18.553	4.5455	0.	6.4266e-003
14134	18.461	4.4545	0.	7.2114e-003
14135	18.461	4.5455	5.e-002	5.8475e-006
14136	18.738	4.5455	0.	6.8128e-003
14137	18.645	4.4545	0.	7.6112e-003
14138	18.645	4.5455	5.e-002	6.3478e-006
14139	18.922	4.5455	0.	7.2311e-003
14140	18.83	4.4545	0.	8.0488e-003
14141	18.83	4.5455	5.e-002	8.5867e-006
14142	19.107	4.5455	0.	7.6862e-003
14143	19.015	4.4545	0.	8.517e-003
14144	19.015	4.5455	5.e-002	7.7382e-006
14145	19.292	4.5455	0.	8.1847e-003
14146	19.199	4.4545	0.	9.0308e-003
14147	19.199	4.5455	5.e-002	5.861e-006
14148	19.476	4.5455	0.	8.7278e-003
14149	19.384	4.4545	0.	9.5885e-003
14150	19.384	4.5455	5.e-002	5.4097e-006
14151	19.661	4.5455	0.	9.3275e-003
14152	19.569	4.4545	0.	1.0201e-002
14153	19.569	4.5455	5.e-002	5.627e-006
14154	19.846	4.5455	0.	9.9914e-003
14155	19.753	4.4545	0.	1.0875e-002
14156	19.753	4.5455	5.e-002	9.2479e-006
14157	20.03	4.5455	0.	1.0727e-002
14158	19.938	4.4545	0.	1.1619e-002
14159	19.938	4.5455	5.e-002	7.2407e-006
14160	20.215	4.5455	0.	1.1547e-002
14161	20.123	4.4545	0.	1.2443e-002
14162	20.123	4.5455	5.e-002	4.4651e-006
14163	20.4	4.5455	0.	1.247e-002
14164	20.307	4.4545	0.	1.3365e-002
14165	20.307	4.5455	5.e-002	6.3055e-006
14166	20.584	4.5455	0.	1.3511e-002
14167	20.492	4.4545	0.	1.4401e-002
14168	20.492	4.5455	5.e-002	4.6577e-006
14169	20.769	4.5455	0.	1.4692e-002
14170	20.676	4.4545	0.	1.5565e-002
14171	20.676	4.5455	5.e-002	4.461e-006
14172	20.953	4.5455	0.	1.6045e-002
14173	20.861	4.4545	0.	1.6892e-002
14174	20.861	4.5455	5.e-002	4.2884e-006
14175	21.138	4.5455	0.	1.7606e-002
14176	21.046	4.4545	0.	1.8408e-002
14177	21.046	4.5455	5.e-002	6.4006e-006
14178	21.323	4.5455	0.	1.9419e-002
14179	21.23	4.4545	0.	2.0158e-002
14180	21.23	4.5455	5.e-002	8.6265e-006
14181	21.507	4.5455	0.	2.1544e-002
14182	21.415	4.4545	0.	2.2189e-002
14183	21.415	4.5455	5.e-002	1.3036e-005
14184	21.692	4.5455	0.	2.4065e-002
14185	21.6	4.4545	0.	2.4573e-002
14186	21.6	4.5455	5.e-002	1.2195e-005
14187	21.877	4.5455	0.	2.7082e-002
14188	21.784	4.4545	0.	2.7407e-002
14189	21.784	4.5455	5.e-002	9.8699e-006
14190	22.061	4.5455	0.	3.0739e-002
14191	21.969	4.4545	0.	3.0801e-002
14192	21.969	4.5455	5.e-002	9.5074e-006
14193	22.246	4.5455	0.	3.5239e-002
14194	22.154	4.4545	0.	3.4933e-002
14195	22.154	4.5455	5.e-002	6.3079e-006
14196	22.431	4.5455	0.	4.0892e-002
14197	22.338	4.4545	0.	4.004e-002
14198	22.338	4.5455	5.e-002	4.5081e-006
14199	22.615	4.5455	0.	4.809e-002
14200	22.523	4.4545	0.	4.6526e-002
14201	22.523	4.5455	5.e-002	8.3791e-006
14202	22.8	4.5455	0.	5.7795e-002
14203	22.708	4.4545	0.	5.4805e-002
14204	22.708	4.5455	5.e-002	9.4623e-006
14205	22.984	4.5455	0.	7.0349e-002
14206	22.892	4.4545	0.	6.6461e-002
14207	22.892	4.5455	5.e-002	6.4048e-006
14208	23.169	4.5455	0.	9.1822e-002
14209	23.077	4.4545	0.	8.0763e-002
14210	23.077	4.5455	5.e-002	6.8458e-006
14211	23.354	4.5455	0.	0.1129
14212	23.261	4.4545	0.	0.11102
14213	23.261	4.5455	5.e-002	6.5017e-006
14214	23.538	4.5455	0.	0.20506
14215	23.446	4.4545	0.	0.12655
14216	23.446	4.5455	5.e-002	5.0641e-006
14217	23.723	4.5455	0.	0.18813
14218	23.631	4.4545	0.	0.30691
14219	23.631	4.5455	5.e-002	5.3933e-007
14220	23.815	4.4545	0.	0.15804
14221	23.815	4.5455	5.e-002	8.6313e-006
14222	23.908	4.5455	0.	0.41342
14223	5.4436	4.3636	0.	7.6766
14224	5.3513	4.2727	0.	-83.032
14225	5.3513	4.3636	5.e-002	-3.4484e-004
14226	5.259	4.3636	0.	80.309
14227	5.6283	4.3636	0.	-5.5356
14228	5.5359	4.2727	0.	7.2304
14229	5.5359	4.3636	5.e-002	-5.5122e-004
14230	5.8129	4.3636	0.	-8.3155
14231	5.7206	4.2727	0.	-11.411
14232	5.7206	4.3636	5.e-002	-5.3027e-004
14233	5.9975	4.3636	0.	-4.6904
14234	5.9052	4.2727	0.	-4.5438
14235	5.9052	4.3636	5.e-002	-4.9354e-004
14236	6.1822	4.3636	0.	-8.1195
14237	6.0899	4.2727	0.	-9.0622
14238	6.0899	4.3636	5.e-002	-4.261e-004
14239	6.3668	4.3636	0.	-26.225
14240	6.2745	4.2727	0.	-34.453
14241	6.2745	4.3636	5.e-002	-2.697e-004
14242	6.5515	4.3636	0.	-74.482
14243	6.4592	4.2727	0.	-94.621
14244	6.4592	4.3636	5.e-002	-2.5262e-004
14245	6.7361	4.3636	0.	-109.99
14246	6.6438	4.2727	0.	-135.43
14247	6.6438	4.3636	5.e-002	-2.4249e-004
14248	6.9208	4.3636	0.	-131.1
14249	6.8284	4.2727	0.	-158.66
14250	6.8284	4.3636	5.e-002	-1.7999e-004
14251	7.1054	4.3636	0.	-142.64
14252	7.0131	4.2727	0.	-170.51
14253	7.0131	4.3636	5.e-002	-1.756e-004
14254	7.29	4.3636	0.	-147.98
14255	7.1977	4.2727	0.	-175.09
14256	7.1977	4.3636	5.e-002	-7.9111e-005
14257	7.4747	4.3636	0.	-149.23
14258	7.3824	4.2727	0.	-175.
14259	7.3824	4.3636	5.e-002	-3.8897e-005
14260	7.6593	4.3636	0.	-147.72
14261	7.567	4.2727	0.	-171.85
14262	7.567	4.3636	5.e-002	-1.043e-004
14263	7.844	4.3636	0.	-144.33
14264	7.7516	4.2727	0.	-166.69
14265	7.7516	4.3636	5.e-002	-6.509e-005
14266	8.0286	4.3636	0.	-139.63
14267	7.9363	4.2727	0.	-160.22
14268	7.9363	4.3636	5.e-002	-5.871e-005
14269	8.2132	4.3636	0.	-134.04
14270	8.1209	4.2727	0.	-152.91
14271	8.1209	4.3636	5.e-002	-3.034e-005
14272	8.3979	4.3636	0.	-127.85
14273	8.3056	4.2727	0.	-145.09
14274	8.3056	4.3636	5.e-002	-2.7737e-005
14275	8.5825	4.3636	0.	-121.27
14276	8.4902	4.2727	0.	-137.
14277	8.4902	4.3636	5.e-002	-2.6184e-005
14278	8.7672	4.3636	0.	-114.48
14279	8.6748	4.2727	0.	-128.81
14280	8.6748	4.3636	5.e-002	-2.5163e-005
14281	8.9518	4.3636	0.	-107.61
14282	8.8595	4.2727	0.	-120.66
14283	8.8595	4.3636	5.e-002	-1.7868e-005
14284	9.1364	4.3636	0.	-100.76
14285	9.0441	4.2727	0.	-112.64
14286	9.0441	4.3636	5.e-002	-1.5055e-005
14287	9.3211	4.3636	0.	-94.007
14288	9.2288	4.2727	0.	-104.82
14289	9.2288	4.3636	5.e-002	-1.4052e-005
14290	9.5057	4.3636	0.	-87.414
14291	9.4134	4.2727	0.	-97.267
14292	9.4134	4.3636	5.e-002	-1.1254e-005
14293	9.6904	4.3636	0.	-81.028
14294	9.598	4.2727	0.	-90.008
14295	9.598	4.3636	5.e-002	-9.9019e-006
14296	9.875	4.3636	0.	-74.88
14297	9.7827	4.2727	0.	-83.071
14298	9.7827	4.3636	5.e-002	-1.1875e-005
14299	10.06	4.3636	0.	-68.995
14300	9.9673	4.2727	0.	-76.472
14301	9.9673	4.3636	5.e-002	-9.4995e-006
14302	10.244	4.3636	0.	-63.387
14303	10.152	4.2727	0.	-70.217
14304	10.152	4.3636	5.e-002	-9.5691e-006
14305	10.429	4.3636	0.	-58.064
14306	10.337	4.2727	0.	-64.309
14307	10.337	4.3636	5.e-002	-7.5023e-006
14308	10.614	4.3636	0.	-53.028
14309	10.521	4.2727	0.	-58.743
14310	10.521	4.3636	5.e-002	-5.8848e-006
14311	10.798	4.3636	0.	-48.277
14312	10.706	4.2727	0.	-53.512
14313	10.706	4.3636	5.e-002	-5.4677e-006
14314	10.983	4.3636	0.	-43.806
14315	10.891	4.2727	0.	-48.606
14316	10.891	4.3636	5.e-002	-4.4035e-006
14317	11.167	4.3636	0.	-39.608
14318	11.075	4.2727	0.	-44.011
14319	11.075	4.3636	5.e-002	-3.8186e-006
14320	11.352	4.3636	0.	-35.671
14321	11.26	4.2727	0.	-39.715
14322	11.26	4.3636	5.e-002	-2.1147e-006
14323	11.537	4.3636	0.	-31.986
14324	11.444	4.2727	0.	-35.702
14325	11.444	4.3636	5.e-002	-2.1343e-006
14326	11.721	4.3636	0.	-28.539
14327	11.629	4.2727	0.	-31.957
14328	11.629	4.3636	5.e-002	-2.2062e-006
14329	11.906	4.3636	0.	-25.318
14330	11.814	4.2727	0.	-28.465
14331	11.814	4.3636	5.e-002	-1.047e-006
14332	12.091	4.3636	0.	-22.311
14333	11.998	4.2727	0.	-25.209
14334	11.998	4.3636	5.e-002	-9.7202e-007
14335	12.275	4.3636	0.	-19.504
14336	12.183	4.2727	0.	-22.176
14337	12.183	4.3636	5.e-002	-8.618e-007
14338	12.46	4.3636	0.	-16.885
14339	12.368	4.2727	0.	-19.35
14340	12.368	4.3636	5.e-002	6.6611e-008
14341	12.645	4.3636	0.	-14.44
14342	12.552	4.2727	0.	-16.716
14343	12.552	4.3636	5.e-002	1.4805e-006
14344	12.829	4.3636	0.	-12.158
14345	12.737	4.2727	0.	-14.261
14346	12.737	4.3636	5.e-002	1.95e-006
14347	13.014	4.3636	0.	-10.027
14348	12.922	4.2727	0.	-11.972
14349	12.922	4.3636	5.e-002	2.6511e-006
14350	13.199	4.3636	0.	-8.035
14351	13.106	4.2727	0.	-9.8359
14352	13.106	4.3636	5.e-002	3.3258e-006
14353	13.383	4.3636	0.	-6.172
14354	13.291	4.2727	0.	-7.8405
14355	13.291	4.3636	5.e-002	2.845e-006
14356	13.568	4.3636	0.	-4.4276
14357	13.475	4.2727	0.	-5.9747
14358	13.475	4.3636	5.e-002	2.9494e-006
14359	13.752	4.3636	0.	-2.7927
14360	13.66	4.2727	0.	-4.2278
14361	13.66	4.3636	5.e-002	3.0952e-006
14362	13.937	4.3636	0.	-1.2623
14363	13.845	4.2727	0.	-2.5906
14364	13.845	4.3636	5.e-002	3.2574e-006
14365	14.122	4.3636	0.	-6.6314e-002
14366	14.029	4.2727	0.	-1.059
14367	14.029	4.3636	5.e-002	3.2998e-006
14368	14.306	4.3636	0.	-7.3422e-003
14369	14.214	4.2727	0.	-3.4195e-002
14370	14.214	4.3636	5.e-002	2.7648e-006
14371	14.491	4.3636	0.	-1.837e-003
14372	14.399	4.2727	0.	-4.6462e-003
14373	14.399	4.3636	5.e-002	3.4776e-006
14374	14.676	4.3636	0.	2.4135e-004
14375	14.583	4.2727	0.	-4.4912e-004
14376	14.583	4.3636	5.e-002	3.8635e-006
14377	14.86	4.3636	0.	1.3703e-003
14378	14.768	4.2727	0.	1.2761e-003
14379	14.768	4.3636	5.e-002	5.1107e-006
14380	15.045	4.3636	0.	2.1056e-003
14381	14.953	4.2727	0.	2.2567e-003
14382	14.953	4.3636	5.e-002	3.9361e-006
14383	15.23	4.3636	0.	2.643e-003
14384	15.137	4.2727	0.	2.9188e-003
14385	15.137	4.3636	5.e-002	5.4784e-006
14386	15.414	4.3636	0.	3.0693e-003
14387	15.322	4.2727	0.	3.4174e-003
14388	15.322	4.3636	5.e-002	4.6599e-006
14389	15.599	4.3636	0.	3.4289e-003
14390	15.507	4.2727	0.	3.8237e-003
14391	15.507	4.3636	5.e-002	3.1699e-006
14392	15.783	4.3636	0.	3.7454e-003
14393	15.691	4.2727	0.	4.1734e-003
14394	15.691	4.3636	5.e-002	3.3336e-006
14395	15.968	4.3636	0.	4.036e-003
14396	15.876	4.2727	0.	4.4887e-003
14397	15.876	4.3636	5.e-002	2.5354e-006
14398	16.153	4.3636	0.	4.3097e-003
14399	16.06	4.2727	0.	4.7834e-003
14400	16.06	4.3636	5.e-002	3.1723e-006
14401	16.337	4.3636	0.	4.572e-003
14402	16.245	4.2727	0.	5.0638e-003
14403	16.245	4.3636	5.e-002	3.2128e-006
14404	16.522	4.3636	0.	4.836e-003
14405	16.43	4.2727	0.	5.3366e-003
14406	16.43	4.3636	5.e-002	3.9586e-006
14407	16.707	4.3636	0.	5.1016e-003
14408	16.614	4.2727	0.	5.6186e-003
14409	16.614	4.3636	5.e-002	4.019e-006
14410	16.891	4.3636	0.	5.3588e-003
14411	16.799	4.2727	0.	5.8965e-003
14412	16.799	4.3636	5.e-002	4.8023e-006
14413	17.076	4.3636	0.	5.6235e-003
14414	16.984	4.2727	0.	6.1632e-003
14415	16.984	4.3636	5.e-002	4.6257e-006
14416	17.261	4.3636	0.	5.9074e-003
14417	17.168	4.2727	0.	6.456e-003
14418	17.168	4.3636	5.e-002	3.7456e-006
14419	17.445	4.3636	0.	6.2005e-003
14420	17.353	4.2727	0.	6.7623e-003
14421	17.353	4.3636	5.e-002	4.6445e-006
14422	17.63	4.3636	0.	6.5052e-003
14423	17.538	4.2727	0.	7.076e-003
14424	17.538	4.3636	5.e-002	5.2359e-006
14425	17.815	4.3636	0.	6.8267e-003
14426	17.722	4.2727	0.	7.4071e-003
14427	17.722	4.3636	5.e-002	5.2706e-006
14428	17.999	4.3636	0.	7.1675e-003
14429	17.907	4.2727	0.	7.7557e-003
14430	17.907	4.3636	5.e-002	5.2319e-006
14431	18.184	4.3636	0.	7.5291e-003
14432	18.092	4.2727	0.	8.1265e-003
14433	18.092	4.3636	5.e-002	5.7419e-006
14434	18.368	4.3636	0.	7.9151e-003
14435	18.276	4.2727	0.	8.521e-003
14436	18.276	4.3636	5.e-002	4.1734e-006
14437	18.553	4.3636	0.	8.3288e-003
14438	18.461	4.2727	0.	8.9431e-003
14439	18.461	4.3636	5.e-002	6.2349e-006
14440	18.738	4.3636	0.	8.7751e-003
14441	18.645	4.2727	0.	9.395e-003
14442	18.645	4.3636	5.e-002	7.1501e-006
14443	18.922	4.3636	0.	9.2574e-003
14444	18.83	4.2727	0.	9.8824e-003
14445	18.83	4.3636	5.e-002	8.9216e-006
14446	19.107	4.3636	0.	9.7787e-003
14447	19.015	4.2727	0.	1.0409e-002
14448	19.015	4.3636	5.e-002	8.6619e-006
14449	19.292	4.3636	0.	1.0346e-002
14450	19.199	4.2727	0.	1.0979e-002
14451	19.199	4.3636	5.e-002	6.213e-006
14452	19.476	4.3636	0.	1.0966e-002
14453	19.384	4.2727	0.	1.16e-002
14454	19.384	4.3636	5.e-002	6.3457e-006
14455	19.661	4.3636	0.	1.1645e-002
14456	19.569	4.2727	0.	1.2279e-002
14457	19.569	4.3636	5.e-002	6.9824e-006
14458	19.846	4.3636	0.	1.2391e-002
14459	19.753	4.2727	0.	1.3023e-002
14460	19.753	4.3636	5.e-002	9.6535e-006
14461	20.03	4.3636	0.	1.3216e-002
14462	19.938	4.2727	0.	1.384e-002
14463	19.938	4.3636	5.e-002	7.5288e-006
14464	20.215	4.3636	0.	1.4132e-002
14465	20.123	4.2727	0.	1.4744e-002
14466	20.123	4.3636	5.e-002	5.3671e-006
14467	20.4	4.3636	0.	1.5156e-002
14468	20.307	4.2727	0.	1.5751e-002
14469	20.307	4.3636	5.e-002	7.7205e-006
14470	20.584	4.3636	0.	1.6302e-002
14471	20.492	4.2727	0.	1.6872e-002
14472	20.492	4.3636	5.e-002	4.9342e-006
14473	20.769	4.3636	0.	1.7599e-002
14474	20.676	4.2727	0.	1.8131e-002
14475	20.676	4.3636	5.e-002	4.899e-006
14476	20.953	4.3636	0.	1.9072e-002
14477	20.861	4.2727	0.	1.9556e-002
14478	20.861	4.3636	5.e-002	4.1107e-006
14479	21.138	4.3636	0.	2.0758e-002
14480	21.046	4.2727	0.	2.1174e-002
14481	21.046	4.3636	5.e-002	7.3919e-006
14482	21.323	4.3636	0.	2.2703e-002
14483	21.23	4.2727	0.	2.3031e-002
14484	21.23	4.3636	5.e-002	9.959e-006
14485	21.507	4.3636	0.	2.4965e-002
14486	21.415	4.2727	0.	2.5173e-002
14487	21.415	4.3636	5.e-002	1.335e-005
14488	21.692	4.3636	0.	2.7627e-002
14489	21.6	4.2727	0.	2.7673e-002
14490	21.6	4.3636	5.e-002	1.2129e-005
14491	21.877	4.3636	0.	3.0793e-002
14492	21.784	4.2727	0.	3.0624e-002
14493	21.784	4.3636	5.e-002	1.1025e-005
14494	22.061	4.3636	0.	3.4602e-002
14495	21.969	4.2727	0.	3.414e-002
14496	21.969	4.3636	5.e-002	9.3307e-006
14497	22.246	4.3636	0.	3.9259e-002
14498	22.154	4.2727	0.	3.8396e-002
14499	22.154	4.3636	5.e-002	7.0445e-006
14500	22.431	4.3636	0.	4.5077e-002
14501	22.338	4.2727	0.	4.3634e-002
14502	22.338	4.3636	5.e-002	6.2957e-006
14503	22.615	4.3636	0.	5.2455e-002
14504	22.523	4.2727	0.	5.0258e-002
14505	22.523	4.3636	5.e-002	9.6289e-006
14506	22.8	4.3636	0.	6.2369e-002
14507	22.708	4.2727	0.	5.8696e-002
14508	22.708	4.3636	5.e-002	9.8543e-006
14509	22.984	4.3636	0.	7.5189e-002
14510	22.892	4.2727	0.	7.0552e-002
14511	22.892	4.3636	5.e-002	7.1565e-006
14512	23.169	4.3636	0.	9.7053e-002
14513	23.077	4.2727	0.	8.5124e-002
14514	23.077	4.3636	5.e-002	9.321e-006
14515	23.354	4.3636	0.	0.11869
14516	23.261	4.2727	0.	0.11583
14517	23.261	4.3636	5.e-002	6.9344e-006
14518	23.538	4.3636	0.	0.21225
14519	23.446	4.2727	0.	0.13196
14520	23.446	4.3636	5.e-002	7.6141e-006
14521	23.723	4.3636	0.	0.19897
14522	23.631	4.2727	0.	0.31444
14523	23.631	4.3636	5.e-002	2.4187e-006
14524	23.815	4.2727	0.	0.1721
14525	23.815	4.3636	5.e-002	5.0561e-006
14526	23.908	4.3636	0.	0.41753
14527	5.4436	4.1818	0.	-83.984
14528	5.3513	4.0909	0.	-432.74
14529	5.3513	4.1818	5.e-002	-1.1768e-003
14530	5.259	4.1818	0.	-362.3
14531	5.6283	4.1818	0.	0.51177
14532	5.5359	4.0909	0.	50.938
14533	5.5359	4.1818	5.e-002	-8.6333e-004
14534	5.8129	4.1818	0.	-7.569
14535	5.7206	4.0909	0.	-14.89
14536	5.7206	4.1818	5.e-002	-3.9399e-004
14537	5.9975	4.1818	0.	-8.6519
14538	5.9052	4.0909	0.	-6.2293
14539	5.9052	4.1818	5.e-002	-3.7932e-004
14540	6.1822	4.1818	0.	-35.764
14541	6.0899	4.0909	0.	-42.115
14542	6.0899	4.1818	5.e-002	-3.3464e-004
14543	6.3668	4.1818	0.	-108.82
14544	6.2745	4.0909	0.	-128.25
14545	6.2745	4.1818	5.e-002	-2.581e-004
14546	6.5515	4.1818	0.	-158.13
14547	6.4592	4.0909	0.	-184.4
14548	6.4592	4.1818	5.e-002	-2.6058e-004
14549	6.7361	4.1818	0.	-185.49
14550	6.6438	4.0909	0.	-215.13
14551	6.6438	4.1818	5.e-002	-1.842e-004
14552	6.9208	4.1818	0.	-198.85
14553	6.8284	4.0909	0.	-229.69
14554	6.8284	4.1818	5.e-002	-1.4673e-004
14555	7.1054	4.1818	0.	-203.39
14556	7.0131	4.0909	0.	-234.02
14557	7.0131	4.1818	5.e-002	-1.4078e-004
14558	7.29	4.1818	0.	-202.34
14559	7.1977	4.0909	0.	-231.87
14560	7.1977	4.1818	5.e-002	-1.3641e-004
14561	7.4747	4.1818	0.	-197.73
14562	7.3824	4.0909	0.	-225.65
14563	7.3824	4.1818	5.e-002	-7.0169e-005
14564	7.6593	4.1818	0.	-190.87
14565	7.567	4.0909	0.	-216.91
14566	7.567	4.1818	5.e-002	-6.5967e-005
14567	7.844	4.1818	0.	-182.61
14568	7.7516	4.0909	0.	-206.67
14569	7.7516	4.1818	5.e-002	-6.4935e-005
14570	8.0286	4.1818	0.	-173.51
14571	7.9363	4.0909	0.	-195.58
14572	7.9363	4.1818	5.e-002	-5.6605e-005
14573	8.2132	4.1818	0.	-163.96
14574	8.1209	4.0909	0.	-184.12
14575	8.1209	4.1818	5.e-002	-3.3848e-005
14576	8.3979	4.1818	0.	-154.24
14577	8.3056	4.0909	0.	-172.59
14578	8.3056	4.1818	5.e-002	-2.8574e-005
14579	8.5825	4.1818	0.	-144.53
14580	8.4902	4.0909	0.	-161.2
14581	8.4902	4.1818	5.e-002	-3.2014e-005
14582	8.7672	4.1818	0.	-134.98
14583	8.6748	4.0909	0.	-150.09
14584	8.6748	4.1818	5.e-002	-2.4819e-005
14585	8.9518	4.1818	0.	-125.68
14586	8.8595	4.0909	0.	-139.37
14587	8.8595	4.1818	5.e-002	-2.7361e-005
14588	9.1364	4.1818	0.	-116.69
14589	9.0441	4.0909	0.	-129.1
14590	9.0441	4.1818	5.e-002	-2.0448e-005
14591	9.3211	4.1818	0.	-108.08
14592	9.2288	4.0909	0.	-119.32
14593	9.2288	4.1818	5.e-002	-1.596e-005
14594	9.5057	4.1818	0.	-99.853
14595	9.4134	4.0909	0.	-110.04
14596	9.4134	4.1818	5.e-002	-1.4149e-005
14597	9.6904	4.1818	0.	-92.044
14598	9.598	4.0909	0.	-101.29
14599	9.598	4.1818	5.e-002	-1.2388e-005
14600	9.875	4.1818	0.	-84.655
14601	9.7827	4.0909	0.	-93.05
14602	9.7827	4.1818	5.e-002	-8.9679e-006
14603	10.06	4.1818	0.	-77.686
14604	9.9673	4.0909	0.	-85.316
14605	9.9673	4.1818	5.e-002	-1.138e-005
14606	10.244	4.1818	0.	-71.131
14607	10.152	4.0909	0.	-78.073
14608	10.152	4.1818	5.e-002	-8.2331e-006
14609	10.429	4.1818	0.	-64.979
14610	10.337	4.0909	0.	-71.302
14611	10.337	4.1818	5.e-002	-7.9568e-006
14612	10.614	4.1818	0.	-59.218
14613	10.521	4.0909	0.	-64.983
14614	10.521	4.1818	5.e-002	-6.7413e-006
14615	10.798	4.1818	0.	-53.83
14616	10.706	4.0909	0.	-59.093
14617	10.706	4.1818	5.e-002	-6.0069e-006
14618	10.983	4.1818	0.	-48.799
14619	10.891	4.0909	0.	-53.609
14620	10.891	4.1818	5.e-002	-5.2274e-006
14621	11.167	4.1818	0.	-44.106
14622	11.075	4.0909	0.	-48.506
14623	11.075	4.1818	5.e-002	-4.6183e-006
14624	11.352	4.1818	0.	-39.732
14625	11.26	4.0909	0.	-43.762
14626	11.26	4.1818	5.e-002	-4.0263e-006
14627	11.537	4.1818	0.	-35.659
14628	11.444	4.0909	0.	-39.354
14629	11.444	4.1818	5.e-002	-2.4588e-006
14630	11.721	4.1818	0.	-31.867
14631	11.629	4.0909	0.	-35.259
14632	11.629	4.1818	5.e-002	-2.5865e-006
14633	11.906	4.1818	0.	-28.34
14634	11.814	4.0909	0.	-31.456
14635	11.814	4.1818	5.e-002	-1.5189e-006
14636	12.091	4.1818	0.	-25.058
14637	11.998	4.0909	0.	-27.924
14638	11.998	4.1818	5.e-002	-8.9499e-007
14639	12.275	4.1818	0.	-22.004
14640	12.183	4.0909	0.	-24.643
14641	12.183	4.1818	5.e-002	-1.0663e-006
14642	12.46	4.1818	0.	-19.163
14643	12.368	4.0909	0.	-21.594
14644	12.368	4.1818	5.e-002	-5.5836e-007
14645	12.645	4.1818	0.	-16.519
14646	12.552	4.0909	0.	-18.761
14647	12.552	4.1818	5.e-002	1.3683e-006
14648	12.829	4.1818	0.	-14.056
14649	12.737	4.0909	0.	-16.126
14650	12.737	4.1818	5.e-002	1.619e-006
14651	13.014	4.1818	0.	-11.761
14652	12.922	4.0909	0.	-13.674
14653	12.922	4.1818	5.e-002	2.1287e-006
14654	13.199	4.1818	0.	-9.6206
14655	13.106	4.0909	0.	-11.391
14656	13.106	4.1818	5.e-002	3.2997e-006
14657	13.383	4.1818	0.	-7.6217
14658	13.291	4.0909	0.	-9.261
14659	13.291	4.1818	5.e-002	2.0904e-006
14660	13.568	4.1818	0.	-5.7528
14661	13.475	4.0909	0.	-7.2727
14662	13.475	4.1818	5.e-002	2.6992e-006
14663	13.752	4.1818	0.	-4.0029
14664	13.66	4.0909	0.	-5.4136
14665	13.66	4.1818	5.e-002	2.847e-006
14666	13.937	4.1818	0.	-2.3625
14667	13.845	4.0909	0.	-3.6724
14668	13.845	4.1818	5.e-002	2.9733e-006
14669	14.122	4.1818	0.	-0.82944
14670	14.029	4.0909	0.	-2.0397
14671	14.029	4.1818	5.e-002	2.8782e-006
14672	14.306	4.1818	0.	-1.8156e-002
14673	14.214	4.0909	0.	-0.51999
14674	14.214	4.1818	5.e-002	2.3254e-006
14675	14.491	4.1818	0.	-2.2474e-003
14676	14.399	4.0909	0.	-8.5961e-003
14677	14.399	4.1818	5.e-002	3.0282e-006
14678	14.676	4.1818	0.	8.9341e-004
14679	14.583	4.0909	0.	-1.0555e-004
14680	14.583	4.1818	5.e-002	3.3937e-006
14681	14.86	4.1818	0.	2.2979e-003
14682	14.768	4.0909	0.	2.1577e-003
14683	14.768	4.1818	5.e-002	4.5418e-006
14684	15.045	4.1818	0.	3.1378e-003
14685	14.953	4.0909	0.	3.2727e-003
14686	14.953	4.1818	5.e-002	3.5432e-006
14687	15.23	4.1818	0.	3.7274e-003
14688	15.137	4.0909	0.	3.9802e-003
14689	15.137	4.1818	5.e-002	5.0392e-006
14690	15.414	4.1818	0.	4.1862e-003
14691	15.322	4.0909	0.	4.4999e-003
14692	15.322	4.1818	5.e-002	4.2633e-006
14693	15.599	4.1818	0.	4.5698e-003
14694	15.507	4.0909	0.	4.9204e-003
14695	15.507	4.1818	5.e-002	3.0526e-006
14696	15.783	4.1818	0.	4.9092e-003
14697	15.691	4.0909	0.	5.2817e-003
14698	15.691	4.1818	5.e-002	2.591e-006
14699	15.968	4.1818	0.	5.2217e-003
14700	15.876	4.0909	0.	5.6108e-003
14701	15.876	4.1818	5.e-002	2.2315e-006
14702	16.153	4.1818	0.	5.5176e-003
14703	16.06	4.0909	0.	5.9181e-003
14704	16.06	4.1818	5.e-002	2.4273e-006
14705	16.337	4.1818	0.	5.8038e-003
14706	16.245	4.0909	0.	6.2154e-003
14707	16.245	4.1818	5.e-002	2.8029e-006
14708	16.522	4.1818	0.	6.0907e-003
14709	16.43	4.0909	0.	6.5054e-003
14710	16.43	4.1818	5.e-002	3.2746e-006
14711	16.707	4.1818	0.	6.3813e-003
14712	16.614	4.0909	0.	6.8052e-003
14713	16.614	4.1818	5.e-002	3.7408e-006
14714	16.891	4.1818	0.	6.6653e-003
14715	16.799	4.0909	0.	7.1043e-003
14716	16.799	4.1818	5.e-002	4.5411e-006
14717	17.076	4.1818	0.	6.9569e-003
14718	16.984	4.0909	0.	7.3921e-003
14719	16.984	4.1818	5.e-002	3.8365e-006
14720	17.261	4.1818	0.	7.269e-003
14721	17.168	4.0909	0.	7.7078e-003
14722	17.168	4.1818	5.e-002	2.9457e-006
14723	17.445	4.1818	0.	7.5927e-003
14724	17.353	4.0909	0.	8.039e-003
14725	17.353	4.1818	5.e-002	3.7546e-006
14726	17.63	4.1818	0.	7.9297e-003
14727	17.538	4.0909	0.	8.3785e-003
14728	17.538	4.1818	5.e-002	4.7001e-006
14729	17.815	4.1818	0.	8.2847e-003
14730	17.722	4.0909	0.	8.7376e-003
14731	17.722	4.1818	5.e-002	5.0946e-006
14732	17.999	4.1818	0.	8.6601e-003
14733	17.907	4.0909	0.	9.1167e-003
14734	17.907	4.1818	5.e-002	4.4988e-006
14735	18.184	4.1818	0.	9.0604e-003
14736	18.092	4.0909	0.	9.5164e-003
14737	18.092	4.1818	5.e-002	4.7093e-006
14738	18.368	4.1818	0.	9.4874e-003
14739	18.276	4.0909	0.	9.9452e-003
14740	18.276	4.1818	5.e-002	3.8381e-006
14741	18.553	4.1818	0.	9.944e-003
14742	18.461	4.0909	0.	1.0402e-002
14743	18.461	4.1818	5.e-002	5.5159e-006
14744	18.738	4.1818	0.	1.0433e-002
14745	18.645	4.0909	0.	1.0891e-002
14746	18.645	4.1818	5.e-002	6.6847e-006
14747	18.922	4.1818	0.	1.096e-002
14748	18.83	4.0909	0.	1.1417e-002
14749	18.83	4.1818	5.e-002	7.8443e-006
14750	19.107	4.1818	0.	1.1531e-002
14751	19.015	4.0909	0.	1.1985e-002
14752	19.015	4.1818	5.e-002	7.5153e-006
14753	19.292	4.1818	0.	1.2151e-002
14754	19.199	4.0909	0.	1.2598e-002
14755	19.199	4.1818	5.e-002	5.2105e-006
14756	19.476	4.1818	0.	1.2825e-002
14757	19.384	4.0909	0.	1.3265e-002
14758	19.384	4.1818	5.e-002	5.0481e-006
14759	19.661	4.1818	0.	1.3563e-002
14760	19.569	4.0909	0.	1.3992e-002
14761	19.569	4.1818	5.e-002	5.4064e-006
14762	19.846	4.1818	0.	1.4371e-002
14763	19.753	4.0909	0.	1.4788e-002
14764	19.753	4.1818	5.e-002	8.7744e-006
14765	20.03	4.1818	0.	1.526e-002
14766	19.938	4.0909	0.	1.566e-002
14767	19.938	4.1818	5.e-002	6.4292e-006
14768	20.215	4.1818	0.	1.6247e-002
14769	20.123	4.0909	0.	1.6621e-002
14770	20.123	4.1818	5.e-002	4.2763e-006
14771	20.4	4.1818	0.	1.7343e-002
14772	20.307	4.0909	0.	1.7688e-002
14773	20.307	4.1818	5.e-002	6.2397e-006
14774	20.584	4.1818	0.	1.8566e-002
14775	20.492	4.0909	0.	1.887e-002
14776	20.492	4.1818	5.e-002	3.8773e-006
14777	20.769	4.1818	0.	1.9942e-002
14778	20.676	4.0909	0.	2.0198e-002
14779	20.676	4.1818	5.e-002	4.3828e-006
14780	20.953	4.1818	0.	2.1497e-002
14781	20.861	4.0909	0.	2.1691e-002
14782	20.861	4.1818	5.e-002	3.9374e-006
14783	21.138	4.1818	0.	2.327e-002
14784	21.046	4.0909	0.	2.3379e-002
14785	21.046	4.1818	5.e-002	6.4442e-006
14786	21.323	4.1818	0.	2.5304e-002
14787	21.23	4.0909	0.	2.5311e-002
14788	21.23	4.1818	5.e-002	9.4305e-006
14789	21.507	4.1818	0.	2.7659e-002
14790	21.415	4.0909	0.	2.7526e-002
14791	21.415	4.1818	5.e-002	1.1729e-005
14792	21.692	4.1818	0.	3.0416e-002
14793	21.6	4.0909	0.	3.0103e-002
14794	21.6	4.1818	5.e-002	1.2749e-005
14795	21.877	4.1818	0.	3.3675e-002
14796	21.784	4.0909	0.	3.313e-002
14797	21.784	4.1818	5.e-002	8.1173e-006
14798	22.061	4.1818	0.	3.7582e-002
14799	21.969	4.0909	0.	3.6725e-002
14800	21.969	4.1818	5.e-002	8.2861e-006
14801	22.246	4.1818	0.	4.2339e-002
14802	22.154	4.0909	0.	4.1059e-002
14803	22.154	4.1818	5.e-002	6.8929e-006
14804	22.431	4.1818	0.	4.8263e-002
14805	22.338	4.0909	0.	4.638e-002
14806	22.338	4.1818	5.e-002	6.1224e-006
14807	22.615	4.1818	0.	5.576e-002
14808	22.523	4.0909	0.	5.3098e-002
14809	22.523	4.1818	5.e-002	7.7318e-006
14810	22.8	4.1818	0.	6.5823e-002
14811	22.708	4.0909	0.	6.1646e-002
14812	22.708	4.1818	5.e-002	7.8706e-006
14813	22.984	4.1818	0.	7.8841e-002
14814	22.892	4.0909	0.	7.3653e-002
14815	22.892	4.1818	5.e-002	6.7161e-006
14816	23.169	4.1818	0.	0.10101
14817	23.077	4.0909	0.	8.8435e-002
14818	23.077	4.1818	5.e-002	7.1803e-006
14819	23.354	4.1818	0.	0.12309
14820	23.261	4.0909	0.	0.1195
14821	23.261	4.1818	5.e-002	8.8722e-006
14822	23.538	4.1818	0.	0.21776
14823	23.446	4.0909	0.	0.13611
14824	23.446	4.1818	5.e-002	2.866e-006
14825	23.723	4.1818	0.	0.20745
14826	23.631	4.0909	0.	0.32027
14827	23.631	4.1818	5.e-002	5.193e-007
14828	23.815	4.0909	0.	0.18334
14829	23.815	4.1818	5.e-002	1.3842e-006
14830	23.908	4.1818	0.	0.42059
14831	5.4436	4.	0.	-296.3
14832	5.3513	3.9091	0.	-292.4
14833	5.3513	4.	5.e-002	-8.5417e-004
14834	5.259	4.	0.	-536.29
14835	5.6283	4.	0.	35.288
14836	5.5359	3.9091	0.	67.379
14837	5.5359	4.	5.e-002	-2.2702e-004
14838	5.8129	4.	0.	-12.806
14839	5.7206	3.9091	0.	-15.838
14840	5.7206	4.	5.e-002	-2.7364e-004
14841	5.9975	4.	0.	-39.211
14842	5.9052	3.9091	0.	-29.56
14843	5.9052	4.	5.e-002	-2.6204e-004
14844	6.1822	4.	0.	-140.91
14845	6.0899	3.9091	0.	-149.66
14846	6.0899	4.	5.e-002	-2.4171e-004
14847	6.3668	4.	0.	-206.83
14848	6.2745	3.9091	0.	-226.34
14849	6.2745	4.	5.e-002	-1.9861e-004
14850	6.5515	4.	0.	-243.17
14851	6.4592	3.9091	0.	-269.36
14852	6.4592	4.	5.e-002	-1.8626e-004
14853	6.7361	4.	0.	-260.39
14854	6.6438	3.9091	0.	-290.15
14855	6.6438	4.	5.e-002	-1.402e-004
14856	6.9208	4.	0.	-265.47
14857	6.8284	3.9091	0.	-296.66
14858	6.8284	4.	5.e-002	-1.1595e-004
14859	7.1054	4.	0.	-262.84
14860	7.0131	3.9091	0.	-294.
14861	7.0131	4.	5.e-002	-9.0856e-005
14862	7.29	4.	0.	-255.36
14863	7.1977	3.9091	0.	-285.55
14864	7.1977	4.	5.e-002	-1.1434e-004
14865	7.4747	4.	0.	-244.92
14866	7.3824	3.9091	0.	-273.55
14867	7.3824	4.	5.e-002	-6.9353e-005
14868	7.6593	4.	0.	-232.75
14869	7.567	3.9091	0.	-259.5
14870	7.567	4.	5.e-002	-6.3258e-005
14871	7.844	4.	0.	-219.66
14872	7.7516	3.9091	0.	-244.39
14873	7.7516	4.	5.e-002	-5.8548e-005
14874	8.0286	4.	0.	-206.2
14875	7.9363	3.9091	0.	-228.89
14876	7.9363	4.	5.e-002	-2.5883e-005
14877	8.2132	4.	0.	-192.74
14878	8.1209	3.9091	0.	-213.45
14879	8.1209	4.	5.e-002	-4.1672e-005
14880	8.3979	4.	0.	-179.54
14881	8.3056	3.9091	0.	-198.36
14882	8.3056	4.	5.e-002	-3.277e-005
14883	8.5825	4.	0.	-166.75
14884	8.4902	3.9091	0.	-183.8
14885	8.4902	4.	5.e-002	-2.2741e-005
14886	8.7672	4.	0.	-154.47
14887	8.6748	3.9091	0.	-169.91
14888	8.6748	4.	5.e-002	-1.8307e-005
14889	8.9518	4.	0.	-142.79
14890	8.8595	3.9091	0.	-156.73
14891	8.8595	4.	5.e-002	-1.7733e-005
14892	9.1364	4.	0.	-131.72
14893	9.0441	3.9091	0.	-144.32
14894	9.0441	4.	5.e-002	-1.8251e-005
14895	9.3211	4.	0.	-121.28
14896	9.2288	3.9091	0.	-132.67
14897	9.2288	4.	5.e-002	-1.7279e-005
14898	9.5057	4.	0.	-111.48
14899	9.4134	3.9091	0.	-121.77
14900	9.4134	4.	5.e-002	-1.3336e-005
14901	9.6904	4.	0.	-102.29
14902	9.598	3.9091	0.	-111.6
14903	9.598	4.	5.e-002	-1.0691e-005
14904	9.875	4.	0.	-93.704
14905	9.7827	3.9091	0.	-102.13
14906	9.7827	4.	5.e-002	-1.2211e-005
14907	10.06	4.	0.	-85.696
14908	9.9673	3.9091	0.	-93.33
14909	9.9673	4.	5.e-002	-1.0339e-005
14910	10.244	4.	0.	-78.236
14911	10.152	3.9091	0.	-85.163
14912	10.152	4.	5.e-002	-7.8558e-006
14913	10.429	4.	0.	-71.297
14914	10.337	3.9091	0.	-77.589
14915	10.337	4.	5.e-002	-7.2131e-006
14916	10.614	4.	0.	-64.849
14917	10.521	3.9091	0.	-70.571
14918	10.521	4.	5.e-002	-5.5842e-006
14919	10.798	4.	0.	-58.862
14920	10.706	3.9091	0.	-64.073
14921	10.706	4.	5.e-002	-5.1953e-006
14922	10.983	4.	0.	-53.305
14923	10.891	3.9091	0.	-58.057
14924	10.891	4.	5.e-002	-4.3863e-006
14925	11.167	4.	0.	-48.151
14926	11.075	3.9091	0.	-52.489
14927	11.075	4.	5.e-002	-4.2852e-006
14928	11.352	4.	0.	-43.372
14929	11.26	3.9091	0.	-47.338
14930	11.26	4.	5.e-002	-2.5381e-006
14931	11.537	4.	0.	-38.941
14932	11.444	3.9091	0.	-42.571
14933	11.444	4.	5.e-002	-2.2285e-006
14934	11.721	4.	0.	-34.833
14935	11.629	3.9091	0.	-38.16
14936	11.629	4.	5.e-002	-1.9172e-006
14937	11.906	4.	0.	-31.024
14938	11.814	3.9091	0.	-34.076
14939	11.814	4.	5.e-002	-8.3184e-007
14940	12.091	4.	0.	-27.492
14941	11.998	3.9091	0.	-30.295
14942	11.998	4.	5.e-002	2.3909e-007
14943	12.275	4.	0.	-24.215
14944	12.183	3.9091	0.	-26.793
14945	12.183	4.	5.e-002	-6.6943e-007
14946	12.46	4.	0.	-21.174
14947	12.368	3.9091	0.	-23.547
14948	12.368	4.	5.e-002	9.9713e-008
14949	12.645	4.	0.	-18.35
14950	12.552	3.9091	0.	-20.537
14951	12.552	4.	5.e-002	1.7217e-006
14952	12.829	4.	0.	-15.725
14953	12.737	3.9091	0.	-17.744
14954	12.737	4.	5.e-002	2.0519e-006
14955	13.014	4.	0.	-13.284
14956	12.922	3.9091	0.	-15.148
14957	12.922	4.	5.e-002	2.9452e-006
14958	13.199	4.	0.	-11.01
14959	13.106	3.9091	0.	-12.735
14960	13.106	4.	5.e-002	3.7901e-006
14961	13.383	4.	0.	-8.8908
14962	13.291	3.9091	0.	-10.487
14963	13.291	4.	5.e-002	3.3399e-006
14964	13.568	4.	0.	-6.9116
14965	13.475	3.9091	0.	-8.3921
14966	13.475	4.	5.e-002	3.2455e-006
14967	13.752	4.	0.	-5.0605
14968	13.66	3.9091	0.	-6.435
14969	13.66	4.	5.e-002	3.8618e-006
14970	13.937	4.	0.	-3.3261
14971	13.845	3.9091	0.	-4.6039
14972	13.845	4.	5.e-002	3.8322e-006
14973	14.122	4.	0.	-1.6992
14974	14.029	3.9091	0.	-2.8873
14975	14.029	4.	5.e-002	3.9437e-006
14976	14.306	4.	0.	-0.21166
14977	14.214	3.9091	0.	-1.2767
14978	14.214	4.	5.e-002	3.5604e-006
14979	14.491	4.	0.	-3.2204e-003
14980	14.399	3.9091	0.	-2.9706e-002
14981	14.399	4.	5.e-002	4.0112e-006
14982	14.676	4.	0.	1.6678e-003
14983	14.583	3.9091	0.	3.0507e-004
14984	14.583	4.	5.e-002	4.5376e-006
14985	14.86	4.	0.	3.3009e-003
14986	14.768	3.9091	0.	3.1513e-003
14987	14.768	4.	5.e-002	5.806e-006
14988	15.045	4.	0.	4.1838e-003
14989	14.953	3.9091	0.	4.3183e-003
14990	14.953	4.	5.e-002	4.8688e-006
14991	15.23	4.	0.	4.7797e-003
14992	15.137	3.9091	0.	5.0142e-003
14993	15.137	4.	5.e-002	6.1058e-006
14994	15.414	4.	0.	5.2394e-003
14995	15.322	3.9091	0.	5.5175e-003
14996	15.322	4.	5.e-002	5.5041e-006
14997	15.599	4.	0.	5.6247e-003
14998	15.507	3.9091	0.	5.9255e-003
14999	15.507	4.	5.e-002	4.201e-006
15000	15.783	4.	0.	5.9673e-003
15001	15.691	3.9091	0.	6.2802e-003
15002	15.691	4.	5.e-002	3.8188e-006
15003	15.968	4.	0.	6.2851e-003
15004	15.876	3.9091	0.	6.6057e-003
15005	15.876	4.	5.e-002	3.6995e-006
15006	16.153	4.	0.	6.5891e-003
15007	16.06	3.9091	0.	6.9143e-003
15008	16.06	4.	5.e-002	3.7988e-006
15009	16.337	4.	0.	6.8863e-003
15010	16.245	3.9091	0.	7.2164e-003
15011	16.245	4.	5.e-002	4.0227e-006
15012	16.522	4.	0.	7.1859e-003
15013	16.43	3.9091	0.	7.5137e-003
15014	16.43	4.	5.e-002	4.6412e-006
15015	16.707	4.	0.	7.4913e-003
15016	16.614	3.9091	0.	7.8232e-003
15017	16.614	4.	5.e-002	4.9734e-006
15018	16.891	4.	0.	7.7915e-003
15019	16.799	3.9091	0.	8.1329e-003
15020	16.799	4.	5.e-002	5.7749e-006
15021	17.076	4.	0.	8.1008e-003
15022	16.984	3.9091	0.	8.4349e-003
15023	16.984	4.	5.e-002	5.4415e-006
15024	17.261	4.	0.	8.4331e-003
15025	17.168	3.9091	0.	8.765e-003
15026	17.168	4.	5.e-002	4.6647e-006
15027	17.445	4.	0.	8.7776e-003
15028	17.353	3.9091	0.	9.1134e-003
15029	17.353	4.	5.e-002	5.4648e-006
15030	17.63	4.	0.	9.1367e-003
15031	17.538	3.9091	0.	9.4698e-003
15032	17.538	4.	5.e-002	6.1284e-006
15033	17.815	4.	0.	9.5175e-003
15034	17.722	3.9091	0.	9.8483e-003
15035	17.722	4.	5.e-002	5.936e-006
15036	17.999	4.	0.	9.9184e-003
15037	17.907	3.9091	0.	1.0248e-002
15038	17.907	4.	5.e-002	6.2484e-006
15039	18.184	4.	0.	1.0344e-002
15040	18.092	3.9091	0.	1.0671e-002
15041	18.092	4.	5.e-002	5.7877e-006
15042	18.368	4.	0.	1.0799e-002
15043	18.276	3.9091	0.	1.1122e-002
15044	18.276	4.	5.e-002	5.3848e-006
15045	18.553	4.	0.	1.1286e-002
15046	18.461	3.9091	0.	1.1605e-002
15047	18.461	4.	5.e-002	7.0516e-006
15048	18.738	4.	0.	1.1809e-002
15049	18.645	3.9091	0.	1.212e-002
15050	18.645	4.	5.e-002	7.9895e-006
15051	18.922	4.	0.	1.2372e-002
15052	18.83	3.9091	0.	1.2675e-002
15053	18.83	4.	5.e-002	9.4214e-006
15054	19.107	4.	0.	1.2979e-002
15055	19.015	3.9091	0.	1.3273e-002
15056	19.015	4.	5.e-002	9.2883e-006
15057	19.292	4.	0.	1.3635e-002
15058	19.199	3.9091	0.	1.3918e-002
15059	19.199	4.	5.e-002	6.9786e-006
15060	19.476	4.	0.	1.435e-002
15061	19.384	3.9091	0.	1.4617e-002
15062	19.384	4.	5.e-002	7.0392e-006
15063	19.661	4.	0.	1.513e-002
15064	19.569	3.9091	0.	1.5382e-002
15065	19.569	4.	5.e-002	7.1358e-006
15066	19.846	4.	0.	1.5984e-002
15067	19.753	3.9091	0.	1.6213e-002
15068	19.753	4.	5.e-002	1.0073e-005
15069	20.03	4.	0.	1.6921e-002
15070	19.938	3.9091	0.	1.7126e-002
15071	19.938	4.	5.e-002	8.6805e-006
15072	20.215	4.	0.	1.7956e-002
15073	20.123	3.9091	0.	1.8127e-002
15074	20.123	4.	5.e-002	5.6444e-006
15075	20.4	4.	0.	1.9102e-002
15076	20.307	3.9091	0.	1.9236e-002
15077	20.307	4.	5.e-002	7.4792e-006
15078	20.584	4.	0.	2.0381e-002
15079	20.492	3.9091	0.	2.0465e-002
15080	20.492	4.	5.e-002	5.687e-006
15081	20.769	4.	0.	2.1814e-002
15082	20.676	3.9091	0.	2.1838e-002
15083	20.676	4.	5.e-002	7.0434e-006
15084	20.953	4.	0.	2.3428e-002
15085	20.861	3.9091	0.	2.3379e-002
15086	20.861	4.	5.e-002	6.7499e-006
15087	21.138	4.	0.	2.526e-002
15088	21.046	3.9091	0.	2.5117e-002
15089	21.046	4.	5.e-002	8.0681e-006
15090	21.323	4.	0.	2.7355e-002
15091	21.23	3.9091	0.	2.7097e-002
15092	21.23	4.	5.e-002	1.1092e-005
15093	21.507	4.	0.	2.9769e-002
15094	21.415	3.9091	0.	2.9363e-002
15095	21.415	4.	5.e-002	1.2837e-005
15096	21.692	4.	0.	3.2587e-002
15097	21.6	3.9091	0.	3.1988e-002
15098	21.6	4.	5.e-002	1.3444e-005
15099	21.877	4.	0.	3.5909e-002
15100	21.784	3.9091	0.	3.5067e-002
15101	21.784	4.	5.e-002	1.1532e-005
15102	22.061	4.	0.	3.9877e-002
15103	21.969	3.9091	0.	3.8709e-002
15104	21.969	4.	5.e-002	1.0891e-005
15105	22.246	4.	0.	4.4697e-002
15106	22.154	3.9091	0.	4.3095e-002
15107	22.154	4.	5.e-002	8.7517e-006
15108	22.431	4.	0.	5.0694e-002
15109	22.338	3.9091	0.	4.847e-002
15110	22.338	4.	5.e-002	7.8734e-006
15111	22.615	4.	0.	5.8275e-002
15112	22.523	3.9091	0.	5.5253e-002
15113	22.523	4.	5.e-002	1.1256e-005
15114	22.8	4.	0.	6.8448e-002
15115	22.708	3.9091	0.	6.3885e-002
15116	22.708	4.	5.e-002	1.1363e-005
15117	22.984	4.	0.	8.1621e-002
15118	22.892	3.9091	0.	7.6008e-002
15119	22.892	4.	5.e-002	6.5357e-006
15120	23.169	4.	0.	0.10403
15121	23.077	3.9091	0.	9.0955e-002
15122	23.077	4.	5.e-002	8.8565e-006
15123	23.354	4.	0.	0.12646
15124	23.261	3.9091	0.	0.12229
15125	23.261	4.	5.e-002	8.55e-006
15126	23.538	4.	0.	0.22202
15127	23.446	3.9091	0.	0.13929
15128	23.446	4.	5.e-002	6.5214e-006
15129	23.723	4.	0.	0.21411
15130	23.631	3.9091	0.	0.32478
15131	23.631	4.	5.e-002	4.1659e-006
15132	23.815	3.9091	0.	0.19228
15133	23.815	4.	5.e-002	6.5435e-006
15134	23.908	4.	0.	0.42289
15135	5.4436	3.8182	0.	22.561
15136	5.3513	3.7273	0.	-10.123
15137	5.3513	3.8182	5.e-002	-1.6461e-004
15138	5.6283	3.8182	0.	16.761
15139	5.5359	3.7273	0.	16.4
15140	5.5359	3.8182	5.e-002	-7.6673e-005
15141	5.8129	3.8182	0.	-13.727
15142	5.7206	3.7273	0.	-0.41762
15143	5.7206	3.8182	5.e-002	-7.7219e-005
15144	5.9975	3.8182	0.	-144.58
15145	5.9052	3.7273	0.	-113.55
15146	5.9052	3.8182	5.e-002	-8.7602e-005
15147	6.1822	3.8182	0.	-237.89
15148	6.0899	3.7273	0.	-232.26
15149	6.0899	3.8182	5.e-002	-1.0495e-004
15150	6.3668	3.8182	0.	-290.72
15151	6.2745	3.7273	0.	-301.12
15152	6.2745	3.8182	5.e-002	-9.8392e-005
15153	6.5515	3.8182	0.	-317.53
15154	6.4592	3.7273	0.	-337.81
15155	6.4592	3.8182	5.e-002	-9.6024e-005
15156	6.7361	3.8182	0.	-327.16
15157	6.6438	3.7273	0.	-353.06
15158	6.6438	3.8182	5.e-002	-1.1088e-004
15159	6.9208	3.8182	0.	-325.63
15160	6.8284	3.7273	0.	-354.28
15161	6.8284	3.8182	5.e-002	-9.9106e-005
15162	7.1054	3.8182	0.	-316.96
15163	7.0131	3.7273	0.	-346.43
15164	7.0131	3.8182	5.e-002	-8.1076e-005
15165	7.29	3.8182	0.	-303.87
15166	7.1977	3.7273	0.	-332.92
15167	7.1977	3.8182	5.e-002	-5.3814e-005
15168	7.4747	3.8182	0.	-288.2
15169	7.3824	3.7273	0.	-316.05
15170	7.3824	3.8182	5.e-002	-4.6438e-005
15171	7.6593	3.8182	0.	-271.18
15172	7.567	3.7273	0.	-297.39
15173	7.567	3.8182	5.e-002	-4.8621e-005
15174	7.844	3.8182	0.	-253.64
15175	7.7516	3.7273	0.	-277.99
15176	7.7516	3.8182	5.e-002	-4.437e-005
15177	8.0286	3.8182	0.	-236.15
15178	7.9363	3.7273	0.	-258.55
15179	7.9363	3.8182	5.e-002	-3.0538e-005
15180	8.2132	3.8182	0.	-219.06
15181	8.1209	3.7273	0.	-239.54
15182	8.1209	3.8182	5.e-002	-2.9533e-005
15183	8.3979	3.8182	0.	-202.62
15184	8.3056	3.7273	0.	-221.24
15185	8.3056	3.8182	5.e-002	-2.846e-005
15186	8.5825	3.8182	0.	-186.96
15187	8.4902	3.7273	0.	-203.84
15188	8.4902	3.8182	5.e-002	-2.6038e-005
15189	8.7672	3.8182	0.	-172.16
15190	8.6748	3.7273	0.	-187.43
15191	8.6748	3.8182	5.e-002	-2.3968e-005
15192	8.9518	3.8182	0.	-158.26
15193	8.8595	3.7273	0.	-172.05
15194	8.8595	3.8182	5.e-002	-1.8883e-005
15195	9.1364	3.8182	0.	-145.26
15196	9.0441	3.7273	0.	-157.71
15197	9.0441	3.8182	5.e-002	-2.0196e-005
15198	9.3211	3.8182	0.	-133.15
15199	9.2288	3.7273	0.	-144.37
15200	9.2288	3.8182	5.e-002	-1.4896e-005
15201	9.5057	3.8182	0.	-121.88
15202	9.4134	3.7273	0.	-132.01
15203	9.4134	3.8182	5.e-002	-1.4751e-005
15204	9.6904	3.8182	0.	-111.43
15205	9.598	3.7273	0.	-120.58
15206	9.598	3.8182	5.e-002	-1.3046e-005
15207	9.875	3.8182	0.	-101.75
15208	9.7827	3.7273	0.	-110.02
15209	9.7827	3.8182	5.e-002	-1.144e-005
15210	10.06	3.8182	0.	-92.791
15211	9.9673	3.7273	0.	-100.27
15212	9.9673	3.8182	5.e-002	-1.0878e-005
15213	10.244	3.8182	0.	-84.509
15214	10.152	3.7273	0.	-91.284
15215	10.152	3.8182	5.e-002	-8.5411e-006
15216	10.429	3.8182	0.	-76.855
15217	10.337	3.7273	0.	-83.
15218	10.337	3.8182	5.e-002	-7.6649e-006
15219	10.614	3.8182	0.	-69.786
15220	10.521	3.7273	0.	-75.366
15221	10.521	3.8182	5.e-002	-6.7692e-006
15222	10.798	3.8182	0.	-63.258
15223	10.706	3.7273	0.	-68.332
15224	10.706	3.8182	5.e-002	-4.8463e-006
15225	10.983	3.8182	0.	-57.231
15226	10.891	3.7273	0.	-61.851
15227	10.891	3.8182	5.e-002	-4.8002e-006
15228	11.167	3.8182	0.	-51.665
15229	11.075	3.7273	0.	-55.878
15230	11.075	3.8182	5.e-002	-4.2817e-006
15231	11.352	3.8182	0.	-46.525
15232	11.26	3.7273	0.	-50.371
15233	11.26	3.8182	5.e-002	-4.2609e-006
15234	11.537	3.8182	0.	-41.776
15235	11.444	3.7273	0.	-45.293
15236	11.444	3.8182	5.e-002	-2.7525e-006
15237	11.721	3.8182	0.	-37.388
15238	11.629	3.7273	0.	-40.608
15239	11.629	3.8182	5.e-002	-2.4663e-006
15240	11.906	3.8182	0.	-33.332
15241	11.814	3.7273	0.	-36.284
15242	11.814	3.8182	5.e-002	-1.7323e-006
15243	12.091	3.8182	0.	-29.581
15244	11.998	3.7273	0.	-32.29
15245	11.998	3.8182	5.e-002	-1.3215e-006
15246	12.275	3.8182	0.	-26.108
15247	12.183	3.7273	0.	-28.598
15248	12.183	3.8182	5.e-002	-1.6207e-006
15249	12.46	3.8182	0.	-22.893
15250	12.368	3.7273	0.	-25.184
15251	12.368	3.8182	5.e-002	-4.3611e-007
15252	12.645	3.8182	0.	-19.912
15253	12.552	3.7273	0.	-22.023
15254	12.552	3.8182	5.e-002	9.6246e-007
15255	12.829	3.8182	0.	-17.147
15256	12.737	3.7273	0.	-19.094
15257	12.737	3.8182	5.e-002	1.5895e-006
15258	13.014	3.8182	0.	-14.579
15259	12.922	3.7273	0.	-16.378
15260	12.922	3.8182	5.e-002	2.2491e-006
15261	13.199	3.8182	0.	-12.191
15262	13.106	3.7273	0.	-13.855
15263	13.106	3.8182	5.e-002	3.2992e-006
15264	13.383	3.8182	0.	-9.9677
15265	13.291	3.7273	0.	-11.508
15266	13.291	3.8182	5.e-002	1.9904e-006
15267	13.568	3.8182	0.	-7.8938
15268	13.475	3.7273	0.	-9.3227
15269	13.475	3.8182	5.e-002	2.5463e-006
15270	13.752	3.8182	0.	-5.9561
15271	13.66	3.7273	0.	-7.2835
15272	13.66	3.8182	5.e-002	2.7665e-006
15273	13.937	3.8182	0.	-4.142
15274	13.845	3.7273	0.	-5.377
15275	13.845	3.8182	5.e-002	2.8286e-006
15276	14.122	3.8182	0.	-2.4403
15277	14.029	3.7273	0.	-3.5909
15278	14.029	3.8182	5.e-002	2.9159e-006
15279	14.306	3.8182	0.	-0.84397
15280	14.214	3.7273	0.	-1.9141
15281	14.214	3.8182	5.e-002	2.2455e-006
15282	14.491	3.8182	0.	-5.8738e-003
15283	14.399	3.7273	0.	-0.3484
15284	14.399	3.8182	5.e-002	2.9163e-006
15285	14.676	3.8182	0.	2.6112e-003
15286	14.583	3.7273	0.	8.5988e-004
15287	14.583	3.8182	5.e-002	3.614e-006
15288	14.86	3.8182	0.	4.3597e-003
15289	14.768	3.7273	0.	4.2515e-003
15290	14.768	3.8182	5.e-002	4.8826e-006
15291	15.045	3.8182	0.	5.2085e-003
15292	14.953	3.7273	0.	5.3522e-003
15293	14.953	3.8182	5.e-002	3.7681e-006
15294	15.23	3.8182	0.	5.766e-003
15295	15.137	3.7273	0.	5.9792e-003
15296	15.137	3.8182	5.e-002	5.3248e-006
15297	15.414	3.8182	0.	6.1967e-003
15298	15.322	3.7273	0.	6.4328e-003
15299	15.322	3.8182	5.e-002	4.5244e-006
15300	15.599	3.8182	0.	6.5627e-003
15301	15.507	3.7273	0.	6.8079e-003
15302	15.507	3.8182	5.e-002	3.1714e-006
15303	15.783	3.8182	0.	6.8934e-003
15304	15.691	3.7273	0.	7.1406e-003
15305	15.691	3.8182	5.e-002	2.6285e-006
15306	15.968	3.8182	0.	7.205e-003
15307	15.876	3.7273	0.	7.4524e-003
15308	15.876	3.8182	5.e-002	2.3314e-006
15309	16.153	3.8182	0.	7.5082e-003
15310	16.06	3.7273	0.	7.7548e-003
15311	16.06	3.8182	5.e-002	2.4258e-006
15312	16.337	3.8182	0.	7.8075e-003
15313	16.245	3.7273	0.	8.0538e-003
15314	16.245	3.8182	5.e-002	2.8814e-006
15315	16.522	3.8182	0.	8.1122e-003
15316	16.43	3.7273	0.	8.3517e-003
15317	16.43	3.8182	5.e-002	3.5076e-006
15318	16.707	3.8182	0.	8.4238e-003
15319	16.614	3.7273	0.	8.664e-003
15320	16.614	3.8182	5.e-002	3.5595e-006
15321	16.891	3.8182	0.	8.7334e-003
15322	16.799	3.7273	0.	8.9791e-003
15323	16.799	3.8182	5.e-002	4.3461e-006
15324	17.076	3.8182	0.	9.0543e-003
15325	16.984	3.7273	0.	9.2885e-003
15326	16.984	3.8182	5.e-002	4.6143e-006
15327	17.261	3.8182	0.	9.3985e-003
15328	17.168	3.7273	0.	9.627e-003
15329	17.168	3.8182	5.e-002	3.3625e-006
15330	17.445	3.8182	0.	9.7569e-003
15331	17.353	3.7273	0.	9.9864e-003
15332	17.353	3.8182	5.e-002	3.7804e-006
15333	17.63	3.8182	0.	1.0131e-002
15334	17.538	3.7273	0.	1.0355e-002
15335	17.538	3.8182	5.e-002	4.5773e-006
15336	17.815	3.8182	0.	1.0527e-002
15337	17.722	3.7273	0.	1.0745e-002
15338	17.722	3.8182	5.e-002	4.3835e-006
15339	17.999	3.8182	0.	1.0946e-002
15340	17.907	3.7273	0.	1.1159e-002
15341	17.907	3.8182	5.e-002	4.4291e-006
15342	18.184	3.8182	0.	1.1393e-002
15343	18.092	3.7273	0.	1.1598e-002
15344	18.092	3.8182	5.e-002	4.4601e-006
15345	18.368	3.8182	0.	1.1868e-002
15346	18.276	3.7273	0.	1.2066e-002
15347	18.276	3.8182	5.e-002	3.7584e-006
15348	18.553	3.8182	0.	1.2377e-002
15349	18.461	3.7273	0.	1.2565e-002
15350	18.461	3.8182	5.e-002	4.9839e-006
15351	18.738	3.8182	0.	1.2922e-002
15352	18.645	3.7273	0.	1.3099e-002
15353	18.645	3.8182	5.e-002	6.1652e-006
15354	18.922	3.8182	0.	1.3508e-002
15355	18.83	3.7273	0.	1.3675e-002
15356	18.83	3.8182	5.e-002	7.8168e-006
15357	19.107	3.8182	0.	1.4142e-002
15358	19.015	3.7273	0.	1.4293e-002
15359	19.015	3.8182	5.e-002	7.4721e-006
15360	19.292	3.8182	0.	1.4827e-002
15361	19.199	3.7273	0.	1.4962e-002
15362	19.199	3.8182	5.e-002	5.5699e-006
15363	19.476	3.8182	0.	1.5572e-002
15364	19.384	3.7273	0.	1.5686e-002
15365	19.384	3.8182	5.e-002	4.9205e-006
15366	19.661	3.8182	0.	1.6382e-002
15367	19.569	3.7273	0.	1.6476e-002
15368	19.569	3.8182	5.e-002	5.0284e-006
15369	19.846	3.8182	0.	1.7268e-002
15370	19.753	3.7273	0.	1.7332e-002
15371	19.753	3.8182	5.e-002	8.4304e-006
15372	20.03	3.8182	0.	1.824e-002
15373	19.938	3.7273	0.	1.8274e-002
15374	19.938	3.8182	5.e-002	6.9719e-006
15375	20.215	3.8182	0.	1.9309e-002
15376	20.123	3.7273	0.	1.9304e-002
15377	20.123	3.8182	5.e-002	3.9564e-006
15378	20.4	3.8182	0.	2.0494e-002
15379	20.307	3.7273	0.	2.0444e-002
15380	20.307	3.8182	5.e-002	5.894e-006
15381	20.584	3.8182	0.	2.1811e-002
15382	20.492	3.7273	0.	2.1705e-002
15383	20.492	3.8182	5.e-002	3.9883e-006
15384	20.769	3.8182	0.	2.3281e-002
15385	20.676	3.7273	0.	2.3111e-002
15386	20.676	3.8182	5.e-002	4.5112e-006
15387	20.953	3.8182	0.	2.4935e-002
15388	20.861	3.7273	0.	2.4682e-002
15389	20.861	3.8182	5.e-002	3.1595e-006
15390	21.138	3.8182	0.	2.6807e-002
15391	21.046	3.7273	0.	2.6455e-002
15392	21.046	3.8182	5.e-002	5.9648e-006
15393	21.323	3.8182	0.	2.8941e-002
15394	21.23	3.7273	0.	2.8466e-002
15395	21.23	3.8182	5.e-002	7.0609e-006
15396	21.507	3.8182	0.	3.1396e-002
15397	21.415	3.7273	0.	3.0766e-002
15398	21.415	3.8182	5.e-002	1.2075e-005
15399	21.692	3.8182	0.	3.4253e-002
15400	21.6	3.7273	0.	3.3423e-002
15401	21.6	3.8182	5.e-002	1.1221e-005
15402	21.877	3.8182	0.	3.7613e-002
15403	21.784	3.7273	0.	3.6534e-002
15404	21.784	3.8182	5.e-002	9.3245e-006
15405	22.061	3.8182	0.	4.162e-002
15406	21.969	3.7273	0.	4.0205e-002
15407	21.969	3.8182	5.e-002	7.7955e-006
15408	22.246	3.8182	0.	4.6484e-002
15409	22.154	3.7273	0.	4.4626e-002
15410	22.154	3.8182	5.e-002	6.5929e-006
15411	22.431	3.8182	0.	5.2528e-002
15412	22.338	3.7273	0.	5.0039e-002
15413	22.338	3.8182	5.e-002	3.8259e-006
15414	22.615	3.8182	0.	6.0173e-002
15415	22.523	3.7273	0.	5.6866e-002
15416	22.523	3.8182	5.e-002	8.0773e-006
15417	22.8	3.8182	0.	7.0432e-002
15418	22.708	3.7273	0.	6.5561e-002
15419	22.708	3.8182	5.e-002	8.9971e-006
15420	22.984	3.8182	0.	8.3725e-002
15421	22.892	3.7273	0.	7.7774e-002
15422	22.892	3.8182	5.e-002	6.147e-006
15423	23.169	3.8182	0.	0.10633
15424	23.077	3.7273	0.	9.2847e-002
15425	23.077	3.8182	5.e-002	5.7749e-006
15426	23.354	3.8182	0.	0.12902
15427	23.261	3.7273	0.	0.1244
15428	23.261	3.8182	5.e-002	8.3935e-006
15429	23.538	3.8182	0.	0.22528
15430	23.446	3.7273	0.	0.14169
15431	23.446	3.8182	5.e-002	4.4513e-006
15432	23.723	3.8182	0.	0.21929
15433	23.631	3.7273	0.	0.32821
15434	23.631	3.8182	5.e-002	-1.5993e-006
15435	23.815	3.7273	0.	0.19924
15436	23.815	3.8182	5.e-002	7.3608e-007
15437	23.908	3.8182	0.	0.42462
15438	5.4436	3.6364	0.	-15.907
15439	5.3513	3.5455	0.	-7.5515
15440	5.3513	3.6364	5.e-002	-1.9473e-004
15441	5.6283	3.6364	0.	-2.3291
15442	5.5359	3.5455	0.	-5.247
15443	5.5359	3.6364	5.e-002	2.3048e-005
15444	5.8129	3.6364	0.	-41.015
15445	5.7206	3.5455	0.	2.5077
15446	5.7206	3.6364	5.e-002	4.2525e-005
15447	5.9975	3.6364	0.	-201.21
15448	5.9052	3.5455	0.	-141.79
15449	5.9052	3.6364	5.e-002	3.1431e-006
15450	6.1822	3.6364	0.	-296.23
15451	6.0899	3.5455	0.	-270.8
15452	6.0899	3.6364	5.e-002	-2.6585e-005
15453	6.3668	3.6364	0.	-348.98
15454	6.2745	3.5455	0.	-345.96
15455	6.2745	3.6364	5.e-002	-6.0873e-005
15456	6.5515	3.6364	0.	-373.93
15457	6.4592	3.5455	0.	-384.99
15458	6.4592	3.6364	5.e-002	-7.1339e-005
15459	6.7361	3.6364	0.	-380.58
15460	6.6438	3.5455	0.	-400.
15461	6.6438	3.6364	5.e-002	-6.64e-005
15462	6.9208	3.6364	0.	-375.33
15463	6.8284	3.5455	0.	-399.27
15464	6.8284	3.6364	5.e-002	-7.0869e-005
15465	7.1054	3.6364	0.	-362.54
15466	7.0131	3.5455	0.	-388.49
15467	7.0131	3.6364	5.e-002	-6.1915e-005
15468	7.29	3.6364	0.	-345.18
15469	7.1977	3.5455	0.	-371.52
15470	7.1977	3.6364	5.e-002	-7.4389e-005
15471	7.4747	3.6364	0.	-325.29
15472	7.3824	3.5455	0.	-351.
15473	7.3824	3.6364	5.e-002	-5.7478e-005
15474	7.6593	3.6364	0.	-304.22
15475	7.567	3.5455	0.	-328.7
15476	7.567	3.6364	5.e-002	-4.842e-005
15477	7.844	3.6364	0.	-282.9
15478	7.7516	3.5455	0.	-305.82
15479	7.7516	3.6364	5.e-002	-3.211e-005
15480	8.0286	3.6364	0.	-261.94
15481	7.9363	3.5455	0.	-283.15
15482	7.9363	3.6364	5.e-002	-3.2077e-005
15483	8.2132	3.6364	0.	-241.71
15484	8.1209	3.5455	0.	-261.17
15485	8.1209	3.6364	5.e-002	-2.8088e-005
15486	8.3979	3.6364	0.	-222.46
15487	8.3056	3.5455	0.	-240.2
15488	8.3056	3.6364	5.e-002	-2.5495e-005
15489	8.5825	3.6364	0.	-204.31
15490	8.4902	3.5455	0.	-220.42
15491	8.4902	3.6364	5.e-002	-2.2198e-005
15492	8.7672	3.6364	0.	-187.31
15493	8.6748	3.5455	0.	-201.91
15494	8.6748	3.6364	5.e-002	-2.0436e-005
15495	8.9518	3.6364	0.	-171.49
15496	8.8595	3.5455	0.	-184.68
15497	8.8595	3.6364	5.e-002	-1.7293e-005
15498	9.1364	3.6364	0.	-156.81
15499	9.0441	3.5455	0.	-168.73
15500	9.0441	3.6364	5.e-002	-1.7058e-005
15501	9.3211	3.6364	0.	-143.24
15502	9.2288	3.5455	0.	-153.99
15503	9.2288	3.6364	5.e-002	-1.3211e-005
15504	9.5057	3.6364	0.	-130.71
15505	9.4134	3.5455	0.	-140.41
15506	9.4134	3.6364	5.e-002	-1.1995e-005
15507	9.6904	3.6364	0.	-119.16
15508	9.598	3.5455	0.	-127.93
15509	9.598	3.6364	5.e-002	-1.1099e-005
15510	9.875	3.6364	0.	-108.54
15511	9.7827	3.5455	0.	-116.45
15512	9.7827	3.6364	5.e-002	-1.1778e-005
15513	10.06	3.6364	0.	-98.759
15514	9.9673	3.5455	0.	-105.92
15515	9.9673	3.6364	5.e-002	-9.4182e-006
15516	10.244	3.6364	0.	-89.769
15517	10.152	3.5455	0.	-96.253
15518	10.152	3.6364	5.e-002	-7.2989e-006
15519	10.429	3.6364	0.	-81.503
15520	10.337	3.5455	0.	-87.382
15521	10.337	3.6364	5.e-002	-6.1798e-006
15522	10.614	3.6364	0.	-73.904
15523	10.521	3.5455	0.	-79.24
15524	10.521	3.6364	5.e-002	-7.6407e-006
15525	10.798	3.6364	0.	-66.916
15526	10.706	3.5455	0.	-71.766
15527	10.706	3.6364	5.e-002	-5.0749e-006
15528	10.983	3.6364	0.	-60.488
15529	10.891	3.5455	0.	-64.903
15530	10.891	3.6364	5.e-002	-5.4094e-006
15531	11.167	3.6364	0.	-54.573
15532	11.075	3.5455	0.	-58.597
15533	11.075	3.6364	5.e-002	-4.424e-006
15534	11.352	3.6364	0.	-49.128
15535	11.26	3.5455	0.	-52.801
15536	11.26	3.6364	5.e-002	-3.1178e-006
15537	11.537	3.6364	0.	-44.113
15538	11.444	3.5455	0.	-47.469
15539	11.444	3.6364	5.e-002	-2.2476e-006
15540	11.721	3.6364	0.	-39.49
15541	11.629	3.5455	0.	-42.562
15542	11.629	3.6364	5.e-002	-2.5248e-006
15543	11.906	3.6364	0.	-35.227
15544	11.814	3.5455	0.	-38.042
15545	11.814	3.6364	5.e-002	-1.3085e-006
15546	12.091	3.6364	0.	-31.292
15547	11.998	3.5455	0.	-33.876
15548	11.998	3.6364	5.e-002	-6.1433e-008
15549	12.275	3.6364	0.	-27.657
15550	12.183	3.5455	0.	-30.032
15551	12.183	3.6364	5.e-002	-1.0523e-006
15552	12.46	3.6364	0.	-24.297
15553	12.368	3.5455	0.	-26.481
15554	12.368	3.6364	5.e-002	-4.3794e-007
15555	12.645	3.6364	0.	-21.187
15556	12.552	3.5455	0.	-23.2
15557	12.552	3.6364	5.e-002	1.6407e-006
15558	12.829	3.6364	0.	-18.306
15559	12.737	3.5455	0.	-20.163
15560	12.737	3.6364	5.e-002	2.0355e-006
15561	13.014	3.6364	0.	-15.634
15562	12.922	3.5455	0.	-17.349
15563	12.922	3.6364	5.e-002	2.2708e-006
15564	13.199	3.6364	0.	-13.151
15565	13.106	3.5455	0.	-14.739
15566	13.106	3.6364	5.e-002	3.5582e-006
15567	13.383	3.6364	0.	-10.842
15568	13.291	3.5455	0.	-12.313
15569	13.291	3.6364	5.e-002	2.714e-006
15570	13.568	3.6364	0.	-8.6908
15571	13.475	3.5455	0.	-10.056
15572	13.475	3.6364	5.e-002	2.8089e-006
15573	13.752	3.6364	0.	-6.6822
15574	13.66	3.5455	0.	-7.9514
15575	13.66	3.6364	5.e-002	2.958e-006
15576	13.937	3.6364	0.	-4.8031
15577	13.845	3.5455	0.	-5.9853
15578	13.845	3.6364	5.e-002	3.2156e-006
15579	14.122	3.6364	0.	-3.041
15580	14.029	3.5455	0.	-4.1442
15581	14.029	3.6364	5.e-002	3.2364e-006
15582	14.306	3.6364	0.	-1.3854
15583	14.214	3.5455	0.	-2.4162
15584	14.214	3.6364	5.e-002	3.1782e-006
15585	14.491	3.6364	0.	-1.9486e-002
15586	14.399	3.5455	0.	-0.79169
15587	14.399	3.6364	5.e-002	3.5134e-006
15588	14.676	3.6364	0.	3.7644e-003
15589	14.583	3.5455	0.	1.7227e-003
15590	14.583	3.6364	5.e-002	3.9482e-006
15591	14.86	3.6364	0.	5.4288e-003
15592	14.768	3.5455	0.	5.4067e-003
15593	14.768	3.6364	5.e-002	5.1467e-006
15594	15.045	3.6364	0.	6.1604e-003
15595	14.953	3.5455	0.	6.3098e-003
15596	14.953	3.6364	5.e-002	4.2546e-006
15597	15.23	3.6364	0.	6.6415e-003
15598	15.137	3.5455	0.	6.8212e-003
15599	15.137	3.6364	5.e-002	5.6753e-006
15600	15.414	3.6364	0.	7.0227e-003
15601	15.322	3.5455	0.	7.2053e-003
15602	15.322	3.6364	5.e-002	5.0249e-006
15603	15.599	3.6364	0.	7.3562e-003
15604	15.507	3.5455	0.	7.5362e-003
15605	15.507	3.6364	5.e-002	3.5526e-006
15606	15.783	3.6364	0.	7.6653e-003
15607	15.691	3.5455	0.	7.8403e-003
15608	15.691	3.6364	5.e-002	3.235e-006
15609	15.968	3.6364	0.	7.9649e-003
15610	15.876	3.5455	0.	8.1343e-003
15611	15.876	3.6364	5.e-002	2.505e-006
15612	16.153	3.6364	0.	8.2609e-003
15613	16.06	3.5455	0.	8.4252e-003
15614	16.06	3.6364	5.e-002	3.3069e-006
15615	16.337	3.6364	0.	8.5567e-003
15616	16.245	3.5455	0.	8.7168e-003
15617	16.245	3.6364	5.e-002	3.4037e-006
15618	16.522	3.6364	0.	8.8607e-003
15619	16.43	3.5455	0.	9.0122e-003
15620	16.43	3.6364	5.e-002	3.9049e-006
15621	16.707	3.6364	0.	9.175e-003
15622	16.614	3.5455	0.	9.3223e-003
15623	16.614	3.6364	5.e-002	4.0652e-006
15624	16.891	3.6364	0.	9.4885e-003
15625	16.799	3.5455	0.	9.6408e-003
15626	16.799	3.6364	5.e-002	4.721e-006
15627	17.076	3.6364	0.	9.8142e-003
15628	16.984	3.5455	0.	9.9516e-003
15629	16.984	3.6364	5.e-002	4.7516e-006
15630	17.261	3.6364	0.	1.0167e-002
15631	17.168	3.5455	0.	1.0296e-002
15632	17.168	3.6364	5.e-002	3.2332e-006
15633	17.445	3.6364	0.	1.0534e-002
15634	17.353	3.5455	0.	1.0661e-002
15635	17.353	3.6364	5.e-002	4.0088e-006
15636	17.63	3.6364	0.	1.0918e-002
15637	17.538	3.5455	0.	1.1037e-002
15638	17.538	3.6364	5.e-002	5.127e-006
15639	17.815	3.6364	0.	1.1325e-002
15640	17.722	3.5455	0.	1.1436e-002
15641	17.722	3.6364	5.e-002	5.1799e-006
15642	17.999	3.6364	0.	1.1756e-002
15643	17.907	3.5455	0.	1.1859e-002
15644	17.907	3.6364	5.e-002	4.9809e-006
15645	18.184	3.6364	0.	1.2215e-002
15646	18.092	3.5455	0.	1.2307e-002
15647	18.092	3.6364	5.e-002	4.7439e-006
15648	18.368	3.6364	0.	1.2705e-002
15649	18.276	3.5455	0.	1.2787e-002
15650	18.276	3.6364	5.e-002	3.8378e-006
15651	18.553	3.6364	0.	1.3227e-002
15652	18.461	3.5455	0.	1.3298e-002
15653	18.461	3.6364	5.e-002	5.0261e-006
15654	18.738	3.6364	0.	1.379e-002
15655	18.645	3.5455	0.	1.3845e-002
15656	18.645	3.6364	5.e-002	6.2061e-006
15657	18.922	3.6364	0.	1.4395e-002
15658	18.83	3.5455	0.	1.4435e-002
15659	18.83	3.6364	5.e-002	8.1081e-006
15660	19.107	3.6364	0.	1.5046e-002
15661	19.015	3.5455	0.	1.5068e-002
15662	19.015	3.6364	5.e-002	7.2238e-006
15663	19.292	3.6364	0.	1.5751e-002
15664	19.199	3.5455	0.	1.5752e-002
15665	19.199	3.6364	5.e-002	5.6066e-006
15666	19.476	3.6364	0.	1.6517e-002
15667	19.384	3.5455	0.	1.6494e-002
15668	19.384	3.6364	5.e-002	6.1271e-006
15669	19.661	3.6364	0.	1.7349e-002
15670	19.569	3.5455	0.	1.73e-002
15671	19.569	3.6364	5.e-002	5.245e-006
15672	19.846	3.6364	0.	1.8258e-002
15673	19.753	3.5455	0.	1.8176e-002
15674	19.753	3.6364	5.e-002	9.1157e-006
15675	20.03	3.6364	0.	1.9253e-002
15676	19.938	3.5455	0.	1.9137e-002
15677	19.938	3.6364	5.e-002	6.6973e-006
15678	20.215	3.6364	0.	2.0348e-002
15679	20.123	3.5455	0.	2.0188e-002
15680	20.123	3.6364	5.e-002	3.7482e-006
15681	20.4	3.6364	0.	2.1558e-002
15682	20.307	3.5455	0.	2.1349e-002
15683	20.307	3.6364	5.e-002	5.6419e-006
15684	20.584	3.6364	0.	2.29e-002
15685	20.492	3.5455	0.	2.263e-002
15686	20.492	3.6364	5.e-002	4.2349e-006
15687	20.769	3.6364	0.	2.4398e-002
15688	20.676	3.5455	0.	2.4059e-002
15689	20.676	3.6364	5.e-002	4.7389e-006
15690	20.953	3.6364	0.	2.6078e-002
15691	20.861	3.5455	0.	2.5652e-002
15692	20.861	3.6364	5.e-002	3.8493e-006
15693	21.138	3.6364	0.	2.7977e-002
15694	21.046	3.5455	0.	2.7446e-002
15695	21.046	3.6364	5.e-002	5.2427e-006
15696	21.323	3.6364	0.	3.0138e-002
15697	21.23	3.5455	0.	2.9479e-002
15698	21.23	3.6364	5.e-002	9.6392e-006
15699	21.507	3.6364	0.	3.2618e-002
15700	21.415	3.5455	0.	3.18e-002
15701	21.415	3.6364	5.e-002	1.1721e-005
15702	21.692	3.6364	0.	3.5499e-002
15703	21.6	3.5455	0.	3.4476e-002
15704	21.6	3.6364	5.e-002	1.1799e-005
15705	21.877	3.6364	0.	3.8885e-002
15706	21.784	3.5455	0.	3.7605e-002
15707	21.784	3.6364	5.e-002	9.8663e-006
15708	22.061	3.6364	0.	4.2917e-002
15709	21.969	3.5455	0.	4.13e-002
15710	21.969	3.6364	5.e-002	8.5209e-006
15711	22.246	3.6364	0.	4.7809e-002
15712	22.154	3.5455	0.	4.574e-002
15713	22.154	3.6364	5.e-002	8.3139e-006
15714	22.431	3.6364	0.	5.3888e-002
15715	22.338	3.5455	0.	5.1178e-002
15716	22.338	3.6364	5.e-002	5.4996e-006
15717	22.615	3.6364	0.	6.1576e-002
15718	22.523	3.5455	0.	5.8038e-002
15719	22.523	3.6364	5.e-002	7.7749e-006
15720	22.8	3.6364	0.	7.19e-002
15721	22.708	3.5455	0.	6.6777e-002
15722	22.708	3.6364	5.e-002	8.6891e-006
15723	22.984	3.6364	0.	8.5284e-002
15724	22.892	3.5455	0.	7.9057e-002
15725	22.892	3.6364	5.e-002	4.8561e-006
15726	23.169	3.6364	0.	0.10803
15727	23.077	3.5455	0.	9.4226e-002
15728	23.077	3.6364	5.e-002	6.4575e-006
15729	23.354	3.6364	0.	0.13093
15730	23.261	3.5455	0.	0.12594
15731	23.261	3.6364	5.e-002	6.2509e-006
15732	23.538	3.6364	0.	0.22772
15733	23.446	3.5455	0.	0.14345
15734	23.446	3.6364	5.e-002	2.3179e-006
15735	23.723	3.6364	0.	0.22322
15736	23.631	3.5455	0.	0.33074
15737	23.631	3.6364	5.e-002	1.9383e-007
15738	23.815	3.5455	0.	0.20446
15739	23.815	3.6364	5.e-002	5.8383e-007
15740	23.908	3.6364	0.	0.4259
15741	5.4436	3.4545	0.	2.9699
15742	5.3513	3.3636	0.	1.1915
15743	5.3513	3.4545	5.e-002	-7.2167e-005
15744	5.6283	3.4545	0.	5.3876e-002
15745	5.5359	3.3636	0.	0.20045
15746	5.5359	3.4545	5.e-002	6.7289e-005
15747	5.8129	3.4545	0.	-27.617
15748	5.7206	3.3636	0.	5.2019e-002
15749	5.7206	3.4545	5.e-002	8.9205e-005
15750	5.9975	3.4545	0.	-207.94
15751	5.9052	3.3636	0.	-130.5
15752	5.9052	3.4545	5.e-002	5.7719e-005
15753	6.1822	3.4545	0.	-319.31
15754	6.0899	3.3636	0.	-278.29
15755	6.0899	3.4545	5.e-002	1.7632e-005
15756	6.3668	3.4545	0.	-381.6
15757	6.2745	3.3636	0.	-366.36
15758	6.2745	3.4545	5.e-002	-1.683e-005
15759	6.5515	3.4545	0.	-410.99
15760	6.4592	3.3636	0.	-412.64
15761	6.4592	3.4545	5.e-002	-3.3502e-005
15762	6.7361	3.4545	0.	-418.72
15763	6.6438	3.3636	0.	-430.81
15764	6.6438	3.4545	5.e-002	-3.9428e-005
15765	6.9208	3.4545	0.	-412.48
15766	6.8284	3.3636	0.	-430.6
15767	6.8284	3.4545	5.e-002	-5.4568e-005
15768	7.1054	3.4545	0.	-397.51
15769	7.0131	3.3636	0.	-418.73
15770	7.0131	3.4545	5.e-002	-4.1004e-005
15771	7.29	3.4545	0.	-377.36
15772	7.1977	3.3636	0.	-399.78
15773	7.1977	3.4545	5.e-002	-4.6564e-005
15774	7.4747	3.4545	0.	-354.43
15775	7.3824	3.3636	0.	-376.86
15776	7.3824	3.4545	5.e-002	-3.7041e-005
15777	7.6593	3.4545	0.	-330.31
15778	7.567	3.3636	0.	-352.01
15779	7.567	3.4545	5.e-002	-3.6293e-005
15780	7.844	3.4545	0.	-306.07
15781	7.7516	3.3636	0.	-326.61
15782	7.7516	3.4545	5.e-002	-3.3205e-005
15783	8.0286	3.4545	0.	-282.38
15784	7.9363	3.3636	0.	-301.54
15785	7.9363	3.4545	5.e-002	-3.1341e-005
15786	8.2132	3.4545	0.	-259.66
15787	8.1209	3.3636	0.	-277.36
15788	8.1209	3.4545	5.e-002	-2.3457e-005
15789	8.3979	3.4545	0.	-238.17
15790	8.3056	3.3636	0.	-254.39
15791	8.3056	3.4545	5.e-002	-2.2971e-005
15792	8.5825	3.4545	0.	-218.03
15793	8.4902	3.3636	0.	-232.82
15794	8.4902	3.4545	5.e-002	-2.4126e-005
15795	8.7672	3.4545	0.	-199.28
15796	8.6748	3.3636	0.	-212.73
15797	8.6748	3.4545	5.e-002	-1.9736e-005
15798	8.9518	3.4545	0.	-181.92
15799	8.8595	3.3636	0.	-194.11
15800	8.8595	3.4545	5.e-002	-1.8792e-005
15801	9.1364	3.4545	0.	-165.9
15802	9.0441	3.3636	0.	-176.94
15803	9.0441	3.4545	5.e-002	-1.5371e-005
15804	9.3211	3.4545	0.	-151.17
15805	9.2288	3.3636	0.	-161.14
15806	9.2288	3.4545	5.e-002	-1.5414e-005
15807	9.5057	3.4545	0.	-137.63
15808	9.4134	3.3636	0.	-146.65
15809	9.4134	3.4545	5.e-002	-1.3448e-005
15810	9.6904	3.4545	0.	-125.22
15811	9.598	3.3636	0.	-133.37
15812	9.598	3.4545	5.e-002	-8.8218e-006
15813	9.875	3.4545	0.	-113.84
15814	9.7827	3.3636	0.	-121.22
15815	9.7827	3.4545	5.e-002	-1.04e-005
15816	10.06	3.4545	0.	-103.41
15817	9.9673	3.3636	0.	-110.1
15818	9.9673	3.4545	5.e-002	-9.3652e-006
15819	10.244	3.4545	0.	-93.861
15820	10.152	3.3636	0.	-99.919
15821	10.152	3.4545	5.e-002	-8.3857e-006
15822	10.429	3.4545	0.	-85.112
15823	10.337	3.3636	0.	-90.608
15824	10.337	3.4545	5.e-002	-7.8098e-006
15825	10.614	3.4545	0.	-77.094
15826	10.521	3.3636	0.	-82.088
15827	10.521	3.4545	5.e-002	-4.3487e-006
15828	10.798	3.4545	0.	-69.744
15829	10.706	3.3636	0.	-74.286
15830	10.706	3.4545	5.e-002	-5.7966e-006
15831	10.983	3.4545	0.	-63.002
15832	10.891	3.3636	0.	-67.138
15833	10.891	3.4545	5.e-002	-3.5505e-006
15834	11.167	3.4545	0.	-56.814
15835	11.075	3.3636	0.	-60.586
15836	11.075	3.4545	5.e-002	-4.2078e-006
15837	11.352	3.4545	0.	-51.131
15838	11.26	3.3636	0.	-54.575
15839	11.26	3.4545	5.e-002	-3.3795e-006
15840	11.537	3.4545	0.	-45.907
15841	11.444	3.3636	0.	-49.056
15842	11.444	3.4545	5.e-002	-1.6666e-006
15843	11.721	3.4545	0.	-41.101
15844	11.629	3.3636	0.	-43.985
15845	11.629	3.4545	5.e-002	-1.9898e-006
15846	11.906	3.4545	0.	-36.677
15847	11.814	3.3636	0.	-39.321
15848	11.814	3.4545	5.e-002	-8.5637e-007
15849	12.091	3.4545	0.	-32.6
15850	11.998	3.3636	0.	-35.028
15851	11.998	3.4545	5.e-002	-6.4336e-007
15852	12.275	3.4545	0.	-28.84
15853	12.183	3.3636	0.	-31.071
15854	12.183	3.4545	5.e-002	-7.2722e-007
15855	12.46	3.4545	0.	-25.367
15856	12.368	3.3636	0.	-27.422
15857	12.368	3.4545	5.e-002	1.1106e-007
15858	12.645	3.4545	0.	-22.158
15859	12.552	3.3636	0.	-24.052
15860	12.552	3.4545	5.e-002	1.6598e-006
15861	12.829	3.4545	0.	-19.187
15862	12.737	3.3636	0.	-20.936
15863	12.737	3.4545	5.e-002	1.5151e-006
15864	13.014	3.4545	0.	-16.435
15865	12.922	3.3636	0.	-18.051
15866	12.922	3.4545	5.e-002	2.4505e-006
15867	13.199	3.4545	0.	-13.88
15868	13.106	3.3636	0.	-15.377
15869	13.106	3.4545	5.e-002	3.5982e-006
15870	13.383	3.4545	0.	-11.506
15871	13.291	3.3636	0.	-12.894
15872	13.291	3.4545	5.e-002	2.6035e-006
15873	13.568	3.4545	0.	-9.2952
15874	13.475	3.3636	0.	-10.585
15875	13.475	3.4545	5.e-002	2.9157e-006
15876	13.752	3.4545	0.	-7.2324
15877	13.66	3.3636	0.	-8.4329
15878	13.66	3.4545	5.e-002	2.9223e-006
15879	13.937	3.4545	0.	-5.3037
15880	13.845	3.3636	0.	-6.4235
15881	13.845	3.4545	5.e-002	3.1197e-006
15882	14.122	3.4545	0.	-3.4959
15883	14.029	3.3636	0.	-4.5427
15884	14.029	3.4545	5.e-002	3.1968e-006
15885	14.306	3.4545	0.	-1.7972
15886	14.214	3.3636	0.	-2.7778
15887	14.214	3.4545	5.e-002	2.6882e-006
15888	14.491	3.4545	0.	-0.20625
15889	14.399	3.3636	0.	-1.1173
15890	14.399	3.4545	5.e-002	3.313e-006
15891	14.676	3.4545	0.	5.1068e-003
15892	14.583	3.3636	0.	3.2124e-003
15893	14.583	3.4545	5.e-002	4.0473e-006
15894	14.86	3.4545	0.	6.4199e-003
15895	14.768	3.3636	0.	6.4879e-003
15896	14.768	3.4545	5.e-002	5.1972e-006
15897	15.045	3.4545	0.	6.9732e-003
15898	14.953	3.3636	0.	7.102e-003
15899	14.953	3.4545	5.e-002	4.0937e-006
15900	15.23	3.4545	0.	7.3583e-003
15901	15.137	3.3636	0.	7.4808e-003
15902	15.137	3.4545	5.e-002	5.4913e-006
15903	15.414	3.4545	0.	7.6823e-003
15904	15.322	3.3636	0.	7.7941e-003
15905	15.322	3.4545	5.e-002	4.908e-006
15906	15.599	3.4545	0.	7.9798e-003
15907	15.507	3.3636	0.	8.0815e-003
15908	15.507	3.4545	5.e-002	3.1497e-006
15909	15.783	3.4545	0.	8.2667e-003
15910	15.691	3.3636	0.	8.3585e-003
15911	15.691	3.4545	5.e-002	3.0628e-006
15912	15.968	3.4545	0.	8.5508e-003
15913	15.876	3.3636	0.	8.6348e-003
15914	15.876	3.4545	5.e-002	2.5575e-006
15915	16.153	3.4545	0.	8.8364e-003
15916	16.06	3.3636	0.	8.9124e-003
15917	16.06	3.4545	5.e-002	3.1778e-006
15918	16.337	3.4545	0.	9.1268e-003
15919	16.245	3.3636	0.	9.1972e-003
15920	16.245	3.4545	5.e-002	3.197e-006
15921	16.522	3.4545	0.	9.4277e-003
15922	16.43	3.3636	0.	9.4874e-003
15923	16.43	3.4545	5.e-002	3.8151e-006
15924	16.707	3.4545	0.	9.7412e-003
15925	16.614	3.3636	0.	9.7962e-003
15926	16.614	3.4545	5.e-002	3.7307e-006
15927	16.891	3.4545	0.	1.0056e-002
15928	16.799	3.3636	0.	1.0114e-002
15929	16.799	3.4545	5.e-002	4.7196e-006
15930	17.076	3.4545	0.	1.0385e-002
15931	16.984	3.3636	0.	1.0426e-002
15932	16.984	3.4545	5.e-002	4.0296e-006
15933	17.261	3.4545	0.	1.0741e-002
15934	17.168	3.3636	0.	1.0773e-002
15935	17.168	3.4545	5.e-002	3.3372e-006
15936	17.445	3.4545	0.	1.1113e-002
15937	17.353	3.3636	0.	1.1141e-002
15938	17.353	3.4545	5.e-002	3.7342e-006
15939	17.63	3.4545	0.	1.1503e-002
15940	17.538	3.3636	0.	1.1521e-002
15941	17.538	3.4545	5.e-002	4.488e-006
15942	17.815	3.4545	0.	1.1917e-002
15943	17.722	3.3636	0.	1.1925e-002
15944	17.722	3.4545	5.e-002	4.9953e-006
15945	17.999	3.4545	0.	1.2356e-002
15946	17.907	3.3636	0.	1.2353e-002
15947	17.907	3.4545	5.e-002	4.544e-006
15948	18.184	3.4545	0.	1.2824e-002
15949	18.092	3.3636	0.	1.2809e-002
15950	18.092	3.4545	5.e-002	4.0869e-006
15951	18.368	3.4545	0.	1.3323e-002
15952	18.276	3.3636	0.	1.3295e-002
15953	18.276	3.4545	5.e-002	3.3931e-006
15954	18.553	3.4545	0.	1.3857e-002
15955	18.461	3.3636	0.	1.3814e-002
15956	18.461	3.4545	5.e-002	5.0612e-006
15957	18.738	3.4545	0.	1.4429e-002
15958	18.645	3.3636	0.	1.437e-002
15959	18.645	3.4545	5.e-002	5.536e-006
15960	18.922	3.4545	0.	1.5045e-002
15961	18.83	3.3636	0.	1.4968e-002
15962	18.83	3.4545	5.e-002	7.9249e-006
15963	19.107	3.4545	0.	1.5709e-002
15964	19.015	3.3636	0.	1.5611e-002
15965	19.015	3.4545	5.e-002	6.5454e-006
15966	19.292	3.4545	0.	1.6427e-002
15967	19.199	3.3636	0.	1.6307e-002
15968	19.199	3.4545	5.e-002	4.9121e-006
15969	19.476	3.4545	0.	1.7206e-002
15970	19.384	3.3636	0.	1.7059e-002
15971	19.384	3.4545	5.e-002	5.4265e-006
15972	19.661	3.4545	0.	1.8054e-002
15973	19.569	3.3636	0.	1.7875e-002
15974	19.569	3.4545	5.e-002	4.5035e-006
15975	19.846	3.4545	0.	1.8978e-002
15976	19.753	3.3636	0.	1.8765e-002
15977	19.753	3.4545	5.e-002	6.9289e-006
15978	20.03	3.4545	0.	1.999e-002
15979	19.938	3.3636	0.	1.9738e-002
15980	19.938	3.4545	5.e-002	6.4354e-006
15981	20.215	3.4545	0.	2.1102e-002
15982	20.123	3.3636	0.	2.0802e-002
15983	20.123	3.4545	5.e-002	3.5124e-006
15984	20.4	3.4545	0.	2.2329e-002
15985	20.307	3.3636	0.	2.1976e-002
15986	20.307	3.4545	5.e-002	5.4169e-006
15987	20.584	3.4545	0.	2.3689e-002
15988	20.492	3.3636	0.	2.3273e-002
15989	20.492	3.4545	5.e-002	3.5156e-006
15990	20.769	3.4545	0.	2.5204e-002
15991	20.676	3.3636	0.	2.4713e-002
15992	20.676	3.4545	5.e-002	3.5415e-006
15993	20.953	3.4545	0.	2.6901e-002
15994	20.861	3.3636	0.	2.6322e-002
15995	20.861	3.4545	5.e-002	3.5749e-006
15996	21.138	3.4545	0.	2.8816e-002
15997	21.046	3.3636	0.	2.8129e-002
15998	21.046	3.4545	5.e-002	5.9101e-006
15999	21.323	3.4545	0.	3.0994e-002
16000	21.23	3.3636	0.	3.0174e-002
16001	21.23	3.4545	5.e-002	6.4643e-006
16002	21.507	3.4545	0.	3.3491e-002
16003	21.415	3.3636	0.	3.2508e-002
16004	21.415	3.4545	5.e-002	1.042e-005
16005	21.692	3.4545	0.	3.6386e-002
16006	21.6	3.3636	0.	3.5197e-002
16007	21.6	3.4545	5.e-002	1.0492e-005
16008	21.877	3.4545	0.	3.9787e-002
16009	21.784	3.3636	0.	3.8337e-002
16010	21.784	3.4545	5.e-002	8.5363e-006
16011	22.061	3.4545	0.	4.3836e-002
16012	21.969	3.3636	0.	4.2043e-002
16013	21.969	3.4545	5.e-002	7.284e-006
16014	22.246	3.4545	0.	4.8745e-002
16015	22.154	3.3636	0.	4.6496e-002
16016	22.154	3.4545	5.e-002	4.2917e-006
16017	22.431	3.4545	0.	5.4848e-002
16018	22.338	3.3636	0.	5.1951e-002
16019	22.338	3.4545	5.e-002	5.2841e-006
16020	22.615	3.4545	0.	6.2569e-002
16021	22.523	3.3636	0.	5.8833e-002
16022	22.523	3.4545	5.e-002	7.4324e-006
16023	22.8	3.4545	0.	7.2938e-002
16024	22.708	3.3636	0.	6.7604e-002
16025	22.708	3.4545	5.e-002	6.4773e-006
16026	22.984	3.4545	0.	8.639e-002
16027	22.892	3.3636	0.	7.9929e-002
16028	22.892	3.4545	5.e-002	4.518e-006
16029	23.169	3.4545	0.	0.10924
16030	23.077	3.3636	0.	9.5166e-002
16031	23.077	3.4545	5.e-002	2.4181e-006
16032	23.354	3.4545	0.	0.13229
16033	23.261	3.3636	0.	0.12699
16034	23.261	3.4545	5.e-002	4.1866e-006
16035	23.538	3.4545	0.	0.22946
16036	23.446	3.3636	0.	0.14465
16037	23.446	3.4545	5.e-002	4.0896e-006
16038	23.723	3.4545	0.	0.22604
16039	23.631	3.3636	0.	0.33248
16040	23.631	3.4545	5.e-002	1.3157e-007
16041	23.815	3.3636	0.	0.20809
16042	23.815	3.4545	5.e-002	2.2579e-006
16043	23.908	3.4545	0.	0.4268
16044	5.4436	3.2727	0.	-1.899
16045	5.3513	3.1818	0.	-1.9386
16046	5.3513	3.2727	5.e-002	1.7704e-005
16047	5.6283	3.2727	0.	0.33548
16048	5.5359	3.1818	0.	-1.1531e-003
16049	5.5359	3.2727	5.e-002	1.0273e-004
16050	5.8129	3.2727	0.	-5.2533
16051	5.7206	3.1818	0.	0.99498
16052	5.7206	3.2727	5.e-002	9.5922e-005
16053	5.9975	3.2727	0.	-195.3
16054	5.9052	3.1818	0.	-112.49
16055	5.9052	3.2727	5.e-002	7.1117e-005
16056	6.1822	3.2727	0.	-322.51
16057	6.0899	3.1818	0.	-273.84
16058	6.0899	3.2727	5.e-002	3.0938e-005
16059	6.3668	3.2727	0.	-395.99
16060	6.2745	3.1818	0.	-372.79
16061	6.2745	3.2727	5.e-002	4.1243e-006
16062	6.5515	3.2727	0.	-431.77
16063	6.4592	3.1818	0.	-425.93
16064	6.4592	3.2727	5.e-002	-1.8851e-005
16065	6.7361	3.2727	0.	-442.36
16066	6.6438	3.1818	0.	-447.66
16067	6.6438	3.2727	5.e-002	-2.7055e-005
16068	6.9208	3.2727	0.	-436.7
16069	6.8284	3.1818	0.	-448.74
16070	6.8284	3.2727	5.e-002	-3.2449e-005
16071	7.1054	3.2727	0.	-420.94
16072	7.0131	3.1818	0.	-436.77
16073	7.0131	3.2727	5.e-002	-3.1153e-005
16074	7.29	3.2727	0.	-399.25
16075	7.1977	3.1818	0.	-416.93
16076	7.1977	3.2727	5.e-002	-3.7007e-005
16077	7.4747	3.2727	0.	-374.43
16078	7.3824	3.1818	0.	-392.69
16079	7.3824	3.2727	5.e-002	-3.0572e-005
16080	7.6593	3.2727	0.	-348.31
16081	7.567	3.1818	0.	-366.36
16082	7.567	3.2727	5.e-002	-2.6454e-005
16083	7.844	3.2727	0.	-322.09
16084	7.7516	3.1818	0.	-339.44
16085	7.7516	3.2727	5.e-002	-2.8302e-005
16086	8.0286	3.2727	0.	-296.53
16087	7.9363	3.1818	0.	-312.92
16088	7.9363	3.2727	5.e-002	-2.9672e-005
16089	8.2132	3.2727	0.	-272.09
16090	8.1209	3.1818	0.	-287.37
16091	8.1209	3.2727	5.e-002	-2.3408e-005
16092	8.3979	3.2727	0.	-249.05
16093	8.3056	3.1818	0.	-263.17
16094	8.3056	3.2727	5.e-002	-1.8768e-005
16095	8.5825	3.2727	0.	-227.52
16096	8.4902	3.1818	0.	-240.49
16097	8.4902	3.2727	5.e-002	-2.1357e-005
16098	8.7672	3.2727	0.	-207.56
16099	8.6748	3.1818	0.	-219.41
16100	8.6748	3.2727	5.e-002	-2.0392e-005
16101	8.9518	3.2727	0.	-189.13
16102	8.8595	3.1818	0.	-199.93
16103	8.8595	3.2727	5.e-002	-1.7839e-005
16104	9.1364	3.2727	0.	-172.18
16105	9.0441	3.1818	0.	-182.
16106	9.0441	3.2727	5.e-002	-1.6229e-005
16107	9.3211	3.2727	0.	-156.63
16108	9.2288	3.1818	0.	-165.55
16109	9.2288	3.2727	5.e-002	-1.3001e-005
16110	9.5057	3.2727	0.	-142.39
16111	9.4134	3.1818	0.	-150.49
16112	9.4134	3.2727	5.e-002	-1.3548e-005
16113	9.6904	3.2727	0.	-129.37
16114	9.598	3.1818	0.	-136.72
16115	9.598	3.2727	5.e-002	-8.7509e-006
16116	9.875	3.2727	0.	-117.47
16117	9.7827	3.1818	0.	-124.14
16118	9.7827	3.2727	5.e-002	-9.0415e-006
16119	10.06	3.2727	0.	-106.6
16120	9.9673	3.1818	0.	-112.66
16121	9.9673	3.2727	5.e-002	-9.1939e-006
16122	10.244	3.2727	0.	-96.661
16123	10.152	3.1818	0.	-102.17
16124	10.152	3.2727	5.e-002	-8.726e-006
16125	10.429	3.2727	0.	-87.578
16126	10.337	3.1818	0.	-92.584
16127	10.337	3.2727	5.e-002	-6.2392e-006
16128	10.614	3.2727	0.	-79.272
16129	10.521	3.1818	0.	-83.829
16130	10.521	3.2727	5.e-002	-5.9739e-006
16131	10.798	3.2727	0.	-71.672
16132	10.706	3.1818	0.	-75.825
16133	10.706	3.2727	5.e-002	-5.6556e-006
16134	10.983	3.2727	0.	-64.713
16135	10.891	3.1818	0.	-68.503
16136	10.891	3.2727	5.e-002	-4.4675e-006
16137	11.167	3.2727	0.	-58.337
16138	11.075	3.1818	0.	-61.798
16139	11.075	3.2727	5.e-002	-2.8271e-006
16140	11.352	3.2727	0.	-52.49
16141	11.26	3.1818	0.	-55.656
16142	11.26	3.2727	5.e-002	-2.1351e-006
16143	11.537	3.2727	0.	-47.123
16144	11.444	3.1818	0.	-50.022
16145	11.444	3.2727	5.e-002	-1.5075e-006
16146	11.721	3.2727	0.	-42.192
16147	11.629	3.1818	0.	-44.85
16148	11.629	3.2727	5.e-002	-1.4046e-006
16149	11.906	3.2727	0.	-37.658
16150	11.814	3.1818	0.	-40.098
16151	11.814	3.2727	5.e-002	1.305e-007
16152	12.091	3.2727	0.	-33.484
16153	11.998	3.1818	0.	-35.727
16154	11.998	3.2727	5.e-002	2.5968e-007
16155	12.275	3.2727	0.	-29.638
16156	12.183	3.1818	0.	-31.702
16157	12.183	3.2727	5.e-002	-6.0064e-007
16158	12.46	3.2727	0.	-26.09
16159	12.368	3.1818	0.	-27.992
16160	12.368	3.2727	5.e-002	4.3379e-007
16161	12.645	3.2727	0.	-22.812
16162	12.552	3.1818	0.	-24.568
16163	12.552	3.2727	5.e-002	1.934e-006
16164	12.829	3.2727	0.	-19.781
16165	12.737	3.1818	0.	-21.404
16166	12.737	3.2727	5.e-002	2.4741e-006
16167	13.014	3.2727	0.	-16.974
16168	12.922	3.1818	0.	-18.476
16169	12.922	3.2727	5.e-002	2.7738e-006
16170	13.199	3.2727	0.	-14.371
16171	13.106	3.1818	0.	-15.763
16172	13.106	3.2727	5.e-002	4.0144e-006
16173	13.383	3.2727	0.	-11.952
16174	13.291	3.1818	0.	-13.245
16175	13.291	3.2727	5.e-002	3.1067e-006
16176	13.568	3.2727	0.	-9.7013
16177	13.475	3.1818	0.	-10.904
16178	13.475	3.2727	5.e-002	3.2708e-006
16179	13.752	3.2727	0.	-7.602
16180	13.66	3.1818	0.	-8.7236
16181	13.66	3.2727	5.e-002	3.4285e-006
16182	13.937	3.2727	0.	-5.6399
16183	13.845	3.1818	0.	-6.688
16184	13.845	3.2727	5.e-002	3.8181e-006
16185	14.122	3.2727	0.	-3.8013
16186	14.029	3.1818	0.	-4.7831
16187	14.029	3.2727	5.e-002	3.7869e-006
16188	14.306	3.2727	0.	-2.0738
16189	14.214	3.1818	0.	-2.9959
16190	14.214	3.2727	5.e-002	3.3727e-006
16191	14.491	3.2727	0.	-0.44701
16192	14.399	3.1818	0.	-1.3143
16193	14.399	3.2727	5.e-002	4.0242e-006
16194	14.676	3.2727	0.	6.4451e-003
16195	14.583	3.1818	0.	5.6239e-003
16196	14.583	3.2727	5.e-002	4.6565e-006
16197	14.86	3.2727	0.	7.2038e-003
16198	14.768	3.1818	0.	7.2872e-003
16199	14.768	3.2727	5.e-002	5.7937e-006
16200	15.045	3.2727	0.	7.5716e-003
16201	14.953	3.1818	0.	7.6299e-003
16202	14.953	3.2727	5.e-002	4.8874e-006
16203	15.23	3.2727	0.	7.8682e-003
16204	15.137	3.1818	0.	7.9043e-003
16205	15.137	3.2727	5.e-002	6.0814e-006
16206	15.414	3.2727	0.	8.1432e-003
16207	15.322	3.1818	0.	8.1634e-003
16208	15.322	3.2727	5.e-002	5.6812e-006
16209	15.599	3.2727	0.	8.4103e-003
16210	15.507	3.1818	0.	8.4191e-003
16211	15.507	3.2727	5.e-002	4.0602e-006
16212	15.783	3.2727	0.	8.6772e-003
16213	15.691	3.1818	0.	8.6771e-003
16214	15.691	3.2727	5.e-002	3.663e-006
16215	15.968	3.2727	0.	8.9475e-003
16216	15.876	3.1818	0.	8.9395e-003
16217	15.876	3.2727	5.e-002	3.2645e-006
16218	16.153	3.2727	0.	9.2246e-003
16219	16.06	3.1818	0.	9.2085e-003
16220	16.06	3.2727	5.e-002	3.5777e-006
16221	16.337	3.2727	0.	9.5093e-003
16222	16.245	3.1818	0.	9.4877e-003
16223	16.245	3.2727	5.e-002	3.8286e-006
16224	16.522	3.2727	0.	9.8073e-003
16225	16.43	3.1818	0.	9.7739e-003
16226	16.43	3.2727	5.e-002	4.1986e-006
16227	16.707	3.2727	0.	1.012e-002
16228	16.614	3.1818	0.	1.0081e-002
16229	16.614	3.2727	5.e-002	4.2201e-006
16230	16.891	3.2727	0.	1.0434e-002
16231	16.799	3.1818	0.	1.0398e-002
16232	16.799	3.2727	5.e-002	5.0771e-006
16233	17.076	3.2727	0.	1.0764e-002
16234	16.984	3.1818	0.	1.071e-002
16235	16.984	3.2727	5.e-002	4.8523e-006
16236	17.261	3.2727	0.	1.1123e-002
16237	17.168	3.1818	0.	1.1058e-002
16238	17.168	3.2727	5.e-002	3.7959e-006
16239	17.445	3.2727	0.	1.1498e-002
16240	17.353	3.1818	0.	1.1428e-002
16241	17.353	3.2727	5.e-002	4.5346e-006
16242	17.63	3.2727	0.	1.1891e-002
16243	17.538	3.1818	0.	1.181e-002
16244	17.538	3.2727	5.e-002	5.0358e-006
16245	17.815	3.2727	0.	1.2308e-002
16246	17.722	3.1818	0.	1.2217e-002
16247	17.722	3.2727	5.e-002	5.0548e-006
16248	17.999	3.2727	0.	1.2752e-002
16249	17.907	3.1818	0.	1.2648e-002
16250	17.907	3.2727	5.e-002	5.0692e-006
16251	18.184	3.2727	0.	1.3225e-002
16252	18.092	3.1818	0.	1.3107e-002
16253	18.092	3.2727	5.e-002	5.3106e-006
16254	18.368	3.2727	0.	1.373e-002
16255	18.276	3.1818	0.	1.3597e-002
16256	18.276	3.2727	5.e-002	4.134e-006
16257	18.553	3.2727	0.	1.4269e-002
16258	18.461	3.1818	0.	1.4121e-002
16259	18.461	3.2727	5.e-002	5.566e-006
16260	18.738	3.2727	0.	1.4849e-002
16261	18.645	3.1818	0.	1.468e-002
16262	18.645	3.2727	5.e-002	6.2788e-006
16263	18.922	3.2727	0.	1.5472e-002
16264	18.83	3.1818	0.	1.5284e-002
16265	18.83	3.2727	5.e-002	7.9509e-006
16266	19.107	3.2727	0.	1.6145e-002
16267	19.015	3.1818	0.	1.5932e-002
16268	19.015	3.2727	5.e-002	7.742e-006
16269	19.292	3.2727	0.	1.6872e-002
16270	19.199	3.1818	0.	1.6634e-002
16271	19.199	3.2727	5.e-002	5.6143e-006
16272	19.476	3.2727	0.	1.7659e-002
16273	19.384	3.1818	0.	1.7393e-002
16274	19.384	3.2727	5.e-002	4.6806e-006
16275	19.661	3.2727	0.	1.8516e-002
16276	19.569	3.1818	0.	1.8216e-002
16277	19.569	3.2727	5.e-002	4.7131e-006
16278	19.846	3.2727	0.	1.945e-002
16279	19.753	3.1818	0.	1.9113e-002
16280	19.753	3.2727	5.e-002	8.0702e-006
16281	20.03	3.2727	0.	2.0471e-002
16282	19.938	3.1818	0.	2.0092e-002
16283	19.938	3.2727	5.e-002	6.1528e-006
16284	20.215	3.2727	0.	2.1593e-002
16285	20.123	3.1818	0.	2.1164e-002
16286	20.123	3.2727	5.e-002	3.7296e-006
16287	20.4	3.2727	0.	2.283e-002
16288	20.307	3.1818	0.	2.2346e-002
16289	20.307	3.2727	5.e-002	6.1047e-006
16290	20.584	3.2727	0.	2.4201e-002
16291	20.492	3.1818	0.	2.3649e-002
16292	20.492	3.2727	5.e-002	4.2146e-006
16293	20.769	3.2727	0.	2.5727e-002
16294	20.676	3.1818	0.	2.5097e-002
16295	20.676	3.2727	5.e-002	4.2126e-006
16296	20.953	3.2727	0.	2.7435e-002
16297	20.861	3.1818	0.	2.6714e-002
16298	20.861	3.2727	5.e-002	4.2436e-006
16299	21.138	3.2727	0.	2.9359e-002
16300	21.046	3.1818	0.	2.8528e-002
16301	21.046	3.2727	5.e-002	6.6066e-006
16302	21.323	3.2727	0.	3.1545e-002
16303	21.23	3.1818	0.	3.0581e-002
16304	21.23	3.2727	5.e-002	8.0814e-006
16305	21.507	3.2727	0.	3.4052e-002
16306	21.415	3.1818	0.	3.2921e-002
16307	21.415	3.2727	5.e-002	1.2909e-005
16308	21.692	3.2727	0.	3.6957e-002
16309	21.6	3.1818	0.	3.5617e-002
16310	21.6	3.2727	5.e-002	1.1043e-005
16311	21.877	3.2727	0.	4.0365e-002
16312	21.784	3.1818	0.	3.8764e-002
16313	21.784	3.2727	5.e-002	1.008e-005
16314	22.061	3.2727	0.	4.4423e-002
16315	21.969	3.1818	0.	4.2475e-002
16316	21.969	3.2727	5.e-002	8.9448e-006
16317	22.246	3.2727	0.	4.9344e-002
16318	22.154	3.1818	0.	4.6937e-002
16319	22.154	3.2727	5.e-002	7.8991e-006
16320	22.431	3.2727	0.	5.5461e-002
16321	22.338	3.1818	0.	5.2397e-002
16322	22.338	3.2727	5.e-002	5.0578e-006
16323	22.615	3.2727	0.	6.3202e-002
16324	22.523	3.1818	0.	5.9296e-002
16325	22.523	3.2727	5.e-002	9.0186e-006
16326	22.8	3.2727	0.	7.3601e-002
16327	22.708	3.1818	0.	6.8084e-002
16328	22.708	3.2727	5.e-002	9.0003e-006
16329	22.984	3.2727	0.	8.7097e-002
16330	22.892	3.1818	0.	8.0437e-002
16331	22.892	3.2727	5.e-002	7.084e-006
16332	23.169	3.2727	0.	0.11001
16333	23.077	3.1818	0.	9.5711e-002
16334	23.077	3.2727	5.e-002	6.0037e-006
16335	23.354	3.2727	0.	0.13317
16336	23.261	3.1818	0.	0.1276
16337	23.261	3.2727	5.e-002	7.8163e-006
16338	23.538	3.2727	0.	0.23058
16339	23.446	3.1818	0.	0.14535
16340	23.446	3.2727	5.e-002	3.9569e-006
16341	23.723	3.2727	0.	0.22788
16342	23.631	3.1818	0.	0.33349
16343	23.631	3.2727	5.e-002	-1.8336e-006
16344	23.815	3.1818	0.	0.21023
16345	23.815	3.2727	5.e-002	4.0022e-006
16346	23.908	3.2727	0.	0.42737
16347	5.4436	3.0909	0.	-0.17626
16348	5.3513	3.	0.	-0.3026
16349	5.3513	3.0909	5.e-002	7.9347e-005
16350	5.6283	3.0909	0.	0.55262
16351	5.5359	3.	0.	9.1317e-002
16352	5.5359	3.0909	5.e-002	9.1451e-005
16353	5.8129	3.0909	0.	0.89897
16354	5.7206	3.	0.	1.1681
16355	5.7206	3.0909	5.e-002	7.2096e-005
16356	5.9975	3.0909	0.	-184.65
16357	5.9052	3.	0.	-104.98
16358	5.9052	3.0909	5.e-002	4.8784e-005
16359	6.1822	3.0909	0.	-320.32
16360	6.0899	3.	0.	-270.87
16361	6.0899	3.0909	5.e-002	2.07e-005
16362	6.3668	3.0909	0.	-400.62
16363	6.2745	3.	0.	-373.88
16364	6.2745	3.0909	5.e-002	1.5647e-005
16365	6.5515	3.0909	0.	-440.69
16366	6.4592	3.	0.	-429.73
16367	6.4592	3.0909	5.e-002	1.5698e-006
16368	6.7361	3.0909	0.	-453.46
16369	6.6438	3.	0.	-452.94
16370	6.6438	3.0909	5.e-002	-1.3343e-005
16371	6.9208	3.0909	0.	-448.53
16372	6.8284	3.	0.	-454.64
16373	6.8284	3.0909	5.e-002	-1.52e-005
16374	7.1054	3.0909	0.	-432.62
16375	7.0131	3.	0.	-442.75
16376	7.0131	3.0909	5.e-002	-2.3499e-005
16377	7.29	3.0909	0.	-410.3
16378	7.1977	3.	0.	-422.66
16379	7.1977	3.0909	5.e-002	-2.3979e-005
16380	7.4747	3.0909	0.	-384.59
16381	7.3824	3.	0.	-398.01
16382	7.3824	3.0909	5.e-002	-2.4923e-005
16383	7.6593	3.0909	0.	-357.48
16384	7.567	3.	0.	-371.2
16385	7.567	3.0909	5.e-002	-1.468e-005
16386	7.844	3.0909	0.	-330.27
16387	7.7516	3.	0.	-343.78
16388	7.7516	3.0909	5.e-002	-2.3192e-005
16389	8.0286	3.0909	0.	-303.76
16390	7.9363	3.	0.	-316.76
16391	7.9363	3.0909	5.e-002	-1.3764e-005
16392	8.2132	3.0909	0.	-278.45
16393	8.1209	3.	0.	-290.76
16394	8.1209	3.0909	5.e-002	-2.328e-005
16395	8.3979	3.0909	0.	-254.61
16396	8.3056	3.	0.	-266.14
16397	8.3056	3.0909	5.e-002	-1.8101e-005
16398	8.5825	3.0909	0.	-232.38
16399	8.4902	3.	0.	-243.08
16400	8.4902	3.0909	5.e-002	-1.4967e-005
16401	8.7672	3.0909	0.	-211.78
16402	8.6748	3.	0.	-221.67
16403	8.6748	3.0909	5.e-002	-1.3994e-005
16404	8.9518	3.0909	0.	-192.81
16405	8.8595	3.	0.	-201.9
16406	8.8595	3.0909	5.e-002	-1.505e-005
16407	9.1364	3.0909	0.	-175.38
16408	9.0441	3.	0.	-183.71
16409	9.0441	3.0909	5.e-002	-1.0614e-005
16410	9.3211	3.0909	0.	-159.42
16411	9.2288	3.	0.	-167.04
16412	9.2288	3.0909	5.e-002	-1.2017e-005
16413	9.5057	3.0909	0.	-144.82
16414	9.4134	3.	0.	-151.79
16415	9.4134	3.0909	5.e-002	-9.6428e-006
16416	9.6904	3.0909	0.	-131.49
16417	9.598	3.	0.	-137.86
16418	9.598	3.0909	5.e-002	-9.3029e-006
16419	9.875	3.0909	0.	-119.32
16420	9.7827	3.	0.	-125.13
16421	9.7827	3.0909	5.e-002	-8.0708e-006
16422	10.06	3.0909	0.	-108.22
16423	9.9673	3.	0.	-113.52
16424	9.9673	3.0909	5.e-002	-7.863e-006
16425	10.244	3.0909	0.	-98.084
16426	10.152	3.	0.	-102.92
16427	10.152	3.0909	5.e-002	-4.7983e-006
16428	10.429	3.0909	0.	-88.829
16429	10.337	3.	0.	-93.249
16430	10.337	3.0909	5.e-002	-4.6589e-006
16431	10.614	3.0909	0.	-80.375
16432	10.521	3.	0.	-84.415
16433	10.521	3.0909	5.e-002	-4.5331e-006
16434	10.798	3.0909	0.	-72.648
16435	10.706	3.	0.	-76.343
16436	10.706	3.0909	5.e-002	-2.5324e-006
16437	10.983	3.0909	0.	-65.579
16438	10.891	3.	0.	-68.961
16439	10.891	3.0909	5.e-002	-3.4007e-006
16440	11.167	3.0909	0.	-59.107
16441	11.075	3.	0.	-62.206
16442	11.075	3.0909	5.e-002	-1.9047e-006
16443	11.352	3.0909	0.	-53.177
16444	11.26	3.	0.	-56.018
16445	11.26	3.0909	5.e-002	-1.8367e-006
16446	11.537	3.0909	0.	-47.737
16447	11.444	3.	0.	-50.346
16448	11.444	3.0909	5.e-002	-8.2653e-007
16449	11.721	3.0909	0.	-42.743
16450	11.629	3.	0.	-45.14
16451	11.629	3.0909	5.e-002	-7.8794e-007
16452	11.906	3.0909	0.	-38.153
16453	11.814	3.	0.	-40.358
16454	11.814	3.0909	5.e-002	6.7905e-007
16455	12.091	3.0909	0.	-33.93
16456	11.998	3.	0.	-35.961
16457	11.998	3.0909	5.e-002	1.6733e-006
16458	12.275	3.0909	0.	-30.04
16459	12.183	3.	0.	-31.913
16460	12.183	3.0909	5.e-002	9.9051e-007
16461	12.46	3.0909	0.	-26.453
16462	12.368	3.	0.	-28.183
16463	12.368	3.0909	5.e-002	1.0168e-006
16464	12.645	3.0909	0.	-23.142
16465	12.552	3.	0.	-24.74
16466	12.552	3.0909	5.e-002	2.4712e-006
16467	12.829	3.0909	0.	-20.08
16468	12.737	3.	0.	-21.56
16469	12.737	3.0909	5.e-002	3.2077e-006
16470	13.014	3.0909	0.	-17.246
16471	12.922	3.	0.	-18.618
16472	12.922	3.0909	5.e-002	3.7037e-006
16473	13.199	3.0909	0.	-14.618
16474	13.106	3.	0.	-15.892
16475	13.106	3.0909	5.e-002	4.5552e-006
16476	13.383	3.0909	0.	-12.177
16477	13.291	3.	0.	-13.363
16478	13.291	3.0909	5.e-002	3.4981e-006
16479	13.568	3.0909	0.	-9.9054
16480	13.475	3.	0.	-11.011
16481	13.475	3.0909	5.e-002	4.2285e-006
16482	13.752	3.0909	0.	-7.7877
16483	13.66	3.	0.	-8.8208
16484	13.66	3.0909	5.e-002	4.301e-006
16485	13.937	3.0909	0.	-5.8086
16486	13.845	3.	0.	-6.7764
16487	13.845	3.0909	5.e-002	4.3718e-006
16488	14.122	3.0909	0.	-3.9546
16489	14.029	3.	0.	-4.8635
16490	14.029	3.0909	5.e-002	4.3811e-006
16491	14.306	3.0909	0.	-2.2127
16492	14.214	3.	0.	-3.0689
16493	14.214	3.0909	5.e-002	3.9862e-006
16494	14.491	3.0909	0.	-0.57114
16495	14.399	3.	0.	-1.3802
16496	14.399	3.0909	5.e-002	4.5896e-006
16497	14.676	3.0909	0.	7.342e-003
16498	14.583	3.	0.	7.3557e-003
16499	14.583	3.0909	5.e-002	5.2077e-006
16500	14.86	3.0909	0.	7.6419e-003
16501	14.768	3.	0.	7.5849e-003
16502	14.768	3.0909	5.e-002	6.5405e-006
16503	15.045	3.0909	0.	7.8909e-003
16504	14.953	3.	0.	7.8161e-003
16505	14.953	3.0909	5.e-002	5.1532e-006
16506	15.23	3.0909	0.	8.1349e-003
16507	15.137	3.	0.	8.0511e-003
16508	15.137	3.0909	5.e-002	7.0438e-006
16509	15.414	3.0909	0.	8.3798e-003
16510	15.322	3.	0.	8.2892e-003
16511	15.322	3.0909	5.e-002	6.364e-006
16512	15.599	3.0909	0.	8.6298e-003
16513	15.507	3.	0.	8.5331e-003
16514	15.507	3.0909	5.e-002	4.6121e-006
16515	15.783	3.0909	0.	8.8856e-003
16516	15.691	3.	0.	8.7842e-003
16517	15.691	3.0909	5.e-002	4.6781e-006
16518	15.968	3.0909	0.	9.1483e-003
16519	15.876	3.	0.	9.0418e-003
16520	15.876	3.0909	5.e-002	3.9691e-006
16521	16.153	3.0909	0.	9.4205e-003
16522	16.06	3.	0.	9.3086e-003
16523	16.06	3.0909	5.e-002	4.3318e-006
16524	16.337	3.0909	0.	9.7018e-003
16525	16.245	3.	0.	9.5843e-003
16526	16.245	3.0909	5.e-002	4.5745e-006
16527	16.522	3.0909	0.	9.9978e-003
16528	16.43	3.	0.	9.87e-003
16529	16.43	3.0909	5.e-002	5.2939e-006
16530	16.707	3.0909	0.	1.0309e-002
16531	16.614	3.	0.	1.0176e-002
16532	16.614	3.0909	5.e-002	4.9435e-006
16533	16.891	3.0909	0.	1.0623e-002
16534	16.799	3.	0.	1.0492e-002
16535	16.799	3.0909	5.e-002	5.5471e-006
16536	17.076	3.0909	0.	1.0953e-002
16537	16.984	3.	0.	1.0805e-002
16538	16.984	3.0909	5.e-002	5.5515e-006
16539	17.261	3.0909	0.	1.1312e-002
16540	17.168	3.	0.	1.1152e-002
16541	17.168	3.0909	5.e-002	4.4842e-006
16542	17.445	3.0909	0.	1.1688e-002
16543	17.353	3.	0.	1.1523e-002
16544	17.353	3.0909	5.e-002	5.3264e-006
16545	17.63	3.0909	0.	1.2083e-002
16546	17.538	3.	0.	1.1905e-002
16547	17.538	3.0909	5.e-002	5.8113e-006
16548	17.815	3.0909	0.	1.2503e-002
16549	17.722	3.	0.	1.2314e-002
16550	17.722	3.0909	5.e-002	5.5792e-006
16551	17.999	3.0909	0.	1.2949e-002
16552	17.907	3.	0.	1.2746e-002
16553	17.907	3.0909	5.e-002	5.3452e-006
16554	18.184	3.0909	0.	1.3425e-002
16555	18.092	3.	0.	1.3206e-002
16556	18.092	3.0909	5.e-002	5.3473e-006
16557	18.368	3.0909	0.	1.3932e-002
16558	18.276	3.	0.	1.3697e-002
16559	18.276	3.0909	5.e-002	4.3987e-006
16560	18.553	3.0909	0.	1.4474e-002
16561	18.461	3.	0.	1.4222e-002
16562	18.461	3.0909	5.e-002	6.3053e-006
16563	18.738	3.0909	0.	1.5057e-002
16564	18.645	3.	0.	1.4784e-002
16565	18.645	3.0909	5.e-002	7.2596e-006
16566	18.922	3.0909	0.	1.5684e-002
16567	18.83	3.	0.	1.5389e-002
16568	18.83	3.0909	5.e-002	8.2126e-006
16569	19.107	3.0909	0.	1.636e-002
16570	19.015	3.	0.	1.604e-002
16571	19.015	3.0909	5.e-002	8.2229e-006
16572	19.292	3.0909	0.	1.709e-002
16573	19.199	3.	0.	1.6742e-002
16574	19.199	3.0909	5.e-002	5.369e-006
16575	19.476	3.0909	0.	1.7882e-002
16576	19.384	3.	0.	1.7503e-002
16577	19.384	3.0909	5.e-002	6.3283e-006
16578	19.661	3.0909	0.	1.8743e-002
16579	19.569	3.	0.	1.8328e-002
16580	19.569	3.0909	5.e-002	5.862e-006
16581	19.846	3.0909	0.	1.9682e-002
16582	19.753	3.	0.	1.9228e-002
16583	19.753	3.0909	5.e-002	8.7294e-006
16584	20.03	3.0909	0.	2.0708e-002
16585	19.938	3.	0.	2.0209e-002
16586	19.938	3.0909	5.e-002	7.773e-006
16587	20.215	3.0909	0.	2.1835e-002
16588	20.123	3.	0.	2.1283e-002
16589	20.123	3.0909	5.e-002	4.8978e-006
16590	20.4	3.0909	0.	2.3077e-002
16591	20.307	3.	0.	2.2469e-002
16592	20.307	3.0909	5.e-002	7.2794e-006
16593	20.584	3.0909	0.	2.4451e-002
16594	20.492	3.	0.	2.3773e-002
16595	20.492	3.0909	5.e-002	3.9463e-006
16596	20.769	3.0909	0.	2.5983e-002
16597	20.676	3.	0.	2.5224e-002
16598	20.676	3.0909	5.e-002	4.4223e-006
16599	20.953	3.0909	0.	2.7696e-002
16600	20.861	3.	0.	2.6844e-002
16601	20.861	3.0909	5.e-002	5.3868e-006
16602	21.138	3.0909	0.	2.9625e-002
16603	21.046	3.	0.	2.8659e-002
16604	21.046	3.0909	5.e-002	7.7634e-006
16605	21.323	3.0909	0.	3.1816e-002
16606	21.23	3.	0.	3.0716e-002
16607	21.23	3.0909	5.e-002	9.6848e-006
16608	21.507	3.0909	0.	3.4326e-002
16609	21.415	3.	0.	3.3057e-002
16610	21.415	3.0909	5.e-002	1.2567e-005
16611	21.692	3.0909	0.	3.7237e-002
16612	21.6	3.	0.	3.5754e-002
16613	21.6	3.0909	5.e-002	1.1625e-005
16614	21.877	3.0909	0.	4.0649e-002
16615	21.784	3.	0.	3.8903e-002
16616	21.784	3.0909	5.e-002	1.0666e-005
16617	22.061	3.0909	0.	4.4711e-002
16618	21.969	3.	0.	4.2617e-002
16619	21.969	3.0909	5.e-002	8.6948e-006
16620	22.246	3.0909	0.	4.9635e-002
16621	22.154	3.	0.	4.7081e-002
16622	22.154	3.0909	5.e-002	8.6664e-006
16623	22.431	3.0909	0.	5.576e-002
16624	22.338	3.	0.	5.2545e-002
16625	22.338	3.0909	5.e-002	5.8112e-006
16626	22.615	3.0909	0.	6.3514e-002
16627	22.523	3.	0.	5.9448e-002
16628	22.523	3.0909	5.e-002	9.6669e-006
16629	22.8	3.0909	0.	7.3927e-002
16630	22.708	3.	0.	6.8242e-002
16631	22.708	3.0909	5.e-002	9.6632e-006
16632	22.984	3.0909	0.	8.7443e-002
16633	22.892	3.	0.	8.0604e-002
16634	22.892	3.0909	5.e-002	8.7034e-006
16635	23.169	3.0909	0.	0.11039
16636	23.077	3.	0.	9.5891e-002
16637	23.077	3.0909	5.e-002	7.7075e-006
16638	23.354	3.0909	0.	0.13359
16639	23.261	3.	0.	0.12781
16640	23.261	3.0909	5.e-002	5.7757e-006
16641	23.538	3.0909	0.	0.23113
16642	23.446	3.	0.	0.14558
16643	23.446	3.0909	5.e-002	5.7605e-006
16644	23.723	3.0909	0.	0.22878
16645	23.631	3.	0.	0.33383
16646	23.631	3.0909	5.e-002	1.8853e-008
16647	23.815	3.	0.	0.21094
16648	23.815	3.0909	5.e-002	3.8688e-006
16649	23.908	3.0909	0.	0.42765
16650	5.4436	2.9091	0.	-0.17626
16651	5.3513	2.8182	0.	-1.9386
16652	5.3513	2.9091	5.e-002	1.1225e-004
16653	5.6283	2.9091	0.	0.55262
16654	5.5359	2.8182	0.	-1.1526e-003
16655	5.5359	2.9091	5.e-002	5.3322e-005
16656	5.8129	2.9091	0.	0.89896
16657	5.7206	2.8182	0.	0.99498
16658	5.7206	2.9091	5.e-002	2.8263e-005
16659	5.9975	2.9091	0.	-184.65
16660	5.9052	2.8182	0.	-112.49
16661	5.9052	2.9091	5.e-002	1.2251e-005
16662	6.1822	2.9091	0.	-320.32
16663	6.0899	2.8182	0.	-273.84
16664	6.0899	2.9091	5.e-002	5.9064e-006
16665	6.3668	2.9091	0.	-400.62
16666	6.2745	2.8182	0.	-372.79
16667	6.2745	2.9091	5.e-002	-6.409e-007
16668	6.5515	2.9091	0.	-440.69
16669	6.4592	2.8182	0.	-425.93
16670	6.4592	2.9091	5.e-002	-1.4224e-006
16671	6.7361	2.9091	0.	-453.46
16672	6.6438	2.8182	0.	-447.66
16673	6.6438	2.9091	5.e-002	-5.5722e-006
16674	6.9208	2.9091	0.	-448.53
16675	6.8284	2.8182	0.	-448.74
16676	6.8284	2.9091	5.e-002	-4.0363e-006
16677	7.1054	2.9091	0.	-432.62
16678	7.0131	2.8182	0.	-436.77
16679	7.0131	2.9091	5.e-002	-1.4695e-005
16680	7.29	2.9091	0.	-410.3
16681	7.1977	2.8182	0.	-416.93
16682	7.1977	2.9091	5.e-002	-1.382e-005
16683	7.4747	2.9091	0.	-384.59
16684	7.3824	2.8182	0.	-392.69
16685	7.3824	2.9091	5.e-002	-1.3347e-005
16686	7.6593	2.9091	0.	-357.48
16687	7.567	2.8182	0.	-366.36
16688	7.567	2.9091	5.e-002	-1.6238e-005
16689	7.844	2.9091	0.	-330.27
16690	7.7516	2.8182	0.	-339.44
16691	7.7516	2.9091	5.e-002	-1.4246e-005
16692	8.0286	2.9091	0.	-303.76
16693	7.9363	2.8182	0.	-312.92
16694	7.9363	2.9091	5.e-002	-9.0313e-006
16695	8.2132	2.9091	0.	-278.45
16696	8.1209	2.8182	0.	-287.37
16697	8.1209	2.9091	5.e-002	-1.0822e-005
16698	8.3979	2.9091	0.	-254.61
16699	8.3056	2.8182	0.	-263.17
16700	8.3056	2.9091	5.e-002	-1.6124e-005
16701	8.5825	2.9091	0.	-232.38
16702	8.4902	2.8182	0.	-240.49
16703	8.4902	2.9091	5.e-002	-1.3556e-005
16704	8.7672	2.9091	0.	-211.78
16705	8.6748	2.8182	0.	-219.41
16706	8.6748	2.9091	5.e-002	-1.4611e-005
16707	8.9518	2.9091	0.	-192.81
16708	8.8595	2.8182	0.	-199.93
16709	8.8595	2.9091	5.e-002	-1.3499e-005
16710	9.1364	2.9091	0.	-175.38
16711	9.0441	2.8182	0.	-182.
16712	9.0441	2.9091	5.e-002	-1.2273e-005
16713	9.3211	2.9091	0.	-159.42
16714	9.2288	2.8182	0.	-165.55
16715	9.2288	2.9091	5.e-002	-7.0738e-006
16716	9.5057	2.9091	0.	-144.82
16717	9.4134	2.8182	0.	-150.49
16718	9.4134	2.9091	5.e-002	-1.1309e-005
16719	9.6904	2.9091	0.	-131.49
16720	9.598	2.8182	0.	-136.72
16721	9.598	2.9091	5.e-002	-5.9348e-006
16722	9.875	2.9091	0.	-119.32
16723	9.7827	2.8182	0.	-124.15
16724	9.7827	2.9091	5.e-002	-8.1098e-006
16725	10.06	2.9091	0.	-108.22
16726	9.9673	2.8182	0.	-112.66
16727	9.9673	2.9091	5.e-002	-6.4533e-006
16728	10.244	2.9091	0.	-98.084
16729	10.152	2.8182	0.	-102.17
16730	10.152	2.9091	5.e-002	-6.626e-006
16731	10.429	2.9091	0.	-88.829
16732	10.337	2.8182	0.	-92.584
16733	10.337	2.9091	5.e-002	-5.8298e-006
16734	10.614	2.9091	0.	-80.375
16735	10.521	2.8182	0.	-83.829
16736	10.521	2.9091	5.e-002	-4.99e-006
16737	10.798	2.9091	0.	-72.648
16738	10.706	2.8182	0.	-75.825
16739	10.706	2.9091	5.e-002	-3.189e-006
16740	10.983	2.9091	0.	-65.579
16741	10.891	2.8182	0.	-68.503
16742	10.891	2.9091	5.e-002	-2.3164e-006
16743	11.167	2.9091	0.	-59.107
16744	11.075	2.8182	0.	-61.798
16745	11.075	2.9091	5.e-002	-1.4337e-006
16746	11.352	2.9091	0.	-53.177
16747	11.26	2.8182	0.	-55.656
16748	11.26	2.9091	5.e-002	-1.9783e-006
16749	11.537	2.9091	0.	-47.737
16750	11.444	2.8182	0.	-50.022
16751	11.444	2.9091	5.e-002	-1.5552e-006
16752	11.721	2.9091	0.	-42.743
16753	11.629	2.8182	0.	-44.85
16754	11.629	2.9091	5.e-002	-1.6242e-007
16755	11.906	2.9091	0.	-38.153
16756	11.814	2.8182	0.	-40.098
16757	11.814	2.9091	5.e-002	7.536e-007
16758	12.091	2.9091	0.	-33.93
16759	11.998	2.8182	0.	-35.727
16760	11.998	2.9091	5.e-002	7.1298e-007
16761	12.275	2.9091	0.	-30.04
16762	12.183	2.8182	0.	-31.702
16763	12.183	2.9091	5.e-002	-2.727e-007
16764	12.46	2.9091	0.	-26.453
16765	12.368	2.8182	0.	-27.992
16766	12.368	2.9091	5.e-002	8.9263e-007
16767	12.645	2.9091	0.	-23.142
16768	12.552	2.8182	0.	-24.568
16769	12.552	2.9091	5.e-002	1.5838e-006
16770	12.829	2.9091	0.	-20.08
16771	12.737	2.8182	0.	-21.404
16772	12.737	2.9091	5.e-002	2.2772e-006
16773	13.014	2.9091	0.	-17.246
16774	12.922	2.8182	0.	-18.476
16775	12.922	2.9091	5.e-002	3.2111e-006
16776	13.199	2.9091	0.	-14.618
16777	13.106	2.8182	0.	-15.763
16778	13.106	2.9091	5.e-002	3.6711e-006
16779	13.383	2.9091	0.	-12.177
16780	13.291	2.8182	0.	-13.245
16781	13.291	2.9091	5.e-002	2.94e-006
16782	13.568	2.9091	0.	-9.9054
16783	13.475	2.8182	0.	-10.904
16784	13.475	2.9091	5.e-002	3.044e-006
16785	13.752	2.9091	0.	-7.7877
16786	13.66	2.8182	0.	-8.7236
16787	13.66	2.9091	5.e-002	3.2099e-006
16788	13.937	2.9091	0.	-5.8086
16789	13.845	2.8182	0.	-6.688
16790	13.845	2.9091	5.e-002	3.4967e-006
16791	14.122	2.9091	0.	-3.9546
16792	14.029	2.8182	0.	-4.7831
16793	14.029	2.9091	5.e-002	3.5468e-006
16794	14.306	2.9091	0.	-2.2127
16795	14.214	2.8182	0.	-2.996
16796	14.214	2.9091	5.e-002	3.0697e-006
16797	14.491	2.9091	0.	-0.57114
16798	14.399	2.8182	0.	-1.3144
16799	14.399	2.9091	5.e-002	3.5765e-006
16800	14.676	2.9091	0.	7.3414e-003
16801	14.583	2.8182	0.	5.6238e-003
16802	14.583	2.9091	5.e-002	4.2994e-006
16803	14.86	2.9091	0.	7.6413e-003
16804	14.768	2.8182	0.	7.2866e-003
16805	14.768	2.9091	5.e-002	5.3655e-006
16806	15.045	2.9091	0.	7.8913e-003
16807	14.953	2.8182	0.	7.6298e-003
16808	14.953	2.9091	5.e-002	4.5399e-006
16809	15.23	2.9091	0.	8.1348e-003
16810	15.137	2.8182	0.	7.9049e-003
16811	15.137	2.9091	5.e-002	5.8902e-006
16812	15.414	2.9091	0.	8.3797e-003
16813	15.322	2.8182	0.	8.1634e-003
16814	15.322	2.9091	5.e-002	5.2288e-006
16815	15.599	2.9091	0.	8.6292e-003
16816	15.507	2.8182	0.	8.4185e-003
16817	15.507	2.9091	5.e-002	3.6726e-006
16818	15.783	2.9091	0.	8.8851e-003
16819	15.691	2.8182	0.	8.6769e-003
16820	15.691	2.9091	5.e-002	3.4873e-006
16821	15.968	2.9091	0.	9.1487e-003
16822	15.876	2.8182	0.	8.9397e-003
16823	15.876	2.9091	5.e-002	3.0041e-006
16824	16.153	2.9091	0.	9.4204e-003
16825	16.06	2.8182	0.	9.2092e-003
16826	16.06	2.9091	5.e-002	3.0584e-006
16827	16.337	2.9091	0.	9.7014e-003
16828	16.245	2.8182	0.	9.4867e-003
16829	16.245	2.9091	5.e-002	3.1734e-006
16830	16.522	2.9091	0.	9.9976e-003
16831	16.43	2.8182	0.	9.7737e-003
16832	16.43	2.9091	5.e-002	3.7652e-006
16833	16.707	2.9091	0.	1.0308e-002
16834	16.614	2.8182	0.	1.0081e-002
16835	16.614	2.9091	5.e-002	3.4004e-006
16836	16.891	2.9091	0.	1.0623e-002
16837	16.799	2.8182	0.	1.0397e-002
16838	16.799	2.9091	5.e-002	4.1079e-006
16839	17.076	2.9091	0.	1.0953e-002
16840	16.984	2.8182	0.	1.0711e-002
16841	16.984	2.9091	5.e-002	3.9843e-006
16842	17.261	2.9091	0.	1.1312e-002
16843	17.168	2.8182	0.	1.1057e-002
16844	17.168	2.9091	5.e-002	2.9056e-006
16845	17.445	2.9091	0.	1.1688e-002
16846	17.353	2.8182	0.	1.1428e-002
16847	17.353	2.9091	5.e-002	3.2556e-006
16848	17.63	2.9091	0.	1.2084e-002
16849	17.538	2.8182	0.	1.1809e-002
16850	17.538	2.9091	5.e-002	3.7244e-006
16851	17.815	2.9091	0.	1.2504e-002
16852	17.722	2.8182	0.	1.2217e-002
16853	17.722	2.9091	5.e-002	4.1941e-006
16854	17.999	2.9091	0.	1.2949e-002
16855	17.907	2.8182	0.	1.2648e-002
16856	17.907	2.9091	5.e-002	3.9518e-006
16857	18.184	2.9091	0.	1.3424e-002
16858	18.092	2.8182	0.	1.3107e-002
16859	18.092	2.9091	5.e-002	3.7108e-006
16860	18.368	2.9091	0.	1.3932e-002
16861	18.276	2.8182	0.	1.3597e-002
16862	18.276	2.9091	5.e-002	2.5139e-006
16863	18.553	2.9091	0.	1.4475e-002
16864	18.461	2.8182	0.	1.4121e-002
16865	18.461	2.9091	5.e-002	3.7066e-006
16866	18.738	2.9091	0.	1.5058e-002
16867	18.645	2.8182	0.	1.4682e-002
16868	18.645	2.9091	5.e-002	5.137e-006
16869	18.922	2.9091	0.	1.5684e-002
16870	18.83	2.8182	0.	1.5285e-002
16871	18.83	2.9091	5.e-002	7.0443e-006
16872	19.107	2.9091	0.	1.636e-002
16873	19.015	2.8182	0.	1.5933e-002
16874	19.015	2.9091	5.e-002	6.0812e-006
16875	19.292	2.9091	0.	1.709e-002
16876	19.199	2.8182	0.	1.6634e-002
16877	19.199	2.9091	5.e-002	4.1664e-006
16878	19.476	2.9091	0.	1.7882e-002
16879	19.384	2.8182	0.	1.7392e-002
16880	19.384	2.9091	5.e-002	4.1594e-006
16881	19.661	2.9091	0.	1.8743e-002
16882	19.569	2.8182	0.	1.8216e-002
16883	19.569	2.9091	5.e-002	3.1968e-006
16884	19.846	2.9091	0.	1.9682e-002
16885	19.753	2.8182	0.	1.9113e-002
16886	19.753	2.9091	5.e-002	6.5273e-006
16887	20.03	2.9091	0.	2.0707e-002
16888	19.938	2.8182	0.	2.0091e-002
16889	19.938	2.9091	5.e-002	4.1454e-006
16890	20.215	2.9091	0.	2.1835e-002
16891	20.123	2.8182	0.	2.1164e-002
16892	20.123	2.9091	5.e-002	2.2523e-006
16893	20.4	2.9091	0.	2.3078e-002
16894	20.307	2.8182	0.	2.2346e-002
16895	20.307	2.9091	5.e-002	4.161e-006
16896	20.584	2.9091	0.	2.4452e-002
16897	20.492	2.8182	0.	2.365e-002
16898	20.492	2.9091	5.e-002	3.2027e-006
16899	20.769	2.9091	0.	2.5983e-002
16900	20.676	2.8182	0.	2.5098e-002
16901	20.676	2.9091	5.e-002	2.2489e-006
16902	20.953	2.9091	0.	2.7695e-002
16903	20.861	2.8182	0.	2.6713e-002
16904	20.861	2.9091	5.e-002	2.2376e-006
16905	21.138	2.9091	0.	2.9626e-002
16906	21.046	2.8182	0.	2.8528e-002
16907	21.046	2.9091	5.e-002	4.6298e-006
16908	21.323	2.9091	0.	3.1817e-002
16909	21.23	2.8182	0.	3.0583e-002
16910	21.23	2.9091	5.e-002	7.4772e-006
16911	21.507	2.9091	0.	3.4325e-002
16912	21.415	2.8182	0.	3.292e-002
16913	21.415	2.9091	5.e-002	1.0318e-005
16914	21.692	2.9091	0.	3.7234e-002
16915	21.6	2.8182	0.	3.5615e-002
16916	21.6	2.9091	5.e-002	8.3983e-006
16917	21.877	2.9091	0.	4.0647e-002
16918	21.784	2.8182	0.	3.8763e-002
16919	21.784	2.9091	5.e-002	7.4508e-006
16920	22.061	2.9091	0.	4.471e-002
16921	21.969	2.8182	0.	4.2476e-002
16922	21.969	2.9091	5.e-002	7.5147e-006
16923	22.246	2.9091	0.	4.9637e-002
16924	22.154	2.8182	0.	4.6937e-002
16925	22.154	2.9091	5.e-002	5.638e-006
16926	22.431	2.9091	0.	5.5761e-002
16927	22.338	2.8182	0.	5.24e-002
16928	22.338	2.9091	5.e-002	3.7247e-006
16929	22.615	2.9091	0.	6.3513e-002
16930	22.523	2.8182	0.	5.9295e-002
16931	22.523	2.9091	5.e-002	6.5458e-006
16932	22.8	2.9091	0.	7.3926e-002
16933	22.708	2.8182	0.	6.8084e-002
16934	22.708	2.9091	5.e-002	4.6392e-006
16935	22.984	2.9091	0.	8.7443e-002
16936	22.892	2.8182	0.	8.0436e-002
16937	22.892	2.9091	5.e-002	7.5049e-006
16938	23.169	2.9091	0.	0.11039
16939	23.077	2.8182	0.	9.5713e-002
16940	23.077	2.9091	5.e-002	3.7368e-006
16941	23.354	2.9091	0.	0.1336
16942	23.261	2.8182	0.	0.1276
16943	23.261	2.9091	5.e-002	5.6677e-006
16944	23.538	2.9091	0.	0.23113
16945	23.446	2.8182	0.	0.14535
16946	23.446	2.9091	5.e-002	-4.6864e-008
16947	23.723	2.9091	0.	0.22878
16948	23.631	2.8182	0.	0.33349
16949	23.631	2.9091	5.e-002	-3.8434e-006
16950	23.815	2.8182	0.	0.21023
16951	23.815	2.9091	5.e-002	-6.6829e-008
16952	23.908	2.9091	0.	0.42765
16953	5.4436	2.7273	0.	-1.899
16954	5.3513	2.6364	0.	1.1915
16955	5.3513	2.7273	5.e-002	1.7251e-004
16956	5.6283	2.7273	0.	0.33548
16957	5.5359	2.6364	0.	0.20045
16958	5.5359	2.7273	5.e-002	4.6891e-005
16959	5.8129	2.7273	0.	-5.2534
16960	5.7206	2.6364	0.	5.2011e-002
16961	5.7206	2.7273	5.e-002	-3.549e-006
16962	5.9975	2.7273	0.	-195.3
16963	5.9052	2.6364	0.	-130.5
16964	5.9052	2.7273	5.e-002	-1.3833e-005
16965	6.1822	2.7273	0.	-322.51
16966	6.0899	2.6364	0.	-278.29
16967	6.0899	2.7273	5.e-002	-1.5266e-005
16968	6.3668	2.7273	0.	-395.99
16969	6.2745	2.6364	0.	-366.36
16970	6.2745	2.7273	5.e-002	-8.9944e-007
16971	6.5515	2.7273	0.	-431.77
16972	6.4592	2.6364	0.	-412.64
16973	6.4592	2.7273	5.e-002	2.9895e-006
16974	6.7361	2.7273	0.	-442.36
16975	6.6438	2.6364	0.	-430.81
16976	6.6438	2.7273	5.e-002	2.9823e-006
16977	6.9208	2.7273	0.	-436.7
16978	6.8284	2.6364	0.	-430.6
16979	6.8284	2.7273	5.e-002	4.0048e-006
16980	7.1054	2.7273	0.	-420.94
16981	7.0131	2.6364	0.	-418.73
16982	7.0131	2.7273	5.e-002	-2.1904e-006
16983	7.29	2.7273	0.	-399.25
16984	7.1977	2.6364	0.	-399.78
16985	7.1977	2.7273	5.e-002	-9.3299e-007
16986	7.4747	2.7273	0.	-374.43
16987	7.3824	2.6364	0.	-376.86
16988	7.3824	2.7273	5.e-002	-1.0633e-005
16989	7.6593	2.7273	0.	-348.31
16990	7.567	2.6364	0.	-352.01
16991	7.567	2.7273	5.e-002	-5.6782e-006
16992	7.844	2.7273	0.	-322.09
16993	7.7516	2.6364	0.	-326.61
16994	7.7516	2.7273	5.e-002	-1.0166e-005
16995	8.0286	2.7273	0.	-296.53
16996	7.9363	2.6364	0.	-301.54
16997	7.9363	2.7273	5.e-002	-1.2339e-005
16998	8.2132	2.7273	0.	-272.09
16999	8.1209	2.6364	0.	-277.36
17000	8.1209	2.7273	5.e-002	-6.169e-006
17001	8.3979	2.7273	0.	-249.05
17002	8.3056	2.6364	0.	-254.39
17003	8.3056	2.7273	5.e-002	-1.0462e-005
17004	8.5825	2.7273	0.	-227.52
17005	8.4902	2.6364	0.	-232.82
17006	8.4902	2.7273	5.e-002	-8.0455e-006
17007	8.7672	2.7273	0.	-207.56
17008	8.6748	2.6364	0.	-212.73
17009	8.6748	2.7273	5.e-002	-1.109e-005
17010	8.9518	2.7273	0.	-189.13
17011	8.8595	2.6364	0.	-194.11
17012	8.8595	2.7273	5.e-002	-1.1924e-005
17013	9.1364	2.7273	0.	-172.18
17014	9.0441	2.6364	0.	-176.94
17015	9.0441	2.7273	5.e-002	-1.3883e-005
17016	9.3211	2.7273	0.	-156.63
17017	9.2288	2.6364	0.	-161.14
17018	9.2288	2.7273	5.e-002	-1.1644e-005
17019	9.5057	2.7273	0.	-142.39
17020	9.4134	2.6364	0.	-146.65
17021	9.4134	2.7273	5.e-002	-7.2245e-006
17022	9.6904	2.7273	0.	-129.37
17023	9.598	2.6364	0.	-133.37
17024	9.598	2.7273	5.e-002	-1.015e-005
17025	9.875	2.7273	0.	-117.47
17026	9.7827	2.6364	0.	-121.22
17027	9.7827	2.7273	5.e-002	-6.2365e-006
17028	10.06	2.7273	0.	-106.6
17029	9.9673	2.6364	0.	-110.1
17030	9.9673	2.7273	5.e-002	-5.9763e-006
17031	10.244	2.7273	0.	-96.661
17032	10.152	2.6364	0.	-99.919
17033	10.152	2.7273	5.e-002	-5.6301e-006
17034	10.429	2.7273	0.	-87.578
17035	10.337	2.6364	0.	-90.608
17036	10.337	2.7273	5.e-002	-2.2263e-006
17037	10.614	2.7273	0.	-79.272
17038	10.521	2.6364	0.	-82.088
17039	10.521	2.7273	5.e-002	-2.5845e-006
17040	10.798	2.7273	0.	-71.672
17041	10.706	2.6364	0.	-74.286
17042	10.706	2.7273	5.e-002	-1.9605e-006
17043	10.983	2.7273	0.	-64.713
17044	10.891	2.6364	0.	-67.138
17045	10.891	2.7273	5.e-002	-1.2663e-006
17046	11.167	2.7273	0.	-58.337
17047	11.075	2.6364	0.	-60.586
17048	11.075	2.7273	5.e-002	-1.946e-006
17049	11.352	2.7273	0.	-52.49
17050	11.26	2.6364	0.	-54.575
17051	11.26	2.7273	5.e-002	-6.8308e-007
17052	11.537	2.7273	0.	-47.123
17053	11.444	2.6364	0.	-49.056
17054	11.444	2.7273	5.e-002	-8.6515e-007
17055	11.721	2.7273	0.	-42.192
17056	11.629	2.6364	0.	-43.985
17057	11.629	2.7273	5.e-002	-4.9308e-007
17058	11.906	2.7273	0.	-37.658
17059	11.814	2.6364	0.	-39.321
17060	11.814	2.7273	5.e-002	8.2001e-007
17061	12.091	2.7273	0.	-33.484
17062	11.998	2.6364	0.	-35.028
17063	11.998	2.7273	5.e-002	7.0271e-007
17064	12.275	2.7273	0.	-29.638
17065	12.183	2.6364	0.	-31.071
17066	12.183	2.7273	5.e-002	-1.0553e-007
17067	12.46	2.7273	0.	-26.09
17068	12.368	2.6364	0.	-27.422
17069	12.368	2.7273	5.e-002	5.267e-007
17070	12.645	2.7273	0.	-22.812
17071	12.552	2.6364	0.	-24.052
17072	12.552	2.7273	5.e-002	2.12e-006
17073	12.829	2.7273	0.	-19.781
17074	12.737	2.6364	0.	-20.936
17075	12.737	2.7273	5.e-002	2.2991e-006
17076	13.014	2.7273	0.	-16.974
17077	12.922	2.6364	0.	-18.051
17078	12.922	2.7273	5.e-002	2.9574e-006
17079	13.199	2.7273	0.	-14.371
17080	13.106	2.6364	0.	-15.377
17081	13.106	2.7273	5.e-002	3.6223e-006
17082	13.383	2.7273	0.	-11.952
17083	13.291	2.6364	0.	-12.894
17084	13.291	2.7273	5.e-002	2.9763e-006
17085	13.568	2.7273	0.	-9.7013
17086	13.475	2.6364	0.	-10.585
17087	13.475	2.7273	5.e-002	2.8119e-006
17088	13.752	2.7273	0.	-7.602
17089	13.66	2.6364	0.	-8.4329
17090	13.66	2.7273	5.e-002	3.2508e-006
17091	13.937	2.7273	0.	-5.6399
17092	13.845	2.6364	0.	-6.4235
17093	13.845	2.7273	5.e-002	3.4556e-006
17094	14.122	2.7273	0.	-3.8013
17095	14.029	2.6364	0.	-4.5427
17096	14.029	2.7273	5.e-002	3.3081e-006
17097	14.306	2.7273	0.	-2.0738
17098	14.214	2.6364	0.	-2.7778
17099	14.214	2.7273	5.e-002	2.9279e-006
17100	14.491	2.7273	0.	-0.44701
17101	14.399	2.6364	0.	-1.1173
17102	14.399	2.7273	5.e-002	3.487e-006
17103	14.676	2.7273	0.	6.4451e-003
17104	14.583	2.6364	0.	3.2115e-003
17105	14.583	2.7273	5.e-002	4.1059e-006
17106	14.86	2.7273	0.	7.2037e-003
17107	14.768	2.6364	0.	6.488e-003
17108	14.768	2.7273	5.e-002	5.3822e-006
17109	15.045	2.7273	0.	7.5716e-003
17110	14.953	2.6364	0.	7.1013e-003
17111	14.953	2.7273	5.e-002	4.1051e-006
17112	15.23	2.7273	0.	7.8689e-003
17113	15.137	2.6364	0.	7.4819e-003
17114	15.137	2.7273	5.e-002	5.69e-006
17115	15.414	2.7273	0.	8.1428e-003
17116	15.322	2.6364	0.	7.7945e-003
17117	15.322	2.7273	5.e-002	4.9274e-006
17118	15.599	2.7273	0.	8.4102e-003
17119	15.507	2.6364	0.	8.0807e-003
17120	15.507	2.7273	5.e-002	3.1502e-006
17121	15.783	2.7273	0.	8.6779e-003
17122	15.691	2.6364	0.	8.3591e-003
17123	15.691	2.7273	5.e-002	3.3092e-006
17124	15.968	2.7273	0.	8.948e-003
17125	15.876	2.6364	0.	8.6349e-003
17126	15.876	2.7273	5.e-002	2.6351e-006
17127	16.153	2.7273	0.	9.2244e-003
17128	16.06	2.6364	0.	8.9124e-003
17129	16.06	2.7273	5.e-002	2.7379e-006
17130	16.337	2.7273	0.	9.5086e-003
17131	16.245	2.6364	0.	9.1973e-003
17132	16.245	2.7273	5.e-002	3.0828e-006
17133	16.522	2.7273	0.	9.807e-003
17134	16.43	2.6364	0.	9.4876e-003
17135	16.43	2.7273	5.e-002	3.3089e-006
17136	16.707	2.7273	0.	1.0119e-002
17137	16.614	2.6364	0.	9.7963e-003
17138	16.614	2.7273	5.e-002	3.2866e-006
17139	16.891	2.7273	0.	1.0435e-002
17140	16.799	2.6364	0.	1.0113e-002
17141	16.799	2.7273	5.e-002	3.6218e-006
17142	17.076	2.7273	0.	1.0764e-002
17143	16.984	2.6364	0.	1.0427e-002
17144	16.984	2.7273	5.e-002	3.4895e-006
17145	17.261	2.7273	0.	1.1123e-002
17146	17.168	2.6364	0.	1.0772e-002
17147	17.168	2.7273	5.e-002	2.398e-006
17148	17.445	2.7273	0.	1.1498e-002
17149	17.353	2.6364	0.	1.1141e-002
17150	17.353	2.7273	5.e-002	3.0919e-006
17151	17.63	2.7273	0.	1.189e-002
17152	17.538	2.6364	0.	1.152e-002
17153	17.538	2.7273	5.e-002	3.7803e-006
17154	17.815	2.7273	0.	1.2308e-002
17155	17.722	2.6364	0.	1.1925e-002
17156	17.722	2.7273	5.e-002	4.0004e-006
17157	17.999	2.7273	0.	1.2752e-002
17158	17.907	2.6364	0.	1.2354e-002
17159	17.907	2.7273	5.e-002	3.2735e-006
17160	18.184	2.7273	0.	1.3225e-002
17161	18.092	2.6364	0.	1.2809e-002
17162	18.092	2.7273	5.e-002	3.027e-006
17163	18.368	2.7273	0.	1.373e-002
17164	18.276	2.6364	0.	1.3295e-002
17165	18.276	2.7273	5.e-002	2.0602e-006
17166	18.553	2.7273	0.	1.427e-002
17167	18.461	2.6364	0.	1.3815e-002
17168	18.461	2.7273	5.e-002	3.2522e-006
17169	18.738	2.7273	0.	1.485e-002
17170	18.645	2.6364	0.	1.4371e-002
17171	18.645	2.7273	5.e-002	4.4462e-006
17172	18.922	2.7273	0.	1.5473e-002
17173	18.83	2.6364	0.	1.4968e-002
17174	18.83	2.7273	5.e-002	6.8314e-006
17175	19.107	2.7273	0.	1.6145e-002
17176	19.015	2.6364	0.	1.5612e-002
17177	19.015	2.7273	5.e-002	5.8489e-006
17178	19.292	2.7273	0.	1.6871e-002
17179	19.199	2.6364	0.	1.6307e-002
17180	19.199	2.7273	5.e-002	3.4415e-006
17181	19.476	2.7273	0.	1.7659e-002
17182	19.384	2.6364	0.	1.7058e-002
17183	19.384	2.7273	5.e-002	2.9464e-006
17184	19.661	2.7273	0.	1.8516e-002
17185	19.569	2.6364	0.	1.7877e-002
17186	19.569	2.7273	5.e-002	3.393e-006
17187	19.846	2.7273	0.	1.9449e-002
17188	19.753	2.6364	0.	1.8765e-002
17189	19.753	2.7273	5.e-002	5.7573e-006
17190	20.03	2.7273	0.	2.047e-002
17191	19.938	2.6364	0.	1.9738e-002
17192	19.938	2.7273	5.e-002	4.3339e-006
17193	20.215	2.7273	0.	2.1593e-002
17194	20.123	2.6364	0.	2.0802e-002
17195	20.123	2.7273	5.e-002	1.9932e-006
17196	20.4	2.7273	0.	2.2831e-002
17197	20.307	2.6364	0.	2.1977e-002
17198	20.307	2.7273	5.e-002	3.9022e-006
17199	20.584	2.7273	0.	2.4201e-002
17200	20.492	2.6364	0.	2.3273e-002
17201	20.492	2.7273	5.e-002	1.9798e-006
17202	20.769	2.7273	0.	2.5726e-002
17203	20.676	2.6364	0.	2.4713e-002
17204	20.676	2.7273	5.e-002	1.9831e-006
17205	20.953	2.7273	0.	2.7434e-002
17206	20.861	2.6364	0.	2.632e-002
17207	20.861	2.7273	5.e-002	1.4677e-006
17208	21.138	2.7273	0.	2.9361e-002
17209	21.046	2.6364	0.	2.8129e-002
17210	21.046	2.7273	5.e-002	2.926e-006
17211	21.323	2.7273	0.	3.1545e-002
17212	21.23	2.6364	0.	3.0176e-002
17213	21.23	2.7273	5.e-002	6.2252e-006
17214	21.507	2.7273	0.	3.405e-002
17215	21.415	2.6364	0.	3.2506e-002
17216	21.415	2.7273	5.e-002	9.0307e-006
17217	21.692	2.7273	0.	3.6957e-002
17218	21.6	2.6364	0.	3.5197e-002
17219	21.6	2.7273	5.e-002	7.0904e-006
17220	21.877	2.7273	0.	4.0366e-002
17221	21.784	2.6364	0.	3.8337e-002
17222	21.784	2.7273	5.e-002	7.1033e-006
17223	22.061	2.7273	0.	4.4425e-002
17224	21.969	2.6364	0.	4.2044e-002
17225	21.969	2.7273	5.e-002	6.3423e-006
17226	22.246	2.7273	0.	4.9345e-002
17227	22.154	2.6364	0.	4.6499e-002
17228	22.154	2.7273	5.e-002	5.4918e-006
17229	22.431	2.7273	0.	5.5461e-002
17230	22.338	2.6364	0.	5.1951e-002
17231	22.338	2.7273	5.e-002	3.57e-006
17232	22.615	2.7273	0.	6.3202e-002
17233	22.523	2.6364	0.	5.8834e-002
17234	22.523	2.7273	5.e-002	5.3721e-006
17235	22.8	2.7273	0.	7.3601e-002
17236	22.708	2.6364	0.	6.7604e-002
17237	22.708	2.7273	5.e-002	7.2745e-006
17238	22.984	2.7273	0.	8.7097e-002
17239	22.892	2.6364	0.	7.9929e-002
17240	22.892	2.7273	5.e-002	4.4234e-006
17241	23.169	2.7273	0.	0.11001
17242	23.077	2.6364	0.	9.5166e-002
17243	23.077	2.7273	5.e-002	5.5186e-006
17244	23.354	2.7273	0.	0.13317
17245	23.261	2.6364	0.	0.12699
17246	23.261	2.7273	5.e-002	3.6694e-006
17247	23.538	2.7273	0.	0.23058
17248	23.446	2.6364	0.	0.14465
17249	23.446	2.7273	5.e-002	-1.2896e-007
17250	23.723	2.7273	0.	0.22788
17251	23.631	2.6364	0.	0.33248
17252	23.631	2.7273	5.e-002	-7.718e-006
17253	23.815	2.6364	0.	0.20809
17254	23.815	2.7273	5.e-002	-1.9809e-007
17255	23.908	2.7273	0.	0.42737
17256	5.4436	2.5455	0.	2.9699
17257	5.3513	2.4545	0.	-7.5515
17258	5.3513	2.5455	5.e-002	2.5898e-004
17259	5.6283	2.5455	0.	5.3872e-002
17260	5.5359	2.4545	0.	-5.247
17261	5.5359	2.5455	5.e-002	7.4778e-005
17262	5.8129	2.5455	0.	-27.617
17263	5.7206	2.4545	0.	2.5077
17264	5.7206	2.5455	5.e-002	-1.1189e-005
17265	5.9975	2.5455	0.	-207.94
17266	5.9052	2.4545	0.	-141.79
17267	5.9052	2.5455	5.e-002	-1.4283e-005
17268	6.1822	2.5455	0.	-319.31
17269	6.0899	2.4545	0.	-270.8
17270	6.0899	2.5455	5.e-002	-3.9775e-006
17271	6.3668	2.5455	0.	-381.6
17272	6.2745	2.4545	0.	-345.97
17273	6.2745	2.5455	5.e-002	1.1038e-005
17274	6.5515	2.5455	0.	-410.99
17275	6.4592	2.4545	0.	-384.99
17276	6.4592	2.5455	5.e-002	2.4037e-005
17277	6.7361	2.5455	0.	-418.72
17278	6.6438	2.4545	0.	-400.
17279	6.6438	2.5455	5.e-002	2.6665e-005
17280	6.9208	2.5455	0.	-412.48
17281	6.8284	2.4545	0.	-399.27
17282	6.8284	2.5455	5.e-002	2.055e-005
17283	7.1054	2.5455	0.	-397.51
17284	7.0131	2.4545	0.	-388.49
17285	7.0131	2.5455	5.e-002	1.9992e-005
17286	7.29	2.5455	0.	-377.36
17287	7.1977	2.4545	0.	-371.52
17288	7.1977	2.5455	5.e-002	6.9665e-006
17289	7.4747	2.5455	0.	-354.43
17290	7.3824	2.4545	0.	-351.
17291	7.3824	2.5455	5.e-002	9.2712e-006
17292	7.6593	2.5455	0.	-330.31
17293	7.567	2.4545	0.	-328.7
17294	7.567	2.5455	5.e-002	8.6098e-006
17295	7.844	2.5455	0.	-306.07
17296	7.7516	2.4545	0.	-305.82
17297	7.7516	2.5455	5.e-002	2.0514e-006
17298	8.0286	2.5455	0.	-282.38
17299	7.9363	2.4545	0.	-283.15
17300	7.9363	2.5455	5.e-002	-7.2516e-006
17301	8.2132	2.5455	0.	-259.66
17302	8.1209	2.4545	0.	-261.17
17303	8.1209	2.5455	5.e-002	-4.3416e-006
17304	8.3979	2.5455	0.	-238.17
17305	8.3056	2.4545	0.	-240.2
17306	8.3056	2.5455	5.e-002	-8.156e-006
17307	8.5825	2.5455	0.	-218.03
17308	8.4902	2.4545	0.	-220.42
17309	8.4902	2.5455	5.e-002	-7.0424e-006
17310	8.7672	2.5455	0.	-199.28
17311	8.6748	2.4545	0.	-201.91
17312	8.6748	2.5455	5.e-002	-9.0689e-006
17313	8.9518	2.5455	0.	-181.92
17314	8.8595	2.4545	0.	-184.68
17315	8.8595	2.5455	5.e-002	-8.4663e-006
17316	9.1364	2.5455	0.	-165.9
17317	9.0441	2.4545	0.	-168.73
17318	9.0441	2.5455	5.e-002	-7.9172e-006
17319	9.3211	2.5455	0.	-151.17
17320	9.2288	2.4545	0.	-153.99
17321	9.2288	2.5455	5.e-002	-9.0127e-006
17322	9.5057	2.5455	0.	-137.63
17323	9.4134	2.4545	0.	-140.41
17324	9.4134	2.5455	5.e-002	-5.3668e-006
17325	9.6904	2.5455	0.	-125.22
17326	9.598	2.4545	0.	-127.93
17327	9.598	2.5455	5.e-002	-6.7922e-006
17328	9.875	2.5455	0.	-113.84
17329	9.7827	2.4545	0.	-116.45
17330	9.7827	2.5455	5.e-002	-5.5386e-006
17331	10.06	2.5455	0.	-103.41
17332	9.9673	2.4545	0.	-105.92
17333	9.9673	2.5455	5.e-002	-5.6926e-006
17334	10.244	2.5455	0.	-93.861
17335	10.152	2.4545	0.	-96.253
17336	10.152	2.5455	5.e-002	-3.7689e-006
17337	10.429	2.5455	0.	-85.112
17338	10.337	2.4545	0.	-87.382
17339	10.337	2.5455	5.e-002	-2.5804e-006
17340	10.614	2.5455	0.	-77.094
17341	10.521	2.4545	0.	-79.24
17342	10.521	2.5455	5.e-002	-1.2248e-006
17343	10.798	2.5455	0.	-69.744
17344	10.706	2.4545	0.	-71.766
17345	10.706	2.5455	5.e-002	-7.7766e-007
17346	10.983	2.5455	0.	-63.002
17347	10.891	2.4545	0.	-64.903
17348	10.891	2.5455	5.e-002	-7.3329e-007
17349	11.167	2.5455	0.	-56.814
17350	11.075	2.4545	0.	-58.597
17351	11.075	2.5455	5.e-002	-1.5538e-006
17352	11.352	2.5455	0.	-51.131
17353	11.26	2.4545	0.	-52.801
17354	11.26	2.5455	5.e-002	-4.4676e-007
17355	11.537	2.5455	0.	-45.907
17356	11.444	2.4545	0.	-47.469
17357	11.444	2.5455	5.e-002	1.2189e-006
17358	11.721	2.5455	0.	-41.101
17359	11.629	2.4545	0.	-42.562
17360	11.629	2.5455	5.e-002	1.0298e-006
17361	11.906	2.5455	0.	-36.677
17362	11.814	2.4545	0.	-38.042
17363	11.814	2.5455	5.e-002	1.807e-006
17364	12.091	2.5455	0.	-32.6
17365	11.998	2.4545	0.	-33.876
17366	11.998	2.5455	5.e-002	1.1442e-006
17367	12.275	2.5455	0.	-28.84
17368	12.183	2.4545	0.	-30.032
17369	12.183	2.5455	5.e-002	7.5036e-007
17370	12.46	2.5455	0.	-25.367
17371	12.368	2.4545	0.	-26.481
17372	12.368	2.5455	5.e-002	1.1031e-006
17373	12.645	2.5455	0.	-22.158
17374	12.552	2.4545	0.	-23.2
17375	12.552	2.5455	5.e-002	2.8896e-006
17376	12.829	2.5455	0.	-19.187
17377	12.737	2.4545	0.	-20.163
17378	12.737	2.5455	5.e-002	3.2647e-006
17379	13.014	2.5455	0.	-16.435
17380	12.922	2.4545	0.	-17.349
17381	12.922	2.5455	5.e-002	4.114e-006
17382	13.199	2.5455	0.	-13.88
17383	13.106	2.4545	0.	-14.739
17384	13.106	2.5455	5.e-002	4.275e-006
17385	13.383	2.5455	0.	-11.506
17386	13.291	2.4545	0.	-12.313
17387	13.291	2.5455	5.e-002	3.7199e-006
17388	13.568	2.5455	0.	-9.2952
17389	13.475	2.4545	0.	-10.056
17390	13.475	2.5455	5.e-002	3.7621e-006
17391	13.752	2.5455	0.	-7.2324
17392	13.66	2.4545	0.	-7.9514
17393	13.66	2.5455	5.e-002	3.8201e-006
17394	13.937	2.5455	0.	-5.3037
17395	13.845	2.4545	0.	-5.9853
17396	13.845	2.5455	5.e-002	3.7643e-006
17397	14.122	2.5455	0.	-3.4959
17398	14.029	2.4545	0.	-4.1442
17399	14.029	2.5455	5.e-002	3.8701e-006
17400	14.306	2.5455	0.	-1.7972
17401	14.214	2.4545	0.	-2.4162
17402	14.214	2.5455	5.e-002	3.4558e-006
17403	14.491	2.5455	0.	-0.20625
17404	14.399	2.4545	0.	-0.7917
17405	14.399	2.5455	5.e-002	4.1248e-006
17406	14.676	2.5455	0.	5.1063e-003
17407	14.583	2.4545	0.	1.7225e-003
17408	14.583	2.5455	5.e-002	4.8044e-006
17409	14.86	2.5455	0.	6.4194e-003
17410	14.768	2.4545	0.	5.4069e-003
17411	14.768	2.5455	5.e-002	5.8521e-006
17412	15.045	2.5455	0.	6.9736e-003
17413	14.953	2.4545	0.	6.3095e-003
17414	14.953	2.5455	5.e-002	4.7346e-006
17415	15.23	2.5455	0.	7.359e-003
17416	15.137	2.4545	0.	6.8212e-003
17417	15.137	2.5455	5.e-002	6.6976e-006
17418	15.414	2.5455	0.	7.6824e-003
17419	15.322	2.4545	0.	7.2056e-003
17420	15.322	2.5455	5.e-002	5.819e-006
17421	15.599	2.5455	0.	7.9799e-003
17422	15.507	2.4545	0.	7.5359e-003
17423	15.507	2.5455	5.e-002	3.8208e-006
17424	15.783	2.5455	0.	8.2668e-003
17425	15.691	2.4545	0.	7.8411e-003
17426	15.691	2.5455	5.e-002	3.727e-006
17427	15.968	2.5455	0.	8.5504e-003
17428	15.876	2.4545	0.	8.1355e-003
17429	15.876	2.5455	5.e-002	3.1599e-006
17430	16.153	2.5455	0.	8.8367e-003
17431	16.06	2.4545	0.	8.4248e-003
17432	16.06	2.5455	5.e-002	3.3753e-006
17433	16.337	2.5455	0.	9.1278e-003
17434	16.245	2.4545	0.	8.7177e-003
17435	16.245	2.5455	5.e-002	3.8311e-006
17436	16.522	2.5455	0.	9.4283e-003
17437	16.43	2.4545	0.	9.0122e-003
17438	16.43	2.5455	5.e-002	4.2904e-006
17439	16.707	2.5455	0.	9.741e-003
17440	16.614	2.4545	0.	9.3225e-003
17441	16.614	2.5455	5.e-002	4.1316e-006
17442	16.891	2.5455	0.	1.0056e-002
17443	16.799	2.4545	0.	9.6398e-003
17444	16.799	2.5455	5.e-002	4.687e-006
17445	17.076	2.5455	0.	1.0385e-002
17446	16.984	2.4545	0.	9.9521e-003
17447	16.984	2.5455	5.e-002	4.5506e-006
17448	17.261	2.5455	0.	1.074e-002
17449	17.168	2.4545	0.	1.0296e-002
17450	17.168	2.5455	5.e-002	2.7326e-006
17451	17.445	2.5455	0.	1.1113e-002
17452	17.353	2.4545	0.	1.0661e-002
17453	17.353	2.5455	5.e-002	3.8889e-006
17454	17.63	2.5455	0.	1.1503e-002
17455	17.538	2.4545	0.	1.1036e-002
17456	17.538	2.5455	5.e-002	4.0836e-006
17457	17.815	2.5455	0.	1.1918e-002
17458	17.722	2.4545	0.	1.1436e-002
17459	17.722	2.5455	5.e-002	3.8221e-006
17460	17.999	2.5455	0.	1.2356e-002
17461	17.907	2.4545	0.	1.186e-002
17462	17.907	2.5455	5.e-002	4.0374e-006
17463	18.184	2.5455	0.	1.2824e-002
17464	18.092	2.4545	0.	1.2307e-002
17465	18.092	2.5455	5.e-002	3.3033e-006
17466	18.368	2.5455	0.	1.3324e-002
17467	18.276	2.4545	0.	1.2787e-002
17468	18.276	2.5455	5.e-002	2.3387e-006
17469	18.553	2.5455	0.	1.3858e-002
17470	18.461	2.4545	0.	1.3299e-002
17471	18.461	2.5455	5.e-002	4.0048e-006
17472	18.738	2.5455	0.	1.4429e-002
17473	18.645	2.4545	0.	1.3846e-002
17474	18.645	2.5455	5.e-002	4.9674e-006
17475	18.922	2.5455	0.	1.5046e-002
17476	18.83	2.4545	0.	1.4433e-002
17477	18.83	2.5455	5.e-002	6.8682e-006
17478	19.107	2.5455	0.	1.5711e-002
17479	19.015	2.4545	0.	1.5069e-002
17480	19.015	2.5455	5.e-002	6.3468e-006
17481	19.292	2.5455	0.	1.6428e-002
17482	19.199	2.4545	0.	1.5753e-002
17483	19.199	2.5455	5.e-002	4.1788e-006
17484	19.476	2.5455	0.	1.7207e-002
17485	19.384	2.4545	0.	1.6493e-002
17486	19.384	2.5455	5.e-002	3.1834e-006
17487	19.661	2.5455	0.	1.8055e-002
17488	19.569	2.4545	0.	1.73e-002
17489	19.569	2.5455	5.e-002	3.1382e-006
17490	19.846	2.5455	0.	1.8979e-002
17491	19.753	2.4545	0.	1.8177e-002
17492	19.753	2.5455	5.e-002	6.4472e-006
17493	20.03	2.5455	0.	1.9991e-002
17494	19.938	2.4545	0.	1.9138e-002
17495	19.938	2.5455	5.e-002	4.0716e-006
17496	20.215	2.5455	0.	2.1103e-002
17497	20.123	2.4545	0.	2.0189e-002
17498	20.123	2.5455	5.e-002	2.2296e-006
17499	20.4	2.5455	0.	2.233e-002
17500	20.307	2.4545	0.	2.1348e-002
17501	20.307	2.5455	5.e-002	5.1065e-006
17502	20.584	2.5455	0.	2.3689e-002
17503	20.492	2.4545	0.	2.2632e-002
17504	20.492	2.5455	5.e-002	2.212e-006
17505	20.769	2.5455	0.	2.5204e-002
17506	20.676	2.4545	0.	2.4058e-002
17507	20.676	2.5455	5.e-002	2.2026e-006
17508	20.953	2.5455	0.	2.6901e-002
17509	20.861	2.4545	0.	2.5651e-002
17510	20.861	2.5455	5.e-002	2.1708e-006
17511	21.138	2.5455	0.	2.8818e-002
17512	21.046	2.4545	0.	2.7447e-002
17513	21.046	2.5455	5.e-002	5.5648e-006
17514	21.323	2.5455	0.	3.0994e-002
17515	21.23	2.4545	0.	2.9479e-002
17516	21.23	2.5455	5.e-002	5.9591e-006
17517	21.507	2.5455	0.	3.349e-002
17518	21.415	2.4545	0.	3.18e-002
17519	21.415	2.5455	5.e-002	9.6874e-006
17520	21.692	2.5455	0.	3.6387e-002
17521	21.6	2.4545	0.	3.4476e-002
17522	21.6	2.5455	5.e-002	9.626e-006
17523	21.877	2.5455	0.	3.9787e-002
17524	21.784	2.4545	0.	3.7606e-002
17525	21.784	2.5455	5.e-002	6.7888e-006
17526	22.061	2.5455	0.	4.3837e-002
17527	21.969	2.4545	0.	4.1299e-002
17528	21.969	2.5455	5.e-002	7.1151e-006
17529	22.246	2.5455	0.	4.8747e-002
17530	22.154	2.4545	0.	4.5741e-002
17531	22.154	2.5455	5.e-002	5.4075e-006
17532	22.431	2.5455	0.	5.4848e-002
17533	22.338	2.4545	0.	5.1177e-002
17534	22.338	2.5455	5.e-002	2.5017e-006
17535	22.615	2.5455	0.	6.2569e-002
17536	22.523	2.4545	0.	5.8039e-002
17537	22.523	2.5455	5.e-002	8.0641e-006
17538	22.8	2.5455	0.	7.2938e-002
17539	22.708	2.4545	0.	6.6778e-002
17540	22.708	2.5455	5.e-002	5.2044e-006
17541	22.984	2.5455	0.	8.6389e-002
17542	22.892	2.4545	0.	7.9058e-002
17543	22.892	2.5455	5.e-002	1.4121e-006
17544	23.169	2.5455	0.	0.10924
17545	23.077	2.4545	0.	9.4226e-002
17546	23.077	2.5455	5.e-002	7.3581e-006
17547	23.354	2.5455	0.	0.13229
17548	23.261	2.4545	0.	0.12594
17549	23.261	2.5455	5.e-002	3.6441e-006
17550	23.538	2.5455	0.	0.22946
17551	23.446	2.4545	0.	0.14345
17552	23.446	2.5455	5.e-002	-1.7792e-007
17553	23.723	2.5455	0.	0.22604
17554	23.631	2.4545	0.	0.33074
17555	23.631	2.5455	5.e-002	-3.9282e-006
17556	23.815	2.4545	0.	0.20446
17557	23.815	2.5455	5.e-002	-2.7174e-007
17558	23.908	2.5455	0.	0.4268
17559	5.4436	2.3636	0.	-15.907
17560	5.3513	2.2727	0.	-10.123
17561	5.3513	2.3636	5.e-002	4.0848e-004
17562	5.6283	2.3636	0.	-2.3291
17563	5.5359	2.2727	0.	16.4
17564	5.5359	2.3636	5.e-002	7.8622e-005
17565	5.8129	2.3636	0.	-41.015
17566	5.7206	2.2727	0.	-0.41762
17567	5.7206	2.3636	5.e-002	9.1409e-006
17568	5.9975	2.3636	0.	-201.21
17569	5.9052	2.2727	0.	-113.55
17570	5.9052	2.3636	5.e-002	2.5765e-005
17571	6.1822	2.3636	0.	-296.23
17572	6.0899	2.2727	0.	-232.26
17573	6.0899	2.3636	5.e-002	4.194e-005
17574	6.3668	2.3636	0.	-348.98
17575	6.2745	2.2727	0.	-301.12
17576	6.2745	2.3636	5.e-002	4.3022e-005
17577	6.5515	2.3636	0.	-373.93
17578	6.4592	2.2727	0.	-337.82
17579	6.4592	2.3636	5.e-002	5.476e-005
17580	6.7361	2.3636	0.	-380.58
17581	6.6438	2.2727	0.	-353.06
17582	6.6438	2.3636	5.e-002	5.3502e-005
17583	6.9208	2.3636	0.	-375.33
17584	6.8284	2.2727	0.	-354.28
17585	6.8284	2.3636	5.e-002	5.5776e-005
17586	7.1054	2.3636	0.	-362.54
17587	7.0131	2.2727	0.	-346.43
17588	7.0131	2.3636	5.e-002	3.6968e-005
17589	7.29	2.3636	0.	-345.18
17590	7.1977	2.2727	0.	-332.92
17591	7.1977	2.3636	5.e-002	2.3812e-005
17592	7.4747	2.3636	0.	-325.29
17593	7.3824	2.2727	0.	-316.05
17594	7.3824	2.3636	5.e-002	3.2252e-005
17595	7.6593	2.3636	0.	-304.22
17596	7.567	2.2727	0.	-297.39
17597	7.567	2.3636	5.e-002	2.844e-005
17598	7.844	2.3636	0.	-282.9
17599	7.7516	2.2727	0.	-277.99
17600	7.7516	2.3636	5.e-002	1.1812e-005
17601	8.0286	2.3636	0.	-261.94
17602	7.9363	2.2727	0.	-258.55
17603	7.9363	2.3636	5.e-002	7.7186e-006
17604	8.2132	2.3636	0.	-241.71
17605	8.1209	2.2727	0.	-239.54
17606	8.1209	2.3636	5.e-002	5.8682e-006
17607	8.3979	2.3636	0.	-222.46
17608	8.3056	2.2727	0.	-221.24
17609	8.3056	2.3636	5.e-002	2.0756e-006
17610	8.5825	2.3636	0.	-204.31
17611	8.4902	2.2727	0.	-203.84
17612	8.4902	2.3636	5.e-002	-5.5581e-007
17613	8.7672	2.3636	0.	-187.31
17614	8.6748	2.2727	0.	-187.43
17615	8.6748	2.3636	5.e-002	-2.7784e-006
17616	8.9518	2.3636	0.	-171.49
17617	8.8595	2.2727	0.	-172.05
17618	8.8595	2.3636	5.e-002	-2.1581e-006
17619	9.1364	2.3636	0.	-156.81
17620	9.0441	2.2727	0.	-157.71
17621	9.0441	2.3636	5.e-002	-3.0679e-006
17622	9.3211	2.3636	0.	-143.24
17623	9.2288	2.2727	0.	-144.37
17624	9.2288	2.3636	5.e-002	-8.6657e-007
17625	9.5057	2.3636	0.	-130.71
17626	9.4134	2.2727	0.	-132.01
17627	9.4134	2.3636	5.e-002	-6.0325e-006
17628	9.6904	2.3636	0.	-119.16
17629	9.598	2.2727	0.	-120.58
17630	9.598	2.3636	5.e-002	-4.0102e-006
17631	9.875	2.3636	0.	-108.54
17632	9.7827	2.2727	0.	-110.02
17633	9.7827	2.3636	5.e-002	-2.9794e-006
17634	10.06	2.3636	0.	-98.759
17635	9.9673	2.2727	0.	-100.27
17636	9.9673	2.3636	5.e-002	-2.8478e-006
17637	10.244	2.3636	0.	-89.769
17638	10.152	2.2727	0.	-91.284
17639	10.152	2.3636	5.e-002	-1.9444e-006
17640	10.429	2.3636	0.	-81.503
17641	10.337	2.2727	0.	-83.
17642	10.337	2.3636	5.e-002	-1.2055e-006
17643	10.614	2.3636	0.	-73.904
17644	10.521	2.2727	0.	-75.366
17645	10.521	2.3636	5.e-002	-9.731e-007
17646	10.798	2.3636	0.	-66.916
17647	10.706	2.2727	0.	-68.332
17648	10.706	2.3636	5.e-002	-6.8503e-007
17649	10.983	2.3636	0.	-60.488
17650	10.891	2.2727	0.	-61.851
17651	10.891	2.3636	5.e-002	-2.7208e-007
17652	11.167	2.3636	0.	-54.573
17653	11.075	2.2727	0.	-55.878
17654	11.075	2.3636	5.e-002	-7.5154e-007
17655	11.352	2.3636	0.	-49.128
17656	11.26	2.2727	0.	-50.371
17657	11.26	2.3636	5.e-002	7.4396e-007
17658	11.537	2.3636	0.	-44.113
17659	11.444	2.2727	0.	-45.293
17660	11.444	2.3636	5.e-002	3.6189e-007
17661	11.721	2.3636	0.	-39.49
17662	11.629	2.2727	0.	-40.608
17663	11.629	2.3636	5.e-002	1.0858e-006
17664	11.906	2.3636	0.	-35.227
17665	11.814	2.2727	0.	-36.284
17666	11.814	2.3636	5.e-002	1.3447e-006
17667	12.091	2.3636	0.	-31.292
17668	11.998	2.2727	0.	-32.29
17669	11.998	2.3636	5.e-002	1.7705e-006
17670	12.275	2.3636	0.	-27.657
17671	12.183	2.2727	0.	-28.598
17672	12.183	2.3636	5.e-002	1.0657e-006
17673	12.46	2.3636	0.	-24.297
17674	12.368	2.2727	0.	-25.184
17675	12.368	2.3636	5.e-002	2.0931e-006
17676	12.645	2.3636	0.	-21.187
17677	12.552	2.2727	0.	-22.023
17678	12.552	2.3636	5.e-002	2.929e-006
17679	12.829	2.3636	0.	-18.306
17680	12.737	2.2727	0.	-19.094
17681	12.737	2.3636	5.e-002	3.7061e-006
17682	13.014	2.3636	0.	-15.634
17683	12.922	2.2727	0.	-16.378
17684	12.922	2.3636	5.e-002	4.1773e-006
17685	13.199	2.3636	0.	-13.151
17686	13.106	2.2727	0.	-13.855
17687	13.106	2.3636	5.e-002	4.4453e-006
17688	13.383	2.3636	0.	-10.842
17689	13.291	2.2727	0.	-11.508
17690	13.291	2.3636	5.e-002	3.5999e-006
17691	13.568	2.3636	0.	-8.6908
17692	13.475	2.2727	0.	-9.3227
17693	13.475	2.3636	5.e-002	4.1108e-006
17694	13.752	2.3636	0.	-6.6822
17695	13.66	2.2727	0.	-7.2835
17696	13.66	2.3636	5.e-002	4.1408e-006
17697	13.937	2.3636	0.	-4.8031
17698	13.845	2.2727	0.	-5.377
17699	13.845	2.3636	5.e-002	4.1239e-006
17700	14.122	2.3636	0.	-3.041
17701	14.029	2.2727	0.	-3.5909
17702	14.029	2.3636	5.e-002	4.0074e-006
17703	14.306	2.3636	0.	-1.3854
17704	14.214	2.2727	0.	-1.9141
17705	14.214	2.3636	5.e-002	3.7245e-006
17706	14.491	2.3636	0.	-1.9489e-002
17707	14.399	2.2727	0.	-0.34841
17708	14.399	2.3636	5.e-002	4.3118e-006
17709	14.676	2.3636	0.	3.7651e-003
17710	14.583	2.2727	0.	8.6e-004
17711	14.583	2.3636	5.e-002	4.8741e-006
17712	14.86	2.3636	0.	5.4292e-003
17713	14.768	2.2727	0.	4.252e-003
17714	14.768	2.3636	5.e-002	6.0889e-006
17715	15.045	2.3636	0.	6.1598e-003
17716	14.953	2.2727	0.	5.3518e-003
17717	14.953	2.3636	5.e-002	4.9537e-006
17718	15.23	2.3636	0.	6.6411e-003
17719	15.137	2.2727	0.	5.979e-003
17720	15.137	2.3636	5.e-002	6.5844e-006
17721	15.414	2.3636	0.	7.0226e-003
17722	15.322	2.2727	0.	6.4335e-003
17723	15.322	2.3636	5.e-002	5.8473e-006
17724	15.599	2.3636	0.	7.3566e-003
17725	15.507	2.2727	0.	6.8067e-003
17726	15.507	2.3636	5.e-002	4.2e-006
17727	15.783	2.3636	0.	7.6672e-003
17728	15.691	2.2727	0.	7.1408e-003
17729	15.691	2.3636	5.e-002	4.0316e-006
17730	15.968	2.3636	0.	7.9661e-003
17731	15.876	2.2727	0.	7.4536e-003
17732	15.876	2.3636	5.e-002	3.5133e-006
17733	16.153	2.3636	0.	8.2611e-003
17734	16.06	2.2727	0.	7.7549e-003
17735	16.06	2.3636	5.e-002	3.5364e-006
17736	16.337	2.3636	0.	8.5567e-003
17737	16.245	2.2727	0.	8.0541e-003
17738	16.245	2.3636	5.e-002	3.9864e-006
17739	16.522	2.3636	0.	8.8603e-003
17740	16.43	2.2727	0.	8.3517e-003
17741	16.43	2.3636	5.e-002	3.962e-006
17742	16.707	2.3636	0.	9.1744e-003
17743	16.614	2.2727	0.	8.6638e-003
17744	16.614	2.3636	5.e-002	4.1532e-006
17745	16.891	2.3636	0.	9.4882e-003
17746	16.799	2.2727	0.	8.9793e-003
17747	16.799	2.3636	5.e-002	4.7065e-006
17748	17.076	2.3636	0.	9.8147e-003
17749	16.984	2.2727	0.	9.2881e-003
17750	16.984	2.3636	5.e-002	3.9448e-006
17751	17.261	2.3636	0.	1.0167e-002
17752	17.168	2.2727	0.	9.6273e-003
17753	17.168	2.3636	5.e-002	2.7231e-006
17754	17.445	2.3636	0.	1.0534e-002
17755	17.353	2.2727	0.	9.9863e-003
17756	17.353	2.3636	5.e-002	4.2146e-006
17757	17.63	2.3636	0.	1.0917e-002
17758	17.538	2.2727	0.	1.0354e-002
17759	17.538	2.3636	5.e-002	3.932e-006
17760	17.815	2.3636	0.	1.1325e-002
17761	17.722	2.2727	0.	1.0746e-002
17762	17.722	2.3636	5.e-002	3.6597e-006
17763	17.999	2.3636	0.	1.1757e-002
17764	17.907	2.2727	0.	1.116e-002
17765	17.907	2.3636	5.e-002	3.8753e-006
17766	18.184	2.3636	0.	1.2215e-002
17767	18.092	2.2727	0.	1.1598e-002
17768	18.092	2.3636	5.e-002	3.3716e-006
17769	18.368	2.3636	0.	1.2705e-002
17770	18.276	2.2727	0.	1.2065e-002
17771	18.276	2.3636	5.e-002	2.4054e-006
17772	18.553	2.3636	0.	1.3228e-002
17773	18.461	2.2727	0.	1.2565e-002
17774	18.461	2.3636	5.e-002	3.3362e-006
17775	18.738	2.3636	0.	1.379e-002
17776	18.645	2.2727	0.	1.3099e-002
17777	18.645	2.3636	5.e-002	4.5473e-006
17778	18.922	2.3636	0.	1.4393e-002
17779	18.83	2.2727	0.	1.3674e-002
17780	18.83	2.3636	5.e-002	6.4598e-006
17781	19.107	2.3636	0.	1.5046e-002
17782	19.015	2.2727	0.	1.4293e-002
17783	19.015	2.3636	5.e-002	5.6898e-006
17784	19.292	2.3636	0.	1.5751e-002
17785	19.199	2.2727	0.	1.4961e-002
17786	19.199	2.3636	5.e-002	3.23e-006
17787	19.476	2.3636	0.	1.6516e-002
17788	19.384	2.2727	0.	1.5686e-002
17789	19.384	2.3636	5.e-002	3.9252e-006
17790	19.661	2.3636	0.	1.7349e-002
17791	19.569	2.2727	0.	1.6475e-002
17792	19.569	2.3636	5.e-002	2.8974e-006
17793	19.846	2.3636	0.	1.8259e-002
17794	19.753	2.2727	0.	1.7334e-002
17795	19.753	2.3636	5.e-002	6.2057e-006
17796	20.03	2.3636	0.	1.9254e-002
17797	19.938	2.2727	0.	1.8274e-002
17798	19.938	2.3636	5.e-002	4.2917e-006
17799	20.215	2.3636	0.	2.0348e-002
17800	20.123	2.2727	0.	1.9306e-002
17801	20.123	2.3636	5.e-002	2.0351e-006
17802	20.4	2.3636	0.	2.1558e-002
17803	20.307	2.2727	0.	2.0444e-002
17804	20.307	2.3636	5.e-002	4.4386e-006
17805	20.584	2.3636	0.	2.2901e-002
17806	20.492	2.2727	0.	2.1706e-002
17807	20.492	2.3636	5.e-002	2.4951e-006
17808	20.769	2.3636	0.	2.4397e-002
17809	20.676	2.2727	0.	2.311e-002
17810	20.676	2.3636	5.e-002	2.9724e-006
17811	20.953	2.3636	0.	2.6079e-002
17812	20.861	2.2727	0.	2.4683e-002
17813	20.861	2.3636	5.e-002	1.4795e-006
17814	21.138	2.3636	0.	2.7978e-002
17815	21.046	2.2727	0.	2.6456e-002
17816	21.046	2.3636	5.e-002	3.9126e-006
17817	21.323	2.3636	0.	3.0138e-002
17818	21.23	2.2727	0.	2.8466e-002
17819	21.23	2.3636	5.e-002	5.7629e-006
17820	21.507	2.3636	0.	3.2618e-002
17821	21.415	2.2727	0.	3.0767e-002
17822	21.415	2.3636	5.e-002	1.0406e-005
17823	21.692	2.3636	0.	3.5499e-002
17824	21.6	2.2727	0.	3.3423e-002
17825	21.6	2.3636	5.e-002	7.4743e-006
17826	21.877	2.3636	0.	3.8885e-002
17827	21.784	2.2727	0.	3.6533e-002
17828	21.784	2.3636	5.e-002	6.5474e-006
17829	22.061	2.3636	0.	4.2918e-002
17830	21.969	2.2727	0.	4.0207e-002
17831	21.969	2.3636	5.e-002	7.0144e-006
17832	22.246	2.3636	0.	4.7809e-002
17833	22.154	2.2727	0.	4.4626e-002
17834	22.154	2.3636	5.e-002	5.2815e-006
17835	22.431	2.3636	0.	5.3888e-002
17836	22.338	2.2727	0.	5.0038e-002
17837	22.338	2.3636	5.e-002	3.3666e-006
17838	22.615	2.3636	0.	6.1577e-002
17839	22.523	2.2727	0.	5.6869e-002
17840	22.523	2.3636	5.e-002	6.9718e-006
17841	22.8	2.3636	0.	7.19e-002
17842	22.708	2.2727	0.	6.556e-002
17843	22.708	2.3636	5.e-002	5.1132e-006
17844	22.984	2.3636	0.	8.5285e-002
17845	22.892	2.2727	0.	7.7774e-002
17846	22.892	2.3636	5.e-002	3.2188e-006
17847	23.169	2.3636	0.	0.10803
17848	23.077	2.2727	0.	9.2848e-002
17849	23.077	2.3636	5.e-002	5.413e-006
17850	23.354	2.3636	0.	0.13093
17851	23.261	2.2727	0.	0.1244
17852	23.261	2.3636	5.e-002	3.6447e-006
17853	23.538	2.3636	0.	0.22772
17854	23.446	2.2727	0.	0.14169
17855	23.446	2.3636	5.e-002	1.7549e-006
17856	23.723	2.3636	0.	0.22322
17857	23.631	2.2727	0.	0.32821
17858	23.631	2.3636	5.e-002	-2.0162e-006
17859	23.815	2.2727	0.	0.19924
17860	23.815	2.3636	5.e-002	1.6072e-006
17861	23.908	2.3636	0.	0.4259
17862	5.4436	2.1818	0.	22.561
17863	5.3513	2.0909	0.	-292.4
17864	5.3513	2.1818	5.e-002	2.9586e-004
17865	5.6283	2.1818	0.	16.761
17866	5.5359	2.0909	0.	67.379
17867	5.5359	2.1818	5.e-002	1.062e-004
17868	5.8129	2.1818	0.	-13.727
17869	5.7206	2.0909	0.	-15.838
17870	5.7206	2.1818	5.e-002	1.4579e-004
17871	5.9975	2.1818	0.	-144.58
17872	5.9052	2.0909	0.	-29.56
17873	5.9052	2.1818	5.e-002	9.5844e-005
17874	6.1822	2.1818	0.	-237.89
17875	6.0899	2.0909	0.	-149.66
17876	6.0899	2.1818	5.e-002	1.2271e-004
17877	6.3668	2.1818	0.	-290.72
17878	6.2745	2.0909	0.	-226.34
17879	6.2745	2.1818	5.e-002	1.2789e-004
17880	6.5515	2.1818	0.	-317.53
17881	6.4592	2.0909	0.	-269.36
17882	6.4592	2.1818	5.e-002	1.1494e-004
17883	6.7361	2.1818	0.	-327.16
17884	6.6438	2.0909	0.	-290.15
17885	6.6438	2.1818	5.e-002	1.1378e-004
17886	6.9208	2.1818	0.	-325.63
17887	6.8284	2.0909	0.	-296.66
17888	6.8284	2.1818	5.e-002	6.8542e-005
17889	7.1054	2.1818	0.	-316.96
17890	7.0131	2.0909	0.	-294.
17891	7.0131	2.1818	5.e-002	9.5519e-005
17892	7.29	2.1818	0.	-303.87
17893	7.1977	2.0909	0.	-285.55
17894	7.1977	2.1818	5.e-002	5.4634e-005
17895	7.4747	2.1818	0.	-288.2
17896	7.3824	2.0909	0.	-273.55
17897	7.3824	2.1818	5.e-002	7.5703e-005
17898	7.6593	2.1818	0.	-271.18
17899	7.567	2.0909	0.	-259.5
17900	7.567	2.1818	5.e-002	3.4315e-005
17901	7.844	2.1818	0.	-253.64
17902	7.7516	2.0909	0.	-244.39
17903	7.7516	2.1818	5.e-002	2.4863e-005
17904	8.0286	2.1818	0.	-236.15
17905	7.9363	2.0909	0.	-228.89
17906	7.9363	2.1818	5.e-002	2.3252e-005
17907	8.2132	2.1818	0.	-219.06
17908	8.1209	2.0909	0.	-213.45
17909	8.1209	2.1818	5.e-002	1.1757e-005
17910	8.3979	2.1818	0.	-202.62
17911	8.3056	2.0909	0.	-198.36
17912	8.3056	2.1818	5.e-002	1.1697e-005
17913	8.5825	2.1818	0.	-186.96
17914	8.4902	2.0909	0.	-183.8
17915	8.4902	2.1818	5.e-002	4.6573e-006
17916	8.7672	2.1818	0.	-172.16
17917	8.6748	2.0909	0.	-169.91
17918	8.6748	2.1818	5.e-002	1.3107e-006
17919	8.9518	2.1818	0.	-158.26
17920	8.8595	2.0909	0.	-156.73
17921	8.8595	2.1818	5.e-002	-2.0741e-006
17922	9.1364	2.1818	0.	-145.26
17923	9.0441	2.0909	0.	-144.32
17924	9.0441	2.1818	5.e-002	-1.7585e-006
17925	9.3211	2.1818	0.	-133.15
17926	9.2288	2.0909	0.	-132.67
17927	9.2288	2.1818	5.e-002	-3.4223e-006
17928	9.5057	2.1818	0.	-121.88
17929	9.4134	2.0909	0.	-121.77
17930	9.4134	2.1818	5.e-002	-1.0343e-006
17931	9.6904	2.1818	0.	-111.43
17932	9.598	2.0909	0.	-111.6
17933	9.598	2.1818	5.e-002	-1.7949e-006
17934	9.875	2.1818	0.	-101.75
17935	9.7827	2.0909	0.	-102.13
17936	9.7827	2.1818	5.e-002	-2.0413e-006
17937	10.06	2.1818	0.	-92.791
17938	9.9673	2.0909	0.	-93.33
17939	9.9673	2.1818	5.e-002	-1.9737e-006
17940	10.244	2.1818	0.	-84.509
17941	10.152	2.0909	0.	-85.163
17942	10.152	2.1818	5.e-002	-6.4167e-007
17943	10.429	2.1818	0.	-76.855
17944	10.337	2.0909	0.	-77.589
17945	10.337	2.1818	5.e-002	-9.3384e-007
17946	10.614	2.1818	0.	-69.786
17947	10.521	2.0909	0.	-70.571
17948	10.521	2.1818	5.e-002	1.1658e-007
17949	10.798	2.1818	0.	-63.258
17950	10.706	2.0909	0.	-64.073
17951	10.706	2.1818	5.e-002	1.1716e-006
17952	10.983	2.1818	0.	-57.231
17953	10.891	2.0909	0.	-58.057
17954	10.891	2.1818	5.e-002	9.1822e-007
17955	11.167	2.1818	0.	-51.665
17956	11.075	2.0909	0.	-52.49
17957	11.075	2.1818	5.e-002	1.0013e-006
17958	11.352	2.1818	0.	-46.525
17959	11.26	2.0909	0.	-47.338
17960	11.26	2.1818	5.e-002	1.3126e-006
17961	11.537	2.1818	0.	-41.776
17962	11.444	2.0909	0.	-42.571
17963	11.444	2.1818	5.e-002	2.3432e-006
17964	11.721	2.1818	0.	-37.388
17965	11.629	2.0909	0.	-38.16
17966	11.629	2.1818	5.e-002	5.8461e-007
17967	11.906	2.1818	0.	-33.332
17968	11.814	2.0909	0.	-34.076
17969	11.814	2.1818	5.e-002	2.2091e-006
17970	12.091	2.1818	0.	-29.581
17971	11.998	2.0909	0.	-30.295
17972	11.998	2.1818	5.e-002	2.8083e-006
17973	12.275	2.1818	0.	-26.108
17974	12.183	2.0909	0.	-26.793
17975	12.183	2.1818	5.e-002	1.6001e-006
17976	12.46	2.1818	0.	-22.893
17977	12.368	2.0909	0.	-23.547
17978	12.368	2.1818	5.e-002	1.8744e-006
17979	12.645	2.1818	0.	-19.912
17980	12.552	2.0909	0.	-20.537
17981	12.552	2.1818	5.e-002	3.6013e-006
17982	12.829	2.1818	0.	-17.147
17983	12.737	2.0909	0.	-17.744
17984	12.737	2.1818	5.e-002	3.9177e-006
17985	13.014	2.1818	0.	-14.579
17986	12.922	2.0909	0.	-15.148
17987	12.922	2.1818	5.e-002	4.3426e-006
17988	13.199	2.1818	0.	-12.191
17989	13.106	2.0909	0.	-12.735
17990	13.106	2.1818	5.e-002	5.2775e-006
17991	13.383	2.1818	0.	-9.9677
17992	13.291	2.0909	0.	-10.487
17993	13.291	2.1818	5.e-002	4.082e-006
17994	13.568	2.1818	0.	-7.8938
17995	13.475	2.0909	0.	-8.3921
17996	13.475	2.1818	5.e-002	4.3133e-006
17997	13.752	2.1818	0.	-5.9561
17998	13.66	2.0909	0.	-6.435
17999	13.66	2.1818	5.e-002	4.2638e-006
18000	13.937	2.1818	0.	-4.142
18001	13.845	2.0909	0.	-4.6039
18002	13.845	2.1818	5.e-002	4.5141e-006
18003	14.122	2.1818	0.	-2.4403
18004	14.029	2.0909	0.	-2.8874
18005	14.029	2.1818	5.e-002	4.4041e-006
18006	14.306	2.1818	0.	-0.84399
18007	14.214	2.0909	0.	-1.2767
18008	14.214	2.1818	5.e-002	3.9487e-006
18009	14.491	2.1818	0.	-5.8731e-003
18010	14.399	2.0909	0.	-2.9707e-002
18011	14.399	2.1818	5.e-002	4.6412e-006
18012	14.676	2.1818	0.	2.6112e-003
18013	14.583	2.0909	0.	3.0581e-004
18014	14.583	2.1818	5.e-002	5.1768e-006
18015	14.86	2.1818	0.	4.3594e-003
18016	14.768	2.0909	0.	3.1513e-003
18017	14.768	2.1818	5.e-002	6.2187e-006
18018	15.045	2.1818	0.	5.2086e-003
18019	14.953	2.0909	0.	4.3179e-003
18020	14.953	2.1818	5.e-002	5.1792e-006
18021	15.23	2.1818	0.	5.7669e-003
18022	15.137	2.0909	0.	5.0151e-003
18023	15.137	2.1818	5.e-002	6.9785e-006
18024	15.414	2.1818	0.	6.1964e-003
18025	15.322	2.0909	0.	5.5185e-003
18026	15.322	2.1818	5.e-002	6.2624e-006
18027	15.599	2.1818	0.	6.5614e-003
18028	15.507	2.0909	0.	5.9245e-003
18029	15.507	2.1818	5.e-002	4.5644e-006
18030	15.783	2.1818	0.	6.893e-003
18031	15.691	2.0909	0.	6.2805e-003
18032	15.691	2.1818	5.e-002	4.5143e-006
18033	15.968	2.1818	0.	7.2052e-003
18034	15.876	2.0909	0.	6.6056e-003
18035	15.876	2.1818	5.e-002	3.8066e-006
18036	16.153	2.1818	0.	7.5084e-003
18037	16.06	2.0909	0.	6.9151e-003
18038	16.06	2.1818	5.e-002	4.0119e-006
18039	16.337	2.1818	0.	7.8078e-003
18040	16.245	2.0909	0.	7.2166e-003
18041	16.245	2.1818	5.e-002	4.4039e-006
18042	16.522	2.1818	0.	8.1124e-003
18043	16.43	2.0909	0.	7.5139e-003
18044	16.43	2.1818	5.e-002	4.3695e-006
18045	16.707	2.1818	0.	8.4244e-003
18046	16.614	2.0909	0.	7.823e-003
18047	16.614	2.1818	5.e-002	4.4147e-006
18048	16.891	2.1818	0.	8.7335e-003
18049	16.799	2.0909	0.	8.133e-003
18050	16.799	2.1818	5.e-002	4.7181e-006
18051	17.076	2.1818	0.	9.0537e-003
18052	16.984	2.0909	0.	8.4349e-003
18053	16.984	2.1818	5.e-002	4.5523e-006
18054	17.261	2.1818	0.	9.3983e-003
18055	17.168	2.0909	0.	8.7651e-003
18056	17.168	2.1818	5.e-002	3.3305e-006
18057	17.445	2.1818	0.	9.7569e-003
18058	17.353	2.0909	0.	9.1134e-003
18059	17.353	2.1818	5.e-002	3.85e-006
18060	17.63	2.1818	0.	1.0132e-002
18061	17.538	2.0909	0.	9.4705e-003
18062	17.538	2.1818	5.e-002	4.2571e-006
18063	17.815	2.1818	0.	1.0528e-002
18064	17.722	2.0909	0.	9.8492e-003
18065	17.722	2.1818	5.e-002	4.4434e-006
18066	17.999	2.1818	0.	1.0947e-002
18067	17.907	2.0909	0.	1.0248e-002
18068	17.907	2.1818	5.e-002	3.6858e-006
18069	18.184	2.1818	0.	1.1392e-002
18070	18.092	2.0909	0.	1.0671e-002
18071	18.092	2.1818	5.e-002	3.2132e-006
18072	18.368	2.1818	0.	1.1868e-002
18073	18.276	2.0909	0.	1.1122e-002
18074	18.276	2.1818	5.e-002	2.2434e-006
18075	18.553	2.1818	0.	1.2376e-002
18076	18.461	2.0909	0.	1.1603e-002
18077	18.461	2.1818	5.e-002	3.9255e-006
18078	18.738	2.1818	0.	1.2922e-002
18079	18.645	2.0909	0.	1.2119e-002
18080	18.645	2.1818	5.e-002	4.6348e-006
18081	18.922	2.1818	0.	1.3509e-002
18082	18.83	2.0909	0.	1.2674e-002
18083	18.83	2.1818	5.e-002	6.54e-006
18084	19.107	2.1818	0.	1.4141e-002
18085	19.015	2.0909	0.	1.3272e-002
18086	19.015	2.1818	5.e-002	6.2758e-006
18087	19.292	2.1818	0.	1.4827e-002
18088	19.199	2.0909	0.	1.3917e-002
18089	19.199	2.1818	5.e-002	3.1116e-006
18090	19.476	2.1818	0.	1.5572e-002
18091	19.384	2.0909	0.	1.4618e-002
18092	19.384	2.1818	5.e-002	3.5208e-006
18093	19.661	2.1818	0.	1.6382e-002
18094	19.569	2.0909	0.	1.5381e-002
18095	19.569	2.1818	5.e-002	3.2097e-006
18096	19.846	2.1818	0.	1.7268e-002
18097	19.753	2.0909	0.	1.6213e-002
18098	19.753	2.1818	5.e-002	6.927e-006
18099	20.03	2.1818	0.	1.824e-002
18100	19.938	2.0909	0.	1.7125e-002
18101	19.938	2.1818	5.e-002	5.0368e-006
18102	20.215	2.1818	0.	1.9311e-002
18103	20.123	2.0909	0.	1.8128e-002
18104	20.123	2.1818	5.e-002	2.7605e-006
18105	20.4	2.1818	0.	2.0494e-002
18106	20.307	2.0909	0.	1.9236e-002
18107	20.307	2.1818	5.e-002	4.2484e-006
18108	20.584	2.1818	0.	2.181e-002
18109	20.492	2.0909	0.	2.0466e-002
18110	20.492	2.1818	5.e-002	2.295e-006
18111	20.769	2.1818	0.	2.3282e-002
18112	20.676	2.0909	0.	2.1838e-002
18113	20.676	2.1818	5.e-002	2.3374e-006
18114	20.953	2.1818	0.	2.4935e-002
18115	20.861	2.0909	0.	2.3379e-002
18116	20.861	2.1818	5.e-002	2.2082e-006
18117	21.138	2.1818	0.	2.6807e-002
18118	21.046	2.0909	0.	2.5118e-002
18119	21.046	2.1818	5.e-002	4.2606e-006
18120	21.323	2.1818	0.	2.8942e-002
18121	21.23	2.0909	0.	2.7096e-002
18122	21.23	2.1818	5.e-002	7.0123e-006
18123	21.507	2.1818	0.	3.1396e-002
18124	21.415	2.0909	0.	2.9364e-002
18125	21.415	2.1818	5.e-002	8.2906e-006
18126	21.692	2.1818	0.	3.4254e-002
18127	21.6	2.0909	0.	3.1988e-002
18128	21.6	2.1818	5.e-002	9.1482e-006
18129	21.877	2.1818	0.	3.7614e-002
18130	21.784	2.0909	0.	3.5067e-002
18131	21.784	2.1818	5.e-002	7.2679e-006
18132	22.061	2.1818	0.	4.1621e-002
18133	21.969	2.0909	0.	3.871e-002
18134	21.969	2.1818	5.e-002	6.9014e-006
18135	22.246	2.1818	0.	4.6483e-002
18136	22.154	2.0909	0.	4.3095e-002
18137	22.154	2.1818	5.e-002	6.2164e-006
18138	22.431	2.1818	0.	5.2529e-002
18139	22.338	2.0909	0.	4.8471e-002
18140	22.338	2.1818	5.e-002	4.3018e-006
18141	22.615	2.1818	0.	6.0174e-002
18142	22.523	2.0909	0.	5.5254e-002
18143	22.523	2.1818	5.e-002	4.8537e-006
18144	22.8	2.1818	0.	7.0432e-002
18145	22.708	2.0909	0.	6.3885e-002
18146	22.708	2.1818	5.e-002	5.9354e-006
18147	22.984	2.1818	0.	8.3725e-002
18148	22.892	2.0909	0.	7.6008e-002
18149	22.892	2.1818	5.e-002	3.0949e-006
18150	23.169	2.1818	0.	0.10633
18151	23.077	2.0909	0.	9.0955e-002
18152	23.077	2.1818	5.e-002	5.3793e-006
18153	23.354	2.1818	0.	0.12902
18154	23.261	2.0909	0.	0.12229
18155	23.261	2.1818	5.e-002	5.5791e-006
18156	23.538	2.1818	0.	0.22528
18157	23.446	2.0909	0.	0.13929
18158	23.446	2.1818	5.e-002	1.8293e-006
18159	23.723	2.1818	0.	0.21929
18160	23.631	2.0909	0.	0.32478
18161	23.631	2.1818	5.e-002	-3.8334e-006
18162	23.815	2.0909	0.	0.19227
18163	23.815	2.1818	5.e-002	-2.6301e-007
18164	23.908	2.1818	0.	0.42462
18165	5.4436	2.	0.	-296.3
18166	5.3513	1.9091	0.	-432.74
18167	5.3513	2.	5.e-002	1.0973e-003
18168	5.259	2.	0.	-536.29
18169	5.6283	2.	0.	35.288
18170	5.5359	1.9091	0.	50.938
18171	5.5359	2.	5.e-002	2.4525e-004
18172	5.8129	2.	0.	-12.806
18173	5.7206	1.9091	0.	-14.89
18174	5.7206	2.	5.e-002	3.1094e-004
18175	5.9975	2.	0.	-39.211
18176	5.9052	1.9091	0.	-6.2293
18177	5.9052	2.	5.e-002	2.9899e-004
18178	6.1822	2.	0.	-140.91
18179	6.0899	1.9091	0.	-42.116
18180	6.0899	2.	5.e-002	2.0357e-004
18181	6.3668	2.	0.	-206.83
18182	6.2745	1.9091	0.	-128.25
18183	6.2745	2.	5.e-002	1.7263e-004
18184	6.5515	2.	0.	-243.18
18185	6.4592	1.9091	0.	-184.4
18186	6.4592	2.	5.e-002	2.0146e-004
18187	6.7361	2.	0.	-260.39
18188	6.6438	1.9091	0.	-215.13
18189	6.6438	2.	5.e-002	1.78e-004
18190	6.9208	2.	0.	-265.47
18191	6.8284	1.9091	0.	-229.7
18192	6.8284	2.	5.e-002	1.5329e-004
18193	7.1054	2.	0.	-262.84
18194	7.0131	1.9091	0.	-234.02
18195	7.0131	2.	5.e-002	1.2834e-004
18196	7.29	2.	0.	-255.36
18197	7.1977	1.9091	0.	-231.87
18198	7.1977	2.	5.e-002	7.59e-005
18199	7.4747	2.	0.	-244.92
18200	7.3824	1.9091	0.	-225.65
18201	7.3824	2.	5.e-002	4.6036e-005
18202	7.6593	2.	0.	-232.75
18203	7.567	1.9091	0.	-216.91
18204	7.567	2.	5.e-002	6.2252e-005
18205	7.844	2.	0.	-219.66
18206	7.7516	1.9091	0.	-206.67
18207	7.7516	2.	5.e-002	3.7824e-005
18208	8.0286	2.	0.	-206.2
18209	7.9363	1.9091	0.	-195.58
18210	7.9363	2.	5.e-002	3.0937e-005
18211	8.2132	2.	0.	-192.74
18212	8.1209	1.9091	0.	-184.12
18213	8.1209	2.	5.e-002	2.5862e-005
18214	8.3979	2.	0.	-179.54
18215	8.3056	1.9091	0.	-172.59
18216	8.3056	2.	5.e-002	2.0044e-005
18217	8.5825	2.	0.	-166.75
18218	8.4902	1.9091	0.	-161.2
18219	8.4902	2.	5.e-002	1.1597e-005
18220	8.7672	2.	0.	-154.47
18221	8.6748	1.9091	0.	-150.09
18222	8.6748	2.	5.e-002	1.1029e-005
18223	8.9518	2.	0.	-142.79
18224	8.8595	1.9091	0.	-139.37
18225	8.8595	2.	5.e-002	5.4989e-006
18226	9.1364	2.	0.	-131.72
18227	9.0441	1.9091	0.	-129.1
18228	9.0441	2.	5.e-002	-6.8472e-007
18229	9.3211	2.	0.	-121.28
18230	9.2288	1.9091	0.	-119.32
18231	9.2288	2.	5.e-002	3.1287e-006
18232	9.5057	2.	0.	-111.48
18233	9.4134	1.9091	0.	-110.04
18234	9.4134	2.	5.e-002	1.7482e-006
18235	9.6904	2.	0.	-102.29
18236	9.598	1.9091	0.	-101.29
18237	9.598	2.	5.e-002	5.2436e-007
18238	9.875	2.	0.	-93.704
18239	9.7827	1.9091	0.	-93.05
18240	9.7827	2.	5.e-002	-1.5316e-006
18241	10.06	2.	0.	-85.696
18242	9.9673	1.9091	0.	-85.316
18243	9.9673	2.	5.e-002	4.2092e-007
18244	10.244	2.	0.	-78.236
18245	10.152	1.9091	0.	-78.073
18246	10.152	2.	5.e-002	7.0742e-007
18247	10.429	2.	0.	-71.297
18248	10.337	1.9091	0.	-71.302
18249	10.337	2.	5.e-002	-3.022e-007
18250	10.614	2.	0.	-64.849
18251	10.521	1.9091	0.	-64.983
18252	10.521	2.	5.e-002	2.1459e-006
18253	10.798	2.	0.	-58.862
18254	10.706	1.9091	0.	-59.093
18255	10.706	2.	5.e-002	1.3737e-006
18256	10.983	2.	0.	-53.305
18257	10.891	1.9091	0.	-53.609
18258	10.891	2.	5.e-002	2.1497e-006
18259	11.167	2.	0.	-48.151
18260	11.075	1.9091	0.	-48.506
18261	11.075	2.	5.e-002	1.4204e-006
18262	11.352	2.	0.	-43.372
18263	11.26	1.9091	0.	-43.762
18264	11.26	2.	5.e-002	1.7199e-006
18265	11.537	2.	0.	-38.941
18266	11.444	1.9091	0.	-39.354
18267	11.444	2.	5.e-002	2.3686e-006
18268	11.721	2.	0.	-34.833
18269	11.629	1.9091	0.	-35.259
18270	11.629	2.	5.e-002	1.9314e-006
18271	11.906	2.	0.	-31.024
18272	11.814	1.9091	0.	-31.456
18273	11.814	2.	5.e-002	3.0004e-006
18274	12.091	2.	0.	-27.492
18275	11.998	1.9091	0.	-27.924
18276	11.998	2.	5.e-002	2.1803e-006
18277	12.275	2.	0.	-24.215
18278	12.183	1.9091	0.	-24.643
18279	12.183	2.	5.e-002	1.8517e-006
18280	12.46	2.	0.	-21.174
18281	12.368	1.9091	0.	-21.594
18282	12.368	2.	5.e-002	1.8989e-006
18283	12.645	2.	0.	-18.35
18284	12.552	1.9091	0.	-18.761
18285	12.552	2.	5.e-002	3.0768e-006
18286	12.829	2.	0.	-15.725
18287	12.737	1.9091	0.	-16.126
18288	12.737	2.	5.e-002	3.8256e-006
18289	13.014	2.	0.	-13.284
18290	12.922	1.9091	0.	-13.674
18291	12.922	2.	5.e-002	4.0023e-006
18292	13.199	2.	0.	-11.011
18293	13.106	1.9091	0.	-11.391
18294	13.106	2.	5.e-002	4.9283e-006
18295	13.383	2.	0.	-8.8908
18296	13.291	1.9091	0.	-9.261
18297	13.291	2.	5.e-002	4.0683e-006
18298	13.568	2.	0.	-6.9116
18299	13.475	1.9091	0.	-7.2727
18300	13.475	2.	5.e-002	4.0784e-006
18301	13.752	2.	0.	-5.0605
18302	13.66	1.9091	0.	-5.4136
18303	13.66	2.	5.e-002	4.3188e-006
18304	13.937	2.	0.	-3.3261
18305	13.845	1.9091	0.	-3.6724
18306	13.845	2.	5.e-002	4.4246e-006
18307	14.122	2.	0.	-1.6992
18308	14.029	1.9091	0.	-2.0397
18309	14.029	2.	5.e-002	4.1209e-006
18310	14.306	2.	0.	-0.21168
18311	14.214	1.9091	0.	-0.52001
18312	14.214	2.	5.e-002	3.5654e-006
18313	14.491	2.	0.	-3.2196e-003
18314	14.399	1.9091	0.	-8.5961e-003
18315	14.399	2.	5.e-002	4.3089e-006
18316	14.676	2.	0.	1.6685e-003
18317	14.583	1.9091	0.	-1.0428e-004
18318	14.583	2.	5.e-002	5.028e-006
18319	14.86	2.	0.	3.3007e-003
18320	14.768	1.9091	0.	2.1578e-003
18321	14.768	2.	5.e-002	5.951e-006
18322	15.045	2.	0.	4.1841e-003
18323	14.953	1.9091	0.	3.2726e-003
18324	14.953	2.	5.e-002	4.9946e-006
18325	15.23	2.	0.	4.7807e-003
18326	15.137	1.9091	0.	3.9807e-003
18327	15.137	2.	5.e-002	6.6482e-006
18328	15.414	2.	0.	5.2398e-003
18329	15.322	1.9091	0.	4.5008e-003
18330	15.322	2.	5.e-002	5.9982e-006
18331	15.599	2.	0.	5.6254e-003
18332	15.507	1.9091	0.	4.9203e-003
18333	15.507	2.	5.e-002	4.2061e-006
18334	15.783	2.	0.	5.9679e-003
18335	15.691	1.9091	0.	5.2827e-003
18336	15.691	2.	5.e-002	4.1079e-006
18337	15.968	2.	0.	6.2855e-003
18338	15.876	1.9091	0.	5.6111e-003
18339	15.876	2.	5.e-002	3.3994e-006
18340	16.153	2.	0.	6.5898e-003
18341	16.06	1.9091	0.	5.919e-003
18342	16.06	2.	5.e-002	3.6513e-006
18343	16.337	2.	0.	6.8864e-003
18344	16.245	1.9091	0.	6.2154e-003
18345	16.245	2.	5.e-002	3.8478e-006
18346	16.522	2.	0.	7.1857e-003
18347	16.43	1.9091	0.	6.506e-003
18348	16.43	2.	5.e-002	3.9262e-006
18349	16.707	2.	0.	7.4906e-003
18350	16.614	1.9091	0.	6.8049e-003
18351	16.614	2.	5.e-002	3.63e-006
18352	16.891	2.	0.	7.7915e-003
18353	16.799	1.9091	0.	7.1038e-003
18354	16.799	2.	5.e-002	4.3912e-006
18355	17.076	2.	0.	8.1015e-003
18356	16.984	1.9091	0.	7.3924e-003
18357	16.984	2.	5.e-002	4.1093e-006
18358	17.261	2.	0.	8.4335e-003
18359	17.168	1.9091	0.	7.7076e-003
18360	17.168	2.	5.e-002	2.5059e-006
18361	17.445	2.	0.	8.7784e-003
18362	17.353	1.9091	0.	8.0409e-003
18363	17.353	2.	5.e-002	3.0285e-006
18364	17.63	2.	0.	9.1377e-003
18365	17.538	1.9091	0.	8.3795e-003
18366	17.538	2.	5.e-002	3.8764e-006
18367	17.815	2.	0.	9.5169e-003
18368	17.722	1.9091	0.	8.7382e-003
18369	17.722	2.	5.e-002	3.3561e-006
18370	17.999	2.	0.	9.9175e-003
18371	17.907	1.9091	0.	9.1163e-003
18372	17.907	2.	5.e-002	3.0931e-006
18373	18.184	2.	0.	1.0344e-002
18374	18.092	1.9091	0.	9.5176e-003
18375	18.092	2.	5.e-002	2.8283e-006
18376	18.368	2.	0.	1.0799e-002
18377	18.276	1.9091	0.	9.9454e-003
18378	18.276	2.	5.e-002	1.5834e-006
18379	18.553	2.	0.	1.1285e-002
18380	18.461	1.9091	0.	1.04e-002
18381	18.461	2.	5.e-002	2.5691e-006
18382	18.738	2.	0.	1.1807e-002
18383	18.645	1.9091	0.	1.089e-002
18384	18.645	2.	5.e-002	3.5495e-006
18385	18.922	2.	0.	1.2369e-002
18386	18.83	1.9091	0.	1.1417e-002
18387	18.83	2.	5.e-002	5.214e-006
18388	19.107	2.	0.	1.2977e-002
18389	19.015	1.9091	0.	1.1985e-002
18390	19.015	2.	5.e-002	4.6744e-006
18391	19.292	2.	0.	1.3635e-002
18392	19.199	1.9091	0.	1.2599e-002
18393	19.199	2.	5.e-002	2.4785e-006
18394	19.476	2.	0.	1.435e-002
18395	19.384	1.9091	0.	1.3265e-002
18396	19.384	2.	5.e-002	2.8536e-006
18397	19.661	2.	0.	1.5131e-002
18398	19.569	1.9091	0.	1.3993e-002
18399	19.569	2.	5.e-002	2.5383e-006
18400	19.846	2.	0.	1.5983e-002
18401	19.753	1.9091	0.	1.4787e-002
18402	19.753	2.	5.e-002	4.9076e-006
18403	20.03	2.	0.	1.6921e-002
18404	19.938	1.9091	0.	1.5659e-002
18405	19.938	2.	5.e-002	3.4861e-006
18406	20.215	2.	0.	1.7956e-002
18407	20.123	1.9091	0.	1.6622e-002
18408	20.123	2.	5.e-002	1.2787e-006
18409	20.4	2.	0.	1.9104e-002
18410	20.307	1.9091	0.	1.7687e-002
18411	20.307	2.	5.e-002	4.1377e-006
18412	20.584	2.	0.	2.0382e-002
18413	20.492	1.9091	0.	1.8871e-002
18414	20.492	2.	5.e-002	2.177e-006
18415	20.769	2.	0.	2.1813e-002
18416	20.676	1.9091	0.	2.0198e-002
18417	20.676	2.	5.e-002	2.2037e-006
18418	20.953	2.	0.	2.3428e-002
18419	20.861	1.9091	0.	2.169e-002
18420	20.861	2.	5.e-002	1.1544e-006
18421	21.138	2.	0.	2.526e-002
18422	21.046	1.9091	0.	2.338e-002
18423	21.046	2.	5.e-002	3.0696e-006
18424	21.323	2.	0.	2.7355e-002
18425	21.23	1.9091	0.	2.531e-002
18426	21.23	2.	5.e-002	4.9608e-006
18427	21.507	2.	0.	2.977e-002
18428	21.415	1.9091	0.	2.7528e-002
18429	21.415	2.	5.e-002	9.9494e-006
18430	21.692	2.	0.	3.2587e-002
18431	21.6	1.9091	0.	3.0102e-002
18432	21.6	2.	5.e-002	7.0413e-006
18433	21.877	2.	0.	3.591e-002
18434	21.784	1.9091	0.	3.3133e-002
18435	21.784	2.	5.e-002	6.0559e-006
18436	22.061	2.	0.	3.9877e-002
18437	21.969	1.9091	0.	3.6723e-002
18438	21.969	2.	5.e-002	5.824e-006
18439	22.246	2.	0.	4.4698e-002
18440	22.154	1.9091	0.	4.106e-002
18441	22.154	2.	5.e-002	5.357e-006
18442	22.431	2.	0.	5.0693e-002
18443	22.338	1.9091	0.	4.6381e-002
18444	22.338	2.	5.e-002	3.3373e-006
18445	22.615	2.	0.	5.8275e-002
18446	22.523	1.9091	0.	5.3097e-002
18447	22.523	2.	5.e-002	5.7786e-006
18448	22.8	2.	0.	6.8449e-002
18449	22.708	1.9091	0.	6.1648e-002
18450	22.708	2.	5.e-002	4.962e-006
18451	22.984	2.	0.	8.1622e-002
18452	22.892	1.9091	0.	7.3654e-002
18453	22.892	2.	5.e-002	3.9986e-006
18454	23.169	2.	0.	0.10403
18455	23.077	1.9091	0.	8.8436e-002
18456	23.077	2.	5.e-002	5.4137e-006
18457	23.354	2.	0.	0.12646
18458	23.261	1.9091	0.	0.1195
18459	23.261	2.	5.e-002	3.8178e-006
18460	23.538	2.	0.	0.22202
18461	23.446	1.9091	0.	0.13611
18462	23.446	2.	5.e-002	1.779e-008
18463	23.723	2.	0.	0.21411
18464	23.631	1.9091	0.	0.32027
18465	23.631	2.	5.e-002	-5.5907e-006
18466	23.815	1.9091	0.	0.18334
18467	23.815	2.	5.e-002	-2.0498e-006
18468	23.908	2.	0.	0.42289
18469	5.4436	1.8182	0.	-83.984
18470	5.3513	1.7273	0.	-83.032
18471	5.3513	1.8182	5.e-002	1.5343e-003
18472	5.259	1.8182	0.	-362.3
18473	5.6283	1.8182	0.	0.51177
18474	5.5359	1.7273	0.	7.2304
18475	5.5359	1.8182	5.e-002	1.0925e-003
18476	5.8129	1.8182	0.	-7.569
18477	5.7206	1.7273	0.	-11.411
18478	5.7206	1.8182	5.e-002	6.5281e-004
18479	5.9975	1.8182	0.	-8.652
18480	5.9052	1.7273	0.	-4.5438
18481	5.9052	1.8182	5.e-002	5.3977e-004
18482	6.1822	1.8182	0.	-35.764
18483	6.0899	1.7273	0.	-9.0622
18484	6.0899	1.8182	5.e-002	3.8978e-004
18485	6.3668	1.8182	0.	-108.82
18486	6.2745	1.7273	0.	-34.453
18487	6.2745	1.8182	5.e-002	3.7725e-004
18488	6.5515	1.8182	0.	-158.13
18489	6.4592	1.7273	0.	-94.621
18490	6.4592	1.8182	5.e-002	2.8365e-004
18491	6.7361	1.8182	0.	-185.49
18492	6.6438	1.7273	0.	-135.43
18493	6.6438	1.8182	5.e-002	2.8393e-004
18494	6.9208	1.8182	0.	-198.85
18495	6.8284	1.7273	0.	-158.66
18496	6.8284	1.8182	5.e-002	1.5462e-004
18497	7.1054	1.8182	0.	-203.39
18498	7.0131	1.7273	0.	-170.51
18499	7.0131	1.8182	5.e-002	1.1281e-004
18500	7.29	1.8182	0.	-202.34
18501	7.1977	1.7273	0.	-175.09
18502	7.1977	1.8182	5.e-002	1.3708e-004
18503	7.4747	1.8182	0.	-197.73
18504	7.3824	1.7273	0.	-175.
18505	7.3824	1.8182	5.e-002	1.2788e-004
18506	7.6593	1.8182	0.	-190.87
18507	7.567	1.7273	0.	-171.85
18508	7.567	1.8182	5.e-002	5.9081e-005
18509	7.844	1.8182	0.	-182.61
18510	7.7516	1.7273	0.	-166.69
18511	7.7516	1.8182	5.e-002	7.4319e-005
18512	8.0286	1.8182	0.	-173.51
18513	7.9363	1.7273	0.	-160.22
18514	7.9363	1.8182	5.e-002	5.2623e-005
18515	8.2132	1.8182	0.	-163.96
18516	8.1209	1.7273	0.	-152.91
18517	8.1209	1.8182	5.e-002	3.2911e-005
18518	8.3979	1.8182	0.	-154.24
18519	8.3056	1.7273	0.	-145.09
18520	8.3056	1.8182	5.e-002	2.6166e-005
18521	8.5825	1.8182	0.	-144.53
18522	8.4902	1.7273	0.	-137.
18523	8.4902	1.8182	5.e-002	1.8579e-005
18524	8.7672	1.8182	0.	-134.98
18525	8.6748	1.7273	0.	-128.81
18526	8.6748	1.8182	5.e-002	1.3095e-005
18527	8.9518	1.8182	0.	-125.68
18528	8.8595	1.7273	0.	-120.66
18529	8.8595	1.8182	5.e-002	7.8742e-006
18530	9.1364	1.8182	0.	-116.69
18531	9.0441	1.7273	0.	-112.64
18532	9.0441	1.8182	5.e-002	3.3314e-006
18533	9.3211	1.8182	0.	-108.08
18534	9.2288	1.7273	0.	-104.82
18535	9.2288	1.8182	5.e-002	1.2813e-006
18536	9.5057	1.8182	0.	-99.853
18537	9.4134	1.7273	0.	-97.267
18538	9.4134	1.8182	5.e-002	4.2661e-006
18539	9.6904	1.8182	0.	-92.044
18540	9.598	1.7273	0.	-90.008
18541	9.598	1.8182	5.e-002	2.7898e-006
18542	9.875	1.8182	0.	-84.655
18543	9.7827	1.7273	0.	-83.071
18544	9.7827	1.8182	5.e-002	7.8378e-007
18545	10.06	1.8182	0.	-77.686
18546	9.9673	1.7273	0.	-76.472
18547	9.9673	1.8182	5.e-002	7.1346e-007
18548	10.244	1.8182	0.	-71.131
18549	10.152	1.7273	0.	-70.218
18550	10.152	1.8182	5.e-002	1.7745e-006
18551	10.429	1.8182	0.	-64.979
18552	10.337	1.7273	0.	-64.309
18553	10.337	1.8182	5.e-002	2.9939e-006
18554	10.614	1.8182	0.	-59.218
18555	10.521	1.7273	0.	-58.743
18556	10.521	1.8182	5.e-002	2.1926e-006
18557	10.798	1.8182	0.	-53.83
18558	10.706	1.7273	0.	-53.512
18559	10.706	1.8182	5.e-002	2.5492e-006
18560	10.983	1.8182	0.	-48.799
18561	10.891	1.7273	0.	-48.606
18562	10.891	1.8182	5.e-002	2.415e-006
18563	11.167	1.8182	0.	-44.106
18564	11.075	1.7273	0.	-44.011
18565	11.075	1.8182	5.e-002	1.7558e-006
18566	11.352	1.8182	0.	-39.732
18567	11.26	1.7273	0.	-39.715
18568	11.26	1.8182	5.e-002	1.6328e-006
18569	11.537	1.8182	0.	-35.659
18570	11.444	1.7273	0.	-35.702
18571	11.444	1.8182	5.e-002	2.15e-006
18572	11.721	1.8182	0.	-31.867
18573	11.629	1.7273	0.	-31.957
18574	11.629	1.8182	5.e-002	2.1134e-006
18575	11.906	1.8182	0.	-28.34
18576	11.814	1.7273	0.	-28.465
18577	11.814	1.8182	5.e-002	2.7764e-006
18578	12.091	1.8182	0.	-25.058
18579	11.998	1.7273	0.	-25.209
18580	11.998	1.8182	5.e-002	2.6642e-006
18581	12.275	1.8182	0.	-22.004
18582	12.183	1.7273	0.	-22.176
18583	12.183	1.8182	5.e-002	1.3098e-006
18584	12.46	1.8182	0.	-19.163
18585	12.368	1.7273	0.	-19.35
18586	12.368	1.8182	5.e-002	1.7405e-006
18587	12.645	1.8182	0.	-16.519
18588	12.552	1.7273	0.	-16.716
18589	12.552	1.8182	5.e-002	3.2074e-006
18590	12.829	1.8182	0.	-14.056
18591	12.737	1.7273	0.	-14.261
18592	12.737	1.8182	5.e-002	3.5781e-006
18593	13.014	1.8182	0.	-11.761
18594	12.922	1.7273	0.	-11.972
18595	12.922	1.8182	5.e-002	4.1485e-006
18596	13.199	1.8182	0.	-9.6206
18597	13.106	1.7273	0.	-9.8359
18598	13.106	1.8182	5.e-002	4.6012e-006
18599	13.383	1.8182	0.	-7.6217
18600	13.291	1.7273	0.	-7.8405
18601	13.291	1.8182	5.e-002	3.8064e-006
18602	13.568	1.8182	0.	-5.7528
18603	13.475	1.7273	0.	-5.9747
18604	13.475	1.8182	5.e-002	3.8772e-006
18605	13.752	1.8182	0.	-4.0029
18606	13.66	1.7273	0.	-4.2279
18607	13.66	1.8182	5.e-002	3.7047e-006
18608	13.937	1.8182	0.	-2.3625
18609	13.845	1.7273	0.	-2.5907
18610	13.845	1.8182	5.e-002	3.9493e-006
18611	14.122	1.8182	0.	-0.82945
18612	14.029	1.7273	0.	-1.059
18613	14.029	1.8182	5.e-002	3.7912e-006
18614	14.306	1.8182	0.	-1.8156e-002
18615	14.214	1.7273	0.	-3.4196e-002
18616	14.214	1.8182	5.e-002	3.3059e-006
18617	14.491	1.8182	0.	-2.2468e-003
18618	14.399	1.7273	0.	-4.6459e-003
18619	14.399	1.8182	5.e-002	3.941e-006
18620	14.676	1.8182	0.	8.9407e-004
18621	14.583	1.7273	0.	-4.483e-004
18622	14.583	1.8182	5.e-002	4.519e-006
18623	14.86	1.8182	0.	2.2982e-003
18624	14.768	1.7273	0.	1.2764e-003
18625	14.768	1.8182	5.e-002	5.7922e-006
18626	15.045	1.8182	0.	3.1379e-003
18627	14.953	1.7273	0.	2.2566e-003
18628	14.953	1.8182	5.e-002	4.5971e-006
18629	15.23	1.8182	0.	3.7277e-003
18630	15.137	1.7273	0.	2.9195e-003
18631	15.137	1.8182	5.e-002	6.3705e-006
18632	15.414	1.8182	0.	4.1866e-003
18633	15.322	1.7273	0.	3.4178e-003
18634	15.322	1.8182	5.e-002	5.5447e-006
18635	15.599	1.8182	0.	4.5701e-003
18636	15.507	1.7273	0.	3.8239e-003
18637	15.507	1.8182	5.e-002	4.0376e-006
18638	15.783	1.8182	0.	4.9099e-003
18639	15.691	1.7273	0.	4.1738e-003
18640	15.691	1.8182	5.e-002	3.4803e-006
18641	15.968	1.8182	0.	5.2224e-003
18642	15.876	1.7273	0.	4.49e-003
18643	15.876	1.8182	5.e-002	3.2453e-006
18644	16.153	1.8182	0.	5.5178e-003
18645	16.06	1.7273	0.	4.7831e-003
18646	16.06	1.8182	5.e-002	3.1717e-006
18647	16.337	1.8182	0.	5.8044e-003
18648	16.245	1.7273	0.	5.0648e-003
18649	16.245	1.8182	5.e-002	3.5293e-006
18650	16.522	1.8182	0.	6.0913e-003
18651	16.43	1.7273	0.	5.3377e-003
18652	16.43	1.8182	5.e-002	3.6549e-006
18653	16.707	1.8182	0.	6.3812e-003
18654	16.614	1.7273	0.	5.618e-003
18655	16.614	1.8182	5.e-002	3.3186e-006
18656	16.891	1.8182	0.	6.6651e-003
18657	16.799	1.7273	0.	5.8965e-003
18658	16.799	1.8182	5.e-002	3.9241e-006
18659	17.076	1.8182	0.	6.9564e-003
18660	16.984	1.7273	0.	6.1634e-003
18661	16.984	1.8182	5.e-002	3.2085e-006
18662	17.261	1.8182	0.	7.2703e-003
18663	17.168	1.7273	0.	6.4555e-003
18664	17.168	1.8182	5.e-002	1.8272e-006
18665	17.445	1.8182	0.	7.5949e-003
18666	17.353	1.7273	0.	6.7645e-003
18667	17.353	1.8182	5.e-002	2.7754e-006
18668	17.63	1.8182	0.	7.9305e-003
18669	17.538	1.7273	0.	7.0767e-003
18670	17.538	1.8182	5.e-002	3.0578e-006
18671	17.815	1.8182	0.	8.2855e-003
18672	17.722	1.7273	0.	7.4077e-003
18673	17.722	1.8182	5.e-002	2.7623e-006
18674	17.999	1.8182	0.	8.6616e-003
18675	17.907	1.7273	0.	7.7561e-003
18676	17.907	1.8182	5.e-002	2.024e-006
18677	18.184	1.8182	0.	9.0612e-003
18678	18.092	1.7273	0.	8.1268e-003
18679	18.092	1.8182	5.e-002	1.9885e-006
18680	18.368	1.8182	0.	9.4864e-003
18681	18.276	1.7273	0.	8.521e-003
18682	18.276	1.8182	5.e-002	7.8142e-007
18683	18.553	1.8182	0.	9.9424e-003
18684	18.461	1.7273	0.	8.943e-003
18685	18.461	1.8182	5.e-002	1.9808e-006
18686	18.738	1.8182	0.	1.0433e-002
18687	18.645	1.7273	0.	9.3952e-003
18688	18.645	1.8182	5.e-002	2.9309e-006
18689	18.922	1.8182	0.	1.0962e-002
18690	18.83	1.7273	0.	9.8832e-003
18691	18.83	1.8182	5.e-002	4.6428e-006
18692	19.107	1.8182	0.	1.1532e-002
18693	19.015	1.7273	0.	1.041e-002
18694	19.015	1.8182	5.e-002	4.3221e-006
18695	19.292	1.8182	0.	1.2151e-002
18696	19.199	1.7273	0.	1.098e-002
18697	19.199	1.8182	5.e-002	2.0848e-006
18698	19.476	1.8182	0.	1.2826e-002
18699	19.384	1.7273	0.	1.16e-002
18700	19.384	1.8182	5.e-002	1.7774e-006
18701	19.661	1.8182	0.	1.3563e-002
18702	19.569	1.7273	0.	1.2279e-002
18703	19.569	1.8182	5.e-002	1.9442e-006
18704	19.846	1.8182	0.	1.4371e-002
18705	19.753	1.7273	0.	1.3022e-002
18706	19.753	1.8182	5.e-002	4.7542e-006
18707	20.03	1.8182	0.	1.5262e-002
18708	19.938	1.7273	0.	1.384e-002
18709	19.938	1.8182	5.e-002	2.8165e-006
18710	20.215	1.8182	0.	1.6248e-002
18711	20.123	1.7273	0.	1.4746e-002
18712	20.123	1.8182	5.e-002	1.6453e-006
18713	20.4	1.8182	0.	1.7342e-002
18714	20.307	1.7273	0.	1.575e-002
18715	20.307	1.8182	5.e-002	3.008e-006
18716	20.584	1.8182	0.	1.8566e-002
18717	20.492	1.7273	0.	1.6872e-002
18718	20.492	1.8182	5.e-002	1.1912e-006
18719	20.769	1.8182	0.	1.9942e-002
18720	20.676	1.7273	0.	1.8133e-002
18721	20.676	1.8182	5.e-002	5.8908e-007
18722	20.953	1.8182	0.	2.1497e-002
18723	20.861	1.7273	0.	1.9556e-002
18724	20.861	1.8182	5.e-002	5.4312e-007
18725	21.138	1.8182	0.	2.3269e-002
18726	21.046	1.7273	0.	2.1175e-002
18727	21.046	1.8182	5.e-002	2.496e-006
18728	21.323	1.8182	0.	2.5304e-002
18729	21.23	1.7273	0.	2.3032e-002
18730	21.23	1.8182	5.e-002	4.1771e-006
18731	21.507	1.8182	0.	2.7659e-002
18732	21.415	1.7273	0.	2.5174e-002
18733	21.415	1.8182	5.e-002	7.3533e-006
18734	21.692	1.8182	0.	3.0416e-002
18735	21.6	1.7273	0.	2.7673e-002
18736	21.6	1.8182	5.e-002	6.8753e-006
18737	21.877	1.8182	0.	3.3675e-002
18738	21.784	1.7273	0.	3.0627e-002
18739	21.784	1.8182	5.e-002	2.1451e-006
18740	22.061	1.8182	0.	3.7582e-002
18741	21.969	1.7273	0.	3.414e-002
18742	21.969	1.8182	5.e-002	4.1361e-006
18743	22.246	1.8182	0.	4.234e-002
18744	22.154	1.7273	0.	3.8397e-002
18745	22.154	1.8182	5.e-002	4.4501e-006
18746	22.431	1.8182	0.	4.8263e-002
18747	22.338	1.7273	0.	4.3634e-002
18748	22.338	1.8182	5.e-002	2.3378e-006
18749	22.615	1.8182	0.	5.5761e-002
18750	22.523	1.7273	0.	5.0259e-002
18751	22.523	1.8182	5.e-002	3.0525e-006
18752	22.8	1.8182	0.	6.5824e-002
18753	22.708	1.7273	0.	5.8695e-002
18754	22.708	1.8182	5.e-002	3.1692e-006
18755	22.984	1.8182	0.	7.8842e-002
18756	22.892	1.7273	0.	7.0553e-002
18757	22.892	1.8182	5.e-002	2.296e-006
18758	23.169	1.8182	0.	0.10101
18759	23.077	1.7273	0.	8.5125e-002
18760	23.077	1.8182	5.e-002	4.7126e-006
18761	23.354	1.8182	0.	0.12309
18762	23.261	1.7273	0.	0.11583
18763	23.261	1.8182	5.e-002	4.0167e-006
18764	23.538	1.8182	0.	0.21777
18765	23.446	1.7273	0.	0.13196
18766	23.446	1.8182	5.e-002	-1.6921e-006
18767	23.723	1.8182	0.	0.20745
18768	23.631	1.7273	0.	0.31444
18769	23.631	1.8182	5.e-002	-7.3761e-006
18770	23.815	1.7273	0.	0.1721
18771	23.815	1.8182	5.e-002	-2.0286e-006
18772	23.908	1.8182	0.	0.42059
18773	5.4436	1.6364	0.	7.6766
18774	5.3513	1.5455	0.	-8.395
18775	5.3513	1.6364	5.e-002	4.3045e-004
18776	5.259	1.6364	0.	80.309
18777	5.6283	1.6364	0.	-5.5356
18778	5.5359	1.5455	0.	0.10509
18779	5.5359	1.6364	5.e-002	6.7398e-004
18780	5.8129	1.6364	0.	-8.3155
18781	5.7206	1.5455	0.	-9.0222
18782	5.7206	1.6364	5.e-002	7.3711e-004
18783	5.9975	1.6364	0.	-4.6904
18784	5.9052	1.5455	0.	-3.6557
18785	5.9052	1.6364	5.e-002	6.9895e-004
18786	6.1822	1.6364	0.	-8.1196
18787	6.0899	1.5455	0.	-5.1241
18788	6.0899	1.6364	5.e-002	5.4689e-004
18789	6.3668	1.6364	0.	-26.225
18790	6.2745	1.5455	0.	-7.572
18791	6.2745	1.6364	5.e-002	4.2602e-004
18792	6.5515	1.6364	0.	-74.483
18793	6.4592	1.5455	0.	-23.166
18794	6.4592	1.6364	5.e-002	3.8935e-004
18795	6.7361	1.6364	0.	-109.99
18796	6.6438	1.5455	0.	-60.869
18797	6.6438	1.6364	5.e-002	3.585e-004
18798	6.9208	1.6364	0.	-131.1
18799	6.8284	1.5455	0.	-89.934
18800	6.8284	1.6364	5.e-002	2.2783e-004
18801	7.1054	1.6364	0.	-142.64
18802	7.0131	1.5455	0.	-108.14
18803	7.0131	1.6364	5.e-002	1.6393e-004
18804	7.29	1.6364	0.	-147.98
18805	7.1977	1.5455	0.	-118.84
18806	7.1977	1.6364	5.e-002	2.3389e-004
18807	7.4747	1.6364	0.	-149.23
18808	7.3824	1.5455	0.	-124.51
18809	7.3824	1.6364	5.e-002	2.0895e-004
18810	7.6593	1.6364	0.	-147.72
18811	7.567	1.5455	0.	-126.71
18812	7.567	1.6364	5.e-002	1.1386e-004
18813	7.844	1.6364	0.	-144.33
18814	7.7516	1.5455	0.	-126.49
18815	7.7516	1.6364	5.e-002	8.0746e-005
18816	8.0286	1.6364	0.	-139.63
18817	7.9363	1.5455	0.	-124.52
18818	7.9363	1.6364	5.e-002	7.8931e-005
18819	8.2132	1.6364	0.	-134.04
18820	8.1209	1.5455	0.	-121.27
18821	8.1209	1.6364	5.e-002	4.3147e-005
18822	8.3979	1.6364	0.	-127.85
18823	8.3056	1.5455	0.	-117.1
18824	8.3056	1.6364	5.e-002	3.2449e-005
18825	8.5825	1.6364	0.	-121.27
18826	8.4902	1.5455	0.	-112.25
18827	8.4902	1.6364	5.e-002	2.427e-005
18828	8.7672	1.6364	0.	-114.48
18829	8.6748	1.5455	0.	-106.95
18830	8.6748	1.6364	5.e-002	1.4278e-005
18831	8.9518	1.6364	0.	-107.61
18832	8.8595	1.5455	0.	-101.34
18833	8.8595	1.6364	5.e-002	9.318e-006
18834	9.1364	1.6364	0.	-100.76
18835	9.0441	1.5455	0.	-95.555
18836	9.0441	1.6364	5.e-002	1.0823e-005
18837	9.3211	1.6364	0.	-94.007
18838	9.2288	1.5455	0.	-89.705
18839	9.2288	1.6364	5.e-002	2.9183e-006
18840	9.5057	1.6364	0.	-87.414
18841	9.4134	1.5455	0.	-83.87
18842	9.4134	1.6364	5.e-002	4.5109e-006
18843	9.6904	1.6364	0.	-81.028
18844	9.598	1.5455	0.	-78.118
18845	9.598	1.6364	5.e-002	5.7534e-006
18846	9.875	1.6364	0.	-74.88
18847	9.7827	1.5455	0.	-72.5
18848	9.7827	1.6364	5.e-002	2.8915e-006
18849	10.06	1.6364	0.	-68.995
18850	9.9673	1.5455	0.	-67.055
18851	9.9673	1.6364	5.e-002	2.3116e-006
18852	10.244	1.6364	0.	-63.387
18853	10.152	1.5455	0.	-61.811
18854	10.152	1.6364	5.e-002	1.7723e-006
18855	10.429	1.6364	0.	-58.064
18856	10.337	1.5455	0.	-56.789
18857	10.337	1.6364	5.e-002	3.0032e-006
18858	10.614	1.6364	0.	-53.028
18859	10.521	1.5455	0.	-52.002
18860	10.521	1.6364	5.e-002	2.9414e-006
18861	10.798	1.6364	0.	-48.277
18862	10.706	1.5455	0.	-47.456
18863	10.706	1.6364	5.e-002	4.0591e-006
18864	10.983	1.6364	0.	-43.806
18865	10.891	1.5455	0.	-43.153
18866	10.891	1.6364	5.e-002	2.2353e-006
18867	11.167	1.6364	0.	-39.608
18868	11.075	1.5455	0.	-39.092
18869	11.075	1.6364	5.e-002	2.5762e-006
18870	11.352	1.6364	0.	-35.671
18871	11.26	1.5455	0.	-35.269
18872	11.26	1.6364	5.e-002	2.471e-006
18873	11.537	1.6364	0.	-31.986
18874	11.444	1.5455	0.	-31.676
18875	11.444	1.6364	5.e-002	2.0616e-006
18876	11.721	1.6364	0.	-28.539
18877	11.629	1.5455	0.	-28.305
18878	11.629	1.6364	5.e-002	3.0161e-006
18879	11.906	1.6364	0.	-25.318
18880	11.814	1.5455	0.	-25.147
18881	11.814	1.6364	5.e-002	2.7715e-006
18882	12.091	1.6364	0.	-22.311
18883	11.998	1.5455	0.	-22.191
18884	11.998	1.6364	5.e-002	2.6578e-006
18885	12.275	1.6364	0.	-19.504
18886	12.183	1.5455	0.	-19.426
18887	12.183	1.6364	5.e-002	1.9133e-006
18888	12.46	1.6364	0.	-16.885
18889	12.368	1.5455	0.	-16.842
18890	12.368	1.6364	5.e-002	1.7495e-006
18891	12.645	1.6364	0.	-14.44
18892	12.552	1.5455	0.	-14.426
18893	12.552	1.6364	5.e-002	3.4679e-006
18894	12.829	1.6364	0.	-12.158
18895	12.737	1.5455	0.	-12.169
18896	12.737	1.6364	5.e-002	3.7658e-006
18897	13.014	1.6364	0.	-10.027
18898	12.922	1.5455	0.	-10.059
18899	12.922	1.6364	5.e-002	4.0755e-006
18900	13.199	1.6364	0.	-8.035
18901	13.106	1.5455	0.	-8.0856
18902	13.106	1.6364	5.e-002	4.7487e-006
18903	13.383	1.6364	0.	-6.172
18904	13.291	1.5455	0.	-6.2389
18905	13.291	1.6364	5.e-002	3.954e-006
18906	13.568	1.6364	0.	-4.4276
18907	13.475	1.5455	0.	-4.5093
18908	13.475	1.6364	5.e-002	4.1129e-006
18909	13.752	1.6364	0.	-2.7927
18910	13.66	1.5455	0.	-2.8883
18911	13.66	1.6364	5.e-002	4.0934e-006
18912	13.937	1.6364	0.	-1.2623
18913	13.845	1.5455	0.	-1.3706
18914	13.845	1.6364	5.e-002	4.0999e-006
18915	14.122	1.6364	0.	-6.6317e-002
18916	14.029	1.5455	0.	-0.10584
18917	14.029	1.6364	5.e-002	3.7232e-006
18918	14.306	1.6364	0.	-7.3421e-003
18919	14.214	1.5455	0.	-9.8613e-003
18920	14.214	1.6364	5.e-002	3.3838e-006
18921	14.491	1.6364	0.	-1.8364e-003
18922	14.399	1.5455	0.	-3.1549e-003
18923	14.399	1.6364	5.e-002	4.0186e-006
18924	14.676	1.6364	0.	2.4177e-004
18925	14.583	1.5455	0.	-7.6451e-004
18926	14.583	1.6364	5.e-002	4.6022e-006
18927	14.86	1.6364	0.	1.3701e-003
18928	14.768	1.5455	0.	4.9203e-004
18929	14.768	1.6364	5.e-002	5.8002e-006
18930	15.045	1.6364	0.	2.1061e-003
18931	14.953	1.5455	0.	1.2896e-003
18932	14.953	1.6364	5.e-002	4.5755e-006
18933	15.23	1.6364	0.	2.6439e-003
18934	15.137	1.5455	0.	1.8602e-003
18935	15.137	1.6364	5.e-002	6.3772e-006
18936	15.414	1.6364	0.	3.0696e-003
18937	15.322	1.5455	0.	2.3012e-003
18938	15.322	1.6364	5.e-002	5.536e-006
18939	15.599	1.6364	0.	3.4292e-003
18940	15.507	1.5455	0.	2.6645e-003
18941	15.507	1.6364	5.e-002	3.9042e-006
18942	15.783	1.6364	0.	3.7465e-003
18943	15.691	1.5455	0.	2.9799e-003
18944	15.691	1.6364	5.e-002	3.6047e-006
18945	15.968	1.6364	0.	4.0364e-003
18946	15.876	1.5455	0.	3.2652e-003
18947	15.876	1.6364	5.e-002	3.2591e-006
18948	16.153	1.6364	0.	4.3102e-003
18949	16.06	1.5455	0.	3.5275e-003
18950	16.06	1.6364	5.e-002	3.4962e-006
18951	16.337	1.6364	0.	4.5736e-003
18952	16.245	1.5455	0.	3.7782e-003
18953	16.245	1.6364	5.e-002	3.3556e-006
18954	16.522	1.6364	0.	4.8359e-003
18955	16.43	1.5455	0.	4.0215e-003
18956	16.43	1.6364	5.e-002	3.7616e-006
18957	16.707	1.6364	0.	5.1011e-003
18958	16.614	1.5455	0.	4.272e-003
18959	16.614	1.6364	5.e-002	3.1369e-006
18960	16.891	1.6364	0.	5.3592e-003
18961	16.799	1.5455	0.	4.5187e-003
18962	16.799	1.6364	5.e-002	3.6453e-006
18963	17.076	1.6364	0.	5.6237e-003
18964	16.984	1.5455	0.	4.7525e-003
18965	16.984	1.6364	5.e-002	3.3766e-006
18966	17.261	1.6364	0.	5.9077e-003
18967	17.168	1.5455	0.	5.0109e-003
18968	17.168	1.6364	5.e-002	2.1228e-006
18969	17.445	1.6364	0.	6.2011e-003
18970	17.353	1.5455	0.	5.2825e-003
18971	17.353	1.6364	5.e-002	2.3327e-006
18972	17.63	1.6364	0.	6.5057e-003
18973	17.538	1.5455	0.	5.5586e-003
18974	17.538	1.6364	5.e-002	2.6178e-006
18975	17.815	1.6364	0.	6.8269e-003
18976	17.722	1.5455	0.	5.851e-003
18977	17.722	1.6364	5.e-002	2.296e-006
18978	17.999	1.6364	0.	7.1667e-003
18979	17.907	1.5455	0.	6.1592e-003
18980	17.907	1.6364	5.e-002	1.6306e-006
18981	18.184	1.6364	0.	7.5285e-003
18982	18.092	1.5455	0.	6.4864e-003
18983	18.092	1.6364	5.e-002	1.4136e-006
18984	18.368	1.6364	0.	7.9161e-003
18985	18.276	1.5455	0.	6.8361e-003
18986	18.276	1.6364	5.e-002	2.1174e-007
18987	18.553	1.6364	0.	8.3305e-003
18988	18.461	1.5455	0.	7.2117e-003
18989	18.461	1.6364	5.e-002	1.891e-006
18990	18.738	1.6364	0.	8.7757e-003
18991	18.645	1.5455	0.	7.6133e-003
18992	18.645	1.6364	5.e-002	2.9553e-006
18993	18.922	1.6364	0.	9.2576e-003
18994	18.83	1.5455	0.	8.0496e-003
18995	18.83	1.6364	5.e-002	4.554e-006
18996	19.107	1.6364	0.	9.7794e-003
18997	19.015	1.5455	0.	8.519e-003
18998	19.015	1.6364	5.e-002	4.0057e-006
18999	19.292	1.6364	0.	1.0346e-002
19000	19.199	1.5455	0.	9.0305e-003
19001	19.199	1.6364	5.e-002	2.0499e-006
19002	19.476	1.6364	0.	1.0966e-002
19003	19.384	1.5455	0.	9.5895e-003
19004	19.384	1.6364	5.e-002	2.0733e-006
19005	19.661	1.6364	0.	1.1644e-002
19006	19.569	1.5455	0.	1.0201e-002
19007	19.569	1.6364	5.e-002	1.8609e-006
19008	19.846	1.6364	0.	1.239e-002
19009	19.753	1.5455	0.	1.0874e-002
19010	19.753	1.6364	5.e-002	4.8822e-006
19011	20.03	1.6364	0.	1.3216e-002
19012	19.938	1.5455	0.	1.1618e-002
19013	19.938	1.6364	5.e-002	2.2827e-006
19014	20.215	1.6364	0.	1.4133e-002
19015	20.123	1.5455	0.	1.2444e-002
19016	20.123	1.6364	5.e-002	1.0335e-006
19017	20.4	1.6364	0.	1.5156e-002
19018	20.307	1.5455	0.	1.3365e-002
19019	20.307	1.6364	5.e-002	3.0023e-006
19020	20.584	1.6364	0.	1.6304e-002
19021	20.492	1.5455	0.	1.44e-002
19022	20.492	1.6364	5.e-002	5.5614e-007
19023	20.769	1.6364	0.	1.7599e-002
19024	20.676	1.5455	0.	1.5566e-002
19025	20.676	1.6364	5.e-002	6.1523e-007
19026	20.953	1.6364	0.	1.9073e-002
19027	20.861	1.5455	0.	1.6893e-002
19028	20.861	1.6364	5.e-002	4.7922e-007
19029	21.138	1.6364	0.	2.076e-002
19030	21.046	1.5455	0.	1.841e-002
19031	21.046	1.6364	5.e-002	2.358e-006
19032	21.323	1.6364	0.	2.2703e-002
19033	21.23	1.5455	0.	2.0158e-002
19034	21.23	1.6364	5.e-002	3.5947e-006
19035	21.507	1.6364	0.	2.4965e-002
19036	21.415	1.5455	0.	2.2189e-002
19037	21.415	1.6364	5.e-002	6.8636e-006
19038	21.692	1.6364	0.	2.7628e-002
19039	21.6	1.5455	0.	2.4573e-002
19040	21.6	1.6364	5.e-002	5.2998e-006
19041	21.877	1.6364	0.	3.0794e-002
19042	21.784	1.5455	0.	2.7408e-002
19043	21.784	1.6364	5.e-002	4.064e-006
19044	22.061	1.6364	0.	3.4602e-002
19045	21.969	1.5455	0.	3.0801e-002
19046	21.969	1.6364	5.e-002	4.1434e-006
19047	22.246	1.6364	0.	3.9259e-002
19048	22.154	1.5455	0.	3.4931e-002
19049	22.154	1.6364	5.e-002	2.6239e-006
19050	22.431	1.6364	0.	4.5079e-002
19051	22.338	1.5455	0.	4.004e-002
19052	22.338	1.6364	5.e-002	1.6638e-006
19053	22.615	1.6364	0.	5.2455e-002
19054	22.523	1.5455	0.	4.6526e-002
19055	22.523	1.6364	5.e-002	3.1977e-006
19056	22.8	1.6364	0.	6.2369e-002
19057	22.708	1.5455	0.	5.4804e-002
19058	22.708	1.6364	5.e-002	2.3363e-006
19059	22.984	1.6364	0.	7.5189e-002
19060	22.892	1.5455	0.	6.6461e-002
19061	22.892	1.6364	5.e-002	2.4028e-006
19062	23.169	1.6364	0.	9.7054e-002
19063	23.077	1.5455	0.	8.0762e-002
19064	23.077	1.6364	5.e-002	4.0548e-006
19065	23.354	1.6364	0.	0.11869
19066	23.261	1.5455	0.	0.11102
19067	23.261	1.6364	5.e-002	3.2999e-006
19068	23.538	1.6364	0.	0.21225
19069	23.446	1.5455	0.	0.12655
19070	23.446	1.6364	5.e-002	-2.3403e-006
19071	23.723	1.6364	0.	0.19896
19072	23.631	1.5455	0.	0.30691
19073	23.631	1.6364	5.e-002	-3.5096e-006
19074	23.815	1.5455	0.	0.15804
19075	23.815	1.6364	5.e-002	-1.9532e-006
19076	23.908	1.6364	0.	0.41753
19077	5.4436	1.4545	0.	-16.251
19078	5.3513	1.3636	0.	-19.67
19079	5.3513	1.4545	5.e-002	1.9328e-004
19080	5.259	1.4545	0.	-19.402
19081	5.6283	1.4545	0.	-3.3727
19082	5.5359	1.3636	0.	-1.6269
19083	5.5359	1.4545	5.e-002	3.9682e-004
19084	5.8129	1.4545	0.	-4.2775
19085	5.7206	1.3636	0.	-4.305
19086	5.7206	1.4545	5.e-002	4.5592e-004
19087	5.9975	1.4545	0.	-4.0119
19088	5.9052	1.3636	0.	-3.6293
19089	5.9052	1.4545	5.e-002	5.0677e-004
19090	6.1822	1.4545	0.	-4.4002
19091	6.0899	1.3636	0.	-3.5499
19092	6.0899	1.4545	5.e-002	4.3336e-004
19093	6.3668	1.4545	0.	-6.4071
19094	6.2745	1.3636	0.	-3.9935
19095	6.2745	1.4545	5.e-002	3.2061e-004
19096	6.5515	1.4545	0.	-15.752
19097	6.4592	1.3636	0.	-5.6615
19098	6.4592	1.4545	5.e-002	5.133e-004
19099	6.7361	1.4545	0.	-43.049
19100	6.6438	1.3636	0.	-11.987
19101	6.6438	1.4545	5.e-002	3.5476e-004
19102	6.9208	1.4545	0.	-68.013
19103	6.8284	1.3636	0.	-31.224
19104	6.8284	1.4545	5.e-002	3.2383e-004
19105	7.1054	1.4545	0.	-84.873
19106	7.0131	1.3636	0.	-51.705
19107	7.0131	1.4545	5.e-002	1.7886e-004
19108	7.29	1.4545	0.	-95.645
19109	7.1977	1.3636	0.	-66.732
19110	7.1977	1.4545	5.e-002	1.5727e-004
19111	7.4747	1.4545	0.	-102.13
19112	7.3824	1.3636	0.	-77.082
19113	7.3824	1.4545	5.e-002	1.809e-004
19114	7.6593	1.4545	0.	-105.54
19115	7.567	1.3636	0.	-83.91
19116	7.567	1.4545	5.e-002	1.5106e-004
19117	7.844	1.4545	0.	-106.7
19118	7.7516	1.3636	0.	-88.067
19119	7.7516	1.4545	5.e-002	8.7411e-005
19120	8.0286	1.4545	0.	-106.16
19121	7.9363	1.3636	0.	-90.159
19122	7.9363	1.4545	5.e-002	6.9162e-005
19123	8.2132	1.4545	0.	-104.32
19124	8.1209	1.3636	0.	-90.628
19125	8.1209	1.4545	5.e-002	5.1574e-005
19126	8.3979	1.4545	0.	-101.49
19127	8.3056	1.3636	0.	-89.813
19128	8.3056	1.4545	5.e-002	4.8917e-005
19129	8.5825	1.4545	0.	-97.919
19130	8.4902	1.3636	0.	-87.985
19131	8.4902	1.4545	5.e-002	2.7728e-005
19132	8.7672	1.4545	0.	-93.791
19133	8.6748	1.3636	0.	-85.365
19134	8.6748	1.4545	5.e-002	2.1495e-005
19135	8.9518	1.4545	0.	-89.271
19136	8.8595	1.3636	0.	-82.141
19137	8.8595	1.4545	5.e-002	1.1094e-005
19138	9.1364	1.4545	0.	-84.491
19139	9.0441	1.3636	0.	-78.47
19140	9.0441	1.4545	5.e-002	1.1809e-005
19141	9.3211	1.4545	0.	-79.559
19142	9.2288	1.3636	0.	-74.483
19143	9.2288	1.4545	5.e-002	2.1786e-006
19144	9.5057	1.4545	0.	-74.565
19145	9.4134	1.3636	0.	-70.291
19146	9.4134	1.4545	5.e-002	5.645e-006
19147	9.6904	1.4545	0.	-69.581
19148	9.598	1.3636	0.	-65.986
19149	9.598	1.4545	5.e-002	4.1362e-006
19150	9.875	1.4545	0.	-64.665
19151	9.7827	1.3636	0.	-61.643
19152	9.7827	1.4545	5.e-002	1.9752e-006
19153	10.06	1.4545	0.	-59.861
19154	9.9673	1.3636	0.	-57.321
19155	9.9673	1.4545	5.e-002	1.708e-006
19156	10.244	1.4545	0.	-55.204
19157	10.152	1.3636	0.	-53.069
19158	10.152	1.4545	5.e-002	3.252e-006
19159	10.429	1.4545	0.	-50.717
19160	10.337	1.3636	0.	-48.923
19161	10.337	1.4545	5.e-002	3.2864e-006
19162	10.614	1.4545	0.	-46.419
19163	10.521	1.3636	0.	-44.91
19164	10.521	1.4545	5.e-002	3.6377e-006
19165	10.798	1.4545	0.	-42.32
19166	10.706	1.3636	0.	-41.05
19167	10.706	1.4545	5.e-002	4.2006e-006
19168	10.983	1.4545	0.	-38.427
19169	10.891	1.3636	0.	-37.358
19170	10.891	1.4545	5.e-002	3.5986e-006
19171	11.167	1.4545	0.	-34.74
19172	11.075	1.3636	0.	-33.84
19173	11.075	1.4545	5.e-002	3.329e-006
19174	11.352	1.4545	0.	-31.26
19175	11.26	1.3636	0.	-30.501
19176	11.26	1.4545	5.e-002	3.4445e-006
19177	11.537	1.4545	0.	-27.981
19178	11.444	1.3636	0.	-27.341
19179	11.444	1.4545	5.e-002	2.7244e-006
19180	11.721	1.4545	0.	-24.898
19181	11.629	1.3636	0.	-24.359
19182	11.629	1.4545	5.e-002	2.6945e-006
19183	11.906	1.4545	0.	-22.003
19184	11.814	1.3636	0.	-21.549
19185	11.814	1.4545	5.e-002	3.2094e-006
19186	12.091	1.4545	0.	-19.289
19187	11.998	1.3636	0.	-18.908
19188	11.998	1.4545	5.e-002	2.4755e-006
19189	12.275	1.4545	0.	-16.746
19190	12.183	1.3636	0.	-16.427
19191	12.183	1.4545	5.e-002	1.7365e-006
19192	12.46	1.4545	0.	-14.365
19193	12.368	1.3636	0.	-14.099
19194	12.368	1.4545	5.e-002	1.9284e-006
19195	12.645	1.4545	0.	-12.136
19196	12.552	1.3636	0.	-11.916
19197	12.552	1.4545	5.e-002	3.0473e-006
19198	12.829	1.4545	0.	-10.05
19199	12.737	1.3636	0.	-9.8704
19200	12.737	1.4545	5.e-002	3.3334e-006
19201	13.014	1.4545	0.	-8.0973
19202	12.922	1.3636	0.	-7.953
19203	12.922	1.4545	5.e-002	4.1674e-006
19204	13.199	1.4545	0.	-6.2684
19205	13.106	1.3636	0.	-6.1558
19206	13.106	1.4545	5.e-002	4.7609e-006
19207	13.383	1.4545	0.	-4.5545
19208	13.291	1.3636	0.	-4.4704
19209	13.291	1.4545	5.e-002	3.9463e-006
19210	13.568	1.4545	0.	-2.9476
19211	13.475	1.3636	0.	-2.8897
19212	13.475	1.4545	5.e-002	3.8504e-006
19213	13.752	1.4545	0.	-1.443
19214	13.66	1.3636	0.	-1.4096
19215	13.66	1.4545	5.e-002	4.083e-006
19216	13.937	1.4545	0.	-0.1476
19217	13.845	1.3636	0.	-0.14486
19218	13.845	1.4545	5.e-002	3.9331e-006
19219	14.122	1.4545	0.	-1.2125e-002
19220	14.029	1.3636	0.	-1.3316e-002
19221	14.029	1.4545	5.e-002	3.7658e-006
19222	14.306	1.4545	0.	-4.3425e-003
19223	14.214	1.3636	0.	-5.2314e-003
19224	14.214	1.4545	5.e-002	3.3643e-006
19225	14.491	1.4545	0.	-1.6888e-003
19226	14.399	1.3636	0.	-2.4762e-003
19227	14.399	1.4545	5.e-002	3.9262e-006
19228	14.676	1.4545	0.	-3.2988e-004
19229	14.583	1.3636	0.	-1.0752e-003
19230	14.583	1.4545	5.e-002	4.4378e-006
19231	14.86	1.4545	0.	5.1437e-004
19232	14.768	1.3636	0.	-2.1572e-004
19233	14.768	1.4545	5.e-002	5.5921e-006
19234	15.045	1.4545	0.	1.1053e-003
19235	14.953	1.3636	0.	3.7726e-004
19236	14.953	1.4545	5.e-002	4.5131e-006
19237	15.23	1.4545	0.	1.5545e-003
19238	15.137	1.3636	0.	8.2094e-004
19239	15.137	1.4545	5.e-002	6.0741e-006
19240	15.414	1.4545	0.	1.9169e-003
19241	15.322	1.3636	0.	1.1736e-003
19242	15.322	1.4545	5.e-002	5.6428e-006
19243	15.599	1.4545	0.	2.2244e-003
19244	15.507	1.3636	0.	1.4677e-003
19245	15.507	1.4545	5.e-002	3.8571e-006
19246	15.783	1.4545	0.	2.4989e-003
19247	15.691	1.3636	0.	1.7244e-003
19248	15.691	1.4545	5.e-002	3.5112e-006
19249	15.968	1.4545	0.	2.7495e-003
19250	15.876	1.3636	0.	1.9572e-003
19251	15.876	1.4545	5.e-002	3.3393e-006
19252	16.153	1.4545	0.	2.9826e-003
19253	16.06	1.3636	0.	2.172e-003
19254	16.06	1.4545	5.e-002	3.2756e-006
19255	16.337	1.4545	0.	3.2081e-003
19256	16.245	1.3636	0.	2.376e-003
19257	16.245	1.4545	5.e-002	3.2309e-006
19258	16.522	1.4545	0.	3.4349e-003
19259	16.43	1.3636	0.	2.5748e-003
19260	16.43	1.4545	5.e-002	3.5074e-006
19261	16.707	1.4545	0.	3.6626e-003
19262	16.614	1.3636	0.	2.7802e-003
19263	16.614	1.4545	5.e-002	3.3851e-006
19264	16.891	1.4545	0.	3.881e-003
19265	16.799	1.3636	0.	2.981e-003
19266	16.799	1.4545	5.e-002	3.4661e-006
19267	17.076	1.4545	0.	4.1048e-003
19268	16.984	1.3636	0.	3.1687e-003
19269	16.984	1.4545	5.e-002	2.9542e-006
19270	17.261	1.4545	0.	4.3471e-003
19271	17.168	1.3636	0.	3.3796e-003
19272	17.168	1.4545	5.e-002	1.8562e-006
19273	17.445	1.4545	0.	4.5976e-003
19274	17.353	1.3636	0.	3.6027e-003
19275	17.353	1.4545	5.e-002	1.8672e-006
19276	17.63	1.4545	0.	4.8578e-003
19277	17.538	1.3636	0.	3.8276e-003
19278	17.538	1.4545	5.e-002	2.2617e-006
19279	17.815	1.4545	0.	5.1332e-003
19280	17.722	1.3636	0.	4.068e-003
19281	17.722	1.4545	5.e-002	1.7837e-006
19282	17.999	1.4545	0.	5.4249e-003
19283	17.907	1.3636	0.	4.3215e-003
19284	17.907	1.4545	5.e-002	1.1864e-006
19285	18.184	1.4545	0.	5.7358e-003
19286	18.092	1.3636	0.	4.591e-003
19287	18.092	1.4545	5.e-002	8.5425e-007
19288	18.368	1.4545	0.	6.0692e-003
19289	18.276	1.3636	0.	4.881e-003
19290	18.276	1.4545	5.e-002	-5.7487e-007
19291	18.553	1.4545	0.	6.4273e-003
19292	18.461	1.3636	0.	5.1913e-003
19293	18.461	1.4545	5.e-002	9.7262e-007
19294	18.738	1.4545	0.	6.8151e-003
19295	18.645	1.3636	0.	5.527e-003
19296	18.645	1.4545	5.e-002	2.3815e-006
19297	18.922	1.4545	0.	7.2338e-003
19298	18.83	1.3636	0.	5.893e-003
19299	18.83	1.4545	5.e-002	4.4638e-006
19300	19.107	1.4545	0.	7.6872e-003
19301	19.015	1.3636	0.	6.2875e-003
19302	19.015	1.4545	5.e-002	3.3216e-006
19303	19.292	1.4545	0.	8.1847e-003
19304	19.199	1.3636	0.	6.7204e-003
19305	19.199	1.4545	5.e-002	1.2307e-006
19306	19.476	1.4545	0.	8.7299e-003
19307	19.384	1.3636	0.	7.1954e-003
19308	19.384	1.4545	5.e-002	1.9865e-006
19309	19.661	1.4545	0.	9.3285e-003
19310	19.569	1.3636	0.	7.718e-003
19311	19.569	1.4545	5.e-002	1.573e-006
19312	19.846	1.4545	0.	9.9915e-003
19313	19.753	1.3636	0.	8.2966e-003
19314	19.753	1.4545	5.e-002	4.3369e-006
19315	20.03	1.4545	0.	1.0727e-002
19316	19.938	1.3636	0.	8.9402e-003
19317	19.938	1.4545	5.e-002	2.777e-006
19318	20.215	1.4545	0.	1.1547e-002
19319	20.123	1.3636	0.	9.6568e-003
19320	20.123	1.4545	5.e-002	8.5276e-007
19321	20.4	1.4545	0.	1.2469e-002
19322	20.307	1.3636	0.	1.0465e-002
19323	20.307	1.4545	5.e-002	2.1307e-006
19324	20.584	1.4545	0.	1.351e-002
19325	20.492	1.3636	0.	1.1378e-002
19326	20.492	1.4545	5.e-002	4.3013e-007
19327	20.769	1.4545	0.	1.4693e-002
19328	20.676	1.3636	0.	1.2414e-002
19329	20.676	1.4545	5.e-002	7.7953e-007
19330	20.953	1.4545	0.	1.6047e-002
19331	20.861	1.3636	0.	1.3603e-002
19332	20.861	1.4545	5.e-002	3.4195e-007
19333	21.138	1.4545	0.	1.7606e-002
19334	21.046	1.3636	0.	1.4974e-002
19335	21.046	1.4545	5.e-002	1.4366e-006
19336	21.323	1.4545	0.	1.9419e-002
19337	21.23	1.3636	0.	1.6567e-002
19338	21.23	1.4545	5.e-002	4.3489e-006
19339	21.507	1.4545	0.	2.1545e-002
19340	21.415	1.3636	0.	1.8434e-002
19341	21.415	1.4545	5.e-002	5.6256e-006
19342	21.692	1.4545	0.	2.4065e-002
19343	21.6	1.3636	0.	2.0644e-002
19344	21.6	1.4545	5.e-002	5.3804e-006
19345	21.877	1.4545	0.	2.7082e-002
19346	21.784	1.3636	0.	2.3298e-002
19347	21.784	1.4545	5.e-002	2.9205e-006
19348	22.061	1.4545	0.	3.0737e-002
19349	21.969	1.3636	0.	2.6502e-002
19350	21.969	1.4545	5.e-002	3.7674e-006
19351	22.246	1.4545	0.	3.5236e-002
19352	22.154	1.3636	0.	3.0436e-002
19353	22.154	1.4545	5.e-002	3.0942e-006
19354	22.431	1.4545	0.	4.0891e-002
19355	22.338	1.3636	0.	3.534e-002
19356	22.338	1.4545	5.e-002	1.8169e-006
19357	22.615	1.4545	0.	4.809e-002
19358	22.523	1.3636	0.	4.1611e-002
19359	22.523	1.4545	5.e-002	2.3767e-006
19360	22.8	1.4545	0.	5.7795e-002
19361	22.708	1.3636	0.	4.9654e-002
19362	22.708	1.4545	5.e-002	1.573e-006
19363	22.984	1.4545	0.	7.0348e-002
19364	22.892	1.3636	0.	6.103e-002
19365	22.892	1.4545	5.e-002	8.297e-007
19366	23.169	1.4545	0.	9.1823e-002
19367	23.077	1.3636	0.	7.4976e-002
19368	23.077	1.4545	5.e-002	1.5951e-006
19369	23.354	1.4545	0.	0.1129
19370	23.261	1.3636	0.	0.10467
19371	23.261	1.4545	5.e-002	9.7531e-007
19372	23.538	1.4545	0.	0.20506
19373	23.446	1.3636	0.	0.11944
19374	23.446	1.4545	5.e-002	-8.7784e-007
19375	23.723	1.4545	0.	0.18812
19376	23.631	1.3636	0.	0.29713
19377	23.631	1.4545	5.e-002	-3.2119e-006
19378	23.815	1.3636	0.	0.14043
19379	23.815	1.4545	5.e-002	-1.6974e-006
19380	23.908	1.4545	0.	0.41342
19381	5.4436	1.2727	0.	-5.4472
19382	5.3513	1.1818	0.	-10.301
19383	5.3513	1.2727	5.e-002	1.4919e-004
19384	5.259	1.2727	0.	7.0884
19385	5.6283	1.2727	0.	-2.5564
19386	5.5359	1.1818	0.	-0.85364
19387	5.5359	1.2727	5.e-002	2.2944e-004
19388	5.8129	1.2727	0.	-3.6038
19389	5.7206	1.1818	0.	-3.7857
19390	5.7206	1.2727	5.e-002	3.0742e-004
19391	5.9975	1.2727	0.	-3.105
19392	5.9052	1.1818	0.	-2.885
19393	5.9052	1.2727	5.e-002	3.2749e-004
19394	6.1822	1.2727	0.	-3.0975
19395	6.0899	1.1818	0.	-2.7886
19396	6.0899	1.2727	5.e-002	3.9238e-004
19397	6.3668	1.2727	0.	-3.4198
19398	6.2745	1.1818	0.	-2.735
19399	6.2745	1.2727	5.e-002	4.1012e-004
19400	6.5515	1.2727	0.	-4.3842
19401	6.4592	1.1818	0.	-2.9246
19402	6.4592	1.2727	5.e-002	3.7796e-004
19403	6.7361	1.2727	0.	-7.3756
19404	6.6438	1.1818	0.	-3.4728
19405	6.6438	1.2727	5.e-002	3.8053e-004
19406	6.9208	1.2727	0.	-17.924
19407	6.8284	1.1818	0.	-5.0229
19408	6.8284	1.2727	5.e-002	3.6082e-004
19409	7.1054	1.2727	0.	-34.513
19410	7.0131	1.1818	0.	-10.49
19411	7.0131	1.2727	5.e-002	3.6559e-004
19412	7.29	1.2727	0.	-48.569
19413	7.1977	1.1818	0.	-22.868
19414	7.1977	1.2727	5.e-002	2.1399e-004
19415	7.4747	1.2727	0.	-59.045
19416	7.3824	1.1818	0.	-35.55
19417	7.3824	1.2727	5.e-002	2.0861e-004
19418	7.6593	1.2727	0.	-66.512
19419	7.567	1.1818	0.	-45.698
19420	7.567	1.2727	5.e-002	1.7399e-004
19421	7.844	1.2727	0.	-71.554
19422	7.7516	1.1818	0.	-53.317
19423	7.7516	1.2727	5.e-002	1.1401e-004
19424	8.0286	1.2727	0.	-74.633
19425	7.9363	1.1818	0.	-58.752
19426	7.9363	1.2727	5.e-002	1.0315e-004
19427	8.2132	1.2727	0.	-76.114
19428	8.1209	1.1818	0.	-62.346
19429	8.1209	1.2727	5.e-002	6.2156e-005
19430	8.3979	1.2727	0.	-76.292
19431	8.3056	1.1818	0.	-64.398
19432	8.3056	1.2727	5.e-002	4.4886e-005
19433	8.5825	1.2727	0.	-75.418
19434	8.4902	1.1818	0.	-65.171
19435	8.4902	1.2727	5.e-002	3.2259e-005
19436	8.7672	1.2727	0.	-73.702
19437	8.6748	1.1818	0.	-64.893
19438	8.6748	1.2727	5.e-002	1.6408e-005
19439	8.9518	1.2727	0.	-71.327
19440	8.8595	1.1818	0.	-63.767
19441	8.8595	1.2727	5.e-002	1.2097e-005
19442	9.1364	1.2727	0.	-68.45
19443	9.0441	1.1818	0.	-61.969
19444	9.0441	1.2727	5.e-002	1.2815e-005
19445	9.3211	1.2727	0.	-65.204
19446	9.2288	1.1818	0.	-59.65
19447	9.2288	1.2727	5.e-002	7.509e-006
19448	9.5057	1.2727	0.	-61.701
19449	9.4134	1.1818	0.	-56.943
19450	9.4134	1.2727	5.e-002	5.0128e-006
19451	9.6904	1.2727	0.	-58.037
19452	9.598	1.1818	0.	-53.959
19453	9.598	1.2727	5.e-002	6.6841e-006
19454	9.875	1.2727	0.	-54.288
19455	9.7827	1.1818	0.	-50.791
19456	9.7827	1.2727	5.e-002	6.5299e-006
19457	10.06	1.2727	0.	-50.518
19458	9.9673	1.1818	0.	-47.515
19459	9.9673	1.2727	5.e-002	4.2926e-006
19460	10.244	1.2727	0.	-46.776
19461	10.152	1.1818	0.	-44.195
19462	10.152	1.2727	5.e-002	4.1452e-006
19463	10.429	1.2727	0.	-43.103
19464	10.337	1.1818	0.	-40.881
19465	10.337	1.2727	5.e-002	2.9046e-006
19466	10.614	1.2727	0.	-39.529
19467	10.521	1.1818	0.	-37.611
19468	10.521	1.2727	5.e-002	4.1812e-006
19469	10.798	1.2727	0.	-36.075
19470	10.706	1.1818	0.	-34.418
19471	10.706	1.2727	5.e-002	3.428e-006
19472	10.983	1.2727	0.	-32.757
19473	10.891	1.1818	0.	-31.322
19474	10.891	1.2727	5.e-002	4.9364e-006
19475	11.167	1.2727	0.	-29.586
19476	11.075	1.1818	0.	-28.34
19477	11.075	1.2727	5.e-002	3.4963e-006
19478	11.352	1.2727	0.	-26.567
19479	11.26	1.1818	0.	-25.484
19480	11.26	1.2727	5.e-002	3.351e-006
19481	11.537	1.2727	0.	-23.703
19482	11.444	1.1818	0.	-22.759
19483	11.444	1.2727	5.e-002	2.9123e-006
19484	11.721	1.2727	0.	-20.994
19485	11.629	1.1818	0.	-20.17
19486	11.629	1.2727	5.e-002	2.5582e-006
19487	11.906	1.2727	0.	-18.437
19488	11.814	1.1818	0.	-17.717
19489	11.814	1.2727	5.e-002	3.2639e-006
19490	12.091	1.2727	0.	-16.028
19491	11.998	1.1818	0.	-15.399
19492	11.998	1.2727	5.e-002	2.4825e-006
19493	12.275	1.2727	0.	-13.761
19494	12.183	1.1818	0.	-13.211
19495	12.183	1.2727	5.e-002	1.3887e-006
19496	12.46	1.2727	0.	-11.631
19497	12.368	1.1818	0.	-11.15
19498	12.368	1.2727	5.e-002	1.6407e-006
19499	12.645	1.2727	0.	-9.6308
19500	12.552	1.1818	0.	-9.2111
19501	12.552	1.2727	5.e-002	2.6978e-006
19502	12.829	1.2727	0.	-7.7531
19503	12.737	1.1818	0.	-7.3877
19504	12.737	1.2727	5.e-002	3.403e-006
19505	13.014	1.2727	0.	-5.9907
19506	12.922	1.1818	0.	-5.6739
19507	12.922	1.2727	5.e-002	4.1175e-006
19508	13.199	1.2727	0.	-4.3364
19509	13.106	1.1818	0.	-4.0635
19510	13.106	1.2727	5.e-002	4.8492e-006
19511	13.383	1.2727	0.	-2.7837
19512	13.291	1.1818	0.	-2.5509
19513	13.291	1.2727	5.e-002	3.8728e-006
19514	13.568	1.2727	0.	-1.3298
19515	13.475	1.1818	0.	-1.1356
19516	13.475	1.2727	5.e-002	4.0661e-006
19517	13.752	1.2727	0.	-0.12068
19518	13.66	1.1818	0.	-7.3339e-002
19519	13.66	1.2727	5.e-002	3.9162e-006
19520	13.937	1.2727	0.	-1.3591e-002
19521	13.845	1.1818	0.	-1.2555e-002
19522	13.845	1.2727	5.e-002	3.8926e-006
19523	14.122	1.2727	0.	-5.7867e-003
19524	14.029	1.1818	0.	-5.9048e-003
19525	14.029	1.2727	5.e-002	3.4775e-006
19526	14.306	1.2727	0.	-3.0727e-003
19527	14.214	1.1818	0.	-3.4449e-003
19528	14.214	1.2727	5.e-002	3.0492e-006
19529	14.491	1.2727	0.	-1.6921e-003
19530	14.399	1.1818	0.	-2.1726e-003
19531	14.399	1.2727	5.e-002	3.4228e-006
19532	14.676	1.2727	0.	-8.5022e-004
19533	14.583	1.1818	0.	-1.3954e-003
19534	14.583	1.2727	5.e-002	4.3022e-006
19535	14.86	1.2727	0.	-2.7688e-004
19536	14.768	1.1818	0.	-8.6966e-004
19537	14.768	1.2727	5.e-002	5.4576e-006
19538	15.045	1.2727	0.	1.4605e-004
19539	14.953	1.1818	0.	-4.8704e-004
19540	14.953	1.2727	5.e-002	4.5363e-006
19541	15.23	1.2727	0.	4.7696e-004
19542	15.137	1.1818	0.	-1.9192e-004
19543	15.137	1.2727	5.e-002	5.8185e-006
19544	15.414	1.2727	0.	7.4912e-004
19545	15.322	1.1818	0.	4.7405e-005
19546	15.322	1.2727	5.e-002	5.2617e-006
19547	15.599	1.2727	0.	9.827e-004
19548	15.507	1.1818	0.	2.4801e-004
19549	15.507	1.2727	5.e-002	3.8638e-006
19550	15.783	1.2727	0.	1.1896e-003
19551	15.691	1.1818	0.	4.2425e-004
19552	15.691	1.2727	5.e-002	3.6188e-006
19553	15.968	1.2727	0.	1.3798e-003
19554	15.876	1.1818	0.	5.8258e-004
19555	15.876	1.2727	5.e-002	2.7853e-006
19556	16.153	1.2727	0.	1.5594e-003
19557	16.06	1.1818	0.	7.2975e-004
19558	16.06	1.2727	5.e-002	3.0874e-006
19559	16.337	1.2727	0.	1.7312e-003
19560	16.245	1.1818	0.	8.7075e-004
19561	16.245	1.2727	5.e-002	3.2595e-006
19562	16.522	1.2727	0.	1.9037e-003
19563	16.43	1.1818	0.	1.0056e-003
19564	16.43	1.2727	5.e-002	3.3872e-006
19565	16.707	1.2727	0.	2.0775e-003
19566	16.614	1.1818	0.	1.1482e-003
19567	16.614	1.2727	5.e-002	3.0538e-006
19568	16.891	1.2727	0.	2.2431e-003
19569	16.799	1.1818	0.	1.2879e-003
19570	16.799	1.2727	5.e-002	3.195e-006
19571	17.076	1.2727	0.	2.4135e-003
19572	16.984	1.1818	0.	1.4136e-003
19573	16.984	1.2727	5.e-002	2.8763e-006
19574	17.261	1.2727	0.	2.6008e-003
19575	17.168	1.1818	0.	1.5609e-003
19576	17.168	1.2727	5.e-002	1.6088e-006
19577	17.445	1.2727	0.	2.7939e-003
19578	17.353	1.1818	0.	1.7185e-003
19579	17.353	1.2727	5.e-002	1.814e-006
19580	17.63	1.2727	0.	2.9945e-003
19581	17.538	1.1818	0.	1.8761e-003
19582	17.538	1.2727	5.e-002	1.6347e-006
19583	17.815	1.2727	0.	3.2083e-003
19584	17.722	1.1818	0.	2.0468e-003
19585	17.722	1.2727	5.e-002	1.7321e-006
19586	17.999	1.2727	0.	3.4349e-003
19587	17.907	1.1818	0.	2.2268e-003
19588	17.907	1.2727	5.e-002	8.7752e-007
19589	18.184	1.2727	0.	3.6785e-003
19590	18.092	1.1818	0.	2.4198e-003
19591	18.092	1.2727	5.e-002	2.8329e-007
19592	18.368	1.2727	0.	3.9401e-003
19593	18.276	1.1818	0.	2.631e-003
19594	18.276	1.2727	5.e-002	-7.4784e-007
19595	18.553	1.2727	0.	4.2224e-003
19596	18.461	1.1818	0.	2.8565e-003
19597	18.461	1.2727	5.e-002	4.22e-007
19598	18.738	1.2727	0.	4.5303e-003
19599	18.645	1.1818	0.	3.1046e-003
19600	18.645	1.2727	5.e-002	1.5806e-006
19601	18.922	1.2727	0.	4.8657e-003
19602	18.83	1.1818	0.	3.3738e-003
19603	18.83	1.2727	5.e-002	3.356e-006
19604	19.107	1.2727	0.	5.2328e-003
19605	19.015	1.1818	0.	3.6707e-003
19606	19.015	1.2727	5.e-002	3.2724e-006
19607	19.292	1.2727	0.	5.6356e-003
19608	19.199	1.1818	0.	3.997e-003
19609	19.199	1.2727	5.e-002	5.8245e-007
19610	19.476	1.2727	0.	6.0799e-003
19611	19.384	1.1818	0.	4.3591e-003
19612	19.384	1.2727	5.e-002	1.5999e-006
19613	19.661	1.2727	0.	6.5735e-003
19614	19.569	1.1818	0.	4.761e-003
19615	19.569	1.2727	5.e-002	1.2942e-006
19616	19.846	1.2727	0.	7.123e-003
19617	19.753	1.1818	0.	5.2125e-003
19618	19.753	1.2727	5.e-002	4.4347e-006
19619	20.03	1.2727	0.	7.7371e-003
19620	19.938	1.1818	0.	5.7171e-003
19621	19.938	1.2727	5.e-002	2.6983e-006
19622	20.215	1.2727	0.	8.4298e-003
19623	20.123	1.1818	0.	6.289e-003
19624	20.123	1.2727	5.e-002	5.7953e-007
19625	20.4	1.2727	0.	9.215e-003
19626	20.307	1.1818	0.	6.9401e-003
19627	20.307	1.2727	5.e-002	3.1798e-006
19628	20.584	1.2727	0.	1.0108e-002
19629	20.492	1.1818	0.	7.6823e-003
19630	20.492	1.2727	5.e-002	1.1361e-006
19631	20.769	1.2727	0.	1.1133e-002
19632	20.676	1.1818	0.	8.5371e-003
19633	20.676	1.2727	5.e-002	3.011e-007
19634	20.953	1.2727	0.	1.2318e-002
19635	20.861	1.1818	0.	9.5305e-003
19636	20.861	1.2727	5.e-002	-5.6156e-007
19637	21.138	1.2727	0.	1.3699e-002
19638	21.046	1.1818	0.	1.0692e-002
19639	21.046	1.2727	5.e-002	3.8211e-006
19640	21.323	1.2727	0.	1.532e-002
19641	21.23	1.1818	0.	1.2058e-002
19642	21.23	1.2727	5.e-002	3.166e-006
19643	21.507	1.2727	0.	1.7239e-002
19644	21.415	1.1818	0.	1.3682e-002
19645	21.415	1.2727	5.e-002	4.2581e-006
19646	21.692	1.2727	0.	1.9543e-002
19647	21.6	1.1818	0.	1.5632e-002
19648	21.6	1.2727	5.e-002	4.0603e-006
19649	21.877	1.2727	0.	2.2333e-002
19650	21.784	1.1818	0.	1.8007e-002
19651	21.784	1.2727	5.e-002	1.4555e-006
19652	22.061	1.2727	0.	2.575e-002
19653	21.969	1.1818	0.	2.0915e-002
19654	21.969	1.2727	5.e-002	3.0157e-006
19655	22.246	1.2727	0.	3.e-002
19656	22.154	1.1818	0.	2.4534e-002
19657	22.154	1.2727	5.e-002	1.7015e-006
19658	22.431	1.2727	0.	3.5392e-002
19659	22.338	1.1818	0.	2.9104e-002
19660	22.338	1.2727	5.e-002	1.41e-006
19661	22.615	1.2727	0.	4.2314e-002
19662	22.523	1.1818	0.	3.5022e-002
19663	22.523	1.2727	5.e-002	2.2127e-006
19664	22.8	1.2727	0.	5.171e-002
19665	22.708	1.1818	0.	4.2684e-002
19666	22.708	1.2727	5.e-002	1.8027e-006
19667	22.984	1.2727	0.	6.39e-002
19668	22.892	1.1818	0.	5.3633e-002
19669	22.892	1.2727	5.e-002	7.5513e-008
19670	23.169	1.2727	0.	8.4859e-002
19671	23.077	1.1818	0.	6.707e-002
19672	23.077	1.2727	5.e-002	1.1444e-006
19673	23.354	1.2727	0.	0.10523
19674	23.261	1.1818	0.	9.5994e-002
19675	23.261	1.2727	5.e-002	6.1475e-007
19676	23.538	1.2727	0.	0.19561
19677	23.446	1.1818	0.	0.10978
19678	23.446	1.2727	5.e-002	-2.0262e-006
19679	23.723	1.2727	0.	0.1742
19680	23.631	1.1818	0.	0.28405
19681	23.631	1.2727	5.e-002	-4.271e-006
19682	23.815	1.1818	0.	0.1179
19683	23.815	1.2727	5.e-002	-3.0756e-006
19684	23.908	1.2727	0.	0.40792
19685	5.4436	1.0909	0.	-6.1322
19686	5.3513	1.	0.	-9.969
19687	5.3513	1.0909	5.e-002	1.8362e-005
19688	5.259	1.0909	0.	0.80041
19689	5.6283	1.0909	0.	-2.1105
19690	5.5359	1.	0.	-0.84419
19691	5.5359	1.0909	5.e-002	1.3675e-004
19692	5.8129	1.0909	0.	-3.0535
19693	5.7206	1.	0.	-3.278
19694	5.7206	1.0909	5.e-002	1.9894e-004
19695	5.9975	1.0909	0.	-2.5419
19696	5.9052	1.	0.	-2.4451
19697	5.9052	1.0909	5.e-002	2.4181e-004
19698	6.1822	1.0909	0.	-2.4168
19699	6.0899	1.	0.	-2.3094
19700	6.0899	1.0909	5.e-002	2.6977e-004
19701	6.3668	1.0909	0.	-2.3007
19702	6.2745	1.	0.	-2.0451
19703	6.2745	1.0909	5.e-002	2.6457e-004
19704	6.5515	1.0909	0.	-2.3184
19705	6.4592	1.	0.	-1.8902
19706	6.4592	1.0909	5.e-002	2.9157e-004
19707	6.7361	1.0909	0.	-2.5078
19708	6.6438	1.	0.	-1.8057
19709	6.6438	1.0909	5.e-002	2.9081e-004
19710	6.9208	1.0909	0.	-3.0848
19711	6.8284	1.	0.	-1.832
19712	6.8284	1.0909	5.e-002	3.2832e-004
19713	7.1054	1.0909	0.	-4.9618
19714	7.0131	1.	0.	-2.0584
19715	7.0131	1.0909	5.e-002	2.7534e-004
19716	7.29	1.0909	0.	-11.643
19717	7.1977	1.	0.	-2.8385
19718	7.1977	1.0909	5.e-002	3.5027e-004
19719	7.4747	1.0909	0.	-22.635
19720	7.3824	1.	0.	-6.018
19721	7.3824	1.0909	5.e-002	2.9316e-004
19722	7.6593	1.0909	0.	-32.643
19723	7.567	1.	0.	-14.606
19724	7.567	1.0909	5.e-002	1.9237e-004
19725	7.844	1.0909	0.	-40.561
19726	7.7516	1.	0.	-24.004
19727	7.7516	1.0909	5.e-002	1.7102e-004
19728	8.0286	1.0909	0.	-46.474
19729	7.9363	1.	0.	-31.737
19730	7.9363	1.0909	5.e-002	1.0522e-004
19731	8.2132	1.0909	0.	-50.623
19732	8.1209	1.	0.	-37.639
19733	8.1209	1.0909	5.e-002	7.2193e-005
19734	8.3979	1.0909	0.	-53.263
19735	8.3056	1.	0.	-41.882
19736	8.3056	1.0909	5.e-002	4.8464e-005
19737	8.5825	1.0909	0.	-54.631
19738	8.4902	1.	0.	-44.685
19739	8.4902	1.0909	5.e-002	3.2792e-005
19740	8.7672	1.0909	0.	-54.943
19741	8.6748	1.	0.	-46.269
19742	8.6748	1.0909	5.e-002	2.2002e-005
19743	8.9518	1.0909	0.	-54.393
19744	8.8595	1.	0.	-46.837
19745	8.8595	1.0909	5.e-002	1.7058e-005
19746	9.1364	1.0909	0.	-53.154
19747	9.0441	1.	0.	-46.575
19748	9.0441	1.0909	5.e-002	1.2362e-005
19749	9.3211	1.0909	0.	-51.376
19750	9.2288	1.	0.	-45.647
19751	9.2288	1.0909	5.e-002	7.6613e-006
19752	9.5057	1.0909	0.	-49.188
19753	9.4134	1.	0.	-44.196
19754	9.4134	1.0909	5.e-002	7.6657e-006
19755	9.6904	1.0909	0.	-46.7
19756	9.598	1.	0.	-42.347
19757	9.598	1.0909	5.e-002	5.8691e-006
19758	9.875	1.0909	0.	-44.005
19759	9.7827	1.	0.	-40.204
19760	9.7827	1.0909	5.e-002	5.2235e-006
19761	10.06	1.0909	0.	-41.18
19762	9.9673	1.	0.	-37.856
19763	9.9673	1.0909	5.e-002	5.0688e-006
19764	10.244	1.0909	0.	-38.287
19765	10.152	1.	0.	-35.374
19766	10.152	1.0909	5.e-002	4.33e-006
19767	10.429	1.0909	0.	-35.375
19768	10.337	1.	0.	-32.819
19769	10.337	1.0909	5.e-002	4.7959e-006
19770	10.614	1.0909	0.	-32.486
19771	10.521	1.	0.	-30.238
19772	10.521	1.0909	5.e-002	5.1165e-006
19773	10.798	1.0909	0.	-29.65
19774	10.706	1.	0.	-27.668
19775	10.706	1.0909	5.e-002	4.7648e-006
19776	10.983	1.0909	0.	-26.89
19777	10.891	1.	0.	-25.14
19778	10.891	1.0909	5.e-002	4.6287e-006
19779	11.167	1.0909	0.	-24.223
19780	11.075	1.	0.	-22.674
19781	11.075	1.0909	5.e-002	3.6341e-006
19782	11.352	1.0909	0.	-21.66
19783	11.26	1.	0.	-20.287
19784	11.26	1.0909	5.e-002	3.7094e-006
19785	11.537	1.0909	0.	-19.21
19786	11.444	1.	0.	-17.99
19787	11.444	1.0909	5.e-002	3.51e-006
19788	11.721	1.0909	0.	-16.877
19789	11.629	1.	0.	-15.791
19790	11.629	1.0909	5.e-002	2.8784e-006
19791	11.906	1.0909	0.	-14.661
19792	11.814	1.	0.	-13.695
19793	11.814	1.0909	5.e-002	2.2022e-006
19794	12.091	1.0909	0.	-12.564
19795	11.998	1.	0.	-11.702
19796	11.998	1.0909	5.e-002	2.5471e-006
19797	12.275	1.0909	0.	-10.581
19798	12.183	1.	0.	-9.8122
19799	12.183	1.0909	5.e-002	1.4414e-006
19800	12.46	1.0909	0.	-8.7107
19801	12.368	1.	0.	-8.0245
19802	12.368	1.0909	5.e-002	1.3397e-006
19803	12.645	1.0909	0.	-6.9478
19804	12.552	1.	0.	-6.336
19805	12.552	1.0909	5.e-002	2.9997e-006
19806	12.829	1.0909	0.	-5.2878
19807	12.737	1.	0.	-4.7428
19808	12.737	1.0909	5.e-002	3.3167e-006
19809	13.014	1.0909	0.	-3.7255
19810	12.922	1.	0.	-3.2412
19811	12.922	1.0909	5.e-002	4.435e-006
19812	13.199	1.0909	0.	-2.2567
19813	13.106	1.	0.	-1.8283
19814	13.106	1.0909	5.e-002	5.3932e-006
19815	13.383	1.0909	0.	-0.88458
19816	13.291	1.	0.	-0.51976
19817	13.291	1.0909	5.e-002	4.1846e-006
19818	13.568	1.0909	0.	-4.2854e-002
19819	13.475	1.	0.	-2.3899e-002
19820	13.475	1.0909	5.e-002	3.9518e-006
19821	13.752	1.0909	0.	-1.0877e-002
19822	13.66	1.	0.	-8.7137e-003
19823	13.66	1.0909	5.e-002	4.1839e-006
19824	13.937	1.0909	0.	-5.6454e-003
19825	13.845	1.	0.	-5.0554e-003
19826	13.845	1.0909	5.e-002	3.907e-006
19827	14.122	1.0909	0.	-3.5661e-003
19828	14.029	1.	0.	-3.4672e-003
19829	14.029	1.0909	5.e-002	3.6897e-006
19830	14.306	1.0909	0.	-2.4686e-003
19831	14.214	1.	0.	-2.6049e-003
19832	14.214	1.0909	5.e-002	3.031e-006
19833	14.491	1.0909	0.	-1.7974e-003
19834	14.399	1.	0.	-2.0764e-003
19835	14.399	1.0909	5.e-002	3.499e-006
19836	14.676	1.0909	0.	-1.3469e-003
19837	14.583	1.	0.	-1.7255e-003
19838	14.583	1.0909	5.e-002	4.1504e-006
19839	14.86	1.0909	0.	-1.0238e-003
19840	14.768	1.	0.	-1.4785e-003
19841	14.768	1.0909	5.e-002	5.5023e-006
19842	15.045	1.0909	0.	-7.7999e-004
19843	14.953	1.	0.	-1.298e-003
19844	14.953	1.0909	5.e-002	4.2664e-006
19845	15.23	1.0909	0.	-5.8612e-004
19846	15.137	1.	0.	-1.1601e-003
19847	15.137	1.0909	5.e-002	5.9033e-006
19848	15.414	1.0909	0.	-4.2683e-004
19849	15.322	1.	0.	-1.0493e-003
19850	15.322	1.0909	5.e-002	5.4691e-006
19851	15.599	1.0909	0.	-2.9109e-004
19852	15.507	1.	0.	-9.6045e-004
19853	15.507	1.0909	5.e-002	3.6512e-006
19854	15.783	1.0909	0.	-1.7019e-004
19855	15.691	1.	0.	-8.8363e-004
19856	15.691	1.0909	5.e-002	3.7909e-006
19857	15.968	1.0909	0.	-6.1006e-005
19858	15.876	1.	0.	-8.1415e-004
19859	15.876	1.0909	5.e-002	2.9937e-006
19860	16.153	1.0909	0.	4.1918e-005
19861	16.06	1.	0.	-7.5363e-004
19862	16.06	1.0909	5.e-002	3.0538e-006
19863	16.337	1.0909	0.	1.4056e-004
19864	16.245	1.	0.	-6.9297e-004
19865	16.245	1.0909	5.e-002	3.2078e-006
19866	16.522	1.0909	0.	2.4044e-004
19867	16.43	1.	0.	-6.3707e-004
19868	16.43	1.0909	5.e-002	3.4587e-006
19869	16.707	1.0909	0.	3.4393e-004
19870	16.614	1.	0.	-5.7393e-004
19871	16.614	1.0909	5.e-002	3.2884e-006
19872	16.891	1.0909	0.	4.3894e-004
19873	16.799	1.	0.	-5.1184e-004
19874	16.799	1.0909	5.e-002	2.9068e-006
19875	17.076	1.0909	0.	5.3671e-004
19876	16.984	1.	0.	-4.655e-004
19877	16.984	1.0909	5.e-002	2.8474e-006
19878	17.261	1.0909	0.	6.4936e-004
19879	17.168	1.	0.	-3.9747e-004
19880	17.168	1.0909	5.e-002	1.834e-006
19881	17.445	1.0909	0.	7.6648e-004
19882	17.353	1.	0.	-3.2228e-004
19883	17.353	1.0909	5.e-002	1.7728e-006
19884	17.63	1.0909	0.	8.8903e-004
19885	17.538	1.	0.	-2.4859e-004
19886	17.538	1.0909	5.e-002	1.0629e-006
19887	17.815	1.0909	0.	1.0206e-003
19888	17.722	1.	0.	-1.6639e-004
19889	17.722	1.0909	5.e-002	1.4075e-006
19890	17.999	1.0909	0.	1.1614e-003
19891	17.907	1.	0.	-7.8204e-005
19892	17.907	1.0909	5.e-002	1.2761e-006
19893	18.184	1.0909	0.	1.316e-003
19894	18.092	1.	0.	1.9298e-005
19895	18.092	1.0909	5.e-002	-2.0555e-007
19896	18.368	1.0909	0.	1.4849e-003
19897	18.276	1.	0.	1.2907e-004
19898	18.276	1.0909	5.e-002	-8.6062e-007
19899	18.553	1.0909	0.	1.6694e-003
19900	18.461	1.	0.	2.4843e-004
19901	18.461	1.0909	5.e-002	1.0884e-007
19902	18.738	1.0909	0.	1.8715e-003
19903	18.645	1.	0.	3.8288e-004
19904	18.645	1.0909	5.e-002	1.2594e-006
19905	18.922	1.0909	0.	2.0944e-003
19906	18.83	1.	0.	5.3334e-004
19907	18.83	1.0909	5.e-002	3.407e-006
19908	19.107	1.0909	0.	2.342e-003
19909	19.015	1.	0.	7.0119e-004
19910	19.015	1.0909	5.e-002	4.4166e-006
19911	19.292	1.0909	0.	2.6184e-003
19912	19.199	1.	0.	8.9073e-004
19913	19.199	1.0909	5.e-002	1.0157e-006
19914	19.476	1.0909	0.	2.928e-003
19915	19.384	1.	0.	1.1076e-003
19916	19.384	1.0909	5.e-002	1.6244e-006
19917	19.661	1.0909	0.	3.2767e-003
19918	19.569	1.	0.	1.3526e-003
19919	19.569	1.0909	5.e-002	1.8919e-006
19920	19.846	1.0909	0.	3.671e-003
19921	19.753	1.	0.	1.637e-003
19922	19.753	1.0909	5.e-002	4.7736e-006
19923	20.03	1.0909	0.	4.1197e-003
19924	19.938	1.	0.	1.9607e-003
19925	19.938	1.0909	5.e-002	2.4099e-006
19926	20.215	1.0909	0.	4.6347e-003
19927	20.123	1.	0.	2.3383e-003
19928	20.123	1.0909	5.e-002	1.7068e-006
19929	20.4	1.0909	0.	5.2256e-003
19930	20.307	1.	0.	2.7773e-003
19931	20.307	1.0909	5.e-002	3.6198e-006
19932	20.584	1.0909	0.	5.9101e-003
19933	20.492	1.	0.	3.2927e-003
19934	20.492	1.0909	5.e-002	7.0012e-007
19935	20.769	1.0909	0.	6.7119e-003
19936	20.676	1.	0.	3.9006e-003
19937	20.676	1.0909	5.e-002	7.2213e-007
19938	20.953	1.0909	0.	7.6559e-003
19939	20.861	1.	0.	4.6245e-003
19940	20.861	1.0909	5.e-002	-3.5761e-007
19941	21.138	1.0909	0.	8.7734e-003
19942	21.046	1.	0.	5.4928e-003
19943	21.046	1.0909	5.e-002	3.9239e-006
19944	21.323	1.0909	0.	1.0109e-002
19945	21.23	1.	0.	6.5411e-003
19946	21.23	1.0909	5.e-002	2.8306e-006
19947	21.507	1.0909	0.	1.1723e-002
19948	21.415	1.	0.	7.8172e-003
19949	21.415	1.0909	5.e-002	5.1637e-006
19950	21.692	1.0909	0.	1.3696e-002
19951	21.6	1.	0.	9.3897e-003
19952	21.6	1.0909	5.e-002	3.4231e-006
19953	21.877	1.0909	0.	1.6129e-002
19954	21.784	1.	0.	1.1351e-002
19955	21.784	1.0909	5.e-002	9.8245e-007
19956	22.061	1.0909	0.	1.9162e-002
19957	21.969	1.	0.	1.3809e-002
19958	21.969	1.0909	5.e-002	2.6681e-006
19959	22.246	1.0909	0.	2.2999e-002
19960	22.154	1.	0.	1.6937e-002
19961	22.154	1.0909	5.e-002	5.1733e-008
19962	22.431	1.0909	0.	2.7954e-002
19963	22.338	1.	0.	2.0976e-002
19964	22.338	1.0909	5.e-002	-6.3611e-007
19965	22.615	1.0909	0.	3.4407e-002
19966	22.523	1.	0.	2.6318e-002
19967	22.523	1.0909	5.e-002	-4.1647e-007
19968	22.8	1.0909	0.	4.3294e-002
19969	22.708	1.	0.	3.3362e-002
19970	22.708	1.0909	5.e-002	7.3724e-007
19971	22.984	1.0909	0.	5.4909e-002
19972	22.892	1.	0.	4.3628e-002
19973	22.892	1.0909	5.e-002	-2.455e-006
19974	23.169	1.0909	0.	7.5125e-002
19975	23.077	1.	0.	5.6294e-002
19976	23.077	1.0909	5.e-002	-2.0198e-006
19977	23.354	1.0909	0.	9.4523e-002
19978	23.261	1.	0.	8.4133e-002
19979	23.261	1.0909	5.e-002	-2.6246e-006
19980	23.538	1.0909	0.	0.18256
19981	23.446	1.	0.	9.6638e-002
19982	23.446	1.0909	5.e-002	-2.122e-006
19983	23.723	1.0909	0.	0.15551
19984	23.631	1.	0.	0.26649
19985	23.631	1.0909	5.e-002	-3.8084e-006
19986	23.815	1.	0.	8.8961e-002
19987	23.815	1.0909	5.e-002	-2.252e-006
19988	23.908	1.0909	0.	0.39979
19989	5.4436	0.90909	0.	-5.2449
19990	5.3513	0.81818	0.	-8.7915
19991	5.3513	0.90909	5.e-002	2.8862e-006
19992	5.259	0.90909	0.	2.5752
19993	5.6283	0.90909	0.	-2.0964
19994	5.5359	0.81818	0.	-1.288
19995	5.5359	0.90909	5.e-002	7.9791e-005
19996	5.8129	0.90909	0.	-2.6968
19997	5.7206	0.81818	0.	-3.0464
19998	5.7206	0.90909	5.e-002	1.2786e-004
19999	5.9975	0.90909	0.	-2.2168
20000	5.9052	0.81818	0.	-2.2341
20001	5.9052	0.90909	5.e-002	1.5495e-004
20002	6.1822	0.90909	0.	-1.9427
20003	6.0899	0.81818	0.	-1.9325
20004	6.0899	0.90909	5.e-002	1.6606e-004
20005	6.3668	0.90909	0.	-1.6664
20006	6.2745	0.81818	0.	-1.5626
20007	6.2745	0.90909	5.e-002	1.7847e-004
20008	6.5515	0.90909	0.	-1.4659
20009	6.4592	0.81818	0.	-1.2976
20010	6.4592	0.90909	5.e-002	1.8456e-004
20011	6.7361	0.90909	0.	-1.3279
20012	6.6438	0.81818	0.	-1.0946
20013	6.6438	0.90909	5.e-002	1.9611e-004
20014	6.9208	0.90909	0.	-1.2649
20015	6.8284	0.81818	0.	-0.95664
20016	6.8284	0.90909	5.e-002	2.3327e-004
20017	7.1054	0.90909	0.	-1.3049
20018	7.0131	0.81818	0.	-0.87826
20019	7.0131	0.90909	5.e-002	2.4572e-004
20020	7.29	0.90909	0.	-1.5525
20021	7.1977	0.81818	0.	-0.86922
20022	7.1977	0.90909	5.e-002	2.851e-004
20023	7.4747	0.90909	0.	-2.5136
20024	7.3824	0.81818	0.	-0.97422
20025	7.3824	0.90909	5.e-002	2.9239e-004
20026	7.6593	0.90909	0.	-6.9825
20027	7.567	0.81818	0.	-1.4023
20028	7.567	0.90909	5.e-002	2.3701e-004
20029	7.844	0.90909	0.	-15.339
20030	7.7516	0.81818	0.	-3.6653
20031	7.7516	0.90909	5.e-002	1.8565e-004
20032	8.0286	0.90909	0.	-22.933
20033	7.9363	0.81818	0.	-10.538
20034	7.9363	0.90909	5.e-002	1.2556e-004
20035	8.2132	0.90909	0.	-28.895
20036	8.1209	0.81818	0.	-17.558
20037	8.1209	0.90909	5.e-002	9.4928e-005
20038	8.3979	0.90909	0.	-33.291
20039	8.3056	0.81818	0.	-23.131
20040	8.3056	0.90909	5.e-002	5.0227e-005
20041	8.5825	0.90909	0.	-36.306
20042	8.4902	0.81818	0.	-27.258
20043	8.4902	0.90909	5.e-002	2.9753e-005
20044	8.7672	0.90909	0.	-38.146
20045	8.6748	0.81818	0.	-30.107
20046	8.6748	0.90909	5.e-002	2.5073e-005
20047	8.9518	0.90909	0.	-39.001
20048	8.8595	0.81818	0.	-31.868
20049	8.8595	0.90909	5.e-002	1.9451e-005
20050	9.1364	0.90909	0.	-39.051
20051	9.0441	0.81818	0.	-32.723
20052	9.0441	0.90909	5.e-002	1.1499e-005
20053	9.3211	0.90909	0.	-38.451
20054	9.2288	0.81818	0.	-32.838
20055	9.2288	0.90909	5.e-002	8.5162e-006
20056	9.5057	0.90909	0.	-37.34
20057	9.4134	0.81818	0.	-32.357
20058	9.4134	0.90909	5.e-002	6.1823e-006
20059	9.6904	0.90909	0.	-35.837
20060	9.598	0.81818	0.	-31.408
20061	9.598	0.90909	5.e-002	5.8729e-006
20062	9.875	0.90909	0.	-34.041
20063	9.7827	0.81818	0.	-30.101
20064	9.7827	0.90909	5.e-002	6.5379e-006
20065	10.06	0.90909	0.	-32.036
20066	9.9673	0.81818	0.	-28.526
20067	9.9673	0.90909	5.e-002	6.2048e-006
20068	10.244	0.90909	0.	-29.893
20069	10.152	0.81818	0.	-26.762
20070	10.152	0.90909	5.e-002	4.8586e-006
20071	10.429	0.90909	0.	-27.667
20072	10.337	0.81818	0.	-24.87
20073	10.337	0.90909	5.e-002	5.6715e-006
20074	10.614	0.90909	0.	-25.405
20075	10.521	0.81818	0.	-22.902
20076	10.521	0.90909	5.e-002	4.2131e-006
20077	10.798	0.90909	0.	-23.143
20078	10.706	0.81818	0.	-20.899
20079	10.706	0.90909	5.e-002	5.2519e-006
20080	10.983	0.90909	0.	-20.908
20081	10.891	0.81818	0.	-18.894
20082	10.891	0.90909	5.e-002	5.5343e-006
20083	11.167	0.90909	0.	-18.722
20084	11.075	0.81818	0.	-16.911
20085	11.075	0.90909	5.e-002	4.2668e-006
20086	11.352	0.90909	0.	-16.6
20087	11.26	0.81818	0.	-14.971
20088	11.26	0.90909	5.e-002	3.3489e-006
20089	11.537	0.90909	0.	-14.554
20090	11.444	0.81818	0.	-13.086
20091	11.444	0.90909	5.e-002	3.5371e-006
20092	11.721	0.90909	0.	-12.592
20093	11.629	0.81818	0.	-11.267
20094	11.629	0.90909	5.e-002	2.24e-006
20095	11.906	0.90909	0.	-10.717
20096	11.814	0.81818	0.	-9.5211
20097	11.814	0.90909	5.e-002	2.2106e-006
20098	12.091	0.90909	0.	-8.9313
20099	11.998	0.81818	0.	-7.8517
20100	11.998	0.90909	5.e-002	1.6149e-006
20101	12.275	0.90909	0.	-7.2361
20102	12.183	0.81818	0.	-6.2609
20103	12.183	0.90909	5.e-002	8.884e-007
20104	12.46	0.90909	0.	-5.6299
20105	12.368	0.81818	0.	-4.7489
20106	12.368	0.90909	5.e-002	5.2847e-007
20107	12.645	0.90909	0.	-4.1105
20108	12.552	0.81818	0.	-3.3151
20109	12.552	0.90909	5.e-002	2.4909e-006
20110	12.829	0.90909	0.	-2.6754
20111	12.737	0.81818	0.	-1.9586
20112	12.737	0.90909	5.e-002	3.1566e-006
20113	13.014	0.90909	0.	-1.3245
20114	12.922	0.81818	0.	-0.68608
20115	12.922	0.90909	5.e-002	4.223e-006
20116	13.199	0.90909	0.	-0.14993
20117	13.106	0.81818	0.	-2.5089e-002
20118	13.106	0.90909	5.e-002	5.1042e-006
20119	13.383	0.90909	0.	-1.3884e-002
20120	13.291	0.81818	0.	-7.7132e-003
20121	13.291	0.90909	5.e-002	4.296e-006
20122	13.568	0.90909	0.	-6.553e-003
20123	13.475	0.81818	0.	-4.4895e-003
20124	13.475	0.90909	5.e-002	4.2975e-006
20125	13.752	0.90909	0.	-4.23e-003
20126	13.66	0.81818	0.	-3.2583e-003
20127	13.66	0.90909	5.e-002	3.7537e-006
20128	13.937	0.90909	0.	-3.1488e-003
20129	13.845	0.81818	0.	-2.6722e-003
20130	13.845	0.90909	5.e-002	4.2525e-006
20131	14.122	0.90909	0.	-2.5533e-003
20132	14.029	0.81818	0.	-2.368e-003
20133	14.029	0.90909	5.e-002	4.052e-006
20134	14.306	0.90909	0.	-2.1942e-003
20135	14.214	0.81818	0.	-2.2072e-003
20136	14.214	0.90909	5.e-002	2.6241e-006
20137	14.491	0.90909	0.	-1.9654e-003
20138	14.399	0.81818	0.	-2.1274e-003
20139	14.399	0.90909	5.e-002	2.8435e-006
20140	14.676	0.90909	0.	-1.8133e-003
20141	14.583	0.81818	0.	-2.0948e-003
20142	14.583	0.90909	5.e-002	4.4462e-006
20143	14.86	0.90909	0.	-1.7103e-003
20144	14.768	0.81818	0.	-2.093e-003
20145	14.768	0.90909	5.e-002	5.7164e-006
20146	15.045	0.90909	0.	-1.6397e-003
20147	14.953	0.81818	0.	-2.1105e-003
20148	14.953	0.90909	5.e-002	4.4139e-006
20149	15.23	0.90909	0.	-1.5898e-003
20150	15.137	0.81818	0.	-2.1398e-003
20151	15.137	0.90909	5.e-002	5.7351e-006
20152	15.414	0.90909	0.	-1.5547e-003
20153	15.322	0.81818	0.	-2.1765e-003
20154	15.322	0.90909	5.e-002	5.4506e-006
20155	15.599	0.90909	0.	-1.5302e-003
20156	15.507	0.81818	0.	-2.2195e-003
20157	15.507	0.90909	5.e-002	3.9216e-006
20158	15.783	0.90909	0.	-1.51e-003
20159	15.691	0.81818	0.	-2.2636e-003
20160	15.691	0.90909	5.e-002	3.7029e-006
20161	15.968	0.90909	0.	-1.4944e-003
20162	15.876	0.81818	0.	-2.3095e-003
20163	15.876	0.90909	5.e-002	3.0667e-006
20164	16.153	0.90909	0.	-1.4812e-003
20165	16.06	0.81818	0.	-2.3567e-003
20166	16.06	0.90909	5.e-002	3.0517e-006
20167	16.337	0.90909	0.	-1.4683e-003
20168	16.245	0.81818	0.	-2.4018e-003
20169	16.245	0.90909	5.e-002	3.4722e-006
20170	16.522	0.90909	0.	-1.4541e-003
20171	16.43	0.81818	0.	-2.4499e-003
20172	16.43	0.90909	5.e-002	3.1665e-006
20173	16.707	0.90909	0.	-1.4373e-003
20174	16.614	0.81818	0.	-2.4884e-003
20175	16.614	0.90909	5.e-002	3.9653e-006
20176	16.891	0.90909	0.	-1.4289e-003
20177	16.799	0.81818	0.	-2.5308e-003
20178	16.799	0.90909	5.e-002	3.8124e-006
20179	17.076	0.90909	0.	-1.4174e-003
20180	16.984	0.81818	0.	-2.5898e-003
20181	16.984	0.90909	5.e-002	2.2645e-006
20182	17.261	0.90909	0.	-1.392e-003
20183	17.168	0.81818	0.	-2.6283e-003
20184	17.168	0.90909	5.e-002	1.2093e-006
20185	17.445	0.90909	0.	-1.3657e-003
20186	17.353	0.81818	0.	-2.6618e-003
20187	17.353	0.90909	5.e-002	2.5287e-006
20188	17.63	0.90909	0.	-1.338e-003
20189	17.538	0.81818	0.	-2.7022e-003
20190	17.538	0.90909	5.e-002	1.3953e-006
20191	17.815	0.90909	0.	-1.3052e-003
20192	17.722	0.81818	0.	-2.7384e-003
20193	17.722	0.90909	5.e-002	8.1789e-007
20194	17.999	0.90909	0.	-1.2667e-003
20195	17.907	0.81818	0.	-2.7724e-003
20196	17.907	0.90909	5.e-002	1.2105e-006
20197	18.184	0.90909	0.	-1.2209e-003
20198	18.092	0.81818	0.	-2.8045e-003
20199	18.092	0.90909	5.e-002	-5.9209e-008
20200	18.368	0.90909	0.	-1.1679e-003
20201	18.276	0.81818	0.	-2.8335e-003
20202	18.276	0.90909	5.e-002	-2.4275e-006
20203	18.553	0.90909	0.	-1.1065e-003
20204	18.461	0.81818	0.	-2.8592e-003
20205	18.461	0.90909	5.e-002	3.597e-007
20206	18.738	0.90909	0.	-1.0324e-003
20207	18.645	0.81818	0.	-2.8805e-003
20208	18.645	0.90909	5.e-002	1.9102e-006
20209	18.922	0.90909	0.	-9.4629e-004
20210	18.83	0.81818	0.	-2.894e-003
20211	18.83	0.90909	5.e-002	4.5971e-006
20212	19.107	0.90909	0.	-8.4685e-004
20213	19.015	0.81818	0.	-2.9033e-003
20214	19.015	0.90909	5.e-002	4.9132e-006
20215	19.292	0.90909	0.	-7.2826e-004
20216	19.199	0.81818	0.	-2.9029e-003
20217	19.199	0.90909	5.e-002	2.6694e-006
20218	19.476	0.90909	0.	-5.8855e-004
20219	19.384	0.81818	0.	-2.8915e-003
20220	19.384	0.90909	5.e-002	1.5775e-006
20221	19.661	0.90909	0.	-4.2166e-004
20222	19.569	0.81818	0.	-2.8656e-003
20223	19.569	0.90909	5.e-002	2.7057e-006
20224	19.846	0.90909	0.	-2.2342e-004
20225	19.753	0.81818	0.	-2.8203e-003
20226	19.753	0.90909	5.e-002	6.9894e-006
20227	20.03	0.90909	0.	1.1921e-005
20228	19.938	0.81818	0.	-2.7542e-003
20229	19.938	0.90909	5.e-002	3.0334e-006
20230	20.215	0.90909	0.	2.9411e-004
20231	20.123	0.81818	0.	-2.658e-003
20232	20.123	0.90909	5.e-002	1.8278e-006
20233	20.4	0.90909	0.	6.356e-004
20234	20.307	0.81818	0.	-2.5251e-003
20235	20.307	0.90909	5.e-002	6.0138e-006
20236	20.584	0.90909	0.	1.0495e-003
20237	20.492	0.81818	0.	-2.342e-003
20238	20.492	0.90909	5.e-002	3.5034e-006
20239	20.769	0.90909	0.	1.5511e-003
20240	20.676	0.81818	0.	-2.0987e-003
20241	20.676	0.90909	5.e-002	2.55e-006
20242	20.953	0.90909	0.	2.1667e-003
20243	20.861	0.81818	0.	-1.777e-003
20244	20.861	0.90909	5.e-002	7.9946e-007
20245	21.138	0.90909	0.	2.9279e-003
20246	21.046	0.81818	0.	-1.35e-003
20247	21.046	0.90909	5.e-002	1.5728e-006
20248	21.323	0.90909	0.	3.8725e-003
20249	21.23	0.81818	0.	-7.8822e-004
20250	21.23	0.90909	5.e-002	3.8759e-006
20251	21.507	0.90909	0.	5.0546e-003
20252	21.415	0.81818	0.	-4.9672e-005
20253	21.415	0.90909	5.e-002	7.5158e-006
20254	21.692	0.90909	0.	6.5523e-003
20255	21.6	0.81818	0.	9.2394e-004
20256	21.6	0.90909	5.e-002	3.4521e-006
20257	21.877	0.90909	0.	8.4618e-003
20258	21.784	0.81818	0.	2.2185e-003
20259	21.784	0.90909	5.e-002	2.0921e-006
20260	22.061	0.90909	0.	1.0919e-002
20261	21.969	0.81818	0.	3.9334e-003
20262	21.969	0.90909	5.e-002	1.903e-006
20263	22.246	0.90909	0.	1.4125e-002
20264	22.154	0.81818	0.	6.2337e-003
20265	22.154	0.90909	5.e-002	-3.396e-006
20266	22.431	0.90909	0.	1.8386e-002
20267	22.338	0.81818	0.	9.3478e-003
20268	22.338	0.90909	5.e-002	-9.0456e-006
20269	22.615	0.90909	0.	2.4085e-002
20270	22.523	0.81818	0.	1.3655e-002
20271	22.523	0.90909	5.e-002	-7.5687e-006
20272	22.8	0.90909	0.	3.2151e-002
20273	22.708	0.81818	0.	1.955e-002
20274	22.708	0.90909	5.e-002	-4.606e-006
20275	22.984	0.90909	0.	4.2863e-002
20276	22.892	0.81818	0.	2.8521e-002
20277	22.892	0.90909	5.e-002	-7.6551e-006
20278	23.169	0.90909	0.	6.1967e-002
20279	23.077	0.81818	0.	3.9727e-002
20280	23.077	0.90909	5.e-002	-6.5552e-006
20281	23.354	0.90909	0.	8.005e-002
20282	23.261	0.81818	0.	6.5696e-002
20283	23.261	0.90909	5.e-002	-5.0759e-006
20284	23.538	0.90909	0.	0.16508
20285	23.446	0.81818	0.	7.6083e-002
20286	23.446	0.90909	5.e-002	-5.0051e-006
20287	23.723	0.90909	0.	0.13106
20288	23.631	0.81818	0.	0.23937
20289	23.631	0.90909	5.e-002	-9.2203e-006
20290	23.815	0.81818	0.	4.7015e-002
20291	23.815	0.90909	5.e-002	-2.1871e-006
20292	23.908	0.90909	0.	0.3895
20293	5.4436	0.72727	0.	-5.6072
20294	5.3513	0.63636	0.	-9.2429
20295	5.3513	0.72727	5.e-002	-1.0014e-005
20296	5.259	0.72727	0.	2.2019
20297	5.6283	0.72727	0.	-2.4235
20298	5.5359	0.63636	0.	-2.1927
20299	5.5359	0.72727	5.e-002	2.9682e-005
20300	5.8129	0.72727	0.	-2.6561
20301	5.7206	0.63636	0.	-3.245
20302	5.7206	0.72727	5.e-002	6.8554e-005
20303	5.9975	0.72727	0.	-1.9661
20304	5.9052	0.63636	0.	-2.0971
20305	5.9052	0.72727	5.e-002	9.1786e-005
20306	6.1822	0.72727	0.	-1.5555
20307	6.0899	0.63636	0.	-1.5779
20308	6.0899	0.72727	5.e-002	1.0566e-004
20309	6.3668	0.72727	0.	-1.2081
20310	6.2745	0.63636	0.	-1.1329
20311	6.2745	0.72727	5.e-002	1.136e-004
20312	6.5515	0.72727	0.	-0.96117
20313	6.4592	0.63636	0.	-0.84921
20314	6.4592	0.72727	5.e-002	1.0789e-004
20315	6.7361	0.72727	0.	-0.78279
20316	6.6438	0.63636	0.	-0.65047
20317	6.6438	0.72727	5.e-002	1.2531e-004
20318	6.9208	0.72727	0.	-0.66069
20319	6.8284	0.63636	0.	-0.51623
20320	6.8284	0.72727	5.e-002	1.4297e-004
20321	7.1054	0.72727	0.	-0.58464
20322	7.0131	0.63636	0.	-0.42639
20323	7.0131	0.72727	5.e-002	1.5954e-004
20324	7.29	0.72727	0.	-0.55331
20325	7.1977	0.63636	0.	-0.37128
20326	7.1977	0.72727	5.e-002	1.9573e-004
20327	7.4747	0.72727	0.	-0.58015
20328	7.3824	0.63636	0.	-0.34708
20329	7.3824	0.72727	5.e-002	2.1206e-004
20330	7.6593	0.72727	0.	-0.72969
20331	7.567	0.63636	0.	-0.35973
20332	7.567	0.72727	5.e-002	2.5641e-004
20333	7.844	0.72727	0.	-1.4112
20334	7.7516	0.63636	0.	-0.44254
20335	7.7516	0.72727	5.e-002	2.2441e-004
20336	8.0286	0.72727	0.	-5.4637
20337	7.9363	0.63636	0.	-0.79497
20338	7.9363	0.72727	5.e-002	1.4573e-004
20339	8.2132	0.72727	0.	-11.82
20340	8.1209	0.63636	0.	-3.4096
20341	8.1209	0.72727	5.e-002	7.8878e-005
20342	8.3979	0.72727	0.	-17.09
20343	8.3056	0.63636	0.	-8.8492
20344	8.3056	0.72727	5.e-002	4.3663e-005
20345	8.5825	0.72727	0.	-21.042
20346	8.4902	0.63636	0.	-13.444
20347	8.4902	0.72727	5.e-002	3.2345e-005
20348	8.7672	0.72727	0.	-23.811
20349	8.6748	0.63636	0.	-16.868
20350	8.6748	0.72727	5.e-002	1.6964e-005
20351	8.9518	0.72727	0.	-25.572
20352	8.8595	0.63636	0.	-19.245
20353	8.8595	0.72727	5.e-002	1.1272e-005
20354	9.1364	0.72727	0.	-26.493
20355	9.0441	0.63636	0.	-20.736
20356	9.0441	0.72727	5.e-002	9.2147e-006
20357	9.3211	0.72727	0.	-26.726
20358	9.2288	0.63636	0.	-21.493
20359	9.2288	0.72727	5.e-002	7.3316e-006
20360	9.5057	0.72727	0.	-26.408
20361	9.4134	0.63636	0.	-21.652
20362	9.4134	0.72727	5.e-002	6.7134e-006
20363	9.6904	0.72727	0.	-25.657
20364	9.598	0.63636	0.	-21.334
20365	9.598	0.72727	5.e-002	6.9638e-006
20366	9.875	0.72727	0.	-24.571
20367	9.7827	0.63636	0.	-20.642
20368	9.7827	0.72727	5.e-002	6.3792e-006
20369	10.06	0.72727	0.	-23.237
20370	9.9673	0.63636	0.	-19.665
20371	9.9673	0.72727	5.e-002	5.8733e-006
20372	10.244	0.72727	0.	-21.723
20373	10.152	0.63636	0.	-18.475
20374	10.152	0.72727	5.e-002	5.3041e-006
20375	10.429	0.72727	0.	-20.088
20376	10.337	0.63636	0.	-17.133
20377	10.337	0.72727	5.e-002	4.7353e-006
20378	10.614	0.72727	0.	-18.379
20379	10.521	0.63636	0.	-15.689
20380	10.521	0.72727	5.e-002	5.9111e-006
20381	10.798	0.72727	0.	-16.633
20382	10.706	0.63636	0.	-14.184
20383	10.706	0.72727	5.e-002	5.4604e-006
20384	10.983	0.72727	0.	-14.88
20385	10.891	0.63636	0.	-12.649
20386	10.891	0.72727	5.e-002	4.6413e-006
20387	11.167	0.72727	0.	-13.143
20388	11.075	0.63636	0.	-11.109
20389	11.075	0.72727	5.e-002	3.773e-006
20390	11.352	0.72727	0.	-11.439
20391	11.26	0.63636	0.	-9.5846
20392	11.26	0.72727	5.e-002	3.2968e-006
20393	11.537	0.72727	0.	-9.781
20394	11.444	0.63636	0.	-8.09
20395	11.444	0.72727	5.e-002	2.5349e-006
20396	11.721	0.72727	0.	-8.1784
20397	11.629	0.63636	0.	-6.6361
20398	11.629	0.72727	5.e-002	1.5549e-006
20399	11.906	0.72727	0.	-6.6374
20400	11.814	0.63636	0.	-5.2305
20401	11.814	0.72727	5.e-002	1.8681e-006
20402	12.091	0.72727	0.	-5.1618
20403	11.998	0.63636	0.	-3.8785
20404	11.998	0.72727	5.e-002	1.0962e-008
20405	12.275	0.72727	0.	-3.7537
20406	12.183	0.63636	0.	-2.5835
20407	12.183	0.72727	5.e-002	-1.7645e-006
20408	12.46	0.72727	0.	-2.4138
20409	12.368	0.63636	0.	-1.3477
20410	12.368	0.72727	5.e-002	-4.895e-007
20411	12.645	0.72727	0.	-1.1442
20412	12.552	0.63636	0.	-0.19701
20413	12.552	0.72727	5.e-002	1.3802e-006
20414	12.829	0.72727	0.	-7.4373e-002
20415	12.737	0.63636	0.	-5.4708e-003
20416	12.737	0.72727	5.e-002	2.0825e-006
20417	13.014	0.72727	0.	-7.7647e-003
20418	12.922	0.63636	0.	-2.2092e-003
20419	12.922	0.72727	5.e-002	1.8028e-006
20420	13.199	0.72727	0.	-3.8032e-003
20421	13.106	0.63636	0.	-1.5113e-003
20422	13.106	0.72727	5.e-002	3.132e-006
20423	13.383	0.72727	0.	-2.6435e-003
20424	13.291	0.63636	0.	-1.3625e-003
20425	13.291	0.72727	5.e-002	2.8509e-006
20426	13.568	0.72727	0.	-2.2037e-003
20427	13.475	0.63636	0.	-1.4057e-003
20428	13.475	0.72727	5.e-002	2.6026e-006
20429	13.752	0.72727	0.	-2.0442e-003
20430	13.66	0.63636	0.	-1.5299e-003
20431	13.66	0.72727	5.e-002	2.6498e-006
20432	13.937	0.72727	0.	-2.017e-003
20433	13.845	0.63636	0.	-1.6911e-003
20434	13.845	0.72727	5.e-002	2.7915e-006
20435	14.122	0.72727	0.	-2.0586e-003
20436	14.029	0.63636	0.	-1.868e-003
20437	14.029	0.72727	5.e-002	2.4562e-006
20438	14.306	0.72727	0.	-2.1367e-003
20439	14.214	0.63636	0.	-2.0509e-003
20440	14.214	0.72727	5.e-002	1.9854e-006
20441	14.491	0.72727	0.	-2.2342e-003
20442	14.399	0.63636	0.	-2.2333e-003
20443	14.399	0.72727	5.e-002	2.7899e-006
20444	14.676	0.72727	0.	-2.3434e-003
20445	14.583	0.63636	0.	-2.4114e-003
20446	14.583	0.72727	5.e-002	3.3161e-006
20447	14.86	0.72727	0.	-2.4591e-003
20448	14.768	0.63636	0.	-2.586e-003
20449	14.768	0.72727	5.e-002	4.4721e-006
20450	15.045	0.72727	0.	-2.5766e-003
20451	14.953	0.63636	0.	-2.7548e-003
20452	14.953	0.72727	5.e-002	3.3946e-006
20453	15.23	0.72727	0.	-2.6943e-003
20454	15.137	0.63636	0.	-2.9182e-003
20455	15.137	0.72727	5.e-002	5.7313e-006
20456	15.414	0.72727	0.	-2.8119e-003
20457	15.322	0.63636	0.	-3.0767e-003
20458	15.322	0.72727	5.e-002	5.6015e-006
20459	15.599	0.72727	0.	-2.927e-003
20460	15.507	0.63636	0.	-3.2299e-003
20461	15.507	0.72727	5.e-002	3.8811e-006
20462	15.783	0.72727	0.	-3.0409e-003
20463	15.691	0.63636	0.	-3.3795e-003
20464	15.691	0.72727	5.e-002	4.0268e-006
20465	15.968	0.72727	0.	-3.1537e-003
20466	15.876	0.63636	0.	-3.5269e-003
20467	15.876	0.72727	5.e-002	2.9215e-006
20468	16.153	0.72727	0.	-3.2634e-003
20469	16.06	0.63636	0.	-3.6698e-003
20470	16.06	0.72727	5.e-002	3.3753e-006
20471	16.337	0.72727	0.	-3.3739e-003
20472	16.245	0.63636	0.	-3.81e-003
20473	16.245	0.72727	5.e-002	3.5431e-006
20474	16.522	0.72727	0.	-3.4791e-003
20475	16.43	0.63636	0.	-3.9524e-003
20476	16.43	0.72727	5.e-002	4.0097e-006
20477	16.707	0.72727	0.	-3.5814e-003
20478	16.614	0.63636	0.	-4.0829e-003
20479	16.614	0.72727	5.e-002	4.0243e-006
20480	16.891	0.72727	0.	-3.6961e-003
20481	16.799	0.63636	0.	-4.2189e-003
20482	16.799	0.72727	5.e-002	5.1621e-006
20483	17.076	0.72727	0.	-3.8102e-003
20484	16.984	0.63636	0.	-4.3748e-003
20485	16.984	0.72727	5.e-002	2.9406e-006
20486	17.261	0.72727	0.	-3.9129e-003
20487	17.168	0.63636	0.	-4.5133e-003
20488	17.168	0.72727	5.e-002	1.2188e-006
20489	17.445	0.72727	0.	-4.0188e-003
20490	17.353	0.63636	0.	-4.6497e-003
20491	17.353	0.72727	5.e-002	1.7139e-006
20492	17.63	0.72727	0.	-4.1291e-003
20493	17.538	0.63636	0.	-4.7975e-003
20494	17.538	0.72727	5.e-002	1.4392e-006
20495	17.815	0.72727	0.	-4.2386e-003
20496	17.722	0.63636	0.	-4.945e-003
20497	17.722	0.72727	5.e-002	9.8594e-007
20498	17.999	0.72727	0.	-4.35e-003
20499	17.907	0.63636	0.	-5.0972e-003
20500	17.907	0.72727	5.e-002	-8.8061e-007
20501	18.184	0.72727	0.	-4.4644e-003
20502	18.092	0.63636	0.	-5.2554e-003
20503	18.092	0.72727	5.e-002	-3.3373e-007
20504	18.368	0.72727	0.	-4.5804e-003
20505	18.276	0.63636	0.	-5.4179e-003
20506	18.276	0.72727	5.e-002	-2.8217e-006
20507	18.553	0.72727	0.	-4.6978e-003
20508	18.461	0.63636	0.	-5.5851e-003
20509	18.461	0.72727	5.e-002	5.0187e-007
20510	18.738	0.72727	0.	-4.8167e-003
20511	18.645	0.63636	0.	-5.7592e-003
20512	18.645	0.72727	5.e-002	3.6492e-006
20513	18.922	0.72727	0.	-4.9366e-003
20514	18.83	0.63636	0.	-5.9403e-003
20515	18.83	0.72727	5.e-002	4.8345e-006
20516	19.107	0.72727	0.	-5.0571e-003
20517	19.015	0.63636	0.	-6.1264e-003
20518	19.015	0.72727	5.e-002	4.5856e-006
20519	19.292	0.72727	0.	-5.1775e-003
20520	19.199	0.63636	0.	-6.3205e-003
20521	19.199	0.72727	5.e-002	3.8615e-006
20522	19.476	0.72727	0.	-5.2952e-003
20523	19.384	0.63636	0.	-6.5198e-003
20524	19.384	0.72727	5.e-002	4.3511e-006
20525	19.661	0.72727	0.	-5.4081e-003
20526	19.569	0.63636	0.	-6.7231e-003
20527	19.569	0.72727	5.e-002	3.4255e-006
20528	19.846	0.72727	0.	-5.5142e-003
20529	19.753	0.63636	0.	-6.9313e-003
20530	19.753	0.72727	5.e-002	6.3945e-006
20531	20.03	0.72727	0.	-5.6091e-003
20532	19.938	0.63636	0.	-7.1391e-003
20533	19.938	0.72727	5.e-002	3.9279e-006
20534	20.215	0.72727	0.	-5.687e-003
20535	20.123	0.63636	0.	-7.3485e-003
20536	20.123	0.72727	5.e-002	2.5089e-006
20537	20.4	0.72727	0.	-5.7408e-003
20538	20.307	0.63636	0.	-7.5489e-003
20539	20.307	0.72727	5.e-002	6.5777e-006
20540	20.584	0.72727	0.	-5.7608e-003
20541	20.492	0.63636	0.	-7.7403e-003
20542	20.492	0.72727	5.e-002	5.025e-006
20543	20.769	0.72727	0.	-5.7348e-003
20544	20.676	0.63636	0.	-7.9098e-003
20545	20.676	0.72727	5.e-002	2.2818e-006
20546	20.953	0.72727	0.	-5.6449e-003
20547	20.861	0.63636	0.	-8.0488e-003
20548	20.861	0.72727	5.e-002	-3.8957e-007
20549	21.138	0.72727	0.	-5.468e-003
20550	21.046	0.63636	0.	-8.1398e-003
20551	21.046	0.72727	5.e-002	-2.9402e-008
20552	21.323	0.72727	0.	-5.1719e-003
20553	21.23	0.63636	0.	-8.1592e-003
20554	21.23	0.72727	5.e-002	2.7362e-006
20555	21.507	0.72727	0.	-4.7127e-003
20556	21.415	0.63636	0.	-8.0751e-003
20557	21.415	0.72727	5.e-002	6.6546e-006
20558	21.692	0.72727	0.	-4.0273e-003
20559	21.6	0.63636	0.	-7.8461e-003
20560	21.6	0.72727	5.e-002	6.3571e-006
20561	21.877	0.72727	0.	-3.0313e-003
20562	21.784	0.63636	0.	-7.403e-003
20563	21.784	0.72727	5.e-002	1.5522e-006
20564	22.061	0.72727	0.	-1.602e-003
20565	21.969	0.63636	0.	-6.6632e-003
20566	21.969	0.72727	5.e-002	-1.7691e-006
20567	22.246	0.72727	0.	4.4212e-004
20568	22.154	0.63636	0.	-5.4839e-003
20569	22.154	0.72727	5.e-002	-8.8216e-006
20570	22.431	0.72727	0.	3.3873e-003
20571	22.338	0.63636	0.	-3.6699e-003
20572	22.338	0.72727	5.e-002	-1.4431e-005
20573	22.615	0.72727	0.	7.5961e-003
20574	22.523	0.63636	0.	-8.6616e-004
20575	22.523	0.72727	5.e-002	-1.1914e-005
20576	22.8	0.72727	0.	1.3969e-002
20577	22.708	0.63636	0.	3.2843e-003
20578	22.708	0.72727	5.e-002	-8.7899e-006
20579	22.984	0.72727	0.	2.2753e-002
20580	22.892	0.63636	0.	1.0207e-002
20581	22.892	0.72727	5.e-002	-1.2532e-005
20582	23.169	0.72727	0.	3.9578e-002
20583	23.077	0.63636	0.	1.9074e-002
20584	23.077	0.72727	5.e-002	-7.7401e-006
20585	23.354	0.72727	0.	5.5013e-002
20586	23.261	0.63636	0.	4.2127e-002
20587	23.261	0.72727	5.e-002	-6.9215e-006
20588	23.538	0.72727	0.	0.13474
20589	23.446	0.63636	0.	4.851e-002
20590	23.446	0.72727	5.e-002	-1.0398e-005
20591	23.723	0.72727	0.	9.0051e-002
20592	23.631	0.63636	0.	0.20445
20593	23.631	0.72727	5.e-002	-1.5217e-005
20594	23.815	0.63636	0.	-4.9129e-003
20595	23.815	0.72727	5.e-002	-5.2819e-006
20596	23.908	0.72727	0.	0.36613
20597	5.4436	0.54545	0.	-7.1042
20598	5.3513	0.45455	0.	-10.953
20599	5.3513	0.54545	5.e-002	-2.7837e-005
20600	5.259	0.54545	0.	2.2543
20601	5.6283	0.54545	0.	-3.4117
20602	5.5359	0.45455	0.	-3.9404
20603	5.5359	0.54545	5.e-002	1.0905e-005
20604	5.8129	0.54545	0.	-2.7841
20605	5.7206	0.45455	0.	-3.6923
20606	5.7206	0.54545	5.e-002	3.4771e-005
20607	5.9975	0.54545	0.	-1.7024
20608	5.9052	0.45455	0.	-1.9245
20609	5.9052	0.54545	5.e-002	5.13e-005
20610	6.1822	0.54545	0.	-1.1407
20611	6.0899	0.45455	0.	-1.2169
20612	6.0899	0.54545	5.e-002	5.404e-005
20613	6.3668	0.54545	0.	-0.77452
20614	6.2745	0.45455	0.	-0.77858
20615	6.2745	0.54545	5.e-002	6.0914e-005
20616	6.5515	0.54545	0.	-0.55387
20617	6.4592	0.45455	0.	-0.54971
20618	6.4592	0.54545	5.e-002	6.0568e-005
20619	6.7361	0.54545	0.	-0.41003
20620	6.6438	0.45455	0.	-0.40598
20621	6.6438	0.54545	5.e-002	5.5137e-005
20622	6.9208	0.54545	0.	-0.31601
20623	6.8284	0.45455	0.	-0.31228
20624	6.8284	0.54545	5.e-002	6.4254e-005
20625	7.1054	0.54545	0.	-0.25461
20626	7.0131	0.45455	0.	-0.24681
20627	7.0131	0.54545	5.e-002	6.5237e-005
20628	7.29	0.54545	0.	-0.21695
20629	7.1977	0.45455	0.	-0.20045
20630	7.1977	0.54545	5.e-002	8.4046e-005
20631	7.4747	0.54545	0.	-0.19883
20632	7.3824	0.45455	0.	-0.16832
20633	7.3824	0.54545	5.e-002	1.1266e-004
20634	7.6593	0.54545	0.	-0.20127
20635	7.567	0.45455	0.	-0.14866
20636	7.567	0.54545	5.e-002	1.7879e-004
20637	7.844	0.54545	0.	-0.23626
20638	7.7516	0.45455	0.	-0.14253
20639	7.7516	0.54545	5.e-002	2.512e-004
20640	8.0286	0.54545	0.	-0.36475
20641	7.9363	0.45455	0.	-0.15731
20642	7.9363	0.54545	5.e-002	1.6236e-004
20643	8.2132	0.54545	0.	-1.221
20644	8.1209	0.45455	0.	-0.2277
20645	8.1209	0.54545	5.e-002	7.0095e-005
20646	8.3979	0.54545	0.	-5.2357
20647	8.3056	0.45455	0.	-0.69702
20648	8.3056	0.54545	5.e-002	3.9734e-005
20649	8.5825	0.54545	0.	-9.2601
20650	8.4902	0.45455	0.	-3.6453
20651	8.4902	0.54545	5.e-002	1.7928e-005
20652	8.7672	0.54545	0.	-12.286
20653	8.6748	0.45455	0.	-6.8279
20654	8.6748	0.54545	5.e-002	1.6767e-005
20655	8.9518	0.54545	0.	-14.392
20656	8.8595	0.45455	0.	-9.1861
20657	8.8595	0.54545	5.e-002	1.0015e-005
20658	9.1364	0.54545	0.	-15.719
20659	9.0441	0.45455	0.	-10.788
20660	9.0441	0.54545	5.e-002	8.5691e-006
20661	9.3211	0.54545	0.	-16.402
20662	9.2288	0.45455	0.	-11.753
20663	9.2288	0.54545	5.e-002	7.3901e-006
20664	9.5057	0.54545	0.	-16.561
20665	9.4134	0.45455	0.	-12.195
20666	9.4134	0.54545	5.e-002	7.3123e-006
20667	9.6904	0.54545	0.	-16.303
20668	9.598	0.45455	0.	-12.216
20669	9.598	0.54545	5.e-002	7.2611e-006
20670	9.875	0.54545	0.	-15.72
20671	9.7827	0.45455	0.	-11.904
20672	9.7827	0.54545	5.e-002	6.5426e-006
20673	10.06	0.54545	0.	-14.887
20674	9.9673	0.45455	0.	-11.331
20675	9.9673	0.54545	5.e-002	5.9081e-006
20676	10.244	0.54545	0.	-13.868
20677	10.152	0.45455	0.	-10.562
20678	10.152	0.54545	5.e-002	5.7322e-006
20679	10.429	0.54545	0.	-12.717
20680	10.337	0.45455	0.	-9.648
20681	10.337	0.54545	5.e-002	5.307e-006
20682	10.614	0.54545	0.	-11.477
20683	10.521	0.45455	0.	-8.6314
20684	10.521	0.54545	5.e-002	6.2554e-006
20685	10.798	0.54545	0.	-10.182
20686	10.706	0.45455	0.	-7.547
20687	10.706	0.54545	5.e-002	5.7337e-006
20688	10.983	0.54545	0.	-8.86
20689	10.891	0.45455	0.	-6.4225
20690	10.891	0.54545	5.e-002	4.4998e-006
20691	11.167	0.54545	0.	-7.533
20692	11.075	0.45455	0.	-5.28
20693	11.075	0.54545	5.e-002	3.838e-006
20694	11.352	0.54545	0.	-6.2175
20695	11.26	0.45455	0.	-4.1366
20696	11.26	0.54545	5.e-002	3.2248e-006
20697	11.537	0.54545	0.	-4.9264
20698	11.444	0.45455	0.	-3.0056
20699	11.444	0.54545	5.e-002	2.2153e-006
20700	11.721	0.54545	0.	-3.6689
20701	11.629	0.45455	0.	-1.897
20702	11.629	0.54545	5.e-002	2.0625e-006
20703	11.906	0.54545	0.	-2.4518
20704	11.814	0.45455	0.	-0.8178
20705	11.814	0.54545	5.e-002	2.1868e-006
20706	12.091	0.54545	0.	-1.2798
20707	11.998	0.45455	0.	8.6593e-003
20708	11.998	0.54545	5.e-002	-5.0133e-008
20709	12.275	0.54545	0.	-0.16622
20710	12.183	0.45455	0.	7.4711e-003
20711	12.183	0.54545	5.e-002	-3.2341e-006
20712	12.46	0.54545	0.	-3.786e-004
20713	12.368	0.45455	0.	6.3e-003
20714	12.368	0.54545	5.e-002	-1.4054e-006
20715	12.645	0.54545	0.	3.7899e-004
20716	12.552	0.45455	0.	5.1746e-003
20717	12.552	0.54545	5.e-002	7.214e-007
20718	12.829	0.54545	0.	2.5569e-004
20719	12.737	0.45455	0.	4.1183e-003
20720	12.737	0.54545	5.e-002	6.5993e-007
20721	13.014	0.54545	0.	-2.7825e-005
20722	12.922	0.45455	0.	3.1464e-003
20723	12.922	0.54545	5.e-002	9.5358e-007
20724	13.199	0.54545	0.	-3.5456e-004
20725	13.106	0.45455	0.	2.2366e-003
20726	13.106	0.54545	5.e-002	7.2825e-007
20727	13.383	0.54545	0.	-6.855e-004
20728	13.291	0.45455	0.	1.3884e-003
20729	13.291	0.54545	5.e-002	9.1578e-007
20730	13.568	0.54545	0.	-1.0071e-003
20731	13.475	0.45455	0.	5.955e-004
20732	13.475	0.54545	5.e-002	1.3405e-006
20733	13.752	0.54545	0.	-1.3149e-003
20734	13.66	0.45455	0.	-1.451e-004
20735	13.66	0.54545	5.e-002	1.506e-006
20736	13.937	0.54545	0.	-1.6065e-003
20737	13.845	0.45455	0.	-8.3905e-004
20738	13.845	0.54545	5.e-002	9.9216e-007
20739	14.122	0.54545	0.	-1.8826e-003
20740	14.029	0.45455	0.	-1.4894e-003
20741	14.029	0.54545	5.e-002	1.5529e-006
20742	14.306	0.54545	0.	-2.1447e-003
20743	14.214	0.45455	0.	-2.1026e-003
20744	14.214	0.54545	5.e-002	2.6637e-006
20745	14.491	0.54545	0.	-2.3927e-003
20746	14.399	0.45455	0.	-2.68e-003
20747	14.399	0.54545	5.e-002	2.9201e-006
20748	14.676	0.54545	0.	-2.6274e-003
20749	14.583	0.45455	0.	-3.2264e-003
20750	14.583	0.54545	5.e-002	2.0338e-006
20751	14.86	0.54545	0.	-2.85e-003
20752	14.768	0.45455	0.	-3.7448e-003
20753	14.768	0.54545	5.e-002	3.0532e-006
20754	15.045	0.54545	0.	-3.0625e-003
20755	14.953	0.45455	0.	-4.2385e-003
20756	14.953	0.54545	5.e-002	2.6237e-006
20757	15.23	0.54545	0.	-3.2661e-003
20758	15.137	0.45455	0.	-4.7106e-003
20759	15.137	0.54545	5.e-002	5.1816e-006
20760	15.414	0.54545	0.	-3.4608e-003
20761	15.322	0.45455	0.	-5.1647e-003
20762	15.322	0.54545	5.e-002	6.2345e-006
20763	15.599	0.54545	0.	-3.6499e-003
20764	15.507	0.45455	0.	-5.602e-003
20765	15.507	0.54545	5.e-002	4.5449e-006
20766	15.783	0.54545	0.	-3.835e-003
20767	15.691	0.45455	0.	-6.0295e-003
20768	15.691	0.54545	5.e-002	3.7697e-006
20769	15.968	0.54545	0.	-4.015e-003
20770	15.876	0.45455	0.	-6.4459e-003
20771	15.876	0.54545	5.e-002	2.7213e-006
20772	16.153	0.54545	0.	-4.1914e-003
20773	16.06	0.45455	0.	-6.855e-003
20774	16.06	0.54545	5.e-002	3.4147e-006
20775	16.337	0.54545	0.	-4.3668e-003
20776	16.245	0.45455	0.	-7.26e-003
20777	16.245	0.54545	5.e-002	3.6972e-006
20778	16.522	0.54545	0.	-4.538e-003
20779	16.43	0.45455	0.	-7.6639e-003
20780	16.43	0.54545	5.e-002	4.2848e-006
20781	16.707	0.54545	0.	-4.706e-003
20782	16.614	0.45455	0.	-8.0614e-003
20783	16.614	0.54545	5.e-002	3.9624e-006
20784	16.891	0.54545	0.	-4.8873e-003
20785	16.799	0.45455	0.	-8.4642e-003
20786	16.799	0.54545	5.e-002	5.6866e-006
20787	17.076	0.54545	0.	-5.072e-003
20788	16.984	0.45455	0.	-8.8943e-003
20789	16.984	0.54545	5.e-002	4.7452e-006
20790	17.261	0.54545	0.	-5.2491e-003
20791	17.168	0.45455	0.	-9.3145e-003
20792	17.168	0.54545	5.e-002	8.0972e-007
20793	17.445	0.54545	0.	-5.4327e-003
20794	17.353	0.45455	0.	-9.7421e-003
20795	17.353	0.54545	5.e-002	-1.4923e-006
20796	17.63	0.54545	0.	-5.6233e-003
20797	17.538	0.45455	0.	-1.0192e-002
20798	17.538	0.54545	5.e-002	2.0341e-007
20799	17.815	0.54545	0.	-5.8199e-003
20800	17.722	0.45455	0.	-1.0658e-002
20801	17.722	0.54545	5.e-002	-1.4893e-006
20802	17.999	0.54545	0.	-6.0257e-003
20803	17.907	0.45455	0.	-1.1143e-002
20804	17.907	0.54545	5.e-002	-3.0519e-006
20805	18.184	0.54545	0.	-6.2397e-003
20806	18.092	0.45455	0.	-1.1654e-002
20807	18.092	0.54545	5.e-002	-2.3284e-006
20808	18.368	0.54545	0.	-6.462e-003
20809	18.276	0.45455	0.	-1.2191e-002
20810	18.276	0.54545	5.e-002	-8.1067e-007
20811	18.553	0.54545	0.	-6.6954e-003
20812	18.461	0.45455	0.	-1.2758e-002
20813	18.461	0.54545	5.e-002	6.9005e-007
20814	18.738	0.54545	0.	-6.9424e-003
20815	18.645	0.45455	0.	-1.3359e-002
20816	18.645	0.54545	5.e-002	2.8295e-006
20817	18.922	0.54545	0.	-7.2017e-003
20818	18.83	0.45455	0.	-1.4e-002
20819	18.83	0.54545	5.e-002	5.6692e-006
20820	19.107	0.54545	0.	-7.475e-003
20821	19.015	0.45455	0.	-1.4679e-002
20822	19.015	0.54545	5.e-002	4.3371e-006
20823	19.292	0.54545	0.	-7.7635e-003
20824	19.199	0.45455	0.	-1.5408e-002
20825	19.199	0.54545	5.e-002	5.2291e-006
20826	19.476	0.54545	0.	-8.066e-003
20827	19.384	0.45455	0.	-1.6188e-002
20828	19.384	0.54545	5.e-002	7.7759e-006
20829	19.661	0.54545	0.	-8.3849e-003
20830	19.569	0.45455	0.	-1.7021e-002
20831	19.569	0.54545	5.e-002	5.143e-006
20832	19.846	0.54545	0.	-8.7179e-003
20833	19.753	0.45455	0.	-1.7914e-002
20834	19.753	0.54545	5.e-002	6.5253e-006
20835	20.03	0.54545	0.	-9.0668e-003
20836	19.938	0.45455	0.	-1.8875e-002
20837	19.938	0.54545	5.e-002	6.1926e-006
20838	20.215	0.54545	0.	-9.4295e-003
20839	20.123	0.45455	0.	-1.9906e-002
20840	20.123	0.54545	5.e-002	3.1347e-006
20841	20.4	0.54545	0.	-9.8032e-003
20842	20.307	0.45455	0.	-2.1013e-002
20843	20.307	0.54545	5.e-002	5.8314e-006
20844	20.584	0.54545	0.	-1.0186e-002
20845	20.492	0.45455	0.	-2.2202e-002
20846	20.492	0.54545	5.e-002	5.0575e-006
20847	20.769	0.54545	0.	-1.0569e-002
20848	20.676	0.45455	0.	-2.3477e-002
20849	20.676	0.54545	5.e-002	2.1716e-006
20850	20.953	0.54545	0.	-1.0946e-002
20851	20.861	0.45455	0.	-2.4843e-002
20852	20.861	0.54545	5.e-002	-2.7013e-006
20853	21.138	0.54545	0.	-1.1301e-002
20854	21.046	0.45455	0.	-2.6304e-002
20855	21.046	0.54545	5.e-002	-1.5071e-006
20856	21.323	0.54545	0.	-1.1614e-002
20857	21.23	0.45455	0.	-2.7855e-002
20858	21.23	0.54545	5.e-002	1.8767e-006
20859	21.507	0.54545	0.	-1.1858e-002
20860	21.415	0.45455	0.	-2.9498e-002
20861	21.415	0.54545	5.e-002	8.4512e-006
20862	21.692	0.54545	0.	-1.199e-002
20863	21.6	0.45455	0.	-3.1226e-002
20864	21.6	0.54545	5.e-002	9.1882e-006
20865	21.877	0.54545	0.	-1.195e-002
20866	21.784	0.45455	0.	-3.3012e-002
20867	21.784	0.54545	5.e-002	3.5473e-006
20868	22.061	0.54545	0.	-1.1645e-002
20869	21.969	0.45455	0.	-3.4835e-002
20870	21.969	0.54545	5.e-002	-9.2546e-006
20871	22.246	0.54545	0.	-1.0931e-002
20872	22.154	0.45455	0.	-3.6625e-002
20873	22.154	0.54545	5.e-002	-1.381e-005
20874	22.431	0.54545	0.	-9.5658e-003
20875	22.338	0.45455	0.	-3.8288e-002
20876	22.338	0.54545	5.e-002	-1.8526e-005
20877	22.615	0.54545	0.	-7.2357e-003
20878	22.523	0.45455	0.	-3.9601e-002
20879	22.523	0.54545	5.e-002	-1.0151e-005
20880	22.8	0.54545	0.	-3.1211e-003
20881	22.708	0.45455	0.	-4.037e-002
20882	22.708	0.54545	5.e-002	-8.9175e-006
20883	22.984	0.54545	0.	3.e-003
20884	22.892	0.45455	0.	-3.946e-002
20885	22.892	0.54545	5.e-002	-1.0895e-005
20886	23.169	0.54545	0.	1.6605e-002
20887	23.077	0.45455	0.	-3.7847e-002
20888	23.077	0.54545	5.e-002	-9.4346e-006
20889	23.354	0.54545	0.	2.7565e-002
20890	23.261	0.45455	0.	-2.467e-002
20891	23.261	0.54545	5.e-002	-8.3771e-006
20892	23.538	0.54545	0.	0.10148
20893	23.446	0.45455	0.	-2.8536e-002
20894	23.446	0.54545	5.e-002	-1.0249e-005
20895	23.723	0.54545	0.	4.7304e-002
20896	23.631	0.45455	0.	9.9229e-002
20897	23.631	0.54545	5.e-002	-2.0658e-005
20898	23.815	0.45455	0.	-0.15346
20899	23.815	0.54545	5.e-002	-4.4476e-006
20900	23.908	0.54545	0.	0.35346
20901	5.4436	0.36364	0.	-10.579
20902	5.3513	0.27273	0.	-18.587
20903	5.3513	0.36364	5.e-002	-2.4658e-005
20904	5.259	0.36364	0.	3.5976
20905	5.6283	0.36364	0.	-4.8881
20906	5.5359	0.27273	0.	-7.1089
20907	5.5359	0.36364	5.e-002	3.6677e-006
20908	5.8129	0.36364	0.	-2.8133
20909	5.7206	0.27273	0.	-4.0316
20910	5.7206	0.36364	5.e-002	1.2967e-005
20911	5.9975	0.36364	0.	-1.3592
20912	5.9052	0.27273	0.	-1.4597
20913	5.9052	0.36364	5.e-002	2.2675e-005
20914	6.1822	0.36364	0.	-0.81525
20915	6.0899	0.27273	0.	-0.6274
20916	6.0899	0.36364	5.e-002	2.5782e-005
20917	6.3668	0.36364	0.	-0.54562
20918	6.2745	0.27273	0.	-0.251
20919	6.2745	0.36364	5.e-002	2.3756e-005
20920	6.5515	0.36364	0.	-0.41101
20921	6.4592	0.27273	0.	-0.12244
20922	6.4592	0.36364	5.e-002	1.9895e-005
20923	6.7361	0.36364	0.	-0.32614
20924	6.6438	0.27273	0.	-7.4703e-002
20925	6.6438	0.36364	5.e-002	1.5505e-005
20926	6.9208	0.36364	0.	-0.2651
20927	6.8284	0.27273	0.	-5.9069e-002
20928	6.8284	0.36364	5.e-002	1.5343e-005
20929	7.1054	0.36364	0.	-0.21652
20930	7.0131	0.27273	0.	-5.208e-002
20931	7.0131	0.36364	5.e-002	1.3152e-005
20932	7.29	0.36364	0.	-0.17675
20933	7.1977	0.27273	0.	-4.6792e-002
20934	7.1977	0.36364	5.e-002	1.4514e-005
20935	7.4747	0.36364	0.	-0.14457
20936	7.3824	0.27273	0.	-4.1365e-002
20937	7.3824	0.36364	5.e-002	1.9664e-005
20938	7.6593	0.36364	0.	-0.11994
20939	7.567	0.27273	0.	-3.6225e-002
20940	7.567	0.36364	5.e-002	4.4527e-005
20941	7.844	0.36364	0.	-0.10378
20942	7.7516	0.27273	0.	-3.2494e-002
20943	7.7516	0.36364	5.e-002	1.2111e-004
20944	8.0286	0.36364	0.	-9.9196e-002
20945	7.9363	0.27273	0.	-3.1768e-002
20946	7.9363	0.36364	5.e-002	2.0216e-004
20947	8.2132	0.36364	0.	-0.11743
20948	8.1209	0.27273	0.	-3.6748e-002
20949	8.1209	0.36364	5.e-002	4.7295e-005
20950	8.3979	0.36364	0.	-0.22608
20951	8.3056	0.27273	0.	-5.4025e-002
20952	8.3056	0.36364	5.e-002	2.1942e-005
20953	8.5825	0.36364	0.	-1.3507
20954	8.4902	0.27273	0.	-0.10965
20955	8.4902	0.36364	5.e-002	1.1655e-005
20956	8.7672	0.36364	0.	-3.7312
20957	8.6748	0.27273	0.	-0.41672
20958	8.6748	0.36364	5.e-002	8.5308e-006
20959	8.9518	0.36364	0.	-5.5711
20960	8.8595	0.27273	0.	-1.5976
20961	8.8595	0.36364	5.e-002	7.0265e-006
20962	9.1364	0.36364	0.	-6.8078
20963	9.0441	0.27273	0.	-2.7044
20964	9.0441	0.36364	5.e-002	7.1643e-006
20965	9.3211	0.36364	0.	-7.5318
20966	9.2288	0.27273	0.	-3.4096
20967	9.2288	0.36364	5.e-002	7.6715e-006
20968	9.5057	0.36364	0.	-7.8353
20969	9.4134	0.27273	0.	-3.7551
20970	9.4134	0.36364	5.e-002	7.0774e-006
20971	9.6904	0.36364	0.	-7.8009
20972	9.598	0.27273	0.	-3.8043
20973	9.598	0.36364	5.e-002	6.6365e-006
20974	9.875	0.36364	0.	-7.4993
20975	9.7827	0.27273	0.	-3.6165
20976	9.7827	0.36364	5.e-002	5.6718e-006
20977	10.06	0.36364	0.	-6.9909
20978	9.9673	0.27273	0.	-3.2432
20979	9.9673	0.36364	5.e-002	6.7231e-006
20980	10.244	0.36364	0.	-6.3259
20981	10.152	0.27273	0.	-2.7284
20982	10.152	0.36364	5.e-002	6.4716e-006
20983	10.429	0.36364	0.	-5.5459
20984	10.337	0.27273	0.	-2.1103
20985	10.337	0.36364	5.e-002	5.4584e-006
20986	10.614	0.36364	0.	-4.685
20987	10.521	0.27273	0.	-1.4247
20988	10.521	0.36364	5.e-002	6.2891e-006
20989	10.798	0.36364	0.	-3.771
20990	10.706	0.27273	0.	-0.72345
20991	10.706	0.36364	5.e-002	5.5676e-006
20992	10.983	0.36364	0.	-2.826
20993	10.891	0.27273	0.	-0.20204
20994	10.891	0.36364	5.e-002	6.0261e-006
20995	11.167	0.36364	0.	-1.8679
20996	11.075	0.27273	0.	-5.905e-002
20997	11.075	0.36364	5.e-002	4.2111e-006
20998	11.352	0.36364	0.	-0.91219
20999	11.26	0.27273	0.	-2.5029e-002
21000	11.26	0.36364	5.e-002	2.7876e-006
21001	11.537	0.36364	0.	-5.0388e-002
21002	11.444	0.27273	0.	-1.217e-002
21003	11.444	0.36364	5.e-002	2.6428e-006
21004	11.721	0.36364	0.	1.1348e-002
21005	11.629	0.27273	0.	-6.0854e-003
21006	11.629	0.36364	5.e-002	1.7616e-006
21007	11.906	0.36364	0.	1.2594e-002
21008	11.814	0.27273	0.	-2.9022e-003
21009	11.814	0.36364	5.e-002	2.3577e-006
21010	12.091	0.36364	0.	1.174e-002
21011	11.998	0.27273	0.	-1.1999e-003
21012	11.998	0.36364	5.e-002	1.2862e-006
21013	12.275	0.36364	0.	1.0452e-002
21014	12.183	0.27273	0.	-3.0858e-004
21015	12.183	0.36364	5.e-002	1.5136e-007
21016	12.46	0.36364	0.	9.0474e-003
21017	12.368	0.27273	0.	1.2594e-004
21018	12.368	0.36364	5.e-002	3.7436e-007
21019	12.645	0.36364	0.	7.6183e-003
21020	12.552	0.27273	0.	2.3183e-004
21021	12.552	0.36364	5.e-002	2.1702e-007
21022	12.829	0.36364	0.	6.2297e-003
21023	12.737	0.27273	0.	1.4179e-004
21024	12.737	0.36364	5.e-002	5.2434e-007
21025	13.014	0.36364	0.	4.9024e-003
21026	12.922	0.27273	0.	-5.4326e-005
21027	12.922	0.36364	5.e-002	1.705e-006
21028	13.199	0.36364	0.	3.6232e-003
21029	13.106	0.27273	0.	-3.2929e-004
21030	13.106	0.36364	5.e-002	1.3054e-006
21031	13.383	0.36364	0.	2.4406e-003
21032	13.291	0.27273	0.	-6.4894e-004
21033	13.291	0.36364	5.e-002	-2.895e-007
21034	13.568	0.36364	0.	1.3083e-003
21035	13.475	0.27273	0.	-9.9614e-004
21036	13.475	0.36364	5.e-002	9.8021e-007
21037	13.752	0.36364	0.	2.3968e-004
21038	13.66	0.27273	0.	-1.3558e-003
21039	13.66	0.36364	5.e-002	1.1526e-006
21040	13.937	0.36364	0.	-7.6921e-004
21041	13.845	0.27273	0.	-1.7197e-003
21042	13.845	0.36364	5.e-002	-2.8167e-008
21043	14.122	0.36364	0.	-1.7231e-003
21044	14.029	0.27273	0.	-2.0823e-003
21045	14.029	0.36364	5.e-002	2.0146e-006
21046	14.306	0.36364	0.	-2.6255e-003
21047	14.214	0.27273	0.	-2.4406e-003
21048	14.214	0.36364	5.e-002	3.0678e-006
21049	14.491	0.36364	0.	-3.4807e-003
21050	14.399	0.27273	0.	-2.7912e-003
21051	14.399	0.36364	5.e-002	3.0534e-006
21052	14.676	0.36364	0.	-4.2943e-003
21053	14.583	0.27273	0.	-3.1338e-003
21054	14.583	0.36364	5.e-002	2.8497e-006
21055	14.86	0.36364	0.	-5.0703e-003
21056	14.768	0.27273	0.	-3.4682e-003
21057	14.768	0.36364	5.e-002	3.8486e-006
21058	15.045	0.36364	0.	-5.8126e-003
21059	14.953	0.27273	0.	-3.7935e-003
21060	14.953	0.36364	5.e-002	2.9981e-006
21061	15.23	0.36364	0.	-6.5261e-003
21062	15.137	0.27273	0.	-4.1113e-003
21063	15.137	0.36364	5.e-002	5.5822e-006
21064	15.414	0.36364	0.	-7.2151e-003
21065	15.322	0.27273	0.	-4.4223e-003
21066	15.322	0.36364	5.e-002	5.9765e-006
21067	15.599	0.36364	0.	-7.8842e-003
21068	15.507	0.27273	0.	-4.7287e-003
21069	15.507	0.36364	5.e-002	5.374e-006
21070	15.783	0.36364	0.	-8.5375e-003
21071	15.691	0.27273	0.	-5.0307e-003
21072	15.691	0.36364	5.e-002	4.5618e-006
21073	15.968	0.36364	0.	-9.1781e-003
21074	15.876	0.27273	0.	-5.3301e-003
21075	15.876	0.36364	5.e-002	3.1058e-006
21076	16.153	0.36364	0.	-9.8117e-003
21077	16.06	0.27273	0.	-5.6297e-003
21078	16.06	0.36364	5.e-002	2.7807e-006
21079	16.337	0.36364	0.	-1.0441e-002
21080	16.245	0.27273	0.	-5.9299e-003
21081	16.245	0.36364	5.e-002	3.6546e-006
21082	16.522	0.36364	0.	-1.1068e-002
21083	16.43	0.27273	0.	-6.2347e-003
21084	16.43	0.36364	5.e-002	4.6849e-006
21085	16.707	0.36364	0.	-1.1697e-002
21086	16.614	0.27273	0.	-6.5371e-003
21087	16.614	0.36364	5.e-002	5.2418e-006
21088	16.891	0.36364	0.	-1.2346e-002
21089	16.799	0.27273	0.	-6.8506e-003
21090	16.799	0.36364	5.e-002	5.6933e-006
21091	17.076	0.36364	0.	-1.301e-002
21092	16.984	0.27273	0.	-7.1923e-003
21093	16.984	0.36364	5.e-002	4.8576e-006
21094	17.261	0.36364	0.	-1.3678e-002
21095	17.168	0.27273	0.	-7.5299e-003
21096	17.168	0.36364	5.e-002	1.5445e-007
21097	17.445	0.36364	0.	-1.437e-002
21098	17.353	0.27273	0.	-7.8775e-003
21099	17.353	0.36364	5.e-002	-2.1528e-006
21100	17.63	0.36364	0.	-1.5094e-002
21101	17.538	0.27273	0.	-8.2511e-003
21102	17.538	0.36364	5.e-002	-2.5389e-006
21103	17.815	0.36364	0.	-1.5847e-002
21104	17.722	0.27273	0.	-8.6469e-003
21105	17.722	0.36364	5.e-002	-2.9653e-006
21106	17.999	0.36364	0.	-1.6637e-002
21107	17.907	0.27273	0.	-9.0657e-003
21108	17.907	0.36364	5.e-002	-2.7905e-006
21109	18.184	0.36364	0.	-1.747e-002
21110	18.092	0.27273	0.	-9.5153e-003
21111	18.092	0.36364	5.e-002	-1.1417e-006
21112	18.368	0.36364	0.	-1.8352e-002
21113	18.276	0.27273	0.	-9.9986e-003
21114	18.276	0.36364	5.e-002	6.4528e-007
21115	18.553	0.36364	0.	-1.9288e-002
21116	18.461	0.27273	0.	-1.0519e-002
21117	18.461	0.36364	5.e-002	8.2287e-007
21118	18.738	0.36364	0.	-2.0285e-002
21119	18.645	0.27273	0.	-1.1084e-002
21120	18.645	0.36364	5.e-002	2.5528e-006
21121	18.922	0.36364	0.	-2.1348e-002
21122	18.83	0.27273	0.	-1.1699e-002
21123	18.83	0.36364	5.e-002	6.6385e-006
21124	19.107	0.36364	0.	-2.2488e-002
21125	19.015	0.27273	0.	-1.2368e-002
21126	19.015	0.36364	5.e-002	6.18e-006
21127	19.292	0.36364	0.	-2.3714e-002
21128	19.199	0.27273	0.	-1.3102e-002
21129	19.199	0.36364	5.e-002	5.8753e-006
21130	19.476	0.36364	0.	-2.5031e-002
21131	19.384	0.27273	0.	-1.391e-002
21132	19.384	0.36364	5.e-002	6.9198e-006
21133	19.661	0.36364	0.	-2.6448e-002
21134	19.569	0.27273	0.	-1.4797e-002
21135	19.569	0.36364	5.e-002	4.1643e-006
21136	19.846	0.36364	0.	-2.7983e-002
21137	19.753	0.27273	0.	-1.5777e-002
21138	19.753	0.36364	5.e-002	4.9659e-006
21139	20.03	0.36364	0.	-2.9642e-002
21140	19.938	0.27273	0.	-1.6866e-002
21141	19.938	0.36364	5.e-002	6.2808e-006
21142	20.215	0.36364	0.	-3.1437e-002
21143	20.123	0.27273	0.	-1.8073e-002
21144	20.123	0.36364	5.e-002	3.6799e-006
21145	20.4	0.36364	0.	-3.3386e-002
21146	20.307	0.27273	0.	-1.9417e-002
21147	20.307	0.36364	5.e-002	6.7701e-006
21148	20.584	0.36364	0.	-3.5501e-002
21149	20.492	0.27273	0.	-2.0916e-002
21150	20.492	0.36364	5.e-002	6.1677e-006
21151	20.769	0.36364	0.	-3.7799e-002
21152	20.676	0.27273	0.	-2.2597e-002
21153	20.676	0.36364	5.e-002	3.9517e-006
21154	20.953	0.36364	0.	-4.0301e-002
21155	20.861	0.27273	0.	-2.4479e-002
21156	20.861	0.36364	5.e-002	2.3461e-006
21157	21.138	0.36364	0.	-4.3023e-002
21158	21.046	0.27273	0.	-2.6602e-002
21159	21.046	0.36364	5.e-002	6.1606e-006
21160	21.323	0.36364	0.	-4.5988e-002
21161	21.23	0.27273	0.	-2.8995e-002
21162	21.23	0.36364	5.e-002	1.0968e-005
21163	21.507	0.36364	0.	-4.922e-002
21164	21.415	0.27273	0.	-3.1712e-002
21165	21.415	0.36364	5.e-002	1.1305e-005
21166	21.692	0.36364	0.	-5.2736e-002
21167	21.6	0.27273	0.	-3.4804e-002
21168	21.6	0.36364	5.e-002	8.9276e-006
21169	21.877	0.36364	0.	-5.6562e-002
21170	21.784	0.27273	0.	-3.832e-002
21171	21.784	0.36364	5.e-002	3.3916e-007
21172	22.061	0.36364	0.	-6.0713e-002
21173	21.969	0.27273	0.	-4.2362e-002
21174	21.969	0.36364	5.e-002	-5.6823e-006
21175	22.246	0.36364	0.	-6.5189e-002
21176	22.154	0.27273	0.	-4.7008e-002
21177	22.154	0.36364	5.e-002	-4.2242e-006
21178	22.431	0.36364	0.	-6.9953e-002
21179	22.338	0.27273	0.	-5.2377e-002
21180	22.338	0.36364	5.e-002	-8.1315e-006
21181	22.615	0.36364	0.	-7.4957e-002
21182	22.523	0.27273	0.	-5.8571e-002
21183	22.523	0.36364	5.e-002	3.0864e-007
21184	22.8	0.36364	0.	-7.9791e-002
21185	22.708	0.27273	0.	-6.5837e-002
21186	22.708	0.36364	5.e-002	-4.0113e-006
21187	22.984	0.36364	0.	-8.4701e-002
21188	22.892	0.27273	0.	-7.3828e-002
21189	22.892	0.36364	5.e-002	-6.5707e-006
21190	23.169	0.36364	0.	-8.5658e-002
21191	23.077	0.27273	0.	-8.4294e-002
21192	23.077	0.36364	5.e-002	-4.9962e-006
21193	23.354	0.36364	0.	-9.1291e-002
21194	23.261	0.27273	0.	-8.9935e-002
21195	23.261	0.36364	5.e-002	-1.3509e-006
21196	23.538	0.36364	0.	-5.0877e-002
21197	23.446	0.27273	0.	-0.11513
21198	23.446	0.36364	5.e-002	-1.0614e-005
21199	23.723	0.36364	0.	-0.16317
21200	23.631	0.27273	0.	-5.4656e-002
21201	23.631	0.36364	5.e-002	-1.7749e-005
21202	23.815	0.27273	0.	-0.38613
21203	23.815	0.36364	5.e-002	4.0804e-006
21204	23.908	0.36364	0.	0.15946
21205	5.4436	0.18182	0.	-18.808
21206	5.3513	0.18182	5.e-002	-8.9706e-006
21207	5.3513	9.0909e-002	0.	-15.979
21208	5.259	0.18182	0.	0.17834
21209	5.6283	0.18182	0.	-5.7154
21210	5.5359	0.18182	5.e-002	-4.2964e-006
21211	5.5359	9.0909e-002	0.	-0.93969
21212	5.8129	0.18182	0.	-2.2623
21213	5.7206	0.18182	5.e-002	4.113e-006
21214	5.7206	9.0909e-002	0.	-0.5943
21215	5.9975	0.18182	0.	-0.53491
21216	5.9052	0.18182	5.e-002	5.1032e-006
21217	5.9052	9.0909e-002	0.	0.10749
21218	6.1822	0.18182	0.	2.1572e-002
21219	6.0899	0.18182	5.e-002	4.9958e-006
21220	6.0899	9.0909e-002	0.	5.7991e-002
21221	6.3668	0.18182	0.	0.20447
21222	6.2745	0.18182	5.e-002	4.0918e-006
21223	6.2745	9.0909e-002	0.	5.6011e-002
21224	6.5515	0.18182	0.	0.21711
21225	6.4592	0.18182	5.e-002	4.8622e-007
21226	6.4592	9.0909e-002	0.	2.53e-002
21227	6.7361	0.18182	0.	0.17868
21228	6.6438	0.18182	5.e-002	-1.4295e-006
21229	6.6438	9.0909e-002	0.	1.1459e-002
21230	6.9208	0.18182	0.	0.13107
21231	6.8284	0.18182	5.e-002	-3.5788e-006
21232	6.8284	9.0909e-002	0.	6.1638e-003
21233	7.1054	0.18182	0.	9.0972e-002
21234	7.0131	0.18182	5.e-002	-3.9355e-006
21235	7.0131	9.0909e-002	0.	8.6468e-003
21236	7.29	0.18182	0.	6.1721e-002
21237	7.1977	0.18182	5.e-002	-4.2242e-006
21238	7.1977	9.0909e-002	0.	1.5541e-002
21239	7.4747	0.18182	0.	4.2007e-002
21240	7.3824	0.18182	5.e-002	-3.7891e-006
21241	7.3824	9.0909e-002	0.	2.4758e-002
21242	7.6593	0.18182	0.	2.8979e-002
21243	7.567	0.18182	5.e-002	-2.5931e-006
21244	7.567	9.0909e-002	0.	3.4692e-002
21245	7.844	0.18182	0.	1.9681e-002
21246	7.7516	0.18182	5.e-002	-1.153e-006
21247	7.7516	9.0909e-002	0.	4.4286e-002
21248	8.0286	0.18182	0.	1.1372e-002
21249	7.9363	0.18182	5.e-002	-1.1676e-006
21250	7.9363	9.0909e-002	0.	5.2791e-002
21251	8.2132	0.18182	0.	1.3801e-003
21252	8.1209	0.18182	5.e-002	5.4758e-007
21253	8.1209	9.0909e-002	0.	5.9559e-002
21254	8.3979	0.18182	0.	-1.342e-002
21255	8.3056	0.18182	5.e-002	8.5685e-006
21256	8.3056	9.0909e-002	0.	6.3864e-002
21257	8.5825	0.18182	0.	-3.7602e-002
21258	8.4902	0.18182	5.e-002	8.1529e-005
21259	8.4902	9.0909e-002	0.	6.463e-002
21260	8.7672	0.18182	0.	-7.8623e-002
21261	8.6748	0.18182	5.e-002	2.7284e-004
21262	8.6748	9.0909e-002	0.	6.0131e-002
21263	8.9518	0.18182	0.	-0.14663
21264	8.8595	0.18182	5.e-002	1.3038e-004
21265	8.8595	9.0909e-002	0.	4.8073e-002
21266	9.1364	0.18182	0.	-0.24238
21267	9.0441	0.18182	5.e-002	9.5834e-005
21268	9.0441	9.0909e-002	0.	2.7121e-002
21269	9.3211	0.18182	0.	-0.33155
21270	9.2288	0.18182	5.e-002	7.4831e-005
21271	9.2288	9.0909e-002	0.	5.1326e-004
21272	9.5057	0.18182	0.	-0.36441
21273	9.4134	0.18182	5.e-002	6.5238e-005
21274	9.4134	9.0909e-002	0.	-2.3182e-002
21275	9.6904	0.18182	0.	-0.331
21276	9.598	0.18182	5.e-002	7.252e-005
21277	9.598	9.0909e-002	0.	-3.6975e-002
21278	9.875	0.18182	0.	-0.26142
21279	9.7827	0.18182	5.e-002	6.7726e-005
21280	9.7827	9.0909e-002	0.	-4.057e-002
21281	10.06	0.18182	0.	-0.19108
21282	9.9673	0.18182	5.e-002	5.5077e-005
21283	9.9673	9.0909e-002	0.	-3.7715e-002
21284	10.244	0.18182	0.	-0.13667
21285	10.152	0.18182	5.e-002	5.951e-005
21286	10.152	9.0909e-002	0.	-3.213e-002
21287	10.429	0.18182	0.	-9.877e-002
21288	10.337	0.18182	5.e-002	5.6845e-005
21289	10.337	9.0909e-002	0.	-2.607e-002
21290	10.614	0.18182	0.	-7.2959e-002
21291	10.521	0.18182	5.e-002	6.221e-005
21292	10.521	9.0909e-002	0.	-2.0559e-002
21293	10.798	0.18182	0.	-5.5176e-002
21294	10.706	0.18182	5.e-002	5.9379e-005
21295	10.706	9.0909e-002	0.	-1.5928e-002
21296	10.983	0.18182	0.	-4.2646e-002
21297	10.891	0.18182	5.e-002	4.6764e-005
21298	10.891	9.0909e-002	0.	-1.219e-002
21299	11.167	0.18182	0.	-3.3601e-002
21300	11.075	0.18182	5.e-002	4.5992e-005
21301	11.075	9.0909e-002	0.	-9.2475e-003
21302	11.352	0.18182	0.	-2.6919e-002
21303	11.26	0.18182	5.e-002	4.843e-005
21304	11.26	9.0909e-002	0.	-6.9669e-003
21305	11.537	0.18182	0.	-2.1883e-002
21306	11.444	0.18182	5.e-002	4.7306e-005
21307	11.444	9.0909e-002	0.	-5.2243e-003
21308	11.721	0.18182	0.	-1.8018e-002
21309	11.629	0.18182	5.e-002	4.4038e-005
21310	11.629	9.0909e-002	0.	-3.9097e-003
21311	11.906	0.18182	0.	-1.5006e-002
21312	11.814	0.18182	5.e-002	3.9414e-005
21313	11.814	9.0909e-002	0.	-2.933e-003
21314	12.091	0.18182	0.	-1.2627e-002
21315	11.998	0.18182	5.e-002	4.3142e-005
21316	11.998	9.0909e-002	0.	-2.2352e-003
21317	12.275	0.18182	0.	-1.0704e-002
21318	12.183	0.18182	5.e-002	4.067e-005
21319	12.183	9.0909e-002	0.	-1.7411e-003
21320	12.46	0.18182	0.	-9.1407e-003
21321	12.368	0.18182	5.e-002	4.0039e-005
21322	12.368	9.0909e-002	0.	-1.3814e-003
21323	12.645	0.18182	0.	-7.8745e-003
21324	12.552	0.18182	5.e-002	4.1692e-005
21325	12.552	9.0909e-002	0.	-1.1773e-003
21326	12.829	0.18182	0.	-6.8227e-003
21327	12.737	0.18182	5.e-002	4.3241e-005
21328	12.737	9.0909e-002	0.	-1.0799e-003
21329	13.014	0.18182	0.	-5.9375e-003
21330	12.922	0.18182	5.e-002	4.3638e-005
21331	12.922	9.0909e-002	0.	-1.0437e-003
21332	13.199	0.18182	0.	-5.1904e-003
21333	13.106	0.18182	5.e-002	3.9388e-005
21334	13.106	9.0909e-002	0.	-1.0686e-003
21335	13.383	0.18182	0.	-4.553e-003
21336	13.291	0.18182	5.e-002	3.2637e-005
21337	13.291	9.0909e-002	0.	-1.1389e-003
21338	13.568	0.18182	0.	-4.0051e-003
21339	13.475	0.18182	5.e-002	3.2641e-005
21340	13.475	9.0909e-002	0.	-1.2398e-003
21341	13.752	0.18182	0.	-3.5296e-003
21342	13.66	0.18182	5.e-002	2.3631e-005
21343	13.66	9.0909e-002	0.	-1.3655e-003
21344	13.937	0.18182	0.	-3.1138e-003
21345	13.845	0.18182	5.e-002	1.9948e-005
21346	13.845	9.0909e-002	0.	-1.5092e-003
21347	14.122	0.18182	0.	-2.7478e-003
21348	14.029	0.18182	5.e-002	1.0541e-005
21349	14.029	9.0909e-002	0.	-1.6636e-003
21350	14.306	0.18182	0.	-2.4235e-003
21351	14.214	0.18182	5.e-002	3.7935e-006
21352	14.214	9.0909e-002	0.	-1.8267e-003
21353	14.491	0.18182	0.	-2.1339e-003
21354	14.399	0.18182	5.e-002	1.0772e-005
21355	14.399	9.0909e-002	0.	-1.9949e-003
21356	14.676	0.18182	0.	-1.8734e-003
21357	14.583	0.18182	5.e-002	7.2227e-005
21358	14.583	9.0909e-002	0.	-2.1652e-003
21359	14.86	0.18182	0.	-1.6371e-003
21360	14.768	0.18182	5.e-002	2.022e-004
21361	14.768	9.0909e-002	0.	-2.3367e-003
21362	15.045	0.18182	0.	-1.4215e-003
21363	14.953	0.18182	5.e-002	1.5188e-004
21364	14.953	9.0909e-002	0.	-2.5085e-003
21365	15.23	0.18182	0.	-1.224e-003
21366	15.137	0.18182	5.e-002	1.698e-004
21367	15.137	9.0909e-002	0.	-2.6789e-003
21368	15.414	0.18182	0.	-1.0425e-003
21369	15.322	0.18182	5.e-002	1.6065e-004
21370	15.322	9.0909e-002	0.	-2.846e-003
21371	15.599	0.18182	0.	-8.7437e-004
21372	15.507	0.18182	5.e-002	1.4269e-004
21373	15.507	9.0909e-002	0.	-3.0138e-003
21374	15.783	0.18182	0.	-7.1695e-004
21375	15.691	0.18182	5.e-002	1.4527e-004
21376	15.691	9.0909e-002	0.	-3.1787e-003
21377	15.968	0.18182	0.	-5.7097e-004
21378	15.876	0.18182	5.e-002	1.3133e-004
21379	15.876	9.0909e-002	0.	-3.3417e-003
21380	16.153	0.18182	0.	-4.3369e-004
21381	16.06	0.18182	5.e-002	1.3257e-004
21382	16.06	9.0909e-002	0.	-3.504e-003
21383	16.337	0.18182	0.	-3.054e-004
21384	16.245	0.18182	5.e-002	1.1934e-004
21385	16.245	9.0909e-002	0.	-3.664e-003
21386	16.522	0.18182	0.	-1.8145e-004
21387	16.43	0.18182	5.e-002	1.6377e-004
21388	16.43	9.0909e-002	0.	-3.8269e-003
21389	16.707	0.18182	0.	-6.2267e-005
21390	16.614	0.18182	5.e-002	1.5312e-004
21391	16.614	9.0909e-002	0.	-3.9797e-003
21392	16.891	0.18182	0.	3.941e-005
21393	16.799	0.18182	5.e-002	1.4393e-004
21394	16.799	9.0909e-002	0.	-4.1399e-003
21395	17.076	0.18182	0.	1.3417e-004
21396	16.984	0.18182	5.e-002	1.4726e-004
21397	16.984	9.0909e-002	0.	-4.3139e-003
21398	17.261	0.18182	0.	2.3223e-004
21399	17.168	0.18182	5.e-002	1.4935e-004
21400	17.168	9.0909e-002	0.	-4.4763e-003
21401	17.445	0.18182	0.	3.2259e-004
21402	17.353	0.18182	5.e-002	1.2166e-004
21403	17.353	9.0909e-002	0.	-4.6373e-003
21404	17.63	0.18182	0.	4.0129e-004
21405	17.538	0.18182	5.e-002	1.3743e-004
21406	17.538	9.0909e-002	0.	-4.8054e-003
21407	17.815	0.18182	0.	4.714e-004
21408	17.722	0.18182	5.e-002	1.3672e-004
21409	17.722	9.0909e-002	0.	-4.9774e-003
21410	17.999	0.18182	0.	5.3169e-004
21411	17.907	0.18182	5.e-002	1.1987e-004
21412	17.907	9.0909e-002	0.	-5.1558e-003
21413	18.184	0.18182	0.	5.7939e-004
21414	18.092	0.18182	5.e-002	1.1697e-004
21415	18.092	9.0909e-002	0.	-5.3359e-003
21416	18.368	0.18182	0.	6.1405e-004
21417	18.276	0.18182	5.e-002	9.9577e-005
21418	18.276	9.0909e-002	0.	-5.5216e-003
21419	18.553	0.18182	0.	6.3268e-004
21420	18.461	0.18182	5.e-002	1.0811e-004
21421	18.461	9.0909e-002	0.	-5.7141e-003
21422	18.738	0.18182	0.	6.3044e-004
21423	18.645	0.18182	5.e-002	1.0274e-004
21424	18.645	9.0909e-002	0.	-5.9122e-003
21425	18.922	0.18182	0.	6.0462e-004
21426	18.83	0.18182	5.e-002	1.0029e-004
21427	18.83	9.0909e-002	0.	-6.1149e-003
21428	19.107	0.18182	0.	5.5091e-004
21429	19.015	0.18182	5.e-002	8.1703e-005
21430	19.015	9.0909e-002	0.	-6.3264e-003
21431	19.292	0.18182	0.	4.6182e-004
21432	19.199	0.18182	5.e-002	6.6893e-005
21433	19.199	9.0909e-002	0.	-6.5403e-003
21434	19.476	0.18182	0.	3.3113e-004
21435	19.384	0.18182	5.e-002	6.3339e-005
21436	19.384	9.0909e-002	0.	-6.7607e-003
21437	19.661	0.18182	0.	1.5001e-004
21438	19.569	0.18182	5.e-002	5.6273e-005
21439	19.569	9.0909e-002	0.	-6.9848e-003
21440	19.846	0.18182	0.	-9.2912e-005
21441	19.753	0.18182	5.e-002	5.1736e-005
21442	19.753	9.0909e-002	0.	-7.215e-003
21443	20.03	0.18182	0.	-4.103e-004
21444	19.938	0.18182	5.e-002	4.3932e-005
21445	19.938	9.0909e-002	0.	-7.4377e-003
21446	20.215	0.18182	0.	-8.1657e-004
21447	20.123	0.18182	5.e-002	3.5058e-005
21448	20.123	9.0909e-002	0.	-7.6657e-003
21449	20.4	0.18182	0.	-1.3298e-003
21450	20.307	0.18182	5.e-002	4.5592e-005
21451	20.307	9.0909e-002	0.	-7.8797e-003
21452	20.584	0.18182	0.	-1.9763e-003
21453	20.492	0.18182	5.e-002	3.7796e-005
21454	20.492	9.0909e-002	0.	-8.0808e-003
21455	20.769	0.18182	0.	-2.7819e-003
21456	20.676	0.18182	5.e-002	3.001e-005
21457	20.676	9.0909e-002	0.	-8.2652e-003
21458	20.953	0.18182	0.	-3.7812e-003
21459	20.861	0.18182	5.e-002	2.1702e-005
21460	20.861	9.0909e-002	0.	-8.4115e-003
21461	21.138	0.18182	0.	-5.0186e-003
21462	21.046	0.18182	5.e-002	3.9936e-005
21463	21.046	9.0909e-002	0.	-8.5096e-003
21464	21.323	0.18182	0.	-6.5526e-003
21465	21.23	0.18182	5.e-002	3.8643e-005
21466	21.23	9.0909e-002	0.	-8.5404e-003
21467	21.507	0.18182	0.	-8.4556e-003
21468	21.415	0.18182	5.e-002	3.8353e-005
21469	21.415	9.0909e-002	0.	-8.4858e-003
21470	21.692	0.18182	0.	-1.0805e-002
21471	21.6	0.18182	5.e-002	2.4086e-005
21472	21.6	9.0909e-002	0.	-8.2922e-003
21473	21.877	0.18182	0.	-1.3722e-002
21474	21.784	0.18182	5.e-002	1.7617e-005
21475	21.784	9.0909e-002	0.	-7.9014e-003
21476	22.061	0.18182	0.	-1.7365e-002
21477	21.969	0.18182	5.e-002	1.848e-005
21478	21.969	9.0909e-002	0.	-7.2541e-003
21479	22.246	0.18182	0.	-2.1935e-002
21480	22.154	0.18182	5.e-002	1.7709e-005
21481	22.154	9.0909e-002	0.	-6.2325e-003
21482	22.431	0.18182	0.	-2.7704e-002
21483	22.338	0.18182	5.e-002	1.3703e-005
21484	22.338	9.0909e-002	0.	-4.6633e-003
21485	22.615	0.18182	0.	-3.5103e-002
21486	22.523	0.18182	5.e-002	2.2688e-005
21487	22.523	9.0909e-002	0.	-2.258e-003
21488	22.8	0.18182	0.	-4.4537e-002
21489	22.708	0.18182	5.e-002	1.2347e-005
21490	22.708	9.0909e-002	0.	1.3174e-003
21491	22.984	0.18182	0.	-5.739e-002
21492	22.892	0.18182	5.e-002	9.9099e-006
21493	22.892	9.0909e-002	0.	7.1837e-003
21494	23.169	0.18182	0.	-7.2714e-002
21495	23.077	0.18182	5.e-002	1.1933e-005
21496	23.077	9.0909e-002	0.	1.5328e-002
21497	23.354	0.18182	0.	-0.10048
21498	23.261	0.18182	5.e-002	1.0073e-005
21499	23.261	9.0909e-002	0.	3.4028e-002
21500	23.538	0.18182	0.	-0.11546
21501	23.446	0.18182	5.e-002	1.7377e-006
21502	23.446	9.0909e-002	0.	4.7475e-002
21503	23.723	0.18182	0.	-0.31063
21504	23.631	0.18182	5.e-002	-5.0898e-006
21505	23.631	9.0909e-002	0.	0.14236
21506	23.815	0.18182	5.e-002	9.1981e-006
21507	23.815	9.0909e-002	0.	-7.3928e-002
21508	23.908	0.18182	0.	-3.8336e-002
21509	23.723	0.18182	0.1	0.31063
21510	23.815	0.27273	0.1	0.38613
21511	23.908	0.18182	0.1	3.8337e-002
21512	23.815	9.0909e-002	0.1	7.3926e-002
21513	23.538	0.18182	0.1	0.11546
21514	23.631	0.27273	0.1	5.4653e-002
21515	23.631	9.0909e-002	0.1	-0.14236
21516	23.354	0.18182	0.1	0.10048
21517	23.446	0.27273	0.1	0.11513
21518	23.446	9.0909e-002	0.1	-4.748e-002
21519	23.169	0.18182	0.1	7.2715e-002
21520	23.261	0.27273	0.1	8.9935e-002
21521	23.261	9.0909e-002	0.1	-3.4024e-002
21522	22.984	0.18182	0.1	5.7389e-002
21523	23.077	0.27273	0.1	8.4293e-002
21524	23.077	9.0909e-002	0.1	-1.5328e-002
21525	22.8	0.18182	0.1	4.4537e-002
21526	22.892	0.27273	0.1	7.3828e-002
21527	22.892	9.0909e-002	0.1	-7.1839e-003
21528	22.615	0.18182	0.1	3.5104e-002
21529	22.708	0.27273	0.1	6.5838e-002
21530	22.708	9.0909e-002	0.1	-1.3178e-003
21531	22.431	0.18182	0.1	2.7705e-002
21532	22.523	0.27273	0.1	5.8571e-002
21533	22.523	9.0909e-002	0.1	2.2601e-003
21534	22.246	0.18182	0.1	2.1935e-002
21535	22.338	0.27273	0.1	5.2376e-002
21536	22.338	9.0909e-002	0.1	4.6617e-003
21537	22.061	0.18182	0.1	1.7366e-002
21538	22.154	0.27273	0.1	4.7007e-002
21539	22.154	9.0909e-002	0.1	6.2344e-003
21540	21.877	0.18182	0.1	1.3722e-002
21541	21.969	0.27273	0.1	4.2362e-002
21542	21.969	9.0909e-002	0.1	7.253e-003
21543	21.692	0.18182	0.1	1.0805e-002
21544	21.784	0.27273	0.1	3.8322e-002
21545	21.784	9.0909e-002	0.1	7.9038e-003
21546	21.507	0.18182	0.1	8.4559e-003
21547	21.6	0.27273	0.1	3.4804e-002
21548	21.6	9.0909e-002	0.1	8.2923e-003
21549	21.323	0.18182	0.1	6.5538e-003
21550	21.415	0.27273	0.1	3.1714e-002
21551	21.415	9.0909e-002	0.1	8.4872e-003
21552	21.138	0.18182	0.1	5.019e-003
21553	21.23	0.27273	0.1	2.8995e-002
21554	21.23	9.0909e-002	0.1	8.5456e-003
21555	20.953	0.18182	0.1	3.7808e-003
21556	21.046	0.27273	0.1	2.6601e-002
21557	21.046	9.0909e-002	0.1	8.5089e-003
21558	20.769	0.18182	0.1	2.7815e-003
21559	20.861	0.27273	0.1	2.4479e-002
21560	20.861	9.0909e-002	0.1	8.4131e-003
21561	20.584	0.18182	0.1	1.9764e-003
21562	20.676	0.27273	0.1	2.2596e-002
21563	20.676	9.0909e-002	0.1	8.2644e-003
21564	20.4	0.18182	0.1	1.3307e-003
21565	20.492	0.27273	0.1	2.0917e-002
21566	20.492	9.0909e-002	0.1	8.0824e-003
21567	20.215	0.18182	0.1	8.1624e-004
21568	20.307	0.27273	0.1	1.9417e-002
21569	20.307	9.0909e-002	0.1	7.8803e-003
21570	20.03	0.18182	0.1	4.0941e-004
21571	20.123	0.27273	0.1	1.8072e-002
21572	20.123	9.0909e-002	0.1	7.6643e-003
21573	19.846	0.18182	0.1	9.2969e-005
21574	19.938	0.27273	0.1	1.6866e-002
21575	19.938	9.0909e-002	0.1	7.439e-003
21576	19.661	0.18182	0.1	-1.498e-004
21577	19.753	0.27273	0.1	1.5779e-002
21578	19.753	9.0909e-002	0.1	7.2137e-003
21579	19.476	0.18182	0.1	-3.3096e-004
21580	19.569	0.27273	0.1	1.4797e-002
21581	19.569	9.0909e-002	0.1	6.9855e-003
21582	19.292	0.18182	0.1	-4.6171e-004
21583	19.384	0.27273	0.1	1.391e-002
21584	19.384	9.0909e-002	0.1	6.7614e-003
21585	19.107	0.18182	0.1	-5.5131e-004
21586	19.199	0.27273	0.1	1.3103e-002
21587	19.199	9.0909e-002	0.1	6.5405e-003
21588	18.922	0.18182	0.1	-6.0544e-004
21589	19.015	0.27273	0.1	1.2368e-002
21590	19.015	9.0909e-002	0.1	6.3275e-003
21591	18.738	0.18182	0.1	-6.308e-004
21592	18.83	0.27273	0.1	1.1699e-002
21593	18.83	9.0909e-002	0.1	6.1146e-003
21594	18.553	0.18182	0.1	-6.3278e-004
21595	18.645	0.27273	0.1	1.1084e-002
21596	18.645	9.0909e-002	0.1	5.9138e-003
21597	18.368	0.18182	0.1	-6.1499e-004
21598	18.461	0.27273	0.1	1.0519e-002
21599	18.461	9.0909e-002	0.1	5.7129e-003
21600	18.184	0.18182	0.1	-5.803e-004
21601	18.276	0.27273	0.1	9.9979e-003
21602	18.276	9.0909e-002	0.1	5.5224e-003
21603	17.999	0.18182	0.1	-5.3176e-004
21604	18.092	0.27273	0.1	9.5156e-003
21605	18.092	9.0909e-002	0.1	5.3365e-003
21606	17.815	0.18182	0.1	-4.7128e-004
21607	17.907	0.27273	0.1	9.0659e-003
21608	17.907	9.0909e-002	0.1	5.155e-003
21609	17.63	0.18182	0.1	-4.0112e-004
21610	17.722	0.27273	0.1	8.6469e-003
21611	17.722	9.0909e-002	0.1	4.9783e-003
21612	17.445	0.18182	0.1	-3.2283e-004
21613	17.538	0.27273	0.1	8.2516e-003
21614	17.538	9.0909e-002	0.1	4.8054e-003
21615	17.261	0.18182	0.1	-2.3294e-004
21616	17.353	0.27273	0.1	7.8771e-003
21617	17.353	9.0909e-002	0.1	4.6367e-003
21618	17.076	0.18182	0.1	-1.3444e-004
21619	17.168	0.27273	0.1	7.5293e-003
21620	17.168	9.0909e-002	0.1	4.4763e-003
21621	16.891	0.18182	0.1	-3.9978e-005
21622	16.984	0.27273	0.1	7.192e-003
21623	16.984	9.0909e-002	0.1	4.3153e-003
21624	16.707	0.18182	0.1	6.1211e-005
21625	16.799	0.27273	0.1	6.8506e-003
21626	16.799	9.0909e-002	0.1	4.1388e-003
21627	16.522	0.18182	0.1	1.8069e-004
21628	16.614	0.27273	0.1	6.5365e-003
21629	16.614	9.0909e-002	0.1	3.9814e-003
21630	16.337	0.18182	0.1	3.0499e-004
21631	16.43	0.27273	0.1	6.2342e-003
21632	16.43	9.0909e-002	0.1	3.8268e-003
21633	16.153	0.18182	0.1	4.3332e-004
21634	16.245	0.27273	0.1	5.9296e-003
21635	16.245	9.0909e-002	0.1	3.6643e-003
21636	15.968	0.18182	0.1	5.7099e-004
21637	16.06	0.27273	0.1	5.6296e-003
21638	16.06	9.0909e-002	0.1	3.504e-003
21639	15.783	0.18182	0.1	7.1717e-004
21640	15.876	0.27273	0.1	5.3303e-003
21641	15.876	9.0909e-002	0.1	3.3422e-003
21642	15.599	0.18182	0.1	8.7413e-004
21643	15.691	0.27273	0.1	5.0307e-003
21644	15.691	9.0909e-002	0.1	3.1791e-003
21645	15.414	0.18182	0.1	1.0428e-003
21646	15.507	0.27273	0.1	4.729e-003
21647	15.507	9.0909e-002	0.1	3.0145e-003
21648	15.23	0.18182	0.1	1.2244e-003
21649	15.322	0.27273	0.1	4.4231e-003
21650	15.322	9.0909e-002	0.1	2.8476e-003
21651	15.045	0.18182	0.1	1.4215e-003
21652	15.137	0.27273	0.1	4.1115e-003
21653	15.137	9.0909e-002	0.1	2.6793e-003
21654	14.86	0.18182	0.1	1.6368e-003
21655	14.953	0.27273	0.1	3.7933e-003
21656	14.953	9.0909e-002	0.1	2.5088e-003
21657	14.676	0.18182	0.1	1.8733e-003
21658	14.768	0.27273	0.1	3.4685e-003
21659	14.768	9.0909e-002	0.1	2.3376e-003
21660	14.491	0.18182	0.1	2.1338e-003
21661	14.583	0.27273	0.1	3.1342e-003
21662	14.583	9.0909e-002	0.1	2.1658e-003
21663	14.306	0.18182	0.1	2.4234e-003
21664	14.399	0.27273	0.1	2.791e-003
21665	14.399	9.0909e-002	0.1	1.9957e-003
21666	14.122	0.18182	0.1	2.748e-003
21667	14.214	0.27273	0.1	2.4407e-003
21668	14.214	9.0909e-002	0.1	1.8272e-003
21669	13.937	0.18182	0.1	3.1138e-003
21670	14.029	0.27273	0.1	2.0825e-003
21671	14.029	9.0909e-002	0.1	1.6648e-003
21672	13.752	0.18182	0.1	3.5292e-003
21673	13.845	0.27273	0.1	1.7199e-003
21674	13.845	9.0909e-002	0.1	1.5081e-003
21675	13.568	0.18182	0.1	4.0045e-003
21676	13.66	0.27273	0.1	1.3558e-003
21677	13.66	9.0909e-002	0.1	1.3658e-003
21678	13.383	0.18182	0.1	4.5528e-003
21679	13.475	0.27273	0.1	9.9566e-004
21680	13.475	9.0909e-002	0.1	1.2398e-003
21681	13.199	0.18182	0.1	5.1907e-003
21682	13.291	0.27273	0.1	6.4926e-004
21683	13.291	9.0909e-002	0.1	1.1383e-003
21684	13.014	0.18182	0.1	5.9378e-003
21685	13.106	0.27273	0.1	3.2985e-004
21686	13.106	9.0909e-002	0.1	1.0697e-003
21687	12.829	0.18182	0.1	6.8227e-003
21688	12.922	0.27273	0.1	5.4808e-005
21689	12.922	9.0909e-002	0.1	1.0436e-003
21690	12.645	0.18182	0.1	7.8744e-003
21691	12.737	0.27273	0.1	-1.4123e-004
21692	12.737	9.0909e-002	0.1	1.0799e-003
21693	12.46	0.18182	0.1	9.1405e-003
21694	12.552	0.27273	0.1	-2.3183e-004
21695	12.552	9.0909e-002	0.1	1.1775e-003
21696	12.275	0.18182	0.1	1.0703e-002
21697	12.368	0.27273	0.1	-1.2612e-004
21698	12.368	9.0909e-002	0.1	1.3822e-003
21699	12.091	0.18182	0.1	1.2627e-002
21700	12.183	0.27273	0.1	3.0852e-004
21701	12.183	9.0909e-002	0.1	1.7411e-003
21702	11.906	0.18182	0.1	1.5006e-002
21703	11.998	0.27273	0.1	1.1999e-003
21704	11.998	9.0909e-002	0.1	2.2353e-003
21705	11.721	0.18182	0.1	1.8017e-002
21706	11.814	0.27273	0.1	2.9021e-003
21707	11.814	9.0909e-002	0.1	2.9333e-003
21708	11.537	0.18182	0.1	2.1883e-002
21709	11.629	0.27273	0.1	6.0854e-003
21710	11.629	9.0909e-002	0.1	3.9102e-003
21711	11.352	0.18182	0.1	2.6919e-002
21712	11.444	0.27273	0.1	1.217e-002
21713	11.444	9.0909e-002	0.1	5.2241e-003
21714	11.167	0.18182	0.1	3.36e-002
21715	11.26	0.27273	0.1	2.5029e-002
21716	11.26	9.0909e-002	0.1	6.967e-003
21717	10.983	0.18182	0.1	4.2646e-002
21718	11.075	0.27273	0.1	5.905e-002
21719	11.075	9.0909e-002	0.1	9.2476e-003
21720	10.798	0.18182	0.1	5.5177e-002
21721	10.891	0.27273	0.1	0.20204
21722	10.891	9.0909e-002	0.1	1.2191e-002
21723	10.614	0.18182	0.1	7.2959e-002
21724	10.706	0.27273	0.1	0.72346
21725	10.706	9.0909e-002	0.1	1.5928e-002
21726	10.429	0.18182	0.1	9.877e-002
21727	10.521	0.27273	0.1	1.4247
21728	10.521	9.0909e-002	0.1	2.056e-002
21729	10.244	0.18182	0.1	0.13667
21730	10.337	0.27273	0.1	2.1103
21731	10.337	9.0909e-002	0.1	2.6071e-002
21732	10.06	0.18182	0.1	0.19108
21733	10.152	0.27273	0.1	2.7284
21734	10.152	9.0909e-002	0.1	3.213e-002
21735	9.875	0.18182	0.1	0.26142
21736	9.9673	0.27273	0.1	3.2432
21737	9.9673	9.0909e-002	0.1	3.7716e-002
21738	9.6904	0.18182	0.1	0.331
21739	9.7827	0.27273	0.1	3.6165
21740	9.7827	9.0909e-002	0.1	4.057e-002
21741	9.5057	0.18182	0.1	0.36441
21742	9.598	0.27273	0.1	3.8043
21743	9.598	9.0909e-002	0.1	3.6976e-002
21744	9.3211	0.18182	0.1	0.33155
21745	9.4134	0.27273	0.1	3.7551
21746	9.4134	9.0909e-002	0.1	2.3183e-002
21747	9.1364	0.18182	0.1	0.24238
21748	9.2288	0.27273	0.1	3.4096
21749	9.2288	9.0909e-002	0.1	-5.1371e-004
21750	8.9518	0.18182	0.1	0.14663
21751	9.0441	0.27273	0.1	2.7044
21752	9.0441	9.0909e-002	0.1	-2.712e-002
21753	8.7672	0.18182	0.1	7.8623e-002
21754	8.8595	0.27273	0.1	1.5976
21755	8.8595	9.0909e-002	0.1	-4.8074e-002
21756	8.5825	0.18182	0.1	3.7602e-002
21757	8.6748	0.27273	0.1	0.41672
21758	8.6748	9.0909e-002	0.1	-6.0131e-002
21759	8.3979	0.18182	0.1	1.342e-002
21760	8.4902	0.27273	0.1	0.10965
21761	8.4902	9.0909e-002	0.1	-6.463e-002
21762	8.2132	0.18182	0.1	-1.3802e-003
21763	8.3056	0.27273	0.1	5.4025e-002
21764	8.3056	9.0909e-002	0.1	-6.3864e-002
21765	8.0286	0.18182	0.1	-1.1372e-002
21766	8.1209	0.27273	0.1	3.6748e-002
21767	8.1209	9.0909e-002	0.1	-5.9559e-002
21768	7.844	0.18182	0.1	-1.9681e-002
21769	7.9363	0.27273	0.1	3.1768e-002
21770	7.9363	9.0909e-002	0.1	-5.2791e-002
21771	7.6593	0.18182	0.1	-2.898e-002
21772	7.7516	0.27273	0.1	3.2494e-002
21773	7.7516	9.0909e-002	0.1	-4.4286e-002
21774	7.4747	0.18182	0.1	-4.2007e-002
21775	7.567	0.27273	0.1	3.6225e-002
21776	7.567	9.0909e-002	0.1	-3.4692e-002
21777	7.29	0.18182	0.1	-6.1721e-002
21778	7.3824	0.27273	0.1	4.1365e-002
21779	7.3824	9.0909e-002	0.1	-2.4758e-002
21780	7.1054	0.18182	0.1	-9.0972e-002
21781	7.1977	0.27273	0.1	4.6792e-002
21782	7.1977	9.0909e-002	0.1	-1.5541e-002
21783	6.9208	0.18182	0.1	-0.13107
21784	7.0131	0.27273	0.1	5.208e-002
21785	7.0131	9.0909e-002	0.1	-8.6467e-003
21786	6.7361	0.18182	0.1	-0.17868
21787	6.8284	0.27273	0.1	5.9069e-002
21788	6.8284	9.0909e-002	0.1	-6.1637e-003
21789	6.5515	0.18182	0.1	-0.21711
21790	6.6438	0.27273	0.1	7.4703e-002
21791	6.6438	9.0909e-002	0.1	-1.1459e-002
21792	6.3668	0.18182	0.1	-0.20447
21793	6.4592	0.27273	0.1	0.12244
21794	6.4592	9.0909e-002	0.1	-2.53e-002
21795	6.1822	0.18182	0.1	-2.1572e-002
21796	6.2745	0.27273	0.1	0.251
21797	6.2745	9.0909e-002	0.1	-5.6011e-002
21798	5.9975	0.18182	0.1	0.53491
21799	6.0899	0.27273	0.1	0.6274
21800	6.0899	9.0909e-002	0.1	-5.7991e-002
21801	5.8129	0.18182	0.1	2.2623
21802	5.9052	0.27273	0.1	1.4597
21803	5.9052	9.0909e-002	0.1	-0.10749
21804	5.6283	0.18182	0.1	5.7154
21805	5.7206	0.27273	0.1	4.0316
21806	5.7206	9.0909e-002	0.1	0.59431
21807	5.4436	0.18182	0.1	18.808
21808	5.5359	0.27273	0.1	7.109
21809	5.5359	9.0909e-002	0.1	0.93969
21810	5.3513	0.27273	0.1	18.587
21811	5.259	0.18182	0.1	-0.17834
21812	5.3513	9.0909e-002	0.1	15.979
21813	23.723	0.36364	0.1	0.16317
21814	23.815	0.45455	0.1	0.15346
21815	23.908	0.36364	0.1	-0.15946
21816	23.538	0.36364	0.1	5.0875e-002
21817	23.631	0.45455	0.1	-9.9232e-002
21818	23.354	0.36364	0.1	9.1291e-002
21819	23.446	0.45455	0.1	2.8537e-002
21820	23.169	0.36364	0.1	8.5657e-002
21821	23.261	0.45455	0.1	2.467e-002
21822	22.984	0.36364	0.1	8.47e-002
21823	23.077	0.45455	0.1	3.7846e-002
21824	22.8	0.36364	0.1	7.9792e-002
21825	22.892	0.45455	0.1	3.946e-002
21826	22.615	0.36364	0.1	7.4958e-002
21827	22.708	0.45455	0.1	4.037e-002
21828	22.431	0.36364	0.1	6.9952e-002
21829	22.523	0.45455	0.1	3.9601e-002
21830	22.246	0.36364	0.1	6.5188e-002
21831	22.338	0.45455	0.1	3.8287e-002
21832	22.061	0.36364	0.1	6.0712e-002
21833	22.154	0.45455	0.1	3.6625e-002
21834	21.877	0.36364	0.1	5.6563e-002
21835	21.969	0.45455	0.1	3.4834e-002
21836	21.692	0.36364	0.1	5.2738e-002
21837	21.784	0.45455	0.1	3.3012e-002
21838	21.507	0.36364	0.1	4.9222e-002
21839	21.6	0.45455	0.1	3.1226e-002
21840	21.323	0.36364	0.1	4.5988e-002
21841	21.415	0.45455	0.1	2.95e-002
21842	21.138	0.36364	0.1	4.3022e-002
21843	21.23	0.45455	0.1	2.7855e-002
21844	20.953	0.36364	0.1	4.03e-002
21845	21.046	0.45455	0.1	2.6303e-002
21846	20.769	0.36364	0.1	3.7799e-002
21847	20.861	0.45455	0.1	2.4842e-002
21848	20.584	0.36364	0.1	3.5501e-002
21849	20.676	0.45455	0.1	2.3477e-002
21850	20.4	0.36364	0.1	3.3387e-002
21851	20.492	0.45455	0.1	2.2202e-002
21852	20.215	0.36364	0.1	3.1438e-002
21853	20.307	0.45455	0.1	2.1014e-002
21854	20.03	0.36364	0.1	2.9642e-002
21855	20.123	0.45455	0.1	1.9906e-002
21856	19.846	0.36364	0.1	2.7984e-002
21857	19.938	0.45455	0.1	1.8876e-002
21858	19.661	0.36364	0.1	2.645e-002
21859	19.753	0.45455	0.1	1.7915e-002
21860	19.476	0.36364	0.1	2.5031e-002
21861	19.569	0.45455	0.1	1.7021e-002
21862	19.292	0.36364	0.1	2.3714e-002
21863	19.384	0.45455	0.1	1.6188e-002
21864	19.107	0.36364	0.1	2.249e-002
21865	19.199	0.45455	0.1	1.5408e-002
21866	18.922	0.36364	0.1	2.135e-002
21867	19.015	0.45455	0.1	1.4681e-002
21868	18.738	0.36364	0.1	2.0285e-002
21869	18.83	0.45455	0.1	1.4e-002
21870	18.553	0.36364	0.1	1.9288e-002
21871	18.645	0.45455	0.1	1.336e-002
21872	18.368	0.36364	0.1	1.8352e-002
21873	18.461	0.45455	0.1	1.2758e-002
21874	18.184	0.36364	0.1	1.7471e-002
21875	18.276	0.45455	0.1	1.2191e-002
21876	17.999	0.36364	0.1	1.6638e-002
21877	18.092	0.45455	0.1	1.1654e-002
21878	17.815	0.36364	0.1	1.5847e-002
21879	17.907	0.45455	0.1	1.1144e-002
21880	17.63	0.36364	0.1	1.5094e-002
21881	17.722	0.45455	0.1	1.0658e-002
21882	17.445	0.36364	0.1	1.4371e-002
21883	17.538	0.45455	0.1	1.0192e-002
21884	17.261	0.36364	0.1	1.3678e-002
21885	17.353	0.45455	0.1	9.7417e-003
21886	17.076	0.36364	0.1	1.3009e-002
21887	17.168	0.45455	0.1	9.3148e-003
21888	16.891	0.36364	0.1	1.2347e-002
21889	16.984	0.45455	0.1	8.8941e-003
21890	16.707	0.36364	0.1	1.1698e-002
21891	16.799	0.45455	0.1	8.4657e-003
21892	16.522	0.36364	0.1	1.1068e-002
21893	16.614	0.45455	0.1	8.0613e-003
21894	16.337	0.36364	0.1	1.0441e-002
21895	16.43	0.45455	0.1	7.6641e-003
21896	16.153	0.36364	0.1	9.8117e-003
21897	16.245	0.45455	0.1	7.26e-003
21898	15.968	0.36364	0.1	9.1782e-003
21899	16.06	0.45455	0.1	6.8549e-003
21900	15.783	0.36364	0.1	8.5373e-003
21901	15.876	0.45455	0.1	6.4456e-003
21902	15.599	0.36364	0.1	7.8847e-003
21903	15.691	0.45455	0.1	6.0289e-003
21904	15.414	0.36364	0.1	7.216e-003
21905	15.507	0.45455	0.1	5.6027e-003
21906	15.23	0.36364	0.1	6.5266e-003
21907	15.322	0.45455	0.1	5.1655e-003
21908	15.045	0.36364	0.1	5.8126e-003
21909	15.137	0.45455	0.1	4.711e-003
21910	14.86	0.36364	0.1	5.0706e-003
21911	14.953	0.45455	0.1	4.2378e-003
21912	14.676	0.36364	0.1	4.295e-003
21913	14.768	0.45455	0.1	3.745e-003
21914	14.491	0.36364	0.1	3.4809e-003
21915	14.583	0.45455	0.1	3.226e-003
21916	14.306	0.36364	0.1	2.6255e-003
21917	14.399	0.45455	0.1	2.6802e-003
21918	14.122	0.36364	0.1	1.7233e-003
21919	14.214	0.45455	0.1	2.1022e-003
21920	13.937	0.36364	0.1	7.6976e-004
21921	14.029	0.45455	0.1	1.4897e-003
21922	13.752	0.36364	0.1	-2.3897e-004
21923	13.845	0.45455	0.1	8.3884e-004
21924	13.568	0.36364	0.1	-1.308e-003
21925	13.66	0.45455	0.1	1.4545e-004
21926	13.383	0.36364	0.1	-2.4404e-003
21927	13.475	0.45455	0.1	-5.9603e-004
21928	13.199	0.36364	0.1	-3.6232e-003
21929	13.291	0.45455	0.1	-1.388e-003
21930	13.014	0.36364	0.1	-4.9017e-003
21931	13.106	0.45455	0.1	-2.2363e-003
21932	12.829	0.36364	0.1	-6.2286e-003
21933	12.922	0.45455	0.1	-3.1463e-003
21934	12.645	0.36364	0.1	-7.6176e-003
21935	12.737	0.45455	0.1	-4.118e-003
21936	12.46	0.36364	0.1	-9.0475e-003
21937	12.552	0.45455	0.1	-5.1745e-003
21938	12.275	0.36364	0.1	-1.0452e-002
21939	12.368	0.45455	0.1	-6.3003e-003
21940	12.091	0.36364	0.1	-1.174e-002
21941	12.183	0.45455	0.1	-7.4715e-003
21942	11.906	0.36364	0.1	-1.2594e-002
21943	11.998	0.45455	0.1	-8.6591e-003
21944	11.721	0.36364	0.1	-1.1348e-002
21945	11.814	0.45455	0.1	0.8178
21946	11.537	0.36364	0.1	5.0389e-002
21947	11.629	0.45455	0.1	1.897
21948	11.352	0.36364	0.1	0.91219
21949	11.444	0.45455	0.1	3.0056
21950	11.167	0.36364	0.1	1.8679
21951	11.26	0.45455	0.1	4.1366
21952	10.983	0.36364	0.1	2.826
21953	11.075	0.45455	0.1	5.28
21954	10.798	0.36364	0.1	3.771
21955	10.891	0.45455	0.1	6.4225
21956	10.614	0.36364	0.1	4.685
21957	10.706	0.45455	0.1	7.547
21958	10.429	0.36364	0.1	5.5459
21959	10.521	0.45455	0.1	8.6314
21960	10.244	0.36364	0.1	6.3259
21961	10.337	0.45455	0.1	9.648
21962	10.06	0.36364	0.1	6.9909
21963	10.152	0.45455	0.1	10.562
21964	9.875	0.36364	0.1	7.4993
21965	9.9673	0.45455	0.1	11.331
21966	9.6904	0.36364	0.1	7.8009
21967	9.7827	0.45455	0.1	11.904
21968	9.5057	0.36364	0.1	7.8353
21969	9.598	0.45455	0.1	12.216
21970	9.3211	0.36364	0.1	7.5318
21971	9.4134	0.45455	0.1	12.195
21972	9.1364	0.36364	0.1	6.8078
21973	9.2288	0.45455	0.1	11.753
21974	8.9518	0.36364	0.1	5.5711
21975	9.0441	0.45455	0.1	10.788
21976	8.7672	0.36364	0.1	3.7311
21977	8.8595	0.45455	0.1	9.1861
21978	8.5825	0.36364	0.1	1.3507
21979	8.6748	0.45455	0.1	6.8279
21980	8.3979	0.36364	0.1	0.22608
21981	8.4902	0.45455	0.1	3.6453
21982	8.2132	0.36364	0.1	0.11743
21983	8.3056	0.45455	0.1	0.69702
21984	8.0286	0.36364	0.1	9.9196e-002
21985	8.1209	0.45455	0.1	0.2277
21986	7.844	0.36364	0.1	0.10378
21987	7.9363	0.45455	0.1	0.15731
21988	7.6593	0.36364	0.1	0.11995
21989	7.7516	0.45455	0.1	0.14253
21990	7.4747	0.36364	0.1	0.14457
21991	7.567	0.45455	0.1	0.14866
21992	7.29	0.36364	0.1	0.17675
21993	7.3824	0.45455	0.1	0.16832
21994	7.1054	0.36364	0.1	0.21652
21995	7.1977	0.45455	0.1	0.20045
21996	6.9208	0.36364	0.1	0.2651
21997	7.0131	0.45455	0.1	0.24681
21998	6.7361	0.36364	0.1	0.32614
21999	6.8284	0.45455	0.1	0.31228
22000	6.5515	0.36364	0.1	0.41101
22001	6.6438	0.45455	0.1	0.40598
22002	6.3668	0.36364	0.1	0.54562
22003	6.4592	0.45455	0.1	0.54971
22004	6.1822	0.36364	0.1	0.81525
22005	6.2745	0.45455	0.1	0.77858
22006	5.9975	0.36364	0.1	1.3592
22007	6.0899	0.45455	0.1	1.2169
22008	5.8129	0.36364	0.1	2.8133
22009	5.9052	0.45455	0.1	1.9245
22010	5.6283	0.36364	0.1	4.8881
22011	5.7206	0.45455	0.1	3.6923
22012	5.4436	0.36364	0.1	10.579
22013	5.5359	0.45455	0.1	3.9404
22014	5.3513	0.45455	0.1	10.953
22015	5.259	0.36364	0.1	-3.5976
22016	23.723	0.54545	0.1	-4.7305e-002
22017	23.815	0.63636	0.1	4.913e-003
22018	23.908	0.54545	0.1	-0.35346
22019	23.538	0.54545	0.1	-0.10148
22020	23.631	0.63636	0.1	-0.20445
22021	23.354	0.54545	0.1	-2.7565e-002
22022	23.446	0.63636	0.1	-4.8508e-002
22023	23.169	0.54545	0.1	-1.6606e-002
22024	23.261	0.63636	0.1	-4.2127e-002
22025	22.984	0.54545	0.1	-3.0005e-003
22026	23.077	0.63636	0.1	-1.9075e-002
22027	22.8	0.54545	0.1	3.1213e-003
22028	22.892	0.63636	0.1	-1.0207e-002
22029	22.615	0.54545	0.1	7.2354e-003
22030	22.708	0.63636	0.1	-3.2845e-003
22031	22.431	0.54545	0.1	9.5651e-003
22032	22.523	0.63636	0.1	8.6605e-004
22033	22.246	0.54545	0.1	1.093e-002
22034	22.338	0.63636	0.1	3.6687e-003
22035	22.061	0.54545	0.1	1.1644e-002
22036	22.154	0.63636	0.1	5.4838e-003
22037	21.877	0.54545	0.1	1.1949e-002
22038	21.969	0.63636	0.1	6.6637e-003
22039	21.692	0.54545	0.1	1.1989e-002
22040	21.784	0.63636	0.1	7.4029e-003
22041	21.507	0.54545	0.1	1.1858e-002
22042	21.6	0.63636	0.1	7.8461e-003
22043	21.323	0.54545	0.1	1.1615e-002
22044	21.415	0.63636	0.1	8.0758e-003
22045	21.138	0.54545	0.1	1.1301e-002
22046	21.23	0.63636	0.1	8.1591e-003
22047	20.953	0.54545	0.1	1.0945e-002
22048	21.046	0.63636	0.1	8.1397e-003
22049	20.769	0.54545	0.1	1.0568e-002
22050	20.861	0.63636	0.1	8.0482e-003
22051	20.584	0.54545	0.1	1.0185e-002
22052	20.676	0.63636	0.1	7.9098e-003
22053	20.4	0.54545	0.1	9.8035e-003
22054	20.492	0.63636	0.1	7.7404e-003
22055	20.215	0.54545	0.1	9.4293e-003
22056	20.307	0.63636	0.1	7.5508e-003
22057	20.03	0.54545	0.1	9.0667e-003
22058	20.123	0.63636	0.1	7.3464e-003
22059	19.846	0.54545	0.1	8.7183e-003
22060	19.938	0.63636	0.1	7.1405e-003
22061	19.661	0.54545	0.1	8.3845e-003
22062	19.753	0.63636	0.1	6.9317e-003
22063	19.476	0.54545	0.1	8.0662e-003
22064	19.569	0.63636	0.1	6.7234e-003
22065	19.292	0.54545	0.1	7.7628e-003
22066	19.384	0.63636	0.1	6.52e-003
22067	19.107	0.54545	0.1	7.475e-003
22068	19.199	0.63636	0.1	6.3197e-003
22069	18.922	0.54545	0.1	7.2023e-003
22070	19.015	0.63636	0.1	6.1273e-003
22071	18.738	0.54545	0.1	6.9428e-003
22072	18.83	0.63636	0.1	5.9405e-003
22073	18.553	0.54545	0.1	6.6957e-003
22074	18.645	0.63636	0.1	5.7601e-003
22075	18.368	0.54545	0.1	6.4622e-003
22076	18.461	0.63636	0.1	5.5844e-003
22077	18.184	0.54545	0.1	6.2399e-003
22078	18.276	0.63636	0.1	5.4177e-003
22079	17.999	0.54545	0.1	6.0256e-003
22080	18.092	0.63636	0.1	5.2551e-003
22081	17.815	0.54545	0.1	5.8201e-003
22082	17.907	0.63636	0.1	5.0974e-003
22083	17.63	0.54545	0.1	5.623e-003
22084	17.722	0.63636	0.1	4.9455e-003
22085	17.445	0.54545	0.1	5.4319e-003
22086	17.538	0.63636	0.1	4.7963e-003
22087	17.261	0.54545	0.1	5.2492e-003
22088	17.353	0.63636	0.1	4.6492e-003
22089	17.076	0.54545	0.1	5.0727e-003
22090	17.168	0.63636	0.1	4.5132e-003
22091	16.891	0.54545	0.1	4.8883e-003
22092	16.984	0.63636	0.1	4.3749e-003
22093	16.707	0.54545	0.1	4.7069e-003
22094	16.799	0.63636	0.1	4.2202e-003
22095	16.522	0.54545	0.1	4.5385e-003
22096	16.614	0.63636	0.1	4.0834e-003
22097	16.337	0.54545	0.1	4.3674e-003
22098	16.43	0.63636	0.1	3.9526e-003
22099	16.153	0.54545	0.1	4.1913e-003
22100	16.245	0.63636	0.1	3.8101e-003
22101	15.968	0.54545	0.1	4.0146e-003
22102	16.06	0.63636	0.1	3.6699e-003
22103	15.783	0.54545	0.1	3.8343e-003
22104	15.876	0.63636	0.1	3.5264e-003
22105	15.599	0.54545	0.1	3.6497e-003
22106	15.691	0.63636	0.1	3.3796e-003
22107	15.414	0.54545	0.1	3.4615e-003
22108	15.507	0.63636	0.1	3.2302e-003
22109	15.23	0.54545	0.1	3.2668e-003
22110	15.322	0.63636	0.1	3.0772e-003
22111	15.045	0.54545	0.1	3.0622e-003
22112	15.137	0.63636	0.1	2.9187e-003
22113	14.86	0.54545	0.1	2.8492e-003
22114	14.953	0.63636	0.1	2.7541e-003
22115	14.676	0.54545	0.1	2.6265e-003
22116	14.768	0.63636	0.1	2.5864e-003
22117	14.491	0.54545	0.1	2.3922e-003
22118	14.583	0.63636	0.1	2.4111e-003
22119	14.306	0.54545	0.1	2.1445e-003
22120	14.399	0.63636	0.1	2.233e-003
22121	14.122	0.54545	0.1	1.8823e-003
22122	14.214	0.63636	0.1	2.0499e-003
22123	13.937	0.54545	0.1	1.6061e-003
22124	14.029	0.63636	0.1	1.8677e-003
22125	13.752	0.54545	0.1	1.3143e-003
22126	13.845	0.63636	0.1	1.6907e-003
22127	13.568	0.54545	0.1	1.0067e-003
22128	13.66	0.63636	0.1	1.5302e-003
22129	13.383	0.54545	0.1	6.8509e-004
22130	13.475	0.63636	0.1	1.4054e-003
22131	13.199	0.54545	0.1	3.5462e-004
22132	13.291	0.63636	0.1	1.3624e-003
22133	13.014	0.54545	0.1	2.7455e-005
22134	13.106	0.63636	0.1	1.5118e-003
22135	12.829	0.54545	0.1	-2.564e-004
22136	12.922	0.63636	0.1	2.2087e-003
22137	12.645	0.54545	0.1	-3.7921e-004
22138	12.737	0.63636	0.1	5.4709e-003
22139	12.46	0.54545	0.1	3.7859e-004
22140	12.552	0.63636	0.1	0.19701
22141	12.275	0.54545	0.1	0.16622
22142	12.368	0.63636	0.1	1.3477
22143	12.091	0.54545	0.1	1.2798
22144	12.183	0.63636	0.1	2.5835
22145	11.906	0.54545	0.1	2.4518
22146	11.998	0.63636	0.1	3.8785
22147	11.721	0.54545	0.1	3.6689
22148	11.814	0.63636	0.1	5.2305
22149	11.537	0.54545	0.1	4.9264
22150	11.629	0.63636	0.1	6.6361
22151	11.352	0.54545	0.1	6.2175
22152	11.444	0.63636	0.1	8.09
22153	11.167	0.54545	0.1	7.533
22154	11.26	0.63636	0.1	9.5846
22155	10.983	0.54545	0.1	8.86
22156	11.075	0.63636	0.1	11.109
22157	10.798	0.54545	0.1	10.182
22158	10.891	0.63636	0.1	12.649
22159	10.614	0.54545	0.1	11.477
22160	10.706	0.63636	0.1	14.184
22161	10.429	0.54545	0.1	12.717
22162	10.521	0.63636	0.1	15.689
22163	10.244	0.54545	0.1	13.868
22164	10.337	0.63636	0.1	17.133
22165	10.06	0.54545	0.1	14.887
22166	10.152	0.63636	0.1	18.475
22167	9.875	0.54545	0.1	15.72
22168	9.9673	0.63636	0.1	19.665
22169	9.6904	0.54545	0.1	16.303
22170	9.7827	0.63636	0.1	20.642
22171	9.5057	0.54545	0.1	16.561
22172	9.598	0.63636	0.1	21.334
22173	9.3211	0.54545	0.1	16.402
22174	9.4134	0.63636	0.1	21.652
22175	9.1364	0.54545	0.1	15.719
22176	9.2288	0.63636	0.1	21.493
22177	8.9518	0.54545	0.1	14.392
22178	9.0441	0.63636	0.1	20.736
22179	8.7672	0.54545	0.1	12.286
22180	8.8595	0.63636	0.1	19.245
22181	8.5825	0.54545	0.1	9.2601
22182	8.6748	0.63636	0.1	16.868
22183	8.3979	0.54545	0.1	5.2357
22184	8.4902	0.63636	0.1	13.444
22185	8.2132	0.54545	0.1	1.221
22186	8.3056	0.63636	0.1	8.8492
22187	8.0286	0.54545	0.1	0.36475
22188	8.1209	0.63636	0.1	3.4096
22189	7.844	0.54545	0.1	0.23625
22190	7.9363	0.63636	0.1	0.79497
22191	7.6593	0.54545	0.1	0.20127
22192	7.7516	0.63636	0.1	0.44253
22193	7.4747	0.54545	0.1	0.19883
22194	7.567	0.63636	0.1	0.35973
22195	7.29	0.54545	0.1	0.21695
22196	7.3824	0.63636	0.1	0.34708
22197	7.1054	0.54545	0.1	0.25461
22198	7.1977	0.63636	0.1	0.37127
22199	6.9208	0.54545	0.1	0.31601
22200	7.0131	0.63636	0.1	0.42639
22201	6.7361	0.54545	0.1	0.41003
22202	6.8284	0.63636	0.1	0.51623
22203	6.5515	0.54545	0.1	0.55387
22204	6.6438	0.63636	0.1	0.65047
22205	6.3668	0.54545	0.1	0.77452
22206	6.4592	0.63636	0.1	0.84921
22207	6.1822	0.54545	0.1	1.1407
22208	6.2745	0.63636	0.1	1.1329
22209	5.9975	0.54545	0.1	1.7024
22210	6.0899	0.63636	0.1	1.5779
22211	5.8129	0.54545	0.1	2.7841
22212	5.9052	0.63636	0.1	2.0971
22213	5.6283	0.54545	0.1	3.4117
22214	5.7206	0.63636	0.1	3.245
22215	5.4436	0.54545	0.1	7.1042
22216	5.5359	0.63636	0.1	2.1927
22217	5.3513	0.63636	0.1	9.2429
22218	5.259	0.54545	0.1	-2.2543
22219	23.723	0.72727	0.1	-9.0052e-002
22220	23.815	0.81818	0.1	-4.7015e-002
22221	23.908	0.72727	0.1	-0.36613
22222	23.538	0.72727	0.1	-0.13474
22223	23.631	0.81818	0.1	-0.23937
22224	23.354	0.72727	0.1	-5.5012e-002
22225	23.446	0.81818	0.1	-7.6081e-002
22226	23.169	0.72727	0.1	-3.9578e-002
22227	23.261	0.81818	0.1	-6.5696e-002
22228	22.984	0.72727	0.1	-2.2753e-002
22229	23.077	0.81818	0.1	-3.9726e-002
22230	22.8	0.72727	0.1	-1.3969e-002
22231	22.892	0.81818	0.1	-2.852e-002
22232	22.615	0.72727	0.1	-7.5961e-003
22233	22.708	0.81818	0.1	-1.9549e-002
22234	22.431	0.72727	0.1	-3.3879e-003
22235	22.523	0.81818	0.1	-1.3655e-002
22236	22.246	0.72727	0.1	-4.4276e-004
22237	22.338	0.81818	0.1	-9.348e-003
22238	22.061	0.72727	0.1	1.6032e-003
22239	22.154	0.81818	0.1	-6.2338e-003
22240	21.877	0.72727	0.1	3.0332e-003
22241	21.969	0.81818	0.1	-3.9317e-003
22242	21.692	0.72727	0.1	4.0285e-003
22243	21.784	0.81818	0.1	-2.2175e-003
22244	21.507	0.72727	0.1	4.7136e-003
22245	21.6	0.81818	0.1	-9.2231e-004
22246	21.323	0.72727	0.1	5.1718e-003
22247	21.415	0.81818	0.1	5.1212e-005
22248	21.138	0.72727	0.1	5.4681e-003
22249	21.23	0.81818	0.1	7.8829e-004
22250	20.953	0.72727	0.1	5.6456e-003
22251	21.046	0.81818	0.1	1.3499e-003
22252	20.769	0.72727	0.1	5.735e-003
22253	20.861	0.81818	0.1	1.777e-003
22254	20.584	0.72727	0.1	5.7614e-003
22255	20.676	0.81818	0.1	2.0992e-003
22256	20.4	0.72727	0.1	5.7425e-003
22257	20.492	0.81818	0.1	2.3429e-003
22258	20.215	0.72727	0.1	5.687e-003
22259	20.307	0.81818	0.1	2.5259e-003
22260	20.03	0.72727	0.1	5.6086e-003
22261	20.123	0.81818	0.1	2.657e-003
22262	19.846	0.72727	0.1	5.5156e-003
22263	19.938	0.81818	0.1	2.7547e-003
22264	19.661	0.72727	0.1	5.4091e-003
22265	19.753	0.81818	0.1	2.8218e-003
22266	19.476	0.72727	0.1	5.2956e-003
22267	19.569	0.81818	0.1	2.8654e-003
22268	19.292	0.72727	0.1	5.1776e-003
22269	19.384	0.81818	0.1	2.8907e-003
22270	19.107	0.72727	0.1	5.0572e-003
22271	19.199	0.81818	0.1	2.9027e-003
22272	18.922	0.72727	0.1	4.937e-003
22273	19.015	0.81818	0.1	2.9039e-003
22274	18.738	0.72727	0.1	4.8174e-003
22275	18.83	0.81818	0.1	2.8951e-003
22276	18.553	0.72727	0.1	4.6977e-003
22277	18.645	0.81818	0.1	2.881e-003
22278	18.368	0.72727	0.1	4.5792e-003
22279	18.461	0.81818	0.1	2.8593e-003
22280	18.184	0.72727	0.1	4.4637e-003
22281	18.276	0.81818	0.1	2.833e-003
22282	17.999	0.72727	0.1	4.3501e-003
22283	18.092	0.81818	0.1	2.8046e-003
22284	17.815	0.72727	0.1	4.2391e-003
22285	17.907	0.81818	0.1	2.7728e-003
22286	17.63	0.72727	0.1	4.1288e-003
22287	17.722	0.81818	0.1	2.7388e-003
22288	17.445	0.72727	0.1	4.0179e-003
22289	17.538	0.81818	0.1	2.7017e-003
22290	17.261	0.72727	0.1	3.9122e-003
22291	17.353	0.81818	0.1	2.6615e-003
22292	17.076	0.72727	0.1	3.8096e-003
22293	17.168	0.81818	0.1	2.6277e-003
22294	16.891	0.72727	0.1	3.6966e-003
22295	16.984	0.81818	0.1	2.5894e-003
22296	16.707	0.72727	0.1	3.5823e-003
22297	16.799	0.81818	0.1	2.5313e-003
22298	16.522	0.72727	0.1	3.4792e-003
22299	16.614	0.81818	0.1	2.4891e-003
22300	16.337	0.72727	0.1	3.3735e-003
22301	16.43	0.81818	0.1	2.4494e-003
22302	16.153	0.72727	0.1	3.2637e-003
22303	16.245	0.81818	0.1	2.4019e-003
22304	15.968	0.72727	0.1	3.1537e-003
22305	16.06	0.81818	0.1	2.3566e-003
22306	15.783	0.72727	0.1	3.0412e-003
22307	15.876	0.81818	0.1	2.3093e-003
22308	15.599	0.72727	0.1	2.9277e-003
22309	15.691	0.81818	0.1	2.2644e-003
22310	15.414	0.72727	0.1	2.812e-003
22311	15.507	0.81818	0.1	2.2196e-003
22312	15.23	0.72727	0.1	2.6946e-003
22313	15.322	0.81818	0.1	2.1769e-003
22314	15.045	0.72727	0.1	2.5766e-003
22315	15.137	0.81818	0.1	2.1402e-003
22316	14.86	0.72727	0.1	2.4597e-003
22317	14.953	0.81818	0.1	2.1107e-003
22318	14.676	0.72727	0.1	2.3444e-003
22319	14.768	0.81818	0.1	2.0938e-003
22320	14.491	0.72727	0.1	2.2342e-003
22321	14.583	0.81818	0.1	2.095e-003
22322	14.306	0.72727	0.1	2.1356e-003
22323	14.399	0.81818	0.1	2.1267e-003
22324	14.122	0.72727	0.1	2.0576e-003
22325	14.214	0.81818	0.1	2.2067e-003
22326	13.937	0.72727	0.1	2.0168e-003
22327	14.029	0.81818	0.1	2.3677e-003
22328	13.752	0.72727	0.1	2.0447e-003
22329	13.845	0.81818	0.1	2.6723e-003
22330	13.568	0.72727	0.1	2.2042e-003
22331	13.66	0.81818	0.1	3.2586e-003
22332	13.383	0.72727	0.1	2.6435e-003
22333	13.475	0.81818	0.1	4.4896e-003
22334	13.199	0.72727	0.1	3.8038e-003
22335	13.291	0.81818	0.1	7.7132e-003
22336	13.014	0.72727	0.1	7.7655e-003
22337	13.106	0.81818	0.1	2.5091e-002
22338	12.829	0.72727	0.1	7.4376e-002
22339	12.922	0.81818	0.1	0.68609
22340	12.645	0.72727	0.1	1.1442
22341	12.737	0.81818	0.1	1.9586
22342	12.46	0.72727	0.1	2.4138
22343	12.552	0.81818	0.1	3.3151
22344	12.275	0.72727	0.1	3.7537
22345	12.368	0.81818	0.1	4.7489
22346	12.091	0.72727	0.1	5.1618
22347	12.183	0.81818	0.1	6.2609
22348	11.906	0.72727	0.1	6.6374
22349	11.998	0.81818	0.1	7.8517
22350	11.721	0.72727	0.1	8.1784
22351	11.814	0.81818	0.1	9.5211
22352	11.537	0.72727	0.1	9.781
22353	11.629	0.81818	0.1	11.267
22354	11.352	0.72727	0.1	11.439
22355	11.444	0.81818	0.1	13.086
22356	11.167	0.72727	0.1	13.143
22357	11.26	0.81818	0.1	14.971
22358	10.983	0.72727	0.1	14.88
22359	11.075	0.81818	0.1	16.911
22360	10.798	0.72727	0.1	16.633
22361	10.891	0.81818	0.1	18.894
22362	10.614	0.72727	0.1	18.379
22363	10.706	0.81818	0.1	20.899
22364	10.429	0.72727	0.1	20.088
22365	10.521	0.81818	0.1	22.902
22366	10.244	0.72727	0.1	21.723
22367	10.337	0.81818	0.1	24.87
22368	10.06	0.72727	0.1	23.237
22369	10.152	0.81818	0.1	26.762
22370	9.875	0.72727	0.1	24.571
22371	9.9673	0.81818	0.1	28.526
22372	9.6904	0.72727	0.1	25.657
22373	9.7827	0.81818	0.1	30.101
22374	9.5057	0.72727	0.1	26.408
22375	9.598	0.81818	0.1	31.408
22376	9.3211	0.72727	0.1	26.726
22377	9.4134	0.81818	0.1	32.357
22378	9.1364	0.72727	0.1	26.493
22379	9.2288	0.81818	0.1	32.838
22380	8.9518	0.72727	0.1	25.572
22381	9.0441	0.81818	0.1	32.723
22382	8.7672	0.72727	0.1	23.811
22383	8.8595	0.81818	0.1	31.868
22384	8.5825	0.72727	0.1	21.042
22385	8.6748	0.81818	0.1	30.107
22386	8.3979	0.72727	0.1	17.09
22387	8.4902	0.81818	0.1	27.258
22388	8.2132	0.72727	0.1	11.82
22389	8.3056	0.81818	0.1	23.131
22390	8.0286	0.72727	0.1	5.4637
22391	8.1209	0.81818	0.1	17.558
22392	7.844	0.72727	0.1	1.4112
22393	7.9363	0.81818	0.1	10.538
22394	7.6593	0.72727	0.1	0.72969
22395	7.7516	0.81818	0.1	3.6653
22396	7.4747	0.72727	0.1	0.58015
22397	7.567	0.81818	0.1	1.4023
22398	7.29	0.72727	0.1	0.55331
22399	7.3824	0.81818	0.1	0.97422
22400	7.1054	0.72727	0.1	0.58464
22401	7.1977	0.81818	0.1	0.86922
22402	6.9208	0.72727	0.1	0.66069
22403	7.0131	0.81818	0.1	0.87826
22404	6.7361	0.72727	0.1	0.78279
22405	6.8284	0.81818	0.1	0.95663
22406	6.5515	0.72727	0.1	0.96117
22407	6.6438	0.81818	0.1	1.0946
22408	6.3668	0.72727	0.1	1.2081
22409	6.4592	0.81818	0.1	1.2976
22410	6.1822	0.72727	0.1	1.5555
22411	6.2745	0.81818	0.1	1.5626
22412	5.9975	0.72727	0.1	1.9661
22413	6.0899	0.81818	0.1	1.9325
22414	5.8129	0.72727	0.1	2.6561
22415	5.9052	0.81818	0.1	2.2341
22416	5.6283	0.72727	0.1	2.4235
22417	5.7206	0.81818	0.1	3.0464
22418	5.4436	0.72727	0.1	5.6072
22419	5.5359	0.81818	0.1	1.288
22420	5.3513	0.81818	0.1	8.7915
22421	5.259	0.72727	0.1	-2.2019
22422	23.723	0.90909	0.1	-0.13106
22423	23.815	1.	0.1	-8.8961e-002
22424	23.908	0.90909	0.1	-0.3895
22425	23.538	0.90909	0.1	-0.16508
22426	23.631	1.	0.1	-0.26649
22427	23.354	0.90909	0.1	-8.0049e-002
22428	23.446	1.	0.1	-9.6637e-002
22429	23.169	0.90909	0.1	-6.1965e-002
22430	23.261	1.	0.1	-8.4131e-002
22431	22.984	0.90909	0.1	-4.2862e-002
22432	23.077	1.	0.1	-5.6294e-002
22433	22.8	0.90909	0.1	-3.2149e-002
22434	22.892	1.	0.1	-4.3626e-002
22435	22.615	0.90909	0.1	-2.4084e-002
22436	22.708	1.	0.1	-3.3361e-002
22437	22.431	0.90909	0.1	-1.8386e-002
22438	22.523	1.	0.1	-2.6318e-002
22439	22.246	0.90909	0.1	-1.4125e-002
22440	22.338	1.	0.1	-2.0975e-002
22441	22.061	0.90909	0.1	-1.0918e-002
22442	22.154	1.	0.1	-1.6936e-002
22443	21.877	0.90909	0.1	-8.4609e-003
22444	21.969	1.	0.1	-1.3808e-002
22445	21.692	0.90909	0.1	-6.5508e-003
22446	21.784	1.	0.1	-1.1351e-002
22447	21.507	0.90909	0.1	-5.0524e-003
22448	21.6	1.	0.1	-9.3886e-003
22449	21.323	0.90909	0.1	-3.8708e-003
22450	21.415	1.	0.1	-7.8159e-003
22451	21.138	0.90909	0.1	-2.928e-003
22452	21.23	1.	0.1	-6.5419e-003
22453	20.953	0.90909	0.1	-2.1673e-003
22454	21.046	1.	0.1	-5.4928e-003
22455	20.769	0.90909	0.1	-1.5507e-003
22456	20.861	1.	0.1	-4.6244e-003
22457	20.584	0.90909	0.1	-1.0486e-003
22458	20.676	1.	0.1	-3.9001e-003
22459	20.4	0.90909	0.1	-6.3552e-004
22460	20.492	1.	0.1	-3.2927e-003
22461	20.215	0.90909	0.1	-2.9435e-004
22462	20.307	1.	0.1	-2.777e-003
22463	20.03	0.90909	0.1	-1.1944e-005
22464	20.123	1.	0.1	-2.3387e-003
22465	19.846	0.90909	0.1	2.2408e-004
22466	19.938	1.	0.1	-1.9609e-003
22467	19.661	0.90909	0.1	4.2192e-004
22468	19.753	1.	0.1	-1.636e-003
22469	19.476	0.90909	0.1	5.8722e-004
22470	19.569	1.	0.1	-1.3536e-003
22471	19.292	0.90909	0.1	7.272e-004
22472	19.384	1.	0.1	-1.108e-003
22473	19.107	0.90909	0.1	8.4721e-004
22474	19.199	1.	0.1	-8.9099e-004
22475	18.922	0.90909	0.1	9.4755e-004
22476	19.015	1.	0.1	-6.997e-004
22477	18.738	0.90909	0.1	1.0333e-003
22478	18.83	1.	0.1	-5.3281e-004
22479	18.553	0.90909	0.1	1.1072e-003
22480	18.645	1.	0.1	-3.8171e-004
22481	18.368	0.90909	0.1	1.1686e-003
22482	18.461	1.	0.1	-2.4809e-004
22483	18.184	0.90909	0.1	1.2212e-003
22484	18.276	1.	0.1	-1.2794e-004
22485	17.999	0.90909	0.1	1.2672e-003
22486	18.092	1.	0.1	-1.9843e-005
22487	17.815	0.90909	0.1	1.3054e-003
22488	17.907	1.	0.1	7.8492e-005
22489	17.63	0.90909	0.1	1.3381e-003
22490	17.722	1.	0.1	1.6654e-004
22491	17.445	0.90909	0.1	1.3658e-003
22492	17.538	1.	0.1	2.4865e-004
22493	17.261	0.90909	0.1	1.3917e-003
22494	17.353	1.	0.1	3.2186e-004
22495	17.076	0.90909	0.1	1.417e-003
22496	17.168	1.	0.1	3.9764e-004
22497	16.891	0.90909	0.1	1.4286e-003
22498	16.984	1.	0.1	4.6522e-004
22499	16.707	0.90909	0.1	1.4377e-003
22500	16.799	1.	0.1	5.1179e-004
22501	16.522	0.90909	0.1	1.4542e-003
22502	16.614	1.	0.1	5.7415e-004
22503	16.337	0.90909	0.1	1.4682e-003
22504	16.43	1.	0.1	6.3644e-004
22505	16.153	0.90909	0.1	1.4808e-003
22506	16.245	1.	0.1	6.9328e-004
22507	15.968	0.90909	0.1	1.494e-003
22508	16.06	1.	0.1	7.5297e-004
22509	15.783	0.90909	0.1	1.5103e-003
22510	15.876	1.	0.1	8.1474e-004
22511	15.599	0.90909	0.1	1.5303e-003
22512	15.691	1.	0.1	8.84e-004
22513	15.414	0.90909	0.1	1.5551e-003
22514	15.507	1.	0.1	9.6038e-004
22515	15.23	0.90909	0.1	1.5904e-003
22516	15.322	1.	0.1	1.0502e-003
22517	15.045	0.90909	0.1	1.6403e-003
22518	15.137	1.	0.1	1.1604e-003
22519	14.86	0.90909	0.1	1.7108e-003
22520	14.953	1.	0.1	1.2982e-003
22521	14.676	0.90909	0.1	1.8133e-003
22522	14.768	1.	0.1	1.4789e-003
22523	14.491	0.90909	0.1	1.9649e-003
22524	14.583	1.	0.1	1.7252e-003
22525	14.306	0.90909	0.1	2.1941e-003
22526	14.399	1.	0.1	2.0763e-003
22527	14.122	0.90909	0.1	2.5535e-003
22528	14.214	1.	0.1	2.605e-003
22529	13.937	0.90909	0.1	3.1488e-003
22530	14.029	1.	0.1	3.4676e-003
22531	13.752	0.90909	0.1	4.2299e-003
22532	13.845	1.	0.1	5.0548e-003
22533	13.568	0.90909	0.1	6.5529e-003
22534	13.66	1.	0.1	8.7142e-003
22535	13.383	0.90909	0.1	1.3884e-002
22536	13.475	1.	0.1	2.3898e-002
22537	13.199	0.90909	0.1	0.14994
22538	13.291	1.	0.1	0.51977
22539	13.014	0.90909	0.1	1.3245
22540	13.106	1.	0.1	1.8283
22541	12.829	0.90909	0.1	2.6754
22542	12.922	1.	0.1	3.2412
22543	12.645	0.90909	0.1	4.1105
22544	12.737	1.	0.1	4.7428
22545	12.46	0.90909	0.1	5.6299
22546	12.552	1.	0.1	6.336
22547	12.275	0.90909	0.1	7.2361
22548	12.368	1.	0.1	8.0245
22549	12.091	0.90909	0.1	8.9313
22550	12.183	1.	0.1	9.8122
22551	11.906	0.90909	0.1	10.717
22552	11.998	1.	0.1	11.702
22553	11.721	0.90909	0.1	12.592
22554	11.814	1.	0.1	13.695
22555	11.537	0.90909	0.1	14.554
22556	11.629	1.	0.1	15.791
22557	11.352	0.90909	0.1	16.6
22558	11.444	1.	0.1	17.99
22559	11.167	0.90909	0.1	18.722
22560	11.26	1.	0.1	20.287
22561	10.983	0.90909	0.1	20.908
22562	11.075	1.	0.1	22.674
22563	10.798	0.90909	0.1	23.143
22564	10.891	1.	0.1	25.14
22565	10.614	0.90909	0.1	25.405
22566	10.706	1.	0.1	27.668
22567	10.429	0.90909	0.1	27.667
22568	10.521	1.	0.1	30.238
22569	10.244	0.90909	0.1	29.893
22570	10.337	1.	0.1	32.819
22571	10.06	0.90909	0.1	32.036
22572	10.152	1.	0.1	35.374
22573	9.875	0.90909	0.1	34.041
22574	9.9673	1.	0.1	37.856
22575	9.6904	0.90909	0.1	35.837
22576	9.7827	1.	0.1	40.204
22577	9.5057	0.90909	0.1	37.34
22578	9.598	1.	0.1	42.347
22579	9.3211	0.90909	0.1	38.451
22580	9.4134	1.	0.1	44.196
22581	9.1364	0.90909	0.1	39.051
22582	9.2288	1.	0.1	45.647
22583	8.9518	0.90909	0.1	39.001
22584	9.0441	1.	0.1	46.575
22585	8.7672	0.90909	0.1	38.146
22586	8.8595	1.	0.1	46.837
22587	8.5825	0.90909	0.1	36.306
22588	8.6748	1.	0.1	46.269
22589	8.3979	0.90909	0.1	33.29
22590	8.4902	1.	0.1	44.685
22591	8.2132	0.90909	0.1	28.895
22592	8.3056	1.	0.1	41.882
22593	8.0286	0.90909	0.1	22.933
22594	8.1209	1.	0.1	37.639
22595	7.844	0.90909	0.1	15.339
22596	7.9363	1.	0.1	31.737
22597	7.6593	0.90909	0.1	6.9825
22598	7.7516	1.	0.1	24.004
22599	7.4747	0.90909	0.1	2.5136
22600	7.567	1.	0.1	14.606
22601	7.29	0.90909	0.1	1.5525
22602	7.3824	1.	0.1	6.018
22603	7.1054	0.90909	0.1	1.3049
22604	7.1977	1.	0.1	2.8385
22605	6.9208	0.90909	0.1	1.2649
22606	7.0131	1.	0.1	2.0584
22607	6.7361	0.90909	0.1	1.3279
22608	6.8284	1.	0.1	1.832
22609	6.5515	0.90909	0.1	1.4659
22610	6.6438	1.	0.1	1.8057
22611	6.3668	0.90909	0.1	1.6664
22612	6.4592	1.	0.1	1.8902
22613	6.1822	0.90909	0.1	1.9427
22614	6.2745	1.	0.1	2.0451
22615	5.9975	0.90909	0.1	2.2168
22616	6.0899	1.	0.1	2.3094
22617	5.8129	0.90909	0.1	2.6968
22618	5.9052	1.	0.1	2.4451
22619	5.6283	0.90909	0.1	2.0964
22620	5.7206	1.	0.1	3.278
22621	5.4436	0.90909	0.1	5.2449
22622	5.5359	1.	0.1	0.84419
22623	5.3513	1.	0.1	9.969
22624	5.259	0.90909	0.1	-2.5752
22625	23.723	1.0909	0.1	-0.15551
22626	23.815	1.1818	0.1	-0.1179
22627	23.908	1.0909	0.1	-0.39979
22628	23.538	1.0909	0.1	-0.18256
22629	23.631	1.1818	0.1	-0.28405
22630	23.354	1.0909	0.1	-9.4523e-002
22631	23.446	1.1818	0.1	-0.10978
22632	23.169	1.0909	0.1	-7.5124e-002
22633	23.261	1.1818	0.1	-9.5993e-002
22634	22.984	1.0909	0.1	-5.4908e-002
22635	23.077	1.1818	0.1	-6.707e-002
22636	22.8	1.0909	0.1	-4.3292e-002
22637	22.892	1.1818	0.1	-5.3632e-002
22638	22.615	1.0909	0.1	-3.4406e-002
22639	22.708	1.1818	0.1	-4.2683e-002
22640	22.431	1.0909	0.1	-2.7952e-002
22641	22.523	1.1818	0.1	-3.5021e-002
22642	22.246	1.0909	0.1	-2.2998e-002
22643	22.338	1.1818	0.1	-2.9104e-002
22644	22.061	1.0909	0.1	-1.9161e-002
22645	22.154	1.1818	0.1	-2.4535e-002
22646	21.877	1.0909	0.1	-1.6129e-002
22647	21.969	1.1818	0.1	-2.0915e-002
22648	21.692	1.0909	0.1	-1.3697e-002
22649	21.784	1.1818	0.1	-1.8008e-002
22650	21.507	1.0909	0.1	-1.1723e-002
22651	21.6	1.1818	0.1	-1.5633e-002
22652	21.323	1.0909	0.1	-1.011e-002
22653	21.415	1.1818	0.1	-1.3681e-002
22654	21.138	1.0909	0.1	-8.7741e-003
22655	21.23	1.1818	0.1	-1.206e-002
22656	20.953	1.0909	0.1	-7.6551e-003
22657	21.046	1.1818	0.1	-1.0691e-002
22658	20.769	1.0909	0.1	-6.7117e-003
22659	20.861	1.1818	0.1	-9.5317e-003
22660	20.584	1.0909	0.1	-5.9105e-003
22661	20.676	1.1818	0.1	-8.538e-003
22662	20.4	1.0909	0.1	-5.2254e-003
22663	20.492	1.1818	0.1	-7.6818e-003
22664	20.215	1.0909	0.1	-4.6345e-003
22665	20.307	1.1818	0.1	-6.9396e-003
22666	20.03	1.0909	0.1	-4.1203e-003
22667	20.123	1.1818	0.1	-6.2899e-003
22668	19.846	1.0909	0.1	-3.6709e-003
22669	19.938	1.1818	0.1	-5.7174e-003
22670	19.661	1.0909	0.1	-3.277e-003
22671	19.753	1.1818	0.1	-5.2118e-003
22672	19.476	1.0909	0.1	-2.9282e-003
22673	19.569	1.1818	0.1	-4.7619e-003
22674	19.292	1.0909	0.1	-2.618e-003
22675	19.384	1.1818	0.1	-4.3589e-003
22676	19.107	1.0909	0.1	-2.3412e-003
22677	19.199	1.1818	0.1	-3.997e-003
22678	18.922	1.0909	0.1	-2.0936e-003
22679	19.015	1.1818	0.1	-3.6698e-003
22680	18.738	1.0909	0.1	-1.8708e-003
22681	18.83	1.1818	0.1	-3.3739e-003
22682	18.553	1.0909	0.1	-1.6685e-003
22683	18.645	1.1818	0.1	-3.104e-003
22684	18.368	1.0909	0.1	-1.4841e-003
22685	18.461	1.1818	0.1	-2.8575e-003
22686	18.184	1.0909	0.1	-1.3158e-003
22687	18.276	1.1818	0.1	-2.6301e-003
22688	17.999	1.0909	0.1	-1.1621e-003
22689	18.092	1.1818	0.1	-2.4208e-003
22690	17.815	1.0909	0.1	-1.0203e-003
22691	17.907	1.1818	0.1	-2.2267e-003
22692	17.63	1.0909	0.1	-8.8893e-004
22693	17.722	1.1818	0.1	-2.0461e-003
22694	17.445	1.0909	0.1	-7.6693e-004
22695	17.538	1.1818	0.1	-1.8765e-003
22696	17.261	1.0909	0.1	-6.4933e-004
22697	17.353	1.1818	0.1	-1.7182e-003
22698	17.076	1.0909	0.1	-5.3651e-004
22699	17.168	1.1818	0.1	-1.5603e-003
22700	16.891	1.0909	0.1	-4.3903e-004
22701	16.984	1.1818	0.1	-1.4133e-003
22702	16.707	1.0909	0.1	-3.4417e-004
22703	16.799	1.1818	0.1	-1.2881e-003
22704	16.522	1.0909	0.1	-2.4093e-004
22705	16.614	1.1818	0.1	-1.148e-003
22706	16.337	1.0909	0.1	-1.4079e-004
22707	16.43	1.1818	0.1	-1.0058e-003
22708	16.153	1.0909	0.1	-4.1884e-005
22709	16.245	1.1818	0.1	-8.7074e-004
22710	15.968	1.0909	0.1	6.1357e-005
22711	16.06	1.1818	0.1	-7.2957e-004
22712	15.783	1.0909	0.1	1.7091e-004
22713	15.876	1.1818	0.1	-5.8281e-004
22714	15.599	1.0909	0.1	2.9123e-004
22715	15.691	1.1818	0.1	-4.2367e-004
22716	15.414	1.0909	0.1	4.2727e-004
22717	15.507	1.1818	0.1	-2.4823e-004
22718	15.23	1.0909	0.1	5.8673e-004
22719	15.322	1.1818	0.1	-4.7001e-005
22720	15.045	1.0909	0.1	7.799e-004
22721	15.137	1.1818	0.1	1.9203e-004
22722	14.86	1.0909	0.1	1.0239e-003
22723	14.953	1.1818	0.1	4.8706e-004
22724	14.676	1.0909	0.1	1.347e-003
22725	14.768	1.1818	0.1	8.6971e-004
22726	14.491	1.0909	0.1	1.7975e-003
22727	14.583	1.1818	0.1	1.3955e-003
22728	14.306	1.0909	0.1	2.4686e-003
22729	14.399	1.1818	0.1	2.1724e-003
22730	14.122	1.0909	0.1	3.5662e-003
22731	14.214	1.1818	0.1	3.4445e-003
22732	13.937	1.0909	0.1	5.6453e-003
22733	14.029	1.1818	0.1	5.9052e-003
22734	13.752	1.0909	0.1	1.0878e-002
22735	13.845	1.1818	0.1	1.2554e-002
22736	13.568	1.0909	0.1	4.2855e-002
22737	13.66	1.1818	0.1	7.3342e-002
22738	13.383	1.0909	0.1	0.88459
22739	13.475	1.1818	0.1	1.1356
22740	13.199	1.0909	0.1	2.2567
22741	13.291	1.1818	0.1	2.5509
22742	13.014	1.0909	0.1	3.7255
22743	13.106	1.1818	0.1	4.0635
22744	12.829	1.0909	0.1	5.2878
22745	12.922	1.1818	0.1	5.6739
22746	12.645	1.0909	0.1	6.9478
22747	12.737	1.1818	0.1	7.3877
22748	12.46	1.0909	0.1	8.7107
22749	12.552	1.1818	0.1	9.2111
22750	12.275	1.0909	0.1	10.581
22751	12.368	1.1818	0.1	11.15
22752	12.091	1.0909	0.1	12.564
22753	12.183	1.1818	0.1	13.211
22754	11.906	1.0909	0.1	14.661
22755	11.998	1.1818	0.1	15.399
22756	11.721	1.0909	0.1	16.877
22757	11.814	1.1818	0.1	17.717
22758	11.537	1.0909	0.1	19.21
22759	11.629	1.1818	0.1	20.17
22760	11.352	1.0909	0.1	21.66
22761	11.444	1.1818	0.1	22.759
22762	11.167	1.0909	0.1	24.223
22763	11.26	1.1818	0.1	25.484
22764	10.983	1.0909	0.1	26.89
22765	11.075	1.1818	0.1	28.34
22766	10.798	1.0909	0.1	29.65
22767	10.891	1.1818	0.1	31.322
22768	10.614	1.0909	0.1	32.486
22769	10.706	1.1818	0.1	34.418
22770	10.429	1.0909	0.1	35.375
22771	10.521	1.1818	0.1	37.611
22772	10.244	1.0909	0.1	38.287
22773	10.337	1.1818	0.1	40.881
22774	10.06	1.0909	0.1	41.18
22775	10.152	1.1818	0.1	44.195
22776	9.875	1.0909	0.1	44.005
22777	9.9673	1.1818	0.1	47.515
22778	9.6904	1.0909	0.1	46.7
22779	9.7827	1.1818	0.1	50.791
22780	9.5057	1.0909	0.1	49.188
22781	9.598	1.1818	0.1	53.959
22782	9.3211	1.0909	0.1	51.376
22783	9.4134	1.1818	0.1	56.943
22784	9.1364	1.0909	0.1	53.154
22785	9.2288	1.1818	0.1	59.65
22786	8.9518	1.0909	0.1	54.393
22787	9.0441	1.1818	0.1	61.969
22788	8.7672	1.0909	0.1	54.943
22789	8.8595	1.1818	0.1	63.767
22790	8.5825	1.0909	0.1	54.631
22791	8.6748	1.1818	0.1	64.893
22792	8.3979	1.0909	0.1	53.263
22793	8.4902	1.1818	0.1	65.171
22794	8.2132	1.0909	0.1	50.623
22795	8.3056	1.1818	0.1	64.398
22796	8.0286	1.0909	0.1	46.474
22797	8.1209	1.1818	0.1	62.346
22798	7.844	1.0909	0.1	40.561
22799	7.9363	1.1818	0.1	58.752
22800	7.6593	1.0909	0.1	32.643
22801	7.7516	1.1818	0.1	53.317
22802	7.4747	1.0909	0.1	22.635
22803	7.567	1.1818	0.1	45.698
22804	7.29	1.0909	0.1	11.643
22805	7.3824	1.1818	0.1	35.549
22806	7.1054	1.0909	0.1	4.9618
22807	7.1977	1.1818	0.1	22.868
22808	6.9208	1.0909	0.1	3.0848
22809	7.0131	1.1818	0.1	10.49
22810	6.7361	1.0909	0.1	2.5078
22811	6.8284	1.1818	0.1	5.0229
22812	6.5515	1.0909	0.1	2.3184
22813	6.6438	1.1818	0.1	3.4728
22814	6.3668	1.0909	0.1	2.3007
22815	6.4592	1.1818	0.1	2.9246
22816	6.1822	1.0909	0.1	2.4168
22817	6.2745	1.1818	0.1	2.735
22818	5.9975	1.0909	0.1	2.5419
22819	6.0899	1.1818	0.1	2.7886
22820	5.8129	1.0909	0.1	3.0535
22821	5.9052	1.1818	0.1	2.885
22822	5.6283	1.0909	0.1	2.1105
22823	5.7206	1.1818	0.1	3.7857
22824	5.4436	1.0909	0.1	6.1322
22825	5.5359	1.1818	0.1	0.85364
22826	5.3513	1.1818	0.1	10.301
22827	5.259	1.0909	0.1	-0.80041
22828	23.723	1.2727	0.1	-0.1742
22829	23.815	1.3636	0.1	-0.14043
22830	23.908	1.2727	0.1	-0.40792
22831	23.538	1.2727	0.1	-0.19561
22832	23.631	1.3636	0.1	-0.29713
22833	23.354	1.2727	0.1	-0.10523
22834	23.446	1.3636	0.1	-0.11944
22835	23.169	1.2727	0.1	-8.4859e-002
22836	23.261	1.3636	0.1	-0.10467
22837	22.984	1.2727	0.1	-6.3899e-002
22838	23.077	1.3636	0.1	-7.4977e-002
22839	22.8	1.2727	0.1	-5.1709e-002
22840	22.892	1.3636	0.1	-6.103e-002
22841	22.615	1.2727	0.1	-4.2313e-002
22842	22.708	1.3636	0.1	-4.9653e-002
22843	22.431	1.2727	0.1	-3.5393e-002
22844	22.523	1.3636	0.1	-4.161e-002
22845	22.246	1.2727	0.1	-3.0002e-002
22846	22.338	1.3636	0.1	-3.5341e-002
22847	22.061	1.2727	0.1	-2.5751e-002
22848	22.154	1.3636	0.1	-3.0437e-002
22849	21.877	1.2727	0.1	-2.2333e-002
22850	21.969	1.3636	0.1	-2.6502e-002
22851	21.692	1.2727	0.1	-1.9543e-002
22852	21.784	1.3636	0.1	-2.3298e-002
22853	21.507	1.2727	0.1	-1.724e-002
22854	21.6	1.3636	0.1	-2.0644e-002
22855	21.323	1.2727	0.1	-1.532e-002
22856	21.415	1.3636	0.1	-1.8433e-002
22857	21.138	1.2727	0.1	-1.3699e-002
22858	21.23	1.3636	0.1	-1.6567e-002
22859	20.953	1.2727	0.1	-1.2319e-002
22860	21.046	1.3636	0.1	-1.4973e-002
22861	20.769	1.2727	0.1	-1.1135e-002
22862	20.861	1.3636	0.1	-1.3605e-002
22863	20.584	1.2727	0.1	-1.0108e-002
22864	20.676	1.3636	0.1	-1.2415e-002
22865	20.4	1.2727	0.1	-9.2143e-003
22866	20.492	1.3636	0.1	-1.1377e-002
22867	20.215	1.2727	0.1	-8.4303e-003
22868	20.307	1.3636	0.1	-1.0466e-002
22869	20.03	1.2727	0.1	-7.7377e-003
22870	20.123	1.3636	0.1	-9.6581e-003
22871	19.846	1.2727	0.1	-7.1225e-003
22872	19.938	1.3636	0.1	-8.9389e-003
22873	19.661	1.2727	0.1	-6.5733e-003
22874	19.753	1.3636	0.1	-8.2964e-003
22875	19.476	1.2727	0.1	-6.0804e-003
22876	19.569	1.3636	0.1	-7.7182e-003
22877	19.292	1.2727	0.1	-5.6358e-003
22878	19.384	1.3636	0.1	-7.1949e-003
22879	19.107	1.2727	0.1	-5.2328e-003
22880	19.199	1.3636	0.1	-6.7205e-003
22881	18.922	1.2727	0.1	-4.8656e-003
22882	19.015	1.3636	0.1	-6.2875e-003
22883	18.738	1.2727	0.1	-4.5306e-003
22884	18.83	1.3636	0.1	-5.8919e-003
22885	18.553	1.2727	0.1	-4.2237e-003
22886	18.645	1.3636	0.1	-5.5274e-003
22887	18.368	1.2727	0.1	-3.9409e-003
22888	18.461	1.3636	0.1	-5.1922e-003
22889	18.184	1.2727	0.1	-3.6788e-003
22890	18.276	1.3636	0.1	-4.8815e-003
22891	17.999	1.2727	0.1	-3.435e-003
22892	18.092	1.3636	0.1	-4.5915e-003
22893	17.815	1.2727	0.1	-3.2077e-003
22894	17.907	1.3636	0.1	-4.3216e-003
22895	17.63	1.2727	0.1	-2.9943e-003
22896	17.722	1.3636	0.1	-4.0677e-003
22897	17.445	1.2727	0.1	-2.7936e-003
22898	17.538	1.3636	0.1	-3.8281e-003
22899	17.261	1.2727	0.1	-2.6e-003
22900	17.353	1.3636	0.1	-3.6029e-003
22901	17.076	1.2727	0.1	-2.4128e-003
22902	17.168	1.3636	0.1	-3.3794e-003
22903	16.891	1.2727	0.1	-2.2429e-003
22904	16.984	1.3636	0.1	-3.1685e-003
22905	16.707	1.2727	0.1	-2.0773e-003
22906	16.799	1.3636	0.1	-2.9811e-003
22907	16.522	1.2727	0.1	-1.9032e-003
22908	16.614	1.3636	0.1	-2.7792e-003
22909	16.337	1.2727	0.1	-1.7312e-003
22910	16.43	1.3636	0.1	-2.5748e-003
22911	16.153	1.2727	0.1	-1.5592e-003
22912	16.245	1.3636	0.1	-2.3763e-003
22913	15.968	1.2727	0.1	-1.3802e-003
22914	16.06	1.3636	0.1	-2.1714e-003
22915	15.783	1.2727	0.1	-1.19e-003
22916	15.876	1.3636	0.1	-1.9565e-003
22917	15.599	1.2727	0.1	-9.8248e-004
22918	15.691	1.3636	0.1	-1.7249e-003
22919	15.414	1.2727	0.1	-7.4936e-004
22920	15.507	1.3636	0.1	-1.4678e-003
22921	15.23	1.2727	0.1	-4.7706e-004
22922	15.322	1.3636	0.1	-1.173e-003
22923	15.045	1.2727	0.1	-1.4584e-004
22924	15.137	1.3636	0.1	-8.2101e-004
22925	14.86	1.2727	0.1	2.7683e-004
22926	14.953	1.3636	0.1	-3.7733e-004
22927	14.676	1.2727	0.1	8.5025e-004
22928	14.768	1.3636	0.1	2.1562e-004
22929	14.491	1.2727	0.1	1.6918e-003
22930	14.583	1.3636	0.1	1.0753e-003
22931	14.306	1.2727	0.1	3.0718e-003
22932	14.399	1.3636	0.1	2.4759e-003
22933	14.122	1.2727	0.1	5.7863e-003
22934	14.214	1.3636	0.1	5.2312e-003
22935	13.937	1.2727	0.1	1.3592e-002
22936	14.029	1.3636	0.1	1.3316e-002
22937	13.752	1.2727	0.1	0.12069
22938	13.845	1.3636	0.1	0.14486
22939	13.568	1.2727	0.1	1.3298
22940	13.66	1.3636	0.1	1.4096
22941	13.383	1.2727	0.1	2.7837
22942	13.475	1.3636	0.1	2.8897
22943	13.199	1.2727	0.1	4.3364
22944	13.291	1.3636	0.1	4.4704
22945	13.014	1.2727	0.1	5.9907
22946	13.106	1.3636	0.1	6.1558
22947	12.829	1.2727	0.1	7.7531
22948	12.922	1.3636	0.1	7.9531
22949	12.645	1.2727	0.1	9.6308
22950	12.737	1.3636	0.1	9.8704
22951	12.46	1.2727	0.1	11.631
22952	12.552	1.3636	0.1	11.916
22953	12.275	1.2727	0.1	13.761
22954	12.368	1.3636	0.1	14.099
22955	12.091	1.2727	0.1	16.028
22956	12.183	1.3636	0.1	16.427
22957	11.906	1.2727	0.1	18.437
22958	11.998	1.3636	0.1	18.908
22959	11.721	1.2727	0.1	20.994
22960	11.814	1.3636	0.1	21.549
22961	11.537	1.2727	0.1	23.703
22962	11.629	1.3636	0.1	24.359
22963	11.352	1.2727	0.1	26.567
22964	11.444	1.3636	0.1	27.341
22965	11.167	1.2727	0.1	29.586
22966	11.26	1.3636	0.1	30.501
22967	10.983	1.2727	0.1	32.757
22968	11.075	1.3636	0.1	33.84
22969	10.798	1.2727	0.1	36.075
22970	10.891	1.3636	0.1	37.358
22971	10.614	1.2727	0.1	39.529
22972	10.706	1.3636	0.1	41.05
22973	10.429	1.2727	0.1	43.103
22974	10.521	1.3636	0.1	44.91
22975	10.244	1.2727	0.1	46.776
22976	10.337	1.3636	0.1	48.923
22977	10.06	1.2727	0.1	50.518
22978	10.152	1.3636	0.1	53.069
22979	9.875	1.2727	0.1	54.288
22980	9.9673	1.3636	0.1	57.321
22981	9.6904	1.2727	0.1	58.037
22982	9.7827	1.3636	0.1	61.643
22983	9.5057	1.2727	0.1	61.701
22984	9.598	1.3636	0.1	65.986
22985	9.3211	1.2727	0.1	65.204
22986	9.4134	1.3636	0.1	70.291
22987	9.1364	1.2727	0.1	68.45
22988	9.2288	1.3636	0.1	74.483
22989	8.9518	1.2727	0.1	71.327
22990	9.0441	1.3636	0.1	78.47
22991	8.7672	1.2727	0.1	73.702
22992	8.8595	1.3636	0.1	82.141
22993	8.5825	1.2727	0.1	75.417
22994	8.6748	1.3636	0.1	85.365
22995	8.3979	1.2727	0.1	76.292
22996	8.4902	1.3636	0.1	87.985
22997	8.2132	1.2727	0.1	76.114
22998	8.3056	1.3636	0.1	89.813
22999	8.0286	1.2727	0.1	74.633
23000	8.1209	1.3636	0.1	90.628
23001	7.844	1.2727	0.1	71.554
23002	7.9363	1.3636	0.1	90.159
23003	7.6593	1.2727	0.1	66.512
23004	7.7516	1.3636	0.1	88.067
23005	7.4747	1.2727	0.1	59.045
23006	7.567	1.3636	0.1	83.909
23007	7.29	1.2727	0.1	48.569
23008	7.3824	1.3636	0.1	77.082
23009	7.1054	1.2727	0.1	34.513
23010	7.1977	1.3636	0.1	66.732
23011	6.9208	1.2727	0.1	17.924
23012	7.0131	1.3636	0.1	51.705
23013	6.7361	1.2727	0.1	7.3756
23014	6.8284	1.3636	0.1	31.224
23015	6.5515	1.2727	0.1	4.3841
23016	6.6438	1.3636	0.1	11.987
23017	6.3668	1.2727	0.1	3.4198
23018	6.4592	1.3636	0.1	5.6615
23019	6.1822	1.2727	0.1	3.0975
23020	6.2745	1.3636	0.1	3.9935
23021	5.9975	1.2727	0.1	3.105
23022	6.0899	1.3636	0.1	3.5499
23023	5.8129	1.2727	0.1	3.6038
23024	5.9052	1.3636	0.1	3.6293
23025	5.6283	1.2727	0.1	2.5564
23026	5.7206	1.3636	0.1	4.305
23027	5.4436	1.2727	0.1	5.4472
23028	5.5359	1.3636	0.1	1.6269
23029	5.3513	1.3636	0.1	19.67
23030	5.259	1.2727	0.1	-7.0884
23031	23.723	1.4545	0.1	-0.18813
23032	23.815	1.5455	0.1	-0.15804
23033	23.908	1.4545	0.1	-0.41342
23034	23.538	1.4545	0.1	-0.20506
23035	23.631	1.5455	0.1	-0.30691
23036	23.354	1.4545	0.1	-0.1129
23037	23.446	1.5455	0.1	-0.12655
23038	23.169	1.4545	0.1	-9.1824e-002
23039	23.261	1.5455	0.1	-0.11102
23040	22.984	1.4545	0.1	-7.035e-002
23041	23.077	1.5455	0.1	-8.0763e-002
23042	22.8	1.4545	0.1	-5.7795e-002
23043	22.892	1.5455	0.1	-6.646e-002
23044	22.615	1.4545	0.1	-4.8089e-002
23045	22.708	1.5455	0.1	-5.4804e-002
23046	22.431	1.4545	0.1	-4.089e-002
23047	22.523	1.5455	0.1	-4.6526e-002
23048	22.246	1.4545	0.1	-3.5236e-002
23049	22.338	1.5455	0.1	-4.004e-002
23050	22.061	1.4545	0.1	-3.0736e-002
23051	22.154	1.5455	0.1	-3.4932e-002
23052	21.877	1.4545	0.1	-2.7081e-002
23053	21.969	1.5455	0.1	-3.08e-002
23054	21.692	1.4545	0.1	-2.4064e-002
23055	21.784	1.5455	0.1	-2.7407e-002
23056	21.507	1.4545	0.1	-2.1543e-002
23057	21.6	1.5455	0.1	-2.4572e-002
23058	21.323	1.4545	0.1	-1.9419e-002
23059	21.415	1.5455	0.1	-2.2188e-002
23060	21.138	1.4545	0.1	-1.7607e-002
23061	21.23	1.5455	0.1	-2.0158e-002
23062	20.953	1.4545	0.1	-1.6047e-002
23063	21.046	1.5455	0.1	-1.8409e-002
23064	20.769	1.4545	0.1	-1.4694e-002
23065	20.861	1.5455	0.1	-1.6893e-002
23066	20.584	1.4545	0.1	-1.351e-002
23067	20.676	1.5455	0.1	-1.5565e-002
23068	20.4	1.4545	0.1	-1.247e-002
23069	20.492	1.5455	0.1	-1.44e-002
23070	20.215	1.4545	0.1	-1.1548e-002
23071	20.307	1.5455	0.1	-1.3365e-002
23072	20.03	1.4545	0.1	-1.0726e-002
23073	20.123	1.5455	0.1	-1.2445e-002
23074	19.846	1.4545	0.1	-9.9904e-003
23075	19.938	1.5455	0.1	-1.1617e-002
23076	19.661	1.4545	0.1	-9.3287e-003
23077	19.753	1.5455	0.1	-1.0874e-002
23078	19.476	1.4545	0.1	-8.7291e-003
23079	19.569	1.5455	0.1	-1.0201e-002
23080	19.292	1.4545	0.1	-8.1843e-003
23081	19.384	1.5455	0.1	-9.5888e-003
23082	19.107	1.4545	0.1	-7.6873e-003
23083	19.199	1.5455	0.1	-9.0306e-003
23084	18.922	1.4545	0.1	-7.2326e-003
23085	19.015	1.5455	0.1	-8.5181e-003
23086	18.738	1.4545	0.1	-6.8141e-003
23087	18.83	1.5455	0.1	-8.0487e-003
23088	18.553	1.4545	0.1	-6.4272e-003
23089	18.645	1.5455	0.1	-7.6131e-003
23090	18.368	1.4545	0.1	-6.0697e-003
23091	18.461	1.5455	0.1	-7.2117e-003
23092	18.184	1.4545	0.1	-5.7364e-003
23093	18.276	1.5455	0.1	-6.8367e-003
23094	17.999	1.4545	0.1	-5.4253e-003
23095	18.092	1.5455	0.1	-6.4869e-003
23096	17.815	1.4545	0.1	-5.1336e-003
23097	17.907	1.5455	0.1	-6.1595e-003
23098	17.63	1.4545	0.1	-4.8582e-003
23099	17.722	1.5455	0.1	-5.8508e-003
23100	17.445	1.4545	0.1	-4.5986e-003
23101	17.538	1.5455	0.1	-5.5589e-003
23102	17.261	1.4545	0.1	-4.3479e-003
23103	17.353	1.5455	0.1	-5.2829e-003
23104	17.076	1.4545	0.1	-4.105e-003
23105	17.168	1.5455	0.1	-5.0109e-003
23106	16.891	1.4545	0.1	-3.8811e-003
23107	16.984	1.5455	0.1	-4.7525e-003
23108	16.707	1.4545	0.1	-3.6619e-003
23109	16.799	1.5455	0.1	-4.5192e-003
23110	16.522	1.4545	0.1	-3.4345e-003
23111	16.614	1.5455	0.1	-4.272e-003
23112	16.337	1.4545	0.1	-3.2085e-003
23113	16.43	1.5455	0.1	-4.022e-003
23114	16.153	1.4545	0.1	-2.9825e-003
23115	16.245	1.5455	0.1	-3.7787e-003
23116	15.968	1.4545	0.1	-2.7477e-003
23117	16.06	1.5455	0.1	-3.5272e-003
23118	15.783	1.4545	0.1	-2.4983e-003
23119	15.876	1.5455	0.1	-3.2635e-003
23120	15.599	1.4545	0.1	-2.2251e-003
23121	15.691	1.5455	0.1	-2.9808e-003
23122	15.414	1.4545	0.1	-1.916e-003
23123	15.507	1.5455	0.1	-2.6644e-003
23124	15.23	1.4545	0.1	-1.5538e-003
23125	15.322	1.5455	0.1	-2.3006e-003
23126	15.045	1.4545	0.1	-1.1056e-003
23127	15.137	1.5455	0.1	-1.8596e-003
23128	14.86	1.4545	0.1	-5.1449e-004
23129	14.953	1.5455	0.1	-1.2902e-003
23130	14.676	1.4545	0.1	3.2984e-004
23131	14.768	1.5455	0.1	-4.9192e-004
23132	14.491	1.4545	0.1	1.6889e-003
23133	14.583	1.5455	0.1	7.6443e-004
23134	14.306	1.4545	0.1	4.3428e-003
23135	14.399	1.5455	0.1	3.1554e-003
23136	14.122	1.4545	0.1	1.2126e-002
23137	14.214	1.5455	0.1	9.8611e-003
23138	13.937	1.4545	0.1	0.1476
23139	14.029	1.5455	0.1	0.10585
23140	13.752	1.4545	0.1	1.443
23141	13.845	1.5455	0.1	1.3706
23142	13.568	1.4545	0.1	2.9477
23143	13.66	1.5455	0.1	2.8883
23144	13.383	1.4545	0.1	4.5545
23145	13.475	1.5455	0.1	4.5094
23146	13.199	1.4545	0.1	6.2684
23147	13.291	1.5455	0.1	6.2389
23148	13.014	1.4545	0.1	8.0973
23149	13.106	1.5455	0.1	8.0856
23150	12.829	1.4545	0.1	10.05
23151	12.922	1.5455	0.1	10.059
23152	12.645	1.4545	0.1	12.136
23153	12.737	1.5455	0.1	12.169
23154	12.46	1.4545	0.1	14.365
23155	12.552	1.5455	0.1	14.426
23156	12.275	1.4545	0.1	16.746
23157	12.368	1.5455	0.1	16.842
23158	12.091	1.4545	0.1	19.289
23159	12.183	1.5455	0.1	19.426
23160	11.906	1.4545	0.1	22.003
23161	11.998	1.5455	0.1	22.191
23162	11.721	1.4545	0.1	24.898
23163	11.814	1.5455	0.1	25.147
23164	11.537	1.4545	0.1	27.981
23165	11.629	1.5455	0.1	28.305
23166	11.352	1.4545	0.1	31.26
23167	11.444	1.5455	0.1	31.676
23168	11.167	1.4545	0.1	34.74
23169	11.26	1.5455	0.1	35.269
23170	10.983	1.4545	0.1	38.427
23171	11.075	1.5455	0.1	39.092
23172	10.798	1.4545	0.1	42.32
23173	10.891	1.5455	0.1	43.153
23174	10.614	1.4545	0.1	46.419
23175	10.706	1.5455	0.1	47.456
23176	10.429	1.4545	0.1	50.717
23177	10.521	1.5455	0.1	52.002
23178	10.244	1.4545	0.1	55.204
23179	10.337	1.5455	0.1	56.789
23180	10.06	1.4545	0.1	59.861
23181	10.152	1.5455	0.1	61.811
23182	9.875	1.4545	0.1	64.665
23183	9.9673	1.5455	0.1	67.055
23184	9.6904	1.4545	0.1	69.581
23185	9.7827	1.5455	0.1	72.5
23186	9.5057	1.4545	0.1	74.565
23187	9.598	1.5455	0.1	78.118
23188	9.3211	1.4545	0.1	79.559
23189	9.4134	1.5455	0.1	83.87
23190	9.1364	1.4545	0.1	84.491
23191	9.2288	1.5455	0.1	89.705
23192	8.9518	1.4545	0.1	89.271
23193	9.0441	1.5455	0.1	95.555
23194	8.7672	1.4545	0.1	93.791
23195	8.8595	1.5455	0.1	101.34
23196	8.5825	1.4545	0.1	97.919
23197	8.6748	1.5455	0.1	106.95
23198	8.3979	1.4545	0.1	101.49
23199	8.4902	1.5455	0.1	112.25
23200	8.2132	1.4545	0.1	104.32
23201	8.3056	1.5455	0.1	117.1
23202	8.0286	1.4545	0.1	106.16
23203	8.1209	1.5455	0.1	121.27
23204	7.844	1.4545	0.1	106.7
23205	7.9363	1.5455	0.1	124.52
23206	7.6593	1.4545	0.1	105.54
23207	7.7516	1.5455	0.1	126.49
23208	7.4747	1.4545	0.1	102.13
23209	7.567	1.5455	0.1	126.71
23210	7.29	1.4545	0.1	95.645
23211	7.3824	1.5455	0.1	124.51
23212	7.1054	1.4545	0.1	84.873
23213	7.1977	1.5455	0.1	118.84
23214	6.9208	1.4545	0.1	68.013
23215	7.0131	1.5455	0.1	108.14
23216	6.7361	1.4545	0.1	43.049
23217	6.8284	1.5455	0.1	89.934
23218	6.5515	1.4545	0.1	15.751
23219	6.6438	1.5455	0.1	60.868
23220	6.3668	1.4545	0.1	6.4071
23221	6.4592	1.5455	0.1	23.166
23222	6.1822	1.4545	0.1	4.4002
23223	6.2745	1.5455	0.1	7.572
23224	5.9975	1.4545	0.1	4.0119
23225	6.0899	1.5455	0.1	5.1241
23226	5.8129	1.4545	0.1	4.2775
23227	5.9052	1.5455	0.1	3.6557
23228	5.6283	1.4545	0.1	3.3727
23229	5.7206	1.5455	0.1	9.0222
23230	5.4436	1.4545	0.1	16.251
23231	5.5359	1.5455	0.1	-0.1051
23232	5.3513	1.5455	0.1	8.395
23233	5.259	1.4545	0.1	19.402
23234	23.723	1.6364	0.1	-0.19896
23235	23.815	1.7273	0.1	-0.1721
23236	23.908	1.6364	0.1	-0.41753
23237	23.538	1.6364	0.1	-0.21225
23238	23.631	1.7273	0.1	-0.31444
23239	23.354	1.6364	0.1	-0.11869
23240	23.446	1.7273	0.1	-0.13196
23241	23.169	1.6364	0.1	-9.7053e-002
23242	23.261	1.7273	0.1	-0.11583
23243	22.984	1.6364	0.1	-7.5188e-002
23244	23.077	1.7273	0.1	-8.5125e-002
23245	22.8	1.6364	0.1	-6.2368e-002
23246	22.892	1.7273	0.1	-7.0553e-002
23247	22.615	1.6364	0.1	-5.2456e-002
23248	22.708	1.7273	0.1	-5.8695e-002
23249	22.431	1.6364	0.1	-4.5079e-002
23250	22.523	1.7273	0.1	-5.0259e-002
23251	22.246	1.6364	0.1	-3.926e-002
23252	22.338	1.7273	0.1	-4.3634e-002
23253	22.061	1.6364	0.1	-3.4603e-002
23254	22.154	1.7273	0.1	-3.8397e-002
23255	21.877	1.6364	0.1	-3.0793e-002
23256	21.969	1.7273	0.1	-3.4141e-002
23257	21.692	1.6364	0.1	-2.7627e-002
23258	21.784	1.7273	0.1	-3.0626e-002
23259	21.507	1.6364	0.1	-2.4964e-002
23260	21.6	1.7273	0.1	-2.7672e-002
23261	21.323	1.6364	0.1	-2.2702e-002
23262	21.415	1.7273	0.1	-2.5173e-002
23263	21.138	1.6364	0.1	-2.0759e-002
23264	21.23	1.7273	0.1	-2.3031e-002
23265	20.953	1.6364	0.1	-1.9073e-002
23266	21.046	1.7273	0.1	-2.1176e-002
23267	20.769	1.6364	0.1	-1.7599e-002
23268	20.861	1.7273	0.1	-1.9556e-002
23269	20.584	1.6364	0.1	-1.6303e-002
23270	20.676	1.7273	0.1	-1.8132e-002
23271	20.4	1.6364	0.1	-1.5155e-002
23272	20.492	1.7273	0.1	-1.6872e-002
23273	20.215	1.6364	0.1	-1.4132e-002
23274	20.307	1.7273	0.1	-1.575e-002
23275	20.03	1.6364	0.1	-1.3216e-002
23276	20.123	1.7273	0.1	-1.4746e-002
23277	19.846	1.6364	0.1	-1.239e-002
23278	19.938	1.7273	0.1	-1.384e-002
23279	19.661	1.6364	0.1	-1.1644e-002
23280	19.753	1.7273	0.1	-1.3022e-002
23281	19.476	1.6364	0.1	-1.0965e-002
23282	19.569	1.7273	0.1	-1.2279e-002
23283	19.292	1.6364	0.1	-1.0346e-002
23284	19.384	1.7273	0.1	-1.1601e-002
23285	19.107	1.6364	0.1	-9.7786e-003
23286	19.199	1.7273	0.1	-1.098e-002
23287	18.922	1.6364	0.1	-9.2569e-003
23288	19.015	1.7273	0.1	-1.0409e-002
23289	18.738	1.6364	0.1	-8.7757e-003
23290	18.83	1.7273	0.1	-9.883e-003
23291	18.553	1.6364	0.1	-8.3304e-003
23292	18.645	1.7273	0.1	-9.3952e-003
23293	18.368	1.6364	0.1	-7.9161e-003
23294	18.461	1.7273	0.1	-8.9432e-003
23295	18.184	1.6364	0.1	-7.5289e-003
23296	18.276	1.7273	0.1	-8.5213e-003
23297	17.999	1.6364	0.1	-7.167e-003
23298	18.092	1.7273	0.1	-8.1265e-003
23299	17.815	1.6364	0.1	-6.8266e-003
23300	17.907	1.7273	0.1	-7.7562e-003
23301	17.63	1.6364	0.1	-6.5053e-003
23302	17.722	1.7273	0.1	-7.4076e-003
23303	17.445	1.6364	0.1	-6.2009e-003
23304	17.538	1.7273	0.1	-7.0764e-003
23305	17.261	1.6364	0.1	-5.9073e-003
23306	17.353	1.7273	0.1	-6.7631e-003
23307	17.076	1.6364	0.1	-5.6235e-003
23308	17.168	1.7273	0.1	-6.4559e-003
23309	16.891	1.6364	0.1	-5.3597e-003
23310	16.984	1.7273	0.1	-6.1641e-003
23311	16.707	1.6364	0.1	-5.1023e-003
23312	16.799	1.7273	0.1	-5.8969e-003
23313	16.522	1.6364	0.1	-4.8368e-003
23314	16.614	1.7273	0.1	-5.6188e-003
23315	16.337	1.6364	0.1	-4.5741e-003
23316	16.43	1.7273	0.1	-5.3378e-003
23317	16.153	1.6364	0.1	-4.3105e-003
23318	16.245	1.7273	0.1	-5.0649e-003
23319	15.968	1.6364	0.1	-4.0361e-003
23320	16.06	1.7273	0.1	-4.7831e-003
23321	15.783	1.6364	0.1	-3.7463e-003
23322	15.876	1.7273	0.1	-4.4894e-003
23323	15.599	1.6364	0.1	-3.4292e-003
23324	15.691	1.7273	0.1	-4.1742e-003
23325	15.414	1.6364	0.1	-3.0697e-003
23326	15.507	1.7273	0.1	-3.8237e-003
23327	15.23	1.6364	0.1	-2.6434e-003
23328	15.322	1.7273	0.1	-3.4179e-003
23329	15.045	1.6364	0.1	-2.1057e-003
23330	15.137	1.7273	0.1	-2.9185e-003
23331	14.86	1.6364	0.1	-1.3704e-003
23332	14.953	1.7273	0.1	-2.2573e-003
23333	14.676	1.6364	0.1	-2.4169e-004
23334	14.768	1.7273	0.1	-1.2763e-003
23335	14.491	1.6364	0.1	1.8367e-003
23336	14.583	1.7273	0.1	4.482e-004
23337	14.306	1.6364	0.1	7.3421e-003
23338	14.399	1.7273	0.1	4.6462e-003
23339	14.122	1.6364	0.1	6.6319e-002
23340	14.214	1.7273	0.1	3.4196e-002
23341	13.937	1.6364	0.1	1.2623
23342	14.029	1.7273	0.1	1.059
23343	13.752	1.6364	0.1	2.7927
23344	13.845	1.7273	0.1	2.5907
23345	13.568	1.6364	0.1	4.4276
23346	13.66	1.7273	0.1	4.2279
23347	13.383	1.6364	0.1	6.172
23348	13.475	1.7273	0.1	5.9747
23349	13.199	1.6364	0.1	8.035
23350	13.291	1.7273	0.1	7.8405
23351	13.014	1.6364	0.1	10.027
23352	13.106	1.7273	0.1	9.8359
23353	12.829	1.6364	0.1	12.158
23354	12.922	1.7273	0.1	11.972
23355	12.645	1.6364	0.1	14.44
23356	12.737	1.7273	0.1	14.261
23357	12.46	1.6364	0.1	16.885
23358	12.552	1.7273	0.1	16.716
23359	12.275	1.6364	0.1	19.504
23360	12.368	1.7273	0.1	19.35
23361	12.091	1.6364	0.1	22.311
23362	12.183	1.7273	0.1	22.176
23363	11.906	1.6364	0.1	25.318
23364	11.998	1.7273	0.1	25.209
23365	11.721	1.6364	0.1	28.539
23366	11.814	1.7273	0.1	28.465
23367	11.537	1.6364	0.1	31.986
23368	11.629	1.7273	0.1	31.957
23369	11.352	1.6364	0.1	35.671
23370	11.444	1.7273	0.1	35.702
23371	11.167	1.6364	0.1	39.608
23372	11.26	1.7273	0.1	39.715
23373	10.983	1.6364	0.1	43.806
23374	11.075	1.7273	0.1	44.011
23375	10.798	1.6364	0.1	48.277
23376	10.891	1.7273	0.1	48.606
23377	10.614	1.6364	0.1	53.028
23378	10.706	1.7273	0.1	53.512
23379	10.429	1.6364	0.1	58.064
23380	10.521	1.7273	0.1	58.743
23381	10.244	1.6364	0.1	63.387
23382	10.337	1.7273	0.1	64.309
23383	10.06	1.6364	0.1	68.995
23384	10.152	1.7273	0.1	70.217
23385	9.875	1.6364	0.1	74.88
23386	9.9673	1.7273	0.1	76.472
23387	9.6904	1.6364	0.1	81.028
23388	9.7827	1.7273	0.1	83.071
23389	9.5057	1.6364	0.1	87.414
23390	9.598	1.7273	0.1	90.008
23391	9.3211	1.6364	0.1	94.007
23392	9.4134	1.7273	0.1	97.267
23393	9.1364	1.6364	0.1	100.76
23394	9.2288	1.7273	0.1	104.82
23395	8.9518	1.6364	0.1	107.61
23396	9.0441	1.7273	0.1	112.64
23397	8.7672	1.6364	0.1	114.48
23398	8.8595	1.7273	0.1	120.66
23399	8.5825	1.6364	0.1	121.27
23400	8.6748	1.7273	0.1	128.81
23401	8.3979	1.6364	0.1	127.85
23402	8.4902	1.7273	0.1	137.
23403	8.2132	1.6364	0.1	134.04
23404	8.3056	1.7273	0.1	145.09
23405	8.0286	1.6364	0.1	139.63
23406	8.1209	1.7273	0.1	152.91
23407	7.844	1.6364	0.1	144.33
23408	7.9363	1.7273	0.1	160.22
23409	7.6593	1.6364	0.1	147.72
23410	7.7516	1.7273	0.1	166.69
23411	7.4747	1.6364	0.1	149.23
23412	7.567	1.7273	0.1	171.85
23413	7.29	1.6364	0.1	147.98
23414	7.3824	1.7273	0.1	175.
23415	7.1054	1.6364	0.1	142.64
23416	7.1977	1.7273	0.1	175.09
23417	6.9208	1.6364	0.1	131.1
23418	7.0131	1.7273	0.1	170.51
23419	6.7361	1.6364	0.1	109.99
23420	6.8284	1.7273	0.1	158.66
23421	6.5515	1.6364	0.1	74.482
23422	6.6438	1.7273	0.1	135.43
23423	6.3668	1.6364	0.1	26.225
23424	6.4592	1.7273	0.1	94.621
23425	6.1822	1.6364	0.1	8.1196
23426	6.2745	1.7273	0.1	34.453
23427	5.9975	1.6364	0.1	4.6904
23428	6.0899	1.7273	0.1	9.0622
23429	5.8129	1.6364	0.1	8.3155
23430	5.9052	1.7273	0.1	4.5438
23431	5.6283	1.6364	0.1	5.5356
23432	5.7206	1.7273	0.1	11.411
23433	5.4436	1.6364	0.1	-7.6766
23434	5.5359	1.7273	0.1	-7.2304
23435	5.3513	1.7273	0.1	83.032
23436	5.259	1.6364	0.1	-80.309
23437	23.723	1.8182	0.1	-0.20745
23438	23.815	1.9091	0.1	-0.18334
23439	23.908	1.8182	0.1	-0.42058
23440	23.538	1.8182	0.1	-0.21777
23441	23.631	1.9091	0.1	-0.32027
23442	23.354	1.8182	0.1	-0.12309
23443	23.446	1.9091	0.1	-0.13611
23444	23.169	1.8182	0.1	-0.10101
23445	23.261	1.9091	0.1	-0.11949
23446	22.984	1.8182	0.1	-7.8842e-002
23447	23.077	1.9091	0.1	-8.8436e-002
23448	22.8	1.8182	0.1	-6.5823e-002
23449	22.892	1.9091	0.1	-7.3655e-002
23450	22.615	1.8182	0.1	-5.576e-002
23451	22.708	1.9091	0.1	-6.1645e-002
23452	22.431	1.8182	0.1	-4.8263e-002
23453	22.523	1.9091	0.1	-5.3096e-002
23454	22.246	1.8182	0.1	-4.2339e-002
23455	22.338	1.9091	0.1	-4.6381e-002
23456	22.061	1.8182	0.1	-3.7582e-002
23457	22.154	1.9091	0.1	-4.1059e-002
23458	21.877	1.8182	0.1	-3.3677e-002
23459	21.969	1.9091	0.1	-3.6724e-002
23460	21.692	1.8182	0.1	-3.0416e-002
23461	21.784	1.9091	0.1	-3.3132e-002
23462	21.507	1.8182	0.1	-2.7658e-002
23463	21.6	1.9091	0.1	-3.0102e-002
23464	21.323	1.8182	0.1	-2.5304e-002
23465	21.415	1.9091	0.1	-2.7526e-002
23466	21.138	1.8182	0.1	-2.327e-002
23467	21.23	1.9091	0.1	-2.531e-002
23468	20.953	1.8182	0.1	-2.1498e-002
23469	21.046	1.9091	0.1	-2.3381e-002
23470	20.769	1.8182	0.1	-1.9942e-002
23471	20.861	1.9091	0.1	-2.169e-002
23472	20.584	1.8182	0.1	-1.8565e-002
23473	20.676	1.9091	0.1	-2.0198e-002
23474	20.4	1.8182	0.1	-1.7342e-002
23475	20.492	1.9091	0.1	-1.8871e-002
23476	20.215	1.8182	0.1	-1.6247e-002
23477	20.307	1.9091	0.1	-1.7687e-002
23478	20.03	1.8182	0.1	-1.5262e-002
23479	20.123	1.9091	0.1	-1.6622e-002
23480	19.846	1.8182	0.1	-1.4371e-002
23481	19.938	1.9091	0.1	-1.5659e-002
23482	19.661	1.8182	0.1	-1.3562e-002
23483	19.753	1.9091	0.1	-1.4787e-002
23484	19.476	1.8182	0.1	-1.2826e-002
23485	19.569	1.9091	0.1	-1.3993e-002
23486	19.292	1.8182	0.1	-1.2151e-002
23487	19.384	1.9091	0.1	-1.3265e-002
23488	19.107	1.8182	0.1	-1.1532e-002
23489	19.199	1.9091	0.1	-1.2599e-002
23490	18.922	1.8182	0.1	-1.0961e-002
23491	19.015	1.9091	0.1	-1.1984e-002
23492	18.738	1.8182	0.1	-1.0433e-002
23493	18.83	1.9091	0.1	-1.1417e-002
23494	18.553	1.8182	0.1	-9.9427e-003
23495	18.645	1.9091	0.1	-1.0891e-002
23496	18.368	1.8182	0.1	-9.4869e-003
23497	18.461	1.9091	0.1	-1.0401e-002
23498	18.184	1.8182	0.1	-9.0609e-003
23499	18.276	1.9091	0.1	-9.9457e-003
23500	17.999	1.8182	0.1	-8.6611e-003
23501	18.092	1.9091	0.1	-9.5174e-003
23502	17.815	1.8182	0.1	-8.2859e-003
23503	17.907	1.9091	0.1	-9.1162e-003
23504	17.63	1.8182	0.1	-7.9305e-003
23505	17.722	1.9091	0.1	-8.7382e-003
23506	17.445	1.8182	0.1	-7.5935e-003
23507	17.538	1.9091	0.1	-8.3789e-003
23508	17.261	1.8182	0.1	-7.2698e-003
23509	17.353	1.9091	0.1	-8.0402e-003
23510	17.076	1.8182	0.1	-6.9577e-003
23511	17.168	1.9091	0.1	-7.7081e-003
23512	16.891	1.8182	0.1	-6.6657e-003
23513	16.984	1.9091	0.1	-7.3926e-003
23514	16.707	1.8182	0.1	-6.3812e-003
23515	16.799	1.9091	0.1	-7.1037e-003
23516	16.522	1.8182	0.1	-6.0912e-003
23517	16.614	1.9091	0.1	-6.8054e-003
23518	16.337	1.8182	0.1	-5.8041e-003
23519	16.43	1.9091	0.1	-6.5059e-003
23520	16.153	1.8182	0.1	-5.5176e-003
23521	16.245	1.9091	0.1	-6.2154e-003
23522	15.968	1.8182	0.1	-5.222e-003
23523	16.06	1.9091	0.1	-5.9189e-003
23524	15.783	1.8182	0.1	-4.9098e-003
23525	15.876	1.9091	0.1	-5.6111e-003
23526	15.599	1.8182	0.1	-4.5704e-003
23527	15.691	1.9091	0.1	-5.2825e-003
23528	15.414	1.8182	0.1	-4.1864e-003
23529	15.507	1.9091	0.1	-4.9201e-003
23530	15.23	1.8182	0.1	-3.7272e-003
23531	15.322	1.9091	0.1	-4.5008e-003
23532	15.045	1.8182	0.1	-3.1381e-003
23533	15.137	1.9091	0.1	-3.98e-003
23534	14.86	1.8182	0.1	-2.2985e-003
23535	14.953	1.9091	0.1	-3.2732e-003
23536	14.676	1.8182	0.1	-8.941e-004
23537	14.768	1.9091	0.1	-2.1577e-003
23538	14.491	1.8182	0.1	2.2467e-003
23539	14.583	1.9091	0.1	1.0459e-004
23540	14.306	1.8182	0.1	1.8156e-002
23541	14.399	1.9091	0.1	8.5964e-003
23542	14.122	1.8182	0.1	0.82946
23543	14.214	1.9091	0.1	0.52002
23544	13.937	1.8182	0.1	2.3625
23545	14.029	1.9091	0.1	2.0397
23546	13.752	1.8182	0.1	4.0029
23547	13.845	1.9091	0.1	3.6724
23548	13.568	1.8182	0.1	5.7528
23549	13.66	1.9091	0.1	5.4136
23550	13.383	1.8182	0.1	7.6217
23551	13.475	1.9091	0.1	7.2727
23552	13.199	1.8182	0.1	9.6206
23553	13.291	1.9091	0.1	9.261
23554	13.014	1.8182	0.1	11.761
23555	13.106	1.9091	0.1	11.391
23556	12.829	1.8182	0.1	14.056
23557	12.922	1.9091	0.1	13.674
23558	12.645	1.8182	0.1	16.519
23559	12.737	1.9091	0.1	16.126
23560	12.46	1.8182	0.1	19.163
23561	12.552	1.9091	0.1	18.761
23562	12.275	1.8182	0.1	22.004
23563	12.368	1.9091	0.1	21.594
23564	12.091	1.8182	0.1	25.058
23565	12.183	1.9091	0.1	24.643
23566	11.906	1.8182	0.1	28.34
23567	11.998	1.9091	0.1	27.924
23568	11.721	1.8182	0.1	31.867
23569	11.814	1.9091	0.1	31.456
23570	11.537	1.8182	0.1	35.659
23571	11.629	1.9091	0.1	35.259
23572	11.352	1.8182	0.1	39.732
23573	11.444	1.9091	0.1	39.354
23574	11.167	1.8182	0.1	44.106
23575	11.26	1.9091	0.1	43.762
23576	10.983	1.8182	0.1	48.799
23577	11.075	1.9091	0.1	48.506
23578	10.798	1.8182	0.1	53.83
23579	10.891	1.9091	0.1	53.609
23580	10.614	1.8182	0.1	59.218
23581	10.706	1.9091	0.1	59.093
23582	10.429	1.8182	0.1	64.979
23583	10.521	1.9091	0.1	64.983
23584	10.244	1.8182	0.1	71.131
23585	10.337	1.9091	0.1	71.302
23586	10.06	1.8182	0.1	77.686
23587	10.152	1.9091	0.1	78.073
23588	9.875	1.8182	0.1	84.655
23589	9.9673	1.9091	0.1	85.316
23590	9.6904	1.8182	0.1	92.044
23591	9.7827	1.9091	0.1	93.05
23592	9.5057	1.8182	0.1	99.853
23593	9.598	1.9091	0.1	101.29
23594	9.3211	1.8182	0.1	108.08
23595	9.4134	1.9091	0.1	110.04
23596	9.1364	1.8182	0.1	116.69
23597	9.2288	1.9091	0.1	119.32
23598	8.9518	1.8182	0.1	125.68
23599	9.0441	1.9091	0.1	129.1
23600	8.7672	1.8182	0.1	134.98
23601	8.8595	1.9091	0.1	139.37
23602	8.5825	1.8182	0.1	144.53
23603	8.6748	1.9091	0.1	150.09
23604	8.3979	1.8182	0.1	154.24
23605	8.4902	1.9091	0.1	161.2
23606	8.2132	1.8182	0.1	163.96
23607	8.3056	1.9091	0.1	172.59
23608	8.0286	1.8182	0.1	173.51
23609	8.1209	1.9091	0.1	184.12
23610	7.844	1.8182	0.1	182.61
23611	7.9363	1.9091	0.1	195.58
23612	7.6593	1.8182	0.1	190.87
23613	7.7516	1.9091	0.1	206.67
23614	7.4747	1.8182	0.1	197.73
23615	7.567	1.9091	0.1	216.91
23616	7.29	1.8182	0.1	202.34
23617	7.3824	1.9091	0.1	225.65
23618	7.1054	1.8182	0.1	203.39
23619	7.1977	1.9091	0.1	231.87
23620	6.9208	1.8182	0.1	198.85
23621	7.0131	1.9091	0.1	234.02
23622	6.7361	1.8182	0.1	185.49
23623	6.8284	1.9091	0.1	229.69
23624	6.5515	1.8182	0.1	158.13
23625	6.6438	1.9091	0.1	215.13
23626	6.3668	1.8182	0.1	108.82
23627	6.4592	1.9091	0.1	184.4
23628	6.1822	1.8182	0.1	35.764
23629	6.2745	1.9091	0.1	128.25
23630	5.9975	1.8182	0.1	8.6519
23631	6.0899	1.9091	0.1	42.116
23632	5.8129	1.8182	0.1	7.569
23633	5.9052	1.9091	0.1	6.2293
23634	5.6283	1.8182	0.1	-0.51176
23635	5.7206	1.9091	0.1	14.89
23636	5.4436	1.8182	0.1	83.984
23637	5.5359	1.9091	0.1	-50.938
23638	5.3513	1.9091	0.1	432.74
23639	5.259	1.8182	0.1	362.3
23640	23.723	2.	0.1	-0.21411
23641	23.815	2.0909	0.1	-0.19227
23642	23.908	2.	0.1	-0.42289
23643	23.538	2.	0.1	-0.22202
23644	23.631	2.0909	0.1	-0.32478
23645	23.354	2.	0.1	-0.12646
23646	23.446	2.0909	0.1	-0.13929
23647	23.169	2.	0.1	-0.10403
23648	23.261	2.0909	0.1	-0.12229
23649	22.984	2.	0.1	-8.1622e-002
23650	23.077	2.0909	0.1	-9.0954e-002
23651	22.8	2.	0.1	-6.8448e-002
23652	22.892	2.0909	0.1	-7.6009e-002
23653	22.615	2.	0.1	-5.8273e-002
23654	22.708	2.0909	0.1	-6.3883e-002
23655	22.431	2.	0.1	-5.0693e-002
23656	22.523	2.0909	0.1	-5.5252e-002
23657	22.246	2.	0.1	-4.4697e-002
23658	22.338	2.0909	0.1	-4.8471e-002
23659	22.061	2.	0.1	-3.9876e-002
23660	22.154	2.0909	0.1	-4.3095e-002
23661	21.877	2.	0.1	-3.5909e-002
23662	21.969	2.0909	0.1	-3.8709e-002
23663	21.692	2.	0.1	-3.2586e-002
23664	21.784	2.0909	0.1	-3.5066e-002
23665	21.507	2.	0.1	-2.9768e-002
23666	21.6	2.0909	0.1	-3.1988e-002
23667	21.323	2.	0.1	-2.7353e-002
23668	21.415	2.0909	0.1	-2.9363e-002
23669	21.138	2.	0.1	-2.5261e-002
23670	21.23	2.0909	0.1	-2.7096e-002
23671	20.953	2.	0.1	-2.3428e-002
23672	21.046	2.0909	0.1	-2.5118e-002
23673	20.769	2.	0.1	-2.1814e-002
23674	20.861	2.0909	0.1	-2.3378e-002
23675	20.584	2.	0.1	-2.0382e-002
23676	20.676	2.0909	0.1	-2.184e-002
23677	20.4	2.	0.1	-1.9103e-002
23678	20.492	2.0909	0.1	-2.0465e-002
23679	20.215	2.	0.1	-1.7956e-002
23680	20.307	2.0909	0.1	-1.9236e-002
23681	20.03	2.	0.1	-1.6921e-002
23682	20.123	2.0909	0.1	-1.8128e-002
23683	19.846	2.	0.1	-1.5983e-002
23684	19.938	2.0909	0.1	-1.7124e-002
23685	19.661	2.	0.1	-1.513e-002
23686	19.753	2.0909	0.1	-1.6212e-002
23687	19.476	2.	0.1	-1.435e-002
23688	19.569	2.0909	0.1	-1.5381e-002
23689	19.292	2.	0.1	-1.3634e-002
23690	19.384	2.0909	0.1	-1.4618e-002
23691	19.107	2.	0.1	-1.2978e-002
23692	19.199	2.0909	0.1	-1.3917e-002
23693	18.922	2.	0.1	-1.237e-002
23694	19.015	2.0909	0.1	-1.3272e-002
23695	18.738	2.	0.1	-1.1808e-002
23696	18.83	2.0909	0.1	-1.2673e-002
23697	18.553	2.	0.1	-1.1286e-002
23698	18.645	2.0909	0.1	-1.212e-002
23699	18.368	2.	0.1	-1.08e-002
23700	18.461	2.0909	0.1	-1.1604e-002
23701	18.184	2.	0.1	-1.0345e-002
23702	18.276	2.0909	0.1	-1.1123e-002
23703	17.999	2.	0.1	-9.9178e-003
23704	18.092	2.0909	0.1	-1.0671e-002
23705	17.815	2.	0.1	-9.5164e-003
23706	17.907	2.0909	0.1	-1.0248e-002
23707	17.63	2.	0.1	-9.1369e-003
23708	17.722	2.0909	0.1	-9.8481e-003
23709	17.445	2.	0.1	-8.7784e-003
23710	17.538	2.0909	0.1	-9.4708e-003
23711	17.261	2.	0.1	-8.4339e-003
23712	17.353	2.0909	0.1	-9.1137e-003
23713	17.076	2.	0.1	-8.1009e-003
23714	17.168	2.0909	0.1	-8.765e-003
23715	16.891	2.	0.1	-7.791e-003
23716	16.984	2.0909	0.1	-8.4342e-003
23717	16.707	2.	0.1	-7.491e-003
23718	16.799	2.0909	0.1	-8.133e-003
23719	16.522	2.	0.1	-7.1861e-003
23720	16.614	2.0909	0.1	-7.8226e-003
23721	16.337	2.	0.1	-6.8865e-003
23722	16.43	2.0909	0.1	-7.5142e-003
23723	16.153	2.	0.1	-6.5899e-003
23724	16.245	2.0909	0.1	-7.2167e-003
23725	15.968	2.	0.1	-6.2858e-003
23726	16.06	2.0909	0.1	-6.9149e-003
23727	15.783	2.	0.1	-5.9678e-003
23728	15.876	2.0909	0.1	-6.6061e-003
23729	15.599	2.	0.1	-5.6247e-003
23730	15.691	2.0909	0.1	-6.2799e-003
23731	15.414	2.	0.1	-5.2398e-003
23732	15.507	2.0909	0.1	-5.9245e-003
23733	15.23	2.	0.1	-4.7805e-003
23734	15.322	2.0909	0.1	-5.5181e-003
23735	15.045	2.	0.1	-4.1838e-003
23736	15.137	2.0909	0.1	-5.0139e-003
23737	14.86	2.	0.1	-3.3008e-003
23738	14.953	2.0909	0.1	-4.318e-003
23739	14.676	2.	0.1	-1.6681e-003
23740	14.768	2.0909	0.1	-3.1516e-003
23741	14.491	2.	0.1	3.2201e-003
23742	14.583	2.0909	0.1	-3.0521e-004
23743	14.306	2.	0.1	0.21168
23744	14.399	2.0909	0.1	2.9709e-002
23745	14.122	2.	0.1	1.6992
23746	14.214	2.0909	0.1	1.2767
23747	13.937	2.	0.1	3.3262
23748	14.029	2.0909	0.1	2.8874
23749	13.752	2.	0.1	5.0605
23750	13.845	2.0909	0.1	4.6039
23751	13.568	2.	0.1	6.9116
23752	13.66	2.0909	0.1	6.435
23753	13.383	2.	0.1	8.8908
23754	13.475	2.0909	0.1	8.3921
23755	13.199	2.	0.1	11.011
23756	13.291	2.0909	0.1	10.487
23757	13.014	2.	0.1	13.284
23758	13.106	2.0909	0.1	12.735
23759	12.829	2.	0.1	15.725
23760	12.922	2.0909	0.1	15.148
23761	12.645	2.	0.1	18.35
23762	12.737	2.0909	0.1	17.744
23763	12.46	2.	0.1	21.174
23764	12.552	2.0909	0.1	20.537
23765	12.275	2.	0.1	24.215
23766	12.368	2.0909	0.1	23.547
23767	12.091	2.	0.1	27.492
23768	12.183	2.0909	0.1	26.793
23769	11.906	2.	0.1	31.024
23770	11.998	2.0909	0.1	30.295
23771	11.721	2.	0.1	34.833
23772	11.814	2.0909	0.1	34.076
23773	11.537	2.	0.1	38.941
23774	11.629	2.0909	0.1	38.16
23775	11.352	2.	0.1	43.372
23776	11.444	2.0909	0.1	42.571
23777	11.167	2.	0.1	48.151
23778	11.26	2.0909	0.1	47.338
23779	10.983	2.	0.1	53.305
23780	11.075	2.0909	0.1	52.489
23781	10.798	2.	0.1	58.862
23782	10.891	2.0909	0.1	58.057
23783	10.614	2.	0.1	64.849
23784	10.706	2.0909	0.1	64.073
23785	10.429	2.	0.1	71.297
23786	10.521	2.0909	0.1	70.571
23787	10.244	2.	0.1	78.236
23788	10.337	2.0909	0.1	77.589
23789	10.06	2.	0.1	85.696
23790	10.152	2.0909	0.1	85.163
23791	9.875	2.	0.1	93.704
23792	9.9673	2.0909	0.1	93.33
23793	9.6904	2.	0.1	102.29
23794	9.7827	2.0909	0.1	102.13
23795	9.5057	2.	0.1	111.48
23796	9.598	2.0909	0.1	111.6
23797	9.3211	2.	0.1	121.28
23798	9.4134	2.0909	0.1	121.77
23799	9.1364	2.	0.1	131.72
23800	9.2288	2.0909	0.1	132.67
23801	8.9518	2.	0.1	142.79
23802	9.0441	2.0909	0.1	144.32
23803	8.7672	2.	0.1	154.47
23804	8.8595	2.0909	0.1	156.73
23805	8.5825	2.	0.1	166.75
23806	8.6748	2.0909	0.1	169.91
23807	8.3979	2.	0.1	179.54
23808	8.4902	2.0909	0.1	183.8
23809	8.2132	2.	0.1	192.74
23810	8.3056	2.0909	0.1	198.36
23811	8.0286	2.	0.1	206.2
23812	8.1209	2.0909	0.1	213.45
23813	7.844	2.	0.1	219.66
23814	7.9363	2.0909	0.1	228.89
23815	7.6593	2.	0.1	232.75
23816	7.7516	2.0909	0.1	244.39
23817	7.4747	2.	0.1	244.92
23818	7.567	2.0909	0.1	259.5
23819	7.29	2.	0.1	255.36
23820	7.3824	2.0909	0.1	273.55
23821	7.1054	2.	0.1	262.84
23822	7.1977	2.0909	0.1	285.55
23823	6.9208	2.	0.1	265.47
23824	7.0131	2.0909	0.1	294.
23825	6.7361	2.	0.1	260.39
23826	6.8284	2.0909	0.1	296.66
23827	6.5515	2.	0.1	243.17
23828	6.6438	2.0909	0.1	290.15
23829	6.3668	2.	0.1	206.83
23830	6.4592	2.0909	0.1	269.36
23831	6.1822	2.	0.1	140.91
23832	6.2745	2.0909	0.1	226.34
23833	5.9975	2.	0.1	39.211
23834	6.0899	2.0909	0.1	149.66
23835	5.8129	2.	0.1	12.806
23836	5.9052	2.0909	0.1	29.56
23837	5.6283	2.	0.1	-35.288
23838	5.7206	2.0909	0.1	15.838
23839	5.4436	2.	0.1	296.3
23840	5.5359	2.0909	0.1	-67.379
23841	5.3513	2.0909	0.1	292.4
23842	5.259	2.	0.1	536.29
23843	23.723	2.1818	0.1	-0.21929
23844	23.815	2.2727	0.1	-0.19924
23845	23.908	2.1818	0.1	-0.42462
23846	23.538	2.1818	0.1	-0.22528
23847	23.631	2.2727	0.1	-0.32821
23848	23.354	2.1818	0.1	-0.12902
23849	23.446	2.2727	0.1	-0.14169
23850	23.169	2.1818	0.1	-0.10633
23851	23.261	2.2727	0.1	-0.1244
23852	22.984	2.1818	0.1	-8.3726e-002
23853	23.077	2.2727	0.1	-9.2848e-002
23854	22.8	2.1818	0.1	-7.0431e-002
23855	22.892	2.2727	0.1	-7.7773e-002
23856	22.615	2.1818	0.1	-6.0172e-002
23857	22.708	2.2727	0.1	-6.556e-002
23858	22.431	2.1818	0.1	-5.2529e-002
23859	22.523	2.2727	0.1	-5.6867e-002
23860	22.246	2.1818	0.1	-4.6484e-002
23861	22.338	2.2727	0.1	-5.0039e-002
23862	22.061	2.1818	0.1	-4.1621e-002
23863	22.154	2.2727	0.1	-4.4626e-002
23864	21.877	2.1818	0.1	-3.7613e-002
23865	21.969	2.2727	0.1	-4.0206e-002
23866	21.692	2.1818	0.1	-3.4253e-002
23867	21.784	2.2727	0.1	-3.6533e-002
23868	21.507	2.1818	0.1	-3.1396e-002
23869	21.6	2.2727	0.1	-3.3423e-002
23870	21.323	2.1818	0.1	-2.8942e-002
23871	21.415	2.2727	0.1	-3.0766e-002
23872	21.138	2.1818	0.1	-2.6807e-002
23873	21.23	2.2727	0.1	-2.8467e-002
23874	20.953	2.1818	0.1	-2.4935e-002
23875	21.046	2.2727	0.1	-2.6455e-002
23876	20.769	2.1818	0.1	-2.3283e-002
23877	20.861	2.2727	0.1	-2.4683e-002
23878	20.584	2.1818	0.1	-2.1811e-002
23879	20.676	2.2727	0.1	-2.3111e-002
23880	20.4	2.1818	0.1	-2.0494e-002
23881	20.492	2.2727	0.1	-2.1706e-002
23882	20.215	2.1818	0.1	-1.9311e-002
23883	20.307	2.2727	0.1	-2.0444e-002
23884	20.03	2.1818	0.1	-1.824e-002
23885	20.123	2.2727	0.1	-1.9306e-002
23886	19.846	2.1818	0.1	-1.7267e-002
23887	19.938	2.2727	0.1	-1.8273e-002
23888	19.661	2.1818	0.1	-1.6382e-002
23889	19.753	2.2727	0.1	-1.7333e-002
23890	19.476	2.1818	0.1	-1.5572e-002
23891	19.569	2.2727	0.1	-1.6475e-002
23892	19.292	2.1818	0.1	-1.4827e-002
23893	19.384	2.2727	0.1	-1.5687e-002
23894	19.107	2.1818	0.1	-1.4141e-002
23895	19.199	2.2727	0.1	-1.4962e-002
23896	18.922	2.1818	0.1	-1.3508e-002
23897	19.015	2.2727	0.1	-1.4293e-002
23898	18.738	2.1818	0.1	-1.2921e-002
23899	18.83	2.2727	0.1	-1.3673e-002
23900	18.553	2.1818	0.1	-1.2376e-002
23901	18.645	2.2727	0.1	-1.31e-002
23902	18.368	2.1818	0.1	-1.1867e-002
23903	18.461	2.2727	0.1	-1.2565e-002
23904	18.184	2.1818	0.1	-1.1392e-002
23905	18.276	2.2727	0.1	-1.2066e-002
23906	17.999	2.1818	0.1	-1.0946e-002
23907	18.092	2.2727	0.1	-1.1598e-002
23908	17.815	2.1818	0.1	-1.0527e-002
23909	17.907	2.2727	0.1	-1.1159e-002
23910	17.63	2.1818	0.1	-1.0131e-002
23911	17.722	2.2727	0.1	-1.0745e-002
23912	17.445	2.1818	0.1	-9.7575e-003
23913	17.538	2.2727	0.1	-1.0355e-002
23914	17.261	2.1818	0.1	-9.3981e-003
23915	17.353	2.2727	0.1	-9.9859e-003
23916	17.076	2.1818	0.1	-9.0535e-003
23917	17.168	2.2727	0.1	-9.6273e-003
23918	16.891	2.1818	0.1	-8.7333e-003
23919	16.984	2.2727	0.1	-9.2879e-003
23920	16.707	2.1818	0.1	-8.4237e-003
23921	16.799	2.2727	0.1	-8.9795e-003
23922	16.522	2.1818	0.1	-8.112e-003
23923	16.614	2.2727	0.1	-8.6631e-003
23924	16.337	2.1818	0.1	-7.8081e-003
23925	16.43	2.2727	0.1	-8.3527e-003
23926	16.153	2.1818	0.1	-7.5083e-003
23927	16.245	2.2727	0.1	-8.0539e-003
23928	15.968	2.1818	0.1	-7.2053e-003
23929	16.06	2.2727	0.1	-7.7551e-003
23930	15.783	2.1818	0.1	-6.8931e-003
23931	15.876	2.2727	0.1	-7.4534e-003
23932	15.599	2.1818	0.1	-6.5616e-003
23933	15.691	2.2727	0.1	-7.1409e-003
23934	15.414	2.1818	0.1	-6.196e-003
23935	15.507	2.2727	0.1	-6.8071e-003
23936	15.23	2.1818	0.1	-5.7655e-003
23937	15.322	2.2727	0.1	-6.433e-003
23938	15.045	2.1818	0.1	-5.2079e-003
23939	15.137	2.2727	0.1	-5.9781e-003
23940	14.86	2.1818	0.1	-4.3597e-003
23941	14.953	2.2727	0.1	-5.3522e-003
23942	14.676	2.1818	0.1	-2.6114e-003
23943	14.768	2.2727	0.1	-4.2517e-003
23944	14.491	2.1818	0.1	5.8737e-003
23945	14.583	2.2727	0.1	-8.6028e-004
23946	14.306	2.1818	0.1	0.844
23947	14.399	2.2727	0.1	0.34842
23948	14.122	2.1818	0.1	2.4403
23949	14.214	2.2727	0.1	1.9141
23950	13.937	2.1818	0.1	4.142
23951	14.029	2.2727	0.1	3.5909
23952	13.752	2.1818	0.1	5.9561
23953	13.845	2.2727	0.1	5.377
23954	13.568	2.1818	0.1	7.8938
23955	13.66	2.2727	0.1	7.2835
23956	13.383	2.1818	0.1	9.9677
23957	13.475	2.2727	0.1	9.3227
23958	13.199	2.1818	0.1	12.191
23959	13.291	2.2727	0.1	11.508
23960	13.014	2.1818	0.1	14.579
23961	13.106	2.2727	0.1	13.855
23962	12.829	2.1818	0.1	17.147
23963	12.922	2.2727	0.1	16.378
23964	12.645	2.1818	0.1	19.912
23965	12.737	2.2727	0.1	19.094
23966	12.46	2.1818	0.1	22.893
23967	12.552	2.2727	0.1	22.023
23968	12.275	2.1818	0.1	26.108
23969	12.368	2.2727	0.1	25.184
23970	12.091	2.1818	0.1	29.581
23971	12.183	2.2727	0.1	28.598
23972	11.906	2.1818	0.1	33.332
23973	11.998	2.2727	0.1	32.29
23974	11.721	2.1818	0.1	37.388
23975	11.814	2.2727	0.1	36.284
23976	11.537	2.1818	0.1	41.776
23977	11.629	2.2727	0.1	40.608
23978	11.352	2.1818	0.1	46.525
23979	11.444	2.2727	0.1	45.293
23980	11.167	2.1818	0.1	51.665
23981	11.26	2.2727	0.1	50.371
23982	10.983	2.1818	0.1	57.231
23983	11.075	2.2727	0.1	55.878
23984	10.798	2.1818	0.1	63.258
23985	10.891	2.2727	0.1	61.851
23986	10.614	2.1818	0.1	69.786
23987	10.706	2.2727	0.1	68.332
23988	10.429	2.1818	0.1	76.855
23989	10.521	2.2727	0.1	75.366
23990	10.244	2.1818	0.1	84.509
23991	10.337	2.2727	0.1	83.
23992	10.06	2.1818	0.1	92.791
23993	10.152	2.2727	0.1	91.284
23994	9.875	2.1818	0.1	101.75
23995	9.9673	2.2727	0.1	100.27
23996	9.6904	2.1818	0.1	111.43
23997	9.7827	2.2727	0.1	110.02
23998	9.5057	2.1818	0.1	121.88
23999	9.598	2.2727	0.1	120.58
24000	9.3211	2.1818	0.1	133.15
24001	9.4134	2.2727	0.1	132.01
24002	9.1364	2.1818	0.1	145.26
24003	9.2288	2.2727	0.1	144.37
24004	8.9518	2.1818	0.1	158.26
24005	9.0441	2.2727	0.1	157.71
24006	8.7672	2.1818	0.1	172.16
24007	8.8595	2.2727	0.1	172.05
24008	8.5825	2.1818	0.1	186.96
24009	8.6748	2.2727	0.1	187.43
24010	8.3979	2.1818	0.1	202.62
24011	8.4902	2.2727	0.1	203.84
24012	8.2132	2.1818	0.1	219.06
24013	8.3056	2.2727	0.1	221.24
24014	8.0286	2.1818	0.1	236.15
24015	8.1209	2.2727	0.1	239.54
24016	7.844	2.1818	0.1	253.64
24017	7.9363	2.2727	0.1	258.55
24018	7.6593	2.1818	0.1	271.18
24019	7.7516	2.2727	0.1	277.99
24020	7.4747	2.1818	0.1	288.2
24021	7.567	2.2727	0.1	297.39
24022	7.29	2.1818	0.1	303.87
24023	7.3824	2.2727	0.1	316.05
24024	7.1054	2.1818	0.1	316.96
24025	7.1977	2.2727	0.1	332.92
24026	6.9208	2.1818	0.1	325.63
24027	7.0131	2.2727	0.1	346.43
24028	6.7361	2.1818	0.1	327.16
24029	6.8284	2.2727	0.1	354.28
24030	6.5515	2.1818	0.1	317.53
24031	6.6438	2.2727	0.1	353.06
24032	6.3668	2.1818	0.1	290.72
24033	6.4592	2.2727	0.1	337.81
24034	6.1822	2.1818	0.1	237.89
24035	6.2745	2.2727	0.1	301.12
24036	5.9975	2.1818	0.1	144.58
24037	6.0899	2.2727	0.1	232.26
24038	5.8129	2.1818	0.1	13.727
24039	5.9052	2.2727	0.1	113.55
24040	5.6283	2.1818	0.1	-16.761
24041	5.7206	2.2727	0.1	0.41762
24042	5.4436	2.1818	0.1	-22.561
24043	5.5359	2.2727	0.1	-16.4
24044	5.3513	2.2727	0.1	10.123
24045	5.259	2.1818	0.1	-50.307
24046	23.723	2.3636	0.1	-0.22322
24047	23.815	2.4545	0.1	-0.20446
24048	23.908	2.3636	0.1	-0.4259
24049	23.538	2.3636	0.1	-0.22772
24050	23.631	2.4545	0.1	-0.33074
24051	23.354	2.3636	0.1	-0.13093
24052	23.446	2.4545	0.1	-0.14345
24053	23.169	2.3636	0.1	-0.10803
24054	23.261	2.4545	0.1	-0.12594
24055	22.984	2.3636	0.1	-8.5284e-002
24056	23.077	2.4545	0.1	-9.4227e-002
24057	22.8	2.3636	0.1	-7.1899e-002
24058	22.892	2.4545	0.1	-7.9057e-002
24059	22.615	2.3636	0.1	-6.1576e-002
24060	22.708	2.4545	0.1	-6.6777e-002
24061	22.431	2.3636	0.1	-5.3887e-002
24062	22.523	2.4545	0.1	-5.8038e-002
24063	22.246	2.3636	0.1	-4.7809e-002
24064	22.338	2.4545	0.1	-5.1178e-002
24065	22.061	2.3636	0.1	-4.2917e-002
24066	22.154	2.4545	0.1	-4.574e-002
24067	21.877	2.3636	0.1	-3.8884e-002
24068	21.969	2.4545	0.1	-4.1299e-002
24069	21.692	2.3636	0.1	-3.5499e-002
24070	21.784	2.4545	0.1	-3.7605e-002
24071	21.507	2.3636	0.1	-3.2617e-002
24072	21.6	2.4545	0.1	-3.4476e-002
24073	21.323	2.3636	0.1	-3.0137e-002
24074	21.415	2.4545	0.1	-3.1798e-002
24075	21.138	2.3636	0.1	-2.7977e-002
24076	21.23	2.4545	0.1	-2.948e-002
24077	20.953	2.3636	0.1	-2.6079e-002
24078	21.046	2.4545	0.1	-2.7446e-002
24079	20.769	2.3636	0.1	-2.4398e-002
24080	20.861	2.4545	0.1	-2.5653e-002
24081	20.584	2.3636	0.1	-2.2902e-002
24082	20.676	2.4545	0.1	-2.4058e-002
24083	20.4	2.3636	0.1	-2.1559e-002
24084	20.492	2.4545	0.1	-2.2633e-002
24085	20.215	2.3636	0.1	-2.0348e-002
24086	20.307	2.4545	0.1	-2.1348e-002
24087	20.03	2.3636	0.1	-1.9253e-002
24088	20.123	2.4545	0.1	-2.019e-002
24089	19.846	2.3636	0.1	-1.8257e-002
24090	19.938	2.4545	0.1	-1.9137e-002
24091	19.661	2.3636	0.1	-1.7349e-002
24092	19.753	2.4545	0.1	-1.8176e-002
24093	19.476	2.3636	0.1	-1.6516e-002
24094	19.569	2.4545	0.1	-1.73e-002
24095	19.292	2.3636	0.1	-1.5751e-002
24096	19.384	2.4545	0.1	-1.6494e-002
24097	19.107	2.3636	0.1	-1.5046e-002
24098	19.199	2.4545	0.1	-1.5754e-002
24099	18.922	2.3636	0.1	-1.4394e-002
24100	19.015	2.4545	0.1	-1.5068e-002
24101	18.738	2.3636	0.1	-1.379e-002
24102	18.83	2.4545	0.1	-1.4434e-002
24103	18.553	2.3636	0.1	-1.3229e-002
24104	18.645	2.4545	0.1	-1.3846e-002
24105	18.368	2.3636	0.1	-1.2705e-002
24106	18.461	2.4545	0.1	-1.3299e-002
24107	18.184	2.3636	0.1	-1.2216e-002
24108	18.276	2.4545	0.1	-1.2787e-002
24109	17.999	2.3636	0.1	-1.1756e-002
24110	18.092	2.4545	0.1	-1.2308e-002
24111	17.815	2.3636	0.1	-1.1325e-002
24112	17.907	2.4545	0.1	-1.1859e-002
24113	17.63	2.3636	0.1	-1.0918e-002
24114	17.722	2.4545	0.1	-1.1436e-002
24115	17.445	2.3636	0.1	-1.0534e-002
24116	17.538	2.4545	0.1	-1.1037e-002
24117	17.261	2.3636	0.1	-1.0167e-002
24118	17.353	2.4545	0.1	-1.0661e-002
24119	17.076	2.3636	0.1	-9.8148e-003
24120	17.168	2.4545	0.1	-1.0296e-002
24121	16.891	2.3636	0.1	-9.4885e-003
24122	16.984	2.4545	0.1	-9.952e-003
24123	16.707	2.3636	0.1	-9.1746e-003
24124	16.799	2.4545	0.1	-9.6403e-003
24125	16.522	2.3636	0.1	-8.8609e-003
24126	16.614	2.4545	0.1	-9.3221e-003
24127	16.337	2.3636	0.1	-8.5572e-003
24128	16.43	2.4545	0.1	-9.0124e-003
24129	16.153	2.3636	0.1	-8.2611e-003
24130	16.245	2.4545	0.1	-8.7171e-003
24131	15.968	2.3636	0.1	-7.9658e-003
24132	16.06	2.4545	0.1	-8.4254e-003
24133	15.783	2.3636	0.1	-7.6669e-003
24134	15.876	2.4545	0.1	-8.1352e-003
24135	15.599	2.3636	0.1	-7.3568e-003
24136	15.691	2.4545	0.1	-7.8416e-003
24137	15.414	2.3636	0.1	-7.0228e-003
24138	15.507	2.4545	0.1	-7.5362e-003
24139	15.23	2.3636	0.1	-6.6411e-003
24140	15.322	2.4545	0.1	-7.2057e-003
24141	15.045	2.3636	0.1	-6.1599e-003
24142	15.137	2.4545	0.1	-6.8202e-003
24143	14.86	2.3636	0.1	-5.429e-003
24144	14.953	2.4545	0.1	-6.3102e-003
24145	14.676	2.3636	0.1	-3.7649e-003
24146	14.768	2.4545	0.1	-5.4067e-003
24147	14.491	2.3636	0.1	1.9489e-002
24148	14.583	2.4545	0.1	-1.7228e-003
24149	14.306	2.3636	0.1	1.3854
24150	14.399	2.4545	0.1	0.79171
24151	14.122	2.3636	0.1	3.041
24152	14.214	2.4545	0.1	2.4162
24153	13.937	2.3636	0.1	4.8031
24154	14.029	2.4545	0.1	4.1443
24155	13.752	2.3636	0.1	6.6822
24156	13.845	2.4545	0.1	5.9853
24157	13.568	2.3636	0.1	8.6908
24158	13.66	2.4545	0.1	7.9514
24159	13.383	2.3636	0.1	10.842
24160	13.475	2.4545	0.1	10.056
24161	13.199	2.3636	0.1	13.151
24162	13.291	2.4545	0.1	12.313
24163	13.014	2.3636	0.1	15.634
24164	13.106	2.4545	0.1	14.739
24165	12.829	2.3636	0.1	18.306
24166	12.922	2.4545	0.1	17.349
24167	12.645	2.3636	0.1	21.187
24168	12.737	2.4545	0.1	20.163
24169	12.46	2.3636	0.1	24.297
24170	12.552	2.4545	0.1	23.2
24171	12.275	2.3636	0.1	27.657
24172	12.368	2.4545	0.1	26.481
24173	12.091	2.3636	0.1	31.292
24174	12.183	2.4545	0.1	30.032
24175	11.906	2.3636	0.1	35.227
24176	11.998	2.4545	0.1	33.876
24177	11.721	2.3636	0.1	39.49
24178	11.814	2.4545	0.1	38.042
24179	11.537	2.3636	0.1	44.113
24180	11.629	2.4545	0.1	42.562
24181	11.352	2.3636	0.1	49.128
24182	11.444	2.4545	0.1	47.469
24183	11.167	2.3636	0.1	54.573
24184	11.26	2.4545	0.1	52.801
24185	10.983	2.3636	0.1	60.488
24186	11.075	2.4545	0.1	58.597
24187	10.798	2.3636	0.1	66.916
24188	10.891	2.4545	0.1	64.903
24189	10.614	2.3636	0.1	73.904
24190	10.706	2.4545	0.1	71.766
24191	10.429	2.3636	0.1	81.503
24192	10.521	2.4545	0.1	79.24
24193	10.244	2.3636	0.1	89.769
24194	10.337	2.4545	0.1	87.382
24195	10.06	2.3636	0.1	98.759
24196	10.152	2.4545	0.1	96.253
24197	9.875	2.3636	0.1	108.54
24198	9.9673	2.4545	0.1	105.92
24199	9.6904	2.3636	0.1	119.16
24200	9.7827	2.4545	0.1	116.45
24201	9.5057	2.3636	0.1	130.71
24202	9.598	2.4545	0.1	127.93
24203	9.3211	2.3636	0.1	143.24
24204	9.4134	2.4545	0.1	140.41
24205	9.1364	2.3636	0.1	156.81
24206	9.2288	2.4545	0.1	153.99
24207	8.9518	2.3636	0.1	171.49
24208	9.0441	2.4545	0.1	168.73
24209	8.7672	2.3636	0.1	187.31
24210	8.8595	2.4545	0.1	184.68
24211	8.5825	2.3636	0.1	204.31
24212	8.6748	2.4545	0.1	201.91
24213	8.3979	2.3636	0.1	222.46
24214	8.4902	2.4545	0.1	220.42
24215	8.2132	2.3636	0.1	241.71
24216	8.3056	2.4545	0.1	240.2
24217	8.0286	2.3636	0.1	261.94
24218	8.1209	2.4545	0.1	261.17
24219	7.844	2.3636	0.1	282.9
24220	7.9363	2.4545	0.1	283.15
24221	7.6593	2.3636	0.1	304.22
24222	7.7516	2.4545	0.1	305.82
24223	7.4747	2.3636	0.1	325.29
24224	7.567	2.4545	0.1	328.7
24225	7.29	2.3636	0.1	345.18
24226	7.3824	2.4545	0.1	351.
24227	7.1054	2.3636	0.1	362.54
24228	7.1977	2.4545	0.1	371.52
24229	6.9208	2.3636	0.1	375.33
24230	7.0131	2.4545	0.1	388.49
24231	6.7361	2.3636	0.1	380.58
24232	6.8284	2.4545	0.1	399.27
24233	6.5515	2.3636	0.1	373.93
24234	6.6438	2.4545	0.1	400.
24235	6.3668	2.3636	0.1	348.98
24236	6.4592	2.4545	0.1	384.99
24237	6.1822	2.3636	0.1	296.23
24238	6.2745	2.4545	0.1	345.97
24239	5.9975	2.3636	0.1	201.21
24240	6.0899	2.4545	0.1	270.8
24241	5.8129	2.3636	0.1	41.015
24242	5.9052	2.4545	0.1	141.79
24243	5.6283	2.3636	0.1	2.3291
24244	5.7206	2.4545	0.1	-2.5077
24245	5.4436	2.3636	0.1	15.907
24246	5.5359	2.4545	0.1	5.247
24247	5.3513	2.4545	0.1	7.5515
24248	5.259	2.3636	0.1	33.4
24249	23.723	2.5455	0.1	-0.22605
24250	23.815	2.6364	0.1	-0.20809
24251	23.908	2.5455	0.1	-0.4268
24252	23.538	2.5455	0.1	-0.22946
24253	23.631	2.6364	0.1	-0.33248
24254	23.354	2.5455	0.1	-0.13229
24255	23.446	2.6364	0.1	-0.14465
24256	23.169	2.5455	0.1	-0.10924
24257	23.261	2.6364	0.1	-0.12699
24258	22.984	2.5455	0.1	-8.639e-002
24259	23.077	2.6364	0.1	-9.5167e-002
24260	22.8	2.5455	0.1	-7.2937e-002
24261	22.892	2.6364	0.1	-7.993e-002
24262	22.615	2.5455	0.1	-6.2568e-002
24263	22.708	2.6364	0.1	-6.7603e-002
24264	22.431	2.5455	0.1	-5.4848e-002
24265	22.523	2.6364	0.1	-5.8834e-002
24266	22.246	2.5455	0.1	-4.8746e-002
24267	22.338	2.6364	0.1	-5.1952e-002
24268	22.061	2.5455	0.1	-4.3836e-002
24269	22.154	2.6364	0.1	-4.6497e-002
24270	21.877	2.5455	0.1	-3.9787e-002
24271	21.969	2.6364	0.1	-4.2043e-002
24272	21.692	2.5455	0.1	-3.6386e-002
24273	21.784	2.6364	0.1	-3.8337e-002
24274	21.507	2.5455	0.1	-3.3489e-002
24275	21.6	2.6364	0.1	-3.5196e-002
24276	21.323	2.5455	0.1	-3.0994e-002
24277	21.415	2.6364	0.1	-3.2506e-002
24278	21.138	2.5455	0.1	-2.8818e-002
24279	21.23	2.6364	0.1	-3.0175e-002
24280	20.953	2.5455	0.1	-2.6902e-002
24281	21.046	2.6364	0.1	-2.8129e-002
24282	20.769	2.5455	0.1	-2.5204e-002
24283	20.861	2.6364	0.1	-2.6321e-002
24284	20.584	2.5455	0.1	-2.369e-002
24285	20.676	2.6364	0.1	-2.4713e-002
24286	20.4	2.5455	0.1	-2.233e-002
24287	20.492	2.6364	0.1	-2.3273e-002
24288	20.215	2.5455	0.1	-2.1103e-002
24289	20.307	2.6364	0.1	-2.1977e-002
24290	20.03	2.5455	0.1	-1.9991e-002
24291	20.123	2.6364	0.1	-2.0804e-002
24292	19.846	2.5455	0.1	-1.8978e-002
24293	19.938	2.6364	0.1	-1.9737e-002
24294	19.661	2.5455	0.1	-1.8054e-002
24295	19.753	2.6364	0.1	-1.8765e-002
24296	19.476	2.5455	0.1	-1.7208e-002
24297	19.569	2.6364	0.1	-1.7876e-002
24298	19.292	2.5455	0.1	-1.6429e-002
24299	19.384	2.6364	0.1	-1.7059e-002
24300	19.107	2.5455	0.1	-1.571e-002
24301	19.199	2.6364	0.1	-1.6307e-002
24302	18.922	2.5455	0.1	-1.5045e-002
24303	19.015	2.6364	0.1	-1.5611e-002
24304	18.738	2.5455	0.1	-1.4429e-002
24305	18.83	2.6364	0.1	-1.4968e-002
24306	18.553	2.5455	0.1	-1.3857e-002
24307	18.645	2.6364	0.1	-1.437e-002
24308	18.368	2.5455	0.1	-1.3323e-002
24309	18.461	2.6364	0.1	-1.3814e-002
24310	18.184	2.5455	0.1	-1.2824e-002
24311	18.276	2.6364	0.1	-1.3295e-002
24312	17.999	2.5455	0.1	-1.2357e-002
24313	18.092	2.6364	0.1	-1.2809e-002
24314	17.815	2.5455	0.1	-1.1917e-002
24315	17.907	2.6364	0.1	-1.2353e-002
24316	17.63	2.5455	0.1	-1.1503e-002
24317	17.722	2.6364	0.1	-1.1925e-002
24318	17.445	2.5455	0.1	-1.1113e-002
24319	17.538	2.6364	0.1	-1.1521e-002
24320	17.261	2.5455	0.1	-1.0741e-002
24321	17.353	2.6364	0.1	-1.1141e-002
24322	17.076	2.5455	0.1	-1.0385e-002
24323	17.168	2.6364	0.1	-1.0773e-002
24324	16.891	2.5455	0.1	-1.0056e-002
24325	16.984	2.6364	0.1	-1.0427e-002
24326	16.707	2.5455	0.1	-9.7408e-003
24327	16.799	2.6364	0.1	-1.0113e-002
24328	16.522	2.5455	0.1	-9.4274e-003
24329	16.614	2.6364	0.1	-9.7962e-003
24330	16.337	2.5455	0.1	-9.1269e-003
24331	16.43	2.6364	0.1	-9.4877e-003
24332	16.153	2.5455	0.1	-8.8366e-003
24333	16.245	2.6364	0.1	-9.1974e-003
24334	15.968	2.5455	0.1	-8.5509e-003
24335	16.06	2.6364	0.1	-8.9125e-003
24336	15.783	2.5455	0.1	-8.2673e-003
24337	15.876	2.6364	0.1	-8.6351e-003
24338	15.599	2.5455	0.1	-7.9805e-003
24339	15.691	2.6364	0.1	-8.3592e-003
24340	15.414	2.5455	0.1	-7.6827e-003
24341	15.507	2.6364	0.1	-8.0817e-003
24342	15.23	2.5455	0.1	-7.3581e-003
24343	15.322	2.6364	0.1	-7.7947e-003
24344	15.045	2.5455	0.1	-6.9732e-003
24345	15.137	2.6364	0.1	-7.481e-003
24346	14.86	2.5455	0.1	-6.4202e-003
24347	14.953	2.6364	0.1	-7.1022e-003
24348	14.676	2.5455	0.1	-5.1066e-003
24349	14.768	2.6364	0.1	-6.4879e-003
24350	14.491	2.5455	0.1	0.20626
24351	14.583	2.6364	0.1	-3.2115e-003
24352	14.306	2.5455	0.1	1.7972
24353	14.399	2.6364	0.1	1.1173
24354	14.122	2.5455	0.1	3.496
24355	14.214	2.6364	0.1	2.7778
24356	13.937	2.5455	0.1	5.3037
24357	14.029	2.6364	0.1	4.5427
24358	13.752	2.5455	0.1	7.2325
24359	13.845	2.6364	0.1	6.4235
24360	13.568	2.5455	0.1	9.2952
24361	13.66	2.6364	0.1	8.433
24362	13.383	2.5455	0.1	11.506
24363	13.475	2.6364	0.1	10.585
24364	13.199	2.5455	0.1	13.88
24365	13.291	2.6364	0.1	12.894
24366	13.014	2.5455	0.1	16.435
24367	13.106	2.6364	0.1	15.377
24368	12.829	2.5455	0.1	19.187
24369	12.922	2.6364	0.1	18.051
24370	12.645	2.5455	0.1	22.158
24371	12.737	2.6364	0.1	20.936
24372	12.46	2.5455	0.1	25.367
24373	12.552	2.6364	0.1	24.052
24374	12.275	2.5455	0.1	28.84
24375	12.368	2.6364	0.1	27.422
24376	12.091	2.5455	0.1	32.6
24377	12.183	2.6364	0.1	31.071
24378	11.906	2.5455	0.1	36.677
24379	11.998	2.6364	0.1	35.028
24380	11.721	2.5455	0.1	41.101
24381	11.814	2.6364	0.1	39.321
24382	11.537	2.5455	0.1	45.907
24383	11.629	2.6364	0.1	43.985
24384	11.352	2.5455	0.1	51.131
24385	11.444	2.6364	0.1	49.056
24386	11.167	2.5455	0.1	56.814
24387	11.26	2.6364	0.1	54.575
24388	10.983	2.5455	0.1	63.002
24389	11.075	2.6364	0.1	60.586
24390	10.798	2.5455	0.1	69.744
24391	10.891	2.6364	0.1	67.138
24392	10.614	2.5455	0.1	77.094
24393	10.706	2.6364	0.1	74.286
24394	10.429	2.5455	0.1	85.112
24395	10.521	2.6364	0.1	82.088
24396	10.244	2.5455	0.1	93.861
24397	10.337	2.6364	0.1	90.608
24398	10.06	2.5455	0.1	103.41
24399	10.152	2.6364	0.1	99.919
24400	9.875	2.5455	0.1	113.84
24401	9.9673	2.6364	0.1	110.1
24402	9.6904	2.5455	0.1	125.22
24403	9.7827	2.6364	0.1	121.22
24404	9.5057	2.5455	0.1	137.63
24405	9.598	2.6364	0.1	133.37
24406	9.3211	2.5455	0.1	151.17
24407	9.4134	2.6364	0.1	146.65
24408	9.1364	2.5455	0.1	165.9
24409	9.2288	2.6364	0.1	161.14
24410	8.9518	2.5455	0.1	181.92
24411	9.0441	2.6364	0.1	176.94
24412	8.7672	2.5455	0.1	199.28
24413	8.8595	2.6364	0.1	194.11
24414	8.5825	2.5455	0.1	218.03
24415	8.6748	2.6364	0.1	212.73
24416	8.3979	2.5455	0.1	238.17
24417	8.4902	2.6364	0.1	232.82
24418	8.2132	2.5455	0.1	259.66
24419	8.3056	2.6364	0.1	254.39
24420	8.0286	2.5455	0.1	282.38
24421	8.1209	2.6364	0.1	277.36
24422	7.844	2.5455	0.1	306.07
24423	7.9363	2.6364	0.1	301.54
24424	7.6593	2.5455	0.1	330.31
24425	7.7516	2.6364	0.1	326.61
24426	7.4747	2.5455	0.1	354.43
24427	7.567	2.6364	0.1	352.01
24428	7.29	2.5455	0.1	377.36
24429	7.3824	2.6364	0.1	376.86
24430	7.1054	2.5455	0.1	397.51
24431	7.1977	2.6364	0.1	399.78
24432	6.9208	2.5455	0.1	412.48
24433	7.0131	2.6364	0.1	418.73
24434	6.7361	2.5455	0.1	418.72
24435	6.8284	2.6364	0.1	430.6
24436	6.5515	2.5455	0.1	410.99
24437	6.6438	2.6364	0.1	430.81
24438	6.3668	2.5455	0.1	381.6
24439	6.4592	2.6364	0.1	412.64
24440	6.1822	2.5455	0.1	319.31
24441	6.2745	2.6364	0.1	366.36
24442	5.9975	2.5455	0.1	207.94
24443	6.0899	2.6364	0.1	278.29
24444	5.8129	2.5455	0.1	27.617
24445	5.9052	2.6364	0.1	130.5
24446	5.6283	2.5455	0.1	-5.3869e-002
24447	5.7206	2.6364	0.1	-5.2008e-002
24448	5.4436	2.5455	0.1	-2.9699
24449	5.5359	2.6364	0.1	-0.20045
24450	5.3513	2.6364	0.1	-1.1915
24451	5.259	2.5455	0.1	-3.4657
24452	23.723	2.7273	0.1	-0.22788
24453	23.815	2.8182	0.1	-0.21023
24454	23.908	2.7273	0.1	-0.42737
24455	23.538	2.7273	0.1	-0.23058
24456	23.631	2.8182	0.1	-0.33349
24457	23.354	2.7273	0.1	-0.13317
24458	23.446	2.8182	0.1	-0.14535
24459	23.169	2.7273	0.1	-0.11001
24460	23.261	2.8182	0.1	-0.1276
24461	22.984	2.7273	0.1	-8.7097e-002
24462	23.077	2.8182	0.1	-9.5713e-002
24463	22.8	2.7273	0.1	-7.3601e-002
24464	22.892	2.8182	0.1	-8.0437e-002
24465	22.615	2.7273	0.1	-6.3202e-002
24466	22.708	2.8182	0.1	-6.8082e-002
24467	22.431	2.7273	0.1	-5.5462e-002
24468	22.523	2.8182	0.1	-5.9296e-002
24469	22.246	2.7273	0.1	-4.9345e-002
24470	22.338	2.8182	0.1	-5.24e-002
24471	22.061	2.7273	0.1	-4.4424e-002
24472	22.154	2.8182	0.1	-4.6936e-002
24473	21.877	2.7273	0.1	-4.0366e-002
24474	21.969	2.8182	0.1	-4.2475e-002
24475	21.692	2.7273	0.1	-3.6957e-002
24476	21.784	2.8182	0.1	-3.8764e-002
24477	21.507	2.7273	0.1	-3.405e-002
24478	21.6	2.8182	0.1	-3.5615e-002
24479	21.323	2.7273	0.1	-3.1545e-002
24480	21.415	2.8182	0.1	-3.2919e-002
24481	21.138	2.7273	0.1	-2.936e-002
24482	21.23	2.8182	0.1	-3.0581e-002
24483	20.953	2.7273	0.1	-2.7434e-002
24484	21.046	2.8182	0.1	-2.8528e-002
24485	20.769	2.7273	0.1	-2.5726e-002
24486	20.861	2.8182	0.1	-2.6714e-002
24487	20.584	2.7273	0.1	-2.4201e-002
24488	20.676	2.8182	0.1	-2.5097e-002
24489	20.4	2.7273	0.1	-2.2831e-002
24490	20.492	2.8182	0.1	-2.365e-002
24491	20.215	2.7273	0.1	-2.1593e-002
24492	20.307	2.8182	0.1	-2.2346e-002
24493	20.03	2.7273	0.1	-2.047e-002
24494	20.123	2.8182	0.1	-2.1164e-002
24495	19.846	2.7273	0.1	-1.9449e-002
24496	19.938	2.8182	0.1	-2.0091e-002
24497	19.661	2.7273	0.1	-1.8516e-002
24498	19.753	2.8182	0.1	-1.9112e-002
24499	19.476	2.7273	0.1	-1.7659e-002
24500	19.569	2.8182	0.1	-1.8217e-002
24501	19.292	2.7273	0.1	-1.6871e-002
24502	19.384	2.8182	0.1	-1.7392e-002
24503	19.107	2.7273	0.1	-1.6144e-002
24504	19.199	2.8182	0.1	-1.6633e-002
24505	18.922	2.7273	0.1	-1.5472e-002
24506	19.015	2.8182	0.1	-1.5932e-002
24507	18.738	2.7273	0.1	-1.4849e-002
24508	18.83	2.8182	0.1	-1.5284e-002
24509	18.553	2.7273	0.1	-1.427e-002
24510	18.645	2.8182	0.1	-1.4681e-002
24511	18.368	2.7273	0.1	-1.373e-002
24512	18.461	2.8182	0.1	-1.4121e-002
24513	18.184	2.7273	0.1	-1.3225e-002
24514	18.276	2.8182	0.1	-1.3597e-002
24515	17.999	2.7273	0.1	-1.2752e-002
24516	18.092	2.8182	0.1	-1.3107e-002
24517	17.815	2.7273	0.1	-1.2308e-002
24518	17.907	2.8182	0.1	-1.2648e-002
24519	17.63	2.7273	0.1	-1.1891e-002
24520	17.722	2.8182	0.1	-1.2217e-002
24521	17.445	2.7273	0.1	-1.1498e-002
24522	17.538	2.8182	0.1	-1.1809e-002
24523	17.261	2.7273	0.1	-1.1123e-002
24524	17.353	2.8182	0.1	-1.1428e-002
24525	17.076	2.7273	0.1	-1.0765e-002
24526	17.168	2.8182	0.1	-1.1057e-002
24527	16.891	2.7273	0.1	-1.0435e-002
24528	16.984	2.8182	0.1	-1.0711e-002
24529	16.707	2.7273	0.1	-1.012e-002
24530	16.799	2.8182	0.1	-1.0397e-002
24531	16.522	2.7273	0.1	-9.8078e-003
24532	16.614	2.8182	0.1	-1.0081e-002
24533	16.337	2.7273	0.1	-9.5097e-003
24534	16.43	2.8182	0.1	-9.774e-003
24535	16.153	2.7273	0.1	-9.2247e-003
24536	16.245	2.8182	0.1	-9.4876e-003
24537	15.968	2.7273	0.1	-8.9478e-003
24538	16.06	2.8182	0.1	-9.2086e-003
24539	15.783	2.7273	0.1	-8.6777e-003
24540	15.876	2.8182	0.1	-8.9393e-003
24541	15.599	2.7273	0.1	-8.4106e-003
24542	15.691	2.8182	0.1	-8.6771e-003
24543	15.414	2.7273	0.1	-8.1436e-003
24544	15.507	2.8182	0.1	-8.419e-003
24545	15.23	2.7273	0.1	-7.869e-003
24546	15.322	2.8182	0.1	-8.1636e-003
24547	15.045	2.7273	0.1	-7.5719e-003
24548	15.137	2.8182	0.1	-7.9046e-003
24549	14.86	2.7273	0.1	-7.2037e-003
24550	14.953	2.8182	0.1	-7.6299e-003
24551	14.676	2.7273	0.1	-6.4448e-003
24552	14.768	2.8182	0.1	-7.2865e-003
24553	14.491	2.7273	0.1	0.44702
24554	14.583	2.8182	0.1	-5.6234e-003
24555	14.306	2.7273	0.1	2.0738
24556	14.399	2.8182	0.1	1.3144
24557	14.122	2.7273	0.1	3.8013
24558	14.214	2.8182	0.1	2.996
24559	13.937	2.7273	0.1	5.6399
24560	14.029	2.8182	0.1	4.7831
24561	13.752	2.7273	0.1	7.602
24562	13.845	2.8182	0.1	6.688
24563	13.568	2.7273	0.1	9.7013
24564	13.66	2.8182	0.1	8.7236
24565	13.383	2.7273	0.1	11.952
24566	13.475	2.8182	0.1	10.904
24567	13.199	2.7273	0.1	14.371
24568	13.291	2.8182	0.1	13.245
24569	13.014	2.7273	0.1	16.974
24570	13.106	2.8182	0.1	15.763
24571	12.829	2.7273	0.1	19.781
24572	12.922	2.8182	0.1	18.476
24573	12.645	2.7273	0.1	22.812
24574	12.737	2.8182	0.1	21.404
24575	12.46	2.7273	0.1	26.09
24576	12.552	2.8182	0.1	24.568
24577	12.275	2.7273	0.1	29.638
24578	12.368	2.8182	0.1	27.992
24579	12.091	2.7273	0.1	33.484
24580	12.183	2.8182	0.1	31.702
24581	11.906	2.7273	0.1	37.658
24582	11.998	2.8182	0.1	35.727
24583	11.721	2.7273	0.1	42.192
24584	11.814	2.8182	0.1	40.098
24585	11.537	2.7273	0.1	47.123
24586	11.629	2.8182	0.1	44.85
24587	11.352	2.7273	0.1	52.49
24588	11.444	2.8182	0.1	50.022
24589	11.167	2.7273	0.1	58.337
24590	11.26	2.8182	0.1	55.656
24591	10.983	2.7273	0.1	64.713
24592	11.075	2.8182	0.1	61.798
24593	10.798	2.7273	0.1	71.672
24594	10.891	2.8182	0.1	68.502
24595	10.614	2.7273	0.1	79.272
24596	10.706	2.8182	0.1	75.825
24597	10.429	2.7273	0.1	87.578
24598	10.521	2.8182	0.1	83.829
24599	10.244	2.7273	0.1	96.661
24600	10.337	2.8182	0.1	92.584
24601	10.06	2.7273	0.1	106.6
24602	10.152	2.8182	0.1	102.17
24603	9.875	2.7273	0.1	117.47
24604	9.9673	2.8182	0.1	112.66
24605	9.6904	2.7273	0.1	129.37
24606	9.7827	2.8182	0.1	124.14
24607	9.5057	2.7273	0.1	142.39
24608	9.598	2.8182	0.1	136.72
24609	9.3211	2.7273	0.1	156.63
24610	9.4134	2.8182	0.1	150.49
24611	9.1364	2.7273	0.1	172.18
24612	9.2288	2.8182	0.1	165.55
24613	8.9518	2.7273	0.1	189.13
24614	9.0441	2.8182	0.1	182.
24615	8.7672	2.7273	0.1	207.56
24616	8.8595	2.8182	0.1	199.93
24617	8.5825	2.7273	0.1	227.52
24618	8.6748	2.8182	0.1	219.41
24619	8.3979	2.7273	0.1	249.05
24620	8.4902	2.8182	0.1	240.49
24621	8.2132	2.7273	0.1	272.09
24622	8.3056	2.8182	0.1	263.17
24623	8.0286	2.7273	0.1	296.53
24624	8.1209	2.8182	0.1	287.37
24625	7.844	2.7273	0.1	322.09
24626	7.9363	2.8182	0.1	312.92
24627	7.6593	2.7273	0.1	348.31
24628	7.7516	2.8182	0.1	339.44
24629	7.4747	2.7273	0.1	374.43
24630	7.567	2.8182	0.1	366.36
24631	7.29	2.7273	0.1	399.25
24632	7.3824	2.8182	0.1	392.69
24633	7.1054	2.7273	0.1	420.94
24634	7.1977	2.8182	0.1	416.93
24635	6.9208	2.7273	0.1	436.7
24636	7.0131	2.8182	0.1	436.77
24637	6.7361	2.7273	0.1	442.36
24638	6.8284	2.8182	0.1	448.74
24639	6.5515	2.7273	0.1	431.77
24640	6.6438	2.8182	0.1	447.66
24641	6.3668	2.7273	0.1	395.99
24642	6.4592	2.8182	0.1	425.93
24643	6.1822	2.7273	0.1	322.51
24644	6.2745	2.8182	0.1	372.79
24645	5.9975	2.7273	0.1	195.3
24646	6.0899	2.8182	0.1	273.84
24647	5.8129	2.7273	0.1	5.2534
24648	5.9052	2.8182	0.1	112.49
24649	5.6283	2.7273	0.1	-0.33548
24650	5.7206	2.8182	0.1	-0.99498
24651	5.4436	2.7273	0.1	1.899
24652	5.5359	2.8182	0.1	1.1544e-003
24653	5.3513	2.8182	0.1	1.9386
24654	5.259	2.7273	0.1	4.3284
24655	23.723	2.9091	0.1	-0.22878
24656	23.815	3.	0.1	-0.21094
24657	23.908	2.9091	0.1	-0.42765
24658	23.538	2.9091	0.1	-0.23113
24659	23.631	3.	0.1	-0.33383
24660	23.354	2.9091	0.1	-0.13359
24661	23.446	3.	0.1	-0.14558
24662	23.169	2.9091	0.1	-0.11039
24663	23.261	3.	0.1	-0.1278
24664	22.984	2.9091	0.1	-8.7442e-002
24665	23.077	3.	0.1	-9.5891e-002
24666	22.8	2.9091	0.1	-7.3925e-002
24667	22.892	3.	0.1	-8.0603e-002
24668	22.615	2.9091	0.1	-6.3512e-002
24669	22.708	3.	0.1	-6.8239e-002
24670	22.431	2.9091	0.1	-5.576e-002
24671	22.523	3.	0.1	-5.9448e-002
24672	22.246	2.9091	0.1	-4.9636e-002
24673	22.338	3.	0.1	-5.2545e-002
24674	22.061	2.9091	0.1	-4.471e-002
24675	22.154	3.	0.1	-4.708e-002
24676	21.877	2.9091	0.1	-4.0648e-002
24677	21.969	3.	0.1	-4.2617e-002
24678	21.692	2.9091	0.1	-3.7234e-002
24679	21.784	3.	0.1	-3.8903e-002
24680	21.507	2.9091	0.1	-3.4324e-002
24681	21.6	3.	0.1	-3.5753e-002
24682	21.323	2.9091	0.1	-3.1815e-002
24683	21.415	3.	0.1	-3.3055e-002
24684	21.138	2.9091	0.1	-2.9626e-002
24685	21.23	3.	0.1	-3.0715e-002
24686	20.953	2.9091	0.1	-2.7696e-002
24687	21.046	3.	0.1	-2.8659e-002
24688	20.769	2.9091	0.1	-2.5983e-002
24689	20.861	3.	0.1	-2.6843e-002
24690	20.584	2.9091	0.1	-2.4452e-002
24691	20.676	3.	0.1	-2.5224e-002
24692	20.4	2.9091	0.1	-2.3077e-002
24693	20.492	3.	0.1	-2.3774e-002
24694	20.215	2.9091	0.1	-2.1834e-002
24695	20.307	3.	0.1	-2.2467e-002
24696	20.03	2.9091	0.1	-2.0707e-002
24697	20.123	3.	0.1	-2.1284e-002
24698	19.846	2.9091	0.1	-1.9681e-002
24699	19.938	3.	0.1	-2.0208e-002
24700	19.661	2.9091	0.1	-1.8743e-002
24701	19.753	3.	0.1	-1.9226e-002
24702	19.476	2.9091	0.1	-1.7882e-002
24703	19.569	3.	0.1	-1.8329e-002
24704	19.292	2.9091	0.1	-1.709e-002
24705	19.384	3.	0.1	-1.7503e-002
24706	19.107	2.9091	0.1	-1.6359e-002
24707	19.199	3.	0.1	-1.6742e-002
24708	18.922	2.9091	0.1	-1.5683e-002
24709	19.015	3.	0.1	-1.6039e-002
24710	18.738	2.9091	0.1	-1.5057e-002
24711	18.83	3.	0.1	-1.5389e-002
24712	18.553	2.9091	0.1	-1.4475e-002
24713	18.645	3.	0.1	-1.4784e-002
24714	18.368	2.9091	0.1	-1.3932e-002
24715	18.461	3.	0.1	-1.4222e-002
24716	18.184	2.9091	0.1	-1.3424e-002
24717	18.276	3.	0.1	-1.3697e-002
24718	17.999	2.9091	0.1	-1.2949e-002
24719	18.092	3.	0.1	-1.3205e-002
24720	17.815	2.9091	0.1	-1.2504e-002
24721	17.907	3.	0.1	-1.2746e-002
24722	17.63	2.9091	0.1	-1.2084e-002
24723	17.722	3.	0.1	-1.2313e-002
24724	17.445	2.9091	0.1	-1.1688e-002
24725	17.538	3.	0.1	-1.1906e-002
24726	17.261	2.9091	0.1	-1.1311e-002
24727	17.353	3.	0.1	-1.1522e-002
24728	17.076	2.9091	0.1	-1.0953e-002
24729	17.168	3.	0.1	-1.1152e-002
24730	16.891	2.9091	0.1	-1.0623e-002
24731	16.984	3.	0.1	-1.0805e-002
24732	16.707	2.9091	0.1	-1.0309e-002
24733	16.799	3.	0.1	-1.0492e-002
24734	16.522	2.9091	0.1	-9.9973e-003
24735	16.614	3.	0.1	-1.0176e-002
24736	16.337	2.9091	0.1	-9.7015e-003
24737	16.43	3.	0.1	-9.8695e-003
24738	16.153	2.9091	0.1	-9.4205e-003
24739	16.245	3.	0.1	-9.5844e-003
24740	15.968	2.9091	0.1	-9.148e-003
24741	16.06	3.	0.1	-9.3083e-003
24742	15.783	2.9091	0.1	-8.8849e-003
24743	15.876	3.	0.1	-9.0413e-003
24744	15.599	2.9091	0.1	-8.6295e-003
24745	15.691	3.	0.1	-8.7838e-003
24746	15.414	2.9091	0.1	-8.3795e-003
24747	15.507	3.	0.1	-8.5332e-003
24748	15.23	2.9091	0.1	-8.1346e-003
24749	15.322	3.	0.1	-8.2894e-003
24750	15.045	2.9091	0.1	-7.8908e-003
24751	15.137	3.	0.1	-8.0504e-003
24752	14.86	2.9091	0.1	-7.6414e-003
24753	14.953	3.	0.1	-7.8165e-003
24754	14.676	2.9091	0.1	-7.3414e-003
24755	14.768	3.	0.1	-7.5848e-003
24756	14.491	2.9091	0.1	0.57115
24757	14.583	3.	0.1	-7.3554e-003
24758	14.306	2.9091	0.1	2.2127
24759	14.399	3.	0.1	1.3803
24760	14.122	2.9091	0.1	3.9546
24761	14.214	3.	0.1	3.0689
24762	13.937	2.9091	0.1	5.8086
24763	14.029	3.	0.1	4.8635
24764	13.752	2.9091	0.1	7.7877
24765	13.845	3.	0.1	6.7764
24766	13.568	2.9091	0.1	9.9054
24767	13.66	3.	0.1	8.8208
24768	13.383	2.9091	0.1	12.177
24769	13.475	3.	0.1	11.011
24770	13.199	2.9091	0.1	14.618
24771	13.291	3.	0.1	13.363
24772	13.014	2.9091	0.1	17.246
24773	13.106	3.	0.1	15.892
24774	12.829	2.9091	0.1	20.08
24775	12.922	3.	0.1	18.618
24776	12.645	2.9091	0.1	23.142
24777	12.737	3.	0.1	21.56
24778	12.46	2.9091	0.1	26.453
24779	12.552	3.	0.1	24.74
24780	12.275	2.9091	0.1	30.04
24781	12.368	3.	0.1	28.183
24782	12.091	2.9091	0.1	33.93
24783	12.183	3.	0.1	31.913
24784	11.906	2.9091	0.1	38.153
24785	11.998	3.	0.1	35.961
24786	11.721	2.9091	0.1	42.743
24787	11.814	3.	0.1	40.358
24788	11.537	2.9091	0.1	47.737
24789	11.629	3.	0.1	45.14
24790	11.352	2.9091	0.1	53.177
24791	11.444	3.	0.1	50.346
24792	11.167	2.9091	0.1	59.107
24793	11.26	3.	0.1	56.018
24794	10.983	2.9091	0.1	65.579
24795	11.075	3.	0.1	62.206
24796	10.798	2.9091	0.1	72.648
24797	10.891	3.	0.1	68.961
24798	10.614	2.9091	0.1	80.375
24799	10.706	3.	0.1	76.343
24800	10.429	2.9091	0.1	88.829
24801	10.521	3.	0.1	84.415
24802	10.244	2.9091	0.1	98.084
24803	10.337	3.	0.1	93.249
24804	10.06	2.9091	0.1	108.22
24805	10.152	3.	0.1	102.92
24806	9.875	2.9091	0.1	119.32
24807	9.9673	3.	0.1	113.52
24808	9.6904	2.9091	0.1	131.49
24809	9.7827	3.	0.1	125.13
24810	9.5057	2.9091	0.1	144.82
24811	9.598	3.	0.1	137.86
24812	9.3211	2.9091	0.1	159.42
24813	9.4134	3.	0.1	151.79
24814	9.1364	2.9091	0.1	175.38
24815	9.2288	3.	0.1	167.04
24816	8.9518	2.9091	0.1	192.81
24817	9.0441	3.	0.1	183.71
24818	8.7672	2.9091	0.1	211.78
24819	8.8595	3.	0.1	201.9
24820	8.5825	2.9091	0.1	232.38
24821	8.6748	3.	0.1	221.67
24822	8.3979	2.9091	0.1	254.61
24823	8.4902	3.	0.1	243.08
24824	8.2132	2.9091	0.1	278.45
24825	8.3056	3.	0.1	266.14
24826	8.0286	2.9091	0.1	303.76
24827	8.1209	3.	0.1	290.76
24828	7.844	2.9091	0.1	330.27
24829	7.9363	3.	0.1	316.76
24830	7.6593	2.9091	0.1	357.48
24831	7.7516	3.	0.1	343.78
24832	7.4747	2.9091	0.1	384.59
24833	7.567	3.	0.1	371.2
24834	7.29	2.9091	0.1	410.3
24835	7.3824	3.	0.1	398.01
24836	7.1054	2.9091	0.1	432.62
24837	7.1977	3.	0.1	422.66
24838	6.9208	2.9091	0.1	448.53
24839	7.0131	3.	0.1	442.75
24840	6.7361	2.9091	0.1	453.46
24841	6.8284	3.	0.1	454.64
24842	6.5515	2.9091	0.1	440.69
24843	6.6438	3.	0.1	452.94
24844	6.3668	2.9091	0.1	400.62
24845	6.4592	3.	0.1	429.73
24846	6.1822	2.9091	0.1	320.32
24847	6.2745	3.	0.1	373.88
24848	5.9975	2.9091	0.1	184.65
24849	6.0899	3.	0.1	270.87
24850	5.8129	2.9091	0.1	-0.89896
24851	5.9052	3.	0.1	104.98
24852	5.6283	2.9091	0.1	-0.55262
24853	5.7206	3.	0.1	-1.1681
24854	5.4436	2.9091	0.1	0.17626
24855	5.5359	3.	0.1	-9.1316e-002
24856	5.3513	3.	0.1	0.30261
24857	5.259	2.9091	0.1	1.442
24858	23.723	3.0909	0.1	-0.22878
24859	23.815	3.1818	0.1	-0.21023
24860	23.908	3.0909	0.1	-0.42765
24861	23.538	3.0909	0.1	-0.23113
24862	23.631	3.1818	0.1	-0.33349
24863	23.354	3.0909	0.1	-0.13359
24864	23.446	3.1818	0.1	-0.14535
24865	23.169	3.0909	0.1	-0.11039
24866	23.261	3.1818	0.1	-0.1276
24867	22.984	3.0909	0.1	-8.7442e-002
24868	23.077	3.1818	0.1	-9.5712e-002
24869	22.8	3.0909	0.1	-7.3925e-002
24870	22.892	3.1818	0.1	-8.0436e-002
24871	22.615	3.0909	0.1	-6.3512e-002
24872	22.708	3.1818	0.1	-6.8083e-002
24873	22.431	3.0909	0.1	-5.576e-002
24874	22.523	3.1818	0.1	-5.9295e-002
24875	22.246	3.0909	0.1	-4.9636e-002
24876	22.338	3.1818	0.1	-5.2399e-002
24877	22.061	3.0909	0.1	-4.4711e-002
24878	22.154	3.1818	0.1	-4.6936e-002
24879	21.877	3.0909	0.1	-4.0648e-002
24880	21.969	3.1818	0.1	-4.2475e-002
24881	21.692	3.0909	0.1	-3.7235e-002
24882	21.784	3.1818	0.1	-3.8763e-002
24883	21.507	3.0909	0.1	-3.4325e-002
24884	21.6	3.1818	0.1	-3.5615e-002
24885	21.323	3.0909	0.1	-3.1816e-002
24886	21.415	3.1818	0.1	-3.2919e-002
24887	21.138	3.0909	0.1	-2.9625e-002
24888	21.23	3.1818	0.1	-3.0581e-002
24889	20.953	3.0909	0.1	-2.7696e-002
24890	21.046	3.1818	0.1	-2.8528e-002
24891	20.769	3.0909	0.1	-2.5983e-002
24892	20.861	3.1818	0.1	-2.6713e-002
24893	20.584	3.0909	0.1	-2.4452e-002
24894	20.676	3.1818	0.1	-2.5097e-002
24895	20.4	3.0909	0.1	-2.3077e-002
24896	20.492	3.1818	0.1	-2.365e-002
24897	20.215	3.0909	0.1	-2.1835e-002
24898	20.307	3.1818	0.1	-2.2345e-002
24899	20.03	3.0909	0.1	-2.0707e-002
24900	20.123	3.1818	0.1	-2.1165e-002
24901	19.846	3.0909	0.1	-1.968e-002
24902	19.938	3.1818	0.1	-2.0091e-002
24903	19.661	3.0909	0.1	-1.8742e-002
24904	19.753	3.1818	0.1	-1.9112e-002
24905	19.476	3.0909	0.1	-1.7882e-002
24906	19.569	3.1818	0.1	-1.8216e-002
24907	19.292	3.0909	0.1	-1.709e-002
24908	19.384	3.1818	0.1	-1.7392e-002
24909	19.107	3.0909	0.1	-1.636e-002
24910	19.199	3.1818	0.1	-1.6634e-002
24911	18.922	3.0909	0.1	-1.5684e-002
24912	19.015	3.1818	0.1	-1.5932e-002
24913	18.738	3.0909	0.1	-1.5057e-002
24914	18.83	3.1818	0.1	-1.5284e-002
24915	18.553	3.0909	0.1	-1.4474e-002
24916	18.645	3.1818	0.1	-1.4681e-002
24917	18.368	3.0909	0.1	-1.3931e-002
24918	18.461	3.1818	0.1	-1.412e-002
24919	18.184	3.0909	0.1	-1.3424e-002
24920	18.276	3.1818	0.1	-1.3597e-002
24921	17.999	3.0909	0.1	-1.2949e-002
24922	18.092	3.1818	0.1	-1.3107e-002
24923	17.815	3.0909	0.1	-1.2503e-002
24924	17.907	3.1818	0.1	-1.2648e-002
24925	17.63	3.0909	0.1	-1.2083e-002
24926	17.722	3.1818	0.1	-1.2217e-002
24927	17.445	3.0909	0.1	-1.1688e-002
24928	17.538	3.1818	0.1	-1.1809e-002
24929	17.261	3.0909	0.1	-1.1312e-002
24930	17.353	3.1818	0.1	-1.1427e-002
24931	17.076	3.0909	0.1	-1.0953e-002
24932	17.168	3.1818	0.1	-1.1057e-002
24933	16.891	3.0909	0.1	-1.0623e-002
24934	16.984	3.1818	0.1	-1.071e-002
24935	16.707	3.0909	0.1	-1.0309e-002
24936	16.799	3.1818	0.1	-1.0397e-002
24937	16.522	3.0909	0.1	-9.9973e-003
24938	16.614	3.1818	0.1	-1.0081e-002
24939	16.337	3.0909	0.1	-9.7013e-003
24940	16.43	3.1818	0.1	-9.7739e-003
24941	16.153	3.0909	0.1	-9.4203e-003
24942	16.245	3.1818	0.1	-9.4874e-003
24943	15.968	3.0909	0.1	-9.1484e-003
24944	16.06	3.1818	0.1	-9.2085e-003
24945	15.783	3.0909	0.1	-8.885e-003
24946	15.876	3.1818	0.1	-8.9396e-003
24947	15.599	3.0909	0.1	-8.6293e-003
24948	15.691	3.1818	0.1	-8.6766e-003
24949	15.414	3.0909	0.1	-8.3802e-003
24950	15.507	3.1818	0.1	-8.4191e-003
24951	15.23	3.0909	0.1	-8.1346e-003
24952	15.322	3.1818	0.1	-8.1635e-003
24953	15.045	3.0909	0.1	-7.8912e-003
24954	15.137	3.1818	0.1	-7.9046e-003
24955	14.86	3.0909	0.1	-7.6421e-003
24956	14.953	3.1818	0.1	-7.6303e-003
24957	14.676	3.0909	0.1	-7.3415e-003
24958	14.768	3.1818	0.1	-7.2864e-003
24959	14.491	3.0909	0.1	0.57115
24960	14.583	3.1818	0.1	-5.6239e-003
24961	14.306	3.0909	0.1	2.2127
24962	14.399	3.1818	0.1	1.3144
24963	14.122	3.0909	0.1	3.9546
24964	14.214	3.1818	0.1	2.996
24965	13.937	3.0909	0.1	5.8086
24966	14.029	3.1818	0.1	4.7831
24967	13.752	3.0909	0.1	7.7877
24968	13.845	3.1818	0.1	6.688
24969	13.568	3.0909	0.1	9.9054
24970	13.66	3.1818	0.1	8.7236
24971	13.383	3.0909	0.1	12.177
24972	13.475	3.1818	0.1	10.904
24973	13.199	3.0909	0.1	14.618
24974	13.291	3.1818	0.1	13.245
24975	13.014	3.0909	0.1	17.246
24976	13.106	3.1818	0.1	15.763
24977	12.829	3.0909	0.1	20.08
24978	12.922	3.1818	0.1	18.476
24979	12.645	3.0909	0.1	23.142
24980	12.737	3.1818	0.1	21.404
24981	12.46	3.0909	0.1	26.453
24982	12.552	3.1818	0.1	24.568
24983	12.275	3.0909	0.1	30.04
24984	12.368	3.1818	0.1	27.992
24985	12.091	3.0909	0.1	33.93
24986	12.183	3.1818	0.1	31.702
24987	11.906	3.0909	0.1	38.153
24988	11.998	3.1818	0.1	35.727
24989	11.721	3.0909	0.1	42.743
24990	11.814	3.1818	0.1	40.098
24991	11.537	3.0909	0.1	47.737
24992	11.629	3.1818	0.1	44.85
24993	11.352	3.0909	0.1	53.177
24994	11.444	3.1818	0.1	50.022
24995	11.167	3.0909	0.1	59.107
24996	11.26	3.1818	0.1	55.656
24997	10.983	3.0909	0.1	65.579
24998	11.075	3.1818	0.1	61.798
24999	10.798	3.0909	0.1	72.648
25000	10.891	3.1818	0.1	68.502
25001	10.614	3.0909	0.1	80.375
25002	10.706	3.1818	0.1	75.825
25003	10.429	3.0909	0.1	88.829
25004	10.521	3.1818	0.1	83.829
25005	10.244	3.0909	0.1	98.084
25006	10.337	3.1818	0.1	92.584
25007	10.06	3.0909	0.1	108.22
25008	10.152	3.1818	0.1	102.17
25009	9.875	3.0909	0.1	119.32
25010	9.9673	3.1818	0.1	112.66
25011	9.6904	3.0909	0.1	131.49
25012	9.7827	3.1818	0.1	124.14
25013	9.5057	3.0909	0.1	144.82
25014	9.598	3.1818	0.1	136.72
25015	9.3211	3.0909	0.1	159.42
25016	9.4134	3.1818	0.1	150.49
25017	9.1364	3.0909	0.1	175.38
25018	9.2288	3.1818	0.1	165.55
25019	8.9518	3.0909	0.1	192.81
25020	9.0441	3.1818	0.1	182.
25021	8.7672	3.0909	0.1	211.78
25022	8.8595	3.1818	0.1	199.93
25023	8.5825	3.0909	0.1	232.38
25024	8.6748	3.1818	0.1	219.41
25025	8.3979	3.0909	0.1	254.61
25026	8.4902	3.1818	0.1	240.49
25027	8.2132	3.0909	0.1	278.45
25028	8.3056	3.1818	0.1	263.17
25029	8.0286	3.0909	0.1	303.76
25030	8.1209	3.1818	0.1	287.37
25031	7.844	3.0909	0.1	330.27
25032	7.9363	3.1818	0.1	312.92
25033	7.6593	3.0909	0.1	357.48
25034	7.7516	3.1818	0.1	339.44
25035	7.4747	3.0909	0.1	384.59
25036	7.567	3.1818	0.1	366.36
25037	7.29	3.0909	0.1	410.3
25038	7.3824	3.1818	0.1	392.69
25039	7.1054	3.0909	0.1	432.62
25040	7.1977	3.1818	0.1	416.93
25041	6.9208	3.0909	0.1	448.53
25042	7.0131	3.1818	0.1	436.77
25043	6.7361	3.0909	0.1	453.46
25044	6.8284	3.1818	0.1	448.74
25045	6.5515	3.0909	0.1	440.69
25046	6.6438	3.1818	0.1	447.66
25047	6.3668	3.0909	0.1	400.62
25048	6.4592	3.1818	0.1	425.93
25049	6.1822	3.0909	0.1	320.32
25050	6.2745	3.1818	0.1	372.79
25051	5.9975	3.0909	0.1	184.65
25052	6.0899	3.1818	0.1	273.84
25053	5.8129	3.0909	0.1	-0.89897
25054	5.9052	3.1818	0.1	112.49
25055	5.6283	3.0909	0.1	-0.55262
25056	5.7206	3.1818	0.1	-0.99498
25057	5.4436	3.0909	0.1	0.17626
25058	5.5359	3.1818	0.1	1.152e-003
25059	5.3513	3.1818	0.1	1.9386
25060	5.259	3.0909	0.1	1.442
25061	23.723	3.2727	0.1	-0.22788
25062	23.815	3.3636	0.1	-0.20809
25063	23.908	3.2727	0.1	-0.42737
25064	23.538	3.2727	0.1	-0.23058
25065	23.631	3.3636	0.1	-0.33248
25066	23.354	3.2727	0.1	-0.13317
25067	23.446	3.3636	0.1	-0.14465
25068	23.169	3.2727	0.1	-0.11001
25069	23.261	3.3636	0.1	-0.12699
25070	22.984	3.2727	0.1	-8.7097e-002
25071	23.077	3.3636	0.1	-9.5167e-002
25072	22.8	3.2727	0.1	-7.3601e-002
25073	22.892	3.3636	0.1	-7.9931e-002
25074	22.615	3.2727	0.1	-6.3202e-002
25075	22.708	3.3636	0.1	-6.7603e-002
25076	22.431	3.2727	0.1	-5.5461e-002
25077	22.523	3.3636	0.1	-5.8834e-002
25078	22.246	3.2727	0.1	-4.9345e-002
25079	22.338	3.3636	0.1	-5.1952e-002
25080	22.061	3.2727	0.1	-4.4423e-002
25081	22.154	3.3636	0.1	-4.6497e-002
25082	21.877	3.2727	0.1	-4.0364e-002
25083	21.969	3.3636	0.1	-4.2042e-002
25084	21.692	3.2727	0.1	-3.6956e-002
25085	21.784	3.3636	0.1	-3.8337e-002
25086	21.507	3.2727	0.1	-3.405e-002
25087	21.6	3.3636	0.1	-3.5196e-002
25088	21.323	3.2727	0.1	-3.1545e-002
25089	21.415	3.3636	0.1	-3.2506e-002
25090	21.138	3.2727	0.1	-2.936e-002
25091	21.23	3.3636	0.1	-3.0174e-002
25092	20.953	3.2727	0.1	-2.7434e-002
25093	21.046	3.3636	0.1	-2.8129e-002
25094	20.769	3.2727	0.1	-2.5726e-002
25095	20.861	3.3636	0.1	-2.6322e-002
25096	20.584	3.2727	0.1	-2.4201e-002
25097	20.676	3.3636	0.1	-2.4713e-002
25098	20.4	3.2727	0.1	-2.283e-002
25099	20.492	3.3636	0.1	-2.3273e-002
25100	20.215	3.2727	0.1	-2.1593e-002
25101	20.307	3.3636	0.1	-2.1976e-002
25102	20.03	3.2727	0.1	-2.0471e-002
25103	20.123	3.3636	0.1	-2.0803e-002
25104	19.846	3.2727	0.1	-1.9449e-002
25105	19.938	3.3636	0.1	-1.9737e-002
25106	19.661	3.2727	0.1	-1.8515e-002
25107	19.753	3.3636	0.1	-1.8766e-002
25108	19.476	3.2727	0.1	-1.7659e-002
25109	19.569	3.3636	0.1	-1.7876e-002
25110	19.292	3.2727	0.1	-1.6872e-002
25111	19.384	3.3636	0.1	-1.7058e-002
25112	19.107	3.2727	0.1	-1.6144e-002
25113	19.199	3.3636	0.1	-1.6306e-002
25114	18.922	3.2727	0.1	-1.5472e-002
25115	19.015	3.3636	0.1	-1.5611e-002
25116	18.738	3.2727	0.1	-1.4849e-002
25117	18.83	3.3636	0.1	-1.4968e-002
25118	18.553	3.2727	0.1	-1.4269e-002
25119	18.645	3.3636	0.1	-1.437e-002
25120	18.368	3.2727	0.1	-1.373e-002
25121	18.461	3.3636	0.1	-1.3815e-002
25122	18.184	3.2727	0.1	-1.3225e-002
25123	18.276	3.3636	0.1	-1.3295e-002
25124	17.999	3.2727	0.1	-1.2752e-002
25125	18.092	3.3636	0.1	-1.2809e-002
25126	17.815	3.2727	0.1	-1.2309e-002
25127	17.907	3.3636	0.1	-1.2353e-002
25128	17.63	3.2727	0.1	-1.1891e-002
25129	17.722	3.3636	0.1	-1.1925e-002
25130	17.445	3.2727	0.1	-1.1497e-002
25131	17.538	3.3636	0.1	-1.1521e-002
25132	17.261	3.2727	0.1	-1.1122e-002
25133	17.353	3.3636	0.1	-1.1141e-002
25134	17.076	3.2727	0.1	-1.0764e-002
25135	17.168	3.3636	0.1	-1.0772e-002
25136	16.891	3.2727	0.1	-1.0434e-002
25137	16.984	3.3636	0.1	-1.0426e-002
25138	16.707	3.2727	0.1	-1.012e-002
25139	16.799	3.3636	0.1	-1.0113e-002
25140	16.522	3.2727	0.1	-9.8073e-003
25141	16.614	3.3636	0.1	-9.7961e-003
25142	16.337	3.2727	0.1	-9.5095e-003
25143	16.43	3.3636	0.1	-9.4876e-003
25144	16.153	3.2727	0.1	-9.2245e-003
25145	16.245	3.3636	0.1	-9.1971e-003
25146	15.968	3.2727	0.1	-8.9476e-003
25147	16.06	3.3636	0.1	-8.9125e-003
25148	15.783	3.2727	0.1	-8.6776e-003
25149	15.876	3.3636	0.1	-8.635e-003
25150	15.599	3.2727	0.1	-8.4104e-003
25151	15.691	3.3636	0.1	-8.3589e-003
25152	15.414	3.2727	0.1	-8.1429e-003
25153	15.507	3.3636	0.1	-8.0819e-003
25154	15.23	3.2727	0.1	-7.8689e-003
25155	15.322	3.3636	0.1	-7.794e-003
25156	15.045	3.2727	0.1	-7.5719e-003
25157	15.137	3.3636	0.1	-7.4815e-003
25158	14.86	3.2727	0.1	-7.2031e-003
25159	14.953	3.3636	0.1	-7.1017e-003
25160	14.676	3.2727	0.1	-6.4448e-003
25161	14.768	3.3636	0.1	-6.4877e-003
25162	14.491	3.2727	0.1	0.44702
25163	14.583	3.3636	0.1	-3.212e-003
25164	14.306	3.2727	0.1	2.0738
25165	14.399	3.3636	0.1	1.1173
25166	14.122	3.2727	0.1	3.8013
25167	14.214	3.3636	0.1	2.7778
25168	13.937	3.2727	0.1	5.6399
25169	14.029	3.3636	0.1	4.5427
25170	13.752	3.2727	0.1	7.602
25171	13.845	3.3636	0.1	6.4235
25172	13.568	3.2727	0.1	9.7013
25173	13.66	3.3636	0.1	8.4329
25174	13.383	3.2727	0.1	11.952
25175	13.475	3.3636	0.1	10.585
25176	13.199	3.2727	0.1	14.371
25177	13.291	3.3636	0.1	12.894
25178	13.014	3.2727	0.1	16.974
25179	13.106	3.3636	0.1	15.377
25180	12.829	3.2727	0.1	19.781
25181	12.922	3.3636	0.1	18.051
25182	12.645	3.2727	0.1	22.812
25183	12.737	3.3636	0.1	20.936
25184	12.46	3.2727	0.1	26.09
25185	12.552	3.3636	0.1	24.052
25186	12.275	3.2727	0.1	29.638
25187	12.368	3.3636	0.1	27.422
25188	12.091	3.2727	0.1	33.484
25189	12.183	3.3636	0.1	31.071
25190	11.906	3.2727	0.1	37.658
25191	11.998	3.3636	0.1	35.028
25192	11.721	3.2727	0.1	42.192
25193	11.814	3.3636	0.1	39.321
25194	11.537	3.2727	0.1	47.123
25195	11.629	3.3636	0.1	43.985
25196	11.352	3.2727	0.1	52.49
25197	11.444	3.3636	0.1	49.056
25198	11.167	3.2727	0.1	58.337
25199	11.26	3.3636	0.1	54.575
25200	10.983	3.2727	0.1	64.713
25201	11.075	3.3636	0.1	60.586
25202	10.798	3.2727	0.1	71.672
25203	10.891	3.3636	0.1	67.138
25204	10.614	3.2727	0.1	79.272
25205	10.706	3.3636	0.1	74.286
25206	10.429	3.2727	0.1	87.578
25207	10.521	3.3636	0.1	82.088
25208	10.244	3.2727	0.1	96.661
25209	10.337	3.3636	0.1	90.608
25210	10.06	3.2727	0.1	106.6
25211	10.152	3.3636	0.1	99.919
25212	9.875	3.2727	0.1	117.47
25213	9.9673	3.3636	0.1	110.1
25214	9.6904	3.2727	0.1	129.37
25215	9.7827	3.3636	0.1	121.22
25216	9.5057	3.2727	0.1	142.39
25217	9.598	3.3636	0.1	133.37
25218	9.3211	3.2727	0.1	156.63
25219	9.4134	3.3636	0.1	146.65
25220	9.1364	3.2727	0.1	172.18
25221	9.2288	3.3636	0.1	161.14
25222	8.9518	3.2727	0.1	189.13
25223	9.0441	3.3636	0.1	176.94
25224	8.7672	3.2727	0.1	207.56
25225	8.8595	3.3636	0.1	194.11
25226	8.5825	3.2727	0.1	227.52
25227	8.6748	3.3636	0.1	212.73
25228	8.3979	3.2727	0.1	249.05
25229	8.4902	3.3636	0.1	232.82
25230	8.2132	3.2727	0.1	272.09
25231	8.3056	3.3636	0.1	254.39
25232	8.0286	3.2727	0.1	296.53
25233	8.1209	3.3636	0.1	277.36
25234	7.844	3.2727	0.1	322.09
25235	7.9363	3.3636	0.1	301.54
25236	7.6593	3.2727	0.1	348.31
25237	7.7516	3.3636	0.1	326.61
25238	7.4747	3.2727	0.1	374.43
25239	7.567	3.3636	0.1	352.01
25240	7.29	3.2727	0.1	399.25
25241	7.3824	3.3636	0.1	376.86
25242	7.1054	3.2727	0.1	420.94
25243	7.1977	3.3636	0.1	399.78
25244	6.9208	3.2727	0.1	436.7
25245	7.0131	3.3636	0.1	418.73
25246	6.7361	3.2727	0.1	442.36
25247	6.8284	3.3636	0.1	430.6
25248	6.5515	3.2727	0.1	431.77
25249	6.6438	3.3636	0.1	430.81
25250	6.3668	3.2727	0.1	395.99
25251	6.4592	3.3636	0.1	412.64
25252	6.1822	3.2727	0.1	322.51
25253	6.2745	3.3636	0.1	366.36
25254	5.9975	3.2727	0.1	195.3
25255	6.0899	3.3636	0.1	278.29
25256	5.8129	3.2727	0.1	5.2533
25257	5.9052	3.3636	0.1	130.5
25258	5.6283	3.2727	0.1	-0.33548
25259	5.7206	3.3636	0.1	-5.2017e-002
25260	5.4436	3.2727	0.1	1.899
25261	5.5359	3.3636	0.1	-0.20045
25262	5.3513	3.3636	0.1	-1.1915
25263	5.259	3.2727	0.1	4.3284
25264	23.723	3.4545	0.1	-0.22605
25265	23.815	3.5455	0.1	-0.20446
25266	23.908	3.4545	0.1	-0.4268
25267	23.538	3.4545	0.1	-0.22946
25268	23.631	3.5455	0.1	-0.33074
25269	23.354	3.4545	0.1	-0.13229
25270	23.446	3.5455	0.1	-0.14345
25271	23.169	3.4545	0.1	-0.10924
25272	23.261	3.5455	0.1	-0.12594
25273	22.984	3.4545	0.1	-8.6391e-002
25274	23.077	3.5455	0.1	-9.4227e-002
25275	22.8	3.4545	0.1	-7.2938e-002
25276	22.892	3.5455	0.1	-7.9059e-002
25277	22.615	3.4545	0.1	-6.2568e-002
25278	22.708	3.5455	0.1	-6.6776e-002
25279	22.431	3.4545	0.1	-5.4848e-002
25280	22.523	3.5455	0.1	-5.8039e-002
25281	22.246	3.4545	0.1	-4.8746e-002
25282	22.338	3.5455	0.1	-5.1178e-002
25283	22.061	3.4545	0.1	-4.3836e-002
25284	22.154	3.5455	0.1	-4.574e-002
25285	21.877	3.4545	0.1	-3.9787e-002
25286	21.969	3.5455	0.1	-4.1299e-002
25287	21.692	3.4545	0.1	-3.6387e-002
25288	21.784	3.5455	0.1	-3.7606e-002
25289	21.507	3.4545	0.1	-3.349e-002
25290	21.6	3.5455	0.1	-3.4476e-002
25291	21.323	3.4545	0.1	-3.0993e-002
25292	21.415	3.5455	0.1	-3.1799e-002
25293	21.138	3.4545	0.1	-2.8817e-002
25294	21.23	3.5455	0.1	-2.9479e-002
25295	20.953	3.4545	0.1	-2.6903e-002
25296	21.046	3.5455	0.1	-2.7447e-002
25297	20.769	3.4545	0.1	-2.5205e-002
25298	20.861	3.5455	0.1	-2.5653e-002
25299	20.584	3.4545	0.1	-2.3689e-002
25300	20.676	3.5455	0.1	-2.4058e-002
25301	20.4	3.4545	0.1	-2.2329e-002
25302	20.492	3.5455	0.1	-2.2631e-002
25303	20.215	3.4545	0.1	-2.1102e-002
25304	20.307	3.5455	0.1	-2.1348e-002
25305	20.03	3.4545	0.1	-1.999e-002
25306	20.123	3.5455	0.1	-2.0189e-002
25307	19.846	3.4545	0.1	-1.8979e-002
25308	19.938	3.5455	0.1	-1.9136e-002
25309	19.661	3.4545	0.1	-1.8055e-002
25310	19.753	3.5455	0.1	-1.8177e-002
25311	19.476	3.4545	0.1	-1.7207e-002
25312	19.569	3.5455	0.1	-1.73e-002
25313	19.292	3.4545	0.1	-1.6428e-002
25314	19.384	3.5455	0.1	-1.6494e-002
25315	19.107	3.4545	0.1	-1.5709e-002
25316	19.199	3.5455	0.1	-1.5753e-002
25317	18.922	3.4545	0.1	-1.5045e-002
25318	19.015	3.5455	0.1	-1.5068e-002
25319	18.738	3.4545	0.1	-1.4429e-002
25320	18.83	3.5455	0.1	-1.4435e-002
25321	18.553	3.4545	0.1	-1.3857e-002
25322	18.645	3.5455	0.1	-1.3846e-002
25323	18.368	3.4545	0.1	-1.3323e-002
25324	18.461	3.5455	0.1	-1.3298e-002
25325	18.184	3.4545	0.1	-1.2824e-002
25326	18.276	3.5455	0.1	-1.2787e-002
25327	17.999	3.4545	0.1	-1.2356e-002
25328	18.092	3.5455	0.1	-1.2308e-002
25329	17.815	3.4545	0.1	-1.1917e-002
25330	17.907	3.5455	0.1	-1.1859e-002
25331	17.63	3.4545	0.1	-1.1503e-002
25332	17.722	3.5455	0.1	-1.1436e-002
25333	17.445	3.4545	0.1	-1.1114e-002
25334	17.538	3.5455	0.1	-1.1037e-002
25335	17.261	3.4545	0.1	-1.0741e-002
25336	17.353	3.5455	0.1	-1.0661e-002
25337	17.076	3.4545	0.1	-1.0385e-002
25338	17.168	3.5455	0.1	-1.0296e-002
25339	16.891	3.4545	0.1	-1.0056e-002
25340	16.984	3.5455	0.1	-9.9519e-003
25341	16.707	3.4545	0.1	-9.7409e-003
25342	16.799	3.5455	0.1	-9.6403e-003
25343	16.522	3.4545	0.1	-9.4278e-003
25344	16.614	3.5455	0.1	-9.3221e-003
25345	16.337	3.4545	0.1	-9.1266e-003
25346	16.43	3.5455	0.1	-9.0121e-003
25347	16.153	3.4545	0.1	-8.8364e-003
25348	16.245	3.5455	0.1	-8.7172e-003
25349	15.968	3.4545	0.1	-8.551e-003
25350	16.06	3.5455	0.1	-8.4249e-003
25351	15.783	3.4545	0.1	-8.267e-003
25352	15.876	3.5455	0.1	-8.1349e-003
25353	15.599	3.4545	0.1	-7.9806e-003
25354	15.691	3.5455	0.1	-7.8407e-003
25355	15.414	3.4545	0.1	-7.6829e-003
25356	15.507	3.5455	0.1	-7.5364e-003
25357	15.23	3.4545	0.1	-7.3582e-003
25358	15.322	3.5455	0.1	-7.2055e-003
25359	15.045	3.4545	0.1	-6.9733e-003
25360	15.137	3.5455	0.1	-6.821e-003
25361	14.86	3.4545	0.1	-6.4201e-003
25362	14.953	3.5455	0.1	-6.3099e-003
25363	14.676	3.4545	0.1	-5.1067e-003
25364	14.768	3.5455	0.1	-5.4067e-003
25365	14.491	3.4545	0.1	0.20625
25366	14.583	3.5455	0.1	-1.7227e-003
25367	14.306	3.4545	0.1	1.7972
25368	14.399	3.5455	0.1	0.7917
25369	14.122	3.4545	0.1	3.4959
25370	14.214	3.5455	0.1	2.4162
25371	13.937	3.4545	0.1	5.3037
25372	14.029	3.5455	0.1	4.1442
25373	13.752	3.4545	0.1	7.2324
25374	13.845	3.5455	0.1	5.9853
25375	13.568	3.4545	0.1	9.2952
25376	13.66	3.5455	0.1	7.9514
25377	13.383	3.4545	0.1	11.506
25378	13.475	3.5455	0.1	10.056
25379	13.199	3.4545	0.1	13.88
25380	13.291	3.5455	0.1	12.313
25381	13.014	3.4545	0.1	16.435
25382	13.106	3.5455	0.1	14.739
25383	12.829	3.4545	0.1	19.187
25384	12.922	3.5455	0.1	17.349
25385	12.645	3.4545	0.1	22.158
25386	12.737	3.5455	0.1	20.163
25387	12.46	3.4545	0.1	25.367
25388	12.552	3.5455	0.1	23.2
25389	12.275	3.4545	0.1	28.84
25390	12.368	3.5455	0.1	26.481
25391	12.091	3.4545	0.1	32.6
25392	12.183	3.5455	0.1	30.032
25393	11.906	3.4545	0.1	36.677
25394	11.998	3.5455	0.1	33.876
25395	11.721	3.4545	0.1	41.101
25396	11.814	3.5455	0.1	38.042
25397	11.537	3.4545	0.1	45.907
25398	11.629	3.5455	0.1	42.562
25399	11.352	3.4545	0.1	51.131
25400	11.444	3.5455	0.1	47.469
25401	11.167	3.4545	0.1	56.814
25402	11.26	3.5455	0.1	52.801
25403	10.983	3.4545	0.1	63.002
25404	11.075	3.5455	0.1	58.597
25405	10.798	3.4545	0.1	69.744
25406	10.891	3.5455	0.1	64.903
25407	10.614	3.4545	0.1	77.094
25408	10.706	3.5455	0.1	71.766
25409	10.429	3.4545	0.1	85.112
25410	10.521	3.5455	0.1	79.24
25411	10.244	3.4545	0.1	93.861
25412	10.337	3.5455	0.1	87.382
25413	10.06	3.4545	0.1	103.41
25414	10.152	3.5455	0.1	96.253
25415	9.875	3.4545	0.1	113.84
25416	9.9673	3.5455	0.1	105.92
25417	9.6904	3.4545	0.1	125.22
25418	9.7827	3.5455	0.1	116.45
25419	9.5057	3.4545	0.1	137.63
25420	9.598	3.5455	0.1	127.93
25421	9.3211	3.4545	0.1	151.17
25422	9.4134	3.5455	0.1	140.41
25423	9.1364	3.4545	0.1	165.9
25424	9.2288	3.5455	0.1	153.99
25425	8.9518	3.4545	0.1	181.92
25426	9.0441	3.5455	0.1	168.73
25427	8.7672	3.4545	0.1	199.28
25428	8.8595	3.5455	0.1	184.68
25429	8.5825	3.4545	0.1	218.03
25430	8.6748	3.5455	0.1	201.91
25431	8.3979	3.4545	0.1	238.17
25432	8.4902	3.5455	0.1	220.42
25433	8.2132	3.4545	0.1	259.66
25434	8.3056	3.5455	0.1	240.2
25435	8.0286	3.4545	0.1	282.38
25436	8.1209	3.5455	0.1	261.17
25437	7.844	3.4545	0.1	306.07
25438	7.9363	3.5455	0.1	283.15
25439	7.6593	3.4545	0.1	330.31
25440	7.7516	3.5455	0.1	305.82
25441	7.4747	3.4545	0.1	354.43
25442	7.567	3.5455	0.1	328.7
25443	7.29	3.4545	0.1	377.36
25444	7.3824	3.5455	0.1	351.
25445	7.1054	3.4545	0.1	397.51
25446	7.1977	3.5455	0.1	371.52
25447	6.9208	3.4545	0.1	412.48
25448	7.0131	3.5455	0.1	388.49
25449	6.7361	3.4545	0.1	418.72
25450	6.8284	3.5455	0.1	399.27
25451	6.5515	3.4545	0.1	410.99
25452	6.6438	3.5455	0.1	400.
25453	6.3668	3.4545	0.1	381.6
25454	6.4592	3.5455	0.1	384.99
25455	6.1822	3.4545	0.1	319.31
25456	6.2745	3.5455	0.1	345.97
25457	5.9975	3.4545	0.1	207.94
25458	6.0899	3.5455	0.1	270.8
25459	5.8129	3.4545	0.1	27.617
25460	5.9052	3.5455	0.1	141.79
25461	5.6283	3.4545	0.1	-5.3875e-002
25462	5.7206	3.5455	0.1	-2.5077
25463	5.4436	3.4545	0.1	-2.9699
25464	5.5359	3.5455	0.1	5.247
25465	5.3513	3.5455	0.1	7.5515
25466	5.259	3.4545	0.1	-3.4657
25467	23.723	3.6364	0.1	-0.22322
25468	23.815	3.7273	0.1	-0.19924
25469	23.908	3.6364	0.1	-0.4259
25470	23.538	3.6364	0.1	-0.22772
25471	23.631	3.7273	0.1	-0.32821
25472	23.354	3.6364	0.1	-0.13093
25473	23.446	3.7273	0.1	-0.14169
25474	23.169	3.6364	0.1	-0.10803
25475	23.261	3.7273	0.1	-0.1244
25476	22.984	3.6364	0.1	-8.5285e-002
25477	23.077	3.7273	0.1	-9.2848e-002
25478	22.8	3.6364	0.1	-7.1899e-002
25479	22.892	3.7273	0.1	-7.7773e-002
25480	22.615	3.6364	0.1	-6.1576e-002
25481	22.708	3.7273	0.1	-6.556e-002
25482	22.431	3.6364	0.1	-5.3888e-002
25483	22.523	3.7273	0.1	-5.6867e-002
25484	22.246	3.6364	0.1	-4.7809e-002
25485	22.338	3.7273	0.1	-5.0039e-002
25486	22.061	3.6364	0.1	-4.2917e-002
25487	22.154	3.7273	0.1	-4.4626e-002
25488	21.877	3.6364	0.1	-3.8885e-002
25489	21.969	3.7273	0.1	-4.0206e-002
25490	21.692	3.6364	0.1	-3.5499e-002
25491	21.784	3.7273	0.1	-3.6533e-002
25492	21.507	3.6364	0.1	-3.2617e-002
25493	21.6	3.7273	0.1	-3.3422e-002
25494	21.323	3.6364	0.1	-3.0138e-002
25495	21.415	3.7273	0.1	-3.0766e-002
25496	21.138	3.6364	0.1	-2.7978e-002
25497	21.23	3.7273	0.1	-2.8467e-002
25498	20.953	3.6364	0.1	-2.6079e-002
25499	21.046	3.7273	0.1	-2.6456e-002
25500	20.769	3.6364	0.1	-2.4399e-002
25501	20.861	3.7273	0.1	-2.4683e-002
25502	20.584	3.6364	0.1	-2.29e-002
25503	20.676	3.7273	0.1	-2.3111e-002
25504	20.4	3.6364	0.1	-2.1558e-002
25505	20.492	3.7273	0.1	-2.1706e-002
25506	20.215	3.6364	0.1	-2.0349e-002
25507	20.307	3.7273	0.1	-2.0444e-002
25508	20.03	3.6364	0.1	-1.9253e-002
25509	20.123	3.7273	0.1	-1.9306e-002
25510	19.846	3.6364	0.1	-1.8256e-002
25511	19.938	3.7273	0.1	-1.8273e-002
25512	19.661	3.6364	0.1	-1.7348e-002
25513	19.753	3.7273	0.1	-1.7332e-002
25514	19.476	3.6364	0.1	-1.6516e-002
25515	19.569	3.7273	0.1	-1.6475e-002
25516	19.292	3.6364	0.1	-1.5752e-002
25517	19.384	3.7273	0.1	-1.5686e-002
25518	19.107	3.6364	0.1	-1.5046e-002
25519	19.199	3.7273	0.1	-1.4963e-002
25520	18.922	3.6364	0.1	-1.4394e-002
25521	19.015	3.7273	0.1	-1.4292e-002
25522	18.738	3.6364	0.1	-1.3791e-002
25523	18.83	3.7273	0.1	-1.3675e-002
25524	18.553	3.6364	0.1	-1.3229e-002
25525	18.645	3.7273	0.1	-1.3099e-002
25526	18.368	3.6364	0.1	-1.2705e-002
25527	18.461	3.7273	0.1	-1.2565e-002
25528	18.184	3.6364	0.1	-1.2216e-002
25529	18.276	3.7273	0.1	-1.2066e-002
25530	17.999	3.6364	0.1	-1.1756e-002
25531	18.092	3.7273	0.1	-1.1598e-002
25532	17.815	3.6364	0.1	-1.1325e-002
25533	17.907	3.7273	0.1	-1.1159e-002
25534	17.63	3.6364	0.1	-1.0918e-002
25535	17.722	3.7273	0.1	-1.0745e-002
25536	17.445	3.6364	0.1	-1.0534e-002
25537	17.538	3.7273	0.1	-1.0355e-002
25538	17.261	3.6364	0.1	-1.0167e-002
25539	17.353	3.7273	0.1	-9.9859e-003
25540	17.076	3.6364	0.1	-9.8147e-003
25541	17.168	3.7273	0.1	-9.6271e-003
25542	16.891	3.6364	0.1	-9.4883e-003
25543	16.984	3.7273	0.1	-9.2877e-003
25544	16.707	3.6364	0.1	-9.1745e-003
25545	16.799	3.7273	0.1	-8.9792e-003
25546	16.522	3.6364	0.1	-8.8603e-003
25547	16.614	3.7273	0.1	-8.6631e-003
25548	16.337	3.6364	0.1	-8.5573e-003
25549	16.43	3.7273	0.1	-8.352e-003
25550	16.153	3.6364	0.1	-8.261e-003
25551	16.245	3.7273	0.1	-8.0538e-003
25552	15.968	3.6364	0.1	-7.965e-003
25553	16.06	3.7273	0.1	-7.7549e-003
25554	15.783	3.6364	0.1	-7.6661e-003
25555	15.876	3.7273	0.1	-7.4529e-003
25556	15.599	3.6364	0.1	-7.356e-003
25557	15.691	3.7273	0.1	-7.1412e-003
25558	15.414	3.6364	0.1	-7.0226e-003
25559	15.507	3.7273	0.1	-6.807e-003
25560	15.23	3.6364	0.1	-6.6416e-003
25561	15.322	3.7273	0.1	-6.4328e-003
25562	15.045	3.6364	0.1	-6.1603e-003
25563	15.137	3.7273	0.1	-5.979e-003
25564	14.86	3.6364	0.1	-5.4287e-003
25565	14.953	3.7273	0.1	-5.3519e-003
25566	14.676	3.6364	0.1	-3.7646e-003
25567	14.768	3.7273	0.1	-4.2513e-003
25568	14.491	3.6364	0.1	1.9487e-002
25569	14.583	3.7273	0.1	-8.5988e-004
25570	14.306	3.6364	0.1	1.3854
25571	14.399	3.7273	0.1	0.3484
25572	14.122	3.6364	0.1	3.041
25573	14.214	3.7273	0.1	1.9141
25574	13.937	3.6364	0.1	4.8031
25575	14.029	3.7273	0.1	3.5909
25576	13.752	3.6364	0.1	6.6822
25577	13.845	3.7273	0.1	5.377
25578	13.568	3.6364	0.1	8.6908
25579	13.66	3.7273	0.1	7.2835
25580	13.383	3.6364	0.1	10.842
25581	13.475	3.7273	0.1	9.3227
25582	13.199	3.6364	0.1	13.151
25583	13.291	3.7273	0.1	11.508
25584	13.014	3.6364	0.1	15.634
25585	13.106	3.7273	0.1	13.855
25586	12.829	3.6364	0.1	18.306
25587	12.922	3.7273	0.1	16.378
25588	12.645	3.6364	0.1	21.187
25589	12.737	3.7273	0.1	19.094
25590	12.46	3.6364	0.1	24.297
25591	12.552	3.7273	0.1	22.023
25592	12.275	3.6364	0.1	27.657
25593	12.368	3.7273	0.1	25.184
25594	12.091	3.6364	0.1	31.292
25595	12.183	3.7273	0.1	28.598
25596	11.906	3.6364	0.1	35.227
25597	11.998	3.7273	0.1	32.29
25598	11.721	3.6364	0.1	39.49
25599	11.814	3.7273	0.1	36.284
25600	11.537	3.6364	0.1	44.113
25601	11.629	3.7273	0.1	40.608
25602	11.352	3.6364	0.1	49.128
25603	11.444	3.7273	0.1	45.293
25604	11.167	3.6364	0.1	54.573
25605	11.26	3.7273	0.1	50.371
25606	10.983	3.6364	0.1	60.488
25607	11.075	3.7273	0.1	55.878
25608	10.798	3.6364	0.1	66.916
25609	10.891	3.7273	0.1	61.851
25610	10.614	3.6364	0.1	73.904
25611	10.706	3.7273	0.1	68.332
25612	10.429	3.6364	0.1	81.503
25613	10.521	3.7273	0.1	75.366
25614	10.244	3.6364	0.1	89.769
25615	10.337	3.7273	0.1	83.
25616	10.06	3.6364	0.1	98.759
25617	10.152	3.7273	0.1	91.284
25618	9.875	3.6364	0.1	108.54
25619	9.9673	3.7273	0.1	100.27
25620	9.6904	3.6364	0.1	119.16
25621	9.7827	3.7273	0.1	110.02
25622	9.5057	3.6364	0.1	130.71
25623	9.598	3.7273	0.1	120.58
25624	9.3211	3.6364	0.1	143.24
25625	9.4134	3.7273	0.1	132.01
25626	9.1364	3.6364	0.1	156.81
25627	9.2288	3.7273	0.1	144.37
25628	8.9518	3.6364	0.1	171.49
25629	9.0441	3.7273	0.1	157.71
25630	8.7672	3.6364	0.1	187.31
25631	8.8595	3.7273	0.1	172.05
25632	8.5825	3.6364	0.1	204.31
25633	8.6748	3.7273	0.1	187.43
25634	8.3979	3.6364	0.1	222.46
25635	8.4902	3.7273	0.1	203.84
25636	8.2132	3.6364	0.1	241.71
25637	8.3056	3.7273	0.1	221.24
25638	8.0286	3.6364	0.1	261.94
25639	8.1209	3.7273	0.1	239.54
25640	7.844	3.6364	0.1	282.9
25641	7.9363	3.7273	0.1	258.55
25642	7.6593	3.6364	0.1	304.22
25643	7.7516	3.7273	0.1	277.99
25644	7.4747	3.6364	0.1	325.29
25645	7.567	3.7273	0.1	297.39
25646	7.29	3.6364	0.1	345.18
25647	7.3824	3.7273	0.1	316.05
25648	7.1054	3.6364	0.1	362.54
25649	7.1977	3.7273	0.1	332.92
25650	6.9208	3.6364	0.1	375.33
25651	7.0131	3.7273	0.1	346.43
25652	6.7361	3.6364	0.1	380.58
25653	6.8284	3.7273	0.1	354.28
25654	6.5515	3.6364	0.1	373.93
25655	6.6438	3.7273	0.1	353.06
25656	6.3668	3.6364	0.1	348.98
25657	6.4592	3.7273	0.1	337.81
25658	6.1822	3.6364	0.1	296.23
25659	6.2745	3.7273	0.1	301.12
25660	5.9975	3.6364	0.1	201.21
25661	6.0899	3.7273	0.1	232.26
25662	5.8129	3.6364	0.1	41.015
25663	5.9052	3.7273	0.1	113.55
25664	5.6283	3.6364	0.1	2.3291
25665	5.7206	3.7273	0.1	0.41762
25666	5.4436	3.6364	0.1	15.907
25667	5.5359	3.7273	0.1	-16.4
25668	5.3513	3.7273	0.1	10.123
25669	5.259	3.6364	0.1	33.4
25670	23.723	3.8182	0.1	-0.21929
25671	23.815	3.9091	0.1	-0.19227
25672	23.908	3.8182	0.1	-0.42462
25673	23.538	3.8182	0.1	-0.22528
25674	23.631	3.9091	0.1	-0.32478
25675	23.354	3.8182	0.1	-0.12902
25676	23.446	3.9091	0.1	-0.13929
25677	23.169	3.8182	0.1	-0.10632
25678	23.261	3.9091	0.1	-0.12229
25679	22.984	3.8182	0.1	-8.3725e-002
25680	23.077	3.9091	0.1	-9.0956e-002
25681	22.8	3.8182	0.1	-7.0431e-002
25682	22.892	3.9091	0.1	-7.6008e-002
25683	22.615	3.8182	0.1	-6.0172e-002
25684	22.708	3.9091	0.1	-6.3883e-002
25685	22.431	3.8182	0.1	-5.2528e-002
25686	22.523	3.9091	0.1	-5.5252e-002
25687	22.246	3.8182	0.1	-4.6485e-002
25688	22.338	3.9091	0.1	-4.8471e-002
25689	22.061	3.8182	0.1	-4.162e-002
25690	22.154	3.9091	0.1	-4.3095e-002
25691	21.877	3.8182	0.1	-3.7613e-002
25692	21.969	3.9091	0.1	-3.8708e-002
25693	21.692	3.8182	0.1	-3.4253e-002
25694	21.784	3.9091	0.1	-3.5066e-002
25695	21.507	3.8182	0.1	-3.1395e-002
25696	21.6	3.9091	0.1	-3.1987e-002
25697	21.323	3.8182	0.1	-2.8941e-002
25698	21.415	3.9091	0.1	-2.9361e-002
25699	21.138	3.8182	0.1	-2.6808e-002
25700	21.23	3.9091	0.1	-2.7097e-002
25701	20.953	3.8182	0.1	-2.4936e-002
25702	21.046	3.9091	0.1	-2.5118e-002
25703	20.769	3.8182	0.1	-2.3282e-002
25704	20.861	3.9091	0.1	-2.3379e-002
25705	20.584	3.8182	0.1	-2.1811e-002
25706	20.676	3.9091	0.1	-2.1839e-002
25707	20.4	3.8182	0.1	-2.0495e-002
25708	20.492	3.9091	0.1	-2.0466e-002
25709	20.215	3.8182	0.1	-1.931e-002
25710	20.307	3.9091	0.1	-1.9236e-002
25711	20.03	3.8182	0.1	-1.824e-002
25712	20.123	3.9091	0.1	-1.8128e-002
25713	19.846	3.8182	0.1	-1.7267e-002
25714	19.938	3.9091	0.1	-1.7124e-002
25715	19.661	3.8182	0.1	-1.6381e-002
25716	19.753	3.9091	0.1	-1.6212e-002
25717	19.476	3.8182	0.1	-1.5571e-002
25718	19.569	3.9091	0.1	-1.5381e-002
25719	19.292	3.8182	0.1	-1.4827e-002
25720	19.384	3.9091	0.1	-1.4618e-002
25721	19.107	3.8182	0.1	-1.4141e-002
25722	19.199	3.9091	0.1	-1.3918e-002
25723	18.922	3.8182	0.1	-1.3507e-002
25724	19.015	3.9091	0.1	-1.3271e-002
25725	18.738	3.8182	0.1	-1.2921e-002
25726	18.83	3.9091	0.1	-1.2674e-002
25727	18.553	3.8182	0.1	-1.2376e-002
25728	18.645	3.9091	0.1	-1.2119e-002
25729	18.368	3.8182	0.1	-1.1868e-002
25730	18.461	3.9091	0.1	-1.1605e-002
25731	18.184	3.8182	0.1	-1.1392e-002
25732	18.276	3.9091	0.1	-1.1122e-002
25733	17.999	3.8182	0.1	-1.0946e-002
25734	18.092	3.9091	0.1	-1.0671e-002
25735	17.815	3.8182	0.1	-1.0527e-002
25736	17.907	3.9091	0.1	-1.0248e-002
25737	17.63	3.8182	0.1	-1.0131e-002
25738	17.722	3.9091	0.1	-9.8484e-003
25739	17.445	3.8182	0.1	-9.7572e-003
25740	17.538	3.9091	0.1	-9.4705e-003
25741	17.261	3.8182	0.1	-9.3979e-003
25742	17.353	3.9091	0.1	-9.1131e-003
25743	17.076	3.8182	0.1	-9.0532e-003
25744	17.168	3.9091	0.1	-8.7642e-003
25745	16.891	3.8182	0.1	-8.7329e-003
25746	16.984	3.9091	0.1	-8.4344e-003
25747	16.707	3.8182	0.1	-8.4234e-003
25748	16.799	3.9091	0.1	-8.133e-003
25749	16.522	3.8182	0.1	-8.1119e-003
25750	16.614	3.9091	0.1	-7.8223e-003
25751	16.337	3.8182	0.1	-7.8072e-003
25752	16.43	3.9091	0.1	-7.5144e-003
25753	16.153	3.8182	0.1	-7.5082e-003
25754	16.245	3.9091	0.1	-7.2162e-003
25755	15.968	3.8182	0.1	-7.2055e-003
25756	16.06	3.9091	0.1	-6.9147e-003
25757	15.783	3.8182	0.1	-6.8938e-003
25758	15.876	3.9091	0.1	-6.6052e-003
25759	15.599	3.8182	0.1	-6.5626e-003
25760	15.691	3.9091	0.1	-6.2808e-003
25761	15.414	3.8182	0.1	-6.1959e-003
25762	15.507	3.9091	0.1	-5.9245e-003
25763	15.23	3.8182	0.1	-5.7657e-003
25764	15.322	3.9091	0.1	-5.5174e-003
25765	15.045	3.8182	0.1	-5.2082e-003
25766	15.137	3.9091	0.1	-5.0142e-003
25767	14.86	3.8182	0.1	-4.3593e-003
25768	14.953	3.9091	0.1	-4.318e-003
25769	14.676	3.8182	0.1	-2.6109e-003
25770	14.768	3.9091	0.1	-3.1511e-003
25771	14.491	3.8182	0.1	5.8736e-003
25772	14.583	3.9091	0.1	-3.0535e-004
25773	14.306	3.8182	0.1	0.84398
25774	14.399	3.9091	0.1	2.9706e-002
25775	14.122	3.8182	0.1	2.4403
25776	14.214	3.9091	0.1	1.2767
25777	13.937	3.8182	0.1	4.142
25778	14.029	3.9091	0.1	2.8873
25779	13.752	3.8182	0.1	5.9561
25780	13.845	3.9091	0.1	4.6039
25781	13.568	3.8182	0.1	7.8938
25782	13.66	3.9091	0.1	6.435
25783	13.383	3.8182	0.1	9.9677
25784	13.475	3.9091	0.1	8.3921
25785	13.199	3.8182	0.1	12.191
25786	13.291	3.9091	0.1	10.487
25787	13.014	3.8182	0.1	14.579
25788	13.106	3.9091	0.1	12.735
25789	12.829	3.8182	0.1	17.147
25790	12.922	3.9091	0.1	15.148
25791	12.645	3.8182	0.1	19.912
25792	12.737	3.9091	0.1	17.744
25793	12.46	3.8182	0.1	22.893
25794	12.552	3.9091	0.1	20.537
25795	12.275	3.8182	0.1	26.108
25796	12.368	3.9091	0.1	23.547
25797	12.091	3.8182	0.1	29.581
25798	12.183	3.9091	0.1	26.793
25799	11.906	3.8182	0.1	33.332
25800	11.998	3.9091	0.1	30.295
25801	11.721	3.8182	0.1	37.388
25802	11.814	3.9091	0.1	34.076
25803	11.537	3.8182	0.1	41.776
25804	11.629	3.9091	0.1	38.16
25805	11.352	3.8182	0.1	46.525
25806	11.444	3.9091	0.1	42.571
25807	11.167	3.8182	0.1	51.665
25808	11.26	3.9091	0.1	47.338
25809	10.983	3.8182	0.1	57.231
25810	11.075	3.9091	0.1	52.489
25811	10.798	3.8182	0.1	63.258
25812	10.891	3.9091	0.1	58.057
25813	10.614	3.8182	0.1	69.786
25814	10.706	3.9091	0.1	64.073
25815	10.429	3.8182	0.1	76.855
25816	10.521	3.9091	0.1	70.571
25817	10.244	3.8182	0.1	84.509
25818	10.337	3.9091	0.1	77.589
25819	10.06	3.8182	0.1	92.791
25820	10.152	3.9091	0.1	85.163
25821	9.875	3.8182	0.1	101.75
25822	9.9673	3.9091	0.1	93.33
25823	9.6904	3.8182	0.1	111.43
25824	9.7827	3.9091	0.1	102.13
25825	9.5057	3.8182	0.1	121.88
25826	9.598	3.9091	0.1	111.6
25827	9.3211	3.8182	0.1	133.15
25828	9.4134	3.9091	0.1	121.77
25829	9.1364	3.8182	0.1	145.26
25830	9.2288	3.9091	0.1	132.67
25831	8.9518	3.8182	0.1	158.26
25832	9.0441	3.9091	0.1	144.32
25833	8.7672	3.8182	0.1	172.16
25834	8.8595	3.9091	0.1	156.73
25835	8.5825	3.8182	0.1	186.96
25836	8.6748	3.9091	0.1	169.91
25837	8.3979	3.8182	0.1	202.62
25838	8.4902	3.9091	0.1	183.8
25839	8.2132	3.8182	0.1	219.06
25840	8.3056	3.9091	0.1	198.36
25841	8.0286	3.8182	0.1	236.15
25842	8.1209	3.9091	0.1	213.45
25843	7.844	3.8182	0.1	253.64
25844	7.9363	3.9091	0.1	228.89
25845	7.6593	3.8182	0.1	271.18
25846	7.7516	3.9091	0.1	244.39
25847	7.4747	3.8182	0.1	288.2
25848	7.567	3.9091	0.1	259.5
25849	7.29	3.8182	0.1	303.87
25850	7.3824	3.9091	0.1	273.55
25851	7.1054	3.8182	0.1	316.96
25852	7.1977	3.9091	0.1	285.55
25853	6.9208	3.8182	0.1	325.63
25854	7.0131	3.9091	0.1	294.
25855	6.7361	3.8182	0.1	327.16
25856	6.8284	3.9091	0.1	296.66
25857	6.5515	3.8182	0.1	317.53
25858	6.6438	3.9091	0.1	290.15
25859	6.3668	3.8182	0.1	290.72
25860	6.4592	3.9091	0.1	269.36
25861	6.1822	3.8182	0.1	237.89
25862	6.2745	3.9091	0.1	226.34
25863	5.9975	3.8182	0.1	144.58
25864	6.0899	3.9091	0.1	149.66
25865	5.8129	3.8182	0.1	13.727
25866	5.9052	3.9091	0.1	29.56
25867	5.6283	3.8182	0.1	-16.761
25868	5.7206	3.9091	0.1	15.838
25869	5.4436	3.8182	0.1	-22.561
25870	5.5359	3.9091	0.1	-67.379
25871	5.3513	3.9091	0.1	292.4
25872	5.259	3.8182	0.1	-50.308
25873	23.723	4.	0.1	-0.21411
25874	23.815	4.0909	0.1	-0.18334
25875	23.908	4.	0.1	-0.42289
25876	23.538	4.	0.1	-0.22202
25877	23.631	4.0909	0.1	-0.32027
25878	23.354	4.	0.1	-0.12646
25879	23.446	4.0909	0.1	-0.13611
25880	23.169	4.	0.1	-0.10403
25881	23.261	4.0909	0.1	-0.11949
25882	22.984	4.	0.1	-8.1623e-002
25883	23.077	4.0909	0.1	-8.8436e-002
25884	22.8	4.	0.1	-6.8448e-002
25885	22.892	4.0909	0.1	-7.3654e-002
25886	22.615	4.	0.1	-5.8274e-002
25887	22.708	4.0909	0.1	-6.1645e-002
25888	22.431	4.	0.1	-5.0693e-002
25889	22.523	4.0909	0.1	-5.3097e-002
25890	22.246	4.	0.1	-4.4697e-002
25891	22.338	4.0909	0.1	-4.638e-002
25892	22.061	4.	0.1	-3.9876e-002
25893	22.154	4.0909	0.1	-4.106e-002
25894	21.877	4.	0.1	-3.5908e-002
25895	21.969	4.0909	0.1	-3.6723e-002
25896	21.692	4.	0.1	-3.2586e-002
25897	21.784	4.0909	0.1	-3.3131e-002
25898	21.507	4.	0.1	-2.9767e-002
25899	21.6	4.0909	0.1	-3.0102e-002
25900	21.323	4.	0.1	-2.7353e-002
25901	21.415	4.0909	0.1	-2.7525e-002
25902	21.138	4.	0.1	-2.526e-002
25903	21.23	4.0909	0.1	-2.531e-002
25904	20.953	4.	0.1	-2.3428e-002
25905	21.046	4.0909	0.1	-2.3381e-002
25906	20.769	4.	0.1	-2.1814e-002
25907	20.861	4.0909	0.1	-2.169e-002
25908	20.584	4.	0.1	-2.0381e-002
25909	20.676	4.0909	0.1	-2.0198e-002
25910	20.4	4.	0.1	-1.9102e-002
25911	20.492	4.0909	0.1	-1.8872e-002
25912	20.215	4.	0.1	-1.7956e-002
25913	20.307	4.0909	0.1	-1.7686e-002
25914	20.03	4.	0.1	-1.6921e-002
25915	20.123	4.0909	0.1	-1.6622e-002
25916	19.846	4.	0.1	-1.5983e-002
25917	19.938	4.0909	0.1	-1.5659e-002
25918	19.661	4.	0.1	-1.513e-002
25919	19.753	4.0909	0.1	-1.4787e-002
25920	19.476	4.	0.1	-1.435e-002
25921	19.569	4.0909	0.1	-1.3992e-002
25922	19.292	4.	0.1	-1.3635e-002
25923	19.384	4.0909	0.1	-1.3266e-002
25924	19.107	4.	0.1	-1.2978e-002
25925	19.199	4.0909	0.1	-1.2599e-002
25926	18.922	4.	0.1	-1.237e-002
25927	19.015	4.0909	0.1	-1.1985e-002
25928	18.738	4.	0.1	-1.1808e-002
25929	18.83	4.0909	0.1	-1.1416e-002
25930	18.553	4.	0.1	-1.1286e-002
25931	18.645	4.0909	0.1	-1.089e-002
25932	18.368	4.	0.1	-1.0799e-002
25933	18.461	4.0909	0.1	-1.0402e-002
25934	18.184	4.	0.1	-1.0344e-002
25935	18.276	4.0909	0.1	-9.9446e-003
25936	17.999	4.	0.1	-9.9181e-003
25937	18.092	4.0909	0.1	-9.5177e-003
25938	17.815	4.	0.1	-9.5172e-003
25939	17.907	4.0909	0.1	-9.1166e-003
25940	17.63	4.	0.1	-9.1376e-003
25941	17.722	4.0909	0.1	-8.7381e-003
25942	17.445	4.	0.1	-8.7778e-003
25943	17.538	4.0909	0.1	-8.3792e-003
25944	17.261	4.	0.1	-8.4327e-003
25945	17.353	4.0909	0.1	-8.0391e-003
25946	17.076	4.	0.1	-8.1006e-003
25947	17.168	4.0909	0.1	-7.708e-003
25948	16.891	4.	0.1	-7.7915e-003
25949	16.984	4.0909	0.1	-7.3925e-003
25950	16.707	4.	0.1	-7.4909e-003
25951	16.799	4.0909	0.1	-7.1035e-003
25952	16.522	4.	0.1	-7.186e-003
25953	16.614	4.0909	0.1	-6.8049e-003
25954	16.337	4.	0.1	-6.887e-003
25955	16.43	4.0909	0.1	-6.5061e-003
25956	16.153	4.	0.1	-6.5893e-003
25957	16.245	4.0909	0.1	-6.2157e-003
25958	15.968	4.	0.1	-6.2845e-003
25959	16.06	4.0909	0.1	-5.9182e-003
25960	15.783	4.	0.1	-5.9671e-003
25961	15.876	4.0909	0.1	-5.6103e-003
25962	15.599	4.	0.1	-5.6245e-003
25963	15.691	4.0909	0.1	-5.2825e-003
25964	15.414	4.	0.1	-5.239e-003
25965	15.507	4.0909	0.1	-4.9197e-003
25966	15.23	4.	0.1	-4.7799e-003
25967	15.322	4.0909	0.1	-4.5002e-003
25968	15.045	4.	0.1	-4.1837e-003
25969	15.137	4.0909	0.1	-3.9799e-003
25970	14.86	4.	0.1	-3.3007e-003
25971	14.953	4.0909	0.1	-3.2726e-003
25972	14.676	4.	0.1	-1.6682e-003
25973	14.768	4.0909	0.1	-2.1578e-003
25974	14.491	4.	0.1	3.2199e-003
25975	14.583	4.0909	0.1	1.0472e-004
25976	14.306	4.	0.1	0.21166
25977	14.399	4.0909	0.1	8.5965e-003
25978	14.122	4.	0.1	1.6992
25979	14.214	4.0909	0.1	0.52
25980	13.937	4.	0.1	3.3261
25981	14.029	4.0909	0.1	2.0397
25982	13.752	4.	0.1	5.0605
25983	13.845	4.0909	0.1	3.6724
25984	13.568	4.	0.1	6.9116
25985	13.66	4.0909	0.1	5.4136
25986	13.383	4.	0.1	8.8908
25987	13.475	4.0909	0.1	7.2727
25988	13.199	4.	0.1	11.011
25989	13.291	4.0909	0.1	9.261
25990	13.014	4.	0.1	13.284
25991	13.106	4.0909	0.1	11.391
25992	12.829	4.	0.1	15.725
25993	12.922	4.0909	0.1	13.674
25994	12.645	4.	0.1	18.35
25995	12.737	4.0909	0.1	16.126
25996	12.46	4.	0.1	21.174
25997	12.552	4.0909	0.1	18.761
25998	12.275	4.	0.1	24.215
25999	12.368	4.0909	0.1	21.594
26000	12.091	4.	0.1	27.492
26001	12.183	4.0909	0.1	24.643
26002	11.906	4.	0.1	31.024
26003	11.998	4.0909	0.1	27.924
26004	11.721	4.	0.1	34.833
26005	11.814	4.0909	0.1	31.456
26006	11.537	4.	0.1	38.941
26007	11.629	4.0909	0.1	35.259
26008	11.352	4.	0.1	43.372
26009	11.444	4.0909	0.1	39.354
26010	11.167	4.	0.1	48.151
26011	11.26	4.0909	0.1	43.762
26012	10.983	4.	0.1	53.305
26013	11.075	4.0909	0.1	48.506
26014	10.798	4.	0.1	58.862
26015	10.891	4.0909	0.1	53.609
26016	10.614	4.	0.1	64.849
26017	10.706	4.0909	0.1	59.093
26018	10.429	4.	0.1	71.297
26019	10.521	4.0909	0.1	64.983
26020	10.244	4.	0.1	78.236
26021	10.337	4.0909	0.1	71.302
26022	10.06	4.	0.1	85.696
26023	10.152	4.0909	0.1	78.073
26024	9.875	4.	0.1	93.704
26025	9.9673	4.0909	0.1	85.316
26026	9.6904	4.	0.1	102.29
26027	9.7827	4.0909	0.1	93.05
26028	9.5057	4.	0.1	111.48
26029	9.598	4.0909	0.1	101.29
26030	9.3211	4.	0.1	121.28
26031	9.4134	4.0909	0.1	110.04
26032	9.1364	4.	0.1	131.72
26033	9.2288	4.0909	0.1	119.32
26034	8.9518	4.	0.1	142.79
26035	9.0441	4.0909	0.1	129.1
26036	8.7672	4.	0.1	154.47
26037	8.8595	4.0909	0.1	139.37
26038	8.5825	4.	0.1	166.75
26039	8.6748	4.0909	0.1	150.09
26040	8.3979	4.	0.1	179.54
26041	8.4902	4.0909	0.1	161.2
26042	8.2132	4.	0.1	192.74
26043	8.3056	4.0909	0.1	172.59
26044	8.0286	4.	0.1	206.2
26045	8.1209	4.0909	0.1	184.12
26046	7.844	4.	0.1	219.66
26047	7.9363	4.0909	0.1	195.58
26048	7.6593	4.	0.1	232.75
26049	7.7516	4.0909	0.1	206.67
26050	7.4747	4.	0.1	244.92
26051	7.567	4.0909	0.1	216.91
26052	7.29	4.	0.1	255.36
26053	7.3824	4.0909	0.1	225.65
26054	7.1054	4.	0.1	262.84
26055	7.1977	4.0909	0.1	231.87
26056	6.9208	4.	0.1	265.47
26057	7.0131	4.0909	0.1	234.02
26058	6.7361	4.	0.1	260.39
26059	6.8284	4.0909	0.1	229.69
26060	6.5515	4.	0.1	243.17
26061	6.6438	4.0909	0.1	215.13
26062	6.3668	4.	0.1	206.83
26063	6.4592	4.0909	0.1	184.4
26064	6.1822	4.	0.1	140.91
26065	6.2745	4.0909	0.1	128.25
26066	5.9975	4.	0.1	39.211
26067	6.0899	4.0909	0.1	42.116
26068	5.8129	4.	0.1	12.806
26069	5.9052	4.0909	0.1	6.2293
26070	5.6283	4.	0.1	-35.288
26071	5.7206	4.0909	0.1	14.89
26072	5.4436	4.	0.1	296.3
26073	5.5359	4.0909	0.1	-50.938
26074	5.3513	4.0909	0.1	432.74
26075	5.259	4.	0.1	536.29
26076	23.723	4.1818	0.1	-0.20745
26077	23.815	4.2727	0.1	-0.1721
26078	23.908	4.1818	0.1	-0.42058
26079	23.538	4.1818	0.1	-0.21777
26080	23.631	4.2727	0.1	-0.31444
26081	23.354	4.1818	0.1	-0.12309
26082	23.446	4.2727	0.1	-0.13196
26083	23.169	4.1818	0.1	-0.10101
26084	23.261	4.2727	0.1	-0.11583
26085	22.984	4.1818	0.1	-7.8841e-002
26086	23.077	4.2727	0.1	-8.5124e-002
26087	22.8	4.1818	0.1	-6.5823e-002
26088	22.892	4.2727	0.1	-7.0553e-002
26089	22.615	4.1818	0.1	-5.576e-002
26090	22.708	4.2727	0.1	-5.8694e-002
26091	22.431	4.1818	0.1	-4.8263e-002
26092	22.523	4.2727	0.1	-5.0259e-002
26093	22.246	4.1818	0.1	-4.2339e-002
26094	22.338	4.2727	0.1	-4.3634e-002
26095	22.061	4.1818	0.1	-3.7582e-002
26096	22.154	4.2727	0.1	-3.8397e-002
26097	21.877	4.1818	0.1	-3.3675e-002
26098	21.969	4.2727	0.1	-3.4141e-002
26099	21.692	4.1818	0.1	-3.0415e-002
26100	21.784	4.2727	0.1	-3.0625e-002
26101	21.507	4.1818	0.1	-2.7658e-002
26102	21.6	4.2727	0.1	-2.7672e-002
26103	21.323	4.1818	0.1	-2.5304e-002
26104	21.415	4.2727	0.1	-2.5173e-002
26105	21.138	4.1818	0.1	-2.327e-002
26106	21.23	4.2727	0.1	-2.3031e-002
26107	20.953	4.1818	0.1	-2.1498e-002
26108	21.046	4.2727	0.1	-2.1175e-002
26109	20.769	4.1818	0.1	-1.9942e-002
26110	20.861	4.2727	0.1	-1.9556e-002
26111	20.584	4.1818	0.1	-1.8566e-002
26112	20.676	4.2727	0.1	-1.8132e-002
26113	20.4	4.1818	0.1	-1.7343e-002
26114	20.492	4.2727	0.1	-1.6872e-002
26115	20.215	4.1818	0.1	-1.6247e-002
26116	20.307	4.2727	0.1	-1.575e-002
26117	20.03	4.1818	0.1	-1.5261e-002
26118	20.123	4.2727	0.1	-1.4745e-002
26119	19.846	4.1818	0.1	-1.4371e-002
26120	19.938	4.2727	0.1	-1.384e-002
26121	19.661	4.1818	0.1	-1.3562e-002
26122	19.753	4.2727	0.1	-1.3022e-002
26123	19.476	4.1818	0.1	-1.2826e-002
26124	19.569	4.2727	0.1	-1.2279e-002
26125	19.292	4.1818	0.1	-1.2152e-002
26126	19.384	4.2727	0.1	-1.16e-002
26127	19.107	4.1818	0.1	-1.1532e-002
26128	19.199	4.2727	0.1	-1.098e-002
26129	18.922	4.1818	0.1	-1.0961e-002
26130	19.015	4.2727	0.1	-1.0409e-002
26131	18.738	4.1818	0.1	-1.0432e-002
26132	18.83	4.2727	0.1	-9.8825e-003
26133	18.553	4.1818	0.1	-9.9428e-003
26134	18.645	4.2727	0.1	-9.3947e-003
26135	18.368	4.1818	0.1	-9.4868e-003
26136	18.461	4.2727	0.1	-8.9428e-003
26137	18.184	4.1818	0.1	-9.0605e-003
26138	18.276	4.2727	0.1	-8.5213e-003
26139	17.999	4.1818	0.1	-8.6614e-003
26140	18.092	4.2727	0.1	-8.1258e-003
26141	17.815	4.1818	0.1	-8.2854e-003
26142	17.907	4.2727	0.1	-7.7566e-003
26143	17.63	4.1818	0.1	-7.93e-003
26144	17.722	4.2727	0.1	-7.4071e-003
26145	17.445	4.1818	0.1	-7.5934e-003
26146	17.538	4.2727	0.1	-7.0766e-003
26147	17.261	4.1818	0.1	-7.2698e-003
26148	17.353	4.2727	0.1	-6.7629e-003
26149	17.076	4.1818	0.1	-6.9577e-003
26150	17.168	4.2727	0.1	-6.4562e-003
26151	16.891	4.1818	0.1	-6.6649e-003
26152	16.984	4.2727	0.1	-6.164e-003
26153	16.707	4.1818	0.1	-6.3806e-003
26154	16.799	4.2727	0.1	-5.8959e-003
26155	16.522	4.1818	0.1	-6.0911e-003
26156	16.614	4.2727	0.1	-5.6185e-003
26157	16.337	4.1818	0.1	-5.8041e-003
26158	16.43	4.2727	0.1	-5.3377e-003
26159	16.153	4.1818	0.1	-5.5177e-003
26160	16.245	4.2727	0.1	-5.0642e-003
26161	15.968	4.1818	0.1	-5.2219e-003
26162	16.06	4.2727	0.1	-4.783e-003
26163	15.783	4.1818	0.1	-4.9097e-003
26164	15.876	4.2727	0.1	-4.4892e-003
26165	15.599	4.1818	0.1	-4.5702e-003
26166	15.691	4.2727	0.1	-4.1737e-003
26167	15.414	4.1818	0.1	-4.1862e-003
26168	15.507	4.2727	0.1	-3.8237e-003
26169	15.23	4.1818	0.1	-3.7271e-003
26170	15.322	4.2727	0.1	-3.4178e-003
26171	15.045	4.1818	0.1	-3.1375e-003
26172	15.137	4.2727	0.1	-2.9184e-003
26173	14.86	4.1818	0.1	-2.2982e-003
26174	14.953	4.2727	0.1	-2.2568e-003
26175	14.676	4.1818	0.1	-8.9395e-004
26176	14.768	4.2727	0.1	-1.276e-003
26177	14.491	4.1818	0.1	2.2474e-003
26178	14.583	4.2727	0.1	4.4858e-004
26179	14.306	4.1818	0.1	1.8156e-002
26180	14.399	4.2727	0.1	4.6469e-003
26181	14.122	4.1818	0.1	0.82944
26182	14.214	4.2727	0.1	3.4194e-002
26183	13.937	4.1818	0.1	2.3625
26184	14.029	4.2727	0.1	1.059
26185	13.752	4.1818	0.1	4.0029
26186	13.845	4.2727	0.1	2.5907
26187	13.568	4.1818	0.1	5.7528
26188	13.66	4.2727	0.1	4.2279
26189	13.383	4.1818	0.1	7.6217
26190	13.475	4.2727	0.1	5.9747
26191	13.199	4.1818	0.1	9.6206
26192	13.291	4.2727	0.1	7.8405
26193	13.014	4.1818	0.1	11.761
26194	13.106	4.2727	0.1	9.8359
26195	12.829	4.1818	0.1	14.056
26196	12.922	4.2727	0.1	11.972
26197	12.645	4.1818	0.1	16.519
26198	12.737	4.2727	0.1	14.261
26199	12.46	4.1818	0.1	19.163
26200	12.552	4.2727	0.1	16.716
26201	12.275	4.1818	0.1	22.004
26202	12.368	4.2727	0.1	19.35
26203	12.091	4.1818	0.1	25.058
26204	12.183	4.2727	0.1	22.176
26205	11.906	4.1818	0.1	28.34
26206	11.998	4.2727	0.1	25.209
26207	11.721	4.1818	0.1	31.867
26208	11.814	4.2727	0.1	28.465
26209	11.537	4.1818	0.1	35.659
26210	11.629	4.2727	0.1	31.957
26211	11.352	4.1818	0.1	39.732
26212	11.444	4.2727	0.1	35.702
26213	11.167	4.1818	0.1	44.106
26214	11.26	4.2727	0.1	39.715
26215	10.983	4.1818	0.1	48.799
26216	11.075	4.2727	0.1	44.011
26217	10.798	4.1818	0.1	53.83
26218	10.891	4.2727	0.1	48.606
26219	10.614	4.1818	0.1	59.218
26220	10.706	4.2727	0.1	53.512
26221	10.429	4.1818	0.1	64.979
26222	10.521	4.2727	0.1	58.743
26223	10.244	4.1818	0.1	71.131
26224	10.337	4.2727	0.1	64.309
26225	10.06	4.1818	0.1	77.686
26226	10.152	4.2727	0.1	70.217
26227	9.875	4.1818	0.1	84.655
26228	9.9673	4.2727	0.1	76.472
26229	9.6904	4.1818	0.1	92.044
26230	9.7827	4.2727	0.1	83.071
26231	9.5057	4.1818	0.1	99.853
26232	9.598	4.2727	0.1	90.008
26233	9.3211	4.1818	0.1	108.08
26234	9.4134	4.2727	0.1	97.267
26235	9.1364	4.1818	0.1	116.69
26236	9.2288	4.2727	0.1	104.82
26237	8.9518	4.1818	0.1	125.68
26238	9.0441	4.2727	0.1	112.64
26239	8.7672	4.1818	0.1	134.98
26240	8.8595	4.2727	0.1	120.66
26241	8.5825	4.1818	0.1	144.53
26242	8.6748	4.2727	0.1	128.81
26243	8.3979	4.1818	0.1	154.24
26244	8.4902	4.2727	0.1	137.
26245	8.2132	4.1818	0.1	163.96
26246	8.3056	4.2727	0.1	145.09
26247	8.0286	4.1818	0.1	173.51
26248	8.1209	4.2727	0.1	152.91
26249	7.844	4.1818	0.1	182.61
26250	7.9363	4.2727	0.1	160.22
26251	7.6593	4.1818	0.1	190.87
26252	7.7516	4.2727	0.1	166.69
26253	7.4747	4.1818	0.1	197.73
26254	7.567	4.2727	0.1	171.85
26255	7.29	4.1818	0.1	202.34
26256	7.3824	4.2727	0.1	175.
26257	7.1054	4.1818	0.1	203.39
26258	7.1977	4.2727	0.1	175.09
26259	6.9208	4.1818	0.1	198.85
26260	7.0131	4.2727	0.1	170.51
26261	6.7361	4.1818	0.1	185.49
26262	6.8284	4.2727	0.1	158.66
26263	6.5515	4.1818	0.1	158.13
26264	6.6438	4.2727	0.1	135.43
26265	6.3668	4.1818	0.1	108.82
26266	6.4592	4.2727	0.1	94.621
26267	6.1822	4.1818	0.1	35.764
26268	6.2745	4.2727	0.1	34.453
26269	5.9975	4.1818	0.1	8.6519
26270	6.0899	4.2727	0.1	9.0622
26271	5.8129	4.1818	0.1	7.569
26272	5.9052	4.2727	0.1	4.5438
26273	5.6283	4.1818	0.1	-0.51177
26274	5.7206	4.2727	0.1	11.411
26275	5.4436	4.1818	0.1	83.984
26276	5.5359	4.2727	0.1	-7.2304
26277	5.3513	4.2727	0.1	83.032
26278	5.259	4.1818	0.1	362.3
26279	23.723	4.3636	0.1	-0.19896
26280	23.815	4.4545	0.1	-0.15804
26281	23.908	4.3636	0.1	-0.41753
26282	23.538	4.3636	0.1	-0.21225
26283	23.631	4.4545	0.1	-0.30691
26284	23.354	4.3636	0.1	-0.11869
26285	23.446	4.4545	0.1	-0.12655
26286	23.169	4.3636	0.1	-9.7054e-002
26287	23.261	4.4545	0.1	-0.11102
26288	22.984	4.3636	0.1	-7.5189e-002
26289	23.077	4.4545	0.1	-8.0763e-002
26290	22.8	4.3636	0.1	-6.2369e-002
26291	22.892	4.4545	0.1	-6.6461e-002
26292	22.615	4.3636	0.1	-5.2455e-002
26293	22.708	4.4545	0.1	-5.4803e-002
26294	22.431	4.3636	0.1	-4.5079e-002
26295	22.523	4.4545	0.1	-4.6527e-002
26296	22.246	4.3636	0.1	-3.926e-002
26297	22.338	4.4545	0.1	-4.004e-002
26298	22.061	4.3636	0.1	-3.4603e-002
26299	22.154	4.4545	0.1	-3.4933e-002
26300	21.877	4.3636	0.1	-3.0793e-002
26301	21.969	4.4545	0.1	-3.0801e-002
26302	21.692	4.3636	0.1	-2.7627e-002
26303	21.784	4.4545	0.1	-2.7407e-002
26304	21.507	4.3636	0.1	-2.4964e-002
26305	21.6	4.4545	0.1	-2.4572e-002
26306	21.323	4.3636	0.1	-2.2702e-002
26307	21.415	4.4545	0.1	-2.2188e-002
26308	21.138	4.3636	0.1	-2.0757e-002
26309	21.23	4.4545	0.1	-2.0157e-002
26310	20.953	4.3636	0.1	-1.9072e-002
26311	21.046	4.4545	0.1	-1.8409e-002
26312	20.769	4.3636	0.1	-1.7599e-002
26313	20.861	4.4545	0.1	-1.6893e-002
26314	20.584	4.3636	0.1	-1.6302e-002
26315	20.676	4.4545	0.1	-1.5566e-002
26316	20.4	4.3636	0.1	-1.5154e-002
26317	20.492	4.4545	0.1	-1.4399e-002
26318	20.215	4.3636	0.1	-1.4132e-002
26319	20.307	4.4545	0.1	-1.3365e-002
26320	20.03	4.3636	0.1	-1.3216e-002
26321	20.123	4.4545	0.1	-1.2444e-002
26322	19.846	4.3636	0.1	-1.2391e-002
26323	19.938	4.4545	0.1	-1.1618e-002
26324	19.661	4.3636	0.1	-1.1645e-002
26325	19.753	4.4545	0.1	-1.0874e-002
26326	19.476	4.3636	0.1	-1.0965e-002
26327	19.569	4.4545	0.1	-1.0201e-002
26328	19.292	4.3636	0.1	-1.0346e-002
26329	19.384	4.4545	0.1	-9.5891e-003
26330	19.107	4.3636	0.1	-9.7788e-003
26331	19.199	4.4545	0.1	-9.0307e-003
26332	18.922	4.3636	0.1	-9.2571e-003
26333	19.015	4.4545	0.1	-8.5178e-003
26334	18.738	4.3636	0.1	-8.7756e-003
26335	18.83	4.4545	0.1	-8.0482e-003
26336	18.553	4.3636	0.1	-8.3295e-003
26337	18.645	4.4545	0.1	-7.6122e-003
26338	18.368	4.3636	0.1	-7.9158e-003
26339	18.461	4.4545	0.1	-7.2109e-003
26340	18.184	4.3636	0.1	-7.5285e-003
26341	18.276	4.4545	0.1	-6.8373e-003
26342	17.999	4.3636	0.1	-7.1664e-003
26343	18.092	4.4545	0.1	-6.4858e-003
26344	17.815	4.3636	0.1	-6.8269e-003
26345	17.907	4.4545	0.1	-6.1591e-003
26346	17.63	4.3636	0.1	-6.5054e-003
26347	17.722	4.4545	0.1	-5.8509e-003
26348	17.445	4.3636	0.1	-6.201e-003
26349	17.538	4.4545	0.1	-5.5591e-003
26350	17.261	4.3636	0.1	-5.9073e-003
26351	17.353	4.4545	0.1	-5.2827e-003
26352	17.076	4.3636	0.1	-5.6236e-003
26353	17.168	4.4545	0.1	-5.0108e-003
26354	16.891	4.3636	0.1	-5.3594e-003
26355	16.984	4.4545	0.1	-4.7525e-003
26356	16.707	4.3636	0.1	-5.1015e-003
26357	16.799	4.4545	0.1	-4.5188e-003
26358	16.522	4.3636	0.1	-4.8366e-003
26359	16.614	4.4545	0.1	-4.2716e-003
26360	16.337	4.3636	0.1	-4.5733e-003
26361	16.43	4.4545	0.1	-4.0223e-003
26362	16.153	4.3636	0.1	-4.3095e-003
26363	16.245	4.4545	0.1	-3.7782e-003
26364	15.968	4.3636	0.1	-4.0359e-003
26365	16.06	4.4545	0.1	-3.5269e-003
26366	15.783	4.3636	0.1	-3.7457e-003
26367	15.876	4.4545	0.1	-3.2633e-003
26368	15.599	4.3636	0.1	-3.4289e-003
26369	15.691	4.4545	0.1	-2.9795e-003
26370	15.414	4.3636	0.1	-3.0698e-003
26371	15.507	4.4545	0.1	-2.6643e-003
26372	15.23	4.3636	0.1	-2.6433e-003
26373	15.322	4.4545	0.1	-2.3004e-003
26374	15.045	4.3636	0.1	-2.1056e-003
26375	15.137	4.4545	0.1	-1.8587e-003
26376	14.86	4.3636	0.1	-1.3699e-003
26377	14.953	4.4545	0.1	-1.2899e-003
26378	14.676	4.3636	0.1	-2.4122e-004
26379	14.768	4.4545	0.1	-4.9167e-004
26380	14.491	4.3636	0.1	1.8371e-003
26381	14.583	4.4545	0.1	7.6451e-004
26382	14.306	4.3636	0.1	7.3422e-003
26383	14.399	4.4545	0.1	3.1553e-003
26384	14.122	4.3636	0.1	6.6314e-002
26385	14.214	4.4545	0.1	9.8611e-003
26386	13.937	4.3636	0.1	1.2623
26387	14.029	4.4545	0.1	0.10584
26388	13.752	4.3636	0.1	2.7927
26389	13.845	4.4545	0.1	1.3706
26390	13.568	4.3636	0.1	4.4276
26391	13.66	4.4545	0.1	2.8883
26392	13.383	4.3636	0.1	6.172
26393	13.475	4.4545	0.1	4.5093
26394	13.199	4.3636	0.1	8.035
26395	13.291	4.4545	0.1	6.2389
26396	13.014	4.3636	0.1	10.027
26397	13.106	4.4545	0.1	8.0856
26398	12.829	4.3636	0.1	12.158
26399	12.922	4.4545	0.1	10.059
26400	12.645	4.3636	0.1	14.44
26401	12.737	4.4545	0.1	12.169
26402	12.46	4.3636	0.1	16.885
26403	12.552	4.4545	0.1	14.426
26404	12.275	4.3636	0.1	19.504
26405	12.368	4.4545	0.1	16.842
26406	12.091	4.3636	0.1	22.311
26407	12.183	4.4545	0.1	19.426
26408	11.906	4.3636	0.1	25.318
26409	11.998	4.4545	0.1	22.191
26410	11.721	4.3636	0.1	28.539
26411	11.814	4.4545	0.1	25.147
26412	11.537	4.3636	0.1	31.986
26413	11.629	4.4545	0.1	28.305
26414	11.352	4.3636	0.1	35.671
26415	11.444	4.4545	0.1	31.676
26416	11.167	4.3636	0.1	39.608
26417	11.26	4.4545	0.1	35.269
26418	10.983	4.3636	0.1	43.806
26419	11.075	4.4545	0.1	39.092
26420	10.798	4.3636	0.1	48.277
26421	10.891	4.4545	0.1	43.153
26422	10.614	4.3636	0.1	53.028
26423	10.706	4.4545	0.1	47.456
26424	10.429	4.3636	0.1	58.064
26425	10.521	4.4545	0.1	52.002
26426	10.244	4.3636	0.1	63.387
26427	10.337	4.4545	0.1	56.789
26428	10.06	4.3636	0.1	68.995
26429	10.152	4.4545	0.1	61.811
26430	9.875	4.3636	0.1	74.88
26431	9.9673	4.4545	0.1	67.055
26432	9.6904	4.3636	0.1	81.028
26433	9.7827	4.4545	0.1	72.5
26434	9.5057	4.3636	0.1	87.414
26435	9.598	4.4545	0.1	78.118
26436	9.3211	4.3636	0.1	94.007
26437	9.4134	4.4545	0.1	83.87
26438	9.1364	4.3636	0.1	100.76
26439	9.2288	4.4545	0.1	89.705
26440	8.9518	4.3636	0.1	107.61
26441	9.0441	4.4545	0.1	95.555
26442	8.7672	4.3636	0.1	114.48
26443	8.8595	4.4545	0.1	101.34
26444	8.5825	4.3636	0.1	121.27
26445	8.6748	4.4545	0.1	106.95
26446	8.3979	4.3636	0.1	127.85
26447	8.4902	4.4545	0.1	112.25
26448	8.2132	4.3636	0.1	134.04
26449	8.3056	4.4545	0.1	117.1
26450	8.0286	4.3636	0.1	139.63
26451	8.1209	4.4545	0.1	121.27
26452	7.844	4.3636	0.1	144.33
26453	7.9363	4.4545	0.1	124.52
26454	7.6593	4.3636	0.1	147.72
26455	7.7516	4.4545	0.1	126.49
26456	7.4747	4.3636	0.1	149.23
26457	7.567	4.4545	0.1	126.71
26458	7.29	4.3636	0.1	147.98
26459	7.3824	4.4545	0.1	124.51
26460	7.1054	4.3636	0.1	142.64
26461	7.1977	4.4545	0.1	118.84
26462	6.9208	4.3636	0.1	131.1
26463	7.0131	4.4545	0.1	108.14
26464	6.7361	4.3636	0.1	109.99
26465	6.8284	4.4545	0.1	89.934
26466	6.5515	4.3636	0.1	74.482
26467	6.6438	4.4545	0.1	60.868
26468	6.3668	4.3636	0.1	26.225
26469	6.4592	4.4545	0.1	23.166
26470	6.1822	4.3636	0.1	8.1196
26471	6.2745	4.4545	0.1	7.5719
26472	5.9975	4.3636	0.1	4.6904
26473	6.0899	4.4545	0.1	5.1241
26474	5.8129	4.3636	0.1	8.3155
26475	5.9052	4.4545	0.1	3.6557
26476	5.6283	4.3636	0.1	5.5356
26477	5.7206	4.4545	0.1	9.0222
26478	5.4436	4.3636	0.1	-7.6766
26479	5.5359	4.4545	0.1	-0.10509
26480	5.3513	4.4545	0.1	8.395
26481	5.259	4.3636	0.1	-80.309
26482	23.723	4.5455	0.1	-0.18813
26483	23.815	4.6364	0.1	-0.14043
26484	23.908	4.5455	0.1	-0.41342
26485	23.538	4.5455	0.1	-0.20506
26486	23.631	4.6364	0.1	-0.29713
26487	23.354	4.5455	0.1	-0.1129
26488	23.446	4.6364	0.1	-0.11944
26489	23.169	4.5455	0.1	-9.1822e-002
26490	23.261	4.6364	0.1	-0.10466
26491	22.984	4.5455	0.1	-7.0349e-002
26492	23.077	4.6364	0.1	-7.4977e-002
26493	22.8	4.5455	0.1	-5.7794e-002
26494	22.892	4.6364	0.1	-6.103e-002
26495	22.615	4.5455	0.1	-4.8089e-002
26496	22.708	4.6364	0.1	-4.9652e-002
26497	22.431	4.5455	0.1	-4.0891e-002
26498	22.523	4.6364	0.1	-4.161e-002
26499	22.246	4.5455	0.1	-3.5238e-002
26500	22.338	4.6364	0.1	-3.534e-002
26501	22.061	4.5455	0.1	-3.0738e-002
26502	22.154	4.6364	0.1	-3.0438e-002
26503	21.877	4.5455	0.1	-2.7082e-002
26504	21.969	4.6364	0.1	-2.6502e-002
26505	21.692	4.5455	0.1	-2.4064e-002
26506	21.784	4.6364	0.1	-2.3298e-002
26507	21.507	4.5455	0.1	-2.1543e-002
26508	21.6	4.6364	0.1	-2.0645e-002
26509	21.323	4.5455	0.1	-1.9419e-002
26510	21.415	4.6364	0.1	-1.8432e-002
26511	21.138	4.5455	0.1	-1.7607e-002
26512	21.23	4.6364	0.1	-1.6567e-002
26513	20.953	4.5455	0.1	-1.6047e-002
26514	21.046	4.6364	0.1	-1.4973e-002
26515	20.769	4.5455	0.1	-1.4693e-002
26516	20.861	4.6364	0.1	-1.3603e-002
26517	20.584	4.5455	0.1	-1.3511e-002
26518	20.676	4.6364	0.1	-1.2415e-002
26519	20.4	4.5455	0.1	-1.247e-002
26520	20.492	4.6364	0.1	-1.1378e-002
26521	20.215	4.5455	0.1	-1.1548e-002
26522	20.307	4.6364	0.1	-1.0465e-002
26523	20.03	4.5455	0.1	-1.0726e-002
26524	20.123	4.6364	0.1	-9.6581e-003
26525	19.846	4.5455	0.1	-9.9902e-003
26526	19.938	4.6364	0.1	-8.9393e-003
26527	19.661	4.5455	0.1	-9.3273e-003
26528	19.753	4.6364	0.1	-8.2958e-003
26529	19.476	4.5455	0.1	-8.729e-003
26530	19.569	4.6364	0.1	-7.7176e-003
26531	19.292	4.5455	0.1	-8.1849e-003
26532	19.384	4.6364	0.1	-7.1955e-003
26533	19.107	4.5455	0.1	-7.6868e-003
26534	19.199	4.6364	0.1	-6.7209e-003
26535	18.922	4.5455	0.1	-7.2316e-003
26536	19.015	4.6364	0.1	-6.2859e-003
26537	18.738	4.5455	0.1	-6.8128e-003
26538	18.83	4.6364	0.1	-5.8913e-003
26539	18.553	4.5455	0.1	-6.4264e-003
26540	18.645	4.6364	0.1	-5.5267e-003
26541	18.368	4.5455	0.1	-6.0698e-003
26542	18.461	4.6364	0.1	-5.192e-003
26543	18.184	4.5455	0.1	-5.7363e-003
26544	18.276	4.6364	0.1	-4.8814e-003
26545	17.999	4.5455	0.1	-5.4245e-003
26546	18.092	4.6364	0.1	-4.5911e-003
26547	17.815	4.5455	0.1	-5.133e-003
26548	17.907	4.6364	0.1	-4.3209e-003
26549	17.63	4.5455	0.1	-4.8583e-003
26550	17.722	4.6364	0.1	-4.0674e-003
26551	17.445	4.5455	0.1	-4.5984e-003
26552	17.538	4.6364	0.1	-3.8277e-003
26553	17.261	4.5455	0.1	-4.3476e-003
26554	17.353	4.6364	0.1	-3.6026e-003
26555	17.076	4.5455	0.1	-4.1049e-003
26556	17.168	4.6364	0.1	-3.3798e-003
26557	16.891	4.5455	0.1	-3.8809e-003
26558	16.984	4.6364	0.1	-3.1679e-003
26559	16.707	4.5455	0.1	-3.6619e-003
26560	16.799	4.6364	0.1	-2.981e-003
26561	16.522	4.5455	0.1	-3.4347e-003
26562	16.614	4.6364	0.1	-2.7787e-003
26563	16.337	4.5455	0.1	-3.2091e-003
26564	16.43	4.6364	0.1	-2.5749e-003
26565	16.153	4.5455	0.1	-2.9826e-003
26566	16.245	4.6364	0.1	-2.3763e-003
26567	15.968	4.5455	0.1	-2.7473e-003
26568	16.06	4.6364	0.1	-2.1709e-003
26569	15.783	4.5455	0.1	-2.4973e-003
26570	15.876	4.6364	0.1	-1.9559e-003
26571	15.599	4.5455	0.1	-2.2241e-003
26572	15.691	4.6364	0.1	-1.7244e-003
26573	15.414	4.5455	0.1	-1.9156e-003
26574	15.507	4.6364	0.1	-1.4673e-003
26575	15.23	4.5455	0.1	-1.5527e-003
26576	15.322	4.6364	0.1	-1.1729e-003
26577	15.045	4.5455	0.1	-1.1045e-003
26578	15.137	4.6364	0.1	-8.1978e-004
26579	14.86	4.5455	0.1	-5.145e-004
26580	14.953	4.6364	0.1	-3.7713e-004
26581	14.676	4.5455	0.1	3.2968e-004
26582	14.768	4.6364	0.1	2.1594e-004
26583	14.491	4.5455	0.1	1.6884e-003
26584	14.583	4.6364	0.1	1.0753e-003
26585	14.306	4.5455	0.1	4.3426e-003
26586	14.399	4.6364	0.1	2.4757e-003
26587	14.122	4.5455	0.1	1.2126e-002
26588	14.214	4.6364	0.1	5.2315e-003
26589	13.937	4.5455	0.1	0.1476
26590	14.029	4.6364	0.1	1.3316e-002
26591	13.752	4.5455	0.1	1.443
26592	13.845	4.6364	0.1	0.14486
26593	13.568	4.5455	0.1	2.9476
26594	13.66	4.6364	0.1	1.4096
26595	13.383	4.5455	0.1	4.5545
26596	13.475	4.6364	0.1	2.8897
26597	13.199	4.5455	0.1	6.2684
26598	13.291	4.6364	0.1	4.4704
26599	13.014	4.5455	0.1	8.0973
26600	13.106	4.6364	0.1	6.1558
26601	12.829	4.5455	0.1	10.05
26602	12.922	4.6364	0.1	7.953
26603	12.645	4.5455	0.1	12.136
26604	12.737	4.6364	0.1	9.8704
26605	12.46	4.5455	0.1	14.365
26606	12.552	4.6364	0.1	11.916
26607	12.275	4.5455	0.1	16.746
26608	12.368	4.6364	0.1	14.099
26609	12.091	4.5455	0.1	19.289
26610	12.183	4.6364	0.1	16.427
26611	11.906	4.5455	0.1	22.003
26612	11.998	4.6364	0.1	18.908
26613	11.721	4.5455	0.1	24.898
26614	11.814	4.6364	0.1	21.549
26615	11.537	4.5455	0.1	27.981
26616	11.629	4.6364	0.1	24.359
26617	11.352	4.5455	0.1	31.26
26618	11.444	4.6364	0.1	27.341
26619	11.167	4.5455	0.1	34.74
26620	11.26	4.6364	0.1	30.501
26621	10.983	4.5455	0.1	38.427
26622	11.075	4.6364	0.1	33.84
26623	10.798	4.5455	0.1	42.32
26624	10.891	4.6364	0.1	37.358
26625	10.614	4.5455	0.1	46.419
26626	10.706	4.6364	0.1	41.05
26627	10.429	4.5455	0.1	50.717
26628	10.521	4.6364	0.1	44.91
26629	10.244	4.5455	0.1	55.204
26630	10.337	4.6364	0.1	48.923
26631	10.06	4.5455	0.1	59.861
26632	10.152	4.6364	0.1	53.069
26633	9.875	4.5455	0.1	64.665
26634	9.9673	4.6364	0.1	57.321
26635	9.6904	4.5455	0.1	69.581
26636	9.7827	4.6364	0.1	61.643
26637	9.5057	4.5455	0.1	74.565
26638	9.598	4.6364	0.1	65.986
26639	9.3211	4.5455	0.1	79.559
26640	9.4134	4.6364	0.1	70.291
26641	9.1364	4.5455	0.1	84.491
26642	9.2288	4.6364	0.1	74.483
26643	8.9518	4.5455	0.1	89.271
26644	9.0441	4.6364	0.1	78.47
26645	8.7672	4.5455	0.1	93.791
26646	8.8595	4.6364	0.1	82.141
26647	8.5825	4.5455	0.1	97.919
26648	8.6748	4.6364	0.1	85.365
26649	8.3979	4.5455	0.1	101.49
26650	8.4902	4.6364	0.1	87.984
26651	8.2132	4.5455	0.1	104.32
26652	8.3056	4.6364	0.1	89.813
26653	8.0286	4.5455	0.1	106.16
26654	8.1209	4.6364	0.1	90.628
26655	7.844	4.5455	0.1	106.7
26656	7.9363	4.6364	0.1	90.159
26657	7.6593	4.5455	0.1	105.54
26658	7.7516	4.6364	0.1	88.067
26659	7.4747	4.5455	0.1	102.13
26660	7.567	4.6364	0.1	83.909
26661	7.29	4.5455	0.1	95.645
26662	7.3824	4.6364	0.1	77.082
26663	7.1054	4.5455	0.1	84.873
26664	7.1977	4.6364	0.1	66.731
26665	6.9208	4.5455	0.1	68.013
26666	7.0131	4.6364	0.1	51.705
26667	6.7361	4.5455	0.1	43.048
26668	6.8284	4.6364	0.1	31.223
26669	6.5515	4.5455	0.1	15.751
26670	6.6438	4.6364	0.1	11.987
26671	6.3668	4.5455	0.1	6.4071
26672	6.4592	4.6364	0.1	5.6615
26673	6.1822	4.5455	0.1	4.4002
26674	6.2745	4.6364	0.1	3.9935
26675	5.9975	4.5455	0.1	4.0119
26676	6.0899	4.6364	0.1	3.5499
26677	5.8129	4.5455	0.1	4.2775
26678	5.9052	4.6364	0.1	3.6293
26679	5.6283	4.5455	0.1	3.3727
26680	5.7206	4.6364	0.1	4.305
26681	5.4436	4.5455	0.1	16.251
26682	5.5359	4.6364	0.1	1.6269
26683	5.3513	4.6364	0.1	19.67
26684	5.259	4.5455	0.1	19.402
26685	23.723	4.7273	0.1	-0.1742
26686	23.815	4.8182	0.1	-0.1179
26687	23.908	4.7273	0.1	-0.40792
26688	23.538	4.7273	0.1	-0.19561
26689	23.631	4.8182	0.1	-0.28405
26690	23.354	4.7273	0.1	-0.10523
26691	23.446	4.8182	0.1	-0.10978
26692	23.169	4.7273	0.1	-8.4857e-002
26693	23.261	4.8182	0.1	-9.5992e-002
26694	22.984	4.7273	0.1	-6.3899e-002
26695	23.077	4.8182	0.1	-6.7069e-002
26696	22.8	4.7273	0.1	-5.171e-002
26697	22.892	4.8182	0.1	-5.3632e-002
26698	22.615	4.7273	0.1	-4.2312e-002
26699	22.708	4.8182	0.1	-4.2682e-002
26700	22.431	4.7273	0.1	-3.5392e-002
26701	22.523	4.8182	0.1	-3.502e-002
26702	22.246	4.7273	0.1	-3.e-002
26703	22.338	4.8182	0.1	-2.9103e-002
26704	22.061	4.7273	0.1	-2.575e-002
26705	22.154	4.8182	0.1	-2.4534e-002
26706	21.877	4.7273	0.1	-2.2333e-002
26707	21.969	4.8182	0.1	-2.0914e-002
26708	21.692	4.7273	0.1	-1.9543e-002
26709	21.784	4.8182	0.1	-1.8006e-002
26710	21.507	4.7273	0.1	-1.7239e-002
26711	21.6	4.8182	0.1	-1.5632e-002
26712	21.323	4.7273	0.1	-1.5318e-002
26713	21.415	4.8182	0.1	-1.368e-002
26714	21.138	4.7273	0.1	-1.3698e-002
26715	21.23	4.8182	0.1	-1.2058e-002
26716	20.953	4.7273	0.1	-1.2318e-002
26717	21.046	4.8182	0.1	-1.069e-002
26718	20.769	4.7273	0.1	-1.1134e-002
26719	20.861	4.8182	0.1	-9.5311e-003
26720	20.584	4.7273	0.1	-1.0109e-002
26721	20.676	4.8182	0.1	-8.5382e-003
26722	20.4	4.7273	0.1	-9.2143e-003
26723	20.492	4.8182	0.1	-7.6821e-003
26724	20.215	4.7273	0.1	-8.4301e-003
26725	20.307	4.8182	0.1	-6.9382e-003
26726	20.03	4.7273	0.1	-7.7379e-003
26727	20.123	4.8182	0.1	-6.2896e-003
26728	19.846	4.7273	0.1	-7.1227e-003
26729	19.938	4.8182	0.1	-5.7176e-003
26730	19.661	4.7273	0.1	-6.5736e-003
26731	19.753	4.8182	0.1	-5.2112e-003
26732	19.476	4.7273	0.1	-6.0805e-003
26733	19.569	4.8182	0.1	-4.7615e-003
26734	19.292	4.7273	0.1	-5.636e-003
26735	19.384	4.8182	0.1	-4.3593e-003
26736	19.107	4.7273	0.1	-5.2321e-003
26737	19.199	4.8182	0.1	-3.9976e-003
26738	18.922	4.7273	0.1	-4.8646e-003
26739	19.015	4.8182	0.1	-3.6688e-003
26740	18.738	4.7273	0.1	-4.5306e-003
26741	18.83	4.8182	0.1	-3.3738e-003
26742	18.553	4.7273	0.1	-4.2236e-003
26743	18.645	4.8182	0.1	-3.1031e-003
26744	18.368	4.7273	0.1	-3.9405e-003
26745	18.461	4.8182	0.1	-2.8572e-003
26746	18.184	4.7273	0.1	-3.6784e-003
26747	18.276	4.8182	0.1	-2.6301e-003
26748	17.999	4.7273	0.1	-3.4348e-003
26749	18.092	4.8182	0.1	-2.4208e-003
26750	17.815	4.7273	0.1	-3.2074e-003
26751	17.907	4.8182	0.1	-2.2264e-003
26752	17.63	4.7273	0.1	-2.9934e-003
26753	17.722	4.8182	0.1	-2.0461e-003
26754	17.445	4.7273	0.1	-2.793e-003
26755	17.538	4.8182	0.1	-1.8755e-003
26756	17.261	4.7273	0.1	-2.6003e-003
26757	17.353	4.8182	0.1	-1.718e-003
26758	17.076	4.7273	0.1	-2.4128e-003
26759	17.168	4.8182	0.1	-1.5605e-003
26760	16.891	4.7273	0.1	-2.2423e-003
26761	16.984	4.8182	0.1	-1.4126e-003
26762	16.707	4.7273	0.1	-2.0766e-003
26763	16.799	4.8182	0.1	-1.2873e-003
26764	16.522	4.7273	0.1	-1.9025e-003
26765	16.614	4.8182	0.1	-1.1479e-003
26766	16.337	4.7273	0.1	-1.7307e-003
26767	16.43	4.8182	0.1	-1.006e-003
26768	16.153	4.7273	0.1	-1.5587e-003
26769	16.245	4.8182	0.1	-8.7043e-004
26770	15.968	4.7273	0.1	-1.3796e-003
26771	16.06	4.8182	0.1	-7.2963e-004
26772	15.783	4.7273	0.1	-1.1899e-003
26773	15.876	4.8182	0.1	-5.8238e-004
26774	15.599	4.7273	0.1	-9.8254e-004
26775	15.691	4.8182	0.1	-4.236e-004
26776	15.414	4.7273	0.1	-7.4922e-004
26777	15.507	4.8182	0.1	-2.4755e-004
26778	15.23	4.7273	0.1	-4.7684e-004
26779	15.322	4.8182	0.1	-4.7118e-005
26780	15.045	4.7273	0.1	-1.4549e-004
26781	15.137	4.8182	0.1	1.9277e-004
26782	14.86	4.7273	0.1	2.7737e-004
26783	14.953	4.8182	0.1	4.8717e-004
26784	14.676	4.7273	0.1	8.5082e-004
26785	14.768	4.8182	0.1	8.7056e-004
26786	14.491	4.7273	0.1	1.6922e-003
26787	14.583	4.8182	0.1	1.3956e-003
26788	14.306	4.7273	0.1	3.0722e-003
26789	14.399	4.8182	0.1	2.1728e-003
26790	14.122	4.7273	0.1	5.7865e-003
26791	14.214	4.8182	0.1	3.4447e-003
26792	13.937	4.7273	0.1	1.3592e-002
26793	14.029	4.8182	0.1	5.9054e-003
26794	13.752	4.7273	0.1	0.12068
26795	13.845	4.8182	0.1	1.2555e-002
26796	13.568	4.7273	0.1	1.3298
26797	13.66	4.8182	0.1	7.3341e-002
26798	13.383	4.7273	0.1	2.7837
26799	13.475	4.8182	0.1	1.1356
26800	13.199	4.7273	0.1	4.3364
26801	13.291	4.8182	0.1	2.5509
26802	13.014	4.7273	0.1	5.9907
26803	13.106	4.8182	0.1	4.0635
26804	12.829	4.7273	0.1	7.7531
26805	12.922	4.8182	0.1	5.6739
26806	12.645	4.7273	0.1	9.6308
26807	12.737	4.8182	0.1	7.3877
26808	12.46	4.7273	0.1	11.631
26809	12.552	4.8182	0.1	9.2111
26810	12.275	4.7273	0.1	13.761
26811	12.368	4.8182	0.1	11.15
26812	12.091	4.7273	0.1	16.028
26813	12.183	4.8182	0.1	13.211
26814	11.906	4.7273	0.1	18.437
26815	11.998	4.8182	0.1	15.399
26816	11.721	4.7273	0.1	20.994
26817	11.814	4.8182	0.1	17.717
26818	11.537	4.7273	0.1	23.703
26819	11.629	4.8182	0.1	20.17
26820	11.352	4.7273	0.1	26.567
26821	11.444	4.8182	0.1	22.759
26822	11.167	4.7273	0.1	29.586
26823	11.26	4.8182	0.1	25.484
26824	10.983	4.7273	0.1	32.757
26825	11.075	4.8182	0.1	28.34
26826	10.798	4.7273	0.1	36.075
26827	10.891	4.8182	0.1	31.322
26828	10.614	4.7273	0.1	39.529
26829	10.706	4.8182	0.1	34.417
26830	10.429	4.7273	0.1	43.103
26831	10.521	4.8182	0.1	37.611
26832	10.244	4.7273	0.1	46.776
26833	10.337	4.8182	0.1	40.881
26834	10.06	4.7273	0.1	50.518
26835	10.152	4.8182	0.1	44.195
26836	9.875	4.7273	0.1	54.288
26837	9.9673	4.8182	0.1	47.515
26838	9.6904	4.7273	0.1	58.037
26839	9.7827	4.8182	0.1	50.791
26840	9.5057	4.7273	0.1	61.701
26841	9.598	4.8182	0.1	53.959
26842	9.3211	4.7273	0.1	65.204
26843	9.4134	4.8182	0.1	56.943
26844	9.1364	4.7273	0.1	68.45
26845	9.2288	4.8182	0.1	59.65
26846	8.9518	4.7273	0.1	71.327
26847	9.0441	4.8182	0.1	61.969
26848	8.7672	4.7273	0.1	73.702
26849	8.8595	4.8182	0.1	63.767
26850	8.5825	4.7273	0.1	75.417
26851	8.6748	4.8182	0.1	64.893
26852	8.3979	4.7273	0.1	76.292
26853	8.4902	4.8182	0.1	65.171
26854	8.2132	4.7273	0.1	76.114
26855	8.3056	4.8182	0.1	64.398
26856	8.0286	4.7273	0.1	74.633
26857	8.1209	4.8182	0.1	62.346
26858	7.844	4.7273	0.1	71.554
26859	7.9363	4.8182	0.1	58.752
26860	7.6593	4.7273	0.1	66.512
26861	7.7516	4.8182	0.1	53.316
26862	7.4747	4.7273	0.1	59.045
26863	7.567	4.8182	0.1	45.698
26864	7.29	4.7273	0.1	48.569
26865	7.3824	4.8182	0.1	35.549
26866	7.1054	4.7273	0.1	34.513
26867	7.1977	4.8182	0.1	22.868
26868	6.9208	4.7273	0.1	17.924
26869	7.0131	4.8182	0.1	10.49
26870	6.7361	4.7273	0.1	7.3756
26871	6.8284	4.8182	0.1	5.0228
26872	6.5515	4.7273	0.1	4.3841
26873	6.6438	4.8182	0.1	3.4728
26874	6.3668	4.7273	0.1	3.4198
26875	6.4592	4.8182	0.1	2.9246
26876	6.1822	4.7273	0.1	3.0975
26877	6.2745	4.8182	0.1	2.735
26878	5.9975	4.7273	0.1	3.105
26879	6.0899	4.8182	0.1	2.7886
26880	5.8129	4.7273	0.1	3.6038
26881	5.9052	4.8182	0.1	2.885
26882	5.6283	4.7273	0.1	2.5564
26883	5.7206	4.8182	0.1	3.7857
26884	5.4436	4.7273	0.1	5.4472
26885	5.5359	4.8182	0.1	0.85364
26886	5.3513	4.8182	0.1	10.301
26887	5.259	4.7273	0.1	-7.0884
26888	23.723	4.9091	0.1	-0.15551
26889	23.815	5.	0.1	-8.8961e-002
26890	23.908	4.9091	0.1	-0.39979
26891	23.538	4.9091	0.1	-0.18256
26892	23.631	5.	0.1	-0.26649
26893	23.354	4.9091	0.1	-9.4521e-002
26894	23.446	5.	0.1	-9.6636e-002
26895	23.169	4.9091	0.1	-7.5124e-002
26896	23.261	5.	0.1	-8.4131e-002
26897	22.984	4.9091	0.1	-5.4907e-002
26898	23.077	5.	0.1	-5.6293e-002
26899	22.8	4.9091	0.1	-4.3291e-002
26900	22.892	5.	0.1	-4.3624e-002
26901	22.615	4.9091	0.1	-3.4405e-002
26902	22.708	5.	0.1	-3.336e-002
26903	22.431	4.9091	0.1	-2.7953e-002
26904	22.523	5.	0.1	-2.6317e-002
26905	22.246	4.9091	0.1	-2.2998e-002
26906	22.338	5.	0.1	-2.0974e-002
26907	22.061	4.9091	0.1	-1.916e-002
26908	22.154	5.	0.1	-1.6936e-002
26909	21.877	4.9091	0.1	-1.6126e-002
26910	21.969	5.	0.1	-1.3806e-002
26911	21.692	4.9091	0.1	-1.3694e-002
26912	21.784	5.	0.1	-1.1349e-002
26913	21.507	4.9091	0.1	-1.1722e-002
26914	21.6	5.	0.1	-9.3884e-003
26915	21.323	4.9091	0.1	-1.0109e-002
26916	21.415	5.	0.1	-7.8159e-003
26917	21.138	4.9091	0.1	-8.7727e-003
26918	21.23	5.	0.1	-6.5404e-003
26919	20.953	4.9091	0.1	-7.6549e-003
26920	21.046	5.	0.1	-5.4901e-003
26921	20.769	4.9091	0.1	-6.7123e-003
26922	20.861	5.	0.1	-4.6234e-003
26923	20.584	4.9091	0.1	-5.9109e-003
26924	20.676	5.	0.1	-3.8989e-003
26925	20.4	4.9091	0.1	-5.2244e-003
26926	20.492	5.	0.1	-3.29e-003
26927	20.215	4.9091	0.1	-4.633e-003
26928	20.307	5.	0.1	-2.7748e-003
26929	20.03	4.9091	0.1	-4.12e-003
26930	20.123	5.	0.1	-2.3366e-003
26931	19.846	4.9091	0.1	-3.6704e-003
26932	19.938	5.	0.1	-1.9596e-003
26933	19.661	4.9091	0.1	-3.2757e-003
26934	19.753	5.	0.1	-1.6337e-003
26935	19.476	4.9091	0.1	-2.9282e-003
26936	19.569	5.	0.1	-1.352e-003
26937	19.292	4.9091	0.1	-2.6188e-003
26938	19.384	5.	0.1	-1.1063e-003
26939	19.107	4.9091	0.1	-2.3414e-003
26940	19.199	5.	0.1	-8.8987e-004
26941	18.922	4.9091	0.1	-2.0937e-003
26942	19.015	5.	0.1	-6.9893e-004
26943	18.738	4.9091	0.1	-1.8698e-003
26944	18.83	5.	0.1	-5.3153e-004
26945	18.553	4.9091	0.1	-1.6674e-003
26946	18.645	5.	0.1	-3.8033e-004
26947	18.368	4.9091	0.1	-1.4841e-003
26948	18.461	5.	0.1	-2.4719e-004
26949	18.184	4.9091	0.1	-1.3162e-003
26950	18.276	5.	0.1	-1.2657e-004
26951	17.999	4.9091	0.1	-1.1621e-003
26952	18.092	5.	0.1	-1.8712e-005
26953	17.815	4.9091	0.1	-1.0204e-003
26954	17.907	5.	0.1	7.9125e-005
26955	17.63	4.9091	0.1	-8.8881e-004
26956	17.722	5.	0.1	1.6738e-004
26957	17.445	4.9091	0.1	-7.6629e-004
26958	17.538	5.	0.1	2.5018e-004
26959	17.261	4.9091	0.1	-6.4895e-004
26960	17.353	5.	0.1	3.2335e-004
26961	17.076	4.9091	0.1	-5.3601e-004
26962	17.168	5.	0.1	3.9894e-004
26963	16.891	4.9091	0.1	-4.3806e-004
26964	16.984	5.	0.1	4.6593e-004
26965	16.707	4.9091	0.1	-3.4385e-004
26966	16.799	5.	0.1	5.133e-004
26967	16.522	4.9091	0.1	-2.4163e-004
26968	16.614	5.	0.1	5.7337e-004
26969	16.337	4.9091	0.1	-1.4113e-004
26970	16.43	5.	0.1	6.3816e-004
26971	16.153	4.9091	0.1	-4.2173e-005
26972	16.245	5.	0.1	6.9413e-004
26973	15.968	4.9091	0.1	6.1157e-005
26974	16.06	5.	0.1	7.5375e-004
26975	15.783	4.9091	0.1	1.7132e-004
26976	15.876	5.	0.1	8.1582e-004
26977	15.599	4.9091	0.1	2.9203e-004
26978	15.691	5.	0.1	8.8382e-004
26979	15.414	4.9091	0.1	4.2769e-004
26980	15.507	5.	0.1	9.6136e-004
26981	15.23	4.9091	0.1	5.8714e-004
26982	15.322	5.	0.1	1.0514e-003
26983	15.045	4.9091	0.1	7.8042e-004
26984	15.137	5.	0.1	1.1615e-003
26985	14.86	4.9091	0.1	1.0244e-003
26986	14.953	5.	0.1	1.299e-003
26987	14.676	4.9091	0.1	1.3474e-003
26988	14.768	5.	0.1	1.4807e-003
26989	14.491	4.9091	0.1	1.7977e-003
26990	14.583	5.	0.1	1.7261e-003
26991	14.306	4.9091	0.1	2.469e-003
26992	14.399	5.	0.1	2.0773e-003
26993	14.122	4.9091	0.1	3.5666e-003
26994	14.214	5.	0.1	2.6051e-003
26995	13.937	4.9091	0.1	5.6457e-003
26996	14.029	5.	0.1	3.4679e-003
26997	13.752	4.9091	0.1	1.0878e-002
26998	13.845	5.	0.1	5.0559e-003
26999	13.568	4.9091	0.1	4.2855e-002
27000	13.66	5.	0.1	8.7149e-003
27001	13.383	4.9091	0.1	0.88459
27002	13.475	5.	0.1	2.3899e-002
27003	13.199	4.9091	0.1	2.2567
27004	13.291	5.	0.1	0.51977
27005	13.014	4.9091	0.1	3.7255
27006	13.106	5.	0.1	1.8283
27007	12.829	4.9091	0.1	5.2878
27008	12.922	5.	0.1	3.2412
27009	12.645	4.9091	0.1	6.9478
27010	12.737	5.	0.1	4.7428
27011	12.46	4.9091	0.1	8.7107
27012	12.552	5.	0.1	6.336
27013	12.275	4.9091	0.1	10.581
27014	12.368	5.	0.1	8.0246
27015	12.091	4.9091	0.1	12.564
27016	12.183	5.	0.1	9.8122
27017	11.906	4.9091	0.1	14.661
27018	11.998	5.	0.1	11.702
27019	11.721	4.9091	0.1	16.877
27020	11.814	5.	0.1	13.695
27021	11.537	4.9091	0.1	19.21
27022	11.629	5.	0.1	15.791
27023	11.352	4.9091	0.1	21.66
27024	11.444	5.	0.1	17.99
27025	11.167	4.9091	0.1	24.223
27026	11.26	5.	0.1	20.287
27027	10.983	4.9091	0.1	26.89
27028	11.075	5.	0.1	22.674
27029	10.798	4.9091	0.1	29.65
27030	10.891	5.	0.1	25.14
27031	10.614	4.9091	0.1	32.486
27032	10.706	5.	0.1	27.668
27033	10.429	4.9091	0.1	35.375
27034	10.521	5.	0.1	30.238
27035	10.244	4.9091	0.1	38.287
27036	10.337	5.	0.1	32.819
27037	10.06	4.9091	0.1	41.18
27038	10.152	5.	0.1	35.374
27039	9.875	4.9091	0.1	44.005
27040	9.9673	5.	0.1	37.856
27041	9.6904	4.9091	0.1	46.7
27042	9.7827	5.	0.1	40.204
27043	9.5057	4.9091	0.1	49.188
27044	9.598	5.	0.1	42.347
27045	9.3211	4.9091	0.1	51.376
27046	9.4134	5.	0.1	44.196
27047	9.1364	4.9091	0.1	53.154
27048	9.2288	5.	0.1	45.647
27049	8.9518	4.9091	0.1	54.393
27050	9.0441	5.	0.1	46.575
27051	8.7672	4.9091	0.1	54.943
27052	8.8595	5.	0.1	46.837
27053	8.5825	4.9091	0.1	54.631
27054	8.6748	5.	0.1	46.269
27055	8.3979	4.9091	0.1	53.263
27056	8.4902	5.	0.1	44.685
27057	8.2132	4.9091	0.1	50.623
27058	8.3056	5.	0.1	41.882
27059	8.0286	4.9091	0.1	46.474
27060	8.1209	5.	0.1	37.639
27061	7.844	4.9091	0.1	40.561
27062	7.9363	5.	0.1	31.737
27063	7.6593	4.9091	0.1	32.643
27064	7.7516	5.	0.1	24.004
27065	7.4747	4.9091	0.1	22.635
27066	7.567	5.	0.1	14.606
27067	7.29	4.9091	0.1	11.643
27068	7.3824	5.	0.1	6.018
27069	7.1054	4.9091	0.1	4.9617
27070	7.1977	5.	0.1	2.8385
27071	6.9208	4.9091	0.1	3.0848
27072	7.0131	5.	0.1	2.0584
27073	6.7361	4.9091	0.1	2.5078
27074	6.8284	5.	0.1	1.832
27075	6.5515	4.9091	0.1	2.3184
27076	6.6438	5.	0.1	1.8057
27077	6.3668	4.9091	0.1	2.3007
27078	6.4592	5.	0.1	1.8902
27079	6.1822	4.9091	0.1	2.4168
27080	6.2745	5.	0.1	2.0451
27081	5.9975	4.9091	0.1	2.5419
27082	6.0899	5.	0.1	2.3094
27083	5.8129	4.9091	0.1	3.0535
27084	5.9052	5.	0.1	2.4451
27085	5.6283	4.9091	0.1	2.1105
27086	5.7206	5.	0.1	3.278
27087	5.4436	4.9091	0.1	6.1322
27088	5.5359	5.	0.1	0.84419
27089	5.3513	5.	0.1	9.969
27090	5.259	4.9091	0.1	-0.80041
27091	23.723	5.0909	0.1	-0.13106
27092	23.815	5.1818	0.1	-4.7016e-002
27093	23.908	5.0909	0.1	-0.3895
27094	23.538	5.0909	0.1	-0.16508
27095	23.631	5.1818	0.1	-0.23938
27096	23.354	5.0909	0.1	-8.0049e-002
27097	23.446	5.1818	0.1	-7.6081e-002
27098	23.169	5.0909	0.1	-6.1965e-002
27099	23.261	5.1818	0.1	-6.5695e-002
27100	22.984	5.0909	0.1	-4.286e-002
27101	23.077	5.1818	0.1	-3.9724e-002
27102	22.8	5.0909	0.1	-3.2148e-002
27103	22.892	5.1818	0.1	-2.8519e-002
27104	22.615	5.0909	0.1	-2.4084e-002
27105	22.708	5.1818	0.1	-1.9547e-002
27106	22.431	5.0909	0.1	-1.8384e-002
27107	22.523	5.1818	0.1	-1.3655e-002
27108	22.246	5.0909	0.1	-1.4123e-002
27109	22.338	5.1818	0.1	-9.3457e-003
27110	22.061	5.0909	0.1	-1.0916e-002
27111	22.154	5.1818	0.1	-6.2335e-003
27112	21.877	5.0909	0.1	-8.4589e-003
27113	21.969	5.1818	0.1	-3.9311e-003
27114	21.692	5.0909	0.1	-6.5509e-003
27115	21.784	5.1818	0.1	-2.2173e-003
27116	21.507	5.0909	0.1	-5.0533e-003
27117	21.6	5.1818	0.1	-9.2165e-004
27118	21.323	5.0909	0.1	-3.8709e-003
27119	21.415	5.1818	0.1	5.3044e-005
27120	21.138	5.0909	0.1	-2.9252e-003
27121	21.23	5.1818	0.1	7.8921e-004
27122	20.953	5.0909	0.1	-2.1638e-003
27123	21.046	5.1818	0.1	1.3531e-003
27124	20.769	5.0909	0.1	-1.5478e-003
27125	20.861	5.1818	0.1	1.7788e-003
27126	20.584	5.0909	0.1	-1.0443e-003
27127	20.676	5.1818	0.1	2.1025e-003
27128	20.4	5.0909	0.1	-6.317e-004
27129	20.492	5.1818	0.1	2.3449e-003
27130	20.215	5.0909	0.1	-2.915e-004
27131	20.307	5.1818	0.1	2.5281e-003
27132	20.03	5.0909	0.1	-8.8155e-006
27133	20.123	5.1818	0.1	2.6605e-003
27134	19.846	5.0909	0.1	2.2716e-004
27135	19.938	5.1818	0.1	2.7569e-003
27136	19.661	5.0909	0.1	4.2457e-004
27137	19.753	5.1818	0.1	2.8242e-003
27138	19.476	5.0909	0.1	5.9047e-004
27139	19.569	5.1818	0.1	2.8677e-003
27140	19.292	5.0909	0.1	7.3068e-004
27141	19.384	5.1818	0.1	2.8941e-003
27142	19.107	5.0909	0.1	8.494e-004
27143	19.199	5.1818	0.1	2.905e-003
27144	18.922	5.0909	0.1	9.4965e-004
27145	19.015	5.1818	0.1	2.9065e-003
27146	18.738	5.0909	0.1	1.0349e-003
27147	18.83	5.1818	0.1	2.8978e-003
27148	18.553	5.0909	0.1	1.1083e-003
27149	18.645	5.1818	0.1	2.8826e-003
27150	18.368	5.0909	0.1	1.1709e-003
27151	18.461	5.1818	0.1	2.861e-003
27152	18.184	5.0909	0.1	1.2241e-003
27153	18.276	5.1818	0.1	2.8359e-003
27154	17.999	5.0909	0.1	1.2689e-003
27155	18.092	5.1818	0.1	2.8077e-003
27156	17.815	5.0909	0.1	1.3069e-003
27157	17.907	5.1818	0.1	2.7741e-003
27158	17.63	5.0909	0.1	1.3404e-003
27159	17.722	5.1818	0.1	2.7402e-003
27160	17.445	5.0909	0.1	1.3681e-003
27161	17.538	5.1818	0.1	2.7038e-003
27162	17.261	5.0909	0.1	1.3941e-003
27163	17.353	5.1818	0.1	2.6636e-003
27164	17.076	5.0909	0.1	1.4185e-003
27165	17.168	5.1818	0.1	2.6299e-003
27166	16.891	5.0909	0.1	1.4299e-003
27167	16.984	5.1818	0.1	2.5905e-003
27168	16.707	5.0909	0.1	1.4381e-003
27169	16.799	5.1818	0.1	2.5327e-003
27170	16.522	5.0909	0.1	1.4558e-003
27171	16.614	5.1818	0.1	2.4903e-003
27172	16.337	5.0909	0.1	1.4711e-003
27173	16.43	5.1818	0.1	2.4525e-003
27174	16.153	5.0909	0.1	1.4828e-003
27175	16.245	5.1818	0.1	2.4036e-003
27176	15.968	5.0909	0.1	1.496e-003
27177	16.06	5.1818	0.1	2.3584e-003
27178	15.783	5.0909	0.1	1.5108e-003
27179	15.876	5.1818	0.1	2.3111e-003
27180	15.599	5.0909	0.1	1.5303e-003
27181	15.691	5.1818	0.1	2.2652e-003
27182	15.414	5.0909	0.1	1.5569e-003
27183	15.507	5.1818	0.1	2.2209e-003
27184	15.23	5.0909	0.1	1.5923e-003
27185	15.322	5.1818	0.1	2.1792e-003
27186	15.045	5.0909	0.1	1.6416e-003
27187	15.137	5.1818	0.1	2.1422e-003
27188	14.86	5.0909	0.1	1.7129e-003
27189	14.953	5.1818	0.1	2.1128e-003
27190	14.676	5.0909	0.1	1.8156e-003
27191	14.768	5.1818	0.1	2.0958e-003
27192	14.491	5.0909	0.1	1.9666e-003
27193	14.583	5.1818	0.1	2.0969e-003
27194	14.306	5.0909	0.1	2.195e-003
27195	14.399	5.1818	0.1	2.1284e-003
27196	14.122	5.0909	0.1	2.5537e-003
27197	14.214	5.1818	0.1	2.2079e-003
27198	13.937	5.0909	0.1	3.1497e-003
27199	14.029	5.1818	0.1	2.369e-003
27200	13.752	5.0909	0.1	4.2317e-003
27201	13.845	5.1818	0.1	2.6744e-003
27202	13.568	5.0909	0.1	6.5546e-003
27203	13.66	5.1818	0.1	3.2607e-003
27204	13.383	5.0909	0.1	1.3886e-002
27205	13.475	5.1818	0.1	4.4911e-003
27206	13.199	5.0909	0.1	0.14994
27207	13.291	5.1818	0.1	7.715e-003
27208	13.014	5.0909	0.1	1.3245
27209	13.106	5.1818	0.1	2.5092e-002
27210	12.829	5.0909	0.1	2.6754
27211	12.922	5.1818	0.1	0.6861
27212	12.645	5.0909	0.1	4.1105
27213	12.737	5.1818	0.1	1.9586
27214	12.46	5.0909	0.1	5.6299
27215	12.552	5.1818	0.1	3.3152
27216	12.275	5.0909	0.1	7.2361
27217	12.368	5.1818	0.1	4.7489
27218	12.091	5.0909	0.1	8.9313
27219	12.183	5.1818	0.1	6.2609
27220	11.906	5.0909	0.1	10.717
27221	11.998	5.1818	0.1	7.8518
27222	11.721	5.0909	0.1	12.592
27223	11.814	5.1818	0.1	9.5212
27224	11.537	5.0909	0.1	14.554
27225	11.629	5.1818	0.1	11.267
27226	11.352	5.0909	0.1	16.6
27227	11.444	5.1818	0.1	13.086
27228	11.167	5.0909	0.1	18.722
27229	11.26	5.1818	0.1	14.971
27230	10.983	5.0909	0.1	20.908
27231	11.075	5.1818	0.1	16.911
27232	10.798	5.0909	0.1	23.143
27233	10.891	5.1818	0.1	18.894
27234	10.614	5.0909	0.1	25.405
27235	10.706	5.1818	0.1	20.899
27236	10.429	5.0909	0.1	27.667
27237	10.521	5.1818	0.1	22.902
27238	10.244	5.0909	0.1	29.893
27239	10.337	5.1818	0.1	24.87
27240	10.06	5.0909	0.1	32.036
27241	10.152	5.1818	0.1	26.762
27242	9.875	5.0909	0.1	34.041
27243	9.9673	5.1818	0.1	28.526
27244	9.6904	5.0909	0.1	35.837
27245	9.7827	5.1818	0.1	30.101
27246	9.5057	5.0909	0.1	37.34
27247	9.598	5.1818	0.1	31.408
27248	9.3211	5.0909	0.1	38.451
27249	9.4134	5.1818	0.1	32.357
27250	9.1364	5.0909	0.1	39.051
27251	9.2288	5.1818	0.1	32.838
27252	8.9518	5.0909	0.1	39.001
27253	9.0441	5.1818	0.1	32.723
27254	8.7672	5.0909	0.1	38.146
27255	8.8595	5.1818	0.1	31.868
27256	8.5825	5.0909	0.1	36.306
27257	8.6748	5.1818	0.1	30.107
27258	8.3979	5.0909	0.1	33.29
27259	8.4902	5.1818	0.1	27.258
27260	8.2132	5.0909	0.1	28.895
27261	8.3056	5.1818	0.1	23.131
27262	8.0286	5.0909	0.1	22.933
27263	8.1209	5.1818	0.1	17.558
27264	7.844	5.0909	0.1	15.339
27265	7.9363	5.1818	0.1	10.538
27266	7.6593	5.0909	0.1	6.9824
27267	7.7516	5.1818	0.1	3.6653
27268	7.4747	5.0909	0.1	2.5135
27269	7.567	5.1818	0.1	1.4023
27270	7.29	5.0909	0.1	1.5525
27271	7.3824	5.1818	0.1	0.97422
27272	7.1054	5.0909	0.1	1.3049
27273	7.1977	5.1818	0.1	0.86922
27274	6.9208	5.0909	0.1	1.2649
27275	7.0131	5.1818	0.1	0.87826
27276	6.7361	5.0909	0.1	1.3279
27277	6.8284	5.1818	0.1	0.95663
27278	6.5515	5.0909	0.1	1.4659
27279	6.6438	5.1818	0.1	1.0946
27280	6.3668	5.0909	0.1	1.6664
27281	6.4592	5.1818	0.1	1.2976
27282	6.1822	5.0909	0.1	1.9427
27283	6.2745	5.1818	0.1	1.5626
27284	5.9975	5.0909	0.1	2.2168
27285	6.0899	5.1818	0.1	1.9324
27286	5.8129	5.0909	0.1	2.6968
27287	5.9052	5.1818	0.1	2.2341
27288	5.6283	5.0909	0.1	2.0964
27289	5.7206	5.1818	0.1	3.0464
27290	5.4436	5.0909	0.1	5.2449
27291	5.5359	5.1818	0.1	1.288
27292	5.3513	5.1818	0.1	8.7915
27293	5.259	5.0909	0.1	-2.5752
27294	23.723	5.2727	0.1	-9.0052e-002
27295	23.815	5.3636	0.1	4.913e-003
27296	23.908	5.2727	0.1	-0.36613
27297	23.538	5.2727	0.1	-0.13474
27298	23.631	5.3636	0.1	-0.20445
27299	23.354	5.2727	0.1	-5.5011e-002
27300	23.446	5.3636	0.1	-4.8506e-002
27301	23.169	5.2727	0.1	-3.9576e-002
27302	23.261	5.3636	0.1	-4.2125e-002
27303	22.984	5.2727	0.1	-2.2752e-002
27304	23.077	5.3636	0.1	-1.9075e-002
27305	22.8	5.2727	0.1	-1.3967e-002
27306	22.892	5.3636	0.1	-1.0208e-002
27307	22.615	5.2727	0.1	-7.5939e-003
27308	22.708	5.3636	0.1	-3.2827e-003
27309	22.431	5.2727	0.1	-3.3863e-003
27310	22.523	5.3636	0.1	8.6528e-004
27311	22.246	5.2727	0.1	-4.418e-004
27312	22.338	5.3636	0.1	3.6677e-003
27313	22.061	5.2727	0.1	1.6023e-003
27314	22.154	5.3636	0.1	5.4831e-003
27315	21.877	5.2727	0.1	3.0319e-003
27316	21.969	5.3636	0.1	6.6632e-003
27317	21.692	5.2727	0.1	4.0294e-003
27318	21.784	5.3636	0.1	7.4023e-003
27319	21.507	5.2727	0.1	4.717e-003
27320	21.6	5.3636	0.1	7.8481e-003
27321	21.323	5.2727	0.1	5.1747e-003
27322	21.415	5.3636	0.1	8.0772e-003
27323	21.138	5.2727	0.1	5.4695e-003
27324	21.23	5.3636	0.1	8.1565e-003
27325	20.953	5.2727	0.1	5.6471e-003
27326	21.046	5.3636	0.1	8.138e-003
27327	20.769	5.2727	0.1	5.7371e-003
27328	20.861	5.3636	0.1	8.0486e-003
27329	20.584	5.2727	0.1	5.7623e-003
27330	20.676	5.3636	0.1	7.9103e-003
27331	20.4	5.2727	0.1	5.7429e-003
27332	20.492	5.3636	0.1	7.7404e-003
27333	20.215	5.2727	0.1	5.69e-003
27334	20.307	5.3636	0.1	7.5511e-003
27335	20.03	5.2727	0.1	5.6112e-003
27336	20.123	5.3636	0.1	7.3487e-003
27337	19.846	5.2727	0.1	5.517e-003
27338	19.938	5.3636	0.1	7.141e-003
27339	19.661	5.2727	0.1	5.4111e-003
27340	19.753	5.3636	0.1	6.9327e-003
27341	19.476	5.2727	0.1	5.298e-003
27342	19.569	5.3636	0.1	6.7242e-003
27343	19.292	5.2727	0.1	5.1798e-003
27344	19.384	5.3636	0.1	6.5212e-003
27345	19.107	5.2727	0.1	5.0599e-003
27346	19.199	5.3636	0.1	6.3214e-003
27347	18.922	5.2727	0.1	4.9402e-003
27348	19.015	5.3636	0.1	6.1293e-003
27349	18.738	5.2727	0.1	4.8199e-003
27350	18.83	5.3636	0.1	5.9419e-003
27351	18.553	5.2727	0.1	4.6999e-003
27352	18.645	5.3636	0.1	5.7616e-003
27353	18.368	5.2727	0.1	4.5816e-003
27354	18.461	5.3636	0.1	5.5862e-003
27355	18.184	5.2727	0.1	4.4668e-003
27356	18.276	5.3636	0.1	5.4182e-003
27357	17.999	5.2727	0.1	4.3527e-003
27358	18.092	5.3636	0.1	5.2568e-003
27359	17.815	5.2727	0.1	4.2403e-003
27360	17.907	5.3636	0.1	5.0982e-003
27361	17.63	5.2727	0.1	4.1301e-003
27362	17.722	5.3636	0.1	4.9461e-003
27363	17.445	5.2727	0.1	4.0197e-003
27364	17.538	5.3636	0.1	4.7974e-003
27365	17.261	5.2727	0.1	3.9141e-003
27366	17.353	5.3636	0.1	4.6501e-003
27367	17.076	5.2727	0.1	3.8114e-003
27368	17.168	5.3636	0.1	4.5138e-003
27369	16.891	5.2727	0.1	3.6979e-003
27370	16.984	5.3636	0.1	4.3757e-003
27371	16.707	5.2727	0.1	3.5845e-003
27372	16.799	5.3636	0.1	4.2212e-003
27373	16.522	5.2727	0.1	3.4819e-003
27374	16.614	5.3636	0.1	4.0852e-003
27375	16.337	5.2727	0.1	3.3755e-003
27376	16.43	5.3636	0.1	3.9532e-003
27377	16.153	5.2727	0.1	3.2654e-003
27378	16.245	5.3636	0.1	3.8111e-003
27379	15.968	5.2727	0.1	3.1553e-003
27380	16.06	5.3636	0.1	3.6711e-003
27381	15.783	5.2727	0.1	3.0434e-003
27382	15.876	5.3636	0.1	3.5276e-003
27383	15.599	5.2727	0.1	2.9298e-003
27384	15.691	5.3636	0.1	3.3817e-003
27385	15.414	5.2727	0.1	2.8138e-003
27386	15.507	5.3636	0.1	3.2319e-003
27387	15.23	5.2727	0.1	2.6969e-003
27388	15.322	5.3636	0.1	3.0778e-003
27389	15.045	5.2727	0.1	2.5794e-003
27390	15.137	5.3636	0.1	2.9201e-003
27391	14.86	5.2727	0.1	2.4617e-003
27392	14.953	5.3636	0.1	2.7556e-003
27393	14.676	5.2727	0.1	2.346e-003
27394	14.768	5.3636	0.1	2.5874e-003
27395	14.491	5.2727	0.1	2.2361e-003
27396	14.583	5.3636	0.1	2.4127e-003
27397	14.306	5.2727	0.1	2.1377e-003
27398	14.399	5.3636	0.1	2.2334e-003
27399	14.122	5.2727	0.1	2.0598e-003
27400	14.214	5.3636	0.1	2.0517e-003
27401	13.937	5.2727	0.1	2.0192e-003
27402	14.029	5.3636	0.1	1.8689e-003
27403	13.752	5.2727	0.1	2.0471e-003
27404	13.845	5.3636	0.1	1.6929e-003
27405	13.568	5.2727	0.1	2.2061e-003
27406	13.66	5.3636	0.1	1.5315e-003
27407	13.383	5.2727	0.1	2.6453e-003
27408	13.475	5.3636	0.1	1.4066e-003
27409	13.199	5.2727	0.1	3.8053e-003
27410	13.291	5.3636	0.1	1.3631e-003
27411	13.014	5.2727	0.1	7.7668e-003
27412	13.106	5.3636	0.1	1.513e-003
27413	12.829	5.2727	0.1	7.4383e-002
27414	12.922	5.3636	0.1	2.2102e-003
27415	12.645	5.2727	0.1	1.1443
27416	12.737	5.3636	0.1	5.4716e-003
27417	12.46	5.2727	0.1	2.4139
27418	12.552	5.3636	0.1	0.19703
27419	12.275	5.2727	0.1	3.7537
27420	12.368	5.3636	0.1	1.3477
27421	12.091	5.2727	0.1	5.1618
27422	12.183	5.3636	0.1	2.5835
27423	11.906	5.2727	0.1	6.6374
27424	11.998	5.3636	0.1	3.8786
27425	11.721	5.2727	0.1	8.1784
27426	11.814	5.3636	0.1	5.2305
27427	11.537	5.2727	0.1	9.781
27428	11.629	5.3636	0.1	6.6361
27429	11.352	5.2727	0.1	11.439
27430	11.444	5.3636	0.1	8.09
27431	11.167	5.2727	0.1	13.143
27432	11.26	5.3636	0.1	9.5847
27433	10.983	5.2727	0.1	14.88
27434	11.075	5.3636	0.1	11.109
27435	10.798	5.2727	0.1	16.634
27436	10.891	5.3636	0.1	12.649
27437	10.614	5.2727	0.1	18.379
27438	10.706	5.3636	0.1	14.184
27439	10.429	5.2727	0.1	20.088
27440	10.521	5.3636	0.1	15.689
27441	10.244	5.2727	0.1	21.723
27442	10.337	5.3636	0.1	17.133
27443	10.06	5.2727	0.1	23.237
27444	10.152	5.3636	0.1	18.475
27445	9.875	5.2727	0.1	24.571
27446	9.9673	5.3636	0.1	19.665
27447	9.6904	5.2727	0.1	25.657
27448	9.7827	5.3636	0.1	20.642
27449	9.5057	5.2727	0.1	26.408
27450	9.598	5.3636	0.1	21.334
27451	9.3211	5.2727	0.1	26.726
27452	9.4134	5.3636	0.1	21.652
27453	9.1364	5.2727	0.1	26.493
27454	9.2288	5.3636	0.1	21.493
27455	8.9518	5.2727	0.1	25.572
27456	9.0441	5.3636	0.1	20.736
27457	8.7672	5.2727	0.1	23.811
27458	8.8595	5.3636	0.1	19.245
27459	8.5825	5.2727	0.1	21.042
27460	8.6748	5.3636	0.1	16.868
27461	8.3979	5.2727	0.1	17.09
27462	8.4902	5.3636	0.1	13.444
27463	8.2132	5.2727	0.1	11.82
27464	8.3056	5.3636	0.1	8.8491
27465	8.0286	5.2727	0.1	5.4637
27466	8.1209	5.3636	0.1	3.4096
27467	7.844	5.2727	0.1	1.4112
27468	7.9363	5.3636	0.1	0.79496
27469	7.6593	5.2727	0.1	0.72968
27470	7.7516	5.3636	0.1	0.44253
27471	7.4747	5.2727	0.1	0.58015
27472	7.567	5.3636	0.1	0.35973
27473	7.29	5.2727	0.1	0.55331
27474	7.3824	5.3636	0.1	0.34708
27475	7.1054	5.2727	0.1	0.58464
27476	7.1977	5.3636	0.1	0.37127
27477	6.9208	5.2727	0.1	0.66069
27478	7.0131	5.3636	0.1	0.42639
27479	6.7361	5.2727	0.1	0.78279
27480	6.8284	5.3636	0.1	0.51622
27481	6.5515	5.2727	0.1	0.96117
27482	6.6438	5.3636	0.1	0.65047
27483	6.3668	5.2727	0.1	1.2081
27484	6.4592	5.3636	0.1	0.84921
27485	6.1822	5.2727	0.1	1.5555
27486	6.2745	5.3636	0.1	1.1329
27487	5.9975	5.2727	0.1	1.9661
27488	6.0899	5.3636	0.1	1.5779
27489	5.8129	5.2727	0.1	2.6561
27490	5.9052	5.3636	0.1	2.0971
27491	5.6283	5.2727	0.1	2.4235
27492	5.7206	5.3636	0.1	3.245
27493	5.4436	5.2727	0.1	5.6072
27494	5.5359	5.3636	0.1	2.1927
27495	5.3513	5.3636	0.1	9.2429
27496	5.259	5.2727	0.1	-2.2019
27497	23.723	5.4545	0.1	-4.7305e-002
27498	23.815	5.5455	0.1	0.15346
27499	23.908	5.4545	0.1	-0.35346
27500	23.538	5.4545	0.1	-0.10148
27501	23.631	5.5455	0.1	-9.9232e-002
27502	23.354	5.4545	0.1	-2.7562e-002
27503	23.446	5.5455	0.1	2.8538e-002
27504	23.169	5.4545	0.1	-1.6607e-002
27505	23.261	5.5455	0.1	2.4669e-002
27506	22.984	5.4545	0.1	-3.003e-003
27507	23.077	5.5455	0.1	3.7843e-002
27508	22.8	5.4545	0.1	3.1209e-003
27509	22.892	5.5455	0.1	3.9458e-002
27510	22.615	5.4545	0.1	7.2342e-003
27511	22.708	5.5455	0.1	4.037e-002
27512	22.431	5.4545	0.1	9.5617e-003
27513	22.523	5.5455	0.1	3.9598e-002
27514	22.246	5.4545	0.1	1.0927e-002
27515	22.338	5.5455	0.1	3.8285e-002
27516	22.061	5.4545	0.1	1.1644e-002
27517	22.154	5.5455	0.1	3.6623e-002
27518	21.877	5.4545	0.1	1.1949e-002
27519	21.969	5.5455	0.1	3.4833e-002
27520	21.692	5.4545	0.1	1.1989e-002
27521	21.784	5.5455	0.1	3.301e-002
27522	21.507	5.4545	0.1	1.1858e-002
27523	21.6	5.5455	0.1	3.1224e-002
27524	21.323	5.4545	0.1	1.161e-002
27525	21.415	5.5455	0.1	2.9498e-002
27526	21.138	5.4545	0.1	1.1295e-002
27527	21.23	5.5455	0.1	2.7851e-002
27528	20.953	5.4545	0.1	1.0942e-002
27529	21.046	5.5455	0.1	2.63e-002
27530	20.769	5.4545	0.1	1.0567e-002
27531	20.861	5.5455	0.1	2.4841e-002
27532	20.584	5.4545	0.1	1.0185e-002
27533	20.676	5.5455	0.1	2.3476e-002
27534	20.4	5.4545	0.1	9.8033e-003
27535	20.492	5.5455	0.1	2.2202e-002
27536	20.215	5.4545	0.1	9.4289e-003
27537	20.307	5.5455	0.1	2.1013e-002
27538	20.03	5.4545	0.1	9.0669e-003
27539	20.123	5.5455	0.1	1.9906e-002
27540	19.846	5.4545	0.1	8.7185e-003
27541	19.938	5.5455	0.1	1.8875e-002
27542	19.661	5.4545	0.1	8.3845e-003
27543	19.753	5.5455	0.1	1.7916e-002
27544	19.476	5.4545	0.1	8.0659e-003
27545	19.569	5.5455	0.1	1.702e-002
27546	19.292	5.4545	0.1	7.7635e-003
27547	19.384	5.5455	0.1	1.6187e-002
27548	19.107	5.4545	0.1	7.476e-003
27549	19.199	5.5455	0.1	1.5408e-002
27550	18.922	5.4545	0.1	7.2027e-003
27551	19.015	5.5455	0.1	1.4681e-002
27552	18.738	5.4545	0.1	6.9432e-003
27553	18.83	5.5455	0.1	1.3999e-002
27554	18.553	5.4545	0.1	6.6968e-003
27555	18.645	5.5455	0.1	1.336e-002
27556	18.368	5.4545	0.1	6.4622e-003
27557	18.461	5.5455	0.1	1.2757e-002
27558	18.184	5.4545	0.1	6.2391e-003
27559	18.276	5.5455	0.1	1.2191e-002
27560	17.999	5.4545	0.1	6.0254e-003
27561	18.092	5.5455	0.1	1.1654e-002
27562	17.815	5.4545	0.1	5.8202e-003
27563	17.907	5.5455	0.1	1.1143e-002
27564	17.63	5.4545	0.1	5.6233e-003
27565	17.722	5.5455	0.1	1.0657e-002
27566	17.445	5.4545	0.1	5.432e-003
27567	17.538	5.5455	0.1	1.0191e-002
27568	17.261	5.4545	0.1	5.2488e-003
27569	17.353	5.5455	0.1	9.7418e-003
27570	17.076	5.4545	0.1	5.0723e-003
27571	17.168	5.5455	0.1	9.3138e-003
27572	16.891	5.4545	0.1	4.8888e-003
27573	16.984	5.5455	0.1	8.8944e-003
27574	16.707	5.4545	0.1	4.7075e-003
27575	16.799	5.5455	0.1	8.4657e-003
27576	16.522	5.4545	0.1	4.5383e-003
27577	16.614	5.5455	0.1	8.061e-003
27578	16.337	5.4545	0.1	4.3671e-003
27579	16.43	5.5455	0.1	7.6635e-003
27580	16.153	5.4545	0.1	4.1918e-003
27581	16.245	5.5455	0.1	7.2588e-003
27582	15.968	5.4545	0.1	4.0155e-003
27583	16.06	5.5455	0.1	6.8552e-003
27584	15.783	5.4545	0.1	3.8354e-003
27585	15.876	5.5455	0.1	6.4455e-003
27586	15.599	5.4545	0.1	3.6512e-003
27587	15.691	5.5455	0.1	6.0292e-003
27588	15.414	5.4545	0.1	3.4619e-003
27589	15.507	5.5455	0.1	5.6036e-003
27590	15.23	5.4545	0.1	3.2664e-003
27591	15.322	5.5455	0.1	5.1647e-003
27592	15.045	5.4545	0.1	3.0624e-003
27593	15.137	5.5455	0.1	4.7109e-003
27594	14.86	5.4545	0.1	2.8498e-003
27595	14.953	5.5455	0.1	4.2381e-003
27596	14.676	5.4545	0.1	2.6275e-003
27597	14.768	5.5455	0.1	3.7452e-003
27598	14.491	5.4545	0.1	2.3923e-003
27599	14.583	5.5455	0.1	3.2263e-003
27600	14.306	5.4545	0.1	2.1447e-003
27601	14.399	5.5455	0.1	2.6799e-003
27602	14.122	5.4545	0.1	1.883e-003
27603	14.214	5.5455	0.1	2.1024e-003
27604	13.937	5.4545	0.1	1.607e-003
27605	14.029	5.5455	0.1	1.4896e-003
27606	13.752	5.4545	0.1	1.3153e-003
27607	13.845	5.5455	0.1	8.3934e-004
27608	13.568	5.4545	0.1	1.0072e-003
27609	13.66	5.5455	0.1	1.4514e-004
27610	13.383	5.4545	0.1	6.8512e-004
27611	13.475	5.5455	0.1	-5.9563e-004
27612	13.199	5.4545	0.1	3.5488e-004
27613	13.291	5.5455	0.1	-1.3883e-003
27614	13.014	5.4545	0.1	2.8622e-005
27615	13.106	5.5455	0.1	-2.2358e-003
27616	12.829	5.4545	0.1	-2.5582e-004
27617	12.922	5.5455	0.1	-3.1458e-003
27618	12.645	5.4545	0.1	-3.794e-004
27619	12.737	5.5455	0.1	-4.1178e-003
27620	12.46	5.4545	0.1	3.7832e-004
27621	12.552	5.5455	0.1	-5.1748e-003
27622	12.275	5.4545	0.1	0.16625
27623	12.368	5.5455	0.1	-6.3e-003
27624	12.091	5.4545	0.1	1.2799
27625	12.183	5.5455	0.1	-7.4719e-003
27626	11.906	5.4545	0.1	2.4518
27627	11.998	5.5455	0.1	-8.6589e-003
27628	11.721	5.4545	0.1	3.6689
27629	11.814	5.5455	0.1	0.81784
27630	11.537	5.4545	0.1	4.9264
27631	11.629	5.5455	0.1	1.897
27632	11.352	5.4545	0.1	6.2176
27633	11.444	5.5455	0.1	3.0057
27634	11.167	5.4545	0.1	7.533
27635	11.26	5.5455	0.1	4.1367
27636	10.983	5.4545	0.1	8.8601
27637	11.075	5.5455	0.1	5.28
27638	10.798	5.4545	0.1	10.182
27639	10.891	5.5455	0.1	6.4225
27640	10.614	5.4545	0.1	11.477
27641	10.706	5.5455	0.1	7.547
27642	10.429	5.4545	0.1	12.717
27643	10.521	5.5455	0.1	8.6315
27644	10.244	5.4545	0.1	13.868
27645	10.337	5.5455	0.1	9.6481
27646	10.06	5.4545	0.1	14.887
27647	10.152	5.5455	0.1	10.562
27648	9.875	5.4545	0.1	15.72
27649	9.9673	5.5455	0.1	11.331
27650	9.6904	5.4545	0.1	16.303
27651	9.7827	5.5455	0.1	11.904
27652	9.5057	5.4545	0.1	16.561
27653	9.598	5.5455	0.1	12.216
27654	9.3211	5.4545	0.1	16.402
27655	9.4134	5.5455	0.1	12.195
27656	9.1364	5.4545	0.1	15.719
27657	9.2288	5.5455	0.1	11.753
27658	8.9518	5.4545	0.1	14.392
27659	9.0441	5.5455	0.1	10.788
27660	8.7672	5.4545	0.1	12.286
27661	8.8595	5.5455	0.1	9.1861
27662	8.5825	5.4545	0.1	9.2601
27663	8.6748	5.5455	0.1	6.8279
27664	8.3979	5.4545	0.1	5.2357
27665	8.4902	5.5455	0.1	3.6453
27666	8.2132	5.4545	0.1	1.221
27667	8.3056	5.5455	0.1	0.69702
27668	8.0286	5.4545	0.1	0.36475
27669	8.1209	5.5455	0.1	0.2277
27670	7.844	5.4545	0.1	0.23625
27671	7.9363	5.5455	0.1	0.15731
27672	7.6593	5.4545	0.1	0.20127
27673	7.7516	5.5455	0.1	0.14253
27674	7.4747	5.4545	0.1	0.19883
27675	7.567	5.5455	0.1	0.14866
27676	7.29	5.4545	0.1	0.21695
27677	7.3824	5.5455	0.1	0.16832
27678	7.1054	5.4545	0.1	0.25461
27679	7.1977	5.5455	0.1	0.20045
27680	6.9208	5.4545	0.1	0.31601
27681	7.0131	5.5455	0.1	0.24682
27682	6.7361	5.4545	0.1	0.41002
27683	6.8284	5.5455	0.1	0.31228
27684	6.5515	5.4545	0.1	0.55387
27685	6.6438	5.5455	0.1	0.40598
27686	6.3668	5.4545	0.1	0.77452
27687	6.4592	5.5455	0.1	0.54971
27688	6.1822	5.4545	0.1	1.1407
27689	6.2745	5.5455	0.1	0.77858
27690	5.9975	5.4545	0.1	1.7024
27691	6.0899	5.5455	0.1	1.2169
27692	5.8129	5.4545	0.1	2.7841
27693	5.9052	5.5455	0.1	1.9245
27694	5.6283	5.4545	0.1	3.4117
27695	5.7206	5.5455	0.1	3.6923
27696	5.4436	5.4545	0.1	7.1042
27697	5.5359	5.5455	0.1	3.9404
27698	5.3513	5.5455	0.1	10.953
27699	5.259	5.4545	0.1	-2.2543
27700	23.723	5.6364	0.1	0.16317
27701	23.815	5.7273	0.1	0.38613
27702	23.908	5.6364	0.1	-0.15946
27703	23.538	5.6364	0.1	5.0874e-002
27704	23.631	5.7273	0.1	5.4653e-002
27705	23.354	5.6364	0.1	9.1288e-002
27706	23.446	5.7273	0.1	0.11512
27707	23.169	5.6364	0.1	8.5655e-002
27708	23.261	5.7273	0.1	8.9933e-002
27709	22.984	5.6364	0.1	8.4698e-002
27710	23.077	5.7273	0.1	8.4292e-002
27711	22.8	5.6364	0.1	7.979e-002
27712	22.892	5.7273	0.1	7.3827e-002
27713	22.615	5.6364	0.1	7.4956e-002
27714	22.708	5.7273	0.1	6.5836e-002
27715	22.431	5.6364	0.1	6.995e-002
27716	22.523	5.7273	0.1	5.857e-002
27717	22.246	5.6364	0.1	6.5187e-002
27718	22.338	5.7273	0.1	5.2377e-002
27719	22.061	5.6364	0.1	6.071e-002
27720	22.154	5.7273	0.1	4.7007e-002
27721	21.877	5.6364	0.1	5.6559e-002
27722	21.969	5.7273	0.1	4.2361e-002
27723	21.692	5.6364	0.1	5.2734e-002
27724	21.784	5.7273	0.1	3.832e-002
27725	21.507	5.6364	0.1	4.9218e-002
27726	21.6	5.7273	0.1	3.4801e-002
27727	21.323	5.6364	0.1	4.5986e-002
27728	21.415	5.7273	0.1	3.1714e-002
27729	21.138	5.6364	0.1	4.3021e-002
27730	21.23	5.7273	0.1	2.8996e-002
27731	20.953	5.6364	0.1	4.0298e-002
27732	21.046	5.7273	0.1	2.6601e-002
27733	20.769	5.6364	0.1	3.7797e-002
27734	20.861	5.7273	0.1	2.4479e-002
27735	20.584	5.6364	0.1	3.55e-002
27736	20.676	5.7273	0.1	2.2594e-002
27737	20.4	5.6364	0.1	3.3385e-002
27738	20.492	5.7273	0.1	2.0915e-002
27739	20.215	5.6364	0.1	3.1437e-002
27740	20.307	5.7273	0.1	1.9416e-002
27741	20.03	5.6364	0.1	2.9641e-002
27742	20.123	5.7273	0.1	1.8071e-002
27743	19.846	5.6364	0.1	2.7983e-002
27744	19.938	5.7273	0.1	1.6864e-002
27745	19.661	5.6364	0.1	2.6449e-002
27746	19.753	5.7273	0.1	1.5778e-002
27747	19.476	5.6364	0.1	2.5029e-002
27748	19.569	5.7273	0.1	1.4796e-002
27749	19.292	5.6364	0.1	2.3712e-002
27750	19.384	5.7273	0.1	1.3907e-002
27751	19.107	5.6364	0.1	2.2488e-002
27752	19.199	5.7273	0.1	1.3102e-002
27753	18.922	5.6364	0.1	2.1347e-002
27754	19.015	5.7273	0.1	1.2367e-002
27755	18.738	5.6364	0.1	2.0283e-002
27756	18.83	5.7273	0.1	1.1696e-002
27757	18.553	5.6364	0.1	1.9286e-002
27758	18.645	5.7273	0.1	1.1083e-002
27759	18.368	5.6364	0.1	1.8351e-002
27760	18.461	5.7273	0.1	1.0517e-002
27761	18.184	5.6364	0.1	1.747e-002
27762	18.276	5.7273	0.1	9.9973e-003
27763	17.999	5.6364	0.1	1.6637e-002
27764	18.092	5.7273	0.1	9.5145e-003
27765	17.815	5.6364	0.1	1.5846e-002
27766	17.907	5.7273	0.1	9.0645e-003
27767	17.63	5.6364	0.1	1.5093e-002
27768	17.722	5.7273	0.1	8.6452e-003
27769	17.445	5.6364	0.1	1.437e-002
27770	17.538	5.7273	0.1	8.2503e-003
27771	17.261	5.6364	0.1	1.3677e-002
27772	17.353	5.7273	0.1	7.8762e-003
27773	17.076	5.6364	0.1	1.3009e-002
27774	17.168	5.7273	0.1	7.5279e-003
27775	16.891	5.6364	0.1	1.2346e-002
27776	16.984	5.7273	0.1	7.1921e-003
27777	16.707	5.6364	0.1	1.1697e-002
27778	16.799	5.7273	0.1	6.85e-003
27779	16.522	5.6364	0.1	1.1067e-002
27780	16.614	5.7273	0.1	6.5364e-003
27781	16.337	5.6364	0.1	1.044e-002
27782	16.43	5.7273	0.1	6.2334e-003
27783	16.153	5.6364	0.1	9.8102e-003
27784	16.245	5.7273	0.1	5.9283e-003
27785	15.968	5.6364	0.1	9.1775e-003
27786	16.06	5.7273	0.1	5.6296e-003
27787	15.783	5.6364	0.1	8.5363e-003
27788	15.876	5.7273	0.1	5.3291e-003
27789	15.599	5.6364	0.1	7.8842e-003
27790	15.691	5.7273	0.1	5.0304e-003
27791	15.414	5.6364	0.1	7.2156e-003
27792	15.507	5.7273	0.1	4.7284e-003
27793	15.23	5.6364	0.1	6.5261e-003
27794	15.322	5.7273	0.1	4.4226e-003
27795	15.045	5.6364	0.1	5.8126e-003
27796	15.137	5.7273	0.1	4.111e-003
27797	14.86	5.6364	0.1	5.0704e-003
27798	14.953	5.7273	0.1	3.7934e-003
27799	14.676	5.6364	0.1	4.2944e-003
27800	14.768	5.7273	0.1	3.4675e-003
27801	14.491	5.6364	0.1	3.4808e-003
27802	14.583	5.7273	0.1	3.1338e-003
27803	14.306	5.6364	0.1	2.6252e-003
27804	14.399	5.7273	0.1	2.7914e-003
27805	14.122	5.6364	0.1	1.7227e-003
27806	14.214	5.7273	0.1	2.4402e-003
27807	13.937	5.6364	0.1	7.6931e-004
27808	14.029	5.7273	0.1	2.0822e-003
27809	13.752	5.6364	0.1	-2.3977e-004
27810	13.845	5.7273	0.1	1.7195e-003
27811	13.568	5.6364	0.1	-1.3084e-003
27812	13.66	5.7273	0.1	1.3556e-003
27813	13.383	5.6364	0.1	-2.4402e-003
27814	13.475	5.7273	0.1	9.9562e-004
27815	13.199	5.6364	0.1	-3.6233e-003
27816	13.291	5.7273	0.1	6.4921e-004
27817	13.014	5.6364	0.1	-4.9017e-003
27818	13.106	5.7273	0.1	3.2936e-004
27819	12.829	5.6364	0.1	-6.2284e-003
27820	12.922	5.7273	0.1	5.4937e-005
27821	12.645	5.6364	0.1	-7.6175e-003
27822	12.737	5.7273	0.1	-1.4125e-004
27823	12.46	5.6364	0.1	-9.0472e-003
27824	12.552	5.7273	0.1	-2.3155e-004
27825	12.275	5.6364	0.1	-1.0452e-002
27826	12.368	5.7273	0.1	-1.2531e-004
27827	12.091	5.6364	0.1	-1.174e-002
27828	12.183	5.7273	0.1	3.0942e-004
27829	11.906	5.6364	0.1	-1.2594e-002
27830	11.998	5.7273	0.1	1.201e-003
27831	11.721	5.6364	0.1	-1.1347e-002
27832	11.814	5.7273	0.1	2.9023e-003
27833	11.537	5.6364	0.1	5.0415e-002
27834	11.629	5.7273	0.1	6.086e-003
27835	11.352	5.6364	0.1	0.91225
27836	11.444	5.7273	0.1	1.2171e-002
27837	11.167	5.6364	0.1	1.868
27838	11.26	5.7273	0.1	2.503e-002
27839	10.983	5.6364	0.1	2.8261
27840	11.075	5.7273	0.1	5.9054e-002
27841	10.798	5.6364	0.1	3.771
27842	10.891	5.7273	0.1	0.20206
27843	10.614	5.6364	0.1	4.6851
27844	10.706	5.7273	0.1	0.7235
27845	10.429	5.6364	0.1	5.5459
27846	10.521	5.7273	0.1	1.4248
27847	10.244	5.6364	0.1	6.3259
27848	10.337	5.7273	0.1	2.1103
27849	10.06	5.6364	0.1	6.991
27850	10.152	5.7273	0.1	2.7284
27851	9.875	5.6364	0.1	7.4994
27852	9.9673	5.7273	0.1	3.2432
27853	9.6904	5.6364	0.1	7.8009
27854	9.7827	5.7273	0.1	3.6166
27855	9.5057	5.6364	0.1	7.8354
27856	9.598	5.7273	0.1	3.8044
27857	9.3211	5.6364	0.1	7.5318
27858	9.4134	5.7273	0.1	3.7551
27859	9.1364	5.6364	0.1	6.8078
27860	9.2288	5.7273	0.1	3.4097
27861	8.9518	5.6364	0.1	5.5712
27862	9.0441	5.7273	0.1	2.7045
27863	8.7672	5.6364	0.1	3.7312
27864	8.8595	5.7273	0.1	1.5976
27865	8.5825	5.6364	0.1	1.3507
27866	8.6748	5.7273	0.1	0.41673
27867	8.3979	5.6364	0.1	0.22608
27868	8.4902	5.7273	0.1	0.10965
27869	8.2132	5.6364	0.1	0.11744
27870	8.3056	5.7273	0.1	5.4026e-002
27871	8.0286	5.6364	0.1	9.9198e-002
27872	8.1209	5.7273	0.1	3.675e-002
27873	7.844	5.6364	0.1	0.10379
27874	7.9363	5.7273	0.1	3.177e-002
27875	7.6593	5.6364	0.1	0.11995
27876	7.7516	5.7273	0.1	3.2495e-002
27877	7.4747	5.6364	0.1	0.14458
27878	7.567	5.7273	0.1	3.6226e-002
27879	7.29	5.6364	0.1	0.17675
27880	7.3824	5.7273	0.1	4.1366e-002
27881	7.1054	5.6364	0.1	0.21652
27882	7.1977	5.7273	0.1	4.6793e-002
27883	6.9208	5.6364	0.1	0.2651
27884	7.0131	5.7273	0.1	5.2081e-002
27885	6.7361	5.6364	0.1	0.32614
27886	6.8284	5.7273	0.1	5.9071e-002
27887	6.5515	5.6364	0.1	0.41101
27888	6.6438	5.7273	0.1	7.4704e-002
27889	6.3668	5.6364	0.1	0.54562
27890	6.4592	5.7273	0.1	0.12244
27891	6.1822	5.6364	0.1	0.81525
27892	6.2745	5.7273	0.1	0.251
27893	5.9975	5.6364	0.1	1.3592
27894	6.0899	5.7273	0.1	0.6274
27895	5.8129	5.6364	0.1	2.8133
27896	5.9052	5.7273	0.1	1.4597
27897	5.6283	5.6364	0.1	4.8881
27898	5.7206	5.7273	0.1	4.0316
27899	5.4436	5.6364	0.1	10.579
27900	5.5359	5.7273	0.1	7.1089
27901	5.3513	5.7273	0.1	18.587
27902	5.259	5.6364	0.1	-3.5976
27903	23.723	5.8182	0.1	0.31063
27904	23.815	5.9091	0.1	7.3929e-002
27905	23.908	5.8182	0.1	3.8337e-002
27906	23.538	5.8182	0.1	0.11546
27907	23.631	5.9091	0.1	-0.14236
27908	23.354	5.8182	0.1	0.10048
27909	23.446	5.9091	0.1	-4.7478e-002
27910	23.169	5.8182	0.1	7.2714e-002
27911	23.261	5.9091	0.1	-3.4026e-002
27912	22.984	5.8182	0.1	5.7389e-002
27913	23.077	5.9091	0.1	-1.5328e-002
27914	22.8	5.8182	0.1	4.4535e-002
27915	22.892	5.9091	0.1	-7.1803e-003
27916	22.615	5.8182	0.1	3.5102e-002
27917	22.708	5.9091	0.1	-1.3184e-003
27918	22.431	5.8182	0.1	2.7706e-002
27919	22.523	5.9091	0.1	2.2621e-003
27920	22.246	5.8182	0.1	2.1937e-002
27921	22.338	5.9091	0.1	4.6634e-003
27922	22.061	5.8182	0.1	1.7367e-002
27923	22.154	5.9091	0.1	6.2346e-003
27924	21.877	5.8182	0.1	1.3724e-002
27925	21.969	5.9091	0.1	7.2592e-003
27926	21.692	5.8182	0.1	1.0805e-002
27927	21.784	5.9091	0.1	7.9039e-003
27928	21.507	5.8182	0.1	8.4565e-003
27929	21.6	5.9091	0.1	8.2916e-003
27930	21.323	5.8182	0.1	6.5569e-003
27931	21.415	5.9091	0.1	8.4878e-003
27932	21.138	5.8182	0.1	5.0214e-003
27933	21.23	5.9091	0.1	8.5463e-003
27934	20.953	5.8182	0.1	3.7817e-003
27935	21.046	5.9091	0.1	8.5146e-003
27936	20.769	5.8182	0.1	2.7808e-003
27937	20.861	5.9091	0.1	8.4128e-003
27938	20.584	5.8182	0.1	1.974e-003
27939	20.676	5.9091	0.1	8.2638e-003
27940	20.4	5.8182	0.1	1.3279e-003
27941	20.492	5.9091	0.1	8.0827e-003
27942	20.215	5.8182	0.1	8.135e-004
27943	20.307	5.9091	0.1	7.8804e-003
27944	20.03	5.8182	0.1	4.0713e-004
27945	20.123	5.9091	0.1	7.6627e-003
27946	19.846	5.8182	0.1	9.1462e-005
27947	19.938	5.9091	0.1	7.44e-003
27948	19.661	5.8182	0.1	-1.5092e-004
27949	19.753	5.9091	0.1	7.2133e-003
27950	19.476	5.8182	0.1	-3.33e-004
27951	19.569	5.9091	0.1	6.9853e-003
27952	19.292	5.8182	0.1	-4.6338e-004
27953	19.384	5.9091	0.1	6.7622e-003
27954	19.107	5.8182	0.1	-5.5216e-004
27955	19.199	5.9091	0.1	6.5413e-003
27956	18.922	5.8182	0.1	-6.0704e-004
27957	19.015	5.9091	0.1	6.3258e-003
27958	18.738	5.8182	0.1	-6.324e-004
27959	18.83	5.9091	0.1	6.1151e-003
27960	18.553	5.8182	0.1	-6.345e-004
27961	18.645	5.9091	0.1	5.9131e-003
27962	18.368	5.8182	0.1	-6.167e-004
27963	18.461	5.9091	0.1	5.7145e-003
27964	18.184	5.8182	0.1	-5.8157e-004
27965	18.276	5.9091	0.1	5.5222e-003
27966	17.999	5.8182	0.1	-5.3329e-004
27967	18.092	5.9091	0.1	5.3359e-003
27968	17.815	5.8182	0.1	-4.7331e-004
27969	17.907	5.9091	0.1	5.1542e-003
27970	17.63	5.8182	0.1	-4.0281e-004
27971	17.722	5.9091	0.1	4.9782e-003
27972	17.445	5.8182	0.1	-3.2443e-004
27973	17.538	5.9091	0.1	4.8069e-003
27974	17.261	5.8182	0.1	-2.3496e-004
27975	17.353	5.9091	0.1	4.6359e-003
27976	17.076	5.8182	0.1	-1.3552e-004
27977	17.168	5.9091	0.1	4.4763e-003
27978	16.891	5.8182	0.1	-4.0299e-005
27979	16.984	5.9091	0.1	4.3153e-003
27980	16.707	5.8182	0.1	6.1298e-005
27981	16.799	5.9091	0.1	4.1382e-003
27982	16.522	5.8182	0.1	1.8039e-004
27983	16.614	5.9091	0.1	3.9819e-003
27984	16.337	5.8182	0.1	3.0426e-004
27985	16.43	5.9091	0.1	3.826e-003
27986	16.153	5.8182	0.1	4.3345e-004
27987	16.245	5.9091	0.1	3.6643e-003
27988	15.968	5.8182	0.1	5.7058e-004
27989	16.06	5.9091	0.1	3.5056e-003
27990	15.783	5.8182	0.1	7.1676e-004
27991	15.876	5.9091	0.1	3.3422e-003
27992	15.599	5.8182	0.1	8.7368e-004
27993	15.691	5.9091	0.1	3.179e-003
27994	15.414	5.8182	0.1	1.0419e-003
27995	15.507	5.9091	0.1	3.014e-003
27996	15.23	5.8182	0.1	1.224e-003
27997	15.322	5.9091	0.1	2.8476e-003
27998	15.045	5.8182	0.1	1.4212e-003
27999	15.137	5.9091	0.1	2.6781e-003
28000	14.86	5.8182	0.1	1.636e-003
28001	14.953	5.9091	0.1	2.5087e-003
28002	14.676	5.8182	0.1	1.8725e-003
28003	14.768	5.9091	0.1	2.3374e-003
28004	14.491	5.8182	0.1	2.1339e-003
28005	14.583	5.9091	0.1	2.1664e-003
28006	14.306	5.8182	0.1	2.4235e-003
28007	14.399	5.9091	0.1	1.9955e-003
28008	14.122	5.8182	0.1	2.7476e-003
28009	14.214	5.9091	0.1	1.8275e-003
28010	13.937	5.8182	0.1	3.1135e-003
28011	14.029	5.9091	0.1	1.6638e-003
28012	13.752	5.8182	0.1	3.5293e-003
28013	13.845	5.9091	0.1	1.5095e-003
28014	13.568	5.8182	0.1	4.0045e-003
28015	13.66	5.9091	0.1	1.3664e-003
28016	13.383	5.8182	0.1	4.5525e-003
28017	13.475	5.9091	0.1	1.2402e-003
28018	13.199	5.8182	0.1	5.1901e-003
28019	13.291	5.9091	0.1	1.1388e-003
28020	13.014	5.8182	0.1	5.9374e-003
28021	13.106	5.9091	0.1	1.0703e-003
28022	12.829	5.8182	0.1	6.8225e-003
28023	12.922	5.9091	0.1	1.0446e-003
28024	12.645	5.8182	0.1	7.8745e-003
28025	12.737	5.9091	0.1	1.0798e-003
28026	12.46	5.8182	0.1	9.1413e-003
28027	12.552	5.9091	0.1	1.1788e-003
28028	12.275	5.8182	0.1	1.0705e-002
28029	12.368	5.9091	0.1	1.3821e-003
28030	12.091	5.8182	0.1	1.2629e-002
28031	12.183	5.9091	0.1	1.7422e-003
28032	11.906	5.8182	0.1	1.5007e-002
28033	11.998	5.9091	0.1	2.2365e-003
28034	11.721	5.8182	0.1	1.8017e-002
28035	11.814	5.9091	0.1	2.9338e-003
28036	11.537	5.8182	0.1	2.1884e-002
28037	11.629	5.9091	0.1	3.9113e-003
28038	11.352	5.8182	0.1	2.6919e-002
28039	11.444	5.9091	0.1	5.2244e-003
28040	11.167	5.8182	0.1	3.3601e-002
28041	11.26	5.9091	0.1	6.9682e-003
28042	10.983	5.8182	0.1	4.2647e-002
28043	11.075	5.9091	0.1	9.2484e-003
28044	10.798	5.8182	0.1	5.5178e-002
28045	10.891	5.9091	0.1	1.2192e-002
28046	10.614	5.8182	0.1	7.296e-002
28047	10.706	5.9091	0.1	1.5929e-002
28048	10.429	5.8182	0.1	9.8772e-002
28049	10.521	5.9091	0.1	2.0561e-002
28050	10.244	5.8182	0.1	0.13667
28051	10.337	5.9091	0.1	2.6072e-002
28052	10.06	5.8182	0.1	0.19108
28053	10.152	5.9091	0.1	3.2132e-002
28054	9.875	5.8182	0.1	0.26143
28055	9.9673	5.9091	0.1	3.7718e-002
28056	9.6904	5.8182	0.1	0.33102
28057	9.7827	5.9091	0.1	4.0573e-002
28058	9.5057	5.8182	0.1	0.36443
28059	9.598	5.9091	0.1	3.6978e-002
28060	9.3211	5.8182	0.1	0.33156
28061	9.4134	5.9091	0.1	2.3185e-002
28062	9.1364	5.8182	0.1	0.24239
28063	9.2288	5.9091	0.1	-5.1202e-004
28064	8.9518	5.8182	0.1	0.14663
28065	9.0441	5.9091	0.1	-2.7119e-002
28066	8.7672	5.8182	0.1	7.8624e-002
28067	8.8595	5.9091	0.1	-4.8073e-002
28068	8.5825	5.8182	0.1	3.7603e-002
28069	8.6748	5.9091	0.1	-6.013e-002
28070	8.3979	5.8182	0.1	1.3421e-002
28071	8.4902	5.9091	0.1	-6.4629e-002
28072	8.2132	5.8182	0.1	-1.3794e-003
28073	8.3056	5.9091	0.1	-6.3863e-002
28074	8.0286	5.8182	0.1	-1.1371e-002
28075	8.1209	5.9091	0.1	-5.9558e-002
28076	7.844	5.8182	0.1	-1.968e-002
28077	7.9363	5.9091	0.1	-5.279e-002
28078	7.6593	5.8182	0.1	-2.8978e-002
28079	7.7516	5.9091	0.1	-4.4285e-002
28080	7.4747	5.8182	0.1	-4.2006e-002
28081	7.567	5.9091	0.1	-3.4691e-002
28082	7.29	5.8182	0.1	-6.172e-002
28083	7.3824	5.9091	0.1	-2.4757e-002
28084	7.1054	5.8182	0.1	-9.097e-002
28085	7.1977	5.9091	0.1	-1.554e-002
28086	6.9208	5.8182	0.1	-0.13107
28087	7.0131	5.9091	0.1	-8.6454e-003
28088	6.7361	5.8182	0.1	-0.17868
28089	6.8284	5.9091	0.1	-6.1622e-003
28090	6.5515	5.8182	0.1	-0.21711
28091	6.6438	5.9091	0.1	-1.1458e-002
28092	6.3668	5.8182	0.1	-0.20447
28093	6.4592	5.9091	0.1	-2.5299e-002
28094	6.1822	5.8182	0.1	-2.1572e-002
28095	6.2745	5.9091	0.1	-5.6009e-002
28096	5.9975	5.8182	0.1	0.53491
28097	6.0899	5.9091	0.1	-5.7989e-002
28098	5.8129	5.8182	0.1	2.2623
28099	5.9052	5.9091	0.1	-0.10749
28100	5.6283	5.8182	0.1	5.7154
28101	5.7206	5.9091	0.1	0.59431
28102	5.4436	5.8182	0.1	18.808
28103	5.5359	5.9091	0.1	0.93969
28104	5.259	5.8182	0.1	-0.17834
28105	5.3513	5.9091	0.1	15.979
28106	0.17857	0.27273	0.1	445.9
28107	0.26786	0.18182	0.1	22.298
28108	8.9286e-002	0.18182	0.1	606.69
28109	0.17857	9.0909e-002	0.1	-91.356
28110	0.17857	0.45455	0.1	1076.4
28111	0.26786	0.36364	0.1	779.05
28112	8.9286e-002	0.36364	0.1	1600.7
28113	0.17857	0.63636	0.1	1409.5
28114	0.26786	0.54545	0.1	1277.2
28115	8.9286e-002	0.54545	0.1	2070.5
28116	0.17857	0.81818	0.1	1607.2
28117	0.26786	0.72727	0.1	1581.8
28118	8.9286e-002	0.72727	0.1	2343.4
28119	0.17857	1.	0.1	1736.
28120	0.26786	0.90909	0.1	1777.5
28121	8.9286e-002	0.90909	0.1	2520.6
28122	0.17857	1.1818	0.1	1826.2
28123	0.26786	1.0909	0.1	1911.1
28124	8.9286e-002	1.0909	0.1	2644.5
28125	0.17857	1.3636	0.1	1892.
28126	0.26786	1.2727	0.1	2006.6
28127	8.9286e-002	1.2727	0.1	2734.3
28128	0.17857	1.5455	0.1	1941.2
28129	0.26786	1.4545	0.1	2077.2
28130	8.9286e-002	1.4545	0.1	2801.1
28131	0.17857	1.7273	0.1	1978.4
28132	0.26786	1.6364	0.1	2130.3
28133	8.9286e-002	1.6364	0.1	2851.3
28134	0.17857	1.9091	0.1	2006.8
28135	0.26786	1.8182	0.1	2170.7
28136	8.9286e-002	1.8182	0.1	2889.2
28137	0.17857	2.0909	0.1	2028.3
28138	0.26786	2.	0.1	2201.5
28139	8.9286e-002	2.	0.1	2917.7
28140	0.17857	2.2727	0.1	2044.3
28141	0.26786	2.1818	0.1	2224.8
28142	8.9286e-002	2.1818	0.1	2939.
28143	0.17857	2.4545	0.1	2055.9
28144	0.26786	2.3636	0.1	2242.
28145	8.9286e-002	2.3636	0.1	2954.5
28146	0.17857	2.6364	0.1	2063.7
28147	0.26786	2.5455	0.1	2254.1
28148	8.9286e-002	2.5455	0.1	2965.3
28149	0.17857	2.8182	0.1	2068.2
28150	0.26786	2.7273	0.1	2261.9
28151	8.9286e-002	2.7273	0.1	2972.1
28152	0.17857	3.	0.1	2069.7
28153	0.26786	2.9091	0.1	2265.7
28154	8.9286e-002	2.9091	0.1	2975.4
28155	0.17857	3.1818	0.1	2068.2
28156	0.26786	3.0909	0.1	2265.7
28157	8.9286e-002	3.0909	0.1	2975.4
28158	0.17857	3.3636	0.1	2063.7
28159	0.26786	3.2727	0.1	2261.9
28160	8.9286e-002	3.2727	0.1	2972.1
28161	0.17857	3.5455	0.1	2055.9
28162	0.26786	3.4545	0.1	2254.1
28163	8.9286e-002	3.4545	0.1	2965.3
28164	0.17857	3.7273	0.1	2044.3
28165	0.26786	3.6364	0.1	2242.
28166	8.9286e-002	3.6364	0.1	2954.5
28167	0.17857	3.9091	0.1	2028.3
28168	0.26786	3.8182	0.1	2224.8
28169	8.9286e-002	3.8182	0.1	2939.
28170	0.17857	4.0909	0.1	2006.8
28171	0.26786	4.	0.1	2201.5
28172	8.9286e-002	4.	0.1	2917.7
28173	0.17857	4.2727	0.1	1978.4
28174	0.26786	4.1818	0.1	2170.7
28175	8.9286e-002	4.1818	0.1	2889.2
28176	0.17857	4.4545	0.1	1941.2
28177	0.26786	4.3636	0.1	2130.3
28178	8.9286e-002	4.3636	0.1	2851.3
28179	0.17857	4.6364	0.1	1892.
28180	0.26786	4.5455	0.1	2077.2
28181	8.9286e-002	4.5455	0.1	2801.1
28182	0.17857	4.8182	0.1	1826.2
28183	0.26786	4.7273	0.1	2006.6
28184	8.9286e-002	4.7273	0.1	2734.3
28185	0.17857	5.	0.1	1736.
28186	0.26786	4.9091	0.1	1911.1
28187	8.9286e-002	4.9091	0.1	2644.5
28188	0.17857	5.1818	0.1	1607.2
28189	0.26786	5.0909	0.1	1777.5
28190	8.9286e-002	5.0909	0.1	2520.6
28191	0.17857	5.3636	0.1	1409.5
28192	0.26786	5.2727	0.1	1581.8
28193	8.9286e-002	5.2727	0.1	2343.4
28194	0.17857	5.5455	0.1	1076.4
28195	0.26786	5.4545	0.1	1277.2
28196	8.9286e-002	5.4545	0.1	2070.5
28197	0.17857	5.7273	0.1	445.9
28198	0.26786	5.6364	0.1	779.05
28199	8.9286e-002	5.6364	0.1	1600.7
28200	0.26786	5.8182	0.1	22.297
28201	8.9286e-002	5.8182	0.1	606.69
28202	0.17857	5.9091	0.1	-91.356
28203	0.35714	0.27273	0.1	334.15
28204	0.44643	0.18182	0.1	46.28
28205	0.35714	9.0909e-002	0.1	26.573
28206	0.35714	0.45455	0.1	979.02
28207	0.44643	0.36364	0.1	566.94
28208	0.35714	0.63636	0.1	1442.4
28209	0.44643	0.54545	0.1	1074.7
28210	0.35714	0.81818	0.1	1745.9
28211	0.44643	0.72727	0.1	1440.6
28212	0.35714	1.	0.1	1948.4
28213	0.44643	0.90909	0.1	1695.5
28214	0.35714	1.1818	0.1	2088.9
28215	0.44643	1.0909	0.1	1874.6
28216	0.35714	1.3636	0.1	2190.2
28217	0.44643	1.2727	0.1	2003.7
28218	0.35714	1.5455	0.1	2265.3
28219	0.44643	1.4545	0.1	2099.2
28220	0.35714	1.7273	0.1	2322.
28221	0.44643	1.6364	0.1	2171.
28222	0.35714	1.9091	0.1	2365.1
28223	0.44643	1.8182	0.1	2225.8
28224	0.35714	2.0909	0.1	2397.8
28225	0.44643	2.	0.1	2267.7
28226	0.35714	2.2727	0.1	2422.4
28227	0.44643	2.1818	0.1	2299.4
28228	0.35714	2.4545	0.1	2440.2
28229	0.44643	2.3636	0.1	2323.1
28230	0.35714	2.6364	0.1	2452.3
28231	0.44643	2.5455	0.1	2339.8
28232	0.35714	2.8182	0.1	2459.4
28233	0.44643	2.7273	0.1	2350.5
28234	0.35714	3.	0.1	2461.7
28235	0.44643	2.9091	0.1	2355.8
28236	0.35714	3.1818	0.1	2459.4
28237	0.44643	3.0909	0.1	2355.8
28238	0.35714	3.3636	0.1	2452.3
28239	0.44643	3.2727	0.1	2350.5
28240	0.35714	3.5455	0.1	2440.2
28241	0.44643	3.4545	0.1	2339.8
28242	0.35714	3.7273	0.1	2422.4
28243	0.44643	3.6364	0.1	2323.1
28244	0.35714	3.9091	0.1	2397.8
28245	0.44643	3.8182	0.1	2299.4
28246	0.35714	4.0909	0.1	2365.1
28247	0.44643	4.	0.1	2267.7
28248	0.35714	4.2727	0.1	2322.
28249	0.44643	4.1818	0.1	2225.8
28250	0.35714	4.4545	0.1	2265.3
28251	0.44643	4.3636	0.1	2171.
28252	0.35714	4.6364	0.1	2190.2
28253	0.44643	4.5455	0.1	2099.2
28254	0.35714	4.8182	0.1	2088.9
28255	0.44643	4.7273	0.1	2003.7
28256	0.35714	5.	0.1	1948.4
28257	0.44643	4.9091	0.1	1874.6
28258	0.35714	5.1818	0.1	1745.9
28259	0.44643	5.0909	0.1	1695.5
28260	0.35714	5.3636	0.1	1442.4
28261	0.44643	5.2727	0.1	1440.6
28262	0.35714	5.5455	0.1	979.02
28263	0.44643	5.4545	0.1	1074.7
28264	0.35714	5.7273	0.1	334.15
28265	0.44643	5.6364	0.1	566.94
28266	0.44643	5.8182	0.1	46.28
28267	0.35714	5.9091	0.1	26.573
28268	0.53571	0.27273	0.1	187.01
28269	0.625	0.18182	0.1	12.271
28270	0.53571	9.0909e-002	0.1	-9.2959
28271	0.53571	0.45455	0.1	665.81
28272	0.625	0.36364	0.1	396.03
28273	0.53571	0.63636	0.1	1075.8
28274	0.625	0.54545	0.1	812.35
28275	0.53571	0.81818	0.1	1391.1
28276	0.625	0.72727	0.1	1161.
28277	0.53571	1.	0.1	1621.5
28278	0.625	0.90909	0.1	1430.9
28279	0.53571	1.1818	0.1	1788.9
28280	0.625	1.0909	0.1	1633.8
28281	0.53571	1.3636	0.1	1912.2
28282	0.625	1.2727	0.1	1785.8
28283	0.53571	1.5455	0.1	2004.5
28284	0.625	1.4545	0.1	1900.7
28285	0.53571	1.7273	0.1	2074.6
28286	0.625	1.6364	0.1	1988.4
28287	0.53571	1.9091	0.1	2128.2
28288	0.625	1.8182	0.1	2055.9
28289	0.53571	2.0909	0.1	2169.2
28290	0.625	2.	0.1	2107.9
28291	0.53571	2.2727	0.1	2200.
28292	0.625	2.1818	0.1	2147.6
28293	0.53571	2.4545	0.1	2222.6
28294	0.625	2.3636	0.1	2177.3
28295	0.53571	2.6364	0.1	2238.
28296	0.625	2.5455	0.1	2198.4
28297	0.53571	2.8182	0.1	2247.
28298	0.625	2.7273	0.1	2212.
28299	0.53571	3.	0.1	2249.9
28300	0.625	2.9091	0.1	2218.7
28301	0.53571	3.1818	0.1	2247.
28302	0.625	3.0909	0.1	2218.7
28303	0.53571	3.3636	0.1	2238.
28304	0.625	3.2727	0.1	2212.
28305	0.53571	3.5455	0.1	2222.6
28306	0.625	3.4545	0.1	2198.4
28307	0.53571	3.7273	0.1	2200.
28308	0.625	3.6364	0.1	2177.3
28309	0.53571	3.9091	0.1	2169.2
28310	0.625	3.8182	0.1	2147.6
28311	0.53571	4.0909	0.1	2128.2
28312	0.625	4.	0.1	2107.9
28313	0.53571	4.2727	0.1	2074.6
28314	0.625	4.1818	0.1	2055.9
28315	0.53571	4.4545	0.1	2004.5
28316	0.625	4.3636	0.1	1988.4
28317	0.53571	4.6364	0.1	1912.2
28318	0.625	4.5455	0.1	1900.7
28319	0.53571	4.8182	0.1	1788.9
28320	0.625	4.7273	0.1	1785.8
28321	0.53571	5.	0.1	1621.5
28322	0.625	4.9091	0.1	1633.8
28323	0.53571	5.1818	0.1	1391.1
28324	0.625	5.0909	0.1	1430.9
28325	0.53571	5.3636	0.1	1075.8
28326	0.625	5.2727	0.1	1161.
28327	0.53571	5.5455	0.1	665.81
28328	0.625	5.4545	0.1	812.35
28329	0.53571	5.7273	0.1	187.01
28330	0.625	5.6364	0.1	396.03
28331	0.625	5.8182	0.1	12.271
28332	0.53571	5.9091	0.1	-9.2959
28333	0.71429	0.27273	0.1	157.17
28334	0.80357	0.18182	0.1	18.116
28335	0.71429	9.0909e-002	0.1	1.7098
28336	0.71429	0.45455	0.1	543.09
28337	0.80357	0.36364	0.1	324.04
28338	0.71429	0.63636	0.1	899.42
28339	0.80357	0.54545	0.1	668.51
28340	0.71429	0.81818	0.1	1202.4
28341	0.80357	0.72727	0.1	981.92
28342	0.71429	1.	0.1	1444.
28343	0.80357	0.90909	0.1	1245.8
28344	0.71429	1.1818	0.1	1631.
28345	0.80357	1.0909	0.1	1458.
28346	0.71429	1.3636	0.1	1774.3
28347	0.80357	1.2727	0.1	1625.2
28348	0.71429	1.5455	0.1	1884.6
28349	0.80357	1.4545	0.1	1756.
28350	0.71429	1.7273	0.1	1969.7
28351	0.80357	1.6364	0.1	1858.3
28352	0.71429	1.9091	0.1	2035.5
28353	0.80357	1.8182	0.1	1938.3
28354	0.71429	2.0909	0.1	2086.3
28355	0.80357	2.	0.1	2000.7
28356	0.71429	2.2727	0.1	2124.8
28357	0.80357	2.1818	0.1	2048.9
28358	0.71429	2.4545	0.1	2153.1
28359	0.80357	2.3636	0.1	2085.1
28360	0.71429	2.6364	0.1	2172.5
28361	0.80357	2.5455	0.1	2111.
28362	0.71429	2.8182	0.1	2183.8
28363	0.80357	2.7273	0.1	2127.8
28364	0.71429	3.	0.1	2187.5
28365	0.80357	2.9091	0.1	2136.
28366	0.71429	3.1818	0.1	2183.8
28367	0.80357	3.0909	0.1	2136.
28368	0.71429	3.3636	0.1	2172.5
28369	0.80357	3.2727	0.1	2127.8
28370	0.71429	3.5455	0.1	2153.1
28371	0.80357	3.4545	0.1	2111.
28372	0.71429	3.7273	0.1	2124.8
28373	0.80357	3.6364	0.1	2085.1
28374	0.71429	3.9091	0.1	2086.3
28375	0.80357	3.8182	0.1	2048.9
28376	0.71429	4.0909	0.1	2035.5
28377	0.80357	4.	0.1	2000.7
28378	0.71429	4.2727	0.1	1969.7
28379	0.80357	4.1818	0.1	1938.3
28380	0.71429	4.4545	0.1	1884.6
28381	0.80357	4.3636	0.1	1858.3
28382	0.71429	4.6364	0.1	1774.3
28383	0.80357	4.5455	0.1	1756.
28384	0.71429	4.8182	0.1	1631.
28385	0.80357	4.7273	0.1	1625.2
28386	0.71429	5.	0.1	1444.
28387	0.80357	4.9091	0.1	1458.
28388	0.71429	5.1818	0.1	1202.4
28389	0.80357	5.0909	0.1	1245.8
28390	0.71429	5.3636	0.1	899.42
28391	0.80357	5.2727	0.1	981.92
28392	0.71429	5.5455	0.1	543.09
28393	0.80357	5.4545	0.1	668.51
28394	0.71429	5.7273	0.1	157.17
28395	0.80357	5.6364	0.1	324.04
28396	0.80357	5.8182	0.1	18.116
28397	0.71429	5.9091	0.1	1.7098
28398	0.89286	0.27273	0.1	133.36
28399	0.98214	0.18182	0.1	16.606
28400	0.89286	9.0909e-002	0.1	-1.0552
28401	0.89286	0.45455	0.1	448.94
28402	0.98214	0.36364	0.1	275.12
28403	0.89286	0.63636	0.1	751.71
28404	0.98214	0.54545	0.1	562.81
28405	0.89286	0.81818	0.1	1026.4
28406	0.98214	0.72727	0.1	837.4
28407	0.89286	1.	0.1	1260.8
28408	0.98214	0.90909	0.1	1082.7
28409	0.89286	1.1818	0.1	1453.
28410	0.98214	1.0909	0.1	1291.4
28411	0.89286	1.3636	0.1	1607.3
28412	0.98214	1.2727	0.1	1463.9
28413	0.89286	1.5455	0.1	1730.
28414	0.98214	1.4545	0.1	1604.1
28415	0.89286	1.7273	0.1	1827.1
28416	0.98214	1.6364	0.1	1716.9
28417	0.89286	1.9091	0.1	1903.6
28418	0.98214	1.8182	0.1	1807.2
28419	0.89286	2.0909	0.1	1963.4
28420	0.98214	2.	0.1	1878.8
28421	0.89286	2.2727	0.1	2009.2
28422	0.98214	2.1818	0.1	1934.7
28423	0.89286	2.4545	0.1	2043.1
28424	0.98214	2.3636	0.1	1977.1
28425	0.89286	2.6364	0.1	2066.4
28426	0.98214	2.5455	0.1	2007.7
28427	0.89286	2.8182	0.1	2080.1
28428	0.98214	2.7273	0.1	2027.6
28429	0.89286	3.	0.1	2084.6
28430	0.98214	2.9091	0.1	2037.3
28431	0.89286	3.1818	0.1	2080.1
28432	0.98214	3.0909	0.1	2037.3
28433	0.89286	3.3636	0.1	2066.4
28434	0.98214	3.2727	0.1	2027.6
28435	0.89286	3.5455	0.1	2043.1
28436	0.98214	3.4545	0.1	2007.7
28437	0.89286	3.7273	0.1	2009.2
28438	0.98214	3.6364	0.1	1977.1
28439	0.89286	3.9091	0.1	1963.4
28440	0.98214	3.8182	0.1	1934.7
28441	0.89286	4.0909	0.1	1903.6
28442	0.98214	4.	0.1	1878.8
28443	0.89286	4.2727	0.1	1827.1
28444	0.98214	4.1818	0.1	1807.2
28445	0.89286	4.4545	0.1	1730.
28446	0.98214	4.3636	0.1	1716.9
28447	0.89286	4.6364	0.1	1607.3
28448	0.98214	4.5455	0.1	1604.1
28449	0.89286	4.8182	0.1	1453.
28450	0.98214	4.7273	0.1	1463.9
28451	0.89286	5.	0.1	1260.8
28452	0.98214	4.9091	0.1	1291.4
28453	0.89286	5.1818	0.1	1026.4
28454	0.98214	5.0909	0.1	1082.7
28455	0.89286	5.3636	0.1	751.71
28456	0.98214	5.2727	0.1	837.4
28457	0.89286	5.5455	0.1	448.94
28458	0.98214	5.4545	0.1	562.81
28459	0.89286	5.7273	0.1	133.36
28460	0.98214	5.6364	0.1	275.12
28461	0.98214	5.8182	0.1	16.606
28462	0.89286	5.9091	0.1	-1.0552
28463	1.0714	0.27273	0.1	122.04
28464	1.1607	0.18182	0.1	18.103
28465	1.0714	9.0909e-002	0.1	-0.10221
28466	1.0714	0.45455	0.1	388.3
28467	1.1607	0.36364	0.1	242.71
28468	1.0714	0.63636	0.1	648.62
28469	1.1607	0.54545	0.1	487.94
28470	1.0714	0.81818	0.1	894.26
28471	1.1607	0.72727	0.1	728.43
28472	1.0714	1.	0.1	1114.1
28473	1.1607	0.90909	0.1	952.02
28474	1.0714	1.1818	0.1	1303.1
28475	1.1607	1.0909	0.1	1150.7
28476	1.0714	1.3636	0.1	1461.3
28477	1.1607	1.2727	0.1	1321.7
28478	1.0714	1.5455	0.1	1591.5
28479	1.1607	1.4545	0.1	1465.8
28480	1.0714	1.7273	0.1	1697.4
28481	1.1607	1.6364	0.1	1585.2
28482	1.0714	1.9091	0.1	1782.6
28483	1.1607	1.8182	0.1	1683.
28484	1.0714	2.0909	0.1	1850.2
28485	1.1607	2.	0.1	1762.
28486	1.0714	2.2727	0.1	1902.7
28487	1.1607	2.1818	0.1	1824.6
28488	1.0714	2.4545	0.1	1941.9
28489	1.1607	2.3636	0.1	1872.7
28490	1.0714	2.6364	0.1	1969.
28491	1.1607	2.5455	0.1	1907.7
28492	1.0714	2.8182	0.1	1985.
28493	1.1607	2.7273	0.1	1930.4
28494	1.0714	3.	0.1	1990.2
28495	1.1607	2.9091	0.1	1941.7
28496	1.0714	3.1818	0.1	1985.
28497	1.1607	3.0909	0.1	1941.7
28498	1.0714	3.3636	0.1	1969.
28499	1.1607	3.2727	0.1	1930.4
28500	1.0714	3.5455	0.1	1941.9
28501	1.1607	3.4545	0.1	1907.7
28502	1.0714	3.7273	0.1	1902.7
28503	1.1607	3.6364	0.1	1872.7
28504	1.0714	3.9091	0.1	1850.2
28505	1.1607	3.8182	0.1	1824.6
28506	1.0714	4.0909	0.1	1782.6
28507	1.1607	4.	0.1	1762.
28508	1.0714	4.2727	0.1	1697.4
28509	1.1607	4.1818	0.1	1683.
28510	1.0714	4.4545	0.1	1591.5
28511	1.1607	4.3636	0.1	1585.2
28512	1.0714	4.6364	0.1	1461.3
28513	1.1607	4.5455	0.1	1465.8
28514	1.0714	4.8182	0.1	1303.1
28515	1.1607	4.7273	0.1	1321.7
28516	1.0714	5.	0.1	1114.1
28517	1.1607	4.9091	0.1	1150.7
28518	1.0714	5.1818	0.1	894.26
28519	1.1607	5.0909	0.1	952.02
28520	1.0714	5.3636	0.1	648.61
28521	1.1607	5.2727	0.1	728.43
28522	1.0714	5.5455	0.1	388.3
28523	1.1607	5.4545	0.1	487.94
28524	1.0714	5.7273	0.1	122.04
28525	1.1607	5.6364	0.1	242.71
28526	1.1607	5.8182	0.1	18.103
28527	1.0714	5.9091	0.1	-0.10221
28528	1.25	0.27273	0.1	113.14
28529	1.3393	0.18182	0.1	19.381
28530	1.25	9.0909e-002	0.1	-0.17038
28531	1.25	0.45455	0.1	341.67
28532	1.3393	0.36364	0.1	217.25
28533	1.25	0.63636	0.1	567.62
28534	1.3393	0.54545	0.1	429.32
28535	1.25	0.81818	0.1	786.44
28536	1.3393	0.72727	0.1	640.92
28537	1.25	1.	0.1	989.14
28538	1.3393	0.90909	0.1	843.25
28539	1.25	1.1818	0.1	1170.
28540	1.3393	1.0909	0.1	1029.1
28541	1.25	1.3636	0.1	1326.8
28542	1.3393	1.2727	0.1	1194.5
28543	1.25	1.5455	0.1	1460.
28544	1.3393	1.4545	0.1	1338.2
28545	1.25	1.7273	0.1	1571.3
28546	1.3393	1.6364	0.1	1460.7
28547	1.25	1.9091	0.1	1662.8
28548	1.3393	1.8182	0.1	1563.4
28549	1.25	2.0909	0.1	1736.7
28550	1.3393	2.	0.1	1647.9
28551	1.25	2.2727	0.1	1794.9
28552	1.3393	2.1818	0.1	1716.
28553	1.25	2.4545	0.1	1838.7
28554	1.3393	2.3636	0.1	1768.8
28555	1.25	2.6364	0.1	1869.3
28556	1.3393	2.5455	0.1	1807.6
28557	1.25	2.8182	0.1	1887.4
28558	1.3393	2.7273	0.1	1833.
28559	1.25	3.	0.1	1893.3
28560	1.3393	2.9091	0.1	1845.6
28561	1.25	3.1818	0.1	1887.4
28562	1.3393	3.0909	0.1	1845.6
28563	1.25	3.3636	0.1	1869.3
28564	1.3393	3.2727	0.1	1833.
28565	1.25	3.5455	0.1	1838.7
28566	1.3393	3.4545	0.1	1807.6
28567	1.25	3.7273	0.1	1794.9
28568	1.3393	3.6364	0.1	1768.8
28569	1.25	3.9091	0.1	1736.7
28570	1.3393	3.8182	0.1	1716.
28571	1.25	4.0909	0.1	1662.8
28572	1.3393	4.	0.1	1647.9
28573	1.25	4.2727	0.1	1571.3
28574	1.3393	4.1818	0.1	1563.4
28575	1.25	4.4545	0.1	1460.
28576	1.3393	4.3636	0.1	1460.7
28577	1.25	4.6364	0.1	1326.8
28578	1.3393	4.5455	0.1	1338.2
28579	1.25	4.8182	0.1	1170.
28580	1.3393	4.7273	0.1	1194.5
28581	1.25	5.	0.1	989.14
28582	1.3393	4.9091	0.1	1029.1
28583	1.25	5.1818	0.1	786.44
28584	1.3393	5.0909	0.1	843.25
28585	1.25	5.3636	0.1	567.62
28586	1.3393	5.2727	0.1	640.92
28587	1.25	5.5455	0.1	341.67
28588	1.3393	5.4545	0.1	429.32
28589	1.25	5.7273	0.1	113.14
28590	1.3393	5.6364	0.1	217.25
28591	1.3393	5.8182	0.1	19.381
28592	1.25	5.9091	0.1	-0.17038
28593	1.4286	0.27273	0.1	105.58
28594	1.5179	0.18182	0.1	20.565
28595	1.4286	9.0909e-002	0.1	3.4069e-002
28596	1.4286	0.45455	0.1	304.31
28597	1.5179	0.36364	0.1	195.68
28598	1.4286	0.63636	0.1	502.4
28599	1.5179	0.54545	0.1	381.08
28600	1.4286	0.81818	0.1	697.79
28601	1.5179	0.72727	0.1	568.45
28602	1.4286	1.	0.1	883.46
28603	1.5179	0.90909	0.1	751.37
28604	1.4286	1.1818	0.1	1054.
28605	1.5179	1.0909	0.1	923.74
28606	1.4286	1.3636	0.1	1206.3
28607	1.5179	1.2727	0.1	1081.4
28608	1.4286	1.5455	0.1	1339.3
28609	1.5179	1.4545	0.1	1222.1
28610	1.4286	1.7273	0.1	1453.2
28611	1.5179	1.6364	0.1	1345.1
28612	1.4286	1.9091	0.1	1548.9
28613	1.5179	1.8182	0.1	1450.5
28614	1.4286	2.0909	0.1	1627.5
28615	1.5179	2.	0.1	1538.8
28616	1.4286	2.2727	0.1	1690.2
28617	1.5179	2.1818	0.1	1611.
28618	1.4286	2.4545	0.1	1737.9
28619	1.5179	2.3636	0.1	1667.7
28620	1.4286	2.6364	0.1	1771.5
28621	1.5179	2.5455	0.1	1709.7
28622	1.4286	2.8182	0.1	1791.5
28623	1.5179	2.7273	0.1	1737.5
28624	1.4286	3.	0.1	1798.1
28625	1.5179	2.9091	0.1	1751.2
28626	1.4286	3.1818	0.1	1791.5
28627	1.5179	3.0909	0.1	1751.2
28628	1.4286	3.3636	0.1	1771.5
28629	1.5179	3.2727	0.1	1737.5
28630	1.4286	3.5455	0.1	1737.9
28631	1.5179	3.4545	0.1	1709.7
28632	1.4286	3.7273	0.1	1690.2
28633	1.5179	3.6364	0.1	1667.7
28634	1.4286	3.9091	0.1	1627.5
28635	1.5179	3.8182	0.1	1611.
28636	1.4286	4.0909	0.1	1548.9
28637	1.5179	4.	0.1	1538.8
28638	1.4286	4.2727	0.1	1453.2
28639	1.5179	4.1818	0.1	1450.5
28640	1.4286	4.4545	0.1	1339.3
28641	1.5179	4.3636	0.1	1345.1
28642	1.4286	4.6364	0.1	1206.3
28643	1.5179	4.5455	0.1	1222.1
28644	1.4286	4.8182	0.1	1054.
28645	1.5179	4.7273	0.1	1081.4
28646	1.4286	5.	0.1	883.46
28647	1.5179	4.9091	0.1	923.74
28648	1.4286	5.1818	0.1	697.79
28649	1.5179	5.0909	0.1	751.37
28650	1.4286	5.3636	0.1	502.4
28651	1.5179	5.2727	0.1	568.45
28652	1.4286	5.5455	0.1	304.31
28653	1.5179	5.4545	0.1	381.08
28654	1.4286	5.7273	0.1	105.58
28655	1.5179	5.6364	0.1	195.68
28656	1.5179	5.8182	0.1	20.565
28657	1.4286	5.9091	0.1	3.4064e-002
28658	1.6071	0.27273	0.1	97.822
28659	1.6964	0.18182	0.1	20.968
28660	1.6071	9.0909e-002	0.1	0.17552
28661	1.6071	0.45455	0.1	271.97
28662	1.6964	0.36364	0.1	175.82
28663	1.6071	0.63636	0.1	446.9
28664	1.6964	0.54545	0.1	339.01
28665	1.6071	0.81818	0.1	621.99
28666	1.6964	0.72727	0.1	505.78
28667	1.6071	1.	0.1	791.78
28668	1.6964	0.90909	0.1	671.41
28669	1.6071	1.1818	0.1	951.43
28670	1.6964	1.0909	0.1	830.8
28671	1.6071	1.3636	0.1	1097.6
28672	1.6964	1.2727	0.1	979.98
28673	1.6071	1.5455	0.1	1228.3
28674	1.6964	1.4545	0.1	1116.2
28675	1.6071	1.7273	0.1	1342.7
28676	1.6964	1.6364	0.1	1237.9
28677	1.6071	1.9091	0.1	1440.8
28678	1.6964	1.8182	0.1	1344.3
28679	1.6071	2.0909	0.1	1522.7
28680	1.6964	2.	0.1	1435.1
28681	1.6071	2.2727	0.1	1588.9
28682	1.6964	2.1818	0.1	1510.3
28683	1.6071	2.4545	0.1	1639.8
28684	1.6964	2.3636	0.1	1570.1
28685	1.6071	2.6364	0.1	1675.9
28686	1.6964	2.5455	0.1	1614.8
28687	1.6071	2.8182	0.1	1697.5
28688	1.6964	2.7273	0.1	1644.5
28689	1.6071	3.	0.1	1704.7
28690	1.6964	2.9091	0.1	1659.3
28691	1.6071	3.1818	0.1	1697.5
28692	1.6964	3.0909	0.1	1659.3
28693	1.6071	3.3636	0.1	1675.9
28694	1.6964	3.2727	0.1	1644.5
28695	1.6071	3.5455	0.1	1639.8
28696	1.6964	3.4545	0.1	1614.8
28697	1.6071	3.7273	0.1	1588.9
28698	1.6964	3.6364	0.1	1570.1
28699	1.6071	3.9091	0.1	1522.7
28700	1.6964	3.8182	0.1	1510.3
28701	1.6071	4.0909	0.1	1440.8
28702	1.6964	4.	0.1	1435.1
28703	1.6071	4.2727	0.1	1342.7
28704	1.6964	4.1818	0.1	1344.3
28705	1.6071	4.4545	0.1	1228.3
28706	1.6964	4.3636	0.1	1237.9
28707	1.6071	4.6364	0.1	1097.6
28708	1.6964	4.5455	0.1	1116.2
28709	1.6071	4.8182	0.1	951.43
28710	1.6964	4.7273	0.1	979.98
28711	1.6071	5.	0.1	791.78
28712	1.6964	4.9091	0.1	830.8
28713	1.6071	5.1818	0.1	621.99
28714	1.6964	5.0909	0.1	671.41
28715	1.6071	5.3636	0.1	446.9
28716	1.6964	5.2727	0.1	505.78
28717	1.6071	5.5455	0.1	271.97
28718	1.6964	5.4545	0.1	339.01
28719	1.6071	5.7273	0.1	97.821
28720	1.6964	5.6364	0.1	175.82
28721	1.6964	5.8182	0.1	20.968
28722	1.6071	5.9091	0.1	0.17552
28723	1.7857	0.27273	0.1	89.308
28724	1.875	0.18182	0.1	20.227
28725	1.7857	9.0909e-002	0.1	0.30195
28726	1.7857	0.45455	0.1	242.46
28727	1.875	0.36364	0.1	156.47
28728	1.7857	0.63636	0.1	397.69
28729	1.875	0.54545	0.1	300.58
28730	1.7857	0.81818	0.1	555.13
28731	1.875	0.72727	0.1	449.57
28732	1.7857	1.	0.1	710.49
28733	1.875	0.90909	0.1	599.86
28734	1.7857	1.1818	0.1	859.52
28735	1.875	1.0909	0.1	747.19
28736	1.7857	1.3636	0.1	998.89
28737	1.875	1.2727	0.1	887.88
28738	1.7857	1.5455	0.1	1126.2
28739	1.875	1.4545	0.1	1019.
28740	1.7857	1.7273	0.1	1239.8
28741	1.875	1.6364	0.1	1138.5
28742	1.7857	1.9091	0.1	1338.9
28743	1.875	1.8182	0.1	1244.8
28744	1.7857	2.0909	0.1	1423.
28745	1.875	2.	0.1	1337.
28746	1.7857	2.2727	0.1	1491.9
28747	1.875	2.1818	0.1	1414.4
28748	1.7857	2.4545	0.1	1545.4
28749	1.875	2.3636	0.1	1476.6
28750	1.7857	2.6364	0.1	1583.6
28751	1.875	2.5455	0.1	1523.5
28752	1.7857	2.8182	0.1	1606.5
28753	1.875	2.7273	0.1	1554.8
28754	1.7857	3.	0.1	1614.1
28755	1.875	2.9091	0.1	1570.5
28756	1.7857	3.1818	0.1	1606.5
28757	1.875	3.0909	0.1	1570.5
28758	1.7857	3.3636	0.1	1583.6
28759	1.875	3.2727	0.1	1554.8
28760	1.7857	3.5455	0.1	1545.4
28761	1.875	3.4545	0.1	1523.5
28762	1.7857	3.7273	0.1	1491.9
28763	1.875	3.6364	0.1	1476.6
28764	1.7857	3.9091	0.1	1423.
28765	1.875	3.8182	0.1	1414.4
28766	1.7857	4.0909	0.1	1338.9
28767	1.875	4.	0.1	1337.
28768	1.7857	4.2727	0.1	1239.8
28769	1.875	4.1818	0.1	1244.8
28770	1.7857	4.4545	0.1	1126.2
28771	1.875	4.3636	0.1	1138.5
28772	1.7857	4.6364	0.1	998.89
28773	1.875	4.5455	0.1	1019.
28774	1.7857	4.8182	0.1	859.52
28775	1.875	4.7273	0.1	887.88
28776	1.7857	5.	0.1	710.49
28777	1.875	4.9091	0.1	747.19
28778	1.7857	5.1818	0.1	555.13
28779	1.875	5.0909	0.1	599.86
28780	1.7857	5.3636	0.1	397.69
28781	1.875	5.2727	0.1	449.57
28782	1.7857	5.5455	0.1	242.46
28783	1.875	5.4545	0.1	300.58
28784	1.7857	5.7273	0.1	89.307
28785	1.875	5.6364	0.1	156.47
28786	1.875	5.8182	0.1	20.227
28787	1.7857	5.9091	0.1	0.30194
28788	1.9643	0.27273	0.1	79.635
28789	2.0536	0.18182	0.1	18.149
28790	1.9643	9.0909e-002	0.1	0.25753
28791	1.9643	0.45455	0.1	214.28
28792	2.0536	0.36364	0.1	136.88
28793	1.9643	0.63636	0.1	352.3
28794	2.0536	0.54545	0.1	264.08
28795	1.9643	0.81818	0.1	494.24
28796	2.0536	0.72727	0.1	397.42
28797	1.9643	1.	0.1	636.59
28798	2.0536	0.90909	0.1	534.04
28799	1.9643	1.1818	0.1	775.66
28800	2.0536	1.0909	0.1	670.33
28801	1.9643	1.3636	0.1	908.2
28802	2.0536	1.2727	0.1	802.92
28803	1.9643	1.5455	0.1	1031.6
28804	2.0536	1.4545	0.1	928.83
28805	1.9643	1.7273	0.1	1143.7
28806	2.0536	1.6364	0.1	1045.6
28807	1.9643	1.9091	0.1	1243.1
28808	2.0536	1.8182	0.1	1151.3
28809	1.9643	2.0909	0.1	1328.6
28810	2.0536	2.	0.1	1244.2
28811	1.9643	2.2727	0.1	1399.5
28812	2.0536	2.1818	0.1	1323.3
28813	1.9643	2.4545	0.1	1455.1
28814	2.0536	2.3636	0.1	1387.5
28815	1.9643	2.6364	0.1	1495.
28816	2.0536	2.5455	0.1	1436.3
28817	1.9643	2.8182	0.1	1519.1
28818	2.0536	2.7273	0.1	1469.
28819	1.9643	3.	0.1	1527.1
28820	2.0536	2.9091	0.1	1485.5
28821	1.9643	3.1818	0.1	1519.1
28822	2.0536	3.0909	0.1	1485.5
28823	1.9643	3.3636	0.1	1495.
28824	2.0536	3.2727	0.1	1469.
28825	1.9643	3.5455	0.1	1455.1
28826	2.0536	3.4545	0.1	1436.3
28827	1.9643	3.7273	0.1	1399.5
28828	2.0536	3.6364	0.1	1387.5
28829	1.9643	3.9091	0.1	1328.6
28830	2.0536	3.8182	0.1	1323.3
28831	1.9643	4.0909	0.1	1243.1
28832	2.0536	4.	0.1	1244.2
28833	1.9643	4.2727	0.1	1143.7
28834	2.0536	4.1818	0.1	1151.3
28835	1.9643	4.4545	0.1	1031.6
28836	2.0536	4.3636	0.1	1045.6
28837	1.9643	4.6364	0.1	908.2
28838	2.0536	4.5455	0.1	928.83
28839	1.9643	4.8182	0.1	775.66
28840	2.0536	4.7273	0.1	802.92
28841	1.9643	5.	0.1	636.59
28842	2.0536	4.9091	0.1	670.33
28843	1.9643	5.1818	0.1	494.24
28844	2.0536	5.0909	0.1	534.04
28845	1.9643	5.3636	0.1	352.3
28846	2.0536	5.2727	0.1	397.42
28847	1.9643	5.5455	0.1	214.27
28848	2.0536	5.4545	0.1	264.08
28849	1.9643	5.7273	0.1	79.635
28850	2.0536	5.6364	0.1	136.88
28851	2.0536	5.8182	0.1	18.149
28852	1.9643	5.9091	0.1	0.25751
28853	2.1429	0.27273	0.1	68.583
28854	2.2321	0.18182	0.1	14.806
28855	2.1429	9.0909e-002	0.1	-8.0516e-002
28856	2.1429	0.45455	0.1	186.43
28857	2.2321	0.36364	0.1	116.52
28858	2.1429	0.63636	0.1	309.08
28859	2.2321	0.54545	0.1	228.36
28860	2.1429	0.81818	0.1	437.16
28861	2.2321	0.72727	0.1	347.6
28862	2.1429	1.	0.1	567.8
28863	2.2321	0.90909	0.1	471.9
28864	2.1429	1.1818	0.1	697.68
28865	2.2321	1.0909	0.1	598.14
28866	2.1429	1.3636	0.1	823.71
28867	2.2321	1.2727	0.1	723.19
28868	2.1429	1.5455	0.1	943.09
28869	2.2321	1.4545	0.1	844.09
28870	2.1429	1.7273	0.1	1053.4
28871	2.2321	1.6364	0.1	958.14
28872	2.1429	1.9091	0.1	1152.7
28873	2.2321	1.8182	0.1	1063.
28874	2.1429	2.0909	0.1	1239.2
28875	2.2321	2.	0.1	1156.5
28876	2.1429	2.2727	0.1	1311.7
28877	2.2321	2.1818	0.1	1236.9
28878	2.1429	2.4545	0.1	1369.1
28879	2.2321	2.3636	0.1	1302.9
28880	2.1429	2.6364	0.1	1410.6
28881	2.2321	2.5455	0.1	1353.3
28882	2.1429	2.8182	0.1	1435.7
28883	2.2321	2.7273	0.1	1387.3
28884	2.1429	3.	0.1	1444.1
28885	2.2321	2.9091	0.1	1404.4
28886	2.1429	3.1818	0.1	1435.7
28887	2.2321	3.0909	0.1	1404.4
28888	2.1429	3.3636	0.1	1410.6
28889	2.2321	3.2727	0.1	1387.3
28890	2.1429	3.5455	0.1	1369.1
28891	2.2321	3.4545	0.1	1353.3
28892	2.1429	3.7273	0.1	1311.7
28893	2.2321	3.6364	0.1	1302.9
28894	2.1429	3.9091	0.1	1239.2
28895	2.2321	3.8182	0.1	1236.9
28896	2.1429	4.0909	0.1	1152.7
28897	2.2321	4.	0.1	1156.5
28898	2.1429	4.2727	0.1	1053.4
28899	2.2321	4.1818	0.1	1063.
28900	2.1429	4.4545	0.1	943.09
28901	2.2321	4.3636	0.1	958.14
28902	2.1429	4.6364	0.1	823.71
28903	2.2321	4.5455	0.1	844.09
28904	2.1429	4.8182	0.1	697.68
28905	2.2321	4.7273	0.1	723.19
28906	2.1429	5.	0.1	567.8
28907	2.2321	4.9091	0.1	598.14
28908	2.1429	5.1818	0.1	437.16
28909	2.2321	5.0909	0.1	471.9
28910	2.1429	5.3636	0.1	309.08
28911	2.2321	5.2727	0.1	347.6
28912	2.1429	5.5455	0.1	186.43
28913	2.2321	5.4545	0.1	228.36
28914	2.1429	5.7273	0.1	68.583
28915	2.2321	5.6364	0.1	116.52
28916	2.2321	5.8182	0.1	14.806
28917	2.1429	5.9091	0.1	-8.0525e-002
28918	2.3214	0.27273	0.1	56.037
28919	2.4107	0.18182	0.1	10.633
28920	2.3214	9.0909e-002	0.1	-0.43167
28921	2.3214	0.45455	0.1	158.25
28922	2.4107	0.36364	0.1	95.089
28923	2.3214	0.63636	0.1	266.8
28924	2.4107	0.54545	0.1	192.6
28925	2.3214	0.81818	0.1	382.31
28926	2.4107	0.72727	0.1	298.87
28927	2.3214	1.	0.1	502.27
28928	2.4107	0.90909	0.1	411.89
28929	2.3214	1.1818	0.1	623.73
28930	2.4107	1.0909	0.1	528.9
28931	2.3214	1.3636	0.1	743.71
28932	2.4107	1.2727	0.1	647.
28933	2.3214	1.5455	0.1	859.33
28934	2.4107	1.4545	0.1	763.25
28935	2.3214	1.7273	0.1	967.9
28936	2.4107	1.6364	0.1	874.78
28937	2.3214	1.9091	0.1	1067.
28938	2.4107	1.8182	0.1	978.85
28939	2.3214	2.0909	0.1	1154.4
28940	2.4107	2.	0.1	1072.9
28941	2.3214	2.2727	0.1	1228.4
28942	2.4107	2.1818	0.1	1154.7
28943	2.3214	2.4545	0.1	1287.4
28944	2.4107	2.3636	0.1	1222.4
28945	2.3214	2.6364	0.1	1330.3
28946	2.4107	2.5455	0.1	1274.4
28947	2.3214	2.8182	0.1	1356.4
28948	2.4107	2.7273	0.1	1309.6
28949	2.3214	3.	0.1	1365.1
28950	2.4107	2.9091	0.1	1327.4
28951	2.3214	3.1818	0.1	1356.4
28952	2.4107	3.0909	0.1	1327.4
28953	2.3214	3.3636	0.1	1330.3
28954	2.4107	3.2727	0.1	1309.6
28955	2.3214	3.5455	0.1	1287.4
28956	2.4107	3.4545	0.1	1274.4
28957	2.3214	3.7273	0.1	1228.4
28958	2.4107	3.6364	0.1	1222.4
28959	2.3214	3.9091	0.1	1154.4
28960	2.4107	3.8182	0.1	1154.7
28961	2.3214	4.0909	0.1	1067.
28962	2.4107	4.	0.1	1072.9
28963	2.3214	4.2727	0.1	967.9
28964	2.4107	4.1818	0.1	978.85
28965	2.3214	4.4545	0.1	859.33
28966	2.4107	4.3636	0.1	874.78
28967	2.3214	4.6364	0.1	743.71
28968	2.4107	4.5455	0.1	763.25
28969	2.3214	4.8182	0.1	623.73
28970	2.4107	4.7273	0.1	647.
28971	2.3214	5.	0.1	502.27
28972	2.4107	4.9091	0.1	528.9
28973	2.3214	5.1818	0.1	382.31
28974	2.4107	5.0909	0.1	411.89
28975	2.3214	5.3636	0.1	266.8
28976	2.4107	5.2727	0.1	298.87
28977	2.3214	5.5455	0.1	158.25
28978	2.4107	5.4545	0.1	192.6
28979	2.3214	5.7273	0.1	56.037
28980	2.4107	5.6364	0.1	95.089
28981	2.4107	5.8182	0.1	10.633
28982	2.3214	5.9091	0.1	-0.43167
28983	2.5	0.27273	0.1	42.008
28984	2.5893	0.18182	0.1	6.5877
28985	2.5	9.0909e-002	0.1	-0.50337
28986	2.5	0.45455	0.1	129.28
28987	2.5893	0.36364	0.1	72.424
28988	2.5	0.63636	0.1	224.62
28989	2.5893	0.54545	0.1	156.27
28990	2.5	0.81818	0.1	328.44
28991	2.5893	0.72727	0.1	250.32
28992	2.5	1.	0.1	438.55
28993	2.5893	0.90909	0.1	352.76
28994	2.5	1.1818	0.1	552.24
28995	2.5893	1.0909	0.1	461.15
28996	2.5	1.3636	0.1	666.66
28997	2.5893	1.2727	0.1	572.79
28998	2.5	1.5455	0.1	778.88
28999	2.5893	1.4545	0.1	684.81
29000	2.5	1.7273	0.1	885.95
29001	2.5893	1.6364	0.1	794.18
29002	2.5	1.9091	0.1	985.03
29003	2.5893	1.8182	0.1	897.8
29004	2.5	2.0909	0.1	1073.5
29005	2.5893	2.	0.1	992.67
29006	2.5	2.2727	0.1	1149.
29007	2.5893	2.1818	0.1	1076.
29008	2.5	2.4545	0.1	1209.7
29009	2.5893	2.3636	0.1	1145.4
29010	2.5	2.6364	0.1	1254.
29011	2.5893	2.5455	0.1	1199.1
29012	2.5	2.8182	0.1	1281.
29013	2.5893	2.7273	0.1	1235.5
29014	2.5	3.	0.1	1290.
29015	2.5893	2.9091	0.1	1254.
29016	2.5	3.1818	0.1	1281.
29017	2.5893	3.0909	0.1	1254.
29018	2.5	3.3636	0.1	1254.
29019	2.5893	3.2727	0.1	1235.5
29020	2.5	3.5455	0.1	1209.7
29021	2.5893	3.4545	0.1	1199.1
29022	2.5	3.7273	0.1	1149.
29023	2.5893	3.6364	0.1	1145.4
29024	2.5	3.9091	0.1	1073.5
29025	2.5893	3.8182	0.1	1076.
29026	2.5	4.0909	0.1	985.03
29027	2.5893	4.	0.1	992.67
29028	2.5	4.2727	0.1	885.95
29029	2.5893	4.1818	0.1	897.8
29030	2.5	4.4545	0.1	778.88
29031	2.5893	4.3636	0.1	794.18
29032	2.5	4.6364	0.1	666.66
29033	2.5893	4.5455	0.1	684.81
29034	2.5	4.8182	0.1	552.24
29035	2.5893	4.7273	0.1	572.79
29036	2.5	5.	0.1	438.55
29037	2.5893	4.9091	0.1	461.15
29038	2.5	5.1818	0.1	328.44
29039	2.5893	5.0909	0.1	352.76
29040	2.5	5.3636	0.1	224.62
29041	2.5893	5.2727	0.1	250.32
29042	2.5	5.5455	0.1	129.28
29043	2.5893	5.4545	0.1	156.27
29044	2.5	5.7273	0.1	42.008
29045	2.5893	5.6364	0.1	72.424
29046	2.5893	5.8182	0.1	6.5877
29047	2.5	5.9091	0.1	-0.50337
29048	2.6786	0.27273	0.1	26.808
29049	2.7679	0.18182	0.1	3.7074
29050	2.6786	9.0909e-002	0.1	-0.44921
29051	2.6786	0.45455	0.1	99.253
29052	2.7679	0.36364	0.1	48.612
29053	2.6786	0.63636	0.1	181.93
29054	2.7679	0.54545	0.1	119.07
29055	2.6786	0.81818	0.1	274.63
29056	2.7679	0.72727	0.1	201.29
29057	2.6786	1.	0.1	375.38
29058	2.7679	0.90909	0.1	293.5
29059	2.6786	1.1818	0.1	481.76
29060	2.7679	1.0909	0.1	393.57
29061	2.6786	1.3636	0.1	591.05
29062	2.7679	1.2727	0.1	499.06
29063	2.6786	1.5455	0.1	700.26
29064	2.7679	1.4545	0.1	607.2
29065	2.6786	1.7273	0.1	806.23
29066	2.7679	1.6364	0.1	714.8
29067	2.6786	1.9091	0.1	905.68
29068	2.7679	1.8182	0.1	818.43
29069	2.6786	2.0909	0.1	995.47
29070	2.7679	2.	0.1	914.55
29071	2.6786	2.2727	0.1	1072.8
29072	2.7679	2.1818	0.1	999.77
29073	2.6786	2.4545	0.1	1135.2
29074	2.7679	2.3636	0.1	1071.2
29075	2.6786	2.6364	0.1	1181.
29076	2.7679	2.5455	0.1	1126.6
29077	2.6786	2.8182	0.1	1208.9
29078	2.7679	2.7273	0.1	1164.2
29079	2.6786	3.	0.1	1218.3
29080	2.7679	2.9091	0.1	1183.3
29081	2.6786	3.1818	0.1	1208.9
29082	2.7679	3.0909	0.1	1183.3
29083	2.6786	3.3636	0.1	1181.
29084	2.7679	3.2727	0.1	1164.2
29085	2.6786	3.5455	0.1	1135.2
29086	2.7679	3.4545	0.1	1126.6
29087	2.6786	3.7273	0.1	1072.8
29088	2.7679	3.6364	0.1	1071.2
29089	2.6786	3.9091	0.1	995.47
29090	2.7679	3.8182	0.1	999.77
29091	2.6786	4.0909	0.1	905.68
29092	2.7679	4.	0.1	914.55
29093	2.6786	4.2727	0.1	806.23
29094	2.7679	4.1818	0.1	818.43
29095	2.6786	4.4545	0.1	700.26
29096	2.7679	4.3636	0.1	714.8
29097	2.6786	4.6364	0.1	591.05
29098	2.7679	4.5455	0.1	607.2
29099	2.6786	4.8182	0.1	481.76
29100	2.7679	4.7273	0.1	499.06
29101	2.6786	5.	0.1	375.38
29102	2.7679	4.9091	0.1	393.57
29103	2.6786	5.1818	0.1	274.63
29104	2.7679	5.0909	0.1	293.5
29105	2.6786	5.3636	0.1	181.93
29106	2.7679	5.2727	0.1	201.29
29107	2.6786	5.5455	0.1	99.253
29108	2.7679	5.4545	0.1	119.07
29109	2.6786	5.7273	0.1	26.808
29110	2.7679	5.6364	0.1	48.612
29111	2.7679	5.8182	0.1	3.7074
29112	2.6786	5.9091	0.1	-0.44921
29113	2.8571	0.27273	0.1	12.129
29114	2.9464	0.18182	0.1	2.1022
29115	2.8571	9.0909e-002	0.1	-0.36971
29116	2.8571	0.45455	0.1	68.187
29117	2.9464	0.36364	0.1	24.498
29118	2.8571	0.63636	0.1	138.38
29119	2.9464	0.54545	0.1	81.018
29120	2.8571	0.81818	0.1	220.13
29121	2.9464	0.72727	0.1	151.37
29122	2.8571	1.	0.1	311.67
29123	2.9464	0.90909	0.1	233.26
29124	2.8571	1.1818	0.1	410.89
29125	2.9464	1.0909	0.1	324.89
29126	2.8571	1.3636	0.1	515.27
29127	2.9464	1.2727	0.1	424.2
29128	2.8571	1.5455	0.1	621.85
29129	2.9464	1.4545	0.1	528.6
29130	2.8571	1.7273	0.1	727.18
29131	2.9464	1.6364	0.1	634.85
29132	2.8571	1.9091	0.1	827.52
29133	2.9464	1.8182	0.1	739.06
29134	2.8571	2.0909	0.1	919.12
29135	2.9464	2.	0.1	837.02
29136	2.8571	2.2727	0.1	998.53
29137	2.9464	2.1818	0.1	924.64
29138	2.8571	2.4545	0.1	1062.9
29139	2.9464	2.3636	0.1	998.36
29140	2.8571	2.6364	0.1	1110.2
29141	2.9464	2.5455	0.1	1055.5
29142	2.8571	2.8182	0.1	1139.1
29143	2.9464	2.7273	0.1	1094.4
29144	2.8571	3.	0.1	1148.8
29145	2.9464	2.9091	0.1	1114.
29146	2.8571	3.1818	0.1	1139.1
29147	2.9464	3.0909	0.1	1114.
29148	2.8571	3.3636	0.1	1110.2
29149	2.9464	3.2727	0.1	1094.4
29150	2.8571	3.5455	0.1	1062.9
29151	2.9464	3.4545	0.1	1055.5
29152	2.8571	3.7273	0.1	998.53
29153	2.9464	3.6364	0.1	998.36
29154	2.8571	3.9091	0.1	919.12
29155	2.9464	3.8182	0.1	924.64
29156	2.8571	4.0909	0.1	827.52
29157	2.9464	4.	0.1	837.02
29158	2.8571	4.2727	0.1	727.18
29159	2.9464	4.1818	0.1	739.06
29160	2.8571	4.4545	0.1	621.85
29161	2.9464	4.3636	0.1	634.85
29162	2.8571	4.6364	0.1	515.27
29163	2.9464	4.5455	0.1	528.6
29164	2.8571	4.8182	0.1	410.89
29165	2.9464	4.7273	0.1	424.2
29166	2.8571	5.	0.1	311.67
29167	2.9464	4.9091	0.1	324.89
29168	2.8571	5.1818	0.1	220.13
29169	2.9464	5.0909	0.1	233.26
29170	2.8571	5.3636	0.1	138.38
29171	2.9464	5.2727	0.1	151.37
29172	2.8571	5.5455	0.1	68.187
29173	2.9464	5.4545	0.1	81.018
29174	2.8571	5.7273	0.1	12.129
29175	2.9464	5.6364	0.1	24.498
29176	2.9464	5.8182	0.1	2.1022
29177	2.8571	5.9091	0.1	-0.36971
29178	3.0357	0.27273	0.1	3.9617
29179	3.125	0.18182	0.1	1.2755
29180	3.0357	9.0909e-002	0.1	-0.29079
29181	3.0357	0.45455	0.1	36.713
29182	3.125	0.36364	0.1	6.5073
29183	3.0357	0.63636	0.1	93.912
29184	3.125	0.54545	0.1	42.882
29185	3.0357	0.81818	0.1	164.4
29186	3.125	0.72727	0.1	100.48
29187	3.0357	1.	0.1	246.37
29188	3.125	0.90909	0.1	171.3
29189	3.0357	1.1818	0.1	338.12
29190	3.125	1.0909	0.1	253.73
29191	3.0357	1.3636	0.1	437.49
29192	3.125	1.2727	0.1	346.28
29193	3.0357	1.5455	0.1	541.63
29194	3.125	1.4545	0.1	446.78
29195	3.0357	1.7273	0.1	646.83
29196	3.125	1.6364	0.1	551.96
29197	3.0357	1.9091	0.1	748.73
29198	3.125	1.8182	0.1	657.43
29199	3.0357	2.0909	0.1	842.79
29200	3.125	2.	0.1	758.07
29201	3.0357	2.2727	0.1	924.79
29202	3.125	2.1818	0.1	848.75
29203	3.0357	2.4545	0.1	991.36
29204	3.125	2.3636	0.1	925.13
29205	3.0357	2.6364	0.1	1040.2
29206	3.125	2.5455	0.1	984.12
29207	3.0357	2.8182	0.1	1069.9
29208	3.125	2.7273	0.1	1024.
29209	3.0357	3.	0.1	1079.8
29210	3.125	2.9091	0.1	1044.1
29211	3.0357	3.1818	0.1	1069.9
29212	3.125	3.0909	0.1	1044.1
29213	3.0357	3.3636	0.1	1040.2
29214	3.125	3.2727	0.1	1024.
29215	3.0357	3.5455	0.1	991.36
29216	3.125	3.4545	0.1	984.12
29217	3.0357	3.7273	0.1	924.79
29218	3.125	3.6364	0.1	925.13
29219	3.0357	3.9091	0.1	842.79
29220	3.125	3.8182	0.1	848.75
29221	3.0357	4.0909	0.1	748.73
29222	3.125	4.	0.1	758.07
29223	3.0357	4.2727	0.1	646.83
29224	3.125	4.1818	0.1	657.43
29225	3.0357	4.4545	0.1	541.63
29226	3.125	4.3636	0.1	551.96
29227	3.0357	4.6364	0.1	437.5
29228	3.125	4.5455	0.1	446.78
29229	3.0357	4.8182	0.1	338.12
29230	3.125	4.7273	0.1	346.28
29231	3.0357	5.	0.1	246.37
29232	3.125	4.9091	0.1	253.73
29233	3.0357	5.1818	0.1	164.4
29234	3.125	5.0909	0.1	171.3
29235	3.0357	5.3636	0.1	93.912
29236	3.125	5.2727	0.1	100.48
29237	3.0357	5.5455	0.1	36.713
29238	3.125	5.4545	0.1	42.882
29239	3.0357	5.7273	0.1	3.9617
29240	3.125	5.6364	0.1	6.5073
29241	3.125	5.8182	0.1	1.2755
29242	3.0357	5.9091	0.1	-0.29079
29243	3.2143	0.27273	0.1	1.8434
29244	3.3036	0.18182	0.1	0.84937
29245	3.2143	9.0909e-002	0.1	-0.21913
29246	3.2143	0.45455	0.1	10.254
29247	3.3036	0.36364	0.1	2.3752
29248	3.2143	0.63636	0.1	49.288
29249	3.3036	0.54545	0.1	11.439
29250	3.2143	0.81818	0.1	107.16
29251	3.3036	0.72727	0.1	49.593
29252	3.2143	1.	0.1	178.37
29253	3.3036	0.90909	0.1	107.08
29254	3.2143	1.1818	0.1	261.61
29255	3.3036	1.0909	0.1	178.45
29256	3.2143	1.3636	0.1	355.34
29257	3.3036	1.2727	0.1	262.79
29258	3.2143	1.5455	0.1	456.97
29259	3.3036	1.4545	0.1	358.63
29260	3.2143	1.7273	0.1	562.53
29261	3.3036	1.6364	0.1	462.86
29262	3.2143	1.9091	0.1	666.86
29263	3.3036	1.8182	0.1	570.46
29264	3.2143	2.0909	0.1	764.25
29265	3.3036	2.	0.1	674.93
29266	3.2143	2.2727	0.1	849.43
29267	3.3036	2.1818	0.1	769.62
29268	3.2143	2.4545	0.1	918.35
29269	3.3036	2.3636	0.1	849.02
29270	3.2143	2.6364	0.1	968.54
29271	3.3036	2.5455	0.1	909.68
29272	3.2143	2.8182	0.1	998.86
29273	3.3036	2.7273	0.1	950.15
29274	3.2143	3.	0.1	1009.
29275	3.3036	2.9091	0.1	970.28
29276	3.2143	3.1818	0.1	998.86
29277	3.3036	3.0909	0.1	970.28
29278	3.2143	3.3636	0.1	968.54
29279	3.3036	3.2727	0.1	950.15
29280	3.2143	3.5455	0.1	918.35
29281	3.3036	3.4545	0.1	909.68
29282	3.2143	3.7273	0.1	849.43
29283	3.3036	3.6364	0.1	849.02
29284	3.2143	3.9091	0.1	764.25
29285	3.3036	3.8182	0.1	769.62
29286	3.2143	4.0909	0.1	666.86
29287	3.3036	4.	0.1	674.93
29288	3.2143	4.2727	0.1	562.53
29289	3.3036	4.1818	0.1	570.46
29290	3.2143	4.4545	0.1	456.97
29291	3.3036	4.3636	0.1	462.86
29292	3.2143	4.6364	0.1	355.34
29293	3.3036	4.5455	0.1	358.63
29294	3.2143	4.8182	0.1	261.61
29295	3.3036	4.7273	0.1	262.79
29296	3.2143	5.	0.1	178.38
29297	3.3036	4.9091	0.1	178.45
29298	3.2143	5.1818	0.1	107.16
29299	3.3036	5.0909	0.1	107.08
29300	3.2143	5.3636	0.1	49.288
29301	3.3036	5.2727	0.1	49.594
29302	3.2143	5.5455	0.1	10.254
29303	3.3036	5.4545	0.1	11.439
29304	3.2143	5.7273	0.1	1.8434
29305	3.3036	5.6364	0.1	2.3752
29306	3.3036	5.8182	0.1	0.84938
29307	3.2143	5.9091	0.1	-0.21913
29308	3.3929	0.27273	0.1	1.218
29309	3.4821	0.18182	0.1	0.64338
29310	3.3929	9.0909e-002	0.1	-0.15737
29311	3.3929	0.45455	0.1	3.1096
29312	3.4821	0.36364	0.1	1.6093
29313	3.3929	0.63636	0.1	12.554
29314	3.4821	0.54545	0.1	3.5904
29315	3.3929	0.81818	0.1	49.412
29316	3.4821	0.72727	0.1	11.137
29317	3.3929	1.	0.1	106.66
29318	3.4821	0.90909	0.1	42.295
29319	3.3929	1.1818	0.1	179.02
29320	3.4821	1.0909	0.1	97.483
29321	3.3929	1.3636	0.1	265.5
29322	3.4821	1.2727	0.1	170.32
29323	3.3929	1.5455	0.1	364.07
29324	3.4821	1.4545	0.1	259.64
29325	3.3929	1.7273	0.1	470.52
29326	3.4821	1.6364	0.1	362.72
29327	3.3929	1.9091	0.1	578.46
29328	3.4821	1.8182	0.1	473.6
29329	3.3929	2.0909	0.1	680.43
29330	3.4821	2.	0.1	583.68
29331	3.3929	2.2727	0.1	769.55
29332	3.4821	2.1818	0.1	683.78
29333	3.3929	2.4545	0.1	840.9
29334	3.4821	2.3636	0.1	766.63
29335	3.3929	2.6364	0.1	892.05
29336	3.4821	2.5455	0.1	828.45
29337	3.3929	2.8182	0.1	922.47
29338	3.4821	2.7273	0.1	868.61
29339	3.3929	3.	0.1	932.53
29340	3.4821	2.9091	0.1	888.17
29341	3.3929	3.1818	0.1	922.47
29342	3.4821	3.0909	0.1	888.17
29343	3.3929	3.3636	0.1	892.05
29344	3.4821	3.2727	0.1	868.61
29345	3.3929	3.5455	0.1	840.9
29346	3.4821	3.4545	0.1	828.45
29347	3.3929	3.7273	0.1	769.55
29348	3.4821	3.6364	0.1	766.63
29349	3.3929	3.9091	0.1	680.43
29350	3.4821	3.8182	0.1	683.78
29351	3.3929	4.0909	0.1	578.46
29352	3.4821	4.	0.1	583.68
29353	3.3929	4.2727	0.1	470.52
29354	3.4821	4.1818	0.1	473.6
29355	3.3929	4.4545	0.1	364.07
29356	3.4821	4.3636	0.1	362.72
29357	3.3929	4.6364	0.1	265.5
29358	3.4821	4.5455	0.1	259.65
29359	3.3929	4.8182	0.1	179.02
29360	3.4821	4.7273	0.1	170.32
29361	3.3929	5.	0.1	106.66
29362	3.4821	4.9091	0.1	97.483
29363	3.3929	5.1818	0.1	49.412
29364	3.4821	5.0909	0.1	42.295
29365	3.3929	5.3636	0.1	12.554
29366	3.4821	5.2727	0.1	11.137
29367	3.3929	5.5455	0.1	3.1096
29368	3.4821	5.4545	0.1	3.5904
29369	3.3929	5.7273	0.1	1.218
29370	3.4821	5.6364	0.1	1.6093
29371	3.4821	5.8182	0.1	0.64338
29372	3.3929	5.9091	0.1	-0.15737
29373	3.5714	0.27273	0.1	1.0239
29374	3.6607	0.18182	0.1	0.59557
29375	3.5714	9.0909e-002	0.1	-0.1084
29376	3.5714	0.45455	0.1	2.0458
29377	3.6607	0.36364	0.1	1.4624
29378	3.5714	0.63636	0.1	3.9823
29379	3.6607	0.54545	0.1	2.4669
29380	3.5714	0.81818	0.1	9.735
29381	3.6607	0.72727	0.1	4.121
29382	3.5714	1.	0.1	34.293
29383	3.6607	0.90909	0.1	7.6686
29384	3.5714	1.1818	0.1	88.02
29385	3.6607	1.0909	0.1	20.974
29386	3.5714	1.3636	0.1	163.39
29387	3.6607	1.2727	0.1	66.519
29388	3.5714	1.5455	0.1	257.34
29389	3.6607	1.4545	0.1	143.64
29390	3.5714	1.7273	0.1	365.12
29391	3.6607	1.6364	0.1	244.2
29392	3.5714	1.9091	0.1	478.47
29393	3.6607	1.8182	0.1	359.98
29394	3.5714	2.0909	0.1	587.01
29395	3.6607	2.	0.1	478.6
29396	3.5714	2.2727	0.1	681.2
29397	3.6607	2.1818	0.1	586.43
29398	3.5714	2.4545	0.1	754.89
29399	3.6607	2.3636	0.1	673.29
29400	3.5714	2.6364	0.1	806.07
29401	3.6607	2.5455	0.1	735.21
29402	3.5714	2.8182	0.1	835.62
29403	3.6607	2.7273	0.1	773.45
29404	3.5714	3.	0.1	845.21
29405	3.6607	2.9091	0.1	791.34
29406	3.5714	3.1818	0.1	835.62
29407	3.6607	3.0909	0.1	791.34
29408	3.5714	3.3636	0.1	806.07
29409	3.6607	3.2727	0.1	773.45
29410	3.5714	3.5455	0.1	754.9
29411	3.6607	3.4545	0.1	735.21
29412	3.5714	3.7273	0.1	681.2
29413	3.6607	3.6364	0.1	673.29
29414	3.5714	3.9091	0.1	587.01
29415	3.6607	3.8182	0.1	586.43
29416	3.5714	4.0909	0.1	478.47
29417	3.6607	4.	0.1	478.6
29418	3.5714	4.2727	0.1	365.12
29419	3.6607	4.1818	0.1	359.98
29420	3.5714	4.4545	0.1	257.34
29421	3.6607	4.3636	0.1	244.2
29422	3.5714	4.6364	0.1	163.39
29423	3.6607	4.5455	0.1	143.64
29424	3.5714	4.8182	0.1	88.02
29425	3.6607	4.7273	0.1	66.519
29426	3.5714	5.	0.1	34.293
29427	3.6607	4.9091	0.1	20.974
29428	3.5714	5.1818	0.1	9.7351
29429	3.6607	5.0909	0.1	7.6687
29430	3.5714	5.3636	0.1	3.9823
29431	3.6607	5.2727	0.1	4.121
29432	3.5714	5.5455	0.1	2.0458
29433	3.6607	5.4545	0.1	2.4669
29434	3.5714	5.7273	0.1	1.0239
29435	3.6607	5.6364	0.1	1.4624
29436	3.6607	5.8182	0.1	0.59557
29437	3.5714	5.9091	0.1	-0.1084
29438	3.75	0.27273	0.1	1.0564
29439	3.8393	0.18182	0.1	0.72297
29440	3.75	9.0909e-002	0.1	-7.1619e-002
29441	3.75	0.45455	0.1	1.867
29442	3.8393	0.36364	0.1	1.5914
29443	3.75	0.63636	0.1	2.7964
29444	3.8393	0.54545	0.1	2.3109
29445	3.75	0.81818	0.1	4.068
29446	3.8393	0.72727	0.1	3.058
29447	3.75	1.	0.1	6.3477
29448	3.8393	0.90909	0.1	3.8838
29449	3.75	1.1818	0.1	13.366
29450	3.8393	1.0909	0.1	5.1738
29451	3.75	1.3636	0.1	48.218
29452	3.8393	1.2727	0.1	8.2982
29453	3.75	1.5455	0.1	129.19
29454	3.8393	1.4545	0.1	23.56
29455	3.75	1.7273	0.1	237.81
29456	3.8393	1.6364	0.1	98.511
29457	3.75	1.9091	0.1	359.34
29458	3.8393	1.8182	0.1	219.16
29459	3.75	2.0909	0.1	477.8
29460	3.8393	2.	0.1	351.12
29461	3.75	2.2727	0.1	578.89
29462	3.8393	2.1818	0.1	470.75
29463	3.75	2.4545	0.1	654.61
29464	3.8393	2.3636	0.1	562.51
29465	3.75	2.6364	0.1	704.16
29466	3.8393	2.5455	0.1	622.69
29467	3.75	2.8182	0.1	731.16
29468	3.8393	2.7273	0.1	656.43
29469	3.75	3.	0.1	739.6
29470	3.8393	2.9091	0.1	671.01
29471	3.75	3.1818	0.1	731.16
29472	3.8393	3.0909	0.1	671.01
29473	3.75	3.3636	0.1	704.16
29474	3.8393	3.2727	0.1	656.43
29475	3.75	3.5455	0.1	654.61
29476	3.8393	3.4545	0.1	622.69
29477	3.75	3.7273	0.1	578.89
29478	3.8393	3.6364	0.1	562.51
29479	3.75	3.9091	0.1	477.8
29480	3.8393	3.8182	0.1	470.75
29481	3.75	4.0909	0.1	359.34
29482	3.8393	4.	0.1	351.12
29483	3.75	4.2727	0.1	237.81
29484	3.8393	4.1818	0.1	219.16
29485	3.75	4.4545	0.1	129.19
29486	3.8393	4.3636	0.1	98.511
29487	3.75	4.6364	0.1	48.218
29488	3.8393	4.5455	0.1	23.56
29489	3.75	4.8182	0.1	13.366
29490	3.8393	4.7273	0.1	8.2983
29491	3.75	5.	0.1	6.3477
29492	3.8393	4.9091	0.1	5.1738
29493	3.75	5.1818	0.1	4.068
29494	3.8393	5.0909	0.1	3.8838
29495	3.75	5.3636	0.1	2.7964
29496	3.8393	5.2727	0.1	3.058
29497	3.75	5.5455	0.1	1.867
29498	3.8393	5.4545	0.1	2.3109
29499	3.75	5.7273	0.1	1.0564
29500	3.8393	5.6364	0.1	1.5914
29501	3.8393	5.8182	0.1	0.72297
29502	3.75	5.9091	0.1	-7.1618e-002
29503	3.9286	0.27273	0.1	1.3124
29504	4.0179	0.18182	0.1	1.156
29505	3.9286	9.0909e-002	0.1	-5.3103e-002
29506	3.9286	0.45455	0.1	2.041
29507	4.0179	0.36364	0.1	2.0163
29508	3.9286	0.63636	0.1	2.6204
29509	4.0179	0.54545	0.1	2.5733
29510	3.9286	0.81818	0.1	3.124
29511	4.0179	0.72727	0.1	2.9051
29512	3.9286	1.	0.1	3.6813
29513	4.0179	0.90909	0.1	3.1605
29514	3.9286	1.1818	0.1	4.5837
29515	4.0179	1.0909	0.1	3.5077
29516	3.9286	1.3636	0.1	6.6387
29517	4.0179	1.2727	0.1	4.1137
29518	3.9286	1.5455	0.1	15.059
29519	4.0179	1.4545	0.1	5.4538
29520	3.9286	1.7273	0.1	79.985
29521	4.0179	1.6364	0.1	9.8153
29522	3.9286	1.9091	0.1	209.71
29523	4.0179	1.8182	0.1	48.539
29524	3.9286	2.0909	0.1	343.6
29525	4.0179	2.	0.1	188.99
29526	3.9286	2.2727	0.1	454.87
29527	4.0179	2.1818	0.1	327.25
29528	3.9286	2.4545	0.1	532.12
29529	4.0179	2.3636	0.1	425.21
29530	3.9286	2.6364	0.1	577.42
29531	4.0179	2.5455	0.1	480.77
29532	3.9286	2.8182	0.1	599.38
29533	4.0179	2.7273	0.1	506.59
29534	3.9286	3.	0.1	605.73
29535	4.0179	2.9091	0.1	515.97
29536	3.9286	3.1818	0.1	599.38
29537	4.0179	3.0909	0.1	515.97
29538	3.9286	3.3636	0.1	577.42
29539	4.0179	3.2727	0.1	506.59
29540	3.9286	3.5455	0.1	532.12
29541	4.0179	3.4545	0.1	480.77
29542	3.9286	3.7273	0.1	454.87
29543	4.0179	3.6364	0.1	425.21
29544	3.9286	3.9091	0.1	343.6
29545	4.0179	3.8182	0.1	327.25
29546	3.9286	4.0909	0.1	209.71
29547	4.0179	4.	0.1	188.99
29548	3.9286	4.2727	0.1	79.985
29549	4.0179	4.1818	0.1	48.539
29550	3.9286	4.4545	0.1	15.059
29551	4.0179	4.3636	0.1	9.8154
29552	3.9286	4.6364	0.1	6.6387
29553	4.0179	4.5455	0.1	5.4538
29554	3.9286	4.8182	0.1	4.5838
29555	4.0179	4.7273	0.1	4.1137
29556	3.9286	5.	0.1	3.6813
29557	4.0179	4.9091	0.1	3.5077
29558	3.9286	5.1818	0.1	3.124
29559	4.0179	5.0909	0.1	3.1605
29560	3.9286	5.3636	0.1	2.6204
29561	4.0179	5.2727	0.1	2.9051
29562	3.9286	5.5455	0.1	2.041
29563	4.0179	5.4545	0.1	2.5733
29564	3.9286	5.7273	0.1	1.3124
29565	4.0179	5.6364	0.1	2.0163
29566	4.0179	5.8182	0.1	1.156
29567	3.9286	5.9091	0.1	-5.3102e-002
29568	4.1071	0.27273	0.1	1.9755
29569	4.1964	0.18182	0.1	2.1449
29570	4.1071	9.0909e-002	0.1	4.6333e-003
29571	4.1071	0.45455	0.1	2.5774
29572	4.1964	0.36364	0.1	2.8933
29573	4.1071	0.63636	0.1	2.8604
29574	4.1964	0.54545	0.1	3.146
29575	4.1071	0.81818	0.1	2.9884
29576	4.1964	0.72727	0.1	3.0344
29577	4.1071	1.	0.1	3.1591
29578	4.1964	0.90909	0.1	2.9897
29579	4.1071	1.1818	0.1	3.4606
29580	4.1964	1.0909	0.1	3.0919
29581	4.1071	1.3636	0.1	4.0363
29582	4.1964	1.2727	0.1	3.4631
29583	4.1071	1.5455	0.1	5.343
29584	4.1964	1.4545	0.1	4.1635
29585	4.1071	1.7273	0.1	8.5749
29586	4.1964	1.6364	0.1	4.3407
29587	4.1071	1.9091	0.1	35.366
29588	4.1964	1.8182	0.1	6.7382
29589	4.1071	2.0909	0.1	172.12
29590	4.1964	2.	0.1	19.443
29591	4.1071	2.2727	0.1	298.54
29592	4.1964	2.1818	0.1	141.79
29593	4.1071	2.4545	0.1	376.48
29594	4.1964	2.3636	0.1	248.38
29595	4.1071	2.6364	0.1	413.93
29596	4.1964	2.5455	0.1	295.63
29597	4.1071	2.8182	0.1	427.97
29598	4.1964	2.7273	0.1	310.71
29599	4.1071	3.	0.1	431.25
29600	4.1964	2.9091	0.1	314.03
29601	4.1071	3.1818	0.1	427.97
29602	4.1964	3.0909	0.1	314.03
29603	4.1071	3.3636	0.1	413.93
29604	4.1964	3.2727	0.1	310.71
29605	4.1071	3.5455	0.1	376.48
29606	4.1964	3.4545	0.1	295.63
29607	4.1071	3.7273	0.1	298.54
29608	4.1964	3.6364	0.1	248.38
29609	4.1071	3.9091	0.1	172.12
29610	4.1964	3.8182	0.1	141.79
29611	4.1071	4.0909	0.1	35.367
29612	4.1964	4.	0.1	19.443
29613	4.1071	4.2727	0.1	8.5749
29614	4.1964	4.1818	0.1	6.7382
29615	4.1071	4.4545	0.1	5.343
29616	4.1964	4.3636	0.1	4.3407
29617	4.1071	4.6364	0.1	4.0363
29618	4.1964	4.5455	0.1	4.1635
29619	4.1071	4.8182	0.1	3.4606
29620	4.1964	4.7273	0.1	3.4631
29621	4.1071	5.	0.1	3.1591
29622	4.1964	4.9091	0.1	3.0919
29623	4.1071	5.1818	0.1	2.9884
29624	4.1964	5.0909	0.1	2.9897
29625	4.1071	5.3636	0.1	2.8604
29626	4.1964	5.2727	0.1	3.0344
29627	4.1071	5.5455	0.1	2.5774
29628	4.1964	5.4545	0.1	3.146
29629	4.1071	5.7273	0.1	1.9755
29630	4.1964	5.6364	0.1	2.8933
29631	4.1964	5.8182	0.1	2.1449
29632	4.1071	5.9091	0.1	4.6355e-003
29633	4.2857	0.27273	0.1	3.3118
29634	4.375	0.18182	0.1	4.6225
29635	4.2857	9.0909e-002	0.1	3.9869e-002
29636	4.2857	0.45455	0.1	3.4827
29637	4.375	0.36364	0.1	4.9038
29638	4.2857	0.63636	0.1	3.2424
29639	4.375	0.54545	0.1	4.2483
29640	4.2857	0.81818	0.1	2.9904
29641	4.375	0.72727	0.1	3.5032
29642	4.2857	1.	0.1	2.9503
29643	4.375	0.90909	0.1	3.2028
29644	4.2857	1.1818	0.1	3.2078
29645	4.375	1.0909	0.1	3.3582
29646	4.2857	1.3636	0.1	3.8104
29647	4.375	1.2727	0.1	3.8137
29648	4.2857	1.5455	0.1	3.5501
29649	4.375	1.4545	0.1	4.2227
29650	4.2857	1.7273	0.1	3.6576
29651	4.375	1.6364	0.1	8.1511
29652	4.2857	1.9091	0.1	3.7637
29653	4.375	1.8182	0.1	6.8775
29654	4.2857	2.0909	0.1	7.7194
29655	4.375	2.	0.1	9.995
29656	4.2857	2.2727	0.1	93.975
29657	4.375	2.1818	0.1	6.7901
29658	4.2857	2.4545	0.1	172.48
29659	4.375	2.3636	0.1	12.574
29660	4.2857	2.6364	0.1	198.98
29661	4.375	2.5455	0.1	49.987
29662	4.2857	2.8182	0.1	203.91
29663	4.375	2.7273	0.1	57.441
29664	4.2857	3.	0.1	204.06
29665	4.375	2.9091	0.1	57.381
29666	4.2857	3.1818	0.1	203.91
29667	4.375	3.0909	0.1	57.381
29668	4.2857	3.3636	0.1	198.98
29669	4.375	3.2727	0.1	57.441
29670	4.2857	3.5455	0.1	172.48
29671	4.375	3.4545	0.1	49.987
29672	4.2857	3.7273	0.1	93.976
29673	4.375	3.6364	0.1	12.574
29674	4.2857	3.9091	0.1	7.7194
29675	4.375	3.8182	0.1	6.7902
29676	4.2857	4.0909	0.1	3.7637
29677	4.375	4.	0.1	9.995
29678	4.2857	4.2727	0.1	3.6576
29679	4.375	4.1818	0.1	6.8775
29680	4.2857	4.4545	0.1	3.5501
29681	4.375	4.3636	0.1	8.1511
29682	4.2857	4.6364	0.1	3.8104
29683	4.375	4.5455	0.1	4.2227
29684	4.2857	4.8182	0.1	3.2078
29685	4.375	4.7273	0.1	3.8137
29686	4.2857	5.	0.1	2.9503
29687	4.375	4.9091	0.1	3.3582
29688	4.2857	5.1818	0.1	2.9904
29689	4.375	5.0909	0.1	3.2028
29690	4.2857	5.3636	0.1	3.2424
29691	4.375	5.2727	0.1	3.5032
29692	4.2857	5.5455	0.1	3.4827
29693	4.375	5.4545	0.1	4.2483
29694	4.2857	5.7273	0.1	3.3118
29695	4.375	5.6364	0.1	4.9038
29696	4.375	5.8182	0.1	4.6225
29697	4.2857	5.9091	0.1	3.9871e-002
29698	4.4643	0.27273	0.1	6.7239
29699	4.5536	0.18182	0.1	9.3121
29700	4.4643	9.0909e-002	0.1	1.0073
29701	4.4643	0.45455	0.1	5.4597
29702	4.5536	0.36364	0.1	7.4549
29703	4.4643	0.63636	0.1	4.2386
29704	4.5536	0.54545	0.1	4.6717
29705	4.4643	0.81818	0.1	3.578
29706	4.5536	0.72727	0.1	2.9723
29707	4.4643	1.	0.1	3.5718
29708	4.5536	0.90909	0.1	2.3316
29709	4.4643	1.1818	0.1	3.9905
29710	4.5536	1.0909	0.1	2.21
29711	4.4643	1.3636	0.1	4.3071
29712	4.5536	1.2727	0.1	2.5756
29713	4.4643	1.5455	0.1	8.9589
29714	4.5536	1.4545	0.1	3.3807
29715	4.4643	1.7273	0.1	11.528
29716	4.5536	1.6364	0.1	6.0399
29717	4.4643	1.9091	0.1	13.614
29718	4.5536	1.8182	0.1	-2.6469
29719	4.4643	2.0909	0.1	14.5
29720	4.5536	2.	0.1	-36.32
29721	4.4643	2.2727	0.1	0.988
29722	4.5536	2.1818	0.1	-19.673
29723	4.4643	2.4545	0.1	-4.3461
29724	4.5536	2.3636	0.1	-8.6829e-002
29725	4.4643	2.6364	0.1	-0.52956
29726	4.5536	2.5455	0.1	-0.91551
29727	4.4643	2.8182	0.1	-0.69502
29728	4.5536	2.7273	0.1	-0.12687
29729	4.4643	3.	0.1	-0.75156
29730	4.5536	2.9091	0.1	-0.12709
29731	4.4643	3.1818	0.1	-0.69502
29732	4.5536	3.0909	0.1	-0.12709
29733	4.4643	3.3636	0.1	-0.52955
29734	4.5536	3.2727	0.1	-0.12687
29735	4.4643	3.5455	0.1	-4.3461
29736	4.5536	3.4545	0.1	-0.91551
29737	4.4643	3.7273	0.1	0.98799
29738	4.5536	3.6364	0.1	-8.6829e-002
29739	4.4643	3.9091	0.1	14.5
29740	4.5536	3.8182	0.1	-19.673
29741	4.4643	4.0909	0.1	13.614
29742	4.5536	4.	0.1	-36.32
29743	4.4643	4.2727	0.1	11.528
29744	4.5536	4.1818	0.1	-2.6469
29745	4.4643	4.4545	0.1	8.9589
29746	4.5536	4.3636	0.1	6.0399
29747	4.4643	4.6364	0.1	4.3071
29748	4.5536	4.5455	0.1	3.3807
29749	4.4643	4.8182	0.1	3.9905
29750	4.5536	4.7273	0.1	2.5756
29751	4.4643	5.	0.1	3.5718
29752	4.5536	4.9091	0.1	2.21
29753	4.4643	5.1818	0.1	3.578
29754	4.5536	5.0909	0.1	2.3316
29755	4.4643	5.3636	0.1	4.2386
29756	4.5536	5.2727	0.1	2.9723
29757	4.4643	5.5455	0.1	5.4597
29758	4.5536	5.4545	0.1	4.6717
29759	4.4643	5.7273	0.1	6.7239
29760	4.5536	5.6364	0.1	7.455
29761	4.5536	5.8182	0.1	9.3121
29762	4.4643	5.9091	0.1	1.0073
29763	4.6429	0.27273	0.1	10.551
29764	4.7321	0.18182	0.1	24.791
29765	4.6429	9.0909e-002	0.1	1.9721
29766	4.6429	0.45455	0.1	5.4165
29767	4.7321	0.36364	0.1	13.118
29768	4.6429	0.63636	0.1	2.7905
29769	4.7321	0.54545	0.1	8.2764
29770	4.6429	0.81818	0.1	1.4712
29771	4.7321	0.72727	0.1	6.103
29772	4.6429	1.	0.1	0.86305
29773	4.7321	0.90909	0.1	5.3788
29774	4.6429	1.1818	0.1	0.76169
29775	4.7321	1.0909	0.1	6.0881
29776	4.6429	1.3636	0.1	1.6565
29777	4.7321	1.2727	0.1	4.8257
29778	4.6429	1.5455	0.1	0.48801
29779	4.7321	1.4545	0.1	16.683
29780	4.6429	1.7273	0.1	-8.6731
29781	4.7321	1.6364	0.1	-11.046
29782	4.6429	1.9091	0.1	-52.753
29783	4.7321	1.8182	0.1	84.262
29784	4.6429	2.0909	0.1	-70.289
29785	4.7321	2.	0.1	311.44
29786	4.6429	2.2727	0.1	-21.145
29787	4.7321	2.1818	0.1	-37.019
29788	4.6429	2.4545	0.1	3.3303
29789	4.7321	2.3636	0.1	15.454
29790	4.6429	2.6364	0.1	-0.3556
29791	4.7321	2.5455	0.1	-3.0151
29792	4.6429	2.8182	0.1	0.43988
29793	4.7321	2.7273	0.1	2.7001
29794	4.6429	3.	0.1	0.39132
29795	4.7321	2.9091	0.1	0.91135
29796	4.6429	3.1818	0.1	0.43989
29797	4.7321	3.0909	0.1	0.91135
29798	4.6429	3.3636	0.1	-0.3556
29799	4.7321	3.2727	0.1	2.7001
29800	4.6429	3.5455	0.1	3.3303
29801	4.7321	3.4545	0.1	-3.0151
29802	4.6429	3.7273	0.1	-21.145
29803	4.7321	3.6364	0.1	15.454
29804	4.6429	3.9091	0.1	-70.289
29805	4.7321	3.8182	0.1	-37.019
29806	4.6429	4.0909	0.1	-52.753
29807	4.7321	4.	0.1	311.44
29808	4.6429	4.2727	0.1	-8.6731
29809	4.7321	4.1818	0.1	84.262
29810	4.6429	4.4545	0.1	0.48802
29811	4.7321	4.3636	0.1	-11.046
29812	4.6429	4.6364	0.1	1.6565
29813	4.7321	4.5455	0.1	16.683
29814	4.6429	4.8182	0.1	0.7617
29815	4.7321	4.7273	0.1	4.8257
29816	4.6429	5.	0.1	0.86305
29817	4.7321	4.9091	0.1	6.0881
29818	4.6429	5.1818	0.1	1.4712
29819	4.7321	5.0909	0.1	5.3788
29820	4.6429	5.3636	0.1	2.7905
29821	4.7321	5.2727	0.1	6.103
29822	4.6429	5.5455	0.1	5.4165
29823	4.7321	5.4545	0.1	8.2764
29824	4.6429	5.7273	0.1	10.551
29825	4.7321	5.6364	0.1	13.118
29826	4.7321	5.8182	0.1	24.791
29827	4.6429	5.9091	0.1	1.9721
29828	4.8214	0.27273	0.1	22.428
29829	4.9107	0.18182	0.1	-1.0147
29830	4.8214	9.0909e-002	0.1	20.075
29831	4.8214	0.45455	0.1	12.435
29832	4.9107	0.36364	0.1	-5.2472
29833	4.8214	0.63636	0.1	10.035
29834	4.9107	0.54545	0.1	-3.5129
29835	4.8214	0.81818	0.1	9.1111
29836	4.9107	0.72727	0.1	-3.482
29837	4.8214	1.	0.1	9.9888
29838	4.9107	0.90909	0.1	-3.9358
29839	4.8214	1.1818	0.1	9.7428
29840	4.9107	1.0909	0.1	-2.1276
29841	4.8214	1.3636	0.1	19.541
29842	4.9107	1.2727	0.1	-9.3061
29843	4.8214	1.5455	0.1	5.0778
29844	4.9107	1.4545	0.1	19.769
29845	4.8214	1.7273	0.1	81.86
29846	4.9107	1.6364	0.1	-93.437
29847	4.8214	1.9091	0.1	452.39
29848	4.9107	1.8182	0.1	394.97
29849	4.8214	2.0909	0.1	310.46
29850	4.9107	2.	0.1	488.05
29851	4.8214	2.2727	0.1	1.4862
29852	4.9107	2.1818	0.1	-86.275
29853	4.8214	2.4545	0.1	9.074
29854	4.9107	2.3636	0.1	35.164
29855	4.8214	2.6364	0.1	-0.15912
29856	4.9107	2.5455	0.1	-2.5302
29857	4.8214	2.8182	0.1	3.0804
29858	4.9107	2.7273	0.1	5.2121
29859	4.8214	3.	0.1	1.3302
29860	4.9107	2.9091	0.1	2.1757
29861	4.8214	3.1818	0.1	3.0804
29862	4.9107	3.0909	0.1	2.1757
29863	4.8214	3.3636	0.1	-0.15912
29864	4.9107	3.2727	0.1	5.2121
29865	4.8214	3.5455	0.1	9.074
29866	4.9107	3.4545	0.1	-2.5302
29867	4.8214	3.7273	0.1	1.4862
29868	4.9107	3.6364	0.1	35.164
29869	4.8214	3.9091	0.1	310.46
29870	4.9107	3.8182	0.1	-86.275
29871	4.8214	4.0909	0.1	452.39
29872	4.9107	4.	0.1	488.05
29873	4.8214	4.2727	0.1	81.86
29874	4.9107	4.1818	0.1	394.97
29875	4.8214	4.4545	0.1	5.0778
29876	4.9107	4.3636	0.1	-93.437
29877	4.8214	4.6364	0.1	19.541
29878	4.9107	4.5455	0.1	19.769
29879	4.8214	4.8182	0.1	9.7428
29880	4.9107	4.7273	0.1	-9.3061
29881	4.8214	5.	0.1	9.9888
29882	4.9107	4.9091	0.1	-2.1276
29883	4.8214	5.1818	0.1	9.1111
29884	4.9107	5.0909	0.1	-3.9358
29885	4.8214	5.3636	0.1	10.035
29886	4.9107	5.2727	0.1	-3.482
29887	4.8214	5.5455	0.1	12.435
29888	4.9107	5.4545	0.1	-3.5129
29889	4.8214	5.7273	0.1	22.428
29890	4.9107	5.6364	0.1	-5.2472
29891	4.9107	5.8182	0.1	-1.0146
29892	4.8214	5.9091	0.1	20.075
29893	5.1667	3.7273	0.1	-37.011
29894	5.0833	3.8182	0.1	-133.41
29895	5.1667	3.9091	0.1	672.25
29896	5.1667	3.5455	0.1	21.953
29897	5.0833	3.6364	0.1	46.556
29898	5.1667	3.3636	0.1	1.9634
29899	5.0833	3.4545	0.1	-0.4141
29900	5.1667	3.1818	0.1	3.6948
29901	5.0833	3.2727	0.1	5.2834
29902	5.1667	3.	0.1	2.4531
29903	5.0833	3.0909	0.1	2.7384
29904	5.1667	2.8182	0.1	3.6948
29905	5.0833	2.9091	0.1	2.7384
29906	5.1667	2.6364	0.1	1.9634
29907	5.0833	2.7273	0.1	5.2835
29908	5.1667	2.4545	0.1	21.953
29909	5.0833	2.5455	0.1	-0.41411
29910	5.1667	2.2727	0.1	-37.011
29911	5.0833	2.3636	0.1	46.556
29912	5.0833	2.1818	0.1	-133.41
29913	5.1667	2.0909	0.1	672.25
29914	5.	3.7273	0.1	-55.245
29915	5.	3.9091	0.1	573.47
29916	5.	3.5455	0.1	23.218
29917	5.	3.3636	0.1	2.749
29918	5.	3.1818	0.1	4.1944
29919	5.	3.	0.1	2.9165
29920	5.	2.8182	0.1	4.1944
29921	5.	2.6364	0.1	2.749
29922	5.	2.4545	0.1	23.218
29923	5.	2.2727	0.1	-55.245
29924	5.	2.0909	0.1	573.47
29925	5.1667	5.7273	0.1	-15.672
29926	5.1667	5.9091	0.1	-0.95411
29927	5.1667	5.8182	5.e-002	-2.2366e-014
29928	5.1667	5.5455	0.1	-17.905
29929	5.1667	5.6364	5.e-002	5.0062e-007
29930	5.1667	5.3636	0.1	-19.061
29931	5.1667	5.4545	5.e-002	3.2145e-007
29932	5.1667	5.1818	0.1	-21.746
29933	5.1667	5.2727	5.e-002	-2.3214e-006
29934	5.1667	5.	0.1	-24.847
29935	5.1667	5.0909	5.e-002	1.6578e-007
29936	5.1667	4.8182	0.1	-32.48
29937	5.1667	4.9091	5.e-002	1.5028e-007
29938	5.1667	4.6364	0.1	-36.616
29939	5.1667	4.7273	5.e-002	-4.042e-006
29940	5.1667	4.4545	0.1	-86.602
29941	5.1667	4.5455	5.e-002	2.8679e-005
29942	5.1667	4.2727	0.1	-72.269
29943	5.1667	4.3636	5.e-002	-6.5865e-005
29944	5.1667	4.0909	0.1	1461.1
29945	5.1667	4.1818	5.e-002	4.9292e-004
29946	5.0833	4.	0.1	2526.
29947	5.1667	4.	5.e-002	-3.7974e-003
29948	5.	4.0909	0.1	1473.
29949	5.	4.	5.e-002	-3.6508e-003
29950	5.	4.2727	0.1	-87.659
29951	5.	4.1818	5.e-002	4.9993e-004
29952	5.	4.4545	0.1	-99.734
29953	5.	4.3636	5.e-002	-8.6516e-005
29954	5.	4.6364	0.1	-42.58
29955	5.	4.5455	5.e-002	4.1559e-005
29956	5.	4.8182	0.1	-38.157
29957	5.	4.7273	5.e-002	-2.5008e-013
29958	5.	5.	0.1	-29.808
29959	5.	4.9091	5.e-002	1.1606e-007
29960	5.	5.1818	0.1	-26.476
29961	5.	5.0909	5.e-002	1.3069e-007
29962	5.	5.3636	0.1	-23.634
29963	5.	5.2727	5.e-002	-2.104e-006
29964	5.	5.5455	0.1	-22.58
29965	5.	5.4545	5.e-002	-2.5641e-006
29966	5.	5.7273	0.1	-20.087
29967	5.	5.6364	5.e-002	5.64e-007
29968	5.	5.9091	0.1	-2.9578
29969	5.	5.8182	5.e-002	1.1488e-006
29970	5.1667	0.27273	0.1	-15.672
29971	5.1667	9.0909e-002	0.1	-0.9541
29972	5.1667	0.18182	5.e-002	-2.2366e-014
29973	5.1667	0.45455	0.1	-17.905
29974	5.1667	0.36364	5.e-002	-5.0062e-007
29975	5.1667	0.63636	0.1	-19.061
29976	5.1667	0.54545	5.e-002	-4.8217e-007
29977	5.1667	0.81818	0.1	-21.746
29978	5.1667	0.72727	5.e-002	2.0038e-006
29979	5.1667	1.	0.1	-24.847
29980	5.1667	0.90909	5.e-002	1.7458e-006
29981	5.1667	1.1818	0.1	-32.48
29982	5.1667	1.0909	5.e-002	-4.5083e-007
29983	5.1667	1.3636	0.1	-36.616
29984	5.1667	1.2727	5.e-002	-5.2456e-007
29985	5.1667	1.5455	0.1	-86.602
29986	5.1667	1.4545	5.e-002	-4.7957e-005
29987	5.1667	1.7273	0.1	-72.269
29988	5.1667	1.6364	5.e-002	1.0121e-004
29989	5.1667	1.9091	0.1	1461.1
29990	5.1667	1.8182	5.e-002	-5.9323e-004
29991	5.0833	2.	0.1	2526.
29992	5.1667	2.	5.e-002	4.7136e-003
29993	5.	1.9091	0.1	1473.
29994	5.	2.	5.e-002	4.0825e-003
29995	5.	1.7273	0.1	-87.66
29996	5.	1.8182	5.e-002	-6.3669e-004
29997	5.	1.5455	0.1	-99.734
29998	5.	1.6364	5.e-002	8.0759e-005
29999	5.	1.3636	0.1	-42.58
30000	5.	1.4545	5.e-002	-5.0453e-005
30001	5.	1.1818	0.1	-38.157
30002	5.	1.2727	5.e-002	3.5685e-006
30003	5.	1.	0.1	-29.808
30004	5.	1.0909	5.e-002	-2.3212e-007
30005	5.	0.81818	0.1	-26.476
30006	5.	0.90909	5.e-002	-3.2674e-007
30007	5.	0.63636	0.1	-23.634
30008	5.	0.72727	5.e-002	-3.4093e-007
30009	5.	0.45455	0.1	-22.58
30010	5.	0.54545	5.e-002	-5.289e-007
30011	5.	0.27273	0.1	-20.087
30012	5.	0.36364	5.e-002	-5.64e-007
30013	5.	9.0909e-002	0.1	-2.9578
30014	5.	0.18182	5.e-002	-2.7545e-014
30015	5.259	6.	0.1	20.831
30016	5.1667	6.	5.e-002	-1.5471e-006
30017	5.4436	6.	0.1	-0.16099
30018	5.3513	6.	5.e-002	3.6358e-006
30019	5.6283	6.	0.1	-2.0604
30020	5.5359	6.	5.e-002	3.1225e-007
30021	5.8129	6.	0.1	-0.35179
30022	5.7206	6.	5.e-002	1.4296e-006
30023	5.9975	6.	0.1	0.35862
30024	5.9052	6.	5.e-002	1.9073e-006
30025	6.1822	6.	0.1	0.93995
30026	6.0899	6.	5.e-002	1.4541e-006
30027	6.3668	6.	0.1	1.2212
30028	6.2745	6.	5.e-002	7.2878e-007
30029	6.5515	6.	0.1	1.3162
30030	6.4592	6.	5.e-002	9.5253e-007
30031	6.7361	6.	0.1	1.2754
30032	6.6438	6.	5.e-002	6.6884e-007
30033	6.9208	6.	0.1	1.1547
30034	6.8284	6.	5.e-002	5.5508e-007
30035	7.1054	6.	0.1	0.99277
30036	7.0131	6.	5.e-002	7.6024e-007
30037	7.29	6.	0.1	0.8168
30038	7.1977	6.	5.e-002	-1.1831e-007
30039	7.4747	6.	0.1	0.64403
30040	7.3824	6.	5.e-002	6.8794e-007
30041	7.6593	6.	0.1	0.48452
30042	7.567	6.	5.e-002	5.7311e-007
30043	7.844	6.	0.1	0.34335
30044	7.7516	6.	5.e-002	8.8059e-007
30045	8.0286	6.	0.1	0.22237
30046	7.9363	6.	5.e-002	9.9363e-007
30047	8.2132	6.	0.1	0.12144
30048	8.1209	6.	5.e-002	1.1553e-006
30049	8.3979	6.	0.1	3.9247e-002
30050	8.3056	6.	5.e-002	1.1267e-006
30051	8.5825	6.	0.1	-2.6086e-002
30052	8.4902	6.	5.e-002	1.4374e-006
30053	8.7672	6.	0.1	-7.6671e-002
30054	8.6748	6.	5.e-002	1.3724e-006
30055	8.9518	6.	0.1	-0.11463
30056	8.8595	6.	5.e-002	1.5574e-006
30057	9.1364	6.	0.1	-0.14198
30058	9.0441	6.	5.e-002	1.6209e-006
30059	9.3211	6.	0.1	-0.16057
30060	9.2288	6.	5.e-002	1.724e-006
30061	9.5057	6.	0.1	-0.17204
30062	9.4134	6.	5.e-002	1.8632e-006
30063	9.6904	6.	0.1	-0.17781
30064	9.598	6.	5.e-002	1.8624e-006
30065	9.875	6.	0.1	-0.17909
30066	9.7827	6.	5.e-002	1.9834e-006
30067	10.06	6.	0.1	-0.17688
30068	9.9673	6.	5.e-002	2.1009e-006
30069	10.244	6.	0.1	-0.17202
30070	10.152	6.	5.e-002	2.0425e-006
30071	10.429	6.	0.1	-0.1652
30072	10.337	6.	5.e-002	2.2608e-006
30073	10.614	6.	0.1	-0.15699
30074	10.521	6.	5.e-002	2.3817e-006
30075	10.798	6.	0.1	-0.14781
30076	10.706	6.	5.e-002	2.4416e-006
30077	10.983	6.	0.1	-0.13804
30078	10.891	6.	5.e-002	2.5015e-006
30079	11.167	6.	0.1	-0.12794
30080	11.075	6.	5.e-002	2.3963e-006
30081	11.352	6.	0.1	-0.11774
30082	11.26	6.	5.e-002	2.7411e-006
30083	11.537	6.	0.1	-0.10759
30084	11.444	6.	5.e-002	2.4432e-006
30085	11.721	6.	0.1	-9.7636e-002
30086	11.629	6.	5.e-002	2.7409e-006
30087	11.906	6.	0.1	-8.795e-002
30088	11.814	6.	5.e-002	3.2686e-006
30089	12.091	6.	0.1	-7.86e-002
30090	11.998	6.	5.e-002	2.4349e-006
30091	12.275	6.	0.1	-6.9646e-002
30092	12.183	6.	5.e-002	3.0396e-006
30093	12.46	6.	0.1	-6.1099e-002
30094	12.368	6.	5.e-002	3.212e-006
30095	12.645	6.	0.1	-5.2954e-002
30096	12.552	6.	5.e-002	2.9205e-006
30097	12.829	6.	0.1	-4.5233e-002
30098	12.737	6.	5.e-002	2.985e-006
30099	13.014	6.	0.1	-3.7931e-002
30100	12.922	6.	5.e-002	3.8147e-006
30101	13.199	6.	0.1	-3.1031e-002
30102	13.106	6.	5.e-002	3.3378e-006
30103	13.383	6.	0.1	-2.4518e-002
30104	13.291	6.	5.e-002	3.9284e-006
30105	13.568	6.	0.1	-1.8373e-002
30106	13.475	6.	5.e-002	3.2186e-006
30107	13.752	6.	0.1	-1.2574e-002
30108	13.66	6.	5.e-002	3.8147e-006
30109	13.937	6.	0.1	-7.099e-003
30110	13.845	6.	5.e-002	3.5167e-006
30111	14.122	6.	0.1	-1.924e-003
30112	14.029	6.	5.e-002	3.6359e-006
30113	14.306	6.	0.1	2.975e-003
30114	14.214	6.	5.e-002	3.6359e-006
30115	14.491	6.	0.1	7.6221e-003
30116	14.399	6.	5.e-002	4.3511e-006
30117	14.676	6.	0.1	1.2041e-002
30118	14.583	6.	5.e-002	3.5167e-006
30119	14.86	6.	0.1	1.6256e-002
30120	14.768	6.	5.e-002	4.8876e-006
30121	15.045	6.	0.1	2.0291e-002
30122	14.953	6.	5.e-002	2.9819e-006
30123	15.23	6.	0.1	2.4168e-002
30124	15.137	6.	5.e-002	5.3644e-006
30125	15.414	6.	0.1	2.7911e-002
30126	15.322	6.	5.e-002	4.1748e-006
30127	15.599	6.	0.1	3.1541e-002
30128	15.507	6.	5.e-002	4.3511e-006
30129	15.783	6.	0.1	3.508e-002
30130	15.691	6.	5.e-002	3.4006e-006
30131	15.968	6.	0.1	3.8551e-002
30132	15.876	6.	5.e-002	5.4276e-006
30133	16.153	6.	0.1	4.1973e-002
30134	16.06	6.	5.e-002	5.424e-006
30135	16.337	6.	0.1	4.5369e-002
30136	16.245	6.	5.e-002	4.1127e-006
30137	16.522	6.	0.1	4.876e-002
30138	16.43	6.	5.e-002	5.181e-006
30139	16.707	6.	0.1	5.2165e-002
30140	16.614	6.	5.e-002	5.3694e-006
30141	16.891	6.	0.1	5.5616e-002
30142	16.799	6.	5.e-002	4.1776e-006
30143	17.076	6.	0.1	5.9129e-002
30144	16.984	6.	5.e-002	5.0068e-006
30145	17.261	6.	0.1	6.2716e-002
30146	17.168	6.	5.e-002	6.1989e-006
30147	17.445	6.	0.1	6.6409e-002
30148	17.353	6.	5.e-002	5.2387e-006
30149	17.63	6.	0.1	7.0234e-002
30150	17.538	6.	5.e-002	6.4901e-006
30151	17.815	6.	0.1	7.4211e-002
30152	17.722	6.	5.e-002	5.9532e-006
30153	17.999	6.	0.1	7.8367e-002
30154	17.907	6.	5.e-002	5.7816e-006
30155	18.184	6.	0.1	8.273e-002
30156	18.092	6.	5.e-002	5.424e-006
30157	18.368	6.	0.1	8.7327e-002
30158	18.276	6.	5.e-002	7.3822e-006
30159	18.553	6.	0.1	9.2187e-002
30160	18.461	6.	5.e-002	6.4279e-006
30161	18.738	6.	0.1	9.7341e-002
30162	18.645	6.	5.e-002	4.6986e-006
30163	18.922	6.	0.1	0.10282
30164	18.83	6.	5.e-002	7.3912e-006
30165	19.107	6.	0.1	0.10867
30166	19.015	6.	5.e-002	6.2587e-006
30167	19.292	6.	0.1	0.11492
30168	19.199	6.	5.e-002	5.8418e-006
30169	19.476	6.	0.1	0.12161
30170	19.384	6.	5.e-002	7.0336e-006
30171	19.661	6.	0.1	0.12879
30172	19.569	6.	5.e-002	7.6895e-006
30173	19.846	6.	0.1	0.13651
30174	19.753	6.	5.e-002	6.5574e-006
30175	20.03	6.	0.1	0.14483
30176	19.938	6.	5.e-002	7.0934e-006
30177	20.215	6.	0.1	0.15379
30178	20.123	6.	5.e-002	6.8554e-006
30179	20.4	6.	0.1	0.16348
30180	20.307	6.	5.e-002	6.6065e-006
30181	20.584	6.	0.1	0.17396
30182	20.492	6.	5.e-002	8.0776e-006
30183	20.769	6.	0.1	0.18531
30184	20.676	6.	5.e-002	7.7505e-006
30185	20.953	6.	0.1	0.19765
30186	20.861	6.	5.e-002	5.2818e-006
30187	21.138	6.	0.1	0.21108
30188	21.046	6.	5.e-002	9.4548e-006
30189	21.323	6.	0.1	0.22574
30190	21.23	6.	5.e-002	7.6328e-006
30191	21.507	6.	0.1	0.24178
30192	21.415	6.	5.e-002	8.3755e-006
30193	21.692	6.	0.1	0.25941
30194	21.6	6.	5.e-002	6.9126e-006
30195	21.877	6.	0.1	0.27888
30196	21.784	6.	5.e-002	8.9658e-006
30197	22.061	6.	0.1	0.30049
30198	21.969	6.	5.e-002	9.2481e-006
30199	22.246	6.	0.1	0.32465
30200	22.154	6.	5.e-002	7.1266e-006
30201	22.431	6.	0.1	0.35188
30202	22.338	6.	5.e-002	8.2069e-006
30203	22.615	6.	0.1	0.38296
30204	22.523	6.	5.e-002	9.8231e-006
30205	22.8	6.	0.1	0.41885
30206	22.708	6.	5.e-002	6.7056e-006
30207	22.984	6.	0.1	0.46147
30208	22.892	6.	5.e-002	7.9352e-006
30209	23.169	6.	0.1	0.51172
30210	23.077	6.	5.e-002	8.2481e-006
30211	23.354	6.	0.1	0.58107
30212	23.261	6.	5.e-002	9.4265e-006
30213	23.538	6.	0.1	0.66122
30214	23.446	6.	5.e-002	1.1576e-005
30215	23.723	6.	0.1	0.88071
30216	23.631	6.	5.e-002	7.97e-006
30217	23.908	6.	0.1	0.65805
30218	23.815	6.	5.e-002	5.4594e-006
30219	24.	5.9091	0.1	-2.3721
30220	24.	6.	5.e-002	4.7539e-005
30221	24.	5.7273	0.1	-2.1776
30222	24.	5.8182	5.e-002	1.7632e-005
30223	24.	5.5455	0.1	-2.27
30224	24.	5.6364	5.e-002	2.6431e-005
30225	24.	5.3636	0.1	-2.3862
30226	24.	5.4545	5.e-002	1.1562e-005
30227	24.	5.1818	0.1	-2.4209
30228	24.	5.2727	5.e-002	1.1285e-005
30229	24.	5.	0.1	-2.4504
30230	24.	5.0909	5.e-002	7.9579e-006
30231	24.	4.8182	0.1	-2.4701
30232	24.	4.9091	5.e-002	1.1502e-005
30233	24.	4.6364	0.1	-2.4853
30234	24.	4.7273	5.e-002	9.76e-006
30235	24.	4.4545	0.1	-2.4969
30236	24.	4.5455	5.e-002	6.0043e-006
30237	24.	4.2727	0.1	-2.506
30238	24.	4.3636	5.e-002	9.3309e-006
30239	24.	4.0909	0.1	-2.5132
30240	24.	4.1818	5.e-002	3.3888e-006
30241	24.	3.9091	0.1	-2.5188
30242	24.	4.	5.e-002	6.4134e-006
30243	24.	3.7273	0.1	-2.523
30244	24.	3.8182	5.e-002	3.4619e-006
30245	24.	3.5455	0.1	-2.5262
30246	24.	3.6364	5.e-002	3.069e-006
30247	24.	3.3636	0.1	-2.5284
30248	24.	3.4545	5.e-002	2.9943e-006
30249	24.	3.1818	0.1	-2.5297
30250	24.	3.2727	5.e-002	3.1012e-006
30251	24.	3.	0.1	-2.5301
30252	24.	3.0909	5.e-002	3.6536e-006
30253	24.	2.8182	0.1	-2.5297
30254	24.	2.9091	5.e-002	3.9809e-006
30255	24.	2.6364	0.1	-2.5284
30256	24.	2.7273	5.e-002	8.4882e-007
30257	24.	2.4545	0.1	-2.5262
30258	24.	2.5455	5.e-002	1.5435e-006
30259	24.	2.2727	0.1	-2.523
30260	24.	2.3636	5.e-002	5.643e-006
30261	24.	2.0909	0.1	-2.5188
30262	24.	2.1818	5.e-002	2.8861e-006
30263	24.	1.9091	0.1	-2.5132
30264	24.	2.	5.e-002	6.6648e-006
30265	24.	1.7273	0.1	-2.506
30266	24.	1.8182	5.e-002	7.3005e-006
30267	24.	1.5455	0.1	-2.4969
30268	24.	1.6364	5.e-002	2.1896e-006
30269	24.	1.3636	0.1	-2.4853
30270	24.	1.4545	5.e-002	5.2886e-006
30271	24.	1.1818	0.1	-2.4701
30272	24.	1.2727	5.e-002	3.0437e-006
30273	24.	1.	0.1	-2.4504
30274	24.	1.0909	5.e-002	5.519e-006
30275	24.	0.81818	0.1	-2.4209
30276	24.	0.90909	5.e-002	4.5237e-006
30277	24.	0.63636	0.1	-2.3862
30278	24.	0.72727	5.e-002	3.4315e-006
30279	24.	0.45455	0.1	-2.27
30280	24.	0.54545	5.e-002	7.6541e-006
30281	24.	0.27273	0.1	-2.1776
30282	24.	0.36364	5.e-002	1.0973e-005
30283	24.	9.0909e-002	0.1	-2.3721
30284	24.	0.18182	5.e-002	1.7954e-005
30285	2.3842e-015	0.27273	0.1	1804.6
30286	7.9472e-016	9.0909e-002	0.1	408.89
30287	1.6109e-015	0.18182	5.e-002	2.979e-004
30288	3.9736e-015	0.45455	0.1	2602.3
30289	3.2219e-015	0.36364	5.e-002	4.0997e-004
30290	5.563e-015	0.63636	0.1	3008.7
30291	4.8328e-015	0.54545	5.e-002	3.3015e-004
30292	7.1525e-015	0.81818	0.1	3260.7
30293	6.4438e-015	0.72727	5.e-002	2.9072e-004
30294	8.7419e-015	1.	0.1	3432.4
30295	8.0547e-015	0.90909	5.e-002	2.1595e-004
30296	1.0331e-014	1.1818	0.1	3555.3
30297	9.6657e-015	1.0909	5.e-002	1.4311e-004
30298	1.1921e-014	1.3636	0.1	3645.6
30299	1.1277e-014	1.2727	5.e-002	1.9438e-004
30300	1.351e-014	1.5455	0.1	3712.9
30301	1.2888e-014	1.4545	5.e-002	1.3263e-004
30302	1.51e-014	1.7273	0.1	3763.4
30303	1.4498e-014	1.6364	5.e-002	1.2809e-004
30304	1.6689e-014	1.9091	0.1	3801.2
30305	1.6109e-014	1.8182	5.e-002	1.2598e-004
30306	1.8279e-014	2.0909	0.1	3829.3
30307	1.772e-014	2.	5.e-002	1.2438e-004
30308	1.9868e-014	2.2727	0.1	3849.8
30309	1.9331e-014	2.1818	5.e-002	1.2279e-004
30310	2.1457e-014	2.4545	0.1	3864.4
30311	2.0942e-014	2.3636	5.e-002	6.1543e-005
30312	2.3047e-014	2.6364	0.1	3874.
30313	2.2553e-014	2.5455	5.e-002	6.0751e-005
30314	2.4636e-014	2.8182	0.1	3879.4
30315	2.4164e-014	2.7273	5.e-002	-1.7873e-007
30316	2.6226e-014	3.	0.1	3881.1
30317	2.5775e-014	2.9091	5.e-002	6.0904e-005
30318	2.7815e-014	3.1818	0.1	3879.4
30319	2.7386e-014	3.0909	5.e-002	6.1202e-005
30320	2.9405e-014	3.3636	0.1	3874.
30321	2.8997e-014	3.2727	5.e-002	6.1562e-005
30322	3.0994e-014	3.5455	0.1	3864.4
30323	3.0608e-014	3.4545	5.e-002	9.5828e-007
30324	3.2583e-014	3.7273	0.1	3849.8
30325	3.2219e-014	3.6364	5.e-002	1.0595e-006
30326	3.4173e-014	3.9091	0.1	3829.3
30327	3.383e-014	3.8182	5.e-002	1.5931e-006
30328	3.5762e-014	4.0909	0.1	3801.2
30329	3.5441e-014	4.	5.e-002	1.73e-006
30330	3.7352e-014	4.2727	0.1	3763.4
30331	3.7052e-014	4.1818	5.e-002	7.2772e-007
30332	3.8941e-014	4.4545	0.1	3712.9
30333	3.8663e-014	4.3636	5.e-002	-6.163e-005
30334	4.0531e-014	4.6364	0.1	3645.6
30335	4.0274e-014	4.5455	5.e-002	-6.1204e-005
30336	4.212e-014	4.8182	0.1	3555.3
30337	4.1885e-014	4.7273	5.e-002	-6.4909e-005
30338	4.371e-014	5.	0.1	3432.4
30339	4.3495e-014	4.9091	5.e-002	-6.8203e-005
30340	4.5299e-014	5.1818	0.1	3260.7
30341	4.5106e-014	5.0909	5.e-002	-1.319e-004
30342	4.6888e-014	5.3636	0.1	3008.7
30343	4.6717e-014	5.2727	5.e-002	-1.4824e-004
30344	4.8478e-014	5.5455	0.1	2602.3
30345	4.8328e-014	5.4545	5.e-002	-1.7825e-004
30346	5.0067e-014	5.7273	0.1	1804.6
30347	4.9939e-014	5.6364	5.e-002	-2.4494e-004
30348	5.1657e-014	5.9091	0.1	408.89
30349	5.155e-014	5.8182	5.e-002	-2.3044e-004
30350	23.908	0.	0.1	0.65804
30351	24.	0.	5.e-002	3.392e-005
30352	23.723	0.	0.1	0.88071
30353	23.815	0.	5.e-002	6.4262e-006
30354	23.538	0.	0.1	0.66122
30355	23.631	0.	5.e-002	8.8173e-006
30356	23.354	0.	0.1	0.58107
30357	23.446	0.	5.e-002	1.1207e-005
30358	23.169	0.	0.1	0.51172
30359	23.261	0.	5.e-002	9.9931e-006
30360	22.984	0.	0.1	0.46147
30361	23.077	0.	5.e-002	1.0168e-005
30362	22.8	0.	0.1	0.41885
30363	22.892	0.	5.e-002	9.2304e-006
30364	22.615	0.	0.1	0.38297
30365	22.708	0.	5.e-002	1.1082e-005
30366	22.431	0.	0.1	0.35189
30367	22.523	0.	5.e-002	1.1127e-005
30368	22.246	0.	0.1	0.32465
30369	22.338	0.	5.e-002	8.3498e-006
30370	22.061	0.	0.1	0.30049
30371	22.154	0.	5.e-002	1.0434e-005
30372	21.877	0.	0.1	0.27888
30373	21.969	0.	5.e-002	8.1638e-006
30374	21.692	0.	0.1	0.25942
30375	21.784	0.	5.e-002	8.034e-006
30376	21.507	0.	0.1	0.24179
30377	21.6	0.	5.e-002	9.2213e-006
30378	21.323	0.	0.1	0.22574
30379	21.415	0.	5.e-002	8.7978e-006
30380	21.138	0.	0.1	0.21108
30381	21.23	0.	5.e-002	8.916e-006
30382	20.953	0.	0.1	0.19765
30383	21.046	0.	5.e-002	6.589e-006
30384	20.769	0.	0.1	0.18531
30385	20.861	0.	5.e-002	5.7542e-006
30386	20.584	0.	0.1	0.17396
30387	20.676	0.	5.e-002	8.1307e-006
30388	20.4	0.	0.1	0.16348
30389	20.492	0.	5.e-002	7.8699e-006
30390	20.215	0.	0.1	0.15379
30391	20.307	0.	5.e-002	8.1083e-006
30392	20.03	0.	0.1	0.14483
30393	20.123	0.	5.e-002	5.4852e-006
30394	19.846	0.	0.1	0.13652
30395	19.938	0.	5.e-002	7.9619e-006
30396	19.661	0.	0.1	0.1288
30397	19.753	0.	5.e-002	7.6307e-006
30398	19.476	0.	0.1	0.12161
30399	19.569	0.	5.e-002	7.4375e-006
30400	19.292	0.	0.1	0.11492
30401	19.384	0.	5.e-002	6.3924e-006
30402	19.107	0.	0.1	0.10867
30403	19.199	0.	5.e-002	5.8075e-006
30404	18.922	0.	0.1	0.10283
30405	19.015	0.	5.e-002	7.892e-006
30406	18.738	0.	0.1	9.7341e-002
30407	18.83	0.	5.e-002	7.3323e-006
30408	18.553	0.	0.1	9.2187e-002
30409	18.645	0.	5.e-002	5.4248e-006
30410	18.368	0.	0.1	8.7328e-002
30411	18.461	0.	5.e-002	5.4247e-006
30412	18.184	0.	0.1	8.2732e-002
30413	18.276	0.	5.e-002	6.736e-006
30414	17.999	0.	0.1	7.837e-002
30415	18.092	0.	5.e-002	6.4975e-006
30416	17.815	0.	0.1	7.4212e-002
30417	17.907	0.	5.e-002	6.2747e-006
30418	17.63	0.	0.1	7.0234e-002
30419	17.722	0.	5.e-002	7.4584e-006
30420	17.445	0.	0.1	6.6411e-002
30421	17.538	0.	5.e-002	7.0337e-006
30422	17.261	0.	0.1	6.2717e-002
30423	17.353	0.	5.e-002	6.6166e-006
30424	17.076	0.	0.1	5.9131e-002
30425	17.168	0.	5.e-002	5.1264e-006
30426	16.891	0.	0.1	5.5618e-002
30427	16.984	0.	5.e-002	5.6685e-006
30428	16.707	0.	0.1	5.2165e-002
30429	16.799	0.	5.e-002	4.411e-006
30430	16.522	0.	0.1	4.8761e-002
30431	16.614	0.	5.e-002	5.8416e-006
30432	16.337	0.	0.1	4.5371e-002
30433	16.43	0.	5.e-002	4.1772e-006
30434	16.153	0.	0.1	4.1974e-002
30435	16.245	0.	5.e-002	5.1262e-006
30436	15.968	0.	0.1	3.8551e-002
30437	16.06	0.	5.e-002	5.0109e-006
30438	15.783	0.	0.1	3.508e-002
30439	15.876	0.	5.e-002	5.0105e-006
30440	15.599	0.	0.1	3.1541e-002
30441	15.691	0.	5.e-002	4.8845e-006
30442	15.414	0.	0.1	2.7912e-002
30443	15.507	0.	5.e-002	3.2812e-006
30444	15.23	0.	0.1	2.4169e-002
30445	15.322	0.	5.e-002	5.4862e-006
30446	15.045	0.	0.1	2.0292e-002
30447	15.137	0.	5.e-002	4.5896e-006
30448	14.86	0.	0.1	1.6258e-002
30449	14.953	0.	5.e-002	3.5763e-006
30450	14.676	0.	0.1	1.2042e-002
30451	14.768	0.	5.e-002	5.0664e-006
30452	14.491	0.	0.1	7.6232e-003
30453	14.583	0.	5.e-002	4.0531e-006
30454	14.306	0.	0.1	2.9762e-003
30455	14.399	0.	5.e-002	4.3511e-006
30456	14.122	0.	0.1	-1.923e-003
30457	14.214	0.	5.e-002	3.8743e-006
30458	13.937	0.	0.1	-7.0982e-003
30459	14.029	0.	5.e-002	4.4107e-006
30460	13.752	0.	0.1	-1.2573e-002
30461	13.845	0.	5.e-002	3.5167e-006
30462	13.568	0.	0.1	-1.8372e-002
30463	13.66	0.	5.e-002	4.29e-006
30464	13.383	0.	0.1	-2.4517e-002
30465	13.475	0.	5.e-002	3.8147e-006
30466	13.199	0.	0.1	-3.1031e-002
30467	13.291	0.	5.e-002	3.8744e-006
30468	13.014	0.	0.1	-3.7932e-002
30469	13.106	0.	5.e-002	3.3977e-006
30470	12.829	0.	0.1	-4.5233e-002
30471	12.922	0.	5.e-002	3.5169e-006
30472	12.645	0.	0.1	-5.2953e-002
30473	12.737	0.	5.e-002	3.9343e-006
30474	12.46	0.	0.1	-6.1098e-002
30475	12.552	0.	5.e-002	3.3384e-006
30476	12.275	0.	0.1	-6.9645e-002
30477	12.368	0.	5.e-002	3.643e-006
30478	12.091	0.	0.1	-7.8599e-002
30479	12.183	0.	5.e-002	2.4447e-006
30480	11.906	0.	0.1	-8.7949e-002
30481	11.998	0.	5.e-002	3.0923e-006
30482	11.721	0.	0.1	-9.7636e-002
30483	11.814	0.	5.e-002	3.4585e-006
30484	11.537	0.	0.1	-0.10759
30485	11.629	0.	5.e-002	2.6736e-006
30486	11.352	0.	0.1	-0.11774
30487	11.444	0.	5.e-002	3.2099e-006
30488	11.167	0.	0.1	-0.12794
30489	11.26	0.	5.e-002	2.8643e-006
30490	10.983	0.	0.1	-0.13804
30491	11.075	0.	5.e-002	2.5065e-006
30492	10.798	0.	0.1	-0.14781
30493	10.891	0.	5.e-002	2.5667e-006
30494	10.614	0.	0.1	-0.15699
30495	10.706	0.	5.e-002	2.3896e-006
30496	10.429	0.	0.1	-0.16521
30497	10.521	0.	5.e-002	2.4499e-006
30498	10.244	0.	0.1	-0.17202
30499	10.337	0.	5.e-002	2.0334e-006
30500	10.06	0.	0.1	-0.17688
30501	10.152	0.	5.e-002	2.1518e-006
30502	9.875	0.	0.1	-0.17909
30503	9.9673	0.	5.e-002	2.0361e-006
30504	9.6904	0.	0.1	-0.17781
30505	9.7827	0.	5.e-002	2.1341e-006
30506	9.5057	0.	0.1	-0.17204
30507	9.598	0.	5.e-002	1.9748e-006
30508	9.3211	0.	0.1	-0.16057
30509	9.4134	0.	5.e-002	1.9923e-006
30510	9.1364	0.	0.1	-0.14198
30511	9.2288	0.	5.e-002	2.2857e-006
30512	8.9518	0.	0.1	-0.11463
30513	9.0441	0.	5.e-002	2.0294e-006
30514	8.7672	0.	0.1	-7.6671e-002
30515	8.8595	0.	5.e-002	1.9687e-006
30516	8.5825	0.	0.1	-2.6086e-002
30517	8.6748	0.	5.e-002	2.0564e-006
30518	8.3979	0.	0.1	3.9246e-002
30519	8.4902	0.	5.e-002	1.8266e-006
30520	8.2132	0.	0.1	0.12144
30521	8.3056	0.	5.e-002	1.779e-006
30522	8.0286	0.	0.1	0.22237
30523	8.1209	0.	5.e-002	1.7291e-006
30524	7.844	0.	0.1	0.34335
30525	7.9363	0.	5.e-002	1.6033e-006
30526	7.6593	0.	0.1	0.48452
30527	7.7516	0.	5.e-002	1.9561e-006
30528	7.4747	0.	0.1	0.64403
30529	7.567	0.	5.e-002	1.7541e-006
30530	7.29	0.	0.1	0.8168
30531	7.3824	0.	5.e-002	1.7386e-006
30532	7.1054	0.	0.1	0.99277
30533	7.1977	0.	5.e-002	1.5772e-006
30534	6.9208	0.	0.1	1.1547
30535	7.0131	0.	5.e-002	1.3483e-006
30536	6.7361	0.	0.1	1.2754
30537	6.8284	0.	5.e-002	1.0337e-006
30538	6.5515	0.	0.1	1.3162
30539	6.6438	0.	5.e-002	8.2247e-008
30540	6.3668	0.	0.1	1.2212
30541	6.4592	0.	5.e-002	-1.8262e-014
30542	6.1822	0.	0.1	0.93995
30543	6.2745	0.	5.e-002	-1.9224e-014
30544	5.9975	0.	0.1	0.35862
30545	6.0899	0.	5.e-002	-9.775e-007
30546	5.8129	0.	0.1	-0.35179
30547	5.9052	0.	5.e-002	-1.9219e-014
30548	5.6283	0.	0.1	-2.0604
30549	5.7206	0.	5.e-002	1.7649e-007
30550	5.4436	0.	0.1	-0.16099
30551	5.5359	0.	5.e-002	7.6777e-007
30552	5.259	0.	0.1	20.831
30553	5.3513	0.	5.e-002	-1.5767e-014
30554	5.1667	0.	5.e-002	2.8256e-006
30555	4.9107	-2.383e-031	0.1	25.266
30556	5.	-2.4264e-031	5.e-002	3.6011e-006
30557	4.7321	-2.2964e-031	0.1	-0.43119
30558	4.8214	0.	5.e-002	-2.5998e-006
30559	4.5536	-2.2097e-031	0.1	-3.0126
30560	4.6429	0.	5.e-002	-1.7677e-006
30561	4.375	-2.1231e-031	0.1	-1.222
30562	4.4643	0.	5.e-002	-1.4827e-006
30563	4.1964	-2.0364e-031	0.1	-0.52198
30564	4.2857	0.	5.e-002	-1.9212e-006
30565	4.0179	-1.9498e-031	0.1	4.8303e-002
30566	4.1071	0.	5.e-002	-1.8067e-010
30567	3.8393	-1.8631e-031	0.1	0.27246
30568	3.9286	0.	5.e-002	-2.9337e-014
30569	3.6607	-1.7764e-031	0.1	0.27066
30570	3.75	0.	5.e-002	4.4341e-009
30571	3.4821	-1.6898e-031	0.1	9.4125e-002
30572	3.5714	0.	5.e-002	2.6333e-009
30573	3.3036	-1.6031e-031	0.1	-0.19644
30574	3.3929	0.	5.e-002	-3.0969e-014
30575	3.125	-1.5165e-031	0.1	-0.55827
30576	3.2143	0.	5.e-002	1.0829e-009
30577	2.9464	-1.4298e-031	0.1	-0.96101
30578	3.0357	0.	5.e-002	1.4228e-008
30579	2.7679	-1.3432e-031	0.1	-1.386
30580	2.8571	0.	5.e-002	3.5703e-008
30581	2.5893	-1.2565e-031	0.1	-1.8232
30582	2.6786	0.	5.e-002	6.2696e-008
30583	2.4107	-1.1699e-031	0.1	-2.2688
30584	2.5	0.	5.e-002	1.814e-007
30585	2.2321	-1.0832e-031	0.1	-2.7227
30586	2.3214	0.	5.e-002	1.7431e-007
30587	2.0536	-9.9654e-032	0.1	-3.1883
30588	2.1429	0.	5.e-002	2.7456e-007
30589	1.875	-9.0989e-032	0.1	-3.6707
30590	1.9643	0.	5.e-002	1.5338e-007
30591	1.6964	-8.2323e-032	0.1	-4.1798
30592	1.7857	0.	5.e-002	3.2969e-007
30593	1.5179	-7.3658e-032	0.1	-4.7221
30594	1.6071	0.	5.e-002	2.5873e-007
30595	1.3393	-6.4992e-032	0.1	-5.3313
30596	1.4286	0.	5.e-002	1.7719e-007
30597	1.1607	-5.6326e-032	0.1	-5.9677
30598	1.25	0.	5.e-002	3.5931e-007
30599	0.98214	-4.7661e-032	0.1	-6.8503
30600	1.0714	0.	5.e-002	3.6051e-007
30601	0.80357	-3.8995e-032	0.1	-7.4471
30602	0.89286	0.	5.e-002	3.5775e-007
30603	0.625	-3.033e-032	0.1	-9.0515
30604	0.71429	0.	5.e-002	3.4453e-007
30605	0.44643	-2.1664e-032	0.1	-12.672
30606	0.53571	0.	5.e-002	4.0586e-007
30607	0.26786	-1.2998e-032	0.1	16.731
30608	0.35714	0.	5.e-002	6.9837e-006
30609	8.9286e-002	-4.3328e-033	0.1	-157.45
30610	0.17857	0.	5.e-002	-5.6265e-005
30611	0.	0.	5.e-002	4.6197e-004
30612	8.9286e-002	6.	0.1	-157.45
30613	5.2451e-014	6.	5.e-002	-2.9685e-004
30614	0.26786	6.	0.1	16.731
30615	0.17857	6.	5.e-002	3.4243e-005
30616	0.44643	6.	0.1	-12.672
30617	0.35714	6.	5.e-002	-1.5614e-007
30618	0.625	6.	0.1	-9.0514
30619	0.53571	6.	5.e-002	-2.4352e-007
30620	0.80357	6.	0.1	-7.4471
30621	0.71429	6.	5.e-002	-3.4453e-007
30622	0.98214	6.	0.1	-6.8503
30623	0.89286	6.	5.e-002	-1.7887e-007
30624	1.1607	6.	0.1	-5.9677
30625	1.0714	6.	5.e-002	-3.6051e-007
30626	1.3393	6.	0.1	-5.3313
30627	1.25	6.	5.e-002	-3.5931e-007
30628	1.5179	6.	0.1	-4.7221
30629	1.4286	6.	5.e-002	-1.7719e-007
30630	1.6964	6.	0.1	-4.1798
30631	1.6071	6.	5.e-002	-1.7249e-007
30632	1.875	6.	0.1	-3.6707
30633	1.7857	6.	5.e-002	-3.2969e-007
30634	2.0536	6.	0.1	-3.1883
30635	1.9643	6.	5.e-002	-1.5338e-007
30636	2.2321	6.	0.1	-2.7227
30637	2.1429	6.	5.e-002	-1.3728e-007
30638	2.4107	6.	0.1	-2.2688
30639	2.3214	6.	5.e-002	-1.1621e-007
30640	2.5893	6.	0.1	-1.8232
30641	2.5	6.	5.e-002	-9.0699e-008
30642	2.7679	6.	0.1	-1.386
30643	2.6786	6.	5.e-002	-6.2696e-008
30644	2.9464	6.	0.1	-0.96101
30645	2.8571	6.	5.e-002	-1.7851e-008
30646	3.125	6.	0.1	-0.55827
30647	3.0357	6.	5.e-002	-1.4228e-008
30648	3.3036	6.	0.1	-0.19644
30649	3.2143	6.	5.e-002	-2.1662e-009
30650	3.4821	6.	0.1	9.4125e-002
30651	3.3929	6.	5.e-002	-3.0969e-014
30652	3.6607	6.	0.1	0.27066
30653	3.5714	6.	5.e-002	-5.2667e-009
30654	3.8393	6.	0.1	0.27246
30655	3.75	6.	5.e-002	-4.4342e-009
30656	4.0179	6.	0.1	4.8303e-002
30657	3.9286	6.	5.e-002	1.4305e-006
30658	4.1964	6.	0.1	-0.52198
30659	4.1071	6.	5.e-002	-2.8303e-014
30660	4.375	6.	0.1	-1.222
30661	4.2857	6.	5.e-002	1.9069e-006
30662	4.5536	6.	0.1	-3.0126
30663	4.4643	6.	5.e-002	1.4827e-006
30664	4.7321	6.	0.1	-0.43119
30665	4.6429	6.	5.e-002	9.4075e-007
30666	4.9107	6.	0.1	25.266
30667	4.8214	6.	5.e-002	2.9834e-006
30668	5.	6.	5.e-002	-1.2852e-006
30669	4.7321	6.	0.	0.43119
30670	4.9107	6.	0.	-25.266
30671	4.5536	6.	0.	3.0126
30672	4.375	6.	0.	1.222
30673	4.1964	6.	0.	0.52198
30674	4.0179	6.	0.	-4.8302e-002
30675	3.8393	6.	0.	-0.27246
30676	3.6607	6.	0.	-0.27066
30677	3.4821	6.	0.	-9.4125e-002
30678	3.3036	6.	0.	0.19644
30679	3.125	6.	0.	0.55827
30680	2.9464	6.	0.	0.96101
30681	2.7679	6.	0.	1.386
30682	2.5893	6.	0.	1.8232
30683	2.4107	6.	0.	2.2688
30684	2.2321	6.	0.	2.7227
30685	2.0536	6.	0.	3.1883
30686	1.875	6.	0.	3.6707
30687	1.6964	6.	0.	4.1798
30688	1.5179	6.	0.	4.7221
30689	1.3393	6.	0.	5.3313
30690	1.1607	6.	0.	5.9677
30691	0.98214	6.	0.	6.8503
30692	0.80357	6.	0.	7.4471
30693	0.625	6.	0.	9.0514
30694	0.44643	6.	0.	12.672
30695	0.26786	6.	0.	-16.731
30696	8.9286e-002	6.	0.	157.45
30697	5.	5.9091	0.	2.9578
30698	5.1657e-014	5.9091	0.	-408.89
30699	0.26786	-1.2998e-032	0.	-16.731
30700	8.9286e-002	-4.3328e-033	0.	157.45
30701	0.44643	-2.1664e-032	0.	12.672
30702	0.625	-3.033e-032	0.	9.0515
30703	0.80357	-3.8995e-032	0.	7.4471
30704	0.98214	-4.7661e-032	0.	6.8503
30705	1.1607	-5.6326e-032	0.	5.9677
30706	1.3393	-6.4992e-032	0.	5.3313
30707	1.5179	-7.3658e-032	0.	4.7221
30708	1.6964	-8.2323e-032	0.	4.1798
30709	1.875	-9.0989e-032	0.	3.6707
30710	2.0536	-9.9654e-032	0.	3.1883
30711	2.2321	-1.0832e-031	0.	2.7227
30712	2.4107	-1.1699e-031	0.	2.2688
30713	2.5893	-1.2565e-031	0.	1.8232
30714	2.7679	-1.3432e-031	0.	1.386
30715	2.9464	-1.4298e-031	0.	0.96101
30716	3.125	-1.5165e-031	0.	0.55827
30717	3.3036	-1.6031e-031	0.	0.19644
30718	3.4821	-1.6898e-031	0.	-9.4125e-002
30719	3.6607	-1.7764e-031	0.	-0.27066
30720	3.8393	-1.8631e-031	0.	-0.27246
30721	4.0179	-1.9498e-031	0.	-4.8303e-002
30722	4.1964	-2.0364e-031	0.	0.52198
30723	4.375	-2.1231e-031	0.	1.222
30724	4.5536	-2.2097e-031	0.	3.0126
30725	4.7321	-2.2964e-031	0.	0.43119
30726	4.9107	-2.383e-031	0.	-25.266
30727	5.	9.0909e-002	0.	2.9578
30728	7.9472e-016	9.0909e-002	0.	-408.89
30729	5.4436	0.	0.	0.16099
30730	5.259	0.	0.	-20.831
30731	5.6283	0.	0.	2.0604
30732	5.8129	0.	0.	0.35179
30733	5.9975	0.	0.	-0.35862
30734	6.1822	0.	0.	-0.93995
30735	6.3668	0.	0.	-1.2212
30736	6.5515	0.	0.	-1.3162
30737	6.7361	0.	0.	-1.2754
30738	6.9208	0.	0.	-1.1547
30739	7.1054	0.	0.	-0.99277
30740	7.29	0.	0.	-0.8168
30741	7.4747	0.	0.	-0.64403
30742	7.6593	0.	0.	-0.48452
30743	7.844	0.	0.	-0.34335
30744	8.0286	0.	0.	-0.22237
30745	8.2132	0.	0.	-0.12144
30746	8.3979	0.	0.	-3.9246e-002
30747	8.5825	0.	0.	2.6087e-002
30748	8.7672	0.	0.	7.6672e-002
30749	8.9518	0.	0.	0.11463
30750	9.1364	0.	0.	0.14198
30751	9.3211	0.	0.	0.16057
30752	9.5057	0.	0.	0.17204
30753	9.6904	0.	0.	0.17781
30754	9.875	0.	0.	0.17909
30755	10.06	0.	0.	0.17688
30756	10.244	0.	0.	0.17202
30757	10.429	0.	0.	0.16521
30758	10.614	0.	0.	0.15699
30759	10.798	0.	0.	0.14781
30760	10.983	0.	0.	0.13804
30761	11.167	0.	0.	0.12794
30762	11.352	0.	0.	0.11774
30763	11.537	0.	0.	0.10759
30764	11.721	0.	0.	9.7637e-002
30765	11.906	0.	0.	8.795e-002
30766	12.091	0.	0.	7.8599e-002
30767	12.275	0.	0.	6.9645e-002
30768	12.46	0.	0.	6.1099e-002
30769	12.645	0.	0.	5.2955e-002
30770	12.829	0.	0.	4.5234e-002
30771	13.014	0.	0.	3.7932e-002
30772	13.199	0.	0.	3.1032e-002
30773	13.383	0.	0.	2.4519e-002
30774	13.568	0.	0.	1.8374e-002
30775	13.752	0.	0.	1.2574e-002
30776	13.937	0.	0.	7.0991e-003
30777	14.122	0.	0.	1.9237e-003
30778	14.306	0.	0.	-2.9753e-003
30779	14.491	0.	0.	-7.6217e-003
30780	14.676	0.	0.	-1.2041e-002
30781	14.86	0.	0.	-1.6256e-002
30782	15.045	0.	0.	-2.0292e-002
30783	15.23	0.	0.	-2.4169e-002
30784	15.414	0.	0.	-2.7911e-002
30785	15.599	0.	0.	-3.1541e-002
30786	15.783	0.	0.	-3.508e-002
30787	15.968	0.	0.	-3.855e-002
30788	16.153	0.	0.	-4.1972e-002
30789	16.337	0.	0.	-4.537e-002
30790	16.522	0.	0.	-4.876e-002
30791	16.707	0.	0.	-5.2166e-002
30792	16.891	0.	0.	-5.5617e-002
30793	17.076	0.	0.	-5.9129e-002
30794	17.261	0.	0.	-6.2715e-002
30795	17.445	0.	0.	-6.6407e-002
30796	17.63	0.	0.	-7.0232e-002
30797	17.815	0.	0.	-7.421e-002
30798	17.999	0.	0.	-7.8367e-002
30799	18.184	0.	0.	-8.2729e-002
30800	18.368	0.	0.	-8.7325e-002
30801	18.553	0.	0.	-9.2186e-002
30802	18.738	0.	0.	-9.734e-002
30803	18.922	0.	0.	-0.10282
30804	19.107	0.	0.	-0.10867
30805	19.292	0.	0.	-0.11492
30806	19.476	0.	0.	-0.12161
30807	19.661	0.	0.	-0.12879
30808	19.846	0.	0.	-0.13651
30809	20.03	0.	0.	-0.14483
30810	20.215	0.	0.	-0.15379
30811	20.4	0.	0.	-0.16348
30812	20.584	0.	0.	-0.17396
30813	20.769	0.	0.	-0.18531
30814	20.953	0.	0.	-0.19765
30815	21.138	0.	0.	-0.21108
30816	21.323	0.	0.	-0.22574
30817	21.507	0.	0.	-0.24179
30818	21.692	0.	0.	-0.25941
30819	21.877	0.	0.	-0.27888
30820	22.061	0.	0.	-0.30049
30821	22.246	0.	0.	-0.32465
30822	22.431	0.	0.	-0.35188
30823	22.615	0.	0.	-0.38296
30824	22.8	0.	0.	-0.41885
30825	22.984	0.	0.	-0.46147
30826	23.169	0.	0.	-0.51172
30827	23.354	0.	0.	-0.58107
30828	23.538	0.	0.	-0.66121
30829	23.723	0.	0.	-0.8807
30830	23.908	0.	0.	-0.65804
30831	5.1667	9.0909e-002	0.	0.9541
30832	24.	9.0909e-002	0.	2.3721
30833	5.0067e-014	5.7273	0.	-1804.6
30834	4.8478e-014	5.5455	0.	-2602.3
30835	4.6888e-014	5.3636	0.	-3008.7
30836	4.5299e-014	5.1818	0.	-3260.7
30837	4.371e-014	5.	0.	-3432.4
30838	4.212e-014	4.8182	0.	-3555.3
30839	4.0531e-014	4.6364	0.	-3645.6
30840	3.8941e-014	4.4545	0.	-3712.9
30841	3.7352e-014	4.2727	0.	-3763.4
30842	3.5762e-014	4.0909	0.	-3801.2
30843	3.4173e-014	3.9091	0.	-3829.3
30844	3.2583e-014	3.7273	0.	-3849.8
30845	3.0994e-014	3.5455	0.	-3864.4
30846	2.9405e-014	3.3636	0.	-3874.
30847	2.7815e-014	3.1818	0.	-3879.4
30848	2.6226e-014	3.	0.	-3881.1
30849	2.4636e-014	2.8182	0.	-3879.4
30850	2.3047e-014	2.6364	0.	-3874.
30851	2.1457e-014	2.4545	0.	-3864.4
30852	1.9868e-014	2.2727	0.	-3849.8
30853	1.8279e-014	2.0909	0.	-3829.3
30854	1.6689e-014	1.9091	0.	-3801.2
30855	1.51e-014	1.7273	0.	-3763.4
30856	1.351e-014	1.5455	0.	-3712.9
30857	1.1921e-014	1.3636	0.	-3645.6
30858	1.0331e-014	1.1818	0.	-3555.3
30859	8.7419e-015	1.	0.	-3432.4
30860	7.1525e-015	0.81818	0.	-3260.7
30861	5.563e-015	0.63636	0.	-3008.7
30862	3.9736e-015	0.45455	0.	-2602.3
30863	2.3842e-015	0.27273	0.	-1804.6
30864	24.	0.27273	0.	2.1776
30865	24.	0.45455	0.	2.27
30866	24.	0.63636	0.	2.3862
30867	24.	0.81818	0.	2.4209
30868	24.	1.	0.	2.4505
30869	24.	1.1818	0.	2.4701
30870	24.	1.3636	0.	2.4853
30871	24.	1.5455	0.	2.4969
30872	24.	1.7273	0.	2.506
30873	24.	1.9091	0.	2.5132
30874	24.	2.0909	0.	2.5188
30875	24.	2.2727	0.	2.523
30876	24.	2.4545	0.	2.5262
30877	24.	2.6364	0.	2.5284
30878	24.	2.8182	0.	2.5297
30879	24.	3.	0.	2.5301
30880	24.	3.1818	0.	2.5297
30881	24.	3.3636	0.	2.5284
30882	24.	3.5455	0.	2.5262
30883	24.	3.7273	0.	2.523
30884	24.	3.9091	0.	2.5188
30885	24.	4.0909	0.	2.5132
30886	24.	4.2727	0.	2.506
30887	24.	4.4545	0.	2.4969
30888	24.	4.6364	0.	2.4853
30889	24.	4.8182	0.	2.4701
30890	24.	5.	0.	2.4505
30891	24.	5.1818	0.	2.4209
30892	24.	5.3636	0.	2.3862
30893	24.	5.5455	0.	2.27
30894	24.	5.7273	0.	2.1776
30895	24.	5.9091	0.	2.3721
30896	23.908	6.	0.	-0.65804
30897	23.723	6.	0.	-0.88071
30898	23.538	6.	0.	-0.66121
30899	23.354	6.	0.	-0.58106
30900	23.169	6.	0.	-0.51171
30901	22.984	6.	0.	-0.46147
30902	22.8	6.	0.	-0.41885
30903	22.615	6.	0.	-0.38296
30904	22.431	6.	0.	-0.35188
30905	22.246	6.	0.	-0.32464
30906	22.061	6.	0.	-0.30049
30907	21.877	6.	0.	-0.27888
30908	21.692	6.	0.	-0.25941
30909	21.507	6.	0.	-0.24178
30910	21.323	6.	0.	-0.22574
30911	21.138	6.	0.	-0.21108
30912	20.953	6.	0.	-0.19765
30913	20.769	6.	0.	-0.18531
30914	20.584	6.	0.	-0.17395
30915	20.4	6.	0.	-0.16348
30916	20.215	6.	0.	-0.15379
30917	20.03	6.	0.	-0.14483
30918	19.846	6.	0.	-0.13651
30919	19.661	6.	0.	-0.12879
30920	19.476	6.	0.	-0.12161
30921	19.292	6.	0.	-0.11492
30922	19.107	6.	0.	-0.10867
30923	18.922	6.	0.	-0.10282
30924	18.738	6.	0.	-9.7341e-002
30925	18.553	6.	0.	-9.2187e-002
30926	18.368	6.	0.	-8.7326e-002
30927	18.184	6.	0.	-8.2729e-002
30928	17.999	6.	0.	-7.8367e-002
30929	17.815	6.	0.	-7.421e-002
30930	17.63	6.	0.	-7.0232e-002
30931	17.445	6.	0.	-6.6407e-002
30932	17.261	6.	0.	-6.2715e-002
30933	17.076	6.	0.	-5.9129e-002
30934	16.891	6.	0.	-5.5616e-002
30935	16.707	6.	0.	-5.2165e-002
30936	16.522	6.	0.	-4.8759e-002
30937	16.337	6.	0.	-4.5368e-002
30938	16.153	6.	0.	-4.1972e-002
30939	15.968	6.	0.	-3.8549e-002
30940	15.783	6.	0.	-3.5079e-002
30941	15.599	6.	0.	-3.154e-002
30942	15.414	6.	0.	-2.791e-002
30943	15.23	6.	0.	-2.4167e-002
30944	15.045	6.	0.	-2.029e-002
30945	14.86	6.	0.	-1.6256e-002
30946	14.676	6.	0.	-1.2041e-002
30947	14.491	6.	0.	-7.6211e-003
30948	14.306	6.	0.	-2.9746e-003
30949	14.122	6.	0.	1.9242e-003
30950	13.937	6.	0.	7.0999e-003
30951	13.752	6.	0.	1.2575e-002
30952	13.568	6.	0.	1.8373e-002
30953	13.383	6.	0.	2.4518e-002
30954	13.199	6.	0.	3.1031e-002
30955	13.014	6.	0.	3.7932e-002
30956	12.829	6.	0.	4.5234e-002
30957	12.645	6.	0.	5.2955e-002
30958	12.46	6.	0.	6.1099e-002
30959	12.275	6.	0.	6.9646e-002
30960	12.091	6.	0.	7.86e-002
30961	11.906	6.	0.	8.795e-002
30962	11.721	6.	0.	9.7636e-002
30963	11.537	6.	0.	0.10759
30964	11.352	6.	0.	0.11774
30965	11.167	6.	0.	0.12794
30966	10.983	6.	0.	0.13804
30967	10.798	6.	0.	0.14781
30968	10.614	6.	0.	0.15699
30969	10.429	6.	0.	0.16521
30970	10.244	6.	0.	0.17202
30971	10.06	6.	0.	0.17688
30972	9.875	6.	0.	0.17909
30973	9.6904	6.	0.	0.17781
30974	9.5057	6.	0.	0.17204
30975	9.3211	6.	0.	0.16057
30976	9.1364	6.	0.	0.14198
30977	8.9518	6.	0.	0.11463
30978	8.7672	6.	0.	7.6671e-002
30979	8.5825	6.	0.	2.6086e-002
30980	8.3979	6.	0.	-3.9247e-002
30981	8.2132	6.	0.	-0.12144
30982	8.0286	6.	0.	-0.22237
30983	7.844	6.	0.	-0.34335
30984	7.6593	6.	0.	-0.48452
30985	7.4747	6.	0.	-0.64403
30986	7.29	6.	0.	-0.8168
30987	7.1054	6.	0.	-0.99277
30988	6.9208	6.	0.	-1.1547
30989	6.7361	6.	0.	-1.2754
30990	6.5515	6.	0.	-1.3162
30991	6.3668	6.	0.	-1.2212
30992	6.1822	6.	0.	-0.93995
30993	5.9975	6.	0.	-0.35862
30994	5.8129	6.	0.	0.35179
30995	5.6283	6.	0.	2.0604
30996	5.4436	6.	0.	0.16099
30997	5.259	6.	0.	-20.831
30998	5.1667	5.9091	0.	0.95411
30999	5.	1.7273	0.	87.659
31000	5.	1.9091	0.	-1473.
31001	5.	1.5455	0.	99.734
31002	5.	1.3636	0.	42.58
31003	5.	1.1818	0.	38.157
31004	5.	1.	0.	29.808
31005	5.	0.81818	0.	26.476
31006	5.	0.63636	0.	23.634
31007	5.	0.45455	0.	22.58
31008	5.	0.27273	0.	20.087
31009	5.0833	2.	0.	-2526.
31010	5.1667	0.27273	0.	15.672
31011	5.1667	0.45455	0.	17.905
31012	5.1667	0.63636	0.	19.061
31013	5.1667	0.81818	0.	21.746
31014	5.1667	1.	0.	24.847
31015	5.1667	1.1818	0.	32.48
31016	5.1667	1.3636	0.	36.616
31017	5.1667	1.5455	0.	86.602
31018	5.1667	1.7273	0.	72.269
31019	5.1667	1.9091	0.	-1461.1
31020	5.	4.2727	0.	87.66
31021	5.	4.0909	0.	-1473.
31022	5.	4.4545	0.	99.734
31023	5.	4.6364	0.	42.58
31024	5.	4.8182	0.	38.157
31025	5.	5.	0.	29.808
31026	5.	5.1818	0.	26.476
31027	5.	5.3636	0.	23.634
31028	5.	5.5455	0.	22.58
31029	5.	5.7273	0.	20.087
31030	5.0833	4.	0.	-2526.
31031	5.1667	5.7273	0.	15.672
31032	5.1667	5.5455	0.	17.905
31033	5.1667	5.3636	0.	19.061
31034	5.1667	5.1818	0.	21.746
31035	5.1667	5.	0.	24.847
31036	5.1667	4.8182	0.	32.48
31037	5.1667	4.6364	0.	36.616
31038	5.1667	4.4545	0.	86.602
31039	5.1667	4.2727	0.	72.269
31040	5.1667	4.0909	0.	-1461.1
