Node Number	X Location (in)	Y Location (in)	Z Location (in)	Maximum Principal Stress (psi)
1	11.3	2.1818	0.	1378.2
2	11.3	2.3636	0.	1086.6
3	11.3	2.5455	0.	913.56
4	11.3	2.7273	0.	821.91
5	11.3	2.9091	0.	780.64
6	11.3	3.0909	0.	780.64
7	11.3	3.2727	0.	821.91
8	11.3	3.4545	0.	913.56
9	11.3	3.6364	0.	1086.6
10	11.3	3.8182	0.	1378.2
11	11.467	2.1818	0.	1103.6
12	11.467	2.3636	0.	1000.2
13	11.467	2.5455	0.	856.89
14	11.467	2.7273	0.	778.05
15	11.467	2.9091	0.	741.34
16	11.467	3.0909	0.	741.34
17	11.467	3.2727	0.	778.05
18	11.467	3.4545	0.	856.89
19	11.467	3.6364	0.	1000.2
20	11.467	3.8182	0.	1103.6
21	11.118	5.8182	0.	102.73
22	11.118	5.6364	0.	231.2
23	11.118	5.4545	0.	425.89
24	11.118	5.2727	0.	657.85
25	11.118	5.0909	0.	927.
26	11.118	4.9091	0.	1241.9
27	11.118	4.7273	0.	1621.3
28	11.118	4.5455	0.	2084.1
29	11.118	4.3636	0.	2725.6
30	11.118	4.1818	0.	3186.4
31	11.118	4.	0.	2346.7
32	11.118	3.8182	0.	1155.
33	11.118	3.6364	0.	929.42
34	11.118	3.4545	0.	797.37
35	11.118	3.2727	0.	740.72
36	11.118	3.0909	0.	713.14
37	11.118	2.9091	0.	713.14
38	11.118	2.7273	0.	740.72
39	11.118	2.5455	0.	797.37
40	11.118	2.3636	0.	929.42
41	11.118	2.1818	0.	1155.
42	11.118	2.	0.	2346.7
43	11.118	1.8182	0.	3186.4
44	11.118	1.6364	0.	2725.6
45	11.118	1.4545	0.	2084.1
46	11.118	1.2727	0.	1621.3
47	11.118	1.0909	0.	1241.9
48	11.118	0.90909	0.	927.
49	11.118	0.72727	0.	657.85
50	11.118	0.54545	0.	425.89
51	11.118	0.36364	0.	231.2
52	11.118	0.18182	0.	102.73
53	10.935	5.8182	0.	74.902
54	10.935	5.6364	0.	143.29
55	10.935	5.4545	0.	277.9
56	10.935	5.2727	0.	453.26
57	10.935	5.0909	0.	659.08
58	10.935	4.9091	0.	891.54
59	10.935	4.7273	0.	1148.7
60	10.935	4.5455	0.	1407.
61	10.935	4.3636	0.	1619.2
62	10.935	4.1818	0.	1616.5
63	10.935	4.	0.	1180.
64	10.935	3.8182	0.	799.2
65	10.935	3.6364	0.	642.7
66	10.935	3.4545	0.	601.69
67	10.935	3.2727	0.	579.82
68	10.935	3.0909	0.	571.04
69	10.935	2.9091	0.	571.04
70	10.935	2.7273	0.	579.82
71	10.935	2.5455	0.	601.69
72	10.935	2.3636	0.	642.7
73	10.935	2.1818	0.	799.2
74	10.935	2.	0.	1180.
75	10.935	1.8182	0.	1616.5
76	10.935	1.6364	0.	1619.2
77	10.935	1.4545	0.	1407.
78	10.935	1.2727	0.	1148.7
79	10.935	1.0909	0.	891.54
80	10.935	0.90909	0.	659.08
81	10.935	0.72727	0.	453.26
82	10.935	0.54545	0.	277.9
83	10.935	0.36364	0.	143.29
84	10.935	0.18182	0.	74.902
85	10.753	5.8182	0.	74.354
86	10.753	5.6364	0.	131.22
87	10.753	5.4545	0.	230.56
88	10.753	5.2727	0.	362.12
89	10.753	5.0909	0.	516.51
90	10.753	4.9091	0.	684.01
91	10.753	4.7273	0.	849.79
92	10.753	4.5455	0.	988.36
93	10.753	4.3636	0.	1043.1
94	10.753	4.1818	0.	954.08
95	10.753	4.	0.	748.56
96	10.753	3.8182	0.	547.05
97	10.753	3.6364	0.	447.38
98	10.753	3.4545	0.	418.6
99	10.753	3.2727	0.	412.6
100	10.753	3.0909	0.	412.22
101	10.753	2.9091	0.	412.22
102	10.753	2.7273	0.	412.6
103	10.753	2.5455	0.	418.6
104	10.753	2.3636	0.	447.38
105	10.753	2.1818	0.	547.05
106	10.753	2.	0.	748.56
107	10.753	1.8182	0.	954.08
108	10.753	1.6364	0.	1043.1
109	10.753	1.4545	0.	988.36
110	10.753	1.2727	0.	849.79
111	10.753	1.0909	0.	684.01
112	10.753	0.90909	0.	516.51
113	10.753	0.72727	0.	362.12
114	10.753	0.54545	0.	230.56
115	10.753	0.36364	0.	131.22
116	10.753	0.18182	0.	74.354
117	10.571	5.8182	0.	74.485
118	10.571	5.6364	0.	131.15
119	10.571	5.4545	0.	210.27
120	10.571	5.2727	0.	308.54
121	10.571	5.0909	0.	419.82
122	10.571	4.9091	0.	533.99
123	10.571	4.7273	0.	635.87
124	10.571	4.5455	0.	703.42
125	10.571	4.3636	0.	709.1
126	10.571	4.1818	0.	635.21
127	10.571	4.	0.	509.37
128	10.571	3.8182	0.	387.86
129	10.571	3.6364	0.	311.69
130	10.571	3.4545	0.	281.37
131	10.571	3.2727	0.	274.3
132	10.571	3.0909	0.	273.97
133	10.571	2.9091	0.	273.97
134	10.571	2.7273	0.	274.3
135	10.571	2.5455	0.	281.37
136	10.571	2.3636	0.	311.69
137	10.571	2.1818	0.	387.86
138	10.571	2.	0.	509.37
139	10.571	1.8182	0.	635.21
140	10.571	1.6364	0.	709.1
141	10.571	1.4545	0.	703.42
142	10.571	1.2727	0.	635.87
143	10.571	1.0909	0.	533.99
144	10.571	0.90909	0.	419.82
145	10.571	0.72727	0.	308.54
146	10.571	0.54545	0.	210.27
147	10.571	0.36364	0.	131.15
148	10.571	0.18182	0.	74.485
149	10.389	5.8182	0.	71.962
150	10.389	5.6364	0.	129.76
151	10.389	5.4545	0.	196.24
152	10.389	5.2727	0.	270.72
153	10.389	5.0909	0.	349.4
154	10.389	4.9091	0.	424.29
155	10.389	4.7273	0.	483.73
156	10.389	4.5455	0.	513.27
157	10.389	4.3636	0.	499.86
158	10.389	4.1818	0.	442.38
159	10.389	4.	0.	357.41
160	10.389	3.8182	0.	274.21
161	10.389	3.6364	0.	215.14
162	10.389	3.4545	0.	183.86
163	10.389	3.2727	0.	171.66
164	10.389	3.0909	0.	168.31
165	10.389	2.9091	0.	168.31
166	10.389	2.7273	0.	171.66
167	10.389	2.5455	0.	183.86
168	10.389	2.3636	0.	215.14
169	10.389	2.1818	0.	274.21
170	10.389	2.	0.	357.41
171	10.389	1.8182	0.	442.38
172	10.389	1.6364	0.	499.86
173	10.389	1.4545	0.	513.27
174	10.389	1.2727	0.	483.73
175	10.389	1.0909	0.	424.29
176	10.389	0.90909	0.	349.4
177	10.389	0.72727	0.	270.72
178	10.389	0.54545	0.	196.24
179	10.389	0.36364	0.	129.76
180	10.389	0.18182	0.	71.962
181	10.206	5.8182	0.	67.465
182	10.206	5.6364	0.	124.87
183	10.206	5.4545	0.	182.22
184	10.206	5.2727	0.	239.74
185	10.206	5.0909	0.	295.2
186	10.206	4.9091	0.	343.09
187	10.206	4.7273	0.	375.67
188	10.206	4.5455	0.	384.73
189	10.206	4.3636	0.	364.97
190	10.206	4.1818	0.	318.35
191	10.206	4.	0.	256.07
192	10.206	3.8182	0.	194.2
193	10.206	3.6364	0.	145.66
194	10.206	3.4545	0.	114.94
195	10.206	3.2727	0.	99.117
196	10.206	3.0909	0.	92.95
197	10.206	2.9091	0.	92.95
198	10.206	2.7273	0.	99.117
199	10.206	2.5455	0.	114.94
200	10.206	2.3636	0.	145.66
201	10.206	2.1818	0.	194.2
202	10.206	2.	0.	256.07
203	10.206	1.8182	0.	318.35
204	10.206	1.6364	0.	364.97
205	10.206	1.4545	0.	384.73
206	10.206	1.2727	0.	375.67
207	10.206	1.0909	0.	343.09
208	10.206	0.90909	0.	295.2
209	10.206	0.72727	0.	239.74
210	10.206	0.54545	0.	182.22
211	10.206	0.36364	0.	124.87
212	10.206	0.18182	0.	67.465
213	10.024	5.8182	0.	61.711
214	10.024	5.6364	0.	116.8
215	10.024	5.4545	0.	166.67
216	10.024	5.2727	0.	211.87
217	10.024	5.0909	0.	251.18
218	10.024	4.9091	0.	281.16
219	10.024	4.7273	0.	297.21
220	10.024	4.5455	0.	295.14
221	10.024	4.3636	0.	273.18
222	10.024	4.1818	0.	234.03
223	10.024	4.	0.	185.1
224	10.024	3.8182	0.	136.13
225	10.024	3.6364	0.	95.24
226	10.024	3.4545	0.	66.257
227	10.024	3.2727	0.	48.907
228	10.024	3.0909	0.	41.066
229	10.024	2.9091	0.	41.066
230	10.024	2.7273	0.	48.907
231	10.024	2.5455	0.	66.257
232	10.024	2.3636	0.	95.24
233	10.024	2.1818	0.	136.13
234	10.024	2.	0.	185.1
235	10.024	1.8182	0.	234.03
236	10.024	1.6364	0.	273.18
237	10.024	1.4545	0.	295.14
238	10.024	1.2727	0.	297.21
239	10.024	1.0909	0.	281.16
240	10.024	0.90909	0.	251.18
241	10.024	0.72727	0.	211.87
242	10.024	0.54545	0.	166.67
243	10.024	0.36364	0.	116.8
244	10.024	0.18182	0.	61.711
245	9.8419	5.8182	0.	55.366
246	9.8419	5.6364	0.	106.55
247	9.8419	5.4545	0.	149.84
248	9.8419	5.2727	0.	185.84
249	9.8419	5.0909	0.	213.95
250	9.8419	4.9091	0.	232.25
251	9.8419	4.7273	0.	238.3
252	9.8419	4.5455	0.	230.24
253	9.8419	4.3636	0.	207.99
254	9.8419	4.1818	0.	174.14
255	9.8419	4.	0.	133.85
256	9.8419	3.8182	0.	93.419
257	9.8419	3.6364	0.	58.352
258	9.8419	3.4545	0.	31.845
259	9.8419	3.2727	0.	14.641
260	9.8419	3.0909	0.	6.0044
261	9.8419	2.9091	0.	6.0044
262	9.8419	2.7273	0.	14.641
263	9.8419	2.5455	0.	31.845
264	9.8419	2.3636	0.	58.352
265	9.8419	2.1818	0.	93.419
266	9.8419	2.	0.	133.85
267	9.8419	1.8182	0.	174.14
268	9.8419	1.6364	0.	207.99
269	9.8419	1.4545	0.	230.24
270	9.8419	1.2727	0.	238.3
271	9.8419	1.0909	0.	232.25
272	9.8419	0.90909	0.	213.95
273	9.8419	0.72727	0.	185.84
274	9.8419	0.54545	0.	149.84
275	9.8419	0.36364	0.	106.55
276	9.8419	0.18182	0.	55.366
277	9.6597	5.8182	0.	48.909
278	9.6597	5.6364	0.	95.152
279	9.6597	5.4545	0.	132.46
280	9.6597	5.2727	0.	161.33
281	9.6597	5.0909	0.	181.6
282	9.6597	4.9091	0.	192.31
283	9.6597	4.7273	0.	192.37
284	9.6597	4.5455	0.	181.25
285	9.6597	4.3636	0.	159.63
286	9.6597	4.1818	0.	129.83
287	9.6597	4.	0.	95.601
288	9.6597	3.8182	0.	61.356
289	9.6597	3.6364	0.	31.14
290	9.6597	3.4545	0.	8.4398
291	9.6597	3.2727	0.	0.8595
292	9.6597	3.0909	0.	0.24073
293	9.6597	2.9091	0.	0.24073
294	9.6597	2.7273	0.	0.8595
295	9.6597	2.5455	0.	8.4398
296	9.6597	2.3636	0.	31.14
297	9.6597	2.1818	0.	61.356
298	9.6597	2.	0.	95.601
299	9.6597	1.8182	0.	129.83
300	9.6597	1.6364	0.	159.63
301	9.6597	1.4545	0.	181.25
302	9.6597	1.2727	0.	192.37
303	9.6597	1.0909	0.	192.31
304	9.6597	0.90909	0.	181.6
305	9.6597	0.72727	0.	161.33
306	9.6597	0.54545	0.	132.46
307	9.6597	0.36364	0.	95.152
308	9.6597	0.18182	0.	48.909
309	9.4774	5.8182	0.	42.656
310	9.4774	5.6364	0.	83.408
311	9.4774	5.4545	0.	115.2
312	9.4774	5.2727	0.	138.39
313	9.4774	5.0909	0.	153.03
314	9.4774	4.9091	0.	158.77
315	9.4774	4.7273	0.	155.3
316	9.4774	4.5455	0.	142.81
317	9.4774	4.3636	0.	122.3
318	9.4774	4.1818	0.	95.798
319	9.4774	4.	0.	66.186
320	9.4774	3.8182	0.	36.79
321	9.4774	3.6364	0.	11.393
322	9.4774	3.4545	0.	1.182
323	9.4774	3.2727	0.	0.32779
324	9.4774	3.0909	0.	0.15535
325	9.4774	2.9091	0.	0.15535
326	9.4774	2.7273	0.	0.32779
327	9.4774	2.5455	0.	1.182
328	9.4774	2.3636	0.	11.393
329	9.4774	2.1818	0.	36.79
330	9.4774	2.	0.	66.186
331	9.4774	1.8182	0.	95.798
332	9.4774	1.6364	0.	122.3
333	9.4774	1.4545	0.	142.81
334	9.4774	1.2727	0.	155.3
335	9.4774	1.0909	0.	158.77
336	9.4774	0.90909	0.	153.03
337	9.4774	0.72727	0.	138.39
338	9.4774	0.54545	0.	115.2
339	9.4774	0.36364	0.	83.408
340	9.4774	0.18182	0.	42.656
341	9.2952	5.8182	0.	36.786
342	9.2952	5.6364	0.	71.887
343	9.2952	5.4545	0.	98.595
344	9.2952	5.2727	0.	117.11
345	9.2952	5.0909	0.	127.58
346	9.2952	4.9091	0.	129.99
347	9.2952	4.7273	0.	124.48
348	9.2952	4.5455	0.	111.58
349	9.2952	4.3636	0.	92.406
350	9.2952	4.1818	0.	68.726
351	9.2952	4.	0.	42.864
352	9.2952	3.8182	0.	17.684
353	9.2952	3.6364	0.	2.0218
354	9.2952	3.4545	0.	0.46146
355	9.2952	3.2727	0.	0.18892
356	9.2952	3.0909	0.	0.1061
357	9.2952	2.9091	0.	0.1061
358	9.2952	2.7273	0.	0.18892
359	9.2952	2.5455	0.	0.46146
360	9.2952	2.3636	0.	2.0217
361	9.2952	2.1818	0.	17.684
362	9.2952	2.	0.	42.864
363	9.2952	1.8182	0.	68.726
364	9.2952	1.6364	0.	92.406
365	9.2952	1.4545	0.	111.58
366	9.2952	1.2727	0.	124.48
367	9.2952	1.0909	0.	129.99
368	9.2952	0.90909	0.	127.58
369	9.2952	0.72727	0.	117.11
370	9.2952	0.54545	0.	98.595
371	9.2952	0.36364	0.	71.887
372	9.2952	0.18182	0.	36.786
373	9.1129	5.8182	0.	31.384
374	9.1129	5.6364	0.	60.942
375	9.1129	5.4545	0.	82.979
376	9.1129	5.2727	0.	97.536
377	9.1129	5.0909	0.	104.79
378	9.1129	4.9091	0.	104.9
379	9.1129	4.7273	0.	98.228
380	9.1129	4.5455	0.	85.457
381	9.1129	4.3636	0.	67.693
382	9.1129	4.1818	0.	46.491
383	9.1129	4.	0.	23.866
384	9.1129	3.8182	0.	4.3308
385	9.1129	3.6364	0.	0.63936
386	9.1129	3.4545	0.	0.24642
387	9.1129	3.2727	0.	0.11967
388	9.1129	3.0909	0.	7.3393e-002
389	9.1129	2.9091	0.	7.3393e-002
390	9.1129	2.7273	0.	0.11967
391	9.1129	2.5455	0.	0.24642
392	9.1129	2.3636	0.	0.63936
393	9.1129	2.1818	0.	4.3307
394	9.1129	2.	0.	23.866
395	9.1129	1.8182	0.	46.491
396	9.1129	1.6364	0.	67.693
397	9.1129	1.4545	0.	85.457
398	9.1129	1.2727	0.	98.228
399	9.1129	1.0909	0.	104.9
400	9.1129	0.90909	0.	104.79
401	9.1129	0.72727	0.	97.536
402	9.1129	0.54545	0.	82.979
403	9.1129	0.36364	0.	60.942
404	9.1129	0.18182	0.	31.384
405	8.9306	5.8182	0.	26.471
406	8.9306	5.6364	0.	50.766
407	8.9306	5.4545	0.	68.527
408	8.9306	5.2727	0.	79.664
409	8.9306	5.0909	0.	84.338
410	8.9306	4.9091	0.	82.782
411	8.9306	4.7273	0.	75.451
412	8.9306	4.5455	0.	63.072
413	8.9306	4.3636	0.	46.691
414	8.9306	4.1818	0.	27.712
415	8.9306	4.	0.	8.4562
416	8.9306	3.8182	0.	0.87523
417	8.9306	3.6364	0.	0.30467
418	8.9306	3.4545	0.	0.14654
419	8.9306	3.2727	0.	7.8645e-002
420	8.9306	3.0909	0.	5.1001e-002
421	8.9306	2.9091	0.	5.1001e-002
422	8.9306	2.7273	0.	7.8646e-002
423	8.9306	2.5455	0.	0.14654
424	8.9306	2.3636	0.	0.30467
425	8.9306	2.1818	0.	0.87523
426	8.9306	2.	0.	8.4562
427	8.9306	1.8182	0.	27.712
428	8.9306	1.6364	0.	46.691
429	8.9306	1.4545	0.	63.072
430	8.9306	1.2727	0.	75.451
431	8.9306	1.0909	0.	82.782
432	8.9306	0.90909	0.	84.338
433	8.9306	0.72727	0.	79.664
434	8.9306	0.54545	0.	68.527
435	8.9306	0.36364	0.	50.766
436	8.9306	0.18182	0.	26.471
437	8.7484	5.8182	0.	22.027
438	8.7484	5.6364	0.	41.433
439	8.7484	5.4545	0.	55.298
440	8.7484	5.2727	0.	63.422
441	8.7484	5.0909	0.	65.938
442	8.7484	4.9091	0.	63.101
443	8.7484	4.7273	0.	55.383
444	8.7484	4.5455	0.	43.498
445	8.7484	4.3636	0.	28.426
446	8.7484	4.1818	0.	11.635
447	8.7484	4.	0.	1.1733
448	8.7484	3.8182	0.	0.34641
449	8.7484	3.6364	0.	0.16876
450	8.7484	3.4545	0.	9.1723e-002
451	8.7484	3.2727	0.	5.2596e-002
452	8.7484	3.0909	0.	3.545e-002
453	8.7484	2.9091	0.	3.545e-002
454	8.7484	2.7273	0.	5.2596e-002
455	8.7484	2.5455	0.	9.1723e-002
456	8.7484	2.3636	0.	0.16876
457	8.7484	2.1818	0.	0.34641
458	8.7484	2.	0.	1.1733
459	8.7484	1.8182	0.	11.635
460	8.7484	1.6364	0.	28.426
461	8.7484	1.4545	0.	43.498
462	8.7484	1.2727	0.	55.383
463	8.7484	1.0909	0.	63.101
464	8.7484	0.90909	0.	65.938
465	8.7484	0.72727	0.	63.422
466	8.7484	0.54545	0.	55.298
467	8.7484	0.36364	0.	41.433
468	8.7484	0.18182	0.	22.027
469	8.5661	5.8182	0.	18.014
470	8.5661	5.6364	0.	32.943
471	8.5661	5.4545	0.	43.265
472	8.5661	5.2727	0.	48.699
473	8.5661	5.0909	0.	49.345
474	8.5661	4.9091	0.	45.451
475	8.5661	4.7273	0.	37.476
476	8.5661	4.5455	0.	26.098
477	8.5661	4.3636	0.	12.332
478	8.5661	4.1818	0.	1.4006
479	8.5661	4.	0.	0.35327
480	8.5661	3.8182	0.	0.17637
481	8.5661	3.6364	0.	0.10076
482	8.5661	3.4545	0.	5.9103e-002
483	8.5661	3.2727	0.	3.5459e-002
484	8.5661	3.0909	0.	2.4538e-002
485	8.5661	2.9091	0.	2.4538e-002
486	8.5661	2.7273	0.	3.5459e-002
487	8.5661	2.5455	0.	5.9103e-002
488	8.5661	2.3636	0.	0.10076
489	8.5661	2.1818	0.	0.17637
490	8.5661	2.	0.	0.35327
491	8.5661	1.8182	0.	1.4006
492	8.5661	1.6364	0.	12.332
493	8.5661	1.4545	0.	26.098
494	8.5661	1.2727	0.	37.476
495	8.5661	1.0909	0.	45.451
496	8.5661	0.90909	0.	49.345
497	8.5661	0.72727	0.	48.699
498	8.5661	0.54545	0.	43.265
499	8.5661	0.36364	0.	32.943
500	8.5661	0.18182	0.	18.014
501	8.3839	5.8182	0.	14.381
502	8.3839	5.6364	0.	25.246
503	8.3839	5.4545	0.	32.348
504	8.3839	5.2727	0.	35.351
505	8.3839	5.0909	0.	34.326
506	8.3839	4.9091	0.	29.505
507	8.3839	4.7273	0.	21.323
508	8.3839	4.5455	0.	10.504
509	8.3839	4.3636	0.	1.2152
510	8.3839	4.1818	0.	0.31208
511	8.3839	4.	0.	0.16526
512	8.3839	3.8182	0.	0.10082
513	8.3839	3.6364	0.	6.2969e-002
514	8.3839	3.4545	0.	3.8761e-002
515	8.3839	3.2727	0.	2.3916e-002
516	8.3839	3.0909	0.	1.6791e-002
517	8.3839	2.9091	0.	1.6791e-002
518	8.3839	2.7273	0.	2.3917e-002
519	8.3839	2.5455	0.	3.8761e-002
520	8.3839	2.3636	0.	6.297e-002
521	8.3839	2.1818	0.	0.10082
522	8.3839	2.	0.	0.16526
523	8.3839	1.8182	0.	0.31208
524	8.3839	1.6364	0.	1.2152
525	8.3839	1.4545	0.	10.504
526	8.3839	1.2727	0.	21.323
527	8.3839	1.0909	0.	29.505
528	8.3839	0.90909	0.	34.326
529	8.3839	0.72727	0.	35.351
530	8.3839	0.54545	0.	32.348
531	8.3839	0.36364	0.	25.246
532	8.3839	0.18182	0.	14.381
533	8.2016	5.8182	0.	11.076
534	8.2016	5.6364	0.	18.268
535	8.2016	5.4545	0.	22.439
536	8.2016	5.2727	0.	23.221
537	8.2016	5.0909	0.	20.665
538	8.2016	4.9091	0.	14.996
539	8.2016	4.7273	0.	6.7449
540	8.2016	4.5455	0.	0.67198
541	8.2016	4.3636	0.	0.23395
542	8.2016	4.1818	0.	0.13855
543	8.2016	4.	0.	9.1768e-002
544	8.2016	3.8182	0.	6.1749e-002
545	8.2016	3.6364	0.	4.0586e-002
546	8.2016	3.4545	0.	2.5659e-002
547	8.2016	3.2727	0.	1.5994e-002
548	8.2016	3.0909	0.	1.1224e-002
549	8.2016	2.9091	0.	1.1224e-002
550	8.2016	2.7273	0.	1.5994e-002
551	8.2016	2.5455	0.	2.5659e-002
552	8.2016	2.3636	0.	4.0587e-002
553	8.2016	2.1818	0.	6.175e-002
554	8.2016	2.	0.	9.1768e-002
555	8.2016	1.8182	0.	0.13855
556	8.2016	1.6364	0.	0.23395
557	8.2016	1.4545	0.	0.67198
558	8.2016	1.2727	0.	6.7449
559	8.2016	1.0909	0.	14.996
560	8.2016	0.90909	0.	20.665
561	8.2016	0.72727	0.	23.221
562	8.2016	0.54545	0.	22.439
563	8.2016	0.36364	0.	18.268
564	8.2016	0.18182	0.	11.076
565	8.0194	5.8182	0.	8.0467
566	8.0194	5.6364	0.	11.919
567	8.0194	5.4545	0.	13.412
568	8.0194	5.2727	0.	12.148
569	8.0194	5.0909	0.	8.1885
570	8.0194	4.9091	0.	2.1697
571	8.0194	4.7273	0.	0.28585
572	8.0194	4.5455	0.	0.15329
573	8.0194	4.3636	0.	0.10557
574	8.0194	4.1818	0.	7.6973e-002
575	8.0194	4.	0.	5.6073e-002
576	8.0194	3.8182	0.	3.966e-002
577	8.0194	3.6364	0.	2.6725e-002
578	8.0194	3.4545	0.	1.6996e-002
579	8.0194	3.2727	0.	1.046e-002
580	8.0194	3.0909	0.	7.1707e-003
581	8.0194	2.9091	0.	7.1709e-003
582	8.0194	2.7273	0.	1.046e-002
583	8.0194	2.5455	0.	1.6997e-002
584	8.0194	2.3636	0.	2.6725e-002
585	8.0194	2.1818	0.	3.966e-002
586	8.0194	2.	0.	5.6073e-002
587	8.0194	1.8182	0.	7.6973e-002
588	8.0194	1.6364	0.	0.10557
589	8.0194	1.4545	0.	0.15329
590	8.0194	1.2727	0.	0.28585
591	8.0194	1.0909	0.	2.1697
592	8.0194	0.90909	0.	8.1885
593	8.0194	0.72727	0.	12.148
594	8.0194	0.54545	0.	13.412
595	8.0194	0.36364	0.	11.919
596	8.0194	0.18182	0.	8.0467
597	7.8371	5.8182	0.	5.2457
598	7.8371	5.6364	0.	6.1095
599	7.8371	5.4545	0.	5.1507
600	7.8371	5.2727	0.	2.1072
601	7.8371	5.0909	0.	0.22959
602	7.8371	4.9091	0.	0.1259
603	7.8371	4.7273	0.	9.4794e-002
604	7.8371	4.5455	0.	7.5936e-002
605	7.8371	4.3636	0.	6.1063e-002
606	7.8371	4.1818	0.	4.8097e-002
607	7.8371	4.	0.	3.6528e-002
608	7.8371	3.8182	0.	2.6364e-002
609	7.8371	3.6364	0.	1.7809e-002
610	7.8371	3.4545	0.	1.1115e-002
611	7.8371	3.2727	0.	6.5089e-003
612	7.8371	3.0909	0.	4.1612e-003
613	7.8371	2.9091	0.	4.1612e-003
614	7.8371	2.7273	0.	6.5091e-003
615	7.8371	2.5455	0.	1.1115e-002
616	7.8371	2.3636	0.	1.7809e-002
617	7.8371	2.1818	0.	2.6364e-002
618	7.8371	2.	0.	3.6528e-002
619	7.8371	1.8182	0.	4.8097e-002
620	7.8371	1.6364	0.	6.1063e-002
621	7.8371	1.4545	0.	7.5936e-002
622	7.8371	1.2727	0.	9.4795e-002
623	7.8371	1.0909	0.	0.1259
624	7.8371	0.90909	0.	0.2296
625	7.8371	0.72727	0.	2.1072
626	7.8371	0.54545	0.	5.1507
627	7.8371	0.36364	0.	6.1095
628	7.8371	0.18182	0.	5.2457
629	7.6548	5.8182	0.	2.634
630	7.6548	5.6364	0.	0.79979
631	7.6548	5.4545	0.	8.6319e-002
632	7.6548	5.2727	0.	7.0456e-002
633	7.6548	5.0909	0.	6.5411e-002
634	7.6548	4.9091	0.	6.0303e-002
635	7.6548	4.7273	0.	5.4357e-002
636	7.6548	4.5455	0.	4.7526e-002
637	7.6548	4.3636	0.	4.0103e-002
638	7.6548	4.1818	0.	3.244e-002
639	7.6548	4.	0.	2.4926e-002
640	7.6548	3.8182	0.	1.7946e-002
641	7.6548	3.6364	0.	1.1866e-002
642	7.6548	3.4545	0.	7.0051e-003
643	7.6548	3.2727	0.	3.6152e-003
644	7.6548	3.0909	0.	1.8747e-003
645	7.6548	2.9091	0.	1.8749e-003
646	7.6548	2.7273	0.	3.6154e-003
647	7.6548	2.5455	0.	7.0051e-003
648	7.6548	2.3636	0.	1.1866e-002
649	7.6548	2.1818	0.	1.7946e-002
650	7.6548	2.	0.	2.4926e-002
651	7.6548	1.8182	0.	3.2441e-002
652	7.6548	1.6364	0.	4.0103e-002
653	7.6548	1.4545	0.	4.7527e-002
654	7.6548	1.2727	0.	5.4358e-002
655	7.6548	1.0909	0.	6.0303e-002
656	7.6548	0.90909	0.	6.5412e-002
657	7.6548	0.72727	0.	7.0457e-002
658	7.6548	0.54545	0.	8.6319e-002
659	7.6548	0.36364	0.	0.7998
660	7.6548	0.18182	0.	2.634
661	7.4726	5.8182	0.	0.32529
662	7.4726	5.6364	0.	4.1011e-002
663	7.4726	5.4545	0.	3.9193e-002
664	7.4726	5.2727	0.	4.2221e-002
665	7.4726	5.0909	0.	4.2325e-002
666	7.4726	4.9091	0.	4.0858e-002
667	7.4726	4.7273	0.	3.7802e-002
668	7.4726	4.5455	0.	3.3585e-002
669	7.4726	4.3636	0.	2.8558e-002
670	7.4726	4.1818	0.	2.3104e-002
671	7.4726	4.	0.	1.7589e-002
672	7.4726	3.8182	0.	1.2363e-002
673	7.4726	3.6364	0.	7.7522e-003
674	7.4726	3.4545	0.	4.034e-003
675	7.4726	3.2727	0.	1.4264e-003
676	7.4726	3.0909	0.	8.2785e-005
677	7.4726	2.9091	0.	8.3202e-005
678	7.4726	2.7273	0.	1.4263e-003
679	7.4726	2.5455	0.	4.0342e-003
680	7.4726	2.3636	0.	7.7526e-003
681	7.4726	2.1818	0.	1.2364e-002
682	7.4726	2.	0.	1.7589e-002
683	7.4726	1.8182	0.	2.3104e-002
684	7.4726	1.6364	0.	2.8559e-002
685	7.4726	1.4545	0.	3.3586e-002
686	7.4726	1.2727	0.	3.7802e-002
687	7.4726	1.0909	0.	4.0858e-002
688	7.4726	0.90909	0.	4.2327e-002
689	7.4726	0.72727	0.	4.2222e-002
690	7.4726	0.54545	0.	3.9193e-002
691	7.4726	0.36364	0.	4.1012e-002
692	7.4726	0.18182	0.	0.3253
693	7.2903	5.8182	0.	7.1841e-002
694	7.2903	5.6364	0.	4.7054e-002
695	7.2903	5.4545	0.	3.3094e-002
696	7.2903	5.2727	0.	3.503e-002
697	7.2903	5.0909	0.	3.3623e-002
698	7.2903	4.9091	0.	3.1944e-002
699	7.2903	4.7273	0.	2.9165e-002
700	7.2903	4.5455	0.	2.5636e-002
701	7.2903	4.3636	0.	2.1532e-002
702	7.2903	4.1818	0.	1.7126e-002
703	7.2903	4.	0.	1.2689e-002
704	7.2903	3.8182	0.	8.4916e-003
705	7.2903	3.6364	0.	4.7883e-003
706	7.2903	3.4545	0.	1.8015e-003
707	7.2903	3.2727	0.	-2.9397e-004
708	7.2903	3.0909	0.	-1.3738e-003
709	7.2903	2.9091	0.	-1.3738e-003
710	7.2903	2.7273	0.	-2.9385e-004
711	7.2903	2.5455	0.	1.802e-003
712	7.2903	2.3636	0.	4.7886e-003
713	7.2903	2.1818	0.	8.4917e-003
714	7.2903	2.	0.	1.269e-002
715	7.2903	1.8182	0.	1.7127e-002
716	7.2903	1.6364	0.	2.1532e-002
717	7.2903	1.4545	0.	2.5637e-002
718	7.2903	1.2727	0.	2.9165e-002
719	7.2903	1.0909	0.	3.1945e-002
720	7.2903	0.90909	0.	3.3624e-002
721	7.2903	0.72727	0.	3.5031e-002
722	7.2903	0.54545	0.	3.3094e-002
723	7.2903	0.36364	0.	4.7055e-002
724	7.2903	0.18182	0.	7.1843e-002
725	7.1081	5.8182	0.	7.1304e-002
726	7.1081	5.6364	0.	5.7277e-002
727	7.1081	5.4545	0.	3.1652e-002
728	7.1081	5.2727	0.	3.2498e-002
729	7.1081	5.0909	0.	2.9389e-002
730	7.1081	4.9091	0.	2.7079e-002
731	7.1081	4.7273	0.	2.4058e-002
732	7.1081	4.5455	0.	2.0665e-002
733	7.1081	4.3636	0.	1.6939e-002
734	7.1081	4.1818	0.	1.3071e-002
735	7.1081	4.	0.	9.2505e-003
736	7.1081	3.8182	0.	5.6799e-003
737	7.1081	3.6364	0.	2.5543e-003
738	7.1081	3.4545	0.	4.6085e-005
739	7.1081	3.2727	0.	-1.7086e-003
740	7.1081	3.0909	0.	-2.6114e-003
741	7.1081	2.9091	0.	-2.6115e-003
742	7.1081	2.7273	0.	-1.7085e-003
743	7.1081	2.5455	0.	4.6559e-005
744	7.1081	2.3636	0.	2.5548e-003
745	7.1081	2.1818	0.	5.6801e-003
746	7.1081	2.	0.	9.2509e-003
747	7.1081	1.8182	0.	1.3071e-002
748	7.1081	1.6364	0.	1.694e-002
749	7.1081	1.4545	0.	2.0666e-002
750	7.1081	1.2727	0.	2.4059e-002
751	7.1081	1.0909	0.	2.7079e-002
752	7.1081	0.90909	0.	2.939e-002
753	7.1081	0.72727	0.	3.2499e-002
754	7.1081	0.54545	0.	3.1652e-002
755	7.1081	0.36364	0.	5.7279e-002
756	7.1081	0.18182	0.	7.1306e-002
757	6.9258	5.8182	0.	7.845e-002
758	6.9258	5.6364	0.	6.8374e-002
759	6.9258	5.4545	0.	3.1894e-002
760	6.9258	5.2727	0.	3.1872e-002
761	6.9258	5.0909	0.	2.7196e-002
762	6.9258	4.9091	0.	2.4223e-002
763	6.9258	4.7273	0.	2.0828e-002
764	6.9258	4.5455	0.	1.7368e-002
765	6.9258	4.3636	0.	1.3775e-002
766	6.9258	4.1818	0.	1.0184e-002
767	6.9258	4.	0.	6.7237e-003
768	6.9258	3.8182	0.	3.5433e-003
769	6.9258	3.6364	0.	7.9019e-004
770	6.9258	3.4545	0.	-1.4018e-003
771	6.9258	3.2727	0.	-2.9284e-003
772	6.9258	3.0909	0.	-3.7114e-003
773	6.9258	2.9091	0.	-3.7114e-003
774	6.9258	2.7273	0.	-2.9282e-003
775	6.9258	2.5455	0.	-1.4017e-003
776	6.9258	2.3636	0.	7.9067e-004
777	6.9258	2.1818	0.	3.5435e-003
778	6.9258	2.	0.	6.7243e-003
779	6.9258	1.8182	0.	1.0184e-002
780	6.9258	1.6364	0.	1.3775e-002
781	6.9258	1.4545	0.	1.7368e-002
782	6.9258	1.2727	0.	2.0829e-002
783	6.9258	1.0909	0.	2.4223e-002
784	6.9258	0.90909	0.	2.7198e-002
785	6.9258	0.72727	0.	3.1872e-002
786	6.9258	0.54545	0.	3.1895e-002
787	6.9258	0.36364	0.	6.8376e-002
788	6.9258	0.18182	0.	7.8452e-002
789	6.7435	5.8182	0.	8.7513e-002
790	6.7435	5.6364	0.	7.9897e-002
791	6.7435	5.4545	0.	3.3074e-002
792	6.7435	5.2727	0.	3.231e-002
793	6.7435	5.0909	0.	2.6169e-002
794	6.7435	4.9091	0.	2.2545e-002
795	6.7435	4.7273	0.	1.8728e-002
796	6.7435	4.5455	0.	1.5101e-002
797	6.7435	4.3636	0.	1.1509e-002
798	6.7435	4.1818	0.	8.0429e-003
799	6.7435	4.	0.	4.7846e-003
800	6.7435	3.8182	0.	1.8419e-003
801	6.7435	3.6364	0.	-6.7262e-004
802	6.7435	3.4545	0.	-2.6575e-003
803	6.7435	3.2727	0.	-4.0314e-003
804	6.7435	3.0909	0.	-4.7341e-003
805	6.7435	2.9091	0.	-4.734e-003
806	6.7435	2.7273	0.	-4.0314e-003
807	6.7435	2.5455	0.	-2.6573e-003
808	6.7435	2.3636	0.	-6.7221e-004
809	6.7435	2.1818	0.	1.8424e-003
810	6.7435	2.	0.	4.7849e-003
811	6.7435	1.8182	0.	8.0434e-003
812	6.7435	1.6364	0.	1.151e-002
813	6.7435	1.4545	0.	1.5102e-002
814	6.7435	1.2727	0.	1.8729e-002
815	6.7435	1.0909	0.	2.2546e-002
816	6.7435	0.90909	0.	2.6171e-002
817	6.7435	0.72727	0.	3.2311e-002
818	6.7435	0.54545	0.	3.3074e-002
819	6.7435	0.36364	0.	7.9898e-002
820	6.7435	0.18182	0.	8.7514e-002
821	6.5613	5.8182	0.	9.7599e-002
822	6.5613	5.6364	0.	9.1816e-002
823	6.5613	5.4545	0.	3.4923e-002
824	6.5613	5.2727	0.	3.3476e-002
825	6.5613	5.0909	0.	2.5923e-002
826	6.5613	4.9091	0.	2.1651e-002
827	6.5613	4.7273	0.	1.738e-002
828	6.5613	4.5455	0.	1.3522e-002
829	6.5613	4.3636	0.	9.8437e-003
830	6.5613	4.1818	0.	6.4009e-003
831	6.5613	4.	0.	3.2369e-003
832	6.5613	3.8182	0.	4.2825e-004
833	6.5613	3.6364	0.	-1.942e-003
834	6.5613	3.4545	0.	-3.796e-003
835	6.5613	3.2727	0.	-5.0719e-003
836	6.5613	3.0909	0.	-5.722e-003
837	6.5613	2.9091	0.	-5.722e-003
838	6.5613	2.7273	0.	-5.0717e-003
839	6.5613	2.5455	0.	-3.7958e-003
840	6.5613	2.3636	0.	-1.9416e-003
841	6.5613	2.1818	0.	4.2858e-004
842	6.5613	2.	0.	3.2373e-003
843	6.5613	1.8182	0.	6.4015e-003
844	6.5613	1.6364	0.	9.8443e-003
845	6.5613	1.4545	0.	1.3522e-002
846	6.5613	1.2727	0.	1.7381e-002
847	6.5613	1.0909	0.	2.1652e-002
848	6.5613	0.90909	0.	2.5925e-002
849	6.5613	0.72727	0.	3.3477e-002
850	6.5613	0.54545	0.	3.4923e-002
851	6.5613	0.36364	0.	9.1818e-002
852	6.5613	0.18182	0.	9.7601e-002
853	6.379	5.8182	0.	0.10862
854	6.379	5.6364	0.	0.10421
855	6.379	5.4545	0.	3.7326e-002
856	6.379	5.2727	0.	3.5216e-002
857	6.379	5.0909	0.	2.6263e-002
858	6.379	4.9091	0.	2.1331e-002
859	6.379	4.7273	0.	1.6572e-002
860	6.379	4.5455	0.	1.2431e-002
861	6.379	4.3636	0.	8.6004e-003
862	6.379	4.1818	0.	5.1049e-003
863	6.379	4.	0.	1.9558e-003
864	6.379	3.8182	0.	-7.9635e-004
865	6.379	3.6364	0.	-3.0916e-003
866	6.379	3.4545	0.	-4.8716e-003
867	6.379	3.2727	0.	-6.089e-003
868	6.379	3.0909	0.	-6.7076e-003
869	6.379	2.9091	0.	-6.7075e-003
870	6.379	2.7273	0.	-6.089e-003
871	6.379	2.5455	0.	-4.8713e-003
872	6.379	2.3636	0.	-3.0913e-003
873	6.379	2.1818	0.	-7.9615e-004
874	6.379	2.	0.	1.9562e-003
875	6.379	1.8182	0.	5.1054e-003
876	6.379	1.6364	0.	8.6011e-003
877	6.379	1.4545	0.	1.2432e-002
878	6.379	1.2727	0.	1.6573e-002
879	6.379	1.0909	0.	2.1332e-002
880	6.379	0.90909	0.	2.6264e-002
881	6.379	0.72727	0.	3.5217e-002
882	6.379	0.54545	0.	3.7326e-002
883	6.379	0.36364	0.	0.10421
884	6.379	0.18182	0.	0.10862
885	6.1968	5.8182	0.	0.12072
886	6.1968	5.6364	0.	0.1172
887	6.1968	5.4545	0.	4.0234e-002
888	6.1968	5.2727	0.	3.7455e-002
889	6.1968	5.0909	0.	2.7083e-002
890	6.1968	4.9091	0.	2.1466e-002
891	6.1968	4.7273	0.	1.6183e-002
892	6.1968	4.5455	0.	1.171e-002
893	6.1968	4.3636	0.	7.6698e-003
894	6.1968	4.1818	0.	4.059e-003
895	6.1968	4.	0.	8.6146e-004
896	6.1968	3.8182	0.	-1.8948e-003
897	6.1968	3.6364	0.	-4.1694e-003
898	6.1968	3.4545	0.	-5.9191e-003
899	6.1968	3.2727	0.	-7.1096e-003
900	6.1968	3.0909	0.	-7.7125e-003
901	6.1968	2.9091	0.	-7.7125e-003
902	6.1968	2.7273	0.	-7.1095e-003
903	6.1968	2.5455	0.	-5.9189e-003
904	6.1968	2.3636	0.	-4.1692e-003
905	6.1968	2.1818	0.	-1.8942e-003
906	6.1968	2.	0.	8.6187e-004
907	6.1968	1.8182	0.	4.0597e-003
908	6.1968	1.6364	0.	7.6705e-003
909	6.1968	1.4545	0.	1.1711e-002
910	6.1968	1.2727	0.	1.6184e-002
911	6.1968	1.0909	0.	2.1467e-002
912	6.1968	0.90909	0.	2.7084e-002
913	6.1968	0.72727	0.	3.7455e-002
914	6.1968	0.54545	0.	4.0235e-002
915	6.1968	0.36364	0.	0.1172
916	6.1968	0.18182	0.	0.12072
917	6.0145	5.8182	0.	0.13415
918	6.0145	5.6364	0.	0.13092
919	6.0145	5.4545	0.	4.3632e-002
920	6.0145	5.2727	0.	4.0155e-002
921	6.0145	5.0909	0.	2.8322e-002
922	6.0145	4.9091	0.	2.1984e-002
923	6.0145	4.7273	0.	1.6134e-002
924	6.0145	4.5455	0.	1.1282e-002
925	6.0145	4.3636	0.	6.9802e-003
926	6.0145	4.1818	0.	3.2003e-003
927	6.0145	4.	0.	-9.9713e-005
928	6.0145	3.8182	0.	-2.9111e-003
929	6.0145	3.6364	0.	-5.2092e-003
930	6.0145	3.4545	0.	-6.9648e-003
931	6.0145	3.2727	0.	-8.1534e-003
932	6.0145	3.0909	0.	-8.7533e-003
933	6.0145	2.9091	0.	-8.7531e-003
934	6.0145	2.7273	0.	-8.1532e-003
935	6.0145	2.5455	0.	-6.9645e-003
936	6.0145	2.3636	0.	-5.2091e-003
937	6.0145	2.1818	0.	-2.9108e-003
938	6.0145	2.	0.	-9.9387e-005
939	6.0145	1.8182	0.	3.2009e-003
940	6.0145	1.6364	0.	6.9808e-003
941	6.0145	1.4545	0.	1.1283e-002
942	6.0145	1.2727	0.	1.6135e-002
943	6.0145	1.0909	0.	2.1985e-002
944	6.0145	0.90909	0.	2.8324e-002
945	6.0145	0.72727	0.	4.0156e-002
946	6.0145	0.54545	0.	4.3632e-002
947	6.0145	0.36364	0.	0.13092
948	6.0145	0.18182	0.	0.13415
949	5.8323	5.8182	0.	0.14921
950	5.8323	5.6364	0.	0.1455
951	5.8323	5.4545	0.	4.7523e-002
952	5.8323	5.2727	0.	4.3304e-002
953	5.8323	5.0909	0.	2.9947e-002
954	5.8323	4.9091	0.	2.2842e-002
955	5.8323	4.7273	0.	1.6376e-002
956	5.8323	4.5455	0.	1.1098e-002
957	5.8323	4.3636	0.	6.4835e-003
958	5.8323	4.1818	0.	2.4849e-003
959	5.8323	4.	0.	-9.6528e-004
960	5.8323	3.8182	0.	-3.8751e-003
961	5.8323	3.6364	0.	-6.235e-003
962	5.8323	3.4545	0.	-8.0264e-003
963	5.8323	3.2727	0.	-9.2339e-003
964	5.8323	3.0909	0.	-9.8419e-003
965	5.8323	2.9091	0.	-9.8419e-003
966	5.8323	2.7273	0.	-9.2336e-003
967	5.8323	2.5455	0.	-8.0262e-003
968	5.8323	2.3636	0.	-6.2345e-003
969	5.8323	2.1818	0.	-3.8747e-003
970	5.8323	2.	0.	-9.6489e-004
971	5.8323	1.8182	0.	2.4854e-003
972	5.8323	1.6364	0.	6.4842e-003
973	5.8323	1.4545	0.	1.1098e-002
974	5.8323	1.2727	0.	1.6377e-002
975	5.8323	1.0909	0.	2.2843e-002
976	5.8323	0.90909	0.	2.9948e-002
977	5.8323	0.72727	0.	4.3305e-002
978	5.8323	0.54545	0.	4.7523e-002
979	5.8323	0.36364	0.	0.1455
980	5.8323	0.18182	0.	0.14921
981	5.65	5.8182	0.	0.16627
982	5.65	5.6364	0.	0.1611
983	5.65	5.4545	0.	5.1925e-002
984	5.65	5.2727	0.	4.6905e-002
985	5.65	5.0909	0.	3.1941e-002
986	5.65	4.9091	0.	2.4014e-002
987	5.65	4.7273	0.	1.6879e-002
988	5.65	4.5455	0.	1.1123e-002
989	5.65	4.3636	0.	6.1488e-003
990	5.65	4.1818	0.	1.8846e-003
991	5.65	4.	0.	-1.7594e-003
992	5.65	3.8182	0.	-4.807e-003
993	5.65	3.6364	0.	-7.2614e-003
994	5.65	3.4545	0.	-9.115e-003
995	5.65	3.2727	0.	-1.0359e-002
996	5.65	3.0909	0.	-1.0985e-002
997	5.65	2.9091	0.	-1.0985e-002
998	5.65	2.7273	0.	-1.0359e-002
999	5.65	2.5455	0.	-9.1148e-003
1000	5.65	2.3636	0.	-7.2612e-003
1001	5.65	2.1818	0.	-4.8066e-003
1002	5.65	2.	0.	-1.7589e-003
1003	5.65	1.8182	0.	1.8851e-003
1004	5.65	1.6364	0.	6.1495e-003
1005	5.65	1.4545	0.	1.1124e-002
1006	5.65	1.2727	0.	1.688e-002
1007	5.65	1.0909	0.	2.4015e-002
1008	5.65	0.90909	0.	3.1942e-002
1009	5.65	0.72727	0.	4.6906e-002
1010	5.65	0.54545	0.	5.1925e-002
1011	5.65	0.36364	0.	0.1611
1012	5.65	0.18182	0.	0.16627
1013	5.4677	5.8182	0.	0.18577
1014	5.4677	5.6364	0.	0.17788
1015	5.4677	5.4545	0.	5.6874e-002
1016	5.4677	5.2727	0.	5.0978e-002
1017	5.4677	5.0909	0.	3.4306e-002
1018	5.4677	4.9091	0.	2.5494e-002
1019	5.4677	4.7273	0.	1.7632e-002
1020	5.4677	4.5455	0.	1.1345e-002
1021	5.4677	4.3636	0.	5.9615e-003
1022	5.4677	4.1818	0.	1.3867e-003
1023	5.4677	4.	0.	-2.4917e-003
1024	5.4677	3.8182	0.	-5.7127e-003
1025	5.4677	3.6364	0.	-8.2917e-003
1026	5.4677	3.4545	0.	-1.023e-002
1027	5.4677	3.2727	0.	-1.1528e-002
1028	5.4677	3.0909	0.	-1.2178e-002
1029	5.4677	2.9091	0.	-1.2178e-002
1030	5.4677	2.7273	0.	-1.1528e-002
1031	5.4677	2.5455	0.	-1.023e-002
1032	5.4677	2.3636	0.	-8.2915e-003
1033	5.4677	2.1818	0.	-5.7122e-003
1034	5.4677	2.	0.	-2.4913e-003
1035	5.4677	1.8182	0.	1.3873e-003
1036	5.4677	1.6364	0.	5.9622e-003
1037	5.4677	1.4545	0.	1.1346e-002
1038	5.4677	1.2727	0.	1.7632e-002
1039	5.4677	1.0909	0.	2.5495e-002
1040	5.4677	0.90909	0.	3.4307e-002
1041	5.4677	0.72727	0.	5.0979e-002
1042	5.4677	0.54545	0.	5.6874e-002
1043	5.4677	0.36364	0.	0.17788
1044	5.4677	0.18182	0.	0.18577
1045	5.2855	5.8182	0.	0.2082
1046	5.2855	5.6364	0.	0.196
1047	5.2855	5.4545	0.	6.2406e-002
1048	5.2855	5.2727	0.	5.5541e-002
1049	5.2855	5.0909	0.	3.7041e-002
1050	5.2855	4.9091	0.	2.7272e-002
1051	5.2855	4.7273	0.	1.8617e-002
1052	5.2855	4.5455	0.	1.1746e-002
1053	5.2855	4.3636	0.	5.9031e-003
1054	5.2855	4.1818	0.	9.7371e-004
1055	5.2855	4.	0.	-3.1777e-003
1056	5.2855	3.8182	0.	-6.6051e-003
1057	5.2855	3.6364	0.	-9.3357e-003
1058	5.2855	3.4545	0.	-1.138e-002
1059	5.2855	3.2727	0.	-1.2744e-002
1060	5.2855	3.0909	0.	-1.3427e-002
1061	5.2855	2.9091	0.	-1.3427e-002
1062	5.2855	2.7273	0.	-1.2744e-002
1063	5.2855	2.5455	0.	-1.138e-002
1064	5.2855	2.3636	0.	-9.3355e-003
1065	5.2855	2.1818	0.	-6.6047e-003
1066	5.2855	2.	0.	-3.1774e-003
1067	5.2855	1.8182	0.	9.7412e-004
1068	5.2855	1.6364	0.	5.9037e-003
1069	5.2855	1.4545	0.	1.1747e-002
1070	5.2855	1.2727	0.	1.8618e-002
1071	5.2855	1.0909	0.	2.7272e-002
1072	5.2855	0.90909	0.	3.7043e-002
1073	5.2855	0.72727	0.	5.5542e-002
1074	5.2855	0.54545	0.	6.2407e-002
1075	5.2855	0.36364	0.	0.196
1076	5.2855	0.18182	0.	0.20821
1077	5.1032	5.8182	0.	0.23419
1078	5.1032	5.6364	0.	0.21565
1079	5.1032	5.4545	0.	6.8572e-002
1080	5.1032	5.2727	0.	6.0626e-002
1081	5.1032	5.0909	0.	4.0161e-002
1082	5.1032	4.9091	0.	2.9351e-002
1083	5.1032	4.7273	0.	1.9834e-002
1084	5.1032	4.5455	0.	1.2319e-002
1085	5.1032	4.3636	0.	5.9668e-003
1086	5.1032	4.1818	0.	6.3951e-004
1087	5.1032	4.	0.	-3.8221e-003
1088	5.1032	3.8182	0.	-7.4861e-003
1089	5.1032	3.6364	0.	-1.0393e-002
1090	5.1032	3.4545	0.	-1.2561e-002
1091	5.1032	3.2727	0.	-1.4004e-002
1092	5.1032	3.0909	0.	-1.4725e-002
1093	5.1032	2.9091	0.	-1.4725e-002
1094	5.1032	2.7273	0.	-1.4004e-002
1095	5.1032	2.5455	0.	-1.2561e-002
1096	5.1032	2.3636	0.	-1.0392e-002
1097	5.1032	2.1818	0.	-7.4858e-003
1098	5.1032	2.	0.	-3.8216e-003
1099	5.1032	1.8182	0.	6.3999e-004
1100	5.1032	1.6364	0.	5.9675e-003
1101	5.1032	1.4545	0.	1.2319e-002
1102	5.1032	1.2727	0.	1.9835e-002
1103	5.1032	1.0909	0.	2.9352e-002
1104	5.1032	0.90909	0.	4.0162e-002
1105	5.1032	0.72727	0.	6.0627e-002
1106	5.1032	0.54545	0.	6.8573e-002
1107	5.1032	0.36364	0.	0.21565
1108	5.1032	0.18182	0.	0.23419
1109	4.921	5.8182	0.	0.26446
1110	4.921	5.6364	0.	0.23702
1111	4.921	5.4545	0.	7.5436e-002
1112	4.921	5.2727	0.	6.6276e-002
1113	4.921	5.0909	0.	4.3686e-002
1114	4.921	4.9091	0.	3.1744e-002
1115	4.921	4.7273	0.	2.1286e-002
1116	4.921	4.5455	0.	1.3065e-002
1117	4.921	4.3636	0.	6.1518e-003
1118	4.921	4.1818	0.	3.839e-004
1119	4.921	4.	0.	-4.4227e-003
1120	4.921	3.8182	0.	-8.3518e-003
1121	4.921	3.6364	0.	-1.1456e-002
1122	4.921	3.4545	0.	-1.3764e-002
1123	4.921	3.2727	0.	-1.5296e-002
1124	4.921	3.0909	0.	-1.606e-002
1125	4.921	2.9091	0.	-1.606e-002
1126	4.921	2.7273	0.	-1.5296e-002
1127	4.921	2.5455	0.	-1.3764e-002
1128	4.921	2.3636	0.	-1.1456e-002
1129	4.921	2.1818	0.	-8.3514e-003
1130	4.921	2.	0.	-4.4221e-003
1131	4.921	1.8182	0.	3.844e-004
1132	4.921	1.6364	0.	6.1525e-003
1133	4.921	1.4545	0.	1.3066e-002
1134	4.921	1.2727	0.	2.1287e-002
1135	4.921	1.0909	0.	3.1744e-002
1136	4.921	0.90909	0.	4.3687e-002
1137	4.921	0.72727	0.	6.6277e-002
1138	4.921	0.54545	0.	7.5436e-002
1139	4.921	0.36364	0.	0.23702
1140	4.921	0.18182	0.	0.26446
1141	4.7387	5.8182	0.	0.29992
1142	4.7387	5.6364	0.	0.26034
1143	4.7387	5.4545	0.	8.3071e-002
1144	4.7387	5.2727	0.	7.2539e-002
1145	4.7387	5.0909	0.	4.7643e-002
1146	4.7387	4.9091	0.	3.4465e-002
1147	4.7387	4.7273	0.	2.2981e-002
1148	4.7387	4.5455	0.	1.3989e-002
1149	4.7387	4.3636	0.	6.4618e-003
1150	4.7387	4.1818	0.	2.1068e-004
1151	4.7387	4.	0.	-4.9739e-003
1152	4.7387	3.8182	0.	-9.1931e-003
1153	4.7387	3.6364	0.	-1.2513e-002
1154	4.7387	3.4545	0.	-1.4974e-002
1155	4.7387	3.2727	0.	-1.6603e-002
1156	4.7387	3.0909	0.	-1.7415e-002
1157	4.7387	2.9091	0.	-1.7415e-002
1158	4.7387	2.7273	0.	-1.6603e-002
1159	4.7387	2.5455	0.	-1.4974e-002
1160	4.7387	2.3636	0.	-1.2513e-002
1161	4.7387	2.1818	0.	-9.1928e-003
1162	4.7387	2.	0.	-4.9736e-003
1163	4.7387	1.8182	0.	2.1105e-004
1164	4.7387	1.6364	0.	6.4621e-003
1165	4.7387	1.4545	0.	1.399e-002
1166	4.7387	1.2727	0.	2.2982e-002
1167	4.7387	1.0909	0.	3.4466e-002
1168	4.7387	0.90909	0.	4.7644e-002
1169	4.7387	0.72727	0.	7.254e-002
1170	4.7387	0.54545	0.	8.3071e-002
1171	4.7387	0.36364	0.	0.26034
1172	4.7387	0.18182	0.	0.29992
1173	4.5565	5.8182	0.	0.34168
1174	4.5565	5.6364	0.	0.28584
1175	4.5565	5.4545	0.	9.1562e-002
1176	4.5565	5.2727	0.	7.9472e-002
1177	4.5565	5.0909	0.	5.2065e-002
1178	4.5565	4.9091	0.	3.7534e-002
1179	4.5565	4.7273	0.	2.4931e-002
1180	4.5565	4.5455	0.	1.5097e-002
1181	4.5565	4.3636	0.	6.9011e-003
1182	4.5565	4.1818	0.	1.26e-004
1183	4.5565	4.	0.	-5.467e-003
1184	4.5565	3.8182	0.	-9.9982e-003
1185	4.5565	3.6364	0.	-1.3549e-002
1186	4.5565	3.4545	0.	-1.6172e-002
1187	4.5565	3.2727	0.	-1.7904e-002
1188	4.5565	3.0909	0.	-1.8765e-002
1189	4.5565	2.9091	0.	-1.8765e-002
1190	4.5565	2.7273	0.	-1.7903e-002
1191	4.5565	2.5455	0.	-1.6172e-002
1192	4.5565	2.3636	0.	-1.3549e-002
1193	4.5565	2.1818	0.	-9.9979e-003
1194	4.5565	2.	0.	-5.4665e-003
1195	4.5565	1.8182	0.	1.2647e-004
1196	4.5565	1.6364	0.	6.9017e-003
1197	4.5565	1.4545	0.	1.5098e-002
1198	4.5565	1.2727	0.	2.4932e-002
1199	4.5565	1.0909	0.	3.7534e-002
1200	4.5565	0.90909	0.	5.2066e-002
1201	4.5565	0.72727	0.	7.9472e-002
1202	4.5565	0.54545	0.	9.1562e-002
1203	4.5565	0.36364	0.	0.28584
1204	4.5565	0.18182	0.	0.34168
1205	4.3742	5.8182	0.	0.39114
1206	4.3742	5.6364	0.	0.31381
1207	4.3742	5.4545	0.	0.10101
1208	4.3742	5.2727	0.	8.714e-002
1209	4.3742	5.0909	0.	5.699e-002
1210	4.3742	4.9091	0.	4.0976e-002
1211	4.3742	4.7273	0.	2.7151e-002
1212	4.3742	4.5455	0.	1.6401e-002
1213	4.3742	4.3636	0.	7.481e-003
1214	4.3742	4.1818	0.	1.426e-004
1215	4.3742	4.	0.	-5.8854e-003
1216	4.3742	3.8182	0.	-1.0745e-002
1217	4.3742	3.6364	0.	-1.4536e-002
1218	4.3742	3.4545	0.	-1.7326e-002
1219	4.3742	3.2727	0.	-1.9163e-002
1220	4.3742	3.0909	0.	-2.0075e-002
1221	4.3742	2.9091	0.	-2.0075e-002
1222	4.3742	2.7273	0.	-1.9163e-002
1223	4.3742	2.5455	0.	-1.7326e-002
1224	4.3742	2.3636	0.	-1.4536e-002
1225	4.3742	2.1818	0.	-1.0745e-002
1226	4.3742	2.	0.	-5.8849e-003
1227	4.3742	1.8182	0.	1.431e-004
1228	4.3742	1.6364	0.	7.4815e-003
1229	4.3742	1.4545	0.	1.6402e-002
1230	4.3742	1.2727	0.	2.7152e-002
1231	4.3742	1.0909	0.	4.0976e-002
1232	4.3742	0.90909	0.	5.6992e-002
1233	4.3742	0.72727	0.	8.7141e-002
1234	4.3742	0.54545	0.	0.10101
1235	4.3742	0.36364	0.	0.31381
1236	4.3742	0.18182	0.	0.39115
1237	4.1919	5.8182	0.	0.4501
1238	4.1919	5.6364	0.	0.34456
1239	4.1919	5.4545	0.	0.11153
1240	4.1919	5.2727	0.	9.5619e-002
1241	4.1919	5.0909	0.	6.2464e-002
1242	4.1919	4.9091	0.	4.4817e-002
1243	4.1919	4.7273	0.	2.9658e-002
1244	4.1919	4.5455	0.	1.7912e-002
1245	4.1919	4.3636	0.	8.2128e-003
1246	4.1919	4.1818	0.	2.7523e-004
1247	4.1919	4.	0.	-6.2087e-003
1248	4.1919	3.8182	0.	-1.1407e-002
1249	4.1919	3.6364	0.	-1.5442e-002
1250	4.1919	3.4545	0.	-1.8398e-002
1251	4.1919	3.2727	0.	-2.0338e-002
1252	4.1919	3.0909	0.	-2.1298e-002
1253	4.1919	2.9091	0.	-2.1298e-002
1254	4.1919	2.7273	0.	-2.0337e-002
1255	4.1919	2.5455	0.	-1.8398e-002
1256	4.1919	2.3636	0.	-1.5442e-002
1257	4.1919	2.1818	0.	-1.1407e-002
1258	4.1919	2.	0.	-6.2084e-003
1259	4.1919	1.8182	0.	2.7567e-004
1260	4.1919	1.6364	0.	8.2134e-003
1261	4.1919	1.4545	0.	1.7913e-002
1262	4.1919	1.2727	0.	2.9659e-002
1263	4.1919	1.0909	0.	4.4818e-002
1264	4.1919	0.90909	0.	6.2465e-002
1265	4.1919	0.72727	0.	9.562e-002
1266	4.1919	0.54545	0.	0.11153
1267	4.1919	0.36364	0.	0.34456
1268	4.1919	0.18182	0.	0.4501
1269	4.0097	5.8182	0.	0.52082
1270	4.0097	5.6364	0.	0.37845
1271	4.0097	5.4545	0.	0.12326
1272	4.0097	5.2727	0.	0.10499
1273	4.0097	5.0909	0.	6.8535e-002
1274	4.0097	4.9091	0.	4.909e-002
1275	4.0097	4.7273	0.	3.2472e-002
1276	4.0097	4.5455	0.	1.9647e-002
1277	4.0097	4.3636	0.	9.1138e-003
1278	4.0097	4.1818	0.	5.4629e-004
1279	4.0097	4.	0.	-6.4072e-003
1280	4.0097	3.8182	0.	-1.1946e-002
1281	4.0097	3.6364	0.	-1.6218e-002
1282	4.0097	3.4545	0.	-1.9332e-002
1283	4.0097	3.2727	0.	-2.1366e-002
1284	4.0097	3.0909	0.	-2.2372e-002
1285	4.0097	2.9091	0.	-2.2371e-002
1286	4.0097	2.7273	0.	-2.1366e-002
1287	4.0097	2.5455	0.	-1.9332e-002
1288	4.0097	2.3636	0.	-1.6218e-002
1289	4.0097	2.1818	0.	-1.1945e-002
1290	4.0097	2.	0.	-6.4068e-003
1291	4.0097	1.8182	0.	5.4676e-004
1292	4.0097	1.6364	0.	9.1146e-003
1293	4.0097	1.4545	0.	1.9647e-002
1294	4.0097	1.2727	0.	3.2472e-002
1295	4.0097	1.0909	0.	4.9091e-002
1296	4.0097	0.90909	0.	6.8536e-002
1297	4.0097	0.72727	0.	0.105
1298	4.0097	0.54545	0.	0.12326
1299	4.0097	0.36364	0.	0.37846
1300	4.0097	0.18182	0.	0.52082
1301	3.8274	5.8182	0.	0.60629
1302	3.8274	5.6364	0.	0.41591
1303	3.8274	5.4545	0.	0.13635
1304	3.8274	5.2727	0.	0.11536
1305	3.8274	5.0909	0.	7.5258e-002
1306	3.8274	4.9091	0.	5.3826e-002
1307	3.8274	4.7273	0.	3.5611e-002
1308	3.8274	4.5455	0.	2.162e-002
1309	3.8274	4.3636	0.	1.0202e-002
1310	3.8274	4.1818	0.	9.8155e-004
1311	3.8274	4.	0.	-6.444e-003
1312	3.8274	3.8182	0.	-1.2312e-002
1313	3.8274	3.6364	0.	-1.6805e-002
1314	3.8274	3.4545	0.	-2.0058e-002
1315	3.8274	3.2727	0.	-2.2173e-002
1316	3.8274	3.0909	0.	-2.3214e-002
1317	3.8274	2.9091	0.	-2.3214e-002
1318	3.8274	2.7273	0.	-2.2173e-002
1319	3.8274	2.5455	0.	-2.0058e-002
1320	3.8274	2.3636	0.	-1.6805e-002
1321	3.8274	2.1818	0.	-1.2311e-002
1322	3.8274	2.	0.	-6.4436e-003
1323	3.8274	1.8182	0.	9.8197e-004
1324	3.8274	1.6364	0.	1.0203e-002
1325	3.8274	1.4545	0.	2.1621e-002
1326	3.8274	1.2727	0.	3.5612e-002
1327	3.8274	1.0909	0.	5.3826e-002
1328	3.8274	0.90909	0.	7.5259e-002
1329	3.8274	0.72727	0.	0.11536
1330	3.8274	0.54545	0.	0.13635
1331	3.8274	0.36364	0.	0.41591
1332	3.8274	0.18182	0.	0.60629
1333	3.6452	5.8182	0.	0.71047
1334	3.6452	5.6364	0.	0.45742
1335	3.6452	5.4545	0.	0.15099
1336	3.6452	5.2727	0.	0.12683
1337	3.6452	5.0909	0.	8.2694e-002
1338	3.6452	4.9091	0.	5.9058e-002
1339	3.6452	4.7273	0.	3.9098e-002
1340	3.6452	4.5455	0.	2.3851e-002
1341	3.6452	4.3636	0.	1.1502e-002
1342	3.6452	4.1818	0.	1.6169e-003
1343	3.6452	4.	0.	-6.2684e-003
1344	3.6452	3.8182	0.	-1.2439e-002
1345	3.6452	3.6364	0.	-1.712e-002
1346	3.6452	3.4545	0.	-2.0482e-002
1347	3.6452	3.2727	0.	-2.2654e-002
1348	3.6452	3.0909	0.	-2.3719e-002
1349	3.6452	2.9091	0.	-2.3719e-002
1350	3.6452	2.7273	0.	-2.2654e-002
1351	3.6452	2.5455	0.	-2.0482e-002
1352	3.6452	2.3636	0.	-1.712e-002
1353	3.6452	2.1818	0.	-1.2439e-002
1354	3.6452	2.	0.	-6.268e-003
1355	3.6452	1.8182	0.	1.6174e-003
1356	3.6452	1.6364	0.	1.1503e-002
1357	3.6452	1.4545	0.	2.3852e-002
1358	3.6452	1.2727	0.	3.9098e-002
1359	3.6452	1.0909	0.	5.9059e-002
1360	3.6452	0.90909	0.	8.2695e-002
1361	3.6452	0.72727	0.	0.12683
1362	3.6452	0.54545	0.	0.15099
1363	3.6452	0.36364	0.	0.45742
1364	3.6452	0.18182	0.	0.71047
1365	3.4629	5.8182	0.	0.83868
1366	3.4629	5.6364	0.	0.50356
1367	3.4629	5.4545	0.	0.16737
1368	3.4629	5.2727	0.	0.13953
1369	3.4629	5.0909	0.	9.0904e-002
1370	3.4629	4.9091	0.	6.482e-002
1371	3.4629	4.7273	0.	4.2949e-002
1372	3.4629	4.5455	0.	2.6356e-002
1373	3.4629	4.3636	0.	1.3041e-002
1374	3.4629	4.1818	0.	2.4955e-003
1375	3.4629	4.	0.	-5.8175e-003
1376	3.4629	3.8182	0.	-1.2244e-002
1377	3.4629	3.6364	0.	-1.7063e-002
1378	3.4629	3.4545	0.	-2.0488e-002
1379	3.4629	3.2727	0.	-2.2682e-002
1380	3.4629	3.0909	0.	-2.3752e-002
1381	3.4629	2.9091	0.	-2.3752e-002
1382	3.4629	2.7273	0.	-2.2682e-002
1383	3.4629	2.5455	0.	-2.0487e-002
1384	3.4629	2.3636	0.	-1.7062e-002
1385	3.4629	2.1818	0.	-1.2244e-002
1386	3.4629	2.	0.	-5.8172e-003
1387	3.4629	1.8182	0.	2.4959e-003
1388	3.4629	1.6364	0.	1.3041e-002
1389	3.4629	1.4545	0.	2.6357e-002
1390	3.4629	1.2727	0.	4.2949e-002
1391	3.4629	1.0909	0.	6.482e-002
1392	3.4629	0.90909	0.	9.0905e-002
1393	3.4629	0.72727	0.	0.13953
1394	3.4629	0.54545	0.	0.16737
1395	3.4629	0.36364	0.	0.50357
1396	3.4629	0.18182	0.	0.83868
1397	3.2806	5.8182	0.	0.99824
1398	3.2806	5.6364	0.	0.55504
1399	3.2806	5.4545	0.	0.18575
1400	3.2806	5.2727	0.	0.15358
1401	3.2806	5.0909	0.	9.9956e-002
1402	3.2806	4.9091	0.	7.1143e-002
1403	3.2806	4.7273	0.	4.7182e-002
1404	3.2806	4.5455	0.	2.9157e-002
1405	3.2806	4.3636	0.	1.4854e-002
1406	3.2806	4.1818	0.	3.6763e-003
1407	3.2806	4.	0.	-5.006e-003
1408	3.2806	3.8182	0.	-1.1615e-002
1409	3.2806	3.6364	0.	-1.6498e-002
1410	3.2806	3.4545	0.	-1.9922e-002
1411	3.2806	3.2727	0.	-2.2093e-002
1412	3.2806	3.0909	0.	-2.3144e-002
1413	3.2806	2.9091	0.	-2.3144e-002
1414	3.2806	2.7273	0.	-2.2093e-002
1415	3.2806	2.5455	0.	-1.9922e-002
1416	3.2806	2.3636	0.	-1.6498e-002
1417	3.2806	2.1818	0.	-1.1615e-002
1418	3.2806	2.	0.	-5.0055e-003
1419	3.2806	1.8182	0.	3.6767e-003
1420	3.2806	1.6364	0.	1.4854e-002
1421	3.2806	1.4545	0.	2.9157e-002
1422	3.2806	1.2727	0.	4.7182e-002
1423	3.2806	1.0909	0.	7.1143e-002
1424	3.2806	0.90909	0.	9.9957e-002
1425	3.2806	0.72727	0.	0.15358
1426	3.2806	0.54545	0.	0.18575
1427	3.2806	0.36364	0.	0.55505
1428	3.2806	0.18182	0.	0.99824
1429	3.0984	5.8182	0.	1.1994
1430	3.0984	5.6364	0.	0.61269
1431	3.0984	5.4545	0.	0.20641
1432	3.0984	5.2727	0.	0.16914
1433	3.0984	5.0909	0.	0.10991
1434	3.0984	4.9091	0.	7.8051e-002
1435	3.0984	4.7273	0.	5.1808e-002
1436	3.0984	4.5455	0.	3.2271e-002
1437	3.0984	4.3636	0.	1.6983e-002
1438	3.0984	4.1818	0.	5.2334e-003
1439	3.0984	4.	0.	-3.7261e-003
1440	3.0984	3.8182	0.	-1.0415e-002
1441	3.0984	3.6364	0.	-1.5261e-002
1442	3.0984	3.4545	0.	-1.8601e-002
1443	3.0984	3.2727	0.	-2.0688e-002
1444	3.0984	3.0909	0.	-2.1689e-002
1445	3.0984	2.9091	0.	-2.169e-002
1446	3.0984	2.7273	0.	-2.0688e-002
1447	3.0984	2.5455	0.	-1.8601e-002
1448	3.0984	2.3636	0.	-1.5261e-002
1449	3.0984	2.1818	0.	-1.0414e-002
1450	3.0984	2.	0.	-3.7258e-003
1451	3.0984	1.8182	0.	5.2337e-003
1452	3.0984	1.6364	0.	1.6983e-002
1453	3.0984	1.4545	0.	3.2271e-002
1454	3.0984	1.2727	0.	5.1808e-002
1455	3.0984	1.0909	0.	7.8052e-002
1456	3.0984	0.90909	0.	0.10992
1457	3.0984	0.72727	0.	0.16914
1458	3.0984	0.54545	0.	0.20641
1459	3.0984	0.36364	0.	0.61269
1460	3.0984	0.18182	0.	1.1994
1461	2.9161	5.8182	0.	1.4571
1462	2.9161	5.6364	0.	0.67752
1463	2.9161	5.4545	0.	0.22968
1464	2.9161	5.2727	0.	0.18639
1465	2.9161	5.0909	0.	0.12085
1466	2.9161	4.9091	0.	8.5573e-002
1467	2.9161	4.7273	0.	5.6845e-002
1468	2.9161	4.5455	0.	3.5735e-002
1469	2.9161	4.3636	0.	1.9499e-002
1470	2.9161	4.1818	0.	7.2776e-003
1471	2.9161	4.	0.	-1.8259e-003
1472	2.9161	3.8182	0.	-8.4531e-003
1473	2.9161	3.6364	0.	-1.3135e-002
1474	2.9161	3.4545	0.	-1.6286e-002
1475	2.9161	3.2727	0.	-1.8216e-002
1476	2.9161	3.0909	0.	-1.9131e-002
1477	2.9161	2.9091	0.	-1.9131e-002
1478	2.9161	2.7273	0.	-1.8216e-002
1479	2.9161	2.5455	0.	-1.6286e-002
1480	2.9161	2.3636	0.	-1.3135e-002
1481	2.9161	2.1818	0.	-8.4528e-003
1482	2.9161	2.	0.	-1.8255e-003
1483	2.9161	1.8182	0.	7.2779e-003
1484	2.9161	1.6364	0.	1.9499e-002
1485	2.9161	1.4545	0.	3.5735e-002
1486	2.9161	1.2727	0.	5.6845e-002
1487	2.9161	1.0909	0.	8.5574e-002
1488	2.9161	0.90909	0.	0.12086
1489	2.9161	0.72727	0.	0.18639
1490	2.9161	0.54545	0.	0.22968
1491	2.9161	0.36364	0.	0.67752
1492	2.9161	0.18182	0.	1.4571
1493	2.7339	5.8182	0.	1.7934
1494	2.7339	5.6364	0.	0.75078
1495	2.7339	5.4545	0.	0.25597
1496	2.7339	5.2727	0.	0.20552
1497	2.7339	5.0909	0.	0.13284
1498	2.7339	4.9091	0.	9.3722e-002
1499	2.7339	4.7273	0.	6.2302e-002
1500	2.7339	4.5455	0.	3.9589e-002
1501	2.7339	4.3636	0.	2.249e-002
1502	2.7339	4.1818	0.	9.9524e-003
1503	2.7339	4.	0.	8.8703e-004
1504	2.7339	3.8182	0.	-5.4994e-003
1505	2.7339	3.6364	0.	-9.8601e-003
1506	2.7339	3.4545	0.	-1.2699e-002
1507	2.7339	3.2727	0.	-1.4391e-002
1508	2.7339	3.0909	0.	-1.5176e-002
1509	2.7339	2.9091	0.	-1.5176e-002
1510	2.7339	2.7273	0.	-1.439e-002
1511	2.7339	2.5455	0.	-1.2699e-002
1512	2.7339	2.3636	0.	-9.8599e-003
1513	2.7339	2.1818	0.	-5.4991e-003
1514	2.7339	2.	0.	8.8727e-004
1515	2.7339	1.8182	0.	9.9528e-003
1516	2.7339	1.6364	0.	2.2491e-002
1517	2.7339	1.4545	0.	3.9589e-002
1518	2.7339	1.2727	0.	6.2302e-002
1519	2.7339	1.0909	0.	9.3722e-002
1520	2.7339	0.90909	0.	0.13284
1521	2.7339	0.72727	0.	0.20552
1522	2.7339	0.54545	0.	0.25597
1523	2.7339	0.36364	0.	0.75078
1524	2.7339	0.18182	0.	1.7934
1525	2.5516	5.8182	0.	2.2421
1526	2.5516	5.6364	0.	0.83399
1527	2.5516	5.4545	0.	0.28572
1528	2.5516	5.2727	0.	0.22671
1529	2.5516	5.0909	0.	0.14591
1530	2.5516	4.9091	0.	0.10248
1531	2.5516	4.7273	0.	6.8172e-002
1532	2.5516	4.5455	0.	4.3876e-002
1533	2.5516	4.3636	0.	2.6068e-002
1534	2.5516	4.1818	0.	1.3433e-002
1535	2.5516	4.	0.	4.6402e-003
1536	2.5516	3.8182	0.	-1.2902e-003
1537	2.5516	3.6364	0.	-5.1517e-003
1538	2.5516	3.4545	0.	-7.5465e-003
1539	2.5516	3.2727	0.	-8.9112e-003
1540	2.5516	3.0909	0.	-9.5254e-003
1541	2.5516	2.9091	0.	-9.5252e-003
1542	2.5516	2.7273	0.	-8.9111e-003
1543	2.5516	2.5455	0.	-7.5464e-003
1544	2.5516	2.3636	0.	-5.1515e-003
1545	2.5516	2.1818	0.	-1.29e-003
1546	2.5516	2.	0.	4.6405e-003
1547	2.5516	1.8182	0.	1.3433e-002
1548	2.5516	1.6364	0.	2.6068e-002
1549	2.5516	1.4545	0.	4.3876e-002
1550	2.5516	1.2727	0.	6.8173e-002
1551	2.5516	1.0909	0.	0.10248
1552	2.5516	0.90909	0.	0.14591
1553	2.5516	0.72727	0.	0.22672
1554	2.5516	0.54545	0.	0.28572
1555	2.5516	0.36364	0.	0.83399
1556	2.5516	0.18182	0.	2.2421
1557	2.3694	5.8182	0.	2.8574
1558	2.3694	5.6364	0.	0.92915
1559	2.3694	5.4545	0.	0.31962
1560	2.3694	5.2727	0.	0.25035
1561	2.3694	5.0909	0.	0.16026
1562	2.3694	4.9091	0.	0.11201
1563	2.3694	4.7273	0.	7.4658e-002
1564	2.3694	4.5455	0.	4.8881e-002
1565	2.3694	4.3636	0.	3.0607e-002
1566	2.3694	4.1818	0.	1.817e-002
1567	2.3694	4.	0.	9.9351e-003
1568	2.3694	3.8182	0.	4.7022e-003
1569	2.3694	3.6364	0.	1.5238e-003
1570	2.3694	3.4545	0.	-2.9843e-004
1571	2.3694	3.2727	0.	-1.2576e-003
1572	2.3694	3.0909	0.	-1.6626e-003
1573	2.3694	2.9091	0.	-1.6626e-003
1574	2.3694	2.7273	0.	-1.2574e-003
1575	2.3694	2.5455	0.	-2.9826e-004
1576	2.3694	2.3636	0.	1.5239e-003
1577	2.3694	2.1818	0.	4.7023e-003
1578	2.3694	2.	0.	9.9353e-003
1579	2.3694	1.8182	0.	1.817e-002
1580	2.3694	1.6364	0.	3.0607e-002
1581	2.3694	1.4545	0.	4.8881e-002
1582	2.3694	1.2727	0.	7.4658e-002
1583	2.3694	1.0909	0.	0.11201
1584	2.3694	0.90909	0.	0.16026
1585	2.3694	0.72727	0.	0.25035
1586	2.3694	0.54545	0.	0.31962
1587	2.3694	0.36364	0.	0.92915
1588	2.3694	0.18182	0.	2.8574
1589	2.1871	5.8182	0.	3.7295
1590	2.1871	5.6364	0.	1.0384
1591	2.1871	5.4545	0.	0.358
1592	2.1871	5.2727	0.	0.27629
1593	2.1871	5.0909	0.	0.17551
1594	2.1871	4.9091	0.	0.12189
1595	2.1871	4.7273	0.	8.1386e-002
1596	2.1871	4.5455	0.	5.4337e-002
1597	2.1871	4.3636	0.	3.594e-002
1598	2.1871	4.1818	0.	2.4062e-002
1599	2.1871	4.	0.	1.6695e-002
1600	2.1871	3.8182	0.	1.2393e-002
1601	2.1871	3.6364	0.	1.0054e-002
1602	2.1871	3.4545	0.	8.899e-003
1603	2.1871	3.2727	0.	8.3958e-003
1604	2.1871	3.0909	0.	8.2206e-003
1605	2.1871	2.9091	0.	8.2207e-003
1606	2.1871	2.7273	0.	8.3958e-003
1607	2.1871	2.5455	0.	8.8992e-003
1608	2.1871	2.3636	0.	1.0054e-002
1609	2.1871	2.1818	0.	1.2393e-002
1610	2.1871	2.	0.	1.6696e-002
1611	2.1871	1.8182	0.	2.4062e-002
1612	2.1871	1.6364	0.	3.594e-002
1613	2.1871	1.4545	0.	5.4337e-002
1614	2.1871	1.2727	0.	8.1387e-002
1615	2.1871	1.0909	0.	0.12189
1616	2.1871	0.90909	0.	0.17551
1617	2.1871	0.72727	0.	0.27629
1618	2.1871	0.54545	0.	0.358
1619	2.1871	0.36364	0.	1.0384
1620	2.1871	0.18182	0.	3.7294
1621	2.0048	5.8182	0.	5.0156
1622	2.0048	5.6364	0.	1.166
1623	2.0048	5.4545	0.	0.40329
1624	2.0048	5.2727	0.	0.30665
1625	2.0048	5.0909	0.	0.19368
1626	2.0048	4.9091	0.	0.13423
1627	2.0048	4.7273	0.	9.0684e-002
1628	2.0048	4.5455	0.	6.2779e-002
1629	2.0048	4.3636	0.	4.4752e-002
1630	2.0048	4.1818	0.	3.3869e-002
1631	2.0048	4.	0.	2.7688e-002
1632	2.0048	3.8182	0.	2.4508e-002
1633	2.0048	3.6364	0.	2.3105e-002
1634	2.0048	3.4545	0.	2.265e-002
1635	2.0048	3.2727	0.	2.2604e-002
1636	2.0048	3.0909	0.	2.2654e-002
1637	2.0048	2.9091	0.	2.2654e-002
1638	2.0048	2.7273	0.	2.2604e-002
1639	2.0048	2.5455	0.	2.265e-002
1640	2.0048	2.3636	0.	2.3105e-002
1641	2.0048	2.1818	0.	2.4509e-002
1642	2.0048	2.	0.	2.7688e-002
1643	2.0048	1.8182	0.	3.387e-002
1644	2.0048	1.6364	0.	4.4753e-002
1645	2.0048	1.4545	0.	6.2779e-002
1646	2.0048	1.2727	0.	9.0684e-002
1647	2.0048	1.0909	0.	0.13423
1648	2.0048	0.90909	0.	0.19368
1649	2.0048	0.72727	0.	0.30665
1650	2.0048	0.54545	0.	0.40329
1651	2.0048	0.36364	0.	1.166
1652	2.0048	0.18182	0.	5.0156
1653	1.8226	5.8182	0.	6.9968
1654	1.8226	5.6364	0.	1.3115
1655	1.8226	5.4545	0.	0.45077
1656	1.8226	5.2727	0.	0.33522
1657	1.8226	5.0909	0.	0.20779
1658	1.8226	4.9091	0.	0.14181
1659	1.8226	4.7273	0.	9.5292e-002
1660	1.8226	4.5455	0.	6.6943e-002
1661	1.8226	4.3636	0.	4.9715e-002
1662	1.8226	4.1818	0.	4.012e-002
1663	1.8226	4.	0.	3.5245e-002
1664	1.8226	3.8182	0.	3.3172e-002
1665	1.8226	3.6364	0.	3.2604e-002
1666	1.8226	3.4545	0.	3.2721e-002
1667	1.8226	3.2727	0.	3.3025e-002
1668	1.8226	3.0909	0.	3.3238e-002
1669	1.8226	2.9091	0.	3.3238e-002
1670	1.8226	2.7273	0.	3.3025e-002
1671	1.8226	2.5455	0.	3.2721e-002
1672	1.8226	2.3636	0.	3.2604e-002
1673	1.8226	2.1818	0.	3.3172e-002
1674	1.8226	2.	0.	3.5245e-002
1675	1.8226	1.8182	0.	4.0121e-002
1676	1.8226	1.6364	0.	4.9716e-002
1677	1.8226	1.4545	0.	6.6943e-002
1678	1.8226	1.2727	0.	9.5292e-002
1679	1.8226	1.0909	0.	0.14181
1680	1.8226	0.90909	0.	0.20779
1681	1.8226	0.72727	0.	0.33522
1682	1.8226	0.54545	0.	0.45077
1683	1.8226	0.36364	0.	1.3115
1684	1.8226	0.18182	0.	6.9968
1685	1.6403	5.8182	0.	10.193
1686	1.6403	5.6364	0.	1.4977
1687	1.6403	5.4545	0.	0.5259
1688	1.6403	5.2727	0.	0.38985
1689	1.6403	5.0909	0.	0.24754
1690	1.6403	4.9091	0.	0.17595
1691	1.6403	4.7273	0.	0.12782
1692	1.6403	4.5455	0.	0.10035
1693	1.6403	4.3636	0.	8.4885e-002
1694	1.6403	4.1818	0.	7.7131e-002
1695	1.6403	4.	0.	7.3768e-002
1696	1.6403	3.8182	0.	7.2779e-002
1697	1.6403	3.6364	0.	7.2908e-002
1698	1.6403	3.4545	0.	7.343e-002
1699	1.6403	3.2727	0.	7.3943e-002
1700	1.6403	3.0909	0.	7.4242e-002
1701	1.6403	2.9091	0.	7.4242e-002
1702	1.6403	2.7273	0.	7.3943e-002
1703	1.6403	2.5455	0.	7.343e-002
1704	1.6403	2.3636	0.	7.2908e-002
1705	1.6403	2.1818	0.	7.2779e-002
1706	1.6403	2.	0.	7.3768e-002
1707	1.6403	1.8182	0.	7.7131e-002
1708	1.6403	1.6364	0.	8.4886e-002
1709	1.6403	1.4545	0.	0.10035
1710	1.6403	1.2727	0.	0.12782
1711	1.6403	1.0909	0.	0.17595
1712	1.6403	0.90909	0.	0.24754
1713	1.6403	0.72727	0.	0.38985
1714	1.6403	0.54545	0.	0.5259
1715	1.6403	0.36364	0.	1.4977
1716	1.6403	0.18182	0.	10.193
1717	1.4581	5.8182	0.	15.433
1718	1.4581	5.6364	0.	1.6623
1719	1.4581	5.4545	0.	0.53773
1720	1.4581	5.2727	0.	0.36599
1721	1.4581	5.0909	0.	0.20038
1722	1.4581	4.9091	0.	0.11897
1723	1.4581	4.7273	0.	6.6863e-002
1724	1.4581	4.5455	0.	3.8524e-002
1725	1.4581	4.3636	0.	2.3167e-002
1726	1.4581	4.1818	0.	1.5562e-002
1727	1.4581	4.	0.	1.2067e-002
1728	1.4581	3.8182	0.	1.0671e-002
1729	1.4581	3.6364	0.	1.0245e-002
1730	1.4581	3.4545	0.	1.0212e-002
1731	1.4581	3.2727	0.	1.0288e-002
1732	1.4581	3.0909	0.	1.0348e-002
1733	1.4581	2.9091	0.	1.0348e-002
1734	1.4581	2.7273	0.	1.0288e-002
1735	1.4581	2.5455	0.	1.0212e-002
1736	1.4581	2.3636	0.	1.0246e-002
1737	1.4581	2.1818	0.	1.0671e-002
1738	1.4581	2.	0.	1.2067e-002
1739	1.4581	1.8182	0.	1.5562e-002
1740	1.4581	1.6364	0.	2.3167e-002
1741	1.4581	1.4545	0.	3.8524e-002
1742	1.4581	1.2727	0.	6.6864e-002
1743	1.4581	1.0909	0.	0.11897
1744	1.4581	0.90909	0.	0.20038
1745	1.4581	0.72727	0.	0.36599
1746	1.4581	0.54545	0.	0.53773
1747	1.4581	0.36364	0.	1.6623
1748	1.4581	0.18182	0.	15.433
1749	1.2758	5.8182	0.	23.939
1750	1.2758	5.6364	0.	2.0932
1751	1.2758	5.4545	0.	0.86429
1752	1.2758	5.2727	0.	0.68925
1753	1.2758	5.0909	0.	0.52281
1754	1.2758	4.9091	0.	0.44915
1755	1.2758	4.7273	0.	0.40612
1756	1.2758	4.5455	0.	0.38631
1757	1.2758	4.3636	0.	0.3775
1758	1.2758	4.1818	0.	0.37442
1759	1.2758	4.	0.	0.37376
1760	1.2758	3.8182	0.	0.37401
1761	1.2758	3.6364	0.	0.37447
1762	1.2758	3.4545	0.	0.37486
1763	1.2758	3.2727	0.	0.37511
1764	1.2758	3.0909	0.	0.37523
1765	1.2758	2.9091	0.	0.37523
1766	1.2758	2.7273	0.	0.37511
1767	1.2758	2.5455	0.	0.37486
1768	1.2758	2.3636	0.	0.37447
1769	1.2758	2.1818	0.	0.37401
1770	1.2758	2.	0.	0.37376
1771	1.2758	1.8182	0.	0.37442
1772	1.2758	1.6364	0.	0.3775
1773	1.2758	1.4545	0.	0.38631
1774	1.2758	1.2727	0.	0.40612
1775	1.2758	1.0909	0.	0.44915
1776	1.2758	0.90909	0.	0.52281
1777	1.2758	0.72727	0.	0.68925
1778	1.2758	0.54545	0.	0.86429
1779	1.2758	0.36364	0.	2.0932
1780	1.2758	0.18182	0.	23.939
1781	1.0935	5.8182	0.	36.349
1782	1.0935	5.6364	0.	1.7004
1783	1.0935	5.4545	0.	3.8078e-002
1784	1.0935	5.2727	0.	-0.29979
1785	1.0935	5.0909	0.	-0.56603
1786	1.0935	4.9091	0.	-0.69985
1787	1.0935	4.7273	0.	-0.78376
1788	1.0935	4.5455	0.	-0.834
1789	1.0935	4.3636	0.	-0.86714
1790	1.0935	4.1818	0.	-0.89022
1791	1.0935	4.	0.	-0.90727
1792	1.0935	3.8182	0.	-0.9202
1793	1.0935	3.6364	0.	-0.92996
1794	1.0935	3.4545	0.	-0.93703
1795	1.0935	3.2727	0.	-0.94164
1796	1.0935	3.0909	0.	-0.94392
1797	1.0935	2.9091	0.	-0.94392
1798	1.0935	2.7273	0.	-0.94164
1799	1.0935	2.5455	0.	-0.93703
1800	1.0935	2.3636	0.	-0.92996
1801	1.0935	2.1818	0.	-0.9202
1802	1.0935	2.	0.	-0.90727
1803	1.0935	1.8182	0.	-0.89022
1804	1.0935	1.6364	0.	-0.86714
1805	1.0935	1.4545	0.	-0.834
1806	1.0935	1.2727	0.	-0.78376
1807	1.0935	1.0909	0.	-0.69985
1808	1.0935	0.90909	0.	-0.56603
1809	1.0935	0.72727	0.	-0.29979
1810	1.0935	0.54545	0.	3.8078e-002
1811	1.0935	0.36364	0.	1.7004
1812	1.0935	0.18182	0.	36.349
1813	0.91129	5.8182	0.	54.087
1814	0.91129	5.6364	0.	4.9361
1815	0.91129	5.4545	0.	3.9637
1816	0.91129	5.2727	0.	4.0306
1817	0.91129	5.0909	0.	4.0327
1818	0.91129	4.9091	0.	4.0975
1819	0.91129	4.7273	0.	4.1606
1820	0.91129	4.5455	0.	4.2199
1821	0.91129	4.3636	0.	4.2689
1822	0.91129	4.1818	0.	4.3078
1823	0.91129	4.	0.	4.3378
1824	0.91129	3.8182	0.	4.3605
1825	0.91129	3.6364	0.	4.3772
1826	0.91129	3.4545	0.	4.3889
1827	0.91129	3.2727	0.	4.3963
1828	0.91129	3.0909	0.	4.3999
1829	0.91129	2.9091	0.	4.3999
1830	0.91129	2.7273	0.	4.3963
1831	0.91129	2.5455	0.	4.3889
1832	0.91129	2.3636	0.	4.3772
1833	0.91129	2.1818	0.	4.3605
1834	0.91129	2.	0.	4.3378
1835	0.91129	1.8182	0.	4.3078
1836	0.91129	1.6364	0.	4.2689
1837	0.91129	1.4545	0.	4.2199
1838	0.91129	1.2727	0.	4.1606
1839	0.91129	1.0909	0.	4.0975
1840	0.91129	0.90909	0.	4.0327
1841	0.91129	0.72727	0.	4.0306
1842	0.91129	0.54545	0.	3.9637
1843	0.91129	0.36364	0.	4.9361
1844	0.91129	0.18182	0.	54.087
1845	0.72903	5.8182	0.	73.291
1846	0.72903	5.6364	0.	-5.746
1847	0.72903	5.4545	0.	-10.625
1848	0.72903	5.2727	0.	-12.425
1849	0.72903	5.0909	0.	-13.666
1850	0.72903	4.9091	0.	-14.457
1851	0.72903	4.7273	0.	-15.023
1852	0.72903	4.5455	0.	-15.439
1853	0.72903	4.3636	0.	-15.756
1854	0.72903	4.1818	0.	-16.001
1855	0.72903	4.	0.	-16.191
1856	0.72903	3.8182	0.	-16.337
1857	0.72903	3.6364	0.	-16.446
1858	0.72903	3.4545	0.	-16.524
1859	0.72903	3.2727	0.	-16.574
1860	0.72903	3.0909	0.	-16.598
1861	0.72903	2.9091	0.	-16.598
1862	0.72903	2.7273	0.	-16.574
1863	0.72903	2.5455	0.	-16.524
1864	0.72903	2.3636	0.	-16.446
1865	0.72903	2.1818	0.	-16.337
1866	0.72903	2.	0.	-16.191
1867	0.72903	1.8182	0.	-16.001
1868	0.72903	1.6364	0.	-15.756
1869	0.72903	1.4545	0.	-15.439
1870	0.72903	1.2727	0.	-15.023
1871	0.72903	1.0909	0.	-14.457
1872	0.72903	0.90909	0.	-13.666
1873	0.72903	0.72727	0.	-12.425
1874	0.72903	0.54545	0.	-10.625
1875	0.72903	0.36364	0.	-5.746
1876	0.72903	0.18182	0.	73.291
1877	0.54677	5.8182	0.	104.87
1878	0.54677	5.6364	0.	40.554
1879	0.54677	5.4545	0.	49.283
1880	0.54677	5.2727	0.	53.948
1881	0.54677	5.0909	0.	57.196
1882	0.54677	4.9091	0.	59.585
1883	0.54677	4.7273	0.	61.361
1884	0.54677	4.5455	0.	62.712
1885	0.54677	4.3636	0.	63.753
1886	0.54677	4.1818	0.	64.56
1887	0.54677	4.	0.	65.186
1888	0.54677	3.8182	0.	65.666
1889	0.54677	3.6364	0.	66.025
1890	0.54677	3.4545	0.	66.281
1891	0.54677	3.2727	0.	66.446
1892	0.54677	3.0909	0.	66.526
1893	0.54677	2.9091	0.	66.526
1894	0.54677	2.7273	0.	66.446
1895	0.54677	2.5455	0.	66.281
1896	0.54677	2.3636	0.	66.025
1897	0.54677	2.1818	0.	65.666
1898	0.54677	2.	0.	65.186
1899	0.54677	1.8182	0.	64.56
1900	0.54677	1.6364	0.	63.753
1901	0.54677	1.4545	0.	62.712
1902	0.54677	1.2727	0.	61.361
1903	0.54677	1.0909	0.	59.585
1904	0.54677	0.90909	0.	57.196
1905	0.54677	0.72727	0.	53.948
1906	0.54677	0.54545	0.	49.283
1907	0.54677	0.36364	0.	40.554
1908	0.54677	0.18182	0.	104.87
1909	0.36452	5.8182	0.	92.816
1910	0.36452	5.6364	0.	-137.93
1911	0.36452	5.4545	0.	-183.75
1912	0.36452	5.2727	0.	-206.93
1913	0.36452	5.0909	0.	-221.87
1914	0.36452	4.9091	0.	-232.37
1915	0.36452	4.7273	0.	-240.04
1916	0.36452	4.5455	0.	-245.82
1917	0.36452	4.3636	0.	-250.25
1918	0.36452	4.1818	0.	-253.68
1919	0.36452	4.	0.	-256.33
1920	0.36452	3.8182	0.	-258.36
1921	0.36452	3.6364	0.	-259.88
1922	0.36452	3.4545	0.	-260.96
1923	0.36452	3.2727	0.	-261.65
1924	0.36452	3.0909	0.	-261.99
1925	0.36452	2.9091	0.	-261.99
1926	0.36452	2.7273	0.	-261.65
1927	0.36452	2.5455	0.	-260.96
1928	0.36452	2.3636	0.	-259.88
1929	0.36452	2.1818	0.	-258.36
1930	0.36452	2.	0.	-256.33
1931	0.36452	1.8182	0.	-253.68
1932	0.36452	1.6364	0.	-250.25
1933	0.36452	1.4545	0.	-245.82
1934	0.36452	1.2727	0.	-240.04
1935	0.36452	1.0909	0.	-232.37
1936	0.36452	0.90909	0.	-221.87
1937	0.36452	0.72727	0.	-206.93
1938	0.36452	0.54545	0.	-183.75
1939	0.36452	0.36364	0.	-137.93
1940	0.36452	0.18182	0.	92.816
1941	0.18226	5.8182	0.	314.3
1942	0.18226	5.6364	0.	610.74
1943	0.18226	5.4545	0.	743.31
1944	0.18226	5.2727	0.	828.82
1945	0.18226	5.0909	0.	883.67
1946	0.18226	4.9091	0.	923.3
1947	0.18226	4.7273	0.	952.4
1948	0.18226	4.5455	0.	974.5
1949	0.18226	4.3636	0.	991.5
1950	0.18226	4.1818	0.	1004.7
1951	0.18226	4.	0.	1014.9
1952	0.18226	3.8182	0.	1022.7
1953	0.18226	3.6364	0.	1028.6
1954	0.18226	3.4545	0.	1032.8
1955	0.18226	3.2727	0.	1035.5
1956	0.18226	3.0909	0.	1036.8
1957	0.18226	2.9091	0.	1036.8
1958	0.18226	2.7273	0.	1035.5
1959	0.18226	2.5455	0.	1032.8
1960	0.18226	2.3636	0.	1028.6
1961	0.18226	2.1818	0.	1022.7
1962	0.18226	2.	0.	1014.9
1963	0.18226	1.8182	0.	1004.7
1964	0.18226	1.6364	0.	991.5
1965	0.18226	1.4545	0.	974.5
1966	0.18226	1.2727	0.	952.4
1967	0.18226	1.0909	0.	923.3
1968	0.18226	0.90909	0.	883.67
1969	0.18226	0.72727	0.	828.82
1970	0.18226	0.54545	0.	743.31
1971	0.18226	0.36364	0.	610.74
1972	0.18226	0.18182	0.	314.3
1973	11.651	5.8182	0.	83.898
1974	11.835	5.8182	0.	62.286
1975	12.02	5.8182	0.	63.059
1976	12.204	5.8182	0.	63.613
1977	12.388	5.8182	0.	61.103
1978	12.573	5.8182	0.	56.379
1979	12.757	5.8182	0.	50.344
1980	12.941	5.8182	0.	43.8
1981	13.125	5.8182	0.	37.317
1982	13.31	5.8182	0.	31.258
1983	13.494	5.8182	0.	25.826
1984	13.678	5.8182	0.	21.108
1985	13.863	5.8182	0.	17.12
1986	14.047	5.8182	0.	13.83
1987	14.231	5.8182	0.	11.184
1988	14.416	5.8182	0.	9.1172
1989	14.6	5.8182	0.	7.559
1990	14.784	5.8182	0.	6.4419
1991	14.969	5.8182	0.	5.7018
1992	15.153	5.8182	0.	5.2801
1993	15.337	5.8182	0.	5.1248
1994	15.522	5.8182	0.	5.1902
1995	15.706	5.8182	0.	5.4373
1996	15.89	5.8182	0.	5.8324
1997	16.075	5.8182	0.	6.3468
1998	16.259	5.8182	0.	6.956
1999	16.443	5.8182	0.	7.6394
2000	16.627	5.8182	0.	8.3797
2001	16.812	5.8182	0.	9.1624
2002	16.996	5.8182	0.	9.9759
2003	17.18	5.8182	0.	10.811
2004	17.365	5.8182	0.	11.659
2005	17.549	5.8182	0.	12.515
2006	17.733	5.8182	0.	13.374
2007	17.918	5.8182	0.	14.232
2008	18.102	5.8182	0.	15.087
2009	18.286	5.8182	0.	15.937
2010	18.471	5.8182	0.	16.781
2011	18.655	5.8182	0.	17.617
2012	18.839	5.8182	0.	18.445
2013	19.024	5.8182	0.	19.266
2014	19.208	5.8182	0.	20.077
2015	19.392	5.8182	0.	20.881
2016	19.576	5.8182	0.	21.676
2017	19.761	5.8182	0.	22.462
2018	19.945	5.8182	0.	23.239
2019	20.129	5.8182	0.	24.006
2020	20.314	5.8182	0.	24.764
2021	20.498	5.8182	0.	25.51
2022	20.682	5.8182	0.	26.243
2023	20.867	5.8182	0.	26.962
2024	21.051	5.8182	0.	27.664
2025	21.235	5.8182	0.	28.347
2026	21.42	5.8182	0.	29.006
2027	21.604	5.8182	0.	29.638
2028	21.788	5.8182	0.	30.236
2029	21.973	5.8182	0.	30.795
2030	22.157	5.8182	0.	31.306
2031	22.341	5.8182	0.	31.76
2032	22.525	5.8182	0.	32.144
2033	22.71	5.8182	0.	32.444
2034	22.894	5.8182	0.	32.643
2035	23.078	5.8182	0.	32.721
2036	23.263	5.8182	0.	32.664
2037	23.447	5.8182	0.	32.476
2038	23.631	5.8182	0.	32.308
2039	23.816	5.8182	0.	33.435
2040	11.651	5.6364	0.	166.31
2041	11.835	5.6364	0.	88.555
2042	12.02	5.6364	0.	76.042
2043	12.204	5.6364	0.	74.994
2044	12.388	5.6364	0.	73.599
2045	12.573	5.6364	0.	69.715
2046	12.757	5.6364	0.	63.525
2047	12.941	5.6364	0.	55.877
2048	13.125	5.6364	0.	47.617
2049	13.31	5.6364	0.	39.408
2050	13.494	5.6364	0.	31.698
2051	13.678	5.6364	0.	24.754
2052	13.863	5.6364	0.	18.705
2053	14.047	5.6364	0.	13.586
2054	14.231	5.6364	0.	9.3714
2055	14.416	5.6364	0.	6.0029
2056	14.6	5.6364	0.	3.4057
2057	14.784	5.6364	0.	1.519
2058	14.969	5.6364	0.	0.42082
2059	15.153	5.6364	0.	0.14233
2060	15.337	5.6364	0.	8.4773e-002
2061	15.522	5.6364	0.	6.4284e-002
2062	15.706	5.6364	0.	5.5303e-002
2063	15.89	5.6364	0.	5.367e-002
2064	16.075	5.6364	0.	7.5615e-002
2065	16.259	5.6364	0.	0.50211
2066	16.443	5.6364	0.	1.3311
2067	16.627	5.6364	0.	2.2584
2068	16.812	5.6364	0.	3.2492
2069	16.996	5.6364	0.	4.2838
2070	17.18	5.6364	0.	5.3473
2071	17.365	5.6364	0.	6.4282
2072	17.549	5.6364	0.	7.5179
2073	17.733	5.6364	0.	8.6098
2074	17.918	5.6364	0.	9.6991
2075	18.102	5.6364	0.	10.783
2076	18.286	5.6364	0.	11.859
2077	18.471	5.6364	0.	12.926
2078	18.655	5.6364	0.	13.985
2079	18.839	5.6364	0.	15.034
2080	19.024	5.6364	0.	16.077
2081	19.208	5.6364	0.	17.112
2082	19.392	5.6364	0.	18.143
2083	19.576	5.6364	0.	19.17
2084	19.761	5.6364	0.	20.196
2085	19.945	5.6364	0.	21.221
2086	20.129	5.6364	0.	22.249
2087	20.314	5.6364	0.	23.28
2088	20.498	5.6364	0.	24.316
2089	20.682	5.6364	0.	25.36
2090	20.867	5.6364	0.	26.413
2091	21.051	5.6364	0.	27.477
2092	21.235	5.6364	0.	28.553
2093	21.42	5.6364	0.	29.643
2094	21.604	5.6364	0.	30.751
2095	21.788	5.6364	0.	31.879
2096	21.973	5.6364	0.	33.031
2097	22.157	5.6364	0.	34.213
2098	22.341	5.6364	0.	35.434
2099	22.525	5.6364	0.	36.709
2100	22.71	5.6364	0.	38.061
2101	22.894	5.6364	0.	39.53
2102	23.078	5.6364	0.	41.188
2103	23.263	5.6364	0.	43.179
2104	23.447	5.6364	0.	45.778
2105	23.631	5.6364	0.	49.681
2106	23.816	5.6364	0.	56.208
2107	11.651	5.4545	0.	300.01
2108	11.835	5.4545	0.	167.01
2109	12.02	5.4545	0.	122.01
2110	12.204	5.4545	0.	103.06
2111	12.388	5.4545	0.	91.55
2112	12.573	5.4545	0.	81.521
2113	12.757	5.4545	0.	71.225
2114	12.941	5.4545	0.	60.579
2115	13.125	5.4545	0.	49.97
2116	13.31	5.4545	0.	39.838
2117	13.494	5.4545	0.	30.518
2118	13.678	5.4545	0.	22.224
2119	13.863	5.4545	0.	15.06
2120	14.047	5.4545	0.	9.0556
2121	14.231	5.4545	0.	4.2301
2122	14.416	5.4545	0.	1.0086
2123	14.6	5.4545	0.	0.24047
2124	14.784	5.4545	0.	0.11261
2125	14.969	5.4545	0.	6.8563e-002
2126	15.153	5.4545	0.	4.7355e-002
2127	15.337	5.4545	0.	3.5188e-002
2128	15.522	5.4545	0.	2.7391e-002
2129	15.706	5.4545	0.	2.1989e-002
2130	15.89	5.4545	0.	1.8035e-002
2131	16.075	5.4545	0.	1.5015e-002
2132	16.259	5.4545	0.	1.263e-002
2133	16.443	5.4545	0.	1.0782e-002
2134	16.627	5.4545	0.	9.4566e-003
2135	16.812	5.4545	0.	9.13e-003
2136	16.996	5.4545	0.	4.2399e-002
2137	17.18	5.4545	0.	1.338
2138	17.365	5.4545	0.	2.736
2139	17.549	5.4545	0.	4.1387
2140	17.733	5.4545	0.	5.5379
2141	17.918	5.4545	0.	6.9288
2142	18.102	5.4545	0.	8.3083
2143	18.286	5.4545	0.	9.6748
2144	18.471	5.4545	0.	11.028
2145	18.655	5.4545	0.	12.369
2146	18.839	5.4545	0.	13.699
2147	19.024	5.4545	0.	15.021
2148	19.208	5.4545	0.	16.337
2149	19.392	5.4545	0.	17.649
2150	19.576	5.4545	0.	18.963
2151	19.761	5.4545	0.	20.281
2152	19.945	5.4545	0.	21.607
2153	20.129	5.4545	0.	22.945
2154	20.314	5.4545	0.	24.299
2155	20.498	5.4545	0.	25.675
2156	20.682	5.4545	0.	27.077
2157	20.867	5.4545	0.	28.51
2158	21.051	5.4545	0.	29.979
2159	21.235	5.4545	0.	31.491
2160	21.42	5.4545	0.	33.054
2161	21.604	5.4545	0.	34.676
2162	21.788	5.4545	0.	36.369
2163	21.973	5.4545	0.	38.147
2164	22.157	5.4545	0.	40.029
2165	22.341	5.4545	0.	42.041
2166	22.525	5.4545	0.	44.221
2167	22.71	5.4545	0.	46.623
2168	22.894	5.4545	0.	49.333
2169	23.078	5.4545	0.	52.48
2170	23.263	5.4545	0.	56.281
2171	23.447	5.4545	0.	61.063
2172	23.631	5.4545	0.	67.403
2173	23.816	5.4545	0.	75.879
2174	11.651	5.2727	0.	459.75
2175	11.835	5.2727	0.	274.42
2176	12.02	5.2727	0.	189.52
2177	12.204	5.2727	0.	141.84
2178	12.388	5.2727	0.	111.49
2179	12.573	5.2727	0.	89.599
2180	12.757	5.2727	0.	71.986
2181	12.941	5.2727	0.	56.899
2182	13.125	5.2727	0.	43.642
2183	13.31	5.2727	0.	31.969
2184	13.494	5.2727	0.	21.805
2185	13.678	5.2727	0.	13.143
2186	13.863	5.2727	0.	6.0946
2187	14.047	5.2727	0.	1.6188
2188	14.231	5.2727	0.	0.47167
2189	14.416	5.2727	0.	0.22025
2190	14.6	5.2727	0.	0.12829
2191	14.784	5.2727	0.	8.427e-002
2192	14.969	5.2727	0.	5.9811e-002
2193	15.153	5.2727	0.	4.4834e-002
2194	15.337	5.2727	0.	3.4994e-002
2195	15.522	5.2727	0.	2.8173e-002
2196	15.706	5.2727	0.	2.3234e-002
2197	15.89	5.2727	0.	1.955e-002
2198	16.075	5.2727	0.	1.6727e-002
2199	16.259	5.2727	0.	1.4523e-002
2200	16.443	5.2727	0.	1.2842e-002
2201	16.627	5.2727	0.	1.1617e-002
2202	16.812	5.2727	0.	1.0873e-002
2203	16.996	5.2727	0.	1.0858e-002
2204	17.18	5.2727	0.	1.2615e-002
2205	17.365	5.2727	0.	2.5877e-002
2206	17.549	5.2727	0.	0.93307
2207	17.733	5.2727	0.	2.6465
2208	17.918	5.2727	0.	4.3513
2209	18.102	5.2727	0.	6.0372
2210	18.286	5.2727	0.	7.7029
2211	18.471	5.2727	0.	9.3493
2212	18.655	5.2727	0.	10.978
2213	18.839	5.2727	0.	12.594
2214	19.024	5.2727	0.	14.199
2215	19.208	5.2727	0.	15.798
2216	19.392	5.2727	0.	17.397
2217	19.576	5.2727	0.	19.001
2218	19.761	5.2727	0.	20.615
2219	19.945	5.2727	0.	22.246
2220	20.129	5.2727	0.	23.9
2221	20.314	5.2727	0.	25.584
2222	20.498	5.2727	0.	27.306
2223	20.682	5.2727	0.	29.073
2224	20.867	5.2727	0.	30.894
2225	21.051	5.2727	0.	32.778
2226	21.235	5.2727	0.	34.737
2227	21.42	5.2727	0.	36.784
2228	21.604	5.2727	0.	38.933
2229	21.788	5.2727	0.	41.203
2230	21.973	5.2727	0.	43.618
2231	22.157	5.2727	0.	46.207
2232	22.341	5.2727	0.	49.012
2233	22.525	5.2727	0.	52.086
2234	22.71	5.2727	0.	55.503
2235	22.894	5.2727	0.	59.368
2236	23.078	5.2727	0.	63.827
2237	23.263	5.2727	0.	69.088
2238	23.447	5.2727	0.	75.402
2239	23.631	5.2727	0.	83.133
2240	23.816	5.2727	0.	92.473
2241	11.651	5.0909	0.	645.05
2242	11.835	5.0909	0.	400.45
2243	12.02	5.0909	0.	269.39
2244	12.204	5.0909	0.	185.54
2245	12.388	5.0909	0.	130.11
2246	12.573	5.0909	0.	92.343
2247	12.757	5.0909	0.	65.337
2248	12.941	5.0909	0.	45.099
2249	13.125	5.0909	0.	29.371
2250	13.31	5.0909	0.	16.96
2251	13.494	5.0909	0.	7.5627
2252	13.678	5.0909	0.	2.3469
2253	13.863	5.0909	0.	0.85851
2254	14.047	5.0909	0.	0.42271
2255	14.231	5.0909	0.	0.24485
2256	14.416	5.0909	0.	0.15626
2257	14.6	5.0909	0.	0.10656
2258	14.784	5.0909	0.	7.6351e-002
2259	14.969	5.0909	0.	5.6893e-002
2260	15.153	5.0909	0.	4.3775e-002
2261	15.337	5.0909	0.	3.4605e-002
2262	15.522	5.0909	0.	2.8002e-002
2263	15.706	5.0909	0.	2.3129e-002
2264	15.89	5.0909	0.	1.9476e-002
2265	16.075	5.0909	0.	1.6696e-002
2266	16.259	5.0909	0.	1.4554e-002
2267	16.443	5.0909	0.	1.2945e-002
2268	16.627	5.0909	0.	1.1775e-002
2269	16.812	5.0909	0.	1.0995e-002
2270	16.996	5.0909	0.	1.0652e-002
2271	17.18	5.0909	0.	1.092e-002
2272	17.365	5.0909	0.	1.2395e-002
2273	17.549	5.0909	0.	1.7986e-002
2274	17.733	5.0909	0.	0.1097
2275	17.918	5.0909	0.	1.8835
2276	18.102	5.0909	0.	3.8765
2277	18.286	5.0909	0.	5.8439
2278	18.471	5.0909	0.	7.7849
2279	18.655	5.0909	0.	9.7028
2280	18.839	5.0909	0.	11.603
2281	19.024	5.0909	0.	13.49
2282	19.208	5.0909	0.	15.372
2283	19.392	5.0909	0.	17.255
2284	19.576	5.0909	0.	19.147
2285	19.761	5.0909	0.	21.056
2286	19.945	5.0909	0.	22.99
2287	20.129	5.0909	0.	24.958
2288	20.314	5.0909	0.	26.971
2289	20.498	5.0909	0.	29.037
2290	20.682	5.0909	0.	31.168
2291	20.867	5.0909	0.	33.377
2292	21.051	5.0909	0.	35.675
2293	21.235	5.0909	0.	38.079
2294	21.42	5.0909	0.	40.607
2295	21.604	5.0909	0.	43.278
2296	21.788	5.0909	0.	46.117
2297	21.973	5.0909	0.	49.156
2298	22.157	5.0909	0.	52.431
2299	22.341	5.0909	0.	55.992
2300	22.525	5.0909	0.	59.901
2301	22.71	5.0909	0.	64.237
2302	22.894	5.0909	0.	69.106
2303	23.078	5.0909	0.	74.639
2304	23.263	5.0909	0.	81.
2305	23.447	5.0909	0.	88.352
2306	23.631	5.0909	0.	96.915
2307	23.816	5.0909	0.	106.7
2308	11.651	4.9091	0.	862.32
2309	11.835	4.9091	0.	540.13
2310	12.02	4.9091	0.	352.12
2311	12.204	4.9091	0.	225.41
2312	12.388	4.9091	0.	141.38
2313	12.573	4.9091	0.	86.334
2314	12.757	4.9091	0.	49.932
2315	12.941	4.9091	0.	25.599
2316	13.125	4.9091	0.	10.142
2317	13.31	4.9091	0.	3.2891
2318	13.494	4.9091	0.	1.371
2319	13.678	4.9091	0.	0.71936
2320	13.863	4.9091	0.	0.42749
2321	14.047	4.9091	0.	0.27401
2322	14.231	4.9091	0.	0.18513
2323	14.416	4.9091	0.	0.13022
2324	14.6	4.9091	0.	9.4666e-002
2325	14.784	4.9091	0.	7.0784e-002
2326	14.969	4.9091	0.	5.426e-002
2327	15.153	4.9091	0.	4.2536e-002
2328	15.337	4.9091	0.	3.4042e-002
2329	15.522	4.9091	0.	2.7776e-002
2330	15.706	4.9091	0.	2.3088e-002
2331	15.89	4.9091	0.	1.9551e-002
2332	16.075	4.9091	0.	1.6857e-002
2333	16.259	4.9091	0.	1.4785e-002
2334	16.443	4.9091	0.	1.3237e-002
2335	16.627	4.9091	0.	1.2104e-002
2336	16.812	4.9091	0.	1.1319e-002
2337	16.996	4.9091	0.	1.0881e-002
2338	17.18	4.9091	0.	1.0826e-002
2339	17.365	4.9091	0.	1.1323e-002
2340	17.549	4.9091	0.	1.2893e-002
2341	17.733	4.9091	0.	1.7852e-002
2342	17.918	4.9091	0.	6.508e-002
2343	18.102	4.9091	0.	1.8303
2344	18.286	4.9091	0.	4.0936
2345	18.471	4.9091	0.	6.3264
2346	18.655	4.9091	0.	8.5296
2347	18.839	4.9091	0.	10.71
2348	19.024	4.9091	0.	12.875
2349	19.208	4.9091	0.	15.033
2350	19.392	4.9091	0.	17.195
2351	19.576	4.9091	0.	19.369
2352	19.761	4.9091	0.	21.565
2353	19.945	4.9091	0.	23.796
2354	20.129	4.9091	0.	26.072
2355	20.314	4.9091	0.	28.405
2356	20.498	4.9091	0.	30.808
2357	20.682	4.9091	0.	33.295
2358	20.867	4.9091	0.	35.881
2359	21.051	4.9091	0.	38.583
2360	21.235	4.9091	0.	41.42
2361	21.42	4.9091	0.	44.412
2362	21.604	4.9091	0.	47.585
2363	21.788	4.9091	0.	50.969
2364	21.973	4.9091	0.	54.597
2365	22.157	4.9091	0.	58.511
2366	22.341	4.9091	0.	62.764
2367	22.525	4.9091	0.	67.418
2368	22.71	4.9091	0.	72.55
2369	22.894	4.9091	0.	78.252
2370	23.078	4.9091	0.	84.629
2371	23.263	4.9091	0.	91.8
2372	23.447	4.9091	0.	99.858
2373	23.631	4.9091	0.	108.94
2374	23.816	4.9091	0.	118.98
2375	11.651	4.7273	0.	1125.6
2376	11.835	4.7273	0.	688.85
2377	12.02	4.7273	0.	424.
2378	12.204	4.7273	0.	249.43
2379	12.388	4.7273	0.	137.39
2380	12.573	4.7273	0.	67.545
2381	12.757	4.7273	0.	25.63
2382	12.941	4.7273	0.	6.5703
2383	13.125	4.7273	0.	2.3117
2384	13.31	4.7273	0.	1.1703
2385	13.494	4.7273	0.	0.6946
2386	13.678	4.7273	0.	0.44741
2387	13.863	4.7273	0.	0.30299
2388	14.047	4.7273	0.	0.21251
2389	14.231	4.7273	0.	0.15315
2390	14.416	4.7273	0.	0.11292
2391	14.6	4.7273	0.	8.4961e-002
2392	14.784	4.7273	0.	6.512e-002
2393	14.969	4.7273	0.	5.0804e-002
2394	15.153	4.7273	0.	4.0321e-002
2395	15.337	4.7273	0.	3.2553e-002
2396	15.522	4.7273	0.	2.6737e-002
2397	15.706	4.7273	0.	2.2346e-002
2398	15.89	4.7273	0.	1.9023e-002
2399	16.075	4.7273	0.	1.6494e-002
2400	16.259	4.7273	0.	1.4561e-002
2401	16.443	4.7273	0.	1.3123e-002
2402	16.627	4.7273	0.	1.2079e-002
2403	16.812	4.7273	0.	1.1354e-002
2404	16.996	4.7273	0.	1.0922e-002
2405	17.18	4.7273	0.	1.0785e-002
2406	17.365	4.7273	0.	1.0997e-002
2407	17.549	4.7273	0.	1.1741e-002
2408	17.733	4.7273	0.	1.3604e-002
2409	17.918	4.7273	0.	1.946e-002
2410	18.102	4.7273	0.	0.13525
2411	18.286	4.7273	0.	2.4572
2412	18.471	4.7273	0.	4.9735
2413	18.655	4.7273	0.	7.4546
2414	18.839	4.7273	0.	9.907
2415	19.024	4.7273	0.	12.341
2416	19.208	4.7273	0.	14.767
2417	19.392	4.7273	0.	17.196
2418	19.576	4.7273	0.	19.642
2419	19.761	4.7273	0.	22.116
2420	19.945	4.7273	0.	24.631
2421	20.129	4.7273	0.	27.202
2422	20.314	4.7273	0.	29.843
2423	20.498	4.7273	0.	32.569
2424	20.682	4.7273	0.	35.397
2425	20.867	4.7273	0.	38.344
2426	21.051	4.7273	0.	41.43
2427	21.235	4.7273	0.	44.677
2428	21.42	4.7273	0.	48.109
2429	21.604	4.7273	0.	51.753
2430	21.788	4.7273	0.	55.641
2431	21.973	4.7273	0.	59.81
2432	22.157	4.7273	0.	64.302
2433	22.341	4.7273	0.	69.169
2434	22.525	4.7273	0.	74.469
2435	22.71	4.7273	0.	80.268
2436	22.894	4.7273	0.	86.644
2437	23.078	4.7273	0.	93.674
2438	23.263	4.7273	0.	101.44
2439	23.447	4.7273	0.	109.99
2440	23.631	4.7273	0.	119.43
2441	23.816	4.7273	0.	129.62
2442	11.651	4.5455	0.	1444.4
2443	11.835	4.5455	0.	822.25
2444	12.02	4.5455	0.	463.92
2445	12.204	4.5455	0.	242.52
2446	12.388	4.5455	0.	110.28
2447	12.573	4.5455	0.	34.704
2448	12.757	4.5455	0.	6.2117
2449	12.941	4.5455	0.	2.1738
2450	13.125	4.5455	0.	1.1474
2451	13.31	4.5455	0.	0.7092
2452	13.494	4.5455	0.	0.47324
2453	13.678	4.5455	0.	0.33022
2454	13.863	4.5455	0.	0.23723
2455	14.047	4.5455	0.	0.17409
2456	14.231	4.5455	0.	0.12996
2457	14.416	4.5455	0.	9.8467e-002
2458	14.6	4.5455	0.	7.5655e-002
2459	14.784	4.5455	0.	5.8923e-002
2460	14.969	4.5455	0.	4.6531e-002
2461	15.153	4.5455	0.	3.728e-002
2462	15.337	4.5455	0.	3.0322e-002
2463	15.522	4.5455	0.	2.507e-002
2464	15.706	4.5455	0.	2.1086e-002
2465	15.89	4.5455	0.	1.8069e-002
2466	16.075	4.5455	0.	1.5785e-002
2467	16.259	4.5455	0.	1.4044e-002
2468	16.443	4.5455	0.	1.2771e-002
2469	16.627	4.5455	0.	1.1856e-002
2470	16.812	4.5455	0.	1.1228e-002
2471	16.996	4.5455	0.	1.0855e-002
2472	17.18	4.5455	0.	1.0722e-002
2473	17.365	4.5455	0.	1.0844e-002
2474	17.549	4.5455	0.	1.1296e-002
2475	17.733	4.5455	0.	1.2311e-002
2476	17.918	4.5455	0.	1.4706e-002
2477	18.102	4.5455	0.	2.4158e-002
2478	18.286	4.5455	0.	0.95264
2479	18.471	4.5455	0.	3.7286
2480	18.655	4.5455	0.	6.4759
2481	18.839	4.5455	0.	9.1886
2482	19.024	4.5455	0.	11.878
2483	19.208	4.5455	0.	14.558
2484	19.392	4.5455	0.	17.242
2485	19.576	4.5455	0.	19.945
2486	19.761	4.5455	0.	22.681
2487	19.945	4.5455	0.	25.466
2488	20.129	4.5455	0.	28.315
2489	20.314	4.5455	0.	31.246
2490	20.498	4.5455	0.	34.276
2491	20.682	4.5455	0.	37.423
2492	20.867	4.5455	0.	40.709
2493	21.051	4.5455	0.	44.153
2494	21.235	4.5455	0.	47.781
2495	21.42	4.5455	0.	51.617
2496	21.604	4.5455	0.	55.692
2497	21.788	4.5455	0.	60.038
2498	21.973	4.5455	0.	64.692
2499	22.157	4.5455	0.	69.694
2500	22.341	4.5455	0.	75.092
2501	22.525	4.5455	0.	80.938
2502	22.71	4.5455	0.	87.287
2503	22.894	4.5455	0.	94.2
2504	23.078	4.5455	0.	101.73
2505	23.263	4.5455	0.	109.94
2506	23.447	4.5455	0.	118.84
2507	23.631	4.5455	0.	128.52
2508	23.816	4.5455	0.	138.81
2509	11.651	4.3636	0.	1897.7
2510	11.835	4.3636	0.	892.84
2511	12.02	4.3636	0.	431.9
2512	12.204	4.3636	0.	191.04
2513	12.388	4.3636	0.	58.016
2514	12.573	4.3636	0.	7.6077
2515	12.757	4.3636	0.	2.29
2516	12.941	4.3636	0.	1.1933
2517	13.125	4.3636	0.	0.73937
2518	13.31	4.3636	0.	0.50085
2519	13.494	4.3636	0.	0.35508
2520	13.678	4.3636	0.	0.25912
2521	13.863	4.3636	0.	0.19266
2522	14.047	4.3636	0.	0.14527
2523	14.231	4.3636	0.	0.11078
2524	14.416	4.3636	0.	8.5371e-002
2525	14.6	4.3636	0.	6.6465e-002
2526	14.784	4.3636	0.	5.2306e-002
2527	14.969	4.3636	0.	4.1652e-002
2528	15.153	4.3636	0.	3.3602e-002
2529	15.337	4.3636	0.	2.7508e-002
2530	15.522	4.3636	0.	2.2887e-002
2531	15.706	4.3636	0.	1.9384e-002
2532	15.89	4.3636	0.	1.6745e-002
2533	16.075	4.3636	0.	1.4759e-002
2534	16.259	4.3636	0.	1.3265e-002
2535	16.443	4.3636	0.	1.219e-002
2536	16.627	4.3636	0.	1.1439e-002
2537	16.812	4.3636	0.	1.094e-002
2538	16.996	4.3636	0.	1.0665e-002
2539	17.18	4.3636	0.	1.0584e-002
2540	17.365	4.3636	0.	1.0703e-002
2541	17.549	4.3636	0.	1.105e-002
2542	17.733	4.3636	0.	1.1731e-002
2543	17.918	4.3636	0.	1.3083e-002
2544	18.102	4.3636	0.	1.6646e-002
2545	18.286	4.3636	0.	5.871e-002
2546	18.471	4.3636	0.	2.5967
2547	18.655	4.3636	0.	5.5939
2548	18.839	4.3636	0.	8.5506
2549	19.024	4.3636	0.	11.48
2550	19.208	4.3636	0.	14.397
2551	19.392	4.3636	0.	17.318
2552	19.576	4.3636	0.	20.26
2553	19.761	4.3636	0.	23.239
2554	19.945	4.3636	0.	26.273
2555	20.129	4.3636	0.	29.38
2556	20.314	4.3636	0.	32.579
2557	20.498	4.3636	0.	35.889
2558	20.682	4.3636	0.	39.33
2559	20.867	4.3636	0.	42.925
2560	21.051	4.3636	0.	46.697
2561	21.235	4.3636	0.	50.67
2562	21.42	4.3636	0.	54.872
2563	21.604	4.3636	0.	59.333
2564	21.788	4.3636	0.	64.085
2565	21.973	4.3636	0.	69.162
2566	22.157	4.3636	0.	74.605
2567	22.341	4.3636	0.	80.454
2568	22.525	4.3636	0.	86.754
2569	22.71	4.3636	0.	93.551
2570	22.894	4.3636	0.	100.89
2571	23.078	4.3636	0.	108.81
2572	23.263	4.3636	0.	117.35
2573	23.447	4.3636	0.	126.51
2574	23.631	4.3636	0.	136.36
2575	23.816	4.3636	0.	146.71
2576	11.651	4.1818	0.	2084.4
2577	11.835	4.1818	0.	805.46
2578	12.02	4.1818	0.	305.72
2579	12.204	4.1818	0.	97.696
2580	12.388	4.1818	0.	10.148
2581	12.573	4.1818	0.	2.5308
2582	12.757	4.1818	0.	1.2294
2583	12.941	4.1818	0.	0.77193
2584	13.125	4.1818	0.	0.52355
2585	13.31	4.1818	0.	0.37681
2586	13.494	4.1818	0.	0.27816
2587	13.678	4.1818	0.	0.20918
2588	13.863	4.1818	0.	0.15904
2589	14.047	4.1818	0.	0.12198
2590	14.231	4.1818	0.	9.424e-002
2591	14.416	4.1818	0.	7.3347e-002
2592	14.6	4.1818	0.	5.7546e-002
2593	14.784	4.1818	0.	4.5568e-002
2594	14.969	4.1818	0.	3.6479e-002
2595	15.153	4.1818	0.	2.9579e-002
2596	15.337	4.1818	0.	2.4347e-002
2597	15.522	4.1818	0.	2.0389e-002
2598	15.706	4.1818	0.	1.7405e-002
2599	15.89	4.1818	0.	1.5178e-002
2600	16.075	4.1818	0.	1.3526e-002
2601	16.259	4.1818	0.	1.2306e-002
2602	16.443	4.1818	0.	1.1457e-002
2603	16.627	4.1818	0.	1.0891e-002
2604	16.812	4.1818	0.	1.0543e-002
2605	16.996	4.1818	0.	1.0382e-002
2606	17.18	4.1818	0.	1.0386e-002
2607	17.365	4.1818	0.	1.0544e-002
2608	17.549	4.1818	0.	1.0866e-002
2609	17.733	4.1818	0.	1.1409e-002
2610	17.918	4.1818	0.	1.2327e-002
2611	18.102	4.1818	0.	1.4233e-002
2612	18.286	4.1818	0.	2.2377e-002
2613	18.471	4.1818	0.	1.5846
2614	18.655	4.1818	0.	4.8102
2615	18.839	4.1818	0.	7.9911
2616	19.024	4.1818	0.	11.139
2617	19.208	4.1818	0.	14.273
2618	19.392	4.1818	0.	17.41
2619	19.576	4.1818	0.	20.569
2620	19.761	4.1818	0.	23.769
2621	19.945	4.1818	0.	27.03
2622	20.129	4.1818	0.	30.37
2623	20.314	4.1818	0.	33.81
2624	20.498	4.1818	0.	37.372
2625	20.682	4.1818	0.	41.078
2626	20.867	4.1818	0.	44.95
2627	21.051	4.1818	0.	49.013
2628	21.235	4.1818	0.	53.294
2629	21.42	4.1818	0.	57.818
2630	21.604	4.1818	0.	62.617
2631	21.788	4.1818	0.	67.72
2632	21.973	4.1818	0.	73.162
2633	22.157	4.1818	0.	78.977
2634	22.341	4.1818	0.	85.203
2635	22.525	4.1818	0.	91.875
2636	22.71	4.1818	0.	99.03
2637	22.894	4.1818	0.	106.7
2638	23.078	4.1818	0.	114.92
2639	23.263	4.1818	0.	123.71
2640	23.447	4.1818	0.	133.06
2641	23.631	4.1818	0.	143.04
2642	23.816	4.1818	0.	153.44
2643	11.651	4.	0.	1342.4
2644	11.835	4.	0.	443.83
2645	12.02	4.	0.	146.72
2646	12.204	4.	0.	15.603
2647	12.388	4.	0.	1.9641
2648	12.573	4.	0.	1.3519
2649	12.757	4.	0.	0.74486
2650	12.941	4.	0.	0.54771
2651	13.125	4.	0.	0.39307
2652	13.31	4.	0.	0.29685
2653	13.494	4.	0.	0.22532
2654	13.678	4.	0.	0.17284
2655	13.863	4.	0.	0.13314
2656	14.047	4.	0.	0.10303
2657	14.231	4.	0.	8.007e-002
2658	14.416	4.	0.	6.2564e-002
2659	14.6	4.	0.	4.9219e-002
2660	14.784	4.	0.	3.906e-002
2661	14.969	4.	0.	3.1342e-002
2662	15.153	4.	0.	2.5497e-002
2663	15.337	4.	0.	2.1086e-002
2664	15.522	4.	0.	1.7776e-002
2665	15.706	4.	0.	1.5311e-002
2666	15.89	4.	0.	1.3505e-002
2667	16.075	4.	0.	1.2196e-002
2668	16.259	4.	0.	1.1257e-002
2669	16.443	4.	0.	1.0641e-002
2670	16.627	4.	0.	1.0268e-002
2671	16.812	4.	0.	1.0077e-002
2672	16.996	4.	0.	1.0044e-002
2673	17.18	4.	0.	1.0143e-002
2674	17.365	4.	0.	1.0361e-002
2675	17.549	4.	0.	1.0703e-002
2676	17.733	4.	0.	1.1193e-002
2677	17.918	4.	0.	1.191e-002
2678	18.102	4.	0.	1.3138e-002
2679	18.286	4.	0.	1.6571e-002
2680	18.471	4.	0.	0.70429
2681	18.655	4.	0.	4.1278
2682	18.839	4.	0.	7.5091
2683	19.024	4.	0.	10.853
2684	19.208	4.	0.	14.179
2685	19.392	4.	0.	17.508
2686	19.576	4.	0.	20.859
2687	19.761	4.	0.	24.254
2688	19.945	4.	0.	27.714
2689	20.129	4.	0.	31.26
2690	20.314	4.	0.	34.913
2691	20.498	4.	0.	38.697
2692	20.682	4.	0.	42.634
2693	20.867	4.	0.	46.748
2694	21.051	4.	0.	51.065
2695	21.235	4.	0.	55.61
2696	21.42	4.	0.	60.412
2697	21.604	4.	0.	65.499
2698	21.788	4.	0.	70.9
2699	21.973	4.	0.	76.647
2700	22.157	4.	0.	82.771
2701	22.341	4.	0.	89.304
2702	22.525	4.	0.	96.276
2703	22.71	4.	0.	103.72
2704	22.894	4.	0.	111.65
2705	23.078	4.	0.	120.1
2706	23.263	4.	0.	129.08
2707	23.447	4.	0.	138.57
2708	23.631	4.	0.	148.65
2709	23.816	4.	0.	159.08
2710	11.651	3.8182	0.	658.1
2711	11.835	3.8182	0.	274.66
2712	12.02	3.8182	0.	50.591
2713	12.204	3.8182	0.	4.0533
2714	12.388	3.8182	0.	0.61582
2715	12.573	3.8182	0.	0.89426
2716	12.757	3.8182	0.	0.52975
2717	12.941	3.8182	0.	0.42778
2718	13.125	3.8182	0.	0.31994
2719	13.31	3.8182	0.	0.24795
2720	13.494	3.8182	0.	0.19084
2721	13.678	3.8182	0.	0.14743
2722	13.863	3.8182	0.	0.11388
2723	14.047	3.8182	0.	8.8121e-002
2724	14.231	3.8182	0.	6.8377e-002
2725	14.416	3.8182	0.	5.3299e-002
2726	14.6	3.8182	0.	4.1825e-002
2727	14.784	3.8182	0.	3.3126e-002
2728	14.969	3.8182	0.	2.6563e-002
2729	15.153	3.8182	0.	2.1633e-002
2730	15.337	3.8182	0.	1.796e-002
2731	15.522	3.8182	0.	1.5246e-002
2732	15.706	3.8182	0.	1.3267e-002
2733	15.89	3.8182	0.	1.1859e-002
2734	16.075	3.8182	0.	1.0878e-002
2735	16.259	3.8182	0.	1.0212e-002
2736	16.443	3.8182	0.	9.8185e-003
2737	16.627	3.8182	0.	9.633e-003
2738	16.812	3.8182	0.	9.595e-003
2739	16.996	3.8182	0.	9.6851e-003
2740	17.18	3.8182	0.	9.8822e-003
2741	17.365	3.8182	0.	1.017e-002
2742	17.549	3.8182	0.	1.0551e-002
2743	17.733	3.8182	0.	1.103e-002
2744	17.918	3.8182	0.	1.1653e-002
2745	18.102	3.8182	0.	1.2554e-002
2746	18.286	3.8182	0.	1.4427e-002
2747	18.471	3.8182	0.	8.0875e-002
2748	18.655	3.8182	0.	3.5505
2749	18.839	3.8182	0.	7.1048
2750	19.024	3.8182	0.	10.617
2751	19.208	3.8182	0.	14.108
2752	19.392	3.8182	0.	17.601
2753	19.576	3.8182	0.	21.118
2754	19.761	3.8182	0.	24.68
2755	19.945	3.8182	0.	28.31
2756	20.129	3.8182	0.	32.031
2757	20.314	3.8182	0.	35.866
2758	20.498	3.8182	0.	39.837
2759	20.682	3.8182	0.	43.97
2760	20.867	3.8182	0.	48.288
2761	21.051	3.8182	0.	52.819
2762	21.235	3.8182	0.	57.586
2763	21.42	3.8182	0.	62.619
2764	21.604	3.8182	0.	67.945
2765	21.788	3.8182	0.	73.591
2766	21.973	3.8182	0.	79.586
2767	22.157	3.8182	0.	85.959
2768	22.341	3.8182	0.	92.737
2769	22.525	3.8182	0.	99.946
2770	22.71	3.8182	0.	107.61
2771	22.894	3.8182	0.	115.74
2772	23.078	3.8182	0.	124.37
2773	23.263	3.8182	0.	133.49
2774	23.447	3.8182	0.	143.09
2775	23.631	3.8182	0.	153.24
2776	23.816	3.8182	0.	163.69
2777	11.651	3.6364	0.	675.88
2778	11.835	3.6364	0.	289.8
2779	12.02	3.6364	0.	59.725
2780	12.204	3.6364	0.	0.94938
2781	12.388	3.6364	0.	0.90736
2782	12.573	3.6364	0.	0.65083
2783	12.757	3.6364	0.	0.48675
2784	12.941	3.6364	0.	0.37811
2785	13.125	3.6364	0.	0.29009
2786	13.31	3.6364	0.	0.22347
2787	13.494	3.6364	0.	0.1714
2788	13.678	3.6364	0.	0.13134
2789	13.863	3.6364	0.	0.10057
2790	14.047	3.6364	0.	7.71e-002
2791	14.231	3.6364	0.	5.9271e-002
2792	14.416	3.6364	0.	4.5796e-002
2793	14.6	3.6364	0.	3.5655e-002
2794	14.784	3.6364	0.	2.8064e-002
2795	14.969	3.6364	0.	2.2413e-002
2796	15.153	3.6364	0.	1.8239e-002
2797	15.337	3.6364	0.	1.5186e-002
2798	15.522	3.6364	0.	1.2985e-002
2799	15.706	3.6364	0.	1.1428e-002
2800	15.89	3.6364	0.	1.037e-002
2801	16.075	3.6364	0.	9.6809e-003
2802	16.259	3.6364	0.	9.2533e-003
2803	16.443	3.6364	0.	9.063e-003
2804	16.627	3.6364	0.	9.0426e-003
2805	16.812	3.6364	0.	9.1418e-003
2806	16.996	3.6364	0.	9.3457e-003
2807	17.18	3.6364	0.	9.6321e-003
2808	17.365	3.6364	0.	9.9882e-003
2809	17.549	3.6364	0.	1.041e-002
2810	17.733	3.6364	0.	1.0902e-002
2811	17.918	3.6364	0.	1.1483e-002
2812	18.102	3.6364	0.	1.2217e-002
2813	18.286	3.6364	0.	1.3407e-002
2814	18.471	3.6364	0.	2.1755e-002
2815	18.655	3.6364	0.	3.0823
2816	18.839	3.6364	0.	6.7793
2817	19.024	3.6364	0.	10.43
2818	19.208	3.6364	0.	14.057
2819	19.392	3.6364	0.	17.684
2820	19.576	3.6364	0.	21.336
2821	19.761	3.6364	0.	25.034
2822	19.945	3.6364	0.	28.804
2823	20.129	3.6364	0.	32.667
2824	20.314	3.6364	0.	36.649
2825	20.498	3.6364	0.	40.773
2826	20.682	3.6364	0.	45.064
2827	20.867	3.6364	0.	49.548
2828	21.051	3.6364	0.	54.25
2829	21.235	3.6364	0.	59.196
2830	21.42	3.6364	0.	64.413
2831	21.604	3.6364	0.	69.928
2832	21.788	3.6364	0.	75.767
2833	21.973	3.6364	0.	81.958
2834	22.157	3.6364	0.	88.524
2835	22.341	3.6364	0.	95.492
2836	22.525	3.6364	0.	102.88
2837	22.71	3.6364	0.	110.71
2838	22.894	3.6364	0.	119.
2839	23.078	3.6364	0.	127.75
2840	23.263	3.6364	0.	136.98
2841	23.447	3.6364	0.	146.66
2842	23.631	3.6364	0.	156.86
2843	23.816	3.6364	0.	167.32
2844	11.651	3.4545	0.	624.6
2845	11.835	3.4545	0.	340.23
2846	12.02	3.4545	0.	103.12
2847	12.204	3.4545	0.	1.6142
2848	12.388	3.4545	0.	0.92864
2849	12.573	3.4545	0.	0.65251
2850	12.757	3.4545	0.	0.50333
2851	12.941	3.4545	0.	0.37968
2852	13.125	3.4545	0.	0.28745
2853	13.31	3.4545	0.	0.21669
2854	13.494	3.4545	0.	0.16309
2855	13.678	3.4545	0.	0.12264
2856	13.863	3.4545	0.	9.2294e-002
2857	14.047	3.4545	0.	6.9614e-002
2858	14.231	3.4545	0.	5.2723e-002
2859	14.416	3.4545	0.	4.0186e-002
2860	14.6	3.4545	0.	3.0917e-002
2861	14.784	3.4545	0.	2.4099e-002
2862	14.969	3.4545	0.	1.9118e-002
2863	15.153	3.4545	0.	1.5516e-002
2864	15.337	3.4545	0.	1.2942e-002
2865	15.522	3.4545	0.	1.1146e-002
2866	15.706	3.4545	0.	9.9261e-003
2867	15.89	3.4545	0.	9.1503e-003
2868	16.075	3.4545	0.	8.6943e-003
2869	16.259	3.4545	0.	8.4628e-003
2870	16.443	3.4545	0.	8.4351e-003
2871	16.627	3.4545	0.	8.55e-003
2872	16.812	3.4545	0.	8.7612e-003
2873	16.996	3.4545	0.	9.0596e-003
2874	17.18	3.4545	0.	9.4188e-003
2875	17.365	3.4545	0.	9.8326e-003
2876	17.549	3.4545	0.	1.0295e-002
2877	17.733	3.4545	0.	1.0805e-002
2878	17.918	3.4545	0.	1.1368e-002
2879	18.102	3.4545	0.	1.2016e-002
2880	18.286	3.4545	0.	1.2872e-002
2881	18.471	3.4545	0.	1.5695e-002
2882	18.655	3.4545	0.	2.727
2883	18.839	3.4545	0.	6.5336
2884	19.024	3.4545	0.	10.29
2885	19.208	3.4545	0.	14.021
2886	19.392	3.4545	0.	17.751
2887	19.576	3.4545	0.	21.506
2888	19.761	3.4545	0.	25.308
2889	19.945	3.4545	0.	29.183
2890	20.129	3.4545	0.	33.155
2891	20.314	3.4545	0.	37.248
2892	20.498	3.4545	0.	41.488
2893	20.682	3.4545	0.	45.899
2894	20.867	3.4545	0.	50.508
2895	21.051	3.4545	0.	55.339
2896	21.235	3.4545	0.	60.419
2897	21.42	3.4545	0.	65.774
2898	21.604	3.4545	0.	71.43
2899	21.788	3.4545	0.	77.413
2900	21.973	3.4545	0.	83.747
2901	22.157	3.4545	0.	90.455
2902	22.341	3.4545	0.	97.56
2903	22.525	3.4545	0.	105.08
2904	22.71	3.4545	0.	113.03
2905	22.894	3.4545	0.	121.43
2906	23.078	3.4545	0.	130.27
2907	23.263	3.4545	0.	139.57
2908	23.447	3.4545	0.	149.31
2909	23.631	3.4545	0.	159.54
2910	23.816	3.4545	0.	170.02
2911	11.651	3.2727	0.	601.72
2912	11.835	3.2727	0.	361.51
2913	12.02	3.2727	0.	138.12
2914	12.204	3.2727	0.	1.5504
2915	12.388	3.2727	0.	0.90319
2916	12.573	3.2727	0.	0.70927
2917	12.757	3.2727	0.	0.53625
2918	12.941	3.2727	0.	0.40099
2919	13.125	3.2727	0.	0.29697
2920	13.31	3.2727	0.	0.21898
2921	13.494	3.2727	0.	0.16129
2922	13.678	3.2727	0.	0.11888
2923	13.863	3.2727	0.	8.7821e-002
2924	14.047	3.2727	0.	6.5124e-002
2925	14.231	3.2727	0.	4.8557e-002
2926	14.416	3.2727	0.	3.6487e-002
2927	14.6	3.2727	0.	2.772e-002
2928	14.784	3.2727	0.	2.1383e-002
2929	14.969	3.2727	0.	1.6838e-002
2930	15.153	3.2727	0.	1.3615e-002
2931	15.337	3.2727	0.	1.1372e-002
2932	15.522	3.2727	0.	9.8525e-003
2933	15.706	3.2727	0.	8.8655e-003
2934	15.89	3.2727	0.	8.2853e-003
2935	16.075	3.2727	0.	7.9935e-003
2936	16.259	3.2727	0.	7.8999e-003
2937	16.443	3.2727	0.	7.9858e-003
2938	16.627	3.2727	0.	8.1967e-003
2939	16.812	3.2727	0.	8.4882e-003
2940	16.996	3.2727	0.	8.8492e-003
2941	17.18	3.2727	0.	9.2627e-003
2942	17.365	3.2727	0.	9.7185e-003
2943	17.549	3.2727	0.	1.021e-002
2944	17.733	3.2727	0.	1.0736e-002
2945	17.918	3.2727	0.	1.1296e-002
2946	18.102	3.2727	0.	1.1898e-002
2947	18.286	3.2727	0.	1.2589e-002
2948	18.471	3.2727	0.	1.3816e-002
2949	18.655	3.2727	0.	2.488
2950	18.839	3.2727	0.	6.369
2951	19.024	3.2727	0.	10.197
2952	19.208	3.2727	0.	13.998
2953	19.392	3.2727	0.	17.798
2954	19.576	3.2727	0.	21.622
2955	19.761	3.2727	0.	25.494
2956	19.945	3.2727	0.	29.441
2957	20.129	3.2727	0.	33.485
2958	20.314	3.2727	0.	37.654
2959	20.498	3.2727	0.	41.971
2960	20.682	3.2727	0.	46.463
2961	20.867	3.2727	0.	51.155
2962	21.051	3.2727	0.	56.072
2963	21.235	3.2727	0.	61.242
2964	21.42	3.2727	0.	66.688
2965	21.604	3.2727	0.	72.438
2966	21.788	3.2727	0.	78.515
2967	21.973	3.2727	0.	84.944
2968	22.157	3.2727	0.	91.746
2969	22.341	3.2727	0.	98.941
2970	22.525	3.2727	0.	106.55
2971	22.71	3.2727	0.	114.58
2972	22.894	3.2727	0.	123.04
2973	23.078	3.2727	0.	131.94
2974	23.263	3.2727	0.	141.29
2975	23.447	3.2727	0.	151.06
2976	23.631	3.2727	0.	161.32
2977	23.816	3.2727	0.	171.81
2978	11.651	3.0909	0.	587.73
2979	11.835	3.0909	0.	370.92
2980	12.02	3.0909	0.	155.95
2981	12.204	3.0909	0.	1.0752
2982	12.388	3.0909	0.	0.8981
2983	12.573	3.0909	0.	0.72996
2984	12.757	3.0909	0.	0.56109
2985	12.941	3.0909	0.	0.41728
2986	13.125	3.0909	0.	0.3056
2987	13.31	3.0909	0.	0.22244
2988	13.494	3.0909	0.	0.1617
2989	13.678	3.0909	0.	0.11771
2990	13.863	3.0909	0.	8.5958e-002
2991	14.047	3.0909	0.	6.306e-002
2992	14.231	3.0909	0.	4.6551e-002
2993	14.416	3.0909	0.	3.4658e-002
2994	14.6	3.0909	0.	2.6116e-002
2995	14.784	3.0909	0.	2.0005e-002
2996	14.969	3.0909	0.	1.5672e-002
2997	15.153	3.0909	0.	1.264e-002
2998	15.337	3.0909	0.	1.0561e-002
2999	15.522	3.0909	0.	9.1827e-003
3000	15.706	3.0909	0.	8.3163e-003
3001	15.89	3.0909	0.	7.8374e-003
3002	16.075	3.0909	0.	7.6295e-003
3003	16.259	3.0909	0.	7.6078e-003
3004	16.443	3.0909	0.	7.7525e-003
3005	16.627	3.0909	0.	8.0127e-003
3006	16.812	3.0909	0.	8.3435e-003
3007	16.996	3.0909	0.	8.7412e-003
3008	17.18	3.0909	0.	9.181e-003
3009	17.365	3.0909	0.	9.6576e-003
3010	17.549	3.0909	0.	1.0167e-002
3011	17.733	3.0909	0.	1.0701e-002
3012	17.918	3.0909	0.	1.1261e-002
3013	18.102	3.0909	0.	1.1848e-002
3014	18.286	3.0909	0.	1.2465e-002
3015	18.471	3.0909	0.	1.316e-002
3016	18.655	3.0909	0.	2.3678
3017	18.839	3.0909	0.	6.2864
3018	19.024	3.0909	0.	10.151
3019	19.208	3.0909	0.	13.987
3020	19.392	3.0909	0.	17.822
3021	19.576	3.0909	0.	21.681
3022	19.761	3.0909	0.	25.588
3023	19.945	3.0909	0.	29.571
3024	20.129	3.0909	0.	33.652
3025	20.314	3.0909	0.	37.858
3026	20.498	3.0909	0.	42.215
3027	20.682	3.0909	0.	46.747
3028	20.867	3.0909	0.	51.48
3029	21.051	3.0909	0.	56.441
3030	21.235	3.0909	0.	61.655
3031	21.42	3.0909	0.	67.148
3032	21.604	3.0909	0.	72.944
3033	21.788	3.0909	0.	79.068
3034	21.973	3.0909	0.	85.544
3035	22.157	3.0909	0.	92.392
3036	22.341	3.0909	0.	99.631
3037	22.525	3.0909	0.	107.28
3038	22.71	3.0909	0.	115.35
3039	22.894	3.0909	0.	123.84
3040	23.078	3.0909	0.	132.77
3041	23.263	3.0909	0.	142.15
3042	23.447	3.0909	0.	151.94
3043	23.631	3.0909	0.	162.2
3044	23.816	3.0909	0.	172.69
3045	11.651	2.9091	0.	587.73
3046	11.835	2.9091	0.	370.92
3047	12.02	2.9091	0.	155.95
3048	12.204	2.9091	0.	1.0752
3049	12.388	2.9091	0.	0.8981
3050	12.573	2.9091	0.	0.72996
3051	12.757	2.9091	0.	0.56109
3052	12.941	2.9091	0.	0.41727
3053	13.125	2.9091	0.	0.3056
3054	13.31	2.9091	0.	0.22244
3055	13.494	2.9091	0.	0.1617
3056	13.678	2.9091	0.	0.11771
3057	13.863	2.9091	0.	8.5958e-002
3058	14.047	2.9091	0.	6.3059e-002
3059	14.231	2.9091	0.	4.6551e-002
3060	14.416	2.9091	0.	3.4659e-002
3061	14.6	2.9091	0.	2.6115e-002
3062	14.784	2.9091	0.	2.0004e-002
3063	14.969	2.9091	0.	1.5673e-002
3064	15.153	2.9091	0.	1.2639e-002
3065	15.337	2.9091	0.	1.0561e-002
3066	15.522	2.9091	0.	9.1827e-003
3067	15.706	2.9091	0.	8.3172e-003
3068	15.89	2.9091	0.	7.8353e-003
3069	16.075	2.9091	0.	7.6292e-003
3070	16.259	2.9091	0.	7.6057e-003
3071	16.443	2.9091	0.	7.7523e-003
3072	16.627	2.9091	0.	8.0119e-003
3073	16.812	2.9091	0.	8.3448e-003
3074	16.996	2.9091	0.	8.7413e-003
3075	17.18	2.9091	0.	9.1799e-003
3076	17.365	2.9091	0.	9.6574e-003
3077	17.549	2.9091	0.	1.0166e-002
3078	17.733	2.9091	0.	1.0702e-002
3079	17.918	2.9091	0.	1.1259e-002
3080	18.102	2.9091	0.	1.1846e-002
3081	18.286	2.9091	0.	1.2466e-002
3082	18.471	2.9091	0.	1.3159e-002
3083	18.655	2.9091	0.	2.3678
3084	18.839	2.9091	0.	6.2864
3085	19.024	2.9091	0.	10.151
3086	19.208	2.9091	0.	13.987
3087	19.392	2.9091	0.	17.822
3088	19.576	2.9091	0.	21.681
3089	19.761	2.9091	0.	25.588
3090	19.945	2.9091	0.	29.571
3091	20.129	2.9091	0.	33.652
3092	20.314	2.9091	0.	37.858
3093	20.498	2.9091	0.	42.215
3094	20.682	2.9091	0.	46.747
3095	20.867	2.9091	0.	51.48
3096	21.051	2.9091	0.	56.441
3097	21.235	2.9091	0.	61.655
3098	21.42	2.9091	0.	67.148
3099	21.604	2.9091	0.	72.944
3100	21.788	2.9091	0.	79.068
3101	21.973	2.9091	0.	85.544
3102	22.157	2.9091	0.	92.392
3103	22.341	2.9091	0.	99.631
3104	22.525	2.9091	0.	107.28
3105	22.71	2.9091	0.	115.35
3106	22.894	2.9091	0.	123.84
3107	23.078	2.9091	0.	132.77
3108	23.263	2.9091	0.	142.15
3109	23.447	2.9091	0.	151.94
3110	23.631	2.9091	0.	162.2
3111	23.816	2.9091	0.	172.69
3112	11.651	2.7273	0.	601.72
3113	11.835	2.7273	0.	361.51
3114	12.02	2.7273	0.	138.12
3115	12.204	2.7273	0.	1.5504
3116	12.388	2.7273	0.	0.90319
3117	12.573	2.7273	0.	0.70926
3118	12.757	2.7273	0.	0.53625
3119	12.941	2.7273	0.	0.40099
3120	13.125	2.7273	0.	0.29697
3121	13.31	2.7273	0.	0.21898
3122	13.494	2.7273	0.	0.16129
3123	13.678	2.7273	0.	0.11887
3124	13.863	2.7273	0.	8.7821e-002
3125	14.047	2.7273	0.	6.5124e-002
3126	14.231	2.7273	0.	4.8557e-002
3127	14.416	2.7273	0.	3.6487e-002
3128	14.6	2.7273	0.	2.7721e-002
3129	14.784	2.7273	0.	2.1383e-002
3130	14.969	2.7273	0.	1.6838e-002
3131	15.153	2.7273	0.	1.3615e-002
3132	15.337	2.7273	0.	1.1371e-002
3133	15.522	2.7273	0.	9.8504e-003
3134	15.706	2.7273	0.	8.8653e-003
3135	15.89	2.7273	0.	8.2848e-003
3136	16.075	2.7273	0.	7.9933e-003
3137	16.259	2.7273	0.	7.8995e-003
3138	16.443	2.7273	0.	7.9864e-003
3139	16.627	2.7273	0.	8.1963e-003
3140	16.812	2.7273	0.	8.4881e-003
3141	16.996	2.7273	0.	8.8498e-003
3142	17.18	2.7273	0.	9.2633e-003
3143	17.365	2.7273	0.	9.719e-003
3144	17.549	2.7273	0.	1.021e-002
3145	17.733	2.7273	0.	1.0736e-002
3146	17.918	2.7273	0.	1.1296e-002
3147	18.102	2.7273	0.	1.1901e-002
3148	18.286	2.7273	0.	1.2588e-002
3149	18.471	2.7273	0.	1.3815e-002
3150	18.655	2.7273	0.	2.488
3151	18.839	2.7273	0.	6.369
3152	19.024	2.7273	0.	10.197
3153	19.208	2.7273	0.	13.998
3154	19.392	2.7273	0.	17.798
3155	19.576	2.7273	0.	21.622
3156	19.761	2.7273	0.	25.494
3157	19.945	2.7273	0.	29.441
3158	20.129	2.7273	0.	33.485
3159	20.314	2.7273	0.	37.654
3160	20.498	2.7273	0.	41.971
3161	20.682	2.7273	0.	46.463
3162	20.867	2.7273	0.	51.155
3163	21.051	2.7273	0.	56.072
3164	21.235	2.7273	0.	61.242
3165	21.42	2.7273	0.	66.688
3166	21.604	2.7273	0.	72.438
3167	21.788	2.7273	0.	78.515
3168	21.973	2.7273	0.	84.944
3169	22.157	2.7273	0.	91.746
3170	22.341	2.7273	0.	98.941
3171	22.525	2.7273	0.	106.55
3172	22.71	2.7273	0.	114.58
3173	22.894	2.7273	0.	123.04
3174	23.078	2.7273	0.	131.94
3175	23.263	2.7273	0.	141.29
3176	23.447	2.7273	0.	151.06
3177	23.631	2.7273	0.	161.32
3178	23.816	2.7273	0.	171.81
3179	11.651	2.5455	0.	624.6
3180	11.835	2.5455	0.	340.23
3181	12.02	2.5455	0.	103.12
3182	12.204	2.5455	0.	1.6142
3183	12.388	2.5455	0.	0.92865
3184	12.573	2.5455	0.	0.65251
3185	12.757	2.5455	0.	0.50333
3186	12.941	2.5455	0.	0.37968
3187	13.125	2.5455	0.	0.28745
3188	13.31	2.5455	0.	0.21669
3189	13.494	2.5455	0.	0.16309
3190	13.678	2.5455	0.	0.12264
3191	13.863	2.5455	0.	9.2294e-002
3192	14.047	2.5455	0.	6.9615e-002
3193	14.231	2.5455	0.	5.2723e-002
3194	14.416	2.5455	0.	4.0186e-002
3195	14.6	2.5455	0.	3.0917e-002
3196	14.784	2.5455	0.	2.4099e-002
3197	14.969	2.5455	0.	1.9118e-002
3198	15.153	2.5455	0.	1.5515e-002
3199	15.337	2.5455	0.	1.2944e-002
3200	15.522	2.5455	0.	1.1146e-002
3201	15.706	2.5455	0.	9.9268e-003
3202	15.89	2.5455	0.	9.1501e-003
3203	16.075	2.5455	0.	8.6944e-003
3204	16.259	2.5455	0.	8.4636e-003
3205	16.443	2.5455	0.	8.4357e-003
3206	16.627	2.5455	0.	8.5503e-003
3207	16.812	2.5455	0.	8.7628e-003
3208	16.996	2.5455	0.	9.0578e-003
3209	17.18	2.5455	0.	9.4194e-003
3210	17.365	2.5455	0.	9.8323e-003
3211	17.549	2.5455	0.	1.0295e-002
3212	17.733	2.5455	0.	1.0804e-002
3213	17.918	2.5455	0.	1.1368e-002
3214	18.102	2.5455	0.	1.2017e-002
3215	18.286	2.5455	0.	1.2873e-002
3216	18.471	2.5455	0.	1.5695e-002
3217	18.655	2.5455	0.	2.727
3218	18.839	2.5455	0.	6.5336
3219	19.024	2.5455	0.	10.29
3220	19.208	2.5455	0.	14.021
3221	19.392	2.5455	0.	17.751
3222	19.576	2.5455	0.	21.506
3223	19.761	2.5455	0.	25.308
3224	19.945	2.5455	0.	29.183
3225	20.129	2.5455	0.	33.155
3226	20.314	2.5455	0.	37.248
3227	20.498	2.5455	0.	41.488
3228	20.682	2.5455	0.	45.899
3229	20.867	2.5455	0.	50.508
3230	21.051	2.5455	0.	55.339
3231	21.235	2.5455	0.	60.419
3232	21.42	2.5455	0.	65.774
3233	21.604	2.5455	0.	71.43
3234	21.788	2.5455	0.	77.413
3235	21.973	2.5455	0.	83.747
3236	22.157	2.5455	0.	90.455
3237	22.341	2.5455	0.	97.56
3238	22.525	2.5455	0.	105.08
3239	22.71	2.5455	0.	113.03
3240	22.894	2.5455	0.	121.43
3241	23.078	2.5455	0.	130.27
3242	23.263	2.5455	0.	139.57
3243	23.447	2.5455	0.	149.31
3244	23.631	2.5455	0.	159.54
3245	23.816	2.5455	0.	170.02
3246	11.651	2.3636	0.	675.88
3247	11.835	2.3636	0.	289.8
3248	12.02	2.3636	0.	59.725
3249	12.204	2.3636	0.	0.94938
3250	12.388	2.3636	0.	0.90735
3251	12.573	2.3636	0.	0.65083
3252	12.757	2.3636	0.	0.48675
3253	12.941	2.3636	0.	0.37811
3254	13.125	2.3636	0.	0.29009
3255	13.31	2.3636	0.	0.22347
3256	13.494	2.3636	0.	0.1714
3257	13.678	2.3636	0.	0.13134
3258	13.863	2.3636	0.	0.10057
3259	14.047	2.3636	0.	7.7099e-002
3260	14.231	2.3636	0.	5.927e-002
3261	14.416	2.3636	0.	4.5798e-002
3262	14.6	2.3636	0.	3.5656e-002
3263	14.784	2.3636	0.	2.8063e-002
3264	14.969	2.3636	0.	2.2413e-002
3265	15.153	2.3636	0.	1.8239e-002
3266	15.337	2.3636	0.	1.5186e-002
3267	15.522	2.3636	0.	1.2985e-002
3268	15.706	2.3636	0.	1.1429e-002
3269	15.89	2.3636	0.	1.0371e-002
3270	16.075	2.3636	0.	9.6805e-003
3271	16.259	2.3636	0.	9.2545e-003
3272	16.443	2.3636	0.	9.0625e-003
3273	16.627	2.3636	0.	9.0433e-003
3274	16.812	2.3636	0.	9.1417e-003
3275	16.996	2.3636	0.	9.3461e-003
3276	17.18	2.3636	0.	9.6317e-003
3277	17.365	2.3636	0.	9.9885e-003
3278	17.549	2.3636	0.	1.0412e-002
3279	17.733	2.3636	0.	1.0903e-002
3280	17.918	2.3636	0.	1.1482e-002
3281	18.102	2.3636	0.	1.2218e-002
3282	18.286	2.3636	0.	1.3406e-002
3283	18.471	2.3636	0.	2.1754e-002
3284	18.655	2.3636	0.	3.0822
3285	18.839	2.3636	0.	6.7793
3286	19.024	2.3636	0.	10.43
3287	19.208	2.3636	0.	14.057
3288	19.392	2.3636	0.	17.684
3289	19.576	2.3636	0.	21.336
3290	19.761	2.3636	0.	25.034
3291	19.945	2.3636	0.	28.804
3292	20.129	2.3636	0.	32.667
3293	20.314	2.3636	0.	36.649
3294	20.498	2.3636	0.	40.773
3295	20.682	2.3636	0.	45.064
3296	20.867	2.3636	0.	49.548
3297	21.051	2.3636	0.	54.25
3298	21.235	2.3636	0.	59.196
3299	21.42	2.3636	0.	64.413
3300	21.604	2.3636	0.	69.928
3301	21.788	2.3636	0.	75.767
3302	21.973	2.3636	0.	81.958
3303	22.157	2.3636	0.	88.524
3304	22.341	2.3636	0.	95.492
3305	22.525	2.3636	0.	102.88
3306	22.71	2.3636	0.	110.71
3307	22.894	2.3636	0.	119.
3308	23.078	2.3636	0.	127.75
3309	23.263	2.3636	0.	136.98
3310	23.447	2.3636	0.	146.66
3311	23.631	2.3636	0.	156.86
3312	23.816	2.3636	0.	167.33
3313	11.651	2.1818	0.	658.1
3314	11.835	2.1818	0.	274.66
3315	12.02	2.1818	0.	50.59
3316	12.204	2.1818	0.	4.0533
3317	12.388	2.1818	0.	0.61582
3318	12.573	2.1818	0.	0.89426
3319	12.757	2.1818	0.	0.52975
3320	12.941	2.1818	0.	0.42778
3321	13.125	2.1818	0.	0.31994
3322	13.31	2.1818	0.	0.24795
3323	13.494	2.1818	0.	0.19084
3324	13.678	2.1818	0.	0.14743
3325	13.863	2.1818	0.	0.11388
3326	14.047	2.1818	0.	8.8121e-002
3327	14.231	2.1818	0.	6.8378e-002
3328	14.416	2.1818	0.	5.3299e-002
3329	14.6	2.1818	0.	4.1825e-002
3330	14.784	2.1818	0.	3.3127e-002
3331	14.969	2.1818	0.	2.6562e-002
3332	15.153	2.1818	0.	2.1633e-002
3333	15.337	2.1818	0.	1.7961e-002
3334	15.522	2.1818	0.	1.5247e-002
3335	15.706	2.1818	0.	1.3267e-002
3336	15.89	2.1818	0.	1.186e-002
3337	16.075	2.1818	0.	1.0879e-002
3338	16.259	2.1818	0.	1.0212e-002
3339	16.443	2.1818	0.	9.8197e-003
3340	16.627	2.1818	0.	9.6326e-003
3341	16.812	2.1818	0.	9.5948e-003
3342	16.996	2.1818	0.	9.686e-003
3343	17.18	2.1818	0.	9.8823e-003
3344	17.365	2.1818	0.	1.0171e-002
3345	17.549	2.1818	0.	1.055e-002
3346	17.733	2.1818	0.	1.1031e-002
3347	17.918	2.1818	0.	1.1654e-002
3348	18.102	2.1818	0.	1.2553e-002
3349	18.286	2.1818	0.	1.4428e-002
3350	18.471	2.1818	0.	8.0871e-002
3351	18.655	2.1818	0.	3.5505
3352	18.839	2.1818	0.	7.1048
3353	19.024	2.1818	0.	10.617
3354	19.208	2.1818	0.	14.108
3355	19.392	2.1818	0.	17.601
3356	19.576	2.1818	0.	21.118
3357	19.761	2.1818	0.	24.68
3358	19.945	2.1818	0.	28.31
3359	20.129	2.1818	0.	32.031
3360	20.314	2.1818	0.	35.866
3361	20.498	2.1818	0.	39.837
3362	20.682	2.1818	0.	43.97
3363	20.867	2.1818	0.	48.288
3364	21.051	2.1818	0.	52.819
3365	21.235	2.1818	0.	57.586
3366	21.42	2.1818	0.	62.619
3367	21.604	2.1818	0.	67.945
3368	21.788	2.1818	0.	73.591
3369	21.973	2.1818	0.	79.586
3370	22.157	2.1818	0.	85.959
3371	22.341	2.1818	0.	92.737
3372	22.525	2.1818	0.	99.946
3373	22.71	2.1818	0.	107.61
3374	22.894	2.1818	0.	115.74
3375	23.078	2.1818	0.	124.37
3376	23.263	2.1818	0.	133.49
3377	23.447	2.1818	0.	143.09
3378	23.631	2.1818	0.	153.24
3379	23.816	2.1818	0.	163.69
3380	11.651	2.	0.	1342.4
3381	11.835	2.	0.	443.83
3382	12.02	2.	0.	146.72
3383	12.204	2.	0.	15.603
3384	12.388	2.	0.	1.9641
3385	12.573	2.	0.	1.3519
3386	12.757	2.	0.	0.74486
3387	12.941	2.	0.	0.54771
3388	13.125	2.	0.	0.39307
3389	13.31	2.	0.	0.29685
3390	13.494	2.	0.	0.22532
3391	13.678	2.	0.	0.17284
3392	13.863	2.	0.	0.13314
3393	14.047	2.	0.	0.10303
3394	14.231	2.	0.	8.007e-002
3395	14.416	2.	0.	6.2563e-002
3396	14.6	2.	0.	4.922e-002
3397	14.784	2.	0.	3.906e-002
3398	14.969	2.	0.	3.1342e-002
3399	15.153	2.	0.	2.5497e-002
3400	15.337	2.	0.	2.1086e-002
3401	15.522	2.	0.	1.7775e-002
3402	15.706	2.	0.	1.5311e-002
3403	15.89	2.	0.	1.3504e-002
3404	16.075	2.	0.	1.2196e-002
3405	16.259	2.	0.	1.1257e-002
3406	16.443	2.	0.	1.0643e-002
3407	16.627	2.	0.	1.0268e-002
3408	16.812	2.	0.	1.0077e-002
3409	16.996	2.	0.	1.0044e-002
3410	17.18	2.	0.	1.0145e-002
3411	17.365	2.	0.	1.0361e-002
3412	17.549	2.	0.	1.0704e-002
3413	17.733	2.	0.	1.1193e-002
3414	17.918	2.	0.	1.1911e-002
3415	18.102	2.	0.	1.3137e-002
3416	18.286	2.	0.	1.6572e-002
3417	18.471	2.	0.	0.70427
3418	18.655	2.	0.	4.1278
3419	18.839	2.	0.	7.509
3420	19.024	2.	0.	10.853
3421	19.208	2.	0.	14.179
3422	19.392	2.	0.	17.507
3423	19.576	2.	0.	20.859
3424	19.761	2.	0.	24.254
3425	19.945	2.	0.	27.714
3426	20.129	2.	0.	31.26
3427	20.314	2.	0.	34.913
3428	20.498	2.	0.	38.697
3429	20.682	2.	0.	42.634
3430	20.867	2.	0.	46.748
3431	21.051	2.	0.	51.065
3432	21.235	2.	0.	55.61
3433	21.42	2.	0.	60.412
3434	21.604	2.	0.	65.499
3435	21.788	2.	0.	70.9
3436	21.973	2.	0.	76.647
3437	22.157	2.	0.	82.771
3438	22.341	2.	0.	89.304
3439	22.525	2.	0.	96.276
3440	22.71	2.	0.	103.72
3441	22.894	2.	0.	111.65
3442	23.078	2.	0.	120.1
3443	23.263	2.	0.	129.08
3444	23.447	2.	0.	138.57
3445	23.631	2.	0.	148.65
3446	23.816	2.	0.	159.08
3447	11.651	1.8182	0.	2084.4
3448	11.835	1.8182	0.	805.46
3449	12.02	1.8182	0.	305.72
3450	12.204	1.8182	0.	97.696
3451	12.388	1.8182	0.	10.148
3452	12.573	1.8182	0.	2.5308
3453	12.757	1.8182	0.	1.2294
3454	12.941	1.8182	0.	0.77193
3455	13.125	1.8182	0.	0.52354
3456	13.31	1.8182	0.	0.37681
3457	13.494	1.8182	0.	0.27816
3458	13.678	1.8182	0.	0.20918
3459	13.863	1.8182	0.	0.15904
3460	14.047	1.8182	0.	0.12198
3461	14.231	1.8182	0.	9.424e-002
3462	14.416	1.8182	0.	7.3347e-002
3463	14.6	1.8182	0.	5.7546e-002
3464	14.784	1.8182	0.	4.5569e-002
3465	14.969	1.8182	0.	3.6479e-002
3466	15.153	1.8182	0.	2.9579e-002
3467	15.337	1.8182	0.	2.4347e-002
3468	15.522	1.8182	0.	2.0389e-002
3469	15.706	1.8182	0.	1.7405e-002
3470	15.89	1.8182	0.	1.5178e-002
3471	16.075	1.8182	0.	1.3528e-002
3472	16.259	1.8182	0.	1.2305e-002
3473	16.443	1.8182	0.	1.1457e-002
3474	16.627	1.8182	0.	1.0891e-002
3475	16.812	1.8182	0.	1.0542e-002
3476	16.996	1.8182	0.	1.0384e-002
3477	17.18	1.8182	0.	1.0385e-002
3478	17.365	1.8182	0.	1.0543e-002
3479	17.549	1.8182	0.	1.0867e-002
3480	17.733	1.8182	0.	1.1408e-002
3481	17.918	1.8182	0.	1.2327e-002
3482	18.102	1.8182	0.	1.4233e-002
3483	18.286	1.8182	0.	2.2377e-002
3484	18.471	1.8182	0.	1.5846
3485	18.655	1.8182	0.	4.8101
3486	18.839	1.8182	0.	7.991
3487	19.024	1.8182	0.	11.139
3488	19.208	1.8182	0.	14.273
3489	19.392	1.8182	0.	17.41
3490	19.576	1.8182	0.	20.569
3491	19.761	1.8182	0.	23.769
3492	19.945	1.8182	0.	27.029
3493	20.129	1.8182	0.	30.37
3494	20.314	1.8182	0.	33.81
3495	20.498	1.8182	0.	37.372
3496	20.682	1.8182	0.	41.078
3497	20.867	1.8182	0.	44.95
3498	21.051	1.8182	0.	49.013
3499	21.235	1.8182	0.	53.294
3500	21.42	1.8182	0.	57.818
3501	21.604	1.8182	0.	62.617
3502	21.788	1.8182	0.	67.72
3503	21.973	1.8182	0.	73.162
3504	22.157	1.8182	0.	78.977
3505	22.341	1.8182	0.	85.203
3506	22.525	1.8182	0.	91.875
3507	22.71	1.8182	0.	99.03
3508	22.894	1.8182	0.	106.7
3509	23.078	1.8182	0.	114.92
3510	23.263	1.8182	0.	123.71
3511	23.447	1.8182	0.	133.06
3512	23.631	1.8182	0.	143.04
3513	23.816	1.8182	0.	153.44
3514	11.651	1.6364	0.	1897.7
3515	11.835	1.6364	0.	892.84
3516	12.02	1.6364	0.	431.9
3517	12.204	1.6364	0.	191.04
3518	12.388	1.6364	0.	58.016
3519	12.573	1.6364	0.	7.6076
3520	12.757	1.6364	0.	2.29
3521	12.941	1.6364	0.	1.1933
3522	13.125	1.6364	0.	0.73936
3523	13.31	1.6364	0.	0.50085
3524	13.494	1.6364	0.	0.35508
3525	13.678	1.6364	0.	0.25912
3526	13.863	1.6364	0.	0.19266
3527	14.047	1.6364	0.	0.14527
3528	14.231	1.6364	0.	0.11079
3529	14.416	1.6364	0.	8.5371e-002
3530	14.6	1.6364	0.	6.6465e-002
3531	14.784	1.6364	0.	5.2307e-002
3532	14.969	1.6364	0.	4.1651e-002
3533	15.153	1.6364	0.	3.3604e-002
3534	15.337	1.6364	0.	2.7508e-002
3535	15.522	1.6364	0.	2.2888e-002
3536	15.706	1.6364	0.	1.9384e-002
3537	15.89	1.6364	0.	1.6745e-002
3538	16.075	1.6364	0.	1.4759e-002
3539	16.259	1.6364	0.	1.3266e-002
3540	16.443	1.6364	0.	1.2189e-002
3541	16.627	1.6364	0.	1.1439e-002
3542	16.812	1.6364	0.	1.0941e-002
3543	16.996	1.6364	0.	1.0664e-002
3544	17.18	1.6364	0.	1.0585e-002
3545	17.365	1.6364	0.	1.0702e-002
3546	17.549	1.6364	0.	1.1052e-002
3547	17.733	1.6364	0.	1.1731e-002
3548	17.918	1.6364	0.	1.3084e-002
3549	18.102	1.6364	0.	1.6647e-002
3550	18.286	1.6364	0.	5.8707e-002
3551	18.471	1.6364	0.	2.5967
3552	18.655	1.6364	0.	5.5938
3553	18.839	1.6364	0.	8.5506
3554	19.024	1.6364	0.	11.48
3555	19.208	1.6364	0.	14.397
3556	19.392	1.6364	0.	17.318
3557	19.576	1.6364	0.	20.26
3558	19.761	1.6364	0.	23.239
3559	19.945	1.6364	0.	26.273
3560	20.129	1.6364	0.	29.38
3561	20.314	1.6364	0.	32.579
3562	20.498	1.6364	0.	35.889
3563	20.682	1.6364	0.	39.33
3564	20.867	1.6364	0.	42.925
3565	21.051	1.6364	0.	46.697
3566	21.235	1.6364	0.	50.67
3567	21.42	1.6364	0.	54.872
3568	21.604	1.6364	0.	59.333
3569	21.788	1.6364	0.	64.085
3570	21.973	1.6364	0.	69.162
3571	22.157	1.6364	0.	74.605
3572	22.341	1.6364	0.	80.454
3573	22.525	1.6364	0.	86.754
3574	22.71	1.6364	0.	93.551
3575	22.894	1.6364	0.	100.89
3576	23.078	1.6364	0.	108.81
3577	23.263	1.6364	0.	117.35
3578	23.447	1.6364	0.	126.51
3579	23.631	1.6364	0.	136.36
3580	23.816	1.6364	0.	146.71
3581	11.651	1.4545	0.	1444.4
3582	11.835	1.4545	0.	822.25
3583	12.02	1.4545	0.	463.92
3584	12.204	1.4545	0.	242.52
3585	12.388	1.4545	0.	110.28
3586	12.573	1.4545	0.	34.704
3587	12.757	1.4545	0.	6.2117
3588	12.941	1.4545	0.	2.1738
3589	13.125	1.4545	0.	1.1474
3590	13.31	1.4545	0.	0.7092
3591	13.494	1.4545	0.	0.47324
3592	13.678	1.4545	0.	0.33022
3593	13.863	1.4545	0.	0.23723
3594	14.047	1.4545	0.	0.17409
3595	14.231	1.4545	0.	0.12996
3596	14.416	1.4545	0.	9.8468e-002
3597	14.6	1.4545	0.	7.5654e-002
3598	14.784	1.4545	0.	5.8923e-002
3599	14.969	1.4545	0.	4.6532e-002
3600	15.153	1.4545	0.	3.7277e-002
3601	15.337	1.4545	0.	3.0324e-002
3602	15.522	1.4545	0.	2.507e-002
3603	15.706	1.4545	0.	2.1087e-002
3604	15.89	1.4545	0.	1.807e-002
3605	16.075	1.4545	0.	1.5784e-002
3606	16.259	1.4545	0.	1.4045e-002
3607	16.443	1.4545	0.	1.2772e-002
3608	16.627	1.4545	0.	1.1856e-002
3609	16.812	1.4545	0.	1.1227e-002
3610	16.996	1.4545	0.	1.0856e-002
3611	17.18	1.4545	0.	1.0722e-002
3612	17.365	1.4545	0.	1.0843e-002
3613	17.549	1.4545	0.	1.1298e-002
3614	17.733	1.4545	0.	1.231e-002
3615	17.918	1.4545	0.	1.4707e-002
3616	18.102	1.4545	0.	2.4158e-002
3617	18.286	1.4545	0.	0.95261
3618	18.471	1.4545	0.	3.7286
3619	18.655	1.4545	0.	6.4759
3620	18.839	1.4545	0.	9.1885
3621	19.024	1.4545	0.	11.878
3622	19.208	1.4545	0.	14.558
3623	19.392	1.4545	0.	17.242
3624	19.576	1.4545	0.	19.945
3625	19.761	1.4545	0.	22.681
3626	19.945	1.4545	0.	25.466
3627	20.129	1.4545	0.	28.315
3628	20.314	1.4545	0.	31.246
3629	20.498	1.4545	0.	34.276
3630	20.682	1.4545	0.	37.423
3631	20.867	1.4545	0.	40.709
3632	21.051	1.4545	0.	44.153
3633	21.235	1.4545	0.	47.781
3634	21.42	1.4545	0.	51.617
3635	21.604	1.4545	0.	55.692
3636	21.788	1.4545	0.	60.038
3637	21.973	1.4545	0.	64.692
3638	22.157	1.4545	0.	69.694
3639	22.341	1.4545	0.	75.092
3640	22.525	1.4545	0.	80.938
3641	22.71	1.4545	0.	87.287
3642	22.894	1.4545	0.	94.2
3643	23.078	1.4545	0.	101.73
3644	23.263	1.4545	0.	109.94
3645	23.447	1.4545	0.	118.84
3646	23.631	1.4545	0.	128.52
3647	23.816	1.4545	0.	138.81
3648	11.651	1.2727	0.	1125.6
3649	11.835	1.2727	0.	688.85
3650	12.02	1.2727	0.	424.
3651	12.204	1.2727	0.	249.43
3652	12.388	1.2727	0.	137.39
3653	12.573	1.2727	0.	67.545
3654	12.757	1.2727	0.	25.63
3655	12.941	1.2727	0.	6.5702
3656	13.125	1.2727	0.	2.3117
3657	13.31	1.2727	0.	1.1703
3658	13.494	1.2727	0.	0.69459
3659	13.678	1.2727	0.	0.44741
3660	13.863	1.2727	0.	0.30299
3661	14.047	1.2727	0.	0.21251
3662	14.231	1.2727	0.	0.15315
3663	14.416	1.2727	0.	0.11293
3664	14.6	1.2727	0.	8.4961e-002
3665	14.784	1.2727	0.	6.5121e-002
3666	14.969	1.2727	0.	5.0803e-002
3667	15.153	1.2727	0.	4.0324e-002
3668	15.337	1.2727	0.	3.2553e-002
3669	15.522	1.2727	0.	2.6737e-002
3670	15.706	1.2727	0.	2.2346e-002
3671	15.89	1.2727	0.	1.9024e-002
3672	16.075	1.2727	0.	1.6495e-002
3673	16.259	1.2727	0.	1.4561e-002
3674	16.443	1.2727	0.	1.3124e-002
3675	16.627	1.2727	0.	1.2081e-002
3676	16.812	1.2727	0.	1.1354e-002
3677	16.996	1.2727	0.	1.0923e-002
3678	17.18	1.2727	0.	1.0785e-002
3679	17.365	1.2727	0.	1.0998e-002
3680	17.549	1.2727	0.	1.1742e-002
3681	17.733	1.2727	0.	1.3604e-002
3682	17.918	1.2727	0.	1.9461e-002
3683	18.102	1.2727	0.	0.13524
3684	18.286	1.2727	0.	2.4571
3685	18.471	1.2727	0.	4.9734
3686	18.655	1.2727	0.	7.4545
3687	18.839	1.2727	0.	9.907
3688	19.024	1.2727	0.	12.341
3689	19.208	1.2727	0.	14.767
3690	19.392	1.2727	0.	17.196
3691	19.576	1.2727	0.	19.642
3692	19.761	1.2727	0.	22.116
3693	19.945	1.2727	0.	24.631
3694	20.129	1.2727	0.	27.202
3695	20.314	1.2727	0.	29.843
3696	20.498	1.2727	0.	32.569
3697	20.682	1.2727	0.	35.397
3698	20.867	1.2727	0.	38.344
3699	21.051	1.2727	0.	41.43
3700	21.235	1.2727	0.	44.677
3701	21.42	1.2727	0.	48.109
3702	21.604	1.2727	0.	51.753
3703	21.788	1.2727	0.	55.641
3704	21.973	1.2727	0.	59.81
3705	22.157	1.2727	0.	64.302
3706	22.341	1.2727	0.	69.169
3707	22.525	1.2727	0.	74.469
3708	22.71	1.2727	0.	80.268
3709	22.894	1.2727	0.	86.644
3710	23.078	1.2727	0.	93.674
3711	23.263	1.2727	0.	101.44
3712	23.447	1.2727	0.	109.99
3713	23.631	1.2727	0.	119.43
3714	23.816	1.2727	0.	129.62
3715	11.651	1.0909	0.	862.32
3716	11.835	1.0909	0.	540.13
3717	12.02	1.0909	0.	352.12
3718	12.204	1.0909	0.	225.41
3719	12.388	1.0909	0.	141.38
3720	12.573	1.0909	0.	86.334
3721	12.757	1.0909	0.	49.931
3722	12.941	1.0909	0.	25.599
3723	13.125	1.0909	0.	10.141
3724	13.31	1.0909	0.	3.2891
3725	13.494	1.0909	0.	1.371
3726	13.678	1.0909	0.	0.71936
3727	13.863	1.0909	0.	0.42749
3728	14.047	1.0909	0.	0.27401
3729	14.231	1.0909	0.	0.18513
3730	14.416	1.0909	0.	0.13022
3731	14.6	1.0909	0.	9.4664e-002
3732	14.784	1.0909	0.	7.0784e-002
3733	14.969	1.0909	0.	5.4261e-002
3734	15.153	1.0909	0.	4.2536e-002
3735	15.337	1.0909	0.	3.4041e-002
3736	15.522	1.0909	0.	2.7775e-002
3737	15.706	1.0909	0.	2.3087e-002
3738	15.89	1.0909	0.	1.9551e-002
3739	16.075	1.0909	0.	1.6856e-002
3740	16.259	1.0909	0.	1.4785e-002
3741	16.443	1.0909	0.	1.3236e-002
3742	16.627	1.0909	0.	1.2104e-002
3743	16.812	1.0909	0.	1.132e-002
3744	16.996	1.0909	0.	1.0881e-002
3745	17.18	1.0909	0.	1.0828e-002
3746	17.365	1.0909	0.	1.1323e-002
3747	17.549	1.0909	0.	1.2893e-002
3748	17.733	1.0909	0.	1.7852e-002
3749	17.918	1.0909	0.	6.5076e-002
3750	18.102	1.0909	0.	1.8303
3751	18.286	1.0909	0.	4.0935
3752	18.471	1.0909	0.	6.3263
3753	18.655	1.0909	0.	8.5296
3754	18.839	1.0909	0.	10.71
3755	19.024	1.0909	0.	12.875
3756	19.208	1.0909	0.	15.033
3757	19.392	1.0909	0.	17.195
3758	19.576	1.0909	0.	19.369
3759	19.761	1.0909	0.	21.565
3760	19.945	1.0909	0.	23.796
3761	20.129	1.0909	0.	26.072
3762	20.314	1.0909	0.	28.405
3763	20.498	1.0909	0.	30.808
3764	20.682	1.0909	0.	33.295
3765	20.867	1.0909	0.	35.881
3766	21.051	1.0909	0.	38.583
3767	21.235	1.0909	0.	41.42
3768	21.42	1.0909	0.	44.412
3769	21.604	1.0909	0.	47.585
3770	21.788	1.0909	0.	50.969
3771	21.973	1.0909	0.	54.597
3772	22.157	1.0909	0.	58.511
3773	22.341	1.0909	0.	62.764
3774	22.525	1.0909	0.	67.418
3775	22.71	1.0909	0.	72.55
3776	22.894	1.0909	0.	78.252
3777	23.078	1.0909	0.	84.629
3778	23.263	1.0909	0.	91.8
3779	23.447	1.0909	0.	99.858
3780	23.631	1.0909	0.	108.94
3781	23.816	1.0909	0.	118.98
3782	11.651	0.90909	0.	645.05
3783	11.835	0.90909	0.	400.45
3784	12.02	0.90909	0.	269.39
3785	12.204	0.90909	0.	185.54
3786	12.388	0.90909	0.	130.11
3787	12.573	0.90909	0.	92.343
3788	12.757	0.90909	0.	65.337
3789	12.941	0.90909	0.	45.099
3790	13.125	0.90909	0.	29.371
3791	13.31	0.90909	0.	16.96
3792	13.494	0.90909	0.	7.5627
3793	13.678	0.90909	0.	2.3468
3794	13.863	0.90909	0.	0.8585
3795	14.047	0.90909	0.	0.42271
3796	14.231	0.90909	0.	0.24485
3797	14.416	0.90909	0.	0.15626
3798	14.6	0.90909	0.	0.10656
3799	14.784	0.90909	0.	7.6352e-002
3800	14.969	0.90909	0.	5.6894e-002
3801	15.153	0.90909	0.	4.3777e-002
3802	15.337	0.90909	0.	3.4606e-002
3803	15.522	0.90909	0.	2.8003e-002
3804	15.706	0.90909	0.	2.3132e-002
3805	15.89	0.90909	0.	1.9478e-002
3806	16.075	0.90909	0.	1.6698e-002
3807	16.259	0.90909	0.	1.4555e-002
3808	16.443	0.90909	0.	1.2947e-002
3809	16.627	0.90909	0.	1.1777e-002
3810	16.812	0.90909	0.	1.0996e-002
3811	16.996	0.90909	0.	1.0655e-002
3812	17.18	0.90909	0.	1.0923e-002
3813	17.365	0.90909	0.	1.2398e-002
3814	17.549	0.90909	0.	1.7988e-002
3815	17.733	0.90909	0.	0.10969
3816	17.918	0.90909	0.	1.8834
3817	18.102	0.90909	0.	3.8764
3818	18.286	0.90909	0.	5.8439
3819	18.471	0.90909	0.	7.7848
3820	18.655	0.90909	0.	9.7028
3821	18.839	0.90909	0.	11.603
3822	19.024	0.90909	0.	13.49
3823	19.208	0.90909	0.	15.372
3824	19.392	0.90909	0.	17.255
3825	19.576	0.90909	0.	19.147
3826	19.761	0.90909	0.	21.056
3827	19.945	0.90909	0.	22.99
3828	20.129	0.90909	0.	24.958
3829	20.314	0.90909	0.	26.971
3830	20.498	0.90909	0.	29.037
3831	20.682	0.90909	0.	31.168
3832	20.867	0.90909	0.	33.376
3833	21.051	0.90909	0.	35.675
3834	21.235	0.90909	0.	38.079
3835	21.42	0.90909	0.	40.607
3836	21.604	0.90909	0.	43.278
3837	21.788	0.90909	0.	46.117
3838	21.973	0.90909	0.	49.156
3839	22.157	0.90909	0.	52.431
3840	22.341	0.90909	0.	55.992
3841	22.525	0.90909	0.	59.901
3842	22.71	0.90909	0.	64.237
3843	22.894	0.90909	0.	69.106
3844	23.078	0.90909	0.	74.639
3845	23.263	0.90909	0.	81.
3846	23.447	0.90909	0.	88.352
3847	23.631	0.90909	0.	96.914
3848	23.816	0.90909	0.	106.7
3849	11.651	0.72727	0.	459.75
3850	11.835	0.72727	0.	274.42
3851	12.02	0.72727	0.	189.52
3852	12.204	0.72727	0.	141.84
3853	12.388	0.72727	0.	111.49
3854	12.573	0.72727	0.	89.599
3855	12.757	0.72727	0.	71.986
3856	12.941	0.72727	0.	56.899
3857	13.125	0.72727	0.	43.642
3858	13.31	0.72727	0.	31.969
3859	13.494	0.72727	0.	21.805
3860	13.678	0.72727	0.	13.143
3861	13.863	0.72727	0.	6.0946
3862	14.047	0.72727	0.	1.6188
3863	14.231	0.72727	0.	0.47167
3864	14.416	0.72727	0.	0.22025
3865	14.6	0.72727	0.	0.12829
3866	14.784	0.72727	0.	8.4272e-002
3867	14.969	0.72727	0.	5.9812e-002
3868	15.153	0.72727	0.	4.4834e-002
3869	15.337	0.72727	0.	3.4996e-002
3870	15.522	0.72727	0.	2.8174e-002
3871	15.706	0.72727	0.	2.3236e-002
3872	15.89	0.72727	0.	1.9551e-002
3873	16.075	0.72727	0.	1.673e-002
3874	16.259	0.72727	0.	1.4525e-002
3875	16.443	0.72727	0.	1.2844e-002
3876	16.627	0.72727	0.	1.162e-002
3877	16.812	0.72727	0.	1.0875e-002
3878	16.996	0.72727	0.	1.0861e-002
3879	17.18	0.72727	0.	1.2617e-002
3880	17.365	0.72727	0.	2.5879e-002
3881	17.549	0.72727	0.	0.93302
3882	17.733	0.72727	0.	2.6464
3883	17.918	0.72727	0.	4.3513
3884	18.102	0.72727	0.	6.0371
3885	18.286	0.72727	0.	7.7028
3886	18.471	0.72727	0.	9.3492
3887	18.655	0.72727	0.	10.978
3888	18.839	0.72727	0.	12.594
3889	19.024	0.72727	0.	14.199
3890	19.208	0.72727	0.	15.798
3891	19.392	0.72727	0.	17.397
3892	19.576	0.72727	0.	19.001
3893	19.761	0.72727	0.	20.615
3894	19.945	0.72727	0.	22.246
3895	20.129	0.72727	0.	23.9
3896	20.314	0.72727	0.	25.584
3897	20.498	0.72727	0.	27.306
3898	20.682	0.72727	0.	29.073
3899	20.867	0.72727	0.	30.894
3900	21.051	0.72727	0.	32.778
3901	21.235	0.72727	0.	34.737
3902	21.42	0.72727	0.	36.784
3903	21.604	0.72727	0.	38.933
3904	21.788	0.72727	0.	41.203
3905	21.973	0.72727	0.	43.618
3906	22.157	0.72727	0.	46.207
3907	22.341	0.72727	0.	49.012
3908	22.525	0.72727	0.	52.086
3909	22.71	0.72727	0.	55.503
3910	22.894	0.72727	0.	59.368
3911	23.078	0.72727	0.	63.827
3912	23.263	0.72727	0.	69.088
3913	23.447	0.72727	0.	75.402
3914	23.631	0.72727	0.	83.133
3915	23.816	0.72727	0.	92.473
3916	11.651	0.54545	0.	300.01
3917	11.835	0.54545	0.	167.01
3918	12.02	0.54545	0.	122.01
3919	12.204	0.54545	0.	103.06
3920	12.388	0.54545	0.	91.55
3921	12.573	0.54545	0.	81.521
3922	12.757	0.54545	0.	71.225
3923	12.941	0.54545	0.	60.579
3924	13.125	0.54545	0.	49.97
3925	13.31	0.54545	0.	39.838
3926	13.494	0.54545	0.	30.518
3927	13.678	0.54545	0.	22.224
3928	13.863	0.54545	0.	15.06
3929	14.047	0.54545	0.	9.0555
3930	14.231	0.54545	0.	4.2301
3931	14.416	0.54545	0.	1.0085
3932	14.6	0.54545	0.	0.24047
3933	14.784	0.54545	0.	0.11261
3934	14.969	0.54545	0.	6.8562e-002
3935	15.153	0.54545	0.	4.7355e-002
3936	15.337	0.54545	0.	3.5189e-002
3937	15.522	0.54545	0.	2.739e-002
3938	15.706	0.54545	0.	2.1988e-002
3939	15.89	0.54545	0.	1.8036e-002
3940	16.075	0.54545	0.	1.5014e-002
3941	16.259	0.54545	0.	1.2629e-002
3942	16.443	0.54545	0.	1.0782e-002
3943	16.627	0.54545	0.	9.454e-003
3944	16.812	0.54545	0.	9.1291e-003
3945	16.996	0.54545	0.	4.2393e-002
3946	17.18	0.54545	0.	1.3379
3947	17.365	0.54545	0.	2.736
3948	17.549	0.54545	0.	4.1386
3949	17.733	0.54545	0.	5.5379
3950	17.918	0.54545	0.	6.9288
3951	18.102	0.54545	0.	8.3083
3952	18.286	0.54545	0.	9.6748
3953	18.471	0.54545	0.	11.028
3954	18.655	0.54545	0.	12.369
3955	18.839	0.54545	0.	13.699
3956	19.024	0.54545	0.	15.021
3957	19.208	0.54545	0.	16.337
3958	19.392	0.54545	0.	17.649
3959	19.576	0.54545	0.	18.963
3960	19.761	0.54545	0.	20.281
3961	19.945	0.54545	0.	21.606
3962	20.129	0.54545	0.	22.945
3963	20.314	0.54545	0.	24.299
3964	20.498	0.54545	0.	25.675
3965	20.682	0.54545	0.	27.077
3966	20.867	0.54545	0.	28.51
3967	21.051	0.54545	0.	29.979
3968	21.235	0.54545	0.	31.491
3969	21.42	0.54545	0.	33.054
3970	21.604	0.54545	0.	34.676
3971	21.788	0.54545	0.	36.369
3972	21.973	0.54545	0.	38.147
3973	22.157	0.54545	0.	40.029
3974	22.341	0.54545	0.	42.041
3975	22.525	0.54545	0.	44.221
3976	22.71	0.54545	0.	46.623
3977	22.894	0.54545	0.	49.333
3978	23.078	0.54545	0.	52.48
3979	23.263	0.54545	0.	56.281
3980	23.447	0.54545	0.	61.063
3981	23.631	0.54545	0.	67.403
3982	23.816	0.54545	0.	75.879
3983	11.651	0.36364	0.	166.31
3984	11.835	0.36364	0.	88.555
3985	12.02	0.36364	0.	76.042
3986	12.204	0.36364	0.	74.994
3987	12.388	0.36364	0.	73.599
3988	12.573	0.36364	0.	69.715
3989	12.757	0.36364	0.	63.525
3990	12.941	0.36364	0.	55.877
3991	13.125	0.36364	0.	47.617
3992	13.31	0.36364	0.	39.408
3993	13.494	0.36364	0.	31.698
3994	13.678	0.36364	0.	24.754
3995	13.863	0.36364	0.	18.705
3996	14.047	0.36364	0.	13.586
3997	14.231	0.36364	0.	9.3714
3998	14.416	0.36364	0.	6.0029
3999	14.6	0.36364	0.	3.4057
4000	14.784	0.36364	0.	1.519
4001	14.969	0.36364	0.	0.42082
4002	15.153	0.36364	0.	0.14233
4003	15.337	0.36364	0.	8.4772e-002
4004	15.522	0.36364	0.	6.4284e-002
4005	15.706	0.36364	0.	5.5303e-002
4006	15.89	0.36364	0.	5.3668e-002
4007	16.075	0.36364	0.	7.5612e-002
4008	16.259	0.36364	0.	0.50211
4009	16.443	0.36364	0.	1.3311
4010	16.627	0.36364	0.	2.2584
4011	16.812	0.36364	0.	3.2492
4012	16.996	0.36364	0.	4.2838
4013	17.18	0.36364	0.	5.3473
4014	17.365	0.36364	0.	6.4282
4015	17.549	0.36364	0.	7.5179
4016	17.733	0.36364	0.	8.6098
4017	17.918	0.36364	0.	9.6991
4018	18.102	0.36364	0.	10.783
4019	18.286	0.36364	0.	11.859
4020	18.471	0.36364	0.	12.926
4021	18.655	0.36364	0.	13.985
4022	18.839	0.36364	0.	15.035
4023	19.024	0.36364	0.	16.077
4024	19.208	0.36364	0.	17.112
4025	19.392	0.36364	0.	18.143
4026	19.576	0.36364	0.	19.17
4027	19.761	0.36364	0.	20.196
4028	19.945	0.36364	0.	21.221
4029	20.129	0.36364	0.	22.249
4030	20.314	0.36364	0.	23.28
4031	20.498	0.36364	0.	24.316
4032	20.682	0.36364	0.	25.36
4033	20.867	0.36364	0.	26.413
4034	21.051	0.36364	0.	27.477
4035	21.235	0.36364	0.	28.553
4036	21.42	0.36364	0.	29.643
4037	21.604	0.36364	0.	30.751
4038	21.788	0.36364	0.	31.879
4039	21.973	0.36364	0.	33.031
4040	22.157	0.36364	0.	34.213
4041	22.341	0.36364	0.	35.434
4042	22.525	0.36364	0.	36.709
4043	22.71	0.36364	0.	38.061
4044	22.894	0.36364	0.	39.53
4045	23.078	0.36364	0.	41.188
4046	23.263	0.36364	0.	43.179
4047	23.447	0.36364	0.	45.778
4048	23.631	0.36364	0.	49.681
4049	23.816	0.36364	0.	56.208
4050	11.651	0.18182	0.	83.898
4051	11.835	0.18182	0.	62.286
4052	12.02	0.18182	0.	63.059
4053	12.204	0.18182	0.	63.613
4054	12.388	0.18182	0.	61.103
4055	12.573	0.18182	0.	56.379
4056	12.757	0.18182	0.	50.344
4057	12.941	0.18182	0.	43.8
4058	13.125	0.18182	0.	37.317
4059	13.31	0.18182	0.	31.258
4060	13.494	0.18182	0.	25.826
4061	13.678	0.18182	0.	21.108
4062	13.863	0.18182	0.	17.12
4063	14.047	0.18182	0.	13.83
4064	14.231	0.18182	0.	11.184
4065	14.416	0.18182	0.	9.1172
4066	14.6	0.18182	0.	7.559
4067	14.784	0.18182	0.	6.4419
4068	14.969	0.18182	0.	5.7018
4069	15.153	0.18182	0.	5.2801
4070	15.337	0.18182	0.	5.1248
4071	15.522	0.18182	0.	5.1902
4072	15.706	0.18182	0.	5.4373
4073	15.89	0.18182	0.	5.8324
4074	16.075	0.18182	0.	6.3468
4075	16.259	0.18182	0.	6.956
4076	16.443	0.18182	0.	7.6394
4077	16.627	0.18182	0.	8.3797
4078	16.812	0.18182	0.	9.1624
4079	16.996	0.18182	0.	9.976
4080	17.18	0.18182	0.	10.811
4081	17.365	0.18182	0.	11.659
4082	17.549	0.18182	0.	12.515
4083	17.733	0.18182	0.	13.374
4084	17.918	0.18182	0.	14.232
4085	18.102	0.18182	0.	15.087
4086	18.286	0.18182	0.	15.937
4087	18.471	0.18182	0.	16.781
4088	18.655	0.18182	0.	17.617
4089	18.839	0.18182	0.	18.445
4090	19.024	0.18182	0.	19.266
4091	19.208	0.18182	0.	20.078
4092	19.392	0.18182	0.	20.881
4093	19.576	0.18182	0.	21.676
4094	19.761	0.18182	0.	22.462
4095	19.945	0.18182	0.	23.239
4096	20.129	0.18182	0.	24.006
4097	20.314	0.18182	0.	24.764
4098	20.498	0.18182	0.	25.51
4099	20.682	0.18182	0.	26.243
4100	20.867	0.18182	0.	26.962
4101	21.051	0.18182	0.	27.664
4102	21.235	0.18182	0.	28.347
4103	21.42	0.18182	0.	29.006
4104	21.604	0.18182	0.	29.638
4105	21.788	0.18182	0.	30.236
4106	21.973	0.18182	0.	30.795
4107	22.157	0.18182	0.	31.306
4108	22.341	0.18182	0.	31.76
4109	22.525	0.18182	0.	32.144
4110	22.71	0.18182	0.	32.444
4111	22.894	0.18182	0.	32.643
4112	23.078	0.18182	0.	32.721
4113	23.263	0.18182	0.	32.664
4114	23.447	0.18182	0.	32.476
4115	23.631	0.18182	0.	32.308
4116	23.816	0.18182	0.	33.435
4117	23.816	0.18182	0.1	37.069
4118	23.631	0.18182	0.1	72.887
4119	23.447	0.18182	0.1	110.77
4120	23.263	0.18182	0.1	149.29
4121	23.078	0.18182	0.1	188.19
4122	22.894	0.18182	0.1	227.36
4123	22.71	0.18182	0.1	266.74
4124	22.525	0.18182	0.1	306.28
4125	22.341	0.18182	0.1	345.96
4126	22.157	0.18182	0.1	385.79
4127	21.973	0.18182	0.1	425.74
4128	21.788	0.18182	0.1	465.81
4129	21.604	0.18182	0.1	506.01
4130	21.42	0.18182	0.1	546.34
4131	21.235	0.18182	0.1	586.79
4132	21.051	0.18182	0.1	627.38
4133	20.867	0.18182	0.1	668.1
4134	20.682	0.18182	0.1	708.96
4135	20.498	0.18182	0.1	749.97
4136	20.314	0.18182	0.1	791.13
4137	20.129	0.18182	0.1	832.44
4138	19.945	0.18182	0.1	873.91
4139	19.761	0.18182	0.1	915.55
4140	19.576	0.18182	0.1	957.35
4141	19.392	0.18182	0.1	999.33
4142	19.208	0.18182	0.1	1041.5
4143	19.024	0.18182	0.1	1083.8
4144	18.839	0.18182	0.1	1126.3
4145	18.655	0.18182	0.1	1169.
4146	18.471	0.18182	0.1	1211.9
4147	18.286	0.18182	0.1	1254.9
4148	18.102	0.18182	0.1	1298.2
4149	17.918	0.18182	0.1	1341.6
4150	17.733	0.18182	0.1	1385.2
4151	17.549	0.18182	0.1	1428.9
4152	17.365	0.18182	0.1	1472.7
4153	17.18	0.18182	0.1	1516.7
4154	16.996	0.18182	0.1	1560.8
4155	16.812	0.18182	0.1	1604.9
4156	16.627	0.18182	0.1	1649.
4157	16.443	0.18182	0.1	1693.
4158	16.259	0.18182	0.1	1736.9
4159	16.075	0.18182	0.1	1780.5
4160	15.89	0.18182	0.1	1823.7
4161	15.706	0.18182	0.1	1866.2
4162	15.522	0.18182	0.1	1907.9
4163	15.337	0.18182	0.1	1948.5
4164	15.153	0.18182	0.1	1987.6
4165	14.969	0.18182	0.1	2024.6
4166	14.784	0.18182	0.1	2059.
4167	14.6	0.18182	0.1	2090.
4168	14.416	0.18182	0.1	2116.6
4169	14.231	0.18182	0.1	2137.8
4170	14.047	0.18182	0.1	2151.9
4171	13.863	0.18182	0.1	2157.3
4172	13.678	0.18182	0.1	2151.7
4173	13.494	0.18182	0.1	2132.6
4174	13.31	0.18182	0.1	2097.
4175	13.125	0.18182	0.1	2041.4
4176	12.941	0.18182	0.1	1961.8
4177	12.757	0.18182	0.1	1854.3
4178	12.573	0.18182	0.1	1714.8
4179	12.388	0.18182	0.1	1540.
4180	12.204	0.18182	0.1	1327.7
4181	12.02	0.18182	0.1	1078.2
4182	11.835	0.18182	0.1	795.83
4183	11.651	0.18182	0.1	513.25
4184	23.816	0.36364	0.1	38.078
4185	23.631	0.36364	0.1	73.011
4186	23.447	0.36364	0.1	109.76
4187	23.263	0.36364	0.1	147.5
4188	23.078	0.36364	0.1	185.86
4189	22.894	0.36364	0.1	224.64
4190	22.71	0.36364	0.1	263.71
4191	22.525	0.36364	0.1	303.02
4192	22.341	0.36364	0.1	342.53
4193	22.157	0.36364	0.1	382.21
4194	21.973	0.36364	0.1	422.04
4195	21.788	0.36364	0.1	462.02
4196	21.604	0.36364	0.1	502.15
4197	21.42	0.36364	0.1	542.42
4198	21.235	0.36364	0.1	582.82
4199	21.051	0.36364	0.1	623.37
4200	20.867	0.36364	0.1	664.07
4201	20.682	0.36364	0.1	704.91
4202	20.498	0.36364	0.1	745.9
4203	20.314	0.36364	0.1	787.05
4204	20.129	0.36364	0.1	828.36
4205	19.945	0.36364	0.1	869.84
4206	19.761	0.36364	0.1	911.48
4207	19.576	0.36364	0.1	953.29
4208	19.392	0.36364	0.1	995.27
4209	19.208	0.36364	0.1	1037.4
4210	19.024	0.36364	0.1	1079.8
4211	18.839	0.36364	0.1	1122.3
4212	18.655	0.36364	0.1	1165.
4213	18.471	0.36364	0.1	1207.9
4214	18.286	0.36364	0.1	1251.
4215	18.102	0.36364	0.1	1294.2
4216	17.918	0.36364	0.1	1337.6
4217	17.733	0.36364	0.1	1381.2
4218	17.549	0.36364	0.1	1425.
4219	17.365	0.36364	0.1	1468.9
4220	17.18	0.36364	0.1	1512.9
4221	16.996	0.36364	0.1	1557.
4222	16.812	0.36364	0.1	1601.1
4223	16.627	0.36364	0.1	1645.3
4224	16.443	0.36364	0.1	1689.5
4225	16.259	0.36364	0.1	1733.5
4226	16.075	0.36364	0.1	1777.2
4227	15.89	0.36364	0.1	1820.7
4228	15.706	0.36364	0.1	1863.5
4229	15.522	0.36364	0.1	1905.7
4230	15.337	0.36364	0.1	1946.7
4231	15.153	0.36364	0.1	1986.4
4232	14.969	0.36364	0.1	2024.3
4233	14.784	0.36364	0.1	2059.7
4234	14.6	0.36364	0.1	2092.
4235	14.416	0.36364	0.1	2120.2
4236	14.231	0.36364	0.1	2143.3
4237	14.047	0.36364	0.1	2159.9
4238	13.863	0.36364	0.1	2168.1
4239	13.678	0.36364	0.1	2166.
4240	13.494	0.36364	0.1	2151.1
4241	13.31	0.36364	0.1	2120.2
4242	13.125	0.36364	0.1	2070.
4243	12.941	0.36364	0.1	1996.6
4244	12.757	0.36364	0.1	1895.7
4245	12.573	0.36364	0.1	1763.2
4246	12.388	0.36364	0.1	1596.1
4247	12.204	0.36364	0.1	1393.2
4248	12.02	0.36364	0.1	1158.6
4249	11.835	0.36364	0.1	908.77
4250	11.651	0.36364	0.1	713.14
4251	23.816	0.54545	0.1	38.906
4252	23.631	0.54545	0.1	74.524
4253	23.447	0.54545	0.1	111.15
4254	23.263	0.54545	0.1	148.53
4255	23.078	0.54545	0.1	186.52
4256	22.894	0.54545	0.1	224.97
4257	22.71	0.54545	0.1	263.78
4258	22.525	0.54545	0.1	302.86
4259	22.341	0.54545	0.1	342.18
4260	22.157	0.54545	0.1	381.69
4261	21.973	0.54545	0.1	421.39
4262	21.788	0.54545	0.1	461.24
4263	21.604	0.54545	0.1	501.26
4264	21.42	0.54545	0.1	541.42
4265	21.235	0.54545	0.1	581.74
4266	21.051	0.54545	0.1	622.2
4267	20.867	0.54545	0.1	662.82
4268	20.682	0.54545	0.1	703.59
4269	20.498	0.54545	0.1	744.52
4270	20.314	0.54545	0.1	785.6
4271	20.129	0.54545	0.1	826.85
4272	19.945	0.54545	0.1	868.27
4273	19.761	0.54545	0.1	909.86
4274	19.576	0.54545	0.1	951.61
4275	19.392	0.54545	0.1	993.55
4276	19.208	0.54545	0.1	1035.7
4277	19.024	0.54545	0.1	1077.9
4278	18.839	0.54545	0.1	1120.4
4279	18.655	0.54545	0.1	1163.1
4280	18.471	0.54545	0.1	1205.9
4281	18.286	0.54545	0.1	1248.9
4282	18.102	0.54545	0.1	1292.1
4283	17.918	0.54545	0.1	1335.5
4284	17.733	0.54545	0.1	1379.1
4285	17.549	0.54545	0.1	1422.8
4286	17.365	0.54545	0.1	1466.6
4287	17.18	0.54545	0.1	1510.6
4288	16.996	0.54545	0.1	1554.7
4289	16.812	0.54545	0.1	1598.9
4290	16.627	0.54545	0.1	1643.2
4291	16.443	0.54545	0.1	1687.4
4292	16.259	0.54545	0.1	1731.5
4293	16.075	0.54545	0.1	1775.4
4294	15.89	0.54545	0.1	1819.1
4295	15.706	0.54545	0.1	1862.3
4296	15.522	0.54545	0.1	1904.9
4297	15.337	0.54545	0.1	1946.6
4298	15.153	0.54545	0.1	1987.
4299	14.969	0.54545	0.1	2025.9
4300	14.784	0.54545	0.1	2062.6
4301	14.6	0.54545	0.1	2096.6
4302	14.416	0.54545	0.1	2126.9
4303	14.231	0.54545	0.1	2152.7
4304	14.047	0.54545	0.1	2172.5
4305	13.863	0.54545	0.1	2184.8
4306	13.678	0.54545	0.1	2187.6
4307	13.494	0.54545	0.1	2178.7
4308	13.31	0.54545	0.1	2155.1
4309	13.125	0.54545	0.1	2113.5
4310	12.941	0.54545	0.1	2050.2
4311	12.757	0.54545	0.1	1961.
4312	12.573	0.54545	0.1	1842.
4313	12.388	0.54545	0.1	1690.4
4314	12.204	0.54545	0.1	1506.4
4315	12.02	0.54545	0.1	1297.7
4316	11.835	0.54545	0.1	1087.
4317	11.651	0.54545	0.1	948.24
4318	23.816	0.72727	0.1	39.401
4319	23.631	0.72727	0.1	75.726
4320	23.447	0.72727	0.1	112.6
4321	23.263	0.72727	0.1	149.92
4322	23.078	0.72727	0.1	187.72
4323	22.894	0.72727	0.1	225.93
4324	22.71	0.72727	0.1	264.49
4325	22.525	0.72727	0.1	303.35
4326	22.341	0.72727	0.1	342.47
4327	22.157	0.72727	0.1	381.79
4328	21.973	0.72727	0.1	421.32
4329	21.788	0.72727	0.1	461.03
4330	21.604	0.72727	0.1	500.9
4331	21.42	0.72727	0.1	540.94
4332	21.235	0.72727	0.1	581.14
4333	21.051	0.72727	0.1	621.5
4334	20.867	0.72727	0.1	662.02
4335	20.682	0.72727	0.1	702.71
4336	20.498	0.72727	0.1	743.55
4337	20.314	0.72727	0.1	784.56
4338	20.129	0.72727	0.1	825.73
4339	19.945	0.72727	0.1	867.08
4340	19.761	0.72727	0.1	908.59
4341	19.576	0.72727	0.1	950.29
4342	19.392	0.72727	0.1	992.16
4343	19.208	0.72727	0.1	1034.2
4344	19.024	0.72727	0.1	1076.4
4345	18.839	0.72727	0.1	1118.9
4346	18.655	0.72727	0.1	1161.5
4347	18.471	0.72727	0.1	1204.2
4348	18.286	0.72727	0.1	1247.2
4349	18.102	0.72727	0.1	1290.4
4350	17.918	0.72727	0.1	1333.7
4351	17.733	0.72727	0.1	1377.2
4352	17.549	0.72727	0.1	1420.9
4353	17.365	0.72727	0.1	1464.7
4354	17.18	0.72727	0.1	1508.7
4355	16.996	0.72727	0.1	1552.8
4356	16.812	0.72727	0.1	1597.
4357	16.627	0.72727	0.1	1641.3
4358	16.443	0.72727	0.1	1685.5
4359	16.259	0.72727	0.1	1729.8
4360	16.075	0.72727	0.1	1774.
4361	15.89	0.72727	0.1	1817.9
4362	15.706	0.72727	0.1	1861.5
4363	15.522	0.72727	0.1	1904.6
4364	15.337	0.72727	0.1	1947.
4365	15.153	0.72727	0.1	1988.5
4366	14.969	0.72727	0.1	2028.6
4367	14.784	0.72727	0.1	2066.9
4368	14.6	0.72727	0.1	2102.8
4369	14.416	0.72727	0.1	2135.7
4370	14.231	0.72727	0.1	2164.7
4371	14.047	0.72727	0.1	2188.6
4372	13.863	0.72727	0.1	2206.
4373	13.678	0.72727	0.1	2215.2
4374	13.494	0.72727	0.1	2214.1
4375	13.31	0.72727	0.1	2200.1
4376	13.125	0.72727	0.1	2170.1
4377	12.941	0.72727	0.1	2120.8
4378	12.757	0.72727	0.1	2048.3
4379	12.573	0.72727	0.1	1948.9
4380	12.388	0.72727	0.1	1820.2
4381	12.204	0.72727	0.1	1662.8
4382	12.02	0.72727	0.1	1485.1
4383	11.835	0.72727	0.1	1308.4
4384	11.651	0.72727	0.1	1205.9
4385	23.816	0.90909	0.1	39.654
4386	23.631	0.90909	0.1	76.569
4387	23.447	0.90909	0.1	113.79
4388	23.263	0.90909	0.1	151.23
4389	23.078	0.90909	0.1	188.98
4390	22.894	0.90909	0.1	227.06
4391	22.71	0.90909	0.1	265.46
4392	22.525	0.90909	0.1	304.13
4393	22.341	0.90909	0.1	343.06
4394	22.157	0.90909	0.1	382.21
4395	21.973	0.90909	0.1	421.56
4396	21.788	0.90909	0.1	461.11
4397	21.604	0.90909	0.1	500.85
4398	21.42	0.90909	0.1	540.75
4399	21.235	0.90909	0.1	580.83
4400	21.051	0.90909	0.1	621.07
4401	20.867	0.90909	0.1	661.49
4402	20.682	0.90909	0.1	702.07
4403	20.498	0.90909	0.1	742.82
4404	20.314	0.90909	0.1	783.74
4405	20.129	0.90909	0.1	824.83
4406	19.945	0.90909	0.1	866.1
4407	19.761	0.90909	0.1	907.54
4408	19.576	0.90909	0.1	949.16
4409	19.392	0.90909	0.1	990.96
4410	19.208	0.90909	0.1	1032.9
4411	19.024	0.90909	0.1	1075.1
4412	18.839	0.90909	0.1	1117.5
4413	18.655	0.90909	0.1	1160.
4414	18.471	0.90909	0.1	1202.7
4415	18.286	0.90909	0.1	1245.6
4416	18.102	0.90909	0.1	1288.7
4417	17.918	0.90909	0.1	1332.
4418	17.733	0.90909	0.1	1375.5
4419	17.549	0.90909	0.1	1419.1
4420	17.365	0.90909	0.1	1462.9
4421	17.18	0.90909	0.1	1506.9
4422	16.996	0.90909	0.1	1551.
4423	16.812	0.90909	0.1	1595.2
4424	16.627	0.90909	0.1	1639.5
4425	16.443	0.90909	0.1	1683.9
4426	16.259	0.90909	0.1	1728.4
4427	16.075	0.90909	0.1	1772.7
4428	15.89	0.90909	0.1	1817.
4429	15.706	0.90909	0.1	1861.1
4430	15.522	0.90909	0.1	1904.8
4431	15.337	0.90909	0.1	1948.
4432	15.153	0.90909	0.1	1990.5
4433	14.969	0.90909	0.1	2032.
4434	14.784	0.90909	0.1	2072.1
4435	14.6	0.90909	0.1	2110.4
4436	14.416	0.90909	0.1	2146.3
4437	14.231	0.90909	0.1	2179.1
4438	14.047	0.90909	0.1	2207.7
4439	13.863	0.90909	0.1	2231.2
4440	13.678	0.90909	0.1	2248.
4441	13.494	0.90909	0.1	2256.4
4442	13.31	0.90909	0.1	2254.2
4443	13.125	0.90909	0.1	2238.9
4444	12.941	0.90909	0.1	2207.5
4445	12.757	0.90909	0.1	2156.9
4446	12.573	0.90909	0.1	2083.6
4447	12.388	0.90909	0.1	1985.3
4448	12.204	0.90909	0.1	1862.
4449	12.02	0.90909	0.1	1719.5
4450	11.835	0.90909	0.1	1573.3
4451	11.651	0.90909	0.1	1498.2
4452	23.816	1.0909	0.1	39.778
4453	23.631	1.0909	0.1	77.16
4454	23.447	1.0909	0.1	114.72
4455	23.263	1.0909	0.1	152.34
4456	23.078	1.0909	0.1	190.15
4457	22.894	1.0909	0.1	228.2
4458	22.71	1.0909	0.1	266.49
4459	22.525	1.0909	0.1	305.03
4460	22.341	1.0909	0.1	343.81
4461	22.157	1.0909	0.1	382.81
4462	21.973	1.0909	0.1	422.01
4463	21.788	1.0909	0.1	461.41
4464	21.604	1.0909	0.1	501.
4465	21.42	1.0909	0.1	540.77
4466	21.235	1.0909	0.1	580.72
4467	21.051	1.0909	0.1	620.85
4468	20.867	1.0909	0.1	661.15
4469	20.682	1.0909	0.1	701.63
4470	20.498	1.0909	0.1	742.28
4471	20.314	1.0909	0.1	783.11
4472	20.129	1.0909	0.1	824.12
4473	19.945	1.0909	0.1	865.3
4474	19.761	1.0909	0.1	906.66
4475	19.576	1.0909	0.1	948.21
4476	19.392	1.0909	0.1	989.94
4477	19.208	1.0909	0.1	1031.9
4478	19.024	1.0909	0.1	1074.
4479	18.839	1.0909	0.1	1116.2
4480	18.655	1.0909	0.1	1158.7
4481	18.471	1.0909	0.1	1201.4
4482	18.286	1.0909	0.1	1244.2
4483	18.102	1.0909	0.1	1287.3
4484	17.918	1.0909	0.1	1330.5
4485	17.733	1.0909	0.1	1373.9
4486	17.549	1.0909	0.1	1417.5
4487	17.365	1.0909	0.1	1461.3
4488	17.18	1.0909	0.1	1505.2
4489	16.996	1.0909	0.1	1549.3
4490	16.812	1.0909	0.1	1593.6
4491	16.627	1.0909	0.1	1638.
4492	16.443	1.0909	0.1	1682.5
4493	16.259	1.0909	0.1	1727.1
4494	16.075	1.0909	0.1	1771.7
4495	15.89	1.0909	0.1	1816.4
4496	15.706	1.0909	0.1	1860.9
4497	15.522	1.0909	0.1	1905.3
4498	15.337	1.0909	0.1	1949.4
4499	15.153	1.0909	0.1	1993.1
4500	14.969	1.0909	0.1	2036.1
4501	14.784	1.0909	0.1	2078.2
4502	14.6	1.0909	0.1	2119.1
4503	14.416	1.0909	0.1	2158.3
4504	14.231	1.0909	0.1	2195.3
4505	14.047	1.0909	0.1	2229.3
4506	13.863	1.0909	0.1	2259.7
4507	13.678	1.0909	0.1	2285.2
4508	13.494	1.0909	0.1	2304.6
4509	13.31	1.0909	0.1	2316.2
4510	13.125	1.0909	0.1	2318.3
4511	12.941	1.0909	0.1	2308.6
4512	12.757	1.0909	0.1	2284.8
4513	12.573	1.0909	0.1	2244.3
4514	12.388	1.0909	0.1	2184.8
4515	12.204	1.0909	0.1	2105.
4516	12.02	1.0909	0.1	2005.7
4517	11.835	1.0909	0.1	1893.2
4518	11.651	1.0909	0.1	1845.4
4519	23.816	1.2727	0.1	39.827
4520	23.631	1.2727	0.1	77.575
4521	23.447	1.2727	0.1	115.43
4522	23.263	1.2727	0.1	153.26
4523	23.078	1.2727	0.1	191.18
4524	22.894	1.2727	0.1	229.24
4525	22.71	1.2727	0.1	267.5
4526	22.525	1.2727	0.1	305.96
4527	22.341	1.2727	0.1	344.63
4528	22.157	1.2727	0.1	383.5
4529	21.973	1.2727	0.1	422.57
4530	21.788	1.2727	0.1	461.84
4531	21.604	1.2727	0.1	501.3
4532	21.42	1.2727	0.1	540.95
4533	21.235	1.2727	0.1	580.77
4534	21.051	1.2727	0.1	620.78
4535	20.867	1.2727	0.1	660.98
4536	20.682	1.2727	0.1	701.35
4537	20.498	1.2727	0.1	741.9
4538	20.314	1.2727	0.1	782.64
4539	20.129	1.2727	0.1	823.56
4540	19.945	1.2727	0.1	864.66
4541	19.761	1.2727	0.1	905.94
4542	19.576	1.2727	0.1	947.41
4543	19.392	1.2727	0.1	989.07
4544	19.208	1.2727	0.1	1030.9
4545	19.024	1.2727	0.1	1072.9
4546	18.839	1.2727	0.1	1115.2
4547	18.655	1.2727	0.1	1157.6
4548	18.471	1.2727	0.1	1200.2
4549	18.286	1.2727	0.1	1243.
4550	18.102	1.2727	0.1	1286.
4551	17.918	1.2727	0.1	1329.1
4552	17.733	1.2727	0.1	1372.5
4553	17.549	1.2727	0.1	1416.1
4554	17.365	1.2727	0.1	1459.8
4555	17.18	1.2727	0.1	1503.7
4556	16.996	1.2727	0.1	1547.8
4557	16.812	1.2727	0.1	1592.1
4558	16.627	1.2727	0.1	1636.6
4559	16.443	1.2727	0.1	1681.2
4560	16.259	1.2727	0.1	1726.
4561	16.075	1.2727	0.1	1770.9
4562	15.89	1.2727	0.1	1815.9
4563	15.706	1.2727	0.1	1861.
4564	15.522	1.2727	0.1	1906.
4565	15.337	1.2727	0.1	1951.1
4566	15.153	1.2727	0.1	1995.9
4567	14.969	1.2727	0.1	2040.6
4568	14.784	1.2727	0.1	2084.8
4569	14.6	1.2727	0.1	2128.4
4570	14.416	1.2727	0.1	2171.2
4571	14.231	1.2727	0.1	2212.8
4572	14.047	1.2727	0.1	2252.8
4573	13.863	1.2727	0.1	2290.6
4574	13.678	1.2727	0.1	2325.7
4575	13.494	1.2727	0.1	2357.3
4576	13.31	1.2727	0.1	2384.5
4577	13.125	1.2727	0.1	2406.2
4578	12.941	1.2727	0.1	2421.4
4579	12.757	1.2727	0.1	2429.
4580	12.573	1.2727	0.1	2427.7
4581	12.388	1.2727	0.1	2416.5
4582	12.204	1.2727	0.1	2393.1
4583	12.02	1.2727	0.1	2353.4
4584	11.835	1.2727	0.1	2291.5
4585	11.651	1.2727	0.1	2280.
4586	23.816	1.4545	0.1	39.832
4587	23.631	1.4545	0.1	77.87
4588	23.447	1.4545	0.1	115.97
4589	23.263	1.4545	0.1	154.
4590	23.078	1.4545	0.1	192.04
4591	22.894	1.4545	0.1	230.17
4592	22.71	1.4545	0.1	268.43
4593	22.525	1.4545	0.1	306.84
4594	22.341	1.4545	0.1	345.44
4595	22.157	1.4545	0.1	384.22
4596	21.973	1.4545	0.1	423.18
4597	21.788	1.4545	0.1	462.34
4598	21.604	1.4545	0.1	501.68
4599	21.42	1.4545	0.1	541.21
4600	21.235	1.4545	0.1	580.93
4601	21.051	1.4545	0.1	620.83
4602	20.867	1.4545	0.1	660.92
4603	20.682	1.4545	0.1	701.19
4604	20.498	1.4545	0.1	741.65
4605	20.314	1.4545	0.1	782.29
4606	20.129	1.4545	0.1	823.12
4607	19.945	1.4545	0.1	864.14
4608	19.761	1.4545	0.1	905.35
4609	19.576	1.4545	0.1	946.74
4610	19.392	1.4545	0.1	988.33
4611	19.208	1.4545	0.1	1030.1
4612	19.024	1.4545	0.1	1072.1
4613	18.839	1.4545	0.1	1114.2
4614	18.655	1.4545	0.1	1156.6
4615	18.471	1.4545	0.1	1199.1
4616	18.286	1.4545	0.1	1241.9
4617	18.102	1.4545	0.1	1284.8
4618	17.918	1.4545	0.1	1327.9
4619	17.733	1.4545	0.1	1371.2
4620	17.549	1.4545	0.1	1414.7
4621	17.365	1.4545	0.1	1458.5
4622	17.18	1.4545	0.1	1502.4
4623	16.996	1.4545	0.1	1546.5
4624	16.812	1.4545	0.1	1590.8
4625	16.627	1.4545	0.1	1635.4
4626	16.443	1.4545	0.1	1680.1
4627	16.259	1.4545	0.1	1725.
4628	16.075	1.4545	0.1	1770.2
4629	15.89	1.4545	0.1	1815.6
4630	15.706	1.4545	0.1	1861.1
4631	15.522	1.4545	0.1	1906.9
4632	15.337	1.4545	0.1	1952.9
4633	15.153	1.4545	0.1	1999.
4634	14.969	1.4545	0.1	2045.3
4635	14.784	1.4545	0.1	2091.7
4636	14.6	1.4545	0.1	2138.2
4637	14.416	1.4545	0.1	2184.7
4638	14.231	1.4545	0.1	2231.1
4639	14.047	1.4545	0.1	2277.2
4640	13.863	1.4545	0.1	2323.
4641	13.678	1.4545	0.1	2368.3
4642	13.494	1.4545	0.1	2413.
4643	13.31	1.4545	0.1	2456.8
4644	13.125	1.4545	0.1	2499.9
4645	12.941	1.4545	0.1	2542.4
4646	12.757	1.4545	0.1	2585.1
4647	12.573	1.4545	0.1	2629.
4648	12.388	1.4545	0.1	2675.7
4649	12.204	1.4545	0.1	2725.4
4650	12.02	1.4545	0.1	2775.5
4651	11.835	1.4545	0.1	2802.2
4652	11.651	1.4545	0.1	2873.
4653	23.816	1.6364	0.1	39.813
4654	23.631	1.6364	0.1	78.08
4655	23.447	1.6364	0.1	116.39
4656	23.263	1.6364	0.1	154.59
4657	23.078	1.6364	0.1	192.76
4658	22.894	1.6364	0.1	230.96
4659	22.71	1.6364	0.1	269.24
4660	22.525	1.6364	0.1	307.65
4661	22.341	1.6364	0.1	346.2
4662	22.157	1.6364	0.1	384.91
4663	21.973	1.6364	0.1	423.8
4664	21.788	1.6364	0.1	462.86
4665	21.604	1.6364	0.1	502.1
4666	21.42	1.6364	0.1	541.53
4667	21.235	1.6364	0.1	581.15
4668	21.051	1.6364	0.1	620.95
4669	20.867	1.6364	0.1	660.94
4670	20.682	1.6364	0.1	701.12
4671	20.498	1.6364	0.1	741.49
4672	20.314	1.6364	0.1	782.05
4673	20.129	1.6364	0.1	822.8
4674	19.945	1.6364	0.1	863.74
4675	19.761	1.6364	0.1	904.87
4676	19.576	1.6364	0.1	946.2
4677	19.392	1.6364	0.1	987.71
4678	19.208	1.6364	0.1	1029.4
4679	19.024	1.6364	0.1	1071.3
4680	18.839	1.6364	0.1	1113.4
4681	18.655	1.6364	0.1	1155.7
4682	18.471	1.6364	0.1	1198.2
4683	18.286	1.6364	0.1	1240.9
4684	18.102	1.6364	0.1	1283.7
4685	17.918	1.6364	0.1	1326.8
4686	17.733	1.6364	0.1	1370.1
4687	17.549	1.6364	0.1	1413.6
4688	17.365	1.6364	0.1	1457.3
4689	17.18	1.6364	0.1	1501.2
4690	16.996	1.6364	0.1	1545.3
4691	16.812	1.6364	0.1	1589.7
4692	16.627	1.6364	0.1	1634.3
4693	16.443	1.6364	0.1	1679.1
4694	16.259	1.6364	0.1	1724.2
4695	16.075	1.6364	0.1	1769.6
4696	15.89	1.6364	0.1	1815.4
4697	15.706	1.6364	0.1	1861.4
4698	15.522	1.6364	0.1	1907.9
4699	15.337	1.6364	0.1	1954.8
4700	15.153	1.6364	0.1	2002.2
4701	14.969	1.6364	0.1	2050.1
4702	14.784	1.6364	0.1	2098.7
4703	14.6	1.6364	0.1	2148.1
4704	14.416	1.6364	0.1	2198.3
4705	14.231	1.6364	0.1	2249.5
4706	14.047	1.6364	0.1	2302.
4707	13.863	1.6364	0.1	2356.
4708	13.678	1.6364	0.1	2411.7
4709	13.494	1.6364	0.1	2469.8
4710	13.31	1.6364	0.1	2531.
4711	13.125	1.6364	0.1	2596.4
4712	12.941	1.6364	0.1	2667.8
4713	12.757	1.6364	0.1	2748.
4714	12.573	1.6364	0.1	2841.2
4715	12.388	1.6364	0.1	2953.9
4716	12.204	1.6364	0.1	3094.6
4717	12.02	1.6364	0.1	3271.2
4718	11.835	1.6364	0.1	3479.1
4719	11.651	1.6364	0.1	3735.1
4720	23.816	1.8182	0.1	39.781
4721	23.631	1.8182	0.1	78.229
4722	23.447	1.8182	0.1	116.71
4723	23.263	1.8182	0.1	155.05
4724	23.078	1.8182	0.1	193.34
4725	22.894	1.8182	0.1	231.62
4726	22.71	1.8182	0.1	269.94
4727	22.525	1.8182	0.1	308.36
4728	22.341	1.8182	0.1	346.88
4729	22.157	1.8182	0.1	385.55
4730	21.973	1.8182	0.1	424.38
4731	21.788	1.8182	0.1	463.36
4732	21.604	1.8182	0.1	502.53
4733	21.42	1.8182	0.1	541.87
4734	21.235	1.8182	0.1	581.4
4735	21.051	1.8182	0.1	621.11
4736	20.867	1.8182	0.1	661.02
4737	20.682	1.8182	0.1	701.11
4738	20.498	1.8182	0.1	741.4
4739	20.314	1.8182	0.1	781.88
4740	20.129	1.8182	0.1	822.56
4741	19.945	1.8182	0.1	863.43
4742	19.761	1.8182	0.1	904.49
4743	19.576	1.8182	0.1	945.75
4744	19.392	1.8182	0.1	987.2
4745	19.208	1.8182	0.1	1028.8
4746	19.024	1.8182	0.1	1070.7
4747	18.839	1.8182	0.1	1112.7
4748	18.655	1.8182	0.1	1155.
4749	18.471	1.8182	0.1	1197.4
4750	18.286	1.8182	0.1	1240.
4751	18.102	1.8182	0.1	1282.8
4752	17.918	1.8182	0.1	1325.9
4753	17.733	1.8182	0.1	1369.1
4754	17.549	1.8182	0.1	1412.6
4755	17.365	1.8182	0.1	1456.2
4756	17.18	1.8182	0.1	1500.1
4757	16.996	1.8182	0.1	1544.2
4758	16.812	1.8182	0.1	1588.6
4759	16.627	1.8182	0.1	1633.3
4760	16.443	1.8182	0.1	1678.2
4761	16.259	1.8182	0.1	1723.5
4762	16.075	1.8182	0.1	1769.2
4763	15.89	1.8182	0.1	1815.2
4764	15.706	1.8182	0.1	1861.8
4765	15.522	1.8182	0.1	1908.9
4766	15.337	1.8182	0.1	1956.7
4767	15.153	1.8182	0.1	2005.3
4768	14.969	1.8182	0.1	2054.8
4769	14.784	1.8182	0.1	2105.6
4770	14.6	1.8182	0.1	2157.7
4771	14.416	1.8182	0.1	2211.6
4772	14.231	1.8182	0.1	2267.6
4773	14.047	1.8182	0.1	2326.3
4774	13.863	1.8182	0.1	2388.3
4775	13.678	1.8182	0.1	2454.5
4776	13.494	1.8182	0.1	2526.1
4777	13.31	1.8182	0.1	2604.7
4778	13.125	1.8182	0.1	2692.6
4779	12.941	1.8182	0.1	2793.2
4780	12.757	1.8182	0.1	2911.8
4781	12.573	1.8182	0.1	3056.1
4782	12.388	1.8182	0.1	3239.1
4783	12.204	1.8182	0.1	3481.6
4784	12.02	1.8182	0.1	3821.1
4785	11.835	1.8182	0.1	4342.5
4786	11.651	1.8182	0.1	5432.
4787	23.816	2.	0.1	39.744
4788	23.631	2.	0.1	78.335
4789	23.447	2.	0.1	116.95
4790	23.263	2.	0.1	155.41
4791	23.078	2.	0.1	193.8
4792	22.894	2.	0.1	232.16
4793	22.71	2.	0.1	270.53
4794	22.525	2.	0.1	308.96
4795	22.341	2.	0.1	347.48
4796	22.157	2.	0.1	386.12
4797	21.973	2.	0.1	424.9
4798	21.788	2.	0.1	463.83
4799	21.604	2.	0.1	502.93
4800	21.42	2.	0.1	542.2
4801	21.235	2.	0.1	581.66
4802	21.051	2.	0.1	621.3
4803	20.867	2.	0.1	661.13
4804	20.682	2.	0.1	701.15
4805	20.498	2.	0.1	741.36
4806	20.314	2.	0.1	781.78
4807	20.129	2.	0.1	822.38
4808	19.945	2.	0.1	863.19
4809	19.761	2.	0.1	904.19
4810	19.576	2.	0.1	945.39
4811	19.392	2.	0.1	986.78
4812	19.208	2.	0.1	1028.4
4813	19.024	2.	0.1	1070.2
4814	18.839	2.	0.1	1112.1
4815	18.655	2.	0.1	1154.3
4816	18.471	2.	0.1	1196.7
4817	18.286	2.	0.1	1239.3
4818	18.102	2.	0.1	1282.1
4819	17.918	2.	0.1	1325.1
4820	17.733	2.	0.1	1368.3
4821	17.549	2.	0.1	1411.7
4822	17.365	2.	0.1	1455.3
4823	17.18	2.	0.1	1499.2
4824	16.996	2.	0.1	1543.3
4825	16.812	2.	0.1	1587.7
4826	16.627	2.	0.1	1632.4
4827	16.443	2.	0.1	1677.5
4828	16.259	2.	0.1	1722.9
4829	16.075	2.	0.1	1768.8
4830	15.89	2.	0.1	1815.2
4831	15.706	2.	0.1	1862.2
4832	15.522	2.	0.1	1909.9
4833	15.337	2.	0.1	1958.5
4834	15.153	2.	0.1	2008.2
4835	14.969	2.	0.1	2059.3
4836	14.784	2.	0.1	2112.
4837	14.6	2.	0.1	2166.7
4838	14.416	2.	0.1	2224.
4839	14.231	2.	0.1	2284.6
4840	14.047	2.	0.1	2349.2
4841	13.863	2.	0.1	2418.9
4842	13.678	2.	0.1	2495.1
4843	13.494	2.	0.1	2579.7
4844	13.31	2.	0.1	2675.2
4845	13.125	2.	0.1	2785.
4846	12.941	2.	0.1	2914.2
4847	12.757	2.	0.1	3070.1
4848	12.573	2.	0.1	3264.4
4849	12.388	2.	0.1	3516.2
4850	12.204	2.	0.1	3859.7
4851	12.02	2.	0.1	4368.8
4852	11.835	2.	0.1	5180.3
4853	11.651	2.	0.1	7581.2
4854	23.816	2.1818	0.1	39.707
4855	23.631	2.1818	0.1	78.41
4856	23.447	2.1818	0.1	117.13
4857	23.263	2.1818	0.1	155.69
4858	23.078	2.1818	0.1	194.17
4859	22.894	2.1818	0.1	232.59
4860	22.71	2.1818	0.1	271.
4861	22.525	2.1818	0.1	309.45
4862	22.341	2.1818	0.1	347.98
4863	22.157	2.1818	0.1	386.6
4864	21.973	2.1818	0.1	425.35
4865	21.788	2.1818	0.1	464.24
4866	21.604	2.1818	0.1	503.29
4867	21.42	2.1818	0.1	542.5
4868	21.235	2.1818	0.1	581.9
4869	21.051	2.1818	0.1	621.47
4870	20.867	2.1818	0.1	661.24
4871	20.682	2.1818	0.1	701.2
4872	20.498	2.1818	0.1	741.36
4873	20.314	2.1818	0.1	781.71
4874	20.129	2.1818	0.1	822.26
4875	19.945	2.1818	0.1	863.01
4876	19.761	2.1818	0.1	903.96
4877	19.576	2.1818	0.1	945.1
4878	19.392	2.1818	0.1	986.45
4879	19.208	2.1818	0.1	1028.
4880	19.024	2.1818	0.1	1069.7
4881	18.839	2.1818	0.1	1111.7
4882	18.655	2.1818	0.1	1153.8
4883	18.471	2.1818	0.1	1196.2
4884	18.286	2.1818	0.1	1238.7
4885	18.102	2.1818	0.1	1281.4
4886	17.918	2.1818	0.1	1324.4
4887	17.733	2.1818	0.1	1367.6
4888	17.549	2.1818	0.1	1410.9
4889	17.365	2.1818	0.1	1454.6
4890	17.18	2.1818	0.1	1498.4
4891	16.996	2.1818	0.1	1542.6
4892	16.812	2.1818	0.1	1587.
4893	16.627	2.1818	0.1	1631.7
4894	16.443	2.1818	0.1	1676.9
4895	16.259	2.1818	0.1	1722.4
4896	16.075	2.1818	0.1	1768.5
4897	15.89	2.1818	0.1	1815.1
4898	15.706	2.1818	0.1	1862.5
4899	15.522	2.1818	0.1	1910.8
4900	15.337	2.1818	0.1	1960.1
4901	15.153	2.1818	0.1	2010.8
4902	14.969	2.1818	0.1	2063.2
4903	14.784	2.1818	0.1	2117.7
4904	14.6	2.1818	0.1	2174.8
4905	14.416	2.1818	0.1	2235.3
4906	14.231	2.1818	0.1	2299.9
4907	14.047	2.1818	0.1	2369.9
4908	13.863	2.1818	0.1	2446.7
4909	13.678	2.1818	0.1	2532.2
4910	13.494	2.1818	0.1	2628.9
4911	13.31	2.1818	0.1	2740.
4912	13.125	2.1818	0.1	2870.2
4913	12.941	2.1818	0.1	3025.9
4914	12.757	2.1818	0.1	3216.2
4915	12.573	2.1818	0.1	3455.7
4916	12.388	2.1818	0.1	3767.8
4917	12.204	2.1818	0.1	4194.
4918	12.02	2.1818	0.1	4818.4
4919	11.835	2.1818	0.1	5852.7
4920	11.651	2.1818	0.1	7831.4
4921	23.816	2.3636	0.1	39.675
4922	23.631	2.3636	0.1	78.462
4923	23.447	2.3636	0.1	117.26
4924	23.263	2.3636	0.1	155.9
4925	23.078	2.3636	0.1	194.44
4926	22.894	2.3636	0.1	232.92
4927	22.71	2.3636	0.1	271.37
4928	22.525	2.3636	0.1	309.85
4929	22.341	2.3636	0.1	348.37
4930	22.157	2.3636	0.1	386.99
4931	21.973	2.3636	0.1	425.72
4932	21.788	2.3636	0.1	464.57
4933	21.604	2.3636	0.1	503.58
4934	21.42	2.3636	0.1	542.76
4935	21.235	2.3636	0.1	582.1
4936	21.051	2.3636	0.1	621.63
4937	20.867	2.3636	0.1	661.35
4938	20.682	2.3636	0.1	701.26
4939	20.498	2.3636	0.1	741.37
4940	20.314	2.3636	0.1	781.67
4941	20.129	2.3636	0.1	822.18
4942	19.945	2.3636	0.1	862.88
4943	19.761	2.3636	0.1	903.78
4944	19.576	2.3636	0.1	944.89
4945	19.392	2.3636	0.1	986.19
4946	19.208	2.3636	0.1	1027.7
4947	19.024	2.3636	0.1	1069.4
4948	18.839	2.3636	0.1	1111.3
4949	18.655	2.3636	0.1	1153.4
4950	18.471	2.3636	0.1	1195.7
4951	18.286	2.3636	0.1	1238.2
4952	18.102	2.3636	0.1	1280.9
4953	17.918	2.3636	0.1	1323.8
4954	17.733	2.3636	0.1	1367.
4955	17.549	2.3636	0.1	1410.3
4956	17.365	2.3636	0.1	1453.9
4957	17.18	2.3636	0.1	1497.8
4958	16.996	2.3636	0.1	1541.9
4959	16.812	2.3636	0.1	1586.4
4960	16.627	2.3636	0.1	1631.2
4961	16.443	2.3636	0.1	1676.4
4962	16.259	2.3636	0.1	1722.
4963	16.075	2.3636	0.1	1768.2
4964	15.89	2.3636	0.1	1815.1
4965	15.706	2.3636	0.1	1862.8
4966	15.522	2.3636	0.1	1911.6
4967	15.337	2.3636	0.1	1961.5
4968	15.153	2.3636	0.1	2013.1
4969	14.969	2.3636	0.1	2066.6
4970	14.784	2.3636	0.1	2122.6
4971	14.6	2.3636	0.1	2181.7
4972	14.416	2.3636	0.1	2244.8
4973	14.231	2.3636	0.1	2313.
4974	14.047	2.3636	0.1	2387.7
4975	13.863	2.3636	0.1	2470.7
4976	13.678	2.3636	0.1	2564.2
4977	13.494	2.3636	0.1	2671.4
4978	13.31	2.3636	0.1	2796.4
4979	13.125	2.3636	0.1	2944.4
4980	12.941	2.3636	0.1	3123.1
4981	12.757	2.3636	0.1	3342.9
4982	12.573	2.3636	0.1	3619.3
4983	12.388	2.3636	0.1	3976.2
4984	12.204	2.3636	0.1	4452.3
4985	12.02	2.3636	0.1	5114.8
4986	11.835	2.3636	0.1	6070.9
4987	11.651	2.3636	0.1	7402.3
4988	23.816	2.5455	0.1	39.649
4989	23.631	2.5455	0.1	78.496
4990	23.447	2.5455	0.1	117.35
4991	23.263	2.5455	0.1	156.05
4992	23.078	2.5455	0.1	194.64
4993	22.894	2.5455	0.1	233.16
4994	22.71	2.5455	0.1	271.64
4995	22.525	2.5455	0.1	310.14
4996	22.341	2.5455	0.1	348.67
4997	22.157	2.5455	0.1	387.28
4998	21.973	2.5455	0.1	425.99
4999	21.788	2.5455	0.1	464.83
5000	21.604	2.5455	0.1	503.82
5001	21.42	2.5455	0.1	542.96
5002	21.235	2.5455	0.1	582.27
5003	21.051	2.5455	0.1	621.76
5004	20.867	2.5455	0.1	661.44
5005	20.682	2.5455	0.1	701.32
5006	20.498	2.5455	0.1	741.39
5007	20.314	2.5455	0.1	781.65
5008	20.129	2.5455	0.1	822.12
5009	19.945	2.5455	0.1	862.79
5010	19.761	2.5455	0.1	903.66
5011	19.576	2.5455	0.1	944.73
5012	19.392	2.5455	0.1	986.
5013	19.208	2.5455	0.1	1027.5
5014	19.024	2.5455	0.1	1069.1
5015	18.839	2.5455	0.1	1111.
5016	18.655	2.5455	0.1	1153.1
5017	18.471	2.5455	0.1	1195.4
5018	18.286	2.5455	0.1	1237.9
5019	18.102	2.5455	0.1	1280.5
5020	17.918	2.5455	0.1	1323.4
5021	17.733	2.5455	0.1	1366.6
5022	17.549	2.5455	0.1	1409.9
5023	17.365	2.5455	0.1	1453.5
5024	17.18	2.5455	0.1	1497.3
5025	16.996	2.5455	0.1	1541.5
5026	16.812	2.5455	0.1	1585.9
5027	16.627	2.5455	0.1	1630.7
5028	16.443	2.5455	0.1	1676.
5029	16.259	2.5455	0.1	1721.7
5030	16.075	2.5455	0.1	1768.1
5031	15.89	2.5455	0.1	1815.1
5032	15.706	2.5455	0.1	1863.1
5033	15.522	2.5455	0.1	1912.2
5034	15.337	2.5455	0.1	1962.6
5035	15.153	2.5455	0.1	2014.8
5036	14.969	2.5455	0.1	2069.2
5037	14.784	2.5455	0.1	2126.4
5038	14.6	2.5455	0.1	2187.1
5039	14.416	2.5455	0.1	2252.4
5040	14.231	2.5455	0.1	2323.4
5041	14.047	2.5455	0.1	2401.8
5042	13.863	2.5455	0.1	2489.7
5043	13.678	2.5455	0.1	2589.7
5044	13.494	2.5455	0.1	2705.5
5045	13.31	2.5455	0.1	2841.5
5046	13.125	2.5455	0.1	3004.
5047	12.941	2.5455	0.1	3200.9
5048	12.757	2.5455	0.1	3443.4
5049	12.573	2.5455	0.1	3746.3
5050	12.388	2.5455	0.1	4130.
5051	12.204	2.5455	0.1	4621.9
5052	12.02	2.5455	0.1	5253.1
5053	11.835	2.5455	0.1	6036.6
5054	11.651	2.5455	0.1	6865.4
5055	23.816	2.7273	0.1	39.631
5056	23.631	2.7273	0.1	78.517
5057	23.447	2.7273	0.1	117.41
5058	23.263	2.7273	0.1	156.15
5059	23.078	2.7273	0.1	194.77
5060	22.894	2.7273	0.1	233.32
5061	22.71	2.7273	0.1	271.82
5062	22.525	2.7273	0.1	310.33
5063	22.341	2.7273	0.1	348.87
5064	22.157	2.7273	0.1	387.48
5065	21.973	2.7273	0.1	426.18
5066	21.788	2.7273	0.1	465.01
5067	21.604	2.7273	0.1	503.97
5068	21.42	2.7273	0.1	543.1
5069	21.235	2.7273	0.1	582.39
5070	21.051	2.7273	0.1	621.85
5071	20.867	2.7273	0.1	661.51
5072	20.682	2.7273	0.1	701.36
5073	20.498	2.7273	0.1	741.4
5074	20.314	2.7273	0.1	781.64
5075	20.129	2.7273	0.1	822.09
5076	19.945	2.7273	0.1	862.73
5077	19.761	2.7273	0.1	903.58
5078	19.576	2.7273	0.1	944.63
5079	19.392	2.7273	0.1	985.88
5080	19.208	2.7273	0.1	1027.3
5081	19.024	2.7273	0.1	1069.
5082	18.839	2.7273	0.1	1110.8
5083	18.655	2.7273	0.1	1152.9
5084	18.471	2.7273	0.1	1195.2
5085	18.286	2.7273	0.1	1237.6
5086	18.102	2.7273	0.1	1280.3
5087	17.918	2.7273	0.1	1323.2
5088	17.733	2.7273	0.1	1366.3
5089	17.549	2.7273	0.1	1409.6
5090	17.365	2.7273	0.1	1453.2
5091	17.18	2.7273	0.1	1497.
5092	16.996	2.7273	0.1	1541.2
5093	16.812	2.7273	0.1	1585.6
5094	16.627	2.7273	0.1	1630.5
5095	16.443	2.7273	0.1	1675.7
5096	16.259	2.7273	0.1	1721.5
5097	16.075	2.7273	0.1	1768.
5098	15.89	2.7273	0.1	1815.1
5099	15.706	2.7273	0.1	1863.3
5100	15.522	2.7273	0.1	1912.6
5101	15.337	2.7273	0.1	1963.4
5102	15.153	2.7273	0.1	2016.
5103	14.969	2.7273	0.1	2071.
5104	14.784	2.7273	0.1	2129.
5105	14.6	2.7273	0.1	2190.9
5106	14.416	2.7273	0.1	2257.6
5107	14.231	2.7273	0.1	2330.6
5108	14.047	2.7273	0.1	2411.6
5109	13.863	2.7273	0.1	2502.9
5110	13.678	2.7273	0.1	2607.5
5111	13.494	2.7273	0.1	2729.3
5112	13.31	2.7273	0.1	2873.1
5113	13.125	2.7273	0.1	3045.7
5114	12.941	2.7273	0.1	3255.2
5115	12.757	2.7273	0.1	3512.8
5116	12.573	2.7273	0.1	3831.7
5117	12.388	2.7273	0.1	4227.7
5118	12.204	2.7273	0.1	4715.6
5119	12.02	2.7273	0.1	5299.2
5120	11.835	2.7273	0.1	5946.9
5121	11.651	2.7273	0.1	6551.3
5122	23.816	2.9091	0.1	39.622
5123	23.631	2.9091	0.1	78.527
5124	23.447	2.9091	0.1	117.44
5125	23.263	2.9091	0.1	156.19
5126	23.078	2.9091	0.1	194.83
5127	22.894	2.9091	0.1	233.39
5128	22.71	2.9091	0.1	271.91
5129	22.525	2.9091	0.1	310.42
5130	22.341	2.9091	0.1	348.97
5131	22.157	2.9091	0.1	387.57
5132	21.973	2.9091	0.1	426.28
5133	21.788	2.9091	0.1	465.1
5134	21.604	2.9091	0.1	504.05
5135	21.42	2.9091	0.1	543.17
5136	21.235	2.9091	0.1	582.44
5137	21.051	2.9091	0.1	621.9
5138	20.867	2.9091	0.1	661.54
5139	20.682	2.9091	0.1	701.38
5140	20.498	2.9091	0.1	741.41
5141	20.314	2.9091	0.1	781.64
5142	20.129	2.9091	0.1	822.07
5143	19.945	2.9091	0.1	862.71
5144	19.761	2.9091	0.1	903.54
5145	19.576	2.9091	0.1	944.58
5146	19.392	2.9091	0.1	985.82
5147	19.208	2.9091	0.1	1027.3
5148	19.024	2.9091	0.1	1068.9
5149	18.839	2.9091	0.1	1110.7
5150	18.655	2.9091	0.1	1152.8
5151	18.471	2.9091	0.1	1195.
5152	18.286	2.9091	0.1	1237.5
5153	18.102	2.9091	0.1	1280.2
5154	17.918	2.9091	0.1	1323.
5155	17.733	2.9091	0.1	1366.1
5156	17.549	2.9091	0.1	1409.4
5157	17.365	2.9091	0.1	1453.
5158	17.18	2.9091	0.1	1496.9
5159	16.996	2.9091	0.1	1541.
5160	16.812	2.9091	0.1	1585.5
5161	16.627	2.9091	0.1	1630.3
5162	16.443	2.9091	0.1	1675.6
5163	16.259	2.9091	0.1	1721.4
5164	16.075	2.9091	0.1	1767.9
5165	15.89	2.9091	0.1	1815.1
5166	15.706	2.9091	0.1	1863.4
5167	15.522	2.9091	0.1	1912.8
5168	15.337	2.9091	0.1	1963.7
5169	15.153	2.9091	0.1	2016.6
5170	14.969	2.9091	0.1	2071.9
5171	14.784	2.9091	0.1	2130.4
5172	14.6	2.9091	0.1	2192.8
5173	14.416	2.9091	0.1	2260.2
5174	14.231	2.9091	0.1	2334.2
5175	14.047	2.9091	0.1	2416.6
5176	13.863	2.9091	0.1	2509.7
5177	13.678	2.9091	0.1	2616.7
5178	13.494	2.9091	0.1	2741.5
5179	13.31	2.9091	0.1	2889.4
5180	13.125	2.9091	0.1	3067.1
5181	12.941	2.9091	0.1	3283.1
5182	12.757	2.9091	0.1	3548.
5183	12.573	2.9091	0.1	3874.3
5184	12.388	2.9091	0.1	4274.3
5185	12.204	2.9091	0.1	4755.5
5186	12.02	2.9091	0.1	5309.
5187	11.835	2.9091	0.1	5890.
5188	11.651	2.9091	0.1	6401.4
5189	23.816	3.0909	0.1	39.622
5190	23.631	3.0909	0.1	78.527
5191	23.447	3.0909	0.1	117.44
5192	23.263	3.0909	0.1	156.19
5193	23.078	3.0909	0.1	194.83
5194	22.894	3.0909	0.1	233.39
5195	22.71	3.0909	0.1	271.91
5196	22.525	3.0909	0.1	310.42
5197	22.341	3.0909	0.1	348.97
5198	22.157	3.0909	0.1	387.57
5199	21.973	3.0909	0.1	426.28
5200	21.788	3.0909	0.1	465.1
5201	21.604	3.0909	0.1	504.05
5202	21.42	3.0909	0.1	543.17
5203	21.235	3.0909	0.1	582.44
5204	21.051	3.0909	0.1	621.9
5205	20.867	3.0909	0.1	661.54
5206	20.682	3.0909	0.1	701.38
5207	20.498	3.0909	0.1	741.41
5208	20.314	3.0909	0.1	781.64
5209	20.129	3.0909	0.1	822.07
5210	19.945	3.0909	0.1	862.71
5211	19.761	3.0909	0.1	903.54
5212	19.576	3.0909	0.1	944.58
5213	19.392	3.0909	0.1	985.82
5214	19.208	3.0909	0.1	1027.3
5215	19.024	3.0909	0.1	1068.9
5216	18.839	3.0909	0.1	1110.7
5217	18.655	3.0909	0.1	1152.8
5218	18.471	3.0909	0.1	1195.
5219	18.286	3.0909	0.1	1237.5
5220	18.102	3.0909	0.1	1280.2
5221	17.918	3.0909	0.1	1323.
5222	17.733	3.0909	0.1	1366.1
5223	17.549	3.0909	0.1	1409.4
5224	17.365	3.0909	0.1	1453.
5225	17.18	3.0909	0.1	1496.9
5226	16.996	3.0909	0.1	1541.
5227	16.812	3.0909	0.1	1585.5
5228	16.627	3.0909	0.1	1630.3
5229	16.443	3.0909	0.1	1675.6
5230	16.259	3.0909	0.1	1721.4
5231	16.075	3.0909	0.1	1767.9
5232	15.89	3.0909	0.1	1815.1
5233	15.706	3.0909	0.1	1863.4
5234	15.522	3.0909	0.1	1912.8
5235	15.337	3.0909	0.1	1963.7
5236	15.153	3.0909	0.1	2016.6
5237	14.969	3.0909	0.1	2071.9
5238	14.784	3.0909	0.1	2130.4
5239	14.6	3.0909	0.1	2192.8
5240	14.416	3.0909	0.1	2260.2
5241	14.231	3.0909	0.1	2334.2
5242	14.047	3.0909	0.1	2416.6
5243	13.863	3.0909	0.1	2509.7
5244	13.678	3.0909	0.1	2616.7
5245	13.494	3.0909	0.1	2741.5
5246	13.31	3.0909	0.1	2889.4
5247	13.125	3.0909	0.1	3067.1
5248	12.941	3.0909	0.1	3283.1
5249	12.757	3.0909	0.1	3548.
5250	12.573	3.0909	0.1	3874.3
5251	12.388	3.0909	0.1	4274.3
5252	12.204	3.0909	0.1	4755.5
5253	12.02	3.0909	0.1	5309.
5254	11.835	3.0909	0.1	5890.
5255	11.651	3.0909	0.1	6401.4
5256	23.816	3.2727	0.1	39.631
5257	23.631	3.2727	0.1	78.517
5258	23.447	3.2727	0.1	117.41
5259	23.263	3.2727	0.1	156.15
5260	23.078	3.2727	0.1	194.77
5261	22.894	3.2727	0.1	233.32
5262	22.71	3.2727	0.1	271.82
5263	22.525	3.2727	0.1	310.33
5264	22.341	3.2727	0.1	348.87
5265	22.157	3.2727	0.1	387.48
5266	21.973	3.2727	0.1	426.18
5267	21.788	3.2727	0.1	465.01
5268	21.604	3.2727	0.1	503.97
5269	21.42	3.2727	0.1	543.1
5270	21.235	3.2727	0.1	582.39
5271	21.051	3.2727	0.1	621.85
5272	20.867	3.2727	0.1	661.51
5273	20.682	3.2727	0.1	701.36
5274	20.498	3.2727	0.1	741.4
5275	20.314	3.2727	0.1	781.64
5276	20.129	3.2727	0.1	822.09
5277	19.945	3.2727	0.1	862.73
5278	19.761	3.2727	0.1	903.58
5279	19.576	3.2727	0.1	944.63
5280	19.392	3.2727	0.1	985.88
5281	19.208	3.2727	0.1	1027.3
5282	19.024	3.2727	0.1	1069.
5283	18.839	3.2727	0.1	1110.8
5284	18.655	3.2727	0.1	1152.9
5285	18.471	3.2727	0.1	1195.2
5286	18.286	3.2727	0.1	1237.6
5287	18.102	3.2727	0.1	1280.3
5288	17.918	3.2727	0.1	1323.2
5289	17.733	3.2727	0.1	1366.3
5290	17.549	3.2727	0.1	1409.6
5291	17.365	3.2727	0.1	1453.2
5292	17.18	3.2727	0.1	1497.
5293	16.996	3.2727	0.1	1541.2
5294	16.812	3.2727	0.1	1585.6
5295	16.627	3.2727	0.1	1630.5
5296	16.443	3.2727	0.1	1675.7
5297	16.259	3.2727	0.1	1721.5
5298	16.075	3.2727	0.1	1768.
5299	15.89	3.2727	0.1	1815.1
5300	15.706	3.2727	0.1	1863.3
5301	15.522	3.2727	0.1	1912.6
5302	15.337	3.2727	0.1	1963.4
5303	15.153	3.2727	0.1	2016.
5304	14.969	3.2727	0.1	2071.
5305	14.784	3.2727	0.1	2129.
5306	14.6	3.2727	0.1	2190.9
5307	14.416	3.2727	0.1	2257.6
5308	14.231	3.2727	0.1	2330.6
5309	14.047	3.2727	0.1	2411.6
5310	13.863	3.2727	0.1	2502.9
5311	13.678	3.2727	0.1	2607.5
5312	13.494	3.2727	0.1	2729.3
5313	13.31	3.2727	0.1	2873.1
5314	13.125	3.2727	0.1	3045.7
5315	12.941	3.2727	0.1	3255.2
5316	12.757	3.2727	0.1	3512.8
5317	12.573	3.2727	0.1	3831.7
5318	12.388	3.2727	0.1	4227.7
5319	12.204	3.2727	0.1	4715.6
5320	12.02	3.2727	0.1	5299.2
5321	11.835	3.2727	0.1	5946.9
5322	11.651	3.2727	0.1	6551.3
5323	23.816	3.4545	0.1	39.649
5324	23.631	3.4545	0.1	78.496
5325	23.447	3.4545	0.1	117.35
5326	23.263	3.4545	0.1	156.05
5327	23.078	3.4545	0.1	194.64
5328	22.894	3.4545	0.1	233.16
5329	22.71	3.4545	0.1	271.64
5330	22.525	3.4545	0.1	310.14
5331	22.341	3.4545	0.1	348.67
5332	22.157	3.4545	0.1	387.28
5333	21.973	3.4545	0.1	425.99
5334	21.788	3.4545	0.1	464.83
5335	21.604	3.4545	0.1	503.82
5336	21.42	3.4545	0.1	542.96
5337	21.235	3.4545	0.1	582.27
5338	21.051	3.4545	0.1	621.76
5339	20.867	3.4545	0.1	661.44
5340	20.682	3.4545	0.1	701.32
5341	20.498	3.4545	0.1	741.39
5342	20.314	3.4545	0.1	781.65
5343	20.129	3.4545	0.1	822.12
5344	19.945	3.4545	0.1	862.79
5345	19.761	3.4545	0.1	903.66
5346	19.576	3.4545	0.1	944.73
5347	19.392	3.4545	0.1	986.
5348	19.208	3.4545	0.1	1027.5
5349	19.024	3.4545	0.1	1069.1
5350	18.839	3.4545	0.1	1111.
5351	18.655	3.4545	0.1	1153.1
5352	18.471	3.4545	0.1	1195.4
5353	18.286	3.4545	0.1	1237.9
5354	18.102	3.4545	0.1	1280.5
5355	17.918	3.4545	0.1	1323.4
5356	17.733	3.4545	0.1	1366.6
5357	17.549	3.4545	0.1	1409.9
5358	17.365	3.4545	0.1	1453.5
5359	17.18	3.4545	0.1	1497.3
5360	16.996	3.4545	0.1	1541.5
5361	16.812	3.4545	0.1	1585.9
5362	16.627	3.4545	0.1	1630.7
5363	16.443	3.4545	0.1	1676.
5364	16.259	3.4545	0.1	1721.7
5365	16.075	3.4545	0.1	1768.1
5366	15.89	3.4545	0.1	1815.1
5367	15.706	3.4545	0.1	1863.1
5368	15.522	3.4545	0.1	1912.2
5369	15.337	3.4545	0.1	1962.6
5370	15.153	3.4545	0.1	2014.8
5371	14.969	3.4545	0.1	2069.2
5372	14.784	3.4545	0.1	2126.4
5373	14.6	3.4545	0.1	2187.1
5374	14.416	3.4545	0.1	2252.4
5375	14.231	3.4545	0.1	2323.4
5376	14.047	3.4545	0.1	2401.8
5377	13.863	3.4545	0.1	2489.7
5378	13.678	3.4545	0.1	2589.7
5379	13.494	3.4545	0.1	2705.5
5380	13.31	3.4545	0.1	2841.5
5381	13.125	3.4545	0.1	3004.
5382	12.941	3.4545	0.1	3200.9
5383	12.757	3.4545	0.1	3443.4
5384	12.573	3.4545	0.1	3746.3
5385	12.388	3.4545	0.1	4130.
5386	12.204	3.4545	0.1	4621.9
5387	12.02	3.4545	0.1	5253.1
5388	11.835	3.4545	0.1	6036.6
5389	11.651	3.4545	0.1	6865.4
5390	23.816	3.6364	0.1	39.675
5391	23.631	3.6364	0.1	78.462
5392	23.447	3.6364	0.1	117.26
5393	23.263	3.6364	0.1	155.9
5394	23.078	3.6364	0.1	194.44
5395	22.894	3.6364	0.1	232.92
5396	22.71	3.6364	0.1	271.37
5397	22.525	3.6364	0.1	309.85
5398	22.341	3.6364	0.1	348.37
5399	22.157	3.6364	0.1	386.99
5400	21.973	3.6364	0.1	425.72
5401	21.788	3.6364	0.1	464.57
5402	21.604	3.6364	0.1	503.58
5403	21.42	3.6364	0.1	542.76
5404	21.235	3.6364	0.1	582.1
5405	21.051	3.6364	0.1	621.63
5406	20.867	3.6364	0.1	661.35
5407	20.682	3.6364	0.1	701.26
5408	20.498	3.6364	0.1	741.37
5409	20.314	3.6364	0.1	781.67
5410	20.129	3.6364	0.1	822.18
5411	19.945	3.6364	0.1	862.88
5412	19.761	3.6364	0.1	903.78
5413	19.576	3.6364	0.1	944.89
5414	19.392	3.6364	0.1	986.19
5415	19.208	3.6364	0.1	1027.7
5416	19.024	3.6364	0.1	1069.4
5417	18.839	3.6364	0.1	1111.3
5418	18.655	3.6364	0.1	1153.4
5419	18.471	3.6364	0.1	1195.7
5420	18.286	3.6364	0.1	1238.2
5421	18.102	3.6364	0.1	1280.9
5422	17.918	3.6364	0.1	1323.8
5423	17.733	3.6364	0.1	1367.
5424	17.549	3.6364	0.1	1410.3
5425	17.365	3.6364	0.1	1453.9
5426	17.18	3.6364	0.1	1497.8
5427	16.996	3.6364	0.1	1541.9
5428	16.812	3.6364	0.1	1586.4
5429	16.627	3.6364	0.1	1631.2
5430	16.443	3.6364	0.1	1676.4
5431	16.259	3.6364	0.1	1722.
5432	16.075	3.6364	0.1	1768.2
5433	15.89	3.6364	0.1	1815.1
5434	15.706	3.6364	0.1	1862.8
5435	15.522	3.6364	0.1	1911.6
5436	15.337	3.6364	0.1	1961.5
5437	15.153	3.6364	0.1	2013.1
5438	14.969	3.6364	0.1	2066.6
5439	14.784	3.6364	0.1	2122.6
5440	14.6	3.6364	0.1	2181.7
5441	14.416	3.6364	0.1	2244.8
5442	14.231	3.6364	0.1	2313.
5443	14.047	3.6364	0.1	2387.7
5444	13.863	3.6364	0.1	2470.7
5445	13.678	3.6364	0.1	2564.2
5446	13.494	3.6364	0.1	2671.4
5447	13.31	3.6364	0.1	2796.4
5448	13.125	3.6364	0.1	2944.4
5449	12.941	3.6364	0.1	3123.1
5450	12.757	3.6364	0.1	3342.9
5451	12.573	3.6364	0.1	3619.3
5452	12.388	3.6364	0.1	3976.2
5453	12.204	3.6364	0.1	4452.3
5454	12.02	3.6364	0.1	5114.8
5455	11.835	3.6364	0.1	6070.9
5456	11.651	3.6364	0.1	7402.3
5457	23.816	3.8182	0.1	39.707
5458	23.631	3.8182	0.1	78.41
5459	23.447	3.8182	0.1	117.13
5460	23.263	3.8182	0.1	155.69
5461	23.078	3.8182	0.1	194.17
5462	22.894	3.8182	0.1	232.59
5463	22.71	3.8182	0.1	271.
5464	22.525	3.8182	0.1	309.45
5465	22.341	3.8182	0.1	347.98
5466	22.157	3.8182	0.1	386.6
5467	21.973	3.8182	0.1	425.35
5468	21.788	3.8182	0.1	464.24
5469	21.604	3.8182	0.1	503.29
5470	21.42	3.8182	0.1	542.5
5471	21.235	3.8182	0.1	581.9
5472	21.051	3.8182	0.1	621.47
5473	20.867	3.8182	0.1	661.24
5474	20.682	3.8182	0.1	701.2
5475	20.498	3.8182	0.1	741.36
5476	20.314	3.8182	0.1	781.71
5477	20.129	3.8182	0.1	822.26
5478	19.945	3.8182	0.1	863.01
5479	19.761	3.8182	0.1	903.96
5480	19.576	3.8182	0.1	945.1
5481	19.392	3.8182	0.1	986.45
5482	19.208	3.8182	0.1	1028.
5483	19.024	3.8182	0.1	1069.7
5484	18.839	3.8182	0.1	1111.7
5485	18.655	3.8182	0.1	1153.8
5486	18.471	3.8182	0.1	1196.2
5487	18.286	3.8182	0.1	1238.7
5488	18.102	3.8182	0.1	1281.4
5489	17.918	3.8182	0.1	1324.4
5490	17.733	3.8182	0.1	1367.6
5491	17.549	3.8182	0.1	1410.9
5492	17.365	3.8182	0.1	1454.6
5493	17.18	3.8182	0.1	1498.4
5494	16.996	3.8182	0.1	1542.6
5495	16.812	3.8182	0.1	1587.
5496	16.627	3.8182	0.1	1631.7
5497	16.443	3.8182	0.1	1676.9
5498	16.259	3.8182	0.1	1722.4
5499	16.075	3.8182	0.1	1768.5
5500	15.89	3.8182	0.1	1815.1
5501	15.706	3.8182	0.1	1862.5
5502	15.522	3.8182	0.1	1910.8
5503	15.337	3.8182	0.1	1960.1
5504	15.153	3.8182	0.1	2010.8
5505	14.969	3.8182	0.1	2063.2
5506	14.784	3.8182	0.1	2117.7
5507	14.6	3.8182	0.1	2174.8
5508	14.416	3.8182	0.1	2235.3
5509	14.231	3.8182	0.1	2299.9
5510	14.047	3.8182	0.1	2369.9
5511	13.863	3.8182	0.1	2446.7
5512	13.678	3.8182	0.1	2532.2
5513	13.494	3.8182	0.1	2628.9
5514	13.31	3.8182	0.1	2740.
5515	13.125	3.8182	0.1	2870.2
5516	12.941	3.8182	0.1	3025.9
5517	12.757	3.8182	0.1	3216.2
5518	12.573	3.8182	0.1	3455.7
5519	12.388	3.8182	0.1	3767.8
5520	12.204	3.8182	0.1	4194.
5521	12.02	3.8182	0.1	4818.4
5522	11.835	3.8182	0.1	5852.7
5523	11.651	3.8182	0.1	7831.4
5524	23.816	4.	0.1	39.744
5525	23.631	4.	0.1	78.335
5526	23.447	4.	0.1	116.95
5527	23.263	4.	0.1	155.41
5528	23.078	4.	0.1	193.8
5529	22.894	4.	0.1	232.16
5530	22.71	4.	0.1	270.53
5531	22.525	4.	0.1	308.96
5532	22.341	4.	0.1	347.48
5533	22.157	4.	0.1	386.12
5534	21.973	4.	0.1	424.9
5535	21.788	4.	0.1	463.83
5536	21.604	4.	0.1	502.93
5537	21.42	4.	0.1	542.2
5538	21.235	4.	0.1	581.66
5539	21.051	4.	0.1	621.3
5540	20.867	4.	0.1	661.13
5541	20.682	4.	0.1	701.15
5542	20.498	4.	0.1	741.36
5543	20.314	4.	0.1	781.78
5544	20.129	4.	0.1	822.38
5545	19.945	4.	0.1	863.19
5546	19.761	4.	0.1	904.19
5547	19.576	4.	0.1	945.39
5548	19.392	4.	0.1	986.78
5549	19.208	4.	0.1	1028.4
5550	19.024	4.	0.1	1070.2
5551	18.839	4.	0.1	1112.1
5552	18.655	4.	0.1	1154.3
5553	18.471	4.	0.1	1196.7
5554	18.286	4.	0.1	1239.3
5555	18.102	4.	0.1	1282.1
5556	17.918	4.	0.1	1325.1
5557	17.733	4.	0.1	1368.3
5558	17.549	4.	0.1	1411.7
5559	17.365	4.	0.1	1455.3
5560	17.18	4.	0.1	1499.2
5561	16.996	4.	0.1	1543.3
5562	16.812	4.	0.1	1587.7
5563	16.627	4.	0.1	1632.4
5564	16.443	4.	0.1	1677.5
5565	16.259	4.	0.1	1722.9
5566	16.075	4.	0.1	1768.8
5567	15.89	4.	0.1	1815.2
5568	15.706	4.	0.1	1862.2
5569	15.522	4.	0.1	1909.9
5570	15.337	4.	0.1	1958.5
5571	15.153	4.	0.1	2008.2
5572	14.969	4.	0.1	2059.3
5573	14.784	4.	0.1	2112.
5574	14.6	4.	0.1	2166.7
5575	14.416	4.	0.1	2224.
5576	14.231	4.	0.1	2284.6
5577	14.047	4.	0.1	2349.2
5578	13.863	4.	0.1	2418.9
5579	13.678	4.	0.1	2495.1
5580	13.494	4.	0.1	2579.7
5581	13.31	4.	0.1	2675.2
5582	13.125	4.	0.1	2785.
5583	12.941	4.	0.1	2914.2
5584	12.757	4.	0.1	3070.1
5585	12.573	4.	0.1	3264.4
5586	12.388	4.	0.1	3516.2
5587	12.204	4.	0.1	3859.7
5588	12.02	4.	0.1	4368.8
5589	11.835	4.	0.1	5180.3
5590	11.651	4.	0.1	7581.2
5591	23.816	4.1818	0.1	39.781
5592	23.631	4.1818	0.1	78.229
5593	23.447	4.1818	0.1	116.71
5594	23.263	4.1818	0.1	155.05
5595	23.078	4.1818	0.1	193.34
5596	22.894	4.1818	0.1	231.62
5597	22.71	4.1818	0.1	269.94
5598	22.525	4.1818	0.1	308.36
5599	22.341	4.1818	0.1	346.88
5600	22.157	4.1818	0.1	385.55
5601	21.973	4.1818	0.1	424.38
5602	21.788	4.1818	0.1	463.36
5603	21.604	4.1818	0.1	502.53
5604	21.42	4.1818	0.1	541.87
5605	21.235	4.1818	0.1	581.4
5606	21.051	4.1818	0.1	621.11
5607	20.867	4.1818	0.1	661.02
5608	20.682	4.1818	0.1	701.11
5609	20.498	4.1818	0.1	741.4
5610	20.314	4.1818	0.1	781.88
5611	20.129	4.1818	0.1	822.56
5612	19.945	4.1818	0.1	863.43
5613	19.761	4.1818	0.1	904.49
5614	19.576	4.1818	0.1	945.75
5615	19.392	4.1818	0.1	987.2
5616	19.208	4.1818	0.1	1028.8
5617	19.024	4.1818	0.1	1070.7
5618	18.839	4.1818	0.1	1112.7
5619	18.655	4.1818	0.1	1155.
5620	18.471	4.1818	0.1	1197.4
5621	18.286	4.1818	0.1	1240.
5622	18.102	4.1818	0.1	1282.8
5623	17.918	4.1818	0.1	1325.9
5624	17.733	4.1818	0.1	1369.1
5625	17.549	4.1818	0.1	1412.6
5626	17.365	4.1818	0.1	1456.2
5627	17.18	4.1818	0.1	1500.1
5628	16.996	4.1818	0.1	1544.2
5629	16.812	4.1818	0.1	1588.6
5630	16.627	4.1818	0.1	1633.3
5631	16.443	4.1818	0.1	1678.2
5632	16.259	4.1818	0.1	1723.5
5633	16.075	4.1818	0.1	1769.2
5634	15.89	4.1818	0.1	1815.2
5635	15.706	4.1818	0.1	1861.8
5636	15.522	4.1818	0.1	1908.9
5637	15.337	4.1818	0.1	1956.7
5638	15.153	4.1818	0.1	2005.3
5639	14.969	4.1818	0.1	2054.8
5640	14.784	4.1818	0.1	2105.6
5641	14.6	4.1818	0.1	2157.7
5642	14.416	4.1818	0.1	2211.6
5643	14.231	4.1818	0.1	2267.6
5644	14.047	4.1818	0.1	2326.3
5645	13.863	4.1818	0.1	2388.3
5646	13.678	4.1818	0.1	2454.5
5647	13.494	4.1818	0.1	2526.1
5648	13.31	4.1818	0.1	2604.7
5649	13.125	4.1818	0.1	2692.6
5650	12.941	4.1818	0.1	2793.2
5651	12.757	4.1818	0.1	2911.8
5652	12.573	4.1818	0.1	3056.1
5653	12.388	4.1818	0.1	3239.1
5654	12.204	4.1818	0.1	3481.6
5655	12.02	4.1818	0.1	3821.1
5656	11.835	4.1818	0.1	4342.5
5657	11.651	4.1818	0.1	5432.
5658	23.816	4.3636	0.1	39.813
5659	23.631	4.3636	0.1	78.08
5660	23.447	4.3636	0.1	116.39
5661	23.263	4.3636	0.1	154.59
5662	23.078	4.3636	0.1	192.76
5663	22.894	4.3636	0.1	230.96
5664	22.71	4.3636	0.1	269.24
5665	22.525	4.3636	0.1	307.65
5666	22.341	4.3636	0.1	346.2
5667	22.157	4.3636	0.1	384.91
5668	21.973	4.3636	0.1	423.8
5669	21.788	4.3636	0.1	462.86
5670	21.604	4.3636	0.1	502.1
5671	21.42	4.3636	0.1	541.53
5672	21.235	4.3636	0.1	581.15
5673	21.051	4.3636	0.1	620.95
5674	20.867	4.3636	0.1	660.94
5675	20.682	4.3636	0.1	701.12
5676	20.498	4.3636	0.1	741.49
5677	20.314	4.3636	0.1	782.05
5678	20.129	4.3636	0.1	822.8
5679	19.945	4.3636	0.1	863.74
5680	19.761	4.3636	0.1	904.87
5681	19.576	4.3636	0.1	946.2
5682	19.392	4.3636	0.1	987.71
5683	19.208	4.3636	0.1	1029.4
5684	19.024	4.3636	0.1	1071.3
5685	18.839	4.3636	0.1	1113.4
5686	18.655	4.3636	0.1	1155.7
5687	18.471	4.3636	0.1	1198.2
5688	18.286	4.3636	0.1	1240.9
5689	18.102	4.3636	0.1	1283.7
5690	17.918	4.3636	0.1	1326.8
5691	17.733	4.3636	0.1	1370.1
5692	17.549	4.3636	0.1	1413.6
5693	17.365	4.3636	0.1	1457.3
5694	17.18	4.3636	0.1	1501.2
5695	16.996	4.3636	0.1	1545.3
5696	16.812	4.3636	0.1	1589.7
5697	16.627	4.3636	0.1	1634.3
5698	16.443	4.3636	0.1	1679.1
5699	16.259	4.3636	0.1	1724.2
5700	16.075	4.3636	0.1	1769.6
5701	15.89	4.3636	0.1	1815.4
5702	15.706	4.3636	0.1	1861.4
5703	15.522	4.3636	0.1	1907.9
5704	15.337	4.3636	0.1	1954.8
5705	15.153	4.3636	0.1	2002.2
5706	14.969	4.3636	0.1	2050.1
5707	14.784	4.3636	0.1	2098.7
5708	14.6	4.3636	0.1	2148.1
5709	14.416	4.3636	0.1	2198.3
5710	14.231	4.3636	0.1	2249.5
5711	14.047	4.3636	0.1	2302.
5712	13.863	4.3636	0.1	2356.
5713	13.678	4.3636	0.1	2411.7
5714	13.494	4.3636	0.1	2469.8
5715	13.31	4.3636	0.1	2531.
5716	13.125	4.3636	0.1	2596.4
5717	12.941	4.3636	0.1	2667.8
5718	12.757	4.3636	0.1	2748.
5719	12.573	4.3636	0.1	2841.2
5720	12.388	4.3636	0.1	2953.9
5721	12.204	4.3636	0.1	3094.6
5722	12.02	4.3636	0.1	3271.2
5723	11.835	4.3636	0.1	3479.1
5724	11.651	4.3636	0.1	3735.1
5725	23.816	4.5455	0.1	39.832
5726	23.631	4.5455	0.1	77.87
5727	23.447	4.5455	0.1	115.97
5728	23.263	4.5455	0.1	154.
5729	23.078	4.5455	0.1	192.04
5730	22.894	4.5455	0.1	230.17
5731	22.71	4.5455	0.1	268.43
5732	22.525	4.5455	0.1	306.84
5733	22.341	4.5455	0.1	345.44
5734	22.157	4.5455	0.1	384.22
5735	21.973	4.5455	0.1	423.18
5736	21.788	4.5455	0.1	462.34
5737	21.604	4.5455	0.1	501.68
5738	21.42	4.5455	0.1	541.21
5739	21.235	4.5455	0.1	580.93
5740	21.051	4.5455	0.1	620.83
5741	20.867	4.5455	0.1	660.92
5742	20.682	4.5455	0.1	701.19
5743	20.498	4.5455	0.1	741.65
5744	20.314	4.5455	0.1	782.29
5745	20.129	4.5455	0.1	823.12
5746	19.945	4.5455	0.1	864.14
5747	19.761	4.5455	0.1	905.35
5748	19.576	4.5455	0.1	946.74
5749	19.392	4.5455	0.1	988.33
5750	19.208	4.5455	0.1	1030.1
5751	19.024	4.5455	0.1	1072.1
5752	18.839	4.5455	0.1	1114.2
5753	18.655	4.5455	0.1	1156.6
5754	18.471	4.5455	0.1	1199.1
5755	18.286	4.5455	0.1	1241.9
5756	18.102	4.5455	0.1	1284.8
5757	17.918	4.5455	0.1	1327.9
5758	17.733	4.5455	0.1	1371.2
5759	17.549	4.5455	0.1	1414.7
5760	17.365	4.5455	0.1	1458.5
5761	17.18	4.5455	0.1	1502.4
5762	16.996	4.5455	0.1	1546.5
5763	16.812	4.5455	0.1	1590.8
5764	16.627	4.5455	0.1	1635.4
5765	16.443	4.5455	0.1	1680.1
5766	16.259	4.5455	0.1	1725.
5767	16.075	4.5455	0.1	1770.2
5768	15.89	4.5455	0.1	1815.6
5769	15.706	4.5455	0.1	1861.1
5770	15.522	4.5455	0.1	1906.9
5771	15.337	4.5455	0.1	1952.9
5772	15.153	4.5455	0.1	1999.
5773	14.969	4.5455	0.1	2045.3
5774	14.784	4.5455	0.1	2091.7
5775	14.6	4.5455	0.1	2138.2
5776	14.416	4.5455	0.1	2184.7
5777	14.231	4.5455	0.1	2231.1
5778	14.047	4.5455	0.1	2277.2
5779	13.863	4.5455	0.1	2323.
5780	13.678	4.5455	0.1	2368.3
5781	13.494	4.5455	0.1	2413.
5782	13.31	4.5455	0.1	2456.8
5783	13.125	4.5455	0.1	2499.9
5784	12.941	4.5455	0.1	2542.4
5785	12.757	4.5455	0.1	2585.1
5786	12.573	4.5455	0.1	2629.
5787	12.388	4.5455	0.1	2675.7
5788	12.204	4.5455	0.1	2725.4
5789	12.02	4.5455	0.1	2775.5
5790	11.835	4.5455	0.1	2802.2
5791	11.651	4.5455	0.1	2873.
5792	23.816	4.7273	0.1	39.827
5793	23.631	4.7273	0.1	77.575
5794	23.447	4.7273	0.1	115.43
5795	23.263	4.7273	0.1	153.26
5796	23.078	4.7273	0.1	191.18
5797	22.894	4.7273	0.1	229.24
5798	22.71	4.7273	0.1	267.5
5799	22.525	4.7273	0.1	305.96
5800	22.341	4.7273	0.1	344.63
5801	22.157	4.7273	0.1	383.5
5802	21.973	4.7273	0.1	422.57
5803	21.788	4.7273	0.1	461.84
5804	21.604	4.7273	0.1	501.3
5805	21.42	4.7273	0.1	540.95
5806	21.235	4.7273	0.1	580.77
5807	21.051	4.7273	0.1	620.78
5808	20.867	4.7273	0.1	660.98
5809	20.682	4.7273	0.1	701.35
5810	20.498	4.7273	0.1	741.9
5811	20.314	4.7273	0.1	782.64
5812	20.129	4.7273	0.1	823.56
5813	19.945	4.7273	0.1	864.66
5814	19.761	4.7273	0.1	905.94
5815	19.576	4.7273	0.1	947.41
5816	19.392	4.7273	0.1	989.07
5817	19.208	4.7273	0.1	1030.9
5818	19.024	4.7273	0.1	1072.9
5819	18.839	4.7273	0.1	1115.2
5820	18.655	4.7273	0.1	1157.6
5821	18.471	4.7273	0.1	1200.2
5822	18.286	4.7273	0.1	1243.
5823	18.102	4.7273	0.1	1286.
5824	17.918	4.7273	0.1	1329.1
5825	17.733	4.7273	0.1	1372.5
5826	17.549	4.7273	0.1	1416.1
5827	17.365	4.7273	0.1	1459.8
5828	17.18	4.7273	0.1	1503.7
5829	16.996	4.7273	0.1	1547.8
5830	16.812	4.7273	0.1	1592.1
5831	16.627	4.7273	0.1	1636.6
5832	16.443	4.7273	0.1	1681.2
5833	16.259	4.7273	0.1	1726.
5834	16.075	4.7273	0.1	1770.9
5835	15.89	4.7273	0.1	1815.9
5836	15.706	4.7273	0.1	1861.
5837	15.522	4.7273	0.1	1906.
5838	15.337	4.7273	0.1	1951.1
5839	15.153	4.7273	0.1	1995.9
5840	14.969	4.7273	0.1	2040.6
5841	14.784	4.7273	0.1	2084.8
5842	14.6	4.7273	0.1	2128.4
5843	14.416	4.7273	0.1	2171.2
5844	14.231	4.7273	0.1	2212.8
5845	14.047	4.7273	0.1	2252.8
5846	13.863	4.7273	0.1	2290.6
5847	13.678	4.7273	0.1	2325.7
5848	13.494	4.7273	0.1	2357.3
5849	13.31	4.7273	0.1	2384.4
5850	13.125	4.7273	0.1	2406.2
5851	12.941	4.7273	0.1	2421.4
5852	12.757	4.7273	0.1	2429.
5853	12.573	4.7273	0.1	2427.7
5854	12.388	4.7273	0.1	2416.5
5855	12.204	4.7273	0.1	2393.1
5856	12.02	4.7273	0.1	2353.4
5857	11.835	4.7273	0.1	2291.5
5858	11.651	4.7273	0.1	2280.
5859	23.816	4.9091	0.1	39.778
5860	23.631	4.9091	0.1	77.16
5861	23.447	4.9091	0.1	114.72
5862	23.263	4.9091	0.1	152.34
5863	23.078	4.9091	0.1	190.15
5864	22.894	4.9091	0.1	228.2
5865	22.71	4.9091	0.1	266.49
5866	22.525	4.9091	0.1	305.03
5867	22.341	4.9091	0.1	343.81
5868	22.157	4.9091	0.1	382.81
5869	21.973	4.9091	0.1	422.01
5870	21.788	4.9091	0.1	461.41
5871	21.604	4.9091	0.1	501.
5872	21.42	4.9091	0.1	540.77
5873	21.235	4.9091	0.1	580.72
5874	21.051	4.9091	0.1	620.85
5875	20.867	4.9091	0.1	661.15
5876	20.682	4.9091	0.1	701.63
5877	20.498	4.9091	0.1	742.28
5878	20.314	4.9091	0.1	783.11
5879	20.129	4.9091	0.1	824.12
5880	19.945	4.9091	0.1	865.3
5881	19.761	4.9091	0.1	906.66
5882	19.576	4.9091	0.1	948.21
5883	19.392	4.9091	0.1	989.94
5884	19.208	4.9091	0.1	1031.9
5885	19.024	4.9091	0.1	1074.
5886	18.839	4.9091	0.1	1116.2
5887	18.655	4.9091	0.1	1158.7
5888	18.471	4.9091	0.1	1201.4
5889	18.286	4.9091	0.1	1244.2
5890	18.102	4.9091	0.1	1287.3
5891	17.918	4.9091	0.1	1330.5
5892	17.733	4.9091	0.1	1373.9
5893	17.549	4.9091	0.1	1417.5
5894	17.365	4.9091	0.1	1461.3
5895	17.18	4.9091	0.1	1505.2
5896	16.996	4.9091	0.1	1549.3
5897	16.812	4.9091	0.1	1593.6
5898	16.627	4.9091	0.1	1638.
5899	16.443	4.9091	0.1	1682.5
5900	16.259	4.9091	0.1	1727.1
5901	16.075	4.9091	0.1	1771.7
5902	15.89	4.9091	0.1	1816.4
5903	15.706	4.9091	0.1	1860.9
5904	15.522	4.9091	0.1	1905.3
5905	15.337	4.9091	0.1	1949.4
5906	15.153	4.9091	0.1	1993.1
5907	14.969	4.9091	0.1	2036.1
5908	14.784	4.9091	0.1	2078.2
5909	14.6	4.9091	0.1	2119.1
5910	14.416	4.9091	0.1	2158.3
5911	14.231	4.9091	0.1	2195.3
5912	14.047	4.9091	0.1	2229.3
5913	13.863	4.9091	0.1	2259.7
5914	13.678	4.9091	0.1	2285.2
5915	13.494	4.9091	0.1	2304.6
5916	13.31	4.9091	0.1	2316.2
5917	13.125	4.9091	0.1	2318.3
5918	12.941	4.9091	0.1	2308.6
5919	12.757	4.9091	0.1	2284.8
5920	12.573	4.9091	0.1	2244.3
5921	12.388	4.9091	0.1	2184.8
5922	12.204	4.9091	0.1	2105.
5923	12.02	4.9091	0.1	2005.7
5924	11.835	4.9091	0.1	1893.2
5925	11.651	4.9091	0.1	1845.4
5926	23.816	5.0909	0.1	39.654
5927	23.631	5.0909	0.1	76.569
5928	23.447	5.0909	0.1	113.79
5929	23.263	5.0909	0.1	151.23
5930	23.078	5.0909	0.1	188.98
5931	22.894	5.0909	0.1	227.06
5932	22.71	5.0909	0.1	265.46
5933	22.525	5.0909	0.1	304.13
5934	22.341	5.0909	0.1	343.06
5935	22.157	5.0909	0.1	382.21
5936	21.973	5.0909	0.1	421.56
5937	21.788	5.0909	0.1	461.11
5938	21.604	5.0909	0.1	500.85
5939	21.42	5.0909	0.1	540.75
5940	21.235	5.0909	0.1	580.83
5941	21.051	5.0909	0.1	621.07
5942	20.867	5.0909	0.1	661.49
5943	20.682	5.0909	0.1	702.07
5944	20.498	5.0909	0.1	742.82
5945	20.314	5.0909	0.1	783.74
5946	20.129	5.0909	0.1	824.83
5947	19.945	5.0909	0.1	866.1
5948	19.761	5.0909	0.1	907.54
5949	19.576	5.0909	0.1	949.16
5950	19.392	5.0909	0.1	990.96
5951	19.208	5.0909	0.1	1032.9
5952	19.024	5.0909	0.1	1075.1
5953	18.839	5.0909	0.1	1117.5
5954	18.655	5.0909	0.1	1160.
5955	18.471	5.0909	0.1	1202.7
5956	18.286	5.0909	0.1	1245.6
5957	18.102	5.0909	0.1	1288.7
5958	17.918	5.0909	0.1	1332.
5959	17.733	5.0909	0.1	1375.5
5960	17.549	5.0909	0.1	1419.1
5961	17.365	5.0909	0.1	1462.9
5962	17.18	5.0909	0.1	1506.9
5963	16.996	5.0909	0.1	1551.
5964	16.812	5.0909	0.1	1595.2
5965	16.627	5.0909	0.1	1639.5
5966	16.443	5.0909	0.1	1683.9
5967	16.259	5.0909	0.1	1728.4
5968	16.075	5.0909	0.1	1772.7
5969	15.89	5.0909	0.1	1817.
5970	15.706	5.0909	0.1	1861.1
5971	15.522	5.0909	0.1	1904.8
5972	15.337	5.0909	0.1	1948.
5973	15.153	5.0909	0.1	1990.5
5974	14.969	5.0909	0.1	2032.
5975	14.784	5.0909	0.1	2072.1
5976	14.6	5.0909	0.1	2110.4
5977	14.416	5.0909	0.1	2146.3
5978	14.231	5.0909	0.1	2179.1
5979	14.047	5.0909	0.1	2207.7
5980	13.863	5.0909	0.1	2231.2
5981	13.678	5.0909	0.1	2248.
5982	13.494	5.0909	0.1	2256.4
5983	13.31	5.0909	0.1	2254.2
5984	13.125	5.0909	0.1	2238.9
5985	12.941	5.0909	0.1	2207.5
5986	12.757	5.0909	0.1	2156.9
5987	12.573	5.0909	0.1	2083.6
5988	12.388	5.0909	0.1	1985.3
5989	12.204	5.0909	0.1	1862.
5990	12.02	5.0909	0.1	1719.5
5991	11.835	5.0909	0.1	1573.3
5992	11.651	5.0909	0.1	1498.2
5993	23.816	5.2727	0.1	39.401
5994	23.631	5.2727	0.1	75.726
5995	23.447	5.2727	0.1	112.6
5996	23.263	5.2727	0.1	149.92
5997	23.078	5.2727	0.1	187.72
5998	22.894	5.2727	0.1	225.93
5999	22.71	5.2727	0.1	264.49
6000	22.525	5.2727	0.1	303.35
6001	22.341	5.2727	0.1	342.47
6002	22.157	5.2727	0.1	381.79
6003	21.973	5.2727	0.1	421.32
6004	21.788	5.2727	0.1	461.03
6005	21.604	5.2727	0.1	500.9
6006	21.42	5.2727	0.1	540.94
6007	21.235	5.2727	0.1	581.14
6008	21.051	5.2727	0.1	621.5
6009	20.867	5.2727	0.1	662.02
6010	20.682	5.2727	0.1	702.71
6011	20.498	5.2727	0.1	743.55
6012	20.314	5.2727	0.1	784.56
6013	20.129	5.2727	0.1	825.73
6014	19.945	5.2727	0.1	867.08
6015	19.761	5.2727	0.1	908.59
6016	19.576	5.2727	0.1	950.29
6017	19.392	5.2727	0.1	992.16
6018	19.208	5.2727	0.1	1034.2
6019	19.024	5.2727	0.1	1076.4
6020	18.839	5.2727	0.1	1118.9
6021	18.655	5.2727	0.1	1161.5
6022	18.471	5.2727	0.1	1204.2
6023	18.286	5.2727	0.1	1247.2
6024	18.102	5.2727	0.1	1290.4
6025	17.918	5.2727	0.1	1333.7
6026	17.733	5.2727	0.1	1377.2
6027	17.549	5.2727	0.1	1420.9
6028	17.365	5.2727	0.1	1464.7
6029	17.18	5.2727	0.1	1508.7
6030	16.996	5.2727	0.1	1552.8
6031	16.812	5.2727	0.1	1597.
6032	16.627	5.2727	0.1	1641.3
6033	16.443	5.2727	0.1	1685.5
6034	16.259	5.2727	0.1	1729.8
6035	16.075	5.2727	0.1	1774.
6036	15.89	5.2727	0.1	1817.9
6037	15.706	5.2727	0.1	1861.5
6038	15.522	5.2727	0.1	1904.6
6039	15.337	5.2727	0.1	1947.
6040	15.153	5.2727	0.1	1988.5
6041	14.969	5.2727	0.1	2028.6
6042	14.784	5.2727	0.1	2066.9
6043	14.6	5.2727	0.1	2102.8
6044	14.416	5.2727	0.1	2135.7
6045	14.231	5.2727	0.1	2164.7
6046	14.047	5.2727	0.1	2188.6
6047	13.863	5.2727	0.1	2206.
6048	13.678	5.2727	0.1	2215.2
6049	13.494	5.2727	0.1	2214.1
6050	13.31	5.2727	0.1	2200.
6051	13.125	5.2727	0.1	2170.1
6052	12.941	5.2727	0.1	2120.8
6053	12.757	5.2727	0.1	2048.3
6054	12.573	5.2727	0.1	1948.9
6055	12.388	5.2727	0.1	1820.2
6056	12.204	5.2727	0.1	1662.8
6057	12.02	5.2727	0.1	1485.1
6058	11.835	5.2727	0.1	1308.4
6059	11.651	5.2727	0.1	1205.9
6060	23.816	5.4545	0.1	38.906
6061	23.631	5.4545	0.1	74.524
6062	23.447	5.4545	0.1	111.15
6063	23.263	5.4545	0.1	148.53
6064	23.078	5.4545	0.1	186.52
6065	22.894	5.4545	0.1	224.97
6066	22.71	5.4545	0.1	263.78
6067	22.525	5.4545	0.1	302.86
6068	22.341	5.4545	0.1	342.18
6069	22.157	5.4545	0.1	381.69
6070	21.973	5.4545	0.1	421.39
6071	21.788	5.4545	0.1	461.24
6072	21.604	5.4545	0.1	501.26
6073	21.42	5.4545	0.1	541.42
6074	21.235	5.4545	0.1	581.74
6075	21.051	5.4545	0.1	622.2
6076	20.867	5.4545	0.1	662.82
6077	20.682	5.4545	0.1	703.59
6078	20.498	5.4545	0.1	744.52
6079	20.314	5.4545	0.1	785.6
6080	20.129	5.4545	0.1	826.85
6081	19.945	5.4545	0.1	868.27
6082	19.761	5.4545	0.1	909.86
6083	19.576	5.4545	0.1	951.61
6084	19.392	5.4545	0.1	993.55
6085	19.208	5.4545	0.1	1035.7
6086	19.024	5.4545	0.1	1077.9
6087	18.839	5.4545	0.1	1120.4
6088	18.655	5.4545	0.1	1163.1
6089	18.471	5.4545	0.1	1205.9
6090	18.286	5.4545	0.1	1248.9
6091	18.102	5.4545	0.1	1292.1
6092	17.918	5.4545	0.1	1335.5
6093	17.733	5.4545	0.1	1379.1
6094	17.549	5.4545	0.1	1422.8
6095	17.365	5.4545	0.1	1466.6
6096	17.18	5.4545	0.1	1510.6
6097	16.996	5.4545	0.1	1554.7
6098	16.812	5.4545	0.1	1598.9
6099	16.627	5.4545	0.1	1643.2
6100	16.443	5.4545	0.1	1687.4
6101	16.259	5.4545	0.1	1731.5
6102	16.075	5.4545	0.1	1775.4
6103	15.89	5.4545	0.1	1819.1
6104	15.706	5.4545	0.1	1862.3
6105	15.522	5.4545	0.1	1904.9
6106	15.337	5.4545	0.1	1946.6
6107	15.153	5.4545	0.1	1987.
6108	14.969	5.4545	0.1	2025.9
6109	14.784	5.4545	0.1	2062.6
6110	14.6	5.4545	0.1	2096.6
6111	14.416	5.4545	0.1	2126.9
6112	14.231	5.4545	0.1	2152.7
6113	14.047	5.4545	0.1	2172.5
6114	13.863	5.4545	0.1	2184.8
6115	13.678	5.4545	0.1	2187.6
6116	13.494	5.4545	0.1	2178.7
6117	13.31	5.4545	0.1	2155.1
6118	13.125	5.4545	0.1	2113.5
6119	12.941	5.4545	0.1	2050.2
6120	12.757	5.4545	0.1	1961.
6121	12.573	5.4545	0.1	1842.
6122	12.388	5.4545	0.1	1690.4
6123	12.204	5.4545	0.1	1506.4
6124	12.02	5.4545	0.1	1297.7
6125	11.835	5.4545	0.1	1087.
6126	11.651	5.4545	0.1	948.24
6127	23.816	5.6364	0.1	38.078
6128	23.631	5.6364	0.1	73.011
6129	23.447	5.6364	0.1	109.76
6130	23.263	5.6364	0.1	147.5
6131	23.078	5.6364	0.1	185.86
6132	22.894	5.6364	0.1	224.64
6133	22.71	5.6364	0.1	263.71
6134	22.525	5.6364	0.1	303.02
6135	22.341	5.6364	0.1	342.53
6136	22.157	5.6364	0.1	382.21
6137	21.973	5.6364	0.1	422.04
6138	21.788	5.6364	0.1	462.02
6139	21.604	5.6364	0.1	502.15
6140	21.42	5.6364	0.1	542.42
6141	21.235	5.6364	0.1	582.82
6142	21.051	5.6364	0.1	623.37
6143	20.867	5.6364	0.1	664.07
6144	20.682	5.6364	0.1	704.91
6145	20.498	5.6364	0.1	745.9
6146	20.314	5.6364	0.1	787.05
6147	20.129	5.6364	0.1	828.36
6148	19.945	5.6364	0.1	869.84
6149	19.761	5.6364	0.1	911.48
6150	19.576	5.6364	0.1	953.29
6151	19.392	5.6364	0.1	995.27
6152	19.208	5.6364	0.1	1037.4
6153	19.024	5.6364	0.1	1079.8
6154	18.839	5.6364	0.1	1122.3
6155	18.655	5.6364	0.1	1165.
6156	18.471	5.6364	0.1	1207.9
6157	18.286	5.6364	0.1	1251.
6158	18.102	5.6364	0.1	1294.2
6159	17.918	5.6364	0.1	1337.6
6160	17.733	5.6364	0.1	1381.2
6161	17.549	5.6364	0.1	1425.
6162	17.365	5.6364	0.1	1468.9
6163	17.18	5.6364	0.1	1512.9
6164	16.996	5.6364	0.1	1557.
6165	16.812	5.6364	0.1	1601.1
6166	16.627	5.6364	0.1	1645.3
6167	16.443	5.6364	0.1	1689.5
6168	16.259	5.6364	0.1	1733.5
6169	16.075	5.6364	0.1	1777.2
6170	15.89	5.6364	0.1	1820.7
6171	15.706	5.6364	0.1	1863.5
6172	15.522	5.6364	0.1	1905.7
6173	15.337	5.6364	0.1	1946.7
6174	15.153	5.6364	0.1	1986.4
6175	14.969	5.6364	0.1	2024.3
6176	14.784	5.6364	0.1	2059.7
6177	14.6	5.6364	0.1	2092.
6178	14.416	5.6364	0.1	2120.2
6179	14.231	5.6364	0.1	2143.3
6180	14.047	5.6364	0.1	2159.9
6181	13.863	5.6364	0.1	2168.1
6182	13.678	5.6364	0.1	2166.
6183	13.494	5.6364	0.1	2151.1
6184	13.31	5.6364	0.1	2120.2
6185	13.125	5.6364	0.1	2070.
6186	12.941	5.6364	0.1	1996.6
6187	12.757	5.6364	0.1	1895.7
6188	12.573	5.6364	0.1	1763.2
6189	12.388	5.6364	0.1	1596.1
6190	12.204	5.6364	0.1	1393.2
6191	12.02	5.6364	0.1	1158.6
6192	11.835	5.6364	0.1	908.77
6193	11.651	5.6364	0.1	713.14
6194	23.816	5.8182	0.1	37.069
6195	23.631	5.8182	0.1	72.887
6196	23.447	5.8182	0.1	110.77
6197	23.263	5.8182	0.1	149.29
6198	23.078	5.8182	0.1	188.19
6199	22.894	5.8182	0.1	227.36
6200	22.71	5.8182	0.1	266.74
6201	22.525	5.8182	0.1	306.28
6202	22.341	5.8182	0.1	345.96
6203	22.157	5.8182	0.1	385.79
6204	21.973	5.8182	0.1	425.74
6205	21.788	5.8182	0.1	465.81
6206	21.604	5.8182	0.1	506.01
6207	21.42	5.8182	0.1	546.34
6208	21.235	5.8182	0.1	586.79
6209	21.051	5.8182	0.1	627.38
6210	20.867	5.8182	0.1	668.1
6211	20.682	5.8182	0.1	708.96
6212	20.498	5.8182	0.1	749.97
6213	20.314	5.8182	0.1	791.13
6214	20.129	5.8182	0.1	832.44
6215	19.945	5.8182	0.1	873.91
6216	19.761	5.8182	0.1	915.55
6217	19.576	5.8182	0.1	957.35
6218	19.392	5.8182	0.1	999.33
6219	19.208	5.8182	0.1	1041.5
6220	19.024	5.8182	0.1	1083.8
6221	18.839	5.8182	0.1	1126.3
6222	18.655	5.8182	0.1	1169.
6223	18.471	5.8182	0.1	1211.9
6224	18.286	5.8182	0.1	1254.9
6225	18.102	5.8182	0.1	1298.2
6226	17.918	5.8182	0.1	1341.6
6227	17.733	5.8182	0.1	1385.2
6228	17.549	5.8182	0.1	1428.9
6229	17.365	5.8182	0.1	1472.7
6230	17.18	5.8182	0.1	1516.7
6231	16.996	5.8182	0.1	1560.8
6232	16.812	5.8182	0.1	1604.9
6233	16.627	5.8182	0.1	1649.
6234	16.443	5.8182	0.1	1693.
6235	16.259	5.8182	0.1	1736.9
6236	16.075	5.8182	0.1	1780.5
6237	15.89	5.8182	0.1	1823.7
6238	15.706	5.8182	0.1	1866.2
6239	15.522	5.8182	0.1	1907.9
6240	15.337	5.8182	0.1	1948.5
6241	15.153	5.8182	0.1	1987.6
6242	14.969	5.8182	0.1	2024.6
6243	14.784	5.8182	0.1	2059.
6244	14.6	5.8182	0.1	2090.
6245	14.416	5.8182	0.1	2116.6
6246	14.231	5.8182	0.1	2137.8
6247	14.047	5.8182	0.1	2151.9
6248	13.863	5.8182	0.1	2157.3
6249	13.678	5.8182	0.1	2151.7
6250	13.494	5.8182	0.1	2132.6
6251	13.31	5.8182	0.1	2097.
6252	13.125	5.8182	0.1	2041.4
6253	12.941	5.8182	0.1	1961.8
6254	12.757	5.8182	0.1	1854.3
6255	12.573	5.8182	0.1	1714.8
6256	12.388	5.8182	0.1	1540.
6257	12.204	5.8182	0.1	1327.7
6258	12.02	5.8182	0.1	1078.2
6259	11.835	5.8182	0.1	795.83
6260	11.651	5.8182	0.1	513.25
6261	0.18226	0.18182	0.1	3877.9
6262	0.18226	0.36364	0.1	4486.8
6263	0.18226	0.54545	0.1	5185.6
6264	0.18226	0.72727	0.1	5718.5
6265	0.18226	0.90909	0.1	6118.5
6266	0.18226	1.0909	0.1	6419.5
6267	0.18226	1.2727	0.1	6649.9
6268	0.18226	1.4545	0.1	6828.5
6269	0.18226	1.6364	0.1	6968.1
6270	0.18226	1.8182	0.1	7077.7
6271	0.18226	2.	0.1	7163.3
6272	0.18226	2.1818	0.1	7229.4
6273	0.18226	2.3636	0.1	7279.2
6274	0.18226	2.5455	0.1	7314.8
6275	0.18226	2.7273	0.1	7337.8
6276	0.18226	2.9091	0.1	7349.1
6277	0.18226	3.0909	0.1	7349.1
6278	0.18226	3.2727	0.1	7337.8
6279	0.18226	3.4545	0.1	7314.8
6280	0.18226	3.6364	0.1	7279.2
6281	0.18226	3.8182	0.1	7229.4
6282	0.18226	4.	0.1	7163.3
6283	0.18226	4.1818	0.1	7077.7
6284	0.18226	4.3636	0.1	6968.1
6285	0.18226	4.5455	0.1	6828.5
6286	0.18226	4.7273	0.1	6649.9
6287	0.18226	4.9091	0.1	6419.5
6288	0.18226	5.0909	0.1	6118.5
6289	0.18226	5.2727	0.1	5718.5
6290	0.18226	5.4545	0.1	5185.6
6291	0.18226	5.6364	0.1	4486.8
6292	0.18226	5.8182	0.1	3877.9
6293	0.36452	0.18182	0.1	5018.3
6294	0.36452	0.36364	0.1	5153.4
6295	0.36452	0.54545	0.1	5452.6
6296	0.36452	0.72727	0.1	5783.2
6297	0.36452	0.90909	0.1	6085.6
6298	0.36452	1.0909	0.1	6342.9
6299	0.36452	1.2727	0.1	6555.2
6300	0.36452	1.4545	0.1	6728.3
6301	0.36452	1.6364	0.1	6868.4
6302	0.36452	1.8182	0.1	6981.1
6303	0.36452	2.	0.1	7070.9
6304	0.36452	2.1818	0.1	7141.1
6305	0.36452	2.3636	0.1	7194.5
6306	0.36452	2.5455	0.1	7233.
6307	0.36452	2.7273	0.1	7258.
6308	0.36452	2.9091	0.1	7270.3
6309	0.36452	3.0909	0.1	7270.3
6310	0.36452	3.2727	0.1	7258.
6311	0.36452	3.4545	0.1	7233.
6312	0.36452	3.6364	0.1	7194.5
6313	0.36452	3.8182	0.1	7141.1
6314	0.36452	4.	0.1	7070.9
6315	0.36452	4.1818	0.1	6981.1
6316	0.36452	4.3636	0.1	6868.4
6317	0.36452	4.5455	0.1	6728.3
6318	0.36452	4.7273	0.1	6555.2
6319	0.36452	4.9091	0.1	6342.8
6320	0.36452	5.0909	0.1	6085.6
6321	0.36452	5.2727	0.1	5783.2
6322	0.36452	5.4545	0.1	5452.6
6323	0.36452	5.6364	0.1	5153.4
6324	0.36452	5.8182	0.1	5018.3
6325	0.54677	0.18182	0.1	5517.9
6326	0.54677	0.36364	0.1	5515.2
6327	0.54677	0.54545	0.1	5630.9
6328	0.54677	0.72727	0.1	5800.2
6329	0.54677	0.90909	0.1	5988.9
6330	0.54677	1.0909	0.1	6173.
6331	0.54677	1.2727	0.1	6340.3
6332	0.54677	1.4545	0.1	6486.1
6333	0.54677	1.6364	0.1	6610.
6334	0.54677	1.8182	0.1	6713.2
6335	0.54677	2.	0.1	6797.6
6336	0.54677	2.1818	0.1	6864.9
6337	0.54677	2.3636	0.1	6916.9
6338	0.54677	2.5455	0.1	6954.7
6339	0.54677	2.7273	0.1	6979.4
6340	0.54677	2.9091	0.1	6991.6
6341	0.54677	3.0909	0.1	6991.6
6342	0.54677	3.2727	0.1	6979.4
6343	0.54677	3.4545	0.1	6954.7
6344	0.54677	3.6364	0.1	6916.9
6345	0.54677	3.8182	0.1	6864.9
6346	0.54677	4.	0.1	6797.6
6347	0.54677	4.1818	0.1	6713.2
6348	0.54677	4.3636	0.1	6610.
6349	0.54677	4.5455	0.1	6486.1
6350	0.54677	4.7273	0.1	6340.3
6351	0.54677	4.9091	0.1	6173.
6352	0.54677	5.0909	0.1	5988.9
6353	0.54677	5.2727	0.1	5800.2
6354	0.54677	5.4545	0.1	5630.9
6355	0.54677	5.6364	0.1	5515.2
6356	0.54677	5.8182	0.1	5517.9
6357	0.72903	0.18182	0.1	5805.
6358	0.72903	0.36364	0.1	5763.4
6359	0.72903	0.54545	0.1	5803.4
6360	0.72903	0.72727	0.1	5885.2
6361	0.72903	0.90909	0.1	5994.
6362	0.72903	1.0909	0.1	6114.6
6363	0.72903	1.2727	0.1	6235.3
6364	0.72903	1.4545	0.1	6348.4
6365	0.72903	1.6364	0.1	6449.9
6366	0.72903	1.8182	0.1	6538.
6367	0.72903	2.	0.1	6612.3
6368	0.72903	2.1818	0.1	6673.1
6369	0.72903	2.3636	0.1	6720.7
6370	0.72903	2.5455	0.1	6755.9
6371	0.72903	2.7273	0.1	6779.1
6372	0.72903	2.9091	0.1	6790.5
6373	0.72903	3.0909	0.1	6790.5
6374	0.72903	3.2727	0.1	6779.1
6375	0.72903	3.4545	0.1	6755.9
6376	0.72903	3.6364	0.1	6720.7
6377	0.72903	3.8182	0.1	6673.1
6378	0.72903	4.	0.1	6612.3
6379	0.72903	4.1818	0.1	6538.
6380	0.72903	4.3636	0.1	6449.9
6381	0.72903	4.5455	0.1	6348.4
6382	0.72903	4.7273	0.1	6235.3
6383	0.72903	4.9091	0.1	6114.6
6384	0.72903	5.0909	0.1	5994.
6385	0.72903	5.2727	0.1	5885.2
6386	0.72903	5.4545	0.1	5803.4
6387	0.72903	5.6364	0.1	5763.4
6388	0.72903	5.8182	0.1	5805.
6389	0.91129	0.18182	0.1	5960.2
6390	0.91129	0.36364	0.1	5904.2
6391	0.91129	0.54545	0.1	5907.3
6392	0.91129	0.72727	0.1	5940.8
6393	0.91129	0.90909	0.1	5998.2
6394	0.91129	1.0909	0.1	6071.3
6395	0.91129	1.2727	0.1	6152.
6396	0.91129	1.4545	0.1	6233.4
6397	0.91129	1.6364	0.1	6310.9
6398	0.91129	1.8182	0.1	6381.2
6399	0.91129	2.	0.1	6442.5
6400	0.91129	2.1818	0.1	6494.
6401	0.91129	2.3636	0.1	6535.2
6402	0.91129	2.5455	0.1	6566.1
6403	0.91129	2.7273	0.1	6586.6
6404	0.91129	2.9091	0.1	6596.8
6405	0.91129	3.0909	0.1	6596.8
6406	0.91129	3.2727	0.1	6586.6
6407	0.91129	3.4545	0.1	6566.1
6408	0.91129	3.6364	0.1	6535.2
6409	0.91129	3.8182	0.1	6494.
6410	0.91129	4.	0.1	6442.5
6411	0.91129	4.1818	0.1	6381.2
6412	0.91129	4.3636	0.1	6310.9
6413	0.91129	4.5455	0.1	6233.4
6414	0.91129	4.7273	0.1	6152.
6415	0.91129	4.9091	0.1	6071.3
6416	0.91129	5.0909	0.1	5998.2
6417	0.91129	5.2727	0.1	5940.8
6418	0.91129	5.4545	0.1	5907.3
6419	0.91129	5.6364	0.1	5904.2
6420	0.91129	5.8182	0.1	5960.2
6421	1.0935	0.18182	0.1	6041.7
6422	1.0935	0.36364	0.1	5982.5
6423	1.0935	0.54545	0.1	5967.6
6424	1.0935	0.72727	0.1	5974.3
6425	1.0935	0.90909	0.1	5999.8
6426	1.0935	1.0909	0.1	6040.
6427	1.0935	1.2727	0.1	6090.
6428	1.0935	1.4545	0.1	6144.8
6429	1.0935	1.6364	0.1	6200.2
6430	1.0935	1.8182	0.1	6252.9
6431	1.0935	2.	0.1	6300.6
6432	1.0935	2.1818	0.1	6341.8
6433	1.0935	2.3636	0.1	6375.6
6434	1.0935	2.5455	0.1	6401.2
6435	1.0935	2.7273	0.1	6418.4
6436	1.0935	2.9091	0.1	6427.1
6437	1.0935	3.0909	0.1	6427.1
6438	1.0935	3.2727	0.1	6418.4
6439	1.0935	3.4545	0.1	6401.2
6440	1.0935	3.6364	0.1	6375.6
6441	1.0935	3.8182	0.1	6341.8
6442	1.0935	4.	0.1	6300.6
6443	1.0935	4.1818	0.1	6252.9
6444	1.0935	4.3636	0.1	6200.2
6445	1.0935	4.5455	0.1	6144.8
6446	1.0935	4.7273	0.1	6090.
6447	1.0935	4.9091	0.1	6040.
6448	1.0935	5.0909	0.1	5999.8
6449	1.0935	5.2727	0.1	5974.3
6450	1.0935	5.4545	0.1	5967.6
6451	1.0935	5.6364	0.1	5982.5
6452	1.0935	5.8182	0.1	6041.7
6453	1.2758	0.18182	0.1	6075.2
6454	1.2758	0.36364	0.1	6016.9
6455	1.2758	0.54545	0.1	5992.5
6456	1.2758	0.72727	0.1	5983.9
6457	1.2758	0.90909	0.1	5989.5
6458	1.2758	1.0909	0.1	6007.5
6459	1.2758	1.2727	0.1	6035.
6460	1.2758	1.4545	0.1	6068.8
6461	1.2758	1.6364	0.1	6105.5
6462	1.2758	1.8182	0.1	6142.5
6463	1.2758	2.	0.1	6177.4
6464	1.2758	2.1818	0.1	6208.5
6465	1.2758	2.3636	0.1	6234.5
6466	1.2758	2.5455	0.1	6254.7
6467	1.2758	2.7273	0.1	6268.4
6468	1.2758	2.9091	0.1	6275.3
6469	1.2758	3.0909	0.1	6275.3
6470	1.2758	3.2727	0.1	6268.4
6471	1.2758	3.4545	0.1	6254.7
6472	1.2758	3.6364	0.1	6234.5
6473	1.2758	3.8182	0.1	6208.5
6474	1.2758	4.	0.1	6177.4
6475	1.2758	4.1818	0.1	6142.5
6476	1.2758	4.3636	0.1	6105.5
6477	1.2758	4.5455	0.1	6068.8
6478	1.2758	4.7273	0.1	6035.
6479	1.2758	4.9091	0.1	6007.5
6480	1.2758	5.0909	0.1	5989.5
6481	1.2758	5.2727	0.1	5983.9
6482	1.2758	5.4545	0.1	5992.5
6483	1.2758	5.6364	0.1	6016.9
6484	1.2758	5.8182	0.1	6075.2
6485	1.4581	0.18182	0.1	6077.2
6486	1.4581	0.36364	0.1	6021.5
6487	1.4581	0.54545	0.1	5992.5
6488	1.4581	0.72727	0.1	5974.8
6489	1.4581	0.90909	0.1	5968.
6490	1.4581	1.0909	0.1	5971.2
6491	1.4581	1.2727	0.1	5982.7
6492	1.4581	1.4545	0.1	6000.5
6493	1.4581	1.6364	0.1	6022.4
6494	1.4581	1.8182	0.1	6046.1
6495	1.4581	2.	0.1	6069.7
6496	1.4581	2.1818	0.1	6091.5
6497	1.4581	2.3636	0.1	6110.3
6498	1.4581	2.5455	0.1	6125.2
6499	1.4581	2.7273	0.1	6135.5
6500	1.4581	2.9091	0.1	6140.7
6501	1.4581	3.0909	0.1	6140.7
6502	1.4581	3.2727	0.1	6135.5
6503	1.4581	3.4545	0.1	6125.2
6504	1.4581	3.6364	0.1	6110.3
6505	1.4581	3.8182	0.1	6091.5
6506	1.4581	4.	0.1	6069.7
6507	1.4581	4.1818	0.1	6046.1
6508	1.4581	4.3636	0.1	6022.4
6509	1.4581	4.5455	0.1	6000.5
6510	1.4581	4.7273	0.1	5982.7
6511	1.4581	4.9091	0.1	5971.2
6512	1.4581	5.0909	0.1	5968.
6513	1.4581	5.2727	0.1	5974.8
6514	1.4581	5.4545	0.1	5992.4
6515	1.4581	5.6364	0.1	6021.5
6516	1.4581	5.8182	0.1	6077.2
6517	1.6403	0.18182	0.1	6057.5
6518	1.6403	0.36364	0.1	6005.2
6519	1.6403	0.54545	0.1	5973.9
6520	1.6403	0.72727	0.1	5951.1
6521	1.6403	0.90909	0.1	5936.5
6522	1.6403	1.0909	0.1	5929.8
6523	1.6403	1.2727	0.1	5930.1
6524	1.6403	1.4545	0.1	5936.2
6525	1.6403	1.6364	0.1	5946.6
6526	1.6403	1.8182	0.1	5959.7
6527	1.6403	2.	0.1	5973.8
6528	1.6403	2.1818	0.1	5987.7
6529	1.6403	2.3636	0.1	6000.1
6530	1.6403	2.5455	0.1	6010.1
6531	1.6403	2.7273	0.1	6017.2
6532	1.6403	2.9091	0.1	6020.8
6533	1.6403	3.0909	0.1	6020.8
6534	1.6403	3.2727	0.1	6017.2
6535	1.6403	3.4545	0.1	6010.1
6536	1.6403	3.6364	0.1	6000.1
6537	1.6403	3.8182	0.1	5987.6
6538	1.6403	4.	0.1	5973.8
6539	1.6403	4.1818	0.1	5959.7
6540	1.6403	4.3636	0.1	5946.6
6541	1.6403	4.5455	0.1	5936.2
6542	1.6403	4.7273	0.1	5930.1
6543	1.6403	4.9091	0.1	5929.8
6544	1.6403	5.0909	0.1	5936.5
6545	1.6403	5.2727	0.1	5951.1
6546	1.6403	5.4545	0.1	5973.9
6547	1.6403	5.6364	0.1	6005.2
6548	1.6403	5.8182	0.1	6057.5
6549	1.8226	0.18182	0.1	6022.8
6550	1.8226	0.36364	0.1	5974.
6551	1.8226	0.54545	0.1	5942.
6552	1.8226	0.72727	0.1	5916.3
6553	1.8226	0.90909	0.1	5896.9
6554	1.8226	1.0909	0.1	5883.7
6555	1.8226	1.2727	0.1	5876.2
6556	1.8226	1.4545	0.1	5873.9
6557	1.8226	1.6364	0.1	5875.7
6558	1.8226	1.8182	0.1	5880.5
6559	1.8226	2.	0.1	5887.
6560	1.8226	2.1818	0.1	5894.3
6561	1.8226	2.3636	0.1	5901.3
6562	1.8226	2.5455	0.1	5907.2
6563	1.8226	2.7273	0.1	5911.5
6564	1.8226	2.9091	0.1	5913.7
6565	1.8226	3.0909	0.1	5913.7
6566	1.8226	3.2727	0.1	5911.5
6567	1.8226	3.4545	0.1	5907.2
6568	1.8226	3.6364	0.1	5901.3
6569	1.8226	3.8182	0.1	5894.3
6570	1.8226	4.	0.1	5887.
6571	1.8226	4.1818	0.1	5880.5
6572	1.8226	4.3636	0.1	5875.7
6573	1.8226	4.5455	0.1	5873.9
6574	1.8226	4.7273	0.1	5876.2
6575	1.8226	4.9091	0.1	5883.7
6576	1.8226	5.0909	0.1	5896.9
6577	1.8226	5.2727	0.1	5916.3
6578	1.8226	5.4545	0.1	5942.
6579	1.8226	5.6364	0.1	5974.
6580	1.8226	5.8182	0.1	6022.8
6581	2.0048	0.18182	0.1	5977.5
6582	2.0048	0.36364	0.1	5932.2
6583	2.0048	0.54545	0.1	5900.3
6584	2.0048	0.72727	0.1	5873.2
6585	2.0048	0.90909	0.1	5850.9
6586	2.0048	1.0909	0.1	5833.5
6587	2.0048	1.2727	0.1	5820.9
6588	2.0048	1.4545	0.1	5812.6
6589	2.0048	1.6364	0.1	5808.1
6590	2.0048	1.8182	0.1	5806.6
6591	2.0048	2.	0.1	5807.2
6592	2.0048	2.1818	0.1	5809.2
6593	2.0048	2.3636	0.1	5811.8
6594	2.0048	2.5455	0.1	5814.4
6595	2.0048	2.7273	0.1	5816.4
6596	2.0048	2.9091	0.1	5817.4
6597	2.0048	3.0909	0.1	5817.4
6598	2.0048	3.2727	0.1	5816.4
6599	2.0048	3.4545	0.1	5814.4
6600	2.0048	3.6364	0.1	5811.8
6601	2.0048	3.8182	0.1	5809.2
6602	2.0048	4.	0.1	5807.2
6603	2.0048	4.1818	0.1	5806.6
6604	2.0048	4.3636	0.1	5808.1
6605	2.0048	4.5455	0.1	5812.6
6606	2.0048	4.7273	0.1	5820.9
6607	2.0048	4.9091	0.1	5833.5
6608	2.0048	5.0909	0.1	5850.9
6609	2.0048	5.2727	0.1	5873.2
6610	2.0048	5.4545	0.1	5900.3
6611	2.0048	5.6364	0.1	5932.2
6612	2.0048	5.8182	0.1	5977.5
6613	2.1871	0.18182	0.1	5924.7
6614	2.1871	0.36364	0.1	5882.7
6615	2.1871	0.54545	0.1	5851.5
6616	2.1871	0.72727	0.1	5824.
6617	2.1871	0.90909	0.1	5800.2
6618	2.1871	1.0909	0.1	5780.2
6619	2.1871	1.2727	0.1	5764.1
6620	2.1871	1.4545	0.1	5751.7
6621	2.1871	1.6364	0.1	5742.7
6622	2.1871	1.8182	0.1	5736.6
6623	2.1871	2.	0.1	5732.9
6624	2.1871	2.1818	0.1	5730.8
6625	2.1871	2.3636	0.1	5730.
6626	2.1871	2.5455	0.1	5729.9
6627	2.1871	2.7273	0.1	5730.
6628	2.1871	2.9091	0.1	5730.1
6629	2.1871	3.0909	0.1	5730.1
6630	2.1871	3.2727	0.1	5730.
6631	2.1871	3.4545	0.1	5729.9
6632	2.1871	3.6364	0.1	5730.
6633	2.1871	3.8182	0.1	5730.8
6634	2.1871	4.	0.1	5732.9
6635	2.1871	4.1818	0.1	5736.6
6636	2.1871	4.3636	0.1	5742.7
6637	2.1871	4.5455	0.1	5751.7
6638	2.1871	4.7273	0.1	5764.1
6639	2.1871	4.9091	0.1	5780.2
6640	2.1871	5.0909	0.1	5800.2
6641	2.1871	5.2727	0.1	5824.
6642	2.1871	5.4545	0.1	5851.5
6643	2.1871	5.6364	0.1	5882.7
6644	2.1871	5.8182	0.1	5924.7
6645	2.3694	0.18182	0.1	5866.7
6646	2.3694	0.36364	0.1	5827.8
6647	2.3694	0.54545	0.1	5797.7
6648	2.3694	0.72727	0.1	5770.3
6649	2.3694	0.90909	0.1	5745.8
6650	2.3694	1.0909	0.1	5724.4
6651	2.3694	1.2727	0.1	5706.1
6652	2.3694	1.4545	0.1	5691.1
6653	2.3694	1.6364	0.1	5679.
6654	2.3694	1.8182	0.1	5669.7
6655	2.3694	2.	0.1	5662.7
6656	2.3694	2.1818	0.1	5657.7
6657	2.3694	2.3636	0.1	5654.3
6658	2.3694	2.5455	0.1	5652.1
6659	2.3694	2.7273	0.1	5650.7
6660	2.3694	2.9091	0.1	5650.2
6661	2.3694	3.0909	0.1	5650.2
6662	2.3694	3.2727	0.1	5650.7
6663	2.3694	3.4545	0.1	5652.1
6664	2.3694	3.6364	0.1	5654.3
6665	2.3694	3.8182	0.1	5657.7
6666	2.3694	4.	0.1	5662.7
6667	2.3694	4.1818	0.1	5669.7
6668	2.3694	4.3636	0.1	5679.
6669	2.3694	4.5455	0.1	5691.1
6670	2.3694	4.7273	0.1	5706.1
6671	2.3694	4.9091	0.1	5724.4
6672	2.3694	5.0909	0.1	5745.8
6673	2.3694	5.2727	0.1	5770.3
6674	2.3694	5.4545	0.1	5797.7
6675	2.3694	5.6364	0.1	5827.8
6676	2.3694	5.8182	0.1	5866.7
6677	2.5516	0.18182	0.1	5805.
6678	2.5516	0.36364	0.1	5769.1
6679	2.5516	0.54545	0.1	5740.2
6680	2.5516	0.72727	0.1	5713.4
6681	2.5516	0.90909	0.1	5688.8
6682	2.5516	1.0909	0.1	5666.8
6683	2.5516	1.2727	0.1	5647.4
6684	2.5516	1.4545	0.1	5630.6
6685	2.5516	1.6364	0.1	5616.6
6686	2.5516	1.8182	0.1	5605.
6687	2.5516	2.	0.1	5595.8
6688	2.5516	2.1818	0.1	5588.7
6689	2.5516	2.3636	0.1	5583.4
6690	2.5516	2.5455	0.1	5579.7
6691	2.5516	2.7273	0.1	5577.3
6692	2.5516	2.9091	0.1	5576.2
6693	2.5516	3.0909	0.1	5576.2
6694	2.5516	3.2727	0.1	5577.3
6695	2.5516	3.4545	0.1	5579.7
6696	2.5516	3.6364	0.1	5583.4
6697	2.5516	3.8182	0.1	5588.7
6698	2.5516	4.	0.1	5595.8
6699	2.5516	4.1818	0.1	5605.
6700	2.5516	4.3636	0.1	5616.6
6701	2.5516	4.5455	0.1	5630.6
6702	2.5516	4.7273	0.1	5647.4
6703	2.5516	4.9091	0.1	5666.8
6704	2.5516	5.0909	0.1	5688.8
6705	2.5516	5.2727	0.1	5713.4
6706	2.5516	5.4545	0.1	5740.2
6707	2.5516	5.6364	0.1	5769.1
6708	2.5516	5.8182	0.1	5805.
6709	2.7339	0.18182	0.1	5741.
6710	2.7339	0.36364	0.1	5707.7
6711	2.7339	0.54545	0.1	5680.2
6712	2.7339	0.72727	0.1	5654.2
6713	2.7339	0.90909	0.1	5630.1
6714	2.7339	1.0909	0.1	5608.
6715	2.7339	1.2727	0.1	5588.
6716	2.7339	1.4545	0.1	5570.4
6717	2.7339	1.6364	0.1	5555.2
6718	2.7339	1.8182	0.1	5542.2
6719	2.7339	2.	0.1	5531.6
6720	2.7339	2.1818	0.1	5523.
6721	2.7339	2.3636	0.1	5516.4
6722	2.7339	2.5455	0.1	5511.6
6723	2.7339	2.7273	0.1	5508.5
6724	2.7339	2.9091	0.1	5507.
6725	2.7339	3.0909	0.1	5507.
6726	2.7339	3.2727	0.1	5508.5
6727	2.7339	3.4545	0.1	5511.6
6728	2.7339	3.6364	0.1	5516.4
6729	2.7339	3.8182	0.1	5523.
6730	2.7339	4.	0.1	5531.6
6731	2.7339	4.1818	0.1	5542.2
6732	2.7339	4.3636	0.1	5555.2
6733	2.7339	4.5455	0.1	5570.4
6734	2.7339	4.7273	0.1	5588.
6735	2.7339	4.9091	0.1	5608.
6736	2.7339	5.0909	0.1	5630.1
6737	2.7339	5.2727	0.1	5654.2
6738	2.7339	5.4545	0.1	5680.2
6739	2.7339	5.6364	0.1	5707.7
6740	2.7339	5.8182	0.1	5741.
6741	2.9161	0.18182	0.1	5675.3
6742	2.9161	0.36364	0.1	5644.6
6743	2.9161	0.54545	0.1	5618.5
6744	2.9161	0.72727	0.1	5593.6
6745	2.9161	0.90909	0.1	5570.1
6746	2.9161	1.0909	0.1	5548.3
6747	2.9161	1.2727	0.1	5528.4
6748	2.9161	1.4545	0.1	5510.4
6749	2.9161	1.6364	0.1	5494.6
6750	2.9161	1.8182	0.1	5480.9
6751	2.9161	2.	0.1	5469.4
6752	2.9161	2.1818	0.1	5459.9
6753	2.9161	2.3636	0.1	5452.5
6754	2.9161	2.5455	0.1	5447.
6755	2.9161	2.7273	0.1	5443.4
6756	2.9161	2.9091	0.1	5441.6
6757	2.9161	3.0909	0.1	5441.6
6758	2.9161	3.2727	0.1	5443.4
6759	2.9161	3.4545	0.1	5447.
6760	2.9161	3.6364	0.1	5452.5
6761	2.9161	3.8182	0.1	5459.9
6762	2.9161	4.	0.1	5469.4
6763	2.9161	4.1818	0.1	5480.9
6764	2.9161	4.3636	0.1	5494.6
6765	2.9161	4.5455	0.1	5510.4
6766	2.9161	4.7273	0.1	5528.4
6767	2.9161	4.9091	0.1	5548.3
6768	2.9161	5.0909	0.1	5570.1
6769	2.9161	5.2727	0.1	5593.6
6770	2.9161	5.4545	0.1	5618.5
6771	2.9161	5.6364	0.1	5644.6
6772	2.9161	5.8182	0.1	5675.3
6773	3.0984	0.18182	0.1	5608.7
6774	3.0984	0.36364	0.1	5580.4
6775	3.0984	0.54545	0.1	5555.7
6776	3.0984	0.72727	0.1	5531.9
6777	3.0984	0.90909	0.1	5509.4
6778	3.0984	1.0909	0.1	5488.2
6779	3.0984	1.2727	0.1	5468.6
6780	3.0984	1.4545	0.1	5450.7
6781	3.0984	1.6364	0.1	5434.7
6782	3.0984	1.8182	0.1	5420.8
6783	3.0984	2.	0.1	5408.8
6784	3.0984	2.1818	0.1	5398.9
6785	3.0984	2.3636	0.1	5391.
6786	3.0984	2.5455	0.1	5385.1
6787	3.0984	2.7273	0.1	5381.2
6788	3.0984	2.9091	0.1	5379.3
6789	3.0984	3.0909	0.1	5379.3
6790	3.0984	3.2727	0.1	5381.2
6791	3.0984	3.4545	0.1	5385.1
6792	3.0984	3.6364	0.1	5391.
6793	3.0984	3.8182	0.1	5398.9
6794	3.0984	4.	0.1	5408.8
6795	3.0984	4.1818	0.1	5420.8
6796	3.0984	4.3636	0.1	5434.7
6797	3.0984	4.5455	0.1	5450.7
6798	3.0984	4.7273	0.1	5468.6
6799	3.0984	4.9091	0.1	5488.2
6800	3.0984	5.0909	0.1	5509.4
6801	3.0984	5.2727	0.1	5531.9
6802	3.0984	5.4545	0.1	5555.7
6803	3.0984	5.6364	0.1	5580.4
6804	3.0984	5.8182	0.1	5608.7
6805	3.2806	0.18182	0.1	5541.7
6806	3.2806	0.36364	0.1	5515.5
6807	3.2806	0.54545	0.1	5492.3
6808	3.2806	0.72727	0.1	5469.7
6809	3.2806	0.90909	0.1	5448.2
6810	3.2806	1.0909	0.1	5427.8
6811	3.2806	1.2727	0.1	5408.8
6812	3.2806	1.4545	0.1	5391.3
6813	3.2806	1.6364	0.1	5375.5
6814	3.2806	1.8182	0.1	5361.6
6815	3.2806	2.	0.1	5349.5
6816	3.2806	2.1818	0.1	5339.5
6817	3.2806	2.3636	0.1	5331.4
6818	3.2806	2.5455	0.1	5325.4
6819	3.2806	2.7273	0.1	5321.3
6820	3.2806	2.9091	0.1	5319.3
6821	3.2806	3.0909	0.1	5319.3
6822	3.2806	3.2727	0.1	5321.3
6823	3.2806	3.4545	0.1	5325.4
6824	3.2806	3.6364	0.1	5331.4
6825	3.2806	3.8182	0.1	5339.5
6826	3.2806	4.	0.1	5349.5
6827	3.2806	4.1818	0.1	5361.6
6828	3.2806	4.3636	0.1	5375.5
6829	3.2806	4.5455	0.1	5391.3
6830	3.2806	4.7273	0.1	5408.8
6831	3.2806	4.9091	0.1	5427.8
6832	3.2806	5.0909	0.1	5448.2
6833	3.2806	5.2727	0.1	5469.7
6834	3.2806	5.4545	0.1	5492.3
6835	3.2806	5.6364	0.1	5515.5
6836	3.2806	5.8182	0.1	5541.7
6837	3.4629	0.18182	0.1	5474.6
6838	3.4629	0.36364	0.1	5450.4
6839	3.4629	0.54545	0.1	5428.6
6840	3.4629	0.72727	0.1	5407.3
6841	3.4629	0.90909	0.1	5386.8
6842	3.4629	1.0909	0.1	5367.4
6843	3.4629	1.2727	0.1	5349.1
6844	3.4629	1.4545	0.1	5332.2
6845	3.4629	1.6364	0.1	5316.9
6846	3.4629	1.8182	0.1	5303.2
6847	3.4629	2.	0.1	5291.3
6848	3.4629	2.1818	0.1	5281.3
6849	3.4629	2.3636	0.1	5273.3
6850	3.4629	2.5455	0.1	5267.2
6851	3.4629	2.7273	0.1	5263.2
6852	3.4629	2.9091	0.1	5261.1
6853	3.4629	3.0909	0.1	5261.1
6854	3.4629	3.2727	0.1	5263.2
6855	3.4629	3.4545	0.1	5267.2
6856	3.4629	3.6364	0.1	5273.3
6857	3.4629	3.8182	0.1	5281.3
6858	3.4629	4.	0.1	5291.3
6859	3.4629	4.1818	0.1	5303.2
6860	3.4629	4.3636	0.1	5316.9
6861	3.4629	4.5455	0.1	5332.2
6862	3.4629	4.7273	0.1	5349.1
6863	3.4629	4.9091	0.1	5367.4
6864	3.4629	5.0909	0.1	5386.8
6865	3.4629	5.2727	0.1	5407.3
6866	3.4629	5.4545	0.1	5428.6
6867	3.4629	5.6364	0.1	5450.4
6868	3.4629	5.8182	0.1	5474.6
6869	3.6452	0.18182	0.1	5407.7
6870	3.6452	0.36364	0.1	5385.3
6871	3.6452	0.54545	0.1	5364.9
6872	3.6452	0.72727	0.1	5344.8
6873	3.6452	0.90909	0.1	5325.5
6874	3.6452	1.0909	0.1	5307.
6875	3.6452	1.2727	0.1	5289.6
6876	3.6452	1.4545	0.1	5273.4
6877	3.6452	1.6364	0.1	5258.7
6878	3.6452	1.8182	0.1	5245.5
6879	3.6452	2.	0.1	5233.9
6880	3.6452	2.1818	0.1	5224.2
6881	3.6452	2.3636	0.1	5216.3
6882	3.6452	2.5455	0.1	5210.4
6883	3.6452	2.7273	0.1	5206.4
6884	3.6452	2.9091	0.1	5204.4
6885	3.6452	3.0909	0.1	5204.4
6886	3.6452	3.2727	0.1	5206.4
6887	3.6452	3.4545	0.1	5210.4
6888	3.6452	3.6364	0.1	5216.3
6889	3.6452	3.8182	0.1	5224.2
6890	3.6452	4.	0.1	5233.9
6891	3.6452	4.1818	0.1	5245.5
6892	3.6452	4.3636	0.1	5258.7
6893	3.6452	4.5455	0.1	5273.4
6894	3.6452	4.7273	0.1	5289.6
6895	3.6452	4.9091	0.1	5307.
6896	3.6452	5.0909	0.1	5325.5
6897	3.6452	5.2727	0.1	5344.8
6898	3.6452	5.4545	0.1	5364.9
6899	3.6452	5.6364	0.1	5385.3
6900	3.6452	5.8182	0.1	5407.7
6901	3.8274	0.18182	0.1	5341.1
6902	3.8274	0.36364	0.1	5320.4
6903	3.8274	0.54545	0.1	5301.3
6904	3.8274	0.72727	0.1	5282.5
6905	3.8274	0.90909	0.1	5264.3
6906	3.8274	1.0909	0.1	5246.9
6907	3.8274	1.2727	0.1	5230.4
6908	3.8274	1.4545	0.1	5215.
6909	3.8274	1.6364	0.1	5200.9
6910	3.8274	1.8182	0.1	5188.3
6911	3.8274	2.	0.1	5177.2
6912	3.8274	2.1818	0.1	5167.9
6913	3.8274	2.3636	0.1	5160.2
6914	3.8274	2.5455	0.1	5154.5
6915	3.8274	2.7273	0.1	5150.6
6916	3.8274	2.9091	0.1	5148.6
6917	3.8274	3.0909	0.1	5148.6
6918	3.8274	3.2727	0.1	5150.6
6919	3.8274	3.4545	0.1	5154.5
6920	3.8274	3.6364	0.1	5160.2
6921	3.8274	3.8182	0.1	5167.9
6922	3.8274	4.	0.1	5177.2
6923	3.8274	4.1818	0.1	5188.3
6924	3.8274	4.3636	0.1	5200.9
6925	3.8274	4.5455	0.1	5215.
6926	3.8274	4.7273	0.1	5230.4
6927	3.8274	4.9091	0.1	5246.9
6928	3.8274	5.0909	0.1	5264.3
6929	3.8274	5.2727	0.1	5282.5
6930	3.8274	5.4545	0.1	5301.3
6931	3.8274	5.6364	0.1	5320.4
6932	3.8274	5.8182	0.1	5341.1
6933	4.0097	0.18182	0.1	5274.9
6934	4.0097	0.36364	0.1	5255.8
6935	4.0097	0.54545	0.1	5238.
6936	4.0097	0.72727	0.1	5220.4
6937	4.0097	0.90909	0.1	5203.3
6938	4.0097	1.0909	0.1	5187.
6939	4.0097	1.2727	0.1	5171.4
6940	4.0097	1.4545	0.1	5156.9
6941	4.0097	1.6364	0.1	5143.6
6942	4.0097	1.8182	0.1	5131.6
6943	4.0097	2.	0.1	5121.1
6944	4.0097	2.1818	0.1	5112.1
6945	4.0097	2.3636	0.1	5104.8
6946	4.0097	2.5455	0.1	5099.3
6947	4.0097	2.7273	0.1	5095.6
6948	4.0097	2.9091	0.1	5093.7
6949	4.0097	3.0909	0.1	5093.7
6950	4.0097	3.2727	0.1	5095.6
6951	4.0097	3.4545	0.1	5099.3
6952	4.0097	3.6364	0.1	5104.8
6953	4.0097	3.8182	0.1	5112.1
6954	4.0097	4.	0.1	5121.1
6955	4.0097	4.1818	0.1	5131.6
6956	4.0097	4.3636	0.1	5143.6
6957	4.0097	4.5455	0.1	5156.9
6958	4.0097	4.7273	0.1	5171.4
6959	4.0097	4.9091	0.1	5187.
6960	4.0097	5.0909	0.1	5203.3
6961	4.0097	5.2727	0.1	5220.4
6962	4.0097	5.4545	0.1	5238.
6963	4.0097	5.6364	0.1	5255.8
6964	4.0097	5.8182	0.1	5274.9
6965	4.1919	0.18182	0.1	5209.3
6966	4.1919	0.36364	0.1	5191.7
6967	4.1919	0.54545	0.1	5175.
6968	4.1919	0.72727	0.1	5158.6
6969	4.1919	0.90909	0.1	5142.7
6970	4.1919	1.0909	0.1	5127.3
6971	4.1919	1.2727	0.1	5112.8
6972	4.1919	1.4545	0.1	5099.1
6973	4.1919	1.6364	0.1	5086.6
6974	4.1919	1.8182	0.1	5075.3
6975	4.1919	2.	0.1	5065.4
6976	4.1919	2.1818	0.1	5056.9
6977	4.1919	2.3636	0.1	5050.
6978	4.1919	2.5455	0.1	5044.7
6979	4.1919	2.7273	0.1	5041.2
6980	4.1919	2.9091	0.1	5039.4
6981	4.1919	3.0909	0.1	5039.4
6982	4.1919	3.2727	0.1	5041.2
6983	4.1919	3.4545	0.1	5044.7
6984	4.1919	3.6364	0.1	5050.
6985	4.1919	3.8182	0.1	5056.9
6986	4.1919	4.	0.1	5065.4
6987	4.1919	4.1818	0.1	5075.3
6988	4.1919	4.3636	0.1	5086.6
6989	4.1919	4.5455	0.1	5099.1
6990	4.1919	4.7273	0.1	5112.8
6991	4.1919	4.9091	0.1	5127.3
6992	4.1919	5.0909	0.1	5142.7
6993	4.1919	5.2727	0.1	5158.6
6994	4.1919	5.4545	0.1	5175.
6995	4.1919	5.6364	0.1	5191.7
6996	4.1919	5.8182	0.1	5209.3
6997	4.3742	0.18182	0.1	5144.2
6998	4.3742	0.36364	0.1	5128.
6999	4.3742	0.54545	0.1	5112.5
7000	4.3742	0.72727	0.1	5097.2
7001	4.3742	0.90909	0.1	5082.3
7002	4.3742	1.0909	0.1	5068.
7003	4.3742	1.2727	0.1	5054.4
7004	4.3742	1.4545	0.1	5041.7
7005	4.3742	1.6364	0.1	5029.9
7006	4.3742	1.8182	0.1	5019.3
7007	4.3742	2.	0.1	5010.
7008	4.3742	2.1818	0.1	5002.
7009	4.3742	2.3636	0.1	4995.5
7010	4.3742	2.5455	0.1	4990.6
7011	4.3742	2.7273	0.1	4987.3
7012	4.3742	2.9091	0.1	4985.6
7013	4.3742	3.0909	0.1	4985.6
7014	4.3742	3.2727	0.1	4987.3
7015	4.3742	3.4545	0.1	4990.6
7016	4.3742	3.6364	0.1	4995.5
7017	4.3742	3.8182	0.1	5002.
7018	4.3742	4.	0.1	5010.
7019	4.3742	4.1818	0.1	5019.3
7020	4.3742	4.3636	0.1	5029.9
7021	4.3742	4.5455	0.1	5041.7
7022	4.3742	4.7273	0.1	5054.4
7023	4.3742	4.9091	0.1	5068.
7024	4.3742	5.0909	0.1	5082.3
7025	4.3742	5.2727	0.1	5097.2
7026	4.3742	5.4545	0.1	5112.5
7027	4.3742	5.6364	0.1	5128.
7028	4.3742	5.8182	0.1	5144.2
7029	4.5565	0.18182	0.1	5079.8
7030	4.5565	0.36364	0.1	5064.8
7031	4.5565	0.54545	0.1	5050.4
7032	4.5565	0.72727	0.1	5036.2
7033	4.5565	0.90909	0.1	5022.4
7034	4.5565	1.0909	0.1	5009.1
7035	4.5565	1.2727	0.1	4996.4
7036	4.5565	1.4545	0.1	4984.5
7037	4.5565	1.6364	0.1	4973.6
7038	4.5565	1.8182	0.1	4963.7
7039	4.5565	2.	0.1	4954.9
7040	4.5565	2.1818	0.1	4947.5
7041	4.5565	2.3636	0.1	4941.4
7042	4.5565	2.5455	0.1	4936.8
7043	4.5565	2.7273	0.1	4933.7
7044	4.5565	2.9091	0.1	4932.1
7045	4.5565	3.0909	0.1	4932.1
7046	4.5565	3.2727	0.1	4933.7
7047	4.5565	3.4545	0.1	4936.8
7048	4.5565	3.6364	0.1	4941.4
7049	4.5565	3.8182	0.1	4947.5
7050	4.5565	4.	0.1	4954.9
7051	4.5565	4.1818	0.1	4963.7
7052	4.5565	4.3636	0.1	4973.6
7053	4.5565	4.5455	0.1	4984.5
7054	4.5565	4.7273	0.1	4996.4
7055	4.5565	4.9091	0.1	5009.1
7056	4.5565	5.0909	0.1	5022.4
7057	4.5565	5.2727	0.1	5036.2
7058	4.5565	5.4545	0.1	5050.4
7059	4.5565	5.6364	0.1	5064.8
7060	4.5565	5.8182	0.1	5079.8
7061	4.7387	0.18182	0.1	5015.9
7062	4.7387	0.36364	0.1	5002.1
7063	4.7387	0.54545	0.1	4988.8
7064	4.7387	0.72727	0.1	4975.6
7065	4.7387	0.90909	0.1	4962.8
7066	4.7387	1.0909	0.1	4950.4
7067	4.7387	1.2727	0.1	4938.7
7068	4.7387	1.4545	0.1	4927.6
7069	4.7387	1.6364	0.1	4917.5
7070	4.7387	1.8182	0.1	4908.2
7071	4.7387	2.	0.1	4900.1
7072	4.7387	2.1818	0.1	4893.2
7073	4.7387	2.3636	0.1	4887.5
7074	4.7387	2.5455	0.1	4883.2
7075	4.7387	2.7273	0.1	4880.3
7076	4.7387	2.9091	0.1	4878.8
7077	4.7387	3.0909	0.1	4878.8
7078	4.7387	3.2727	0.1	4880.3
7079	4.7387	3.4545	0.1	4883.2
7080	4.7387	3.6364	0.1	4887.5
7081	4.7387	3.8182	0.1	4893.2
7082	4.7387	4.	0.1	4900.1
7083	4.7387	4.1818	0.1	4908.2
7084	4.7387	4.3636	0.1	4917.5
7085	4.7387	4.5455	0.1	4927.6
7086	4.7387	4.7273	0.1	4938.7
7087	4.7387	4.9091	0.1	4950.4
7088	4.7387	5.0909	0.1	4962.8
7089	4.7387	5.2727	0.1	4975.6
7090	4.7387	5.4545	0.1	4988.8
7091	4.7387	5.6364	0.1	5002.1
7092	4.7387	5.8182	0.1	5015.9
7093	4.921	0.18182	0.1	4952.6
7094	4.921	0.36364	0.1	4939.9
7095	4.921	0.54545	0.1	4927.6
7096	4.921	0.72727	0.1	4915.4
7097	4.921	0.90909	0.1	4903.5
7098	4.921	1.0909	0.1	4892.1
7099	4.921	1.2727	0.1	4881.2
7100	4.921	1.4545	0.1	4871.
7101	4.921	1.6364	0.1	4861.6
7102	4.921	1.8182	0.1	4853.1
7103	4.921	2.	0.1	4845.5
7104	4.921	2.1818	0.1	4839.1
7105	4.921	2.3636	0.1	4833.9
7106	4.921	2.5455	0.1	4829.9
7107	4.921	2.7273	0.1	4827.2
7108	4.921	2.9091	0.1	4825.8
7109	4.921	3.0909	0.1	4825.8
7110	4.921	3.2727	0.1	4827.2
7111	4.921	3.4545	0.1	4829.9
7112	4.921	3.6364	0.1	4833.9
7113	4.921	3.8182	0.1	4839.1
7114	4.921	4.	0.1	4845.5
7115	4.921	4.1818	0.1	4853.1
7116	4.921	4.3636	0.1	4861.6
7117	4.921	4.5455	0.1	4871.
7118	4.921	4.7273	0.1	4881.2
7119	4.921	4.9091	0.1	4892.1
7120	4.921	5.0909	0.1	4903.5
7121	4.921	5.2727	0.1	4915.4
7122	4.921	5.4545	0.1	4927.6
7123	4.921	5.6364	0.1	4939.9
7124	4.921	5.8182	0.1	4952.6
7125	5.1032	0.18182	0.1	4889.9
7126	5.1032	0.36364	0.1	4878.2
7127	5.1032	0.54545	0.1	4866.8
7128	5.1032	0.72727	0.1	4855.6
7129	5.1032	0.90909	0.1	4844.7
7130	5.1032	1.0909	0.1	4834.1
7131	5.1032	1.2727	0.1	4824.1
7132	5.1032	1.4545	0.1	4814.7
7133	5.1032	1.6364	0.1	4806.
7134	5.1032	1.8182	0.1	4798.1
7135	5.1032	2.	0.1	4791.2
7136	5.1032	2.1818	0.1	4785.2
7137	5.1032	2.3636	0.1	4780.4
7138	5.1032	2.5455	0.1	4776.7
7139	5.1032	2.7273	0.1	4774.2
7140	5.1032	2.9091	0.1	4772.9
7141	5.1032	3.0909	0.1	4772.9
7142	5.1032	3.2727	0.1	4774.2
7143	5.1032	3.4545	0.1	4776.7
7144	5.1032	3.6364	0.1	4780.4
7145	5.1032	3.8182	0.1	4785.2
7146	5.1032	4.	0.1	4791.2
7147	5.1032	4.1818	0.1	4798.1
7148	5.1032	4.3636	0.1	4806.
7149	5.1032	4.5455	0.1	4814.7
7150	5.1032	4.7273	0.1	4824.1
7151	5.1032	4.9091	0.1	4834.1
7152	5.1032	5.0909	0.1	4844.7
7153	5.1032	5.2727	0.1	4855.6
7154	5.1032	5.4545	0.1	4866.8
7155	5.1032	5.6364	0.1	4878.2
7156	5.1032	5.8182	0.1	4889.9
7157	5.2855	0.18182	0.1	4827.7
7158	5.2855	0.36364	0.1	4816.9
7159	5.2855	0.54545	0.1	4806.5
7160	5.2855	0.72727	0.1	4796.2
7161	5.2855	0.90909	0.1	4786.1
7162	5.2855	1.0909	0.1	4776.4
7163	5.2855	1.2727	0.1	4767.2
7164	5.2855	1.4545	0.1	4758.6
7165	5.2855	1.6364	0.1	4750.6
7166	5.2855	1.8182	0.1	4743.3
7167	5.2855	2.	0.1	4737.
7168	5.2855	2.1818	0.1	4731.5
7169	5.2855	2.3636	0.1	4727.
7170	5.2855	2.5455	0.1	4723.6
7171	5.2855	2.7273	0.1	4721.3
7172	5.2855	2.9091	0.1	4720.2
7173	5.2855	3.0909	0.1	4720.2
7174	5.2855	3.2727	0.1	4721.3
7175	5.2855	3.4545	0.1	4723.6
7176	5.2855	3.6364	0.1	4727.
7177	5.2855	3.8182	0.1	4731.5
7178	5.2855	4.	0.1	4737.
7179	5.2855	4.1818	0.1	4743.3
7180	5.2855	4.3636	0.1	4750.6
7181	5.2855	4.5455	0.1	4758.6
7182	5.2855	4.7273	0.1	4767.2
7183	5.2855	4.9091	0.1	4776.4
7184	5.2855	5.0909	0.1	4786.1
7185	5.2855	5.2727	0.1	4796.2
7186	5.2855	5.4545	0.1	4806.5
7187	5.2855	5.6364	0.1	4816.9
7188	5.2855	5.8182	0.1	4827.7
7189	5.4677	0.18182	0.1	4766.
7190	5.4677	0.36364	0.1	4756.1
7191	5.4677	0.54545	0.1	4746.5
7192	5.4677	0.72727	0.1	4737.1
7193	5.4677	0.90909	0.1	4727.9
7194	5.4677	1.0909	0.1	4719.1
7195	5.4677	1.2727	0.1	4710.6
7196	5.4677	1.4545	0.1	4702.7
7197	5.4677	1.6364	0.1	4695.4
7198	5.4677	1.8182	0.1	4688.8
7199	5.4677	2.	0.1	4682.9
7200	5.4677	2.1818	0.1	4677.9
7201	5.4677	2.3636	0.1	4673.9
7202	5.4677	2.5455	0.1	4670.7
7203	5.4677	2.7273	0.1	4668.6
7204	5.4677	2.9091	0.1	4667.6
7205	5.4677	3.0909	0.1	4667.6
7206	5.4677	3.2727	0.1	4668.6
7207	5.4677	3.4545	0.1	4670.7
7208	5.4677	3.6364	0.1	4673.9
7209	5.4677	3.8182	0.1	4677.9
7210	5.4677	4.	0.1	4682.9
7211	5.4677	4.1818	0.1	4688.8
7212	5.4677	4.3636	0.1	4695.4
7213	5.4677	4.5455	0.1	4702.7
7214	5.4677	4.7273	0.1	4710.6
7215	5.4677	4.9091	0.1	4719.1
7216	5.4677	5.0909	0.1	4727.9
7217	5.4677	5.2727	0.1	4737.1
7218	5.4677	5.4545	0.1	4746.5
7219	5.4677	5.6364	0.1	4756.1
7220	5.4677	5.8182	0.1	4766.
7221	5.65	0.18182	0.1	4704.7
7222	5.65	0.36364	0.1	4695.6
7223	5.65	0.54545	0.1	4686.9
7224	5.65	0.72727	0.1	4678.3
7225	5.65	0.90909	0.1	4670.
7226	5.65	1.0909	0.1	4661.9
7227	5.65	1.2727	0.1	4654.3
7228	5.65	1.4545	0.1	4647.1
7229	5.65	1.6364	0.1	4640.5
7230	5.65	1.8182	0.1	4634.4
7231	5.65	2.	0.1	4629.1
7232	5.65	2.1818	0.1	4624.6
7233	5.65	2.3636	0.1	4620.9
7234	5.65	2.5455	0.1	4618.
7235	5.65	2.7273	0.1	4616.1
7236	5.65	2.9091	0.1	4615.1
7237	5.65	3.0909	0.1	4615.1
7238	5.65	3.2727	0.1	4616.1
7239	5.65	3.4545	0.1	4618.
7240	5.65	3.6364	0.1	4620.9
7241	5.65	3.8182	0.1	4624.6
7242	5.65	4.	0.1	4629.1
7243	5.65	4.1818	0.1	4634.4
7244	5.65	4.3636	0.1	4640.5
7245	5.65	4.5455	0.1	4647.1
7246	5.65	4.7273	0.1	4654.3
7247	5.65	4.9091	0.1	4661.9
7248	5.65	5.0909	0.1	4670.
7249	5.65	5.2727	0.1	4678.3
7250	5.65	5.4545	0.1	4686.9
7251	5.65	5.6364	0.1	4695.6
7252	5.65	5.8182	0.1	4704.7
7253	5.8323	0.18182	0.1	4643.8
7254	5.8323	0.36364	0.1	4635.5
7255	5.8323	0.54545	0.1	4627.6
7256	5.8323	0.72727	0.1	4619.8
7257	5.8323	0.90909	0.1	4612.3
7258	5.8323	1.0909	0.1	4605.1
7259	5.8323	1.2727	0.1	4598.2
7260	5.8323	1.4545	0.1	4591.7
7261	5.8323	1.6364	0.1	4585.7
7262	5.8323	1.8182	0.1	4580.3
7263	5.8323	2.	0.1	4575.5
7264	5.8323	2.1818	0.1	4571.4
7265	5.8323	2.3636	0.1	4568.
7266	5.8323	2.5455	0.1	4565.5
7267	5.8323	2.7273	0.1	4563.7
7268	5.8323	2.9091	0.1	4562.9
7269	5.8323	3.0909	0.1	4562.9
7270	5.8323	3.2727	0.1	4563.7
7271	5.8323	3.4545	0.1	4565.5
7272	5.8323	3.6364	0.1	4568.
7273	5.8323	3.8182	0.1	4571.4
7274	5.8323	4.	0.1	4575.5
7275	5.8323	4.1818	0.1	4580.3
7276	5.8323	4.3636	0.1	4585.7
7277	5.8323	4.5455	0.1	4591.7
7278	5.8323	4.7273	0.1	4598.2
7279	5.8323	4.9091	0.1	4605.1
7280	5.8323	5.0909	0.1	4612.3
7281	5.8323	5.2727	0.1	4619.8
7282	5.8323	5.4545	0.1	4627.6
7283	5.8323	5.6364	0.1	4635.5
7284	5.8323	5.8182	0.1	4643.8
7285	6.0145	0.18182	0.1	4583.1
7286	6.0145	0.36364	0.1	4575.6
7287	6.0145	0.54545	0.1	4568.5
7288	6.0145	0.72727	0.1	4561.6
7289	6.0145	0.90909	0.1	4554.9
7290	6.0145	1.0909	0.1	4548.4
7291	6.0145	1.2727	0.1	4542.3
7292	6.0145	1.4545	0.1	4536.5
7293	6.0145	1.6364	0.1	4531.2
7294	6.0145	1.8182	0.1	4526.4
7295	6.0145	2.	0.1	4522.1
7296	6.0145	2.1818	0.1	4518.4
7297	6.0145	2.3636	0.1	4515.4
7298	6.0145	2.5455	0.1	4513.2
7299	6.0145	2.7273	0.1	4511.6
7300	6.0145	2.9091	0.1	4510.8
7301	6.0145	3.0909	0.1	4510.8
7302	6.0145	3.2727	0.1	4511.6
7303	6.0145	3.4545	0.1	4513.2
7304	6.0145	3.6364	0.1	4515.4
7305	6.0145	3.8182	0.1	4518.4
7306	6.0145	4.	0.1	4522.1
7307	6.0145	4.1818	0.1	4526.4
7308	6.0145	4.3636	0.1	4531.2
7309	6.0145	4.5455	0.1	4536.5
7310	6.0145	4.7273	0.1	4542.3
7311	6.0145	4.9091	0.1	4548.4
7312	6.0145	5.0909	0.1	4554.9
7313	6.0145	5.2727	0.1	4561.6
7314	6.0145	5.4545	0.1	4568.5
7315	6.0145	5.6364	0.1	4575.6
7316	6.0145	5.8182	0.1	4583.1
7317	6.1968	0.18182	0.1	4522.6
7318	6.1968	0.36364	0.1	4515.9
7319	6.1968	0.54545	0.1	4509.6
7320	6.1968	0.72727	0.1	4503.5
7321	6.1968	0.90909	0.1	4497.6
7322	6.1968	1.0909	0.1	4492.
7323	6.1968	1.2727	0.1	4486.6
7324	6.1968	1.4545	0.1	4481.6
7325	6.1968	1.6364	0.1	4476.9
7326	6.1968	1.8182	0.1	4472.7
7327	6.1968	2.	0.1	4469.
7328	6.1968	2.1818	0.1	4465.7
7329	6.1968	2.3636	0.1	4463.1
7330	6.1968	2.5455	0.1	4461.1
7331	6.1968	2.7273	0.1	4459.7
7332	6.1968	2.9091	0.1	4459.1
7333	6.1968	3.0909	0.1	4459.1
7334	6.1968	3.2727	0.1	4459.7
7335	6.1968	3.4545	0.1	4461.1
7336	6.1968	3.6364	0.1	4463.1
7337	6.1968	3.8182	0.1	4465.7
7338	6.1968	4.	0.1	4469.
7339	6.1968	4.1818	0.1	4472.7
7340	6.1968	4.3636	0.1	4476.9
7341	6.1968	4.5455	0.1	4481.6
7342	6.1968	4.7273	0.1	4486.6
7343	6.1968	4.9091	0.1	4492.
7344	6.1968	5.0909	0.1	4497.6
7345	6.1968	5.2727	0.1	4503.5
7346	6.1968	5.4545	0.1	4509.6
7347	6.1968	5.6364	0.1	4515.9
7348	6.1968	5.8182	0.1	4522.6
7349	6.379	0.18182	0.1	4462.2
7350	6.379	0.36364	0.1	4456.3
7351	6.379	0.54545	0.1	4450.8
7352	6.379	0.72727	0.1	4445.6
7353	6.379	0.90909	0.1	4440.5
7354	6.379	1.0909	0.1	4435.7
7355	6.379	1.2727	0.1	4431.1
7356	6.379	1.4545	0.1	4426.9
7357	6.379	1.6364	0.1	4422.9
7358	6.379	1.8182	0.1	4419.3
7359	6.379	2.	0.1	4416.1
7360	6.379	2.1818	0.1	4413.4
7361	6.379	2.3636	0.1	4411.1
7362	6.379	2.5455	0.1	4409.4
7363	6.379	2.7273	0.1	4408.2
7364	6.379	2.9091	0.1	4407.6
7365	6.379	3.0909	0.1	4407.6
7366	6.379	3.2727	0.1	4408.2
7367	6.379	3.4545	0.1	4409.4
7368	6.379	3.6364	0.1	4411.1
7369	6.379	3.8182	0.1	4413.4
7370	6.379	4.	0.1	4416.1
7371	6.379	4.1818	0.1	4419.3
7372	6.379	4.3636	0.1	4422.9
7373	6.379	4.5455	0.1	4426.9
7374	6.379	4.7273	0.1	4431.1
7375	6.379	4.9091	0.1	4435.7
7376	6.379	5.0909	0.1	4440.5
7377	6.379	5.2727	0.1	4445.6
7378	6.379	5.4545	0.1	4450.8
7379	6.379	5.6364	0.1	4456.3
7380	6.379	5.8182	0.1	4462.2
7381	6.5613	0.18182	0.1	4401.7
7382	6.5613	0.36364	0.1	4396.6
7383	6.5613	0.54545	0.1	4392.
7384	6.5613	0.72727	0.1	4387.6
7385	6.5613	0.90909	0.1	4383.5
7386	6.5613	1.0909	0.1	4379.5
7387	6.5613	1.2727	0.1	4375.8
7388	6.5613	1.4545	0.1	4372.3
7389	6.5613	1.6364	0.1	4369.1
7390	6.5613	1.8182	0.1	4366.2
7391	6.5613	2.	0.1	4363.6
7392	6.5613	2.1818	0.1	4361.3
7393	6.5613	2.3636	0.1	4359.5
7394	6.5613	2.5455	0.1	4358.1
7395	6.5613	2.7273	0.1	4357.1
7396	6.5613	2.9091	0.1	4356.7
7397	6.5613	3.0909	0.1	4356.7
7398	6.5613	3.2727	0.1	4357.1
7399	6.5613	3.4545	0.1	4358.1
7400	6.5613	3.6364	0.1	4359.5
7401	6.5613	3.8182	0.1	4361.3
7402	6.5613	4.	0.1	4363.6
7403	6.5613	4.1818	0.1	4366.2
7404	6.5613	4.3636	0.1	4369.1
7405	6.5613	4.5455	0.1	4372.3
7406	6.5613	4.7273	0.1	4375.8
7407	6.5613	4.9091	0.1	4379.5
7408	6.5613	5.0909	0.1	4383.5
7409	6.5613	5.2727	0.1	4387.6
7410	6.5613	5.4545	0.1	4392.
7411	6.5613	5.6364	0.1	4396.6
7412	6.5613	5.8182	0.1	4401.7
7413	6.7435	0.18182	0.1	4341.1
7414	6.7435	0.36364	0.1	4336.8
7415	6.7435	0.54545	0.1	4333.1
7416	6.7435	0.72727	0.1	4329.6
7417	6.7435	0.90909	0.1	4326.4
7418	6.7435	1.0909	0.1	4323.4
7419	6.7435	1.2727	0.1	4320.6
7420	6.7435	1.4545	0.1	4318.
7421	6.7435	1.6364	0.1	4315.6
7422	6.7435	1.8182	0.1	4313.4
7423	6.7435	2.	0.1	4311.5
7424	6.7435	2.1818	0.1	4309.8
7425	6.7435	2.3636	0.1	4308.4
7426	6.7435	2.5455	0.1	4307.3
7427	6.7435	2.7273	0.1	4306.6
7428	6.7435	2.9091	0.1	4306.3
7429	6.7435	3.0909	0.1	4306.3
7430	6.7435	3.2727	0.1	4306.6
7431	6.7435	3.4545	0.1	4307.3
7432	6.7435	3.6364	0.1	4308.4
7433	6.7435	3.8182	0.1	4309.8
7434	6.7435	4.	0.1	4311.5
7435	6.7435	4.1818	0.1	4313.4
7436	6.7435	4.3636	0.1	4315.6
7437	6.7435	4.5455	0.1	4318.
7438	6.7435	4.7273	0.1	4320.6
7439	6.7435	4.9091	0.1	4323.4
7440	6.7435	5.0909	0.1	4326.4
7441	6.7435	5.2727	0.1	4329.6
7442	6.7435	5.4545	0.1	4333.1
7443	6.7435	5.6364	0.1	4336.8
7444	6.7435	5.8182	0.1	4341.1
7445	6.9258	0.18182	0.1	4280.
7446	6.9258	0.36364	0.1	4276.5
7447	6.9258	0.54545	0.1	4273.8
7448	6.9258	0.72727	0.1	4271.4
7449	6.9258	0.90909	0.1	4269.2
7450	6.9258	1.0909	0.1	4267.3
7451	6.9258	1.2727	0.1	4265.5
7452	6.9258	1.4545	0.1	4263.9
7453	6.9258	1.6364	0.1	4262.4
7454	6.9258	1.8182	0.1	4261.
7455	6.9258	2.	0.1	4259.8
7456	6.9258	2.1818	0.1	4258.8
7457	6.9258	2.3636	0.1	4257.9
7458	6.9258	2.5455	0.1	4257.2
7459	6.9258	2.7273	0.1	4256.8
7460	6.9258	2.9091	0.1	4256.6
7461	6.9258	3.0909	0.1	4256.6
7462	6.9258	3.2727	0.1	4256.8
7463	6.9258	3.4545	0.1	4257.2
7464	6.9258	3.6364	0.1	4257.9
7465	6.9258	3.8182	0.1	4258.8
7466	6.9258	4.	0.1	4259.8
7467	6.9258	4.1818	0.1	4261.
7468	6.9258	4.3636	0.1	4262.4
7469	6.9258	4.5455	0.1	4263.9
7470	6.9258	4.7273	0.1	4265.5
7471	6.9258	4.9091	0.1	4267.3
7472	6.9258	5.0909	0.1	4269.2
7473	6.9258	5.2727	0.1	4271.4
7474	6.9258	5.4545	0.1	4273.8
7475	6.9258	5.6364	0.1	4276.5
7476	6.9258	5.8182	0.1	4280.
7477	7.1081	0.18182	0.1	4218.2
7478	7.1081	0.36364	0.1	4215.8
7479	7.1081	0.54545	0.1	4214.1
7480	7.1081	0.72727	0.1	4212.8
7481	7.1081	0.90909	0.1	4211.8
7482	7.1081	1.0909	0.1	4211.1
7483	7.1081	1.2727	0.1	4210.5
7484	7.1081	1.4545	0.1	4210.
7485	7.1081	1.6364	0.1	4209.5
7486	7.1081	1.8182	0.1	4209.1
7487	7.1081	2.	0.1	4208.8
7488	7.1081	2.1818	0.1	4208.5
7489	7.1081	2.3636	0.1	4208.2
7490	7.1081	2.5455	0.1	4208.
7491	7.1081	2.7273	0.1	4207.9
7492	7.1081	2.9091	0.1	4207.8
7493	7.1081	3.0909	0.1	4207.8
7494	7.1081	3.2727	0.1	4207.9
7495	7.1081	3.4545	0.1	4208.
7496	7.1081	3.6364	0.1	4208.2
7497	7.1081	3.8182	0.1	4208.5
7498	7.1081	4.	0.1	4208.8
7499	7.1081	4.1818	0.1	4209.1
7500	7.1081	4.3636	0.1	4209.5
7501	7.1081	4.5455	0.1	4210.
7502	7.1081	4.7273	0.1	4210.5
7503	7.1081	4.9091	0.1	4211.1
7504	7.1081	5.0909	0.1	4211.8
7505	7.1081	5.2727	0.1	4212.8
7506	7.1081	5.4545	0.1	4214.1
7507	7.1081	5.6364	0.1	4215.8
7508	7.1081	5.8182	0.1	4218.2
7509	7.2903	0.18182	0.1	4155.5
7510	7.2903	0.36364	0.1	4154.1
7511	7.2903	0.54545	0.1	4153.7
7512	7.2903	0.72727	0.1	4153.7
7513	7.2903	0.90909	0.1	4154.1
7514	7.2903	1.0909	0.1	4154.7
7515	7.2903	1.2727	0.1	4155.4
7516	7.2903	1.4545	0.1	4156.2
7517	7.2903	1.6364	0.1	4157.
7518	7.2903	1.8182	0.1	4157.8
7519	7.2903	2.	0.1	4158.5
7520	7.2903	2.1818	0.1	4159.
7521	7.2903	2.3636	0.1	4159.5
7522	7.2903	2.5455	0.1	4159.9
7523	7.2903	2.7273	0.1	4160.1
7524	7.2903	2.9091	0.1	4160.2
7525	7.2903	3.0909	0.1	4160.2
7526	7.2903	3.2727	0.1	4160.1
7527	7.2903	3.4545	0.1	4159.9
7528	7.2903	3.6364	0.1	4159.5
7529	7.2903	3.8182	0.1	4159.
7530	7.2903	4.	0.1	4158.5
7531	7.2903	4.1818	0.1	4157.8
7532	7.2903	4.3636	0.1	4157.
7533	7.2903	4.5455	0.1	4156.2
7534	7.2903	4.7273	0.1	4155.4
7535	7.2903	4.9091	0.1	4154.7
7536	7.2903	5.0909	0.1	4154.1
7537	7.2903	5.2727	0.1	4153.7
7538	7.2903	5.4545	0.1	4153.7
7539	7.2903	5.6364	0.1	4154.1
7540	7.2903	5.8182	0.1	4155.5
7541	7.4726	0.18182	0.1	4091.5
7542	7.4726	0.36364	0.1	4091.3
7543	7.4726	0.54545	0.1	4092.3
7544	7.4726	0.72727	0.1	4093.8
7545	7.4726	0.90909	0.1	4095.7
7546	7.4726	1.0909	0.1	4097.9
7547	7.4726	1.2727	0.1	4100.3
7548	7.4726	1.4545	0.1	4102.6
7549	7.4726	1.6364	0.1	4104.9
7550	7.4726	1.8182	0.1	4107.1
7551	7.4726	2.	0.1	4109.
7552	7.4726	2.1818	0.1	4110.7
7553	7.4726	2.3636	0.1	4112.
7554	7.4726	2.5455	0.1	4113.1
7555	7.4726	2.7273	0.1	4113.8
7556	7.4726	2.9091	0.1	4114.1
7557	7.4726	3.0909	0.1	4114.1
7558	7.4726	3.2727	0.1	4113.8
7559	7.4726	3.4545	0.1	4113.1
7560	7.4726	3.6364	0.1	4112.
7561	7.4726	3.8182	0.1	4110.7
7562	7.4726	4.	0.1	4109.
7563	7.4726	4.1818	0.1	4107.1
7564	7.4726	4.3636	0.1	4104.9
7565	7.4726	4.5455	0.1	4102.6
7566	7.4726	4.7273	0.1	4100.3
7567	7.4726	4.9091	0.1	4097.9
7568	7.4726	5.0909	0.1	4095.7
7569	7.4726	5.2727	0.1	4093.8
7570	7.4726	5.4545	0.1	4092.3
7571	7.4726	5.6364	0.1	4091.3
7572	7.4726	5.8182	0.1	4091.5
7573	7.6548	0.18182	0.1	4025.8
7574	7.6548	0.36364	0.1	4027.
7575	7.6548	0.54545	0.1	4029.5
7576	7.6548	0.72727	0.1	4032.7
7577	7.6548	0.90909	0.1	4036.5
7578	7.6548	1.0909	0.1	4040.7
7579	7.6548	1.2727	0.1	4045.
7580	7.6548	1.4545	0.1	4049.2
7581	7.6548	1.6364	0.1	4053.4
7582	7.6548	1.8182	0.1	4057.2
7583	7.6548	2.	0.1	4060.7
7584	7.6548	2.1818	0.1	4063.7
7585	7.6548	2.3636	0.1	4066.2
7586	7.6548	2.5455	0.1	4068.1
7587	7.6548	2.7273	0.1	4069.3
7588	7.6548	2.9091	0.1	4070.
7589	7.6548	3.0909	0.1	4070.
7590	7.6548	3.2727	0.1	4069.3
7591	7.6548	3.4545	0.1	4068.
7592	7.6548	3.6364	0.1	4066.2
7593	7.6548	3.8182	0.1	4063.7
7594	7.6548	4.	0.1	4060.7
7595	7.6548	4.1818	0.1	4057.2
7596	7.6548	4.3636	0.1	4053.4
7597	7.6548	4.5455	0.1	4049.2
7598	7.6548	4.7273	0.1	4045.
7599	7.6548	4.9091	0.1	4040.7
7600	7.6548	5.0909	0.1	4036.5
7601	7.6548	5.2727	0.1	4032.7
7602	7.6548	5.4545	0.1	4029.5
7603	7.6548	5.6364	0.1	4027.
7604	7.6548	5.8182	0.1	4025.8
7605	7.8371	0.18182	0.1	3957.7
7606	7.8371	0.36364	0.1	3960.6
7607	7.8371	0.54545	0.1	3964.9
7608	7.8371	0.72727	0.1	3970.2
7609	7.8371	0.90909	0.1	3976.2
7610	7.8371	1.0909	0.1	3982.7
7611	7.8371	1.2727	0.1	3989.3
7612	7.8371	1.4545	0.1	3996.
7613	7.8371	1.6364	0.1	4002.4
7614	7.8371	1.8182	0.1	4008.3
7615	7.8371	2.	0.1	4013.7
7616	7.8371	2.1818	0.1	4018.4
7617	7.8371	2.3636	0.1	4022.3
7618	7.8371	2.5455	0.1	4025.2
7619	7.8371	2.7273	0.1	4027.2
7620	7.8371	2.9091	0.1	4028.3
7621	7.8371	3.0909	0.1	4028.3
7622	7.8371	3.2727	0.1	4027.2
7623	7.8371	3.4545	0.1	4025.2
7624	7.8371	3.6364	0.1	4022.3
7625	7.8371	3.8182	0.1	4018.4
7626	7.8371	4.	0.1	4013.7
7627	7.8371	4.1818	0.1	4008.3
7628	7.8371	4.3636	0.1	4002.4
7629	7.8371	4.5455	0.1	3996.
7630	7.8371	4.7273	0.1	3989.3
7631	7.8371	4.9091	0.1	3982.7
7632	7.8371	5.0909	0.1	3976.2
7633	7.8371	5.2727	0.1	3970.2
7634	7.8371	5.4545	0.1	3964.9
7635	7.8371	5.6364	0.1	3960.6
7636	7.8371	5.8182	0.1	3957.7
7637	8.0194	0.18182	0.1	3886.7
7638	8.0194	0.36364	0.1	3891.4
7639	8.0194	0.54545	0.1	3897.9
7640	8.0194	0.72727	0.1	3905.7
7641	8.0194	0.90909	0.1	3914.4
7642	8.0194	1.0909	0.1	3923.7
7643	8.0194	1.2727	0.1	3933.3
7644	8.0194	1.4545	0.1	3942.8
7645	8.0194	1.6364	0.1	3952.
7646	8.0194	1.8182	0.1	3960.6
7647	8.0194	2.	0.1	3968.4
7648	8.0194	2.1818	0.1	3975.2
7649	8.0194	2.3636	0.1	3980.9
7650	8.0194	2.5455	0.1	3985.2
7651	8.0194	2.7273	0.1	3988.2
7652	8.0194	2.9091	0.1	3989.6
7653	8.0194	3.0909	0.1	3989.6
7654	8.0194	3.2727	0.1	3988.2
7655	8.0194	3.4545	0.1	3985.2
7656	8.0194	3.6364	0.1	3980.9
7657	8.0194	3.8182	0.1	3975.2
7658	8.0194	4.	0.1	3968.4
7659	8.0194	4.1818	0.1	3960.6
7660	8.0194	4.3636	0.1	3952.
7661	8.0194	4.5455	0.1	3942.8
7662	8.0194	4.7273	0.1	3933.3
7663	8.0194	4.9091	0.1	3923.7
7664	8.0194	5.0909	0.1	3914.4
7665	8.0194	5.2727	0.1	3905.7
7666	8.0194	5.4545	0.1	3897.9
7667	8.0194	5.6364	0.1	3891.4
7668	8.0194	5.8182	0.1	3886.7
7669	8.2016	0.18182	0.1	3811.9
7670	8.2016	0.36364	0.1	3818.8
7671	8.2016	0.54545	0.1	3827.9
7672	8.2016	0.72727	0.1	3838.6
7673	8.2016	0.90909	0.1	3850.6
7674	8.2016	1.0909	0.1	3863.4
7675	8.2016	1.2727	0.1	3876.5
7676	8.2016	1.4545	0.1	3889.7
7677	8.2016	1.6364	0.1	3902.4
7678	8.2016	1.8182	0.1	3914.4
7679	8.2016	2.	0.1	3925.3
7680	8.2016	2.1818	0.1	3934.8
7681	8.2016	2.3636	0.1	3942.7
7682	8.2016	2.5455	0.1	3948.8
7683	8.2016	2.7273	0.1	3952.9
7684	8.2016	2.9091	0.1	3955.
7685	8.2016	3.0909	0.1	3955.
7686	8.2016	3.2727	0.1	3952.9
7687	8.2016	3.4545	0.1	3948.8
7688	8.2016	3.6364	0.1	3942.7
7689	8.2016	3.8182	0.1	3934.8
7690	8.2016	4.	0.1	3925.3
7691	8.2016	4.1818	0.1	3914.4
7692	8.2016	4.3636	0.1	3902.4
7693	8.2016	4.5455	0.1	3889.7
7694	8.2016	4.7273	0.1	3876.5
7695	8.2016	4.9091	0.1	3863.4
7696	8.2016	5.0909	0.1	3850.6
7697	8.2016	5.2727	0.1	3838.6
7698	8.2016	5.4545	0.1	3827.9
7699	8.2016	5.6364	0.1	3818.8
7700	8.2016	5.8182	0.1	3811.9
7701	8.3839	0.18182	0.1	3732.3
7702	8.3839	0.36364	0.1	3741.8
7703	8.3839	0.54545	0.1	3753.9
7704	8.3839	0.72727	0.1	3768.2
7705	8.3839	0.90909	0.1	3784.1
7706	8.3839	1.0909	0.1	3801.2
7707	8.3839	1.2727	0.1	3818.8
7708	8.3839	1.4545	0.1	3836.5
7709	8.3839	1.6364	0.1	3853.7
7710	8.3839	1.8182	0.1	3870.
7711	8.3839	2.	0.1	3884.7
7712	8.3839	2.1818	0.1	3897.7
7713	8.3839	2.3636	0.1	3908.5
7714	8.3839	2.5455	0.1	3916.9
7715	8.3839	2.7273	0.1	3922.6
7716	8.3839	2.9091	0.1	3925.5
7717	8.3839	3.0909	0.1	3925.5
7718	8.3839	3.2727	0.1	3922.6
7719	8.3839	3.4545	0.1	3916.9
7720	8.3839	3.6364	0.1	3908.5
7721	8.3839	3.8182	0.1	3897.7
7722	8.3839	4.	0.1	3884.7
7723	8.3839	4.1818	0.1	3870.
7724	8.3839	4.3636	0.1	3853.7
7725	8.3839	4.5455	0.1	3836.5
7726	8.3839	4.7273	0.1	3818.8
7727	8.3839	4.9091	0.1	3801.2
7728	8.3839	5.0909	0.1	3784.1
7729	8.3839	5.2727	0.1	3768.2
7730	8.3839	5.4545	0.1	3753.9
7731	8.3839	5.6364	0.1	3741.8
7732	8.3839	5.8182	0.1	3732.3
7733	8.5661	0.18182	0.1	3646.6
7734	8.5661	0.36364	0.1	3659.1
7735	8.5661	0.54545	0.1	3674.8
7736	8.5661	0.72727	0.1	3693.5
7737	8.5661	0.90909	0.1	3714.3
7738	8.5661	1.0909	0.1	3736.7
7739	8.5661	1.2727	0.1	3759.9
7740	8.5661	1.4545	0.1	3783.3
7741	8.5661	1.6364	0.1	3806.1
7742	8.5661	1.8182	0.1	3827.8
7743	8.5661	2.	0.1	3847.5
7744	8.5661	2.1818	0.1	3864.9
7745	8.5661	2.3636	0.1	3879.5
7746	8.5661	2.5455	0.1	3890.8
7747	8.5661	2.7273	0.1	3898.5
7748	8.5661	2.9091	0.1	3902.4
7749	8.5661	3.0909	0.1	3902.4
7750	8.5661	3.2727	0.1	3898.5
7751	8.5661	3.4545	0.1	3890.8
7752	8.5661	3.6364	0.1	3879.5
7753	8.5661	3.8182	0.1	3864.9
7754	8.5661	4.	0.1	3847.5
7755	8.5661	4.1818	0.1	3827.8
7756	8.5661	4.3636	0.1	3806.1
7757	8.5661	4.5455	0.1	3783.3
7758	8.5661	4.7273	0.1	3759.9
7759	8.5661	4.9091	0.1	3736.7
7760	8.5661	5.0909	0.1	3714.3
7761	8.5661	5.2727	0.1	3693.5
7762	8.5661	5.4545	0.1	3674.8
7763	8.5661	5.6364	0.1	3659.1
7764	8.5661	5.8182	0.1	3646.6
7765	8.7484	0.18182	0.1	3553.3
7766	8.7484	0.36364	0.1	3569.3
7767	8.7484	0.54545	0.1	3589.4
7768	8.7484	0.72727	0.1	3613.3
7769	8.7484	0.90909	0.1	3640.1
7770	8.7484	1.0909	0.1	3669.1
7771	8.7484	1.2727	0.1	3699.3
7772	8.7484	1.4545	0.1	3729.9
7773	8.7484	1.6364	0.1	3759.9
7774	8.7484	1.8182	0.1	3788.4
7775	8.7484	2.	0.1	3814.5
7776	8.7484	2.1818	0.1	3837.6
7777	8.7484	2.3636	0.1	3857.
7778	8.7484	2.5455	0.1	3872.1
7779	8.7484	2.7273	0.1	3882.4
7780	8.7484	2.9091	0.1	3887.6
7781	8.7484	3.0909	0.1	3887.6
7782	8.7484	3.2727	0.1	3882.4
7783	8.7484	3.4545	0.1	3872.1
7784	8.7484	3.6364	0.1	3857.
7785	8.7484	3.8182	0.1	3837.6
7786	8.7484	4.	0.1	3814.5
7787	8.7484	4.1818	0.1	3788.3
7788	8.7484	4.3636	0.1	3759.9
7789	8.7484	4.5455	0.1	3729.9
7790	8.7484	4.7273	0.1	3699.3
7791	8.7484	4.9091	0.1	3669.1
7792	8.7484	5.0909	0.1	3640.1
7793	8.7484	5.2727	0.1	3613.3
7794	8.7484	5.4545	0.1	3589.4
7795	8.7484	5.6364	0.1	3569.3
7796	8.7484	5.8182	0.1	3553.3
7797	8.9306	0.18182	0.1	3450.6
7798	8.9306	0.36364	0.1	3470.7
7799	8.9306	0.54545	0.1	3496.
7800	8.9306	0.72727	0.1	3526.2
7801	8.9306	0.90909	0.1	3560.4
7802	8.9306	1.0909	0.1	3597.5
7803	8.9306	1.2727	0.1	3636.5
7804	8.9306	1.4545	0.1	3676.2
7805	8.9306	1.6364	0.1	3715.2
7806	8.9306	1.8182	0.1	3752.4
7807	8.9306	2.	0.1	3786.8
7808	8.9306	2.1818	0.1	3817.2
7809	8.9306	2.3636	0.1	3842.8
7810	8.9306	2.5455	0.1	3862.8
7811	8.9306	2.7273	0.1	3876.5
7812	8.9306	2.9091	0.1	3883.5
7813	8.9306	3.0909	0.1	3883.5
7814	8.9306	3.2727	0.1	3876.5
7815	8.9306	3.4545	0.1	3862.8
7816	8.9306	3.6364	0.1	3842.8
7817	8.9306	3.8182	0.1	3817.2
7818	8.9306	4.	0.1	3786.8
7819	8.9306	4.1818	0.1	3752.4
7820	8.9306	4.3636	0.1	3715.2
7821	8.9306	4.5455	0.1	3676.2
7822	8.9306	4.7273	0.1	3636.5
7823	8.9306	4.9091	0.1	3597.5
7824	8.9306	5.0909	0.1	3560.4
7825	8.9306	5.2727	0.1	3526.2
7826	8.9306	5.4545	0.1	3496.
7827	8.9306	5.6364	0.1	3470.7
7828	8.9306	5.8182	0.1	3450.6
7829	9.1129	0.18182	0.1	3336.3
7830	9.1129	0.36364	0.1	3361.1
7831	9.1129	0.54545	0.1	3392.6
7832	9.1129	0.72727	0.1	3430.4
7833	9.1129	0.90909	0.1	3473.6
7834	9.1129	1.0909	0.1	3520.9
7835	9.1129	1.2727	0.1	3570.9
7836	9.1129	1.4545	0.1	3622.
7837	9.1129	1.6364	0.1	3672.5
7838	9.1129	1.8182	0.1	3720.9
7839	9.1129	2.	0.1	3765.7
7840	9.1129	2.1818	0.1	3805.5
7841	9.1129	2.3636	0.1	3839.2
7842	9.1129	2.5455	0.1	3865.5
7843	9.1129	2.7273	0.1	3883.7
7844	9.1129	2.9091	0.1	3892.9
7845	9.1129	3.0909	0.1	3892.9
7846	9.1129	3.2727	0.1	3883.7
7847	9.1129	3.4545	0.1	3865.5
7848	9.1129	3.6364	0.1	3839.2
7849	9.1129	3.8182	0.1	3805.5
7850	9.1129	4.	0.1	3765.7
7851	9.1129	4.1818	0.1	3720.9
7852	9.1129	4.3636	0.1	3672.5
7853	9.1129	4.5455	0.1	3622.
7854	9.1129	4.7273	0.1	3570.9
7855	9.1129	4.9091	0.1	3520.9
7856	9.1129	5.0909	0.1	3473.6
7857	9.1129	5.2727	0.1	3430.4
7858	9.1129	5.4545	0.1	3392.6
7859	9.1129	5.6364	0.1	3361.1
7860	9.1129	5.8182	0.1	3336.3
7861	9.2952	0.18182	0.1	3207.8
7862	9.2952	0.36364	0.1	3238.
7863	9.2952	0.54545	0.1	3276.7
7864	9.2952	0.72727	0.1	3323.8
7865	9.2952	0.90909	0.1	3378.
7866	9.2952	1.0909	0.1	3437.9
7867	9.2952	1.2727	0.1	3501.7
7868	9.2952	1.4545	0.1	3567.2
7869	9.2952	1.6364	0.1	3632.3
7870	9.2952	1.8182	0.1	3695.
7871	9.2952	2.	0.1	3753.2
7872	9.2952	2.1818	0.1	3805.1
7873	9.2952	2.3636	0.1	3849.1
7874	9.2952	2.5455	0.1	3883.7
7875	9.2952	2.7273	0.1	3907.6
7876	9.2952	2.9091	0.1	3919.8
7877	9.2952	3.0909	0.1	3919.8
7878	9.2952	3.2727	0.1	3907.6
7879	9.2952	3.4545	0.1	3883.7
7880	9.2952	3.6364	0.1	3849.1
7881	9.2952	3.8182	0.1	3805.1
7882	9.2952	4.	0.1	3753.2
7883	9.2952	4.1818	0.1	3695.
7884	9.2952	4.3636	0.1	3632.3
7885	9.2952	4.5455	0.1	3567.2
7886	9.2952	4.7273	0.1	3501.7
7887	9.2952	4.9091	0.1	3437.9
7888	9.2952	5.0909	0.1	3378.
7889	9.2952	5.2727	0.1	3323.8
7890	9.2952	5.4545	0.1	3276.7
7891	9.2952	5.6364	0.1	3238.
7892	9.2952	5.8182	0.1	3207.8
7893	9.4774	0.18182	0.1	3062.3
7894	9.4774	0.36364	0.1	3098.5
7895	9.4774	0.54545	0.1	3145.7
7896	9.4774	0.72727	0.1	3203.7
7897	9.4774	0.90909	0.1	3271.4
7898	9.4774	1.0909	0.1	3346.9
7899	9.4774	1.2727	0.1	3427.9
7900	9.4774	1.4545	0.1	3511.7
7901	9.4774	1.6364	0.1	3595.4
7902	9.4774	1.8182	0.1	3676.3
7903	9.4774	2.	0.1	3751.7
7904	9.4774	2.1818	0.1	3819.2
7905	9.4774	2.3636	0.1	3876.6
7906	9.4774	2.5455	0.1	3921.8
7907	9.4774	2.7273	0.1	3953.2
7908	9.4774	2.9091	0.1	3969.2
7909	9.4774	3.0909	0.1	3969.2
7910	9.4774	3.2727	0.1	3953.2
7911	9.4774	3.4545	0.1	3921.8
7912	9.4774	3.6364	0.1	3876.6
7913	9.4774	3.8182	0.1	3819.2
7914	9.4774	4.	0.1	3751.7
7915	9.4774	4.1818	0.1	3676.3
7916	9.4774	4.3636	0.1	3595.4
7917	9.4774	4.5455	0.1	3511.7
7918	9.4774	4.7273	0.1	3427.9
7919	9.4774	4.9091	0.1	3346.9
7920	9.4774	5.0909	0.1	3271.4
7921	9.4774	5.2727	0.1	3203.7
7922	9.4774	5.4545	0.1	3145.7
7923	9.4774	5.6364	0.1	3098.5
7924	9.4774	5.8182	0.1	3062.3
7925	9.6597	0.18182	0.1	2896.4
7926	9.6597	0.36364	0.1	2939.3
7927	9.6597	0.54545	0.1	2996.1
7928	9.6597	0.72727	0.1	3067.2
7929	9.6597	0.90909	0.1	3151.2
7930	9.6597	1.0909	0.1	3245.9
7931	9.6597	1.2727	0.1	3348.5
7932	9.6597	1.4545	0.1	3455.5
7933	9.6597	1.6364	0.1	3563.
7934	9.6597	1.8182	0.1	3667.1
7935	9.6597	2.	0.1	3764.6
7936	9.6597	2.1818	0.1	3852.
7937	9.6597	2.3636	0.1	3926.6
7938	9.6597	2.5455	0.1	3985.6
7939	9.6597	2.7273	0.1	4026.5
7940	9.6597	2.9091	0.1	4047.4
7941	9.6597	3.0909	0.1	4047.4
7942	9.6597	3.2727	0.1	4026.5
7943	9.6597	3.4545	0.1	3985.6
7944	9.6597	3.6364	0.1	3926.6
7945	9.6597	3.8182	0.1	3852.
7946	9.6597	4.	0.1	3764.6
7947	9.6597	4.1818	0.1	3667.1
7948	9.6597	4.3636	0.1	3563.
7949	9.6597	4.5455	0.1	3455.5
7950	9.6597	4.7273	0.1	3348.5
7951	9.6597	4.9091	0.1	3245.9
7952	9.6597	5.0909	0.1	3151.2
7953	9.6597	5.2727	0.1	3067.2
7954	9.6597	5.4545	0.1	2996.1
7955	9.6597	5.6364	0.1	2939.3
7956	9.6597	5.8182	0.1	2896.4
7957	9.8419	0.18182	0.1	2706.7
7958	9.8419	0.36364	0.1	2756.6
7959	9.8419	0.54545	0.1	2824.5
7960	9.8419	0.72727	0.1	2910.9
7961	9.8419	0.90909	0.1	3014.4
7962	9.8419	1.0909	0.1	3132.7
7963	9.8419	1.2727	0.1	3262.4
7964	9.8419	1.4545	0.1	3398.7
7965	9.8419	1.6364	0.1	3536.6
7966	9.8419	1.8182	0.1	3670.8
7967	9.8419	2.	0.1	3796.6
7968	9.8419	2.1818	0.1	3909.7
7969	9.8419	2.3636	0.1	4006.3
7970	9.8419	2.5455	0.1	4082.7
7971	9.8419	2.7273	0.1	4135.5
7972	9.8419	2.9091	0.1	4162.6
7973	9.8419	3.0909	0.1	4162.6
7974	9.8419	3.2727	0.1	4135.5
7975	9.8419	3.4545	0.1	4082.7
7976	9.8419	3.6364	0.1	4006.3
7977	9.8419	3.8182	0.1	3909.7
7978	9.8419	4.	0.1	3796.6
7979	9.8419	4.1818	0.1	3670.8
7980	9.8419	4.3636	0.1	3536.6
7981	9.8419	4.5455	0.1	3398.7
7982	9.8419	4.7273	0.1	3262.4
7983	9.8419	4.9091	0.1	3132.7
7984	9.8419	5.0909	0.1	3014.4
7985	9.8419	5.2727	0.1	2910.9
7986	9.8419	5.4545	0.1	2824.5
7987	9.8419	5.6364	0.1	2756.6
7988	9.8419	5.8182	0.1	2706.7
7989	10.024	0.18182	0.1	2489.8
7990	10.024	0.36364	0.1	2546.9
7991	10.024	0.54545	0.1	2627.1
7992	10.024	0.72727	0.1	2731.1
7993	10.024	0.90909	0.1	2857.8
7994	10.024	1.0909	0.1	3004.9
7995	10.024	1.2727	0.1	3168.1
7996	10.024	1.4545	0.1	3341.7
7997	10.024	1.6364	0.1	3518.8
7998	10.024	1.8182	0.1	3692.
7999	10.024	2.	0.1	3854.7
8000	10.024	2.1818	0.1	4001.
8001	10.024	2.3636	0.1	4125.4
8002	10.024	2.5455	0.1	4223.3
8003	10.024	2.7273	0.1	4290.6
8004	10.024	2.9091	0.1	4324.9
8005	10.024	3.0909	0.1	4324.9
8006	10.024	3.2727	0.1	4290.6
8007	10.024	3.4545	0.1	4223.3
8008	10.024	3.6364	0.1	4125.4
8009	10.024	3.8182	0.1	4001.
8010	10.024	4.	0.1	3854.7
8011	10.024	4.1818	0.1	3692.
8012	10.024	4.3636	0.1	3518.8
8013	10.024	4.5455	0.1	3341.7
8014	10.024	4.7273	0.1	3168.1
8015	10.024	4.9091	0.1	3004.9
8016	10.024	5.0909	0.1	2857.8
8017	10.024	5.2727	0.1	2731.1
8018	10.024	5.4545	0.1	2627.1
8019	10.024	5.6364	0.1	2546.9
8020	10.024	5.8182	0.1	2489.8
8021	10.206	0.18182	0.1	2242.5
8022	10.206	0.36364	0.1	2306.8
8023	10.206	0.54545	0.1	2400.6
8024	10.206	0.72727	0.1	2524.7
8025	10.206	0.90909	0.1	2678.4
8026	10.206	1.0909	0.1	2859.6
8027	10.206	1.2727	0.1	3064.1
8028	10.206	1.4545	0.1	3285.1
8029	10.206	1.6364	0.1	3513.4
8030	10.206	1.8182	0.1	3738.4
8031	10.206	2.	0.1	3949.9
8032	10.206	2.1818	0.1	4139.
8033	10.206	2.3636	0.1	4298.2
8034	10.206	2.5455	0.1	4421.4
8035	10.206	2.7273	0.1	4504.4
8036	10.206	2.9091	0.1	4546.
8037	10.206	3.0909	0.1	4546.
8038	10.206	3.2727	0.1	4504.4
8039	10.206	3.4545	0.1	4421.4
8040	10.206	3.6364	0.1	4298.2
8041	10.206	3.8182	0.1	4139.
8042	10.206	4.	0.1	3949.9
8043	10.206	4.1818	0.1	3738.4
8044	10.206	4.3636	0.1	3513.4
8045	10.206	4.5455	0.1	3285.1
8046	10.206	4.7273	0.1	3064.1
8047	10.206	4.9091	0.1	2859.6
8048	10.206	5.0909	0.1	2678.4
8049	10.206	5.2727	0.1	2524.7
8050	10.206	5.4545	0.1	2400.6
8051	10.206	5.6364	0.1	2306.8
8052	10.206	5.8182	0.1	2242.5
8053	10.389	0.18182	0.1	1962.8
8054	10.389	0.36364	0.1	2034.2
8055	10.389	0.54545	0.1	2143.2
8056	10.389	0.72727	0.1	2290.
8057	10.389	0.90909	0.1	2474.2
8058	10.389	1.0909	0.1	2694.9
8059	10.389	1.2727	0.1	2948.8
8060	10.389	1.4545	0.1	3229.8
8061	10.389	1.6364	0.1	3526.1
8062	10.389	1.8182	0.1	3821.7
8063	10.389	2.	0.1	4099.8
8064	10.389	2.1818	0.1	4345.5
8065	10.389	2.3636	0.1	4546.8
8066	10.389	2.5455	0.1	4696.
8067	10.389	2.7273	0.1	4791.8
8068	10.389	2.9091	0.1	4838.
8069	10.389	3.0909	0.1	4838.
8070	10.389	3.2727	0.1	4791.8
8071	10.389	3.4545	0.1	4696.
8072	10.389	3.6364	0.1	4546.8
8073	10.389	3.8182	0.1	4345.5
8074	10.389	4.	0.1	4099.8
8075	10.389	4.1818	0.1	3821.7
8076	10.389	4.3636	0.1	3526.1
8077	10.389	4.5455	0.1	3229.8
8078	10.389	4.7273	0.1	2948.8
8079	10.389	4.9091	0.1	2694.9
8080	10.389	5.0909	0.1	2474.2
8081	10.389	5.2727	0.1	2290.
8082	10.389	5.4545	0.1	2143.2
8083	10.389	5.6364	0.1	2034.2
8084	10.389	5.8182	0.1	1962.8
8085	10.571	0.18182	0.1	1650.1
8086	10.571	0.36364	0.1	1729.8
8087	10.571	0.54545	0.1	1856.9
8088	10.571	0.72727	0.1	2029.4
8089	10.571	0.90909	0.1	2246.6
8090	10.571	1.0909	0.1	2509.6
8091	10.571	1.2727	0.1	2819.6
8092	10.571	1.4545	0.1	3174.6
8093	10.571	1.6364	0.1	3564.
8094	10.571	1.8182	0.1	3961.7
8095	10.571	2.	0.1	4336.7
8096	10.571	2.1818	0.1	4659.
8097	10.571	2.3636	0.1	4907.
8098	10.571	2.5455	0.1	5073.
8099	10.571	2.7273	0.1	5167.2
8100	10.571	2.9091	0.1	5208.3
8101	10.571	3.0909	0.1	5208.3
8102	10.571	3.2727	0.1	5167.2
8103	10.571	3.4545	0.1	5073.
8104	10.571	3.6364	0.1	4907.
8105	10.571	3.8182	0.1	4659.
8106	10.571	4.	0.1	4336.7
8107	10.571	4.1818	0.1	3961.7
8108	10.571	4.3636	0.1	3563.9
8109	10.571	4.5455	0.1	3174.6
8110	10.571	4.7273	0.1	2819.6
8111	10.571	4.9091	0.1	2509.6
8112	10.571	5.0909	0.1	2246.6
8113	10.571	5.2727	0.1	2029.4
8114	10.571	5.4545	0.1	1856.9
8115	10.571	5.6364	0.1	1729.8
8116	10.571	5.8182	0.1	1650.1
8117	10.753	0.18182	0.1	1306.7
8118	10.753	0.36364	0.1	1399.9
8119	10.753	0.54545	0.1	1552.
8120	10.753	0.72727	0.1	1753.9
8121	10.753	0.90909	0.1	2003.7
8122	10.753	1.0909	0.1	2306.4
8123	10.753	1.2727	0.1	2672.1
8124	10.753	1.4545	0.1	3114.8
8125	10.753	1.6364	0.1	3631.3
8126	10.753	1.8182	0.1	4192.8
8127	10.753	2.	0.1	4730.1
8128	10.753	2.1818	0.1	5157.3
8129	10.753	2.3636	0.1	5443.
8130	10.753	2.5455	0.1	5583.5
8131	10.753	2.7273	0.1	5635.6
8132	10.753	2.9091	0.1	5649.5
8133	10.753	3.0909	0.1	5649.5
8134	10.753	3.2727	0.1	5635.6
8135	10.753	3.4545	0.1	5583.5
8136	10.753	3.6364	0.1	5443.
8137	10.753	3.8182	0.1	5157.3
8138	10.753	4.	0.1	4730.1
8139	10.753	4.1818	0.1	4192.8
8140	10.753	4.3636	0.1	3631.3
8141	10.753	4.5455	0.1	3114.8
8142	10.753	4.7273	0.1	2672.1
8143	10.753	4.9091	0.1	2306.4
8144	10.753	5.0909	0.1	2003.7
8145	10.753	5.2727	0.1	1753.9
8146	10.753	5.4545	0.1	1552.
8147	10.753	5.6364	0.1	1399.9
8148	10.753	5.8182	0.1	1306.7
8149	10.935	0.18182	0.1	939.13
8150	10.935	0.36364	0.1	1064.1
8151	10.935	0.54545	0.1	1255.3
8152	10.935	0.72727	0.1	1489.6
8153	10.935	0.90909	0.1	1766.1
8154	10.935	1.0909	0.1	2095.9
8155	10.935	1.2727	0.1	2503.1
8156	10.935	1.4545	0.1	3022.8
8157	10.935	1.6364	0.1	3718.7
8158	10.935	1.8182	0.1	4591.4
8159	10.935	2.	0.1	5414.8
8160	10.935	2.1818	0.1	6047.9
8161	10.935	2.3636	0.1	6263.3
8162	10.935	2.5455	0.1	6244.3
8163	10.935	2.7273	0.1	6169.6
8164	10.935	2.9091	0.1	6120.1
8165	10.935	3.0909	0.1	6120.1
8166	10.935	3.2727	0.1	6169.6
8167	10.935	3.4545	0.1	6244.3
8168	10.935	3.6364	0.1	6263.3
8169	10.935	3.8182	0.1	6047.9
8170	10.935	4.	0.1	5414.8
8171	10.935	4.1818	0.1	4591.4
8172	10.935	4.3636	0.1	3718.7
8173	10.935	4.5455	0.1	3022.8
8174	10.935	4.7273	0.1	2503.1
8175	10.935	4.9091	0.1	2095.9
8176	10.935	5.0909	0.1	1766.1
8177	10.935	5.2727	0.1	1489.6
8178	10.935	5.4545	0.1	1255.3
8179	10.935	5.6364	0.1	1064.1
8180	10.935	5.8182	0.1	939.13
8181	11.118	0.18182	0.1	585.69
8182	11.118	0.36364	0.1	803.21
8183	11.118	0.54545	0.1	1054.8
8184	11.118	0.72727	0.1	1325.6
8185	11.118	0.90909	0.1	1626.4
8186	11.118	1.0909	0.1	1976.5
8187	11.118	1.2727	0.1	2406.4
8188	11.118	1.4545	0.1	2987.3
8189	11.118	1.6364	0.1	3822.1
8190	11.118	1.8182	0.1	5502.3
8191	11.118	2.	0.1	7727.9
8192	11.118	2.1818	0.1	7851.2
8193	11.118	2.3636	0.1	7461.5
8194	11.118	2.5455	0.1	6964.6
8195	11.118	2.7273	0.1	6670.7
8196	11.118	2.9091	0.1	6529.3
8197	11.118	3.0909	0.1	6529.3
8198	11.118	3.2727	0.1	6670.7
8199	11.118	3.4545	0.1	6964.6
8200	11.118	3.6364	0.1	7461.5
8201	11.118	3.8182	0.1	7851.2
8202	11.118	4.	0.1	7727.9
8203	11.118	4.1818	0.1	5502.3
8204	11.118	4.3636	0.1	3822.1
8205	11.118	4.5455	0.1	2987.3
8206	11.118	4.7273	0.1	2406.4
8207	11.118	4.9091	0.1	1976.5
8208	11.118	5.0909	0.1	1626.4
8209	11.118	5.2727	0.1	1325.6
8210	11.118	5.4545	0.1	1054.8
8211	11.118	5.6364	0.1	803.21
8212	11.118	5.8182	0.1	585.69
8213	11.467	3.8182	0.1	10619
8214	11.467	3.6364	0.1	8434.7
8215	11.467	3.4545	0.1	7434.3
8216	11.467	3.2727	0.1	6930.
8217	11.467	3.0909	0.1	6714.6
8218	11.467	2.9091	0.1	6714.6
8219	11.467	2.7273	0.1	6930.
8220	11.467	2.5455	0.1	7434.3
8221	11.467	2.3636	0.1	8434.7
8222	11.467	2.1818	0.1	10619
8223	11.3	3.8182	0.1	10582
8224	11.3	3.6364	0.1	8436.
8225	11.3	3.4545	0.1	7461.5
8226	11.3	3.2727	0.1	6965.5
8227	11.3	3.0909	0.1	6753.7
8228	11.3	2.9091	0.1	6753.7
8229	11.3	2.7273	0.1	6965.5
8230	11.3	2.5455	0.1	7461.5
8231	11.3	2.3636	0.1	8436.
8232	11.3	2.1818	0.1	10582
8233	11.467	5.8182	0.1	274.02
8234	11.467	5.6364	0.1	481.98
8235	11.467	5.4545	0.1	666.32
8236	11.467	5.2727	0.1	852.58
8237	11.467	5.0909	0.1	1055.
8238	11.467	4.9091	0.1	1289.8
8239	11.467	4.7273	0.1	1579.
8240	11.467	4.5455	0.1	1974.3
8241	11.467	4.3636	0.1	2519.5
8242	11.467	4.1818	0.1	3827.6
8243	11.467	4.	0.1	15314
8244	11.3	4.	0.1	15054
8245	11.3	4.1818	0.1	3529.6
8246	11.3	4.3636	0.1	2352.3
8247	11.3	4.5455	0.1	1879.9
8248	11.3	4.7273	0.1	1532.7
8249	11.3	4.9091	0.1	1276.3
8250	11.3	5.0909	0.1	1062.8
8251	11.3	5.2727	0.1	873.79
8252	11.3	5.4545	0.1	694.57
8253	11.3	5.6364	0.1	511.57
8254	11.3	5.8182	0.1	297.45
8255	11.467	0.18182	0.1	274.02
8256	11.467	0.36364	0.1	481.98
8257	11.467	0.54545	0.1	666.32
8258	11.467	0.72727	0.1	852.58
8259	11.467	0.90909	0.1	1055.
8260	11.467	1.0909	0.1	1289.8
8261	11.467	1.2727	0.1	1579.
8262	11.467	1.4545	0.1	1974.3
8263	11.467	1.6364	0.1	2519.5
8264	11.467	1.8182	0.1	3827.6
8265	11.467	2.	0.1	15314
8266	11.3	2.	0.1	15054
8267	11.3	1.8182	0.1	3529.6
8268	11.3	1.6364	0.1	2352.3
8269	11.3	1.4545	0.1	1879.9
8270	11.3	1.2727	0.1	1532.7
8271	11.3	1.0909	0.1	1276.3
8272	11.3	0.90909	0.1	1062.8
8273	11.3	0.72727	0.1	873.78
8274	11.3	0.54545	0.1	694.57
8275	11.3	0.36364	0.1	511.57
8276	11.3	0.18182	0.1	297.45
8277	11.467	6.	0.1	35.126
8278	11.651	6.	0.1	360.58
8279	11.835	6.	0.1	702.04
8280	12.02	6.	0.1	1001.3
8281	12.204	6.	0.1	1262.3
8282	12.388	6.	0.1	1484.4
8283	12.573	6.	0.1	1668.1
8284	12.757	6.	0.1	1815.4
8285	12.941	6.	0.1	1929.8
8286	13.125	6.	0.1	2015.2
8287	13.31	6.	0.1	2075.7
8288	13.494	6.	0.1	2115.4
8289	13.678	6.	0.1	2137.8
8290	13.863	6.	0.1	2146.
8291	14.047	6.	0.1	2142.8
8292	14.231	6.	0.1	2130.3
8293	14.416	6.	0.1	2110.5
8294	14.6	6.	0.1	2084.8
8295	14.784	6.	0.1	2054.5
8296	14.969	6.	0.1	2020.6
8297	15.153	6.	0.1	1984.
8298	15.337	6.	0.1	1945.1
8299	15.522	6.	0.1	1904.6
8300	15.706	6.	0.1	1862.8
8301	15.89	6.	0.1	1820.2
8302	16.075	6.	0.1	1776.8
8303	16.259	6.	0.1	1733.
8304	16.443	6.	0.1	1688.9
8305	16.627	6.	0.1	1644.6
8306	16.812	6.	0.1	1600.1
8307	16.996	6.	0.1	1555.7
8308	17.18	6.	0.1	1511.3
8309	17.365	6.	0.1	1467.
8310	17.549	6.	0.1	1422.8
8311	17.733	6.	0.1	1378.7
8312	17.918	6.	0.1	1334.8
8313	18.102	6.	0.1	1291.
8314	18.286	6.	0.1	1247.4
8315	18.471	6.	0.1	1204.
8316	18.655	6.	0.1	1160.8
8317	18.839	6.	0.1	1117.8
8318	19.024	6.	0.1	1075.
8319	19.208	6.	0.1	1032.3
8320	19.392	6.	0.1	989.84
8321	19.576	6.	0.1	947.57
8322	19.761	6.	0.1	905.47
8323	19.945	6.	0.1	863.56
8324	20.129	6.	0.1	821.82
8325	20.314	6.	0.1	780.26
8326	20.498	6.	0.1	738.86
8327	20.682	6.	0.1	697.64
8328	20.867	6.	0.1	656.58
8329	21.051	6.	0.1	615.69
8330	21.235	6.	0.1	574.96
8331	21.42	6.	0.1	534.4
8332	21.604	6.	0.1	494.
8333	21.788	6.	0.1	453.78
8334	21.973	6.	0.1	413.73
8335	22.157	6.	0.1	373.88
8336	22.341	6.	0.1	334.23
8337	22.525	6.	0.1	294.82
8338	22.71	6.	0.1	255.68
8339	22.894	6.	0.1	216.86
8340	23.078	6.	0.1	178.44
8341	23.263	6.	0.1	140.56
8342	23.447	6.	0.1	103.42
8343	23.631	6.	0.1	67.414
8344	23.816	6.	0.1	33.473
8345	24.	6.	0.1	5.2143
8346	24.	5.8182	0.1	6.7342
8347	24.	5.6364	0.1	7.1062
8348	24.	5.4545	0.1	7.2219
8349	24.	5.2727	0.1	7.2577
8350	24.	5.0909	0.1	7.2356
8351	24.	4.9091	0.1	7.1959
8352	24.	4.7273	0.1	7.147
8353	24.	4.5455	0.1	7.0964
8354	24.	4.3636	0.1	7.0474
8355	24.	4.1818	0.1	7.0022
8356	24.	4.	0.1	6.9622
8357	24.	3.8182	0.1	6.9281
8358	24.	3.6364	0.1	6.9004
8359	24.	3.4545	0.1	6.8794
8360	24.	3.2727	0.1	6.8653
8361	24.	3.0909	0.1	6.8582
8362	24.	2.9091	0.1	6.8582
8363	24.	2.7273	0.1	6.8653
8364	24.	2.5455	0.1	6.8794
8365	24.	2.3636	0.1	6.9004
8366	24.	2.1818	0.1	6.9281
8367	24.	2.	0.1	6.9622
8368	24.	1.8182	0.1	7.0022
8369	24.	1.6364	0.1	7.0474
8370	24.	1.4545	0.1	7.0964
8371	24.	1.2727	0.1	7.147
8372	24.	1.0909	0.1	7.1959
8373	24.	0.90909	0.1	7.2356
8374	24.	0.72727	0.1	7.2577
8375	24.	0.54545	0.1	7.2219
8376	24.	0.36364	0.1	7.1062
8377	24.	0.18182	0.1	6.7342
8378	1.5894e-015	0.18182	0.1	2493.7
8379	3.1789e-015	0.36364	0.1	4636.2
8380	4.7683e-015	0.54545	0.1	5687.
8381	6.3578e-015	0.72727	0.1	6333.1
8382	7.9472e-015	0.90909	0.1	6764.3
8383	9.5366e-015	1.0909	0.1	7072.3
8384	1.1126e-014	1.2727	0.1	7300.2
8385	1.2716e-014	1.4545	0.1	7473.2
8386	1.4305e-014	1.6364	0.1	7606.5
8387	1.5894e-014	1.8182	0.1	7709.8
8388	1.7484e-014	2.	0.1	7789.9
8389	1.9073e-014	2.1818	0.1	7851.4
8390	2.0663e-014	2.3636	0.1	7897.4
8391	2.2252e-014	2.5455	0.1	7930.2
8392	2.3842e-014	2.7273	0.1	7951.3
8393	2.5431e-014	2.9091	0.1	7961.6
8394	2.702e-014	3.0909	0.1	7961.6
8395	2.861e-014	3.2727	0.1	7951.3
8396	3.0199e-014	3.4545	0.1	7930.2
8397	3.1789e-014	3.6364	0.1	7897.4
8398	3.3378e-014	3.8182	0.1	7851.4
8399	3.4968e-014	4.	0.1	7789.9
8400	3.6557e-014	4.1818	0.1	7709.8
8401	3.8147e-014	4.3636	0.1	7606.5
8402	3.9736e-014	4.5455	0.1	7473.2
8403	4.1325e-014	4.7273	0.1	7300.2
8404	4.2915e-014	4.9091	0.1	7072.3
8405	4.4504e-014	5.0909	0.1	6764.3
8406	4.6094e-014	5.2727	0.1	6333.1
8407	4.7683e-014	5.4545	0.1	5687.
8408	4.9273e-014	5.6364	0.1	4636.2
8409	5.0862e-014	5.8182	0.1	2493.7
8410	24.	0.	0.1	5.2142
8411	23.816	0.	0.1	33.473
8412	23.631	0.	0.1	67.414
8413	23.447	0.	0.1	103.42
8414	23.263	0.	0.1	140.56
8415	23.078	0.	0.1	178.44
8416	22.894	0.	0.1	216.86
8417	22.71	0.	0.1	255.68
8418	22.525	0.	0.1	294.82
8419	22.341	0.	0.1	334.23
8420	22.157	0.	0.1	373.88
8421	21.973	0.	0.1	413.73
8422	21.788	0.	0.1	453.78
8423	21.604	0.	0.1	494.
8424	21.42	0.	0.1	534.4
8425	21.235	0.	0.1	574.96
8426	21.051	0.	0.1	615.69
8427	20.867	0.	0.1	656.58
8428	20.682	0.	0.1	697.64
8429	20.498	0.	0.1	738.86
8430	20.314	0.	0.1	780.26
8431	20.129	0.	0.1	821.82
8432	19.945	0.	0.1	863.56
8433	19.761	0.	0.1	905.47
8434	19.576	0.	0.1	947.57
8435	19.392	0.	0.1	989.84
8436	19.208	0.	0.1	1032.3
8437	19.024	0.	0.1	1075.
8438	18.839	0.	0.1	1117.8
8439	18.655	0.	0.1	1160.8
8440	18.471	0.	0.1	1204.
8441	18.286	0.	0.1	1247.4
8442	18.102	0.	0.1	1291.
8443	17.918	0.	0.1	1334.8
8444	17.733	0.	0.1	1378.7
8445	17.549	0.	0.1	1422.8
8446	17.365	0.	0.1	1467.
8447	17.18	0.	0.1	1511.3
8448	16.996	0.	0.1	1555.7
8449	16.812	0.	0.1	1600.1
8450	16.627	0.	0.1	1644.6
8451	16.443	0.	0.1	1688.9
8452	16.259	0.	0.1	1733.
8453	16.075	0.	0.1	1776.8
8454	15.89	0.	0.1	1820.2
8455	15.706	0.	0.1	1862.8
8456	15.522	0.	0.1	1904.6
8457	15.337	0.	0.1	1945.1
8458	15.153	0.	0.1	1984.
8459	14.969	0.	0.1	2020.6
8460	14.784	0.	0.1	2054.5
8461	14.6	0.	0.1	2084.8
8462	14.416	0.	0.1	2110.5
8463	14.231	0.	0.1	2130.3
8464	14.047	0.	0.1	2142.8
8465	13.863	0.	0.1	2146.
8466	13.678	0.	0.1	2137.8
8467	13.494	0.	0.1	2115.4
8468	13.31	0.	0.1	2075.7
8469	13.125	0.	0.1	2015.2
8470	12.941	0.	0.1	1929.8
8471	12.757	0.	0.1	1815.4
8472	12.573	0.	0.1	1668.1
8473	12.388	0.	0.1	1484.4
8474	12.204	0.	0.1	1262.3
8475	12.02	0.	0.1	1001.3
8476	11.835	0.	0.1	702.04
8477	11.651	0.	0.1	360.58
8478	11.467	0.	0.1	35.126
8479	11.3	0.	0.1	39.103
8480	11.118	-6.4455e-030	0.1	421.64
8481	10.935	-6.3399e-030	0.1	843.5
8482	10.753	-6.2342e-030	0.1	1231.3
8483	10.571	-6.1285e-030	0.1	1587.7
8484	10.389	-6.0229e-030	0.1	1910.8
8485	10.206	-5.9172e-030	0.1	2199.2
8486	10.024	-5.8115e-030	0.1	2453.9
8487	9.8419	-5.7059e-030	0.1	2677.1
8488	9.6597	-5.6002e-030	0.1	2872.
8489	9.4774	-5.4946e-030	0.1	3042.1
8490	9.2952	-5.3889e-030	0.1	3191.2
8491	9.1129	-5.2832e-030	0.1	3322.6
8492	8.9306	-5.1776e-030	0.1	3439.3
8493	8.7484	-5.0719e-030	0.1	3544.
8494	8.5661	-4.9662e-030	0.1	3639.
8495	8.3839	-4.8606e-030	0.1	3726.2
8496	8.2016	-4.7549e-030	0.1	3807.1
8497	8.0194	-4.6492e-030	0.1	3883.1
8498	7.8371	-4.5436e-030	0.1	3955.1
8499	7.6548	-4.4379e-030	0.1	4024.1
8500	7.4726	-4.3322e-030	0.1	4090.7
8501	7.2903	-4.2266e-030	0.1	4155.6
8502	7.1081	-4.1209e-030	0.1	4219.1
8503	6.9258	-4.0152e-030	0.1	4281.6
8504	6.7435	-3.9096e-030	0.1	4343.5
8505	6.5613	-3.8039e-030	0.1	4404.9
8506	6.379	-3.6983e-030	0.1	4466.1
8507	6.1968	-3.5926e-030	0.1	4527.3
8508	6.0145	-3.4869e-030	0.1	4588.5
8509	5.8323	-3.3813e-030	0.1	4649.8
8510	5.65	-3.2756e-030	0.1	4711.5
8511	5.4677	-3.1699e-030	0.1	4773.4
8512	5.2855	-3.0643e-030	0.1	4835.8
8513	5.1032	-2.9586e-030	0.1	4898.6
8514	4.921	-2.8529e-030	0.1	4961.9
8515	4.7387	-2.7473e-030	0.1	5025.6
8516	4.5565	-2.6416e-030	0.1	5089.9
8517	4.3742	-2.5359e-030	0.1	5154.7
8518	4.1919	-2.4303e-030	0.1	5219.9
8519	4.0097	-2.3246e-030	0.1	5285.5
8520	3.8274	-2.219e-030	0.1	5351.5
8521	3.6452	-2.1133e-030	0.1	5417.6
8522	3.4629	-2.0076e-030	0.1	5483.9
8523	3.2806	-1.902e-030	0.1	5549.9
8524	3.0984	-1.7963e-030	0.1	5615.4
8525	2.9161	-1.6906e-030	0.1	5680.
8526	2.7339	-1.585e-030	0.1	5743.
8527	2.5516	-1.4793e-030	0.1	5803.9
8528	2.3694	-1.3736e-030	0.1	5861.5
8529	2.1871	-1.268e-030	0.1	5914.5
8530	2.0048	-1.1623e-030	0.1	5961.2
8531	1.8226	-1.0566e-030	0.1	5999.
8532	1.6403	-9.5098e-031	0.1	6024.6
8533	1.4581	-8.4532e-031	0.1	6033.
8534	1.2758	-7.3965e-031	0.1	6017.3
8535	1.0935	-6.3399e-031	0.1	5966.6
8536	0.91129	-5.2832e-031	0.1	5863.3
8537	0.72903	-4.2266e-031	0.1	5678.4
8538	0.54677	-3.1699e-031	0.1	5350.3
8539	0.36452	-2.1133e-031	0.1	4770.3
8540	0.18226	-1.0566e-031	0.1	3552.9
8541	0.	0.	0.1	750.99
8542	3.937e-014	6.	0.1	750.99
8543	0.18226	6.	0.1	3552.9
8544	0.36452	6.	0.1	4770.3
8545	0.54677	6.	0.1	5350.3
8546	0.72903	6.	0.1	5678.4
8547	0.91129	6.	0.1	5863.3
8548	1.0935	6.	0.1	5966.6
8549	1.2758	6.	0.1	6017.3
8550	1.4581	6.	0.1	6033.
8551	1.6403	6.	0.1	6024.6
8552	1.8226	6.	0.1	5999.
8553	2.0048	6.	0.1	5961.2
8554	2.1871	6.	0.1	5914.5
8555	2.3694	6.	0.1	5861.5
8556	2.5516	6.	0.1	5803.9
8557	2.7339	6.	0.1	5743.
8558	2.9161	6.	0.1	5680.
8559	3.0984	6.	0.1	5615.4
8560	3.2806	6.	0.1	5549.9
8561	3.4629	6.	0.1	5483.9
8562	3.6452	6.	0.1	5417.6
8563	3.8274	6.	0.1	5351.5
8564	4.0097	6.	0.1	5285.5
8565	4.1919	6.	0.1	5219.9
8566	4.3742	6.	0.1	5154.7
8567	4.5565	6.	0.1	5089.9
8568	4.7387	6.	0.1	5025.6
8569	4.921	6.	0.1	4961.9
8570	5.1032	6.	0.1	4898.6
8571	5.2855	6.	0.1	4835.8
8572	5.4677	6.	0.1	4773.4
8573	5.65	6.	0.1	4711.5
8574	5.8323	6.	0.1	4649.8
8575	6.0145	6.	0.1	4588.5
8576	6.1968	6.	0.1	4527.3
8577	6.379	6.	0.1	4466.1
8578	6.5613	6.	0.1	4404.9
8579	6.7435	6.	0.1	4343.5
8580	6.9258	6.	0.1	4281.6
8581	7.1081	6.	0.1	4219.1
8582	7.2903	6.	0.1	4155.6
8583	7.4726	6.	0.1	4090.7
8584	7.6548	6.	0.1	4024.1
8585	7.8371	6.	0.1	3955.1
8586	8.0194	6.	0.1	3883.1
8587	8.2016	6.	0.1	3807.1
8588	8.3839	6.	0.1	3726.2
8589	8.5661	6.	0.1	3639.
8590	8.7484	6.	0.1	3544.
8591	8.9306	6.	0.1	3439.3
8592	9.1129	6.	0.1	3322.6
8593	9.2952	6.	0.1	3191.2
8594	9.4774	6.	0.1	3042.1
8595	9.6597	6.	0.1	2872.
8596	9.8419	6.	0.1	2677.1
8597	10.024	6.	0.1	2453.9
8598	10.206	6.	0.1	2199.2
8599	10.389	6.	0.1	1910.8
8600	10.571	6.	0.1	1587.7
8601	10.753	6.	0.1	1231.3
8602	10.935	6.	0.1	843.5
8603	11.118	6.	0.1	421.64
8604	11.3	6.	0.1	39.103
8605	11.118	6.	0.	12.239
8606	10.935	6.	0.	12.612
8607	10.753	6.	0.	12.757
8608	10.571	6.	0.	11.899
8609	10.389	6.	0.	10.432
8610	10.206	6.	0.	8.916
8611	10.024	6.	0.	7.5398
8612	9.8419	6.	0.	6.3928
8613	9.6597	6.	0.	5.4791
8614	9.4774	6.	0.	4.7695
8615	9.2952	6.	0.	4.2215
8616	9.1129	6.	0.	3.7925
8617	8.9306	6.	0.	3.4453
8618	8.7484	6.	0.	3.1501
8619	8.5661	6.	0.	2.8846
8620	8.3839	6.	0.	2.6327
8621	8.2016	6.	0.	2.3833
8622	8.0194	6.	0.	2.1292
8623	7.8371	6.	0.	1.8659
8624	7.6548	6.	0.	1.5909
8625	7.4726	6.	0.	1.3031
8626	7.2903	6.	0.	1.0024
8627	7.1081	6.	0.	0.68948
8628	6.9258	6.	0.	0.36543
8629	6.7435	6.	0.	0.36673
8630	6.5613	6.	0.	0.43423
8631	6.379	6.	0.	0.50172
8632	6.1968	6.	0.	0.57012
8633	6.0145	6.	0.	0.64027
8634	5.8323	6.	0.	0.71294
8635	5.65	6.	0.	0.78889
8636	5.4677	6.	0.	0.86883
8637	5.2855	6.	0.	0.95346
8638	5.1032	6.	0.	1.0435
8639	4.921	6.	0.	1.1397
8640	4.7387	6.	0.	1.2429
8641	4.5565	6.	0.	1.354
8642	4.3742	6.	0.	1.474
8643	4.1919	6.	0.	1.6045
8644	4.0097	6.	0.	1.7473
8645	3.8274	6.	0.	1.9058
8646	3.6452	6.	0.	2.0859
8647	3.4629	6.	0.	2.3015
8648	3.2806	6.	0.	2.5958
8649	3.0984	6.	0.	3.1526
8650	2.9161	6.	0.	4.4976
8651	2.7339	6.	0.	6.7352
8652	2.5516	6.	0.	9.6804
8653	2.3694	6.	0.	13.361
8654	2.1871	6.	0.	17.896
8655	2.0048	6.	0.	23.458
8656	1.8226	6.	0.	30.277
8657	1.6403	6.	0.	38.671
8658	1.4581	6.	0.	49.072
8659	1.2758	6.	0.	62.158
8660	1.0935	6.	0.	78.831
8661	0.91129	6.	0.	101.1
8662	0.72903	6.	0.	131.26
8663	0.54677	6.	0.	177.95
8664	0.36452	6.	0.	258.91
8665	0.18226	6.	0.	444.39
8666	11.3	6.	0.	9.4158
8667	3.937e-014	6.	0.	1833.1
8668	0.18226	-1.0566e-031	0.	444.39
8669	0.36452	-2.1133e-031	0.	258.91
8670	0.54677	-3.1699e-031	0.	177.95
8671	0.72903	-4.2266e-031	0.	131.26
8672	0.91129	-5.2832e-031	0.	101.1
8673	1.0935	-6.3399e-031	0.	78.831
8674	1.2758	-7.3965e-031	0.	62.158
8675	1.4581	-8.4532e-031	0.	49.072
8676	1.6403	-9.5098e-031	0.	38.671
8677	1.8226	-1.0566e-030	0.	30.277
8678	2.0048	-1.1623e-030	0.	23.458
8679	2.1871	-1.268e-030	0.	17.896
8680	2.3694	-1.3736e-030	0.	13.361
8681	2.5516	-1.4793e-030	0.	9.6804
8682	2.7339	-1.585e-030	0.	6.7352
8683	2.9161	-1.6906e-030	0.	4.4976
8684	3.0984	-1.7963e-030	0.	3.1526
8685	3.2806	-1.902e-030	0.	2.5958
8686	3.4629	-2.0076e-030	0.	2.3015
8687	3.6452	-2.1133e-030	0.	2.0859
8688	3.8274	-2.219e-030	0.	1.9058
8689	4.0097	-2.3246e-030	0.	1.7473
8690	4.1919	-2.4303e-030	0.	1.6045
8691	4.3742	-2.5359e-030	0.	1.474
8692	4.5565	-2.6416e-030	0.	1.354
8693	4.7387	-2.7473e-030	0.	1.2429
8694	4.921	-2.8529e-030	0.	1.1397
8695	5.1032	-2.9586e-030	0.	1.0435
8696	5.2855	-3.0643e-030	0.	0.95346
8697	5.4677	-3.1699e-030	0.	0.86883
8698	5.65	-3.2756e-030	0.	0.78889
8699	5.8323	-3.3813e-030	0.	0.71294
8700	6.0145	-3.4869e-030	0.	0.64027
8701	6.1968	-3.5926e-030	0.	0.57012
8702	6.379	-3.6983e-030	0.	0.50172
8703	6.5613	-3.8039e-030	0.	0.43423
8704	6.7435	-3.9096e-030	0.	0.36673
8705	6.9258	-4.0152e-030	0.	0.36544
8706	7.1081	-4.1209e-030	0.	0.68949
8707	7.2903	-4.2266e-030	0.	1.0024
8708	7.4726	-4.3322e-030	0.	1.3031
8709	7.6548	-4.4379e-030	0.	1.5909
8710	7.8371	-4.5436e-030	0.	1.8659
8711	8.0194	-4.6492e-030	0.	2.1292
8712	8.2016	-4.7549e-030	0.	2.3834
8713	8.3839	-4.8606e-030	0.	2.6327
8714	8.5661	-4.9662e-030	0.	2.8846
8715	8.7484	-5.0719e-030	0.	3.1501
8716	8.9306	-5.1776e-030	0.	3.4453
8717	9.1129	-5.2832e-030	0.	3.7925
8718	9.2952	-5.3889e-030	0.	4.2215
8719	9.4774	-5.4946e-030	0.	4.7695
8720	9.6597	-5.6002e-030	0.	5.4791
8721	9.8419	-5.7059e-030	0.	6.3928
8722	10.024	-5.8115e-030	0.	7.5398
8723	10.206	-5.9172e-030	0.	8.916
8724	10.389	-6.0229e-030	0.	10.432
8725	10.571	-6.1285e-030	0.	11.899
8726	10.753	-6.2342e-030	0.	12.757
8727	10.935	-6.3399e-030	0.	12.612
8728	11.118	-6.4455e-030	0.	12.239
8729	11.3	0.	0.	9.4158
8730	0.	0.	0.	1833.1
8731	11.651	0.	0.	13.451
8732	11.835	0.	0.	16.184
8733	12.02	0.	0.	17.894
8734	12.204	0.	0.	17.835
8735	12.388	0.	0.	16.585
8736	12.573	0.	0.	14.855
8737	12.757	0.	0.	12.989
8738	12.941	0.	0.	11.201
8739	13.125	0.	0.	9.5952
8740	13.31	0.	0.	8.2141
8741	13.494	0.	0.	7.063
8742	13.678	0.	0.	6.1286
8743	13.863	0.	0.	5.3893
8744	14.047	0.	0.	4.8214
8745	14.231	0.	0.	4.4016
8746	14.416	0.	0.	4.1087
8747	14.6	0.	0.	3.9239
8748	14.784	0.	0.	3.8308
8749	14.969	0.	0.	3.8152
8750	15.153	0.	0.	3.8648
8751	15.337	0.	0.	3.969
8752	15.522	0.	0.	4.1187
8753	15.706	0.	0.	4.3059
8754	15.89	0.	0.	4.524
8755	16.075	0.	0.	4.7672
8756	16.259	0.	0.	5.0304
8757	16.443	0.	0.	5.3096
8758	16.627	0.	0.	5.6011
8759	16.812	0.	0.	5.9022
8760	16.996	0.	0.	6.2103
8761	17.18	0.	0.	6.5234
8762	17.365	0.	0.	6.84
8763	17.549	0.	0.	7.1586
8764	17.733	0.	0.	7.4784
8765	17.918	0.	0.	7.7984
8766	18.102	0.	0.	8.1181
8767	18.286	0.	0.	8.4369
8768	18.471	0.	0.	8.7546
8769	18.655	0.	0.	9.0708
8770	18.839	0.	0.	9.3853
8771	19.024	0.	0.	9.698
8772	19.208	0.	0.	10.009
8773	19.392	0.	0.	10.317
8774	19.576	0.	0.	10.623
8775	19.761	0.	0.	10.926
8776	19.945	0.	0.	11.227
8777	20.129	0.	0.	11.523
8778	20.314	0.	0.	11.816
8779	20.498	0.	0.	12.105
8780	20.682	0.	0.	12.387
8781	20.867	0.	0.	12.664
8782	21.051	0.	0.	12.933
8783	21.235	0.	0.	13.192
8784	21.42	0.	0.	13.441
8785	21.604	0.	0.	13.676
8786	21.788	0.	0.	13.896
8787	21.973	0.	0.	14.096
8788	22.157	0.	0.	14.272
8789	22.341	0.	0.	14.42
8790	22.525	0.	0.	14.531
8791	22.71	0.	0.	14.596
8792	22.894	0.	0.	14.603
8793	23.078	0.	0.	14.529
8794	23.263	0.	0.	14.344
8795	23.447	0.	0.	13.965
8796	23.631	0.	0.	13.387
8797	23.816	0.	0.	11.221
8798	11.467	0.	0.	7.9029
8799	24.	0.	0.	5.6786
8800	5.0862e-014	5.8182	0.	-1058.2
8801	4.9273e-014	5.6364	0.	-2241.5
8802	4.7683e-014	5.4545	0.	-2785.3
8803	4.6094e-014	5.2727	0.	-3110.
8804	4.4504e-014	5.0909	0.	-3325.4
8805	4.2915e-014	4.9091	0.	-3478.9
8806	4.1325e-014	4.7273	0.	-3592.3
8807	3.9736e-014	4.5455	0.	-3678.3
8808	3.8147e-014	4.3636	0.	-3744.5
8809	3.6557e-014	4.1818	0.	-3795.9
8810	3.4968e-014	4.	0.	-3835.7
8811	3.3378e-014	3.8182	0.	-3866.3
8812	3.1789e-014	3.6364	0.	-3889.2
8813	3.0199e-014	3.4545	0.	-3905.6
8814	2.861e-014	3.2727	0.	-3916.2
8815	2.702e-014	3.0909	0.	-3921.4
8816	2.5431e-014	2.9091	0.	-3921.4
8817	2.3842e-014	2.7273	0.	-3916.2
8818	2.2252e-014	2.5455	0.	-3905.6
8819	2.0663e-014	2.3636	0.	-3889.2
8820	1.9073e-014	2.1818	0.	-3866.3
8821	1.7484e-014	2.	0.	-3835.7
8822	1.5894e-014	1.8182	0.	-3795.9
8823	1.4305e-014	1.6364	0.	-3744.5
8824	1.2716e-014	1.4545	0.	-3678.3
8825	1.1126e-014	1.2727	0.	-3592.3
8826	9.5366e-015	1.0909	0.	-3478.9
8827	7.9472e-015	0.90909	0.	-3325.4
8828	6.3578e-015	0.72727	0.	-3110.
8829	4.7683e-015	0.54545	0.	-2785.3
8830	3.1789e-015	0.36364	0.	-2241.5
8831	1.5894e-015	0.18182	0.	-1058.2
8832	24.	0.18182	0.	36.086
8833	24.	0.36364	0.	62.981
8834	24.	0.54545	0.	83.677
8835	24.	0.72727	0.	100.82
8836	24.	0.90909	0.	115.41
8837	24.	1.0909	0.	127.96
8838	24.	1.2727	0.	138.81
8839	24.	1.4545	0.	148.19
8840	24.	1.6364	0.	156.24
8841	24.	1.8182	0.	163.09
8842	24.	2.	0.	168.83
8843	24.	2.1818	0.	173.53
8844	24.	2.3636	0.	177.23
8845	24.	2.5455	0.	179.98
8846	24.	2.7273	0.	181.79
8847	24.	2.9091	0.	182.7
8848	24.	3.0909	0.	182.7
8849	24.	3.2727	0.	181.79
8850	24.	3.4545	0.	179.98
8851	24.	3.6364	0.	177.23
8852	24.	3.8182	0.	173.53
8853	24.	4.	0.	168.83
8854	24.	4.1818	0.	163.09
8855	24.	4.3636	0.	156.24
8856	24.	4.5455	0.	148.19
8857	24.	4.7273	0.	138.81
8858	24.	4.9091	0.	127.96
8859	24.	5.0909	0.	115.41
8860	24.	5.2727	0.	100.82
8861	24.	5.4545	0.	83.677
8862	24.	5.6364	0.	62.981
8863	24.	5.8182	0.	36.086
8864	24.	6.	0.	5.6786
8865	23.816	6.	0.	11.221
8866	23.631	6.	0.	13.387
8867	23.447	6.	0.	13.965
8868	23.263	6.	0.	14.344
8869	23.078	6.	0.	14.529
8870	22.894	6.	0.	14.603
8871	22.71	6.	0.	14.596
8872	22.525	6.	0.	14.531
8873	22.341	6.	0.	14.42
8874	22.157	6.	0.	14.272
8875	21.973	6.	0.	14.096
8876	21.788	6.	0.	13.896
8877	21.604	6.	0.	13.676
8878	21.42	6.	0.	13.441
8879	21.235	6.	0.	13.192
8880	21.051	6.	0.	12.933
8881	20.867	6.	0.	12.664
8882	20.682	6.	0.	12.387
8883	20.498	6.	0.	12.105
8884	20.314	6.	0.	11.816
8885	20.129	6.	0.	11.523
8886	19.945	6.	0.	11.227
8887	19.761	6.	0.	10.926
8888	19.576	6.	0.	10.623
8889	19.392	6.	0.	10.317
8890	19.208	6.	0.	10.009
8891	19.024	6.	0.	9.698
8892	18.839	6.	0.	9.3853
8893	18.655	6.	0.	9.0708
8894	18.471	6.	0.	8.7546
8895	18.286	6.	0.	8.4369
8896	18.102	6.	0.	8.1181
8897	17.918	6.	0.	7.7984
8898	17.733	6.	0.	7.4784
8899	17.549	6.	0.	7.1586
8900	17.365	6.	0.	6.84
8901	17.18	6.	0.	6.5234
8902	16.996	6.	0.	6.2103
8903	16.812	6.	0.	5.9022
8904	16.627	6.	0.	5.6011
8905	16.443	6.	0.	5.3095
8906	16.259	6.	0.	5.0304
8907	16.075	6.	0.	4.7672
8908	15.89	6.	0.	4.524
8909	15.706	6.	0.	4.3059
8910	15.522	6.	0.	4.1187
8911	15.337	6.	0.	3.969
8912	15.153	6.	0.	3.8648
8913	14.969	6.	0.	3.8152
8914	14.784	6.	0.	3.8308
8915	14.6	6.	0.	3.9239
8916	14.416	6.	0.	4.1087
8917	14.231	6.	0.	4.4016
8918	14.047	6.	0.	4.8214
8919	13.863	6.	0.	5.3893
8920	13.678	6.	0.	6.1286
8921	13.494	6.	0.	7.063
8922	13.31	6.	0.	8.2141
8923	13.125	6.	0.	9.5952
8924	12.941	6.	0.	11.201
8925	12.757	6.	0.	12.989
8926	12.573	6.	0.	14.855
8927	12.388	6.	0.	16.585
8928	12.204	6.	0.	17.835
8929	12.02	6.	0.	17.894
8930	11.835	6.	0.	16.184
8931	11.651	6.	0.	13.451
8932	11.467	6.	0.	7.9029
8933	11.3	1.8182	0.	4214.7
8934	11.3	1.6364	0.	2119.7
8935	11.3	1.4545	0.	1634.
8936	11.3	1.2727	0.	1213.9
8937	11.3	1.0909	0.	913.51
8938	11.3	0.90909	0.	676.8
8939	11.3	0.72727	0.	482.6
8940	11.3	0.54545	0.	319.98
8941	11.3	0.36364	0.	183.55
8942	11.3	0.18182	0.	71.464
8943	11.3	2.	0.	3405.7
8944	11.467	0.18182	0.	51.737
8945	11.467	0.36364	0.	129.39
8946	11.467	0.54545	0.	221.46
8947	11.467	0.72727	0.	329.61
8948	11.467	0.90909	0.	458.22
8949	11.467	1.0909	0.	615.68
8950	11.467	1.2727	0.	817.25
8951	11.467	1.4545	0.	1109.
8952	11.467	1.6364	0.	1403.5
8953	11.467	1.8182	0.	3119.6
8954	11.467	2.	0.	2026.7
8955	11.3	4.1818	0.	4214.7
8956	11.3	4.3636	0.	2119.7
8957	11.3	4.5455	0.	1634.
8958	11.3	4.7273	0.	1213.9
8959	11.3	4.9091	0.	913.51
8960	11.3	5.0909	0.	676.8
8961	11.3	5.2727	0.	482.6
8962	11.3	5.4545	0.	319.98
8963	11.3	5.6364	0.	183.55
8964	11.3	5.8182	0.	71.464
8965	11.3	4.	0.	3405.7
8966	11.467	5.8182	0.	51.737
8967	11.467	5.6364	0.	129.39
8968	11.467	5.4545	0.	221.46
8969	11.467	5.2727	0.	329.61
8970	11.467	5.0909	0.	458.22
8971	11.467	4.9091	0.	615.68
8972	11.467	4.7273	0.	817.25
8973	11.467	4.5455	0.	1109.
8974	11.467	4.3636	0.	1403.5
8975	11.467	4.1818	0.	3119.6
8976	11.467	4.	0.	2026.7
8977	11.3	2.2727	0.	1231.8
8978	11.383	2.1818	0.	1138.7
8979	11.209	2.1818	0.	1197.1
8980	11.3	2.1818	5.e-002	393.47
8981	11.3	2.0909	0.	2218.7
8982	11.3	2.4545	0.	999.19
8983	11.383	2.3636	0.	1012.5
8984	11.209	2.3636	0.	989.33
8985	11.3	2.3636	5.e-002	66.085
8986	11.3	2.6364	0.	867.6
8987	11.383	2.5455	0.	877.18
8988	11.209	2.5455	0.	849.08
8989	11.3	2.5455	5.e-002	31.663
8990	11.3	2.8182	0.	801.21
8991	11.383	2.7273	0.	797.88
8992	11.209	2.7273	0.	779.62
8993	11.3	2.7273	5.e-002	16.335
8994	11.3	3.	0.	780.6
8995	11.383	2.9091	0.	760.79
8996	11.209	2.9091	0.	746.73
8997	11.3	2.9091	5.e-002	9.1756
8998	11.3	3.1818	0.	801.21
8999	11.383	3.0909	0.	760.79
9000	11.209	3.0909	0.	746.73
9001	11.3	3.0909	5.e-002	9.1755
9002	11.3	3.3636	0.	867.6
9003	11.383	3.2727	0.	797.88
9004	11.209	3.2727	0.	779.62
9005	11.3	3.2727	5.e-002	16.335
9006	11.3	3.5455	0.	999.19
9007	11.383	3.4545	0.	877.18
9008	11.209	3.4545	0.	849.08
9009	11.3	3.4545	5.e-002	31.663
9010	11.3	3.7273	0.	1231.8
9011	11.383	3.6364	0.	1012.5
9012	11.209	3.6364	0.	989.33
9013	11.3	3.6364	5.e-002	66.085
9014	11.383	3.8182	0.	1138.7
9015	11.209	3.8182	0.	1197.1
9016	11.3	3.8182	5.e-002	393.47
9017	11.3	3.9091	0.	2218.7
9018	11.467	2.2727	0.	1040.2
9019	11.559	2.1818	0.	820.78
9020	11.467	2.1818	5.e-002	352.65
9021	11.467	2.0909	0.	1394.
9022	11.467	2.4545	0.	925.58
9023	11.559	2.3636	0.	818.05
9024	11.467	2.3636	5.e-002	71.713
9025	11.467	2.6364	0.	816.56
9026	11.559	2.5455	0.	733.59
9027	11.467	2.5455	5.e-002	34.521
9028	11.467	2.8182	0.	759.1
9029	11.559	2.7273	0.	688.01
9030	11.467	2.7273	5.e-002	19.179
9031	11.467	3.	0.	740.85
9032	11.559	2.9091	0.	664.35
9033	11.467	2.9091	5.e-002	12.655
9034	11.467	3.1818	0.	759.1
9035	11.559	3.0909	0.	664.35
9036	11.467	3.0909	5.e-002	12.655
9037	11.467	3.3636	0.	816.56
9038	11.559	3.2727	0.	688.01
9039	11.467	3.2727	5.e-002	19.179
9040	11.467	3.5455	0.	925.58
9041	11.559	3.4545	0.	733.59
9042	11.467	3.4545	5.e-002	34.52
9043	11.467	3.7273	0.	1040.2
9044	11.559	3.6364	0.	818.05
9045	11.467	3.6364	5.e-002	71.713
9046	11.559	3.8182	0.	820.78
9047	11.467	3.8182	5.e-002	352.65
9048	11.467	3.9091	0.	1394.
9049	11.118	5.7273	0.	163.22
9050	11.027	5.8182	0.	78.662
9051	11.118	5.8182	5.e-002	48.866
9052	11.118	5.9091	0.	39.342
9053	11.209	5.8182	0.	51.667
9054	11.118	5.5455	0.	327.9
9055	11.027	5.6364	0.	171.42
9056	11.118	5.6364	5.e-002	44.105
9057	11.209	5.6364	0.	173.48
9058	11.118	5.3636	0.	541.76
9059	11.027	5.4545	0.	335.93
9060	11.118	5.4545	5.e-002	46.554
9061	11.209	5.4545	0.	335.58
9062	11.118	5.1818	0.	792.37
9063	11.027	5.2727	0.	539.89
9064	11.118	5.2727	5.e-002	51.642
9065	11.209	5.2727	0.	526.41
9066	11.118	5.	0.	1084.4
9067	11.027	5.0909	0.	776.76
9068	11.118	5.0909	5.e-002	59.354
9069	11.209	5.0909	0.	749.45
9070	11.118	4.8182	0.	1431.4
9071	11.027	4.9091	0.	1048.5
9072	11.118	4.9091	5.e-002	70.338
9073	11.209	4.9091	0.	1014.5
9074	11.118	4.6364	0.	1851.9
9075	11.027	4.7273	0.	1362.5
9076	11.118	4.7273	5.e-002	87.399
9077	11.209	4.7273	0.	1339.5
9078	11.118	4.4545	0.	2403.3
9079	11.027	4.5455	0.	1716.1
9080	11.118	4.5455	5.e-002	109.11
9081	11.209	4.5455	0.	1765.1
9082	11.118	4.2727	0.	2935.2
9083	11.027	4.3636	0.	2123.3
9084	11.118	4.3636	5.e-002	164.42
9085	11.209	4.3636	0.	2280.9
9086	11.118	4.0909	0.	2704.9
9087	11.027	4.1818	0.	2361.
9088	11.118	4.1818	5.e-002	316.12
9089	11.209	4.1818	0.	3459.1
9090	11.118	3.9091	0.	1667.4
9091	11.027	4.	0.	1745.7
9092	11.118	4.	5.e-002	567.89
9093	11.209	4.	0.	2563.2
9094	11.118	3.7273	0.	1025.1
9095	11.027	3.8182	0.	974.65
9096	11.118	3.8182	5.e-002	253.51
9097	11.118	3.5455	0.	857.86
9098	11.027	3.6364	0.	784.45
9099	11.118	3.6364	5.e-002	109.06
9100	11.118	3.3636	0.	766.76
9101	11.027	3.4545	0.	698.27
9102	11.118	3.4545	5.e-002	59.863
9103	11.118	3.1818	0.	725.7
9104	11.027	3.2727	0.	659.77
9105	11.118	3.2727	5.e-002	35.439
9106	11.118	3.	0.	712.14
9107	11.027	3.0909	0.	642.04
9108	11.118	3.0909	5.e-002	26.921
9109	11.118	2.8182	0.	725.7
9110	11.027	2.9091	0.	642.04
9111	11.118	2.9091	5.e-002	26.921
9112	11.118	2.6364	0.	766.76
9113	11.027	2.7273	0.	659.77
9114	11.118	2.7273	5.e-002	35.439
9115	11.118	2.4545	0.	857.86
9116	11.027	2.5455	0.	698.27
9117	11.118	2.5455	5.e-002	59.864
9118	11.118	2.2727	0.	1025.1
9119	11.027	2.3636	0.	784.45
9120	11.118	2.3636	5.e-002	109.06
9121	11.118	2.0909	0.	1667.4
9122	11.027	2.1818	0.	974.65
9123	11.118	2.1818	5.e-002	253.51
9124	11.118	1.9091	0.	2704.9
9125	11.027	2.	0.	1745.7
9126	11.118	2.	5.e-002	567.89
9127	11.209	2.	0.	2563.2
9128	11.118	1.7273	0.	2935.2
9129	11.027	1.8182	0.	2361.
9130	11.118	1.8182	5.e-002	316.12
9131	11.209	1.8182	0.	3459.1
9132	11.118	1.5455	0.	2403.3
9133	11.027	1.6364	0.	2123.3
9134	11.118	1.6364	5.e-002	164.42
9135	11.209	1.6364	0.	2280.9
9136	11.118	1.3636	0.	1851.9
9137	11.027	1.4545	0.	1716.1
9138	11.118	1.4545	5.e-002	109.11
9139	11.209	1.4545	0.	1765.1
9140	11.118	1.1818	0.	1431.4
9141	11.027	1.2727	0.	1362.5
9142	11.118	1.2727	5.e-002	87.399
9143	11.209	1.2727	0.	1339.5
9144	11.118	1.	0.	1084.4
9145	11.027	1.0909	0.	1048.5
9146	11.118	1.0909	5.e-002	70.338
9147	11.209	1.0909	0.	1014.5
9148	11.118	0.81818	0.	792.37
9149	11.027	0.90909	0.	776.76
9150	11.118	0.90909	5.e-002	59.354
9151	11.209	0.90909	0.	749.45
9152	11.118	0.63636	0.	541.76
9153	11.027	0.72727	0.	539.89
9154	11.118	0.72727	5.e-002	51.642
9155	11.209	0.72727	0.	526.41
9156	11.118	0.45455	0.	327.9
9157	11.027	0.54545	0.	335.93
9158	11.118	0.54545	5.e-002	46.554
9159	11.209	0.54545	0.	335.58
9160	11.118	0.27273	0.	163.22
9161	11.027	0.36364	0.	171.42
9162	11.118	0.36364	5.e-002	44.105
9163	11.209	0.36364	0.	173.48
9164	11.027	0.18182	0.	78.662
9165	11.118	0.18182	5.e-002	48.866
9166	11.118	9.0909e-002	0.	39.342
9167	11.209	0.18182	0.	51.667
9168	10.935	5.7273	0.	106.05
9169	10.844	5.8182	0.	71.274
9170	10.935	5.8182	5.e-002	44.865
9171	10.935	5.9091	0.	31.632
9172	10.935	5.5455	0.	208.89
9173	10.844	5.6364	0.	130.65
9174	10.935	5.6364	5.e-002	39.467
9175	10.935	5.3636	0.	365.03
9176	10.844	5.4545	0.	245.2
9177	10.935	5.4545	5.e-002	39.889
9178	10.935	5.1818	0.	556.07
9179	10.844	5.2727	0.	397.3
9180	10.935	5.2727	5.e-002	42.044
9181	10.935	5.	0.	775.3
9182	10.844	5.0909	0.	576.35
9183	10.935	5.0909	5.e-002	45.793
9184	10.935	4.8182	0.	1019.9
9185	10.844	4.9091	0.	775.06
9186	10.935	4.9091	5.e-002	51.378
9187	10.935	4.6364	0.	1276.9
9188	10.844	4.7273	0.	984.88
9189	10.935	4.7273	5.e-002	58.471
9190	10.935	4.4545	0.	1509.2
9191	10.844	4.5455	0.	1181.6
9192	10.935	4.5455	5.e-002	71.825
9193	10.935	4.2727	0.	1610.1
9194	10.844	4.3636	0.	1316.3
9195	10.935	4.3636	5.e-002	68.493
9196	10.935	4.0909	0.	1384.
9197	10.844	4.1818	0.	1273.4
9198	10.935	4.1818	5.e-002	99.189
9199	10.935	3.9091	0.	981.24
9200	10.844	4.	0.	960.5
9201	10.935	4.	5.e-002	86.274
9202	10.935	3.7273	0.	713.11
9203	10.844	3.8182	0.	671.79
9204	10.935	3.8182	5.e-002	121.17
9205	10.935	3.5455	0.	617.03
9206	10.844	3.6364	0.	544.85
9207	10.935	3.6364	5.e-002	83.47
9208	10.935	3.3636	0.	587.51
9209	10.844	3.4545	0.	510.12
9210	10.935	3.4545	5.e-002	62.045
9211	10.935	3.1818	0.	573.12
9212	10.844	3.2727	0.	496.19
9213	10.935	3.2727	5.e-002	44.264
9214	10.935	3.	0.	569.03
9215	10.844	3.0909	0.	491.63
9216	10.935	3.0909	5.e-002	36.691
9217	10.935	2.8182	0.	573.12
9218	10.844	2.9091	0.	491.63
9219	10.935	2.9091	5.e-002	36.691
9220	10.935	2.6364	0.	587.51
9221	10.844	2.7273	0.	496.19
9222	10.935	2.7273	5.e-002	44.264
9223	10.935	2.4545	0.	617.03
9224	10.844	2.5455	0.	510.12
9225	10.935	2.5455	5.e-002	62.045
9226	10.935	2.2727	0.	713.11
9227	10.844	2.3636	0.	544.85
9228	10.935	2.3636	5.e-002	83.471
9229	10.935	2.0909	0.	981.24
9230	10.844	2.1818	0.	671.79
9231	10.935	2.1818	5.e-002	121.17
9232	10.935	1.9091	0.	1384.
9233	10.844	2.	0.	960.5
9234	10.935	2.	5.e-002	86.274
9235	10.935	1.7273	0.	1610.1
9236	10.844	1.8182	0.	1273.4
9237	10.935	1.8182	5.e-002	99.189
9238	10.935	1.5455	0.	1509.2
9239	10.844	1.6364	0.	1316.3
9240	10.935	1.6364	5.e-002	68.493
9241	10.935	1.3636	0.	1276.9
9242	10.844	1.4545	0.	1181.6
9243	10.935	1.4545	5.e-002	71.825
9244	10.935	1.1818	0.	1019.9
9245	10.844	1.2727	0.	984.88
9246	10.935	1.2727	5.e-002	58.471
9247	10.935	1.	0.	775.3
9248	10.844	1.0909	0.	775.06
9249	10.935	1.0909	5.e-002	51.378
9250	10.935	0.81818	0.	556.07
9251	10.844	0.90909	0.	576.35
9252	10.935	0.90909	5.e-002	45.793
9253	10.935	0.63636	0.	365.03
9254	10.844	0.72727	0.	397.3
9255	10.935	0.72727	5.e-002	42.044
9256	10.935	0.45455	0.	208.89
9257	10.844	0.54545	0.	245.2
9258	10.935	0.54545	5.e-002	39.889
9259	10.935	0.27273	0.	106.05
9260	10.844	0.36364	0.	130.65
9261	10.935	0.36364	5.e-002	39.467
9262	10.844	0.18182	0.	71.274
9263	10.935	0.18182	5.e-002	44.865
9264	10.935	9.0909e-002	0.	31.632
9265	10.753	5.7273	0.	101.17
9266	10.662	5.8182	0.	72.73
9267	10.753	5.8182	5.e-002	42.462
9268	10.753	5.9091	0.	35.316
9269	10.753	5.5455	0.	179.42
9270	10.662	5.6364	0.	128.01
9271	10.753	5.6364	5.e-002	37.347
9272	10.753	5.3636	0.	295.6
9273	10.662	5.4545	0.	215.5
9274	10.753	5.4545	5.e-002	37.494
9275	10.753	5.1818	0.	439.09
9276	10.662	5.2727	0.	328.95
9277	10.753	5.2727	5.e-002	38.702
9278	10.753	5.	0.	600.25
9279	10.662	5.0909	0.	460.66
9280	10.753	5.0909	5.e-002	40.617
9281	10.753	4.8182	0.	766.78
9282	10.662	4.9091	0.	600.61
9283	10.753	4.9091	5.e-002	43.022
9284	10.753	4.6364	0.	918.35
9285	10.662	4.7273	0.	733.89
9286	10.753	4.7273	5.e-002	45.115
9287	10.753	4.4545	0.	1013.7
9288	10.662	4.5455	0.	837.1
9289	10.753	4.5455	5.e-002	44.5
9290	10.753	4.2727	0.	994.94
9291	10.662	4.3636	0.	868.59
9292	10.753	4.3636	5.e-002	43.73
9293	10.753	4.0909	0.	847.65
9294	10.662	4.1818	0.	789.72
9295	10.753	4.1818	5.e-002	41.702
9296	10.753	3.9091	0.	644.55
9297	10.662	4.	0.	626.09
9298	10.753	4.	5.e-002	53.733
9299	10.753	3.7273	0.	494.04
9300	10.662	3.8182	0.	465.97
9301	10.753	3.8182	5.e-002	58.486
9302	10.753	3.5455	0.	429.96
9303	10.662	3.6364	0.	378.87
9304	10.753	3.6364	5.e-002	58.47
9305	10.753	3.3636	0.	412.96
9306	10.662	3.4545	0.	349.79
9307	10.753	3.4545	5.e-002	49.539
9308	10.753	3.1818	0.	410.12
9309	10.662	3.2727	0.	343.41
9310	10.753	3.2727	5.e-002	42.35
9311	10.753	3.	0.	410.06
9312	10.662	3.0909	0.	343.09
9313	10.753	3.0909	5.e-002	38.164
9314	10.753	2.8182	0.	410.12
9315	10.662	2.9091	0.	343.09
9316	10.753	2.9091	5.e-002	38.164
9317	10.753	2.6364	0.	412.96
9318	10.662	2.7273	0.	343.41
9319	10.753	2.7273	5.e-002	42.35
9320	10.753	2.4545	0.	429.96
9321	10.662	2.5455	0.	349.79
9322	10.753	2.5455	5.e-002	49.539
9323	10.753	2.2727	0.	494.04
9324	10.662	2.3636	0.	378.87
9325	10.753	2.3636	5.e-002	58.471
9326	10.753	2.0909	0.	644.55
9327	10.662	2.1818	0.	465.97
9328	10.753	2.1818	5.e-002	58.487
9329	10.753	1.9091	0.	847.65
9330	10.662	2.	0.	626.09
9331	10.753	2.	5.e-002	53.734
9332	10.753	1.7273	0.	994.94
9333	10.662	1.8182	0.	789.72
9334	10.753	1.8182	5.e-002	41.702
9335	10.753	1.5455	0.	1013.7
9336	10.662	1.6364	0.	868.59
9337	10.753	1.6364	5.e-002	43.73
9338	10.753	1.3636	0.	918.35
9339	10.662	1.4545	0.	837.1
9340	10.753	1.4545	5.e-002	44.5
9341	10.753	1.1818	0.	766.78
9342	10.662	1.2727	0.	733.89
9343	10.753	1.2727	5.e-002	45.115
9344	10.753	1.	0.	600.25
9345	10.662	1.0909	0.	600.61
9346	10.753	1.0909	5.e-002	43.022
9347	10.753	0.81818	0.	439.09
9348	10.662	0.90909	0.	460.66
9349	10.753	0.90909	5.e-002	40.617
9350	10.753	0.63636	0.	295.6
9351	10.662	0.72727	0.	328.95
9352	10.753	0.72727	5.e-002	38.702
9353	10.753	0.45455	0.	179.42
9354	10.662	0.54545	0.	215.5
9355	10.753	0.54545	5.e-002	37.494
9356	10.753	0.27273	0.	101.17
9357	10.662	0.36364	0.	128.01
9358	10.753	0.36364	5.e-002	37.347
9359	10.662	0.18182	0.	72.73
9360	10.753	0.18182	5.e-002	42.462
9361	10.753	9.0909e-002	0.	35.316
9362	10.571	5.7273	0.	101.94
9363	10.48	5.8182	0.	72.203
9364	10.571	5.8182	5.e-002	39.16
9365	10.571	5.9091	0.	37.507
9366	10.571	5.5455	0.	169.76
9367	10.48	5.6364	0.	128.69
9368	10.571	5.6364	5.e-002	34.217
9369	10.571	5.3636	0.	258.82
9370	10.48	5.4545	0.	200.48
9371	10.571	5.4545	5.e-002	34.029
9372	10.571	5.1818	0.	363.96
9373	10.48	5.2727	0.	285.83
9374	10.571	5.2727	5.e-002	34.353
9375	10.571	5.	0.	476.89
9376	10.48	5.0909	0.	379.98
9377	10.571	5.0909	5.e-002	34.748
9378	10.571	4.8182	0.	584.88
9379	10.48	4.9091	0.	473.95
9380	10.571	4.9091	5.e-002	34.809
9381	10.571	4.6364	0.	669.27
9382	10.48	4.7273	0.	554.45
9383	10.571	4.7273	5.e-002	33.887
9384	10.571	4.4545	0.	705.3
9385	10.48	4.5455	0.	603.33
9386	10.571	4.5455	5.e-002	31.642
9387	10.571	4.2727	0.	670.7
9388	10.48	4.3636	0.	600.37
9389	10.571	4.3636	5.e-002	28.738
9390	10.571	4.0909	0.	570.74
9391	10.48	4.1818	0.	535.85
9392	10.571	4.1818	5.e-002	29.087
9393	10.571	3.9091	0.	447.17
9394	10.48	4.	0.	431.46
9395	10.571	4.	5.e-002	33.581
9396	10.571	3.7273	0.	348.31
9397	10.48	3.8182	0.	329.83
9398	10.571	3.8182	5.e-002	37.365
9399	10.571	3.5455	0.	294.89
9400	10.48	3.6364	0.	262.71
9401	10.571	3.6364	5.e-002	38.869
9402	10.571	3.3636	0.	276.13
9403	10.48	3.4545	0.	232.29
9404	10.571	3.4545	5.e-002	37.881
9405	10.571	3.1818	0.	272.43
9406	10.48	3.2727	0.	222.88
9407	10.571	3.2727	5.e-002	35.821
9408	10.571	3.	0.	272.27
9409	10.48	3.0909	0.	221.13
9410	10.571	3.0909	5.e-002	34.352
9411	10.571	2.8182	0.	272.43
9412	10.48	2.9091	0.	221.13
9413	10.571	2.9091	5.e-002	34.352
9414	10.571	2.6364	0.	276.13
9415	10.48	2.7273	0.	222.88
9416	10.571	2.7273	5.e-002	35.821
9417	10.571	2.4545	0.	294.89
9418	10.48	2.5455	0.	232.29
9419	10.571	2.5455	5.e-002	37.881
9420	10.571	2.2727	0.	348.31
9421	10.48	2.3636	0.	262.71
9422	10.571	2.3636	5.e-002	38.869
9423	10.571	2.0909	0.	447.17
9424	10.48	2.1818	0.	329.83
9425	10.571	2.1818	5.e-002	37.365
9426	10.571	1.9091	0.	570.74
9427	10.48	2.	0.	431.46
9428	10.571	2.	5.e-002	33.581
9429	10.571	1.7273	0.	670.7
9430	10.48	1.8182	0.	535.85
9431	10.571	1.8182	5.e-002	29.087
9432	10.571	1.5455	0.	705.3
9433	10.48	1.6364	0.	600.37
9434	10.571	1.6364	5.e-002	28.738
9435	10.571	1.3636	0.	669.27
9436	10.48	1.4545	0.	603.33
9437	10.571	1.4545	5.e-002	31.642
9438	10.571	1.1818	0.	584.88
9439	10.48	1.2727	0.	554.45
9440	10.571	1.2727	5.e-002	33.887
9441	10.571	1.	0.	476.89
9442	10.48	1.0909	0.	473.95
9443	10.571	1.0909	5.e-002	34.809
9444	10.571	0.81818	0.	363.96
9445	10.48	0.90909	0.	379.98
9446	10.571	0.90909	5.e-002	34.748
9447	10.571	0.63636	0.	258.82
9448	10.48	0.72727	0.	285.83
9449	10.571	0.72727	5.e-002	34.353
9450	10.571	0.45455	0.	169.76
9451	10.48	0.54545	0.	200.48
9452	10.571	0.54545	5.e-002	34.029
9453	10.571	0.27273	0.	101.94
9454	10.48	0.36364	0.	128.69
9455	10.571	0.36364	5.e-002	34.217
9456	10.48	0.18182	0.	72.203
9457	10.571	0.18182	5.e-002	39.16
9458	10.571	9.0909e-002	0.	37.507
9459	10.389	5.7273	0.	100.36
9460	10.298	5.8182	0.	69.049
9461	10.389	5.8182	5.e-002	35.267
9462	10.389	5.9091	0.	37.226
9463	10.389	5.5455	0.	162.43
9464	10.298	5.6364	0.	126.26
9465	10.389	5.6364	5.e-002	30.713
9466	10.389	5.3636	0.	233.1
9467	10.298	5.4545	0.	187.59
9468	10.389	5.4545	5.e-002	30.2
9469	10.389	5.1818	0.	309.89
9470	10.298	5.2727	0.	252.98
9471	10.389	5.2727	5.e-002	29.867
9472	10.389	5.	0.	386.82
9473	10.298	5.0909	0.	319.53
9474	10.389	5.0909	5.e-002	29.289
9475	10.389	4.8182	0.	453.99
9476	10.298	4.9091	0.	380.6
9477	10.389	4.9091	5.e-002	28.163
9478	10.389	4.6364	0.	498.32
9479	10.298	4.7273	0.	426.55
9480	10.389	4.7273	5.e-002	26.249
9481	10.389	4.4545	0.	506.13
9482	10.298	4.5455	0.	446.1
9483	10.389	4.5455	5.e-002	23.634
9484	10.389	4.2727	0.	470.48
9485	10.298	4.3636	0.	430.02
9486	10.389	4.3636	5.e-002	21.521
9487	10.389	4.0909	0.	399.19
9488	10.298	4.1818	0.	378.56
9489	10.389	4.1818	5.e-002	21.692
9490	10.389	3.9091	0.	315.1
9491	10.298	4.	0.	305.46
9492	10.389	4.	5.e-002	23.708
9493	10.389	3.7273	0.	243.91
9494	10.298	3.8182	0.	233.32
9495	10.389	3.8182	5.e-002	25.911
9496	10.389	3.5455	0.	198.61
9497	10.298	3.6364	0.	179.84
9498	10.389	3.6364	5.e-002	27.568
9499	10.389	3.3636	0.	176.74
9500	10.298	3.4545	0.	149.1
9501	10.389	3.4545	5.e-002	28.449
9502	10.389	3.1818	0.	168.9
9503	10.298	3.2727	0.	135.28
9504	10.389	3.2727	5.e-002	28.568
9505	10.389	3.	0.	167.2
9506	10.298	3.0909	0.	130.62
9507	10.389	3.0909	5.e-002	28.44
9508	10.389	2.8182	0.	168.9
9509	10.298	2.9091	0.	130.62
9510	10.389	2.9091	5.e-002	28.441
9511	10.389	2.6364	0.	176.74
9512	10.298	2.7273	0.	135.28
9513	10.389	2.7273	5.e-002	28.568
9514	10.389	2.4545	0.	198.61
9515	10.298	2.5455	0.	149.1
9516	10.389	2.5455	5.e-002	28.449
9517	10.389	2.2727	0.	243.91
9518	10.298	2.3636	0.	179.84
9519	10.389	2.3636	5.e-002	27.568
9520	10.389	2.0909	0.	315.1
9521	10.298	2.1818	0.	233.32
9522	10.389	2.1818	5.e-002	25.911
9523	10.389	1.9091	0.	399.19
9524	10.298	2.	0.	305.46
9525	10.389	2.	5.e-002	23.708
9526	10.389	1.7273	0.	470.48
9527	10.298	1.8182	0.	378.56
9528	10.389	1.8182	5.e-002	21.692
9529	10.389	1.5455	0.	506.13
9530	10.298	1.6364	0.	430.02
9531	10.389	1.6364	5.e-002	21.521
9532	10.389	1.3636	0.	498.32
9533	10.298	1.4545	0.	446.1
9534	10.389	1.4545	5.e-002	23.634
9535	10.389	1.1818	0.	453.99
9536	10.298	1.2727	0.	426.55
9537	10.389	1.2727	5.e-002	26.249
9538	10.389	1.	0.	386.82
9539	10.298	1.0909	0.	380.6
9540	10.389	1.0909	5.e-002	28.164
9541	10.389	0.81818	0.	309.89
9542	10.298	0.90909	0.	319.53
9543	10.389	0.90909	5.e-002	29.289
9544	10.389	0.63636	0.	233.1
9545	10.298	0.72727	0.	252.98
9546	10.389	0.72727	5.e-002	29.867
9547	10.389	0.45455	0.	162.43
9548	10.298	0.54545	0.	187.59
9549	10.389	0.54545	5.e-002	30.2
9550	10.389	0.27273	0.	100.36
9551	10.298	0.36364	0.	126.26
9552	10.389	0.36364	5.e-002	30.713
9553	10.298	0.18182	0.	69.049
9554	10.389	0.18182	5.e-002	35.267
9555	10.389	9.0909e-002	0.	37.226
9556	10.206	5.7273	0.	95.856
9557	10.115	5.8182	0.	64.142
9558	10.206	5.8182	5.e-002	31.134
9559	10.206	5.9091	0.	35.393
9560	10.206	5.5455	0.	153.2
9561	10.115	5.6364	0.	120.17
9562	10.206	5.6364	5.e-002	27.161
9563	10.206	5.3636	0.	210.75
9564	10.115	5.4545	0.	173.45
9565	10.206	5.4545	5.e-002	26.423
9566	10.206	5.1818	0.	267.37
9567	10.115	5.2727	0.	224.47
9568	10.206	5.2727	5.e-002	25.694
9569	10.206	5.	0.	319.13
9570	10.115	5.0909	0.	271.56
9571	10.206	5.0909	5.e-002	24.627
9572	10.206	4.8182	0.	359.37
9573	10.115	4.9091	0.	310.3
9574	10.206	4.9091	5.e-002	23.073
9575	10.206	4.6364	0.	380.12
9576	10.115	4.7273	0.	334.61
9577	10.206	4.7273	5.e-002	21.006
9578	10.206	4.4545	0.	374.65
9579	10.115	4.5455	0.	338.24
9580	10.206	4.5455	5.e-002	18.748
9581	10.206	4.2727	0.	341.37
9582	10.115	4.3636	0.	317.65
9583	10.206	4.3636	5.e-002	17.071
9584	10.206	4.0909	0.	286.86
9585	10.115	4.1818	0.	275.08
9586	10.206	4.1818	5.e-002	16.732
9587	10.206	3.9091	0.	224.76
9588	10.115	4.	0.	219.76
9589	10.206	4.	5.e-002	17.54
9590	10.206	3.7273	0.	169.52
9591	10.115	3.8182	0.	164.57
9592	10.206	3.8182	5.e-002	18.813
9593	10.206	3.5455	0.	129.82
9594	10.115	3.6364	0.	120.06
9595	10.206	3.6364	5.e-002	20.133
9596	10.206	3.3636	0.	106.45
9597	10.115	3.4545	0.	90.368
9598	10.206	3.4545	5.e-002	21.264
9599	10.206	3.1818	0.	95.395
9600	10.115	3.2727	0.	73.914
9601	10.206	3.2727	5.e-002	22.004
9602	10.206	3.	0.	92.289
9603	10.115	3.0909	0.	66.996
9604	10.206	3.0909	5.e-002	22.341
9605	10.206	2.8182	0.	95.395
9606	10.115	2.9091	0.	66.996
9607	10.206	2.9091	5.e-002	22.341
9608	10.206	2.6364	0.	106.45
9609	10.115	2.7273	0.	73.914
9610	10.206	2.7273	5.e-002	22.004
9611	10.206	2.4545	0.	129.82
9612	10.115	2.5455	0.	90.368
9613	10.206	2.5455	5.e-002	21.264
9614	10.206	2.2727	0.	169.52
9615	10.115	2.3636	0.	120.06
9616	10.206	2.3636	5.e-002	20.133
9617	10.206	2.0909	0.	224.76
9618	10.115	2.1818	0.	164.57
9619	10.206	2.1818	5.e-002	18.813
9620	10.206	1.9091	0.	286.86
9621	10.115	2.	0.	219.76
9622	10.206	2.	5.e-002	17.54
9623	10.206	1.7273	0.	341.37
9624	10.115	1.8182	0.	275.08
9625	10.206	1.8182	5.e-002	16.732
9626	10.206	1.5455	0.	374.65
9627	10.115	1.6364	0.	317.65
9628	10.206	1.6364	5.e-002	17.071
9629	10.206	1.3636	0.	380.12
9630	10.115	1.4545	0.	338.24
9631	10.206	1.4545	5.e-002	18.748
9632	10.206	1.1818	0.	359.37
9633	10.115	1.2727	0.	334.61
9634	10.206	1.2727	5.e-002	21.006
9635	10.206	1.	0.	319.13
9636	10.115	1.0909	0.	310.3
9637	10.206	1.0909	5.e-002	23.073
9638	10.206	0.81818	0.	267.37
9639	10.115	0.90909	0.	271.56
9640	10.206	0.90909	5.e-002	24.627
9641	10.206	0.63636	0.	210.75
9642	10.115	0.72727	0.	224.47
9643	10.206	0.72727	5.e-002	25.694
9644	10.206	0.45455	0.	153.2
9645	10.115	0.54545	0.	173.45
9646	10.206	0.54545	5.e-002	26.423
9647	10.206	0.27273	0.	95.856
9648	10.115	0.36364	0.	120.17
9649	10.206	0.36364	5.e-002	27.161
9650	10.115	0.18182	0.	64.142
9651	10.206	0.18182	5.e-002	31.134
9652	10.206	9.0909e-002	0.	35.393
9653	10.024	5.7273	0.	89.038
9654	9.9331	5.8182	0.	58.237
9655	10.024	5.8182	5.e-002	27.046
9656	10.024	5.9091	0.	32.633
9657	10.024	5.5455	0.	141.53
9658	9.9331	5.6364	0.	111.24
9659	10.024	5.6364	5.e-002	23.791
9660	10.024	5.3636	0.	189.14
9661	9.9331	5.4545	0.	157.64
9662	10.024	5.4545	5.e-002	22.953
9663	10.024	5.1818	0.	231.47
9664	9.9331	5.2727	0.	198.05
9665	10.024	5.2727	5.e-002	22.042
9666	10.024	5.	0.	266.16
9667	9.9331	5.0909	0.	231.6
9668	10.024	5.0909	5.e-002	20.812
9669	10.024	4.8182	0.	289.18
9670	9.9331	4.9091	0.	255.64
9671	10.024	4.9091	5.e-002	19.214
9672	10.024	4.6364	0.	296.14
9673	9.9331	4.7273	0.	266.68
9674	10.024	4.7273	5.e-002	17.321
9675	10.024	4.4545	0.	284.06
9676	9.9331	4.5455	0.	261.7
9677	10.024	4.5455	5.e-002	15.408
9678	10.024	4.2727	0.	253.46
9679	9.9331	4.3636	0.	239.74
9680	10.024	4.3636	5.e-002	13.942
9681	10.024	4.0909	0.	209.39
9682	9.9331	4.1818	0.	203.41
9683	10.024	4.1818	5.e-002	13.287
9684	10.024	3.9091	0.	160.41
9685	9.9331	4.	0.	158.96
9686	10.024	4.	5.e-002	13.401
9687	10.024	3.7273	0.	115.46
9688	9.9331	3.8182	0.	114.39
9689	10.024	3.8182	5.e-002	14.001
9690	10.024	3.5455	0.	80.489
9691	9.9331	3.6364	0.	76.531
9692	10.024	3.6364	5.e-002	14.86
9693	10.024	3.3636	0.	57.272
9694	9.9331	3.4545	0.	48.857
9695	10.024	3.4545	5.e-002	15.764
9696	10.024	3.1818	0.	44.625
9697	9.9331	3.2727	0.	31.606
9698	10.024	3.2727	5.e-002	16.494
9699	10.024	3.	0.	40.681
9700	9.9331	3.0909	0.	23.472
9701	10.024	3.0909	5.e-002	16.888
9702	10.024	2.8182	0.	44.625
9703	9.9331	2.9091	0.	23.472
9704	10.024	2.9091	5.e-002	16.888
9705	10.024	2.6364	0.	57.272
9706	9.9331	2.7273	0.	31.606
9707	10.024	2.7273	5.e-002	16.494
9708	10.024	2.4545	0.	80.489
9709	9.9331	2.5455	0.	48.857
9710	10.024	2.5455	5.e-002	15.764
9711	10.024	2.2727	0.	115.46
9712	9.9331	2.3636	0.	76.531
9713	10.024	2.3636	5.e-002	14.86
9714	10.024	2.0909	0.	160.41
9715	9.9331	2.1818	0.	114.39
9716	10.024	2.1818	5.e-002	14.001
9717	10.024	1.9091	0.	209.39
9718	9.9331	2.	0.	158.96
9719	10.024	2.	5.e-002	13.401
9720	10.024	1.7273	0.	253.46
9721	9.9331	1.8182	0.	203.41
9722	10.024	1.8182	5.e-002	13.287
9723	10.024	1.5455	0.	284.06
9724	9.9331	1.6364	0.	239.74
9725	10.024	1.6364	5.e-002	13.942
9726	10.024	1.3636	0.	296.14
9727	9.9331	1.4545	0.	261.7
9728	10.024	1.4545	5.e-002	15.408
9729	10.024	1.1818	0.	289.18
9730	9.9331	1.2727	0.	266.68
9731	10.024	1.2727	5.e-002	17.321
9732	10.024	1.	0.	266.16
9733	9.9331	1.0909	0.	255.64
9734	10.024	1.0909	5.e-002	19.214
9735	10.024	0.81818	0.	231.47
9736	9.9331	0.90909	0.	231.6
9737	10.024	0.90909	5.e-002	20.812
9738	10.024	0.63636	0.	189.14
9739	9.9331	0.72727	0.	198.05
9740	10.024	0.72727	5.e-002	22.042
9741	10.024	0.45455	0.	141.53
9742	9.9331	0.54545	0.	157.64
9743	10.024	0.54545	5.e-002	22.953
9744	10.024	0.27273	0.	89.038
9745	9.9331	0.36364	0.	111.24
9746	10.024	0.36364	5.e-002	23.791
9747	9.9331	0.18182	0.	58.237
9748	10.024	0.18182	5.e-002	27.046
9749	10.024	9.0909e-002	0.	32.633
9750	9.8419	5.7273	0.	80.796
9751	9.7508	5.8182	0.	51.934
9752	9.8419	5.8182	5.e-002	23.207
9753	9.8419	5.9091	0.	29.433
9754	9.8419	5.5455	0.	128.07
9755	9.7508	5.6364	0.	100.57
9756	9.8419	5.6364	5.e-002	20.735
9757	9.8419	5.3636	0.	167.76
9758	9.7508	5.4545	0.	140.77
9759	9.8419	5.4545	5.e-002	19.898
9760	9.8419	5.1818	0.	199.86
9761	9.7508	5.2727	0.	173.09
9762	9.8419	5.2727	5.e-002	18.953
9763	9.8419	5.	0.	223.09
9764	9.7508	5.0909	0.	197.2
9765	9.8419	5.0909	5.e-002	17.743
9766	9.8419	4.8182	0.	235.27
9767	9.7508	4.9091	0.	211.65
9768	9.8419	4.9091	5.e-002	16.269
9769	9.8419	4.6364	0.	234.25
9770	9.7508	4.7273	0.	214.71
9771	9.8419	4.7273	5.e-002	14.622
9772	9.8419	4.4545	0.	219.07
9773	9.7508	4.5455	0.	205.16
9774	9.8419	4.5455	5.e-002	12.998
9775	9.8419	4.2727	0.	190.99
9776	9.7508	4.3636	0.	183.31
9777	9.8419	4.3636	5.e-002	11.659
9778	9.8419	4.0909	0.	153.9
9779	9.7508	4.1818	0.	151.58
9780	9.8419	4.1818	5.e-002	10.804
9781	9.8419	3.9091	0.	113.52
9782	9.7508	4.	0.	114.41
9783	9.8419	4.	5.e-002	10.466
9784	9.8419	3.7273	0.	75.755
9785	9.7508	3.8182	0.	77.15
9786	9.8419	3.8182	5.e-002	10.555
9787	9.8419	3.5455	0.	44.947
9788	9.7508	3.6364	0.	44.548
9789	9.8419	3.6364	5.e-002	10.953
9790	9.8419	3.3636	0.	23.075
9791	9.7508	3.4545	0.	19.627
9792	9.8419	3.4545	5.e-002	11.507
9793	9.8419	3.1818	0.	10.149
9794	9.7508	3.2727	0.	4.1011
9795	9.8419	3.2727	5.e-002	12.02
9796	9.8419	3.	0.	5.6385
9797	9.7508	3.0909	0.	0.37842
9798	9.8419	3.0909	5.e-002	12.322
9799	9.8419	2.8182	0.	10.149
9800	9.7508	2.9091	0.	0.37842
9801	9.8419	2.9091	5.e-002	12.322
9802	9.8419	2.6364	0.	23.075
9803	9.7508	2.7273	0.	4.1011
9804	9.8419	2.7273	5.e-002	12.02
9805	9.8419	2.4545	0.	44.947
9806	9.7508	2.5455	0.	19.627
9807	9.8419	2.5455	5.e-002	11.507
9808	9.8419	2.2727	0.	75.755
9809	9.7508	2.3636	0.	44.548
9810	9.8419	2.3636	5.e-002	10.953
9811	9.8419	2.0909	0.	113.52
9812	9.7508	2.1818	0.	77.15
9813	9.8419	2.1818	5.e-002	10.555
9814	9.8419	1.9091	0.	153.9
9815	9.7508	2.	0.	114.41
9816	9.8419	2.	5.e-002	10.466
9817	9.8419	1.7273	0.	190.99
9818	9.7508	1.8182	0.	151.58
9819	9.8419	1.8182	5.e-002	10.804
9820	9.8419	1.5455	0.	219.07
9821	9.7508	1.6364	0.	183.31
9822	9.8419	1.6364	5.e-002	11.659
9823	9.8419	1.3636	0.	234.25
9824	9.7508	1.4545	0.	205.16
9825	9.8419	1.4545	5.e-002	12.998
9826	9.8419	1.1818	0.	235.27
9827	9.7508	1.2727	0.	214.71
9828	9.8419	1.2727	5.e-002	14.622
9829	9.8419	1.	0.	223.09
9830	9.7508	1.0909	0.	211.65
9831	9.8419	1.0909	5.e-002	16.27
9832	9.8419	0.81818	0.	199.86
9833	9.7508	0.90909	0.	197.2
9834	9.8419	0.90909	5.e-002	17.743
9835	9.8419	0.63636	0.	167.76
9836	9.7508	0.72727	0.	173.09
9837	9.8419	0.72727	5.e-002	18.953
9838	9.8419	0.45455	0.	128.07
9839	9.7508	0.54545	0.	140.77
9840	9.8419	0.54545	5.e-002	19.898
9841	9.8419	0.27273	0.	80.796
9842	9.7508	0.36364	0.	100.57
9843	9.8419	0.36364	5.e-002	20.735
9844	9.7508	0.18182	0.	51.934
9845	9.8419	0.18182	5.e-002	23.207
9846	9.8419	9.0909e-002	0.	29.433
9847	9.6597	5.7273	0.	71.899
9848	9.5685	5.8182	0.	45.647
9849	9.6597	5.8182	5.e-002	19.733
9850	9.6597	5.9091	0.	26.114
9851	9.6597	5.5455	0.	113.72
9852	9.5685	5.6364	0.	89.101
9853	9.6597	5.6364	5.e-002	18.052
9854	9.6597	5.3636	0.	146.85
9855	9.5685	5.4545	0.	123.59
9856	9.6597	5.4545	5.e-002	17.285
9857	9.6597	5.1818	0.	171.44
9858	9.5685	5.2727	0.	149.56
9859	9.6597	5.2727	5.e-002	16.392
9860	9.6597	5.	0.	186.95
9861	9.5685	5.0909	0.	166.98
9862	9.6597	5.0909	5.e-002	15.288
9863	9.6597	4.8182	0.	192.34
9864	9.5685	4.9091	0.	175.17
9865	9.6597	4.9091	5.e-002	13.996
9866	9.6597	4.6364	0.	186.8
9867	9.5685	4.7273	0.	173.47
9868	9.6597	4.7273	5.e-002	12.591
9869	9.6597	4.4545	0.	170.42
9870	9.5685	4.5455	0.	161.69
9871	9.6597	4.5455	5.e-002	11.197
9872	9.6597	4.2727	0.	144.69
9873	9.5685	4.3636	0.	140.67
9874	9.6597	4.3636	5.e-002	9.9627
9875	9.6597	4.0909	0.	112.66
9876	9.5685	4.1818	0.	112.57
9877	9.6597	4.1818	5.e-002	9.0004
9878	9.6597	3.9091	0.	78.405
9879	9.5685	4.	0.	80.702
9880	9.6597	4.	5.e-002	8.3601
9881	9.6597	3.7273	0.	46.131
9882	9.5685	3.8182	0.	48.916
9883	9.6597	3.8182	5.e-002	8.0435
9884	9.6597	3.5455	0.	19.363
9885	9.5685	3.6364	0.	20.936
9886	9.6597	3.6364	5.e-002	8.0194
9887	9.6597	3.3636	0.	2.8056
9888	9.5685	3.4545	0.	2.9373
9889	9.6597	3.4545	5.e-002	8.2021
9890	9.6597	3.1818	0.	0.41507
9891	9.5685	3.2727	0.	0.49097
9892	9.6597	3.2727	5.e-002	8.4494
9893	9.6597	3.	0.	0.19565
9894	9.5685	3.0909	0.	0.19324
9895	9.6597	3.0909	5.e-002	8.6165
9896	9.6597	2.8182	0.	0.41507
9897	9.5685	2.9091	0.	0.19324
9898	9.6597	2.9091	5.e-002	8.6165
9899	9.6597	2.6364	0.	2.8056
9900	9.5685	2.7273	0.	0.49097
9901	9.6597	2.7273	5.e-002	8.4494
9902	9.6597	2.4545	0.	19.363
9903	9.5685	2.5455	0.	2.9373
9904	9.6597	2.5455	5.e-002	8.2021
9905	9.6597	2.2727	0.	46.131
9906	9.5685	2.3636	0.	20.935
9907	9.6597	2.3636	5.e-002	8.0194
9908	9.6597	2.0909	0.	78.405
9909	9.5685	2.1818	0.	48.916
9910	9.6597	2.1818	5.e-002	8.0434
9911	9.6597	1.9091	0.	112.66
9912	9.5685	2.	0.	80.702
9913	9.6597	2.	5.e-002	8.3601
9914	9.6597	1.7273	0.	144.69
9915	9.5685	1.8182	0.	112.57
9916	9.6597	1.8182	5.e-002	9.0004
9917	9.6597	1.5455	0.	170.42
9918	9.5685	1.6364	0.	140.67
9919	9.6597	1.6364	5.e-002	9.9627
9920	9.6597	1.3636	0.	186.8
9921	9.5685	1.4545	0.	161.69
9922	9.6597	1.4545	5.e-002	11.197
9923	9.6597	1.1818	0.	192.34
9924	9.5685	1.2727	0.	173.47
9925	9.6597	1.2727	5.e-002	12.591
9926	9.6597	1.	0.	186.95
9927	9.5685	1.0909	0.	175.17
9928	9.6597	1.0909	5.e-002	13.996
9929	9.6597	0.81818	0.	171.44
9930	9.5685	0.90909	0.	166.98
9931	9.6597	0.90909	5.e-002	15.288
9932	9.6597	0.63636	0.	146.85
9933	9.5685	0.72727	0.	149.56
9934	9.6597	0.72727	5.e-002	16.392
9935	9.6597	0.45455	0.	113.72
9936	9.5685	0.54545	0.	123.59
9937	9.6597	0.54545	5.e-002	17.285
9938	9.6597	0.27273	0.	71.899
9939	9.5685	0.36364	0.	89.101
9940	9.6597	0.36364	5.e-002	18.053
9941	9.5685	0.18182	0.	45.647
9942	9.6597	0.18182	5.e-002	19.733
9943	9.6597	9.0909e-002	0.	26.114
9944	9.4774	5.7273	0.	62.921
9945	9.3863	5.8182	0.	39.631
9946	9.4774	5.8182	5.e-002	16.678
9947	9.4774	5.9091	0.	22.876
9948	9.4774	5.5455	0.	99.248
9949	9.3863	5.6364	0.	77.533
9950	9.4774	5.6364	5.e-002	15.752
9951	9.4774	5.3636	0.	126.76
9952	9.3863	5.4545	0.	106.75
9953	9.4774	5.4545	5.e-002	15.091
9954	9.4774	5.1818	0.	145.7
9955	9.3863	5.2727	0.	127.57
9956	9.4774	5.2727	5.e-002	14.294
9957	9.4774	5.	0.	155.9
9958	9.3863	5.0909	0.	140.1
9959	9.4774	5.0909	5.e-002	13.33
9960	9.4774	4.8182	0.	157.03
9961	9.3863	4.9091	0.	144.16
9962	9.4774	4.9091	5.e-002	12.225
9963	9.4774	4.6364	0.	149.05
9964	9.3863	4.7273	0.	139.68
9965	9.4774	4.7273	5.e-002	11.035
9966	9.4774	4.4545	0.	132.54
9967	9.3863	4.5455	0.	127.
9968	9.4774	4.5455	5.e-002	9.8348
9969	9.4774	4.2727	0.	109.02
9970	9.3863	4.3636	0.	107.18
9971	9.4774	4.3636	5.e-002	8.7043
9972	9.4774	4.0909	0.	80.954
9973	9.3863	4.1818	0.	82.119
9974	9.4774	4.1818	5.e-002	7.7051
9975	9.4774	3.9091	0.	51.415
9976	9.3863	4.	0.	54.407
9977	9.4774	4.	5.e-002	6.8769
9978	9.4774	3.7273	0.	23.734
9979	9.3863	3.8182	0.	27.08
9980	9.4774	3.8182	5.e-002	6.2508
9981	9.4774	3.5455	0.	3.7631
9982	9.3863	3.6364	0.	5.1883
9983	9.4774	3.6364	5.e-002	5.8517
9984	9.4774	3.3636	0.	0.58376
9985	9.3863	3.4545	0.	0.70775
9986	9.4774	3.4545	5.e-002	5.67
9987	9.4774	3.1818	0.	0.21171
9988	9.3863	3.2727	0.	0.24809
9989	9.4774	3.2727	5.e-002	5.6374
9990	9.4774	3.	0.	0.13768
9991	9.3863	3.0909	0.	0.12974
9992	9.4774	3.0909	5.e-002	5.6556
9993	9.4774	2.8182	0.	0.21171
9994	9.3863	2.9091	0.	0.12974
9995	9.4774	2.9091	5.e-002	5.6556
9996	9.4774	2.6364	0.	0.58376
9997	9.3863	2.7273	0.	0.24809
9998	9.4774	2.7273	5.e-002	5.6374
9999	9.4774	2.4545	0.	3.7631
10000	9.3863	2.5455	0.	0.70775
10001	9.4774	2.5455	5.e-002	5.6699
10002	9.4774	2.2727	0.	23.734
10003	9.3863	2.3636	0.	5.1883
10004	9.4774	2.3636	5.e-002	5.8516
10005	9.4774	2.0909	0.	51.415
10006	9.3863	2.1818	0.	27.08
10007	9.4774	2.1818	5.e-002	6.2507
10008	9.4774	1.9091	0.	80.954
10009	9.3863	2.	0.	54.407
10010	9.4774	2.	5.e-002	6.8769
10011	9.4774	1.7273	0.	109.02
10012	9.3863	1.8182	0.	82.119
10013	9.4774	1.8182	5.e-002	7.7051
10014	9.4774	1.5455	0.	132.54
10015	9.3863	1.6364	0.	107.18
10016	9.4774	1.6364	5.e-002	8.7043
10017	9.4774	1.3636	0.	149.05
10018	9.3863	1.4545	0.	127.
10019	9.4774	1.4545	5.e-002	9.8349
10020	9.4774	1.1818	0.	157.03
10021	9.3863	1.2727	0.	139.68
10022	9.4774	1.2727	5.e-002	11.035
10023	9.4774	1.	0.	155.9
10024	9.3863	1.0909	0.	144.16
10025	9.4774	1.0909	5.e-002	12.225
10026	9.4774	0.81818	0.	145.7
10027	9.3863	0.90909	0.	140.1
10028	9.4774	0.90909	5.e-002	13.33
10029	9.4774	0.63636	0.	126.76
10030	9.3863	0.72727	0.	127.57
10031	9.4774	0.72727	5.e-002	14.294
10032	9.4774	0.45455	0.	99.248
10033	9.3863	0.54545	0.	106.75
10034	9.4774	0.54545	5.e-002	15.092
10035	9.4774	0.27273	0.	62.921
10036	9.3863	0.36364	0.	77.533
10037	9.4774	0.36364	5.e-002	15.752
10038	9.3863	0.18182	0.	39.631
10039	9.4774	0.18182	5.e-002	16.678
10040	9.4774	9.0909e-002	0.	22.876
10041	9.2952	5.7273	0.	54.242
10042	9.204	5.8182	0.	34.027
10043	9.2952	5.8182	5.e-002	14.048
10044	9.2952	5.9091	0.	19.827
10045	9.2952	5.5455	0.	85.201
10046	9.204	5.6364	0.	66.342
10047	9.2952	5.6364	5.e-002	13.812
10048	9.2952	5.3636	0.	107.83
10049	9.204	5.4545	0.	90.695
10050	9.2952	5.4545	5.e-002	13.274
10051	9.2952	5.1818	0.	122.33
10052	9.204	5.2727	0.	107.21
10053	9.2952	5.2727	5.e-002	12.588
10054	9.2952	5.	0.	128.78
10055	9.204	5.0909	0.	116.07
10056	9.2952	5.0909	5.e-002	11.768
10057	9.2952	4.8182	0.	127.23
10058	9.204	4.9091	0.	117.32
10059	9.2952	4.9091	5.e-002	10.838
10060	9.2952	4.6364	0.	118.02
10061	9.204	4.7273	0.	111.23
10062	9.2952	4.7273	5.e-002	9.8346
10063	9.2952	4.4545	0.	101.98
10064	9.204	4.5455	0.	98.405
10065	9.2952	4.5455	5.e-002	8.8024
10066	9.2952	4.2727	0.	80.548
10067	9.204	4.3636	0.	79.951
10068	9.2952	4.3636	5.e-002	7.7824
10069	9.2952	4.0909	0.	55.757
10070	9.204	4.1818	0.	57.524
10071	9.2952	4.1818	5.e-002	6.8044
10072	9.2952	3.9091	0.	30.115
10073	9.204	4.	0.	33.275
10074	9.2952	4.	5.e-002	5.8895
10075	9.2952	3.7273	0.	7.4532
10076	9.204	3.8182	0.	10.289
10077	9.2952	3.8182	5.e-002	5.0614
10078	9.2952	3.5455	0.	0.85912
10079	9.204	3.6364	0.	1.072
10080	9.2952	3.6364	5.e-002	4.3571
10081	9.2952	3.3636	0.	0.28661
10082	9.204	3.4545	0.	0.33583
10083	9.2952	3.4545	5.e-002	3.8192
10084	9.2952	3.1818	0.	0.1343
10085	9.204	3.2727	0.	0.15134
10086	9.2952	3.2727	5.e-002	3.4729
10087	9.2952	3.	0.	9.6658e-002
10088	9.204	3.0909	0.	8.9312e-002
10089	9.2952	3.0909	5.e-002	3.3102
10090	9.2952	2.8182	0.	0.1343
10091	9.204	2.9091	0.	8.9313e-002
10092	9.2952	2.9091	5.e-002	3.3102
10093	9.2952	2.6364	0.	0.28661
10094	9.204	2.7273	0.	0.15134
10095	9.2952	2.7273	5.e-002	3.4729
10096	9.2952	2.4545	0.	0.85912
10097	9.204	2.5455	0.	0.33583
10098	9.2952	2.5455	5.e-002	3.8192
10099	9.2952	2.2727	0.	7.4532
10100	9.204	2.3636	0.	1.0719
10101	9.2952	2.3636	5.e-002	4.357
10102	9.2952	2.0909	0.	30.115
10103	9.204	2.1818	0.	10.289
10104	9.2952	2.1818	5.e-002	5.0614
10105	9.2952	1.9091	0.	55.757
10106	9.204	2.	0.	33.275
10107	9.2952	2.	5.e-002	5.8894
10108	9.2952	1.7273	0.	80.548
10109	9.204	1.8182	0.	57.524
10110	9.2952	1.8182	5.e-002	6.8044
10111	9.2952	1.5455	0.	101.98
10112	9.204	1.6364	0.	79.951
10113	9.2952	1.6364	5.e-002	7.7824
10114	9.2952	1.3636	0.	118.02
10115	9.204	1.4545	0.	98.405
10116	9.2952	1.4545	5.e-002	8.8024
10117	9.2952	1.1818	0.	127.23
10118	9.204	1.2727	0.	111.23
10119	9.2952	1.2727	5.e-002	9.8346
10120	9.2952	1.	0.	128.78
10121	9.204	1.0909	0.	117.32
10122	9.2952	1.0909	5.e-002	10.838
10123	9.2952	0.81818	0.	122.33
10124	9.204	0.90909	0.	116.07
10125	9.2952	0.90909	5.e-002	11.768
10126	9.2952	0.63636	0.	107.83
10127	9.204	0.72727	0.	107.21
10128	9.2952	0.72727	5.e-002	12.588
10129	9.2952	0.45455	0.	85.201
10130	9.204	0.54545	0.	90.695
10131	9.2952	0.54545	5.e-002	13.275
10132	9.2952	0.27273	0.	54.242
10133	9.204	0.36364	0.	66.342
10134	9.2952	0.36364	5.e-002	13.812
10135	9.204	0.18182	0.	34.027
10136	9.2952	0.18182	5.e-002	14.049
10137	9.2952	9.0909e-002	0.	19.827
10138	9.1129	5.7273	0.	46.082
10139	9.0218	5.8182	0.	28.891
10140	9.1129	5.8182	5.e-002	11.824
10141	9.1129	5.9091	0.	17.019
10142	9.1129	5.5455	0.	71.93
10143	9.0218	5.6364	0.	55.809
10144	9.1129	5.6364	5.e-002	12.199
10145	9.1129	5.3636	0.	90.242
10146	9.0218	5.4545	0.	75.697
10147	9.1129	5.4545	5.e-002	11.784
10148	9.1129	5.1818	0.	101.16
10149	9.0218	5.2727	0.	88.535
10150	9.1129	5.2727	5.e-002	11.21
10151	9.1129	5.	0.	104.84
10152	9.0218	5.0909	0.	94.495
10153	9.1129	5.0909	5.e-002	10.525
10154	9.1129	4.8182	0.	101.56
10155	9.0218	4.9091	0.	93.77
10156	9.1129	4.9091	5.e-002	9.7493
10157	9.1129	4.6364	0.	91.839
10158	9.0218	4.7273	0.	86.77
10159	9.1129	4.7273	5.e-002	8.9077
10160	9.1129	4.4545	0.	76.567
10161	9.0218	4.5455	0.	74.2
10162	9.1129	4.5455	5.e-002	8.0248
10163	9.1129	4.2727	0.	57.074
10164	9.0218	4.3636	0.	57.135
10165	9.1129	4.3636	5.e-002	7.1212
10166	9.1129	4.0909	0.	35.111
10167	9.0218	4.1818	0.	37.044
10168	9.1129	4.1818	5.e-002	6.2095
10169	9.1129	3.9091	0.	13.096
10170	9.0218	4.	0.	15.935
10171	9.1129	4.	5.e-002	5.2963
10172	9.1129	3.7273	0.	1.3465
10173	9.0218	3.8182	0.	1.7877
10174	9.1129	3.8182	5.e-002	4.3894
10175	9.1129	3.5455	0.	0.38095
10176	9.0218	3.6364	0.	0.43631
10177	9.1129	3.6364	5.e-002	3.5047
10178	9.1129	3.3636	0.	0.16836
10179	9.0218	3.4545	0.	0.1908
10180	9.1129	3.4545	5.e-002	2.6728
10181	9.1129	3.1818	0.	8.9508e-002
10182	9.0218	3.2727	0.	9.7901e-002
10183	9.1129	3.2727	5.e-002	1.9529
10184	9.1129	3.	0.	6.7843e-002
10185	9.0218	3.0909	0.	6.1958e-002
10186	9.1129	3.0909	5.e-002	1.4806
10187	9.1129	2.8182	0.	8.9508e-002
10188	9.0218	2.9091	0.	6.1958e-002
10189	9.1129	2.9091	5.e-002	1.4806
10190	9.1129	2.6364	0.	0.16836
10191	9.0218	2.7273	0.	9.7901e-002
10192	9.1129	2.7273	5.e-002	1.9529
10193	9.1129	2.4545	0.	0.38095
10194	9.0218	2.5455	0.	0.1908
10195	9.1129	2.5455	5.e-002	2.6728
10196	9.1129	2.2727	0.	1.3465
10197	9.0218	2.3636	0.	0.43631
10198	9.1129	2.3636	5.e-002	3.5046
10199	9.1129	2.0909	0.	13.095
10200	9.0218	2.1818	0.	1.7877
10201	9.1129	2.1818	5.e-002	4.3894
10202	9.1129	1.9091	0.	35.111
10203	9.0218	2.	0.	15.935
10204	9.1129	2.	5.e-002	5.2963
10205	9.1129	1.7273	0.	57.074
10206	9.0218	1.8182	0.	37.044
10207	9.1129	1.8182	5.e-002	6.2095
10208	9.1129	1.5455	0.	76.567
10209	9.0218	1.6364	0.	57.135
10210	9.1129	1.6364	5.e-002	7.1213
10211	9.1129	1.3636	0.	91.839
10212	9.0218	1.4545	0.	74.2
10213	9.1129	1.4545	5.e-002	8.0249
10214	9.1129	1.1818	0.	101.56
10215	9.0218	1.2727	0.	86.77
10216	9.1129	1.2727	5.e-002	8.9077
10217	9.1129	1.	0.	104.84
10218	9.0218	1.0909	0.	93.77
10219	9.1129	1.0909	5.e-002	9.7494
10220	9.1129	0.81818	0.	101.16
10221	9.0218	0.90909	0.	94.495
10222	9.1129	0.90909	5.e-002	10.525
10223	9.1129	0.63636	0.	90.242
10224	9.0218	0.72727	0.	88.535
10225	9.1129	0.72727	5.e-002	11.21
10226	9.1129	0.45455	0.	71.93
10227	9.0218	0.54545	0.	75.697
10228	9.1129	0.54545	5.e-002	11.784
10229	9.1129	0.27273	0.	46.082
10230	9.0218	0.36364	0.	55.809
10231	9.1129	0.36364	5.e-002	12.199
10232	9.0218	0.18182	0.	28.891
10233	9.1129	0.18182	5.e-002	11.824
10234	9.1129	9.0909e-002	0.	17.019
10235	8.9306	5.7273	0.	38.548
10236	8.8395	5.8182	0.	24.226
10237	8.9306	5.8182	5.e-002	9.9685
10238	8.9306	5.9091	0.	14.461
10239	8.9306	5.5455	0.	59.623
10240	8.8395	5.6364	0.	46.072
10241	8.9306	5.6364	5.e-002	10.872
10242	8.9306	5.3636	0.	74.083
10243	8.8395	5.4545	0.	61.879
10244	8.9306	5.4545	5.e-002	10.572
10245	8.9306	5.1818	0.	81.994
10246	8.8395	5.2727	0.	71.505
10247	8.9306	5.2727	5.e-002	10.102
10248	8.9306	5.	0.	83.557
10249	8.8395	5.0909	0.	75.097
10250	8.9306	5.0909	5.e-002	9.5374
10251	8.9306	4.8182	0.	79.114
10252	8.8395	4.9091	0.	72.9
10253	8.9306	4.9091	5.e-002	8.8963
10254	8.9306	4.6364	0.	69.257
10255	8.8395	4.7273	0.	65.378
10256	8.9306	4.7273	5.e-002	8.1941
10257	8.9306	4.4545	0.	54.872
10258	8.8395	4.5455	0.	53.248
10259	8.9306	4.5455	5.e-002	7.4452
10260	8.9306	4.2727	0.	37.17
10261	8.8395	4.3636	0.	37.521
10262	8.9306	4.3636	5.e-002	6.6601
10263	8.9306	4.0909	0.	17.789
10264	8.8395	4.1818	0.	19.573
10265	8.9306	4.1818	5.e-002	5.8441
10266	8.9306	3.9091	0.	2.3681
10267	8.8395	4.	0.	3.3057
10268	8.9306	4.	5.e-002	4.9988
10269	8.9306	3.7273	0.	0.47909
10270	8.8395	3.8182	0.	0.53357
10271	8.9306	3.8182	5.e-002	4.1258
10272	8.9306	3.5455	0.	0.20731
10273	8.8395	3.6364	0.	0.22678
10274	8.9306	3.6364	5.e-002	3.2291
10275	8.9306	3.3636	0.	0.10574
10276	8.8395	3.4545	0.	0.11672
10277	8.9306	3.4545	5.e-002	2.3156
10278	8.9306	3.1818	0.	6.0792e-002
10279	8.8395	3.2727	0.	6.4977e-002
10280	8.9306	3.2727	5.e-002	1.3933
10281	8.9306	3.	0.	4.7603e-002
10282	8.8395	3.0909	0.	4.3084e-002
10283	8.9306	3.0909	5.e-002	0.47077
10284	8.9306	2.8182	0.	6.0792e-002
10285	8.8395	2.9091	0.	4.3084e-002
10286	8.9306	2.9091	5.e-002	0.47077
10287	8.9306	2.6364	0.	0.10574
10288	8.8395	2.7273	0.	6.4977e-002
10289	8.9306	2.7273	5.e-002	1.3933
10290	8.9306	2.4545	0.	0.20731
10291	8.8395	2.5455	0.	0.11672
10292	8.9306	2.5455	5.e-002	2.3156
10293	8.9306	2.2727	0.	0.47909
10294	8.8395	2.3636	0.	0.22678
10295	8.9306	2.3636	5.e-002	3.2291
10296	8.9306	2.0909	0.	2.3681
10297	8.8395	2.1818	0.	0.53357
10298	8.9306	2.1818	5.e-002	4.1258
10299	8.9306	1.9091	0.	17.789
10300	8.8395	2.	0.	3.3057
10301	8.9306	2.	5.e-002	4.9988
10302	8.9306	1.7273	0.	37.17
10303	8.8395	1.8182	0.	19.573
10304	8.9306	1.8182	5.e-002	5.8441
10305	8.9306	1.5455	0.	54.872
10306	8.8395	1.6364	0.	37.521
10307	8.9306	1.6364	5.e-002	6.6601
10308	8.9306	1.3636	0.	69.257
10309	8.8395	1.4545	0.	53.248
10310	8.9306	1.4545	5.e-002	7.4452
10311	8.9306	1.1818	0.	79.114
10312	8.8395	1.2727	0.	65.378
10313	8.9306	1.2727	5.e-002	8.1941
10314	8.9306	1.	0.	83.557
10315	8.8395	1.0909	0.	72.9
10316	8.9306	1.0909	5.e-002	8.8964
10317	8.9306	0.81818	0.	81.994
10318	8.8395	0.90909	0.	75.097
10319	8.9306	0.90909	5.e-002	9.5375
10320	8.9306	0.63636	0.	74.083
10321	8.8395	0.72727	0.	71.505
10322	8.9306	0.72727	5.e-002	10.102
10323	8.9306	0.45455	0.	59.623
10324	8.8395	0.54545	0.	61.879
10325	8.9306	0.54545	5.e-002	10.572
10326	8.9306	0.27273	0.	38.548
10327	8.8395	0.36364	0.	46.072
10328	8.9306	0.36364	5.e-002	10.872
10329	8.8395	0.18182	0.	24.226
10330	8.9306	0.18182	5.e-002	9.9686
10331	8.9306	9.0909e-002	0.	14.461
10332	8.7484	5.7273	0.	31.67
10333	8.6573	5.8182	0.	20.007
10334	8.7484	5.8182	5.e-002	8.4413
10335	8.7484	5.9091	0.	12.145
10336	8.7484	5.5455	0.	48.346
10337	8.6573	5.6364	0.	37.172
10338	8.7484	5.6364	5.e-002	9.7908
10339	8.7484	5.3636	0.	59.35
10340	8.6573	5.4545	0.	49.262
10341	8.7484	5.4545	5.e-002	9.5926
10342	8.7484	5.1818	0.	64.675
10343	8.6573	5.2727	0.	56.038
10344	8.7484	5.2727	5.e-002	9.2156
10345	8.7484	5.	0.	64.516
10346	8.6573	5.0909	0.	57.619
10347	8.7484	5.0909	5.e-002	8.7557
10348	8.7484	4.8182	0.	59.239
10349	8.6573	4.9091	0.	54.253
10350	8.7484	4.9091	5.e-002	8.2297
10351	8.7484	4.6364	0.	49.435
10352	8.6573	4.7273	0.	46.407
10353	8.7484	4.7273	5.e-002	7.6477
10354	8.7484	4.4545	0.	35.945
10355	8.6573	4.5455	0.	34.773
10356	8.7484	4.5455	5.e-002	7.0187
10357	8.7484	4.2727	0.	19.916
10358	8.6573	4.3636	0.	20.317
10359	8.7484	4.3636	5.e-002	6.3489
10360	8.7484	4.0909	0.	4.1338
10361	8.6573	4.1818	0.	5.1132
10362	8.7484	4.1818	5.e-002	5.6424
10363	8.7484	3.9091	0.	0.56032
10364	8.6573	4.	0.	0.59785
10365	8.7484	4.	5.e-002	4.902
10366	8.7484	3.7273	0.	0.23506
10367	8.6573	3.8182	0.	0.24547
10368	8.7484	3.8182	5.e-002	4.1332
10369	8.7484	3.5455	0.	0.12315
10370	8.6573	3.6364	0.	0.13092
10371	8.7484	3.6364	5.e-002	3.3471
10372	8.7484	3.3636	0.	6.8616e-002
10373	8.6573	3.4545	0.	7.4215e-002
10374	8.7484	3.4545	5.e-002	2.5675
10375	8.7484	3.1818	0.	4.1615e-002
10376	8.6573	3.2727	0.	4.3666e-002
10377	8.7484	3.2727	5.e-002	1.8493
10378	8.7484	3.	0.	3.3326e-002
10379	8.6573	3.0909	0.	2.9908e-002
10380	8.7484	3.0909	5.e-002	1.3434
10381	8.7484	2.8182	0.	4.1615e-002
10382	8.6573	2.9091	0.	2.9908e-002
10383	8.7484	2.9091	5.e-002	1.3434
10384	8.7484	2.6364	0.	6.8616e-002
10385	8.6573	2.7273	0.	4.3666e-002
10386	8.7484	2.7273	5.e-002	1.8493
10387	8.7484	2.4545	0.	0.12315
10388	8.6573	2.5455	0.	7.4215e-002
10389	8.7484	2.5455	5.e-002	2.5675
10390	8.7484	2.2727	0.	0.23506
10391	8.6573	2.3636	0.	0.13092
10392	8.7484	2.3636	5.e-002	3.3471
10393	8.7484	2.0909	0.	0.56032
10394	8.6573	2.1818	0.	0.24547
10395	8.7484	2.1818	5.e-002	4.1332
10396	8.7484	1.9091	0.	4.1338
10397	8.6573	2.	0.	0.59785
10398	8.7484	2.	5.e-002	4.9021
10399	8.7484	1.7273	0.	19.916
10400	8.6573	1.8182	0.	5.1131
10401	8.7484	1.8182	5.e-002	5.6424
10402	8.7484	1.5455	0.	35.945
10403	8.6573	1.6364	0.	20.317
10404	8.7484	1.6364	5.e-002	6.349
10405	8.7484	1.3636	0.	49.435
10406	8.6573	1.4545	0.	34.773
10407	8.7484	1.4545	5.e-002	7.0187
10408	8.7484	1.1818	0.	59.239
10409	8.6573	1.2727	0.	46.407
10410	8.7484	1.2727	5.e-002	7.6478
10411	8.7484	1.	0.	64.516
10412	8.6573	1.0909	0.	54.253
10413	8.7484	1.0909	5.e-002	8.2298
10414	8.7484	0.81818	0.	64.675
10415	8.6573	0.90909	0.	57.619
10416	8.7484	0.90909	5.e-002	8.7558
10417	8.7484	0.63636	0.	59.35
10418	8.6573	0.72727	0.	56.038
10419	8.7484	0.72727	5.e-002	9.2157
10420	8.7484	0.45455	0.	48.346
10421	8.6573	0.54545	0.	49.262
10422	8.7484	0.54545	5.e-002	9.5927
10423	8.7484	0.27273	0.	31.67
10424	8.6573	0.36364	0.	37.172
10425	8.7484	0.36364	5.e-002	9.7909
10426	8.6573	0.18182	0.	20.007
10427	8.7484	0.18182	5.e-002	8.4414
10428	8.7484	9.0909e-002	0.	12.145
10429	8.5661	5.7273	0.	25.427
10430	8.475	5.8182	0.	16.19
10431	8.5661	5.8182	5.e-002	7.2006
10432	8.5661	5.9091	0.	10.048
10433	8.5661	5.5455	0.	38.087
10434	8.475	5.6364	0.	29.085
10435	8.5661	5.6364	5.e-002	8.9174
10436	8.5661	5.3636	0.	45.973
10437	8.475	5.4545	0.	37.796
10438	8.5661	5.4545	5.e-002	8.8065
10439	8.5661	5.1818	0.	49.017
10440	8.475	5.2727	0.	42.013
10441	8.5661	5.2727	5.e-002	8.5096
10442	8.5661	5.	0.	47.394
10443	8.475	5.0909	0.	41.823
10444	8.5661	5.0909	5.e-002	8.1394
10445	8.5661	4.8182	0.	41.459
10446	8.475	4.9091	0.	37.465
10447	8.5661	4.9091	5.e-002	7.7111
10448	8.5661	4.6364	0.	31.776
10449	8.475	4.7273	0.	29.383
10450	8.5661	4.7273	5.e-002	7.2323
10451	8.5661	4.4545	0.	19.153
10452	8.475	4.5455	0.	18.249
10453	8.5661	4.5455	5.e-002	6.7094
10454	8.5661	4.2727	0.	5.2716
10455	8.475	4.3636	0.	5.4494
10456	8.5661	4.3636	5.e-002	6.1473
10457	8.5661	4.0909	0.	0.58293
10458	8.475	4.1818	0.	0.57559
10459	8.5661	4.1818	5.e-002	5.551
10460	8.5661	3.9091	0.	0.24022
10461	8.475	4.	0.	0.23744
10462	8.5661	4.	5.e-002	4.9268
10463	8.5661	3.7273	0.	0.1316
10464	8.475	3.8182	0.	0.13336
10465	8.5661	3.8182	5.e-002	4.2855
10466	8.5661	3.5455	0.	7.6735e-002
10467	8.475	3.6364	0.	8.0098e-002
10468	8.5661	3.6364	5.e-002	3.6468
10469	8.5661	3.3636	0.	4.5329e-002
10470	8.475	3.4545	0.	4.8285e-002
10471	8.5661	3.4545	5.e-002	3.0467
10472	8.5661	3.1818	0.	2.8522e-002
10473	8.475	3.2727	0.	2.9475e-002
10474	8.5661	3.2727	5.e-002	2.5484
10475	8.5661	3.	0.	2.3191e-002
10476	8.475	3.0909	0.	2.0612e-002
10477	8.5661	3.0909	5.e-002	2.2508
10478	8.5661	2.8182	0.	2.8523e-002
10479	8.475	2.9091	0.	2.0612e-002
10480	8.5661	2.9091	5.e-002	2.2508
10481	8.5661	2.6364	0.	4.5329e-002
10482	8.475	2.7273	0.	2.9475e-002
10483	8.5661	2.7273	5.e-002	2.5484
10484	8.5661	2.4545	0.	7.6735e-002
10485	8.475	2.5455	0.	4.8285e-002
10486	8.5661	2.5455	5.e-002	3.0468
10487	8.5661	2.2727	0.	0.1316
10488	8.475	2.3636	0.	8.0099e-002
10489	8.5661	2.3636	5.e-002	3.6469
10490	8.5661	2.0909	0.	0.24022
10491	8.475	2.1818	0.	0.13336
10492	8.5661	2.1818	5.e-002	4.2855
10493	8.5661	1.9091	0.	0.58293
10494	8.475	2.	0.	0.23744
10495	8.5661	2.	5.e-002	4.9268
10496	8.5661	1.7273	0.	5.2716
10497	8.475	1.8182	0.	0.57559
10498	8.5661	1.8182	5.e-002	5.5511
10499	8.5661	1.5455	0.	19.153
10500	8.475	1.6364	0.	5.4494
10501	8.5661	1.6364	5.e-002	6.1474
10502	8.5661	1.3636	0.	31.776
10503	8.475	1.4545	0.	18.249
10504	8.5661	1.4545	5.e-002	6.7094
10505	8.5661	1.1818	0.	41.459
10506	8.475	1.2727	0.	29.383
10507	8.5661	1.2727	5.e-002	7.2324
10508	8.5661	1.	0.	47.394
10509	8.475	1.0909	0.	37.465
10510	8.5661	1.0909	5.e-002	7.7112
10511	8.5661	0.81818	0.	49.017
10512	8.475	0.90909	0.	41.823
10513	8.5661	0.90909	5.e-002	8.1395
10514	8.5661	0.63636	0.	45.973
10515	8.475	0.72727	0.	42.013
10516	8.5661	0.72727	5.e-002	8.5098
10517	8.5661	0.45455	0.	38.087
10518	8.475	0.54545	0.	37.796
10519	8.5661	0.54545	5.e-002	8.8067
10520	8.5661	0.27273	0.	25.427
10521	8.475	0.36364	0.	29.085
10522	8.5661	0.36364	5.e-002	8.9175
10523	8.475	0.18182	0.	16.19
10524	8.5661	0.18182	5.e-002	7.2008
10525	8.5661	9.0909e-002	0.	10.048
10526	8.3839	5.7273	0.	19.77
10527	8.2927	5.8182	0.	12.725
10528	8.3839	5.8182	5.e-002	6.2076
10529	8.3839	5.9091	0.	8.1419
10530	8.3839	5.5455	0.	28.783
10531	8.2927	5.6364	0.	21.752
10532	8.3839	5.6364	5.e-002	8.2185
10533	8.3839	5.3636	0.	33.842
10534	8.2927	5.4545	0.	27.388
10535	8.3839	5.4545	5.e-002	8.1802
10536	8.3839	5.1818	0.	34.833
10537	8.2927	5.2727	0.	29.279
10538	8.3839	5.2727	5.e-002	7.9508
10539	8.3839	5.	0.	31.911
10540	8.2927	5.0909	0.	27.488
10541	8.3839	5.0909	5.e-002	7.656
10542	8.3839	4.8182	0.	25.405
10543	8.2927	4.9091	0.	22.237
10544	8.3839	4.9091	5.e-002	7.3102
10545	8.3839	4.6364	0.	15.867
10546	8.2927	4.7273	0.	13.969
10547	8.3839	4.7273	5.e-002	6.9195
10548	8.3839	4.4545	0.	4.5553
10549	8.2927	4.5455	0.	3.8386
10550	8.3839	4.5455	5.e-002	6.489
10551	8.3839	4.2727	0.	0.49982
10552	8.2927	4.3636	0.	0.44113
10553	8.3839	4.3636	5.e-002	6.0238
10554	8.3839	4.0909	0.	0.21748
10555	8.2927	4.1818	0.	0.20212
10556	8.3839	4.1818	5.e-002	5.5301
10557	8.3839	3.9091	0.	0.12707
10558	8.2927	4.	0.	0.12259
10559	8.3839	4.	5.e-002	5.0166
10560	8.3839	3.7273	0.	7.9192e-002
10561	8.2927	3.8182	0.	7.9124e-002
10562	8.3839	3.8182	5.e-002	4.4972
10563	8.3839	3.5455	0.	4.9272e-002
10564	8.2927	3.6364	0.	5.0883e-002
10565	8.3839	3.6364	5.e-002	3.9944
10566	8.3839	3.3636	0.	3.0213e-002
10567	8.2927	3.4545	0.	3.1844e-002
10568	8.3839	3.4545	5.e-002	3.5424
10569	8.3839	3.1818	0.	1.9431e-002
10570	8.2927	3.2727	0.	1.9827e-002
10571	8.3839	3.2727	5.e-002	3.1895
10572	8.3839	3.	0.	1.5927e-002
10573	8.2927	3.0909	0.	1.3975e-002
10574	8.3839	3.0909	5.e-002	2.992
10575	8.3839	2.8182	0.	1.9431e-002
10576	8.2927	2.9091	0.	1.3975e-002
10577	8.3839	2.9091	5.e-002	2.992
10578	8.3839	2.6364	0.	3.0213e-002
10579	8.2927	2.7273	0.	1.9828e-002
10580	8.3839	2.7273	5.e-002	3.1896
10581	8.3839	2.4545	0.	4.9273e-002
10582	8.2927	2.5455	0.	3.1844e-002
10583	8.3839	2.5455	5.e-002	3.5424
10584	8.3839	2.2727	0.	7.9192e-002
10585	8.2927	2.3636	0.	5.0883e-002
10586	8.3839	2.3636	5.e-002	3.9945
10587	8.3839	2.0909	0.	0.12707
10588	8.2927	2.1818	0.	7.9124e-002
10589	8.3839	2.1818	5.e-002	4.4973
10590	8.3839	1.9091	0.	0.21749
10591	8.2927	2.	0.	0.12259
10592	8.3839	2.	5.e-002	5.0166
10593	8.3839	1.7273	0.	0.49982
10594	8.2927	1.8182	0.	0.20212
10595	8.3839	1.8182	5.e-002	5.5301
10596	8.3839	1.5455	0.	4.5552
10597	8.2927	1.6364	0.	0.44113
10598	8.3839	1.6364	5.e-002	6.0239
10599	8.3839	1.3636	0.	15.867
10600	8.2927	1.4545	0.	3.8385
10601	8.3839	1.4545	5.e-002	6.489
10602	8.3839	1.1818	0.	25.405
10603	8.2927	1.2727	0.	13.969
10604	8.3839	1.2727	5.e-002	6.9196
10605	8.3839	1.	0.	31.911
10606	8.2927	1.0909	0.	22.237
10607	8.3839	1.0909	5.e-002	7.3103
10608	8.3839	0.81818	0.	34.833
10609	8.2927	0.90909	0.	27.488
10610	8.3839	0.90909	5.e-002	7.6561
10611	8.3839	0.63636	0.	33.842
10612	8.2927	0.72727	0.	29.279
10613	8.3839	0.72727	5.e-002	7.9509
10614	8.3839	0.45455	0.	28.783
10615	8.2927	0.54545	0.	27.388
10616	8.3839	0.54545	5.e-002	8.1803
10617	8.3839	0.27273	0.	19.77
10618	8.2927	0.36364	0.	21.752
10619	8.3839	0.36364	5.e-002	8.2186
10620	8.2927	0.18182	0.	12.725
10621	8.3839	0.18182	5.e-002	6.2077
10622	8.3839	9.0909e-002	0.	8.1419
10623	8.2016	5.7273	0.	14.634
10624	8.1105	5.8182	0.	9.5597
10625	8.2016	5.8182	5.e-002	5.4276
10626	8.2016	5.9091	0.	6.3998
10627	8.2016	5.5455	0.	20.341
10628	8.1105	5.6364	0.	15.091
10629	8.2016	5.6364	5.e-002	7.6649
10630	8.2016	5.3636	0.	22.822
10631	8.1105	5.4545	0.	17.923
10632	8.2016	5.4545	5.e-002	7.6851
10633	8.2016	5.1818	0.	21.937
10634	8.1105	5.2727	0.	17.68
10635	8.2016	5.2727	5.e-002	7.5117
10636	8.2016	5.	0.	17.821
10637	8.1105	5.0909	0.	14.411
10638	8.2016	5.0909	5.e-002	7.2796
10639	8.2016	4.8182	0.	10.816
10640	8.1105	4.9091	0.	8.3712
10641	8.2016	4.9091	5.e-002	7.0029
10642	8.2016	4.6364	0.	2.2805
10643	8.1105	4.7273	0.	1.3152
10644	8.2016	4.7273	5.e-002	6.6866
10645	8.2016	4.4545	0.	0.33805
10646	8.1105	4.5455	0.	0.26988
10647	8.2016	4.5455	5.e-002	6.3355
10648	8.2016	4.2727	0.	0.17312
10649	8.1105	4.3636	0.	0.15192
10650	8.2016	4.3636	5.e-002	5.9549
10651	8.2016	4.0909	0.	0.11095
10652	8.1105	4.1818	0.	0.10238
10653	8.2016	4.1818	5.e-002	5.5517
10654	8.2016	3.9091	0.	7.4735e-002
10655	8.1105	4.	0.	7.1722e-002
10656	8.2016	4.	5.e-002	5.1357
10657	8.2016	3.7273	0.	4.9948e-002
10658	8.1105	3.8182	0.	4.9691e-002
10659	8.2016	3.8182	5.e-002	4.7214
10660	8.2016	3.5455	0.	3.2266e-002
10661	8.1105	3.6364	0.	3.3177e-002
10662	8.2016	3.6364	5.e-002	4.3296
10663	8.2016	3.3636	0.	2.0151e-002
10664	8.1105	3.4545	0.	2.1115e-002
10665	8.2016	3.4545	5.e-002	3.9881
10666	8.2016	3.1818	0.	1.302e-002
10667	8.1105	3.2727	0.	1.315e-002
10668	8.2016	3.2727	5.e-002	3.7309
10669	8.2016	3.	0.	1.0661e-002
10670	8.1105	3.0909	0.	9.1774e-003
10671	8.2016	3.0909	5.e-002	3.5913
10672	8.2016	2.8182	0.	1.302e-002
10673	8.1105	2.9091	0.	9.1774e-003
10674	8.2016	2.9091	5.e-002	3.5913
10675	8.2016	2.6364	0.	2.0151e-002
10676	8.1105	2.7273	0.	1.315e-002
10677	8.2016	2.7273	5.e-002	3.7309
10678	8.2016	2.4545	0.	3.2266e-002
10679	8.1105	2.5455	0.	2.1116e-002
10680	8.2016	2.5455	5.e-002	3.9882
10681	8.2016	2.2727	0.	4.9948e-002
10682	8.1105	2.3636	0.	3.3177e-002
10683	8.2016	2.3636	5.e-002	4.3296
10684	8.2016	2.0909	0.	7.4735e-002
10685	8.1105	2.1818	0.	4.9692e-002
10686	8.2016	2.1818	5.e-002	4.7215
10687	8.2016	1.9091	0.	0.11095
10688	8.1105	2.	0.	7.1723e-002
10689	8.2016	2.	5.e-002	5.1358
10690	8.2016	1.7273	0.	0.17312
10691	8.1105	1.8182	0.	0.10238
10692	8.2016	1.8182	5.e-002	5.5518
10693	8.2016	1.5455	0.	0.33805
10694	8.1105	1.6364	0.	0.15192
10695	8.2016	1.6364	5.e-002	5.955
10696	8.2016	1.3636	0.	2.2805
10697	8.1105	1.4545	0.	0.26988
10698	8.2016	1.4545	5.e-002	6.3356
10699	8.2016	1.1818	0.	10.816
10700	8.1105	1.2727	0.	1.3152
10701	8.2016	1.2727	5.e-002	6.6867
10702	8.2016	1.	0.	17.821
10703	8.1105	1.0909	0.	8.3711
10704	8.2016	1.0909	5.e-002	7.003
10705	8.2016	0.81818	0.	21.937
10706	8.1105	0.90909	0.	14.411
10707	8.2016	0.90909	5.e-002	7.2797
10708	8.2016	0.63636	0.	22.822
10709	8.1105	0.72727	0.	17.68
10710	8.2016	0.72727	5.e-002	7.5118
10711	8.2016	0.45455	0.	20.341
10712	8.1105	0.54545	0.	17.923
10713	8.2016	0.54545	5.e-002	7.6853
10714	8.2016	0.27273	0.	14.635
10715	8.1105	0.36364	0.	15.091
10716	8.2016	0.36364	5.e-002	7.665
10717	8.1105	0.18182	0.	9.5597
10718	8.2016	0.18182	5.e-002	5.4278
10719	8.2016	9.0909e-002	0.	6.3998
10720	8.0194	5.7273	0.	9.9506
10721	7.9282	5.8182	0.	6.6453
10722	8.0194	5.8182	5.e-002	4.8307
10723	8.0194	5.9091	0.	4.7944
10724	8.0194	5.5455	0.	12.654
10725	7.9282	5.6364	0.	9.013
10726	8.0194	5.6364	5.e-002	7.2316
10727	8.0194	5.3636	0.	12.772
10728	7.9282	5.4545	0.	9.2762
10729	8.0194	5.4545	5.e-002	7.2978
10730	8.0194	5.1818	0.	10.155
10731	7.9282	5.2727	0.	7.0692
10732	8.0194	5.2727	5.e-002	7.1699
10733	8.0194	5.	0.	5.0103
10734	7.9282	5.0909	0.	2.6094
10735	8.0194	5.0909	5.e-002	6.9895
10736	8.0194	4.8182	0.	0.52573
10737	7.9282	4.9091	0.	0.28625
10738	8.0194	4.9091	5.e-002	6.7701
10739	8.0194	4.6364	0.	0.19257
10740	7.9282	4.7273	0.	0.14747
10741	8.0194	4.7273	5.e-002	6.5162
10742	8.0194	4.4545	0.	0.12361
10743	7.9282	4.5455	0.	0.10451
10744	8.0194	4.5455	5.e-002	6.2323
10745	8.0194	4.2727	0.	8.8892e-002
10746	7.9282	4.3636	0.	7.9408e-002
10747	8.0194	4.3636	5.e-002	5.9238
10748	8.0194	4.0909	0.	6.5219e-002
10749	7.9282	4.1818	0.	6.0683e-002
10750	8.0194	4.1818	5.e-002	5.5978
10751	8.0194	3.9091	0.	4.7019e-002
10752	7.9282	4.	0.	4.534e-002
10753	8.0194	4.	5.e-002	5.264
10754	8.0194	3.7273	0.	3.2575e-002
10755	7.9282	3.8182	0.	3.2501e-002
10756	8.0194	3.8182	5.e-002	4.9358
10757	8.0194	3.5455	0.	2.1369e-002
10758	7.9282	3.6364	0.	2.2002e-002
10759	8.0194	3.6364	5.e-002	4.6309
10760	8.0194	3.3636	0.	1.3308e-002
10761	7.9282	3.4545	0.	1.3931e-002
10762	8.0194	3.4545	5.e-002	4.3708
10763	8.0194	3.1818	0.	8.4314e-003
10764	7.9282	3.2727	0.	8.4377e-003
10765	8.0194	3.2727	5.e-002	4.179
10766	8.0194	3.	0.	6.7982e-003
10767	7.9282	3.0909	0.	5.6538e-003
10768	8.0194	3.0909	5.e-002	4.0768
10769	8.0194	2.8182	0.	8.4316e-003
10770	7.9282	2.9091	0.	5.6539e-003
10771	8.0194	2.9091	5.e-002	4.0768
10772	8.0194	2.6364	0.	1.3308e-002
10773	7.9282	2.7273	0.	8.4379e-003
10774	8.0194	2.7273	5.e-002	4.1791
10775	8.0194	2.4545	0.	2.1369e-002
10776	7.9282	2.5455	0.	1.3932e-002
10777	8.0194	2.5455	5.e-002	4.3708
10778	8.0194	2.2727	0.	3.2575e-002
10779	7.9282	2.3636	0.	2.2003e-002
10780	8.0194	2.3636	5.e-002	4.6309
10781	8.0194	2.0909	0.	4.7019e-002
10782	7.9282	2.1818	0.	3.2501e-002
10783	8.0194	2.1818	5.e-002	4.9358
10784	8.0194	1.9091	0.	6.5219e-002
10785	7.9282	2.	0.	4.5341e-002
10786	8.0194	2.	5.e-002	5.2641
10787	8.0194	1.7273	0.	8.8892e-002
10788	7.9282	1.8182	0.	6.0684e-002
10789	8.0194	1.8182	5.e-002	5.5978
10790	8.0194	1.5455	0.	0.12361
10791	7.9282	1.6364	0.	7.9409e-002
10792	8.0194	1.6364	5.e-002	5.9239
10793	8.0194	1.3636	0.	0.19258
10794	7.9282	1.4545	0.	0.10452
10795	8.0194	1.4545	5.e-002	6.2324
10796	8.0194	1.1818	0.	0.52573
10797	7.9282	1.2727	0.	0.14747
10798	8.0194	1.2727	5.e-002	6.5163
10799	8.0194	1.	0.	5.0102
10800	7.9282	1.0909	0.	0.28625
10801	8.0194	1.0909	5.e-002	6.7702
10802	8.0194	0.81818	0.	10.155
10803	7.9282	0.90909	0.	2.6094
10804	8.0194	0.90909	5.e-002	6.9896
10805	8.0194	0.63636	0.	12.772
10806	7.9282	0.72727	0.	7.0692
10807	8.0194	0.72727	5.e-002	7.1701
10808	8.0194	0.45455	0.	12.654
10809	7.9282	0.54545	0.	9.2762
10810	8.0194	0.54545	5.e-002	7.2979
10811	8.0194	0.27273	0.	9.9506
10812	7.9282	0.36364	0.	9.0131
10813	8.0194	0.36364	5.e-002	7.2317
10814	7.9282	0.18182	0.	6.6454
10815	8.0194	0.18182	5.e-002	4.8309
10816	8.0194	9.0909e-002	0.	4.7944
10817	7.8371	5.7273	0.	5.6487
10818	7.746	5.8182	0.	3.938
10819	7.8371	5.8182	5.e-002	4.3912
10820	7.8371	5.9091	0.	3.3012
10821	7.8371	5.5455	0.	5.6163
10822	7.746	5.6364	0.	3.4319
10823	7.8371	5.6364	5.e-002	6.8976
10824	7.8371	5.3636	0.	3.5823
10825	7.746	5.4545	0.	1.4112
10826	7.8371	5.4545	5.e-002	6.9987
10827	7.8371	5.1818	0.	0.47626
10828	7.746	5.2727	0.	0.15646
10829	7.8371	5.2727	5.e-002	6.9074
10830	7.8371	5.	0.	0.15074
10831	7.746	5.0909	0.	0.10006
10832	7.8371	5.0909	5.e-002	6.7691
10833	7.8371	4.8182	0.	0.10534
10834	7.746	4.9091	0.	8.2032e-002
10835	7.8371	4.9091	5.e-002	6.5968
10836	7.8371	4.6364	0.	8.3338e-002
10837	7.746	4.7273	0.	7.0013e-002
10838	7.8371	4.7273	5.e-002	6.3948
10839	7.8371	4.4545	0.	6.7378e-002
10840	7.746	4.5455	0.	5.9409e-002
10841	7.8371	4.5455	5.e-002	6.1671
10842	7.8371	4.2727	0.	5.3847e-002
10843	7.746	4.3636	0.	4.9276e-002
10844	7.8371	4.3636	5.e-002	5.919
10845	7.8371	4.0909	0.	4.178e-002
10846	7.746	4.1818	0.	3.9497e-002
10847	7.8371	4.1818	5.e-002	5.6572
10848	7.8371	3.9091	0.	3.1029e-002
10849	7.746	4.	0.	3.0266e-002
10850	7.8371	4.	5.e-002	5.3909
10851	7.8371	3.7273	0.	2.1741e-002
10852	7.746	3.8182	0.	2.1885e-002
10853	7.8371	3.8182	5.e-002	5.1317
10854	7.8371	3.5455	0.	1.4162e-002
10855	7.746	3.6364	0.	1.4688e-002
10856	7.8371	3.6364	5.e-002	4.8939
10857	7.8371	3.3636	0.	8.5395e-003
10858	7.746	3.4545	0.	8.9869e-003
10859	7.8371	3.4545	5.e-002	4.6941
10860	7.8371	3.1818	0.	5.0779e-003
10861	7.746	3.2727	0.	5.0338e-003
10862	7.8371	3.2727	5.e-002	4.5489
10863	7.8371	3.	0.	3.9089e-003
10864	7.746	3.0909	0.	3.0106e-003
10865	7.8371	3.0909	5.e-002	4.4722
10866	7.8371	2.8182	0.	5.078e-003
10867	7.746	2.9091	0.	3.0107e-003
10868	7.8371	2.9091	5.e-002	4.4722
10869	7.8371	2.6364	0.	8.5396e-003
10870	7.746	2.7273	0.	5.034e-003
10871	7.8371	2.7273	5.e-002	4.5489
10872	7.8371	2.4545	0.	1.4162e-002
10873	7.746	2.5455	0.	8.9869e-003
10874	7.8371	2.5455	5.e-002	4.6941
10875	7.8371	2.2727	0.	2.1741e-002
10876	7.746	2.3636	0.	1.4688e-002
10877	7.8371	2.3636	5.e-002	4.894
10878	7.8371	2.0909	0.	3.103e-002
10879	7.746	2.1818	0.	2.1885e-002
10880	7.8371	2.1818	5.e-002	5.1317
10881	7.8371	1.9091	0.	4.1781e-002
10882	7.746	2.	0.	3.0267e-002
10883	7.8371	2.	5.e-002	5.3909
10884	7.8371	1.7273	0.	5.3848e-002
10885	7.746	1.8182	0.	3.9498e-002
10886	7.8371	1.8182	5.e-002	5.6573
10887	7.8371	1.5455	0.	6.7379e-002
10888	7.746	1.6364	0.	4.9276e-002
10889	7.8371	1.6364	5.e-002	5.919
10890	7.8371	1.3636	0.	8.3338e-002
10891	7.746	1.4545	0.	5.941e-002
10892	7.8371	1.4545	5.e-002	6.1672
10893	7.8371	1.1818	0.	0.10534
10894	7.746	1.2727	0.	7.0014e-002
10895	7.8371	1.2727	5.e-002	6.3949
10896	7.8371	1.	0.	0.15074
10897	7.746	1.0909	0.	8.2033e-002
10898	7.8371	1.0909	5.e-002	6.5969
10899	7.8371	0.81818	0.	0.47626
10900	7.746	0.90909	0.	0.10006
10901	7.8371	0.90909	5.e-002	6.7692
10902	7.8371	0.63636	0.	3.5823
10903	7.746	0.72727	0.	0.15646
10904	7.8371	0.72727	5.e-002	6.9075
10905	7.8371	0.45455	0.	5.6163
10906	7.746	0.54545	0.	1.4112
10907	7.8371	0.54545	5.e-002	6.9988
10908	7.8371	0.27273	0.	5.6487
10909	7.746	0.36364	0.	3.4319
10910	7.8371	0.36364	5.e-002	6.8977
10911	7.746	0.18182	0.	3.938
10912	7.8371	0.18182	5.e-002	4.3913
10913	7.8371	9.0909e-002	0.	3.3012
10914	7.6548	5.7273	0.	1.6721
10915	7.5637	5.8182	0.	1.4128
10916	7.6548	5.8182	5.e-002	4.0869
10917	7.6548	5.9091	0.	1.9011
10918	7.6548	5.5455	0.	0.11248
10919	7.5637	5.6364	0.	5.1649e-002
10920	7.6548	5.6364	5.e-002	6.6454
10921	7.6548	5.3636	0.	7.1729e-002
10922	7.5637	5.4545	0.	4.9261e-002
10923	7.6548	5.4545	5.e-002	6.7719
10924	7.6548	5.1818	0.	6.6027e-002
10925	7.5637	5.2727	0.	5.1179e-002
10926	7.6548	5.2727	5.e-002	6.7096
10927	7.6548	5.	0.	6.1851e-002
10928	7.5637	5.0909	0.	5.0998e-002
10929	7.6548	5.0909	5.e-002	6.6052
10930	7.6548	4.8182	0.	5.6669e-002
10931	7.5637	4.9091	0.	4.8789e-002
10932	7.6548	4.9091	5.e-002	6.4715
10933	7.6548	4.6364	0.	5.0456e-002
10934	7.5637	4.7273	0.	4.4903e-002
10935	7.6548	4.7273	5.e-002	6.3121
10936	7.6548	4.4545	0.	4.3434e-002
10937	7.5637	4.5455	0.	3.9765e-002
10938	7.6548	4.5455	5.e-002	6.1308
10939	7.6548	4.2727	0.	3.5958e-002
10940	7.5637	4.3636	0.	3.3796e-002
10941	7.6548	4.3636	5.e-002	5.9325
10942	7.6548	4.0909	0.	2.8416e-002
10943	7.5637	4.1818	0.	2.7414e-002
10944	7.6548	4.1818	5.e-002	5.7235
10945	7.6548	3.9091	0.	2.1202e-002
10946	7.5637	4.	0.	2.1023e-002
10947	7.6548	4.	5.e-002	5.5117
10948	7.6548	3.7273	0.	1.4695e-002
10949	7.5637	3.8182	0.	1.5008e-002
10950	7.6548	3.8182	5.e-002	5.3071
10951	7.6548	3.5455	0.	9.2407e-003
10952	7.5637	3.6364	0.	9.7241e-003
10953	7.6548	3.6364	5.e-002	5.1212
10954	7.6548	3.3636	0.	5.126e-003
10955	7.5637	3.4545	0.	5.4765e-003
10956	7.6548	3.4545	5.e-002	4.9666
10957	7.6548	3.1818	0.	2.5669e-003
10958	7.5637	3.2727	0.	2.5039e-003
10959	7.6548	3.2727	5.e-002	4.8552
10960	7.6548	3.	0.	1.6987e-003
10961	7.5637	3.0909	0.	9.7429e-004
10962	7.6548	3.0909	5.e-002	4.7968
10963	7.6548	2.8182	0.	2.5671e-003
10964	7.5637	2.9091	0.	9.7459e-004
10965	7.6548	2.9091	5.e-002	4.7968
10966	7.6548	2.6364	0.	5.1261e-003
10967	7.5637	2.7273	0.	2.5039e-003
10968	7.6548	2.7273	5.e-002	4.8552
10969	7.6548	2.4545	0.	9.2407e-003
10970	7.5637	2.5455	0.	5.4766e-003
10971	7.6548	2.5455	5.e-002	4.9666
10972	7.6548	2.2727	0.	1.4695e-002
10973	7.5637	2.3636	0.	9.7243e-003
10974	7.6548	2.3636	5.e-002	5.1213
10975	7.6548	2.0909	0.	2.1202e-002
10976	7.5637	2.1818	0.	1.5008e-002
10977	7.6548	2.1818	5.e-002	5.3072
10978	7.6548	1.9091	0.	2.8417e-002
10979	7.5637	2.	0.	2.1023e-002
10980	7.6548	2.	5.e-002	5.5118
10981	7.6548	1.7273	0.	3.5959e-002
10982	7.5637	1.8182	0.	2.7414e-002
10983	7.6548	1.8182	5.e-002	5.7235
10984	7.6548	1.5455	0.	4.3434e-002
10985	7.5637	1.6364	0.	3.3797e-002
10986	7.6548	1.6364	5.e-002	5.9326
10987	7.6548	1.3636	0.	5.0457e-002
10988	7.5637	1.4545	0.	3.9766e-002
10989	7.6548	1.4545	5.e-002	6.1308
10990	7.6548	1.1818	0.	5.667e-002
10991	7.5637	1.2727	0.	4.4904e-002
10992	7.6548	1.2727	5.e-002	6.3122
10993	7.6548	1.	0.	6.1852e-002
10994	7.5637	1.0909	0.	4.879e-002
10995	7.6548	1.0909	5.e-002	6.4716
10996	7.6548	0.81818	0.	6.6028e-002
10997	7.5637	0.90909	0.	5.0999e-002
10998	7.6548	0.90909	5.e-002	6.6053
10999	7.6548	0.63636	0.	7.1729e-002
11000	7.5637	0.72727	0.	5.118e-002
11001	7.6548	0.72727	5.e-002	6.7097
11002	7.6548	0.45455	0.	0.11248
11003	7.5637	0.54545	0.	4.9261e-002
11004	7.6548	0.54545	5.e-002	6.772
11005	7.6548	0.27273	0.	1.6721
11006	7.5637	0.36364	0.	5.165e-002
11007	7.6548	0.36364	5.e-002	6.6456
11008	7.5637	0.18182	0.	1.4128
11009	7.6548	0.18182	5.e-002	4.087
11010	7.6548	9.0909e-002	0.	1.9011
11011	7.4726	5.7273	0.	4.2859e-002
11012	7.3815	5.8182	0.	9.0223e-002
11013	7.4726	5.8182	5.e-002	3.8988
11014	7.4726	5.9091	0.	0.61025
11015	7.4726	5.5455	0.	3.8904e-002
11016	7.3815	5.6364	0.	4.295e-002
11017	7.4726	5.6364	5.e-002	6.4606
11018	7.4726	5.3636	0.	4.0214e-002
11019	7.3815	5.4545	0.	3.5302e-002
11020	7.4726	5.4545	5.e-002	6.6043
11021	7.4726	5.1818	0.	4.1934e-002
11022	7.3815	5.2727	0.	3.7877e-002
11023	7.4726	5.2727	5.e-002	6.5647
11024	7.4726	5.	0.	4.1318e-002
11025	7.3815	5.0909	0.	3.7333e-002
11026	7.4726	5.0909	5.e-002	6.4875
11027	7.4726	4.8182	0.	3.9095e-002
11028	7.3815	4.9091	0.	3.5874e-002
11029	7.4726	4.9091	5.e-002	6.385
11030	7.4726	4.6364	0.	3.5486e-002
11031	7.3815	4.7273	0.	3.3063e-002
11032	7.4726	4.7273	5.e-002	6.2603
11033	7.4726	4.4545	0.	3.0884e-002
11034	7.3815	4.5455	0.	2.9286e-002
11035	7.4726	4.5455	5.e-002	6.117
11036	7.4726	4.2727	0.	2.566e-002
11037	7.3815	4.3636	0.	2.4801e-002
11038	7.4726	4.3636	5.e-002	5.9594
11039	7.4726	4.0909	0.	2.0188e-002
11040	7.3815	4.1818	0.	1.9937e-002
11041	7.4726	4.1818	5.e-002	5.7932
11042	7.4726	3.9091	0.	1.4828e-002
11043	7.3815	4.	0.	1.5015e-002
11044	7.4726	4.	5.e-002	5.6251
11045	7.4726	3.7273	0.	9.9175e-003
11046	7.3815	3.8182	0.	1.0346e-002
11047	7.4726	3.8182	5.e-002	5.4636
11048	7.4726	3.5455	0.	5.7586e-003
11049	7.3815	3.6364	0.	6.2216e-003
11050	7.4726	3.6364	5.e-002	5.3178
11051	7.4726	3.3636	0.	2.5998e-003
11052	7.3815	3.4545	0.	2.8925e-003
11053	7.4726	3.4545	5.e-002	5.1973
11054	7.4726	3.1818	0.	6.2657e-004
11055	7.3815	3.2727	0.	5.5611e-004
11056	7.4726	3.2727	5.e-002	5.111
11057	7.4726	3.	0.	-4.424e-005
11058	7.3815	3.0909	0.	-6.4818e-004
11059	7.4726	3.0909	5.e-002	5.066
11060	7.4726	2.8182	0.	6.2671e-004
11061	7.3815	2.9091	0.	-6.4797e-004
11062	7.4726	2.9091	5.e-002	5.066
11063	7.4726	2.6364	0.	2.5998e-003
11064	7.3815	2.7273	0.	5.5611e-004
11065	7.4726	2.7273	5.e-002	5.111
11066	7.4726	2.4545	0.	5.7589e-003
11067	7.3815	2.5455	0.	2.8928e-003
11068	7.4726	2.5455	5.e-002	5.1973
11069	7.4726	2.2727	0.	9.9177e-003
11070	7.3815	2.3636	0.	6.222e-003
11071	7.4726	2.3636	5.e-002	5.3178
11072	7.4726	2.0909	0.	1.4828e-002
11073	7.3815	2.1818	0.	1.0347e-002
11074	7.4726	2.1818	5.e-002	5.4636
11075	7.4726	1.9091	0.	2.0188e-002
11076	7.3815	2.	0.	1.5016e-002
11077	7.4726	2.	5.e-002	5.6252
11078	7.4726	1.7273	0.	2.5661e-002
11079	7.3815	1.8182	0.	1.9938e-002
11080	7.4726	1.8182	5.e-002	5.7932
11081	7.4726	1.5455	0.	3.0885e-002
11082	7.3815	1.6364	0.	2.4802e-002
11083	7.4726	1.6364	5.e-002	5.9595
11084	7.4726	1.3636	0.	3.5486e-002
11085	7.3815	1.4545	0.	2.9286e-002
11086	7.4726	1.4545	5.e-002	6.1171
11087	7.4726	1.1818	0.	3.9096e-002
11088	7.3815	1.2727	0.	3.3064e-002
11089	7.4726	1.2727	5.e-002	6.2604
11090	7.4726	1.	0.	4.1319e-002
11091	7.3815	1.0909	0.	3.5874e-002
11092	7.4726	1.0909	5.e-002	6.3851
11093	7.4726	0.81818	0.	4.1935e-002
11094	7.3815	0.90909	0.	3.7335e-002
11095	7.4726	0.90909	5.e-002	6.4877
11096	7.4726	0.63636	0.	4.0215e-002
11097	7.3815	0.72727	0.	3.7877e-002
11098	7.4726	0.72727	5.e-002	6.5648
11099	7.4726	0.45455	0.	3.8904e-002
11100	7.3815	0.54545	0.	3.5302e-002
11101	7.4726	0.54545	5.e-002	6.6044
11102	7.4726	0.27273	0.	4.286e-002
11103	7.3815	0.36364	0.	4.2952e-002
11104	7.4726	0.36364	5.e-002	6.4608
11105	7.3815	0.18182	0.	9.0226e-002
11106	7.4726	0.18182	5.e-002	3.8989
11107	7.4726	9.0909e-002	0.	0.61026
11108	7.2903	5.7273	0.	4.286e-002
11109	7.1992	5.8182	0.	6.9521e-002
11110	7.2903	5.8182	5.e-002	3.8101
11111	7.2903	5.9091	0.	0.11724
11112	7.2903	5.5455	0.	3.9194e-002
11113	7.1992	5.6364	0.	5.2001e-002
11114	7.2903	5.6364	5.e-002	6.3313
11115	7.2903	5.3636	0.	3.3718e-002
11116	7.1992	5.4545	0.	3.2187e-002
11117	7.2903	5.4545	5.e-002	6.4856
11118	7.2903	5.1818	0.	3.4112e-002
11119	7.1992	5.2727	0.	3.3555e-002
11120	7.2903	5.2727	5.e-002	6.4634
11121	7.2903	5.	0.	3.2617e-002
11122	7.1992	5.0909	0.	3.1294e-002
11123	7.2903	5.0909	5.e-002	6.4078
11124	7.2903	4.8182	0.	3.0412e-002
11125	7.1992	4.9091	0.	2.9312e-002
11126	7.2903	4.9091	5.e-002	6.3303
11127	7.2903	4.6364	0.	2.7272e-002
11128	7.1992	4.7273	0.	2.6435e-002
11129	7.2903	4.7273	5.e-002	6.2338
11130	7.2903	4.4545	0.	2.3464e-002
11131	7.1992	4.5455	0.	2.3002e-002
11132	7.2903	4.5455	5.e-002	6.1212
11133	7.2903	4.2727	0.	1.9216e-002
11134	7.1992	4.3636	0.	1.9116e-002
11135	7.2903	4.3636	5.e-002	5.9965
11136	7.2903	4.0909	0.	1.4799e-002
11137	7.1992	4.1818	0.	1.5007e-002
11138	7.2903	4.1818	5.e-002	5.8646
11139	7.2903	3.9091	0.	1.0486e-002
11140	7.1992	4.	0.	1.0903e-002
11141	7.2903	4.	5.e-002	5.7315
11142	7.2903	3.7273	0.	6.5388e-003
11143	7.1992	3.8182	0.	7.0405e-003
11144	7.2903	3.8182	5.e-002	5.6038
11145	7.2903	3.5455	0.	3.196e-003
11146	7.1992	3.6364	0.	3.6434e-003
11147	7.2903	3.6364	5.e-002	5.4889
11148	7.2903	3.3636	0.	6.5655e-004
11149	7.1992	3.4545	0.	9.09e-004
11150	7.2903	3.4545	5.e-002	5.3946
11151	7.2903	3.1818	0.	-9.301e-004
11152	7.1992	3.2727	0.	-1.0073e-003
11153	7.2903	3.2727	5.e-002	5.3272
11154	7.2903	3.	0.	-1.4697e-003
11155	7.1992	3.0909	0.	-1.9942e-003
11156	7.2903	3.0909	5.e-002	5.2922
11157	7.2903	2.8182	0.	-9.3004e-004
11158	7.1992	2.9091	0.	-1.9943e-003
11159	7.2903	2.9091	5.e-002	5.2922
11160	7.2903	2.6364	0.	6.5688e-004
11161	7.1992	2.7273	0.	-1.0071e-003
11162	7.2903	2.7273	5.e-002	5.3272
11163	7.2903	2.4545	0.	3.1965e-003
11164	7.1992	2.5455	0.	9.095e-004
11165	7.2903	2.5455	5.e-002	5.3945
11166	7.2903	2.2727	0.	6.539e-003
11167	7.1992	2.3636	0.	3.6438e-003
11168	7.2903	2.3636	5.e-002	5.489
11169	7.2903	2.0909	0.	1.0486e-002
11170	7.1992	2.1818	0.	7.0406e-003
11171	7.2903	2.1818	5.e-002	5.6038
11172	7.2903	1.9091	0.	1.48e-002
11173	7.1992	2.	0.	1.0904e-002
11174	7.2903	2.	5.e-002	5.7315
11175	7.2903	1.7273	0.	1.9216e-002
11176	7.1992	1.8182	0.	1.5007e-002
11177	7.2903	1.8182	5.e-002	5.8647
11178	7.2903	1.5455	0.	2.3465e-002
11179	7.1992	1.6364	0.	1.9117e-002
11180	7.2903	1.6364	5.e-002	5.9966
11181	7.2903	1.3636	0.	2.7272e-002
11182	7.1992	1.4545	0.	2.3003e-002
11183	7.2903	1.4545	5.e-002	6.1212
11184	7.2903	1.1818	0.	3.0413e-002
11185	7.1992	1.2727	0.	2.6436e-002
11186	7.2903	1.2727	5.e-002	6.2338
11187	7.2903	1.	0.	3.2618e-002
11188	7.1992	1.0909	0.	2.9313e-002
11189	7.2903	1.0909	5.e-002	6.3304
11190	7.2903	0.81818	0.	3.4113e-002
11191	7.1992	0.90909	0.	3.1295e-002
11192	7.2903	0.90909	5.e-002	6.4079
11193	7.2903	0.63636	0.	3.3719e-002
11194	7.1992	0.72727	0.	3.3556e-002
11195	7.2903	0.72727	5.e-002	6.4634
11196	7.2903	0.45455	0.	3.9195e-002
11197	7.1992	0.54545	0.	3.2187e-002
11198	7.2903	0.54545	5.e-002	6.4856
11199	7.2903	0.27273	0.	4.2862e-002
11200	7.1992	0.36364	0.	5.2002e-002
11201	7.2903	0.36364	5.e-002	6.3314
11202	7.1992	0.18182	0.	6.9523e-002
11203	7.2903	0.18182	5.e-002	3.8102
11204	7.2903	9.0909e-002	0.	0.11725
11205	7.1081	5.7273	0.	5.0628e-002
11206	7.0169	5.8182	0.	7.4438e-002
11207	7.1081	5.8182	5.e-002	3.8065
11208	7.1081	5.9091	0.	9.8396e-002
11209	7.1081	5.5455	0.	4.3417e-002
11210	7.0169	5.6364	0.	6.2779e-002
11211	7.1081	5.6364	5.e-002	6.2479
11212	7.1081	5.3636	0.	3.1695e-002
11213	7.0169	5.4545	0.	3.1713e-002
11214	7.1081	5.4545	5.e-002	6.4071
11215	7.1081	5.1818	0.	3.0734e-002
11216	7.0169	5.2727	0.	3.2109e-002
11217	7.1081	5.2727	5.e-002	6.3981
11218	7.1081	5.	0.	2.8087e-002
11219	7.0169	5.0909	0.	2.8209e-002
11220	7.1081	5.0909	5.e-002	6.3596
11221	7.1081	4.8182	0.	2.5451e-002
11222	7.0169	4.9091	0.	2.5565e-002
11223	7.1081	4.9091	5.e-002	6.302
11224	7.1081	4.6364	0.	2.226e-002
11225	7.0169	4.7273	0.	2.2362e-002
11226	7.1081	4.7273	5.e-002	6.2279
11227	7.1081	4.4545	0.	1.8709e-002
11228	7.0169	4.5455	0.	1.8944e-002
11229	7.1081	4.5455	5.e-002	6.1401
11230	7.1081	4.2727	0.	1.4918e-002
11231	7.0169	4.3636	0.	1.5296e-002
11232	7.1081	4.3636	5.e-002	6.0419
11233	7.1081	4.0909	0.	1.1077e-002
11234	7.0169	4.1818	0.	1.1579e-002
11235	7.1081	4.1818	5.e-002	5.9375
11236	7.1081	3.9091	0.	7.3847e-003
11237	7.0169	4.	0.	7.9506e-003
11238	7.1081	4.	5.e-002	5.8318
11239	7.1081	3.7273	0.	4.0385e-003
11240	7.0169	3.8182	0.	4.5862e-003
11241	7.1081	3.8182	5.e-002	5.7307
11242	7.1081	3.5455	0.	1.2229e-003
11243	7.0169	3.6364	0.	1.6563e-003
11244	7.1081	3.6364	5.e-002	5.64
11245	7.1081	3.3636	0.	-9.0763e-004
11246	7.0169	3.4545	0.	-6.8648e-004
11247	7.1081	3.4545	5.e-002	5.5656
11248	7.1081	3.1818	0.	-2.2358e-003
11249	7.0169	3.2727	0.	-2.322e-003
11250	7.1081	3.2727	5.e-002	5.5127
11251	7.1081	3.	0.	-2.6871e-003
11252	7.0169	3.0909	0.	-3.1623e-003
11253	7.1081	3.0909	5.e-002	5.4851
11254	7.1081	2.8182	0.	-2.2358e-003
11255	7.0169	2.9091	0.	-3.1624e-003
11256	7.1081	2.9091	5.e-002	5.4851
11257	7.1081	2.6364	0.	-9.073e-004
11258	7.0169	2.7273	0.	-2.3219e-003
11259	7.1081	2.7273	5.e-002	5.5127
11260	7.1081	2.4545	0.	1.2234e-003
11261	7.0169	2.5455	0.	-6.8618e-004
11262	7.1081	2.5455	5.e-002	5.5656
11263	7.1081	2.2727	0.	4.0389e-003
11264	7.0169	2.3636	0.	1.6568e-003
11265	7.1081	2.3636	5.e-002	5.64
11266	7.1081	2.0909	0.	7.385e-003
11267	7.0169	2.1818	0.	4.5864e-003
11268	7.1081	2.1818	5.e-002	5.7308
11269	7.1081	1.9091	0.	1.1078e-002
11270	7.0169	2.	0.	7.9512e-003
11271	7.1081	2.	5.e-002	5.832
11272	7.1081	1.7273	0.	1.4919e-002
11273	7.0169	1.8182	0.	1.1579e-002
11274	7.1081	1.8182	5.e-002	5.9375
11275	7.1081	1.5455	0.	1.871e-002
11276	7.0169	1.6364	0.	1.5297e-002
11277	7.1081	1.6364	5.e-002	6.0419
11278	7.1081	1.3636	0.	2.2261e-002
11279	7.0169	1.4545	0.	1.8945e-002
11280	7.1081	1.4545	5.e-002	6.1402
11281	7.1081	1.1818	0.	2.5452e-002
11282	7.0169	1.2727	0.	2.2363e-002
11283	7.1081	1.2727	5.e-002	6.228
11284	7.1081	1.	0.	2.8088e-002
11285	7.0169	1.0909	0.	2.5566e-002
11286	7.1081	1.0909	5.e-002	6.3021
11287	7.1081	0.81818	0.	3.0735e-002
11288	7.0169	0.90909	0.	2.821e-002
11289	7.1081	0.90909	5.e-002	6.3596
11290	7.1081	0.63636	0.	3.1696e-002
11291	7.0169	0.72727	0.	3.211e-002
11292	7.1081	0.72727	5.e-002	6.3983
11293	7.1081	0.45455	0.	4.3417e-002
11294	7.0169	0.54545	0.	3.1713e-002
11295	7.1081	0.54545	5.e-002	6.4072
11296	7.1081	0.27273	0.	5.0629e-002
11297	7.0169	0.36364	0.	6.278e-002
11298	7.1081	0.36364	5.e-002	6.2481
11299	7.0169	0.18182	0.	7.4439e-002
11300	7.1081	0.18182	5.e-002	3.8067
11301	7.1081	9.0909e-002	0.	9.8397e-002
11302	6.9258	5.7273	0.	5.9641e-002
11303	6.8347	5.8182	0.	8.2793e-002
11304	6.9258	5.8182	5.e-002	3.876
11305	6.9258	5.9091	0.	9.921e-002
11306	6.9258	5.5455	0.	4.8846e-002
11307	6.8347	5.6364	0.	7.4117e-002
11308	6.9258	5.6364	5.e-002	6.2028
11309	6.9258	5.3636	0.	3.1429e-002
11310	6.8347	5.4545	0.	3.2461e-002
11311	6.9258	5.4545	5.e-002	6.3622
11312	6.9258	5.1818	0.	2.9301e-002
11313	6.8347	5.2727	0.	3.206e-002
11314	6.9258	5.2727	5.e-002	6.3632
11315	6.9258	5.	0.	2.5558e-002
11316	6.8347	5.0909	0.	2.6646e-002
11317	6.9258	5.0909	5.e-002	6.3378
11318	6.9258	4.8182	0.	2.2412e-002
11319	6.8347	4.9091	0.	2.3344e-002
11320	6.9258	4.9091	5.e-002	6.2959
11321	6.9258	4.6364	0.	1.9005e-002
11322	6.8347	4.7273	0.	1.9739e-002
11323	6.9258	4.7273	5.e-002	6.2397
11324	6.9258	4.4545	0.	1.549e-002
11325	6.8347	4.5455	0.	1.6198e-002
11326	6.9258	4.5455	5.e-002	6.1716
11327	6.9258	4.2727	0.	1.1905e-002
11328	6.8347	4.3636	0.	1.261e-002
11329	6.9258	4.3636	5.e-002	6.0945
11330	6.9258	4.0909	0.	8.3836e-003
11331	6.8347	4.1818	0.	9.0874e-003
11332	6.9258	4.1818	5.e-002	6.0119
11333	6.9258	3.9091	0.	5.0661e-003
11334	6.8347	4.	0.	5.7341e-003
11335	6.9258	4.	5.e-002	5.928
11336	6.9258	3.7273	0.	2.1014e-003
11337	6.8347	3.8182	0.	2.6783e-003
11338	6.9258	3.8182	5.e-002	5.8477
11339	6.9258	3.5455	0.	-3.6991e-004
11340	6.8347	3.6364	0.	4.9666e-005
11341	6.9258	3.6364	5.e-002	5.7756
11342	6.9258	3.3636	0.	-2.2284e-003
11343	6.8347	3.4545	0.	-2.0346e-003
11344	6.9258	3.4545	5.e-002	5.7166
11345	6.9258	3.1818	0.	-3.3827e-003
11346	6.8347	3.2727	0.	-3.482e-003
11347	6.9258	3.2727	5.e-002	5.6747
11348	6.9258	3.	0.	-3.774e-003
11349	6.8347	3.0909	0.	-4.2233e-003
11350	6.9258	3.0909	5.e-002	5.6529
11351	6.9258	2.8182	0.	-3.3826e-003
11352	6.8347	2.9091	0.	-4.2233e-003
11353	6.9258	2.9091	5.e-002	5.6529
11354	6.9258	2.6364	0.	-2.2282e-003
11355	6.8347	2.7273	0.	-3.4819e-003
11356	6.9258	2.7273	5.e-002	5.6747
11357	6.9258	2.4545	0.	-3.6961e-004
11358	6.8347	2.5455	0.	-2.0345e-003
11359	6.9258	2.5455	5.e-002	5.7166
11360	6.9258	2.2727	0.	2.1017e-003
11361	6.8347	2.3636	0.	5.011e-005
11362	6.9258	2.3636	5.e-002	5.7757
11363	6.9258	2.0909	0.	5.0665e-003
11364	6.8347	2.1818	0.	2.6787e-003
11365	6.9258	2.1818	5.e-002	5.8477
11366	6.9258	1.9091	0.	8.3841e-003
11367	6.8347	2.	0.	5.7346e-003
11368	6.9258	2.	5.e-002	5.9281
11369	6.9258	1.7273	0.	1.1905e-002
11370	6.8347	1.8182	0.	9.0879e-003
11371	6.9258	1.8182	5.e-002	6.0119
11372	6.9258	1.5455	0.	1.549e-002
11373	6.8347	1.6364	0.	1.2611e-002
11374	6.9258	1.6364	5.e-002	6.0945
11375	6.9258	1.3636	0.	1.9006e-002
11376	6.8347	1.4545	0.	1.6199e-002
11377	6.9258	1.4545	5.e-002	6.1717
11378	6.9258	1.1818	0.	2.2413e-002
11379	6.8347	1.2727	0.	1.974e-002
11380	6.9258	1.2727	5.e-002	6.2398
11381	6.9258	1.	0.	2.556e-002
11382	6.8347	1.0909	0.	2.3345e-002
11383	6.9258	1.0909	5.e-002	6.296
11384	6.9258	0.81818	0.	2.9302e-002
11385	6.8347	0.90909	0.	2.6648e-002
11386	6.9258	0.90909	5.e-002	6.3379
11387	6.9258	0.63636	0.	3.143e-002
11388	6.8347	0.72727	0.	3.2061e-002
11389	6.9258	0.72727	5.e-002	6.3633
11390	6.9258	0.45455	0.	4.8847e-002
11391	6.8347	0.54545	0.	3.2461e-002
11392	6.9258	0.54545	5.e-002	6.3623
11393	6.9258	0.27273	0.	5.9643e-002
11394	6.8347	0.36364	0.	7.4119e-002
11395	6.9258	0.36364	5.e-002	6.2029
11396	6.8347	0.18182	0.	8.2795e-002
11397	6.9258	0.18182	5.e-002	3.8761
11398	6.9258	9.0909e-002	0.	9.9211e-002
11399	6.7435	5.7273	0.	6.9215e-002
11400	6.6524	5.8182	0.	9.2435e-002
11401	6.7435	5.8182	5.e-002	4.0086
11402	6.7435	5.9091	0.	0.10387
11403	6.7435	5.5455	0.	5.4937e-002
11404	6.6524	5.6364	0.	8.5847e-002
11405	6.7435	5.6364	5.e-002	6.1898
11406	6.7435	5.3636	0.	3.215e-002
11407	6.6524	5.4545	0.	3.3988e-002
11408	6.7435	5.4545	5.e-002	6.3455
11409	6.7435	5.1818	0.	2.8971e-002
11410	6.6524	5.2727	0.	3.288e-002
11411	6.7435	5.2727	5.e-002	6.3539
11412	6.7435	5.	0.	2.4192e-002
11413	6.6524	5.0909	0.	2.603e-002
11414	6.7435	5.0909	5.e-002	6.3386
11415	6.7435	4.8182	0.	2.0519e-002
11416	6.6524	4.9091	0.	2.2079e-002
11417	6.7435	4.9091	5.e-002	6.309
11418	6.7435	4.6364	0.	1.6822e-002
11419	6.6524	4.7273	0.	1.8035e-002
11420	6.7435	4.7273	5.e-002	6.2669
11421	6.7435	4.4545	0.	1.3227e-002
11422	6.6524	4.5455	0.	1.4293e-002
11423	6.7435	4.5455	5.e-002	6.2143
11424	6.7435	4.2727	0.	9.7066e-003
11425	6.6524	4.3636	0.	1.066e-002
11426	6.7435	4.3636	5.e-002	6.1537
11427	6.7435	4.0909	0.	6.35e-003
11428	6.6524	4.1818	0.	7.2079e-003
11429	6.7435	4.1818	5.e-002	6.0883
11430	6.7435	3.9091	0.	3.2531e-003
11431	6.6524	4.	0.	3.9998e-003
11432	6.7435	4.	5.e-002	6.0216
11433	6.7435	3.7273	0.	5.2694e-004
11434	6.6524	3.8182	0.	1.1271e-003
11435	6.7435	3.8182	5.e-002	5.9575
11436	6.7435	3.5455	0.	-1.7212e-003
11437	6.6524	3.6364	0.	-1.3125e-003
11438	6.7435	3.6364	5.e-002	5.8998
11439	6.7435	3.3636	0.	-3.3996e-003
11440	6.6524	3.4545	0.	-3.2296e-003
11441	6.7435	3.4545	5.e-002	5.8527
11442	6.7435	3.1818	0.	-4.4374e-003
11443	6.6524	3.2727	0.	-4.5529e-003
11444	6.7435	3.2727	5.e-002	5.8192
11445	6.7435	3.	0.	-4.7885e-003
11446	6.6524	3.0909	0.	-5.2284e-003
11447	6.7435	3.0909	5.e-002	5.8019
11448	6.7435	2.8182	0.	-4.4373e-003
11449	6.6524	2.9091	0.	-5.2284e-003
11450	6.7435	2.9091	5.e-002	5.8019
11451	6.7435	2.6364	0.	-3.3995e-003
11452	6.6524	2.7273	0.	-4.5528e-003
11453	6.7435	2.7273	5.e-002	5.8192
11454	6.7435	2.4545	0.	-1.7209e-003
11455	6.6524	2.5455	0.	-3.2294e-003
11456	6.7435	2.5455	5.e-002	5.8527
11457	6.7435	2.2727	0.	5.2737e-004
11458	6.6524	2.3636	0.	-1.3121e-003
11459	6.7435	2.3636	5.e-002	5.8999
11460	6.7435	2.0909	0.	3.2535e-003
11461	6.6524	2.1818	0.	1.1275e-003
11462	6.7435	2.1818	5.e-002	5.9575
11463	6.7435	1.9091	0.	6.3504e-003
11464	6.6524	2.	0.	4.0001e-003
11465	6.7435	2.	5.e-002	6.0217
11466	6.7435	1.7273	0.	9.7072e-003
11467	6.6524	1.8182	0.	7.2085e-003
11468	6.7435	1.8182	5.e-002	6.0884
11469	6.7435	1.5455	0.	1.3228e-002
11470	6.6524	1.6364	0.	1.066e-002
11471	6.7435	1.6364	5.e-002	6.1539
11472	6.7435	1.3636	0.	1.6823e-002
11473	6.6524	1.4545	0.	1.4294e-002
11474	6.7435	1.4545	5.e-002	6.2144
11475	6.7435	1.1818	0.	2.052e-002
11476	6.6524	1.2727	0.	1.8035e-002
11477	6.7435	1.2727	5.e-002	6.267
11478	6.7435	1.	0.	2.4193e-002
11479	6.6524	1.0909	0.	2.208e-002
11480	6.7435	1.0909	5.e-002	6.3091
11481	6.7435	0.81818	0.	2.8973e-002
11482	6.6524	0.90909	0.	2.6031e-002
11483	6.7435	0.90909	5.e-002	6.3387
11484	6.7435	0.63636	0.	3.215e-002
11485	6.6524	0.72727	0.	3.2881e-002
11486	6.7435	0.72727	5.e-002	6.3539
11487	6.7435	0.45455	0.	5.4938e-002
11488	6.6524	0.54545	0.	3.3988e-002
11489	6.7435	0.54545	5.e-002	6.3457
11490	6.7435	0.27273	0.	6.9217e-002
11491	6.6524	0.36364	0.	8.5849e-002
11492	6.7435	0.36364	5.e-002	6.1899
11493	6.6524	0.18182	0.	9.2437e-002
11494	6.7435	0.18182	5.e-002	4.0088
11495	6.7435	9.0909e-002	0.	0.10387
11496	6.5613	5.7273	0.	7.9276e-002
11497	6.4702	5.8182	0.	0.10301
11498	6.5613	5.8182	5.e-002	4.1968
11499	6.5613	5.9091	0.	0.11008
11500	6.5613	5.5455	0.	6.155e-002
11501	6.4702	5.6364	0.	9.8007e-002
11502	6.5613	5.6364	5.e-002	6.2043
11503	6.5613	5.3636	0.	3.3562e-002
11504	6.4702	5.4545	0.	3.6119e-002
11505	6.5613	5.4545	5.e-002	6.353
11506	6.5613	5.1818	0.	2.9391e-002
11507	6.4702	5.2727	0.	3.434e-002
11508	6.5613	5.2727	5.e-002	6.3665
11509	6.5613	5.	0.	2.3602e-002
11510	6.4702	5.0909	0.	2.6085e-002
11511	6.5613	5.0909	5.e-002	6.359
11512	6.5613	4.8182	0.	1.9389e-002
11513	6.4702	4.9091	0.	2.1482e-002
11514	6.5613	4.9091	5.e-002	6.3388
11515	6.5613	4.6364	0.	1.5355e-002
11516	6.4702	4.7273	0.	1.6967e-002
11517	6.5613	4.7273	5.e-002	6.3077
11518	6.5613	4.4545	0.	1.1604e-002
11519	6.4702	4.5455	0.	1.2967e-002
11520	6.5613	4.5455	5.e-002	6.2672
11521	6.5613	4.2727	0.	8.0543e-003
11522	6.4702	4.3636	0.	9.2133e-003
11523	6.5613	4.3636	5.e-002	6.2197
11524	6.5613	4.0909	0.	4.7578e-003
11525	6.4702	4.1818	0.	5.7454e-003
11526	6.5613	4.1818	5.e-002	6.1677
11527	6.5613	3.9091	0.	1.776e-003
11528	6.4702	4.	0.	2.5903e-003
11529	6.5613	4.	5.e-002	6.1142
11530	6.5613	3.7273	0.	-8.1049e-004
11531	6.4702	3.8182	0.	-1.8846e-004
11532	6.5613	3.8182	5.e-002	6.0626
11533	6.5613	3.5455	0.	-2.9206e-003
11534	6.4702	3.6364	0.	-2.5197e-003
11535	6.5613	3.6364	5.e-002	6.0162
11536	6.5613	3.3636	0.	-4.4843e-003
11537	6.4702	3.4545	0.	-4.3354e-003
11538	6.5613	3.4545	5.e-002	5.9782
11539	6.5613	3.1818	0.	-5.4466e-003
11540	6.4702	3.2727	0.	-5.5812e-003
11541	6.5613	3.2727	5.e-002	5.9512
11542	6.5613	3.	0.	-5.7715e-003
11543	6.4702	3.0909	0.	-6.2151e-003
11544	6.5613	3.0909	5.e-002	5.9372
11545	6.5613	2.8182	0.	-5.4465e-003
11546	6.4702	2.9091	0.	-6.215e-003
11547	6.5613	2.9091	5.e-002	5.9372
11548	6.5613	2.6364	0.	-4.4842e-003
11549	6.4702	2.7273	0.	-5.5811e-003
11550	6.5613	2.7273	5.e-002	5.9512
11551	6.5613	2.4545	0.	-2.9203e-003
11552	6.4702	2.5455	0.	-4.3352e-003
11553	6.5613	2.5455	5.e-002	5.9782
11554	6.5613	2.2727	0.	-8.1012e-004
11555	6.4702	2.3636	0.	-2.5194e-003
11556	6.5613	2.3636	5.e-002	6.0162
11557	6.5613	2.0909	0.	1.7763e-003
11558	6.4702	2.1818	0.	-1.882e-004
11559	6.5613	2.1818	5.e-002	6.0626
11560	6.5613	1.9091	0.	4.7583e-003
11561	6.4702	2.	0.	2.5907e-003
11562	6.5613	2.	5.e-002	6.1143
11563	6.5613	1.7273	0.	8.0549e-003
11564	6.4702	1.8182	0.	5.7459e-003
11565	6.5613	1.8182	5.e-002	6.1677
11566	6.5613	1.5455	0.	1.1605e-002
11567	6.4702	1.6364	0.	9.214e-003
11568	6.5613	1.6364	5.e-002	6.2198
11569	6.5613	1.3636	0.	1.5355e-002
11570	6.4702	1.4545	0.	1.2968e-002
11571	6.5613	1.4545	5.e-002	6.2674
11572	6.5613	1.1818	0.	1.9389e-002
11573	6.4702	1.2727	0.	1.6967e-002
11574	6.5613	1.2727	5.e-002	6.3078
11575	6.5613	1.	0.	2.3603e-002
11576	6.4702	1.0909	0.	2.1483e-002
11577	6.5613	1.0909	5.e-002	6.339
11578	6.5613	0.81818	0.	2.9392e-002
11579	6.4702	0.90909	0.	2.6087e-002
11580	6.5613	0.90909	5.e-002	6.3592
11581	6.5613	0.63636	0.	3.3562e-002
11582	6.4702	0.72727	0.	3.4341e-002
11583	6.5613	0.72727	5.e-002	6.3666
11584	6.5613	0.45455	0.	6.1551e-002
11585	6.4702	0.54545	0.	3.6119e-002
11586	6.5613	0.54545	5.e-002	6.3533
11587	6.5613	0.27273	0.	7.9277e-002
11588	6.4702	0.36364	0.	9.8009e-002
11589	6.5613	0.36364	5.e-002	6.2045
11590	6.4702	0.18182	0.	0.10301
11591	6.5613	0.18182	5.e-002	4.197
11592	6.5613	9.0909e-002	0.	0.11008
11593	6.379	5.7273	0.	8.9896e-002
11594	6.2879	5.8182	0.	0.11457
11595	6.379	5.8182	5.e-002	4.4351
11596	6.379	5.9091	0.	0.11726
11597	6.379	5.5455	0.	6.8669e-002
11598	6.2879	5.6364	0.	0.1107
11599	6.379	5.6364	5.e-002	6.2426
11600	6.379	5.3636	0.	3.5531e-002
11601	6.2879	5.4545	0.	3.8777e-002
11602	6.379	5.4545	5.e-002	6.3816
11603	6.379	5.1818	0.	3.0385e-002
11604	6.2879	5.2727	0.	3.6332e-002
11605	6.379	5.2727	5.e-002	6.3985
11606	6.379	5.	0.	2.3589e-002
11607	6.2879	5.0909	0.	2.6669e-002
11608	6.379	5.0909	5.e-002	6.3968
11609	6.379	4.8182	0.	1.8812e-002
11610	6.2879	4.9091	0.	2.1394e-002
11611	6.379	4.9091	5.e-002	6.3839
11612	6.379	4.6364	0.	1.4399e-002
11613	6.2879	4.7273	0.	1.6373e-002
11614	6.379	4.7273	5.e-002	6.3611
11615	6.379	4.4545	0.	1.0434e-002
11616	6.2879	4.5455	0.	1.2066e-002
11617	6.379	4.5455	5.e-002	6.33
11618	6.379	4.2727	0.	6.7833e-003
11619	6.2879	4.3636	0.	8.1306e-003
11620	6.379	4.3636	5.e-002	6.2924
11621	6.379	4.0909	0.	3.4693e-003
11622	6.2879	4.1818	0.	4.578e-003
11623	6.379	4.1818	5.e-002	6.2508
11624	6.379	3.9091	0.	5.2413e-004
11625	6.2879	4.	0.	1.4054e-003
11626	6.379	4.	5.e-002	6.2075
11627	6.379	3.7273	0.	-1.9959e-003
11628	6.2879	3.8182	0.	-1.348e-003
11629	6.379	3.8182	5.e-002	6.1655
11630	6.379	3.5455	0.	-4.031e-003
11631	6.2879	3.6364	0.	-3.6321e-003
11632	6.379	3.6364	5.e-002	6.1277
11633	6.379	3.3636	0.	-5.5282e-003
11634	6.2879	3.4545	0.	-5.3963e-003
11635	6.379	3.4545	5.e-002	6.0966
11636	6.379	3.1818	0.	-6.4454e-003
11637	6.2879	3.2727	0.	-6.5997e-003
11638	6.379	3.2727	5.e-002	6.0746
11639	6.379	3.	0.	-6.7543e-003
11640	6.2879	3.0909	0.	-7.2103e-003
11641	6.379	3.0909	5.e-002	6.0631
11642	6.379	2.8182	0.	-6.4453e-003
11643	6.2879	2.9091	0.	-7.2102e-003
11644	6.379	2.9091	5.e-002	6.0631
11645	6.379	2.6364	0.	-5.5281e-003
11646	6.2879	2.7273	0.	-6.5997e-003
11647	6.379	2.7273	5.e-002	6.0746
11648	6.379	2.4545	0.	-4.0308e-003
11649	6.2879	2.5455	0.	-5.3961e-003
11650	6.379	2.5455	5.e-002	6.0967
11651	6.379	2.2727	0.	-1.9956e-003
11652	6.2879	2.3636	0.	-3.6319e-003
11653	6.379	2.3636	5.e-002	6.1277
11654	6.379	2.0909	0.	5.2444e-004
11655	6.2879	2.1818	0.	-1.3476e-003
11656	6.379	2.1818	5.e-002	6.1656
11657	6.379	1.9091	0.	3.4697e-003
11658	6.2879	2.	0.	1.4058e-003
11659	6.379	2.	5.e-002	6.2075
11660	6.379	1.7273	0.	6.7839e-003
11661	6.2879	1.8182	0.	4.5786e-003
11662	6.379	1.8182	5.e-002	6.2508
11663	6.379	1.5455	0.	1.0434e-002
11664	6.2879	1.6364	0.	8.1313e-003
11665	6.379	1.6364	5.e-002	6.2925
11666	6.379	1.3636	0.	1.4399e-002
11667	6.2879	1.4545	0.	1.2067e-002
11668	6.379	1.4545	5.e-002	6.3301
11669	6.379	1.1818	0.	1.8813e-002
11670	6.2879	1.2727	0.	1.6374e-002
11671	6.379	1.2727	5.e-002	6.3612
11672	6.379	1.	0.	2.359e-002
11673	6.2879	1.0909	0.	2.1395e-002
11674	6.379	1.0909	5.e-002	6.384
11675	6.379	0.81818	0.	3.0386e-002
11676	6.2879	0.90909	0.	2.667e-002
11677	6.379	0.90909	5.e-002	6.397
11678	6.379	0.63636	0.	3.5532e-002
11679	6.2879	0.72727	0.	3.6333e-002
11680	6.379	0.72727	5.e-002	6.3987
11681	6.379	0.45455	0.	6.8669e-002
11682	6.2879	0.54545	0.	3.8777e-002
11683	6.379	0.54545	5.e-002	6.3817
11684	6.379	0.27273	0.	8.9898e-002
11685	6.2879	0.36364	0.	0.1107
11686	6.379	0.36364	5.e-002	6.2428
11687	6.2879	0.18182	0.	0.11457
11688	6.379	0.18182	5.e-002	4.4352
11689	6.379	9.0909e-002	0.	0.11726
11690	6.1968	5.7273	0.	0.10121
11691	6.1056	5.8182	0.	0.12733
11692	6.1968	5.8182	5.e-002	4.7195
11693	6.1968	5.9091	0.	0.1252
11694	6.1968	5.5455	0.	7.6324e-002
11695	6.1056	5.6364	0.	0.12405
11696	6.1968	5.6364	5.e-002	6.3021
11697	6.1968	5.3636	0.	3.7997e-002
11698	6.1056	5.4545	0.	4.193e-002
11699	6.1968	5.4545	5.e-002	6.4287
11700	6.1968	5.1818	0.	3.1865e-002
11701	6.1056	5.2727	0.	3.8803e-002
11702	6.1968	5.2727	5.e-002	6.4479
11703	6.1968	5.	0.	2.404e-002
11704	6.1056	5.0909	0.	2.7701e-002
11705	6.1968	5.0909	5.e-002	6.4505
11706	6.1968	4.8182	0.	1.867e-002
11707	6.1056	4.9091	0.	2.1723e-002
11708	6.1968	4.9091	5.e-002	6.4428
11709	6.1968	4.6364	0.	1.3834e-002
11710	6.1056	4.7273	0.	1.6156e-002
11711	6.1968	4.7273	5.e-002	6.4264
11712	6.1968	4.4545	0.	9.6023e-003
11713	6.1056	4.5455	0.	1.1494e-002
11714	6.1968	4.5455	5.e-002	6.4023
11715	6.1968	4.2727	0.	5.7918e-003
11716	6.1056	4.3636	0.	7.3227e-003
11717	6.1968	4.3636	5.e-002	6.3723
11718	6.1968	4.0909	0.	2.3974e-003
11719	6.1056	4.1818	0.	3.6276e-003
11720	6.1968	4.1818	5.e-002	6.3384
11721	6.1968	3.9091	0.	-5.7296e-004
11722	6.1056	4.	0.	3.7915e-004
11723	6.1968	4.	5.e-002	6.303
11724	6.1968	3.7273	0.	-3.084e-003
11725	6.1056	3.8182	0.	-2.4042e-003
11726	6.1968	3.8182	5.e-002	6.2683
11727	6.1968	3.5455	0.	-5.0933e-003
11728	6.1056	3.6364	0.	-4.6902e-003
11729	6.1968	3.6364	5.e-002	6.2369
11730	6.1968	3.3636	0.	-6.5615e-003
11731	6.1056	3.4545	0.	-6.4425e-003
11732	6.1968	3.4545	5.e-002	6.2111
11733	6.1968	3.1818	0.	-7.4572e-003
11734	6.1056	3.2727	0.	-7.6318e-003
11735	6.1968	3.2727	5.e-002	6.1927
11736	6.1968	3.	0.	-7.7583e-003
11737	6.1056	3.0909	0.	-8.233e-003
11738	6.1968	3.0909	5.e-002	6.1832
11739	6.1968	2.8182	0.	-7.4571e-003
11740	6.1056	2.9091	0.	-8.2329e-003
11741	6.1968	2.9091	5.e-002	6.1832
11742	6.1968	2.6364	0.	-6.5614e-003
11743	6.1056	2.7273	0.	-7.6316e-003
11744	6.1968	2.7273	5.e-002	6.1928
11745	6.1968	2.4545	0.	-5.0931e-003
11746	6.1056	2.5455	0.	-6.4422e-003
11747	6.1968	2.5455	5.e-002	6.2111
11748	6.1968	2.2727	0.	-3.0836e-003
11749	6.1056	2.3636	0.	-4.69e-003
11750	6.1968	2.3636	5.e-002	6.237
11751	6.1968	2.0909	0.	-5.725e-004
11752	6.1056	2.1818	0.	-2.4038e-003
11753	6.1968	2.1818	5.e-002	6.2684
11754	6.1968	1.9091	0.	2.398e-003
11755	6.1056	2.	0.	3.7952e-004
11756	6.1968	2.	5.e-002	6.303
11757	6.1968	1.7273	0.	5.7926e-003
11758	6.1056	1.8182	0.	3.6282e-003
11759	6.1968	1.8182	5.e-002	6.3385
11760	6.1968	1.5455	0.	9.6031e-003
11761	6.1056	1.6364	0.	7.3233e-003
11762	6.1968	1.6364	5.e-002	6.3724
11763	6.1968	1.3636	0.	1.3835e-002
11764	6.1056	1.4545	0.	1.1495e-002
11765	6.1968	1.4545	5.e-002	6.4024
11766	6.1968	1.1818	0.	1.8671e-002
11767	6.1056	1.2727	0.	1.6157e-002
11768	6.1968	1.2727	5.e-002	6.4265
11769	6.1968	1.	0.	2.4042e-002
11770	6.1056	1.0909	0.	2.1724e-002
11771	6.1968	1.0909	5.e-002	6.443
11772	6.1968	0.81818	0.	3.1866e-002
11773	6.1056	0.90909	0.	2.7702e-002
11774	6.1968	0.90909	5.e-002	6.4505
11775	6.1968	0.63636	0.	3.7998e-002
11776	6.1056	0.72727	0.	3.8803e-002
11777	6.1968	0.72727	5.e-002	6.4479
11778	6.1968	0.45455	0.	7.6325e-002
11779	6.1056	0.54545	0.	4.193e-002
11780	6.1968	0.54545	5.e-002	6.4288
11781	6.1968	0.27273	0.	0.10121
11782	6.1056	0.36364	0.	0.12405
11783	6.1968	0.36364	5.e-002	6.3023
11784	6.1056	0.18182	0.	0.12733
11785	6.1968	0.18182	5.e-002	4.7196
11786	6.1968	9.0909e-002	0.	0.12521
11787	6.0145	5.7273	0.	0.11336
11788	5.9234	5.8182	0.	0.14156
11789	6.0145	5.8182	5.e-002	5.0476
11790	6.0145	5.9091	0.	0.13389
11791	6.0145	5.5455	0.	8.457e-002
11792	5.9234	5.6364	0.	0.1382
11793	6.0145	5.6364	5.e-002	6.3808
11794	6.0145	5.3636	0.	4.0932e-002
11795	5.9234	5.4545	0.	4.5574e-002
11796	6.0145	5.4545	5.e-002	6.4927
11797	6.0145	5.1818	0.	3.3782e-002
11798	5.9234	5.2727	0.	4.1727e-002
11799	6.0145	5.2727	5.e-002	6.5131
11800	6.0145	5.	0.	2.4891e-002
11801	5.9234	5.0909	0.	2.9133e-002
11802	6.0145	5.0909	5.e-002	6.5187
11803	6.0145	4.8182	0.	1.8888e-002
11804	5.9234	4.9091	0.	2.2412e-002
11805	6.0145	4.9091	5.e-002	6.5151
11806	6.0145	4.6364	0.	1.3585e-002
11807	5.9234	4.7273	0.	1.6254e-002
11808	6.0145	4.7273	5.e-002	6.5032
11809	6.0145	4.4545	0.	9.0366e-003
11810	5.9234	4.5455	0.	1.1189e-002
11811	6.0145	4.5455	5.e-002	6.4843
11812	6.0145	4.2727	0.	5.013e-003
11813	5.9234	4.3636	0.	6.7307e-003
11814	6.0145	4.3636	5.e-002	6.4599
11815	6.0145	4.0909	0.	1.4843e-003
11816	5.9234	4.1818	0.	2.8415e-003
11817	6.0145	4.1818	5.e-002	6.4318
11818	6.0145	3.9091	0.	-1.5639e-003
11819	5.9234	4.	0.	-5.334e-004
11820	6.0145	4.	5.e-002	6.402
11821	6.0145	3.7273	0.	-4.1135e-003
11822	5.9234	3.8182	0.	-3.3938e-003
11823	6.0145	3.8182	5.e-002	6.3728
11824	6.0145	3.5455	0.	-6.137e-003
11825	5.9234	3.6364	0.	-5.7226e-003
11826	6.0145	3.6364	5.e-002	6.3462
11827	6.0145	3.3636	0.	-7.6069e-003
11828	5.9234	3.4545	0.	-7.4959e-003
11829	6.0145	3.4545	5.e-002	6.3243
11830	6.0145	3.1818	0.	-8.4999e-003
11831	5.9234	3.2727	0.	-8.6938e-003
11832	6.0145	3.2727	5.e-002	6.3086
11833	6.0145	3.	0.	-8.7993e-003
11834	5.9234	3.0909	0.	-9.2977e-003
11835	6.0145	3.0909	5.e-002	6.3005
11836	6.0145	2.8182	0.	-8.4997e-003
11837	5.9234	2.9091	0.	-9.2976e-003
11838	6.0145	2.9091	5.e-002	6.3005
11839	6.0145	2.6364	0.	-7.6066e-003
11840	5.9234	2.7273	0.	-8.6936e-003
11841	6.0145	2.7273	5.e-002	6.3086
11842	6.0145	2.4545	0.	-6.1367e-003
11843	5.9234	2.5455	0.	-7.4956e-003
11844	6.0145	2.5455	5.e-002	6.3243
11845	6.0145	2.2727	0.	-4.1133e-003
11846	5.9234	2.3636	0.	-5.7223e-003
11847	6.0145	2.3636	5.e-002	6.3462
11848	6.0145	2.0909	0.	-1.5635e-003
11849	5.9234	2.1818	0.	-3.3935e-003
11850	6.0145	2.1818	5.e-002	6.3728
11851	6.0145	1.9091	0.	1.4848e-003
11852	5.9234	2.	0.	-5.3305e-004
11853	6.0145	2.	5.e-002	6.4021
11854	6.0145	1.7273	0.	5.0136e-003
11855	5.9234	1.8182	0.	2.842e-003
11856	6.0145	1.8182	5.e-002	6.4319
11857	6.0145	1.5455	0.	9.0374e-003
11858	5.9234	1.6364	0.	6.7313e-003
11859	6.0145	1.6364	5.e-002	6.46
11860	6.0145	1.3636	0.	1.3586e-002
11861	5.9234	1.4545	0.	1.119e-002
11862	6.0145	1.4545	5.e-002	6.4844
11863	6.0145	1.1818	0.	1.8889e-002
11864	5.9234	1.2727	0.	1.6254e-002
11865	6.0145	1.2727	5.e-002	6.5034
11866	6.0145	1.	0.	2.4892e-002
11867	5.9234	1.0909	0.	2.2413e-002
11868	6.0145	1.0909	5.e-002	6.5152
11869	6.0145	0.81818	0.	3.3783e-002
11870	5.9234	0.90909	0.	2.9135e-002
11871	6.0145	0.90909	5.e-002	6.5189
11872	6.0145	0.63636	0.	4.0932e-002
11873	5.9234	0.72727	0.	4.1728e-002
11874	6.0145	0.72727	5.e-002	6.5133
11875	6.0145	0.45455	0.	8.4571e-002
11876	5.9234	0.54545	0.	4.5574e-002
11877	6.0145	0.54545	5.e-002	6.4929
11878	6.0145	0.27273	0.	0.11336
11879	5.9234	0.36364	0.	0.1382
11880	6.0145	0.36364	5.e-002	6.3809
11881	5.9234	0.18182	0.	0.14156
11882	6.0145	0.18182	5.e-002	5.0478
11883	6.0145	9.0909e-002	0.	0.13389
11884	5.8323	5.7273	0.	0.12654
11885	5.7411	5.8182	0.	0.1576
11886	5.8323	5.8182	5.e-002	5.4182
11887	5.8323	5.9091	0.	0.14335
11888	5.8323	5.5455	0.	9.3473e-002
11889	5.7411	5.6364	0.	0.15328
11890	5.8323	5.6364	5.e-002	6.4772
11891	5.8323	5.3636	0.	4.4329e-002
11892	5.7411	5.4545	0.	4.9719e-002
11893	5.8323	5.4545	5.e-002	6.5725
11894	5.8323	5.1818	0.	3.6112e-002
11895	5.7411	5.2727	0.	4.5102e-002
11896	5.8323	5.2727	5.e-002	6.5933
11897	5.8323	5.	0.	2.6101e-002
11898	5.7411	5.0909	0.	3.0943e-002
11899	5.8323	5.0909	5.e-002	6.6012
11900	5.8323	4.8182	0.	1.9419e-002
11901	5.7411	4.9091	0.	2.3427e-002
11902	5.8323	4.9091	5.e-002	6.6003
11903	5.8323	4.6364	0.	1.3602e-002
11904	5.7411	4.7273	0.	1.6627e-002
11905	5.8323	4.7273	5.e-002	6.5916
11906	5.8323	4.4545	0.	8.6875e-003
11907	5.7411	4.5455	0.	1.111e-002
11908	5.8323	4.5455	5.e-002	6.5764
11909	5.8323	4.2727	0.	4.4009e-003
11910	5.7411	4.3636	0.	6.3155e-003
11911	5.8323	4.3636	5.e-002	6.5559
11912	5.8323	4.0909	0.	6.8944e-004
11913	5.7411	4.1818	0.	2.1841e-003
11914	5.8323	4.1818	5.e-002	6.5318
11915	5.8323	3.9091	0.	-2.4819e-003
11916	5.7411	4.	0.	-1.3628e-003
11917	5.8323	4.	5.e-002	6.5062
11918	5.8323	3.7273	0.	-5.111e-003
11919	5.7411	3.8182	0.	-4.3415e-003
11920	5.8323	3.8182	5.e-002	6.4807
11921	5.8323	3.5455	0.	-7.1827e-003
11922	5.7411	3.6364	0.	-6.7485e-003
11923	5.8323	3.6364	5.e-002	6.4575
11924	5.8323	3.3636	0.	-8.6796e-003
11925	5.7411	3.4545	0.	-8.5709e-003
11926	5.8323	3.4545	5.e-002	6.4384
11927	5.8323	3.1818	0.	-9.586e-003
11928	5.7411	3.2727	0.	-9.7968e-003
11929	5.8323	3.2727	5.e-002	6.4247
11930	5.8323	3.	0.	-9.8895e-003
11931	5.7411	3.0909	0.	-1.0413e-002
11932	5.8323	3.0909	5.e-002	6.4176
11933	5.8323	2.8182	0.	-9.5858e-003
11934	5.7411	2.9091	0.	-1.0413e-002
11935	5.8323	2.9091	5.e-002	6.4176
11936	5.8323	2.6364	0.	-8.6794e-003
11937	5.7411	2.7273	0.	-9.7967e-003
11938	5.8323	2.7273	5.e-002	6.4247
11939	5.8323	2.4545	0.	-7.1823e-003
11940	5.7411	2.5455	0.	-8.5707e-003
11941	5.8323	2.5455	5.e-002	6.4384
11942	5.8323	2.2727	0.	-5.1105e-003
11943	5.7411	2.3636	0.	-6.7482e-003
11944	5.8323	2.3636	5.e-002	6.4576
11945	5.8323	2.0909	0.	-2.4816e-003
11946	5.7411	2.1818	0.	-4.3411e-003
11947	5.8323	2.1818	5.e-002	6.4808
11948	5.8323	1.9091	0.	6.8989e-004
11949	5.7411	2.	0.	-1.3624e-003
11950	5.8323	2.	5.e-002	6.5062
11951	5.8323	1.7273	0.	4.4015e-003
11952	5.7411	1.8182	0.	2.1847e-003
11953	5.8323	1.8182	5.e-002	6.532
11954	5.8323	1.5455	0.	8.6882e-003
11955	5.7411	1.6364	0.	6.3161e-003
11956	5.8323	1.6364	5.e-002	6.556
11957	5.8323	1.3636	0.	1.3602e-002
11958	5.7411	1.4545	0.	1.111e-002
11959	5.8323	1.4545	5.e-002	6.5765
11960	5.8323	1.1818	0.	1.942e-002
11961	5.7411	1.2727	0.	1.6628e-002
11962	5.8323	1.2727	5.e-002	6.5917
11963	5.8323	1.	0.	2.6102e-002
11964	5.7411	1.0909	0.	2.3428e-002
11965	5.8323	1.0909	5.e-002	6.6004
11966	5.8323	0.81818	0.	3.6113e-002
11967	5.7411	0.90909	0.	3.0944e-002
11968	5.8323	0.90909	5.e-002	6.6013
11969	5.8323	0.63636	0.	4.433e-002
11970	5.7411	0.72727	0.	4.5103e-002
11971	5.8323	0.72727	5.e-002	6.5935
11972	5.8323	0.45455	0.	9.3474e-002
11973	5.7411	0.54545	0.	4.9719e-002
11974	5.8323	0.54545	5.e-002	6.5728
11975	5.8323	0.27273	0.	0.12654
11976	5.7411	0.36364	0.	0.15328
11977	5.8323	0.36364	5.e-002	6.4773
11978	5.7411	0.18182	0.	0.1576
11979	5.8323	0.18182	5.e-002	5.4183
11980	5.8323	9.0909e-002	0.	0.14335
11981	5.65	5.7273	0.	0.14093
11982	5.5589	5.8182	0.	0.17585
11983	5.65	5.8182	5.e-002	5.8306
11984	5.65	5.9091	0.	0.15362
11985	5.65	5.5455	0.	0.10311
11986	5.5589	5.6364	0.	0.16947
11987	5.65	5.6364	5.e-002	6.5905
11988	5.65	5.3636	0.	4.8198e-002
11989	5.5589	5.4545	0.	5.4393e-002
11990	5.65	5.4545	5.e-002	6.6675
11991	5.65	5.1818	0.	3.8848e-002
11992	5.5589	5.2727	0.	4.8938e-002
11993	5.65	5.2727	5.e-002	6.6881
11994	5.65	5.	0.	2.765e-002
11995	5.5589	5.0909	0.	3.3122e-002
11996	5.65	5.0909	5.e-002	6.6974
11997	5.65	4.8182	0.	2.0235e-002
11998	5.5589	4.9091	0.	2.4753e-002
11999	5.65	4.9091	5.e-002	6.6983
12000	5.65	4.6364	0.	1.3852e-002
12001	5.5589	4.7273	0.	1.7255e-002
12002	5.65	4.7273	5.e-002	6.6918
12003	5.65	4.4545	0.	8.5231e-003
12004	5.5589	4.5455	0.	1.1234e-002
12005	5.65	4.5455	5.e-002	6.679
12006	5.65	4.2727	0.	3.9262e-003
12007	5.5589	4.3636	0.	6.0547e-003
12008	5.65	4.3636	5.e-002	6.6611
12009	5.65	4.0909	0.	-1.3258e-005
12010	5.5589	4.1818	0.	1.6353e-003
12011	5.65	4.1818	5.e-002	6.6397
12012	5.65	3.9091	0.	-3.3493e-003
12013	5.5589	4.	0.	-2.1258e-003
12014	5.65	4.	5.e-002	6.6167
12015	5.65	3.7273	0.	-6.0936e-003
12016	5.5589	3.8182	0.	-5.2601e-003
12017	5.65	3.8182	5.e-002	6.5938
12018	5.65	3.5455	0.	-8.2432e-003
12019	5.5589	3.6364	0.	-7.7768e-003
12020	5.65	3.6364	5.e-002	6.5729
12021	5.65	3.3636	0.	-9.7894e-003
12022	5.5589	3.4545	0.	-9.6729e-003
12023	5.65	3.4545	5.e-002	6.5555
12024	5.65	3.1818	0.	-1.0723e-002
12025	5.5589	3.2727	0.	-1.0944e-002
12026	5.65	3.2727	5.e-002	6.5432
12027	5.65	3.	0.	-1.1035e-002
12028	5.5589	3.0909	0.	-1.1582e-002
12029	5.65	3.0909	5.e-002	6.5367
12030	5.65	2.8182	0.	-1.0723e-002
12031	5.5589	2.9091	0.	-1.1582e-002
12032	5.65	2.9091	5.e-002	6.5367
12033	5.65	2.6364	0.	-9.7892e-003
12034	5.5589	2.7273	0.	-1.0944e-002
12035	5.65	2.7273	5.e-002	6.5432
12036	5.65	2.4545	0.	-8.243e-003
12037	5.5589	2.5455	0.	-9.6727e-003
12038	5.65	2.5455	5.e-002	6.5556
12039	5.65	2.2727	0.	-6.0933e-003
12040	5.5589	2.3636	0.	-7.7766e-003
12041	5.65	2.3636	5.e-002	6.5729
12042	5.65	2.0909	0.	-3.3488e-003
12043	5.5589	2.1818	0.	-5.2596e-003
12044	5.65	2.1818	5.e-002	6.5939
12045	5.65	1.9091	0.	-1.2754e-005
12046	5.5589	2.	0.	-2.1254e-003
12047	5.65	2.	5.e-002	6.6168
12048	5.65	1.7273	0.	3.9268e-003
12049	5.5589	1.8182	0.	1.6358e-003
12050	5.65	1.8182	5.e-002	6.6398
12051	5.65	1.5455	0.	8.5237e-003
12052	5.5589	1.6364	0.	6.0553e-003
12053	5.65	1.6364	5.e-002	6.6611
12054	5.65	1.3636	0.	1.3853e-002
12055	5.5589	1.4545	0.	1.1234e-002
12056	5.65	1.4545	5.e-002	6.6791
12057	5.65	1.1818	0.	2.0236e-002
12058	5.5589	1.2727	0.	1.7255e-002
12059	5.65	1.2727	5.e-002	6.6919
12060	5.65	1.	0.	2.7651e-002
12061	5.5589	1.0909	0.	2.4754e-002
12062	5.65	1.0909	5.e-002	6.6984
12063	5.65	0.81818	0.	3.8849e-002
12064	5.5589	0.90909	0.	3.3123e-002
12065	5.65	0.90909	5.e-002	6.6975
12066	5.65	0.63636	0.	4.8199e-002
12067	5.5589	0.72727	0.	4.8939e-002
12068	5.65	0.72727	5.e-002	6.6883
12069	5.65	0.45455	0.	0.10311
12070	5.5589	0.54545	0.	5.4393e-002
12071	5.65	0.54545	5.e-002	6.6677
12072	5.65	0.27273	0.	0.14093
12073	5.5589	0.36364	0.	0.16947
12074	5.65	0.36364	5.e-002	6.5907
12075	5.5589	0.18182	0.	0.17585
12076	5.65	0.18182	5.e-002	5.8307
12077	5.65	9.0909e-002	0.	0.15362
12078	5.4677	5.7273	0.	0.15676
12079	5.3766	5.8182	0.	0.19679
12080	5.4677	5.8182	5.e-002	6.2851
12081	5.4677	5.9091	0.	0.1648
12082	5.4677	5.5455	0.	0.11358
12083	5.3766	5.6364	0.	0.18691
12084	5.4677	5.6364	5.e-002	6.7203
12085	5.4677	5.3636	0.	5.2566e-002
12086	5.3766	5.4545	0.	5.9632e-002
12087	5.4677	5.4545	5.e-002	6.7771
12088	5.4677	5.1818	0.	4.1999e-002
12089	5.3766	5.2727	0.	5.3255e-002
12090	5.4677	5.2727	5.e-002	6.7972
12091	5.4677	5.	0.	2.9535e-002
12092	5.3766	5.0909	0.	3.5671e-002
12093	5.4677	5.0909	5.e-002	6.8074
12094	5.4677	4.8182	0.	2.1328e-002
12095	5.3766	4.9091	0.	2.6381e-002
12096	5.4677	4.9091	5.e-002	6.8094
12097	5.4677	4.6364	0.	1.4324e-002
12098	5.3766	4.7273	0.	1.8124e-002
12099	5.4677	4.7273	5.e-002	6.8042
12100	5.4677	4.4545	0.	8.5293e-003
12101	5.3766	4.5455	0.	1.1545e-002
12102	5.4677	4.5455	5.e-002	6.7928
12103	5.4677	4.2727	0.	3.5752e-003
12104	5.3766	4.3636	0.	5.9318e-003
12105	5.4677	4.3636	5.e-002	6.7764
12106	5.4677	4.0909	0.	-6.3487e-004
12107	5.3766	4.1818	0.	1.1799e-003
12108	5.4677	4.1818	5.e-002	6.7566
12109	5.4677	3.9091	0.	-4.1736e-003
12110	5.3766	4.	0.	-2.835e-003
12111	5.4677	4.	5.e-002	6.7351
12112	5.4677	3.7273	0.	-7.0662e-003
12113	5.3766	3.8182	0.	-6.1592e-003
12114	5.4677	3.8182	5.e-002	6.7137
12115	5.4677	3.5455	0.	-9.32e-003
12116	5.3766	3.6364	0.	-8.8139e-003
12117	5.4677	3.6364	5.e-002	6.6941
12118	5.4677	3.3636	0.	-1.0935e-002
12119	5.3766	3.4545	0.	-1.0806e-002
12120	5.4677	3.4545	5.e-002	6.6779
12121	5.4677	3.1818	0.	-1.1907e-002
12122	5.3766	3.2727	0.	-1.2136e-002
12123	5.4677	3.2727	5.e-002	6.6662
12124	5.4677	3.	0.	-1.2232e-002
12125	5.3766	3.0909	0.	-1.2803e-002
12126	5.4677	3.0909	5.e-002	6.6601
12127	5.4677	2.8182	0.	-1.1907e-002
12128	5.3766	2.9091	0.	-1.2803e-002
12129	5.4677	2.9091	5.e-002	6.6602
12130	5.4677	2.6364	0.	-1.0935e-002
12131	5.3766	2.7273	0.	-1.2136e-002
12132	5.4677	2.7273	5.e-002	6.6662
12133	5.4677	2.4545	0.	-9.3197e-003
12134	5.3766	2.5455	0.	-1.0805e-002
12135	5.4677	2.5455	5.e-002	6.6779
12136	5.4677	2.2727	0.	-7.0658e-003
12137	5.3766	2.3636	0.	-8.8137e-003
12138	5.4677	2.3636	5.e-002	6.6942
12139	5.4677	2.0909	0.	-4.1731e-003
12140	5.3766	2.1818	0.	-6.1587e-003
12141	5.4677	2.1818	5.e-002	6.7138
12142	5.4677	1.9091	0.	-6.344e-004
12143	5.3766	2.	0.	-2.8346e-003
12144	5.4677	2.	5.e-002	6.7352
12145	5.4677	1.7273	0.	3.5759e-003
12146	5.3766	1.8182	0.	1.1804e-003
12147	5.4677	1.8182	5.e-002	6.7567
12148	5.4677	1.5455	0.	8.53e-003
12149	5.3766	1.6364	0.	5.9324e-003
12150	5.4677	1.6364	5.e-002	6.7765
12151	5.4677	1.3636	0.	1.4324e-002
12152	5.3766	1.4545	0.	1.1546e-002
12153	5.4677	1.4545	5.e-002	6.7928
12154	5.4677	1.1818	0.	2.1329e-002
12155	5.3766	1.2727	0.	1.8124e-002
12156	5.4677	1.2727	5.e-002	6.8043
12157	5.4677	1.	0.	2.9535e-002
12158	5.3766	1.0909	0.	2.6382e-002
12159	5.4677	1.0909	5.e-002	6.8096
12160	5.4677	0.81818	0.	4.2e-002
12161	5.3766	0.90909	0.	3.5673e-002
12162	5.4677	0.90909	5.e-002	6.8075
12163	5.4677	0.63636	0.	5.2567e-002
12164	5.3766	0.72727	0.	5.3256e-002
12165	5.4677	0.72727	5.e-002	6.7974
12166	5.4677	0.45455	0.	0.11358
12167	5.3766	0.54545	0.	5.9632e-002
12168	5.4677	0.54545	5.e-002	6.7773
12169	5.4677	0.27273	0.	0.15676
12170	5.3766	0.36364	0.	0.18692
12171	5.4677	0.36364	5.e-002	6.7205
12172	5.3766	0.18182	0.	0.19679
12173	5.4677	0.18182	5.e-002	6.2853
12174	5.4677	9.0909e-002	0.	0.1648
12175	5.2855	5.7273	0.	0.17427
12176	5.1944	5.8182	0.	0.22095
12177	5.2855	5.8182	5.e-002	6.7826
12178	5.2855	5.9091	0.	0.17697
12179	5.2855	5.5455	0.	0.12497
12180	5.1944	5.6364	0.	0.20579
12181	5.2855	5.6364	5.e-002	6.8665
12182	5.2855	5.3636	0.	5.7457e-002
12183	5.1944	5.4545	0.	6.5479e-002
12184	5.2855	5.4545	5.e-002	6.9015
12185	5.2855	5.1818	0.	4.5575e-002
12186	5.1944	5.2727	0.	5.8078e-002
12187	5.2855	5.2727	5.e-002	6.9208
12188	5.2855	5.	0.	3.175e-002
12189	5.1944	5.0909	0.	3.8598e-002
12190	5.2855	5.0909	5.e-002	6.9315
12191	5.2855	4.8182	0.	2.2684e-002
12192	5.1944	4.9091	0.	2.831e-002
12193	5.2855	4.9091	5.e-002	6.9343
12194	5.2855	4.6364	0.	1.4999e-002
12195	5.1944	4.7273	0.	1.9224e-002
12196	5.2855	4.7273	5.e-002	6.9296
12197	5.2855	4.4545	0.	8.6877e-003
12198	5.1944	4.5455	0.	1.2032e-002
12199	5.2855	4.5455	5.e-002	6.9187
12200	5.2855	4.2727	0.	3.3299e-003
12201	5.1944	4.3636	0.	5.9343e-003
12202	5.2855	4.3636	5.e-002	6.9029
12203	5.2855	4.0909	0.	-1.1921e-003
12204	5.1944	4.1818	0.	8.0617e-004
12205	5.2855	4.1818	5.e-002	6.8838
12206	5.2855	3.9091	0.	-4.9691e-003
12207	5.1944	4.	0.	-3.5003e-003
12208	5.2855	4.	5.e-002	6.8629
12209	5.2855	3.7273	0.	-8.0397e-003
12210	5.1944	3.8182	0.	-7.0459e-003
12211	5.2855	3.8182	5.e-002	6.842
12212	5.2855	3.5455	0.	-1.0422e-002
12213	5.1944	3.6364	0.	-9.8645e-003
12214	5.2855	3.6364	5.e-002	6.8229
12215	5.2855	3.3636	0.	-1.2122e-002
12216	5.1944	3.4545	0.	-1.1971e-002
12217	5.2855	3.4545	5.e-002	6.8071
12218	5.2855	3.1818	0.	-1.3144e-002
12219	5.1944	3.2727	0.	-1.3374e-002
12220	5.2855	3.2727	5.e-002	6.7958
12221	5.2855	3.	0.	-1.3484e-002
12222	5.1944	3.0909	0.	-1.4076e-002
12223	5.2855	3.0909	5.e-002	6.7899
12224	5.2855	2.8182	0.	-1.3143e-002
12225	5.1944	2.9091	0.	-1.4076e-002
12226	5.2855	2.9091	5.e-002	6.7899
12227	5.2855	2.6364	0.	-1.2122e-002
12228	5.1944	2.7273	0.	-1.3374e-002
12229	5.2855	2.7273	5.e-002	6.7958
12230	5.2855	2.4545	0.	-1.0421e-002
12231	5.1944	2.5455	0.	-1.1971e-002
12232	5.2855	2.5455	5.e-002	6.8072
12233	5.2855	2.2727	0.	-8.0394e-003
12234	5.1944	2.3636	0.	-9.8642e-003
12235	5.2855	2.3636	5.e-002	6.823
12236	5.2855	2.0909	0.	-4.9687e-003
12237	5.1944	2.1818	0.	-7.0455e-003
12238	5.2855	2.1818	5.e-002	6.8421
12239	5.2855	1.9091	0.	-1.1917e-003
12240	5.1944	2.	0.	-3.4998e-003
12241	5.2855	2.	5.e-002	6.8629
12242	5.2855	1.7273	0.	3.3304e-003
12243	5.1944	1.8182	0.	8.0661e-004
12244	5.2855	1.8182	5.e-002	6.8838
12245	5.2855	1.5455	0.	8.6883e-003
12246	5.1944	1.6364	0.	5.935e-003
12247	5.2855	1.6364	5.e-002	6.903
12248	5.2855	1.3636	0.	1.5e-002
12249	5.1944	1.4545	0.	1.2032e-002
12250	5.2855	1.4545	5.e-002	6.9188
12251	5.2855	1.1818	0.	2.2685e-002
12252	5.1944	1.2727	0.	1.9225e-002
12253	5.2855	1.2727	5.e-002	6.9297
12254	5.2855	1.	0.	3.1751e-002
12255	5.1944	1.0909	0.	2.831e-002
12256	5.2855	1.0909	5.e-002	6.9343
12257	5.2855	0.81818	0.	4.5576e-002
12258	5.1944	0.90909	0.	3.86e-002
12259	5.2855	0.90909	5.e-002	6.9317
12260	5.2855	0.63636	0.	5.7457e-002
12261	5.1944	0.72727	0.	5.8079e-002
12262	5.2855	0.72727	5.e-002	6.9209
12263	5.2855	0.45455	0.	0.12497
12264	5.1944	0.54545	0.	6.5479e-002
12265	5.2855	0.54545	5.e-002	6.9017
12266	5.2855	0.27273	0.	0.17427
12267	5.1944	0.36364	0.	0.2058
12268	5.2855	0.36364	5.e-002	6.8666
12269	5.1944	0.18182	0.	0.22096
12270	5.2855	0.18182	5.e-002	6.7828
12271	5.2855	9.0909e-002	0.	0.17697
12272	5.1032	5.7273	0.	0.19374
12273	5.0121	5.8182	0.	0.24903
12274	5.1032	5.8182	5.e-002	7.3241
12275	5.1032	5.9091	0.	0.19023
12276	5.1032	5.5455	0.	0.13739
12277	5.0121	5.6364	0.	0.2263
12278	5.1032	5.6364	5.e-002	7.0289
12279	5.1032	5.3636	0.	6.291e-002
12280	5.0121	5.4545	0.	7.1991e-002
12281	5.1032	5.4545	5.e-002	7.0409
12282	5.1032	5.1818	0.	4.9597e-002
12283	5.0121	5.2727	0.	6.3445e-002
12284	5.1032	5.2727	5.e-002	7.0593
12285	5.1032	5.	0.	3.4304e-002
12286	5.0121	5.0909	0.	4.1919e-002
12287	5.1032	5.0909	5.e-002	7.0704
12288	5.1032	4.8182	0.	2.4304e-002
12289	5.0121	4.9091	0.	3.0545e-002
12290	5.1032	4.9091	5.e-002	7.0733
12291	5.1032	4.6364	0.	1.5875e-002
12292	5.0121	4.7273	0.	2.0558e-002
12293	5.1032	4.7273	5.e-002	7.0688
12294	5.1032	4.4545	0.	8.9919e-003
12295	5.0121	4.5455	0.	1.2691e-002
12296	5.1032	4.5455	5.e-002	7.0579
12297	5.1032	4.2727	0.	3.1838e-003
12298	5.0121	4.3636	0.	6.0585e-003
12299	5.1032	4.3636	5.e-002	7.042
12300	5.1032	4.0909	0.	-1.6901e-003
12301	5.0121	4.1818	0.	5.111e-004
12302	5.1032	4.1818	5.e-002	7.0226
12303	5.1032	3.9091	0.	-5.7391e-003
12304	5.0121	4.	0.	-4.1229e-003
12305	5.1032	4.	5.e-002	7.0015
12306	5.1032	3.7273	0.	-9.0151e-003
12307	5.0121	3.8182	0.	-7.9193e-003
12308	5.1032	3.8182	5.e-002	6.9805
12309	5.1032	3.5455	0.	-1.1546e-002
12310	5.0121	3.6364	0.	-1.0925e-002
12311	5.1032	3.6364	5.e-002	6.9612
12312	5.1032	3.3636	0.	-1.3348e-002
12313	5.0121	3.4545	0.	-1.3163e-002
12314	5.1032	3.4545	5.e-002	6.9453
12315	5.1032	3.1818	0.	-1.4427e-002
12316	5.0121	3.2727	0.	-1.465e-002
12317	5.1032	3.2727	5.e-002	6.9339
12318	5.1032	3.	0.	-1.4787e-002
12319	5.0121	3.0909	0.	-1.5393e-002
12320	5.1032	3.0909	5.e-002	6.928
12321	5.1032	2.8182	0.	-1.4427e-002
12322	5.0121	2.9091	0.	-1.5393e-002
12323	5.1032	2.9091	5.e-002	6.9281
12324	5.1032	2.6364	0.	-1.3348e-002
12325	5.0121	2.7273	0.	-1.465e-002
12326	5.1032	2.7273	5.e-002	6.934
12327	5.1032	2.4545	0.	-1.1546e-002
12328	5.0121	2.5455	0.	-1.3163e-002
12329	5.1032	2.5455	5.e-002	6.9453
12330	5.1032	2.2727	0.	-9.0148e-003
12331	5.0121	2.3636	0.	-1.0924e-002
12332	5.1032	2.3636	5.e-002	6.9613
12333	5.1032	2.0909	0.	-5.7387e-003
12334	5.0121	2.1818	0.	-7.919e-003
12335	5.1032	2.1818	5.e-002	6.9806
12336	5.1032	1.9091	0.	-1.6896e-003
12337	5.0121	2.	0.	-4.1223e-003
12338	5.1032	2.	5.e-002	7.0015
12339	5.1032	1.7273	0.	3.1843e-003
12340	5.0121	1.8182	0.	5.1159e-004
12341	5.1032	1.8182	5.e-002	7.0226
12342	5.1032	1.5455	0.	8.9925e-003
12343	5.0121	1.6364	0.	6.0592e-003
12344	5.1032	1.6364	5.e-002	7.042
12345	5.1032	1.3636	0.	1.5875e-002
12346	5.0121	1.4545	0.	1.2692e-002
12347	5.1032	1.4545	5.e-002	7.058
12348	5.1032	1.1818	0.	2.4305e-002
12349	5.0121	1.2727	0.	2.0559e-002
12350	5.1032	1.2727	5.e-002	7.0689
12351	5.1032	1.	0.	3.4305e-002
12352	5.0121	1.0909	0.	3.0546e-002
12353	5.1032	1.0909	5.e-002	7.0735
12354	5.1032	0.81818	0.	4.9598e-002
12355	5.0121	0.90909	0.	4.1921e-002
12356	5.1032	0.90909	5.e-002	7.0706
12357	5.1032	0.63636	0.	6.291e-002
12358	5.0121	0.72727	0.	6.3445e-002
12359	5.1032	0.72727	5.e-002	7.0594
12360	5.1032	0.45455	0.	0.13739
12361	5.0121	0.54545	0.	7.1991e-002
12362	5.1032	0.54545	5.e-002	7.0411
12363	5.1032	0.27273	0.	0.19374
12364	5.0121	0.36364	0.	0.2263
12365	5.1032	0.36364	5.e-002	7.0291
12366	5.0121	0.18182	0.	0.24903
12367	5.1032	0.18182	5.e-002	7.3243
12368	5.1032	9.0909e-002	0.	0.19024
12369	4.921	5.7273	0.	0.21549
12370	4.8298	5.8182	0.	0.28182
12371	4.921	5.8182	5.e-002	7.9111
12372	4.921	5.9091	0.	0.20472
12373	4.921	5.5455	0.	0.15095
12374	4.8298	5.6364	0.	0.24863
12375	4.921	5.6364	5.e-002	7.2082
12376	4.921	5.3636	0.	6.8975e-002
12377	4.8298	5.4545	0.	7.9237e-002
12378	4.921	5.4545	5.e-002	7.1958
12379	4.921	5.1818	0.	5.4095e-002
12380	4.8298	5.2727	0.	6.9399e-002
12381	4.921	5.2727	5.e-002	7.2133
12382	4.921	5.	0.	3.7213e-002
12383	4.8298	5.0909	0.	4.5659e-002
12384	4.921	5.0909	5.e-002	7.2248
12385	4.921	4.8182	0.	2.6194e-002
12386	4.8298	4.9091	0.	3.3101e-002
12387	4.921	4.9091	5.e-002	7.2278
12388	4.921	4.6364	0.	1.6952e-002
12389	4.8298	4.7273	0.	2.2132e-002
12390	4.921	4.7273	5.e-002	7.223
12391	4.921	4.4545	0.	9.4417e-003
12392	4.8298	4.5455	0.	1.3526e-002
12393	4.921	4.5455	5.e-002	7.2116
12394	4.921	4.2727	0.	3.1362e-003
12395	4.8298	4.3636	0.	6.3057e-003
12396	4.921	4.3636	5.e-002	7.1949
12397	4.921	4.0909	0.	-2.1282e-003
12398	4.8298	4.1818	0.	2.9647e-004
12399	4.921	4.1818	5.e-002	7.1747
12400	4.921	3.9091	0.	-6.4806e-003
12401	4.8298	4.	0.	-4.6989e-003
12402	4.921	4.	5.e-002	7.1527
12403	4.921	3.7273	0.	-9.9867e-003
12404	4.8298	3.8182	0.	-8.773e-003
12405	4.921	3.8182	5.e-002	7.131
12406	4.921	3.5455	0.	-1.2686e-002
12407	4.8298	3.6364	0.	-1.1985e-002
12408	4.921	3.6364	5.e-002	7.1111
12409	4.921	3.3636	0.	-1.4601e-002
12410	4.8298	3.4545	0.	-1.4369e-002
12411	4.921	3.4545	5.e-002	7.0945
12412	4.921	3.1818	0.	-1.5747e-002
12413	4.8298	3.2727	0.	-1.595e-002
12414	4.921	3.2727	5.e-002	7.0828
12415	4.921	3.	0.	-1.6128e-002
12416	4.8298	3.0909	0.	-1.6738e-002
12417	4.921	3.0909	5.e-002	7.0767
12418	4.921	2.8182	0.	-1.5747e-002
12419	4.8298	2.9091	0.	-1.6738e-002
12420	4.921	2.9091	5.e-002	7.0767
12421	4.921	2.6364	0.	-1.4601e-002
12422	4.8298	2.7273	0.	-1.595e-002
12423	4.921	2.7273	5.e-002	7.0828
12424	4.921	2.4545	0.	-1.2686e-002
12425	4.8298	2.5455	0.	-1.4369e-002
12426	4.921	2.5455	5.e-002	7.0946
12427	4.921	2.2727	0.	-9.9864e-003
12428	4.8298	2.3636	0.	-1.1985e-002
12429	4.921	2.3636	5.e-002	7.1111
12430	4.921	2.0909	0.	-6.4801e-003
12431	4.8298	2.1818	0.	-8.7726e-003
12432	4.921	2.1818	5.e-002	7.131
12433	4.921	1.9091	0.	-2.1276e-003
12434	4.8298	2.	0.	-4.6985e-003
12435	4.921	2.	5.e-002	7.1529
12436	4.921	1.7273	0.	3.1368e-003
12437	4.8298	1.8182	0.	2.9691e-004
12438	4.921	1.8182	5.e-002	7.1748
12439	4.921	1.5455	0.	9.4423e-003
12440	4.8298	1.6364	0.	6.3062e-003
12441	4.921	1.6364	5.e-002	7.195
12442	4.921	1.3636	0.	1.6953e-002
12443	4.8298	1.4545	0.	1.3526e-002
12444	4.921	1.4545	5.e-002	7.2116
12445	4.921	1.1818	0.	2.6195e-002
12446	4.8298	1.2727	0.	2.2132e-002
12447	4.921	1.2727	5.e-002	7.2232
12448	4.921	1.	0.	3.7214e-002
12449	4.8298	1.0909	0.	3.3102e-002
12450	4.921	1.0909	5.e-002	7.2279
12451	4.921	0.81818	0.	5.4096e-002
12452	4.8298	0.90909	0.	4.5661e-002
12453	4.921	0.90909	5.e-002	7.2248
12454	4.921	0.63636	0.	6.8975e-002
12455	4.8298	0.72727	0.	6.94e-002
12456	4.921	0.72727	5.e-002	7.2134
12457	4.921	0.45455	0.	0.15095
12458	4.8298	0.54545	0.	7.9237e-002
12459	4.921	0.54545	5.e-002	7.196
12460	4.921	0.27273	0.	0.21549
12461	4.8298	0.36364	0.	0.24864
12462	4.921	0.36364	5.e-002	7.2083
12463	4.8298	0.18182	0.	0.28182
12464	4.921	0.18182	5.e-002	7.9113
12465	4.921	9.0909e-002	0.	0.20472
12466	4.7387	5.7273	0.	0.23989
12467	4.6476	5.8182	0.	0.32034
12468	4.7387	5.8182	5.e-002	8.5454
12469	4.7387	5.9091	0.	0.22057
12470	4.7387	5.5455	0.	0.16581
12471	4.6476	5.6364	0.	0.27304
12472	4.7387	5.6364	5.e-002	7.4045
12473	4.7387	5.3636	0.	7.5711e-002
12474	4.6476	5.4545	0.	8.7297e-002
12475	4.7387	5.4545	5.e-002	7.3668
12476	4.7387	5.1818	0.	5.9106e-002
12477	4.6476	5.2727	0.	7.5995e-002
12478	4.7387	5.2727	5.e-002	7.3837
12479	4.7387	5.	0.	4.0497e-002
12480	4.6476	5.0909	0.	4.9848e-002
12481	4.7387	5.0909	5.e-002	7.3957
12482	4.7387	4.8182	0.	2.8368e-002
12483	4.6476	4.9091	0.	3.5995e-002
12484	4.7387	4.9091	5.e-002	7.3988
12485	4.7387	4.6364	0.	1.8238e-002
12486	4.6476	4.7273	0.	2.3954e-002
12487	4.7387	4.7273	5.e-002	7.3936
12488	4.7387	4.4545	0.	1.0041e-002
12489	4.6476	4.5455	0.	1.4541e-002
12490	4.7387	4.5455	5.e-002	7.3813
12491	4.7387	4.2727	0.	3.1907e-003
12492	4.6476	4.3636	0.	6.6801e-003
12493	4.7387	4.3636	5.e-002	7.3635
12494	4.7387	4.0909	0.	-2.5016e-003
12495	4.6476	4.1818	0.	1.6725e-004
12496	4.7387	4.1818	5.e-002	7.342
12497	4.7387	3.9091	0.	-7.1864e-003
12498	4.6476	4.	0.	-5.2213e-003
12499	4.7387	4.	5.e-002	7.3187
12500	4.7387	3.7273	0.	-1.0944e-002
12501	4.6476	3.8182	0.	-9.5964e-003
12502	4.7387	3.8182	5.e-002	7.2956
12503	4.7387	3.5455	0.	-1.3827e-002
12504	4.6476	3.6364	0.	-1.3032e-002
12505	4.7387	3.6364	5.e-002	7.2745
12506	4.7387	3.3636	0.	-1.5867e-002
12507	4.6476	3.4545	0.	-1.5573e-002
12508	4.7387	3.4545	5.e-002	7.2571
12509	4.7387	3.1818	0.	-1.7084e-002
12510	4.6476	3.2727	0.	-1.7254e-002
12511	4.7387	3.2727	5.e-002	7.2447
12512	4.7387	3.	0.	-1.7489e-002
12513	4.6476	3.0909	0.	-1.809e-002
12514	4.7387	3.0909	5.e-002	7.2383
12515	4.7387	2.8182	0.	-1.7084e-002
12516	4.6476	2.9091	0.	-1.809e-002
12517	4.7387	2.9091	5.e-002	7.2383
12518	4.7387	2.6364	0.	-1.5867e-002
12519	4.6476	2.7273	0.	-1.7254e-002
12520	4.7387	2.7273	5.e-002	7.2447
12521	4.7387	2.4545	0.	-1.3827e-002
12522	4.6476	2.5455	0.	-1.5573e-002
12523	4.7387	2.5455	5.e-002	7.2571
12524	4.7387	2.2727	0.	-1.0944e-002
12525	4.6476	2.3636	0.	-1.3032e-002
12526	4.7387	2.3636	5.e-002	7.2746
12527	4.7387	2.0909	0.	-7.1861e-003
12528	4.6476	2.1818	0.	-9.5961e-003
12529	4.7387	2.1818	5.e-002	7.2956
12530	4.7387	1.9091	0.	-2.5013e-003
12531	4.6476	2.	0.	-5.2209e-003
12532	4.7387	2.	5.e-002	7.3188
12533	4.7387	1.7273	0.	3.1911e-003
12534	4.6476	1.8182	0.	1.6767e-004
12535	4.7387	1.8182	5.e-002	7.342
12536	4.7387	1.5455	0.	1.0041e-002
12537	4.6476	1.6364	0.	6.6805e-003
12538	4.7387	1.6364	5.e-002	7.3635
12539	4.7387	1.3636	0.	1.8238e-002
12540	4.6476	1.4545	0.	1.4542e-002
12541	4.7387	1.4545	5.e-002	7.3814
12542	4.7387	1.1818	0.	2.8369e-002
12543	4.6476	1.2727	0.	2.3954e-002
12544	4.7387	1.2727	5.e-002	7.3937
12545	4.7387	1.	0.	4.0498e-002
12546	4.6476	1.0909	0.	3.5996e-002
12547	4.7387	1.0909	5.e-002	7.3989
12548	4.7387	0.81818	0.	5.9107e-002
12549	4.6476	0.90909	0.	4.9849e-002
12550	4.7387	0.90909	5.e-002	7.3959
12551	4.7387	0.63636	0.	7.5711e-002
12552	4.6476	0.72727	0.	7.5996e-002
12553	4.7387	0.72727	5.e-002	7.3838
12554	4.7387	0.45455	0.	0.16581
12555	4.6476	0.54545	0.	8.7297e-002
12556	4.7387	0.54545	5.e-002	7.367
12557	4.7387	0.27273	0.	0.23989
12558	4.6476	0.36364	0.	0.27304
12559	4.7387	0.36364	5.e-002	7.4046
12560	4.6476	0.18182	0.	0.32034
12561	4.7387	0.18182	5.e-002	8.5455
12562	4.7387	9.0909e-002	0.	0.22057
12563	4.5565	5.7273	0.	0.26737
12564	4.4653	5.8182	0.	0.36584
12565	4.5565	5.8182	5.e-002	9.2285
12566	4.5565	5.9091	0.	0.23794
12567	4.5565	5.5455	0.	0.18209
12568	4.4653	5.6364	0.	0.29976
12569	4.5565	5.6364	5.e-002	7.6186
12570	4.5565	5.3636	0.	8.3184e-002
12571	4.4653	5.4545	0.	9.6263e-002
12572	4.5565	5.4545	5.e-002	7.5549
12573	4.5565	5.1818	0.	6.4674e-002
12574	4.4653	5.2727	0.	8.3294e-002
12575	4.5565	5.2727	5.e-002	7.5715
12576	4.5565	5.	0.	4.4181e-002
12577	4.4653	5.0909	0.	5.452e-002
12578	4.5565	5.0909	5.e-002	7.5844
12579	4.5565	4.8182	0.	3.0838e-002
12580	4.4653	4.9091	0.	3.925e-002
12581	4.5565	4.9091	5.e-002	7.5878
12582	4.5565	4.6364	0.	1.974e-002
12583	4.4653	4.7273	0.	2.6038e-002
12584	4.5565	4.7273	5.e-002	7.5822
12585	4.5565	4.4545	0.	1.0795e-002
12586	4.4653	4.5455	0.	1.5747e-002
12587	4.5565	4.5455	5.e-002	7.5688
12588	4.5565	4.2727	0.	3.3525e-003
12589	4.4653	4.3636	0.	7.1893e-003
12590	4.5565	4.3636	5.e-002	7.5495
12591	4.5565	4.0909	0.	-2.8032e-003
12592	4.4653	4.1818	0.	1.3289e-004
12593	4.5565	4.1818	5.e-002	7.5264
12594	4.5565	3.9091	0.	-7.8462e-003
12595	4.4653	4.	0.	-5.6773e-003
12596	4.5565	4.	5.e-002	7.5013
12597	4.5565	3.7273	0.	-1.1874e-002
12598	4.4653	3.8182	0.	-1.0373e-002
12599	4.5565	3.8182	5.e-002	7.4766
12600	4.5565	3.5455	0.	-1.4952e-002
12601	4.4653	3.6364	0.	-1.4043e-002
12602	4.5565	3.6364	5.e-002	7.454
12603	4.5565	3.3636	0.	-1.7124e-002
12604	4.4653	3.4545	0.	-1.675e-002
12605	4.5565	3.4545	5.e-002	7.4353
12606	4.5565	3.1818	0.	-1.8417e-002
12607	4.4653	3.2727	0.	-1.8534e-002
12608	4.5565	3.2727	5.e-002	7.4221
12609	4.5565	3.	0.	-1.8847e-002
12610	4.4653	3.0909	0.	-1.942e-002
12611	4.5565	3.0909	5.e-002	7.4152
12612	4.5565	2.8182	0.	-1.8417e-002
12613	4.4653	2.9091	0.	-1.942e-002
12614	4.5565	2.9091	5.e-002	7.4153
12615	4.5565	2.6364	0.	-1.7124e-002
12616	4.4653	2.7273	0.	-1.8534e-002
12617	4.5565	2.7273	5.e-002	7.4221
12618	4.5565	2.4545	0.	-1.4952e-002
12619	4.4653	2.5455	0.	-1.6749e-002
12620	4.5565	2.5455	5.e-002	7.4354
12621	4.5565	2.2727	0.	-1.1874e-002
12622	4.4653	2.3636	0.	-1.4043e-002
12623	4.5565	2.3636	5.e-002	7.454
12624	4.5565	2.0909	0.	-7.8458e-003
12625	4.4653	2.1818	0.	-1.0372e-002
12626	4.5565	2.1818	5.e-002	7.4766
12627	4.5565	1.9091	0.	-2.8027e-003
12628	4.4653	2.	0.	-5.6768e-003
12629	4.5565	2.	5.e-002	7.5015
12630	4.5565	1.7273	0.	3.353e-003
12631	4.4653	1.8182	0.	1.3337e-004
12632	4.5565	1.8182	5.e-002	7.5265
12633	4.5565	1.5455	0.	1.0795e-002
12634	4.4653	1.6364	0.	7.1898e-003
12635	4.5565	1.6364	5.e-002	7.5497
12636	4.5565	1.3636	0.	1.9741e-002
12637	4.4653	1.4545	0.	1.5747e-002
12638	4.5565	1.4545	5.e-002	7.5689
12639	4.5565	1.1818	0.	3.0839e-002
12640	4.4653	1.2727	0.	2.6039e-002
12641	4.5565	1.2727	5.e-002	7.5822
12642	4.5565	1.	0.	4.4182e-002
12643	4.4653	1.0909	0.	3.9251e-002
12644	4.5565	1.0909	5.e-002	7.5879
12645	4.5565	0.81818	0.	6.4674e-002
12646	4.4653	0.90909	0.	5.4522e-002
12647	4.5565	0.90909	5.e-002	7.5846
12648	4.5565	0.63636	0.	8.3184e-002
12649	4.4653	0.72727	0.	8.3294e-002
12650	4.5565	0.72727	5.e-002	7.5717
12651	4.5565	0.45455	0.	0.18209
12652	4.4653	0.54545	0.	9.6264e-002
12653	4.5565	0.54545	5.e-002	7.5551
12654	4.5565	0.27273	0.	0.26738
12655	4.4653	0.36364	0.	0.29977
12656	4.5565	0.36364	5.e-002	7.6187
12657	4.4653	0.18182	0.	0.36584
12658	4.5565	0.18182	5.e-002	9.2287
12659	4.5565	9.0909e-002	0.	0.23794
12660	4.3742	5.7273	0.	0.29847
12661	4.2831	5.8182	0.	0.41989
12662	4.3742	5.8182	5.e-002	9.9625
12663	4.3742	5.9091	0.	0.25705
12664	4.3742	5.5455	0.	0.19999
12665	4.2831	5.6364	0.	0.32911
12666	4.3742	5.6364	5.e-002	7.851
12667	4.3742	5.3636	0.	9.1475e-002
12668	4.2831	5.4545	0.	0.10624
12669	4.3742	5.4545	5.e-002	7.7611
12670	4.3742	5.1818	0.	7.0848e-002
12671	4.2831	5.2727	0.	9.1365e-002
12672	4.3742	5.2727	5.e-002	7.7781
12673	4.3742	5.	0.	4.8296e-002
12674	4.2831	5.0909	0.	5.9718e-002
12675	4.3742	5.0909	5.e-002	7.7926
12676	4.3742	4.8182	0.	3.3626e-002
12677	4.2831	4.9091	0.	4.2891e-002
12678	4.3742	4.9091	5.e-002	7.7965
12679	4.3742	4.6364	0.	2.1472e-002
12680	4.2831	4.7273	0.	2.8401e-002
12681	4.3742	4.7273	5.e-002	7.7906
12682	4.3742	4.4545	0.	1.1714e-002
12683	4.2831	4.5455	0.	1.7153e-002
12684	4.3742	4.5455	5.e-002	7.7762
12685	4.3742	4.2727	0.	3.6333e-003
12686	4.2831	4.3636	0.	7.8446e-003
12687	4.3742	4.3636	5.e-002	7.7554
12688	4.3742	4.0909	0.	-3.0184e-003
12689	4.2831	4.1818	0.	2.071e-004
12690	4.3742	4.1818	5.e-002	7.7303
12691	4.3742	3.9091	0.	-8.441e-003
12692	4.2831	4.	0.	-6.0485e-003
12693	4.3742	4.	5.e-002	7.7032
12694	4.3742	3.7273	0.	-1.2752e-002
12695	4.2831	3.8182	0.	-1.1077e-002
12696	4.3742	3.8182	5.e-002	7.6765
12697	4.3742	3.5455	0.	-1.6033e-002
12698	4.2831	3.6364	0.	-1.499e-002
12699	4.3742	3.6364	5.e-002	7.6522
12700	4.3742	3.3636	0.	-1.834e-002
12701	4.2831	3.4545	0.	-1.7863e-002
12702	4.3742	3.4545	5.e-002	7.6322
12703	4.3742	3.1818	0.	-1.971e-002
12704	4.2831	3.2727	0.	-1.9751e-002
12705	4.3742	3.2727	5.e-002	7.618
12706	4.3742	3.	0.	-2.0165e-002
12707	4.2831	3.0909	0.	-2.0687e-002
12708	4.3742	3.0909	5.e-002	7.6106
12709	4.3742	2.8182	0.	-1.971e-002
12710	4.2831	2.9091	0.	-2.0687e-002
12711	4.3742	2.9091	5.e-002	7.6106
12712	4.3742	2.6364	0.	-1.834e-002
12713	4.2831	2.7273	0.	-1.9751e-002
12714	4.3742	2.7273	5.e-002	7.618
12715	4.3742	2.4545	0.	-1.6033e-002
12716	4.2831	2.5455	0.	-1.7863e-002
12717	4.3742	2.5455	5.e-002	7.6322
12718	4.3742	2.2727	0.	-1.2752e-002
12719	4.2831	2.3636	0.	-1.499e-002
12720	4.3742	2.3636	5.e-002	7.6522
12721	4.3742	2.0909	0.	-8.4406e-003
12722	4.2831	2.1818	0.	-1.1077e-002
12723	4.3742	2.1818	5.e-002	7.6765
12724	4.3742	1.9091	0.	-3.0179e-003
12725	4.2831	2.	0.	-6.0481e-003
12726	4.3742	2.	5.e-002	7.7033
12727	4.3742	1.7273	0.	3.6338e-003
12728	4.2831	1.8182	0.	2.0757e-004
12729	4.3742	1.8182	5.e-002	7.7303
12730	4.3742	1.5455	0.	1.1715e-002
12731	4.2831	1.6364	0.	7.8452e-003
12732	4.3742	1.6364	5.e-002	7.7555
12733	4.3742	1.3636	0.	2.1472e-002
12734	4.2831	1.4545	0.	1.7154e-002
12735	4.3742	1.4545	5.e-002	7.7763
12736	4.3742	1.1818	0.	3.3627e-002
12737	4.2831	1.2727	0.	2.8401e-002
12738	4.3742	1.2727	5.e-002	7.7906
12739	4.3742	1.	0.	4.8297e-002
12740	4.2831	1.0909	0.	4.2891e-002
12741	4.3742	1.0909	5.e-002	7.7966
12742	4.3742	0.81818	0.	7.0849e-002
12743	4.2831	0.90909	0.	5.9719e-002
12744	4.3742	0.90909	5.e-002	7.7927
12745	4.3742	0.63636	0.	9.1475e-002
12746	4.2831	0.72727	0.	9.1366e-002
12747	4.3742	0.72727	5.e-002	7.7783
12748	4.3742	0.45455	0.	0.19999
12749	4.2831	0.54545	0.	0.10624
12750	4.3742	0.54545	5.e-002	7.7611
12751	4.3742	0.27273	0.	0.29847
12752	4.2831	0.36364	0.	0.32911
12753	4.3742	0.36364	5.e-002	7.8512
12754	4.2831	0.18182	0.	0.4199
12755	4.3742	0.18182	5.e-002	9.9626
12756	4.3742	9.0909e-002	0.	0.25705
12757	4.1919	5.7273	0.	0.33379
12758	4.1008	5.8182	0.	0.48453
12759	4.1919	5.8182	5.e-002	10.749
12760	4.1919	5.9091	0.	0.27812
12761	4.1919	5.5455	0.	0.21969
12762	4.1008	5.6364	0.	0.36142
12763	4.1919	5.6364	5.e-002	8.1027
12764	4.1919	5.3636	0.	0.10067
12765	4.1008	5.4545	0.	0.11736
12766	4.1919	5.4545	5.e-002	7.9865
12767	4.1919	5.1818	0.	7.7687e-002
12768	4.1008	5.2727	0.	0.10029
12769	4.1919	5.2727	5.e-002	8.0051
12770	4.1919	5.	0.	5.2877e-002
12771	4.1008	5.0909	0.	6.5489e-002
12772	4.1919	5.0909	5.e-002	8.0219
12773	4.1919	4.8182	0.	3.6752e-002
12774	4.1008	4.9091	0.	4.6947e-002
12775	4.1919	4.9091	5.e-002	8.027
12776	4.1919	4.6364	0.	2.3447e-002
12777	4.1008	4.7273	0.	3.106e-002
12778	4.1919	4.7273	5.e-002	8.0211
12779	4.1919	4.4545	0.	1.2811e-002
12780	4.1008	4.5455	0.	1.8776e-002
12781	4.1919	4.5455	5.e-002	8.0059
12782	4.1919	4.2727	0.	4.0459e-003
12783	4.1008	4.3636	0.	8.6604e-003
12784	4.1919	4.3636	5.e-002	7.9835
12785	4.1919	4.0909	0.	-3.1298e-003
12786	4.1008	4.1818	0.	4.0848e-004
12787	4.1919	4.1818	5.e-002	7.9564
12788	4.1919	3.9091	0.	-8.9474e-003
12789	4.1008	4.	0.	-6.3098e-003
12790	4.1919	4.	5.e-002	7.9272
12791	4.1919	3.7273	0.	-1.3548e-002
12792	4.1008	3.8182	0.	-1.1678e-002
12793	4.1919	3.8182	5.e-002	7.8984
12794	4.1919	3.5455	0.	-1.7032e-002
12795	4.1008	3.6364	0.	-1.5832e-002
12796	4.1919	3.6364	5.e-002	7.8722
12797	4.1919	3.3636	0.	-1.9473e-002
12798	4.1008	3.4545	0.	-1.8866e-002
12799	4.1919	3.4545	5.e-002	7.8507
12800	4.1919	3.1818	0.	-2.0919e-002
12801	4.1008	3.2727	0.	-2.0853e-002
12802	4.1919	3.2727	5.e-002	7.8355
12803	4.1919	3.	0.	-2.1398e-002
12804	4.1008	3.0909	0.	-2.1836e-002
12805	4.1919	3.0909	5.e-002	7.8276
12806	4.1919	2.8182	0.	-2.0919e-002
12807	4.1008	2.9091	0.	-2.1836e-002
12808	4.1919	2.9091	5.e-002	7.8276
12809	4.1919	2.6364	0.	-1.9473e-002
12810	4.1008	2.7273	0.	-2.0853e-002
12811	4.1919	2.7273	5.e-002	7.8355
12812	4.1919	2.4545	0.	-1.7032e-002
12813	4.1008	2.5455	0.	-1.8866e-002
12814	4.1919	2.5455	5.e-002	7.8508
12815	4.1919	2.2727	0.	-1.3548e-002
12816	4.1008	2.3636	0.	-1.5831e-002
12817	4.1919	2.3636	5.e-002	7.8723
12818	4.1919	2.0909	0.	-8.947e-003
12819	4.1008	2.1818	0.	-1.1678e-002
12820	4.1919	2.1818	5.e-002	7.8984
12821	4.1919	1.9091	0.	-3.1294e-003
12822	4.1008	2.	0.	-6.3095e-003
12823	4.1919	2.	5.e-002	7.9272
12824	4.1919	1.7273	0.	4.0464e-003
12825	4.1008	1.8182	0.	4.0893e-004
12826	4.1919	1.8182	5.e-002	7.9565
12827	4.1919	1.5455	0.	1.2811e-002
12828	4.1008	1.6364	0.	8.6612e-003
12829	4.1919	1.6364	5.e-002	7.9835
12830	4.1919	1.3636	0.	2.3447e-002
12831	4.1008	1.4545	0.	1.8776e-002
12832	4.1919	1.4545	5.e-002	8.0059
12833	4.1919	1.1818	0.	3.6752e-002
12834	4.1008	1.2727	0.	3.1061e-002
12835	4.1919	1.2727	5.e-002	8.0212
12836	4.1919	1.	0.	5.2878e-002
12837	4.1008	1.0909	0.	4.6947e-002
12838	4.1919	1.0909	5.e-002	8.0271
12839	4.1919	0.81818	0.	7.7687e-002
12840	4.1008	0.90909	0.	6.549e-002
12841	4.1919	0.90909	5.e-002	8.022
12842	4.1919	0.63636	0.	0.10067
12843	4.1008	0.72727	0.	0.10029
12844	4.1919	0.72727	5.e-002	8.0052
12845	4.1919	0.45455	0.	0.21969
12846	4.1008	0.54545	0.	0.11736
12847	4.1919	0.54545	5.e-002	7.9866
12848	4.1919	0.27273	0.	0.33379
12849	4.1008	0.36364	0.	0.36142
12850	4.1919	0.36364	5.e-002	8.1028
12851	4.1008	0.18182	0.	0.48453
12852	4.1919	0.18182	5.e-002	10.749
12853	4.1919	9.0909e-002	0.	0.27813
12854	4.0097	5.7273	0.	0.37409
12855	3.9185	5.8182	0.	0.56235
12856	4.0097	5.8182	5.e-002	11.59
12857	4.0097	5.9091	0.	0.30148
12858	4.0097	5.5455	0.	0.24142
12859	3.9185	5.6364	0.	0.39707
12860	4.0097	5.6364	5.e-002	8.3742
12861	4.0097	5.3636	0.	0.11088
12862	3.9185	5.4545	0.	0.12977
12863	4.0097	5.4545	5.e-002	8.2327
12864	4.0097	5.1818	0.	8.5255e-002
12865	3.9185	5.2727	0.	0.11016
12866	4.0097	5.2727	5.e-002	8.2542
12867	4.0097	5.	0.	5.7963e-002
12868	3.9185	5.0909	0.	7.1884e-002
12869	4.0097	5.0909	5.e-002	8.2744
12870	4.0097	4.8182	0.	4.024e-002
12871	3.9185	4.9091	0.	5.145e-002
12872	4.0097	4.9091	5.e-002	8.2815
12873	4.0097	4.6364	0.	2.5683e-002
12874	3.9185	4.7273	0.	3.4035e-002
12875	4.0097	4.7273	5.e-002	8.2763
12876	4.0097	4.4545	0.	1.41e-002
12877	3.9185	4.5455	0.	2.0629e-002
12878	4.0097	4.5455	5.e-002	8.2605
12879	4.0097	4.2727	0.	4.6098e-003
12880	3.9185	4.3636	0.	9.6546e-003
12881	4.0097	4.3636	5.e-002	8.2367
12882	4.0097	4.0909	0.	-3.1116e-003
12883	3.9185	4.1818	0.	7.6107e-004
12884	4.0097	4.1818	5.e-002	8.2077
12885	4.0097	3.9091	0.	-9.3312e-003
12886	3.9185	4.	0.	-6.428e-003
12887	4.0097	4.	5.e-002	8.1765
12888	4.0097	3.7273	0.	-1.4219e-002
12889	3.9185	3.8182	0.	-1.2131e-002
12890	4.0097	3.8182	5.e-002	8.1456
12891	4.0097	3.5455	0.	-1.79e-002
12892	3.9185	3.6364	0.	-1.6513e-002
12893	4.0097	3.6364	5.e-002	8.1177
12894	4.0097	3.3636	0.	-2.0466e-002
12895	3.9185	3.4545	0.	-1.9697e-002
12896	4.0097	3.4545	5.e-002	8.0948
12897	4.0097	3.1818	0.	-2.1981e-002
12898	3.9185	3.2727	0.	-2.1771e-002
12899	4.0097	3.2727	5.e-002	8.0787
12900	4.0097	3.	0.	-2.2482e-002
12901	3.9185	3.0909	0.	-2.2795e-002
12902	4.0097	3.0909	5.e-002	8.0703
12903	4.0097	2.8182	0.	-2.1981e-002
12904	3.9185	2.9091	0.	-2.2794e-002
12905	4.0097	2.9091	5.e-002	8.0703
12906	4.0097	2.6364	0.	-2.0466e-002
12907	3.9185	2.7273	0.	-2.1771e-002
12908	4.0097	2.7273	5.e-002	8.0786
12909	4.0097	2.4545	0.	-1.7899e-002
12910	3.9185	2.5455	0.	-1.9696e-002
12911	4.0097	2.5455	5.e-002	8.0949
12912	4.0097	2.2727	0.	-1.4218e-002
12913	3.9185	2.3636	0.	-1.6513e-002
12914	4.0097	2.3636	5.e-002	8.1177
12915	4.0097	2.0909	0.	-9.3309e-003
12916	3.9185	2.1818	0.	-1.2131e-002
12917	4.0097	2.1818	5.e-002	8.1457
12918	4.0097	1.9091	0.	-3.1112e-003
12919	3.9185	2.	0.	-6.4276e-003
12920	4.0097	2.	5.e-002	8.1765
12921	4.0097	1.7273	0.	4.6104e-003
12922	3.9185	1.8182	0.	7.6151e-004
12923	4.0097	1.8182	5.e-002	8.2078
12924	4.0097	1.5455	0.	1.4101e-002
12925	3.9185	1.6364	0.	9.6553e-003
12926	4.0097	1.6364	5.e-002	8.2368
12927	4.0097	1.3636	0.	2.5684e-002
12928	3.9185	1.4545	0.	2.063e-002
12929	4.0097	1.4545	5.e-002	8.2606
12930	4.0097	1.1818	0.	4.0241e-002
12931	3.9185	1.2727	0.	3.4036e-002
12932	4.0097	1.2727	5.e-002	8.2763
12933	4.0097	1.	0.	5.7964e-002
12934	3.9185	1.0909	0.	5.145e-002
12935	4.0097	1.0909	5.e-002	8.2817
12936	4.0097	0.81818	0.	8.5256e-002
12937	3.9185	0.90909	0.	7.1885e-002
12938	4.0097	0.90909	5.e-002	8.2745
12939	4.0097	0.63636	0.	0.11088
12940	3.9185	0.72727	0.	0.11016
12941	4.0097	0.72727	5.e-002	8.2543
12942	4.0097	0.45455	0.	0.24142
12943	3.9185	0.54545	0.	0.12977
12944	4.0097	0.54545	5.e-002	8.2328
12945	4.0097	0.27273	0.	0.37409
12946	3.9185	0.36364	0.	0.39707
12947	4.0097	0.36364	5.e-002	8.3744
12948	3.9185	0.18182	0.	0.56235
12949	4.0097	0.18182	5.e-002	11.59
12950	4.0097	9.0909e-002	0.	0.30148
12951	3.8274	5.7273	0.	0.42026
12952	3.7363	5.8182	0.	0.6568
12953	3.8274	5.8182	5.e-002	12.486
12954	3.8274	5.9091	0.	0.3275
12955	3.8274	5.5455	0.	0.26543
12956	3.7363	5.6364	0.	0.43653
12957	3.8274	5.6364	5.e-002	8.6667
12958	3.8274	5.3636	0.	0.12222
12959	3.7363	5.4545	0.	0.14362
12960	3.8274	5.4545	5.e-002	8.5014
12961	3.8274	5.1818	0.	9.3626e-002
12962	3.7363	5.2727	0.	0.12107
12963	3.8274	5.2727	5.e-002	8.5277
12964	3.8274	5.	0.	6.3595e-002
12965	3.7363	5.0909	0.	7.8961e-002
12966	3.8274	5.0909	5.e-002	8.5529
12967	3.8274	4.8182	0.	4.4116e-002
12968	3.7363	4.9091	0.	5.6432e-002
12969	3.8274	4.9091	5.e-002	8.5632
12970	3.8274	4.6364	0.	2.8197e-002
12971	3.7363	4.7273	0.	3.7347e-002
12972	3.8274	4.7273	5.e-002	8.5592
12973	3.8274	4.4545	0.	1.5599e-002
12974	3.7363	4.5455	0.	2.273e-002
12975	3.8274	4.5455	5.e-002	8.5433
12976	3.8274	4.2727	0.	5.3467e-003
12977	3.7363	4.3636	0.	1.0848e-002
12978	3.8274	4.3636	5.e-002	8.5185
12979	3.8274	4.0909	0.	-2.9329e-003
12980	3.7363	4.1818	0.	1.2957e-003
12981	3.8274	4.1818	5.e-002	8.488
12982	3.8274	3.9091	0.	-9.55e-003
12983	3.7363	4.	0.	-6.3592e-003
12984	3.8274	4.	5.e-002	8.4548
12985	3.8274	3.7273	0.	-1.471e-002
12986	3.7363	3.8182	0.	-1.2378e-002
12987	3.8274	3.8182	5.e-002	8.4222
12988	3.8274	3.5455	0.	-1.857e-002
12989	3.7363	3.6364	0.	-1.6965e-002
12990	3.8274	3.6364	5.e-002	8.3928
12991	3.8274	3.3636	0.	-2.1245e-002
12992	3.7363	3.4545	0.	-2.0272e-002
12993	3.8274	3.4545	5.e-002	8.3688
12994	3.8274	3.1818	0.	-2.2818e-002
12995	3.7363	3.2727	0.	-2.2416e-002
12996	3.8274	3.2727	5.e-002	8.3518
12997	3.8274	3.	0.	-2.3337e-002
12998	3.7363	3.0909	0.	-2.3469e-002
12999	3.8274	3.0909	5.e-002	8.3431
13000	3.8274	2.8182	0.	-2.2818e-002
13001	3.7363	2.9091	0.	-2.3469e-002
13002	3.8274	2.9091	5.e-002	8.3431
13003	3.8274	2.6364	0.	-2.1245e-002
13004	3.7363	2.7273	0.	-2.2416e-002
13005	3.8274	2.7273	5.e-002	8.3518
13006	3.8274	2.4545	0.	-1.8569e-002
13007	3.7363	2.5455	0.	-2.0272e-002
13008	3.8274	2.5455	5.e-002	8.3688
13009	3.8274	2.2727	0.	-1.471e-002
13010	3.7363	2.3636	0.	-1.6965e-002
13011	3.8274	2.3636	5.e-002	8.3928
13012	3.8274	2.0909	0.	-9.5497e-003
13013	3.7363	2.1818	0.	-1.2378e-002
13014	3.8274	2.1818	5.e-002	8.4223
13015	3.8274	1.9091	0.	-2.9324e-003
13016	3.7363	2.	0.	-6.3588e-003
13017	3.8274	2.	5.e-002	8.4549
13018	3.8274	1.7273	0.	5.3472e-003
13019	3.7363	1.8182	0.	1.2962e-003
13020	3.8274	1.8182	5.e-002	8.488
13021	3.8274	1.5455	0.	1.56e-002
13022	3.7363	1.6364	0.	1.0849e-002
13023	3.8274	1.6364	5.e-002	8.5186
13024	3.8274	1.3636	0.	2.8197e-002
13025	3.7363	1.4545	0.	2.2731e-002
13026	3.8274	1.4545	5.e-002	8.5435
13027	3.8274	1.1818	0.	4.4117e-002
13028	3.7363	1.2727	0.	3.7348e-002
13029	3.8274	1.2727	5.e-002	8.5593
13030	3.8274	1.	0.	6.3596e-002
13031	3.7363	1.0909	0.	5.6433e-002
13032	3.8274	1.0909	5.e-002	8.5633
13033	3.8274	0.81818	0.	9.3627e-002
13034	3.7363	0.90909	0.	7.8963e-002
13035	3.8274	0.90909	5.e-002	8.553
13036	3.8274	0.63636	0.	0.12222
13037	3.7363	0.72727	0.	0.12107
13038	3.8274	0.72727	5.e-002	8.5278
13039	3.8274	0.45455	0.	0.26543
13040	3.7363	0.54545	0.	0.14362
13041	3.8274	0.54545	5.e-002	8.5015
13042	3.8274	0.27273	0.	0.42026
13043	3.7363	0.36364	0.	0.43653
13044	3.8274	0.36364	5.e-002	8.6669
13045	3.7363	0.18182	0.	0.6568
13046	3.8274	0.18182	5.e-002	12.486
13047	3.8274	9.0909e-002	0.	0.3275
13048	3.6452	5.7273	0.	0.47344
13049	3.554	5.8182	0.	0.77247
13050	3.6452	5.8182	5.e-002	13.439
13051	3.6452	5.9091	0.	0.3567
13052	3.6452	5.5455	0.	0.29202
13053	3.554	5.6364	0.	0.48033
13054	3.6452	5.6364	5.e-002	8.9812
13055	3.6452	5.3636	0.	0.13483
13056	3.554	5.4545	0.	0.15912
13057	3.6452	5.4545	5.e-002	8.7948
13058	3.6452	5.1818	0.	0.10288
13059	3.554	5.2727	0.	0.13315
13060	3.6452	5.2727	5.e-002	8.8283
13061	3.6452	5.	0.	6.9819e-002
13062	3.554	5.0909	0.	8.6782e-002
13063	3.6452	5.0909	5.e-002	8.8604
13064	3.6452	4.8182	0.	4.8406e-002
13065	3.554	4.9091	0.	6.1928e-002
13066	3.6452	4.9091	5.e-002	8.8751
13067	3.6452	4.6364	0.	3.1007e-002
13068	3.554	4.7273	0.	4.1015e-002
13069	3.6452	4.7273	5.e-002	8.8735
13070	3.6452	4.4545	0.	1.7329e-002
13071	3.554	4.5455	0.	2.5097e-002
13072	3.6452	4.5455	5.e-002	8.8582
13073	3.6452	4.2727	0.	6.2861e-003
13074	3.554	4.3636	0.	1.2267e-002
13075	3.6452	4.3636	5.e-002	8.8328
13076	3.6452	4.0909	0.	-2.5504e-003
13077	3.554	4.1818	0.	2.0519e-003
13078	3.6452	4.1818	5.e-002	8.8011
13079	3.6452	3.9091	0.	-9.5453e-003
13080	3.554	4.	0.	-6.0467e-003
13081	3.6452	4.	5.e-002	8.7666
13082	3.6452	3.7273	0.	-1.4948e-002
13083	3.554	3.8182	0.	-1.2345e-002
13084	3.6452	3.8182	5.e-002	8.7327
13085	3.6452	3.5455	0.	-1.8955e-002
13086	3.554	3.6364	0.	-1.7095e-002
13087	3.6452	3.6364	5.e-002	8.7023
13088	3.6452	3.3636	0.	-2.1712e-002
13089	3.554	3.4545	0.	-2.0488e-002
13090	3.6452	3.4545	5.e-002	8.6776
13091	3.6452	3.1818	0.	-2.3324e-002
13092	3.554	3.2727	0.	-2.2671e-002
13093	3.6452	3.2727	5.e-002	8.6603
13094	3.6452	3.	0.	-2.3855e-002
13095	3.554	3.0909	0.	-2.3739e-002
13096	3.6452	3.0909	5.e-002	8.6513
13097	3.6452	2.8182	0.	-2.3324e-002
13098	3.554	2.9091	0.	-2.3739e-002
13099	3.6452	2.9091	5.e-002	8.6514
13100	3.6452	2.6364	0.	-2.1711e-002
13101	3.554	2.7273	0.	-2.2671e-002
13102	3.6452	2.7273	5.e-002	8.6603
13103	3.6452	2.4545	0.	-1.8954e-002
13104	3.554	2.5455	0.	-2.0488e-002
13105	3.6452	2.5455	5.e-002	8.6777
13106	3.6452	2.2727	0.	-1.4948e-002
13107	3.554	2.3636	0.	-1.7094e-002
13108	3.6452	2.3636	5.e-002	8.7024
13109	3.6452	2.0909	0.	-9.545e-003
13110	3.554	2.1818	0.	-1.2345e-002
13111	3.6452	2.1818	5.e-002	8.7328
13112	3.6452	1.9091	0.	-2.55e-003
13113	3.554	2.	0.	-6.0464e-003
13114	3.6452	2.	5.e-002	8.7667
13115	3.6452	1.7273	0.	6.2866e-003
13116	3.554	1.8182	0.	2.0523e-003
13117	3.6452	1.8182	5.e-002	8.8011
13118	3.6452	1.5455	0.	1.7329e-002
13119	3.554	1.6364	0.	1.2267e-002
13120	3.6452	1.6364	5.e-002	8.833
13121	3.6452	1.3636	0.	3.1008e-002
13122	3.554	1.4545	0.	2.5098e-002
13123	3.6452	1.4545	5.e-002	8.8583
13124	3.6452	1.1818	0.	4.8407e-002
13125	3.554	1.2727	0.	4.1015e-002
13126	3.6452	1.2727	5.e-002	8.8735
13127	3.6452	1.	0.	6.982e-002
13128	3.554	1.0909	0.	6.1928e-002
13129	3.6452	1.0909	5.e-002	8.8752
13130	3.6452	0.81818	0.	0.10288
13131	3.554	0.90909	0.	8.6783e-002
13132	3.6452	0.90909	5.e-002	8.8605
13133	3.6452	0.63636	0.	0.13483
13134	3.554	0.72727	0.	0.13315
13135	3.6452	0.72727	5.e-002	8.8284
13136	3.6452	0.45455	0.	0.29202
13137	3.554	0.54545	0.	0.15912
13138	3.6452	0.54545	5.e-002	8.7949
13139	3.6452	0.27273	0.	0.47344
13140	3.554	0.36364	0.	0.48033
13141	3.6452	0.36364	5.e-002	8.9814
13142	3.554	0.18182	0.	0.77247
13143	3.6452	0.18182	5.e-002	13.439
13144	3.6452	9.0909e-002	0.	0.3567
13145	3.4629	5.7273	0.	0.53499
13146	3.3718	5.8182	0.	0.9156
13147	3.4629	5.8182	5.e-002	14.449
13148	3.4629	5.9091	0.	0.38977
13149	3.4629	5.5455	0.	0.32154
13150	3.3718	5.6364	0.	0.52911
13151	3.4629	5.6364	5.e-002	9.3191
13152	3.4629	5.3636	0.	0.14885
13153	3.3718	5.4545	0.	0.17649
13154	3.4629	5.4545	5.e-002	9.1157
13155	3.4629	5.1818	0.	0.1131
13156	3.3718	5.2727	0.	0.14652
13157	3.4629	5.2727	5.e-002	9.1594
13158	3.4629	5.	0.	7.6679e-002
13159	3.3718	5.0909	0.	9.541e-002
13160	3.4629	5.0909	5.e-002	9.2007
13161	3.4629	4.8182	0.	5.3133e-002
13162	3.3718	4.9091	0.	6.7968e-002
13163	3.4629	4.9091	5.e-002	9.2215
13164	3.4629	4.6364	0.	3.413e-002
13165	3.3718	4.7273	0.	4.5055e-002
13166	3.4629	4.7273	5.e-002	9.2233
13167	3.4629	4.4545	0.	1.9309e-002
13168	3.3718	4.5455	0.	2.7749e-002
13169	3.4629	4.5455	5.e-002	9.2094
13170	3.4629	4.2727	0.	7.4625e-003
13171	3.3718	4.3636	0.	1.3941e-002
13172	3.4629	4.3636	5.e-002	9.1842
13173	3.4629	4.0909	0.	-1.9118e-003
13174	3.3718	4.1818	0.	3.0806e-003
13175	3.4629	4.1818	5.e-002	9.1519
13176	3.4629	3.9091	0.	-9.2443e-003
13177	3.3718	4.	0.	-5.4164e-003
13178	3.4629	4.	5.e-002	9.1169
13179	3.4629	3.7273	0.	-1.4841e-002
13180	3.3718	3.8182	0.	-1.1934e-002
13181	3.4629	3.8182	5.e-002	9.0826
13182	3.4629	3.5455	0.	-1.8946e-002
13183	3.3718	3.6364	0.	-1.6784e-002
13184	3.4629	3.6364	5.e-002	9.052
13185	3.4629	3.3636	0.	-2.1744e-002
13186	3.3718	3.4545	0.	-2.0209e-002
13187	3.4629	3.4545	5.e-002	9.0274
13188	3.4629	3.1818	0.	-2.337e-002
13189	3.3718	3.2727	0.	-2.2392e-002
13190	3.4629	3.2727	5.e-002	9.0102
13191	3.4629	3.	0.	-2.3903e-002
13192	3.3718	3.0909	0.	-2.3453e-002
13193	3.4629	3.0909	5.e-002	9.0014
13194	3.4629	2.8182	0.	-2.337e-002
13195	3.3718	2.9091	0.	-2.3453e-002
13196	3.4629	2.9091	5.e-002	9.0014
13197	3.4629	2.6364	0.	-2.1744e-002
13198	3.3718	2.7273	0.	-2.2391e-002
13199	3.4629	2.7273	5.e-002	9.0102
13200	3.4629	2.4545	0.	-1.8945e-002
13201	3.3718	2.5455	0.	-2.0209e-002
13202	3.4629	2.5455	5.e-002	9.0274
13203	3.4629	2.2727	0.	-1.4841e-002
13204	3.3718	2.3636	0.	-1.6784e-002
13205	3.4629	2.3636	5.e-002	9.0521
13206	3.4629	2.0909	0.	-9.244e-003
13207	3.3718	2.1818	0.	-1.1934e-002
13208	3.4629	2.1818	5.e-002	9.0826
13209	3.4629	1.9091	0.	-1.9115e-003
13210	3.3718	2.	0.	-5.4161e-003
13211	3.4629	2.	5.e-002	9.1169
13212	3.4629	1.7273	0.	7.463e-003
13213	3.3718	1.8182	0.	3.0811e-003
13214	3.4629	1.8182	5.e-002	9.152
13215	3.4629	1.5455	0.	1.931e-002
13216	3.3718	1.6364	0.	1.3942e-002
13217	3.4629	1.6364	5.e-002	9.1843
13218	3.4629	1.3636	0.	3.413e-002
13219	3.3718	1.4545	0.	2.7749e-002
13220	3.4629	1.4545	5.e-002	9.2095
13221	3.4629	1.1818	0.	5.3133e-002
13222	3.3718	1.2727	0.	4.5056e-002
13223	3.4629	1.2727	5.e-002	9.2234
13224	3.4629	1.	0.	7.668e-002
13225	3.3718	1.0909	0.	6.7968e-002
13226	3.4629	1.0909	5.e-002	9.2216
13227	3.4629	0.81818	0.	0.1131
13228	3.3718	0.90909	0.	9.5411e-002
13229	3.4629	0.90909	5.e-002	9.2007
13230	3.4629	0.63636	0.	0.14885
13231	3.3718	0.72727	0.	0.14652
13232	3.4629	0.72727	5.e-002	9.1595
13233	3.4629	0.45455	0.	0.32154
13234	3.3718	0.54545	0.	0.17649
13235	3.4629	0.54545	5.e-002	9.1158
13236	3.4629	0.27273	0.	0.53499
13237	3.3718	0.36364	0.	0.52911
13238	3.4629	0.36364	5.e-002	9.3192
13239	3.3718	0.18182	0.	0.9156
13240	3.4629	0.18182	5.e-002	14.449
13241	3.4629	9.0909e-002	0.	0.38977
13242	3.2806	5.7273	0.	0.60665
13243	3.1895	5.8182	0.	1.0949
13244	3.2806	5.8182	5.e-002	15.516
13245	3.2806	5.9091	0.	0.42769
13246	3.2806	5.5455	0.	0.3544
13247	3.1895	5.6364	0.	0.58363
13248	3.2806	5.6364	5.e-002	9.6822
13249	3.2806	5.3636	0.	0.16447
13250	3.1895	5.4545	0.	0.196
13251	3.2806	5.4545	5.e-002	9.4677
13252	3.2806	5.1818	0.	0.12439
13253	3.1895	5.2727	0.	0.16132
13254	3.2806	5.2727	5.e-002	9.5254
13255	3.2806	5.	0.	8.4222e-002
13256	3.1895	5.0909	0.	0.10491
13257	3.2806	5.0909	5.e-002	9.5787
13258	3.2806	4.8182	0.	5.832e-002
13259	3.1895	4.9091	0.	7.4581e-002
13260	3.2806	4.9091	5.e-002	9.6075
13261	3.2806	4.6364	0.	3.7583e-002
13262	3.1895	4.7273	0.	4.9483e-002
13263	3.2806	4.7273	5.e-002	9.6138
13264	3.2806	4.4545	0.	2.1569e-002
13265	3.1895	4.5455	0.	3.0705e-002
13266	3.2806	4.5455	5.e-002	9.6022
13267	3.2806	4.2727	0.	8.9227e-003
13268	3.1895	4.3636	0.	1.5911e-002
13269	3.2806	4.3636	5.e-002	9.5778
13270	3.2806	4.0909	0.	-9.4518e-004
13271	3.1895	4.1818	0.	4.4485e-003
13272	3.2806	4.1818	5.e-002	9.546
13273	3.2806	3.9091	0.	-8.5489e-003
13274	3.1895	4.	0.	-4.3719e-003
13275	3.2806	4.	5.e-002	9.5113
13276	3.2806	3.7273	0.	-1.4266e-002
13277	3.1895	3.8182	0.	-1.1021e-002
13278	3.2806	3.8182	5.e-002	9.4778
13279	3.2806	3.5455	0.	-1.8399e-002
13280	3.1895	3.6364	0.	-1.5885e-002
13281	3.2806	3.6364	5.e-002	9.4484
13282	3.2806	3.3636	0.	-2.1184e-002
13283	3.1895	3.4545	0.	-1.9267e-002
13284	3.2806	3.4545	5.e-002	9.425
13285	3.2806	3.1818	0.	-2.2788e-002
13286	3.1895	3.2727	0.	-2.1396e-002
13287	3.2806	3.2727	5.e-002	9.4088
13288	3.2806	3.	0.	-2.3311e-002
13289	3.1895	3.0909	0.	-2.2423e-002
13290	3.2806	3.0909	5.e-002	9.4005
13291	3.2806	2.8182	0.	-2.2788e-002
13292	3.1895	2.9091	0.	-2.2423e-002
13293	3.2806	2.9091	5.e-002	9.4005
13294	3.2806	2.6364	0.	-2.1184e-002
13295	3.1895	2.7273	0.	-2.1396e-002
13296	3.2806	2.7273	5.e-002	9.4088
13297	3.2806	2.4545	0.	-1.8399e-002
13298	3.1895	2.5455	0.	-1.9267e-002
13299	3.2806	2.5455	5.e-002	9.425
13300	3.2806	2.2727	0.	-1.4266e-002
13301	3.1895	2.3636	0.	-1.5885e-002
13302	3.2806	2.3636	5.e-002	9.4484
13303	3.2806	2.0909	0.	-8.5486e-003
13304	3.1895	2.1818	0.	-1.102e-002
13305	3.2806	2.1818	5.e-002	9.4779
13306	3.2806	1.9091	0.	-9.4475e-004
13307	3.1895	2.	0.	-4.3715e-003
13308	3.2806	2.	5.e-002	9.5114
13309	3.2806	1.7273	0.	8.9231e-003
13310	3.1895	1.8182	0.	4.4489e-003
13311	3.2806	1.8182	5.e-002	9.546
13312	3.2806	1.5455	0.	2.1569e-002
13313	3.1895	1.6364	0.	1.5911e-002
13314	3.2806	1.6364	5.e-002	9.5779
13315	3.2806	1.3636	0.	3.7584e-002
13316	3.1895	1.4545	0.	3.0705e-002
13317	3.2806	1.4545	5.e-002	9.6022
13318	3.2806	1.1818	0.	5.832e-002
13319	3.1895	1.2727	0.	4.9484e-002
13320	3.2806	1.2727	5.e-002	9.6139
13321	3.2806	1.	0.	8.4223e-002
13322	3.1895	1.0909	0.	7.4582e-002
13323	3.2806	1.0909	5.e-002	9.6076
13324	3.2806	0.81818	0.	0.1244
13325	3.1895	0.90909	0.	0.10491
13326	3.2806	0.90909	5.e-002	9.5787
13327	3.2806	0.63636	0.	0.16447
13328	3.1895	0.72727	0.	0.16132
13329	3.2806	0.72727	5.e-002	9.5255
13330	3.2806	0.45455	0.	0.3544
13331	3.1895	0.54545	0.	0.196
13332	3.2806	0.54545	5.e-002	9.4678
13333	3.2806	0.27273	0.	0.60665
13334	3.1895	0.36364	0.	0.58363
13335	3.2806	0.36364	5.e-002	9.6823
13336	3.1895	0.18182	0.	1.0949
13337	3.2806	0.18182	5.e-002	15.516
13338	3.2806	9.0909e-002	0.	0.42769
13339	3.0984	5.7273	0.	0.6906
13340	3.0073	5.8182	0.	1.3227
13341	3.0984	5.8182	5.e-002	16.638
13342	3.0984	5.9091	0.	0.47189
13343	3.0984	5.5455	0.	0.39107
13344	3.0073	5.6364	0.	0.64481
13345	3.0984	5.6364	5.e-002	10.073
13346	3.0984	5.3636	0.	0.18189
13347	3.0073	5.4545	0.	0.21795
13348	3.0984	5.4545	5.e-002	9.8556
13349	3.0984	5.1818	0.	0.13685
13350	3.0073	5.2727	0.	0.17772
13351	3.0984	5.2727	5.e-002	9.9322
13352	3.0984	5.	0.	9.249e-002
13353	3.0073	5.0909	0.	0.11536
13354	3.0984	5.0909	5.e-002	10.001
13355	3.0984	4.8182	0.	6.3981e-002
13356	3.0073	4.9091	0.	8.1794e-002
13357	3.0984	4.9091	5.e-002	10.039
13358	3.0984	4.6364	0.	4.138e-002
13359	3.0073	4.7273	0.	5.4313e-002
13360	3.0984	4.7273	5.e-002	10.051
13361	3.0984	4.4545	0.	2.4137e-002
13362	3.0073	4.5455	0.	3.3993e-002
13363	3.0984	4.5455	5.e-002	10.043
13364	3.0984	4.2727	0.	1.0724e-002
13365	3.0073	4.3636	0.	1.8232e-002
13366	3.0984	4.3636	5.e-002	10.02
13367	3.0984	4.0909	0.	4.3986e-004
13368	3.0073	4.1818	0.	6.2479e-003
13369	3.0984	4.1818	5.e-002	9.9895
13370	3.0984	3.9091	0.	-7.3362e-003
13371	3.0073	4.	0.	-2.7832e-003
13372	3.0984	4.	5.e-002	9.9568
13373	3.0984	3.7273	0.	-1.3071e-002
13374	3.0073	3.8182	0.	-9.441e-003
13375	3.0984	3.8182	5.e-002	9.9257
13376	3.0984	3.5455	0.	-1.7141e-002
13377	3.0073	3.6364	0.	-1.4205e-002
13378	3.0984	3.6364	5.e-002	9.899
13379	3.0984	3.3636	0.	-1.984e-002
13380	3.0073	3.4545	0.	-1.7451e-002
13381	3.0984	3.4545	5.e-002	9.8783
13382	3.0984	3.1818	0.	-2.1376e-002
13383	3.0073	3.2727	0.	-1.946e-002
13384	3.0984	3.2727	5.e-002	9.8642
13385	3.0984	3.	0.	-2.1874e-002
13386	3.0073	3.0909	0.	-2.0418e-002
13387	3.0984	3.0909	5.e-002	9.8572
13388	3.0984	2.8182	0.	-2.1376e-002
13389	3.0073	2.9091	0.	-2.0418e-002
13390	3.0984	2.9091	5.e-002	9.8572
13391	3.0984	2.6364	0.	-1.9839e-002
13392	3.0073	2.7273	0.	-1.946e-002
13393	3.0984	2.7273	5.e-002	9.8643
13394	3.0984	2.4545	0.	-1.7141e-002
13395	3.0073	2.5455	0.	-1.745e-002
13396	3.0984	2.5455	5.e-002	9.8783
13397	3.0984	2.2727	0.	-1.307e-002
13398	3.0073	2.3636	0.	-1.4205e-002
13399	3.0984	2.3636	5.e-002	9.899
13400	3.0984	2.0909	0.	-7.3359e-003
13401	3.0073	2.1818	0.	-9.4406e-003
13402	3.0984	2.1818	5.e-002	9.9257
13403	3.0984	1.9091	0.	4.4016e-004
13404	3.0073	2.	0.	-2.7829e-003
13405	3.0984	2.	5.e-002	9.9568
13406	3.0984	1.7273	0.	1.0725e-002
13407	3.0073	1.8182	0.	6.2482e-003
13408	3.0984	1.8182	5.e-002	9.9896
13409	3.0984	1.5455	0.	2.4137e-002
13410	3.0073	1.6364	0.	1.8233e-002
13411	3.0984	1.6364	5.e-002	10.02
13412	3.0984	1.3636	0.	4.1381e-002
13413	3.0073	1.4545	0.	3.3993e-002
13414	3.0984	1.4545	5.e-002	10.043
13415	3.0984	1.1818	0.	6.3982e-002
13416	3.0073	1.2727	0.	5.4314e-002
13417	3.0984	1.2727	5.e-002	10.051
13418	3.0984	1.	0.	9.2491e-002
13419	3.0073	1.0909	0.	8.1795e-002
13420	3.0984	1.0909	5.e-002	10.039
13421	3.0984	0.81818	0.	0.13685
13422	3.0073	0.90909	0.	0.11536
13423	3.0984	0.90909	5.e-002	10.001
13424	3.0984	0.63636	0.	0.18189
13425	3.0073	0.72727	0.	0.17772
13426	3.0984	0.72727	5.e-002	9.9323
13427	3.0984	0.45455	0.	0.39107
13428	3.0073	0.54545	0.	0.21795
13429	3.0984	0.54545	5.e-002	9.8557
13430	3.0984	0.27273	0.	0.6906
13431	3.0073	0.36364	0.	0.64482
13432	3.0984	0.36364	5.e-002	10.073
13433	3.0073	0.18182	0.	1.3227
13434	3.0984	0.18182	5.e-002	16.638
13435	3.0984	9.0909e-002	0.	0.47189
13436	2.9161	5.7273	0.	0.78964
13437	2.825	5.8182	0.	1.6171
13438	2.9161	5.8182	5.e-002	17.812
13439	2.9161	5.9091	0.	0.52455
13440	2.9161	5.5455	0.	0.43214
13441	2.825	5.6364	0.	0.7138
13442	2.9161	5.6364	5.e-002	10.496
13443	2.9161	5.3636	0.	0.20134
13444	2.825	5.4545	0.	0.24272
13445	2.9161	5.4545	5.e-002	10.287
13446	2.9161	5.1818	0.	0.1506
13447	2.825	5.2727	0.	0.19591
13448	2.9161	5.2727	5.e-002	10.388
13449	2.9161	5.	0.	0.10153
13450	2.825	5.0909	0.	0.12682
13451	2.9161	5.0909	5.e-002	10.474
13452	2.9161	4.8182	0.	7.0139e-002
13453	2.825	4.9091	0.	8.9627e-002
13454	2.9161	4.9091	5.e-002	10.524
13455	2.9161	4.6364	0.	4.5546e-002
13456	2.825	4.7273	0.	5.9558e-002
13457	2.9161	4.7273	5.e-002	10.543
13458	2.9161	4.4545	0.	2.7064e-002
13459	2.825	4.5455	0.	3.765e-002
13460	2.9161	4.5455	5.e-002	10.538
13461	2.9161	4.2727	0.	1.2956e-002
13462	2.825	4.3636	0.	2.0985e-002
13463	2.9161	4.3636	5.e-002	10.518
13464	2.9161	4.0909	0.	2.3741e-003
13465	2.825	4.1818	0.	8.6059e-003
13466	2.9161	4.1818	5.e-002	10.49
13467	2.9161	3.9091	0.	-5.4364e-003
13468	2.825	4.	0.	-4.7837e-004
13469	2.9161	4.	5.e-002	10.461
13470	2.9161	3.7273	0.	-1.1053e-002
13471	2.825	3.8182	0.	-6.9854e-003
13472	2.9161	3.8182	5.e-002	10.434
13473	2.9161	3.5455	0.	-1.4943e-002
13474	2.825	3.6364	0.	-1.1507e-002
13475	2.9161	3.6364	5.e-002	10.413
13476	2.9161	3.3636	0.	-1.7467e-002
13477	2.825	3.4545	0.	-1.4502e-002
13478	2.9161	3.4545	5.e-002	10.397
13479	2.9161	3.1818	0.	-1.888e-002
13480	2.825	3.2727	0.	-1.6314e-002
13481	2.9161	3.2727	5.e-002	10.386
13482	2.9161	3.	0.	-1.9334e-002
13483	2.825	3.0909	0.	-1.7164e-002
13484	2.9161	3.0909	5.e-002	10.381
13485	2.9161	2.8182	0.	-1.888e-002
13486	2.825	2.9091	0.	-1.7164e-002
13487	2.9161	2.9091	5.e-002	10.381
13488	2.9161	2.6364	0.	-1.7467e-002
13489	2.825	2.7273	0.	-1.6314e-002
13490	2.9161	2.7273	5.e-002	10.386
13491	2.9161	2.4545	0.	-1.4943e-002
13492	2.825	2.5455	0.	-1.4502e-002
13493	2.9161	2.5455	5.e-002	10.397
13494	2.9161	2.2727	0.	-1.1053e-002
13495	2.825	2.3636	0.	-1.1507e-002
13496	2.9161	2.3636	5.e-002	10.413
13497	2.9161	2.0909	0.	-5.436e-003
13498	2.825	2.1818	0.	-6.985e-003
13499	2.9161	2.1818	5.e-002	10.434
13500	2.9161	1.9091	0.	2.3745e-003
13501	2.825	2.	0.	-4.7806e-004
13502	2.9161	2.	5.e-002	10.461
13503	2.9161	1.7273	0.	1.2957e-002
13504	2.825	1.8182	0.	8.6063e-003
13505	2.9161	1.8182	5.e-002	10.49
13506	2.9161	1.5455	0.	2.7065e-002
13507	2.825	1.6364	0.	2.0985e-002
13508	2.9161	1.6364	5.e-002	10.518
13509	2.9161	1.3636	0.	4.5546e-002
13510	2.825	1.4545	0.	3.765e-002
13511	2.9161	1.4545	5.e-002	10.538
13512	2.9161	1.1818	0.	7.0139e-002
13513	2.825	1.2727	0.	5.9559e-002
13514	2.9161	1.2727	5.e-002	10.543
13515	2.9161	1.	0.	0.10153
13516	2.825	1.0909	0.	8.9628e-002
13517	2.9161	1.0909	5.e-002	10.525
13518	2.9161	0.81818	0.	0.1506
13519	2.825	0.90909	0.	0.12682
13520	2.9161	0.90909	5.e-002	10.474
13521	2.9161	0.63636	0.	0.20134
13522	2.825	0.72727	0.	0.19591
13523	2.9161	0.72727	5.e-002	10.388
13524	2.9161	0.45455	0.	0.43214
13525	2.825	0.54545	0.	0.24272
13526	2.9161	0.54545	5.e-002	10.287
13527	2.9161	0.27273	0.	0.78965
13528	2.825	0.36364	0.	0.7138
13529	2.9161	0.36364	5.e-002	10.496
13530	2.825	0.18182	0.	1.6171
13531	2.9161	0.18182	5.e-002	17.812
13532	2.9161	9.0909e-002	0.	0.52455
13533	2.7339	5.7273	0.	0.90737
13534	2.6427	5.8182	0.	2.0054
13535	2.7339	5.8182	5.e-002	19.033
13536	2.7339	5.9091	0.	0.58924
13537	2.7339	5.5455	0.	0.47829
13538	2.6427	5.6364	0.	0.79195
13539	2.7339	5.6364	5.e-002	10.956
13540	2.7339	5.3636	0.	0.22309
13541	2.6427	5.4545	0.	0.27072
13542	2.7339	5.4545	5.e-002	10.77
13543	2.7339	5.1818	0.	0.16574
13544	2.6427	5.2727	0.	0.21606
13545	2.7339	5.2727	5.e-002	10.902
13546	2.7339	5.	0.	0.11137
13547	2.6427	5.0909	0.	0.13934
13548	2.7339	5.0909	5.e-002	11.011
13549	2.7339	4.8182	0.	7.6799e-002
13550	2.6427	4.9091	0.	9.8079e-002
13551	2.7339	4.9091	5.e-002	11.073
13552	2.7339	4.6364	0.	5.0103e-002
13553	2.6427	4.7273	0.	6.5221e-002
13554	2.7339	4.7273	5.e-002	11.098
13555	2.7339	4.4545	0.	3.0415e-002
13556	2.6427	4.5455	0.	4.1719e-002
13557	2.7339	4.5455	5.e-002	11.096
13558	2.7339	4.2727	0.	1.5735e-002
13559	2.6427	4.3636	0.	2.4268e-002
13560	2.7339	4.3636	5.e-002	11.079
13561	2.7339	4.0909	0.	5.0251e-003
13562	2.6427	4.1818	0.	1.1682e-002
13563	2.7339	4.1818	5.e-002	11.056
13564	2.7339	3.9091	0.	-2.6376e-003
13565	2.6427	4.	0.	2.7525e-003
13566	2.7339	4.	5.e-002	11.033
13567	2.7339	3.7273	0.	-7.9672e-003
13568	2.6427	3.8182	0.	-3.4065e-003
13569	2.7339	3.8182	5.e-002	11.013
13570	2.7339	3.5455	0.	-1.1537e-002
13571	2.6427	3.6364	0.	-7.5182e-003
13572	2.7339	3.6364	5.e-002	10.999
13573	2.7339	3.3636	0.	-1.3782e-002
13574	2.6427	3.4545	0.	-1.0136e-002
13575	2.7339	3.4545	5.e-002	10.991
13576	2.7339	3.1818	0.	-1.5009e-002
13577	2.6427	3.2727	0.	-1.1664e-002
13578	2.7339	3.2727	5.e-002	10.986
13579	2.7339	3.	0.	-1.5399e-002
13580	2.6427	3.0909	0.	-1.2364e-002
13581	2.7339	3.0909	5.e-002	10.984
13582	2.7339	2.8182	0.	-1.5009e-002
13583	2.6427	2.9091	0.	-1.2364e-002
13584	2.7339	2.9091	5.e-002	10.984
13585	2.7339	2.6364	0.	-1.3782e-002
13586	2.6427	2.7273	0.	-1.1664e-002
13587	2.7339	2.7273	5.e-002	10.986
13588	2.7339	2.4545	0.	-1.1537e-002
13589	2.6427	2.5455	0.	-1.0136e-002
13590	2.7339	2.5455	5.e-002	10.991
13591	2.7339	2.2727	0.	-7.9669e-003
13592	2.6427	2.3636	0.	-7.5181e-003
13593	2.7339	2.3636	5.e-002	10.999
13594	2.7339	2.0909	0.	-2.6373e-003
13595	2.6427	2.1818	0.	-3.4062e-003
13596	2.7339	2.1818	5.e-002	11.013
13597	2.7339	1.9091	0.	5.0254e-003
13598	2.6427	2.	0.	2.7528e-003
13599	2.7339	2.	5.e-002	11.033
13600	2.7339	1.7273	0.	1.5735e-002
13601	2.6427	1.8182	0.	1.1682e-002
13602	2.7339	1.8182	5.e-002	11.056
13603	2.7339	1.5455	0.	3.0415e-002
13604	2.6427	1.6364	0.	2.4268e-002
13605	2.7339	1.6364	5.e-002	11.079
13606	2.7339	1.3636	0.	5.0103e-002
13607	2.6427	1.4545	0.	4.172e-002
13608	2.7339	1.4545	5.e-002	11.097
13609	2.7339	1.1818	0.	7.6799e-002
13610	2.6427	1.2727	0.	6.5221e-002
13611	2.7339	1.2727	5.e-002	11.098
13612	2.7339	1.	0.	0.11137
13613	2.6427	1.0909	0.	9.808e-002
13614	2.7339	1.0909	5.e-002	11.073
13615	2.7339	0.81818	0.	0.16574
13616	2.6427	0.90909	0.	0.13934
13617	2.7339	0.90909	5.e-002	11.011
13618	2.7339	0.63636	0.	0.22309
13619	2.6427	0.72727	0.	0.21606
13620	2.7339	0.72727	5.e-002	10.902
13621	2.7339	0.45455	0.	0.47829
13622	2.6427	0.54545	0.	0.27072
13623	2.7339	0.54545	5.e-002	10.77
13624	2.7339	0.27273	0.	0.90737
13625	2.6427	0.36364	0.	0.79195
13626	2.7339	0.36364	5.e-002	10.956
13627	2.6427	0.18182	0.	2.0054
13628	2.7339	0.18182	5.e-002	19.033
13629	2.7339	9.0909e-002	0.	0.58924
13630	2.5516	5.7273	0.	1.0485
13631	2.4605	5.8182	0.	2.5306
13632	2.5516	5.8182	5.e-002	20.294
13633	2.5516	5.9091	0.	0.6722
13634	2.5516	5.5455	0.	0.53033
13635	2.4605	5.6364	0.	0.88104
13636	2.5516	5.6364	5.e-002	11.465
13637	2.5516	5.3636	0.	0.24742
13638	2.4605	5.4545	0.	0.30252
13639	2.5516	5.4545	5.e-002	11.321
13640	2.5516	5.1818	0.	0.18239
13641	2.4605	5.2727	0.	0.23847
13642	2.5516	5.2727	5.e-002	11.492
13643	2.5516	5.	0.	0.12201
13644	2.4605	5.0909	0.	0.15304
13645	2.5516	5.0909	5.e-002	11.624
13646	2.5516	4.8182	0.	8.3945e-002
13647	2.4605	4.9091	0.	0.10722
13648	2.5516	4.9091	5.e-002	11.699
13649	2.5516	4.6364	0.	5.5066e-002
13650	2.4605	4.7273	0.	7.1397e-002
13651	2.5516	4.7273	5.e-002	11.728
13652	2.5516	4.4545	0.	3.4264e-002
13653	2.4605	4.5455	0.	4.6364e-002
13654	2.5516	4.5455	5.e-002	11.729
13655	2.5516	4.2727	0.	1.9201e-002
13656	2.4605	4.3636	0.	2.8324e-002
13657	2.5516	4.3636	5.e-002	11.715
13658	2.5516	4.0909	0.	8.5937e-003
13659	2.4605	4.1818	0.	1.5788e-002
13660	2.5516	4.1818	5.e-002	11.697
13661	2.5516	3.9091	0.	1.3055e-003
13662	2.4605	4.	0.	7.2738e-003
13663	2.5516	4.	5.e-002	11.682
13664	2.5516	3.7273	0.	-3.5393e-003
13665	2.4605	3.8182	0.	1.691e-003
13666	2.5516	3.8182	5.e-002	11.674
13667	2.5516	3.5455	0.	-6.6321e-003
13668	2.4605	3.6364	0.	-1.8301e-003
13669	2.5516	3.6364	5.e-002	11.671
13670	2.5516	3.3636	0.	-8.4888e-003
13671	2.4605	3.4545	0.	-3.9395e-003
13672	2.5516	3.4545	5.e-002	11.672
13673	2.5516	3.1818	0.	-9.4652e-003
13674	2.4605	3.2727	0.	-5.1022e-003
13675	2.5516	3.2727	5.e-002	11.675
13676	2.5516	3.	0.	-9.768e-003
13677	2.4605	3.0909	0.	-5.6121e-003
13678	2.5516	3.0909	5.e-002	11.677
13679	2.5516	2.8182	0.	-9.4651e-003
13680	2.4605	2.9091	0.	-5.6121e-003
13681	2.5516	2.9091	5.e-002	11.677
13682	2.5516	2.6364	0.	-8.4887e-003
13683	2.4605	2.7273	0.	-5.1021e-003
13684	2.5516	2.7273	5.e-002	11.675
13685	2.5516	2.4545	0.	-6.632e-003
13686	2.4605	2.5455	0.	-3.9394e-003
13687	2.5516	2.5455	5.e-002	11.672
13688	2.5516	2.2727	0.	-3.5391e-003
13689	2.4605	2.3636	0.	-1.8299e-003
13690	2.5516	2.3636	5.e-002	11.671
13691	2.5516	2.0909	0.	1.3057e-003
13692	2.4605	2.1818	0.	1.6911e-003
13693	2.5516	2.1818	5.e-002	11.674
13694	2.5516	1.9091	0.	8.5939e-003
13695	2.4605	2.	0.	7.274e-003
13696	2.5516	2.	5.e-002	11.682
13697	2.5516	1.7273	0.	1.9202e-002
13698	2.4605	1.8182	0.	1.5789e-002
13699	2.5516	1.8182	5.e-002	11.697
13700	2.5516	1.5455	0.	3.4264e-002
13701	2.4605	1.6364	0.	2.8325e-002
13702	2.5516	1.6364	5.e-002	11.715
13703	2.5516	1.3636	0.	5.5066e-002
13704	2.4605	1.4545	0.	4.6364e-002
13705	2.5516	1.4545	5.e-002	11.729
13706	2.5516	1.1818	0.	8.3945e-002
13707	2.4605	1.2727	0.	7.1398e-002
13708	2.5516	1.2727	5.e-002	11.729
13709	2.5516	1.	0.	0.12201
13710	2.4605	1.0909	0.	0.10722
13711	2.5516	1.0909	5.e-002	11.699
13712	2.5516	0.81818	0.	0.18239
13713	2.4605	0.90909	0.	0.15304
13714	2.5516	0.90909	5.e-002	11.624
13715	2.5516	0.63636	0.	0.24742
13716	2.4605	0.72727	0.	0.23847
13717	2.5516	0.72727	5.e-002	11.492
13718	2.5516	0.45455	0.	0.53033
13719	2.4605	0.54545	0.	0.30252
13720	2.5516	0.54545	5.e-002	11.321
13721	2.5516	0.27273	0.	1.0485
13722	2.4605	0.36364	0.	0.88104
13723	2.5516	0.36364	5.e-002	11.465
13724	2.4605	0.18182	0.	2.5306
13725	2.5516	0.18182	5.e-002	20.294
13726	2.5516	9.0909e-002	0.	0.6722
13727	2.3694	5.7273	0.	1.2192
13728	2.2782	5.8182	0.	3.2622
13729	2.3694	5.8182	5.e-002	21.584
13730	2.3694	5.9091	0.	0.7856
13731	2.3694	5.5455	0.	0.58937
13732	2.2782	5.6364	0.	0.98313
13733	2.3694	5.6364	5.e-002	12.037
13734	2.3694	5.3636	0.	0.27483
13735	2.2782	5.4545	0.	0.33864
13736	2.3694	5.4545	5.e-002	11.961
13737	2.3694	5.1818	0.	0.2008
13738	2.2782	5.2727	0.	0.26325
13739	2.3694	5.2727	5.e-002	12.176
13740	2.3694	5.	0.	0.13364
13741	2.2782	5.0909	0.	0.16784
13742	2.3694	5.0909	5.e-002	12.333
13743	2.3694	4.8182	0.	9.1752e-002
13744	2.2782	4.9091	0.	0.11692
13745	2.3694	4.9091	5.e-002	12.417
13746	2.3694	4.6364	0.	6.0674e-002
13747	2.2782	4.7273	0.	7.8003e-002
13748	2.3694	4.7273	5.e-002	12.448
13749	2.3694	4.4545	0.	3.8938e-002
13750	2.2782	4.5455	0.	5.1593e-002
13751	2.3694	4.5455	5.e-002	12.448
13752	2.3694	4.2727	0.	2.3767e-002
13753	2.2782	4.3636	0.	3.3258e-002
13754	2.3694	4.3636	5.e-002	12.436
13755	2.3694	4.0909	0.	1.3555e-002
13756	2.2782	4.1818	0.	2.11e-002
13757	2.3694	4.1818	5.e-002	12.425
13758	2.3694	3.9091	0.	6.9074e-003
13759	2.2782	4.	0.	1.3298e-002
13760	2.3694	4.	5.e-002	12.422
13761	2.3694	3.7273	0.	2.7617e-003
13762	2.2782	3.8182	0.	8.5279e-003
13763	2.3694	3.8182	5.e-002	12.428
13764	2.3694	3.5455	0.	3.0276e-004
13765	2.2782	3.6364	0.	5.768e-003
13766	2.3694	3.6364	5.e-002	12.44
13767	2.3694	3.3636	0.	-1.0609e-003
13768	2.2782	3.4545	0.	4.278e-003
13769	2.3694	3.4545	5.e-002	12.454
13770	2.3694	3.1818	0.	-1.7278e-003
13771	2.2782	3.2727	0.	3.5459e-003
13772	2.3694	3.2727	5.e-002	12.467
13773	2.3694	3.	0.	-1.9253e-003
13774	2.2782	3.0909	0.	3.2554e-003
13775	2.3694	3.0909	5.e-002	12.474
13776	2.3694	2.8182	0.	-1.7277e-003
13777	2.2782	2.9091	0.	3.2554e-003
13778	2.3694	2.9091	5.e-002	12.474
13779	2.3694	2.6364	0.	-1.0608e-003
13780	2.2782	2.7273	0.	3.546e-003
13781	2.3694	2.7273	5.e-002	12.467
13782	2.3694	2.4545	0.	3.0288e-004
13783	2.2782	2.5455	0.	4.2781e-003
13784	2.3694	2.5455	5.e-002	12.454
13785	2.3694	2.2727	0.	2.7618e-003
13786	2.2782	2.3636	0.	5.7681e-003
13787	2.3694	2.3636	5.e-002	12.44
13788	2.3694	2.0909	0.	6.9076e-003
13789	2.2782	2.1818	0.	8.5281e-003
13790	2.3694	2.1818	5.e-002	12.428
13791	2.3694	1.9091	0.	1.3556e-002
13792	2.2782	2.	0.	1.3298e-002
13793	2.3694	2.	5.e-002	12.422
13794	2.3694	1.7273	0.	2.3767e-002
13795	2.2782	1.8182	0.	2.11e-002
13796	2.3694	1.8182	5.e-002	12.425
13797	2.3694	1.5455	0.	3.8938e-002
13798	2.2782	1.6364	0.	3.3258e-002
13799	2.3694	1.6364	5.e-002	12.436
13800	2.3694	1.3636	0.	6.0674e-002
13801	2.2782	1.4545	0.	5.1593e-002
13802	2.3694	1.4545	5.e-002	12.448
13803	2.3694	1.1818	0.	9.1753e-002
13804	2.2782	1.2727	0.	7.8003e-002
13805	2.3694	1.2727	5.e-002	12.448
13806	2.3694	1.	0.	0.13364
13807	2.2782	1.0909	0.	0.11692
13808	2.3694	1.0909	5.e-002	12.417
13809	2.3694	0.81818	0.	0.2008
13810	2.2782	0.90909	0.	0.16784
13811	2.3694	0.90909	5.e-002	12.333
13812	2.3694	0.63636	0.	0.27483
13813	2.2782	0.72727	0.	0.26325
13814	2.3694	0.72727	5.e-002	12.176
13815	2.3694	0.45455	0.	0.58937
13816	2.2782	0.54545	0.	0.33864
13817	2.3694	0.54545	5.e-002	11.961
13818	2.3694	0.27273	0.	1.2192
13819	2.2782	0.36364	0.	0.98313
13820	2.3694	0.36364	5.e-002	12.037
13821	2.2782	0.18182	0.	3.2622
13822	2.3694	0.18182	5.e-002	21.584
13823	2.3694	9.0909e-002	0.	0.7856
13824	2.1871	5.7273	0.	1.4278
13825	2.096	5.8182	0.	4.3194
13826	2.1871	5.8182	5.e-002	22.887
13827	2.1871	5.9091	0.	0.95629
13828	2.1871	5.5455	0.	0.65634
13829	2.096	5.6364	0.	1.1014
13830	2.1871	5.6364	5.e-002	12.697
13831	2.1871	5.3636	0.	0.30534
13832	2.096	5.4545	0.	0.38045
13833	2.1871	5.4545	5.e-002	12.722
13834	2.1871	5.1818	0.	0.22069
13835	2.096	5.2727	0.	0.29139
13836	2.1871	5.2727	5.e-002	12.987
13837	2.1871	5.	0.	0.14581
13838	2.096	5.0909	0.	0.18455
13839	2.1871	5.0909	5.e-002	13.164
13840	2.1871	4.8182	0.	9.9811e-002
13841	2.096	4.9091	0.	0.12803
13842	2.1871	4.9091	5.e-002	13.249
13843	2.1871	4.6364	0.	6.6603e-002
13844	2.096	4.7273	0.	8.6015e-002
13845	2.1871	4.7273	5.e-002	13.273
13846	2.1871	4.4545	0.	4.4218e-002
13847	2.096	4.5455	0.	5.8541e-002
13848	2.1871	4.5455	5.e-002	13.268
13849	2.1871	4.2727	0.	2.9297e-002
13850	2.096	4.3636	0.	4.0328e-002
13851	2.1871	4.3636	5.e-002	13.257
13852	2.1871	4.0909	0.	1.9821e-002
13853	2.096	4.1818	0.	2.8946e-002
13854	2.1871	4.1818	5.e-002	13.254
13855	2.1871	3.9091	0.	1.4088e-002
13856	2.096	4.	0.	2.2169e-002
13857	2.1871	4.	5.e-002	13.266
13858	2.1871	3.7273	0.	1.0838e-002
13859	2.096	3.8182	0.	1.8425e-002
13860	2.1871	3.8182	5.e-002	13.29
13861	2.1871	3.5455	0.	9.1397e-003
13862	2.096	3.6364	0.	1.6552e-002
13863	2.1871	3.6364	5.e-002	13.321
13864	2.1871	3.3636	0.	8.3421e-003
13865	2.096	3.4545	0.	1.5745e-002
13866	2.1871	3.4545	5.e-002	13.352
13867	2.1871	3.1818	0.	8.0207e-003
13868	2.096	3.2727	0.	1.547e-002
13869	2.1871	3.2727	5.e-002	13.376
13870	2.1871	3.	0.	7.9389e-003
13871	2.096	3.0909	0.	1.5407e-002
13872	2.1871	3.0909	5.e-002	13.39
13873	2.1871	2.8182	0.	8.0208e-003
13874	2.096	2.9091	0.	1.5407e-002
13875	2.1871	2.9091	5.e-002	13.39
13876	2.1871	2.6364	0.	8.3422e-003
13877	2.096	2.7273	0.	1.547e-002
13878	2.1871	2.7273	5.e-002	13.376
13879	2.1871	2.4545	0.	9.1399e-003
13880	2.096	2.5455	0.	1.5746e-002
13881	2.1871	2.5455	5.e-002	13.352
13882	2.1871	2.2727	0.	1.0838e-002
13883	2.096	2.3636	0.	1.6552e-002
13884	2.1871	2.3636	5.e-002	13.321
13885	2.1871	2.0909	0.	1.4088e-002
13886	2.096	2.1818	0.	1.8425e-002
13887	2.1871	2.1818	5.e-002	13.29
13888	2.1871	1.9091	0.	1.9822e-002
13889	2.096	2.	0.	2.2169e-002
13890	2.1871	2.	5.e-002	13.266
13891	2.1871	1.7273	0.	2.9298e-002
13892	2.096	1.8182	0.	2.8946e-002
13893	2.1871	1.8182	5.e-002	13.255
13894	2.1871	1.5455	0.	4.4218e-002
13895	2.096	1.6364	0.	4.0328e-002
13896	2.1871	1.6364	5.e-002	13.257
13897	2.1871	1.3636	0.	6.6603e-002
13898	2.096	1.4545	0.	5.8541e-002
13899	2.1871	1.4545	5.e-002	13.268
13900	2.1871	1.1818	0.	9.9811e-002
13901	2.096	1.2727	0.	8.6016e-002
13902	2.1871	1.2727	5.e-002	13.273
13903	2.1871	1.	0.	0.14581
13904	2.096	1.0909	0.	0.12803
13905	2.1871	1.0909	5.e-002	13.249
13906	2.1871	0.81818	0.	0.22069
13907	2.096	0.90909	0.	0.18455
13908	2.1871	0.90909	5.e-002	13.164
13909	2.1871	0.63636	0.	0.30534
13910	2.096	0.72727	0.	0.29139
13911	2.1871	0.72727	5.e-002	12.987
13912	2.1871	0.45455	0.	0.65634
13913	2.096	0.54545	0.	0.38045
13914	2.1871	0.54545	5.e-002	12.722
13915	2.1871	0.27273	0.	1.4278
13916	2.096	0.36364	0.	1.1014
13917	2.1871	0.36364	5.e-002	12.697
13918	2.096	0.18182	0.	4.3194
13919	2.1871	0.18182	5.e-002	22.887
13920	2.1871	9.0909e-002	0.	0.95629
13921	2.0048	5.7273	0.	1.686
13922	1.9137	5.8182	0.	5.9121
13923	2.0048	5.8182	5.e-002	24.181
13924	2.0048	5.9091	0.	1.2585
13925	2.0048	5.5455	0.	0.73414
13926	1.9137	5.6364	0.	1.2378
13927	2.0048	5.6364	5.e-002	13.489
13928	2.0048	5.3636	0.	0.34113
13929	1.9137	5.4545	0.	0.42682
13930	2.0048	5.4545	5.e-002	13.651
13931	2.0048	5.1818	0.	0.2441
13932	1.9137	5.2727	0.	0.32085
13933	2.0048	5.2727	5.e-002	13.966
13934	2.0048	5.	0.	0.16059
13935	1.9137	5.0909	0.	0.20069
13936	2.0048	5.0909	5.e-002	14.151
13937	2.0048	4.8182	0.	0.11033
13938	1.9137	4.9091	0.	0.13799
13939	2.0048	4.9091	5.e-002	14.222
13940	2.0048	4.6364	0.	7.5277e-002
13941	1.9137	4.7273	0.	9.2968e-002
13942	2.0048	4.7273	5.e-002	14.226
13943	2.0048	4.4545	0.	5.2711e-002
13944	1.9137	4.5455	0.	6.4841e-002
13945	2.0048	4.5455	5.e-002	14.207
13946	2.0048	4.2727	0.	3.8514e-002
13947	1.9137	4.3636	0.	4.7211e-002
13948	2.0048	4.3636	5.e-002	14.194
13949	2.0048	4.0909	0.	3.0156e-002
13950	1.9137	4.1818	0.	3.6968e-002
13951	2.0048	4.1818	5.e-002	14.202
13952	2.0048	3.9091	0.	2.5595e-002
13953	1.9137	4.	0.	3.1436e-002
13954	2.0048	4.	5.e-002	14.231
13955	2.0048	3.7273	0.	2.3387e-002
13956	1.9137	3.8182	0.	2.8807e-002
13957	2.0048	3.8182	5.e-002	14.278
13958	2.0048	3.5455	0.	2.2515e-002
13959	1.9137	3.6364	0.	2.7819e-002
13960	2.0048	3.6364	5.e-002	14.33
13961	2.0048	3.3636	0.	2.2301e-002
13962	1.9137	3.4545	0.	2.7649e-002
13963	2.0048	3.4545	5.e-002	14.379
13964	2.0048	3.1818	0.	2.2324e-002
13965	1.9137	3.2727	0.	2.7777e-002
13966	2.0048	3.2727	5.e-002	14.417
13967	2.0048	3.	0.	2.2356e-002
13968	1.9137	3.0909	0.	2.7908e-002
13969	2.0048	3.0909	5.e-002	14.437
13970	2.0048	2.8182	0.	2.2324e-002
13971	1.9137	2.9091	0.	2.7908e-002
13972	2.0048	2.9091	5.e-002	14.437
13973	2.0048	2.6364	0.	2.2301e-002
13974	1.9137	2.7273	0.	2.7777e-002
13975	2.0048	2.7273	5.e-002	14.417
13976	2.0048	2.4545	0.	2.2515e-002
13977	1.9137	2.5455	0.	2.7649e-002
13978	2.0048	2.5455	5.e-002	14.379
13979	2.0048	2.2727	0.	2.3387e-002
13980	1.9137	2.3636	0.	2.7819e-002
13981	2.0048	2.3636	5.e-002	14.33
13982	2.0048	2.0909	0.	2.5595e-002
13983	1.9137	2.1818	0.	2.8807e-002
13984	2.0048	2.1818	5.e-002	14.278
13985	2.0048	1.9091	0.	3.0156e-002
13986	1.9137	2.	0.	3.1436e-002
13987	2.0048	2.	5.e-002	14.232
13988	2.0048	1.7273	0.	3.8515e-002
13989	1.9137	1.8182	0.	3.6969e-002
13990	2.0048	1.8182	5.e-002	14.202
13991	2.0048	1.5455	0.	5.2712e-002
13992	1.9137	1.6364	0.	4.7212e-002
13993	2.0048	1.6364	5.e-002	14.194
13994	2.0048	1.3636	0.	7.5278e-002
13995	1.9137	1.4545	0.	6.4842e-002
13996	2.0048	1.4545	5.e-002	14.207
13997	2.0048	1.1818	0.	0.11033
13998	1.9137	1.2727	0.	9.2968e-002
13999	2.0048	1.2727	5.e-002	14.226
14000	2.0048	1.	0.	0.16059
14001	1.9137	1.0909	0.	0.13799
14002	2.0048	1.0909	5.e-002	14.222
14003	2.0048	0.81818	0.	0.2441
14004	1.9137	0.90909	0.	0.20069
14005	2.0048	0.90909	5.e-002	14.151
14006	2.0048	0.63636	0.	0.34114
14007	1.9137	0.72727	0.	0.32085
14008	2.0048	0.72727	5.e-002	13.966
14009	2.0048	0.45455	0.	0.73414
14010	1.9137	0.54545	0.	0.42682
14011	2.0048	0.54545	5.e-002	13.651
14012	2.0048	0.27273	0.	1.686
14013	1.9137	0.36364	0.	1.2378
14014	2.0048	0.36364	5.e-002	13.489
14015	1.9137	0.18182	0.	5.9121
14016	2.0048	0.18182	5.e-002	24.181
14017	2.0048	9.0909e-002	0.	1.2585
14018	1.8226	5.7273	0.	2.0059
14019	1.7315	5.8182	0.	8.4259
14020	1.8226	5.8182	5.e-002	25.436
14021	1.8226	5.9091	0.	1.966
14022	1.8226	5.5455	0.	0.81963
14023	1.7315	5.6364	0.	1.4034
14024	1.8226	5.6364	5.e-002	14.48
14025	1.8226	5.3636	0.	0.37664
14026	1.7315	5.4545	0.	0.4881
14027	1.8226	5.4545	5.e-002	14.82
14028	1.8226	5.1818	0.	0.26437
14029	1.7315	5.2727	0.	0.36244
14030	1.8226	5.2727	5.e-002	15.174
14031	1.8226	5.	0.	0.17085
14032	1.7315	5.0909	0.	0.22762
14033	1.8226	5.0909	5.e-002	15.341
14034	1.8226	4.8182	0.	0.11607
14035	1.7315	4.9091	0.	0.15886
14036	1.8226	4.9091	5.e-002	15.369
14037	1.8226	4.6364	0.	7.9429e-002
14038	1.7315	4.7273	0.	0.11154
14039	1.8226	4.7273	5.e-002	15.331
14040	1.8226	4.4545	0.	5.712e-002
14041	1.7315	4.5455	0.	8.3621e-002
14042	1.8226	4.5455	5.e-002	15.287
14043	1.8226	4.2727	0.	4.4018e-002
14044	1.7315	4.3636	0.	6.727e-002
14045	1.8226	4.3636	5.e-002	15.269
14046	1.8226	4.0909	0.	3.699e-002
14047	1.7315	4.1818	0.	5.8589e-002
14048	1.8226	4.1818	5.e-002	15.287
14049	1.8226	3.9091	0.	3.3658e-002
14050	1.7315	4.	0.	5.4465e-002
14051	1.8226	4.	5.e-002	15.338
14052	1.8226	3.7273	0.	3.2436e-002
14053	1.7315	3.8182	0.	5.2931e-002
14054	1.8226	3.8182	5.e-002	15.408
14055	1.8226	3.5455	0.	3.2277e-002
14056	1.7315	3.6364	0.	5.271e-002
14057	1.8226	3.6364	5.e-002	15.483
14058	1.8226	3.3636	0.	3.253e-002
14059	1.7315	3.4545	0.	5.3029e-002
14060	1.8226	3.4545	5.e-002	15.551
14061	1.8226	3.1818	0.	3.2813e-002
14062	1.7315	3.2727	0.	5.3437e-002
14063	1.8226	3.2727	5.e-002	15.602
14064	1.8226	3.	0.	3.2927e-002
14065	1.7315	3.0909	0.	5.3694e-002
14066	1.8226	3.0909	5.e-002	15.628
14067	1.8226	2.8182	0.	3.2813e-002
14068	1.7315	2.9091	0.	5.3694e-002
14069	1.8226	2.9091	5.e-002	15.628
14070	1.8226	2.6364	0.	3.253e-002
14071	1.7315	2.7273	0.	5.3437e-002
14072	1.8226	2.7273	5.e-002	15.602
14073	1.8226	2.4545	0.	3.2277e-002
14074	1.7315	2.5455	0.	5.3029e-002
14075	1.8226	2.5455	5.e-002	15.551
14076	1.8226	2.2727	0.	3.2436e-002
14077	1.7315	2.3636	0.	5.271e-002
14078	1.8226	2.3636	5.e-002	15.484
14079	1.8226	2.0909	0.	3.3659e-002
14080	1.7315	2.1818	0.	5.2931e-002
14081	1.8226	2.1818	5.e-002	15.408
14082	1.8226	1.9091	0.	3.699e-002
14083	1.7315	2.	0.	5.4465e-002
14084	1.8226	2.	5.e-002	15.338
14085	1.8226	1.7273	0.	4.4018e-002
14086	1.7315	1.8182	0.	5.8589e-002
14087	1.8226	1.8182	5.e-002	15.287
14088	1.8226	1.5455	0.	5.712e-002
14089	1.7315	1.6364	0.	6.727e-002
14090	1.8226	1.6364	5.e-002	15.269
14091	1.8226	1.3636	0.	7.9429e-002
14092	1.7315	1.4545	0.	8.3621e-002
14093	1.8226	1.4545	5.e-002	15.287
14094	1.8226	1.1818	0.	0.11607
14095	1.7315	1.2727	0.	0.11154
14096	1.8226	1.2727	5.e-002	15.331
14097	1.8226	1.	0.	0.17085
14098	1.7315	1.0909	0.	0.15886
14099	1.8226	1.0909	5.e-002	15.369
14100	1.8226	0.81818	0.	0.26437
14101	1.7315	0.90909	0.	0.22762
14102	1.8226	0.90909	5.e-002	15.341
14103	1.8226	0.63636	0.	0.37664
14104	1.7315	0.72727	0.	0.36244
14105	1.8226	0.72727	5.e-002	15.174
14106	1.8226	0.45455	0.	0.81963
14107	1.7315	0.54545	0.	0.4881
14108	1.8226	0.54545	5.e-002	14.82
14109	1.8226	0.27273	0.	2.0059
14110	1.7315	0.36364	0.	1.4034
14111	1.8226	0.36364	5.e-002	14.48
14112	1.7315	0.18182	0.	8.4259
14113	1.8226	0.18182	5.e-002	25.436
14114	1.8226	9.0909e-002	0.	1.966
14115	1.6403	5.7273	0.	2.4209
14116	1.5492	5.8182	0.	12.525
14117	1.6403	5.8182	5.e-002	26.609
14118	1.6403	5.9091	0.	4.4379
14119	1.6403	5.5455	0.	0.93614
14120	1.5492	5.6364	0.	1.5786
14121	1.6403	5.6364	5.e-002	15.783
14122	1.6403	5.3636	0.	0.43835
14123	1.5492	5.4545	0.	0.53156
14124	1.6403	5.4545	5.e-002	16.336
14125	1.6403	5.1818	0.	0.3102
14126	1.5492	5.2727	0.	0.37783
14127	1.6403	5.2727	5.e-002	16.692
14128	1.6403	5.	0.	0.20705
14129	1.5492	5.0909	0.	0.22392
14130	1.6403	5.0909	5.e-002	16.79
14131	1.6403	4.8182	0.	0.14895
14132	1.5492	4.9091	0.	0.14744
14133	1.6403	4.9091	5.e-002	16.73
14134	1.6403	4.6364	0.	0.11211
14135	1.5492	4.7273	0.	9.7317e-002
14136	1.6403	4.7273	5.e-002	16.62
14137	1.6403	4.4545	0.	9.1229e-002
14138	1.5492	4.5455	0.	6.9401e-002
14139	1.6403	4.5455	5.e-002	16.535
14140	1.6403	4.2727	0.	7.9996e-002
14141	1.5492	4.3636	0.	5.3981e-002
14142	1.6403	4.3636	5.e-002	16.507
14143	1.6403	4.0909	0.	7.4687e-002
14144	1.5492	4.1818	0.	4.6293e-002
14145	1.6403	4.1818	5.e-002	16.537
14146	1.6403	3.9091	0.	7.268e-002
14147	1.5492	4.	0.	4.286e-002
14148	1.6403	4.	5.e-002	16.609
14149	1.6403	3.7273	0.	7.2364e-002
14150	1.5492	3.8182	0.	4.1666e-002
14151	1.6403	3.8182	5.e-002	16.703
14152	1.6403	3.5455	0.	7.2766e-002
14153	1.5492	3.6364	0.	4.1518e-002
14154	1.6403	3.6364	5.e-002	16.798
14155	1.6403	3.3636	0.	7.3332e-002
14156	1.5492	3.4545	0.	4.1764e-002
14157	1.6403	3.4545	5.e-002	16.882
14158	1.6403	3.1818	0.	7.3765e-002
14159	1.5492	3.2727	0.	4.2059e-002
14160	1.6403	3.2727	5.e-002	16.942
14161	1.6403	3.	0.	7.3923e-002
14162	1.5492	3.0909	0.	4.224e-002
14163	1.6403	3.0909	5.e-002	16.974
14164	1.6403	2.8182	0.	7.3765e-002
14165	1.5492	2.9091	0.	4.224e-002
14166	1.6403	2.9091	5.e-002	16.974
14167	1.6403	2.6364	0.	7.3332e-002
14168	1.5492	2.7273	0.	4.2059e-002
14169	1.6403	2.7273	5.e-002	16.942
14170	1.6403	2.4545	0.	7.2766e-002
14171	1.5492	2.5455	0.	4.1764e-002
14172	1.6403	2.5455	5.e-002	16.882
14173	1.6403	2.2727	0.	7.2364e-002
14174	1.5492	2.3636	0.	4.1518e-002
14175	1.6403	2.3636	5.e-002	16.798
14176	1.6403	2.0909	0.	7.268e-002
14177	1.5492	2.1818	0.	4.1666e-002
14178	1.6403	2.1818	5.e-002	16.703
14179	1.6403	1.9091	0.	7.4687e-002
14180	1.5492	2.	0.	4.286e-002
14181	1.6403	2.	5.e-002	16.609
14182	1.6403	1.7273	0.	7.9996e-002
14183	1.5492	1.8182	0.	4.6293e-002
14184	1.6403	1.8182	5.e-002	16.537
14185	1.6403	1.5455	0.	9.1229e-002
14186	1.5492	1.6364	0.	5.3981e-002
14187	1.6403	1.6364	5.e-002	16.507
14188	1.6403	1.3636	0.	0.11211
14189	1.5492	1.4545	0.	6.9401e-002
14190	1.6403	1.4545	5.e-002	16.535
14191	1.6403	1.1818	0.	0.14896
14192	1.5492	1.2727	0.	9.7317e-002
14193	1.6403	1.2727	5.e-002	16.62
14194	1.6403	1.	0.	0.20706
14195	1.5492	1.0909	0.	0.14744
14196	1.6403	1.0909	5.e-002	16.73
14197	1.6403	0.81818	0.	0.3102
14198	1.5492	0.90909	0.	0.22392
14199	1.6403	0.90909	5.e-002	16.79
14200	1.6403	0.63636	0.	0.43835
14201	1.5492	0.72727	0.	0.37783
14202	1.6403	0.72727	5.e-002	16.692
14203	1.6403	0.45455	0.	0.93614
14204	1.5492	0.54545	0.	0.53156
14205	1.6403	0.54545	5.e-002	16.336
14206	1.6403	0.27273	0.	2.4209
14207	1.5492	0.36364	0.	1.5786
14208	1.6403	0.36364	5.e-002	15.783
14209	1.5492	0.18182	0.	12.525
14210	1.6403	0.18182	5.e-002	26.609
14211	1.6403	9.0909e-002	0.	4.4379
14212	1.4581	5.7273	0.	2.9069
14213	1.3669	5.8182	0.	19.265
14214	1.4581	5.8182	5.e-002	27.651
14215	1.4581	5.9091	0.	11.173
14216	1.4581	5.5455	0.	1.0059
14217	1.3669	5.6364	0.	1.8762
14218	1.4581	5.6364	5.e-002	17.58
14219	1.4581	5.3636	0.	0.42824
14220	1.3669	5.4545	0.	0.70075
14221	1.4581	5.4545	5.e-002	18.356
14222	1.4581	5.1818	0.	0.27292
14223	1.3669	5.2727	0.	0.52753
14224	1.4581	5.2727	5.e-002	18.635
14225	1.4581	5.	0.	0.15403
14226	1.3669	5.0909	0.	0.36156
14227	1.4581	5.0909	5.e-002	18.573
14228	1.4581	4.8182	0.	8.9428e-002
14229	1.3669	4.9091	0.	0.28404
14230	1.4581	4.9091	5.e-002	18.352
14231	1.4581	4.6364	0.	5.0392e-002
14232	1.3669	4.7273	0.	0.23645
14233	1.4581	4.7273	5.e-002	18.13
14234	1.4581	4.4545	0.	2.9261e-002
14235	1.3669	4.5455	0.	0.21236
14236	1.4581	4.5455	5.e-002	17.988
14237	1.4581	4.2727	0.	1.8236e-002
14238	1.3669	4.3636	0.	0.20026
14239	1.4581	4.3636	5.e-002	17.945
14240	1.4581	4.0909	0.	1.2986e-002
14241	1.3669	4.1818	0.	0.19491
14242	1.4581	4.1818	5.e-002	17.984
14243	1.4581	3.9091	0.	1.0738e-002
14244	1.3669	4.	0.	0.19283
14245	1.4581	4.	5.e-002	18.073
14246	1.4581	3.7273	0.	9.9592e-003
14247	1.3669	3.8182	0.	0.19226
14248	1.4581	3.8182	5.e-002	18.183
14249	1.4581	3.5455	0.	9.816e-003
14250	1.3669	3.6364	0.	0.19228
14251	1.4581	3.6364	5.e-002	18.29
14252	1.4581	3.3636	0.	9.8913e-003
14253	1.3669	3.4545	0.	0.19247
14254	1.4581	3.4545	5.e-002	18.381
14255	1.4581	3.1818	0.	9.9892e-003
14256	1.3669	3.2727	0.	0.19264
14257	1.4581	3.2727	5.e-002	18.445
14258	1.4581	3.	0.	1.0029e-002
14259	1.3669	3.0909	0.	0.19273
14260	1.4581	3.0909	5.e-002	18.478
14261	1.4581	2.8182	0.	9.9891e-003
14262	1.3669	2.9091	0.	0.19273
14263	1.4581	2.9091	5.e-002	18.478
14264	1.4581	2.6364	0.	9.8913e-003
14265	1.3669	2.7273	0.	0.19264
14266	1.4581	2.7273	5.e-002	18.445
14267	1.4581	2.4545	0.	9.8161e-003
14268	1.3669	2.5455	0.	0.19247
14269	1.4581	2.5455	5.e-002	18.381
14270	1.4581	2.2727	0.	9.9593e-003
14271	1.3669	2.3636	0.	0.19228
14272	1.4581	2.3636	5.e-002	18.29
14273	1.4581	2.0909	0.	1.0738e-002
14274	1.3669	2.1818	0.	0.19226
14275	1.4581	2.1818	5.e-002	18.183
14276	1.4581	1.9091	0.	1.2986e-002
14277	1.3669	2.	0.	0.19283
14278	1.4581	2.	5.e-002	18.073
14279	1.4581	1.7273	0.	1.8236e-002
14280	1.3669	1.8182	0.	0.19491
14281	1.4581	1.8182	5.e-002	17.984
14282	1.4581	1.5455	0.	2.9261e-002
14283	1.3669	1.6364	0.	0.20026
14284	1.4581	1.6364	5.e-002	17.945
14285	1.4581	1.3636	0.	5.0392e-002
14286	1.3669	1.4545	0.	0.21236
14287	1.4581	1.4545	5.e-002	17.988
14288	1.4581	1.1818	0.	8.9428e-002
14289	1.3669	1.2727	0.	0.23645
14290	1.4581	1.2727	5.e-002	18.13
14291	1.4581	1.	0.	0.15403
14292	1.3669	1.0909	0.	0.28404
14293	1.4581	1.0909	5.e-002	18.352
14294	1.4581	0.81818	0.	0.27292
14295	1.3669	0.90909	0.	0.36156
14296	1.4581	0.90909	5.e-002	18.573
14297	1.4581	0.63636	0.	0.42824
14298	1.3669	0.72727	0.	0.52753
14299	1.4581	0.72727	5.e-002	18.635
14300	1.4581	0.45455	0.	1.0059
14301	1.3669	0.54545	0.	0.70075
14302	1.4581	0.54545	5.e-002	18.356
14303	1.4581	0.27273	0.	2.9069
14304	1.3669	0.36364	0.	1.8762
14305	1.4581	0.36364	5.e-002	17.58
14306	1.3669	0.18182	0.	19.265
14307	1.4581	0.18182	5.e-002	27.651
14308	1.4581	9.0909e-002	0.	11.173
14309	1.2758	5.7273	0.	3.7009
14310	1.1847	5.8182	0.	29.616
14311	1.2758	5.8182	5.e-002	28.507
14312	1.2758	5.9091	0.	21.546
14313	1.2758	5.5455	0.	1.3606
14314	1.1847	5.6364	0.	1.895
14315	1.2758	5.6364	5.e-002	20.17
14316	1.2758	5.3636	0.	0.74776
14317	1.1847	5.4545	0.	0.4509
14318	1.2758	5.4545	5.e-002	21.11
14319	1.2758	5.1818	0.	0.59342
14320	1.1847	5.2727	0.	0.19465
14321	1.2758	5.2727	5.e-002	21.148
14322	1.2758	5.	0.	0.47909
14323	1.1847	5.0909	0.	-2.1635e-002
14324	1.2758	5.0909	5.e-002	20.77
14325	1.2758	4.8182	0.	0.42346
14326	1.1847	4.9091	0.	-0.12539
14327	1.2758	4.9091	5.e-002	20.289
14328	1.2758	4.6364	0.	0.39353
14329	1.1847	4.7273	0.	-0.1889
14330	1.2758	4.7273	5.e-002	19.906
14331	1.2758	4.4545	0.	0.38011
14332	1.1847	4.5455	0.	-0.22396
14333	1.2758	4.5455	5.e-002	19.691
14334	1.2758	4.2727	0.	0.37472
14335	1.1847	4.3636	0.	-0.24494
14336	1.2758	4.3636	5.e-002	19.627
14337	1.2758	4.0909	0.	0.37321
14338	1.1847	4.1818	0.	-0.25803
14339	1.2758	4.1818	5.e-002	19.666
14340	1.2758	3.9091	0.	0.37323
14341	1.1847	4.	0.	-0.26687
14342	1.2758	4.	5.e-002	19.757
14343	1.2758	3.7273	0.	0.37373
14344	1.1847	3.8182	0.	-0.2732
14345	1.2758	3.8182	5.e-002	19.865
14346	1.2758	3.5455	0.	0.37425
14347	1.1847	3.6364	0.	-0.27784
14348	1.2758	3.6364	5.e-002	19.967
14349	1.2758	3.3636	0.	0.37463
14350	1.1847	3.4545	0.	-0.28116
14351	1.2758	3.4545	5.e-002	20.049
14352	1.2758	3.1818	0.	0.37485
14353	1.1847	3.2727	0.	-0.28334
14354	1.2758	3.2727	5.e-002	20.106
14355	1.2758	3.	0.	0.37492
14356	1.1847	3.0909	0.	-0.28441
14357	1.2758	3.0909	5.e-002	20.135
14358	1.2758	2.8182	0.	0.37485
14359	1.1847	2.9091	0.	-0.28441
14360	1.2758	2.9091	5.e-002	20.135
14361	1.2758	2.6364	0.	0.37463
14362	1.1847	2.7273	0.	-0.28334
14363	1.2758	2.7273	5.e-002	20.106
14364	1.2758	2.4545	0.	0.37425
14365	1.1847	2.5455	0.	-0.28116
14366	1.2758	2.5455	5.e-002	20.049
14367	1.2758	2.2727	0.	0.37373
14368	1.1847	2.3636	0.	-0.27784
14369	1.2758	2.3636	5.e-002	19.967
14370	1.2758	2.0909	0.	0.37323
14371	1.1847	2.1818	0.	-0.2732
14372	1.2758	2.1818	5.e-002	19.865
14373	1.2758	1.9091	0.	0.37321
14374	1.1847	2.	0.	-0.26687
14375	1.2758	2.	5.e-002	19.757
14376	1.2758	1.7273	0.	0.37472
14377	1.1847	1.8182	0.	-0.25803
14378	1.2758	1.8182	5.e-002	19.666
14379	1.2758	1.5455	0.	0.38011
14380	1.1847	1.6364	0.	-0.24494
14381	1.2758	1.6364	5.e-002	19.627
14382	1.2758	1.3636	0.	0.39353
14383	1.1847	1.4545	0.	-0.22396
14384	1.2758	1.4545	5.e-002	19.691
14385	1.2758	1.1818	0.	0.42346
14386	1.1847	1.2727	0.	-0.1889
14387	1.2758	1.2727	5.e-002	19.906
14388	1.2758	1.	0.	0.47909
14389	1.1847	1.0909	0.	-0.12539
14390	1.2758	1.0909	5.e-002	20.289
14391	1.2758	0.81818	0.	0.59342
14392	1.1847	0.90909	0.	-2.1635e-002
14393	1.2758	0.90909	5.e-002	20.77
14394	1.2758	0.63636	0.	0.74776
14395	1.1847	0.72727	0.	0.19465
14396	1.2758	0.72727	5.e-002	21.148
14397	1.2758	0.45455	0.	1.3606
14398	1.1847	0.54545	0.	0.4509
14399	1.2758	0.54545	5.e-002	21.11
14400	1.2758	0.27273	0.	3.7009
14401	1.1847	0.36364	0.	1.895
14402	1.2758	0.36364	5.e-002	20.17
14403	1.1847	0.18182	0.	29.616
14404	1.2758	0.18182	5.e-002	28.507
14405	1.2758	9.0909e-002	0.	21.546
14406	1.0935	5.7273	0.	4.0423
14407	1.0024	5.8182	0.	44.643
14408	1.0935	5.8182	5.e-002	29.198
14409	1.0935	5.9091	0.	34.985
14410	1.0935	5.5455	0.	0.71822
14411	1.0024	5.6364	0.	3.3171
14412	1.0935	5.6364	5.e-002	24.047
14413	1.0935	5.3636	0.	-0.16738
14414	1.0024	5.4545	0.	2.0007
14415	1.0935	5.4545	5.e-002	24.927
14416	1.0935	5.1818	0.	-0.44879
14417	1.0024	5.2727	0.	1.8654
14418	1.0935	5.2727	5.e-002	24.407
14419	1.0935	5.	0.	-0.64147
14420	1.0024	5.0909	0.	1.7333
14421	1.0935	5.0909	5.e-002	23.473
14422	1.0935	4.8182	0.	-0.74682
14423	1.0024	4.9091	0.	1.6987
14424	1.0935	4.9091	5.e-002	22.608
14425	1.0935	4.6364	0.	-0.81198
14426	1.0024	4.7273	0.	1.6883
14427	1.0935	4.7273	5.e-002	22.024
14428	1.0935	4.4545	0.	-0.85256
14429	1.0024	4.5455	0.	1.6927
14430	1.0935	4.5455	5.e-002	21.725
14431	1.0935	4.2727	0.	-0.88
14432	1.0024	4.3636	0.	1.7006
14433	1.0935	4.3636	5.e-002	21.628
14434	1.0935	4.0909	0.	-0.89966
14435	1.0024	4.1818	0.	1.7086
14436	1.0935	4.1818	5.e-002	21.643
14437	1.0935	3.9091	0.	-0.91439
14438	1.0024	4.	0.	1.7151
14439	1.0935	4.	5.e-002	21.706
14440	1.0935	3.7273	0.	-0.92558
14441	1.0024	3.8182	0.	1.72
14442	1.0935	3.8182	5.e-002	21.78
14443	1.0935	3.5455	0.	-0.93389
14444	1.0024	3.6364	0.	1.7235
14445	1.0935	3.6364	5.e-002	21.846
14446	1.0935	3.3636	0.	-0.93967
14447	1.0024	3.4545	0.	1.7258
14448	1.0935	3.4545	5.e-002	21.897
14449	1.0935	3.1818	0.	-0.94309
14450	1.0024	3.2727	0.	1.7272
14451	1.0935	3.2727	5.e-002	21.93
14452	1.0935	3.	0.	-0.94422
14453	1.0024	3.0909	0.	1.7279
14454	1.0935	3.0909	5.e-002	21.947
14455	1.0935	2.8182	0.	-0.94309
14456	1.0024	2.9091	0.	1.7279
14457	1.0935	2.9091	5.e-002	21.947
14458	1.0935	2.6364	0.	-0.93967
14459	1.0024	2.7273	0.	1.7272
14460	1.0935	2.7273	5.e-002	21.93
14461	1.0935	2.4545	0.	-0.93389
14462	1.0024	2.5455	0.	1.7258
14463	1.0935	2.5455	5.e-002	21.897
14464	1.0935	2.2727	0.	-0.92558
14465	1.0024	2.3636	0.	1.7235
14466	1.0935	2.3636	5.e-002	21.846
14467	1.0935	2.0909	0.	-0.91439
14468	1.0024	2.1818	0.	1.72
14469	1.0935	2.1818	5.e-002	21.78
14470	1.0935	1.9091	0.	-0.89966
14471	1.0024	2.	0.	1.7151
14472	1.0935	2.	5.e-002	21.706
14473	1.0935	1.7273	0.	-0.88
14474	1.0024	1.8182	0.	1.7086
14475	1.0935	1.8182	5.e-002	21.643
14476	1.0935	1.5455	0.	-0.85256
14477	1.0024	1.6364	0.	1.7006
14478	1.0935	1.6364	5.e-002	21.628
14479	1.0935	1.3636	0.	-0.81198
14480	1.0024	1.4545	0.	1.6927
14481	1.0935	1.4545	5.e-002	21.725
14482	1.0935	1.1818	0.	-0.74682
14483	1.0024	1.2727	0.	1.6883
14484	1.0935	1.2727	5.e-002	22.024
14485	1.0935	1.	0.	-0.64147
14486	1.0024	1.0909	0.	1.6987
14487	1.0935	1.0909	5.e-002	22.608
14488	1.0935	0.81818	0.	-0.44879
14489	1.0024	0.90909	0.	1.7333
14490	1.0935	0.90909	5.e-002	23.473
14491	1.0935	0.63636	0.	-0.16738
14492	1.0024	0.72727	0.	1.8654
14493	1.0935	0.72727	5.e-002	24.407
14494	1.0935	0.45455	0.	0.71822
14495	1.0024	0.54545	0.	2.0007
14496	1.0935	0.54545	5.e-002	24.927
14497	1.0935	0.27273	0.	4.0423
14498	1.0024	0.36364	0.	3.3171
14499	1.0935	0.36364	5.e-002	24.047
14500	1.0024	0.18182	0.	44.643
14501	1.0935	0.18182	5.e-002	29.198
14502	1.0935	9.0909e-002	0.	34.985
14503	0.91129	5.7273	0.	7.1226
14504	0.82016	5.8182	0.	62.909
14505	0.91129	5.8182	5.e-002	29.946
14506	0.91129	5.9091	0.	52.782
14507	0.91129	5.5455	0.	4.2582
14508	0.82016	5.6364	0.	-0.40784
14509	0.91129	5.6364	5.e-002	29.99
14510	0.91129	5.3636	0.	3.9503
14511	0.82016	5.4545	0.	-3.3315
14512	0.91129	5.4545	5.e-002	30.253
14513	0.91129	5.1818	0.	4.0113
14514	0.82016	5.2727	0.	-4.1974
14515	0.91129	5.2727	5.e-002	28.583
14516	0.91129	5.	0.	4.0545
14517	0.82016	5.0909	0.	-4.8169
14518	0.91129	5.0909	5.e-002	26.741
14519	0.91129	4.8182	0.	4.1232
14520	0.82016	4.9091	0.	-5.1801
14521	0.91129	4.9091	5.e-002	25.369
14522	0.91129	4.6364	0.	4.1868
14523	0.82016	4.7273	0.	-5.4315
14524	0.91129	4.7273	5.e-002	24.555
14525	0.91129	4.4545	0.	4.2423
14526	0.82016	4.5455	0.	-5.6098
14527	0.91129	4.5455	5.e-002	24.149
14528	0.91129	4.2727	0.	4.287
14529	0.82016	4.3636	0.	-5.744
14530	0.91129	4.3636	5.e-002	23.974
14531	0.91129	4.0909	0.	4.3219
14532	0.82016	4.1818	0.	-5.847
14533	0.91129	4.1818	5.e-002	23.907
14534	0.91129	3.9091	0.	4.3485
14535	0.82016	4.	0.	-5.9268
14536	0.91129	4.	5.e-002	23.881
14537	0.91129	3.7273	0.	4.3684
14538	0.82016	3.8182	0.	-5.9882
14539	0.91129	3.8182	5.e-002	23.867
14540	0.91129	3.5455	0.	4.3827
14541	0.82016	3.6364	0.	-6.0344
14542	0.91129	3.6364	5.e-002	23.854
14543	0.91129	3.3636	0.	4.3923
14544	0.82016	3.4545	0.	-6.0675
14545	0.91129	3.4545	5.e-002	23.84
14546	0.91129	3.1818	0.	4.3978
14547	0.82016	3.2727	0.	-6.0888
14548	0.91129	3.2727	5.e-002	23.829
14549	0.91129	3.	0.	4.3996
14550	0.82016	3.0909	0.	-6.0992
14551	0.91129	3.0909	5.e-002	23.823
14552	0.91129	2.8182	0.	4.3978
14553	0.82016	2.9091	0.	-6.0992
14554	0.91129	2.9091	5.e-002	23.823
14555	0.91129	2.6364	0.	4.3923
14556	0.82016	2.7273	0.	-6.0888
14557	0.91129	2.7273	5.e-002	23.829
14558	0.91129	2.4545	0.	4.3827
14559	0.82016	2.5455	0.	-6.0675
14560	0.91129	2.5455	5.e-002	23.84
14561	0.91129	2.2727	0.	4.3684
14562	0.82016	2.3636	0.	-6.0344
14563	0.91129	2.3636	5.e-002	23.854
14564	0.91129	2.0909	0.	4.3485
14565	0.82016	2.1818	0.	-5.9882
14566	0.91129	2.1818	5.e-002	23.867
14567	0.91129	1.9091	0.	4.3219
14568	0.82016	2.	0.	-5.9268
14569	0.91129	2.	5.e-002	23.881
14570	0.91129	1.7273	0.	4.287
14571	0.82016	1.8182	0.	-5.847
14572	0.91129	1.8182	5.e-002	23.907
14573	0.91129	1.5455	0.	4.2423
14574	0.82016	1.6364	0.	-5.744
14575	0.91129	1.6364	5.e-002	23.974
14576	0.91129	1.3636	0.	4.1868
14577	0.82016	1.4545	0.	-5.6098
14578	0.91129	1.4545	5.e-002	24.149
14579	0.91129	1.1818	0.	4.1232
14580	0.82016	1.2727	0.	-5.4315
14581	0.91129	1.2727	5.e-002	24.555
14582	0.91129	1.	0.	4.0545
14583	0.82016	1.0909	0.	-5.1801
14584	0.91129	1.0909	5.e-002	25.369
14585	0.91129	0.81818	0.	4.0113
14586	0.82016	0.90909	0.	-4.8169
14587	0.91129	0.90909	5.e-002	26.741
14588	0.91129	0.63636	0.	3.9503
14589	0.82016	0.72727	0.	-4.1974
14590	0.91129	0.72727	5.e-002	28.583
14591	0.91129	0.45455	0.	4.2582
14592	0.82016	0.54545	0.	-3.3315
14593	0.91129	0.54545	5.e-002	30.253
14594	0.91129	0.27273	0.	7.1226
14595	0.82016	0.36364	0.	-0.40784
14596	0.91129	0.36364	5.e-002	29.99
14597	0.82016	0.18182	0.	62.908
14598	0.91129	0.18182	5.e-002	29.947
14599	0.91129	9.0909e-002	0.	52.782
14600	0.72903	5.7273	0.	0.44506
14601	0.6379	5.8182	0.	88.216
14602	0.72903	5.8182	5.e-002	32.357
14603	0.72903	5.9091	0.	74.088
14604	0.72903	5.5455	0.	-8.4505
14605	0.6379	5.6364	0.	17.401
14606	0.72903	5.6364	5.e-002	39.364
14607	0.72903	5.3636	0.	-11.591
14608	0.6379	5.4545	0.	19.328
14609	0.72903	5.4545	5.e-002	37.604
14610	0.72903	5.1818	0.	-13.073
14611	0.6379	5.2727	0.	20.761
14612	0.72903	5.2727	5.e-002	33.817
14613	0.72903	5.	0.	-14.075
14614	0.6379	5.0909	0.	21.764
14615	0.72903	5.0909	5.e-002	30.758
14616	0.72903	4.8182	0.	-14.747
14617	0.6379	4.9091	0.	22.563
14618	0.72903	4.9091	5.e-002	28.869
14619	0.72903	4.6364	0.	-15.235
14620	0.6379	4.7273	0.	23.168
14621	0.72903	4.7273	5.e-002	27.843
14622	0.72903	4.4545	0.	-15.6
14623	0.6379	4.5455	0.	23.636
14624	0.72903	4.5455	5.e-002	27.29
14625	0.72903	4.2727	0.	-15.88
14626	0.6379	4.3636	0.	23.998
14627	0.72903	4.3636	5.e-002	26.956
14628	0.72903	4.0909	0.	-16.097
14629	0.6379	4.1818	0.	24.279
14630	0.72903	4.1818	5.e-002	26.716
14631	0.72903	3.9091	0.	-16.264
14632	0.6379	4.	0.	24.497
14633	0.72903	4.	5.e-002	26.52
14634	0.72903	3.7273	0.	-16.392
14635	0.6379	3.8182	0.	24.664
14636	0.72903	3.8182	5.e-002	26.35
14637	0.72903	3.5455	0.	-16.485
14638	0.6379	3.6364	0.	24.789
14639	0.72903	3.6364	5.e-002	26.208
14640	0.72903	3.3636	0.	-16.549
14641	0.6379	3.4545	0.	24.879
14642	0.72903	3.4545	5.e-002	26.095
14643	0.72903	3.1818	0.	-16.586
14644	0.6379	3.2727	0.	24.936
14645	0.72903	3.2727	5.e-002	26.017
14646	0.72903	3.	0.	-16.598
14647	0.6379	3.0909	0.	24.964
14648	0.72903	3.0909	5.e-002	25.977
14649	0.72903	2.8182	0.	-16.586
14650	0.6379	2.9091	0.	24.964
14651	0.72903	2.9091	5.e-002	25.977
14652	0.72903	2.6364	0.	-16.549
14653	0.6379	2.7273	0.	24.936
14654	0.72903	2.7273	5.e-002	26.017
14655	0.72903	2.4545	0.	-16.485
14656	0.6379	2.5455	0.	24.879
14657	0.72903	2.5455	5.e-002	26.095
14658	0.72903	2.2727	0.	-16.392
14659	0.6379	2.3636	0.	24.789
14660	0.72903	2.3636	5.e-002	26.208
14661	0.72903	2.0909	0.	-16.264
14662	0.6379	2.1818	0.	24.664
14663	0.72903	2.1818	5.e-002	26.35
14664	0.72903	1.9091	0.	-16.097
14665	0.6379	2.	0.	24.497
14666	0.72903	2.	5.e-002	26.52
14667	0.72903	1.7273	0.	-15.88
14668	0.6379	1.8182	0.	24.279
14669	0.72903	1.8182	5.e-002	26.716
14670	0.72903	1.5455	0.	-15.6
14671	0.6379	1.6364	0.	23.998
14672	0.72903	1.6364	5.e-002	26.956
14673	0.72903	1.3636	0.	-15.235
14674	0.6379	1.4545	0.	23.636
14675	0.72903	1.4545	5.e-002	27.29
14676	0.72903	1.1818	0.	-14.747
14677	0.6379	1.2727	0.	23.168
14678	0.72903	1.2727	5.e-002	27.843
14679	0.72903	1.	0.	-14.075
14680	0.6379	1.0909	0.	22.563
14681	0.72903	1.0909	5.e-002	28.869
14682	0.72903	0.81818	0.	-13.073
14683	0.6379	0.90909	0.	21.764
14684	0.72903	0.90909	5.e-002	30.758
14685	0.72903	0.63636	0.	-11.591
14686	0.6379	0.72727	0.	20.761
14687	0.72903	0.72727	5.e-002	33.817
14688	0.72903	0.45455	0.	-8.4505
14689	0.6379	0.54545	0.	19.328
14690	0.72903	0.54545	5.e-002	37.604
14691	0.72903	0.27273	0.	0.44506
14692	0.6379	0.36364	0.	17.401
14693	0.72903	0.36364	5.e-002	39.364
14694	0.6379	0.18182	0.	88.216
14695	0.72903	0.18182	5.e-002	32.357
14696	0.72903	9.0909e-002	0.	74.088
14697	0.54677	5.7273	0.	33.819
14698	0.45565	5.8182	0.	96.8
14699	0.54677	5.8182	5.e-002	40.644
14700	0.54677	5.9091	0.	108.71
14701	0.54677	5.5455	0.	44.605
14702	0.45565	5.6364	0.	-48.805
14703	0.54677	5.6364	5.e-002	54.457
14704	0.54677	5.3636	0.	51.53
14705	0.45565	5.4545	0.	-67.248
14706	0.54677	5.4545	5.e-002	47.288
14707	0.54677	5.1818	0.	55.539
14708	0.45565	5.2727	0.	-76.495
14709	0.54677	5.2727	5.e-002	39.944
14710	0.54677	5.	0.	58.375
14711	0.45565	5.0909	0.	-82.342
14712	0.54677	5.0909	5.e-002	35.418
14713	0.54677	4.8182	0.	60.466
14714	0.45565	4.9091	0.	-86.395
14715	0.54677	4.9091	5.e-002	32.898
14716	0.54677	4.6364	0.	62.033
14717	0.45565	4.7273	0.	-89.34
14718	0.54677	4.7273	5.e-002	31.452
14719	0.54677	4.4545	0.	63.231
14720	0.45565	4.5455	0.	-91.555
14721	0.54677	4.5455	5.e-002	30.492
14722	0.54677	4.2727	0.	64.156
14723	0.45565	4.3636	0.	-93.251
14724	0.54677	4.3636	5.e-002	29.758
14725	0.54677	4.0909	0.	64.872
14726	0.45565	4.1818	0.	-94.561
14727	0.54677	4.1818	5.e-002	29.152
14728	0.54677	3.9091	0.	65.425
14729	0.45565	4.	0.	-95.573
14730	0.54677	4.	5.e-002	28.64
14731	0.54677	3.7273	0.	65.845
14732	0.45565	3.8182	0.	-96.347
14733	0.54677	3.8182	5.e-002	28.213
14734	0.54677	3.5455	0.	66.153
14735	0.45565	3.6364	0.	-96.926
14736	0.54677	3.6364	5.e-002	27.868
14737	0.54677	3.3636	0.	66.363
14738	0.45565	3.4545	0.	-97.339
14739	0.54677	3.4545	5.e-002	27.609
14740	0.54677	3.1818	0.	66.486
14741	0.45565	3.2727	0.	-97.604
14742	0.54677	3.2727	5.e-002	27.435
14743	0.54677	3.	0.	66.526
14744	0.45565	3.0909	0.	-97.733
14745	0.54677	3.0909	5.e-002	27.348
14746	0.54677	2.8182	0.	66.486
14747	0.45565	2.9091	0.	-97.733
14748	0.54677	2.9091	5.e-002	27.348
14749	0.54677	2.6364	0.	66.363
14750	0.45565	2.7273	0.	-97.604
14751	0.54677	2.7273	5.e-002	27.435
14752	0.54677	2.4545	0.	66.153
14753	0.45565	2.5455	0.	-97.339
14754	0.54677	2.5455	5.e-002	27.609
14755	0.54677	2.2727	0.	65.845
14756	0.45565	2.3636	0.	-96.926
14757	0.54677	2.3636	5.e-002	27.868
14758	0.54677	2.0909	0.	65.425
14759	0.45565	2.1818	0.	-96.347
14760	0.54677	2.1818	5.e-002	28.213
14761	0.54677	1.9091	0.	64.872
14762	0.45565	2.	0.	-95.573
14763	0.54677	2.	5.e-002	28.64
14764	0.54677	1.7273	0.	64.156
14765	0.45565	1.8182	0.	-94.561
14766	0.54677	1.8182	5.e-002	29.152
14767	0.54677	1.5455	0.	63.231
14768	0.45565	1.6364	0.	-93.251
14769	0.54677	1.6364	5.e-002	29.758
14770	0.54677	1.3636	0.	62.033
14771	0.45565	1.4545	0.	-91.555
14772	0.54677	1.4545	5.e-002	30.492
14773	0.54677	1.1818	0.	60.466
14774	0.45565	1.2727	0.	-89.34
14775	0.54677	1.2727	5.e-002	31.453
14776	0.54677	1.	0.	58.375
14777	0.45565	1.0909	0.	-86.395
14778	0.54677	1.0909	5.e-002	32.898
14779	0.54677	0.81818	0.	55.539
14780	0.45565	0.90909	0.	-82.342
14781	0.54677	0.90909	5.e-002	35.419
14782	0.54677	0.63636	0.	51.53
14783	0.45565	0.72727	0.	-76.495
14784	0.54677	0.72727	5.e-002	39.944
14785	0.54677	0.45455	0.	44.605
14786	0.45565	0.54545	0.	-67.248
14787	0.54677	0.54545	5.e-002	47.288
14788	0.54677	0.27273	0.	33.819
14789	0.45565	0.36364	0.	-48.805
14790	0.54677	0.36364	5.e-002	54.457
14791	0.45565	0.18182	0.	96.8
14792	0.54677	0.18182	5.e-002	40.644
14793	0.54677	9.0909e-002	0.	108.71
14794	0.36452	5.7273	0.	-90.413
14795	0.27339	5.8182	0.	164.7
14796	0.36452	5.8182	5.e-002	71.111
14797	0.36452	5.9091	0.	133.52
14798	0.36452	5.5455	0.	-161.66
14799	0.27339	5.6364	0.	235.87
14800	0.36452	5.6364	5.e-002	78.563
14801	0.36452	5.3636	0.	-195.49
14802	0.27339	5.4545	0.	279.64
14803	0.36452	5.4545	5.e-002	59.731
14804	0.36452	5.1818	0.	-214.45
14805	0.27339	5.2727	0.	310.87
14806	0.36452	5.2727	5.e-002	49.111
14807	0.36452	5.	0.	-227.14
14808	0.27339	5.0909	0.	330.86
14809	0.36452	5.0909	5.e-002	43.624
14810	0.36452	4.8182	0.	-236.21
14811	0.27339	4.9091	0.	345.44
14812	0.36452	4.9091	5.e-002	40.677
14813	0.36452	4.6364	0.	-242.93
14814	0.27339	4.7273	0.	356.17
14815	0.36452	4.7273	5.e-002	38.678
14816	0.36452	4.4545	0.	-248.04
14817	0.27339	4.5455	0.	364.33
14818	0.36452	4.5455	5.e-002	37.131
14819	0.36452	4.2727	0.	-251.97
14820	0.27339	4.3636	0.	370.62
14821	0.36452	4.3636	5.e-002	35.86
14822	0.36452	4.0909	0.	-255.
14823	0.27339	4.1818	0.	375.49
14824	0.36452	4.1818	5.e-002	34.801
14825	0.36452	3.9091	0.	-257.34
14826	0.27339	4.	0.	379.28
14827	0.36452	4.	5.e-002	33.924
14828	0.36452	3.7273	0.	-259.12
14829	0.27339	3.8182	0.	382.18
14830	0.36452	3.8182	5.e-002	33.212
14831	0.36452	3.5455	0.	-260.42
14832	0.27339	3.6364	0.	384.35
14833	0.36452	3.6364	5.e-002	32.654
14834	0.36452	3.3636	0.	-261.3
14835	0.27339	3.4545	0.	385.9
14836	0.36452	3.4545	5.e-002	32.243
14837	0.36452	3.1818	0.	-261.82
14838	0.27339	3.2727	0.	386.89
14839	0.36452	3.2727	5.e-002	31.972
14840	0.36452	3.	0.	-261.99
14841	0.27339	3.0909	0.	387.38
14842	0.36452	3.0909	5.e-002	31.838
14843	0.36452	2.8182	0.	-261.82
14844	0.27339	2.9091	0.	387.38
14845	0.36452	2.9091	5.e-002	31.838
14846	0.36452	2.6364	0.	-261.3
14847	0.27339	2.7273	0.	386.89
14848	0.36452	2.7273	5.e-002	31.972
14849	0.36452	2.4545	0.	-260.42
14850	0.27339	2.5455	0.	385.9
14851	0.36452	2.5455	5.e-002	32.243
14852	0.36452	2.2727	0.	-259.12
14853	0.27339	2.3636	0.	384.35
14854	0.36452	2.3636	5.e-002	32.654
14855	0.36452	2.0909	0.	-257.34
14856	0.27339	2.1818	0.	382.18
14857	0.36452	2.1818	5.e-002	33.212
14858	0.36452	1.9091	0.	-255.
14859	0.27339	2.	0.	379.28
14860	0.36452	2.	5.e-002	33.924
14861	0.36452	1.7273	0.	-251.97
14862	0.27339	1.8182	0.	375.49
14863	0.36452	1.8182	5.e-002	34.801
14864	0.36452	1.5455	0.	-248.04
14865	0.27339	1.6364	0.	370.62
14866	0.36452	1.6364	5.e-002	35.86
14867	0.36452	1.3636	0.	-242.93
14868	0.27339	1.4545	0.	364.33
14869	0.36452	1.4545	5.e-002	37.131
14870	0.36452	1.1818	0.	-236.21
14871	0.27339	1.2727	0.	356.17
14872	0.36452	1.2727	5.e-002	38.678
14873	0.36452	1.	0.	-227.14
14874	0.27339	1.0909	0.	345.44
14875	0.36452	1.0909	5.e-002	40.677
14876	0.36452	0.81818	0.	-214.45
14877	0.27339	0.90909	0.	330.86
14878	0.36452	0.90909	5.e-002	43.624
14879	0.36452	0.63636	0.	-195.49
14880	0.27339	0.72727	0.	310.87
14881	0.36452	0.72727	5.e-002	49.111
14882	0.36452	0.45455	0.	-161.66
14883	0.27339	0.54545	0.	279.64
14884	0.36452	0.54545	5.e-002	59.732
14885	0.36452	0.27273	0.	-90.413
14886	0.27339	0.36364	0.	235.87
14887	0.36452	0.36364	5.e-002	78.563
14888	0.27339	0.18182	0.	164.7
14889	0.36452	0.18182	5.e-002	71.111
14890	0.36452	9.0909e-002	0.	133.52
14891	0.18226	5.7273	0.	448.13
14892	0.18226	5.8182	5.e-002	170.72
14893	0.18226	5.9091	0.	222.17
14894	9.1129e-002	5.8182	0.	-398.8
14895	0.18226	5.5455	0.	676.43
14896	0.18226	5.6364	5.e-002	108.61
14897	9.1129e-002	5.6364	0.	-831.13
14898	0.18226	5.3636	0.	785.95
14899	0.18226	5.4545	5.e-002	73.828
14900	9.1129e-002	5.4545	0.	-1028.8
14901	0.18226	5.1818	0.	856.22
14902	0.18226	5.2727	5.e-002	56.581
14903	9.1129e-002	5.2727	0.	-1145.4
14904	0.18226	5.	0.	903.47
14905	0.18226	5.0909	5.e-002	47.62
14906	9.1129e-002	5.0909	0.	-1224.2
14907	0.18226	4.8182	0.	937.85
14908	0.18226	4.9091	5.e-002	41.503
14909	9.1129e-002	4.9091	0.	-1280.2
14910	0.18226	4.6364	0.	963.45
14911	0.18226	4.7273	5.e-002	37.048
14912	9.1129e-002	4.7273	0.	-1321.7
14913	0.18226	4.4545	0.	983.
14914	0.18226	4.5455	5.e-002	33.651
14915	9.1129e-002	4.5455	0.	-1353.3
14916	0.18226	4.2727	0.	998.09
14917	0.18226	4.3636	5.e-002	31.004
14918	9.1129e-002	4.3636	0.	-1377.6
14919	0.18226	4.0909	0.	1009.8
14920	0.18226	4.1818	5.e-002	28.921
14921	9.1129e-002	4.1818	0.	-1396.4
14922	0.18226	3.9091	0.	1018.8
14923	0.18226	4.	5.e-002	27.283
14924	9.1129e-002	4.	0.	-1411.
14925	0.18226	3.7273	0.	1025.7
14926	0.18226	3.8182	5.e-002	26.011
14927	9.1129e-002	3.8182	0.	-1422.2
14928	0.18226	3.5455	0.	1030.7
14929	0.18226	3.6364	5.e-002	25.047
14930	9.1129e-002	3.6364	0.	-1430.6
14931	0.18226	3.3636	0.	1034.1
14932	0.18226	3.4545	5.e-002	24.353
14933	9.1129e-002	3.4545	0.	-1436.6
14934	0.18226	3.1818	0.	1036.1
14935	0.18226	3.2727	5.e-002	23.904
14936	9.1129e-002	3.2727	0.	-1440.5
14937	0.18226	3.	0.	1036.8
14938	0.18226	3.0909	5.e-002	23.683
14939	9.1129e-002	3.0909	0.	-1442.3
14940	0.18226	2.8182	0.	1036.1
14941	0.18226	2.9091	5.e-002	23.683
14942	9.1129e-002	2.9091	0.	-1442.3
14943	0.18226	2.6364	0.	1034.1
14944	0.18226	2.7273	5.e-002	23.904
14945	9.1129e-002	2.7273	0.	-1440.5
14946	0.18226	2.4545	0.	1030.7
14947	0.18226	2.5455	5.e-002	24.353
14948	9.1129e-002	2.5455	0.	-1436.6
14949	0.18226	2.2727	0.	1025.7
14950	0.18226	2.3636	5.e-002	25.047
14951	9.1129e-002	2.3636	0.	-1430.6
14952	0.18226	2.0909	0.	1018.8
14953	0.18226	2.1818	5.e-002	26.011
14954	9.1129e-002	2.1818	0.	-1422.2
14955	0.18226	1.9091	0.	1009.8
14956	0.18226	2.	5.e-002	27.283
14957	9.1129e-002	2.	0.	-1411.
14958	0.18226	1.7273	0.	998.09
14959	0.18226	1.8182	5.e-002	28.921
14960	9.1129e-002	1.8182	0.	-1396.4
14961	0.18226	1.5455	0.	983.
14962	0.18226	1.6364	5.e-002	31.004
14963	9.1129e-002	1.6364	0.	-1377.6
14964	0.18226	1.3636	0.	963.45
14965	0.18226	1.4545	5.e-002	33.651
14966	9.1129e-002	1.4545	0.	-1353.3
14967	0.18226	1.1818	0.	937.85
14968	0.18226	1.2727	5.e-002	37.048
14969	9.1129e-002	1.2727	0.	-1321.7
14970	0.18226	1.	0.	903.47
14971	0.18226	1.0909	5.e-002	41.503
14972	9.1129e-002	1.0909	0.	-1280.2
14973	0.18226	0.81818	0.	856.22
14974	0.18226	0.90909	5.e-002	47.62
14975	9.1129e-002	0.90909	0.	-1224.2
14976	0.18226	0.63636	0.	785.95
14977	0.18226	0.72727	5.e-002	56.581
14978	9.1129e-002	0.72727	0.	-1145.4
14979	0.18226	0.45455	0.	676.43
14980	0.18226	0.54545	5.e-002	73.828
14981	9.1129e-002	0.54545	0.	-1028.8
14982	0.18226	0.27273	0.	448.13
14983	0.18226	0.36364	5.e-002	108.61
14984	9.1129e-002	0.36364	0.	-831.13
14985	0.18226	0.18182	5.e-002	170.72
14986	0.18226	9.0909e-002	0.	222.17
14987	9.1129e-002	0.18182	0.	-398.8
14988	11.743	5.8182	0.	65.498
14989	11.651	5.7273	0.	121.69
14990	11.651	5.8182	5.e-002	41.977
14991	11.651	5.9091	0.	31.584
14992	11.559	5.8182	0.	36.656
14993	11.927	5.8182	0.	60.148
14994	11.835	5.7273	0.	72.946
14995	11.835	5.8182	5.e-002	36.9
14996	11.835	5.9091	0.	26.273
14997	12.112	5.8182	0.	62.101
14998	12.02	5.7273	0.	68.345
14999	12.02	5.8182	5.e-002	33.831
15000	12.02	5.9091	0.	30.902
15001	12.296	5.8182	0.	61.64
15002	12.204	5.7273	0.	68.75
15003	12.204	5.8182	5.e-002	30.207
15004	12.204	5.9091	0.	33.551
15005	12.48	5.8182	0.	58.293
15006	12.388	5.7273	0.	67.112
15007	12.388	5.8182	5.e-002	26.243
15008	12.388	5.9091	0.	33.377
15009	12.665	5.8182	0.	53.075
15010	12.573	5.7273	0.	62.953
15011	12.573	5.8182	5.e-002	22.235
15012	12.573	5.9091	0.	31.403
15013	12.849	5.8182	0.	46.889
15014	12.757	5.7273	0.	56.901
15015	12.757	5.8182	5.e-002	18.418
15016	12.757	5.9091	0.	28.388
15017	13.033	5.8182	0.	40.443
15018	12.941	5.7273	0.	49.828
15019	12.941	5.8182	5.e-002	14.945
15020	12.941	5.9091	0.	24.925
15021	13.218	5.8182	0.	34.216
15022	13.125	5.7273	0.	42.461
15023	13.125	5.8182	5.e-002	11.89
15024	13.125	5.9091	0.	21.408
15025	13.402	5.8182	0.	28.499
15026	13.31	5.7273	0.	35.325
15027	13.31	5.8182	5.e-002	9.276
15028	13.31	5.9091	0.	18.085
15029	13.586	5.8182	0.	23.443
15030	13.494	5.7273	0.	28.749
15031	13.494	5.8182	5.e-002	7.0844
15032	13.494	5.9091	0.	15.09
15033	13.771	5.8182	0.	19.101
15034	13.678	5.7273	0.	22.914
15035	13.678	5.8182	5.e-002	5.2791
15036	13.678	5.9091	0.	12.486
15037	13.955	5.8182	0.	15.468
15038	13.863	5.7273	0.	17.89
15039	13.863	5.8182	5.e-002	3.8143
15040	13.863	5.9091	0.	10.288
15041	14.139	5.8182	0.	12.504
15042	14.047	5.7273	0.	13.681
15043	14.047	5.8182	5.e-002	2.6426
15044	14.047	5.9091	0.	8.481
15045	14.324	5.8182	0.	10.15
15046	14.231	5.7273	0.	10.247
15047	14.231	5.8182	5.e-002	1.7203
15048	14.231	5.9091	0.	7.0369
15049	14.508	5.8182	0.	8.3378
15050	14.416	5.7273	0.	7.5234
15051	14.416	5.8182	5.e-002	1.0114
15052	14.416	5.9091	0.	5.9197
15053	14.692	5.8182	0.	7.0002
15054	14.6	5.7273	0.	5.4361
15055	14.6	5.8182	5.e-002	0.50352
15056	14.6	5.9091	0.	5.0911
15057	14.876	5.8182	0.	6.0713
15058	14.784	5.7273	0.	3.9066
15059	14.784	5.8182	5.e-002	0.29865
15060	14.784	5.9091	0.	4.5131
15061	15.061	5.8182	0.	5.4901
15062	14.969	5.7273	0.	2.8576
15063	14.969	5.8182	5.e-002	0.44794
15064	14.969	5.9091	0.	4.1496
15065	15.245	5.8182	0.	5.2011
15066	15.153	5.7273	0.	2.2148
15067	15.153	5.8182	5.e-002	0.63657
15068	15.153	5.9091	0.	3.9671
15069	15.429	5.8182	0.	5.1556
15070	15.337	5.7273	0.	1.9083
15071	15.337	5.8182	5.e-002	0.78058
15072	15.337	5.9091	0.	3.9356
15073	15.614	5.8182	0.	5.3114
15074	15.522	5.7273	0.	1.8783
15075	15.522	5.8182	5.e-002	0.87828
15076	15.522	5.9091	0.	4.0288
15077	15.798	5.8182	0.	5.632
15078	15.706	5.7273	0.	2.0772
15079	15.706	5.8182	5.e-002	0.93746
15080	15.706	5.9091	0.	4.224
15081	15.982	5.8182	0.	6.0864
15082	15.89	5.7273	0.	2.4661
15083	15.89	5.8182	5.e-002	0.96629
15084	15.89	5.9091	0.	4.5021
15085	16.167	5.8182	0.	6.6479
15086	16.075	5.7273	0.	3.0093
15087	16.075	5.8182	5.e-002	0.97204
15088	16.075	5.9091	0.	4.847
15089	16.351	5.8182	0.	7.294
15090	16.259	5.7273	0.	3.6748
15091	16.259	5.8182	5.e-002	0.96064
15092	16.259	5.9091	0.	5.2449
15093	16.535	5.8182	0.	8.0056
15094	16.443	5.7273	0.	4.435
15095	16.443	5.8182	5.e-002	0.93693
15096	16.443	5.9091	0.	5.6845
15097	16.72	5.8182	0.	8.767
15098	16.627	5.7273	0.	5.2667
15099	16.627	5.8182	5.e-002	0.90491
15100	16.627	5.9091	0.	6.1561
15101	16.904	5.8182	0.	9.565
15102	16.812	5.7273	0.	6.1511
15103	16.812	5.8182	5.e-002	0.86765
15104	16.812	5.9091	0.	6.6519
15105	17.088	5.8182	0.	10.389
15106	16.996	5.7273	0.	7.0728
15107	16.996	5.8182	5.e-002	0.82766
15108	16.996	5.9091	0.	7.1652
15109	17.273	5.8182	0.	11.231
15110	17.18	5.7273	0.	8.0198
15111	17.18	5.8182	5.e-002	0.78691
15112	17.18	5.9091	0.	7.6909
15113	17.457	5.8182	0.	12.083
15114	17.365	5.7273	0.	8.9824
15115	17.365	5.8182	5.e-002	0.74702
15116	17.365	5.9091	0.	8.2247
15117	17.641	5.8182	0.	12.94
15118	17.549	5.7273	0.	9.9532
15119	17.549	5.8182	5.e-002	0.70922
15120	17.549	5.9091	0.	8.7632
15121	17.825	5.8182	0.	13.799
15122	17.733	5.7273	0.	10.927
15123	17.733	5.8182	5.e-002	0.67455
15124	17.733	5.9091	0.	9.3039
15125	18.01	5.8182	0.	14.655
15126	17.918	5.7273	0.	11.899
15127	17.918	5.8182	5.e-002	0.64382
15128	17.918	5.9091	0.	9.8447
15129	18.194	5.8182	0.	15.508
15130	18.102	5.7273	0.	12.866
15131	18.102	5.8182	5.e-002	0.61774
15132	18.102	5.9091	0.	10.384
15133	18.378	5.8182	0.	16.354
15134	18.286	5.7273	0.	13.827
15135	18.286	5.8182	5.e-002	0.5968
15136	18.286	5.9091	0.	10.921
15137	18.563	5.8182	0.	17.194
15138	18.471	5.7273	0.	14.78
15139	18.471	5.8182	5.e-002	0.58147
15140	18.471	5.9091	0.	11.456
15141	18.747	5.8182	0.	18.026
15142	18.655	5.7273	0.	15.726
15143	18.655	5.8182	5.e-002	0.57204
15144	18.655	5.9091	0.	11.986
15145	18.931	5.8182	0.	18.851
15146	18.839	5.7273	0.	16.663
15147	18.839	5.8182	5.e-002	0.56874
15148	18.839	5.9091	0.	12.513
15149	19.116	5.8182	0.	19.666
15150	19.024	5.7273	0.	17.592
15151	19.024	5.8182	5.e-002	0.57164
15152	19.024	5.9091	0.	13.036
15153	19.3	5.8182	0.	20.474
15154	19.208	5.7273	0.	18.513
15155	19.208	5.8182	5.e-002	0.58083
15156	19.208	5.9091	0.	13.555
15157	19.484	5.8182	0.	21.273
15158	19.392	5.7273	0.	19.427
15159	19.392	5.8182	5.e-002	0.5962
15160	19.392	5.9091	0.	14.069
15161	19.669	5.8182	0.	22.063
15162	19.576	5.7273	0.	20.336
15163	19.576	5.8182	5.e-002	0.61773
15164	19.576	5.9091	0.	14.58
15165	19.853	5.8182	0.	22.845
15166	19.761	5.7273	0.	21.239
15167	19.761	5.8182	5.e-002	0.64536
15168	19.761	5.9091	0.	15.087
15169	20.037	5.8182	0.	23.617
15170	19.945	5.7273	0.	22.138
15171	19.945	5.8182	5.e-002	0.67903
15172	19.945	5.9091	0.	15.589
15173	20.222	5.8182	0.	24.379
15174	20.129	5.7273	0.	23.032
15175	20.129	5.8182	5.e-002	0.71876
15176	20.129	5.9091	0.	16.087
15177	20.406	5.8182	0.	25.13
15178	20.314	5.7273	0.	23.923
15179	20.314	5.8182	5.e-002	0.76462
15180	20.314	5.9091	0.	16.579
15181	20.59	5.8182	0.	25.87
15182	20.498	5.7273	0.	24.811
15183	20.498	5.8182	5.e-002	0.81673
15184	20.498	5.9091	0.	17.067
15185	20.775	5.8182	0.	26.595
15186	20.682	5.7273	0.	25.696
15187	20.682	5.8182	5.e-002	0.87527
15188	20.682	5.9091	0.	17.548
15189	20.959	5.8182	0.	27.306
15190	20.867	5.7273	0.	26.578
15191	20.867	5.8182	5.e-002	0.94052
15192	20.867	5.9091	0.	18.021
15193	21.143	5.8182	0.	27.998
15194	21.051	5.7273	0.	27.456
15195	21.051	5.8182	5.e-002	1.0128
15196	21.051	5.9091	0.	18.487
15197	21.327	5.8182	0.	28.668
15198	21.235	5.7273	0.	28.331
15199	21.235	5.8182	5.e-002	1.0925
15200	21.235	5.9091	0.	18.941
15201	21.512	5.8182	0.	29.313
15202	21.42	5.7273	0.	29.2
15203	21.42	5.8182	5.e-002	1.1801
15204	21.42	5.9091	0.	19.384
15205	21.696	5.8182	0.	29.928
15206	21.604	5.7273	0.	30.064
15207	21.604	5.8182	5.e-002	1.2761
15208	21.604	5.9091	0.	19.811
15209	21.88	5.8182	0.	30.506
15210	21.788	5.7273	0.	30.92
15211	21.788	5.8182	5.e-002	1.3812
15212	21.788	5.9091	0.	20.22
15213	22.065	5.8182	0.	31.04
15214	21.973	5.7273	0.	31.767
15215	21.973	5.8182	5.e-002	1.4961
15216	21.973	5.9091	0.	20.606
15217	22.249	5.8182	0.	31.522
15218	22.157	5.7273	0.	32.604
15219	22.157	5.8182	5.e-002	1.6218
15220	22.157	5.9091	0.	20.965
15221	22.433	5.8182	0.	31.94
15222	22.341	5.7273	0.	33.43
15223	22.341	5.8182	5.e-002	1.7591
15224	22.341	5.9091	0.	21.29
15225	22.618	5.8182	0.	32.282
15226	22.525	5.7273	0.	34.245
15227	22.525	5.8182	5.e-002	1.9096
15228	22.525	5.9091	0.	21.573
15229	22.802	5.8182	0.	32.531
15230	22.71	5.7273	0.	35.054
15231	22.71	5.8182	5.e-002	2.0748
15232	22.71	5.9091	0.	21.804
15233	22.986	5.8182	0.	32.669
15234	22.894	5.7273	0.	35.865
15235	22.894	5.8182	5.e-002	2.2571
15236	22.894	5.9091	0.	21.968
15237	23.171	5.8182	0.	32.68
15238	23.078	5.7273	0.	36.705
15239	23.078	5.8182	5.e-002	2.4595
15240	23.078	5.9091	0.	22.047
15241	23.355	5.8182	0.	32.56
15242	23.263	5.7273	0.	37.635
15243	23.263	5.8182	5.e-002	2.6877
15244	23.263	5.9091	0.	22.015
15245	23.539	5.8182	0.	32.388
15246	23.447	5.7273	0.	38.797
15247	23.447	5.8182	5.e-002	2.9489
15248	23.447	5.9091	0.	21.824
15249	23.724	5.8182	0.	32.864
15250	23.631	5.7273	0.	40.634
15251	23.631	5.8182	5.e-002	3.2772
15252	23.631	5.9091	0.	21.509
15253	23.816	5.7273	0.	44.535
15254	23.816	5.8182	5.e-002	3.9764
15255	23.908	5.8182	0.	34.287
15256	23.816	5.9091	0.	20.965
15257	11.743	5.6364	0.	115.08
15258	11.651	5.5455	0.	232.44
15259	11.651	5.6364	5.e-002	38.016
15260	11.559	5.6364	0.	117.29
15261	11.927	5.6364	0.	77.034
15262	11.835	5.5455	0.	126.09
15263	11.835	5.6364	5.e-002	31.697
15264	12.112	5.6364	0.	72.985
15265	12.02	5.5455	0.	97.742
15266	12.02	5.6364	5.e-002	28.457
15267	12.296	5.6364	0.	72.935
15268	12.204	5.5455	0.	88.286
15269	12.204	5.6364	5.e-002	24.574
15270	12.48	5.6364	0.	70.874
15271	12.388	5.5455	0.	82.19
15272	12.388	5.6364	5.e-002	20.55
15273	12.665	5.6364	0.	66.153
15274	12.573	5.5455	0.	75.431
15275	12.573	5.6364	5.e-002	16.667
15276	12.849	5.6364	0.	59.418
15277	12.757	5.5455	0.	67.289
15278	12.757	5.6364	5.e-002	13.112
15279	13.033	5.6364	0.	51.575
15280	12.941	5.5455	0.	58.189
15281	12.941	5.6364	5.e-002	9.9783
15282	13.218	5.6364	0.	43.41
15283	13.125	5.5455	0.	48.775
15284	13.125	5.6364	5.e-002	7.2921
15285	13.402	5.6364	0.	35.493
15286	13.31	5.5455	0.	39.611
15287	13.31	5.6364	5.e-002	5.0411
15288	13.586	5.6364	0.	28.192
15289	13.494	5.5455	0.	31.096
15290	13.494	5.6364	5.e-002	3.196
15291	13.771	5.6364	0.	21.711
15292	13.678	5.5455	0.	23.474
15293	13.678	5.6364	5.e-002	1.7447
15294	13.955	5.6364	0.	16.135
15295	13.863	5.5455	0.	16.861
15296	13.863	5.6364	5.e-002	0.84876
15297	14.139	5.6364	0.	11.474
15298	14.047	5.5455	0.	11.286
15299	14.047	5.6364	5.e-002	1.0606
15300	14.324	5.6364	0.	7.6842
15301	14.231	5.5455	0.	6.7261
15302	14.231	5.6364	5.e-002	1.7051
15303	14.508	5.6364	0.	4.7006
15304	14.416	5.5455	0.	3.1463
15305	14.416	5.6364	5.e-002	2.2903
15306	14.692	5.6364	0.	2.4504
15307	14.6	5.5455	0.	0.76345
15308	14.6	5.6364	5.e-002	2.7685
15309	14.876	5.6364	0.	0.90617
15310	14.784	5.5455	0.	0.17748
15311	14.784	5.6364	5.e-002	3.1484
15312	15.061	5.6364	0.	0.23622
15313	14.969	5.5455	0.	8.7081e-002
15314	14.969	5.6364	5.e-002	3.4456
15315	15.245	5.6364	0.	0.10851
15316	15.153	5.5455	0.	5.7016e-002
15317	15.153	5.6364	5.e-002	3.6752
15318	15.429	5.6364	0.	7.3833e-002
15319	15.337	5.5455	0.	4.2633e-002
15320	15.337	5.6364	5.e-002	3.8501
15321	15.614	5.6364	0.	5.974e-002
15322	15.522	5.5455	0.	3.4232e-002
15323	15.522	5.6364	5.e-002	3.9815
15324	15.798	5.6364	0.	5.4212e-002
15325	15.706	5.5455	0.	2.8607e-002
15326	15.706	5.6364	5.e-002	4.0781
15327	15.982	5.6364	0.	5.9058e-002
15328	15.89	5.5455	0.	2.445e-002
15329	15.89	5.6364	5.e-002	4.1473
15330	16.167	5.6364	0.	0.19184
15331	16.075	5.5455	0.	2.1129e-002
15332	16.075	5.6364	5.e-002	4.195
15333	16.351	5.6364	0.	0.90946
15334	16.259	5.5455	0.	1.8311e-002
15335	16.259	5.6364	5.e-002	4.2258
15336	16.535	5.6364	0.	1.7912
15337	16.443	5.5455	0.	1.5883e-002
15338	16.443	5.6364	5.e-002	4.2436
15339	16.72	5.6364	0.	2.7506
15340	16.627	5.5455	0.	1.4056e-002
15341	16.627	5.6364	5.e-002	4.2512
15342	16.904	5.6364	0.	3.7632
15343	16.812	5.5455	0.	0.90193
15344	16.812	5.6364	5.e-002	4.2512
15345	17.088	5.6364	0.	4.8122
15346	16.996	5.5455	0.	2.0986
15347	16.996	5.6364	5.e-002	4.2454
15348	17.273	5.6364	0.	5.8844
15349	17.18	5.5455	0.	3.323
15350	17.18	5.6364	5.e-002	4.2353
15351	17.457	5.6364	0.	6.9697
15352	17.365	5.5455	0.	4.5628
15353	17.365	5.6364	5.e-002	4.222
15354	17.641	5.6364	0.	8.0604
15355	17.549	5.5455	0.	5.8088
15356	17.549	5.6364	5.e-002	4.2065
15357	17.825	5.6364	0.	9.151
15358	17.733	5.5455	0.	7.054
15359	17.733	5.6364	5.e-002	4.1895
15360	18.01	5.6364	0.	10.237
15361	17.918	5.5455	0.	8.2936
15362	17.918	5.6364	5.e-002	4.1715
15363	18.194	5.6364	0.	11.317
15364	18.102	5.5455	0.	9.5247
15365	18.102	5.6364	5.e-002	4.1529
15366	18.378	5.6364	0.	12.389
15367	18.286	5.5455	0.	10.745
15368	18.286	5.6364	5.e-002	4.1342
15369	18.563	5.6364	0.	13.452
15370	18.471	5.5455	0.	11.955
15371	18.471	5.6364	5.e-002	4.1155
15372	18.747	5.6364	0.	14.506
15373	18.655	5.5455	0.	13.154
15374	18.655	5.6364	5.e-002	4.0972
15375	18.931	5.6364	0.	15.552
15376	18.839	5.5455	0.	14.343
15377	18.839	5.6364	5.e-002	4.0792
15378	19.116	5.6364	0.	16.591
15379	19.024	5.5455	0.	15.524
15380	19.024	5.6364	5.e-002	4.0619
15381	19.3	5.6364	0.	17.624
15382	19.208	5.5455	0.	16.699
15383	19.208	5.6364	5.e-002	4.0452
15384	19.484	5.6364	0.	18.653
15385	19.392	5.5455	0.	17.87
15386	19.392	5.6364	5.e-002	4.0293
15387	19.669	5.6364	0.	19.679
15388	19.576	5.5455	0.	19.039
15389	19.576	5.6364	5.e-002	4.0142
15390	19.853	5.6364	0.	20.704
15391	19.761	5.5455	0.	20.21
15392	19.761	5.6364	5.e-002	4.
15393	20.037	5.6364	0.	21.731
15394	19.945	5.5455	0.	21.384
15395	19.945	5.6364	5.e-002	3.9867
15396	20.222	5.6364	0.	22.76
15397	20.129	5.5455	0.	22.566
15398	20.129	5.6364	5.e-002	3.9745
15399	20.406	5.6364	0.	23.794
15400	20.314	5.5455	0.	23.757
15401	20.314	5.6364	5.e-002	3.9632
15402	20.59	5.6364	0.	24.834
15403	20.498	5.5455	0.	24.962
15404	20.498	5.6364	5.e-002	3.9531
15405	20.775	5.6364	0.	25.882
15406	20.682	5.5455	0.	26.183
15407	20.682	5.6364	5.e-002	3.9441
15408	20.959	5.6364	0.	26.94
15409	20.867	5.5455	0.	27.423
15410	20.867	5.6364	5.e-002	3.9363
15411	21.143	5.6364	0.	28.01
15412	21.051	5.5455	0.	28.688
15413	21.051	5.6364	5.e-002	3.9297
15414	21.327	5.6364	0.	29.093
15415	21.235	5.5455	0.	29.979
15416	21.235	5.6364	5.e-002	3.9244
15417	21.512	5.6364	0.	30.192
15418	21.42	5.5455	0.	31.303
15419	21.42	5.6364	5.e-002	3.9205
15420	21.696	5.6364	0.	31.31
15421	21.604	5.5455	0.	32.665
15422	21.604	5.6364	5.e-002	3.918
15423	21.88	5.6364	0.	32.45
15424	21.788	5.5455	0.	34.071
15425	21.788	5.6364	5.e-002	3.9169
15426	22.065	5.6364	0.	33.617
15427	21.973	5.5455	0.	35.532
15428	21.973	5.6364	5.e-002	3.9174
15429	22.249	5.6364	0.	34.819
15430	22.157	5.5455	0.	37.058
15431	22.157	5.6364	5.e-002	3.9196
15432	22.433	5.6364	0.	36.067
15433	22.341	5.5455	0.	38.669
15434	22.341	5.6364	5.e-002	3.9237
15435	22.618	5.6364	0.	37.381
15436	22.525	5.5455	0.	40.389
15437	22.525	5.6364	5.e-002	3.9299
15438	22.802	5.6364	0.	38.792
15439	22.71	5.5455	0.	42.258
15440	22.71	5.6364	5.e-002	3.9387
15441	22.986	5.6364	0.	40.357
15442	22.894	5.5455	0.	44.338
15443	22.894	5.6364	5.e-002	3.951
15444	23.171	5.6364	0.	42.183
15445	23.078	5.5455	0.	46.731
15446	23.078	5.6364	5.e-002	3.9685
15447	23.355	5.6364	0.	44.478
15448	23.263	5.5455	0.	49.619
15449	23.263	5.6364	5.e-002	3.9947
15450	23.539	5.6364	0.	47.727
15451	23.447	5.5455	0.	53.31
15452	23.447	5.6364	5.e-002	4.04
15453	23.724	5.6364	0.	52.938
15454	23.631	5.5455	0.	58.449
15455	23.631	5.6364	5.e-002	4.1442
15456	23.816	5.5455	0.	65.987
15457	23.816	5.6364	5.e-002	4.5143
15458	23.908	5.6364	0.	59.285
15459	11.743	5.4545	0.	220.94
15460	11.651	5.3636	0.	379.74
15461	11.651	5.4545	5.e-002	40.722
15462	11.559	5.4545	0.	227.42
15463	11.927	5.4545	0.	137.05
15464	11.835	5.3636	0.	220.13
15465	11.835	5.4545	5.e-002	32.044
15466	12.112	5.4545	0.	108.5
15467	12.02	5.3636	0.	155.08
15468	12.02	5.4545	5.e-002	28.544
15469	12.296	5.4545	0.	95.078
15470	12.204	5.3636	0.	121.97
15471	12.204	5.4545	5.e-002	24.397
15472	12.48	5.4545	0.	85.272
15473	12.388	5.3636	0.	101.25
15474	12.388	5.4545	5.e-002	20.127
15475	12.665	5.4545	0.	75.641
15476	12.573	5.3636	0.	85.425
15477	12.573	5.4545	5.e-002	16.093
15478	12.849	5.4545	0.	65.473
15479	12.757	5.3636	0.	71.541
15480	12.757	5.4545	5.e-002	12.497
15481	13.033	5.4545	0.	55.023
15482	12.941	5.3636	0.	58.704
15483	12.941	5.4545	5.e-002	9.4103
15484	13.218	5.4545	0.	44.757
15485	13.125	5.3636	0.	46.781
15486	13.125	5.4545	5.e-002	6.8354
15487	13.402	5.4545	0.	35.093
15488	13.31	5.3636	0.	35.876
15489	13.31	5.4545	5.e-002	4.7497
15490	13.586	5.4545	0.	26.323
15491	13.494	5.3636	0.	26.121
15492	13.494	5.4545	5.e-002	3.1429
15493	13.771	5.4545	0.	18.614
15494	13.678	5.3636	0.	17.612
15495	13.678	5.4545	5.e-002	2.0744
15496	13.955	5.4545	0.	12.039
15497	13.863	5.3636	0.	10.401
15498	13.863	5.4545	5.e-002	1.7022
15499	14.139	5.4545	0.	6.614
15500	14.047	5.3636	0.	4.5891
15501	14.047	5.4545	5.e-002	1.9403
15502	14.324	5.4545	0.	2.432
15503	14.231	5.3636	0.	1.0552
15504	14.231	5.4545	5.e-002	2.393
15505	14.508	5.4545	0.	0.45789
15506	14.416	5.3636	0.	0.30375
15507	14.416	5.4545	5.e-002	2.8427
15508	14.692	5.4545	0.	0.16072
15509	14.6	5.3636	0.	0.14733
15510	14.6	5.4545	5.e-002	3.23
15511	14.876	5.4545	0.	8.746e-002
15512	14.784	5.3636	0.	8.9096e-002
15513	14.784	5.4545	5.e-002	3.5465
15514	15.061	5.4545	0.	5.6994e-002
15515	14.969	5.3636	0.	6.0555e-002
15516	14.969	5.4545	5.e-002	3.7984
15517	15.245	5.4545	0.	4.0893e-002
15518	15.153	5.3636	0.	4.427e-002
15519	15.153	5.4545	5.e-002	3.995
15520	15.429	5.4545	0.	3.1116e-002
15521	15.337	5.3636	0.	3.4008e-002
15522	15.337	5.4545	5.e-002	4.1459
15523	15.614	5.4545	0.	2.46e-002
15524	15.522	5.3636	0.	2.7064e-002
15525	15.522	5.4545	5.e-002	4.2596
15526	15.798	5.4545	0.	1.9959e-002
15527	15.706	5.3636	0.	2.2103e-002
15528	15.706	5.4545	5.e-002	4.3435
15529	15.982	5.4545	0.	1.649e-002
15530	15.89	5.3636	0.	1.842e-002
15531	15.89	5.4545	5.e-002	4.4036
15532	16.167	5.4545	0.	1.3793e-002
15533	16.075	5.3636	0.	1.5601e-002
15534	16.075	5.4545	5.e-002	4.4449
15535	16.351	5.4545	0.	1.1673e-002
15536	16.259	5.3636	0.	1.3393e-002
15537	16.259	5.4545	5.e-002	4.4712
15538	16.535	5.4545	0.	1.0062e-002
15539	16.443	5.3636	0.	1.1713e-002
15540	16.443	5.4545	5.e-002	4.486
15541	16.72	5.4545	0.	9.082e-003
15542	16.627	5.3636	0.	1.0516e-002
15543	16.627	5.4545	5.e-002	4.4918
15544	16.904	5.4545	0.	1.0623e-002
15545	16.812	5.3636	0.	9.9262e-003
15546	16.812	5.4545	5.e-002	4.4906
15547	17.088	5.4545	0.	0.64491
15548	16.996	5.3636	0.	1.0706e-002
15549	16.996	5.4545	5.e-002	4.4841
15550	17.273	5.4545	0.	2.0338
15551	17.18	5.3636	0.	2.1182e-002
15552	17.18	5.4545	5.e-002	4.4737
15553	17.457	5.4545	0.	3.4344
15554	17.365	5.3636	0.	0.94957
15555	17.365	5.4545	5.e-002	4.4603
15556	17.641	5.4545	0.	4.8353
15557	17.549	5.3636	0.	2.5138
15558	17.549	5.4545	5.e-002	4.4447
15559	17.825	5.4545	0.	6.2304
15560	17.733	5.3636	0.	4.0744
15561	17.733	5.4545	5.e-002	4.4276
15562	18.01	5.4545	0.	7.6156
15563	17.918	5.3636	0.	5.6225
15564	17.918	5.4545	5.e-002	4.4094
15565	18.194	5.4545	0.	8.9886
15566	18.102	5.3636	0.	7.1548
15567	18.102	5.4545	5.e-002	4.3906
15568	18.378	5.4545	0.	10.349
15569	18.286	5.3636	0.	8.6704
15570	18.286	5.4545	5.e-002	4.3714
15571	18.563	5.4545	0.	11.696
15572	18.471	5.3636	0.	10.17
15573	18.471	5.4545	5.e-002	4.3522
15574	18.747	5.4545	0.	13.031
15575	18.655	5.3636	0.	11.654
15576	18.655	5.4545	5.e-002	4.333
15577	18.931	5.4545	0.	14.357
15578	18.839	5.3636	0.	13.126
15579	18.839	5.4545	5.e-002	4.3141
15580	19.116	5.4545	0.	15.676
15581	19.024	5.3636	0.	14.589
15582	19.024	5.4545	5.e-002	4.2955
15583	19.3	5.4545	0.	16.99
15584	19.208	5.3636	0.	16.046
15585	19.208	5.4545	5.e-002	4.2773
15586	19.484	5.4545	0.	18.303
15587	19.392	5.3636	0.	17.501
15588	19.392	5.4545	5.e-002	4.2597
15589	19.669	5.4545	0.	19.618
15590	19.576	5.3636	0.	18.959
15591	19.576	5.4545	5.e-002	4.2426
15592	19.853	5.4545	0.	20.94
15593	19.761	5.3636	0.	20.424
15594	19.761	5.4545	5.e-002	4.2262
15595	20.037	5.4545	0.	22.272
15596	19.945	5.3636	0.	21.901
15597	19.945	5.4545	5.e-002	4.2104
15598	20.222	5.4545	0.	23.619
15599	20.129	5.3636	0.	23.396
15600	20.129	5.4545	5.e-002	4.1954
15601	20.406	5.4545	0.	24.984
15602	20.314	5.3636	0.	24.914
15603	20.314	5.4545	5.e-002	4.1811
15604	20.59	5.4545	0.	26.373
15605	20.498	5.3636	0.	26.462
15606	20.498	5.4545	5.e-002	4.1676
15607	20.775	5.4545	0.	27.79
15608	20.682	5.3636	0.	28.045
15609	20.682	5.4545	5.e-002	4.1549
15610	20.959	5.4545	0.	29.241
15611	20.867	5.3636	0.	29.67
15612	20.867	5.4545	5.e-002	4.1431
15613	21.143	5.4545	0.	30.732
15614	21.051	5.3636	0.	31.345
15615	21.051	5.4545	5.e-002	4.1322
15616	21.327	5.4545	0.	32.269
15617	21.235	5.3636	0.	33.079
15618	21.235	5.4545	5.e-002	4.1223
15619	21.512	5.4545	0.	33.862
15620	21.42	5.3636	0.	34.881
15621	21.42	5.4545	5.e-002	4.1134
15622	21.696	5.4545	0.	35.52
15623	21.604	5.3636	0.	36.765
15624	21.604	5.4545	5.e-002	4.1056
15625	21.88	5.4545	0.	37.255
15626	21.788	5.3636	0.	38.744
15627	21.788	5.4545	5.e-002	4.0989
15628	22.065	5.4545	0.	39.085
15629	21.973	5.3636	0.	40.837
15630	21.973	5.4545	5.e-002	4.0935
15631	22.249	5.4545	0.	41.033
15632	22.157	5.3636	0.	43.07
15633	22.157	5.4545	5.e-002	4.0896
15634	22.433	5.4545	0.	43.129
15635	22.341	5.3636	0.	45.475
15636	22.341	5.4545	5.e-002	4.0874
15637	22.618	5.4545	0.	45.421
15638	22.525	5.3636	0.	48.098
15639	22.525	5.4545	5.e-002	4.0873
15640	22.802	5.4545	0.	47.978
15641	22.71	5.3636	0.	51.004
15642	22.71	5.4545	5.e-002	4.09
15643	22.986	5.4545	0.	50.907
15644	22.894	5.3636	0.	54.289
15645	22.894	5.4545	5.e-002	4.097
15646	23.171	5.4545	0.	54.38
15647	23.078	5.3636	0.	58.091
15648	23.078	5.4545	5.e-002	4.1104
15649	23.355	5.4545	0.	58.67
15650	23.263	5.3636	0.	62.623
15651	23.263	5.4545	5.e-002	4.1356
15652	23.539	5.4545	0.	64.229
15653	23.447	5.3636	0.	68.179
15654	23.447	5.4545	5.e-002	4.183
15655	23.724	5.4545	0.	71.639
15656	23.631	5.3636	0.	75.228
15657	23.631	5.4545	5.e-002	4.279
15658	23.816	5.3636	0.	84.151
15659	23.816	5.4545	5.e-002	4.57
15660	23.908	5.4545	0.	79.538
15661	11.743	5.2727	0.	354.7
15662	11.651	5.1818	0.	552.36
15663	11.651	5.2727	5.e-002	46.01
15664	11.559	5.2727	0.	355.64
15665	11.927	5.2727	0.	223.25
15666	11.835	5.1818	0.	337.31
15667	11.835	5.2727	5.e-002	33.93
15668	12.112	5.2727	0.	160.34
15669	12.02	5.1818	0.	229.23
15670	12.02	5.2727	5.e-002	29.543
15671	12.296	5.2727	0.	123.56
15672	12.204	5.1818	0.	163.5
15673	12.204	5.2727	5.e-002	24.703
15674	12.48	5.2727	0.	98.764
15675	12.388	5.1818	0.	120.69
15676	12.388	5.2727	5.e-002	19.983
15677	12.665	5.2727	0.	79.77
15678	12.573	5.1818	0.	90.907
15679	12.573	5.2727	5.e-002	15.744
15680	12.849	5.2727	0.	63.855
15681	12.757	5.1818	0.	68.618
15682	12.757	5.2727	5.e-002	12.131
15683	13.033	5.2727	0.	49.932
15684	12.941	5.1818	0.	50.949
15685	12.941	5.2727	5.e-002	9.1526
15686	13.218	5.2727	0.	37.611
15687	13.125	5.1818	0.	36.423
15688	13.125	5.2727	5.e-002	6.7664
15689	13.402	5.2727	0.	26.773
15690	13.31	5.1818	0.	24.295
15691	13.31	5.2727	5.e-002	4.9293
15692	13.586	5.2727	0.	17.399
15693	13.494	5.1818	0.	14.223
15694	13.494	5.2727	5.e-002	3.6256
15695	13.771	5.2727	0.	9.5269
15696	13.678	5.1818	0.	6.2831
15697	13.678	5.2727	5.e-002	2.8692
15698	13.955	5.2727	0.	3.4983
15699	13.863	5.1818	0.	1.7674
15700	13.863	5.2727	5.e-002	2.6311
15701	14.139	5.2727	0.	0.83505
15702	14.047	5.1818	0.	0.60512
15703	14.047	5.2727	5.e-002	2.7491
15704	14.324	5.2727	0.	0.31681
15705	14.231	5.1818	0.	0.29524
15706	14.231	5.2727	5.e-002	3.0209
15707	14.508	5.2727	0.	0.16751
15708	14.416	5.1818	0.	0.17249
15709	14.416	5.2727	5.e-002	3.3213
15710	14.692	5.2727	0.	0.10403
15711	14.6	5.1818	0.	0.11192
15712	14.6	5.2727	5.e-002	3.5969
15713	14.876	5.2727	0.	7.1116e-002
15714	14.784	5.1818	0.	7.7924e-002
15715	14.784	5.2727	5.e-002	3.8309
15716	15.061	5.2727	0.	5.1889e-002
15717	14.969	5.1818	0.	5.7146e-002
15718	14.969	5.2727	5.e-002	4.021
15719	15.245	5.2727	0.	3.9689e-002
15720	15.153	5.1818	0.	4.3621e-002
15721	15.153	5.2727	5.e-002	4.171
15722	15.429	5.2727	0.	3.1456e-002
15723	15.337	5.1818	0.	3.4377e-002
15724	15.337	5.2727	5.e-002	4.2866
15725	15.614	5.2727	0.	2.5625e-002
15726	15.522	5.1818	0.	2.781e-002
15727	15.522	5.2727	5.e-002	4.3733
15728	15.798	5.2727	0.	2.1339e-002
15729	15.706	5.1818	0.	2.2993e-002
15730	15.706	5.2727	5.e-002	4.4363
15731	15.982	5.2727	0.	1.8099e-002
15732	15.89	5.1818	0.	1.9384e-002
15733	15.89	5.2727	5.e-002	4.4803
15734	16.167	5.2727	0.	1.5592e-002
15735	16.075	5.1818	0.	1.6625e-002
15736	16.075	5.2727	5.e-002	4.5091
15737	16.351	5.2727	0.	1.365e-002
15738	16.259	5.1818	0.	1.4485e-002
15739	16.259	5.2727	5.e-002	4.5259
15740	16.535	5.2727	0.	1.219e-002
15741	16.443	5.1818	0.	1.2867e-002
15742	16.443	5.2727	5.e-002	4.5332
15743	16.72	5.2727	0.	1.1185e-002
15744	16.627	5.1818	0.	1.1688e-002
15745	16.627	5.2727	5.e-002	4.5331
15746	16.904	5.2727	0.	1.0745e-002
15747	16.812	5.1818	0.	1.093e-002
15748	16.812	5.2727	5.e-002	4.5274
15749	17.088	5.2727	0.	1.1354e-002
15750	16.996	5.1818	0.	1.0701e-002
15751	16.996	5.2727	5.e-002	4.5174
15752	17.273	5.2727	0.	1.5632e-002
15753	17.18	5.1818	0.	1.1375e-002
15754	17.18	5.2727	5.e-002	4.5042
15755	17.457	5.2727	0.	0.15794
15756	17.365	5.1818	0.	1.455e-002
15757	17.365	5.2727	5.e-002	4.4886
15758	17.641	5.2727	0.	1.7842
15759	17.549	5.1818	0.	3.8715e-002
15760	17.549	5.2727	5.e-002	4.4713
15761	17.825	5.2727	0.	3.496
15762	17.733	5.1818	0.	1.241
15763	17.733	5.2727	5.e-002	4.4528
15764	18.01	5.2727	0.	5.1916
15765	17.918	5.1818	0.	3.0992
15766	17.918	5.2727	5.e-002	4.4336
15767	18.194	5.2727	0.	6.8674
15768	18.102	5.1818	0.	4.9397
15769	18.102	5.2727	5.e-002	4.4139
15770	18.378	5.2727	0.	8.5235
15771	18.286	5.1818	0.	6.756
15772	18.286	5.2727	5.e-002	4.394
15773	18.563	5.2727	0.	10.161
15774	18.471	5.1818	0.	8.5492
15775	18.471	5.2727	5.e-002	4.3743
15776	18.747	5.2727	0.	11.784
15777	18.655	5.1818	0.	10.322
15778	18.655	5.2727	5.e-002	4.3546
15779	18.931	5.2727	0.	13.394
15780	18.839	5.1818	0.	12.079
15781	18.839	5.2727	5.e-002	4.3353
15782	19.116	5.2727	0.	14.996
15783	19.024	5.1818	0.	13.825
15784	19.024	5.2727	5.e-002	4.3164
15785	19.3	5.2727	0.	16.595
15786	19.208	5.1818	0.	15.565
15787	19.208	5.2727	5.e-002	4.298
15788	19.484	5.2727	0.	18.196
15789	19.392	5.1818	0.	17.305
15790	19.392	5.2727	5.e-002	4.2802
15791	19.669	5.2727	0.	19.805
15792	19.576	5.1818	0.	19.052
15793	19.576	5.2727	5.e-002	4.2629
15794	19.853	5.2727	0.	21.428
15795	19.761	5.1818	0.	20.813
15796	19.761	5.2727	5.e-002	4.2463
15797	20.037	5.2727	0.	23.071
15798	19.945	5.1818	0.	22.595
15799	19.945	5.2727	5.e-002	4.2305
15800	20.222	5.2727	0.	24.74
15801	20.129	5.1818	0.	24.405
15802	20.129	5.2727	5.e-002	4.2153
15803	20.406	5.2727	0.	26.443
15804	20.314	5.1818	0.	26.252
15805	20.314	5.2727	5.e-002	4.201
15806	20.59	5.2727	0.	28.187
15807	20.498	5.1818	0.	28.145
15808	20.498	5.2727	5.e-002	4.1875
15809	20.775	5.2727	0.	29.981
15810	20.682	5.1818	0.	30.093
15811	20.682	5.2727	5.e-002	4.1749
15812	20.959	5.2727	0.	31.834
15813	20.867	5.1818	0.	32.106
15814	20.867	5.2727	5.e-002	4.1633
15815	21.143	5.2727	0.	33.755
15816	21.051	5.1818	0.	34.197
15817	21.051	5.2727	5.e-002	4.1526
15818	21.327	5.2727	0.	35.758
15819	21.235	5.1818	0.	36.377
15820	21.235	5.2727	5.e-002	4.143
15821	21.512	5.2727	0.	37.856
15822	21.42	5.1818	0.	38.662
15823	21.42	5.2727	5.e-002	4.1345
15824	21.696	5.2727	0.	40.066
15825	21.604	5.1818	0.	41.071
15826	21.604	5.2727	5.e-002	4.1272
15827	21.88	5.2727	0.	42.409
15828	21.788	5.1818	0.	43.624
15829	21.788	5.2727	5.e-002	4.1213
15830	22.065	5.2727	0.	44.911
15831	21.973	5.1818	0.	46.349
15832	21.973	5.2727	5.e-002	4.117
15833	22.249	5.2727	0.	47.609
15834	22.157	5.1818	0.	49.28
15835	22.157	5.2727	5.e-002	4.1144
15836	22.433	5.2727	0.	50.548
15837	22.341	5.1818	0.	52.461
15838	22.341	5.2727	5.e-002	4.114
15839	22.618	5.2727	0.	53.794
15840	22.525	5.1818	0.	55.951
15841	22.525	5.2727	5.e-002	4.1164
15842	22.802	5.2727	0.	57.435
15843	22.71	5.1818	0.	59.827
15844	22.71	5.2727	5.e-002	4.1226
15845	22.986	5.2727	0.	61.598
15846	22.894	5.1818	0.	64.194
15847	22.894	5.2727	5.e-002	4.1341
15848	23.171	5.2727	0.	66.457
15849	23.078	5.1818	0.	69.192
15850	23.078	5.2727	5.e-002	4.1537
15851	23.355	5.2727	0.	72.243
15852	23.263	5.1818	0.	75.007
15853	23.263	5.2727	5.e-002	4.1862
15854	23.539	5.2727	0.	79.265
15855	23.447	5.1818	0.	81.847
15856	23.447	5.2727	5.e-002	4.2395
15857	23.724	5.2727	0.	87.802
15858	23.631	5.1818	0.	90.002
15859	23.631	5.2727	5.e-002	4.3318
15860	23.816	5.1818	0.	99.57
15861	23.816	5.2727	5.e-002	4.5745
15862	23.908	5.2727	0.	96.453
15863	11.743	5.0909	0.	509.76
15864	11.651	5.	0.	753.62
15865	11.651	5.0909	5.e-002	53.891
15866	11.559	5.0909	0.	504.64
15867	11.927	5.0909	0.	325.23
15868	11.835	5.	0.	470.28
15869	11.835	5.0909	5.e-002	37.247
15870	12.112	5.0909	0.	221.11
15871	12.02	5.	0.	310.74
15872	12.02	5.0909	5.e-002	31.143
15873	12.296	5.0909	0.	153.98
15874	12.204	5.	0.	205.46
15875	12.204	5.0909	5.e-002	25.098
15876	12.48	5.0909	0.	108.99
15877	12.388	5.	0.	135.73
15878	12.388	5.0909	5.e-002	19.742
15879	12.665	5.0909	0.	77.553
15880	12.573	5.	0.	89.314
15881	12.573	5.0909	5.e-002	15.31
15882	12.849	5.0909	0.	54.481
15883	12.757	5.	0.	57.561
15884	12.757	5.0909	5.e-002	11.777
15885	13.033	5.0909	0.	36.807
15886	12.941	5.	0.	35.111
15887	12.941	5.0909	5.e-002	9.0198
15888	13.218	5.0909	0.	22.893
15889	13.125	5.	0.	18.892
15890	13.125	5.0909	5.e-002	6.9203
15891	13.402	5.0909	0.	11.98
15892	13.31	5.	0.	7.785
15893	13.31	5.0909	5.e-002	5.3906
15894	13.586	5.0909	0.	4.4158
15895	13.494	5.	0.	2.5375
15896	13.494	5.0909	5.e-002	4.3692
15897	13.771	5.0909	0.	1.3846
15898	13.678	5.	0.	1.0391
15899	13.678	5.0909	5.e-002	3.794
15900	13.955	5.0909	0.	0.59659
15901	13.863	5.	0.	0.53825
15902	13.863	5.0909	5.e-002	3.5698
15903	14.139	5.0909	0.	0.32142
15904	14.047	5.	0.	0.31803
15905	14.047	5.0909	5.e-002	3.5723
15906	14.324	5.0909	0.	0.19604
15907	14.231	5.	0.	0.20393
15908	14.231	5.0909	5.e-002	3.6898
15909	14.508	5.0909	0.	0.12946
15910	14.416	5.	0.	0.13852
15911	14.416	5.0909	5.e-002	3.8482
15912	14.692	5.0909	0.	9.0513e-002
15913	14.6	5.	0.	9.8342e-002
15914	14.6	5.0909	5.e-002	4.008
15915	14.876	5.0909	0.	6.6129e-002
15916	14.784	5.	0.	7.2369e-002
15917	14.784	5.0909	5.e-002	4.1509
15918	15.061	5.0909	0.	5.0059e-002
15919	14.969	5.	0.	5.4893e-002
15920	14.969	5.0909	5.e-002	4.2705
15921	15.245	5.0909	0.	3.9028e-002
15922	15.153	5.	0.	4.274e-002
15923	15.153	5.0909	5.e-002	4.3662
15924	15.429	5.0909	0.	3.1202e-002
15925	15.337	5.	0.	3.4058e-002
15926	15.337	5.0909	5.e-002	4.4397
15927	15.614	5.0909	0.	2.5499e-002
15928	15.522	5.	0.	2.7713e-002
15929	15.522	5.0909	5.e-002	4.4939
15930	15.798	5.0909	0.	2.1256e-002
15931	15.706	5.	0.	2.299e-002
15932	15.706	5.0909	5.e-002	4.5317
15933	15.982	5.0909	0.	1.805e-002
15934	15.89	5.	0.	1.9433e-002
15935	15.89	5.0909	5.e-002	4.5562
15936	16.167	5.0909	0.	1.5595e-002
15937	16.075	5.	0.	1.6723e-002
15938	16.075	5.0909	5.e-002	4.5697
15939	16.351	5.0909	0.	1.3721e-002
15940	16.259	5.	0.	1.4636e-002
15941	16.259	5.0909	5.e-002	4.5746
15942	16.535	5.0909	0.	1.233e-002
15943	16.443	5.	0.	1.3073e-002
15944	16.443	5.0909	5.e-002	4.5726
15945	16.72	5.0909	0.	1.1348e-002
15946	16.627	5.	0.	1.1932e-002
15947	16.627	5.0909	5.e-002	4.5653
15948	16.904	5.0909	0.	1.077e-002
15949	16.812	5.	0.	1.1155e-002
15950	16.812	5.0909	5.e-002	4.5539
15951	17.088	5.0909	0.	1.069e-002
15952	16.996	5.	0.	1.0759e-002
15953	16.996	5.0909	5.e-002	4.5395
15954	17.273	5.0909	0.	1.1423e-002
15955	17.18	5.	0.	1.083e-002
15956	17.18	5.0909	5.e-002	4.5228
15957	17.457	5.0909	0.	1.418e-002
15958	17.365	5.	0.	1.1664e-002
15959	17.365	5.0909	5.e-002	4.5044
15960	17.641	5.0909	0.	2.8344e-002
15961	17.549	5.	0.	1.4337e-002
15962	17.549	5.0909	5.e-002	4.4849
15963	17.825	5.0909	0.	0.88206
15964	17.733	5.	0.	2.606e-002
15965	17.733	5.0909	5.e-002	4.4648
15966	18.01	5.0909	0.	2.8764
15967	17.918	5.	0.	0.71162
15968	17.918	5.0909	5.e-002	4.4442
15969	18.194	5.0909	0.	4.8578
15970	18.102	5.	0.	2.8358
15971	18.102	5.0909	5.e-002	4.4235
15972	18.378	5.0909	0.	6.8122
15973	18.286	5.	0.	4.9522
15974	18.286	5.0909	5.e-002	4.4028
15975	18.563	5.0909	0.	8.7417
15976	18.471	5.	0.	7.0387
15977	18.471	5.0909	5.e-002	4.3823
15978	18.747	5.0909	0.	10.651
15979	18.655	5.	0.	9.0988
15980	18.655	5.0909	5.e-002	4.3622
15981	18.931	5.0909	0.	12.544
15982	18.839	5.	0.	11.138
15983	18.839	5.0909	5.e-002	4.3425
15984	19.116	5.0909	0.	14.429
15985	19.024	5.	0.	13.164
15986	19.024	5.0909	5.e-002	4.3233
15987	19.3	5.0909	0.	16.312
15988	19.208	5.	0.	15.183
15989	19.208	5.0909	5.e-002	4.3047
15990	19.484	5.0909	0.	18.199
15991	19.392	5.	0.	17.205
15992	19.392	5.0909	5.e-002	4.2867
15993	19.669	5.0909	0.	20.099
15994	19.576	5.	0.	19.237
15995	19.576	5.0909	5.e-002	4.2694
15996	19.853	5.0909	0.	22.021
15997	19.761	5.	0.	21.289
15998	19.761	5.0909	5.e-002	4.2528
15999	20.037	5.0909	0.	23.972
16000	19.945	5.	0.	23.371
16001	19.945	5.0909	5.e-002	4.2369
16002	20.222	5.0909	0.	25.963
16003	20.129	5.	0.	25.492
16004	20.129	5.0909	5.e-002	4.2219
16005	20.406	5.0909	0.	28.002
16006	20.314	5.	0.	27.664
16007	20.314	5.0909	5.e-002	4.2078
16008	20.59	5.0909	0.	30.101
16009	20.498	5.	0.	29.898
16010	20.498	5.0909	5.e-002	4.1945
16011	20.775	5.0909	0.	32.271
16012	20.682	5.	0.	32.206
16013	20.682	5.0909	5.e-002	4.1822
16014	20.959	5.0909	0.	34.524
16015	20.867	5.	0.	34.603
16016	20.867	5.0909	5.e-002	4.171
16017	21.143	5.0909	0.	36.876
16018	21.051	5.	0.	37.102
16019	21.051	5.0909	5.e-002	4.1608
16020	21.327	5.0909	0.	39.342
16021	21.235	5.	0.	39.722
16022	21.235	5.0909	5.e-002	4.1518
16023	21.512	5.0909	0.	41.941
16024	21.42	5.	0.	42.481
16025	21.42	5.0909	5.e-002	4.1441
16026	21.696	5.0909	0.	44.697
16027	21.604	5.	0.	45.402
16028	21.604	5.0909	5.e-002	4.1378
16029	21.88	5.0909	0.	47.636
16030	21.788	5.	0.	48.512
16031	21.788	5.0909	5.e-002	4.133
16032	22.065	5.0909	0.	50.793
16033	21.973	5.	0.	51.845
16034	21.973	5.0909	5.e-002	4.1302
16035	22.249	5.0909	0.	54.212
16036	22.157	5.	0.	55.439
16037	22.157	5.0909	5.e-002	4.1294
16038	22.433	5.0909	0.	57.947
16039	22.341	5.	0.	59.346
16040	22.341	5.0909	5.e-002	4.1314
16041	22.618	5.0909	0.	62.069
16042	22.525	5.	0.	63.627
16043	22.525	5.0909	5.e-002	4.1366
16044	22.802	5.0909	0.	66.672
16045	22.71	5.	0.	68.362
16046	22.71	5.0909	5.e-002	4.1464
16047	22.986	5.0909	0.	71.873
16048	22.894	5.	0.	73.649
16049	22.894	5.0909	5.e-002	4.1622
16050	23.171	5.0909	0.	77.819
16051	23.078	5.	0.	79.607
16052	23.078	5.0909	5.e-002	4.1867
16053	23.355	5.0909	0.	84.675
16054	23.263	5.	0.	86.376
16055	23.263	5.0909	5.e-002	4.2238
16056	23.539	5.0909	0.	92.631
16057	23.447	5.	0.	94.085
16058	23.447	5.0909	5.e-002	4.2789
16059	23.724	5.0909	0.	101.81
16060	23.631	5.	0.	102.92
16061	23.631	5.0909	5.e-002	4.3635
16062	23.816	5.	0.	112.83
16063	23.816	5.0909	5.e-002	4.571
16064	23.908	5.0909	0.	110.9
16065	11.743	4.9091	0.	686.48
16066	11.651	4.8182	0.	993.79
16067	11.651	4.9091	5.e-002	65.041
16068	11.559	4.9091	0.	681.72
16069	11.927	4.9091	0.	435.29
16070	11.835	4.8182	0.	614.32
16071	11.835	4.9091	5.e-002	42.222
16072	12.112	4.9091	0.	281.64
16073	12.02	4.8182	0.	387.98
16074	12.02	4.9091	5.e-002	33.187
16075	12.296	4.9091	0.	179.03
16076	12.204	4.8182	0.	237.39
16077	12.204	4.9091	5.e-002	25.39
16078	12.48	4.9091	0.	111.28
16079	12.388	4.8182	0.	139.36
16080	12.388	4.9091	5.e-002	19.353
16081	12.665	4.9091	0.	66.628
16082	12.573	4.8182	0.	76.86
16083	12.573	4.9091	5.e-002	14.884
16084	12.849	4.9091	0.	36.83
16085	12.757	4.8182	0.	37.3
16086	12.757	4.9091	5.e-002	11.594
16087	13.033	4.9091	0.	17.039
16088	12.941	4.8182	0.	13.646
16089	12.941	4.9091	5.e-002	9.17
16090	13.218	4.9091	0.	5.8399
16091	13.125	4.8182	0.	4.0535
16092	13.125	4.9091	5.e-002	7.4001
16093	13.402	4.9091	0.	2.0802
16094	13.31	4.8182	0.	1.6734
16095	13.31	4.9091	5.e-002	6.1449
16096	13.586	4.9091	0.	0.98689
16097	13.494	4.8182	0.	0.88875
16098	13.494	4.9091	5.e-002	5.3037
16099	13.771	4.9091	0.	0.55487
16100	13.678	4.8182	0.	0.53463
16101	13.678	4.9091	5.e-002	4.7881
16102	13.955	4.9091	0.	0.34337
16103	13.863	4.8182	0.	0.34552
16104	13.863	4.9091	5.e-002	4.5118
16105	14.139	4.9091	0.	0.22619
16106	14.047	4.8182	0.	0.2343
16107	14.047	4.9091	5.e-002	4.3948
16108	14.324	4.9091	0.	0.15597
16109	14.231	4.8182	0.	0.1647
16110	14.231	4.9091	5.e-002	4.3724
16111	14.508	4.9091	0.	0.11152
16112	14.416	4.8182	0.	0.11922
16113	14.416	4.9091	5.e-002	4.399
16114	14.692	4.9091	0.	8.2203e-002
16115	14.6	4.8182	0.	8.8493e-002
16116	14.6	4.9091	5.e-002	4.4458
16117	14.876	4.9091	0.	6.2212e-002
16118	14.784	4.8182	0.	6.7173e-002
16119	14.784	4.9091	5.e-002	4.4966
16120	15.061	4.9091	0.	4.8207e-002
16121	14.969	4.8182	0.	5.2052e-002
16122	14.969	4.9091	5.e-002	4.5426
16123	15.245	4.9091	0.	3.8167e-002
16124	15.153	4.8182	0.	4.1121e-002
16125	15.153	4.9091	5.e-002	4.5803
16126	15.429	4.9091	0.	3.0828e-002
16127	15.337	4.8182	0.	3.3095e-002
16128	15.337	4.9091	5.e-002	4.6082
16129	15.614	4.9091	0.	2.5376e-002
16130	15.522	4.8182	0.	2.712e-002
16131	15.522	4.9091	5.e-002	4.6268
16132	15.798	4.9091	0.	2.1279e-002
16133	15.706	4.8182	0.	2.2624e-002
16134	15.706	4.9091	5.e-002	4.6368
16135	15.982	4.9091	0.	1.8172e-002
16136	15.89	4.8182	0.	1.9224e-002
16137	15.89	4.9091	5.e-002	4.6394
16138	16.167	4.9091	0.	1.5795e-002
16139	16.075	4.8182	0.	1.6633e-002
16140	16.075	4.9091	5.e-002	4.636
16141	16.351	4.9091	0.	1.3987e-002
16142	16.259	4.8182	0.	1.4646e-002
16143	16.259	4.9091	5.e-002	4.6275
16144	16.535	4.9091	0.	1.2647e-002
16145	16.443	4.8182	0.	1.3165e-002
16146	16.443	4.9091	5.e-002	4.6151
16147	16.72	4.9091	0.	1.1686e-002
16148	16.627	4.8182	0.	1.2084e-002
16149	16.627	4.9091	5.e-002	4.5997
16150	16.904	4.9091	0.	1.1067e-002
16151	16.812	4.8182	0.	1.1334e-002
16152	16.812	4.9091	5.e-002	4.5819
16153	17.088	4.9091	0.	1.0805e-002
16154	16.996	4.8182	0.	1.09e-002
16155	16.996	4.9091	5.e-002	4.5624
16156	17.273	4.9091	0.	1.0987e-002
16157	17.18	4.8182	0.	1.0796e-002
16158	17.18	4.9091	5.e-002	4.5418
16159	17.457	4.9091	0.	1.1901e-002
16160	17.365	4.8182	0.	1.1121e-002
16161	17.365	4.9091	5.e-002	4.5203
16162	17.641	4.9091	0.	1.4567e-002
16163	17.549	4.8182	0.	1.2173e-002
16164	17.549	4.9091	5.e-002	4.4984
16165	17.825	4.9091	0.	2.5664e-002
16166	17.733	4.8182	0.	1.5025e-002
16167	17.733	4.9091	5.e-002	4.4763
16168	18.01	4.9091	0.	0.70008
16169	17.918	4.8182	0.	2.7176e-002
16170	17.918	4.9091	5.e-002	4.4542
16171	18.194	4.9091	0.	2.9582
16172	18.102	4.8182	0.	0.86627
16173	18.102	4.9091	5.e-002	4.4323
16174	18.378	4.9091	0.	5.2079
16175	18.286	4.8182	0.	3.2593
16176	18.286	4.9091	5.e-002	4.4107
16177	18.563	4.9091	0.	7.4262
16178	18.471	4.8182	0.	5.6339
16179	18.471	4.9091	5.e-002	4.3895
16180	18.747	4.9091	0.	9.618
16181	18.655	4.8182	0.	7.9756
16182	18.655	4.9091	5.e-002	4.3688
16183	18.931	4.9091	0.	11.791
16184	18.839	4.8182	0.	10.291
16185	18.839	4.9091	5.e-002	4.3486
16186	19.116	4.9091	0.	13.952
16187	19.024	4.8182	0.	12.59
16188	19.024	4.9091	5.e-002	4.3291
16189	19.3	4.9091	0.	16.112
16190	19.208	4.8182	0.	14.882
16191	19.208	4.9091	5.e-002	4.3102
16192	19.484	4.9091	0.	18.28
16193	19.392	4.8182	0.	17.177
16194	19.392	4.9091	5.e-002	4.2921
16195	19.669	4.9091	0.	20.466
16196	19.576	4.8182	0.	19.486
16197	19.576	4.9091	5.e-002	4.2747
16198	19.853	4.9091	0.	22.679
16199	19.761	4.8182	0.	21.821
16200	19.761	4.9091	5.e-002	4.2581
16201	20.037	4.9091	0.	24.932
16202	19.945	4.8182	0.	24.193
16203	19.945	4.9091	5.e-002	4.2423
16204	20.222	4.9091	0.	27.237
16205	20.129	4.8182	0.	26.616
16206	20.129	4.9091	5.e-002	4.2274
16207	20.406	4.9091	0.	29.605
16208	20.314	4.8182	0.	29.102
16209	20.314	4.9091	5.e-002	4.2134
16210	20.59	4.9091	0.	32.05
16211	20.498	4.8182	0.	31.666
16212	20.498	4.9091	5.e-002	4.2004
16213	20.775	4.9091	0.	34.587
16214	20.682	4.8182	0.	34.323
16215	20.682	4.9091	5.e-002	4.1884
16216	20.959	4.9091	0.	37.231
16217	20.867	4.8182	0.	37.089
16218	20.867	4.9091	5.e-002	4.1776
16219	21.143	4.9091	0.	40.
16220	21.051	4.8182	0.	39.982
16221	21.051	4.9091	5.e-002	4.1679
16222	21.327	4.9091	0.	42.915
16223	21.235	4.8182	0.	43.023
16224	21.235	4.9091	5.e-002	4.1595
16225	21.512	4.9091	0.	45.998
16226	21.42	4.8182	0.	46.235
16227	21.42	4.9091	5.e-002	4.1526
16228	21.696	4.9091	0.	49.277
16229	21.604	4.8182	0.	49.643
16230	21.604	4.9091	5.e-002	4.1473
16231	21.88	4.9091	0.	52.782
16232	21.788	4.8182	0.	53.278
16233	21.788	4.9091	5.e-002	4.1438
16234	22.065	4.9091	0.	56.554
16235	21.973	4.8182	0.	57.177
16236	21.973	4.9091	5.e-002	4.1424
16237	22.249	4.9091	0.	60.638
16238	22.157	4.8182	0.	61.38
16239	22.157	4.9091	5.e-002	4.1434
16240	22.433	4.9091	0.	65.091
16241	22.341	4.8182	0.	65.941
16242	22.341	4.9091	5.e-002	4.1475
16243	22.618	4.9091	0.	69.984
16244	22.525	4.8182	0.	70.918
16245	22.525	4.9091	5.e-002	4.1554
16246	22.802	4.9091	0.	75.401
16247	22.71	4.8182	0.	76.385
16248	22.71	4.9091	5.e-002	4.1681
16249	22.986	4.9091	0.	81.44
16250	22.894	4.8182	0.	82.425
16251	22.894	4.9091	5.e-002	4.1873
16252	23.171	4.9091	0.	88.214
16253	23.078	4.8182	0.	89.132
16254	23.078	4.9091	5.e-002	4.2151
16255	23.355	4.9091	0.	95.828
16256	23.263	4.8182	0.	96.603
16257	23.263	4.9091	5.e-002	4.2544
16258	23.539	4.9091	0.	104.4
16259	23.447	4.8182	0.	104.91
16260	23.447	4.9091	5.e-002	4.3087
16261	23.724	4.9091	0.	113.96
16262	23.631	4.8182	0.	114.17
16263	23.631	4.9091	5.e-002	4.3855
16264	23.816	4.8182	0.	124.29
16265	23.816	4.9091	5.e-002	4.563
16266	23.908	4.9091	0.	123.34
16267	11.743	4.7273	0.	888.78
16268	11.651	4.6364	0.	1284.4
16269	11.651	4.7273	5.e-002	82.093
16270	11.559	4.7273	0.	899.34
16271	11.927	4.7273	0.	544.17
16272	11.835	4.6364	0.	754.8
16273	11.835	4.7273	5.e-002	48.45
16274	12.112	4.7273	0.	329.11
16275	12.02	4.6364	0.	443.45
16276	12.02	4.7273	5.e-002	35.309
16277	12.296	4.7273	0.	188.83
16278	12.204	4.6364	0.	245.72
16279	12.204	4.7273	5.e-002	25.35
16280	12.48	4.7273	0.	99.699
16281	12.388	4.6364	0.	123.66
16282	12.388	4.7273	5.e-002	19.012
16283	12.665	4.7273	0.	44.624
16284	12.573	4.6364	0.	50.502
16285	12.573	4.7273	5.e-002	14.79
16286	12.849	4.7273	0.	13.711
16287	12.757	4.6364	0.	12.422
16288	12.757	4.7273	5.e-002	11.883
16289	13.033	4.7273	0.	3.7416
16290	12.941	4.6364	0.	3.2693
16291	12.941	4.7273	5.e-002	9.7981
16292	13.218	4.7273	0.	1.6246
16293	13.125	4.6364	0.	1.5012
16294	13.125	4.7273	5.e-002	8.2753
16295	13.402	4.7273	0.	0.90067
16296	13.31	4.6364	0.	0.86527
16297	13.31	4.7273	5.e-002	7.1659
16298	13.586	4.7273	0.	0.5591
16299	13.494	4.6364	0.	0.5527
16300	13.494	4.7273	5.e-002	6.3715
16301	13.771	4.7273	0.	0.36983
16302	13.678	4.6364	0.	0.37385
16303	13.678	4.7273	5.e-002	5.818
16304	13.955	4.7273	0.	0.25502
16305	13.863	4.6364	0.	0.26232
16306	13.863	4.7273	5.e-002	5.4447
16307	14.139	4.7273	0.	0.18134
16308	14.047	4.6364	0.	0.18901
16309	14.047	4.7273	5.e-002	5.2007
16310	14.324	4.7273	0.	0.13218
16311	14.231	4.6364	0.	0.13909
16312	14.231	4.7273	5.e-002	5.0458
16313	14.508	4.7273	0.	9.8421e-002
16314	14.416	4.6364	0.	0.10422
16315	14.416	4.7273	5.e-002	4.9492
16316	14.692	4.7273	0.	7.4716e-002
16317	14.6	4.6364	0.	7.9399e-002
16318	14.6	4.7273	5.e-002	4.889
16319	14.876	4.7273	0.	5.7755e-002
16320	14.784	4.6364	0.	6.1445e-002
16321	14.784	4.7273	5.e-002	4.8504
16322	15.061	4.7273	0.	4.5426e-002
16323	14.969	4.6364	0.	4.8292e-002
16324	14.969	4.7273	5.e-002	4.8238
16325	15.245	4.7273	0.	3.6345e-002
16326	15.153	4.6364	0.	3.855e-002
16327	15.153	4.7273	5.e-002	4.803
16328	15.429	4.7273	0.	2.9582e-002
16329	15.337	4.6364	0.	3.1268e-002
16330	15.337	4.7273	5.e-002	4.7845
16331	15.614	4.7273	0.	2.4496e-002
16332	15.522	4.6364	0.	2.5787e-002
16333	15.522	4.7273	5.e-002	4.7663
16334	15.798	4.7273	0.	2.0651e-002
16335	15.706	4.6364	0.	2.1635e-002
16336	15.706	4.7273	5.e-002	4.7473
16337	15.982	4.7273	0.	1.7732e-002
16338	15.89	4.6364	0.	1.849e-002
16339	15.89	4.7273	5.e-002	4.7272
16340	16.167	4.7273	0.	1.5506e-002
16341	16.075	4.6364	0.	1.6101e-002
16342	16.075	4.7273	5.e-002	4.7058
16343	16.351	4.7273	0.	1.3823e-002
16344	16.259	4.6364	0.	1.4278e-002
16345	16.259	4.7273	5.e-002	4.6833
16346	16.535	4.7273	0.	1.2583e-002
16347	16.443	4.6364	0.	1.2932e-002
16348	16.443	4.7273	5.e-002	4.6598
16349	16.72	4.7273	0.	1.1697e-002
16350	16.627	4.6364	0.	1.196e-002
16351	16.627	4.7273	5.e-002	4.6357
16352	16.904	4.7273	0.	1.1115e-002
16353	16.812	4.6364	0.	1.1288e-002
16354	16.812	4.7273	5.e-002	4.6111
16355	17.088	4.7273	0.	1.0823e-002
16356	16.996	4.6364	0.	1.0887e-002
16357	16.996	4.7273	5.e-002	4.5862
16358	17.273	4.7273	0.	1.0843e-002
16359	17.18	4.6364	0.	1.0751e-002
16360	17.18	4.7273	5.e-002	4.5614
16361	17.457	4.7273	0.	1.128e-002
16362	17.365	4.6364	0.	1.091e-002
16363	17.365	4.7273	5.e-002	4.5366
16364	17.641	4.7273	0.	1.2449e-002
16365	17.549	4.6364	0.	1.148e-002
16366	17.549	4.7273	5.e-002	4.5121
16367	17.825	4.7273	0.	1.5535e-002
16368	17.733	4.6364	0.	1.2823e-002
16369	17.733	4.7273	5.e-002	4.4879
16370	18.01	4.7273	0.	3.0139e-002
16371	17.918	4.6364	0.	1.6378e-002
16372	17.918	4.7273	5.e-002	4.4642
16373	18.194	4.7273	0.	1.1843
16374	18.102	4.6364	0.	3.7996e-002
16375	18.102	4.7273	5.e-002	4.441
16376	18.378	4.7273	0.	3.7127
16377	18.286	4.6364	0.	1.6864
16378	18.286	4.7273	5.e-002	4.4184
16379	18.563	4.7273	0.	6.2124
16380	18.471	4.6364	0.	4.3358
16381	18.471	4.7273	5.e-002	4.3964
16382	18.747	4.7273	0.	8.6794
16383	18.655	4.6364	0.	6.9496
16384	18.655	4.7273	5.e-002	4.3751
16385	18.931	4.7273	0.	11.122
16386	18.839	4.6364	0.	9.5316
16387	18.839	4.7273	5.e-002	4.3545
16388	19.116	4.7273	0.	13.552
16389	19.024	4.6364	0.	12.093
16390	19.024	4.7273	5.e-002	4.3346
16391	19.3	4.7273	0.	15.98
16392	19.208	4.6364	0.	14.645
16393	19.208	4.7273	5.e-002	4.3155
16394	19.484	4.7273	0.	18.418
16395	19.392	4.6364	0.	17.202
16396	19.392	4.7273	5.e-002	4.2972
16397	19.669	4.7273	0.	20.878
16398	19.576	4.6364	0.	19.775
16399	19.576	4.7273	5.e-002	4.2796
16400	19.853	4.7273	0.	23.372
16401	19.761	4.6364	0.	22.38
16402	19.761	4.7273	5.e-002	4.263
16403	20.037	4.7273	0.	25.916
16404	19.945	4.6364	0.	25.029
16405	19.945	4.7273	5.e-002	4.2473
16406	20.222	4.7273	0.	28.522
16407	20.129	4.6364	0.	27.739
16408	20.129	4.7273	5.e-002	4.2325
16409	20.406	4.7273	0.	31.205
16410	20.314	4.6364	0.	30.524
16411	20.314	4.7273	5.e-002	4.2186
16412	20.59	4.7273	0.	33.982
16413	20.498	4.6364	0.	33.402
16414	20.498	4.7273	5.e-002	4.2059
16415	20.775	4.7273	0.	36.87
16416	20.682	4.6364	0.	36.389
16417	20.682	4.7273	5.e-002	4.1942
16418	20.959	4.7273	0.	39.886
16419	20.867	4.6364	0.	39.505
16420	20.867	4.7273	5.e-002	4.1838
16421	21.143	4.7273	0.	43.053
16422	21.051	4.6364	0.	42.77
16423	21.051	4.7273	5.e-002	4.1746
16424	21.327	4.7273	0.	46.392
16425	21.235	4.6364	0.	46.207
16426	21.235	4.7273	5.e-002	4.1669
16427	21.512	4.7273	0.	49.93
16428	21.42	4.6364	0.	49.841
16429	21.42	4.7273	5.e-002	4.1607
16430	21.696	4.7273	0.	53.696
16431	21.604	4.6364	0.	53.7
16432	21.604	4.7273	5.e-002	4.1564
16433	21.88	4.7273	0.	57.725
16434	21.788	4.6364	0.	57.817
16435	21.788	4.7273	5.e-002	4.154
16436	22.065	4.7273	0.	62.056
16437	21.973	4.6364	0.	62.228
16438	21.973	4.7273	5.e-002	4.154
16439	22.249	4.7273	0.	66.736
16440	22.157	4.6364	0.	66.976
16441	22.157	4.7273	5.e-002	4.1567
16442	22.433	4.7273	0.	71.819
16443	22.341	4.6364	0.	72.109
16444	22.341	4.7273	5.e-002	4.1627
16445	22.618	4.7273	0.	77.368
16446	22.525	4.6364	0.	77.683
16447	22.525	4.7273	5.e-002	4.1728
16448	22.802	4.7273	0.	83.456
16449	22.71	4.6364	0.	83.759
16450	22.71	4.7273	5.e-002	4.1879
16451	22.986	4.7273	0.	90.158
16452	22.894	4.6364	0.	90.405
16453	22.894	4.7273	5.e-002	4.2095
16454	23.171	4.7273	0.	97.556
16455	23.078	4.6364	0.	97.688
16456	23.078	4.7273	5.e-002	4.2393
16457	23.355	4.7273	0.	105.71
16458	23.263	4.6364	0.	105.68
16459	23.263	4.7273	5.e-002	4.2793
16460	23.539	4.7273	0.	114.71
16461	23.447	4.6364	0.	114.41
16462	23.447	4.7273	5.e-002	4.3314
16463	23.724	4.7273	0.	124.52
16464	23.631	4.6364	0.	123.96
16465	23.631	4.7273	5.e-002	4.4012
16466	23.816	4.6364	0.	134.21
16467	23.816	4.7273	5.e-002	4.553
16468	23.908	4.7273	0.	134.11
16469	11.743	4.5455	0.	1109.
16470	11.651	4.4545	0.	1669.8
16471	11.651	4.5455	5.e-002	104.1
16472	11.559	4.5455	0.	1187.6
16473	11.927	4.5455	0.	629.4
16474	11.835	4.4545	0.	854.57
16475	11.835	4.5455	5.e-002	60.256
16476	12.112	4.5455	0.	345.68
16477	12.02	4.4545	0.	446.55
16478	12.02	4.5455	5.e-002	36.058
16479	12.296	4.5455	0.	171.93
16480	12.204	4.4545	0.	216.11
16481	12.204	4.5455	5.e-002	25.521
16482	12.48	4.5455	0.	69.178
16483	12.388	4.4545	0.	83.387
16484	12.388	4.5455	5.e-002	19.325
16485	12.665	4.5455	0.	15.493
16486	12.573	4.4545	0.	16.211
16487	12.573	4.5455	5.e-002	15.563
16488	12.849	4.5455	0.	3.4869
16489	12.757	4.4545	0.	3.3623
16490	12.757	4.5455	5.e-002	12.925
16491	13.033	4.5455	0.	1.5633
16492	12.941	4.4545	0.	1.5233
16493	12.941	4.5455	5.e-002	10.987
16494	13.218	4.5455	0.	0.90216
16495	13.125	4.4545	0.	0.88879
16496	13.125	4.5455	5.e-002	9.5139
16497	13.402	4.5455	0.	0.58138
16498	13.31	4.4545	0.	0.58042
16499	13.31	4.5455	5.e-002	8.3836
16500	13.586	4.5455	0.	0.39722
16501	13.494	4.4545	0.	0.40138
16502	13.494	4.5455	5.e-002	7.5161
16503	13.771	4.5455	0.	0.28138
16504	13.678	4.4545	0.	0.28749
16505	13.678	4.5455	5.e-002	6.854
16506	13.955	4.5455	0.	0.20433
16507	13.863	4.4545	0.	0.2107
16508	13.863	4.5455	5.e-002	6.3524
16509	14.139	4.5455	0.	0.15123
16510	14.047	4.4545	0.	0.15708
16511	14.047	4.5455	5.e-002	5.9751
16512	14.324	4.5455	0.	0.11371
16513	14.231	4.4545	0.	0.11874
16514	14.231	4.5455	5.e-002	5.6925
16515	14.508	4.5455	0.	8.6739e-002
16516	14.416	4.4545	0.	9.087e-002
16517	14.416	4.5455	5.e-002	5.4805
16518	14.692	4.5455	0.	6.7077e-002
16519	14.6	4.4545	0.	7.0372e-002
16520	14.6	4.5455	5.e-002	5.3204
16521	14.876	4.5455	0.	5.2584e-002
16522	14.784	4.4545	0.	5.5155e-002
16523	14.784	4.5455	5.e-002	5.1977
16524	15.061	4.5455	0.	4.1807e-002
16525	14.969	4.4545	0.	4.3779e-002
16526	14.969	4.5455	5.e-002	5.1017
16527	15.245	4.5455	0.	3.3733e-002
16528	15.153	4.4545	0.	3.5225e-002
16529	15.153	4.5455	5.e-002	5.0246
16530	15.429	4.5455	0.	2.7647e-002
16531	15.337	4.4545	0.	2.8765e-002
16532	15.337	4.5455	5.e-002	4.9608
16533	15.614	4.5455	0.	2.3042e-002
16534	15.522	4.4545	0.	2.3873e-002
16535	15.522	4.5455	5.e-002	4.9064
16536	15.798	4.5455	0.	1.955e-002
16537	15.706	4.4545	0.	2.016e-002
16538	15.706	4.5455	5.e-002	4.8588
16539	15.982	4.5455	0.	1.6906e-002
16540	15.89	4.4545	0.	1.7355e-002
16541	15.89	4.5455	5.e-002	4.8159
16542	16.167	4.5455	0.	1.4897e-002
16543	16.075	4.4545	0.	1.5236e-002
16544	16.075	4.5455	5.e-002	4.7765
16545	16.351	4.5455	0.	1.3392e-002
16546	16.259	4.4545	0.	1.363e-002
16547	16.259	4.5455	5.e-002	4.7398
16548	16.535	4.5455	0.	1.2299e-002
16549	16.443	4.4545	0.	1.2465e-002
16550	16.443	4.5455	5.e-002	4.7051
16551	16.72	4.5455	0.	1.1527e-002
16552	16.627	4.4545	0.	1.1639e-002
16553	16.627	4.5455	5.e-002	4.6721
16554	16.904	4.5455	0.	1.1024e-002
16555	16.812	4.4545	0.	1.108e-002
16556	16.812	4.5455	5.e-002	4.6406
16557	17.088	4.5455	0.	1.0767e-002
16558	16.996	4.4545	0.	1.0758e-002
16559	16.996	4.5455	5.e-002	4.6103
16560	17.273	4.5455	0.	1.0753e-002
16561	17.18	4.4545	0.	1.0652e-002
16562	17.18	4.5455	5.e-002	4.5811
16563	17.457	4.5455	0.	1.1021e-002
16564	17.365	4.4545	0.	1.077e-002
16565	17.365	4.5455	5.e-002	4.5529
16566	17.641	4.5455	0.	1.1702e-002
16567	17.549	4.4545	0.	1.116e-002
16568	17.549	4.5455	5.e-002	4.5257
16569	17.825	4.5455	0.	1.3211e-002
16570	17.733	4.4545	0.	1.1979e-002
16571	17.733	4.5455	5.e-002	4.4994
16572	18.01	4.5455	0.	1.741e-002
16573	17.918	4.4545	0.	1.374e-002
16574	17.918	4.5455	5.e-002	4.474
16575	18.194	4.5455	0.	6.2179e-002
16576	18.102	4.4545	0.	1.9208e-002
16577	18.102	4.5455	5.e-002	4.4495
16578	18.378	4.5455	0.	2.3323
16579	18.286	4.4545	0.	0.30531
16580	18.286	4.5455	5.e-002	4.4258
16581	18.563	4.5455	0.	5.1007
16582	18.471	4.4545	0.	3.1482
16583	18.471	4.5455	5.e-002	4.4031
16584	18.747	4.5455	0.	7.8311
16585	18.655	4.4545	0.	6.02
16586	18.655	4.5455	5.e-002	4.3811
16587	18.931	4.5455	0.	10.532
16588	18.839	4.4545	0.	8.8542
16589	18.839	4.5455	5.e-002	4.36
16590	19.116	4.5455	0.	13.217
16591	19.024	4.4545	0.	11.663
16592	19.024	4.5455	5.e-002	4.3398
16593	19.3	4.5455	0.	15.899
16594	19.208	4.4545	0.	14.461
16595	19.208	4.5455	5.e-002	4.3204
16596	19.484	4.5455	0.	18.593
16597	19.392	4.4545	0.	17.263
16598	19.392	4.5455	5.e-002	4.3019
16599	19.669	4.5455	0.	21.312
16600	19.576	4.4545	0.	20.085
16601	19.576	4.5455	5.e-002	4.2843
16602	19.853	4.5455	0.	24.073
16603	19.761	4.4545	0.	22.943
16604	19.761	4.5455	5.e-002	4.2676
16605	20.037	4.5455	0.	26.89
16606	19.945	4.4545	0.	25.852
16607	19.945	4.5455	5.e-002	4.2519
16608	20.222	4.5455	0.	29.78
16609	20.129	4.4545	0.	28.829
16610	20.129	4.5455	5.e-002	4.2372
16611	20.406	4.5455	0.	32.76
16612	20.314	4.4545	0.	31.894
16613	20.314	4.5455	5.e-002	4.2235
16614	20.59	4.5455	0.	35.849
16615	20.498	4.4545	0.	35.063
16616	20.498	4.5455	5.e-002	4.211
16617	20.775	4.5455	0.	39.065
16618	20.682	4.4545	0.	38.357
16619	20.682	4.5455	5.e-002	4.1996
16620	20.959	4.5455	0.	42.43
16621	20.867	4.4545	0.	41.797
16622	20.867	4.5455	5.e-002	4.1896
16623	21.143	4.5455	0.	45.967
16624	21.051	4.4545	0.	45.405
16625	21.051	4.5455	5.e-002	4.1809
16626	21.327	4.5455	0.	49.699
16627	21.235	4.4545	0.	49.205
16628	21.235	4.5455	5.e-002	4.1738
16629	21.512	4.5455	0.	53.655
16630	21.42	4.4545	0.	53.225
16631	21.42	4.5455	5.e-002	4.1684
16632	21.696	4.5455	0.	57.865
16633	21.604	4.4545	0.	57.493
16634	21.604	4.5455	5.e-002	4.1649
16635	21.88	4.5455	0.	62.365
16636	21.788	4.4545	0.	62.042
16637	21.788	4.5455	5.e-002	4.1636
16638	22.065	4.5455	0.	67.193
16639	21.973	4.4545	0.	66.908
16640	21.973	4.5455	5.e-002	4.1649
16641	22.249	4.5455	0.	72.393
16642	22.157	4.4545	0.	72.131
16643	22.157	4.5455	5.e-002	4.169
16644	22.433	4.5455	0.	78.015
16645	22.341	4.4545	0.	77.756
16646	22.341	4.5455	5.e-002	4.1767
16647	22.618	4.5455	0.	84.113
16648	22.525	4.4545	0.	83.829
16649	22.525	4.5455	5.e-002	4.1886
16650	22.802	4.5455	0.	90.744
16651	22.71	4.4545	0.	90.404
16652	22.71	4.5455	5.e-002	4.2057
16653	22.986	4.5455	0.	97.966
16654	22.894	4.4545	0.	97.531
16655	22.894	4.5455	5.e-002	4.2289
16656	23.171	4.5455	0.	105.84
16657	23.078	4.4545	0.	105.26
16658	23.078	4.5455	5.e-002	4.2597
16659	23.355	4.5455	0.	114.39
16660	23.263	4.4545	0.	113.63
16661	23.263	4.5455	5.e-002	4.2994
16662	23.539	4.5455	0.	123.68
16663	23.447	4.4545	0.	122.67
16664	23.447	4.5455	5.e-002	4.3491
16665	23.724	4.5455	0.	133.66
16666	23.631	4.4545	0.	132.43
16667	23.631	4.5455	5.e-002	4.4126
16668	23.816	4.4545	0.	142.76
16669	23.816	4.5455	5.e-002	4.5425
16670	23.908	4.5455	0.	143.42
16671	11.743	4.3636	0.	1355.1
16672	11.651	4.2727	0.	1974.2
16673	11.651	4.3636	5.e-002	158.05
16674	11.559	4.3636	0.	1512.2
16675	11.927	4.3636	0.	649.97
16676	11.835	4.2727	0.	843.73
16677	11.835	4.3636	5.e-002	61.837
16678	12.112	4.3636	0.	304.77
16679	12.02	4.2727	0.	366.39
16680	12.02	4.3636	5.e-002	37.73
16681	12.296	4.3636	0.	120.06
16682	12.204	4.2727	0.	143.07
16683	12.204	4.3636	5.e-002	27.448
16684	12.48	4.3636	0.	23.991
16685	12.388	4.2727	0.	26.933
16686	12.388	4.3636	5.e-002	21.276
16687	12.665	4.3636	0.	3.9062
16688	12.573	4.2727	0.	3.8997
16689	12.573	4.3636	5.e-002	17.506
16690	12.849	4.3636	0.	1.6331
16691	12.757	4.2727	0.	1.5995
16692	12.757	4.3636	5.e-002	14.733
16693	13.033	4.3636	0.	0.94015
16694	12.941	4.2727	0.	0.93164
16695	12.941	4.3636	5.e-002	12.634
16696	13.218	4.3636	0.	0.61081
16697	13.125	4.2727	0.	0.6086
16698	13.125	4.3636	5.e-002	11.001
16699	13.402	4.3636	0.	0.42386
16700	13.31	4.2727	0.	0.42673
16701	13.31	4.3636	5.e-002	9.71
16702	13.586	4.3636	0.	0.30499
16703	13.494	4.2727	0.	0.30959
16704	13.494	4.3636	5.e-002	8.6838
16705	13.771	4.3636	0.	0.2247
16706	13.678	4.2727	0.	0.22982
16707	13.678	4.3636	5.e-002	7.8669
16708	13.955	4.3636	0.	0.16824
16709	13.863	4.2727	0.	0.1731
16710	13.863	4.3636	5.e-002	7.218
16711	14.139	4.3636	0.	0.12757
16712	14.047	4.2727	0.	0.13183
16713	14.047	4.3636	5.e-002	6.7043
16714	14.324	4.3636	0.	9.7774e-002
16715	14.231	4.2727	0.	0.10132
16716	14.231	4.3636	5.e-002	6.2989
16717	14.508	4.3636	0.	7.5712e-002
16718	14.416	4.2727	0.	7.855e-002
16719	14.416	4.3636	5.e-002	5.9792
16720	14.692	4.3636	0.	5.9244e-002
16721	14.6	4.2727	0.	6.1451e-002
16722	14.6	4.3636	5.e-002	5.7268
16723	14.876	4.3636	0.	4.688e-002
16724	14.784	4.2727	0.	4.8552e-002
16725	14.784	4.3636	5.e-002	5.5265
16726	15.061	4.3636	0.	3.7557e-002
16727	14.969	4.2727	0.	3.8795e-002
16728	14.969	4.3636	5.e-002	5.3663
16729	15.245	4.3636	0.	3.0505e-002
16730	15.153	4.2727	0.	3.1399e-002
16731	15.153	4.3636	5.e-002	5.2367
16732	15.429	4.3636	0.	2.5161e-002
16733	15.337	4.2727	0.	2.5791e-002
16734	15.337	4.3636	5.e-002	5.1304
16735	15.614	4.3636	0.	2.1108e-002
16736	15.522	4.2727	0.	2.154e-002
16737	15.522	4.3636	5.e-002	5.0418
16738	15.798	4.3636	0.	1.8043e-002
16739	15.706	4.2727	0.	1.8324e-002
16740	15.706	4.3636	5.e-002	4.9668
16741	15.982	4.3636	0.	1.5735e-002
16742	15.89	4.2727	0.	1.5911e-002
16743	15.89	4.3636	5.e-002	4.9021
16744	16.167	4.3636	0.	1.3998e-002
16745	16.075	4.2727	0.	1.4107e-002
16746	16.075	4.3636	5.e-002	4.8454
16747	16.351	4.3636	0.	1.2715e-002
16748	16.259	4.2727	0.	1.2761e-002
16749	16.259	4.3636	5.e-002	4.7949
16750	16.535	4.3636	0.	1.1803e-002
16751	16.443	4.2727	0.	1.1807e-002
16752	16.443	4.3636	5.e-002	4.7493
16753	16.72	4.3636	0.	1.1178e-002
16754	16.627	4.2727	0.	1.1155e-002
16755	16.627	4.3636	5.e-002	4.7077
16756	16.904	4.3636	0.	1.079e-002
16757	16.812	4.2727	0.	1.0736e-002
16758	16.812	4.3636	5.e-002	4.6694
16759	17.088	4.3636	0.	1.0609e-002
16760	16.996	4.2727	0.	1.0521e-002
16761	16.996	4.3636	5.e-002	4.6337
16762	17.273	4.3636	0.	1.0623e-002
16763	17.18	4.2727	0.	1.0485e-002
16764	17.18	4.3636	5.e-002	4.6002
16765	17.457	4.3636	0.	1.0846e-002
16766	17.365	4.2727	0.	1.0622e-002
16767	17.365	4.3636	5.e-002	4.5687
16768	17.641	4.3636	0.	1.1335e-002
16769	17.549	4.2727	0.	1.0954e-002
16770	17.549	4.3636	5.e-002	4.5388
16771	17.825	4.3636	0.	1.2275e-002
16772	17.733	4.2727	0.	1.1554e-002
16773	17.733	4.3636	5.e-002	4.5104
16774	18.01	4.3636	0.	1.4329e-002
16775	17.918	4.2727	0.	1.2653e-002
16776	17.918	4.3636	5.e-002	4.4834
16777	18.194	4.3636	0.	2.2189e-002
16778	18.102	4.2727	0.	1.52e-002
16779	18.102	4.3636	5.e-002	4.4576
16780	18.378	4.3636	0.	1.079
16781	18.286	4.2727	0.	3.0699e-002
16782	18.286	4.3636	5.e-002	4.4329
16783	18.563	4.3636	0.	4.0934
16784	18.471	4.2727	0.	2.0767
16785	18.471	4.3636	5.e-002	4.4093
16786	18.747	4.3636	0.	7.0713
16787	18.655	4.2727	0.	5.1878
16788	18.655	4.3636	5.e-002	4.3868
16789	18.931	4.3636	0.	10.014
16790	18.839	4.2727	0.	8.2562
16791	18.839	4.3636	5.e-002	4.3652
16792	19.116	4.3636	0.	12.938
16793	19.024	4.2727	0.	11.295
16794	19.024	4.3636	5.e-002	4.3446
16795	19.3	4.3636	0.	15.857
16796	19.208	4.2727	0.	14.319
16797	19.208	4.3636	5.e-002	4.3249
16798	19.484	4.3636	0.	18.788
16799	19.392	4.2727	0.	17.348
16800	19.392	4.3636	5.e-002	4.3063
16801	19.669	4.3636	0.	21.749
16802	19.576	4.2727	0.	20.398
16803	19.576	4.3636	5.e-002	4.2885
16804	19.853	4.3636	0.	24.756
16805	19.761	4.2727	0.	23.487
16806	19.761	4.3636	5.e-002	4.2718
16807	20.037	4.3636	0.	27.826
16808	19.945	4.2727	0.	26.634
16809	19.945	4.3636	5.e-002	4.2561
16810	20.222	4.3636	0.	30.979
16811	20.129	4.2727	0.	29.858
16812	20.129	4.3636	5.e-002	4.2415
16813	20.406	4.3636	0.	34.233
16814	20.314	4.2727	0.	33.177
16815	20.314	4.3636	5.e-002	4.228
16816	20.59	4.3636	0.	37.609
16817	20.498	4.2727	0.	36.613
16818	20.498	4.3636	5.e-002	4.2156
16819	20.775	4.3636	0.	41.127
16820	20.682	4.2727	0.	40.186
16821	20.682	4.3636	5.e-002	4.2046
16822	20.959	4.3636	0.	44.81
16823	20.867	4.2727	0.	43.92
16824	20.867	4.3636	5.e-002	4.1949
16825	21.143	4.3636	0.	48.683
16826	21.051	4.2727	0.	47.837
16827	21.051	4.3636	5.e-002	4.1867
16828	21.327	4.3636	0.	52.771
16829	21.235	4.2727	0.	51.964
16830	21.235	4.3636	5.e-002	4.1802
16831	21.512	4.3636	0.	57.102
16832	21.42	4.2727	0.	56.328
16833	21.42	4.3636	5.e-002	4.1755
16834	21.696	4.3636	0.	61.709
16835	21.604	4.2727	0.	60.957
16836	21.604	4.3636	5.e-002	4.1728
16837	21.88	4.3636	0.	66.623
16838	21.788	4.2727	0.	65.885
16839	21.788	4.3636	5.e-002	4.1725
16840	22.065	4.3636	0.	71.884
16841	21.973	4.2727	0.	71.146
16842	21.973	4.3636	5.e-002	4.1749
16843	22.249	4.3636	0.	77.53
16844	22.157	4.2727	0.	76.775
16845	22.157	4.3636	5.e-002	4.1804
16846	22.433	4.3636	0.	83.604
16847	22.341	4.2727	0.	82.813
16848	22.341	4.3636	5.e-002	4.1895
16849	22.618	4.3636	0.	90.152
16850	22.525	4.2727	0.	89.301
16851	22.525	4.3636	5.e-002	4.2028
16852	22.802	4.3636	0.	97.219
16853	22.71	4.2727	0.	96.278
16854	22.71	4.3636	5.e-002	4.2212
16855	22.986	4.3636	0.	104.85
16856	22.894	4.2727	0.	103.78
16857	22.894	4.3636	5.e-002	4.2455
16858	23.171	4.3636	0.	113.08
16859	23.078	4.2727	0.	111.86
16860	23.078	4.3636	5.e-002	4.2767
16861	23.355	4.3636	0.	121.93
16862	23.263	4.2727	0.	120.52
16863	23.263	4.3636	5.e-002	4.3156
16864	23.539	4.3636	0.	131.43
16865	23.447	4.2727	0.	129.78
16866	23.447	4.3636	5.e-002	4.3628
16867	23.724	4.3636	0.	141.54
16868	23.631	4.2727	0.	139.69
16869	23.631	4.3636	5.e-002	4.4211
16870	23.816	4.2727	0.	150.07
16871	23.816	4.3636	5.e-002	4.5321
16872	23.908	4.3636	0.	151.42
16873	11.743	4.1818	0.	1412.7
16874	11.651	4.0909	0.	1665.7
16875	11.651	4.1818	5.e-002	281.2
16876	11.559	4.1818	0.	2353.7
16877	11.927	4.1818	0.	545.37
16878	11.835	4.0909	0.	614.4
16879	11.835	4.1818	5.e-002	94.43
16880	12.112	4.1818	0.	196.41
16881	12.02	4.0909	0.	223.59
16882	12.02	4.1818	5.e-002	44.102
16883	12.296	4.1818	0.	42.064
16884	12.204	4.0909	0.	49.136
16885	12.204	4.1818	5.e-002	31.829
16886	12.48	4.1818	0.	4.5212
16887	12.388	4.0909	0.	4.0698
16888	12.388	4.1818	5.e-002	25.023
16889	12.665	4.1818	0.	1.7508
16890	12.573	4.0909	0.	1.7466
16891	12.573	4.1818	5.e-002	20.337
16892	12.849	4.1818	0.	0.97337
16893	12.757	4.0909	0.	0.93118
16894	12.757	4.1818	5.e-002	17.028
16895	13.033	4.1818	0.	0.63878
16896	12.941	4.0909	0.	0.63583
16897	12.941	4.1818	5.e-002	14.537
16898	13.218	4.1818	0.	0.4464
16899	13.125	4.0909	0.	0.44578
16900	13.125	4.1818	5.e-002	12.602
16901	13.402	4.1818	0.	0.32561
16902	13.31	4.0909	0.	0.32953
16903	13.31	4.1818	5.e-002	11.064
16904	13.586	4.1818	0.	0.24262
16905	13.494	4.0909	0.	0.24719
16906	13.494	4.1818	5.e-002	9.8282
16907	13.771	4.1818	0.	0.18347
16908	13.678	4.0909	0.	0.18805
16909	13.678	4.1818	5.e-002	8.8308
16910	13.955	4.1818	0.	0.1401
16911	13.863	4.0909	0.	0.14411
16912	13.863	4.1818	5.e-002	8.0254
16913	14.139	4.1818	0.	0.10783
16914	14.047	4.0909	0.	0.11115
16915	14.047	4.1818	5.e-002	7.3762
16916	14.324	4.1818	0.	8.3604e-002
16917	14.231	4.0909	0.	8.6217e-002
16918	14.231	4.1818	5.e-002	6.854
16919	14.508	4.1818	0.	6.5314e-002
16920	14.416	4.0909	0.	6.7297e-002
16921	14.416	4.1818	5.e-002	6.4348
16922	14.692	4.1818	0.	5.1463e-002
16923	14.6	4.0909	0.	5.2916e-002
16924	14.6	4.1818	5.e-002	6.0984
16925	14.876	4.1818	0.	4.0956e-002
16926	14.784	4.0909	0.	4.198e-002
16927	14.784	4.1818	5.e-002	5.8279
16928	15.061	4.1818	0.	3.298e-002
16929	14.969	4.0909	0.	3.367e-002
16930	14.969	4.1818	5.e-002	5.6098
16931	15.245	4.1818	0.	2.6927e-002
16932	15.153	4.0909	0.	2.7363e-002
16933	15.153	4.1818	5.e-002	5.4327
16934	15.429	4.1818	0.	2.2342e-002
16935	15.337	4.0909	0.	2.259e-002
16936	15.337	4.1818	5.e-002	5.2877
16937	15.614	4.1818	0.	1.8877e-002
16938	15.522	4.0909	0.	1.899e-002
16939	15.522	4.1818	5.e-002	5.1679
16940	15.798	4.1818	0.	1.6275e-002
16941	15.706	4.0909	0.	1.629e-002
16942	15.706	4.1818	5.e-002	5.0677
16943	15.982	4.1818	0.	1.4339e-002
16944	15.89	4.0909	0.	1.4292e-002
16945	15.89	4.1818	5.e-002	4.9828
16946	16.167	4.1818	0.	1.2906e-002
16947	16.075	4.0909	0.	1.2826e-002
16948	16.075	4.1818	5.e-002	4.9101
16949	16.351	4.1818	0.	1.1872e-002
16950	16.259	4.0909	0.	1.1757e-002
16951	16.259	4.1818	5.e-002	4.8468
16952	16.535	4.1818	0.	1.1165e-002
16953	16.443	4.0909	0.	1.1032e-002
16954	16.443	4.1818	5.e-002	4.791
16955	16.72	4.1818	0.	1.0708e-002
16956	16.627	4.0909	0.	1.0568e-002
16957	16.627	4.1818	5.e-002	4.7414
16958	16.904	4.1818	0.	1.0453e-002
16959	16.812	4.0909	0.	1.0304e-002
16960	16.812	4.1818	5.e-002	4.6966
16961	17.088	4.1818	0.	1.0373e-002
16962	16.996	4.0909	0.	1.021e-002
16963	16.996	4.1818	5.e-002	4.6558
16964	17.273	4.1818	0.	1.0451e-002
16965	17.18	4.0909	0.	1.0264e-002
16966	17.18	4.1818	5.e-002	4.6183
16967	17.457	4.1818	0.	1.0686e-002
16968	17.365	4.0909	0.	1.0452e-002
16969	17.365	4.1818	5.e-002	4.5835
16970	17.641	4.1818	0.	1.1105e-002
16971	17.549	4.0909	0.	1.0784e-002
16972	17.549	4.1818	5.e-002	4.5512
16973	17.825	4.1818	0.	1.1799e-002
16974	17.733	4.0909	0.	1.1295e-002
16975	17.733	4.1818	5.e-002	4.5208
16976	18.01	4.1818	0.	1.3062e-002
16977	17.918	4.0909	0.	1.2098e-002
16978	17.918	4.1818	5.e-002	4.4922
16979	18.194	4.1818	0.	1.637e-002
16980	18.102	4.0909	0.	1.3606e-002
16981	18.102	4.1818	5.e-002	4.4651
16982	18.378	4.1818	0.	0.1161
16983	18.286	4.0909	0.	1.8695e-002
16984	18.286	4.1818	5.e-002	4.4395
16985	18.563	4.1818	0.	3.1945
16986	18.471	4.0909	0.	1.1298
16987	18.471	4.1818	5.e-002	4.4151
16988	18.747	4.1818	0.	6.3998
16989	18.655	4.0909	0.	4.4554
16990	18.655	4.1818	5.e-002	4.392
16991	18.931	4.1818	0.	9.5646
16992	18.839	4.0909	0.	7.736
16993	18.839	4.1818	5.e-002	4.3699
16994	19.116	4.1818	0.	12.706
16995	19.024	4.0909	0.	10.982
16996	19.024	4.1818	5.e-002	4.349
16997	19.3	4.1818	0.	15.841
16998	19.208	4.0909	0.	14.211
16999	19.208	4.1818	5.e-002	4.3291
17000	19.484	4.1818	0.	18.989
17001	19.392	4.0909	0.	17.444
17002	19.392	4.1818	5.e-002	4.3102
17003	19.669	4.1818	0.	22.169
17004	19.576	4.0909	0.	20.699
17005	19.576	4.1818	5.e-002	4.2924
17006	19.853	4.1818	0.	25.399
17007	19.761	4.0909	0.	23.996
17008	19.761	4.1818	5.e-002	4.2756
17009	20.037	4.1818	0.	28.699
17010	19.945	4.0909	0.	27.356
17011	19.945	4.1818	5.e-002	4.2599
17012	20.222	4.1818	0.	32.09
17013	20.129	4.0909	0.	30.798
17014	20.129	4.1818	5.e-002	4.2454
17015	20.406	4.1818	0.	35.591
17016	20.314	4.0909	0.	34.345
17017	20.314	4.1818	5.e-002	4.232
17018	20.59	4.1818	0.	39.225
17019	20.498	4.0909	0.	38.018
17020	20.498	4.1818	5.e-002	4.2199
17021	20.775	4.1818	0.	43.014
17022	20.682	4.0909	0.	41.839
17023	20.682	4.1818	5.e-002	4.2091
17024	20.959	4.1818	0.	46.982
17025	20.867	4.0909	0.	45.832
17026	20.867	4.1818	5.e-002	4.1997
17027	21.143	4.1818	0.	51.153
17028	21.051	4.0909	0.	50.023
17029	21.051	4.1818	5.e-002	4.192
17030	21.327	4.1818	0.	55.556
17031	21.235	4.0909	0.	54.436
17032	21.235	4.1818	5.e-002	4.186
17033	21.512	4.1818	0.	60.218
17034	21.42	4.0909	0.	59.099
17035	21.42	4.1818	5.e-002	4.1819
17036	21.696	4.1818	0.	65.169
17037	21.604	4.0909	0.	64.042
17038	21.604	4.1818	5.e-002	4.18
17039	21.88	4.1818	0.	70.441
17040	21.788	4.0909	0.	69.295
17041	21.788	4.1818	5.e-002	4.1806
17042	22.065	4.1818	0.	76.07
17043	21.973	4.0909	0.	74.89
17044	21.973	4.1818	5.e-002	4.184
17045	22.249	4.1818	0.	82.09
17046	22.157	4.0909	0.	80.86
17047	22.157	4.1818	5.e-002	4.1905
17048	22.433	4.1818	0.	88.539
17049	22.341	4.0909	0.	87.24
17050	22.341	4.1818	5.e-002	4.2008
17051	22.618	4.1818	0.	95.452
17052	22.525	4.0909	0.	94.063
17053	22.525	4.1818	5.e-002	4.2152
17054	22.802	4.1818	0.	102.87
17055	22.71	4.0909	0.	101.36
17056	22.71	4.1818	5.e-002	4.2346
17057	22.986	4.1818	0.	110.81
17058	22.894	4.0909	0.	109.17
17059	22.894	4.1818	5.e-002	4.2595
17060	23.171	4.1818	0.	119.32
17061	23.078	4.0909	0.	117.5
17062	23.078	4.1818	5.e-002	4.2907
17063	23.355	4.1818	0.	128.39
17064	23.263	4.0909	0.	126.39
17065	23.263	4.1818	5.e-002	4.3286
17066	23.539	4.1818	0.	138.05
17067	23.447	4.0909	0.	135.81
17068	23.447	4.1818	5.e-002	4.3736
17069	23.724	4.1818	0.	148.24
17070	23.631	4.0909	0.	145.84
17071	23.631	4.1818	5.e-002	4.4274
17072	23.816	4.0909	0.	156.26
17073	23.816	4.1818	5.e-002	4.5224
17074	23.908	4.1818	0.	158.22
17075	11.743	4.	0.	881.01
17076	11.651	3.9091	0.	903.66
17077	11.651	4.	5.e-002	500.85
17078	11.559	4.	0.	1334.1
17079	11.927	4.	0.	290.73
17080	11.835	3.9091	0.	349.49
17081	11.835	4.	5.e-002	88.332
17082	12.112	4.	0.	69.295
17083	12.02	3.9091	0.	95.301
17084	12.02	4.	5.e-002	57.207
17085	12.296	4.	0.	5.6972
17086	12.204	3.9091	0.	6.3449
17087	12.204	4.	5.e-002	38.487
17088	12.48	4.	0.	1.5275
17089	12.388	3.9091	0.	1.0525
17090	12.388	4.	5.e-002	29.351
17091	12.665	4.	0.	1.0247
17092	12.573	3.9091	0.	1.059
17093	12.573	4.	5.e-002	23.507
17094	12.849	4.	0.	0.63884
17095	12.757	3.9091	0.	0.61079
17096	12.757	4.	5.e-002	19.494
17097	13.033	4.	0.	0.46732
17098	12.941	3.9091	0.	0.47421
17099	12.941	4.	5.e-002	16.514
17100	13.218	4.	0.	0.34344
17101	13.125	3.9091	0.	0.34867
17102	13.125	4.	5.e-002	14.21
17103	13.402	4.	0.	0.26023
17104	13.31	3.9091	0.	0.2675
17105	13.31	4.	5.e-002	12.382
17106	13.586	4.	0.	0.19855
17107	13.494	3.9091	0.	0.20486
17108	13.494	4.	5.e-002	10.913
17109	13.771	4.	0.	0.15264
17110	13.678	3.9091	0.	0.15794
17111	13.678	4.	5.e-002	9.724
17112	13.955	4.	0.	0.11785
17113	13.863	3.9091	0.	0.12198
17114	13.863	4.	5.e-002	8.7606
17115	14.139	4.	0.	9.1381e-002
17116	14.047	3.9091	0.	9.4495e-002
17117	14.047	4.	5.e-002	7.9802
17118	14.324	4.	0.	7.1197e-002
17119	14.231	3.9091	0.	7.3451e-002
17120	14.231	4.	5.e-002	7.3491
17121	14.508	4.	0.	5.5805e-002
17122	14.416	3.9091	0.	5.7374e-002
17123	14.416	4.	5.e-002	6.8393
17124	14.692	4.	0.	4.4077e-002
17125	14.6	3.9091	0.	4.5116e-002
17126	14.6	4.	5.e-002	6.4278
17127	14.876	4.	0.	3.5155e-002
17128	14.784	3.9091	0.	3.5796e-002
17129	14.784	4.	5.e-002	6.0954
17130	15.061	4.	0.	2.8386e-002
17131	14.969	3.9091	0.	2.8734e-002
17132	14.969	4.	5.e-002	5.8262
17133	15.245	4.	0.	2.3267e-002
17134	15.153	3.9091	0.	2.3403e-002
17135	15.153	4.	5.e-002	5.6073
17136	15.429	4.	0.	1.9413e-002
17137	15.337	3.9091	0.	1.9403e-002
17138	15.337	4.	5.e-002	5.4284
17139	15.614	4.	0.	1.6529e-002
17140	15.522	3.9091	0.	1.6422e-002
17141	15.522	4.	5.e-002	5.281
17142	15.798	4.	0.	1.4397e-002
17143	15.706	3.9091	0.	1.4223e-002
17144	15.706	4.	5.e-002	5.1585
17145	15.982	4.	0.	1.2842e-002
17146	15.89	3.9091	0.	1.2634e-002
17147	15.89	4.	5.e-002	5.0558
17148	16.167	4.	0.	1.1719e-002
17149	16.075	3.9091	0.	1.1502e-002
17150	16.075	4.	5.e-002	4.9686
17151	16.351	4.	0.	1.0943e-002
17152	16.259	3.9091	0.	1.0709e-002
17153	16.259	4.	5.e-002	4.8938
17154	16.535	4.	0.	1.0448e-002
17155	16.443	3.9091	0.	1.0212e-002
17156	16.443	4.	5.e-002	4.8289
17157	16.72	4.	0.	1.0166e-002
17158	16.627	3.9091	0.	9.9387e-003
17159	16.627	4.	5.e-002	4.7719
17160	16.904	4.	0.	1.0054e-002
17161	16.812	3.9091	0.	9.8287e-003
17162	16.812	4.	5.e-002	4.7213
17163	17.088	4.	0.	1.0086e-002
17164	16.996	3.9091	0.	9.8605e-003
17165	16.996	4.	5.e-002	4.6759
17166	17.273	4.	0.	1.0243e-002
17167	17.18	3.9091	0.	1.0011e-002
17168	17.18	4.	5.e-002	4.6347
17169	17.457	4.	0.	1.0519e-002
17170	17.365	3.9091	0.	1.0265e-002
17171	17.365	4.	5.e-002	4.5971
17172	17.641	4.	0.	1.0928e-002
17173	17.549	3.9091	0.	1.0627e-002
17174	17.549	4.	5.e-002	4.5624
17175	17.825	4.	0.	1.1512e-002
17176	17.733	3.9091	0.	1.1109e-002
17177	17.733	4.	5.e-002	4.5302
17178	18.01	4.	0.	1.2418e-002
17179	17.918	3.9091	0.	1.1772e-002
17180	17.918	4.	5.e-002	4.5001
17181	18.194	4.	0.	1.4255e-002
17182	18.102	3.9091	0.	1.2813e-002
17183	18.102	4.	5.e-002	4.4719
17184	18.378	4.	0.	2.5385e-002
17185	18.286	3.9091	0.	1.5306e-002
17186	18.286	4.	5.e-002	4.4454
17187	18.563	4.	0.	2.409
17188	18.471	3.9091	0.	0.33196
17189	18.471	4.	5.e-002	4.4203
17190	18.747	4.	0.	5.8178
17191	18.655	3.9091	0.	3.8261
17192	18.655	4.	5.e-002	4.3966
17193	18.931	4.	0.	9.1805
17194	18.839	3.9091	0.	7.2935
17195	18.839	4.	5.e-002	4.3741
17196	19.116	4.	0.	12.515
17197	19.024	3.9091	0.	10.721
17198	19.024	4.	5.e-002	4.3528
17199	19.3	4.	0.	15.843
17200	19.208	3.9091	0.	14.129
17201	19.208	4.	5.e-002	4.3327
17202	19.484	4.	0.	19.183
17203	19.392	3.9091	0.	17.54
17204	19.392	4.	5.e-002	4.3137
17205	19.669	4.	0.	22.556
17206	19.576	3.9091	0.	20.974
17207	19.576	4.	5.e-002	4.2958
17208	19.853	4.	0.	25.984
17209	19.761	3.9091	0.	24.452
17210	19.761	4.	5.e-002	4.279
17211	20.037	4.	0.	29.487
17212	19.945	3.9091	0.	27.997
17213	19.945	4.	5.e-002	4.2633
17214	20.222	4.	0.	33.086
17215	20.129	3.9091	0.	31.63
17216	20.129	4.	5.e-002	4.2488
17217	20.406	4.	0.	36.805
17218	20.314	3.9091	0.	35.374
17219	20.314	4.	5.e-002	4.2355
17220	20.59	4.	0.	40.665
17221	20.498	3.9091	0.	39.251
17222	20.498	4.	5.e-002	4.2236
17223	20.775	4.	0.	44.691
17224	20.682	3.9091	0.	43.286
17225	20.682	4.	5.e-002	4.213
17226	20.959	4.	0.	48.906
17227	20.867	3.9091	0.	47.503
17228	20.867	4.	5.e-002	4.204
17229	21.143	4.	0.	53.338
17230	21.051	3.9091	0.	51.926
17231	21.051	4.	5.e-002	4.1966
17232	21.327	4.	0.	58.011
17233	21.235	3.9091	0.	56.583
17234	21.235	4.	5.e-002	4.1911
17235	21.512	4.	0.	62.956
17236	21.42	3.9091	0.	61.501
17237	21.42	4.	5.e-002	4.1876
17238	21.696	4.	0.	68.2
17239	21.604	3.9091	0.	66.707
17240	21.604	4.	5.e-002	4.1864
17241	21.88	4.	0.	73.774
17242	21.788	3.9091	0.	72.232
17243	21.788	4.	5.e-002	4.1877
17244	22.065	4.	0.	79.709
17245	21.973	3.9091	0.	78.104
17246	21.973	4.	5.e-002	4.1919
17247	22.249	4.	0.	86.037
17248	22.157	3.9091	0.	84.353
17249	22.157	4.	5.e-002	4.1993
17250	22.433	4.	0.	92.79
17251	22.341	3.9091	0.	91.009
17252	22.341	4.	5.e-002	4.2105
17253	22.618	4.	0.	99.996
17254	22.525	3.9091	0.	98.101
17255	22.525	4.	5.e-002	4.2258
17256	22.802	4.	0.	107.68
17257	22.71	3.9091	0.	105.65
17258	22.71	4.	5.e-002	4.2459
17259	22.986	4.	0.	115.87
17260	22.894	3.9091	0.	113.69
17261	22.894	4.	5.e-002	4.2711
17262	23.171	4.	0.	124.59
17263	23.078	3.9091	0.	122.23
17264	23.078	4.	5.e-002	4.302
17265	23.355	4.	0.	133.82
17266	23.263	3.9091	0.	131.27
17267	23.263	4.	5.e-002	4.3389
17268	23.539	4.	0.	143.61
17269	23.447	3.9091	0.	140.83
17270	23.447	4.	5.e-002	4.3819
17271	23.724	4.	0.	153.86
17272	23.631	3.9091	0.	150.94
17273	23.631	4.	5.e-002	4.4321
17274	23.816	3.9091	0.	161.38
17275	23.816	4.	5.e-002	4.5137
17276	23.908	4.	0.	163.92
17277	11.743	3.8182	0.	463.32
17278	11.651	3.7273	0.	635.63
17279	11.651	3.8182	5.e-002	280.06
17280	11.927	3.8182	0.	160.41
17281	11.835	3.7273	0.	270.55
17282	11.835	3.8182	5.e-002	127.93
17283	12.112	3.8182	0.	1.7409
17284	12.02	3.7273	0.	49.452
17285	12.02	3.8182	5.e-002	64.665
17286	12.296	3.8182	0.	2.3025
17287	12.204	3.7273	0.	2.2813
17288	12.204	3.8182	5.e-002	44.646
17289	12.48	3.8182	0.	0.7456
17290	12.388	3.7273	0.	0.69627
17291	12.388	3.8182	5.e-002	33.458
17292	12.665	3.8182	0.	0.70871
17293	12.573	3.7273	0.	0.74579
17294	12.573	3.8182	5.e-002	26.63
17295	12.849	3.8182	0.	0.47715
17296	12.757	3.7273	0.	0.49441
17297	12.757	3.8182	5.e-002	21.926
17298	13.033	3.8182	0.	0.37294
17299	12.941	3.7273	0.	0.39482
17300	12.941	3.8182	5.e-002	18.443
17301	13.218	3.8182	0.	0.28336
17302	13.125	3.7273	0.	0.29984
17303	13.125	3.8182	5.e-002	15.751
17304	13.402	3.8182	0.	0.219
17305	13.31	3.7273	0.	0.23224
17306	13.31	3.8182	5.e-002	13.618
17307	13.586	3.8182	0.	0.16886
17308	13.494	3.7273	0.	0.17872
17309	13.494	3.8182	5.e-002	11.907
17310	13.771	3.8182	0.	0.13045
17311	13.678	3.7273	0.	0.13768
17312	13.678	3.8182	5.e-002	10.527
17313	13.955	3.8182	0.	0.10085
17314	13.863	3.7273	0.	0.10599
17315	13.863	3.8182	5.e-002	9.4102
17316	14.139	3.8182	0.	7.8144e-002
17317	14.047	3.7273	0.	8.1714e-002
17318	14.047	3.8182	5.e-002	8.5071
17319	14.324	3.8182	0.	6.0761e-002
17320	14.231	3.7273	0.	6.3166e-002
17321	14.231	3.8182	5.e-002	7.7769
17322	14.508	3.8182	0.	4.7506e-002
17323	14.416	3.7273	0.	4.9061e-002
17324	14.416	3.8182	5.e-002	7.1867
17325	14.692	3.8182	0.	3.7435e-002
17326	14.6	3.7273	0.	3.8378e-002
17327	14.6	3.8182	5.e-002	6.7098
17328	14.876	3.8182	0.	2.9814e-002
17329	14.784	3.7273	0.	3.0325e-002
17330	14.784	3.8182	5.e-002	6.324
17331	15.061	3.8182	0.	2.4076e-002
17332	14.969	3.7273	0.	2.4285e-002
17333	14.969	3.8182	5.e-002	6.0113
17334	15.245	3.8182	0.	1.978e-002
17335	15.153	3.7273	0.	1.9784e-002
17336	15.153	3.8182	5.e-002	5.757
17337	15.429	3.8182	0.	1.6591e-002
17338	15.337	3.7273	0.	1.6459e-002
17339	15.337	3.8182	5.e-002	5.5492
17340	15.614	3.8182	0.	1.4247e-002
17341	15.522	3.7273	0.	1.403e-002
17342	15.522	3.8182	5.e-002	5.3784
17343	15.798	3.8182	0.	1.2556e-002
17344	15.706	3.7273	0.	1.2283e-002
17345	15.706	3.8182	5.e-002	5.237
17346	15.982	3.8182	0.	1.1363e-002
17347	15.89	3.7273	0.	1.1067e-002
17348	15.89	3.8182	5.e-002	5.1189
17349	16.167	3.8182	0.	1.054e-002
17350	16.075	3.7273	0.	1.0244e-002
17351	16.075	3.8182	5.e-002	5.0194
17352	16.351	3.8182	0.	1.0011e-002
17353	16.259	3.7273	0.	9.7066e-003
17354	16.259	3.8182	5.e-002	4.9348
17355	16.535	3.8182	0.	9.7214e-003
17356	16.443	3.7273	0.	9.4223e-003
17357	16.443	3.8182	5.e-002	4.8619
17358	16.72	3.8182	0.	9.6097e-003
17359	16.627	3.7273	0.	9.3252e-003
17360	16.627	3.8182	5.e-002	4.7986
17361	16.904	3.8182	0.	9.6354e-003
17362	16.812	3.7273	0.	9.3602e-003
17363	16.812	3.8182	5.e-002	4.7429
17364	17.088	3.8182	0.	9.7783e-003
17365	16.996	3.7273	0.	9.5106e-003
17366	16.996	3.8182	5.e-002	4.6935
17367	17.273	3.8182	0.	1.002e-002
17368	17.18	3.7273	0.	9.7548e-003
17369	17.18	3.8182	5.e-002	4.6491
17370	17.457	3.8182	0.	1.0352e-002
17371	17.365	3.7273	0.	1.0079e-002
17372	17.365	3.8182	5.e-002	4.6089
17373	17.641	3.8182	0.	1.0778e-002
17374	17.549	3.7273	0.	1.0481e-002
17375	17.549	3.8182	5.e-002	4.5722
17376	17.825	3.8182	0.	1.1319e-002
17377	17.733	3.7273	0.	1.0966e-002
17378	17.733	3.8182	5.e-002	4.5384
17379	18.01	3.8182	0.	1.2049e-002
17380	17.918	3.7273	0.	1.1564e-002
17381	17.918	3.8182	5.e-002	4.5071
17382	18.194	3.8182	0.	1.3248e-002
17383	18.102	3.7273	0.	1.237e-002
17384	18.102	3.8182	5.e-002	4.4778
17385	18.378	3.8182	0.	1.7336e-002
17386	18.286	3.7273	0.	1.3845e-002
17387	18.286	3.8182	5.e-002	4.4505
17388	18.563	3.8182	0.	1.7424
17389	18.471	3.7273	0.	3.2367e-002
17390	18.471	3.8182	5.e-002	4.4248
17391	18.747	3.8182	0.	5.3271
17392	18.655	3.7273	0.	3.3038
17393	18.655	3.8182	5.e-002	4.4006
17394	18.931	3.8182	0.	8.8606
17395	18.839	3.7273	0.	6.929
17396	18.839	3.8182	5.e-002	4.3778
17397	19.116	3.8182	0.	12.362
17398	19.024	3.7273	0.	10.51
17399	19.024	3.8182	5.e-002	4.3562
17400	19.3	3.8182	0.	15.855
17401	19.208	3.7273	0.	14.069
17402	19.208	3.8182	5.e-002	4.3359
17403	19.484	3.8182	0.	19.359
17404	19.392	3.7273	0.	17.629
17405	19.392	3.8182	5.e-002	4.3167
17406	19.669	3.8182	0.	22.899
17407	19.576	3.7273	0.	21.213
17408	19.576	3.8182	5.e-002	4.2987
17409	19.853	3.8182	0.	26.495
17410	19.761	3.7273	0.	24.843
17411	19.761	3.8182	5.e-002	4.2818
17412	20.037	3.8182	0.	30.171
17413	19.945	3.7273	0.	28.542
17414	19.945	3.8182	5.e-002	4.2662
17415	20.222	3.8182	0.	33.948
17416	20.129	3.7273	0.	32.334
17417	20.129	3.8182	5.e-002	4.2517
17418	20.406	3.8182	0.	37.851
17419	20.314	3.7273	0.	36.242
17420	20.314	3.8182	5.e-002	4.2386
17421	20.59	3.8182	0.	41.903
17422	20.498	3.7273	0.	40.29
17423	20.498	3.8182	5.e-002	4.2268
17424	20.775	3.8182	0.	46.129
17425	20.682	3.7273	0.	44.502
17426	20.682	3.8182	5.e-002	4.2164
17427	20.959	3.8182	0.	50.553
17428	20.867	3.7273	0.	48.903
17429	20.867	3.8182	5.e-002	4.2077
17430	21.143	3.8182	0.	55.202
17431	21.051	3.7273	0.	53.52
17432	21.051	3.8182	5.e-002	4.2006
17433	21.327	3.8182	0.	60.103
17434	21.235	3.7273	0.	58.377
17435	21.235	3.8182	5.e-002	4.1955
17436	21.512	3.8182	0.	65.282
17437	21.42	3.7273	0.	63.502
17438	21.42	3.8182	5.e-002	4.1925
17439	21.696	3.8182	0.	70.768
17440	21.604	3.7273	0.	68.923
17441	21.604	3.8182	5.e-002	4.1918
17442	21.88	3.8182	0.	76.588
17443	21.788	3.7273	0.	74.666
17444	21.788	3.8182	5.e-002	4.1937
17445	22.065	3.8182	0.	82.773
17446	21.973	3.7273	0.	80.76
17447	21.973	3.8182	5.e-002	4.1986
17448	22.249	3.8182	0.	89.348
17449	22.157	3.7273	0.	87.231
17450	22.157	3.8182	5.e-002	4.2068
17451	22.433	3.8182	0.	96.342
17452	22.341	3.7273	0.	94.104
17453	22.341	3.8182	5.e-002	4.2186
17454	22.618	3.8182	0.	103.78
17455	22.525	3.7273	0.	101.4
17456	22.525	3.8182	5.e-002	4.2346
17457	22.802	3.8182	0.	111.68
17458	22.71	3.7273	0.	109.15
17459	22.71	3.8182	5.e-002	4.2551
17460	22.986	3.8182	0.	120.06
17461	22.894	3.7273	0.	117.36
17462	22.894	3.8182	5.e-002	4.2805
17463	23.171	3.8182	0.	128.93
17464	23.078	3.7273	0.	126.05
17465	23.078	3.8182	5.e-002	4.311
17466	23.355	3.8182	0.	138.29
17467	23.263	3.7273	0.	135.23
17468	23.263	3.8182	5.e-002	4.347
17469	23.539	3.8182	0.	148.16
17470	23.447	3.7273	0.	144.87
17471	23.447	3.8182	5.e-002	4.3883
17472	23.724	3.8182	0.	158.46
17473	23.631	3.7273	0.	155.04
17474	23.631	3.8182	5.e-002	4.4355
17475	23.816	3.7273	0.	165.5
17476	23.816	3.8182	5.e-002	4.5063
17477	23.908	3.8182	0.	168.59
17478	11.743	3.6364	0.	480.84
17479	11.651	3.5455	0.	640.47
17480	11.651	3.6364	5.e-002	120.4
17481	11.927	3.6364	0.	174.43
17482	11.835	3.5455	0.	306.25
17483	11.835	3.6364	5.e-002	95.093
17484	12.112	3.6364	0.	5.0529
17485	12.02	3.5455	0.	76.358
17486	12.02	3.6364	5.e-002	68.263
17487	12.296	3.6364	0.	0.90316
17488	12.204	3.5455	0.	1.1993
17489	12.204	3.6364	5.e-002	48.01
17490	12.48	3.6364	0.	0.77841
17491	12.388	3.5455	0.	0.9002
17492	12.388	3.6364	5.e-002	36.716
17493	12.665	3.6364	0.	0.56862
17494	12.573	3.5455	0.	0.64123
17495	12.573	3.6364	5.e-002	29.372
17496	12.849	3.6364	0.	0.43216
17497	12.757	3.5455	0.	0.48805
17498	12.757	3.6364	5.e-002	24.147
17499	13.033	3.6364	0.	0.33382
17500	12.941	3.5455	0.	0.37404
17501	12.941	3.6364	5.e-002	20.212
17502	13.218	3.6364	0.	0.25652
17503	13.125	3.5455	0.	0.2853
17504	13.125	3.6364	5.e-002	17.149
17505	13.402	3.6364	0.	0.19723
17506	13.31	3.5455	0.	0.21756
17507	13.31	3.6364	5.e-002	14.721
17508	13.586	3.6364	0.	0.1512
17509	13.494	3.5455	0.	0.16539
17510	13.494	3.6364	5.e-002	12.778
17511	13.771	3.6364	0.	0.11583
17512	13.678	3.5455	0.	0.12561
17513	13.678	3.6364	5.e-002	11.217
17514	13.955	3.6364	0.	8.8739e-002
17515	13.863	3.5455	0.	9.5405e-002
17516	13.863	3.6364	5.e-002	9.9601
17517	14.139	3.6364	0.	6.8115e-002
17518	14.047	3.5455	0.	7.2586e-002
17519	14.047	3.6364	5.e-002	8.9472
17520	14.324	3.6364	0.	5.2482e-002
17521	14.231	3.5455	0.	5.5417e-002
17522	14.231	3.6364	5.e-002	8.1306
17523	14.508	3.6364	0.	4.0688e-002
17524	14.416	3.5455	0.	4.2553e-002
17525	14.416	3.6364	5.e-002	7.4719
17526	14.692	3.6364	0.	3.1833e-002
17527	14.6	3.5455	0.	3.2955e-002
17528	14.6	3.6364	5.e-002	6.9402
17529	14.876	3.6364	0.	2.5219e-002
17530	14.784	3.5455	0.	2.583e-002
17531	14.784	3.6364	5.e-002	6.5104
17532	15.061	3.6364	0.	2.0312e-002
17533	14.969	3.5455	0.	2.0575e-002
17534	14.969	3.6364	5.e-002	6.1621
17535	15.245	3.6364	0.	1.6703e-002
17536	15.153	3.5455	0.	1.6732e-002
17537	15.153	3.6364	5.e-002	5.879
17538	15.429	3.6364	0.	1.4078e-002
17539	15.337	3.5455	0.	1.3954e-002
17540	15.337	3.6364	5.e-002	5.6478
17541	15.614	3.6364	0.	1.2201e-002
17542	15.522	3.5455	0.	1.1982e-002
17543	15.522	3.6364	5.e-002	5.4581
17544	15.798	3.6364	0.	1.0895e-002
17545	15.706	3.5455	0.	1.0614e-002
17546	15.706	3.6364	5.e-002	5.3013
17547	15.982	3.6364	0.	1.0022e-002
17548	15.89	3.5455	0.	9.7126e-003
17549	15.89	3.6364	5.e-002	5.1708
17550	16.167	3.6364	0.	9.464e-003
17551	16.075	3.5455	0.	9.1519e-003
17552	16.075	3.6364	5.e-002	5.0613
17553	16.351	3.6364	0.	9.1553e-003
17554	16.259	3.5455	0.	8.8318e-003
17555	16.259	3.6364	5.e-002	4.9686
17556	16.535	3.6364	0.	9.05e-003
17557	16.443	3.5455	0.	8.7301e-003
17558	16.443	3.6364	5.e-002	4.8892
17559	16.72	3.6364	0.	9.0893e-003
17560	16.627	3.5455	0.	8.7831e-003
17561	16.627	3.6364	5.e-002	4.8207
17562	16.904	3.6364	0.	9.2406e-003
17563	16.812	3.5455	0.	8.9427e-003
17564	16.812	3.6364	5.e-002	4.7609
17565	17.088	3.6364	0.	9.4853e-003
17566	16.996	3.5455	0.	9.1973e-003
17567	16.996	3.6364	5.e-002	4.7081
17568	17.273	3.6364	0.	9.8058e-003
17569	17.18	3.5455	0.	9.5226e-003
17570	17.18	3.6364	5.e-002	4.661
17571	17.457	3.6364	0.	1.0194e-002
17572	17.365	3.5455	0.	9.9093e-003
17573	17.365	3.6364	5.e-002	4.6187
17574	17.641	3.6364	0.	1.0649e-002
17575	17.549	3.5455	0.	1.0353e-002
17576	17.549	3.6364	5.e-002	4.5803
17577	17.825	3.6364	0.	1.118e-002
17578	17.733	3.5455	0.	1.0853e-002
17579	17.733	3.6364	5.e-002	4.5452
17580	18.01	3.6364	0.	1.1822e-002
17581	17.918	3.5455	0.	1.1424e-002
17582	17.918	3.6364	5.e-002	4.5128
17583	18.194	3.6364	0.	1.2705e-002
17584	18.102	3.5455	0.	1.2108e-002
17585	18.102	3.6364	5.e-002	4.4827
17586	18.378	3.6364	0.	1.4729e-002
17587	18.286	3.5455	0.	1.3105e-002
17588	18.286	3.6364	5.e-002	4.4547
17589	18.563	3.6364	0.	1.2003
17590	18.471	3.5455	0.	1.7792e-002
17591	18.471	3.6364	5.e-002	4.4285
17592	18.747	3.6364	0.	4.9304
17593	18.655	3.5455	0.	2.8924
17594	18.655	3.6364	5.e-002	4.4039
17595	18.931	3.6364	0.	8.6043
17596	18.839	3.5455	0.	6.6438
17597	18.839	3.6364	5.e-002	4.3807
17598	19.116	3.6364	0.	12.243
17599	19.024	3.5455	0.	10.347
17600	19.024	3.6364	5.e-002	4.3589
17601	19.3	3.6364	0.	15.871
17602	19.208	3.5455	0.	14.026
17603	19.208	3.6364	5.e-002	4.3384
17604	19.484	3.6364	0.	19.51
17605	19.392	3.5455	0.	17.704
17606	19.392	3.6364	5.e-002	4.3191
17607	19.669	3.6364	0.	23.185
17608	19.576	3.5455	0.	21.407
17609	19.576	3.6364	5.e-002	4.301
17610	19.853	3.6364	0.	26.919
17611	19.761	3.5455	0.	25.157
17612	19.761	3.6364	5.e-002	4.2841
17613	20.037	3.6364	0.	30.735
17614	19.945	3.5455	0.	28.979
17615	19.945	3.6364	5.e-002	4.2685
17616	20.222	3.6364	0.	34.658
17617	20.129	3.5455	0.	32.897
17618	20.129	3.6364	5.e-002	4.2541
17619	20.406	3.6364	0.	38.711
17620	20.314	3.5455	0.	36.934
17621	20.314	3.6364	5.e-002	4.241
17622	20.59	3.6364	0.	42.918
17623	20.498	3.5455	0.	41.116
17624	20.498	3.6364	5.e-002	4.2294
17625	20.775	3.6364	0.	47.306
17626	20.682	3.5455	0.	45.467
17627	20.682	3.6364	5.e-002	4.2192
17628	20.959	3.6364	0.	51.899
17629	20.867	3.5455	0.	50.014
17630	20.867	3.6364	5.e-002	4.2107
17631	21.143	3.6364	0.	56.723
17632	21.051	3.5455	0.	54.78
17633	21.051	3.6364	5.e-002	4.2039
17634	21.327	3.6364	0.	61.804
17635	21.235	3.5455	0.	59.794
17636	21.235	3.6364	5.e-002	4.1991
17637	21.512	3.6364	0.	67.17
17638	21.42	3.5455	0.	65.08
17639	21.42	3.6364	5.e-002	4.1965
17640	21.696	3.6364	0.	72.848
17641	21.604	3.5455	0.	70.666
17642	21.604	3.6364	5.e-002	4.1962
17643	21.88	3.6364	0.	78.862
17644	21.788	3.5455	0.	76.578
17645	21.788	3.6364	5.e-002	4.1987
17646	22.065	3.6364	0.	85.241
17647	21.973	3.5455	0.	82.841
17648	21.973	3.6364	5.e-002	4.2041
17649	22.249	3.6364	0.	92.008
17650	22.157	3.5455	0.	89.48
17651	22.157	3.6364	5.e-002	4.2128
17652	22.433	3.6364	0.	99.186
17653	22.341	3.5455	0.	96.517
17654	22.341	3.6364	5.e-002	4.2252
17655	22.618	3.6364	0.	106.8
17656	22.525	3.5455	0.	103.97
17657	22.525	3.6364	5.e-002	4.2416
17658	22.802	3.6364	0.	114.86
17659	22.71	3.5455	0.	111.86
17660	22.71	3.6364	5.e-002	4.2623
17661	22.986	3.6364	0.	123.37
17662	22.894	3.5455	0.	120.21
17663	22.894	3.6364	5.e-002	4.2877
17664	23.171	3.6364	0.	132.36
17665	23.078	3.5455	0.	129.
17666	23.078	3.6364	5.e-002	4.318
17667	23.355	3.6364	0.	141.82
17668	23.263	3.5455	0.	138.27
17669	23.263	3.6364	5.e-002	4.3532
17670	23.539	3.6364	0.	151.76
17671	23.447	3.5455	0.	147.98
17672	23.447	3.6364	5.e-002	4.3931
17673	23.724	3.6364	0.	162.09
17674	23.631	3.5455	0.	158.2
17675	23.631	3.6364	5.e-002	4.4381
17676	23.816	3.5455	0.	168.67
17677	23.816	3.6364	5.e-002	4.5002
17678	23.908	3.6364	0.	172.27
17679	11.743	3.4545	0.	480.88
17680	11.651	3.3636	0.	608.59
17681	11.651	3.4545	5.e-002	67.252
17682	11.927	3.4545	0.	221.56
17683	11.835	3.3636	0.	345.12
17684	11.835	3.4545	5.e-002	71.407
17685	12.112	3.4545	0.	23.73
17686	12.02	3.3636	0.	116.
17687	12.02	3.4545	5.e-002	59.317
17688	12.296	3.4545	0.	1.1459
17689	12.204	3.3636	0.	1.5336
17690	12.204	3.4545	5.e-002	47.85
17691	12.48	3.4545	0.	0.78516
17692	12.388	3.3636	0.	0.91377
17693	12.388	3.4545	5.e-002	38.486
17694	12.665	3.4545	0.	0.5772
17695	12.573	3.3636	0.	0.67785
17696	12.573	3.4545	5.e-002	31.391
17697	12.849	3.4545	0.	0.44122
17698	12.757	3.3636	0.	0.51659
17699	12.757	3.4545	5.e-002	25.946
17700	13.033	3.4545	0.	0.33332
17701	12.941	3.3636	0.	0.38748
17702	12.941	3.4545	5.e-002	21.687
17703	13.218	3.4545	0.	0.25186
17704	13.125	3.3636	0.	0.28984
17705	13.125	3.4545	5.e-002	18.316
17706	13.402	3.4545	0.	0.18971
17707	13.31	3.3636	0.	0.21594
17708	13.31	3.4545	5.e-002	15.632
17709	13.586	3.4545	0.	0.14272
17710	13.494	3.3636	0.	0.1607
17711	13.494	3.4545	5.e-002	13.487
17712	13.771	3.4545	0.	0.10736
17713	13.678	3.3636	0.	0.1196
17714	13.678	3.4545	5.e-002	11.77
17715	13.955	3.4545	0.	8.0878e-002
17716	13.863	3.3636	0.	8.9166e-002
17717	13.863	3.4545	5.e-002	10.394
17718	14.139	3.4545	0.	6.1115e-002
17719	14.047	3.3636	0.	6.6683e-002
17720	14.047	3.4545	5.e-002	9.2904
17721	14.324	3.4545	0.	4.6417e-002
17722	14.231	3.3636	0.	5.0113e-002
17723	14.231	3.4545	5.e-002	8.4037
17724	14.508	3.4545	0.	3.5525e-002
17725	14.416	3.3636	0.	3.7932e-002
17726	14.416	3.4545	5.e-002	7.6906
17727	14.692	3.4545	0.	2.749e-002
17728	14.6	3.3636	0.	2.9008e-002
17729	14.6	3.4545	5.e-002	7.1161
17730	14.876	3.4545	0.	2.1596e-002
17731	14.784	3.3636	0.	2.2503e-002
17732	14.784	3.4545	5.e-002	6.6523
17733	15.061	3.4545	0.	1.7309e-002
17734	14.969	3.3636	0.	1.7796e-002
17735	14.969	3.4545	5.e-002	6.2768
17736	15.245	3.4545	0.	1.4223e-002
17737	15.153	3.3636	0.	1.4425e-002
17738	15.153	3.4545	5.e-002	5.9717
17739	15.429	3.4545	0.	1.204e-002
17740	15.337	3.3636	0.	1.205e-002
17741	15.337	3.4545	5.e-002	5.7229
17742	15.614	3.4545	0.	1.0533e-002
17743	15.522	3.3636	0.	1.0417e-002
17744	15.522	3.4545	5.e-002	5.5188
17745	15.798	3.4545	0.	9.536e-003
17746	15.706	3.3636	0.	9.333e-003
17747	15.706	3.4545	5.e-002	5.3504
17748	15.982	3.4545	0.	8.9205e-003
17749	15.89	3.3636	0.	8.6702e-003
17750	15.89	3.4545	5.e-002	5.2105
17751	16.167	3.4545	0.	8.5769e-003
17752	16.075	3.3636	0.	8.3081e-003
17753	16.075	3.4545	5.e-002	5.0934
17754	16.351	3.4545	0.	8.4473e-003
17755	16.259	3.3636	0.	8.1548e-003
17756	16.259	3.4545	5.e-002	4.9945
17757	16.535	3.4545	0.	8.4909e-003
17758	16.443	3.3636	0.	8.1911e-003
17759	16.443	3.4545	5.e-002	4.9102
17760	16.72	3.4545	0.	8.6538e-003
17761	16.627	3.3636	0.	8.3597e-003
17762	16.627	3.4545	5.e-002	4.8377
17763	16.904	3.4545	0.	8.9084e-003
17764	16.812	3.3636	0.	8.6155e-003
17765	16.812	3.4545	5.e-002	4.7747
17766	17.088	3.4545	0.	9.2368e-003
17767	16.996	3.3636	0.	8.9485e-003
17768	16.996	3.4545	5.e-002	4.7193
17769	17.273	3.4545	0.	9.6229e-003
17770	17.18	3.3636	0.	9.3375e-003
17771	17.18	3.4545	5.e-002	4.6703
17772	17.457	3.4545	0.	1.006e-002
17773	17.365	3.3636	0.	9.7741e-003
17774	17.365	3.4545	5.e-002	4.6263
17775	17.641	3.4545	0.	1.0545e-002
17776	17.549	3.3636	0.	1.0252e-002
17777	17.549	3.4545	5.e-002	4.5866
17778	17.825	3.4545	0.	1.1079e-002
17779	17.733	3.3636	0.	1.077e-002
17780	17.733	3.4545	5.e-002	4.5504
17781	18.01	3.4545	0.	1.1678e-002
17782	17.918	3.3636	0.	1.1331e-002
17783	17.918	3.4545	5.e-002	4.5172
17784	18.194	3.4545	0.	1.2398e-002
17785	18.102	3.3636	0.	1.1952e-002
17786	18.102	3.4545	5.e-002	4.4865
17787	18.378	3.4545	0.	1.3577e-002
17788	18.286	3.3636	0.	1.2711e-002
17789	18.286	3.4545	5.e-002	4.458
17790	18.563	3.4545	0.	0.78789
17791	18.471	3.3636	0.	1.4541e-002
17792	18.471	3.4545	5.e-002	4.4314
17793	18.747	3.4545	0.	4.6301
17794	18.655	3.3636	0.	2.5954
17795	18.655	3.4545	5.e-002	4.4064
17796	18.931	3.4545	0.	8.4117
17797	18.839	3.3636	0.	6.4389
17798	18.839	3.4545	5.e-002	4.383
17799	19.116	3.4545	0.	12.155
17800	19.024	3.3636	0.	10.231
17801	19.024	3.4545	5.e-002	4.361
17802	19.3	3.4545	0.	15.886
17803	19.208	3.3636	0.	13.997
17804	19.208	3.4545	5.e-002	4.3404
17805	19.484	3.4545	0.	19.628
17806	19.392	3.3636	0.	17.761
17807	19.392	3.4545	5.e-002	4.321
17808	19.669	3.4545	0.	23.407
17809	19.576	3.3636	0.	21.55
17810	19.576	3.4545	5.e-002	4.3028
17811	19.853	3.4545	0.	27.246
17812	19.761	3.3636	0.	25.387
17813	19.761	3.4545	5.e-002	4.2859
17814	20.037	3.4545	0.	31.169
17815	19.945	3.3636	0.	29.298
17816	19.945	3.4545	5.e-002	4.2703
17817	20.222	3.4545	0.	35.202
17818	20.129	3.3636	0.	33.306
17819	20.129	3.4545	5.e-002	4.2559
17820	20.406	3.4545	0.	39.368
17821	20.314	3.3636	0.	37.437
17822	20.314	3.4545	5.e-002	4.2429
17823	20.59	3.4545	0.	43.694
17824	20.498	3.3636	0.	41.716
17825	20.498	3.4545	5.e-002	4.2313
17826	20.775	3.4545	0.	48.204
17827	20.682	3.3636	0.	46.167
17828	20.682	3.4545	5.e-002	4.2213
17829	20.959	3.4545	0.	52.923
17830	20.867	3.3636	0.	50.818
17831	20.867	3.4545	5.e-002	4.2129
17832	21.143	3.4545	0.	57.879
17833	21.051	3.3636	0.	55.692
17834	21.051	3.4545	5.e-002	4.2064
17835	21.327	3.4545	0.	63.096
17836	21.235	3.3636	0.	60.817
17837	21.235	3.4545	5.e-002	4.2018
17838	21.512	3.4545	0.	68.602
17839	21.42	3.3636	0.	66.219
17840	21.42	3.4545	5.e-002	4.1995
17841	21.696	3.4545	0.	74.421
17842	21.604	3.3636	0.	71.922
17843	21.604	3.4545	5.e-002	4.1996
17844	21.88	3.4545	0.	80.58
17845	21.788	3.3636	0.	77.953
17846	21.788	3.4545	5.e-002	4.2024
17847	22.065	3.4545	0.	87.101
17848	21.973	3.3636	0.	84.335
17849	21.973	3.4545	5.e-002	4.2082
17850	22.249	3.4545	0.	94.008
17851	22.157	3.3636	0.	91.091
17852	22.157	3.4545	5.e-002	4.2173
17853	22.433	3.4545	0.	101.32
17854	22.341	3.3636	0.	98.242
17855	22.341	3.4545	5.e-002	4.2301
17856	22.618	3.4545	0.	109.06
17857	22.525	3.3636	0.	105.81
17858	22.525	3.4545	5.e-002	4.2468
17859	22.802	3.4545	0.	117.23
17860	22.71	3.3636	0.	113.8
17861	22.71	3.4545	5.e-002	4.2677
17862	22.986	3.4545	0.	125.85
17863	22.894	3.3636	0.	122.23
17864	22.894	3.4545	5.e-002	4.2931
17865	23.171	3.4545	0.	134.92
17866	23.078	3.3636	0.	131.1
17867	23.078	3.4545	5.e-002	4.323
17868	23.355	3.4545	0.	144.44
17869	23.263	3.3636	0.	140.42
17870	23.263	3.4545	5.e-002	4.3576
17871	23.539	3.4545	0.	154.43
17872	23.447	3.3636	0.	150.18
17873	23.447	3.4545	5.e-002	4.3965
17874	23.724	3.4545	0.	164.78
17875	23.631	3.3636	0.	160.43
17876	23.631	3.4545	5.e-002	4.4398
17877	23.816	3.3636	0.	170.91
17878	23.816	3.4545	5.e-002	4.4956
17879	23.908	3.4545	0.	174.99
17880	11.743	3.2727	0.	480.99
17881	11.651	3.1818	0.	592.01
17882	11.651	3.2727	5.e-002	41.238
17883	11.927	3.2727	0.	249.75
17884	11.835	3.1818	0.	361.99
17885	11.835	3.2727	5.e-002	52.231
17886	12.112	3.2727	0.	52.716
17887	12.02	3.1818	0.	142.98
17888	12.02	3.2727	5.e-002	51.564
17889	12.296	3.2727	0.	1.057
17890	12.204	3.1818	0.	1.2725
17891	12.204	3.2727	5.e-002	45.735
17892	12.48	3.2727	0.	0.8012
17893	12.388	3.1818	0.	0.90025
17894	12.388	3.2727	5.e-002	38.897
17895	12.665	3.2727	0.	0.62184
17896	12.573	3.1818	0.	0.71907
17897	12.573	3.2727	5.e-002	32.561
17898	12.849	3.2727	0.	0.46818
17899	12.757	3.1818	0.	0.54721
17900	12.757	3.2727	5.e-002	27.168
17901	13.033	3.2727	0.	0.34865
17902	12.941	3.1818	0.	0.40733
17903	12.941	3.2727	5.e-002	22.738
17904	13.218	3.2727	0.	0.25772
17905	13.125	3.1818	0.	0.29953
17906	13.125	3.2727	5.e-002	19.157
17907	13.402	3.2727	0.	0.18994
17908	13.31	3.1818	0.	0.21917
17909	13.31	3.2727	5.e-002	16.286
17910	13.586	3.2727	0.	0.13994
17911	13.494	3.1818	0.	0.16022
17912	13.494	3.2727	5.e-002	13.991
17913	13.771	3.2727	0.	0.10325
17914	13.678	3.1818	0.	0.11726
17915	13.678	3.2727	5.e-002	12.159
17916	13.955	3.2727	0.	7.6404e-002
17917	13.863	3.1818	0.	8.6076e-002
17918	13.863	3.2727	5.e-002	10.696
17919	14.139	3.2727	0.	5.6794e-002
17920	14.047	3.1818	0.	6.3455e-002
17921	14.047	3.2727	5.e-002	9.5266
17922	14.324	3.2727	0.	4.2491e-002
17923	14.231	3.1818	0.	4.7058e-002
17924	14.231	3.2727	5.e-002	8.5901
17925	14.508	3.2727	0.	3.2083e-002
17926	14.416	3.1818	0.	3.5188e-002
17927	14.416	3.2727	5.e-002	7.8388
17928	14.692	3.2727	0.	2.4539e-002
17929	14.6	3.1818	0.	2.662e-002
17930	14.6	3.2727	5.e-002	7.2348
17931	14.876	3.2727	0.	1.9103e-002
17932	14.784	3.1818	0.	2.0464e-002
17933	14.784	3.2727	5.e-002	6.7477
17934	15.061	3.2727	0.	1.5222e-002
17935	14.969	3.1818	0.	1.6077e-002
17936	14.969	3.2727	5.e-002	6.3539
17937	15.245	3.2727	0.	1.2491e-002
17938	15.153	3.1818	0.	1.299e-002
17939	15.153	3.2727	5.e-002	6.0341
17940	15.429	3.2727	0.	1.061e-002
17941	15.337	3.1818	0.	1.086e-002
17942	15.337	3.2727	5.e-002	5.7733
17943	15.614	3.2727	0.	9.3578e-003
17944	15.522	3.1818	0.	9.4361e-003
17945	15.522	3.2727	5.e-002	5.5596
17946	15.798	3.2727	0.	8.5745e-003
17947	15.706	3.1818	0.	8.5285e-003
17948	15.706	3.2727	5.e-002	5.3835
17949	15.982	3.2727	0.	8.1387e-003
17950	15.89	3.1818	0.	8.0138e-003
17951	15.89	3.2727	5.e-002	5.2373
17952	16.167	3.2727	0.	7.946e-003
17953	16.075	3.1818	0.	7.7756e-003
17954	16.075	3.2727	5.e-002	5.1151
17955	16.351	3.2727	0.	7.9421e-003
17956	16.259	3.1818	0.	7.7271e-003
17957	16.259	3.2727	5.e-002	5.0121
17958	16.535	3.2727	0.	8.0904e-003
17959	16.443	3.1818	0.	7.8495e-003
17960	16.443	3.2727	5.e-002	4.9244
17961	16.72	3.2727	0.	8.3414e-003
17962	16.627	3.1818	0.	8.0908e-003
17963	16.627	3.2727	5.e-002	4.8492
17964	16.904	3.2727	0.	8.6674e-003
17965	16.812	3.1818	0.	8.4063e-003
17966	16.812	3.2727	5.e-002	4.7841
17967	17.088	3.2727	0.	9.0543e-003
17968	16.996	3.1818	0.	8.789e-003
17969	16.996	3.2727	5.e-002	4.727
17970	17.273	3.2727	0.	9.4886e-003
17971	17.18	3.1818	0.	9.2183e-003
17972	17.18	3.2727	5.e-002	4.6765
17973	17.457	3.2727	0.	9.962e-003
17974	17.365	3.1818	0.	9.6864e-003
17975	17.365	3.2727	5.e-002	4.6315
17976	17.641	3.2727	0.	1.047e-002
17977	17.549	3.1818	0.	1.0188e-002
17978	17.549	3.2727	5.e-002	4.5909
17979	17.825	3.2727	0.	1.1012e-002
17980	17.733	3.1818	0.	1.0718e-002
17981	17.733	3.2727	5.e-002	4.554
17982	18.01	3.2727	0.	1.1591e-002
17983	17.918	3.1818	0.	1.1278e-002
17984	17.918	3.2727	5.e-002	4.5202
17985	18.194	3.2727	0.	1.2227e-002
17986	18.102	3.1818	0.	1.1869e-002
17987	18.102	3.2727	5.e-002	4.4891
17988	18.378	3.2727	0.	1.3024e-002
17989	18.286	3.1818	0.	1.2513e-002
17990	18.286	3.2727	5.e-002	4.4602
17991	18.563	3.2727	0.	0.50918
17992	18.471	3.1818	0.	1.3394e-002
17993	18.471	3.2727	5.e-002	4.4333
17994	18.747	3.2727	0.	4.4284
17995	18.655	3.1818	0.	2.416
17996	18.655	3.2727	5.e-002	4.4081
17997	18.931	3.2727	0.	8.283
17998	18.839	3.1818	0.	6.3155
17999	18.839	3.2727	5.e-002	4.3846
18000	19.116	3.2727	0.	12.098
18001	19.024	3.1818	0.	10.161
18002	19.024	3.2727	5.e-002	4.3624
18003	19.3	3.2727	0.	15.898
18004	19.208	3.1818	0.	13.98
18005	19.208	3.2727	5.e-002	4.3417
18006	19.484	3.2727	0.	19.71
18007	19.392	3.1818	0.	17.797
18008	19.392	3.2727	5.e-002	4.3222
18009	19.669	3.2727	0.	23.558
18010	19.576	3.1818	0.	21.638
18011	19.576	3.2727	5.e-002	4.304
18012	19.853	3.2727	0.	27.467
18013	19.761	3.1818	0.	25.528
18014	19.761	3.2727	5.e-002	4.2871
18015	20.037	3.2727	0.	31.463
18016	19.945	3.1818	0.	29.492
18017	19.945	3.2727	5.e-002	4.2715
18018	20.222	3.2727	0.	35.57
18019	20.129	3.1818	0.	33.555
18020	20.129	3.2727	5.e-002	4.2571
18021	20.406	3.2727	0.	39.813
18022	20.314	3.1818	0.	37.742
18023	20.314	3.2727	5.e-002	4.2442
18024	20.59	3.2727	0.	44.217
18025	20.498	3.1818	0.	42.079
18026	20.498	3.2727	5.e-002	4.2327
18027	20.775	3.2727	0.	48.809
18028	20.682	3.1818	0.	46.591
18029	20.682	3.2727	5.e-002	4.2227
18030	20.959	3.2727	0.	53.614
18031	20.867	3.1818	0.	51.304
18032	20.867	3.2727	5.e-002	4.2145
18033	21.143	3.2727	0.	58.657
18034	21.051	3.1818	0.	56.244
18035	21.051	3.2727	5.e-002	4.2081
18036	21.327	3.2727	0.	63.965
18037	21.235	3.1818	0.	61.436
18038	21.235	3.2727	5.e-002	4.2037
18039	21.512	3.2727	0.	69.563
18040	21.42	3.1818	0.	66.906
18041	21.42	3.2727	5.e-002	4.2015
18042	21.696	3.2727	0.	75.477
18043	21.604	3.1818	0.	72.679
18044	21.604	3.2727	5.e-002	4.2019
18045	21.88	3.2727	0.	81.73
18046	21.788	3.1818	0.	78.781
18047	21.788	3.2727	5.e-002	4.2049
18048	22.065	3.2727	0.	88.345
18049	21.973	3.1818	0.	85.234
18050	21.973	3.2727	5.e-002	4.211
18051	22.249	3.2727	0.	95.343
18052	22.157	3.1818	0.	92.059
18053	22.157	3.2727	5.e-002	4.2204
18054	22.433	3.2727	0.	102.74
18055	22.341	3.1818	0.	99.277
18056	22.341	3.2727	5.e-002	4.2333
18057	22.618	3.2727	0.	110.56
18058	22.525	3.1818	0.	106.9
18059	22.525	3.2727	5.e-002	4.2502
18060	22.802	3.2727	0.	118.81
18061	22.71	3.1818	0.	114.95
18062	22.71	3.2727	5.e-002	4.2712
18063	22.986	3.2727	0.	127.49
18064	22.894	3.1818	0.	123.43
18065	22.894	3.2727	5.e-002	4.2966
18066	23.171	3.2727	0.	136.62
18067	23.078	3.1818	0.	132.35
18068	23.078	3.2727	5.e-002	4.3263
18069	23.355	3.2727	0.	146.18
18070	23.263	3.1818	0.	141.71
18071	23.263	3.2727	5.e-002	4.3605
18072	23.539	3.2727	0.	156.19
18073	23.447	3.1818	0.	151.5
18074	23.447	3.2727	5.e-002	4.3987
18075	23.724	3.2727	0.	166.56
18076	23.631	3.1818	0.	161.76
18077	23.631	3.2727	5.e-002	4.4409
18078	23.816	3.1818	0.	172.25
18079	23.816	3.2727	5.e-002	4.4924
18080	23.908	3.2727	0.	176.8
18081	11.743	3.0909	0.	479.26
18082	11.651	3.	0.	585.44
18083	11.651	3.0909	5.e-002	32.276
18084	11.927	3.0909	0.	263.42
18085	11.835	3.	0.	367.17
18086	11.835	3.0909	5.e-002	43.89
18087	12.112	3.0909	0.	69.047
18088	12.02	3.	0.	152.1
18089	12.02	3.0909	5.e-002	46.895
18090	12.296	3.0909	0.	0.9364
18091	12.204	3.	0.	0.95126
18092	12.204	3.0909	5.e-002	44.106
18093	12.48	3.0909	0.	0.81297
18094	12.388	3.	0.	0.89651
18095	12.388	3.0909	5.e-002	38.807
18096	12.665	3.0909	0.	0.64499
18097	12.573	3.	0.	0.72981
18098	12.573	3.0909	5.e-002	33.047
18099	12.849	3.0909	0.	0.48872
18100	12.757	3.	0.	0.56009
18101	12.757	3.0909	5.e-002	27.768
18102	13.033	3.0909	0.	0.36105
18103	12.941	3.	0.	0.41579
18104	12.941	3.0909	5.e-002	23.28
18105	13.218	3.0909	0.	0.26372
18106	13.125	3.	0.	0.30405
18107	13.125	3.0909	5.e-002	19.598
18108	13.402	3.0909	0.	0.19185
18109	13.31	3.	0.	0.22102
18110	13.31	3.0909	5.e-002	16.629
18111	13.586	3.0909	0.	0.13955
18112	13.494	3.	0.	0.1605
18113	13.494	3.0909	5.e-002	14.254
18114	13.771	3.0909	0.	0.10173
18115	13.678	3.	0.	0.11672
18116	13.678	3.0909	5.e-002	12.361
18117	13.955	3.0909	0.	7.444e-002
18118	13.863	3.	0.	8.517e-002
18119	13.863	3.0909	5.e-002	10.851
18120	14.139	3.0909	0.	5.4761e-002
18121	14.047	3.	0.	6.2438e-002
18122	14.047	3.0909	5.e-002	9.6471
18123	14.324	3.0909	0.	4.0577e-002
18124	14.231	3.	0.	4.6065e-002
18125	14.231	3.0909	5.e-002	8.6847
18126	14.508	3.0909	0.	3.037e-002
18127	14.416	3.	0.	3.428e-002
18128	14.416	3.0909	5.e-002	7.9138
18129	14.692	3.0909	0.	2.305e-002
18130	14.6	3.	0.	2.5821e-002
18131	14.6	3.0909	5.e-002	7.2946
18132	14.876	3.0909	0.	1.7833e-002
18133	14.784	3.	0.	1.9777e-002
18134	14.784	3.0909	5.e-002	6.7958
18135	15.061	3.0909	0.	1.4153e-002
18136	14.969	3.	0.	1.5496e-002
18137	14.969	3.0909	5.e-002	6.3926
18138	15.245	3.0909	0.	1.1599e-002
18139	15.153	3.	0.	1.2503e-002
18140	15.153	3.0909	5.e-002	6.0654
18141	15.429	3.0909	0.	9.8709e-003
18142	15.337	3.	0.	1.0455e-002
18143	15.337	3.0909	5.e-002	5.7987
18144	15.614	3.0909	0.	8.7492e-003
18145	15.522	3.	0.	9.1015e-003
18146	15.522	3.0909	5.e-002	5.5802
18147	15.798	3.0909	0.	8.0767e-003
18148	15.706	3.	0.	8.2545e-003
18149	15.706	3.0909	5.e-002	5.4001
18150	15.982	3.0909	0.	7.7334e-003
18151	15.89	3.	0.	7.7888e-003
18152	15.89	3.0909	5.e-002	5.2508
18153	16.167	3.0909	0.	7.6185e-003
18154	16.075	3.	0.	7.5934e-003
18155	16.075	3.0909	5.e-002	5.126
18156	16.351	3.0909	0.	7.6798e-003
18157	16.259	3.	0.	7.5799e-003
18158	16.259	3.0909	5.e-002	5.0209
18159	16.535	3.0909	0.	7.8821e-003
18160	16.443	3.	0.	7.7327e-003
18161	16.443	3.0909	5.e-002	4.9316
18162	16.72	3.0909	0.	8.1773e-003
18163	16.627	3.	0.	7.9983e-003
18164	16.627	3.0909	5.e-002	4.8551
18165	16.904	3.0909	0.	8.5413e-003
18166	16.812	3.	0.	8.3345e-003
18167	16.812	3.0909	5.e-002	4.7888
18168	17.088	3.0909	0.	8.9598e-003
18169	16.996	3.	0.	8.735e-003
18170	16.996	3.0909	5.e-002	4.7308
18171	17.273	3.0909	0.	9.4178e-003
18172	17.18	3.	0.	9.1769e-003
18173	17.18	3.0909	5.e-002	4.6797
18174	17.457	3.0909	0.	9.9104e-003
18175	17.365	3.	0.	9.6558e-003
18176	17.365	3.0909	5.e-002	4.6341
18177	17.641	3.0909	0.	1.0432e-002
18178	17.549	3.	0.	1.0166e-002
18179	17.549	3.0909	5.e-002	4.593
18180	17.825	3.0909	0.	1.0979e-002
18181	17.733	3.	0.	1.0701e-002
18182	17.733	3.0909	5.e-002	4.5558
18183	18.01	3.0909	0.	1.1552e-002
18184	17.918	3.	0.	1.126e-002
18185	17.918	3.0909	5.e-002	4.5217
18186	18.194	3.0909	0.	1.2152e-002
18187	18.102	3.	0.	1.1844e-002
18188	18.102	3.0909	5.e-002	4.4904
18189	18.378	3.0909	0.	1.2792e-002
18190	18.286	3.	0.	1.2453e-002
18191	18.286	3.0909	5.e-002	4.4613
18192	18.563	3.0909	0.	0.36788
18193	18.471	3.	0.	1.3089e-002
18194	18.471	3.0909	5.e-002	4.4343
18195	18.747	3.0909	0.	4.3271
18196	18.655	3.	0.	2.356
18197	18.655	3.0909	5.e-002	4.409
18198	18.931	3.0909	0.	8.2186
18199	18.839	3.	0.	6.2742
18200	18.839	3.0909	5.e-002	4.3853
18201	19.116	3.0909	0.	12.069
18202	19.024	3.	0.	10.138
18203	19.024	3.0909	5.e-002	4.3632
18204	19.3	3.0909	0.	15.905
18205	19.208	3.	0.	13.974
18206	19.208	3.0909	5.e-002	4.3424
18207	19.484	3.0909	0.	19.751
18208	19.392	3.	0.	17.809
18209	19.392	3.0909	5.e-002	4.3229
18210	19.669	3.0909	0.	23.635
18211	19.576	3.	0.	21.667
18212	19.576	3.0909	5.e-002	4.3047
18213	19.853	3.0909	0.	27.58
18214	19.761	3.	0.	25.575
18215	19.761	3.0909	5.e-002	4.2877
18216	20.037	3.0909	0.	31.611
18217	19.945	3.	0.	29.557
18218	19.945	3.0909	5.e-002	4.2721
18219	20.222	3.0909	0.	35.755
18220	20.129	3.	0.	33.638
18221	20.129	3.0909	5.e-002	4.2577
18222	20.406	3.0909	0.	40.037
18223	20.314	3.	0.	37.845
18224	20.314	3.0909	5.e-002	4.2448
18225	20.59	3.0909	0.	44.481
18226	20.498	3.	0.	42.201
18227	20.498	3.0909	5.e-002	4.2333
18228	20.775	3.0909	0.	49.114
18229	20.682	3.	0.	46.734
18230	20.682	3.0909	5.e-002	4.2234
18231	20.959	3.0909	0.	53.961
18232	20.867	3.	0.	51.467
18233	20.867	3.0909	5.e-002	4.2153
18234	21.143	3.0909	0.	59.048
18235	21.051	3.	0.	56.428
18236	21.051	3.0909	5.e-002	4.2089
18237	21.327	3.0909	0.	64.401
18238	21.235	3.	0.	61.643
18239	21.235	3.0909	5.e-002	4.2046
18240	21.512	3.0909	0.	70.046
18241	21.42	3.	0.	67.136
18242	21.42	3.0909	5.e-002	4.2026
18243	21.696	3.0909	0.	76.006
18244	21.604	3.	0.	72.933
18245	21.604	3.0909	5.e-002	4.203
18246	21.88	3.0909	0.	82.306
18247	21.788	3.	0.	79.058
18248	21.788	3.0909	5.e-002	4.2062
18249	22.065	3.0909	0.	88.968
18250	21.973	3.	0.	85.534
18251	21.973	3.0909	5.e-002	4.2124
18252	22.249	3.0909	0.	96.011
18253	22.157	3.	0.	92.382
18254	22.157	3.0909	5.e-002	4.2219
18255	22.433	3.0909	0.	103.45
18256	22.341	3.	0.	99.622
18257	22.341	3.0909	5.e-002	4.235
18258	22.618	3.0909	0.	111.31
18259	22.525	3.	0.	107.27
18260	22.525	3.0909	5.e-002	4.2519
18261	22.802	3.0909	0.	119.59
18262	22.71	3.	0.	115.34
18263	22.71	3.0909	5.e-002	4.273
18264	22.986	3.0909	0.	128.31
18265	22.894	3.	0.	123.84
18266	22.894	3.0909	5.e-002	4.2983
18267	23.171	3.0909	0.	137.46
18268	23.078	3.	0.	132.77
18269	23.078	3.0909	5.e-002	4.3279
18270	23.355	3.0909	0.	147.04
18271	23.263	3.	0.	142.14
18272	23.263	3.0909	5.e-002	4.3619
18273	23.539	3.0909	0.	157.07
18274	23.447	3.	0.	151.93
18275	23.447	3.0909	5.e-002	4.3998
18276	23.724	3.0909	0.	167.45
18277	23.631	3.	0.	162.2
18278	23.631	3.0909	5.e-002	4.4415
18279	23.816	3.	0.	172.69
18280	23.816	3.0909	5.e-002	4.4909
18281	23.908	3.0909	0.	177.69
18282	11.743	2.9091	0.	479.26
18283	11.651	2.8182	0.	592.01
18284	11.651	2.9091	5.e-002	32.276
18285	11.927	2.9091	0.	263.42
18286	11.835	2.8182	0.	361.99
18287	11.835	2.9091	5.e-002	43.89
18288	12.112	2.9091	0.	69.047
18289	12.02	2.8182	0.	142.98
18290	12.02	2.9091	5.e-002	46.895
18291	12.296	2.9091	0.	0.9364
18292	12.204	2.8182	0.	1.2725
18293	12.204	2.9091	5.e-002	44.106
18294	12.48	2.9091	0.	0.81297
18295	12.388	2.8182	0.	0.90025
18296	12.388	2.9091	5.e-002	38.808
18297	12.665	2.9091	0.	0.64499
18298	12.573	2.8182	0.	0.71907
18299	12.573	2.9091	5.e-002	33.047
18300	12.849	2.9091	0.	0.48872
18301	12.757	2.8182	0.	0.54721
18302	12.757	2.9091	5.e-002	27.768
18303	13.033	2.9091	0.	0.36105
18304	12.941	2.8182	0.	0.40733
18305	12.941	2.9091	5.e-002	23.28
18306	13.218	2.9091	0.	0.26372
18307	13.125	2.8182	0.	0.29953
18308	13.125	2.9091	5.e-002	19.598
18309	13.402	2.9091	0.	0.19185
18310	13.31	2.8182	0.	0.21917
18311	13.31	2.9091	5.e-002	16.629
18312	13.586	2.9091	0.	0.13955
18313	13.494	2.8182	0.	0.16022
18314	13.494	2.9091	5.e-002	14.254
18315	13.771	2.9091	0.	0.10173
18316	13.678	2.8182	0.	0.11726
18317	13.678	2.9091	5.e-002	12.361
18318	13.955	2.9091	0.	7.444e-002
18319	13.863	2.8182	0.	8.6076e-002
18320	13.863	2.9091	5.e-002	10.851
18321	14.139	2.9091	0.	5.4761e-002
18322	14.047	2.8182	0.	6.3454e-002
18323	14.047	2.9091	5.e-002	9.6472
18324	14.324	2.9091	0.	4.0577e-002
18325	14.231	2.8182	0.	4.7058e-002
18326	14.231	2.9091	5.e-002	8.6847
18327	14.508	2.9091	0.	3.037e-002
18328	14.416	2.8182	0.	3.5188e-002
18329	14.416	2.9091	5.e-002	7.9138
18330	14.692	2.9091	0.	2.3049e-002
18331	14.6	2.8182	0.	2.662e-002
18332	14.6	2.9091	5.e-002	7.2946
18333	14.876	2.9091	0.	1.7833e-002
18334	14.784	2.8182	0.	2.0463e-002
18335	14.784	2.9091	5.e-002	6.7958
18336	15.061	2.9091	0.	1.4153e-002
18337	14.969	2.8182	0.	1.6077e-002
18338	14.969	2.9091	5.e-002	6.3926
18339	15.245	2.9091	0.	1.1599e-002
18340	15.153	2.8182	0.	1.299e-002
18341	15.153	2.9091	5.e-002	6.0654
18342	15.429	2.9091	0.	9.8712e-003
18343	15.337	2.8182	0.	1.086e-002
18344	15.337	2.9091	5.e-002	5.7987
18345	15.614	2.9091	0.	8.7497e-003
18346	15.522	2.8182	0.	9.4351e-003
18347	15.522	2.9091	5.e-002	5.5802
18348	15.798	2.9091	0.	8.0761e-003
18349	15.706	2.8182	0.	8.5289e-003
18350	15.706	2.9091	5.e-002	5.4001
18351	15.982	2.9091	0.	7.7321e-003
18352	15.89	2.8182	0.	8.0125e-003
18353	15.89	2.9091	5.e-002	5.2508
18354	16.167	2.9091	0.	7.6172e-003
18355	16.075	2.8182	0.	7.7754e-003
18356	16.075	2.9091	5.e-002	5.126
18357	16.351	2.9091	0.	7.6786e-003
18358	16.259	2.8182	0.	7.7258e-003
18359	16.259	2.9091	5.e-002	5.0209
18360	16.535	2.9091	0.	7.8815e-003
18361	16.443	2.8182	0.	7.8498e-003
18362	16.443	2.9091	5.e-002	4.9316
18363	16.72	2.9091	0.	8.1776e-003
18364	16.627	2.8182	0.	8.0901e-003
18365	16.627	2.9091	5.e-002	4.8551
18366	16.904	2.9091	0.	8.542e-003
18367	16.812	2.8182	0.	8.4069e-003
18368	16.812	2.9091	5.e-002	4.7888
18369	17.088	2.9091	0.	8.9594e-003
18370	16.996	2.8182	0.	8.7894e-003
18371	16.996	2.9091	5.e-002	4.7308
18372	17.273	2.9091	0.	9.4171e-003
18373	17.18	2.8182	0.	9.2181e-003
18374	17.18	2.9091	5.e-002	4.6797
18375	17.457	2.9091	0.	9.9098e-003
18376	17.365	2.8182	0.	9.6866e-003
18377	17.365	2.9091	5.e-002	4.6341
18378	17.641	2.9091	0.	1.0432e-002
18379	17.549	2.8182	0.	1.0188e-002
18380	17.549	2.9091	5.e-002	4.593
18381	17.825	2.9091	0.	1.0978e-002
18382	17.733	2.8182	0.	1.0719e-002
18383	17.733	2.9091	5.e-002	4.5558
18384	18.01	2.9091	0.	1.155e-002
18385	17.918	2.8182	0.	1.1277e-002
18386	17.918	2.9091	5.e-002	4.5217
18387	18.194	2.9091	0.	1.2152e-002
18388	18.102	2.8182	0.	1.187e-002
18389	18.102	2.9091	5.e-002	4.4904
18390	18.378	2.9091	0.	1.2793e-002
18391	18.286	2.8182	0.	1.2513e-002
18392	18.286	2.9091	5.e-002	4.4613
18393	18.563	2.9091	0.	0.36787
18394	18.471	2.8182	0.	1.3394e-002
18395	18.471	2.9091	5.e-002	4.4343
18396	18.747	2.9091	0.	4.3271
18397	18.655	2.8182	0.	2.416
18398	18.655	2.9091	5.e-002	4.409
18399	18.931	2.9091	0.	8.2186
18400	18.839	2.8182	0.	6.3154
18401	18.839	2.9091	5.e-002	4.3853
18402	19.116	2.9091	0.	12.069
18403	19.024	2.8182	0.	10.161
18404	19.024	2.9091	5.e-002	4.3632
18405	19.3	2.9091	0.	15.905
18406	19.208	2.8182	0.	13.98
18407	19.208	2.9091	5.e-002	4.3424
18408	19.484	2.9091	0.	19.751
18409	19.392	2.8182	0.	17.797
18410	19.392	2.9091	5.e-002	4.3229
18411	19.669	2.9091	0.	23.635
18412	19.576	2.8182	0.	21.638
18413	19.576	2.9091	5.e-002	4.3047
18414	19.853	2.9091	0.	27.58
18415	19.761	2.8182	0.	25.528
18416	19.761	2.9091	5.e-002	4.2877
18417	20.037	2.9091	0.	31.611
18418	19.945	2.8182	0.	29.492
18419	19.945	2.9091	5.e-002	4.2721
18420	20.222	2.9091	0.	35.755
18421	20.129	2.8182	0.	33.555
18422	20.129	2.9091	5.e-002	4.2577
18423	20.406	2.9091	0.	40.037
18424	20.314	2.8182	0.	37.742
18425	20.314	2.9091	5.e-002	4.2448
18426	20.59	2.9091	0.	44.481
18427	20.498	2.8182	0.	42.079
18428	20.498	2.9091	5.e-002	4.2333
18429	20.775	2.9091	0.	49.114
18430	20.682	2.8182	0.	46.591
18431	20.682	2.9091	5.e-002	4.2234
18432	20.959	2.9091	0.	53.961
18433	20.867	2.8182	0.	51.304
18434	20.867	2.9091	5.e-002	4.2153
18435	21.143	2.9091	0.	59.048
18436	21.051	2.8182	0.	56.244
18437	21.051	2.9091	5.e-002	4.2089
18438	21.327	2.9091	0.	64.401
18439	21.235	2.8182	0.	61.436
18440	21.235	2.9091	5.e-002	4.2046
18441	21.512	2.9091	0.	70.046
18442	21.42	2.8182	0.	66.906
18443	21.42	2.9091	5.e-002	4.2026
18444	21.696	2.9091	0.	76.006
18445	21.604	2.8182	0.	72.679
18446	21.604	2.9091	5.e-002	4.203
18447	21.88	2.9091	0.	82.306
18448	21.788	2.8182	0.	78.781
18449	21.788	2.9091	5.e-002	4.2062
18450	22.065	2.9091	0.	88.968
18451	21.973	2.8182	0.	85.234
18452	21.973	2.9091	5.e-002	4.2124
18453	22.249	2.9091	0.	96.011
18454	22.157	2.8182	0.	92.059
18455	22.157	2.9091	5.e-002	4.2219
18456	22.433	2.9091	0.	103.45
18457	22.341	2.8182	0.	99.277
18458	22.341	2.9091	5.e-002	4.235
18459	22.618	2.9091	0.	111.31
18460	22.525	2.8182	0.	106.9
18461	22.525	2.9091	5.e-002	4.2519
18462	22.802	2.9091	0.	119.59
18463	22.71	2.8182	0.	114.95
18464	22.71	2.9091	5.e-002	4.273
18465	22.986	2.9091	0.	128.31
18466	22.894	2.8182	0.	123.43
18467	22.894	2.9091	5.e-002	4.2983
18468	23.171	2.9091	0.	137.46
18469	23.078	2.8182	0.	132.35
18470	23.078	2.9091	5.e-002	4.3279
18471	23.355	2.9091	0.	147.04
18472	23.263	2.8182	0.	141.71
18473	23.263	2.9091	5.e-002	4.3619
18474	23.539	2.9091	0.	157.07
18475	23.447	2.8182	0.	151.5
18476	23.447	2.9091	5.e-002	4.3998
18477	23.724	2.9091	0.	167.45
18478	23.631	2.8182	0.	161.76
18479	23.631	2.9091	5.e-002	4.4415
18480	23.816	2.8182	0.	172.25
18481	23.816	2.9091	5.e-002	4.4909
18482	23.908	2.9091	0.	177.69
18483	11.743	2.7273	0.	480.99
18484	11.651	2.6364	0.	608.59
18485	11.651	2.7273	5.e-002	41.239
18486	11.927	2.7273	0.	249.75
18487	11.835	2.6364	0.	345.12
18488	11.835	2.7273	5.e-002	52.232
18489	12.112	2.7273	0.	52.716
18490	12.02	2.6364	0.	116.
18491	12.02	2.7273	5.e-002	51.564
18492	12.296	2.7273	0.	1.057
18493	12.204	2.6364	0.	1.5336
18494	12.204	2.7273	5.e-002	45.736
18495	12.48	2.7273	0.	0.8012
18496	12.388	2.6364	0.	0.91377
18497	12.388	2.7273	5.e-002	38.897
18498	12.665	2.7273	0.	0.62184
18499	12.573	2.6364	0.	0.67785
18500	12.573	2.7273	5.e-002	32.561
18501	12.849	2.7273	0.	0.46818
18502	12.757	2.6364	0.	0.51659
18503	12.757	2.7273	5.e-002	27.168
18504	13.033	2.7273	0.	0.34865
18505	12.941	2.6364	0.	0.38748
18506	12.941	2.7273	5.e-002	22.738
18507	13.218	2.7273	0.	0.25772
18508	13.125	2.6364	0.	0.28984
18509	13.125	2.7273	5.e-002	19.157
18510	13.402	2.7273	0.	0.18994
18511	13.31	2.6364	0.	0.21594
18512	13.31	2.7273	5.e-002	16.286
18513	13.586	2.7273	0.	0.13994
18514	13.494	2.6364	0.	0.1607
18515	13.494	2.7273	5.e-002	13.991
18516	13.771	2.7273	0.	0.10325
18517	13.678	2.6364	0.	0.1196
18518	13.678	2.7273	5.e-002	12.159
18519	13.955	2.7273	0.	7.6403e-002
18520	13.863	2.6364	0.	8.9166e-002
18521	13.863	2.7273	5.e-002	10.696
18522	14.139	2.7273	0.	5.6794e-002
18523	14.047	2.6364	0.	6.6683e-002
18524	14.047	2.7273	5.e-002	9.5266
18525	14.324	2.7273	0.	4.2491e-002
18526	14.231	2.6364	0.	5.0113e-002
18527	14.231	2.7273	5.e-002	8.5901
18528	14.508	2.7273	0.	3.2084e-002
18529	14.416	2.6364	0.	3.7932e-002
18530	14.416	2.7273	5.e-002	7.8388
18531	14.692	2.7273	0.	2.4539e-002
18532	14.6	2.6364	0.	2.9009e-002
18533	14.6	2.7273	5.e-002	7.2348
18534	14.876	2.7273	0.	1.9102e-002
18535	14.784	2.6364	0.	2.2503e-002
18536	14.784	2.7273	5.e-002	6.7478
18537	15.061	2.7273	0.	1.5221e-002
18538	14.969	2.6364	0.	1.7795e-002
18539	14.969	2.7273	5.e-002	6.3539
18540	15.245	2.7273	0.	1.249e-002
18541	15.153	2.6364	0.	1.4425e-002
18542	15.153	2.7273	5.e-002	6.0341
18543	15.429	2.7273	0.	1.0609e-002
18544	15.337	2.6364	0.	1.205e-002
18545	15.337	2.7273	5.e-002	5.7733
18546	15.614	2.7273	0.	9.3567e-003
18547	15.522	2.6364	0.	1.0416e-002
18548	15.522	2.7273	5.e-002	5.5596
18549	15.798	2.7273	0.	8.5742e-003
18550	15.706	2.6364	0.	9.3333e-003
18551	15.706	2.7273	5.e-002	5.3835
18552	15.982	2.7273	0.	8.1384e-003
18553	15.89	2.6364	0.	8.6698e-003
18554	15.89	2.7273	5.e-002	5.2373
18555	16.167	2.7273	0.	7.9457e-003
18556	16.075	2.6364	0.	8.3081e-003
18557	16.075	2.7273	5.e-002	5.1151
18558	16.351	2.7273	0.	7.9422e-003
18559	16.259	2.6364	0.	8.1549e-003
18560	16.259	2.7273	5.e-002	5.0121
18561	16.535	2.7273	0.	8.0904e-003
18562	16.443	2.6364	0.	8.1917e-003
18563	16.443	2.7273	5.e-002	4.9244
18564	16.72	2.7273	0.	8.3411e-003
18565	16.627	2.6364	0.	8.3596e-003
18566	16.627	2.7273	5.e-002	4.8493
18567	16.904	2.7273	0.	8.6676e-003
18568	16.812	2.6364	0.	8.6161e-003
18569	16.812	2.7273	5.e-002	4.7841
18570	17.088	2.7273	0.	9.055e-003
18571	16.996	2.6364	0.	8.9479e-003
18572	16.996	2.7273	5.e-002	4.727
18573	17.273	2.7273	0.	9.4892e-003
18574	17.18	2.6364	0.	9.3381e-003
18575	17.18	2.7273	5.e-002	4.6765
18576	17.457	2.7273	0.	9.9622e-003
18577	17.365	2.6364	0.	9.7743e-003
18578	17.365	2.7273	5.e-002	4.6315
18579	17.641	2.7273	0.	1.047e-002
18580	17.549	2.6364	0.	1.0252e-002
18581	17.549	2.7273	5.e-002	4.5909
18582	17.825	2.7273	0.	1.1012e-002
18583	17.733	2.6364	0.	1.077e-002
18584	17.733	2.7273	5.e-002	4.554
18585	18.01	2.7273	0.	1.1592e-002
18586	17.918	2.6364	0.	1.1331e-002
18587	17.918	2.7273	5.e-002	4.5202
18588	18.194	2.7273	0.	1.2228e-002
18589	18.102	2.6364	0.	1.1954e-002
18590	18.102	2.7273	5.e-002	4.4891
18591	18.378	2.7273	0.	1.3023e-002
18592	18.286	2.6364	0.	1.2711e-002
18593	18.286	2.7273	5.e-002	4.4602
18594	18.563	2.7273	0.	0.50917
18595	18.471	2.6364	0.	1.454e-002
18596	18.471	2.7273	5.e-002	4.4333
18597	18.747	2.7273	0.	4.4284
18598	18.655	2.6364	0.	2.5954
18599	18.655	2.7273	5.e-002	4.4081
18600	18.931	2.7273	0.	8.283
18601	18.839	2.6364	0.	6.4389
18602	18.839	2.7273	5.e-002	4.3846
18603	19.116	2.7273	0.	12.098
18604	19.024	2.6364	0.	10.231
18605	19.024	2.7273	5.e-002	4.3624
18606	19.3	2.7273	0.	15.898
18607	19.208	2.6364	0.	13.997
18608	19.208	2.7273	5.e-002	4.3417
18609	19.484	2.7273	0.	19.71
18610	19.392	2.6364	0.	17.761
18611	19.392	2.7273	5.e-002	4.3222
18612	19.669	2.7273	0.	23.558
18613	19.576	2.6364	0.	21.55
18614	19.576	2.7273	5.e-002	4.304
18615	19.853	2.7273	0.	27.467
18616	19.761	2.6364	0.	25.387
18617	19.761	2.7273	5.e-002	4.2871
18618	20.037	2.7273	0.	31.463
18619	19.945	2.6364	0.	29.298
18620	19.945	2.7273	5.e-002	4.2715
18621	20.222	2.7273	0.	35.57
18622	20.129	2.6364	0.	33.306
18623	20.129	2.7273	5.e-002	4.2571
18624	20.406	2.7273	0.	39.813
18625	20.314	2.6364	0.	37.437
18626	20.314	2.7273	5.e-002	4.2442
18627	20.59	2.7273	0.	44.217
18628	20.498	2.6364	0.	41.716
18629	20.498	2.7273	5.e-002	4.2327
18630	20.775	2.7273	0.	48.809
18631	20.682	2.6364	0.	46.167
18632	20.682	2.7273	5.e-002	4.2227
18633	20.959	2.7273	0.	53.614
18634	20.867	2.6364	0.	50.818
18635	20.867	2.7273	5.e-002	4.2145
18636	21.143	2.7273	0.	58.657
18637	21.051	2.6364	0.	55.692
18638	21.051	2.7273	5.e-002	4.2081
18639	21.327	2.7273	0.	63.965
18640	21.235	2.6364	0.	60.817
18641	21.235	2.7273	5.e-002	4.2037
18642	21.512	2.7273	0.	69.563
18643	21.42	2.6364	0.	66.219
18644	21.42	2.7273	5.e-002	4.2015
18645	21.696	2.7273	0.	75.477
18646	21.604	2.6364	0.	71.922
18647	21.604	2.7273	5.e-002	4.2019
18648	21.88	2.7273	0.	81.73
18649	21.788	2.6364	0.	77.953
18650	21.788	2.7273	5.e-002	4.2049
18651	22.065	2.7273	0.	88.345
18652	21.973	2.6364	0.	84.335
18653	21.973	2.7273	5.e-002	4.211
18654	22.249	2.7273	0.	95.343
18655	22.157	2.6364	0.	91.091
18656	22.157	2.7273	5.e-002	4.2204
18657	22.433	2.7273	0.	102.74
18658	22.341	2.6364	0.	98.242
18659	22.341	2.7273	5.e-002	4.2333
18660	22.618	2.7273	0.	110.56
18661	22.525	2.6364	0.	105.81
18662	22.525	2.7273	5.e-002	4.2502
18663	22.802	2.7273	0.	118.81
18664	22.71	2.6364	0.	113.8
18665	22.71	2.7273	5.e-002	4.2712
18666	22.986	2.7273	0.	127.49
18667	22.894	2.6364	0.	122.23
18668	22.894	2.7273	5.e-002	4.2966
18669	23.171	2.7273	0.	136.62
18670	23.078	2.6364	0.	131.1
18671	23.078	2.7273	5.e-002	4.3263
18672	23.355	2.7273	0.	146.18
18673	23.263	2.6364	0.	140.42
18674	23.263	2.7273	5.e-002	4.3605
18675	23.539	2.7273	0.	156.19
18676	23.447	2.6364	0.	150.18
18677	23.447	2.7273	5.e-002	4.3987
18678	23.724	2.7273	0.	166.56
18679	23.631	2.6364	0.	160.43
18680	23.631	2.7273	5.e-002	4.4409
18681	23.816	2.6364	0.	170.91
18682	23.816	2.7273	5.e-002	4.4924
18683	23.908	2.7273	0.	176.8
18684	11.743	2.5455	0.	480.88
18685	11.651	2.4545	0.	640.47
18686	11.651	2.5455	5.e-002	67.253
18687	11.927	2.5455	0.	221.56
18688	11.835	2.4545	0.	306.25
18689	11.835	2.5455	5.e-002	71.407
18690	12.112	2.5455	0.	23.73
18691	12.02	2.4545	0.	76.358
18692	12.02	2.5455	5.e-002	59.317
18693	12.296	2.5455	0.	1.1459
18694	12.204	2.4545	0.	1.1993
18695	12.204	2.5455	5.e-002	47.85
18696	12.48	2.5455	0.	0.78516
18697	12.388	2.4545	0.	0.9002
18698	12.388	2.5455	5.e-002	38.486
18699	12.665	2.5455	0.	0.5772
18700	12.573	2.4545	0.	0.64123
18701	12.573	2.5455	5.e-002	31.391
18702	12.849	2.5455	0.	0.44122
18703	12.757	2.4545	0.	0.48805
18704	12.757	2.5455	5.e-002	25.946
18705	13.033	2.5455	0.	0.33332
18706	12.941	2.4545	0.	0.37404
18707	12.941	2.5455	5.e-002	21.687
18708	13.218	2.5455	0.	0.25186
18709	13.125	2.4545	0.	0.2853
18710	13.125	2.5455	5.e-002	18.316
18711	13.402	2.5455	0.	0.18971
18712	13.31	2.4545	0.	0.21756
18713	13.31	2.5455	5.e-002	15.632
18714	13.586	2.5455	0.	0.14272
18715	13.494	2.4545	0.	0.16539
18716	13.494	2.5455	5.e-002	13.487
18717	13.771	2.5455	0.	0.10736
18718	13.678	2.4545	0.	0.12561
18719	13.678	2.5455	5.e-002	11.77
18720	13.955	2.5455	0.	8.0879e-002
18721	13.863	2.4545	0.	9.5405e-002
18722	13.863	2.5455	5.e-002	10.394
18723	14.139	2.5455	0.	6.1115e-002
18724	14.047	2.4545	0.	7.2587e-002
18725	14.047	2.5455	5.e-002	9.2904
18726	14.324	2.5455	0.	4.6417e-002
18727	14.231	2.4545	0.	5.5417e-002
18728	14.231	2.5455	5.e-002	8.4037
18729	14.508	2.5455	0.	3.5525e-002
18730	14.416	2.4545	0.	4.2554e-002
18731	14.416	2.5455	5.e-002	7.6906
18732	14.692	2.5455	0.	2.749e-002
18733	14.6	2.4545	0.	3.2955e-002
18734	14.6	2.5455	5.e-002	7.1161
18735	14.876	2.5455	0.	2.1596e-002
18736	14.784	2.4545	0.	2.583e-002
18737	14.784	2.5455	5.e-002	6.6523
18738	15.061	2.5455	0.	1.7308e-002
18739	14.969	2.4545	0.	2.0575e-002
18740	14.969	2.5455	5.e-002	6.2768
18741	15.245	2.5455	0.	1.4224e-002
18742	15.153	2.4545	0.	1.6732e-002
18743	15.153	2.5455	5.e-002	5.9717
18744	15.429	2.5455	0.	1.2041e-002
18745	15.337	2.4545	0.	1.3955e-002
18746	15.337	2.5455	5.e-002	5.7229
18747	15.614	2.5455	0.	1.0534e-002
18748	15.522	2.4545	0.	1.1982e-002
18749	15.522	2.5455	5.e-002	5.5188
18750	15.798	2.5455	0.	9.5362e-003
18751	15.706	2.4545	0.	1.0614e-002
18752	15.706	2.5455	5.e-002	5.3504
18753	15.982	2.5455	0.	8.9204e-003
18754	15.89	2.4545	0.	9.7129e-003
18755	15.89	2.5455	5.e-002	5.2105
18756	16.167	2.5455	0.	8.5773e-003
18757	16.075	2.4545	0.	9.1518e-003
18758	16.075	2.5455	5.e-002	5.0934
18759	16.351	2.5455	0.	8.448e-003
18760	16.259	2.4545	0.	8.8327e-003
18761	16.259	2.5455	5.e-002	4.9945
18762	16.535	2.5455	0.	8.4913e-003
18763	16.443	2.4545	0.	8.7302e-003
18764	16.443	2.5455	5.e-002	4.9102
18765	16.72	2.5455	0.	8.6547e-003
18766	16.627	2.4545	0.	8.7835e-003
18767	16.627	2.5455	5.e-002	4.8377
18768	16.904	2.5455	0.	8.9082e-003
18769	16.812	2.4545	0.	8.9434e-003
18770	16.812	2.5455	5.e-002	4.7747
18771	17.088	2.5455	0.	9.2362e-003
18772	16.996	2.4545	0.	9.1966e-003
18773	16.996	2.5455	5.e-002	4.7194
18774	17.273	2.5455	0.	9.623e-003
18775	17.18	2.4545	0.	9.5227e-003
18776	17.18	2.5455	5.e-002	4.6703
18777	17.457	2.5455	0.	1.006e-002
18778	17.365	2.4545	0.	9.9094e-003
18779	17.365	2.5455	5.e-002	4.6263
18780	17.641	2.5455	0.	1.0545e-002
18781	17.549	2.4545	0.	1.0353e-002
18782	17.549	2.5455	5.e-002	4.5866
18783	17.825	2.5455	0.	1.1079e-002
18784	17.733	2.4545	0.	1.0853e-002
18785	17.733	2.5455	5.e-002	4.5504
18786	18.01	2.5455	0.	1.1678e-002
18787	17.918	2.4545	0.	1.1423e-002
18788	17.918	2.5455	5.e-002	4.5172
18789	18.194	2.5455	0.	1.2399e-002
18790	18.102	2.4545	0.	1.2109e-002
18791	18.102	2.5455	5.e-002	4.4865
18792	18.378	2.5455	0.	1.3577e-002
18793	18.286	2.4545	0.	1.3105e-002
18794	18.286	2.5455	5.e-002	4.458
18795	18.563	2.5455	0.	0.78788
18796	18.471	2.4545	0.	1.7791e-002
18797	18.471	2.5455	5.e-002	4.4314
18798	18.747	2.5455	0.	4.63
18799	18.655	2.4545	0.	2.8923
18800	18.655	2.5455	5.e-002	4.4064
18801	18.931	2.5455	0.	8.4117
18802	18.839	2.4545	0.	6.6438
18803	18.839	2.5455	5.e-002	4.383
18804	19.116	2.5455	0.	12.155
18805	19.024	2.4545	0.	10.347
18806	19.024	2.5455	5.e-002	4.361
18807	19.3	2.5455	0.	15.886
18808	19.208	2.4545	0.	14.026
18809	19.208	2.5455	5.e-002	4.3404
18810	19.484	2.5455	0.	19.628
18811	19.392	2.4545	0.	17.704
18812	19.392	2.5455	5.e-002	4.321
18813	19.669	2.5455	0.	23.407
18814	19.576	2.4545	0.	21.407
18815	19.576	2.5455	5.e-002	4.3028
18816	19.853	2.5455	0.	27.246
18817	19.761	2.4545	0.	25.157
18818	19.761	2.5455	5.e-002	4.2859
18819	20.037	2.5455	0.	31.169
18820	19.945	2.4545	0.	28.979
18821	19.945	2.5455	5.e-002	4.2703
18822	20.222	2.5455	0.	35.202
18823	20.129	2.4545	0.	32.897
18824	20.129	2.5455	5.e-002	4.2559
18825	20.406	2.5455	0.	39.368
18826	20.314	2.4545	0.	36.934
18827	20.314	2.5455	5.e-002	4.2429
18828	20.59	2.5455	0.	43.694
18829	20.498	2.4545	0.	41.116
18830	20.498	2.5455	5.e-002	4.2313
18831	20.775	2.5455	0.	48.204
18832	20.682	2.4545	0.	45.467
18833	20.682	2.5455	5.e-002	4.2213
18834	20.959	2.5455	0.	52.923
18835	20.867	2.4545	0.	50.014
18836	20.867	2.5455	5.e-002	4.2129
18837	21.143	2.5455	0.	57.879
18838	21.051	2.4545	0.	54.78
18839	21.051	2.5455	5.e-002	4.2064
18840	21.327	2.5455	0.	63.096
18841	21.235	2.4545	0.	59.794
18842	21.235	2.5455	5.e-002	4.2018
18843	21.512	2.5455	0.	68.602
18844	21.42	2.4545	0.	65.08
18845	21.42	2.5455	5.e-002	4.1995
18846	21.696	2.5455	0.	74.421
18847	21.604	2.4545	0.	70.666
18848	21.604	2.5455	5.e-002	4.1996
18849	21.88	2.5455	0.	80.58
18850	21.788	2.4545	0.	76.578
18851	21.788	2.5455	5.e-002	4.2024
18852	22.065	2.5455	0.	87.101
18853	21.973	2.4545	0.	82.841
18854	21.973	2.5455	5.e-002	4.2082
18855	22.249	2.5455	0.	94.008
18856	22.157	2.4545	0.	89.48
18857	22.157	2.5455	5.e-002	4.2173
18858	22.433	2.5455	0.	101.32
18859	22.341	2.4545	0.	96.517
18860	22.341	2.5455	5.e-002	4.2301
18861	22.618	2.5455	0.	109.06
18862	22.525	2.4545	0.	103.97
18863	22.525	2.5455	5.e-002	4.2468
18864	22.802	2.5455	0.	117.23
18865	22.71	2.4545	0.	111.86
18866	22.71	2.5455	5.e-002	4.2677
18867	22.986	2.5455	0.	125.85
18868	22.894	2.4545	0.	120.21
18869	22.894	2.5455	5.e-002	4.2931
18870	23.171	2.5455	0.	134.92
18871	23.078	2.4545	0.	129.
18872	23.078	2.5455	5.e-002	4.323
18873	23.355	2.5455	0.	144.44
18874	23.263	2.4545	0.	138.27
18875	23.263	2.5455	5.e-002	4.3576
18876	23.539	2.5455	0.	154.43
18877	23.447	2.4545	0.	147.98
18878	23.447	2.5455	5.e-002	4.3965
18879	23.724	2.5455	0.	164.78
18880	23.631	2.4545	0.	158.2
18881	23.631	2.5455	5.e-002	4.4398
18882	23.816	2.4545	0.	168.67
18883	23.816	2.5455	5.e-002	4.4956
18884	23.908	2.5455	0.	174.99
18885	11.743	2.3636	0.	480.84
18886	11.651	2.2727	0.	635.63
18887	11.651	2.3636	5.e-002	120.4
18888	11.927	2.3636	0.	174.43
18889	11.835	2.2727	0.	270.55
18890	11.835	2.3636	5.e-002	95.093
18891	12.112	2.3636	0.	5.0529
18892	12.02	2.2727	0.	49.452
18893	12.02	2.3636	5.e-002	68.264
18894	12.296	2.3636	0.	0.90316
18895	12.204	2.2727	0.	2.2813
18896	12.204	2.3636	5.e-002	48.011
18897	12.48	2.3636	0.	0.77841
18898	12.388	2.2727	0.	0.69627
18899	12.388	2.3636	5.e-002	36.716
18900	12.665	2.3636	0.	0.56862
18901	12.573	2.2727	0.	0.74579
18902	12.573	2.3636	5.e-002	29.372
18903	12.849	2.3636	0.	0.43216
18904	12.757	2.2727	0.	0.49441
18905	12.757	2.3636	5.e-002	24.147
18906	13.033	2.3636	0.	0.33382
18907	12.941	2.2727	0.	0.39482
18908	12.941	2.3636	5.e-002	20.212
18909	13.218	2.3636	0.	0.25652
18910	13.125	2.2727	0.	0.29984
18911	13.125	2.3636	5.e-002	17.149
18912	13.402	2.3636	0.	0.19723
18913	13.31	2.2727	0.	0.23224
18914	13.31	2.3636	5.e-002	14.721
18915	13.586	2.3636	0.	0.1512
18916	13.494	2.2727	0.	0.17872
18917	13.494	2.3636	5.e-002	12.778
18918	13.771	2.3636	0.	0.11583
18919	13.678	2.2727	0.	0.13768
18920	13.678	2.3636	5.e-002	11.217
18921	13.955	2.3636	0.	8.8739e-002
18922	13.863	2.2727	0.	0.106
18923	13.863	2.3636	5.e-002	9.9601
18924	14.139	2.3636	0.	6.8114e-002
18925	14.047	2.2727	0.	8.1714e-002
18926	14.047	2.3636	5.e-002	8.9472
18927	14.324	2.3636	0.	5.2482e-002
18928	14.231	2.2727	0.	6.3165e-002
18929	14.231	2.3636	5.e-002	8.1306
18930	14.508	2.3636	0.	4.0689e-002
18931	14.416	2.2727	0.	4.9061e-002
18932	14.416	2.3636	5.e-002	7.472
18933	14.692	2.3636	0.	3.1833e-002
18934	14.6	2.2727	0.	3.8378e-002
18935	14.6	2.3636	5.e-002	6.9403
18936	14.876	2.3636	0.	2.5219e-002
18937	14.784	2.2727	0.	3.0324e-002
18938	14.784	2.3636	5.e-002	6.5105
18939	15.061	2.3636	0.	2.0312e-002
18940	14.969	2.2727	0.	2.4285e-002
18941	14.969	2.3636	5.e-002	6.1622
18942	15.245	2.3636	0.	1.6702e-002
18943	15.153	2.2727	0.	1.9784e-002
18944	15.153	2.3636	5.e-002	5.879
18945	15.429	2.3636	0.	1.4078e-002
18946	15.337	2.2727	0.	1.6459e-002
18947	15.337	2.3636	5.e-002	5.6478
18948	15.614	2.3636	0.	1.2201e-002
18949	15.522	2.2727	0.	1.403e-002
18950	15.522	2.3636	5.e-002	5.4581
18951	15.798	2.3636	0.	1.0896e-002
18952	15.706	2.2727	0.	1.2283e-002
18953	15.706	2.3636	5.e-002	5.3013
18954	15.982	2.3636	0.	1.0022e-002
18955	15.89	2.2727	0.	1.1067e-002
18956	15.89	2.3636	5.e-002	5.1708
18957	16.167	2.3636	0.	9.4644e-003
18958	16.075	2.2727	0.	1.0244e-002
18959	16.075	2.3636	5.e-002	5.0613
18960	16.351	2.3636	0.	9.1556e-003
18961	16.259	2.2727	0.	9.7075e-003
18962	16.259	2.3636	5.e-002	4.9686
18963	16.535	2.3636	0.	9.0501e-003
18964	16.443	2.2727	0.	9.4227e-003
18965	16.443	2.3636	5.e-002	4.8893
18966	16.72	2.3636	0.	9.0896e-003
18967	16.627	2.2727	0.	9.3253e-003
18968	16.627	2.3636	5.e-002	4.8207
18969	16.904	2.3636	0.	9.2407e-003
18970	16.812	2.2727	0.	9.36e-003
18971	16.812	2.3636	5.e-002	4.7609
18972	17.088	2.3636	0.	9.4853e-003
18973	16.996	2.2727	0.	9.5113e-003
18974	16.996	2.3636	5.e-002	4.7081
18975	17.273	2.3636	0.	9.8058e-003
18976	17.18	2.2727	0.	9.7547e-003
18977	17.18	2.3636	5.e-002	4.6611
18978	17.457	2.3636	0.	1.0195e-002
18979	17.365	2.2727	0.	1.0079e-002
18980	17.365	2.3636	5.e-002	4.6188
18981	17.641	2.3636	0.	1.0649e-002
18982	17.549	2.2727	0.	1.0481e-002
18983	17.549	2.3636	5.e-002	4.5803
18984	17.825	2.3636	0.	1.1179e-002
18985	17.733	2.2727	0.	1.0966e-002
18986	17.733	2.3636	5.e-002	4.5452
18987	18.01	2.3636	0.	1.1822e-002
18988	17.918	2.2727	0.	1.1564e-002
18989	17.918	2.3636	5.e-002	4.5128
18990	18.194	2.3636	0.	1.2705e-002
18991	18.102	2.2727	0.	1.237e-002
18992	18.102	2.3636	5.e-002	4.4827
18993	18.378	2.3636	0.	1.4728e-002
18994	18.286	2.2727	0.	1.3845e-002
18995	18.286	2.3636	5.e-002	4.4547
18996	18.563	2.3636	0.	1.2003
18997	18.471	2.2727	0.	3.2366e-002
18998	18.471	2.3636	5.e-002	4.4285
18999	18.747	2.3636	0.	4.9304
19000	18.655	2.2727	0.	3.3038
19001	18.655	2.3636	5.e-002	4.4039
19002	18.931	2.3636	0.	8.6043
19003	18.839	2.2727	0.	6.929
19004	18.839	2.3636	5.e-002	4.3807
19005	19.116	2.3636	0.	12.243
19006	19.024	2.2727	0.	10.51
19007	19.024	2.3636	5.e-002	4.3589
19008	19.3	2.3636	0.	15.871
19009	19.208	2.2727	0.	14.069
19010	19.208	2.3636	5.e-002	4.3384
19011	19.484	2.3636	0.	19.51
19012	19.392	2.2727	0.	17.629
19013	19.392	2.3636	5.e-002	4.3191
19014	19.669	2.3636	0.	23.185
19015	19.576	2.2727	0.	21.213
19016	19.576	2.3636	5.e-002	4.301
19017	19.853	2.3636	0.	26.919
19018	19.761	2.2727	0.	24.843
19019	19.761	2.3636	5.e-002	4.2841
19020	20.037	2.3636	0.	30.735
19021	19.945	2.2727	0.	28.542
19022	19.945	2.3636	5.e-002	4.2685
19023	20.222	2.3636	0.	34.658
19024	20.129	2.2727	0.	32.334
19025	20.129	2.3636	5.e-002	4.2541
19026	20.406	2.3636	0.	38.711
19027	20.314	2.2727	0.	36.242
19028	20.314	2.3636	5.e-002	4.241
19029	20.59	2.3636	0.	42.918
19030	20.498	2.2727	0.	40.29
19031	20.498	2.3636	5.e-002	4.2294
19032	20.775	2.3636	0.	47.306
19033	20.682	2.2727	0.	44.502
19034	20.682	2.3636	5.e-002	4.2192
19035	20.959	2.3636	0.	51.899
19036	20.867	2.2727	0.	48.903
19037	20.867	2.3636	5.e-002	4.2107
19038	21.143	2.3636	0.	56.723
19039	21.051	2.2727	0.	53.52
19040	21.051	2.3636	5.e-002	4.2039
19041	21.327	2.3636	0.	61.804
19042	21.235	2.2727	0.	58.377
19043	21.235	2.3636	5.e-002	4.1991
19044	21.512	2.3636	0.	67.17
19045	21.42	2.2727	0.	63.502
19046	21.42	2.3636	5.e-002	4.1965
19047	21.696	2.3636	0.	72.848
19048	21.604	2.2727	0.	68.923
19049	21.604	2.3636	5.e-002	4.1962
19050	21.88	2.3636	0.	78.862
19051	21.788	2.2727	0.	74.666
19052	21.788	2.3636	5.e-002	4.1987
19053	22.065	2.3636	0.	85.241
19054	21.973	2.2727	0.	80.76
19055	21.973	2.3636	5.e-002	4.2041
19056	22.249	2.3636	0.	92.008
19057	22.157	2.2727	0.	87.231
19058	22.157	2.3636	5.e-002	4.2128
19059	22.433	2.3636	0.	99.186
19060	22.341	2.2727	0.	94.104
19061	22.341	2.3636	5.e-002	4.2252
19062	22.618	2.3636	0.	106.8
19063	22.525	2.2727	0.	101.4
19064	22.525	2.3636	5.e-002	4.2416
19065	22.802	2.3636	0.	114.86
19066	22.71	2.2727	0.	109.15
19067	22.71	2.3636	5.e-002	4.2623
19068	22.986	2.3636	0.	123.37
19069	22.894	2.2727	0.	117.36
19070	22.894	2.3636	5.e-002	4.2877
19071	23.171	2.3636	0.	132.36
19072	23.078	2.2727	0.	126.05
19073	23.078	2.3636	5.e-002	4.318
19074	23.355	2.3636	0.	141.82
19075	23.263	2.2727	0.	135.23
19076	23.263	2.3636	5.e-002	4.3532
19077	23.539	2.3636	0.	151.76
19078	23.447	2.2727	0.	144.87
19079	23.447	2.3636	5.e-002	4.3931
19080	23.724	2.3636	0.	162.09
19081	23.631	2.2727	0.	155.04
19082	23.631	2.3636	5.e-002	4.4381
19083	23.816	2.2727	0.	165.5
19084	23.816	2.3636	5.e-002	4.5002
19085	23.908	2.3636	0.	172.27
19086	11.743	2.1818	0.	463.32
19087	11.651	2.0909	0.	903.66
19088	11.651	2.1818	5.e-002	280.07
19089	11.927	2.1818	0.	160.41
19090	11.835	2.0909	0.	349.49
19091	11.835	2.1818	5.e-002	127.93
19092	12.112	2.1818	0.	1.7408
19093	12.02	2.0909	0.	95.301
19094	12.02	2.1818	5.e-002	64.665
19095	12.296	2.1818	0.	2.3025
19096	12.204	2.0909	0.	6.3449
19097	12.204	2.1818	5.e-002	44.646
19098	12.48	2.1818	0.	0.7456
19099	12.388	2.0909	0.	1.0525
19100	12.388	2.1818	5.e-002	33.458
19101	12.665	2.1818	0.	0.70871
19102	12.573	2.0909	0.	1.059
19103	12.573	2.1818	5.e-002	26.63
19104	12.849	2.1818	0.	0.47715
19105	12.757	2.0909	0.	0.61079
19106	12.757	2.1818	5.e-002	21.926
19107	13.033	2.1818	0.	0.37294
19108	12.941	2.0909	0.	0.47421
19109	12.941	2.1818	5.e-002	18.443
19110	13.218	2.1818	0.	0.28336
19111	13.125	2.0909	0.	0.34867
19112	13.125	2.1818	5.e-002	15.751
19113	13.402	2.1818	0.	0.219
19114	13.31	2.0909	0.	0.2675
19115	13.31	2.1818	5.e-002	13.618
19116	13.586	2.1818	0.	0.16886
19117	13.494	2.0909	0.	0.20486
19118	13.494	2.1818	5.e-002	11.907
19119	13.771	2.1818	0.	0.13045
19120	13.678	2.0909	0.	0.15794
19121	13.678	2.1818	5.e-002	10.527
19122	13.955	2.1818	0.	0.10085
19123	13.863	2.0909	0.	0.12198
19124	13.863	2.1818	5.e-002	9.4102
19125	14.139	2.1818	0.	7.8144e-002
19126	14.047	2.0909	0.	9.4495e-002
19127	14.047	2.1818	5.e-002	8.5071
19128	14.324	2.1818	0.	6.0761e-002
19129	14.231	2.0909	0.	7.3452e-002
19130	14.231	2.1818	5.e-002	7.7769
19131	14.508	2.1818	0.	4.7505e-002
19132	14.416	2.0909	0.	5.7373e-002
19133	14.416	2.1818	5.e-002	7.1867
19134	14.692	2.1818	0.	3.7434e-002
19135	14.6	2.0909	0.	4.5116e-002
19136	14.6	2.1818	5.e-002	6.7098
19137	14.876	2.1818	0.	2.9814e-002
19138	14.784	2.0909	0.	3.5796e-002
19139	14.784	2.1818	5.e-002	6.324
19140	15.061	2.1818	0.	2.4075e-002
19141	14.969	2.0909	0.	2.8733e-002
19142	14.969	2.1818	5.e-002	6.0113
19143	15.245	2.1818	0.	1.978e-002
19144	15.153	2.0909	0.	2.3403e-002
19145	15.153	2.1818	5.e-002	5.757
19146	15.429	2.1818	0.	1.6592e-002
19147	15.337	2.0909	0.	1.9403e-002
19148	15.337	2.1818	5.e-002	5.5492
19149	15.614	2.1818	0.	1.4248e-002
19150	15.522	2.0909	0.	1.6422e-002
19151	15.522	2.1818	5.e-002	5.3784
19152	15.798	2.1818	0.	1.2556e-002
19153	15.706	2.0909	0.	1.4223e-002
19154	15.706	2.1818	5.e-002	5.237
19155	15.982	2.1818	0.	1.1363e-002
19156	15.89	2.0909	0.	1.2633e-002
19157	15.89	2.1818	5.e-002	5.1189
19158	16.167	2.1818	0.	1.0541e-002
19159	16.075	2.0909	0.	1.1502e-002
19160	16.075	2.1818	5.e-002	5.0195
19161	16.351	2.1818	0.	1.0011e-002
19162	16.259	2.0909	0.	1.0709e-002
19163	16.259	2.1818	5.e-002	4.9348
19164	16.535	2.1818	0.	9.7218e-003
19165	16.443	2.0909	0.	1.0213e-002
19166	16.443	2.1818	5.e-002	4.862
19167	16.72	2.1818	0.	9.6093e-003
19168	16.627	2.0909	0.	9.9384e-003
19169	16.627	2.1818	5.e-002	4.7986
19170	16.904	2.1818	0.	9.6357e-003
19171	16.812	2.0909	0.	9.8284e-003
19172	16.812	2.1818	5.e-002	4.7429
19173	17.088	2.1818	0.	9.7789e-003
19174	16.996	2.0909	0.	9.8609e-003
19175	16.996	2.1818	5.e-002	4.6935
19176	17.273	2.1818	0.	1.002e-002
19177	17.18	2.0909	0.	1.0012e-002
19178	17.18	2.1818	5.e-002	4.6491
19179	17.457	2.1818	0.	1.0352e-002
19180	17.365	2.0909	0.	1.0266e-002
19181	17.365	2.1818	5.e-002	4.6089
19182	17.641	2.1818	0.	1.0778e-002
19183	17.549	2.0909	0.	1.0627e-002
19184	17.549	2.1818	5.e-002	4.5722
19185	17.825	2.1818	0.	1.132e-002
19186	17.733	2.0909	0.	1.111e-002
19187	17.733	2.1818	5.e-002	4.5384
19188	18.01	2.1818	0.	1.2049e-002
19189	17.918	2.0909	0.	1.1773e-002
19190	17.918	2.1818	5.e-002	4.5071
19191	18.194	2.1818	0.	1.3248e-002
19192	18.102	2.0909	0.	1.2812e-002
19193	18.102	2.1818	5.e-002	4.4779
19194	18.378	2.1818	0.	1.7337e-002
19195	18.286	2.0909	0.	1.5307e-002
19196	18.286	2.1818	5.e-002	4.4505
19197	18.563	2.1818	0.	1.7424
19198	18.471	2.0909	0.	0.33194
19199	18.471	2.1818	5.e-002	4.4248
19200	18.747	2.1818	0.	5.3271
19201	18.655	2.0909	0.	3.8261
19202	18.655	2.1818	5.e-002	4.4006
19203	18.931	2.1818	0.	8.8606
19204	18.839	2.0909	0.	7.2935
19205	18.839	2.1818	5.e-002	4.3778
19206	19.116	2.1818	0.	12.362
19207	19.024	2.0909	0.	10.721
19208	19.024	2.1818	5.e-002	4.3562
19209	19.3	2.1818	0.	15.855
19210	19.208	2.0909	0.	14.129
19211	19.208	2.1818	5.e-002	4.3359
19212	19.484	2.1818	0.	19.359
19213	19.392	2.0909	0.	17.54
19214	19.392	2.1818	5.e-002	4.3167
19215	19.669	2.1818	0.	22.899
19216	19.576	2.0909	0.	20.974
19217	19.576	2.1818	5.e-002	4.2987
19218	19.853	2.1818	0.	26.495
19219	19.761	2.0909	0.	24.452
19220	19.761	2.1818	5.e-002	4.2818
19221	20.037	2.1818	0.	30.171
19222	19.945	2.0909	0.	27.997
19223	19.945	2.1818	5.e-002	4.2662
19224	20.222	2.1818	0.	33.948
19225	20.129	2.0909	0.	31.63
19226	20.129	2.1818	5.e-002	4.2517
19227	20.406	2.1818	0.	37.851
19228	20.314	2.0909	0.	35.374
19229	20.314	2.1818	5.e-002	4.2386
19230	20.59	2.1818	0.	41.903
19231	20.498	2.0909	0.	39.251
19232	20.498	2.1818	5.e-002	4.2268
19233	20.775	2.1818	0.	46.129
19234	20.682	2.0909	0.	43.286
19235	20.682	2.1818	5.e-002	4.2164
19236	20.959	2.1818	0.	50.553
19237	20.867	2.0909	0.	47.503
19238	20.867	2.1818	5.e-002	4.2077
19239	21.143	2.1818	0.	55.202
19240	21.051	2.0909	0.	51.926
19241	21.051	2.1818	5.e-002	4.2006
19242	21.327	2.1818	0.	60.103
19243	21.235	2.0909	0.	56.583
19244	21.235	2.1818	5.e-002	4.1955
19245	21.512	2.1818	0.	65.282
19246	21.42	2.0909	0.	61.501
19247	21.42	2.1818	5.e-002	4.1925
19248	21.696	2.1818	0.	70.768
19249	21.604	2.0909	0.	66.707
19250	21.604	2.1818	5.e-002	4.1918
19251	21.88	2.1818	0.	76.588
19252	21.788	2.0909	0.	72.232
19253	21.788	2.1818	5.e-002	4.1937
19254	22.065	2.1818	0.	82.773
19255	21.973	2.0909	0.	78.104
19256	21.973	2.1818	5.e-002	4.1986
19257	22.249	2.1818	0.	89.348
19258	22.157	2.0909	0.	84.353
19259	22.157	2.1818	5.e-002	4.2068
19260	22.433	2.1818	0.	96.342
19261	22.341	2.0909	0.	91.009
19262	22.341	2.1818	5.e-002	4.2186
19263	22.618	2.1818	0.	103.78
19264	22.525	2.0909	0.	98.101
19265	22.525	2.1818	5.e-002	4.2346
19266	22.802	2.1818	0.	111.68
19267	22.71	2.0909	0.	105.65
19268	22.71	2.1818	5.e-002	4.2551
19269	22.986	2.1818	0.	120.06
19270	22.894	2.0909	0.	113.69
19271	22.894	2.1818	5.e-002	4.2805
19272	23.171	2.1818	0.	128.93
19273	23.078	2.0909	0.	122.23
19274	23.078	2.1818	5.e-002	4.311
19275	23.355	2.1818	0.	138.29
19276	23.263	2.0909	0.	131.28
19277	23.263	2.1818	5.e-002	4.347
19278	23.539	2.1818	0.	148.16
19279	23.447	2.0909	0.	140.83
19280	23.447	2.1818	5.e-002	4.3883
19281	23.724	2.1818	0.	158.46
19282	23.631	2.0909	0.	150.94
19283	23.631	2.1818	5.e-002	4.4355
19284	23.816	2.0909	0.	161.38
19285	23.816	2.1818	5.e-002	4.5063
19286	23.908	2.1818	0.	168.59
19287	11.743	2.	0.	881.01
19288	11.651	1.9091	0.	1665.7
19289	11.651	2.	5.e-002	500.85
19290	11.559	2.	0.	1334.1
19291	11.927	2.	0.	290.73
19292	11.835	1.9091	0.	614.4
19293	11.835	2.	5.e-002	88.333
19294	12.112	2.	0.	69.294
19295	12.02	1.9091	0.	223.59
19296	12.02	2.	5.e-002	57.207
19297	12.296	2.	0.	5.6972
19298	12.204	1.9091	0.	49.136
19299	12.204	2.	5.e-002	38.487
19300	12.48	2.	0.	1.5275
19301	12.388	1.9091	0.	4.0698
19302	12.388	2.	5.e-002	29.351
19303	12.665	2.	0.	1.0247
19304	12.573	1.9091	0.	1.7466
19305	12.573	2.	5.e-002	23.507
19306	12.849	2.	0.	0.63884
19307	12.757	1.9091	0.	0.93118
19308	12.757	2.	5.e-002	19.494
19309	13.033	2.	0.	0.46732
19310	12.941	1.9091	0.	0.63583
19311	12.941	2.	5.e-002	16.514
19312	13.218	2.	0.	0.34344
19313	13.125	1.9091	0.	0.44578
19314	13.125	2.	5.e-002	14.21
19315	13.402	2.	0.	0.26023
19316	13.31	1.9091	0.	0.32953
19317	13.31	2.	5.e-002	12.382
19318	13.586	2.	0.	0.19855
19319	13.494	1.9091	0.	0.24719
19320	13.494	2.	5.e-002	10.913
19321	13.771	2.	0.	0.15264
19322	13.678	1.9091	0.	0.18805
19323	13.678	2.	5.e-002	9.724
19324	13.955	2.	0.	0.11785
19325	13.863	1.9091	0.	0.14411
19326	13.863	2.	5.e-002	8.7606
19327	14.139	2.	0.	9.1381e-002
19328	14.047	1.9091	0.	0.11115
19329	14.047	2.	5.e-002	7.9803
19330	14.324	2.	0.	7.1197e-002
19331	14.231	1.9091	0.	8.6217e-002
19332	14.231	2.	5.e-002	7.3491
19333	14.508	2.	0.	5.5805e-002
19334	14.416	1.9091	0.	6.7297e-002
19335	14.416	2.	5.e-002	6.8394
19336	14.692	2.	0.	4.4077e-002
19337	14.6	1.9091	0.	5.2916e-002
19338	14.6	2.	5.e-002	6.4278
19339	14.876	2.	0.	3.5155e-002
19340	14.784	1.9091	0.	4.1981e-002
19341	14.784	2.	5.e-002	6.0954
19342	15.061	2.	0.	2.8386e-002
19343	14.969	1.9091	0.	3.367e-002
19344	14.969	2.	5.e-002	5.8262
19345	15.245	2.	0.	2.3266e-002
19346	15.153	1.9091	0.	2.7363e-002
19347	15.153	2.	5.e-002	5.6073
19348	15.429	2.	0.	1.9412e-002
19349	15.337	1.9091	0.	2.259e-002
19350	15.337	2.	5.e-002	5.4284
19351	15.614	2.	0.	1.6529e-002
19352	15.522	1.9091	0.	1.8989e-002
19353	15.522	2.	5.e-002	5.281
19354	15.798	2.	0.	1.4397e-002
19355	15.706	1.9091	0.	1.629e-002
19356	15.706	2.	5.e-002	5.1585
19357	15.982	2.	0.	1.2841e-002
19358	15.89	1.9091	0.	1.4292e-002
19359	15.89	2.	5.e-002	5.0558
19360	16.167	2.	0.	1.1719e-002
19361	16.075	1.9091	0.	1.2827e-002
19362	16.075	2.	5.e-002	4.9686
19363	16.351	2.	0.	1.0943e-002
19364	16.259	1.9091	0.	1.1756e-002
19365	16.259	2.	5.e-002	4.8939
19366	16.535	2.	0.	1.0449e-002
19367	16.443	1.9091	0.	1.1033e-002
19368	16.443	2.	5.e-002	4.8289
19369	16.72	2.	0.	1.0166e-002
19370	16.627	1.9091	0.	1.0569e-002
19371	16.627	2.	5.e-002	4.7719
19372	16.904	2.	0.	1.0054e-002
19373	16.812	1.9091	0.	1.0303e-002
19374	16.812	2.	5.e-002	4.7213
19375	17.088	2.	0.	1.0087e-002
19376	16.996	1.9091	0.	1.0211e-002
19377	16.996	2.	5.e-002	4.6759
19378	17.273	2.	0.	1.0244e-002
19379	17.18	1.9091	0.	1.0264e-002
19380	17.18	2.	5.e-002	4.6347
19381	17.457	2.	0.	1.052e-002
19382	17.365	1.9091	0.	1.0452e-002
19383	17.365	2.	5.e-002	4.5971
19384	17.641	2.	0.	1.0928e-002
19385	17.549	1.9091	0.	1.0784e-002
19386	17.549	2.	5.e-002	4.5624
19387	17.825	2.	0.	1.1513e-002
19388	17.733	1.9091	0.	1.1295e-002
19389	17.733	2.	5.e-002	4.5302
19390	18.01	2.	0.	1.2419e-002
19391	17.918	1.9091	0.	1.2098e-002
19392	17.918	2.	5.e-002	4.5001
19393	18.194	2.	0.	1.4255e-002
19394	18.102	1.9091	0.	1.3606e-002
19395	18.102	2.	5.e-002	4.472
19396	18.378	2.	0.	2.5385e-002
19397	18.286	1.9091	0.	1.8696e-002
19398	18.286	2.	5.e-002	4.4454
19399	18.563	2.	0.	2.4089
19400	18.471	1.9091	0.	1.1298
19401	18.471	2.	5.e-002	4.4203
19402	18.747	2.	0.	5.8177
19403	18.655	1.9091	0.	4.4554
19404	18.655	2.	5.e-002	4.3966
19405	18.931	2.	0.	9.1805
19406	18.839	1.9091	0.	7.736
19407	18.839	2.	5.e-002	4.3741
19408	19.116	2.	0.	12.515
19409	19.024	1.9091	0.	10.982
19410	19.024	2.	5.e-002	4.3529
19411	19.3	2.	0.	15.843
19412	19.208	1.9091	0.	14.211
19413	19.208	2.	5.e-002	4.3327
19414	19.484	2.	0.	19.183
19415	19.392	1.9091	0.	17.444
19416	19.392	2.	5.e-002	4.3137
19417	19.669	2.	0.	22.556
19418	19.576	1.9091	0.	20.699
19419	19.576	2.	5.e-002	4.2958
19420	19.853	2.	0.	25.984
19421	19.761	1.9091	0.	23.996
19422	19.761	2.	5.e-002	4.279
19423	20.037	2.	0.	29.487
19424	19.945	1.9091	0.	27.356
19425	19.945	2.	5.e-002	4.2633
19426	20.222	2.	0.	33.086
19427	20.129	1.9091	0.	30.798
19428	20.129	2.	5.e-002	4.2488
19429	20.406	2.	0.	36.805
19430	20.314	1.9091	0.	34.345
19431	20.314	2.	5.e-002	4.2355
19432	20.59	2.	0.	40.665
19433	20.498	1.9091	0.	38.018
19434	20.498	2.	5.e-002	4.2236
19435	20.775	2.	0.	44.691
19436	20.682	1.9091	0.	41.839
19437	20.682	2.	5.e-002	4.213
19438	20.959	2.	0.	48.906
19439	20.867	1.9091	0.	45.832
19440	20.867	2.	5.e-002	4.204
19441	21.143	2.	0.	53.337
19442	21.051	1.9091	0.	50.023
19443	21.051	2.	5.e-002	4.1967
19444	21.327	2.	0.	58.011
19445	21.235	1.9091	0.	54.436
19446	21.235	2.	5.e-002	4.1911
19447	21.512	2.	0.	62.956
19448	21.42	1.9091	0.	59.099
19449	21.42	2.	5.e-002	4.1876
19450	21.696	2.	0.	68.2
19451	21.604	1.9091	0.	64.042
19452	21.604	2.	5.e-002	4.1864
19453	21.88	2.	0.	73.774
19454	21.788	1.9091	0.	69.295
19455	21.788	2.	5.e-002	4.1877
19456	22.065	2.	0.	79.709
19457	21.973	1.9091	0.	74.89
19458	21.973	2.	5.e-002	4.1919
19459	22.249	2.	0.	86.037
19460	22.157	1.9091	0.	80.86
19461	22.157	2.	5.e-002	4.1993
19462	22.433	2.	0.	92.79
19463	22.341	1.9091	0.	87.24
19464	22.341	2.	5.e-002	4.2105
19465	22.618	2.	0.	99.996
19466	22.525	1.9091	0.	94.063
19467	22.525	2.	5.e-002	4.2258
19468	22.802	2.	0.	107.68
19469	22.71	1.9091	0.	101.36
19470	22.71	2.	5.e-002	4.2459
19471	22.986	2.	0.	115.87
19472	22.894	1.9091	0.	109.17
19473	22.894	2.	5.e-002	4.2711
19474	23.171	2.	0.	124.59
19475	23.078	1.9091	0.	117.5
19476	23.078	2.	5.e-002	4.302
19477	23.355	2.	0.	133.82
19478	23.263	1.9091	0.	126.39
19479	23.263	2.	5.e-002	4.3389
19480	23.539	2.	0.	143.61
19481	23.447	1.9091	0.	135.81
19482	23.447	2.	5.e-002	4.3819
19483	23.724	2.	0.	153.86
19484	23.631	1.9091	0.	145.84
19485	23.631	2.	5.e-002	4.4321
19486	23.816	1.9091	0.	156.26
19487	23.816	2.	5.e-002	4.5137
19488	23.908	2.	0.	163.92
19489	11.743	1.8182	0.	1412.7
19490	11.651	1.7273	0.	1974.2
19491	11.651	1.8182	5.e-002	281.2
19492	11.559	1.8182	0.	2353.7
19493	11.927	1.8182	0.	545.37
19494	11.835	1.7273	0.	843.73
19495	11.835	1.8182	5.e-002	94.43
19496	12.112	1.8182	0.	196.4
19497	12.02	1.7273	0.	366.39
19498	12.02	1.8182	5.e-002	44.102
19499	12.296	1.8182	0.	42.063
19500	12.204	1.7273	0.	143.07
19501	12.204	1.8182	5.e-002	31.829
19502	12.48	1.8182	0.	4.5212
19503	12.388	1.7273	0.	26.933
19504	12.388	1.8182	5.e-002	25.023
19505	12.665	1.8182	0.	1.7508
19506	12.573	1.7273	0.	3.8996
19507	12.573	1.8182	5.e-002	20.337
19508	12.849	1.8182	0.	0.97337
19509	12.757	1.7273	0.	1.5995
19510	12.757	1.8182	5.e-002	17.028
19511	13.033	1.8182	0.	0.63878
19512	12.941	1.7273	0.	0.93164
19513	12.941	1.8182	5.e-002	14.537
19514	13.218	1.8182	0.	0.4464
19515	13.125	1.7273	0.	0.6086
19516	13.125	1.8182	5.e-002	12.602
19517	13.402	1.8182	0.	0.32561
19518	13.31	1.7273	0.	0.42673
19519	13.31	1.8182	5.e-002	11.064
19520	13.586	1.8182	0.	0.24262
19521	13.494	1.7273	0.	0.30959
19522	13.494	1.8182	5.e-002	9.8282
19523	13.771	1.8182	0.	0.18347
19524	13.678	1.7273	0.	0.22983
19525	13.678	1.8182	5.e-002	8.8309
19526	13.955	1.8182	0.	0.1401
19527	13.863	1.7273	0.	0.1731
19528	13.863	1.8182	5.e-002	8.0254
19529	14.139	1.8182	0.	0.10783
19530	14.047	1.7273	0.	0.13183
19531	14.047	1.8182	5.e-002	7.3762
19532	14.324	1.8182	0.	8.3604e-002
19533	14.231	1.7273	0.	0.10132
19534	14.231	1.8182	5.e-002	6.854
19535	14.508	1.8182	0.	6.5314e-002
19536	14.416	1.7273	0.	7.855e-002
19537	14.416	1.8182	5.e-002	6.4348
19538	14.692	1.8182	0.	5.1463e-002
19539	14.6	1.7273	0.	6.1451e-002
19540	14.6	1.8182	5.e-002	6.0984
19541	14.876	1.8182	0.	4.0956e-002
19542	14.784	1.7273	0.	4.8553e-002
19543	14.784	1.8182	5.e-002	5.828
19544	15.061	1.8182	0.	3.298e-002
19545	14.969	1.7273	0.	3.8795e-002
19546	14.969	1.8182	5.e-002	5.6098
19547	15.245	1.8182	0.	2.6927e-002
19548	15.153	1.7273	0.	3.14e-002
19549	15.153	1.8182	5.e-002	5.4327
19550	15.429	1.8182	0.	2.2342e-002
19551	15.337	1.7273	0.	2.5791e-002
19552	15.337	1.8182	5.e-002	5.2877
19553	15.614	1.8182	0.	1.8877e-002
19554	15.522	1.7273	0.	2.1541e-002
19555	15.522	1.8182	5.e-002	5.1679
19556	15.798	1.8182	0.	1.6276e-002
19557	15.706	1.7273	0.	1.8324e-002
19558	15.706	1.8182	5.e-002	5.0677
19559	15.982	1.8182	0.	1.434e-002
19560	15.89	1.7273	0.	1.5912e-002
19561	15.89	1.8182	5.e-002	4.9829
19562	16.167	1.8182	0.	1.2906e-002
19563	16.075	1.7273	0.	1.4108e-002
19564	16.075	1.8182	5.e-002	4.9101
19565	16.351	1.8182	0.	1.1872e-002
19566	16.259	1.7273	0.	1.2761e-002
19567	16.259	1.8182	5.e-002	4.8468
19568	16.535	1.8182	0.	1.1166e-002
19569	16.443	1.7273	0.	1.1807e-002
19570	16.443	1.8182	5.e-002	4.791
19571	16.72	1.8182	0.	1.0708e-002
19572	16.627	1.7273	0.	1.1155e-002
19573	16.627	1.8182	5.e-002	4.7414
19574	16.904	1.8182	0.	1.0454e-002
19575	16.812	1.7273	0.	1.0736e-002
19576	16.812	1.8182	5.e-002	4.6966
19577	17.088	1.8182	0.	1.0374e-002
19578	16.996	1.7273	0.	1.0522e-002
19579	16.996	1.8182	5.e-002	4.6558
19580	17.273	1.8182	0.	1.0451e-002
19581	17.18	1.7273	0.	1.0485e-002
19582	17.18	1.8182	5.e-002	4.6183
19583	17.457	1.8182	0.	1.0686e-002
19584	17.365	1.7273	0.	1.0622e-002
19585	17.365	1.8182	5.e-002	4.5836
19586	17.641	1.8182	0.	1.1105e-002
19587	17.549	1.7273	0.	1.0955e-002
19588	17.549	1.8182	5.e-002	4.5512
19589	17.825	1.8182	0.	1.1799e-002
19590	17.733	1.7273	0.	1.1554e-002
19591	17.733	1.8182	5.e-002	4.5208
19592	18.01	1.8182	0.	1.3062e-002
19593	17.918	1.7273	0.	1.2654e-002
19594	17.918	1.8182	5.e-002	4.4922
19595	18.194	1.8182	0.	1.6371e-002
19596	18.102	1.7273	0.	1.52e-002
19597	18.102	1.8182	5.e-002	4.4651
19598	18.378	1.8182	0.	0.11609
19599	18.286	1.7273	0.	3.0699e-002
19600	18.286	1.8182	5.e-002	4.4395
19601	18.563	1.8182	0.	3.1945
19602	18.471	1.7273	0.	2.0766
19603	18.471	1.8182	5.e-002	4.4151
19604	18.747	1.8182	0.	6.3998
19605	18.655	1.7273	0.	5.1878
19606	18.655	1.8182	5.e-002	4.392
19607	18.931	1.8182	0.	9.5646
19608	18.839	1.7273	0.	8.2562
19609	18.839	1.8182	5.e-002	4.3699
19610	19.116	1.8182	0.	12.706
19611	19.024	1.7273	0.	11.294
19612	19.024	1.8182	5.e-002	4.349
19613	19.3	1.8182	0.	15.841
19614	19.208	1.7273	0.	14.319
19615	19.208	1.8182	5.e-002	4.3291
19616	19.484	1.8182	0.	18.989
19617	19.392	1.7273	0.	17.348
19618	19.392	1.8182	5.e-002	4.3102
19619	19.669	1.8182	0.	22.169
19620	19.576	1.7273	0.	20.398
19621	19.576	1.8182	5.e-002	4.2924
19622	19.853	1.8182	0.	25.399
19623	19.761	1.7273	0.	23.487
19624	19.761	1.8182	5.e-002	4.2756
19625	20.037	1.8182	0.	28.699
19626	19.945	1.7273	0.	26.634
19627	19.945	1.8182	5.e-002	4.2599
19628	20.222	1.8182	0.	32.09
19629	20.129	1.7273	0.	29.858
19630	20.129	1.8182	5.e-002	4.2454
19631	20.406	1.8182	0.	35.591
19632	20.314	1.7273	0.	33.177
19633	20.314	1.8182	5.e-002	4.232
19634	20.59	1.8182	0.	39.225
19635	20.498	1.7273	0.	36.613
19636	20.498	1.8182	5.e-002	4.2199
19637	20.775	1.8182	0.	43.014
19638	20.682	1.7273	0.	40.186
19639	20.682	1.8182	5.e-002	4.2091
19640	20.959	1.8182	0.	46.982
19641	20.867	1.7273	0.	43.92
19642	20.867	1.8182	5.e-002	4.1997
19643	21.143	1.8182	0.	51.153
19644	21.051	1.7273	0.	47.837
19645	21.051	1.8182	5.e-002	4.192
19646	21.327	1.8182	0.	55.556
19647	21.235	1.7273	0.	51.964
19648	21.235	1.8182	5.e-002	4.186
19649	21.512	1.8182	0.	60.218
19650	21.42	1.7273	0.	56.327
19651	21.42	1.8182	5.e-002	4.1819
19652	21.696	1.8182	0.	65.169
19653	21.604	1.7273	0.	60.957
19654	21.604	1.8182	5.e-002	4.18
19655	21.88	1.8182	0.	70.441
19656	21.788	1.7273	0.	65.885
19657	21.788	1.8182	5.e-002	4.1806
19658	22.065	1.8182	0.	76.07
19659	21.973	1.7273	0.	71.146
19660	21.973	1.8182	5.e-002	4.184
19661	22.249	1.8182	0.	82.09
19662	22.157	1.7273	0.	76.775
19663	22.157	1.8182	5.e-002	4.1905
19664	22.433	1.8182	0.	88.539
19665	22.341	1.7273	0.	82.813
19666	22.341	1.8182	5.e-002	4.2008
19667	22.618	1.8182	0.	95.452
19668	22.525	1.7273	0.	89.301
19669	22.525	1.8182	5.e-002	4.2152
19670	22.802	1.8182	0.	102.87
19671	22.71	1.7273	0.	96.278
19672	22.71	1.8182	5.e-002	4.2346
19673	22.986	1.8182	0.	110.81
19674	22.894	1.7273	0.	103.78
19675	22.894	1.8182	5.e-002	4.2595
19676	23.171	1.8182	0.	119.32
19677	23.078	1.7273	0.	111.86
19678	23.078	1.8182	5.e-002	4.2907
19679	23.355	1.8182	0.	128.39
19680	23.263	1.7273	0.	120.52
19681	23.263	1.8182	5.e-002	4.3286
19682	23.539	1.8182	0.	138.05
19683	23.447	1.7273	0.	129.78
19684	23.447	1.8182	5.e-002	4.3736
19685	23.724	1.8182	0.	148.24
19686	23.631	1.7273	0.	139.69
19687	23.631	1.8182	5.e-002	4.4274
19688	23.816	1.7273	0.	150.07
19689	23.816	1.8182	5.e-002	4.5224
19690	23.908	1.8182	0.	158.22
19691	11.743	1.6364	0.	1355.1
19692	11.651	1.5455	0.	1669.8
19693	11.651	1.6364	5.e-002	158.05
19694	11.559	1.6364	0.	1512.2
19695	11.927	1.6364	0.	649.96
19696	11.835	1.5455	0.	854.57
19697	11.835	1.6364	5.e-002	61.837
19698	12.112	1.6364	0.	304.77
19699	12.02	1.5455	0.	446.55
19700	12.02	1.6364	5.e-002	37.73
19701	12.296	1.6364	0.	120.06
19702	12.204	1.5455	0.	216.11
19703	12.204	1.6364	5.e-002	27.448
19704	12.48	1.6364	0.	23.991
19705	12.388	1.5455	0.	83.386
19706	12.388	1.6364	5.e-002	21.276
19707	12.665	1.6364	0.	3.9062
19708	12.573	1.5455	0.	16.21
19709	12.573	1.6364	5.e-002	17.506
19710	12.849	1.6364	0.	1.6331
19711	12.757	1.5455	0.	3.3623
19712	12.757	1.6364	5.e-002	14.733
19713	13.033	1.6364	0.	0.94015
19714	12.941	1.5455	0.	1.5233
19715	12.941	1.6364	5.e-002	12.635
19716	13.218	1.6364	0.	0.61081
19717	13.125	1.5455	0.	0.88879
19718	13.125	1.6364	5.e-002	11.001
19719	13.402	1.6364	0.	0.42386
19720	13.31	1.5455	0.	0.58042
19721	13.31	1.6364	5.e-002	9.7101
19722	13.586	1.6364	0.	0.30499
19723	13.494	1.5455	0.	0.40138
19724	13.494	1.6364	5.e-002	8.6838
19725	13.771	1.6364	0.	0.2247
19726	13.678	1.5455	0.	0.28749
19727	13.678	1.6364	5.e-002	7.8669
19728	13.955	1.6364	0.	0.16824
19729	13.863	1.5455	0.	0.2107
19730	13.863	1.6364	5.e-002	7.218
19731	14.139	1.6364	0.	0.12757
19732	14.047	1.5455	0.	0.15708
19733	14.047	1.6364	5.e-002	6.7044
19734	14.324	1.6364	0.	9.7774e-002
19735	14.231	1.5455	0.	0.11874
19736	14.231	1.6364	5.e-002	6.2989
19737	14.508	1.6364	0.	7.5712e-002
19738	14.416	1.5455	0.	9.0871e-002
19739	14.416	1.6364	5.e-002	5.9792
19740	14.692	1.6364	0.	5.9245e-002
19741	14.6	1.5455	0.	7.0372e-002
19742	14.6	1.6364	5.e-002	5.7268
19743	14.876	1.6364	0.	4.688e-002
19744	14.784	1.5455	0.	5.5155e-002
19745	14.784	1.6364	5.e-002	5.5266
19746	15.061	1.6364	0.	3.7557e-002
19747	14.969	1.5455	0.	4.3779e-002
19748	14.969	1.6364	5.e-002	5.3663
19749	15.245	1.6364	0.	3.0505e-002
19750	15.153	1.5455	0.	3.5225e-002
19751	15.153	1.6364	5.e-002	5.2367
19752	15.429	1.6364	0.	2.5161e-002
19753	15.337	1.5455	0.	2.8766e-002
19754	15.337	1.6364	5.e-002	5.1305
19755	15.614	1.6364	0.	2.1109e-002
19756	15.522	1.5455	0.	2.3873e-002
19757	15.522	1.6364	5.e-002	5.0419
19758	15.798	1.6364	0.	1.8044e-002
19759	15.706	1.5455	0.	2.0161e-002
19760	15.706	1.6364	5.e-002	4.9668
19761	15.982	1.6364	0.	1.5735e-002
19762	15.89	1.5455	0.	1.7356e-002
19763	15.89	1.6364	5.e-002	4.9021
19764	16.167	1.6364	0.	1.3998e-002
19765	16.075	1.5455	0.	1.5235e-002
19766	16.075	1.6364	5.e-002	4.8454
19767	16.351	1.6364	0.	1.2715e-002
19768	16.259	1.5455	0.	1.3631e-002
19769	16.259	1.6364	5.e-002	4.7949
19770	16.535	1.6364	0.	1.1803e-002
19771	16.443	1.5455	0.	1.2465e-002
19772	16.443	1.6364	5.e-002	4.7494
19773	16.72	1.6364	0.	1.1179e-002
19774	16.627	1.5455	0.	1.1638e-002
19775	16.627	1.6364	5.e-002	4.7078
19776	16.904	1.6364	0.	1.079e-002
19777	16.812	1.5455	0.	1.108e-002
19778	16.812	1.6364	5.e-002	4.6694
19779	17.088	1.6364	0.	1.0609e-002
19780	16.996	1.5455	0.	1.0759e-002
19781	16.996	1.6364	5.e-002	4.6337
19782	17.273	1.6364	0.	1.0624e-002
19783	17.18	1.5455	0.	1.0653e-002
19784	17.18	1.6364	5.e-002	4.6002
19785	17.457	1.6364	0.	1.0847e-002
19786	17.365	1.5455	0.	1.077e-002
19787	17.365	1.6364	5.e-002	4.5687
19788	17.641	1.6364	0.	1.1336e-002
19789	17.549	1.5455	0.	1.1162e-002
19790	17.549	1.6364	5.e-002	4.5388
19791	17.825	1.6364	0.	1.2276e-002
19792	17.733	1.5455	0.	1.1979e-002
19793	17.733	1.6364	5.e-002	4.5105
19794	18.01	1.6364	0.	1.433e-002
19795	17.918	1.5455	0.	1.3741e-002
19796	17.918	1.6364	5.e-002	4.4834
19797	18.194	1.6364	0.	2.2189e-002
19798	18.102	1.5455	0.	1.9208e-002
19799	18.102	1.6364	5.e-002	4.4576
19800	18.378	1.6364	0.	1.0789
19801	18.286	1.5455	0.	0.30529
19802	18.286	1.6364	5.e-002	4.4329
19803	18.563	1.6364	0.	4.0934
19804	18.471	1.5455	0.	3.1481
19805	18.471	1.6364	5.e-002	4.4093
19806	18.747	1.6364	0.	7.0712
19807	18.655	1.5455	0.	6.02
19808	18.655	1.6364	5.e-002	4.3868
19809	18.931	1.6364	0.	10.014
19810	18.839	1.5455	0.	8.8542
19811	18.839	1.6364	5.e-002	4.3652
19812	19.116	1.6364	0.	12.938
19813	19.024	1.5455	0.	11.663
19814	19.024	1.6364	5.e-002	4.3446
19815	19.3	1.6364	0.	15.857
19816	19.208	1.5455	0.	14.461
19817	19.208	1.6364	5.e-002	4.325
19818	19.484	1.6364	0.	18.788
19819	19.392	1.5455	0.	17.263
19820	19.392	1.6364	5.e-002	4.3063
19821	19.669	1.6364	0.	21.749
19822	19.576	1.5455	0.	20.085
19823	19.576	1.6364	5.e-002	4.2885
19824	19.853	1.6364	0.	24.756
19825	19.761	1.5455	0.	22.942
19826	19.761	1.6364	5.e-002	4.2718
19827	20.037	1.6364	0.	27.826
19828	19.945	1.5455	0.	25.852
19829	19.945	1.6364	5.e-002	4.2561
19830	20.222	1.6364	0.	30.979
19831	20.129	1.5455	0.	28.829
19832	20.129	1.6364	5.e-002	4.2415
19833	20.406	1.6364	0.	34.233
19834	20.314	1.5455	0.	31.894
19835	20.314	1.6364	5.e-002	4.228
19836	20.59	1.6364	0.	37.609
19837	20.498	1.5455	0.	35.063
19838	20.498	1.6364	5.e-002	4.2156
19839	20.775	1.6364	0.	41.127
19840	20.682	1.5455	0.	38.357
19841	20.682	1.6364	5.e-002	4.2046
19842	20.959	1.6364	0.	44.81
19843	20.867	1.5455	0.	41.797
19844	20.867	1.6364	5.e-002	4.1949
19845	21.143	1.6364	0.	48.683
19846	21.051	1.5455	0.	45.405
19847	21.051	1.6364	5.e-002	4.1867
19848	21.327	1.6364	0.	52.771
19849	21.235	1.5455	0.	49.205
19850	21.235	1.6364	5.e-002	4.1802
19851	21.512	1.6364	0.	57.102
19852	21.42	1.5455	0.	53.225
19853	21.42	1.6364	5.e-002	4.1755
19854	21.696	1.6364	0.	61.709
19855	21.604	1.5455	0.	57.493
19856	21.604	1.6364	5.e-002	4.1729
19857	21.88	1.6364	0.	66.623
19858	21.788	1.5455	0.	62.042
19859	21.788	1.6364	5.e-002	4.1725
19860	22.065	1.6364	0.	71.884
19861	21.973	1.5455	0.	66.908
19862	21.973	1.6364	5.e-002	4.1749
19863	22.249	1.6364	0.	77.53
19864	22.157	1.5455	0.	72.131
19865	22.157	1.6364	5.e-002	4.1804
19866	22.433	1.6364	0.	83.604
19867	22.341	1.5455	0.	77.755
19868	22.341	1.6364	5.e-002	4.1895
19869	22.618	1.6364	0.	90.152
19870	22.525	1.5455	0.	83.829
19871	22.525	1.6364	5.e-002	4.2028
19872	22.802	1.6364	0.	97.219
19873	22.71	1.5455	0.	90.404
19874	22.71	1.6364	5.e-002	4.2212
19875	22.986	1.6364	0.	104.85
19876	22.894	1.5455	0.	97.531
19877	22.894	1.6364	5.e-002	4.2455
19878	23.171	1.6364	0.	113.08
19879	23.078	1.5455	0.	105.26
19880	23.078	1.6364	5.e-002	4.2767
19881	23.355	1.6364	0.	121.93
19882	23.263	1.5455	0.	113.63
19883	23.263	1.6364	5.e-002	4.3156
19884	23.539	1.6364	0.	131.43
19885	23.447	1.5455	0.	122.67
19886	23.447	1.6364	5.e-002	4.3628
19887	23.724	1.6364	0.	141.54
19888	23.631	1.5455	0.	132.43
19889	23.631	1.6364	5.e-002	4.4211
19890	23.816	1.5455	0.	142.76
19891	23.816	1.6364	5.e-002	4.5321
19892	23.908	1.6364	0.	151.42
19893	11.743	1.4545	0.	1109.
19894	11.651	1.3636	0.	1284.4
19895	11.651	1.4545	5.e-002	104.1
19896	11.559	1.4545	0.	1187.6
19897	11.927	1.4545	0.	629.39
19898	11.835	1.3636	0.	754.8
19899	11.835	1.4545	5.e-002	60.256
19900	12.112	1.4545	0.	345.68
19901	12.02	1.3636	0.	443.45
19902	12.02	1.4545	5.e-002	36.058
19903	12.296	1.4545	0.	171.93
19904	12.204	1.3636	0.	245.72
19905	12.204	1.4545	5.e-002	25.521
19906	12.48	1.4545	0.	69.177
19907	12.388	1.3636	0.	123.66
19908	12.388	1.4545	5.e-002	19.325
19909	12.665	1.4545	0.	15.493
19910	12.573	1.3636	0.	50.502
19911	12.573	1.4545	5.e-002	15.563
19912	12.849	1.4545	0.	3.4869
19913	12.757	1.3636	0.	12.422
19914	12.757	1.4545	5.e-002	12.925
19915	13.033	1.4545	0.	1.5633
19916	12.941	1.3636	0.	3.2692
19917	12.941	1.4545	5.e-002	10.987
19918	13.218	1.4545	0.	0.90215
19919	13.125	1.3636	0.	1.5012
19920	13.125	1.4545	5.e-002	9.5139
19921	13.402	1.4545	0.	0.58138
19922	13.31	1.3636	0.	0.86527
19923	13.31	1.4545	5.e-002	8.3836
19924	13.586	1.4545	0.	0.39722
19925	13.494	1.3636	0.	0.5527
19926	13.494	1.4545	5.e-002	7.5161
19927	13.771	1.4545	0.	0.28138
19928	13.678	1.3636	0.	0.37385
19929	13.678	1.4545	5.e-002	6.854
19930	13.955	1.4545	0.	0.20433
19931	13.863	1.3636	0.	0.26232
19932	13.863	1.4545	5.e-002	6.3524
19933	14.139	1.4545	0.	0.15123
19934	14.047	1.3636	0.	0.18901
19935	14.047	1.4545	5.e-002	5.9752
19936	14.324	1.4545	0.	0.11371
19937	14.231	1.3636	0.	0.13909
19938	14.231	1.4545	5.e-002	5.6925
19939	14.508	1.4545	0.	8.674e-002
19940	14.416	1.3636	0.	0.10422
19941	14.416	1.4545	5.e-002	5.4806
19942	14.692	1.4545	0.	6.7077e-002
19943	14.6	1.3636	0.	7.9399e-002
19944	14.6	1.4545	5.e-002	5.3204
19945	14.876	1.4545	0.	5.2585e-002
19946	14.784	1.3636	0.	6.1446e-002
19947	14.784	1.4545	5.e-002	5.1977
19948	15.061	1.4545	0.	4.1807e-002
19949	14.969	1.3636	0.	4.8292e-002
19950	14.969	1.4545	5.e-002	5.1017
19951	15.245	1.4545	0.	3.3732e-002
19952	15.153	1.3636	0.	3.855e-002
19953	15.153	1.4545	5.e-002	5.0246
19954	15.429	1.4545	0.	2.7648e-002
19955	15.337	1.3636	0.	3.1269e-002
19956	15.337	1.4545	5.e-002	4.9609
19957	15.614	1.4545	0.	2.3042e-002
19958	15.522	1.3636	0.	2.5787e-002
19959	15.522	1.4545	5.e-002	4.9065
19960	15.798	1.4545	0.	1.9551e-002
19961	15.706	1.3636	0.	2.1635e-002
19962	15.706	1.4545	5.e-002	4.8588
19963	15.982	1.4545	0.	1.6906e-002
19964	15.89	1.3636	0.	1.8491e-002
19965	15.89	1.4545	5.e-002	4.8159
19966	16.167	1.4545	0.	1.4897e-002
19967	16.075	1.3636	0.	1.6102e-002
19968	16.075	1.4545	5.e-002	4.7765
19969	16.351	1.4545	0.	1.3393e-002
19970	16.259	1.3636	0.	1.4278e-002
19971	16.259	1.4545	5.e-002	4.7398
19972	16.535	1.4545	0.	1.2299e-002
19973	16.443	1.3636	0.	1.2933e-002
19974	16.443	1.4545	5.e-002	4.7051
19975	16.72	1.4545	0.	1.1527e-002
19976	16.627	1.3636	0.	1.196e-002
19977	16.627	1.4545	5.e-002	4.6722
19978	16.904	1.4545	0.	1.1025e-002
19979	16.812	1.3636	0.	1.1287e-002
19980	16.812	1.4545	5.e-002	4.6406
19981	17.088	1.4545	0.	1.0768e-002
19982	16.996	1.3636	0.	1.0889e-002
19983	16.996	1.4545	5.e-002	4.6103
19984	17.273	1.4545	0.	1.0753e-002
19985	17.18	1.3636	0.	1.0751e-002
19986	17.18	1.4545	5.e-002	4.5811
19987	17.457	1.4545	0.	1.1021e-002
19988	17.365	1.3636	0.	1.091e-002
19989	17.365	1.4545	5.e-002	4.5529
19990	17.641	1.4545	0.	1.1703e-002
19991	17.549	1.3636	0.	1.1481e-002
19992	17.549	1.4545	5.e-002	4.5257
19993	17.825	1.4545	0.	1.3212e-002
19994	17.733	1.3636	0.	1.2823e-002
19995	17.733	1.4545	5.e-002	4.4994
19996	18.01	1.4545	0.	1.7411e-002
19997	17.918	1.3636	0.	1.6379e-002
19998	17.918	1.4545	5.e-002	4.474
19999	18.194	1.4545	0.	6.2178e-002
20000	18.102	1.3636	0.	3.7995e-002
20001	18.102	1.4545	5.e-002	4.4495
20002	18.378	1.4545	0.	2.3322
20003	18.286	1.3636	0.	1.6864
20004	18.286	1.4545	5.e-002	4.4259
20005	18.563	1.4545	0.	5.1007
20006	18.471	1.3636	0.	4.3358
20007	18.471	1.4545	5.e-002	4.4031
20008	18.747	1.4545	0.	7.831
20009	18.655	1.3636	0.	6.9495
20010	18.655	1.4545	5.e-002	4.3811
20011	18.931	1.4545	0.	10.532
20012	18.839	1.3636	0.	9.5315
20013	18.839	1.4545	5.e-002	4.36
20014	19.116	1.4545	0.	13.217
20015	19.024	1.3636	0.	12.093
20016	19.024	1.4545	5.e-002	4.3398
20017	19.3	1.4545	0.	15.899
20018	19.208	1.3636	0.	14.645
20019	19.208	1.4545	5.e-002	4.3204
20020	19.484	1.4545	0.	18.593
20021	19.392	1.3636	0.	17.202
20022	19.392	1.4545	5.e-002	4.3019
20023	19.669	1.4545	0.	21.312
20024	19.576	1.3636	0.	19.775
20025	19.576	1.4545	5.e-002	4.2843
20026	19.853	1.4545	0.	24.073
20027	19.761	1.3636	0.	22.38
20028	19.761	1.4545	5.e-002	4.2676
20029	20.037	1.4545	0.	26.89
20030	19.945	1.3636	0.	25.029
20031	19.945	1.4545	5.e-002	4.2519
20032	20.222	1.4545	0.	29.78
20033	20.129	1.3636	0.	27.739
20034	20.129	1.4545	5.e-002	4.2372
20035	20.406	1.4545	0.	32.76
20036	20.314	1.3636	0.	30.524
20037	20.314	1.4545	5.e-002	4.2235
20038	20.59	1.4545	0.	35.849
20039	20.498	1.3636	0.	33.402
20040	20.498	1.4545	5.e-002	4.211
20041	20.775	1.4545	0.	39.065
20042	20.682	1.3636	0.	36.389
20043	20.682	1.4545	5.e-002	4.1996
20044	20.959	1.4545	0.	42.43
20045	20.867	1.3636	0.	39.505
20046	20.867	1.4545	5.e-002	4.1896
20047	21.143	1.4545	0.	45.966
20048	21.051	1.3636	0.	42.77
20049	21.051	1.4545	5.e-002	4.1809
20050	21.327	1.4545	0.	49.699
20051	21.235	1.3636	0.	46.207
20052	21.235	1.4545	5.e-002	4.1738
20053	21.512	1.4545	0.	53.655
20054	21.42	1.3636	0.	49.841
20055	21.42	1.4545	5.e-002	4.1684
20056	21.696	1.4545	0.	57.865
20057	21.604	1.3636	0.	53.7
20058	21.604	1.4545	5.e-002	4.1649
20059	21.88	1.4545	0.	62.365
20060	21.788	1.3636	0.	57.817
20061	21.788	1.4545	5.e-002	4.1636
20062	22.065	1.4545	0.	67.193
20063	21.973	1.3636	0.	62.228
20064	21.973	1.4545	5.e-002	4.1649
20065	22.249	1.4545	0.	72.393
20066	22.157	1.3636	0.	66.976
20067	22.157	1.4545	5.e-002	4.1691
20068	22.433	1.4545	0.	78.015
20069	22.341	1.3636	0.	72.109
20070	22.341	1.4545	5.e-002	4.1767
20071	22.618	1.4545	0.	84.113
20072	22.525	1.3636	0.	77.683
20073	22.525	1.4545	5.e-002	4.1886
20074	22.802	1.4545	0.	90.744
20075	22.71	1.3636	0.	83.759
20076	22.71	1.4545	5.e-002	4.2057
20077	22.986	1.4545	0.	97.966
20078	22.894	1.3636	0.	90.405
20079	22.894	1.4545	5.e-002	4.2289
20080	23.171	1.4545	0.	105.84
20081	23.078	1.3636	0.	97.688
20082	23.078	1.4545	5.e-002	4.2597
20083	23.355	1.4545	0.	114.39
20084	23.263	1.3636	0.	105.68
20085	23.263	1.4545	5.e-002	4.2994
20086	23.539	1.4545	0.	123.68
20087	23.447	1.3636	0.	114.41
20088	23.447	1.4545	5.e-002	4.3491
20089	23.724	1.4545	0.	133.66
20090	23.631	1.3636	0.	123.96
20091	23.631	1.4545	5.e-002	4.4126
20092	23.816	1.3636	0.	134.21
20093	23.816	1.4545	5.e-002	4.5425
20094	23.908	1.4545	0.	143.42
20095	11.743	1.2727	0.	888.78
20096	11.651	1.1818	0.	993.79
20097	11.651	1.2727	5.e-002	82.093
20098	11.559	1.2727	0.	899.34
20099	11.927	1.2727	0.	544.17
20100	11.835	1.1818	0.	614.32
20101	11.835	1.2727	5.e-002	48.45
20102	12.112	1.2727	0.	329.11
20103	12.02	1.1818	0.	387.98
20104	12.02	1.2727	5.e-002	35.309
20105	12.296	1.2727	0.	188.83
20106	12.204	1.1818	0.	237.39
20107	12.204	1.2727	5.e-002	25.35
20108	12.48	1.2727	0.	99.699
20109	12.388	1.1818	0.	139.36
20110	12.388	1.2727	5.e-002	19.012
20111	12.665	1.2727	0.	44.624
20112	12.573	1.1818	0.	76.86
20113	12.573	1.2727	5.e-002	14.79
20114	12.849	1.2727	0.	13.711
20115	12.757	1.1818	0.	37.3
20116	12.757	1.2727	5.e-002	11.883
20117	13.033	1.2727	0.	3.7415
20118	12.941	1.1818	0.	13.646
20119	12.941	1.2727	5.e-002	9.7981
20120	13.218	1.2727	0.	1.6246
20121	13.125	1.1818	0.	4.0534
20122	13.125	1.2727	5.e-002	8.2753
20123	13.402	1.2727	0.	0.90067
20124	13.31	1.1818	0.	1.6734
20125	13.31	1.2727	5.e-002	7.1658
20126	13.586	1.2727	0.	0.55909
20127	13.494	1.1818	0.	0.88874
20128	13.494	1.2727	5.e-002	6.3715
20129	13.771	1.2727	0.	0.36983
20130	13.678	1.1818	0.	0.53463
20131	13.678	1.2727	5.e-002	5.8181
20132	13.955	1.2727	0.	0.25502
20133	13.863	1.1818	0.	0.34552
20134	13.863	1.2727	5.e-002	5.4447
20135	14.139	1.2727	0.	0.18134
20136	14.047	1.1818	0.	0.2343
20137	14.047	1.2727	5.e-002	5.2008
20138	14.324	1.2727	0.	0.13218
20139	14.231	1.1818	0.	0.1647
20140	14.231	1.2727	5.e-002	5.0458
20141	14.508	1.2727	0.	9.8422e-002
20142	14.416	1.1818	0.	0.11922
20143	14.416	1.2727	5.e-002	4.9492
20144	14.692	1.2727	0.	7.4716e-002
20145	14.6	1.1818	0.	8.8492e-002
20146	14.6	1.2727	5.e-002	4.8891
20147	14.876	1.2727	0.	5.7754e-002
20148	14.784	1.1818	0.	6.7173e-002
20149	14.784	1.2727	5.e-002	4.8505
20150	15.061	1.2727	0.	4.5427e-002
20151	14.969	1.1818	0.	5.2052e-002
20152	14.969	1.2727	5.e-002	4.8238
20153	15.245	1.2727	0.	3.6347e-002
20154	15.153	1.1818	0.	4.1123e-002
20155	15.153	1.2727	5.e-002	4.803
20156	15.429	1.2727	0.	2.9582e-002
20157	15.337	1.1818	0.	3.3095e-002
20158	15.337	1.2727	5.e-002	4.7846
20159	15.614	1.2727	0.	2.4496e-002
20160	15.522	1.1818	0.	2.712e-002
20161	15.522	1.2727	5.e-002	4.7663
20162	15.798	1.2727	0.	2.0651e-002
20163	15.706	1.1818	0.	2.2623e-002
20164	15.706	1.2727	5.e-002	4.7474
20165	15.982	1.2727	0.	1.7733e-002
20166	15.89	1.1818	0.	1.9224e-002
20167	15.89	1.2727	5.e-002	4.7272
20168	16.167	1.2727	0.	1.5506e-002
20169	16.075	1.1818	0.	1.6633e-002
20170	16.075	1.2727	5.e-002	4.7059
20171	16.351	1.2727	0.	1.3823e-002
20172	16.259	1.1818	0.	1.4646e-002
20173	16.259	1.2727	5.e-002	4.6833
20174	16.535	1.2727	0.	1.2584e-002
20175	16.443	1.1818	0.	1.3165e-002
20176	16.443	1.2727	5.e-002	4.6599
20177	16.72	1.2727	0.	1.1698e-002
20178	16.627	1.1818	0.	1.2085e-002
20179	16.627	1.2727	5.e-002	4.6357
20180	16.904	1.2727	0.	1.1115e-002
20181	16.812	1.1818	0.	1.1334e-002
20182	16.812	1.2727	5.e-002	4.6111
20183	17.088	1.2727	0.	1.0823e-002
20184	16.996	1.1818	0.	1.09e-002
20185	16.996	1.2727	5.e-002	4.5863
20186	17.273	1.2727	0.	1.0844e-002
20187	17.18	1.1818	0.	1.0797e-002
20188	17.18	1.2727	5.e-002	4.5614
20189	17.457	1.2727	0.	1.128e-002
20190	17.365	1.1818	0.	1.1122e-002
20191	17.365	1.2727	5.e-002	4.5366
20192	17.641	1.2727	0.	1.2449e-002
20193	17.549	1.1818	0.	1.2173e-002
20194	17.549	1.2727	5.e-002	4.5121
20195	17.825	1.2727	0.	1.5535e-002
20196	17.733	1.1818	0.	1.5025e-002
20197	17.733	1.2727	5.e-002	4.4879
20198	18.01	1.2727	0.	3.0139e-002
20199	17.918	1.1818	0.	2.7176e-002
20200	17.918	1.2727	5.e-002	4.4642
20201	18.194	1.2727	0.	1.1843
20202	18.102	1.1818	0.	0.86622
20203	18.102	1.2727	5.e-002	4.441
20204	18.378	1.2727	0.	3.7127
20205	18.286	1.1818	0.	3.2593
20206	18.286	1.2727	5.e-002	4.4184
20207	18.563	1.2727	0.	6.2124
20208	18.471	1.1818	0.	5.6338
20209	18.471	1.2727	5.e-002	4.3964
20210	18.747	1.2727	0.	8.6793
20211	18.655	1.1818	0.	7.9755
20212	18.655	1.2727	5.e-002	4.3751
20213	18.931	1.2727	0.	11.122
20214	18.839	1.1818	0.	10.291
20215	18.839	1.2727	5.e-002	4.3545
20216	19.116	1.2727	0.	13.552
20217	19.024	1.1818	0.	12.59
20218	19.024	1.2727	5.e-002	4.3346
20219	19.3	1.2727	0.	15.98
20220	19.208	1.1818	0.	14.882
20221	19.208	1.2727	5.e-002	4.3155
20222	19.484	1.2727	0.	18.418
20223	19.392	1.1818	0.	17.177
20224	19.392	1.2727	5.e-002	4.2972
20225	19.669	1.2727	0.	20.878
20226	19.576	1.1818	0.	19.486
20227	19.576	1.2727	5.e-002	4.2797
20228	19.853	1.2727	0.	23.372
20229	19.761	1.1818	0.	21.821
20230	19.761	1.2727	5.e-002	4.263
20231	20.037	1.2727	0.	25.916
20232	19.945	1.1818	0.	24.193
20233	19.945	1.2727	5.e-002	4.2473
20234	20.222	1.2727	0.	28.522
20235	20.129	1.1818	0.	26.616
20236	20.129	1.2727	5.e-002	4.2325
20237	20.406	1.2727	0.	31.205
20238	20.314	1.1818	0.	29.102
20239	20.314	1.2727	5.e-002	4.2186
20240	20.59	1.2727	0.	33.982
20241	20.498	1.1818	0.	31.666
20242	20.498	1.2727	5.e-002	4.2059
20243	20.775	1.2727	0.	36.87
20244	20.682	1.1818	0.	34.323
20245	20.682	1.2727	5.e-002	4.1942
20246	20.959	1.2727	0.	39.886
20247	20.867	1.1818	0.	37.089
20248	20.867	1.2727	5.e-002	4.1838
20249	21.143	1.2727	0.	43.053
20250	21.051	1.1818	0.	39.982
20251	21.051	1.2727	5.e-002	4.1746
20252	21.327	1.2727	0.	46.392
20253	21.235	1.1818	0.	43.023
20254	21.235	1.2727	5.e-002	4.1669
20255	21.512	1.2727	0.	49.93
20256	21.42	1.1818	0.	46.235
20257	21.42	1.2727	5.e-002	4.1608
20258	21.696	1.2727	0.	53.696
20259	21.604	1.1818	0.	49.643
20260	21.604	1.2727	5.e-002	4.1564
20261	21.88	1.2727	0.	57.725
20262	21.788	1.1818	0.	53.278
20263	21.788	1.2727	5.e-002	4.154
20264	22.065	1.2727	0.	62.056
20265	21.973	1.1818	0.	57.177
20266	21.973	1.2727	5.e-002	4.154
20267	22.249	1.2727	0.	66.736
20268	22.157	1.1818	0.	61.38
20269	22.157	1.2727	5.e-002	4.1567
20270	22.433	1.2727	0.	71.819
20271	22.341	1.1818	0.	65.94
20272	22.341	1.2727	5.e-002	4.1627
20273	22.618	1.2727	0.	77.368
20274	22.525	1.1818	0.	70.918
20275	22.525	1.2727	5.e-002	4.1728
20276	22.802	1.2727	0.	83.456
20277	22.71	1.1818	0.	76.385
20278	22.71	1.2727	5.e-002	4.1879
20279	22.986	1.2727	0.	90.158
20280	22.894	1.1818	0.	82.425
20281	22.894	1.2727	5.e-002	4.2096
20282	23.171	1.2727	0.	97.556
20283	23.078	1.1818	0.	89.132
20284	23.078	1.2727	5.e-002	4.2393
20285	23.355	1.2727	0.	105.71
20286	23.263	1.1818	0.	96.603
20287	23.263	1.2727	5.e-002	4.2793
20288	23.539	1.2727	0.	114.71
20289	23.447	1.1818	0.	104.91
20290	23.447	1.2727	5.e-002	4.3314
20291	23.724	1.2727	0.	124.52
20292	23.631	1.1818	0.	114.17
20293	23.631	1.2727	5.e-002	4.4012
20294	23.816	1.1818	0.	124.29
20295	23.816	1.2727	5.e-002	4.553
20296	23.908	1.2727	0.	134.11
20297	11.743	1.0909	0.	686.48
20298	11.651	1.	0.	753.62
20299	11.651	1.0909	5.e-002	65.041
20300	11.559	1.0909	0.	681.72
20301	11.927	1.0909	0.	435.29
20302	11.835	1.	0.	470.28
20303	11.835	1.0909	5.e-002	42.222
20304	12.112	1.0909	0.	281.64
20305	12.02	1.	0.	310.74
20306	12.02	1.0909	5.e-002	33.187
20307	12.296	1.0909	0.	179.03
20308	12.204	1.	0.	205.46
20309	12.204	1.0909	5.e-002	25.39
20310	12.48	1.0909	0.	111.28
20311	12.388	1.	0.	135.73
20312	12.388	1.0909	5.e-002	19.353
20313	12.665	1.0909	0.	66.628
20314	12.573	1.	0.	89.314
20315	12.573	1.0909	5.e-002	14.884
20316	12.849	1.0909	0.	36.83
20317	12.757	1.	0.	57.561
20318	12.757	1.0909	5.e-002	11.594
20319	13.033	1.0909	0.	17.039
20320	12.941	1.	0.	35.111
20321	12.941	1.0909	5.e-002	9.17
20322	13.218	1.0909	0.	5.8399
20323	13.125	1.	0.	18.892
20324	13.125	1.0909	5.e-002	7.4001
20325	13.402	1.0909	0.	2.0802
20326	13.31	1.	0.	7.7849
20327	13.31	1.0909	5.e-002	6.1449
20328	13.586	1.0909	0.	0.98689
20329	13.494	1.	0.	2.5374
20330	13.494	1.0909	5.e-002	5.3037
20331	13.771	1.0909	0.	0.55487
20332	13.678	1.	0.	1.0391
20333	13.678	1.0909	5.e-002	4.7881
20334	13.955	1.0909	0.	0.34337
20335	13.863	1.	0.	0.53824
20336	13.863	1.0909	5.e-002	4.5118
20337	14.139	1.0909	0.	0.22619
20338	14.047	1.	0.	0.31803
20339	14.047	1.0909	5.e-002	4.3949
20340	14.324	1.0909	0.	0.15597
20341	14.231	1.	0.	0.20393
20342	14.231	1.0909	5.e-002	4.3725
20343	14.508	1.0909	0.	0.11152
20344	14.416	1.	0.	0.13852
20345	14.416	1.0909	5.e-002	4.399
20346	14.692	1.0909	0.	8.2202e-002
20347	14.6	1.	0.	9.834e-002
20348	14.6	1.0909	5.e-002	4.4459
20349	14.876	1.0909	0.	6.2213e-002
20350	14.784	1.	0.	7.237e-002
20351	14.784	1.0909	5.e-002	4.4966
20352	15.061	1.0909	0.	4.8208e-002
20353	14.969	1.	0.	5.4893e-002
20354	14.969	1.0909	5.e-002	4.5427
20355	15.245	1.0909	0.	3.8167e-002
20356	15.153	1.	0.	4.2741e-002
20357	15.153	1.0909	5.e-002	4.5803
20358	15.429	1.0909	0.	3.0827e-002
20359	15.337	1.	0.	3.4058e-002
20360	15.337	1.0909	5.e-002	4.6083
20361	15.614	1.0909	0.	2.5375e-002
20362	15.522	1.	0.	2.7714e-002
20363	15.522	1.0909	5.e-002	4.6268
20364	15.798	1.0909	0.	2.1279e-002
20365	15.706	1.	0.	2.2991e-002
20366	15.706	1.0909	5.e-002	4.6368
20367	15.982	1.0909	0.	1.8172e-002
20368	15.89	1.	0.	1.9434e-002
20369	15.89	1.0909	5.e-002	4.6395
20370	16.167	1.0909	0.	1.5794e-002
20371	16.075	1.	0.	1.6724e-002
20372	16.075	1.0909	5.e-002	4.636
20373	16.351	1.0909	0.	1.3987e-002
20374	16.259	1.	0.	1.4637e-002
20375	16.259	1.0909	5.e-002	4.6276
20376	16.535	1.0909	0.	1.2647e-002
20377	16.443	1.	0.	1.3074e-002
20378	16.443	1.0909	5.e-002	4.6152
20379	16.72	1.0909	0.	1.1686e-002
20380	16.627	1.	0.	1.1933e-002
20381	16.627	1.0909	5.e-002	4.5997
20382	16.904	1.0909	0.	1.1067e-002
20383	16.812	1.	0.	1.1156e-002
20384	16.812	1.0909	5.e-002	4.5819
20385	17.088	1.0909	0.	1.0805e-002
20386	16.996	1.	0.	1.076e-002
20387	16.996	1.0909	5.e-002	4.5625
20388	17.273	1.0909	0.	1.0987e-002
20389	17.18	1.	0.	1.0832e-002
20390	17.18	1.0909	5.e-002	4.5418
20391	17.457	1.0909	0.	1.1901e-002
20392	17.365	1.	0.	1.1666e-002
20393	17.365	1.0909	5.e-002	4.5203
20394	17.641	1.0909	0.	1.4568e-002
20395	17.549	1.	0.	1.4338e-002
20396	17.549	1.0909	5.e-002	4.4984
20397	17.825	1.0909	0.	2.5664e-002
20398	17.733	1.	0.	2.6061e-002
20399	17.733	1.0909	5.e-002	4.4763
20400	18.01	1.0909	0.	0.70003
20401	17.918	1.	0.	0.71158
20402	17.918	1.0909	5.e-002	4.4542
20403	18.194	1.0909	0.	2.9581
20404	18.102	1.	0.	2.8358
20405	18.102	1.0909	5.e-002	4.4323
20406	18.378	1.0909	0.	5.2079
20407	18.286	1.	0.	4.9522
20408	18.286	1.0909	5.e-002	4.4107
20409	18.563	1.0909	0.	7.4261
20410	18.471	1.	0.	7.0387
20411	18.471	1.0909	5.e-002	4.3895
20412	18.747	1.0909	0.	9.6179
20413	18.655	1.	0.	9.0987
20414	18.655	1.0909	5.e-002	4.3688
20415	18.931	1.0909	0.	11.791
20416	18.839	1.	0.	11.138
20417	18.839	1.0909	5.e-002	4.3486
20418	19.116	1.0909	0.	13.952
20419	19.024	1.	0.	13.164
20420	19.024	1.0909	5.e-002	4.3291
20421	19.3	1.0909	0.	16.112
20422	19.208	1.	0.	15.183
20423	19.208	1.0909	5.e-002	4.3103
20424	19.484	1.0909	0.	18.28
20425	19.392	1.	0.	17.205
20426	19.392	1.0909	5.e-002	4.2921
20427	19.669	1.0909	0.	20.465
20428	19.576	1.	0.	19.237
20429	19.576	1.0909	5.e-002	4.2747
20430	19.853	1.0909	0.	22.679
20431	19.761	1.	0.	21.289
20432	19.761	1.0909	5.e-002	4.2581
20433	20.037	1.0909	0.	24.932
20434	19.945	1.	0.	23.371
20435	19.945	1.0909	5.e-002	4.2423
20436	20.222	1.0909	0.	27.237
20437	20.129	1.	0.	25.492
20438	20.129	1.0909	5.e-002	4.2274
20439	20.406	1.0909	0.	29.605
20440	20.314	1.	0.	27.664
20441	20.314	1.0909	5.e-002	4.2134
20442	20.59	1.0909	0.	32.05
20443	20.498	1.	0.	29.898
20444	20.498	1.0909	5.e-002	4.2004
20445	20.775	1.0909	0.	34.587
20446	20.682	1.	0.	32.206
20447	20.682	1.0909	5.e-002	4.1884
20448	20.959	1.0909	0.	37.231
20449	20.867	1.	0.	34.603
20450	20.867	1.0909	5.e-002	4.1776
20451	21.143	1.0909	0.	40.
20452	21.051	1.	0.	37.102
20453	21.051	1.0909	5.e-002	4.1679
20454	21.327	1.0909	0.	42.915
20455	21.235	1.	0.	39.722
20456	21.235	1.0909	5.e-002	4.1596
20457	21.512	1.0909	0.	45.998
20458	21.42	1.	0.	42.481
20459	21.42	1.0909	5.e-002	4.1526
20460	21.696	1.0909	0.	49.277
20461	21.604	1.	0.	45.402
20462	21.604	1.0909	5.e-002	4.1473
20463	21.88	1.0909	0.	52.782
20464	21.788	1.	0.	48.512
20465	21.788	1.0909	5.e-002	4.1438
20466	22.065	1.0909	0.	56.554
20467	21.973	1.	0.	51.845
20468	21.973	1.0909	5.e-002	4.1424
20469	22.249	1.0909	0.	60.638
20470	22.157	1.	0.	55.439
20471	22.157	1.0909	5.e-002	4.1434
20472	22.433	1.0909	0.	65.091
20473	22.341	1.	0.	59.346
20474	22.341	1.0909	5.e-002	4.1475
20475	22.618	1.0909	0.	69.984
20476	22.525	1.	0.	63.627
20477	22.525	1.0909	5.e-002	4.1554
20478	22.802	1.0909	0.	75.401
20479	22.71	1.	0.	68.362
20480	22.71	1.0909	5.e-002	4.1681
20481	22.986	1.0909	0.	81.44
20482	22.894	1.	0.	73.649
20483	22.894	1.0909	5.e-002	4.1873
20484	23.171	1.0909	0.	88.214
20485	23.078	1.	0.	79.606
20486	23.078	1.0909	5.e-002	4.2151
20487	23.355	1.0909	0.	95.828
20488	23.263	1.	0.	86.376
20489	23.263	1.0909	5.e-002	4.2544
20490	23.539	1.0909	0.	104.4
20491	23.447	1.	0.	94.085
20492	23.447	1.0909	5.e-002	4.3087
20493	23.724	1.0909	0.	113.96
20494	23.631	1.	0.	102.92
20495	23.631	1.0909	5.e-002	4.3855
20496	23.816	1.	0.	112.83
20497	23.816	1.0909	5.e-002	4.563
20498	23.908	1.0909	0.	123.34
20499	11.743	0.90909	0.	509.76
20500	11.651	0.81818	0.	552.36
20501	11.651	0.90909	5.e-002	53.891
20502	11.559	0.90909	0.	504.64
20503	11.927	0.90909	0.	325.23
20504	11.835	0.81818	0.	337.31
20505	11.835	0.90909	5.e-002	37.247
20506	12.112	0.90909	0.	221.11
20507	12.02	0.81818	0.	229.23
20508	12.02	0.90909	5.e-002	31.143
20509	12.296	0.90909	0.	153.98
20510	12.204	0.81818	0.	163.5
20511	12.204	0.90909	5.e-002	25.098
20512	12.48	0.90909	0.	108.99
20513	12.388	0.81818	0.	120.69
20514	12.388	0.90909	5.e-002	19.742
20515	12.665	0.90909	0.	77.553
20516	12.573	0.81818	0.	90.907
20517	12.573	0.90909	5.e-002	15.31
20518	12.849	0.90909	0.	54.481
20519	12.757	0.81818	0.	68.618
20520	12.757	0.90909	5.e-002	11.777
20521	13.033	0.90909	0.	36.807
20522	12.941	0.81818	0.	50.949
20523	12.941	0.90909	5.e-002	9.0198
20524	13.218	0.90909	0.	22.893
20525	13.125	0.81818	0.	36.423
20526	13.125	0.90909	5.e-002	6.9203
20527	13.402	0.90909	0.	11.98
20528	13.31	0.81818	0.	24.295
20529	13.31	0.90909	5.e-002	5.3905
20530	13.586	0.90909	0.	4.4157
20531	13.494	0.81818	0.	14.223
20532	13.494	0.90909	5.e-002	4.3691
20533	13.771	0.90909	0.	1.3846
20534	13.678	0.81818	0.	6.283
20535	13.678	0.90909	5.e-002	3.794
20536	13.955	0.90909	0.	0.59659
20537	13.863	0.81818	0.	1.7673
20538	13.863	0.90909	5.e-002	3.5698
20539	14.139	0.90909	0.	0.32142
20540	14.047	0.81818	0.	0.60511
20541	14.047	0.90909	5.e-002	3.5723
20542	14.324	0.90909	0.	0.19604
20543	14.231	0.81818	0.	0.29524
20544	14.231	0.90909	5.e-002	3.6898
20545	14.508	0.90909	0.	0.12946
20546	14.416	0.81818	0.	0.17249
20547	14.416	0.90909	5.e-002	3.8483
20548	14.692	0.90909	0.	9.0514e-002
20549	14.6	0.81818	0.	0.11192
20550	14.6	0.90909	5.e-002	4.008
20551	14.876	0.90909	0.	6.6131e-002
20552	14.784	0.81818	0.	7.7926e-002
20553	14.784	0.90909	5.e-002	4.1509
20554	15.061	0.90909	0.	5.006e-002
20555	14.969	0.81818	0.	5.7147e-002
20556	14.969	0.90909	5.e-002	4.2706
20557	15.245	0.90909	0.	3.9029e-002
20558	15.153	0.81818	0.	4.3622e-002
20559	15.153	0.90909	5.e-002	4.3663
20560	15.429	0.90909	0.	3.1203e-002
20561	15.337	0.81818	0.	3.4378e-002
20562	15.337	0.90909	5.e-002	4.4398
20563	15.614	0.90909	0.	2.5501e-002
20564	15.522	0.81818	0.	2.7811e-002
20565	15.522	0.90909	5.e-002	4.4939
20566	15.798	0.90909	0.	2.1258e-002
20567	15.706	0.81818	0.	2.2995e-002
20568	15.706	0.90909	5.e-002	4.5318
20569	15.982	0.90909	0.	1.8052e-002
20570	15.89	0.81818	0.	1.9385e-002
20571	15.89	0.90909	5.e-002	4.5562
20572	16.167	0.90909	0.	1.5596e-002
20573	16.075	0.81818	0.	1.6627e-002
20574	16.075	0.90909	5.e-002	4.5698
20575	16.351	0.90909	0.	1.3723e-002
20576	16.259	0.81818	0.	1.4487e-002
20577	16.259	0.90909	5.e-002	4.5747
20578	16.535	0.90909	0.	1.2332e-002
20579	16.443	0.81818	0.	1.2869e-002
20580	16.443	0.90909	5.e-002	4.5727
20581	16.72	0.90909	0.	1.135e-002
20582	16.627	0.81818	0.	1.1691e-002
20583	16.627	0.90909	5.e-002	4.5653
20584	16.904	0.90909	0.	1.0772e-002
20585	16.812	0.81818	0.	1.0931e-002
20586	16.812	0.90909	5.e-002	4.554
20587	17.088	0.90909	0.	1.0693e-002
20588	16.996	0.81818	0.	1.0703e-002
20589	16.996	0.90909	5.e-002	4.5395
20590	17.273	0.90909	0.	1.1425e-002
20591	17.18	0.81818	0.	1.1378e-002
20592	17.18	0.90909	5.e-002	4.5228
20593	17.457	0.90909	0.	1.4183e-002
20594	17.365	0.81818	0.	1.4552e-002
20595	17.365	0.90909	5.e-002	4.5044
20596	17.641	0.90909	0.	2.8345e-002
20597	17.549	0.81818	0.	3.8716e-002
20598	17.549	0.90909	5.e-002	4.485
20599	17.825	0.90909	0.	0.88201
20600	17.733	0.81818	0.	1.241
20601	17.733	0.90909	5.e-002	4.4648
20602	18.01	0.90909	0.	2.8764
20603	17.918	0.81818	0.	3.0992
20604	17.918	0.90909	5.e-002	4.4442
20605	18.194	0.90909	0.	4.8577
20606	18.102	0.81818	0.	4.9397
20607	18.102	0.90909	5.e-002	4.4235
20608	18.378	0.90909	0.	6.8121
20609	18.286	0.81818	0.	6.756
20610	18.286	0.90909	5.e-002	4.4028
20611	18.563	0.90909	0.	8.7417
20612	18.471	0.81818	0.	8.5492
20613	18.471	0.90909	5.e-002	4.3824
20614	18.747	0.90909	0.	10.651
20615	18.655	0.81818	0.	10.322
20616	18.655	0.90909	5.e-002	4.3622
20617	18.931	0.90909	0.	12.544
20618	18.839	0.81818	0.	12.079
20619	18.839	0.90909	5.e-002	4.3425
20620	19.116	0.90909	0.	14.429
20621	19.024	0.81818	0.	13.825
20622	19.024	0.90909	5.e-002	4.3233
20623	19.3	0.90909	0.	16.311
20624	19.208	0.81818	0.	15.565
20625	19.208	0.90909	5.e-002	4.3047
20626	19.484	0.90909	0.	18.199
20627	19.392	0.81818	0.	17.305
20628	19.392	0.90909	5.e-002	4.2867
20629	19.669	0.90909	0.	20.099
20630	19.576	0.81818	0.	19.052
20631	19.576	0.90909	5.e-002	4.2694
20632	19.853	0.90909	0.	22.021
20633	19.761	0.81818	0.	20.813
20634	19.761	0.90909	5.e-002	4.2528
20635	20.037	0.90909	0.	23.972
20636	19.945	0.81818	0.	22.595
20637	19.945	0.90909	5.e-002	4.237
20638	20.222	0.90909	0.	25.963
20639	20.129	0.81818	0.	24.405
20640	20.129	0.90909	5.e-002	4.2219
20641	20.406	0.90909	0.	28.002
20642	20.314	0.81818	0.	26.252
20643	20.314	0.90909	5.e-002	4.2078
20644	20.59	0.90909	0.	30.101
20645	20.498	0.81818	0.	28.145
20646	20.498	0.90909	5.e-002	4.1945
20647	20.775	0.90909	0.	32.271
20648	20.682	0.81818	0.	30.093
20649	20.682	0.90909	5.e-002	4.1822
20650	20.959	0.90909	0.	34.524
20651	20.867	0.81818	0.	32.106
20652	20.867	0.90909	5.e-002	4.171
20653	21.143	0.90909	0.	36.876
20654	21.051	0.81818	0.	34.197
20655	21.051	0.90909	5.e-002	4.1608
20656	21.327	0.90909	0.	39.342
20657	21.235	0.81818	0.	36.377
20658	21.235	0.90909	5.e-002	4.1518
20659	21.512	0.90909	0.	41.941
20660	21.42	0.81818	0.	38.662
20661	21.42	0.90909	5.e-002	4.1441
20662	21.696	0.90909	0.	44.697
20663	21.604	0.81818	0.	41.071
20664	21.604	0.90909	5.e-002	4.1378
20665	21.88	0.90909	0.	47.636
20666	21.788	0.81818	0.	43.624
20667	21.788	0.90909	5.e-002	4.1331
20668	22.065	0.90909	0.	50.793
20669	21.973	0.81818	0.	46.349
20670	21.973	0.90909	5.e-002	4.1302
20671	22.249	0.90909	0.	54.212
20672	22.157	0.81818	0.	49.28
20673	22.157	0.90909	5.e-002	4.1294
20674	22.433	0.90909	0.	57.946
20675	22.341	0.81818	0.	52.461
20676	22.341	0.90909	5.e-002	4.1314
20677	22.618	0.90909	0.	62.069
20678	22.525	0.81818	0.	55.951
20679	22.525	0.90909	5.e-002	4.1366
20680	22.802	0.90909	0.	66.672
20681	22.71	0.81818	0.	59.827
20682	22.71	0.90909	5.e-002	4.1464
20683	22.986	0.90909	0.	71.873
20684	22.894	0.81818	0.	64.194
20685	22.894	0.90909	5.e-002	4.1622
20686	23.171	0.90909	0.	77.819
20687	23.078	0.81818	0.	69.192
20688	23.078	0.90909	5.e-002	4.1867
20689	23.355	0.90909	0.	84.675
20690	23.263	0.81818	0.	75.007
20691	23.263	0.90909	5.e-002	4.2238
20692	23.539	0.90909	0.	92.631
20693	23.447	0.81818	0.	81.847
20694	23.447	0.90909	5.e-002	4.2789
20695	23.724	0.90909	0.	101.81
20696	23.631	0.81818	0.	90.002
20697	23.631	0.90909	5.e-002	4.3635
20698	23.816	0.81818	0.	99.57
20699	23.816	0.90909	5.e-002	4.5711
20700	23.908	0.90909	0.	110.9
20701	11.743	0.72727	0.	354.7
20702	11.651	0.63636	0.	379.74
20703	11.651	0.72727	5.e-002	46.01
20704	11.559	0.72727	0.	355.64
20705	11.927	0.72727	0.	223.25
20706	11.835	0.63636	0.	220.13
20707	11.835	0.72727	5.e-002	33.93
20708	12.112	0.72727	0.	160.34
20709	12.02	0.63636	0.	155.08
20710	12.02	0.72727	5.e-002	29.543
20711	12.296	0.72727	0.	123.56
20712	12.204	0.63636	0.	121.97
20713	12.204	0.72727	5.e-002	24.703
20714	12.48	0.72727	0.	98.763
20715	12.388	0.63636	0.	101.25
20716	12.388	0.72727	5.e-002	19.983
20717	12.665	0.72727	0.	79.77
20718	12.573	0.63636	0.	85.425
20719	12.573	0.72727	5.e-002	15.744
20720	12.849	0.72727	0.	63.855
20721	12.757	0.63636	0.	71.541
20722	12.757	0.72727	5.e-002	12.131
20723	13.033	0.72727	0.	49.932
20724	12.941	0.63636	0.	58.704
20725	12.941	0.72727	5.e-002	9.1526
20726	13.218	0.72727	0.	37.61
20727	13.125	0.63636	0.	46.781
20728	13.125	0.72727	5.e-002	6.7664
20729	13.402	0.72727	0.	26.773
20730	13.31	0.63636	0.	35.875
20731	13.31	0.72727	5.e-002	4.9293
20732	13.586	0.72727	0.	17.399
20733	13.494	0.63636	0.	26.121
20734	13.494	0.72727	5.e-002	3.6256
20735	13.771	0.72727	0.	9.5268
20736	13.678	0.63636	0.	17.612
20737	13.678	0.72727	5.e-002	2.8692
20738	13.955	0.72727	0.	3.4982
20739	13.863	0.63636	0.	10.401
20740	13.863	0.72727	5.e-002	2.6311
20741	14.139	0.72727	0.	0.83504
20742	14.047	0.63636	0.	4.589
20743	14.047	0.72727	5.e-002	2.7492
20744	14.324	0.72727	0.	0.31681
20745	14.231	0.63636	0.	1.0552
20746	14.231	0.72727	5.e-002	3.021
20747	14.508	0.72727	0.	0.16751
20748	14.416	0.63636	0.	0.30375
20749	14.416	0.72727	5.e-002	3.3213
20750	14.692	0.72727	0.	0.10403
20751	14.6	0.63636	0.	0.14733
20752	14.6	0.72727	5.e-002	3.597
20753	14.876	0.72727	0.	7.1118e-002
20754	14.784	0.63636	0.	8.9097e-002
20755	14.784	0.72727	5.e-002	3.8309
20756	15.061	0.72727	0.	5.1889e-002
20757	14.969	0.63636	0.	6.0554e-002
20758	14.969	0.72727	5.e-002	4.021
20759	15.245	0.72727	0.	3.969e-002
20760	15.153	0.63636	0.	4.427e-002
20761	15.153	0.72727	5.e-002	4.1711
20762	15.429	0.72727	0.	3.1458e-002
20763	15.337	0.63636	0.	3.401e-002
20764	15.337	0.72727	5.e-002	4.2866
20765	15.614	0.72727	0.	2.5627e-002
20766	15.522	0.63636	0.	2.7064e-002
20767	15.522	0.72727	5.e-002	4.3733
20768	15.798	0.72727	0.	2.1341e-002
20769	15.706	0.63636	0.	2.2103e-002
20770	15.706	0.72727	5.e-002	4.4364
20771	15.982	0.72727	0.	1.8101e-002
20772	15.89	0.63636	0.	1.8421e-002
20773	15.89	0.72727	5.e-002	4.4804
20774	16.167	0.72727	0.	1.5594e-002
20775	16.075	0.63636	0.	1.5602e-002
20776	16.075	0.72727	5.e-002	4.5092
20777	16.351	0.72727	0.	1.3651e-002
20778	16.259	0.63636	0.	1.3394e-002
20779	16.259	0.72727	5.e-002	4.5259
20780	16.535	0.72727	0.	1.2192e-002
20781	16.443	0.63636	0.	1.1713e-002
20782	16.443	0.72727	5.e-002	4.5332
20783	16.72	0.72727	0.	1.1187e-002
20784	16.627	0.63636	0.	1.0516e-002
20785	16.627	0.72727	5.e-002	4.5331
20786	16.904	0.72727	0.	1.0747e-002
20787	16.812	0.63636	0.	9.9266e-003
20788	16.812	0.72727	5.e-002	4.5274
20789	17.088	0.72727	0.	1.1357e-002
20790	16.996	0.63636	0.	1.0707e-002
20791	16.996	0.72727	5.e-002	4.5174
20792	17.273	0.72727	0.	1.5634e-002
20793	17.18	0.63636	0.	2.1182e-002
20794	17.18	0.72727	5.e-002	4.5042
20795	17.457	0.72727	0.	0.15791
20796	17.365	0.63636	0.	0.94954
20797	17.365	0.72727	5.e-002	4.4886
20798	17.641	0.72727	0.	1.7842
20799	17.549	0.63636	0.	2.5138
20800	17.549	0.72727	5.e-002	4.4713
20801	17.825	0.72727	0.	3.496
20802	17.733	0.63636	0.	4.0744
20803	17.733	0.72727	5.e-002	4.4528
20804	18.01	0.72727	0.	5.1916
20805	17.918	0.63636	0.	5.6224
20806	17.918	0.72727	5.e-002	4.4336
20807	18.194	0.72727	0.	6.8674
20808	18.102	0.63636	0.	7.1548
20809	18.102	0.72727	5.e-002	4.4139
20810	18.378	0.72727	0.	8.5235
20811	18.286	0.63636	0.	8.6704
20812	18.286	0.72727	5.e-002	4.3941
20813	18.563	0.72727	0.	10.161
20814	18.471	0.63636	0.	10.17
20815	18.471	0.72727	5.e-002	4.3743
20816	18.747	0.72727	0.	11.784
20817	18.655	0.63636	0.	11.654
20818	18.655	0.72727	5.e-002	4.3547
20819	18.931	0.72727	0.	13.394
20820	18.839	0.63636	0.	13.126
20821	18.839	0.72727	5.e-002	4.3353
20822	19.116	0.72727	0.	14.996
20823	19.024	0.63636	0.	14.589
20824	19.024	0.72727	5.e-002	4.3164
20825	19.3	0.72727	0.	16.595
20826	19.208	0.63636	0.	16.046
20827	19.208	0.72727	5.e-002	4.298
20828	19.484	0.72727	0.	18.196
20829	19.392	0.63636	0.	17.501
20830	19.392	0.72727	5.e-002	4.2802
20831	19.669	0.72727	0.	19.805
20832	19.576	0.63636	0.	18.958
20833	19.576	0.72727	5.e-002	4.2629
20834	19.853	0.72727	0.	21.428
20835	19.761	0.63636	0.	20.424
20836	19.761	0.72727	5.e-002	4.2464
20837	20.037	0.72727	0.	23.071
20838	19.945	0.63636	0.	21.901
20839	19.945	0.72727	5.e-002	4.2305
20840	20.222	0.72727	0.	24.74
20841	20.129	0.63636	0.	23.396
20842	20.129	0.72727	5.e-002	4.2154
20843	20.406	0.72727	0.	26.443
20844	20.314	0.63636	0.	24.914
20845	20.314	0.72727	5.e-002	4.201
20846	20.59	0.72727	0.	28.187
20847	20.498	0.63636	0.	26.462
20848	20.498	0.72727	5.e-002	4.1875
20849	20.775	0.72727	0.	29.981
20850	20.682	0.63636	0.	28.045
20851	20.682	0.72727	5.e-002	4.1749
20852	20.959	0.72727	0.	31.834
20853	20.867	0.63636	0.	29.67
20854	20.867	0.72727	5.e-002	4.1633
20855	21.143	0.72727	0.	33.755
20856	21.051	0.63636	0.	31.345
20857	21.051	0.72727	5.e-002	4.1526
20858	21.327	0.72727	0.	35.758
20859	21.235	0.63636	0.	33.079
20860	21.235	0.72727	5.e-002	4.143
20861	21.512	0.72727	0.	37.856
20862	21.42	0.63636	0.	34.881
20863	21.42	0.72727	5.e-002	4.1345
20864	21.696	0.72727	0.	40.066
20865	21.604	0.63636	0.	36.765
20866	21.604	0.72727	5.e-002	4.1272
20867	21.88	0.72727	0.	42.409
20868	21.788	0.63636	0.	38.744
20869	21.788	0.72727	5.e-002	4.1213
20870	22.065	0.72727	0.	44.911
20871	21.973	0.63636	0.	40.837
20872	21.973	0.72727	5.e-002	4.117
20873	22.249	0.72727	0.	47.609
20874	22.157	0.63636	0.	43.07
20875	22.157	0.72727	5.e-002	4.1144
20876	22.433	0.72727	0.	50.548
20877	22.341	0.63636	0.	45.475
20878	22.341	0.72727	5.e-002	4.114
20879	22.618	0.72727	0.	53.794
20880	22.525	0.63636	0.	48.098
20881	22.525	0.72727	5.e-002	4.1164
20882	22.802	0.72727	0.	57.435
20883	22.71	0.63636	0.	51.004
20884	22.71	0.72727	5.e-002	4.1226
20885	22.986	0.72727	0.	61.598
20886	22.894	0.63636	0.	54.289
20887	22.894	0.72727	5.e-002	4.1341
20888	23.171	0.72727	0.	66.457
20889	23.078	0.63636	0.	58.091
20890	23.078	0.72727	5.e-002	4.1537
20891	23.355	0.72727	0.	72.243
20892	23.263	0.63636	0.	62.623
20893	23.263	0.72727	5.e-002	4.1862
20894	23.539	0.72727	0.	79.265
20895	23.447	0.63636	0.	68.179
20896	23.447	0.72727	5.e-002	4.2395
20897	23.724	0.72727	0.	87.802
20898	23.631	0.63636	0.	75.228
20899	23.631	0.72727	5.e-002	4.3318
20900	23.816	0.63636	0.	84.151
20901	23.816	0.72727	5.e-002	4.5745
20902	23.908	0.72727	0.	96.453
20903	11.743	0.54545	0.	220.94
20904	11.651	0.45455	0.	232.44
20905	11.651	0.54545	5.e-002	40.722
20906	11.559	0.54545	0.	227.42
20907	11.927	0.54545	0.	137.05
20908	11.835	0.45455	0.	126.09
20909	11.835	0.54545	5.e-002	32.044
20910	12.112	0.54545	0.	108.5
20911	12.02	0.45455	0.	97.742
20912	12.02	0.54545	5.e-002	28.544
20913	12.296	0.54545	0.	95.078
20914	12.204	0.45455	0.	88.286
20915	12.204	0.54545	5.e-002	24.397
20916	12.48	0.54545	0.	85.272
20917	12.388	0.45455	0.	82.19
20918	12.388	0.54545	5.e-002	20.127
20919	12.665	0.54545	0.	75.641
20920	12.573	0.45455	0.	75.431
20921	12.573	0.54545	5.e-002	16.093
20922	12.849	0.54545	0.	65.473
20923	12.757	0.45455	0.	67.289
20924	12.757	0.54545	5.e-002	12.497
20925	13.033	0.54545	0.	55.023
20926	12.941	0.45455	0.	58.189
20927	12.941	0.54545	5.e-002	9.4103
20928	13.218	0.54545	0.	44.757
20929	13.125	0.45455	0.	48.775
20930	13.125	0.54545	5.e-002	6.8354
20931	13.402	0.54545	0.	35.093
20932	13.31	0.45455	0.	39.611
20933	13.31	0.54545	5.e-002	4.7498
20934	13.586	0.54545	0.	26.323
20935	13.494	0.45455	0.	31.096
20936	13.494	0.54545	5.e-002	3.1429
20937	13.771	0.54545	0.	18.614
20938	13.678	0.45455	0.	23.474
20939	13.678	0.54545	5.e-002	2.0744
20940	13.955	0.54545	0.	12.039
20941	13.863	0.45455	0.	16.861
20942	13.863	0.54545	5.e-002	1.7023
20943	14.139	0.54545	0.	6.6139
20944	14.047	0.45455	0.	11.286
20945	14.047	0.54545	5.e-002	1.9403
20946	14.324	0.54545	0.	2.432
20947	14.231	0.45455	0.	6.7261
20948	14.231	0.54545	5.e-002	2.3931
20949	14.508	0.54545	0.	0.45789
20950	14.416	0.45455	0.	3.1463
20951	14.416	0.54545	5.e-002	2.8427
20952	14.692	0.54545	0.	0.16072
20953	14.6	0.45455	0.	0.76343
20954	14.6	0.54545	5.e-002	3.23
20955	14.876	0.54545	0.	8.7459e-002
20956	14.784	0.45455	0.	0.17748
20957	14.784	0.54545	5.e-002	3.5466
20958	15.061	0.54545	0.	5.6993e-002
20959	14.969	0.45455	0.	8.7079e-002
20960	14.969	0.54545	5.e-002	3.7984
20961	15.245	0.54545	0.	4.0894e-002
20962	15.153	0.45455	0.	5.7017e-002
20963	15.153	0.54545	5.e-002	3.995
20964	15.429	0.54545	0.	3.1116e-002
20965	15.337	0.45455	0.	4.2634e-002
20966	15.337	0.54545	5.e-002	4.1459
20967	15.614	0.54545	0.	2.4599e-002
20968	15.522	0.45455	0.	3.4232e-002
20969	15.522	0.54545	5.e-002	4.2597
20970	15.798	0.54545	0.	1.9959e-002
20971	15.706	0.45455	0.	2.8607e-002
20972	15.706	0.54545	5.e-002	4.3436
20973	15.982	0.54545	0.	1.649e-002
20974	15.89	0.45455	0.	2.445e-002
20975	15.89	0.54545	5.e-002	4.4037
20976	16.167	0.54545	0.	1.3792e-002
20977	16.075	0.45455	0.	2.1127e-002
20978	16.075	0.54545	5.e-002	4.4449
20979	16.351	0.54545	0.	1.1673e-002
20980	16.259	0.45455	0.	1.8311e-002
20981	16.259	0.54545	5.e-002	4.4713
20982	16.535	0.54545	0.	1.006e-002
20983	16.443	0.45455	0.	1.5883e-002
20984	16.443	0.54545	5.e-002	4.486
20985	16.72	0.54545	0.	9.0803e-003
20986	16.627	0.45455	0.	1.4055e-002
20987	16.627	0.54545	5.e-002	4.4918
20988	16.904	0.54545	0.	1.0622e-002
20989	16.812	0.45455	0.	0.90193
20990	16.812	0.54545	5.e-002	4.4907
20991	17.088	0.54545	0.	0.64488
20992	16.996	0.45455	0.	2.0986
20993	16.996	0.54545	5.e-002	4.4842
20994	17.273	0.54545	0.	2.0338
20995	17.18	0.45455	0.	3.323
20996	17.18	0.54545	5.e-002	4.4737
20997	17.457	0.54545	0.	3.4343
20998	17.365	0.45455	0.	4.5628
20999	17.365	0.54545	5.e-002	4.4603
21000	17.641	0.54545	0.	4.8353
21001	17.549	0.45455	0.	5.8088
21002	17.549	0.54545	5.e-002	4.4447
21003	17.825	0.54545	0.	6.2304
21004	17.733	0.45455	0.	7.054
21005	17.733	0.54545	5.e-002	4.4276
21006	18.01	0.54545	0.	7.6155
21007	17.918	0.45455	0.	8.2936
21008	17.918	0.54545	5.e-002	4.4094
21009	18.194	0.54545	0.	8.9885
21010	18.102	0.45455	0.	9.5247
21011	18.102	0.54545	5.e-002	4.3906
21012	18.378	0.54545	0.	10.348
21013	18.286	0.45455	0.	10.745
21014	18.286	0.54545	5.e-002	4.3715
21015	18.563	0.54545	0.	11.696
21016	18.471	0.45455	0.	11.955
21017	18.471	0.54545	5.e-002	4.3522
21018	18.747	0.54545	0.	13.031
21019	18.655	0.45455	0.	13.154
21020	18.655	0.54545	5.e-002	4.3331
21021	18.931	0.54545	0.	14.357
21022	18.839	0.45455	0.	14.343
21023	18.839	0.54545	5.e-002	4.3141
21024	19.116	0.54545	0.	15.676
21025	19.024	0.45455	0.	15.524
21026	19.024	0.54545	5.e-002	4.2955
21027	19.3	0.54545	0.	16.99
21028	19.208	0.45455	0.	16.699
21029	19.208	0.54545	5.e-002	4.2774
21030	19.484	0.54545	0.	18.303
21031	19.392	0.45455	0.	17.87
21032	19.392	0.54545	5.e-002	4.2597
21033	19.669	0.54545	0.	19.618
21034	19.576	0.45455	0.	19.039
21035	19.576	0.54545	5.e-002	4.2427
21036	19.853	0.54545	0.	20.94
21037	19.761	0.45455	0.	20.21
21038	19.761	0.54545	5.e-002	4.2262
21039	20.037	0.54545	0.	22.272
21040	19.945	0.45455	0.	21.384
21041	19.945	0.54545	5.e-002	4.2104
21042	20.222	0.54545	0.	23.619
21043	20.129	0.45455	0.	22.566
21044	20.129	0.54545	5.e-002	4.1954
21045	20.406	0.54545	0.	24.984
21046	20.314	0.45455	0.	23.757
21047	20.314	0.54545	5.e-002	4.1811
21048	20.59	0.54545	0.	26.373
21049	20.498	0.45455	0.	24.962
21050	20.498	0.54545	5.e-002	4.1676
21051	20.775	0.54545	0.	27.79
21052	20.682	0.45455	0.	26.183
21053	20.682	0.54545	5.e-002	4.1549
21054	20.959	0.54545	0.	29.241
21055	20.867	0.45455	0.	27.424
21056	20.867	0.54545	5.e-002	4.1431
21057	21.143	0.54545	0.	30.732
21058	21.051	0.45455	0.	28.688
21059	21.051	0.54545	5.e-002	4.1322
21060	21.327	0.54545	0.	32.269
21061	21.235	0.45455	0.	29.979
21062	21.235	0.54545	5.e-002	4.1223
21063	21.512	0.54545	0.	33.862
21064	21.42	0.45455	0.	31.303
21065	21.42	0.54545	5.e-002	4.1134
21066	21.696	0.54545	0.	35.52
21067	21.604	0.45455	0.	32.665
21068	21.604	0.54545	5.e-002	4.1056
21069	21.88	0.54545	0.	37.255
21070	21.788	0.45455	0.	34.071
21071	21.788	0.54545	5.e-002	4.0989
21072	22.065	0.54545	0.	39.085
21073	21.973	0.45455	0.	35.532
21074	21.973	0.54545	5.e-002	4.0935
21075	22.249	0.54545	0.	41.033
21076	22.157	0.45455	0.	37.058
21077	22.157	0.54545	5.e-002	4.0896
21078	22.433	0.54545	0.	43.129
21079	22.341	0.45455	0.	38.669
21080	22.341	0.54545	5.e-002	4.0874
21081	22.618	0.54545	0.	45.421
21082	22.525	0.45455	0.	40.389
21083	22.525	0.54545	5.e-002	4.0873
21084	22.802	0.54545	0.	47.978
21085	22.71	0.45455	0.	42.258
21086	22.71	0.54545	5.e-002	4.09
21087	22.986	0.54545	0.	50.907
21088	22.894	0.45455	0.	44.338
21089	22.894	0.54545	5.e-002	4.097
21090	23.171	0.54545	0.	54.381
21091	23.078	0.45455	0.	46.731
21092	23.078	0.54545	5.e-002	4.1104
21093	23.355	0.54545	0.	58.67
21094	23.263	0.45455	0.	49.619
21095	23.263	0.54545	5.e-002	4.1356
21096	23.539	0.54545	0.	64.229
21097	23.447	0.45455	0.	53.31
21098	23.447	0.54545	5.e-002	4.183
21099	23.724	0.54545	0.	71.639
21100	23.631	0.45455	0.	58.449
21101	23.631	0.54545	5.e-002	4.279
21102	23.816	0.45455	0.	65.987
21103	23.816	0.54545	5.e-002	4.57
21104	23.908	0.54545	0.	79.538
21105	11.743	0.36364	0.	115.08
21106	11.651	0.27273	0.	121.69
21107	11.651	0.36364	5.e-002	38.016
21108	11.559	0.36364	0.	117.29
21109	11.927	0.36364	0.	77.034
21110	11.835	0.27273	0.	72.946
21111	11.835	0.36364	5.e-002	31.697
21112	12.112	0.36364	0.	72.985
21113	12.02	0.27273	0.	68.345
21114	12.02	0.36364	5.e-002	28.457
21115	12.296	0.36364	0.	72.935
21116	12.204	0.27273	0.	68.75
21117	12.204	0.36364	5.e-002	24.574
21118	12.48	0.36364	0.	70.874
21119	12.388	0.27273	0.	67.112
21120	12.388	0.36364	5.e-002	20.55
21121	12.665	0.36364	0.	66.153
21122	12.573	0.27273	0.	62.953
21123	12.573	0.36364	5.e-002	16.667
21124	12.849	0.36364	0.	59.418
21125	12.757	0.27273	0.	56.901
21126	12.757	0.36364	5.e-002	13.112
21127	13.033	0.36364	0.	51.575
21128	12.941	0.27273	0.	49.828
21129	12.941	0.36364	5.e-002	9.9784
21130	13.218	0.36364	0.	43.41
21131	13.125	0.27273	0.	42.461
21132	13.125	0.36364	5.e-002	7.2922
21133	13.402	0.36364	0.	35.493
21134	13.31	0.27273	0.	35.325
21135	13.31	0.36364	5.e-002	5.0411
21136	13.586	0.36364	0.	28.192
21137	13.494	0.27273	0.	28.749
21138	13.494	0.36364	5.e-002	3.196
21139	13.771	0.36364	0.	21.711
21140	13.678	0.27273	0.	22.914
21141	13.678	0.36364	5.e-002	1.7447
21142	13.955	0.36364	0.	16.135
21143	13.863	0.27273	0.	17.89
21144	13.863	0.36364	5.e-002	0.84876
21145	14.139	0.36364	0.	11.474
21146	14.047	0.27273	0.	13.681
21147	14.047	0.36364	5.e-002	1.0606
21148	14.324	0.36364	0.	7.6842
21149	14.231	0.27273	0.	10.247
21150	14.231	0.36364	5.e-002	1.7051
21151	14.508	0.36364	0.	4.7006
21152	14.416	0.27273	0.	7.5234
21153	14.416	0.36364	5.e-002	2.2903
21154	14.692	0.36364	0.	2.4504
21155	14.6	0.27273	0.	5.4361
21156	14.6	0.36364	5.e-002	2.7685
21157	14.876	0.36364	0.	0.90617
21158	14.784	0.27273	0.	3.9066
21159	14.784	0.36364	5.e-002	3.1484
21160	15.061	0.36364	0.	0.23622
21161	14.969	0.27273	0.	2.8576
21162	14.969	0.36364	5.e-002	3.4457
21163	15.245	0.36364	0.	0.10851
21164	15.153	0.27273	0.	2.2148
21165	15.153	0.36364	5.e-002	3.6752
21166	15.429	0.36364	0.	7.3832e-002
21167	15.337	0.27273	0.	1.9083
21168	15.337	0.36364	5.e-002	3.8502
21169	15.614	0.36364	0.	5.9739e-002
21170	15.522	0.27273	0.	1.8783
21171	15.522	0.36364	5.e-002	3.9815
21172	15.798	0.36364	0.	5.421e-002
21173	15.706	0.27273	0.	2.0772
21174	15.706	0.36364	5.e-002	4.0782
21175	15.982	0.36364	0.	5.9056e-002
21176	15.89	0.27273	0.	2.4661
21177	15.89	0.36364	5.e-002	4.1474
21178	16.167	0.36364	0.	0.19184
21179	16.075	0.27273	0.	3.0093
21180	16.075	0.36364	5.e-002	4.195
21181	16.351	0.36364	0.	0.90946
21182	16.259	0.27273	0.	3.6748
21183	16.259	0.36364	5.e-002	4.2259
21184	16.535	0.36364	0.	1.7912
21185	16.443	0.27273	0.	4.435
21186	16.443	0.36364	5.e-002	4.2436
21187	16.72	0.36364	0.	2.7506
21188	16.627	0.27273	0.	5.2667
21189	16.627	0.36364	5.e-002	4.2513
21190	16.904	0.36364	0.	3.7633
21191	16.812	0.27273	0.	6.1511
21192	16.812	0.36364	5.e-002	4.2513
21193	17.088	0.36364	0.	4.8122
21194	16.996	0.27273	0.	7.0728
21195	16.996	0.36364	5.e-002	4.2455
21196	17.273	0.36364	0.	5.8844
21197	17.18	0.27273	0.	8.0198
21198	17.18	0.36364	5.e-002	4.2354
21199	17.457	0.36364	0.	6.9697
21200	17.365	0.27273	0.	8.9824
21201	17.365	0.36364	5.e-002	4.2221
21202	17.641	0.36364	0.	8.0604
21203	17.549	0.27273	0.	9.9533
21204	17.549	0.36364	5.e-002	4.2065
21205	17.825	0.36364	0.	9.151
21206	17.733	0.27273	0.	10.927
21207	17.733	0.36364	5.e-002	4.1895
21208	18.01	0.36364	0.	10.237
21209	17.918	0.27273	0.	11.899
21210	17.918	0.36364	5.e-002	4.1715
21211	18.194	0.36364	0.	11.317
21212	18.102	0.27273	0.	12.866
21213	18.102	0.36364	5.e-002	4.153
21214	18.378	0.36364	0.	12.389
21215	18.286	0.27273	0.	13.827
21216	18.286	0.36364	5.e-002	4.1342
21217	18.563	0.36364	0.	13.452
21218	18.471	0.27273	0.	14.78
21219	18.471	0.36364	5.e-002	4.1156
21220	18.747	0.36364	0.	14.506
21221	18.655	0.27273	0.	15.726
21222	18.655	0.36364	5.e-002	4.0972
21223	18.931	0.36364	0.	15.552
21224	18.839	0.27273	0.	16.663
21225	18.839	0.36364	5.e-002	4.0793
21226	19.116	0.36364	0.	16.591
21227	19.024	0.27273	0.	17.592
21228	19.024	0.36364	5.e-002	4.0619
21229	19.3	0.36364	0.	17.624
21230	19.208	0.27273	0.	18.513
21231	19.208	0.36364	5.e-002	4.0452
21232	19.484	0.36364	0.	18.653
21233	19.392	0.27273	0.	19.428
21234	19.392	0.36364	5.e-002	4.0293
21235	19.669	0.36364	0.	19.679
21236	19.576	0.27273	0.	20.336
21237	19.576	0.36364	5.e-002	4.0142
21238	19.853	0.36364	0.	20.704
21239	19.761	0.27273	0.	21.239
21240	19.761	0.36364	5.e-002	4.
21241	20.037	0.36364	0.	21.731
21242	19.945	0.27273	0.	22.138
21243	19.945	0.36364	5.e-002	3.9867
21244	20.222	0.36364	0.	22.76
21245	20.129	0.27273	0.	23.032
21246	20.129	0.36364	5.e-002	3.9745
21247	20.406	0.36364	0.	23.794
21248	20.314	0.27273	0.	23.923
21249	20.314	0.36364	5.e-002	3.9633
21250	20.59	0.36364	0.	24.834
21251	20.498	0.27273	0.	24.811
21252	20.498	0.36364	5.e-002	3.9531
21253	20.775	0.36364	0.	25.882
21254	20.682	0.27273	0.	25.696
21255	20.682	0.36364	5.e-002	3.9441
21256	20.959	0.36364	0.	26.94
21257	20.867	0.27273	0.	26.578
21258	20.867	0.36364	5.e-002	3.9363
21259	21.143	0.36364	0.	28.01
21260	21.051	0.27273	0.	27.456
21261	21.051	0.36364	5.e-002	3.9297
21262	21.327	0.36364	0.	29.093
21263	21.235	0.27273	0.	28.331
21264	21.235	0.36364	5.e-002	3.9245
21265	21.512	0.36364	0.	30.192
21266	21.42	0.27273	0.	29.2
21267	21.42	0.36364	5.e-002	3.9205
21268	21.696	0.36364	0.	31.31
21269	21.604	0.27273	0.	30.064
21270	21.604	0.36364	5.e-002	3.918
21271	21.88	0.36364	0.	32.45
21272	21.788	0.27273	0.	30.92
21273	21.788	0.36364	5.e-002	3.9169
21274	22.065	0.36364	0.	33.617
21275	21.973	0.27273	0.	31.767
21276	21.973	0.36364	5.e-002	3.9174
21277	22.249	0.36364	0.	34.819
21278	22.157	0.27273	0.	32.604
21279	22.157	0.36364	5.e-002	3.9196
21280	22.433	0.36364	0.	36.067
21281	22.341	0.27273	0.	33.43
21282	22.341	0.36364	5.e-002	3.9237
21283	22.618	0.36364	0.	37.381
21284	22.525	0.27273	0.	34.245
21285	22.525	0.36364	5.e-002	3.9299
21286	22.802	0.36364	0.	38.792
21287	22.71	0.27273	0.	35.054
21288	22.71	0.36364	5.e-002	3.9387
21289	22.986	0.36364	0.	40.357
21290	22.894	0.27273	0.	35.865
21291	22.894	0.36364	5.e-002	3.951
21292	23.171	0.36364	0.	42.183
21293	23.078	0.27273	0.	36.705
21294	23.078	0.36364	5.e-002	3.9685
21295	23.355	0.36364	0.	44.478
21296	23.263	0.27273	0.	37.635
21297	23.263	0.36364	5.e-002	3.9947
21298	23.539	0.36364	0.	47.727
21299	23.447	0.27273	0.	38.797
21300	23.447	0.36364	5.e-002	4.04
21301	23.724	0.36364	0.	52.938
21302	23.631	0.27273	0.	40.634
21303	23.631	0.36364	5.e-002	4.1442
21304	23.816	0.27273	0.	44.535
21305	23.816	0.36364	5.e-002	4.5143
21306	23.908	0.36364	0.	59.285
21307	11.743	0.18182	0.	65.498
21308	11.651	0.18182	5.e-002	41.977
21309	11.651	9.0909e-002	0.	31.584
21310	11.559	0.18182	0.	36.656
21311	11.927	0.18182	0.	60.148
21312	11.835	0.18182	5.e-002	36.9
21313	11.835	9.0909e-002	0.	26.273
21314	12.112	0.18182	0.	62.101
21315	12.02	0.18182	5.e-002	33.831
21316	12.02	9.0909e-002	0.	30.902
21317	12.296	0.18182	0.	61.64
21318	12.204	0.18182	5.e-002	30.207
21319	12.204	9.0909e-002	0.	33.551
21320	12.48	0.18182	0.	58.293
21321	12.388	0.18182	5.e-002	26.243
21322	12.388	9.0909e-002	0.	33.377
21323	12.665	0.18182	0.	53.075
21324	12.573	0.18182	5.e-002	22.235
21325	12.573	9.0909e-002	0.	31.403
21326	12.849	0.18182	0.	46.889
21327	12.757	0.18182	5.e-002	18.418
21328	12.757	9.0909e-002	0.	28.388
21329	13.033	0.18182	0.	40.443
21330	12.941	0.18182	5.e-002	14.945
21331	12.941	9.0909e-002	0.	24.925
21332	13.218	0.18182	0.	34.216
21333	13.125	0.18182	5.e-002	11.891
21334	13.125	9.0909e-002	0.	21.408
21335	13.402	0.18182	0.	28.499
21336	13.31	0.18182	5.e-002	9.276
21337	13.31	9.0909e-002	0.	18.085
21338	13.586	0.18182	0.	23.443
21339	13.494	0.18182	5.e-002	7.0845
21340	13.494	9.0909e-002	0.	15.09
21341	13.771	0.18182	0.	19.101
21342	13.678	0.18182	5.e-002	5.2792
21343	13.678	9.0909e-002	0.	12.486
21344	13.955	0.18182	0.	15.468
21345	13.863	0.18182	5.e-002	3.8143
21346	13.863	9.0909e-002	0.	10.288
21347	14.139	0.18182	0.	12.504
21348	14.047	0.18182	5.e-002	2.6427
21349	14.047	9.0909e-002	0.	8.481
21350	14.324	0.18182	0.	10.15
21351	14.231	0.18182	5.e-002	1.7204
21352	14.231	9.0909e-002	0.	7.0369
21353	14.508	0.18182	0.	8.3378
21354	14.416	0.18182	5.e-002	1.0114
21355	14.416	9.0909e-002	0.	5.9197
21356	14.692	0.18182	0.	7.0002
21357	14.6	0.18182	5.e-002	0.50356
21358	14.6	9.0909e-002	0.	5.0911
21359	14.876	0.18182	0.	6.0713
21360	14.784	0.18182	5.e-002	0.29865
21361	14.784	9.0909e-002	0.	4.5131
21362	15.061	0.18182	0.	5.4901
21363	14.969	0.18182	5.e-002	0.44796
21364	14.969	9.0909e-002	0.	4.1496
21365	15.245	0.18182	0.	5.2011
21366	15.153	0.18182	5.e-002	0.63661
21367	15.153	9.0909e-002	0.	3.9671
21368	15.429	0.18182	0.	5.1556
21369	15.337	0.18182	5.e-002	0.78062
21370	15.337	9.0909e-002	0.	3.9356
21371	15.614	0.18182	0.	5.3114
21372	15.522	0.18182	5.e-002	0.87834
21373	15.522	9.0909e-002	0.	4.0288
21374	15.798	0.18182	0.	5.632
21375	15.706	0.18182	5.e-002	0.93751
21376	15.706	9.0909e-002	0.	4.224
21377	15.982	0.18182	0.	6.0864
21378	15.89	0.18182	5.e-002	0.96634
21379	15.89	9.0909e-002	0.	4.5021
21380	16.167	0.18182	0.	6.6479
21381	16.075	0.18182	5.e-002	0.97209
21382	16.075	9.0909e-002	0.	4.847
21383	16.351	0.18182	0.	7.294
21384	16.259	0.18182	5.e-002	0.96069
21385	16.259	9.0909e-002	0.	5.2449
21386	16.535	0.18182	0.	8.0057
21387	16.443	0.18182	5.e-002	0.93698
21388	16.443	9.0909e-002	0.	5.6845
21389	16.72	0.18182	0.	8.767
21390	16.627	0.18182	5.e-002	0.90494
21391	16.627	9.0909e-002	0.	6.1561
21392	16.904	0.18182	0.	9.5651
21393	16.812	0.18182	5.e-002	0.86769
21394	16.812	9.0909e-002	0.	6.6519
21395	17.088	0.18182	0.	10.389
21396	16.996	0.18182	5.e-002	0.8277
21397	16.996	9.0909e-002	0.	7.1653
21398	17.273	0.18182	0.	11.231
21399	17.18	0.18182	5.e-002	0.78696
21400	17.18	9.0909e-002	0.	7.6909
21401	17.457	0.18182	0.	12.083
21402	17.365	0.18182	5.e-002	0.74706
21403	17.365	9.0909e-002	0.	8.2247
21404	17.641	0.18182	0.	12.94
21405	17.549	0.18182	5.e-002	0.70925
21406	17.549	9.0909e-002	0.	8.7632
21407	17.825	0.18182	0.	13.799
21408	17.733	0.18182	5.e-002	0.6746
21409	17.733	9.0909e-002	0.	9.3039
21410	18.01	0.18182	0.	14.655
21411	17.918	0.18182	5.e-002	0.64386
21412	17.918	9.0909e-002	0.	9.8447
21413	18.194	0.18182	0.	15.508
21414	18.102	0.18182	5.e-002	0.61777
21415	18.102	9.0909e-002	0.	10.384
21416	18.378	0.18182	0.	16.354
21417	18.286	0.18182	5.e-002	0.59683
21418	18.286	9.0909e-002	0.	10.921
21419	18.563	0.18182	0.	17.194
21420	18.471	0.18182	5.e-002	0.58151
21421	18.471	9.0909e-002	0.	11.456
21422	18.747	0.18182	0.	18.026
21423	18.655	0.18182	5.e-002	0.57207
21424	18.655	9.0909e-002	0.	11.986
21425	18.931	0.18182	0.	18.851
21426	18.839	0.18182	5.e-002	0.56876
21427	18.839	9.0909e-002	0.	12.513
21428	19.116	0.18182	0.	19.666
21429	19.024	0.18182	5.e-002	0.57167
21430	19.024	9.0909e-002	0.	13.036
21431	19.3	0.18182	0.	20.474
21432	19.208	0.18182	5.e-002	0.58083
21433	19.208	9.0909e-002	0.	13.555
21434	19.484	0.18182	0.	21.273
21435	19.392	0.18182	5.e-002	0.59623
21436	19.392	9.0909e-002	0.	14.069
21437	19.669	0.18182	0.	22.063
21438	19.576	0.18182	5.e-002	0.61775
21439	19.576	9.0909e-002	0.	14.58
21440	19.853	0.18182	0.	22.845
21441	19.761	0.18182	5.e-002	0.64537
21442	19.761	9.0909e-002	0.	15.087
21443	20.037	0.18182	0.	23.617
21444	19.945	0.18182	5.e-002	0.67904
21445	19.945	9.0909e-002	0.	15.589
21446	20.222	0.18182	0.	24.379
21447	20.129	0.18182	5.e-002	0.71878
21448	20.129	9.0909e-002	0.	16.087
21449	20.406	0.18182	0.	25.13
21450	20.314	0.18182	5.e-002	0.76463
21451	20.314	9.0909e-002	0.	16.58
21452	20.59	0.18182	0.	25.87
21453	20.498	0.18182	5.e-002	0.81673
21454	20.498	9.0909e-002	0.	17.067
21455	20.775	0.18182	0.	26.596
21456	20.682	0.18182	5.e-002	0.87528
21457	20.682	9.0909e-002	0.	17.548
21458	20.959	0.18182	0.	27.306
21459	20.867	0.18182	5.e-002	0.94052
21460	20.867	9.0909e-002	0.	18.021
21461	21.143	0.18182	0.	27.998
21462	21.051	0.18182	5.e-002	1.0128
21463	21.051	9.0909e-002	0.	18.487
21464	21.327	0.18182	0.	28.668
21465	21.235	0.18182	5.e-002	1.0925
21466	21.235	9.0909e-002	0.	18.941
21467	21.512	0.18182	0.	29.313
21468	21.42	0.18182	5.e-002	1.1801
21469	21.42	9.0909e-002	0.	19.384
21470	21.696	0.18182	0.	29.928
21471	21.604	0.18182	5.e-002	1.2761
21472	21.604	9.0909e-002	0.	19.811
21473	21.88	0.18182	0.	30.506
21474	21.788	0.18182	5.e-002	1.3812
21475	21.788	9.0909e-002	0.	20.22
21476	22.065	0.18182	0.	31.04
21477	21.973	0.18182	5.e-002	1.4961
21478	21.973	9.0909e-002	0.	20.606
21479	22.249	0.18182	0.	31.522
21480	22.157	0.18182	5.e-002	1.6217
21481	22.157	9.0909e-002	0.	20.965
21482	22.433	0.18182	0.	31.94
21483	22.341	0.18182	5.e-002	1.7591
21484	22.341	9.0909e-002	0.	21.29
21485	22.618	0.18182	0.	32.282
21486	22.525	0.18182	5.e-002	1.9096
21487	22.525	9.0909e-002	0.	21.573
21488	22.802	0.18182	0.	32.531
21489	22.71	0.18182	5.e-002	2.0748
21490	22.71	9.0909e-002	0.	21.804
21491	22.986	0.18182	0.	32.669
21492	22.894	0.18182	5.e-002	2.2571
21493	22.894	9.0909e-002	0.	21.968
21494	23.171	0.18182	0.	32.68
21495	23.078	0.18182	5.e-002	2.4595
21496	23.078	9.0909e-002	0.	22.047
21497	23.355	0.18182	0.	32.56
21498	23.263	0.18182	5.e-002	2.6877
21499	23.263	9.0909e-002	0.	22.015
21500	23.539	0.18182	0.	32.388
21501	23.447	0.18182	5.e-002	2.9489
21502	23.447	9.0909e-002	0.	21.824
21503	23.724	0.18182	0.	32.864
21504	23.631	0.18182	5.e-002	3.2772
21505	23.631	9.0909e-002	0.	21.509
21506	23.816	0.18182	5.e-002	3.9764
21507	23.816	9.0909e-002	0.	20.965
21508	23.908	0.18182	0.	34.287
21509	23.724	0.18182	0.1	54.97
21510	23.816	0.27273	0.1	37.3
21511	23.908	0.18182	0.1	20.576
21512	23.816	9.0909e-002	0.1	34.616
21513	23.539	0.18182	0.1	91.824
21514	23.631	0.27273	0.1	72.588
21515	23.631	9.0909e-002	0.1	69.354
21516	23.355	0.18182	0.1	130.02
21517	23.447	0.27273	0.1	109.93
21518	23.447	9.0909e-002	0.1	106.11
21519	23.171	0.18182	0.1	168.73
21520	23.263	0.27273	0.1	148.1
21521	23.263	9.0909e-002	0.1	143.77
21522	22.986	0.18182	0.1	207.77
21523	23.078	0.27273	0.1	186.77
21524	23.078	9.0909e-002	0.1	182.03
21525	22.802	0.18182	0.1	247.04
21526	22.894	0.27273	0.1	225.77
21527	22.894	9.0909e-002	0.1	220.7
21528	22.618	0.18182	0.1	286.49
21529	22.71	0.27273	0.1	265.02
21530	22.71	9.0909e-002	0.1	259.7
21531	22.433	0.18182	0.1	326.11
21532	22.525	0.27273	0.1	304.46
21533	22.525	9.0909e-002	0.1	298.97
21534	22.249	0.18182	0.1	365.86
21535	22.341	0.27273	0.1	344.07
21536	22.341	9.0909e-002	0.1	338.47
21537	22.065	0.18182	0.1	405.75
21538	22.157	0.27273	0.1	383.83
21539	22.157	9.0909e-002	0.1	378.16
21540	21.88	0.18182	0.1	445.76
21541	21.973	0.27273	0.1	423.74
21542	21.973	9.0909e-002	0.1	418.03
21543	21.696	0.18182	0.1	485.9
21544	21.788	0.27273	0.1	463.78
21545	21.788	9.0909e-002	0.1	458.07
21546	21.512	0.18182	0.1	526.17
21547	21.604	0.27273	0.1	503.95
21548	21.604	9.0909e-002	0.1	498.27
21549	21.327	0.18182	0.1	566.56
21550	21.42	0.27273	0.1	544.25
21551	21.42	9.0909e-002	0.1	538.63
21552	21.143	0.18182	0.1	607.08
21553	21.235	0.27273	0.1	584.68
21554	21.235	9.0909e-002	0.1	579.14
21555	20.959	0.18182	0.1	647.73
21556	21.051	0.27273	0.1	625.26
21557	21.051	9.0909e-002	0.1	619.81
21558	20.775	0.18182	0.1	688.52
21559	20.867	0.27273	0.1	665.97
21560	20.867	9.0909e-002	0.1	660.63
21561	20.59	0.18182	0.1	729.46
21562	20.682	0.27273	0.1	706.83
21563	20.682	9.0909e-002	0.1	701.6
21564	20.406	0.18182	0.1	770.54
21565	20.498	0.27273	0.1	747.83
21566	20.498	9.0909e-002	0.1	742.74
21567	20.222	0.18182	0.1	811.78
21568	20.314	0.27273	0.1	788.99
21569	20.314	9.0909e-002	0.1	784.04
21570	20.037	0.18182	0.1	853.17
21571	20.129	0.27273	0.1	830.3
21572	20.129	9.0909e-002	0.1	825.5
21573	19.853	0.18182	0.1	894.72
21574	19.945	0.27273	0.1	871.78
21575	19.945	9.0909e-002	0.1	867.14
21576	19.669	0.18182	0.1	936.44
21577	19.761	0.27273	0.1	913.42
21578	19.761	9.0909e-002	0.1	908.94
21579	19.484	0.18182	0.1	978.34
21580	19.576	0.27273	0.1	955.23
21581	19.576	9.0909e-002	0.1	950.92
21582	19.3	0.18182	0.1	1020.4
21583	19.392	0.27273	0.1	997.21
21584	19.392	9.0909e-002	0.1	993.09
21585	19.116	0.18182	0.1	1062.6
21586	19.208	0.27273	0.1	1039.4
21587	19.208	9.0909e-002	0.1	1035.4
21588	18.931	0.18182	0.1	1105.1
21589	19.024	0.27273	0.1	1081.7
21590	19.024	9.0909e-002	0.1	1078.
21591	18.747	0.18182	0.1	1147.7
21592	18.839	0.27273	0.1	1124.2
21593	18.839	9.0909e-002	0.1	1120.7
21594	18.563	0.18182	0.1	1190.4
21595	18.655	0.27273	0.1	1166.9
21596	18.655	9.0909e-002	0.1	1163.6
21597	18.378	0.18182	0.1	1233.4
21598	18.471	0.27273	0.1	1209.8
21599	18.471	9.0909e-002	0.1	1206.7
21600	18.194	0.18182	0.1	1276.6
21601	18.286	0.27273	0.1	1252.9
21602	18.286	9.0909e-002	0.1	1249.9
21603	18.01	0.18182	0.1	1319.9
21604	18.102	0.27273	0.1	1296.1
21605	18.102	9.0909e-002	0.1	1293.4
21606	17.825	0.18182	0.1	1363.4
21607	17.918	0.27273	0.1	1339.5
21608	17.918	9.0909e-002	0.1	1337.
21609	17.641	0.18182	0.1	1407.
21610	17.733	0.27273	0.1	1383.1
21611	17.733	9.0909e-002	0.1	1380.8
21612	17.457	0.18182	0.1	1450.8
21613	17.549	0.27273	0.1	1426.9
21614	17.549	9.0909e-002	0.1	1424.7
21615	17.273	0.18182	0.1	1494.7
21616	17.365	0.27273	0.1	1470.7
21617	17.365	9.0909e-002	0.1	1468.8
21618	17.088	0.18182	0.1	1538.7
21619	17.18	0.27273	0.1	1514.7
21620	17.18	9.0909e-002	0.1	1513.
21621	16.904	0.18182	0.1	1582.8
21622	16.996	0.27273	0.1	1558.8
21623	16.996	9.0909e-002	0.1	1557.3
21624	16.72	0.18182	0.1	1626.9
21625	16.812	0.27273	0.1	1603.
21626	16.812	9.0909e-002	0.1	1601.6
21627	16.535	0.18182	0.1	1671.
21628	16.627	0.27273	0.1	1647.1
21629	16.627	9.0909e-002	0.1	1645.9
21630	16.351	0.18182	0.1	1714.9
21631	16.443	0.27273	0.1	1691.2
21632	16.443	9.0909e-002	0.1	1690.1
21633	16.167	0.18182	0.1	1758.7
21634	16.259	0.27273	0.1	1735.1
21635	16.259	9.0909e-002	0.1	1734.2
21636	15.982	0.18182	0.1	1802.1
21637	16.075	0.27273	0.1	1778.8
21638	16.075	9.0909e-002	0.1	1777.9
21639	15.798	0.18182	0.1	1844.9
21640	15.89	0.27273	0.1	1822.1
21641	15.89	9.0909e-002	0.1	1821.2
21642	15.614	0.18182	0.1	1887.1
21643	15.706	0.27273	0.1	1864.8
21644	15.706	9.0909e-002	0.1	1863.9
21645	15.429	0.18182	0.1	1928.2
21646	15.522	0.27273	0.1	1906.8
21647	15.522	9.0909e-002	0.1	1905.6
21648	15.245	0.18182	0.1	1968.
21649	15.337	0.27273	0.1	1947.6
21650	15.337	9.0909e-002	0.1	1946.2
21651	15.061	0.18182	0.1	2006.1
21652	15.153	0.27273	0.1	1987.
21653	15.153	9.0909e-002	0.1	1985.2
21654	14.876	0.18182	0.1	2041.8
21655	14.969	0.27273	0.1	2024.4
21656	14.969	9.0909e-002	0.1	2022.
21657	14.692	0.18182	0.1	2074.5
21658	14.784	0.27273	0.1	2059.3
21659	14.784	9.0909e-002	0.1	2056.2
21660	14.508	0.18182	0.1	2103.3
21661	14.6	0.27273	0.1	2090.9
21662	14.6	9.0909e-002	0.1	2086.8
21663	14.324	0.18182	0.1	2127.2
21664	14.416	0.27273	0.1	2118.4
21665	14.416	9.0909e-002	0.1	2113.
21666	14.139	0.18182	0.1	2144.8
21667	14.231	0.27273	0.1	2140.5
21668	14.231	9.0909e-002	0.1	2133.4
21669	13.955	0.18182	0.1	2154.6
21670	14.047	0.27273	0.1	2155.9
21671	14.047	9.0909e-002	0.1	2146.6
21672	13.771	0.18182	0.1	2154.5
21673	13.863	0.27273	0.1	2162.7
21674	13.863	9.0909e-002	0.1	2150.9
21675	13.586	0.18182	0.1	2142.1
21676	13.678	0.27273	0.1	2158.9
21677	13.678	9.0909e-002	0.1	2143.8
21678	13.402	0.18182	0.1	2114.8
21679	13.494	0.27273	0.1	2141.8
21680	13.494	9.0909e-002	0.1	2122.9
21681	13.218	0.18182	0.1	2069.1
21682	13.31	0.27273	0.1	2108.6
21683	13.31	9.0909e-002	0.1	2085.
21684	13.033	0.18182	0.1	2001.5
21685	13.125	0.27273	0.1	2055.7
21686	13.125	9.0909e-002	0.1	2026.5
21687	12.849	0.18182	0.1	1907.9
21688	12.941	0.27273	0.1	1979.2
21689	12.941	9.0909e-002	0.1	1943.5
21690	12.665	0.18182	0.1	1784.3
21691	12.757	0.27273	0.1	1874.9
21692	12.757	9.0909e-002	0.1	1831.9
21693	12.48	0.18182	0.1	1626.9
21694	12.573	0.27273	0.1	1738.9
21695	12.573	9.0909e-002	0.1	1687.6
21696	12.296	0.18182	0.1	1433.1
21697	12.388	0.27273	0.1	1567.8
21698	12.388	9.0909e-002	0.1	1507.1
21699	12.112	0.18182	0.1	1201.8
21700	12.204	0.27273	0.1	1359.8
21701	12.204	9.0909e-002	0.1	1288.3
21702	11.927	0.18182	0.1	934.65
21703	12.02	0.27273	0.1	1117.1
21704	12.02	9.0909e-002	0.1	1031.
21705	11.743	0.18182	0.1	645.96
21706	11.835	0.27273	0.1	849.56
21707	11.835	9.0909e-002	0.1	737.12
21708	11.651	0.27273	0.1	610.45
21709	11.559	0.18182	0.1	366.99
21710	11.651	9.0909e-002	0.1	419.51
21711	23.724	0.36364	0.1	55.517
21712	23.816	0.45455	0.1	38.444
21713	23.908	0.36364	0.1	21.498
21714	23.539	0.36364	0.1	91.38
21715	23.631	0.45455	0.1	73.68
21716	23.355	0.36364	0.1	128.63
21717	23.447	0.45455	0.1	110.35
21718	23.171	0.36364	0.1	166.68
21719	23.263	0.45455	0.1	147.91
21720	22.986	0.36364	0.1	205.25
21721	23.078	0.45455	0.1	186.09
21722	22.802	0.36364	0.1	244.17
21723	22.894	0.45455	0.1	224.71
21724	22.618	0.36364	0.1	283.36
21725	22.71	0.45455	0.1	263.66
21726	22.433	0.36364	0.1	322.77
21727	22.525	0.45455	0.1	302.87
21728	22.249	0.36364	0.1	362.36
21729	22.341	0.45455	0.1	342.29
21730	22.065	0.36364	0.1	402.12
21731	22.157	0.45455	0.1	381.89
21732	21.88	0.36364	0.1	442.03
21733	21.973	0.45455	0.1	421.66
21734	21.696	0.36364	0.1	482.08
21735	21.788	0.45455	0.1	461.58
21736	21.512	0.36364	0.1	522.28
21737	21.604	0.45455	0.1	501.65
21738	21.327	0.36364	0.1	562.61
21739	21.42	0.45455	0.1	541.87
21740	21.143	0.36364	0.1	603.09
21741	21.235	0.45455	0.1	582.24
21742	20.959	0.36364	0.1	643.72
21743	21.051	0.45455	0.1	622.75
21744	20.775	0.36364	0.1	684.48
21745	20.867	0.45455	0.1	663.41
21746	20.59	0.36364	0.1	725.4
21747	20.682	0.45455	0.1	704.21
21748	20.406	0.36364	0.1	766.47
21749	20.498	0.45455	0.1	745.18
21750	20.222	0.36364	0.1	807.7
21751	20.314	0.45455	0.1	786.3
21752	20.037	0.36364	0.1	849.1
21753	20.129	0.45455	0.1	827.58
21754	19.853	0.36364	0.1	890.65
21755	19.945	0.45455	0.1	869.02
21756	19.669	0.36364	0.1	932.38
21757	19.761	0.45455	0.1	910.64
21758	19.484	0.36364	0.1	974.27
21759	19.576	0.45455	0.1	952.42
21760	19.3	0.36364	0.1	1016.3
21761	19.392	0.45455	0.1	994.38
21762	19.116	0.36364	0.1	1058.6
21763	19.208	0.45455	0.1	1036.5
21764	18.931	0.36364	0.1	1101.
21765	19.024	0.45455	0.1	1078.8
21766	18.747	0.36364	0.1	1143.6
21767	18.839	0.45455	0.1	1121.3
21768	18.563	0.36364	0.1	1186.4
21769	18.655	0.45455	0.1	1164.
21770	18.378	0.36364	0.1	1229.4
21771	18.471	0.45455	0.1	1206.9
21772	18.194	0.36364	0.1	1272.6
21773	18.286	0.45455	0.1	1249.9
21774	18.01	0.36364	0.1	1315.9
21775	18.102	0.45455	0.1	1293.2
21776	17.825	0.36364	0.1	1359.4
21777	17.918	0.45455	0.1	1336.6
21778	17.641	0.36364	0.1	1403.1
21779	17.733	0.45455	0.1	1380.1
21780	17.457	0.36364	0.1	1446.9
21781	17.549	0.45455	0.1	1423.9
21782	17.273	0.36364	0.1	1490.9
21783	17.365	0.45455	0.1	1467.7
21784	17.088	0.36364	0.1	1534.9
21785	17.18	0.45455	0.1	1511.7
21786	16.904	0.36364	0.1	1579.1
21787	16.996	0.45455	0.1	1555.8
21788	16.72	0.36364	0.1	1623.2
21789	16.812	0.45455	0.1	1600.
21790	16.535	0.36364	0.1	1667.4
21791	16.627	0.45455	0.1	1644.2
21792	16.351	0.36364	0.1	1711.5
21793	16.443	0.45455	0.1	1688.4
21794	16.167	0.36364	0.1	1755.4
21795	16.259	0.45455	0.1	1732.5
21796	15.982	0.36364	0.1	1799.
21797	16.075	0.45455	0.1	1776.3
21798	15.798	0.36364	0.1	1842.1
21799	15.89	0.45455	0.1	1819.9
21800	15.614	0.36364	0.1	1884.6
21801	15.706	0.45455	0.1	1862.9
21802	15.429	0.36364	0.1	1926.2
21803	15.522	0.45455	0.1	1905.3
21804	15.245	0.36364	0.1	1966.6
21805	15.337	0.45455	0.1	1946.6
21806	15.061	0.36364	0.1	2005.3
21807	15.153	0.45455	0.1	1986.7
21808	14.876	0.36364	0.1	2042.
21809	14.969	0.45455	0.1	2025.1
21810	14.692	0.36364	0.1	2075.8
21811	14.784	0.45455	0.1	2061.2
21812	14.508	0.36364	0.1	2106.1
21813	14.6	0.45455	0.1	2094.3
21814	14.324	0.36364	0.1	2131.8
21815	14.416	0.45455	0.1	2123.6
21816	14.139	0.36364	0.1	2151.6
21817	14.231	0.45455	0.1	2148.
21818	13.955	0.36364	0.1	2164.
21819	14.047	0.45455	0.1	2166.2
21820	13.771	0.36364	0.1	2167.1
21821	13.863	0.45455	0.1	2176.4
21822	13.586	0.36364	0.1	2158.5
21823	13.678	0.45455	0.1	2176.8
21824	13.402	0.36364	0.1	2135.6
21825	13.494	0.45455	0.1	2164.9
21826	13.218	0.36364	0.1	2095.
21827	13.31	0.45455	0.1	2137.7
21828	13.033	0.36364	0.1	2033.1
21829	13.125	0.45455	0.1	2091.8
21830	12.849	0.36364	0.1	1945.8
21831	12.941	0.45455	0.1	2023.3
21832	12.665	0.36364	0.1	1829.
21833	12.757	0.45455	0.1	1928.2
21834	12.48	0.36364	0.1	1678.9
21835	12.573	0.45455	0.1	1802.4
21836	12.296	0.36364	0.1	1493.3
21837	12.388	0.45455	0.1	1642.8
21838	12.112	0.36364	0.1	1273.4
21839	12.204	0.45455	0.1	1449.
21840	11.927	0.36364	0.1	1028.3
21841	12.02	0.45455	0.1	1226.9
21842	11.743	0.36364	0.1	797.74
21843	11.835	0.45455	0.1	996.42
21844	11.651	0.45455	0.1	830.32
21845	11.559	0.36364	0.1	568.11
21846	23.724	0.54545	0.1	56.686
21847	23.816	0.63636	0.1	39.131
21848	23.908	0.54545	0.1	22.006
21849	23.539	0.54545	0.1	92.826
21850	23.631	0.63636	0.1	75.088
21851	23.355	0.54545	0.1	129.83
21852	23.447	0.63636	0.1	111.82
21853	23.171	0.54545	0.1	167.52
21854	23.263	0.63636	0.1	149.16
21855	22.986	0.54545	0.1	205.75
21856	23.078	0.63636	0.1	187.06
21857	22.802	0.54545	0.1	244.38
21858	22.894	0.63636	0.1	225.39
21859	22.618	0.54545	0.1	283.32
21860	22.71	0.63636	0.1	264.08
21861	22.433	0.54545	0.1	322.52
21862	22.525	0.63636	0.1	303.06
21863	22.249	0.54545	0.1	361.94
21864	22.341	0.63636	0.1	342.27
21865	22.065	0.54545	0.1	401.54
21866	22.157	0.63636	0.1	381.7
21867	21.88	0.54545	0.1	441.31
21868	21.973	0.63636	0.1	421.31
21869	21.696	0.54545	0.1	481.25
21870	21.788	0.63636	0.1	461.09
21871	21.512	0.54545	0.1	521.34
21872	21.604	0.63636	0.1	501.04
21873	21.327	0.54545	0.1	561.58
21874	21.42	0.63636	0.1	541.14
21875	21.143	0.54545	0.1	601.97
21876	21.235	0.63636	0.1	581.4
21877	20.959	0.54545	0.1	642.51
21878	21.051	0.63636	0.1	621.82
21879	20.775	0.54545	0.1	683.2
21880	20.867	0.63636	0.1	662.39
21881	20.59	0.54545	0.1	724.05
21882	20.682	0.63636	0.1	703.12
21883	20.406	0.54545	0.1	765.06
21884	20.498	0.63636	0.1	744.
21885	20.222	0.54545	0.1	806.23
21886	20.314	0.63636	0.1	785.05
21887	20.037	0.54545	0.1	847.56
21888	20.129	0.63636	0.1	826.27
21889	19.853	0.54545	0.1	889.06
21890	19.945	0.63636	0.1	867.65
21891	19.669	0.54545	0.1	930.73
21892	19.761	0.63636	0.1	909.2
21893	19.484	0.54545	0.1	972.58
21894	19.576	0.63636	0.1	950.93
21895	19.3	0.54545	0.1	1014.6
21896	19.392	0.63636	0.1	992.83
21897	19.116	0.54545	0.1	1056.8
21898	19.208	0.63636	0.1	1034.9
21899	18.931	0.54545	0.1	1099.2
21900	19.024	0.63636	0.1	1077.2
21901	18.747	0.54545	0.1	1141.7
21902	18.839	0.63636	0.1	1119.6
21903	18.563	0.54545	0.1	1184.5
21904	18.655	0.63636	0.1	1162.2
21905	18.378	0.54545	0.1	1227.4
21906	18.471	0.63636	0.1	1205.1
21907	18.194	0.54545	0.1	1270.5
21908	18.286	0.63636	0.1	1248.1
21909	18.01	0.54545	0.1	1313.8
21910	18.102	0.63636	0.1	1291.2
21911	17.825	0.54545	0.1	1357.3
21912	17.918	0.63636	0.1	1334.6
21913	17.641	0.54545	0.1	1400.9
21914	17.733	0.63636	0.1	1378.1
21915	17.457	0.54545	0.1	1444.7
21916	17.549	0.63636	0.1	1421.8
21917	17.273	0.54545	0.1	1488.6
21918	17.365	0.63636	0.1	1465.7
21919	17.088	0.54545	0.1	1532.7
21920	17.18	0.63636	0.1	1509.6
21921	16.904	0.54545	0.1	1576.8
21922	16.996	0.63636	0.1	1553.7
21923	16.72	0.54545	0.1	1621.
21924	16.812	0.63636	0.1	1597.9
21925	16.535	0.54545	0.1	1665.3
21926	16.627	0.63636	0.1	1642.2
21927	16.351	0.54545	0.1	1709.4
21928	16.443	0.63636	0.1	1686.4
21929	16.167	0.54545	0.1	1753.5
21930	16.259	0.63636	0.1	1730.6
21931	15.982	0.54545	0.1	1797.3
21932	16.075	0.63636	0.1	1774.7
21933	15.798	0.54545	0.1	1840.7
21934	15.89	0.63636	0.1	1818.5
21935	15.614	0.54545	0.1	1883.6
21936	15.706	0.63636	0.1	1861.9
21937	15.429	0.54545	0.1	1925.7
21938	15.522	0.63636	0.1	1904.7
21939	15.245	0.54545	0.1	1966.8
21940	15.337	0.63636	0.1	1946.8
21941	15.061	0.54545	0.1	2006.5
21942	15.153	0.63636	0.1	1987.7
21943	14.876	0.54545	0.1	2044.3
21944	14.969	0.63636	0.1	2027.2
21945	14.692	0.54545	0.1	2079.6
21946	14.784	0.63636	0.1	2064.7
21947	14.508	0.54545	0.1	2111.8
21948	14.6	0.63636	0.1	2099.7
21949	14.324	0.54545	0.1	2139.8
21950	14.416	0.63636	0.1	2131.3
21951	14.139	0.54545	0.1	2162.5
21952	14.231	0.63636	0.1	2158.7
21953	13.955	0.54545	0.1	2178.6
21954	14.047	0.63636	0.1	2180.5
21955	13.771	0.54545	0.1	2186.2
21956	13.863	0.63636	0.1	2195.4
21957	13.586	0.54545	0.1	2183.1
21958	13.678	0.63636	0.1	2201.4
21959	13.402	0.54545	0.1	2166.8
21960	13.494	0.63636	0.1	2196.4
21961	13.218	0.54545	0.1	2134.1
21962	13.31	0.63636	0.1	2177.6
21963	13.033	0.54545	0.1	2081.6
21964	13.125	0.63636	0.1	2141.8
21965	12.849	0.54545	0.1	2005.1
21966	12.941	0.63636	0.1	2085.5
21967	12.665	0.54545	0.1	1900.7
21968	12.757	0.63636	0.1	2004.6
21969	12.48	0.54545	0.1	1764.9
21970	12.573	0.63636	0.1	1895.3
21971	12.296	0.54545	0.1	1596.2
21972	12.388	0.63636	0.1	1755.
21973	12.112	0.54545	0.1	1398.
21974	12.204	0.63636	0.1	1584.1
21975	11.927	0.54545	0.1	1184.8
21976	12.02	0.63636	0.1	1390.8
21977	11.743	0.54545	0.1	1004.6
21978	11.835	0.63636	0.1	1197.2
21979	11.651	0.63636	0.1	1077.1
21980	11.559	0.54545	0.1	773.15
21981	23.724	0.72727	0.1	57.533
21982	23.816	0.81818	0.1	39.514
21983	23.908	0.72727	0.1	22.289
21984	23.539	0.72727	0.1	94.155
21985	23.631	0.81818	0.1	76.127
21986	23.355	0.72727	0.1	131.26
21987	23.447	0.81818	0.1	113.17
21988	23.171	0.72727	0.1	168.82
21989	23.263	0.81818	0.1	150.54
21990	22.986	0.72727	0.1	206.82
21991	23.078	0.81818	0.1	188.31
21992	22.802	0.72727	0.1	245.21
21993	22.894	0.81818	0.1	226.45
21994	22.618	0.72727	0.1	283.92
21995	22.71	0.81818	0.1	264.93
21996	22.433	0.72727	0.1	322.91
21997	22.525	0.81818	0.1	303.7
21998	22.249	0.72727	0.1	362.13
21999	22.341	0.81818	0.1	342.72
22000	22.065	0.72727	0.1	401.56
22001	22.157	0.81818	0.1	381.96
22002	21.88	0.72727	0.1	441.17
22003	21.973	0.81818	0.1	421.4
22004	21.696	0.72727	0.1	480.96
22005	21.788	0.81818	0.1	461.03
22006	21.512	0.72727	0.1	520.92
22007	21.604	0.81818	0.1	500.84
22008	21.327	0.72727	0.1	561.04
22009	21.42	0.81818	0.1	540.81
22010	21.143	0.72727	0.1	601.32
22011	21.235	0.81818	0.1	580.95
22012	20.959	0.72727	0.1	641.76
22013	21.051	0.81818	0.1	621.26
22014	20.775	0.72727	0.1	682.36
22015	20.867	0.81818	0.1	661.73
22016	20.59	0.72727	0.1	723.12
22017	20.682	0.81818	0.1	702.36
22018	20.406	0.72727	0.1	764.05
22019	20.498	0.81818	0.1	743.16
22020	20.222	0.72727	0.1	805.14
22021	20.314	0.81818	0.1	784.12
22022	20.037	0.72727	0.1	846.4
22023	20.129	0.81818	0.1	825.26
22024	19.853	0.72727	0.1	887.83
22025	19.945	0.81818	0.1	866.56
22026	19.669	0.72727	0.1	929.44
22027	19.761	0.81818	0.1	908.04
22028	19.484	0.72727	0.1	971.22
22029	19.576	0.81818	0.1	949.7
22030	19.3	0.72727	0.1	1013.2
22031	19.392	0.81818	0.1	991.54
22032	19.116	0.72727	0.1	1055.3
22033	19.208	0.81818	0.1	1033.6
22034	18.931	0.72727	0.1	1097.6
22035	19.024	0.81818	0.1	1075.8
22036	18.747	0.72727	0.1	1140.1
22037	18.839	0.81818	0.1	1118.1
22038	18.563	0.72727	0.1	1182.8
22039	18.655	0.81818	0.1	1160.7
22040	18.378	0.72727	0.1	1225.7
22041	18.471	0.81818	0.1	1203.5
22042	18.194	0.72727	0.1	1268.8
22043	18.286	0.81818	0.1	1246.4
22044	18.01	0.72727	0.1	1312.
22045	18.102	0.81818	0.1	1289.5
22046	17.825	0.72727	0.1	1355.4
22047	17.918	0.81818	0.1	1332.8
22048	17.641	0.72727	0.1	1399.
22049	17.733	0.81818	0.1	1376.3
22050	17.457	0.72727	0.1	1442.8
22051	17.549	0.81818	0.1	1420.
22052	17.273	0.72727	0.1	1486.7
22053	17.365	0.81818	0.1	1463.8
22054	17.088	0.72727	0.1	1530.7
22055	17.18	0.81818	0.1	1507.8
22056	16.904	0.72727	0.1	1574.9
22057	16.996	0.81818	0.1	1551.9
22058	16.72	0.72727	0.1	1619.1
22059	16.812	0.81818	0.1	1596.1
22060	16.535	0.72727	0.1	1663.4
22061	16.627	0.81818	0.1	1640.4
22062	16.351	0.72727	0.1	1707.7
22063	16.443	0.81818	0.1	1684.7
22064	16.167	0.72727	0.1	1751.9
22065	16.259	0.81818	0.1	1729.1
22066	15.982	0.72727	0.1	1795.9
22067	16.075	0.81818	0.1	1773.3
22068	15.798	0.72727	0.1	1839.7
22069	15.89	0.81818	0.1	1817.5
22070	15.614	0.72727	0.1	1883.1
22071	15.706	0.81818	0.1	1861.3
22072	15.429	0.72727	0.1	1925.8
22073	15.522	0.81818	0.1	1904.7
22074	15.245	0.72727	0.1	1967.8
22075	15.337	0.81818	0.1	1947.5
22076	15.061	0.72727	0.1	2008.5
22077	15.153	0.81818	0.1	1989.5
22078	14.876	0.72727	0.1	2047.7
22079	14.969	0.81818	0.1	2030.3
22080	14.692	0.72727	0.1	2084.8
22081	14.784	0.81818	0.1	2069.5
22082	14.508	0.72727	0.1	2119.3
22083	14.6	0.81818	0.1	2106.6
22084	14.324	0.72727	0.1	2150.2
22085	14.416	0.81818	0.1	2141.
22086	14.139	0.72727	0.1	2176.6
22087	14.231	0.81818	0.1	2171.9
22088	13.955	0.72727	0.1	2197.3
22089	14.047	0.81818	0.1	2198.2
22090	13.771	0.72727	0.1	2210.6
22091	13.863	0.81818	0.1	2218.6
22092	13.586	0.72727	0.1	2214.6
22093	13.678	0.81818	0.1	2231.6
22094	13.402	0.72727	0.1	2206.9
22095	13.494	0.81818	0.1	2235.2
22096	13.218	0.72727	0.1	2184.9
22097	13.31	0.81818	0.1	2227.1
22098	13.033	0.72727	0.1	2145.1
22099	13.125	0.81818	0.1	2204.5
22100	12.849	0.72727	0.1	2084.
22101	12.941	0.81818	0.1	2164.2
22102	12.665	0.72727	0.1	1997.6
22103	12.757	0.81818	0.1	2102.6
22104	12.48	0.72727	0.1	1882.8
22105	12.573	0.81818	0.1	2016.2
22106	12.296	0.72727	0.1	1738.4
22107	12.388	0.81818	0.1	1902.6
22108	12.112	0.72727	0.1	1568.6
22109	12.204	0.81818	0.1	1762.2
22110	11.927	0.72727	0.1	1388.
22111	12.02	0.81818	0.1	1602.1
22112	11.743	0.72727	0.1	1244.5
22113	11.835	0.81818	0.1	1440.8
22114	11.651	0.81818	0.1	1352.1
22115	11.559	0.72727	0.1	988.4
22116	23.724	0.90909	0.1	58.078
22117	23.816	1.	0.1	39.706
22118	23.908	0.90909	0.1	22.42
22119	23.539	0.90909	0.1	95.171
22120	23.631	1.	0.1	76.851
22121	23.355	0.90909	0.1	132.5
22122	23.447	1.	0.1	114.24
22123	23.171	0.90909	0.1	170.1
22124	23.263	1.	0.1	151.76
22125	22.986	0.90909	0.1	208.02
22126	23.078	1.	0.1	189.54
22127	22.802	0.90909	0.1	246.26
22128	22.894	1.	0.1	227.6
22129	22.618	0.90909	0.1	284.79
22130	22.71	1.	0.1	265.94
22131	22.433	0.90909	0.1	323.59
22132	22.525	1.	0.1	304.55
22133	22.249	0.90909	0.1	362.63
22134	22.341	1.	0.1	343.4
22135	22.065	0.90909	0.1	401.89
22136	22.157	1.	0.1	382.48
22137	21.88	0.90909	0.1	441.34
22138	21.973	1.	0.1	421.76
22139	21.696	0.90909	0.1	480.98
22140	21.788	1.	0.1	461.23
22141	21.512	0.90909	0.1	520.8
22142	21.604	1.	0.1	500.89
22143	21.327	0.90909	0.1	560.79
22144	21.42	1.	0.1	540.73
22145	21.143	0.90909	0.1	600.95
22146	21.235	1.	0.1	580.75
22147	20.959	0.90909	0.1	641.28
22148	21.051	1.	0.1	620.94
22149	20.775	0.90909	0.1	681.78
22150	20.867	1.	0.1	661.29
22151	20.59	0.90909	0.1	722.44
22152	20.682	1.	0.1	701.82
22153	20.406	0.90909	0.1	763.28
22154	20.498	1.	0.1	742.53
22155	20.222	0.90909	0.1	804.28
22156	20.314	1.	0.1	783.4
22157	20.037	0.90909	0.1	845.46
22158	20.129	1.	0.1	824.45
22159	19.853	0.90909	0.1	886.82
22160	19.945	1.	0.1	865.68
22161	19.669	0.90909	0.1	928.35
22162	19.761	1.	0.1	907.08
22163	19.484	0.90909	0.1	970.06
22164	19.576	1.	0.1	948.66
22165	19.3	0.90909	0.1	1012.
22166	19.392	1.	0.1	990.43
22167	19.116	0.90909	0.1	1054.
22168	19.208	1.	0.1	1032.4
22169	18.931	0.90909	0.1	1096.3
22170	19.024	1.	0.1	1074.5
22171	18.747	0.90909	0.1	1138.7
22172	18.839	1.	0.1	1116.8
22173	18.563	0.90909	0.1	1181.4
22174	18.655	1.	0.1	1159.3
22175	18.378	0.90909	0.1	1224.2
22176	18.471	1.	0.1	1202.
22177	18.194	0.90909	0.1	1267.2
22178	18.286	1.	0.1	1244.9
22179	18.01	0.90909	0.1	1310.4
22180	18.102	1.	0.1	1288.
22181	17.825	0.90909	0.1	1353.7
22182	17.918	1.	0.1	1331.2
22183	17.641	0.90909	0.1	1397.3
22184	17.733	1.	0.1	1374.7
22185	17.457	0.90909	0.1	1441.
22186	17.549	1.	0.1	1418.3
22187	17.273	0.90909	0.1	1484.9
22188	17.365	1.	0.1	1462.1
22189	17.088	0.90909	0.1	1528.9
22190	17.18	1.	0.1	1506.
22191	16.904	0.90909	0.1	1573.1
22192	16.996	1.	0.1	1550.1
22193	16.72	0.90909	0.1	1617.4
22194	16.812	1.	0.1	1594.4
22195	16.535	0.90909	0.1	1661.7
22196	16.627	1.	0.1	1638.8
22197	16.351	0.90909	0.1	1706.1
22198	16.443	1.	0.1	1683.2
22199	16.167	0.90909	0.1	1750.6
22200	16.259	1.	0.1	1727.7
22201	15.982	0.90909	0.1	1794.9
22202	16.075	1.	0.1	1772.2
22203	15.798	0.90909	0.1	1839.1
22204	15.89	1.	0.1	1816.7
22205	15.614	0.90909	0.1	1883.
22206	15.706	1.	0.1	1861.
22207	15.429	0.90909	0.1	1926.4
22208	15.522	1.	0.1	1905.
22209	15.245	0.90909	0.1	1969.3
22210	15.337	1.	0.1	1948.7
22211	15.061	0.90909	0.1	2011.3
22212	15.153	1.	0.1	1991.8
22213	14.876	0.90909	0.1	2052.1
22214	14.969	1.	0.1	2034.
22215	14.692	0.90909	0.1	2091.3
22216	14.784	1.	0.1	2075.1
22217	14.508	0.90909	0.1	2128.4
22218	14.6	1.	0.1	2114.7
22219	14.324	0.90909	0.1	2162.7
22220	14.416	1.	0.1	2152.3
22221	14.139	0.90909	0.1	2193.4
22222	14.231	1.	0.1	2187.1
22223	13.955	0.90909	0.1	2219.5
22224	14.047	1.	0.1	2218.5
22225	13.771	0.90909	0.1	2239.6
22226	13.863	1.	0.1	2245.4
22227	13.586	0.90909	0.1	2252.1
22228	13.678	1.	0.1	2266.6
22229	13.402	0.90909	0.1	2255.1
22230	13.494	1.	0.1	2280.5
22231	13.218	0.90909	0.1	2246.3
22232	13.31	1.	0.1	2285.2
22233	13.033	0.90909	0.1	2222.8
22234	13.125	1.	0.1	2278.6
22235	12.849	0.90909	0.1	2181.5
22236	12.941	1.	0.1	2258.1
22237	12.665	0.90909	0.1	2118.9
22238	12.757	1.	0.1	2220.8
22239	12.48	0.90909	0.1	2032.2
22240	12.573	1.	0.1	2163.9
22241	12.296	0.90909	0.1	1919.8
22242	12.388	1.	0.1	2085.
22243	12.112	0.90909	0.1	1784.4
22244	12.204	1.	0.1	1983.5
22245	11.927	0.90909	0.1	1636.7
22246	12.02	1.	0.1	1862.6
22247	11.743	0.90909	0.1	1522.6
22248	11.835	1.	0.1	1733.2
22249	11.651	1.	0.1	1671.7
22250	11.559	0.90909	0.1	1227.
22251	23.724	1.0909	0.1	58.434
22252	23.816	1.1818	0.1	39.795
22253	23.908	1.0909	0.1	22.476
22254	23.539	1.0909	0.1	95.931
22255	23.631	1.1818	0.1	77.358
22256	23.355	1.0909	0.1	133.53
22257	23.447	1.1818	0.1	115.06
22258	23.171	1.0909	0.1	171.25
22259	23.263	1.1818	0.1	152.79
22260	22.986	1.0909	0.1	209.17
22261	23.078	1.1818	0.1	190.65
22262	22.802	1.0909	0.1	247.34
22263	22.894	1.1818	0.1	228.7
22264	22.618	1.0909	0.1	285.76
22265	22.71	1.1818	0.1	266.97
22266	22.433	1.0909	0.1	324.42
22267	22.525	1.1818	0.1	305.47
22268	22.249	1.0909	0.1	363.31
22269	22.341	1.1818	0.1	344.19
22270	22.065	1.0909	0.1	402.41
22271	22.157	1.1818	0.1	383.13
22272	21.88	1.0909	0.1	441.71
22273	21.973	1.1818	0.1	422.27
22274	21.696	1.0909	0.1	481.21
22275	21.788	1.1818	0.1	461.6
22276	21.512	1.0909	0.1	520.89
22277	21.604	1.1818	0.1	501.13
22278	21.327	1.0909	0.1	560.75
22279	21.42	1.1818	0.1	540.83
22280	21.143	1.0909	0.1	600.79
22281	21.235	1.1818	0.1	580.72
22282	20.959	1.0909	0.1	641.
22283	21.051	1.1818	0.1	620.79
22284	20.775	1.0909	0.1	681.39
22285	20.867	1.1818	0.1	661.04
22286	20.59	1.0909	0.1	721.95
22287	20.682	1.1818	0.1	701.47
22288	20.406	1.0909	0.1	762.69
22289	20.498	1.1818	0.1	742.07
22290	20.222	1.0909	0.1	803.61
22291	20.314	1.1818	0.1	782.85
22292	20.037	1.0909	0.1	844.71
22293	20.129	1.1818	0.1	823.81
22294	19.853	1.0909	0.1	885.98
22295	19.945	1.1818	0.1	864.96
22296	19.669	1.0909	0.1	927.43
22297	19.761	1.1818	0.1	906.28
22298	19.484	1.0909	0.1	969.07
22299	19.576	1.1818	0.1	947.79
22300	19.3	1.0909	0.1	1010.9
22301	19.392	1.1818	0.1	989.48
22302	19.116	1.0909	0.1	1052.9
22303	19.208	1.1818	0.1	1031.4
22304	18.931	1.0909	0.1	1095.1
22305	19.024	1.1818	0.1	1073.4
22306	18.747	1.0909	0.1	1137.5
22307	18.839	1.1818	0.1	1115.7
22308	18.563	1.0909	0.1	1180.
22309	18.655	1.1818	0.1	1158.1
22310	18.378	1.0909	0.1	1222.8
22311	18.471	1.1818	0.1	1200.8
22312	18.194	1.0909	0.1	1265.7
22313	18.286	1.1818	0.1	1243.6
22314	18.01	1.0909	0.1	1308.9
22315	18.102	1.1818	0.1	1286.6
22316	17.825	1.0909	0.1	1352.2
22317	17.918	1.1818	0.1	1329.8
22318	17.641	1.0909	0.1	1395.7
22319	17.733	1.1818	0.1	1373.2
22320	17.457	1.0909	0.1	1439.4
22321	17.549	1.1818	0.1	1416.8
22322	17.273	1.0909	0.1	1483.3
22323	17.365	1.1818	0.1	1460.5
22324	17.088	1.0909	0.1	1527.3
22325	17.18	1.1818	0.1	1504.5
22326	16.904	1.0909	0.1	1571.5
22327	16.996	1.1818	0.1	1548.6
22328	16.72	1.0909	0.1	1615.8
22329	16.812	1.1818	0.1	1592.9
22330	16.535	1.0909	0.1	1660.2
22331	16.627	1.1818	0.1	1637.3
22332	16.351	1.0909	0.1	1704.8
22333	16.443	1.1818	0.1	1681.9
22334	16.167	1.0909	0.1	1749.4
22335	16.259	1.1818	0.1	1726.5
22336	15.982	1.0909	0.1	1794.1
22337	16.075	1.1818	0.1	1771.3
22338	15.798	1.0909	0.1	1838.6
22339	15.89	1.1818	0.1	1816.1
22340	15.614	1.0909	0.1	1883.1
22341	15.706	1.1818	0.1	1860.9
22342	15.429	1.0909	0.1	1927.4
22343	15.522	1.1818	0.1	1905.7
22344	15.245	1.0909	0.1	1971.2
22345	15.337	1.1818	0.1	1950.2
22346	15.061	1.0909	0.1	2014.6
22347	15.153	1.1818	0.1	1994.5
22348	14.876	1.0909	0.1	2057.1
22349	14.969	1.1818	0.1	2038.3
22350	14.692	1.0909	0.1	2098.6
22351	14.784	1.1818	0.1	2081.5
22352	14.508	1.0909	0.1	2138.7
22353	14.6	1.1818	0.1	2123.7
22354	14.324	1.0909	0.1	2176.7
22355	14.416	1.1818	0.1	2164.7
22356	14.139	1.0909	0.1	2212.3
22357	14.231	1.1818	0.1	2204.
22358	13.955	1.0909	0.1	2244.5
22359	14.047	1.1818	0.1	2241.
22360	13.771	1.0909	0.1	2272.4
22361	13.863	1.1818	0.1	2275.1
22362	13.586	1.0909	0.1	2294.8
22363	13.678	1.1818	0.1	2305.4
22364	13.402	1.0909	0.1	2310.2
22365	13.494	1.1818	0.1	2330.9
22366	13.218	1.0909	0.1	2317.
22367	13.31	1.1818	0.1	2350.3
22368	13.033	1.0909	0.1	2313.
22369	13.125	1.1818	0.1	2362.2
22370	12.849	1.0909	0.1	2295.9
22371	12.941	1.1818	0.1	2365.
22372	12.665	1.0909	0.1	2263.
22373	12.757	1.1818	0.1	2356.9
22374	12.48	1.0909	0.1	2212.
22375	12.573	1.1818	0.1	2336.
22376	12.296	1.0909	0.1	2140.5
22377	12.388	1.1818	0.1	2300.6
22378	12.112	1.0909	0.1	2048.2
22379	12.204	1.1818	0.1	2249.
22380	11.927	1.0909	0.1	1938.6
22381	12.02	1.1818	0.1	2179.5
22382	11.743	1.0909	0.1	1854.4
22383	11.835	1.1818	0.1	2092.2
22384	11.651	1.1818	0.1	2062.5
22385	11.559	1.0909	0.1	1506.5
22386	23.724	1.2727	0.1	58.664
22387	23.816	1.3636	0.1	39.824
22388	23.908	1.2727	0.1	22.488
22389	23.539	1.2727	0.1	96.495
22390	23.631	1.3636	0.1	77.715
22391	23.355	1.2727	0.1	134.34
22392	23.447	1.3636	0.1	115.69
22393	23.171	1.2727	0.1	172.22
22394	23.263	1.3636	0.1	153.62
22395	22.986	1.2727	0.1	210.21
22396	23.078	1.3636	0.1	191.59
22397	22.802	1.2727	0.1	248.37
22398	22.894	1.3636	0.1	229.69
22399	22.618	1.2727	0.1	286.73
22400	22.71	1.3636	0.1	267.94
22401	22.433	1.2727	0.1	325.29
22402	22.525	1.3636	0.1	306.38
22403	22.249	1.2727	0.1	364.06
22404	22.341	1.3636	0.1	345.01
22405	22.065	1.2727	0.1	403.04
22406	22.157	1.3636	0.1	383.84
22407	21.88	1.2727	0.1	442.21
22408	21.973	1.3636	0.1	422.86
22409	21.696	1.2727	0.1	481.57
22410	21.788	1.3636	0.1	462.07
22411	21.512	1.2727	0.1	521.12
22412	21.604	1.3636	0.1	501.47
22413	21.327	1.2727	0.1	560.86
22414	21.42	1.3636	0.1	541.06
22415	21.143	1.2727	0.1	600.78
22416	21.235	1.3636	0.1	580.83
22417	20.959	1.2727	0.1	640.88
22418	21.051	1.3636	0.1	620.79
22419	20.775	1.2727	0.1	681.16
22420	20.867	1.3636	0.1	660.93
22421	20.59	1.2727	0.1	721.63
22422	20.682	1.3636	0.1	701.25
22423	20.406	1.2727	0.1	762.27
22424	20.498	1.3636	0.1	741.76
22425	20.222	1.2727	0.1	803.1
22426	20.314	1.3636	0.1	782.45
22427	20.037	1.2727	0.1	844.1
22428	20.129	1.3636	0.1	823.32
22429	19.853	1.2727	0.1	885.3
22430	19.945	1.3636	0.1	864.38
22431	19.669	1.2727	0.1	926.67
22432	19.761	1.3636	0.1	905.63
22433	19.484	1.2727	0.1	968.24
22434	19.576	1.3636	0.1	947.06
22435	19.3	1.2727	0.1	1010.
22436	19.392	1.3636	0.1	988.68
22437	19.116	1.2727	0.1	1051.9
22438	19.208	1.3636	0.1	1030.5
22439	18.931	1.2727	0.1	1094.1
22440	19.024	1.3636	0.1	1072.5
22441	18.747	1.2727	0.1	1136.4
22442	18.839	1.3636	0.1	1114.7
22443	18.563	1.2727	0.1	1178.9
22444	18.655	1.3636	0.1	1157.1
22445	18.378	1.2727	0.1	1221.6
22446	18.471	1.3636	0.1	1199.6
22447	18.194	1.2727	0.1	1264.5
22448	18.286	1.3636	0.1	1242.4
22449	18.01	1.2727	0.1	1307.5
22450	18.102	1.3636	0.1	1285.4
22451	17.825	1.2727	0.1	1350.8
22452	17.918	1.3636	0.1	1328.5
22453	17.641	1.2727	0.1	1394.3
22454	17.733	1.3636	0.1	1371.9
22455	17.457	1.2727	0.1	1437.9
22456	17.549	1.3636	0.1	1415.4
22457	17.273	1.2727	0.1	1481.8
22458	17.365	1.3636	0.1	1459.1
22459	17.088	1.2727	0.1	1525.8
22460	17.18	1.3636	0.1	1503.
22461	16.904	1.2727	0.1	1570.
22462	16.996	1.3636	0.1	1547.2
22463	16.72	1.2727	0.1	1614.4
22464	16.812	1.3636	0.1	1591.5
22465	16.535	1.2727	0.1	1658.9
22466	16.627	1.3636	0.1	1636.
22467	16.351	1.2727	0.1	1703.6
22468	16.443	1.3636	0.1	1680.7
22469	16.167	1.2727	0.1	1748.4
22470	16.259	1.3636	0.1	1725.5
22471	15.982	1.2727	0.1	1793.4
22472	16.075	1.3636	0.1	1770.5
22473	15.798	1.2727	0.1	1838.4
22474	15.89	1.3636	0.1	1815.7
22475	15.614	1.2727	0.1	1883.5
22476	15.706	1.3636	0.1	1861.
22477	15.429	1.2727	0.1	1928.5
22478	15.522	1.3636	0.1	1906.5
22479	15.245	1.2727	0.1	1973.5
22480	15.337	1.3636	0.1	1952.
22481	15.061	1.2727	0.1	2018.3
22482	15.153	1.3636	0.1	1997.5
22483	14.876	1.2727	0.1	2062.7
22484	14.969	1.3636	0.1	2042.9
22485	14.692	1.2727	0.1	2106.6
22486	14.784	1.3636	0.1	2088.3
22487	14.508	1.2727	0.1	2149.8
22488	14.6	1.3636	0.1	2133.3
22489	14.324	1.2727	0.1	2192.
22490	14.416	1.3636	0.1	2177.9
22491	14.139	1.2727	0.1	2232.8
22492	14.231	1.3636	0.1	2221.9
22493	13.955	1.2727	0.1	2271.7
22494	14.047	1.3636	0.1	2265.
22495	13.771	1.2727	0.1	2308.1
22496	13.863	1.3636	0.1	2306.8
22497	13.586	1.2727	0.1	2341.4
22498	13.678	1.3636	0.1	2347.
22499	13.402	1.2727	0.1	2370.7
22500	13.494	1.3636	0.1	2385.1
22501	13.218	1.2727	0.1	2395.
22502	13.31	1.3636	0.1	2420.6
22503	13.033	1.2727	0.1	2413.3
22504	13.125	1.3636	0.1	2453.
22505	12.849	1.2727	0.1	2424.3
22506	12.941	1.3636	0.1	2481.9
22507	12.665	1.2727	0.1	2426.8
22508	12.757	1.3636	0.1	2507.
22509	12.48	1.2727	0.1	2419.4
22510	12.573	1.3636	0.1	2528.3
22511	12.296	1.2727	0.1	2400.2
22512	12.388	1.3636	0.1	2546.
22513	12.112	1.2727	0.1	2365.6
22514	12.204	1.3636	0.1	2559.
22515	11.927	1.2727	0.1	2310.2
22516	12.02	1.3636	0.1	2563.9
22517	11.743	1.2727	0.1	2267.1
22518	11.835	1.3636	0.1	2546.1
22519	11.651	1.3636	0.1	2575.9
22520	11.559	1.2727	0.1	1853.1
22521	23.724	1.4545	0.1	58.813
22522	23.816	1.5455	0.1	39.817
22523	23.908	1.4545	0.1	22.477
22524	23.539	1.4545	0.1	96.914
22525	23.631	1.5455	0.1	77.969
22526	23.355	1.4545	0.1	134.98
22527	23.447	1.5455	0.1	116.17
22528	23.171	1.4545	0.1	173.02
22529	23.263	1.5455	0.1	154.28
22530	22.986	1.4545	0.1	211.1
22531	23.078	1.5455	0.1	192.39
22532	22.802	1.4545	0.1	249.3
22533	22.894	1.5455	0.1	230.55
22534	22.618	1.4545	0.1	287.63
22535	22.71	1.5455	0.1	268.82
22536	22.433	1.4545	0.1	326.14
22537	22.525	1.5455	0.1	307.23
22538	22.249	1.4545	0.1	364.83
22539	22.341	1.5455	0.1	345.8
22540	22.065	1.4545	0.1	403.7
22541	22.157	1.5455	0.1	384.55
22542	21.88	1.4545	0.1	442.76
22543	21.973	1.5455	0.1	423.47
22544	21.696	1.4545	0.1	482.01
22545	21.788	1.5455	0.1	462.58
22546	21.512	1.4545	0.1	521.45
22547	21.604	1.5455	0.1	501.87
22548	21.327	1.4545	0.1	561.07
22549	21.42	1.5455	0.1	541.35
22550	21.143	1.4545	0.1	600.88
22551	21.235	1.5455	0.1	581.02
22552	20.959	1.4545	0.1	640.87
22553	21.051	1.5455	0.1	620.87
22554	20.775	1.4545	0.1	681.05
22555	20.867	1.5455	0.1	660.91
22556	20.59	1.4545	0.1	721.42
22557	20.682	1.5455	0.1	701.14
22558	20.406	1.4545	0.1	761.97
22559	20.498	1.5455	0.1	741.55
22560	20.222	1.4545	0.1	802.71
22561	20.314	1.5455	0.1	782.15
22562	20.037	1.4545	0.1	843.63
22563	20.129	1.5455	0.1	822.94
22564	19.853	1.4545	0.1	884.75
22565	19.945	1.5455	0.1	863.92
22566	19.669	1.4545	0.1	926.05
22567	19.761	1.5455	0.1	905.09
22568	19.484	1.4545	0.1	967.54
22569	19.576	1.5455	0.1	946.45
22570	19.3	1.4545	0.1	1009.2
22571	19.392	1.5455	0.1	988.
22572	19.116	1.4545	0.1	1051.1
22573	19.208	1.5455	0.1	1029.7
22574	18.931	1.4545	0.1	1093.1
22575	19.024	1.5455	0.1	1071.7
22576	18.747	1.4545	0.1	1135.4
22577	18.839	1.5455	0.1	1113.8
22578	18.563	1.4545	0.1	1177.8
22579	18.655	1.5455	0.1	1156.1
22580	18.378	1.4545	0.1	1220.5
22581	18.471	1.5455	0.1	1198.6
22582	18.194	1.4545	0.1	1263.3
22583	18.286	1.5455	0.1	1241.3
22584	18.01	1.4545	0.1	1306.3
22585	18.102	1.5455	0.1	1284.3
22586	17.825	1.4545	0.1	1349.6
22587	17.918	1.5455	0.1	1327.4
22588	17.641	1.4545	0.1	1393.
22589	17.733	1.5455	0.1	1370.7
22590	17.457	1.4545	0.1	1436.6
22591	17.549	1.5455	0.1	1414.2
22592	17.273	1.4545	0.1	1480.4
22593	17.365	1.5455	0.1	1457.9
22594	17.088	1.4545	0.1	1524.4
22595	17.18	1.5455	0.1	1501.8
22596	16.904	1.4545	0.1	1568.7
22597	16.996	1.5455	0.1	1545.9
22598	16.72	1.4545	0.1	1613.1
22599	16.812	1.5455	0.1	1590.2
22600	16.535	1.4545	0.1	1657.7
22601	16.627	1.5455	0.1	1634.8
22602	16.351	1.4545	0.1	1702.6
22603	16.443	1.5455	0.1	1679.6
22604	16.167	1.4545	0.1	1747.6
22605	16.259	1.5455	0.1	1724.6
22606	15.982	1.4545	0.1	1792.9
22607	16.075	1.5455	0.1	1769.9
22608	15.798	1.4545	0.1	1838.4
22609	15.89	1.5455	0.1	1815.5
22610	15.614	1.4545	0.1	1884.
22611	15.706	1.5455	0.1	1861.3
22612	15.429	1.4545	0.1	1929.9
22613	15.522	1.5455	0.1	1907.4
22614	15.245	1.4545	0.1	1976.
22615	15.337	1.5455	0.1	1953.8
22616	15.061	1.4545	0.1	2022.2
22617	15.153	1.5455	0.1	2000.6
22618	14.876	1.4545	0.1	2068.5
22619	14.969	1.5455	0.1	2047.7
22620	14.692	1.4545	0.1	2115.
22621	14.784	1.5455	0.1	2095.2
22622	14.508	1.4545	0.1	2161.5
22623	14.6	1.5455	0.1	2143.1
22624	14.324	1.4545	0.1	2207.9
22625	14.416	1.5455	0.1	2191.5
22626	14.139	1.4545	0.1	2254.1
22627	14.231	1.5455	0.1	2240.3
22628	13.955	1.4545	0.1	2300.1
22629	14.047	1.5455	0.1	2289.6
22630	13.771	1.4545	0.1	2345.6
22631	13.863	1.5455	0.1	2339.5
22632	13.586	1.4545	0.1	2390.6
22633	13.678	1.5455	0.1	2390.
22634	13.402	1.4545	0.1	2434.7
22635	13.494	1.5455	0.1	2441.4
22636	13.218	1.4545	0.1	2478.1
22637	13.31	1.5455	0.1	2493.9
22638	13.033	1.4545	0.1	2520.7
22639	13.125	1.5455	0.1	2548.1
22640	12.849	1.4545	0.1	2562.9
22641	12.941	1.5455	0.1	2605.1
22642	12.665	1.4545	0.1	2605.6
22643	12.757	1.5455	0.1	2666.5
22644	12.48	1.4545	0.1	2649.8
22645	12.573	1.5455	0.1	2735.
22646	12.296	1.4545	0.1	2696.2
22647	12.388	1.5455	0.1	2814.5
22648	12.112	1.4545	0.1	2743.
22649	12.204	1.5455	0.1	2909.4
22650	11.927	1.4545	0.1	2775.2
22651	12.02	1.5455	0.1	3022.
22652	11.743	1.4545	0.1	2813.1
22653	11.835	1.5455	0.1	3137.6
22654	11.651	1.5455	0.1	3302.9
22655	11.559	1.4545	0.1	2321.9
22656	23.724	1.6364	0.1	58.907
22657	23.816	1.7273	0.1	39.792
22658	23.908	1.6364	0.1	22.453
22659	23.539	1.6364	0.1	97.226
22660	23.631	1.7273	0.1	78.149
22661	23.355	1.6364	0.1	135.48
22662	23.447	1.7273	0.1	116.54
22663	23.171	1.6364	0.1	173.67
22664	23.263	1.7273	0.1	154.81
22665	22.986	1.6364	0.1	211.86
22666	23.078	1.7273	0.1	193.04
22667	22.802	1.6364	0.1	250.1
22668	22.894	1.7273	0.1	231.28
22669	22.618	1.6364	0.1	288.44
22670	22.71	1.7273	0.1	269.58
22671	22.433	1.6364	0.1	326.92
22672	22.525	1.7273	0.1	307.99
22673	22.249	1.6364	0.1	365.56
22674	22.341	1.7273	0.1	346.53
22675	22.065	1.6364	0.1	404.35
22676	22.157	1.7273	0.1	385.22
22677	21.88	1.6364	0.1	443.33
22678	21.973	1.7273	0.1	424.07
22679	21.696	1.6364	0.1	482.48
22680	21.788	1.7273	0.1	463.09
22681	21.512	1.6364	0.1	521.82
22682	21.604	1.7273	0.1	502.3
22683	21.327	1.6364	0.1	561.34
22684	21.42	1.7273	0.1	541.68
22685	21.143	1.6364	0.1	601.05
22686	21.235	1.7273	0.1	581.26
22687	20.959	1.6364	0.1	640.95
22688	21.051	1.7273	0.1	621.01
22689	20.775	1.6364	0.1	681.03
22690	20.867	1.7273	0.1	660.96
22691	20.59	1.6364	0.1	721.31
22692	20.682	1.7273	0.1	701.1
22693	20.406	1.6364	0.1	761.77
22694	20.498	1.7273	0.1	741.43
22695	20.222	1.6364	0.1	802.42
22696	20.314	1.7273	0.1	781.95
22697	20.037	1.6364	0.1	843.27
22698	20.129	1.7273	0.1	822.66
22699	19.853	1.6364	0.1	884.3
22700	19.945	1.7273	0.1	863.57
22701	19.669	1.6364	0.1	925.53
22702	19.761	1.7273	0.1	904.66
22703	19.484	1.6364	0.1	966.95
22704	19.576	1.7273	0.1	945.95
22705	19.3	1.6364	0.1	1008.6
22706	19.392	1.7273	0.1	987.44
22707	19.116	1.6364	0.1	1050.4
22708	19.208	1.7273	0.1	1029.1
22709	18.931	1.6364	0.1	1092.4
22710	19.024	1.7273	0.1	1071.
22711	18.747	1.6364	0.1	1134.6
22712	18.839	1.7273	0.1	1113.1
22713	18.563	1.6364	0.1	1176.9
22714	18.655	1.7273	0.1	1155.3
22715	18.378	1.6364	0.1	1219.5
22716	18.471	1.7273	0.1	1197.8
22717	18.194	1.6364	0.1	1262.3
22718	18.286	1.7273	0.1	1240.4
22719	18.01	1.6364	0.1	1305.3
22720	18.102	1.7273	0.1	1283.3
22721	17.825	1.6364	0.1	1348.5
22722	17.918	1.7273	0.1	1326.3
22723	17.641	1.6364	0.1	1391.8
22724	17.733	1.7273	0.1	1369.6
22725	17.457	1.6364	0.1	1435.4
22726	17.549	1.7273	0.1	1413.1
22727	17.273	1.6364	0.1	1479.2
22728	17.365	1.7273	0.1	1456.7
22729	17.088	1.6364	0.1	1523.2
22730	17.18	1.7273	0.1	1500.6
22731	16.904	1.6364	0.1	1567.5
22732	16.996	1.7273	0.1	1544.8
22733	16.72	1.6364	0.1	1612.
22734	16.812	1.7273	0.1	1589.1
22735	16.535	1.6364	0.1	1656.7
22736	16.627	1.7273	0.1	1633.8
22737	16.351	1.6364	0.1	1701.7
22738	16.443	1.7273	0.1	1678.7
22739	16.167	1.6364	0.1	1746.9
22740	16.259	1.7273	0.1	1723.9
22741	15.982	1.6364	0.1	1792.5
22742	16.075	1.7273	0.1	1769.4
22743	15.798	1.6364	0.1	1838.4
22744	15.89	1.7273	0.1	1815.3
22745	15.614	1.6364	0.1	1884.7
22746	15.706	1.7273	0.1	1861.6
22747	15.429	1.6364	0.1	1931.4
22748	15.522	1.7273	0.1	1908.4
22749	15.245	1.6364	0.1	1978.5
22750	15.337	1.7273	0.1	1955.7
22751	15.061	1.6364	0.1	2026.2
22752	15.153	1.7273	0.1	2003.7
22753	14.876	1.6364	0.1	2074.4
22754	14.969	1.7273	0.1	2052.5
22755	14.692	1.6364	0.1	2123.4
22756	14.784	1.7273	0.1	2102.1
22757	14.508	1.6364	0.1	2173.2
22758	14.6	1.7273	0.1	2152.9
22759	14.324	1.6364	0.1	2223.9
22760	14.416	1.7273	0.1	2204.9
22761	14.139	1.6364	0.1	2275.8
22762	14.231	1.7273	0.1	2258.6
22763	13.955	1.6364	0.1	2329.
22764	14.047	1.7273	0.1	2314.1
22765	13.771	1.6364	0.1	2383.8
22766	13.863	1.7273	0.1	2372.1
22767	13.586	1.6364	0.1	2440.7
22768	13.678	1.7273	0.1	2433.1
22769	13.402	1.6364	0.1	2500.3
22770	13.494	1.7273	0.1	2497.9
22771	13.218	1.6364	0.1	2563.4
22772	13.31	1.7273	0.1	2567.8
22773	13.033	1.6364	0.1	2631.6
22774	13.125	1.7273	0.1	2644.5
22775	12.849	1.6364	0.1	2707.1
22776	12.941	1.7273	0.1	2730.5
22777	12.665	1.6364	0.1	2793.3
22778	12.757	1.7273	0.1	2829.8
22779	12.48	1.6364	0.1	2895.3
22780	12.573	1.7273	0.1	2948.5
22781	12.296	1.6364	0.1	3020.5
22782	12.388	1.7273	0.1	3096.1
22783	12.112	1.6364	0.1	3176.4
22784	12.204	1.7273	0.1	3287.2
22785	11.927	1.6364	0.1	3362.8
22786	12.02	1.7273	0.1	3543.8
22787	11.743	1.6364	0.1	3566.8
22788	11.835	1.7273	0.1	3905.8
22789	11.651	1.7273	0.1	4566.6
22790	11.559	1.6364	0.1	2994.
22791	23.724	1.8182	0.1	58.964
22792	23.816	1.9091	0.1	39.758
22793	23.908	1.8182	0.1	22.423
22794	23.539	1.8182	0.1	97.46
22795	23.631	1.9091	0.1	78.278
22796	23.355	1.8182	0.1	135.88
22797	23.447	1.9091	0.1	116.82
22798	23.171	1.8182	0.1	174.19
22799	23.263	1.9091	0.1	155.22
22800	22.986	1.8182	0.1	212.48
22801	23.078	1.9091	0.1	193.56
22802	22.802	1.8182	0.1	250.78
22803	22.894	1.9091	0.1	231.88
22804	22.618	1.8182	0.1	289.15
22805	22.71	1.9091	0.1	270.22
22806	22.433	1.8182	0.1	327.62
22807	22.525	1.9091	0.1	308.64
22808	22.249	1.8182	0.1	366.22
22809	22.341	1.9091	0.1	347.17
22810	22.065	1.8182	0.1	404.96
22811	22.157	1.9091	0.1	385.82
22812	21.88	1.8182	0.1	443.87
22813	21.973	1.9091	0.1	424.62
22814	21.696	1.8182	0.1	482.95
22815	21.788	1.9091	0.1	463.58
22816	21.512	1.8182	0.1	522.2
22817	21.604	1.9091	0.1	502.71
22818	21.327	1.8182	0.1	561.64
22819	21.42	1.9091	0.1	542.02
22820	21.143	1.8182	0.1	601.26
22821	21.235	1.9091	0.1	581.51
22822	20.959	1.8182	0.1	641.07
22823	21.051	1.9091	0.1	621.19
22824	20.775	1.8182	0.1	681.07
22825	20.867	1.9091	0.1	661.06
22826	20.59	1.8182	0.1	721.26
22827	20.682	1.9091	0.1	701.11
22828	20.406	1.8182	0.1	761.64
22829	20.498	1.9091	0.1	741.37
22830	20.222	1.8182	0.1	802.22
22831	20.314	1.9091	0.1	781.81
22832	20.037	1.8182	0.1	842.99
22833	20.129	1.9091	0.1	822.45
22834	19.853	1.8182	0.1	883.96
22835	19.945	1.9091	0.1	863.29
22836	19.669	1.8182	0.1	925.12
22837	19.761	1.9091	0.1	904.32
22838	19.484	1.8182	0.1	966.47
22839	19.576	1.9091	0.1	945.55
22840	19.3	1.8182	0.1	1008.
22841	19.392	1.9091	0.1	986.98
22842	19.116	1.8182	0.1	1049.8
22843	19.208	1.9091	0.1	1028.6
22844	18.931	1.8182	0.1	1091.7
22845	19.024	1.9091	0.1	1070.4
22846	18.747	1.8182	0.1	1133.8
22847	18.839	1.9091	0.1	1112.4
22848	18.563	1.8182	0.1	1176.2
22849	18.655	1.9091	0.1	1154.6
22850	18.378	1.8182	0.1	1218.7
22851	18.471	1.9091	0.1	1197.
22852	18.194	1.8182	0.1	1261.4
22853	18.286	1.9091	0.1	1239.6
22854	18.01	1.8182	0.1	1304.4
22855	18.102	1.9091	0.1	1282.4
22856	17.825	1.8182	0.1	1347.5
22857	17.918	1.9091	0.1	1325.5
22858	17.641	1.8182	0.1	1390.8
22859	17.733	1.9091	0.1	1368.7
22860	17.457	1.8182	0.1	1434.4
22861	17.549	1.9091	0.1	1412.1
22862	17.273	1.8182	0.1	1478.2
22863	17.365	1.9091	0.1	1455.8
22864	17.088	1.8182	0.1	1522.2
22865	17.18	1.9091	0.1	1499.6
22866	16.904	1.8182	0.1	1566.4
22867	16.996	1.9091	0.1	1543.8
22868	16.72	1.8182	0.1	1611.
22869	16.812	1.9091	0.1	1588.2
22870	16.535	1.8182	0.1	1655.8
22871	16.627	1.9091	0.1	1632.9
22872	16.351	1.8182	0.1	1700.9
22873	16.443	1.9091	0.1	1677.9
22874	16.167	1.8182	0.1	1746.3
22875	16.259	1.9091	0.1	1723.2
22876	15.982	1.8182	0.1	1792.2
22877	16.075	1.9091	0.1	1769.
22878	15.798	1.8182	0.1	1838.5
22879	15.89	1.9091	0.1	1815.2
22880	15.614	1.8182	0.1	1885.4
22881	15.706	1.9091	0.1	1862.
22882	15.429	1.8182	0.1	1932.8
22883	15.522	1.9091	0.1	1909.4
22884	15.245	1.8182	0.1	1981.
22885	15.337	1.9091	0.1	1957.6
22886	15.061	1.8182	0.1	2030.1
22887	15.153	1.9091	0.1	2006.7
22888	14.876	1.8182	0.1	2080.2
22889	14.969	1.9091	0.1	2057.
22890	14.692	1.8182	0.1	2131.6
22891	14.784	1.9091	0.1	2108.8
22892	14.508	1.8182	0.1	2184.6
22893	14.6	1.9091	0.1	2162.2
22894	14.324	1.8182	0.1	2239.6
22895	14.416	1.9091	0.1	2217.8
22896	14.139	1.8182	0.1	2296.9
22897	14.231	1.9091	0.1	2276.1
22898	13.955	1.8182	0.1	2357.2
22899	14.047	1.9091	0.1	2337.7
22900	13.771	1.8182	0.1	2421.3
22901	13.863	1.9091	0.1	2403.6
22902	13.586	1.8182	0.1	2490.2
22903	13.678	1.9091	0.1	2474.8
22904	13.402	1.8182	0.1	2565.2
22905	13.494	1.9091	0.1	2552.9
22906	13.218	1.8182	0.1	2648.4
22907	13.31	1.9091	0.1	2639.9
22908	13.033	1.8182	0.1	2742.5
22909	13.125	1.9091	0.1	2738.8
22910	12.849	1.8182	0.1	2851.8
22911	12.941	1.9091	0.1	2853.6
22912	12.665	1.8182	0.1	2982.8
22913	12.757	1.9091	0.1	2990.8
22914	12.48	1.8182	0.1	3145.8
22915	12.573	1.9091	0.1	3160.
22916	12.296	1.8182	0.1	3357.4
22917	12.388	1.9091	0.1	3377.1
22918	12.112	1.8182	0.1	3646.6
22919	12.204	1.9091	0.1	3669.5
22920	11.927	1.8182	0.1	4071.4
22921	12.02	1.9091	0.1	4092.3
22922	11.743	1.8182	0.1	4854.9
22923	11.835	1.9091	0.1	4751.5
22924	11.651	1.9091	0.1	6454.5
22925	11.559	1.8182	0.1	4226.
22926	23.724	2.	0.1	58.998
22927	23.816	2.0909	0.1	39.722
22928	23.908	2.	0.1	22.392
22929	23.539	2.	0.1	97.633
22930	23.631	2.0909	0.1	78.369
22931	23.355	2.	0.1	136.18
22932	23.447	2.0909	0.1	117.03
22933	23.171	2.	0.1	174.61
22934	23.263	2.0909	0.1	155.55
22935	22.986	2.	0.1	212.98
22936	23.078	2.0909	0.1	193.98
22937	22.802	2.	0.1	251.34
22938	22.894	2.0909	0.1	232.36
22939	22.618	2.	0.1	289.74
22940	22.71	2.0909	0.1	270.76
22941	22.433	2.	0.1	328.22
22942	22.525	2.0909	0.1	309.2
22943	22.249	2.	0.1	366.8
22944	22.341	2.0909	0.1	347.72
22945	22.065	2.	0.1	405.51
22946	22.157	2.0909	0.1	386.35
22947	21.88	2.	0.1	444.36
22948	21.973	2.0909	0.1	425.11
22949	21.696	2.	0.1	483.38
22950	21.788	2.0909	0.1	464.02
22951	21.512	2.	0.1	522.56
22952	21.604	2.0909	0.1	503.09
22953	21.327	2.	0.1	561.93
22954	21.42	2.0909	0.1	542.34
22955	21.143	2.	0.1	601.48
22956	21.235	2.0909	0.1	581.76
22957	20.959	2.	0.1	641.21
22958	21.051	2.0909	0.1	621.37
22959	20.775	2.	0.1	681.14
22960	20.867	2.0909	0.1	661.17
22961	20.59	2.	0.1	721.26
22962	20.682	2.0909	0.1	701.16
22963	20.406	2.	0.1	761.57
22964	20.498	2.0909	0.1	741.34
22965	20.222	2.	0.1	802.08
22966	20.314	2.0909	0.1	781.73
22967	20.037	2.	0.1	842.79
22968	20.129	2.0909	0.1	822.31
22969	19.853	2.	0.1	883.69
22970	19.945	2.0909	0.1	863.08
22971	19.669	2.	0.1	924.79
22972	19.761	2.0909	0.1	904.06
22973	19.484	2.	0.1	966.08
22974	19.576	2.0909	0.1	945.23
22975	19.3	2.	0.1	1007.6
22976	19.392	2.0909	0.1	986.6
22977	19.116	2.	0.1	1049.3
22978	19.208	2.0909	0.1	1028.2
22979	18.931	2.	0.1	1091.2
22980	19.024	2.0909	0.1	1069.9
22981	18.747	2.	0.1	1133.2
22982	18.839	2.0909	0.1	1111.9
22983	18.563	2.	0.1	1175.5
22984	18.655	2.0909	0.1	1154.1
22985	18.378	2.	0.1	1218.
22986	18.471	2.0909	0.1	1196.4
22987	18.194	2.	0.1	1260.7
22988	18.286	2.0909	0.1	1239.
22989	18.01	2.	0.1	1303.6
22990	18.102	2.0909	0.1	1281.7
22991	17.825	2.	0.1	1346.7
22992	17.918	2.0909	0.1	1324.7
22993	17.641	2.	0.1	1390.
22994	17.733	2.0909	0.1	1367.9
22995	17.457	2.	0.1	1433.5
22996	17.549	2.0909	0.1	1411.3
22997	17.273	2.	0.1	1477.3
22998	17.365	2.0909	0.1	1454.9
22999	17.088	2.	0.1	1521.3
23000	17.18	2.0909	0.1	1498.8
23001	16.904	2.	0.1	1565.5
23002	16.996	2.0909	0.1	1542.9
23003	16.72	2.	0.1	1610.1
23004	16.812	2.0909	0.1	1587.4
23005	16.535	2.	0.1	1655.
23006	16.627	2.0909	0.1	1632.1
23007	16.351	2.	0.1	1700.2
23008	16.443	2.0909	0.1	1677.2
23009	16.167	2.	0.1	1745.8
23010	16.259	2.0909	0.1	1722.7
23011	15.982	2.	0.1	1792.
23012	16.075	2.0909	0.1	1768.6
23013	15.798	2.	0.1	1838.7
23014	15.89	2.0909	0.1	1815.1
23015	15.614	2.	0.1	1886.
23016	15.706	2.0909	0.1	1862.3
23017	15.429	2.	0.1	1934.2
23018	15.522	2.0909	0.1	1910.3
23019	15.245	2.	0.1	1983.4
23020	15.337	2.0909	0.1	1959.3
23021	15.061	2.	0.1	2033.7
23022	15.153	2.0909	0.1	2009.5
23023	14.876	2.	0.1	2085.6
23024	14.969	2.0909	0.1	2061.2
23025	14.692	2.	0.1	2139.3
23026	14.784	2.0909	0.1	2114.8
23027	14.508	2.	0.1	2195.4
23028	14.6	2.0909	0.1	2170.8
23029	14.324	2.	0.1	2254.3
23030	14.416	2.0909	0.1	2229.6
23031	14.139	2.	0.1	2316.9
23032	14.231	2.0909	0.1	2292.2
23033	13.955	2.	0.1	2384.
23034	14.047	2.0909	0.1	2359.5
23035	13.771	2.	0.1	2457.
23036	13.863	2.0909	0.1	2432.8
23037	13.586	2.	0.1	2537.4
23038	13.678	2.0909	0.1	2513.7
23039	13.402	2.	0.1	2627.4
23040	13.494	2.0909	0.1	2604.3
23041	13.218	2.	0.1	2729.9
23042	13.31	2.0909	0.1	2707.6
23043	13.033	2.	0.1	2849.3
23044	13.125	2.0909	0.1	2827.6
23045	12.849	2.	0.1	2991.6
23046	12.941	2.0909	0.1	2969.9
23047	12.665	2.	0.1	3166.3
23048	12.757	2.0909	0.1	3143.
23049	12.48	2.	0.1	3388.8
23050	12.573	2.0909	0.1	3359.7
23051	12.296	2.	0.1	3685.7
23052	12.388	2.0909	0.1	3641.3
23053	12.112	2.	0.1	4110.9
23054	12.204	2.0909	0.1	4025.4
23055	11.927	2.	0.1	4770.3
23056	12.02	2.0909	0.1	4590.3
23057	11.743	2.	0.1	6365.5
23058	11.835	2.0909	0.1	5507.9
23059	11.651	2.0909	0.1	7644.3
23060	11.559	2.	0.1	11403
23061	23.724	2.1818	0.1	59.017
23062	23.816	2.2727	0.1	39.688
23063	23.908	2.1818	0.1	22.364
23064	23.539	2.1818	0.1	97.76
23065	23.631	2.2727	0.1	78.432
23066	23.355	2.1818	0.1	136.41
23067	23.447	2.2727	0.1	117.19
23068	23.171	2.1818	0.1	174.93
23069	23.263	2.2727	0.1	155.79
23070	22.986	2.1818	0.1	213.37
23071	23.078	2.2727	0.1	194.3
23072	22.802	2.1818	0.1	251.79
23073	22.894	2.2727	0.1	232.74
23074	22.618	2.1818	0.1	290.23
23075	22.71	2.2727	0.1	271.18
23076	22.433	2.1818	0.1	328.71
23077	22.525	2.2727	0.1	309.64
23078	22.249	2.1818	0.1	367.29
23079	22.341	2.2727	0.1	348.16
23080	22.065	2.1818	0.1	405.97
23081	22.157	2.2727	0.1	386.78
23082	21.88	2.1818	0.1	444.79
23083	21.973	2.2727	0.1	425.52
23084	21.696	2.1818	0.1	483.76
23085	21.788	2.2727	0.1	464.39
23086	21.512	2.1818	0.1	522.89
23087	21.604	2.2727	0.1	503.42
23088	21.327	2.1818	0.1	562.2
23089	21.42	2.2727	0.1	542.62
23090	21.143	2.1818	0.1	601.68
23091	21.235	2.2727	0.1	581.99
23092	20.959	2.1818	0.1	641.36
23093	21.051	2.2727	0.1	621.54
23094	20.775	2.1818	0.1	681.22
23095	20.867	2.2727	0.1	661.28
23096	20.59	2.1818	0.1	721.28
23097	20.682	2.2727	0.1	701.22
23098	20.406	2.1818	0.1	761.53
23099	20.498	2.2727	0.1	741.35
23100	20.222	2.1818	0.1	801.98
23101	20.314	2.2727	0.1	781.68
23102	20.037	2.1818	0.1	842.63
23103	20.129	2.2727	0.1	822.2
23104	19.853	2.1818	0.1	883.48
23105	19.945	2.2727	0.1	862.93
23106	19.669	2.1818	0.1	924.53
23107	19.761	2.2727	0.1	903.86
23108	19.484	2.1818	0.1	965.78
23109	19.576	2.2727	0.1	944.98
23110	19.3	2.1818	0.1	1007.2
23111	19.392	2.2727	0.1	986.31
23112	19.116	2.1818	0.1	1048.9
23113	19.208	2.2727	0.1	1027.8
23114	18.931	2.1818	0.1	1090.7
23115	19.024	2.2727	0.1	1069.6
23116	18.747	2.1818	0.1	1132.7
23117	18.839	2.2727	0.1	1111.5
23118	18.563	2.1818	0.1	1175.
23119	18.655	2.2727	0.1	1153.6
23120	18.378	2.1818	0.1	1217.4
23121	18.471	2.2727	0.1	1195.9
23122	18.194	2.1818	0.1	1260.1
23123	18.286	2.2727	0.1	1238.4
23124	18.01	2.1818	0.1	1302.9
23125	18.102	2.2727	0.1	1281.2
23126	17.825	2.1818	0.1	1346.
23127	17.918	2.2727	0.1	1324.1
23128	17.641	2.1818	0.1	1389.2
23129	17.733	2.2727	0.1	1367.3
23130	17.457	2.1818	0.1	1432.7
23131	17.549	2.2727	0.1	1410.6
23132	17.273	2.1818	0.1	1476.5
23133	17.365	2.2727	0.1	1454.2
23134	17.088	2.1818	0.1	1520.5
23135	17.18	2.2727	0.1	1498.1
23136	16.904	2.1818	0.1	1564.8
23137	16.996	2.2727	0.1	1542.2
23138	16.72	2.1818	0.1	1609.4
23139	16.812	2.2727	0.1	1586.7
23140	16.535	2.1818	0.1	1654.3
23141	16.627	2.2727	0.1	1631.5
23142	16.351	2.1818	0.1	1699.6
23143	16.443	2.2727	0.1	1676.6
23144	16.167	2.1818	0.1	1745.4
23145	16.259	2.2727	0.1	1722.2
23146	15.982	2.1818	0.1	1791.8
23147	16.075	2.2727	0.1	1768.4
23148	15.798	2.1818	0.1	1838.8
23149	15.89	2.2727	0.1	1815.1
23150	15.614	2.1818	0.1	1886.7
23151	15.706	2.2727	0.1	1862.7
23152	15.429	2.1818	0.1	1935.5
23153	15.522	2.2727	0.1	1911.2
23154	15.245	2.1818	0.1	1985.5
23155	15.337	2.2727	0.1	1960.8
23156	15.061	2.1818	0.1	2037.
23157	15.153	2.2727	0.1	2011.9
23158	14.876	2.1818	0.1	2090.4
23159	14.969	2.2727	0.1	2064.9
23160	14.692	2.1818	0.1	2146.2
23161	14.784	2.2727	0.1	2120.1
23162	14.508	2.1818	0.1	2205.
23163	14.6	2.2727	0.1	2178.3
23164	14.324	2.1818	0.1	2267.6
23165	14.416	2.2727	0.1	2240.
23166	14.139	2.1818	0.1	2334.9
23167	14.231	2.2727	0.1	2306.5
23168	13.955	2.1818	0.1	2408.3
23169	14.047	2.2727	0.1	2378.8
23170	13.771	2.1818	0.1	2489.4
23171	13.863	2.2727	0.1	2458.7
23172	13.586	2.1818	0.1	2580.5
23173	13.678	2.2727	0.1	2548.2
23174	13.402	2.1818	0.1	2684.4
23175	13.494	2.2727	0.1	2650.1
23176	13.218	2.1818	0.1	2805.
23177	13.31	2.2727	0.1	2768.1
23178	13.033	2.1818	0.1	2947.8
23179	13.125	2.2727	0.1	2907.2
23180	12.849	2.1818	0.1	3120.6
23181	12.941	2.2727	0.1	3074.3
23182	12.665	2.1818	0.1	3335.2
23183	12.757	2.2727	0.1	3279.3
23184	12.48	2.1818	0.1	3610.7
23185	12.573	2.2727	0.1	3536.9
23186	12.296	2.1818	0.1	3979.4
23187	12.388	2.2727	0.1	3871.
23188	12.112	2.1818	0.1	4504.3
23189	12.204	2.2727	0.1	4321.1
23190	11.927	2.1818	0.1	5333.8
23191	12.02	2.2727	0.1	4962.2
23192	11.743	2.1818	0.1	6841.9
23193	11.835	2.2727	0.1	5950.3
23194	11.651	2.2727	0.1	7589.8
23195	11.559	2.1818	0.1	9163.2
23196	23.724	2.3636	0.1	59.026
23197	23.816	2.4545	0.1	39.659
23198	23.908	2.3636	0.1	22.339
23199	23.539	2.3636	0.1	97.852
23200	23.631	2.4545	0.1	78.475
23201	23.355	2.3636	0.1	136.58
23202	23.447	2.4545	0.1	117.3
23203	23.171	2.3636	0.1	175.17
23204	23.263	2.4545	0.1	155.97
23205	22.986	2.3636	0.1	213.68
23206	23.078	2.4545	0.1	194.54
23207	22.802	2.3636	0.1	252.14
23208	22.894	2.4545	0.1	233.03
23209	22.618	2.3636	0.1	290.61
23210	22.71	2.4545	0.1	271.5
23211	22.433	2.3636	0.1	329.11
23212	22.525	2.4545	0.1	309.98
23213	22.249	2.3636	0.1	367.68
23214	22.341	2.4545	0.1	348.51
23215	22.065	2.3636	0.1	406.35
23216	22.157	2.4545	0.1	387.12
23217	21.88	2.3636	0.1	445.14
23218	21.973	2.4545	0.1	425.84
23219	21.696	2.3636	0.1	484.08
23220	21.788	2.4545	0.1	464.69
23221	21.512	2.3636	0.1	523.17
23222	21.604	2.4545	0.1	503.69
23223	21.327	2.3636	0.1	562.43
23224	21.42	2.4545	0.1	542.84
23225	21.143	2.3636	0.1	601.87
23226	21.235	2.4545	0.1	582.17
23227	20.959	2.3636	0.1	641.49
23228	21.051	2.4545	0.1	621.69
23229	20.775	2.3636	0.1	681.31
23230	20.867	2.4545	0.1	661.38
23231	20.59	2.3636	0.1	721.32
23232	20.682	2.4545	0.1	701.28
23233	20.406	2.3636	0.1	761.52
23234	20.498	2.4545	0.1	741.36
23235	20.222	2.3636	0.1	801.92
23236	20.314	2.4545	0.1	781.65
23237	20.037	2.3636	0.1	842.53
23238	20.129	2.4545	0.1	822.13
23239	19.853	2.3636	0.1	883.33
23240	19.945	2.4545	0.1	862.82
23241	19.669	2.3636	0.1	924.34
23242	19.761	2.4545	0.1	903.71
23243	19.484	2.3636	0.1	965.54
23244	19.576	2.4545	0.1	944.8
23245	19.3	2.3636	0.1	1006.9
23246	19.392	2.4545	0.1	986.08
23247	19.116	2.3636	0.1	1048.5
23248	19.208	2.4545	0.1	1027.6
23249	18.931	2.3636	0.1	1090.3
23250	19.024	2.4545	0.1	1069.3
23251	18.747	2.3636	0.1	1132.4
23252	18.839	2.4545	0.1	1111.1
23253	18.563	2.3636	0.1	1174.6
23254	18.655	2.4545	0.1	1153.2
23255	18.378	2.3636	0.1	1217.
23256	18.471	2.4545	0.1	1195.5
23257	18.194	2.3636	0.1	1259.6
23258	18.286	2.4545	0.1	1238.
23259	18.01	2.3636	0.1	1302.4
23260	18.102	2.4545	0.1	1280.7
23261	17.825	2.3636	0.1	1345.4
23262	17.918	2.4545	0.1	1323.6
23263	17.641	2.3636	0.1	1388.7
23264	17.733	2.4545	0.1	1366.8
23265	17.457	2.3636	0.1	1432.1
23266	17.549	2.4545	0.1	1410.1
23267	17.273	2.3636	0.1	1475.9
23268	17.365	2.4545	0.1	1453.7
23269	17.088	2.3636	0.1	1519.9
23270	17.18	2.4545	0.1	1497.6
23271	16.904	2.3636	0.1	1564.2
23272	16.996	2.4545	0.1	1541.7
23273	16.72	2.3636	0.1	1608.8
23274	16.812	2.4545	0.1	1586.1
23275	16.535	2.3636	0.1	1653.8
23276	16.627	2.4545	0.1	1631.
23277	16.351	2.3636	0.1	1699.2
23278	16.443	2.4545	0.1	1676.2
23279	16.167	2.3636	0.1	1745.1
23280	16.259	2.4545	0.1	1721.9
23281	15.982	2.3636	0.1	1791.7
23282	16.075	2.4545	0.1	1768.1
23283	15.798	2.3636	0.1	1839.
23284	15.89	2.4545	0.1	1815.1
23285	15.614	2.3636	0.1	1887.2
23286	15.706	2.4545	0.1	1863.
23287	15.429	2.3636	0.1	1936.5
23288	15.522	2.4545	0.1	1911.9
23289	15.245	2.3636	0.1	1987.3
23290	15.337	2.4545	0.1	1962.1
23291	15.061	2.3636	0.1	2039.8
23292	15.153	2.4545	0.1	2013.9
23293	14.876	2.3636	0.1	2094.6
23294	14.969	2.4545	0.1	2067.9
23295	14.692	2.3636	0.1	2152.1
23296	14.784	2.4545	0.1	2124.5
23297	14.508	2.3636	0.1	2213.3
23298	14.6	2.4545	0.1	2184.4
23299	14.324	2.3636	0.1	2278.9
23300	14.416	2.4545	0.1	2248.6
23301	14.139	2.3636	0.1	2350.4
23302	14.231	2.4545	0.1	2318.2
23303	13.955	2.3636	0.1	2429.2
23304	14.047	2.4545	0.1	2394.8
23305	13.771	2.3636	0.1	2517.4
23306	13.863	2.4545	0.1	2480.2
23307	13.586	2.3636	0.1	2617.8
23308	13.678	2.4545	0.1	2577.
23309	13.402	2.3636	0.1	2733.8
23310	13.494	2.4545	0.1	2688.4
23311	13.218	2.3636	0.1	2870.3
23312	13.31	2.4545	0.1	2818.9
23313	13.033	2.3636	0.1	3033.6
23314	13.125	2.4545	0.1	2974.1
23315	12.849	2.3636	0.1	3232.7
23316	12.941	2.4545	0.1	3161.8
23317	12.665	2.3636	0.1	3480.6
23318	12.757	2.4545	0.1	3392.7
23319	12.48	2.3636	0.1	3797.
23320	12.573	2.4545	0.1	3682.
23321	12.296	2.3636	0.1	4213.4
23322	12.388	2.4545	0.1	4051.7
23323	12.112	2.3636	0.1	4782.8
23324	12.204	2.4545	0.1	4534.5
23325	11.927	2.3636	0.1	5592.7
23326	12.02	2.4545	0.1	5178.9
23327	11.743	2.3636	0.1	6734.7
23328	11.835	2.4545	0.1	6045.1
23329	11.651	2.4545	0.1	7124.2
23330	11.559	2.3636	0.1	7898.6
23331	23.724	2.5455	0.1	59.03
23332	23.816	2.6364	0.1	39.637
23333	23.908	2.5455	0.1	22.319
23334	23.539	2.5455	0.1	97.915
23335	23.631	2.6364	0.1	78.503
23336	23.355	2.5455	0.1	136.7
23337	23.447	2.6364	0.1	117.38
23338	23.171	2.5455	0.1	175.34
23339	23.263	2.6364	0.1	156.09
23340	22.986	2.5455	0.1	213.9
23341	23.078	2.6364	0.1	194.7
23342	22.802	2.5455	0.1	252.4
23343	22.894	2.6364	0.1	233.23
23344	22.618	2.5455	0.1	290.89
23345	22.71	2.6364	0.1	271.72
23346	22.433	2.5455	0.1	329.4
23347	22.525	2.6364	0.1	310.22
23348	22.249	2.5455	0.1	367.98
23349	22.341	2.6364	0.1	348.76
23350	22.065	2.5455	0.1	406.64
23351	22.157	2.6364	0.1	387.37
23352	21.88	2.5455	0.1	445.41
23353	21.973	2.6364	0.1	426.08
23354	21.696	2.5455	0.1	484.32
23355	21.788	2.6364	0.1	464.91
23356	21.512	2.5455	0.1	523.39
23357	21.604	2.6364	0.1	503.88
23358	21.327	2.5455	0.1	562.61
23359	21.42	2.6364	0.1	543.01
23360	21.143	2.5455	0.1	602.02
23361	21.235	2.6364	0.1	582.32
23362	20.959	2.5455	0.1	641.6
23363	21.051	2.6364	0.1	621.8
23364	20.775	2.5455	0.1	681.38
23365	20.867	2.6364	0.1	661.46
23366	20.59	2.5455	0.1	721.35
23367	20.682	2.6364	0.1	701.32
23368	20.406	2.5455	0.1	761.52
23369	20.498	2.6364	0.1	741.38
23370	20.222	2.5455	0.1	801.89
23371	20.314	2.6364	0.1	781.64
23372	20.037	2.5455	0.1	842.46
23373	20.129	2.6364	0.1	822.09
23374	19.853	2.5455	0.1	883.22
23375	19.945	2.6364	0.1	862.75
23376	19.669	2.5455	0.1	924.2
23377	19.761	2.6364	0.1	903.61
23378	19.484	2.5455	0.1	965.37
23379	19.576	2.6364	0.1	944.67
23380	19.3	2.5455	0.1	1006.7
23381	19.392	2.6364	0.1	985.93
23382	19.116	2.5455	0.1	1048.3
23383	19.208	2.6364	0.1	1027.4
23384	18.931	2.5455	0.1	1090.1
23385	19.024	2.6364	0.1	1069.1
23386	18.747	2.5455	0.1	1132.1
23387	18.839	2.6364	0.1	1110.9
23388	18.563	2.5455	0.1	1174.2
23389	18.655	2.6364	0.1	1153.
23390	18.378	2.5455	0.1	1216.6
23391	18.471	2.6364	0.1	1195.3
23392	18.194	2.5455	0.1	1259.2
23393	18.286	2.6364	0.1	1237.7
23394	18.01	2.5455	0.1	1302.
23395	18.102	2.6364	0.1	1280.4
23396	17.825	2.5455	0.1	1345.
23397	17.918	2.6364	0.1	1323.3
23398	17.641	2.5455	0.1	1388.2
23399	17.733	2.6364	0.1	1366.4
23400	17.457	2.5455	0.1	1431.7
23401	17.549	2.6364	0.1	1409.7
23402	17.273	2.5455	0.1	1475.4
23403	17.365	2.6364	0.1	1453.3
23404	17.088	2.5455	0.1	1519.4
23405	17.18	2.6364	0.1	1497.2
23406	16.904	2.5455	0.1	1563.7
23407	16.996	2.6364	0.1	1541.3
23408	16.72	2.5455	0.1	1608.3
23409	16.812	2.6364	0.1	1585.8
23410	16.535	2.5455	0.1	1653.4
23411	16.627	2.6364	0.1	1630.6
23412	16.351	2.5455	0.1	1698.9
23413	16.443	2.6364	0.1	1675.9
23414	16.167	2.5455	0.1	1744.9
23415	16.259	2.6364	0.1	1721.6
23416	15.982	2.5455	0.1	1791.6
23417	16.075	2.6364	0.1	1768.
23418	15.798	2.5455	0.1	1839.1
23419	15.89	2.6364	0.1	1815.1
23420	15.614	2.5455	0.1	1887.6
23421	15.706	2.6364	0.1	1863.2
23422	15.429	2.5455	0.1	1937.4
23423	15.522	2.6364	0.1	1912.4
23424	15.245	2.5455	0.1	1988.7
23425	15.337	2.6364	0.1	1963.
23426	15.061	2.5455	0.1	2042.
23427	15.153	2.6364	0.1	2015.4
23428	14.876	2.5455	0.1	2097.8
23429	14.969	2.6364	0.1	2070.1
23430	14.692	2.5455	0.1	2156.7
23431	14.784	2.6364	0.1	2127.7
23432	14.508	2.5455	0.1	2219.7
23433	14.6	2.6364	0.1	2189.
23434	14.324	2.5455	0.1	2287.9
23435	14.416	2.6364	0.1	2255.
23436	14.139	2.5455	0.1	2362.6
23437	14.231	2.6364	0.1	2327.
23438	13.955	2.5455	0.1	2445.7
23439	14.047	2.6364	0.1	2406.7
23440	13.771	2.5455	0.1	2539.7
23441	13.863	2.6364	0.1	2496.3
23442	13.586	2.5455	0.1	2647.6
23443	13.678	2.6364	0.1	2598.6
23444	13.402	2.5455	0.1	2773.5
23445	13.494	2.6364	0.1	2717.3
23446	13.218	2.5455	0.1	2922.7
23447	13.31	2.6364	0.1	2857.3
23448	13.033	2.5455	0.1	3102.3
23449	13.125	2.6364	0.1	3024.6
23450	12.849	2.5455	0.1	3322.
23451	12.941	2.6364	0.1	3227.8
23452	12.665	2.5455	0.1	3594.6
23453	12.757	2.6364	0.1	3477.5
23454	12.48	2.5455	0.1	3937.8
23455	12.573	2.6364	0.1	3788.
23456	12.296	2.5455	0.1	4375.6
23457	12.388	2.6364	0.1	4177.1
23458	12.112	2.5455	0.1	4937.3
23459	12.204	2.6364	0.1	4665.8
23460	11.927	2.5455	0.1	5644.8
23461	12.02	2.6364	0.1	5271.6
23462	11.743	2.5455	0.1	6449.5
23463	11.835	2.6364	0.1	5986.1
23464	11.651	2.6364	0.1	6703.9
23465	11.559	2.5455	0.1	7142.8
23466	23.724	2.7273	0.1	59.031
23467	23.816	2.8182	0.1	39.623
23468	23.908	2.7273	0.1	22.305
23469	23.539	2.7273	0.1	97.955
23470	23.631	2.8182	0.1	78.518
23471	23.355	2.7273	0.1	136.77
23472	23.447	2.8182	0.1	117.42
23473	23.171	2.7273	0.1	175.46
23474	23.263	2.8182	0.1	156.16
23475	22.986	2.7273	0.1	214.04
23476	23.078	2.8182	0.1	194.8
23477	22.802	2.7273	0.1	252.57
23478	22.894	2.8182	0.1	233.35
23479	22.618	2.7273	0.1	291.07
23480	22.71	2.8182	0.1	271.86
23481	22.433	2.7273	0.1	329.6
23482	22.525	2.8182	0.1	310.37
23483	22.249	2.7273	0.1	368.17
23484	22.341	2.8182	0.1	348.91
23485	22.065	2.7273	0.1	406.83
23486	22.157	2.8182	0.1	387.52
23487	21.88	2.7273	0.1	445.6
23488	21.973	2.8182	0.1	426.22
23489	21.696	2.7273	0.1	484.49
23490	21.788	2.8182	0.1	465.04
23491	21.512	2.7273	0.1	523.53
23492	21.604	2.8182	0.1	504.
23493	21.327	2.7273	0.1	562.74
23494	21.42	2.8182	0.1	543.12
23495	21.143	2.7273	0.1	602.12
23496	21.235	2.8182	0.1	582.4
23497	20.959	2.7273	0.1	641.68
23498	21.051	2.8182	0.1	621.87
23499	20.775	2.7273	0.1	681.43
23500	20.867	2.8182	0.1	661.51
23501	20.59	2.7273	0.1	721.38
23502	20.682	2.8182	0.1	701.36
23503	20.406	2.7273	0.1	761.52
23504	20.498	2.8182	0.1	741.39
23505	20.222	2.7273	0.1	801.87
23506	20.314	2.8182	0.1	781.63
23507	20.037	2.7273	0.1	842.41
23508	20.129	2.8182	0.1	822.07
23509	19.853	2.7273	0.1	883.16
23510	19.945	2.8182	0.1	862.71
23511	19.669	2.7273	0.1	924.11
23512	19.761	2.8182	0.1	903.55
23513	19.484	2.7273	0.1	965.26
23514	19.576	2.8182	0.1	944.59
23515	19.3	2.7273	0.1	1006.6
23516	19.392	2.8182	0.1	985.84
23517	19.116	2.7273	0.1	1048.2
23518	19.208	2.8182	0.1	1027.3
23519	18.931	2.7273	0.1	1089.9
23520	19.024	2.8182	0.1	1068.9
23521	18.747	2.7273	0.1	1131.9
23522	18.839	2.8182	0.1	1110.8
23523	18.563	2.7273	0.1	1174.
23524	18.655	2.8182	0.1	1152.8
23525	18.378	2.7273	0.1	1216.4
23526	18.471	2.8182	0.1	1195.1
23527	18.194	2.7273	0.1	1258.9
23528	18.286	2.8182	0.1	1237.5
23529	18.01	2.7273	0.1	1301.7
23530	18.102	2.8182	0.1	1280.2
23531	17.825	2.7273	0.1	1344.7
23532	17.918	2.8182	0.1	1323.1
23533	17.641	2.7273	0.1	1387.9
23534	17.733	2.8182	0.1	1366.2
23535	17.457	2.7273	0.1	1431.4
23536	17.549	2.8182	0.1	1409.5
23537	17.273	2.7273	0.1	1475.1
23538	17.365	2.8182	0.1	1453.1
23539	17.088	2.7273	0.1	1519.1
23540	17.18	2.8182	0.1	1496.9
23541	16.904	2.7273	0.1	1563.4
23542	16.996	2.8182	0.1	1541.1
23543	16.72	2.7273	0.1	1608.
23544	16.812	2.8182	0.1	1585.5
23545	16.535	2.7273	0.1	1653.1
23546	16.627	2.8182	0.1	1630.4
23547	16.351	2.7273	0.1	1698.6
23548	16.443	2.8182	0.1	1675.7
23549	16.167	2.7273	0.1	1744.7
23550	16.259	2.8182	0.1	1721.5
23551	15.982	2.7273	0.1	1791.5
23552	16.075	2.8182	0.1	1767.9
23553	15.798	2.7273	0.1	1839.2
23554	15.89	2.8182	0.1	1815.1
23555	15.614	2.7273	0.1	1887.9
23556	15.706	2.8182	0.1	1863.3
23557	15.429	2.7273	0.1	1938.
23558	15.522	2.8182	0.1	1912.7
23559	15.245	2.7273	0.1	1989.7
23560	15.337	2.8182	0.1	1963.5
23561	15.061	2.7273	0.1	2043.5
23562	15.153	2.8182	0.1	2016.3
23563	14.876	2.7273	0.1	2100.
23564	14.969	2.8182	0.1	2071.5
23565	14.692	2.7273	0.1	2159.9
23566	14.784	2.8182	0.1	2129.7
23567	14.508	2.7273	0.1	2224.2
23568	14.6	2.8182	0.1	2191.8
23569	14.324	2.7273	0.1	2294.1
23570	14.416	2.8182	0.1	2258.9
23571	14.139	2.7273	0.1	2371.1
23572	14.231	2.8182	0.1	2332.4
23573	13.955	2.7273	0.1	2457.3
23574	14.047	2.8182	0.1	2414.1
23575	13.771	2.7273	0.1	2555.2
23576	13.863	2.8182	0.1	2506.3
23577	13.586	2.7273	0.1	2668.4
23578	13.678	2.8182	0.1	2612.1
23579	13.402	2.7273	0.1	2801.2
23580	13.494	2.8182	0.1	2735.3
23581	13.218	2.7273	0.1	2959.4
23582	13.31	2.8182	0.1	2881.2
23583	13.033	2.7273	0.1	3150.4
23584	13.125	2.8182	0.1	3056.2
23585	12.849	2.7273	0.1	3383.9
23586	12.941	2.8182	0.1	3268.8
23587	12.665	2.7273	0.1	3672.1
23588	12.757	2.8182	0.1	3529.7
23589	12.48	2.7273	0.1	4029.6
23590	12.573	2.8182	0.1	3851.8
23591	12.296	2.7273	0.1	4471.6
23592	12.388	2.8182	0.1	4249.1
23593	12.112	2.7273	0.1	5007.4
23594	12.204	2.8182	0.1	4732.6
23595	11.927	2.7273	0.1	5623.
23596	12.02	2.8182	0.1	5300.1
23597	11.743	2.7273	0.1	6248.5
23598	11.835	2.8182	0.1	5914.3
23599	11.651	2.8182	0.1	6473.7
23600	11.559	2.7273	0.1	6738.8
23601	23.724	2.9091	0.1	59.031
23602	23.816	3.	0.1	39.618
23603	23.908	2.9091	0.1	22.299
23604	23.539	2.9091	0.1	97.974
23605	23.631	3.	0.1	78.523
23606	23.355	2.9091	0.1	136.81
23607	23.447	3.	0.1	117.43
23608	23.171	2.9091	0.1	175.51
23609	23.263	3.	0.1	156.19
23610	22.986	2.9091	0.1	214.11
23611	23.078	3.	0.1	194.83
23612	22.802	2.9091	0.1	252.65
23613	22.894	3.	0.1	233.39
23614	22.618	2.9091	0.1	291.17
23615	22.71	3.	0.1	271.9
23616	22.433	2.9091	0.1	329.69
23617	22.525	3.	0.1	310.41
23618	22.249	2.9091	0.1	368.27
23619	22.341	3.	0.1	348.96
23620	22.065	2.9091	0.1	406.93
23621	22.157	3.	0.1	387.57
23622	21.88	2.9091	0.1	445.69
23623	21.973	3.	0.1	426.27
23624	21.696	2.9091	0.1	484.57
23625	21.788	3.	0.1	465.09
23626	21.512	2.9091	0.1	523.61
23627	21.604	3.	0.1	504.04
23628	21.327	2.9091	0.1	562.8
23629	21.42	3.	0.1	543.15
23630	21.143	2.9091	0.1	602.17
23631	21.235	3.	0.1	582.43
23632	20.959	2.9091	0.1	641.72
23633	21.051	3.	0.1	621.89
23634	20.775	2.9091	0.1	681.46
23635	20.867	3.	0.1	661.53
23636	20.59	2.9091	0.1	721.4
23637	20.682	3.	0.1	701.37
23638	20.406	2.9091	0.1	761.53
23639	20.498	3.	0.1	741.4
23640	20.222	2.9091	0.1	801.86
23641	20.314	3.	0.1	781.63
23642	20.037	2.9091	0.1	842.39
23643	20.129	3.	0.1	822.06
23644	19.853	2.9091	0.1	883.12
23645	19.945	3.	0.1	862.69
23646	19.669	2.9091	0.1	924.06
23647	19.761	3.	0.1	903.53
23648	19.484	2.9091	0.1	965.2
23649	19.576	3.	0.1	944.57
23650	19.3	2.9091	0.1	1006.5
23651	19.392	3.	0.1	985.81
23652	19.116	2.9091	0.1	1048.1
23653	19.208	3.	0.1	1027.2
23654	18.931	2.9091	0.1	1089.8
23655	19.024	3.	0.1	1068.9
23656	18.747	2.9091	0.1	1131.8
23657	18.839	3.	0.1	1110.7
23658	18.563	2.9091	0.1	1173.9
23659	18.655	3.	0.1	1152.8
23660	18.378	2.9091	0.1	1216.3
23661	18.471	3.	0.1	1195.
23662	18.194	2.9091	0.1	1258.8
23663	18.286	3.	0.1	1237.5
23664	18.01	2.9091	0.1	1301.6
23665	18.102	3.	0.1	1280.1
23666	17.825	2.9091	0.1	1344.6
23667	17.918	3.	0.1	1323.
23668	17.641	2.9091	0.1	1387.8
23669	17.733	3.	0.1	1366.1
23670	17.457	2.9091	0.1	1431.2
23671	17.549	3.	0.1	1409.4
23672	17.273	2.9091	0.1	1474.9
23673	17.365	3.	0.1	1453.
23674	17.088	2.9091	0.1	1518.9
23675	17.18	3.	0.1	1496.9
23676	16.904	2.9091	0.1	1563.2
23677	16.996	3.	0.1	1541.
23678	16.72	2.9091	0.1	1607.9
23679	16.812	3.	0.1	1585.5
23680	16.535	2.9091	0.1	1653.
23681	16.627	3.	0.1	1630.3
23682	16.351	2.9091	0.1	1698.5
23683	16.443	3.	0.1	1675.6
23684	16.167	2.9091	0.1	1744.7
23685	16.259	3.	0.1	1721.4
23686	15.982	2.9091	0.1	1791.5
23687	16.075	3.	0.1	1767.9
23688	15.798	2.9091	0.1	1839.3
23689	15.89	3.	0.1	1815.1
23690	15.614	2.9091	0.1	1888.1
23691	15.706	3.	0.1	1863.4
23692	15.429	2.9091	0.1	1938.3
23693	15.522	3.	0.1	1912.8
23694	15.245	2.9091	0.1	1990.2
23695	15.337	3.	0.1	1963.7
23696	15.061	2.9091	0.1	2044.3
23697	15.153	3.	0.1	2016.6
23698	14.876	2.9091	0.1	2101.1
23699	14.969	3.	0.1	2071.9
23700	14.692	2.9091	0.1	2161.6
23701	14.784	3.	0.1	2130.4
23702	14.508	2.9091	0.1	2226.5
23703	14.6	3.	0.1	2192.8
23704	14.324	2.9091	0.1	2297.2
23705	14.416	3.	0.1	2260.2
23706	14.139	2.9091	0.1	2375.4
23707	14.231	3.	0.1	2334.2
23708	13.955	2.9091	0.1	2463.2
23709	14.047	3.	0.1	2416.6
23710	13.771	2.9091	0.1	2563.2
23711	13.863	3.	0.1	2509.7
23712	13.586	2.9091	0.1	2679.1
23713	13.678	3.	0.1	2616.7
23714	13.402	2.9091	0.1	2815.5
23715	13.494	3.	0.1	2741.5
23716	13.218	2.9091	0.1	2978.3
23717	13.31	3.	0.1	2889.3
23718	13.033	2.9091	0.1	3175.1
23719	13.125	3.	0.1	3066.9
23720	12.849	2.9091	0.1	3415.6
23721	12.941	3.	0.1	3282.7
23722	12.665	2.9091	0.1	3711.1
23723	12.757	3.	0.1	3547.3
23724	12.48	2.9091	0.1	4074.3
23725	12.573	3.	0.1	3873.1
23726	12.296	2.9091	0.1	4514.9
23727	12.388	3.	0.1	4272.3
23728	12.112	2.9091	0.1	5032.3
23729	12.204	3.	0.1	4752.5
23730	11.927	2.9091	0.1	5599.5
23731	12.02	3.	0.1	5305.2
23732	11.743	2.9091	0.1	6145.6
23733	11.835	3.	0.1	5886.3
23734	11.651	3.	0.1	6399.2
23735	11.559	2.9091	0.1	6557.8
23736	23.724	3.0909	0.1	59.031
23737	23.816	3.1818	0.1	39.623
23738	23.908	3.0909	0.1	22.299
23739	23.539	3.0909	0.1	97.974
23740	23.631	3.1818	0.1	78.518
23741	23.355	3.0909	0.1	136.81
23742	23.447	3.1818	0.1	117.42
23743	23.171	3.0909	0.1	175.51
23744	23.263	3.1818	0.1	156.16
23745	22.986	3.0909	0.1	214.11
23746	23.078	3.1818	0.1	194.8
23747	22.802	3.0909	0.1	252.65
23748	22.894	3.1818	0.1	233.35
23749	22.618	3.0909	0.1	291.17
23750	22.71	3.1818	0.1	271.86
23751	22.433	3.0909	0.1	329.69
23752	22.525	3.1818	0.1	310.37
23753	22.249	3.0909	0.1	368.27
23754	22.341	3.1818	0.1	348.91
23755	22.065	3.0909	0.1	406.93
23756	22.157	3.1818	0.1	387.52
23757	21.88	3.0909	0.1	445.69
23758	21.973	3.1818	0.1	426.22
23759	21.696	3.0909	0.1	484.57
23760	21.788	3.1818	0.1	465.04
23761	21.512	3.0909	0.1	523.61
23762	21.604	3.1818	0.1	504.
23763	21.327	3.0909	0.1	562.8
23764	21.42	3.1818	0.1	543.12
23765	21.143	3.0909	0.1	602.17
23766	21.235	3.1818	0.1	582.4
23767	20.959	3.0909	0.1	641.72
23768	21.051	3.1818	0.1	621.87
23769	20.775	3.0909	0.1	681.46
23770	20.867	3.1818	0.1	661.51
23771	20.59	3.0909	0.1	721.4
23772	20.682	3.1818	0.1	701.36
23773	20.406	3.0909	0.1	761.53
23774	20.498	3.1818	0.1	741.39
23775	20.222	3.0909	0.1	801.86
23776	20.314	3.1818	0.1	781.63
23777	20.037	3.0909	0.1	842.39
23778	20.129	3.1818	0.1	822.07
23779	19.853	3.0909	0.1	883.12
23780	19.945	3.1818	0.1	862.71
23781	19.669	3.0909	0.1	924.06
23782	19.761	3.1818	0.1	903.55
23783	19.484	3.0909	0.1	965.2
23784	19.576	3.1818	0.1	944.59
23785	19.3	3.0909	0.1	1006.5
23786	19.392	3.1818	0.1	985.84
23787	19.116	3.0909	0.1	1048.1
23788	19.208	3.1818	0.1	1027.3
23789	18.931	3.0909	0.1	1089.8
23790	19.024	3.1818	0.1	1068.9
23791	18.747	3.0909	0.1	1131.8
23792	18.839	3.1818	0.1	1110.8
23793	18.563	3.0909	0.1	1173.9
23794	18.655	3.1818	0.1	1152.8
23795	18.378	3.0909	0.1	1216.3
23796	18.471	3.1818	0.1	1195.1
23797	18.194	3.0909	0.1	1258.8
23798	18.286	3.1818	0.1	1237.5
23799	18.01	3.0909	0.1	1301.6
23800	18.102	3.1818	0.1	1280.2
23801	17.825	3.0909	0.1	1344.6
23802	17.918	3.1818	0.1	1323.1
23803	17.641	3.0909	0.1	1387.8
23804	17.733	3.1818	0.1	1366.2
23805	17.457	3.0909	0.1	1431.2
23806	17.549	3.1818	0.1	1409.5
23807	17.273	3.0909	0.1	1474.9
23808	17.365	3.1818	0.1	1453.1
23809	17.088	3.0909	0.1	1518.9
23810	17.18	3.1818	0.1	1496.9
23811	16.904	3.0909	0.1	1563.2
23812	16.996	3.1818	0.1	1541.1
23813	16.72	3.0909	0.1	1607.9
23814	16.812	3.1818	0.1	1585.5
23815	16.535	3.0909	0.1	1653.
23816	16.627	3.1818	0.1	1630.4
23817	16.351	3.0909	0.1	1698.5
23818	16.443	3.1818	0.1	1675.7
23819	16.167	3.0909	0.1	1744.7
23820	16.259	3.1818	0.1	1721.5
23821	15.982	3.0909	0.1	1791.5
23822	16.075	3.1818	0.1	1767.9
23823	15.798	3.0909	0.1	1839.3
23824	15.89	3.1818	0.1	1815.1
23825	15.614	3.0909	0.1	1888.1
23826	15.706	3.1818	0.1	1863.3
23827	15.429	3.0909	0.1	1938.3
23828	15.522	3.1818	0.1	1912.7
23829	15.245	3.0909	0.1	1990.2
23830	15.337	3.1818	0.1	1963.5
23831	15.061	3.0909	0.1	2044.3
23832	15.153	3.1818	0.1	2016.3
23833	14.876	3.0909	0.1	2101.1
23834	14.969	3.1818	0.1	2071.5
23835	14.692	3.0909	0.1	2161.6
23836	14.784	3.1818	0.1	2129.7
23837	14.508	3.0909	0.1	2226.5
23838	14.6	3.1818	0.1	2191.8
23839	14.324	3.0909	0.1	2297.2
23840	14.416	3.1818	0.1	2258.9
23841	14.139	3.0909	0.1	2375.4
23842	14.231	3.1818	0.1	2332.4
23843	13.955	3.0909	0.1	2463.2
23844	14.047	3.1818	0.1	2414.1
23845	13.771	3.0909	0.1	2563.2
23846	13.863	3.1818	0.1	2506.3
23847	13.586	3.0909	0.1	2679.1
23848	13.678	3.1818	0.1	2612.1
23849	13.402	3.0909	0.1	2815.5
23850	13.494	3.1818	0.1	2735.3
23851	13.218	3.0909	0.1	2978.3
23852	13.31	3.1818	0.1	2881.2
23853	13.033	3.0909	0.1	3175.1
23854	13.125	3.1818	0.1	3056.2
23855	12.849	3.0909	0.1	3415.6
23856	12.941	3.1818	0.1	3268.8
23857	12.665	3.0909	0.1	3711.1
23858	12.757	3.1818	0.1	3529.7
23859	12.48	3.0909	0.1	4074.3
23860	12.573	3.1818	0.1	3851.8
23861	12.296	3.0909	0.1	4514.9
23862	12.388	3.1818	0.1	4249.1
23863	12.112	3.0909	0.1	5032.3
23864	12.204	3.1818	0.1	4732.6
23865	11.927	3.0909	0.1	5599.5
23866	12.02	3.1818	0.1	5300.1
23867	11.743	3.0909	0.1	6145.6
23868	11.835	3.1818	0.1	5914.3
23869	11.651	3.1818	0.1	6473.7
23870	11.559	3.0909	0.1	6557.8
23871	23.724	3.2727	0.1	59.031
23872	23.816	3.3636	0.1	39.637
23873	23.908	3.2727	0.1	22.305
23874	23.539	3.2727	0.1	97.955
23875	23.631	3.3636	0.1	78.503
23876	23.355	3.2727	0.1	136.77
23877	23.447	3.3636	0.1	117.38
23878	23.171	3.2727	0.1	175.46
23879	23.263	3.3636	0.1	156.09
23880	22.986	3.2727	0.1	214.04
23881	23.078	3.3636	0.1	194.7
23882	22.802	3.2727	0.1	252.57
23883	22.894	3.3636	0.1	233.23
23884	22.618	3.2727	0.1	291.07
23885	22.71	3.3636	0.1	271.72
23886	22.433	3.2727	0.1	329.6
23887	22.525	3.3636	0.1	310.22
23888	22.249	3.2727	0.1	368.17
23889	22.341	3.3636	0.1	348.76
23890	22.065	3.2727	0.1	406.83
23891	22.157	3.3636	0.1	387.37
23892	21.88	3.2727	0.1	445.6
23893	21.973	3.3636	0.1	426.08
23894	21.696	3.2727	0.1	484.49
23895	21.788	3.3636	0.1	464.91
23896	21.512	3.2727	0.1	523.53
23897	21.604	3.3636	0.1	503.88
23898	21.327	3.2727	0.1	562.74
23899	21.42	3.3636	0.1	543.01
23900	21.143	3.2727	0.1	602.12
23901	21.235	3.3636	0.1	582.32
23902	20.959	3.2727	0.1	641.68
23903	21.051	3.3636	0.1	621.8
23904	20.775	3.2727	0.1	681.43
23905	20.867	3.3636	0.1	661.46
23906	20.59	3.2727	0.1	721.38
23907	20.682	3.3636	0.1	701.32
23908	20.406	3.2727	0.1	761.52
23909	20.498	3.3636	0.1	741.38
23910	20.222	3.2727	0.1	801.87
23911	20.314	3.3636	0.1	781.64
23912	20.037	3.2727	0.1	842.41
23913	20.129	3.3636	0.1	822.09
23914	19.853	3.2727	0.1	883.16
23915	19.945	3.3636	0.1	862.75
23916	19.669	3.2727	0.1	924.11
23917	19.761	3.3636	0.1	903.61
23918	19.484	3.2727	0.1	965.26
23919	19.576	3.3636	0.1	944.67
23920	19.3	3.2727	0.1	1006.6
23921	19.392	3.3636	0.1	985.93
23922	19.116	3.2727	0.1	1048.2
23923	19.208	3.3636	0.1	1027.4
23924	18.931	3.2727	0.1	1089.9
23925	19.024	3.3636	0.1	1069.1
23926	18.747	3.2727	0.1	1131.9
23927	18.839	3.3636	0.1	1110.9
23928	18.563	3.2727	0.1	1174.
23929	18.655	3.3636	0.1	1153.
23930	18.378	3.2727	0.1	1216.4
23931	18.471	3.3636	0.1	1195.3
23932	18.194	3.2727	0.1	1258.9
23933	18.286	3.3636	0.1	1237.7
23934	18.01	3.2727	0.1	1301.7
23935	18.102	3.3636	0.1	1280.4
23936	17.825	3.2727	0.1	1344.7
23937	17.918	3.3636	0.1	1323.3
23938	17.641	3.2727	0.1	1387.9
23939	17.733	3.3636	0.1	1366.4
23940	17.457	3.2727	0.1	1431.4
23941	17.549	3.3636	0.1	1409.7
23942	17.273	3.2727	0.1	1475.1
23943	17.365	3.3636	0.1	1453.3
23944	17.088	3.2727	0.1	1519.1
23945	17.18	3.3636	0.1	1497.2
23946	16.904	3.2727	0.1	1563.4
23947	16.996	3.3636	0.1	1541.3
23948	16.72	3.2727	0.1	1608.
23949	16.812	3.3636	0.1	1585.8
23950	16.535	3.2727	0.1	1653.1
23951	16.627	3.3636	0.1	1630.6
23952	16.351	3.2727	0.1	1698.6
23953	16.443	3.3636	0.1	1675.9
23954	16.167	3.2727	0.1	1744.7
23955	16.259	3.3636	0.1	1721.6
23956	15.982	3.2727	0.1	1791.5
23957	16.075	3.3636	0.1	1768.
23958	15.798	3.2727	0.1	1839.2
23959	15.89	3.3636	0.1	1815.1
23960	15.614	3.2727	0.1	1887.9
23961	15.706	3.3636	0.1	1863.2
23962	15.429	3.2727	0.1	1938.
23963	15.522	3.3636	0.1	1912.4
23964	15.245	3.2727	0.1	1989.7
23965	15.337	3.3636	0.1	1963.
23966	15.061	3.2727	0.1	2043.5
23967	15.153	3.3636	0.1	2015.4
23968	14.876	3.2727	0.1	2100.
23969	14.969	3.3636	0.1	2070.1
23970	14.692	3.2727	0.1	2159.9
23971	14.784	3.3636	0.1	2127.7
23972	14.508	3.2727	0.1	2224.2
23973	14.6	3.3636	0.1	2189.
23974	14.324	3.2727	0.1	2294.1
23975	14.416	3.3636	0.1	2255.
23976	14.139	3.2727	0.1	2371.1
23977	14.231	3.3636	0.1	2327.
23978	13.955	3.2727	0.1	2457.3
23979	14.047	3.3636	0.1	2406.7
23980	13.771	3.2727	0.1	2555.2
23981	13.863	3.3636	0.1	2496.3
23982	13.586	3.2727	0.1	2668.4
23983	13.678	3.3636	0.1	2598.6
23984	13.402	3.2727	0.1	2801.2
23985	13.494	3.3636	0.1	2717.3
23986	13.218	3.2727	0.1	2959.4
23987	13.31	3.3636	0.1	2857.3
23988	13.033	3.2727	0.1	3150.4
23989	13.125	3.3636	0.1	3024.6
23990	12.849	3.2727	0.1	3383.9
23991	12.941	3.3636	0.1	3227.8
23992	12.665	3.2727	0.1	3672.1
23993	12.757	3.3636	0.1	3477.5
23994	12.48	3.2727	0.1	4029.6
23995	12.573	3.3636	0.1	3788.
23996	12.296	3.2727	0.1	4471.6
23997	12.388	3.3636	0.1	4177.1
23998	12.112	3.2727	0.1	5007.4
23999	12.204	3.3636	0.1	4665.8
24000	11.927	3.2727	0.1	5623.
24001	12.02	3.3636	0.1	5271.6
24002	11.743	3.2727	0.1	6248.5
24003	11.835	3.3636	0.1	5986.1
24004	11.651	3.3636	0.1	6703.9
24005	11.559	3.2727	0.1	6738.8
24006	23.724	3.4545	0.1	59.03
24007	23.816	3.5455	0.1	39.659
24008	23.908	3.4545	0.1	22.319
24009	23.539	3.4545	0.1	97.915
24010	23.631	3.5455	0.1	78.475
24011	23.355	3.4545	0.1	136.7
24012	23.447	3.5455	0.1	117.3
24013	23.171	3.4545	0.1	175.34
24014	23.263	3.5455	0.1	155.97
24015	22.986	3.4545	0.1	213.9
24016	23.078	3.5455	0.1	194.54
24017	22.802	3.4545	0.1	252.4
24018	22.894	3.5455	0.1	233.03
24019	22.618	3.4545	0.1	290.89
24020	22.71	3.5455	0.1	271.5
24021	22.433	3.4545	0.1	329.4
24022	22.525	3.5455	0.1	309.98
24023	22.249	3.4545	0.1	367.98
24024	22.341	3.5455	0.1	348.51
24025	22.065	3.4545	0.1	406.64
24026	22.157	3.5455	0.1	387.12
24027	21.88	3.4545	0.1	445.41
24028	21.973	3.5455	0.1	425.84
24029	21.696	3.4545	0.1	484.32
24030	21.788	3.5455	0.1	464.69
24031	21.512	3.4545	0.1	523.39
24032	21.604	3.5455	0.1	503.69
24033	21.327	3.4545	0.1	562.61
24034	21.42	3.5455	0.1	542.84
24035	21.143	3.4545	0.1	602.02
24036	21.235	3.5455	0.1	582.17
24037	20.959	3.4545	0.1	641.6
24038	21.051	3.5455	0.1	621.69
24039	20.775	3.4545	0.1	681.38
24040	20.867	3.5455	0.1	661.38
24041	20.59	3.4545	0.1	721.35
24042	20.682	3.5455	0.1	701.28
24043	20.406	3.4545	0.1	761.52
24044	20.498	3.5455	0.1	741.36
24045	20.222	3.4545	0.1	801.89
24046	20.314	3.5455	0.1	781.65
24047	20.037	3.4545	0.1	842.46
24048	20.129	3.5455	0.1	822.13
24049	19.853	3.4545	0.1	883.22
24050	19.945	3.5455	0.1	862.82
24051	19.669	3.4545	0.1	924.2
24052	19.761	3.5455	0.1	903.71
24053	19.484	3.4545	0.1	965.37
24054	19.576	3.5455	0.1	944.8
24055	19.3	3.4545	0.1	1006.7
24056	19.392	3.5455	0.1	986.08
24057	19.116	3.4545	0.1	1048.3
24058	19.208	3.5455	0.1	1027.6
24059	18.931	3.4545	0.1	1090.1
24060	19.024	3.5455	0.1	1069.3
24061	18.747	3.4545	0.1	1132.1
24062	18.839	3.5455	0.1	1111.1
24063	18.563	3.4545	0.1	1174.2
24064	18.655	3.5455	0.1	1153.2
24065	18.378	3.4545	0.1	1216.6
24066	18.471	3.5455	0.1	1195.5
24067	18.194	3.4545	0.1	1259.2
24068	18.286	3.5455	0.1	1238.
24069	18.01	3.4545	0.1	1302.
24070	18.102	3.5455	0.1	1280.7
24071	17.825	3.4545	0.1	1345.
24072	17.918	3.5455	0.1	1323.6
24073	17.641	3.4545	0.1	1388.2
24074	17.733	3.5455	0.1	1366.8
24075	17.457	3.4545	0.1	1431.7
24076	17.549	3.5455	0.1	1410.1
24077	17.273	3.4545	0.1	1475.4
24078	17.365	3.5455	0.1	1453.7
24079	17.088	3.4545	0.1	1519.4
24080	17.18	3.5455	0.1	1497.6
24081	16.904	3.4545	0.1	1563.7
24082	16.996	3.5455	0.1	1541.7
24083	16.72	3.4545	0.1	1608.3
24084	16.812	3.5455	0.1	1586.1
24085	16.535	3.4545	0.1	1653.4
24086	16.627	3.5455	0.1	1631.
24087	16.351	3.4545	0.1	1698.9
24088	16.443	3.5455	0.1	1676.2
24089	16.167	3.4545	0.1	1744.9
24090	16.259	3.5455	0.1	1721.9
24091	15.982	3.4545	0.1	1791.6
24092	16.075	3.5455	0.1	1768.1
24093	15.798	3.4545	0.1	1839.1
24094	15.89	3.5455	0.1	1815.1
24095	15.614	3.4545	0.1	1887.6
24096	15.706	3.5455	0.1	1863.
24097	15.429	3.4545	0.1	1937.4
24098	15.522	3.5455	0.1	1911.9
24099	15.245	3.4545	0.1	1988.7
24100	15.337	3.5455	0.1	1962.1
24101	15.061	3.4545	0.1	2042.
24102	15.153	3.5455	0.1	2013.9
24103	14.876	3.4545	0.1	2097.8
24104	14.969	3.5455	0.1	2067.9
24105	14.692	3.4545	0.1	2156.7
24106	14.784	3.5455	0.1	2124.5
24107	14.508	3.4545	0.1	2219.7
24108	14.6	3.5455	0.1	2184.4
24109	14.324	3.4545	0.1	2287.9
24110	14.416	3.5455	0.1	2248.6
24111	14.139	3.4545	0.1	2362.6
24112	14.231	3.5455	0.1	2318.2
24113	13.955	3.4545	0.1	2445.7
24114	14.047	3.5455	0.1	2394.8
24115	13.771	3.4545	0.1	2539.7
24116	13.863	3.5455	0.1	2480.2
24117	13.586	3.4545	0.1	2647.6
24118	13.678	3.5455	0.1	2577.
24119	13.402	3.4545	0.1	2773.5
24120	13.494	3.5455	0.1	2688.4
24121	13.218	3.4545	0.1	2922.7
24122	13.31	3.5455	0.1	2818.9
24123	13.033	3.4545	0.1	3102.3
24124	13.125	3.5455	0.1	2974.1
24125	12.849	3.4545	0.1	3322.
24126	12.941	3.5455	0.1	3161.8
24127	12.665	3.4545	0.1	3594.6
24128	12.757	3.5455	0.1	3392.7
24129	12.48	3.4545	0.1	3937.8
24130	12.573	3.5455	0.1	3682.
24131	12.296	3.4545	0.1	4375.6
24132	12.388	3.5455	0.1	4051.7
24133	12.112	3.4545	0.1	4937.3
24134	12.204	3.5455	0.1	4534.5
24135	11.927	3.4545	0.1	5644.8
24136	12.02	3.5455	0.1	5178.9
24137	11.743	3.4545	0.1	6449.5
24138	11.835	3.5455	0.1	6045.1
24139	11.651	3.5455	0.1	7124.2
24140	11.559	3.4545	0.1	7142.8
24141	23.724	3.6364	0.1	59.026
24142	23.816	3.7273	0.1	39.688
24143	23.908	3.6364	0.1	22.339
24144	23.539	3.6364	0.1	97.852
24145	23.631	3.7273	0.1	78.432
24146	23.355	3.6364	0.1	136.58
24147	23.447	3.7273	0.1	117.19
24148	23.171	3.6364	0.1	175.17
24149	23.263	3.7273	0.1	155.79
24150	22.986	3.6364	0.1	213.68
24151	23.078	3.7273	0.1	194.3
24152	22.802	3.6364	0.1	252.14
24153	22.894	3.7273	0.1	232.74
24154	22.618	3.6364	0.1	290.61
24155	22.71	3.7273	0.1	271.18
24156	22.433	3.6364	0.1	329.11
24157	22.525	3.7273	0.1	309.64
24158	22.249	3.6364	0.1	367.68
24159	22.341	3.7273	0.1	348.16
24160	22.065	3.6364	0.1	406.35
24161	22.157	3.7273	0.1	386.78
24162	21.88	3.6364	0.1	445.14
24163	21.973	3.7273	0.1	425.52
24164	21.696	3.6364	0.1	484.08
24165	21.788	3.7273	0.1	464.39
24166	21.512	3.6364	0.1	523.17
24167	21.604	3.7273	0.1	503.42
24168	21.327	3.6364	0.1	562.43
24169	21.42	3.7273	0.1	542.62
24170	21.143	3.6364	0.1	601.87
24171	21.235	3.7273	0.1	581.99
24172	20.959	3.6364	0.1	641.49
24173	21.051	3.7273	0.1	621.54
24174	20.775	3.6364	0.1	681.31
24175	20.867	3.7273	0.1	661.28
24176	20.59	3.6364	0.1	721.32
24177	20.682	3.7273	0.1	701.22
24178	20.406	3.6364	0.1	761.52
24179	20.498	3.7273	0.1	741.35
24180	20.222	3.6364	0.1	801.92
24181	20.314	3.7273	0.1	781.68
24182	20.037	3.6364	0.1	842.53
24183	20.129	3.7273	0.1	822.2
24184	19.853	3.6364	0.1	883.33
24185	19.945	3.7273	0.1	862.93
24186	19.669	3.6364	0.1	924.34
24187	19.761	3.7273	0.1	903.86
24188	19.484	3.6364	0.1	965.54
24189	19.576	3.7273	0.1	944.98
24190	19.3	3.6364	0.1	1006.9
24191	19.392	3.7273	0.1	986.31
24192	19.116	3.6364	0.1	1048.5
24193	19.208	3.7273	0.1	1027.8
24194	18.931	3.6364	0.1	1090.3
24195	19.024	3.7273	0.1	1069.6
24196	18.747	3.6364	0.1	1132.4
24197	18.839	3.7273	0.1	1111.5
24198	18.563	3.6364	0.1	1174.6
24199	18.655	3.7273	0.1	1153.6
24200	18.378	3.6364	0.1	1217.
24201	18.471	3.7273	0.1	1195.9
24202	18.194	3.6364	0.1	1259.6
24203	18.286	3.7273	0.1	1238.4
24204	18.01	3.6364	0.1	1302.4
24205	18.102	3.7273	0.1	1281.2
24206	17.825	3.6364	0.1	1345.4
24207	17.918	3.7273	0.1	1324.1
24208	17.641	3.6364	0.1	1388.7
24209	17.733	3.7273	0.1	1367.3
24210	17.457	3.6364	0.1	1432.1
24211	17.549	3.7273	0.1	1410.6
24212	17.273	3.6364	0.1	1475.9
24213	17.365	3.7273	0.1	1454.2
24214	17.088	3.6364	0.1	1519.9
24215	17.18	3.7273	0.1	1498.1
24216	16.904	3.6364	0.1	1564.2
24217	16.996	3.7273	0.1	1542.2
24218	16.72	3.6364	0.1	1608.8
24219	16.812	3.7273	0.1	1586.7
24220	16.535	3.6364	0.1	1653.8
24221	16.627	3.7273	0.1	1631.5
24222	16.351	3.6364	0.1	1699.2
24223	16.443	3.7273	0.1	1676.6
24224	16.167	3.6364	0.1	1745.1
24225	16.259	3.7273	0.1	1722.2
24226	15.982	3.6364	0.1	1791.7
24227	16.075	3.7273	0.1	1768.4
24228	15.798	3.6364	0.1	1839.
24229	15.89	3.7273	0.1	1815.1
24230	15.614	3.6364	0.1	1887.2
24231	15.706	3.7273	0.1	1862.7
24232	15.429	3.6364	0.1	1936.5
24233	15.522	3.7273	0.1	1911.2
24234	15.245	3.6364	0.1	1987.3
24235	15.337	3.7273	0.1	1960.8
24236	15.061	3.6364	0.1	2039.8
24237	15.153	3.7273	0.1	2011.9
24238	14.876	3.6364	0.1	2094.6
24239	14.969	3.7273	0.1	2064.9
24240	14.692	3.6364	0.1	2152.1
24241	14.784	3.7273	0.1	2120.1
24242	14.508	3.6364	0.1	2213.3
24243	14.6	3.7273	0.1	2178.2
24244	14.324	3.6364	0.1	2278.9
24245	14.416	3.7273	0.1	2240.
24246	14.139	3.6364	0.1	2350.4
24247	14.231	3.7273	0.1	2306.5
24248	13.955	3.6364	0.1	2429.2
24249	14.047	3.7273	0.1	2378.8
24250	13.771	3.6364	0.1	2517.4
24251	13.863	3.7273	0.1	2458.7
24252	13.586	3.6364	0.1	2617.8
24253	13.678	3.7273	0.1	2548.2
24254	13.402	3.6364	0.1	2733.8
24255	13.494	3.7273	0.1	2650.1
24256	13.218	3.6364	0.1	2870.3
24257	13.31	3.7273	0.1	2768.1
24258	13.033	3.6364	0.1	3033.6
24259	13.125	3.7273	0.1	2907.2
24260	12.849	3.6364	0.1	3232.7
24261	12.941	3.7273	0.1	3074.3
24262	12.665	3.6364	0.1	3480.6
24263	12.757	3.7273	0.1	3279.3
24264	12.48	3.6364	0.1	3797.
24265	12.573	3.7273	0.1	3536.9
24266	12.296	3.6364	0.1	4213.4
24267	12.388	3.7273	0.1	3871.
24268	12.112	3.6364	0.1	4782.8
24269	12.204	3.7273	0.1	4321.1
24270	11.927	3.6364	0.1	5592.7
24271	12.02	3.7273	0.1	4962.2
24272	11.743	3.6364	0.1	6734.7
24273	11.835	3.7273	0.1	5950.3
24274	11.651	3.7273	0.1	7589.8
24275	11.559	3.6364	0.1	7898.6
24276	23.724	3.8182	0.1	59.017
24277	23.816	3.9091	0.1	39.722
24278	23.908	3.8182	0.1	22.364
24279	23.539	3.8182	0.1	97.76
24280	23.631	3.9091	0.1	78.369
24281	23.355	3.8182	0.1	136.41
24282	23.447	3.9091	0.1	117.03
24283	23.171	3.8182	0.1	174.93
24284	23.263	3.9091	0.1	155.55
24285	22.986	3.8182	0.1	213.37
24286	23.078	3.9091	0.1	193.98
24287	22.802	3.8182	0.1	251.79
24288	22.894	3.9091	0.1	232.36
24289	22.618	3.8182	0.1	290.23
24290	22.71	3.9091	0.1	270.76
24291	22.433	3.8182	0.1	328.71
24292	22.525	3.9091	0.1	309.2
24293	22.249	3.8182	0.1	367.29
24294	22.341	3.9091	0.1	347.72
24295	22.065	3.8182	0.1	405.97
24296	22.157	3.9091	0.1	386.35
24297	21.88	3.8182	0.1	444.79
24298	21.973	3.9091	0.1	425.11
24299	21.696	3.8182	0.1	483.76
24300	21.788	3.9091	0.1	464.02
24301	21.512	3.8182	0.1	522.89
24302	21.604	3.9091	0.1	503.09
24303	21.327	3.8182	0.1	562.2
24304	21.42	3.9091	0.1	542.34
24305	21.143	3.8182	0.1	601.68
24306	21.235	3.9091	0.1	581.76
24307	20.959	3.8182	0.1	641.36
24308	21.051	3.9091	0.1	621.37
24309	20.775	3.8182	0.1	681.22
24310	20.867	3.9091	0.1	661.17
24311	20.59	3.8182	0.1	721.28
24312	20.682	3.9091	0.1	701.16
24313	20.406	3.8182	0.1	761.53
24314	20.498	3.9091	0.1	741.34
24315	20.222	3.8182	0.1	801.98
24316	20.314	3.9091	0.1	781.73
24317	20.037	3.8182	0.1	842.63
24318	20.129	3.9091	0.1	822.31
24319	19.853	3.8182	0.1	883.48
24320	19.945	3.9091	0.1	863.08
24321	19.669	3.8182	0.1	924.53
24322	19.761	3.9091	0.1	904.06
24323	19.484	3.8182	0.1	965.78
24324	19.576	3.9091	0.1	945.23
24325	19.3	3.8182	0.1	1007.2
24326	19.392	3.9091	0.1	986.6
24327	19.116	3.8182	0.1	1048.9
24328	19.208	3.9091	0.1	1028.2
24329	18.931	3.8182	0.1	1090.7
24330	19.024	3.9091	0.1	1069.9
24331	18.747	3.8182	0.1	1132.7
24332	18.839	3.9091	0.1	1111.9
24333	18.563	3.8182	0.1	1175.
24334	18.655	3.9091	0.1	1154.1
24335	18.378	3.8182	0.1	1217.4
24336	18.471	3.9091	0.1	1196.4
24337	18.194	3.8182	0.1	1260.1
24338	18.286	3.9091	0.1	1239.
24339	18.01	3.8182	0.1	1302.9
24340	18.102	3.9091	0.1	1281.7
24341	17.825	3.8182	0.1	1346.
24342	17.918	3.9091	0.1	1324.7
24343	17.641	3.8182	0.1	1389.2
24344	17.733	3.9091	0.1	1367.9
24345	17.457	3.8182	0.1	1432.7
24346	17.549	3.9091	0.1	1411.3
24347	17.273	3.8182	0.1	1476.5
24348	17.365	3.9091	0.1	1454.9
24349	17.088	3.8182	0.1	1520.5
24350	17.18	3.9091	0.1	1498.8
24351	16.904	3.8182	0.1	1564.8
24352	16.996	3.9091	0.1	1542.9
24353	16.72	3.8182	0.1	1609.4
24354	16.812	3.9091	0.1	1587.4
24355	16.535	3.8182	0.1	1654.3
24356	16.627	3.9091	0.1	1632.1
24357	16.351	3.8182	0.1	1699.6
24358	16.443	3.9091	0.1	1677.2
24359	16.167	3.8182	0.1	1745.4
24360	16.259	3.9091	0.1	1722.7
24361	15.982	3.8182	0.1	1791.8
24362	16.075	3.9091	0.1	1768.6
24363	15.798	3.8182	0.1	1838.8
24364	15.89	3.9091	0.1	1815.1
24365	15.614	3.8182	0.1	1886.6
24366	15.706	3.9091	0.1	1862.3
24367	15.429	3.8182	0.1	1935.5
24368	15.522	3.9091	0.1	1910.3
24369	15.245	3.8182	0.1	1985.5
24370	15.337	3.9091	0.1	1959.3
24371	15.061	3.8182	0.1	2037.
24372	15.153	3.9091	0.1	2009.5
24373	14.876	3.8182	0.1	2090.4
24374	14.969	3.9091	0.1	2061.2
24375	14.692	3.8182	0.1	2146.2
24376	14.784	3.9091	0.1	2114.8
24377	14.508	3.8182	0.1	2205.
24378	14.6	3.9091	0.1	2170.8
24379	14.324	3.8182	0.1	2267.6
24380	14.416	3.9091	0.1	2229.6
24381	14.139	3.8182	0.1	2334.9
24382	14.231	3.9091	0.1	2292.2
24383	13.955	3.8182	0.1	2408.3
24384	14.047	3.9091	0.1	2359.5
24385	13.771	3.8182	0.1	2489.4
24386	13.863	3.9091	0.1	2432.8
24387	13.586	3.8182	0.1	2580.5
24388	13.678	3.9091	0.1	2513.7
24389	13.402	3.8182	0.1	2684.4
24390	13.494	3.9091	0.1	2604.3
24391	13.218	3.8182	0.1	2805.
24392	13.31	3.9091	0.1	2707.6
24393	13.033	3.8182	0.1	2947.8
24394	13.125	3.9091	0.1	2827.6
24395	12.849	3.8182	0.1	3120.6
24396	12.941	3.9091	0.1	2969.9
24397	12.665	3.8182	0.1	3335.2
24398	12.757	3.9091	0.1	3143.
24399	12.48	3.8182	0.1	3610.7
24400	12.573	3.9091	0.1	3359.7
24401	12.296	3.8182	0.1	3979.4
24402	12.388	3.9091	0.1	3641.3
24403	12.112	3.8182	0.1	4504.3
24404	12.204	3.9091	0.1	4025.4
24405	11.927	3.8182	0.1	5333.8
24406	12.02	3.9091	0.1	4590.3
24407	11.743	3.8182	0.1	6841.9
24408	11.835	3.9091	0.1	5507.9
24409	11.651	3.9091	0.1	7644.3
24410	11.559	3.8182	0.1	9163.2
24411	23.724	4.	0.1	58.998
24412	23.816	4.0909	0.1	39.758
24413	23.908	4.	0.1	22.392
24414	23.539	4.	0.1	97.633
24415	23.631	4.0909	0.1	78.278
24416	23.355	4.	0.1	136.18
24417	23.447	4.0909	0.1	116.82
24418	23.171	4.	0.1	174.61
24419	23.263	4.0909	0.1	155.22
24420	22.986	4.	0.1	212.98
24421	23.078	4.0909	0.1	193.56
24422	22.802	4.	0.1	251.34
24423	22.894	4.0909	0.1	231.88
24424	22.618	4.	0.1	289.74
24425	22.71	4.0909	0.1	270.22
24426	22.433	4.	0.1	328.22
24427	22.525	4.0909	0.1	308.64
24428	22.249	4.	0.1	366.8
24429	22.341	4.0909	0.1	347.17
24430	22.065	4.	0.1	405.51
24431	22.157	4.0909	0.1	385.82
24432	21.88	4.	0.1	444.36
24433	21.973	4.0909	0.1	424.62
24434	21.696	4.	0.1	483.38
24435	21.788	4.0909	0.1	463.58
24436	21.512	4.	0.1	522.56
24437	21.604	4.0909	0.1	502.71
24438	21.327	4.	0.1	561.93
24439	21.42	4.0909	0.1	542.02
24440	21.143	4.	0.1	601.48
24441	21.235	4.0909	0.1	581.51
24442	20.959	4.	0.1	641.21
24443	21.051	4.0909	0.1	621.19
24444	20.775	4.	0.1	681.14
24445	20.867	4.0909	0.1	661.06
24446	20.59	4.	0.1	721.26
24447	20.682	4.0909	0.1	701.11
24448	20.406	4.	0.1	761.57
24449	20.498	4.0909	0.1	741.37
24450	20.222	4.	0.1	802.08
24451	20.314	4.0909	0.1	781.81
24452	20.037	4.	0.1	842.79
24453	20.129	4.0909	0.1	822.45
24454	19.853	4.	0.1	883.69
24455	19.945	4.0909	0.1	863.29
24456	19.669	4.	0.1	924.79
24457	19.761	4.0909	0.1	904.32
24458	19.484	4.	0.1	966.08
24459	19.576	4.0909	0.1	945.55
24460	19.3	4.	0.1	1007.6
24461	19.392	4.0909	0.1	986.98
24462	19.116	4.	0.1	1049.3
24463	19.208	4.0909	0.1	1028.6
24464	18.931	4.	0.1	1091.2
24465	19.024	4.0909	0.1	1070.4
24466	18.747	4.	0.1	1133.2
24467	18.839	4.0909	0.1	1112.4
24468	18.563	4.	0.1	1175.5
24469	18.655	4.0909	0.1	1154.6
24470	18.378	4.	0.1	1218.
24471	18.471	4.0909	0.1	1197.
24472	18.194	4.	0.1	1260.7
24473	18.286	4.0909	0.1	1239.6
24474	18.01	4.	0.1	1303.6
24475	18.102	4.0909	0.1	1282.4
24476	17.825	4.	0.1	1346.7
24477	17.918	4.0909	0.1	1325.5
24478	17.641	4.	0.1	1390.
24479	17.733	4.0909	0.1	1368.7
24480	17.457	4.	0.1	1433.5
24481	17.549	4.0909	0.1	1412.1
24482	17.273	4.	0.1	1477.3
24483	17.365	4.0909	0.1	1455.8
24484	17.088	4.	0.1	1521.3
24485	17.18	4.0909	0.1	1499.6
24486	16.904	4.	0.1	1565.5
24487	16.996	4.0909	0.1	1543.8
24488	16.72	4.	0.1	1610.1
24489	16.812	4.0909	0.1	1588.2
24490	16.535	4.	0.1	1655.
24491	16.627	4.0909	0.1	1632.9
24492	16.351	4.	0.1	1700.2
24493	16.443	4.0909	0.1	1677.9
24494	16.167	4.	0.1	1745.8
24495	16.259	4.0909	0.1	1723.2
24496	15.982	4.	0.1	1792.
24497	16.075	4.0909	0.1	1769.
24498	15.798	4.	0.1	1838.7
24499	15.89	4.0909	0.1	1815.2
24500	15.614	4.	0.1	1886.
24501	15.706	4.0909	0.1	1862.
24502	15.429	4.	0.1	1934.2
24503	15.522	4.0909	0.1	1909.4
24504	15.245	4.	0.1	1983.4
24505	15.337	4.0909	0.1	1957.6
24506	15.061	4.	0.1	2033.7
24507	15.153	4.0909	0.1	2006.7
24508	14.876	4.	0.1	2085.6
24509	14.969	4.0909	0.1	2057.
24510	14.692	4.	0.1	2139.3
24511	14.784	4.0909	0.1	2108.8
24512	14.508	4.	0.1	2195.4
24513	14.6	4.0909	0.1	2162.2
24514	14.324	4.	0.1	2254.3
24515	14.416	4.0909	0.1	2217.8
24516	14.139	4.	0.1	2316.9
24517	14.231	4.0909	0.1	2276.1
24518	13.955	4.	0.1	2384.
24519	14.047	4.0909	0.1	2337.7
24520	13.771	4.	0.1	2457.
24521	13.863	4.0909	0.1	2403.6
24522	13.586	4.	0.1	2537.4
24523	13.678	4.0909	0.1	2474.8
24524	13.402	4.	0.1	2627.4
24525	13.494	4.0909	0.1	2552.9
24526	13.218	4.	0.1	2729.9
24527	13.31	4.0909	0.1	2639.9
24528	13.033	4.	0.1	2849.3
24529	13.125	4.0909	0.1	2738.8
24530	12.849	4.	0.1	2991.6
24531	12.941	4.0909	0.1	2853.6
24532	12.665	4.	0.1	3166.3
24533	12.757	4.0909	0.1	2990.8
24534	12.48	4.	0.1	3388.8
24535	12.573	4.0909	0.1	3160.
24536	12.296	4.	0.1	3685.7
24537	12.388	4.0909	0.1	3377.1
24538	12.112	4.	0.1	4110.9
24539	12.204	4.0909	0.1	3669.5
24540	11.927	4.	0.1	4770.3
24541	12.02	4.0909	0.1	4092.3
24542	11.743	4.	0.1	6365.5
24543	11.835	4.0909	0.1	4751.5
24544	11.651	4.0909	0.1	6454.5
24545	11.559	4.	0.1	11403
24546	23.724	4.1818	0.1	58.964
24547	23.816	4.2727	0.1	39.792
24548	23.908	4.1818	0.1	22.423
24549	23.539	4.1818	0.1	97.46
24550	23.631	4.2727	0.1	78.149
24551	23.355	4.1818	0.1	135.88
24552	23.447	4.2727	0.1	116.54
24553	23.171	4.1818	0.1	174.19
24554	23.263	4.2727	0.1	154.81
24555	22.986	4.1818	0.1	212.48
24556	23.078	4.2727	0.1	193.04
24557	22.802	4.1818	0.1	250.78
24558	22.894	4.2727	0.1	231.28
24559	22.618	4.1818	0.1	289.15
24560	22.71	4.2727	0.1	269.58
24561	22.433	4.1818	0.1	327.62
24562	22.525	4.2727	0.1	307.99
24563	22.249	4.1818	0.1	366.22
24564	22.341	4.2727	0.1	346.53
24565	22.065	4.1818	0.1	404.96
24566	22.157	4.2727	0.1	385.22
24567	21.88	4.1818	0.1	443.87
24568	21.973	4.2727	0.1	424.07
24569	21.696	4.1818	0.1	482.95
24570	21.788	4.2727	0.1	463.09
24571	21.512	4.1818	0.1	522.2
24572	21.604	4.2727	0.1	502.3
24573	21.327	4.1818	0.1	561.64
24574	21.42	4.2727	0.1	541.68
24575	21.143	4.1818	0.1	601.26
24576	21.235	4.2727	0.1	581.26
24577	20.959	4.1818	0.1	641.07
24578	21.051	4.2727	0.1	621.01
24579	20.775	4.1818	0.1	681.07
24580	20.867	4.2727	0.1	660.96
24581	20.59	4.1818	0.1	721.26
24582	20.682	4.2727	0.1	701.1
24583	20.406	4.1818	0.1	761.64
24584	20.498	4.2727	0.1	741.43
24585	20.222	4.1818	0.1	802.22
24586	20.314	4.2727	0.1	781.95
24587	20.037	4.1818	0.1	842.99
24588	20.129	4.2727	0.1	822.66
24589	19.853	4.1818	0.1	883.96
24590	19.945	4.2727	0.1	863.57
24591	19.669	4.1818	0.1	925.12
24592	19.761	4.2727	0.1	904.66
24593	19.484	4.1818	0.1	966.47
24594	19.576	4.2727	0.1	945.95
24595	19.3	4.1818	0.1	1008.
24596	19.392	4.2727	0.1	987.44
24597	19.116	4.1818	0.1	1049.8
24598	19.208	4.2727	0.1	1029.1
24599	18.931	4.1818	0.1	1091.7
24600	19.024	4.2727	0.1	1071.
24601	18.747	4.1818	0.1	1133.8
24602	18.839	4.2727	0.1	1113.1
24603	18.563	4.1818	0.1	1176.2
24604	18.655	4.2727	0.1	1155.3
24605	18.378	4.1818	0.1	1218.7
24606	18.471	4.2727	0.1	1197.8
24607	18.194	4.1818	0.1	1261.4
24608	18.286	4.2727	0.1	1240.4
24609	18.01	4.1818	0.1	1304.4
24610	18.102	4.2727	0.1	1283.3
24611	17.825	4.1818	0.1	1347.5
24612	17.918	4.2727	0.1	1326.3
24613	17.641	4.1818	0.1	1390.8
24614	17.733	4.2727	0.1	1369.6
24615	17.457	4.1818	0.1	1434.4
24616	17.549	4.2727	0.1	1413.1
24617	17.273	4.1818	0.1	1478.2
24618	17.365	4.2727	0.1	1456.7
24619	17.088	4.1818	0.1	1522.2
24620	17.18	4.2727	0.1	1500.6
24621	16.904	4.1818	0.1	1566.4
24622	16.996	4.2727	0.1	1544.8
24623	16.72	4.1818	0.1	1611.
24624	16.812	4.2727	0.1	1589.1
24625	16.535	4.1818	0.1	1655.8
24626	16.627	4.2727	0.1	1633.8
24627	16.351	4.1818	0.1	1700.9
24628	16.443	4.2727	0.1	1678.7
24629	16.167	4.1818	0.1	1746.3
24630	16.259	4.2727	0.1	1723.9
24631	15.982	4.1818	0.1	1792.2
24632	16.075	4.2727	0.1	1769.4
24633	15.798	4.1818	0.1	1838.5
24634	15.89	4.2727	0.1	1815.3
24635	15.614	4.1818	0.1	1885.4
24636	15.706	4.2727	0.1	1861.6
24637	15.429	4.1818	0.1	1932.8
24638	15.522	4.2727	0.1	1908.4
24639	15.245	4.1818	0.1	1981.
24640	15.337	4.2727	0.1	1955.7
24641	15.061	4.1818	0.1	2030.1
24642	15.153	4.2727	0.1	2003.7
24643	14.876	4.1818	0.1	2080.2
24644	14.969	4.2727	0.1	2052.5
24645	14.692	4.1818	0.1	2131.6
24646	14.784	4.2727	0.1	2102.1
24647	14.508	4.1818	0.1	2184.6
24648	14.6	4.2727	0.1	2152.9
24649	14.324	4.1818	0.1	2239.6
24650	14.416	4.2727	0.1	2204.9
24651	14.139	4.1818	0.1	2296.9
24652	14.231	4.2727	0.1	2258.6
24653	13.955	4.1818	0.1	2357.2
24654	14.047	4.2727	0.1	2314.1
24655	13.771	4.1818	0.1	2421.3
24656	13.863	4.2727	0.1	2372.1
24657	13.586	4.1818	0.1	2490.2
24658	13.678	4.2727	0.1	2433.1
24659	13.402	4.1818	0.1	2565.2
24660	13.494	4.2727	0.1	2497.9
24661	13.218	4.1818	0.1	2648.4
24662	13.31	4.2727	0.1	2567.8
24663	13.033	4.1818	0.1	2742.5
24664	13.125	4.2727	0.1	2644.5
24665	12.849	4.1818	0.1	2851.8
24666	12.941	4.2727	0.1	2730.5
24667	12.665	4.1818	0.1	2982.8
24668	12.757	4.2727	0.1	2829.8
24669	12.48	4.1818	0.1	3145.8
24670	12.573	4.2727	0.1	2948.5
24671	12.296	4.1818	0.1	3357.4
24672	12.388	4.2727	0.1	3096.1
24673	12.112	4.1818	0.1	3646.6
24674	12.204	4.2727	0.1	3287.2
24675	11.927	4.1818	0.1	4071.4
24676	12.02	4.2727	0.1	3543.8
24677	11.743	4.1818	0.1	4854.9
24678	11.835	4.2727	0.1	3905.8
24679	11.651	4.2727	0.1	4566.6
24680	11.559	4.1818	0.1	4226.
24681	23.724	4.3636	0.1	58.907
24682	23.816	4.4545	0.1	39.817
24683	23.908	4.3636	0.1	22.453
24684	23.539	4.3636	0.1	97.226
24685	23.631	4.4545	0.1	77.969
24686	23.355	4.3636	0.1	135.48
24687	23.447	4.4545	0.1	116.17
24688	23.171	4.3636	0.1	173.67
24689	23.263	4.4545	0.1	154.28
24690	22.986	4.3636	0.1	211.86
24691	23.078	4.4545	0.1	192.39
24692	22.802	4.3636	0.1	250.1
24693	22.894	4.4545	0.1	230.55
24694	22.618	4.3636	0.1	288.44
24695	22.71	4.4545	0.1	268.82
24696	22.433	4.3636	0.1	326.92
24697	22.525	4.4545	0.1	307.23
24698	22.249	4.3636	0.1	365.56
24699	22.341	4.4545	0.1	345.8
24700	22.065	4.3636	0.1	404.35
24701	22.157	4.4545	0.1	384.55
24702	21.88	4.3636	0.1	443.33
24703	21.973	4.4545	0.1	423.47
24704	21.696	4.3636	0.1	482.48
24705	21.788	4.4545	0.1	462.58
24706	21.512	4.3636	0.1	521.82
24707	21.604	4.4545	0.1	501.87
24708	21.327	4.3636	0.1	561.34
24709	21.42	4.4545	0.1	541.35
24710	21.143	4.3636	0.1	601.05
24711	21.235	4.4545	0.1	581.02
24712	20.959	4.3636	0.1	640.95
24713	21.051	4.4545	0.1	620.87
24714	20.775	4.3636	0.1	681.03
24715	20.867	4.4545	0.1	660.91
24716	20.59	4.3636	0.1	721.3
24717	20.682	4.4545	0.1	701.14
24718	20.406	4.3636	0.1	761.77
24719	20.498	4.4545	0.1	741.55
24720	20.222	4.3636	0.1	802.42
24721	20.314	4.4545	0.1	782.15
24722	20.037	4.3636	0.1	843.27
24723	20.129	4.4545	0.1	822.94
24724	19.853	4.3636	0.1	884.3
24725	19.945	4.4545	0.1	863.92
24726	19.669	4.3636	0.1	925.53
24727	19.761	4.4545	0.1	905.09
24728	19.484	4.3636	0.1	966.95
24729	19.576	4.4545	0.1	946.45
24730	19.3	4.3636	0.1	1008.6
24731	19.392	4.4545	0.1	988.
24732	19.116	4.3636	0.1	1050.4
24733	19.208	4.4545	0.1	1029.7
24734	18.931	4.3636	0.1	1092.4
24735	19.024	4.4545	0.1	1071.7
24736	18.747	4.3636	0.1	1134.6
24737	18.839	4.4545	0.1	1113.8
24738	18.563	4.3636	0.1	1176.9
24739	18.655	4.4545	0.1	1156.1
24740	18.378	4.3636	0.1	1219.5
24741	18.471	4.4545	0.1	1198.6
24742	18.194	4.3636	0.1	1262.3
24743	18.286	4.4545	0.1	1241.3
24744	18.01	4.3636	0.1	1305.3
24745	18.102	4.4545	0.1	1284.3
24746	17.825	4.3636	0.1	1348.5
24747	17.918	4.4545	0.1	1327.4
24748	17.641	4.3636	0.1	1391.8
24749	17.733	4.4545	0.1	1370.7
24750	17.457	4.3636	0.1	1435.4
24751	17.549	4.4545	0.1	1414.2
24752	17.273	4.3636	0.1	1479.2
24753	17.365	4.4545	0.1	1457.9
24754	17.088	4.3636	0.1	1523.2
24755	17.18	4.4545	0.1	1501.8
24756	16.904	4.3636	0.1	1567.5
24757	16.996	4.4545	0.1	1545.9
24758	16.72	4.3636	0.1	1612.
24759	16.812	4.4545	0.1	1590.2
24760	16.535	4.3636	0.1	1656.7
24761	16.627	4.4545	0.1	1634.8
24762	16.351	4.3636	0.1	1701.7
24763	16.443	4.4545	0.1	1679.6
24764	16.167	4.3636	0.1	1746.9
24765	16.259	4.4545	0.1	1724.6
24766	15.982	4.3636	0.1	1792.5
24767	16.075	4.4545	0.1	1769.9
24768	15.798	4.3636	0.1	1838.4
24769	15.89	4.4545	0.1	1815.5
24770	15.614	4.3636	0.1	1884.7
24771	15.706	4.4545	0.1	1861.3
24772	15.429	4.3636	0.1	1931.4
24773	15.522	4.4545	0.1	1907.4
24774	15.245	4.3636	0.1	1978.5
24775	15.337	4.4545	0.1	1953.8
24776	15.061	4.3636	0.1	2026.2
24777	15.153	4.4545	0.1	2000.6
24778	14.876	4.3636	0.1	2074.4
24779	14.969	4.4545	0.1	2047.7
24780	14.692	4.3636	0.1	2123.4
24781	14.784	4.4545	0.1	2095.2
24782	14.508	4.3636	0.1	2173.2
24783	14.6	4.4545	0.1	2143.1
24784	14.324	4.3636	0.1	2223.9
24785	14.416	4.4545	0.1	2191.5
24786	14.139	4.3636	0.1	2275.8
24787	14.231	4.4545	0.1	2240.3
24788	13.955	4.3636	0.1	2329.
24789	14.047	4.4545	0.1	2289.6
24790	13.771	4.3636	0.1	2383.8
24791	13.863	4.4545	0.1	2339.5
24792	13.586	4.3636	0.1	2440.7
24793	13.678	4.4545	0.1	2390.
24794	13.402	4.3636	0.1	2500.3
24795	13.494	4.4545	0.1	2441.4
24796	13.218	4.3636	0.1	2563.4
24797	13.31	4.4545	0.1	2493.9
24798	13.033	4.3636	0.1	2631.6
24799	13.125	4.4545	0.1	2548.1
24800	12.849	4.3636	0.1	2707.1
24801	12.941	4.4545	0.1	2605.1
24802	12.665	4.3636	0.1	2793.3
24803	12.757	4.4545	0.1	2666.5
24804	12.48	4.3636	0.1	2895.3
24805	12.573	4.4545	0.1	2735.
24806	12.296	4.3636	0.1	3020.5
24807	12.388	4.4545	0.1	2814.5
24808	12.112	4.3636	0.1	3176.4
24809	12.204	4.4545	0.1	2909.4
24810	11.927	4.3636	0.1	3362.8
24811	12.02	4.4545	0.1	3022.
24812	11.743	4.3636	0.1	3566.8
24813	11.835	4.4545	0.1	3137.6
24814	11.651	4.4545	0.1	3302.9
24815	11.559	4.3636	0.1	2994.
24816	23.724	4.5455	0.1	58.813
24817	23.816	4.6364	0.1	39.824
24818	23.908	4.5455	0.1	22.477
24819	23.539	4.5455	0.1	96.914
24820	23.631	4.6364	0.1	77.715
24821	23.355	4.5455	0.1	134.98
24822	23.447	4.6364	0.1	115.69
24823	23.171	4.5455	0.1	173.02
24824	23.263	4.6364	0.1	153.62
24825	22.986	4.5455	0.1	211.1
24826	23.078	4.6364	0.1	191.59
24827	22.802	4.5455	0.1	249.3
24828	22.894	4.6364	0.1	229.69
24829	22.618	4.5455	0.1	287.63
24830	22.71	4.6364	0.1	267.94
24831	22.433	4.5455	0.1	326.14
24832	22.525	4.6364	0.1	306.38
24833	22.249	4.5455	0.1	364.83
24834	22.341	4.6364	0.1	345.01
24835	22.065	4.5455	0.1	403.7
24836	22.157	4.6364	0.1	383.84
24837	21.88	4.5455	0.1	442.76
24838	21.973	4.6364	0.1	422.86
24839	21.696	4.5455	0.1	482.01
24840	21.788	4.6364	0.1	462.07
24841	21.512	4.5455	0.1	521.45
24842	21.604	4.6364	0.1	501.47
24843	21.327	4.5455	0.1	561.07
24844	21.42	4.6364	0.1	541.06
24845	21.143	4.5455	0.1	600.88
24846	21.235	4.6364	0.1	580.83
24847	20.959	4.5455	0.1	640.87
24848	21.051	4.6364	0.1	620.79
24849	20.775	4.5455	0.1	681.05
24850	20.867	4.6364	0.1	660.93
24851	20.59	4.5455	0.1	721.42
24852	20.682	4.6364	0.1	701.25
24853	20.406	4.5455	0.1	761.97
24854	20.498	4.6364	0.1	741.76
24855	20.222	4.5455	0.1	802.71
24856	20.314	4.6364	0.1	782.45
24857	20.037	4.5455	0.1	843.63
24858	20.129	4.6364	0.1	823.32
24859	19.853	4.5455	0.1	884.75
24860	19.945	4.6364	0.1	864.38
24861	19.669	4.5455	0.1	926.05
24862	19.761	4.6364	0.1	905.63
24863	19.484	4.5455	0.1	967.54
24864	19.576	4.6364	0.1	947.06
24865	19.3	4.5455	0.1	1009.2
24866	19.392	4.6364	0.1	988.68
24867	19.116	4.5455	0.1	1051.1
24868	19.208	4.6364	0.1	1030.5
24869	18.931	4.5455	0.1	1093.1
24870	19.024	4.6364	0.1	1072.5
24871	18.747	4.5455	0.1	1135.4
24872	18.839	4.6364	0.1	1114.7
24873	18.563	4.5455	0.1	1177.8
24874	18.655	4.6364	0.1	1157.1
24875	18.378	4.5455	0.1	1220.5
24876	18.471	4.6364	0.1	1199.6
24877	18.194	4.5455	0.1	1263.3
24878	18.286	4.6364	0.1	1242.4
24879	18.01	4.5455	0.1	1306.3
24880	18.102	4.6364	0.1	1285.4
24881	17.825	4.5455	0.1	1349.6
24882	17.918	4.6364	0.1	1328.5
24883	17.641	4.5455	0.1	1393.
24884	17.733	4.6364	0.1	1371.9
24885	17.457	4.5455	0.1	1436.6
24886	17.549	4.6364	0.1	1415.4
24887	17.273	4.5455	0.1	1480.4
24888	17.365	4.6364	0.1	1459.1
24889	17.088	4.5455	0.1	1524.4
24890	17.18	4.6364	0.1	1503.
24891	16.904	4.5455	0.1	1568.7
24892	16.996	4.6364	0.1	1547.2
24893	16.72	4.5455	0.1	1613.1
24894	16.812	4.6364	0.1	1591.5
24895	16.535	4.5455	0.1	1657.7
24896	16.627	4.6364	0.1	1636.
24897	16.351	4.5455	0.1	1702.6
24898	16.443	4.6364	0.1	1680.7
24899	16.167	4.5455	0.1	1747.6
24900	16.259	4.6364	0.1	1725.5
24901	15.982	4.5455	0.1	1792.9
24902	16.075	4.6364	0.1	1770.5
24903	15.798	4.5455	0.1	1838.4
24904	15.89	4.6364	0.1	1815.7
24905	15.614	4.5455	0.1	1884.
24906	15.706	4.6364	0.1	1861.
24907	15.429	4.5455	0.1	1929.9
24908	15.522	4.6364	0.1	1906.5
24909	15.245	4.5455	0.1	1976.
24910	15.337	4.6364	0.1	1952.
24911	15.061	4.5455	0.1	2022.2
24912	15.153	4.6364	0.1	1997.5
24913	14.876	4.5455	0.1	2068.5
24914	14.969	4.6364	0.1	2042.9
24915	14.692	4.5455	0.1	2115.
24916	14.784	4.6364	0.1	2088.3
24917	14.508	4.5455	0.1	2161.5
24918	14.6	4.6364	0.1	2133.3
24919	14.324	4.5455	0.1	2207.9
24920	14.416	4.6364	0.1	2177.9
24921	14.139	4.5455	0.1	2254.1
24922	14.231	4.6364	0.1	2221.9
24923	13.955	4.5455	0.1	2300.1
24924	14.047	4.6364	0.1	2265.
24925	13.771	4.5455	0.1	2345.6
24926	13.863	4.6364	0.1	2306.8
24927	13.586	4.5455	0.1	2390.6
24928	13.678	4.6364	0.1	2347.
24929	13.402	4.5455	0.1	2434.7
24930	13.494	4.6364	0.1	2385.1
24931	13.218	4.5455	0.1	2478.1
24932	13.31	4.6364	0.1	2420.6
24933	13.033	4.5455	0.1	2520.7
24934	13.125	4.6364	0.1	2453.
24935	12.849	4.5455	0.1	2562.9
24936	12.941	4.6364	0.1	2481.9
24937	12.665	4.5455	0.1	2605.6
24938	12.757	4.6364	0.1	2507.
24939	12.48	4.5455	0.1	2649.8
24940	12.573	4.6364	0.1	2528.3
24941	12.296	4.5455	0.1	2696.2
24942	12.388	4.6364	0.1	2546.
24943	12.112	4.5455	0.1	2743.
24944	12.204	4.6364	0.1	2559.
24945	11.927	4.5455	0.1	2775.2
24946	12.02	4.6364	0.1	2563.9
24947	11.743	4.5455	0.1	2813.1
24948	11.835	4.6364	0.1	2546.1
24949	11.651	4.6364	0.1	2575.9
24950	11.559	4.5455	0.1	2321.9
24951	23.724	4.7273	0.1	58.664
24952	23.816	4.8182	0.1	39.795
24953	23.908	4.7273	0.1	22.488
24954	23.539	4.7273	0.1	96.495
24955	23.631	4.8182	0.1	77.358
24956	23.355	4.7273	0.1	134.34
24957	23.447	4.8182	0.1	115.06
24958	23.171	4.7273	0.1	172.22
24959	23.263	4.8182	0.1	152.79
24960	22.986	4.7273	0.1	210.21
24961	23.078	4.8182	0.1	190.65
24962	22.802	4.7273	0.1	248.37
24963	22.894	4.8182	0.1	228.7
24964	22.618	4.7273	0.1	286.73
24965	22.71	4.8182	0.1	266.97
24966	22.433	4.7273	0.1	325.29
24967	22.525	4.8182	0.1	305.47
24968	22.249	4.7273	0.1	364.06
24969	22.341	4.8182	0.1	344.19
24970	22.065	4.7273	0.1	403.04
24971	22.157	4.8182	0.1	383.13
24972	21.88	4.7273	0.1	442.21
24973	21.973	4.8182	0.1	422.27
24974	21.696	4.7273	0.1	481.57
24975	21.788	4.8182	0.1	461.6
24976	21.512	4.7273	0.1	521.12
24977	21.604	4.8182	0.1	501.13
24978	21.327	4.7273	0.1	560.86
24979	21.42	4.8182	0.1	540.83
24980	21.143	4.7273	0.1	600.78
24981	21.235	4.8182	0.1	580.72
24982	20.959	4.7273	0.1	640.88
24983	21.051	4.8182	0.1	620.79
24984	20.775	4.7273	0.1	681.16
24985	20.867	4.8182	0.1	661.04
24986	20.59	4.7273	0.1	721.63
24987	20.682	4.8182	0.1	701.47
24988	20.406	4.7273	0.1	762.27
24989	20.498	4.8182	0.1	742.07
24990	20.222	4.7273	0.1	803.1
24991	20.314	4.8182	0.1	782.85
24992	20.037	4.7273	0.1	844.1
24993	20.129	4.8182	0.1	823.81
24994	19.853	4.7273	0.1	885.3
24995	19.945	4.8182	0.1	864.96
24996	19.669	4.7273	0.1	926.67
24997	19.761	4.8182	0.1	906.28
24998	19.484	4.7273	0.1	968.24
24999	19.576	4.8182	0.1	947.79
25000	19.3	4.7273	0.1	1010.
25001	19.392	4.8182	0.1	989.48
25002	19.116	4.7273	0.1	1051.9
25003	19.208	4.8182	0.1	1031.4
25004	18.931	4.7273	0.1	1094.1
25005	19.024	4.8182	0.1	1073.4
25006	18.747	4.7273	0.1	1136.4
25007	18.839	4.8182	0.1	1115.7
25008	18.563	4.7273	0.1	1178.9
25009	18.655	4.8182	0.1	1158.1
25010	18.378	4.7273	0.1	1221.6
25011	18.471	4.8182	0.1	1200.8
25012	18.194	4.7273	0.1	1264.5
25013	18.286	4.8182	0.1	1243.6
25014	18.01	4.7273	0.1	1307.5
25015	18.102	4.8182	0.1	1286.6
25016	17.825	4.7273	0.1	1350.8
25017	17.918	4.8182	0.1	1329.8
25018	17.641	4.7273	0.1	1394.3
25019	17.733	4.8182	0.1	1373.2
25020	17.457	4.7273	0.1	1437.9
25021	17.549	4.8182	0.1	1416.8
25022	17.273	4.7273	0.1	1481.8
25023	17.365	4.8182	0.1	1460.5
25024	17.088	4.7273	0.1	1525.8
25025	17.18	4.8182	0.1	1504.5
25026	16.904	4.7273	0.1	1570.
25027	16.996	4.8182	0.1	1548.6
25028	16.72	4.7273	0.1	1614.4
25029	16.812	4.8182	0.1	1592.9
25030	16.535	4.7273	0.1	1658.9
25031	16.627	4.8182	0.1	1637.3
25032	16.351	4.7273	0.1	1703.6
25033	16.443	4.8182	0.1	1681.9
25034	16.167	4.7273	0.1	1748.4
25035	16.259	4.8182	0.1	1726.5
25036	15.982	4.7273	0.1	1793.4
25037	16.075	4.8182	0.1	1771.3
25038	15.798	4.7273	0.1	1838.4
25039	15.89	4.8182	0.1	1816.1
25040	15.614	4.7273	0.1	1883.5
25041	15.706	4.8182	0.1	1860.9
25042	15.429	4.7273	0.1	1928.5
25043	15.522	4.8182	0.1	1905.7
25044	15.245	4.7273	0.1	1973.5
25045	15.337	4.8182	0.1	1950.2
25046	15.061	4.7273	0.1	2018.3
25047	15.153	4.8182	0.1	1994.5
25048	14.876	4.7273	0.1	2062.7
25049	14.969	4.8182	0.1	2038.3
25050	14.692	4.7273	0.1	2106.6
25051	14.784	4.8182	0.1	2081.5
25052	14.508	4.7273	0.1	2149.8
25053	14.6	4.8182	0.1	2123.7
25054	14.324	4.7273	0.1	2192.
25055	14.416	4.8182	0.1	2164.7
25056	14.139	4.7273	0.1	2232.8
25057	14.231	4.8182	0.1	2204.
25058	13.955	4.7273	0.1	2271.7
25059	14.047	4.8182	0.1	2241.
25060	13.771	4.7273	0.1	2308.1
25061	13.863	4.8182	0.1	2275.1
25062	13.586	4.7273	0.1	2341.4
25063	13.678	4.8182	0.1	2305.4
25064	13.402	4.7273	0.1	2370.7
25065	13.494	4.8182	0.1	2330.9
25066	13.218	4.7273	0.1	2395.
25067	13.31	4.8182	0.1	2350.3
25068	13.033	4.7273	0.1	2413.3
25069	13.125	4.8182	0.1	2362.2
25070	12.849	4.7273	0.1	2424.3
25071	12.941	4.8182	0.1	2365.
25072	12.665	4.7273	0.1	2426.8
25073	12.757	4.8182	0.1	2356.9
25074	12.48	4.7273	0.1	2419.4
25075	12.573	4.8182	0.1	2336.
25076	12.296	4.7273	0.1	2400.2
25077	12.388	4.8182	0.1	2300.6
25078	12.112	4.7273	0.1	2365.6
25079	12.204	4.8182	0.1	2249.
25080	11.927	4.7273	0.1	2310.2
25081	12.02	4.8182	0.1	2179.5
25082	11.743	4.7273	0.1	2267.1
25083	11.835	4.8182	0.1	2092.2
25084	11.651	4.8182	0.1	2062.5
25085	11.559	4.7273	0.1	1853.1
25086	23.724	4.9091	0.1	58.434
25087	23.816	5.	0.1	39.706
25088	23.908	4.9091	0.1	22.476
25089	23.539	4.9091	0.1	95.931
25090	23.631	5.	0.1	76.851
25091	23.355	4.9091	0.1	133.53
25092	23.447	5.	0.1	114.24
25093	23.171	4.9091	0.1	171.25
25094	23.263	5.	0.1	151.76
25095	22.986	4.9091	0.1	209.17
25096	23.078	5.	0.1	189.54
25097	22.802	4.9091	0.1	247.34
25098	22.894	5.	0.1	227.6
25099	22.618	4.9091	0.1	285.76
25100	22.71	5.	0.1	265.94
25101	22.433	4.9091	0.1	324.42
25102	22.525	5.	0.1	304.55
25103	22.249	4.9091	0.1	363.31
25104	22.341	5.	0.1	343.4
25105	22.065	4.9091	0.1	402.41
25106	22.157	5.	0.1	382.48
25107	21.88	4.9091	0.1	441.71
25108	21.973	5.	0.1	421.76
25109	21.696	4.9091	0.1	481.21
25110	21.788	5.	0.1	461.23
25111	21.512	4.9091	0.1	520.89
25112	21.604	5.	0.1	500.89
25113	21.327	4.9091	0.1	560.75
25114	21.42	5.	0.1	540.73
25115	21.143	4.9091	0.1	600.79
25116	21.235	5.	0.1	580.75
25117	20.959	4.9091	0.1	641.
25118	21.051	5.	0.1	620.94
25119	20.775	4.9091	0.1	681.39
25120	20.867	5.	0.1	661.29
25121	20.59	4.9091	0.1	721.95
25122	20.682	5.	0.1	701.82
25123	20.406	4.9091	0.1	762.69
25124	20.498	5.	0.1	742.53
25125	20.222	4.9091	0.1	803.61
25126	20.314	5.	0.1	783.4
25127	20.037	4.9091	0.1	844.71
25128	20.129	5.	0.1	824.45
25129	19.853	4.9091	0.1	885.98
25130	19.945	5.	0.1	865.68
25131	19.669	4.9091	0.1	927.43
25132	19.761	5.	0.1	907.08
25133	19.484	4.9091	0.1	969.07
25134	19.576	5.	0.1	948.66
25135	19.3	4.9091	0.1	1010.9
25136	19.392	5.	0.1	990.43
25137	19.116	4.9091	0.1	1052.9
25138	19.208	5.	0.1	1032.4
25139	18.931	4.9091	0.1	1095.1
25140	19.024	5.	0.1	1074.5
25141	18.747	4.9091	0.1	1137.5
25142	18.839	5.	0.1	1116.8
25143	18.563	4.9091	0.1	1180.
25144	18.655	5.	0.1	1159.3
25145	18.378	4.9091	0.1	1222.8
25146	18.471	5.	0.1	1202.
25147	18.194	4.9091	0.1	1265.7
25148	18.286	5.	0.1	1244.9
25149	18.01	4.9091	0.1	1308.9
25150	18.102	5.	0.1	1288.
25151	17.825	4.9091	0.1	1352.2
25152	17.918	5.	0.1	1331.2
25153	17.641	4.9091	0.1	1395.7
25154	17.733	5.	0.1	1374.7
25155	17.457	4.9091	0.1	1439.4
25156	17.549	5.	0.1	1418.3
25157	17.273	4.9091	0.1	1483.3
25158	17.365	5.	0.1	1462.1
25159	17.088	4.9091	0.1	1527.3
25160	17.18	5.	0.1	1506.
25161	16.904	4.9091	0.1	1571.5
25162	16.996	5.	0.1	1550.1
25163	16.72	4.9091	0.1	1615.8
25164	16.812	5.	0.1	1594.4
25165	16.535	4.9091	0.1	1660.2
25166	16.627	5.	0.1	1638.8
25167	16.351	4.9091	0.1	1704.8
25168	16.443	5.	0.1	1683.2
25169	16.167	4.9091	0.1	1749.4
25170	16.259	5.	0.1	1727.7
25171	15.982	4.9091	0.1	1794.1
25172	16.075	5.	0.1	1772.2
25173	15.798	4.9091	0.1	1838.6
25174	15.89	5.	0.1	1816.7
25175	15.614	4.9091	0.1	1883.1
25176	15.706	5.	0.1	1861.
25177	15.429	4.9091	0.1	1927.4
25178	15.522	5.	0.1	1905.
25179	15.245	4.9091	0.1	1971.2
25180	15.337	5.	0.1	1948.7
25181	15.061	4.9091	0.1	2014.6
25182	15.153	5.	0.1	1991.8
25183	14.876	4.9091	0.1	2057.1
25184	14.969	5.	0.1	2034.
25185	14.692	4.9091	0.1	2098.6
25186	14.784	5.	0.1	2075.1
25187	14.508	4.9091	0.1	2138.7
25188	14.6	5.	0.1	2114.7
25189	14.324	4.9091	0.1	2176.7
25190	14.416	5.	0.1	2152.3
25191	14.139	4.9091	0.1	2212.3
25192	14.231	5.	0.1	2187.1
25193	13.955	4.9091	0.1	2244.5
25194	14.047	5.	0.1	2218.5
25195	13.771	4.9091	0.1	2272.4
25196	13.863	5.	0.1	2245.4
25197	13.586	4.9091	0.1	2294.8
25198	13.678	5.	0.1	2266.6
25199	13.402	4.9091	0.1	2310.2
25200	13.494	5.	0.1	2280.5
25201	13.218	4.9091	0.1	2317.
25202	13.31	5.	0.1	2285.2
25203	13.033	4.9091	0.1	2313.
25204	13.125	5.	0.1	2278.6
25205	12.849	4.9091	0.1	2295.9
25206	12.941	5.	0.1	2258.1
25207	12.665	4.9091	0.1	2263.
25208	12.757	5.	0.1	2220.8
25209	12.48	4.9091	0.1	2212.
25210	12.573	5.	0.1	2163.9
25211	12.296	4.9091	0.1	2140.5
25212	12.388	5.	0.1	2085.
25213	12.112	4.9091	0.1	2048.2
25214	12.204	5.	0.1	1983.5
25215	11.927	4.9091	0.1	1938.6
25216	12.02	5.	0.1	1862.6
25217	11.743	4.9091	0.1	1854.4
25218	11.835	5.	0.1	1733.2
25219	11.651	5.	0.1	1671.7
25220	11.559	4.9091	0.1	1506.5
25221	23.724	5.0909	0.1	58.078
25222	23.816	5.1818	0.1	39.514
25223	23.908	5.0909	0.1	22.42
25224	23.539	5.0909	0.1	95.171
25225	23.631	5.1818	0.1	76.127
25226	23.355	5.0909	0.1	132.5
25227	23.447	5.1818	0.1	113.17
25228	23.171	5.0909	0.1	170.1
25229	23.263	5.1818	0.1	150.54
25230	22.986	5.0909	0.1	208.02
25231	23.078	5.1818	0.1	188.31
25232	22.802	5.0909	0.1	246.26
25233	22.894	5.1818	0.1	226.45
25234	22.618	5.0909	0.1	284.79
25235	22.71	5.1818	0.1	264.93
25236	22.433	5.0909	0.1	323.59
25237	22.525	5.1818	0.1	303.7
25238	22.249	5.0909	0.1	362.63
25239	22.341	5.1818	0.1	342.72
25240	22.065	5.0909	0.1	401.89
25241	22.157	5.1818	0.1	381.96
25242	21.88	5.0909	0.1	441.34
25243	21.973	5.1818	0.1	421.4
25244	21.696	5.0909	0.1	480.98
25245	21.788	5.1818	0.1	461.03
25246	21.512	5.0909	0.1	520.8
25247	21.604	5.1818	0.1	500.84
25248	21.327	5.0909	0.1	560.79
25249	21.42	5.1818	0.1	540.81
25250	21.143	5.0909	0.1	600.95
25251	21.235	5.1818	0.1	580.95
25252	20.959	5.0909	0.1	641.28
25253	21.051	5.1818	0.1	621.26
25254	20.775	5.0909	0.1	681.78
25255	20.867	5.1818	0.1	661.73
25256	20.59	5.0909	0.1	722.44
25257	20.682	5.1818	0.1	702.36
25258	20.406	5.0909	0.1	763.28
25259	20.498	5.1818	0.1	743.16
25260	20.222	5.0909	0.1	804.28
25261	20.314	5.1818	0.1	784.12
25262	20.037	5.0909	0.1	845.46
25263	20.129	5.1818	0.1	825.26
25264	19.853	5.0909	0.1	886.82
25265	19.945	5.1818	0.1	866.56
25266	19.669	5.0909	0.1	928.35
25267	19.761	5.1818	0.1	908.04
25268	19.484	5.0909	0.1	970.06
25269	19.576	5.1818	0.1	949.7
25270	19.3	5.0909	0.1	1012.
25271	19.392	5.1818	0.1	991.54
25272	19.116	5.0909	0.1	1054.
25273	19.208	5.1818	0.1	1033.6
25274	18.931	5.0909	0.1	1096.3
25275	19.024	5.1818	0.1	1075.8
25276	18.747	5.0909	0.1	1138.7
25277	18.839	5.1818	0.1	1118.1
25278	18.563	5.0909	0.1	1181.4
25279	18.655	5.1818	0.1	1160.7
25280	18.378	5.0909	0.1	1224.2
25281	18.471	5.1818	0.1	1203.5
25282	18.194	5.0909	0.1	1267.2
25283	18.286	5.1818	0.1	1246.4
25284	18.01	5.0909	0.1	1310.4
25285	18.102	5.1818	0.1	1289.5
25286	17.825	5.0909	0.1	1353.7
25287	17.918	5.1818	0.1	1332.8
25288	17.641	5.0909	0.1	1397.3
25289	17.733	5.1818	0.1	1376.3
25290	17.457	5.0909	0.1	1441.
25291	17.549	5.1818	0.1	1420.
25292	17.273	5.0909	0.1	1484.9
25293	17.365	5.1818	0.1	1463.8
25294	17.088	5.0909	0.1	1528.9
25295	17.18	5.1818	0.1	1507.8
25296	16.904	5.0909	0.1	1573.1
25297	16.996	5.1818	0.1	1551.9
25298	16.72	5.0909	0.1	1617.4
25299	16.812	5.1818	0.1	1596.1
25300	16.535	5.0909	0.1	1661.7
25301	16.627	5.1818	0.1	1640.4
25302	16.351	5.0909	0.1	1706.1
25303	16.443	5.1818	0.1	1684.7
25304	16.167	5.0909	0.1	1750.6
25305	16.259	5.1818	0.1	1729.1
25306	15.982	5.0909	0.1	1794.9
25307	16.075	5.1818	0.1	1773.3
25308	15.798	5.0909	0.1	1839.1
25309	15.89	5.1818	0.1	1817.5
25310	15.614	5.0909	0.1	1883.
25311	15.706	5.1818	0.1	1861.3
25312	15.429	5.0909	0.1	1926.4
25313	15.522	5.1818	0.1	1904.7
25314	15.245	5.0909	0.1	1969.3
25315	15.337	5.1818	0.1	1947.5
25316	15.061	5.0909	0.1	2011.3
25317	15.153	5.1818	0.1	1989.5
25318	14.876	5.0909	0.1	2052.1
25319	14.969	5.1818	0.1	2030.3
25320	14.692	5.0909	0.1	2091.3
25321	14.784	5.1818	0.1	2069.5
25322	14.508	5.0909	0.1	2128.4
25323	14.6	5.1818	0.1	2106.6
25324	14.324	5.0909	0.1	2162.7
25325	14.416	5.1818	0.1	2141.
25326	14.139	5.0909	0.1	2193.4
25327	14.231	5.1818	0.1	2171.9
25328	13.955	5.0909	0.1	2219.5
25329	14.047	5.1818	0.1	2198.2
25330	13.771	5.0909	0.1	2239.6
25331	13.863	5.1818	0.1	2218.6
25332	13.586	5.0909	0.1	2252.1
25333	13.678	5.1818	0.1	2231.6
25334	13.402	5.0909	0.1	2255.1
25335	13.494	5.1818	0.1	2235.2
25336	13.218	5.0909	0.1	2246.3
25337	13.31	5.1818	0.1	2227.1
25338	13.033	5.0909	0.1	2222.8
25339	13.125	5.1818	0.1	2204.5
25340	12.849	5.0909	0.1	2181.5
25341	12.941	5.1818	0.1	2164.2
25342	12.665	5.0909	0.1	2118.9
25343	12.757	5.1818	0.1	2102.6
25344	12.48	5.0909	0.1	2032.2
25345	12.573	5.1818	0.1	2016.2
25346	12.296	5.0909	0.1	1919.8
25347	12.388	5.1818	0.1	1902.6
25348	12.112	5.0909	0.1	1784.4
25349	12.204	5.1818	0.1	1762.2
25350	11.927	5.0909	0.1	1636.7
25351	12.02	5.1818	0.1	1602.1
25352	11.743	5.0909	0.1	1522.6
25353	11.835	5.1818	0.1	1440.8
25354	11.651	5.1818	0.1	1352.1
25355	11.559	5.0909	0.1	1227.
25356	23.724	5.2727	0.1	57.533
25357	23.816	5.3636	0.1	39.131
25358	23.908	5.2727	0.1	22.289
25359	23.539	5.2727	0.1	94.155
25360	23.631	5.3636	0.1	75.088
25361	23.355	5.2727	0.1	131.26
25362	23.447	5.3636	0.1	111.82
25363	23.171	5.2727	0.1	168.82
25364	23.263	5.3636	0.1	149.16
25365	22.986	5.2727	0.1	206.82
25366	23.078	5.3636	0.1	187.06
25367	22.802	5.2727	0.1	245.21
25368	22.894	5.3636	0.1	225.39
25369	22.618	5.2727	0.1	283.92
25370	22.71	5.3636	0.1	264.08
25371	22.433	5.2727	0.1	322.91
25372	22.525	5.3636	0.1	303.06
25373	22.249	5.2727	0.1	362.13
25374	22.341	5.3636	0.1	342.27
25375	22.065	5.2727	0.1	401.56
25376	22.157	5.3636	0.1	381.7
25377	21.88	5.2727	0.1	441.17
25378	21.973	5.3636	0.1	421.31
25379	21.696	5.2727	0.1	480.96
25380	21.788	5.3636	0.1	461.09
25381	21.512	5.2727	0.1	520.92
25382	21.604	5.3636	0.1	501.04
25383	21.327	5.2727	0.1	561.04
25384	21.42	5.3636	0.1	541.14
25385	21.143	5.2727	0.1	601.32
25386	21.235	5.3636	0.1	581.4
25387	20.959	5.2727	0.1	641.76
25388	21.051	5.3636	0.1	621.82
25389	20.775	5.2727	0.1	682.36
25390	20.867	5.3636	0.1	662.39
25391	20.59	5.2727	0.1	723.12
25392	20.682	5.3636	0.1	703.12
25393	20.406	5.2727	0.1	764.05
25394	20.498	5.3636	0.1	744.
25395	20.222	5.2727	0.1	805.14
25396	20.314	5.3636	0.1	785.05
25397	20.037	5.2727	0.1	846.4
25398	20.129	5.3636	0.1	826.27
25399	19.853	5.2727	0.1	887.83
25400	19.945	5.3636	0.1	867.65
25401	19.669	5.2727	0.1	929.44
25402	19.761	5.3636	0.1	909.2
25403	19.484	5.2727	0.1	971.22
25404	19.576	5.3636	0.1	950.93
25405	19.3	5.2727	0.1	1013.2
25406	19.392	5.3636	0.1	992.83
25407	19.116	5.2727	0.1	1055.3
25408	19.208	5.3636	0.1	1034.9
25409	18.931	5.2727	0.1	1097.6
25410	19.024	5.3636	0.1	1077.2
25411	18.747	5.2727	0.1	1140.1
25412	18.839	5.3636	0.1	1119.6
25413	18.563	5.2727	0.1	1182.8
25414	18.655	5.3636	0.1	1162.2
25415	18.378	5.2727	0.1	1225.7
25416	18.471	5.3636	0.1	1205.1
25417	18.194	5.2727	0.1	1268.8
25418	18.286	5.3636	0.1	1248.1
25419	18.01	5.2727	0.1	1312.
25420	18.102	5.3636	0.1	1291.2
25421	17.825	5.2727	0.1	1355.4
25422	17.918	5.3636	0.1	1334.6
25423	17.641	5.2727	0.1	1399.
25424	17.733	5.3636	0.1	1378.1
25425	17.457	5.2727	0.1	1442.8
25426	17.549	5.3636	0.1	1421.8
25427	17.273	5.2727	0.1	1486.7
25428	17.365	5.3636	0.1	1465.7
25429	17.088	5.2727	0.1	1530.7
25430	17.18	5.3636	0.1	1509.6
25431	16.904	5.2727	0.1	1574.9
25432	16.996	5.3636	0.1	1553.7
25433	16.72	5.2727	0.1	1619.1
25434	16.812	5.3636	0.1	1597.9
25435	16.535	5.2727	0.1	1663.4
25436	16.627	5.3636	0.1	1642.2
25437	16.351	5.2727	0.1	1707.7
25438	16.443	5.3636	0.1	1686.4
25439	16.167	5.2727	0.1	1751.9
25440	16.259	5.3636	0.1	1730.6
25441	15.982	5.2727	0.1	1795.9
25442	16.075	5.3636	0.1	1774.7
25443	15.798	5.2727	0.1	1839.7
25444	15.89	5.3636	0.1	1818.5
25445	15.614	5.2727	0.1	1883.1
25446	15.706	5.3636	0.1	1861.9
25447	15.429	5.2727	0.1	1925.8
25448	15.522	5.3636	0.1	1904.7
25449	15.245	5.2727	0.1	1967.8
25450	15.337	5.3636	0.1	1946.8
25451	15.061	5.2727	0.1	2008.5
25452	15.153	5.3636	0.1	1987.7
25453	14.876	5.2727	0.1	2047.7
25454	14.969	5.3636	0.1	2027.2
25455	14.692	5.2727	0.1	2084.8
25456	14.784	5.3636	0.1	2064.7
25457	14.508	5.2727	0.1	2119.3
25458	14.6	5.3636	0.1	2099.7
25459	14.324	5.2727	0.1	2150.2
25460	14.416	5.3636	0.1	2131.3
25461	14.139	5.2727	0.1	2176.6
25462	14.231	5.3636	0.1	2158.7
25463	13.955	5.2727	0.1	2197.3
25464	14.047	5.3636	0.1	2180.5
25465	13.771	5.2727	0.1	2210.6
25466	13.863	5.3636	0.1	2195.4
25467	13.586	5.2727	0.1	2214.6
25468	13.678	5.3636	0.1	2201.4
25469	13.402	5.2727	0.1	2206.9
25470	13.494	5.3636	0.1	2196.4
25471	13.218	5.2727	0.1	2184.9
25472	13.31	5.3636	0.1	2177.6
25473	13.033	5.2727	0.1	2145.1
25474	13.125	5.3636	0.1	2141.8
25475	12.849	5.2727	0.1	2084.
25476	12.941	5.3636	0.1	2085.5
25477	12.665	5.2727	0.1	1997.6
25478	12.757	5.3636	0.1	2004.6
25479	12.48	5.2727	0.1	1882.8
25480	12.573	5.3636	0.1	1895.3
25481	12.296	5.2727	0.1	1738.4
25482	12.388	5.3636	0.1	1755.
25483	12.112	5.2727	0.1	1568.6
25484	12.204	5.3636	0.1	1584.1
25485	11.927	5.2727	0.1	1388.
25486	12.02	5.3636	0.1	1390.8
25487	11.743	5.2727	0.1	1244.5
25488	11.835	5.3636	0.1	1197.2
25489	11.651	5.3636	0.1	1077.1
25490	11.559	5.2727	0.1	988.4
25491	23.724	5.4545	0.1	56.686
25492	23.816	5.5455	0.1	38.444
25493	23.908	5.4545	0.1	22.006
25494	23.539	5.4545	0.1	92.826
25495	23.631	5.5455	0.1	73.68
25496	23.355	5.4545	0.1	129.83
25497	23.447	5.5455	0.1	110.35
25498	23.171	5.4545	0.1	167.52
25499	23.263	5.5455	0.1	147.91
25500	22.986	5.4545	0.1	205.75
25501	23.078	5.5455	0.1	186.09
25502	22.802	5.4545	0.1	244.38
25503	22.894	5.5455	0.1	224.71
25504	22.618	5.4545	0.1	283.32
25505	22.71	5.5455	0.1	263.66
25506	22.433	5.4545	0.1	322.52
25507	22.525	5.5455	0.1	302.87
25508	22.249	5.4545	0.1	361.94
25509	22.341	5.5455	0.1	342.29
25510	22.065	5.4545	0.1	401.54
25511	22.157	5.5455	0.1	381.89
25512	21.88	5.4545	0.1	441.31
25513	21.973	5.5455	0.1	421.66
25514	21.696	5.4545	0.1	481.25
25515	21.788	5.5455	0.1	461.58
25516	21.512	5.4545	0.1	521.34
25517	21.604	5.5455	0.1	501.65
25518	21.327	5.4545	0.1	561.58
25519	21.42	5.5455	0.1	541.87
25520	21.143	5.4545	0.1	601.97
25521	21.235	5.5455	0.1	582.24
25522	20.959	5.4545	0.1	642.51
25523	21.051	5.5455	0.1	622.75
25524	20.775	5.4545	0.1	683.2
25525	20.867	5.5455	0.1	663.41
25526	20.59	5.4545	0.1	724.05
25527	20.682	5.5455	0.1	704.21
25528	20.406	5.4545	0.1	765.06
25529	20.498	5.5455	0.1	745.18
25530	20.222	5.4545	0.1	806.23
25531	20.314	5.5455	0.1	786.3
25532	20.037	5.4545	0.1	847.56
25533	20.129	5.5455	0.1	827.58
25534	19.853	5.4545	0.1	889.06
25535	19.945	5.5455	0.1	869.02
25536	19.669	5.4545	0.1	930.73
25537	19.761	5.5455	0.1	910.64
25538	19.484	5.4545	0.1	972.58
25539	19.576	5.5455	0.1	952.42
25540	19.3	5.4545	0.1	1014.6
25541	19.392	5.5455	0.1	994.38
25542	19.116	5.4545	0.1	1056.8
25543	19.208	5.5455	0.1	1036.5
25544	18.931	5.4545	0.1	1099.2
25545	19.024	5.5455	0.1	1078.8
25546	18.747	5.4545	0.1	1141.7
25547	18.839	5.5455	0.1	1121.3
25548	18.563	5.4545	0.1	1184.5
25549	18.655	5.5455	0.1	1164.
25550	18.378	5.4545	0.1	1227.4
25551	18.471	5.5455	0.1	1206.9
25552	18.194	5.4545	0.1	1270.5
25553	18.286	5.5455	0.1	1249.9
25554	18.01	5.4545	0.1	1313.8
25555	18.102	5.5455	0.1	1293.2
25556	17.825	5.4545	0.1	1357.3
25557	17.918	5.5455	0.1	1336.6
25558	17.641	5.4545	0.1	1400.9
25559	17.733	5.5455	0.1	1380.1
25560	17.457	5.4545	0.1	1444.7
25561	17.549	5.5455	0.1	1423.9
25562	17.273	5.4545	0.1	1488.6
25563	17.365	5.5455	0.1	1467.7
25564	17.088	5.4545	0.1	1532.7
25565	17.18	5.5455	0.1	1511.7
25566	16.904	5.4545	0.1	1576.8
25567	16.996	5.5455	0.1	1555.8
25568	16.72	5.4545	0.1	1621.
25569	16.812	5.5455	0.1	1600.
25570	16.535	5.4545	0.1	1665.3
25571	16.627	5.5455	0.1	1644.2
25572	16.351	5.4545	0.1	1709.4
25573	16.443	5.5455	0.1	1688.4
25574	16.167	5.4545	0.1	1753.5
25575	16.259	5.5455	0.1	1732.5
25576	15.982	5.4545	0.1	1797.3
25577	16.075	5.5455	0.1	1776.3
25578	15.798	5.4545	0.1	1840.7
25579	15.89	5.5455	0.1	1819.9
25580	15.614	5.4545	0.1	1883.6
25581	15.706	5.5455	0.1	1862.9
25582	15.429	5.4545	0.1	1925.7
25583	15.522	5.5455	0.1	1905.3
25584	15.245	5.4545	0.1	1966.8
25585	15.337	5.5455	0.1	1946.6
25586	15.061	5.4545	0.1	2006.5
25587	15.153	5.5455	0.1	1986.7
25588	14.876	5.4545	0.1	2044.3
25589	14.969	5.5455	0.1	2025.1
25590	14.692	5.4545	0.1	2079.6
25591	14.784	5.5455	0.1	2061.2
25592	14.508	5.4545	0.1	2111.8
25593	14.6	5.5455	0.1	2094.3
25594	14.324	5.4545	0.1	2139.8
25595	14.416	5.5455	0.1	2123.6
25596	14.139	5.4545	0.1	2162.5
25597	14.231	5.5455	0.1	2148.
25598	13.955	5.4545	0.1	2178.6
25599	14.047	5.5455	0.1	2166.2
25600	13.771	5.4545	0.1	2186.2
25601	13.863	5.5455	0.1	2176.4
25602	13.586	5.4545	0.1	2183.1
25603	13.678	5.5455	0.1	2176.8
25604	13.402	5.4545	0.1	2166.8
25605	13.494	5.5455	0.1	2164.9
25606	13.218	5.4545	0.1	2134.1
25607	13.31	5.5455	0.1	2137.7
25608	13.033	5.4545	0.1	2081.6
25609	13.125	5.5455	0.1	2091.8
25610	12.849	5.4545	0.1	2005.1
25611	12.941	5.5455	0.1	2023.3
25612	12.665	5.4545	0.1	1900.7
25613	12.757	5.5455	0.1	1928.2
25614	12.48	5.4545	0.1	1764.9
25615	12.573	5.5455	0.1	1802.4
25616	12.296	5.4545	0.1	1596.2
25617	12.388	5.5455	0.1	1642.8
25618	12.112	5.4545	0.1	1398.
25619	12.204	5.5455	0.1	1449.
25620	11.927	5.4545	0.1	1184.8
25621	12.02	5.5455	0.1	1226.9
25622	11.743	5.4545	0.1	1004.6
25623	11.835	5.5455	0.1	996.42
25624	11.651	5.5455	0.1	830.32
25625	11.559	5.4545	0.1	773.15
25626	23.724	5.6364	0.1	55.517
25627	23.816	5.7273	0.1	37.3
25628	23.908	5.6364	0.1	21.498
25629	23.539	5.6364	0.1	91.38
25630	23.631	5.7273	0.1	72.588
25631	23.355	5.6364	0.1	128.63
25632	23.447	5.7273	0.1	109.93
25633	23.171	5.6364	0.1	166.68
25634	23.263	5.7273	0.1	148.1
25635	22.986	5.6364	0.1	205.25
25636	23.078	5.7273	0.1	186.77
25637	22.802	5.6364	0.1	244.17
25638	22.894	5.7273	0.1	225.77
25639	22.618	5.6364	0.1	283.36
25640	22.71	5.7273	0.1	265.02
25641	22.433	5.6364	0.1	322.77
25642	22.525	5.7273	0.1	304.46
25643	22.249	5.6364	0.1	362.36
25644	22.341	5.7273	0.1	344.07
25645	22.065	5.6364	0.1	402.12
25646	22.157	5.7273	0.1	383.83
25647	21.88	5.6364	0.1	442.03
25648	21.973	5.7273	0.1	423.74
25649	21.696	5.6364	0.1	482.08
25650	21.788	5.7273	0.1	463.78
25651	21.512	5.6364	0.1	522.28
25652	21.604	5.7273	0.1	503.95
25653	21.327	5.6364	0.1	562.61
25654	21.42	5.7273	0.1	544.25
25655	21.143	5.6364	0.1	603.09
25656	21.235	5.7273	0.1	584.68
25657	20.959	5.6364	0.1	643.72
25658	21.051	5.7273	0.1	625.26
25659	20.775	5.6364	0.1	684.48
25660	20.867	5.7273	0.1	665.97
25661	20.59	5.6364	0.1	725.4
25662	20.682	5.7273	0.1	706.83
25663	20.406	5.6364	0.1	766.47
25664	20.498	5.7273	0.1	747.83
25665	20.222	5.6364	0.1	807.7
25666	20.314	5.7273	0.1	788.99
25667	20.037	5.6364	0.1	849.1
25668	20.129	5.7273	0.1	830.3
25669	19.853	5.6364	0.1	890.65
25670	19.945	5.7273	0.1	871.78
25671	19.669	5.6364	0.1	932.38
25672	19.761	5.7273	0.1	913.42
25673	19.484	5.6364	0.1	974.27
25674	19.576	5.7273	0.1	955.23
25675	19.3	5.6364	0.1	1016.3
25676	19.392	5.7273	0.1	997.21
25677	19.116	5.6364	0.1	1058.6
25678	19.208	5.7273	0.1	1039.4
25679	18.931	5.6364	0.1	1101.
25680	19.024	5.7273	0.1	1081.7
25681	18.747	5.6364	0.1	1143.6
25682	18.839	5.7273	0.1	1124.2
25683	18.563	5.6364	0.1	1186.4
25684	18.655	5.7273	0.1	1166.9
25685	18.378	5.6364	0.1	1229.4
25686	18.471	5.7273	0.1	1209.8
25687	18.194	5.6364	0.1	1272.6
25688	18.286	5.7273	0.1	1252.9
25689	18.01	5.6364	0.1	1315.9
25690	18.102	5.7273	0.1	1296.1
25691	17.825	5.6364	0.1	1359.4
25692	17.918	5.7273	0.1	1339.5
25693	17.641	5.6364	0.1	1403.1
25694	17.733	5.7273	0.1	1383.1
25695	17.457	5.6364	0.1	1446.9
25696	17.549	5.7273	0.1	1426.9
25697	17.273	5.6364	0.1	1490.9
25698	17.365	5.7273	0.1	1470.7
25699	17.088	5.6364	0.1	1534.9
25700	17.18	5.7273	0.1	1514.7
25701	16.904	5.6364	0.1	1579.1
25702	16.996	5.7273	0.1	1558.8
25703	16.72	5.6364	0.1	1623.2
25704	16.812	5.7273	0.1	1603.
25705	16.535	5.6364	0.1	1667.4
25706	16.627	5.7273	0.1	1647.1
25707	16.351	5.6364	0.1	1711.5
25708	16.443	5.7273	0.1	1691.2
25709	16.167	5.6364	0.1	1755.4
25710	16.259	5.7273	0.1	1735.1
25711	15.982	5.6364	0.1	1799.
25712	16.075	5.7273	0.1	1778.8
25713	15.798	5.6364	0.1	1842.1
25714	15.89	5.7273	0.1	1822.1
25715	15.614	5.6364	0.1	1884.6
25716	15.706	5.7273	0.1	1864.8
25717	15.429	5.6364	0.1	1926.2
25718	15.522	5.7273	0.1	1906.8
25719	15.245	5.6364	0.1	1966.6
25720	15.337	5.7273	0.1	1947.6
25721	15.061	5.6364	0.1	2005.3
25722	15.153	5.7273	0.1	1987.
25723	14.876	5.6364	0.1	2042.
25724	14.969	5.7273	0.1	2024.4
25725	14.692	5.6364	0.1	2075.8
25726	14.784	5.7273	0.1	2059.3
25727	14.508	5.6364	0.1	2106.1
25728	14.6	5.7273	0.1	2090.9
25729	14.324	5.6364	0.1	2131.8
25730	14.416	5.7273	0.1	2118.4
25731	14.139	5.6364	0.1	2151.6
25732	14.231	5.7273	0.1	2140.5
25733	13.955	5.6364	0.1	2164.
25734	14.047	5.7273	0.1	2155.9
25735	13.771	5.6364	0.1	2167.1
25736	13.863	5.7273	0.1	2162.7
25737	13.586	5.6364	0.1	2158.5
25738	13.678	5.7273	0.1	2158.9
25739	13.402	5.6364	0.1	2135.6
25740	13.494	5.7273	0.1	2141.8
25741	13.218	5.6364	0.1	2095.
25742	13.31	5.7273	0.1	2108.6
25743	13.033	5.6364	0.1	2033.1
25744	13.125	5.7273	0.1	2055.7
25745	12.849	5.6364	0.1	1945.8
25746	12.941	5.7273	0.1	1979.2
25747	12.665	5.6364	0.1	1829.
25748	12.757	5.7273	0.1	1874.9
25749	12.48	5.6364	0.1	1678.9
25750	12.573	5.7273	0.1	1738.9
25751	12.296	5.6364	0.1	1493.3
25752	12.388	5.7273	0.1	1567.8
25753	12.112	5.6364	0.1	1273.4
25754	12.204	5.7273	0.1	1359.8
25755	11.927	5.6364	0.1	1028.3
25756	12.02	5.7273	0.1	1117.1
25757	11.743	5.6364	0.1	797.74
25758	11.835	5.7273	0.1	849.56
25759	11.651	5.7273	0.1	610.45
25760	11.559	5.6364	0.1	568.11
25761	23.724	5.8182	0.1	54.97
25762	23.816	5.9091	0.1	34.616
25763	23.908	5.8182	0.1	20.576
25764	23.539	5.8182	0.1	91.824
25765	23.631	5.9091	0.1	69.354
25766	23.355	5.8182	0.1	130.02
25767	23.447	5.9091	0.1	106.11
25768	23.171	5.8182	0.1	168.73
25769	23.263	5.9091	0.1	143.77
25770	22.986	5.8182	0.1	207.77
25771	23.078	5.9091	0.1	182.03
25772	22.802	5.8182	0.1	247.04
25773	22.894	5.9091	0.1	220.7
25774	22.618	5.8182	0.1	286.49
25775	22.71	5.9091	0.1	259.7
25776	22.433	5.8182	0.1	326.11
25777	22.525	5.9091	0.1	298.97
25778	22.249	5.8182	0.1	365.86
25779	22.341	5.9091	0.1	338.47
25780	22.065	5.8182	0.1	405.75
25781	22.157	5.9091	0.1	378.16
25782	21.88	5.8182	0.1	445.76
25783	21.973	5.9091	0.1	418.03
25784	21.696	5.8182	0.1	485.9
25785	21.788	5.9091	0.1	458.07
25786	21.512	5.8182	0.1	526.17
25787	21.604	5.9091	0.1	498.27
25788	21.327	5.8182	0.1	566.56
25789	21.42	5.9091	0.1	538.63
25790	21.143	5.8182	0.1	607.08
25791	21.235	5.9091	0.1	579.14
25792	20.959	5.8182	0.1	647.73
25793	21.051	5.9091	0.1	619.81
25794	20.775	5.8182	0.1	688.52
25795	20.867	5.9091	0.1	660.63
25796	20.59	5.8182	0.1	729.46
25797	20.682	5.9091	0.1	701.6
25798	20.406	5.8182	0.1	770.54
25799	20.498	5.9091	0.1	742.74
25800	20.222	5.8182	0.1	811.78
25801	20.314	5.9091	0.1	784.04
25802	20.037	5.8182	0.1	853.17
25803	20.129	5.9091	0.1	825.5
25804	19.853	5.8182	0.1	894.72
25805	19.945	5.9091	0.1	867.14
25806	19.669	5.8182	0.1	936.44
25807	19.761	5.9091	0.1	908.94
25808	19.484	5.8182	0.1	978.34
25809	19.576	5.9091	0.1	950.92
25810	19.3	5.8182	0.1	1020.4
25811	19.392	5.9091	0.1	993.09
25812	19.116	5.8182	0.1	1062.6
25813	19.208	5.9091	0.1	1035.4
25814	18.931	5.8182	0.1	1105.1
25815	19.024	5.9091	0.1	1078.
25816	18.747	5.8182	0.1	1147.7
25817	18.839	5.9091	0.1	1120.7
25818	18.563	5.8182	0.1	1190.4
25819	18.655	5.9091	0.1	1163.6
25820	18.378	5.8182	0.1	1233.4
25821	18.471	5.9091	0.1	1206.7
25822	18.194	5.8182	0.1	1276.6
25823	18.286	5.9091	0.1	1249.9
25824	18.01	5.8182	0.1	1319.9
25825	18.102	5.9091	0.1	1293.4
25826	17.825	5.8182	0.1	1363.4
25827	17.918	5.9091	0.1	1337.
25828	17.641	5.8182	0.1	1407.
25829	17.733	5.9091	0.1	1380.8
25830	17.457	5.8182	0.1	1450.8
25831	17.549	5.9091	0.1	1424.7
25832	17.273	5.8182	0.1	1494.7
25833	17.365	5.9091	0.1	1468.8
25834	17.088	5.8182	0.1	1538.7
25835	17.18	5.9091	0.1	1513.
25836	16.904	5.8182	0.1	1582.8
25837	16.996	5.9091	0.1	1557.3
25838	16.72	5.8182	0.1	1626.9
25839	16.812	5.9091	0.1	1601.6
25840	16.535	5.8182	0.1	1671.
25841	16.627	5.9091	0.1	1645.9
25842	16.351	5.8182	0.1	1714.9
25843	16.443	5.9091	0.1	1690.1
25844	16.167	5.8182	0.1	1758.7
25845	16.259	5.9091	0.1	1734.2
25846	15.982	5.8182	0.1	1802.1
25847	16.075	5.9091	0.1	1777.9
25848	15.798	5.8182	0.1	1844.9
25849	15.89	5.9091	0.1	1821.2
25850	15.614	5.8182	0.1	1887.1
25851	15.706	5.9091	0.1	1863.9
25852	15.429	5.8182	0.1	1928.2
25853	15.522	5.9091	0.1	1905.6
25854	15.245	5.8182	0.1	1968.
25855	15.337	5.9091	0.1	1946.2
25856	15.061	5.8182	0.1	2006.1
25857	15.153	5.9091	0.1	1985.2
25858	14.876	5.8182	0.1	2041.8
25859	14.969	5.9091	0.1	2022.
25860	14.692	5.8182	0.1	2074.5
25861	14.784	5.9091	0.1	2056.2
25862	14.508	5.8182	0.1	2103.3
25863	14.6	5.9091	0.1	2086.8
25864	14.324	5.8182	0.1	2127.2
25865	14.416	5.9091	0.1	2113.
25866	14.139	5.8182	0.1	2144.8
25867	14.231	5.9091	0.1	2133.4
25868	13.955	5.8182	0.1	2154.6
25869	14.047	5.9091	0.1	2146.6
25870	13.771	5.8182	0.1	2154.5
25871	13.863	5.9091	0.1	2150.9
25872	13.586	5.8182	0.1	2142.1
25873	13.678	5.9091	0.1	2143.8
25874	13.402	5.8182	0.1	2114.8
25875	13.494	5.9091	0.1	2122.9
25876	13.218	5.8182	0.1	2069.1
25877	13.31	5.9091	0.1	2085.
25878	13.033	5.8182	0.1	2001.5
25879	13.125	5.9091	0.1	2026.5
25880	12.849	5.8182	0.1	1907.9
25881	12.941	5.9091	0.1	1943.5
25882	12.665	5.8182	0.1	1784.3
25883	12.757	5.9091	0.1	1831.9
25884	12.48	5.8182	0.1	1626.9
25885	12.573	5.9091	0.1	1687.6
25886	12.296	5.8182	0.1	1433.1
25887	12.388	5.9091	0.1	1507.1
25888	12.112	5.8182	0.1	1201.8
25889	12.204	5.9091	0.1	1288.3
25890	11.927	5.8182	0.1	934.65
25891	12.02	5.9091	0.1	1031.
25892	11.743	5.8182	0.1	645.96
25893	11.835	5.9091	0.1	737.12
25894	11.559	5.8182	0.1	366.99
25895	11.651	5.9091	0.1	419.51
25896	0.18226	0.27273	0.1	4166.4
25897	0.27339	0.18182	0.1	4447.1
25898	9.1129e-002	0.18182	0.1	3184.3
25899	0.18226	9.0909e-002	0.1	3674.
25900	0.18226	0.45455	0.1	4830.1
25901	0.27339	0.36364	0.1	4817.1
25902	9.1129e-002	0.36364	0.1	4546.4
25903	0.18226	0.63636	0.1	5450.3
25904	0.27339	0.54545	0.1	5312.8
25905	9.1129e-002	0.54545	0.1	5429.1
25906	0.18226	0.81818	0.1	5917.9
25907	0.27339	0.72727	0.1	5745.6
25908	9.1129e-002	0.72727	0.1	6022.5
25909	0.18226	1.	0.1	6268.8
25910	0.27339	0.90909	0.1	6098.6
25911	9.1129e-002	0.90909	0.1	6439.8
25912	0.18226	1.1818	0.1	6534.6
25913	0.27339	1.0909	0.1	6379.
25914	9.1129e-002	1.0909	0.1	6745.
25915	0.18226	1.3636	0.1	6739.1
25916	0.27339	1.2727	0.1	6601.2
25917	9.1129e-002	1.2727	0.1	6974.6
25918	0.18226	1.5455	0.1	6898.3
25919	0.27339	1.4545	0.1	6777.6
25920	9.1129e-002	1.4545	0.1	7150.6
25921	0.18226	1.7273	0.1	7022.9
25922	0.27339	1.6364	0.1	6917.8
25923	9.1129e-002	1.6364	0.1	7287.1
25924	0.18226	1.9091	0.1	7120.5
25925	0.27339	1.8182	0.1	7029.1
25926	9.1129e-002	1.8182	0.1	7393.6
25927	0.18226	2.0909	0.1	7196.4
25928	0.27339	2.	0.1	7116.9
25929	9.1129e-002	2.	0.1	7476.5
25930	0.18226	2.2727	0.1	7254.3
25931	0.27339	2.1818	0.1	7185.2
25932	9.1129e-002	2.1818	0.1	7540.4
25933	0.18226	2.4545	0.1	7297.
25934	0.27339	2.3636	0.1	7236.8
25935	9.1129e-002	2.3636	0.1	7588.3
25936	0.18226	2.6364	0.1	7326.3
25937	0.27339	2.5455	0.1	7273.9
25938	9.1129e-002	2.5455	0.1	7622.5
25939	0.18226	2.8182	0.1	7343.4
25940	0.27339	2.7273	0.1	7297.9
25941	9.1129e-002	2.7273	0.1	7644.5
25942	0.18226	3.	0.1	7349.
25943	0.27339	2.9091	0.1	7309.7
25944	9.1129e-002	2.9091	0.1	7655.3
25945	0.18226	3.1818	0.1	7343.4
25946	0.27339	3.0909	0.1	7309.7
25947	9.1129e-002	3.0909	0.1	7655.3
25948	0.18226	3.3636	0.1	7326.3
25949	0.27339	3.2727	0.1	7297.9
25950	9.1129e-002	3.2727	0.1	7644.5
25951	0.18226	3.5455	0.1	7297.
25952	0.27339	3.4545	0.1	7273.9
25953	9.1129e-002	3.4545	0.1	7622.5
25954	0.18226	3.7273	0.1	7254.3
25955	0.27339	3.6364	0.1	7236.8
25956	9.1129e-002	3.6364	0.1	7588.3
25957	0.18226	3.9091	0.1	7196.4
25958	0.27339	3.8182	0.1	7185.2
25959	9.1129e-002	3.8182	0.1	7540.4
25960	0.18226	4.0909	0.1	7120.5
25961	0.27339	4.	0.1	7116.9
25962	9.1129e-002	4.	0.1	7476.5
25963	0.18226	4.2727	0.1	7022.9
25964	0.27339	4.1818	0.1	7029.1
25965	9.1129e-002	4.1818	0.1	7393.6
25966	0.18226	4.4545	0.1	6898.3
25967	0.27339	4.3636	0.1	6917.8
25968	9.1129e-002	4.3636	0.1	7287.1
25969	0.18226	4.6364	0.1	6739.1
25970	0.27339	4.5455	0.1	6777.6
25971	9.1129e-002	4.5455	0.1	7150.6
25972	0.18226	4.8182	0.1	6534.6
25973	0.27339	4.7273	0.1	6601.2
25974	9.1129e-002	4.7273	0.1	6974.6
25975	0.18226	5.	0.1	6268.8
25976	0.27339	4.9091	0.1	6379.
25977	9.1129e-002	4.9091	0.1	6745.
25978	0.18226	5.1818	0.1	5917.9
25979	0.27339	5.0909	0.1	6098.6
25980	9.1129e-002	5.0909	0.1	6439.8
25981	0.18226	5.3636	0.1	5450.3
25982	0.27339	5.2727	0.1	5745.6
25983	9.1129e-002	5.2727	0.1	6022.5
25984	0.18226	5.5455	0.1	4830.1
25985	0.27339	5.4545	0.1	5312.8
25986	9.1129e-002	5.4545	0.1	5429.1
25987	0.18226	5.7273	0.1	4166.4
25988	0.27339	5.6364	0.1	4817.1
25989	9.1129e-002	5.6364	0.1	4546.4
25990	0.27339	5.8182	0.1	4447.1
25991	9.1129e-002	5.8182	0.1	3184.3
25992	0.18226	5.9091	0.1	3674.
25993	0.36452	0.27273	0.1	5082.5
25994	0.45565	0.18182	0.1	5265.8
25995	0.36452	9.0909e-002	0.1	4861.1
25996	0.36452	0.45455	0.1	5299.6
25997	0.45565	0.36364	0.1	5333.9
25998	0.36452	0.63636	0.1	5615.3
25999	0.45565	0.54545	0.1	5541.7
26000	0.36452	0.81818	0.1	5933.
26001	0.45565	0.72727	0.1	5791.
26002	0.36452	1.	0.1	6213.5
26003	0.45565	0.90909	0.1	6036.3
26004	0.36452	1.1818	0.1	6448.6
26005	0.45565	1.0909	0.1	6257.1
26006	0.36452	1.3636	0.1	6641.5
26007	0.45565	1.2727	0.1	6447.
26008	0.36452	1.5455	0.1	6798.2
26009	0.45565	1.4545	0.1	6606.7
26010	0.36452	1.7273	0.1	6924.7
26011	0.45565	1.6364	0.1	6738.9
26012	0.36452	1.9091	0.1	7026.
26013	0.45565	1.8182	0.1	6846.9
26014	0.36452	2.0909	0.1	7106.
26015	0.45565	2.	0.1	6934.1
26016	0.36452	2.2727	0.1	7167.8
26017	0.45565	2.1818	0.1	7002.9
26018	0.36452	2.4545	0.1	7213.8
26019	0.45565	2.3636	0.1	7055.7
26020	0.36452	2.6364	0.1	7245.5
26021	0.45565	2.5455	0.1	7093.8
26022	0.36452	2.8182	0.1	7264.1
26023	0.45565	2.7273	0.1	7118.7
26024	0.36452	3.	0.1	7270.3
26025	0.45565	2.9091	0.1	7130.9
26026	0.36452	3.1818	0.1	7264.1
26027	0.45565	3.0909	0.1	7130.9
26028	0.36452	3.3636	0.1	7245.5
26029	0.45565	3.2727	0.1	7118.7
26030	0.36452	3.5455	0.1	7213.8
26031	0.45565	3.4545	0.1	7093.8
26032	0.36452	3.7273	0.1	7167.8
26033	0.45565	3.6364	0.1	7055.7
26034	0.36452	3.9091	0.1	7106.
26035	0.45565	3.8182	0.1	7002.9
26036	0.36452	4.0909	0.1	7026.
26037	0.45565	4.	0.1	6934.1
26038	0.36452	4.2727	0.1	6924.7
26039	0.45565	4.1818	0.1	6846.9
26040	0.36452	4.4545	0.1	6798.2
26041	0.45565	4.3636	0.1	6738.9
26042	0.36452	4.6364	0.1	6641.5
26043	0.45565	4.5455	0.1	6606.7
26044	0.36452	4.8182	0.1	6448.6
26045	0.45565	4.7273	0.1	6447.
26046	0.36452	5.	0.1	6213.5
26047	0.45565	4.9091	0.1	6257.1
26048	0.36452	5.1818	0.1	5933.
26049	0.45565	5.0909	0.1	6036.3
26050	0.36452	5.3636	0.1	5615.3
26051	0.45565	5.2727	0.1	5791.
26052	0.36452	5.5455	0.1	5299.6
26053	0.45565	5.4545	0.1	5541.7
26054	0.36452	5.7273	0.1	5082.5
26055	0.45565	5.6364	0.1	5333.9
26056	0.45565	5.8182	0.1	5265.8
26057	0.36452	5.9091	0.1	4861.1
26058	0.54677	0.27273	0.1	5515.5
26059	0.6379	0.18182	0.1	5660.3
26060	0.54677	9.0909e-002	0.1	5405.7
26061	0.54677	0.45455	0.1	5572.
26062	0.6379	0.36364	0.1	5638.9
26063	0.54677	0.63636	0.1	5714.2
26064	0.6379	0.54545	0.1	5717.1
26065	0.54677	0.81818	0.1	5893.3
26066	0.6379	0.72727	0.1	5842.6
26067	0.54677	1.	0.1	6080.1
26068	0.6379	0.90909	0.1	5991.2
26069	0.54677	1.1818	0.1	6256.1
26070	0.6379	1.0909	0.1	6143.4
26071	0.54677	1.3636	0.1	6412.8
26072	0.6379	1.2727	0.1	6287.4
26073	0.54677	1.5455	0.1	6547.8
26074	0.6379	1.4545	0.1	6416.9
26075	0.54677	1.7273	0.1	6661.4
26076	0.6379	1.6364	0.1	6529.7
26077	0.54677	1.9091	0.1	6755.3
26078	0.6379	1.8182	0.1	6625.4
26079	0.54677	2.0909	0.1	6831.2
26080	0.6379	2.	0.1	6704.8
26081	0.54677	2.2727	0.1	6890.8
26082	0.6379	2.1818	0.1	6768.9
26083	0.54677	2.4545	0.1	6935.7
26084	0.6379	2.3636	0.1	6818.8
26085	0.54677	2.6364	0.1	6967.
26086	0.6379	2.5455	0.1	6855.3
26087	0.54677	2.8182	0.1	6985.5
26088	0.6379	2.7273	0.1	6879.2
26089	0.54677	3.	0.1	6991.6
26090	0.6379	2.9091	0.1	6891.1
26091	0.54677	3.1818	0.1	6985.5
26092	0.6379	3.0909	0.1	6891.1
26093	0.54677	3.3636	0.1	6967.
26094	0.6379	3.2727	0.1	6879.2
26095	0.54677	3.5455	0.1	6935.7
26096	0.6379	3.4545	0.1	6855.3
26097	0.54677	3.7273	0.1	6890.8
26098	0.6379	3.6364	0.1	6818.8
26099	0.54677	3.9091	0.1	6831.2
26100	0.6379	3.8182	0.1	6768.9
26101	0.54677	4.0909	0.1	6755.3
26102	0.6379	4.	0.1	6704.8
26103	0.54677	4.2727	0.1	6661.4
26104	0.6379	4.1818	0.1	6625.4
26105	0.54677	4.4545	0.1	6547.8
26106	0.6379	4.3636	0.1	6529.7
26107	0.54677	4.6364	0.1	6412.8
26108	0.6379	4.5455	0.1	6416.9
26109	0.54677	4.8182	0.1	6256.1
26110	0.6379	4.7273	0.1	6287.4
26111	0.54677	5.	0.1	6080.1
26112	0.6379	4.9091	0.1	6143.4
26113	0.54677	5.1818	0.1	5893.3
26114	0.6379	5.0909	0.1	5991.2
26115	0.54677	5.3636	0.1	5714.2
26116	0.6379	5.2727	0.1	5842.6
26117	0.54677	5.5455	0.1	5572.
26118	0.6379	5.4545	0.1	5717.1
26119	0.54677	5.7273	0.1	5515.5
26120	0.6379	5.6364	0.1	5638.9
26121	0.6379	5.8182	0.1	5660.3
26122	0.54677	5.9091	0.1	5405.7
26123	0.72903	0.27273	0.1	5783.7
26124	0.82016	0.18182	0.1	5881.8
26125	0.72903	9.0909e-002	0.1	5717.5
26126	0.72903	0.45455	0.1	5783.
26127	0.82016	0.36364	0.1	5833.3
26128	0.72903	0.63636	0.1	5843.7
26129	0.82016	0.54545	0.1	5855.2
26130	0.72903	0.81818	0.1	5938.9
26131	0.82016	0.72727	0.1	5913.
26132	0.72903	1.	0.1	6053.6
26133	0.82016	0.90909	0.1	5996.1
26134	0.72903	1.1818	0.1	6174.4
26135	0.82016	1.0909	0.1	6092.9
26136	0.72903	1.3636	0.1	6291.5
26137	0.82016	1.2727	0.1	6193.5
26138	0.72903	1.5455	0.1	6398.9
26139	0.82016	1.4545	0.1	6290.8
26140	0.72903	1.7273	0.1	6493.8
26141	0.82016	1.6364	0.1	6380.3
26142	0.72903	1.9091	0.1	6575.1
26143	0.82016	1.8182	0.1	6459.5
26144	0.72903	2.0909	0.1	6642.6
26145	0.82016	2.	0.1	6527.4
26146	0.72903	2.2727	0.1	6696.8
26147	0.82016	2.1818	0.1	6583.5
26148	0.72903	2.4545	0.1	6738.3
26149	0.82016	2.3636	0.1	6628.
26150	0.72903	2.6364	0.1	6767.4
26151	0.82016	2.5455	0.1	6661.
26152	0.72903	2.8182	0.1	6784.8
26153	0.82016	2.7273	0.1	6682.8
26154	0.72903	3.	0.1	6790.5
26155	0.82016	2.9091	0.1	6693.7
26156	0.72903	3.1818	0.1	6784.8
26157	0.82016	3.0909	0.1	6693.7
26158	0.72903	3.3636	0.1	6767.4
26159	0.82016	3.2727	0.1	6682.8
26160	0.72903	3.5455	0.1	6738.3
26161	0.82016	3.4545	0.1	6661.
26162	0.72903	3.7273	0.1	6696.8
26163	0.82016	3.6364	0.1	6628.
26164	0.72903	3.9091	0.1	6642.6
26165	0.82016	3.8182	0.1	6583.5
26166	0.72903	4.0909	0.1	6575.1
26167	0.82016	4.	0.1	6527.4
26168	0.72903	4.2727	0.1	6493.8
26169	0.82016	4.1818	0.1	6459.5
26170	0.72903	4.4545	0.1	6398.9
26171	0.82016	4.3636	0.1	6380.3
26172	0.72903	4.6364	0.1	6291.5
26173	0.82016	4.5455	0.1	6290.8
26174	0.72903	4.8182	0.1	6174.4
26175	0.82016	4.7273	0.1	6193.5
26176	0.72903	5.	0.1	6053.6
26177	0.82016	4.9091	0.1	6092.9
26178	0.72903	5.1818	0.1	5938.9
26179	0.82016	5.0909	0.1	5996.1
26180	0.72903	5.3636	0.1	5843.7
26181	0.82016	5.2727	0.1	5913.
26182	0.72903	5.5455	0.1	5783.
26183	0.82016	5.4545	0.1	5855.2
26184	0.72903	5.7273	0.1	5783.7
26185	0.82016	5.6364	0.1	5833.3
26186	0.82016	5.8182	0.1	5881.8
26187	0.72903	5.9091	0.1	5717.5
26188	0.91129	0.27273	0.1	5931.9
26189	1.0024	0.18182	0.1	6000.4
26190	0.91129	9.0909e-002	0.1	5891.4
26191	0.91129	0.45455	0.1	5905.6
26192	1.0024	0.36364	0.1	5942.9
26193	0.91129	0.63636	0.1	5923.8
26194	1.0024	0.54545	0.1	5937.2
26195	0.91129	0.81818	0.1	5969.1
26196	1.0024	0.72727	0.1	5957.5
26197	0.91129	1.	0.1	6034.3
26198	1.0024	0.90909	0.1	5999.
26199	0.91129	1.1818	0.1	6111.2
26200	1.0024	1.0909	0.1	6055.6
26201	0.91129	1.3636	0.1	6192.3
26202	1.0024	1.2727	0.1	6120.9
26203	0.91129	1.5455	0.1	6271.9
26204	1.0024	1.4545	0.1	6189.1
26205	0.91129	1.7273	0.1	6345.8
26206	1.0024	1.6364	0.1	6255.5
26207	0.91129	1.9091	0.1	6411.7
26208	1.0024	1.8182	0.1	6317.
26209	0.91129	2.0909	0.1	6468.1
26210	1.0024	2.	0.1	6371.5
26211	0.91129	2.2727	0.1	6514.5
26212	1.0024	2.1818	0.1	6417.9
26213	0.91129	2.4545	0.1	6550.6
26214	1.0024	2.3636	0.1	6455.4
26215	0.91129	2.6364	0.1	6576.3
26216	1.0024	2.5455	0.1	6483.6
26217	0.91129	2.8182	0.1	6591.6
26218	1.0024	2.7273	0.1	6502.5
26219	0.91129	3.	0.1	6596.7
26220	1.0024	2.9091	0.1	6512.
26221	0.91129	3.1818	0.1	6591.6
26222	1.0024	3.0909	0.1	6512.
26223	0.91129	3.3636	0.1	6576.3
26224	1.0024	3.2727	0.1	6502.5
26225	0.91129	3.5455	0.1	6550.6
26226	1.0024	3.4545	0.1	6483.6
26227	0.91129	3.7273	0.1	6514.5
26228	1.0024	3.6364	0.1	6455.4
26229	0.91129	3.9091	0.1	6468.1
26230	1.0024	3.8182	0.1	6417.9
26231	0.91129	4.0909	0.1	6411.7
26232	1.0024	4.	0.1	6371.5
26233	0.91129	4.2727	0.1	6345.8
26234	1.0024	4.1818	0.1	6317.
26235	0.91129	4.4545	0.1	6271.9
26236	1.0024	4.3636	0.1	6255.5
26237	0.91129	4.6364	0.1	6192.3
26238	1.0024	4.5455	0.1	6189.
26239	0.91129	4.8182	0.1	6111.2
26240	1.0024	4.7273	0.1	6120.9
26241	0.91129	5.	0.1	6034.3
26242	1.0024	4.9091	0.1	6055.6
26243	0.91129	5.1818	0.1	5969.1
26244	1.0024	5.0909	0.1	5999.
26245	0.91129	5.3636	0.1	5923.8
26246	1.0024	5.2727	0.1	5957.5
26247	0.91129	5.5455	0.1	5905.6
26248	1.0024	5.4545	0.1	5937.2
26249	0.91129	5.7273	0.1	5931.9
26250	1.0024	5.6364	0.1	5942.9
26251	1.0024	5.8182	0.1	6000.4
26252	0.91129	5.9091	0.1	5891.4
26253	1.0935	0.27273	0.1	6011.9
26254	1.1847	0.18182	0.1	6058.
26255	1.0935	9.0909e-002	0.1	5987.
26256	1.0935	0.45455	0.1	5975.
26257	1.1847	0.36364	0.1	5999.4
26258	1.0935	0.63636	0.1	5970.8
26259	1.1847	0.54545	0.1	5979.8
26260	1.0935	0.81818	0.1	5986.8
26261	1.1847	0.72727	0.1	5979.
26262	1.0935	1.	0.1	6019.6
26263	1.1847	0.90909	0.1	5994.6
26264	1.0935	1.1818	0.1	6064.7
26265	1.1847	1.0909	0.1	6023.7
26266	1.0935	1.3636	0.1	6117.1
26267	1.1847	1.2727	0.1	6062.5
26268	1.0935	1.5455	0.1	6172.2
26269	1.1847	1.4545	0.1	6106.8
26270	1.0935	1.7273	0.1	6226.3
26271	1.1847	1.6364	0.1	6152.8
26272	1.0935	1.9091	0.1	6276.5
26273	1.1847	1.8182	0.1	6197.7
26274	1.0935	2.0909	0.1	6321.1
26275	1.1847	2.	0.1	6239.
26276	1.0935	2.2727	0.1	6358.6
26277	1.1847	2.1818	0.1	6275.1
26278	1.0935	2.4545	0.1	6388.3
26279	1.1847	2.3636	0.1	6305.
26280	1.0935	2.6364	0.1	6409.7
26281	1.1847	2.5455	0.1	6327.9
26282	1.0935	2.8182	0.1	6422.7
26283	1.1847	2.7273	0.1	6343.4
26284	1.0935	3.	0.1	6427.
26285	1.1847	2.9091	0.1	6351.2
26286	1.0935	3.1818	0.1	6422.7
26287	1.1847	3.0909	0.1	6351.2
26288	1.0935	3.3636	0.1	6409.7
26289	1.1847	3.2727	0.1	6343.4
26290	1.0935	3.5455	0.1	6388.3
26291	1.1847	3.4545	0.1	6327.9
26292	1.0935	3.7273	0.1	6358.6
26293	1.1847	3.6364	0.1	6305.
26294	1.0935	3.9091	0.1	6321.1
26295	1.1847	3.8182	0.1	6275.1
26296	1.0935	4.0909	0.1	6276.5
26297	1.1847	4.	0.1	6239.
26298	1.0935	4.2727	0.1	6226.3
26299	1.1847	4.1818	0.1	6197.7
26300	1.0935	4.4545	0.1	6172.2
26301	1.1847	4.3636	0.1	6152.8
26302	1.0935	4.6364	0.1	6117.1
26303	1.1847	4.5455	0.1	6106.8
26304	1.0935	4.8182	0.1	6064.7
26305	1.1847	4.7273	0.1	6062.5
26306	1.0935	5.	0.1	6019.6
26307	1.1847	4.9091	0.1	6023.7
26308	1.0935	5.1818	0.1	5986.8
26309	1.1847	5.0909	0.1	5994.6
26310	1.0935	5.3636	0.1	5970.8
26311	1.1847	5.2727	0.1	5979.
26312	1.0935	5.5455	0.1	5975.
26313	1.1847	5.4545	0.1	5979.8
26314	1.0935	5.7273	0.1	6011.9
26315	1.1847	5.6364	0.1	5999.4
26316	1.1847	5.8182	0.1	6058.
26317	1.0935	5.9091	0.1	5987.
26318	1.2758	0.27273	0.1	6045.9
26319	1.3669	0.18182	0.1	6075.8
26320	1.2758	9.0909e-002	0.1	6031.9
26321	1.2758	0.45455	0.1	6004.7
26322	1.3669	0.36364	0.1	6018.9
26323	1.2758	0.63636	0.1	5988.2
26324	1.3669	0.54545	0.1	5992.3
26325	1.2758	0.81818	0.1	5986.6
26326	1.3669	0.72727	0.1	5979.2
26327	1.2758	1.	0.1	5998.3
26328	1.3669	0.90909	0.1	5978.7
26329	1.2758	1.1818	0.1	6021.
26330	1.3669	1.0909	0.1	5989.3
26331	1.2758	1.3636	0.1	6051.7
26332	1.3669	1.2727	0.1	6008.8
26333	1.2758	1.5455	0.1	6086.9
26334	1.3669	1.4545	0.1	6034.7
26335	1.2758	1.7273	0.1	6123.8
26336	1.3669	1.6364	0.1	6064.
26337	1.2758	1.9091	0.1	6159.7
26338	1.3669	1.8182	0.1	6094.3
26339	1.2758	2.0909	0.1	6192.7
26340	1.3669	2.	0.1	6123.5
26341	1.2758	2.2727	0.1	6221.3
26342	1.3669	2.1818	0.1	6150.
26343	1.2758	2.4545	0.1	6244.5
26344	1.3669	2.3636	0.1	6172.4
26345	1.2758	2.6364	0.1	6261.4
26346	1.3669	2.5455	0.1	6189.9
26347	1.2758	2.8182	0.1	6271.7
26348	1.3669	2.7273	0.1	6201.9
26349	1.2758	3.	0.1	6275.2
26350	1.3669	2.9091	0.1	6208.
26351	1.2758	3.1818	0.1	6271.7
26352	1.3669	3.0909	0.1	6208.
26353	1.2758	3.3636	0.1	6261.4
26354	1.3669	3.2727	0.1	6201.9
26355	1.2758	3.5455	0.1	6244.5
26356	1.3669	3.4545	0.1	6189.9
26357	1.2758	3.7273	0.1	6221.3
26358	1.3669	3.6364	0.1	6172.4
26359	1.2758	3.9091	0.1	6192.7
26360	1.3669	3.8182	0.1	6150.
26361	1.2758	4.0909	0.1	6159.7
26362	1.3669	4.	0.1	6123.5
26363	1.2758	4.2727	0.1	6123.8
26364	1.3669	4.1818	0.1	6094.3
26365	1.2758	4.4545	0.1	6086.9
26366	1.3669	4.3636	0.1	6064.
26367	1.2758	4.6364	0.1	6051.7
26368	1.3669	4.5455	0.1	6034.7
26369	1.2758	4.8182	0.1	6021.
26370	1.3669	4.7273	0.1	6008.8
26371	1.2758	5.	0.1	5998.3
26372	1.3669	4.9091	0.1	5989.3
26373	1.2758	5.1818	0.1	5986.6
26374	1.3669	5.0909	0.1	5978.7
26375	1.2758	5.3636	0.1	5988.2
26376	1.3669	5.2727	0.1	5979.2
26377	1.2758	5.5455	0.1	6004.7
26378	1.3669	5.4545	0.1	5992.3
26379	1.2758	5.7273	0.1	6045.9
26380	1.3669	5.6364	0.1	6018.9
26381	1.3669	5.8182	0.1	6075.8
26382	1.2758	5.9091	0.1	6031.9
26383	1.4581	0.27273	0.1	6049.3
26384	1.5492	0.18182	0.1	6067.1
26385	1.4581	9.0909e-002	0.1	6043.1
26386	1.4581	0.45455	0.1	6007.
26387	1.5492	0.36364	0.1	6013.1
26388	1.4581	0.63636	0.1	5983.6
26389	1.5492	0.54545	0.1	5983.
26390	1.4581	0.81818	0.1	5971.4
26391	1.5492	0.72727	0.1	5962.8
26392	1.4581	1.	0.1	5969.5
26393	1.5492	0.90909	0.1	5952.2
26394	1.4581	1.1818	0.1	5976.8
26395	1.5492	1.0909	0.1	5950.4
26396	1.4581	1.3636	0.1	5991.4
26397	1.5492	1.2727	0.1	5956.4
26398	1.4581	1.5455	0.1	6011.3
26399	1.5492	1.4545	0.1	5968.4
26400	1.4581	1.7273	0.1	6034.1
26401	1.5492	1.6364	0.1	5984.5
26402	1.4581	1.9091	0.1	6057.7
26403	1.5492	1.8182	0.1	6002.9
26404	1.4581	2.0909	0.1	6080.4
26405	1.5492	2.	0.1	6021.8
26406	1.4581	2.2727	0.1	6100.8
26407	1.5492	2.1818	0.1	6039.6
26408	1.4581	2.4545	0.1	6117.6
26409	1.5492	2.3636	0.1	6055.2
26410	1.4581	2.6364	0.1	6130.2
26411	1.5492	2.5455	0.1	6067.7
26412	1.4581	2.8182	0.1	6137.9
26413	1.5492	2.7273	0.1	6076.3
26414	1.4581	3.	0.1	6140.5
26415	1.5492	2.9091	0.1	6080.7
26416	1.4581	3.1818	0.1	6137.9
26417	1.5492	3.0909	0.1	6080.7
26418	1.4581	3.3636	0.1	6130.2
26419	1.5492	3.2727	0.1	6076.3
26420	1.4581	3.5455	0.1	6117.6
26421	1.5492	3.4545	0.1	6067.7
26422	1.4581	3.7273	0.1	6100.8
26423	1.5492	3.6364	0.1	6055.2
26424	1.4581	3.9091	0.1	6080.4
26425	1.5492	3.8182	0.1	6039.6
26426	1.4581	4.0909	0.1	6057.7
26427	1.5492	4.	0.1	6021.8
26428	1.4581	4.2727	0.1	6034.1
26429	1.5492	4.1818	0.1	6002.9
26430	1.4581	4.4545	0.1	6011.3
26431	1.5492	4.3636	0.1	5984.5
26432	1.4581	4.6364	0.1	5991.4
26433	1.5492	4.5455	0.1	5968.4
26434	1.4581	4.8182	0.1	5976.8
26435	1.5492	4.7273	0.1	5956.4
26436	1.4581	5.	0.1	5969.5
26437	1.5492	4.9091	0.1	5950.4
26438	1.4581	5.1818	0.1	5971.4
26439	1.5492	5.0909	0.1	5952.2
26440	1.4581	5.3636	0.1	5983.6
26441	1.5492	5.2727	0.1	5962.8
26442	1.4581	5.5455	0.1	6007.
26443	1.5492	5.4545	0.1	5983.
26444	1.4581	5.7273	0.1	6049.3
26445	1.5492	5.6364	0.1	6013.1
26446	1.5492	5.8182	0.1	6067.1
26447	1.4581	5.9091	0.1	6043.1
26448	1.6403	0.27273	0.1	6031.3
26449	1.7315	0.18182	0.1	6039.9
26450	1.6403	9.0909e-002	0.1	6031.
26451	1.6403	0.45455	0.1	5989.6
26452	1.7315	0.36364	0.1	5989.4
26453	1.6403	0.63636	0.1	5962.5
26454	1.7315	0.54545	0.1	5957.8
26455	1.6403	0.81818	0.1	5943.8
26456	1.7315	0.72727	0.1	5933.6
26457	1.6403	1.	0.1	5933.1
26458	1.7315	0.90909	0.1	5916.6
26459	1.6403	1.1818	0.1	5929.8
26460	1.7315	1.0909	0.1	5906.7
26461	1.6403	1.3636	0.1	5933.
26462	1.7315	1.2727	0.1	5903.1
26463	1.6403	1.5455	0.1	5941.3
26464	1.7315	1.4545	0.1	5905.1
26465	1.6403	1.7273	0.1	5953.
26466	1.7315	1.6364	0.1	5911.2
26467	1.6403	1.9091	0.1	5966.6
26468	1.7315	1.8182	0.1	5920.1
26469	1.6403	2.0909	0.1	5980.6
26470	1.7315	2.	0.1	5930.4
26471	1.6403	2.2727	0.1	5993.7
26472	1.7315	2.1818	0.1	5941.
26473	1.6403	2.4545	0.1	6004.9
26474	1.7315	2.3636	0.1	5950.7
26475	1.6403	2.6364	0.1	6013.5
26476	1.7315	2.5455	0.1	5958.7
26477	1.6403	2.8182	0.1	6018.8
26478	1.7315	2.7273	0.1	5964.3
26479	1.6403	3.	0.1	6020.7
26480	1.7315	2.9091	0.1	5967.3
26481	1.6403	3.1818	0.1	6018.8
26482	1.7315	3.0909	0.1	5967.3
26483	1.6403	3.3636	0.1	6013.5
26484	1.7315	3.2727	0.1	5964.3
26485	1.6403	3.5455	0.1	6004.9
26486	1.7315	3.4545	0.1	5958.7
26487	1.6403	3.7273	0.1	5993.7
26488	1.7315	3.6364	0.1	5950.7
26489	1.6403	3.9091	0.1	5980.6
26490	1.7315	3.8182	0.1	5941.
26491	1.6403	4.0909	0.1	5966.6
26492	1.7315	4.	0.1	5930.4
26493	1.6403	4.2727	0.1	5953.
26494	1.7315	4.1818	0.1	5920.1
26495	1.6403	4.4545	0.1	5941.3
26496	1.7315	4.3636	0.1	5911.2
26497	1.6403	4.6364	0.1	5933.
26498	1.7315	4.5455	0.1	5905.1
26499	1.6403	4.8182	0.1	5929.8
26500	1.7315	4.7273	0.1	5903.1
26501	1.6403	5.	0.1	5933.1
26502	1.7315	4.9091	0.1	5906.7
26503	1.6403	5.1818	0.1	5943.8
26504	1.7315	5.0909	0.1	5916.6
26505	1.6403	5.3636	0.1	5962.5
26506	1.7315	5.2727	0.1	5933.6
26507	1.6403	5.5455	0.1	5989.6
26508	1.7315	5.4545	0.1	5957.8
26509	1.6403	5.7273	0.1	6031.3
26510	1.7315	5.6364	0.1	5989.4
26511	1.7315	5.8182	0.1	6039.9
26512	1.6403	5.9091	0.1	6031.
26513	1.8226	0.27273	0.1	5998.4
26514	1.9137	0.18182	0.1	6000.
26515	1.8226	9.0909e-002	0.1	6002.5
26516	1.8226	0.45455	0.1	5958.
26517	1.9137	0.36364	0.1	5952.9
26518	1.8226	0.63636	0.1	5929.2
26519	1.9137	0.54545	0.1	5921.
26520	1.8226	0.81818	0.1	5906.6
26521	1.9137	0.72727	0.1	5894.6
26522	1.8226	1.	0.1	5890.2
26523	1.9137	0.90909	0.1	5873.8
26524	1.8226	1.1818	0.1	5879.9
26525	1.9137	1.0909	0.1	5858.5
26526	1.8226	1.3636	0.1	5875.
26527	1.9137	1.2727	0.1	5848.5
26528	1.8226	1.5455	0.1	5874.7
26529	1.9137	1.4545	0.1	5843.2
26530	1.8226	1.7273	0.1	5878.
26531	1.9137	1.6364	0.1	5841.9
26532	1.8226	1.9091	0.1	5883.6
26533	1.9137	1.8182	0.1	5843.5
26534	1.8226	2.0909	0.1	5890.5
26535	1.9137	2.	0.1	5847.1
26536	1.8226	2.2727	0.1	5897.6
26537	1.9137	2.1818	0.1	5851.8
26538	1.8226	2.4545	0.1	5904.1
26539	1.9137	2.3636	0.1	5856.6
26540	1.8226	2.6364	0.1	5909.2
26541	1.9137	2.5455	0.1	5860.8
26542	1.8226	2.8182	0.1	5912.5
26543	1.9137	2.7273	0.1	5863.9
26544	1.8226	3.	0.1	5913.6
26545	1.9137	2.9091	0.1	5865.6
26546	1.8226	3.1818	0.1	5912.5
26547	1.9137	3.0909	0.1	5865.6
26548	1.8226	3.3636	0.1	5909.2
26549	1.9137	3.2727	0.1	5863.9
26550	1.8226	3.5455	0.1	5904.1
26551	1.9137	3.4545	0.1	5860.8
26552	1.8226	3.7273	0.1	5897.6
26553	1.9137	3.6364	0.1	5856.6
26554	1.8226	3.9091	0.1	5890.5
26555	1.9137	3.8182	0.1	5851.8
26556	1.8226	4.0909	0.1	5883.6
26557	1.9137	4.	0.1	5847.1
26558	1.8226	4.2727	0.1	5878.
26559	1.9137	4.1818	0.1	5843.5
26560	1.8226	4.4545	0.1	5874.7
26561	1.9137	4.3636	0.1	5841.9
26562	1.8226	4.6364	0.1	5875.
26563	1.9137	4.5455	0.1	5843.2
26564	1.8226	4.8182	0.1	5879.9
26565	1.9137	4.7273	0.1	5848.5
26566	1.8226	5.	0.1	5890.2
26567	1.9137	4.9091	0.1	5858.5
26568	1.8226	5.1818	0.1	5906.6
26569	1.9137	5.0909	0.1	5873.8
26570	1.8226	5.3636	0.1	5929.2
26571	1.9137	5.2727	0.1	5894.6
26572	1.8226	5.5455	0.1	5958.
26573	1.9137	5.4545	0.1	5921.
26574	1.8226	5.7273	0.1	5998.4
26575	1.9137	5.6364	0.1	5952.9
26576	1.9137	5.8182	0.1	6000.
26577	1.8226	5.9091	0.1	6002.5
26578	2.0048	0.27273	0.1	5954.8
26579	2.096	0.18182	0.1	5951.
26580	2.0048	9.0909e-002	0.1	5962.4
26581	2.0048	0.45455	0.1	5916.2
26582	2.096	0.36364	0.1	5907.3
26583	2.0048	0.63636	0.1	5886.8
26584	2.096	0.54545	0.1	5875.8
26585	2.0048	0.81818	0.1	5862.1
26586	2.096	0.72727	0.1	5848.5
26587	2.0048	1.	0.1	5842.2
26588	2.096	0.90909	0.1	5825.5
26589	2.0048	1.1818	0.1	5827.1
26590	2.096	1.0909	0.1	5806.8
26591	2.0048	1.3636	0.1	5816.7
26592	2.096	1.2727	0.1	5792.4
26593	2.0048	1.5455	0.1	5810.2
26594	2.096	1.4545	0.1	5782.1
26595	2.0048	1.7273	0.1	5807.2
26596	2.096	1.6364	0.1	5775.4
26597	2.0048	1.9091	0.1	5806.8
26598	2.096	1.8182	0.1	5771.6
26599	2.0048	2.0909	0.1	5808.1
26600	2.096	2.	0.1	5770.
26601	2.0048	2.2727	0.1	5810.4
26602	2.096	2.1818	0.1	5770.
26603	2.0048	2.4545	0.1	5813.
26604	2.096	2.3636	0.1	5770.9
26605	2.0048	2.6364	0.1	5815.2
26606	2.096	2.5455	0.1	5772.1
26607	2.0048	2.8182	0.1	5816.7
26608	2.096	2.7273	0.1	5773.2
26609	2.0048	3.	0.1	5817.3
26610	2.096	2.9091	0.1	5773.8
26611	2.0048	3.1818	0.1	5816.7
26612	2.096	3.0909	0.1	5773.8
26613	2.0048	3.3636	0.1	5815.2
26614	2.096	3.2727	0.1	5773.2
26615	2.0048	3.5455	0.1	5813.
26616	2.096	3.4545	0.1	5772.1
26617	2.0048	3.7273	0.1	5810.4
26618	2.096	3.6364	0.1	5770.9
26619	2.0048	3.9091	0.1	5808.1
26620	2.096	3.8182	0.1	5770.
26621	2.0048	4.0909	0.1	5806.8
26622	2.096	4.	0.1	5770.
26623	2.0048	4.2727	0.1	5807.2
26624	2.096	4.1818	0.1	5771.6
26625	2.0048	4.4545	0.1	5810.2
26626	2.096	4.3636	0.1	5775.4
26627	2.0048	4.6364	0.1	5816.7
26628	2.096	4.5455	0.1	5782.1
26629	2.0048	4.8182	0.1	5827.1
26630	2.096	4.7273	0.1	5792.4
26631	2.0048	5.	0.1	5842.2
26632	2.096	4.9091	0.1	5806.8
26633	2.0048	5.1818	0.1	5862.1
26634	2.096	5.0909	0.1	5825.5
26635	2.0048	5.3636	0.1	5886.8
26636	2.096	5.2727	0.1	5848.5
26637	2.0048	5.5455	0.1	5916.2
26638	2.096	5.4545	0.1	5875.8
26639	2.0048	5.7273	0.1	5954.8
26640	2.096	5.6364	0.1	5907.3
26641	2.096	5.8182	0.1	5951.
26642	2.0048	5.9091	0.1	5962.4
26643	2.1871	0.27273	0.1	5903.7
26644	2.2782	0.18182	0.1	5895.6
26645	2.1871	9.0909e-002	0.1	5913.8
26646	2.1871	0.45455	0.1	5867.1
26647	2.2782	0.36364	0.1	5855.1
26648	2.1871	0.63636	0.1	5837.8
26649	2.2782	0.54545	0.1	5824.5
26650	2.1871	0.81818	0.1	5812.1
26651	2.2782	0.72727	0.1	5797.
26652	2.1871	1.	0.1	5790.1
26653	2.2782	0.90909	0.1	5772.9
26654	2.1871	1.1818	0.1	5772.1
26655	2.2782	1.0909	0.1	5752.2
26656	2.1871	1.3636	0.1	5757.8
26657	2.2782	1.2727	0.1	5735.1
26658	2.1871	1.5455	0.1	5747.1
26659	2.2782	1.4545	0.1	5721.3
26660	2.1871	1.7273	0.1	5739.6
26661	2.2782	1.6364	0.1	5710.8
26662	2.1871	1.9091	0.1	5734.6
26663	2.2782	1.8182	0.1	5703.1
26664	2.1871	2.0909	0.1	5731.7
26665	2.2782	2.	0.1	5697.8
26666	2.1871	2.2727	0.1	5730.3
26667	2.2782	2.1818	0.1	5694.3
26668	2.1871	2.4545	0.1	5729.8
26669	2.2782	2.3636	0.1	5692.1
26670	2.1871	2.6364	0.1	5729.8
26671	2.2782	2.5455	0.1	5691.
26672	2.1871	2.8182	0.1	5729.9
26673	2.2782	2.7273	0.1	5690.4
26674	2.1871	3.	0.1	5730.
26675	2.2782	2.9091	0.1	5690.1
26676	2.1871	3.1818	0.1	5729.9
26677	2.2782	3.0909	0.1	5690.1
26678	2.1871	3.3636	0.1	5729.8
26679	2.2782	3.2727	0.1	5690.4
26680	2.1871	3.5455	0.1	5729.8
26681	2.2782	3.4545	0.1	5691.
26682	2.1871	3.7273	0.1	5730.3
26683	2.2782	3.6364	0.1	5692.1
26684	2.1871	3.9091	0.1	5731.7
26685	2.2782	3.8182	0.1	5694.3
26686	2.1871	4.0909	0.1	5734.6
26687	2.2782	4.	0.1	5697.8
26688	2.1871	4.2727	0.1	5739.6
26689	2.2782	4.1818	0.1	5703.1
26690	2.1871	4.4545	0.1	5747.1
26691	2.2782	4.3636	0.1	5710.8
26692	2.1871	4.6364	0.1	5757.8
26693	2.2782	4.5455	0.1	5721.3
26694	2.1871	4.8182	0.1	5772.1
26695	2.2782	4.7273	0.1	5735.1
26696	2.1871	5.	0.1	5790.1
26697	2.2782	4.9091	0.1	5752.2
26698	2.1871	5.1818	0.1	5812.1
26699	2.2782	5.0909	0.1	5772.9
26700	2.1871	5.3636	0.1	5837.8
26701	2.2782	5.2727	0.1	5797.
26702	2.1871	5.5455	0.1	5867.1
26703	2.2782	5.4545	0.1	5824.5
26704	2.1871	5.7273	0.1	5903.7
26705	2.2782	5.6364	0.1	5855.1
26706	2.2782	5.8182	0.1	5895.6
26707	2.1871	5.9091	0.1	5913.8
26708	2.3694	0.27273	0.1	5847.2
26709	2.4605	0.18182	0.1	5835.8
26710	2.3694	9.0909e-002	0.1	5859.3
26711	2.3694	0.45455	0.1	5812.7
26712	2.4605	0.36364	0.1	5798.3
26713	2.3694	0.63636	0.1	5784.
26714	2.4605	0.54545	0.1	5768.8
26715	2.3694	0.81818	0.1	5758.
26716	2.4605	0.72727	0.1	5741.7
26717	2.3694	1.	0.1	5735.1
26718	2.4605	0.90909	0.1	5717.2
26719	2.3694	1.1818	0.1	5715.2
26720	2.4605	1.0909	0.1	5695.5
26721	2.3694	1.3636	0.1	5698.6
26722	2.4605	1.2727	0.1	5676.7
26723	2.3694	1.5455	0.1	5685.
26724	2.4605	1.4545	0.1	5660.8
26725	2.3694	1.7273	0.1	5674.3
26726	2.4605	1.6364	0.1	5647.8
26727	2.3694	1.9091	0.1	5666.1
26728	2.4605	1.8182	0.1	5637.3
26729	2.3694	2.0909	0.1	5660.1
26730	2.4605	2.	0.1	5629.3
26731	2.3694	2.2727	0.1	5655.9
26732	2.4605	2.1818	0.1	5623.2
26733	2.3694	2.4545	0.1	5653.
26734	2.4605	2.3636	0.1	5618.8
26735	2.3694	2.6364	0.1	5651.3
26736	2.4605	2.5455	0.1	5615.9
26737	2.3694	2.8182	0.1	5650.3
26738	2.4605	2.7273	0.1	5614.
26739	2.3694	3.	0.1	5650.
26740	2.4605	2.9091	0.1	5613.2
26741	2.3694	3.1818	0.1	5650.3
26742	2.4605	3.0909	0.1	5613.2
26743	2.3694	3.3636	0.1	5651.3
26744	2.4605	3.2727	0.1	5614.
26745	2.3694	3.5455	0.1	5653.
26746	2.4605	3.4545	0.1	5615.9
26747	2.3694	3.7273	0.1	5655.9
26748	2.4605	3.6364	0.1	5618.8
26749	2.3694	3.9091	0.1	5660.1
26750	2.4605	3.8182	0.1	5623.2
26751	2.3694	4.0909	0.1	5666.1
26752	2.4605	4.	0.1	5629.3
26753	2.3694	4.2727	0.1	5674.3
26754	2.4605	4.1818	0.1	5637.3
26755	2.3694	4.4545	0.1	5685.
26756	2.4605	4.3636	0.1	5647.8
26757	2.3694	4.6364	0.1	5698.6
26758	2.4605	4.5455	0.1	5660.8
26759	2.3694	4.8182	0.1	5715.2
26760	2.4605	4.7273	0.1	5676.7
26761	2.3694	5.	0.1	5735.1
26762	2.4605	4.9091	0.1	5695.5
26763	2.3694	5.1818	0.1	5758.
26764	2.4605	5.0909	0.1	5717.2
26765	2.3694	5.3636	0.1	5784.
26766	2.4605	5.2727	0.1	5741.7
26767	2.3694	5.5455	0.1	5812.7
26768	2.4605	5.4545	0.1	5768.8
26769	2.3694	5.7273	0.1	5847.2
26770	2.4605	5.6364	0.1	5798.3
26771	2.4605	5.8182	0.1	5835.8
26772	2.3694	5.9091	0.1	5859.3
26773	2.5516	0.27273	0.1	5787.
26774	2.6427	0.18182	0.1	5772.9
26775	2.5516	9.0909e-002	0.1	5800.6
26776	2.5516	0.45455	0.1	5754.6
26777	2.6427	0.36364	0.1	5738.3
26778	2.5516	0.63636	0.1	5726.8
26779	2.6427	0.54545	0.1	5710.1
26780	2.5516	0.81818	0.1	5701.1
26781	2.6427	0.72727	0.1	5683.7
26782	2.5516	1.	0.1	5677.8
26783	2.6427	0.90909	0.1	5659.4
26784	2.5516	1.1818	0.1	5657.1
26785	2.6427	1.0909	0.1	5637.3
26786	2.5516	1.3636	0.1	5639.
26787	2.6427	1.2727	0.1	5617.6
26788	2.5516	1.5455	0.1	5623.6
26789	2.6427	1.4545	0.1	5600.5
26790	2.5516	1.7273	0.1	5610.7
26791	2.6427	1.6364	0.1	5585.8
26792	2.5516	1.9091	0.1	5600.4
26793	2.6427	1.8182	0.1	5573.6
26794	2.5516	2.0909	0.1	5592.2
26795	2.6427	2.	0.1	5563.7
26796	2.5516	2.2727	0.1	5586.
26797	2.6427	2.1818	0.1	5555.9
26798	2.5516	2.4545	0.1	5581.4
26799	2.6427	2.3636	0.1	5549.9
26800	2.5516	2.6364	0.1	5578.4
26801	2.6427	2.5455	0.1	5545.7
26802	2.5516	2.8182	0.1	5576.6
26803	2.6427	2.7273	0.1	5542.9
26804	2.5516	3.	0.1	5576.1
26805	2.6427	2.9091	0.1	5541.6
26806	2.5516	3.1818	0.1	5576.6
26807	2.6427	3.0909	0.1	5541.6
26808	2.5516	3.3636	0.1	5578.4
26809	2.6427	3.2727	0.1	5542.9
26810	2.5516	3.5455	0.1	5581.4
26811	2.6427	3.4545	0.1	5545.7
26812	2.5516	3.7273	0.1	5586.
26813	2.6427	3.6364	0.1	5549.9
26814	2.5516	3.9091	0.1	5592.2
26815	2.6427	3.8182	0.1	5555.9
26816	2.5516	4.0909	0.1	5600.4
26817	2.6427	4.	0.1	5563.7
26818	2.5516	4.2727	0.1	5610.7
26819	2.6427	4.1818	0.1	5573.6
26820	2.5516	4.4545	0.1	5623.6
26821	2.6427	4.3636	0.1	5585.8
26822	2.5516	4.6364	0.1	5639.
26823	2.6427	4.5455	0.1	5600.5
26824	2.5516	4.8182	0.1	5657.1
26825	2.6427	4.7273	0.1	5617.6
26826	2.5516	5.	0.1	5677.8
26827	2.6427	4.9091	0.1	5637.3
26828	2.5516	5.1818	0.1	5701.1
26829	2.6427	5.0909	0.1	5659.4
26830	2.5516	5.3636	0.1	5726.8
26831	2.6427	5.2727	0.1	5683.7
26832	2.5516	5.5455	0.1	5754.6
26833	2.6427	5.4545	0.1	5710.1
26834	2.5516	5.7273	0.1	5787.
26835	2.6427	5.6364	0.1	5738.3
26836	2.6427	5.8182	0.1	5772.9
26837	2.5516	5.9091	0.1	5800.6
26838	2.7339	0.27273	0.1	5724.3
26839	2.825	0.18182	0.1	5708.
26840	2.7339	9.0909e-002	0.1	5738.9
26841	2.7339	0.45455	0.1	5693.9
26842	2.825	0.36364	0.1	5676.1
26843	2.7339	0.63636	0.1	5667.2
26844	2.825	0.54545	0.1	5649.2
26845	2.7339	0.81818	0.1	5642.2
26846	2.825	0.72727	0.1	5623.8
26847	2.7339	1.	0.1	5619.
26848	2.825	0.90909	0.1	5600.
26849	2.7339	1.1818	0.1	5598.
26850	2.825	1.0909	0.1	5578.1
26851	2.7339	1.3636	0.1	5579.2
26852	2.825	1.2727	0.1	5558.1
26853	2.7339	1.5455	0.1	5562.7
26854	2.825	1.4545	0.1	5540.4
26855	2.7339	1.7273	0.1	5548.7
26856	2.825	1.6364	0.1	5524.8
26857	2.7339	1.9091	0.1	5536.8
26858	2.825	1.8182	0.1	5511.6
26859	2.7339	2.0909	0.1	5527.2
26860	2.825	2.	0.1	5500.5
26861	2.7339	2.2727	0.1	5519.6
26862	2.825	2.1818	0.1	5491.5
26863	2.7339	2.4545	0.1	5513.9
26864	2.825	2.3636	0.1	5484.5
26865	2.7339	2.6364	0.1	5510.
26866	2.825	2.5455	0.1	5479.3
26867	2.7339	2.8182	0.1	5507.7
26868	2.825	2.7273	0.1	5476.
26869	2.7339	3.	0.1	5506.9
26870	2.825	2.9091	0.1	5474.3
26871	2.7339	3.1818	0.1	5507.7
26872	2.825	3.0909	0.1	5474.3
26873	2.7339	3.3636	0.1	5510.
26874	2.825	3.2727	0.1	5476.
26875	2.7339	3.5455	0.1	5513.9
26876	2.825	3.4545	0.1	5479.3
26877	2.7339	3.7273	0.1	5519.6
26878	2.825	3.6364	0.1	5484.5
26879	2.7339	3.9091	0.1	5527.2
26880	2.825	3.8182	0.1	5491.5
26881	2.7339	4.0909	0.1	5536.8
26882	2.825	4.	0.1	5500.5
26883	2.7339	4.2727	0.1	5548.7
26884	2.825	4.1818	0.1	5511.6
26885	2.7339	4.4545	0.1	5562.7
26886	2.825	4.3636	0.1	5524.8
26887	2.7339	4.6364	0.1	5579.2
26888	2.825	4.5455	0.1	5540.4
26889	2.7339	4.8182	0.1	5598.
26890	2.825	4.7273	0.1	5558.1
26891	2.7339	5.	0.1	5619.
26892	2.825	4.9091	0.1	5578.1
26893	2.7339	5.1818	0.1	5642.2
26894	2.825	5.0909	0.1	5600.
26895	2.7339	5.3636	0.1	5667.2
26896	2.825	5.2727	0.1	5623.8
26897	2.7339	5.5455	0.1	5693.9
26898	2.825	5.4545	0.1	5649.2
26899	2.7339	5.7273	0.1	5724.3
26900	2.825	5.6364	0.1	5676.1
26901	2.825	5.8182	0.1	5708.
26902	2.7339	5.9091	0.1	5738.9
26903	2.9161	0.27273	0.1	5659.9
26904	3.0073	0.18182	0.1	5642.
26905	2.9161	9.0909e-002	0.1	5675.1
26906	2.9161	0.45455	0.1	5631.5
26907	3.0073	0.36364	0.1	5612.4
26908	2.9161	0.63636	0.1	5606.
26909	3.0073	0.54545	0.1	5587.
26910	2.9161	0.81818	0.1	5581.8
26911	3.0073	0.72727	0.1	5562.7
26912	2.9161	1.	0.1	5559.2
26913	3.0073	0.90909	0.1	5539.7
26914	2.9161	1.1818	0.1	5538.3
26915	3.0073	1.0909	0.1	5518.2
26916	2.9161	1.3636	0.1	5519.4
26917	3.0073	1.2727	0.1	5498.4
26918	2.9161	1.5455	0.1	5502.5
26919	3.0073	1.4545	0.1	5480.5
26920	2.9161	1.7273	0.1	5487.7
26921	3.0073	1.6364	0.1	5464.6
26922	2.9161	1.9091	0.1	5475.1
26923	3.0073	1.8182	0.1	5450.8
26924	2.9161	2.0909	0.1	5464.6
26925	3.0073	2.	0.1	5439.1
26926	2.9161	2.2727	0.1	5456.1
26927	3.0073	2.1818	0.1	5429.4
26928	2.9161	2.4545	0.1	5449.7
26929	3.0073	2.3636	0.1	5421.8
26930	2.9161	2.6364	0.1	5445.1
26931	3.0073	2.5455	0.1	5416.1
26932	2.9161	2.8182	0.1	5442.4
26933	3.0073	2.7273	0.1	5412.3
26934	2.9161	3.	0.1	5441.6
26935	3.0073	2.9091	0.1	5410.5
26936	2.9161	3.1818	0.1	5442.4
26937	3.0073	3.0909	0.1	5410.5
26938	2.9161	3.3636	0.1	5445.1
26939	3.0073	3.2727	0.1	5412.3
26940	2.9161	3.5455	0.1	5449.7
26941	3.0073	3.4545	0.1	5416.1
26942	2.9161	3.7273	0.1	5456.1
26943	3.0073	3.6364	0.1	5421.8
26944	2.9161	3.9091	0.1	5464.6
26945	3.0073	3.8182	0.1	5429.4
26946	2.9161	4.0909	0.1	5475.1
26947	3.0073	4.	0.1	5439.1
26948	2.9161	4.2727	0.1	5487.7
26949	3.0073	4.1818	0.1	5450.8
26950	2.9161	4.4545	0.1	5502.5
26951	3.0073	4.3636	0.1	5464.6
26952	2.9161	4.6364	0.1	5519.4
26953	3.0073	4.5455	0.1	5480.5
26954	2.9161	4.8182	0.1	5538.3
26955	3.0073	4.7273	0.1	5498.4
26956	2.9161	5.	0.1	5559.2
26957	3.0073	4.9091	0.1	5518.2
26958	2.9161	5.1818	0.1	5581.8
26959	3.0073	5.0909	0.1	5539.7
26960	2.9161	5.3636	0.1	5606.
26961	3.0073	5.2727	0.1	5562.7
26962	2.9161	5.5455	0.1	5631.5
26963	3.0073	5.4545	0.1	5587.
26964	2.9161	5.7273	0.1	5659.9
26965	3.0073	5.6364	0.1	5612.4
26966	3.0073	5.8182	0.1	5642.
26967	2.9161	5.9091	0.1	5675.1
26968	3.0984	0.27273	0.1	5594.6
26969	3.1895	0.18182	0.1	5575.2
26970	3.0984	9.0909e-002	0.1	5610.
26971	3.0984	0.45455	0.1	5568.
26972	3.1895	0.36364	0.1	5547.9
26973	3.0984	0.63636	0.1	5543.8
26974	3.1895	0.54545	0.1	5523.9
26975	3.0984	0.81818	0.1	5520.6
26976	3.1895	0.72727	0.1	5500.8
26977	3.0984	1.	0.1	5498.8
26978	3.1895	0.90909	0.1	5478.7
26979	3.0984	1.1818	0.1	5478.3
26980	3.1895	1.0909	0.1	5457.9
26981	3.0984	1.3636	0.1	5459.6
26982	3.1895	1.2727	0.1	5438.6
26983	3.0984	1.5455	0.1	5442.7
26984	3.1895	1.4545	0.1	5421.
26985	3.0984	1.7273	0.1	5427.7
26986	3.1895	1.6364	0.1	5405.1
26987	3.0984	1.9091	0.1	5414.7
26988	3.1895	1.8182	0.1	5391.1
26989	3.0984	2.0909	0.1	5403.8
26990	3.1895	2.	0.1	5379.2
26991	3.0984	2.2727	0.1	5394.9
26992	3.1895	2.1818	0.1	5369.2
26993	3.0984	2.4545	0.1	5388.
26994	3.1895	2.3636	0.1	5361.2
26995	3.0984	2.6364	0.1	5383.1
26996	3.1895	2.5455	0.1	5355.2
26997	3.0984	2.8182	0.1	5380.2
26998	3.1895	2.7273	0.1	5351.3
26999	3.0984	3.	0.1	5379.2
27000	3.1895	2.9091	0.1	5349.3
27001	3.0984	3.1818	0.1	5380.2
27002	3.1895	3.0909	0.1	5349.3
27003	3.0984	3.3636	0.1	5383.1
27004	3.1895	3.2727	0.1	5351.3
27005	3.0984	3.5455	0.1	5388.
27006	3.1895	3.4545	0.1	5355.2
27007	3.0984	3.7273	0.1	5394.9
27008	3.1895	3.6364	0.1	5361.2
27009	3.0984	3.9091	0.1	5403.8
27010	3.1895	3.8182	0.1	5369.2
27011	3.0984	4.0909	0.1	5414.7
27012	3.1895	4.	0.1	5379.2
27013	3.0984	4.2727	0.1	5427.7
27014	3.1895	4.1818	0.1	5391.1
27015	3.0984	4.4545	0.1	5442.7
27016	3.1895	4.3636	0.1	5405.1
27017	3.0984	4.6364	0.1	5459.6
27018	3.1895	4.5455	0.1	5421.
27019	3.0984	4.8182	0.1	5478.3
27020	3.1895	4.7273	0.1	5438.6
27021	3.0984	5.	0.1	5498.8
27022	3.1895	4.9091	0.1	5457.9
27023	3.0984	5.1818	0.1	5520.6
27024	3.1895	5.0909	0.1	5478.7
27025	3.0984	5.3636	0.1	5543.8
27026	3.1895	5.2727	0.1	5500.8
27027	3.0984	5.5455	0.1	5568.
27028	3.1895	5.4545	0.1	5523.9
27029	3.0984	5.7273	0.1	5594.6
27030	3.1895	5.6364	0.1	5547.9
27031	3.1895	5.8182	0.1	5575.2
27032	3.0984	5.9091	0.1	5610.
27033	3.2806	0.27273	0.1	5528.6
27034	3.3718	0.18182	0.1	5508.1
27035	3.2806	9.0909e-002	0.1	5544.2
27036	3.2806	0.45455	0.1	5503.9
27037	3.3718	0.36364	0.1	5482.9
27038	3.2806	0.63636	0.1	5481.
27039	3.3718	0.54545	0.1	5460.4
27040	3.2806	0.81818	0.1	5459.
27041	3.3718	0.72727	0.1	5438.5
27042	3.2806	1.	0.1	5438.
27043	3.3718	0.90909	0.1	5417.5
27044	3.2806	1.1818	0.1	5418.3
27045	3.3718	1.0909	0.1	5397.5
27046	3.2806	1.3636	0.1	5400.
27047	3.3718	1.2727	0.1	5378.9
27048	3.2806	1.5455	0.1	5383.4
27049	3.3718	1.4545	0.1	5361.7
27050	3.2806	1.7273	0.1	5368.5
27051	3.3718	1.6364	0.1	5346.2
27052	3.2806	1.9091	0.1	5355.5
27053	3.3718	1.8182	0.1	5332.4
27054	3.2806	2.0909	0.1	5344.5
27055	3.3718	2.	0.1	5320.4
27056	3.2806	2.2727	0.1	5335.4
27057	3.3718	2.1818	0.1	5310.4
27058	3.2806	2.4545	0.1	5328.3
27059	3.3718	2.3636	0.1	5302.3
27060	3.2806	2.6364	0.1	5323.3
27061	3.3718	2.5455	0.1	5296.3
27062	3.2806	2.8182	0.1	5320.2
27063	3.3718	2.7273	0.1	5292.2
27064	3.2806	3.	0.1	5319.2
27065	3.3718	2.9091	0.1	5290.2
27066	3.2806	3.1818	0.1	5320.2
27067	3.3718	3.0909	0.1	5290.2
27068	3.2806	3.3636	0.1	5323.3
27069	3.3718	3.2727	0.1	5292.2
27070	3.2806	3.5455	0.1	5328.3
27071	3.3718	3.4545	0.1	5296.3
27072	3.2806	3.7273	0.1	5335.4
27073	3.3718	3.6364	0.1	5302.3
27074	3.2806	3.9091	0.1	5344.5
27075	3.3718	3.8182	0.1	5310.4
27076	3.2806	4.0909	0.1	5355.5
27077	3.3718	4.	0.1	5320.4
27078	3.2806	4.2727	0.1	5368.5
27079	3.3718	4.1818	0.1	5332.4
27080	3.2806	4.4545	0.1	5383.4
27081	3.3718	4.3636	0.1	5346.2
27082	3.2806	4.6364	0.1	5400.
27083	3.3718	4.5455	0.1	5361.7
27084	3.2806	4.8182	0.1	5418.3
27085	3.3718	4.7273	0.1	5378.9
27086	3.2806	5.	0.1	5438.
27087	3.3718	4.9091	0.1	5397.5
27088	3.2806	5.1818	0.1	5459.
27089	3.3718	5.0909	0.1	5417.5
27090	3.2806	5.3636	0.1	5481.
27091	3.3718	5.2727	0.1	5438.5
27092	3.2806	5.5455	0.1	5503.9
27093	3.3718	5.4545	0.1	5460.4
27094	3.2806	5.7273	0.1	5528.6
27095	3.3718	5.6364	0.1	5482.9
27096	3.3718	5.8182	0.1	5508.1
27097	3.2806	5.9091	0.1	5544.2
27098	3.4629	0.27273	0.1	5462.5
27099	3.554	0.18182	0.1	5441.1
27100	3.4629	9.0909e-002	0.1	5478.
27101	3.4629	0.45455	0.1	5439.5
27102	3.554	0.36364	0.1	5417.8
27103	3.4629	0.63636	0.1	5417.9
27104	3.554	0.54545	0.1	5396.7
27105	3.4629	0.81818	0.1	5397.1
27106	3.554	0.72727	0.1	5376.
27107	3.4629	1.	0.1	5377.1
27108	3.554	0.90909	0.1	5356.1
27109	3.4629	1.1818	0.1	5358.2
27110	3.554	1.0909	0.1	5337.2
27111	3.4629	1.3636	0.1	5340.6
27112	3.554	1.2727	0.1	5319.3
27113	3.4629	1.5455	0.1	5324.5
27114	3.554	1.4545	0.1	5302.8
27115	3.4629	1.7273	0.1	5310.
27116	3.554	1.6364	0.1	5287.7
27117	3.4629	1.9091	0.1	5297.2
27118	3.554	1.8182	0.1	5274.3
27119	3.4629	2.0909	0.1	5286.3
27120	3.554	2.	0.1	5262.6
27121	3.4629	2.2727	0.1	5277.3
27122	3.554	2.1818	0.1	5252.8
27123	3.4629	2.4545	0.1	5270.2
27124	3.554	2.3636	0.1	5244.8
27125	3.4629	2.6364	0.1	5265.1
27126	3.554	2.5455	0.1	5238.8
27127	3.4629	2.8182	0.1	5262.1
27128	3.554	2.7273	0.1	5234.8
27129	3.4629	3.	0.1	5261.1
27130	3.554	2.9091	0.1	5232.7
27131	3.4629	3.1818	0.1	5262.1
27132	3.554	3.0909	0.1	5232.7
27133	3.4629	3.3636	0.1	5265.1
27134	3.554	3.2727	0.1	5234.8
27135	3.4629	3.5455	0.1	5270.2
27136	3.554	3.4545	0.1	5238.8
27137	3.4629	3.7273	0.1	5277.3
27138	3.554	3.6364	0.1	5244.8
27139	3.4629	3.9091	0.1	5286.3
27140	3.554	3.8182	0.1	5252.8
27141	3.4629	4.0909	0.1	5297.2
27142	3.554	4.	0.1	5262.6
27143	3.4629	4.2727	0.1	5310.
27144	3.554	4.1818	0.1	5274.3
27145	3.4629	4.4545	0.1	5324.5
27146	3.554	4.3636	0.1	5287.7
27147	3.4629	4.6364	0.1	5340.6
27148	3.554	4.5455	0.1	5302.8
27149	3.4629	4.8182	0.1	5358.2
27150	3.554	4.7273	0.1	5319.3
27151	3.4629	5.	0.1	5377.1
27152	3.554	4.9091	0.1	5337.2
27153	3.4629	5.1818	0.1	5397.1
27154	3.554	5.0909	0.1	5356.1
27155	3.4629	5.3636	0.1	5417.9
27156	3.554	5.2727	0.1	5376.
27157	3.4629	5.5455	0.1	5439.5
27158	3.554	5.4545	0.1	5396.7
27159	3.4629	5.7273	0.1	5462.5
27160	3.554	5.6364	0.1	5417.8
27161	3.554	5.8182	0.1	5441.1
27162	3.4629	5.9091	0.1	5478.
27163	3.6452	0.27273	0.1	5396.5
27164	3.7363	0.18182	0.1	5374.3
27165	3.6452	9.0909e-002	0.1	5411.7
27166	3.6452	0.45455	0.1	5375.1
27167	3.7363	0.36364	0.1	5352.8
27168	3.6452	0.63636	0.1	5354.8
27169	3.7363	0.54545	0.1	5333.
27170	3.6452	0.81818	0.1	5335.2
27171	3.7363	0.72727	0.1	5313.6
27172	3.6452	1.	0.1	5316.3
27173	3.7363	0.90909	0.1	5294.9
27174	3.6452	1.1818	0.1	5298.3
27175	3.7363	1.0909	0.1	5276.9
27176	3.6452	1.3636	0.1	5281.5
27177	3.7363	1.2727	0.1	5260.
27178	3.6452	1.5455	0.1	5266.
27179	3.7363	1.4545	0.1	5244.2
27180	3.6452	1.7273	0.1	5252.1
27181	3.7363	1.6364	0.1	5229.8
27182	3.6452	1.9091	0.1	5239.7
27183	3.7363	1.8182	0.1	5216.9
27184	3.6452	2.0909	0.1	5229.
27185	3.7363	2.	0.1	5205.6
27186	3.6452	2.2727	0.1	5220.2
27187	3.7363	2.1818	0.1	5196.
27188	3.6452	2.4545	0.1	5213.3
27189	3.7363	2.3636	0.1	5188.3
27190	3.6452	2.6364	0.1	5208.3
27191	3.7363	2.5455	0.1	5182.4
27192	3.6452	2.8182	0.1	5205.3
27193	3.7363	2.7273	0.1	5178.5
27194	3.6452	3.	0.1	5204.3
27195	3.7363	2.9091	0.1	5176.5
27196	3.6452	3.1818	0.1	5205.3
27197	3.7363	3.0909	0.1	5176.5
27198	3.6452	3.3636	0.1	5208.3
27199	3.7363	3.2727	0.1	5178.5
27200	3.6452	3.5455	0.1	5213.3
27201	3.7363	3.4545	0.1	5182.4
27202	3.6452	3.7273	0.1	5220.2
27203	3.7363	3.6364	0.1	5188.3
27204	3.6452	3.9091	0.1	5229.
27205	3.7363	3.8182	0.1	5196.
27206	3.6452	4.0909	0.1	5239.7
27207	3.7363	4.	0.1	5205.6
27208	3.6452	4.2727	0.1	5252.1
27209	3.7363	4.1818	0.1	5216.9
27210	3.6452	4.4545	0.1	5266.
27211	3.7363	4.3636	0.1	5229.8
27212	3.6452	4.6364	0.1	5281.5
27213	3.7363	4.5455	0.1	5244.2
27214	3.6452	4.8182	0.1	5298.3
27215	3.7363	4.7273	0.1	5260.
27216	3.6452	5.	0.1	5316.3
27217	3.7363	4.9091	0.1	5276.9
27218	3.6452	5.1818	0.1	5335.2
27219	3.7363	5.0909	0.1	5294.9
27220	3.6452	5.3636	0.1	5354.8
27221	3.7363	5.2727	0.1	5313.6
27222	3.6452	5.5455	0.1	5375.1
27223	3.7363	5.4545	0.1	5333.
27224	3.6452	5.7273	0.1	5396.5
27225	3.7363	5.6364	0.1	5352.8
27226	3.7363	5.8182	0.1	5374.3
27227	3.6452	5.9091	0.1	5411.7
27228	3.8274	0.27273	0.1	5330.8
27229	3.9185	0.18182	0.1	5308.
27230	3.8274	9.0909e-002	0.1	5345.6
27231	3.8274	0.45455	0.1	5310.9
27232	3.9185	0.36364	0.1	5288.1
27233	3.8274	0.63636	0.1	5291.9
27234	3.9185	0.54545	0.1	5269.6
27235	3.8274	0.81818	0.1	5273.4
27236	3.9185	0.72727	0.1	5251.4
27237	3.8274	1.	0.1	5255.6
27238	3.9185	0.90909	0.1	5233.8
27239	3.8274	1.1818	0.1	5238.6
27240	3.9185	1.0909	0.1	5216.9
27241	3.8274	1.3636	0.1	5222.7
27242	3.9185	1.2727	0.1	5200.9
27243	3.8274	1.5455	0.1	5208.
27244	3.9185	1.4545	0.1	5185.9
27245	3.8274	1.7273	0.1	5194.6
27246	3.9185	1.6364	0.1	5172.3
27247	3.8274	1.9091	0.1	5182.8
27248	3.9185	1.8182	0.1	5159.9
27249	3.8274	2.0909	0.1	5172.5
27250	3.9185	2.	0.1	5149.1
27251	3.8274	2.2727	0.1	5164.
27252	3.9185	2.1818	0.1	5140.
27253	3.8274	2.4545	0.1	5157.3
27254	3.9185	2.3636	0.1	5132.5
27255	3.8274	2.6364	0.1	5152.5
27256	3.9185	2.5455	0.1	5126.9
27257	3.8274	2.8182	0.1	5149.6
27258	3.9185	2.7273	0.1	5123.1
27259	3.8274	3.	0.1	5148.6
27260	3.9185	2.9091	0.1	5121.2
27261	3.8274	3.1818	0.1	5149.6
27262	3.9185	3.0909	0.1	5121.2
27263	3.8274	3.3636	0.1	5152.5
27264	3.9185	3.2727	0.1	5123.1
27265	3.8274	3.5455	0.1	5157.3
27266	3.9185	3.4545	0.1	5126.9
27267	3.8274	3.7273	0.1	5164.
27268	3.9185	3.6364	0.1	5132.5
27269	3.8274	3.9091	0.1	5172.5
27270	3.9185	3.8182	0.1	5140.
27271	3.8274	4.0909	0.1	5182.8
27272	3.9185	4.	0.1	5149.1
27273	3.8274	4.2727	0.1	5194.6
27274	3.9185	4.1818	0.1	5159.9
27275	3.8274	4.4545	0.1	5208.
27276	3.9185	4.3636	0.1	5172.3
27277	3.8274	4.6364	0.1	5222.7
27278	3.9185	4.5455	0.1	5185.9
27279	3.8274	4.8182	0.1	5238.6
27280	3.9185	4.7273	0.1	5200.9
27281	3.8274	5.	0.1	5255.6
27282	3.9185	4.9091	0.1	5216.9
27283	3.8274	5.1818	0.1	5273.4
27284	3.9185	5.0909	0.1	5233.8
27285	3.8274	5.3636	0.1	5291.9
27286	3.9185	5.2727	0.1	5251.4
27287	3.8274	5.5455	0.1	5310.9
27288	3.9185	5.4545	0.1	5269.6
27289	3.8274	5.7273	0.1	5330.8
27290	3.9185	5.6364	0.1	5288.1
27291	3.9185	5.8182	0.1	5308.
27292	3.8274	5.9091	0.1	5345.6
27293	4.0097	0.27273	0.1	5265.4
27294	4.1008	0.18182	0.1	5242.1
27295	4.0097	9.0909e-002	0.1	5279.7
27296	4.0097	0.45455	0.1	5246.9
27297	4.1008	0.36364	0.1	5223.7
27298	4.0097	0.63636	0.1	5229.2
27299	4.1008	0.54545	0.1	5206.5
27300	4.0097	0.81818	0.1	5211.9
27301	4.1008	0.72727	0.1	5189.5
27302	4.0097	1.	0.1	5195.1
27303	4.1008	0.90909	0.1	5173.
27304	4.0097	1.1818	0.1	5179.2
27305	4.1008	1.0909	0.1	5157.1
27306	4.0097	1.3636	0.1	5164.2
27307	4.1008	1.2727	0.1	5142.1
27308	4.0097	1.5455	0.1	5150.3
27309	4.1008	1.4545	0.1	5128.
27310	4.0097	1.7273	0.1	5137.6
27311	4.1008	1.6364	0.1	5115.1
27312	4.0097	1.9091	0.1	5126.3
27313	4.1008	1.8182	0.1	5103.4
27314	4.0097	2.0909	0.1	5116.6
27315	4.1008	2.	0.1	5093.2
27316	4.0097	2.2727	0.1	5108.5
27317	4.1008	2.1818	0.1	5084.5
27318	4.0097	2.4545	0.1	5102.1
27319	4.1008	2.3636	0.1	5077.4
27320	4.0097	2.6364	0.1	5097.4
27321	4.1008	2.5455	0.1	5072.
27322	4.0097	2.8182	0.1	5094.6
27323	4.1008	2.7273	0.1	5068.4
27324	4.0097	3.	0.1	5093.7
27325	4.1008	2.9091	0.1	5066.6
27326	4.0097	3.1818	0.1	5094.6
27327	4.1008	3.0909	0.1	5066.6
27328	4.0097	3.3636	0.1	5097.4
27329	4.1008	3.2727	0.1	5068.4
27330	4.0097	3.5455	0.1	5102.1
27331	4.1008	3.4545	0.1	5072.
27332	4.0097	3.7273	0.1	5108.5
27333	4.1008	3.6364	0.1	5077.4
27334	4.0097	3.9091	0.1	5116.6
27335	4.1008	3.8182	0.1	5084.5
27336	4.0097	4.0909	0.1	5126.3
27337	4.1008	4.	0.1	5093.2
27338	4.0097	4.2727	0.1	5137.6
27339	4.1008	4.1818	0.1	5103.4
27340	4.0097	4.4545	0.1	5150.3
27341	4.1008	4.3636	0.1	5115.1
27342	4.0097	4.6364	0.1	5164.2
27343	4.1008	4.5455	0.1	5128.
27344	4.0097	4.8182	0.1	5179.2
27345	4.1008	4.7273	0.1	5142.1
27346	4.0097	5.	0.1	5195.1
27347	4.1008	4.9091	0.1	5157.1
27348	4.0097	5.1818	0.1	5211.9
27349	4.1008	5.0909	0.1	5173.
27350	4.0097	5.3636	0.1	5229.2
27351	4.1008	5.2727	0.1	5189.5
27352	4.0097	5.5455	0.1	5246.9
27353	4.1008	5.4545	0.1	5206.5
27354	4.0097	5.7273	0.1	5265.4
27355	4.1008	5.6364	0.1	5223.7
27356	4.1008	5.8182	0.1	5242.1
27357	4.0097	5.9091	0.1	5279.7
27358	4.1919	0.27273	0.1	5200.5
27359	4.2831	0.18182	0.1	5176.7
27360	4.1919	9.0909e-002	0.1	5214.2
27361	4.1919	0.45455	0.1	5183.4
27362	4.2831	0.36364	0.1	5159.8
27363	4.1919	0.63636	0.1	5166.8
27364	4.2831	0.54545	0.1	5143.7
27365	4.1919	0.81818	0.1	5150.6
27366	4.2831	0.72727	0.1	5127.9
27367	4.1919	1.	0.1	5135.
27368	4.2831	0.90909	0.1	5112.5
27369	4.1919	1.1818	0.1	5120.1
27370	4.2831	1.0909	0.1	5097.7
27371	4.1919	1.3636	0.1	5106.
27372	4.2831	1.2727	0.1	5083.6
27373	4.1919	1.5455	0.1	5092.9
27374	4.2831	1.4545	0.1	5070.4
27375	4.1919	1.7273	0.1	5080.9
27376	4.2831	1.6364	0.1	5058.3
27377	4.1919	1.9091	0.1	5070.3
27378	4.2831	1.8182	0.1	5047.3
27379	4.1919	2.0909	0.1	5061.1
27380	4.2831	2.	0.1	5037.7
27381	4.1919	2.2727	0.1	5053.4
27382	4.2831	2.1818	0.1	5029.4
27383	4.1919	2.4545	0.1	5047.3
27384	4.2831	2.3636	0.1	5022.8
27385	4.1919	2.6364	0.1	5043.
27386	4.2831	2.5455	0.1	5017.7
27387	4.1919	2.8182	0.1	5040.3
27388	4.2831	2.7273	0.1	5014.2
27389	4.1919	3.	0.1	5039.4
27390	4.2831	2.9091	0.1	5012.5
27391	4.1919	3.1818	0.1	5040.3
27392	4.2831	3.0909	0.1	5012.5
27393	4.1919	3.3636	0.1	5043.
27394	4.2831	3.2727	0.1	5014.2
27395	4.1919	3.5455	0.1	5047.3
27396	4.2831	3.4545	0.1	5017.7
27397	4.1919	3.7273	0.1	5053.4
27398	4.2831	3.6364	0.1	5022.8
27399	4.1919	3.9091	0.1	5061.1
27400	4.2831	3.8182	0.1	5029.4
27401	4.1919	4.0909	0.1	5070.3
27402	4.2831	4.	0.1	5037.7
27403	4.1919	4.2727	0.1	5080.9
27404	4.2831	4.1818	0.1	5047.3
27405	4.1919	4.4545	0.1	5092.9
27406	4.2831	4.3636	0.1	5058.3
27407	4.1919	4.6364	0.1	5106.
27408	4.2831	4.5455	0.1	5070.4
27409	4.1919	4.8182	0.1	5120.1
27410	4.2831	4.7273	0.1	5083.6
27411	4.1919	5.	0.1	5135.
27412	4.2831	4.9091	0.1	5097.7
27413	4.1919	5.1818	0.1	5150.6
27414	4.2831	5.0909	0.1	5112.5
27415	4.1919	5.3636	0.1	5166.8
27416	4.2831	5.2727	0.1	5127.9
27417	4.1919	5.5455	0.1	5183.4
27418	4.2831	5.4545	0.1	5143.7
27419	4.1919	5.7273	0.1	5200.5
27420	4.2831	5.6364	0.1	5159.8
27421	4.2831	5.8182	0.1	5176.7
27422	4.1919	5.9091	0.1	5214.2
27423	4.3742	0.27273	0.1	5136.1
27424	4.4653	0.18182	0.1	5112.
27425	4.3742	9.0909e-002	0.1	5149.2
27426	4.3742	0.45455	0.1	5120.2
27427	4.4653	0.36364	0.1	5096.4
27428	4.3742	0.63636	0.1	5104.8
27429	4.4653	0.54545	0.1	5081.4
27430	4.3742	0.81818	0.1	5089.8
27431	4.4653	0.72727	0.1	5066.7
27432	4.3742	1.	0.1	5075.2
27433	4.4653	0.90909	0.1	5052.3
27434	4.3742	1.1818	0.1	5061.2
27435	4.4653	1.0909	0.1	5038.5
27436	4.3742	1.3636	0.1	5048.1
27437	4.4653	1.2727	0.1	5025.4
27438	4.3742	1.5455	0.1	5035.8
27439	4.4653	1.4545	0.1	5013.1
27440	4.3742	1.7273	0.1	5024.6
27441	4.4653	1.6364	0.1	5001.7
27442	4.3742	1.9091	0.1	5014.7
27443	4.4653	1.8182	0.1	4991.5
27444	4.3742	2.0909	0.1	5006.
27445	4.4653	2.	0.1	4982.4
27446	4.3742	2.2727	0.1	4998.8
27447	4.4653	2.1818	0.1	4974.7
27448	4.3742	2.4545	0.1	4993.1
27449	4.4653	2.3636	0.1	4968.5
27450	4.3742	2.6364	0.1	4988.9
27451	4.4653	2.5455	0.1	4963.7
27452	4.3742	2.8182	0.1	4986.4
27453	4.4653	2.7273	0.1	4960.5
27454	4.3742	3.	0.1	4985.6
27455	4.4653	2.9091	0.1	4958.8
27456	4.3742	3.1818	0.1	4986.4
27457	4.4653	3.0909	0.1	4958.8
27458	4.3742	3.3636	0.1	4988.9
27459	4.4653	3.2727	0.1	4960.5
27460	4.3742	3.5455	0.1	4993.1
27461	4.4653	3.4545	0.1	4963.7
27462	4.3742	3.7273	0.1	4998.8
27463	4.4653	3.6364	0.1	4968.5
27464	4.3742	3.9091	0.1	5006.
27465	4.4653	3.8182	0.1	4974.7
27466	4.3742	4.0909	0.1	5014.7
27467	4.4653	4.	0.1	4982.4
27468	4.3742	4.2727	0.1	5024.6
27469	4.4653	4.1818	0.1	4991.5
27470	4.3742	4.4545	0.1	5035.8
27471	4.4653	4.3636	0.1	5001.7
27472	4.3742	4.6364	0.1	5048.1
27473	4.4653	4.5455	0.1	5013.1
27474	4.3742	4.8182	0.1	5061.2
27475	4.4653	4.7273	0.1	5025.4
27476	4.3742	5.	0.1	5075.2
27477	4.4653	4.9091	0.1	5038.5
27478	4.3742	5.1818	0.1	5089.8
27479	4.4653	5.0909	0.1	5052.3
27480	4.3742	5.3636	0.1	5104.8
27481	4.4653	5.2727	0.1	5066.7
27482	4.3742	5.5455	0.1	5120.2
27483	4.4653	5.4545	0.1	5081.4
27484	4.3742	5.7273	0.1	5136.1
27485	4.4653	5.6364	0.1	5096.4
27486	4.4653	5.8182	0.1	5112.
27487	4.3742	5.9091	0.1	5149.2
27488	4.5565	0.27273	0.1	5072.3
27489	4.6476	0.18182	0.1	5047.8
27490	4.5565	9.0909e-002	0.1	5084.7
27491	4.5565	0.45455	0.1	5057.6
27492	4.6476	0.36364	0.1	5033.4
27493	4.5565	0.63636	0.1	5043.3
27494	4.6476	0.54545	0.1	5019.6
27495	4.5565	0.81818	0.1	5029.3
27496	4.6476	0.72727	0.1	5005.9
27497	4.5565	1.	0.1	5015.7
27498	4.6476	0.90909	0.1	4992.6
27499	4.5565	1.1818	0.1	5002.7
27500	4.6476	1.0909	0.1	4979.7
27501	4.5565	1.3636	0.1	4990.5
27502	4.6476	1.2727	0.1	4967.5
27503	4.5565	1.5455	0.1	4979.
27504	4.6476	1.4545	0.1	4956.1
27505	4.5565	1.7273	0.1	4968.6
27506	4.6476	1.6364	0.1	4945.5
27507	4.5565	1.9091	0.1	4959.3
27508	4.6476	1.8182	0.1	4935.9
27509	4.5565	2.0909	0.1	4951.2
27510	4.6476	2.	0.1	4927.5
27511	4.5565	2.2727	0.1	4944.4
27512	4.6476	2.1818	0.1	4920.3
27513	4.5565	2.4545	0.1	4939.1
27514	4.6476	2.3636	0.1	4914.5
27515	4.5565	2.6364	0.1	4935.2
27516	4.6476	2.5455	0.1	4910.
27517	4.5565	2.8182	0.1	4932.9
27518	4.6476	2.7273	0.1	4907.
27519	4.5565	3.	0.1	4932.1
27520	4.6476	2.9091	0.1	4905.5
27521	4.5565	3.1818	0.1	4932.9
27522	4.6476	3.0909	0.1	4905.5
27523	4.5565	3.3636	0.1	4935.2
27524	4.6476	3.2727	0.1	4907.
27525	4.5565	3.5455	0.1	4939.1
27526	4.6476	3.4545	0.1	4910.
27527	4.5565	3.7273	0.1	4944.4
27528	4.6476	3.6364	0.1	4914.5
27529	4.5565	3.9091	0.1	4951.2
27530	4.6476	3.8182	0.1	4920.3
27531	4.5565	4.0909	0.1	4959.3
27532	4.6476	4.	0.1	4927.5
27533	4.5565	4.2727	0.1	4968.6
27534	4.6476	4.1818	0.1	4935.9
27535	4.5565	4.4545	0.1	4979.
27536	4.6476	4.3636	0.1	4945.5
27537	4.5565	4.6364	0.1	4990.5
27538	4.6476	4.5455	0.1	4956.1
27539	4.5565	4.8182	0.1	5002.7
27540	4.6476	4.7273	0.1	4967.5
27541	4.5565	5.	0.1	5015.7
27542	4.6476	4.9091	0.1	4979.7
27543	4.5565	5.1818	0.1	5029.3
27544	4.6476	5.0909	0.1	4992.6
27545	4.5565	5.3636	0.1	5043.3
27546	4.6476	5.2727	0.1	5005.9
27547	4.5565	5.5455	0.1	5057.6
27548	4.6476	5.4545	0.1	5019.6
27549	4.5565	5.7273	0.1	5072.3
27550	4.6476	5.6364	0.1	5033.4
27551	4.6476	5.8182	0.1	5047.8
27552	4.5565	5.9091	0.1	5084.7
27553	4.7387	0.27273	0.1	5009.
27554	4.8298	0.18182	0.1	4984.3
27555	4.7387	9.0909e-002	0.1	5020.7
27556	4.7387	0.45455	0.1	4995.4
27557	4.8298	0.36364	0.1	4971.
27558	4.7387	0.63636	0.1	4982.2
27559	4.8298	0.54545	0.1	4958.1
27560	4.7387	0.81818	0.1	4969.2
27561	4.8298	0.72727	0.1	4945.5
27562	4.7387	1.	0.1	4956.6
27563	4.8298	0.90909	0.1	4933.1
27564	4.7387	1.1818	0.1	4944.5
27565	4.8298	1.0909	0.1	4921.3
27566	4.7387	1.3636	0.1	4933.1
27567	4.8298	1.2727	0.1	4909.9
27568	4.7387	1.5455	0.1	4922.5
27569	4.8298	1.4545	0.1	4899.3
27570	4.7387	1.7273	0.1	4912.8
27571	4.8298	1.6364	0.1	4889.5
27572	4.7387	1.9091	0.1	4904.2
27573	4.8298	1.8182	0.1	4880.6
27574	4.7387	2.0909	0.1	4896.6
27575	4.8298	2.	0.1	4872.8
27576	4.7387	2.2727	0.1	4890.3
27577	4.8298	2.1818	0.1	4866.1
27578	4.7387	2.4545	0.1	4885.4
27579	4.8298	2.3636	0.1	4860.7
27580	4.7387	2.6364	0.1	4881.8
27581	4.8298	2.5455	0.1	4856.5
27582	4.7387	2.8182	0.1	4879.6
27583	4.8298	2.7273	0.1	4853.7
27584	4.7387	3.	0.1	4878.8
27585	4.8298	2.9091	0.1	4852.3
27586	4.7387	3.1818	0.1	4879.6
27587	4.8298	3.0909	0.1	4852.3
27588	4.7387	3.3636	0.1	4881.8
27589	4.8298	3.2727	0.1	4853.7
27590	4.7387	3.5455	0.1	4885.4
27591	4.8298	3.4545	0.1	4856.5
27592	4.7387	3.7273	0.1	4890.3
27593	4.8298	3.6364	0.1	4860.7
27594	4.7387	3.9091	0.1	4896.6
27595	4.8298	3.8182	0.1	4866.1
27596	4.7387	4.0909	0.1	4904.2
27597	4.8298	4.	0.1	4872.8
27598	4.7387	4.2727	0.1	4912.8
27599	4.8298	4.1818	0.1	4880.6
27600	4.7387	4.4545	0.1	4922.5
27601	4.8298	4.3636	0.1	4889.5
27602	4.7387	4.6364	0.1	4933.1
27603	4.8298	4.5455	0.1	4899.3
27604	4.7387	4.8182	0.1	4944.5
27605	4.8298	4.7273	0.1	4909.9
27606	4.7387	5.	0.1	4956.6
27607	4.8298	4.9091	0.1	4921.3
27608	4.7387	5.1818	0.1	4969.2
27609	4.8298	5.0909	0.1	4933.1
27610	4.7387	5.3636	0.1	4982.2
27611	4.8298	5.2727	0.1	4945.5
27612	4.7387	5.5455	0.1	4995.4
27613	4.8298	5.4545	0.1	4958.1
27614	4.7387	5.7273	0.1	5009.
27615	4.8298	5.6364	0.1	4971.
27616	4.8298	5.8182	0.1	4984.3
27617	4.7387	5.9091	0.1	5020.7
27618	4.921	0.27273	0.1	4946.3
27619	5.0121	0.18182	0.1	4921.3
27620	4.921	9.0909e-002	0.1	4957.2
27621	4.921	0.45455	0.1	4933.7
27622	5.0121	0.36364	0.1	4909.
27623	4.921	0.63636	0.1	4921.5
27624	5.0121	0.54545	0.1	4897.2
27625	4.921	0.81818	0.1	4909.5
27626	5.0121	0.72727	0.1	4885.5
27627	4.921	1.	0.1	4897.8
27628	5.0121	0.90909	0.1	4874.1
27629	4.921	1.1818	0.1	4886.7
27630	5.0121	1.0909	0.1	4863.1
27631	4.921	1.3636	0.1	4876.1
27632	5.0121	1.2727	0.1	4852.7
27633	4.921	1.5455	0.1	4866.3
27634	5.0121	1.4545	0.1	4842.8
27635	4.921	1.7273	0.1	4857.3
27636	5.0121	1.6364	0.1	4833.8
27637	4.921	1.9091	0.1	4849.3
27638	5.0121	1.8182	0.1	4825.6
27639	4.921	2.0909	0.1	4842.3
27640	5.0121	2.	0.1	4818.3
27641	4.921	2.2727	0.1	4836.5
27642	5.0121	2.1818	0.1	4812.2
27643	4.921	2.4545	0.1	4831.8
27644	5.0121	2.3636	0.1	4807.1
27645	4.921	2.6364	0.1	4828.5
27646	5.0121	2.5455	0.1	4803.3
27647	4.921	2.8182	0.1	4826.5
27648	5.0121	2.7273	0.1	4800.7
27649	4.921	3.	0.1	4825.8
27650	5.0121	2.9091	0.1	4799.4
27651	4.921	3.1818	0.1	4826.5
27652	5.0121	3.0909	0.1	4799.4
27653	4.921	3.3636	0.1	4828.5
27654	5.0121	3.2727	0.1	4800.7
27655	4.921	3.5455	0.1	4831.8
27656	5.0121	3.4545	0.1	4803.3
27657	4.921	3.7273	0.1	4836.5
27658	5.0121	3.6364	0.1	4807.1
27659	4.921	3.9091	0.1	4842.3
27660	5.0121	3.8182	0.1	4812.2
27661	4.921	4.0909	0.1	4849.3
27662	5.0121	4.	0.1	4818.3
27663	4.921	4.2727	0.1	4857.3
27664	5.0121	4.1818	0.1	4825.6
27665	4.921	4.4545	0.1	4866.3
27666	5.0121	4.3636	0.1	4833.8
27667	4.921	4.6364	0.1	4876.1
27668	5.0121	4.5455	0.1	4842.8
27669	4.921	4.8182	0.1	4886.7
27670	5.0121	4.7273	0.1	4852.7
27671	4.921	5.	0.1	4897.8
27672	5.0121	4.9091	0.1	4863.1
27673	4.921	5.1818	0.1	4909.5
27674	5.0121	5.0909	0.1	4874.1
27675	4.921	5.3636	0.1	4921.5
27676	5.0121	5.2727	0.1	4885.5
27677	4.921	5.5455	0.1	4933.7
27678	5.0121	5.4545	0.1	4897.2
27679	4.921	5.7273	0.1	4946.3
27680	5.0121	5.6364	0.1	4909.
27681	5.0121	5.8182	0.1	4921.3
27682	4.921	5.9091	0.1	4957.2
27683	5.1032	0.27273	0.1	4884.
27684	5.1944	0.18182	0.1	4858.8
27685	5.1032	9.0909e-002	0.1	4894.2
27686	5.1032	0.45455	0.1	4872.5
27687	5.1944	0.36364	0.1	4847.5
27688	5.1032	0.63636	0.1	4861.2
27689	5.1944	0.54545	0.1	4836.6
27690	5.1032	0.81818	0.1	4850.1
27691	5.1944	0.72727	0.1	4825.9
27692	5.1032	1.	0.1	4839.4
27693	5.1944	0.90909	0.1	4815.4
27694	5.1032	1.1818	0.1	4829.1
27695	5.1944	1.0909	0.1	4805.3
27696	5.1032	1.3636	0.1	4819.4
27697	5.1944	1.2727	0.1	4795.7
27698	5.1032	1.5455	0.1	4810.3
27699	5.1944	1.4545	0.1	4786.6
27700	5.1032	1.7273	0.1	4802.
27701	5.1944	1.6364	0.1	4778.3
27702	5.1032	1.9091	0.1	4794.6
27703	5.1944	1.8182	0.1	4770.7
27704	5.1032	2.0909	0.1	4788.2
27705	5.1944	2.	0.1	4764.1
27706	5.1032	2.2727	0.1	4782.8
27707	5.1944	2.1818	0.1	4758.3
27708	5.1032	2.4545	0.1	4778.5
27709	5.1944	2.3636	0.1	4753.7
27710	5.1032	2.6364	0.1	4775.4
27711	5.1944	2.5455	0.1	4750.1
27712	5.1032	2.8182	0.1	4773.5
27713	5.1944	2.7273	0.1	4747.7
27714	5.1032	3.	0.1	4772.9
27715	5.1944	2.9091	0.1	4746.5
27716	5.1032	3.1818	0.1	4773.5
27717	5.1944	3.0909	0.1	4746.5
27718	5.1032	3.3636	0.1	4775.4
27719	5.1944	3.2727	0.1	4747.7
27720	5.1032	3.5455	0.1	4778.5
27721	5.1944	3.4545	0.1	4750.1
27722	5.1032	3.7273	0.1	4782.8
27723	5.1944	3.6364	0.1	4753.7
27724	5.1032	3.9091	0.1	4788.2
27725	5.1944	3.8182	0.1	4758.3
27726	5.1032	4.0909	0.1	4794.6
27727	5.1944	4.	0.1	4764.1
27728	5.1032	4.2727	0.1	4802.
27729	5.1944	4.1818	0.1	4770.7
27730	5.1032	4.4545	0.1	4810.3
27731	5.1944	4.3636	0.1	4778.3
27732	5.1032	4.6364	0.1	4819.4
27733	5.1944	4.5455	0.1	4786.6
27734	5.1032	4.8182	0.1	4829.1
27735	5.1944	4.7273	0.1	4795.7
27736	5.1032	5.	0.1	4839.4
27737	5.1944	4.9091	0.1	4805.3
27738	5.1032	5.1818	0.1	4850.1
27739	5.1944	5.0909	0.1	4815.4
27740	5.1032	5.3636	0.1	4861.2
27741	5.1944	5.2727	0.1	4825.9
27742	5.1032	5.5455	0.1	4872.5
27743	5.1944	5.4545	0.1	4836.6
27744	5.1032	5.7273	0.1	4884.
27745	5.1944	5.6364	0.1	4847.5
27746	5.1944	5.8182	0.1	4858.8
27747	5.1032	5.9091	0.1	4894.2
27748	5.2855	0.27273	0.1	4822.3
27749	5.3766	0.18182	0.1	4796.9
27750	5.2855	9.0909e-002	0.1	4831.8
27751	5.2855	0.45455	0.1	4811.7
27752	5.3766	0.36364	0.1	4786.5
27753	5.2855	0.63636	0.1	4801.3
27754	5.3766	0.54545	0.1	4776.5
27755	5.2855	0.81818	0.1	4791.1
27756	5.3766	0.72727	0.1	4766.6
27757	5.2855	1.	0.1	4781.3
27758	5.3766	0.90909	0.1	4757.
27759	5.2855	1.1818	0.1	4771.8
27760	5.3766	1.0909	0.1	4747.7
27761	5.2855	1.3636	0.1	4762.9
27762	5.3766	1.2727	0.1	4738.9
27763	5.2855	1.5455	0.1	4754.6
27764	5.3766	1.4545	0.1	4730.6
27765	5.2855	1.7273	0.1	4747.
27766	5.3766	1.6364	0.1	4723.
27767	5.2855	1.9091	0.1	4740.2
27768	5.3766	1.8182	0.1	4716.1
27769	5.2855	2.0909	0.1	4734.2
27770	5.3766	2.	0.1	4709.9
27771	5.2855	2.2727	0.1	4729.3
27772	5.3766	2.1818	0.1	4704.7
27773	5.2855	2.4545	0.1	4725.3
27774	5.3766	2.3636	0.1	4700.4
27775	5.2855	2.6364	0.1	4722.5
27776	5.3766	2.5455	0.1	4697.2
27777	5.2855	2.8182	0.1	4720.7
27778	5.3766	2.7273	0.1	4695.
27779	5.2855	3.	0.1	4720.2
27780	5.3766	2.9091	0.1	4693.9
27781	5.2855	3.1818	0.1	4720.7
27782	5.3766	3.0909	0.1	4693.9
27783	5.2855	3.3636	0.1	4722.5
27784	5.3766	3.2727	0.1	4695.
27785	5.2855	3.5455	0.1	4725.3
27786	5.3766	3.4545	0.1	4697.2
27787	5.2855	3.7273	0.1	4729.3
27788	5.3766	3.6364	0.1	4700.4
27789	5.2855	3.9091	0.1	4734.2
27790	5.3766	3.8182	0.1	4704.7
27791	5.2855	4.0909	0.1	4740.2
27792	5.3766	4.	0.1	4709.9
27793	5.2855	4.2727	0.1	4747.
27794	5.3766	4.1818	0.1	4716.1
27795	5.2855	4.4545	0.1	4754.6
27796	5.3766	4.3636	0.1	4723.
27797	5.2855	4.6364	0.1	4762.9
27798	5.3766	4.5455	0.1	4730.6
27799	5.2855	4.8182	0.1	4771.8
27800	5.3766	4.7273	0.1	4738.9
27801	5.2855	5.	0.1	4781.3
27802	5.3766	4.9091	0.1	4747.7
27803	5.2855	5.1818	0.1	4791.1
27804	5.3766	5.0909	0.1	4757.
27805	5.2855	5.3636	0.1	4801.3
27806	5.3766	5.2727	0.1	4766.6
27807	5.2855	5.5455	0.1	4811.7
27808	5.3766	5.4545	0.1	4776.5
27809	5.2855	5.7273	0.1	4822.3
27810	5.3766	5.6364	0.1	4786.5
27811	5.3766	5.8182	0.1	4796.9
27812	5.2855	5.9091	0.1	4831.8
27813	5.4677	0.27273	0.1	4761.1
27814	5.5589	0.18182	0.1	4735.4
27815	5.4677	9.0909e-002	0.1	4769.7
27816	5.4677	0.45455	0.1	4751.3
27817	5.5589	0.36364	0.1	4725.9
27818	5.4677	0.63636	0.1	4741.8
27819	5.5589	0.54545	0.1	4716.7
27820	5.4677	0.81818	0.1	4732.5
27821	5.5589	0.72727	0.1	4707.7
27822	5.4677	1.	0.1	4723.5
27823	5.5589	0.90909	0.1	4698.9
27824	5.4677	1.1818	0.1	4714.8
27825	5.5589	1.0909	0.1	4690.5
27826	5.4677	1.3636	0.1	4706.7
27827	5.5589	1.2727	0.1	4682.5
27828	5.4677	1.5455	0.1	4699.1
27829	5.5589	1.4545	0.1	4674.9
27830	5.4677	1.7273	0.1	4692.1
27831	5.5589	1.6364	0.1	4667.9
27832	5.4677	1.9091	0.1	4685.9
27833	5.5589	1.8182	0.1	4661.6
27834	5.4677	2.0909	0.1	4680.4
27835	5.5589	2.	0.1	4656.
27836	5.4677	2.2727	0.1	4675.9
27837	5.5589	2.1818	0.1	4651.3
27838	5.4677	2.4545	0.1	4672.3
27839	5.5589	2.3636	0.1	4647.4
27840	5.4677	2.6364	0.1	4669.7
27841	5.5589	2.5455	0.1	4644.4
27842	5.4677	2.8182	0.1	4668.1
27843	5.5589	2.7273	0.1	4642.4
27844	5.4677	3.	0.1	4667.6
27845	5.5589	2.9091	0.1	4641.4
27846	5.4677	3.1818	0.1	4668.1
27847	5.5589	3.0909	0.1	4641.4
27848	5.4677	3.3636	0.1	4669.7
27849	5.5589	3.2727	0.1	4642.4
27850	5.4677	3.5455	0.1	4672.3
27851	5.5589	3.4545	0.1	4644.4
27852	5.4677	3.7273	0.1	4675.9
27853	5.5589	3.6364	0.1	4647.4
27854	5.4677	3.9091	0.1	4680.4
27855	5.5589	3.8182	0.1	4651.3
27856	5.4677	4.0909	0.1	4685.9
27857	5.5589	4.	0.1	4656.
27858	5.4677	4.2727	0.1	4692.1
27859	5.5589	4.1818	0.1	4661.6
27860	5.4677	4.4545	0.1	4699.1
27861	5.5589	4.3636	0.1	4667.9
27862	5.4677	4.6364	0.1	4706.7
27863	5.5589	4.5455	0.1	4674.9
27864	5.4677	4.8182	0.1	4714.8
27865	5.5589	4.7273	0.1	4682.5
27866	5.4677	5.	0.1	4723.5
27867	5.5589	4.9091	0.1	4690.5
27868	5.4677	5.1818	0.1	4732.5
27869	5.5589	5.0909	0.1	4698.9
27870	5.4677	5.3636	0.1	4741.8
27871	5.5589	5.2727	0.1	4707.7
27872	5.4677	5.5455	0.1	4751.3
27873	5.5589	5.4545	0.1	4716.7
27874	5.4677	5.7273	0.1	4761.1
27875	5.5589	5.6364	0.1	4725.9
27876	5.5589	5.8182	0.1	4735.4
27877	5.4677	5.9091	0.1	4769.7
27878	5.65	0.27273	0.1	4700.2
27879	5.7411	0.18182	0.1	4674.3
27880	5.65	9.0909e-002	0.1	4708.1
27881	5.65	0.45455	0.1	4691.3
27882	5.7411	0.36364	0.1	4665.6
27883	5.65	0.63636	0.1	4682.6
27884	5.7411	0.54545	0.1	4657.3
27885	5.65	0.81818	0.1	4674.1
27886	5.7411	0.72727	0.1	4649.1
27887	5.65	1.	0.1	4666.
27888	5.7411	0.90909	0.1	4641.1
27889	5.65	1.1818	0.1	4658.1
27890	5.7411	1.0909	0.1	4633.5
27891	5.65	1.3636	0.1	4650.7
27892	5.7411	1.2727	0.1	4626.2
27893	5.65	1.5455	0.1	4643.8
27894	5.7411	1.4545	0.1	4619.4
27895	5.65	1.7273	0.1	4637.5
27896	5.7411	1.6364	0.1	4613.1
27897	5.65	1.9091	0.1	4631.8
27898	5.7411	1.8182	0.1	4607.4
27899	5.65	2.0909	0.1	4626.9
27900	5.7411	2.	0.1	4602.3
27901	5.65	2.2727	0.1	4622.7
27902	5.7411	2.1818	0.1	4598.
27903	5.65	2.4545	0.1	4619.4
27904	5.7411	2.3636	0.1	4594.4
27905	5.65	2.6364	0.1	4617.1
27906	5.7411	2.5455	0.1	4591.7
27907	5.65	2.8182	0.1	4615.6
27908	5.7411	2.7273	0.1	4589.9
27909	5.65	3.	0.1	4615.1
27910	5.7411	2.9091	0.1	4589.
27911	5.65	3.1818	0.1	4615.6
27912	5.7411	3.0909	0.1	4589.
27913	5.65	3.3636	0.1	4617.1
27914	5.7411	3.2727	0.1	4589.9
27915	5.65	3.5455	0.1	4619.4
27916	5.7411	3.4545	0.1	4591.7
27917	5.65	3.7273	0.1	4622.7
27918	5.7411	3.6364	0.1	4594.4
27919	5.65	3.9091	0.1	4626.9
27920	5.7411	3.8182	0.1	4598.
27921	5.65	4.0909	0.1	4631.8
27922	5.7411	4.	0.1	4602.3
27923	5.65	4.2727	0.1	4637.5
27924	5.7411	4.1818	0.1	4607.4
27925	5.65	4.4545	0.1	4643.8
27926	5.7411	4.3636	0.1	4613.1
27927	5.65	4.6364	0.1	4650.7
27928	5.7411	4.5455	0.1	4619.4
27929	5.65	4.8182	0.1	4658.1
27930	5.7411	4.7273	0.1	4626.2
27931	5.65	5.	0.1	4666.
27932	5.7411	4.9091	0.1	4633.5
27933	5.65	5.1818	0.1	4674.1
27934	5.7411	5.0909	0.1	4641.1
27935	5.65	5.3636	0.1	4682.6
27936	5.7411	5.2727	0.1	4649.1
27937	5.65	5.5455	0.1	4691.3
27938	5.7411	5.4545	0.1	4657.3
27939	5.65	5.7273	0.1	4700.2
27940	5.7411	5.6364	0.1	4665.6
27941	5.7411	5.8182	0.1	4674.3
27942	5.65	5.9091	0.1	4708.1
27943	5.8323	0.27273	0.1	4639.6
27944	5.9234	0.18182	0.1	4613.4
27945	5.8323	9.0909e-002	0.1	4646.8
27946	5.8323	0.45455	0.1	4631.6
27947	5.9234	0.36364	0.1	4605.6
27948	5.8323	0.63636	0.1	4623.7
27949	5.9234	0.54545	0.1	4598.1
27950	5.8323	0.81818	0.1	4616.1
27951	5.9234	0.72727	0.1	4590.7
27952	5.8323	1.	0.1	4608.7
27953	5.9234	0.90909	0.1	4583.6
27954	5.8323	1.1818	0.1	4601.6
27955	5.9234	1.0909	0.1	4576.7
27956	5.8323	1.3636	0.1	4594.9
27957	5.9234	1.2727	0.1	4570.2
27958	5.8323	1.5455	0.1	4588.7
27959	5.9234	1.4545	0.1	4564.1
27960	5.8323	1.7273	0.1	4583.
27961	5.9234	1.6364	0.1	4558.5
27962	5.8323	1.9091	0.1	4577.9
27963	5.9234	1.8182	0.1	4553.3
27964	5.8323	2.0909	0.1	4573.5
27965	5.9234	2.	0.1	4548.8
27966	5.8323	2.2727	0.1	4569.7
27967	5.9234	2.1818	0.1	4544.9
27968	5.8323	2.4545	0.1	4566.8
27969	5.9234	2.3636	0.1	4541.7
27970	5.8323	2.6364	0.1	4564.6
27971	5.9234	2.5455	0.1	4539.3
27972	5.8323	2.8182	0.1	4563.3
27973	5.9234	2.7273	0.1	4537.7
27974	5.8323	3.	0.1	4562.9
27975	5.9234	2.9091	0.1	4536.9
27976	5.8323	3.1818	0.1	4563.3
27977	5.9234	3.0909	0.1	4536.9
27978	5.8323	3.3636	0.1	4564.6
27979	5.9234	3.2727	0.1	4537.7
27980	5.8323	3.5455	0.1	4566.8
27981	5.9234	3.4545	0.1	4539.3
27982	5.8323	3.7273	0.1	4569.7
27983	5.9234	3.6364	0.1	4541.7
27984	5.8323	3.9091	0.1	4573.5
27985	5.9234	3.8182	0.1	4544.9
27986	5.8323	4.0909	0.1	4577.9
27987	5.9234	4.	0.1	4548.8
27988	5.8323	4.2727	0.1	4583.
27989	5.9234	4.1818	0.1	4553.3
27990	5.8323	4.4545	0.1	4588.7
27991	5.9234	4.3636	0.1	4558.5
27992	5.8323	4.6364	0.1	4594.9
27993	5.9234	4.5455	0.1	4564.1
27994	5.8323	4.8182	0.1	4601.6
27995	5.9234	4.7273	0.1	4570.2
27996	5.8323	5.	0.1	4608.7
27997	5.9234	4.9091	0.1	4576.7
27998	5.8323	5.1818	0.1	4616.1
27999	5.9234	5.0909	0.1	4583.6
28000	5.8323	5.3636	0.1	4623.7
28001	5.9234	5.2727	0.1	4590.7
28002	5.8323	5.5455	0.1	4631.6
28003	5.9234	5.4545	0.1	4598.1
28004	5.8323	5.7273	0.1	4639.6
28005	5.9234	5.6364	0.1	4605.6
28006	5.9234	5.8182	0.1	4613.4
28007	5.8323	5.9091	0.1	4646.8
28008	6.0145	0.27273	0.1	4579.4
28009	6.1056	0.18182	0.1	4552.9
28010	6.0145	9.0909e-002	0.1	4585.8
28011	6.0145	0.45455	0.1	4572.1
28012	6.1056	0.36364	0.1	4545.8
28013	6.0145	0.63636	0.1	4565.1
28014	6.1056	0.54545	0.1	4539.1
28015	6.0145	0.81818	0.1	4558.2
28016	6.1056	0.72727	0.1	4532.6
28017	6.0145	1.	0.1	4551.7
28018	6.1056	0.90909	0.1	4526.3
28019	6.0145	1.1818	0.1	4545.4
28020	6.1056	1.0909	0.1	4520.2
28021	6.0145	1.3636	0.1	4539.4
28022	6.1056	1.2727	0.1	4514.5
28023	6.0145	1.5455	0.1	4533.9
28024	6.1056	1.4545	0.1	4509.1
28025	6.0145	1.7273	0.1	4528.8
28026	6.1056	1.6364	0.1	4504.1
28027	6.0145	1.9091	0.1	4524.2
28028	6.1056	1.8182	0.1	4499.5
28029	6.0145	2.0909	0.1	4520.3
28030	6.1056	2.	0.1	4495.5
28031	6.0145	2.2727	0.1	4516.9
28032	6.1056	2.1818	0.1	4492.1
28033	6.0145	2.4545	0.1	4514.3
28034	6.1056	2.3636	0.1	4489.3
28035	6.0145	2.6364	0.1	4512.4
28036	6.1056	2.5455	0.1	4487.1
28037	6.0145	2.8182	0.1	4511.2
28038	6.1056	2.7273	0.1	4485.7
28039	6.0145	3.	0.1	4510.8
28040	6.1056	2.9091	0.1	4484.9
28041	6.0145	3.1818	0.1	4511.2
28042	6.1056	3.0909	0.1	4484.9
28043	6.0145	3.3636	0.1	4512.4
28044	6.1056	3.2727	0.1	4485.7
28045	6.0145	3.5455	0.1	4514.3
28046	6.1056	3.4545	0.1	4487.1
28047	6.0145	3.7273	0.1	4516.9
28048	6.1056	3.6364	0.1	4489.3
28049	6.0145	3.9091	0.1	4520.3
28050	6.1056	3.8182	0.1	4492.1
28051	6.0145	4.0909	0.1	4524.2
28052	6.1056	4.	0.1	4495.5
28053	6.0145	4.2727	0.1	4528.8
28054	6.1056	4.1818	0.1	4499.5
28055	6.0145	4.4545	0.1	4533.9
28056	6.1056	4.3636	0.1	4504.1
28057	6.0145	4.6364	0.1	4539.4
28058	6.1056	4.5455	0.1	4509.1
28059	6.0145	4.8182	0.1	4545.4
28060	6.1056	4.7273	0.1	4514.5
28061	6.0145	5.	0.1	4551.7
28062	6.1056	4.9091	0.1	4520.2
28063	6.0145	5.1818	0.1	4558.2
28064	6.1056	5.0909	0.1	4526.3
28065	6.0145	5.3636	0.1	4565.1
28066	6.1056	5.2727	0.1	4532.6
28067	6.0145	5.5455	0.1	4572.1
28068	6.1056	5.4545	0.1	4539.1
28069	6.0145	5.7273	0.1	4579.4
28070	6.1056	5.6364	0.1	4545.8
28071	6.1056	5.8182	0.1	4552.9
28072	6.0145	5.9091	0.1	4585.8
28073	6.1968	0.27273	0.1	4519.3
28074	6.2879	0.18182	0.1	4492.4
28075	6.1968	9.0909e-002	0.1	4524.9
28076	6.1968	0.45455	0.1	4512.8
28077	6.2879	0.36364	0.1	4486.1
28078	6.1968	0.63636	0.1	4506.6
28079	6.2879	0.54545	0.1	4480.2
28080	6.1968	0.81818	0.1	4500.6
28081	6.2879	0.72727	0.1	4474.5
28082	6.1968	1.	0.1	4494.8
28083	6.2879	0.90909	0.1	4469.1
28084	6.1968	1.1818	0.1	4489.3
28085	6.2879	1.0909	0.1	4463.8
28086	6.1968	1.3636	0.1	4484.1
28087	6.2879	1.2727	0.1	4458.9
28088	6.1968	1.5455	0.1	4479.3
28089	6.2879	1.4545	0.1	4454.2
28090	6.1968	1.7273	0.1	4474.8
28091	6.2879	1.6364	0.1	4449.9
28092	6.1968	1.9091	0.1	4470.8
28093	6.2879	1.8182	0.1	4446.
28094	6.1968	2.0909	0.1	4467.4
28095	6.2879	2.	0.1	4442.5
28096	6.1968	2.2727	0.1	4464.4
28097	6.2879	2.1818	0.1	4439.6
28098	6.1968	2.4545	0.1	4462.1
28099	6.2879	2.3636	0.1	4437.1
28100	6.1968	2.6364	0.1	4460.4
28101	6.2879	2.5455	0.1	4435.2
28102	6.1968	2.8182	0.1	4459.4
28103	6.2879	2.7273	0.1	4434.
28104	6.1968	3.	0.1	4459.1
28105	6.2879	2.9091	0.1	4433.4
28106	6.1968	3.1818	0.1	4459.4
28107	6.2879	3.0909	0.1	4433.4
28108	6.1968	3.3636	0.1	4460.4
28109	6.2879	3.2727	0.1	4434.
28110	6.1968	3.5455	0.1	4462.1
28111	6.2879	3.4545	0.1	4435.2
28112	6.1968	3.7273	0.1	4464.4
28113	6.2879	3.6364	0.1	4437.1
28114	6.1968	3.9091	0.1	4467.4
28115	6.2879	3.8182	0.1	4439.6
28116	6.1968	4.0909	0.1	4470.8
28117	6.2879	4.	0.1	4442.5
28118	6.1968	4.2727	0.1	4474.8
28119	6.2879	4.1818	0.1	4446.
28120	6.1968	4.4545	0.1	4479.3
28121	6.2879	4.3636	0.1	4449.9
28122	6.1968	4.6364	0.1	4484.1
28123	6.2879	4.5455	0.1	4454.2
28124	6.1968	4.8182	0.1	4489.3
28125	6.2879	4.7273	0.1	4458.9
28126	6.1968	5.	0.1	4494.8
28127	6.2879	4.9091	0.1	4463.8
28128	6.1968	5.1818	0.1	4500.6
28129	6.2879	5.0909	0.1	4469.1
28130	6.1968	5.3636	0.1	4506.6
28131	6.2879	5.2727	0.1	4474.5
28132	6.1968	5.5455	0.1	4512.8
28133	6.2879	5.4545	0.1	4480.2
28134	6.1968	5.7273	0.1	4519.3
28135	6.2879	5.6364	0.1	4486.1
28136	6.2879	5.8182	0.1	4492.4
28137	6.1968	5.9091	0.1	4524.9
28138	6.379	0.27273	0.1	4459.2
28139	6.4702	0.18182	0.1	4432.
28140	6.379	9.0909e-002	0.1	4464.1
28141	6.379	0.45455	0.1	4453.6
28142	6.4702	0.36364	0.1	4426.4
28143	6.379	0.63636	0.1	4448.2
28144	6.4702	0.54545	0.1	4421.4
28145	6.379	0.81818	0.1	4443.
28146	6.4702	0.72727	0.1	4416.6
28147	6.379	1.	0.1	4438.1
28148	6.4702	0.90909	0.1	4412.
28149	6.379	1.1818	0.1	4433.4
28150	6.4702	1.0909	0.1	4407.6
28151	6.379	1.3636	0.1	4429.
28152	6.4702	1.2727	0.1	4403.5
28153	6.379	1.5455	0.1	4424.9
28154	6.4702	1.4545	0.1	4399.6
28155	6.379	1.7273	0.1	4421.1
28156	6.4702	1.6364	0.1	4396.
28157	6.379	1.9091	0.1	4417.7
28158	6.4702	1.8182	0.1	4392.7
28159	6.379	2.0909	0.1	4414.7
28160	6.4702	2.	0.1	4389.8
28161	6.379	2.2727	0.1	4412.2
28162	6.4702	2.1818	0.1	4387.3
28163	6.379	2.4545	0.1	4410.2
28164	6.4702	2.3636	0.1	4385.3
28165	6.379	2.6364	0.1	4408.8
28166	6.4702	2.5455	0.1	4383.7
28167	6.379	2.8182	0.1	4407.9
28168	6.4702	2.7273	0.1	4382.7
28169	6.379	3.	0.1	4407.6
28170	6.4702	2.9091	0.1	4382.2
28171	6.379	3.1818	0.1	4407.9
28172	6.4702	3.0909	0.1	4382.2
28173	6.379	3.3636	0.1	4408.8
28174	6.4702	3.2727	0.1	4382.7
28175	6.379	3.5455	0.1	4410.2
28176	6.4702	3.4545	0.1	4383.7
28177	6.379	3.7273	0.1	4412.2
28178	6.4702	3.6364	0.1	4385.3
28179	6.379	3.9091	0.1	4414.7
28180	6.4702	3.8182	0.1	4387.3
28181	6.379	4.0909	0.1	4417.7
28182	6.4702	4.	0.1	4389.8
28183	6.379	4.2727	0.1	4421.1
28184	6.4702	4.1818	0.1	4392.7
28185	6.379	4.4545	0.1	4424.9
28186	6.4702	4.3636	0.1	4396.
28187	6.379	4.6364	0.1	4429.
28188	6.4702	4.5455	0.1	4399.6
28189	6.379	4.8182	0.1	4433.4
28190	6.4702	4.7273	0.1	4403.5
28191	6.379	5.	0.1	4438.1
28192	6.4702	4.9091	0.1	4407.6
28193	6.379	5.1818	0.1	4443.
28194	6.4702	5.0909	0.1	4412.
28195	6.379	5.3636	0.1	4448.2
28196	6.4702	5.2727	0.1	4416.6
28197	6.379	5.5455	0.1	4453.6
28198	6.4702	5.4545	0.1	4421.4
28199	6.379	5.7273	0.1	4459.2
28200	6.4702	5.6364	0.1	4426.4
28201	6.4702	5.8182	0.1	4432.
28202	6.379	5.9091	0.1	4464.1
28203	6.5613	0.27273	0.1	4399.2
28204	6.6524	0.18182	0.1	4371.4
28205	6.5613	9.0909e-002	0.1	4403.2
28206	6.5613	0.45455	0.1	4394.3
28207	6.6524	0.36364	0.1	4366.7
28208	6.5613	0.63636	0.1	4389.8
28209	6.6524	0.54545	0.1	4362.5
28210	6.5613	0.81818	0.1	4385.5
28211	6.6524	0.72727	0.1	4358.6
28212	6.5613	1.	0.1	4381.5
28213	6.6524	0.90909	0.1	4354.9
28214	6.5613	1.1818	0.1	4377.7
28215	6.6524	1.0909	0.1	4351.5
28216	6.5613	1.3636	0.1	4374.1
28217	6.6524	1.2727	0.1	4348.2
28218	6.5613	1.5455	0.1	4370.7
28219	6.6524	1.4545	0.1	4345.2
28220	6.5613	1.7273	0.1	4367.6
28221	6.6524	1.6364	0.1	4342.3
28222	6.5613	1.9091	0.1	4364.9
28223	6.6524	1.8182	0.1	4339.8
28224	6.5613	2.0909	0.1	4362.5
28225	6.6524	2.	0.1	4337.5
28226	6.5613	2.2727	0.1	4360.4
28227	6.6524	2.1818	0.1	4335.6
28228	6.5613	2.4545	0.1	4358.8
28229	6.6524	2.3636	0.1	4333.9
28230	6.5613	2.6364	0.1	4357.6
28231	6.6524	2.5455	0.1	4332.7
28232	6.5613	2.8182	0.1	4356.9
28233	6.6524	2.7273	0.1	4331.9
28234	6.5613	3.	0.1	4356.7
28235	6.6524	2.9091	0.1	4331.5
28236	6.5613	3.1818	0.1	4356.9
28237	6.6524	3.0909	0.1	4331.5
28238	6.5613	3.3636	0.1	4357.6
28239	6.6524	3.2727	0.1	4331.9
28240	6.5613	3.5455	0.1	4358.8
28241	6.6524	3.4545	0.1	4332.7
28242	6.5613	3.7273	0.1	4360.4
28243	6.6524	3.6364	0.1	4333.9
28244	6.5613	3.9091	0.1	4362.5
28245	6.6524	3.8182	0.1	4335.6
28246	6.5613	4.0909	0.1	4364.9
28247	6.6524	4.	0.1	4337.5
28248	6.5613	4.2727	0.1	4367.6
28249	6.6524	4.1818	0.1	4339.8
28250	6.5613	4.4545	0.1	4370.7
28251	6.6524	4.3636	0.1	4342.3
28252	6.5613	4.6364	0.1	4374.1
28253	6.6524	4.5455	0.1	4345.2
28254	6.5613	4.8182	0.1	4377.7
28255	6.6524	4.7273	0.1	4348.2
28256	6.5613	5.	0.1	4381.5
28257	6.6524	4.9091	0.1	4351.5
28258	6.5613	5.1818	0.1	4385.5
28259	6.6524	5.0909	0.1	4354.9
28260	6.5613	5.3636	0.1	4389.8
28261	6.6524	5.2727	0.1	4358.6
28262	6.5613	5.5455	0.1	4394.3
28263	6.6524	5.4545	0.1	4362.5
28264	6.5613	5.7273	0.1	4399.2
28265	6.6524	5.6364	0.1	4366.7
28266	6.6524	5.8182	0.1	4371.4
28267	6.5613	5.9091	0.1	4403.2
28268	6.7435	0.27273	0.1	4338.9
28269	6.8347	0.18182	0.1	4310.5
28270	6.7435	9.0909e-002	0.1	4342.1
28271	6.7435	0.45455	0.1	4334.9
28272	6.8347	0.36364	0.1	4306.6
28273	6.7435	0.63636	0.1	4331.3
28274	6.8347	0.54545	0.1	4303.4
28275	6.7435	0.81818	0.1	4328.
28276	6.8347	0.72727	0.1	4300.5
28277	6.7435	1.	0.1	4324.9
28278	6.8347	0.90909	0.1	4297.8
28279	6.7435	1.1818	0.1	4322.
28280	6.8347	1.0909	0.1	4295.4
28281	6.7435	1.3636	0.1	4319.3
28282	6.8347	1.2727	0.1	4293.1
28283	6.7435	1.5455	0.1	4316.8
28284	6.8347	1.4545	0.1	4290.9
28285	6.7435	1.7273	0.1	4314.5
28286	6.8347	1.6364	0.1	4289.
28287	6.7435	1.9091	0.1	4312.4
28288	6.8347	1.8182	0.1	4287.2
28289	6.7435	2.0909	0.1	4310.6
28290	6.8347	2.	0.1	4285.6
28291	6.7435	2.2727	0.1	4309.1
28292	6.8347	2.1818	0.1	4284.3
28293	6.7435	2.4545	0.1	4307.9
28294	6.8347	2.3636	0.1	4283.2
28295	6.7435	2.6364	0.1	4307.
28296	6.8347	2.5455	0.1	4282.3
28297	6.7435	2.8182	0.1	4306.4
28298	6.8347	2.7273	0.1	4281.7
28299	6.7435	3.	0.1	4306.3
28300	6.8347	2.9091	0.1	4281.4
28301	6.7435	3.1818	0.1	4306.4
28302	6.8347	3.0909	0.1	4281.4
28303	6.7435	3.3636	0.1	4307.
28304	6.8347	3.2727	0.1	4281.7
28305	6.7435	3.5455	0.1	4307.9
28306	6.8347	3.4545	0.1	4282.3
28307	6.7435	3.7273	0.1	4309.1
28308	6.8347	3.6364	0.1	4283.2
28309	6.7435	3.9091	0.1	4310.6
28310	6.8347	3.8182	0.1	4284.3
28311	6.7435	4.0909	0.1	4312.4
28312	6.8347	4.	0.1	4285.6
28313	6.7435	4.2727	0.1	4314.5
28314	6.8347	4.1818	0.1	4287.2
28315	6.7435	4.4545	0.1	4316.8
28316	6.8347	4.3636	0.1	4289.
28317	6.7435	4.6364	0.1	4319.3
28318	6.8347	4.5455	0.1	4290.9
28319	6.7435	4.8182	0.1	4322.
28320	6.8347	4.7273	0.1	4293.1
28321	6.7435	5.	0.1	4324.9
28322	6.8347	4.9091	0.1	4295.4
28323	6.7435	5.1818	0.1	4328.
28324	6.8347	5.0909	0.1	4297.8
28325	6.7435	5.3636	0.1	4331.3
28326	6.8347	5.2727	0.1	4300.5
28327	6.7435	5.5455	0.1	4334.9
28328	6.8347	5.4545	0.1	4303.4
28329	6.7435	5.7273	0.1	4338.9
28330	6.8347	5.6364	0.1	4306.6
28331	6.8347	5.8182	0.1	4310.5
28332	6.7435	5.9091	0.1	4342.1
28333	6.9258	0.27273	0.1	4278.2
28334	7.0169	0.18182	0.1	4249.1
28335	6.9258	9.0909e-002	0.1	4280.6
28336	6.9258	0.45455	0.1	4275.2
28337	7.0169	0.36364	0.1	4246.1
28338	6.9258	0.63636	0.1	4272.6
28339	7.0169	0.54545	0.1	4244.
28340	6.9258	0.81818	0.1	4270.3
28341	7.0169	0.72727	0.1	4242.1
28342	6.9258	1.	0.1	4268.3
28343	7.0169	0.90909	0.1	4240.5
28344	6.9258	1.1818	0.1	4266.4
28345	7.0169	1.0909	0.1	4239.2
28346	6.9258	1.3636	0.1	4264.7
28347	7.0169	1.2727	0.1	4238.
28348	6.9258	1.5455	0.1	4263.1
28349	7.0169	1.4545	0.1	4236.9
28350	6.9258	1.7273	0.1	4261.7
28351	7.0169	1.6364	0.1	4235.9
28352	6.9258	1.9091	0.1	4260.4
28353	7.0169	1.8182	0.1	4235.1
28354	6.9258	2.0909	0.1	4259.3
28355	7.0169	2.	0.1	4234.3
28356	6.9258	2.2727	0.1	4258.3
28357	7.0169	2.1818	0.1	4233.6
28358	6.9258	2.4545	0.1	4257.6
28359	7.0169	2.3636	0.1	4233.1
28360	6.9258	2.6364	0.1	4257.
28361	7.0169	2.5455	0.1	4232.6
28362	6.9258	2.8182	0.1	4256.7
28363	7.0169	2.7273	0.1	4232.3
28364	6.9258	3.	0.1	4256.6
28365	7.0169	2.9091	0.1	4232.2
28366	6.9258	3.1818	0.1	4256.7
28367	7.0169	3.0909	0.1	4232.2
28368	6.9258	3.3636	0.1	4257.
28369	7.0169	3.2727	0.1	4232.3
28370	6.9258	3.5455	0.1	4257.6
28371	7.0169	3.4545	0.1	4232.6
28372	6.9258	3.7273	0.1	4258.3
28373	7.0169	3.6364	0.1	4233.1
28374	6.9258	3.9091	0.1	4259.3
28375	7.0169	3.8182	0.1	4233.6
28376	6.9258	4.0909	0.1	4260.4
28377	7.0169	4.	0.1	4234.3
28378	6.9258	4.2727	0.1	4261.7
28379	7.0169	4.1818	0.1	4235.1
28380	6.9258	4.4545	0.1	4263.1
28381	7.0169	4.3636	0.1	4235.9
28382	6.9258	4.6364	0.1	4264.7
28383	7.0169	4.5455	0.1	4236.9
28384	6.9258	4.8182	0.1	4266.4
28385	7.0169	4.7273	0.1	4238.
28386	6.9258	5.	0.1	4268.3
28387	7.0169	4.9091	0.1	4239.2
28388	6.9258	5.1818	0.1	4270.3
28389	7.0169	5.0909	0.1	4240.5
28390	6.9258	5.3636	0.1	4272.6
28391	7.0169	5.2727	0.1	4242.1
28392	6.9258	5.5455	0.1	4275.2
28393	7.0169	5.4545	0.1	4244.
28394	6.9258	5.7273	0.1	4278.2
28395	7.0169	5.6364	0.1	4246.1
28396	7.0169	5.8182	0.1	4249.1
28397	6.9258	5.9091	0.1	4280.6
28398	7.1081	0.27273	0.1	4217.
28399	7.1992	0.18182	0.1	4186.8
28400	7.1081	9.0909e-002	0.1	4218.5
28401	7.1081	0.45455	0.1	4214.9
28402	7.1992	0.36364	0.1	4184.9
28403	7.1081	0.63636	0.1	4213.5
28404	7.1992	0.54545	0.1	4183.9
28405	7.1081	0.81818	0.1	4212.3
28406	7.1992	0.72727	0.1	4183.3
28407	7.1081	1.	0.1	4211.5
28408	7.1992	0.90909	0.1	4183.
28409	7.1081	1.1818	0.1	4210.8
28410	7.1992	1.0909	0.1	4182.9
28411	7.1081	1.3636	0.1	4210.2
28412	7.1992	1.2727	0.1	4182.9
28413	7.1081	1.5455	0.1	4209.7
28414	7.1992	1.4545	0.1	4183.1
28415	7.1081	1.7273	0.1	4209.3
28416	7.1992	1.6364	0.1	4183.3
28417	7.1081	1.9091	0.1	4208.9
28418	7.1992	1.8182	0.1	4183.4
28419	7.1081	2.0909	0.1	4208.6
28420	7.1992	2.	0.1	4183.6
28421	7.1081	2.2727	0.1	4208.3
28422	7.1992	2.1818	0.1	4183.8
28423	7.1081	2.4545	0.1	4208.1
28424	7.1992	2.3636	0.1	4183.9
28425	7.1081	2.6364	0.1	4207.9
28426	7.1992	2.5455	0.1	4183.9
28427	7.1081	2.8182	0.1	4207.8
28428	7.1992	2.7273	0.1	4184.
28429	7.1081	3.	0.1	4207.8
28430	7.1992	2.9091	0.1	4184.
28431	7.1081	3.1818	0.1	4207.8
28432	7.1992	3.0909	0.1	4184.
28433	7.1081	3.3636	0.1	4207.9
28434	7.1992	3.2727	0.1	4184.
28435	7.1081	3.5455	0.1	4208.1
28436	7.1992	3.4545	0.1	4183.9
28437	7.1081	3.7273	0.1	4208.3
28438	7.1992	3.6364	0.1	4183.9
28439	7.1081	3.9091	0.1	4208.6
28440	7.1992	3.8182	0.1	4183.8
28441	7.1081	4.0909	0.1	4208.9
28442	7.1992	4.	0.1	4183.6
28443	7.1081	4.2727	0.1	4209.3
28444	7.1992	4.1818	0.1	4183.4
28445	7.1081	4.4545	0.1	4209.7
28446	7.1992	4.3636	0.1	4183.3
28447	7.1081	4.6364	0.1	4210.2
28448	7.1992	4.5455	0.1	4183.1
28449	7.1081	4.8182	0.1	4210.8
28450	7.1992	4.7273	0.1	4182.9
28451	7.1081	5.	0.1	4211.5
28452	7.1992	4.9091	0.1	4182.9
28453	7.1081	5.1818	0.1	4212.3
28454	7.1992	5.0909	0.1	4183.
28455	7.1081	5.3636	0.1	4213.5
28456	7.1992	5.2727	0.1	4183.3
28457	7.1081	5.5455	0.1	4214.9
28458	7.1992	5.4545	0.1	4183.9
28459	7.1081	5.7273	0.1	4217.
28460	7.1992	5.6364	0.1	4184.9
28461	7.1992	5.8182	0.1	4186.8
28462	7.1081	5.9091	0.1	4218.5
28463	7.2903	0.27273	0.1	4154.8
28464	7.3815	0.18182	0.1	4123.5
28465	7.2903	9.0909e-002	0.1	4155.4
28466	7.2903	0.45455	0.1	4153.9
28467	7.3815	0.36364	0.1	4122.7
28468	7.2903	0.63636	0.1	4153.7
28469	7.3815	0.54545	0.1	4123.
28470	7.2903	0.81818	0.1	4153.9
28471	7.3815	0.72727	0.1	4123.7
28472	7.2903	1.	0.1	4154.4
28473	7.3815	0.90909	0.1	4124.9
28474	7.2903	1.1818	0.1	4155.
28475	7.3815	1.0909	0.1	4126.3
28476	7.2903	1.3636	0.1	4155.8
28477	7.3815	1.2727	0.1	4127.8
28478	7.2903	1.5455	0.1	4156.6
28479	7.3815	1.4545	0.1	4129.4
28480	7.2903	1.7273	0.1	4157.4
28481	7.3815	1.6364	0.1	4131.
28482	7.2903	1.9091	0.1	4158.1
28483	7.3815	1.8182	0.1	4132.4
28484	7.2903	2.0909	0.1	4158.7
28485	7.3815	2.	0.1	4133.7
28486	7.2903	2.2727	0.1	4159.3
28487	7.3815	2.1818	0.1	4134.9
28488	7.2903	2.4545	0.1	4159.7
28489	7.3815	2.3636	0.1	4135.8
28490	7.2903	2.6364	0.1	4160.
28491	7.3815	2.5455	0.1	4136.5
28492	7.2903	2.8182	0.1	4160.2
28493	7.3815	2.7273	0.1	4136.9
28494	7.2903	3.	0.1	4160.2
28495	7.3815	2.9091	0.1	4137.2
28496	7.2903	3.1818	0.1	4160.2
28497	7.3815	3.0909	0.1	4137.2
28498	7.2903	3.3636	0.1	4160.
28499	7.3815	3.2727	0.1	4136.9
28500	7.2903	3.5455	0.1	4159.7
28501	7.3815	3.4545	0.1	4136.5
28502	7.2903	3.7273	0.1	4159.3
28503	7.3815	3.6364	0.1	4135.8
28504	7.2903	3.9091	0.1	4158.7
28505	7.3815	3.8182	0.1	4134.9
28506	7.2903	4.0909	0.1	4158.1
28507	7.3815	4.	0.1	4133.7
28508	7.2903	4.2727	0.1	4157.4
28509	7.3815	4.1818	0.1	4132.4
28510	7.2903	4.4545	0.1	4156.6
28511	7.3815	4.3636	0.1	4131.
28512	7.2903	4.6364	0.1	4155.8
28513	7.3815	4.5455	0.1	4129.4
28514	7.2903	4.8182	0.1	4155.
28515	7.3815	4.7273	0.1	4127.8
28516	7.2903	5.	0.1	4154.4
28517	7.3815	4.9091	0.1	4126.3
28518	7.2903	5.1818	0.1	4153.9
28519	7.3815	5.0909	0.1	4124.9
28520	7.2903	5.3636	0.1	4153.7
28521	7.3815	5.2727	0.1	4123.7
28522	7.2903	5.5455	0.1	4153.9
28523	7.3815	5.4545	0.1	4123.
28524	7.2903	5.7273	0.1	4154.8
28525	7.3815	5.6364	0.1	4122.7
28526	7.3815	5.8182	0.1	4123.5
28527	7.2903	5.9091	0.1	4155.4
28528	7.4726	0.27273	0.1	4091.4
28529	7.5637	0.18182	0.1	4058.6
28530	7.4726	9.0909e-002	0.1	4090.9
28531	7.4726	0.45455	0.1	4091.8
28532	7.5637	0.36364	0.1	4059.2
28533	7.4726	0.63636	0.1	4093.
28534	7.5637	0.54545	0.1	4060.9
28535	7.4726	0.81818	0.1	4094.7
28536	7.5637	0.72727	0.1	4063.2
28537	7.4726	1.	0.1	4096.8
28538	7.5637	0.90909	0.1	4066.1
28539	7.4726	1.1818	0.1	4099.1
28540	7.5637	1.0909	0.1	4069.3
28541	7.4726	1.3636	0.1	4101.5
28542	7.5637	1.2727	0.1	4072.6
28543	7.4726	1.5455	0.1	4103.8
28544	7.5637	1.4545	0.1	4075.9
28545	7.4726	1.7273	0.1	4106.
28546	7.5637	1.6364	0.1	4079.2
28547	7.4726	1.9091	0.1	4108.1
28548	7.5637	1.8182	0.1	4082.2
28549	7.4726	2.0909	0.1	4109.9
28550	7.5637	2.	0.1	4084.9
28551	7.4726	2.2727	0.1	4111.4
28552	7.5637	2.1818	0.1	4087.2
28553	7.4726	2.4545	0.1	4112.6
28554	7.5637	2.3636	0.1	4089.1
28555	7.4726	2.6364	0.1	4113.4
28556	7.5637	2.5455	0.1	4090.6
28557	7.4726	2.8182	0.1	4114.
28558	7.5637	2.7273	0.1	4091.6
28559	7.4726	3.	0.1	4114.1
28560	7.5637	2.9091	0.1	4092.1
28561	7.4726	3.1818	0.1	4114.
28562	7.5637	3.0909	0.1	4092.1
28563	7.4726	3.3636	0.1	4113.4
28564	7.5637	3.2727	0.1	4091.6
28565	7.4726	3.5455	0.1	4112.6
28566	7.5637	3.4545	0.1	4090.6
28567	7.4726	3.7273	0.1	4111.4
28568	7.5637	3.6364	0.1	4089.1
28569	7.4726	3.9091	0.1	4109.9
28570	7.5637	3.8182	0.1	4087.2
28571	7.4726	4.0909	0.1	4108.1
28572	7.5637	4.	0.1	4084.9
28573	7.4726	4.2727	0.1	4106.
28574	7.5637	4.1818	0.1	4082.2
28575	7.4726	4.4545	0.1	4103.8
28576	7.5637	4.3636	0.1	4079.2
28577	7.4726	4.6364	0.1	4101.5
28578	7.5637	4.5455	0.1	4075.9
28579	7.4726	4.8182	0.1	4099.1
28580	7.5637	4.7273	0.1	4072.6
28581	7.4726	5.	0.1	4096.8
28582	7.5637	4.9091	0.1	4069.3
28583	7.4726	5.1818	0.1	4094.7
28584	7.5637	5.0909	0.1	4066.1
28585	7.4726	5.3636	0.1	4093.
28586	7.5637	5.2727	0.1	4063.2
28587	7.4726	5.5455	0.1	4091.8
28588	7.5637	5.4545	0.1	4060.9
28589	7.4726	5.7273	0.1	4091.4
28590	7.5637	5.6364	0.1	4059.2
28591	7.5637	5.8182	0.1	4058.6
28592	7.4726	5.9091	0.1	4090.9
28593	7.6548	0.27273	0.1	4026.4
28594	7.746	0.18182	0.1	3991.8
28595	7.6548	9.0909e-002	0.1	4024.8
28596	7.6548	0.45455	0.1	4028.2
28597	7.746	0.36364	0.1	3993.8
28598	7.6548	0.63636	0.1	4031.1
28599	7.746	0.54545	0.1	3997.2
28600	7.6548	0.81818	0.1	4034.6
28601	7.746	0.72727	0.1	4001.5
28602	7.6548	1.	0.1	4038.6
28603	7.746	0.90909	0.1	4006.4
28604	7.6548	1.1818	0.1	4042.8
28605	7.746	1.0909	0.1	4011.7
28606	7.6548	1.3636	0.1	4047.1
28607	7.746	1.2727	0.1	4017.1
28608	7.6548	1.5455	0.1	4051.3
28609	7.746	1.4545	0.1	4022.6
28610	7.6548	1.7273	0.1	4055.3
28611	7.746	1.6364	0.1	4027.9
28612	7.6548	1.9091	0.1	4059.
28613	7.746	1.8182	0.1	4032.8
28614	7.6548	2.0909	0.1	4062.2
28615	7.746	2.	0.1	4037.2
28616	7.6548	2.2727	0.1	4064.9
28617	7.746	2.1818	0.1	4041.
28618	7.6548	2.4545	0.1	4067.1
28619	7.746	2.3636	0.1	4044.2
28620	7.6548	2.6364	0.1	4068.7
28621	7.746	2.5455	0.1	4046.6
28622	7.6548	2.8182	0.1	4069.7
28623	7.746	2.7273	0.1	4048.3
28624	7.6548	3.	0.1	4070.
28625	7.746	2.9091	0.1	4049.1
28626	7.6548	3.1818	0.1	4069.7
28627	7.746	3.0909	0.1	4049.1
28628	7.6548	3.3636	0.1	4068.7
28629	7.746	3.2727	0.1	4048.3
28630	7.6548	3.5455	0.1	4067.1
28631	7.746	3.4545	0.1	4046.6
28632	7.6548	3.7273	0.1	4064.9
28633	7.746	3.6364	0.1	4044.2
28634	7.6548	3.9091	0.1	4062.2
28635	7.746	3.8182	0.1	4041.
28636	7.6548	4.0909	0.1	4059.
28637	7.746	4.	0.1	4037.2
28638	7.6548	4.2727	0.1	4055.3
28639	7.746	4.1818	0.1	4032.8
28640	7.6548	4.4545	0.1	4051.3
28641	7.746	4.3636	0.1	4027.9
28642	7.6548	4.6364	0.1	4047.1
28643	7.746	4.5455	0.1	4022.6
28644	7.6548	4.8182	0.1	4042.8
28645	7.746	4.7273	0.1	4017.1
28646	7.6548	5.	0.1	4038.6
28647	7.746	4.9091	0.1	4011.7
28648	7.6548	5.1818	0.1	4034.6
28649	7.746	5.0909	0.1	4006.4
28650	7.6548	5.3636	0.1	4031.1
28651	7.746	5.2727	0.1	4001.5
28652	7.6548	5.5455	0.1	4028.2
28653	7.746	5.4545	0.1	3997.2
28654	7.6548	5.7273	0.1	4026.4
28655	7.746	5.6364	0.1	3993.8
28656	7.746	5.8182	0.1	3991.8
28657	7.6548	5.9091	0.1	4024.8
28658	7.8371	0.27273	0.1	3959.1
28659	7.9282	0.18182	0.1	3922.2
28660	7.8371	9.0909e-002	0.1	3956.3
28661	7.8371	0.45455	0.1	3962.7
28662	7.9282	0.36364	0.1	3926.
28663	7.8371	0.63636	0.1	3967.5
28664	7.9282	0.54545	0.1	3931.4
28665	7.8371	0.81818	0.1	3973.2
28666	7.9282	0.72727	0.1	3938.
28667	7.8371	1.	0.1	3979.4
28668	7.9282	0.90909	0.1	3945.3
28669	7.8371	1.1818	0.1	3986.
28670	7.9282	1.0909	0.1	3953.2
28671	7.8371	1.3636	0.1	3992.7
28672	7.9282	1.2727	0.1	3961.3
28673	7.8371	1.5455	0.1	3999.2
28674	7.9282	1.4545	0.1	3969.4
28675	7.8371	1.7273	0.1	4005.3
28676	7.9282	1.6364	0.1	3977.2
28677	7.8371	1.9091	0.1	4011.
28678	7.9282	1.8182	0.1	3984.5
28679	7.8371	2.0909	0.1	4016.
28680	7.9282	2.	0.1	3991.1
28681	7.8371	2.2727	0.1	4020.3
28682	7.9282	2.1818	0.1	3996.8
28683	7.8371	2.4545	0.1	4023.7
28684	7.9282	2.3636	0.1	4001.6
28685	7.8371	2.6364	0.1	4026.2
28686	7.9282	2.5455	0.1	4005.2
28687	7.8371	2.8182	0.1	4027.7
28688	7.9282	2.7273	0.1	4007.7
28689	7.8371	3.	0.1	4028.3
28690	7.9282	2.9091	0.1	4009.
28691	7.8371	3.1818	0.1	4027.7
28692	7.9282	3.0909	0.1	4009.
28693	7.8371	3.3636	0.1	4026.2
28694	7.9282	3.2727	0.1	4007.7
28695	7.8371	3.5455	0.1	4023.7
28696	7.9282	3.4545	0.1	4005.2
28697	7.8371	3.7273	0.1	4020.3
28698	7.9282	3.6364	0.1	4001.6
28699	7.8371	3.9091	0.1	4016.
28700	7.9282	3.8182	0.1	3996.8
28701	7.8371	4.0909	0.1	4011.
28702	7.9282	4.	0.1	3991.1
28703	7.8371	4.2727	0.1	4005.3
28704	7.9282	4.1818	0.1	3984.5
28705	7.8371	4.4545	0.1	3999.2
28706	7.9282	4.3636	0.1	3977.2
28707	7.8371	4.6364	0.1	3992.7
28708	7.9282	4.5455	0.1	3969.4
28709	7.8371	4.8182	0.1	3986.
28710	7.9282	4.7273	0.1	3961.3
28711	7.8371	5.	0.1	3979.4
28712	7.9282	4.9091	0.1	3953.2
28713	7.8371	5.1818	0.1	3973.2
28714	7.9282	5.0909	0.1	3945.3
28715	7.8371	5.3636	0.1	3967.5
28716	7.9282	5.2727	0.1	3937.9
28717	7.8371	5.5455	0.1	3962.7
28718	7.9282	5.4545	0.1	3931.4
28719	7.8371	5.7273	0.1	3959.1
28720	7.9282	5.6364	0.1	3926.
28721	7.9282	5.8182	0.1	3922.2
28722	7.8371	5.9091	0.1	3956.3
28723	8.0194	0.27273	0.1	3889.1
28724	8.1105	0.18182	0.1	3849.3
28725	8.0194	9.0909e-002	0.1	3884.8
28726	8.0194	0.45455	0.1	3894.7
28727	8.1105	0.36364	0.1	3855.1
28728	8.0194	0.63636	0.1	3901.8
28729	8.1105	0.54545	0.1	3862.9
28730	8.0194	0.81818	0.1	3910.
28731	8.1105	0.72727	0.1	3872.2
28732	8.0194	1.	0.1	3919.
28733	8.1105	0.90909	0.1	3882.5
28734	8.0194	1.1818	0.1	3928.5
28735	8.1105	1.0909	0.1	3893.5
28736	8.0194	1.3636	0.1	3938.
28737	8.1105	1.2727	0.1	3904.9
28738	8.0194	1.5455	0.1	3947.4
28739	8.1105	1.4545	0.1	3916.2
28740	8.0194	1.7273	0.1	3956.3
28741	8.1105	1.6364	0.1	3927.2
28742	8.0194	1.9091	0.1	3964.5
28743	8.1105	1.8182	0.1	3937.5
28744	8.0194	2.0909	0.1	3971.8
28745	8.1105	2.	0.1	3946.8
28746	8.0194	2.2727	0.1	3978.1
28747	8.1105	2.1818	0.1	3955.
28748	8.0194	2.4545	0.1	3983.
28749	8.1105	2.3636	0.1	3961.8
28750	8.0194	2.6364	0.1	3986.7
28751	8.1105	2.5455	0.1	3967.
28752	8.0194	2.8182	0.1	3988.9
28753	8.1105	2.7273	0.1	3970.5
28754	8.0194	3.	0.1	3989.6
28755	8.1105	2.9091	0.1	3972.3
28756	8.0194	3.1818	0.1	3988.9
28757	8.1105	3.0909	0.1	3972.3
28758	8.0194	3.3636	0.1	3986.7
28759	8.1105	3.2727	0.1	3970.5
28760	8.0194	3.5455	0.1	3983.
28761	8.1105	3.4545	0.1	3967.
28762	8.0194	3.7273	0.1	3978.1
28763	8.1105	3.6364	0.1	3961.8
28764	8.0194	3.9091	0.1	3971.8
28765	8.1105	3.8182	0.1	3955.
28766	8.0194	4.0909	0.1	3964.5
28767	8.1105	4.	0.1	3946.8
28768	8.0194	4.2727	0.1	3956.3
28769	8.1105	4.1818	0.1	3937.5
28770	8.0194	4.4545	0.1	3947.4
28771	8.1105	4.3636	0.1	3927.2
28772	8.0194	4.6364	0.1	3938.
28773	8.1105	4.5455	0.1	3916.2
28774	8.0194	4.8182	0.1	3928.5
28775	8.1105	4.7273	0.1	3904.9
28776	8.0194	5.	0.1	3919.
28777	8.1105	4.9091	0.1	3893.5
28778	8.0194	5.1818	0.1	3910.
28779	8.1105	5.0909	0.1	3882.5
28780	8.0194	5.3636	0.1	3901.8
28781	8.1105	5.2727	0.1	3872.2
28782	8.0194	5.5455	0.1	3894.7
28783	8.1105	5.4545	0.1	3862.9
28784	8.0194	5.7273	0.1	3889.1
28785	8.1105	5.6364	0.1	3855.1
28786	8.1105	5.8182	0.1	3849.3
28787	8.0194	5.9091	0.1	3884.8
28788	8.2016	0.27273	0.1	3815.4
28789	8.2927	0.18182	0.1	3772.1
28790	8.2016	9.0909e-002	0.1	3809.4
28791	8.2016	0.45455	0.1	3823.3
28792	8.2927	0.36364	0.1	3780.3
28793	8.2016	0.63636	0.1	3833.2
28794	8.2927	0.54545	0.1	3790.9
28795	8.2016	0.81818	0.1	3844.6
28796	8.2927	0.72727	0.1	3803.4
28797	8.2016	1.	0.1	3857.
28798	8.2927	0.90909	0.1	3817.3
28799	8.2016	1.1818	0.1	3869.9
28800	8.2927	1.0909	0.1	3832.3
28801	8.2016	1.3636	0.1	3883.1
28802	8.2927	1.2727	0.1	3847.7
28803	8.2016	1.5455	0.1	3896.
28804	8.2927	1.4545	0.1	3863.1
28805	8.2016	1.7273	0.1	3908.4
28806	8.2927	1.6364	0.1	3878.1
28807	8.2016	1.9091	0.1	3919.8
28808	8.2927	1.8182	0.1	3892.2
28809	8.2016	2.0909	0.1	3930.
28810	8.2927	2.	0.1	3905.
28811	8.2016	2.2727	0.1	3938.7
28812	8.2927	2.1818	0.1	3916.2
28813	8.2016	2.4545	0.1	3945.7
28814	8.2927	2.3636	0.1	3925.6
28815	8.2016	2.6364	0.1	3950.8
28816	8.2927	2.5455	0.1	3932.8
28817	8.2016	2.8182	0.1	3954.
28818	8.2927	2.7273	0.1	3937.8
28819	8.2016	3.	0.1	3955.
28820	8.2927	2.9091	0.1	3940.2
28821	8.2016	3.1818	0.1	3954.
28822	8.2927	3.0909	0.1	3940.2
28823	8.2016	3.3636	0.1	3950.8
28824	8.2927	3.2727	0.1	3937.8
28825	8.2016	3.5455	0.1	3945.7
28826	8.2927	3.4545	0.1	3932.8
28827	8.2016	3.7273	0.1	3938.7
28828	8.2927	3.6364	0.1	3925.6
28829	8.2016	3.9091	0.1	3930.
28830	8.2927	3.8182	0.1	3916.2
28831	8.2016	4.0909	0.1	3919.8
28832	8.2927	4.	0.1	3905.
28833	8.2016	4.2727	0.1	3908.4
28834	8.2927	4.1818	0.1	3892.2
28835	8.2016	4.4545	0.1	3896.
28836	8.2927	4.3636	0.1	3878.1
28837	8.2016	4.6364	0.1	3883.1
28838	8.2927	4.5455	0.1	3863.1
28839	8.2016	4.8182	0.1	3869.9
28840	8.2927	4.7273	0.1	3847.7
28841	8.2016	5.	0.1	3857.
28842	8.2927	4.9091	0.1	3832.3
28843	8.2016	5.1818	0.1	3844.6
28844	8.2927	5.0909	0.1	3817.3
28845	8.2016	5.3636	0.1	3833.2
28846	8.2927	5.2727	0.1	3803.4
28847	8.2016	5.5455	0.1	3823.3
28848	8.2927	5.4545	0.1	3790.9
28849	8.2016	5.7273	0.1	3815.4
28850	8.2927	5.6364	0.1	3780.3
28851	8.2927	5.8182	0.1	3772.1
28852	8.2016	5.9091	0.1	3809.4
28853	8.3839	0.27273	0.1	3737.
28854	8.475	0.18182	0.1	3689.5
28855	8.3839	9.0909e-002	0.1	3729.2
28856	8.3839	0.45455	0.1	3747.8
28857	8.475	0.36364	0.1	3700.4
28858	8.3839	0.63636	0.1	3761.
28859	8.475	0.54545	0.1	3714.4
28860	8.3839	0.81818	0.1	3776.2
28861	8.475	0.72727	0.1	3730.8
28862	8.3839	1.	0.1	3792.7
28863	8.475	0.90909	0.1	3749.2
28864	8.3839	1.1818	0.1	3810.
28865	8.475	1.0909	0.1	3768.9
28866	8.3839	1.3636	0.1	3827.7
28867	8.475	1.2727	0.1	3789.4
28868	8.3839	1.5455	0.1	3845.1
28869	8.475	1.4545	0.1	3809.9
28870	8.3839	1.7273	0.1	3861.8
28871	8.475	1.6364	0.1	3829.9
28872	8.3839	1.9091	0.1	3877.3
28873	8.475	1.8182	0.1	3848.8
28874	8.3839	2.0909	0.1	3891.2
28875	8.475	2.	0.1	3866.1
28876	8.3839	2.2727	0.1	3903.1
28877	8.475	2.1818	0.1	3881.3
28878	8.3839	2.4545	0.1	3912.7
28879	8.475	2.3636	0.1	3894.
28880	8.3839	2.6364	0.1	3919.7
28881	8.475	2.5455	0.1	3903.8
28882	8.3839	2.8182	0.1	3924.
28883	8.475	2.7273	0.1	3910.5
28884	8.3839	3.	0.1	3925.5
28885	8.475	2.9091	0.1	3913.9
28886	8.3839	3.1818	0.1	3924.
28887	8.475	3.0909	0.1	3913.9
28888	8.3839	3.3636	0.1	3919.7
28889	8.475	3.2727	0.1	3910.5
28890	8.3839	3.5455	0.1	3912.7
28891	8.475	3.4545	0.1	3903.8
28892	8.3839	3.7273	0.1	3903.1
28893	8.475	3.6364	0.1	3894.
28894	8.3839	3.9091	0.1	3891.2
28895	8.475	3.8182	0.1	3881.3
28896	8.3839	4.0909	0.1	3877.3
28897	8.475	4.	0.1	3866.1
28898	8.3839	4.2727	0.1	3861.8
28899	8.475	4.1818	0.1	3848.8
28900	8.3839	4.4545	0.1	3845.1
28901	8.475	4.3636	0.1	3829.9
28902	8.3839	4.6364	0.1	3827.7
28903	8.475	4.5455	0.1	3809.9
28904	8.3839	4.8182	0.1	3810.
28905	8.475	4.7273	0.1	3789.4
28906	8.3839	5.	0.1	3792.7
28907	8.475	4.9091	0.1	3768.9
28908	8.3839	5.1818	0.1	3776.2
28909	8.475	5.0909	0.1	3749.2
28910	8.3839	5.3636	0.1	3761.
28911	8.475	5.2727	0.1	3730.8
28912	8.3839	5.5455	0.1	3747.8
28913	8.475	5.4545	0.1	3714.4
28914	8.3839	5.7273	0.1	3737.
28915	8.475	5.6364	0.1	3700.4
28916	8.475	5.8182	0.1	3689.5
28917	8.3839	5.9091	0.1	3729.2
28918	8.5661	0.27273	0.1	3652.8
28919	8.6573	0.18182	0.1	3600.
28920	8.5661	9.0909e-002	0.1	3642.7
28921	8.5661	0.45455	0.1	3666.9
28922	8.6573	0.36364	0.1	3614.2
28923	8.5661	0.63636	0.1	3684.2
28924	8.6573	0.54545	0.1	3632.1
28925	8.5661	0.81818	0.1	3703.9
28926	8.6573	0.72727	0.1	3653.4
28927	8.5661	1.	0.1	3725.5
28928	8.6573	0.90909	0.1	3677.2
28929	8.5661	1.1818	0.1	3748.3
28930	8.6573	1.0909	0.1	3702.9
28931	8.5661	1.3636	0.1	3771.6
28932	8.6573	1.2727	0.1	3729.6
28933	8.5661	1.5455	0.1	3794.7
28934	8.6573	1.4545	0.1	3756.6
28935	8.5661	1.7273	0.1	3817.
28936	8.6573	1.6364	0.1	3783.
28937	8.5661	1.9091	0.1	3837.6
28938	8.6573	1.8182	0.1	3808.
28939	8.5661	2.0909	0.1	3856.2
28940	8.6573	2.	0.1	3831.
28941	8.5661	2.2727	0.1	3872.2
28942	8.6573	2.1818	0.1	3851.3
28943	8.5661	2.4545	0.1	3885.1
28944	8.6573	2.3636	0.1	3868.2
28945	8.5661	2.6364	0.1	3894.6
28946	8.6573	2.5455	0.1	3881.4
28947	8.5661	2.8182	0.1	3900.4
28948	8.6573	2.7273	0.1	3890.4
28949	8.5661	3.	0.1	3902.4
28950	8.6573	2.9091	0.1	3895.
28951	8.5661	3.1818	0.1	3900.4
28952	8.6573	3.0909	0.1	3895.
28953	8.5661	3.3636	0.1	3894.6
28954	8.6573	3.2727	0.1	3890.4
28955	8.5661	3.5455	0.1	3885.1
28956	8.6573	3.4545	0.1	3881.4
28957	8.5661	3.7273	0.1	3872.2
28958	8.6573	3.6364	0.1	3868.2
28959	8.5661	3.9091	0.1	3856.2
28960	8.6573	3.8182	0.1	3851.3
28961	8.5661	4.0909	0.1	3837.6
28962	8.6573	4.	0.1	3831.
28963	8.5661	4.2727	0.1	3817.
28964	8.6573	4.1818	0.1	3808.
28965	8.5661	4.4545	0.1	3794.7
28966	8.6573	4.3636	0.1	3783.
28967	8.5661	4.6364	0.1	3771.6
28968	8.6573	4.5455	0.1	3756.6
28969	8.5661	4.8182	0.1	3748.3
28970	8.6573	4.7273	0.1	3729.6
28971	8.5661	5.	0.1	3725.5
28972	8.6573	4.9091	0.1	3702.9
28973	8.5661	5.1818	0.1	3703.9
28974	8.6573	5.0909	0.1	3677.2
28975	8.5661	5.3636	0.1	3684.2
28976	8.6573	5.2727	0.1	3653.4
28977	8.5661	5.5455	0.1	3666.9
28978	8.6573	5.4545	0.1	3632.1
28979	8.5661	5.7273	0.1	3652.8
28980	8.6573	5.6364	0.1	3614.2
28981	8.6573	5.8182	0.1	3600.
28982	8.5661	5.9091	0.1	3642.7
28983	8.7484	0.27273	0.1	3561.3
28984	8.8395	0.18182	0.1	3501.9
28985	8.7484	9.0909e-002	0.1	3548.6
28986	8.7484	0.45455	0.1	3579.4
28987	8.8395	0.36364	0.1	3520.
28988	8.7484	0.63636	0.1	3601.4
28989	8.8395	0.54545	0.1	3542.7
28990	8.7484	0.81818	0.1	3626.7
28991	8.8395	0.72727	0.1	3569.7
28992	8.7484	1.	0.1	3654.6
28993	8.8395	0.90909	0.1	3600.2
28994	8.7484	1.1818	0.1	3684.2
28995	8.8395	1.0909	0.1	3633.3
28996	8.7484	1.3636	0.1	3714.6
28997	8.8395	1.2727	0.1	3667.9
28998	8.7484	1.5455	0.1	3744.9
28999	8.8395	1.4545	0.1	3703.
29000	8.7484	1.7273	0.1	3774.1
29001	8.8395	1.6364	0.1	3737.5
29002	8.7484	1.9091	0.1	3801.4
29003	8.8395	1.8182	0.1	3770.4
29004	8.7484	2.0909	0.1	3826.1
29005	8.8395	2.	0.1	3800.6
29006	8.7484	2.2727	0.1	3847.3
29007	8.8395	2.1818	0.1	3827.4
29008	8.7484	2.4545	0.1	3864.5
29009	8.8395	2.3636	0.1	3849.9
29010	8.7484	2.6364	0.1	3877.2
29011	8.8395	2.5455	0.1	3867.4
29012	8.7484	2.8182	0.1	3885.
29013	8.8395	2.7273	0.1	3879.4
29014	8.7484	3.	0.1	3887.6
29015	8.8395	2.9091	0.1	3885.5
29016	8.7484	3.1818	0.1	3885.
29017	8.8395	3.0909	0.1	3885.5
29018	8.7484	3.3636	0.1	3877.2
29019	8.8395	3.2727	0.1	3879.4
29020	8.7484	3.5455	0.1	3864.5
29021	8.8395	3.4545	0.1	3867.4
29022	8.7484	3.7273	0.1	3847.3
29023	8.8395	3.6364	0.1	3849.9
29024	8.7484	3.9091	0.1	3826.1
29025	8.8395	3.8182	0.1	3827.4
29026	8.7484	4.0909	0.1	3801.4
29027	8.8395	4.	0.1	3800.6
29028	8.7484	4.2727	0.1	3774.1
29029	8.8395	4.1818	0.1	3770.4
29030	8.7484	4.4545	0.1	3744.9
29031	8.8395	4.3636	0.1	3737.5
29032	8.7484	4.6364	0.1	3714.6
29033	8.8395	4.5455	0.1	3703.
29034	8.7484	4.8182	0.1	3684.2
29035	8.8395	4.7273	0.1	3667.9
29036	8.7484	5.	0.1	3654.6
29037	8.8395	4.9091	0.1	3633.3
29038	8.7484	5.1818	0.1	3626.7
29039	8.8395	5.0909	0.1	3600.2
29040	8.7484	5.3636	0.1	3601.4
29041	8.8395	5.2727	0.1	3569.7
29042	8.7484	5.5455	0.1	3579.4
29043	8.8395	5.4545	0.1	3542.7
29044	8.7484	5.7273	0.1	3561.3
29045	8.8395	5.6364	0.1	3520.
29046	8.8395	5.8182	0.1	3501.9
29047	8.7484	5.9091	0.1	3548.6
29048	8.9306	0.27273	0.1	3460.6
29049	9.0218	0.18182	0.1	3393.4
29050	8.9306	9.0909e-002	0.1	3444.9
29051	8.9306	0.45455	0.1	3483.3
29052	9.0218	0.36364	0.1	3415.8
29053	8.9306	0.63636	0.1	3511.1
29054	9.0218	0.54545	0.1	3444.2
29055	8.9306	0.81818	0.1	3543.3
29056	9.0218	0.72727	0.1	3478.2
29057	8.9306	1.	0.1	3578.9
29058	9.0218	0.90909	0.1	3516.9
29059	8.9306	1.1818	0.1	3617.
29060	9.0218	1.0909	0.1	3559.1
29061	8.9306	1.3636	0.1	3656.3
29062	9.0218	1.2727	0.1	3603.6
29063	8.9306	1.5455	0.1	3695.7
29064	9.0218	1.4545	0.1	3649.
29065	8.9306	1.7273	0.1	3733.8
29066	9.0218	1.6364	0.1	3693.8
29067	8.9306	1.9091	0.1	3769.6
29068	9.0218	1.8182	0.1	3736.6
29069	8.9306	2.0909	0.1	3802.
29070	9.0218	2.	0.1	3776.2
29071	8.9306	2.2727	0.1	3830.
29072	9.0218	2.1818	0.1	3811.3
29073	8.9306	2.4545	0.1	3852.8
29074	9.0218	2.3636	0.1	3841.
29075	8.9306	2.6364	0.1	3869.6
29076	9.0218	2.5455	0.1	3864.1
29077	8.9306	2.8182	0.1	3880.
29078	9.0218	2.7273	0.1	3880.1
29079	8.9306	3.	0.1	3883.5
29080	9.0218	2.9091	0.1	3888.2
29081	8.9306	3.1818	0.1	3880.
29082	9.0218	3.0909	0.1	3888.2
29083	8.9306	3.3636	0.1	3869.6
29084	9.0218	3.2727	0.1	3880.1
29085	8.9306	3.5455	0.1	3852.8
29086	9.0218	3.4545	0.1	3864.1
29087	8.9306	3.7273	0.1	3830.
29088	9.0218	3.6364	0.1	3841.
29089	8.9306	3.9091	0.1	3802.
29090	9.0218	3.8182	0.1	3811.3
29091	8.9306	4.0909	0.1	3769.6
29092	9.0218	4.	0.1	3776.2
29093	8.9306	4.2727	0.1	3733.8
29094	9.0218	4.1818	0.1	3736.6
29095	8.9306	4.4545	0.1	3695.7
29096	9.0218	4.3636	0.1	3693.8
29097	8.9306	4.6364	0.1	3656.3
29098	9.0218	4.5455	0.1	3649.
29099	8.9306	4.8182	0.1	3617.
29100	9.0218	4.7273	0.1	3603.6
29101	8.9306	5.	0.1	3578.9
29102	9.0218	4.9091	0.1	3559.1
29103	8.9306	5.1818	0.1	3543.3
29104	9.0218	5.0909	0.1	3516.9
29105	8.9306	5.3636	0.1	3511.1
29106	9.0218	5.2727	0.1	3478.2
29107	8.9306	5.5455	0.1	3483.3
29108	9.0218	5.4545	0.1	3444.2
29109	8.9306	5.7273	0.1	3460.6
29110	9.0218	5.6364	0.1	3415.8
29111	9.0218	5.8182	0.1	3393.4
29112	8.9306	5.9091	0.1	3444.9
29113	9.1129	0.27273	0.1	3348.6
29114	9.204	0.18182	0.1	3272.
29115	9.1129	9.0909e-002	0.1	3329.4
29116	9.1129	0.45455	0.1	3376.8
29117	9.204	0.36364	0.1	3299.5
29118	9.1129	0.63636	0.1	3411.5
29119	9.204	0.54545	0.1	3334.6
29120	9.1129	0.81818	0.1	3452.
29121	9.204	0.72727	0.1	3377.
29122	9.1129	1.	0.1	3497.2
29123	9.204	0.90909	0.1	3425.7
29124	9.1129	1.1818	0.1	3545.9
29125	9.204	1.0909	0.1	3479.3
29126	9.1129	1.3636	0.1	3596.4
29127	9.204	1.2727	0.1	3536.2
29128	9.1129	1.5455	0.1	3647.2
29129	9.204	1.4545	0.1	3594.5
29130	9.1129	1.7273	0.1	3696.7
29131	9.204	1.6364	0.1	3652.3
29132	9.1129	1.9091	0.1	3743.3
29133	9.204	1.8182	0.1	3707.9
29134	9.1129	2.0909	0.1	3785.6
29135	9.204	2.	0.1	3759.4
29136	9.1129	2.2727	0.1	3822.3
29137	9.204	2.1818	0.1	3805.3
29138	9.1129	2.4545	0.1	3852.3
29139	9.204	2.3636	0.1	3844.1
29140	9.1129	2.6364	0.1	3874.6
29141	9.204	2.5455	0.1	3874.6
29142	9.1129	2.8182	0.1	3888.3
29143	9.204	2.7273	0.1	3895.6
29144	9.1129	3.	0.1	3892.9
29145	9.204	2.9091	0.1	3906.4
29146	9.1129	3.1818	0.1	3888.3
29147	9.204	3.0909	0.1	3906.4
29148	9.1129	3.3636	0.1	3874.6
29149	9.204	3.2727	0.1	3895.6
29150	9.1129	3.5455	0.1	3852.3
29151	9.204	3.4545	0.1	3874.6
29152	9.1129	3.7273	0.1	3822.3
29153	9.204	3.6364	0.1	3844.1
29154	9.1129	3.9091	0.1	3785.6
29155	9.204	3.8182	0.1	3805.3
29156	9.1129	4.0909	0.1	3743.3
29157	9.204	4.	0.1	3759.4
29158	9.1129	4.2727	0.1	3696.7
29159	9.204	4.1818	0.1	3707.9
29160	9.1129	4.4545	0.1	3647.2
29161	9.204	4.3636	0.1	3652.3
29162	9.1129	4.6364	0.1	3596.4
29163	9.204	4.5455	0.1	3594.5
29164	9.1129	4.8182	0.1	3545.9
29165	9.204	4.7273	0.1	3536.2
29166	9.1129	5.	0.1	3497.2
29167	9.204	4.9091	0.1	3479.3
29168	9.1129	5.1818	0.1	3452.
29169	9.204	5.0909	0.1	3425.7
29170	9.1129	5.3636	0.1	3411.5
29171	9.204	5.2727	0.1	3377.
29172	9.1129	5.5455	0.1	3376.8
29173	9.204	5.4545	0.1	3334.6
29174	9.1129	5.7273	0.1	3348.6
29175	9.204	5.6364	0.1	3299.5
29176	9.204	5.8182	0.1	3272.
29177	9.1129	5.9091	0.1	3329.4
29178	9.2952	0.27273	0.1	3222.9
29179	9.3863	0.18182	0.1	3135.
29180	9.2952	9.0909e-002	0.1	3199.4
29181	9.2952	0.45455	0.1	3257.3
29182	9.3863	0.36364	0.1	3168.2
29183	9.2952	0.63636	0.1	3300.2
29184	9.3863	0.54545	0.1	3211.1
29185	9.2952	0.81818	0.1	3350.9
29186	9.3863	0.72727	0.1	3263.6
29187	9.2952	1.	0.1	3407.9
29188	9.3863	0.90909	0.1	3324.5
29189	9.2952	1.1818	0.1	3469.8
29190	9.3863	1.0909	0.1	3392.2
29191	9.2952	1.3636	0.1	3534.4
29192	9.3863	1.2727	0.1	3464.6
29193	9.2952	1.5455	0.1	3599.8
29194	9.3863	1.4545	0.1	3539.3
29195	9.2952	1.7273	0.1	3663.7
29196	9.3863	1.6364	0.1	3613.7
29197	9.2952	1.9091	0.1	3724.1
29198	9.3863	1.8182	0.1	3685.5
29199	9.2952	2.0909	0.1	3779.1
29200	9.3863	2.	0.1	3752.3
29201	9.2952	2.2727	0.1	3827.1
29202	9.3863	2.1818	0.1	3812.1
29203	9.2952	2.4545	0.1	3866.4
29204	9.3863	2.3636	0.1	3862.8
29205	9.2952	2.6364	0.1	3895.7
29206	9.3863	2.5455	0.1	3902.8
29207	9.2952	2.8182	0.1	3913.7
29208	9.3863	2.7273	0.1	3930.4
29209	9.2952	3.	0.1	3919.8
29210	9.3863	2.9091	0.1	3944.5
29211	9.2952	3.1818	0.1	3913.7
29212	9.3863	3.0909	0.1	3944.5
29213	9.2952	3.3636	0.1	3895.7
29214	9.3863	3.2727	0.1	3930.4
29215	9.2952	3.5455	0.1	3866.4
29216	9.3863	3.4545	0.1	3902.8
29217	9.2952	3.7273	0.1	3827.1
29218	9.3863	3.6364	0.1	3862.8
29219	9.2952	3.9091	0.1	3779.1
29220	9.3863	3.8182	0.1	3812.1
29221	9.2952	4.0909	0.1	3724.1
29222	9.3863	4.	0.1	3752.3
29223	9.2952	4.2727	0.1	3663.7
29224	9.3863	4.1818	0.1	3685.5
29225	9.2952	4.4545	0.1	3599.8
29226	9.3863	4.3636	0.1	3613.7
29227	9.2952	4.6364	0.1	3534.4
29228	9.3863	4.5455	0.1	3539.3
29229	9.2952	4.8182	0.1	3469.8
29230	9.3863	4.7273	0.1	3464.6
29231	9.2952	5.	0.1	3407.9
29232	9.3863	4.9091	0.1	3392.2
29233	9.2952	5.1818	0.1	3350.9
29234	9.3863	5.0909	0.1	3324.5
29235	9.2952	5.3636	0.1	3300.2
29236	9.3863	5.2727	0.1	3263.6
29237	9.2952	5.5455	0.1	3257.3
29238	9.3863	5.4545	0.1	3211.1
29239	9.2952	5.7273	0.1	3222.9
29240	9.3863	5.6364	0.1	3168.2
29241	9.3863	5.8182	0.1	3135.
29242	9.2952	5.9091	0.1	3199.4
29243	9.4774	0.27273	0.1	3080.3
29244	9.5685	0.18182	0.1	2979.2
29245	9.4774	9.0909e-002	0.1	3052.
29246	9.4774	0.45455	0.1	3122.1
29247	9.5685	0.36364	0.1	3018.7
29248	9.4774	0.63636	0.1	3174.7
29249	9.5685	0.54545	0.1	3070.7
29250	9.4774	0.81818	0.1	3237.5
29251	9.5685	0.72727	0.1	3135.2
29252	9.4774	1.	0.1	3309.1
29253	9.5685	0.90909	0.1	3210.9
29254	9.4774	1.1818	0.1	3387.4
29255	9.5685	1.0909	0.1	3296.
29256	9.4774	1.3636	0.1	3469.8
29257	9.5685	1.2727	0.1	3387.8
29258	9.4774	1.5455	0.1	3553.6
29259	9.5685	1.4545	0.1	3483.3
29260	9.4774	1.7273	0.1	3635.9
29261	9.5685	1.6364	0.1	3578.9
29262	9.4774	1.9091	0.1	3714.
29263	9.5685	1.8182	0.1	3671.5
29264	9.4774	2.0909	0.1	3785.4
29265	9.5685	2.	0.1	3757.9
29266	9.4774	2.2727	0.1	3847.8
29267	9.5685	2.1818	0.1	3835.5
29268	9.4774	2.4545	0.1	3899.2
29269	9.5685	2.3636	0.1	3901.5
29270	9.4774	2.6364	0.1	3937.5
29271	9.5685	2.5455	0.1	3953.7
29272	9.4774	2.8182	0.1	3961.1
29273	9.5685	2.7273	0.1	3989.8
29274	9.4774	3.	0.1	3969.2
29275	9.5685	2.9091	0.1	4008.3
29276	9.4774	3.1818	0.1	3961.1
29277	9.5685	3.0909	0.1	4008.3
29278	9.4774	3.3636	0.1	3937.5
29279	9.5685	3.2727	0.1	3989.8
29280	9.4774	3.5455	0.1	3899.2
29281	9.5685	3.4545	0.1	3953.7
29282	9.4774	3.7273	0.1	3847.8
29283	9.5685	3.6364	0.1	3901.5
29284	9.4774	3.9091	0.1	3785.4
29285	9.5685	3.8182	0.1	3835.5
29286	9.4774	4.0909	0.1	3714.
29287	9.5685	4.	0.1	3757.9
29288	9.4774	4.2727	0.1	3635.9
29289	9.5685	4.1818	0.1	3671.5
29290	9.4774	4.4545	0.1	3553.6
29291	9.5685	4.3636	0.1	3578.9
29292	9.4774	4.6364	0.1	3469.8
29293	9.5685	4.5455	0.1	3483.3
29294	9.4774	4.8182	0.1	3387.4
29295	9.5685	4.7273	0.1	3387.8
29296	9.4774	5.	0.1	3309.1
29297	9.5685	4.9091	0.1	3296.
29298	9.4774	5.1818	0.1	3237.5
29299	9.5685	5.0909	0.1	3210.9
29300	9.4774	5.3636	0.1	3174.7
29301	9.5685	5.2727	0.1	3135.2
29302	9.4774	5.5455	0.1	3122.1
29303	9.5685	5.4545	0.1	3070.7
29304	9.4774	5.7273	0.1	3080.3
29305	9.5685	5.6364	0.1	3018.7
29306	9.5685	5.8182	0.1	2979.2
29307	9.4774	5.9091	0.1	3052.
29308	9.6597	0.27273	0.1	2917.7
29309	9.7508	0.18182	0.1	2801.4
29310	9.6597	9.0909e-002	0.1	2883.8
29311	9.6597	0.45455	0.1	2967.6
29312	9.7508	0.36364	0.1	2847.6
29313	9.6597	0.63636	0.1	3031.6
29314	9.7508	0.54545	0.1	2910.
29315	9.6597	0.81818	0.1	3109.2
29316	9.7508	0.72727	0.1	2988.5
29317	9.6597	1.	0.1	3198.5
29318	9.7508	0.90909	0.1	3082.2
29319	9.6597	1.1818	0.1	3297.2
29320	9.7508	1.0909	0.1	3188.7
29321	9.6597	1.3636	0.1	3402.
29322	9.7508	1.2727	0.1	3304.8
29323	9.6597	1.5455	0.1	3509.2
29324	9.7508	1.4545	0.1	3426.5
29325	9.6597	1.7273	0.1	3615.
29326	9.7508	1.6364	0.1	3549.3
29327	9.6597	1.9091	0.1	3715.8
29328	9.7508	1.8182	0.1	3668.5
29329	9.6597	2.0909	0.1	3808.2
29330	9.7508	2.	0.1	3780.3
29331	9.6597	2.2727	0.1	3889.3
29332	9.7508	2.1818	0.1	3880.7
29333	9.6597	2.4545	0.1	3956.
29334	9.7508	2.3636	0.1	3966.3
29335	9.6597	2.6364	0.1	4005.9
29336	9.7508	2.5455	0.1	4034.
29337	9.6597	2.8182	0.1	4036.8
29338	9.7508	2.7273	0.1	4081.
29339	9.6597	3.	0.1	4047.3
29340	9.7508	2.9091	0.1	4105.
29341	9.6597	3.1818	0.1	4036.8
29342	9.7508	3.0909	0.1	4105.
29343	9.6597	3.3636	0.1	4005.9
29344	9.7508	3.2727	0.1	4081.
29345	9.6597	3.5455	0.1	3956.
29346	9.7508	3.4545	0.1	4034.
29347	9.6597	3.7273	0.1	3889.3
29348	9.7508	3.6364	0.1	3966.3
29349	9.6597	3.9091	0.1	3808.2
29350	9.7508	3.8182	0.1	3880.7
29351	9.6597	4.0909	0.1	3715.8
29352	9.7508	4.	0.1	3780.3
29353	9.6597	4.2727	0.1	3615.
29354	9.7508	4.1818	0.1	3668.5
29355	9.6597	4.4545	0.1	3509.2
29356	9.7508	4.3636	0.1	3549.3
29357	9.6597	4.6364	0.1	3402.
29358	9.7508	4.5455	0.1	3426.5
29359	9.6597	4.8182	0.1	3297.2
29360	9.7508	4.7273	0.1	3304.8
29361	9.6597	5.	0.1	3198.5
29362	9.7508	4.9091	0.1	3188.7
29363	9.6597	5.1818	0.1	3109.2
29364	9.7508	5.0909	0.1	3082.2
29365	9.6597	5.3636	0.1	3031.6
29366	9.7508	5.2727	0.1	2988.5
29367	9.6597	5.5455	0.1	2967.6
29368	9.7508	5.4545	0.1	2910.
29369	9.6597	5.7273	0.1	2917.7
29370	9.7508	5.6364	0.1	2847.6
29371	9.7508	5.8182	0.1	2801.4
29372	9.6597	5.9091	0.1	2883.8
29373	9.8419	0.27273	0.1	2731.5
29374	9.9331	0.18182	0.1	2598.
29375	9.8419	9.0909e-002	0.1	2691.2
29376	9.8419	0.45455	0.1	2790.4
29377	9.9331	0.36364	0.1	2651.3
29378	9.8419	0.63636	0.1	2867.6
29379	9.9331	0.54545	0.1	2725.2
29380	9.8419	0.81818	0.1	2962.6
29381	9.9331	0.72727	0.1	2820.2
29382	9.8419	1.	0.1	3073.6
29383	9.9331	0.90909	0.1	2935.1
29384	9.8419	1.1818	0.1	3197.6
29385	9.9331	1.0909	0.1	3067.7
29386	9.8419	1.3636	0.1	3330.5
29387	9.9331	1.2727	0.1	3214.1
29388	9.8419	1.5455	0.1	3467.6
29389	9.9331	1.4545	0.1	3369.2
29390	9.8419	1.7273	0.1	3603.6
29391	9.9331	1.6364	0.1	3526.8
29392	9.8419	1.9091	0.1	3733.6
29393	9.9331	1.8182	0.1	3680.7
29394	9.8419	2.0909	0.1	3853.1
29395	9.9331	2.	0.1	3825.1
29396	9.8419	2.2727	0.1	3957.9
29397	9.9331	2.1818	0.1	3955.
29398	9.8419	2.4545	0.1	4044.3
29399	9.9331	2.3636	0.1	4065.6
29400	9.8419	2.6364	0.1	4108.9
29401	9.9331	2.5455	0.1	4152.8
29402	9.8419	2.8182	0.1	4148.9
29403	9.9331	2.7273	0.1	4213.
29404	9.8419	3.	0.1	4162.4
29405	9.9331	2.9091	0.1	4243.7
29406	9.8419	3.1818	0.1	4148.9
29407	9.9331	3.0909	0.1	4243.7
29408	9.8419	3.3636	0.1	4108.9
29409	9.9331	3.2727	0.1	4213.
29410	9.8419	3.5455	0.1	4044.3
29411	9.9331	3.4545	0.1	4152.8
29412	9.8419	3.7273	0.1	3957.9
29413	9.9331	3.6364	0.1	4065.6
29414	9.8419	3.9091	0.1	3853.1
29415	9.9331	3.8182	0.1	3955.
29416	9.8419	4.0909	0.1	3733.6
29417	9.9331	4.	0.1	3825.1
29418	9.8419	4.2727	0.1	3603.6
29419	9.9331	4.1818	0.1	3680.7
29420	9.8419	4.4545	0.1	3467.6
29421	9.9331	4.3636	0.1	3526.8
29422	9.8419	4.6364	0.1	3330.5
29423	9.9331	4.5455	0.1	3369.2
29424	9.8419	4.8182	0.1	3197.6
29425	9.9331	4.7273	0.1	3214.1
29426	9.8419	5.	0.1	3073.5
29427	9.9331	4.9091	0.1	3067.7
29428	9.8419	5.1818	0.1	2962.6
29429	9.9331	5.0909	0.1	2935.1
29430	9.8419	5.3636	0.1	2867.6
29431	9.9331	5.2727	0.1	2820.2
29432	9.8419	5.5455	0.1	2790.4
29433	9.9331	5.4545	0.1	2725.2
29434	9.8419	5.7273	0.1	2731.5
29435	9.9331	5.6364	0.1	2651.3
29436	9.9331	5.8182	0.1	2598.
29437	9.8419	5.9091	0.1	2691.2
29438	10.024	0.27273	0.1	2518.1
29439	10.115	0.18182	0.1	2365.7
29440	10.024	9.0909e-002	0.1	2470.5
29441	10.024	0.45455	0.1	2586.8
29442	10.115	0.36364	0.1	2426.2
29443	10.024	0.63636	0.1	2679.
29444	10.115	0.54545	0.1	2512.8
29445	10.024	0.81818	0.1	2794.4
29446	10.115	0.72727	0.1	2626.5
29447	10.024	1.	0.1	2931.3
29448	10.115	0.90909	0.1	2766.5
29449	10.024	1.1818	0.1	3086.5
29450	10.115	1.0909	0.1	2930.4
29451	10.024	1.3636	0.1	3254.8
29452	10.115	1.2727	0.1	3114.3
29453	10.024	1.5455	0.1	3430.1
29454	10.115	1.4545	0.1	3311.7
29455	10.024	1.7273	0.1	3605.3
29456	10.115	1.6364	0.1	3514.7
29457	10.024	1.9091	0.1	3773.2
29458	10.115	1.8182	0.1	3714.1
29459	10.024	2.0909	0.1	3927.7
29460	10.115	2.	0.1	3901.5
29461	10.024	2.2727	0.1	4063.
29462	10.115	2.1818	0.1	4069.4
29463	10.024	2.4545	0.1	4174.1
29464	10.115	2.3636	0.1	4211.5
29465	10.024	2.6364	0.1	4256.6
29466	10.115	2.5455	0.1	4322.1
29467	10.024	2.8182	0.1	4307.4
29468	10.115	2.7273	0.1	4397.4
29469	10.024	3.	0.1	4324.5
29470	10.115	2.9091	0.1	4435.4
29471	10.024	3.1818	0.1	4307.4
29472	10.115	3.0909	0.1	4435.4
29473	10.024	3.3636	0.1	4256.6
29474	10.115	3.2727	0.1	4397.4
29475	10.024	3.5455	0.1	4174.1
29476	10.115	3.4545	0.1	4322.1
29477	10.024	3.7273	0.1	4063.
29478	10.115	3.6364	0.1	4211.5
29479	10.024	3.9091	0.1	3927.7
29480	10.115	3.8182	0.1	4069.4
29481	10.024	4.0909	0.1	3773.2
29482	10.115	4.	0.1	3901.5
29483	10.024	4.2727	0.1	3605.3
29484	10.115	4.1818	0.1	3714.1
29485	10.024	4.4545	0.1	3430.1
29486	10.115	4.3636	0.1	3514.7
29487	10.024	4.6364	0.1	3254.8
29488	10.115	4.5455	0.1	3311.7
29489	10.024	4.8182	0.1	3086.5
29490	10.115	4.7273	0.1	3114.3
29491	10.024	5.	0.1	2931.3
29492	10.115	4.9091	0.1	2930.4
29493	10.024	5.1818	0.1	2794.4
29494	10.115	5.0909	0.1	2766.5
29495	10.024	5.3636	0.1	2679.
29496	10.115	5.2727	0.1	2626.5
29497	10.024	5.5455	0.1	2586.8
29498	10.115	5.4545	0.1	2512.8
29499	10.024	5.7273	0.1	2518.1
29500	10.115	5.6364	0.1	2426.2
29501	10.115	5.8182	0.1	2365.7
29502	10.024	5.9091	0.1	2470.5
29503	10.206	0.27273	0.1	2274.3
29504	10.298	0.18182	0.1	2102.
29505	10.206	9.0909e-002	0.1	2218.6
29506	10.206	0.45455	0.1	2353.3
29507	10.298	0.36364	0.1	2169.4
29508	10.206	0.63636	0.1	2462.4
29509	10.298	0.54545	0.1	2270.3
29510	10.206	0.81818	0.1	2601.4
29511	10.298	0.72727	0.1	2405.1
29512	10.206	1.	0.1	2769.
29513	10.298	0.90909	0.1	2573.6
29514	10.206	1.1818	0.1	2961.9
29515	10.298	1.0909	0.1	2774.2
29516	10.206	1.3636	0.1	3174.6
29517	10.298	1.2727	0.1	3003.3
29518	10.206	1.5455	0.1	3399.1
29519	10.298	1.4545	0.1	3254.6
29520	10.206	1.7273	0.1	3625.6
29521	10.298	1.6364	0.1	3517.4
29522	10.206	1.9091	0.1	3843.8
29523	10.298	1.8182	0.1	3778.3
29524	10.206	2.0909	0.1	4044.1
29525	10.298	2.	0.1	4023.5
29526	10.206	2.2727	0.1	4218.2
29527	10.298	2.1818	0.1	4241.4
29528	10.206	2.4545	0.1	4359.3
29529	10.298	2.3636	0.1	4422.
29530	10.206	2.6364	0.1	4462.3
29531	10.298	2.5455	0.1	4558.4
29532	10.206	2.8182	0.1	4524.6
29533	10.298	2.7273	0.1	4648.
29534	10.206	3.	0.1	4545.3
29535	10.298	2.9091	0.1	4692.
29536	10.206	3.1818	0.1	4524.6
29537	10.298	3.0909	0.1	4692.
29538	10.206	3.3636	0.1	4462.3
29539	10.298	3.2727	0.1	4648.
29540	10.206	3.5455	0.1	4359.3
29541	10.298	3.4545	0.1	4558.4
29542	10.206	3.7273	0.1	4218.2
29543	10.298	3.6364	0.1	4422.
29544	10.206	3.9091	0.1	4044.1
29545	10.298	3.8182	0.1	4241.4
29546	10.206	4.0909	0.1	3843.8
29547	10.298	4.	0.1	4023.5
29548	10.206	4.2727	0.1	3625.6
29549	10.298	4.1818	0.1	3778.3
29550	10.206	4.4545	0.1	3399.1
29551	10.298	4.3636	0.1	3517.4
29552	10.206	4.6364	0.1	3174.6
29553	10.298	4.5455	0.1	3254.6
29554	10.206	4.8182	0.1	2961.9
29555	10.298	4.7273	0.1	3003.3
29556	10.206	5.	0.1	2769.
29557	10.298	4.9091	0.1	2774.2
29558	10.206	5.1818	0.1	2601.4
29559	10.298	5.0909	0.1	2573.6
29560	10.206	5.3636	0.1	2462.4
29561	10.298	5.2727	0.1	2405.1
29562	10.206	5.5455	0.1	2353.3
29563	10.298	5.4545	0.1	2270.3
29564	10.206	5.7273	0.1	2274.3
29565	10.298	5.6364	0.1	2169.4
29566	10.298	5.8182	0.1	2102.
29567	10.206	5.9091	0.1	2218.6
29568	10.389	0.27273	0.1	1998.
29569	10.48	0.18182	0.1	1805.5
29570	10.389	9.0909e-002	0.1	1933.2
29571	10.389	0.45455	0.1	2088.1
29572	10.48	0.36364	0.1	1880.3
29573	10.389	0.63636	0.1	2216.2
29574	10.48	0.54545	0.1	1997.3
29575	10.389	0.81818	0.1	2381.9
29576	10.48	0.72727	0.1	2155.9
29577	10.389	1.	0.1	2584.5
29578	10.48	0.90909	0.1	2355.8
29579	10.389	1.1818	0.1	2821.8
29580	10.48	1.0909	0.1	2597.
29581	10.389	1.3636	0.1	3089.1
29582	10.48	1.2727	0.1	2878.9
29583	10.389	1.5455	0.1	3377.5
29584	10.48	1.4545	0.1	3197.2
29585	10.389	1.7273	0.1	3673.3
29586	10.48	1.6364	0.1	3540.9
29587	10.389	1.9091	0.1	3960.
29588	10.48	1.8182	0.1	3888.8
29589	10.389	2.0909	0.1	4221.9
29590	10.48	2.	0.1	4216.3
29591	10.389	2.2727	0.1	4445.4
29592	10.48	2.1818	0.1	4501.
29593	10.389	2.4545	0.1	4620.5
29594	10.48	2.3636	0.1	4726.2
29595	10.389	2.6364	0.1	4742.9
29596	10.48	2.5455	0.1	4884.2
29597	10.389	2.8182	0.1	4813.8
29598	10.48	2.7273	0.1	4979.4
29599	10.389	3.	0.1	4836.9
29600	10.48	2.9091	0.1	5023.1
29601	10.389	3.1818	0.1	4813.8
29602	10.48	3.0909	0.1	5023.1
29603	10.389	3.3636	0.1	4742.9
29604	10.48	3.2727	0.1	4979.4
29605	10.389	3.5455	0.1	4620.5
29606	10.48	3.4545	0.1	4884.2
29607	10.389	3.7273	0.1	4445.4
29608	10.48	3.6364	0.1	4726.2
29609	10.389	3.9091	0.1	4221.9
29610	10.48	3.8182	0.1	4501.
29611	10.389	4.0909	0.1	3960.
29612	10.48	4.	0.1	4216.3
29613	10.389	4.2727	0.1	3673.3
29614	10.48	4.1818	0.1	3888.8
29615	10.389	4.4545	0.1	3377.5
29616	10.48	4.3636	0.1	3540.9
29617	10.389	4.6364	0.1	3089.1
29618	10.48	4.5455	0.1	3197.2
29619	10.389	4.8182	0.1	2821.8
29620	10.48	4.7273	0.1	2878.9
29621	10.389	5.	0.1	2584.5
29622	10.48	4.9091	0.1	2597.
29623	10.389	5.1818	0.1	2381.9
29624	10.48	5.0909	0.1	2355.8
29625	10.389	5.3636	0.1	2216.2
29626	10.48	5.2727	0.1	2155.9
29627	10.389	5.5455	0.1	2088.1
29628	10.48	5.4545	0.1	1997.3
29629	10.389	5.7273	0.1	1998.
29630	10.48	5.6364	0.1	1880.3
29631	10.48	5.8182	0.1	1805.5
29632	10.389	5.9091	0.1	1933.2
29633	10.571	0.27273	0.1	1689.1
29634	10.662	0.18182	0.1	1476.8
29635	10.571	9.0909e-002	0.1	1613.5
29636	10.571	0.45455	0.1	1792.4
29637	10.662	0.36364	0.1	1561.7
29638	10.571	0.63636	0.1	1942.5
29639	10.662	0.54545	0.1	1699.6
29640	10.571	0.81818	0.1	2137.8
29641	10.662	0.72727	0.1	1885.2
29642	10.571	1.	0.1	2378.1
29643	10.662	0.90909	0.1	2117.6
29644	10.571	1.1818	0.1	2664.5
29645	10.662	1.0909	0.1	2399.6
29646	10.571	1.3636	0.1	2996.7
29647	10.662	1.2727	0.1	2736.9
29648	10.571	1.5455	0.1	3368.3
29649	10.662	1.4545	0.1	3135.9
29650	10.571	1.7273	0.1	3761.4
29651	10.662	1.6364	0.1	3590.1
29652	10.571	1.9091	0.1	4147.6
29653	10.662	1.8182	0.1	4072.3
29654	10.571	2.0909	0.1	4496.4
29655	10.662	2.	0.1	4530.5
29656	10.571	2.2727	0.1	4781.5
29657	10.662	2.1818	0.1	4906.6
29658	10.571	2.4545	0.1	4988.3
29659	10.662	2.3636	0.1	5174.3
29660	10.571	2.6364	0.1	5118.4
29661	10.662	2.5455	0.1	5328.1
29662	10.571	2.8182	0.1	5186.1
29663	10.662	2.7273	0.1	5401.4
29664	10.571	3.	0.1	5206.6
29665	10.662	2.9091	0.1	5428.9
29666	10.571	3.1818	0.1	5186.1
29667	10.662	3.0909	0.1	5428.9
29668	10.571	3.3636	0.1	5118.4
29669	10.662	3.2727	0.1	5401.4
29670	10.571	3.5455	0.1	4988.3
29671	10.662	3.4545	0.1	5328.1
29672	10.571	3.7273	0.1	4781.5
29673	10.662	3.6364	0.1	5174.3
29674	10.571	3.9091	0.1	4496.4
29675	10.662	3.8182	0.1	4906.6
29676	10.571	4.0909	0.1	4147.6
29677	10.662	4.	0.1	4530.5
29678	10.571	4.2727	0.1	3761.4
29679	10.662	4.1818	0.1	4072.3
29680	10.571	4.4545	0.1	3368.3
29681	10.662	4.3636	0.1	3590.1
29682	10.571	4.6364	0.1	2996.7
29683	10.662	4.5455	0.1	3135.9
29684	10.571	4.8182	0.1	2664.5
29685	10.662	4.7273	0.1	2736.9
29686	10.571	5.	0.1	2378.1
29687	10.662	4.9091	0.1	2399.6
29688	10.571	5.1818	0.1	2137.8
29689	10.662	5.0909	0.1	2117.6
29690	10.571	5.3636	0.1	1942.5
29691	10.662	5.2727	0.1	1885.2
29692	10.571	5.5455	0.1	1792.4
29693	10.662	5.4545	0.1	1699.6
29694	10.571	5.7273	0.1	1689.1
29695	10.662	5.6364	0.1	1561.7
29696	10.662	5.8182	0.1	1476.8
29697	10.571	5.9091	0.1	1613.5
29698	10.753	0.27273	0.1	1351.7
29699	10.844	0.18182	0.1	1119.8
29700	10.753	9.0909e-002	0.1	1261.
29701	10.753	0.45455	0.1	1474.5
29702	10.844	0.36364	0.1	1225.4
29703	10.753	0.63636	0.1	1652.2
29704	10.844	0.54545	0.1	1394.6
29705	10.753	0.81818	0.1	1878.6
29706	10.844	0.72727	0.1	1611.3
29707	10.753	1.	0.1	2155.
29708	10.844	0.90909	0.1	1873.4
29709	10.753	1.1818	0.1	2489.1
29710	10.844	1.0909	0.1	2188.4
29711	10.753	1.3636	0.1	2892.7
29712	10.844	1.2727	0.1	2573.3
29713	10.753	1.5455	0.1	3371.1
29714	10.844	1.4545	0.1	3052.7
29715	10.753	1.7273	0.1	3908.4
29716	10.844	1.6364	0.1	3660.2
29717	10.753	1.9091	0.1	4457.8
29718	10.844	1.8182	0.1	4380.3
29719	10.753	2.0909	0.1	4940.5
29720	10.844	2.	0.1	5068.6
29721	10.753	2.2727	0.1	5297.1
29722	10.844	2.1818	0.1	5601.2
29723	10.753	2.4545	0.1	5510.2
29724	10.844	2.3636	0.1	5853.
29725	10.753	2.6364	0.1	5606.9
29726	10.844	2.5455	0.1	5913.9
29727	10.753	2.8182	0.1	5640.2
29728	10.844	2.7273	0.1	5902.6
29729	10.753	3.	0.1	5647.3
29730	10.844	2.9091	0.1	5884.8
29731	10.753	3.1818	0.1	5640.2
29732	10.844	3.0909	0.1	5884.8
29733	10.753	3.3636	0.1	5606.9
29734	10.844	3.2727	0.1	5902.6
29735	10.753	3.5455	0.1	5510.2
29736	10.844	3.4545	0.1	5913.9
29737	10.753	3.7273	0.1	5297.1
29738	10.844	3.6364	0.1	5853.
29739	10.753	3.9091	0.1	4940.5
29740	10.844	3.8182	0.1	5601.2
29741	10.753	4.0909	0.1	4457.8
29742	10.844	4.	0.1	5068.6
29743	10.753	4.2727	0.1	3908.4
29744	10.844	4.1818	0.1	4380.3
29745	10.753	4.4545	0.1	3371.1
29746	10.844	4.3636	0.1	3660.2
29747	10.753	4.6364	0.1	2892.7
29748	10.844	4.5455	0.1	3052.7
29749	10.753	4.8182	0.1	2489.1
29750	10.844	4.7273	0.1	2573.3
29751	10.753	5.	0.1	2155.
29752	10.844	4.9091	0.1	2188.4
29753	10.753	5.1818	0.1	1878.6
29754	10.844	5.0909	0.1	1873.4
29755	10.753	5.3636	0.1	1652.2
29756	10.844	5.2727	0.1	1611.3
29757	10.753	5.5455	0.1	1474.5
29758	10.844	5.4545	0.1	1394.6
29759	10.753	5.7273	0.1	1351.7
29760	10.844	5.6364	0.1	1225.4
29761	10.844	5.8182	0.1	1119.8
29762	10.753	5.9091	0.1	1261.
29763	10.935	0.27273	0.1	998.69
29764	11.027	0.18182	0.1	751.6
29765	10.935	9.0909e-002	0.1	879.58
29766	10.935	0.45455	0.1	1158.2
29767	11.027	0.36364	0.1	917.35
29768	10.935	0.63636	0.1	1372.
29769	11.027	0.54545	0.1	1138.9
29770	10.935	0.81818	0.1	1627.7
29771	11.027	0.72727	0.1	1391.8
29772	10.935	1.	0.1	1931.
29773	11.027	0.90909	0.1	1679.9
29774	10.935	1.1818	0.1	2299.3
29775	11.027	1.0909	0.1	2017.9
29776	10.935	1.3636	0.1	2762.
29777	11.027	1.2727	0.1	2432.3
29778	10.935	1.5455	0.1	3366.8
29779	11.027	1.4545	0.1	2975.6
29780	10.935	1.7273	0.1	4147.6
29781	11.027	1.6364	0.1	3721.6
29782	10.935	1.9091	0.1	4988.9
29783	11.027	1.8182	0.1	5005.9
29784	10.935	2.0909	0.1	5723.1
29785	11.027	2.	0.1	6552.4
29786	10.935	2.2727	0.1	6147.9
29787	11.027	2.1818	0.1	6949.2
29788	10.935	2.4545	0.1	6248.6
29789	11.027	2.3636	0.1	6860.8
29790	10.935	2.6364	0.1	6203.7
29791	11.027	2.5455	0.1	6603.2
29792	10.935	2.8182	0.1	6142.6
29793	11.027	2.7273	0.1	6419.7
29794	10.935	3.	0.1	6118.1
29795	11.027	2.9091	0.1	6324.6
29796	10.935	3.1818	0.1	6142.6
29797	11.027	3.0909	0.1	6324.6
29798	10.935	3.3636	0.1	6203.7
29799	11.027	3.2727	0.1	6419.7
29800	10.935	3.5455	0.1	6248.6
29801	11.027	3.4545	0.1	6603.2
29802	10.935	3.7273	0.1	6147.9
29803	11.027	3.6364	0.1	6860.8
29804	10.935	3.9091	0.1	5723.1
29805	11.027	3.8182	0.1	6949.2
29806	10.935	4.0909	0.1	4988.9
29807	11.027	4.	0.1	6552.4
29808	10.935	4.2727	0.1	4147.6
29809	11.027	4.1818	0.1	5005.9
29810	10.935	4.4545	0.1	3366.8
29811	11.027	4.3636	0.1	3721.6
29812	10.935	4.6364	0.1	2762.
29813	11.027	4.5455	0.1	2975.6
29814	10.935	4.8182	0.1	2299.3
29815	11.027	4.7273	0.1	2432.3
29816	10.935	5.	0.1	1931.
29817	11.027	4.9091	0.1	2017.9
29818	10.935	5.1818	0.1	1627.7
29819	11.027	5.0909	0.1	1679.9
29820	10.935	5.3636	0.1	1372.
29821	11.027	5.2727	0.1	1391.8
29822	10.935	5.5455	0.1	1158.2
29823	11.027	5.4545	0.1	1138.9
29824	10.935	5.7273	0.1	998.69
29825	11.027	5.6364	0.1	917.35
29826	11.027	5.8182	0.1	751.6
29827	10.935	5.9091	0.1	879.58
29828	11.118	0.27273	0.1	691.73
29829	11.209	0.18182	0.1	410.49
29830	11.118	9.0909e-002	0.1	484.97
29831	11.118	0.45455	0.1	928.71
29832	11.209	0.36364	0.1	622.91
29833	11.118	0.63636	0.1	1190.2
29834	11.209	0.54545	0.1	834.94
29835	11.118	0.81818	0.1	1476.
29836	11.209	0.72727	0.1	1052.5
29837	11.118	1.	0.1	1801.4
29838	11.209	0.90909	0.1	1287.9
29839	11.118	1.1818	0.1	2191.2
29840	11.209	1.0909	0.1	1557.5
29841	11.118	1.3636	0.1	2696.
29842	11.209	1.2727	0.1	1885.2
29843	11.118	1.5455	0.1	3403.2
29844	11.209	1.4545	0.1	2323.3
29845	11.118	1.7273	0.1	4640.9
29846	11.209	1.6364	0.1	2948.8
29847	11.118	1.9091	0.1	6547.5
29848	11.209	1.8182	0.1	4081.9
29849	11.118	2.0909	0.1	7721.
29850	11.209	2.	0.1	11316
29851	11.118	2.2727	0.1	7639.7
29852	11.209	2.1818	0.1	9146.8
29853	11.118	2.4545	0.1	7207.5
29854	11.209	2.3636	0.1	7930.
29855	11.118	2.6364	0.1	6815.4
29856	11.209	2.5455	0.1	7206.7
29857	11.118	2.8182	0.1	6598.8
29858	11.209	2.7273	0.1	6816.4
29859	11.118	3.	0.1	6528.3
29860	11.209	2.9091	0.1	6641.3
29861	11.118	3.1818	0.1	6598.8
29862	11.209	3.0909	0.1	6641.3
29863	11.118	3.3636	0.1	6815.4
29864	11.209	3.2727	0.1	6816.4
29865	11.118	3.5455	0.1	7207.5
29866	11.209	3.4545	0.1	7206.7
29867	11.118	3.7273	0.1	7639.7
29868	11.209	3.6364	0.1	7930.
29869	11.118	3.9091	0.1	7721.
29870	11.209	3.8182	0.1	9146.8
29871	11.118	4.0909	0.1	6547.5
29872	11.209	4.	0.1	11316
29873	11.118	4.2727	0.1	4640.9
29874	11.209	4.1818	0.1	4081.9
29875	11.118	4.4545	0.1	3403.2
29876	11.209	4.3636	0.1	2948.8
29877	11.118	4.6364	0.1	2696.
29878	11.209	4.5455	0.1	2323.3
29879	11.118	4.8182	0.1	2191.2
29880	11.209	4.7273	0.1	1885.2
29881	11.118	5.	0.1	1801.4
29882	11.209	4.9091	0.1	1557.5
29883	11.118	5.1818	0.1	1476.
29884	11.209	5.0909	0.1	1287.9
29885	11.118	5.3636	0.1	1190.2
29886	11.209	5.2727	0.1	1052.5
29887	11.118	5.5455	0.1	928.71
29888	11.209	5.4545	0.1	834.94
29889	11.118	5.7273	0.1	691.73
29890	11.209	5.6364	0.1	622.91
29891	11.209	5.8182	0.1	410.49
29892	11.118	5.9091	0.1	484.97
29893	11.467	3.7273	0.1	9519.
29894	11.383	3.8182	0.1	10499
29895	11.467	3.9091	0.1	12769
29896	11.467	3.5455	0.1	7931.9
29897	11.383	3.6364	0.1	8404.5
29898	11.467	3.3636	0.1	7181.3
29899	11.383	3.4545	0.1	7439.8
29900	11.467	3.1818	0.1	6821.7
29901	11.383	3.2727	0.1	6945.6
29902	11.467	3.	0.1	6714.1
29903	11.383	3.0909	0.1	6733.9
29904	11.467	2.8182	0.1	6821.7
29905	11.383	2.9091	0.1	6733.9
29906	11.467	2.6364	0.1	7181.3
29907	11.383	2.7273	0.1	6945.6
29908	11.467	2.4545	0.1	7931.9
29909	11.383	2.5455	0.1	7439.8
29910	11.467	2.2727	0.1	9519.
29911	11.383	2.3636	0.1	8404.5
29912	11.383	2.1818	0.1	10499
29913	11.467	2.0909	0.1	12769
29914	11.3	3.7273	0.1	9506.4
29915	11.3	3.9091	0.1	12615
29916	11.3	3.5455	0.1	7948.1
29917	11.3	3.3636	0.1	7213.4
29918	11.3	3.1818	0.1	6859.5
29919	11.3	3.	0.1	6753.7
29920	11.3	2.8182	0.1	6859.5
29921	11.3	2.6364	0.1	7213.4
29922	11.3	2.4545	0.1	7948.1
29923	11.3	2.2727	0.1	9506.4
29924	11.3	2.0909	0.1	12615
29925	11.467	5.7273	0.1	377.89
29926	11.467	5.9091	0.1	148.29
29927	11.467	5.8182	5.e-002	62.919
29928	11.467	5.5455	0.1	574.
29929	11.467	5.6364	5.e-002	134.49
29930	11.467	5.3636	0.1	759.28
29931	11.467	5.4545	5.e-002	205.21
29932	11.467	5.1818	0.1	953.62
29933	11.467	5.2727	5.e-002	281.74
29934	11.467	5.	0.1	1172.2
29935	11.467	5.0909	5.e-002	368.25
29936	11.467	4.8182	0.1	1434.2
29937	11.467	4.9091	5.e-002	470.76
29938	11.467	4.6364	0.1	1776.4
29939	11.467	4.7273	5.e-002	599.56
29940	11.467	4.4545	0.1	2245.9
29941	11.467	4.5455	5.e-002	772.42
29942	11.467	4.2727	0.1	3165.2
29943	11.467	4.3636	5.e-002	1046.5
29944	11.467	4.0909	0.1	8634.1
29945	11.467	4.1818	5.e-002	1750.1
29946	11.383	4.	0.1	13528
29947	11.467	4.	5.e-002	1490.1
29948	11.3	4.0909	0.1	8277.7
29949	11.3	4.	5.e-002	1799.5
29950	11.3	4.2727	0.1	2928.4
29951	11.3	4.1818	5.e-002	2006.9
29952	11.3	4.4545	0.1	2114.6
29953	11.3	4.3636	5.e-002	1242.2
29954	11.3	4.6364	0.1	1705.8
29955	11.3	4.5455	5.e-002	928.43
29956	11.3	4.8182	0.1	1404.1
29957	11.3	4.7273	5.e-002	729.58
29958	11.3	5.	0.1	1169.2
29959	11.3	4.9091	5.e-002	578.28
29960	11.3	5.1818	0.1	967.94
29961	11.3	5.0909	5.e-002	455.5
29962	11.3	5.3636	0.1	783.82
29963	11.3	5.2727	5.e-002	350.08
29964	11.3	5.5455	0.1	602.74
29965	11.3	5.4545	5.e-002	255.6
29966	11.3	5.7273	0.1	404.3
29967	11.3	5.6364	5.e-002	167.69
29968	11.3	5.9091	0.1	161.35
29969	11.3	5.8182	5.e-002	79.296
29970	11.467	0.27273	0.1	377.89
29971	11.467	9.0909e-002	0.1	148.29
29972	11.467	0.18182	5.e-002	62.919
29973	11.467	0.45455	0.1	574.
29974	11.467	0.36364	5.e-002	134.49
29975	11.467	0.63636	0.1	759.28
29976	11.467	0.54545	5.e-002	205.21
29977	11.467	0.81818	0.1	953.62
29978	11.467	0.72727	5.e-002	281.74
29979	11.467	1.	0.1	1172.2
29980	11.467	0.90909	5.e-002	368.25
29981	11.467	1.1818	0.1	1434.2
29982	11.467	1.0909	5.e-002	470.76
29983	11.467	1.3636	0.1	1776.4
29984	11.467	1.2727	5.e-002	599.56
29985	11.467	1.5455	0.1	2245.9
29986	11.467	1.4545	5.e-002	772.42
29987	11.467	1.7273	0.1	3165.2
29988	11.467	1.6364	5.e-002	1046.5
29989	11.467	1.9091	0.1	8634.1
29990	11.467	1.8182	5.e-002	1750.1
29991	11.383	2.	0.1	13528
29992	11.467	2.	5.e-002	1490.1
29993	11.3	1.9091	0.1	8277.7
29994	11.3	2.	5.e-002	1799.5
29995	11.3	1.7273	0.1	2928.4
29996	11.3	1.8182	5.e-002	2006.9
29997	11.3	1.5455	0.1	2114.6
29998	11.3	1.6364	5.e-002	1242.2
29999	11.3	1.3636	0.1	1705.8
30000	11.3	1.4545	5.e-002	928.43
30001	11.3	1.1818	0.1	1404.1
30002	11.3	1.2727	5.e-002	729.58
30003	11.3	1.	0.1	1169.2
30004	11.3	1.0909	5.e-002	578.28
30005	11.3	0.81818	0.1	967.94
30006	11.3	0.90909	5.e-002	455.5
30007	11.3	0.63636	0.1	783.82
30008	11.3	0.72727	5.e-002	350.08
30009	11.3	0.45455	0.1	602.74
30010	11.3	0.54545	5.e-002	255.6
30011	11.3	0.27273	0.1	404.3
30012	11.3	0.36364	5.e-002	167.69
30013	11.3	9.0909e-002	0.1	161.35
30014	11.3	0.18182	5.e-002	79.296
30015	11.559	6.	0.1	192.29
30016	11.467	6.	5.e-002	20.005
30017	11.743	6.	0.1	530.73
30018	11.651	6.	5.e-002	16.18
30019	11.927	6.	0.1	851.46
30020	11.835	6.	5.e-002	41.254
30021	12.112	6.	0.1	1131.7
30022	12.02	6.	5.e-002	54.225
30023	12.296	6.	0.1	1373.2
30024	12.204	6.	5.e-002	61.255
30025	12.48	6.	0.1	1576.2
30026	12.388	6.	5.e-002	64.033
30027	12.665	6.	0.1	1741.7
30028	12.573	6.	5.e-002	64.136
30029	12.849	6.	0.1	1872.6
30030	12.757	6.	5.e-002	62.652
30031	13.033	6.	0.1	1972.5
30032	12.941	6.	5.e-002	60.38
30033	13.218	6.	0.1	2045.4
30034	13.125	6.	5.e-002	57.863
30035	13.402	6.	0.1	2095.6
30036	13.31	6.	5.e-002	55.443
30037	13.586	6.	0.1	2126.6
30038	13.494	6.	5.e-002	53.32
30039	13.771	6.	0.1	2141.9
30040	13.678	6.	5.e-002	51.589
30041	13.955	6.	0.1	2144.4
30042	13.863	6.	5.e-002	50.277
30043	14.139	6.	0.1	2136.6
30044	14.047	6.	5.e-002	49.372
30045	14.324	6.	0.1	2120.4
30046	14.231	6.	5.e-002	48.835
30047	14.508	6.	0.1	2097.7
30048	14.416	6.	5.e-002	48.615
30049	14.692	6.	0.1	2069.7
30050	14.6	6.	5.e-002	48.661
30051	14.876	6.	0.1	2037.6
30052	14.784	6.	5.e-002	48.919
30053	15.061	6.	0.1	2002.3
30054	14.969	6.	5.e-002	49.341
30055	15.245	6.	0.1	1964.5
30056	15.153	6.	5.e-002	49.883
30057	15.429	6.	0.1	1924.8
30058	15.337	6.	5.e-002	50.509
30059	15.614	6.	0.1	1883.7
30060	15.522	6.	5.e-002	51.186
30061	15.798	6.	0.1	1841.5
30062	15.706	6.	5.e-002	51.888
30063	15.982	6.	0.1	1798.5
30064	15.89	6.	5.e-002	52.593
30065	16.167	6.	0.1	1754.9
30066	16.075	6.	5.e-002	53.283
30067	16.351	6.	0.1	1710.9
30068	16.259	6.	5.e-002	53.944
30069	16.535	6.	0.1	1666.7
30070	16.443	6.	5.e-002	54.565
30071	16.72	6.	0.1	1622.4
30072	16.627	6.	5.e-002	55.139
30073	16.904	6.	0.1	1577.9
30074	16.812	6.	5.e-002	55.659
30075	17.088	6.	0.1	1533.5
30076	16.996	6.	5.e-002	56.12
30077	17.273	6.	0.1	1489.1
30078	17.18	6.	5.e-002	56.52
30079	17.457	6.	0.1	1444.9
30080	17.365	6.	5.e-002	56.856
30081	17.641	6.	0.1	1400.7
30082	17.549	6.	5.e-002	57.127
30083	17.825	6.	0.1	1356.7
30084	17.733	6.	5.e-002	57.333
30085	18.01	6.	0.1	1312.9
30086	17.918	6.	5.e-002	57.472
30087	18.194	6.	0.1	1269.2
30088	18.102	6.	5.e-002	57.546
30089	18.378	6.	0.1	1225.7
30090	18.286	6.	5.e-002	57.553
30091	18.563	6.	0.1	1182.4
30092	18.471	6.	5.e-002	57.495
30093	18.747	6.	0.1	1139.3
30094	18.655	6.	5.e-002	57.371
30095	18.931	6.	0.1	1096.4
30096	18.839	6.	5.e-002	57.181
30097	19.116	6.	0.1	1053.6
30098	19.024	6.	5.e-002	56.926
30099	19.3	6.	0.1	1011.1
30100	19.208	6.	5.e-002	56.604
30101	19.484	6.	0.1	968.7
30102	19.392	6.	5.e-002	56.215
30103	19.669	6.	0.1	926.52
30104	19.576	6.	5.e-002	55.758
30105	19.853	6.	0.1	884.51
30106	19.761	6.	5.e-002	55.231
30107	20.037	6.	0.1	842.69
30108	19.945	6.	5.e-002	54.633
30109	20.222	6.	0.1	801.04
30110	20.129	6.	5.e-002	53.962
30111	20.406	6.	0.1	759.56
30112	20.314	6.	5.e-002	53.215
30113	20.59	6.	0.1	718.25
30114	20.498	6.	5.e-002	52.389
30115	20.775	6.	0.1	677.11
30116	20.682	6.	5.e-002	51.48
30117	20.959	6.	0.1	636.13
30118	20.867	6.	5.e-002	50.484
30119	21.143	6.	0.1	595.32
30120	21.051	6.	5.e-002	49.396
30121	21.327	6.	0.1	554.67
30122	21.235	6.	5.e-002	48.21
30123	21.512	6.	0.1	514.19
30124	21.42	6.	5.e-002	46.92
30125	21.696	6.	0.1	473.88
30126	21.604	6.	5.e-002	45.517
30127	21.88	6.	0.1	433.75
30128	21.788	6.	5.e-002	43.992
30129	22.065	6.	0.1	393.8
30130	21.973	6.	5.e-002	42.334
30131	22.249	6.	0.1	354.04
30132	22.157	6.	5.e-002	40.53
30133	22.433	6.	0.1	314.51
30134	22.341	6.	5.e-002	38.564
30135	22.618	6.	0.1	275.23
30136	22.525	6.	5.e-002	36.416
30137	22.802	6.	0.1	236.25
30138	22.71	6.	5.e-002	34.062
30139	22.986	6.	0.1	197.63
30140	22.894	6.	5.e-002	31.468
30141	23.171	6.	0.1	159.47
30142	23.078	6.	5.e-002	28.589
30143	23.355	6.	0.1	121.94
30144	23.263	6.	5.e-002	25.359
30145	23.539	6.	0.1	85.344
30146	23.447	6.	5.e-002	21.675
30147	23.724	6.	0.1	50.337
30148	23.631	6.	5.e-002	17.339
30149	23.908	6.	0.1	18.693
30150	23.816	6.	5.e-002	11.729
30151	24.	5.9091	0.1	5.9063
30152	24.	6.	5.e-002	4.5428
30153	24.	5.7273	0.1	6.916
30154	24.	5.8182	5.e-002	4.051
30155	24.	5.5455	0.1	7.1602
30156	24.	5.6364	5.e-002	4.5993
30157	24.	5.3636	0.1	7.2369
30158	24.	5.4545	5.e-002	5.0807
30159	24.	5.1818	0.1	7.2442
30160	24.	5.2727	5.e-002	5.3376
30161	24.	5.	0.1	7.2137
30162	24.	5.0909	5.e-002	5.4515
30163	24.	4.8182	0.1	7.1696
30164	24.	4.9091	5.e-002	5.4677
30165	24.	4.6364	0.1	7.1201
30166	24.	4.7273	5.e-002	5.4164
30167	24.	4.4545	0.1	7.0704
30168	24.	4.5455	5.e-002	5.3199
30169	24.	4.2727	0.1	7.0235
30170	24.	4.3636	5.e-002	5.1949
30171	24.	4.0909	0.1	6.9809
30172	24.	4.1818	5.e-002	5.0554
30173	24.	3.9091	0.1	6.9439
30174	24.	4.	5.e-002	4.9127
30175	24.	3.7273	0.1	6.9131
30176	24.	3.8182	5.e-002	4.7768
30177	24.	3.5455	0.1	6.8888
30178	24.	3.6364	5.e-002	4.6565
30179	24.	3.3636	0.1	6.8713
30180	24.	3.4545	5.e-002	4.5591
30181	24.	3.1818	0.1	6.8607
30182	24.	3.2727	5.e-002	4.4907
30183	24.	3.	0.1	6.8572
30184	24.	3.0909	5.e-002	4.4553
30185	24.	2.8182	0.1	6.8607
30186	24.	2.9091	5.e-002	4.4553
30187	24.	2.6364	0.1	6.8713
30188	24.	2.7273	5.e-002	4.4907
30189	24.	2.4545	0.1	6.8888
30190	24.	2.5455	5.e-002	4.5591
30191	24.	2.2727	0.1	6.9131
30192	24.	2.3636	5.e-002	4.6565
30193	24.	2.0909	0.1	6.9439
30194	24.	2.1818	5.e-002	4.7768
30195	24.	1.9091	0.1	6.9809
30196	24.	2.	5.e-002	4.9127
30197	24.	1.7273	0.1	7.0235
30198	24.	1.8182	5.e-002	5.0554
30199	24.	1.5455	0.1	7.0704
30200	24.	1.6364	5.e-002	5.1949
30201	24.	1.3636	0.1	7.1201
30202	24.	1.4545	5.e-002	5.3199
30203	24.	1.1818	0.1	7.1697
30204	24.	1.2727	5.e-002	5.4165
30205	24.	1.	0.1	7.2137
30206	24.	1.0909	5.e-002	5.4677
30207	24.	0.81818	0.1	7.2442
30208	24.	0.90909	5.e-002	5.4515
30209	24.	0.63636	0.1	7.2369
30210	24.	0.72727	5.e-002	5.3376
30211	24.	0.45455	0.1	7.1602
30212	24.	0.54545	5.e-002	5.0807
30213	24.	0.27273	0.1	6.916
30214	24.	0.36364	5.e-002	4.5993
30215	24.	9.0909e-002	0.1	5.9062
30216	24.	0.18182	5.e-002	4.051
30217	2.3842e-015	0.27273	0.1	3539.5
30218	7.9472e-016	9.0909e-002	0.1	1428.3
30219	1.6109e-015	0.18182	5.e-002	94.736
30220	3.9736e-015	0.45455	0.1	5161.
30221	3.2219e-015	0.36364	5.e-002	49.983
30222	5.563e-015	0.63636	0.1	6010.
30223	4.8328e-015	0.54545	5.e-002	45.424
30224	7.1525e-015	0.81818	0.1	6548.7
30225	6.4438e-015	0.72727	5.e-002	40.113
30226	8.7419e-015	1.	0.1	6918.3
30227	8.0547e-015	0.90909	5.e-002	34.266
30228	1.0331e-014	1.1818	0.1	7186.2
30229	9.6657e-015	1.0909	5.e-002	29.241
30230	1.1921e-014	1.3636	0.1	7386.7
30231	1.1277e-014	1.2727	5.e-002	25.165
30232	1.351e-014	1.5455	0.1	7539.9
30233	1.2888e-014	1.4545	5.e-002	21.853
30234	1.51e-014	1.7273	0.1	7658.2
30235	1.4498e-014	1.6364	5.e-002	19.171
30236	1.6689e-014	1.9091	0.1	7749.9
30237	1.6109e-014	1.8182	5.e-002	17.008
30238	1.8279e-014	2.0909	0.1	7820.6
30239	1.772e-014	2.	5.e-002	15.279
30240	1.9868e-014	2.2727	0.1	7874.4
30241	1.9331e-014	2.1818	5.e-002	13.919
30242	2.1457e-014	2.4545	0.1	7913.8
30243	2.0942e-014	2.3636	5.e-002	12.88
30244	2.3047e-014	2.6364	0.1	7940.7
30245	2.2553e-014	2.5455	5.e-002	12.129
30246	2.4636e-014	2.8182	0.1	7956.5
30247	2.4164e-014	2.7273	5.e-002	11.641
30248	2.6226e-014	3.	0.1	7961.6
30249	2.5775e-014	2.9091	5.e-002	11.4
30250	2.7815e-014	3.1818	0.1	7956.5
30251	2.7386e-014	3.0909	5.e-002	11.4
30252	2.9405e-014	3.3636	0.1	7940.7
30253	2.8997e-014	3.2727	5.e-002	11.641
30254	3.0994e-014	3.5455	0.1	7913.8
30255	3.0608e-014	3.4545	5.e-002	12.129
30256	3.2583e-014	3.7273	0.1	7874.4
30257	3.2219e-014	3.6364	5.e-002	12.88
30258	3.4173e-014	3.9091	0.1	7820.6
30259	3.383e-014	3.8182	5.e-002	13.919
30260	3.5762e-014	4.0909	0.1	7749.9
30261	3.5441e-014	4.	5.e-002	15.279
30262	3.7352e-014	4.2727	0.1	7658.1
30263	3.7052e-014	4.1818	5.e-002	17.008
30264	3.8941e-014	4.4545	0.1	7539.9
30265	3.8663e-014	4.3636	5.e-002	19.171
30266	4.0531e-014	4.6364	0.1	7386.7
30267	4.0274e-014	4.5455	5.e-002	21.853
30268	4.212e-014	4.8182	0.1	7186.2
30269	4.1885e-014	4.7273	5.e-002	25.164
30270	4.371e-014	5.	0.1	6918.3
30271	4.3495e-014	4.9091	5.e-002	29.241
30272	4.5299e-014	5.1818	0.1	6548.7
30273	4.5106e-014	5.0909	5.e-002	34.266
30274	4.6888e-014	5.3636	0.1	6010.
30275	4.6717e-014	5.2727	5.e-002	40.113
30276	4.8478e-014	5.5455	0.1	5161.
30277	4.8328e-014	5.4545	5.e-002	45.424
30278	5.0067e-014	5.7273	0.1	3539.5
30279	4.9939e-014	5.6364	5.e-002	49.983
30280	5.1657e-014	5.9091	0.1	1428.3
30281	5.155e-014	5.8182	5.e-002	94.736
30282	23.908	0.	0.1	18.693
30283	24.	0.	5.e-002	4.5428
30284	23.724	0.	0.1	50.337
30285	23.816	0.	5.e-002	11.729
30286	23.539	0.	0.1	85.344
30287	23.631	0.	5.e-002	17.339
30288	23.355	0.	0.1	121.94
30289	23.447	0.	5.e-002	21.675
30290	23.171	0.	0.1	159.47
30291	23.263	0.	5.e-002	25.359
30292	22.986	0.	0.1	197.62
30293	23.078	0.	5.e-002	28.589
30294	22.802	0.	0.1	236.25
30295	22.894	0.	5.e-002	31.468
30296	22.618	0.	0.1	275.23
30297	22.71	0.	5.e-002	34.062
30298	22.433	0.	0.1	314.51
30299	22.525	0.	5.e-002	36.416
30300	22.249	0.	0.1	354.04
30301	22.341	0.	5.e-002	38.564
30302	22.065	0.	0.1	393.8
30303	22.157	0.	5.e-002	40.53
30304	21.88	0.	0.1	433.75
30305	21.973	0.	5.e-002	42.334
30306	21.696	0.	0.1	473.88
30307	21.788	0.	5.e-002	43.992
30308	21.512	0.	0.1	514.19
30309	21.604	0.	5.e-002	45.517
30310	21.327	0.	0.1	554.67
30311	21.42	0.	5.e-002	46.92
30312	21.143	0.	0.1	595.32
30313	21.235	0.	5.e-002	48.211
30314	20.959	0.	0.1	636.13
30315	21.051	0.	5.e-002	49.396
30316	20.775	0.	0.1	677.11
30317	20.867	0.	5.e-002	50.484
30318	20.59	0.	0.1	718.25
30319	20.682	0.	5.e-002	51.48
30320	20.406	0.	0.1	759.56
30321	20.498	0.	5.e-002	52.389
30322	20.222	0.	0.1	801.04
30323	20.314	0.	5.e-002	53.215
30324	20.037	0.	0.1	842.69
30325	20.129	0.	5.e-002	53.962
30326	19.853	0.	0.1	884.51
30327	19.945	0.	5.e-002	54.633
30328	19.669	0.	0.1	926.52
30329	19.761	0.	5.e-002	55.231
30330	19.484	0.	0.1	968.7
30331	19.576	0.	5.e-002	55.758
30332	19.3	0.	0.1	1011.1
30333	19.392	0.	5.e-002	56.215
30334	19.116	0.	0.1	1053.6
30335	19.208	0.	5.e-002	56.604
30336	18.931	0.	0.1	1096.4
30337	19.024	0.	5.e-002	56.926
30338	18.747	0.	0.1	1139.3
30339	18.839	0.	5.e-002	57.182
30340	18.563	0.	0.1	1182.4
30341	18.655	0.	5.e-002	57.371
30342	18.378	0.	0.1	1225.7
30343	18.471	0.	5.e-002	57.495
30344	18.194	0.	0.1	1269.2
30345	18.286	0.	5.e-002	57.553
30346	18.01	0.	0.1	1312.9
30347	18.102	0.	5.e-002	57.546
30348	17.825	0.	0.1	1356.7
30349	17.918	0.	5.e-002	57.472
30350	17.641	0.	0.1	1400.7
30351	17.733	0.	5.e-002	57.333
30352	17.457	0.	0.1	1444.9
30353	17.549	0.	5.e-002	57.128
30354	17.273	0.	0.1	1489.1
30355	17.365	0.	5.e-002	56.856
30356	17.088	0.	0.1	1533.5
30357	17.18	0.	5.e-002	56.52
30358	16.904	0.	0.1	1577.9
30359	16.996	0.	5.e-002	56.12
30360	16.72	0.	0.1	1622.4
30361	16.812	0.	5.e-002	55.659
30362	16.535	0.	0.1	1666.7
30363	16.627	0.	5.e-002	55.139
30364	16.351	0.	0.1	1710.9
30365	16.443	0.	5.e-002	54.565
30366	16.167	0.	0.1	1754.9
30367	16.259	0.	5.e-002	53.944
30368	15.982	0.	0.1	1798.5
30369	16.075	0.	5.e-002	53.283
30370	15.798	0.	0.1	1841.5
30371	15.89	0.	5.e-002	52.593
30372	15.614	0.	0.1	1883.7
30373	15.706	0.	5.e-002	51.888
30374	15.429	0.	0.1	1924.8
30375	15.522	0.	5.e-002	51.186
30376	15.245	0.	0.1	1964.5
30377	15.337	0.	5.e-002	50.509
30378	15.061	0.	0.1	2002.3
30379	15.153	0.	5.e-002	49.884
30380	14.876	0.	0.1	2037.6
30381	14.969	0.	5.e-002	49.341
30382	14.692	0.	0.1	2069.7
30383	14.784	0.	5.e-002	48.919
30384	14.508	0.	0.1	2097.7
30385	14.6	0.	5.e-002	48.661
30386	14.324	0.	0.1	2120.4
30387	14.416	0.	5.e-002	48.615
30388	14.139	0.	0.1	2136.6
30389	14.231	0.	5.e-002	48.835
30390	13.955	0.	0.1	2144.4
30391	14.047	0.	5.e-002	49.372
30392	13.771	0.	0.1	2141.9
30393	13.863	0.	5.e-002	50.277
30394	13.586	0.	0.1	2126.6
30395	13.678	0.	5.e-002	51.589
30396	13.402	0.	0.1	2095.6
30397	13.494	0.	5.e-002	53.32
30398	13.218	0.	0.1	2045.4
30399	13.31	0.	5.e-002	55.443
30400	13.033	0.	0.1	1972.5
30401	13.125	0.	5.e-002	57.863
30402	12.849	0.	0.1	1872.6
30403	12.941	0.	5.e-002	60.38
30404	12.665	0.	0.1	1741.7
30405	12.757	0.	5.e-002	62.652
30406	12.48	0.	0.1	1576.2
30407	12.573	0.	5.e-002	64.136
30408	12.296	0.	0.1	1373.2
30409	12.388	0.	5.e-002	64.033
30410	12.112	0.	0.1	1131.7
30411	12.204	0.	5.e-002	61.255
30412	11.927	0.	0.1	851.46
30413	12.02	0.	5.e-002	54.225
30414	11.743	0.	0.1	530.73
30415	11.835	0.	5.e-002	41.254
30416	11.559	0.	0.1	192.29
30417	11.651	0.	5.e-002	16.18
30418	11.467	0.	5.e-002	20.005
30419	11.209	-6.4984e-030	0.1	223.82
30420	11.3	-6.5512e-030	5.e-002	22.7
30421	11.027	-6.3927e-030	0.1	631.8
30422	11.118	0.	5.e-002	10.237
30423	10.844	-6.287e-030	0.1	1037.1
30424	10.935	0.	5.e-002	30.747
30425	10.662	-6.1814e-030	0.1	1409.3
30426	10.753	0.	5.e-002	37.598
30427	10.48	-6.0757e-030	0.1	1749.1
30428	10.571	0.	5.e-002	37.753
30429	10.298	-5.97e-030	0.1	2054.9
30430	10.389	0.	5.e-002	33.275
30431	10.115	-5.8644e-030	0.1	2326.5
30432	10.206	0.	5.e-002	26.072
30433	9.9331	-5.7587e-030	0.1	2565.4
30434	10.024	0.	5.e-002	17.489
30435	9.7508	-5.653e-030	0.1	2774.5
30436	9.8419	0.	5.e-002	8.6554
30437	9.5685	-5.5474e-030	0.1	2957.
30438	9.6597	0.	5.e-002	3.3524
30439	9.3863	-5.4417e-030	0.1	3116.6
30440	9.4774	0.	5.e-002	9.8589
30441	9.204	-5.3361e-030	0.1	3256.8
30442	9.2952	0.	5.e-002	17.167
30443	9.0218	-5.2304e-030	0.1	3380.9
30444	9.1129	0.	5.e-002	23.678
30445	8.8395	-5.1247e-030	0.1	3491.6
30446	8.9306	0.	5.e-002	29.256
30447	8.6573	-5.0191e-030	0.1	3591.5
30448	8.7484	0.	5.e-002	33.898
30449	8.475	-4.9134e-030	0.1	3682.6
30450	8.5661	0.	5.e-002	37.648
30451	8.2927	-4.8077e-030	0.1	3766.7
30452	8.3839	0.	5.e-002	40.571
30453	8.1105	-4.7021e-030	0.1	3845.1
30454	8.2016	0.	5.e-002	42.735
30455	7.9282	-4.5964e-030	0.1	3919.1
30456	8.0194	0.	5.e-002	44.209
30457	7.746	-4.4907e-030	0.1	3989.6
30458	7.8371	0.	5.e-002	45.055
30459	7.5637	-4.3851e-030	0.1	4057.4
30460	7.6548	0.	5.e-002	45.327
30461	7.3815	-4.2794e-030	0.1	4123.1
30462	7.4726	0.	5.e-002	45.073
30463	7.1992	-4.1737e-030	0.1	4187.3
30464	7.2903	0.	5.e-002	44.33
30465	7.0169	-4.0681e-030	0.1	4250.3
30466	7.1081	0.	5.e-002	43.129
30467	6.8347	-3.9624e-030	0.1	4312.5
30468	6.9258	0.	5.e-002	41.491
30469	6.6524	-3.8568e-030	0.1	4374.2
30470	6.7435	0.	5.e-002	39.431
30471	6.4702	-3.7511e-030	0.1	4435.5
30472	6.5613	0.	5.e-002	36.957
30473	6.2879	-3.6454e-030	0.1	4496.7
30474	6.379	0.	5.e-002	34.071
30475	6.1056	-3.5398e-030	0.1	4557.9
30476	6.1968	0.	5.e-002	30.771
30477	5.9234	-3.4341e-030	0.1	4619.1
30478	6.0145	0.	5.e-002	27.048
30479	5.7411	-3.3284e-030	0.1	4680.6
30480	5.8323	0.	5.e-002	22.89
30481	5.5589	-3.2228e-030	0.1	4742.5
30482	5.65	0.	5.e-002	18.285
30483	5.3766	-3.1171e-030	0.1	4804.6
30484	5.4677	0.	5.e-002	13.219
30485	5.1944	-3.0114e-030	0.1	4867.2
30486	5.2855	0.	5.e-002	7.7105
30487	5.0121	-2.9058e-030	0.1	4930.2
30488	5.1032	0.	5.e-002	2.3046
30489	4.8298	-2.8001e-030	0.1	4993.7
30490	4.921	0.	5.e-002	5.688
30491	4.6476	-2.6944e-030	0.1	5057.8
30492	4.7387	0.	5.e-002	12.82
30493	4.4653	-2.5888e-030	0.1	5122.3
30494	4.5565	0.	5.e-002	20.727
30495	4.2831	-2.4831e-030	0.1	5187.2
30496	4.3742	0.	5.e-002	29.354
30497	4.1008	-2.3774e-030	0.1	5252.7
30498	4.1919	0.	5.e-002	38.734
30499	3.9185	-2.2718e-030	0.1	5318.5
30500	4.0097	0.	5.e-002	48.916
30501	3.7363	-2.1661e-030	0.1	5384.5
30502	3.8274	0.	5.e-002	59.96
30503	3.554	-2.0605e-030	0.1	5450.7
30504	3.6452	0.	5.e-002	71.929
30505	3.3718	-1.9548e-030	0.1	5516.8
30506	3.4629	0.	5.e-002	84.896
30507	3.1895	-1.8491e-030	0.1	5582.6
30508	3.2806	0.	5.e-002	98.94
30509	3.0073	-1.7435e-030	0.1	5647.6
30510	3.0984	0.	5.e-002	114.15
30511	2.825	-1.6378e-030	0.1	5711.5
30512	2.9161	0.	5.e-002	130.63
30513	2.6427	-1.5321e-030	0.1	5773.4
30514	2.7339	0.	5.e-002	148.49
30515	2.4605	-1.4265e-030	0.1	5832.6
30516	2.5516	0.	5.e-002	167.86
30517	2.2782	-1.3208e-030	0.1	5887.9
30518	2.3694	0.	5.e-002	188.9
30519	2.096	-1.2151e-030	0.1	5937.8
30520	2.1871	0.	5.e-002	211.78
30521	1.9137	-1.1095e-030	0.1	5980.
30522	2.0048	0.	5.e-002	236.72
30523	1.7315	-1.0038e-030	0.1	6011.6
30524	1.8226	0.	5.e-002	264.
30525	1.5492	-8.9815e-031	0.1	6028.7
30526	1.6403	0.	5.e-002	293.95
30527	1.3669	-7.9248e-031	0.1	6025.
30528	1.4581	0.	5.e-002	327.03
30529	1.1847	-6.8682e-031	0.1	5991.7
30530	1.2758	0.	5.e-002	363.84
30531	1.0024	-5.8115e-031	0.1	5914.6
30532	1.0935	0.	5.e-002	405.25
30533	0.82016	-4.7549e-031	0.1	5770.2
30534	0.91129	0.	5.e-002	452.51
30535	0.6379	-3.6983e-031	0.1	5513.2
30536	0.72903	0.	5.e-002	508.07
30537	0.45565	-2.6416e-031	0.1	5057.4
30538	0.54677	0.	5.e-002	575.36
30539	0.27339	-1.585e-031	0.1	4145.7
30540	0.36452	0.	5.e-002	666.02
30541	9.1129e-002	-5.2832e-032	0.1	1934.5
30542	0.18226	0.	5.e-002	846.48
30543	0.	0.	5.e-002	1118.3
30544	9.1129e-002	6.	0.1	1934.5
30545	5.2451e-014	6.	5.e-002	1118.3
30546	0.27339	6.	0.1	4145.7
30547	0.18226	6.	5.e-002	846.48
30548	0.45565	6.	0.1	5057.4
30549	0.36452	6.	5.e-002	666.02
30550	0.6379	6.	0.1	5513.2
30551	0.54677	6.	5.e-002	575.36
30552	0.82016	6.	0.1	5770.2
30553	0.72903	6.	5.e-002	508.07
30554	1.0024	6.	0.1	5914.6
30555	0.91129	6.	5.e-002	452.51
30556	1.1847	6.	0.1	5991.7
30557	1.0935	6.	5.e-002	405.25
30558	1.3669	6.	0.1	6025.
30559	1.2758	6.	5.e-002	363.84
30560	1.5492	6.	0.1	6028.7
30561	1.4581	6.	5.e-002	327.03
30562	1.7315	6.	0.1	6011.6
30563	1.6403	6.	5.e-002	293.95
30564	1.9137	6.	0.1	5980.
30565	1.8226	6.	5.e-002	264.
30566	2.096	6.	0.1	5937.8
30567	2.0048	6.	5.e-002	236.72
30568	2.2782	6.	0.1	5887.9
30569	2.1871	6.	5.e-002	211.78
30570	2.4605	6.	0.1	5832.6
30571	2.3694	6.	5.e-002	188.9
30572	2.6427	6.	0.1	5773.4
30573	2.5516	6.	5.e-002	167.86
30574	2.825	6.	0.1	5711.5
30575	2.7339	6.	5.e-002	148.49
30576	3.0073	6.	0.1	5647.6
30577	2.9161	6.	5.e-002	130.63
30578	3.1895	6.	0.1	5582.6
30579	3.0984	6.	5.e-002	114.15
30580	3.3718	6.	0.1	5516.8
30581	3.2806	6.	5.e-002	98.94
30582	3.554	6.	0.1	5450.7
30583	3.4629	6.	5.e-002	84.896
30584	3.7363	6.	0.1	5384.5
30585	3.6452	6.	5.e-002	71.929
30586	3.9185	6.	0.1	5318.5
30587	3.8274	6.	5.e-002	59.96
30588	4.1008	6.	0.1	5252.7
30589	4.0097	6.	5.e-002	48.916
30590	4.2831	6.	0.1	5187.2
30591	4.1919	6.	5.e-002	38.734
30592	4.4653	6.	0.1	5122.3
30593	4.3742	6.	5.e-002	29.354
30594	4.6476	6.	0.1	5057.8
30595	4.5565	6.	5.e-002	20.727
30596	4.8298	6.	0.1	4993.7
30597	4.7387	6.	5.e-002	12.82
30598	5.0121	6.	0.1	4930.2
30599	4.921	6.	5.e-002	5.6878
30600	5.1944	6.	0.1	4867.2
30601	5.1032	6.	5.e-002	2.3044
30602	5.3766	6.	0.1	4804.6
30603	5.2855	6.	5.e-002	7.7102
30604	5.5589	6.	0.1	4742.5
30605	5.4677	6.	5.e-002	13.219
30606	5.7411	6.	0.1	4680.6
30607	5.65	6.	5.e-002	18.285
30608	5.9234	6.	0.1	4619.1
30609	5.8323	6.	5.e-002	22.89
30610	6.1056	6.	0.1	4557.9
30611	6.0145	6.	5.e-002	27.047
30612	6.2879	6.	0.1	4496.7
30613	6.1968	6.	5.e-002	30.77
30614	6.4702	6.	0.1	4435.5
30615	6.379	6.	5.e-002	34.071
30616	6.6524	6.	0.1	4374.2
30617	6.5613	6.	5.e-002	36.956
30618	6.8347	6.	0.1	4312.5
30619	6.7435	6.	5.e-002	39.43
30620	7.0169	6.	0.1	4250.3
30621	6.9258	6.	5.e-002	41.491
30622	7.1992	6.	0.1	4187.3
30623	7.1081	6.	5.e-002	43.129
30624	7.3815	6.	0.1	4123.1
30625	7.2903	6.	5.e-002	44.33
30626	7.5637	6.	0.1	4057.4
30627	7.4726	6.	5.e-002	45.073
30628	7.746	6.	0.1	3989.6
30629	7.6548	6.	5.e-002	45.327
30630	7.9282	6.	0.1	3919.1
30631	7.8371	6.	5.e-002	45.054
30632	8.1105	6.	0.1	3845.1
30633	8.0194	6.	5.e-002	44.209
30634	8.2927	6.	0.1	3766.7
30635	8.2016	6.	5.e-002	42.735
30636	8.475	6.	0.1	3682.6
30637	8.3839	6.	5.e-002	40.571
30638	8.6573	6.	0.1	3591.5
30639	8.5661	6.	5.e-002	37.648
30640	8.8395	6.	0.1	3491.6
30641	8.7484	6.	5.e-002	33.897
30642	9.0218	6.	0.1	3380.9
30643	8.9306	6.	5.e-002	29.256
30644	9.204	6.	0.1	3256.8
30645	9.1129	6.	5.e-002	23.678
30646	9.3863	6.	0.1	3116.6
30647	9.2952	6.	5.e-002	17.167
30648	9.5685	6.	0.1	2957.
30649	9.4774	6.	5.e-002	9.8588
30650	9.7508	6.	0.1	2774.5
30651	9.6597	6.	5.e-002	3.3524
30652	9.9331	6.	0.1	2565.4
30653	9.8419	6.	5.e-002	8.6554
30654	10.115	6.	0.1	2326.5
30655	10.024	6.	5.e-002	17.489
30656	10.298	6.	0.1	2054.9
30657	10.206	6.	5.e-002	26.072
30658	10.48	6.	0.1	1749.1
30659	10.389	6.	5.e-002	33.275
30660	10.662	6.	0.1	1409.3
30661	10.571	6.	5.e-002	37.753
30662	10.844	6.	0.1	1037.1
30663	10.753	6.	5.e-002	37.598
30664	11.027	6.	0.1	631.8
30665	10.935	6.	5.e-002	30.747
30666	11.209	6.	0.1	223.82
30667	11.118	6.	5.e-002	10.237
30668	11.3	6.	5.e-002	22.7
30669	11.027	6.	0.	11.258
30670	11.209	6.	0.	3.9928
30671	10.844	6.	0.	12.233
30672	10.662	6.	0.	12.078
30673	10.48	6.	0.	10.989
30674	10.298	6.	0.	9.5443
30675	10.115	6.	0.	8.1334
30676	9.9331	6.	0.	6.8984
30677	9.7508	6.	0.	5.8881
30678	9.5685	6.	0.	5.0913
30679	9.3863	6.	0.	4.4733
30680	9.204	6.	0.	3.9925
30681	9.0218	6.	0.	3.6096
30682	8.8395	6.	0.	3.2921
30683	8.6573	6.	0.	3.0142
30684	8.475	6.	0.	2.757
30685	8.2927	6.	0.	2.5073
30686	8.1105	6.	0.	2.256
30687	7.9282	6.	0.	1.9975
30688	7.746	6.	0.	1.7284
30689	7.5637	6.	0.	1.4469
30690	7.3815	6.	0.	1.1524
30691	7.1992	6.	0.	0.84534
30692	7.0169	6.	0.	0.5265
30693	6.8347	6.	0.	0.33248
30694	6.6524	6.	0.	0.40048
30695	6.4702	6.	0.	0.46797
30696	6.2879	6.	0.	0.53592
30697	6.1056	6.	0.	0.60519
30698	5.9234	6.	0.	0.6766
30699	5.7411	6.	0.	0.7509
30700	5.5589	6.	0.	0.82884
30701	5.3766	6.	0.	0.91112
30702	5.1944	6.	0.	0.99845
30703	5.0121	6.	0.	1.0916
30704	4.8298	6.	0.	1.1912
30705	4.6476	6.	0.	1.2983
30706	4.4653	6.	0.	1.4138
30707	4.2831	6.	0.	1.539
30708	4.1008	6.	0.	1.6755
30709	3.9185	6.	0.	1.8258
30710	3.7363	6.	0.	1.9943
30711	3.554	6.	0.	2.1898
30712	3.3718	6.	0.	2.4362
30713	3.1895	6.	0.	2.8214
30714	3.0073	6.	0.	3.7113
30715	2.825	6.	0.	5.5467
30716	2.6427	6.	0.	8.1525
30717	2.4605	6.	0.	11.463
30718	2.2782	6.	0.	15.563
30719	2.096	6.	0.	20.6
30720	1.9137	6.	0.	26.775
30721	1.7315	6.	0.	34.361
30722	1.5492	6.	0.	43.73
30723	1.3669	6.	0.	55.431
30724	1.1847	6.	0.	70.243
30725	1.0024	6.	0.	89.6
30726	0.82016	6.	0.	115.59
30727	0.6379	6.	0.	153.53
30728	0.45565	6.	0.	215.57
30729	0.27339	6.	0.	337.27
30730	9.1129e-002	6.	0.	906.43
30731	11.3	5.9091	0.	21.74
30732	5.1657e-014	5.9091	0.	150.68
30733	0.27339	-1.585e-031	0.	337.27
30734	9.1129e-002	-5.2832e-032	0.	906.43
30735	0.45565	-2.6416e-031	0.	215.57
30736	0.6379	-3.6983e-031	0.	153.53
30737	0.82016	-4.7549e-031	0.	115.59
30738	1.0024	-5.8115e-031	0.	89.6
30739	1.1847	-6.8682e-031	0.	70.243
30740	1.3669	-7.9248e-031	0.	55.431
30741	1.5492	-8.9815e-031	0.	43.73
30742	1.7315	-1.0038e-030	0.	34.361
30743	1.9137	-1.1095e-030	0.	26.775
30744	2.096	-1.2151e-030	0.	20.6
30745	2.2782	-1.3208e-030	0.	15.563
30746	2.4605	-1.4265e-030	0.	11.463
30747	2.6427	-1.5321e-030	0.	8.1525
30748	2.825	-1.6378e-030	0.	5.5467
30749	3.0073	-1.7435e-030	0.	3.7113
30750	3.1895	-1.8491e-030	0.	2.8214
30751	3.3718	-1.9548e-030	0.	2.4362
30752	3.554	-2.0605e-030	0.	2.1898
30753	3.7363	-2.1661e-030	0.	1.9943
30754	3.9185	-2.2718e-030	0.	1.8258
30755	4.1008	-2.3774e-030	0.	1.6755
30756	4.2831	-2.4831e-030	0.	1.539
30757	4.4653	-2.5888e-030	0.	1.4138
30758	4.6476	-2.6944e-030	0.	1.2983
30759	4.8298	-2.8001e-030	0.	1.1912
30760	5.0121	-2.9058e-030	0.	1.0916
30761	5.1944	-3.0114e-030	0.	0.99845
30762	5.3766	-3.1171e-030	0.	0.91112
30763	5.5589	-3.2228e-030	0.	0.82884
30764	5.7411	-3.3284e-030	0.	0.7509
30765	5.9234	-3.4341e-030	0.	0.6766
30766	6.1056	-3.5398e-030	0.	0.60519
30767	6.2879	-3.6454e-030	0.	0.53592
30768	6.4702	-3.7511e-030	0.	0.46797
30769	6.6524	-3.8568e-030	0.	0.40048
30770	6.8347	-3.9624e-030	0.	0.33248
30771	7.0169	-4.0681e-030	0.	0.52651
30772	7.1992	-4.1737e-030	0.	0.84534
30773	7.3815	-4.2794e-030	0.	1.1524
30774	7.5637	-4.3851e-030	0.	1.4469
30775	7.746	-4.4907e-030	0.	1.7284
30776	7.9282	-4.5964e-030	0.	1.9975
30777	8.1105	-4.7021e-030	0.	2.256
30778	8.2927	-4.8077e-030	0.	2.5073
30779	8.475	-4.9134e-030	0.	2.757
30780	8.6573	-5.0191e-030	0.	3.0142
30781	8.8395	-5.1247e-030	0.	3.2921
30782	9.0218	-5.2304e-030	0.	3.6096
30783	9.204	-5.3361e-030	0.	3.9925
30784	9.3863	-5.4417e-030	0.	4.4733
30785	9.5685	-5.5474e-030	0.	5.0913
30786	9.7508	-5.653e-030	0.	5.8881
30787	9.9331	-5.7587e-030	0.	6.8984
30788	10.115	-5.8644e-030	0.	8.1334
30789	10.298	-5.97e-030	0.	9.5443
30790	10.48	-6.0757e-030	0.	10.989
30791	10.662	-6.1814e-030	0.	12.078
30792	10.844	-6.287e-030	0.	12.233
30793	11.027	-6.3927e-030	0.	11.258
30794	11.209	-6.4984e-030	0.	3.9928
30795	11.3	9.0909e-002	0.	21.74
30796	7.9472e-016	9.0909e-002	0.	150.68
30797	11.743	0.	0.	13.765
30798	11.559	0.	0.	4.4476
30799	11.927	0.	0.	16.718
30800	12.112	0.	0.	17.695
30801	12.296	0.	0.	17.096
30802	12.48	0.	0.	15.64
30803	12.665	0.	0.	13.867
30804	12.849	0.	0.	12.057
30805	13.033	0.	0.	10.374
30806	13.218	0.	0.	8.8894
30807	13.402	0.	0.	7.6295
30808	13.586	0.	0.	6.5908
30809	13.771	0.	0.	5.7564
30810	13.955	0.	0.	5.1043
30811	14.139	0.	0.	4.6111
30812	14.324	0.	0.	4.2551
30813	14.508	0.	0.	4.0162
30814	14.692	0.	0.	3.8771
30815	14.876	0.	0.	3.8226
30816	15.061	0.	0.	3.8393
30817	15.245	0.	0.	3.916
30818	15.429	0.	0.	4.0427
30819	15.614	0.	0.	4.2109
30820	15.798	0.	0.	4.4134
30821	15.982	0.	0.	4.6439
30822	16.167	0.	0.	4.897
30823	16.351	0.	0.	5.1681
30824	16.535	0.	0.	5.4534
30825	16.72	0.	0.	5.7496
30826	16.904	0.	0.	6.0541
30827	17.088	0.	0.	6.3647
30828	17.273	0.	0.	6.6795
30829	17.457	0.	0.	6.997
30830	17.641	0.	0.	7.3162
30831	17.825	0.	0.	7.636
30832	18.01	0.	0.	7.9558
30833	18.194	0.	0.	8.275
30834	18.378	0.	0.	8.5932
30835	18.563	0.	0.	8.9101
30836	18.747	0.	0.	9.2254
30837	18.931	0.	0.	9.5389
30838	19.116	0.	0.	9.8504
30839	19.3	0.	0.	10.16
30840	19.484	0.	0.	10.467
30841	19.669	0.	0.	10.771
30842	19.853	0.	0.	11.073
30843	20.037	0.	0.	11.371
30844	20.222	0.	0.	11.666
30845	20.406	0.	0.	11.956
30846	20.59	0.	0.	12.242
30847	20.775	0.	0.	12.521
30848	20.959	0.	0.	12.793
30849	21.143	0.	0.	13.057
30850	21.327	0.	0.	13.31
30851	21.512	0.	0.	13.552
30852	21.696	0.	0.	13.778
30853	21.88	0.	0.	13.987
30854	22.065	0.	0.	14.174
30855	22.249	0.	0.	14.335
30856	22.433	0.	0.	14.462
30857	22.618	0.	0.	14.548
30858	22.802	0.	0.	14.58
30859	22.986	0.	0.	14.541
30860	23.171	0.	0.	14.404
30861	23.355	0.	0.	14.108
30862	23.539	0.	0.	13.605
30863	23.724	0.	0.	12.199
30864	23.908	0.	0.	8.4458
30865	11.467	9.0909e-002	0.	15.118
30866	24.	9.0909e-002	0.	20.03
30867	5.0067e-014	5.7273	0.	-1662.7
30868	4.8478e-014	5.5455	0.	-2513.9
30869	4.6888e-014	5.3636	0.	-2947.7
30870	4.5299e-014	5.1818	0.	-3217.7
30871	4.371e-014	5.	0.	-3402.2
30872	4.212e-014	4.8182	0.	-3535.6
30873	4.0531e-014	4.6364	0.	-3635.3
30874	3.8941e-014	4.4545	0.	-3711.4
30875	3.7352e-014	4.2727	0.	-3770.2
30876	3.5762e-014	4.0909	0.	-3815.8
30877	3.4173e-014	3.9091	0.	-3851.
30878	3.2583e-014	3.7273	0.	-3877.7
30879	3.0994e-014	3.5455	0.	-3897.4
30880	2.9405e-014	3.3636	0.	-3910.9
30881	2.7815e-014	3.1818	0.	-3918.8
30882	2.6226e-014	3.	0.	-3921.5
30883	2.4636e-014	2.8182	0.	-3918.8
30884	2.3047e-014	2.6364	0.	-3910.9
30885	2.1457e-014	2.4545	0.	-3897.4
30886	1.9868e-014	2.2727	0.	-3877.7
30887	1.8279e-014	2.0909	0.	-3851.
30888	1.6689e-014	1.9091	0.	-3815.8
30889	1.51e-014	1.7273	0.	-3770.2
30890	1.351e-014	1.5455	0.	-3711.4
30891	1.1921e-014	1.3636	0.	-3635.3
30892	1.0331e-014	1.1818	0.	-3535.6
30893	8.7419e-015	1.	0.	-3402.2
30894	7.1525e-015	0.81818	0.	-3217.7
30895	5.563e-015	0.63636	0.	-2947.7
30896	3.9736e-015	0.45455	0.	-2513.9
30897	2.3842e-015	0.27273	0.	-1662.7
30898	24.	0.27273	0.	49.5
30899	24.	0.45455	0.	73.322
30900	24.	0.63636	0.	92.244
30901	24.	0.81818	0.	108.11
30902	24.	1.	0.	121.68
30903	24.	1.1818	0.	133.39
30904	24.	1.3636	0.	143.5
30905	24.	1.5455	0.	152.21
30906	24.	1.7273	0.	159.67
30907	24.	1.9091	0.	165.96
30908	24.	2.0909	0.	171.18
30909	24.	2.2727	0.	175.38
30910	24.	2.4545	0.	178.6
30911	24.	2.6364	0.	180.88
30912	24.	2.8182	0.	182.24
30913	24.	3.	0.	182.69
30914	24.	3.1818	0.	182.24
30915	24.	3.3636	0.	180.88
30916	24.	3.5455	0.	178.6
30917	24.	3.7273	0.	175.38
30918	24.	3.9091	0.	171.18
30919	24.	4.0909	0.	165.96
30920	24.	4.2727	0.	159.67
30921	24.	4.4545	0.	152.21
30922	24.	4.6364	0.	143.5
30923	24.	4.8182	0.	133.39
30924	24.	5.	0.	121.68
30925	24.	5.1818	0.	108.11
30926	24.	5.3636	0.	92.244
30927	24.	5.5455	0.	73.322
30928	24.	5.7273	0.	49.5
30929	24.	5.9091	0.	20.03
30930	23.908	6.	0.	8.4458
30931	23.724	6.	0.	12.199
30932	23.539	6.	0.	13.605
30933	23.355	6.	0.	14.108
30934	23.171	6.	0.	14.404
30935	22.986	6.	0.	14.541
30936	22.802	6.	0.	14.58
30937	22.618	6.	0.	14.548
30938	22.433	6.	0.	14.462
30939	22.249	6.	0.	14.335
30940	22.065	6.	0.	14.174
30941	21.88	6.	0.	13.987
30942	21.696	6.	0.	13.778
30943	21.512	6.	0.	13.552
30944	21.327	6.	0.	13.31
30945	21.143	6.	0.	13.057
30946	20.959	6.	0.	12.793
30947	20.775	6.	0.	12.521
30948	20.59	6.	0.	12.242
30949	20.406	6.	0.	11.956
30950	20.222	6.	0.	11.666
30951	20.037	6.	0.	11.371
30952	19.853	6.	0.	11.073
30953	19.669	6.	0.	10.771
30954	19.484	6.	0.	10.467
30955	19.3	6.	0.	10.16
30956	19.116	6.	0.	9.8504
30957	18.931	6.	0.	9.5388
30958	18.747	6.	0.	9.2253
30959	18.563	6.	0.	8.9101
30960	18.378	6.	0.	8.5932
30961	18.194	6.	0.	8.275
30962	18.01	6.	0.	7.9558
30963	17.825	6.	0.	7.636
30964	17.641	6.	0.	7.3162
30965	17.457	6.	0.	6.997
30966	17.273	6.	0.	6.6795
30967	17.088	6.	0.	6.3647
30968	16.904	6.	0.	6.0541
30969	16.72	6.	0.	5.7496
30970	16.535	6.	0.	5.4534
30971	16.351	6.	0.	5.1681
30972	16.167	6.	0.	4.897
30973	15.982	6.	0.	4.6439
30974	15.798	6.	0.	4.4134
30975	15.614	6.	0.	4.2109
30976	15.429	6.	0.	4.0427
30977	15.245	6.	0.	3.916
30978	15.061	6.	0.	3.8393
30979	14.876	6.	0.	3.8226
30980	14.692	6.	0.	3.8771
30981	14.508	6.	0.	4.0162
30982	14.324	6.	0.	4.2551
30983	14.139	6.	0.	4.6111
30984	13.955	6.	0.	5.1043
30985	13.771	6.	0.	5.7564
30986	13.586	6.	0.	6.5908
30987	13.402	6.	0.	7.6295
30988	13.218	6.	0.	8.8894
30989	13.033	6.	0.	10.374
30990	12.849	6.	0.	12.057
30991	12.665	6.	0.	13.867
30992	12.48	6.	0.	15.64
30993	12.296	6.	0.	17.096
30994	12.112	6.	0.	17.695
30995	11.927	6.	0.	16.718
30996	11.743	6.	0.	13.765
30997	11.559	6.	0.	4.4476
30998	11.467	5.9091	0.	15.118
30999	11.3	1.7273	0.	3148.6
31000	11.3	1.9091	0.	3310.6
31001	11.3	1.5455	0.	1873.7
31002	11.3	1.3636	0.	1423.4
31003	11.3	1.1818	0.	1063.3
31004	11.3	1.	0.	794.79
31005	11.3	0.81818	0.	579.34
31006	11.3	0.63636	0.	400.93
31007	11.3	0.45455	0.	251.41
31008	11.3	0.27273	0.	126.93
31009	11.383	2.	0.	1768.4
31010	11.467	0.27273	0.	90.03
31011	11.467	0.45455	0.	175.26
31012	11.467	0.63636	0.	275.36
31013	11.467	0.81818	0.	393.74
31014	11.467	1.	0.	536.77
31015	11.467	1.1818	0.	716.25
31016	11.467	1.3636	0.	962.78
31017	11.467	1.5455	0.	1253.3
31018	11.467	1.7273	0.	2241.3
31019	11.467	1.9091	0.	2119.3
31020	11.3	4.2727	0.	3148.6
31021	11.3	4.0909	0.	3310.6
31022	11.3	4.4545	0.	1873.7
31023	11.3	4.6364	0.	1423.4
31024	11.3	4.8182	0.	1063.3
31025	11.3	5.	0.	794.79
31026	11.3	5.1818	0.	579.34
31027	11.3	5.3636	0.	400.93
31028	11.3	5.5455	0.	251.41
31029	11.3	5.7273	0.	126.93
31030	11.383	4.	0.	1768.4
31031	11.467	5.7273	0.	90.03
31032	11.467	5.5455	0.	175.26
31033	11.467	5.3636	0.	275.36
31034	11.467	5.1818	0.	393.74
31035	11.467	5.	0.	536.77
31036	11.467	4.8182	0.	716.25
31037	11.467	4.6364	0.	962.78
31038	11.467	4.4545	0.	1253.3
31039	11.467	4.2727	0.	2241.3
31040	11.467	4.0909	0.	2119.3
