Node Number	X Location (in)	Y Location (in)	Z Location (in)	Equivalent (von-Mises) Stress (psi)
1	4.1	2.1818	0.	19186
2	4.1	2.3636	0.	15148
3	4.1	2.5455	0.	13297
4	4.1	2.7273	0.	12341
5	4.1	2.9091	0.	11933
6	4.1	3.0909	0.	11933
7	4.1	3.2727	0.	12341
8	4.1	3.4545	0.	13297
9	4.1	3.6364	0.	15148
10	4.1	3.8182	0.	19186
11	4.2667	2.1818	0.	18976
12	4.2667	2.3636	0.	15052
13	4.2667	2.5455	0.	13237
14	4.2667	2.7273	0.	12295
15	4.2667	2.9091	0.	11891
16	4.2667	3.0909	0.	11891
17	4.2667	3.2727	0.	12295
18	4.2667	3.4545	0.	13237
19	4.2667	3.6364	0.	15052
20	4.2667	3.8182	0.	18976
21	3.9217	5.8182	0.	1205.
22	3.9217	5.6364	0.	1756.4
23	3.9217	5.4545	0.	2430.3
24	3.9217	5.2727	0.	3167.4
25	3.9217	5.0909	0.	3986.7
26	3.9217	4.9091	0.	4930.6
27	3.9217	4.7273	0.	6073.5
28	3.9217	4.5455	0.	7540.5
29	3.9217	4.3636	0.	9654.3
30	3.9217	4.1818	0.	12753
31	3.9217	4.	0.	15255
32	3.9217	3.8182	0.	14385
33	3.9217	3.6364	0.	13369
34	3.9217	3.4545	0.	12321
35	3.9217	3.2727	0.	11716
36	3.9217	3.0909	0.	11431
37	3.9217	2.9091	0.	11431
38	3.9217	2.7273	0.	11716
39	3.9217	2.5455	0.	12321
40	3.9217	2.3636	0.	13369
41	3.9217	2.1818	0.	14385
42	3.9217	2.	0.	15255
43	3.9217	1.8182	0.	12753
44	3.9217	1.6364	0.	9654.3
45	3.9217	1.4545	0.	7540.5
46	3.9217	1.2727	0.	6073.5
47	3.9217	1.0909	0.	4930.6
48	3.9217	0.90909	0.	3986.7
49	3.9217	0.72727	0.	3167.4
50	3.9217	0.54545	0.	2430.3
51	3.9217	0.36364	0.	1756.4
52	3.9217	0.18182	0.	1205.
53	3.7435	5.8182	0.	1781.7
54	3.7435	5.6364	0.	2050.8
55	3.7435	5.4545	0.	2519.2
56	3.7435	5.2727	0.	3099.6
57	3.7435	5.0909	0.	3773.5
58	3.7435	4.9091	0.	4552.3
59	3.7435	4.7273	0.	5469.2
60	3.7435	4.5455	0.	6552.1
61	3.7435	4.3636	0.	7834.8
62	3.7435	4.1818	0.	9218.6
63	3.7435	4.	0.	10133
64	3.7435	3.8182	0.	10860
65	3.7435	3.6364	0.	11005
66	3.7435	3.4545	0.	10869
67	3.7435	3.2727	0.	10668
68	3.7435	3.0909	0.	10551
69	3.7435	2.9091	0.	10551
70	3.7435	2.7273	0.	10668
71	3.7435	2.5455	0.	10869
72	3.7435	2.3636	0.	11005
73	3.7435	2.1818	0.	10860
74	3.7435	2.	0.	10133
75	3.7435	1.8182	0.	9218.6
76	3.7435	1.6364	0.	7834.8
77	3.7435	1.4545	0.	6552.1
78	3.7435	1.2727	0.	5469.2
79	3.7435	1.0909	0.	4552.3
80	3.7435	0.90909	0.	3773.5
81	3.7435	0.72727	0.	3099.6
82	3.7435	0.54545	0.	2519.2
83	3.7435	0.36364	0.	2050.8
84	3.7435	0.18182	0.	1781.7
85	3.5652	5.8182	0.	2407.
86	3.5652	5.6364	0.	2572.8
87	3.5652	5.4545	0.	2906.3
88	3.5652	5.2727	0.	3357.7
89	3.5652	5.0909	0.	3906.2
90	3.5652	4.9091	0.	4544.4
91	3.5652	4.7273	0.	5270.6
92	3.5652	4.5455	0.	6080.3
93	3.5652	4.3636	0.	6915.5
94	3.5652	4.1818	0.	7703.6
95	3.5652	4.	0.	8390.2
96	3.5652	3.8182	0.	8939.5
97	3.5652	3.6364	0.	9331.4
98	3.5652	3.4545	0.	9501.6
99	3.5652	3.2727	0.	9547.
100	3.5652	3.0909	0.	9548.8
101	3.5652	2.9091	0.	9548.8
102	3.5652	2.7273	0.	9547.
103	3.5652	2.5455	0.	9501.6
104	3.5652	2.3636	0.	9331.4
105	3.5652	2.1818	0.	8939.5
106	3.5652	2.	0.	8390.2
107	3.5652	1.8182	0.	7703.6
108	3.5652	1.6364	0.	6915.5
109	3.5652	1.4545	0.	6080.3
110	3.5652	1.2727	0.	5270.6
111	3.5652	1.0909	0.	4544.4
112	3.5652	0.90909	0.	3906.2
113	3.5652	0.72727	0.	3357.7
114	3.5652	0.54545	0.	2906.3
115	3.5652	0.36364	0.	2572.8
116	3.5652	0.18182	0.	2407.
117	3.387	5.8182	0.	2981.5
118	3.387	5.6364	0.	3102.
119	3.387	5.4545	0.	3349.4
120	3.387	5.2727	0.	3694.9
121	3.387	5.0909	0.	4124.4
122	3.387	4.9091	0.	4624.9
123	3.387	4.7273	0.	5181.8
124	3.387	4.5455	0.	5772.5
125	3.387	4.3636	0.	6363.9
126	3.387	4.1818	0.	6912.7
127	3.387	4.	0.	7410.3
128	3.387	3.8182	0.	7845.5
129	3.387	3.6364	0.	8190.4
130	3.387	3.4545	0.	8426.1
131	3.387	3.2727	0.	8556.9
132	3.387	3.0909	0.	8611.9
133	3.387	2.9091	0.	8611.9
134	3.387	2.7273	0.	8556.9
135	3.387	2.5455	0.	8426.1
136	3.387	2.3636	0.	8190.4
137	3.387	2.1818	0.	7845.5
138	3.387	2.	0.	7410.3
139	3.387	1.8182	0.	6912.7
140	3.387	1.6364	0.	6363.9
141	3.387	1.4545	0.	5772.5
142	3.387	1.2727	0.	5181.8
143	3.387	1.0909	0.	4624.9
144	3.387	0.90909	0.	4124.4
145	3.387	0.72727	0.	3694.9
146	3.387	0.54545	0.	3349.4
147	3.387	0.36364	0.	3102.
148	3.387	0.18182	0.	2981.5
149	3.2087	5.8182	0.	3492.5
150	3.2087	5.6364	0.	3585.6
151	3.2087	5.4545	0.	3773.4
152	3.2087	5.2727	0.	4035.6
153	3.2087	5.0909	0.	4362.9
154	3.2087	4.9091	0.	4742.8
155	3.2087	4.7273	0.	5159.2
156	3.2087	4.5455	0.	5591.7
157	3.2087	4.3636	0.	6016.8
158	3.2087	4.1818	0.	6418.
159	3.2087	4.	0.	6787.4
160	3.2087	3.8182	0.	7120.7
161	3.2087	3.6364	0.	7404.2
162	3.2087	3.4545	0.	7618.8
163	3.2087	3.2727	0.	7757.7
164	3.2087	3.0909	0.	7824.4
165	3.2087	2.9091	0.	7824.4
166	3.2087	2.7273	0.	7757.7
167	3.2087	2.5455	0.	7618.8
168	3.2087	2.3636	0.	7404.2
169	3.2087	2.1818	0.	7120.7
170	3.2087	2.	0.	6787.4
171	3.2087	1.8182	0.	6418.
172	3.2087	1.6364	0.	6016.8
173	3.2087	1.4545	0.	5591.7
174	3.2087	1.2727	0.	5159.2
175	3.2087	1.0909	0.	4742.8
176	3.2087	0.90909	0.	4362.9
177	3.2087	0.72727	0.	4035.6
178	3.2087	0.54545	0.	3773.4
179	3.2087	0.36364	0.	3585.6
180	3.2087	0.18182	0.	3492.5
181	3.0304	5.8182	0.	3939.6
182	3.0304	5.6364	0.	4010.
183	3.0304	5.4545	0.	4151.6
184	3.0304	5.2727	0.	4347.2
185	3.0304	5.0909	0.	4590.3
186	3.0304	4.9091	0.	4871.2
187	3.0304	4.7273	0.	5176.6
188	3.0304	4.5455	0.	5491.6
189	3.0304	4.3636	0.	5801.8
190	3.0304	4.1818	0.	6097.5
191	3.0304	4.	0.	6373.9
192	3.0304	3.8182	0.	6626.5
193	3.0304	3.6364	0.	6846.
194	3.0304	3.4545	0.	7020.4
195	3.0304	3.2727	0.	7139.8
196	3.0304	3.0909	0.	7200.
197	3.0304	2.9091	0.	7200.
198	3.0304	2.7273	0.	7139.8
199	3.0304	2.5455	0.	7020.4
200	3.0304	2.3636	0.	6846.
201	3.0304	2.1818	0.	6626.5
202	3.0304	2.	0.	6373.9
203	3.0304	1.8182	0.	6097.5
204	3.0304	1.6364	0.	5801.8
205	3.0304	1.4545	0.	5491.6
206	3.0304	1.2727	0.	5176.6
207	3.0304	1.0909	0.	4871.2
208	3.0304	0.90909	0.	4590.3
209	3.0304	0.72727	0.	4347.2
210	3.0304	0.54545	0.	4151.6
211	3.0304	0.36364	0.	4010.
212	3.0304	0.18182	0.	3939.6
213	2.8522	5.8182	0.	4326.1
214	2.8522	5.6364	0.	4374.5
215	2.8522	5.4545	0.	4477.1
216	2.8522	5.2727	0.	4618.1
217	2.8522	5.0909	0.	4793.1
218	2.8522	4.9091	0.	4995.
219	2.8522	4.7273	0.	5214.4
220	2.8522	4.5455	0.	5441.1
221	2.8522	4.3636	0.	5666.1
222	2.8522	4.1818	0.	5883.2
223	2.8522	4.	0.	6088.5
224	2.8522	3.8182	0.	6277.7
225	2.8522	3.6364	0.	6444.
226	2.8522	3.4545	0.	6578.4
227	2.8522	3.2727	0.	6672.8
228	2.8522	3.0909	0.	6721.3
229	2.8522	2.9091	0.	6721.3
230	2.8522	2.7273	0.	6672.8
231	2.8522	2.5455	0.	6578.4
232	2.8522	2.3636	0.	6444.
233	2.8522	2.1818	0.	6277.7
234	2.8522	2.	0.	6088.5
235	2.8522	1.8182	0.	5883.2
236	2.8522	1.6364	0.	5666.1
237	2.8522	1.4545	0.	5441.1
238	2.8522	1.2727	0.	5214.4
239	2.8522	1.0909	0.	4995.
240	2.8522	0.90909	0.	4793.1
241	2.8522	0.72727	0.	4618.1
242	2.8522	0.54545	0.	4477.1
243	2.8522	0.36364	0.	4374.5
244	2.8522	0.18182	0.	4326.1
245	2.6739	5.8182	0.	4657.6
246	2.6739	5.6364	0.	4683.5
247	2.6739	5.4545	0.	4751.9
248	2.6739	5.2727	0.	4847.6
249	2.6739	5.0909	0.	4967.6
250	2.6739	4.9091	0.	5107.1
251	2.6739	4.7273	0.	5260.1
252	2.6739	4.5455	0.	5420.
253	2.6739	4.3636	0.	5580.9
254	2.6739	4.1818	0.	5738.5
255	2.6739	4.	0.	5889.3
256	2.6739	3.8182	0.	6029.2
257	2.6739	3.6364	0.	6152.9
258	2.6739	3.4545	0.	6253.9
259	2.6739	3.2727	0.	6325.3
260	2.6739	3.0909	0.	6362.4
261	2.6739	2.9091	0.	6362.4
262	2.6739	2.7273	0.	6325.3
263	2.6739	2.5455	0.	6253.9
264	2.6739	2.3636	0.	6153.
265	2.6739	2.1818	0.	6029.2
266	2.6739	2.	0.	5889.3
267	2.6739	1.8182	0.	5738.5
268	2.6739	1.6364	0.	5580.9
269	2.6739	1.4545	0.	5420.
270	2.6739	1.2727	0.	5260.1
271	2.6739	1.0909	0.	5107.1
272	2.6739	0.90909	0.	4967.6
273	2.6739	0.72727	0.	4847.6
274	2.6739	0.54545	0.	4751.9
275	2.6739	0.36364	0.	4683.5
276	2.6739	0.18182	0.	4657.6
277	2.4957	5.8182	0.	4939.9
278	2.4957	5.6364	0.	4943.3
279	2.4957	5.4545	0.	4981.1
280	2.4957	5.2727	0.	5038.8
281	2.4957	5.0909	0.	5114.3
282	2.4957	4.9091	0.	5204.9
283	2.4957	4.7273	0.	5306.8
284	2.4957	4.5455	0.	5415.9
285	2.4957	4.3636	0.	5528.4
286	2.4957	4.1818	0.	5640.9
287	2.4957	4.	0.	5750.1
288	2.4957	3.8182	0.	5852.5
289	2.4957	3.6364	0.	5943.6
290	2.4957	3.4545	0.	6018.2
291	2.4957	3.2727	0.	6071.3
292	2.4957	3.0909	0.	6099.
293	2.4957	2.9091	0.	6099.
294	2.4957	2.7273	0.	6071.3
295	2.4957	2.5455	0.	6018.2
296	2.4957	2.3636	0.	5943.6
297	2.4957	2.1818	0.	5852.5
298	2.4957	2.	0.	5750.1
299	2.4957	1.8182	0.	5640.9
300	2.4957	1.6364	0.	5528.4
301	2.4957	1.4545	0.	5415.9
302	2.4957	1.2727	0.	5306.8
303	2.4957	1.0909	0.	5204.9
304	2.4957	0.90909	0.	5114.3
305	2.4957	0.72727	0.	5038.8
306	2.4957	0.54545	0.	4981.1
307	2.4957	0.36364	0.	4943.3
308	2.4957	0.18182	0.	4939.9
309	2.3174	5.8182	0.	5179.3
310	2.3174	5.6364	0.	5160.2
311	2.3174	5.4545	0.	5170.7
312	2.3174	5.2727	0.	5196.2
313	2.3174	5.0909	0.	5235.7
314	2.3174	4.9091	0.	5287.9
315	2.3174	4.7273	0.	5350.7
316	2.3174	4.5455	0.	5421.6
317	2.3174	4.3636	0.	5497.8
318	2.3174	4.1818	0.	5576.5
319	2.3174	4.	0.	5654.8
320	2.3174	3.8182	0.	5729.3
321	2.3174	3.6364	0.	5796.1
322	2.3174	3.4545	0.	5851.2
323	2.3174	3.2727	0.	5890.4
324	2.3174	3.0909	0.	5910.9
325	2.3174	2.9091	0.	5910.9
326	2.3174	2.7273	0.	5890.4
327	2.3174	2.5455	0.	5851.2
328	2.3174	2.3636	0.	5796.1
329	2.3174	2.1818	0.	5729.3
330	2.3174	2.	0.	5654.8
331	2.3174	1.8182	0.	5576.5
332	2.3174	1.6364	0.	5497.8
333	2.3174	1.4545	0.	5421.6
334	2.3174	1.2727	0.	5350.7
335	2.3174	1.0909	0.	5287.9
336	2.3174	0.90909	0.	5235.7
337	2.3174	0.72727	0.	5196.2
338	2.3174	0.54545	0.	5170.7
339	2.3174	0.36364	0.	5160.2
340	2.3174	0.18182	0.	5179.3
341	2.1391	5.8182	0.	5381.
342	2.1391	5.6364	0.	5339.9
343	2.1391	5.4545	0.	5325.7
344	2.1391	5.2727	0.	5324.
345	2.1391	5.0909	0.	5334.4
346	2.1391	4.9091	0.	5356.7
347	2.1391	4.7273	0.	5390.1
348	2.1391	4.5455	0.	5432.7
349	2.1391	4.3636	0.	5482.5
350	2.1391	4.1818	0.	5536.9
351	2.1391	4.	0.	5592.9
352	2.1391	3.8182	0.	5647.4
353	2.1391	3.6364	0.	5697.
354	2.1391	3.4545	0.	5738.
355	2.1391	3.2727	0.	5767.4
356	2.1391	3.0909	0.	5782.8
357	2.1391	2.9091	0.	5782.8
358	2.1391	2.7273	0.	5767.4
359	2.1391	2.5455	0.	5738.
360	2.1391	2.3636	0.	5697.
361	2.1391	2.1818	0.	5647.4
362	2.1391	2.	0.	5592.9
363	2.1391	1.8182	0.	5536.9
364	2.1391	1.6364	0.	5482.5
365	2.1391	1.4545	0.	5432.7
366	2.1391	1.2727	0.	5390.1
367	2.1391	1.0909	0.	5356.7
368	2.1391	0.90909	0.	5334.4
369	2.1391	0.72727	0.	5324.
370	2.1391	0.54545	0.	5325.7
371	2.1391	0.36364	0.	5339.9
372	2.1391	0.18182	0.	5381.
373	1.9609	5.8182	0.	5549.7
374	1.9609	5.6364	0.	5486.7
375	1.9609	5.4545	0.	5450.3
376	1.9609	5.2727	0.	5425.5
377	1.9609	5.0909	0.	5412.5
378	1.9609	4.9091	0.	5412.2
379	1.9609	4.7273	0.	5424.1
380	1.9609	4.5455	0.	5446.9
381	1.9609	4.3636	0.	5478.6
382	1.9609	4.1818	0.	5516.4
383	1.9609	4.	0.	5557.6
384	1.9609	3.8182	0.	5598.7
385	1.9609	3.6364	0.	5636.6
386	1.9609	3.4545	0.	5668.3
387	1.9609	3.2727	0.	5691.1
388	1.9609	3.0909	0.	5703.
389	1.9609	2.9091	0.	5703.
390	1.9609	2.7273	0.	5691.1
391	1.9609	2.5455	0.	5668.3
392	1.9609	2.3636	0.	5636.6
393	1.9609	2.1818	0.	5598.7
394	1.9609	2.	0.	5557.6
395	1.9609	1.8182	0.	5516.4
396	1.9609	1.6364	0.	5478.6
397	1.9609	1.4545	0.	5446.9
398	1.9609	1.2727	0.	5424.1
399	1.9609	1.0909	0.	5412.2
400	1.9609	0.90909	0.	5412.5
401	1.9609	0.72727	0.	5425.5
402	1.9609	0.54545	0.	5450.3
403	1.9609	0.36364	0.	5486.7
404	1.9609	0.18182	0.	5549.7
405	1.7826	5.8182	0.	5688.4
406	1.7826	5.6364	0.	5603.7
407	1.7826	5.4545	0.	5547.1
408	1.7826	5.2727	0.	5502.8
409	1.7826	5.0909	0.	5471.7
410	1.7826	4.9091	0.	5455.
411	1.7826	4.7273	0.	5452.5
412	1.7826	4.5455	0.	5462.9
413	1.7826	4.3636	0.	5483.7
414	1.7826	4.1818	0.	5511.9
415	1.7826	4.	0.	5544.3
416	1.7826	3.8182	0.	5577.7
417	1.7826	3.6364	0.	5608.7
418	1.7826	3.4545	0.	5634.8
419	1.7826	3.2727	0.	5653.6
420	1.7826	3.0909	0.	5663.4
421	1.7826	2.9091	0.	5663.4
422	1.7826	2.7273	0.	5653.6
423	1.7826	2.5455	0.	5634.8
424	1.7826	2.3636	0.	5608.7
425	1.7826	2.1818	0.	5577.7
426	1.7826	2.	0.	5544.3
427	1.7826	1.8182	0.	5511.9
428	1.7826	1.6364	0.	5483.7
429	1.7826	1.4545	0.	5462.9
430	1.7826	1.2727	0.	5452.5
431	1.7826	1.0909	0.	5455.
432	1.7826	0.90909	0.	5471.7
433	1.7826	0.72727	0.	5502.8
434	1.7826	0.54545	0.	5547.1
435	1.7826	0.36364	0.	5603.7
436	1.7826	0.18182	0.	5688.4
437	1.6043	5.8182	0.	5798.7
438	1.6043	5.6364	0.	5692.2
439	1.6043	5.4545	0.	5617.3
440	1.6043	5.2727	0.	5556.8
441	1.6043	5.0909	0.	5512.5
442	1.6043	4.9091	0.	5485.5
443	1.6043	4.7273	0.	5475.5
444	1.6043	4.5455	0.	5480.4
445	1.6043	4.3636	0.	5497.
446	1.6043	4.1818	0.	5521.7
447	1.6043	4.	0.	5550.8
448	1.6043	3.8182	0.	5581.
449	1.6043	3.6364	0.	5609.
450	1.6043	3.4545	0.	5632.4
451	1.6043	3.2727	0.	5649.2
452	1.6043	3.0909	0.	5657.9
453	1.6043	2.9091	0.	5657.9
454	1.6043	2.7273	0.	5649.2
455	1.6043	2.5455	0.	5632.4
456	1.6043	2.3636	0.	5609.
457	1.6043	2.1818	0.	5581.
458	1.6043	2.	0.	5550.8
459	1.6043	1.8182	0.	5521.7
460	1.6043	1.6364	0.	5497.
461	1.6043	1.4545	0.	5480.4
462	1.6043	1.2727	0.	5475.5
463	1.6043	1.0909	0.	5485.5
464	1.6043	0.90909	0.	5512.5
465	1.6043	0.72727	0.	5556.8
466	1.6043	0.54545	0.	5617.3
467	1.6043	0.36364	0.	5692.2
468	1.6043	0.18182	0.	5798.7
469	1.4261	5.8182	0.	5880.3
470	1.4261	5.6364	0.	5751.4
471	1.4261	5.4545	0.	5659.8
472	1.4261	5.2727	0.	5586.9
473	1.4261	5.0909	0.	5534.6
474	1.4261	4.9091	0.	5504.1
475	1.4261	4.7273	0.	5493.7
476	1.4261	4.5455	0.	5500.
477	1.4261	4.3636	0.	5518.8
478	1.4261	4.1818	0.	5545.5
479	1.4261	4.	0.	5576.
480	1.4261	3.8182	0.	5606.7
481	1.4261	3.6364	0.	5634.8
482	1.4261	3.4545	0.	5657.9
483	1.4261	3.2727	0.	5674.2
484	1.4261	3.0909	0.	5682.6
485	1.4261	2.9091	0.	5682.6
486	1.4261	2.7273	0.	5674.2
487	1.4261	2.5455	0.	5657.9
488	1.4261	2.3636	0.	5634.8
489	1.4261	2.1818	0.	5606.7
490	1.4261	2.	0.	5576.
491	1.4261	1.8182	0.	5545.5
492	1.4261	1.6364	0.	5518.8
493	1.4261	1.4545	0.	5500.
494	1.4261	1.2727	0.	5493.7
495	1.4261	1.0909	0.	5504.1
496	1.4261	0.90909	0.	5534.6
497	1.4261	0.72727	0.	5586.9
498	1.4261	0.54545	0.	5659.8
499	1.4261	0.36364	0.	5751.4
500	1.4261	0.18182	0.	5880.3
501	1.2478	5.8182	0.	5930.2
502	1.2478	5.6364	0.	5778.1
503	1.2478	5.4545	0.	5671.9
504	1.2478	5.2727	0.	5591.1
505	1.2478	5.0909	0.	5537.8
506	1.2478	4.9091	0.	5511.6
507	1.2478	4.7273	0.	5508.9
508	1.2478	4.5455	0.	5524.
509	1.2478	4.3636	0.	5551.1
510	1.2478	4.1818	0.	5584.7
511	1.2478	4.	0.	5620.5
512	1.2478	3.8182	0.	5654.8
513	1.2478	3.6364	0.	5685.2
514	1.2478	3.4545	0.	5709.5
515	1.2478	3.2727	0.	5726.4
516	1.2478	3.0909	0.	5735.1
517	1.2478	2.9091	0.	5735.1
518	1.2478	2.7273	0.	5726.4
519	1.2478	2.5455	0.	5709.5
520	1.2478	2.3636	0.	5685.2
521	1.2478	2.1818	0.	5654.8
522	1.2478	2.	0.	5620.5
523	1.2478	1.8182	0.	5584.7
524	1.2478	1.6364	0.	5551.1
525	1.2478	1.4545	0.	5524.
526	1.2478	1.2727	0.	5508.9
527	1.2478	1.0909	0.	5511.6
528	1.2478	0.90909	0.	5537.8
529	1.2478	0.72727	0.	5591.1
530	1.2478	0.54545	0.	5671.9
531	1.2478	0.36364	0.	5778.1
532	1.2478	0.18182	0.	5930.2
533	1.0696	5.8182	0.	5941.2
534	1.0696	5.6364	0.	5764.5
535	1.0696	5.4545	0.	5646.7
536	1.0696	5.2727	0.	5564.9
537	1.0696	5.0909	0.	5520.3
538	1.0696	4.9091	0.	5509.
539	1.0696	4.7273	0.	5523.4
540	1.0696	4.5455	0.	5554.9
541	1.0696	4.3636	0.	5596.
542	1.0696	4.1818	0.	5640.6
543	1.0696	4.	0.	5684.4
544	1.0696	3.8182	0.	5724.4
545	1.0696	3.6364	0.	5758.3
546	1.0696	3.4545	0.	5784.8
547	1.0696	3.2727	0.	5802.9
548	1.0696	3.0909	0.	5812.
549	1.0696	2.9091	0.	5812.
550	1.0696	2.7273	0.	5802.9
551	1.0696	2.5455	0.	5784.8
552	1.0696	2.3636	0.	5758.3
553	1.0696	2.1818	0.	5724.4
554	1.0696	2.	0.	5684.4
555	1.0696	1.8182	0.	5640.6
556	1.0696	1.6364	0.	5596.
557	1.0696	1.4545	0.	5554.9
558	1.0696	1.2727	0.	5523.4
559	1.0696	1.0909	0.	5509.
560	1.0696	0.90909	0.	5520.3
561	1.0696	0.72727	0.	5564.9
562	1.0696	0.54545	0.	5646.7
563	1.0696	0.36364	0.	5764.5
564	1.0696	0.18182	0.	5941.2
565	0.8913	5.8182	0.	5901.1
566	0.8913	5.6364	0.	5700.
567	0.8913	5.4545	0.	5577.8
568	0.8913	5.2727	0.	5508.3
569	0.8913	5.0909	0.	5488.1
570	0.8913	4.9091	0.	5506.1
571	0.8913	4.7273	0.	5548.8
572	0.8913	4.5455	0.	5604.3
573	0.8913	4.3636	0.	5664.2
574	0.8913	4.1818	0.	5722.6
575	0.8913	4.	0.	5776.
576	0.8913	3.8182	0.	5822.2
577	0.8913	3.6364	0.	5860.1
578	0.8913	3.4545	0.	5888.8
579	0.8913	3.2727	0.	5908.1
580	0.8913	3.0909	0.	5917.8
581	0.8913	2.9091	0.	5917.8
582	0.8913	2.7273	0.	5908.1
583	0.8913	2.5455	0.	5888.8
584	0.8913	2.3636	0.	5860.1
585	0.8913	2.1818	0.	5822.2
586	0.8913	2.	0.	5776.
587	0.8913	1.8182	0.	5722.6
588	0.8913	1.6364	0.	5664.2
589	0.8913	1.4545	0.	5604.3
590	0.8913	1.2727	0.	5548.8
591	0.8913	1.0909	0.	5506.1
592	0.8913	0.90909	0.	5488.1
593	0.8913	0.72727	0.	5508.3
594	0.8913	0.54545	0.	5577.8
595	0.8913	0.36364	0.	5700.
596	0.8913	0.18182	0.	5901.1
597	0.71304	5.8182	0.	5780.5
598	0.71304	5.6364	0.	5551.9
599	0.71304	5.4545	0.	5437.6
600	0.71304	5.2727	0.	5403.1
601	0.71304	5.0909	0.	5430.3
602	0.71304	4.9091	0.	5494.8
603	0.71304	4.7273	0.	5576.2
604	0.71304	4.5455	0.	5661.
605	0.71304	4.3636	0.	5741.6
606	0.71304	4.1818	0.	5813.9
607	0.71304	4.	0.	5876.1
608	0.71304	3.8182	0.	5927.6
609	0.71304	3.6364	0.	5968.4
610	0.71304	3.4545	0.	5998.7
611	0.71304	3.2727	0.	6018.7
612	0.71304	3.0909	0.	6028.6
613	0.71304	2.9091	0.	6028.6
614	0.71304	2.7273	0.	6018.7
615	0.71304	2.5455	0.	5998.7
616	0.71304	2.3636	0.	5968.4
617	0.71304	2.1818	0.	5927.6
618	0.71304	2.	0.	5876.1
619	0.71304	1.8182	0.	5813.9
620	0.71304	1.6364	0.	5741.6
621	0.71304	1.4545	0.	5661.
622	0.71304	1.2727	0.	5576.2
623	0.71304	1.0909	0.	5494.8
624	0.71304	0.90909	0.	5430.3
625	0.71304	0.72727	0.	5403.1
626	0.71304	0.54545	0.	5437.6
627	0.71304	0.36364	0.	5551.9
628	0.71304	0.18182	0.	5780.5
629	0.53478	5.8182	0.	5544.8
630	0.53478	5.6364	0.	5321.
631	0.53478	5.4545	0.	5269.3
632	0.53478	5.2727	0.	5326.1
633	0.53478	5.0909	0.	5441.6
634	0.53478	4.9091	0.	5575.2
635	0.53478	4.7273	0.	5705.3
636	0.53478	4.5455	0.	5822.3
637	0.53478	4.3636	0.	5923.
638	0.53478	4.1818	0.	6007.2
639	0.53478	4.	0.	6076.
640	0.53478	3.8182	0.	6130.7
641	0.53478	3.6364	0.	6172.6
642	0.53478	3.4545	0.	6203.
643	0.53478	3.2727	0.	6222.7
644	0.53478	3.0909	0.	6232.4
645	0.53478	2.9091	0.	6232.4
646	0.53478	2.7273	0.	6222.7
647	0.53478	2.5455	0.	6203.
648	0.53478	2.3636	0.	6172.7
649	0.53478	2.1818	0.	6130.7
650	0.53478	2.	0.	6076.
651	0.53478	1.8182	0.	6007.2
652	0.53478	1.6364	0.	5923.
653	0.53478	1.4545	0.	5822.3
654	0.53478	1.2727	0.	5705.3
655	0.53478	1.0909	0.	5575.2
656	0.53478	0.90909	0.	5441.6
657	0.53478	0.72727	0.	5326.1
658	0.53478	0.54545	0.	5269.3
659	0.53478	0.36364	0.	5321.
660	0.53478	0.18182	0.	5544.8
661	0.35652	5.8182	0.	5022.2
662	0.35652	5.6364	0.	4777.1
663	0.35652	5.4545	0.	4849.1
664	0.35652	5.2727	0.	5051.1
665	0.35652	5.0909	0.	5269.7
666	0.35652	4.9091	0.	5466.4
667	0.35652	4.7273	0.	5631.8
668	0.35652	4.5455	0.	5767.
669	0.35652	4.3636	0.	5875.6
670	0.35652	4.1818	0.	5961.8
671	0.35652	4.	0.	6029.3
672	0.35652	3.8182	0.	6081.2
673	0.35652	3.6364	0.	6119.8
674	0.35652	3.4545	0.	6147.2
675	0.35652	3.2727	0.	6164.7
676	0.35652	3.0909	0.	6173.2
677	0.35652	2.9091	0.	6173.2
678	0.35652	2.7273	0.	6164.7
679	0.35652	2.5455	0.	6147.2
680	0.35652	2.3636	0.	6119.8
681	0.35652	2.1818	0.	6081.2
682	0.35652	2.	0.	6029.3
683	0.35652	1.8182	0.	5961.8
684	0.35652	1.6364	0.	5875.6
685	0.35652	1.4545	0.	5767.
686	0.35652	1.2727	0.	5631.8
687	0.35652	1.0909	0.	5466.4
688	0.35652	0.90909	0.	5269.7
689	0.35652	0.72727	0.	5051.1
690	0.35652	0.54545	0.	4849.1
691	0.35652	0.36364	0.	4777.1
692	0.35652	0.18182	0.	5022.2
693	0.17826	5.8182	0.	4091.
694	0.17826	5.6364	0.	4630.4
695	0.17826	5.4545	0.	5304.9
696	0.17826	5.2727	0.	5821.1
697	0.17826	5.0909	0.	6201.3
698	0.17826	4.9091	0.	6482.8
699	0.17826	4.7273	0.	6693.1
700	0.17826	4.5455	0.	6851.3
701	0.17826	4.3636	0.	6970.5
702	0.17826	4.1818	0.	7060.
703	0.17826	4.	0.	7126.6
704	0.17826	3.8182	0.	7175.5
705	0.17826	3.6364	0.	7210.3
706	0.17826	3.4545	0.	7234.2
707	0.17826	3.2727	0.	7248.9
708	0.17826	3.0909	0.	7256.
709	0.17826	2.9091	0.	7256.
710	0.17826	2.7273	0.	7248.9
711	0.17826	2.5455	0.	7234.2
712	0.17826	2.3636	0.	7210.3
713	0.17826	2.1818	0.	7175.5
714	0.17826	2.	0.	7126.6
715	0.17826	1.8182	0.	7060.
716	0.17826	1.6364	0.	6970.5
717	0.17826	1.4545	0.	6851.3
718	0.17826	1.2727	0.	6693.1
719	0.17826	1.0909	0.	6482.8
720	0.17826	0.90909	0.	6201.3
721	0.17826	0.72727	0.	5821.1
722	0.17826	0.54545	0.	5304.9
723	0.17826	0.36364	0.	4630.4
724	0.17826	0.18182	0.	4091.
725	4.4511	5.8182	0.	965.64
726	4.6355	5.8182	0.	1451.5
727	4.8199	5.8182	0.	1960.5
728	5.0044	5.8182	0.	2415.4
729	5.1888	5.8182	0.	2805.
730	5.3732	5.8182	0.	3129.3
731	5.5576	5.8182	0.	3392.4
732	5.7421	5.8182	0.	3600.3
733	5.9265	5.8182	0.	3760.1
734	6.1109	5.8182	0.	3879.
735	6.2953	5.8182	0.	3963.6
736	6.4798	5.8182	0.	4020.1
737	6.6642	5.8182	0.	4053.7
738	6.8486	5.8182	0.	4068.7
739	7.033	5.8182	0.	4068.8
740	7.2174	5.8182	0.	4057.1
741	7.4019	5.8182	0.	4036.
742	7.5863	5.8182	0.	4007.6
743	7.7707	5.8182	0.	3973.4
744	7.9551	5.8182	0.	3934.8
745	8.1396	5.8182	0.	3892.7
746	8.324	5.8182	0.	3847.9
747	8.5084	5.8182	0.	3801.2
748	8.6928	5.8182	0.	3752.9
749	8.8773	5.8182	0.	3703.6
750	9.0617	5.8182	0.	3653.4
751	9.2461	5.8182	0.	3602.7
752	9.4305	5.8182	0.	3551.6
753	9.615	5.8182	0.	3500.2
754	9.7994	5.8182	0.	3448.7
755	9.9838	5.8182	0.	3397.2
756	10.168	5.8182	0.	3345.7
757	10.353	5.8182	0.	3294.2
758	10.537	5.8182	0.	3242.9
759	10.721	5.8182	0.	3191.7
760	10.906	5.8182	0.	3140.7
761	11.09	5.8182	0.	3089.8
762	11.275	5.8182	0.	3039.1
763	11.459	5.8182	0.	2988.6
764	11.644	5.8182	0.	2938.4
765	11.828	5.8182	0.	2888.3
766	12.012	5.8182	0.	2838.4
767	12.197	5.8182	0.	2788.8
768	12.381	5.8182	0.	2739.3
769	12.566	5.8182	0.	2690.1
770	12.75	5.8182	0.	2641.1
771	12.935	5.8182	0.	2592.2
772	13.119	5.8182	0.	2543.6
773	13.303	5.8182	0.	2495.3
774	13.488	5.8182	0.	2447.1
775	13.672	5.8182	0.	2399.1
776	13.857	5.8182	0.	2351.3
777	14.041	5.8182	0.	2303.8
778	14.226	5.8182	0.	2256.5
779	14.41	5.8182	0.	2209.3
780	14.594	5.8182	0.	2162.4
781	14.779	5.8182	0.	2115.7
782	14.963	5.8182	0.	2069.2
783	15.148	5.8182	0.	2022.9
784	15.332	5.8182	0.	1976.8
785	15.517	5.8182	0.	1930.9
786	15.701	5.8182	0.	1885.2
787	15.885	5.8182	0.	1839.7
788	16.07	5.8182	0.	1794.4
789	16.254	5.8182	0.	1749.3
790	16.439	5.8182	0.	1704.4
791	16.623	5.8182	0.	1659.8
792	16.807	5.8182	0.	1615.3
793	16.992	5.8182	0.	1571.
794	17.176	5.8182	0.	1526.9
795	17.361	5.8182	0.	1483.1
796	17.545	5.8182	0.	1439.4
797	17.73	5.8182	0.	1395.9
798	17.914	5.8182	0.	1352.6
799	18.098	5.8182	0.	1309.5
800	18.283	5.8182	0.	1266.6
801	18.467	5.8182	0.	1223.9
802	18.652	5.8182	0.	1181.3
803	18.836	5.8182	0.	1139.
804	19.021	5.8182	0.	1096.8
805	19.205	5.8182	0.	1054.8
806	19.389	5.8182	0.	1013.
807	19.574	5.8182	0.	971.34
808	19.758	5.8182	0.	929.87
809	19.943	5.8182	0.	888.55
810	20.127	5.8182	0.	847.4
811	20.312	5.8182	0.	806.4
812	20.496	5.8182	0.	765.56
813	20.68	5.8182	0.	724.85
814	20.865	5.8182	0.	684.29
815	21.049	5.8182	0.	643.87
816	21.234	5.8182	0.	603.57
817	21.418	5.8182	0.	563.4
818	21.602	5.8182	0.	523.35
819	21.787	5.8182	0.	483.42
820	21.971	5.8182	0.	443.6
821	22.156	5.8182	0.	403.9
822	22.34	5.8182	0.	364.32
823	22.525	5.8182	0.	324.86
824	22.709	5.8182	0.	285.54
825	22.893	5.8182	0.	246.39
826	23.078	5.8182	0.	207.46
827	23.262	5.8182	0.	168.86
828	23.447	5.8182	0.	130.8
829	23.631	5.8182	0.	93.977
830	23.816	5.8182	0.	61.717
831	4.4511	5.6364	0.	1408.1
832	4.6355	5.6364	0.	1680.1
833	4.8199	5.6364	0.	2121.3
834	5.0044	5.6364	0.	2550.3
835	5.1888	5.6364	0.	2925.4
836	5.3732	5.6364	0.	3237.2
837	5.5576	5.6364	0.	3487.5
838	5.7421	5.6364	0.	3682.2
839	5.9265	5.6364	0.	3829.1
840	6.1109	5.6364	0.	3935.7
841	6.2953	5.6364	0.	4009.3
842	6.4798	5.6364	0.	4055.9
843	6.6642	5.6364	0.	4080.9
844	6.8486	5.6364	0.	4088.6
845	7.033	5.6364	0.	4082.7
846	7.2174	5.6364	0.	4066.
847	7.4019	5.6364	0.	4040.9
848	7.5863	5.6364	0.	4009.3
849	7.7707	5.6364	0.	3972.6
850	7.9551	5.6364	0.	3932.
851	8.1396	5.6364	0.	3888.4
852	8.324	5.6364	0.	3842.5
853	8.5084	5.6364	0.	3794.9
854	8.6928	5.6364	0.	3746.1
855	8.8773	5.6364	0.	3696.3
856	9.0617	5.6364	0.	3646.
857	9.2461	5.6364	0.	3595.1
858	9.4305	5.6364	0.	3544.
859	9.615	5.6364	0.	3492.7
860	9.7994	5.6364	0.	3441.3
861	9.9838	5.6364	0.	3389.9
862	10.168	5.6364	0.	3338.5
863	10.353	5.6364	0.	3287.2
864	10.537	5.6364	0.	3236.1
865	10.721	5.6364	0.	3185.1
866	10.906	5.6364	0.	3134.2
867	11.09	5.6364	0.	3083.5
868	11.275	5.6364	0.	3033.
869	11.459	5.6364	0.	2982.7
870	11.644	5.6364	0.	2932.6
871	11.828	5.6364	0.	2882.6
872	12.012	5.6364	0.	2832.9
873	12.197	5.6364	0.	2783.3
874	12.381	5.6364	0.	2734.
875	12.566	5.6364	0.	2684.8
876	12.75	5.6364	0.	2635.9
877	12.935	5.6364	0.	2587.2
878	13.119	5.6364	0.	2538.6
879	13.303	5.6364	0.	2490.3
880	13.488	5.6364	0.	2442.2
881	13.672	5.6364	0.	2394.2
882	13.857	5.6364	0.	2346.5
883	14.041	5.6364	0.	2299.
884	14.226	5.6364	0.	2251.7
885	14.41	5.6364	0.	2204.5
886	14.594	5.6364	0.	2157.6
887	14.779	5.6364	0.	2110.9
888	14.963	5.6364	0.	2064.4
889	15.148	5.6364	0.	2018.1
890	15.332	5.6364	0.	1972.
891	15.517	5.6364	0.	1926.1
892	15.701	5.6364	0.	1880.4
893	15.885	5.6364	0.	1834.9
894	16.07	5.6364	0.	1789.6
895	16.254	5.6364	0.	1744.5
896	16.439	5.6364	0.	1699.6
897	16.623	5.6364	0.	1654.9
898	16.807	5.6364	0.	1610.4
899	16.992	5.6364	0.	1566.1
900	17.176	5.6364	0.	1522.
901	17.361	5.6364	0.	1478.1
902	17.545	5.6364	0.	1434.4
903	17.73	5.6364	0.	1390.9
904	17.914	5.6364	0.	1347.6
905	18.098	5.6364	0.	1304.5
906	18.283	5.6364	0.	1261.6
907	18.467	5.6364	0.	1218.9
908	18.652	5.6364	0.	1176.3
909	18.836	5.6364	0.	1134.
910	19.021	5.6364	0.	1091.8
911	19.205	5.6364	0.	1049.9
912	19.389	5.6364	0.	1008.1
913	19.574	5.6364	0.	966.49
914	19.758	5.6364	0.	925.06
915	19.943	5.6364	0.	883.82
916	20.127	5.6364	0.	842.75
917	20.312	5.6364	0.	801.85
918	20.496	5.6364	0.	761.12
919	20.68	5.6364	0.	720.56
920	20.865	5.6364	0.	680.16
921	21.049	5.6364	0.	639.92
922	21.234	5.6364	0.	599.85
923	21.418	5.6364	0.	559.94
924	21.602	5.6364	0.	520.2
925	21.787	5.6364	0.	480.62
926	21.971	5.6364	0.	441.23
927	22.156	5.6364	0.	402.03
928	22.34	5.6364	0.	363.05
929	22.525	5.6364	0.	324.33
930	22.709	5.6364	0.	285.93
931	22.893	5.6364	0.	247.96
932	23.078	5.6364	0.	210.6
933	23.262	5.6364	0.	174.19
934	23.447	5.6364	0.	139.42
935	23.631	5.6364	0.	107.9
936	23.816	5.6364	0.	83.316
937	4.4511	5.4545	0.	1969.8
938	4.6355	5.4545	0.	2074.7
939	4.8199	5.4545	0.	2414.4
940	5.0044	5.4545	0.	2781.9
941	5.1888	5.4545	0.	3115.
942	5.3732	5.4545	0.	3394.3
943	5.5576	5.4545	0.	3617.2
944	5.7421	5.4545	0.	3788.4
945	5.9265	5.4545	0.	3914.8
946	6.1109	5.4545	0.	4004.
947	6.2953	5.4545	0.	4062.8
948	6.4798	5.4545	0.	4097.1
949	6.6642	5.4545	0.	4111.8
950	6.8486	5.4545	0.	4111.2
951	7.033	5.4545	0.	4098.5
952	7.2174	5.4545	0.	4076.4
953	7.4019	5.4545	0.	4047.
954	7.5863	5.4545	0.	4011.9
955	7.7707	5.4545	0.	3972.5
956	7.9551	5.4545	0.	3929.9
957	8.1396	5.4545	0.	3884.8
958	8.324	5.4545	0.	3837.8
959	8.5084	5.4545	0.	3789.5
960	8.6928	5.4545	0.	3740.1
961	8.8773	5.4545	0.	3690.1
962	9.0617	5.4545	0.	3639.5
963	9.2461	5.4545	0.	3588.7
964	9.4305	5.4545	0.	3537.6
965	9.615	5.4545	0.	3486.4
966	9.7994	5.4545	0.	3435.2
967	9.9838	5.4545	0.	3384.
968	10.168	5.4545	0.	3332.8
969	10.353	5.4545	0.	3281.8
970	10.537	5.4545	0.	3230.9
971	10.721	5.4545	0.	3180.1
972	10.906	5.4545	0.	3129.5
973	11.09	5.4545	0.	3079.
974	11.275	5.4545	0.	3028.7
975	11.459	5.4545	0.	2978.6
976	11.644	5.4545	0.	2928.7
977	11.828	5.4545	0.	2878.9
978	12.012	5.4545	0.	2829.4
979	12.197	5.4545	0.	2780.
980	12.381	5.4545	0.	2730.8
981	12.566	5.4545	0.	2681.8
982	12.75	5.4545	0.	2633.
983	12.935	5.4545	0.	2584.3
984	13.119	5.4545	0.	2535.9
985	13.303	5.4545	0.	2487.7
986	13.488	5.4545	0.	2439.6
987	13.672	5.4545	0.	2391.8
988	13.857	5.4545	0.	2344.2
989	14.041	5.4545	0.	2296.7
990	14.226	5.4545	0.	2249.5
991	14.41	5.4545	0.	2202.4
992	14.594	5.4545	0.	2155.5
993	14.779	5.4545	0.	2108.9
994	14.963	5.4545	0.	2062.4
995	15.148	5.4545	0.	2016.2
996	15.332	5.4545	0.	1970.1
997	15.517	5.4545	0.	1924.2
998	15.701	5.4545	0.	1878.6
999	15.885	5.4545	0.	1833.1
1000	16.07	5.4545	0.	1787.8
1001	16.254	5.4545	0.	1742.8
1002	16.439	5.4545	0.	1697.9
1003	16.623	5.4545	0.	1653.2
1004	16.807	5.4545	0.	1608.8
1005	16.992	5.4545	0.	1564.5
1006	17.176	5.4545	0.	1520.4
1007	17.361	5.4545	0.	1476.6
1008	17.545	5.4545	0.	1432.9
1009	17.73	5.4545	0.	1389.5
1010	17.914	5.4545	0.	1346.2
1011	18.098	5.4545	0.	1303.1
1012	18.283	5.4545	0.	1260.3
1013	18.467	5.4545	0.	1217.6
1014	18.652	5.4545	0.	1175.1
1015	18.836	5.4545	0.	1132.9
1016	19.021	5.4545	0.	1090.8
1017	19.205	5.4545	0.	1048.9
1018	19.389	5.4545	0.	1007.2
1019	19.574	5.4545	0.	965.74
1020	19.758	5.4545	0.	924.44
1021	19.943	5.4545	0.	883.33
1022	20.127	5.4545	0.	842.41
1023	20.312	5.4545	0.	801.68
1024	20.496	5.4545	0.	761.13
1025	20.68	5.4545	0.	720.77
1026	20.865	5.4545	0.	680.61
1027	21.049	5.4545	0.	640.63
1028	21.234	5.4545	0.	600.84
1029	21.418	5.4545	0.	561.26
1030	21.602	5.4545	0.	521.88
1031	21.787	5.4545	0.	482.73
1032	21.971	5.4545	0.	443.82
1033	22.156	5.4545	0.	405.19
1034	22.34	5.4545	0.	366.88
1035	22.525	5.4545	0.	328.96
1036	22.709	5.4545	0.	291.55
1037	22.893	5.4545	0.	254.8
1038	23.078	5.4545	0.	219.02
1039	23.262	5.4545	0.	184.69
1040	23.447	5.4545	0.	152.65
1041	23.631	5.4545	0.	124.45
1042	23.816	5.4545	0.	102.75
1043	4.4511	5.2727	0.	2604.7
1044	4.6355	5.2727	0.	2578.2
1045	4.8199	5.2727	0.	2814.3
1046	5.0044	5.2727	0.	3099.2
1047	5.1888	5.2727	0.	3368.2
1048	5.3732	5.2727	0.	3596.6
1049	5.5576	5.2727	0.	3778.3
1050	5.7421	5.2727	0.	3915.8
1051	5.9265	5.2727	0.	4014.8
1052	6.1109	5.2727	0.	4081.6
1053	6.2953	5.2727	0.	4122.2
1054	6.4798	5.2727	0.	4141.9
1055	6.6642	5.2727	0.	4145.
1056	6.8486	5.2727	0.	4135.
1057	7.033	5.2727	0.	4114.9
1058	7.2174	5.2727	0.	4086.9
1059	7.4019	5.2727	0.	4052.9
1060	7.5863	5.2727	0.	4014.3
1061	7.7707	5.2727	0.	3972.3
1062	7.9551	5.2727	0.	3927.6
1063	8.1396	5.2727	0.	3881.
1064	8.324	5.2727	0.	3833.
1065	8.5084	5.2727	0.	3784.
1066	8.6928	5.2727	0.	3734.1
1067	8.8773	5.2727	0.	3683.8
1068	9.0617	5.2727	0.	3633.2
1069	9.2461	5.2727	0.	3582.3
1070	9.4305	5.2727	0.	3531.3
1071	9.615	5.2727	0.	3480.2
1072	9.7994	5.2727	0.	3429.2
1073	9.9838	5.2727	0.	3378.2
1074	10.168	5.2727	0.	3327.3
1075	10.353	5.2727	0.	3276.6
1076	10.537	5.2727	0.	3225.9
1077	10.721	5.2727	0.	3175.4
1078	10.906	5.2727	0.	3125.
1079	11.09	5.2727	0.	3074.8
1080	11.275	5.2727	0.	3024.7
1081	11.459	5.2727	0.	2974.8
1082	11.644	5.2727	0.	2925.
1083	11.828	5.2727	0.	2875.5
1084	12.012	5.2727	0.	2826.1
1085	12.197	5.2727	0.	2776.9
1086	12.381	5.2727	0.	2727.8
1087	12.566	5.2727	0.	2679.
1088	12.75	5.2727	0.	2630.3
1089	12.935	5.2727	0.	2581.8
1090	13.119	5.2727	0.	2533.5
1091	13.303	5.2727	0.	2485.3
1092	13.488	5.2727	0.	2437.4
1093	13.672	5.2727	0.	2389.6
1094	13.857	5.2727	0.	2342.1
1095	14.041	5.2727	0.	2294.7
1096	14.226	5.2727	0.	2247.5
1097	14.41	5.2727	0.	2200.5
1098	14.594	5.2727	0.	2153.7
1099	14.779	5.2727	0.	2107.1
1100	14.963	5.2727	0.	2060.7
1101	15.148	5.2727	0.	2014.5
1102	15.332	5.2727	0.	1968.5
1103	15.517	5.2727	0.	1922.6
1104	15.701	5.2727	0.	1877.
1105	15.885	5.2727	0.	1831.6
1106	16.07	5.2727	0.	1786.4
1107	16.254	5.2727	0.	1741.3
1108	16.439	5.2727	0.	1696.5
1109	16.623	5.2727	0.	1651.9
1110	16.807	5.2727	0.	1607.4
1111	16.992	5.2727	0.	1563.2
1112	17.176	5.2727	0.	1519.2
1113	17.361	5.2727	0.	1475.4
1114	17.545	5.2727	0.	1431.8
1115	17.73	5.2727	0.	1388.4
1116	17.914	5.2727	0.	1345.2
1117	18.098	5.2727	0.	1302.1
1118	18.283	5.2727	0.	1259.3
1119	18.467	5.2727	0.	1216.8
1120	18.652	5.2727	0.	1174.4
1121	18.836	5.2727	0.	1132.2
1122	19.021	5.2727	0.	1090.2
1123	19.205	5.2727	0.	1048.4
1124	19.389	5.2727	0.	1006.8
1125	19.574	5.2727	0.	965.47
1126	19.758	5.2727	0.	924.31
1127	19.943	5.2727	0.	883.35
1128	20.127	5.2727	0.	842.59
1129	20.312	5.2727	0.	802.05
1130	20.496	5.2727	0.	761.71
1131	20.68	5.2727	0.	721.58
1132	20.865	5.2727	0.	681.67
1133	21.049	5.2727	0.	641.98
1134	21.234	5.2727	0.	602.52
1135	21.418	5.2727	0.	563.3
1136	21.602	5.2727	0.	524.33
1137	21.787	5.2727	0.	485.64
1138	21.971	5.2727	0.	447.27
1139	22.156	5.2727	0.	409.25
1140	22.34	5.2727	0.	371.66
1141	22.525	5.2727	0.	334.59
1142	22.709	5.2727	0.	298.18
1143	22.893	5.2727	0.	262.66
1144	23.078	5.2727	0.	228.35
1145	23.262	5.2727	0.	195.78
1146	23.447	5.2727	0.	165.76
1147	23.631	5.2727	0.	139.59
1148	23.816	5.2727	0.	119.36
1149	4.4511	5.0909	0.	3331.7
1150	4.6355	5.0909	0.	3180.3
1151	4.8199	5.0909	0.	3310.1
1152	5.0044	5.0909	0.	3496.2
1153	5.1888	5.0909	0.	3681.4
1154	5.3732	5.0909	0.	3841.5
1155	5.5576	5.0909	0.	3968.5
1156	5.7421	5.0909	0.	4062.7
1157	5.9265	5.0909	0.	4127.4
1158	6.1109	5.0909	0.	4167.3
1159	6.2953	5.0909	0.	4186.7
1160	6.4798	5.0909	0.	4189.6
1161	6.6642	5.0909	0.	4179.6
1162	6.8486	5.0909	0.	4159.4
1163	7.033	5.0909	0.	4131.3
1164	7.2174	5.0909	0.	4097.2
1165	7.4019	5.0909	0.	4058.5
1166	7.5863	5.0909	0.	4016.3
1167	7.7707	5.0909	0.	3971.6
1168	7.9551	5.0909	0.	3925.
1169	8.1396	5.0909	0.	3876.9
1170	8.324	5.0909	0.	3827.9
1171	8.5084	5.0909	0.	3778.2
1172	8.6928	5.0909	0.	3728.
1173	8.8773	5.0909	0.	3677.5
1174	9.0617	5.0909	0.	3626.7
1175	9.2461	5.0909	0.	3575.9
1176	9.4305	5.0909	0.	3525.
1177	9.615	5.0909	0.	3474.2
1178	9.7994	5.0909	0.	3423.4
1179	9.9838	5.0909	0.	3372.6
1180	10.168	5.0909	0.	3322.
1181	10.353	5.0909	0.	3271.5
1182	10.537	5.0909	0.	3221.1
1183	10.721	5.0909	0.	3170.8
1184	10.906	5.0909	0.	3120.7
1185	11.09	5.0909	0.	3070.7
1186	11.275	5.0909	0.	3020.8
1187	11.459	5.0909	0.	2971.1
1188	11.644	5.0909	0.	2921.6
1189	11.828	5.0909	0.	2872.2
1190	12.012	5.0909	0.	2823.
1191	12.197	5.0909	0.	2773.9
1192	12.381	5.0909	0.	2725.
1193	12.566	5.0909	0.	2676.3
1194	12.75	5.0909	0.	2627.8
1195	12.935	5.0909	0.	2579.4
1196	13.119	5.0909	0.	2531.2
1197	13.303	5.0909	0.	2483.2
1198	13.488	5.0909	0.	2435.3
1199	13.672	5.0909	0.	2387.6
1200	13.857	5.0909	0.	2340.1
1201	14.041	5.0909	0.	2292.8
1202	14.226	5.0909	0.	2245.7
1203	14.41	5.0909	0.	2198.8
1204	14.594	5.0909	0.	2152.
1205	14.779	5.0909	0.	2105.5
1206	14.963	5.0909	0.	2059.1
1207	15.148	5.0909	0.	2013.
1208	15.332	5.0909	0.	1967.
1209	15.517	5.0909	0.	1921.2
1210	15.701	5.0909	0.	1875.6
1211	15.885	5.0909	0.	1830.2
1212	16.07	5.0909	0.	1785.
1213	16.254	5.0909	0.	1740.
1214	16.439	5.0909	0.	1695.3
1215	16.623	5.0909	0.	1650.7
1216	16.807	5.0909	0.	1606.3
1217	16.992	5.0909	0.	1562.1
1218	17.176	5.0909	0.	1518.1
1219	17.361	5.0909	0.	1474.3
1220	17.545	5.0909	0.	1430.8
1221	17.73	5.0909	0.	1387.4
1222	17.914	5.0909	0.	1344.3
1223	18.098	5.0909	0.	1301.3
1224	18.283	5.0909	0.	1258.6
1225	18.467	5.0909	0.	1216.1
1226	18.652	5.0909	0.	1173.8
1227	18.836	5.0909	0.	1131.7
1228	19.021	5.0909	0.	1089.8
1229	19.205	5.0909	0.	1048.1
1230	19.389	5.0909	0.	1006.7
1231	19.574	5.0909	0.	965.42
1232	19.758	5.0909	0.	924.4
1233	19.943	5.0909	0.	883.6
1234	20.127	5.0909	0.	843.03
1235	20.312	5.0909	0.	802.68
1236	20.496	5.0909	0.	762.56
1237	20.68	5.0909	0.	722.68
1238	20.865	5.0909	0.	683.04
1239	21.049	5.0909	0.	643.65
1240	21.234	5.0909	0.	604.53
1241	21.418	5.0909	0.	565.69
1242	21.602	5.0909	0.	527.15
1243	21.787	5.0909	0.	488.95
1244	21.971	5.0909	0.	451.12
1245	22.156	5.0909	0.	413.73
1246	22.34	5.0909	0.	376.85
1247	22.525	5.0909	0.	340.6
1248	22.709	5.0909	0.	305.14
1249	22.893	5.0909	0.	270.71
1250	23.078	5.0909	0.	237.65
1251	23.262	5.0909	0.	206.46
1252	23.447	5.0909	0.	177.87
1253	23.631	5.0909	0.	153.
1254	23.816	5.0909	0.	133.65
1255	4.4511	4.9091	0.	4191.2
1256	4.6355	4.9091	0.	3894.1
1257	4.8199	4.9091	0.	3899.5
1258	5.0044	4.9091	0.	3965.2
1259	5.1888	4.9091	0.	4046.2
1260	5.3732	4.9091	0.	4121.9
1261	5.5576	4.9091	0.	4182.6
1262	5.7421	4.9091	0.	4225.2
1263	5.9265	4.9091	0.	4250.1
1264	6.1109	4.9091	0.	4259.1
1265	6.2953	4.9091	0.	4254.6
1266	6.4798	4.9091	0.	4239.2
1267	6.6642	4.9091	0.	4215.
1268	6.8486	4.9091	0.	4183.8
1269	7.033	4.9091	0.	4147.4
1270	7.2174	4.9091	0.	4106.9
1271	7.4019	4.9091	0.	4063.4
1272	7.5863	4.9091	0.	4017.7
1273	7.7707	4.9091	0.	3970.3
1274	7.9551	4.9091	0.	3921.8
1275	8.1396	4.9091	0.	3872.4
1276	8.324	4.9091	0.	3822.5
1277	8.5084	4.9091	0.	3772.2
1278	8.6928	4.9091	0.	3721.7
1279	8.8773	4.9091	0.	3671.
1280	9.0617	4.9091	0.	3620.3
1281	9.2461	4.9091	0.	3569.6
1282	9.4305	4.9091	0.	3518.9
1283	9.615	4.9091	0.	3468.2
1284	9.7994	4.9091	0.	3417.7
1285	9.9838	4.9091	0.	3367.2
1286	10.168	4.9091	0.	3316.8
1287	10.353	4.9091	0.	3266.6
1288	10.537	4.9091	0.	3216.4
1289	10.721	4.9091	0.	3166.4
1290	10.906	4.9091	0.	3116.5
1291	11.09	4.9091	0.	3066.8
1292	11.275	4.9091	0.	3017.1
1293	11.459	4.9091	0.	2967.7
1294	11.644	4.9091	0.	2918.3
1295	11.828	4.9091	0.	2869.1
1296	12.012	4.9091	0.	2820.1
1297	12.197	4.9091	0.	2771.2
1298	12.381	4.9091	0.	2722.4
1299	12.566	4.9091	0.	2673.8
1300	12.75	4.9091	0.	2625.4
1301	12.935	4.9091	0.	2577.1
1302	13.119	4.9091	0.	2529.
1303	13.303	4.9091	0.	2481.1
1304	13.488	4.9091	0.	2433.4
1305	13.672	4.9091	0.	2385.8
1306	13.857	4.9091	0.	2338.4
1307	14.041	4.9091	0.	2291.1
1308	14.226	4.9091	0.	2244.1
1309	14.41	4.9091	0.	2197.2
1310	14.594	4.9091	0.	2150.5
1311	14.779	4.9091	0.	2104.
1312	14.963	4.9091	0.	2057.7
1313	15.148	4.9091	0.	2011.6
1314	15.332	4.9091	0.	1965.6
1315	15.517	4.9091	0.	1919.9
1316	15.701	4.9091	0.	1874.3
1317	15.885	4.9091	0.	1829.
1318	16.07	4.9091	0.	1783.8
1319	16.254	4.9091	0.	1738.9
1320	16.439	4.9091	0.	1694.1
1321	16.623	4.9091	0.	1649.6
1322	16.807	4.9091	0.	1605.2
1323	16.992	4.9091	0.	1561.1
1324	17.176	4.9091	0.	1517.2
1325	17.361	4.9091	0.	1473.4
1326	17.545	4.9091	0.	1429.9
1327	17.73	4.9091	0.	1386.6
1328	17.914	4.9091	0.	1343.5
1329	18.098	4.9091	0.	1300.7
1330	18.283	4.9091	0.	1258.
1331	18.467	4.9091	0.	1215.5
1332	18.652	4.9091	0.	1173.3
1333	18.836	4.9091	0.	1131.3
1334	19.021	4.9091	0.	1089.5
1335	19.205	4.9091	0.	1048.
1336	19.389	4.9091	0.	1006.6
1337	19.574	4.9091	0.	965.54
1338	19.758	4.9091	0.	924.67
1339	19.943	4.9091	0.	884.04
1340	20.127	4.9091	0.	843.65
1341	20.312	4.9091	0.	803.51
1342	20.496	4.9091	0.	763.61
1343	20.68	4.9091	0.	723.98
1344	20.865	4.9091	0.	684.62
1345	21.049	4.9091	0.	645.54
1346	21.234	4.9091	0.	606.76
1347	21.418	4.9091	0.	568.3
1348	21.602	4.9091	0.	530.18
1349	21.787	4.9091	0.	492.46
1350	21.971	4.9091	0.	455.16
1351	22.156	4.9091	0.	418.37
1352	22.34	4.9091	0.	382.16
1353	22.525	4.9091	0.	346.66
1354	22.709	4.9091	0.	312.04
1355	22.893	4.9091	0.	278.54
1356	23.078	4.9091	0.	246.47
1357	23.262	4.9091	0.	216.33
1358	23.447	4.9091	0.	188.76
1359	23.631	4.9091	0.	164.8
1360	23.816	4.9091	0.	146.04
1361	4.4511	4.7273	0.	5254.8
1362	4.6355	4.7273	0.	4752.4
1363	4.8199	4.7273	0.	4582.8
1364	5.0044	4.7273	0.	4494.8
1365	5.1888	4.7273	0.	4449.9
1366	5.3732	4.7273	0.	4427.3
1367	5.5576	4.7273	0.	4412.7
1368	5.7421	4.7273	0.	4397.9
1369	5.9265	4.7273	0.	4379.
1370	6.1109	4.7273	0.	4354.5
1371	6.2953	4.7273	0.	4324.5
1372	6.4798	4.7273	0.	4289.5
1373	6.6642	4.7273	0.	4250.4
1374	6.8486	4.7273	0.	4207.9
1375	7.033	4.7273	0.	4162.9
1376	7.2174	4.7273	0.	4115.9
1377	7.4019	4.7273	0.	4067.6
1378	7.5863	4.7273	0.	4018.4
1379	7.7707	4.7273	0.	3968.5
1380	7.9551	4.7273	0.	3918.1
1381	8.1396	4.7273	0.	3867.6
1382	8.324	4.7273	0.	3816.8
1383	8.5084	4.7273	0.	3766.1
1384	8.6928	4.7273	0.	3715.3
1385	8.8773	4.7273	0.	3664.6
1386	9.0617	4.7273	0.	3613.9
1387	9.2461	4.7273	0.	3563.3
1388	9.4305	4.7273	0.	3512.8
1389	9.615	4.7273	0.	3462.4
1390	9.7994	4.7273	0.	3412.1
1391	9.9838	4.7273	0.	3361.9
1392	10.168	4.7273	0.	3311.9
1393	10.353	4.7273	0.	3261.9
1394	10.537	4.7273	0.	3212.
1395	10.721	4.7273	0.	3162.3
1396	10.906	4.7273	0.	3112.6
1397	11.09	4.7273	0.	3063.1
1398	11.275	4.7273	0.	3013.7
1399	11.459	4.7273	0.	2964.4
1400	11.644	4.7273	0.	2915.3
1401	11.828	4.7273	0.	2866.2
1402	12.012	4.7273	0.	2817.3
1403	12.197	4.7273	0.	2768.6
1404	12.381	4.7273	0.	2720.
1405	12.566	4.7273	0.	2671.5
1406	12.75	4.7273	0.	2623.2
1407	12.935	4.7273	0.	2575.1
1408	13.119	4.7273	0.	2527.1
1409	13.303	4.7273	0.	2479.2
1410	13.488	4.7273	0.	2431.6
1411	13.672	4.7273	0.	2384.
1412	13.857	4.7273	0.	2336.7
1413	14.041	4.7273	0.	2289.5
1414	14.226	4.7273	0.	2242.5
1415	14.41	4.7273	0.	2195.7
1416	14.594	4.7273	0.	2149.1
1417	14.779	4.7273	0.	2102.6
1418	14.963	4.7273	0.	2056.4
1419	15.148	4.7273	0.	2010.3
1420	15.332	4.7273	0.	1964.4
1421	15.517	4.7273	0.	1918.7
1422	15.701	4.7273	0.	1873.2
1423	15.885	4.7273	0.	1827.9
1424	16.07	4.7273	0.	1782.8
1425	16.254	4.7273	0.	1737.9
1426	16.439	4.7273	0.	1693.2
1427	16.623	4.7273	0.	1648.6
1428	16.807	4.7273	0.	1604.3
1429	16.992	4.7273	0.	1560.2
1430	17.176	4.7273	0.	1516.4
1431	17.361	4.7273	0.	1472.7
1432	17.545	4.7273	0.	1429.2
1433	17.73	4.7273	0.	1386.
1434	17.914	4.7273	0.	1342.9
1435	18.098	4.7273	0.	1300.1
1436	18.283	4.7273	0.	1257.5
1437	18.467	4.7273	0.	1215.1
1438	18.652	4.7273	0.	1173.
1439	18.836	4.7273	0.	1131.1
1440	19.021	4.7273	0.	1089.4
1441	19.205	4.7273	0.	1048.
1442	19.389	4.7273	0.	1006.8
1443	19.574	4.7273	0.	965.79
1444	19.758	4.7273	0.	925.07
1445	19.943	4.7273	0.	884.61
1446	20.127	4.7273	0.	844.4
1447	20.312	4.7273	0.	804.46
1448	20.496	4.7273	0.	764.79
1449	20.68	4.7273	0.	725.4
1450	20.865	4.7273	0.	686.31
1451	21.049	4.7273	0.	647.53
1452	21.234	4.7273	0.	609.09
1453	21.418	4.7273	0.	570.99
1454	21.602	4.7273	0.	533.29
1455	21.787	4.7273	0.	496.01
1456	21.971	4.7273	0.	459.21
1457	22.156	4.7273	0.	422.97
1458	22.34	4.7273	0.	387.36
1459	22.525	4.7273	0.	352.52
1460	22.709	4.7273	0.	318.62
1461	22.893	4.7273	0.	285.87
1462	23.078	4.7273	0.	254.6
1463	23.262	4.7273	0.	225.25
1464	23.447	4.7273	0.	198.44
1465	23.631	4.7273	0.	175.13
1466	23.816	4.7273	0.	156.79
1467	4.4511	4.5455	0.	6646.
1468	4.6355	4.5455	0.	5780.7
1469	4.8199	4.5455	0.	5356.8
1470	5.0044	4.5455	0.	5065.5
1471	5.1888	4.5455	0.	4874.7
1472	5.3732	4.5455	0.	4744.5
1473	5.5576	4.5455	0.	4649.7
1474	5.7421	4.5455	0.	4574.7
1475	5.9265	4.5455	0.	4510.1
1476	6.1109	4.5455	0.	4451.
1477	6.2953	4.5455	0.	4394.6
1478	6.4798	4.5455	0.	4339.5
1479	6.6642	4.5455	0.	4285.1
1480	6.8486	4.5455	0.	4231.1
1481	7.033	4.5455	0.	4177.5
1482	7.2174	4.5455	0.	4124.1
1483	7.4019	4.5455	0.	4071.1
1484	7.5863	4.5455	0.	4018.4
1485	7.7707	4.5455	0.	3966.1
1486	7.9551	4.5455	0.	3914.1
1487	8.1396	4.5455	0.	3862.4
1488	8.324	4.5455	0.	3811.
1489	8.5084	4.5455	0.	3759.8
1490	8.6928	4.5455	0.	3708.9
1491	8.8773	4.5455	0.	3658.2
1492	9.0617	4.5455	0.	3607.6
1493	9.2461	4.5455	0.	3557.2
1494	9.4305	4.5455	0.	3507.
1495	9.615	4.5455	0.	3456.8
1496	9.7994	4.5455	0.	3406.8
1497	9.9838	4.5455	0.	3356.9
1498	10.168	4.5455	0.	3307.1
1499	10.353	4.5455	0.	3257.4
1500	10.537	4.5455	0.	3207.8
1501	10.721	4.5455	0.	3158.3
1502	10.906	4.5455	0.	3108.9
1503	11.09	4.5455	0.	3059.6
1504	11.275	4.5455	0.	3010.5
1505	11.459	4.5455	0.	2961.4
1506	11.644	4.5455	0.	2912.4
1507	11.828	4.5455	0.	2863.6
1508	12.012	4.5455	0.	2814.8
1509	12.197	4.5455	0.	2766.2
1510	12.381	4.5455	0.	2717.8
1511	12.566	4.5455	0.	2669.4
1512	12.75	4.5455	0.	2621.2
1513	12.935	4.5455	0.	2573.2
1514	13.119	4.5455	0.	2525.3
1515	13.303	4.5455	0.	2477.5
1516	13.488	4.5455	0.	2429.9
1517	13.672	4.5455	0.	2382.5
1518	13.857	4.5455	0.	2335.2
1519	14.041	4.5455	0.	2288.1
1520	14.226	4.5455	0.	2241.2
1521	14.41	4.5455	0.	2194.4
1522	14.594	4.5455	0.	2147.8
1523	14.779	4.5455	0.	2101.4
1524	14.963	4.5455	0.	2055.2
1525	15.148	4.5455	0.	2009.2
1526	15.332	4.5455	0.	1963.3
1527	15.517	4.5455	0.	1917.7
1528	15.701	4.5455	0.	1872.2
1529	15.885	4.5455	0.	1826.9
1530	16.07	4.5455	0.	1781.8
1531	16.254	4.5455	0.	1737.
1532	16.439	4.5455	0.	1692.3
1533	16.623	4.5455	0.	1647.8
1534	16.807	4.5455	0.	1603.5
1535	16.992	4.5455	0.	1559.5
1536	17.176	4.5455	0.	1515.6
1537	17.361	4.5455	0.	1472.
1538	17.545	4.5455	0.	1428.6
1539	17.73	4.5455	0.	1385.4
1540	17.914	4.5455	0.	1342.4
1541	18.098	4.5455	0.	1299.7
1542	18.283	4.5455	0.	1257.1
1543	18.467	4.5455	0.	1214.9
1544	18.652	4.5455	0.	1172.8
1545	18.836	4.5455	0.	1131.
1546	19.021	4.5455	0.	1089.4
1547	19.205	4.5455	0.	1048.
1548	19.389	4.5455	0.	1007.
1549	19.574	4.5455	0.	966.13
1550	19.758	4.5455	0.	925.56
1551	19.943	4.5455	0.	885.25
1552	20.127	4.5455	0.	845.22
1553	20.312	4.5455	0.	805.48
1554	20.496	4.5455	0.	766.02
1555	20.68	4.5455	0.	726.87
1556	20.865	4.5455	0.	688.05
1557	21.049	4.5455	0.	649.56
1558	21.234	4.5455	0.	611.42
1559	21.418	4.5455	0.	573.68
1560	21.602	4.5455	0.	536.35
1561	21.787	4.5455	0.	499.49
1562	21.971	4.5455	0.	463.14
1563	22.156	4.5455	0.	427.38
1564	22.34	4.5455	0.	392.3
1565	22.525	4.5455	0.	358.02
1566	22.709	4.5455	0.	324.7
1567	22.893	4.5455	0.	292.57
1568	23.078	4.5455	0.	261.92
1569	23.262	4.5455	0.	233.18
1570	23.447	4.5455	0.	206.95
1571	23.631	4.5455	0.	184.14
1572	23.816	4.5455	0.	166.11
1573	4.4511	4.3636	0.	8659.
1574	4.6355	4.3636	0.	7019.1
1575	4.8199	4.3636	0.	6168.3
1576	5.0044	4.3636	0.	5648.1
1577	5.1888	4.3636	0.	5299.6
1578	5.3732	4.3636	0.	5060.7
1579	5.5576	4.3636	0.	4885.6
1580	5.7421	4.3636	0.	4750.3
1581	5.9265	4.3636	0.	4640.1
1582	6.1109	4.3636	0.	4546.2
1583	6.2953	4.3636	0.	4463.3
1584	6.4798	4.3636	0.	4388.1
1585	6.6642	4.3636	0.	4318.6
1586	6.8486	4.3636	0.	4253.2
1587	7.033	4.3636	0.	4191.
1588	7.2174	4.3636	0.	4131.4
1589	7.4019	4.3636	0.	4073.9
1590	7.5863	4.3636	0.	4018.
1591	7.7707	4.3636	0.	3963.3
1592	7.9551	4.3636	0.	3909.8
1593	8.1396	4.3636	0.	3857.1
1594	8.324	4.3636	0.	3805.1
1595	8.5084	4.3636	0.	3753.6
1596	8.6928	4.3636	0.	3702.6
1597	8.8773	4.3636	0.	3651.9
1598	9.0617	4.3636	0.	3601.5
1599	9.2461	4.3636	0.	3551.4
1600	9.4305	4.3636	0.	3501.4
1601	9.615	4.3636	0.	3451.5
1602	9.7994	4.3636	0.	3401.8
1603	9.9838	4.3636	0.	3352.2
1604	10.168	4.3636	0.	3302.7
1605	10.353	4.3636	0.	3253.3
1606	10.537	4.3636	0.	3204.
1607	10.721	4.3636	0.	3154.7
1608	10.906	4.3636	0.	3105.6
1609	11.09	4.3636	0.	3056.5
1610	11.275	4.3636	0.	3007.5
1611	11.459	4.3636	0.	2958.6
1612	11.644	4.3636	0.	2909.8
1613	11.828	4.3636	0.	2861.1
1614	12.012	4.3636	0.	2812.5
1615	12.197	4.3636	0.	2764.1
1616	12.381	4.3636	0.	2715.7
1617	12.566	4.3636	0.	2667.5
1618	12.75	4.3636	0.	2619.4
1619	12.935	4.3636	0.	2571.4
1620	13.119	4.3636	0.	2523.6
1621	13.303	4.3636	0.	2476.
1622	13.488	4.3636	0.	2428.4
1623	13.672	4.3636	0.	2381.1
1624	13.857	4.3636	0.	2333.9
1625	14.041	4.3636	0.	2286.8
1626	14.226	4.3636	0.	2239.9
1627	14.41	4.3636	0.	2193.2
1628	14.594	4.3636	0.	2146.7
1629	14.779	4.3636	0.	2100.3
1630	14.963	4.3636	0.	2054.2
1631	15.148	4.3636	0.	2008.2
1632	15.332	4.3636	0.	1962.3
1633	15.517	4.3636	0.	1916.7
1634	15.701	4.3636	0.	1871.3
1635	15.885	4.3636	0.	1826.
1636	16.07	4.3636	0.	1781.
1637	16.254	4.3636	0.	1736.2
1638	16.439	4.3636	0.	1691.5
1639	16.623	4.3636	0.	1647.1
1640	16.807	4.3636	0.	1602.9
1641	16.992	4.3636	0.	1558.8
1642	17.176	4.3636	0.	1515.
1643	17.361	4.3636	0.	1471.5
1644	17.545	4.3636	0.	1428.1
1645	17.73	4.3636	0.	1384.9
1646	17.914	4.3636	0.	1342.
1647	18.098	4.3636	0.	1299.3
1648	18.283	4.3636	0.	1256.9
1649	18.467	4.3636	0.	1214.6
1650	18.652	4.3636	0.	1172.7
1651	18.836	4.3636	0.	1130.9
1652	19.021	4.3636	0.	1089.4
1653	19.205	4.3636	0.	1048.2
1654	19.389	4.3636	0.	1007.2
1655	19.574	4.3636	0.	966.52
1656	19.758	4.3636	0.	926.09
1657	19.943	4.3636	0.	885.94
1658	20.127	4.3636	0.	846.08
1659	20.312	4.3636	0.	806.51
1660	20.496	4.3636	0.	767.26
1661	20.68	4.3636	0.	728.34
1662	20.865	4.3636	0.	689.75
1663	21.049	4.3636	0.	651.53
1664	21.234	4.3636	0.	613.68
1665	21.418	4.3636	0.	576.25
1666	21.602	4.3636	0.	539.27
1667	21.787	4.3636	0.	502.77
1668	21.971	4.3636	0.	466.82
1669	22.156	4.3636	0.	431.48
1670	22.34	4.3636	0.	396.85
1671	22.525	4.3636	0.	363.04
1672	22.709	4.3636	0.	330.21
1673	22.893	4.3636	0.	298.56
1674	23.078	4.3636	0.	268.4
1675	23.262	4.3636	0.	240.13
1676	23.447	4.3636	0.	214.35
1677	23.631	4.3636	0.	191.93
1678	23.816	4.3636	0.	174.15
1679	4.4511	4.1818	0.	11644
1680	4.6355	4.1818	0.	8361.8
1681	4.8199	4.1818	0.	6962.4
1682	5.0044	4.1818	0.	6205.
1683	5.1888	4.1818	0.	5710.1
1684	5.3732	4.1818	0.	5366.6
1685	5.5576	4.1818	0.	5114.3
1686	5.7421	4.1818	0.	4920.6
1687	5.9265	4.1818	0.	4765.9
1688	6.1109	4.1818	0.	4638.
1689	6.2953	4.1818	0.	4529.3
1690	6.4798	4.1818	0.	4434.5
1691	6.6642	4.1818	0.	4350.1
1692	6.8486	4.1818	0.	4273.7
1693	7.033	4.1818	0.	4203.4
1694	7.2174	4.1818	0.	4137.9
1695	7.4019	4.1818	0.	4076.
1696	7.5863	4.1818	0.	4017.1
1697	7.7707	4.1818	0.	3960.3
1698	7.9551	4.1818	0.	3905.4
1699	8.1396	4.1818	0.	3851.8
1700	8.324	4.1818	0.	3799.3
1701	8.5084	4.1818	0.	3747.6
1702	8.6928	4.1818	0.	3696.6
1703	8.8773	4.1818	0.	3646.
1704	9.0617	4.1818	0.	3595.8
1705	9.2461	4.1818	0.	3545.9
1706	9.4305	4.1818	0.	3496.2
1707	9.615	4.1818	0.	3446.6
1708	9.7994	4.1818	0.	3397.2
1709	9.9838	4.1818	0.	3347.9
1710	10.168	4.1818	0.	3298.7
1711	10.353	4.1818	0.	3249.5
1712	10.537	4.1818	0.	3200.5
1713	10.721	4.1818	0.	3151.4
1714	10.906	4.1818	0.	3102.5
1715	11.09	4.1818	0.	3053.6
1716	11.275	4.1818	0.	3004.8
1717	11.459	4.1818	0.	2956.1
1718	11.644	4.1818	0.	2907.5
1719	11.828	4.1818	0.	2858.9
1720	12.012	4.1818	0.	2810.5
1721	12.197	4.1818	0.	2762.1
1722	12.381	4.1818	0.	2713.9
1723	12.566	4.1818	0.	2665.8
1724	12.75	4.1818	0.	2617.8
1725	12.935	4.1818	0.	2569.9
1726	13.119	4.1818	0.	2522.2
1727	13.303	4.1818	0.	2474.6
1728	13.488	4.1818	0.	2427.1
1729	13.672	4.1818	0.	2379.8
1730	13.857	4.1818	0.	2332.7
1731	14.041	4.1818	0.	2285.7
1732	14.226	4.1818	0.	2238.9
1733	14.41	4.1818	0.	2192.2
1734	14.594	4.1818	0.	2145.7
1735	14.779	4.1818	0.	2099.4
1736	14.963	4.1818	0.	2053.2
1737	15.148	4.1818	0.	2007.3
1738	15.332	4.1818	0.	1961.5
1739	15.517	4.1818	0.	1915.9
1740	15.701	4.1818	0.	1870.5
1741	15.885	4.1818	0.	1825.3
1742	16.07	4.1818	0.	1780.3
1743	16.254	4.1818	0.	1735.5
1744	16.439	4.1818	0.	1690.9
1745	16.623	4.1818	0.	1646.5
1746	16.807	4.1818	0.	1602.3
1747	16.992	4.1818	0.	1558.3
1748	17.176	4.1818	0.	1514.5
1749	17.361	4.1818	0.	1471.
1750	17.545	4.1818	0.	1427.7
1751	17.73	4.1818	0.	1384.6
1752	17.914	4.1818	0.	1341.7
1753	18.098	4.1818	0.	1299.1
1754	18.283	4.1818	0.	1256.7
1755	18.467	4.1818	0.	1214.5
1756	18.652	4.1818	0.	1172.6
1757	18.836	4.1818	0.	1130.9
1758	19.021	4.1818	0.	1089.5
1759	19.205	4.1818	0.	1048.4
1760	19.389	4.1818	0.	1007.5
1761	19.574	4.1818	0.	966.94
1762	19.758	4.1818	0.	926.64
1763	19.943	4.1818	0.	886.62
1764	20.127	4.1818	0.	846.92
1765	20.312	4.1818	0.	807.52
1766	20.496	4.1818	0.	768.46
1767	20.68	4.1818	0.	729.73
1768	20.865	4.1818	0.	691.37
1769	21.049	4.1818	0.	653.38
1770	21.234	4.1818	0.	615.8
1771	21.418	4.1818	0.	578.65
1772	21.602	4.1818	0.	541.96
1773	21.787	4.1818	0.	505.79
1774	21.971	4.1818	0.	470.18
1775	22.156	4.1818	0.	435.2
1776	22.34	4.1818	0.	400.94
1777	22.525	4.1818	0.	367.51
1778	22.709	4.1818	0.	335.07
1779	22.893	4.1818	0.	303.81
1780	23.078	4.1818	0.	274.03
1781	23.262	4.1818	0.	246.14
1782	23.447	4.1818	0.	220.71
1783	23.631	4.1818	0.	198.59
1784	23.816	4.1818	0.	181.
1785	4.4511	4.	0.	14084
1786	4.6355	4.	0.	9368.8
1787	4.8199	4.	0.	7688.9
1788	5.0044	4.	0.	6729.2
1789	5.1888	4.	0.	6097.8
1790	5.3732	4.	0.	5657.5
1791	5.5576	4.	0.	5332.
1792	5.7421	4.	0.	5082.6
1793	5.9265	4.	0.	4885.2
1794	6.1109	4.	0.	4724.7
1795	6.2953	4.	0.	4591.1
1796	6.4798	4.	0.	4477.6
1797	6.6642	4.	0.	4379.3
1798	6.8486	4.	0.	4292.5
1799	7.033	4.	0.	4214.5
1800	7.2174	4.	0.	4143.4
1801	7.4019	4.	0.	4077.6
1802	7.5863	4.	0.	4015.9
1803	7.7707	4.	0.	3957.3
1804	7.9551	4.	0.	3901.1
1805	8.1396	4.	0.	3846.8
1806	8.324	4.	0.	3793.9
1807	8.5084	4.	0.	3742.1
1808	8.6928	4.	0.	3691.
1809	8.8773	4.	0.	3640.6
1810	9.0617	4.	0.	3590.6
1811	9.2461	4.	0.	3540.9
1812	9.4305	4.	0.	3491.4
1813	9.615	4.	0.	3442.2
1814	9.7994	4.	0.	3393.1
1815	9.9838	4.	0.	3344.
1816	10.168	4.	0.	3295.1
1817	10.353	4.	0.	3246.2
1818	10.537	4.	0.	3197.3
1819	10.721	4.	0.	3148.5
1820	10.906	4.	0.	3099.8
1821	11.09	4.	0.	3051.1
1822	11.275	4.	0.	3002.5
1823	11.459	4.	0.	2953.9
1824	11.644	4.	0.	2905.4
1825	11.828	4.	0.	2857.
1826	12.012	4.	0.	2808.7
1827	12.197	4.	0.	2760.5
1828	12.381	4.	0.	2712.3
1829	12.566	4.	0.	2664.3
1830	12.75	4.	0.	2616.4
1831	12.935	4.	0.	2568.6
1832	13.119	4.	0.	2520.9
1833	13.303	4.	0.	2473.4
1834	13.488	4.	0.	2426.
1835	13.672	4.	0.	2378.8
1836	13.857	4.	0.	2331.7
1837	14.041	4.	0.	2284.7
1838	14.226	4.	0.	2237.9
1839	14.41	4.	0.	2191.3
1840	14.594	4.	0.	2144.8
1841	14.779	4.	0.	2098.6
1842	14.963	4.	0.	2052.5
1843	15.148	4.	0.	2006.5
1844	15.332	4.	0.	1960.8
1845	15.517	4.	0.	1915.2
1846	15.701	4.	0.	1869.8
1847	15.885	4.	0.	1824.7
1848	16.07	4.	0.	1779.7
1849	16.254	4.	0.	1734.9
1850	16.439	4.	0.	1690.3
1851	16.623	4.	0.	1645.9
1852	16.807	4.	0.	1601.8
1853	16.992	4.	0.	1557.8
1854	17.176	4.	0.	1514.1
1855	17.361	4.	0.	1470.6
1856	17.545	4.	0.	1427.3
1857	17.73	4.	0.	1384.3
1858	17.914	4.	0.	1341.4
1859	18.098	4.	0.	1298.8
1860	18.283	4.	0.	1256.5
1861	18.467	4.	0.	1214.4
1862	18.652	4.	0.	1172.6
1863	18.836	4.	0.	1131.
1864	19.021	4.	0.	1089.7
1865	19.205	4.	0.	1048.6
1866	19.389	4.	0.	1007.8
1867	19.574	4.	0.	967.35
1868	19.758	4.	0.	927.16
1869	19.943	4.	0.	887.28
1870	20.127	4.	0.	847.71
1871	20.312	4.	0.	808.46
1872	20.496	4.	0.	769.56
1873	20.68	4.	0.	731.02
1874	20.865	4.	0.	692.84
1875	21.049	4.	0.	655.07
1876	21.234	4.	0.	617.71
1877	21.418	4.	0.	580.8
1878	21.602	4.	0.	544.37
1879	21.787	4.	0.	508.47
1880	21.971	4.	0.	473.15
1881	22.156	4.	0.	438.46
1882	22.34	4.	0.	404.51
1883	22.525	4.	0.	371.39
1884	22.709	4.	0.	339.25
1885	22.893	4.	0.	308.31
1886	23.078	4.	0.	278.83
1887	23.262	4.	0.	251.22
1888	23.447	4.	0.	226.07
1889	23.631	4.	0.	204.2
1890	23.816	4.	0.	186.75
1891	4.4511	3.8182	0.	13804
1892	4.6355	3.8182	0.	10217
1893	4.8199	3.8182	0.	8308.8
1894	5.0044	3.8182	0.	7204.3
1895	5.1888	3.8182	0.	6457.
1896	5.3732	3.8182	0.	5928.
1897	5.5576	3.8182	0.	5534.5
1898	5.7421	3.8182	0.	5232.7
1899	5.9265	3.8182	0.	4995.2
1900	6.1109	3.8182	0.	4804.2
1901	6.2953	3.8182	0.	4647.5
1902	6.4798	3.8182	0.	4516.7
1903	6.6642	3.8182	0.	4405.4
1904	6.8486	3.8182	0.	4309.1
1905	7.033	3.8182	0.	4224.2
1906	7.2174	3.8182	0.	4148.1
1907	7.4019	3.8182	0.	4078.8
1908	7.5863	3.8182	0.	4014.6
1909	7.7707	3.8182	0.	3954.4
1910	7.9551	3.8182	0.	3897.2
1911	8.1396	3.8182	0.	3842.3
1912	8.324	3.8182	0.	3789.
1913	8.5084	3.8182	0.	3737.1
1914	8.6928	3.8182	0.	3686.1
1915	8.8773	3.8182	0.	3635.7
1916	9.0617	3.8182	0.	3585.9
1917	9.2461	3.8182	0.	3536.5
1918	9.4305	3.8182	0.	3487.3
1919	9.615	3.8182	0.	3438.3
1920	9.7994	3.8182	0.	3389.4
1921	9.9838	3.8182	0.	3340.7
1922	10.168	3.8182	0.	3291.9
1923	10.353	3.8182	0.	3243.3
1924	10.537	3.8182	0.	3194.6
1925	10.721	3.8182	0.	3146.
1926	10.906	3.8182	0.	3097.5
1927	11.09	3.8182	0.	3049.
1928	11.275	3.8182	0.	3000.5
1929	11.459	3.8182	0.	2952.1
1930	11.644	3.8182	0.	2903.7
1931	11.828	3.8182	0.	2855.4
1932	12.012	3.8182	0.	2807.2
1933	12.197	3.8182	0.	2759.
1934	12.381	3.8182	0.	2711.
1935	12.566	3.8182	0.	2663.
1936	12.75	3.8182	0.	2615.2
1937	12.935	3.8182	0.	2567.5
1938	13.119	3.8182	0.	2519.9
1939	13.303	3.8182	0.	2472.4
1940	13.488	3.8182	0.	2425.1
1941	13.672	3.8182	0.	2377.9
1942	13.857	3.8182	0.	2330.8
1943	14.041	3.8182	0.	2283.9
1944	14.226	3.8182	0.	2237.1
1945	14.41	3.8182	0.	2190.6
1946	14.594	3.8182	0.	2144.1
1947	14.779	3.8182	0.	2097.9
1948	14.963	3.8182	0.	2051.8
1949	15.148	3.8182	0.	2005.9
1950	15.332	3.8182	0.	1960.2
1951	15.517	3.8182	0.	1914.6
1952	15.701	3.8182	0.	1869.3
1953	15.885	3.8182	0.	1824.1
1954	16.07	3.8182	0.	1779.2
1955	16.254	3.8182	0.	1734.4
1956	16.439	3.8182	0.	1689.9
1957	16.623	3.8182	0.	1645.5
1958	16.807	3.8182	0.	1601.4
1959	16.992	3.8182	0.	1557.5
1960	17.176	3.8182	0.	1513.8
1961	17.361	3.8182	0.	1470.3
1962	17.545	3.8182	0.	1427.
1963	17.73	3.8182	0.	1384.
1964	17.914	3.8182	0.	1341.2
1965	18.098	3.8182	0.	1298.7
1966	18.283	3.8182	0.	1256.4
1967	18.467	3.8182	0.	1214.4
1968	18.652	3.8182	0.	1172.6
1969	18.836	3.8182	0.	1131.
1970	19.021	3.8182	0.	1089.8
1971	19.205	3.8182	0.	1048.8
1972	19.389	3.8182	0.	1008.1
1973	19.574	3.8182	0.	967.73
1974	19.758	3.8182	0.	927.64
1975	19.943	3.8182	0.	887.87
1976	20.127	3.8182	0.	848.41
1977	20.312	3.8182	0.	809.3
1978	20.496	3.8182	0.	770.54
1979	20.68	3.8182	0.	732.14
1980	20.865	3.8182	0.	694.14
1981	21.049	3.8182	0.	656.54
1982	21.234	3.8182	0.	619.37
1983	21.418	3.8182	0.	582.66
1984	21.602	3.8182	0.	546.45
1985	21.787	3.8182	0.	510.77
1986	21.971	3.8182	0.	475.67
1987	22.156	3.8182	0.	441.23
1988	22.34	3.8182	0.	407.51
1989	22.525	3.8182	0.	374.64
1990	22.709	3.8182	0.	342.75
1991	22.893	3.8182	0.	312.04
1992	23.078	3.8182	0.	282.79
1993	23.262	3.8182	0.	255.42
1994	23.447	3.8182	0.	230.47
1995	23.631	3.8182	0.	208.8
1996	23.816	3.8182	0.	191.47
1997	4.4511	3.6364	0.	13046
1998	4.6355	3.6364	0.	10522
1999	4.8199	3.6364	0.	8781.3
2000	5.0044	3.6364	0.	7598.
2001	5.1888	3.6364	0.	6771.
2002	5.3732	3.6364	0.	6167.7
2003	5.5576	3.6364	0.	5714.5
2004	5.7421	3.6364	0.	5365.8
2005	5.9265	3.6364	0.	5092.2
2006	6.1109	3.6364	0.	4873.8
2007	6.2953	3.6364	0.	4696.6
2008	6.4798	3.6364	0.	4550.4
2009	6.6642	3.6364	0.	4427.8
2010	6.8486	3.6364	0.	4323.2
2011	7.033	3.6364	0.	4232.4
2012	7.2174	3.6364	0.	4152.
2013	7.4019	3.6364	0.	4079.7
2014	7.5863	3.6364	0.	4013.5
2015	7.7707	3.6364	0.	3951.9
2016	7.9551	3.6364	0.	3893.8
2017	8.1396	3.6364	0.	3838.3
2018	8.324	3.6364	0.	3784.9
2019	8.5084	3.6364	0.	3732.8
2020	8.6928	3.6364	0.	3681.9
2021	8.8773	3.6364	0.	3631.7
2022	9.0617	3.6364	0.	3582.1
2023	9.2461	3.6364	0.	3532.8
2024	9.4305	3.6364	0.	3483.9
2025	9.615	3.6364	0.	3435.1
2026	9.7994	3.6364	0.	3386.5
2027	9.9838	3.6364	0.	3337.9
2028	10.168	3.6364	0.	3289.4
2029	10.353	3.6364	0.	3240.9
2030	10.537	3.6364	0.	3192.4
2031	10.721	3.6364	0.	3144.
2032	10.906	3.6364	0.	3095.6
2033	11.09	3.6364	0.	3047.2
2034	11.275	3.6364	0.	2998.8
2035	11.459	3.6364	0.	2950.5
2036	11.644	3.6364	0.	2902.3
2037	11.828	3.6364	0.	2854.1
2038	12.012	3.6364	0.	2805.9
2039	12.197	3.6364	0.	2757.9
2040	12.381	3.6364	0.	2709.9
2041	12.566	3.6364	0.	2662.
2042	12.75	3.6364	0.	2614.3
2043	12.935	3.6364	0.	2566.6
2044	13.119	3.6364	0.	2519.
2045	13.303	3.6364	0.	2471.6
2046	13.488	3.6364	0.	2424.3
2047	13.672	3.6364	0.	2377.1
2048	13.857	3.6364	0.	2330.1
2049	14.041	3.6364	0.	2283.2
2050	14.226	3.6364	0.	2236.5
2051	14.41	3.6364	0.	2190.
2052	14.594	3.6364	0.	2143.6
2053	14.779	3.6364	0.	2097.3
2054	14.963	3.6364	0.	2051.3
2055	15.148	3.6364	0.	2005.4
2056	15.332	3.6364	0.	1959.7
2057	15.517	3.6364	0.	1914.2
2058	15.701	3.6364	0.	1868.9
2059	15.885	3.6364	0.	1823.7
2060	16.07	3.6364	0.	1778.8
2061	16.254	3.6364	0.	1734.
2062	16.439	3.6364	0.	1689.5
2063	16.623	3.6364	0.	1645.2
2064	16.807	3.6364	0.	1601.1
2065	16.992	3.6364	0.	1557.2
2066	17.176	3.6364	0.	1513.5
2067	17.361	3.6364	0.	1470.1
2068	17.545	3.6364	0.	1426.8
2069	17.73	3.6364	0.	1383.8
2070	17.914	3.6364	0.	1341.1
2071	18.098	3.6364	0.	1298.6
2072	18.283	3.6364	0.	1256.3
2073	18.467	3.6364	0.	1214.3
2074	18.652	3.6364	0.	1172.6
2075	18.836	3.6364	0.	1131.1
2076	19.021	3.6364	0.	1089.9
2077	19.205	3.6364	0.	1049.
2078	19.389	3.6364	0.	1008.4
2079	19.574	3.6364	0.	968.06
2080	19.758	3.6364	0.	928.05
2081	19.943	3.6364	0.	888.37
2082	20.127	3.6364	0.	849.01
2083	20.312	3.6364	0.	810.
2084	20.496	3.6364	0.	771.35
2085	20.68	3.6364	0.	733.09
2086	20.865	3.6364	0.	695.21
2087	21.049	3.6364	0.	657.75
2088	21.234	3.6364	0.	620.74
2089	21.418	3.6364	0.	584.19
2090	21.602	3.6364	0.	548.15
2091	21.787	3.6364	0.	512.64
2092	21.971	3.6364	0.	477.73
2093	22.156	3.6364	0.	443.47
2094	22.34	3.6364	0.	409.94
2095	22.525	3.6364	0.	377.25
2096	22.709	3.6364	0.	345.54
2097	22.893	3.6364	0.	315.02
2098	23.078	3.6364	0.	285.95
2099	23.262	3.6364	0.	258.74
2100	23.447	3.6364	0.	233.96
2101	23.631	3.6364	0.	212.43
2102	23.816	3.6364	0.	195.19
2103	4.4511	3.4545	0.	12104
2104	4.6355	3.4545	0.	10500
2105	4.8199	3.4545	0.	9029.3
2106	5.0044	3.4545	0.	7882.8
2107	5.1888	3.4545	0.	7016.9
2108	5.3732	3.4545	0.	6362.3
2109	5.5576	3.4545	0.	5862.1
2110	5.7421	3.4545	0.	5475.
2111	5.9265	3.4545	0.	5171.5
2112	6.1109	3.4545	0.	4930.4
2113	6.2953	3.4545	0.	4736.1
2114	6.4798	3.4545	0.	4577.4
2115	6.6642	3.4545	0.	4445.6
2116	6.8486	3.4545	0.	4334.4
2117	7.033	3.4545	0.	4238.7
2118	7.2174	3.4545	0.	4155.
2119	7.4019	3.4545	0.	4080.3
2120	7.5863	3.4545	0.	4012.5
2121	7.7707	3.4545	0.	3949.8
2122	7.9551	3.4545	0.	3891.1
2123	8.1396	3.4545	0.	3835.2
2124	8.324	3.4545	0.	3781.6
2125	8.5084	3.4545	0.	3729.5
2126	8.6928	3.4545	0.	3678.6
2127	8.8773	3.4545	0.	3628.5
2128	9.0617	3.4545	0.	3579.1
2129	9.2461	3.4545	0.	3530.
2130	9.4305	3.4545	0.	3481.2
2131	9.615	3.4545	0.	3432.6
2132	9.7994	3.4545	0.	3384.1
2133	9.9838	3.4545	0.	3335.7
2134	10.168	3.4545	0.	3287.4
2135	10.353	3.4545	0.	3239.1
2136	10.537	3.4545	0.	3190.7
2137	10.721	3.4545	0.	3142.4
2138	10.906	3.4545	0.	3094.1
2139	11.09	3.4545	0.	3045.9
2140	11.275	3.4545	0.	2997.6
2141	11.459	3.4545	0.	2949.4
2142	11.644	3.4545	0.	2901.2
2143	11.828	3.4545	0.	2853.1
2144	12.012	3.4545	0.	2805.
2145	12.197	3.4545	0.	2757.
2146	12.381	3.4545	0.	2709.1
2147	12.566	3.4545	0.	2661.3
2148	12.75	3.4545	0.	2613.5
2149	12.935	3.4545	0.	2565.9
2150	13.119	3.4545	0.	2518.4
2151	13.303	3.4545	0.	2471.
2152	13.488	3.4545	0.	2423.7
2153	13.672	3.4545	0.	2376.6
2154	13.857	3.4545	0.	2329.6
2155	14.041	3.4545	0.	2282.7
2156	14.226	3.4545	0.	2236.1
2157	14.41	3.4545	0.	2189.5
2158	14.594	3.4545	0.	2143.1
2159	14.779	3.4545	0.	2096.9
2160	14.963	3.4545	0.	2050.9
2161	15.148	3.4545	0.	2005.
2162	15.332	3.4545	0.	1959.3
2163	15.517	3.4545	0.	1913.8
2164	15.701	3.4545	0.	1868.5
2165	15.885	3.4545	0.	1823.4
2166	16.07	3.4545	0.	1778.5
2167	16.254	3.4545	0.	1733.8
2168	16.439	3.4545	0.	1689.2
2169	16.623	3.4545	0.	1644.9
2170	16.807	3.4545	0.	1600.8
2171	16.992	3.4545	0.	1557.
2172	17.176	3.4545	0.	1513.3
2173	17.361	3.4545	0.	1469.9
2174	17.545	3.4545	0.	1426.7
2175	17.73	3.4545	0.	1383.7
2176	17.914	3.4545	0.	1341.
2177	18.098	3.4545	0.	1298.5
2178	18.283	3.4545	0.	1256.3
2179	18.467	3.4545	0.	1214.3
2180	18.652	3.4545	0.	1172.6
2181	18.836	3.4545	0.	1131.2
2182	19.021	3.4545	0.	1090.
2183	19.205	3.4545	0.	1049.2
2184	19.389	3.4545	0.	1008.6
2185	19.574	3.4545	0.	968.33
2186	19.758	3.4545	0.	928.38
2187	19.943	3.4545	0.	888.76
2188	20.127	3.4545	0.	849.48
2189	20.312	3.4545	0.	810.55
2190	20.496	3.4545	0.	771.99
2191	20.68	3.4545	0.	733.81
2192	20.865	3.4545	0.	696.04
2193	21.049	3.4545	0.	658.69
2194	21.234	3.4545	0.	621.79
2195	21.418	3.4545	0.	585.36
2196	21.602	3.4545	0.	549.44
2197	21.787	3.4545	0.	514.07
2198	21.971	3.4545	0.	479.29
2199	22.156	3.4545	0.	445.16
2200	22.34	3.4545	0.	411.77
2201	22.525	3.4545	0.	379.22
2202	22.709	3.4545	0.	347.64
2203	22.893	3.4545	0.	317.24
2204	23.078	3.4545	0.	288.3
2205	23.262	3.4545	0.	261.22
2206	23.447	3.4545	0.	236.56
2207	23.631	3.4545	0.	215.13
2208	23.816	3.4545	0.	197.95
2209	4.4511	3.2727	0.	11546
2210	4.6355	3.2727	0.	10364
2211	4.8199	3.2727	0.	9130.2
2212	5.0044	3.2727	0.	8052.4
2213	5.1888	3.2727	0.	7181.4
2214	5.3732	3.2727	0.	6498.2
2215	5.5576	3.2727	0.	5966.9
2216	5.7421	3.2727	0.	5552.8
2217	5.9265	3.2727	0.	5227.9
2218	6.1109	3.2727	0.	4970.5
2219	6.2953	3.2727	0.	4764.1
2220	6.4798	3.2727	0.	4596.4
2221	6.6642	3.2727	0.	4458.1
2222	6.8486	3.2727	0.	4342.1
2223	7.033	3.2727	0.	4243.1
2224	7.2174	3.2727	0.	4157.
2225	7.4019	3.2727	0.	4080.7
2226	7.5863	3.2727	0.	4011.7
2227	7.7707	3.2727	0.	3948.4
2228	7.9551	3.2727	0.	3889.2
2229	8.1396	3.2727	0.	3833.1
2230	8.324	3.2727	0.	3779.3
2231	8.5084	3.2727	0.	3727.2
2232	8.6928	3.2727	0.	3676.4
2233	8.8773	3.2727	0.	3626.4
2234	9.0617	3.2727	0.	3577.
2235	9.2461	3.2727	0.	3528.1
2236	9.4305	3.2727	0.	3479.4
2237	9.615	3.2727	0.	3430.9
2238	9.7994	3.2727	0.	3382.6
2239	9.9838	3.2727	0.	3334.3
2240	10.168	3.2727	0.	3286.
2241	10.353	3.2727	0.	3237.8
2242	10.537	3.2727	0.	3189.6
2243	10.721	3.2727	0.	3141.4
2244	10.906	3.2727	0.	3093.2
2245	11.09	3.2727	0.	3045.
2246	11.275	3.2727	0.	2996.8
2247	11.459	3.2727	0.	2948.6
2248	11.644	3.2727	0.	2900.5
2249	11.828	3.2727	0.	2852.4
2250	12.012	3.2727	0.	2804.4
2251	12.197	3.2727	0.	2756.4
2252	12.381	3.2727	0.	2708.5
2253	12.566	3.2727	0.	2660.7
2254	12.75	3.2727	0.	2613.
2255	12.935	3.2727	0.	2565.4
2256	13.119	3.2727	0.	2518.
2257	13.303	3.2727	0.	2470.6
2258	13.488	3.2727	0.	2423.3
2259	13.672	3.2727	0.	2376.2
2260	13.857	3.2727	0.	2329.2
2261	14.041	3.2727	0.	2282.4
2262	14.226	3.2727	0.	2235.7
2263	14.41	3.2727	0.	2189.2
2264	14.594	3.2727	0.	2142.8
2265	14.779	3.2727	0.	2096.6
2266	14.963	3.2727	0.	2050.6
2267	15.148	3.2727	0.	2004.8
2268	15.332	3.2727	0.	1959.1
2269	15.517	3.2727	0.	1913.6
2270	15.701	3.2727	0.	1868.3
2271	15.885	3.2727	0.	1823.2
2272	16.07	3.2727	0.	1778.3
2273	16.254	3.2727	0.	1733.6
2274	16.439	3.2727	0.	1689.1
2275	16.623	3.2727	0.	1644.8
2276	16.807	3.2727	0.	1600.7
2277	16.992	3.2727	0.	1556.8
2278	17.176	3.2727	0.	1513.2
2279	17.361	3.2727	0.	1469.8
2280	17.545	3.2727	0.	1426.6
2281	17.73	3.2727	0.	1383.6
2282	17.914	3.2727	0.	1340.9
2283	18.098	3.2727	0.	1298.5
2284	18.283	3.2727	0.	1256.3
2285	18.467	3.2727	0.	1214.3
2286	18.652	3.2727	0.	1172.6
2287	18.836	3.2727	0.	1131.2
2288	19.021	3.2727	0.	1090.1
2289	19.205	3.2727	0.	1049.3
2290	19.389	3.2727	0.	1008.7
2291	19.574	3.2727	0.	968.51
2292	19.758	3.2727	0.	928.6
2293	19.943	3.2727	0.	889.03
2294	20.127	3.2727	0.	849.8
2295	20.312	3.2727	0.	810.92
2296	20.496	3.2727	0.	772.42
2297	20.68	3.2727	0.	734.31
2298	20.865	3.2727	0.	696.6
2299	21.049	3.2727	0.	659.33
2300	21.234	3.2727	0.	622.5
2301	21.418	3.2727	0.	586.15
2302	21.602	3.2727	0.	550.32
2303	21.787	3.2727	0.	515.03
2304	21.971	3.2727	0.	480.34
2305	22.156	3.2727	0.	446.3
2306	22.34	3.2727	0.	413.
2307	22.525	3.2727	0.	380.53
2308	22.709	3.2727	0.	349.04
2309	22.893	3.2727	0.	318.72
2310	23.078	3.2727	0.	289.86
2311	23.262	3.2727	0.	262.86
2312	23.447	3.2727	0.	238.28
2313	23.631	3.2727	0.	216.92
2314	23.816	3.2727	0.	199.78
2315	4.4511	3.0909	0.	11280
2316	4.6355	3.0909	0.	10276
2317	4.8199	3.0909	0.	9159.8
2318	5.0044	3.0909	0.	8128.5
2319	5.1888	3.0909	0.	7262.4
2320	5.3732	3.0909	0.	6567.8
2321	5.5576	3.0909	0.	6021.3
2322	5.7421	3.0909	0.	5593.4
2323	5.9265	3.0909	0.	5257.3
2324	6.1109	3.0909	0.	4991.4
2325	6.2953	3.0909	0.	4778.6
2326	6.4798	3.0909	0.	4606.2
2327	6.6642	3.0909	0.	4464.5
2328	6.8486	3.0909	0.	4346.1
2329	7.033	3.0909	0.	4245.4
2330	7.2174	3.0909	0.	4158.
2331	7.4019	3.0909	0.	4080.9
2332	7.5863	3.0909	0.	4011.4
2333	7.7707	3.0909	0.	3947.6
2334	7.9551	3.0909	0.	3888.2
2335	8.1396	3.0909	0.	3832.
2336	8.324	3.0909	0.	3778.1
2337	8.5084	3.0909	0.	3726.
2338	8.6928	3.0909	0.	3675.2
2339	8.8773	3.0909	0.	3625.3
2340	9.0617	3.0909	0.	3575.9
2341	9.2461	3.0909	0.	3527.1
2342	9.4305	3.0909	0.	3478.5
2343	9.615	3.0909	0.	3430.1
2344	9.7994	3.0909	0.	3381.8
2345	9.9838	3.0909	0.	3333.6
2346	10.168	3.0909	0.	3285.4
2347	10.353	3.0909	0.	3237.2
2348	10.537	3.0909	0.	3189.
2349	10.721	3.0909	0.	3140.8
2350	10.906	3.0909	0.	3092.7
2351	11.09	3.0909	0.	3044.5
2352	11.275	3.0909	0.	2996.3
2353	11.459	3.0909	0.	2948.2
2354	11.644	3.0909	0.	2900.1
2355	11.828	3.0909	0.	2852.1
2356	12.012	3.0909	0.	2804.1
2357	12.197	3.0909	0.	2756.1
2358	12.381	3.0909	0.	2708.3
2359	12.566	3.0909	0.	2660.5
2360	12.75	3.0909	0.	2612.8
2361	12.935	3.0909	0.	2565.2
2362	13.119	3.0909	0.	2517.7
2363	13.303	3.0909	0.	2470.4
2364	13.488	3.0909	0.	2423.1
2365	13.672	3.0909	0.	2376.
2366	13.857	3.0909	0.	2329.1
2367	14.041	3.0909	0.	2282.3
2368	14.226	3.0909	0.	2235.6
2369	14.41	3.0909	0.	2189.1
2370	14.594	3.0909	0.	2142.7
2371	14.779	3.0909	0.	2096.5
2372	14.963	3.0909	0.	2050.5
2373	15.148	3.0909	0.	2004.6
2374	15.332	3.0909	0.	1959.
2375	15.517	3.0909	0.	1913.5
2376	15.701	3.0909	0.	1868.2
2377	15.885	3.0909	0.	1823.1
2378	16.07	3.0909	0.	1778.2
2379	16.254	3.0909	0.	1733.5
2380	16.439	3.0909	0.	1689.
2381	16.623	3.0909	0.	1644.7
2382	16.807	3.0909	0.	1600.6
2383	16.992	3.0909	0.	1556.8
2384	17.176	3.0909	0.	1513.1
2385	17.361	3.0909	0.	1469.7
2386	17.545	3.0909	0.	1426.5
2387	17.73	3.0909	0.	1383.6
2388	17.914	3.0909	0.	1340.9
2389	18.098	3.0909	0.	1298.4
2390	18.283	3.0909	0.	1256.2
2391	18.467	3.0909	0.	1214.3
2392	18.652	3.0909	0.	1172.6
2393	18.836	3.0909	0.	1131.3
2394	19.021	3.0909	0.	1090.1
2395	19.205	3.0909	0.	1049.3
2396	19.389	3.0909	0.	1008.8
2397	19.574	3.0909	0.	968.6
2398	19.758	3.0909	0.	928.72
2399	19.943	3.0909	0.	889.17
2400	20.127	3.0909	0.	849.96
2401	20.312	3.0909	0.	811.11
2402	20.496	3.0909	0.	772.64
2403	20.68	3.0909	0.	734.56
2404	20.865	3.0909	0.	696.89
2405	21.049	3.0909	0.	659.65
2406	21.234	3.0909	0.	622.86
2407	21.418	3.0909	0.	586.55
2408	21.602	3.0909	0.	550.76
2409	21.787	3.0909	0.	515.51
2410	21.971	3.0909	0.	480.86
2411	22.156	3.0909	0.	446.87
2412	22.34	3.0909	0.	413.61
2413	22.525	3.0909	0.	381.18
2414	22.709	3.0909	0.	349.74
2415	22.893	3.0909	0.	319.46
2416	23.078	3.0909	0.	290.64
2417	23.262	3.0909	0.	263.68
2418	23.447	3.0909	0.	239.14
2419	23.631	3.0909	0.	217.81
2420	23.816	3.0909	0.	200.69
2421	4.4511	2.9091	0.	11280
2422	4.6355	2.9091	0.	10276
2423	4.8199	2.9091	0.	9159.8
2424	5.0044	2.9091	0.	8128.5
2425	5.1888	2.9091	0.	7262.4
2426	5.3732	2.9091	0.	6567.8
2427	5.5576	2.9091	0.	6021.3
2428	5.7421	2.9091	0.	5593.4
2429	5.9265	2.9091	0.	5257.3
2430	6.1109	2.9091	0.	4991.4
2431	6.2953	2.9091	0.	4778.6
2432	6.4798	2.9091	0.	4606.2
2433	6.6642	2.9091	0.	4464.5
2434	6.8486	2.9091	0.	4346.1
2435	7.033	2.9091	0.	4245.4
2436	7.2174	2.9091	0.	4158.
2437	7.4019	2.9091	0.	4080.9
2438	7.5863	2.9091	0.	4011.4
2439	7.7707	2.9091	0.	3947.6
2440	7.9551	2.9091	0.	3888.2
2441	8.1396	2.9091	0.	3832.
2442	8.324	2.9091	0.	3778.1
2443	8.5084	2.9091	0.	3726.
2444	8.6928	2.9091	0.	3675.2
2445	8.8773	2.9091	0.	3625.3
2446	9.0617	2.9091	0.	3575.9
2447	9.2461	2.9091	0.	3527.1
2448	9.4305	2.9091	0.	3478.5
2449	9.615	2.9091	0.	3430.1
2450	9.7994	2.9091	0.	3381.8
2451	9.9838	2.9091	0.	3333.6
2452	10.168	2.9091	0.	3285.4
2453	10.353	2.9091	0.	3237.2
2454	10.537	2.9091	0.	3189.
2455	10.721	2.9091	0.	3140.8
2456	10.906	2.9091	0.	3092.7
2457	11.09	2.9091	0.	3044.5
2458	11.275	2.9091	0.	2996.3
2459	11.459	2.9091	0.	2948.2
2460	11.644	2.9091	0.	2900.1
2461	11.828	2.9091	0.	2852.1
2462	12.012	2.9091	0.	2804.1
2463	12.197	2.9091	0.	2756.1
2464	12.381	2.9091	0.	2708.3
2465	12.566	2.9091	0.	2660.5
2466	12.75	2.9091	0.	2612.8
2467	12.935	2.9091	0.	2565.2
2468	13.119	2.9091	0.	2517.7
2469	13.303	2.9091	0.	2470.4
2470	13.488	2.9091	0.	2423.1
2471	13.672	2.9091	0.	2376.
2472	13.857	2.9091	0.	2329.1
2473	14.041	2.9091	0.	2282.3
2474	14.226	2.9091	0.	2235.6
2475	14.41	2.9091	0.	2189.1
2476	14.594	2.9091	0.	2142.7
2477	14.779	2.9091	0.	2096.5
2478	14.963	2.9091	0.	2050.5
2479	15.148	2.9091	0.	2004.6
2480	15.332	2.9091	0.	1959.
2481	15.517	2.9091	0.	1913.5
2482	15.701	2.9091	0.	1868.2
2483	15.885	2.9091	0.	1823.1
2484	16.07	2.9091	0.	1778.2
2485	16.254	2.9091	0.	1733.5
2486	16.439	2.9091	0.	1689.
2487	16.623	2.9091	0.	1644.7
2488	16.807	2.9091	0.	1600.6
2489	16.992	2.9091	0.	1556.8
2490	17.176	2.9091	0.	1513.1
2491	17.361	2.9091	0.	1469.7
2492	17.545	2.9091	0.	1426.5
2493	17.73	2.9091	0.	1383.6
2494	17.914	2.9091	0.	1340.9
2495	18.098	2.9091	0.	1298.4
2496	18.283	2.9091	0.	1256.2
2497	18.467	2.9091	0.	1214.3
2498	18.652	2.9091	0.	1172.6
2499	18.836	2.9091	0.	1131.3
2500	19.021	2.9091	0.	1090.1
2501	19.205	2.9091	0.	1049.3
2502	19.389	2.9091	0.	1008.8
2503	19.574	2.9091	0.	968.6
2504	19.758	2.9091	0.	928.72
2505	19.943	2.9091	0.	889.17
2506	20.127	2.9091	0.	849.96
2507	20.312	2.9091	0.	811.11
2508	20.496	2.9091	0.	772.64
2509	20.68	2.9091	0.	734.56
2510	20.865	2.9091	0.	696.89
2511	21.049	2.9091	0.	659.65
2512	21.234	2.9091	0.	622.86
2513	21.418	2.9091	0.	586.55
2514	21.602	2.9091	0.	550.76
2515	21.787	2.9091	0.	515.51
2516	21.971	2.9091	0.	480.86
2517	22.156	2.9091	0.	446.87
2518	22.34	2.9091	0.	413.61
2519	22.525	2.9091	0.	381.18
2520	22.709	2.9091	0.	349.74
2521	22.893	2.9091	0.	319.46
2522	23.078	2.9091	0.	290.64
2523	23.262	2.9091	0.	263.68
2524	23.447	2.9091	0.	239.14
2525	23.631	2.9091	0.	217.81
2526	23.816	2.9091	0.	200.69
2527	4.4511	2.7273	0.	11546
2528	4.6355	2.7273	0.	10364
2529	4.8199	2.7273	0.	9130.2
2530	5.0044	2.7273	0.	8052.4
2531	5.1888	2.7273	0.	7181.4
2532	5.3732	2.7273	0.	6498.2
2533	5.5576	2.7273	0.	5966.9
2534	5.7421	2.7273	0.	5552.8
2535	5.9265	2.7273	0.	5227.9
2536	6.1109	2.7273	0.	4970.5
2537	6.2953	2.7273	0.	4764.1
2538	6.4798	2.7273	0.	4596.4
2539	6.6642	2.7273	0.	4458.1
2540	6.8486	2.7273	0.	4342.1
2541	7.033	2.7273	0.	4243.1
2542	7.2174	2.7273	0.	4157.
2543	7.4019	2.7273	0.	4080.7
2544	7.5863	2.7273	0.	4011.7
2545	7.7707	2.7273	0.	3948.4
2546	7.9551	2.7273	0.	3889.2
2547	8.1396	2.7273	0.	3833.1
2548	8.324	2.7273	0.	3779.3
2549	8.5084	2.7273	0.	3727.2
2550	8.6928	2.7273	0.	3676.4
2551	8.8773	2.7273	0.	3626.4
2552	9.0617	2.7273	0.	3577.
2553	9.2461	2.7273	0.	3528.1
2554	9.4305	2.7273	0.	3479.4
2555	9.615	2.7273	0.	3430.9
2556	9.7994	2.7273	0.	3382.6
2557	9.9838	2.7273	0.	3334.3
2558	10.168	2.7273	0.	3286.
2559	10.353	2.7273	0.	3237.8
2560	10.537	2.7273	0.	3189.6
2561	10.721	2.7273	0.	3141.4
2562	10.906	2.7273	0.	3093.2
2563	11.09	2.7273	0.	3045.
2564	11.275	2.7273	0.	2996.8
2565	11.459	2.7273	0.	2948.6
2566	11.644	2.7273	0.	2900.5
2567	11.828	2.7273	0.	2852.4
2568	12.012	2.7273	0.	2804.4
2569	12.197	2.7273	0.	2756.4
2570	12.381	2.7273	0.	2708.5
2571	12.566	2.7273	0.	2660.7
2572	12.75	2.7273	0.	2613.
2573	12.935	2.7273	0.	2565.4
2574	13.119	2.7273	0.	2518.
2575	13.303	2.7273	0.	2470.6
2576	13.488	2.7273	0.	2423.3
2577	13.672	2.7273	0.	2376.2
2578	13.857	2.7273	0.	2329.2
2579	14.041	2.7273	0.	2282.4
2580	14.226	2.7273	0.	2235.7
2581	14.41	2.7273	0.	2189.2
2582	14.594	2.7273	0.	2142.8
2583	14.779	2.7273	0.	2096.6
2584	14.963	2.7273	0.	2050.6
2585	15.148	2.7273	0.	2004.8
2586	15.332	2.7273	0.	1959.1
2587	15.517	2.7273	0.	1913.6
2588	15.701	2.7273	0.	1868.3
2589	15.885	2.7273	0.	1823.2
2590	16.07	2.7273	0.	1778.3
2591	16.254	2.7273	0.	1733.6
2592	16.439	2.7273	0.	1689.1
2593	16.623	2.7273	0.	1644.8
2594	16.807	2.7273	0.	1600.7
2595	16.992	2.7273	0.	1556.8
2596	17.176	2.7273	0.	1513.2
2597	17.361	2.7273	0.	1469.8
2598	17.545	2.7273	0.	1426.6
2599	17.73	2.7273	0.	1383.6
2600	17.914	2.7273	0.	1340.9
2601	18.098	2.7273	0.	1298.5
2602	18.283	2.7273	0.	1256.3
2603	18.467	2.7273	0.	1214.3
2604	18.652	2.7273	0.	1172.6
2605	18.836	2.7273	0.	1131.2
2606	19.021	2.7273	0.	1090.1
2607	19.205	2.7273	0.	1049.3
2608	19.389	2.7273	0.	1008.7
2609	19.574	2.7273	0.	968.51
2610	19.758	2.7273	0.	928.6
2611	19.943	2.7273	0.	889.03
2612	20.127	2.7273	0.	849.8
2613	20.312	2.7273	0.	810.92
2614	20.496	2.7273	0.	772.42
2615	20.68	2.7273	0.	734.31
2616	20.865	2.7273	0.	696.6
2617	21.049	2.7273	0.	659.33
2618	21.234	2.7273	0.	622.5
2619	21.418	2.7273	0.	586.15
2620	21.602	2.7273	0.	550.32
2621	21.787	2.7273	0.	515.03
2622	21.971	2.7273	0.	480.34
2623	22.156	2.7273	0.	446.3
2624	22.34	2.7273	0.	413.
2625	22.525	2.7273	0.	380.53
2626	22.709	2.7273	0.	349.04
2627	22.893	2.7273	0.	318.72
2628	23.078	2.7273	0.	289.86
2629	23.262	2.7273	0.	262.86
2630	23.447	2.7273	0.	238.28
2631	23.631	2.7273	0.	216.92
2632	23.816	2.7273	0.	199.78
2633	4.4511	2.5455	0.	12104
2634	4.6355	2.5455	0.	10500
2635	4.8199	2.5455	0.	9029.3
2636	5.0044	2.5455	0.	7882.8
2637	5.1888	2.5455	0.	7016.9
2638	5.3732	2.5455	0.	6362.3
2639	5.5576	2.5455	0.	5862.1
2640	5.7421	2.5455	0.	5475.
2641	5.9265	2.5455	0.	5171.5
2642	6.1109	2.5455	0.	4930.4
2643	6.2953	2.5455	0.	4736.1
2644	6.4798	2.5455	0.	4577.4
2645	6.6642	2.5455	0.	4445.6
2646	6.8486	2.5455	0.	4334.4
2647	7.033	2.5455	0.	4238.7
2648	7.2174	2.5455	0.	4155.
2649	7.4019	2.5455	0.	4080.3
2650	7.5863	2.5455	0.	4012.5
2651	7.7707	2.5455	0.	3949.8
2652	7.9551	2.5455	0.	3891.1
2653	8.1396	2.5455	0.	3835.2
2654	8.324	2.5455	0.	3781.6
2655	8.5084	2.5455	0.	3729.5
2656	8.6928	2.5455	0.	3678.6
2657	8.8773	2.5455	0.	3628.5
2658	9.0617	2.5455	0.	3579.1
2659	9.2461	2.5455	0.	3530.
2660	9.4305	2.5455	0.	3481.2
2661	9.615	2.5455	0.	3432.6
2662	9.7994	2.5455	0.	3384.1
2663	9.9838	2.5455	0.	3335.7
2664	10.168	2.5455	0.	3287.4
2665	10.353	2.5455	0.	3239.1
2666	10.537	2.5455	0.	3190.7
2667	10.721	2.5455	0.	3142.4
2668	10.906	2.5455	0.	3094.1
2669	11.09	2.5455	0.	3045.9
2670	11.275	2.5455	0.	2997.6
2671	11.459	2.5455	0.	2949.4
2672	11.644	2.5455	0.	2901.2
2673	11.828	2.5455	0.	2853.1
2674	12.012	2.5455	0.	2805.
2675	12.197	2.5455	0.	2757.
2676	12.381	2.5455	0.	2709.1
2677	12.566	2.5455	0.	2661.3
2678	12.75	2.5455	0.	2613.5
2679	12.935	2.5455	0.	2565.9
2680	13.119	2.5455	0.	2518.4
2681	13.303	2.5455	0.	2471.
2682	13.488	2.5455	0.	2423.7
2683	13.672	2.5455	0.	2376.6
2684	13.857	2.5455	0.	2329.6
2685	14.041	2.5455	0.	2282.7
2686	14.226	2.5455	0.	2236.1
2687	14.41	2.5455	0.	2189.5
2688	14.594	2.5455	0.	2143.1
2689	14.779	2.5455	0.	2096.9
2690	14.963	2.5455	0.	2050.9
2691	15.148	2.5455	0.	2005.
2692	15.332	2.5455	0.	1959.3
2693	15.517	2.5455	0.	1913.8
2694	15.701	2.5455	0.	1868.5
2695	15.885	2.5455	0.	1823.4
2696	16.07	2.5455	0.	1778.5
2697	16.254	2.5455	0.	1733.8
2698	16.439	2.5455	0.	1689.2
2699	16.623	2.5455	0.	1644.9
2700	16.807	2.5455	0.	1600.8
2701	16.992	2.5455	0.	1557.
2702	17.176	2.5455	0.	1513.3
2703	17.361	2.5455	0.	1469.9
2704	17.545	2.5455	0.	1426.7
2705	17.73	2.5455	0.	1383.7
2706	17.914	2.5455	0.	1341.
2707	18.098	2.5455	0.	1298.5
2708	18.283	2.5455	0.	1256.3
2709	18.467	2.5455	0.	1214.3
2710	18.652	2.5455	0.	1172.6
2711	18.836	2.5455	0.	1131.2
2712	19.021	2.5455	0.	1090.
2713	19.205	2.5455	0.	1049.2
2714	19.389	2.5455	0.	1008.6
2715	19.574	2.5455	0.	968.33
2716	19.758	2.5455	0.	928.38
2717	19.943	2.5455	0.	888.76
2718	20.127	2.5455	0.	849.48
2719	20.312	2.5455	0.	810.55
2720	20.496	2.5455	0.	771.99
2721	20.68	2.5455	0.	733.81
2722	20.865	2.5455	0.	696.04
2723	21.049	2.5455	0.	658.69
2724	21.234	2.5455	0.	621.79
2725	21.418	2.5455	0.	585.36
2726	21.602	2.5455	0.	549.44
2727	21.787	2.5455	0.	514.07
2728	21.971	2.5455	0.	479.29
2729	22.156	2.5455	0.	445.16
2730	22.34	2.5455	0.	411.77
2731	22.525	2.5455	0.	379.22
2732	22.709	2.5455	0.	347.64
2733	22.893	2.5455	0.	317.24
2734	23.078	2.5455	0.	288.3
2735	23.262	2.5455	0.	261.22
2736	23.447	2.5455	0.	236.56
2737	23.631	2.5455	0.	215.13
2738	23.816	2.5455	0.	197.95
2739	4.4511	2.3636	0.	13046
2740	4.6355	2.3636	0.	10522
2741	4.8199	2.3636	0.	8781.3
2742	5.0044	2.3636	0.	7598.
2743	5.1888	2.3636	0.	6771.
2744	5.3732	2.3636	0.	6167.7
2745	5.5576	2.3636	0.	5714.5
2746	5.7421	2.3636	0.	5365.8
2747	5.9265	2.3636	0.	5092.2
2748	6.1109	2.3636	0.	4873.8
2749	6.2953	2.3636	0.	4696.6
2750	6.4798	2.3636	0.	4550.4
2751	6.6642	2.3636	0.	4427.8
2752	6.8486	2.3636	0.	4323.2
2753	7.033	2.3636	0.	4232.4
2754	7.2174	2.3636	0.	4152.
2755	7.4019	2.3636	0.	4079.7
2756	7.5863	2.3636	0.	4013.5
2757	7.7707	2.3636	0.	3951.9
2758	7.9551	2.3636	0.	3893.8
2759	8.1396	2.3636	0.	3838.3
2760	8.324	2.3636	0.	3784.9
2761	8.5084	2.3636	0.	3732.8
2762	8.6928	2.3636	0.	3681.9
2763	8.8773	2.3636	0.	3631.7
2764	9.0617	2.3636	0.	3582.1
2765	9.2461	2.3636	0.	3532.8
2766	9.4305	2.3636	0.	3483.9
2767	9.615	2.3636	0.	3435.1
2768	9.7994	2.3636	0.	3386.5
2769	9.9838	2.3636	0.	3337.9
2770	10.168	2.3636	0.	3289.4
2771	10.353	2.3636	0.	3240.9
2772	10.537	2.3636	0.	3192.4
2773	10.721	2.3636	0.	3144.
2774	10.906	2.3636	0.	3095.6
2775	11.09	2.3636	0.	3047.2
2776	11.275	2.3636	0.	2998.8
2777	11.459	2.3636	0.	2950.5
2778	11.644	2.3636	0.	2902.3
2779	11.828	2.3636	0.	2854.1
2780	12.012	2.3636	0.	2805.9
2781	12.197	2.3636	0.	2757.9
2782	12.381	2.3636	0.	2709.9
2783	12.566	2.3636	0.	2662.
2784	12.75	2.3636	0.	2614.3
2785	12.935	2.3636	0.	2566.6
2786	13.119	2.3636	0.	2519.
2787	13.303	2.3636	0.	2471.6
2788	13.488	2.3636	0.	2424.3
2789	13.672	2.3636	0.	2377.1
2790	13.857	2.3636	0.	2330.1
2791	14.041	2.3636	0.	2283.2
2792	14.226	2.3636	0.	2236.5
2793	14.41	2.3636	0.	2190.
2794	14.594	2.3636	0.	2143.6
2795	14.779	2.3636	0.	2097.3
2796	14.963	2.3636	0.	2051.3
2797	15.148	2.3636	0.	2005.4
2798	15.332	2.3636	0.	1959.7
2799	15.517	2.3636	0.	1914.2
2800	15.701	2.3636	0.	1868.9
2801	15.885	2.3636	0.	1823.7
2802	16.07	2.3636	0.	1778.8
2803	16.254	2.3636	0.	1734.
2804	16.439	2.3636	0.	1689.5
2805	16.623	2.3636	0.	1645.2
2806	16.807	2.3636	0.	1601.1
2807	16.992	2.3636	0.	1557.2
2808	17.176	2.3636	0.	1513.5
2809	17.361	2.3636	0.	1470.1
2810	17.545	2.3636	0.	1426.8
2811	17.73	2.3636	0.	1383.8
2812	17.914	2.3636	0.	1341.1
2813	18.098	2.3636	0.	1298.6
2814	18.283	2.3636	0.	1256.3
2815	18.467	2.3636	0.	1214.3
2816	18.652	2.3636	0.	1172.6
2817	18.836	2.3636	0.	1131.1
2818	19.021	2.3636	0.	1089.9
2819	19.205	2.3636	0.	1049.
2820	19.389	2.3636	0.	1008.4
2821	19.574	2.3636	0.	968.06
2822	19.758	2.3636	0.	928.05
2823	19.943	2.3636	0.	888.37
2824	20.127	2.3636	0.	849.01
2825	20.312	2.3636	0.	810.
2826	20.496	2.3636	0.	771.35
2827	20.68	2.3636	0.	733.09
2828	20.865	2.3636	0.	695.21
2829	21.049	2.3636	0.	657.75
2830	21.234	2.3636	0.	620.74
2831	21.418	2.3636	0.	584.19
2832	21.602	2.3636	0.	548.15
2833	21.787	2.3636	0.	512.64
2834	21.971	2.3636	0.	477.73
2835	22.156	2.3636	0.	443.47
2836	22.34	2.3636	0.	409.94
2837	22.525	2.3636	0.	377.25
2838	22.709	2.3636	0.	345.54
2839	22.893	2.3636	0.	315.01
2840	23.078	2.3636	0.	285.95
2841	23.262	2.3636	0.	258.74
2842	23.447	2.3636	0.	233.96
2843	23.631	2.3636	0.	212.43
2844	23.816	2.3636	0.	195.19
2845	4.4511	2.1818	0.	13804
2846	4.6355	2.1818	0.	10217
2847	4.8199	2.1818	0.	8308.8
2848	5.0044	2.1818	0.	7204.3
2849	5.1888	2.1818	0.	6457.
2850	5.3732	2.1818	0.	5928.
2851	5.5576	2.1818	0.	5534.5
2852	5.7421	2.1818	0.	5232.7
2853	5.9265	2.1818	0.	4995.2
2854	6.1109	2.1818	0.	4804.2
2855	6.2953	2.1818	0.	4647.5
2856	6.4798	2.1818	0.	4516.7
2857	6.6642	2.1818	0.	4405.4
2858	6.8486	2.1818	0.	4309.1
2859	7.033	2.1818	0.	4224.2
2860	7.2174	2.1818	0.	4148.1
2861	7.4019	2.1818	0.	4078.8
2862	7.5863	2.1818	0.	4014.6
2863	7.7707	2.1818	0.	3954.4
2864	7.9551	2.1818	0.	3897.2
2865	8.1396	2.1818	0.	3842.3
2866	8.324	2.1818	0.	3789.
2867	8.5084	2.1818	0.	3737.1
2868	8.6928	2.1818	0.	3686.1
2869	8.8773	2.1818	0.	3635.7
2870	9.0617	2.1818	0.	3585.9
2871	9.2461	2.1818	0.	3536.5
2872	9.4305	2.1818	0.	3487.3
2873	9.615	2.1818	0.	3438.3
2874	9.7994	2.1818	0.	3389.4
2875	9.9838	2.1818	0.	3340.7
2876	10.168	2.1818	0.	3291.9
2877	10.353	2.1818	0.	3243.3
2878	10.537	2.1818	0.	3194.6
2879	10.721	2.1818	0.	3146.
2880	10.906	2.1818	0.	3097.5
2881	11.09	2.1818	0.	3049.
2882	11.275	2.1818	0.	3000.5
2883	11.459	2.1818	0.	2952.1
2884	11.644	2.1818	0.	2903.7
2885	11.828	2.1818	0.	2855.4
2886	12.012	2.1818	0.	2807.2
2887	12.197	2.1818	0.	2759.
2888	12.381	2.1818	0.	2711.
2889	12.566	2.1818	0.	2663.
2890	12.75	2.1818	0.	2615.2
2891	12.935	2.1818	0.	2567.5
2892	13.119	2.1818	0.	2519.9
2893	13.303	2.1818	0.	2472.4
2894	13.488	2.1818	0.	2425.1
2895	13.672	2.1818	0.	2377.9
2896	13.857	2.1818	0.	2330.8
2897	14.041	2.1818	0.	2283.9
2898	14.226	2.1818	0.	2237.1
2899	14.41	2.1818	0.	2190.6
2900	14.594	2.1818	0.	2144.1
2901	14.779	2.1818	0.	2097.9
2902	14.963	2.1818	0.	2051.8
2903	15.148	2.1818	0.	2005.9
2904	15.332	2.1818	0.	1960.2
2905	15.517	2.1818	0.	1914.6
2906	15.701	2.1818	0.	1869.3
2907	15.885	2.1818	0.	1824.1
2908	16.07	2.1818	0.	1779.2
2909	16.254	2.1818	0.	1734.4
2910	16.439	2.1818	0.	1689.9
2911	16.623	2.1818	0.	1645.5
2912	16.807	2.1818	0.	1601.4
2913	16.992	2.1818	0.	1557.5
2914	17.176	2.1818	0.	1513.8
2915	17.361	2.1818	0.	1470.3
2916	17.545	2.1818	0.	1427.
2917	17.73	2.1818	0.	1384.
2918	17.914	2.1818	0.	1341.2
2919	18.098	2.1818	0.	1298.7
2920	18.283	2.1818	0.	1256.4
2921	18.467	2.1818	0.	1214.4
2922	18.652	2.1818	0.	1172.6
2923	18.836	2.1818	0.	1131.
2924	19.021	2.1818	0.	1089.8
2925	19.205	2.1818	0.	1048.8
2926	19.389	2.1818	0.	1008.1
2927	19.574	2.1818	0.	967.73
2928	19.758	2.1818	0.	927.64
2929	19.943	2.1818	0.	887.87
2930	20.127	2.1818	0.	848.41
2931	20.312	2.1818	0.	809.3
2932	20.496	2.1818	0.	770.54
2933	20.68	2.1818	0.	732.14
2934	20.865	2.1818	0.	694.14
2935	21.049	2.1818	0.	656.54
2936	21.234	2.1818	0.	619.37
2937	21.418	2.1818	0.	582.66
2938	21.602	2.1818	0.	546.45
2939	21.787	2.1818	0.	510.77
2940	21.971	2.1818	0.	475.67
2941	22.156	2.1818	0.	441.23
2942	22.34	2.1818	0.	407.51
2943	22.525	2.1818	0.	374.64
2944	22.709	2.1818	0.	342.75
2945	22.893	2.1818	0.	312.04
2946	23.078	2.1818	0.	282.79
2947	23.262	2.1818	0.	255.42
2948	23.447	2.1818	0.	230.47
2949	23.631	2.1818	0.	208.8
2950	23.816	2.1818	0.	191.47
2951	4.4511	2.	0.	14084
2952	4.6355	2.	0.	9368.8
2953	4.8199	2.	0.	7688.9
2954	5.0044	2.	0.	6729.2
2955	5.1888	2.	0.	6097.8
2956	5.3732	2.	0.	5657.5
2957	5.5576	2.	0.	5332.
2958	5.7421	2.	0.	5082.6
2959	5.9265	2.	0.	4885.2
2960	6.1109	2.	0.	4724.7
2961	6.2953	2.	0.	4591.1
2962	6.4798	2.	0.	4477.6
2963	6.6642	2.	0.	4379.3
2964	6.8486	2.	0.	4292.5
2965	7.033	2.	0.	4214.5
2966	7.2174	2.	0.	4143.4
2967	7.4019	2.	0.	4077.6
2968	7.5863	2.	0.	4015.9
2969	7.7707	2.	0.	3957.3
2970	7.9551	2.	0.	3901.1
2971	8.1396	2.	0.	3846.8
2972	8.324	2.	0.	3793.9
2973	8.5084	2.	0.	3742.1
2974	8.6928	2.	0.	3691.
2975	8.8773	2.	0.	3640.6
2976	9.0617	2.	0.	3590.6
2977	9.2461	2.	0.	3540.9
2978	9.4305	2.	0.	3491.4
2979	9.615	2.	0.	3442.2
2980	9.7994	2.	0.	3393.1
2981	9.9838	2.	0.	3344.
2982	10.168	2.	0.	3295.1
2983	10.353	2.	0.	3246.2
2984	10.537	2.	0.	3197.3
2985	10.721	2.	0.	3148.5
2986	10.906	2.	0.	3099.8
2987	11.09	2.	0.	3051.1
2988	11.275	2.	0.	3002.5
2989	11.459	2.	0.	2953.9
2990	11.644	2.	0.	2905.4
2991	11.828	2.	0.	2857.
2992	12.012	2.	0.	2808.7
2993	12.197	2.	0.	2760.5
2994	12.381	2.	0.	2712.3
2995	12.566	2.	0.	2664.3
2996	12.75	2.	0.	2616.4
2997	12.935	2.	0.	2568.6
2998	13.119	2.	0.	2520.9
2999	13.303	2.	0.	2473.4
3000	13.488	2.	0.	2426.
3001	13.672	2.	0.	2378.8
3002	13.857	2.	0.	2331.7
3003	14.041	2.	0.	2284.7
3004	14.226	2.	0.	2237.9
3005	14.41	2.	0.	2191.3
3006	14.594	2.	0.	2144.8
3007	14.779	2.	0.	2098.6
3008	14.963	2.	0.	2052.5
3009	15.148	2.	0.	2006.5
3010	15.332	2.	0.	1960.8
3011	15.517	2.	0.	1915.2
3012	15.701	2.	0.	1869.8
3013	15.885	2.	0.	1824.7
3014	16.07	2.	0.	1779.7
3015	16.254	2.	0.	1734.9
3016	16.439	2.	0.	1690.3
3017	16.623	2.	0.	1645.9
3018	16.807	2.	0.	1601.8
3019	16.992	2.	0.	1557.8
3020	17.176	2.	0.	1514.1
3021	17.361	2.	0.	1470.6
3022	17.545	2.	0.	1427.3
3023	17.73	2.	0.	1384.3
3024	17.914	2.	0.	1341.4
3025	18.098	2.	0.	1298.8
3026	18.283	2.	0.	1256.5
3027	18.467	2.	0.	1214.4
3028	18.652	2.	0.	1172.6
3029	18.836	2.	0.	1131.
3030	19.021	2.	0.	1089.7
3031	19.205	2.	0.	1048.6
3032	19.389	2.	0.	1007.8
3033	19.574	2.	0.	967.35
3034	19.758	2.	0.	927.16
3035	19.943	2.	0.	887.28
3036	20.127	2.	0.	847.71
3037	20.312	2.	0.	808.46
3038	20.496	2.	0.	769.56
3039	20.68	2.	0.	731.02
3040	20.865	2.	0.	692.84
3041	21.049	2.	0.	655.07
3042	21.234	2.	0.	617.71
3043	21.418	2.	0.	580.8
3044	21.602	2.	0.	544.37
3045	21.787	2.	0.	508.47
3046	21.971	2.	0.	473.15
3047	22.156	2.	0.	438.46
3048	22.34	2.	0.	404.51
3049	22.525	2.	0.	371.39
3050	22.709	2.	0.	339.25
3051	22.893	2.	0.	308.31
3052	23.078	2.	0.	278.83
3053	23.262	2.	0.	251.22
3054	23.447	2.	0.	226.07
3055	23.631	2.	0.	204.2
3056	23.816	2.	0.	186.75
3057	4.4511	1.8182	0.	11644
3058	4.6355	1.8182	0.	8361.8
3059	4.8199	1.8182	0.	6962.4
3060	5.0044	1.8182	0.	6205.
3061	5.1888	1.8182	0.	5710.1
3062	5.3732	1.8182	0.	5366.6
3063	5.5576	1.8182	0.	5114.3
3064	5.7421	1.8182	0.	4920.6
3065	5.9265	1.8182	0.	4765.9
3066	6.1109	1.8182	0.	4638.
3067	6.2953	1.8182	0.	4529.3
3068	6.4798	1.8182	0.	4434.5
3069	6.6642	1.8182	0.	4350.1
3070	6.8486	1.8182	0.	4273.7
3071	7.033	1.8182	0.	4203.4
3072	7.2174	1.8182	0.	4137.9
3073	7.4019	1.8182	0.	4076.
3074	7.5863	1.8182	0.	4017.1
3075	7.7707	1.8182	0.	3960.3
3076	7.9551	1.8182	0.	3905.4
3077	8.1396	1.8182	0.	3851.8
3078	8.324	1.8182	0.	3799.3
3079	8.5084	1.8182	0.	3747.6
3080	8.6928	1.8182	0.	3696.6
3081	8.8773	1.8182	0.	3646.
3082	9.0617	1.8182	0.	3595.8
3083	9.2461	1.8182	0.	3545.9
3084	9.4305	1.8182	0.	3496.2
3085	9.615	1.8182	0.	3446.6
3086	9.7994	1.8182	0.	3397.2
3087	9.9838	1.8182	0.	3347.9
3088	10.168	1.8182	0.	3298.7
3089	10.353	1.8182	0.	3249.5
3090	10.537	1.8182	0.	3200.5
3091	10.721	1.8182	0.	3151.4
3092	10.906	1.8182	0.	3102.5
3093	11.09	1.8182	0.	3053.6
3094	11.275	1.8182	0.	3004.8
3095	11.459	1.8182	0.	2956.1
3096	11.644	1.8182	0.	2907.5
3097	11.828	1.8182	0.	2858.9
3098	12.012	1.8182	0.	2810.5
3099	12.197	1.8182	0.	2762.1
3100	12.381	1.8182	0.	2713.9
3101	12.566	1.8182	0.	2665.8
3102	12.75	1.8182	0.	2617.8
3103	12.935	1.8182	0.	2569.9
3104	13.119	1.8182	0.	2522.2
3105	13.303	1.8182	0.	2474.6
3106	13.488	1.8182	0.	2427.1
3107	13.672	1.8182	0.	2379.8
3108	13.857	1.8182	0.	2332.7
3109	14.041	1.8182	0.	2285.7
3110	14.226	1.8182	0.	2238.9
3111	14.41	1.8182	0.	2192.2
3112	14.594	1.8182	0.	2145.7
3113	14.779	1.8182	0.	2099.4
3114	14.963	1.8182	0.	2053.2
3115	15.148	1.8182	0.	2007.3
3116	15.332	1.8182	0.	1961.5
3117	15.517	1.8182	0.	1915.9
3118	15.701	1.8182	0.	1870.5
3119	15.885	1.8182	0.	1825.3
3120	16.07	1.8182	0.	1780.3
3121	16.254	1.8182	0.	1735.5
3122	16.439	1.8182	0.	1690.9
3123	16.623	1.8182	0.	1646.5
3124	16.807	1.8182	0.	1602.3
3125	16.992	1.8182	0.	1558.3
3126	17.176	1.8182	0.	1514.5
3127	17.361	1.8182	0.	1471.
3128	17.545	1.8182	0.	1427.7
3129	17.73	1.8182	0.	1384.6
3130	17.914	1.8182	0.	1341.7
3131	18.098	1.8182	0.	1299.1
3132	18.283	1.8182	0.	1256.7
3133	18.467	1.8182	0.	1214.5
3134	18.652	1.8182	0.	1172.6
3135	18.836	1.8182	0.	1130.9
3136	19.021	1.8182	0.	1089.5
3137	19.205	1.8182	0.	1048.4
3138	19.389	1.8182	0.	1007.5
3139	19.574	1.8182	0.	966.94
3140	19.758	1.8182	0.	926.64
3141	19.943	1.8182	0.	886.62
3142	20.127	1.8182	0.	846.92
3143	20.312	1.8182	0.	807.52
3144	20.496	1.8182	0.	768.46
3145	20.68	1.8182	0.	729.73
3146	20.865	1.8182	0.	691.37
3147	21.049	1.8182	0.	653.38
3148	21.234	1.8182	0.	615.8
3149	21.418	1.8182	0.	578.65
3150	21.602	1.8182	0.	541.96
3151	21.787	1.8182	0.	505.79
3152	21.971	1.8182	0.	470.18
3153	22.156	1.8182	0.	435.2
3154	22.34	1.8182	0.	400.94
3155	22.525	1.8182	0.	367.51
3156	22.709	1.8182	0.	335.07
3157	22.893	1.8182	0.	303.81
3158	23.078	1.8182	0.	274.03
3159	23.262	1.8182	0.	246.14
3160	23.447	1.8182	0.	220.71
3161	23.631	1.8182	0.	198.59
3162	23.816	1.8182	0.	181.
3163	4.4511	1.6364	0.	8659.
3164	4.6355	1.6364	0.	7019.1
3165	4.8199	1.6364	0.	6168.3
3166	5.0044	1.6364	0.	5648.1
3167	5.1888	1.6364	0.	5299.6
3168	5.3732	1.6364	0.	5060.7
3169	5.5576	1.6364	0.	4885.6
3170	5.7421	1.6364	0.	4750.3
3171	5.9265	1.6364	0.	4640.1
3172	6.1109	1.6364	0.	4546.2
3173	6.2953	1.6364	0.	4463.3
3174	6.4798	1.6364	0.	4388.1
3175	6.6642	1.6364	0.	4318.6
3176	6.8486	1.6364	0.	4253.2
3177	7.033	1.6364	0.	4191.
3178	7.2174	1.6364	0.	4131.4
3179	7.4019	1.6364	0.	4073.9
3180	7.5863	1.6364	0.	4018.
3181	7.7707	1.6364	0.	3963.3
3182	7.9551	1.6364	0.	3909.8
3183	8.1396	1.6364	0.	3857.1
3184	8.324	1.6364	0.	3805.1
3185	8.5084	1.6364	0.	3753.6
3186	8.6928	1.6364	0.	3702.6
3187	8.8773	1.6364	0.	3651.9
3188	9.0617	1.6364	0.	3601.5
3189	9.2461	1.6364	0.	3551.4
3190	9.4305	1.6364	0.	3501.4
3191	9.615	1.6364	0.	3451.5
3192	9.7994	1.6364	0.	3401.8
3193	9.9838	1.6364	0.	3352.2
3194	10.168	1.6364	0.	3302.7
3195	10.353	1.6364	0.	3253.3
3196	10.537	1.6364	0.	3204.
3197	10.721	1.6364	0.	3154.7
3198	10.906	1.6364	0.	3105.6
3199	11.09	1.6364	0.	3056.5
3200	11.275	1.6364	0.	3007.5
3201	11.459	1.6364	0.	2958.6
3202	11.644	1.6364	0.	2909.8
3203	11.828	1.6364	0.	2861.1
3204	12.012	1.6364	0.	2812.5
3205	12.197	1.6364	0.	2764.1
3206	12.381	1.6364	0.	2715.7
3207	12.566	1.6364	0.	2667.5
3208	12.75	1.6364	0.	2619.4
3209	12.935	1.6364	0.	2571.4
3210	13.119	1.6364	0.	2523.6
3211	13.303	1.6364	0.	2476.
3212	13.488	1.6364	0.	2428.4
3213	13.672	1.6364	0.	2381.1
3214	13.857	1.6364	0.	2333.9
3215	14.041	1.6364	0.	2286.8
3216	14.226	1.6364	0.	2239.9
3217	14.41	1.6364	0.	2193.2
3218	14.594	1.6364	0.	2146.7
3219	14.779	1.6364	0.	2100.3
3220	14.963	1.6364	0.	2054.2
3221	15.148	1.6364	0.	2008.2
3222	15.332	1.6364	0.	1962.3
3223	15.517	1.6364	0.	1916.7
3224	15.701	1.6364	0.	1871.3
3225	15.885	1.6364	0.	1826.
3226	16.07	1.6364	0.	1781.
3227	16.254	1.6364	0.	1736.2
3228	16.439	1.6364	0.	1691.5
3229	16.623	1.6364	0.	1647.1
3230	16.807	1.6364	0.	1602.9
3231	16.992	1.6364	0.	1558.8
3232	17.176	1.6364	0.	1515.
3233	17.361	1.6364	0.	1471.5
3234	17.545	1.6364	0.	1428.1
3235	17.73	1.6364	0.	1384.9
3236	17.914	1.6364	0.	1342.
3237	18.098	1.6364	0.	1299.3
3238	18.283	1.6364	0.	1256.9
3239	18.467	1.6364	0.	1214.6
3240	18.652	1.6364	0.	1172.7
3241	18.836	1.6364	0.	1130.9
3242	19.021	1.6364	0.	1089.4
3243	19.205	1.6364	0.	1048.2
3244	19.389	1.6364	0.	1007.2
3245	19.574	1.6364	0.	966.52
3246	19.758	1.6364	0.	926.09
3247	19.943	1.6364	0.	885.94
3248	20.127	1.6364	0.	846.08
3249	20.312	1.6364	0.	806.51
3250	20.496	1.6364	0.	767.26
3251	20.68	1.6364	0.	728.34
3252	20.865	1.6364	0.	689.75
3253	21.049	1.6364	0.	651.53
3254	21.234	1.6364	0.	613.68
3255	21.418	1.6364	0.	576.25
3256	21.602	1.6364	0.	539.27
3257	21.787	1.6364	0.	502.77
3258	21.971	1.6364	0.	466.82
3259	22.156	1.6364	0.	431.48
3260	22.34	1.6364	0.	396.85
3261	22.525	1.6364	0.	363.04
3262	22.709	1.6364	0.	330.21
3263	22.893	1.6364	0.	298.56
3264	23.078	1.6364	0.	268.4
3265	23.262	1.6364	0.	240.13
3266	23.447	1.6364	0.	214.35
3267	23.631	1.6364	0.	191.93
3268	23.816	1.6364	0.	174.15
3269	4.4511	1.4545	0.	6646.
3270	4.6355	1.4545	0.	5780.7
3271	4.8199	1.4545	0.	5356.8
3272	5.0044	1.4545	0.	5065.5
3273	5.1888	1.4545	0.	4874.7
3274	5.3732	1.4545	0.	4744.5
3275	5.5576	1.4545	0.	4649.7
3276	5.7421	1.4545	0.	4574.7
3277	5.9265	1.4545	0.	4510.1
3278	6.1109	1.4545	0.	4451.
3279	6.2953	1.4545	0.	4394.6
3280	6.4798	1.4545	0.	4339.5
3281	6.6642	1.4545	0.	4285.1
3282	6.8486	1.4545	0.	4231.1
3283	7.033	1.4545	0.	4177.5
3284	7.2174	1.4545	0.	4124.1
3285	7.4019	1.4545	0.	4071.1
3286	7.5863	1.4545	0.	4018.4
3287	7.7707	1.4545	0.	3966.1
3288	7.9551	1.4545	0.	3914.1
3289	8.1396	1.4545	0.	3862.4
3290	8.324	1.4545	0.	3811.
3291	8.5084	1.4545	0.	3759.8
3292	8.6928	1.4545	0.	3708.9
3293	8.8773	1.4545	0.	3658.2
3294	9.0617	1.4545	0.	3607.6
3295	9.2461	1.4545	0.	3557.2
3296	9.4305	1.4545	0.	3507.
3297	9.615	1.4545	0.	3456.8
3298	9.7994	1.4545	0.	3406.8
3299	9.9838	1.4545	0.	3356.9
3300	10.168	1.4545	0.	3307.1
3301	10.353	1.4545	0.	3257.4
3302	10.537	1.4545	0.	3207.8
3303	10.721	1.4545	0.	3158.3
3304	10.906	1.4545	0.	3108.9
3305	11.09	1.4545	0.	3059.6
3306	11.275	1.4545	0.	3010.5
3307	11.459	1.4545	0.	2961.4
3308	11.644	1.4545	0.	2912.4
3309	11.828	1.4545	0.	2863.6
3310	12.012	1.4545	0.	2814.8
3311	12.197	1.4545	0.	2766.2
3312	12.381	1.4545	0.	2717.8
3313	12.566	1.4545	0.	2669.4
3314	12.75	1.4545	0.	2621.2
3315	12.935	1.4545	0.	2573.2
3316	13.119	1.4545	0.	2525.3
3317	13.303	1.4545	0.	2477.5
3318	13.488	1.4545	0.	2429.9
3319	13.672	1.4545	0.	2382.5
3320	13.857	1.4545	0.	2335.2
3321	14.041	1.4545	0.	2288.1
3322	14.226	1.4545	0.	2241.2
3323	14.41	1.4545	0.	2194.4
3324	14.594	1.4545	0.	2147.8
3325	14.779	1.4545	0.	2101.4
3326	14.963	1.4545	0.	2055.2
3327	15.148	1.4545	0.	2009.2
3328	15.332	1.4545	0.	1963.3
3329	15.517	1.4545	0.	1917.7
3330	15.701	1.4545	0.	1872.2
3331	15.885	1.4545	0.	1826.9
3332	16.07	1.4545	0.	1781.8
3333	16.254	1.4545	0.	1737.
3334	16.439	1.4545	0.	1692.3
3335	16.623	1.4545	0.	1647.8
3336	16.807	1.4545	0.	1603.5
3337	16.992	1.4545	0.	1559.5
3338	17.176	1.4545	0.	1515.6
3339	17.361	1.4545	0.	1472.
3340	17.545	1.4545	0.	1428.6
3341	17.73	1.4545	0.	1385.4
3342	17.914	1.4545	0.	1342.4
3343	18.098	1.4545	0.	1299.7
3344	18.283	1.4545	0.	1257.1
3345	18.467	1.4545	0.	1214.9
3346	18.652	1.4545	0.	1172.8
3347	18.836	1.4545	0.	1131.
3348	19.021	1.4545	0.	1089.4
3349	19.205	1.4545	0.	1048.
3350	19.389	1.4545	0.	1007.
3351	19.574	1.4545	0.	966.13
3352	19.758	1.4545	0.	925.56
3353	19.943	1.4545	0.	885.25
3354	20.127	1.4545	0.	845.22
3355	20.312	1.4545	0.	805.48
3356	20.496	1.4545	0.	766.02
3357	20.68	1.4545	0.	726.87
3358	20.865	1.4545	0.	688.05
3359	21.049	1.4545	0.	649.56
3360	21.234	1.4545	0.	611.42
3361	21.418	1.4545	0.	573.68
3362	21.602	1.4545	0.	536.35
3363	21.787	1.4545	0.	499.49
3364	21.971	1.4545	0.	463.14
3365	22.156	1.4545	0.	427.38
3366	22.34	1.4545	0.	392.3
3367	22.525	1.4545	0.	358.02
3368	22.709	1.4545	0.	324.7
3369	22.893	1.4545	0.	292.57
3370	23.078	1.4545	0.	261.92
3371	23.262	1.4545	0.	233.18
3372	23.447	1.4545	0.	206.95
3373	23.631	1.4545	0.	184.14
3374	23.816	1.4545	0.	166.11
3375	4.4511	1.2727	0.	5254.8
3376	4.6355	1.2727	0.	4752.4
3377	4.8199	1.2727	0.	4582.8
3378	5.0044	1.2727	0.	4494.8
3379	5.1888	1.2727	0.	4449.9
3380	5.3732	1.2727	0.	4427.3
3381	5.5576	1.2727	0.	4412.7
3382	5.7421	1.2727	0.	4397.9
3383	5.9265	1.2727	0.	4379.
3384	6.1109	1.2727	0.	4354.5
3385	6.2953	1.2727	0.	4324.5
3386	6.4798	1.2727	0.	4289.5
3387	6.6642	1.2727	0.	4250.4
3388	6.8486	1.2727	0.	4207.9
3389	7.033	1.2727	0.	4162.9
3390	7.2174	1.2727	0.	4115.9
3391	7.4019	1.2727	0.	4067.6
3392	7.5863	1.2727	0.	4018.4
3393	7.7707	1.2727	0.	3968.5
3394	7.9551	1.2727	0.	3918.1
3395	8.1396	1.2727	0.	3867.6
3396	8.324	1.2727	0.	3816.8
3397	8.5084	1.2727	0.	3766.1
3398	8.6928	1.2727	0.	3715.3
3399	8.8773	1.2727	0.	3664.6
3400	9.0617	1.2727	0.	3613.9
3401	9.2461	1.2727	0.	3563.3
3402	9.4305	1.2727	0.	3512.8
3403	9.615	1.2727	0.	3462.4
3404	9.7994	1.2727	0.	3412.1
3405	9.9838	1.2727	0.	3361.9
3406	10.168	1.2727	0.	3311.9
3407	10.353	1.2727	0.	3261.9
3408	10.537	1.2727	0.	3212.
3409	10.721	1.2727	0.	3162.3
3410	10.906	1.2727	0.	3112.6
3411	11.09	1.2727	0.	3063.1
3412	11.275	1.2727	0.	3013.7
3413	11.459	1.2727	0.	2964.4
3414	11.644	1.2727	0.	2915.3
3415	11.828	1.2727	0.	2866.2
3416	12.012	1.2727	0.	2817.3
3417	12.197	1.2727	0.	2768.6
3418	12.381	1.2727	0.	2720.
3419	12.566	1.2727	0.	2671.5
3420	12.75	1.2727	0.	2623.2
3421	12.935	1.2727	0.	2575.1
3422	13.119	1.2727	0.	2527.1
3423	13.303	1.2727	0.	2479.2
3424	13.488	1.2727	0.	2431.6
3425	13.672	1.2727	0.	2384.
3426	13.857	1.2727	0.	2336.7
3427	14.041	1.2727	0.	2289.5
3428	14.226	1.2727	0.	2242.5
3429	14.41	1.2727	0.	2195.7
3430	14.594	1.2727	0.	2149.1
3431	14.779	1.2727	0.	2102.6
3432	14.963	1.2727	0.	2056.4
3433	15.148	1.2727	0.	2010.3
3434	15.332	1.2727	0.	1964.4
3435	15.517	1.2727	0.	1918.7
3436	15.701	1.2727	0.	1873.2
3437	15.885	1.2727	0.	1827.9
3438	16.07	1.2727	0.	1782.8
3439	16.254	1.2727	0.	1737.9
3440	16.439	1.2727	0.	1693.2
3441	16.623	1.2727	0.	1648.6
3442	16.807	1.2727	0.	1604.3
3443	16.992	1.2727	0.	1560.2
3444	17.176	1.2727	0.	1516.4
3445	17.361	1.2727	0.	1472.7
3446	17.545	1.2727	0.	1429.2
3447	17.73	1.2727	0.	1386.
3448	17.914	1.2727	0.	1342.9
3449	18.098	1.2727	0.	1300.1
3450	18.283	1.2727	0.	1257.5
3451	18.467	1.2727	0.	1215.1
3452	18.652	1.2727	0.	1173.
3453	18.836	1.2727	0.	1131.1
3454	19.021	1.2727	0.	1089.4
3455	19.205	1.2727	0.	1048.
3456	19.389	1.2727	0.	1006.8
3457	19.574	1.2727	0.	965.79
3458	19.758	1.2727	0.	925.07
3459	19.943	1.2727	0.	884.61
3460	20.127	1.2727	0.	844.4
3461	20.312	1.2727	0.	804.46
3462	20.496	1.2727	0.	764.79
3463	20.68	1.2727	0.	725.4
3464	20.865	1.2727	0.	686.31
3465	21.049	1.2727	0.	647.53
3466	21.234	1.2727	0.	609.09
3467	21.418	1.2727	0.	570.99
3468	21.602	1.2727	0.	533.29
3469	21.787	1.2727	0.	496.01
3470	21.971	1.2727	0.	459.21
3471	22.156	1.2727	0.	422.97
3472	22.34	1.2727	0.	387.36
3473	22.525	1.2727	0.	352.52
3474	22.709	1.2727	0.	318.62
3475	22.893	1.2727	0.	285.87
3476	23.078	1.2727	0.	254.6
3477	23.262	1.2727	0.	225.25
3478	23.447	1.2727	0.	198.44
3479	23.631	1.2727	0.	175.13
3480	23.816	1.2727	0.	156.79
3481	4.4511	1.0909	0.	4191.2
3482	4.6355	1.0909	0.	3894.1
3483	4.8199	1.0909	0.	3899.5
3484	5.0044	1.0909	0.	3965.2
3485	5.1888	1.0909	0.	4046.2
3486	5.3732	1.0909	0.	4121.9
3487	5.5576	1.0909	0.	4182.6
3488	5.7421	1.0909	0.	4225.2
3489	5.9265	1.0909	0.	4250.1
3490	6.1109	1.0909	0.	4259.1
3491	6.2953	1.0909	0.	4254.6
3492	6.4798	1.0909	0.	4239.2
3493	6.6642	1.0909	0.	4215.
3494	6.8486	1.0909	0.	4183.8
3495	7.033	1.0909	0.	4147.4
3496	7.2174	1.0909	0.	4106.9
3497	7.4019	1.0909	0.	4063.4
3498	7.5863	1.0909	0.	4017.7
3499	7.7707	1.0909	0.	3970.3
3500	7.9551	1.0909	0.	3921.8
3501	8.1396	1.0909	0.	3872.4
3502	8.324	1.0909	0.	3822.5
3503	8.5084	1.0909	0.	3772.2
3504	8.6928	1.0909	0.	3721.7
3505	8.8773	1.0909	0.	3671.
3506	9.0617	1.0909	0.	3620.3
3507	9.2461	1.0909	0.	3569.6
3508	9.4305	1.0909	0.	3518.9
3509	9.615	1.0909	0.	3468.2
3510	9.7994	1.0909	0.	3417.7
3511	9.9838	1.0909	0.	3367.2
3512	10.168	1.0909	0.	3316.8
3513	10.353	1.0909	0.	3266.6
3514	10.537	1.0909	0.	3216.4
3515	10.721	1.0909	0.	3166.4
3516	10.906	1.0909	0.	3116.5
3517	11.09	1.0909	0.	3066.8
3518	11.275	1.0909	0.	3017.1
3519	11.459	1.0909	0.	2967.7
3520	11.644	1.0909	0.	2918.3
3521	11.828	1.0909	0.	2869.1
3522	12.012	1.0909	0.	2820.1
3523	12.197	1.0909	0.	2771.2
3524	12.381	1.0909	0.	2722.4
3525	12.566	1.0909	0.	2673.8
3526	12.75	1.0909	0.	2625.4
3527	12.935	1.0909	0.	2577.1
3528	13.119	1.0909	0.	2529.
3529	13.303	1.0909	0.	2481.1
3530	13.488	1.0909	0.	2433.4
3531	13.672	1.0909	0.	2385.8
3532	13.857	1.0909	0.	2338.4
3533	14.041	1.0909	0.	2291.1
3534	14.226	1.0909	0.	2244.1
3535	14.41	1.0909	0.	2197.2
3536	14.594	1.0909	0.	2150.5
3537	14.779	1.0909	0.	2104.
3538	14.963	1.0909	0.	2057.7
3539	15.148	1.0909	0.	2011.6
3540	15.332	1.0909	0.	1965.6
3541	15.517	1.0909	0.	1919.9
3542	15.701	1.0909	0.	1874.3
3543	15.885	1.0909	0.	1829.
3544	16.07	1.0909	0.	1783.8
3545	16.254	1.0909	0.	1738.9
3546	16.439	1.0909	0.	1694.1
3547	16.623	1.0909	0.	1649.6
3548	16.807	1.0909	0.	1605.2
3549	16.992	1.0909	0.	1561.1
3550	17.176	1.0909	0.	1517.2
3551	17.361	1.0909	0.	1473.4
3552	17.545	1.0909	0.	1429.9
3553	17.73	1.0909	0.	1386.6
3554	17.914	1.0909	0.	1343.5
3555	18.098	1.0909	0.	1300.7
3556	18.283	1.0909	0.	1258.
3557	18.467	1.0909	0.	1215.5
3558	18.652	1.0909	0.	1173.3
3559	18.836	1.0909	0.	1131.3
3560	19.021	1.0909	0.	1089.5
3561	19.205	1.0909	0.	1048.
3562	19.389	1.0909	0.	1006.6
3563	19.574	1.0909	0.	965.54
3564	19.758	1.0909	0.	924.67
3565	19.943	1.0909	0.	884.04
3566	20.127	1.0909	0.	843.65
3567	20.312	1.0909	0.	803.51
3568	20.496	1.0909	0.	763.61
3569	20.68	1.0909	0.	723.98
3570	20.865	1.0909	0.	684.62
3571	21.049	1.0909	0.	645.54
3572	21.234	1.0909	0.	606.76
3573	21.418	1.0909	0.	568.3
3574	21.602	1.0909	0.	530.18
3575	21.787	1.0909	0.	492.46
3576	21.971	1.0909	0.	455.16
3577	22.156	1.0909	0.	418.37
3578	22.34	1.0909	0.	382.16
3579	22.525	1.0909	0.	346.66
3580	22.709	1.0909	0.	312.04
3581	22.893	1.0909	0.	278.54
3582	23.078	1.0909	0.	246.47
3583	23.262	1.0909	0.	216.33
3584	23.447	1.0909	0.	188.76
3585	23.631	1.0909	0.	164.8
3586	23.816	1.0909	0.	146.04
3587	4.4511	0.90909	0.	3331.7
3588	4.6355	0.90909	0.	3180.3
3589	4.8199	0.90909	0.	3310.1
3590	5.0044	0.90909	0.	3496.2
3591	5.1888	0.90909	0.	3681.4
3592	5.3732	0.90909	0.	3841.5
3593	5.5576	0.90909	0.	3968.5
3594	5.7421	0.90909	0.	4062.7
3595	5.9265	0.90909	0.	4127.4
3596	6.1109	0.90909	0.	4167.3
3597	6.2953	0.90909	0.	4186.7
3598	6.4798	0.90909	0.	4189.6
3599	6.6642	0.90909	0.	4179.6
3600	6.8486	0.90909	0.	4159.4
3601	7.033	0.90909	0.	4131.3
3602	7.2174	0.90909	0.	4097.2
3603	7.4019	0.90909	0.	4058.5
3604	7.5863	0.90909	0.	4016.3
3605	7.7707	0.90909	0.	3971.6
3606	7.9551	0.90909	0.	3925.
3607	8.1396	0.90909	0.	3876.9
3608	8.324	0.90909	0.	3827.9
3609	8.5084	0.90909	0.	3778.2
3610	8.6928	0.90909	0.	3728.
3611	8.8773	0.90909	0.	3677.5
3612	9.0617	0.90909	0.	3626.7
3613	9.2461	0.90909	0.	3575.9
3614	9.4305	0.90909	0.	3525.
3615	9.615	0.90909	0.	3474.2
3616	9.7994	0.90909	0.	3423.4
3617	9.9838	0.90909	0.	3372.6
3618	10.168	0.90909	0.	3322.
3619	10.353	0.90909	0.	3271.5
3620	10.537	0.90909	0.	3221.1
3621	10.721	0.90909	0.	3170.8
3622	10.906	0.90909	0.	3120.7
3623	11.09	0.90909	0.	3070.7
3624	11.275	0.90909	0.	3020.8
3625	11.459	0.90909	0.	2971.1
3626	11.644	0.90909	0.	2921.6
3627	11.828	0.90909	0.	2872.2
3628	12.012	0.90909	0.	2823.
3629	12.197	0.90909	0.	2773.9
3630	12.381	0.90909	0.	2725.
3631	12.566	0.90909	0.	2676.3
3632	12.75	0.90909	0.	2627.8
3633	12.935	0.90909	0.	2579.4
3634	13.119	0.90909	0.	2531.2
3635	13.303	0.90909	0.	2483.2
3636	13.488	0.90909	0.	2435.3
3637	13.672	0.90909	0.	2387.6
3638	13.857	0.90909	0.	2340.1
3639	14.041	0.90909	0.	2292.8
3640	14.226	0.90909	0.	2245.7
3641	14.41	0.90909	0.	2198.8
3642	14.594	0.90909	0.	2152.
3643	14.779	0.90909	0.	2105.5
3644	14.963	0.90909	0.	2059.1
3645	15.148	0.90909	0.	2013.
3646	15.332	0.90909	0.	1967.
3647	15.517	0.90909	0.	1921.2
3648	15.701	0.90909	0.	1875.6
3649	15.885	0.90909	0.	1830.2
3650	16.07	0.90909	0.	1785.
3651	16.254	0.90909	0.	1740.
3652	16.439	0.90909	0.	1695.3
3653	16.623	0.90909	0.	1650.7
3654	16.807	0.90909	0.	1606.3
3655	16.992	0.90909	0.	1562.1
3656	17.176	0.90909	0.	1518.1
3657	17.361	0.90909	0.	1474.3
3658	17.545	0.90909	0.	1430.8
3659	17.73	0.90909	0.	1387.4
3660	17.914	0.90909	0.	1344.3
3661	18.098	0.90909	0.	1301.3
3662	18.283	0.90909	0.	1258.6
3663	18.467	0.90909	0.	1216.1
3664	18.652	0.90909	0.	1173.8
3665	18.836	0.90909	0.	1131.7
3666	19.021	0.90909	0.	1089.8
3667	19.205	0.90909	0.	1048.1
3668	19.389	0.90909	0.	1006.7
3669	19.574	0.90909	0.	965.42
3670	19.758	0.90909	0.	924.4
3671	19.943	0.90909	0.	883.6
3672	20.127	0.90909	0.	843.03
3673	20.312	0.90909	0.	802.68
3674	20.496	0.90909	0.	762.56
3675	20.68	0.90909	0.	722.68
3676	20.865	0.90909	0.	683.04
3677	21.049	0.90909	0.	643.65
3678	21.234	0.90909	0.	604.53
3679	21.418	0.90909	0.	565.69
3680	21.602	0.90909	0.	527.15
3681	21.787	0.90909	0.	488.95
3682	21.971	0.90909	0.	451.12
3683	22.156	0.90909	0.	413.73
3684	22.34	0.90909	0.	376.85
3685	22.525	0.90909	0.	340.6
3686	22.709	0.90909	0.	305.14
3687	22.893	0.90909	0.	270.71
3688	23.078	0.90909	0.	237.65
3689	23.262	0.90909	0.	206.46
3690	23.447	0.90909	0.	177.87
3691	23.631	0.90909	0.	153.
3692	23.816	0.90909	0.	133.65
3693	4.4511	0.72727	0.	2604.7
3694	4.6355	0.72727	0.	2578.2
3695	4.8199	0.72727	0.	2814.3
3696	5.0044	0.72727	0.	3099.2
3697	5.1888	0.72727	0.	3368.2
3698	5.3732	0.72727	0.	3596.6
3699	5.5576	0.72727	0.	3778.3
3700	5.7421	0.72727	0.	3915.8
3701	5.9265	0.72727	0.	4014.8
3702	6.1109	0.72727	0.	4081.6
3703	6.2953	0.72727	0.	4122.2
3704	6.4798	0.72727	0.	4141.9
3705	6.6642	0.72727	0.	4145.
3706	6.8486	0.72727	0.	4135.
3707	7.033	0.72727	0.	4114.9
3708	7.2174	0.72727	0.	4086.9
3709	7.4019	0.72727	0.	4052.9
3710	7.5863	0.72727	0.	4014.3
3711	7.7707	0.72727	0.	3972.3
3712	7.9551	0.72727	0.	3927.6
3713	8.1396	0.72727	0.	3881.
3714	8.324	0.72727	0.	3833.
3715	8.5084	0.72727	0.	3784.
3716	8.6928	0.72727	0.	3734.1
3717	8.8773	0.72727	0.	3683.8
3718	9.0617	0.72727	0.	3633.2
3719	9.2461	0.72727	0.	3582.3
3720	9.4305	0.72727	0.	3531.3
3721	9.615	0.72727	0.	3480.2
3722	9.7994	0.72727	0.	3429.2
3723	9.9838	0.72727	0.	3378.2
3724	10.168	0.72727	0.	3327.3
3725	10.353	0.72727	0.	3276.6
3726	10.537	0.72727	0.	3225.9
3727	10.721	0.72727	0.	3175.4
3728	10.906	0.72727	0.	3125.
3729	11.09	0.72727	0.	3074.8
3730	11.275	0.72727	0.	3024.7
3731	11.459	0.72727	0.	2974.8
3732	11.644	0.72727	0.	2925.
3733	11.828	0.72727	0.	2875.5
3734	12.012	0.72727	0.	2826.1
3735	12.197	0.72727	0.	2776.9
3736	12.381	0.72727	0.	2727.8
3737	12.566	0.72727	0.	2679.
3738	12.75	0.72727	0.	2630.3
3739	12.935	0.72727	0.	2581.8
3740	13.119	0.72727	0.	2533.5
3741	13.303	0.72727	0.	2485.3
3742	13.488	0.72727	0.	2437.4
3743	13.672	0.72727	0.	2389.6
3744	13.857	0.72727	0.	2342.1
3745	14.041	0.72727	0.	2294.7
3746	14.226	0.72727	0.	2247.5
3747	14.41	0.72727	0.	2200.5
3748	14.594	0.72727	0.	2153.7
3749	14.779	0.72727	0.	2107.1
3750	14.963	0.72727	0.	2060.7
3751	15.148	0.72727	0.	2014.5
3752	15.332	0.72727	0.	1968.5
3753	15.517	0.72727	0.	1922.6
3754	15.701	0.72727	0.	1877.
3755	15.885	0.72727	0.	1831.6
3756	16.07	0.72727	0.	1786.4
3757	16.254	0.72727	0.	1741.3
3758	16.439	0.72727	0.	1696.5
3759	16.623	0.72727	0.	1651.9
3760	16.807	0.72727	0.	1607.4
3761	16.992	0.72727	0.	1563.2
3762	17.176	0.72727	0.	1519.2
3763	17.361	0.72727	0.	1475.4
3764	17.545	0.72727	0.	1431.8
3765	17.73	0.72727	0.	1388.4
3766	17.914	0.72727	0.	1345.2
3767	18.098	0.72727	0.	1302.1
3768	18.283	0.72727	0.	1259.3
3769	18.467	0.72727	0.	1216.8
3770	18.652	0.72727	0.	1174.4
3771	18.836	0.72727	0.	1132.2
3772	19.021	0.72727	0.	1090.2
3773	19.205	0.72727	0.	1048.4
3774	19.389	0.72727	0.	1006.8
3775	19.574	0.72727	0.	965.47
3776	19.758	0.72727	0.	924.31
3777	19.943	0.72727	0.	883.35
3778	20.127	0.72727	0.	842.59
3779	20.312	0.72727	0.	802.05
3780	20.496	0.72727	0.	761.71
3781	20.68	0.72727	0.	721.58
3782	20.865	0.72727	0.	681.67
3783	21.049	0.72727	0.	641.98
3784	21.234	0.72727	0.	602.52
3785	21.418	0.72727	0.	563.3
3786	21.602	0.72727	0.	524.33
3787	21.787	0.72727	0.	485.64
3788	21.971	0.72727	0.	447.27
3789	22.156	0.72727	0.	409.25
3790	22.34	0.72727	0.	371.66
3791	22.525	0.72727	0.	334.59
3792	22.709	0.72727	0.	298.18
3793	22.893	0.72727	0.	262.66
3794	23.078	0.72727	0.	228.35
3795	23.262	0.72727	0.	195.78
3796	23.447	0.72727	0.	165.76
3797	23.631	0.72727	0.	139.59
3798	23.816	0.72727	0.	119.36
3799	4.4511	0.54545	0.	1969.8
3800	4.6355	0.54545	0.	2074.7
3801	4.8199	0.54545	0.	2414.4
3802	5.0044	0.54545	0.	2781.9
3803	5.1888	0.54545	0.	3115.
3804	5.3732	0.54545	0.	3394.3
3805	5.5576	0.54545	0.	3617.2
3806	5.7421	0.54545	0.	3788.4
3807	5.9265	0.54545	0.	3914.8
3808	6.1109	0.54545	0.	4004.
3809	6.2953	0.54545	0.	4062.8
3810	6.4798	0.54545	0.	4097.1
3811	6.6642	0.54545	0.	4111.8
3812	6.8486	0.54545	0.	4111.2
3813	7.033	0.54545	0.	4098.5
3814	7.2174	0.54545	0.	4076.4
3815	7.4019	0.54545	0.	4047.
3816	7.5863	0.54545	0.	4011.9
3817	7.7707	0.54545	0.	3972.5
3818	7.9551	0.54545	0.	3929.9
3819	8.1396	0.54545	0.	3884.8
3820	8.324	0.54545	0.	3837.8
3821	8.5084	0.54545	0.	3789.5
3822	8.6928	0.54545	0.	3740.1
3823	8.8773	0.54545	0.	3690.1
3824	9.0617	0.54545	0.	3639.5
3825	9.2461	0.54545	0.	3588.7
3826	9.4305	0.54545	0.	3537.6
3827	9.615	0.54545	0.	3486.4
3828	9.7994	0.54545	0.	3435.2
3829	9.9838	0.54545	0.	3384.
3830	10.168	0.54545	0.	3332.8
3831	10.353	0.54545	0.	3281.8
3832	10.537	0.54545	0.	3230.9
3833	10.721	0.54545	0.	3180.1
3834	10.906	0.54545	0.	3129.5
3835	11.09	0.54545	0.	3079.
3836	11.275	0.54545	0.	3028.7
3837	11.459	0.54545	0.	2978.6
3838	11.644	0.54545	0.	2928.7
3839	11.828	0.54545	0.	2878.9
3840	12.012	0.54545	0.	2829.4
3841	12.197	0.54545	0.	2780.
3842	12.381	0.54545	0.	2730.8
3843	12.566	0.54545	0.	2681.8
3844	12.75	0.54545	0.	2633.
3845	12.935	0.54545	0.	2584.3
3846	13.119	0.54545	0.	2535.9
3847	13.303	0.54545	0.	2487.7
3848	13.488	0.54545	0.	2439.6
3849	13.672	0.54545	0.	2391.8
3850	13.857	0.54545	0.	2344.2
3851	14.041	0.54545	0.	2296.7
3852	14.226	0.54545	0.	2249.5
3853	14.41	0.54545	0.	2202.4
3854	14.594	0.54545	0.	2155.5
3855	14.779	0.54545	0.	2108.9
3856	14.963	0.54545	0.	2062.4
3857	15.148	0.54545	0.	2016.2
3858	15.332	0.54545	0.	1970.1
3859	15.517	0.54545	0.	1924.2
3860	15.701	0.54545	0.	1878.6
3861	15.885	0.54545	0.	1833.1
3862	16.07	0.54545	0.	1787.8
3863	16.254	0.54545	0.	1742.8
3864	16.439	0.54545	0.	1697.9
3865	16.623	0.54545	0.	1653.2
3866	16.807	0.54545	0.	1608.8
3867	16.992	0.54545	0.	1564.5
3868	17.176	0.54545	0.	1520.4
3869	17.361	0.54545	0.	1476.6
3870	17.545	0.54545	0.	1432.9
3871	17.73	0.54545	0.	1389.5
3872	17.914	0.54545	0.	1346.2
3873	18.098	0.54545	0.	1303.1
3874	18.283	0.54545	0.	1260.3
3875	18.467	0.54545	0.	1217.6
3876	18.652	0.54545	0.	1175.1
3877	18.836	0.54545	0.	1132.9
3878	19.021	0.54545	0.	1090.8
3879	19.205	0.54545	0.	1048.9
3880	19.389	0.54545	0.	1007.2
3881	19.574	0.54545	0.	965.74
3882	19.758	0.54545	0.	924.44
3883	19.943	0.54545	0.	883.33
3884	20.127	0.54545	0.	842.41
3885	20.312	0.54545	0.	801.68
3886	20.496	0.54545	0.	761.13
3887	20.68	0.54545	0.	720.77
3888	20.865	0.54545	0.	680.61
3889	21.049	0.54545	0.	640.63
3890	21.234	0.54545	0.	600.84
3891	21.418	0.54545	0.	561.26
3892	21.602	0.54545	0.	521.88
3893	21.787	0.54545	0.	482.73
3894	21.971	0.54545	0.	443.82
3895	22.156	0.54545	0.	405.19
3896	22.34	0.54545	0.	366.88
3897	22.525	0.54545	0.	328.96
3898	22.709	0.54545	0.	291.55
3899	22.893	0.54545	0.	254.8
3900	23.078	0.54545	0.	219.02
3901	23.262	0.54545	0.	184.69
3902	23.447	0.54545	0.	152.65
3903	23.631	0.54545	0.	124.45
3904	23.816	0.54545	0.	102.75
3905	4.4511	0.36364	0.	1408.1
3906	4.6355	0.36364	0.	1680.1
3907	4.8199	0.36364	0.	2121.3
3908	5.0044	0.36364	0.	2550.3
3909	5.1888	0.36364	0.	2925.4
3910	5.3732	0.36364	0.	3237.2
3911	5.5576	0.36364	0.	3487.5
3912	5.7421	0.36364	0.	3682.2
3913	5.9265	0.36364	0.	3829.1
3914	6.1109	0.36364	0.	3935.7
3915	6.2953	0.36364	0.	4009.3
3916	6.4798	0.36364	0.	4055.9
3917	6.6642	0.36364	0.	4080.9
3918	6.8486	0.36364	0.	4088.6
3919	7.033	0.36364	0.	4082.7
3920	7.2174	0.36364	0.	4066.
3921	7.4019	0.36364	0.	4040.9
3922	7.5863	0.36364	0.	4009.3
3923	7.7707	0.36364	0.	3972.6
3924	7.9551	0.36364	0.	3932.
3925	8.1396	0.36364	0.	3888.4
3926	8.324	0.36364	0.	3842.5
3927	8.5084	0.36364	0.	3794.9
3928	8.6928	0.36364	0.	3746.1
3929	8.8773	0.36364	0.	3696.3
3930	9.0617	0.36364	0.	3646.
3931	9.2461	0.36364	0.	3595.1
3932	9.4305	0.36364	0.	3544.
3933	9.615	0.36364	0.	3492.7
3934	9.7994	0.36364	0.	3441.3
3935	9.9838	0.36364	0.	3389.9
3936	10.168	0.36364	0.	3338.5
3937	10.353	0.36364	0.	3287.2
3938	10.537	0.36364	0.	3236.1
3939	10.721	0.36364	0.	3185.1
3940	10.906	0.36364	0.	3134.2
3941	11.09	0.36364	0.	3083.5
3942	11.275	0.36364	0.	3033.
3943	11.459	0.36364	0.	2982.7
3944	11.644	0.36364	0.	2932.6
3945	11.828	0.36364	0.	2882.6
3946	12.012	0.36364	0.	2832.9
3947	12.197	0.36364	0.	2783.3
3948	12.381	0.36364	0.	2734.
3949	12.566	0.36364	0.	2684.8
3950	12.75	0.36364	0.	2635.9
3951	12.935	0.36364	0.	2587.2
3952	13.119	0.36364	0.	2538.6
3953	13.303	0.36364	0.	2490.3
3954	13.488	0.36364	0.	2442.2
3955	13.672	0.36364	0.	2394.2
3956	13.857	0.36364	0.	2346.5
3957	14.041	0.36364	0.	2299.
3958	14.226	0.36364	0.	2251.7
3959	14.41	0.36364	0.	2204.5
3960	14.594	0.36364	0.	2157.6
3961	14.779	0.36364	0.	2110.9
3962	14.963	0.36364	0.	2064.4
3963	15.148	0.36364	0.	2018.1
3964	15.332	0.36364	0.	1972.
3965	15.517	0.36364	0.	1926.1
3966	15.701	0.36364	0.	1880.4
3967	15.885	0.36364	0.	1834.9
3968	16.07	0.36364	0.	1789.6
3969	16.254	0.36364	0.	1744.5
3970	16.439	0.36364	0.	1699.6
3971	16.623	0.36364	0.	1654.9
3972	16.807	0.36364	0.	1610.4
3973	16.992	0.36364	0.	1566.1
3974	17.176	0.36364	0.	1522.
3975	17.361	0.36364	0.	1478.1
3976	17.545	0.36364	0.	1434.4
3977	17.73	0.36364	0.	1390.9
3978	17.914	0.36364	0.	1347.6
3979	18.098	0.36364	0.	1304.5
3980	18.283	0.36364	0.	1261.6
3981	18.467	0.36364	0.	1218.9
3982	18.652	0.36364	0.	1176.3
3983	18.836	0.36364	0.	1134.
3984	19.021	0.36364	0.	1091.8
3985	19.205	0.36364	0.	1049.9
3986	19.389	0.36364	0.	1008.1
3987	19.574	0.36364	0.	966.49
3988	19.758	0.36364	0.	925.06
3989	19.943	0.36364	0.	883.82
3990	20.127	0.36364	0.	842.75
3991	20.312	0.36364	0.	801.85
3992	20.496	0.36364	0.	761.12
3993	20.68	0.36364	0.	720.56
3994	20.865	0.36364	0.	680.16
3995	21.049	0.36364	0.	639.92
3996	21.234	0.36364	0.	599.85
3997	21.418	0.36364	0.	559.94
3998	21.602	0.36364	0.	520.2
3999	21.787	0.36364	0.	480.62
4000	21.971	0.36364	0.	441.23
4001	22.156	0.36364	0.	402.03
4002	22.34	0.36364	0.	363.05
4003	22.525	0.36364	0.	324.33
4004	22.709	0.36364	0.	285.93
4005	22.893	0.36364	0.	247.96
4006	23.078	0.36364	0.	210.6
4007	23.262	0.36364	0.	174.19
4008	23.447	0.36364	0.	139.42
4009	23.631	0.36364	0.	107.9
4010	23.816	0.36364	0.	83.316
4011	4.4511	0.18182	0.	965.64
4012	4.6355	0.18182	0.	1451.5
4013	4.8199	0.18182	0.	1960.5
4014	5.0044	0.18182	0.	2415.4
4015	5.1888	0.18182	0.	2805.
4016	5.3732	0.18182	0.	3129.3
4017	5.5576	0.18182	0.	3392.4
4018	5.7421	0.18182	0.	3600.3
4019	5.9265	0.18182	0.	3760.1
4020	6.1109	0.18182	0.	3879.
4021	6.2953	0.18182	0.	3963.6
4022	6.4798	0.18182	0.	4020.1
4023	6.6642	0.18182	0.	4053.7
4024	6.8486	0.18182	0.	4068.7
4025	7.033	0.18182	0.	4068.8
4026	7.2174	0.18182	0.	4057.1
4027	7.4019	0.18182	0.	4036.
4028	7.5863	0.18182	0.	4007.6
4029	7.7707	0.18182	0.	3973.4
4030	7.9551	0.18182	0.	3934.8
4031	8.1396	0.18182	0.	3892.7
4032	8.324	0.18182	0.	3847.9
4033	8.5084	0.18182	0.	3801.2
4034	8.6928	0.18182	0.	3752.9
4035	8.8773	0.18182	0.	3703.6
4036	9.0617	0.18182	0.	3653.4
4037	9.2461	0.18182	0.	3602.7
4038	9.4305	0.18182	0.	3551.6
4039	9.615	0.18182	0.	3500.2
4040	9.7994	0.18182	0.	3448.7
4041	9.9838	0.18182	0.	3397.2
4042	10.168	0.18182	0.	3345.7
4043	10.353	0.18182	0.	3294.2
4044	10.537	0.18182	0.	3242.9
4045	10.721	0.18182	0.	3191.7
4046	10.906	0.18182	0.	3140.7
4047	11.09	0.18182	0.	3089.8
4048	11.275	0.18182	0.	3039.1
4049	11.459	0.18182	0.	2988.6
4050	11.644	0.18182	0.	2938.4
4051	11.828	0.18182	0.	2888.3
4052	12.012	0.18182	0.	2838.4
4053	12.197	0.18182	0.	2788.8
4054	12.381	0.18182	0.	2739.3
4055	12.566	0.18182	0.	2690.1
4056	12.75	0.18182	0.	2641.1
4057	12.935	0.18182	0.	2592.2
4058	13.119	0.18182	0.	2543.6
4059	13.303	0.18182	0.	2495.3
4060	13.488	0.18182	0.	2447.1
4061	13.672	0.18182	0.	2399.1
4062	13.857	0.18182	0.	2351.3
4063	14.041	0.18182	0.	2303.8
4064	14.226	0.18182	0.	2256.5
4065	14.41	0.18182	0.	2209.3
4066	14.594	0.18182	0.	2162.4
4067	14.779	0.18182	0.	2115.7
4068	14.963	0.18182	0.	2069.2
4069	15.148	0.18182	0.	2022.9
4070	15.332	0.18182	0.	1976.8
4071	15.517	0.18182	0.	1930.9
4072	15.701	0.18182	0.	1885.2
4073	15.885	0.18182	0.	1839.7
4074	16.07	0.18182	0.	1794.4
4075	16.254	0.18182	0.	1749.3
4076	16.439	0.18182	0.	1704.4
4077	16.623	0.18182	0.	1659.8
4078	16.807	0.18182	0.	1615.3
4079	16.992	0.18182	0.	1571.
4080	17.176	0.18182	0.	1526.9
4081	17.361	0.18182	0.	1483.1
4082	17.545	0.18182	0.	1439.4
4083	17.73	0.18182	0.	1395.9
4084	17.914	0.18182	0.	1352.6
4085	18.098	0.18182	0.	1309.5
4086	18.283	0.18182	0.	1266.6
4087	18.467	0.18182	0.	1223.9
4088	18.652	0.18182	0.	1181.3
4089	18.836	0.18182	0.	1139.
4090	19.021	0.18182	0.	1096.8
4091	19.205	0.18182	0.	1054.8
4092	19.389	0.18182	0.	1013.
4093	19.574	0.18182	0.	971.34
4094	19.758	0.18182	0.	929.87
4095	19.943	0.18182	0.	888.55
4096	20.127	0.18182	0.	847.4
4097	20.312	0.18182	0.	806.4
4098	20.496	0.18182	0.	765.56
4099	20.68	0.18182	0.	724.85
4100	20.865	0.18182	0.	684.29
4101	21.049	0.18182	0.	643.87
4102	21.234	0.18182	0.	603.57
4103	21.418	0.18182	0.	563.4
4104	21.602	0.18182	0.	523.35
4105	21.787	0.18182	0.	483.42
4106	21.971	0.18182	0.	443.6
4107	22.156	0.18182	0.	403.9
4108	22.34	0.18182	0.	364.32
4109	22.525	0.18182	0.	324.86
4110	22.709	0.18182	0.	285.54
4111	22.893	0.18182	0.	246.39
4112	23.078	0.18182	0.	207.46
4113	23.262	0.18182	0.	168.86
4114	23.447	0.18182	0.	130.8
4115	23.631	0.18182	0.	93.977
4116	23.816	0.18182	0.	61.717
4117	23.816	0.18182	0.1	61.717
4118	23.631	0.18182	0.1	93.977
4119	23.447	0.18182	0.1	130.8
4120	23.262	0.18182	0.1	168.86
4121	23.078	0.18182	0.1	207.46
4122	22.893	0.18182	0.1	246.39
4123	22.709	0.18182	0.1	285.54
4124	22.525	0.18182	0.1	324.86
4125	22.34	0.18182	0.1	364.32
4126	22.156	0.18182	0.1	403.9
4127	21.971	0.18182	0.1	443.6
4128	21.787	0.18182	0.1	483.42
4129	21.602	0.18182	0.1	523.35
4130	21.418	0.18182	0.1	563.4
4131	21.234	0.18182	0.1	603.57
4132	21.049	0.18182	0.1	643.87
4133	20.865	0.18182	0.1	684.29
4134	20.68	0.18182	0.1	724.85
4135	20.496	0.18182	0.1	765.56
4136	20.312	0.18182	0.1	806.4
4137	20.127	0.18182	0.1	847.4
4138	19.943	0.18182	0.1	888.55
4139	19.758	0.18182	0.1	929.87
4140	19.574	0.18182	0.1	971.34
4141	19.389	0.18182	0.1	1013.
4142	19.205	0.18182	0.1	1054.8
4143	19.021	0.18182	0.1	1096.8
4144	18.836	0.18182	0.1	1139.
4145	18.652	0.18182	0.1	1181.3
4146	18.467	0.18182	0.1	1223.9
4147	18.283	0.18182	0.1	1266.6
4148	18.098	0.18182	0.1	1309.5
4149	17.914	0.18182	0.1	1352.6
4150	17.73	0.18182	0.1	1395.9
4151	17.545	0.18182	0.1	1439.4
4152	17.361	0.18182	0.1	1483.1
4153	17.176	0.18182	0.1	1526.9
4154	16.992	0.18182	0.1	1571.
4155	16.807	0.18182	0.1	1615.3
4156	16.623	0.18182	0.1	1659.8
4157	16.439	0.18182	0.1	1704.4
4158	16.254	0.18182	0.1	1749.3
4159	16.07	0.18182	0.1	1794.4
4160	15.885	0.18182	0.1	1839.7
4161	15.701	0.18182	0.1	1885.2
4162	15.517	0.18182	0.1	1930.9
4163	15.332	0.18182	0.1	1976.8
4164	15.148	0.18182	0.1	2022.9
4165	14.963	0.18182	0.1	2069.2
4166	14.779	0.18182	0.1	2115.7
4167	14.594	0.18182	0.1	2162.4
4168	14.41	0.18182	0.1	2209.3
4169	14.226	0.18182	0.1	2256.5
4170	14.041	0.18182	0.1	2303.8
4171	13.857	0.18182	0.1	2351.3
4172	13.672	0.18182	0.1	2399.1
4173	13.488	0.18182	0.1	2447.1
4174	13.303	0.18182	0.1	2495.3
4175	13.119	0.18182	0.1	2543.6
4176	12.935	0.18182	0.1	2592.2
4177	12.75	0.18182	0.1	2641.1
4178	12.566	0.18182	0.1	2690.1
4179	12.381	0.18182	0.1	2739.3
4180	12.197	0.18182	0.1	2788.8
4181	12.012	0.18182	0.1	2838.4
4182	11.828	0.18182	0.1	2888.3
4183	11.644	0.18182	0.1	2938.4
4184	11.459	0.18182	0.1	2988.6
4185	11.275	0.18182	0.1	3039.1
4186	11.09	0.18182	0.1	3089.8
4187	10.906	0.18182	0.1	3140.7
4188	10.721	0.18182	0.1	3191.7
4189	10.537	0.18182	0.1	3242.9
4190	10.353	0.18182	0.1	3294.2
4191	10.168	0.18182	0.1	3345.7
4192	9.9838	0.18182	0.1	3397.2
4193	9.7994	0.18182	0.1	3448.7
4194	9.615	0.18182	0.1	3500.2
4195	9.4305	0.18182	0.1	3551.6
4196	9.2461	0.18182	0.1	3602.7
4197	9.0617	0.18182	0.1	3653.4
4198	8.8773	0.18182	0.1	3703.6
4199	8.6928	0.18182	0.1	3752.9
4200	8.5084	0.18182	0.1	3801.2
4201	8.324	0.18182	0.1	3847.9
4202	8.1396	0.18182	0.1	3892.7
4203	7.9551	0.18182	0.1	3934.8
4204	7.7707	0.18182	0.1	3973.4
4205	7.5863	0.18182	0.1	4007.6
4206	7.4019	0.18182	0.1	4036.
4207	7.2174	0.18182	0.1	4057.1
4208	7.033	0.18182	0.1	4068.8
4209	6.8486	0.18182	0.1	4068.7
4210	6.6642	0.18182	0.1	4053.7
4211	6.4798	0.18182	0.1	4020.1
4212	6.2953	0.18182	0.1	3963.6
4213	6.1109	0.18182	0.1	3879.
4214	5.9265	0.18182	0.1	3760.1
4215	5.7421	0.18182	0.1	3600.3
4216	5.5576	0.18182	0.1	3392.4
4217	5.3732	0.18182	0.1	3129.3
4218	5.1888	0.18182	0.1	2805.
4219	5.0044	0.18182	0.1	2415.4
4220	4.8199	0.18182	0.1	1960.5
4221	4.6355	0.18182	0.1	1451.5
4222	4.4511	0.18182	0.1	965.64
4223	23.816	0.36364	0.1	83.316
4224	23.631	0.36364	0.1	107.9
4225	23.447	0.36364	0.1	139.42
4226	23.262	0.36364	0.1	174.19
4227	23.078	0.36364	0.1	210.6
4228	22.893	0.36364	0.1	247.96
4229	22.709	0.36364	0.1	285.93
4230	22.525	0.36364	0.1	324.33
4231	22.34	0.36364	0.1	363.05
4232	22.156	0.36364	0.1	402.03
4233	21.971	0.36364	0.1	441.23
4234	21.787	0.36364	0.1	480.62
4235	21.602	0.36364	0.1	520.2
4236	21.418	0.36364	0.1	559.94
4237	21.234	0.36364	0.1	599.85
4238	21.049	0.36364	0.1	639.92
4239	20.865	0.36364	0.1	680.16
4240	20.68	0.36364	0.1	720.56
4241	20.496	0.36364	0.1	761.12
4242	20.312	0.36364	0.1	801.85
4243	20.127	0.36364	0.1	842.75
4244	19.943	0.36364	0.1	883.82
4245	19.758	0.36364	0.1	925.06
4246	19.574	0.36364	0.1	966.49
4247	19.389	0.36364	0.1	1008.1
4248	19.205	0.36364	0.1	1049.9
4249	19.021	0.36364	0.1	1091.8
4250	18.836	0.36364	0.1	1134.
4251	18.652	0.36364	0.1	1176.3
4252	18.467	0.36364	0.1	1218.9
4253	18.283	0.36364	0.1	1261.6
4254	18.098	0.36364	0.1	1304.5
4255	17.914	0.36364	0.1	1347.6
4256	17.73	0.36364	0.1	1390.9
4257	17.545	0.36364	0.1	1434.4
4258	17.361	0.36364	0.1	1478.1
4259	17.176	0.36364	0.1	1522.
4260	16.992	0.36364	0.1	1566.1
4261	16.807	0.36364	0.1	1610.4
4262	16.623	0.36364	0.1	1654.9
4263	16.439	0.36364	0.1	1699.6
4264	16.254	0.36364	0.1	1744.5
4265	16.07	0.36364	0.1	1789.6
4266	15.885	0.36364	0.1	1834.9
4267	15.701	0.36364	0.1	1880.4
4268	15.517	0.36364	0.1	1926.1
4269	15.332	0.36364	0.1	1972.
4270	15.148	0.36364	0.1	2018.1
4271	14.963	0.36364	0.1	2064.4
4272	14.779	0.36364	0.1	2110.9
4273	14.594	0.36364	0.1	2157.6
4274	14.41	0.36364	0.1	2204.5
4275	14.226	0.36364	0.1	2251.7
4276	14.041	0.36364	0.1	2299.
4277	13.857	0.36364	0.1	2346.5
4278	13.672	0.36364	0.1	2394.2
4279	13.488	0.36364	0.1	2442.2
4280	13.303	0.36364	0.1	2490.3
4281	13.119	0.36364	0.1	2538.6
4282	12.935	0.36364	0.1	2587.2
4283	12.75	0.36364	0.1	2635.9
4284	12.566	0.36364	0.1	2684.8
4285	12.381	0.36364	0.1	2734.
4286	12.197	0.36364	0.1	2783.3
4287	12.012	0.36364	0.1	2832.9
4288	11.828	0.36364	0.1	2882.6
4289	11.644	0.36364	0.1	2932.6
4290	11.459	0.36364	0.1	2982.7
4291	11.275	0.36364	0.1	3033.
4292	11.09	0.36364	0.1	3083.5
4293	10.906	0.36364	0.1	3134.2
4294	10.721	0.36364	0.1	3185.1
4295	10.537	0.36364	0.1	3236.1
4296	10.353	0.36364	0.1	3287.2
4297	10.168	0.36364	0.1	3338.5
4298	9.9838	0.36364	0.1	3389.9
4299	9.7994	0.36364	0.1	3441.3
4300	9.615	0.36364	0.1	3492.7
4301	9.4305	0.36364	0.1	3544.
4302	9.2461	0.36364	0.1	3595.1
4303	9.0617	0.36364	0.1	3646.
4304	8.8773	0.36364	0.1	3696.3
4305	8.6928	0.36364	0.1	3746.1
4306	8.5084	0.36364	0.1	3794.9
4307	8.324	0.36364	0.1	3842.5
4308	8.1396	0.36364	0.1	3888.4
4309	7.9551	0.36364	0.1	3932.
4310	7.7707	0.36364	0.1	3972.6
4311	7.5863	0.36364	0.1	4009.3
4312	7.4019	0.36364	0.1	4040.9
4313	7.2174	0.36364	0.1	4066.
4314	7.033	0.36364	0.1	4082.7
4315	6.8486	0.36364	0.1	4088.6
4316	6.6642	0.36364	0.1	4080.9
4317	6.4798	0.36364	0.1	4055.9
4318	6.2953	0.36364	0.1	4009.3
4319	6.1109	0.36364	0.1	3935.7
4320	5.9265	0.36364	0.1	3829.1
4321	5.7421	0.36364	0.1	3682.2
4322	5.5576	0.36364	0.1	3487.5
4323	5.3732	0.36364	0.1	3237.2
4324	5.1888	0.36364	0.1	2925.4
4325	5.0044	0.36364	0.1	2550.3
4326	4.8199	0.36364	0.1	2121.3
4327	4.6355	0.36364	0.1	1680.1
4328	4.4511	0.36364	0.1	1408.1
4329	23.816	0.54545	0.1	102.75
4330	23.631	0.54545	0.1	124.45
4331	23.447	0.54545	0.1	152.65
4332	23.262	0.54545	0.1	184.69
4333	23.078	0.54545	0.1	219.02
4334	22.893	0.54545	0.1	254.8
4335	22.709	0.54545	0.1	291.55
4336	22.525	0.54545	0.1	328.96
4337	22.34	0.54545	0.1	366.88
4338	22.156	0.54545	0.1	405.19
4339	21.971	0.54545	0.1	443.82
4340	21.787	0.54545	0.1	482.73
4341	21.602	0.54545	0.1	521.88
4342	21.418	0.54545	0.1	561.26
4343	21.234	0.54545	0.1	600.84
4344	21.049	0.54545	0.1	640.63
4345	20.865	0.54545	0.1	680.61
4346	20.68	0.54545	0.1	720.77
4347	20.496	0.54545	0.1	761.13
4348	20.312	0.54545	0.1	801.68
4349	20.127	0.54545	0.1	842.41
4350	19.943	0.54545	0.1	883.33
4351	19.758	0.54545	0.1	924.44
4352	19.574	0.54545	0.1	965.74
4353	19.389	0.54545	0.1	1007.2
4354	19.205	0.54545	0.1	1048.9
4355	19.021	0.54545	0.1	1090.8
4356	18.836	0.54545	0.1	1132.9
4357	18.652	0.54545	0.1	1175.1
4358	18.467	0.54545	0.1	1217.6
4359	18.283	0.54545	0.1	1260.3
4360	18.098	0.54545	0.1	1303.1
4361	17.914	0.54545	0.1	1346.2
4362	17.73	0.54545	0.1	1389.5
4363	17.545	0.54545	0.1	1432.9
4364	17.361	0.54545	0.1	1476.6
4365	17.176	0.54545	0.1	1520.4
4366	16.992	0.54545	0.1	1564.5
4367	16.807	0.54545	0.1	1608.8
4368	16.623	0.54545	0.1	1653.2
4369	16.439	0.54545	0.1	1697.9
4370	16.254	0.54545	0.1	1742.8
4371	16.07	0.54545	0.1	1787.8
4372	15.885	0.54545	0.1	1833.1
4373	15.701	0.54545	0.1	1878.6
4374	15.517	0.54545	0.1	1924.2
4375	15.332	0.54545	0.1	1970.1
4376	15.148	0.54545	0.1	2016.2
4377	14.963	0.54545	0.1	2062.4
4378	14.779	0.54545	0.1	2108.9
4379	14.594	0.54545	0.1	2155.5
4380	14.41	0.54545	0.1	2202.4
4381	14.226	0.54545	0.1	2249.5
4382	14.041	0.54545	0.1	2296.7
4383	13.857	0.54545	0.1	2344.2
4384	13.672	0.54545	0.1	2391.8
4385	13.488	0.54545	0.1	2439.6
4386	13.303	0.54545	0.1	2487.7
4387	13.119	0.54545	0.1	2535.9
4388	12.935	0.54545	0.1	2584.3
4389	12.75	0.54545	0.1	2633.
4390	12.566	0.54545	0.1	2681.8
4391	12.381	0.54545	0.1	2730.8
4392	12.197	0.54545	0.1	2780.
4393	12.012	0.54545	0.1	2829.4
4394	11.828	0.54545	0.1	2878.9
4395	11.644	0.54545	0.1	2928.7
4396	11.459	0.54545	0.1	2978.6
4397	11.275	0.54545	0.1	3028.7
4398	11.09	0.54545	0.1	3079.
4399	10.906	0.54545	0.1	3129.5
4400	10.721	0.54545	0.1	3180.1
4401	10.537	0.54545	0.1	3230.9
4402	10.353	0.54545	0.1	3281.8
4403	10.168	0.54545	0.1	3332.8
4404	9.9838	0.54545	0.1	3384.
4405	9.7994	0.54545	0.1	3435.2
4406	9.615	0.54545	0.1	3486.4
4407	9.4305	0.54545	0.1	3537.6
4408	9.2461	0.54545	0.1	3588.7
4409	9.0617	0.54545	0.1	3639.5
4410	8.8773	0.54545	0.1	3690.1
4411	8.6928	0.54545	0.1	3740.1
4412	8.5084	0.54545	0.1	3789.5
4413	8.324	0.54545	0.1	3837.8
4414	8.1396	0.54545	0.1	3884.8
4415	7.9551	0.54545	0.1	3929.9
4416	7.7707	0.54545	0.1	3972.5
4417	7.5863	0.54545	0.1	4011.9
4418	7.4019	0.54545	0.1	4047.
4419	7.2174	0.54545	0.1	4076.4
4420	7.033	0.54545	0.1	4098.5
4421	6.8486	0.54545	0.1	4111.2
4422	6.6642	0.54545	0.1	4111.8
4423	6.4798	0.54545	0.1	4097.1
4424	6.2953	0.54545	0.1	4062.8
4425	6.1109	0.54545	0.1	4004.
4426	5.9265	0.54545	0.1	3914.8
4427	5.7421	0.54545	0.1	3788.4
4428	5.5576	0.54545	0.1	3617.2
4429	5.3732	0.54545	0.1	3394.3
4430	5.1888	0.54545	0.1	3115.
4431	5.0044	0.54545	0.1	2781.9
4432	4.8199	0.54545	0.1	2414.4
4433	4.6355	0.54545	0.1	2074.7
4434	4.4511	0.54545	0.1	1969.8
4435	23.816	0.72727	0.1	119.36
4436	23.631	0.72727	0.1	139.59
4437	23.447	0.72727	0.1	165.76
4438	23.262	0.72727	0.1	195.78
4439	23.078	0.72727	0.1	228.35
4440	22.893	0.72727	0.1	262.66
4441	22.709	0.72727	0.1	298.18
4442	22.525	0.72727	0.1	334.59
4443	22.34	0.72727	0.1	371.66
4444	22.156	0.72727	0.1	409.25
4445	21.971	0.72727	0.1	447.27
4446	21.787	0.72727	0.1	485.64
4447	21.602	0.72727	0.1	524.33
4448	21.418	0.72727	0.1	563.3
4449	21.234	0.72727	0.1	602.52
4450	21.049	0.72727	0.1	641.98
4451	20.865	0.72727	0.1	681.67
4452	20.68	0.72727	0.1	721.58
4453	20.496	0.72727	0.1	761.71
4454	20.312	0.72727	0.1	802.05
4455	20.127	0.72727	0.1	842.59
4456	19.943	0.72727	0.1	883.35
4457	19.758	0.72727	0.1	924.31
4458	19.574	0.72727	0.1	965.47
4459	19.389	0.72727	0.1	1006.8
4460	19.205	0.72727	0.1	1048.4
4461	19.021	0.72727	0.1	1090.2
4462	18.836	0.72727	0.1	1132.2
4463	18.652	0.72727	0.1	1174.4
4464	18.467	0.72727	0.1	1216.8
4465	18.283	0.72727	0.1	1259.3
4466	18.098	0.72727	0.1	1302.1
4467	17.914	0.72727	0.1	1345.2
4468	17.73	0.72727	0.1	1388.4
4469	17.545	0.72727	0.1	1431.8
4470	17.361	0.72727	0.1	1475.4
4471	17.176	0.72727	0.1	1519.2
4472	16.992	0.72727	0.1	1563.2
4473	16.807	0.72727	0.1	1607.4
4474	16.623	0.72727	0.1	1651.9
4475	16.439	0.72727	0.1	1696.5
4476	16.254	0.72727	0.1	1741.3
4477	16.07	0.72727	0.1	1786.4
4478	15.885	0.72727	0.1	1831.6
4479	15.701	0.72727	0.1	1877.
4480	15.517	0.72727	0.1	1922.6
4481	15.332	0.72727	0.1	1968.5
4482	15.148	0.72727	0.1	2014.5
4483	14.963	0.72727	0.1	2060.7
4484	14.779	0.72727	0.1	2107.1
4485	14.594	0.72727	0.1	2153.7
4486	14.41	0.72727	0.1	2200.5
4487	14.226	0.72727	0.1	2247.5
4488	14.041	0.72727	0.1	2294.7
4489	13.857	0.72727	0.1	2342.1
4490	13.672	0.72727	0.1	2389.6
4491	13.488	0.72727	0.1	2437.4
4492	13.303	0.72727	0.1	2485.3
4493	13.119	0.72727	0.1	2533.5
4494	12.935	0.72727	0.1	2581.8
4495	12.75	0.72727	0.1	2630.3
4496	12.566	0.72727	0.1	2679.
4497	12.381	0.72727	0.1	2727.8
4498	12.197	0.72727	0.1	2776.9
4499	12.012	0.72727	0.1	2826.1
4500	11.828	0.72727	0.1	2875.5
4501	11.644	0.72727	0.1	2925.
4502	11.459	0.72727	0.1	2974.8
4503	11.275	0.72727	0.1	3024.7
4504	11.09	0.72727	0.1	3074.8
4505	10.906	0.72727	0.1	3125.
4506	10.721	0.72727	0.1	3175.4
4507	10.537	0.72727	0.1	3225.9
4508	10.353	0.72727	0.1	3276.6
4509	10.168	0.72727	0.1	3327.3
4510	9.9838	0.72727	0.1	3378.2
4511	9.7994	0.72727	0.1	3429.2
4512	9.615	0.72727	0.1	3480.2
4513	9.4305	0.72727	0.1	3531.3
4514	9.2461	0.72727	0.1	3582.3
4515	9.0617	0.72727	0.1	3633.2
4516	8.8773	0.72727	0.1	3683.8
4517	8.6928	0.72727	0.1	3734.1
4518	8.5084	0.72727	0.1	3784.
4519	8.324	0.72727	0.1	3833.
4520	8.1396	0.72727	0.1	3881.
4521	7.9551	0.72727	0.1	3927.6
4522	7.7707	0.72727	0.1	3972.3
4523	7.5863	0.72727	0.1	4014.3
4524	7.4019	0.72727	0.1	4052.9
4525	7.2174	0.72727	0.1	4086.9
4526	7.033	0.72727	0.1	4114.9
4527	6.8486	0.72727	0.1	4135.
4528	6.6642	0.72727	0.1	4145.
4529	6.4798	0.72727	0.1	4141.9
4530	6.2953	0.72727	0.1	4122.2
4531	6.1109	0.72727	0.1	4081.6
4532	5.9265	0.72727	0.1	4014.8
4533	5.7421	0.72727	0.1	3915.8
4534	5.5576	0.72727	0.1	3778.3
4535	5.3732	0.72727	0.1	3596.6
4536	5.1888	0.72727	0.1	3368.2
4537	5.0044	0.72727	0.1	3099.2
4538	4.8199	0.72727	0.1	2814.3
4539	4.6355	0.72727	0.1	2578.2
4540	4.4511	0.72727	0.1	2604.7
4541	23.816	0.90909	0.1	133.65
4542	23.631	0.90909	0.1	153.
4543	23.447	0.90909	0.1	177.87
4544	23.262	0.90909	0.1	206.46
4545	23.078	0.90909	0.1	237.65
4546	22.893	0.90909	0.1	270.71
4547	22.709	0.90909	0.1	305.14
4548	22.525	0.90909	0.1	340.6
4549	22.34	0.90909	0.1	376.85
4550	22.156	0.90909	0.1	413.73
4551	21.971	0.90909	0.1	451.12
4552	21.787	0.90909	0.1	488.95
4553	21.602	0.90909	0.1	527.15
4554	21.418	0.90909	0.1	565.69
4555	21.234	0.90909	0.1	604.53
4556	21.049	0.90909	0.1	643.65
4557	20.865	0.90909	0.1	683.04
4558	20.68	0.90909	0.1	722.68
4559	20.496	0.90909	0.1	762.56
4560	20.312	0.90909	0.1	802.68
4561	20.127	0.90909	0.1	843.03
4562	19.943	0.90909	0.1	883.6
4563	19.758	0.90909	0.1	924.4
4564	19.574	0.90909	0.1	965.42
4565	19.389	0.90909	0.1	1006.7
4566	19.205	0.90909	0.1	1048.1
4567	19.021	0.90909	0.1	1089.8
4568	18.836	0.90909	0.1	1131.7
4569	18.652	0.90909	0.1	1173.8
4570	18.467	0.90909	0.1	1216.1
4571	18.283	0.90909	0.1	1258.6
4572	18.098	0.90909	0.1	1301.3
4573	17.914	0.90909	0.1	1344.3
4574	17.73	0.90909	0.1	1387.4
4575	17.545	0.90909	0.1	1430.8
4576	17.361	0.90909	0.1	1474.3
4577	17.176	0.90909	0.1	1518.1
4578	16.992	0.90909	0.1	1562.1
4579	16.807	0.90909	0.1	1606.3
4580	16.623	0.90909	0.1	1650.7
4581	16.439	0.90909	0.1	1695.3
4582	16.254	0.90909	0.1	1740.
4583	16.07	0.90909	0.1	1785.
4584	15.885	0.90909	0.1	1830.2
4585	15.701	0.90909	0.1	1875.6
4586	15.517	0.90909	0.1	1921.2
4587	15.332	0.90909	0.1	1967.
4588	15.148	0.90909	0.1	2013.
4589	14.963	0.90909	0.1	2059.1
4590	14.779	0.90909	0.1	2105.5
4591	14.594	0.90909	0.1	2152.
4592	14.41	0.90909	0.1	2198.8
4593	14.226	0.90909	0.1	2245.7
4594	14.041	0.90909	0.1	2292.8
4595	13.857	0.90909	0.1	2340.1
4596	13.672	0.90909	0.1	2387.6
4597	13.488	0.90909	0.1	2435.3
4598	13.303	0.90909	0.1	2483.2
4599	13.119	0.90909	0.1	2531.2
4600	12.935	0.90909	0.1	2579.4
4601	12.75	0.90909	0.1	2627.8
4602	12.566	0.90909	0.1	2676.3
4603	12.381	0.90909	0.1	2725.
4604	12.197	0.90909	0.1	2773.9
4605	12.012	0.90909	0.1	2823.
4606	11.828	0.90909	0.1	2872.2
4607	11.644	0.90909	0.1	2921.6
4608	11.459	0.90909	0.1	2971.1
4609	11.275	0.90909	0.1	3020.8
4610	11.09	0.90909	0.1	3070.7
4611	10.906	0.90909	0.1	3120.7
4612	10.721	0.90909	0.1	3170.8
4613	10.537	0.90909	0.1	3221.1
4614	10.353	0.90909	0.1	3271.5
4615	10.168	0.90909	0.1	3322.
4616	9.9838	0.90909	0.1	3372.6
4617	9.7994	0.90909	0.1	3423.4
4618	9.615	0.90909	0.1	3474.2
4619	9.4305	0.90909	0.1	3525.
4620	9.2461	0.90909	0.1	3575.9
4621	9.0617	0.90909	0.1	3626.7
4622	8.8773	0.90909	0.1	3677.5
4623	8.6928	0.90909	0.1	3728.
4624	8.5084	0.90909	0.1	3778.2
4625	8.324	0.90909	0.1	3827.9
4626	8.1396	0.90909	0.1	3876.9
4627	7.9551	0.90909	0.1	3925.
4628	7.7707	0.90909	0.1	3971.6
4629	7.5863	0.90909	0.1	4016.3
4630	7.4019	0.90909	0.1	4058.5
4631	7.2174	0.90909	0.1	4097.2
4632	7.033	0.90909	0.1	4131.3
4633	6.8486	0.90909	0.1	4159.4
4634	6.6642	0.90909	0.1	4179.6
4635	6.4798	0.90909	0.1	4189.6
4636	6.2953	0.90909	0.1	4186.7
4637	6.1109	0.90909	0.1	4167.3
4638	5.9265	0.90909	0.1	4127.4
4639	5.7421	0.90909	0.1	4062.7
4640	5.5576	0.90909	0.1	3968.5
4641	5.3732	0.90909	0.1	3841.5
4642	5.1888	0.90909	0.1	3681.4
4643	5.0044	0.90909	0.1	3496.2
4644	4.8199	0.90909	0.1	3310.1
4645	4.6355	0.90909	0.1	3180.3
4646	4.4511	0.90909	0.1	3331.7
4647	23.816	1.0909	0.1	146.04
4648	23.631	1.0909	0.1	164.8
4649	23.447	1.0909	0.1	188.76
4650	23.262	1.0909	0.1	216.33
4651	23.078	1.0909	0.1	246.47
4652	22.893	1.0909	0.1	278.54
4653	22.709	1.0909	0.1	312.04
4654	22.525	1.0909	0.1	346.66
4655	22.34	1.0909	0.1	382.16
4656	22.156	1.0909	0.1	418.37
4657	21.971	1.0909	0.1	455.16
4658	21.787	1.0909	0.1	492.46
4659	21.602	1.0909	0.1	530.18
4660	21.418	1.0909	0.1	568.3
4661	21.234	1.0909	0.1	606.76
4662	21.049	1.0909	0.1	645.54
4663	20.865	1.0909	0.1	684.62
4664	20.68	1.0909	0.1	723.98
4665	20.496	1.0909	0.1	763.61
4666	20.312	1.0909	0.1	803.51
4667	20.127	1.0909	0.1	843.65
4668	19.943	1.0909	0.1	884.04
4669	19.758	1.0909	0.1	924.67
4670	19.574	1.0909	0.1	965.54
4671	19.389	1.0909	0.1	1006.6
4672	19.205	1.0909	0.1	1048.
4673	19.021	1.0909	0.1	1089.5
4674	18.836	1.0909	0.1	1131.3
4675	18.652	1.0909	0.1	1173.3
4676	18.467	1.0909	0.1	1215.5
4677	18.283	1.0909	0.1	1258.
4678	18.098	1.0909	0.1	1300.7
4679	17.914	1.0909	0.1	1343.5
4680	17.73	1.0909	0.1	1386.6
4681	17.545	1.0909	0.1	1429.9
4682	17.361	1.0909	0.1	1473.4
4683	17.176	1.0909	0.1	1517.2
4684	16.992	1.0909	0.1	1561.1
4685	16.807	1.0909	0.1	1605.2
4686	16.623	1.0909	0.1	1649.6
4687	16.439	1.0909	0.1	1694.1
4688	16.254	1.0909	0.1	1738.9
4689	16.07	1.0909	0.1	1783.8
4690	15.885	1.0909	0.1	1829.
4691	15.701	1.0909	0.1	1874.3
4692	15.517	1.0909	0.1	1919.9
4693	15.332	1.0909	0.1	1965.6
4694	15.148	1.0909	0.1	2011.6
4695	14.963	1.0909	0.1	2057.7
4696	14.779	1.0909	0.1	2104.
4697	14.594	1.0909	0.1	2150.5
4698	14.41	1.0909	0.1	2197.2
4699	14.226	1.0909	0.1	2244.1
4700	14.041	1.0909	0.1	2291.1
4701	13.857	1.0909	0.1	2338.4
4702	13.672	1.0909	0.1	2385.8
4703	13.488	1.0909	0.1	2433.4
4704	13.303	1.0909	0.1	2481.1
4705	13.119	1.0909	0.1	2529.
4706	12.935	1.0909	0.1	2577.1
4707	12.75	1.0909	0.1	2625.4
4708	12.566	1.0909	0.1	2673.8
4709	12.381	1.0909	0.1	2722.4
4710	12.197	1.0909	0.1	2771.2
4711	12.012	1.0909	0.1	2820.1
4712	11.828	1.0909	0.1	2869.1
4713	11.644	1.0909	0.1	2918.3
4714	11.459	1.0909	0.1	2967.7
4715	11.275	1.0909	0.1	3017.1
4716	11.09	1.0909	0.1	3066.8
4717	10.906	1.0909	0.1	3116.5
4718	10.721	1.0909	0.1	3166.4
4719	10.537	1.0909	0.1	3216.4
4720	10.353	1.0909	0.1	3266.6
4721	10.168	1.0909	0.1	3316.8
4722	9.9838	1.0909	0.1	3367.2
4723	9.7994	1.0909	0.1	3417.7
4724	9.615	1.0909	0.1	3468.2
4725	9.4305	1.0909	0.1	3518.9
4726	9.2461	1.0909	0.1	3569.6
4727	9.0617	1.0909	0.1	3620.3
4728	8.8773	1.0909	0.1	3671.
4729	8.6928	1.0909	0.1	3721.7
4730	8.5084	1.0909	0.1	3772.2
4731	8.324	1.0909	0.1	3822.5
4732	8.1396	1.0909	0.1	3872.4
4733	7.9551	1.0909	0.1	3921.8
4734	7.7707	1.0909	0.1	3970.3
4735	7.5863	1.0909	0.1	4017.7
4736	7.4019	1.0909	0.1	4063.4
4737	7.2174	1.0909	0.1	4106.9
4738	7.033	1.0909	0.1	4147.4
4739	6.8486	1.0909	0.1	4183.8
4740	6.6642	1.0909	0.1	4215.
4741	6.4798	1.0909	0.1	4239.2
4742	6.2953	1.0909	0.1	4254.6
4743	6.1109	1.0909	0.1	4259.1
4744	5.9265	1.0909	0.1	4250.1
4745	5.7421	1.0909	0.1	4225.2
4746	5.5576	1.0909	0.1	4182.6
4747	5.3732	1.0909	0.1	4121.9
4748	5.1888	1.0909	0.1	4046.2
4749	5.0044	1.0909	0.1	3965.2
4750	4.8199	1.0909	0.1	3899.5
4751	4.6355	1.0909	0.1	3894.1
4752	4.4511	1.0909	0.1	4191.2
4753	23.816	1.2727	0.1	156.79
4754	23.631	1.2727	0.1	175.13
4755	23.447	1.2727	0.1	198.44
4756	23.262	1.2727	0.1	225.25
4757	23.078	1.2727	0.1	254.6
4758	22.893	1.2727	0.1	285.87
4759	22.709	1.2727	0.1	318.62
4760	22.525	1.2727	0.1	352.52
4761	22.34	1.2727	0.1	387.36
4762	22.156	1.2727	0.1	422.97
4763	21.971	1.2727	0.1	459.21
4764	21.787	1.2727	0.1	496.01
4765	21.602	1.2727	0.1	533.29
4766	21.418	1.2727	0.1	570.99
4767	21.234	1.2727	0.1	609.09
4768	21.049	1.2727	0.1	647.53
4769	20.865	1.2727	0.1	686.31
4770	20.68	1.2727	0.1	725.4
4771	20.496	1.2727	0.1	764.79
4772	20.312	1.2727	0.1	804.46
4773	20.127	1.2727	0.1	844.4
4774	19.943	1.2727	0.1	884.61
4775	19.758	1.2727	0.1	925.07
4776	19.574	1.2727	0.1	965.79
4777	19.389	1.2727	0.1	1006.8
4778	19.205	1.2727	0.1	1048.
4779	19.021	1.2727	0.1	1089.4
4780	18.836	1.2727	0.1	1131.1
4781	18.652	1.2727	0.1	1173.
4782	18.467	1.2727	0.1	1215.1
4783	18.283	1.2727	0.1	1257.5
4784	18.098	1.2727	0.1	1300.1
4785	17.914	1.2727	0.1	1342.9
4786	17.73	1.2727	0.1	1386.
4787	17.545	1.2727	0.1	1429.2
4788	17.361	1.2727	0.1	1472.7
4789	17.176	1.2727	0.1	1516.4
4790	16.992	1.2727	0.1	1560.2
4791	16.807	1.2727	0.1	1604.3
4792	16.623	1.2727	0.1	1648.6
4793	16.439	1.2727	0.1	1693.2
4794	16.254	1.2727	0.1	1737.9
4795	16.07	1.2727	0.1	1782.8
4796	15.885	1.2727	0.1	1827.9
4797	15.701	1.2727	0.1	1873.2
4798	15.517	1.2727	0.1	1918.7
4799	15.332	1.2727	0.1	1964.4
4800	15.148	1.2727	0.1	2010.3
4801	14.963	1.2727	0.1	2056.4
4802	14.779	1.2727	0.1	2102.6
4803	14.594	1.2727	0.1	2149.1
4804	14.41	1.2727	0.1	2195.7
4805	14.226	1.2727	0.1	2242.5
4806	14.041	1.2727	0.1	2289.5
4807	13.857	1.2727	0.1	2336.7
4808	13.672	1.2727	0.1	2384.
4809	13.488	1.2727	0.1	2431.6
4810	13.303	1.2727	0.1	2479.2
4811	13.119	1.2727	0.1	2527.1
4812	12.935	1.2727	0.1	2575.1
4813	12.75	1.2727	0.1	2623.2
4814	12.566	1.2727	0.1	2671.5
4815	12.381	1.2727	0.1	2720.
4816	12.197	1.2727	0.1	2768.6
4817	12.012	1.2727	0.1	2817.3
4818	11.828	1.2727	0.1	2866.2
4819	11.644	1.2727	0.1	2915.3
4820	11.459	1.2727	0.1	2964.4
4821	11.275	1.2727	0.1	3013.7
4822	11.09	1.2727	0.1	3063.1
4823	10.906	1.2727	0.1	3112.6
4824	10.721	1.2727	0.1	3162.3
4825	10.537	1.2727	0.1	3212.
4826	10.353	1.2727	0.1	3261.9
4827	10.168	1.2727	0.1	3311.9
4828	9.9838	1.2727	0.1	3361.9
4829	9.7994	1.2727	0.1	3412.1
4830	9.615	1.2727	0.1	3462.4
4831	9.4305	1.2727	0.1	3512.8
4832	9.2461	1.2727	0.1	3563.3
4833	9.0617	1.2727	0.1	3613.9
4834	8.8773	1.2727	0.1	3664.6
4835	8.6928	1.2727	0.1	3715.3
4836	8.5084	1.2727	0.1	3766.1
4837	8.324	1.2727	0.1	3816.8
4838	8.1396	1.2727	0.1	3867.6
4839	7.9551	1.2727	0.1	3918.1
4840	7.7707	1.2727	0.1	3968.5
4841	7.5863	1.2727	0.1	4018.4
4842	7.4019	1.2727	0.1	4067.6
4843	7.2174	1.2727	0.1	4115.9
4844	7.033	1.2727	0.1	4162.9
4845	6.8486	1.2727	0.1	4207.9
4846	6.6642	1.2727	0.1	4250.4
4847	6.4798	1.2727	0.1	4289.5
4848	6.2953	1.2727	0.1	4324.5
4849	6.1109	1.2727	0.1	4354.5
4850	5.9265	1.2727	0.1	4379.
4851	5.7421	1.2727	0.1	4397.9
4852	5.5576	1.2727	0.1	4412.7
4853	5.3732	1.2727	0.1	4427.3
4854	5.1888	1.2727	0.1	4449.9
4855	5.0044	1.2727	0.1	4494.8
4856	4.8199	1.2727	0.1	4582.8
4857	4.6355	1.2727	0.1	4752.4
4858	4.4511	1.2727	0.1	5254.8
4859	23.816	1.4545	0.1	166.11
4860	23.631	1.4545	0.1	184.14
4861	23.447	1.4545	0.1	206.95
4862	23.262	1.4545	0.1	233.18
4863	23.078	1.4545	0.1	261.92
4864	22.893	1.4545	0.1	292.57
4865	22.709	1.4545	0.1	324.7
4866	22.525	1.4545	0.1	358.02
4867	22.34	1.4545	0.1	392.3
4868	22.156	1.4545	0.1	427.38
4869	21.971	1.4545	0.1	463.14
4870	21.787	1.4545	0.1	499.49
4871	21.602	1.4545	0.1	536.35
4872	21.418	1.4545	0.1	573.68
4873	21.234	1.4545	0.1	611.42
4874	21.049	1.4545	0.1	649.56
4875	20.865	1.4545	0.1	688.05
4876	20.68	1.4545	0.1	726.87
4877	20.496	1.4545	0.1	766.02
4878	20.312	1.4545	0.1	805.48
4879	20.127	1.4545	0.1	845.22
4880	19.943	1.4545	0.1	885.25
4881	19.758	1.4545	0.1	925.56
4882	19.574	1.4545	0.1	966.13
4883	19.389	1.4545	0.1	1007.
4884	19.205	1.4545	0.1	1048.
4885	19.021	1.4545	0.1	1089.4
4886	18.836	1.4545	0.1	1131.
4887	18.652	1.4545	0.1	1172.8
4888	18.467	1.4545	0.1	1214.9
4889	18.283	1.4545	0.1	1257.1
4890	18.098	1.4545	0.1	1299.7
4891	17.914	1.4545	0.1	1342.4
4892	17.73	1.4545	0.1	1385.4
4893	17.545	1.4545	0.1	1428.6
4894	17.361	1.4545	0.1	1472.
4895	17.176	1.4545	0.1	1515.6
4896	16.992	1.4545	0.1	1559.5
4897	16.807	1.4545	0.1	1603.5
4898	16.623	1.4545	0.1	1647.8
4899	16.439	1.4545	0.1	1692.3
4900	16.254	1.4545	0.1	1737.
4901	16.07	1.4545	0.1	1781.8
4902	15.885	1.4545	0.1	1826.9
4903	15.701	1.4545	0.1	1872.2
4904	15.517	1.4545	0.1	1917.7
4905	15.332	1.4545	0.1	1963.3
4906	15.148	1.4545	0.1	2009.2
4907	14.963	1.4545	0.1	2055.2
4908	14.779	1.4545	0.1	2101.4
4909	14.594	1.4545	0.1	2147.8
4910	14.41	1.4545	0.1	2194.4
4911	14.226	1.4545	0.1	2241.2
4912	14.041	1.4545	0.1	2288.1
4913	13.857	1.4545	0.1	2335.2
4914	13.672	1.4545	0.1	2382.5
4915	13.488	1.4545	0.1	2429.9
4916	13.303	1.4545	0.1	2477.5
4917	13.119	1.4545	0.1	2525.3
4918	12.935	1.4545	0.1	2573.2
4919	12.75	1.4545	0.1	2621.2
4920	12.566	1.4545	0.1	2669.4
4921	12.381	1.4545	0.1	2717.8
4922	12.197	1.4545	0.1	2766.2
4923	12.012	1.4545	0.1	2814.8
4924	11.828	1.4545	0.1	2863.6
4925	11.644	1.4545	0.1	2912.4
4926	11.459	1.4545	0.1	2961.4
4927	11.275	1.4545	0.1	3010.5
4928	11.09	1.4545	0.1	3059.6
4929	10.906	1.4545	0.1	3108.9
4930	10.721	1.4545	0.1	3158.3
4931	10.537	1.4545	0.1	3207.8
4932	10.353	1.4545	0.1	3257.4
4933	10.168	1.4545	0.1	3307.1
4934	9.9838	1.4545	0.1	3356.9
4935	9.7994	1.4545	0.1	3406.8
4936	9.615	1.4545	0.1	3456.8
4937	9.4305	1.4545	0.1	3507.
4938	9.2461	1.4545	0.1	3557.2
4939	9.0617	1.4545	0.1	3607.6
4940	8.8773	1.4545	0.1	3658.2
4941	8.6928	1.4545	0.1	3708.9
4942	8.5084	1.4545	0.1	3759.8
4943	8.324	1.4545	0.1	3811.
4944	8.1396	1.4545	0.1	3862.4
4945	7.9551	1.4545	0.1	3914.1
4946	7.7707	1.4545	0.1	3966.1
4947	7.5863	1.4545	0.1	4018.4
4948	7.4019	1.4545	0.1	4071.1
4949	7.2174	1.4545	0.1	4124.1
4950	7.033	1.4545	0.1	4177.5
4951	6.8486	1.4545	0.1	4231.1
4952	6.6642	1.4545	0.1	4285.1
4953	6.4798	1.4545	0.1	4339.5
4954	6.2953	1.4545	0.1	4394.6
4955	6.1109	1.4545	0.1	4451.
4956	5.9265	1.4545	0.1	4510.1
4957	5.7421	1.4545	0.1	4574.7
4958	5.5576	1.4545	0.1	4649.7
4959	5.3732	1.4545	0.1	4744.5
4960	5.1888	1.4545	0.1	4874.7
4961	5.0044	1.4545	0.1	5065.5
4962	4.8199	1.4545	0.1	5356.8
4963	4.6355	1.4545	0.1	5780.7
4964	4.4511	1.4545	0.1	6646.
4965	23.816	1.6364	0.1	174.15
4966	23.631	1.6364	0.1	191.93
4967	23.447	1.6364	0.1	214.35
4968	23.262	1.6364	0.1	240.13
4969	23.078	1.6364	0.1	268.4
4970	22.893	1.6364	0.1	298.56
4971	22.709	1.6364	0.1	330.21
4972	22.525	1.6364	0.1	363.04
4973	22.34	1.6364	0.1	396.85
4974	22.156	1.6364	0.1	431.48
4975	21.971	1.6364	0.1	466.82
4976	21.787	1.6364	0.1	502.77
4977	21.602	1.6364	0.1	539.27
4978	21.418	1.6364	0.1	576.25
4979	21.234	1.6364	0.1	613.68
4980	21.049	1.6364	0.1	651.53
4981	20.865	1.6364	0.1	689.75
4982	20.68	1.6364	0.1	728.34
4983	20.496	1.6364	0.1	767.26
4984	20.312	1.6364	0.1	806.51
4985	20.127	1.6364	0.1	846.08
4986	19.943	1.6364	0.1	885.94
4987	19.758	1.6364	0.1	926.09
4988	19.574	1.6364	0.1	966.52
4989	19.389	1.6364	0.1	1007.2
4990	19.205	1.6364	0.1	1048.2
4991	19.021	1.6364	0.1	1089.4
4992	18.836	1.6364	0.1	1130.9
4993	18.652	1.6364	0.1	1172.7
4994	18.467	1.6364	0.1	1214.6
4995	18.283	1.6364	0.1	1256.9
4996	18.098	1.6364	0.1	1299.3
4997	17.914	1.6364	0.1	1342.
4998	17.73	1.6364	0.1	1384.9
4999	17.545	1.6364	0.1	1428.1
5000	17.361	1.6364	0.1	1471.5
5001	17.176	1.6364	0.1	1515.
5002	16.992	1.6364	0.1	1558.8
5003	16.807	1.6364	0.1	1602.9
5004	16.623	1.6364	0.1	1647.1
5005	16.439	1.6364	0.1	1691.5
5006	16.254	1.6364	0.1	1736.2
5007	16.07	1.6364	0.1	1781.
5008	15.885	1.6364	0.1	1826.
5009	15.701	1.6364	0.1	1871.3
5010	15.517	1.6364	0.1	1916.7
5011	15.332	1.6364	0.1	1962.3
5012	15.148	1.6364	0.1	2008.2
5013	14.963	1.6364	0.1	2054.2
5014	14.779	1.6364	0.1	2100.3
5015	14.594	1.6364	0.1	2146.7
5016	14.41	1.6364	0.1	2193.2
5017	14.226	1.6364	0.1	2239.9
5018	14.041	1.6364	0.1	2286.8
5019	13.857	1.6364	0.1	2333.9
5020	13.672	1.6364	0.1	2381.1
5021	13.488	1.6364	0.1	2428.4
5022	13.303	1.6364	0.1	2476.
5023	13.119	1.6364	0.1	2523.6
5024	12.935	1.6364	0.1	2571.4
5025	12.75	1.6364	0.1	2619.4
5026	12.566	1.6364	0.1	2667.5
5027	12.381	1.6364	0.1	2715.7
5028	12.197	1.6364	0.1	2764.1
5029	12.012	1.6364	0.1	2812.5
5030	11.828	1.6364	0.1	2861.1
5031	11.644	1.6364	0.1	2909.8
5032	11.459	1.6364	0.1	2958.6
5033	11.275	1.6364	0.1	3007.5
5034	11.09	1.6364	0.1	3056.5
5035	10.906	1.6364	0.1	3105.6
5036	10.721	1.6364	0.1	3154.7
5037	10.537	1.6364	0.1	3204.
5038	10.353	1.6364	0.1	3253.3
5039	10.168	1.6364	0.1	3302.7
5040	9.9838	1.6364	0.1	3352.2
5041	9.7994	1.6364	0.1	3401.8
5042	9.615	1.6364	0.1	3451.5
5043	9.4305	1.6364	0.1	3501.4
5044	9.2461	1.6364	0.1	3551.4
5045	9.0617	1.6364	0.1	3601.5
5046	8.8773	1.6364	0.1	3651.9
5047	8.6928	1.6364	0.1	3702.6
5048	8.5084	1.6364	0.1	3753.6
5049	8.324	1.6364	0.1	3805.1
5050	8.1396	1.6364	0.1	3857.1
5051	7.9551	1.6364	0.1	3909.8
5052	7.7707	1.6364	0.1	3963.3
5053	7.5863	1.6364	0.1	4018.
5054	7.4019	1.6364	0.1	4073.9
5055	7.2174	1.6364	0.1	4131.4
5056	7.033	1.6364	0.1	4191.
5057	6.8486	1.6364	0.1	4253.2
5058	6.6642	1.6364	0.1	4318.6
5059	6.4798	1.6364	0.1	4388.1
5060	6.2953	1.6364	0.1	4463.3
5061	6.1109	1.6364	0.1	4546.2
5062	5.9265	1.6364	0.1	4640.1
5063	5.7421	1.6364	0.1	4750.3
5064	5.5576	1.6364	0.1	4885.6
5065	5.3732	1.6364	0.1	5060.7
5066	5.1888	1.6364	0.1	5299.6
5067	5.0044	1.6364	0.1	5648.1
5068	4.8199	1.6364	0.1	6168.3
5069	4.6355	1.6364	0.1	7019.1
5070	4.4511	1.6364	0.1	8659.
5071	23.816	1.8182	0.1	181.
5072	23.631	1.8182	0.1	198.59
5073	23.447	1.8182	0.1	220.71
5074	23.262	1.8182	0.1	246.14
5075	23.078	1.8182	0.1	274.03
5076	22.893	1.8182	0.1	303.81
5077	22.709	1.8182	0.1	335.07
5078	22.525	1.8182	0.1	367.51
5079	22.34	1.8182	0.1	400.94
5080	22.156	1.8182	0.1	435.2
5081	21.971	1.8182	0.1	470.18
5082	21.787	1.8182	0.1	505.79
5083	21.602	1.8182	0.1	541.96
5084	21.418	1.8182	0.1	578.65
5085	21.234	1.8182	0.1	615.8
5086	21.049	1.8182	0.1	653.38
5087	20.865	1.8182	0.1	691.37
5088	20.68	1.8182	0.1	729.73
5089	20.496	1.8182	0.1	768.46
5090	20.312	1.8182	0.1	807.52
5091	20.127	1.8182	0.1	846.92
5092	19.943	1.8182	0.1	886.62
5093	19.758	1.8182	0.1	926.64
5094	19.574	1.8182	0.1	966.94
5095	19.389	1.8182	0.1	1007.5
5096	19.205	1.8182	0.1	1048.4
5097	19.021	1.8182	0.1	1089.5
5098	18.836	1.8182	0.1	1130.9
5099	18.652	1.8182	0.1	1172.6
5100	18.467	1.8182	0.1	1214.5
5101	18.283	1.8182	0.1	1256.7
5102	18.098	1.8182	0.1	1299.1
5103	17.914	1.8182	0.1	1341.7
5104	17.73	1.8182	0.1	1384.6
5105	17.545	1.8182	0.1	1427.7
5106	17.361	1.8182	0.1	1471.
5107	17.176	1.8182	0.1	1514.5
5108	16.992	1.8182	0.1	1558.3
5109	16.807	1.8182	0.1	1602.3
5110	16.623	1.8182	0.1	1646.5
5111	16.439	1.8182	0.1	1690.9
5112	16.254	1.8182	0.1	1735.5
5113	16.07	1.8182	0.1	1780.3
5114	15.885	1.8182	0.1	1825.3
5115	15.701	1.8182	0.1	1870.5
5116	15.517	1.8182	0.1	1915.9
5117	15.332	1.8182	0.1	1961.5
5118	15.148	1.8182	0.1	2007.3
5119	14.963	1.8182	0.1	2053.2
5120	14.779	1.8182	0.1	2099.4
5121	14.594	1.8182	0.1	2145.7
5122	14.41	1.8182	0.1	2192.2
5123	14.226	1.8182	0.1	2238.9
5124	14.041	1.8182	0.1	2285.7
5125	13.857	1.8182	0.1	2332.7
5126	13.672	1.8182	0.1	2379.8
5127	13.488	1.8182	0.1	2427.1
5128	13.303	1.8182	0.1	2474.6
5129	13.119	1.8182	0.1	2522.2
5130	12.935	1.8182	0.1	2569.9
5131	12.75	1.8182	0.1	2617.8
5132	12.566	1.8182	0.1	2665.8
5133	12.381	1.8182	0.1	2713.9
5134	12.197	1.8182	0.1	2762.1
5135	12.012	1.8182	0.1	2810.5
5136	11.828	1.8182	0.1	2858.9
5137	11.644	1.8182	0.1	2907.5
5138	11.459	1.8182	0.1	2956.1
5139	11.275	1.8182	0.1	3004.8
5140	11.09	1.8182	0.1	3053.6
5141	10.906	1.8182	0.1	3102.5
5142	10.721	1.8182	0.1	3151.4
5143	10.537	1.8182	0.1	3200.5
5144	10.353	1.8182	0.1	3249.5
5145	10.168	1.8182	0.1	3298.7
5146	9.9838	1.8182	0.1	3347.9
5147	9.7994	1.8182	0.1	3397.2
5148	9.615	1.8182	0.1	3446.6
5149	9.4305	1.8182	0.1	3496.2
5150	9.2461	1.8182	0.1	3545.9
5151	9.0617	1.8182	0.1	3595.8
5152	8.8773	1.8182	0.1	3646.
5153	8.6928	1.8182	0.1	3696.6
5154	8.5084	1.8182	0.1	3747.6
5155	8.324	1.8182	0.1	3799.3
5156	8.1396	1.8182	0.1	3851.8
5157	7.9551	1.8182	0.1	3905.4
5158	7.7707	1.8182	0.1	3960.3
5159	7.5863	1.8182	0.1	4017.1
5160	7.4019	1.8182	0.1	4076.
5161	7.2174	1.8182	0.1	4137.9
5162	7.033	1.8182	0.1	4203.4
5163	6.8486	1.8182	0.1	4273.7
5164	6.6642	1.8182	0.1	4350.1
5165	6.4798	1.8182	0.1	4434.5
5166	6.2953	1.8182	0.1	4529.3
5167	6.1109	1.8182	0.1	4638.
5168	5.9265	1.8182	0.1	4765.9
5169	5.7421	1.8182	0.1	4920.6
5170	5.5576	1.8182	0.1	5114.3
5171	5.3732	1.8182	0.1	5366.6
5172	5.1888	1.8182	0.1	5710.1
5173	5.0044	1.8182	0.1	6205.
5174	4.8199	1.8182	0.1	6962.4
5175	4.6355	1.8182	0.1	8361.8
5176	4.4511	1.8182	0.1	11644
5177	23.816	2.	0.1	186.75
5178	23.631	2.	0.1	204.2
5179	23.447	2.	0.1	226.07
5180	23.262	2.	0.1	251.22
5181	23.078	2.	0.1	278.83
5182	22.893	2.	0.1	308.31
5183	22.709	2.	0.1	339.25
5184	22.525	2.	0.1	371.39
5185	22.34	2.	0.1	404.51
5186	22.156	2.	0.1	438.46
5187	21.971	2.	0.1	473.15
5188	21.787	2.	0.1	508.47
5189	21.602	2.	0.1	544.37
5190	21.418	2.	0.1	580.8
5191	21.234	2.	0.1	617.71
5192	21.049	2.	0.1	655.07
5193	20.865	2.	0.1	692.84
5194	20.68	2.	0.1	731.02
5195	20.496	2.	0.1	769.56
5196	20.312	2.	0.1	808.46
5197	20.127	2.	0.1	847.71
5198	19.943	2.	0.1	887.28
5199	19.758	2.	0.1	927.16
5200	19.574	2.	0.1	967.35
5201	19.389	2.	0.1	1007.8
5202	19.205	2.	0.1	1048.6
5203	19.021	2.	0.1	1089.7
5204	18.836	2.	0.1	1131.
5205	18.652	2.	0.1	1172.6
5206	18.467	2.	0.1	1214.4
5207	18.283	2.	0.1	1256.5
5208	18.098	2.	0.1	1298.8
5209	17.914	2.	0.1	1341.4
5210	17.73	2.	0.1	1384.3
5211	17.545	2.	0.1	1427.3
5212	17.361	2.	0.1	1470.6
5213	17.176	2.	0.1	1514.1
5214	16.992	2.	0.1	1557.8
5215	16.807	2.	0.1	1601.8
5216	16.623	2.	0.1	1645.9
5217	16.439	2.	0.1	1690.3
5218	16.254	2.	0.1	1734.9
5219	16.07	2.	0.1	1779.7
5220	15.885	2.	0.1	1824.7
5221	15.701	2.	0.1	1869.8
5222	15.517	2.	0.1	1915.2
5223	15.332	2.	0.1	1960.8
5224	15.148	2.	0.1	2006.5
5225	14.963	2.	0.1	2052.5
5226	14.779	2.	0.1	2098.6
5227	14.594	2.	0.1	2144.8
5228	14.41	2.	0.1	2191.3
5229	14.226	2.	0.1	2237.9
5230	14.041	2.	0.1	2284.7
5231	13.857	2.	0.1	2331.7
5232	13.672	2.	0.1	2378.8
5233	13.488	2.	0.1	2426.
5234	13.303	2.	0.1	2473.4
5235	13.119	2.	0.1	2520.9
5236	12.935	2.	0.1	2568.6
5237	12.75	2.	0.1	2616.4
5238	12.566	2.	0.1	2664.3
5239	12.381	2.	0.1	2712.3
5240	12.197	2.	0.1	2760.5
5241	12.012	2.	0.1	2808.7
5242	11.828	2.	0.1	2857.
5243	11.644	2.	0.1	2905.4
5244	11.459	2.	0.1	2953.9
5245	11.275	2.	0.1	3002.5
5246	11.09	2.	0.1	3051.1
5247	10.906	2.	0.1	3099.8
5248	10.721	2.	0.1	3148.5
5249	10.537	2.	0.1	3197.3
5250	10.353	2.	0.1	3246.2
5251	10.168	2.	0.1	3295.1
5252	9.9838	2.	0.1	3344.
5253	9.7994	2.	0.1	3393.1
5254	9.615	2.	0.1	3442.2
5255	9.4305	2.	0.1	3491.4
5256	9.2461	2.	0.1	3540.9
5257	9.0617	2.	0.1	3590.6
5258	8.8773	2.	0.1	3640.6
5259	8.6928	2.	0.1	3691.
5260	8.5084	2.	0.1	3742.1
5261	8.324	2.	0.1	3793.9
5262	8.1396	2.	0.1	3846.8
5263	7.9551	2.	0.1	3901.1
5264	7.7707	2.	0.1	3957.3
5265	7.5863	2.	0.1	4015.9
5266	7.4019	2.	0.1	4077.6
5267	7.2174	2.	0.1	4143.4
5268	7.033	2.	0.1	4214.5
5269	6.8486	2.	0.1	4292.5
5270	6.6642	2.	0.1	4379.3
5271	6.4798	2.	0.1	4477.6
5272	6.2953	2.	0.1	4591.1
5273	6.1109	2.	0.1	4724.7
5274	5.9265	2.	0.1	4885.2
5275	5.7421	2.	0.1	5082.6
5276	5.5576	2.	0.1	5332.
5277	5.3732	2.	0.1	5657.5
5278	5.1888	2.	0.1	6097.8
5279	5.0044	2.	0.1	6729.2
5280	4.8199	2.	0.1	7688.9
5281	4.6355	2.	0.1	9368.8
5282	4.4511	2.	0.1	14084
5283	23.816	2.1818	0.1	191.47
5284	23.631	2.1818	0.1	208.8
5285	23.447	2.1818	0.1	230.47
5286	23.262	2.1818	0.1	255.42
5287	23.078	2.1818	0.1	282.79
5288	22.893	2.1818	0.1	312.04
5289	22.709	2.1818	0.1	342.75
5290	22.525	2.1818	0.1	374.64
5291	22.34	2.1818	0.1	407.51
5292	22.156	2.1818	0.1	441.23
5293	21.971	2.1818	0.1	475.67
5294	21.787	2.1818	0.1	510.77
5295	21.602	2.1818	0.1	546.45
5296	21.418	2.1818	0.1	582.66
5297	21.234	2.1818	0.1	619.37
5298	21.049	2.1818	0.1	656.54
5299	20.865	2.1818	0.1	694.14
5300	20.68	2.1818	0.1	732.14
5301	20.496	2.1818	0.1	770.54
5302	20.312	2.1818	0.1	809.3
5303	20.127	2.1818	0.1	848.41
5304	19.943	2.1818	0.1	887.87
5305	19.758	2.1818	0.1	927.64
5306	19.574	2.1818	0.1	967.73
5307	19.389	2.1818	0.1	1008.1
5308	19.205	2.1818	0.1	1048.8
5309	19.021	2.1818	0.1	1089.8
5310	18.836	2.1818	0.1	1131.
5311	18.652	2.1818	0.1	1172.6
5312	18.467	2.1818	0.1	1214.4
5313	18.283	2.1818	0.1	1256.4
5314	18.098	2.1818	0.1	1298.7
5315	17.914	2.1818	0.1	1341.2
5316	17.73	2.1818	0.1	1384.
5317	17.545	2.1818	0.1	1427.
5318	17.361	2.1818	0.1	1470.3
5319	17.176	2.1818	0.1	1513.8
5320	16.992	2.1818	0.1	1557.5
5321	16.807	2.1818	0.1	1601.4
5322	16.623	2.1818	0.1	1645.5
5323	16.439	2.1818	0.1	1689.9
5324	16.254	2.1818	0.1	1734.4
5325	16.07	2.1818	0.1	1779.2
5326	15.885	2.1818	0.1	1824.1
5327	15.701	2.1818	0.1	1869.3
5328	15.517	2.1818	0.1	1914.6
5329	15.332	2.1818	0.1	1960.2
5330	15.148	2.1818	0.1	2005.9
5331	14.963	2.1818	0.1	2051.8
5332	14.779	2.1818	0.1	2097.9
5333	14.594	2.1818	0.1	2144.1
5334	14.41	2.1818	0.1	2190.6
5335	14.226	2.1818	0.1	2237.1
5336	14.041	2.1818	0.1	2283.9
5337	13.857	2.1818	0.1	2330.8
5338	13.672	2.1818	0.1	2377.9
5339	13.488	2.1818	0.1	2425.1
5340	13.303	2.1818	0.1	2472.4
5341	13.119	2.1818	0.1	2519.9
5342	12.935	2.1818	0.1	2567.5
5343	12.75	2.1818	0.1	2615.2
5344	12.566	2.1818	0.1	2663.
5345	12.381	2.1818	0.1	2711.
5346	12.197	2.1818	0.1	2759.
5347	12.012	2.1818	0.1	2807.2
5348	11.828	2.1818	0.1	2855.4
5349	11.644	2.1818	0.1	2903.7
5350	11.459	2.1818	0.1	2952.1
5351	11.275	2.1818	0.1	3000.5
5352	11.09	2.1818	0.1	3049.
5353	10.906	2.1818	0.1	3097.5
5354	10.721	2.1818	0.1	3146.
5355	10.537	2.1818	0.1	3194.6
5356	10.353	2.1818	0.1	3243.3
5357	10.168	2.1818	0.1	3291.9
5358	9.9838	2.1818	0.1	3340.7
5359	9.7994	2.1818	0.1	3389.4
5360	9.615	2.1818	0.1	3438.3
5361	9.4305	2.1818	0.1	3487.3
5362	9.2461	2.1818	0.1	3536.5
5363	9.0617	2.1818	0.1	3585.9
5364	8.8773	2.1818	0.1	3635.7
5365	8.6928	2.1818	0.1	3686.1
5366	8.5084	2.1818	0.1	3737.1
5367	8.324	2.1818	0.1	3789.
5368	8.1396	2.1818	0.1	3842.3
5369	7.9551	2.1818	0.1	3897.2
5370	7.7707	2.1818	0.1	3954.4
5371	7.5863	2.1818	0.1	4014.6
5372	7.4019	2.1818	0.1	4078.8
5373	7.2174	2.1818	0.1	4148.1
5374	7.033	2.1818	0.1	4224.2
5375	6.8486	2.1818	0.1	4309.1
5376	6.6642	2.1818	0.1	4405.4
5377	6.4798	2.1818	0.1	4516.7
5378	6.2953	2.1818	0.1	4647.5
5379	6.1109	2.1818	0.1	4804.2
5380	5.9265	2.1818	0.1	4995.2
5381	5.7421	2.1818	0.1	5232.7
5382	5.5576	2.1818	0.1	5534.5
5383	5.3732	2.1818	0.1	5928.
5384	5.1888	2.1818	0.1	6457.
5385	5.0044	2.1818	0.1	7204.3
5386	4.8199	2.1818	0.1	8308.8
5387	4.6355	2.1818	0.1	10217
5388	4.4511	2.1818	0.1	13804
5389	23.816	2.3636	0.1	195.19
5390	23.631	2.3636	0.1	212.43
5391	23.447	2.3636	0.1	233.96
5392	23.262	2.3636	0.1	258.74
5393	23.078	2.3636	0.1	285.95
5394	22.893	2.3636	0.1	315.01
5395	22.709	2.3636	0.1	345.54
5396	22.525	2.3636	0.1	377.25
5397	22.34	2.3636	0.1	409.94
5398	22.156	2.3636	0.1	443.47
5399	21.971	2.3636	0.1	477.73
5400	21.787	2.3636	0.1	512.64
5401	21.602	2.3636	0.1	548.15
5402	21.418	2.3636	0.1	584.19
5403	21.234	2.3636	0.1	620.74
5404	21.049	2.3636	0.1	657.75
5405	20.865	2.3636	0.1	695.21
5406	20.68	2.3636	0.1	733.09
5407	20.496	2.3636	0.1	771.35
5408	20.312	2.3636	0.1	810.
5409	20.127	2.3636	0.1	849.01
5410	19.943	2.3636	0.1	888.37
5411	19.758	2.3636	0.1	928.05
5412	19.574	2.3636	0.1	968.06
5413	19.389	2.3636	0.1	1008.4
5414	19.205	2.3636	0.1	1049.
5415	19.021	2.3636	0.1	1089.9
5416	18.836	2.3636	0.1	1131.1
5417	18.652	2.3636	0.1	1172.6
5418	18.467	2.3636	0.1	1214.3
5419	18.283	2.3636	0.1	1256.3
5420	18.098	2.3636	0.1	1298.6
5421	17.914	2.3636	0.1	1341.1
5422	17.73	2.3636	0.1	1383.8
5423	17.545	2.3636	0.1	1426.8
5424	17.361	2.3636	0.1	1470.1
5425	17.176	2.3636	0.1	1513.5
5426	16.992	2.3636	0.1	1557.2
5427	16.807	2.3636	0.1	1601.1
5428	16.623	2.3636	0.1	1645.2
5429	16.439	2.3636	0.1	1689.5
5430	16.254	2.3636	0.1	1734.
5431	16.07	2.3636	0.1	1778.8
5432	15.885	2.3636	0.1	1823.7
5433	15.701	2.3636	0.1	1868.9
5434	15.517	2.3636	0.1	1914.2
5435	15.332	2.3636	0.1	1959.7
5436	15.148	2.3636	0.1	2005.4
5437	14.963	2.3636	0.1	2051.3
5438	14.779	2.3636	0.1	2097.3
5439	14.594	2.3636	0.1	2143.6
5440	14.41	2.3636	0.1	2190.
5441	14.226	2.3636	0.1	2236.5
5442	14.041	2.3636	0.1	2283.2
5443	13.857	2.3636	0.1	2330.1
5444	13.672	2.3636	0.1	2377.1
5445	13.488	2.3636	0.1	2424.3
5446	13.303	2.3636	0.1	2471.6
5447	13.119	2.3636	0.1	2519.
5448	12.935	2.3636	0.1	2566.6
5449	12.75	2.3636	0.1	2614.3
5450	12.566	2.3636	0.1	2662.
5451	12.381	2.3636	0.1	2709.9
5452	12.197	2.3636	0.1	2757.9
5453	12.012	2.3636	0.1	2805.9
5454	11.828	2.3636	0.1	2854.1
5455	11.644	2.3636	0.1	2902.3
5456	11.459	2.3636	0.1	2950.5
5457	11.275	2.3636	0.1	2998.8
5458	11.09	2.3636	0.1	3047.2
5459	10.906	2.3636	0.1	3095.6
5460	10.721	2.3636	0.1	3144.
5461	10.537	2.3636	0.1	3192.4
5462	10.353	2.3636	0.1	3240.9
5463	10.168	2.3636	0.1	3289.4
5464	9.9838	2.3636	0.1	3337.9
5465	9.7994	2.3636	0.1	3386.5
5466	9.615	2.3636	0.1	3435.1
5467	9.4305	2.3636	0.1	3483.9
5468	9.2461	2.3636	0.1	3532.8
5469	9.0617	2.3636	0.1	3582.1
5470	8.8773	2.3636	0.1	3631.7
5471	8.6928	2.3636	0.1	3681.9
5472	8.5084	2.3636	0.1	3732.8
5473	8.324	2.3636	0.1	3784.9
5474	8.1396	2.3636	0.1	3838.3
5475	7.9551	2.3636	0.1	3893.8
5476	7.7707	2.3636	0.1	3951.9
5477	7.5863	2.3636	0.1	4013.5
5478	7.4019	2.3636	0.1	4079.7
5479	7.2174	2.3636	0.1	4152.
5480	7.033	2.3636	0.1	4232.4
5481	6.8486	2.3636	0.1	4323.2
5482	6.6642	2.3636	0.1	4427.8
5483	6.4798	2.3636	0.1	4550.4
5484	6.2953	2.3636	0.1	4696.6
5485	6.1109	2.3636	0.1	4873.8
5486	5.9265	2.3636	0.1	5092.2
5487	5.7421	2.3636	0.1	5365.8
5488	5.5576	2.3636	0.1	5714.5
5489	5.3732	2.3636	0.1	6167.7
5490	5.1888	2.3636	0.1	6771.
5491	5.0044	2.3636	0.1	7598.
5492	4.8199	2.3636	0.1	8781.3
5493	4.6355	2.3636	0.1	10522
5494	4.4511	2.3636	0.1	13046
5495	23.816	2.5455	0.1	197.95
5496	23.631	2.5455	0.1	215.13
5497	23.447	2.5455	0.1	236.56
5498	23.262	2.5455	0.1	261.22
5499	23.078	2.5455	0.1	288.3
5500	22.893	2.5455	0.1	317.24
5501	22.709	2.5455	0.1	347.64
5502	22.525	2.5455	0.1	379.22
5503	22.34	2.5455	0.1	411.77
5504	22.156	2.5455	0.1	445.16
5505	21.971	2.5455	0.1	479.29
5506	21.787	2.5455	0.1	514.07
5507	21.602	2.5455	0.1	549.44
5508	21.418	2.5455	0.1	585.36
5509	21.234	2.5455	0.1	621.79
5510	21.049	2.5455	0.1	658.69
5511	20.865	2.5455	0.1	696.04
5512	20.68	2.5455	0.1	733.81
5513	20.496	2.5455	0.1	771.99
5514	20.312	2.5455	0.1	810.55
5515	20.127	2.5455	0.1	849.48
5516	19.943	2.5455	0.1	888.76
5517	19.758	2.5455	0.1	928.38
5518	19.574	2.5455	0.1	968.33
5519	19.389	2.5455	0.1	1008.6
5520	19.205	2.5455	0.1	1049.2
5521	19.021	2.5455	0.1	1090.
5522	18.836	2.5455	0.1	1131.2
5523	18.652	2.5455	0.1	1172.6
5524	18.467	2.5455	0.1	1214.3
5525	18.283	2.5455	0.1	1256.3
5526	18.098	2.5455	0.1	1298.5
5527	17.914	2.5455	0.1	1341.
5528	17.73	2.5455	0.1	1383.7
5529	17.545	2.5455	0.1	1426.7
5530	17.361	2.5455	0.1	1469.9
5531	17.176	2.5455	0.1	1513.3
5532	16.992	2.5455	0.1	1557.
5533	16.807	2.5455	0.1	1600.8
5534	16.623	2.5455	0.1	1644.9
5535	16.439	2.5455	0.1	1689.2
5536	16.254	2.5455	0.1	1733.8
5537	16.07	2.5455	0.1	1778.5
5538	15.885	2.5455	0.1	1823.4
5539	15.701	2.5455	0.1	1868.5
5540	15.517	2.5455	0.1	1913.8
5541	15.332	2.5455	0.1	1959.3
5542	15.148	2.5455	0.1	2005.
5543	14.963	2.5455	0.1	2050.9
5544	14.779	2.5455	0.1	2096.9
5545	14.594	2.5455	0.1	2143.1
5546	14.41	2.5455	0.1	2189.5
5547	14.226	2.5455	0.1	2236.1
5548	14.041	2.5455	0.1	2282.7
5549	13.857	2.5455	0.1	2329.6
5550	13.672	2.5455	0.1	2376.6
5551	13.488	2.5455	0.1	2423.7
5552	13.303	2.5455	0.1	2471.
5553	13.119	2.5455	0.1	2518.4
5554	12.935	2.5455	0.1	2565.9
5555	12.75	2.5455	0.1	2613.5
5556	12.566	2.5455	0.1	2661.3
5557	12.381	2.5455	0.1	2709.1
5558	12.197	2.5455	0.1	2757.
5559	12.012	2.5455	0.1	2805.
5560	11.828	2.5455	0.1	2853.1
5561	11.644	2.5455	0.1	2901.2
5562	11.459	2.5455	0.1	2949.4
5563	11.275	2.5455	0.1	2997.6
5564	11.09	2.5455	0.1	3045.9
5565	10.906	2.5455	0.1	3094.1
5566	10.721	2.5455	0.1	3142.4
5567	10.537	2.5455	0.1	3190.7
5568	10.353	2.5455	0.1	3239.1
5569	10.168	2.5455	0.1	3287.4
5570	9.9838	2.5455	0.1	3335.7
5571	9.7994	2.5455	0.1	3384.1
5572	9.615	2.5455	0.1	3432.6
5573	9.4305	2.5455	0.1	3481.2
5574	9.2461	2.5455	0.1	3530.
5575	9.0617	2.5455	0.1	3579.1
5576	8.8773	2.5455	0.1	3628.5
5577	8.6928	2.5455	0.1	3678.6
5578	8.5084	2.5455	0.1	3729.5
5579	8.324	2.5455	0.1	3781.6
5580	8.1396	2.5455	0.1	3835.2
5581	7.9551	2.5455	0.1	3891.1
5582	7.7707	2.5455	0.1	3949.8
5583	7.5863	2.5455	0.1	4012.5
5584	7.4019	2.5455	0.1	4080.3
5585	7.2174	2.5455	0.1	4155.
5586	7.033	2.5455	0.1	4238.7
5587	6.8486	2.5455	0.1	4334.4
5588	6.6642	2.5455	0.1	4445.6
5589	6.4798	2.5455	0.1	4577.4
5590	6.2953	2.5455	0.1	4736.1
5591	6.1109	2.5455	0.1	4930.4
5592	5.9265	2.5455	0.1	5171.5
5593	5.7421	2.5455	0.1	5475.
5594	5.5576	2.5455	0.1	5862.1
5595	5.3732	2.5455	0.1	6362.3
5596	5.1888	2.5455	0.1	7016.9
5597	5.0044	2.5455	0.1	7882.8
5598	4.8199	2.5455	0.1	9029.3
5599	4.6355	2.5455	0.1	10500
5600	4.4511	2.5455	0.1	12104
5601	23.816	2.7273	0.1	199.78
5602	23.631	2.7273	0.1	216.92
5603	23.447	2.7273	0.1	238.28
5604	23.262	2.7273	0.1	262.86
5605	23.078	2.7273	0.1	289.86
5606	22.893	2.7273	0.1	318.72
5607	22.709	2.7273	0.1	349.04
5608	22.525	2.7273	0.1	380.53
5609	22.34	2.7273	0.1	413.
5610	22.156	2.7273	0.1	446.3
5611	21.971	2.7273	0.1	480.34
5612	21.787	2.7273	0.1	515.03
5613	21.602	2.7273	0.1	550.32
5614	21.418	2.7273	0.1	586.15
5615	21.234	2.7273	0.1	622.5
5616	21.049	2.7273	0.1	659.33
5617	20.865	2.7273	0.1	696.6
5618	20.68	2.7273	0.1	734.31
5619	20.496	2.7273	0.1	772.42
5620	20.312	2.7273	0.1	810.92
5621	20.127	2.7273	0.1	849.8
5622	19.943	2.7273	0.1	889.03
5623	19.758	2.7273	0.1	928.6
5624	19.574	2.7273	0.1	968.51
5625	19.389	2.7273	0.1	1008.7
5626	19.205	2.7273	0.1	1049.3
5627	19.021	2.7273	0.1	1090.1
5628	18.836	2.7273	0.1	1131.2
5629	18.652	2.7273	0.1	1172.6
5630	18.467	2.7273	0.1	1214.3
5631	18.283	2.7273	0.1	1256.3
5632	18.098	2.7273	0.1	1298.5
5633	17.914	2.7273	0.1	1340.9
5634	17.73	2.7273	0.1	1383.6
5635	17.545	2.7273	0.1	1426.6
5636	17.361	2.7273	0.1	1469.8
5637	17.176	2.7273	0.1	1513.2
5638	16.992	2.7273	0.1	1556.8
5639	16.807	2.7273	0.1	1600.7
5640	16.623	2.7273	0.1	1644.8
5641	16.439	2.7273	0.1	1689.1
5642	16.254	2.7273	0.1	1733.6
5643	16.07	2.7273	0.1	1778.3
5644	15.885	2.7273	0.1	1823.2
5645	15.701	2.7273	0.1	1868.3
5646	15.517	2.7273	0.1	1913.6
5647	15.332	2.7273	0.1	1959.1
5648	15.148	2.7273	0.1	2004.8
5649	14.963	2.7273	0.1	2050.6
5650	14.779	2.7273	0.1	2096.6
5651	14.594	2.7273	0.1	2142.8
5652	14.41	2.7273	0.1	2189.2
5653	14.226	2.7273	0.1	2235.7
5654	14.041	2.7273	0.1	2282.4
5655	13.857	2.7273	0.1	2329.2
5656	13.672	2.7273	0.1	2376.2
5657	13.488	2.7273	0.1	2423.3
5658	13.303	2.7273	0.1	2470.6
5659	13.119	2.7273	0.1	2518.
5660	12.935	2.7273	0.1	2565.4
5661	12.75	2.7273	0.1	2613.
5662	12.566	2.7273	0.1	2660.7
5663	12.381	2.7273	0.1	2708.5
5664	12.197	2.7273	0.1	2756.4
5665	12.012	2.7273	0.1	2804.4
5666	11.828	2.7273	0.1	2852.4
5667	11.644	2.7273	0.1	2900.5
5668	11.459	2.7273	0.1	2948.6
5669	11.275	2.7273	0.1	2996.8
5670	11.09	2.7273	0.1	3045.
5671	10.906	2.7273	0.1	3093.2
5672	10.721	2.7273	0.1	3141.4
5673	10.537	2.7273	0.1	3189.6
5674	10.353	2.7273	0.1	3237.8
5675	10.168	2.7273	0.1	3286.
5676	9.9838	2.7273	0.1	3334.3
5677	9.7994	2.7273	0.1	3382.6
5678	9.615	2.7273	0.1	3430.9
5679	9.4305	2.7273	0.1	3479.4
5680	9.2461	2.7273	0.1	3528.1
5681	9.0617	2.7273	0.1	3577.
5682	8.8773	2.7273	0.1	3626.4
5683	8.6928	2.7273	0.1	3676.4
5684	8.5084	2.7273	0.1	3727.2
5685	8.324	2.7273	0.1	3779.3
5686	8.1396	2.7273	0.1	3833.1
5687	7.9551	2.7273	0.1	3889.2
5688	7.7707	2.7273	0.1	3948.4
5689	7.5863	2.7273	0.1	4011.7
5690	7.4019	2.7273	0.1	4080.7
5691	7.2174	2.7273	0.1	4157.
5692	7.033	2.7273	0.1	4243.1
5693	6.8486	2.7273	0.1	4342.1
5694	6.6642	2.7273	0.1	4458.1
5695	6.4798	2.7273	0.1	4596.4
5696	6.2953	2.7273	0.1	4764.1
5697	6.1109	2.7273	0.1	4970.5
5698	5.9265	2.7273	0.1	5227.9
5699	5.7421	2.7273	0.1	5552.8
5700	5.5576	2.7273	0.1	5966.9
5701	5.3732	2.7273	0.1	6498.2
5702	5.1888	2.7273	0.1	7181.4
5703	5.0044	2.7273	0.1	8052.4
5704	4.8199	2.7273	0.1	9130.2
5705	4.6355	2.7273	0.1	10364
5706	4.4511	2.7273	0.1	11546
5707	23.816	2.9091	0.1	200.69
5708	23.631	2.9091	0.1	217.81
5709	23.447	2.9091	0.1	239.14
5710	23.262	2.9091	0.1	263.68
5711	23.078	2.9091	0.1	290.64
5712	22.893	2.9091	0.1	319.46
5713	22.709	2.9091	0.1	349.74
5714	22.525	2.9091	0.1	381.18
5715	22.34	2.9091	0.1	413.61
5716	22.156	2.9091	0.1	446.87
5717	21.971	2.9091	0.1	480.86
5718	21.787	2.9091	0.1	515.51
5719	21.602	2.9091	0.1	550.76
5720	21.418	2.9091	0.1	586.55
5721	21.234	2.9091	0.1	622.86
5722	21.049	2.9091	0.1	659.65
5723	20.865	2.9091	0.1	696.89
5724	20.68	2.9091	0.1	734.56
5725	20.496	2.9091	0.1	772.64
5726	20.312	2.9091	0.1	811.11
5727	20.127	2.9091	0.1	849.96
5728	19.943	2.9091	0.1	889.17
5729	19.758	2.9091	0.1	928.72
5730	19.574	2.9091	0.1	968.6
5731	19.389	2.9091	0.1	1008.8
5732	19.205	2.9091	0.1	1049.3
5733	19.021	2.9091	0.1	1090.1
5734	18.836	2.9091	0.1	1131.3
5735	18.652	2.9091	0.1	1172.6
5736	18.467	2.9091	0.1	1214.3
5737	18.283	2.9091	0.1	1256.2
5738	18.098	2.9091	0.1	1298.4
5739	17.914	2.9091	0.1	1340.9
5740	17.73	2.9091	0.1	1383.6
5741	17.545	2.9091	0.1	1426.5
5742	17.361	2.9091	0.1	1469.7
5743	17.176	2.9091	0.1	1513.1
5744	16.992	2.9091	0.1	1556.8
5745	16.807	2.9091	0.1	1600.6
5746	16.623	2.9091	0.1	1644.7
5747	16.439	2.9091	0.1	1689.
5748	16.254	2.9091	0.1	1733.5
5749	16.07	2.9091	0.1	1778.2
5750	15.885	2.9091	0.1	1823.1
5751	15.701	2.9091	0.1	1868.2
5752	15.517	2.9091	0.1	1913.5
5753	15.332	2.9091	0.1	1959.
5754	15.148	2.9091	0.1	2004.6
5755	14.963	2.9091	0.1	2050.5
5756	14.779	2.9091	0.1	2096.5
5757	14.594	2.9091	0.1	2142.7
5758	14.41	2.9091	0.1	2189.1
5759	14.226	2.9091	0.1	2235.6
5760	14.041	2.9091	0.1	2282.3
5761	13.857	2.9091	0.1	2329.1
5762	13.672	2.9091	0.1	2376.
5763	13.488	2.9091	0.1	2423.1
5764	13.303	2.9091	0.1	2470.4
5765	13.119	2.9091	0.1	2517.7
5766	12.935	2.9091	0.1	2565.2
5767	12.75	2.9091	0.1	2612.8
5768	12.566	2.9091	0.1	2660.5
5769	12.381	2.9091	0.1	2708.3
5770	12.197	2.9091	0.1	2756.1
5771	12.012	2.9091	0.1	2804.1
5772	11.828	2.9091	0.1	2852.1
5773	11.644	2.9091	0.1	2900.1
5774	11.459	2.9091	0.1	2948.2
5775	11.275	2.9091	0.1	2996.3
5776	11.09	2.9091	0.1	3044.5
5777	10.906	2.9091	0.1	3092.7
5778	10.721	2.9091	0.1	3140.8
5779	10.537	2.9091	0.1	3189.
5780	10.353	2.9091	0.1	3237.2
5781	10.168	2.9091	0.1	3285.4
5782	9.9838	2.9091	0.1	3333.6
5783	9.7994	2.9091	0.1	3381.8
5784	9.615	2.9091	0.1	3430.1
5785	9.4305	2.9091	0.1	3478.5
5786	9.2461	2.9091	0.1	3527.1
5787	9.0617	2.9091	0.1	3575.9
5788	8.8773	2.9091	0.1	3625.3
5789	8.6928	2.9091	0.1	3675.2
5790	8.5084	2.9091	0.1	3726.
5791	8.324	2.9091	0.1	3778.1
5792	8.1396	2.9091	0.1	3832.
5793	7.9551	2.9091	0.1	3888.2
5794	7.7707	2.9091	0.1	3947.6
5795	7.5863	2.9091	0.1	4011.4
5796	7.4019	2.9091	0.1	4080.9
5797	7.2174	2.9091	0.1	4158.
5798	7.033	2.9091	0.1	4245.4
5799	6.8486	2.9091	0.1	4346.1
5800	6.6642	2.9091	0.1	4464.5
5801	6.4798	2.9091	0.1	4606.2
5802	6.2953	2.9091	0.1	4778.6
5803	6.1109	2.9091	0.1	4991.4
5804	5.9265	2.9091	0.1	5257.3
5805	5.7421	2.9091	0.1	5593.4
5806	5.5576	2.9091	0.1	6021.3
5807	5.3732	2.9091	0.1	6567.8
5808	5.1888	2.9091	0.1	7262.4
5809	5.0044	2.9091	0.1	8128.5
5810	4.8199	2.9091	0.1	9159.8
5811	4.6355	2.9091	0.1	10276
5812	4.4511	2.9091	0.1	11280
5813	23.816	3.0909	0.1	200.69
5814	23.631	3.0909	0.1	217.81
5815	23.447	3.0909	0.1	239.14
5816	23.262	3.0909	0.1	263.68
5817	23.078	3.0909	0.1	290.64
5818	22.893	3.0909	0.1	319.46
5819	22.709	3.0909	0.1	349.74
5820	22.525	3.0909	0.1	381.18
5821	22.34	3.0909	0.1	413.61
5822	22.156	3.0909	0.1	446.87
5823	21.971	3.0909	0.1	480.86
5824	21.787	3.0909	0.1	515.51
5825	21.602	3.0909	0.1	550.76
5826	21.418	3.0909	0.1	586.55
5827	21.234	3.0909	0.1	622.86
5828	21.049	3.0909	0.1	659.65
5829	20.865	3.0909	0.1	696.89
5830	20.68	3.0909	0.1	734.56
5831	20.496	3.0909	0.1	772.64
5832	20.312	3.0909	0.1	811.11
5833	20.127	3.0909	0.1	849.96
5834	19.943	3.0909	0.1	889.17
5835	19.758	3.0909	0.1	928.72
5836	19.574	3.0909	0.1	968.6
5837	19.389	3.0909	0.1	1008.8
5838	19.205	3.0909	0.1	1049.3
5839	19.021	3.0909	0.1	1090.1
5840	18.836	3.0909	0.1	1131.3
5841	18.652	3.0909	0.1	1172.6
5842	18.467	3.0909	0.1	1214.3
5843	18.283	3.0909	0.1	1256.2
5844	18.098	3.0909	0.1	1298.4
5845	17.914	3.0909	0.1	1340.9
5846	17.73	3.0909	0.1	1383.6
5847	17.545	3.0909	0.1	1426.5
5848	17.361	3.0909	0.1	1469.7
5849	17.176	3.0909	0.1	1513.1
5850	16.992	3.0909	0.1	1556.8
5851	16.807	3.0909	0.1	1600.6
5852	16.623	3.0909	0.1	1644.7
5853	16.439	3.0909	0.1	1689.
5854	16.254	3.0909	0.1	1733.5
5855	16.07	3.0909	0.1	1778.2
5856	15.885	3.0909	0.1	1823.1
5857	15.701	3.0909	0.1	1868.2
5858	15.517	3.0909	0.1	1913.5
5859	15.332	3.0909	0.1	1959.
5860	15.148	3.0909	0.1	2004.6
5861	14.963	3.0909	0.1	2050.5
5862	14.779	3.0909	0.1	2096.5
5863	14.594	3.0909	0.1	2142.7
5864	14.41	3.0909	0.1	2189.1
5865	14.226	3.0909	0.1	2235.6
5866	14.041	3.0909	0.1	2282.3
5867	13.857	3.0909	0.1	2329.1
5868	13.672	3.0909	0.1	2376.
5869	13.488	3.0909	0.1	2423.1
5870	13.303	3.0909	0.1	2470.4
5871	13.119	3.0909	0.1	2517.7
5872	12.935	3.0909	0.1	2565.2
5873	12.75	3.0909	0.1	2612.8
5874	12.566	3.0909	0.1	2660.5
5875	12.381	3.0909	0.1	2708.3
5876	12.197	3.0909	0.1	2756.1
5877	12.012	3.0909	0.1	2804.1
5878	11.828	3.0909	0.1	2852.1
5879	11.644	3.0909	0.1	2900.1
5880	11.459	3.0909	0.1	2948.2
5881	11.275	3.0909	0.1	2996.3
5882	11.09	3.0909	0.1	3044.5
5883	10.906	3.0909	0.1	3092.7
5884	10.721	3.0909	0.1	3140.8
5885	10.537	3.0909	0.1	3189.
5886	10.353	3.0909	0.1	3237.2
5887	10.168	3.0909	0.1	3285.4
5888	9.9838	3.0909	0.1	3333.6
5889	9.7994	3.0909	0.1	3381.8
5890	9.615	3.0909	0.1	3430.1
5891	9.4305	3.0909	0.1	3478.5
5892	9.2461	3.0909	0.1	3527.1
5893	9.0617	3.0909	0.1	3575.9
5894	8.8773	3.0909	0.1	3625.3
5895	8.6928	3.0909	0.1	3675.2
5896	8.5084	3.0909	0.1	3726.
5897	8.324	3.0909	0.1	3778.1
5898	8.1396	3.0909	0.1	3832.
5899	7.9551	3.0909	0.1	3888.2
5900	7.7707	3.0909	0.1	3947.6
5901	7.5863	3.0909	0.1	4011.4
5902	7.4019	3.0909	0.1	4080.9
5903	7.2174	3.0909	0.1	4158.
5904	7.033	3.0909	0.1	4245.4
5905	6.8486	3.0909	0.1	4346.1
5906	6.6642	3.0909	0.1	4464.5
5907	6.4798	3.0909	0.1	4606.2
5908	6.2953	3.0909	0.1	4778.6
5909	6.1109	3.0909	0.1	4991.4
5910	5.9265	3.0909	0.1	5257.3
5911	5.7421	3.0909	0.1	5593.4
5912	5.5576	3.0909	0.1	6021.3
5913	5.3732	3.0909	0.1	6567.8
5914	5.1888	3.0909	0.1	7262.4
5915	5.0044	3.0909	0.1	8128.5
5916	4.8199	3.0909	0.1	9159.8
5917	4.6355	3.0909	0.1	10276
5918	4.4511	3.0909	0.1	11280
5919	23.816	3.2727	0.1	199.78
5920	23.631	3.2727	0.1	216.92
5921	23.447	3.2727	0.1	238.28
5922	23.262	3.2727	0.1	262.86
5923	23.078	3.2727	0.1	289.86
5924	22.893	3.2727	0.1	318.72
5925	22.709	3.2727	0.1	349.04
5926	22.525	3.2727	0.1	380.53
5927	22.34	3.2727	0.1	413.
5928	22.156	3.2727	0.1	446.3
5929	21.971	3.2727	0.1	480.34
5930	21.787	3.2727	0.1	515.03
5931	21.602	3.2727	0.1	550.32
5932	21.418	3.2727	0.1	586.15
5933	21.234	3.2727	0.1	622.5
5934	21.049	3.2727	0.1	659.33
5935	20.865	3.2727	0.1	696.6
5936	20.68	3.2727	0.1	734.31
5937	20.496	3.2727	0.1	772.42
5938	20.312	3.2727	0.1	810.92
5939	20.127	3.2727	0.1	849.8
5940	19.943	3.2727	0.1	889.03
5941	19.758	3.2727	0.1	928.6
5942	19.574	3.2727	0.1	968.51
5943	19.389	3.2727	0.1	1008.7
5944	19.205	3.2727	0.1	1049.3
5945	19.021	3.2727	0.1	1090.1
5946	18.836	3.2727	0.1	1131.2
5947	18.652	3.2727	0.1	1172.6
5948	18.467	3.2727	0.1	1214.3
5949	18.283	3.2727	0.1	1256.3
5950	18.098	3.2727	0.1	1298.5
5951	17.914	3.2727	0.1	1340.9
5952	17.73	3.2727	0.1	1383.6
5953	17.545	3.2727	0.1	1426.6
5954	17.361	3.2727	0.1	1469.8
5955	17.176	3.2727	0.1	1513.2
5956	16.992	3.2727	0.1	1556.8
5957	16.807	3.2727	0.1	1600.7
5958	16.623	3.2727	0.1	1644.8
5959	16.439	3.2727	0.1	1689.1
5960	16.254	3.2727	0.1	1733.6
5961	16.07	3.2727	0.1	1778.3
5962	15.885	3.2727	0.1	1823.2
5963	15.701	3.2727	0.1	1868.3
5964	15.517	3.2727	0.1	1913.6
5965	15.332	3.2727	0.1	1959.1
5966	15.148	3.2727	0.1	2004.8
5967	14.963	3.2727	0.1	2050.6
5968	14.779	3.2727	0.1	2096.6
5969	14.594	3.2727	0.1	2142.8
5970	14.41	3.2727	0.1	2189.2
5971	14.226	3.2727	0.1	2235.7
5972	14.041	3.2727	0.1	2282.4
5973	13.857	3.2727	0.1	2329.2
5974	13.672	3.2727	0.1	2376.2
5975	13.488	3.2727	0.1	2423.3
5976	13.303	3.2727	0.1	2470.6
5977	13.119	3.2727	0.1	2518.
5978	12.935	3.2727	0.1	2565.4
5979	12.75	3.2727	0.1	2613.
5980	12.566	3.2727	0.1	2660.7
5981	12.381	3.2727	0.1	2708.5
5982	12.197	3.2727	0.1	2756.4
5983	12.012	3.2727	0.1	2804.4
5984	11.828	3.2727	0.1	2852.4
5985	11.644	3.2727	0.1	2900.5
5986	11.459	3.2727	0.1	2948.6
5987	11.275	3.2727	0.1	2996.8
5988	11.09	3.2727	0.1	3045.
5989	10.906	3.2727	0.1	3093.2
5990	10.721	3.2727	0.1	3141.4
5991	10.537	3.2727	0.1	3189.6
5992	10.353	3.2727	0.1	3237.8
5993	10.168	3.2727	0.1	3286.
5994	9.9838	3.2727	0.1	3334.3
5995	9.7994	3.2727	0.1	3382.6
5996	9.615	3.2727	0.1	3430.9
5997	9.4305	3.2727	0.1	3479.4
5998	9.2461	3.2727	0.1	3528.1
5999	9.0617	3.2727	0.1	3577.
6000	8.8773	3.2727	0.1	3626.4
6001	8.6928	3.2727	0.1	3676.4
6002	8.5084	3.2727	0.1	3727.2
6003	8.324	3.2727	0.1	3779.3
6004	8.1396	3.2727	0.1	3833.1
6005	7.9551	3.2727	0.1	3889.2
6006	7.7707	3.2727	0.1	3948.4
6007	7.5863	3.2727	0.1	4011.7
6008	7.4019	3.2727	0.1	4080.7
6009	7.2174	3.2727	0.1	4157.
6010	7.033	3.2727	0.1	4243.1
6011	6.8486	3.2727	0.1	4342.1
6012	6.6642	3.2727	0.1	4458.1
6013	6.4798	3.2727	0.1	4596.4
6014	6.2953	3.2727	0.1	4764.1
6015	6.1109	3.2727	0.1	4970.5
6016	5.9265	3.2727	0.1	5227.9
6017	5.7421	3.2727	0.1	5552.8
6018	5.5576	3.2727	0.1	5966.9
6019	5.3732	3.2727	0.1	6498.2
6020	5.1888	3.2727	0.1	7181.4
6021	5.0044	3.2727	0.1	8052.4
6022	4.8199	3.2727	0.1	9130.2
6023	4.6355	3.2727	0.1	10364
6024	4.4511	3.2727	0.1	11546
6025	23.816	3.4545	0.1	197.95
6026	23.631	3.4545	0.1	215.13
6027	23.447	3.4545	0.1	236.56
6028	23.262	3.4545	0.1	261.22
6029	23.078	3.4545	0.1	288.3
6030	22.893	3.4545	0.1	317.24
6031	22.709	3.4545	0.1	347.64
6032	22.525	3.4545	0.1	379.22
6033	22.34	3.4545	0.1	411.77
6034	22.156	3.4545	0.1	445.16
6035	21.971	3.4545	0.1	479.29
6036	21.787	3.4545	0.1	514.07
6037	21.602	3.4545	0.1	549.44
6038	21.418	3.4545	0.1	585.36
6039	21.234	3.4545	0.1	621.79
6040	21.049	3.4545	0.1	658.69
6041	20.865	3.4545	0.1	696.04
6042	20.68	3.4545	0.1	733.81
6043	20.496	3.4545	0.1	771.99
6044	20.312	3.4545	0.1	810.55
6045	20.127	3.4545	0.1	849.48
6046	19.943	3.4545	0.1	888.76
6047	19.758	3.4545	0.1	928.38
6048	19.574	3.4545	0.1	968.33
6049	19.389	3.4545	0.1	1008.6
6050	19.205	3.4545	0.1	1049.2
6051	19.021	3.4545	0.1	1090.
6052	18.836	3.4545	0.1	1131.2
6053	18.652	3.4545	0.1	1172.6
6054	18.467	3.4545	0.1	1214.3
6055	18.283	3.4545	0.1	1256.3
6056	18.098	3.4545	0.1	1298.5
6057	17.914	3.4545	0.1	1341.
6058	17.73	3.4545	0.1	1383.7
6059	17.545	3.4545	0.1	1426.7
6060	17.361	3.4545	0.1	1469.9
6061	17.176	3.4545	0.1	1513.3
6062	16.992	3.4545	0.1	1557.
6063	16.807	3.4545	0.1	1600.8
6064	16.623	3.4545	0.1	1644.9
6065	16.439	3.4545	0.1	1689.2
6066	16.254	3.4545	0.1	1733.8
6067	16.07	3.4545	0.1	1778.5
6068	15.885	3.4545	0.1	1823.4
6069	15.701	3.4545	0.1	1868.5
6070	15.517	3.4545	0.1	1913.8
6071	15.332	3.4545	0.1	1959.3
6072	15.148	3.4545	0.1	2005.
6073	14.963	3.4545	0.1	2050.9
6074	14.779	3.4545	0.1	2096.9
6075	14.594	3.4545	0.1	2143.1
6076	14.41	3.4545	0.1	2189.5
6077	14.226	3.4545	0.1	2236.1
6078	14.041	3.4545	0.1	2282.7
6079	13.857	3.4545	0.1	2329.6
6080	13.672	3.4545	0.1	2376.6
6081	13.488	3.4545	0.1	2423.7
6082	13.303	3.4545	0.1	2471.
6083	13.119	3.4545	0.1	2518.4
6084	12.935	3.4545	0.1	2565.9
6085	12.75	3.4545	0.1	2613.5
6086	12.566	3.4545	0.1	2661.3
6087	12.381	3.4545	0.1	2709.1
6088	12.197	3.4545	0.1	2757.
6089	12.012	3.4545	0.1	2805.
6090	11.828	3.4545	0.1	2853.1
6091	11.644	3.4545	0.1	2901.2
6092	11.459	3.4545	0.1	2949.4
6093	11.275	3.4545	0.1	2997.6
6094	11.09	3.4545	0.1	3045.9
6095	10.906	3.4545	0.1	3094.1
6096	10.721	3.4545	0.1	3142.4
6097	10.537	3.4545	0.1	3190.7
6098	10.353	3.4545	0.1	3239.1
6099	10.168	3.4545	0.1	3287.4
6100	9.9838	3.4545	0.1	3335.7
6101	9.7994	3.4545	0.1	3384.1
6102	9.615	3.4545	0.1	3432.6
6103	9.4305	3.4545	0.1	3481.2
6104	9.2461	3.4545	0.1	3530.
6105	9.0617	3.4545	0.1	3579.1
6106	8.8773	3.4545	0.1	3628.5
6107	8.6928	3.4545	0.1	3678.6
6108	8.5084	3.4545	0.1	3729.5
6109	8.324	3.4545	0.1	3781.6
6110	8.1396	3.4545	0.1	3835.2
6111	7.9551	3.4545	0.1	3891.1
6112	7.7707	3.4545	0.1	3949.8
6113	7.5863	3.4545	0.1	4012.5
6114	7.4019	3.4545	0.1	4080.3
6115	7.2174	3.4545	0.1	4155.
6116	7.033	3.4545	0.1	4238.7
6117	6.8486	3.4545	0.1	4334.4
6118	6.6642	3.4545	0.1	4445.6
6119	6.4798	3.4545	0.1	4577.4
6120	6.2953	3.4545	0.1	4736.1
6121	6.1109	3.4545	0.1	4930.4
6122	5.9265	3.4545	0.1	5171.5
6123	5.7421	3.4545	0.1	5475.
6124	5.5576	3.4545	0.1	5862.1
6125	5.3732	3.4545	0.1	6362.3
6126	5.1888	3.4545	0.1	7016.9
6127	5.0044	3.4545	0.1	7882.8
6128	4.8199	3.4545	0.1	9029.3
6129	4.6355	3.4545	0.1	10500
6130	4.4511	3.4545	0.1	12104
6131	23.816	3.6364	0.1	195.19
6132	23.631	3.6364	0.1	212.43
6133	23.447	3.6364	0.1	233.96
6134	23.262	3.6364	0.1	258.74
6135	23.078	3.6364	0.1	285.95
6136	22.893	3.6364	0.1	315.02
6137	22.709	3.6364	0.1	345.54
6138	22.525	3.6364	0.1	377.25
6139	22.34	3.6364	0.1	409.94
6140	22.156	3.6364	0.1	443.47
6141	21.971	3.6364	0.1	477.73
6142	21.787	3.6364	0.1	512.64
6143	21.602	3.6364	0.1	548.15
6144	21.418	3.6364	0.1	584.19
6145	21.234	3.6364	0.1	620.74
6146	21.049	3.6364	0.1	657.75
6147	20.865	3.6364	0.1	695.21
6148	20.68	3.6364	0.1	733.09
6149	20.496	3.6364	0.1	771.35
6150	20.312	3.6364	0.1	810.
6151	20.127	3.6364	0.1	849.01
6152	19.943	3.6364	0.1	888.37
6153	19.758	3.6364	0.1	928.05
6154	19.574	3.6364	0.1	968.06
6155	19.389	3.6364	0.1	1008.4
6156	19.205	3.6364	0.1	1049.
6157	19.021	3.6364	0.1	1089.9
6158	18.836	3.6364	0.1	1131.1
6159	18.652	3.6364	0.1	1172.6
6160	18.467	3.6364	0.1	1214.3
6161	18.283	3.6364	0.1	1256.3
6162	18.098	3.6364	0.1	1298.6
6163	17.914	3.6364	0.1	1341.1
6164	17.73	3.6364	0.1	1383.8
6165	17.545	3.6364	0.1	1426.8
6166	17.361	3.6364	0.1	1470.1
6167	17.176	3.6364	0.1	1513.5
6168	16.992	3.6364	0.1	1557.2
6169	16.807	3.6364	0.1	1601.1
6170	16.623	3.6364	0.1	1645.2
6171	16.439	3.6364	0.1	1689.5
6172	16.254	3.6364	0.1	1734.
6173	16.07	3.6364	0.1	1778.8
6174	15.885	3.6364	0.1	1823.7
6175	15.701	3.6364	0.1	1868.9
6176	15.517	3.6364	0.1	1914.2
6177	15.332	3.6364	0.1	1959.7
6178	15.148	3.6364	0.1	2005.4
6179	14.963	3.6364	0.1	2051.3
6180	14.779	3.6364	0.1	2097.3
6181	14.594	3.6364	0.1	2143.6
6182	14.41	3.6364	0.1	2190.
6183	14.226	3.6364	0.1	2236.5
6184	14.041	3.6364	0.1	2283.2
6185	13.857	3.6364	0.1	2330.1
6186	13.672	3.6364	0.1	2377.1
6187	13.488	3.6364	0.1	2424.3
6188	13.303	3.6364	0.1	2471.6
6189	13.119	3.6364	0.1	2519.
6190	12.935	3.6364	0.1	2566.6
6191	12.75	3.6364	0.1	2614.3
6192	12.566	3.6364	0.1	2662.
6193	12.381	3.6364	0.1	2709.9
6194	12.197	3.6364	0.1	2757.9
6195	12.012	3.6364	0.1	2805.9
6196	11.828	3.6364	0.1	2854.1
6197	11.644	3.6364	0.1	2902.3
6198	11.459	3.6364	0.1	2950.5
6199	11.275	3.6364	0.1	2998.8
6200	11.09	3.6364	0.1	3047.2
6201	10.906	3.6364	0.1	3095.6
6202	10.721	3.6364	0.1	3144.
6203	10.537	3.6364	0.1	3192.4
6204	10.353	3.6364	0.1	3240.9
6205	10.168	3.6364	0.1	3289.4
6206	9.9838	3.6364	0.1	3337.9
6207	9.7994	3.6364	0.1	3386.5
6208	9.615	3.6364	0.1	3435.1
6209	9.4305	3.6364	0.1	3483.9
6210	9.2461	3.6364	0.1	3532.8
6211	9.0617	3.6364	0.1	3582.1
6212	8.8773	3.6364	0.1	3631.7
6213	8.6928	3.6364	0.1	3681.9
6214	8.5084	3.6364	0.1	3732.8
6215	8.324	3.6364	0.1	3784.9
6216	8.1396	3.6364	0.1	3838.3
6217	7.9551	3.6364	0.1	3893.8
6218	7.7707	3.6364	0.1	3951.9
6219	7.5863	3.6364	0.1	4013.5
6220	7.4019	3.6364	0.1	4079.7
6221	7.2174	3.6364	0.1	4152.
6222	7.033	3.6364	0.1	4232.4
6223	6.8486	3.6364	0.1	4323.2
6224	6.6642	3.6364	0.1	4427.8
6225	6.4798	3.6364	0.1	4550.4
6226	6.2953	3.6364	0.1	4696.6
6227	6.1109	3.6364	0.1	4873.8
6228	5.9265	3.6364	0.1	5092.2
6229	5.7421	3.6364	0.1	5365.8
6230	5.5576	3.6364	0.1	5714.5
6231	5.3732	3.6364	0.1	6167.7
6232	5.1888	3.6364	0.1	6771.
6233	5.0044	3.6364	0.1	7598.
6234	4.8199	3.6364	0.1	8781.3
6235	4.6355	3.6364	0.1	10522
6236	4.4511	3.6364	0.1	13046
6237	23.816	3.8182	0.1	191.47
6238	23.631	3.8182	0.1	208.8
6239	23.447	3.8182	0.1	230.47
6240	23.262	3.8182	0.1	255.42
6241	23.078	3.8182	0.1	282.79
6242	22.893	3.8182	0.1	312.04
6243	22.709	3.8182	0.1	342.75
6244	22.525	3.8182	0.1	374.64
6245	22.34	3.8182	0.1	407.51
6246	22.156	3.8182	0.1	441.23
6247	21.971	3.8182	0.1	475.67
6248	21.787	3.8182	0.1	510.77
6249	21.602	3.8182	0.1	546.45
6250	21.418	3.8182	0.1	582.66
6251	21.234	3.8182	0.1	619.37
6252	21.049	3.8182	0.1	656.54
6253	20.865	3.8182	0.1	694.14
6254	20.68	3.8182	0.1	732.14
6255	20.496	3.8182	0.1	770.54
6256	20.312	3.8182	0.1	809.3
6257	20.127	3.8182	0.1	848.41
6258	19.943	3.8182	0.1	887.87
6259	19.758	3.8182	0.1	927.64
6260	19.574	3.8182	0.1	967.73
6261	19.389	3.8182	0.1	1008.1
6262	19.205	3.8182	0.1	1048.8
6263	19.021	3.8182	0.1	1089.8
6264	18.836	3.8182	0.1	1131.
6265	18.652	3.8182	0.1	1172.6
6266	18.467	3.8182	0.1	1214.4
6267	18.283	3.8182	0.1	1256.4
6268	18.098	3.8182	0.1	1298.7
6269	17.914	3.8182	0.1	1341.2
6270	17.73	3.8182	0.1	1384.
6271	17.545	3.8182	0.1	1427.
6272	17.361	3.8182	0.1	1470.3
6273	17.176	3.8182	0.1	1513.8
6274	16.992	3.8182	0.1	1557.5
6275	16.807	3.8182	0.1	1601.4
6276	16.623	3.8182	0.1	1645.5
6277	16.439	3.8182	0.1	1689.9
6278	16.254	3.8182	0.1	1734.4
6279	16.07	3.8182	0.1	1779.2
6280	15.885	3.8182	0.1	1824.1
6281	15.701	3.8182	0.1	1869.3
6282	15.517	3.8182	0.1	1914.6
6283	15.332	3.8182	0.1	1960.2
6284	15.148	3.8182	0.1	2005.9
6285	14.963	3.8182	0.1	2051.8
6286	14.779	3.8182	0.1	2097.9
6287	14.594	3.8182	0.1	2144.1
6288	14.41	3.8182	0.1	2190.6
6289	14.226	3.8182	0.1	2237.1
6290	14.041	3.8182	0.1	2283.9
6291	13.857	3.8182	0.1	2330.8
6292	13.672	3.8182	0.1	2377.9
6293	13.488	3.8182	0.1	2425.1
6294	13.303	3.8182	0.1	2472.4
6295	13.119	3.8182	0.1	2519.9
6296	12.935	3.8182	0.1	2567.5
6297	12.75	3.8182	0.1	2615.2
6298	12.566	3.8182	0.1	2663.
6299	12.381	3.8182	0.1	2711.
6300	12.197	3.8182	0.1	2759.
6301	12.012	3.8182	0.1	2807.2
6302	11.828	3.8182	0.1	2855.4
6303	11.644	3.8182	0.1	2903.7
6304	11.459	3.8182	0.1	2952.1
6305	11.275	3.8182	0.1	3000.5
6306	11.09	3.8182	0.1	3049.
6307	10.906	3.8182	0.1	3097.5
6308	10.721	3.8182	0.1	3146.
6309	10.537	3.8182	0.1	3194.6
6310	10.353	3.8182	0.1	3243.3
6311	10.168	3.8182	0.1	3291.9
6312	9.9838	3.8182	0.1	3340.7
6313	9.7994	3.8182	0.1	3389.4
6314	9.615	3.8182	0.1	3438.3
6315	9.4305	3.8182	0.1	3487.3
6316	9.2461	3.8182	0.1	3536.5
6317	9.0617	3.8182	0.1	3585.9
6318	8.8773	3.8182	0.1	3635.7
6319	8.6928	3.8182	0.1	3686.1
6320	8.5084	3.8182	0.1	3737.1
6321	8.324	3.8182	0.1	3789.
6322	8.1396	3.8182	0.1	3842.3
6323	7.9551	3.8182	0.1	3897.2
6324	7.7707	3.8182	0.1	3954.4
6325	7.5863	3.8182	0.1	4014.6
6326	7.4019	3.8182	0.1	4078.8
6327	7.2174	3.8182	0.1	4148.1
6328	7.033	3.8182	0.1	4224.2
6329	6.8486	3.8182	0.1	4309.1
6330	6.6642	3.8182	0.1	4405.4
6331	6.4798	3.8182	0.1	4516.7
6332	6.2953	3.8182	0.1	4647.5
6333	6.1109	3.8182	0.1	4804.2
6334	5.9265	3.8182	0.1	4995.2
6335	5.7421	3.8182	0.1	5232.7
6336	5.5576	3.8182	0.1	5534.5
6337	5.3732	3.8182	0.1	5928.
6338	5.1888	3.8182	0.1	6457.
6339	5.0044	3.8182	0.1	7204.3
6340	4.8199	3.8182	0.1	8308.8
6341	4.6355	3.8182	0.1	10217
6342	4.4511	3.8182	0.1	13804
6343	23.816	4.	0.1	186.75
6344	23.631	4.	0.1	204.2
6345	23.447	4.	0.1	226.07
6346	23.262	4.	0.1	251.22
6347	23.078	4.	0.1	278.83
6348	22.893	4.	0.1	308.31
6349	22.709	4.	0.1	339.25
6350	22.525	4.	0.1	371.39
6351	22.34	4.	0.1	404.51
6352	22.156	4.	0.1	438.46
6353	21.971	4.	0.1	473.15
6354	21.787	4.	0.1	508.47
6355	21.602	4.	0.1	544.37
6356	21.418	4.	0.1	580.8
6357	21.234	4.	0.1	617.71
6358	21.049	4.	0.1	655.07
6359	20.865	4.	0.1	692.84
6360	20.68	4.	0.1	731.02
6361	20.496	4.	0.1	769.56
6362	20.312	4.	0.1	808.46
6363	20.127	4.	0.1	847.71
6364	19.943	4.	0.1	887.28
6365	19.758	4.	0.1	927.16
6366	19.574	4.	0.1	967.35
6367	19.389	4.	0.1	1007.8
6368	19.205	4.	0.1	1048.6
6369	19.021	4.	0.1	1089.7
6370	18.836	4.	0.1	1131.
6371	18.652	4.	0.1	1172.6
6372	18.467	4.	0.1	1214.4
6373	18.283	4.	0.1	1256.5
6374	18.098	4.	0.1	1298.8
6375	17.914	4.	0.1	1341.4
6376	17.73	4.	0.1	1384.3
6377	17.545	4.	0.1	1427.3
6378	17.361	4.	0.1	1470.6
6379	17.176	4.	0.1	1514.1
6380	16.992	4.	0.1	1557.8
6381	16.807	4.	0.1	1601.8
6382	16.623	4.	0.1	1645.9
6383	16.439	4.	0.1	1690.3
6384	16.254	4.	0.1	1734.9
6385	16.07	4.	0.1	1779.7
6386	15.885	4.	0.1	1824.7
6387	15.701	4.	0.1	1869.8
6388	15.517	4.	0.1	1915.2
6389	15.332	4.	0.1	1960.8
6390	15.148	4.	0.1	2006.5
6391	14.963	4.	0.1	2052.5
6392	14.779	4.	0.1	2098.6
6393	14.594	4.	0.1	2144.8
6394	14.41	4.	0.1	2191.3
6395	14.226	4.	0.1	2237.9
6396	14.041	4.	0.1	2284.7
6397	13.857	4.	0.1	2331.7
6398	13.672	4.	0.1	2378.8
6399	13.488	4.	0.1	2426.
6400	13.303	4.	0.1	2473.4
6401	13.119	4.	0.1	2520.9
6402	12.935	4.	0.1	2568.6
6403	12.75	4.	0.1	2616.4
6404	12.566	4.	0.1	2664.3
6405	12.381	4.	0.1	2712.3
6406	12.197	4.	0.1	2760.5
6407	12.012	4.	0.1	2808.7
6408	11.828	4.	0.1	2857.
6409	11.644	4.	0.1	2905.4
6410	11.459	4.	0.1	2953.9
6411	11.275	4.	0.1	3002.5
6412	11.09	4.	0.1	3051.1
6413	10.906	4.	0.1	3099.8
6414	10.721	4.	0.1	3148.5
6415	10.537	4.	0.1	3197.3
6416	10.353	4.	0.1	3246.2
6417	10.168	4.	0.1	3295.1
6418	9.9838	4.	0.1	3344.
6419	9.7994	4.	0.1	3393.1
6420	9.615	4.	0.1	3442.2
6421	9.4305	4.	0.1	3491.4
6422	9.2461	4.	0.1	3540.9
6423	9.0617	4.	0.1	3590.6
6424	8.8773	4.	0.1	3640.6
6425	8.6928	4.	0.1	3691.
6426	8.5084	4.	0.1	3742.1
6427	8.324	4.	0.1	3793.9
6428	8.1396	4.	0.1	3846.8
6429	7.9551	4.	0.1	3901.1
6430	7.7707	4.	0.1	3957.3
6431	7.5863	4.	0.1	4015.9
6432	7.4019	4.	0.1	4077.6
6433	7.2174	4.	0.1	4143.4
6434	7.033	4.	0.1	4214.5
6435	6.8486	4.	0.1	4292.5
6436	6.6642	4.	0.1	4379.3
6437	6.4798	4.	0.1	4477.6
6438	6.2953	4.	0.1	4591.1
6439	6.1109	4.	0.1	4724.7
6440	5.9265	4.	0.1	4885.2
6441	5.7421	4.	0.1	5082.6
6442	5.5576	4.	0.1	5332.
6443	5.3732	4.	0.1	5657.5
6444	5.1888	4.	0.1	6097.8
6445	5.0044	4.	0.1	6729.2
6446	4.8199	4.	0.1	7688.9
6447	4.6355	4.	0.1	9368.8
6448	4.4511	4.	0.1	14084
6449	23.816	4.1818	0.1	181.
6450	23.631	4.1818	0.1	198.59
6451	23.447	4.1818	0.1	220.71
6452	23.262	4.1818	0.1	246.14
6453	23.078	4.1818	0.1	274.03
6454	22.893	4.1818	0.1	303.81
6455	22.709	4.1818	0.1	335.07
6456	22.525	4.1818	0.1	367.51
6457	22.34	4.1818	0.1	400.94
6458	22.156	4.1818	0.1	435.2
6459	21.971	4.1818	0.1	470.18
6460	21.787	4.1818	0.1	505.79
6461	21.602	4.1818	0.1	541.96
6462	21.418	4.1818	0.1	578.65
6463	21.234	4.1818	0.1	615.8
6464	21.049	4.1818	0.1	653.38
6465	20.865	4.1818	0.1	691.37
6466	20.68	4.1818	0.1	729.73
6467	20.496	4.1818	0.1	768.46
6468	20.312	4.1818	0.1	807.52
6469	20.127	4.1818	0.1	846.92
6470	19.943	4.1818	0.1	886.62
6471	19.758	4.1818	0.1	926.64
6472	19.574	4.1818	0.1	966.94
6473	19.389	4.1818	0.1	1007.5
6474	19.205	4.1818	0.1	1048.4
6475	19.021	4.1818	0.1	1089.5
6476	18.836	4.1818	0.1	1130.9
6477	18.652	4.1818	0.1	1172.6
6478	18.467	4.1818	0.1	1214.5
6479	18.283	4.1818	0.1	1256.7
6480	18.098	4.1818	0.1	1299.1
6481	17.914	4.1818	0.1	1341.7
6482	17.73	4.1818	0.1	1384.6
6483	17.545	4.1818	0.1	1427.7
6484	17.361	4.1818	0.1	1471.
6485	17.176	4.1818	0.1	1514.5
6486	16.992	4.1818	0.1	1558.3
6487	16.807	4.1818	0.1	1602.3
6488	16.623	4.1818	0.1	1646.5
6489	16.439	4.1818	0.1	1690.9
6490	16.254	4.1818	0.1	1735.5
6491	16.07	4.1818	0.1	1780.3
6492	15.885	4.1818	0.1	1825.3
6493	15.701	4.1818	0.1	1870.5
6494	15.517	4.1818	0.1	1915.9
6495	15.332	4.1818	0.1	1961.5
6496	15.148	4.1818	0.1	2007.3
6497	14.963	4.1818	0.1	2053.2
6498	14.779	4.1818	0.1	2099.4
6499	14.594	4.1818	0.1	2145.7
6500	14.41	4.1818	0.1	2192.2
6501	14.226	4.1818	0.1	2238.9
6502	14.041	4.1818	0.1	2285.7
6503	13.857	4.1818	0.1	2332.7
6504	13.672	4.1818	0.1	2379.8
6505	13.488	4.1818	0.1	2427.1
6506	13.303	4.1818	0.1	2474.6
6507	13.119	4.1818	0.1	2522.2
6508	12.935	4.1818	0.1	2569.9
6509	12.75	4.1818	0.1	2617.8
6510	12.566	4.1818	0.1	2665.8
6511	12.381	4.1818	0.1	2713.9
6512	12.197	4.1818	0.1	2762.1
6513	12.012	4.1818	0.1	2810.5
6514	11.828	4.1818	0.1	2858.9
6515	11.644	4.1818	0.1	2907.5
6516	11.459	4.1818	0.1	2956.1
6517	11.275	4.1818	0.1	3004.8
6518	11.09	4.1818	0.1	3053.6
6519	10.906	4.1818	0.1	3102.5
6520	10.721	4.1818	0.1	3151.4
6521	10.537	4.1818	0.1	3200.5
6522	10.353	4.1818	0.1	3249.5
6523	10.168	4.1818	0.1	3298.7
6524	9.9838	4.1818	0.1	3347.9
6525	9.7994	4.1818	0.1	3397.2
6526	9.615	4.1818	0.1	3446.6
6527	9.4305	4.1818	0.1	3496.2
6528	9.2461	4.1818	0.1	3545.9
6529	9.0617	4.1818	0.1	3595.8
6530	8.8773	4.1818	0.1	3646.
6531	8.6928	4.1818	0.1	3696.6
6532	8.5084	4.1818	0.1	3747.6
6533	8.324	4.1818	0.1	3799.3
6534	8.1396	4.1818	0.1	3851.8
6535	7.9551	4.1818	0.1	3905.4
6536	7.7707	4.1818	0.1	3960.3
6537	7.5863	4.1818	0.1	4017.1
6538	7.4019	4.1818	0.1	4076.
6539	7.2174	4.1818	0.1	4137.9
6540	7.033	4.1818	0.1	4203.4
6541	6.8486	4.1818	0.1	4273.7
6542	6.6642	4.1818	0.1	4350.1
6543	6.4798	4.1818	0.1	4434.5
6544	6.2953	4.1818	0.1	4529.3
6545	6.1109	4.1818	0.1	4638.
6546	5.9265	4.1818	0.1	4765.9
6547	5.7421	4.1818	0.1	4920.6
6548	5.5576	4.1818	0.1	5114.3
6549	5.3732	4.1818	0.1	5366.6
6550	5.1888	4.1818	0.1	5710.1
6551	5.0044	4.1818	0.1	6205.
6552	4.8199	4.1818	0.1	6962.4
6553	4.6355	4.1818	0.1	8361.8
6554	4.4511	4.1818	0.1	11644
6555	23.816	4.3636	0.1	174.15
6556	23.631	4.3636	0.1	191.93
6557	23.447	4.3636	0.1	214.35
6558	23.262	4.3636	0.1	240.13
6559	23.078	4.3636	0.1	268.4
6560	22.893	4.3636	0.1	298.56
6561	22.709	4.3636	0.1	330.21
6562	22.525	4.3636	0.1	363.04
6563	22.34	4.3636	0.1	396.85
6564	22.156	4.3636	0.1	431.48
6565	21.971	4.3636	0.1	466.82
6566	21.787	4.3636	0.1	502.77
6567	21.602	4.3636	0.1	539.27
6568	21.418	4.3636	0.1	576.25
6569	21.234	4.3636	0.1	613.68
6570	21.049	4.3636	0.1	651.53
6571	20.865	4.3636	0.1	689.75
6572	20.68	4.3636	0.1	728.34
6573	20.496	4.3636	0.1	767.26
6574	20.312	4.3636	0.1	806.51
6575	20.127	4.3636	0.1	846.08
6576	19.943	4.3636	0.1	885.94
6577	19.758	4.3636	0.1	926.09
6578	19.574	4.3636	0.1	966.52
6579	19.389	4.3636	0.1	1007.2
6580	19.205	4.3636	0.1	1048.2
6581	19.021	4.3636	0.1	1089.4
6582	18.836	4.3636	0.1	1130.9
6583	18.652	4.3636	0.1	1172.7
6584	18.467	4.3636	0.1	1214.6
6585	18.283	4.3636	0.1	1256.9
6586	18.098	4.3636	0.1	1299.3
6587	17.914	4.3636	0.1	1342.
6588	17.73	4.3636	0.1	1384.9
6589	17.545	4.3636	0.1	1428.1
6590	17.361	4.3636	0.1	1471.5
6591	17.176	4.3636	0.1	1515.
6592	16.992	4.3636	0.1	1558.8
6593	16.807	4.3636	0.1	1602.9
6594	16.623	4.3636	0.1	1647.1
6595	16.439	4.3636	0.1	1691.5
6596	16.254	4.3636	0.1	1736.2
6597	16.07	4.3636	0.1	1781.
6598	15.885	4.3636	0.1	1826.
6599	15.701	4.3636	0.1	1871.3
6600	15.517	4.3636	0.1	1916.7
6601	15.332	4.3636	0.1	1962.3
6602	15.148	4.3636	0.1	2008.2
6603	14.963	4.3636	0.1	2054.2
6604	14.779	4.3636	0.1	2100.3
6605	14.594	4.3636	0.1	2146.7
6606	14.41	4.3636	0.1	2193.2
6607	14.226	4.3636	0.1	2239.9
6608	14.041	4.3636	0.1	2286.8
6609	13.857	4.3636	0.1	2333.9
6610	13.672	4.3636	0.1	2381.1
6611	13.488	4.3636	0.1	2428.4
6612	13.303	4.3636	0.1	2476.
6613	13.119	4.3636	0.1	2523.6
6614	12.935	4.3636	0.1	2571.4
6615	12.75	4.3636	0.1	2619.4
6616	12.566	4.3636	0.1	2667.5
6617	12.381	4.3636	0.1	2715.7
6618	12.197	4.3636	0.1	2764.1
6619	12.012	4.3636	0.1	2812.5
6620	11.828	4.3636	0.1	2861.1
6621	11.644	4.3636	0.1	2909.8
6622	11.459	4.3636	0.1	2958.6
6623	11.275	4.3636	0.1	3007.5
6624	11.09	4.3636	0.1	3056.5
6625	10.906	4.3636	0.1	3105.6
6626	10.721	4.3636	0.1	3154.7
6627	10.537	4.3636	0.1	3204.
6628	10.353	4.3636	0.1	3253.3
6629	10.168	4.3636	0.1	3302.7
6630	9.9838	4.3636	0.1	3352.2
6631	9.7994	4.3636	0.1	3401.8
6632	9.615	4.3636	0.1	3451.5
6633	9.4305	4.3636	0.1	3501.4
6634	9.2461	4.3636	0.1	3551.4
6635	9.0617	4.3636	0.1	3601.5
6636	8.8773	4.3636	0.1	3651.9
6637	8.6928	4.3636	0.1	3702.6
6638	8.5084	4.3636	0.1	3753.6
6639	8.324	4.3636	0.1	3805.1
6640	8.1396	4.3636	0.1	3857.1
6641	7.9551	4.3636	0.1	3909.8
6642	7.7707	4.3636	0.1	3963.3
6643	7.5863	4.3636	0.1	4018.
6644	7.4019	4.3636	0.1	4073.9
6645	7.2174	4.3636	0.1	4131.4
6646	7.033	4.3636	0.1	4191.
6647	6.8486	4.3636	0.1	4253.2
6648	6.6642	4.3636	0.1	4318.6
6649	6.4798	4.3636	0.1	4388.1
6650	6.2953	4.3636	0.1	4463.3
6651	6.1109	4.3636	0.1	4546.2
6652	5.9265	4.3636	0.1	4640.1
6653	5.7421	4.3636	0.1	4750.3
6654	5.5576	4.3636	0.1	4885.6
6655	5.3732	4.3636	0.1	5060.7
6656	5.1888	4.3636	0.1	5299.6
6657	5.0044	4.3636	0.1	5648.1
6658	4.8199	4.3636	0.1	6168.3
6659	4.6355	4.3636	0.1	7019.1
6660	4.4511	4.3636	0.1	8659.
6661	23.816	4.5455	0.1	166.11
6662	23.631	4.5455	0.1	184.14
6663	23.447	4.5455	0.1	206.95
6664	23.262	4.5455	0.1	233.18
6665	23.078	4.5455	0.1	261.92
6666	22.893	4.5455	0.1	292.57
6667	22.709	4.5455	0.1	324.7
6668	22.525	4.5455	0.1	358.02
6669	22.34	4.5455	0.1	392.3
6670	22.156	4.5455	0.1	427.38
6671	21.971	4.5455	0.1	463.14
6672	21.787	4.5455	0.1	499.49
6673	21.602	4.5455	0.1	536.35
6674	21.418	4.5455	0.1	573.68
6675	21.234	4.5455	0.1	611.42
6676	21.049	4.5455	0.1	649.56
6677	20.865	4.5455	0.1	688.05
6678	20.68	4.5455	0.1	726.87
6679	20.496	4.5455	0.1	766.02
6680	20.312	4.5455	0.1	805.48
6681	20.127	4.5455	0.1	845.22
6682	19.943	4.5455	0.1	885.25
6683	19.758	4.5455	0.1	925.56
6684	19.574	4.5455	0.1	966.13
6685	19.389	4.5455	0.1	1007.
6686	19.205	4.5455	0.1	1048.
6687	19.021	4.5455	0.1	1089.4
6688	18.836	4.5455	0.1	1131.
6689	18.652	4.5455	0.1	1172.8
6690	18.467	4.5455	0.1	1214.9
6691	18.283	4.5455	0.1	1257.1
6692	18.098	4.5455	0.1	1299.7
6693	17.914	4.5455	0.1	1342.4
6694	17.73	4.5455	0.1	1385.4
6695	17.545	4.5455	0.1	1428.6
6696	17.361	4.5455	0.1	1472.
6697	17.176	4.5455	0.1	1515.6
6698	16.992	4.5455	0.1	1559.5
6699	16.807	4.5455	0.1	1603.5
6700	16.623	4.5455	0.1	1647.8
6701	16.439	4.5455	0.1	1692.3
6702	16.254	4.5455	0.1	1737.
6703	16.07	4.5455	0.1	1781.8
6704	15.885	4.5455	0.1	1826.9
6705	15.701	4.5455	0.1	1872.2
6706	15.517	4.5455	0.1	1917.7
6707	15.332	4.5455	0.1	1963.3
6708	15.148	4.5455	0.1	2009.2
6709	14.963	4.5455	0.1	2055.2
6710	14.779	4.5455	0.1	2101.4
6711	14.594	4.5455	0.1	2147.8
6712	14.41	4.5455	0.1	2194.4
6713	14.226	4.5455	0.1	2241.2
6714	14.041	4.5455	0.1	2288.1
6715	13.857	4.5455	0.1	2335.2
6716	13.672	4.5455	0.1	2382.5
6717	13.488	4.5455	0.1	2429.9
6718	13.303	4.5455	0.1	2477.5
6719	13.119	4.5455	0.1	2525.3
6720	12.935	4.5455	0.1	2573.2
6721	12.75	4.5455	0.1	2621.2
6722	12.566	4.5455	0.1	2669.4
6723	12.381	4.5455	0.1	2717.8
6724	12.197	4.5455	0.1	2766.2
6725	12.012	4.5455	0.1	2814.8
6726	11.828	4.5455	0.1	2863.6
6727	11.644	4.5455	0.1	2912.4
6728	11.459	4.5455	0.1	2961.4
6729	11.275	4.5455	0.1	3010.5
6730	11.09	4.5455	0.1	3059.6
6731	10.906	4.5455	0.1	3108.9
6732	10.721	4.5455	0.1	3158.3
6733	10.537	4.5455	0.1	3207.8
6734	10.353	4.5455	0.1	3257.4
6735	10.168	4.5455	0.1	3307.1
6736	9.9838	4.5455	0.1	3356.9
6737	9.7994	4.5455	0.1	3406.8
6738	9.615	4.5455	0.1	3456.8
6739	9.4305	4.5455	0.1	3507.
6740	9.2461	4.5455	0.1	3557.2
6741	9.0617	4.5455	0.1	3607.6
6742	8.8773	4.5455	0.1	3658.2
6743	8.6928	4.5455	0.1	3708.9
6744	8.5084	4.5455	0.1	3759.8
6745	8.324	4.5455	0.1	3811.
6746	8.1396	4.5455	0.1	3862.4
6747	7.9551	4.5455	0.1	3914.1
6748	7.7707	4.5455	0.1	3966.1
6749	7.5863	4.5455	0.1	4018.4
6750	7.4019	4.5455	0.1	4071.1
6751	7.2174	4.5455	0.1	4124.1
6752	7.033	4.5455	0.1	4177.5
6753	6.8486	4.5455	0.1	4231.1
6754	6.6642	4.5455	0.1	4285.1
6755	6.4798	4.5455	0.1	4339.5
6756	6.2953	4.5455	0.1	4394.6
6757	6.1109	4.5455	0.1	4451.
6758	5.9265	4.5455	0.1	4510.1
6759	5.7421	4.5455	0.1	4574.7
6760	5.5576	4.5455	0.1	4649.7
6761	5.3732	4.5455	0.1	4744.5
6762	5.1888	4.5455	0.1	4874.7
6763	5.0044	4.5455	0.1	5065.5
6764	4.8199	4.5455	0.1	5356.8
6765	4.6355	4.5455	0.1	5780.7
6766	4.4511	4.5455	0.1	6646.
6767	23.816	4.7273	0.1	156.79
6768	23.631	4.7273	0.1	175.13
6769	23.447	4.7273	0.1	198.44
6770	23.262	4.7273	0.1	225.25
6771	23.078	4.7273	0.1	254.6
6772	22.893	4.7273	0.1	285.87
6773	22.709	4.7273	0.1	318.62
6774	22.525	4.7273	0.1	352.52
6775	22.34	4.7273	0.1	387.36
6776	22.156	4.7273	0.1	422.97
6777	21.971	4.7273	0.1	459.21
6778	21.787	4.7273	0.1	496.01
6779	21.602	4.7273	0.1	533.29
6780	21.418	4.7273	0.1	570.99
6781	21.234	4.7273	0.1	609.09
6782	21.049	4.7273	0.1	647.53
6783	20.865	4.7273	0.1	686.31
6784	20.68	4.7273	0.1	725.4
6785	20.496	4.7273	0.1	764.79
6786	20.312	4.7273	0.1	804.46
6787	20.127	4.7273	0.1	844.4
6788	19.943	4.7273	0.1	884.61
6789	19.758	4.7273	0.1	925.07
6790	19.574	4.7273	0.1	965.79
6791	19.389	4.7273	0.1	1006.8
6792	19.205	4.7273	0.1	1048.
6793	19.021	4.7273	0.1	1089.4
6794	18.836	4.7273	0.1	1131.1
6795	18.652	4.7273	0.1	1173.
6796	18.467	4.7273	0.1	1215.1
6797	18.283	4.7273	0.1	1257.5
6798	18.098	4.7273	0.1	1300.1
6799	17.914	4.7273	0.1	1342.9
6800	17.73	4.7273	0.1	1386.
6801	17.545	4.7273	0.1	1429.2
6802	17.361	4.7273	0.1	1472.7
6803	17.176	4.7273	0.1	1516.4
6804	16.992	4.7273	0.1	1560.2
6805	16.807	4.7273	0.1	1604.3
6806	16.623	4.7273	0.1	1648.6
6807	16.439	4.7273	0.1	1693.2
6808	16.254	4.7273	0.1	1737.9
6809	16.07	4.7273	0.1	1782.8
6810	15.885	4.7273	0.1	1827.9
6811	15.701	4.7273	0.1	1873.2
6812	15.517	4.7273	0.1	1918.7
6813	15.332	4.7273	0.1	1964.4
6814	15.148	4.7273	0.1	2010.3
6815	14.963	4.7273	0.1	2056.4
6816	14.779	4.7273	0.1	2102.6
6817	14.594	4.7273	0.1	2149.1
6818	14.41	4.7273	0.1	2195.7
6819	14.226	4.7273	0.1	2242.5
6820	14.041	4.7273	0.1	2289.5
6821	13.857	4.7273	0.1	2336.7
6822	13.672	4.7273	0.1	2384.
6823	13.488	4.7273	0.1	2431.6
6824	13.303	4.7273	0.1	2479.2
6825	13.119	4.7273	0.1	2527.1
6826	12.935	4.7273	0.1	2575.1
6827	12.75	4.7273	0.1	2623.2
6828	12.566	4.7273	0.1	2671.5
6829	12.381	4.7273	0.1	2720.
6830	12.197	4.7273	0.1	2768.6
6831	12.012	4.7273	0.1	2817.3
6832	11.828	4.7273	0.1	2866.2
6833	11.644	4.7273	0.1	2915.3
6834	11.459	4.7273	0.1	2964.4
6835	11.275	4.7273	0.1	3013.7
6836	11.09	4.7273	0.1	3063.1
6837	10.906	4.7273	0.1	3112.6
6838	10.721	4.7273	0.1	3162.3
6839	10.537	4.7273	0.1	3212.
6840	10.353	4.7273	0.1	3261.9
6841	10.168	4.7273	0.1	3311.9
6842	9.9838	4.7273	0.1	3361.9
6843	9.7994	4.7273	0.1	3412.1
6844	9.615	4.7273	0.1	3462.4
6845	9.4305	4.7273	0.1	3512.8
6846	9.2461	4.7273	0.1	3563.3
6847	9.0617	4.7273	0.1	3613.9
6848	8.8773	4.7273	0.1	3664.6
6849	8.6928	4.7273	0.1	3715.3
6850	8.5084	4.7273	0.1	3766.1
6851	8.324	4.7273	0.1	3816.8
6852	8.1396	4.7273	0.1	3867.6
6853	7.9551	4.7273	0.1	3918.1
6854	7.7707	4.7273	0.1	3968.5
6855	7.5863	4.7273	0.1	4018.4
6856	7.4019	4.7273	0.1	4067.6
6857	7.2174	4.7273	0.1	4115.9
6858	7.033	4.7273	0.1	4162.9
6859	6.8486	4.7273	0.1	4207.9
6860	6.6642	4.7273	0.1	4250.4
6861	6.4798	4.7273	0.1	4289.5
6862	6.2953	4.7273	0.1	4324.5
6863	6.1109	4.7273	0.1	4354.5
6864	5.9265	4.7273	0.1	4379.
6865	5.7421	4.7273	0.1	4397.9
6866	5.5576	4.7273	0.1	4412.7
6867	5.3732	4.7273	0.1	4427.3
6868	5.1888	4.7273	0.1	4449.9
6869	5.0044	4.7273	0.1	4494.8
6870	4.8199	4.7273	0.1	4582.8
6871	4.6355	4.7273	0.1	4752.4
6872	4.4511	4.7273	0.1	5254.8
6873	23.816	4.9091	0.1	146.04
6874	23.631	4.9091	0.1	164.8
6875	23.447	4.9091	0.1	188.76
6876	23.262	4.9091	0.1	216.33
6877	23.078	4.9091	0.1	246.47
6878	22.893	4.9091	0.1	278.54
6879	22.709	4.9091	0.1	312.04
6880	22.525	4.9091	0.1	346.66
6881	22.34	4.9091	0.1	382.16
6882	22.156	4.9091	0.1	418.37
6883	21.971	4.9091	0.1	455.16
6884	21.787	4.9091	0.1	492.46
6885	21.602	4.9091	0.1	530.18
6886	21.418	4.9091	0.1	568.3
6887	21.234	4.9091	0.1	606.76
6888	21.049	4.9091	0.1	645.54
6889	20.865	4.9091	0.1	684.62
6890	20.68	4.9091	0.1	723.98
6891	20.496	4.9091	0.1	763.61
6892	20.312	4.9091	0.1	803.51
6893	20.127	4.9091	0.1	843.65
6894	19.943	4.9091	0.1	884.04
6895	19.758	4.9091	0.1	924.67
6896	19.574	4.9091	0.1	965.54
6897	19.389	4.9091	0.1	1006.6
6898	19.205	4.9091	0.1	1048.
6899	19.021	4.9091	0.1	1089.5
6900	18.836	4.9091	0.1	1131.3
6901	18.652	4.9091	0.1	1173.3
6902	18.467	4.9091	0.1	1215.5
6903	18.283	4.9091	0.1	1258.
6904	18.098	4.9091	0.1	1300.7
6905	17.914	4.9091	0.1	1343.5
6906	17.73	4.9091	0.1	1386.6
6907	17.545	4.9091	0.1	1429.9
6908	17.361	4.9091	0.1	1473.4
6909	17.176	4.9091	0.1	1517.2
6910	16.992	4.9091	0.1	1561.1
6911	16.807	4.9091	0.1	1605.2
6912	16.623	4.9091	0.1	1649.6
6913	16.439	4.9091	0.1	1694.1
6914	16.254	4.9091	0.1	1738.9
6915	16.07	4.9091	0.1	1783.8
6916	15.885	4.9091	0.1	1829.
6917	15.701	4.9091	0.1	1874.3
6918	15.517	4.9091	0.1	1919.9
6919	15.332	4.9091	0.1	1965.6
6920	15.148	4.9091	0.1	2011.6
6921	14.963	4.9091	0.1	2057.7
6922	14.779	4.9091	0.1	2104.
6923	14.594	4.9091	0.1	2150.5
6924	14.41	4.9091	0.1	2197.2
6925	14.226	4.9091	0.1	2244.1
6926	14.041	4.9091	0.1	2291.1
6927	13.857	4.9091	0.1	2338.4
6928	13.672	4.9091	0.1	2385.8
6929	13.488	4.9091	0.1	2433.4
6930	13.303	4.9091	0.1	2481.1
6931	13.119	4.9091	0.1	2529.
6932	12.935	4.9091	0.1	2577.1
6933	12.75	4.9091	0.1	2625.4
6934	12.566	4.9091	0.1	2673.8
6935	12.381	4.9091	0.1	2722.4
6936	12.197	4.9091	0.1	2771.2
6937	12.012	4.9091	0.1	2820.1
6938	11.828	4.9091	0.1	2869.1
6939	11.644	4.9091	0.1	2918.3
6940	11.459	4.9091	0.1	2967.7
6941	11.275	4.9091	0.1	3017.1
6942	11.09	4.9091	0.1	3066.8
6943	10.906	4.9091	0.1	3116.5
6944	10.721	4.9091	0.1	3166.4
6945	10.537	4.9091	0.1	3216.4
6946	10.353	4.9091	0.1	3266.6
6947	10.168	4.9091	0.1	3316.8
6948	9.9838	4.9091	0.1	3367.2
6949	9.7994	4.9091	0.1	3417.7
6950	9.615	4.9091	0.1	3468.2
6951	9.4305	4.9091	0.1	3518.9
6952	9.2461	4.9091	0.1	3569.6
6953	9.0617	4.9091	0.1	3620.3
6954	8.8773	4.9091	0.1	3671.
6955	8.6928	4.9091	0.1	3721.7
6956	8.5084	4.9091	0.1	3772.2
6957	8.324	4.9091	0.1	3822.5
6958	8.1396	4.9091	0.1	3872.4
6959	7.9551	4.9091	0.1	3921.8
6960	7.7707	4.9091	0.1	3970.3
6961	7.5863	4.9091	0.1	4017.7
6962	7.4019	4.9091	0.1	4063.4
6963	7.2174	4.9091	0.1	4106.9
6964	7.033	4.9091	0.1	4147.4
6965	6.8486	4.9091	0.1	4183.8
6966	6.6642	4.9091	0.1	4215.
6967	6.4798	4.9091	0.1	4239.2
6968	6.2953	4.9091	0.1	4254.6
6969	6.1109	4.9091	0.1	4259.1
6970	5.9265	4.9091	0.1	4250.1
6971	5.7421	4.9091	0.1	4225.2
6972	5.5576	4.9091	0.1	4182.6
6973	5.3732	4.9091	0.1	4121.9
6974	5.1888	4.9091	0.1	4046.2
6975	5.0044	4.9091	0.1	3965.2
6976	4.8199	4.9091	0.1	3899.5
6977	4.6355	4.9091	0.1	3894.1
6978	4.4511	4.9091	0.1	4191.2
6979	23.816	5.0909	0.1	133.65
6980	23.631	5.0909	0.1	153.
6981	23.447	5.0909	0.1	177.87
6982	23.262	5.0909	0.1	206.46
6983	23.078	5.0909	0.1	237.65
6984	22.893	5.0909	0.1	270.71
6985	22.709	5.0909	0.1	305.14
6986	22.525	5.0909	0.1	340.6
6987	22.34	5.0909	0.1	376.85
6988	22.156	5.0909	0.1	413.73
6989	21.971	5.0909	0.1	451.12
6990	21.787	5.0909	0.1	488.95
6991	21.602	5.0909	0.1	527.15
6992	21.418	5.0909	0.1	565.69
6993	21.234	5.0909	0.1	604.53
6994	21.049	5.0909	0.1	643.65
6995	20.865	5.0909	0.1	683.04
6996	20.68	5.0909	0.1	722.68
6997	20.496	5.0909	0.1	762.56
6998	20.312	5.0909	0.1	802.68
6999	20.127	5.0909	0.1	843.03
7000	19.943	5.0909	0.1	883.6
7001	19.758	5.0909	0.1	924.4
7002	19.574	5.0909	0.1	965.42
7003	19.389	5.0909	0.1	1006.7
7004	19.205	5.0909	0.1	1048.1
7005	19.021	5.0909	0.1	1089.8
7006	18.836	5.0909	0.1	1131.7
7007	18.652	5.0909	0.1	1173.8
7008	18.467	5.0909	0.1	1216.1
7009	18.283	5.0909	0.1	1258.6
7010	18.098	5.0909	0.1	1301.3
7011	17.914	5.0909	0.1	1344.3
7012	17.73	5.0909	0.1	1387.4
7013	17.545	5.0909	0.1	1430.8
7014	17.361	5.0909	0.1	1474.3
7015	17.176	5.0909	0.1	1518.1
7016	16.992	5.0909	0.1	1562.1
7017	16.807	5.0909	0.1	1606.3
7018	16.623	5.0909	0.1	1650.7
7019	16.439	5.0909	0.1	1695.3
7020	16.254	5.0909	0.1	1740.
7021	16.07	5.0909	0.1	1785.
7022	15.885	5.0909	0.1	1830.2
7023	15.701	5.0909	0.1	1875.6
7024	15.517	5.0909	0.1	1921.2
7025	15.332	5.0909	0.1	1967.
7026	15.148	5.0909	0.1	2013.
7027	14.963	5.0909	0.1	2059.1
7028	14.779	5.0909	0.1	2105.5
7029	14.594	5.0909	0.1	2152.
7030	14.41	5.0909	0.1	2198.8
7031	14.226	5.0909	0.1	2245.7
7032	14.041	5.0909	0.1	2292.8
7033	13.857	5.0909	0.1	2340.1
7034	13.672	5.0909	0.1	2387.6
7035	13.488	5.0909	0.1	2435.3
7036	13.303	5.0909	0.1	2483.2
7037	13.119	5.0909	0.1	2531.2
7038	12.935	5.0909	0.1	2579.4
7039	12.75	5.0909	0.1	2627.8
7040	12.566	5.0909	0.1	2676.3
7041	12.381	5.0909	0.1	2725.
7042	12.197	5.0909	0.1	2773.9
7043	12.012	5.0909	0.1	2823.
7044	11.828	5.0909	0.1	2872.2
7045	11.644	5.0909	0.1	2921.6
7046	11.459	5.0909	0.1	2971.1
7047	11.275	5.0909	0.1	3020.8
7048	11.09	5.0909	0.1	3070.7
7049	10.906	5.0909	0.1	3120.7
7050	10.721	5.0909	0.1	3170.8
7051	10.537	5.0909	0.1	3221.1
7052	10.353	5.0909	0.1	3271.5
7053	10.168	5.0909	0.1	3322.
7054	9.9838	5.0909	0.1	3372.6
7055	9.7994	5.0909	0.1	3423.4
7056	9.615	5.0909	0.1	3474.2
7057	9.4305	5.0909	0.1	3525.
7058	9.2461	5.0909	0.1	3575.9
7059	9.0617	5.0909	0.1	3626.7
7060	8.8773	5.0909	0.1	3677.5
7061	8.6928	5.0909	0.1	3728.
7062	8.5084	5.0909	0.1	3778.2
7063	8.324	5.0909	0.1	3827.9
7064	8.1396	5.0909	0.1	3876.9
7065	7.9551	5.0909	0.1	3925.
7066	7.7707	5.0909	0.1	3971.6
7067	7.5863	5.0909	0.1	4016.3
7068	7.4019	5.0909	0.1	4058.5
7069	7.2174	5.0909	0.1	4097.2
7070	7.033	5.0909	0.1	4131.3
7071	6.8486	5.0909	0.1	4159.4
7072	6.6642	5.0909	0.1	4179.6
7073	6.4798	5.0909	0.1	4189.6
7074	6.2953	5.0909	0.1	4186.7
7075	6.1109	5.0909	0.1	4167.3
7076	5.9265	5.0909	0.1	4127.4
7077	5.7421	5.0909	0.1	4062.7
7078	5.5576	5.0909	0.1	3968.5
7079	5.3732	5.0909	0.1	3841.5
7080	5.1888	5.0909	0.1	3681.4
7081	5.0044	5.0909	0.1	3496.2
7082	4.8199	5.0909	0.1	3310.1
7083	4.6355	5.0909	0.1	3180.3
7084	4.4511	5.0909	0.1	3331.7
7085	23.816	5.2727	0.1	119.36
7086	23.631	5.2727	0.1	139.59
7087	23.447	5.2727	0.1	165.76
7088	23.262	5.2727	0.1	195.78
7089	23.078	5.2727	0.1	228.35
7090	22.893	5.2727	0.1	262.66
7091	22.709	5.2727	0.1	298.18
7092	22.525	5.2727	0.1	334.59
7093	22.34	5.2727	0.1	371.66
7094	22.156	5.2727	0.1	409.25
7095	21.971	5.2727	0.1	447.27
7096	21.787	5.2727	0.1	485.64
7097	21.602	5.2727	0.1	524.33
7098	21.418	5.2727	0.1	563.3
7099	21.234	5.2727	0.1	602.52
7100	21.049	5.2727	0.1	641.98
7101	20.865	5.2727	0.1	681.67
7102	20.68	5.2727	0.1	721.58
7103	20.496	5.2727	0.1	761.71
7104	20.312	5.2727	0.1	802.05
7105	20.127	5.2727	0.1	842.59
7106	19.943	5.2727	0.1	883.35
7107	19.758	5.2727	0.1	924.31
7108	19.574	5.2727	0.1	965.47
7109	19.389	5.2727	0.1	1006.8
7110	19.205	5.2727	0.1	1048.4
7111	19.021	5.2727	0.1	1090.2
7112	18.836	5.2727	0.1	1132.2
7113	18.652	5.2727	0.1	1174.4
7114	18.467	5.2727	0.1	1216.8
7115	18.283	5.2727	0.1	1259.3
7116	18.098	5.2727	0.1	1302.1
7117	17.914	5.2727	0.1	1345.2
7118	17.73	5.2727	0.1	1388.4
7119	17.545	5.2727	0.1	1431.8
7120	17.361	5.2727	0.1	1475.4
7121	17.176	5.2727	0.1	1519.2
7122	16.992	5.2727	0.1	1563.2
7123	16.807	5.2727	0.1	1607.4
7124	16.623	5.2727	0.1	1651.9
7125	16.439	5.2727	0.1	1696.5
7126	16.254	5.2727	0.1	1741.3
7127	16.07	5.2727	0.1	1786.4
7128	15.885	5.2727	0.1	1831.6
7129	15.701	5.2727	0.1	1877.
7130	15.517	5.2727	0.1	1922.6
7131	15.332	5.2727	0.1	1968.5
7132	15.148	5.2727	0.1	2014.5
7133	14.963	5.2727	0.1	2060.7
7134	14.779	5.2727	0.1	2107.1
7135	14.594	5.2727	0.1	2153.7
7136	14.41	5.2727	0.1	2200.5
7137	14.226	5.2727	0.1	2247.5
7138	14.041	5.2727	0.1	2294.7
7139	13.857	5.2727	0.1	2342.1
7140	13.672	5.2727	0.1	2389.6
7141	13.488	5.2727	0.1	2437.4
7142	13.303	5.2727	0.1	2485.3
7143	13.119	5.2727	0.1	2533.5
7144	12.935	5.2727	0.1	2581.8
7145	12.75	5.2727	0.1	2630.3
7146	12.566	5.2727	0.1	2679.
7147	12.381	5.2727	0.1	2727.8
7148	12.197	5.2727	0.1	2776.9
7149	12.012	5.2727	0.1	2826.1
7150	11.828	5.2727	0.1	2875.5
7151	11.644	5.2727	0.1	2925.
7152	11.459	5.2727	0.1	2974.8
7153	11.275	5.2727	0.1	3024.7
7154	11.09	5.2727	0.1	3074.8
7155	10.906	5.2727	0.1	3125.
7156	10.721	5.2727	0.1	3175.4
7157	10.537	5.2727	0.1	3225.9
7158	10.353	5.2727	0.1	3276.6
7159	10.168	5.2727	0.1	3327.3
7160	9.9838	5.2727	0.1	3378.2
7161	9.7994	5.2727	0.1	3429.2
7162	9.615	5.2727	0.1	3480.2
7163	9.4305	5.2727	0.1	3531.3
7164	9.2461	5.2727	0.1	3582.3
7165	9.0617	5.2727	0.1	3633.2
7166	8.8773	5.2727	0.1	3683.8
7167	8.6928	5.2727	0.1	3734.1
7168	8.5084	5.2727	0.1	3784.
7169	8.324	5.2727	0.1	3833.
7170	8.1396	5.2727	0.1	3881.
7171	7.9551	5.2727	0.1	3927.6
7172	7.7707	5.2727	0.1	3972.3
7173	7.5863	5.2727	0.1	4014.3
7174	7.4019	5.2727	0.1	4052.9
7175	7.2174	5.2727	0.1	4086.9
7176	7.033	5.2727	0.1	4114.9
7177	6.8486	5.2727	0.1	4135.
7178	6.6642	5.2727	0.1	4145.
7179	6.4798	5.2727	0.1	4141.9
7180	6.2953	5.2727	0.1	4122.2
7181	6.1109	5.2727	0.1	4081.6
7182	5.9265	5.2727	0.1	4014.8
7183	5.7421	5.2727	0.1	3915.8
7184	5.5576	5.2727	0.1	3778.3
7185	5.3732	5.2727	0.1	3596.6
7186	5.1888	5.2727	0.1	3368.2
7187	5.0044	5.2727	0.1	3099.2
7188	4.8199	5.2727	0.1	2814.3
7189	4.6355	5.2727	0.1	2578.2
7190	4.4511	5.2727	0.1	2604.7
7191	23.816	5.4545	0.1	102.75
7192	23.631	5.4545	0.1	124.45
7193	23.447	5.4545	0.1	152.65
7194	23.262	5.4545	0.1	184.69
7195	23.078	5.4545	0.1	219.02
7196	22.893	5.4545	0.1	254.8
7197	22.709	5.4545	0.1	291.55
7198	22.525	5.4545	0.1	328.96
7199	22.34	5.4545	0.1	366.88
7200	22.156	5.4545	0.1	405.19
7201	21.971	5.4545	0.1	443.82
7202	21.787	5.4545	0.1	482.73
7203	21.602	5.4545	0.1	521.88
7204	21.418	5.4545	0.1	561.26
7205	21.234	5.4545	0.1	600.84
7206	21.049	5.4545	0.1	640.63
7207	20.865	5.4545	0.1	680.61
7208	20.68	5.4545	0.1	720.77
7209	20.496	5.4545	0.1	761.13
7210	20.312	5.4545	0.1	801.68
7211	20.127	5.4545	0.1	842.41
7212	19.943	5.4545	0.1	883.33
7213	19.758	5.4545	0.1	924.44
7214	19.574	5.4545	0.1	965.74
7215	19.389	5.4545	0.1	1007.2
7216	19.205	5.4545	0.1	1048.9
7217	19.021	5.4545	0.1	1090.8
7218	18.836	5.4545	0.1	1132.9
7219	18.652	5.4545	0.1	1175.1
7220	18.467	5.4545	0.1	1217.6
7221	18.283	5.4545	0.1	1260.3
7222	18.098	5.4545	0.1	1303.1
7223	17.914	5.4545	0.1	1346.2
7224	17.73	5.4545	0.1	1389.5
7225	17.545	5.4545	0.1	1432.9
7226	17.361	5.4545	0.1	1476.6
7227	17.176	5.4545	0.1	1520.4
7228	16.992	5.4545	0.1	1564.5
7229	16.807	5.4545	0.1	1608.8
7230	16.623	5.4545	0.1	1653.2
7231	16.439	5.4545	0.1	1697.9
7232	16.254	5.4545	0.1	1742.8
7233	16.07	5.4545	0.1	1787.8
7234	15.885	5.4545	0.1	1833.1
7235	15.701	5.4545	0.1	1878.6
7236	15.517	5.4545	0.1	1924.2
7237	15.332	5.4545	0.1	1970.1
7238	15.148	5.4545	0.1	2016.2
7239	14.963	5.4545	0.1	2062.4
7240	14.779	5.4545	0.1	2108.9
7241	14.594	5.4545	0.1	2155.5
7242	14.41	5.4545	0.1	2202.4
7243	14.226	5.4545	0.1	2249.5
7244	14.041	5.4545	0.1	2296.7
7245	13.857	5.4545	0.1	2344.2
7246	13.672	5.4545	0.1	2391.8
7247	13.488	5.4545	0.1	2439.6
7248	13.303	5.4545	0.1	2487.7
7249	13.119	5.4545	0.1	2535.9
7250	12.935	5.4545	0.1	2584.3
7251	12.75	5.4545	0.1	2633.
7252	12.566	5.4545	0.1	2681.8
7253	12.381	5.4545	0.1	2730.8
7254	12.197	5.4545	0.1	2780.
7255	12.012	5.4545	0.1	2829.4
7256	11.828	5.4545	0.1	2878.9
7257	11.644	5.4545	0.1	2928.7
7258	11.459	5.4545	0.1	2978.6
7259	11.275	5.4545	0.1	3028.7
7260	11.09	5.4545	0.1	3079.
7261	10.906	5.4545	0.1	3129.5
7262	10.721	5.4545	0.1	3180.1
7263	10.537	5.4545	0.1	3230.9
7264	10.353	5.4545	0.1	3281.8
7265	10.168	5.4545	0.1	3332.8
7266	9.9838	5.4545	0.1	3384.
7267	9.7994	5.4545	0.1	3435.2
7268	9.615	5.4545	0.1	3486.4
7269	9.4305	5.4545	0.1	3537.6
7270	9.2461	5.4545	0.1	3588.7
7271	9.0617	5.4545	0.1	3639.5
7272	8.8773	5.4545	0.1	3690.1
7273	8.6928	5.4545	0.1	3740.1
7274	8.5084	5.4545	0.1	3789.5
7275	8.324	5.4545	0.1	3837.8
7276	8.1396	5.4545	0.1	3884.8
7277	7.9551	5.4545	0.1	3929.9
7278	7.7707	5.4545	0.1	3972.5
7279	7.5863	5.4545	0.1	4011.9
7280	7.4019	5.4545	0.1	4047.
7281	7.2174	5.4545	0.1	4076.4
7282	7.033	5.4545	0.1	4098.5
7283	6.8486	5.4545	0.1	4111.2
7284	6.6642	5.4545	0.1	4111.8
7285	6.4798	5.4545	0.1	4097.1
7286	6.2953	5.4545	0.1	4062.8
7287	6.1109	5.4545	0.1	4004.
7288	5.9265	5.4545	0.1	3914.8
7289	5.7421	5.4545	0.1	3788.4
7290	5.5576	5.4545	0.1	3617.2
7291	5.3732	5.4545	0.1	3394.3
7292	5.1888	5.4545	0.1	3115.
7293	5.0044	5.4545	0.1	2781.9
7294	4.8199	5.4545	0.1	2414.4
7295	4.6355	5.4545	0.1	2074.7
7296	4.4511	5.4545	0.1	1969.8
7297	23.816	5.6364	0.1	83.316
7298	23.631	5.6364	0.1	107.9
7299	23.447	5.6364	0.1	139.42
7300	23.262	5.6364	0.1	174.19
7301	23.078	5.6364	0.1	210.6
7302	22.893	5.6364	0.1	247.96
7303	22.709	5.6364	0.1	285.93
7304	22.525	5.6364	0.1	324.33
7305	22.34	5.6364	0.1	363.05
7306	22.156	5.6364	0.1	402.03
7307	21.971	5.6364	0.1	441.23
7308	21.787	5.6364	0.1	480.62
7309	21.602	5.6364	0.1	520.2
7310	21.418	5.6364	0.1	559.94
7311	21.234	5.6364	0.1	599.85
7312	21.049	5.6364	0.1	639.92
7313	20.865	5.6364	0.1	680.16
7314	20.68	5.6364	0.1	720.56
7315	20.496	5.6364	0.1	761.12
7316	20.312	5.6364	0.1	801.85
7317	20.127	5.6364	0.1	842.75
7318	19.943	5.6364	0.1	883.82
7319	19.758	5.6364	0.1	925.06
7320	19.574	5.6364	0.1	966.49
7321	19.389	5.6364	0.1	1008.1
7322	19.205	5.6364	0.1	1049.9
7323	19.021	5.6364	0.1	1091.8
7324	18.836	5.6364	0.1	1134.
7325	18.652	5.6364	0.1	1176.3
7326	18.467	5.6364	0.1	1218.9
7327	18.283	5.6364	0.1	1261.6
7328	18.098	5.6364	0.1	1304.5
7329	17.914	5.6364	0.1	1347.6
7330	17.73	5.6364	0.1	1390.9
7331	17.545	5.6364	0.1	1434.4
7332	17.361	5.6364	0.1	1478.1
7333	17.176	5.6364	0.1	1522.
7334	16.992	5.6364	0.1	1566.1
7335	16.807	5.6364	0.1	1610.4
7336	16.623	5.6364	0.1	1654.9
7337	16.439	5.6364	0.1	1699.6
7338	16.254	5.6364	0.1	1744.5
7339	16.07	5.6364	0.1	1789.6
7340	15.885	5.6364	0.1	1834.9
7341	15.701	5.6364	0.1	1880.4
7342	15.517	5.6364	0.1	1926.1
7343	15.332	5.6364	0.1	1972.
7344	15.148	5.6364	0.1	2018.1
7345	14.963	5.6364	0.1	2064.4
7346	14.779	5.6364	0.1	2110.9
7347	14.594	5.6364	0.1	2157.6
7348	14.41	5.6364	0.1	2204.5
7349	14.226	5.6364	0.1	2251.7
7350	14.041	5.6364	0.1	2299.
7351	13.857	5.6364	0.1	2346.5
7352	13.672	5.6364	0.1	2394.2
7353	13.488	5.6364	0.1	2442.2
7354	13.303	5.6364	0.1	2490.3
7355	13.119	5.6364	0.1	2538.6
7356	12.935	5.6364	0.1	2587.2
7357	12.75	5.6364	0.1	2635.9
7358	12.566	5.6364	0.1	2684.8
7359	12.381	5.6364	0.1	2734.
7360	12.197	5.6364	0.1	2783.3
7361	12.012	5.6364	0.1	2832.9
7362	11.828	5.6364	0.1	2882.6
7363	11.644	5.6364	0.1	2932.6
7364	11.459	5.6364	0.1	2982.7
7365	11.275	5.6364	0.1	3033.
7366	11.09	5.6364	0.1	3083.5
7367	10.906	5.6364	0.1	3134.2
7368	10.721	5.6364	0.1	3185.1
7369	10.537	5.6364	0.1	3236.1
7370	10.353	5.6364	0.1	3287.2
7371	10.168	5.6364	0.1	3338.5
7372	9.9838	5.6364	0.1	3389.9
7373	9.7994	5.6364	0.1	3441.3
7374	9.615	5.6364	0.1	3492.7
7375	9.4305	5.6364	0.1	3544.
7376	9.2461	5.6364	0.1	3595.1
7377	9.0617	5.6364	0.1	3646.
7378	8.8773	5.6364	0.1	3696.3
7379	8.6928	5.6364	0.1	3746.1
7380	8.5084	5.6364	0.1	3794.9
7381	8.324	5.6364	0.1	3842.5
7382	8.1396	5.6364	0.1	3888.4
7383	7.9551	5.6364	0.1	3932.
7384	7.7707	5.6364	0.1	3972.6
7385	7.5863	5.6364	0.1	4009.3
7386	7.4019	5.6364	0.1	4040.9
7387	7.2174	5.6364	0.1	4066.
7388	7.033	5.6364	0.1	4082.7
7389	6.8486	5.6364	0.1	4088.6
7390	6.6642	5.6364	0.1	4080.9
7391	6.4798	5.6364	0.1	4055.9
7392	6.2953	5.6364	0.1	4009.3
7393	6.1109	5.6364	0.1	3935.7
7394	5.9265	5.6364	0.1	3829.1
7395	5.7421	5.6364	0.1	3682.2
7396	5.5576	5.6364	0.1	3487.5
7397	5.3732	5.6364	0.1	3237.2
7398	5.1888	5.6364	0.1	2925.4
7399	5.0044	5.6364	0.1	2550.3
7400	4.8199	5.6364	0.1	2121.3
7401	4.6355	5.6364	0.1	1680.1
7402	4.4511	5.6364	0.1	1408.1
7403	23.816	5.8182	0.1	61.717
7404	23.631	5.8182	0.1	93.977
7405	23.447	5.8182	0.1	130.8
7406	23.262	5.8182	0.1	168.86
7407	23.078	5.8182	0.1	207.46
7408	22.893	5.8182	0.1	246.39
7409	22.709	5.8182	0.1	285.54
7410	22.525	5.8182	0.1	324.86
7411	22.34	5.8182	0.1	364.32
7412	22.156	5.8182	0.1	403.9
7413	21.971	5.8182	0.1	443.6
7414	21.787	5.8182	0.1	483.42
7415	21.602	5.8182	0.1	523.35
7416	21.418	5.8182	0.1	563.4
7417	21.234	5.8182	0.1	603.57
7418	21.049	5.8182	0.1	643.87
7419	20.865	5.8182	0.1	684.29
7420	20.68	5.8182	0.1	724.85
7421	20.496	5.8182	0.1	765.56
7422	20.312	5.8182	0.1	806.4
7423	20.127	5.8182	0.1	847.4
7424	19.943	5.8182	0.1	888.55
7425	19.758	5.8182	0.1	929.87
7426	19.574	5.8182	0.1	971.34
7427	19.389	5.8182	0.1	1013.
7428	19.205	5.8182	0.1	1054.8
7429	19.021	5.8182	0.1	1096.8
7430	18.836	5.8182	0.1	1139.
7431	18.652	5.8182	0.1	1181.3
7432	18.467	5.8182	0.1	1223.9
7433	18.283	5.8182	0.1	1266.6
7434	18.098	5.8182	0.1	1309.5
7435	17.914	5.8182	0.1	1352.6
7436	17.73	5.8182	0.1	1395.9
7437	17.545	5.8182	0.1	1439.4
7438	17.361	5.8182	0.1	1483.1
7439	17.176	5.8182	0.1	1526.9
7440	16.992	5.8182	0.1	1571.
7441	16.807	5.8182	0.1	1615.3
7442	16.623	5.8182	0.1	1659.8
7443	16.439	5.8182	0.1	1704.4
7444	16.254	5.8182	0.1	1749.3
7445	16.07	5.8182	0.1	1794.4
7446	15.885	5.8182	0.1	1839.7
7447	15.701	5.8182	0.1	1885.2
7448	15.517	5.8182	0.1	1930.9
7449	15.332	5.8182	0.1	1976.8
7450	15.148	5.8182	0.1	2022.9
7451	14.963	5.8182	0.1	2069.2
7452	14.779	5.8182	0.1	2115.7
7453	14.594	5.8182	0.1	2162.4
7454	14.41	5.8182	0.1	2209.3
7455	14.226	5.8182	0.1	2256.5
7456	14.041	5.8182	0.1	2303.8
7457	13.857	5.8182	0.1	2351.3
7458	13.672	5.8182	0.1	2399.1
7459	13.488	5.8182	0.1	2447.1
7460	13.303	5.8182	0.1	2495.3
7461	13.119	5.8182	0.1	2543.6
7462	12.935	5.8182	0.1	2592.2
7463	12.75	5.8182	0.1	2641.1
7464	12.566	5.8182	0.1	2690.1
7465	12.381	5.8182	0.1	2739.3
7466	12.197	5.8182	0.1	2788.8
7467	12.012	5.8182	0.1	2838.4
7468	11.828	5.8182	0.1	2888.3
7469	11.644	5.8182	0.1	2938.4
7470	11.459	5.8182	0.1	2988.6
7471	11.275	5.8182	0.1	3039.1
7472	11.09	5.8182	0.1	3089.8
7473	10.906	5.8182	0.1	3140.7
7474	10.721	5.8182	0.1	3191.7
7475	10.537	5.8182	0.1	3242.9
7476	10.353	5.8182	0.1	3294.2
7477	10.168	5.8182	0.1	3345.7
7478	9.9838	5.8182	0.1	3397.2
7479	9.7994	5.8182	0.1	3448.7
7480	9.615	5.8182	0.1	3500.2
7481	9.4305	5.8182	0.1	3551.6
7482	9.2461	5.8182	0.1	3602.7
7483	9.0617	5.8182	0.1	3653.4
7484	8.8773	5.8182	0.1	3703.6
7485	8.6928	5.8182	0.1	3752.9
7486	8.5084	5.8182	0.1	3801.2
7487	8.324	5.8182	0.1	3847.9
7488	8.1396	5.8182	0.1	3892.7
7489	7.9551	5.8182	0.1	3934.8
7490	7.7707	5.8182	0.1	3973.4
7491	7.5863	5.8182	0.1	4007.6
7492	7.4019	5.8182	0.1	4036.
7493	7.2174	5.8182	0.1	4057.1
7494	7.033	5.8182	0.1	4068.8
7495	6.8486	5.8182	0.1	4068.7
7496	6.6642	5.8182	0.1	4053.7
7497	6.4798	5.8182	0.1	4020.1
7498	6.2953	5.8182	0.1	3963.6
7499	6.1109	5.8182	0.1	3879.
7500	5.9265	5.8182	0.1	3760.1
7501	5.7421	5.8182	0.1	3600.3
7502	5.5576	5.8182	0.1	3392.4
7503	5.3732	5.8182	0.1	3129.3
7504	5.1888	5.8182	0.1	2805.
7505	5.0044	5.8182	0.1	2415.4
7506	4.8199	5.8182	0.1	1960.5
7507	4.6355	5.8182	0.1	1451.5
7508	4.4511	5.8182	0.1	965.64
7509	0.17826	0.18182	0.1	4091.
7510	0.17826	0.36364	0.1	4630.4
7511	0.17826	0.54545	0.1	5304.9
7512	0.17826	0.72727	0.1	5821.1
7513	0.17826	0.90909	0.1	6201.3
7514	0.17826	1.0909	0.1	6482.8
7515	0.17826	1.2727	0.1	6693.1
7516	0.17826	1.4545	0.1	6851.3
7517	0.17826	1.6364	0.1	6970.5
7518	0.17826	1.8182	0.1	7060.
7519	0.17826	2.	0.1	7126.6
7520	0.17826	2.1818	0.1	7175.5
7521	0.17826	2.3636	0.1	7210.3
7522	0.17826	2.5455	0.1	7234.2
7523	0.17826	2.7273	0.1	7248.9
7524	0.17826	2.9091	0.1	7256.
7525	0.17826	3.0909	0.1	7256.
7526	0.17826	3.2727	0.1	7248.9
7527	0.17826	3.4545	0.1	7234.2
7528	0.17826	3.6364	0.1	7210.3
7529	0.17826	3.8182	0.1	7175.5
7530	0.17826	4.	0.1	7126.6
7531	0.17826	4.1818	0.1	7060.
7532	0.17826	4.3636	0.1	6970.5
7533	0.17826	4.5455	0.1	6851.3
7534	0.17826	4.7273	0.1	6693.1
7535	0.17826	4.9091	0.1	6482.8
7536	0.17826	5.0909	0.1	6201.3
7537	0.17826	5.2727	0.1	5821.1
7538	0.17826	5.4545	0.1	5304.9
7539	0.17826	5.6364	0.1	4630.4
7540	0.17826	5.8182	0.1	4091.
7541	0.35652	0.18182	0.1	5022.2
7542	0.35652	0.36364	0.1	4777.1
7543	0.35652	0.54545	0.1	4849.1
7544	0.35652	0.72727	0.1	5051.1
7545	0.35652	0.90909	0.1	5269.7
7546	0.35652	1.0909	0.1	5466.4
7547	0.35652	1.2727	0.1	5631.8
7548	0.35652	1.4545	0.1	5767.
7549	0.35652	1.6364	0.1	5875.6
7550	0.35652	1.8182	0.1	5961.8
7551	0.35652	2.	0.1	6029.3
7552	0.35652	2.1818	0.1	6081.2
7553	0.35652	2.3636	0.1	6119.8
7554	0.35652	2.5455	0.1	6147.2
7555	0.35652	2.7273	0.1	6164.7
7556	0.35652	2.9091	0.1	6173.2
7557	0.35652	3.0909	0.1	6173.2
7558	0.35652	3.2727	0.1	6164.7
7559	0.35652	3.4545	0.1	6147.2
7560	0.35652	3.6364	0.1	6119.8
7561	0.35652	3.8182	0.1	6081.2
7562	0.35652	4.	0.1	6029.3
7563	0.35652	4.1818	0.1	5961.8
7564	0.35652	4.3636	0.1	5875.6
7565	0.35652	4.5455	0.1	5767.
7566	0.35652	4.7273	0.1	5631.8
7567	0.35652	4.9091	0.1	5466.4
7568	0.35652	5.0909	0.1	5269.7
7569	0.35652	5.2727	0.1	5051.1
7570	0.35652	5.4545	0.1	4849.1
7571	0.35652	5.6364	0.1	4777.1
7572	0.35652	5.8182	0.1	5022.2
7573	0.53478	0.18182	0.1	5544.8
7574	0.53478	0.36364	0.1	5321.
7575	0.53478	0.54545	0.1	5269.3
7576	0.53478	0.72727	0.1	5326.1
7577	0.53478	0.90909	0.1	5441.6
7578	0.53478	1.0909	0.1	5575.2
7579	0.53478	1.2727	0.1	5705.3
7580	0.53478	1.4545	0.1	5822.3
7581	0.53478	1.6364	0.1	5923.
7582	0.53478	1.8182	0.1	6007.2
7583	0.53478	2.	0.1	6076.
7584	0.53478	2.1818	0.1	6130.7
7585	0.53478	2.3636	0.1	6172.7
7586	0.53478	2.5455	0.1	6203.
7587	0.53478	2.7273	0.1	6222.7
7588	0.53478	2.9091	0.1	6232.4
7589	0.53478	3.0909	0.1	6232.4
7590	0.53478	3.2727	0.1	6222.7
7591	0.53478	3.4545	0.1	6203.
7592	0.53478	3.6364	0.1	6172.7
7593	0.53478	3.8182	0.1	6130.7
7594	0.53478	4.	0.1	6076.
7595	0.53478	4.1818	0.1	6007.2
7596	0.53478	4.3636	0.1	5923.
7597	0.53478	4.5455	0.1	5822.3
7598	0.53478	4.7273	0.1	5705.3
7599	0.53478	4.9091	0.1	5575.2
7600	0.53478	5.0909	0.1	5441.6
7601	0.53478	5.2727	0.1	5326.1
7602	0.53478	5.4545	0.1	5269.3
7603	0.53478	5.6364	0.1	5321.
7604	0.53478	5.8182	0.1	5544.8
7605	0.71304	0.18182	0.1	5780.5
7606	0.71304	0.36364	0.1	5551.9
7607	0.71304	0.54545	0.1	5437.6
7608	0.71304	0.72727	0.1	5403.1
7609	0.71304	0.90909	0.1	5430.3
7610	0.71304	1.0909	0.1	5494.8
7611	0.71304	1.2727	0.1	5576.2
7612	0.71304	1.4545	0.1	5661.
7613	0.71304	1.6364	0.1	5741.6
7614	0.71304	1.8182	0.1	5813.9
7615	0.71304	2.	0.1	5876.1
7616	0.71304	2.1818	0.1	5927.6
7617	0.71304	2.3636	0.1	5968.4
7618	0.71304	2.5455	0.1	5998.7
7619	0.71304	2.7273	0.1	6018.7
7620	0.71304	2.9091	0.1	6028.6
7621	0.71304	3.0909	0.1	6028.6
7622	0.71304	3.2727	0.1	6018.7
7623	0.71304	3.4545	0.1	5998.7
7624	0.71304	3.6364	0.1	5968.4
7625	0.71304	3.8182	0.1	5927.6
7626	0.71304	4.	0.1	5876.1
7627	0.71304	4.1818	0.1	5813.9
7628	0.71304	4.3636	0.1	5741.6
7629	0.71304	4.5455	0.1	5661.
7630	0.71304	4.7273	0.1	5576.2
7631	0.71304	4.9091	0.1	5494.8
7632	0.71304	5.0909	0.1	5430.3
7633	0.71304	5.2727	0.1	5403.1
7634	0.71304	5.4545	0.1	5437.6
7635	0.71304	5.6364	0.1	5551.9
7636	0.71304	5.8182	0.1	5780.5
7637	0.8913	0.18182	0.1	5901.1
7638	0.8913	0.36364	0.1	5700.
7639	0.8913	0.54545	0.1	5577.8
7640	0.8913	0.72727	0.1	5508.3
7641	0.8913	0.90909	0.1	5488.1
7642	0.8913	1.0909	0.1	5506.1
7643	0.8913	1.2727	0.1	5548.8
7644	0.8913	1.4545	0.1	5604.3
7645	0.8913	1.6364	0.1	5664.2
7646	0.8913	1.8182	0.1	5722.6
7647	0.8913	2.	0.1	5776.
7648	0.8913	2.1818	0.1	5822.2
7649	0.8913	2.3636	0.1	5860.1
7650	0.8913	2.5455	0.1	5888.8
7651	0.8913	2.7273	0.1	5908.1
7652	0.8913	2.9091	0.1	5917.8
7653	0.8913	3.0909	0.1	5917.8
7654	0.8913	3.2727	0.1	5908.1
7655	0.8913	3.4545	0.1	5888.8
7656	0.8913	3.6364	0.1	5860.1
7657	0.8913	3.8182	0.1	5822.2
7658	0.8913	4.	0.1	5776.
7659	0.8913	4.1818	0.1	5722.6
7660	0.8913	4.3636	0.1	5664.2
7661	0.8913	4.5455	0.1	5604.3
7662	0.8913	4.7273	0.1	5548.8
7663	0.8913	4.9091	0.1	5506.1
7664	0.8913	5.0909	0.1	5488.1
7665	0.8913	5.2727	0.1	5508.3
7666	0.8913	5.4545	0.1	5577.8
7667	0.8913	5.6364	0.1	5700.
7668	0.8913	5.8182	0.1	5901.1
7669	1.0696	0.18182	0.1	5941.2
7670	1.0696	0.36364	0.1	5764.5
7671	1.0696	0.54545	0.1	5646.7
7672	1.0696	0.72727	0.1	5564.9
7673	1.0696	0.90909	0.1	5520.3
7674	1.0696	1.0909	0.1	5509.
7675	1.0696	1.2727	0.1	5523.4
7676	1.0696	1.4545	0.1	5554.9
7677	1.0696	1.6364	0.1	5596.
7678	1.0696	1.8182	0.1	5640.6
7679	1.0696	2.	0.1	5684.4
7680	1.0696	2.1818	0.1	5724.4
7681	1.0696	2.3636	0.1	5758.3
7682	1.0696	2.5455	0.1	5784.8
7683	1.0696	2.7273	0.1	5802.9
7684	1.0696	2.9091	0.1	5812.
7685	1.0696	3.0909	0.1	5812.
7686	1.0696	3.2727	0.1	5802.9
7687	1.0696	3.4545	0.1	5784.8
7688	1.0696	3.6364	0.1	5758.3
7689	1.0696	3.8182	0.1	5724.4
7690	1.0696	4.	0.1	5684.4
7691	1.0696	4.1818	0.1	5640.6
7692	1.0696	4.3636	0.1	5596.
7693	1.0696	4.5455	0.1	5554.9
7694	1.0696	4.7273	0.1	5523.4
7695	1.0696	4.9091	0.1	5509.
7696	1.0696	5.0909	0.1	5520.3
7697	1.0696	5.2727	0.1	5564.9
7698	1.0696	5.4545	0.1	5646.7
7699	1.0696	5.6364	0.1	5764.5
7700	1.0696	5.8182	0.1	5941.2
7701	1.2478	0.18182	0.1	5930.2
7702	1.2478	0.36364	0.1	5778.1
7703	1.2478	0.54545	0.1	5671.9
7704	1.2478	0.72727	0.1	5591.1
7705	1.2478	0.90909	0.1	5537.8
7706	1.2478	1.0909	0.1	5511.6
7707	1.2478	1.2727	0.1	5508.9
7708	1.2478	1.4545	0.1	5524.
7709	1.2478	1.6364	0.1	5551.1
7710	1.2478	1.8182	0.1	5584.7
7711	1.2478	2.	0.1	5620.5
7712	1.2478	2.1818	0.1	5654.8
7713	1.2478	2.3636	0.1	5685.2
7714	1.2478	2.5455	0.1	5709.5
7715	1.2478	2.7273	0.1	5726.4
7716	1.2478	2.9091	0.1	5735.1
7717	1.2478	3.0909	0.1	5735.1
7718	1.2478	3.2727	0.1	5726.4
7719	1.2478	3.4545	0.1	5709.5
7720	1.2478	3.6364	0.1	5685.2
7721	1.2478	3.8182	0.1	5654.8
7722	1.2478	4.	0.1	5620.5
7723	1.2478	4.1818	0.1	5584.7
7724	1.2478	4.3636	0.1	5551.1
7725	1.2478	4.5455	0.1	5524.
7726	1.2478	4.7273	0.1	5508.9
7727	1.2478	4.9091	0.1	5511.6
7728	1.2478	5.0909	0.1	5537.8
7729	1.2478	5.2727	0.1	5591.1
7730	1.2478	5.4545	0.1	5671.9
7731	1.2478	5.6364	0.1	5778.1
7732	1.2478	5.8182	0.1	5930.2
7733	1.4261	0.18182	0.1	5880.3
7734	1.4261	0.36364	0.1	5751.4
7735	1.4261	0.54545	0.1	5659.8
7736	1.4261	0.72727	0.1	5586.9
7737	1.4261	0.90909	0.1	5534.6
7738	1.4261	1.0909	0.1	5504.1
7739	1.4261	1.2727	0.1	5493.7
7740	1.4261	1.4545	0.1	5500.
7741	1.4261	1.6364	0.1	5518.8
7742	1.4261	1.8182	0.1	5545.5
7743	1.4261	2.	0.1	5576.
7744	1.4261	2.1818	0.1	5606.7
7745	1.4261	2.3636	0.1	5634.8
7746	1.4261	2.5455	0.1	5657.9
7747	1.4261	2.7273	0.1	5674.2
7748	1.4261	2.9091	0.1	5682.6
7749	1.4261	3.0909	0.1	5682.6
7750	1.4261	3.2727	0.1	5674.2
7751	1.4261	3.4545	0.1	5657.9
7752	1.4261	3.6364	0.1	5634.8
7753	1.4261	3.8182	0.1	5606.7
7754	1.4261	4.	0.1	5576.
7755	1.4261	4.1818	0.1	5545.5
7756	1.4261	4.3636	0.1	5518.8
7757	1.4261	4.5455	0.1	5500.
7758	1.4261	4.7273	0.1	5493.7
7759	1.4261	4.9091	0.1	5504.1
7760	1.4261	5.0909	0.1	5534.6
7761	1.4261	5.2727	0.1	5586.9
7762	1.4261	5.4545	0.1	5659.8
7763	1.4261	5.6364	0.1	5751.4
7764	1.4261	5.8182	0.1	5880.3
7765	1.6043	0.18182	0.1	5798.7
7766	1.6043	0.36364	0.1	5692.2
7767	1.6043	0.54545	0.1	5617.3
7768	1.6043	0.72727	0.1	5556.8
7769	1.6043	0.90909	0.1	5512.5
7770	1.6043	1.0909	0.1	5485.5
7771	1.6043	1.2727	0.1	5475.5
7772	1.6043	1.4545	0.1	5480.4
7773	1.6043	1.6364	0.1	5497.
7774	1.6043	1.8182	0.1	5521.7
7775	1.6043	2.	0.1	5550.8
7776	1.6043	2.1818	0.1	5581.
7777	1.6043	2.3636	0.1	5609.
7778	1.6043	2.5455	0.1	5632.4
7779	1.6043	2.7273	0.1	5649.2
7780	1.6043	2.9091	0.1	5657.9
7781	1.6043	3.0909	0.1	5657.9
7782	1.6043	3.2727	0.1	5649.2
7783	1.6043	3.4545	0.1	5632.4
7784	1.6043	3.6364	0.1	5609.
7785	1.6043	3.8182	0.1	5581.
7786	1.6043	4.	0.1	5550.8
7787	1.6043	4.1818	0.1	5521.7
7788	1.6043	4.3636	0.1	5497.
7789	1.6043	4.5455	0.1	5480.4
7790	1.6043	4.7273	0.1	5475.5
7791	1.6043	4.9091	0.1	5485.5
7792	1.6043	5.0909	0.1	5512.5
7793	1.6043	5.2727	0.1	5556.8
7794	1.6043	5.4545	0.1	5617.3
7795	1.6043	5.6364	0.1	5692.2
7796	1.6043	5.8182	0.1	5798.7
7797	1.7826	0.18182	0.1	5688.4
7798	1.7826	0.36364	0.1	5603.7
7799	1.7826	0.54545	0.1	5547.1
7800	1.7826	0.72727	0.1	5502.8
7801	1.7826	0.90909	0.1	5471.7
7802	1.7826	1.0909	0.1	5455.
7803	1.7826	1.2727	0.1	5452.5
7804	1.7826	1.4545	0.1	5462.9
7805	1.7826	1.6364	0.1	5483.7
7806	1.7826	1.8182	0.1	5511.9
7807	1.7826	2.	0.1	5544.3
7808	1.7826	2.1818	0.1	5577.7
7809	1.7826	2.3636	0.1	5608.7
7810	1.7826	2.5455	0.1	5634.8
7811	1.7826	2.7273	0.1	5653.6
7812	1.7826	2.9091	0.1	5663.4
7813	1.7826	3.0909	0.1	5663.4
7814	1.7826	3.2727	0.1	5653.6
7815	1.7826	3.4545	0.1	5634.8
7816	1.7826	3.6364	0.1	5608.7
7817	1.7826	3.8182	0.1	5577.7
7818	1.7826	4.	0.1	5544.3
7819	1.7826	4.1818	0.1	5511.9
7820	1.7826	4.3636	0.1	5483.7
7821	1.7826	4.5455	0.1	5462.9
7822	1.7826	4.7273	0.1	5452.5
7823	1.7826	4.9091	0.1	5455.
7824	1.7826	5.0909	0.1	5471.7
7825	1.7826	5.2727	0.1	5502.8
7826	1.7826	5.4545	0.1	5547.1
7827	1.7826	5.6364	0.1	5603.7
7828	1.7826	5.8182	0.1	5688.4
7829	1.9609	0.18182	0.1	5549.7
7830	1.9609	0.36364	0.1	5486.7
7831	1.9609	0.54545	0.1	5450.3
7832	1.9609	0.72727	0.1	5425.5
7833	1.9609	0.90909	0.1	5412.5
7834	1.9609	1.0909	0.1	5412.2
7835	1.9609	1.2727	0.1	5424.1
7836	1.9609	1.4545	0.1	5446.9
7837	1.9609	1.6364	0.1	5478.6
7838	1.9609	1.8182	0.1	5516.4
7839	1.9609	2.	0.1	5557.6
7840	1.9609	2.1818	0.1	5598.7
7841	1.9609	2.3636	0.1	5636.6
7842	1.9609	2.5455	0.1	5668.3
7843	1.9609	2.7273	0.1	5691.1
7844	1.9609	2.9091	0.1	5703.
7845	1.9609	3.0909	0.1	5703.
7846	1.9609	3.2727	0.1	5691.1
7847	1.9609	3.4545	0.1	5668.3
7848	1.9609	3.6364	0.1	5636.6
7849	1.9609	3.8182	0.1	5598.7
7850	1.9609	4.	0.1	5557.6
7851	1.9609	4.1818	0.1	5516.4
7852	1.9609	4.3636	0.1	5478.6
7853	1.9609	4.5455	0.1	5446.9
7854	1.9609	4.7273	0.1	5424.1
7855	1.9609	4.9091	0.1	5412.2
7856	1.9609	5.0909	0.1	5412.5
7857	1.9609	5.2727	0.1	5425.5
7858	1.9609	5.4545	0.1	5450.3
7859	1.9609	5.6364	0.1	5486.7
7860	1.9609	5.8182	0.1	5549.7
7861	2.1391	0.18182	0.1	5381.
7862	2.1391	0.36364	0.1	5339.9
7863	2.1391	0.54545	0.1	5325.7
7864	2.1391	0.72727	0.1	5324.
7865	2.1391	0.90909	0.1	5334.4
7866	2.1391	1.0909	0.1	5356.7
7867	2.1391	1.2727	0.1	5390.1
7868	2.1391	1.4545	0.1	5432.7
7869	2.1391	1.6364	0.1	5482.5
7870	2.1391	1.8182	0.1	5536.9
7871	2.1391	2.	0.1	5592.9
7872	2.1391	2.1818	0.1	5647.4
7873	2.1391	2.3636	0.1	5697.
7874	2.1391	2.5455	0.1	5738.
7875	2.1391	2.7273	0.1	5767.4
7876	2.1391	2.9091	0.1	5782.8
7877	2.1391	3.0909	0.1	5782.8
7878	2.1391	3.2727	0.1	5767.4
7879	2.1391	3.4545	0.1	5738.
7880	2.1391	3.6364	0.1	5697.
7881	2.1391	3.8182	0.1	5647.4
7882	2.1391	4.	0.1	5592.9
7883	2.1391	4.1818	0.1	5536.9
7884	2.1391	4.3636	0.1	5482.5
7885	2.1391	4.5455	0.1	5432.7
7886	2.1391	4.7273	0.1	5390.1
7887	2.1391	4.9091	0.1	5356.7
7888	2.1391	5.0909	0.1	5334.4
7889	2.1391	5.2727	0.1	5324.
7890	2.1391	5.4545	0.1	5325.7
7891	2.1391	5.6364	0.1	5339.9
7892	2.1391	5.8182	0.1	5381.
7893	2.3174	0.18182	0.1	5179.3
7894	2.3174	0.36364	0.1	5160.2
7895	2.3174	0.54545	0.1	5170.7
7896	2.3174	0.72727	0.1	5196.2
7897	2.3174	0.90909	0.1	5235.7
7898	2.3174	1.0909	0.1	5287.9
7899	2.3174	1.2727	0.1	5350.7
7900	2.3174	1.4545	0.1	5421.6
7901	2.3174	1.6364	0.1	5497.8
7902	2.3174	1.8182	0.1	5576.5
7903	2.3174	2.	0.1	5654.8
7904	2.3174	2.1818	0.1	5729.3
7905	2.3174	2.3636	0.1	5796.1
7906	2.3174	2.5455	0.1	5851.2
7907	2.3174	2.7273	0.1	5890.4
7908	2.3174	2.9091	0.1	5910.9
7909	2.3174	3.0909	0.1	5910.9
7910	2.3174	3.2727	0.1	5890.4
7911	2.3174	3.4545	0.1	5851.2
7912	2.3174	3.6364	0.1	5796.1
7913	2.3174	3.8182	0.1	5729.3
7914	2.3174	4.	0.1	5654.8
7915	2.3174	4.1818	0.1	5576.5
7916	2.3174	4.3636	0.1	5497.8
7917	2.3174	4.5455	0.1	5421.6
7918	2.3174	4.7273	0.1	5350.7
7919	2.3174	4.9091	0.1	5287.9
7920	2.3174	5.0909	0.1	5235.7
7921	2.3174	5.2727	0.1	5196.2
7922	2.3174	5.4545	0.1	5170.7
7923	2.3174	5.6364	0.1	5160.2
7924	2.3174	5.8182	0.1	5179.3
7925	2.4957	0.18182	0.1	4939.9
7926	2.4957	0.36364	0.1	4943.3
7927	2.4957	0.54545	0.1	4981.1
7928	2.4957	0.72727	0.1	5038.8
7929	2.4957	0.90909	0.1	5114.3
7930	2.4957	1.0909	0.1	5204.9
7931	2.4957	1.2727	0.1	5306.8
7932	2.4957	1.4545	0.1	5415.9
7933	2.4957	1.6364	0.1	5528.4
7934	2.4957	1.8182	0.1	5640.9
7935	2.4957	2.	0.1	5750.1
7936	2.4957	2.1818	0.1	5852.5
7937	2.4957	2.3636	0.1	5943.6
7938	2.4957	2.5455	0.1	6018.2
7939	2.4957	2.7273	0.1	6071.3
7940	2.4957	2.9091	0.1	6099.
7941	2.4957	3.0909	0.1	6099.
7942	2.4957	3.2727	0.1	6071.3
7943	2.4957	3.4545	0.1	6018.2
7944	2.4957	3.6364	0.1	5943.6
7945	2.4957	3.8182	0.1	5852.5
7946	2.4957	4.	0.1	5750.1
7947	2.4957	4.1818	0.1	5640.9
7948	2.4957	4.3636	0.1	5528.4
7949	2.4957	4.5455	0.1	5415.9
7950	2.4957	4.7273	0.1	5306.8
7951	2.4957	4.9091	0.1	5204.9
7952	2.4957	5.0909	0.1	5114.3
7953	2.4957	5.2727	0.1	5038.8
7954	2.4957	5.4545	0.1	4981.1
7955	2.4957	5.6364	0.1	4943.3
7956	2.4957	5.8182	0.1	4939.9
7957	2.6739	0.18182	0.1	4657.6
7958	2.6739	0.36364	0.1	4683.5
7959	2.6739	0.54545	0.1	4751.9
7960	2.6739	0.72727	0.1	4847.6
7961	2.6739	0.90909	0.1	4967.6
7962	2.6739	1.0909	0.1	5107.1
7963	2.6739	1.2727	0.1	5260.1
7964	2.6739	1.4545	0.1	5420.
7965	2.6739	1.6364	0.1	5580.9
7966	2.6739	1.8182	0.1	5738.5
7967	2.6739	2.	0.1	5889.3
7968	2.6739	2.1818	0.1	6029.2
7969	2.6739	2.3636	0.1	6152.9
7970	2.6739	2.5455	0.1	6253.9
7971	2.6739	2.7273	0.1	6325.3
7972	2.6739	2.9091	0.1	6362.4
7973	2.6739	3.0909	0.1	6362.4
7974	2.6739	3.2727	0.1	6325.3
7975	2.6739	3.4545	0.1	6253.9
7976	2.6739	3.6364	0.1	6153.
7977	2.6739	3.8182	0.1	6029.2
7978	2.6739	4.	0.1	5889.3
7979	2.6739	4.1818	0.1	5738.5
7980	2.6739	4.3636	0.1	5580.9
7981	2.6739	4.5455	0.1	5420.
7982	2.6739	4.7273	0.1	5260.1
7983	2.6739	4.9091	0.1	5107.1
7984	2.6739	5.0909	0.1	4967.6
7985	2.6739	5.2727	0.1	4847.6
7986	2.6739	5.4545	0.1	4751.9
7987	2.6739	5.6364	0.1	4683.5
7988	2.6739	5.8182	0.1	4657.6
7989	2.8522	0.18182	0.1	4326.1
7990	2.8522	0.36364	0.1	4374.5
7991	2.8522	0.54545	0.1	4477.1
7992	2.8522	0.72727	0.1	4618.1
7993	2.8522	0.90909	0.1	4793.1
7994	2.8522	1.0909	0.1	4995.
7995	2.8522	1.2727	0.1	5214.4
7996	2.8522	1.4545	0.1	5441.1
7997	2.8522	1.6364	0.1	5666.1
7998	2.8522	1.8182	0.1	5883.2
7999	2.8522	2.	0.1	6088.5
8000	2.8522	2.1818	0.1	6277.7
8001	2.8522	2.3636	0.1	6444.
8002	2.8522	2.5455	0.1	6578.4
8003	2.8522	2.7273	0.1	6672.8
8004	2.8522	2.9091	0.1	6721.3
8005	2.8522	3.0909	0.1	6721.3
8006	2.8522	3.2727	0.1	6672.8
8007	2.8522	3.4545	0.1	6578.4
8008	2.8522	3.6364	0.1	6444.
8009	2.8522	3.8182	0.1	6277.7
8010	2.8522	4.	0.1	6088.5
8011	2.8522	4.1818	0.1	5883.2
8012	2.8522	4.3636	0.1	5666.1
8013	2.8522	4.5455	0.1	5441.1
8014	2.8522	4.7273	0.1	5214.4
8015	2.8522	4.9091	0.1	4995.
8016	2.8522	5.0909	0.1	4793.1
8017	2.8522	5.2727	0.1	4618.1
8018	2.8522	5.4545	0.1	4477.1
8019	2.8522	5.6364	0.1	4374.5
8020	2.8522	5.8182	0.1	4326.1
8021	3.0304	0.18182	0.1	3939.6
8022	3.0304	0.36364	0.1	4010.
8023	3.0304	0.54545	0.1	4151.6
8024	3.0304	0.72727	0.1	4347.2
8025	3.0304	0.90909	0.1	4590.3
8026	3.0304	1.0909	0.1	4871.2
8027	3.0304	1.2727	0.1	5176.6
8028	3.0304	1.4545	0.1	5491.6
8029	3.0304	1.6364	0.1	5801.8
8030	3.0304	1.8182	0.1	6097.5
8031	3.0304	2.	0.1	6373.9
8032	3.0304	2.1818	0.1	6626.5
8033	3.0304	2.3636	0.1	6846.
8034	3.0304	2.5455	0.1	7020.4
8035	3.0304	2.7273	0.1	7139.8
8036	3.0304	2.9091	0.1	7200.
8037	3.0304	3.0909	0.1	7200.
8038	3.0304	3.2727	0.1	7139.8
8039	3.0304	3.4545	0.1	7020.4
8040	3.0304	3.6364	0.1	6846.
8041	3.0304	3.8182	0.1	6626.5
8042	3.0304	4.	0.1	6373.9
8043	3.0304	4.1818	0.1	6097.5
8044	3.0304	4.3636	0.1	5801.8
8045	3.0304	4.5455	0.1	5491.6
8046	3.0304	4.7273	0.1	5176.6
8047	3.0304	4.9091	0.1	4871.2
8048	3.0304	5.0909	0.1	4590.3
8049	3.0304	5.2727	0.1	4347.2
8050	3.0304	5.4545	0.1	4151.6
8051	3.0304	5.6364	0.1	4010.
8052	3.0304	5.8182	0.1	3939.6
8053	3.2087	0.18182	0.1	3492.5
8054	3.2087	0.36364	0.1	3585.6
8055	3.2087	0.54545	0.1	3773.4
8056	3.2087	0.72727	0.1	4035.6
8057	3.2087	0.90909	0.1	4362.9
8058	3.2087	1.0909	0.1	4742.8
8059	3.2087	1.2727	0.1	5159.2
8060	3.2087	1.4545	0.1	5591.7
8061	3.2087	1.6364	0.1	6016.8
8062	3.2087	1.8182	0.1	6418.
8063	3.2087	2.	0.1	6787.4
8064	3.2087	2.1818	0.1	7120.7
8065	3.2087	2.3636	0.1	7404.2
8066	3.2087	2.5455	0.1	7618.8
8067	3.2087	2.7273	0.1	7757.7
8068	3.2087	2.9091	0.1	7824.4
8069	3.2087	3.0909	0.1	7824.4
8070	3.2087	3.2727	0.1	7757.7
8071	3.2087	3.4545	0.1	7618.8
8072	3.2087	3.6364	0.1	7404.2
8073	3.2087	3.8182	0.1	7120.7
8074	3.2087	4.	0.1	6787.4
8075	3.2087	4.1818	0.1	6418.
8076	3.2087	4.3636	0.1	6016.8
8077	3.2087	4.5455	0.1	5591.7
8078	3.2087	4.7273	0.1	5159.2
8079	3.2087	4.9091	0.1	4742.8
8080	3.2087	5.0909	0.1	4362.9
8081	3.2087	5.2727	0.1	4035.6
8082	3.2087	5.4545	0.1	3773.4
8083	3.2087	5.6364	0.1	3585.6
8084	3.2087	5.8182	0.1	3492.5
8085	3.387	0.18182	0.1	2981.5
8086	3.387	0.36364	0.1	3102.
8087	3.387	0.54545	0.1	3349.4
8088	3.387	0.72727	0.1	3694.9
8089	3.387	0.90909	0.1	4124.4
8090	3.387	1.0909	0.1	4624.9
8091	3.387	1.2727	0.1	5181.8
8092	3.387	1.4545	0.1	5772.5
8093	3.387	1.6364	0.1	6363.9
8094	3.387	1.8182	0.1	6912.7
8095	3.387	2.	0.1	7410.3
8096	3.387	2.1818	0.1	7845.5
8097	3.387	2.3636	0.1	8190.4
8098	3.387	2.5455	0.1	8426.1
8099	3.387	2.7273	0.1	8556.9
8100	3.387	2.9091	0.1	8611.9
8101	3.387	3.0909	0.1	8611.9
8102	3.387	3.2727	0.1	8556.9
8103	3.387	3.4545	0.1	8426.1
8104	3.387	3.6364	0.1	8190.4
8105	3.387	3.8182	0.1	7845.5
8106	3.387	4.	0.1	7410.3
8107	3.387	4.1818	0.1	6912.7
8108	3.387	4.3636	0.1	6363.9
8109	3.387	4.5455	0.1	5772.5
8110	3.387	4.7273	0.1	5181.8
8111	3.387	4.9091	0.1	4624.9
8112	3.387	5.0909	0.1	4124.4
8113	3.387	5.2727	0.1	3694.9
8114	3.387	5.4545	0.1	3349.4
8115	3.387	5.6364	0.1	3102.
8116	3.387	5.8182	0.1	2981.5
8117	3.5652	0.18182	0.1	2407.
8118	3.5652	0.36364	0.1	2572.8
8119	3.5652	0.54545	0.1	2906.3
8120	3.5652	0.72727	0.1	3357.7
8121	3.5652	0.90909	0.1	3906.2
8122	3.5652	1.0909	0.1	4544.4
8123	3.5652	1.2727	0.1	5270.6
8124	3.5652	1.4545	0.1	6080.3
8125	3.5652	1.6364	0.1	6915.5
8126	3.5652	1.8182	0.1	7703.6
8127	3.5652	2.	0.1	8390.2
8128	3.5652	2.1818	0.1	8939.5
8129	3.5652	2.3636	0.1	9331.4
8130	3.5652	2.5455	0.1	9501.6
8131	3.5652	2.7273	0.1	9547.
8132	3.5652	2.9091	0.1	9548.8
8133	3.5652	3.0909	0.1	9548.8
8134	3.5652	3.2727	0.1	9547.
8135	3.5652	3.4545	0.1	9501.6
8136	3.5652	3.6364	0.1	9331.4
8137	3.5652	3.8182	0.1	8939.5
8138	3.5652	4.	0.1	8390.2
8139	3.5652	4.1818	0.1	7703.6
8140	3.5652	4.3636	0.1	6915.5
8141	3.5652	4.5455	0.1	6080.3
8142	3.5652	4.7273	0.1	5270.6
8143	3.5652	4.9091	0.1	4544.4
8144	3.5652	5.0909	0.1	3906.2
8145	3.5652	5.2727	0.1	3357.7
8146	3.5652	5.4545	0.1	2906.3
8147	3.5652	5.6364	0.1	2572.8
8148	3.5652	5.8182	0.1	2407.
8149	3.7435	0.18182	0.1	1781.7
8150	3.7435	0.36364	0.1	2050.8
8151	3.7435	0.54545	0.1	2519.2
8152	3.7435	0.72727	0.1	3099.6
8153	3.7435	0.90909	0.1	3773.5
8154	3.7435	1.0909	0.1	4552.3
8155	3.7435	1.2727	0.1	5469.2
8156	3.7435	1.4545	0.1	6552.1
8157	3.7435	1.6364	0.1	7834.8
8158	3.7435	1.8182	0.1	9218.6
8159	3.7435	2.	0.1	10133
8160	3.7435	2.1818	0.1	10860
8161	3.7435	2.3636	0.1	11005
8162	3.7435	2.5455	0.1	10869
8163	3.7435	2.7273	0.1	10668
8164	3.7435	2.9091	0.1	10551
8165	3.7435	3.0909	0.1	10551
8166	3.7435	3.2727	0.1	10668
8167	3.7435	3.4545	0.1	10869
8168	3.7435	3.6364	0.1	11005
8169	3.7435	3.8182	0.1	10860
8170	3.7435	4.	0.1	10133
8171	3.7435	4.1818	0.1	9218.6
8172	3.7435	4.3636	0.1	7834.8
8173	3.7435	4.5455	0.1	6552.1
8174	3.7435	4.7273	0.1	5469.2
8175	3.7435	4.9091	0.1	4552.3
8176	3.7435	5.0909	0.1	3773.5
8177	3.7435	5.2727	0.1	3099.6
8178	3.7435	5.4545	0.1	2519.2
8179	3.7435	5.6364	0.1	2050.8
8180	3.7435	5.8182	0.1	1781.7
8181	3.9217	0.18182	0.1	1205.
8182	3.9217	0.36364	0.1	1756.4
8183	3.9217	0.54545	0.1	2430.3
8184	3.9217	0.72727	0.1	3167.4
8185	3.9217	0.90909	0.1	3986.7
8186	3.9217	1.0909	0.1	4930.6
8187	3.9217	1.2727	0.1	6073.5
8188	3.9217	1.4545	0.1	7540.5
8189	3.9217	1.6364	0.1	9654.3
8190	3.9217	1.8182	0.1	12753
8191	3.9217	2.	0.1	15255
8192	3.9217	2.1818	0.1	14385
8193	3.9217	2.3636	0.1	13369
8194	3.9217	2.5455	0.1	12321
8195	3.9217	2.7273	0.1	11716
8196	3.9217	2.9091	0.1	11431
8197	3.9217	3.0909	0.1	11431
8198	3.9217	3.2727	0.1	11716
8199	3.9217	3.4545	0.1	12321
8200	3.9217	3.6364	0.1	13369
8201	3.9217	3.8182	0.1	14385
8202	3.9217	4.	0.1	15255
8203	3.9217	4.1818	0.1	12753
8204	3.9217	4.3636	0.1	9654.3
8205	3.9217	4.5455	0.1	7540.5
8206	3.9217	4.7273	0.1	6073.5
8207	3.9217	4.9091	0.1	4930.6
8208	3.9217	5.0909	0.1	3986.7
8209	3.9217	5.2727	0.1	3167.4
8210	3.9217	5.4545	0.1	2430.3
8211	3.9217	5.6364	0.1	1756.4
8212	3.9217	5.8182	0.1	1205.
8213	4.2667	3.8182	0.1	18976
8214	4.2667	3.6364	0.1	15052
8215	4.2667	3.4545	0.1	13237
8216	4.2667	3.2727	0.1	12295
8217	4.2667	3.0909	0.1	11891
8218	4.2667	2.9091	0.1	11891
8219	4.2667	2.7273	0.1	12295
8220	4.2667	2.5455	0.1	13237
8221	4.2667	2.3636	0.1	15052
8222	4.2667	2.1818	0.1	18976
8223	4.1	3.8182	0.1	19186
8224	4.1	3.6364	0.1	15148
8225	4.1	3.4545	0.1	13297
8226	4.1	3.2727	0.1	12341
8227	4.1	3.0909	0.1	11933
8228	4.1	2.9091	0.1	11933
8229	4.1	2.7273	0.1	12341
8230	4.1	2.5455	0.1	13297
8231	4.1	2.3636	0.1	15148
8232	4.1	2.1818	0.1	19186
8233	4.2667	5.8182	0.1	529.38
8234	4.2667	5.6364	0.1	970.83
8235	4.2667	5.4545	0.1	1389.9
8236	4.2667	5.2727	0.1	1834.6
8237	4.2667	5.0909	0.1	2333.6
8238	4.2667	4.9091	0.1	2923.8
8239	4.2667	4.7273	0.1	3663.2
8240	4.2667	4.5455	0.1	4691.9
8241	4.2667	4.3636	0.1	5989.9
8242	4.2667	4.1818	0.1	10496
8243	4.2667	4.	0.1	27520
8244	4.1	4.	0.1	28479
8245	4.1	4.1818	0.1	11218
8246	4.1	4.3636	0.1	6591.6
8247	4.1	4.5455	0.1	5281.7
8248	4.1	4.7273	0.1	4215.7
8249	4.1	4.9091	0.1	3438.6
8250	4.1	5.0909	0.1	2801.3
8251	4.1	5.2727	0.1	2245.
8252	4.1	5.4545	0.1	1730.4
8253	4.1	5.6364	0.1	1225.6
8254	4.1	5.8182	0.1	673.25
8255	4.2667	0.18182	0.1	529.38
8256	4.2667	0.36364	0.1	970.83
8257	4.2667	0.54545	0.1	1389.9
8258	4.2667	0.72727	0.1	1834.6
8259	4.2667	0.90909	0.1	2333.6
8260	4.2667	1.0909	0.1	2923.8
8261	4.2667	1.2727	0.1	3663.2
8262	4.2667	1.4545	0.1	4691.9
8263	4.2667	1.6364	0.1	5989.9
8264	4.2667	1.8182	0.1	10496
8265	4.2667	2.	0.1	27520
8266	4.1	2.	0.1	28479
8267	4.1	1.8182	0.1	11218
8268	4.1	1.6364	0.1	6591.6
8269	4.1	1.4545	0.1	5281.7
8270	4.1	1.2727	0.1	4215.7
8271	4.1	1.0909	0.1	3438.6
8272	4.1	0.90909	0.1	2801.3
8273	4.1	0.72727	0.1	2245.
8274	4.1	0.54545	0.1	1730.4
8275	4.1	0.36364	0.1	1225.6
8276	4.1	0.18182	0.1	673.25
8277	4.2667	6.	0.1	67.369
8278	4.4511	6.	0.1	641.95
8279	4.6355	6.	0.1	1254.2
8280	4.8199	6.	0.1	1791.5
8281	5.0044	6.	0.1	2265.
8282	5.1888	6.	0.1	2672.4
8283	5.3732	6.	0.1	3014.6
8284	5.5576	6.	0.1	3294.9
8285	5.7421	6.	0.1	3518.9
8286	5.9265	6.	0.1	3693.2
8287	6.1109	6.	0.1	3824.7
8288	6.2953	6.	0.1	3920.3
8289	6.4798	6.	0.1	3986.
8290	6.6642	6.	0.1	4027.2
8291	6.8486	6.	0.1	4048.5
8292	7.033	6.	0.1	4053.7
8293	7.2174	6.	0.1	4046.1
8294	7.4019	6.	0.1	4028.3
8295	7.5863	6.	0.1	4002.4
8296	7.7707	6.	0.1	3970.1
8297	7.9551	6.	0.1	3932.9
8298	8.1396	6.	0.1	3891.8
8299	8.324	6.	0.1	3847.7
8300	8.5084	6.	0.1	3801.4
8301	8.6928	6.	0.1	3753.3
8302	8.8773	6.	0.1	3703.9
8303	9.0617	6.	0.1	3653.6
8304	9.2461	6.	0.1	3602.6
8305	9.4305	6.	0.1	3551.1
8306	9.615	6.	0.1	3499.4
8307	9.7994	6.	0.1	3447.4
8308	9.9838	6.	0.1	3395.4
8309	10.168	6.	0.1	3343.4
8310	10.353	6.	0.1	3291.5
8311	10.537	6.	0.1	3239.6
8312	10.721	6.	0.1	3187.9
8313	10.906	6.	0.1	3136.4
8314	11.09	6.	0.1	3085.1
8315	11.275	6.	0.1	3033.9
8316	11.459	6.	0.1	2983.
8317	11.644	6.	0.1	2932.2
8318	11.828	6.	0.1	2881.7
8319	12.012	6.	0.1	2831.4
8320	12.197	6.	0.1	2781.4
8321	12.381	6.	0.1	2731.5
8322	12.566	6.	0.1	2681.9
8323	12.75	6.	0.1	2632.5
8324	12.935	6.	0.1	2583.4
8325	13.119	6.	0.1	2534.4
8326	13.303	6.	0.1	2485.7
8327	13.488	6.	0.1	2437.2
8328	13.672	6.	0.1	2388.9
8329	13.857	6.	0.1	2340.9
8330	14.041	6.	0.1	2293.
8331	14.226	6.	0.1	2245.4
8332	14.41	6.	0.1	2198.
8333	14.594	6.	0.1	2150.8
8334	14.779	6.	0.1	2103.8
8335	14.963	6.	0.1	2057.
8336	15.148	6.	0.1	2010.4
8337	15.332	6.	0.1	1964.1
8338	15.517	6.	0.1	1917.9
8339	15.701	6.	0.1	1871.9
8340	15.885	6.	0.1	1826.2
8341	16.07	6.	0.1	1780.6
8342	16.254	6.	0.1	1735.3
8343	16.439	6.	0.1	1690.1
8344	16.623	6.	0.1	1645.2
8345	16.807	6.	0.1	1600.5
8346	16.992	6.	0.1	1555.9
8347	17.176	6.	0.1	1511.5
8348	17.361	6.	0.1	1467.4
8349	17.545	6.	0.1	1423.4
8350	17.73	6.	0.1	1379.6
8351	17.914	6.	0.1	1336.
8352	18.098	6.	0.1	1292.6
8353	18.283	6.	0.1	1249.4
8354	18.467	6.	0.1	1206.4
8355	18.652	6.	0.1	1163.5
8356	18.836	6.	0.1	1120.9
8357	19.021	6.	0.1	1078.4
8358	19.205	6.	0.1	1036.1
8359	19.389	6.	0.1	993.92
8360	19.574	6.	0.1	951.95
8361	19.758	6.	0.1	910.14
8362	19.943	6.	0.1	868.5
8363	20.127	6.	0.1	827.03
8364	20.312	6.	0.1	785.71
8365	20.496	6.	0.1	744.55
8366	20.68	6.	0.1	703.54
8367	20.865	6.	0.1	662.69
8368	21.049	6.	0.1	621.99
8369	21.234	6.	0.1	581.44
8370	21.418	6.	0.1	541.04
8371	21.602	6.	0.1	500.79
8372	21.787	6.	0.1	460.71
8373	21.971	6.	0.1	420.79
8374	22.156	6.	0.1	381.05
8375	22.34	6.	0.1	341.5
8376	22.525	6.	0.1	302.17
8377	22.709	6.	0.1	263.09
8378	22.893	6.	0.1	224.32
8379	23.078	6.	0.1	185.92
8380	23.262	6.	0.1	148.04
8381	23.447	6.	0.1	110.85
8382	23.631	6.	0.1	74.839
8383	23.816	6.	0.1	40.103
8384	24.	6.	0.1	9.4669
8385	24.	5.8182	0.1	39.7
8386	24.	5.6364	0.1	67.047
8387	24.	5.4545	0.1	88.108
8388	24.	5.2727	0.1	105.66
8389	24.	5.0909	0.1	120.62
8390	24.	4.9091	0.1	133.53
8391	24.	4.7273	0.1	144.71
8392	24.	4.5455	0.1	154.39
8393	24.	4.3636	0.1	162.72
8394	24.	4.1818	0.1	169.82
8395	24.	4.	0.1	175.78
8396	24.	3.8182	0.1	180.66
8397	24.	3.6364	0.1	184.51
8398	24.	3.4545	0.1	187.36
8399	24.	3.2727	0.1	189.26
8400	24.	3.0909	0.1	190.2
8401	24.	2.9091	0.1	190.2
8402	24.	2.7273	0.1	189.26
8403	24.	2.5455	0.1	187.36
8404	24.	2.3636	0.1	184.51
8405	24.	2.1818	0.1	180.66
8406	24.	2.	0.1	175.78
8407	24.	1.8182	0.1	169.82
8408	24.	1.6364	0.1	162.72
8409	24.	1.4545	0.1	154.39
8410	24.	1.2727	0.1	144.71
8411	24.	1.0909	0.1	133.53
8412	24.	0.90909	0.1	120.62
8413	24.	0.72727	0.1	105.66
8414	24.	0.54545	0.1	88.108
8415	24.	0.36364	0.1	67.047
8416	24.	0.18182	0.1	39.7
8417	1.5894e-015	0.18182	0.1	1439.6
8418	3.1789e-015	0.36364	0.1	2430.8
8419	4.7683e-015	0.54545	0.1	2940.1
8420	6.3578e-015	0.72727	0.1	3259.1
8421	7.9472e-015	0.90909	0.1	3468.8
8422	9.5366e-015	1.0909	0.1	3614.9
8423	1.1126e-014	1.2727	0.1	3719.5
8424	1.2716e-014	1.4545	0.1	3795.2
8425	1.4305e-014	1.6364	0.1	3850.1
8426	1.5894e-014	1.8182	0.1	3889.6
8427	1.7484e-014	2.	0.1	3917.7
8428	1.9073e-014	2.1818	0.1	3937.3
8429	2.0663e-014	2.3636	0.1	3950.6
8430	2.2252e-014	2.5455	0.1	3959.2
8431	2.3842e-014	2.7273	0.1	3964.3
8432	2.5431e-014	2.9091	0.1	3966.6
8433	2.702e-014	3.0909	0.1	3966.6
8434	2.861e-014	3.2727	0.1	3964.3
8435	3.0199e-014	3.4545	0.1	3959.2
8436	3.1789e-014	3.6364	0.1	3950.6
8437	3.3378e-014	3.8182	0.1	3937.3
8438	3.4968e-014	4.	0.1	3917.7
8439	3.6557e-014	4.1818	0.1	3889.6
8440	3.8147e-014	4.3636	0.1	3850.1
8441	3.9736e-014	4.5455	0.1	3795.2
8442	4.1325e-014	4.7273	0.1	3719.5
8443	4.2915e-014	4.9091	0.1	3614.9
8444	4.4504e-014	5.0909	0.1	3468.8
8445	4.6094e-014	5.2727	0.1	3259.1
8446	4.7683e-014	5.4545	0.1	2940.1
8447	4.9273e-014	5.6364	0.1	2430.8
8448	5.0862e-014	5.8182	0.1	1439.6
8449	24.	0.	0.1	9.4669
8450	23.816	0.	0.1	40.103
8451	23.631	0.	0.1	74.839
8452	23.447	0.	0.1	110.85
8453	23.262	0.	0.1	148.04
8454	23.078	0.	0.1	185.92
8455	22.893	0.	0.1	224.32
8456	22.709	0.	0.1	263.09
8457	22.525	0.	0.1	302.17
8458	22.34	0.	0.1	341.5
8459	22.156	0.	0.1	381.05
8460	21.971	0.	0.1	420.79
8461	21.787	0.	0.1	460.71
8462	21.602	0.	0.1	500.79
8463	21.418	0.	0.1	541.04
8464	21.234	0.	0.1	581.44
8465	21.049	0.	0.1	621.99
8466	20.865	0.	0.1	662.69
8467	20.68	0.	0.1	703.54
8468	20.496	0.	0.1	744.55
8469	20.312	0.	0.1	785.71
8470	20.127	0.	0.1	827.03
8471	19.943	0.	0.1	868.5
8472	19.758	0.	0.1	910.14
8473	19.574	0.	0.1	951.95
8474	19.389	0.	0.1	993.92
8475	19.205	0.	0.1	1036.1
8476	19.021	0.	0.1	1078.4
8477	18.836	0.	0.1	1120.9
8478	18.652	0.	0.1	1163.5
8479	18.467	0.	0.1	1206.4
8480	18.283	0.	0.1	1249.4
8481	18.098	0.	0.1	1292.6
8482	17.914	0.	0.1	1336.
8483	17.73	0.	0.1	1379.6
8484	17.545	0.	0.1	1423.4
8485	17.361	0.	0.1	1467.4
8486	17.176	0.	0.1	1511.5
8487	16.992	0.	0.1	1555.9
8488	16.807	0.	0.1	1600.5
8489	16.623	0.	0.1	1645.2
8490	16.439	0.	0.1	1690.1
8491	16.254	0.	0.1	1735.3
8492	16.07	0.	0.1	1780.6
8493	15.885	0.	0.1	1826.2
8494	15.701	0.	0.1	1871.9
8495	15.517	0.	0.1	1917.9
8496	15.332	0.	0.1	1964.1
8497	15.148	0.	0.1	2010.4
8498	14.963	0.	0.1	2057.
8499	14.779	0.	0.1	2103.8
8500	14.594	0.	0.1	2150.8
8501	14.41	0.	0.1	2198.
8502	14.226	0.	0.1	2245.4
8503	14.041	0.	0.1	2293.
8504	13.857	0.	0.1	2340.9
8505	13.672	0.	0.1	2388.9
8506	13.488	0.	0.1	2437.2
8507	13.303	0.	0.1	2485.7
8508	13.119	0.	0.1	2534.4
8509	12.935	0.	0.1	2583.4
8510	12.75	0.	0.1	2632.5
8511	12.566	0.	0.1	2681.9
8512	12.381	0.	0.1	2731.5
8513	12.197	0.	0.1	2781.4
8514	12.012	0.	0.1	2831.4
8515	11.828	0.	0.1	2881.7
8516	11.644	0.	0.1	2932.2
8517	11.459	0.	0.1	2983.
8518	11.275	0.	0.1	3033.9
8519	11.09	0.	0.1	3085.1
8520	10.906	0.	0.1	3136.4
8521	10.721	0.	0.1	3187.9
8522	10.537	0.	0.1	3239.6
8523	10.353	0.	0.1	3291.5
8524	10.168	0.	0.1	3343.4
8525	9.9838	0.	0.1	3395.4
8526	9.7994	0.	0.1	3447.4
8527	9.615	0.	0.1	3499.4
8528	9.4305	0.	0.1	3551.1
8529	9.2461	0.	0.1	3602.6
8530	9.0617	0.	0.1	3653.6
8531	8.8773	0.	0.1	3703.9
8532	8.6928	0.	0.1	3753.3
8533	8.5084	0.	0.1	3801.4
8534	8.324	0.	0.1	3847.7
8535	8.1396	0.	0.1	3891.8
8536	7.9551	0.	0.1	3932.9
8537	7.7707	0.	0.1	3970.1
8538	7.5863	0.	0.1	4002.4
8539	7.4019	0.	0.1	4028.3
8540	7.2174	0.	0.1	4046.1
8541	7.033	0.	0.1	4053.7
8542	6.8486	0.	0.1	4048.5
8543	6.6642	0.	0.1	4027.2
8544	6.4798	0.	0.1	3986.
8545	6.2953	0.	0.1	3920.3
8546	6.1109	0.	0.1	3824.7
8547	5.9265	0.	0.1	3693.2
8548	5.7421	0.	0.1	3518.9
8549	5.5576	0.	0.1	3294.9
8550	5.3732	0.	0.1	3014.6
8551	5.1888	0.	0.1	2672.4
8552	5.0044	0.	0.1	2265.
8553	4.8199	0.	0.1	1791.5
8554	4.6355	0.	0.1	1254.2
8555	4.4511	0.	0.1	641.95
8556	4.2667	0.	0.1	67.369
8557	4.1	0.	0.1	81.572
8558	3.9217	-1.7987e-030	0.1	779.8
8559	3.7435	-1.7169e-030	0.1	1523.8
8560	3.5652	-1.6352e-030	0.1	2183.5
8561	3.387	-1.5534e-030	0.1	2779.3
8562	3.2087	-1.4716e-030	0.1	3310.7
8563	3.0304	-1.3899e-030	0.1	3778.9
8564	2.8522	-1.3081e-030	0.1	4186.7
8565	2.6739	-1.2264e-030	0.1	4538.3
8566	2.4957	-1.1446e-030	0.1	4839.1
8567	2.3174	-1.0629e-030	0.1	5094.6
8568	2.1391	-9.811e-031	0.1	5309.8
8569	1.9609	-8.9934e-031	0.1	5488.9
8570	1.7826	-8.1758e-031	0.1	5635.
8571	1.6043	-7.3582e-031	0.1	5749.4
8572	1.4261	-6.5406e-031	0.1	5831.5
8573	1.2478	-5.7231e-031	0.1	5878.3
8574	1.0696	-4.9055e-031	0.1	5882.2
8575	0.8913	-4.0879e-031	0.1	5829.7
8576	0.71304	-3.2703e-031	0.1	5694.6
8577	0.53478	-2.4527e-031	0.1	5424.5
8578	0.35652	-1.6352e-031	0.1	4919.3
8579	0.17826	-8.1758e-032	0.1	3816.6
8580	0.	0.	0.1	2254.9
8581	3.937e-014	6.	0.1	2254.9
8582	0.17826	6.	0.1	3816.6
8583	0.35652	6.	0.1	4919.3
8584	0.53478	6.	0.1	5424.5
8585	0.71304	6.	0.1	5694.6
8586	0.8913	6.	0.1	5829.7
8587	1.0696	6.	0.1	5882.2
8588	1.2478	6.	0.1	5878.3
8589	1.4261	6.	0.1	5831.5
8590	1.6043	6.	0.1	5749.4
8591	1.7826	6.	0.1	5635.
8592	1.9609	6.	0.1	5488.9
8593	2.1391	6.	0.1	5309.8
8594	2.3174	6.	0.1	5094.6
8595	2.4957	6.	0.1	4839.1
8596	2.6739	6.	0.1	4538.3
8597	2.8522	6.	0.1	4186.7
8598	3.0304	6.	0.1	3778.9
8599	3.2087	6.	0.1	3310.7
8600	3.387	6.	0.1	2779.3
8601	3.5652	6.	0.1	2183.5
8602	3.7435	6.	0.1	1523.8
8603	3.9217	6.	0.1	779.8
8604	4.1	6.	0.1	81.572
8605	3.9217	6.	0.	779.8
8606	3.7435	6.	0.	1523.8
8607	3.5652	6.	0.	2183.5
8608	3.387	6.	0.	2779.3
8609	3.2087	6.	0.	3310.7
8610	3.0304	6.	0.	3778.9
8611	2.8522	6.	0.	4186.7
8612	2.6739	6.	0.	4538.3
8613	2.4957	6.	0.	4839.1
8614	2.3174	6.	0.	5094.6
8615	2.1391	6.	0.	5309.8
8616	1.9609	6.	0.	5488.9
8617	1.7826	6.	0.	5635.
8618	1.6043	6.	0.	5749.4
8619	1.4261	6.	0.	5831.5
8620	1.2478	6.	0.	5878.3
8621	1.0696	6.	0.	5882.2
8622	0.8913	6.	0.	5829.7
8623	0.71304	6.	0.	5694.6
8624	0.53478	6.	0.	5424.5
8625	0.35652	6.	0.	4919.3
8626	0.17826	6.	0.	3816.6
8627	4.1	6.	0.	81.572
8628	3.937e-014	6.	0.	2254.9
8629	0.17826	-8.1758e-032	0.	3816.6
8630	0.35652	-1.6352e-031	0.	4919.3
8631	0.53478	-2.4527e-031	0.	5424.5
8632	0.71304	-3.2703e-031	0.	5694.6
8633	0.8913	-4.0879e-031	0.	5829.7
8634	1.0696	-4.9055e-031	0.	5882.2
8635	1.2478	-5.7231e-031	0.	5878.3
8636	1.4261	-6.5406e-031	0.	5831.5
8637	1.6043	-7.3582e-031	0.	5749.4
8638	1.7826	-8.1758e-031	0.	5635.
8639	1.9609	-8.9934e-031	0.	5488.9
8640	2.1391	-9.811e-031	0.	5309.8
8641	2.3174	-1.0629e-030	0.	5094.6
8642	2.4957	-1.1446e-030	0.	4839.1
8643	2.6739	-1.2264e-030	0.	4538.3
8644	2.8522	-1.3081e-030	0.	4186.7
8645	3.0304	-1.3899e-030	0.	3778.9
8646	3.2087	-1.4716e-030	0.	3310.7
8647	3.387	-1.5534e-030	0.	2779.3
8648	3.5652	-1.6352e-030	0.	2183.5
8649	3.7435	-1.7169e-030	0.	1523.8
8650	3.9217	-1.7987e-030	0.	779.8
8651	4.1	0.	0.	81.572
8652	0.	0.	0.	2254.9
8653	4.4511	0.	0.	641.95
8654	4.6355	0.	0.	1254.2
8655	4.8199	0.	0.	1791.5
8656	5.0044	0.	0.	2265.
8657	5.1888	0.	0.	2672.4
8658	5.3732	0.	0.	3014.6
8659	5.5576	0.	0.	3294.9
8660	5.7421	0.	0.	3518.9
8661	5.9265	0.	0.	3693.2
8662	6.1109	0.	0.	3824.7
8663	6.2953	0.	0.	3920.3
8664	6.4798	0.	0.	3986.
8665	6.6642	0.	0.	4027.2
8666	6.8486	0.	0.	4048.5
8667	7.033	0.	0.	4053.7
8668	7.2174	0.	0.	4046.1
8669	7.4019	0.	0.	4028.3
8670	7.5863	0.	0.	4002.4
8671	7.7707	0.	0.	3970.1
8672	7.9551	0.	0.	3932.9
8673	8.1396	0.	0.	3891.8
8674	8.324	0.	0.	3847.7
8675	8.5084	0.	0.	3801.4
8676	8.6928	0.	0.	3753.3
8677	8.8773	0.	0.	3703.9
8678	9.0617	0.	0.	3653.6
8679	9.2461	0.	0.	3602.6
8680	9.4305	0.	0.	3551.1
8681	9.615	0.	0.	3499.4
8682	9.7994	0.	0.	3447.4
8683	9.9838	0.	0.	3395.4
8684	10.168	0.	0.	3343.4
8685	10.353	0.	0.	3291.5
8686	10.537	0.	0.	3239.6
8687	10.721	0.	0.	3187.9
8688	10.906	0.	0.	3136.4
8689	11.09	0.	0.	3085.1
8690	11.275	0.	0.	3033.9
8691	11.459	0.	0.	2983.
8692	11.644	0.	0.	2932.2
8693	11.828	0.	0.	2881.7
8694	12.012	0.	0.	2831.4
8695	12.197	0.	0.	2781.4
8696	12.381	0.	0.	2731.5
8697	12.566	0.	0.	2681.9
8698	12.75	0.	0.	2632.5
8699	12.935	0.	0.	2583.4
8700	13.119	0.	0.	2534.4
8701	13.303	0.	0.	2485.7
8702	13.488	0.	0.	2437.2
8703	13.672	0.	0.	2388.9
8704	13.857	0.	0.	2340.9
8705	14.041	0.	0.	2293.
8706	14.226	0.	0.	2245.4
8707	14.41	0.	0.	2198.
8708	14.594	0.	0.	2150.8
8709	14.779	0.	0.	2103.8
8710	14.963	0.	0.	2057.
8711	15.148	0.	0.	2010.4
8712	15.332	0.	0.	1964.1
8713	15.517	0.	0.	1917.9
8714	15.701	0.	0.	1871.9
8715	15.885	0.	0.	1826.2
8716	16.07	0.	0.	1780.6
8717	16.254	0.	0.	1735.3
8718	16.439	0.	0.	1690.1
8719	16.623	0.	0.	1645.2
8720	16.807	0.	0.	1600.5
8721	16.992	0.	0.	1555.9
8722	17.176	0.	0.	1511.5
8723	17.361	0.	0.	1467.4
8724	17.545	0.	0.	1423.4
8725	17.73	0.	0.	1379.6
8726	17.914	0.	0.	1336.
8727	18.098	0.	0.	1292.6
8728	18.283	0.	0.	1249.4
8729	18.467	0.	0.	1206.4
8730	18.652	0.	0.	1163.5
8731	18.836	0.	0.	1120.9
8732	19.021	0.	0.	1078.4
8733	19.205	0.	0.	1036.1
8734	19.389	0.	0.	993.92
8735	19.574	0.	0.	951.95
8736	19.758	0.	0.	910.14
8737	19.943	0.	0.	868.5
8738	20.127	0.	0.	827.03
8739	20.312	0.	0.	785.71
8740	20.496	0.	0.	744.55
8741	20.68	0.	0.	703.54
8742	20.865	0.	0.	662.69
8743	21.049	0.	0.	621.99
8744	21.234	0.	0.	581.44
8745	21.418	0.	0.	541.04
8746	21.602	0.	0.	500.79
8747	21.787	0.	0.	460.71
8748	21.971	0.	0.	420.79
8749	22.156	0.	0.	381.05
8750	22.34	0.	0.	341.5
8751	22.525	0.	0.	302.17
8752	22.709	0.	0.	263.09
8753	22.893	0.	0.	224.32
8754	23.078	0.	0.	185.92
8755	23.262	0.	0.	148.04
8756	23.447	0.	0.	110.85
8757	23.631	0.	0.	74.839
8758	23.816	0.	0.	40.103
8759	4.2667	0.	0.	67.369
8760	24.	0.	0.	9.4669
8761	5.0862e-014	5.8182	0.	1439.6
8762	4.9273e-014	5.6364	0.	2430.8
8763	4.7683e-014	5.4545	0.	2940.1
8764	4.6094e-014	5.2727	0.	3259.1
8765	4.4504e-014	5.0909	0.	3468.8
8766	4.2915e-014	4.9091	0.	3614.9
8767	4.1325e-014	4.7273	0.	3719.5
8768	3.9736e-014	4.5455	0.	3795.2
8769	3.8147e-014	4.3636	0.	3850.1
8770	3.6557e-014	4.1818	0.	3889.6
8771	3.4968e-014	4.	0.	3917.7
8772	3.3378e-014	3.8182	0.	3937.3
8773	3.1789e-014	3.6364	0.	3950.6
8774	3.0199e-014	3.4545	0.	3959.2
8775	2.861e-014	3.2727	0.	3964.3
8776	2.702e-014	3.0909	0.	3966.6
8777	2.5431e-014	2.9091	0.	3966.6
8778	2.3842e-014	2.7273	0.	3964.3
8779	2.2252e-014	2.5455	0.	3959.2
8780	2.0663e-014	2.3636	0.	3950.6
8781	1.9073e-014	2.1818	0.	3937.3
8782	1.7484e-014	2.	0.	3917.7
8783	1.5894e-014	1.8182	0.	3889.6
8784	1.4305e-014	1.6364	0.	3850.1
8785	1.2716e-014	1.4545	0.	3795.2
8786	1.1126e-014	1.2727	0.	3719.5
8787	9.5366e-015	1.0909	0.	3614.9
8788	7.9472e-015	0.90909	0.	3468.8
8789	6.3578e-015	0.72727	0.	3259.1
8790	4.7683e-015	0.54545	0.	2940.1
8791	3.1789e-015	0.36364	0.	2430.8
8792	1.5894e-015	0.18182	0.	1439.6
8793	24.	0.18182	0.	39.7
8794	24.	0.36364	0.	67.047
8795	24.	0.54545	0.	88.108
8796	24.	0.72727	0.	105.66
8797	24.	0.90909	0.	120.62
8798	24.	1.0909	0.	133.53
8799	24.	1.2727	0.	144.71
8800	24.	1.4545	0.	154.39
8801	24.	1.6364	0.	162.72
8802	24.	1.8182	0.	169.82
8803	24.	2.	0.	175.78
8804	24.	2.1818	0.	180.66
8805	24.	2.3636	0.	184.51
8806	24.	2.5455	0.	187.36
8807	24.	2.7273	0.	189.26
8808	24.	2.9091	0.	190.2
8809	24.	3.0909	0.	190.2
8810	24.	3.2727	0.	189.26
8811	24.	3.4545	0.	187.36
8812	24.	3.6364	0.	184.51
8813	24.	3.8182	0.	180.66
8814	24.	4.	0.	175.78
8815	24.	4.1818	0.	169.82
8816	24.	4.3636	0.	162.72
8817	24.	4.5455	0.	154.39
8818	24.	4.7273	0.	144.71
8819	24.	4.9091	0.	133.53
8820	24.	5.0909	0.	120.62
8821	24.	5.2727	0.	105.66
8822	24.	5.4545	0.	88.108
8823	24.	5.6364	0.	67.047
8824	24.	5.8182	0.	39.7
8825	24.	6.	0.	9.4669
8826	23.816	6.	0.	40.103
8827	23.631	6.	0.	74.839
8828	23.447	6.	0.	110.85
8829	23.262	6.	0.	148.04
8830	23.078	6.	0.	185.92
8831	22.893	6.	0.	224.32
8832	22.709	6.	0.	263.09
8833	22.525	6.	0.	302.17
8834	22.34	6.	0.	341.5
8835	22.156	6.	0.	381.05
8836	21.971	6.	0.	420.79
8837	21.787	6.	0.	460.71
8838	21.602	6.	0.	500.79
8839	21.418	6.	0.	541.04
8840	21.234	6.	0.	581.44
8841	21.049	6.	0.	621.99
8842	20.865	6.	0.	662.69
8843	20.68	6.	0.	703.54
8844	20.496	6.	0.	744.55
8845	20.312	6.	0.	785.71
8846	20.127	6.	0.	827.03
8847	19.943	6.	0.	868.5
8848	19.758	6.	0.	910.14
8849	19.574	6.	0.	951.95
8850	19.389	6.	0.	993.92
8851	19.205	6.	0.	1036.1
8852	19.021	6.	0.	1078.4
8853	18.836	6.	0.	1120.9
8854	18.652	6.	0.	1163.5
8855	18.467	6.	0.	1206.4
8856	18.283	6.	0.	1249.4
8857	18.098	6.	0.	1292.6
8858	17.914	6.	0.	1336.
8859	17.73	6.	0.	1379.6
8860	17.545	6.	0.	1423.4
8861	17.361	6.	0.	1467.4
8862	17.176	6.	0.	1511.5
8863	16.992	6.	0.	1555.9
8864	16.807	6.	0.	1600.5
8865	16.623	6.	0.	1645.2
8866	16.439	6.	0.	1690.1
8867	16.254	6.	0.	1735.3
8868	16.07	6.	0.	1780.6
8869	15.885	6.	0.	1826.2
8870	15.701	6.	0.	1871.9
8871	15.517	6.	0.	1917.9
8872	15.332	6.	0.	1964.1
8873	15.148	6.	0.	2010.4
8874	14.963	6.	0.	2057.
8875	14.779	6.	0.	2103.8
8876	14.594	6.	0.	2150.8
8877	14.41	6.	0.	2198.
8878	14.226	6.	0.	2245.4
8879	14.041	6.	0.	2293.
8880	13.857	6.	0.	2340.9
8881	13.672	6.	0.	2388.9
8882	13.488	6.	0.	2437.2
8883	13.303	6.	0.	2485.7
8884	13.119	6.	0.	2534.4
8885	12.935	6.	0.	2583.4
8886	12.75	6.	0.	2632.5
8887	12.566	6.	0.	2681.9
8888	12.381	6.	0.	2731.5
8889	12.197	6.	0.	2781.4
8890	12.012	6.	0.	2831.4
8891	11.828	6.	0.	2881.7
8892	11.644	6.	0.	2932.2
8893	11.459	6.	0.	2983.
8894	11.275	6.	0.	3033.9
8895	11.09	6.	0.	3085.1
8896	10.906	6.	0.	3136.4
8897	10.721	6.	0.	3187.9
8898	10.537	6.	0.	3239.6
8899	10.353	6.	0.	3291.5
8900	10.168	6.	0.	3343.4
8901	9.9838	6.	0.	3395.4
8902	9.7994	6.	0.	3447.4
8903	9.615	6.	0.	3499.4
8904	9.4305	6.	0.	3551.1
8905	9.2461	6.	0.	3602.6
8906	9.0617	6.	0.	3653.6
8907	8.8773	6.	0.	3703.9
8908	8.6928	6.	0.	3753.3
8909	8.5084	6.	0.	3801.4
8910	8.324	6.	0.	3847.7
8911	8.1396	6.	0.	3891.8
8912	7.9551	6.	0.	3932.9
8913	7.7707	6.	0.	3970.1
8914	7.5863	6.	0.	4002.4
8915	7.4019	6.	0.	4028.3
8916	7.2174	6.	0.	4046.1
8917	7.033	6.	0.	4053.7
8918	6.8486	6.	0.	4048.5
8919	6.6642	6.	0.	4027.2
8920	6.4798	6.	0.	3986.
8921	6.2953	6.	0.	3920.3
8922	6.1109	6.	0.	3824.7
8923	5.9265	6.	0.	3693.2
8924	5.7421	6.	0.	3518.9
8925	5.5576	6.	0.	3294.9
8926	5.3732	6.	0.	3014.6
8927	5.1888	6.	0.	2672.4
8928	5.0044	6.	0.	2265.
8929	4.8199	6.	0.	1791.5
8930	4.6355	6.	0.	1254.2
8931	4.4511	6.	0.	641.95
8932	4.2667	6.	0.	67.369
8933	4.1	1.8182	0.	11218
8934	4.1	1.6364	0.	6591.6
8935	4.1	1.4545	0.	5281.7
8936	4.1	1.2727	0.	4215.7
8937	4.1	1.0909	0.	3438.6
8938	4.1	0.90909	0.	2801.3
8939	4.1	0.72727	0.	2245.
8940	4.1	0.54545	0.	1730.4
8941	4.1	0.36364	0.	1225.6
8942	4.1	0.18182	0.	673.25
8943	4.1	2.	0.	28479
8944	4.2667	0.18182	0.	529.38
8945	4.2667	0.36364	0.	970.83
8946	4.2667	0.54545	0.	1389.9
8947	4.2667	0.72727	0.	1834.6
8948	4.2667	0.90909	0.	2333.6
8949	4.2667	1.0909	0.	2923.8
8950	4.2667	1.2727	0.	3663.2
8951	4.2667	1.4545	0.	4691.9
8952	4.2667	1.6364	0.	5989.9
8953	4.2667	1.8182	0.	10496
8954	4.2667	2.	0.	27520
8955	4.1	4.1818	0.	11218
8956	4.1	4.3636	0.	6591.6
8957	4.1	4.5455	0.	5281.7
8958	4.1	4.7273	0.	4215.7
8959	4.1	4.9091	0.	3438.6
8960	4.1	5.0909	0.	2801.3
8961	4.1	5.2727	0.	2245.
8962	4.1	5.4545	0.	1730.4
8963	4.1	5.6364	0.	1225.6
8964	4.1	5.8182	0.	673.25
8965	4.1	4.	0.	28479
8966	4.2667	5.8182	0.	529.38
8967	4.2667	5.6364	0.	970.83
8968	4.2667	5.4545	0.	1389.9
8969	4.2667	5.2727	0.	1834.6
8970	4.2667	5.0909	0.	2333.6
8971	4.2667	4.9091	0.	2923.8
8972	4.2667	4.7273	0.	3663.2
8973	4.2667	4.5455	0.	4691.9
8974	4.2667	4.3636	0.	5989.9
8975	4.2667	4.1818	0.	10496
8976	4.2667	4.	0.	27520
8977	4.1	2.2727	0.	17157
8978	4.1833	2.1818	0.	18805
8979	4.0109	2.1818	0.	16595
8980	4.1	2.1818	5.e-002	1050.3
8981	4.1	2.0909	0.	23269
8982	4.1	2.4545	0.	14218
8983	4.1833	2.3636	0.	15014
8984	4.0109	2.3636	0.	14204
8985	4.1	2.3636	5.e-002	188.28
8986	4.1	2.6364	0.	12818
8987	4.1833	2.5455	0.	13244
8988	4.0109	2.5455	0.	12790
8989	4.1	2.5455	5.e-002	83.837
8990	4.1	2.8182	0.	12136
8991	4.1833	2.7273	0.	12312
8992	4.0109	2.7273	0.	12023
8993	4.1	2.7273	5.e-002	41.167
8994	4.1	3.	0.	11932
8995	4.1833	2.9091	0.	11912
8996	4.0109	2.9091	0.	11681
8997	4.1	2.9091	5.e-002	18.89
8998	4.1	3.1818	0.	12136
8999	4.1833	3.0909	0.	11912
9000	4.0109	3.0909	0.	11681
9001	4.1	3.0909	5.e-002	18.89
9002	4.1	3.3636	0.	12818
9003	4.1833	3.2727	0.	12312
9004	4.0109	3.2727	0.	12023
9005	4.1	3.2727	5.e-002	41.167
9006	4.1	3.5455	0.	14218
9007	4.1833	3.4545	0.	13244
9008	4.0109	3.4545	0.	12790
9009	4.1	3.4545	5.e-002	83.837
9010	4.1	3.7273	0.	17157
9011	4.1833	3.6364	0.	15014
9012	4.0109	3.6364	0.	14204
9013	4.1	3.6364	5.e-002	188.28
9014	4.1833	3.8182	0.	18805
9015	4.0109	3.8182	0.	16595
9016	4.1	3.8182	5.e-002	1050.3
9017	4.1	3.9091	0.	23269
9018	4.2667	2.2727	0.	17000
9019	4.3589	2.1818	0.	16216
9020	4.2667	2.1818	5.e-002	1074.2
9021	4.2667	2.0909	0.	22692
9022	4.2667	2.4545	0.	14140
9023	4.3589	2.3636	0.	13995
9024	4.2667	2.3636	5.e-002	211.23
9025	4.2667	2.6364	0.	12764
9026	4.3589	2.5455	0.	12651
9027	4.2667	2.5455	5.e-002	108.58
9028	4.2667	2.8182	0.	12092
9029	4.3589	2.7273	0.	11915
9030	4.2667	2.7273	5.e-002	63.118
9031	4.2667	3.	0.	11891
9032	4.3589	2.9091	0.	11585
9033	4.2667	2.9091	5.e-002	45.338
9034	4.2667	3.1818	0.	12092
9035	4.3589	3.0909	0.	11585
9036	4.2667	3.0909	5.e-002	45.338
9037	4.2667	3.3636	0.	12764
9038	4.3589	3.2727	0.	11915
9039	4.2667	3.2727	5.e-002	63.118
9040	4.2667	3.5455	0.	14140
9041	4.3589	3.4545	0.	12651
9042	4.2667	3.4545	5.e-002	108.58
9043	4.2667	3.7273	0.	17000
9044	4.3589	3.6364	0.	13995
9045	4.2667	3.6364	5.e-002	211.23
9046	4.3589	3.8182	0.	16216
9047	4.2667	3.8182	5.e-002	1074.2
9048	4.2667	3.9091	0.	22692
9049	3.9217	5.7273	0.	1470.5
9050	3.8326	5.8182	0.	1463.5
9051	3.9217	5.8182	5.e-002	158.53
9052	3.9217	5.9091	0.	928.06
9053	4.0109	5.8182	0.	845.65
9054	3.9217	5.5455	0.	2091.3
9055	3.8326	5.6364	0.	1859.
9056	3.9217	5.6364	5.e-002	141.15
9057	4.0109	5.6364	0.	1387.
9058	3.9217	5.3636	0.	2798.2
9059	3.8326	5.4545	0.	2430.8
9060	3.9217	5.4545	5.e-002	148.
9061	4.0109	5.4545	0.	1959.
9062	3.9217	5.1818	0.	3576.6
9063	3.8326	5.2727	0.	3090.8
9064	3.9217	5.2727	5.e-002	162.97
9065	4.0109	5.2727	0.	2561.
9066	3.9217	5.	0.	4457.9
9067	3.8326	5.0909	0.	3836.
9068	3.9217	5.0909	5.e-002	185.62
9069	4.0109	5.0909	0.	3219.1
9070	3.9217	4.8182	0.	5500.8
9071	3.8326	4.9091	0.	4691.9
9072	3.9217	4.9091	5.e-002	217.74
9073	4.0109	4.9091	0.	3972.3
9074	3.9217	4.6364	0.	6803.8
9075	3.8326	4.7273	0.	5710.1
9076	3.9217	4.7273	5.e-002	267.33
9077	4.0109	4.7273	0.	4883.7
9078	3.9217	4.4545	0.	8591.8
9079	3.8326	4.5455	0.	6964.3
9080	3.9217	4.5455	5.e-002	331.77
9081	4.0109	4.5455	0.	6080.5
9082	3.9217	4.2727	0.	11139
9083	3.8326	4.3636	0.	8606.5
9084	3.9217	4.3636	5.e-002	486.93
9085	4.0109	4.3636	0.	7677.9
9086	3.9217	4.0909	0.	13787
9087	3.8326	4.1818	0.	10859
9088	3.9217	4.1818	5.e-002	937.69
9089	4.0109	4.1818	0.	10873
9090	3.9217	3.9091	0.	14571
9091	3.8326	4.	0.	12630
9092	3.9217	4.	5.e-002	1639.6
9093	4.0109	4.	0.	21510
9094	3.9217	3.7273	0.	13820
9095	3.8326	3.8182	0.	12618
9096	3.9217	3.8182	5.e-002	773.53
9097	3.9217	3.5455	0.	12825
9098	3.8326	3.6364	0.	12179
9099	3.9217	3.6364	5.e-002	315.61
9100	3.9217	3.3636	0.	12009
9101	3.8326	3.4545	0.	11589
9102	3.9217	3.4545	5.e-002	169.02
9103	3.9217	3.1818	0.	11568
9104	3.8326	3.2727	0.	11189
9105	3.9217	3.2727	5.e-002	96.17
9106	3.9217	3.	0.	11426
9107	3.8326	3.0909	0.	10990
9108	3.9217	3.0909	5.e-002	70.8
9109	3.9217	2.8182	0.	11568
9110	3.8326	2.9091	0.	10990
9111	3.9217	2.9091	5.e-002	70.8
9112	3.9217	2.6364	0.	12009
9113	3.8326	2.7273	0.	11189
9114	3.9217	2.7273	5.e-002	96.17
9115	3.9217	2.4545	0.	12825
9116	3.8326	2.5455	0.	11589
9117	3.9217	2.5455	5.e-002	169.02
9118	3.9217	2.2727	0.	13820
9119	3.8326	2.3636	0.	12179
9120	3.9217	2.3636	5.e-002	315.61
9121	3.9217	2.0909	0.	14571
9122	3.8326	2.1818	0.	12618
9123	3.9217	2.1818	5.e-002	773.53
9124	3.9217	1.9091	0.	13787
9125	3.8326	2.	0.	12630
9126	3.9217	2.	5.e-002	1639.6
9127	4.0109	2.	0.	21510
9128	3.9217	1.7273	0.	11139
9129	3.8326	1.8182	0.	10859
9130	3.9217	1.8182	5.e-002	937.69
9131	4.0109	1.8182	0.	10873
9132	3.9217	1.5455	0.	8591.8
9133	3.8326	1.6364	0.	8606.5
9134	3.9217	1.6364	5.e-002	486.93
9135	4.0109	1.6364	0.	7677.9
9136	3.9217	1.3636	0.	6803.8
9137	3.8326	1.4545	0.	6964.3
9138	3.9217	1.4545	5.e-002	331.77
9139	4.0109	1.4545	0.	6080.5
9140	3.9217	1.1818	0.	5500.8
9141	3.8326	1.2727	0.	5710.1
9142	3.9217	1.2727	5.e-002	267.33
9143	4.0109	1.2727	0.	4883.7
9144	3.9217	1.	0.	4457.9
9145	3.8326	1.0909	0.	4691.9
9146	3.9217	1.0909	5.e-002	217.74
9147	4.0109	1.0909	0.	3972.3
9148	3.9217	0.81818	0.	3576.6
9149	3.8326	0.90909	0.	3836.
9150	3.9217	0.90909	5.e-002	185.62
9151	4.0109	0.90909	0.	3219.1
9152	3.9217	0.63636	0.	2798.2
9153	3.8326	0.72727	0.	3090.8
9154	3.9217	0.72727	5.e-002	162.97
9155	4.0109	0.72727	0.	2561.
9156	3.9217	0.45455	0.	2091.3
9157	3.8326	0.54545	0.	2430.8
9158	3.9217	0.54545	5.e-002	148.
9159	4.0109	0.54545	0.	1959.
9160	3.9217	0.27273	0.	1470.5
9161	3.8326	0.36364	0.	1859.
9162	3.9217	0.36364	5.e-002	141.15
9163	4.0109	0.36364	0.	1387.
9164	3.8326	0.18182	0.	1463.5
9165	3.9217	0.18182	5.e-002	158.53
9166	3.9217	9.0909e-002	0.	928.06
9167	4.0109	0.18182	0.	845.65
9168	3.7435	5.7273	0.	1906.
9169	3.6543	5.8182	0.	2086.6
9170	3.7435	5.8182	5.e-002	141.48
9171	3.7435	5.9091	0.	1608.1
9172	3.7435	5.5455	0.	2279.4
9173	3.6543	5.6364	0.	2294.3
9174	3.7435	5.6364	5.e-002	119.48
9175	3.7435	5.3636	0.	2807.3
9176	3.6543	5.4545	0.	2688.3
9177	3.7435	5.4545	5.e-002	118.69
9178	3.7435	5.1818	0.	3435.9
9179	3.6543	5.2727	0.	3200.5
9180	3.7435	5.2727	5.e-002	123.37
9181	3.7435	5.	0.	4162.5
9182	3.6543	5.0909	0.	3808.7
9183	3.7435	5.0909	5.e-002	132.94
9184	3.7435	4.8182	0.	5009.7
9185	3.6543	4.9091	0.	4513.6
9186	3.7435	4.9091	5.e-002	148.2
9187	3.7435	4.6364	0.	6007.2
9188	3.6543	4.7273	0.	5330.3
9189	3.7435	4.7273	5.e-002	167.83
9190	3.7435	4.4545	0.	7180.7
9191	3.6543	4.5455	0.	6270.9
9192	3.7435	4.5455	5.e-002	206.77
9193	3.7435	4.2727	0.	8501.7
9194	3.6543	4.3636	0.	7332.4
9195	3.7435	4.3636	5.e-002	205.35
9196	3.7435	4.0909	0.	9625.9
9197	3.6543	4.1818	0.	8426.3
9198	3.7435	4.1818	5.e-002	294.79
9199	3.7435	3.9091	0.	10466
9200	3.6543	4.	0.	9250.9
9201	3.7435	4.	5.e-002	259.58
9202	3.7435	3.7273	0.	10904
9203	3.6543	3.8182	0.	9895.9
9204	3.7435	3.8182	5.e-002	366.43
9205	3.7435	3.5455	0.	10918
9206	3.6543	3.6364	0.	10167
9207	3.7435	3.6364	5.e-002	248.71
9208	3.7435	3.3636	0.	10756
9209	3.6543	3.4545	0.	10183
9210	3.7435	3.4545	5.e-002	180.04
9211	3.7435	3.1818	0.	10600
9212	3.6543	3.2727	0.	10106
9213	3.7435	3.2727	5.e-002	124.94
9214	3.7435	3.	0.	10543
9215	3.6543	3.0909	0.	10049
9216	3.7435	3.0909	5.e-002	101.61
9217	3.7435	2.8182	0.	10600
9218	3.6543	2.9091	0.	10049
9219	3.7435	2.9091	5.e-002	101.61
9220	3.7435	2.6364	0.	10756
9221	3.6543	2.7273	0.	10106
9222	3.7435	2.7273	5.e-002	124.94
9223	3.7435	2.4545	0.	10918
9224	3.6543	2.5455	0.	10183
9225	3.7435	2.5455	5.e-002	180.04
9226	3.7435	2.2727	0.	10904
9227	3.6543	2.3636	0.	10167
9228	3.7435	2.3636	5.e-002	248.71
9229	3.7435	2.0909	0.	10466
9230	3.6543	2.1818	0.	9895.9
9231	3.7435	2.1818	5.e-002	366.43
9232	3.7435	1.9091	0.	9625.9
9233	3.6543	2.	0.	9250.9
9234	3.7435	2.	5.e-002	259.58
9235	3.7435	1.7273	0.	8501.7
9236	3.6543	1.8182	0.	8426.3
9237	3.7435	1.8182	5.e-002	294.79
9238	3.7435	1.5455	0.	7180.7
9239	3.6543	1.6364	0.	7332.4
9240	3.7435	1.6364	5.e-002	205.35
9241	3.7435	1.3636	0.	6007.2
9242	3.6543	1.4545	0.	6270.9
9243	3.7435	1.4545	5.e-002	206.77
9244	3.7435	1.1818	0.	5009.7
9245	3.6543	1.2727	0.	5330.3
9246	3.7435	1.2727	5.e-002	167.83
9247	3.7435	1.	0.	4162.5
9248	3.6543	1.0909	0.	4513.6
9249	3.7435	1.0909	5.e-002	148.2
9250	3.7435	0.81818	0.	3435.9
9251	3.6543	0.90909	0.	3808.7
9252	3.7435	0.90909	5.e-002	132.94
9253	3.7435	0.63636	0.	2807.3
9254	3.6543	0.72727	0.	3200.5
9255	3.7435	0.72727	5.e-002	123.37
9256	3.7435	0.45455	0.	2279.4
9257	3.6543	0.54545	0.	2688.3
9258	3.7435	0.54545	5.e-002	118.69
9259	3.7435	0.27273	0.	1906.
9260	3.6543	0.36364	0.	2294.3
9261	3.7435	0.36364	5.e-002	119.48
9262	3.6543	0.18182	0.	2086.6
9263	3.7435	0.18182	5.e-002	141.48
9264	3.7435	9.0909e-002	0.	1608.1
9265	3.5652	5.7273	0.	2484.6
9266	3.4761	5.8182	0.	2690.7
9267	3.5652	5.8182	5.e-002	134.11
9268	3.5652	5.9091	0.	2260.1
9269	3.5652	5.5455	0.	2734.7
9270	3.4761	5.6364	0.	2829.6
9271	3.5652	5.6364	5.e-002	111.35
9272	3.5652	5.3636	0.	3129.5
9273	3.4761	5.4545	0.	3115.1
9274	3.5652	5.4545	5.e-002	110.5
9275	3.5652	5.1818	0.	3631.1
9276	3.4761	5.2727	0.	3509.5
9277	3.5652	5.2727	5.e-002	113.13
9278	3.5652	5.	0.	4225.1
9279	3.4761	5.0909	0.	3995.4
9280	3.5652	5.0909	5.e-002	118.06
9281	3.5652	4.8182	0.	4906.9
9282	3.4761	4.9091	0.	4562.2
9283	3.5652	4.9091	5.e-002	124.77
9284	3.5652	4.6364	0.	5672.9
9285	3.4761	4.7273	0.	5202.
9286	3.5652	4.7273	5.e-002	131.68
9287	3.5652	4.4545	0.	6491.3
9288	3.4761	4.5455	0.	5902.2
9289	3.5652	4.5455	5.e-002	132.11
9290	3.5652	4.2727	0.	7297.2
9291	3.4761	4.3636	0.	6618.4
9292	3.5652	4.3636	5.e-002	132.27
9293	3.5652	4.0909	0.	8033.5
9294	3.4761	4.1818	0.	7293.8
9295	3.5652	4.1818	5.e-002	132.02
9296	3.5652	3.9091	0.	8652.4
9297	3.4761	4.	0.	7891.8
9298	3.5652	4.	5.e-002	162.97
9299	3.5652	3.7273	0.	9123.1
9300	3.4761	3.8182	0.	8388.
9301	3.5652	3.8182	5.e-002	176.
9302	3.5652	3.5455	0.	9404.3
9303	3.4761	3.6364	0.	8758.6
9304	3.5652	3.6364	5.e-002	176.03
9305	3.5652	3.3636	0.	9513.6
9306	3.4761	3.4545	0.	8962.3
9307	3.5652	3.4545	5.e-002	146.29
9308	3.5652	3.1818	0.	9538.5
9309	3.4761	3.2727	0.	9050.6
9310	3.5652	3.2727	5.e-002	122.6
9311	3.5652	3.	0.	9539.9
9312	3.4761	3.0909	0.	9079.
9313	3.5652	3.0909	5.e-002	108.94
9314	3.5652	2.8182	0.	9538.5
9315	3.4761	2.9091	0.	9079.
9316	3.5652	2.9091	5.e-002	108.94
9317	3.5652	2.6364	0.	9513.6
9318	3.4761	2.7273	0.	9050.6
9319	3.5652	2.7273	5.e-002	122.6
9320	3.5652	2.4545	0.	9404.3
9321	3.4761	2.5455	0.	8962.3
9322	3.5652	2.5455	5.e-002	146.29
9323	3.5652	2.2727	0.	9123.1
9324	3.4761	2.3636	0.	8758.6
9325	3.5652	2.3636	5.e-002	176.03
9326	3.5652	2.0909	0.	8652.4
9327	3.4761	2.1818	0.	8388.
9328	3.5652	2.1818	5.e-002	176.
9329	3.5652	1.9091	0.	8033.5
9330	3.4761	2.	0.	7891.8
9331	3.5652	2.	5.e-002	162.97
9332	3.5652	1.7273	0.	7297.2
9333	3.4761	1.8182	0.	7293.8
9334	3.5652	1.8182	5.e-002	132.02
9335	3.5652	1.5455	0.	6491.3
9336	3.4761	1.6364	0.	6618.4
9337	3.5652	1.6364	5.e-002	132.27
9338	3.5652	1.3636	0.	5672.9
9339	3.4761	1.4545	0.	5902.2
9340	3.5652	1.4545	5.e-002	132.11
9341	3.5652	1.1818	0.	4906.9
9342	3.4761	1.2727	0.	5202.
9343	3.5652	1.2727	5.e-002	131.68
9344	3.5652	1.	0.	4225.1
9345	3.4761	1.0909	0.	4562.2
9346	3.5652	1.0909	5.e-002	124.77
9347	3.5652	0.81818	0.	3631.1
9348	3.4761	0.90909	0.	3995.4
9349	3.5652	0.90909	5.e-002	118.06
9350	3.5652	0.63636	0.	3129.5
9351	3.4761	0.72727	0.	3509.5
9352	3.5652	0.72727	5.e-002	113.13
9353	3.5652	0.45455	0.	2734.7
9354	3.4761	0.54545	0.	3115.1
9355	3.5652	0.54545	5.e-002	110.5
9356	3.5652	0.27273	0.	2484.6
9357	3.4761	0.36364	0.	2829.6
9358	3.5652	0.36364	5.e-002	111.35
9359	3.4761	0.18182	0.	2690.7
9360	3.5652	0.18182	5.e-002	134.11
9361	3.5652	9.0909e-002	0.	2260.1
9362	3.387	5.7273	0.	3039.1
9363	3.2978	5.8182	0.	3235.
9364	3.387	5.8182	5.e-002	125.35
9365	3.387	5.9091	0.	2851.5
9366	3.387	5.5455	0.	3222.6
9367	3.2978	5.6364	0.	3339.8
9368	3.387	5.6364	5.e-002	101.12
9369	3.387	5.3636	0.	3520.3
9370	3.2978	5.4545	0.	3554.7
9371	3.387	5.4545	5.e-002	99.99
9372	3.387	5.1818	0.	3909.
9373	3.2978	5.2727	0.	3855.8
9374	3.387	5.2727	5.e-002	100.87
9375	3.387	5.	0.	4374.6
9376	3.2978	5.0909	0.	4231.9
9377	3.387	5.0909	5.e-002	102.18
9378	3.387	4.8182	0.	4903.1
9379	3.2978	4.9091	0.	4670.5
9380	3.387	4.9091	5.e-002	103.02
9381	3.387	4.6364	0.	5475.8
9382	3.2978	4.7273	0.	5156.5
9383	3.387	4.7273	5.e-002	101.79
9384	3.387	4.4545	0.	6064.8
9385	3.2978	4.5455	0.	5668.8
9386	3.387	4.5455	5.e-002	97.889
9387	3.387	4.2727	0.	6633.
9388	3.2978	4.3636	0.	6179.2
9389	3.387	4.3636	5.e-002	92.954
9390	3.387	4.0909	0.	7155.5
9391	3.2978	4.1818	0.	6657.2
9392	3.387	4.1818	5.e-002	94.118
9393	3.387	3.9091	0.	7622.
9394	3.2978	4.	0.	7093.4
9395	3.387	4.	5.e-002	104.46
9396	3.387	3.7273	0.	8011.7
9397	3.2978	3.8182	0.	7479.6
9398	3.387	3.8182	5.e-002	114.09
9399	3.387	3.5455	0.	8301.2
9400	3.2978	3.6364	0.	7794.9
9401	3.387	3.6364	5.e-002	117.65
9402	3.387	3.3636	0.	8484.
9403	3.2978	3.4545	0.	8020.9
9404	3.387	3.4545	5.e-002	113.32
9405	3.387	3.1818	0.	8577.
9406	3.2978	3.2727	0.	8156.
9407	3.387	3.2727	5.e-002	105.6
9408	3.387	3.	0.	8604.5
9409	3.2978	3.0909	0.	8216.9
9410	3.387	3.0909	5.e-002	100.3
9411	3.387	2.8182	0.	8577.
9412	3.2978	2.9091	0.	8216.9
9413	3.387	2.9091	5.e-002	100.3
9414	3.387	2.6364	0.	8484.
9415	3.2978	2.7273	0.	8156.
9416	3.387	2.7273	5.e-002	105.6
9417	3.387	2.4545	0.	8301.2
9418	3.2978	2.5455	0.	8020.9
9419	3.387	2.5455	5.e-002	113.32
9420	3.387	2.2727	0.	8011.7
9421	3.2978	2.3636	0.	7794.9
9422	3.387	2.3636	5.e-002	117.65
9423	3.387	2.0909	0.	7622.
9424	3.2978	2.1818	0.	7479.6
9425	3.387	2.1818	5.e-002	114.09
9426	3.387	1.9091	0.	7155.5
9427	3.2978	2.	0.	7093.4
9428	3.387	2.	5.e-002	104.46
9429	3.387	1.7273	0.	6633.
9430	3.2978	1.8182	0.	6657.2
9431	3.387	1.8182	5.e-002	94.118
9432	3.387	1.5455	0.	6064.8
9433	3.2978	1.6364	0.	6179.2
9434	3.387	1.6364	5.e-002	92.954
9435	3.387	1.3636	0.	5475.8
9436	3.2978	1.4545	0.	5668.8
9437	3.387	1.4545	5.e-002	97.889
9438	3.387	1.1818	0.	4903.1
9439	3.2978	1.2727	0.	5156.5
9440	3.387	1.2727	5.e-002	101.79
9441	3.387	1.	0.	4374.6
9442	3.2978	1.0909	0.	4670.5
9443	3.387	1.0909	5.e-002	103.02
9444	3.387	0.81818	0.	3909.
9445	3.2978	0.90909	0.	4231.9
9446	3.387	0.90909	5.e-002	102.18
9447	3.387	0.63636	0.	3520.3
9448	3.2978	0.72727	0.	3855.8
9449	3.387	0.72727	5.e-002	100.87
9450	3.387	0.45455	0.	3222.6
9451	3.2978	0.54545	0.	3554.7
9452	3.387	0.54545	5.e-002	99.99
9453	3.387	0.27273	0.	3039.1
9454	3.2978	0.36364	0.	3339.8
9455	3.387	0.36364	5.e-002	101.12
9456	3.2978	0.18182	0.	3235.
9457	3.387	0.18182	5.e-002	125.35
9458	3.387	9.0909e-002	0.	2851.5
9459	3.2087	5.7273	0.	3537.7
9460	3.1196	5.8182	0.	3714.9
9461	3.2087	5.8182	5.e-002	115.5
9462	3.2087	5.9091	0.	3377.3
9463	3.2087	5.5455	0.	3677.8
9464	3.1196	5.6364	0.	3795.6
9465	3.2087	5.6364	5.e-002	90.236
9466	3.2087	5.3636	0.	3903.4
9467	3.1196	5.4545	0.	3958.9
9468	3.2087	5.4545	5.e-002	88.654
9469	3.2087	5.1818	0.	4198.8
9470	3.1196	5.2727	0.	4186.2
9471	3.2087	5.2727	5.e-002	88.308
9472	3.2087	5.	0.	4552.8
9473	3.1196	5.0909	0.	4470.
9474	3.2087	5.0909	5.e-002	87.48
9475	3.2087	4.8182	0.	4950.9
9476	3.1196	4.9091	0.	4799.4
9477	3.2087	4.9091	5.e-002	85.49
9478	3.2087	4.6364	0.	5374.7
9479	3.1196	4.7273	0.	5160.1
9480	3.2087	4.7273	5.e-002	81.841
9481	3.2087	4.4545	0.	5802.5
9482	3.1196	4.5455	0.	5534.2
9483	3.2087	4.5455	5.e-002	76.72
9484	3.2087	4.2727	0.	6214.7
9485	3.1196	4.3636	0.	5903.
9486	3.2087	4.3636	5.e-002	72.622
9487	3.2087	4.0909	0.	6599.6
9488	3.1196	4.1818	0.	6252.8
9489	3.2087	4.1818	5.e-002	72.784
9490	3.2087	3.9091	0.	6950.8
9491	3.1196	4.	0.	6577.1
9492	3.2087	4.	5.e-002	76.272
9493	3.2087	3.7273	0.	7258.8
9494	3.1196	3.8182	0.	6871.
9495	3.2087	3.8182	5.e-002	80.555
9496	3.2087	3.5455	0.	7507.3
9497	3.1196	3.6364	0.	7123.2
9498	3.2087	3.6364	5.e-002	84.313
9499	3.2087	3.3636	0.	7683.4
9500	3.1196	3.4545	0.	7318.2
9501	3.2087	3.4545	5.e-002	85.976
9502	3.2087	3.1818	0.	7785.9
9503	3.1196	3.2727	0.	7447.7
9504	3.2087	3.2727	5.e-002	85.412
9505	3.2087	3.	0.	7819.1
9506	3.1196	3.0909	0.	7511.2
9507	3.2087	3.0909	5.e-002	84.448
9508	3.2087	2.8182	0.	7785.9
9509	3.1196	2.9091	0.	7511.2
9510	3.2087	2.9091	5.e-002	84.448
9511	3.2087	2.6364	0.	7683.5
9512	3.1196	2.7273	0.	7447.7
9513	3.2087	2.7273	5.e-002	85.412
9514	3.2087	2.4545	0.	7507.3
9515	3.1196	2.5455	0.	7318.2
9516	3.2087	2.5455	5.e-002	85.976
9517	3.2087	2.2727	0.	7258.8
9518	3.1196	2.3636	0.	7123.2
9519	3.2087	2.3636	5.e-002	84.313
9520	3.2087	2.0909	0.	6950.8
9521	3.1196	2.1818	0.	6871.
9522	3.2087	2.1818	5.e-002	80.555
9523	3.2087	1.9091	0.	6599.6
9524	3.1196	2.	0.	6577.1
9525	3.2087	2.	5.e-002	76.272
9526	3.2087	1.7273	0.	6214.7
9527	3.1196	1.8182	0.	6252.8
9528	3.2087	1.8182	5.e-002	72.784
9529	3.2087	1.5455	0.	5802.5
9530	3.1196	1.6364	0.	5903.
9531	3.2087	1.6364	5.e-002	72.622
9532	3.2087	1.3636	0.	5374.7
9533	3.1196	1.4545	0.	5534.2
9534	3.2087	1.4545	5.e-002	76.72
9535	3.2087	1.1818	0.	4950.9
9536	3.1196	1.2727	0.	5160.1
9537	3.2087	1.2727	5.e-002	81.841
9538	3.2087	1.	0.	4552.8
9539	3.1196	1.0909	0.	4799.4
9540	3.2087	1.0909	5.e-002	85.49
9541	3.2087	0.81818	0.	4198.8
9542	3.1196	0.90909	0.	4470.
9543	3.2087	0.90909	5.e-002	87.48
9544	3.2087	0.63636	0.	3903.4
9545	3.1196	0.72727	0.	4186.2
9546	3.2087	0.72727	5.e-002	88.308
9547	3.2087	0.45455	0.	3677.8
9548	3.1196	0.54545	0.	3958.9
9549	3.2087	0.54545	5.e-002	88.654
9550	3.2087	0.27273	0.	3537.7
9551	3.1196	0.36364	0.	3795.6
9552	3.2087	0.36364	5.e-002	90.236
9553	3.1196	0.18182	0.	3714.9
9554	3.2087	0.18182	5.e-002	115.5
9555	3.2087	9.0909e-002	0.	3377.3
9556	3.0304	5.7273	0.	3974.1
9557	2.9413	5.8182	0.	4132.2
9558	3.0304	5.8182	5.e-002	105.33
9559	3.0304	5.9091	0.	3838.5
9560	3.0304	5.5455	0.	4079.8
9561	2.9413	5.6364	0.	4191.
9562	3.0304	5.6364	5.e-002	79.483
9563	3.0304	5.3636	0.	4248.7
9564	2.9413	5.4545	0.	4312.4
9565	3.0304	5.4545	5.e-002	77.607
9566	3.0304	5.1818	0.	4468.5
9567	2.9413	5.2727	0.	4479.8
9568	3.0304	5.2727	5.e-002	76.668
9569	3.0304	5.	0.	4730.7
9570	2.9413	5.0909	0.	4688.1
9571	3.0304	5.0909	5.e-002	74.957
9572	3.0304	4.8182	0.	5023.8
9573	2.9413	4.9091	0.	4929.
9574	3.0304	4.9091	5.e-002	72.143
9575	3.0304	4.6364	0.	5333.6
9576	2.9413	4.7273	0.	5191.2
9577	3.0304	4.7273	5.e-002	68.211
9578	3.0304	4.4545	0.	5645.6
9579	2.9413	4.5455	0.	5462.2
9580	3.0304	4.5455	5.e-002	63.826
9581	3.0304	4.2727	0.	5948.1
9582	2.9413	4.3636	0.	5730.3
9583	3.0304	4.3636	5.e-002	60.288
9584	3.0304	4.0909	0.	6233.9
9585	2.9413	4.1818	0.	5987.4
9586	3.0304	4.1818	5.e-002	58.706
9587	3.0304	3.9091	0.	6498.3
9588	2.9413	4.	0.	6228.9
9589	3.0304	4.	5.e-002	58.871
9590	3.0304	3.7273	0.	6734.
9591	2.9413	3.8182	0.	6450.3
9592	3.0304	3.8182	5.e-002	60.282
9593	3.0304	3.5455	0.	6930.5
9594	2.9413	3.6364	0.	6643.6
9595	3.0304	3.6364	5.e-002	62.566
9596	3.0304	3.3636	0.	7077.
9597	2.9413	3.4545	0.	6798.3
9598	3.0304	3.4545	5.e-002	64.914
9599	3.0304	3.1818	0.	7166.5
9600	2.9413	3.2727	0.	6905.5
9601	3.0304	3.2727	5.e-002	66.426
9602	3.0304	3.	0.	7196.5
9603	2.9413	3.0909	0.	6959.9
9604	3.0304	3.0909	5.e-002	67.047
9605	3.0304	2.8182	0.	7166.5
9606	2.9413	2.9091	0.	6959.9
9607	3.0304	2.9091	5.e-002	67.047
9608	3.0304	2.6364	0.	7077.
9609	2.9413	2.7273	0.	6905.5
9610	3.0304	2.7273	5.e-002	66.426
9611	3.0304	2.4545	0.	6930.5
9612	2.9413	2.5455	0.	6798.3
9613	3.0304	2.5455	5.e-002	64.914
9614	3.0304	2.2727	0.	6734.
9615	2.9413	2.3636	0.	6643.6
9616	3.0304	2.3636	5.e-002	62.566
9617	3.0304	2.0909	0.	6498.3
9618	2.9413	2.1818	0.	6450.3
9619	3.0304	2.1818	5.e-002	60.282
9620	3.0304	1.9091	0.	6233.9
9621	2.9413	2.	0.	6228.9
9622	3.0304	2.	5.e-002	58.871
9623	3.0304	1.7273	0.	5948.1
9624	2.9413	1.8182	0.	5987.4
9625	3.0304	1.8182	5.e-002	58.706
9626	3.0304	1.5455	0.	5645.6
9627	2.9413	1.6364	0.	5730.3
9628	3.0304	1.6364	5.e-002	60.288
9629	3.0304	1.3636	0.	5333.6
9630	2.9413	1.4545	0.	5462.2
9631	3.0304	1.4545	5.e-002	63.826
9632	3.0304	1.1818	0.	5023.8
9633	2.9413	1.2727	0.	5191.2
9634	3.0304	1.2727	5.e-002	68.211
9635	3.0304	1.	0.	4730.7
9636	2.9413	1.0909	0.	4929.
9637	3.0304	1.0909	5.e-002	72.143
9638	3.0304	0.81818	0.	4468.5
9639	2.9413	0.90909	0.	4688.1
9640	3.0304	0.90909	5.e-002	74.957
9641	3.0304	0.63636	0.	4248.7
9642	2.9413	0.72727	0.	4479.8
9643	3.0304	0.72727	5.e-002	76.668
9644	3.0304	0.45455	0.	4079.8
9645	2.9413	0.54545	0.	4312.4
9646	3.0304	0.54545	5.e-002	77.607
9647	3.0304	0.27273	0.	3974.1
9648	2.9413	0.36364	0.	4191.
9649	3.0304	0.36364	5.e-002	79.483
9650	2.9413	0.18182	0.	4132.2
9651	3.0304	0.18182	5.e-002	105.33
9652	3.0304	9.0909e-002	0.	3838.5
9653	2.8522	5.7273	0.	4350.
9654	2.763	5.8182	0.	4491.5
9655	2.8522	5.8182	5.e-002	95.535
9656	2.8522	5.9091	0.	4238.3
9657	2.8522	5.5455	0.	4425.2
9658	2.763	5.6364	0.	4528.4
9659	2.8522	5.6364	5.e-002	69.436
9660	2.8522	5.3636	0.	4547.2
9661	2.763	5.4545	0.	4613.4
9662	2.8522	5.4545	5.e-002	67.546
9663	2.8522	5.1818	0.	4705.5
9664	2.763	5.2727	0.	4731.3
9665	2.8522	5.2727	5.e-002	66.537
9666	2.8522	5.	0.	4894.
9667	2.763	5.0909	0.	4878.4
9668	2.8522	5.0909	5.e-002	64.774
9669	2.8522	4.8182	0.	5104.5
9670	2.763	4.9091	0.	5048.8
9671	2.8522	4.9091	5.e-002	62.114
9672	2.8522	4.6364	0.	5327.3
9673	2.763	4.7273	0.	5234.9
9674	2.8522	4.7273	5.e-002	58.714
9675	2.8522	4.4545	0.	5552.9
9676	2.763	4.5455	0.	5428.2
9677	2.8522	4.5455	5.e-002	55.031
9678	2.8522	4.2727	0.	5773.7
9679	2.763	4.3636	0.	5621.4
9680	2.8522	4.3636	5.e-002	51.714
9681	2.8522	4.0909	0.	5984.7
9682	2.763	4.1818	0.	5809.1
9683	2.8522	4.1818	5.e-002	49.163
9684	2.8522	3.9091	0.	6181.8
9685	2.763	4.	0.	5987.4
9686	2.8522	4.	5.e-002	47.458
9687	2.8522	3.7273	0.	6359.4
9688	2.763	3.8182	0.	6152.2
9689	2.8522	3.8182	5.e-002	46.756
9690	2.8522	3.5455	0.	6509.5
9691	2.763	3.6364	0.	6297.5
9692	2.8522	3.6364	5.e-002	47.263
9693	2.8522	3.3636	0.	6623.6
9694	2.763	3.4545	0.	6415.4
9695	2.8522	3.4545	5.e-002	48.604
9696	2.8522	3.1818	0.	6694.8
9697	2.763	3.2727	0.	6498.4
9698	2.8522	3.2727	5.e-002	49.99
9699	2.8522	3.	0.	6719.
9700	2.763	3.0909	0.	6541.3
9701	2.8522	3.0909	5.e-002	50.799
9702	2.8522	2.8182	0.	6694.8
9703	2.763	2.9091	0.	6541.3
9704	2.8522	2.9091	5.e-002	50.799
9705	2.8522	2.6364	0.	6623.6
9706	2.763	2.7273	0.	6498.4
9707	2.8522	2.7273	5.e-002	49.99
9708	2.8522	2.4545	0.	6509.5
9709	2.763	2.5455	0.	6415.4
9710	2.8522	2.5455	5.e-002	48.604
9711	2.8522	2.2727	0.	6359.4
9712	2.763	2.3636	0.	6297.5
9713	2.8522	2.3636	5.e-002	47.263
9714	2.8522	2.0909	0.	6181.8
9715	2.763	2.1818	0.	6152.2
9716	2.8522	2.1818	5.e-002	46.756
9717	2.8522	1.9091	0.	5984.7
9718	2.763	2.	0.	5987.4
9719	2.8522	2.	5.e-002	47.458
9720	2.8522	1.7273	0.	5773.7
9721	2.763	1.8182	0.	5809.1
9722	2.8522	1.8182	5.e-002	49.163
9723	2.8522	1.5455	0.	5552.9
9724	2.763	1.6364	0.	5621.4
9725	2.8522	1.6364	5.e-002	51.714
9726	2.8522	1.3636	0.	5327.3
9727	2.763	1.4545	0.	5428.2
9728	2.8522	1.4545	5.e-002	55.031
9729	2.8522	1.1818	0.	5104.5
9730	2.763	1.2727	0.	5234.9
9731	2.8522	1.2727	5.e-002	58.714
9732	2.8522	1.	0.	4894.
9733	2.763	1.0909	0.	5048.8
9734	2.8522	1.0909	5.e-002	62.114
9735	2.8522	0.81818	0.	4705.5
9736	2.763	0.90909	0.	4878.4
9737	2.8522	0.90909	5.e-002	64.774
9738	2.8522	0.63636	0.	4547.2
9739	2.763	0.72727	0.	4731.3
9740	2.8522	0.72727	5.e-002	66.537
9741	2.8522	0.45455	0.	4425.2
9742	2.763	0.54545	0.	4613.4
9743	2.8522	0.54545	5.e-002	67.546
9744	2.8522	0.27273	0.	4350.
9745	2.763	0.36364	0.	4528.4
9746	2.8522	0.36364	5.e-002	69.436
9747	2.763	0.18182	0.	4491.5
9748	2.8522	0.18182	5.e-002	95.535
9749	2.8522	9.0909e-002	0.	4238.3
9750	2.6739	5.7273	0.	4670.4
9751	2.5848	5.8182	0.	4798.6
9752	2.6739	5.8182	5.e-002	86.62
9753	2.6739	5.9091	0.	4581.6
9754	2.6739	5.5455	0.	4717.4
9755	2.5848	5.6364	0.	4813.1
9756	2.6739	5.6364	5.e-002	60.437
9757	2.6739	5.3636	0.	4799.5
9758	2.5848	5.4545	0.	4866.
9759	2.6739	5.4545	5.e-002	58.785
9760	2.6739	5.1818	0.	4907.4
9761	2.5848	5.2727	0.	4942.4
9762	2.6739	5.2727	5.e-002	58.068
9763	2.6739	5.	0.	5037.2
9764	2.5848	5.0909	0.	5039.9
9765	2.6739	5.0909	5.e-002	56.697
9766	2.6739	4.8182	0.	5183.4
9767	2.5848	4.9091	0.	5154.8
9768	2.6739	4.9091	5.e-002	54.589
9769	2.6739	4.6364	0.	5339.7
9770	2.5848	4.7273	0.	5282.1
9771	2.6739	4.7273	5.e-002	51.871
9772	2.6739	4.4545	0.	5499.9
9773	2.5848	4.5455	0.	5416.6
9774	2.6739	4.5455	5.e-002	48.789
9775	2.6739	4.2727	0.	5659.
9776	2.5848	4.3636	0.	5553.4
9777	2.6739	4.3636	5.e-002	45.601
9778	2.6739	4.0909	0.	5813.
9779	2.5848	4.1818	0.	5688.6
9780	2.6739	4.1818	5.e-002	42.48
9781	2.6739	3.9091	0.	5958.3
9782	2.5848	4.	0.	5818.7
9783	2.6739	4.	5.e-002	39.596
9784	2.6739	3.7273	0.	6090.
9785	2.5848	3.8182	0.	5940.1
9786	2.6739	3.8182	5.e-002	37.304
9787	2.6739	3.5455	0.	6202.2
9788	2.5848	3.6364	0.	6047.6
9789	2.6739	3.6364	5.e-002	36.033
9790	2.6739	3.3636	0.	6288.3
9791	2.5848	3.4545	0.	6135.5
9792	2.6739	3.4545	5.e-002	35.84
9793	2.6739	3.1818	0.	6342.4
9794	2.5848	3.2727	0.	6197.9
9795	2.6739	3.2727	5.e-002	36.246
9796	2.6739	3.	0.	6360.9
9797	2.5848	3.0909	0.	6230.3
9798	2.6739	3.0909	5.e-002	36.636
9799	2.6739	2.8182	0.	6342.4
9800	2.5848	2.9091	0.	6230.3
9801	2.6739	2.9091	5.e-002	36.636
9802	2.6739	2.6364	0.	6288.3
9803	2.5848	2.7273	0.	6197.9
9804	2.6739	2.7273	5.e-002	36.246
9805	2.6739	2.4545	0.	6202.2
9806	2.5848	2.5455	0.	6135.5
9807	2.6739	2.5455	5.e-002	35.84
9808	2.6739	2.2727	0.	6090.
9809	2.5848	2.3636	0.	6047.6
9810	2.6739	2.3636	5.e-002	36.033
9811	2.6739	2.0909	0.	5958.3
9812	2.5848	2.1818	0.	5940.1
9813	2.6739	2.1818	5.e-002	37.304
9814	2.6739	1.9091	0.	5813.
9815	2.5848	2.	0.	5818.7
9816	2.6739	2.	5.e-002	39.596
9817	2.6739	1.7273	0.	5659.
9818	2.5848	1.8182	0.	5688.6
9819	2.6739	1.8182	5.e-002	42.48
9820	2.6739	1.5455	0.	5499.9
9821	2.5848	1.6364	0.	5553.4
9822	2.6739	1.6364	5.e-002	45.601
9823	2.6739	1.3636	0.	5339.7
9824	2.5848	1.4545	0.	5416.6
9825	2.6739	1.4545	5.e-002	48.789
9826	2.6739	1.1818	0.	5183.4
9827	2.5848	1.2727	0.	5282.2
9828	2.6739	1.2727	5.e-002	51.871
9829	2.6739	1.	0.	5037.2
9830	2.5848	1.0909	0.	5154.8
9831	2.6739	1.0909	5.e-002	54.589
9832	2.6739	0.81818	0.	4907.4
9833	2.5848	0.90909	0.	5039.9
9834	2.6739	0.90909	5.e-002	56.697
9835	2.6739	0.63636	0.	4799.5
9836	2.5848	0.72727	0.	4942.4
9837	2.6739	0.72727	5.e-002	58.068
9838	2.6739	0.45455	0.	4717.4
9839	2.5848	0.54545	0.	4866.
9840	2.6739	0.54545	5.e-002	58.785
9841	2.6739	0.27273	0.	4670.4
9842	2.5848	0.36364	0.	4813.1
9843	2.6739	0.36364	5.e-002	60.437
9844	2.5848	0.18182	0.	4798.6
9845	2.6739	0.18182	5.e-002	86.62
9846	2.6739	9.0909e-002	0.	4581.6
9847	2.4957	5.7273	0.	4941.5
9848	2.4065	5.8182	0.	5059.5
9849	2.4957	5.8182	5.e-002	78.887
9850	2.4957	5.9091	0.	4874.3
9851	2.4957	5.5455	0.	4962.
9852	2.4065	5.6364	0.	5051.6
9853	2.4957	5.6364	5.e-002	52.65
9854	2.4957	5.3636	0.	5009.8
9855	2.4065	5.4545	0.	5075.7
9856	2.4957	5.4545	5.e-002	51.42
9857	2.4957	5.1818	0.	5076.4
9858	2.4065	5.2727	0.	5117.1
9859	2.4957	5.2727	5.e-002	51.205
9860	2.4957	5.	0.	5159.4
9861	2.4065	5.0909	0.	5174.4
9862	2.4957	5.0909	5.e-002	50.416
9863	2.4957	4.8182	0.	5255.5
9864	2.4065	4.9091	0.	5245.7
9865	2.4957	4.9091	5.e-002	48.955
9866	2.4957	4.6364	0.	5360.9
9867	2.4065	4.7273	0.	5328.
9868	2.4957	4.7273	5.e-002	46.875
9869	2.4957	4.4545	0.	5471.6
9870	2.4065	4.5455	0.	5418.
9871	2.4957	4.5455	5.e-002	44.267
9872	2.4957	4.2727	0.	5584.
9873	2.4065	4.3636	0.	5512.4
9874	2.4957	4.3636	5.e-002	41.22
9875	2.4957	4.0909	0.	5694.8
9876	2.4065	4.1818	0.	5608.
9877	2.4957	4.1818	5.e-002	37.812
9878	2.4957	3.9091	0.	5800.6
9879	2.4065	4.	0.	5701.8
9880	2.4957	4.	5.e-002	34.196
9881	2.4957	3.7273	0.	5897.3
9882	2.4065	3.8182	0.	5790.4
9883	2.4957	3.8182	5.e-002	30.708
9884	2.4957	3.5455	0.	5980.1
9885	2.4065	3.6364	0.	5869.4
9886	2.4957	3.6364	5.e-002	27.83
9887	2.4957	3.3636	0.	6043.9
9888	2.4065	3.4545	0.	5934.3
9889	2.4957	3.4545	5.e-002	25.926
9890	2.4957	3.1818	0.	6084.2
9891	2.4065	3.2727	0.	5980.5
9892	2.4957	3.2727	5.e-002	24.977
9893	2.4957	3.	0.	6098.
9894	2.4065	3.0909	0.	6004.6
9895	2.4957	3.0909	5.e-002	24.652
9896	2.4957	2.8182	0.	6084.2
9897	2.4065	2.9091	0.	6004.6
9898	2.4957	2.9091	5.e-002	24.652
9899	2.4957	2.6364	0.	6043.9
9900	2.4065	2.7273	0.	5980.5
9901	2.4957	2.7273	5.e-002	24.977
9902	2.4957	2.4545	0.	5980.1
9903	2.4065	2.5455	0.	5934.3
9904	2.4957	2.5455	5.e-002	25.926
9905	2.4957	2.2727	0.	5897.3
9906	2.4065	2.3636	0.	5869.4
9907	2.4957	2.3636	5.e-002	27.83
9908	2.4957	2.0909	0.	5800.6
9909	2.4065	2.1818	0.	5790.4
9910	2.4957	2.1818	5.e-002	30.708
9911	2.4957	1.9091	0.	5694.8
9912	2.4065	2.	0.	5701.9
9913	2.4957	2.	5.e-002	34.196
9914	2.4957	1.7273	0.	5584.
9915	2.4065	1.8182	0.	5608.
9916	2.4957	1.8182	5.e-002	37.812
9917	2.4957	1.5455	0.	5471.6
9918	2.4065	1.6364	0.	5512.4
9919	2.4957	1.6364	5.e-002	41.22
9920	2.4957	1.3636	0.	5361.
9921	2.4065	1.4545	0.	5418.
9922	2.4957	1.4545	5.e-002	44.267
9923	2.4957	1.1818	0.	5255.5
9924	2.4065	1.2727	0.	5328.
9925	2.4957	1.2727	5.e-002	46.875
9926	2.4957	1.	0.	5159.4
9927	2.4065	1.0909	0.	5245.7
9928	2.4957	1.0909	5.e-002	48.955
9929	2.4957	0.81818	0.	5076.4
9930	2.4065	0.90909	0.	5174.4
9931	2.4957	0.90909	5.e-002	50.416
9932	2.4957	0.63636	0.	5009.8
9933	2.4065	0.72727	0.	5117.1
9934	2.4957	0.72727	5.e-002	51.205
9935	2.4957	0.45455	0.	4962.
9936	2.4065	0.54545	0.	5075.7
9937	2.4957	0.54545	5.e-002	51.42
9938	2.4957	0.27273	0.	4941.5
9939	2.4065	0.36364	0.	5051.6
9940	2.4957	0.36364	5.e-002	52.65
9941	2.4065	0.18182	0.	5059.5
9942	2.4957	0.18182	5.e-002	78.887
9943	2.4957	9.0909e-002	0.	4874.3
9944	2.3174	5.7273	0.	5169.6
9945	2.2283	5.8182	0.	5280.1
9946	2.3174	5.8182	5.e-002	72.465
9947	2.3174	5.9091	0.	5122.2
9948	2.3174	5.5455	0.	5165.3
9949	2.2283	5.6364	0.	5250.
9950	2.3174	5.6364	5.e-002	46.131
9951	2.3174	5.3636	0.	5183.2
9952	2.2283	5.4545	0.	5248.1
9953	2.3174	5.4545	5.e-002	45.447
9954	2.3174	5.1818	0.	5215.7
9955	2.2283	5.2727	0.	5259.9
9956	2.3174	5.2727	5.e-002	45.827
9957	2.3174	5.	0.	5261.5
9958	2.2283	5.0909	0.	5284.7
9959	2.3174	5.0909	5.e-002	45.658
9960	2.3174	4.8182	0.	5318.9
9961	2.2283	4.9091	0.	5321.9
9962	2.3174	4.9091	5.e-002	44.806
9963	2.3174	4.6364	0.	5385.7
9964	2.2283	4.7273	0.	5370.
9965	2.3174	4.7273	5.e-002	43.259
9966	2.3174	4.4545	0.	5459.2
9967	2.2283	4.5455	0.	5426.7
9968	2.3174	4.5455	5.e-002	41.032
9969	2.3174	4.2727	0.	5536.6
9970	2.2283	4.3636	0.	5489.7
9971	2.3174	4.3636	5.e-002	38.149
9972	2.3174	4.0909	0.	5615.1
9973	2.2283	4.1818	0.	5556.3
9974	2.3174	4.1818	5.e-002	34.652
9975	2.3174	3.9091	0.	5691.5
9976	2.2283	4.	0.	5623.5
9977	2.3174	4.	5.e-002	30.655
9978	2.3174	3.7273	0.	5762.1
9979	2.2283	3.8182	0.	5688.
9980	2.3174	3.8182	5.e-002	26.395
9981	2.3174	3.5455	0.	5823.
9982	2.2283	3.6364	0.	5746.2
9983	2.3174	3.6364	5.e-002	22.243
9984	2.3174	3.3636	0.	5870.2
9985	2.2283	3.4545	0.	5794.3
9986	2.3174	3.4545	5.e-002	18.644
9987	2.3174	3.1818	0.	5900.
9988	2.2283	3.2727	0.	5828.7
9989	2.3174	3.2727	5.e-002	16.009
9990	2.3174	3.	0.	5910.3
9991	2.2283	3.0909	0.	5846.6
9992	2.3174	3.0909	5.e-002	14.625
9993	2.3174	2.8182	0.	5900.
9994	2.2283	2.9091	0.	5846.6
9995	2.3174	2.9091	5.e-002	14.625
9996	2.3174	2.6364	0.	5870.2
9997	2.2283	2.7273	0.	5828.7
9998	2.3174	2.7273	5.e-002	16.009
9999	2.3174	2.4545	0.	5823.
10000	2.2283	2.5455	0.	5794.3
10001	2.3174	2.5455	5.e-002	18.644
10002	2.3174	2.2727	0.	5762.1
10003	2.2283	2.3636	0.	5746.2
10004	2.3174	2.3636	5.e-002	22.243
10005	2.3174	2.0909	0.	5691.5
10006	2.2283	2.1818	0.	5688.
10007	2.3174	2.1818	5.e-002	26.395
10008	2.3174	1.9091	0.	5615.1
10009	2.2283	2.	0.	5623.5
10010	2.3174	2.	5.e-002	30.655
10011	2.3174	1.7273	0.	5536.6
10012	2.2283	1.8182	0.	5556.3
10013	2.3174	1.8182	5.e-002	34.652
10014	2.3174	1.5455	0.	5459.2
10015	2.2283	1.6364	0.	5489.7
10016	2.3174	1.6364	5.e-002	38.149
10017	2.3174	1.3636	0.	5385.7
10018	2.2283	1.4545	0.	5426.7
10019	2.3174	1.4545	5.e-002	41.032
10020	2.3174	1.1818	0.	5318.9
10021	2.2283	1.2727	0.	5370.
10022	2.3174	1.2727	5.e-002	43.259
10023	2.3174	1.	0.	5261.5
10024	2.2283	1.0909	0.	5321.9
10025	2.3174	1.0909	5.e-002	44.806
10026	2.3174	0.81818	0.	5215.7
10027	2.2283	0.90909	0.	5284.7
10028	2.3174	0.90909	5.e-002	45.658
10029	2.3174	0.63636	0.	5183.2
10030	2.2283	0.72727	0.	5259.9
10031	2.3174	0.72727	5.e-002	45.827
10032	2.3174	0.45455	0.	5165.3
10033	2.2283	0.54545	0.	5248.1
10034	2.3174	0.54545	5.e-002	45.447
10035	2.3174	0.27273	0.	5169.6
10036	2.2283	0.36364	0.	5250.
10037	2.3174	0.36364	5.e-002	46.131
10038	2.2283	0.18182	0.	5280.1
10039	2.3174	0.18182	5.e-002	72.465
10040	2.3174	9.0909e-002	0.	5122.2
10041	2.1391	5.7273	0.	5360.3
10042	2.05	5.8182	0.	5465.4
10043	2.1391	5.8182	5.e-002	67.351
10044	2.1391	5.9091	0.	5330.6
10045	2.1391	5.5455	0.	5332.6
10046	2.05	5.6364	0.	5413.2
10047	2.1391	5.6364	5.e-002	40.885
10048	2.1391	5.3636	0.	5324.6
10049	2.05	5.4545	0.	5388.
10050	2.1391	5.4545	5.e-002	40.826
10051	2.1391	5.1818	0.	5328.9
10052	2.05	5.2727	0.	5374.6
10053	2.1391	5.2727	5.e-002	41.815
10054	2.1391	5.	0.	5345.2
10055	2.05	5.0909	0.	5373.3
10056	2.1391	5.0909	5.e-002	42.22
10057	2.1391	4.8182	0.	5373.
10058	2.05	4.9091	0.	5384.2
10059	2.1391	4.9091	5.e-002	41.876
10060	2.1391	4.6364	0.	5410.9
10061	2.05	4.7273	0.	5406.8
10062	2.1391	4.7273	5.e-002	40.744
10063	2.1391	4.4545	0.	5457.1
10064	2.05	4.5455	0.	5439.5
10065	2.1391	4.5455	5.e-002	38.82
10066	2.1391	4.2727	0.	5509.2
10067	2.05	4.3636	0.	5480.2
10068	2.1391	4.3636	5.e-002	36.118
10069	2.1391	4.0909	0.	5564.4
10070	2.05	4.1818	0.	5526.3
10071	2.1391	4.1818	5.e-002	32.682
10072	2.1391	3.9091	0.	5619.7
10073	2.05	4.	0.	5574.9
10074	2.1391	4.	5.e-002	28.6
10075	2.1391	3.7273	0.	5671.7
10076	2.05	3.8182	0.	5622.8
10077	2.1391	3.8182	5.e-002	24.024
10078	2.1391	3.5455	0.	5717.
10079	2.05	3.6364	0.	5666.5
10080	2.1391	3.6364	5.e-002	19.166
10081	2.1391	3.3636	0.	5752.2
10082	2.05	3.4545	0.	5702.9
10083	2.1391	3.4545	5.e-002	14.289
10084	2.1391	3.1818	0.	5774.6
10085	2.05	3.2727	0.	5729.1
10086	2.1391	3.2727	5.e-002	9.7458
10087	2.1391	3.	0.	5782.3
10088	2.05	3.0909	0.	5742.7
10089	2.1391	3.0909	5.e-002	6.3962
10090	2.1391	2.8182	0.	5774.6
10091	2.05	2.9091	0.	5742.7
10092	2.1391	2.9091	5.e-002	6.3962
10093	2.1391	2.6364	0.	5752.2
10094	2.05	2.7273	0.	5729.1
10095	2.1391	2.7273	5.e-002	9.7458
10096	2.1391	2.4545	0.	5717.
10097	2.05	2.5455	0.	5702.9
10098	2.1391	2.5455	5.e-002	14.289
10099	2.1391	2.2727	0.	5671.7
10100	2.05	2.3636	0.	5666.5
10101	2.1391	2.3636	5.e-002	19.166
10102	2.1391	2.0909	0.	5619.7
10103	2.05	2.1818	0.	5622.8
10104	2.1391	2.1818	5.e-002	24.024
10105	2.1391	1.9091	0.	5564.4
10106	2.05	2.	0.	5574.9
10107	2.1391	2.	5.e-002	28.6
10108	2.1391	1.7273	0.	5509.2
10109	2.05	1.8182	0.	5526.3
10110	2.1391	1.8182	5.e-002	32.682
10111	2.1391	1.5455	0.	5457.1
10112	2.05	1.6364	0.	5480.2
10113	2.1391	1.6364	5.e-002	36.118
10114	2.1391	1.3636	0.	5410.9
10115	2.05	1.4545	0.	5439.5
10116	2.1391	1.4545	5.e-002	38.82
10117	2.1391	1.1818	0.	5373.
10118	2.05	1.2727	0.	5406.8
10119	2.1391	1.2727	5.e-002	40.744
10120	2.1391	1.	0.	5345.2
10121	2.05	1.0909	0.	5384.2
10122	2.1391	1.0909	5.e-002	41.876
10123	2.1391	0.81818	0.	5328.9
10124	2.05	0.90909	0.	5373.3
10125	2.1391	0.90909	5.e-002	42.22
10126	2.1391	0.63636	0.	5324.6
10127	2.05	0.72727	0.	5374.6
10128	2.1391	0.72727	5.e-002	41.815
10129	2.1391	0.45455	0.	5332.6
10130	2.05	0.54545	0.	5388.
10131	2.1391	0.54545	5.e-002	40.826
10132	2.1391	0.27273	0.	5360.3
10133	2.05	0.36364	0.	5413.2
10134	2.1391	0.36364	5.e-002	40.885
10135	2.05	0.18182	0.	5465.4
10136	2.1391	0.18182	5.e-002	67.351
10137	2.1391	9.0909e-002	0.	5330.6
10138	1.9609	5.7273	0.	5517.9
10139	1.8717	5.8182	0.	5619.
10140	1.9609	5.8182	5.e-002	63.45
10141	1.9609	5.9091	0.	5504.
10142	1.9609	5.5455	0.	5468.2
10143	1.8717	5.6364	0.	5545.1
10144	1.9609	5.6364	5.e-002	36.916
10145	1.9609	5.3636	0.	5437.6
10146	1.8717	5.4545	0.	5498.7
10147	1.9609	5.4545	5.e-002	37.537
10148	1.9609	5.1818	0.	5418.6
10149	1.8717	5.2727	0.	5464.1
10150	1.9609	5.2727	5.e-002	39.087
10151	1.9609	5.	0.	5411.9
10152	1.8717	5.0909	0.	5442.
10153	1.9609	5.0909	5.e-002	39.962
10154	1.9609	4.8182	0.	5417.7
10155	1.8717	4.9091	0.	5433.4
10156	1.9609	4.9091	5.e-002	39.995
10157	1.9609	4.6364	0.	5435.
10158	1.8717	4.7273	0.	5438.1
10159	1.9609	4.7273	5.e-002	39.158
10160	1.9609	4.4545	0.	5462.2
10161	1.8717	4.5455	0.	5454.6
10162	1.9609	4.5455	5.e-002	37.462
10163	1.9609	4.2727	0.	5497.
10164	1.8717	4.3636	0.	5480.9
10165	1.9609	4.3636	5.e-002	34.948
10166	1.9609	4.0909	0.	5536.5
10167	1.8717	4.1818	0.	5513.9
10168	1.9609	4.1818	5.e-002	31.679
10169	1.9609	3.9091	0.	5577.7
10170	1.8717	4.	0.	5550.7
10171	1.9609	4.	5.e-002	27.749
10172	1.9609	3.7273	0.	5617.2
10173	1.8717	3.8182	0.	5587.9
10174	1.9609	3.8182	5.e-002	23.282
10175	1.9609	3.5455	0.	5652.1
10176	1.8717	3.6364	0.	5622.5
10177	1.9609	3.6364	5.e-002	18.424
10178	1.9609	3.3636	0.	5679.3
10179	1.8717	3.4545	0.	5651.4
10180	1.9609	3.4545	5.e-002	13.324
10181	1.9609	3.1818	0.	5696.7
10182	1.8717	3.2727	0.	5672.2
10183	1.9609	3.2727	5.e-002	8.1216
10184	1.9609	3.	0.	5702.7
10185	1.8717	3.0909	0.	5683.
10186	1.9609	3.0909	5.e-002	3.0669
10187	1.9609	2.8182	0.	5696.7
10188	1.8717	2.9091	0.	5683.
10189	1.9609	2.9091	5.e-002	3.0669
10190	1.9609	2.6364	0.	5679.3
10191	1.8717	2.7273	0.	5672.2
10192	1.9609	2.7273	5.e-002	8.1216
10193	1.9609	2.4545	0.	5652.1
10194	1.8717	2.5455	0.	5651.4
10195	1.9609	2.5455	5.e-002	13.324
10196	1.9609	2.2727	0.	5617.2
10197	1.8717	2.3636	0.	5622.5
10198	1.9609	2.3636	5.e-002	18.424
10199	1.9609	2.0909	0.	5577.7
10200	1.8717	2.1818	0.	5587.9
10201	1.9609	2.1818	5.e-002	23.282
10202	1.9609	1.9091	0.	5536.5
10203	1.8717	2.	0.	5550.7
10204	1.9609	2.	5.e-002	27.749
10205	1.9609	1.7273	0.	5497.
10206	1.8717	1.8182	0.	5513.9
10207	1.9609	1.8182	5.e-002	31.679
10208	1.9609	1.5455	0.	5462.2
10209	1.8717	1.6364	0.	5480.9
10210	1.9609	1.6364	5.e-002	34.948
10211	1.9609	1.3636	0.	5435.
10212	1.8717	1.4545	0.	5454.6
10213	1.9609	1.4545	5.e-002	37.462
10214	1.9609	1.1818	0.	5417.7
10215	1.8717	1.2727	0.	5438.1
10216	1.9609	1.2727	5.e-002	39.158
10217	1.9609	1.	0.	5411.9
10218	1.8717	1.0909	0.	5433.4
10219	1.9609	1.0909	5.e-002	39.995
10220	1.9609	0.81818	0.	5418.6
10221	1.8717	0.90909	0.	5442.
10222	1.9609	0.90909	5.e-002	39.962
10223	1.9609	0.63636	0.	5437.6
10224	1.8717	0.72727	0.	5464.1
10225	1.9609	0.72727	5.e-002	39.087
10226	1.9609	0.45455	0.	5468.2
10227	1.8717	0.54545	0.	5498.7
10228	1.9609	0.54545	5.e-002	37.537
10229	1.9609	0.27273	0.	5517.9
10230	1.8717	0.36364	0.	5545.1
10231	1.9609	0.36364	5.e-002	36.916
10232	1.8717	0.18182	0.	5619.
10233	1.9609	0.18182	5.e-002	63.45
10234	1.9609	9.0909e-002	0.	5504.
10235	1.7826	5.7273	0.	5645.7
10236	1.6935	5.8182	0.	5743.5
10237	1.7826	5.8182	5.e-002	60.603
10238	1.7826	5.9091	0.	5645.3
10239	1.7826	5.5455	0.	5575.1
10240	1.6935	5.6364	0.	5647.9
10241	1.7826	5.6364	5.e-002	34.267
10242	1.7826	5.3636	0.	5524.6
10243	1.6935	5.4545	0.	5582.1
10244	1.7826	5.4545	5.e-002	35.605
10245	1.7826	5.1818	0.	5486.8
10246	1.6935	5.2727	0.	5529.7
10247	1.7826	5.2727	5.e-002	37.612
10248	1.7826	5.	0.	5462.8
10249	1.6935	5.0909	0.	5491.9
10250	1.7826	5.0909	5.e-002	38.808
10251	1.7826	4.8182	0.	5453.2
10252	1.6935	4.9091	0.	5470.1
10253	1.7826	4.9091	5.e-002	39.062
10254	1.7826	4.6364	0.	5457.1
10255	1.6935	4.7273	0.	5463.8
10256	1.7826	4.7273	5.e-002	38.391
10257	1.7826	4.4545	0.	5472.7
10258	1.6935	4.5455	0.	5471.4
10259	1.7826	4.5455	5.e-002	36.849
10260	1.7826	4.2727	0.	5497.3
10261	1.6935	4.3636	0.	5490.1
10262	1.7826	4.3636	5.e-002	34.515
10263	1.7826	4.0909	0.	5527.7
10264	1.6935	4.1818	0.	5516.6
10265	1.7826	4.1818	5.e-002	31.485
10266	1.7826	3.9091	0.	5560.6
10267	1.6935	4.	0.	5547.3
10268	1.7826	4.	5.e-002	27.873
10269	1.7826	3.7273	0.	5592.8
10270	1.6935	3.8182	0.	5579.1
10271	1.7826	3.8182	5.e-002	23.82
10272	1.7826	3.5455	0.	5621.4
10273	1.6935	3.6364	0.	5608.7
10274	1.7826	3.6364	5.e-002	19.497
10275	1.7826	3.3636	0.	5643.9
10276	1.6935	3.4545	0.	5633.5
10277	1.7826	3.4545	5.e-002	15.134
10278	1.7826	3.1818	0.	5658.2
10279	1.6935	3.2727	0.	5651.2
10280	1.7826	3.2727	5.e-002	11.124
10281	1.7826	3.	0.	5663.1
10282	1.6935	3.0909	0.	5660.5
10283	1.7826	3.0909	5.e-002	8.3584
10284	1.7826	2.8182	0.	5658.2
10285	1.6935	2.9091	0.	5660.5
10286	1.7826	2.9091	5.e-002	8.3584
10287	1.7826	2.6364	0.	5643.9
10288	1.6935	2.7273	0.	5651.2
10289	1.7826	2.7273	5.e-002	11.124
10290	1.7826	2.4545	0.	5621.4
10291	1.6935	2.5455	0.	5633.5
10292	1.7826	2.5455	5.e-002	15.134
10293	1.7826	2.2727	0.	5592.8
10294	1.6935	2.3636	0.	5608.7
10295	1.7826	2.3636	5.e-002	19.497
10296	1.7826	2.0909	0.	5560.6
10297	1.6935	2.1818	0.	5579.1
10298	1.7826	2.1818	5.e-002	23.82
10299	1.7826	1.9091	0.	5527.7
10300	1.6935	2.	0.	5547.3
10301	1.7826	2.	5.e-002	27.873
10302	1.7826	1.7273	0.	5497.3
10303	1.6935	1.8182	0.	5516.6
10304	1.7826	1.8182	5.e-002	31.485
10305	1.7826	1.5455	0.	5472.7
10306	1.6935	1.6364	0.	5490.1
10307	1.7826	1.6364	5.e-002	34.515
10308	1.7826	1.3636	0.	5457.1
10309	1.6935	1.4545	0.	5471.4
10310	1.7826	1.4545	5.e-002	36.849
10311	1.7826	1.1818	0.	5453.2
10312	1.6935	1.2727	0.	5463.8
10313	1.7826	1.2727	5.e-002	38.391
10314	1.7826	1.	0.	5462.8
10315	1.6935	1.0909	0.	5470.1
10316	1.7826	1.0909	5.e-002	39.062
10317	1.7826	0.81818	0.	5486.8
10318	1.6935	0.90909	0.	5491.9
10319	1.7826	0.90909	5.e-002	38.808
10320	1.7826	0.63636	0.	5524.6
10321	1.6935	0.72727	0.	5529.7
10322	1.7826	0.72727	5.e-002	37.612
10323	1.7826	0.45455	0.	5575.1
10324	1.6935	0.54545	0.	5582.1
10325	1.7826	0.54545	5.e-002	35.605
10326	1.7826	0.27273	0.	5645.7
10327	1.6935	0.36364	0.	5647.9
10328	1.7826	0.36364	5.e-002	34.267
10329	1.6935	0.18182	0.	5743.5
10330	1.7826	0.18182	5.e-002	60.603
10331	1.7826	9.0909e-002	0.	5645.3
10332	1.6043	5.7273	0.	5744.9
10333	1.5152	5.8182	0.	5839.4
10334	1.6043	5.8182	5.e-002	58.608
10335	1.6043	5.9091	0.	5756.1
10336	1.6043	5.5455	0.	5654.3
10337	1.5152	5.6364	0.	5721.7
10338	1.6043	5.6364	5.e-002	33.065
10339	1.6043	5.3636	0.	5586.5
10340	1.5152	5.4545	0.	5638.4
10341	1.6043	5.4545	5.e-002	35.125
10342	1.6043	5.1818	0.	5534.
10343	1.5152	5.2727	0.	5571.7
10344	1.6043	5.2727	5.e-002	37.417
10345	1.6043	5.	0.	5498.3
10346	1.5152	5.0909	0.	5523.4
10347	1.6043	5.0909	5.e-002	38.729
10348	1.6043	4.8182	0.	5479.8
10349	1.5152	4.9091	0.	5494.6
10350	1.6043	4.9091	5.e-002	39.021
10351	1.6043	4.6364	0.	5477.3
10352	1.5152	4.7273	0.	5484.4
10353	1.6043	4.7273	5.e-002	38.38
10354	1.6043	4.4545	0.	5488.1
10355	1.5152	4.5455	0.	5489.9
10356	1.6043	4.5455	5.e-002	36.916
10357	1.6043	4.2727	0.	5508.8
10358	1.5152	4.3636	0.	5507.6
10359	1.6043	4.3636	5.e-002	34.746
10360	1.6043	4.0909	0.	5535.8
10361	1.5152	4.1818	0.	5533.3
10362	1.6043	4.1818	5.e-002	31.992
10363	1.6043	3.9091	0.	5565.5
10364	1.5152	4.	0.	5563.2
10365	1.6043	4.	5.e-002	28.79
10366	1.6043	3.7273	0.	5594.7
10367	1.5152	3.8182	0.	5593.6
10368	1.6043	3.8182	5.e-002	25.301
10369	1.6043	3.5455	0.	5620.4
10370	1.5152	3.6364	0.	5621.7
10371	1.6043	3.6364	5.e-002	21.724
10372	1.6043	3.3636	0.	5640.6
10373	1.5152	3.4545	0.	5645.
10374	1.6043	3.4545	5.e-002	18.334
10375	1.6043	3.1818	0.	5653.4
10376	1.5152	3.2727	0.	5661.6
10377	1.6043	3.2727	5.e-002	15.533
10378	1.6043	3.	0.	5657.7
10379	1.5152	3.0909	0.	5670.2
10380	1.6043	3.0909	5.e-002	13.877
10381	1.6043	2.8182	0.	5653.4
10382	1.5152	2.9091	0.	5670.2
10383	1.6043	2.9091	5.e-002	13.877
10384	1.6043	2.6364	0.	5640.6
10385	1.5152	2.7273	0.	5661.6
10386	1.6043	2.7273	5.e-002	15.533
10387	1.6043	2.4545	0.	5620.4
10388	1.5152	2.5455	0.	5645.
10389	1.6043	2.5455	5.e-002	18.334
10390	1.6043	2.2727	0.	5594.7
10391	1.5152	2.3636	0.	5621.7
10392	1.6043	2.3636	5.e-002	21.724
10393	1.6043	2.0909	0.	5565.5
10394	1.5152	2.1818	0.	5593.6
10395	1.6043	2.1818	5.e-002	25.301
10396	1.6043	1.9091	0.	5535.8
10397	1.5152	2.	0.	5563.2
10398	1.6043	2.	5.e-002	28.79
10399	1.6043	1.7273	0.	5508.8
10400	1.5152	1.8182	0.	5533.3
10401	1.6043	1.8182	5.e-002	31.992
10402	1.6043	1.5455	0.	5488.1
10403	1.5152	1.6364	0.	5507.6
10404	1.6043	1.6364	5.e-002	34.746
10405	1.6043	1.3636	0.	5477.3
10406	1.5152	1.4545	0.	5489.9
10407	1.6043	1.4545	5.e-002	36.916
10408	1.6043	1.1818	0.	5479.8
10409	1.5152	1.2727	0.	5484.4
10410	1.6043	1.2727	5.e-002	38.38
10411	1.6043	1.	0.	5498.3
10412	1.5152	1.0909	0.	5494.6
10413	1.6043	1.0909	5.e-002	39.021
10414	1.6043	0.81818	0.	5534.
10415	1.5152	0.90909	0.	5523.4
10416	1.6043	0.90909	5.e-002	38.729
10417	1.6043	0.63636	0.	5586.5
10418	1.5152	0.72727	0.	5571.7
10419	1.6043	0.72727	5.e-002	37.417
10420	1.6043	0.45455	0.	5654.3
10421	1.5152	0.54545	0.	5638.4
10422	1.6043	0.54545	5.e-002	35.125
10423	1.6043	0.27273	0.	5744.9
10424	1.5152	0.36364	0.	5721.7
10425	1.6043	0.36364	5.e-002	33.065
10426	1.5152	0.18182	0.	5839.4
10427	1.6043	0.18182	5.e-002	58.608
10428	1.6043	9.0909e-002	0.	5756.1
10429	1.4261	5.7273	0.	5815.1
10430	1.337	5.8182	0.	5905.
10431	1.4261	5.8182	5.e-002	57.241
10432	1.4261	5.9091	0.	5835.8
10433	1.4261	5.5455	0.	5705.
10434	1.337	5.6364	0.	5764.5
10435	1.4261	5.6364	5.e-002	33.564
10436	1.4261	5.3636	0.	5622.6
10437	1.337	5.4545	0.	5665.7
10438	1.4261	5.4545	5.e-002	36.28
10439	1.4261	5.1818	0.	5559.9
10440	1.337	5.2727	0.	5588.8
10441	1.4261	5.2727	5.e-002	38.59
10442	1.4261	5.	0.	5518.5
10443	1.337	5.0909	0.	5536.
10444	1.4261	5.0909	5.e-002	39.746
10445	1.4261	4.8182	0.	5498.1
10446	1.337	4.9091	0.	5507.6
10447	1.4261	4.9091	5.e-002	39.856
10448	1.4261	4.6364	0.	5496.1
10449	1.337	4.7273	0.	5501.
10450	1.4261	4.7273	5.e-002	39.1
10451	1.4261	4.4545	0.	5508.8
10452	1.337	4.5455	0.	5511.7
10453	1.4261	4.5455	5.e-002	37.639
10454	1.4261	4.2727	0.	5531.6
10455	1.337	4.3636	0.	5534.6
10456	1.4261	4.3636	5.e-002	35.609
10457	1.4261	4.0909	0.	5560.3
10458	1.337	4.1818	0.	5564.8
10459	1.4261	4.1818	5.e-002	33.141
10460	1.4261	3.9091	0.	5591.
10461	1.337	4.	0.	5598.
10462	1.4261	4.	5.e-002	30.374
10463	1.4261	3.7273	0.	5620.5
10464	1.337	3.8182	0.	5630.6
10465	1.4261	3.8182	5.e-002	27.467
10466	1.4261	3.5455	0.	5646.1
10467	1.337	3.6364	0.	5659.8
10468	1.4261	3.6364	5.e-002	24.613
10469	1.4261	3.3636	0.	5665.8
10470	1.337	3.4545	0.	5683.6
10471	1.4261	3.4545	5.e-002	22.053
10472	1.4261	3.1818	0.	5678.2
10473	1.337	3.2727	0.	5700.2
10474	1.4261	3.2727	5.e-002	20.075
10475	1.4261	3.	0.	5682.5
10476	1.337	3.0909	0.	5708.8
10477	1.4261	3.0909	5.e-002	18.98
10478	1.4261	2.8182	0.	5678.2
10479	1.337	2.9091	0.	5708.8
10480	1.4261	2.9091	5.e-002	18.98
10481	1.4261	2.6364	0.	5665.8
10482	1.337	2.7273	0.	5700.2
10483	1.4261	2.7273	5.e-002	20.075
10484	1.4261	2.4545	0.	5646.1
10485	1.337	2.5455	0.	5683.6
10486	1.4261	2.5455	5.e-002	22.053
10487	1.4261	2.2727	0.	5620.5
10488	1.337	2.3636	0.	5659.8
10489	1.4261	2.3636	5.e-002	24.613
10490	1.4261	2.0909	0.	5591.
10491	1.337	2.1818	0.	5630.6
10492	1.4261	2.1818	5.e-002	27.467
10493	1.4261	1.9091	0.	5560.3
10494	1.337	2.	0.	5598.
10495	1.4261	2.	5.e-002	30.374
10496	1.4261	1.7273	0.	5531.6
10497	1.337	1.8182	0.	5564.8
10498	1.4261	1.8182	5.e-002	33.141
10499	1.4261	1.5455	0.	5508.8
10500	1.337	1.6364	0.	5534.6
10501	1.4261	1.6364	5.e-002	35.609
10502	1.4261	1.3636	0.	5496.1
10503	1.337	1.4545	0.	5511.7
10504	1.4261	1.4545	5.e-002	37.639
10505	1.4261	1.1818	0.	5498.1
10506	1.337	1.2727	0.	5501.
10507	1.4261	1.2727	5.e-002	39.1
10508	1.4261	1.	0.	5518.5
10509	1.337	1.0909	0.	5507.6
10510	1.4261	1.0909	5.e-002	39.856
10511	1.4261	0.81818	0.	5559.9
10512	1.337	0.90909	0.	5536.
10513	1.4261	0.90909	5.e-002	39.746
10514	1.4261	0.63636	0.	5622.6
10515	1.337	0.72727	0.	5588.8
10516	1.4261	0.72727	5.e-002	38.59
10517	1.4261	0.45455	0.	5705.
10518	1.337	0.54545	0.	5665.7
10519	1.4261	0.54545	5.e-002	36.28
10520	1.4261	0.27273	0.	5815.1
10521	1.337	0.36364	0.	5764.6
10522	1.4261	0.36364	5.e-002	33.564
10523	1.337	0.18182	0.	5905.
10524	1.4261	0.18182	5.e-002	57.241
10525	1.4261	9.0909e-002	0.	5835.8
10526	1.2478	5.7273	0.	5853.2
10527	1.1587	5.8182	0.	5935.3
10528	1.2478	5.8182	5.e-002	56.275
10529	1.2478	5.9091	0.	5881.3
10530	1.2478	5.5455	0.	5724.1
10531	1.1587	5.6364	0.	5771.
10532	1.2478	5.6364	5.e-002	36.204
10533	1.2478	5.3636	0.	5630.5
10534	1.1587	5.4545	0.	5659.
10535	1.2478	5.4545	5.e-002	39.365
10536	1.2478	5.1818	0.	5563.4
10537	1.1587	5.2727	0.	5577.8
10538	1.2478	5.2727	5.e-002	41.279
10539	1.2478	5.	0.	5523.7
10540	1.1587	5.0909	0.	5528.7
10541	1.2478	5.0909	5.e-002	41.907
10542	1.2478	4.8182	0.	5509.3
10543	1.1587	4.9091	0.	5510.
10544	1.2478	4.9091	5.e-002	41.576
10545	1.2478	4.6364	0.	5515.7
10546	1.1587	4.7273	0.	5515.8
10547	1.2478	4.7273	5.e-002	40.56
10548	1.2478	4.4545	0.	5536.9
10549	1.1587	4.5455	0.	5539.1
10550	1.2478	4.5455	5.e-002	39.033
10551	1.2478	4.2727	0.	5567.4
10552	1.1587	4.3636	0.	5573.2
10553	1.2478	4.3636	5.e-002	37.114
10554	1.2478	4.0909	0.	5602.2
10555	1.1587	4.1818	0.	5612.4
10556	1.2478	4.1818	5.e-002	34.911
10557	1.2478	3.9091	0.	5637.3
10558	1.1587	4.	0.	5652.2
10559	1.2478	4.	5.e-002	32.543
10560	1.2478	3.7273	0.	5669.8
10561	1.1587	3.8182	0.	5689.4
10562	1.2478	3.8182	5.e-002	30.146
10563	1.2478	3.5455	0.	5697.1
10564	1.1587	3.6364	0.	5721.6
10565	1.2478	3.6364	5.e-002	27.883
10566	1.2478	3.3636	0.	5717.8
10567	1.1587	3.4545	0.	5747.
10568	1.2478	3.4545	5.e-002	25.933
10569	1.2478	3.1818	0.	5730.6
10570	1.1587	3.2727	0.	5764.6
10571	1.2478	3.2727	5.e-002	24.487
10572	1.2478	3.	0.	5735.
10573	1.1587	3.0909	0.	5773.5
10574	1.2478	3.0909	5.e-002	23.712
10575	1.2478	2.8182	0.	5730.6
10576	1.1587	2.9091	0.	5773.5
10577	1.2478	2.9091	5.e-002	23.712
10578	1.2478	2.6364	0.	5717.8
10579	1.1587	2.7273	0.	5764.6
10580	1.2478	2.7273	5.e-002	24.487
10581	1.2478	2.4545	0.	5697.1
10582	1.1587	2.5455	0.	5747.
10583	1.2478	2.5455	5.e-002	25.933
10584	1.2478	2.2727	0.	5669.8
10585	1.1587	2.3636	0.	5721.6
10586	1.2478	2.3636	5.e-002	27.883
10587	1.2478	2.0909	0.	5637.3
10588	1.1587	2.1818	0.	5689.4
10589	1.2478	2.1818	5.e-002	30.146
10590	1.2478	1.9091	0.	5602.2
10591	1.1587	2.	0.	5652.2
10592	1.2478	2.	5.e-002	32.543
10593	1.2478	1.7273	0.	5567.4
10594	1.1587	1.8182	0.	5612.4
10595	1.2478	1.8182	5.e-002	34.911
10596	1.2478	1.5455	0.	5536.9
10597	1.1587	1.6364	0.	5573.2
10598	1.2478	1.6364	5.e-002	37.114
10599	1.2478	1.3636	0.	5515.7
10600	1.1587	1.4545	0.	5539.1
10601	1.2478	1.4545	5.e-002	39.033
10602	1.2478	1.1818	0.	5509.3
10603	1.1587	1.2727	0.	5515.8
10604	1.2478	1.2727	5.e-002	40.56
10605	1.2478	1.	0.	5523.7
10606	1.1587	1.0909	0.	5510.
10607	1.2478	1.0909	5.e-002	41.576
10608	1.2478	0.81818	0.	5563.4
10609	1.1587	0.90909	0.	5528.7
10610	1.2478	0.90909	5.e-002	41.907
10611	1.2478	0.63636	0.	5630.5
10612	1.1587	0.72727	0.	5577.8
10613	1.2478	0.72727	5.e-002	41.279
10614	1.2478	0.45455	0.	5724.2
10615	1.1587	0.54545	0.	5659.
10616	1.2478	0.54545	5.e-002	39.365
10617	1.2478	0.27273	0.	5853.2
10618	1.1587	0.36364	0.	5771.
10619	1.2478	0.36364	5.e-002	36.204
10620	1.1587	0.18182	0.	5935.3
10621	1.2478	0.18182	5.e-002	56.275
10622	1.2478	9.0909e-002	0.	5881.3
10623	1.0696	5.7273	0.	5851.4
10624	0.98043	5.8182	0.	5920.5
10625	1.0696	5.8182	5.e-002	55.615
10626	1.0696	5.9091	0.	5885.2
10627	1.0696	5.5455	0.	5704.3
10628	0.98043	5.6364	0.	5731.8
10629	1.0696	5.6364	5.e-002	41.736
10630	1.0696	5.3636	0.	5604.4
10631	0.98043	5.4545	0.	5611.9
10632	1.0696	5.4545	5.e-002	44.827
10633	1.0696	5.1818	0.	5541.2
10634	0.98043	5.2727	0.	5536.2
10635	1.0696	5.2727	5.e-002	45.692
10636	1.0696	5.	0.	5513.4
10637	0.98043	5.0909	0.	5503.7
10638	1.0696	5.0909	5.e-002	45.293
10639	1.0696	4.8182	0.	5515.2
10640	0.98043	4.9091	0.	5507.
10641	1.0696	4.9091	5.e-002	44.24
10642	1.0696	4.6364	0.	5538.3
10643	0.98043	4.7273	0.	5535.6
10644	1.0696	4.7273	5.e-002	42.838
10645	1.0696	4.4545	0.	5574.8
10646	0.98043	4.5455	0.	5579.2
10647	1.0696	4.5455	5.e-002	41.192
10648	1.0696	4.2727	0.	5617.8
10649	0.98043	4.3636	0.	5629.7
10650	1.0696	4.3636	5.e-002	39.342
10651	1.0696	4.0909	0.	5662.2
10652	0.98043	4.1818	0.	5681.3
10653	1.0696	4.1818	5.e-002	37.344
10654	1.0696	3.9091	0.	5704.2
10655	0.98043	4.	0.	5730.
10656	1.0696	4.	5.e-002	35.28
10657	1.0696	3.7273	0.	5741.2
10658	0.98043	3.8182	0.	5773.1
10659	1.0696	3.8182	5.e-002	33.26
10660	1.0696	3.5455	0.	5771.4
10661	0.98043	3.6364	0.	5809.1
10662	1.0696	3.6364	5.e-002	31.41
10663	1.0696	3.3636	0.	5793.7
10664	0.98043	3.4545	0.	5836.7
10665	1.0696	3.4545	5.e-002	29.863
10666	1.0696	3.1818	0.	5807.4
10667	0.98043	3.2727	0.	5855.4
10668	1.0696	3.2727	5.e-002	28.744
10669	1.0696	3.	0.	5812.
10670	0.98043	3.0909	0.	5864.9
10671	1.0696	3.0909	5.e-002	28.156
10672	1.0696	2.8182	0.	5807.4
10673	0.98043	2.9091	0.	5864.9
10674	1.0696	2.9091	5.e-002	28.156
10675	1.0696	2.6364	0.	5793.7
10676	0.98043	2.7273	0.	5855.4
10677	1.0696	2.7273	5.e-002	28.744
10678	1.0696	2.4545	0.	5771.4
10679	0.98043	2.5455	0.	5836.7
10680	1.0696	2.5455	5.e-002	29.863
10681	1.0696	2.2727	0.	5741.2
10682	0.98043	2.3636	0.	5809.1
10683	1.0696	2.3636	5.e-002	31.41
10684	1.0696	2.0909	0.	5704.2
10685	0.98043	2.1818	0.	5773.1
10686	1.0696	2.1818	5.e-002	33.26
10687	1.0696	1.9091	0.	5662.2
10688	0.98043	2.	0.	5730.
10689	1.0696	2.	5.e-002	35.28
10690	1.0696	1.7273	0.	5617.8
10691	0.98043	1.8182	0.	5681.3
10692	1.0696	1.8182	5.e-002	37.344
10693	1.0696	1.5455	0.	5574.8
10694	0.98043	1.6364	0.	5629.7
10695	1.0696	1.6364	5.e-002	39.342
10696	1.0696	1.3636	0.	5538.3
10697	0.98043	1.4545	0.	5579.2
10698	1.0696	1.4545	5.e-002	41.192
10699	1.0696	1.1818	0.	5515.2
10700	0.98043	1.2727	0.	5535.6
10701	1.0696	1.2727	5.e-002	42.838
10702	1.0696	1.	0.	5513.4
10703	0.98043	1.0909	0.	5507.
10704	1.0696	1.0909	5.e-002	44.24
10705	1.0696	0.81818	0.	5541.2
10706	0.98043	0.90909	0.	5503.7
10707	1.0696	0.90909	5.e-002	45.293
10708	1.0696	0.63636	0.	5604.4
10709	0.98043	0.72727	0.	5536.2
10710	1.0696	0.72727	5.e-002	45.692
10711	1.0696	0.45455	0.	5704.3
10712	0.98043	0.54545	0.	5611.9
10713	1.0696	0.54545	5.e-002	44.827
10714	1.0696	0.27273	0.	5851.4
10715	0.98043	0.36364	0.	5731.8
10716	1.0696	0.36364	5.e-002	41.736
10717	0.98043	0.18182	0.	5920.5
10718	1.0696	0.18182	5.e-002	55.615
10719	1.0696	9.0909e-002	0.	5885.2
10720	0.8913	5.7273	0.	5798.4
10721	0.80217	5.8182	0.	5839.8
10722	0.8913	5.8182	5.e-002	55.517
10723	0.8913	5.9091	0.	5834.5
10724	0.8913	5.5455	0.	5637.
10725	0.80217	5.6364	0.	5625.3
10726	0.8913	5.6364	5.e-002	51.356
10727	0.8913	5.3636	0.	5541.1
10728	0.80217	5.4545	0.	5507.2
10729	0.8913	5.4545	5.e-002	53.294
10730	0.8913	5.1818	0.	5496.4
10731	0.80217	5.2727	0.	5455.2
10732	0.8913	5.2727	5.e-002	52.02
10733	0.8913	5.	0.	5495.6
10734	0.80217	5.0909	0.	5458.5
10735	0.8913	5.0909	5.e-002	49.947
10736	0.8913	4.8182	0.	5526.3
10737	0.80217	4.9091	0.	5499.8
10738	0.8913	4.9091	5.e-002	47.911
10739	0.8913	4.6364	0.	5575.8
10740	0.80217	4.7273	0.	5561.9
10741	0.8913	4.7273	5.e-002	46.033
10742	0.8913	4.4545	0.	5633.7
10743	0.80217	4.5455	0.	5632.2
10744	0.8913	4.5455	5.e-002	44.201
10745	0.8913	4.2727	0.	5693.
10746	0.80217	4.3636	0.	5702.5
10747	0.8913	4.3636	5.e-002	42.326
10748	0.8913	4.0909	0.	5749.
10749	0.80217	4.1818	0.	5768.
10750	0.8913	4.1818	5.e-002	40.401
10751	0.8913	3.9091	0.	5798.9
10752	0.80217	4.	0.	5825.9
10753	0.8913	4.	5.e-002	38.479
10754	0.8913	3.7273	0.	5841.
10755	0.80217	3.8182	0.	5874.8
10756	0.8913	3.8182	5.e-002	36.649
10757	0.8913	3.5455	0.	5874.4
10758	0.80217	3.6364	0.	5914.2
10759	0.8913	3.6364	5.e-002	35.015
10760	0.8913	3.3636	0.	5898.4
10761	0.80217	3.4545	0.	5943.7
10762	0.8913	3.4545	5.e-002	33.678
10763	0.8913	3.1818	0.	5912.9
10764	0.80217	3.2727	0.	5963.4
10765	0.8913	3.2727	5.e-002	32.728
10766	0.8913	3.	0.	5917.8
10767	0.80217	3.0909	0.	5973.2
10768	0.8913	3.0909	5.e-002	32.235
10769	0.8913	2.8182	0.	5912.9
10770	0.80217	2.9091	0.	5973.2
10771	0.8913	2.9091	5.e-002	32.235
10772	0.8913	2.6364	0.	5898.4
10773	0.80217	2.7273	0.	5963.4
10774	0.8913	2.7273	5.e-002	32.728
10775	0.8913	2.4545	0.	5874.4
10776	0.80217	2.5455	0.	5943.7
10777	0.8913	2.5455	5.e-002	33.678
10778	0.8913	2.2727	0.	5841.
10779	0.80217	2.3636	0.	5914.2
10780	0.8913	2.3636	5.e-002	35.015
10781	0.8913	2.0909	0.	5798.9
10782	0.80217	2.1818	0.	5874.8
10783	0.8913	2.1818	5.e-002	36.649
10784	0.8913	1.9091	0.	5749.
10785	0.80217	2.	0.	5825.9
10786	0.8913	2.	5.e-002	38.479
10787	0.8913	1.7273	0.	5693.
10788	0.80217	1.8182	0.	5768.
10789	0.8913	1.8182	5.e-002	40.401
10790	0.8913	1.5455	0.	5633.7
10791	0.80217	1.6364	0.	5702.5
10792	0.8913	1.6364	5.e-002	42.326
10793	0.8913	1.3636	0.	5575.8
10794	0.80217	1.4545	0.	5632.2
10795	0.8913	1.4545	5.e-002	44.201
10796	0.8913	1.1818	0.	5526.3
10797	0.80217	1.2727	0.	5561.9
10798	0.8913	1.2727	5.e-002	46.033
10799	0.8913	1.	0.	5495.6
10800	0.80217	1.0909	0.	5499.8
10801	0.8913	1.0909	5.e-002	47.911
10802	0.8913	0.81818	0.	5496.4
10803	0.80217	0.90909	0.	5458.5
10804	0.8913	0.90909	5.e-002	49.947
10805	0.8913	0.63636	0.	5541.1
10806	0.80217	0.72727	0.	5455.2
10807	0.8913	0.72727	5.e-002	52.02
10808	0.8913	0.45455	0.	5637.
10809	0.80217	0.54545	0.	5507.2
10810	0.8913	0.54545	5.e-002	53.294
10811	0.8913	0.27273	0.	5798.4
10812	0.80217	0.36364	0.	5625.3
10813	0.8913	0.36364	5.e-002	51.356
10814	0.80217	0.18182	0.	5839.8
10815	0.8913	0.18182	5.e-002	55.517
10816	0.8913	9.0909e-002	0.	5834.5
10817	0.71304	5.7273	0.	5662.8
10818	0.62391	5.8182	0.	5661.1
10819	0.71304	5.8182	5.e-002	58.559
10820	0.71304	5.9091	0.	5701.2
10821	0.71304	5.5455	0.	5491.6
10822	0.62391	5.6364	0.	5435.5
10823	0.71304	5.6364	5.e-002	67.277
10824	0.71304	5.3636	0.	5417.4
10825	0.62391	5.4545	0.	5352.2
10826	0.71304	5.4545	5.e-002	65.561
10827	0.71304	5.1818	0.	5414.3
10828	0.62391	5.2727	0.	5363.
10829	0.71304	5.2727	5.e-002	60.494
10830	0.71304	5.	0.	5460.9
10831	0.62391	5.0909	0.	5434.3
10832	0.71304	5.0909	5.e-002	56.185
10833	0.71304	4.8182	0.	5534.4
10834	0.62391	4.9091	0.	5533.6
10835	0.71304	4.9091	5.e-002	53.088
10836	0.71304	4.6364	0.	5617.9
10837	0.62391	4.7273	0.	5639.6
10838	0.71304	4.7273	5.e-002	50.704
10839	0.71304	4.4545	0.	5700.9
10840	0.62391	4.5455	0.	5740.8
10841	0.71304	4.5455	5.e-002	48.579
10842	0.71304	4.2727	0.	5777.4
10843	0.62391	4.3636	0.	5831.7
10844	0.71304	4.3636	5.e-002	46.504
10845	0.71304	4.0909	0.	5844.8
10846	0.62391	4.1818	0.	5910.1
10847	0.71304	4.1818	5.e-002	44.443
10848	0.71304	3.9091	0.	5901.8
10849	0.62391	4.	0.	5975.8
10850	0.71304	4.	5.e-002	42.445
10851	0.71304	3.7273	0.	5948.
10852	0.62391	3.8182	0.	6029.
10853	0.71304	3.8182	5.e-002	40.592
10854	0.71304	3.5455	0.	5983.5
10855	0.62391	3.6364	0.	6070.4
10856	0.71304	3.6364	5.e-002	38.976
10857	0.71304	3.3636	0.	6008.6
10858	0.62391	3.4545	0.	6100.8
10859	0.71304	3.4545	5.e-002	37.681
10860	0.71304	3.1818	0.	6023.6
10861	0.62391	3.2727	0.	6120.6
10862	0.71304	3.2727	5.e-002	36.775
10863	0.71304	3.	0.	6028.6
10864	0.62391	3.0909	0.	6130.4
10865	0.71304	3.0909	5.e-002	36.309
10866	0.71304	2.8182	0.	6023.6
10867	0.62391	2.9091	0.	6130.4
10868	0.71304	2.9091	5.e-002	36.309
10869	0.71304	2.6364	0.	6008.6
10870	0.62391	2.7273	0.	6120.6
10871	0.71304	2.7273	5.e-002	36.775
10872	0.71304	2.4545	0.	5983.5
10873	0.62391	2.5455	0.	6100.8
10874	0.71304	2.5455	5.e-002	37.681
10875	0.71304	2.2727	0.	5948.
10876	0.62391	2.3636	0.	6070.4
10877	0.71304	2.3636	5.e-002	38.976
10878	0.71304	2.0909	0.	5901.8
10879	0.62391	2.1818	0.	6029.
10880	0.71304	2.1818	5.e-002	40.592
10881	0.71304	1.9091	0.	5844.8
10882	0.62391	2.	0.	5975.8
10883	0.71304	2.	5.e-002	42.445
10884	0.71304	1.7273	0.	5777.4
10885	0.62391	1.8182	0.	5910.1
10886	0.71304	1.8182	5.e-002	44.443
10887	0.71304	1.5455	0.	5700.9
10888	0.62391	1.6364	0.	5831.7
10889	0.71304	1.6364	5.e-002	46.504
10890	0.71304	1.3636	0.	5617.9
10891	0.62391	1.4545	0.	5740.8
10892	0.71304	1.4545	5.e-002	48.579
10893	0.71304	1.1818	0.	5534.4
10894	0.62391	1.2727	0.	5639.6
10895	0.71304	1.2727	5.e-002	50.704
10896	0.71304	1.	0.	5460.9
10897	0.62391	1.0909	0.	5533.6
10898	0.71304	1.0909	5.e-002	53.088
10899	0.71304	0.81818	0.	5414.3
10900	0.62391	0.90909	0.	5434.3
10901	0.71304	0.90909	5.e-002	56.185
10902	0.71304	0.63636	0.	5417.4
10903	0.62391	0.72727	0.	5363.
10904	0.71304	0.72727	5.e-002	60.494
10905	0.71304	0.45455	0.	5491.6
10906	0.62391	0.54545	0.	5352.2
10907	0.71304	0.54545	5.e-002	65.561
10908	0.71304	0.27273	0.	5662.8
10909	0.62391	0.36364	0.	5435.5
10910	0.71304	0.36364	5.e-002	67.277
10911	0.62391	0.18182	0.	5661.1
10912	0.71304	0.18182	5.e-002	58.559
10913	0.71304	9.0909e-002	0.	5701.2
10914	0.53478	5.7273	0.	5426.2
10915	0.44565	5.8182	0.	5280.2
10916	0.53478	5.8182	5.e-002	71.843
10917	0.53478	5.9091	0.	5442.1
10918	0.53478	5.5455	0.	5289.5
10919	0.44565	5.6364	0.	5048.3
10920	0.53478	5.6364	5.e-002	93.236
10921	0.53478	5.3636	0.	5293.4
10922	0.44565	5.4545	0.	5058.1
10923	0.53478	5.4545	5.e-002	81.983
10924	0.53478	5.1818	0.	5381.2
10925	0.44565	5.2727	0.	5187.1
10926	0.53478	5.2727	5.e-002	70.789
10927	0.53478	5.	0.	5506.9
10928	0.44565	5.0909	0.	5354.2
10929	0.53478	5.0909	5.e-002	63.843
10930	0.53478	4.8182	0.	5639.4
10931	0.44565	4.9091	0.	5519.7
10932	0.53478	4.9091	5.e-002	59.453
10933	0.53478	4.6364	0.	5763.3
10934	0.44565	4.7273	0.	5667.8
10935	0.53478	4.7273	5.e-002	56.204
10936	0.53478	4.4545	0.	5872.3
10937	0.44565	4.5455	0.	5794.1
10938	0.53478	4.5455	5.e-002	53.347
10939	0.53478	4.2727	0.	5964.9
10940	0.44565	4.3636	0.	5898.9
10941	0.53478	4.3636	5.e-002	50.643
10942	0.53478	4.0909	0.	6041.5
10943	0.44565	4.1818	0.	5984.2
10944	0.53478	4.1818	5.e-002	48.066
10945	0.53478	3.9091	0.	6103.3
10946	0.44565	4.	0.	6052.4
10947	0.53478	4.	5.e-002	45.667
10948	0.53478	3.7273	0.	6151.6
10949	0.44565	3.8182	0.	6105.7
10950	0.53478	3.8182	5.e-002	43.521
10951	0.53478	3.5455	0.	6187.8
10952	0.44565	3.6364	0.	6146.
10953	0.53478	3.6364	5.e-002	41.701
10954	0.53478	3.3636	0.	6212.8
10955	0.44565	3.4545	0.	6174.9
10956	0.53478	3.4545	5.e-002	40.273
10957	0.53478	3.1818	0.	6227.6
10958	0.44565	3.2727	0.	6193.5
10959	0.53478	3.2727	5.e-002	39.29
10960	0.53478	3.	0.	6232.4
10961	0.44565	3.0909	0.	6202.6
10962	0.53478	3.0909	5.e-002	38.789
10963	0.53478	2.8182	0.	6227.6
10964	0.44565	2.9091	0.	6202.6
10965	0.53478	2.9091	5.e-002	38.789
10966	0.53478	2.6364	0.	6212.8
10967	0.44565	2.7273	0.	6193.5
10968	0.53478	2.7273	5.e-002	39.29
10969	0.53478	2.4545	0.	6187.8
10970	0.44565	2.5455	0.	6174.9
10971	0.53478	2.5455	5.e-002	40.273
10972	0.53478	2.2727	0.	6151.6
10973	0.44565	2.3636	0.	6146.
10974	0.53478	2.3636	5.e-002	41.701
10975	0.53478	2.0909	0.	6103.3
10976	0.44565	2.1818	0.	6105.7
10977	0.53478	2.1818	5.e-002	43.521
10978	0.53478	1.9091	0.	6041.5
10979	0.44565	2.	0.	6052.4
10980	0.53478	2.	5.e-002	45.667
10981	0.53478	1.7273	0.	5964.9
10982	0.44565	1.8182	0.	5984.2
10983	0.53478	1.8182	5.e-002	48.066
10984	0.53478	1.5455	0.	5872.3
10985	0.44565	1.6364	0.	5898.9
10986	0.53478	1.6364	5.e-002	50.643
10987	0.53478	1.3636	0.	5763.3
10988	0.44565	1.4545	0.	5794.1
10989	0.53478	1.4545	5.e-002	53.347
10990	0.53478	1.1818	0.	5639.4
10991	0.44565	1.2727	0.	5667.8
10992	0.53478	1.2727	5.e-002	56.204
10993	0.53478	1.	0.	5506.9
10994	0.44565	1.0909	0.	5519.7
10995	0.53478	1.0909	5.e-002	59.453
10996	0.53478	0.81818	0.	5381.2
10997	0.44565	0.90909	0.	5354.2
10998	0.53478	0.90909	5.e-002	63.843
10999	0.53478	0.63636	0.	5293.4
11000	0.44565	0.72727	0.	5187.1
11001	0.53478	0.72727	5.e-002	70.789
11002	0.53478	0.45455	0.	5289.5
11003	0.44565	0.54545	0.	5058.1
11004	0.53478	0.54545	5.e-002	81.983
11005	0.53478	0.27273	0.	5426.2
11006	0.44565	0.36364	0.	5048.3
11007	0.53478	0.36364	5.e-002	93.236
11008	0.44565	0.18182	0.	5280.2
11009	0.53478	0.18182	5.e-002	71.843
11010	0.53478	9.0909e-002	0.	5442.1
11011	0.35652	5.7273	0.	4885.7
11012	0.26739	5.8182	0.	4551.3
11013	0.35652	5.8182	5.e-002	123.76
11014	0.35652	5.9091	0.	4920.4
11015	0.35652	5.5455	0.	4803.1
11016	0.26739	5.6364	0.	4679.8
11017	0.35652	5.6364	5.e-002	134.89
11018	0.35652	5.3636	0.	4945.
11019	0.26739	5.4545	0.	5055.3
11020	0.35652	5.4545	5.e-002	103.89
11021	0.35652	5.1818	0.	5158.1
11022	0.26739	5.2727	0.	5421.2
11023	0.35652	5.2727	5.e-002	87.004
11024	0.35652	5.	0.	5367.
11025	0.26739	5.0909	0.	5725.5
11026	0.35652	5.0909	5.e-002	77.886
11027	0.35652	4.8182	0.	5548.6
11028	0.26739	4.9091	0.	5967.3
11029	0.35652	4.9091	5.e-002	72.258
11030	0.35652	4.6364	0.	5699.1
11031	0.26739	4.7273	0.	6156.8
11032	0.35652	4.7273	5.e-002	67.757
11033	0.35652	4.4545	0.	5821.1
11034	0.26739	4.5455	0.	6304.4
11035	0.35652	4.5455	5.e-002	63.75
11036	0.35652	4.2727	0.	5918.6
11037	0.26739	4.3636	0.	6418.9
11038	0.35652	4.3636	5.e-002	60.072
11039	0.35652	4.0909	0.	5995.5
11040	0.26739	4.1818	0.	6507.1
11041	0.35652	4.1818	5.e-002	56.711
11042	0.35652	3.9091	0.	6055.2
11043	0.26739	4.	0.	6574.4
11044	0.35652	4.	5.e-002	53.702
11045	0.35652	3.7273	0.	6100.5
11046	0.26739	3.8182	0.	6624.9
11047	0.35652	3.8182	5.e-002	51.094
11048	0.35652	3.5455	0.	6133.5
11049	0.26739	3.6364	0.	6661.7
11050	0.35652	3.6364	5.e-002	48.936
11051	0.35652	3.3636	0.	6155.9
11052	0.26739	3.4545	0.	6687.4
11053	0.35652	3.4545	5.e-002	47.273
11054	0.35652	3.1818	0.	6168.9
11055	0.26739	3.2727	0.	6703.6
11056	0.35652	3.2727	5.e-002	46.143
11057	0.35652	3.	0.	6173.2
11058	0.26739	3.0909	0.	6711.4
11059	0.35652	3.0909	5.e-002	45.571
11060	0.35652	2.8182	0.	6168.9
11061	0.26739	2.9091	0.	6711.4
11062	0.35652	2.9091	5.e-002	45.571
11063	0.35652	2.6364	0.	6155.9
11064	0.26739	2.7273	0.	6703.6
11065	0.35652	2.7273	5.e-002	46.143
11066	0.35652	2.4545	0.	6133.5
11067	0.26739	2.5455	0.	6687.4
11068	0.35652	2.5455	5.e-002	47.273
11069	0.35652	2.2727	0.	6100.5
11070	0.26739	2.3636	0.	6661.7
11071	0.35652	2.3636	5.e-002	48.936
11072	0.35652	2.0909	0.	6055.2
11073	0.26739	2.1818	0.	6624.9
11074	0.35652	2.1818	5.e-002	51.094
11075	0.35652	1.9091	0.	5995.5
11076	0.26739	2.	0.	6574.4
11077	0.35652	2.	5.e-002	53.702
11078	0.35652	1.7273	0.	5918.6
11079	0.26739	1.8182	0.	6507.1
11080	0.35652	1.8182	5.e-002	56.711
11081	0.35652	1.5455	0.	5821.1
11082	0.26739	1.6364	0.	6418.9
11083	0.35652	1.6364	5.e-002	60.072
11084	0.35652	1.3636	0.	5699.1
11085	0.26739	1.4545	0.	6304.4
11086	0.35652	1.4545	5.e-002	63.75
11087	0.35652	1.1818	0.	5548.6
11088	0.26739	1.2727	0.	6156.8
11089	0.35652	1.2727	5.e-002	67.757
11090	0.35652	1.	0.	5367.
11091	0.26739	1.0909	0.	5967.3
11092	0.35652	1.0909	5.e-002	72.258
11093	0.35652	0.81818	0.	5158.1
11094	0.26739	0.90909	0.	5725.5
11095	0.35652	0.90909	5.e-002	77.886
11096	0.35652	0.63636	0.	4945.
11097	0.26739	0.72727	0.	5421.2
11098	0.35652	0.72727	5.e-002	87.004
11099	0.35652	0.45455	0.	4803.1
11100	0.26739	0.54545	0.	5055.3
11101	0.35652	0.54545	5.e-002	103.89
11102	0.35652	0.27273	0.	4885.7
11103	0.26739	0.36364	0.	4679.8
11104	0.35652	0.36364	5.e-002	134.89
11105	0.26739	0.18182	0.	4551.3
11106	0.35652	0.18182	5.e-002	123.76
11107	0.35652	9.0909e-002	0.	4920.4
11108	0.17826	5.7273	0.	4312.7
11109	0.17826	5.8182	5.e-002	297.79
11110	0.17826	5.9091	0.	3876.8
11111	8.913e-002	5.8182	0.	2759.7
11112	0.17826	5.5455	0.	4958.5
11113	0.17826	5.6364	5.e-002	187.18
11114	8.913e-002	5.6364	0.	3479.7
11115	0.17826	5.3636	0.	5560.8
11116	0.17826	5.4545	5.e-002	129.59
11117	8.913e-002	5.4545	0.	4059.8
11118	0.17826	5.1818	0.	6010.6
11119	0.17826	5.2727	5.e-002	100.8
11120	8.913e-002	5.2727	0.	4468.8
11121	0.17826	5.	0.	6341.8
11122	0.17826	5.0909	5.e-002	85.37
11123	8.913e-002	5.0909	0.	4758.2
11124	0.17826	4.8182	0.	6587.8
11125	0.17826	4.9091	5.e-002	74.269
11126	8.913e-002	4.9091	0.	4968.1
11127	0.17826	4.6364	0.	6772.1
11128	0.17826	4.7273	5.e-002	65.654
11129	8.913e-002	4.7273	0.	5122.7
11130	0.17826	4.4545	0.	6910.9
11131	0.17826	4.5455	5.e-002	58.605
11132	8.913e-002	4.5455	0.	5237.6
11133	0.17826	4.2727	0.	7015.2
11134	0.17826	4.3636	5.e-002	52.685
11135	8.913e-002	4.3636	0.	5323.2
11136	0.17826	4.0909	0.	7093.3
11137	0.17826	4.1818	5.e-002	47.661
11138	8.913e-002	4.1818	0.	5386.6
11139	0.17826	3.9091	0.	7151.
11140	0.17826	4.	5.e-002	43.415
11141	8.913e-002	4.	0.	5433.2
11142	0.17826	3.7273	0.	7192.9
11143	0.17826	3.8182	5.e-002	39.889
11144	8.913e-002	3.8182	0.	5466.9
11145	0.17826	3.5455	0.	7222.3
11146	0.17826	3.6364	5.e-002	37.061
11147	8.913e-002	3.6364	0.	5490.6
11148	0.17826	3.3636	0.	7241.5
11149	0.17826	3.4545	5.e-002	34.93
11150	8.913e-002	3.4545	0.	5506.5
11151	0.17826	3.1818	0.	7252.5
11152	0.17826	3.2727	5.e-002	33.502
11153	8.913e-002	3.2727	0.	5516.3
11154	0.17826	3.	0.	7256.
11155	0.17826	3.0909	5.e-002	32.786
11156	8.913e-002	3.0909	0.	5520.9
11157	0.17826	2.8182	0.	7252.5
11158	0.17826	2.9091	5.e-002	32.786
11159	8.913e-002	2.9091	0.	5520.9
11160	0.17826	2.6364	0.	7241.5
11161	0.17826	2.7273	5.e-002	33.502
11162	8.913e-002	2.7273	0.	5516.3
11163	0.17826	2.4545	0.	7222.3
11164	0.17826	2.5455	5.e-002	34.93
11165	8.913e-002	2.5455	0.	5506.5
11166	0.17826	2.2727	0.	7192.9
11167	0.17826	2.3636	5.e-002	37.061
11168	8.913e-002	2.3636	0.	5490.6
11169	0.17826	2.0909	0.	7151.
11170	0.17826	2.1818	5.e-002	39.889
11171	8.913e-002	2.1818	0.	5466.9
11172	0.17826	1.9091	0.	7093.3
11173	0.17826	2.	5.e-002	43.415
11174	8.913e-002	2.	0.	5433.2
11175	0.17826	1.7273	0.	7015.2
11176	0.17826	1.8182	5.e-002	47.661
11177	8.913e-002	1.8182	0.	5386.6
11178	0.17826	1.5455	0.	6910.9
11179	0.17826	1.6364	5.e-002	52.685
11180	8.913e-002	1.6364	0.	5323.2
11181	0.17826	1.3636	0.	6772.1
11182	0.17826	1.4545	5.e-002	58.605
11183	8.913e-002	1.4545	0.	5237.6
11184	0.17826	1.1818	0.	6587.8
11185	0.17826	1.2727	5.e-002	65.654
11186	8.913e-002	1.2727	0.	5122.7
11187	0.17826	1.	0.	6341.8
11188	0.17826	1.0909	5.e-002	74.269
11189	8.913e-002	1.0909	0.	4968.1
11190	0.17826	0.81818	0.	6010.6
11191	0.17826	0.90909	5.e-002	85.37
11192	8.913e-002	0.90909	0.	4758.2
11193	0.17826	0.63636	0.	5560.8
11194	0.17826	0.72727	5.e-002	100.8
11195	8.913e-002	0.72727	0.	4468.8
11196	0.17826	0.45455	0.	4958.5
11197	0.17826	0.54545	5.e-002	129.59
11198	8.913e-002	0.54545	0.	4059.8
11199	0.17826	0.27273	0.	4312.7
11200	0.17826	0.36364	5.e-002	187.18
11201	8.913e-002	0.36364	0.	3479.7
11202	0.17826	0.18182	5.e-002	297.79
11203	0.17826	9.0909e-002	0.	3876.8
11204	8.913e-002	0.18182	0.	2759.7
11205	4.5433	5.8182	0.	1183.5
11206	4.4511	5.7273	0.	1178.7
11207	4.4511	5.8182	5.e-002	127.08
11208	4.4511	5.9091	0.	755.57
11209	4.3589	5.8182	0.	671.61
11210	4.7277	5.8182	0.	1699.3
11211	4.6355	5.7273	0.	1558.5
11212	4.6355	5.8182	5.e-002	112.83
11213	4.6355	5.9091	0.	1322.
11214	4.9121	5.8182	0.	2184.7
11215	4.8199	5.7273	0.	2037.3
11216	4.8199	5.8182	5.e-002	104.06
11217	4.8199	5.9091	0.	1853.7
11218	5.0966	5.8182	0.	2608.2
11219	5.0044	5.7273	0.	2481.2
11220	5.0044	5.8182	5.e-002	93.389
11221	5.0044	5.9091	0.	2323.8
11222	5.281	5.8182	0.	2965.9
11223	5.1888	5.7273	0.	2864.4
11224	5.1888	5.8182	5.e-002	81.546
11225	5.1888	5.9091	0.	2726.6
11226	5.4654	5.8182	0.	3260.
11227	5.3732	5.7273	0.	3182.9
11228	5.3732	5.8182	5.e-002	69.456
11229	5.3732	5.9091	0.	3063.2
11230	5.6498	5.8182	0.	3495.8
11231	5.5576	5.7273	0.	3439.8
11232	5.5576	5.8182	5.e-002	57.859
11233	5.5576	5.9091	0.	3337.4
11234	5.8343	5.8182	0.	3679.8
11235	5.7421	5.7273	0.	3641.2
11236	5.7421	5.8182	5.e-002	47.245
11237	5.7421	5.9091	0.	3555.1
11238	6.0187	5.8182	0.	3819.3
11239	5.9265	5.7273	0.	3794.5
11240	5.9265	5.8182	5.e-002	37.87
11241	5.9265	5.9091	0.	3723.4
11242	6.2031	5.8182	0.	3921.2
11243	6.1109	5.7273	0.	3907.3
11244	6.1109	5.8182	5.e-002	29.811
11245	6.1109	5.9091	0.	3849.5
11246	6.3875	5.8182	0.	3991.8
11247	6.2953	5.7273	0.	3986.4
11248	6.2953	5.8182	5.e-002	23.03
11249	6.2953	5.9091	0.	3940.3
11250	6.572	5.8182	0.	4036.9
11251	6.4798	5.7273	0.	4038.
11252	6.4798	5.8182	5.e-002	17.423
11253	6.4798	5.9091	0.	4001.8
11254	6.7564	5.8182	0.	4061.1
11255	6.6642	5.7273	0.	4067.3
11256	6.6642	5.8182	5.e-002	12.854
11257	6.6642	5.9091	0.	4039.4
11258	6.9408	5.8182	0.	4068.7
11259	6.8486	5.7273	0.	4078.6
11260	6.8486	5.8182	5.e-002	9.1809
11261	6.8486	5.9091	0.	4057.7
11262	7.1252	5.8182	0.	4062.9
11263	7.033	5.7273	0.	4075.7
11264	7.033	5.8182	5.e-002	6.2674
11265	7.033	5.9091	0.	4060.6
11266	7.3097	5.8182	0.	4046.5
11267	7.2174	5.7273	0.	4061.5
11268	7.2174	5.8182	5.e-002	3.9931
11269	7.2174	5.9091	0.	4051.
11270	7.4941	5.8182	0.	4021.8
11271	7.4019	5.7273	0.	4038.4
11272	7.4019	5.8182	5.e-002	2.2651
11273	7.4019	5.9091	0.	4031.6
11274	7.6785	5.8182	0.	3990.5
11275	7.5863	5.7273	0.	4008.4
11276	7.5863	5.8182	5.e-002	1.0739
11277	7.5863	5.9091	0.	4004.5
11278	7.8629	5.8182	0.	3954.1
11279	7.7707	5.7273	0.	3973.
11280	7.7707	5.8182	5.e-002	0.77926
11281	7.7707	5.9091	0.	3971.3
11282	8.0474	5.8182	0.	3913.7
11283	7.9551	5.7273	0.	3933.3
11284	7.9551	5.8182	5.e-002	1.2398
11285	7.9551	5.9091	0.	3933.3
11286	8.2318	5.8182	0.	3870.3
11287	8.1396	5.7273	0.	3890.5
11288	8.1396	5.8182	5.e-002	1.6984
11289	8.1396	5.9091	0.	3891.7
11290	8.4162	5.8182	0.	3824.6
11291	8.324	5.7273	0.	3845.2
11292	8.324	5.8182	5.e-002	2.0314
11293	8.324	5.9091	0.	3847.3
11294	8.6006	5.8182	0.	3777.1
11295	8.5084	5.7273	0.	3798.
11296	8.5084	5.8182	5.e-002	2.2466
11297	8.5084	5.9091	0.	3800.7
11298	8.785	5.8182	0.	3728.3
11299	8.6928	5.7273	0.	3749.5
11300	8.6928	5.8182	5.e-002	2.3658
11301	8.6928	5.9091	0.	3752.5
11302	8.9695	5.8182	0.	3678.5
11303	8.8773	5.7273	0.	3699.9
11304	8.8773	5.8182	5.e-002	2.4099
11305	8.8773	5.9091	0.	3703.1
11306	9.1539	5.8182	0.	3628.
11307	9.0617	5.7273	0.	3649.6
11308	9.0617	5.8182	5.e-002	2.3967
11309	9.0617	5.9091	0.	3652.8
11310	9.3383	5.8182	0.	3577.1
11311	9.2461	5.7273	0.	3598.8
11312	9.2461	5.8182	5.e-002	2.3408
11313	9.2461	5.9091	0.	3601.9
11314	9.5227	5.8182	0.	3525.9
11315	9.4305	5.7273	0.	3547.7
11316	9.4305	5.8182	5.e-002	2.2539
11317	9.4305	5.9091	0.	3550.6
11318	9.7072	5.8182	0.	3474.4
11319	9.615	5.7273	0.	3496.4
11320	9.615	5.8182	5.e-002	2.1454
11321	9.615	5.9091	0.	3499.
11322	9.8916	5.8182	0.	3422.9
11323	9.7994	5.7273	0.	3444.9
11324	9.7994	5.8182	5.e-002	2.0225
11325	9.7994	5.9091	0.	3447.2
11326	10.076	5.8182	0.	3371.4
11327	9.9838	5.7273	0.	3393.5
11328	9.9838	5.8182	5.e-002	1.891
11329	9.9838	5.9091	0.	3395.4
11330	10.26	5.8182	0.	3319.9
11331	10.168	5.7273	0.	3342.
11332	10.168	5.8182	5.e-002	1.7551
11333	10.168	5.9091	0.	3343.6
11334	10.445	5.8182	0.	3268.6
11335	10.353	5.7273	0.	3290.7
11336	10.353	5.8182	5.e-002	1.618
11337	10.353	5.9091	0.	3291.9
11338	10.629	5.8182	0.	3217.3
11339	10.537	5.7273	0.	3239.4
11340	10.537	5.8182	5.e-002	1.4824
11341	10.537	5.9091	0.	3240.2
11342	10.814	5.8182	0.	3166.2
11343	10.721	5.7273	0.	3188.3
11344	10.721	5.8182	5.e-002	1.3503
11345	10.721	5.9091	0.	3188.8
11346	10.998	5.8182	0.	3115.2
11347	10.906	5.7273	0.	3137.4
11348	10.906	5.8182	5.e-002	1.2226
11349	10.906	5.9091	0.	3137.4
11350	11.183	5.8182	0.	3064.5
11351	11.09	5.7273	0.	3086.6
11352	11.09	5.8182	5.e-002	1.1002
11353	11.09	5.9091	0.	3086.3
11354	11.367	5.8182	0.	3013.9
11355	11.275	5.7273	0.	3036.
11356	11.275	5.8182	5.e-002	0.98394
11357	11.275	5.9091	0.	3035.3
11358	11.551	5.8182	0.	2963.5
11359	11.459	5.7273	0.	2985.6
11360	11.459	5.8182	5.e-002	0.87405
11361	11.459	5.9091	0.	2984.6
11362	11.736	5.8182	0.	2913.3
11363	11.644	5.7273	0.	2935.4
11364	11.644	5.8182	5.e-002	0.7705
11365	11.644	5.9091	0.	2934.
11366	11.92	5.8182	0.	2863.4
11367	11.828	5.7273	0.	2885.4
11368	11.828	5.8182	5.e-002	0.67361
11369	11.828	5.9091	0.	2883.7
11370	12.105	5.8182	0.	2813.6
11371	12.012	5.7273	0.	2835.6
11372	12.012	5.8182	5.e-002	0.5832
11373	12.012	5.9091	0.	2833.6
11374	12.289	5.8182	0.	2764.
11375	12.197	5.7273	0.	2786.
11376	12.197	5.8182	5.e-002	0.4989
11377	12.197	5.9091	0.	2783.7
11378	12.474	5.8182	0.	2714.7
11379	12.381	5.7273	0.	2736.6
11380	12.381	5.8182	5.e-002	0.42061
11381	12.381	5.9091	0.	2734.
11382	12.658	5.8182	0.	2665.6
11383	12.566	5.7273	0.	2687.4
11384	12.566	5.8182	5.e-002	0.34829
11385	12.566	5.9091	0.	2684.5
11386	12.842	5.8182	0.	2616.6
11387	12.75	5.7273	0.	2638.4
11388	12.75	5.8182	5.e-002	0.28154
11389	12.75	5.9091	0.	2635.3
11390	13.027	5.8182	0.	2567.9
11391	12.935	5.7273	0.	2589.6
11392	12.935	5.8182	5.e-002	0.21997
11393	12.935	5.9091	0.	2586.3
11394	13.211	5.8182	0.	2519.4
11395	13.119	5.7273	0.	2541.1
11396	13.119	5.8182	5.e-002	0.16363
11397	13.119	5.9091	0.	2537.5
11398	13.396	5.8182	0.	2471.2
11399	13.303	5.7273	0.	2492.7
11400	13.303	5.8182	5.e-002	0.11232
11401	13.303	5.9091	0.	2488.9
11402	13.58	5.8182	0.	2423.1
11403	13.488	5.7273	0.	2444.5
11404	13.488	5.8182	5.e-002	6.614e-002
11405	13.488	5.9091	0.	2440.5
11406	13.764	5.8182	0.	2375.2
11407	13.672	5.7273	0.	2396.6
11408	13.672	5.8182	5.e-002	2.8705e-002
11409	13.672	5.9091	0.	2392.3
11410	13.949	5.8182	0.	2327.6
11411	13.857	5.7273	0.	2348.8
11412	13.857	5.8182	5.e-002	2.9993e-002
11413	13.857	5.9091	0.	2344.4
11414	14.133	5.8182	0.	2280.1
11415	14.041	5.7273	0.	2301.3
11416	14.041	5.8182	5.e-002	6.0734e-002
11417	14.041	5.9091	0.	2296.7
11418	14.318	5.8182	0.	2232.9
11419	14.226	5.7273	0.	2254.
11420	14.226	5.8182	5.e-002	9.2011e-002
11421	14.226	5.9091	0.	2249.2
11422	14.502	5.8182	0.	2185.9
11423	14.41	5.7273	0.	2206.8
11424	14.41	5.8182	5.e-002	0.12081
11425	14.41	5.9091	0.	2201.8
11426	14.687	5.8182	0.	2139.
11427	14.594	5.7273	0.	2159.9
11428	14.594	5.8182	5.e-002	0.14692
11429	14.594	5.9091	0.	2154.8
11430	14.871	5.8182	0.	2092.4
11431	14.779	5.7273	0.	2113.2
11432	14.779	5.8182	5.e-002	0.17051
11433	14.779	5.9091	0.	2107.9
11434	15.055	5.8182	0.	2046.
11435	14.963	5.7273	0.	2066.7
11436	14.963	5.8182	5.e-002	0.19158
11437	14.963	5.9091	0.	2061.2
11438	15.24	5.8182	0.	1999.8
11439	15.148	5.7273	0.	2020.4
11440	15.148	5.8182	5.e-002	0.21027
11441	15.148	5.9091	0.	2014.7
11442	15.424	5.8182	0.	1953.8
11443	15.332	5.7273	0.	1974.3
11444	15.332	5.8182	5.e-002	0.22685
11445	15.332	5.9091	0.	1968.4
11446	15.609	5.8182	0.	1908.
11447	15.517	5.7273	0.	1928.4
11448	15.517	5.8182	5.e-002	0.24158
11449	15.517	5.9091	0.	1922.4
11450	15.793	5.8182	0.	1862.4
11451	15.701	5.7273	0.	1882.7
11452	15.701	5.8182	5.e-002	0.25449
11453	15.701	5.9091	0.	1876.5
11454	15.978	5.8182	0.	1817.
11455	15.885	5.7273	0.	1837.2
11456	15.885	5.8182	5.e-002	0.26588
11457	15.885	5.9091	0.	1830.9
11458	16.162	5.8182	0.	1771.9
11459	16.07	5.7273	0.	1791.9
11460	16.07	5.8182	5.e-002	0.27604
11461	16.07	5.9091	0.	1785.4
11462	16.346	5.8182	0.	1726.9
11463	16.254	5.7273	0.	1746.8
11464	16.254	5.8182	5.e-002	0.28513
11465	16.254	5.9091	0.	1740.2
11466	16.531	5.8182	0.	1682.1
11467	16.439	5.7273	0.	1701.9
11468	16.439	5.8182	5.e-002	0.2934
11469	16.439	5.9091	0.	1695.1
11470	16.715	5.8182	0.	1637.5
11471	16.623	5.7273	0.	1657.2
11472	16.623	5.8182	5.e-002	0.30127
11473	16.623	5.9091	0.	1650.3
11474	16.9	5.8182	0.	1593.1
11475	16.807	5.7273	0.	1612.7
11476	16.807	5.8182	5.e-002	0.30911
11477	16.807	5.9091	0.	1605.6
11478	17.084	5.8182	0.	1549.
11479	16.992	5.7273	0.	1568.5
11480	16.992	5.8182	5.e-002	0.31725
11481	16.992	5.9091	0.	1561.2
11482	17.269	5.8182	0.	1505.
11483	17.176	5.7273	0.	1524.4
11484	17.176	5.8182	5.e-002	0.3262
11485	17.176	5.9091	0.	1516.9
11486	17.453	5.8182	0.	1461.2
11487	17.361	5.7273	0.	1480.5
11488	17.361	5.8182	5.e-002	0.33649
11489	17.361	5.9091	0.	1472.9
11490	17.637	5.8182	0.	1417.6
11491	17.545	5.7273	0.	1436.8
11492	17.545	5.8182	5.e-002	0.34862
11493	17.545	5.9091	0.	1429.
11494	17.822	5.8182	0.	1374.2
11495	17.73	5.7273	0.	1393.3
11496	17.73	5.8182	5.e-002	0.3632
11497	17.73	5.9091	0.	1385.4
11498	18.006	5.8182	0.	1331.
11499	17.914	5.7273	0.	1350.
11500	17.914	5.8182	5.e-002	0.38083
11501	17.914	5.9091	0.	1341.9
11502	18.191	5.8182	0.	1288.
11503	18.098	5.7273	0.	1306.9
11504	18.098	5.8182	5.e-002	0.40207
11505	18.098	5.9091	0.	1298.6
11506	18.375	5.8182	0.	1245.2
11507	18.283	5.7273	0.	1264.
11508	18.283	5.8182	5.e-002	0.42747
11509	18.283	5.9091	0.	1255.5
11510	18.56	5.8182	0.	1202.6
11511	18.467	5.7273	0.	1221.2
11512	18.467	5.8182	5.e-002	0.45756
11513	18.467	5.9091	0.	1212.6
11514	18.744	5.8182	0.	1160.1
11515	18.652	5.7273	0.	1178.7
11516	18.652	5.8182	5.e-002	0.49276
11517	18.652	5.9091	0.	1169.9
11518	18.928	5.8182	0.	1117.9
11519	18.836	5.7273	0.	1136.3
11520	18.836	5.8182	5.e-002	0.53355
11521	18.836	5.9091	0.	1127.3
11522	19.113	5.8182	0.	1075.8
11523	19.021	5.7273	0.	1094.2
11524	19.021	5.8182	5.e-002	0.58029
11525	19.021	5.9091	0.	1084.9
11526	19.297	5.8182	0.	1033.9
11527	19.205	5.7273	0.	1052.2
11528	19.205	5.8182	5.e-002	0.63331
11529	19.205	5.9091	0.	1042.8
11530	19.482	5.8182	0.	992.16
11531	19.389	5.7273	0.	1010.4
11532	19.389	5.8182	5.e-002	0.69299
11533	19.389	5.9091	0.	1000.7
11534	19.666	5.8182	0.	950.6
11535	19.574	5.7273	0.	968.77
11536	19.574	5.8182	5.e-002	0.75972
11537	19.574	5.9091	0.	958.9
11538	19.85	5.8182	0.	909.2
11539	19.758	5.7273	0.	927.31
11540	19.758	5.8182	5.e-002	0.83387
11541	19.758	5.9091	0.	917.23
11542	20.035	5.8182	0.	867.97
11543	19.943	5.7273	0.	886.03
11544	19.943	5.8182	5.e-002	0.91581
11545	19.943	5.9091	0.	875.72
11546	20.219	5.8182	0.	826.89
11547	20.127	5.7273	0.	844.91
11548	20.127	5.8182	5.e-002	1.0061
11549	20.127	5.9091	0.	834.38
11550	20.404	5.8182	0.	785.97
11551	20.312	5.7273	0.	803.96
11552	20.312	5.8182	5.e-002	1.1051
11553	20.312	5.9091	0.	793.19
11554	20.588	5.8182	0.	745.19
11555	20.496	5.7273	0.	763.17
11556	20.496	5.8182	5.e-002	1.2134
11557	20.496	5.9091	0.	752.17
11558	20.773	5.8182	0.	704.56
11559	20.68	5.7273	0.	722.53
11560	20.68	5.8182	5.e-002	1.3316
11561	20.68	5.9091	0.	711.29
11562	20.957	5.8182	0.	664.07
11563	20.865	5.7273	0.	682.04
11564	20.865	5.8182	5.e-002	1.4604
11565	20.865	5.9091	0.	670.57
11566	21.141	5.8182	0.	623.71
11567	21.049	5.7273	0.	641.7
11568	21.049	5.8182	5.e-002	1.6005
11569	21.049	5.9091	0.	630.
11570	21.326	5.8182	0.	583.47
11571	21.234	5.7273	0.	601.51
11572	21.234	5.8182	5.e-002	1.7527
11573	21.234	5.9091	0.	589.57
11574	21.51	5.8182	0.	543.36
11575	21.418	5.7273	0.	561.46
11576	21.418	5.8182	5.e-002	1.9179
11577	21.418	5.9091	0.	549.29
11578	21.695	5.8182	0.	503.37
11579	21.602	5.7273	0.	521.55
11580	21.602	5.8182	5.e-002	2.0973
11581	21.602	5.9091	0.	509.16
11582	21.879	5.8182	0.	463.49
11583	21.787	5.7273	0.	481.79
11584	21.787	5.8182	5.e-002	2.2918
11585	21.787	5.9091	0.	469.17
11586	22.064	5.8182	0.	423.73
11587	21.971	5.7273	0.	442.17
11588	21.971	5.8182	5.e-002	2.5029
11589	21.971	5.9091	0.	429.33
11590	22.248	5.8182	0.	384.09
11591	22.156	5.7273	0.	402.7
11592	22.156	5.8182	5.e-002	2.7322
11593	22.156	5.9091	0.	389.66
11594	22.432	5.8182	0.	344.57
11595	22.34	5.7273	0.	363.4
11596	22.34	5.8182	5.e-002	2.9814
11597	22.34	5.9091	0.	350.15
11598	22.617	5.8182	0.	305.18
11599	22.525	5.7273	0.	324.28
11600	22.525	5.8182	5.e-002	3.253
11601	22.525	5.9091	0.	310.83
11602	22.801	5.8182	0.	265.94
11603	22.709	5.7273	0.	285.39
11604	22.709	5.8182	5.e-002	3.5498
11605	22.709	5.9091	0.	271.74
11606	22.986	5.8182	0.	226.89
11607	22.893	5.7273	0.	246.78
11608	22.893	5.8182	5.e-002	3.8758
11609	22.893	5.9091	0.	232.9
11610	23.17	5.8182	0.	188.12
11611	23.078	5.7273	0.	208.57
11612	23.078	5.8182	5.e-002	4.2366
11613	23.078	5.9091	0.	194.39
11614	23.355	5.8182	0.	149.77
11615	23.262	5.7273	0.	170.98
11616	23.262	5.8182	5.e-002	4.6418
11617	23.262	5.9091	0.	156.32
11618	23.539	5.8182	0.	112.28
11619	23.447	5.7273	0.	134.44
11620	23.447	5.8182	5.e-002	5.1045
11621	23.447	5.9091	0.	118.88
11622	23.723	5.8182	0.	77.475
11623	23.631	5.7273	0.	100.15
11624	23.631	5.8182	5.e-002	5.6848
11625	23.631	5.9091	0.	82.598
11626	23.816	5.7273	0.	71.858
11627	23.816	5.8182	5.e-002	6.9255
11628	23.908	5.8182	0.	48.592
11629	23.816	5.9091	0.	48.932
11630	4.5433	5.6364	0.	1504.4
11631	4.4511	5.5455	0.	1687.1
11632	4.4511	5.6364	5.e-002	114.99
11633	4.3589	5.6364	0.	1104.8
11634	4.7277	5.6364	0.	1885.6
11635	4.6355	5.5455	0.	1872.9
11636	4.6355	5.6364	5.e-002	97.508
11637	4.9121	5.6364	0.	2328.8
11638	4.8199	5.5455	0.	2264.3
11639	4.8199	5.6364	5.e-002	88.538
11640	5.0966	5.6364	0.	2734.1
11641	5.0044	5.5455	0.	2664.
11642	5.0044	5.6364	5.e-002	77.395
11643	5.281	5.6364	0.	3079.1
11644	5.1888	5.5455	0.	3019.1
11645	5.1888	5.6364	5.e-002	65.672
11646	5.4654	5.6364	0.	3361.
11647	5.3732	5.5455	0.	3315.2
11648	5.3732	5.6364	5.e-002	54.245
11649	5.6498	5.6364	0.	3584.
11650	5.5576	5.5455	0.	3552.1
11651	5.5576	5.6364	5.e-002	43.704
11652	5.8343	5.6364	0.	3755.2
11653	5.7421	5.5455	0.	3735.2
11654	5.7421	5.6364	5.e-002	34.356
11655	6.0187	5.6364	0.	3882.1
11656	5.9265	5.5455	0.	3871.9
11657	5.9265	5.6364	5.e-002	26.301
11658	6.2031	5.6364	0.	3972.3
11659	6.1109	5.5455	0.	3969.9
11660	6.1109	5.6364	5.e-002	19.506
11661	6.3875	5.6364	0.	4032.5
11662	6.2953	5.5455	0.	4036.
11663	6.2953	5.6364	5.e-002	13.871
11664	6.572	5.6364	0.	4068.3
11665	6.4798	5.5455	0.	4076.5
11666	6.4798	5.6364	5.e-002	9.2673
11667	6.7564	5.6364	0.	4084.7
11668	6.6642	5.5455	0.	4096.4
11669	6.6642	5.6364	5.e-002	5.58
11670	6.9408	5.6364	0.	4085.6
11671	6.8486	5.5455	0.	4099.9
11672	6.8486	5.6364	5.e-002	2.7954
11673	7.1252	5.6364	0.	4074.4
11674	7.033	5.5455	0.	4090.6
11675	7.033	5.6364	5.e-002	1.602
11676	7.3097	5.6364	0.	4053.5
11677	7.2174	5.5455	0.	4071.2
11678	7.2174	5.6364	5.e-002	2.634
11679	7.4941	5.6364	0.	4025.1
11680	7.4019	5.5455	0.	4043.9
11681	7.4019	5.6364	5.e-002	3.971
11682	7.6785	5.6364	0.	3990.9
11683	7.5863	5.5455	0.	4010.6
11684	7.5863	5.6364	5.e-002	5.1033
11685	7.8629	5.6364	0.	3952.3
11686	7.7707	5.5455	0.	3972.5
11687	7.7707	5.6364	5.e-002	6.0088
11688	8.0474	5.6364	0.	3910.2
11689	7.9551	5.5455	0.	3930.9
11690	7.9551	5.6364	5.e-002	6.718
11691	8.2318	5.6364	0.	3865.4
11692	8.1396	5.5455	0.	3886.6
11693	8.1396	5.6364	5.e-002	7.2656
11694	8.4162	5.6364	0.	3818.7
11695	8.324	5.5455	0.	3840.1
11696	8.324	5.6364	5.e-002	7.6827
11697	8.6006	5.6364	0.	3770.5
11698	8.5084	5.5455	0.	3792.2
11699	8.5084	5.6364	5.e-002	7.9957
11700	8.785	5.6364	0.	3721.2
11701	8.6928	5.5455	0.	3743.1
11702	8.6928	5.6364	5.e-002	8.2261
11703	8.9695	5.6364	0.	3671.1
11704	8.8773	5.5455	0.	3693.2
11705	8.8773	5.6364	5.e-002	8.3914
11706	9.1539	5.6364	0.	3620.5
11707	9.0617	5.5455	0.	3642.7
11708	9.0617	5.6364	5.e-002	8.5055
11709	9.3383	5.6364	0.	3569.5
11710	9.2461	5.5455	0.	3591.9
11711	9.2461	5.6364	5.e-002	8.5799
11712	9.5227	5.6364	0.	3518.3
11713	9.4305	5.5455	0.	3540.7
11714	9.4305	5.6364	5.e-002	8.6233
11715	9.7072	5.6364	0.	3467.
11716	9.615	5.5455	0.	3489.5
11717	9.615	5.6364	5.e-002	8.643
11718	9.8916	5.6364	0.	3415.6
11719	9.7994	5.5455	0.	3438.2
11720	9.7994	5.6364	5.e-002	8.6445
11721	10.076	5.6364	0.	3364.2
11722	9.9838	5.5455	0.	3386.9
11723	9.9838	5.6364	5.e-002	8.6324
11724	10.26	5.6364	0.	3312.9
11725	10.168	5.5455	0.	3335.7
11726	10.168	5.6364	5.e-002	8.61
11727	10.445	5.6364	0.	3261.7
11728	10.353	5.5455	0.	3284.5
11729	10.353	5.6364	5.e-002	8.5798
11730	10.629	5.6364	0.	3210.6
11731	10.537	5.5455	0.	3233.5
11732	10.537	5.6364	5.e-002	8.5442
11733	10.814	5.6364	0.	3159.6
11734	10.721	5.5455	0.	3182.6
11735	10.721	5.6364	5.e-002	8.505
11736	10.998	5.6364	0.	3108.9
11737	10.906	5.5455	0.	3131.8
11738	10.906	5.6364	5.e-002	8.463
11739	11.183	5.6364	0.	3058.3
11740	11.09	5.5455	0.	3081.3
11741	11.09	5.6364	5.e-002	8.4191
11742	11.367	5.6364	0.	3007.9
11743	11.275	5.5455	0.	3030.9
11744	11.275	5.6364	5.e-002	8.3744
11745	11.551	5.6364	0.	2957.6
11746	11.459	5.5455	0.	2980.6
11747	11.459	5.6364	5.e-002	8.3292
11748	11.736	5.6364	0.	2907.6
11749	11.644	5.5455	0.	2930.6
11750	11.644	5.6364	5.e-002	8.2838
11751	11.92	5.6364	0.	2857.7
11752	11.828	5.5455	0.	2880.7
11753	11.828	5.6364	5.e-002	8.2387
11754	12.105	5.6364	0.	2808.1
11755	12.012	5.5455	0.	2831.1
11756	12.012	5.6364	5.e-002	8.1942
11757	12.289	5.6364	0.	2758.7
11758	12.197	5.5455	0.	2781.6
11759	12.197	5.6364	5.e-002	8.15
11760	12.474	5.6364	0.	2709.4
11761	12.381	5.5455	0.	2732.4
11762	12.381	5.6364	5.e-002	8.1063
11763	12.658	5.6364	0.	2660.4
11764	12.566	5.5455	0.	2683.3
11765	12.566	5.6364	5.e-002	8.0636
11766	12.842	5.6364	0.	2611.5
11767	12.75	5.5455	0.	2634.4
11768	12.75	5.6364	5.e-002	8.0215
11769	13.027	5.6364	0.	2562.9
11770	12.935	5.5455	0.	2585.7
11771	12.935	5.6364	5.e-002	7.9801
11772	13.211	5.6364	0.	2514.5
11773	13.119	5.5455	0.	2537.2
11774	13.119	5.6364	5.e-002	7.9395
11775	13.396	5.6364	0.	2466.2
11776	13.303	5.5455	0.	2489.
11777	13.303	5.6364	5.e-002	7.8997
11778	13.58	5.6364	0.	2418.2
11779	13.488	5.5455	0.	2440.9
11780	13.488	5.6364	5.e-002	7.8604
11781	13.764	5.6364	0.	2370.4
11782	13.672	5.5455	0.	2393.
11783	13.672	5.6364	5.e-002	7.8217
11784	13.949	5.6364	0.	2322.7
11785	13.857	5.5455	0.	2345.3
11786	13.857	5.6364	5.e-002	7.7839
11787	14.133	5.6364	0.	2275.3
11788	14.041	5.5455	0.	2297.8
11789	14.041	5.6364	5.e-002	7.7466
11790	14.318	5.6364	0.	2228.1
11791	14.226	5.5455	0.	2250.5
11792	14.226	5.6364	5.e-002	7.7098
11793	14.502	5.6364	0.	2181.1
11794	14.41	5.5455	0.	2203.4
11795	14.41	5.6364	5.e-002	7.6737
11796	14.687	5.6364	0.	2134.3
11797	14.594	5.5455	0.	2156.6
11798	14.594	5.6364	5.e-002	7.6382
11799	14.871	5.6364	0.	2087.7
11800	14.779	5.5455	0.	2109.9
11801	14.779	5.6364	5.e-002	7.6031
11802	15.055	5.6364	0.	2041.3
11803	14.963	5.5455	0.	2063.4
11804	14.963	5.6364	5.e-002	7.5685
11805	15.24	5.6364	0.	1995.
11806	15.148	5.5455	0.	2017.1
11807	15.148	5.6364	5.e-002	7.5345
11808	15.424	5.6364	0.	1949.
11809	15.332	5.5455	0.	1971.
11810	15.332	5.6364	5.e-002	7.501
11811	15.609	5.6364	0.	1903.2
11812	15.517	5.5455	0.	1925.1
11813	15.517	5.6364	5.e-002	7.4678
11814	15.793	5.6364	0.	1857.6
11815	15.701	5.5455	0.	1879.4
11816	15.701	5.6364	5.e-002	7.4352
11817	15.978	5.6364	0.	1812.2
11818	15.885	5.5455	0.	1834.
11819	15.885	5.6364	5.e-002	7.403
11820	16.162	5.6364	0.	1767.
11821	16.07	5.5455	0.	1788.7
11822	16.07	5.6364	5.e-002	7.3712
11823	16.346	5.6364	0.	1722.
11824	16.254	5.5455	0.	1743.6
11825	16.254	5.6364	5.e-002	7.3399
11826	16.531	5.6364	0.	1677.3
11827	16.439	5.5455	0.	1698.7
11828	16.439	5.6364	5.e-002	7.3092
11829	16.715	5.6364	0.	1632.7
11830	16.623	5.5455	0.	1654.
11831	16.623	5.6364	5.e-002	7.2789
11832	16.9	5.6364	0.	1588.3
11833	16.807	5.5455	0.	1609.6
11834	16.807	5.6364	5.e-002	7.249
11835	17.084	5.6364	0.	1544.1
11836	16.992	5.5455	0.	1565.3
11837	16.992	5.6364	5.e-002	7.2197
11838	17.269	5.6364	0.	1500.1
11839	17.176	5.5455	0.	1521.2
11840	17.176	5.6364	5.e-002	7.1909
11841	17.453	5.6364	0.	1456.3
11842	17.361	5.5455	0.	1477.3
11843	17.361	5.6364	5.e-002	7.1626
11844	17.637	5.6364	0.	1412.7
11845	17.545	5.5455	0.	1433.6
11846	17.545	5.6364	5.e-002	7.1349
11847	17.822	5.6364	0.	1369.3
11848	17.73	5.5455	0.	1390.2
11849	17.73	5.6364	5.e-002	7.1078
11850	18.006	5.6364	0.	1326.1
11851	17.914	5.5455	0.	1346.9
11852	17.914	5.6364	5.e-002	7.0813
11853	18.191	5.6364	0.	1283.
11854	18.098	5.5455	0.	1303.8
11855	18.098	5.6364	5.e-002	7.0554
11856	18.375	5.6364	0.	1240.2
11857	18.283	5.5455	0.	1260.9
11858	18.283	5.6364	5.e-002	7.0303
11859	18.56	5.6364	0.	1197.6
11860	18.467	5.5455	0.	1218.2
11861	18.467	5.6364	5.e-002	7.0059
11862	18.744	5.6364	0.	1155.2
11863	18.652	5.5455	0.	1175.7
11864	18.652	5.6364	5.e-002	6.9823
11865	18.928	5.6364	0.	1112.9
11866	18.836	5.5455	0.	1133.4
11867	18.836	5.6364	5.e-002	6.9595
11868	19.113	5.6364	0.	1070.9
11869	19.021	5.5455	0.	1091.3
11870	19.021	5.6364	5.e-002	6.9377
11871	19.297	5.6364	0.	1029.
11872	19.205	5.5455	0.	1049.4
11873	19.205	5.6364	5.e-002	6.9168
11874	19.482	5.6364	0.	987.28
11875	19.389	5.5455	0.	1007.6
11876	19.389	5.6364	5.e-002	6.8969
11877	19.666	5.6364	0.	945.77
11878	19.574	5.5455	0.	966.07
11879	19.574	5.6364	5.e-002	6.8782
11880	19.85	5.6364	0.	904.44
11881	19.758	5.5455	0.	924.71
11882	19.758	5.6364	5.e-002	6.8607
11883	20.035	5.6364	0.	863.28
11884	19.943	5.5455	0.	883.53
11885	19.943	5.6364	5.e-002	6.8443
11886	20.219	5.6364	0.	822.29
11887	20.127	5.5455	0.	842.53
11888	20.127	5.6364	5.e-002	6.8294
11889	20.404	5.6364	0.	781.48
11890	20.312	5.5455	0.	801.71
11891	20.312	5.6364	5.e-002	6.8159
11892	20.588	5.6364	0.	740.83
11893	20.496	5.5455	0.	761.07
11894	20.496	5.6364	5.e-002	6.8039
11895	20.773	5.6364	0.	700.35
11896	20.68	5.5455	0.	720.61
11897	20.68	5.6364	5.e-002	6.7935
11898	20.957	5.6364	0.	660.03
11899	20.865	5.5455	0.	680.32
11900	20.865	5.6364	5.e-002	6.7848
11901	21.141	5.6364	0.	619.88
11902	21.049	5.5455	0.	640.21
11903	21.049	5.6364	5.e-002	6.778
11904	21.326	5.6364	0.	579.89
11905	21.234	5.5455	0.	600.28
11906	21.234	5.6364	5.e-002	6.7731
11907	21.51	5.6364	0.	540.06
11908	21.418	5.5455	0.	560.52
11909	21.418	5.6364	5.e-002	6.7703
11910	21.695	5.6364	0.	500.4
11911	21.602	5.5455	0.	520.96
11912	21.602	5.6364	5.e-002	6.7696
11913	21.879	5.6364	0.	460.91
11914	21.787	5.5455	0.	481.59
11915	21.787	5.6364	5.e-002	6.7713
11916	22.064	5.6364	0.	421.62
11917	21.971	5.5455	0.	442.43
11918	21.971	5.6364	5.e-002	6.7754
11919	22.248	5.6364	0.	382.52
11920	22.156	5.5455	0.	403.5
11921	22.156	5.6364	5.e-002	6.7823
11922	22.432	5.6364	0.	343.67
11923	22.34	5.5455	0.	364.84
11924	22.34	5.6364	5.e-002	6.7922
11925	22.617	5.6364	0.	305.11
11926	22.525	5.5455	0.	326.5
11927	22.525	5.6364	5.e-002	6.8056
11928	22.801	5.6364	0.	266.92
11929	22.709	5.5455	0.	288.58
11930	22.709	5.6364	5.e-002	6.8234
11931	22.986	5.6364	0.	229.24
11932	22.893	5.5455	0.	251.2
11933	22.893	5.6364	5.e-002	6.847
11934	23.17	5.6364	0.	192.34
11935	23.078	5.5455	0.	214.59
11936	23.078	5.6364	5.e-002	6.8796
11937	23.355	5.6364	0.	156.7
11938	23.262	5.5455	0.	179.19
11939	23.262	5.6364	5.e-002	6.9271
11940	23.539	5.6364	0.	123.42
11941	23.447	5.5455	0.	145.76
11942	23.447	5.6364	5.e-002	7.0081
11943	23.723	5.6364	0.	94.998
11944	23.631	5.5455	0.	115.92
11945	23.631	5.6364	5.e-002	7.1929
11946	23.816	5.5455	0.	92.885
11947	23.816	5.6364	5.e-002	7.8512
11948	23.908	5.6364	0.	73.535
11949	4.5433	5.4545	0.	1981.
11950	4.4511	5.3636	0.	2286.7
11951	4.4511	5.4545	5.e-002	122.78
11952	4.3589	5.4545	0.	1581.4
11953	4.7277	5.4545	0.	2222.7
11954	4.6355	5.3636	0.	2324.6
11955	4.6355	5.4545	5.e-002	98.606
11956	4.9121	5.4545	0.	2586.7
11957	4.8199	5.3636	0.	2612.3
11958	4.8199	5.4545	5.e-002	88.836
11959	5.0966	5.4545	0.	2942.2
11960	5.0044	5.3636	0.	2939.2
11961	5.0044	5.4545	5.e-002	76.839
11962	5.281	5.4545	0.	3251.1
11963	5.1888	5.3636	0.	3240.9
11964	5.1888	5.4545	5.e-002	64.308
11965	5.4654	5.4545	0.	3503.7
11966	5.3732	5.3636	0.	3495.1
11967	5.3732	5.4545	5.e-002	52.36
11968	5.6498	5.4545	0.	3701.6
11969	5.5576	5.3636	0.	3697.6
11970	5.5576	5.4545	5.e-002	41.63
11971	5.8343	5.4545	0.	3850.9
11972	5.7421	5.3636	0.	3852.
11973	5.7421	5.4545	5.e-002	32.353
11974	6.0187	5.4545	0.	3959.
11975	5.9265	5.3636	0.	3964.8
11976	5.9265	5.4545	5.e-002	24.536
11977	6.2031	5.4545	0.	4033.1
11978	6.1109	5.3636	0.	4042.8
11979	6.1109	5.4545	5.e-002	18.079
11980	6.3875	5.4545	0.	4079.8
11981	6.2953	5.3636	0.	4092.5
11982	6.2953	5.4545	5.e-002	12.848
11983	6.572	5.4545	0.	4104.4
11984	6.4798	5.3636	0.	4119.5
11985	6.4798	5.4545	5.e-002	8.7236
11986	6.7564	5.4545	0.	4111.5
11987	6.6642	5.3636	0.	4128.4
11988	6.6642	5.4545	5.e-002	5.6772
11989	6.9408	5.4545	0.	4104.8
11990	6.8486	5.3636	0.	4123.1
11991	6.8486	5.4545	5.e-002	3.8891
11992	7.1252	5.4545	0.	4087.4
11993	7.033	5.3636	0.	4106.7
11994	7.033	5.4545	5.e-002	3.6139
11995	7.3097	5.4545	0.	4061.7
11996	7.2174	5.3636	0.	4081.6
11997	7.2174	5.4545	5.e-002	4.3312
11998	7.4941	5.4545	0.	4029.4
11999	7.4019	5.3636	0.	4049.9
12000	7.4019	5.4545	5.e-002	5.278
12001	7.6785	5.4545	0.	3992.2
12002	7.5863	5.3636	0.	4013.1
12003	7.5863	5.4545	5.e-002	6.1524
12004	7.8629	5.4545	0.	3951.2
12005	7.7707	5.3636	0.	3972.4
12006	7.7707	5.4545	5.e-002	6.8845
12007	8.0474	5.4545	0.	3907.3
12008	7.9551	5.3636	0.	3928.8
12009	7.9551	5.4545	5.e-002	7.4729
12010	8.2318	5.4545	0.	3861.3
12011	8.1396	5.3636	0.	3882.9
12012	8.1396	5.4545	5.e-002	7.9347
12013	8.4162	5.4545	0.	3813.7
12014	8.324	5.3636	0.	3835.4
12015	8.324	5.4545	5.e-002	8.2904
12016	8.6006	5.4545	0.	3764.8
12017	8.5084	5.3636	0.	3786.7
12018	8.5084	5.4545	5.e-002	8.5595
12019	8.785	5.4545	0.	3715.1
12020	8.6928	5.3636	0.	3737.1
12021	8.6928	5.4545	5.e-002	8.7588
12022	8.9695	5.4545	0.	3664.8
12023	8.8773	5.3636	0.	3686.9
12024	8.8773	5.4545	5.e-002	8.9024
12025	9.1539	5.4545	0.	3614.1
12026	9.0617	5.3636	0.	3636.3
12027	9.0617	5.4545	5.e-002	9.0021
12028	9.3383	5.4545	0.	3563.1
12029	9.2461	5.3636	0.	3585.5
12030	9.2461	5.4545	5.e-002	9.0672
12031	9.5227	5.4545	0.	3512.
12032	9.4305	5.3636	0.	3534.4
12033	9.4305	5.4545	5.e-002	9.1053
12034	9.7072	5.4545	0.	3460.8
12035	9.615	5.3636	0.	3483.3
12036	9.615	5.4545	5.e-002	9.1224
12037	9.8916	5.4545	0.	3409.6
12038	9.7994	5.3636	0.	3432.2
12039	9.7994	5.4545	5.e-002	9.1234
12040	10.076	5.4545	0.	3358.4
12041	9.9838	5.3636	0.	3381.1
12042	9.9838	5.4545	5.e-002	9.1122
12043	10.26	5.4545	0.	3307.3
12044	10.168	5.3636	0.	3330.1
12045	10.168	5.4545	5.e-002	9.0917
12046	10.445	5.4545	0.	3256.3
12047	10.353	5.3636	0.	3279.2
12048	10.353	5.4545	5.e-002	9.0639
12049	10.629	5.4545	0.	3205.5
12050	10.537	5.3636	0.	3228.4
12051	10.537	5.4545	5.e-002	9.0312
12052	10.814	5.4545	0.	3154.8
12053	10.721	5.3636	0.	3177.7
12054	10.721	5.4545	5.e-002	8.9948
12055	10.998	5.4545	0.	3104.2
12056	10.906	5.3636	0.	3127.2
12057	10.906	5.4545	5.e-002	8.9558
12058	11.183	5.4545	0.	3053.9
12059	11.09	5.3636	0.	3076.9
12060	11.09	5.4545	5.e-002	8.9148
12061	11.367	5.4545	0.	3003.7
12062	11.275	5.3636	0.	3026.7
12063	11.275	5.4545	5.e-002	8.8729
12064	11.551	5.4545	0.	2953.6
12065	11.459	5.3636	0.	2976.7
12066	11.459	5.4545	5.e-002	8.8302
12067	11.736	5.4545	0.	2903.8
12068	11.644	5.3636	0.	2926.8
12069	11.644	5.4545	5.e-002	8.7871
12070	11.92	5.4545	0.	2854.1
12071	11.828	5.3636	0.	2877.2
12072	11.828	5.4545	5.e-002	8.744
12073	12.105	5.4545	0.	2804.7
12074	12.012	5.3636	0.	2827.7
12075	12.012	5.4545	5.e-002	8.7012
12076	12.289	5.4545	0.	2755.4
12077	12.197	5.3636	0.	2778.4
12078	12.197	5.4545	5.e-002	8.6585
12079	12.474	5.4545	0.	2706.3
12080	12.381	5.3636	0.	2729.3
12081	12.381	5.4545	5.e-002	8.6161
12082	12.658	5.4545	0.	2657.4
12083	12.566	5.3636	0.	2680.4
12084	12.566	5.4545	5.e-002	8.5743
12085	12.842	5.4545	0.	2608.7
12086	12.75	5.3636	0.	2631.6
12087	12.75	5.4545	5.e-002	8.533
12088	13.027	5.4545	0.	2560.1
12089	12.935	5.3636	0.	2583.
12090	12.935	5.4545	5.e-002	8.492
12091	13.211	5.4545	0.	2511.8
12092	13.119	5.3636	0.	2534.7
12093	13.119	5.4545	5.e-002	8.4517
12094	13.396	5.4545	0.	2463.7
12095	13.303	5.3636	0.	2486.5
12096	13.303	5.4545	5.e-002	8.4119
12097	13.58	5.4545	0.	2415.7
12098	13.488	5.3636	0.	2438.5
12099	13.488	5.4545	5.e-002	8.3724
12100	13.764	5.4545	0.	2368.
12101	13.672	5.3636	0.	2390.7
12102	13.672	5.4545	5.e-002	8.3334
12103	13.949	5.4545	0.	2320.4
12104	13.857	5.3636	0.	2343.1
12105	13.857	5.4545	5.e-002	8.295
12106	14.133	5.4545	0.	2273.1
12107	14.041	5.3636	0.	2295.7
12108	14.041	5.4545	5.e-002	8.257
12109	14.318	5.4545	0.	2225.9
12110	14.226	5.3636	0.	2248.5
12111	14.226	5.4545	5.e-002	8.2193
12112	14.502	5.4545	0.	2179.
12113	14.41	5.3636	0.	2201.4
12114	14.41	5.4545	5.e-002	8.1821
12115	14.687	5.4545	0.	2132.2
12116	14.594	5.3636	0.	2154.6
12117	14.594	5.4545	5.e-002	8.1454
12118	14.871	5.4545	0.	2085.6
12119	14.779	5.3636	0.	2108.
12120	14.779	5.4545	5.e-002	8.1089
12121	15.055	5.4545	0.	2039.3
12122	14.963	5.3636	0.	2061.5
12123	14.963	5.4545	5.e-002	8.0728
12124	15.24	5.4545	0.	1993.1
12125	15.148	5.3636	0.	2015.3
12126	15.148	5.4545	5.e-002	8.0372
12127	15.424	5.4545	0.	1947.2
12128	15.332	5.3636	0.	1969.3
12129	15.332	5.4545	5.e-002	8.0019
12130	15.609	5.4545	0.	1901.4
12131	15.517	5.3636	0.	1923.4
12132	15.517	5.4545	5.e-002	7.9668
12133	15.793	5.4545	0.	1855.8
12134	15.701	5.3636	0.	1877.8
12135	15.701	5.4545	5.e-002	7.9322
12136	15.978	5.4545	0.	1810.5
12137	15.885	5.3636	0.	1832.3
12138	15.885	5.4545	5.e-002	7.8979
12139	16.162	5.4545	0.	1765.3
12140	16.07	5.3636	0.	1787.1
12141	16.07	5.4545	5.e-002	7.8638
12142	16.346	5.4545	0.	1720.3
12143	16.254	5.3636	0.	1742.
12144	16.254	5.4545	5.e-002	7.8301
12145	16.531	5.4545	0.	1675.6
12146	16.439	5.3636	0.	1697.2
12147	16.439	5.4545	5.e-002	7.7969
12148	16.715	5.4545	0.	1631.
12149	16.623	5.3636	0.	1652.5
12150	16.623	5.4545	5.e-002	7.764
12151	16.9	5.4545	0.	1586.6
12152	16.807	5.3636	0.	1608.1
12153	16.807	5.4545	5.e-002	7.7313
12154	17.084	5.4545	0.	1542.5
12155	16.992	5.3636	0.	1563.8
12156	16.992	5.4545	5.e-002	7.6991
12157	17.269	5.4545	0.	1498.5
12158	17.176	5.3636	0.	1519.8
12159	17.176	5.4545	5.e-002	7.6672
12160	17.453	5.4545	0.	1454.7
12161	17.361	5.3636	0.	1476.
12162	17.361	5.4545	5.e-002	7.6357
12163	17.637	5.4545	0.	1411.2
12164	17.545	5.3636	0.	1432.3
12165	17.545	5.4545	5.e-002	7.6047
12166	17.822	5.4545	0.	1367.8
12167	17.73	5.3636	0.	1388.9
12168	17.73	5.4545	5.e-002	7.5741
12169	18.006	5.4545	0.	1324.7
12170	17.914	5.3636	0.	1345.6
12171	17.914	5.4545	5.e-002	7.5439
12172	18.191	5.4545	0.	1281.7
12173	18.098	5.3636	0.	1302.6
12174	18.098	5.4545	5.e-002	7.5142
12175	18.375	5.4545	0.	1238.9
12176	18.283	5.3636	0.	1259.8
12177	18.283	5.4545	5.e-002	7.4851
12178	18.56	5.4545	0.	1196.4
12179	18.467	5.3636	0.	1217.1
12180	18.467	5.4545	5.e-002	7.4565
12181	18.744	5.4545	0.	1154.
12182	18.652	5.3636	0.	1174.7
12183	18.652	5.4545	5.e-002	7.4285
12184	18.928	5.4545	0.	1111.8
12185	18.836	5.3636	0.	1132.5
12186	18.836	5.4545	5.e-002	7.4011
12187	19.113	5.4545	0.	1069.9
12188	19.021	5.3636	0.	1090.5
12189	19.021	5.4545	5.e-002	7.3744
12190	19.297	5.4545	0.	1028.1
12191	19.205	5.3636	0.	1048.6
12192	19.205	5.4545	5.e-002	7.3484
12193	19.482	5.4545	0.	986.49
12194	19.389	5.3636	0.	1007.
12195	19.389	5.4545	5.e-002	7.3231
12196	19.666	5.4545	0.	945.09
12197	19.574	5.3636	0.	965.57
12198	19.574	5.4545	5.e-002	7.2987
12199	19.85	5.4545	0.	903.88
12200	19.758	5.3636	0.	924.33
12201	19.758	5.4545	5.e-002	7.2752
12202	20.035	5.4545	0.	862.87
12203	19.943	5.3636	0.	883.3
12204	19.943	5.4545	5.e-002	7.2526
12205	20.219	5.4545	0.	822.04
12206	20.127	5.3636	0.	842.46
12207	20.127	5.4545	5.e-002	7.231
12208	20.404	5.4545	0.	781.4
12209	20.312	5.3636	0.	801.82
12210	20.312	5.4545	5.e-002	7.2105
12211	20.588	5.4545	0.	740.95
12212	20.496	5.3636	0.	761.37
12213	20.496	5.4545	5.e-002	7.191
12214	20.773	5.4545	0.	700.68
12215	20.68	5.3636	0.	721.13
12216	20.68	5.4545	5.e-002	7.1728
12217	20.957	5.4545	0.	660.61
12218	20.865	5.3636	0.	681.08
12219	20.865	5.4545	5.e-002	7.1559
12220	21.141	5.4545	0.	620.73
12221	21.049	5.3636	0.	641.25
12222	21.049	5.4545	5.e-002	7.1403
12223	21.326	5.4545	0.	581.04
12224	21.234	5.3636	0.	601.62
12225	21.234	5.4545	5.e-002	7.1262
12226	21.51	5.4545	0.	541.56
12227	21.418	5.3636	0.	562.21
12228	21.418	5.4545	5.e-002	7.1137
12229	21.695	5.4545	0.	502.3
12230	21.602	5.3636	0.	523.04
12231	21.602	5.4545	5.e-002	7.1029
12232	21.879	5.4545	0.	463.27
12233	21.787	5.3636	0.	484.11
12234	21.787	5.4545	5.e-002	7.0938
12235	22.064	5.4545	0.	424.5
12236	21.971	5.3636	0.	445.47
12237	21.971	5.4545	5.e-002	7.0869
12238	22.248	5.4545	0.	386.02
12239	22.156	5.3636	0.	407.13
12240	22.156	5.4545	5.e-002	7.0823
12241	22.432	5.4545	0.	347.91
12242	22.34	5.3636	0.	369.17
12243	22.34	5.4545	5.e-002	7.0806
12244	22.617	5.4545	0.	310.23
12245	22.525	5.3636	0.	331.67
12246	22.525	5.4545	5.e-002	7.0823
12247	22.801	5.4545	0.	273.14
12248	22.709	5.3636	0.	294.74
12249	22.709	5.4545	5.e-002	7.089
12250	22.986	5.4545	0.	236.86
12251	22.893	5.3636	0.	258.6
12252	22.893	5.4545	5.e-002	7.1027
12253	23.17	5.4545	0.	201.77
12254	23.078	5.3636	0.	223.54
12255	23.078	5.4545	5.e-002	7.1277
12256	23.355	5.4545	0.	168.5
12257	23.262	5.3636	0.	190.08
12258	23.262	5.4545	5.e-002	7.1732
12259	23.539	5.4545	0.	138.22
12260	23.447	5.3636	0.	159.05
12261	23.447	5.4545	5.e-002	7.2573
12262	23.723	5.4545	0.	112.95
12263	23.631	5.3636	0.	131.9
12264	23.631	5.4545	5.e-002	7.4268
12265	23.816	5.3636	0.	110.99
12266	23.816	5.4545	5.e-002	7.9469
12267	23.908	5.4545	0.	94.033
12268	4.5433	5.2727	0.	2549.9
12269	4.4511	5.1818	0.	2967.9
12270	4.4511	5.2727	5.e-002	138.19
12271	4.3589	5.2727	0.	2101.6
12272	4.7277	5.2727	0.	2670.
12273	4.6355	5.1818	0.	2878.6
12274	4.6355	5.2727	5.e-002	104.36
12275	4.9121	5.2727	0.	2941.3
12276	4.8199	5.1818	0.	3061.4
12277	4.8199	5.2727	5.e-002	91.904
12278	5.0966	5.2727	0.	3224.9
12279	5.0044	5.1818	0.	3297.2
12280	5.0044	5.2727	5.e-002	77.701
12281	5.281	5.2727	0.	3477.4
12282	5.1888	5.1818	0.	3524.5
12283	5.1888	5.2727	5.e-002	63.674
12284	5.4654	5.2727	0.	3684.6
12285	5.3732	5.1818	0.	3718.9
12286	5.3732	5.2727	5.e-002	50.969
12287	5.6498	5.2727	0.	3845.4
12288	5.5576	5.1818	0.	3873.3
12289	5.5576	5.2727	5.e-002	40.05
12290	5.8343	5.2727	0.	3964.3
12291	5.7421	5.1818	0.	3989.2
12292	5.7421	5.2727	5.e-002	30.948
12293	6.0187	5.2727	0.	4047.6
12294	5.9265	5.1818	0.	4071.1
12295	5.9265	5.2727	5.e-002	23.513
12296	6.2031	5.2727	0.	4101.6
12297	6.1109	5.1818	0.	4124.4
12298	6.1109	5.2727	5.e-002	17.548
12299	6.3875	5.2727	0.	4131.9
12300	6.2953	5.1818	0.	4154.4
12301	6.2953	5.2727	5.e-002	12.877
12302	6.572	5.2727	0.	4143.3
12303	6.4798	5.1818	0.	4165.7
12304	6.4798	5.2727	5.e-002	9.3851
12305	6.7564	5.2727	0.	4139.9
12306	6.6642	5.1818	0.	4162.2
12307	6.6642	5.2727	5.e-002	7.0366
12308	6.9408	5.2727	0.	4124.9
12309	6.8486	5.1818	0.	4147.1
12310	6.8486	5.2727	5.e-002	5.8293
12311	7.1252	5.2727	0.	4100.9
12312	7.033	5.1818	0.	4123.
12313	7.033	5.2727	5.e-002	5.5982
12314	7.3097	5.2727	0.	4069.9
12315	7.2174	5.1818	0.	4092.
12316	7.2174	5.2727	5.e-002	5.9472
12317	7.4941	5.2727	0.	4033.6
12318	7.4019	5.1818	0.	4055.7
12319	7.4019	5.2727	5.e-002	6.5083
12320	7.6785	5.2727	0.	3993.3
12321	7.5863	5.1818	0.	4015.3
12322	7.5863	5.2727	5.e-002	7.0842
12323	7.8629	5.2727	0.	3950.
12324	7.7707	5.1818	0.	3971.9
12325	7.7707	5.2727	5.e-002	7.5964
12326	8.0474	5.2727	0.	3904.3
12327	7.9551	5.1818	0.	3926.3
12328	7.9551	5.2727	5.e-002	8.0228
12329	8.2318	5.2727	0.	3857.
12330	8.1396	5.1818	0.	3879.
12331	8.1396	5.2727	5.e-002	8.364
12332	8.4162	5.2727	0.	3808.5
12333	8.324	5.1818	0.	3830.5
12334	8.324	5.2727	5.e-002	8.629
12335	8.6006	5.2727	0.	3759.1
12336	8.5084	5.1818	0.	3781.1
12337	8.5084	5.2727	5.e-002	8.8294
12338	8.785	5.2727	0.	3709.
12339	8.6928	5.1818	0.	3731.1
12340	8.6928	5.2727	5.e-002	8.9762
12341	8.9695	5.2727	0.	3658.5
12342	8.8773	5.1818	0.	3680.6
12343	8.8773	5.2727	5.e-002	9.0798
12344	9.1539	5.2727	0.	3607.7
12345	9.0617	5.1818	0.	3629.9
12346	9.0617	5.2727	5.e-002	9.1486
12347	9.3383	5.2727	0.	3556.8
12348	9.2461	5.1818	0.	3579.1
12349	9.2461	5.2727	5.e-002	9.1899
12350	9.5227	5.2727	0.	3505.8
12351	9.4305	5.1818	0.	3528.2
12352	9.4305	5.2727	5.e-002	9.2096
12353	9.7072	5.2727	0.	3454.7
12354	9.615	5.1818	0.	3477.2
12355	9.615	5.2727	5.e-002	9.2125
12356	9.8916	5.2727	0.	3403.7
12357	9.7994	5.1818	0.	3426.3
12358	9.7994	5.2727	5.e-002	9.2026
12359	10.076	5.2727	0.	3352.8
12360	9.9838	5.1818	0.	3375.4
12361	9.9838	5.2727	5.e-002	9.1828
12362	10.26	5.2727	0.	3302.
12363	10.168	5.1818	0.	3324.7
12364	10.168	5.2727	5.e-002	9.1555
12365	10.445	5.2727	0.	3251.2
12366	10.353	5.1818	0.	3274.
12367	10.353	5.2727	5.e-002	9.1226
12368	10.629	5.2727	0.	3200.6
12369	10.537	5.1818	0.	3223.5
12370	10.537	5.2727	5.e-002	9.0858
12371	10.814	5.2727	0.	3150.2
12372	10.721	5.1818	0.	3173.1
12373	10.721	5.2727	5.e-002	9.0462
12374	10.998	5.2727	0.	3099.9
12375	10.906	5.1818	0.	3122.8
12376	10.906	5.2727	5.e-002	9.0047
12377	11.183	5.2727	0.	3049.7
12378	11.09	5.1818	0.	3072.7
12379	11.09	5.2727	5.e-002	8.9616
12380	11.367	5.2727	0.	2999.7
12381	11.275	5.1818	0.	3022.7
12382	11.275	5.2727	5.e-002	8.918
12383	11.551	5.2727	0.	2949.9
12384	11.459	5.1818	0.	2972.9
12385	11.459	5.2727	5.e-002	8.874
12386	11.736	5.2727	0.	2900.3
12387	11.644	5.1818	0.	2923.3
12388	11.644	5.2727	5.e-002	8.8298
12389	11.92	5.2727	0.	2850.8
12390	11.828	5.1818	0.	2873.8
12391	11.828	5.2727	5.e-002	8.7859
12392	12.105	5.2727	0.	2801.5
12393	12.012	5.1818	0.	2824.5
12394	12.012	5.2727	5.e-002	8.7423
12395	12.289	5.2727	0.	2752.3
12396	12.197	5.1818	0.	2775.4
12397	12.197	5.2727	5.e-002	8.6989
12398	12.474	5.2727	0.	2703.4
12399	12.381	5.1818	0.	2726.4
12400	12.381	5.2727	5.e-002	8.6559
12401	12.658	5.2727	0.	2654.6
12402	12.566	5.1818	0.	2677.6
12403	12.566	5.2727	5.e-002	8.6136
12404	12.842	5.2727	0.	2606.
12405	12.75	5.1818	0.	2629.
12406	12.75	5.2727	5.e-002	8.5718
12407	13.027	5.2727	0.	2557.6
12408	12.935	5.1818	0.	2580.6
12409	12.935	5.2727	5.e-002	8.5304
12410	13.211	5.2727	0.	2509.4
12411	13.119	5.1818	0.	2532.3
12412	13.119	5.2727	5.e-002	8.4897
12413	13.396	5.2727	0.	2461.4
12414	13.303	5.1818	0.	2484.2
12415	13.303	5.2727	5.e-002	8.4496
12416	13.58	5.2727	0.	2413.5
12417	13.488	5.1818	0.	2436.3
12418	13.488	5.2727	5.e-002	8.4098
12419	13.764	5.2727	0.	2365.9
12420	13.672	5.1818	0.	2388.6
12421	13.672	5.2727	5.e-002	8.3704
12422	13.949	5.2727	0.	2318.4
12423	13.857	5.1818	0.	2341.1
12424	13.857	5.2727	5.e-002	8.3317
12425	14.133	5.2727	0.	2271.1
12426	14.041	5.1818	0.	2293.8
12427	14.041	5.2727	5.e-002	8.2935
12428	14.318	5.2727	0.	2224.
12429	14.226	5.1818	0.	2246.6
12430	14.226	5.2727	5.e-002	8.2555
12431	14.502	5.2727	0.	2177.1
12432	14.41	5.1818	0.	2199.6
12433	14.41	5.2727	5.e-002	8.2181
12434	14.687	5.2727	0.	2130.4
12435	14.594	5.1818	0.	2152.9
12436	14.594	5.2727	5.e-002	8.1811
12437	14.871	5.2727	0.	2083.9
12438	14.779	5.1818	0.	2106.3
12439	14.779	5.2727	5.e-002	8.1444
12440	15.055	5.2727	0.	2037.6
12441	14.963	5.1818	0.	2059.9
12442	14.963	5.2727	5.e-002	8.1081
12443	15.24	5.2727	0.	1991.5
12444	15.148	5.1818	0.	2013.7
12445	15.148	5.2727	5.e-002	8.0723
12446	15.424	5.2727	0.	1945.5
12447	15.332	5.1818	0.	1967.7
12448	15.332	5.2727	5.e-002	8.0367
12449	15.609	5.2727	0.	1899.8
12450	15.517	5.1818	0.	1921.9
12451	15.517	5.2727	5.e-002	8.0015
12452	15.793	5.2727	0.	1854.3
12453	15.701	5.1818	0.	1876.3
12454	15.701	5.2727	5.e-002	7.9666
12455	15.978	5.2727	0.	1809.
12456	15.885	5.1818	0.	1830.9
12457	15.885	5.2727	5.e-002	7.9322
12458	16.162	5.2727	0.	1763.8
12459	16.07	5.1818	0.	1785.7
12460	16.07	5.2727	5.e-002	7.8979
12461	16.346	5.2727	0.	1718.9
12462	16.254	5.1818	0.	1740.7
12463	16.254	5.2727	5.e-002	7.8641
12464	16.531	5.2727	0.	1674.2
12465	16.439	5.1818	0.	1695.9
12466	16.439	5.2727	5.e-002	7.8306
12467	16.715	5.2727	0.	1629.7
12468	16.623	5.1818	0.	1651.2
12469	16.623	5.2727	5.e-002	7.7975
12470	16.9	5.2727	0.	1585.3
12471	16.807	5.1818	0.	1606.8
12472	16.807	5.2727	5.e-002	7.7647
12473	17.084	5.2727	0.	1541.2
12474	16.992	5.1818	0.	1562.6
12475	16.992	5.2727	5.e-002	7.7323
12476	17.269	5.2727	0.	1497.3
12477	17.176	5.1818	0.	1518.6
12478	17.176	5.2727	5.e-002	7.7004
12479	17.453	5.2727	0.	1453.6
12480	17.361	5.1818	0.	1474.8
12481	17.361	5.2727	5.e-002	7.6687
12482	17.637	5.2727	0.	1410.1
12483	17.545	5.1818	0.	1431.2
12484	17.545	5.2727	5.e-002	7.6375
12485	17.822	5.2727	0.	1366.8
12486	17.73	5.1818	0.	1387.9
12487	17.73	5.2727	5.e-002	7.6068
12488	18.006	5.2727	0.	1323.6
12489	17.914	5.1818	0.	1344.7
12490	17.914	5.2727	5.e-002	7.5765
12491	18.191	5.2727	0.	1280.7
12492	18.098	5.1818	0.	1301.7
12493	18.098	5.2727	5.e-002	7.5467
12494	18.375	5.2727	0.	1238.
12495	18.283	5.1818	0.	1258.9
12496	18.283	5.2727	5.e-002	7.5174
12497	18.56	5.2727	0.	1195.6
12498	18.467	5.1818	0.	1216.4
12499	18.467	5.2727	5.e-002	7.4887
12500	18.744	5.2727	0.	1153.3
12501	18.652	5.1818	0.	1174.
12502	18.652	5.2727	5.e-002	7.4606
12503	18.928	5.2727	0.	1111.2
12504	18.836	5.1818	0.	1131.9
12505	18.836	5.2727	5.e-002	7.4331
12506	19.113	5.2727	0.	1069.3
12507	19.021	5.1818	0.	1090.
12508	19.021	5.2727	5.e-002	7.4063
12509	19.297	5.2727	0.	1027.6
12510	19.205	5.1818	0.	1048.2
12511	19.205	5.2727	5.e-002	7.3803
12512	19.482	5.2727	0.	986.15
12513	19.389	5.1818	0.	1006.7
12514	19.389	5.2727	5.e-002	7.3549
12515	19.666	5.2727	0.	944.88
12516	19.574	5.1818	0.	965.41
12517	19.574	5.2727	5.e-002	7.3305
12518	19.85	5.2727	0.	903.82
12519	19.758	5.1818	0.	924.32
12520	19.758	5.2727	5.e-002	7.307
12521	20.035	5.2727	0.	862.97
12522	19.943	5.1818	0.	883.44
12523	19.943	5.2727	5.e-002	7.2843
12524	20.219	5.2727	0.	822.32
12525	20.127	5.1818	0.	842.77
12526	20.127	5.2727	5.e-002	7.2628
12527	20.404	5.2727	0.	781.87
12528	20.312	5.1818	0.	802.32
12529	20.312	5.2727	5.e-002	7.2424
12530	20.588	5.2727	0.	741.64
12531	20.496	5.1818	0.	762.09
12532	20.496	5.2727	5.e-002	7.2231
12533	20.773	5.2727	0.	701.62
12534	20.68	5.1818	0.	722.08
12535	20.68	5.2727	5.e-002	7.2051
12536	20.957	5.2727	0.	661.82
12537	20.865	5.1818	0.	682.31
12538	20.865	5.2727	5.e-002	7.1885
12539	21.141	5.2727	0.	622.24
12540	21.049	5.1818	0.	642.77
12541	21.049	5.2727	5.e-002	7.1734
12542	21.326	5.2727	0.	582.9
12543	21.234	5.1818	0.	603.47
12544	21.234	5.2727	5.e-002	7.1599
12545	21.51	5.2727	0.	543.81
12546	21.418	5.1818	0.	564.44
12547	21.418	5.2727	5.e-002	7.1482
12548	21.695	5.2727	0.	504.98
12549	21.602	5.1818	0.	525.68
12550	21.602	5.2727	5.e-002	7.1384
12551	21.879	5.2727	0.	466.45
12552	21.787	5.1818	0.	487.23
12553	21.787	5.2727	5.e-002	7.1308
12554	22.064	5.2727	0.	428.25
12555	21.971	5.1818	0.	449.13
12556	21.971	5.2727	5.e-002	7.1257
12557	22.248	5.2727	0.	390.44
12558	22.156	5.1818	0.	411.42
12559	22.156	5.2727	5.e-002	7.1237
12560	22.432	5.2727	0.	353.1
12561	22.34	5.1818	0.	374.18
12562	22.34	5.2727	5.e-002	7.1252
12563	22.617	5.2727	0.	316.36
12564	22.525	5.1818	0.	337.51
12565	22.525	5.2727	5.e-002	7.1315
12566	22.801	5.2727	0.	280.38
12567	22.709	5.1818	0.	301.57
12568	22.709	5.2727	5.e-002	7.1441
12569	22.986	5.2727	0.	245.43
12570	22.893	5.1818	0.	266.59
12571	22.893	5.2727	5.e-002	7.1659
12572	23.17	5.2727	0.	211.94
12573	23.078	5.1818	0.	232.9
12574	23.078	5.2727	5.e-002	7.2017
12575	23.355	5.2727	0.	180.56
12576	23.262	5.1818	0.	201.02
12577	23.262	5.2727	5.e-002	7.2599
12578	23.539	5.2727	0.	152.3
12579	23.447	5.1818	0.	171.72
12580	23.447	5.2727	5.e-002	7.3543
12581	23.723	5.2727	0.	128.81
12582	23.631	5.1818	0.	146.23
12583	23.631	5.2727	5.e-002	7.5173
12584	23.816	5.1818	0.	126.47
12585	23.816	5.2727	5.e-002	7.9536
12586	23.908	5.2727	0.	111.28
12587	4.5433	5.0909	0.	3211.7
12588	4.4511	5.	0.	3761.1
12589	4.4511	5.0909	5.e-002	161.25
12590	4.3589	5.0909	0.	2689.2
12591	4.7277	5.0909	0.	3215.2
12592	4.6355	5.	0.	3537.
12593	4.6355	5.0909	5.e-002	114.44
12594	4.9121	5.0909	0.	3384.3
12595	4.8199	5.	0.	3604.7
12596	4.8199	5.0909	5.e-002	96.801
12597	5.0966	5.0909	0.	3577.7
12598	5.0044	5.	0.	3730.7
12599	5.0044	5.0909	5.e-002	78.788
12600	5.281	5.0909	0.	3755.
12601	5.1888	5.	0.	3863.7
12602	5.1888	5.0909	5.e-002	62.637
12603	5.4654	5.0909	0.	3901.4
12604	5.3732	5.	0.	3981.7
12605	5.3732	5.0909	5.e-002	49.15
12606	5.6498	5.0909	0.	4013.5
12607	5.5576	5.	0.	4075.5
12608	5.5576	5.0909	5.e-002	38.281
12609	5.8343	5.0909	0.	4093.9
12610	5.7421	5.	0.	4143.9
12611	5.7421	5.0909	5.e-002	29.653
12612	6.0187	5.0909	0.	4146.7
12613	5.9265	5.	0.	4188.7
12614	5.9265	5.0909	5.e-002	22.867
12615	6.2031	5.0909	0.	4176.6
12616	6.1109	5.	0.	4213.1
12617	6.1109	5.0909	5.e-002	17.603
12618	6.3875	5.0909	0.	4187.9
12619	6.2953	5.	0.	4220.6
12620	6.2953	5.0909	5.e-002	13.627
12621	6.572	5.0909	0.	4184.5
12622	6.4798	5.	0.	4214.4
12623	6.4798	5.0909	5.e-002	10.778
12624	6.7564	5.0909	0.	4169.4
12625	6.6642	5.	0.	4197.2
12626	6.6642	5.0909	5.e-002	8.9315
12627	6.9408	5.0909	0.	4145.3
12628	6.8486	5.	0.	4171.6
12629	6.8486	5.0909	5.e-002	7.937
12630	7.1252	5.0909	0.	4114.2
12631	7.033	5.	0.	4139.3
12632	7.033	5.0909	5.e-002	7.5782
12633	7.3097	5.0909	0.	4077.8
12634	7.2174	5.	0.	4102.
12635	7.2174	5.0909	5.e-002	7.6094
12636	7.4941	5.0909	0.	4037.4
12637	7.4019	5.	0.	4060.9
12638	7.4019	5.0909	5.e-002	7.8298
12639	7.6785	5.0909	0.	3994.
12640	7.5863	5.	0.	4017.
12641	7.5863	5.0909	5.e-002	8.1131
12642	7.8629	5.0909	0.	3948.3
12643	7.7707	5.	0.	3970.9
12644	7.7707	5.0909	5.e-002	8.3928
12645	8.0474	5.0909	0.	3901.
12646	7.9551	5.	0.	3923.4
12647	7.9551	5.0909	5.e-002	8.6392
12648	8.2318	5.0909	0.	3852.4
12649	8.1396	5.	0.	3874.7
12650	8.1396	5.0909	5.e-002	8.8422
12651	8.4162	5.0909	0.	3803.1
12652	8.324	5.	0.	3825.2
12653	8.324	5.0909	5.e-002	9.0013
12654	8.6006	5.0909	0.	3753.1
12655	8.5084	5.	0.	3775.2
12656	8.5084	5.0909	5.e-002	9.1203
12657	8.785	5.0909	0.	3702.7
12658	8.6928	5.	0.	3724.8
12659	8.6928	5.0909	5.e-002	9.2044
12660	8.9695	5.0909	0.	3652.1
12661	8.8773	5.	0.	3674.2
12662	8.8773	5.0909	5.e-002	9.2596
12663	9.1539	5.0909	0.	3601.3
12664	9.0617	5.	0.	3623.5
12665	9.0617	5.0909	5.e-002	9.2909
12666	9.3383	5.0909	0.	3550.5
12667	9.2461	5.	0.	3572.7
12668	9.2461	5.0909	5.e-002	9.3032
12669	9.5227	5.0909	0.	3499.6
12670	9.4305	5.	0.	3521.9
12671	9.4305	5.0909	5.e-002	9.3003
12672	9.7072	5.0909	0.	3448.8
12673	9.615	5.	0.	3471.2
12674	9.615	5.0909	5.e-002	9.2857
12675	9.8916	5.0909	0.	3398.
12676	9.7994	5.	0.	3420.5
12677	9.7994	5.0909	5.e-002	9.2619
12678	10.076	5.0909	0.	3347.3
12679	9.9838	5.	0.	3369.9
12680	9.9838	5.0909	5.e-002	9.2314
12681	10.26	5.0909	0.	3296.7
12682	10.168	5.	0.	3319.4
12683	10.168	5.0909	5.e-002	9.1957
12684	10.445	5.0909	0.	3246.3
12685	10.353	5.	0.	3269.
12686	10.353	5.0909	5.e-002	9.1562
12687	10.629	5.0909	0.	3195.9
12688	10.537	5.	0.	3218.7
12689	10.537	5.0909	5.e-002	9.114
12690	10.814	5.0909	0.	3145.7
12691	10.721	5.	0.	3168.6
12692	10.721	5.0909	5.e-002	9.0703
12693	10.998	5.0909	0.	3095.7
12694	10.906	5.	0.	3118.6
12695	10.906	5.0909	5.e-002	9.0254
12696	11.183	5.0909	0.	3045.7
12697	11.09	5.	0.	3068.7
12698	11.09	5.0909	5.e-002	8.9797
12699	11.367	5.0909	0.	2996.
12700	11.275	5.	0.	3019.
12701	11.275	5.0909	5.e-002	8.9339
12702	11.551	5.0909	0.	2946.4
12703	11.459	5.	0.	2969.4
12704	11.459	5.0909	5.e-002	8.8882
12705	11.736	5.0909	0.	2896.9
12706	11.644	5.	0.	2919.9
12707	11.644	5.0909	5.e-002	8.8425
12708	11.92	5.0909	0.	2847.6
12709	11.828	5.	0.	2870.7
12710	11.828	5.0909	5.e-002	8.7973
12711	12.105	5.0909	0.	2798.5
12712	12.012	5.	0.	2821.5
12713	12.012	5.0909	5.e-002	8.7527
12714	12.289	5.0909	0.	2749.5
12715	12.197	5.	0.	2772.5
12716	12.197	5.0909	5.e-002	8.7085
12717	12.474	5.0909	0.	2700.7
12718	12.381	5.	0.	2723.7
12719	12.381	5.0909	5.e-002	8.6648
12720	12.658	5.0909	0.	2652.
12721	12.566	5.	0.	2675.1
12722	12.566	5.0909	5.e-002	8.6219
12723	12.842	5.0909	0.	2603.6
12724	12.75	5.	0.	2626.6
12725	12.75	5.0909	5.e-002	8.5796
12726	13.027	5.0909	0.	2555.3
12727	12.935	5.	0.	2578.3
12728	12.935	5.0909	5.e-002	8.5377
12729	13.211	5.0909	0.	2507.2
12730	13.119	5.	0.	2530.1
12731	13.119	5.0909	5.e-002	8.4966
12732	13.396	5.0909	0.	2459.2
12733	13.303	5.	0.	2482.1
12734	13.303	5.0909	5.e-002	8.4561
12735	13.58	5.0909	0.	2411.5
12736	13.488	5.	0.	2434.3
12737	13.488	5.0909	5.e-002	8.4159
12738	13.764	5.0909	0.	2363.9
12739	13.672	5.	0.	2386.7
12740	13.672	5.0909	5.e-002	8.3763
12741	13.949	5.0909	0.	2316.5
12742	13.857	5.	0.	2339.2
12743	13.857	5.0909	5.e-002	8.3374
12744	14.133	5.0909	0.	2269.3
12745	14.041	5.	0.	2292.
12746	14.041	5.0909	5.e-002	8.2989
12747	14.318	5.0909	0.	2222.3
12748	14.226	5.	0.	2244.9
12749	14.226	5.0909	5.e-002	8.2607
12750	14.502	5.0909	0.	2175.4
12751	14.41	5.	0.	2198.
12752	14.41	5.0909	5.e-002	8.2231
12753	14.687	5.0909	0.	2128.8
12754	14.594	5.	0.	2151.3
12755	14.594	5.0909	5.e-002	8.186
12756	14.871	5.0909	0.	2082.3
12757	14.779	5.	0.	2104.7
12758	14.779	5.0909	5.e-002	8.1491
12759	15.055	5.0909	0.	2036.
12760	14.963	5.	0.	2058.4
12761	14.963	5.0909	5.e-002	8.1126
12762	15.24	5.0909	0.	1990.
12763	15.148	5.	0.	2012.2
12764	15.148	5.0909	5.e-002	8.0767
12765	15.424	5.0909	0.	1944.1
12766	15.332	5.	0.	1966.3
12767	15.332	5.0909	5.e-002	8.0411
12768	15.609	5.0909	0.	1898.4
12769	15.517	5.	0.	1920.5
12770	15.517	5.0909	5.e-002	8.0057
12771	15.793	5.0909	0.	1852.9
12772	15.701	5.	0.	1875.
12773	15.701	5.0909	5.e-002	7.9708
12774	15.978	5.0909	0.	1807.6
12775	15.885	5.	0.	1829.6
12776	15.885	5.0909	5.e-002	7.9363
12777	16.162	5.0909	0.	1762.5
12778	16.07	5.	0.	1784.4
12779	16.07	5.0909	5.e-002	7.902
12780	16.346	5.0909	0.	1717.6
12781	16.254	5.	0.	1739.4
12782	16.254	5.0909	5.e-002	7.8681
12783	16.531	5.0909	0.	1673.
12784	16.439	5.	0.	1694.7
12785	16.439	5.0909	5.e-002	7.8347
12786	16.715	5.0909	0.	1628.5
12787	16.623	5.	0.	1650.1
12788	16.623	5.0909	5.e-002	7.8016
12789	16.9	5.0909	0.	1584.2
12790	16.807	5.	0.	1605.7
12791	16.807	5.0909	5.e-002	7.7687
12792	17.084	5.0909	0.	1540.1
12793	16.992	5.	0.	1561.6
12794	16.992	5.0909	5.e-002	7.7364
12795	17.269	5.0909	0.	1496.2
12796	17.176	5.	0.	1517.6
12797	17.176	5.0909	5.e-002	7.7044
12798	17.453	5.0909	0.	1452.6
12799	17.361	5.	0.	1473.9
12800	17.361	5.0909	5.e-002	7.6728
12801	17.637	5.0909	0.	1409.1
12802	17.545	5.	0.	1430.3
12803	17.545	5.0909	5.e-002	7.6417
12804	17.822	5.0909	0.	1365.8
12805	17.73	5.	0.	1387.
12806	17.73	5.0909	5.e-002	7.611
12807	18.006	5.0909	0.	1322.8
12808	17.914	5.	0.	1343.9
12809	17.914	5.0909	5.e-002	7.5808
12810	18.191	5.0909	0.	1280.
12811	18.098	5.	0.	1301.
12812	18.098	5.0909	5.e-002	7.5511
12813	18.375	5.0909	0.	1237.3
12814	18.283	5.	0.	1258.3
12815	18.283	5.0909	5.e-002	7.5219
12816	18.56	5.0909	0.	1194.9
12817	18.467	5.	0.	1215.8
12818	18.467	5.0909	5.e-002	7.4934
12819	18.744	5.0909	0.	1152.7
12820	18.652	5.	0.	1173.5
12821	18.652	5.0909	5.e-002	7.4654
12822	18.928	5.0909	0.	1110.7
12823	18.836	5.	0.	1131.5
12824	18.836	5.0909	5.e-002	7.4381
12825	19.113	5.0909	0.	1068.9
12826	19.021	5.	0.	1089.6
12827	19.021	5.0909	5.e-002	7.4116
12828	19.297	5.0909	0.	1027.4
12829	19.205	5.	0.	1048.
12830	19.205	5.0909	5.e-002	7.3857
12831	19.482	5.0909	0.	986.04
12832	19.389	5.	0.	1006.6
12833	19.389	5.0909	5.e-002	7.3607
12834	19.666	5.0909	0.	944.91
12835	19.574	5.	0.	965.45
12836	19.574	5.0909	5.e-002	7.3365
12837	19.85	5.0909	0.	904.
12838	19.758	5.	0.	924.5
12839	19.758	5.0909	5.e-002	7.3134
12840	20.035	5.0909	0.	863.31
12841	19.943	5.	0.	883.79
12842	19.943	5.0909	5.e-002	7.2911
12843	20.219	5.0909	0.	822.85
12844	20.127	5.	0.	843.3
12845	20.127	5.0909	5.e-002	7.2701
12846	20.404	5.0909	0.	782.62
12847	20.312	5.	0.	803.05
12848	20.312	5.0909	5.e-002	7.2502
12849	20.588	5.0909	0.	742.62
12850	20.496	5.	0.	763.05
12851	20.496	5.0909	5.e-002	7.2316
12852	20.773	5.0909	0.	702.86
12853	20.68	5.	0.	723.29
12854	20.68	5.0909	5.e-002	7.2143
12855	20.957	5.0909	0.	663.34
12856	20.865	5.	0.	683.79
12857	20.865	5.0909	5.e-002	7.1986
12858	21.141	5.0909	0.	624.09
12859	21.049	5.	0.	644.55
12860	21.049	5.0909	5.e-002	7.1846
12861	21.326	5.0909	0.	585.11
12862	21.234	5.	0.	605.6
12863	21.234	5.0909	5.e-002	7.1723
12864	21.51	5.0909	0.	546.41
12865	21.418	5.	0.	566.94
12866	21.418	5.0909	5.e-002	7.1621
12867	21.695	5.0909	0.	508.04
12868	21.602	5.	0.	528.61
12869	21.602	5.0909	5.e-002	7.1542
12870	21.879	5.0909	0.	470.02
12871	21.787	5.	0.	490.65
12872	21.787	5.0909	5.e-002	7.1488
12873	22.064	5.0909	0.	432.41
12874	21.971	5.	0.	453.08
12875	21.971	5.0909	5.e-002	7.1464
12876	22.248	5.0909	0.	395.27
12877	22.156	5.	0.	415.98
12878	22.156	5.0909	5.e-002	7.1477
12879	22.432	5.0909	0.	358.7
12880	22.34	5.	0.	379.44
12881	22.34	5.0909	5.e-002	7.1534
12882	22.617	5.0909	0.	322.83
12883	22.525	5.	0.	343.56
12884	22.525	5.0909	5.e-002	7.1647
12885	22.801	5.0909	0.	287.87
12886	22.709	5.	0.	308.52
12887	22.709	5.0909	5.e-002	7.1837
12888	22.986	5.0909	0.	254.09
12889	22.893	5.	0.	274.55
12890	22.893	5.0909	5.e-002	7.2133
12891	23.17	5.0909	0.	221.91
12892	23.078	5.	0.	241.99
12893	23.078	5.0909	5.e-002	7.2578
12894	23.355	5.0909	0.	191.92
12895	23.262	5.	0.	211.32
12896	23.262	5.0909	5.e-002	7.3243
12897	23.539	5.0909	0.	165.03
12898	23.447	5.	0.	183.26
12899	23.447	5.0909	5.e-002	7.422
12900	23.723	5.0909	0.	142.67
12901	23.631	5.	0.	158.86
12902	23.631	5.0909	5.e-002	7.5717
12903	23.816	5.	0.	139.82
12904	23.816	5.0909	5.e-002	7.9467
12905	23.908	5.0909	0.	126.04
12906	4.5433	4.9091	0.	3991.8
12907	4.4511	4.8182	0.	4722.3
12908	4.4511	4.9091	5.e-002	193.92
12909	4.3589	4.9091	0.	3381.3
12910	4.7277	4.9091	0.	3862.5
12911	4.6355	4.8182	0.	4322.6
12912	4.6355	4.9091	5.e-002	129.55
12913	4.9121	4.9091	0.	3910.7
12914	4.8199	4.8182	0.	4240.9
12915	4.8199	4.9091	5.e-002	103.02
12916	5.0966	4.9091	0.	3992.9
12917	5.0044	4.8182	0.	4229.9
12918	5.0044	4.9091	5.e-002	79.401
12919	5.281	4.9091	0.	4076.7
12920	5.1888	4.8182	0.	4248.
12921	5.1888	4.9091	5.e-002	60.908
12922	5.4654	4.9091	0.	4148.1
12923	5.3732	4.8182	0.	4274.6
12924	5.3732	4.9091	5.e-002	47.07
12925	5.6498	4.9091	0.	4201.6
12926	5.5576	4.8182	0.	4297.6
12927	5.5576	4.9091	5.e-002	36.733
12928	5.8343	4.9091	0.	4236.3
12929	5.7421	4.8182	0.	4311.5
12930	5.7421	4.9091	5.e-002	28.933
12931	6.0187	4.9091	0.	4253.8
12932	5.9265	4.8182	0.	4314.4
12933	5.9265	4.9091	5.e-002	23.
12934	6.2031	4.9091	0.	4256.4
12935	6.1109	4.8182	0.	4306.7
12936	6.1109	4.9091	5.e-002	18.5
12937	6.3875	4.9091	0.	4246.7
12938	6.2953	4.8182	0.	4289.5
12939	6.2953	4.9091	5.e-002	15.148
12940	6.572	4.9091	0.	4227.
12941	6.4798	4.8182	0.	4264.3
12942	6.4798	4.9091	5.e-002	12.742
12943	6.7564	4.9091	0.	4199.3
12944	6.6642	4.8182	0.	4232.6
12945	6.6642	4.9091	5.e-002	11.112
12946	6.9408	4.9091	0.	4165.6
12947	6.8486	4.8182	0.	4195.8
12948	6.8486	4.9091	5.e-002	10.095
12949	7.1252	4.9091	0.	4127.1
12950	7.033	4.8182	0.	4155.1
12951	7.033	4.9091	5.e-002	9.5286
12952	7.3097	4.9091	0.	4085.2
12953	7.2174	4.8182	0.	4111.4
12954	7.2174	4.9091	5.e-002	9.2618
12955	7.4941	4.9091	0.	4040.5
12956	7.4019	4.8182	0.	4065.5
12957	7.4019	4.9091	5.e-002	9.1752
12958	7.6785	4.9091	0.	3994.
12959	7.5863	4.8182	0.	4018.
12960	7.5863	4.9091	5.e-002	9.1846
12961	7.8629	4.9091	0.	3946.1
12962	7.7707	4.8182	0.	3969.4
12963	7.7707	4.9091	5.e-002	9.2367
12964	8.0474	4.9091	0.	3897.1
12965	7.9551	4.8182	0.	3919.9
12966	7.9551	4.9091	5.e-002	9.3004
12967	8.2318	4.9091	0.	3847.5
12968	8.1396	4.8182	0.	3870.
12969	8.1396	4.9091	5.e-002	9.3594
12970	8.4162	4.9091	0.	3797.4
12971	8.324	4.8182	0.	3819.7
12972	8.324	4.9091	5.e-002	9.4059
12973	8.6006	4.9091	0.	3747.
12974	8.5084	4.8182	0.	3769.1
12975	8.5084	4.9091	5.e-002	9.4371
12976	8.785	4.9091	0.	3696.4
12977	8.6928	4.8182	0.	3718.5
12978	8.6928	4.9091	5.e-002	9.4531
12979	8.9695	4.9091	0.	3645.7
12980	8.8773	4.8182	0.	3667.8
12981	8.8773	4.9091	5.e-002	9.4551
12982	9.1539	4.9091	0.	3594.9
12983	9.0617	4.8182	0.	3617.1
12984	9.0617	4.9091	5.e-002	9.4452
12985	9.3383	4.9091	0.	3544.2
12986	9.2461	4.8182	0.	3566.4
12987	9.2461	4.9091	5.e-002	9.4254
12988	9.5227	4.9091	0.	3493.6
12989	9.4305	4.8182	0.	3515.8
12990	9.4305	4.9091	5.e-002	9.3975
12991	9.7072	4.9091	0.	3442.9
12992	9.615	4.8182	0.	3465.3
12993	9.615	4.9091	5.e-002	9.3633
12994	9.8916	4.9091	0.	3392.4
12995	9.7994	4.8182	0.	3414.9
12996	9.7994	4.9091	5.e-002	9.3243
12997	10.076	4.9091	0.	3342.
12998	9.9838	4.8182	0.	3364.6
12999	9.9838	4.9091	5.e-002	9.2818
13000	10.26	4.9091	0.	3291.7
13001	10.168	4.8182	0.	3314.3
13002	10.168	4.9091	5.e-002	9.2367
13003	10.445	4.9091	0.	3241.5
13004	10.353	4.8182	0.	3264.2
13005	10.353	4.9091	5.e-002	9.1897
13006	10.629	4.9091	0.	3191.4
13007	10.537	4.8182	0.	3214.2
13008	10.537	4.9091	5.e-002	9.1417
13009	10.814	4.9091	0.	3141.5
13010	10.721	4.8182	0.	3164.3
13011	10.721	4.9091	5.e-002	9.0934
13012	10.998	4.9091	0.	3091.6
13013	10.906	4.8182	0.	3114.6
13014	10.906	4.9091	5.e-002	9.0448
13015	11.183	4.9091	0.	3042.
13016	11.09	4.8182	0.	3064.9
13017	11.09	4.9091	5.e-002	8.9961
13018	11.367	4.9091	0.	2992.4
13019	11.275	4.8182	0.	3015.4
13020	11.275	4.9091	5.e-002	8.948
13021	11.551	4.9091	0.	2943.
13022	11.459	4.8182	0.	2966.
13023	11.459	4.9091	5.e-002	8.9003
13024	11.736	4.9091	0.	2893.7
13025	11.644	4.8182	0.	2916.8
13026	11.644	4.9091	5.e-002	8.853
13027	11.92	4.9091	0.	2844.6
13028	11.828	4.8182	0.	2867.7
13029	11.828	4.9091	5.e-002	8.8066
13030	12.105	4.9091	0.	2795.6
13031	12.012	4.8182	0.	2818.7
13032	12.012	4.9091	5.e-002	8.761
13033	12.289	4.9091	0.	2746.8
13034	12.197	4.8182	0.	2769.9
13035	12.197	4.9091	5.e-002	8.7158
13036	12.474	4.9091	0.	2698.1
13037	12.381	4.8182	0.	2721.2
13038	12.381	4.9091	5.e-002	8.6714
13039	12.658	4.9091	0.	2649.6
13040	12.566	4.8182	0.	2672.7
13041	12.566	4.9091	5.e-002	8.6278
13042	12.842	4.9091	0.	2601.3
13043	12.75	4.8182	0.	2624.3
13044	12.75	4.9091	5.e-002	8.585
13045	13.027	4.9091	0.	2553.1
13046	12.935	4.8182	0.	2576.1
13047	12.935	4.9091	5.e-002	8.5426
13048	13.211	4.9091	0.	2505.1
13049	13.119	4.8182	0.	2528.
13050	13.119	4.9091	5.e-002	8.5011
13051	13.396	4.9091	0.	2457.2
13052	13.303	4.8182	0.	2480.2
13053	13.303	4.9091	5.e-002	8.4603
13054	13.58	4.9091	0.	2409.6
13055	13.488	4.8182	0.	2432.4
13056	13.488	4.9091	5.e-002	8.4198
13057	13.764	4.9091	0.	2362.1
13058	13.672	4.8182	0.	2384.9
13059	13.672	4.9091	5.e-002	8.3799
13060	13.949	4.9091	0.	2314.7
13061	13.857	4.8182	0.	2337.5
13062	13.857	4.9091	5.e-002	8.3407
13063	14.133	4.9091	0.	2267.6
13064	14.041	4.8182	0.	2290.3
13065	14.041	4.9091	5.e-002	8.302
13066	14.318	4.9091	0.	2220.6
13067	14.226	4.8182	0.	2243.3
13068	14.226	4.9091	5.e-002	8.2636
13069	14.502	4.9091	0.	2173.8
13070	14.41	4.8182	0.	2196.4
13071	14.41	4.9091	5.e-002	8.2259
13072	14.687	4.9091	0.	2127.3
13073	14.594	4.8182	0.	2149.8
13074	14.594	4.9091	5.e-002	8.1886
13075	14.871	4.9091	0.	2080.8
13076	14.779	4.8182	0.	2103.3
13077	14.779	4.9091	5.e-002	8.1516
13078	15.055	4.9091	0.	2034.6
13079	14.963	4.8182	0.	2057.
13080	14.963	4.9091	5.e-002	8.115
13081	15.24	4.9091	0.	1988.6
13082	15.148	4.8182	0.	2010.9
13083	15.148	4.9091	5.e-002	8.079
13084	15.424	4.9091	0.	1942.8
13085	15.332	4.8182	0.	1965.
13086	15.332	4.9091	5.e-002	8.0433
13087	15.609	4.9091	0.	1897.1
13088	15.517	4.8182	0.	1919.3
13089	15.517	4.9091	5.e-002	8.0078
13090	15.793	4.9091	0.	1851.7
13091	15.701	4.8182	0.	1873.8
13092	15.701	4.9091	5.e-002	7.9729
13093	15.978	4.9091	0.	1806.4
13094	15.885	4.8182	0.	1828.4
13095	15.885	4.9091	5.e-002	7.9383
13096	16.162	4.9091	0.	1761.4
13097	16.07	4.8182	0.	1783.3
13098	16.07	4.9091	5.e-002	7.904
13099	16.346	4.9091	0.	1716.5
13100	16.254	4.8182	0.	1738.4
13101	16.254	4.9091	5.e-002	7.87
13102	16.531	4.9091	0.	1671.9
13103	16.439	4.8182	0.	1693.6
13104	16.439	4.9091	5.e-002	7.8366
13105	16.715	4.9091	0.	1627.4
13106	16.623	4.8182	0.	1649.1
13107	16.623	4.9091	5.e-002	7.8035
13108	16.9	4.9091	0.	1583.2
13109	16.807	4.8182	0.	1604.8
13110	16.807	4.9091	5.e-002	7.7707
13111	17.084	4.9091	0.	1539.1
13112	16.992	4.8182	0.	1560.6
13113	16.992	4.9091	5.e-002	7.7383
13114	17.269	4.9091	0.	1495.3
13115	17.176	4.8182	0.	1516.7
13116	17.176	4.9091	5.e-002	7.7064
13117	17.453	4.9091	0.	1451.7
13118	17.361	4.8182	0.	1473.
13119	17.361	4.9091	5.e-002	7.6748
13120	17.637	4.9091	0.	1408.3
13121	17.545	4.8182	0.	1429.5
13122	17.545	4.9091	5.e-002	7.6438
13123	17.822	4.9091	0.	1365.1
13124	17.73	4.8182	0.	1386.3
13125	17.73	4.9091	5.e-002	7.6132
13126	18.006	4.9091	0.	1322.1
13127	17.914	4.8182	0.	1343.2
13128	17.914	4.9091	5.e-002	7.5831
13129	18.191	4.9091	0.	1279.3
13130	18.098	4.8182	0.	1300.4
13131	18.098	4.9091	5.e-002	7.5534
13132	18.375	4.9091	0.	1236.8
13133	18.283	4.8182	0.	1257.7
13134	18.283	4.9091	5.e-002	7.5244
13135	18.56	4.9091	0.	1194.4
13136	18.467	4.8182	0.	1215.3
13137	18.467	4.9091	5.e-002	7.496
13138	18.744	4.9091	0.	1152.3
13139	18.652	4.8182	0.	1173.1
13140	18.652	4.9091	5.e-002	7.4682
13141	18.928	4.9091	0.	1110.4
13142	18.836	4.8182	0.	1131.2
13143	18.836	4.9091	5.e-002	7.4411
13144	19.113	4.9091	0.	1068.8
13145	19.021	4.8182	0.	1089.4
13146	19.021	4.9091	5.e-002	7.4148
13147	19.297	4.9091	0.	1027.3
13148	19.205	4.8182	0.	1047.9
13149	19.205	4.9091	5.e-002	7.3892
13150	19.482	4.9091	0.	986.09
13151	19.389	4.8182	0.	1006.7
13152	19.389	4.9091	5.e-002	7.3644
13153	19.666	4.9091	0.	945.1
13154	19.574	4.8182	0.	965.63
13155	19.574	4.9091	5.e-002	7.3406
13156	19.85	4.9091	0.	904.35
13157	19.758	4.8182	0.	924.84
13158	19.758	4.9091	5.e-002	7.3178
13159	20.035	4.9091	0.	863.84
13160	19.943	4.8182	0.	884.29
13161	19.943	4.9091	5.e-002	7.296
13162	20.219	4.9091	0.	823.57
13163	20.127	4.8182	0.	843.99
13164	20.127	4.9091	5.e-002	7.2754
13165	20.404	4.9091	0.	783.56
13166	20.312	4.8182	0.	803.94
13167	20.312	4.9091	5.e-002	7.2561
13168	20.588	4.9091	0.	743.79
13169	20.496	4.8182	0.	764.16
13170	20.496	4.9091	5.e-002	7.2381
13171	20.773	4.9091	0.	704.3
13172	20.68	4.8182	0.	724.65
13173	20.68	4.9091	5.e-002	7.2216
13174	20.957	4.9091	0.	665.07
13175	20.865	4.8182	0.	685.42
13176	20.865	4.9091	5.e-002	7.2069
13177	21.141	4.9091	0.	626.14
13178	21.049	4.8182	0.	646.49
13179	21.049	4.9091	5.e-002	7.1939
13180	21.326	4.9091	0.	587.52
13181	21.234	4.8182	0.	607.88
13182	21.234	4.9091	5.e-002	7.1829
13183	21.51	4.9091	0.	549.23
13184	21.418	4.8182	0.	569.6
13185	21.418	4.9091	5.e-002	7.1742
13186	21.695	4.9091	0.	511.31
13187	21.602	4.8182	0.	531.69
13188	21.602	4.9091	5.e-002	7.1681
13189	21.879	4.9091	0.	473.8
13190	21.787	4.8182	0.	494.19
13191	21.787	4.9091	5.e-002	7.165
13192	22.064	4.9091	0.	436.75
13193	21.971	4.8182	0.	457.14
13194	21.971	4.9091	5.e-002	7.1653
13195	22.248	4.9091	0.	400.24
13196	22.156	4.8182	0.	420.61
13197	22.156	4.9091	5.e-002	7.1697
13198	22.432	4.9091	0.	364.38
13199	22.34	4.8182	0.	384.71
13200	22.34	4.9091	5.e-002	7.1793
13201	22.617	4.9091	0.	329.3
13202	22.525	4.8182	0.	349.54
13203	22.525	4.9091	5.e-002	7.1954
13204	22.801	4.9091	0.	295.22
13205	22.709	4.8182	0.	315.27
13206	22.709	4.9091	5.e-002	7.2198
13207	22.986	4.9091	0.	262.4
13208	22.893	4.8182	0.	282.15
13209	22.893	4.9091	5.e-002	7.2554
13210	23.17	4.9091	0.	231.23
13211	23.078	4.8182	0.	250.48
13212	23.078	4.9091	5.e-002	7.3058
13213	23.355	4.9091	0.	202.28
13214	23.262	4.8182	0.	220.74
13215	23.262	4.9091	5.e-002	7.3764
13216	23.539	4.9091	0.	176.37
13217	23.447	4.8182	0.	193.56
13218	23.447	4.9091	5.e-002	7.4729
13219	23.723	4.9091	0.	154.77
13220	23.631	4.8182	0.	169.94
13221	23.631	4.9091	5.e-002	7.6094
13222	23.816	4.8182	0.	151.39
13223	23.816	4.9091	5.e-002	7.9317
13224	23.908	4.9091	0.	138.79
13225	4.5433	4.7273	0.	4939.7
13226	4.4511	4.6364	0.	5948.4
13227	4.4511	4.7273	5.e-002	244.13
13228	4.3589	4.7273	0.	4238.8
13229	4.7277	4.7273	0.	4627.8
13230	4.6355	4.6364	0.	5264.1
13231	4.6355	4.7273	5.e-002	148.55
13232	4.9121	4.7273	0.	4515.2
13233	4.8199	4.6364	0.	4968.1
13234	4.8199	4.7273	5.e-002	109.2
13235	5.0966	4.7273	0.	4458.9
13236	5.0044	4.6364	0.	4779.3
13237	5.0044	4.7273	5.e-002	78.644
13238	5.281	4.7273	0.	4431.
13239	5.1888	4.6364	0.	4661.9
13240	5.1888	4.7273	5.e-002	58.912
13241	5.4654	4.7273	0.	4415.7
13242	5.3732	4.6364	0.	4585.6
13243	5.3732	4.7273	5.e-002	45.631
13244	5.6498	4.7273	0.	4402.9
13245	5.5576	4.6364	0.	4531.
13246	5.5576	4.7273	5.e-002	36.344
13247	5.8343	4.7273	0.	4387.1
13248	5.7421	4.6364	0.	4486.1
13249	5.7421	4.7273	5.e-002	29.513
13250	6.0187	4.7273	0.	4366.
13251	5.9265	4.6364	0.	4444.4
13252	5.9265	4.7273	5.e-002	24.339
13253	6.2031	4.7273	0.	4339.1
13254	6.1109	4.6364	0.	4402.7
13255	6.1109	4.7273	5.e-002	20.379
13256	6.3875	4.7273	0.	4306.8
13257	6.2953	4.6364	0.	4359.5
13258	6.2953	4.7273	5.e-002	17.359
13259	6.572	4.7273	0.	4269.8
13260	6.4798	4.6364	0.	4314.5
13261	6.4798	4.7273	5.e-002	15.09
13262	6.7564	4.7273	0.	4229.1
13263	6.6642	4.6364	0.	4267.7
13264	6.6642	4.7273	5.e-002	13.425
13265	6.9408	4.7273	0.	4185.3
13266	6.8486	4.6364	0.	4219.5
13267	6.8486	4.7273	5.e-002	12.237
13268	7.1252	4.7273	0.	4139.4
13269	7.033	4.6364	0.	4170.1
13270	7.033	4.7273	5.e-002	11.414
13271	7.3097	4.7273	0.	4091.8
13272	7.2174	4.6364	0.	4120.
13273	7.2174	4.7273	5.e-002	10.858
13274	7.4941	4.7273	0.	4043.
13275	7.4019	4.6364	0.	4069.3
13276	7.4019	4.7273	5.e-002	10.489
13277	7.6785	4.7273	0.	3993.4
13278	7.5863	4.6364	0.	4018.4
13279	7.5863	4.7273	5.e-002	10.246
13280	7.8629	4.7273	0.	3943.3
13281	7.7707	4.6364	0.	3967.3
13282	7.7707	4.7273	5.e-002	10.084
13283	8.0474	4.7273	0.	3892.9
13284	7.9551	4.6364	0.	3916.1
13285	7.9551	4.7273	5.e-002	9.9714
13286	8.2318	4.7273	0.	3842.2
13287	8.1396	4.6364	0.	3865.
13288	8.1396	4.7273	5.e-002	9.8888
13289	8.4162	4.7273	0.	3791.5
13290	8.324	4.6364	0.	3813.9
13291	8.324	4.7273	5.e-002	9.8227
13292	8.6006	4.7273	0.	3740.7
13293	8.5084	4.6364	0.	3762.9
13294	8.5084	4.7273	5.e-002	9.7651
13295	8.785	4.7273	0.	3689.9
13296	8.6928	4.6364	0.	3712.1
13297	8.6928	4.7273	5.e-002	9.7113
13298	8.9695	4.7273	0.	3639.2
13299	8.8773	4.6364	0.	3661.3
13300	8.8773	4.7273	5.e-002	9.6587
13301	9.1539	4.7273	0.	3588.6
13302	9.0617	4.6364	0.	3610.7
13303	9.0617	4.7273	5.e-002	9.606
13304	9.3383	4.7273	0.	3538.1
13305	9.2461	4.6364	0.	3560.3
13306	9.2461	4.7273	5.e-002	9.5527
13307	9.5227	4.7273	0.	3487.6
13308	9.4305	4.6364	0.	3509.9
13309	9.4305	4.7273	5.e-002	9.4986
13310	9.7072	4.7273	0.	3437.3
13311	9.615	4.6364	0.	3459.6
13312	9.615	4.7273	5.e-002	9.4439
13313	9.8916	4.7273	0.	3387.
13314	9.7994	4.6364	0.	3409.5
13315	9.7994	4.7273	5.e-002	9.3888
13316	10.076	4.7273	0.	3336.9
13317	9.9838	4.6364	0.	3359.4
13318	9.9838	4.7273	5.e-002	9.3337
13319	10.26	4.7273	0.	3286.9
13320	10.168	4.6364	0.	3309.5
13321	10.168	4.7273	5.e-002	9.2787
13322	10.445	4.7273	0.	3236.9
13323	10.353	4.6364	0.	3259.6
13324	10.353	4.7273	5.e-002	9.2239
13325	10.629	4.7273	0.	3187.1
13326	10.537	4.6364	0.	3209.9
13327	10.537	4.7273	5.e-002	9.1698
13328	10.814	4.7273	0.	3137.4
13329	10.721	4.6364	0.	3160.3
13330	10.721	4.7273	5.e-002	9.1165
13331	10.998	4.7273	0.	3087.8
13332	10.906	4.6364	0.	3110.8
13333	10.906	4.7273	5.e-002	9.0641
13334	11.183	4.7273	0.	3038.4
13335	11.09	4.6364	0.	3061.4
13336	11.09	4.7273	5.e-002	9.0123
13337	11.367	4.7273	0.	2989.
13338	11.275	4.6364	0.	3012.1
13339	11.275	4.7273	5.e-002	8.9617
13340	11.551	4.7273	0.	2939.8
13341	11.459	4.6364	0.	2962.9
13342	11.459	4.7273	5.e-002	8.912
13343	11.736	4.7273	0.	2890.7
13344	11.644	4.6364	0.	2913.8
13345	11.644	4.7273	5.e-002	8.8632
13346	11.92	4.7273	0.	2841.8
13347	11.828	4.6364	0.	2864.9
13348	11.828	4.7273	5.e-002	8.8154
13349	12.105	4.7273	0.	2793.
13350	12.012	4.6364	0.	2816.1
13351	12.012	4.7273	5.e-002	8.7687
13352	12.289	4.7273	0.	2744.3
13353	12.197	4.6364	0.	2767.4
13354	12.197	4.7273	5.e-002	8.7227
13355	12.474	4.7273	0.	2695.8
13356	12.381	4.6364	0.	2718.9
13357	12.381	4.7273	5.e-002	8.6775
13358	12.658	4.7273	0.	2647.4
13359	12.566	4.6364	0.	2670.5
13360	12.566	4.7273	5.e-002	8.6333
13361	12.842	4.7273	0.	2599.1
13362	12.75	4.6364	0.	2622.2
13363	12.75	4.7273	5.e-002	8.5899
13364	13.027	4.7273	0.	2551.1
13365	12.935	4.6364	0.	2574.1
13366	12.935	4.7273	5.e-002	8.5471
13367	13.211	4.7273	0.	2503.2
13368	13.119	4.6364	0.	2526.1
13369	13.119	4.7273	5.e-002	8.5052
13370	13.396	4.7273	0.	2455.4
13371	13.303	4.6364	0.	2478.4
13372	13.303	4.7273	5.e-002	8.464
13373	13.58	4.7273	0.	2407.8
13374	13.488	4.6364	0.	2430.7
13375	13.488	4.7273	5.e-002	8.4233
13376	13.764	4.7273	0.	2360.4
13377	13.672	4.6364	0.	2383.2
13378	13.672	4.7273	5.e-002	8.3831
13379	13.949	4.7273	0.	2313.1
13380	13.857	4.6364	0.	2335.9
13381	13.857	4.7273	5.e-002	8.3437
13382	14.133	4.7273	0.	2266.
13383	14.041	4.6364	0.	2288.8
13384	14.041	4.7273	5.e-002	8.3048
13385	14.318	4.7273	0.	2219.1
13386	14.226	4.6364	0.	2241.8
13387	14.226	4.7273	5.e-002	8.2662
13388	14.502	4.7273	0.	2172.4
13389	14.41	4.6364	0.	2195.1
13390	14.41	4.7273	5.e-002	8.2283
13391	14.687	4.7273	0.	2125.9
13392	14.594	4.6364	0.	2148.4
13393	14.594	4.7273	5.e-002	8.1909
13394	14.871	4.7273	0.	2079.5
13395	14.779	4.6364	0.	2102.
13396	14.779	4.7273	5.e-002	8.1537
13397	15.055	4.7273	0.	2033.3
13398	14.963	4.6364	0.	2055.8
13399	14.963	4.7273	5.e-002	8.117
13400	15.24	4.7273	0.	1987.4
13401	15.148	4.6364	0.	2009.7
13402	15.148	4.7273	5.e-002	8.0809
13403	15.424	4.7273	0.	1941.6
13404	15.332	4.6364	0.	1963.8
13405	15.332	4.7273	5.e-002	8.0451
13406	15.609	4.7273	0.	1896.
13407	15.517	4.6364	0.	1918.2
13408	15.517	4.7273	5.e-002	8.0096
13409	15.793	4.7273	0.	1850.5
13410	15.701	4.6364	0.	1872.7
13411	15.701	4.7273	5.e-002	7.9746
13412	15.978	4.7273	0.	1805.3
13413	15.885	4.6364	0.	1827.4
13414	15.885	4.7273	5.e-002	7.94
13415	16.162	4.7273	0.	1760.3
13416	16.07	4.6364	0.	1782.3
13417	16.07	4.7273	5.e-002	7.9056
13418	16.346	4.7273	0.	1715.5
13419	16.254	4.6364	0.	1737.4
13420	16.254	4.7273	5.e-002	7.8717
13421	16.531	4.7273	0.	1670.9
13422	16.439	4.6364	0.	1692.7
13423	16.439	4.7273	5.e-002	7.8382
13424	16.715	4.7273	0.	1626.5
13425	16.623	4.6364	0.	1648.2
13426	16.623	4.7273	5.e-002	7.8051
13427	16.9	4.7273	0.	1582.3
13428	16.807	4.6364	0.	1603.9
13429	16.807	4.7273	5.e-002	7.7723
13430	17.084	4.7273	0.	1538.3
13431	16.992	4.6364	0.	1559.8
13432	16.992	4.7273	5.e-002	7.74
13433	17.269	4.7273	0.	1494.5
13434	17.176	4.6364	0.	1516.
13435	17.176	4.7273	5.e-002	7.7081
13436	17.453	4.7273	0.	1450.9
13437	17.361	4.6364	0.	1472.3
13438	17.361	4.7273	5.e-002	7.6766
13439	17.637	4.7273	0.	1407.6
13440	17.545	4.6364	0.	1428.9
13441	17.545	4.7273	5.e-002	7.6456
13442	17.822	4.7273	0.	1364.4
13443	17.73	4.6364	0.	1385.7
13444	17.73	4.7273	5.e-002	7.6151
13445	18.006	4.7273	0.	1321.5
13446	17.914	4.6364	0.	1342.6
13447	17.914	4.7273	5.e-002	7.585
13448	18.191	4.7273	0.	1278.8
13449	18.098	4.6364	0.	1299.9
13450	18.098	4.7273	5.e-002	7.5555
13451	18.375	4.7273	0.	1236.3
13452	18.283	4.6364	0.	1257.3
13453	18.283	4.7273	5.e-002	7.5266
13454	18.56	4.7273	0.	1194.1
13455	18.467	4.6364	0.	1215.
13456	18.467	4.7273	5.e-002	7.4983
13457	18.744	4.7273	0.	1152.
13458	18.652	4.6364	0.	1172.9
13459	18.652	4.7273	5.e-002	7.4706
13460	18.928	4.7273	0.	1110.2
13461	18.836	4.6364	0.	1131.
13462	18.836	4.7273	5.e-002	7.4437
13463	19.113	4.7273	0.	1068.7
13464	19.021	4.6364	0.	1089.4
13465	19.021	4.7273	5.e-002	7.4175
13466	19.297	4.7273	0.	1027.4
13467	19.205	4.6364	0.	1048.
13468	19.205	4.7273	5.e-002	7.3922
13469	19.482	4.7273	0.	986.27
13470	19.389	4.6364	0.	1006.8
13471	19.389	4.7273	5.e-002	7.3676
13472	19.666	4.7273	0.	945.43
13473	19.574	4.6364	0.	965.93
13474	19.574	4.7273	5.e-002	7.3441
13475	19.85	4.7273	0.	904.84
13476	19.758	4.6364	0.	925.28
13477	19.758	4.7273	5.e-002	7.3217
13478	20.035	4.7273	0.	864.5
13479	19.943	4.6364	0.	884.9
13480	19.943	4.7273	5.e-002	7.3003
13481	20.219	4.7273	0.	824.42
13482	20.127	4.6364	0.	844.78
13483	20.127	4.7273	5.e-002	7.2801
13484	20.404	4.7273	0.	784.62
13485	20.312	4.6364	0.	804.93
13486	20.312	4.7273	5.e-002	7.2614
13487	20.588	4.7273	0.	745.09
13488	20.496	4.6364	0.	765.37
13489	20.496	4.7273	5.e-002	7.2441
13490	20.773	4.7273	0.	705.85
13491	20.68	4.6364	0.	726.1
13492	20.68	4.7273	5.e-002	7.2283
13493	20.957	4.7273	0.	666.92
13494	20.865	4.6364	0.	687.14
13495	20.865	4.7273	5.e-002	7.2144
13496	21.141	4.7273	0.	628.3
13497	21.049	4.6364	0.	648.51
13498	21.049	4.7273	5.e-002	7.2025
13499	21.326	4.7273	0.	590.03
13500	21.234	4.6364	0.	610.22
13501	21.234	4.7273	5.e-002	7.1928
13502	21.51	4.7273	0.	552.13
13503	21.418	4.6364	0.	572.3
13504	21.418	4.7273	5.e-002	7.1857
13505	21.695	4.7273	0.	514.64
13506	21.602	4.6364	0.	534.78
13507	21.602	4.7273	5.e-002	7.1813
13508	21.879	4.7273	0.	477.6
13509	21.787	4.6364	0.	497.71
13510	21.787	4.7273	5.e-002	7.1803
13511	22.064	4.7273	0.	441.07
13512	21.971	4.6364	0.	461.13
13513	21.971	4.7273	5.e-002	7.1831
13514	22.248	4.7273	0.	405.14
13515	22.156	4.6364	0.	425.13
13516	22.156	4.7273	5.e-002	7.1906
13517	22.432	4.7273	0.	369.9
13518	22.34	4.6364	0.	389.79
13519	22.34	4.7273	5.e-002	7.2037
13520	22.617	4.7273	0.	335.51
13521	22.525	4.6364	0.	355.23
13522	22.525	4.7273	5.e-002	7.2238
13523	22.801	4.7273	0.	302.16
13524	22.709	4.6364	0.	321.62
13525	22.709	4.7273	5.e-002	7.2526
13526	22.986	4.7273	0.	270.11
13527	22.893	4.6364	0.	289.18
13528	22.893	4.7273	5.e-002	7.2926
13529	23.17	4.7273	0.	239.74
13530	23.078	4.6364	0.	258.22
13531	23.078	4.7273	5.e-002	7.3467
13532	23.355	4.7273	0.	211.56
13533	23.262	4.6364	0.	229.18
13534	23.262	4.7273	5.e-002	7.4186
13535	23.539	4.7273	0.	186.36
13536	23.447	4.6364	0.	202.66
13537	23.447	4.7273	5.e-002	7.5119
13538	23.723	4.7273	0.	165.32
13539	23.631	4.6364	0.	179.62
13540	23.631	4.7273	5.e-002	7.6364
13541	23.816	4.6364	0.	161.44
13542	23.816	4.7273	5.e-002	7.9133
13543	23.908	4.7273	0.	149.85
13544	4.5433	4.5455	0.	6127.4
13545	4.4511	4.4545	0.	7648.7
13546	4.4511	4.5455	5.e-002	308.28
13547	4.3589	4.5455	0.	5383.2
13548	4.7277	4.5455	0.	5523.3
13549	4.6355	4.4545	0.	6390.
13550	4.6355	4.5455	5.e-002	184.73
13551	4.9121	4.5455	0.	5187.5
13552	4.8199	4.4545	0.	5757.8
13553	4.8199	4.5455	5.e-002	110.48
13554	5.0966	4.5455	0.	4957.2
13555	5.0044	4.4545	0.	5354.5
13556	5.0044	4.5455	5.e-002	77.886
13557	5.281	4.5455	0.	4802.4
13558	5.1888	4.4545	0.	5086.1
13559	5.1888	4.5455	5.e-002	58.493
13560	5.4654	4.5455	0.	4693.1
13561	5.3732	4.4545	0.	4902.
13562	5.3732	4.5455	5.e-002	46.64
13563	5.6498	4.5455	0.	4609.9
13564	5.5576	4.4545	0.	4767.3
13565	5.5576	4.5455	5.e-002	38.224
13566	5.8343	4.5455	0.	4541.1
13567	5.7421	4.4545	0.	4662.3
13568	5.7421	4.5455	5.e-002	31.914
13569	6.0187	4.5455	0.	4479.9
13570	5.9265	4.4545	0.	4574.9
13571	5.9265	4.5455	5.e-002	27.
13572	6.2031	4.5455	0.	4422.4
13573	6.1109	4.4545	0.	4498.5
13574	6.1109	4.5455	5.e-002	23.123
13575	6.3875	4.5455	0.	4366.8
13576	6.2953	4.4545	0.	4428.9
13577	6.2953	4.5455	5.e-002	20.057
13578	6.572	4.5455	0.	4312.2
13579	6.4798	4.4545	0.	4363.7
13580	6.4798	4.5455	5.e-002	17.643
13581	6.7564	4.5455	0.	4258.1
13582	6.6642	4.4545	0.	4301.8
13583	6.6642	4.5455	5.e-002	15.76
13584	6.9408	4.5455	0.	4204.3
13585	6.8486	4.4545	0.	4242.1
13586	6.8486	4.5455	5.e-002	14.307
13587	7.1252	4.5455	0.	4150.8
13588	7.033	4.4545	0.	4184.2
13589	7.033	4.5455	5.e-002	13.198
13590	7.3097	4.5455	0.	4097.6
13591	7.2174	4.4545	0.	4127.7
13592	7.2174	4.5455	5.e-002	12.361
13593	7.4941	4.5455	0.	4044.8
13594	7.4019	4.4545	0.	4072.5
13595	7.4019	4.5455	5.e-002	11.731
13596	7.6785	4.5455	0.	3992.3
13597	7.5863	4.4545	0.	4018.2
13598	7.5863	4.5455	5.e-002	11.257
13599	7.8629	4.5455	0.	3940.1
13600	7.7707	4.4545	0.	3964.7
13601	7.7707	4.5455	5.e-002	10.898
13602	8.0474	4.5455	0.	3888.2
13603	7.9551	4.4545	0.	3911.9
13604	7.9551	4.5455	5.e-002	10.622
13605	8.2318	4.5455	0.	3836.7
13606	8.1396	4.4545	0.	3859.7
13607	8.1396	4.5455	5.e-002	10.406
13608	8.4162	4.5455	0.	3785.4
13609	8.324	4.4545	0.	3808.
13610	8.324	4.5455	5.e-002	10.233
13611	8.6006	4.5455	0.	3734.3
13612	8.5084	4.4545	0.	3756.7
13613	8.5084	4.5455	5.e-002	10.09
13614	8.785	4.5455	0.	3683.5
13615	8.6928	4.4545	0.	3705.7
13616	8.6928	4.5455	5.e-002	9.9679
13617	8.9695	4.5455	0.	3632.9
13618	8.8773	4.4545	0.	3655.
13619	8.8773	4.5455	5.e-002	9.8616
13620	9.1539	4.5455	0.	3582.4
13621	9.0617	4.4545	0.	3604.6
13622	9.0617	4.5455	5.e-002	9.7667
13623	9.3383	4.5455	0.	3532.1
13624	9.2461	4.4545	0.	3554.3
13625	9.2461	4.5455	5.e-002	9.68
13626	9.5227	4.5455	0.	3481.9
13627	9.4305	4.4545	0.	3504.2
13628	9.4305	4.5455	5.e-002	9.5998
13629	9.7072	4.5455	0.	3431.8
13630	9.615	4.4545	0.	3454.2
13631	9.615	4.5455	5.e-002	9.5245
13632	9.8916	4.5455	0.	3381.9
13633	9.7994	4.4545	0.	3404.3
13634	9.7994	4.5455	5.e-002	9.4533
13635	10.076	4.5455	0.	3332.
13636	9.9838	4.4545	0.	3354.6
13637	9.9838	4.5455	5.e-002	9.3855
13638	10.26	4.5455	0.	3282.3
13639	10.168	4.4545	0.	3304.9
13640	10.168	4.5455	5.e-002	9.3205
13641	10.445	4.5455	0.	3232.6
13642	10.353	4.4545	0.	3255.4
13643	10.353	4.5455	5.e-002	9.2578
13644	10.629	4.5455	0.	3183.1
13645	10.537	4.4545	0.	3205.9
13646	10.537	4.5455	5.e-002	9.1974
13647	10.814	4.5455	0.	3133.6
13648	10.721	4.4545	0.	3156.5
13649	10.721	4.5455	5.e-002	9.1393
13650	10.998	4.5455	0.	3084.3
13651	10.906	4.4545	0.	3107.2
13652	10.906	4.5455	5.e-002	9.0829
13653	11.183	4.5455	0.	3035.1
13654	11.09	4.4545	0.	3058.1
13655	11.09	4.5455	5.e-002	9.0281
13656	11.367	4.5455	0.	2985.9
13657	11.275	4.4545	0.	3009.
13658	11.275	4.5455	5.e-002	8.9749
13659	11.551	4.5455	0.	2936.9
13660	11.459	4.4545	0.	2960.
13661	11.459	4.5455	5.e-002	8.9233
13662	11.736	4.5455	0.	2888.
13663	11.644	4.4545	0.	2911.1
13664	11.644	4.5455	5.e-002	8.8728
13665	11.92	4.5455	0.	2839.2
13666	11.828	4.4545	0.	2862.3
13667	11.828	4.5455	5.e-002	8.8238
13668	12.105	4.5455	0.	2790.5
13669	12.012	4.4545	0.	2813.7
13670	12.012	4.5455	5.e-002	8.776
13671	12.289	4.5455	0.	2742.
13672	12.197	4.4545	0.	2765.1
13673	12.197	4.5455	5.e-002	8.7291
13674	12.474	4.5455	0.	2693.6
13675	12.381	4.4545	0.	2716.7
13676	12.381	4.5455	5.e-002	8.6832
13677	12.658	4.5455	0.	2645.3
13678	12.566	4.4545	0.	2668.4
13679	12.566	4.5455	5.e-002	8.6384
13680	12.842	4.5455	0.	2597.2
13681	12.75	4.4545	0.	2620.3
13682	12.75	4.5455	5.e-002	8.5945
13683	13.027	4.5455	0.	2549.2
13684	12.935	4.4545	0.	2572.3
13685	12.935	4.5455	5.e-002	8.5512
13686	13.211	4.5455	0.	2501.4
13687	13.119	4.4545	0.	2524.4
13688	13.119	4.5455	5.e-002	8.509
13689	13.396	4.5455	0.	2453.7
13690	13.303	4.4545	0.	2476.7
13691	13.303	4.5455	5.e-002	8.4674
13692	13.58	4.5455	0.	2406.2
13693	13.488	4.4545	0.	2429.2
13694	13.488	4.5455	5.e-002	8.4264
13695	13.764	4.5455	0.	2358.8
13696	13.672	4.4545	0.	2381.8
13697	13.672	4.5455	5.e-002	8.386
13698	13.949	4.5455	0.	2311.7
13699	13.857	4.4545	0.	2334.5
13700	13.857	4.5455	5.e-002	8.3464
13701	14.133	4.5455	0.	2264.6
13702	14.041	4.4545	0.	2287.4
13703	14.041	4.5455	5.e-002	8.3073
13704	14.318	4.5455	0.	2217.8
13705	14.226	4.4545	0.	2240.5
13706	14.226	4.5455	5.e-002	8.2686
13707	14.502	4.5455	0.	2171.1
13708	14.41	4.4545	0.	2193.8
13709	14.41	4.5455	5.e-002	8.2305
13710	14.687	4.5455	0.	2124.6
13711	14.594	4.4545	0.	2147.2
13712	14.594	4.5455	5.e-002	8.1929
13713	14.871	4.5455	0.	2078.3
13714	14.779	4.4545	0.	2100.9
13715	14.779	4.5455	5.e-002	8.1557
13716	15.055	4.5455	0.	2032.2
13717	14.963	4.4545	0.	2054.7
13718	14.963	4.5455	5.e-002	8.1189
13719	15.24	4.5455	0.	1986.2
13720	15.148	4.4545	0.	2008.6
13721	15.148	4.5455	5.e-002	8.0827
13722	15.424	4.5455	0.	1940.5
13723	15.332	4.4545	0.	1962.8
13724	15.332	4.5455	5.e-002	8.0468
13725	15.609	4.5455	0.	1894.9
13726	15.517	4.4545	0.	1917.2
13727	15.517	4.5455	5.e-002	8.0112
13728	15.793	4.5455	0.	1849.5
13729	15.701	4.4545	0.	1871.7
13730	15.701	4.5455	5.e-002	7.9762
13731	15.978	4.5455	0.	1804.4
13732	15.885	4.4545	0.	1826.5
13733	15.885	4.5455	5.e-002	7.9415
13734	16.162	4.5455	0.	1759.4
13735	16.07	4.4545	0.	1781.4
13736	16.07	4.5455	5.e-002	7.9071
13737	16.346	4.5455	0.	1714.6
13738	16.254	4.4545	0.	1736.5
13739	16.254	4.5455	5.e-002	7.8731
13740	16.531	4.5455	0.	1670.
13741	16.439	4.4545	0.	1691.9
13742	16.439	4.5455	5.e-002	7.8397
13743	16.715	4.5455	0.	1625.7
13744	16.623	4.4545	0.	1647.4
13745	16.623	4.5455	5.e-002	7.8066
13746	16.9	4.5455	0.	1581.5
13747	16.807	4.4545	0.	1603.2
13748	16.807	4.5455	5.e-002	7.7737
13749	17.084	4.5455	0.	1537.6
13750	16.992	4.4545	0.	1559.1
13751	16.992	4.5455	5.e-002	7.7415
13752	17.269	4.5455	0.	1493.8
13753	17.176	4.4545	0.	1515.3
13754	17.176	4.5455	5.e-002	7.7096
13755	17.453	4.5455	0.	1450.3
13756	17.361	4.4545	0.	1471.7
13757	17.361	4.5455	5.e-002	7.6781
13758	17.637	4.5455	0.	1407.
13759	17.545	4.4545	0.	1428.3
13760	17.545	4.5455	5.e-002	7.6471
13761	17.822	4.5455	0.	1363.9
13762	17.73	4.4545	0.	1385.1
13763	17.73	4.5455	5.e-002	7.6167
13764	18.006	4.5455	0.	1321.
13765	17.914	4.4545	0.	1342.2
13766	17.914	4.5455	5.e-002	7.5867
13767	18.191	4.5455	0.	1278.4
13768	18.098	4.4545	0.	1299.5
13769	18.098	4.5455	5.e-002	7.5573
13770	18.375	4.5455	0.	1236.
13771	18.283	4.4545	0.	1257.
13772	18.283	4.5455	5.e-002	7.5285
13773	18.56	4.5455	0.	1193.8
13774	18.467	4.4545	0.	1214.7
13775	18.467	4.5455	5.e-002	7.5003
13776	18.744	4.5455	0.	1151.9
13777	18.652	4.4545	0.	1172.7
13778	18.652	4.5455	5.e-002	7.4727
13779	18.928	4.5455	0.	1110.2
13780	18.836	4.4545	0.	1130.9
13781	18.836	4.5455	5.e-002	7.446
13782	19.113	4.5455	0.	1068.7
13783	19.021	4.4545	0.	1089.4
13784	19.021	4.5455	5.e-002	7.42
13785	19.297	4.5455	0.	1027.5
13786	19.205	4.4545	0.	1048.1
13787	19.205	4.5455	5.e-002	7.3948
13788	19.482	4.5455	0.	986.54
13789	19.389	4.4545	0.	1007.1
13790	19.389	4.5455	5.e-002	7.3705
13791	19.666	4.5455	0.	945.84
13792	19.574	4.4545	0.	966.29
13793	19.574	4.5455	5.e-002	7.3473
13794	19.85	4.5455	0.	905.4
13795	19.758	4.4545	0.	925.79
13796	19.758	4.5455	5.e-002	7.3252
13797	20.035	4.5455	0.	865.24
13798	19.943	4.4545	0.	885.56
13799	19.943	4.5455	5.e-002	7.3042
13800	20.219	4.5455	0.	825.35
13801	20.127	4.4545	0.	845.62
13802	20.127	4.5455	5.e-002	7.2845
13803	20.404	4.5455	0.	785.75
13804	20.312	4.4545	0.	805.96
13805	20.312	4.5455	5.e-002	7.2662
13806	20.588	4.5455	0.	746.45
13807	20.496	4.4545	0.	766.61
13808	20.496	4.5455	5.e-002	7.2495
13809	20.773	4.5455	0.	707.46
13810	20.68	4.4545	0.	727.57
13811	20.68	4.5455	5.e-002	7.2345
13812	20.957	4.5455	0.	668.8
13813	20.865	4.4545	0.	688.86
13814	20.865	4.5455	5.e-002	7.2215
13815	21.141	4.5455	0.	630.48
13816	21.049	4.4545	0.	650.51
13817	21.049	4.5455	5.e-002	7.2106
13818	21.326	4.5455	0.	592.54
13819	21.234	4.4545	0.	612.52
13820	21.234	4.5455	5.e-002	7.2021
13821	21.51	4.5455	0.	555.
13822	21.418	4.4545	0.	574.93
13823	21.418	4.5455	5.e-002	7.1964
13824	21.695	4.5455	0.	517.9
13825	21.602	4.4545	0.	537.77
13826	21.602	4.5455	5.e-002	7.1937
13827	21.879	4.5455	0.	481.29
13828	21.787	4.4545	0.	501.09
13829	21.787	4.5455	5.e-002	7.1947
13830	22.064	4.5455	0.	445.23
13831	21.971	4.4545	0.	464.94
13832	21.971	4.5455	5.e-002	7.1999
13833	22.248	4.5455	0.	409.81
13834	22.156	4.4545	0.	429.39
13835	22.156	4.5455	5.e-002	7.2101
13836	22.432	4.5455	0.	375.11
13837	22.34	4.4545	0.	394.54
13838	22.34	4.5455	5.e-002	7.2263
13839	22.617	4.5455	0.	341.3
13840	22.525	4.4545	0.	360.49
13841	22.525	4.5455	5.e-002	7.2496
13842	22.801	4.5455	0.	308.55
13843	22.709	4.4545	0.	327.42
13844	22.709	4.5455	5.e-002	7.2819
13845	22.986	4.5455	0.	277.11
13846	22.893	4.4545	0.	295.53
13847	22.893	4.5455	5.e-002	7.3249
13848	23.17	4.5455	0.	247.35
13849	23.078	4.4545	0.	265.13
13850	23.078	4.5455	5.e-002	7.381
13851	23.355	4.5455	0.	219.77
13852	23.262	4.4545	0.	236.63
13853	23.262	4.5455	5.e-002	7.4527
13854	23.539	4.5455	0.	195.12
13855	23.447	4.4545	0.	210.62
13856	23.447	4.5455	5.e-002	7.5421
13857	23.723	4.5455	0.	174.5
13858	23.631	4.4545	0.	188.02
13859	23.631	4.5455	5.e-002	7.6561
13860	23.816	4.4545	0.	170.12
13861	23.816	4.5455	5.e-002	7.8938
13862	23.908	4.5455	0.	159.42
13863	4.5433	4.3636	0.	7696.1
13864	4.4511	4.2727	0.	10095
13865	4.4511	4.3636	5.e-002	469.71
13866	4.3589	4.3636	0.	6931.1
13867	4.7277	4.3636	0.	6551.2
13868	4.6355	4.2727	0.	7671.6
13869	4.6355	4.3636	5.e-002	185.41
13870	4.9121	4.3636	0.	5887.4
13871	4.8199	4.2727	0.	6556.3
13872	4.8199	4.3636	5.e-002	114.87
13873	5.0966	4.3636	0.	5463.
13874	5.0044	4.2727	0.	5923.1
13875	5.0044	4.3636	5.e-002	82.052
13876	5.281	4.3636	0.	5174.
13877	5.1888	4.2727	0.	5503.3
13878	5.1888	4.3636	5.e-002	63.21
13879	5.4654	4.3636	0.	4969.6
13880	5.3732	4.2727	0.	5212.8
13881	5.3732	4.3636	5.e-002	51.477
13882	5.6498	4.3636	0.	4815.9
13883	5.5576	4.2727	0.	4999.5
13884	5.5576	4.3636	5.e-002	42.723
13885	5.8343	4.3636	0.	4694.
13886	5.7421	4.2727	0.	4835.2
13887	5.7421	4.3636	5.e-002	35.993
13888	6.0187	4.3636	0.	4592.5
13889	5.9265	4.2727	0.	4702.8
13890	5.9265	4.3636	5.e-002	30.68
13891	6.2031	4.3636	0.	4504.4
13892	6.1109	4.2727	0.	4592.
13893	6.1109	4.3636	5.e-002	26.426
13894	6.3875	4.3636	0.	4425.5
13895	6.2953	4.2727	0.	4496.2
13896	6.2953	4.3636	5.e-002	23.
13897	6.572	4.3636	0.	4353.2
13898	6.4798	4.2727	0.	4411.2
13899	6.4798	4.3636	5.e-002	20.239
13900	6.7564	4.3636	0.	4285.8
13901	6.6642	4.2727	0.	4334.3
13902	6.6642	4.3636	5.e-002	18.023
13903	6.9408	4.3636	0.	4222.1
13904	6.8486	4.2727	0.	4263.4
13905	6.8486	4.3636	5.e-002	16.253
13906	7.1252	4.3636	0.	4161.2
13907	7.033	4.2727	0.	4197.2
13908	7.033	4.3636	5.e-002	14.848
13909	7.3097	4.3636	0.	4102.7
13910	7.2174	4.2727	0.	4134.6
13911	7.2174	4.3636	5.e-002	13.741
13912	7.4941	4.3636	0.	4045.9
13913	7.4019	4.2727	0.	4074.9
13914	7.4019	4.3636	5.e-002	12.87
13915	7.6785	4.3636	0.	3990.6
13916	7.5863	4.2727	0.	4017.5
13917	7.5863	4.3636	5.e-002	12.188
13918	7.8629	4.3636	0.	3936.6
13919	7.7707	4.2727	0.	3961.8
13920	7.7707	4.3636	5.e-002	11.652
13921	8.0474	4.3636	0.	3883.4
13922	7.9551	4.2727	0.	3907.6
13923	7.9551	4.3636	5.e-002	11.229
13924	8.2318	4.3636	0.	3831.1
13925	8.1396	4.2727	0.	3854.5
13926	8.1396	4.3636	5.e-002	10.892
13927	8.4162	4.3636	0.	3779.3
13928	8.324	4.2727	0.	3802.2
13929	8.324	4.3636	5.e-002	10.62
13930	8.6006	4.3636	0.	3728.1
13931	8.5084	4.2727	0.	3750.6
13932	8.5084	4.3636	5.e-002	10.398
13933	8.785	4.3636	0.	3677.3
13934	8.6928	4.2727	0.	3699.6
13935	8.6928	4.3636	5.e-002	10.213
13936	8.9695	4.3636	0.	3626.7
13937	8.8773	4.2727	0.	3649.
13938	8.8773	4.3636	5.e-002	10.056
13939	9.1539	4.3636	0.	3576.4
13940	9.0617	4.2727	0.	3598.7
13941	9.0617	4.3636	5.e-002	9.921
13942	9.3383	4.3636	0.	3526.4
13943	9.2461	4.2727	0.	3548.6
13944	9.2461	4.3636	5.e-002	9.8027
13945	9.5227	4.3636	0.	3476.5
13946	9.4305	4.2727	0.	3498.8
13947	9.4305	4.3636	5.e-002	9.6974
13948	9.7072	4.3636	0.	3426.7
13949	9.615	4.2727	0.	3449.1
13950	9.615	4.3636	5.e-002	9.6024
13951	9.8916	4.3636	0.	3377.
13952	9.7994	4.2727	0.	3399.5
13953	9.7994	4.3636	5.e-002	9.5155
13954	10.076	4.3636	0.	3327.5
13955	9.9838	4.2727	0.	3350.1
13956	9.9838	4.3636	5.e-002	9.4354
13957	10.26	4.3636	0.	3278.
13958	10.168	4.2727	0.	3300.7
13959	10.168	4.3636	5.e-002	9.3607
13960	10.445	4.3636	0.	3228.6
13961	10.353	4.2727	0.	3251.4
13962	10.353	4.3636	5.e-002	9.2904
13963	10.629	4.3636	0.	3179.3
13964	10.537	4.2727	0.	3202.2
13965	10.537	4.3636	5.e-002	9.224
13966	10.814	4.3636	0.	3130.1
13967	10.721	4.2727	0.	3153.1
13968	10.721	4.3636	5.e-002	9.161
13969	10.998	4.3636	0.	3081.
13970	10.906	4.2727	0.	3104.
13971	10.906	4.3636	5.e-002	9.1009
13972	11.183	4.3636	0.	3032.
13973	11.09	4.2727	0.	3055.
13974	11.09	4.3636	5.e-002	9.043
13975	11.367	4.3636	0.	2983.
13976	11.275	4.2727	0.	3006.2
13977	11.275	4.3636	5.e-002	8.9874
13978	11.551	4.3636	0.	2934.2
13979	11.459	4.2727	0.	2957.3
13980	11.459	4.3636	5.e-002	8.9339
13981	11.736	4.3636	0.	2885.5
13982	11.644	4.2727	0.	2908.6
13983	11.644	4.3636	5.e-002	8.8818
13984	11.92	4.3636	0.	2836.8
13985	11.828	4.2727	0.	2860.
13986	11.828	4.3636	5.e-002	8.8315
13987	12.105	4.3636	0.	2788.3
13988	12.012	4.2727	0.	2811.5
13989	12.012	4.3636	5.e-002	8.7827
13990	12.289	4.3636	0.	2739.9
13991	12.197	4.2727	0.	2763.1
13992	12.197	4.3636	5.e-002	8.735
13993	12.474	4.3636	0.	2691.6
13994	12.381	4.2727	0.	2714.8
13995	12.381	4.3636	5.e-002	8.6884
13996	12.658	4.3636	0.	2643.5
13997	12.566	4.2727	0.	2666.6
13998	12.566	4.3636	5.e-002	8.643
13999	12.842	4.3636	0.	2595.4
14000	12.75	4.2727	0.	2618.6
14001	12.75	4.3636	5.e-002	8.5986
14002	13.027	4.3636	0.	2547.5
14003	12.935	4.2727	0.	2570.7
14004	12.935	4.3636	5.e-002	8.555
14005	13.211	4.3636	0.	2499.8
14006	13.119	4.2727	0.	2522.9
14007	13.119	4.3636	5.e-002	8.5123
14008	13.396	4.3636	0.	2452.2
14009	13.303	4.2727	0.	2475.3
14010	13.303	4.3636	5.e-002	8.4705
14011	13.58	4.3636	0.	2404.8
14012	13.488	4.2727	0.	2427.8
14013	13.488	4.3636	5.e-002	8.4293
14014	13.764	4.3636	0.	2357.5
14015	13.672	4.2727	0.	2380.4
14016	13.672	4.3636	5.e-002	8.3886
14017	13.949	4.3636	0.	2310.3
14018	13.857	4.2727	0.	2333.3
14019	13.857	4.3636	5.e-002	8.3488
14020	14.133	4.3636	0.	2263.4
14021	14.041	4.2727	0.	2286.2
14022	14.041	4.3636	5.e-002	8.3095
14023	14.318	4.3636	0.	2216.6
14024	14.226	4.2727	0.	2239.4
14025	14.226	4.3636	5.e-002	8.2706
14026	14.502	4.3636	0.	2170.
14027	14.41	4.2727	0.	2192.7
14028	14.41	4.3636	5.e-002	8.2325
14029	14.687	4.3636	0.	2123.5
14030	14.594	4.2727	0.	2146.2
14031	14.594	4.3636	5.e-002	8.1948
14032	14.871	4.3636	0.	2077.2
14033	14.779	4.2727	0.	2099.8
14034	14.779	4.3636	5.e-002	8.1574
14035	15.055	4.3636	0.	2031.2
14036	14.963	4.2727	0.	2053.7
14037	14.963	4.3636	5.e-002	8.1205
14038	15.24	4.3636	0.	1985.2
14039	15.148	4.2727	0.	2007.7
14040	15.148	4.3636	5.e-002	8.0842
14041	15.424	4.3636	0.	1939.5
14042	15.332	4.2727	0.	1961.9
14043	15.332	4.3636	5.e-002	8.0483
14044	15.609	4.3636	0.	1894.
14045	15.517	4.2727	0.	1916.3
14046	15.517	4.3636	5.e-002	8.0127
14047	15.793	4.3636	0.	1848.7
14048	15.701	4.2727	0.	1870.9
14049	15.701	4.3636	5.e-002	7.9776
14050	15.978	4.3636	0.	1803.5
14051	15.885	4.2727	0.	1825.6
14052	15.885	4.3636	5.e-002	7.9429
14053	16.162	4.3636	0.	1758.6
14054	16.07	4.2727	0.	1780.6
14055	16.07	4.3636	5.e-002	7.9084
14056	16.346	4.3636	0.	1713.8
14057	16.254	4.2727	0.	1735.8
14058	16.254	4.3636	5.e-002	7.8744
14059	16.531	4.3636	0.	1669.3
14060	16.439	4.2727	0.	1691.2
14061	16.439	4.3636	5.e-002	7.841
14062	16.715	4.3636	0.	1625.
14063	16.623	4.2727	0.	1646.8
14064	16.623	4.3636	5.e-002	7.8078
14065	16.9	4.3636	0.	1580.9
14066	16.807	4.2727	0.	1602.5
14067	16.807	4.3636	5.e-002	7.775
14068	17.084	4.3636	0.	1536.9
14069	16.992	4.2727	0.	1558.5
14070	16.992	4.3636	5.e-002	7.7428
14071	17.269	4.3636	0.	1493.2
14072	17.176	4.2727	0.	1514.8
14073	17.176	4.3636	5.e-002	7.7109
14074	17.453	4.3636	0.	1449.8
14075	17.361	4.2727	0.	1471.2
14076	17.361	4.3636	5.e-002	7.6794
14077	17.637	4.3636	0.	1406.5
14078	17.545	4.2727	0.	1427.8
14079	17.545	4.3636	5.e-002	7.6485
14080	17.822	4.3636	0.	1363.5
14081	17.73	4.2727	0.	1384.7
14082	17.73	4.3636	5.e-002	7.6182
14083	18.006	4.3636	0.	1320.7
14084	17.914	4.2727	0.	1341.8
14085	17.914	4.3636	5.e-002	7.5882
14086	18.191	4.3636	0.	1278.1
14087	18.098	4.2727	0.	1299.2
14088	18.098	4.3636	5.e-002	7.5588
14089	18.375	4.3636	0.	1235.8
14090	18.283	4.2727	0.	1256.7
14091	18.283	4.3636	5.e-002	7.5301
14092	18.56	4.3636	0.	1193.7
14093	18.467	4.2727	0.	1214.5
14094	18.467	4.3636	5.e-002	7.5021
14095	18.744	4.3636	0.	1151.8
14096	18.652	4.2727	0.	1172.6
14097	18.652	4.3636	5.e-002	7.4746
14098	18.928	4.3636	0.	1110.2
14099	18.836	4.2727	0.	1130.9
14100	18.836	4.3636	5.e-002	7.448
14101	19.113	4.3636	0.	1068.8
14102	19.021	4.2727	0.	1089.5
14103	19.021	4.3636	5.e-002	7.4222
14104	19.297	4.3636	0.	1027.7
14105	19.205	4.2727	0.	1048.3
14106	19.205	4.3636	5.e-002	7.3972
14107	19.482	4.3636	0.	986.87
14108	19.389	4.2727	0.	1007.3
14109	19.389	4.3636	5.e-002	7.3731
14110	19.666	4.3636	0.	946.3
14111	19.574	4.2727	0.	966.7
14112	19.574	4.3636	5.e-002	7.3502
14113	19.85	4.3636	0.	906.01
14114	19.758	4.2727	0.	926.33
14115	19.758	4.3636	5.e-002	7.3283
14116	20.035	4.3636	0.	866.
14117	19.943	4.2727	0.	886.25
14118	19.943	4.3636	5.e-002	7.3076
14119	20.219	4.3636	0.	826.29
14120	20.127	4.2727	0.	846.46
14121	20.127	4.3636	5.e-002	7.2884
14122	20.404	4.3636	0.	786.89
14123	20.312	4.2727	0.	806.99
14124	20.312	4.3636	5.e-002	7.2706
14125	20.588	4.3636	0.	747.8
14126	20.496	4.2727	0.	767.83
14127	20.496	4.3636	5.e-002	7.2545
14128	20.773	4.3636	0.	709.04
14129	20.68	4.2727	0.	729.
14130	20.68	4.3636	5.e-002	7.2402
14131	20.957	4.3636	0.	670.63
14132	20.865	4.2727	0.	690.53
14133	20.865	4.3636	5.e-002	7.2279
14134	21.141	4.3636	0.	632.6
14135	21.049	4.2727	0.	652.42
14136	21.049	4.3636	5.e-002	7.218
14137	21.326	4.3636	0.	594.96
14138	21.234	4.2727	0.	614.71
14139	21.234	4.3636	5.e-002	7.2106
14140	21.51	4.3636	0.	557.75
14141	21.418	4.2727	0.	577.42
14142	21.418	4.3636	5.e-002	7.2062
14143	21.695	4.3636	0.	521.01
14144	21.602	4.2727	0.	540.58
14145	21.602	4.3636	5.e-002	7.2052
14146	21.879	4.3636	0.	484.78
14147	21.787	4.2727	0.	504.25
14148	21.787	4.3636	5.e-002	7.208
14149	22.064	4.3636	0.	449.13
14150	21.971	4.2727	0.	468.47
14151	21.971	4.3636	5.e-002	7.2153
14152	22.248	4.3636	0.	414.13
14153	22.156	4.2727	0.	433.31
14154	22.156	4.3636	5.e-002	7.2279
14155	22.432	4.3636	0.	379.9
14156	22.34	4.2727	0.	398.86
14157	22.34	4.3636	5.e-002	7.2466
14158	22.617	4.3636	0.	346.55
14159	22.525	4.2727	0.	365.25
14160	22.525	4.3636	5.e-002	7.2727
14161	22.801	4.3636	0.	314.29
14162	22.709	4.2727	0.	332.61
14163	22.709	4.3636	5.e-002	7.3075
14164	22.986	4.3636	0.	283.34
14165	22.893	4.2727	0.	301.16
14166	22.893	4.3636	5.e-002	7.3526
14167	23.17	4.3636	0.	254.06
14168	23.078	4.2727	0.	271.19
14169	23.078	4.3636	5.e-002	7.4096
14170	23.355	4.3636	0.	226.94
14171	23.262	4.2727	0.	243.11
14172	23.262	4.3636	5.e-002	7.4803
14173	23.539	4.3636	0.	202.71
14174	23.447	4.2727	0.	217.51
14175	23.447	4.3636	5.e-002	7.5657
14176	23.723	4.3636	0.	182.42
14177	23.631	4.2727	0.	195.25
14178	23.631	4.3636	5.e-002	7.6707
14179	23.816	4.2727	0.	177.57
14180	23.816	4.3636	5.e-002	7.8747
14181	23.908	4.3636	0.	167.66
14182	4.5433	4.1818	0.	9878.7
14183	4.4511	4.0909	0.	12688
14184	4.4511	4.1818	5.e-002	852.74
14185	4.3589	4.1818	0.	10013
14186	4.7277	4.1818	0.	7626.9
14187	4.6355	4.0909	0.	8825.8
14188	4.6355	4.1818	5.e-002	286.19
14189	4.9121	4.1818	0.	6569.5
14190	4.8199	4.0909	0.	7316.4
14191	4.8199	4.1818	5.e-002	131.86
14192	5.0966	4.1818	0.	5949.5
14193	5.0044	4.0909	0.	6463.2
14194	5.0044	4.1818	5.e-002	95.044
14195	5.281	4.1818	0.	5533.5
14196	5.1888	4.0909	0.	5902.2
14197	5.1888	4.1818	5.e-002	74.046
14198	5.4654	4.1818	0.	5237.6
14199	5.3732	4.0909	0.	5511.1
14200	5.3732	4.1818	5.e-002	59.421
14201	5.6498	4.1818	0.	5015.7
14202	5.5576	4.0909	0.	5222.6
14203	5.5576	4.1818	5.e-002	48.977
14204	5.8343	4.1818	0.	4842.3
14205	5.7421	4.0909	0.	5001.3
14206	5.7421	4.1818	5.e-002	41.062
14207	6.0187	4.1818	0.	4701.4
14208	5.9265	4.0909	0.	4825.3
14209	5.9265	4.1818	5.e-002	34.879
14210	6.2031	4.1818	0.	4583.3
14211	6.1109	4.0909	0.	4681.2
14212	6.1109	4.1818	5.e-002	29.948
14213	6.3875	4.1818	0.	4481.7
14214	6.2953	4.0909	0.	4560.1
14215	6.2953	4.1818	5.e-002	25.972
14216	6.572	4.1818	0.	4392.2
14217	6.4798	4.0909	0.	4456.
14218	6.4798	4.1818	5.e-002	22.751
14219	6.7564	4.1818	0.	4311.9
14220	6.6642	4.0909	0.	4364.6
14221	6.6642	4.1818	5.e-002	20.142
14222	6.9408	4.1818	0.	4238.5
14223	6.8486	4.0909	0.	4283.
14224	6.8486	4.1818	5.e-002	18.033
14225	7.1252	4.1818	0.	4170.6
14226	7.033	4.0909	0.	4208.9
14227	7.033	4.1818	5.e-002	16.336
14228	7.3097	4.1818	0.	4106.9
14229	7.2174	4.0909	0.	4140.6
14230	7.2174	4.1818	5.e-002	14.975
14231	7.4941	4.1818	0.	4046.5
14232	7.4019	4.0909	0.	4076.8
14233	7.4019	4.1818	5.e-002	13.888
14234	7.6785	4.1818	0.	3988.7
14235	7.5863	4.0909	0.	4016.5
14236	7.5863	4.1818	5.e-002	13.02
14237	7.8629	4.1818	0.	3932.9
14238	7.7707	4.0909	0.	3958.8
14239	7.7707	4.1818	5.e-002	12.329
14240	8.0474	4.1818	0.	3878.6
14241	7.9551	4.0909	0.	3903.3
14242	7.9551	4.1818	5.e-002	11.776
14243	8.2318	4.1818	0.	3825.6
14244	8.1396	4.0909	0.	3849.3
14245	8.1396	4.1818	5.e-002	11.332
14246	8.4162	4.1818	0.	3773.5
14247	8.324	4.0909	0.	3796.6
14248	8.324	4.1818	5.e-002	10.973
14249	8.6006	4.1818	0.	3722.1
14250	8.5084	4.0909	0.	3744.8
14251	8.5084	4.1818	5.e-002	10.68
14252	8.785	4.1818	0.	3671.3
14253	8.6928	4.0909	0.	3693.8
14254	8.6928	4.1818	5.e-002	10.438
14255	8.9695	4.1818	0.	3620.9
14256	8.8773	4.0909	0.	3643.3
14257	8.8773	4.1818	5.e-002	10.235
14258	9.1539	4.1818	0.	3570.8
14259	9.0617	4.0909	0.	3593.2
14260	9.0617	4.1818	5.e-002	10.064
14261	9.3383	4.1818	0.	3521.
14262	9.2461	4.0909	0.	3543.4
14263	9.2461	4.1818	5.e-002	9.9166
14264	9.5227	4.1818	0.	3471.4
14265	9.4305	4.0909	0.	3493.8
14266	9.4305	4.1818	5.e-002	9.7882
14267	9.7072	4.1818	0.	3421.9
14268	9.615	4.0909	0.	3444.4
14269	9.615	4.1818	5.e-002	9.6749
14270	9.8916	4.1818	0.	3372.6
14271	9.7994	4.0909	0.	3395.1
14272	9.7994	4.1818	5.e-002	9.5736
14273	10.076	4.1818	0.	3323.3
14274	9.9838	4.0909	0.	3345.9
14275	9.9838	4.1818	5.e-002	9.4821
14276	10.26	4.1818	0.	3274.1
14277	10.168	4.0909	0.	3296.9
14278	10.168	4.1818	5.e-002	9.3983
14279	10.445	4.1818	0.	3225.
14280	10.353	4.0909	0.	3247.8
14281	10.353	4.1818	5.e-002	9.3208
14282	10.629	4.1818	0.	3175.9
14283	10.537	4.0909	0.	3198.9
14284	10.537	4.1818	5.e-002	9.2487
14285	10.814	4.1818	0.	3127.
14286	10.721	4.0909	0.	3150.
14287	10.721	4.1818	5.e-002	9.1812
14288	10.998	4.1818	0.	3078.1
14289	10.906	4.0909	0.	3101.1
14290	10.906	4.1818	5.e-002	9.1175
14291	11.183	4.1818	0.	3029.2
14292	11.09	4.0909	0.	3052.4
14293	11.09	4.1818	5.e-002	9.0567
14294	11.367	4.1818	0.	2980.5
14295	11.275	4.0909	0.	3003.6
14296	11.275	4.1818	5.e-002	8.9989
14297	11.551	4.1818	0.	2931.8
14298	11.459	4.0909	0.	2955.
14299	11.459	4.1818	5.e-002	8.9435
14300	11.736	4.1818	0.	2883.2
14301	11.644	4.0909	0.	2906.4
14302	11.644	4.1818	5.e-002	8.89
14303	11.92	4.1818	0.	2834.7
14304	11.828	4.0909	0.	2858.
14305	11.828	4.1818	5.e-002	8.8386
14306	12.105	4.1818	0.	2786.3
14307	12.012	4.0909	0.	2809.6
14308	12.012	4.1818	5.e-002	8.7888
14309	12.289	4.1818	0.	2738.
14310	12.197	4.0909	0.	2761.3
14311	12.197	4.1818	5.e-002	8.7403
14312	12.474	4.1818	0.	2689.8
14313	12.381	4.0909	0.	2713.1
14314	12.381	4.1818	5.e-002	8.693
14315	12.658	4.1818	0.	2641.8
14316	12.566	4.0909	0.	2665.
14317	12.566	4.1818	5.e-002	8.6471
14318	12.842	4.1818	0.	2593.9
14319	12.75	4.0909	0.	2617.1
14320	12.75	4.1818	5.e-002	8.6023
14321	13.027	4.1818	0.	2546.1
14322	12.935	4.0909	0.	2569.2
14323	12.935	4.1818	5.e-002	8.5583
14324	13.211	4.1818	0.	2498.4
14325	13.119	4.0909	0.	2521.5
14326	13.119	4.1818	5.e-002	8.5153
14327	13.396	4.1818	0.	2450.9
14328	13.303	4.0909	0.	2474.
14329	13.303	4.1818	5.e-002	8.4732
14330	13.58	4.1818	0.	2403.5
14331	13.488	4.0909	0.	2426.6
14332	13.488	4.1818	5.e-002	8.4318
14333	13.764	4.1818	0.	2356.3
14334	13.672	4.0909	0.	2379.3
14335	13.672	4.1818	5.e-002	8.3909
14336	13.949	4.1818	0.	2309.2
14337	13.857	4.0909	0.	2332.2
14338	13.857	4.1818	5.e-002	8.3509
14339	14.133	4.1818	0.	2262.3
14340	14.041	4.0909	0.	2285.2
14341	14.041	4.1818	5.e-002	8.3115
14342	14.318	4.1818	0.	2215.5
14343	14.226	4.0909	0.	2238.4
14344	14.226	4.1818	5.e-002	8.2725
14345	14.502	4.1818	0.	2168.9
14346	14.41	4.0909	0.	2191.7
14347	14.41	4.1818	5.e-002	8.2342
14348	14.687	4.1818	0.	2122.5
14349	14.594	4.0909	0.	2145.3
14350	14.594	4.1818	5.e-002	8.1964
14351	14.871	4.1818	0.	2076.3
14352	14.779	4.0909	0.	2099.
14353	14.779	4.1818	5.e-002	8.1589
14354	15.055	4.1818	0.	2030.3
14355	14.963	4.0909	0.	2052.8
14356	14.963	4.1818	5.e-002	8.122
14357	15.24	4.1818	0.	1984.4
14358	15.148	4.0909	0.	2006.9
14359	15.148	4.1818	5.e-002	8.0856
14360	15.424	4.1818	0.	1938.7
14361	15.332	4.0909	0.	1961.1
14362	15.332	4.1818	5.e-002	8.0496
14363	15.609	4.1818	0.	1893.2
14364	15.517	4.0909	0.	1915.5
14365	15.517	4.1818	5.e-002	8.0139
14366	15.793	4.1818	0.	1847.9
14367	15.701	4.0909	0.	1870.2
14368	15.701	4.1818	5.e-002	7.9788
14369	15.978	4.1818	0.	1802.8
14370	15.885	4.0909	0.	1825.
14371	15.885	4.1818	5.e-002	7.944
14372	16.162	4.1818	0.	1757.9
14373	16.07	4.0909	0.	1780.
14374	16.07	4.1818	5.e-002	7.9096
14375	16.346	4.1818	0.	1713.2
14376	16.254	4.0909	0.	1735.2
14377	16.254	4.1818	5.e-002	7.8756
14378	16.531	4.1818	0.	1668.7
14379	16.439	4.0909	0.	1690.6
14380	16.439	4.1818	5.e-002	7.8421
14381	16.715	4.1818	0.	1624.4
14382	16.623	4.0909	0.	1646.2
14383	16.623	4.1818	5.e-002	7.809
14384	16.9	4.1818	0.	1580.3
14385	16.807	4.0909	0.	1602.
14386	16.807	4.1818	5.e-002	7.7762
14387	17.084	4.1818	0.	1536.4
14388	16.992	4.0909	0.	1558.
14389	16.992	4.1818	5.e-002	7.7439
14390	17.269	4.1818	0.	1492.8
14391	17.176	4.0909	0.	1514.3
14392	17.176	4.1818	5.e-002	7.7121
14393	17.453	4.1818	0.	1449.3
14394	17.361	4.0909	0.	1470.8
14395	17.361	4.1818	5.e-002	7.6806
14396	17.637	4.1818	0.	1406.1
14397	17.545	4.0909	0.	1427.5
14398	17.545	4.1818	5.e-002	7.6497
14399	17.822	4.1818	0.	1363.1
14400	17.73	4.0909	0.	1384.4
14401	17.73	4.1818	5.e-002	7.6194
14402	18.006	4.1818	0.	1320.4
14403	17.914	4.0909	0.	1341.5
14404	17.914	4.1818	5.e-002	7.5895
14405	18.191	4.1818	0.	1277.9
14406	18.098	4.0909	0.	1298.9
14407	18.098	4.1818	5.e-002	7.5602
14408	18.375	4.1818	0.	1235.6
14409	18.283	4.0909	0.	1256.6
14410	18.283	4.1818	5.e-002	7.5316
14411	18.56	4.1818	0.	1193.5
14412	18.467	4.0909	0.	1214.4
14413	18.467	4.1818	5.e-002	7.5036
14414	18.744	4.1818	0.	1151.8
14415	18.652	4.0909	0.	1172.6
14416	18.652	4.1818	5.e-002	7.4763
14417	18.928	4.1818	0.	1110.2
14418	18.836	4.0909	0.	1130.9
14419	18.836	4.1818	5.e-002	7.4498
14420	19.113	4.1818	0.	1069.
14421	19.021	4.0909	0.	1089.6
14422	19.021	4.1818	5.e-002	7.4241
14423	19.297	4.1818	0.	1028.
14424	19.205	4.0909	0.	1048.5
14425	19.205	4.1818	5.e-002	7.3993
14426	19.482	4.1818	0.	987.23
14427	19.389	4.0909	0.	1007.7
14428	19.389	4.1818	5.e-002	7.3754
14429	19.666	4.1818	0.	946.79
14430	19.574	4.0909	0.	967.12
14431	19.574	4.1818	5.e-002	7.3526
14432	19.85	4.1818	0.	906.63
14433	19.758	4.0909	0.	926.87
14434	19.758	4.1818	5.e-002	7.3311
14435	20.035	4.1818	0.	866.77
14436	19.943	4.0909	0.	886.92
14437	19.943	4.1818	5.e-002	7.3107
14438	20.219	4.1818	0.	827.22
14439	20.127	4.0909	0.	847.28
14440	20.127	4.1818	5.e-002	7.2918
14441	20.404	4.1818	0.	787.99
14442	20.312	4.0909	0.	807.96
14443	20.312	4.1818	5.e-002	7.2745
14444	20.588	4.1818	0.	749.09
14445	20.496	4.0909	0.	768.98
14446	20.496	4.1818	5.e-002	7.2589
14447	20.773	4.1818	0.	710.55
14448	20.68	4.0909	0.	730.34
14449	20.68	4.1818	5.e-002	7.2452
14450	20.957	4.1818	0.	672.37
14451	20.865	4.0909	0.	692.08
14452	20.865	4.1818	5.e-002	7.2337
14453	21.141	4.1818	0.	634.58
14454	21.049	4.0909	0.	654.2
14455	21.049	4.1818	5.e-002	7.2247
14456	21.326	4.1818	0.	597.21
14457	21.234	4.0909	0.	616.73
14458	21.234	4.1818	5.e-002	7.2184
14459	21.51	4.1818	0.	560.29
14460	21.418	4.0909	0.	579.7
14461	21.418	4.1818	5.e-002	7.2152
14462	21.695	4.1818	0.	523.86
14463	21.602	4.0909	0.	543.14
14464	21.602	4.1818	5.e-002	7.2156
14465	21.879	4.1818	0.	487.96
14466	21.787	4.0909	0.	507.1
14467	21.787	4.1818	5.e-002	7.22
14468	22.064	4.1818	0.	452.66
14469	21.971	4.0909	0.	471.63
14470	21.971	4.1818	5.e-002	7.2292
14471	22.248	4.1818	0.	418.03
14472	22.156	4.0909	0.	436.8
14473	22.156	4.1818	5.e-002	7.2438
14474	22.432	4.1818	0.	384.17
14475	22.34	4.0909	0.	402.7
14476	22.34	4.1818	5.e-002	7.2647
14477	22.617	4.1818	0.	351.21
14478	22.525	4.0909	0.	369.42
14479	22.525	4.1818	5.e-002	7.2929
14480	22.801	4.1818	0.	319.34
14481	22.709	4.0909	0.	337.14
14482	22.709	4.1818	5.e-002	7.3295
14483	22.986	4.1818	0.	288.77
14484	22.893	4.0909	0.	306.04
14485	22.893	4.1818	5.e-002	7.3759
14486	23.17	4.1818	0.	259.87
14487	23.078	4.0909	0.	276.41
14488	23.078	4.1818	5.e-002	7.4331
14489	23.355	4.1818	0.	233.12
14490	23.262	4.0909	0.	248.66
14491	23.262	4.1818	5.e-002	7.5024
14492	23.539	4.1818	0.	209.22
14493	23.447	4.0909	0.	223.37
14494	23.447	4.1818	5.e-002	7.5841
14495	23.723	4.1818	0.	189.19
14496	23.631	4.0909	0.	201.39
14497	23.631	4.1818	5.e-002	7.6816
14498	23.816	4.0909	0.	183.87
14499	23.816	4.1818	5.e-002	7.8567
14500	23.908	4.1818	0.	174.69
14501	4.5433	4.	0.	11660
14502	4.4511	3.9091	0.	13728
14503	4.4511	4.	5.e-002	1547.8
14504	4.3589	4.	0.	20520
14505	4.7277	4.	0.	8517.1
14506	4.6355	3.9091	0.	9770.
14507	4.6355	4.	5.e-002	267.13
14508	4.9121	4.	0.	7200.
14509	4.8199	3.9091	0.	7989.9
14510	4.8199	4.	5.e-002	172.55
14511	5.0966	4.	0.	6407.9
14512	5.0044	3.9091	0.	6962.9
14513	5.0044	4.	5.e-002	115.07
14514	5.281	4.	0.	5874.1
14515	5.1888	3.9091	0.	6275.6
14516	5.1888	4.	5.e-002	86.639
14517	5.4654	4.	0.	5492.5
14518	5.3732	3.9091	0.	5791.8
14519	5.3732	4.	5.e-002	68.386
14520	5.6498	4.	0.	5205.9
14521	5.5576	3.9091	0.	5432.7
14522	5.5576	4.	5.e-002	55.785
14523	5.8343	4.	0.	4983.1
14524	5.7421	3.9091	0.	5157.3
14525	5.7421	4.	5.e-002	46.412
14526	6.0187	4.	0.	4804.5
14527	5.9265	3.9091	0.	4940.
14528	5.9265	4.	5.e-002	39.167
14529	6.2031	4.	0.	4657.7
14530	6.1109	3.9091	0.	4764.3
14531	6.1109	4.	5.e-002	33.425
14532	6.3875	4.	0.	4534.3
14533	6.2953	3.9091	0.	4619.2
14534	6.2953	4.	5.e-002	28.812
14535	6.572	4.	0.	4428.4
14536	6.4798	3.9091	0.	4497.1
14537	6.4798	4.	5.e-002	25.083
14538	6.7564	4.	0.	4335.8
14539	6.6642	3.9091	0.	4392.3
14540	6.6642	4.	5.e-002	22.062
14541	6.9408	4.	0.	4253.5
14542	6.8486	3.9091	0.	4300.7
14543	6.8486	4.	5.e-002	19.617
14544	7.1252	4.	0.	4179.
14545	7.033	3.9091	0.	4219.3
14546	7.033	4.	5.e-002	17.641
14547	7.3097	4.	0.	4110.5
14548	7.2174	3.9091	0.	4145.8
14549	7.2174	4.	5.e-002	16.049
14550	7.4941	4.	0.	4046.8
14551	7.4019	3.9091	0.	4078.2
14552	7.4019	4.	5.e-002	14.768
14553	7.6785	4.	0.	3986.6
14554	7.5863	3.9091	0.	4015.3
14555	7.5863	4.	5.e-002	13.74
14556	7.8629	4.	0.	3929.2
14557	7.7707	3.9091	0.	3955.9
14558	7.7707	4.	5.e-002	12.915
14559	8.0474	4.	0.	3874.
14560	7.9551	3.9091	0.	3899.2
14561	7.9551	4.	5.e-002	12.251
14562	8.2318	4.	0.	3820.4
14563	8.1396	3.9091	0.	3844.5
14564	8.1396	4.	5.e-002	11.716
14565	8.4162	4.	0.	3768.
14566	8.324	3.9091	0.	3791.5
14567	8.324	4.	5.e-002	11.282
14568	8.6006	4.	0.	3716.5
14569	8.5084	3.9091	0.	3739.6
14570	8.5084	4.	5.e-002	10.928
14571	8.785	4.	0.	3665.8
14572	8.6928	3.9091	0.	3688.5
14573	8.6928	4.	5.e-002	10.637
14574	8.9695	4.	0.	3615.6
14575	8.8773	3.9091	0.	3638.2
14576	8.8773	4.	5.e-002	10.395
14577	9.1539	4.	0.	3565.7
14578	9.0617	3.9091	0.	3588.2
14579	9.0617	4.	5.e-002	10.191
14580	9.3383	4.	0.	3516.2
14581	9.2461	3.9091	0.	3538.7
14582	9.2461	4.	5.e-002	10.018
14583	9.5227	4.	0.	3466.8
14584	9.4305	3.9091	0.	3489.4
14585	9.4305	4.	5.e-002	9.8697
14586	9.7072	4.	0.	3417.6
14587	9.615	3.9091	0.	3440.2
14588	9.615	4.	5.e-002	9.7401
14589	9.8916	4.	0.	3368.5
14590	9.7994	3.9091	0.	3391.2
14591	9.7994	4.	5.e-002	9.6259
14592	10.076	4.	0.	3319.5
14593	9.9838	3.9091	0.	3342.3
14594	9.9838	4.	5.e-002	9.524
14595	10.26	4.	0.	3270.6
14596	10.168	3.9091	0.	3293.5
14597	10.168	4.	5.e-002	9.4321
14598	10.445	4.	0.	3221.7
14599	10.353	3.9091	0.	3244.7
14600	10.353	4.	5.e-002	9.3481
14601	10.629	4.	0.	3172.9
14602	10.537	3.9091	0.	3196.
14603	10.537	4.	5.e-002	9.2709
14604	10.814	4.	0.	3124.2
14605	10.721	3.9091	0.	3147.3
14606	10.721	4.	5.e-002	9.1994
14607	10.998	4.	0.	3075.4
14608	10.906	3.9091	0.	3098.6
14609	10.906	4.	5.e-002	9.1324
14610	11.183	4.	0.	3026.8
14611	11.09	3.9091	0.	3050.
14612	11.09	4.	5.e-002	9.069
14613	11.367	4.	0.	2978.2
14614	11.275	3.9091	0.	3001.5
14615	11.275	4.	5.e-002	9.0092
14616	11.551	4.	0.	2929.7
14617	11.459	3.9091	0.	2953.
14618	11.459	4.	5.e-002	8.9521
14619	11.736	4.	0.	2881.2
14620	11.644	3.9091	0.	2904.5
14621	11.644	4.	5.e-002	8.8973
14622	11.92	4.	0.	2832.9
14623	11.828	3.9091	0.	2856.2
14624	11.828	4.	5.e-002	8.8448
14625	12.105	4.	0.	2784.6
14626	12.012	3.9091	0.	2807.9
14627	12.012	4.	5.e-002	8.7941
14628	12.289	4.	0.	2736.4
14629	12.197	3.9091	0.	2759.7
14630	12.197	4.	5.e-002	8.7449
14631	12.474	4.	0.	2688.3
14632	12.381	3.9091	0.	2711.6
14633	12.381	4.	5.e-002	8.6971
14634	12.658	4.	0.	2640.3
14635	12.566	3.9091	0.	2663.7
14636	12.566	4.	5.e-002	8.6507
14637	12.842	4.	0.	2592.5
14638	12.75	3.9091	0.	2615.8
14639	12.75	4.	5.e-002	8.6055
14640	13.027	4.	0.	2544.8
14641	12.935	3.9091	0.	2568.
14642	12.935	4.	5.e-002	8.5612
14643	13.211	4.	0.	2497.2
14644	13.119	3.9091	0.	2520.4
14645	13.119	4.	5.e-002	8.5179
14646	13.396	4.	0.	2449.7
14647	13.303	3.9091	0.	2472.9
14648	13.303	4.	5.e-002	8.4756
14649	13.58	4.	0.	2402.4
14650	13.488	3.9091	0.	2425.5
14651	13.488	4.	5.e-002	8.4339
14652	13.764	4.	0.	2355.2
14653	13.672	3.9091	0.	2378.3
14654	13.672	4.	5.e-002	8.3929
14655	13.949	4.	0.	2308.2
14656	13.857	3.9091	0.	2331.2
14657	13.857	4.	5.e-002	8.3527
14658	14.133	4.	0.	2261.3
14659	14.041	3.9091	0.	2284.3
14660	14.041	4.	5.e-002	8.3132
14661	14.318	4.	0.	2214.6
14662	14.226	3.9091	0.	2237.5
14663	14.226	4.	5.e-002	8.2741
14664	14.502	4.	0.	2168.1
14665	14.41	3.9091	0.	2190.9
14666	14.41	4.	5.e-002	8.2356
14667	14.687	4.	0.	2121.7
14668	14.594	3.9091	0.	2144.5
14669	14.594	4.	5.e-002	8.1977
14670	14.871	4.	0.	2075.5
14671	14.779	3.9091	0.	2098.2
14672	14.779	4.	5.e-002	8.1602
14673	15.055	4.	0.	2029.5
14674	14.963	3.9091	0.	2052.1
14675	14.963	4.	5.e-002	8.1232
14676	15.24	4.	0.	1983.6
14677	15.148	3.9091	0.	2006.2
14678	15.148	4.	5.e-002	8.0868
14679	15.424	4.	0.	1938.
14680	15.332	3.9091	0.	1960.5
14681	15.332	4.	5.e-002	8.0508
14682	15.609	4.	0.	1892.5
14683	15.517	3.9091	0.	1914.9
14684	15.517	4.	5.e-002	8.015
14685	15.793	4.	0.	1847.3
14686	15.701	3.9091	0.	1869.5
14687	15.701	4.	5.e-002	7.9798
14688	15.978	4.	0.	1802.2
14689	15.885	3.9091	0.	1824.4
14690	15.885	4.	5.e-002	7.9451
14691	16.162	4.	0.	1757.3
14692	16.07	3.9091	0.	1779.4
14693	16.07	4.	5.e-002	7.9106
14694	16.346	4.	0.	1712.6
14695	16.254	3.9091	0.	1734.6
14696	16.254	4.	5.e-002	7.8766
14697	16.531	4.	0.	1668.1
14698	16.439	3.9091	0.	1690.1
14699	16.439	4.	5.e-002	7.843
14700	16.715	4.	0.	1623.9
14701	16.623	3.9091	0.	1645.7
14702	16.623	4.	5.e-002	7.8099
14703	16.9	4.	0.	1579.8
14704	16.807	3.9091	0.	1601.6
14705	16.807	4.	5.e-002	7.7771
14706	17.084	4.	0.	1536.
14707	16.992	3.9091	0.	1557.6
14708	16.992	4.	5.e-002	7.7448
14709	17.269	4.	0.	1492.4
14710	17.176	3.9091	0.	1513.9
14711	17.176	4.	5.e-002	7.713
14712	17.453	4.	0.	1449.
14713	17.361	3.9091	0.	1470.4
14714	17.361	4.	5.e-002	7.6816
14715	17.637	4.	0.	1405.8
14716	17.545	3.9091	0.	1427.2
14717	17.545	4.	5.e-002	7.6508
14718	17.822	4.	0.	1362.8
14719	17.73	3.9091	0.	1384.1
14720	17.73	4.	5.e-002	7.6205
14721	18.006	4.	0.	1320.1
14722	17.914	3.9091	0.	1341.3
14723	17.914	4.	5.e-002	7.5906
14724	18.191	4.	0.	1277.7
14725	18.098	3.9091	0.	1298.7
14726	18.098	4.	5.e-002	7.5614
14727	18.375	4.	0.	1235.5
14728	18.283	3.9091	0.	1256.4
14729	18.283	4.	5.e-002	7.5328
14730	18.56	4.	0.	1193.5
14731	18.467	3.9091	0.	1214.4
14732	18.467	4.	5.e-002	7.5049
14733	18.744	4.	0.	1151.8
14734	18.652	3.9091	0.	1172.5
14735	18.652	4.	5.e-002	7.4776
14736	18.928	4.	0.	1110.3
14737	18.836	3.9091	0.	1131.
14738	18.836	4.	5.e-002	7.4512
14739	19.113	4.	0.	1069.1
14740	19.021	3.9091	0.	1089.7
14741	19.021	4.	5.e-002	7.4257
14742	19.297	4.	0.	1028.2
14743	19.205	3.9091	0.	1048.7
14744	19.205	4.	5.e-002	7.401
14745	19.482	4.	0.	987.59
14746	19.389	3.9091	0.	1008.
14747	19.389	4.	5.e-002	7.3773
14748	19.666	4.	0.	947.26
14749	19.574	3.9091	0.	967.51
14750	19.574	4.	5.e-002	7.3548
14751	19.85	4.	0.	907.22
14752	19.758	3.9091	0.	927.37
14753	19.758	4.	5.e-002	7.3334
14754	20.035	4.	0.	867.49
14755	19.943	3.9091	0.	887.54
14756	19.943	4.	5.e-002	7.3134
14757	20.219	4.	0.	828.08
14758	20.127	3.9091	0.	848.03
14759	20.127	4.	5.e-002	7.2948
14760	20.404	4.	0.	789.01
14761	20.312	3.9091	0.	808.85
14762	20.312	4.	5.e-002	7.2779
14763	20.588	4.	0.	750.28
14764	20.496	3.9091	0.	770.02
14765	20.496	4.	5.e-002	7.2628
14766	20.773	4.	0.	711.92
14767	20.68	3.9091	0.	731.55
14768	20.68	4.	5.e-002	7.2497
14769	20.957	4.	0.	673.95
14770	20.865	3.9091	0.	693.46
14771	20.865	4.	5.e-002	7.2389
14772	21.141	4.	0.	636.38
14773	21.049	3.9091	0.	655.77
14774	21.049	4.	5.e-002	7.2306
14775	21.326	4.	0.	599.25
14776	21.234	3.9091	0.	618.51
14777	21.234	4.	5.e-002	7.2252
14778	21.51	4.	0.	562.57
14779	21.418	3.9091	0.	581.7
14780	21.418	4.	5.e-002	7.2231
14781	21.695	4.	0.	526.4
14782	21.602	3.9091	0.	545.38
14783	21.602	4.	5.e-002	7.2247
14784	21.879	4.	0.	490.78
14785	21.787	3.9091	0.	509.59
14786	21.787	4.	5.e-002	7.2306
14787	22.064	4.	0.	455.77
14788	21.971	3.9091	0.	474.38
14789	21.971	4.	5.e-002	7.2413
14790	22.248	4.	0.	421.44
14791	22.156	3.9091	0.	439.82
14792	22.156	4.	5.e-002	7.2576
14793	22.432	4.	0.	387.89
14794	22.34	3.9091	0.	405.99
14795	22.34	4.	5.e-002	7.2802
14796	22.617	4.	0.	355.24
14797	22.525	3.9091	0.	372.99
14798	22.525	4.	5.e-002	7.31
14799	22.801	4.	0.	323.67
14800	22.709	3.9091	0.	340.98
14801	22.709	4.	5.e-002	7.348
14802	22.986	4.	0.	293.41
14803	22.893	3.9091	0.	310.15
14804	22.893	4.	5.e-002	7.3952
14805	23.17	4.	0.	264.81
14806	23.078	3.9091	0.	280.79
14807	23.078	4.	5.e-002	7.4522
14808	23.355	4.	0.	238.34
14809	23.262	3.9091	0.	253.31
14810	23.262	4.	5.e-002	7.5199
14811	23.539	4.	0.	214.71
14812	23.447	3.9091	0.	228.26
14813	23.447	4.	5.e-002	7.5984
14814	23.723	4.	0.	194.88
14815	23.631	3.9091	0.	206.49
14816	23.631	4.	5.e-002	7.6898
14817	23.816	3.9091	0.	189.1
14818	23.816	4.	5.e-002	7.8406
14819	23.908	4.	0.	180.58
14820	4.5433	3.8182	0.	12008
14821	4.4511	3.7273	0.	13365
14822	4.4511	3.8182	5.e-002	808.24
14823	4.7277	3.8182	0.	9258.3
14824	4.6355	3.7273	0.	10344
14825	4.6355	3.8182	5.e-002	377.69
14826	4.9121	3.8182	0.	7751.6
14827	4.8199	3.7273	0.	8535.6
14828	4.8199	3.8182	5.e-002	192.26
14829	5.0966	3.8182	0.	6826.9
14830	5.0044	3.7273	0.	7396.9
14831	5.0044	3.8182	5.e-002	131.73
14832	5.281	3.8182	0.	6189.9
14833	5.1888	3.7273	0.	6611.9
14834	5.1888	3.8182	5.e-002	97.907
14835	5.4654	3.8182	0.	5729.6
14836	5.3732	3.7273	0.	6046.7
14837	5.3732	3.8182	5.e-002	76.92
14838	5.6498	3.8182	0.	5382.5
14839	5.5576	3.7273	0.	5623.9
14840	5.5576	3.8182	5.e-002	62.378
14841	5.8343	3.8182	0.	5113.3
14842	5.7421	3.7273	0.	5298.9
14843	5.7421	3.8182	5.e-002	51.593
14844	6.0187	3.8182	0.	4899.3
14845	5.9265	3.7273	0.	5043.5
14846	5.9265	3.8182	5.e-002	43.263
14847	6.2031	3.8182	0.	4725.6
14848	6.1109	3.7273	0.	4838.8
14849	6.1109	3.8182	5.e-002	36.679
14850	6.3875	3.8182	0.	4582.
14851	6.2953	3.7273	0.	4671.9
14852	6.2953	3.8182	5.e-002	31.41
14853	6.572	3.8182	0.	4461.
14854	6.4798	3.7273	0.	4533.5
14855	6.4798	3.8182	5.e-002	27.167
14856	6.7564	3.8182	0.	4357.2
14857	6.6642	3.7273	0.	4416.6
14858	6.6642	3.8182	5.e-002	23.744
14859	6.9408	3.8182	0.	4266.6
14860	6.8486	3.7273	0.	4316.1
14861	6.8486	3.8182	5.e-002	20.979
14862	7.1252	3.8182	0.	4186.2
14863	7.033	3.7273	0.	4228.3
14864	7.033	3.8182	5.e-002	18.749
14865	7.3097	3.8182	0.	4113.5
14866	7.2174	3.7273	0.	4150.1
14867	7.2174	3.8182	5.e-002	16.952
14868	7.4941	3.8182	0.	4046.7
14869	7.4019	3.7273	0.	4079.2
14870	7.4019	3.8182	5.e-002	15.505
14871	7.6785	3.8182	0.	3984.5
14872	7.5863	3.7273	0.	4014.
14873	7.5863	3.8182	5.e-002	14.341
14874	7.8629	3.8182	0.	3925.8
14875	7.7707	3.7273	0.	3953.1
14876	7.7707	3.8182	5.e-002	13.404
14877	8.0474	3.8182	0.	3869.7
14878	7.9551	3.7273	0.	3895.5
14879	7.9551	3.8182	5.e-002	12.648
14880	8.2318	3.8182	0.	3815.6
14881	8.1396	3.7273	0.	3840.3
14882	8.1396	3.8182	5.e-002	12.038
14883	8.4162	3.8182	0.	3763.
14884	8.324	3.7273	0.	3786.9
14885	8.324	3.8182	5.e-002	11.542
14886	8.6006	3.8182	0.	3711.6
14887	8.5084	3.7273	0.	3734.9
14888	8.5084	3.8182	5.e-002	11.138
14889	8.785	3.8182	0.	3660.9
14890	8.6928	3.7273	0.	3684.
14891	8.6928	3.8182	5.e-002	10.806
14892	8.9695	3.8182	0.	3610.8
14893	8.8773	3.7273	0.	3633.7
14894	8.8773	3.8182	5.e-002	10.53
14895	9.1539	3.8182	0.	3561.2
14896	9.0617	3.7273	0.	3584.
14897	9.0617	3.8182	5.e-002	10.3
14898	9.3383	3.8182	0.	3511.9
14899	9.2461	3.7273	0.	3534.7
14900	9.2461	3.8182	5.e-002	10.106
14901	9.5227	3.8182	0.	3462.8
14902	9.4305	3.7273	0.	3485.6
14903	9.4305	3.8182	5.e-002	9.9398
14904	9.7072	3.8182	0.	3413.9
14905	9.615	3.7273	0.	3436.7
14906	9.615	3.8182	5.e-002	9.7964
14907	9.8916	3.8182	0.	3365.
14908	9.7994	3.7273	0.	3387.9
14909	9.7994	3.8182	5.e-002	9.671
14910	10.076	3.8182	0.	3316.3
14911	9.9838	3.7273	0.	3339.3
14912	9.9838	3.8182	5.e-002	9.5604
14913	10.26	3.8182	0.	3267.6
14914	10.168	3.7273	0.	3290.6
14915	10.168	3.8182	5.e-002	9.4614
14916	10.445	3.8182	0.	3218.9
14917	10.353	3.7273	0.	3242.1
14918	10.353	3.8182	5.e-002	9.3718
14919	10.629	3.8182	0.	3170.3
14920	10.537	3.7273	0.	3193.5
14921	10.537	3.8182	5.e-002	9.2901
14922	10.814	3.8182	0.	3121.8
14923	10.721	3.7273	0.	3145.
14924	10.721	3.8182	5.e-002	9.2151
14925	10.998	3.8182	0.	3073.2
14926	10.906	3.7273	0.	3096.5
14927	10.906	3.8182	5.e-002	9.1452
14928	11.183	3.8182	0.	3024.7
14929	11.09	3.7273	0.	3048.1
14930	11.09	3.8182	5.e-002	9.0797
14931	11.367	3.8182	0.	2976.3
14932	11.275	3.7273	0.	2999.7
14933	11.275	3.8182	5.e-002	9.018
14934	11.551	3.8182	0.	2927.9
14935	11.459	3.7273	0.	2951.3
14936	11.459	3.8182	5.e-002	8.9595
14937	11.736	3.8182	0.	2879.5
14938	11.644	3.7273	0.	2903.
14939	11.644	3.8182	5.e-002	8.9036
14940	11.92	3.8182	0.	2831.3
14941	11.828	3.7273	0.	2854.7
14942	11.828	3.8182	5.e-002	8.8501
14943	12.105	3.8182	0.	2783.1
14944	12.012	3.7273	0.	2806.5
14945	12.012	3.8182	5.e-002	8.7987
14946	12.289	3.8182	0.	2735.
14947	12.197	3.7273	0.	2758.4
14948	12.197	3.8182	5.e-002	8.7489
14949	12.474	3.8182	0.	2687.
14950	12.381	3.7273	0.	2710.4
14951	12.381	3.8182	5.e-002	8.7006
14952	12.658	3.8182	0.	2639.1
14953	12.566	3.7273	0.	2662.5
14954	12.566	3.8182	5.e-002	8.6538
14955	12.842	3.8182	0.	2591.3
14956	12.75	3.7273	0.	2614.7
14957	12.75	3.8182	5.e-002	8.6082
14958	13.027	3.8182	0.	2543.7
14959	12.935	3.7273	0.	2567.
14960	12.935	3.8182	5.e-002	8.5636
14961	13.211	3.8182	0.	2496.1
14962	13.119	3.7273	0.	2519.4
14963	13.119	3.8182	5.e-002	8.5201
14964	13.396	3.8182	0.	2448.7
14965	13.303	3.7273	0.	2472.
14966	13.303	3.8182	5.e-002	8.4776
14967	13.58	3.8182	0.	2401.5
14968	13.488	3.7273	0.	2424.7
14969	13.488	3.8182	5.e-002	8.4357
14970	13.764	3.8182	0.	2354.3
14971	13.672	3.7273	0.	2377.5
14972	13.672	3.8182	5.e-002	8.3946
14973	13.949	3.8182	0.	2307.4
14974	13.857	3.7273	0.	2330.4
14975	13.857	3.8182	5.e-002	8.3542
14976	14.133	3.8182	0.	2260.5
14977	14.041	3.7273	0.	2283.6
14978	14.041	3.8182	5.e-002	8.3146
14979	14.318	3.8182	0.	2213.9
14980	14.226	3.7273	0.	2236.8
14981	14.226	3.8182	5.e-002	8.2754
14982	14.502	3.8182	0.	2167.3
14983	14.41	3.7273	0.	2190.2
14984	14.41	3.8182	5.e-002	8.2369
14985	14.687	3.8182	0.	2121.
14986	14.594	3.7273	0.	2143.8
14987	14.594	3.8182	5.e-002	8.1989
14988	14.871	3.8182	0.	2074.8
14989	14.779	3.7273	0.	2097.6
14990	14.779	3.8182	5.e-002	8.1613
14991	15.055	3.8182	0.	2028.8
14992	14.963	3.7273	0.	2051.5
14993	14.963	3.8182	5.e-002	8.1242
14994	15.24	3.8182	0.	1983.
14995	15.148	3.7273	0.	2005.6
14996	15.148	3.8182	5.e-002	8.0878
14997	15.424	3.8182	0.	1937.4
14998	15.332	3.7273	0.	1959.9
14999	15.332	3.8182	5.e-002	8.0517
15000	15.609	3.8182	0.	1892.
15001	15.517	3.7273	0.	1914.4
15002	15.517	3.8182	5.e-002	8.0159
15003	15.793	3.8182	0.	1846.7
15004	15.701	3.7273	0.	1869.
15005	15.701	3.8182	5.e-002	7.9807
15006	15.978	3.8182	0.	1801.7
15007	15.885	3.7273	0.	1823.9
15008	15.885	3.8182	5.e-002	7.9459
15009	16.162	3.8182	0.	1756.8
15010	16.07	3.7273	0.	1779.
15011	16.07	3.8182	5.e-002	7.9114
15012	16.346	3.8182	0.	1712.1
15013	16.254	3.7273	0.	1734.2
15014	16.254	3.8182	5.e-002	7.8774
15015	16.531	3.8182	0.	1667.7
15016	16.439	3.7273	0.	1689.7
15017	16.439	3.8182	5.e-002	7.8438
15018	16.715	3.8182	0.	1623.5
15019	16.623	3.7273	0.	1645.3
15020	16.623	3.8182	5.e-002	7.8107
15021	16.9	3.8182	0.	1579.4
15022	16.807	3.7273	0.	1601.2
15023	16.807	3.8182	5.e-002	7.7779
15024	17.084	3.8182	0.	1535.6
15025	16.992	3.7273	0.	1557.3
15026	16.992	3.8182	5.e-002	7.7456
15027	17.269	3.8182	0.	1492.
15028	17.176	3.7273	0.	1513.6
15029	17.176	3.8182	5.e-002	7.7139
15030	17.453	3.8182	0.	1448.7
15031	17.361	3.7273	0.	1470.1
15032	17.361	3.8182	5.e-002	7.6824
15033	17.637	3.8182	0.	1405.5
15034	17.545	3.7273	0.	1426.9
15035	17.545	3.8182	5.e-002	7.6516
15036	17.822	3.8182	0.	1362.6
15037	17.73	3.7273	0.	1383.9
15038	17.73	3.8182	5.e-002	7.6213
15039	18.006	3.8182	0.	1320.
15040	17.914	3.7273	0.	1341.1
15041	17.914	3.8182	5.e-002	7.5916
15042	18.191	3.8182	0.	1277.5
15043	18.098	3.7273	0.	1298.6
15044	18.098	3.8182	5.e-002	7.5623
15045	18.375	3.8182	0.	1235.4
15046	18.283	3.7273	0.	1256.3
15047	18.283	3.8182	5.e-002	7.5338
15048	18.56	3.8182	0.	1193.5
15049	18.467	3.7273	0.	1214.3
15050	18.467	3.8182	5.e-002	7.506
15051	18.744	3.8182	0.	1151.8
15052	18.652	3.7273	0.	1172.6
15053	18.652	3.8182	5.e-002	7.4788
15054	18.928	3.8182	0.	1110.4
15055	18.836	3.7273	0.	1131.1
15056	18.836	3.8182	5.e-002	7.4525
15057	19.113	3.8182	0.	1069.3
15058	19.021	3.7273	0.	1089.8
15059	19.021	3.8182	5.e-002	7.4271
15060	19.297	3.8182	0.	1028.5
15061	19.205	3.7273	0.	1048.9
15062	19.205	3.8182	5.e-002	7.4025
15063	19.482	3.8182	0.	987.93
15064	19.389	3.7273	0.	1008.2
15065	19.389	3.8182	5.e-002	7.3789
15066	19.666	3.8182	0.	947.69
15067	19.574	3.7273	0.	967.87
15068	19.574	3.8182	5.e-002	7.3566
15069	19.85	3.8182	0.	907.75
15070	19.758	3.7273	0.	927.82
15071	19.758	3.8182	5.e-002	7.3354
15072	20.035	3.8182	0.	868.14
15073	19.943	3.7273	0.	888.09
15074	19.943	3.8182	5.e-002	7.3156
15075	20.219	3.8182	0.	828.85
15076	20.127	3.7273	0.	848.68
15077	20.127	3.8182	5.e-002	7.2973
15078	20.404	3.8182	0.	789.91
15079	20.312	3.7273	0.	809.62
15080	20.312	3.8182	5.e-002	7.2808
15081	20.588	3.8182	0.	751.34
15082	20.496	3.7273	0.	770.92
15083	20.496	3.8182	5.e-002	7.2661
15084	20.773	3.8182	0.	713.13
15085	20.68	3.7273	0.	732.59
15086	20.68	3.8182	5.e-002	7.2534
15087	20.957	3.8182	0.	675.33
15088	20.865	3.7273	0.	694.65
15089	20.865	3.8182	5.e-002	7.2432
15090	21.141	3.8182	0.	637.94
15091	21.049	3.7273	0.	657.12
15092	21.049	3.8182	5.e-002	7.2356
15093	21.326	3.8182	0.	601.
15094	21.234	3.7273	0.	620.03
15095	21.234	3.8182	5.e-002	7.231
15096	21.51	3.8182	0.	564.54
15097	21.418	3.7273	0.	583.4
15098	21.418	3.8182	5.e-002	7.2299
15099	21.695	3.8182	0.	528.59
15100	21.602	3.7273	0.	547.27
15101	21.602	3.8182	5.e-002	7.2326
15102	21.879	3.8182	0.	493.19
15103	21.787	3.7273	0.	511.68
15104	21.787	3.8182	5.e-002	7.2396
15105	22.064	3.8182	0.	458.42
15106	21.971	3.7273	0.	476.68
15107	21.971	3.8182	5.e-002	7.2516
15108	22.248	3.8182	0.	424.33
15109	22.156	3.7273	0.	442.33
15110	22.156	3.8182	5.e-002	7.2692
15111	22.432	3.8182	0.	391.02
15112	22.34	3.7273	0.	408.71
15113	22.34	3.8182	5.e-002	7.2932
15114	22.617	3.8182	0.	358.61
15115	22.525	3.7273	0.	375.93
15116	22.525	3.8182	5.e-002	7.3242
15117	22.801	3.8182	0.	327.28
15118	22.709	3.7273	0.	344.13
15119	22.709	3.8182	5.e-002	7.3632
15120	22.986	3.8182	0.	297.26
15121	22.893	3.7273	0.	313.51
15122	22.893	3.8182	5.e-002	7.4107
15123	23.17	3.8182	0.	268.88
15124	23.078	3.7273	0.	284.36
15125	23.078	3.8182	5.e-002	7.4674
15126	23.355	3.8182	0.	242.64
15127	23.262	3.7273	0.	257.07
15128	23.262	3.8182	5.e-002	7.5336
15129	23.539	3.8182	0.	219.21
15130	23.447	3.7273	0.	232.21
15131	23.447	3.8182	5.e-002	7.6093
15132	23.723	3.8182	0.	199.54
15133	23.631	3.7273	0.	210.6
15134	23.631	3.8182	5.e-002	7.6958
15135	23.816	3.7273	0.	193.32
15136	23.816	3.8182	5.e-002	7.8267
15137	23.908	3.8182	0.	185.41
15138	4.5433	3.6364	0.	11778
15139	4.4511	3.5455	0.	12554
15140	4.4511	3.6364	5.e-002	353.68
15141	4.7277	3.6364	0.	9650.2
15142	4.6355	3.5455	0.	10492
15143	4.6355	3.6364	5.e-002	276.93
15144	4.9121	3.6364	0.	8187.3
15145	4.8199	3.5455	0.	8895.1
15146	4.8199	3.6364	5.e-002	199.58
15147	5.0966	3.6364	0.	7182.2
15148	5.0044	3.5455	0.	7735.1
15149	5.0044	3.6364	5.e-002	140.21
15150	5.281	3.6364	0.	6467.6
15151	5.1888	3.5455	0.	6891.2
15152	5.1888	3.6364	5.e-002	106.45
15153	5.4654	3.6364	0.	5940.
15154	5.3732	3.5455	0.	6263.5
15155	5.3732	3.6364	5.e-002	84.238
15156	5.6498	3.6364	0.	5539.4
15157	5.5576	3.5455	0.	5787.5
15158	5.5576	3.6364	5.e-002	68.323
15159	5.8343	3.6364	0.	5228.6
15160	5.7421	3.5455	0.	5419.9
15161	5.7421	3.6364	5.e-002	56.31
15162	6.0187	3.6364	0.	4982.7
15163	5.9265	3.5455	0.	5131.6
15164	5.9265	3.6364	5.e-002	46.965
15165	6.2031	3.6364	0.	4785.
15166	6.1109	3.5455	0.	4901.9
15167	6.1109	3.6364	5.e-002	39.573
15168	6.3875	3.6364	0.	4623.4
15169	6.2953	3.5455	0.	4716.3
15170	6.2953	3.6364	5.e-002	33.675
15171	6.572	3.6364	0.	4489.
15172	6.4798	3.5455	0.	4563.9
15173	6.4798	3.6364	5.e-002	28.948
15174	6.7564	3.6364	0.	4375.5
15175	6.6642	3.5455	0.	4436.7
15176	6.6642	3.6364	5.e-002	25.153
15177	6.9408	3.6364	0.	4277.8
15178	6.8486	3.5455	0.	4328.8
15179	6.8486	3.6364	5.e-002	22.103
15180	7.1252	3.6364	0.	4192.2
15181	7.033	3.5455	0.	4235.5
15182	7.033	3.6364	5.e-002	19.651
15183	7.3097	3.6364	0.	4115.8
15184	7.2174	3.5455	0.	4153.5
15185	7.2174	3.6364	5.e-002	17.68
15186	7.4941	3.6364	0.	4046.6
15187	7.4019	3.5455	0.	4080.
15188	7.4019	3.6364	5.e-002	16.095
15189	7.6785	3.6364	0.	3982.7
15190	7.5863	3.5455	0.	4012.9
15191	7.5863	3.6364	5.e-002	14.82
15192	7.8629	3.6364	0.	3922.8
15193	7.7707	3.5455	0.	3950.8
15194	7.7707	3.6364	5.e-002	13.794
15195	8.0474	3.6364	0.	3866.1
15196	7.9551	3.5455	0.	3892.4
15197	7.9551	3.6364	5.e-002	12.965
15198	8.2318	3.6364	0.	3811.6
15199	8.1396	3.5455	0.	3836.8
15200	8.1396	3.6364	5.e-002	12.295
15201	8.4162	3.6364	0.	3758.8
15202	8.324	3.5455	0.	3783.2
15203	8.324	3.6364	5.e-002	11.751
15204	8.6006	3.6364	0.	3707.4
15205	8.5084	3.5455	0.	3731.2
15206	8.5084	3.6364	5.e-002	11.307
15207	8.785	3.6364	0.	3656.8
15208	8.6928	3.5455	0.	3680.2
15209	8.6928	3.6364	5.e-002	10.942
15210	8.9695	3.6364	0.	3606.9
15211	8.8773	3.5455	0.	3630.1
15212	8.8773	3.6364	5.e-002	10.641
15213	9.1539	3.6364	0.	3557.5
15214	9.0617	3.5455	0.	3580.6
15215	9.0617	3.6364	5.e-002	10.389
15216	9.3383	3.6364	0.	3508.4
15217	9.2461	3.5455	0.	3531.4
15218	9.2461	3.6364	5.e-002	10.177
15219	9.5227	3.6364	0.	3459.5
15220	9.4305	3.5455	0.	3482.5
15221	9.4305	3.6364	5.e-002	9.9971
15222	9.7072	3.6364	0.	3410.8
15223	9.615	3.5455	0.	3433.9
15224	9.615	3.6364	5.e-002	9.8424
15225	9.8916	3.6364	0.	3362.2
15226	9.7994	3.5455	0.	3385.3
15227	9.7994	3.6364	5.e-002	9.7081
15228	10.076	3.6364	0.	3313.6
15229	9.9838	3.5455	0.	3336.8
15230	9.9838	3.6364	5.e-002	9.5902
15231	10.26	3.6364	0.	3265.1
15232	10.168	3.5455	0.	3288.4
15233	10.168	3.6364	5.e-002	9.4855
15234	10.445	3.6364	0.	3216.7
15235	10.353	3.5455	0.	3240.
15236	10.353	3.6364	5.e-002	9.3913
15237	10.629	3.6364	0.	3168.2
15238	10.537	3.5455	0.	3191.6
15239	10.537	3.6364	5.e-002	9.306
15240	10.814	3.6364	0.	3119.8
15241	10.721	3.5455	0.	3143.2
15242	10.721	3.6364	5.e-002	9.228
15243	10.998	3.6364	0.	3071.4
15244	10.906	3.5455	0.	3094.8
15245	10.906	3.6364	5.e-002	9.1558
15246	11.183	3.6364	0.	3023.
15247	11.09	3.5455	0.	3046.5
15248	11.09	3.6364	5.e-002	9.0884
15249	11.367	3.6364	0.	2974.7
15250	11.275	3.5455	0.	2998.2
15251	11.275	3.6364	5.e-002	9.0253
15252	11.551	3.6364	0.	2926.4
15253	11.459	3.5455	0.	2949.9
15254	11.459	3.6364	5.e-002	8.9656
15255	11.736	3.6364	0.	2878.2
15256	11.644	3.5455	0.	2901.7
15257	11.644	3.6364	5.e-002	8.9087
15258	11.92	3.6364	0.	2830.
15259	11.828	3.5455	0.	2853.6
15260	11.828	3.6364	5.e-002	8.8544
15261	12.105	3.6364	0.	2781.9
15262	12.012	3.5455	0.	2805.5
15263	12.012	3.6364	5.e-002	8.8024
15264	12.289	3.6364	0.	2733.9
15265	12.197	3.5455	0.	2757.4
15266	12.197	3.6364	5.e-002	8.7521
15267	12.474	3.6364	0.	2686.
15268	12.381	3.5455	0.	2709.5
15269	12.381	3.6364	5.e-002	8.7034
15270	12.658	3.6364	0.	2638.1
15271	12.566	3.5455	0.	2661.6
15272	12.566	3.6364	5.e-002	8.6563
15273	12.842	3.6364	0.	2590.4
15274	12.75	3.5455	0.	2613.9
15275	12.75	3.6364	5.e-002	8.6104
15276	13.027	3.6364	0.	2542.8
15277	12.935	3.5455	0.	2566.2
15278	12.935	3.6364	5.e-002	8.5655
15279	13.211	3.6364	0.	2495.3
15280	13.119	3.5455	0.	2518.7
15281	13.119	3.6364	5.e-002	8.5219
15282	13.396	3.6364	0.	2447.9
15283	13.303	3.5455	0.	2471.3
15284	13.303	3.6364	5.e-002	8.4792
15285	13.58	3.6364	0.	2400.7
15286	13.488	3.5455	0.	2424.
15287	13.488	3.6364	5.e-002	8.4372
15288	13.764	3.6364	0.	2353.6
15289	13.672	3.5455	0.	2376.8
15290	13.672	3.6364	5.e-002	8.3959
15291	13.949	3.6364	0.	2306.7
15292	13.857	3.5455	0.	2329.8
15293	13.857	3.6364	5.e-002	8.3555
15294	14.133	3.6364	0.	2259.9
15295	14.041	3.5455	0.	2283.
15296	14.041	3.6364	5.e-002	8.3157
15297	14.318	3.6364	0.	2213.2
15298	14.226	3.5455	0.	2236.3
15299	14.226	3.6364	5.e-002	8.2764
15300	14.502	3.6364	0.	2166.8
15301	14.41	3.5455	0.	2189.7
15302	14.41	3.6364	5.e-002	8.2379
15303	14.687	3.6364	0.	2120.4
15304	14.594	3.5455	0.	2143.3
15305	14.594	3.6364	5.e-002	8.1998
15306	14.871	3.6364	0.	2074.3
15307	14.779	3.5455	0.	2097.1
15308	14.779	3.6364	5.e-002	8.1622
15309	15.055	3.6364	0.	2028.3
15310	14.963	3.5455	0.	2051.1
15311	14.963	3.6364	5.e-002	8.1251
15312	15.24	3.6364	0.	1982.5
15313	15.148	3.5455	0.	2005.2
15314	15.148	3.6364	5.e-002	8.0886
15315	15.424	3.6364	0.	1936.9
15316	15.332	3.5455	0.	1959.5
15317	15.332	3.6364	5.e-002	8.0524
15318	15.609	3.6364	0.	1891.5
15319	15.517	3.5455	0.	1914.
15320	15.517	3.6364	5.e-002	8.0167
15321	15.793	3.6364	0.	1846.3
15322	15.701	3.5455	0.	1868.7
15323	15.701	3.6364	5.e-002	7.9814
15324	15.978	3.6364	0.	1801.2
15325	15.885	3.5455	0.	1823.5
15326	15.885	3.6364	5.e-002	7.9466
15327	16.162	3.6364	0.	1756.4
15328	16.07	3.5455	0.	1778.6
15329	16.07	3.6364	5.e-002	7.9121
15330	16.346	3.6364	0.	1711.8
15331	16.254	3.5455	0.	1733.9
15332	16.254	3.6364	5.e-002	7.878
15333	16.531	3.6364	0.	1667.4
15334	16.439	3.5455	0.	1689.4
15335	16.439	3.6364	5.e-002	7.8445
15336	16.715	3.6364	0.	1623.1
15337	16.623	3.5455	0.	1645.
15338	16.623	3.6364	5.e-002	7.8113
15339	16.9	3.6364	0.	1579.1
15340	16.807	3.5455	0.	1600.9
15341	16.807	3.6364	5.e-002	7.7785
15342	17.084	3.6364	0.	1535.3
15343	16.992	3.5455	0.	1557.
15344	16.992	3.6364	5.e-002	7.7463
15345	17.269	3.6364	0.	1491.8
15346	17.176	3.5455	0.	1513.4
15347	17.176	3.6364	5.e-002	7.7145
15348	17.453	3.6364	0.	1448.4
15349	17.361	3.5455	0.	1469.9
15350	17.361	3.6364	5.e-002	7.6831
15351	17.637	3.6364	0.	1405.3
15352	17.545	3.5455	0.	1426.7
15353	17.545	3.6364	5.e-002	7.6523
15354	17.822	3.6364	0.	1362.5
15355	17.73	3.5455	0.	1383.8
15356	17.73	3.6364	5.e-002	7.622
15357	18.006	3.6364	0.	1319.8
15358	17.914	3.5455	0.	1341.
15359	17.914	3.6364	5.e-002	7.5923
15360	18.191	3.6364	0.	1277.5
15361	18.098	3.5455	0.	1298.5
15362	18.098	3.6364	5.e-002	7.5631
15363	18.375	3.6364	0.	1235.3
15364	18.283	3.5455	0.	1256.3
15365	18.283	3.6364	5.e-002	7.5346
15366	18.56	3.6364	0.	1193.5
15367	18.467	3.5455	0.	1214.3
15368	18.467	3.6364	5.e-002	7.5068
15369	18.744	3.6364	0.	1151.9
15370	18.652	3.5455	0.	1172.6
15371	18.652	3.6364	5.e-002	7.4797
15372	18.928	3.6364	0.	1110.5
15373	18.836	3.5455	0.	1131.1
15374	18.836	3.6364	5.e-002	7.4535
15375	19.113	3.6364	0.	1069.5
15376	19.021	3.5455	0.	1089.9
15377	19.021	3.6364	5.e-002	7.4281
15378	19.297	3.6364	0.	1028.7
15379	19.205	3.5455	0.	1049.1
15380	19.205	3.6364	5.e-002	7.4037
15381	19.482	3.6364	0.	988.22
15382	19.389	3.5455	0.	1008.5
15383	19.389	3.6364	5.e-002	7.3802
15384	19.666	3.6364	0.	948.06
15385	19.574	3.5455	0.	968.17
15386	19.574	3.6364	5.e-002	7.358
15387	19.85	3.6364	0.	908.21
15388	19.758	3.5455	0.	928.19
15389	19.758	3.6364	5.e-002	7.337
15390	20.035	3.6364	0.	868.69
15391	19.943	3.5455	0.	888.53
15392	19.943	3.6364	5.e-002	7.3174
15393	20.219	3.6364	0.	829.5
15394	20.127	3.5455	0.	849.22
15395	20.127	3.6364	5.e-002	7.2994
15396	20.404	3.6364	0.	790.67
15397	20.312	3.5455	0.	810.25
15398	20.312	3.6364	5.e-002	7.2831
15399	20.588	3.6364	0.	752.22
15400	20.496	3.5455	0.	771.64
15401	20.496	3.6364	5.e-002	7.2687
15402	20.773	3.6364	0.	714.14
15403	20.68	3.5455	0.	733.42
15404	20.68	3.6364	5.e-002	7.2565
15405	20.957	3.6364	0.	676.48
15406	20.865	3.5455	0.	695.6
15407	20.865	3.6364	5.e-002	7.2468
15408	21.141	3.6364	0.	639.24
15409	21.049	3.5455	0.	658.2
15410	21.049	3.6364	5.e-002	7.2398
15411	21.326	3.6364	0.	602.45
15412	21.234	3.5455	0.	621.24
15413	21.234	3.6364	5.e-002	7.2358
15414	21.51	3.6364	0.	566.15
15415	21.418	3.5455	0.	584.75
15416	21.418	3.6364	5.e-002	7.2354
15417	21.695	3.6364	0.	530.37
15418	21.602	3.5455	0.	548.77
15419	21.602	3.6364	5.e-002	7.2389
15420	21.879	3.6364	0.	495.16
15421	21.787	3.5455	0.	513.33
15422	21.787	3.6364	5.e-002	7.2469
15423	22.064	3.6364	0.	460.56
15424	21.971	3.5455	0.	478.49
15425	21.971	3.6364	5.e-002	7.2599
15426	22.248	3.6364	0.	426.66
15427	22.156	3.5455	0.	444.3
15428	22.156	3.6364	5.e-002	7.2786
15429	22.432	3.6364	0.	393.53
15430	22.34	3.5455	0.	410.84
15431	22.34	3.6364	5.e-002	7.3036
15432	22.617	3.6364	0.	361.31
15433	22.525	3.5455	0.	378.22
15434	22.525	3.6364	5.e-002	7.3355
15435	22.801	3.6364	0.	330.16
15436	22.709	3.5455	0.	346.58
15437	22.709	3.6364	5.e-002	7.375
15438	22.986	3.6364	0.	300.32
15439	22.893	3.5455	0.	316.11
15440	22.893	3.6364	5.e-002	7.4227
15441	23.17	3.6364	0.	272.12
15442	23.078	3.5455	0.	287.11
15443	23.078	3.6364	5.e-002	7.479
15444	23.355	3.6364	0.	246.04
15445	23.262	3.5455	0.	259.97
15446	23.262	3.6364	5.e-002	7.5441
15447	23.539	3.6364	0.	222.77
15448	23.447	3.5455	0.	235.25
15449	23.447	3.6364	5.e-002	7.6176
15450	23.723	3.6364	0.	203.22
15451	23.631	3.5455	0.	213.77
15452	23.631	3.6364	5.e-002	7.7003
15453	23.816	3.5455	0.	196.56
15454	23.816	3.6364	5.e-002	7.8154
15455	23.908	3.6364	0.	189.22
15456	4.5433	3.4545	0.	11297
15457	4.4511	3.3636	0.	11816
15458	4.4511	3.4545	5.e-002	201.08
15459	4.7277	3.4545	0.	9763.5
15460	4.6355	3.3636	0.	10420
15461	4.6355	3.4545	5.e-002	211.19
15462	4.9121	3.4545	0.	8454.9
15463	4.8199	3.3636	0.	9070.5
15464	4.8199	3.4545	5.e-002	174.07
15465	5.0966	3.4545	0.	7448.6
15466	5.0044	3.3636	0.	7961.8
15467	5.0044	3.4545	5.e-002	139.38
15468	5.281	3.4545	0.	6688.6
15469	5.1888	3.3636	0.	7095.8
15470	5.1888	3.4545	5.e-002	111.16
15471	5.4654	3.4545	0.	6111.5
15472	5.3732	3.3636	0.	6428.4
15473	5.3732	3.4545	5.e-002	89.675
15474	5.6498	3.4545	0.	5668.1
15475	5.5576	3.3636	0.	5913.5
15476	5.5576	3.4545	5.e-002	73.159
15477	5.8343	3.4545	0.	5323.
15478	5.7421	3.3636	0.	5513.4
15479	5.7421	3.4545	5.e-002	60.251
15480	6.0187	3.4545	0.	5050.8
15481	5.9265	3.3636	0.	5199.4
15482	5.9265	3.4545	5.e-002	50.055
15483	6.2031	3.4545	0.	4833.2
15484	6.1109	3.3636	0.	4950.3
15485	6.1109	3.4545	5.e-002	41.96
15486	6.3875	3.4545	0.	4656.7
15487	6.2953	3.3636	0.	4750.
15488	6.2953	3.4545	5.e-002	35.512
15489	6.572	3.4545	0.	4511.5
15490	6.4798	3.3636	0.	4586.9
15491	6.4798	3.4545	5.e-002	30.367
15492	6.7564	3.4545	0.	4390.
15493	6.6642	3.3636	0.	4451.8
15494	6.6642	3.4545	5.e-002	26.256
15495	6.9408	3.4545	0.	4286.5
15496	6.8486	3.3636	0.	4338.2
15497	6.8486	3.4545	5.e-002	22.969
15498	7.1252	3.4545	0.	4196.8
15499	7.033	3.3636	0.	4240.9
15500	7.033	3.4545	5.e-002	20.337
15501	7.3097	3.4545	0.	4117.6
15502	7.2174	3.3636	0.	4156.
15503	7.2174	3.4545	5.e-002	18.228
15504	7.4941	3.4545	0.	4046.4
15505	7.4019	3.3636	0.	4080.5
15506	7.4019	3.4545	5.e-002	16.536
15507	7.6785	3.4545	0.	3981.1
15508	7.5863	3.3636	0.	4012.1
15509	7.5863	3.4545	5.e-002	15.177
15510	7.8629	3.4545	0.	3920.4
15511	7.7707	3.3636	0.	3949.1
15512	7.7707	3.4545	5.e-002	14.084
15513	8.0474	3.4545	0.	3863.1
15514	7.9551	3.3636	0.	3890.1
15515	7.9551	3.4545	5.e-002	13.201
15516	8.2318	3.4545	0.	3808.4
15517	8.1396	3.3636	0.	3834.2
15518	8.1396	3.4545	5.e-002	12.487
15519	8.4162	3.4545	0.	3755.5
15520	8.324	3.3636	0.	3780.4
15521	8.324	3.4545	5.e-002	11.907
15522	8.6006	3.4545	0.	3704.
15523	8.5084	3.3636	0.	3728.4
15524	8.5084	3.4545	5.e-002	11.434
15525	8.785	3.4545	0.	3653.6
15526	8.6928	3.3636	0.	3677.5
15527	8.6928	3.4545	5.e-002	11.045
15528	8.9695	3.4545	0.	3603.8
15529	8.8773	3.3636	0.	3627.4
15530	8.8773	3.4545	5.e-002	10.724
15531	9.1539	3.4545	0.	3554.5
15532	9.0617	3.3636	0.	3578.
15533	9.0617	3.4545	5.e-002	10.456
15534	9.3383	3.4545	0.	3505.6
15535	9.2461	3.3636	0.	3529.
15536	9.2461	3.4545	5.e-002	10.231
15537	9.5227	3.4545	0.	3456.9
15538	9.4305	3.3636	0.	3480.3
15539	9.4305	3.4545	5.e-002	10.041
15540	9.7072	3.4545	0.	3408.4
15541	9.615	3.3636	0.	3431.8
15542	9.615	3.4545	5.e-002	9.8776
15543	9.8916	3.4545	0.	3359.9
15544	9.7994	3.3636	0.	3383.4
15545	9.7994	3.4545	5.e-002	9.7364
15546	10.076	3.4545	0.	3311.6
15547	9.9838	3.3636	0.	3335.
15548	9.9838	3.4545	5.e-002	9.6131
15549	10.26	3.4545	0.	3263.2
15550	10.168	3.3636	0.	3286.7
15551	10.168	3.4545	5.e-002	9.5039
15552	10.445	3.4545	0.	3214.9
15553	10.353	3.3636	0.	3238.4
15554	10.353	3.4545	5.e-002	9.4063
15555	10.629	3.4545	0.	3166.6
15556	10.537	3.3636	0.	3190.2
15557	10.537	3.4545	5.e-002	9.3181
15558	10.814	3.4545	0.	3118.3
15559	10.721	3.3636	0.	3141.9
15560	10.721	3.4545	5.e-002	9.2379
15561	10.998	3.4545	0.	3070.
15562	10.906	3.3636	0.	3093.6
15563	10.906	3.4545	5.e-002	9.1639
15564	11.183	3.4545	0.	3021.7
15565	11.09	3.3636	0.	3045.4
15566	11.09	3.4545	5.e-002	9.0951
15567	11.367	3.4545	0.	2973.5
15568	11.275	3.3636	0.	2997.2
15569	11.275	3.4545	5.e-002	9.0308
15570	11.551	3.4545	0.	2925.3
15571	11.459	3.3636	0.	2949.
15572	11.459	3.4545	5.e-002	8.9702
15573	11.736	3.4545	0.	2877.1
15574	11.644	3.3636	0.	2900.8
15575	11.644	3.4545	5.e-002	8.9126
15576	11.92	3.4545	0.	2829.
15577	11.828	3.3636	0.	2852.7
15578	11.828	3.4545	5.e-002	8.8578
15579	12.105	3.4545	0.	2781.
15580	12.012	3.3636	0.	2804.7
15581	12.012	3.4545	5.e-002	8.8053
15582	12.289	3.4545	0.	2733.1
15583	12.197	3.3636	0.	2756.7
15584	12.197	3.4545	5.e-002	8.7546
15585	12.474	3.4545	0.	2685.2
15586	12.381	3.3636	0.	2708.8
15587	12.381	3.4545	5.e-002	8.7055
15588	12.658	3.4545	0.	2637.4
15589	12.566	3.3636	0.	2661.
15590	12.566	3.4545	5.e-002	8.6581
15591	12.842	3.4545	0.	2589.7
15592	12.75	3.3636	0.	2613.3
15593	12.75	3.4545	5.e-002	8.6121
15594	13.027	3.4545	0.	2542.1
15595	12.935	3.3636	0.	2565.7
15596	12.935	3.4545	5.e-002	8.567
15597	13.211	3.4545	0.	2494.7
15598	13.119	3.3636	0.	2518.2
15599	13.119	3.4545	5.e-002	8.5232
15600	13.396	3.4545	0.	2447.4
15601	13.303	3.3636	0.	2470.8
15602	13.303	3.4545	5.e-002	8.4804
15603	13.58	3.4545	0.	2400.2
15604	13.488	3.3636	0.	2423.5
15605	13.488	3.4545	5.e-002	8.4383
15606	13.764	3.4545	0.	2353.1
15607	13.672	3.3636	0.	2376.4
15608	13.672	3.4545	5.e-002	8.3969
15609	13.949	3.4545	0.	2306.2
15610	13.857	3.3636	0.	2329.4
15611	13.857	3.4545	5.e-002	8.3564
15612	14.133	3.4545	0.	2259.4
15613	14.041	3.3636	0.	2282.6
15614	14.041	3.4545	5.e-002	8.3166
15615	14.318	3.4545	0.	2212.8
15616	14.226	3.3636	0.	2235.9
15617	14.226	3.4545	5.e-002	8.2772
15618	14.502	3.4545	0.	2166.3
15619	14.41	3.3636	0.	2189.3
15620	14.41	3.4545	5.e-002	8.2386
15621	14.687	3.4545	0.	2120.
15622	14.594	3.3636	0.	2143.
15623	14.594	3.4545	5.e-002	8.2005
15624	14.871	3.4545	0.	2073.9
15625	14.779	3.3636	0.	2096.8
15626	14.779	3.4545	5.e-002	8.1628
15627	15.055	3.4545	0.	2027.9
15628	14.963	3.3636	0.	2050.7
15629	14.963	3.4545	5.e-002	8.1257
15630	15.24	3.4545	0.	1982.2
15631	15.148	3.3636	0.	2004.9
15632	15.148	3.4545	5.e-002	8.0891
15633	15.424	3.4545	0.	1936.6
15634	15.332	3.3636	0.	1959.2
15635	15.332	3.4545	5.e-002	8.053
15636	15.609	3.4545	0.	1891.2
15637	15.517	3.3636	0.	1913.7
15638	15.517	3.4545	5.e-002	8.0172
15639	15.793	3.4545	0.	1846.
15640	15.701	3.3636	0.	1868.4
15641	15.701	3.4545	5.e-002	7.9819
15642	15.978	3.4545	0.	1800.9
15643	15.885	3.3636	0.	1823.3
15644	15.885	3.4545	5.e-002	7.9471
15645	16.162	3.4545	0.	1756.1
15646	16.07	3.3636	0.	1778.4
15647	16.07	3.4545	5.e-002	7.9126
15648	16.346	3.4545	0.	1711.5
15649	16.254	3.3636	0.	1733.6
15650	16.254	3.4545	5.e-002	7.8785
15651	16.531	3.4545	0.	1667.1
15652	16.439	3.3636	0.	1689.1
15653	16.439	3.4545	5.e-002	7.845
15654	16.715	3.4545	0.	1622.9
15655	16.623	3.3636	0.	1644.8
15656	16.623	3.4545	5.e-002	7.8118
15657	16.9	3.4545	0.	1578.9
15658	16.807	3.3636	0.	1600.7
15659	16.807	3.4545	5.e-002	7.779
15660	17.084	3.4545	0.	1535.1
15661	16.992	3.3636	0.	1556.9
15662	16.992	3.4545	5.e-002	7.7468
15663	17.269	3.4545	0.	1491.6
15664	17.176	3.3636	0.	1513.2
15665	17.176	3.4545	5.e-002	7.715
15666	17.453	3.4545	0.	1448.3
15667	17.361	3.3636	0.	1469.8
15668	17.361	3.4545	5.e-002	7.6836
15669	17.637	3.4545	0.	1405.2
15670	17.545	3.3636	0.	1426.6
15671	17.545	3.4545	5.e-002	7.6528
15672	17.822	3.4545	0.	1362.4
15673	17.73	3.3636	0.	1383.6
15674	17.73	3.4545	5.e-002	7.6226
15675	18.006	3.4545	0.	1319.8
15676	17.914	3.3636	0.	1340.9
15677	17.914	3.4545	5.e-002	7.5928
15678	18.191	3.4545	0.	1277.4
15679	18.098	3.3636	0.	1298.5
15680	18.098	3.4545	5.e-002	7.5637
15681	18.375	3.4545	0.	1235.3
15682	18.283	3.3636	0.	1256.2
15683	18.283	3.4545	5.e-002	7.5352
15684	18.56	3.4545	0.	1193.5
15685	18.467	3.3636	0.	1214.3
15686	18.467	3.4545	5.e-002	7.5075
15687	18.744	3.4545	0.	1151.9
15688	18.652	3.3636	0.	1172.6
15689	18.652	3.4545	5.e-002	7.4804
15690	18.928	3.4545	0.	1110.6
15691	18.836	3.3636	0.	1131.2
15692	18.836	3.4545	5.e-002	7.4542
15693	19.113	3.4545	0.	1069.6
15694	19.021	3.3636	0.	1090.
15695	19.021	3.4545	5.e-002	7.4289
15696	19.297	3.4545	0.	1028.9
15697	19.205	3.3636	0.	1049.2
15698	19.205	3.4545	5.e-002	7.4045
15699	19.482	3.4545	0.	988.46
15700	19.389	3.3636	0.	1008.6
15701	19.389	3.4545	5.e-002	7.3812
15702	19.666	3.4545	0.	948.35
15703	19.574	3.3636	0.	968.39
15704	19.574	3.4545	5.e-002	7.3591
15705	19.85	3.4545	0.	908.57
15706	19.758	3.3636	0.	928.46
15707	19.758	3.4545	5.e-002	7.3382
15708	20.035	3.4545	0.	869.12
15709	19.943	3.3636	0.	888.87
15710	19.943	3.4545	5.e-002	7.3188
15711	20.219	3.4545	0.	830.01
15712	20.127	3.3636	0.	849.61
15713	20.127	3.4545	5.e-002	7.3009
15714	20.404	3.4545	0.	791.26
15715	20.312	3.3636	0.	810.71
15716	20.312	3.4545	5.e-002	7.2849
15717	20.588	3.4545	0.	752.9
15718	20.496	3.3636	0.	772.18
15719	20.496	3.4545	5.e-002	7.2708
15720	20.773	3.4545	0.	714.92
15721	20.68	3.3636	0.	734.04
15722	20.68	3.4545	5.e-002	7.2589
15723	20.957	3.4545	0.	677.36
15724	20.865	3.3636	0.	696.3
15725	20.865	3.4545	5.e-002	7.2495
15726	21.141	3.4545	0.	640.23
15727	21.049	3.3636	0.	658.98
15728	21.049	3.4545	5.e-002	7.2429
15729	21.326	3.4545	0.	603.56
15730	21.234	3.3636	0.	622.12
15731	21.234	3.4545	5.e-002	7.2395
15732	21.51	3.4545	0.	567.39
15733	21.418	3.3636	0.	585.73
15734	21.418	3.4545	5.e-002	7.2396
15735	21.695	3.4545	0.	531.73
15736	21.602	3.3636	0.	549.86
15737	21.602	3.4545	5.e-002	7.2438
15738	21.879	3.4545	0.	496.65
15739	21.787	3.3636	0.	514.53
15740	21.787	3.4545	5.e-002	7.2525
15741	22.064	3.4545	0.	462.19
15742	21.971	3.3636	0.	479.79
15743	21.971	3.4545	5.e-002	7.2662
15744	22.248	3.4545	0.	428.42
15745	22.156	3.3636	0.	445.71
15746	22.156	3.4545	5.e-002	7.2857
15747	22.432	3.4545	0.	395.43
15748	22.34	3.3636	0.	412.37
15749	22.34	3.4545	5.e-002	7.3114
15750	22.617	3.4545	0.	363.34
15751	22.525	3.3636	0.	379.86
15752	22.525	3.4545	5.e-002	7.3439
15753	22.801	3.4545	0.	332.32
15754	22.709	3.3636	0.	348.33
15755	22.709	3.4545	5.e-002	7.3838
15756	22.986	3.4545	0.	302.61
15757	22.893	3.3636	0.	317.97
15758	22.893	3.4545	5.e-002	7.4316
15759	23.17	3.4545	0.	274.53
15760	23.078	3.3636	0.	289.07
15761	23.078	3.4545	5.e-002	7.4874
15762	23.355	3.4545	0.	248.58
15763	23.262	3.3636	0.	262.03
15764	23.262	3.4545	5.e-002	7.5515
15765	23.539	3.4545	0.	225.42
15766	23.447	3.3636	0.	237.41
15767	23.447	3.4545	5.e-002	7.6235
15768	23.723	3.4545	0.	205.95
15769	23.631	3.3636	0.	216.02
15770	23.631	3.4545	5.e-002	7.7033
15771	23.816	3.3636	0.	198.86
15772	23.816	3.4545	5.e-002	7.8067
15773	23.908	3.4545	0.	192.05
15774	4.5433	3.2727	0.	10953
15775	4.4511	3.1818	0.	11408
15776	4.4511	3.2727	5.e-002	127.26
15777	4.7277	3.2727	0.	9746.3
15778	4.6355	3.1818	0.	10312
15779	4.6355	3.2727	5.e-002	156.72
15780	4.9121	3.2727	0.	8590.6
15781	4.8199	3.1818	0.	9136.8
15782	4.8199	3.2727	5.e-002	152.48
15783	5.0966	3.2727	0.	7616.2
15784	5.0044	3.1818	0.	8084.5
15785	5.0044	3.2727	5.e-002	133.68
15786	5.281	3.2727	0.	6839.3
15787	5.1888	3.1818	0.	7218.2
15788	5.1888	3.2727	5.e-002	112.38
15789	5.4654	3.2727	0.	6232.2
15790	5.3732	3.1818	0.	6530.9
15791	5.3732	3.2727	5.e-002	92.923
15792	5.6498	3.2727	0.	5759.7
15793	5.5576	3.1818	0.	5992.9
15794	5.5576	3.2727	5.e-002	76.496
15795	5.8343	3.2727	0.	5390.3
15796	5.7421	3.1818	0.	5572.5
15797	5.7421	3.2727	5.e-002	63.081
15798	6.0187	3.2727	0.	5099.1
15799	5.9265	3.1818	0.	5242.3
15800	5.9265	3.2727	5.e-002	52.292
15801	6.2031	3.2727	0.	4867.3
15802	6.1109	3.1818	0.	4980.8
15803	6.1109	3.2727	5.e-002	43.677
15804	6.3875	3.2727	0.	4680.2
15805	6.2953	3.1818	0.	4771.3
15806	6.2953	3.2727	5.e-002	36.818
15807	6.572	3.2727	0.	4527.2
15808	6.4798	3.1818	0.	4601.3
15809	6.4798	3.2727	5.e-002	31.362
15810	6.7564	3.2727	0.	4400.1
15811	6.6642	3.1818	0.	4461.3
15812	6.6642	3.2727	5.e-002	27.019
15813	6.9408	3.2727	0.	4292.6
15814	6.8486	3.1818	0.	4344.1
15815	6.8486	3.2727	5.e-002	23.56
15816	7.1252	3.2727	0.	4200.1
15817	7.033	3.1818	0.	4244.2
15818	7.033	3.2727	5.e-002	20.801
15819	7.3097	3.2727	0.	4118.8
15820	7.2174	3.1818	0.	4157.5
15821	7.2174	3.2727	5.e-002	18.596
15822	7.4941	3.2727	0.	4046.2
15823	7.4019	3.1818	0.	4080.8
15824	7.4019	3.2727	5.e-002	16.831
15825	7.6785	3.2727	0.	3980.
15826	7.5863	3.1818	0.	4011.5
15827	7.5863	3.2727	5.e-002	15.415
15828	7.8629	3.2727	0.	3918.8
15829	7.7707	3.1818	0.	3948.
15830	7.7707	3.2727	5.e-002	14.276
15831	8.0474	3.2727	0.	3861.1
15832	7.9551	3.1818	0.	3888.7
15833	7.9551	3.2727	5.e-002	13.358
15834	8.2318	3.2727	0.	3806.2
15835	8.1396	3.1818	0.	3832.5
15836	8.1396	3.2727	5.e-002	12.615
15837	8.4162	3.2727	0.	3753.3
15838	8.324	3.1818	0.	3778.7
15839	8.324	3.2727	5.e-002	12.011
15840	8.6006	3.2727	0.	3701.8
15841	8.5084	3.1818	0.	3726.6
15842	8.5084	3.2727	5.e-002	11.518
15843	8.785	3.2727	0.	3651.4
15844	8.6928	3.1818	0.	3675.8
15845	8.6928	3.2727	5.e-002	11.113
15846	8.9695	3.2727	0.	3601.7
15847	8.8773	3.1818	0.	3625.8
15848	8.8773	3.2727	5.e-002	10.779
15849	9.1539	3.2727	0.	3552.5
15850	9.0617	3.1818	0.	3576.5
15851	9.0617	3.2727	5.e-002	10.501
15852	9.3383	3.2727	0.	3503.7
15853	9.2461	3.1818	0.	3527.6
15854	9.2461	3.2727	5.e-002	10.268
15855	9.5227	3.2727	0.	3455.2
15856	9.4305	3.1818	0.	3478.9
15857	9.4305	3.2727	5.e-002	10.07
15858	9.7072	3.2727	0.	3406.8
15859	9.615	3.1818	0.	3430.5
15860	9.615	3.2727	5.e-002	9.9012
15861	9.8916	3.2727	0.	3358.4
15862	9.7994	3.1818	0.	3382.2
15863	9.7994	3.2727	5.e-002	9.7555
15864	10.076	3.2727	0.	3310.2
15865	9.9838	3.1818	0.	3333.9
15866	9.9838	3.2727	5.e-002	9.6285
15867	10.26	3.2727	0.	3261.9
15868	10.168	3.1818	0.	3285.7
15869	10.168	3.2727	5.e-002	9.5164
15870	10.445	3.2727	0.	3213.7
15871	10.353	3.1818	0.	3237.5
15872	10.353	3.2727	5.e-002	9.4164
15873	10.629	3.2727	0.	3165.5
15874	10.537	3.1818	0.	3189.3
15875	10.537	3.2727	5.e-002	9.3263
15876	10.814	3.2727	0.	3117.3
15877	10.721	3.1818	0.	3141.1
15878	10.721	3.2727	5.e-002	9.2446
15879	10.998	3.2727	0.	3069.1
15880	10.906	3.1818	0.	3092.9
15881	10.906	3.2727	5.e-002	9.1694
15882	11.183	3.2727	0.	3020.9
15883	11.09	3.1818	0.	3044.7
15884	11.09	3.2727	5.e-002	9.0996
15885	11.367	3.2727	0.	2972.7
15886	11.275	3.1818	0.	2996.5
15887	11.275	3.2727	5.e-002	9.0346
15888	11.551	3.2727	0.	2924.5
15889	11.459	3.1818	0.	2948.4
15890	11.459	3.2727	5.e-002	8.9734
15891	11.736	3.2727	0.	2876.4
15892	11.644	3.1818	0.	2900.3
15893	11.644	3.2727	5.e-002	8.9152
15894	11.92	3.2727	0.	2828.4
15895	11.828	3.1818	0.	2852.2
15896	11.828	3.2727	5.e-002	8.86
15897	12.105	3.2727	0.	2780.4
15898	12.012	3.1818	0.	2804.2
15899	12.012	3.2727	5.e-002	8.8072
15900	12.289	3.2727	0.	2732.5
15901	12.197	3.1818	0.	2756.3
15902	12.197	3.2727	5.e-002	8.7562
15903	12.474	3.2727	0.	2684.6
15904	12.381	3.1818	0.	2708.4
15905	12.381	3.2727	5.e-002	8.7069
15906	12.658	3.2727	0.	2636.9
15907	12.566	3.1818	0.	2660.6
15908	12.566	3.2727	5.e-002	8.6594
15909	12.842	3.2727	0.	2589.2
15910	12.75	3.1818	0.	2612.9
15911	12.75	3.2727	5.e-002	8.6132
15912	13.027	3.2727	0.	2541.7
15913	12.935	3.1818	0.	2565.3
15914	12.935	3.2727	5.e-002	8.568
15915	13.211	3.2727	0.	2494.3
15916	13.119	3.1818	0.	2517.8
15917	13.119	3.2727	5.e-002	8.5241
15918	13.396	3.2727	0.	2447.
15919	13.303	3.1818	0.	2470.5
15920	13.303	3.2727	5.e-002	8.4812
15921	13.58	3.2727	0.	2399.8
15922	13.488	3.1818	0.	2423.2
15923	13.488	3.2727	5.e-002	8.439
15924	13.764	3.2727	0.	2352.7
15925	13.672	3.1818	0.	2376.1
15926	13.672	3.2727	5.e-002	8.3976
15927	13.949	3.2727	0.	2305.8
15928	13.857	3.1818	0.	2329.1
15929	13.857	3.2727	5.e-002	8.357
15930	14.133	3.2727	0.	2259.1
15931	14.041	3.1818	0.	2282.3
15932	14.041	3.2727	5.e-002	8.3171
15933	14.318	3.2727	0.	2212.5
15934	14.226	3.1818	0.	2235.6
15935	14.226	3.2727	5.e-002	8.2778
15936	14.502	3.2727	0.	2166.
15937	14.41	3.1818	0.	2189.1
15938	14.41	3.2727	5.e-002	8.2391
15939	14.687	3.2727	0.	2119.7
15940	14.594	3.1818	0.	2142.8
15941	14.594	3.2727	5.e-002	8.201
15942	14.871	3.2727	0.	2073.6
15943	14.779	3.1818	0.	2096.6
15944	14.779	3.2727	5.e-002	8.1633
15945	15.055	3.2727	0.	2027.7
15946	14.963	3.1818	0.	2050.5
15947	14.963	3.2727	5.e-002	8.1261
15948	15.24	3.2727	0.	1981.9
15949	15.148	3.1818	0.	2004.7
15950	15.148	3.2727	5.e-002	8.0895
15951	15.424	3.2727	0.	1936.4
15952	15.332	3.1818	0.	1959.
15953	15.332	3.2727	5.e-002	8.0534
15954	15.609	3.2727	0.	1891.
15955	15.517	3.1818	0.	1913.5
15956	15.517	3.2727	5.e-002	8.0176
15957	15.793	3.2727	0.	1845.8
15958	15.701	3.1818	0.	1868.2
15959	15.701	3.2727	5.e-002	7.9823
15960	15.978	3.2727	0.	1800.7
15961	15.885	3.1818	0.	1823.1
15962	15.885	3.2727	5.e-002	7.9474
15963	16.162	3.2727	0.	1755.9
15964	16.07	3.1818	0.	1778.2
15965	16.07	3.2727	5.e-002	7.9129
15966	16.346	3.2727	0.	1711.3
15967	16.254	3.1818	0.	1733.5
15968	16.254	3.2727	5.e-002	7.8788
15969	16.531	3.2727	0.	1666.9
15970	16.439	3.1818	0.	1689.
15971	16.439	3.2727	5.e-002	7.8453
15972	16.715	3.2727	0.	1622.7
15973	16.623	3.1818	0.	1644.7
15974	16.623	3.2727	5.e-002	7.8121
15975	16.9	3.2727	0.	1578.8
15976	16.807	3.1818	0.	1600.6
15977	16.807	3.2727	5.e-002	7.7793
15978	17.084	3.2727	0.	1535.
15979	16.992	3.1818	0.	1556.8
15980	16.992	3.2727	5.e-002	7.7471
15981	17.269	3.2727	0.	1491.5
15982	17.176	3.1818	0.	1513.1
15983	17.176	3.2727	5.e-002	7.7153
15984	17.453	3.2727	0.	1448.2
15985	17.361	3.1818	0.	1469.7
15986	17.361	3.2727	5.e-002	7.6839
15987	17.637	3.2727	0.	1405.1
15988	17.545	3.1818	0.	1426.5
15989	17.545	3.2727	5.e-002	7.6531
15990	17.822	3.2727	0.	1362.3
15991	17.73	3.1818	0.	1383.6
15992	17.73	3.2727	5.e-002	7.6229
15993	18.006	3.2727	0.	1319.7
15994	17.914	3.1818	0.	1340.9
15995	17.914	3.2727	5.e-002	7.5932
15996	18.191	3.2727	0.	1277.4
15997	18.098	3.1818	0.	1298.4
15998	18.098	3.2727	5.e-002	7.564
15999	18.375	3.2727	0.	1235.3
16000	18.283	3.1818	0.	1256.2
16001	18.283	3.2727	5.e-002	7.5356
16002	18.56	3.2727	0.	1193.5
16003	18.467	3.1818	0.	1214.3
16004	18.467	3.2727	5.e-002	7.5079
16005	18.744	3.2727	0.	1151.9
16006	18.652	3.1818	0.	1172.6
16007	18.652	3.2727	5.e-002	7.4809
16008	18.928	3.2727	0.	1110.7
16009	18.836	3.1818	0.	1131.2
16010	18.836	3.2727	5.e-002	7.4547
16011	19.113	3.2727	0.	1069.7
16012	19.021	3.1818	0.	1090.1
16013	19.021	3.2727	5.e-002	7.4295
16014	19.297	3.2727	0.	1029.
16015	19.205	3.1818	0.	1049.3
16016	19.205	3.2727	5.e-002	7.4051
16017	19.482	3.2727	0.	988.62
16018	19.389	3.1818	0.	1008.7
16019	19.389	3.2727	5.e-002	7.3818
16020	19.666	3.2727	0.	948.56
16021	19.574	3.1818	0.	968.53
16022	19.574	3.2727	5.e-002	7.3598
16023	19.85	3.2727	0.	908.81
16024	19.758	3.1818	0.	928.63
16025	19.758	3.2727	5.e-002	7.339
16026	20.035	3.2727	0.	869.41
16027	19.943	3.1818	0.	889.07
16028	19.943	3.2727	5.e-002	7.3197
16029	20.219	3.2727	0.	830.36
16030	20.127	3.1818	0.	849.85
16031	20.127	3.2727	5.e-002	7.302
16032	20.404	3.2727	0.	791.67
16033	20.312	3.1818	0.	810.99
16034	20.312	3.2727	5.e-002	7.2861
16035	20.588	3.2727	0.	753.36
16036	20.496	3.1818	0.	772.51
16037	20.496	3.2727	5.e-002	7.2721
16038	20.773	3.2727	0.	715.45
16039	20.68	3.1818	0.	734.41
16040	20.68	3.2727	5.e-002	7.2604
16041	20.957	3.2727	0.	677.96
16042	20.865	3.1818	0.	696.72
16043	20.865	3.2727	5.e-002	7.2513
16044	21.141	3.2727	0.	640.9
16045	21.049	3.1818	0.	659.46
16046	21.049	3.2727	5.e-002	7.245
16047	21.326	3.2727	0.	604.31
16048	21.234	3.1818	0.	622.66
16049	21.234	3.2727	5.e-002	7.2419
16050	21.51	3.2727	0.	568.22
16051	21.418	3.1818	0.	586.33
16052	21.418	3.2727	5.e-002	7.2424
16053	21.695	3.2727	0.	532.65
16054	21.602	3.1818	0.	550.52
16055	21.602	3.2727	5.e-002	7.2471
16056	21.879	3.2727	0.	497.65
16057	21.787	3.1818	0.	515.25
16058	21.787	3.2727	5.e-002	7.2562
16059	22.064	3.2727	0.	463.28
16060	21.971	3.1818	0.	480.58
16061	21.971	3.2727	5.e-002	7.2705
16062	22.248	3.2727	0.	429.6
16063	22.156	3.1818	0.	446.57
16064	22.156	3.2727	5.e-002	7.2904
16065	22.432	3.2727	0.	396.7
16066	22.34	3.1818	0.	413.29
16067	22.34	3.2727	5.e-002	7.3166
16068	22.617	3.2727	0.	364.69
16069	22.525	3.1818	0.	380.84
16070	22.525	3.2727	5.e-002	7.3495
16071	22.801	3.2727	0.	333.76
16072	22.709	3.1818	0.	349.37
16073	22.709	3.2727	5.e-002	7.3896
16074	22.986	3.2727	0.	304.13
16075	22.893	3.1818	0.	319.08
16076	22.893	3.2727	5.e-002	7.4374
16077	23.17	3.2727	0.	276.13
16078	23.078	3.1818	0.	290.24
16079	23.078	3.2727	5.e-002	7.4929
16080	23.355	3.2727	0.	250.26
16081	23.262	3.1818	0.	263.26
16082	23.262	3.2727	5.e-002	7.5564
16083	23.539	3.2727	0.	227.17
16084	23.447	3.1818	0.	238.7
16085	23.447	3.2727	5.e-002	7.6272
16086	23.723	3.2727	0.	207.76
16087	23.631	3.1818	0.	217.36
16088	23.631	3.2727	5.e-002	7.7053
16089	23.816	3.1818	0.	200.22
16090	23.816	3.2727	5.e-002	7.8008
16091	23.908	3.2727	0.	193.92
16092	4.5433	3.0909	0.	10777
16093	4.4511	3.	0.	11276
16094	4.4511	3.0909	5.e-002	101.63
16095	4.7277	3.0909	0.	9717.1
16096	4.6355	3.	0.	10268
16097	4.6355	3.0909	5.e-002	133.33
16098	4.9121	3.0909	0.	8643.5
16099	4.8199	3.	0.	9152.1
16100	4.8199	3.0909	5.e-002	139.6
16101	5.0966	3.0909	0.	7695.
16102	5.0044	3.	0.	8122.6
16103	5.0044	3.0909	5.e-002	129.32
16104	5.281	3.0909	0.	6914.8
16105	5.1888	3.	0.	7258.6
16106	5.1888	3.0909	5.e-002	112.25
16107	5.4654	3.0909	0.	6294.4
16108	5.3732	3.	0.	6565.5
16109	5.3732	3.0909	5.e-002	94.323
16110	5.6498	3.0909	0.	5807.3
16111	5.5576	3.	0.	6020.1
16112	5.5576	3.0909	5.e-002	78.161
16113	5.8343	3.0909	0.	5425.4
16114	5.7421	3.	0.	5592.8
16115	5.7421	3.0909	5.e-002	64.554
16116	6.0187	3.0909	0.	5124.3
16117	5.9265	3.	0.	5257.
16118	5.9265	3.0909	5.e-002	53.468
16119	6.2031	3.0909	0.	4885.
16120	6.1109	3.	0.	4991.2
16121	6.1109	3.0909	5.e-002	44.578
16122	6.3875	3.0909	0.	4692.4
16123	6.2953	3.	0.	4778.5
16124	6.2953	3.0909	5.e-002	37.499
16125	6.572	3.0909	0.	4535.4
16126	6.4798	3.	0.	4606.2
16127	6.4798	3.0909	5.e-002	31.876
16128	6.7564	3.0909	0.	4405.3
16129	6.6642	3.	0.	4464.5
16130	6.6642	3.0909	5.e-002	27.41
16131	6.9408	3.0909	0.	4295.7
16132	6.8486	3.	0.	4346.1
16133	6.8486	3.0909	5.e-002	23.86
16134	7.1252	3.0909	0.	4201.7
16135	7.033	3.	0.	4245.4
16136	7.033	3.0909	5.e-002	21.034
16137	7.3097	3.0909	0.	4119.4
16138	7.2174	3.	0.	4158.
16139	7.2174	3.0909	5.e-002	18.78
16140	7.4941	3.0909	0.	4046.1
16141	7.4019	3.	0.	4080.9
16142	7.4019	3.0909	5.e-002	16.977
16143	7.6785	3.0909	0.	3979.5
16144	7.5863	3.	0.	4011.4
16145	7.5863	3.0909	5.e-002	15.533
16146	7.8629	3.0909	0.	3917.9
16147	7.7707	3.	0.	3947.6
16148	7.7707	3.0909	5.e-002	14.372
16149	8.0474	3.0909	0.	3860.1
16150	7.9551	3.	0.	3888.2
16151	7.9551	3.0909	5.e-002	13.435
16152	8.2318	3.0909	0.	3805.1
16153	8.1396	3.	0.	3832.
16154	8.1396	3.0909	5.e-002	12.678
16155	8.4162	3.0909	0.	3752.1
16156	8.324	3.	0.	3778.1
16157	8.324	3.0909	5.e-002	12.062
16158	8.6006	3.0909	0.	3700.6
16159	8.5084	3.	0.	3726.
16160	8.5084	3.0909	5.e-002	11.56
16161	8.785	3.0909	0.	3650.2
16162	8.6928	3.	0.	3675.2
16163	8.6928	3.0909	5.e-002	11.147
16164	8.9695	3.0909	0.	3600.6
16165	8.8773	3.	0.	3625.3
16166	8.8773	3.0909	5.e-002	10.807
16167	9.1539	3.0909	0.	3551.5
16168	9.0617	3.	0.	3575.9
16169	9.0617	3.0909	5.e-002	10.523
16170	9.3383	3.0909	0.	3502.8
16171	9.2461	3.	0.	3527.1
16172	9.2461	3.0909	5.e-002	10.286
16173	9.5227	3.0909	0.	3454.3
16174	9.4305	3.	0.	3478.5
16175	9.4305	3.0909	5.e-002	10.085
16176	9.7072	3.0909	0.	3405.9
16177	9.615	3.	0.	3430.1
16178	9.615	3.0909	5.e-002	9.9131
16179	9.8916	3.0909	0.	3357.7
16180	9.7994	3.	0.	3381.8
16181	9.7994	3.0909	5.e-002	9.7651
16182	10.076	3.0909	0.	3309.5
16183	9.9838	3.	0.	3333.6
16184	9.9838	3.0909	5.e-002	9.6362
16185	10.26	3.0909	0.	3261.3
16186	10.168	3.	0.	3285.4
16187	10.168	3.0909	5.e-002	9.5227
16188	10.445	3.0909	0.	3213.1
16189	10.353	3.	0.	3237.2
16190	10.353	3.0909	5.e-002	9.4214
16191	10.629	3.0909	0.	3164.9
16192	10.537	3.	0.	3189.
16193	10.537	3.0909	5.e-002	9.3304
16194	10.814	3.0909	0.	3116.7
16195	10.721	3.	0.	3140.8
16196	10.721	3.0909	5.e-002	9.2479
16197	10.998	3.0909	0.	3068.6
16198	10.906	3.	0.	3092.7
16199	10.906	3.0909	5.e-002	9.1722
16200	11.183	3.0909	0.	3020.4
16201	11.09	3.	0.	3044.5
16202	11.09	3.0909	5.e-002	9.1019
16203	11.367	3.0909	0.	2972.3
16204	11.275	3.	0.	2996.3
16205	11.275	3.0909	5.e-002	9.0364
16206	11.551	3.0909	0.	2924.2
16207	11.459	3.	0.	2948.2
16208	11.459	3.0909	5.e-002	8.9749
16209	11.736	3.0909	0.	2876.1
16210	11.644	3.	0.	2900.1
16211	11.644	3.0909	5.e-002	8.9165
16212	11.92	3.0909	0.	2828.1
16213	11.828	3.	0.	2852.1
16214	11.828	3.0909	5.e-002	8.8611
16215	12.105	3.0909	0.	2780.1
16216	12.012	3.	0.	2804.1
16217	12.012	3.0909	5.e-002	8.8081
16218	12.289	3.0909	0.	2732.2
16219	12.197	3.	0.	2756.1
16220	12.197	3.0909	5.e-002	8.757
16221	12.474	3.0909	0.	2684.4
16222	12.381	3.	0.	2708.3
16223	12.381	3.0909	5.e-002	8.7077
16224	12.658	3.0909	0.	2636.6
16225	12.566	3.	0.	2660.5
16226	12.566	3.0909	5.e-002	8.66
16227	12.842	3.0909	0.	2589.
16228	12.75	3.	0.	2612.8
16229	12.75	3.0909	5.e-002	8.6137
16230	13.027	3.0909	0.	2541.5
16231	12.935	3.	0.	2565.2
16232	12.935	3.0909	5.e-002	8.5685
16233	13.211	3.0909	0.	2494.1
16234	13.119	3.	0.	2517.7
16235	13.119	3.0909	5.e-002	8.5245
16236	13.396	3.0909	0.	2446.8
16237	13.303	3.	0.	2470.4
16238	13.303	3.0909	5.e-002	8.4816
16239	13.58	3.0909	0.	2399.6
16240	13.488	3.	0.	2423.1
16241	13.488	3.0909	5.e-002	8.4394
16242	13.764	3.0909	0.	2352.6
16243	13.672	3.	0.	2376.
16244	13.672	3.0909	5.e-002	8.3979
16245	13.949	3.0909	0.	2305.7
16246	13.857	3.	0.	2329.1
16247	13.857	3.0909	5.e-002	8.3573
16248	14.133	3.0909	0.	2258.9
16249	14.041	3.	0.	2282.2
16250	14.041	3.0909	5.e-002	8.3174
16251	14.318	3.0909	0.	2212.3
16252	14.226	3.	0.	2235.6
16253	14.226	3.0909	5.e-002	8.278
16254	14.502	3.0909	0.	2165.9
16255	14.41	3.	0.	2189.
16256	14.41	3.0909	5.e-002	8.2394
16257	14.687	3.0909	0.	2119.6
16258	14.594	3.	0.	2142.7
16259	14.594	3.0909	5.e-002	8.2012
16260	14.871	3.0909	0.	2073.5
16261	14.779	3.	0.	2096.5
16262	14.779	3.0909	5.e-002	8.1635
16263	15.055	3.0909	0.	2027.6
16264	14.963	3.	0.	2050.5
16265	14.963	3.0909	5.e-002	8.1263
16266	15.24	3.0909	0.	1981.8
16267	15.148	3.	0.	2004.6
16268	15.148	3.0909	5.e-002	8.0897
16269	15.424	3.0909	0.	1936.2
16270	15.332	3.	0.	1959.
16271	15.332	3.0909	5.e-002	8.0536
16272	15.609	3.0909	0.	1890.8
16273	15.517	3.	0.	1913.5
16274	15.517	3.0909	5.e-002	8.0177
16275	15.793	3.0909	0.	1845.6
16276	15.701	3.	0.	1868.2
16277	15.701	3.0909	5.e-002	7.9824
16278	15.978	3.0909	0.	1800.6
16279	15.885	3.	0.	1823.1
16280	15.885	3.0909	5.e-002	7.9476
16281	16.162	3.0909	0.	1755.8
16282	16.07	3.	0.	1778.2
16283	16.07	3.0909	5.e-002	7.9131
16284	16.346	3.0909	0.	1711.2
16285	16.254	3.	0.	1733.5
16286	16.254	3.0909	5.e-002	7.879
16287	16.531	3.0909	0.	1666.8
16288	16.439	3.	0.	1689.
16289	16.439	3.0909	5.e-002	7.8454
16290	16.715	3.0909	0.	1622.7
16291	16.623	3.	0.	1644.7
16292	16.623	3.0909	5.e-002	7.8123
16293	16.9	3.0909	0.	1578.7
16294	16.807	3.	0.	1600.6
16295	16.807	3.0909	5.e-002	7.7795
16296	17.084	3.0909	0.	1534.9
16297	16.992	3.	0.	1556.7
16298	16.992	3.0909	5.e-002	7.7472
16299	17.269	3.0909	0.	1491.4
16300	17.176	3.	0.	1513.1
16301	17.176	3.0909	5.e-002	7.7155
16302	17.453	3.0909	0.	1448.1
16303	17.361	3.	0.	1469.7
16304	17.361	3.0909	5.e-002	7.6841
16305	17.637	3.0909	0.	1405.1
16306	17.545	3.	0.	1426.5
16307	17.545	3.0909	5.e-002	7.6533
16308	17.822	3.0909	0.	1362.2
16309	17.73	3.	0.	1383.6
16310	17.73	3.0909	5.e-002	7.6231
16311	18.006	3.0909	0.	1319.7
16312	17.914	3.	0.	1340.9
16313	17.914	3.0909	5.e-002	7.5934
16314	18.191	3.0909	0.	1277.3
16315	18.098	3.	0.	1298.4
16316	18.098	3.0909	5.e-002	7.5642
16317	18.375	3.0909	0.	1235.3
16318	18.283	3.	0.	1256.2
16319	18.283	3.0909	5.e-002	7.5358
16320	18.56	3.0909	0.	1193.5
16321	18.467	3.	0.	1214.3
16322	18.467	3.0909	5.e-002	7.5081
16323	18.744	3.0909	0.	1151.9
16324	18.652	3.	0.	1172.6
16325	18.652	3.0909	5.e-002	7.4811
16326	18.928	3.0909	0.	1110.7
16327	18.836	3.	0.	1131.2
16328	18.836	3.0909	5.e-002	7.4549
16329	19.113	3.0909	0.	1069.7
16330	19.021	3.	0.	1090.1
16331	19.021	3.0909	5.e-002	7.4297
16332	19.297	3.0909	0.	1029.1
16333	19.205	3.	0.	1049.3
16334	19.205	3.0909	5.e-002	7.4054
16335	19.482	3.0909	0.	988.7
16336	19.389	3.	0.	1008.8
16337	19.389	3.0909	5.e-002	7.3822
16338	19.666	3.0909	0.	948.66
16339	19.574	3.	0.	968.58
16340	19.574	3.0909	5.e-002	7.3602
16341	19.85	3.0909	0.	908.94
16342	19.758	3.	0.	928.69
16343	19.758	3.0909	5.e-002	7.3394
16344	20.035	3.0909	0.	869.56
16345	19.943	3.	0.	889.14
16346	19.943	3.0909	5.e-002	7.3201
16347	20.219	3.0909	0.	830.53
16348	20.127	3.	0.	849.93
16349	20.127	3.0909	5.e-002	7.3025
16350	20.404	3.0909	0.	791.87
16351	20.312	3.	0.	811.09
16352	20.312	3.0909	5.e-002	7.2867
16353	20.588	3.0909	0.	753.59
16354	20.496	3.	0.	772.62
16355	20.496	3.0909	5.e-002	7.2728
16356	20.773	3.0909	0.	715.72
16357	20.68	3.	0.	734.53
16358	20.68	3.0909	5.e-002	7.2612
16359	20.957	3.0909	0.	678.26
16360	20.865	3.	0.	696.86
16361	20.865	3.0909	5.e-002	7.2522
16362	21.141	3.0909	0.	641.24
16363	21.049	3.	0.	659.62
16364	21.049	3.0909	5.e-002	7.2461
16365	21.326	3.0909	0.	604.69
16366	21.234	3.	0.	622.84
16367	21.234	3.0909	5.e-002	7.2431
16368	21.51	3.0909	0.	568.64
16369	21.418	3.	0.	586.53
16370	21.418	3.0909	5.e-002	7.2439
16371	21.695	3.0909	0.	533.11
16372	21.602	3.	0.	550.74
16373	21.602	3.0909	5.e-002	7.2487
16374	21.879	3.0909	0.	498.16
16375	21.787	3.	0.	515.49
16376	21.787	3.0909	5.e-002	7.2581
16377	22.064	3.0909	0.	463.83
16378	21.971	3.	0.	480.85
16379	21.971	3.0909	5.e-002	7.2726
16380	22.248	3.0909	0.	430.19
16381	22.156	3.	0.	446.85
16382	22.156	3.0909	5.e-002	7.2928
16383	22.432	3.0909	0.	397.33
16384	22.34	3.	0.	413.59
16385	22.34	3.0909	5.e-002	7.3192
16386	22.617	3.0909	0.	365.37
16387	22.525	3.	0.	381.17
16388	22.525	3.0909	5.e-002	7.3522
16389	22.801	3.0909	0.	334.48
16390	22.709	3.	0.	349.72
16391	22.709	3.0909	5.e-002	7.3925
16392	22.986	3.0909	0.	304.89
16393	22.893	3.	0.	319.45
16394	22.893	3.0909	5.e-002	7.4403
16395	23.17	3.0909	0.	276.93
16396	23.078	3.	0.	290.63
16397	23.078	3.0909	5.e-002	7.4957
16398	23.355	3.0909	0.	251.09
16399	23.262	3.	0.	263.67
16400	23.262	3.0909	5.e-002	7.5588
16401	23.539	3.0909	0.	228.05
16402	23.447	3.	0.	239.13
16403	23.447	3.0909	5.e-002	7.6291
16404	23.723	3.0909	0.	208.67
16405	23.631	3.	0.	217.8
16406	23.631	3.0909	5.e-002	7.7062
16407	23.816	3.	0.	200.68
16408	23.816	3.0909	5.e-002	7.7979
16409	23.908	3.0909	0.	194.85
16410	4.5433	2.9091	0.	10777
16411	4.4511	2.8182	0.	11408
16412	4.4511	2.9091	5.e-002	101.63
16413	4.7277	2.9091	0.	9717.1
16414	4.6355	2.8182	0.	10312
16415	4.6355	2.9091	5.e-002	133.33
16416	4.9121	2.9091	0.	8643.5
16417	4.8199	2.8182	0.	9136.8
16418	4.8199	2.9091	5.e-002	139.6
16419	5.0966	2.9091	0.	7695.
16420	5.0044	2.8182	0.	8084.5
16421	5.0044	2.9091	5.e-002	129.32
16422	5.281	2.9091	0.	6914.8
16423	5.1888	2.8182	0.	7218.2
16424	5.1888	2.9091	5.e-002	112.25
16425	5.4654	2.9091	0.	6294.4
16426	5.3732	2.8182	0.	6530.9
16427	5.3732	2.9091	5.e-002	94.323
16428	5.6498	2.9091	0.	5807.3
16429	5.5576	2.8182	0.	5992.9
16430	5.5576	2.9091	5.e-002	78.161
16431	5.8343	2.9091	0.	5425.4
16432	5.7421	2.8182	0.	5572.5
16433	5.7421	2.9091	5.e-002	64.554
16434	6.0187	2.9091	0.	5124.3
16435	5.9265	2.8182	0.	5242.3
16436	5.9265	2.9091	5.e-002	53.468
16437	6.2031	2.9091	0.	4885.
16438	6.1109	2.8182	0.	4980.8
16439	6.1109	2.9091	5.e-002	44.578
16440	6.3875	2.9091	0.	4692.4
16441	6.2953	2.8182	0.	4771.3
16442	6.2953	2.9091	5.e-002	37.499
16443	6.572	2.9091	0.	4535.4
16444	6.4798	2.8182	0.	4601.3
16445	6.4798	2.9091	5.e-002	31.876
16446	6.7564	2.9091	0.	4405.3
16447	6.6642	2.8182	0.	4461.3
16448	6.6642	2.9091	5.e-002	27.41
16449	6.9408	2.9091	0.	4295.7
16450	6.8486	2.8182	0.	4344.1
16451	6.8486	2.9091	5.e-002	23.86
16452	7.1252	2.9091	0.	4201.7
16453	7.033	2.8182	0.	4244.2
16454	7.033	2.9091	5.e-002	21.034
16455	7.3097	2.9091	0.	4119.4
16456	7.2174	2.8182	0.	4157.5
16457	7.2174	2.9091	5.e-002	18.78
16458	7.4941	2.9091	0.	4046.1
16459	7.4019	2.8182	0.	4080.8
16460	7.4019	2.9091	5.e-002	16.977
16461	7.6785	2.9091	0.	3979.5
16462	7.5863	2.8182	0.	4011.5
16463	7.5863	2.9091	5.e-002	15.533
16464	7.8629	2.9091	0.	3917.9
16465	7.7707	2.8182	0.	3948.
16466	7.7707	2.9091	5.e-002	14.372
16467	8.0474	2.9091	0.	3860.1
16468	7.9551	2.8182	0.	3888.7
16469	7.9551	2.9091	5.e-002	13.435
16470	8.2318	2.9091	0.	3805.1
16471	8.1396	2.8182	0.	3832.5
16472	8.1396	2.9091	5.e-002	12.678
16473	8.4162	2.9091	0.	3752.1
16474	8.324	2.8182	0.	3778.7
16475	8.324	2.9091	5.e-002	12.062
16476	8.6006	2.9091	0.	3700.6
16477	8.5084	2.8182	0.	3726.6
16478	8.5084	2.9091	5.e-002	11.56
16479	8.785	2.9091	0.	3650.2
16480	8.6928	2.8182	0.	3675.8
16481	8.6928	2.9091	5.e-002	11.147
16482	8.9695	2.9091	0.	3600.6
16483	8.8773	2.8182	0.	3625.8
16484	8.8773	2.9091	5.e-002	10.807
16485	9.1539	2.9091	0.	3551.5
16486	9.0617	2.8182	0.	3576.5
16487	9.0617	2.9091	5.e-002	10.523
16488	9.3383	2.9091	0.	3502.8
16489	9.2461	2.8182	0.	3527.6
16490	9.2461	2.9091	5.e-002	10.286
16491	9.5227	2.9091	0.	3454.3
16492	9.4305	2.8182	0.	3478.9
16493	9.4305	2.9091	5.e-002	10.085
16494	9.7072	2.9091	0.	3405.9
16495	9.615	2.8182	0.	3430.5
16496	9.615	2.9091	5.e-002	9.9131
16497	9.8916	2.9091	0.	3357.7
16498	9.7994	2.8182	0.	3382.2
16499	9.7994	2.9091	5.e-002	9.7651
16500	10.076	2.9091	0.	3309.5
16501	9.9838	2.8182	0.	3333.9
16502	9.9838	2.9091	5.e-002	9.6362
16503	10.26	2.9091	0.	3261.3
16504	10.168	2.8182	0.	3285.7
16505	10.168	2.9091	5.e-002	9.5227
16506	10.445	2.9091	0.	3213.1
16507	10.353	2.8182	0.	3237.5
16508	10.353	2.9091	5.e-002	9.4214
16509	10.629	2.9091	0.	3164.9
16510	10.537	2.8182	0.	3189.3
16511	10.537	2.9091	5.e-002	9.3304
16512	10.814	2.9091	0.	3116.7
16513	10.721	2.8182	0.	3141.1
16514	10.721	2.9091	5.e-002	9.2479
16515	10.998	2.9091	0.	3068.6
16516	10.906	2.8182	0.	3092.9
16517	10.906	2.9091	5.e-002	9.1722
16518	11.183	2.9091	0.	3020.4
16519	11.09	2.8182	0.	3044.7
16520	11.09	2.9091	5.e-002	9.1019
16521	11.367	2.9091	0.	2972.3
16522	11.275	2.8182	0.	2996.5
16523	11.275	2.9091	5.e-002	9.0364
16524	11.551	2.9091	0.	2924.2
16525	11.459	2.8182	0.	2948.4
16526	11.459	2.9091	5.e-002	8.9749
16527	11.736	2.9091	0.	2876.1
16528	11.644	2.8182	0.	2900.3
16529	11.644	2.9091	5.e-002	8.9165
16530	11.92	2.9091	0.	2828.1
16531	11.828	2.8182	0.	2852.2
16532	11.828	2.9091	5.e-002	8.8611
16533	12.105	2.9091	0.	2780.1
16534	12.012	2.8182	0.	2804.2
16535	12.012	2.9091	5.e-002	8.8081
16536	12.289	2.9091	0.	2732.2
16537	12.197	2.8182	0.	2756.3
16538	12.197	2.9091	5.e-002	8.757
16539	12.474	2.9091	0.	2684.4
16540	12.381	2.8182	0.	2708.4
16541	12.381	2.9091	5.e-002	8.7077
16542	12.658	2.9091	0.	2636.6
16543	12.566	2.8182	0.	2660.6
16544	12.566	2.9091	5.e-002	8.66
16545	12.842	2.9091	0.	2589.
16546	12.75	2.8182	0.	2612.9
16547	12.75	2.9091	5.e-002	8.6137
16548	13.027	2.9091	0.	2541.5
16549	12.935	2.8182	0.	2565.3
16550	12.935	2.9091	5.e-002	8.5685
16551	13.211	2.9091	0.	2494.1
16552	13.119	2.8182	0.	2517.8
16553	13.119	2.9091	5.e-002	8.5245
16554	13.396	2.9091	0.	2446.8
16555	13.303	2.8182	0.	2470.5
16556	13.303	2.9091	5.e-002	8.4816
16557	13.58	2.9091	0.	2399.6
16558	13.488	2.8182	0.	2423.2
16559	13.488	2.9091	5.e-002	8.4394
16560	13.764	2.9091	0.	2352.6
16561	13.672	2.8182	0.	2376.1
16562	13.672	2.9091	5.e-002	8.3979
16563	13.949	2.9091	0.	2305.7
16564	13.857	2.8182	0.	2329.1
16565	13.857	2.9091	5.e-002	8.3573
16566	14.133	2.9091	0.	2258.9
16567	14.041	2.8182	0.	2282.3
16568	14.041	2.9091	5.e-002	8.3174
16569	14.318	2.9091	0.	2212.3
16570	14.226	2.8182	0.	2235.6
16571	14.226	2.9091	5.e-002	8.278
16572	14.502	2.9091	0.	2165.9
16573	14.41	2.8182	0.	2189.1
16574	14.41	2.9091	5.e-002	8.2394
16575	14.687	2.9091	0.	2119.6
16576	14.594	2.8182	0.	2142.8
16577	14.594	2.9091	5.e-002	8.2012
16578	14.871	2.9091	0.	2073.5
16579	14.779	2.8182	0.	2096.6
16580	14.779	2.9091	5.e-002	8.1635
16581	15.055	2.9091	0.	2027.6
16582	14.963	2.8182	0.	2050.5
16583	14.963	2.9091	5.e-002	8.1263
16584	15.24	2.9091	0.	1981.8
16585	15.148	2.8182	0.	2004.7
16586	15.148	2.9091	5.e-002	8.0897
16587	15.424	2.9091	0.	1936.2
16588	15.332	2.8182	0.	1959.
16589	15.332	2.9091	5.e-002	8.0536
16590	15.609	2.9091	0.	1890.8
16591	15.517	2.8182	0.	1913.5
16592	15.517	2.9091	5.e-002	8.0177
16593	15.793	2.9091	0.	1845.6
16594	15.701	2.8182	0.	1868.2
16595	15.701	2.9091	5.e-002	7.9824
16596	15.978	2.9091	0.	1800.6
16597	15.885	2.8182	0.	1823.1
16598	15.885	2.9091	5.e-002	7.9476
16599	16.162	2.9091	0.	1755.8
16600	16.07	2.8182	0.	1778.2
16601	16.07	2.9091	5.e-002	7.9131
16602	16.346	2.9091	0.	1711.2
16603	16.254	2.8182	0.	1733.5
16604	16.254	2.9091	5.e-002	7.879
16605	16.531	2.9091	0.	1666.8
16606	16.439	2.8182	0.	1689.
16607	16.439	2.9091	5.e-002	7.8454
16608	16.715	2.9091	0.	1622.7
16609	16.623	2.8182	0.	1644.7
16610	16.623	2.9091	5.e-002	7.8123
16611	16.9	2.9091	0.	1578.7
16612	16.807	2.8182	0.	1600.6
16613	16.807	2.9091	5.e-002	7.7795
16614	17.084	2.9091	0.	1534.9
16615	16.992	2.8182	0.	1556.8
16616	16.992	2.9091	5.e-002	7.7472
16617	17.269	2.9091	0.	1491.4
16618	17.176	2.8182	0.	1513.1
16619	17.176	2.9091	5.e-002	7.7155
16620	17.453	2.9091	0.	1448.1
16621	17.361	2.8182	0.	1469.7
16622	17.361	2.9091	5.e-002	7.6841
16623	17.637	2.9091	0.	1405.1
16624	17.545	2.8182	0.	1426.5
16625	17.545	2.9091	5.e-002	7.6533
16626	17.822	2.9091	0.	1362.2
16627	17.73	2.8182	0.	1383.6
16628	17.73	2.9091	5.e-002	7.6231
16629	18.006	2.9091	0.	1319.7
16630	17.914	2.8182	0.	1340.9
16631	17.914	2.9091	5.e-002	7.5934
16632	18.191	2.9091	0.	1277.3
16633	18.098	2.8182	0.	1298.4
16634	18.098	2.9091	5.e-002	7.5642
16635	18.375	2.9091	0.	1235.3
16636	18.283	2.8182	0.	1256.2
16637	18.283	2.9091	5.e-002	7.5358
16638	18.56	2.9091	0.	1193.5
16639	18.467	2.8182	0.	1214.3
16640	18.467	2.9091	5.e-002	7.5081
16641	18.744	2.9091	0.	1151.9
16642	18.652	2.8182	0.	1172.6
16643	18.652	2.9091	5.e-002	7.4811
16644	18.928	2.9091	0.	1110.7
16645	18.836	2.8182	0.	1131.2
16646	18.836	2.9091	5.e-002	7.4549
16647	19.113	2.9091	0.	1069.7
16648	19.021	2.8182	0.	1090.1
16649	19.021	2.9091	5.e-002	7.4297
16650	19.297	2.9091	0.	1029.1
16651	19.205	2.8182	0.	1049.3
16652	19.205	2.9091	5.e-002	7.4054
16653	19.482	2.9091	0.	988.7
16654	19.389	2.8182	0.	1008.7
16655	19.389	2.9091	5.e-002	7.3822
16656	19.666	2.9091	0.	948.66
16657	19.574	2.8182	0.	968.53
16658	19.574	2.9091	5.e-002	7.3602
16659	19.85	2.9091	0.	908.94
16660	19.758	2.8182	0.	928.63
16661	19.758	2.9091	5.e-002	7.3395
16662	20.035	2.9091	0.	869.56
16663	19.943	2.8182	0.	889.07
16664	19.943	2.9091	5.e-002	7.3201
16665	20.219	2.9091	0.	830.53
16666	20.127	2.8182	0.	849.85
16667	20.127	2.9091	5.e-002	7.3025
16668	20.404	2.9091	0.	791.87
16669	20.312	2.8182	0.	810.99
16670	20.312	2.9091	5.e-002	7.2867
16671	20.588	2.9091	0.	753.59
16672	20.496	2.8182	0.	772.51
16673	20.496	2.9091	5.e-002	7.2728
16674	20.773	2.9091	0.	715.72
16675	20.68	2.8182	0.	734.41
16676	20.68	2.9091	5.e-002	7.2612
16677	20.957	2.9091	0.	678.26
16678	20.865	2.8182	0.	696.72
16679	20.865	2.9091	5.e-002	7.2522
16680	21.141	2.9091	0.	641.24
16681	21.049	2.8182	0.	659.46
16682	21.049	2.9091	5.e-002	7.2461
16683	21.326	2.9091	0.	604.69
16684	21.234	2.8182	0.	622.66
16685	21.234	2.9091	5.e-002	7.2431
16686	21.51	2.9091	0.	568.64
16687	21.418	2.8182	0.	586.33
16688	21.418	2.9091	5.e-002	7.2439
16689	21.695	2.9091	0.	533.11
16690	21.602	2.8182	0.	550.52
16691	21.602	2.9091	5.e-002	7.2487
16692	21.879	2.9091	0.	498.16
16693	21.787	2.8182	0.	515.25
16694	21.787	2.9091	5.e-002	7.2581
16695	22.064	2.9091	0.	463.83
16696	21.971	2.8182	0.	480.58
16697	21.971	2.9091	5.e-002	7.2726
16698	22.248	2.9091	0.	430.19
16699	22.156	2.8182	0.	446.57
16700	22.156	2.9091	5.e-002	7.2928
16701	22.432	2.9091	0.	397.33
16702	22.34	2.8182	0.	413.29
16703	22.34	2.9091	5.e-002	7.3192
16704	22.617	2.9091	0.	365.37
16705	22.525	2.8182	0.	380.84
16706	22.525	2.9091	5.e-002	7.3522
16707	22.801	2.9091	0.	334.48
16708	22.709	2.8182	0.	349.37
16709	22.709	2.9091	5.e-002	7.3925
16710	22.986	2.9091	0.	304.89
16711	22.893	2.8182	0.	319.08
16712	22.893	2.9091	5.e-002	7.4403
16713	23.17	2.9091	0.	276.93
16714	23.078	2.8182	0.	290.24
16715	23.078	2.9091	5.e-002	7.4957
16716	23.355	2.9091	0.	251.09
16717	23.262	2.8182	0.	263.26
16718	23.262	2.9091	5.e-002	7.5588
16719	23.539	2.9091	0.	228.05
16720	23.447	2.8182	0.	238.7
16721	23.447	2.9091	5.e-002	7.6291
16722	23.723	2.9091	0.	208.67
16723	23.631	2.8182	0.	217.36
16724	23.631	2.9091	5.e-002	7.7062
16725	23.816	2.8182	0.	200.22
16726	23.816	2.9091	5.e-002	7.7979
16727	23.908	2.9091	0.	194.85
16728	4.5433	2.7273	0.	10953
16729	4.4511	2.6364	0.	11816
16730	4.4511	2.7273	5.e-002	127.26
16731	4.7277	2.7273	0.	9746.3
16732	4.6355	2.6364	0.	10420
16733	4.6355	2.7273	5.e-002	156.72
16734	4.9121	2.7273	0.	8590.6
16735	4.8199	2.6364	0.	9070.5
16736	4.8199	2.7273	5.e-002	152.48
16737	5.0966	2.7273	0.	7616.2
16738	5.0044	2.6364	0.	7961.8
16739	5.0044	2.7273	5.e-002	133.68
16740	5.281	2.7273	0.	6839.3
16741	5.1888	2.6364	0.	7095.8
16742	5.1888	2.7273	5.e-002	112.38
16743	5.4654	2.7273	0.	6232.2
16744	5.3732	2.6364	0.	6428.4
16745	5.3732	2.7273	5.e-002	92.923
16746	5.6498	2.7273	0.	5759.7
16747	5.5576	2.6364	0.	5913.5
16748	5.5576	2.7273	5.e-002	76.496
16749	5.8343	2.7273	0.	5390.3
16750	5.7421	2.6364	0.	5513.4
16751	5.7421	2.7273	5.e-002	63.081
16752	6.0187	2.7273	0.	5099.1
16753	5.9265	2.6364	0.	5199.4
16754	5.9265	2.7273	5.e-002	52.292
16755	6.2031	2.7273	0.	4867.3
16756	6.1109	2.6364	0.	4950.3
16757	6.1109	2.7273	5.e-002	43.677
16758	6.3875	2.7273	0.	4680.2
16759	6.2953	2.6364	0.	4750.
16760	6.2953	2.7273	5.e-002	36.818
16761	6.572	2.7273	0.	4527.2
16762	6.4798	2.6364	0.	4586.9
16763	6.4798	2.7273	5.e-002	31.362
16764	6.7564	2.7273	0.	4400.1
16765	6.6642	2.6364	0.	4451.8
16766	6.6642	2.7273	5.e-002	27.019
16767	6.9408	2.7273	0.	4292.6
16768	6.8486	2.6364	0.	4338.2
16769	6.8486	2.7273	5.e-002	23.56
16770	7.1252	2.7273	0.	4200.1
16771	7.033	2.6364	0.	4240.9
16772	7.033	2.7273	5.e-002	20.801
16773	7.3097	2.7273	0.	4118.8
16774	7.2174	2.6364	0.	4156.
16775	7.2174	2.7273	5.e-002	18.596
16776	7.4941	2.7273	0.	4046.2
16777	7.4019	2.6364	0.	4080.5
16778	7.4019	2.7273	5.e-002	16.831
16779	7.6785	2.7273	0.	3980.
16780	7.5863	2.6364	0.	4012.1
16781	7.5863	2.7273	5.e-002	15.415
16782	7.8629	2.7273	0.	3918.8
16783	7.7707	2.6364	0.	3949.1
16784	7.7707	2.7273	5.e-002	14.276
16785	8.0474	2.7273	0.	3861.1
16786	7.9551	2.6364	0.	3890.1
16787	7.9551	2.7273	5.e-002	13.358
16788	8.2318	2.7273	0.	3806.2
16789	8.1396	2.6364	0.	3834.2
16790	8.1396	2.7273	5.e-002	12.615
16791	8.4162	2.7273	0.	3753.3
16792	8.324	2.6364	0.	3780.4
16793	8.324	2.7273	5.e-002	12.011
16794	8.6006	2.7273	0.	3701.8
16795	8.5084	2.6364	0.	3728.4
16796	8.5084	2.7273	5.e-002	11.518
16797	8.785	2.7273	0.	3651.4
16798	8.6928	2.6364	0.	3677.5
16799	8.6928	2.7273	5.e-002	11.113
16800	8.9695	2.7273	0.	3601.7
16801	8.8773	2.6364	0.	3627.4
16802	8.8773	2.7273	5.e-002	10.779
16803	9.1539	2.7273	0.	3552.5
16804	9.0617	2.6364	0.	3578.
16805	9.0617	2.7273	5.e-002	10.501
16806	9.3383	2.7273	0.	3503.7
16807	9.2461	2.6364	0.	3529.
16808	9.2461	2.7273	5.e-002	10.268
16809	9.5227	2.7273	0.	3455.2
16810	9.4305	2.6364	0.	3480.3
16811	9.4305	2.7273	5.e-002	10.07
16812	9.7072	2.7273	0.	3406.8
16813	9.615	2.6364	0.	3431.8
16814	9.615	2.7273	5.e-002	9.9012
16815	9.8916	2.7273	0.	3358.4
16816	9.7994	2.6364	0.	3383.4
16817	9.7994	2.7273	5.e-002	9.7555
16818	10.076	2.7273	0.	3310.2
16819	9.9838	2.6364	0.	3335.
16820	9.9838	2.7273	5.e-002	9.6285
16821	10.26	2.7273	0.	3261.9
16822	10.168	2.6364	0.	3286.7
16823	10.168	2.7273	5.e-002	9.5164
16824	10.445	2.7273	0.	3213.7
16825	10.353	2.6364	0.	3238.4
16826	10.353	2.7273	5.e-002	9.4164
16827	10.629	2.7273	0.	3165.5
16828	10.537	2.6364	0.	3190.2
16829	10.537	2.7273	5.e-002	9.3263
16830	10.814	2.7273	0.	3117.3
16831	10.721	2.6364	0.	3141.9
16832	10.721	2.7273	5.e-002	9.2446
16833	10.998	2.7273	0.	3069.1
16834	10.906	2.6364	0.	3093.6
16835	10.906	2.7273	5.e-002	9.1694
16836	11.183	2.7273	0.	3020.9
16837	11.09	2.6364	0.	3045.4
16838	11.09	2.7273	5.e-002	9.0996
16839	11.367	2.7273	0.	2972.7
16840	11.275	2.6364	0.	2997.2
16841	11.275	2.7273	5.e-002	9.0346
16842	11.551	2.7273	0.	2924.5
16843	11.459	2.6364	0.	2949.
16844	11.459	2.7273	5.e-002	8.9734
16845	11.736	2.7273	0.	2876.4
16846	11.644	2.6364	0.	2900.8
16847	11.644	2.7273	5.e-002	8.9152
16848	11.92	2.7273	0.	2828.4
16849	11.828	2.6364	0.	2852.7
16850	11.828	2.7273	5.e-002	8.86
16851	12.105	2.7273	0.	2780.4
16852	12.012	2.6364	0.	2804.7
16853	12.012	2.7273	5.e-002	8.8072
16854	12.289	2.7273	0.	2732.5
16855	12.197	2.6364	0.	2756.7
16856	12.197	2.7273	5.e-002	8.7562
16857	12.474	2.7273	0.	2684.6
16858	12.381	2.6364	0.	2708.8
16859	12.381	2.7273	5.e-002	8.7069
16860	12.658	2.7273	0.	2636.9
16861	12.566	2.6364	0.	2661.
16862	12.566	2.7273	5.e-002	8.6594
16863	12.842	2.7273	0.	2589.2
16864	12.75	2.6364	0.	2613.3
16865	12.75	2.7273	5.e-002	8.6132
16866	13.027	2.7273	0.	2541.7
16867	12.935	2.6364	0.	2565.7
16868	12.935	2.7273	5.e-002	8.568
16869	13.211	2.7273	0.	2494.3
16870	13.119	2.6364	0.	2518.2
16871	13.119	2.7273	5.e-002	8.5241
16872	13.396	2.7273	0.	2447.
16873	13.303	2.6364	0.	2470.8
16874	13.303	2.7273	5.e-002	8.4812
16875	13.58	2.7273	0.	2399.8
16876	13.488	2.6364	0.	2423.5
16877	13.488	2.7273	5.e-002	8.439
16878	13.764	2.7273	0.	2352.7
16879	13.672	2.6364	0.	2376.4
16880	13.672	2.7273	5.e-002	8.3976
16881	13.949	2.7273	0.	2305.8
16882	13.857	2.6364	0.	2329.4
16883	13.857	2.7273	5.e-002	8.357
16884	14.133	2.7273	0.	2259.1
16885	14.041	2.6364	0.	2282.6
16886	14.041	2.7273	5.e-002	8.3171
16887	14.318	2.7273	0.	2212.5
16888	14.226	2.6364	0.	2235.9
16889	14.226	2.7273	5.e-002	8.2778
16890	14.502	2.7273	0.	2166.
16891	14.41	2.6364	0.	2189.3
16892	14.41	2.7273	5.e-002	8.2391
16893	14.687	2.7273	0.	2119.7
16894	14.594	2.6364	0.	2143.
16895	14.594	2.7273	5.e-002	8.201
16896	14.871	2.7273	0.	2073.6
16897	14.779	2.6364	0.	2096.8
16898	14.779	2.7273	5.e-002	8.1633
16899	15.055	2.7273	0.	2027.7
16900	14.963	2.6364	0.	2050.7
16901	14.963	2.7273	5.e-002	8.1261
16902	15.24	2.7273	0.	1981.9
16903	15.148	2.6364	0.	2004.9
16904	15.148	2.7273	5.e-002	8.0895
16905	15.424	2.7273	0.	1936.4
16906	15.332	2.6364	0.	1959.2
16907	15.332	2.7273	5.e-002	8.0534
16908	15.609	2.7273	0.	1891.
16909	15.517	2.6364	0.	1913.7
16910	15.517	2.7273	5.e-002	8.0176
16911	15.793	2.7273	0.	1845.8
16912	15.701	2.6364	0.	1868.4
16913	15.701	2.7273	5.e-002	7.9823
16914	15.978	2.7273	0.	1800.7
16915	15.885	2.6364	0.	1823.3
16916	15.885	2.7273	5.e-002	7.9474
16917	16.162	2.7273	0.	1755.9
16918	16.07	2.6364	0.	1778.4
16919	16.07	2.7273	5.e-002	7.9129
16920	16.346	2.7273	0.	1711.3
16921	16.254	2.6364	0.	1733.6
16922	16.254	2.7273	5.e-002	7.8788
16923	16.531	2.7273	0.	1666.9
16924	16.439	2.6364	0.	1689.1
16925	16.439	2.7273	5.e-002	7.8453
16926	16.715	2.7273	0.	1622.7
16927	16.623	2.6364	0.	1644.8
16928	16.623	2.7273	5.e-002	7.8121
16929	16.9	2.7273	0.	1578.8
16930	16.807	2.6364	0.	1600.7
16931	16.807	2.7273	5.e-002	7.7793
16932	17.084	2.7273	0.	1535.
16933	16.992	2.6364	0.	1556.9
16934	16.992	2.7273	5.e-002	7.7471
16935	17.269	2.7273	0.	1491.5
16936	17.176	2.6364	0.	1513.2
16937	17.176	2.7273	5.e-002	7.7153
16938	17.453	2.7273	0.	1448.2
16939	17.361	2.6364	0.	1469.8
16940	17.361	2.7273	5.e-002	7.6839
16941	17.637	2.7273	0.	1405.1
16942	17.545	2.6364	0.	1426.6
16943	17.545	2.7273	5.e-002	7.6531
16944	17.822	2.7273	0.	1362.3
16945	17.73	2.6364	0.	1383.6
16946	17.73	2.7273	5.e-002	7.6229
16947	18.006	2.7273	0.	1319.7
16948	17.914	2.6364	0.	1340.9
16949	17.914	2.7273	5.e-002	7.5932
16950	18.191	2.7273	0.	1277.4
16951	18.098	2.6364	0.	1298.5
16952	18.098	2.7273	5.e-002	7.564
16953	18.375	2.7273	0.	1235.3
16954	18.283	2.6364	0.	1256.2
16955	18.283	2.7273	5.e-002	7.5356
16956	18.56	2.7273	0.	1193.5
16957	18.467	2.6364	0.	1214.3
16958	18.467	2.7273	5.e-002	7.5079
16959	18.744	2.7273	0.	1151.9
16960	18.652	2.6364	0.	1172.6
16961	18.652	2.7273	5.e-002	7.4809
16962	18.928	2.7273	0.	1110.7
16963	18.836	2.6364	0.	1131.2
16964	18.836	2.7273	5.e-002	7.4547
16965	19.113	2.7273	0.	1069.7
16966	19.021	2.6364	0.	1090.
16967	19.021	2.7273	5.e-002	7.4295
16968	19.297	2.7273	0.	1029.
16969	19.205	2.6364	0.	1049.2
16970	19.205	2.7273	5.e-002	7.4051
16971	19.482	2.7273	0.	988.62
16972	19.389	2.6364	0.	1008.6
16973	19.389	2.7273	5.e-002	7.3818
16974	19.666	2.7273	0.	948.56
16975	19.574	2.6364	0.	968.39
16976	19.574	2.7273	5.e-002	7.3598
16977	19.85	2.7273	0.	908.81
16978	19.758	2.6364	0.	928.46
16979	19.758	2.7273	5.e-002	7.339
16980	20.035	2.7273	0.	869.41
16981	19.943	2.6364	0.	888.87
16982	19.943	2.7273	5.e-002	7.3197
16983	20.219	2.7273	0.	830.36
16984	20.127	2.6364	0.	849.61
16985	20.127	2.7273	5.e-002	7.302
16986	20.404	2.7273	0.	791.67
16987	20.312	2.6364	0.	810.71
16988	20.312	2.7273	5.e-002	7.2861
16989	20.588	2.7273	0.	753.36
16990	20.496	2.6364	0.	772.18
16991	20.496	2.7273	5.e-002	7.2721
16992	20.773	2.7273	0.	715.45
16993	20.68	2.6364	0.	734.04
16994	20.68	2.7273	5.e-002	7.2604
16995	20.957	2.7273	0.	677.96
16996	20.865	2.6364	0.	696.3
16997	20.865	2.7273	5.e-002	7.2513
16998	21.141	2.7273	0.	640.9
16999	21.049	2.6364	0.	658.98
17000	21.049	2.7273	5.e-002	7.245
17001	21.326	2.7273	0.	604.31
17002	21.234	2.6364	0.	622.12
17003	21.234	2.7273	5.e-002	7.2419
17004	21.51	2.7273	0.	568.22
17005	21.418	2.6364	0.	585.73
17006	21.418	2.7273	5.e-002	7.2424
17007	21.695	2.7273	0.	532.65
17008	21.602	2.6364	0.	549.86
17009	21.602	2.7273	5.e-002	7.2471
17010	21.879	2.7273	0.	497.65
17011	21.787	2.6364	0.	514.53
17012	21.787	2.7273	5.e-002	7.2562
17013	22.064	2.7273	0.	463.28
17014	21.971	2.6364	0.	479.79
17015	21.971	2.7273	5.e-002	7.2705
17016	22.248	2.7273	0.	429.6
17017	22.156	2.6364	0.	445.71
17018	22.156	2.7273	5.e-002	7.2904
17019	22.432	2.7273	0.	396.7
17020	22.34	2.6364	0.	412.37
17021	22.34	2.7273	5.e-002	7.3166
17022	22.617	2.7273	0.	364.69
17023	22.525	2.6364	0.	379.86
17024	22.525	2.7273	5.e-002	7.3495
17025	22.801	2.7273	0.	333.76
17026	22.709	2.6364	0.	348.33
17027	22.709	2.7273	5.e-002	7.3896
17028	22.986	2.7273	0.	304.13
17029	22.893	2.6364	0.	317.97
17030	22.893	2.7273	5.e-002	7.4374
17031	23.17	2.7273	0.	276.13
17032	23.078	2.6364	0.	289.07
17033	23.078	2.7273	5.e-002	7.4929
17034	23.355	2.7273	0.	250.26
17035	23.262	2.6364	0.	262.03
17036	23.262	2.7273	5.e-002	7.5564
17037	23.539	2.7273	0.	227.17
17038	23.447	2.6364	0.	237.41
17039	23.447	2.7273	5.e-002	7.6272
17040	23.723	2.7273	0.	207.76
17041	23.631	2.6364	0.	216.02
17042	23.631	2.7273	5.e-002	7.7053
17043	23.816	2.6364	0.	198.86
17044	23.816	2.7273	5.e-002	7.8008
17045	23.908	2.7273	0.	193.92
17046	4.5433	2.5455	0.	11297
17047	4.4511	2.4545	0.	12554
17048	4.4511	2.5455	5.e-002	201.08
17049	4.7277	2.5455	0.	9763.5
17050	4.6355	2.4545	0.	10492
17051	4.6355	2.5455	5.e-002	211.19
17052	4.9121	2.5455	0.	8454.9
17053	4.8199	2.4545	0.	8895.1
17054	4.8199	2.5455	5.e-002	174.07
17055	5.0966	2.5455	0.	7448.6
17056	5.0044	2.4545	0.	7735.1
17057	5.0044	2.5455	5.e-002	139.38
17058	5.281	2.5455	0.	6688.6
17059	5.1888	2.4545	0.	6891.2
17060	5.1888	2.5455	5.e-002	111.16
17061	5.4654	2.5455	0.	6111.5
17062	5.3732	2.4545	0.	6263.5
17063	5.3732	2.5455	5.e-002	89.675
17064	5.6498	2.5455	0.	5668.1
17065	5.5576	2.4545	0.	5787.5
17066	5.5576	2.5455	5.e-002	73.159
17067	5.8343	2.5455	0.	5323.
17068	5.7421	2.4545	0.	5419.9
17069	5.7421	2.5455	5.e-002	60.251
17070	6.0187	2.5455	0.	5050.8
17071	5.9265	2.4545	0.	5131.6
17072	5.9265	2.5455	5.e-002	50.055
17073	6.2031	2.5455	0.	4833.2
17074	6.1109	2.4545	0.	4901.9
17075	6.1109	2.5455	5.e-002	41.96
17076	6.3875	2.5455	0.	4656.7
17077	6.2953	2.4545	0.	4716.3
17078	6.2953	2.5455	5.e-002	35.512
17079	6.572	2.5455	0.	4511.5
17080	6.4798	2.4545	0.	4563.9
17081	6.4798	2.5455	5.e-002	30.367
17082	6.7564	2.5455	0.	4390.
17083	6.6642	2.4545	0.	4436.7
17084	6.6642	2.5455	5.e-002	26.256
17085	6.9408	2.5455	0.	4286.5
17086	6.8486	2.4545	0.	4328.8
17087	6.8486	2.5455	5.e-002	22.969
17088	7.1252	2.5455	0.	4196.8
17089	7.033	2.4545	0.	4235.5
17090	7.033	2.5455	5.e-002	20.337
17091	7.3097	2.5455	0.	4117.6
17092	7.2174	2.4545	0.	4153.5
17093	7.2174	2.5455	5.e-002	18.228
17094	7.4941	2.5455	0.	4046.4
17095	7.4019	2.4545	0.	4080.
17096	7.4019	2.5455	5.e-002	16.536
17097	7.6785	2.5455	0.	3981.1
17098	7.5863	2.4545	0.	4012.9
17099	7.5863	2.5455	5.e-002	15.177
17100	7.8629	2.5455	0.	3920.4
17101	7.7707	2.4545	0.	3950.8
17102	7.7707	2.5455	5.e-002	14.084
17103	8.0474	2.5455	0.	3863.1
17104	7.9551	2.4545	0.	3892.4
17105	7.9551	2.5455	5.e-002	13.201
17106	8.2318	2.5455	0.	3808.4
17107	8.1396	2.4545	0.	3836.8
17108	8.1396	2.5455	5.e-002	12.487
17109	8.4162	2.5455	0.	3755.5
17110	8.324	2.4545	0.	3783.2
17111	8.324	2.5455	5.e-002	11.907
17112	8.6006	2.5455	0.	3704.
17113	8.5084	2.4545	0.	3731.2
17114	8.5084	2.5455	5.e-002	11.434
17115	8.785	2.5455	0.	3653.6
17116	8.6928	2.4545	0.	3680.2
17117	8.6928	2.5455	5.e-002	11.045
17118	8.9695	2.5455	0.	3603.8
17119	8.8773	2.4545	0.	3630.1
17120	8.8773	2.5455	5.e-002	10.724
17121	9.1539	2.5455	0.	3554.5
17122	9.0617	2.4545	0.	3580.6
17123	9.0617	2.5455	5.e-002	10.456
17124	9.3383	2.5455	0.	3505.6
17125	9.2461	2.4545	0.	3531.4
17126	9.2461	2.5455	5.e-002	10.231
17127	9.5227	2.5455	0.	3456.9
17128	9.4305	2.4545	0.	3482.5
17129	9.4305	2.5455	5.e-002	10.041
17130	9.7072	2.5455	0.	3408.4
17131	9.615	2.4545	0.	3433.9
17132	9.615	2.5455	5.e-002	9.8776
17133	9.8916	2.5455	0.	3359.9
17134	9.7994	2.4545	0.	3385.3
17135	9.7994	2.5455	5.e-002	9.7364
17136	10.076	2.5455	0.	3311.6
17137	9.9838	2.4545	0.	3336.8
17138	9.9838	2.5455	5.e-002	9.6131
17139	10.26	2.5455	0.	3263.2
17140	10.168	2.4545	0.	3288.4
17141	10.168	2.5455	5.e-002	9.5039
17142	10.445	2.5455	0.	3214.9
17143	10.353	2.4545	0.	3240.
17144	10.353	2.5455	5.e-002	9.4063
17145	10.629	2.5455	0.	3166.6
17146	10.537	2.4545	0.	3191.6
17147	10.537	2.5455	5.e-002	9.3181
17148	10.814	2.5455	0.	3118.3
17149	10.721	2.4545	0.	3143.2
17150	10.721	2.5455	5.e-002	9.2379
17151	10.998	2.5455	0.	3070.
17152	10.906	2.4545	0.	3094.8
17153	10.906	2.5455	5.e-002	9.1639
17154	11.183	2.5455	0.	3021.7
17155	11.09	2.4545	0.	3046.5
17156	11.09	2.5455	5.e-002	9.0951
17157	11.367	2.5455	0.	2973.5
17158	11.275	2.4545	0.	2998.2
17159	11.275	2.5455	5.e-002	9.0308
17160	11.551	2.5455	0.	2925.3
17161	11.459	2.4545	0.	2949.9
17162	11.459	2.5455	5.e-002	8.9702
17163	11.736	2.5455	0.	2877.1
17164	11.644	2.4545	0.	2901.7
17165	11.644	2.5455	5.e-002	8.9126
17166	11.92	2.5455	0.	2829.
17167	11.828	2.4545	0.	2853.6
17168	11.828	2.5455	5.e-002	8.8578
17169	12.105	2.5455	0.	2781.
17170	12.012	2.4545	0.	2805.5
17171	12.012	2.5455	5.e-002	8.8053
17172	12.289	2.5455	0.	2733.1
17173	12.197	2.4545	0.	2757.4
17174	12.197	2.5455	5.e-002	8.7546
17175	12.474	2.5455	0.	2685.2
17176	12.381	2.4545	0.	2709.5
17177	12.381	2.5455	5.e-002	8.7055
17178	12.658	2.5455	0.	2637.4
17179	12.566	2.4545	0.	2661.6
17180	12.566	2.5455	5.e-002	8.6581
17181	12.842	2.5455	0.	2589.7
17182	12.75	2.4545	0.	2613.9
17183	12.75	2.5455	5.e-002	8.6121
17184	13.027	2.5455	0.	2542.1
17185	12.935	2.4545	0.	2566.2
17186	12.935	2.5455	5.e-002	8.567
17187	13.211	2.5455	0.	2494.7
17188	13.119	2.4545	0.	2518.7
17189	13.119	2.5455	5.e-002	8.5232
17190	13.396	2.5455	0.	2447.4
17191	13.303	2.4545	0.	2471.3
17192	13.303	2.5455	5.e-002	8.4804
17193	13.58	2.5455	0.	2400.2
17194	13.488	2.4545	0.	2424.
17195	13.488	2.5455	5.e-002	8.4383
17196	13.764	2.5455	0.	2353.1
17197	13.672	2.4545	0.	2376.8
17198	13.672	2.5455	5.e-002	8.3969
17199	13.949	2.5455	0.	2306.2
17200	13.857	2.4545	0.	2329.8
17201	13.857	2.5455	5.e-002	8.3564
17202	14.133	2.5455	0.	2259.4
17203	14.041	2.4545	0.	2283.
17204	14.041	2.5455	5.e-002	8.3166
17205	14.318	2.5455	0.	2212.8
17206	14.226	2.4545	0.	2236.3
17207	14.226	2.5455	5.e-002	8.2772
17208	14.502	2.5455	0.	2166.3
17209	14.41	2.4545	0.	2189.7
17210	14.41	2.5455	5.e-002	8.2386
17211	14.687	2.5455	0.	2120.
17212	14.594	2.4545	0.	2143.3
17213	14.594	2.5455	5.e-002	8.2005
17214	14.871	2.5455	0.	2073.9
17215	14.779	2.4545	0.	2097.1
17216	14.779	2.5455	5.e-002	8.1628
17217	15.055	2.5455	0.	2027.9
17218	14.963	2.4545	0.	2051.1
17219	14.963	2.5455	5.e-002	8.1257
17220	15.24	2.5455	0.	1982.2
17221	15.148	2.4545	0.	2005.2
17222	15.148	2.5455	5.e-002	8.0891
17223	15.424	2.5455	0.	1936.6
17224	15.332	2.4545	0.	1959.5
17225	15.332	2.5455	5.e-002	8.053
17226	15.609	2.5455	0.	1891.2
17227	15.517	2.4545	0.	1914.
17228	15.517	2.5455	5.e-002	8.0172
17229	15.793	2.5455	0.	1846.
17230	15.701	2.4545	0.	1868.7
17231	15.701	2.5455	5.e-002	7.9819
17232	15.978	2.5455	0.	1800.9
17233	15.885	2.4545	0.	1823.5
17234	15.885	2.5455	5.e-002	7.9471
17235	16.162	2.5455	0.	1756.1
17236	16.07	2.4545	0.	1778.6
17237	16.07	2.5455	5.e-002	7.9126
17238	16.346	2.5455	0.	1711.5
17239	16.254	2.4545	0.	1733.9
17240	16.254	2.5455	5.e-002	7.8785
17241	16.531	2.5455	0.	1667.1
17242	16.439	2.4545	0.	1689.4
17243	16.439	2.5455	5.e-002	7.845
17244	16.715	2.5455	0.	1622.9
17245	16.623	2.4545	0.	1645.
17246	16.623	2.5455	5.e-002	7.8118
17247	16.9	2.5455	0.	1578.9
17248	16.807	2.4545	0.	1600.9
17249	16.807	2.5455	5.e-002	7.779
17250	17.084	2.5455	0.	1535.1
17251	16.992	2.4545	0.	1557.
17252	16.992	2.5455	5.e-002	7.7468
17253	17.269	2.5455	0.	1491.6
17254	17.176	2.4545	0.	1513.4
17255	17.176	2.5455	5.e-002	7.715
17256	17.453	2.5455	0.	1448.3
17257	17.361	2.4545	0.	1469.9
17258	17.361	2.5455	5.e-002	7.6836
17259	17.637	2.5455	0.	1405.2
17260	17.545	2.4545	0.	1426.7
17261	17.545	2.5455	5.e-002	7.6528
17262	17.822	2.5455	0.	1362.4
17263	17.73	2.4545	0.	1383.8
17264	17.73	2.5455	5.e-002	7.6226
17265	18.006	2.5455	0.	1319.8
17266	17.914	2.4545	0.	1341.
17267	17.914	2.5455	5.e-002	7.5928
17268	18.191	2.5455	0.	1277.4
17269	18.098	2.4545	0.	1298.5
17270	18.098	2.5455	5.e-002	7.5637
17271	18.375	2.5455	0.	1235.3
17272	18.283	2.4545	0.	1256.3
17273	18.283	2.5455	5.e-002	7.5352
17274	18.56	2.5455	0.	1193.5
17275	18.467	2.4545	0.	1214.3
17276	18.467	2.5455	5.e-002	7.5075
17277	18.744	2.5455	0.	1151.9
17278	18.652	2.4545	0.	1172.6
17279	18.652	2.5455	5.e-002	7.4804
17280	18.928	2.5455	0.	1110.6
17281	18.836	2.4545	0.	1131.1
17282	18.836	2.5455	5.e-002	7.4542
17283	19.113	2.5455	0.	1069.6
17284	19.021	2.4545	0.	1089.9
17285	19.021	2.5455	5.e-002	7.4289
17286	19.297	2.5455	0.	1028.9
17287	19.205	2.4545	0.	1049.1
17288	19.205	2.5455	5.e-002	7.4045
17289	19.482	2.5455	0.	988.46
17290	19.389	2.4545	0.	1008.5
17291	19.389	2.5455	5.e-002	7.3812
17292	19.666	2.5455	0.	948.35
17293	19.574	2.4545	0.	968.17
17294	19.574	2.5455	5.e-002	7.3591
17295	19.85	2.5455	0.	908.57
17296	19.758	2.4545	0.	928.19
17297	19.758	2.5455	5.e-002	7.3382
17298	20.035	2.5455	0.	869.12
17299	19.943	2.4545	0.	888.53
17300	19.943	2.5455	5.e-002	7.3188
17301	20.219	2.5455	0.	830.01
17302	20.127	2.4545	0.	849.22
17303	20.127	2.5455	5.e-002	7.3009
17304	20.404	2.5455	0.	791.26
17305	20.312	2.4545	0.	810.25
17306	20.312	2.5455	5.e-002	7.2849
17307	20.588	2.5455	0.	752.9
17308	20.496	2.4545	0.	771.64
17309	20.496	2.5455	5.e-002	7.2708
17310	20.773	2.5455	0.	714.92
17311	20.68	2.4545	0.	733.42
17312	20.68	2.5455	5.e-002	7.2589
17313	20.957	2.5455	0.	677.36
17314	20.865	2.4545	0.	695.6
17315	20.865	2.5455	5.e-002	7.2495
17316	21.141	2.5455	0.	640.23
17317	21.049	2.4545	0.	658.2
17318	21.049	2.5455	5.e-002	7.2429
17319	21.326	2.5455	0.	603.56
17320	21.234	2.4545	0.	621.24
17321	21.234	2.5455	5.e-002	7.2395
17322	21.51	2.5455	0.	567.39
17323	21.418	2.4545	0.	584.75
17324	21.418	2.5455	5.e-002	7.2396
17325	21.695	2.5455	0.	531.73
17326	21.602	2.4545	0.	548.77
17327	21.602	2.5455	5.e-002	7.2438
17328	21.879	2.5455	0.	496.65
17329	21.787	2.4545	0.	513.33
17330	21.787	2.5455	5.e-002	7.2525
17331	22.064	2.5455	0.	462.19
17332	21.971	2.4545	0.	478.49
17333	21.971	2.5455	5.e-002	7.2662
17334	22.248	2.5455	0.	428.42
17335	22.156	2.4545	0.	444.3
17336	22.156	2.5455	5.e-002	7.2857
17337	22.432	2.5455	0.	395.43
17338	22.34	2.4545	0.	410.84
17339	22.34	2.5455	5.e-002	7.3114
17340	22.617	2.5455	0.	363.34
17341	22.525	2.4545	0.	378.22
17342	22.525	2.5455	5.e-002	7.3439
17343	22.801	2.5455	0.	332.32
17344	22.709	2.4545	0.	346.58
17345	22.709	2.5455	5.e-002	7.3838
17346	22.986	2.5455	0.	302.61
17347	22.893	2.4545	0.	316.11
17348	22.893	2.5455	5.e-002	7.4316
17349	23.17	2.5455	0.	274.53
17350	23.078	2.4545	0.	287.11
17351	23.078	2.5455	5.e-002	7.4874
17352	23.355	2.5455	0.	248.58
17353	23.262	2.4545	0.	259.97
17354	23.262	2.5455	5.e-002	7.5515
17355	23.539	2.5455	0.	225.42
17356	23.447	2.4545	0.	235.25
17357	23.447	2.5455	5.e-002	7.6235
17358	23.723	2.5455	0.	205.95
17359	23.631	2.4545	0.	213.77
17360	23.631	2.5455	5.e-002	7.7033
17361	23.816	2.4545	0.	196.56
17362	23.816	2.5455	5.e-002	7.8067
17363	23.908	2.5455	0.	192.05
17364	4.5433	2.3636	0.	11778
17365	4.4511	2.2727	0.	13365
17366	4.4511	2.3636	5.e-002	353.68
17367	4.7277	2.3636	0.	9650.2
17368	4.6355	2.2727	0.	10344
17369	4.6355	2.3636	5.e-002	276.93
17370	4.9121	2.3636	0.	8187.3
17371	4.8199	2.2727	0.	8535.6
17372	4.8199	2.3636	5.e-002	199.58
17373	5.0966	2.3636	0.	7182.2
17374	5.0044	2.2727	0.	7396.9
17375	5.0044	2.3636	5.e-002	140.21
17376	5.281	2.3636	0.	6467.6
17377	5.1888	2.2727	0.	6611.9
17378	5.1888	2.3636	5.e-002	106.45
17379	5.4654	2.3636	0.	5940.
17380	5.3732	2.2727	0.	6046.7
17381	5.3732	2.3636	5.e-002	84.238
17382	5.6498	2.3636	0.	5539.4
17383	5.5576	2.2727	0.	5623.9
17384	5.5576	2.3636	5.e-002	68.323
17385	5.8343	2.3636	0.	5228.6
17386	5.7421	2.2727	0.	5298.9
17387	5.7421	2.3636	5.e-002	56.31
17388	6.0187	2.3636	0.	4982.7
17389	5.9265	2.2727	0.	5043.5
17390	5.9265	2.3636	5.e-002	46.965
17391	6.2031	2.3636	0.	4785.
17392	6.1109	2.2727	0.	4838.8
17393	6.1109	2.3636	5.e-002	39.573
17394	6.3875	2.3636	0.	4623.4
17395	6.2953	2.2727	0.	4671.9
17396	6.2953	2.3636	5.e-002	33.675
17397	6.572	2.3636	0.	4489.
17398	6.4798	2.2727	0.	4533.5
17399	6.4798	2.3636	5.e-002	28.948
17400	6.7564	2.3636	0.	4375.5
17401	6.6642	2.2727	0.	4416.6
17402	6.6642	2.3636	5.e-002	25.153
17403	6.9408	2.3636	0.	4277.8
17404	6.8486	2.2727	0.	4316.1
17405	6.8486	2.3636	5.e-002	22.103
17406	7.1252	2.3636	0.	4192.2
17407	7.033	2.2727	0.	4228.3
17408	7.033	2.3636	5.e-002	19.651
17409	7.3097	2.3636	0.	4115.8
17410	7.2174	2.2727	0.	4150.1
17411	7.2174	2.3636	5.e-002	17.68
17412	7.4941	2.3636	0.	4046.6
17413	7.4019	2.2727	0.	4079.2
17414	7.4019	2.3636	5.e-002	16.095
17415	7.6785	2.3636	0.	3982.7
17416	7.5863	2.2727	0.	4014.
17417	7.5863	2.3636	5.e-002	14.82
17418	7.8629	2.3636	0.	3922.8
17419	7.7707	2.2727	0.	3953.1
17420	7.7707	2.3636	5.e-002	13.794
17421	8.0474	2.3636	0.	3866.1
17422	7.9551	2.2727	0.	3895.5
17423	7.9551	2.3636	5.e-002	12.965
17424	8.2318	2.3636	0.	3811.6
17425	8.1396	2.2727	0.	3840.3
17426	8.1396	2.3636	5.e-002	12.295
17427	8.4162	2.3636	0.	3758.8
17428	8.324	2.2727	0.	3786.9
17429	8.324	2.3636	5.e-002	11.751
17430	8.6006	2.3636	0.	3707.4
17431	8.5084	2.2727	0.	3734.9
17432	8.5084	2.3636	5.e-002	11.307
17433	8.785	2.3636	0.	3656.8
17434	8.6928	2.2727	0.	3684.
17435	8.6928	2.3636	5.e-002	10.942
17436	8.9695	2.3636	0.	3606.9
17437	8.8773	2.2727	0.	3633.7
17438	8.8773	2.3636	5.e-002	10.641
17439	9.1539	2.3636	0.	3557.5
17440	9.0617	2.2727	0.	3584.
17441	9.0617	2.3636	5.e-002	10.389
17442	9.3383	2.3636	0.	3508.4
17443	9.2461	2.2727	0.	3534.7
17444	9.2461	2.3636	5.e-002	10.177
17445	9.5227	2.3636	0.	3459.5
17446	9.4305	2.2727	0.	3485.6
17447	9.4305	2.3636	5.e-002	9.9971
17448	9.7072	2.3636	0.	3410.8
17449	9.615	2.2727	0.	3436.7
17450	9.615	2.3636	5.e-002	9.8424
17451	9.8916	2.3636	0.	3362.2
17452	9.7994	2.2727	0.	3387.9
17453	9.7994	2.3636	5.e-002	9.7081
17454	10.076	2.3636	0.	3313.6
17455	9.9838	2.2727	0.	3339.3
17456	9.9838	2.3636	5.e-002	9.5902
17457	10.26	2.3636	0.	3265.1
17458	10.168	2.2727	0.	3290.6
17459	10.168	2.3636	5.e-002	9.4855
17460	10.445	2.3636	0.	3216.7
17461	10.353	2.2727	0.	3242.1
17462	10.353	2.3636	5.e-002	9.3913
17463	10.629	2.3636	0.	3168.2
17464	10.537	2.2727	0.	3193.5
17465	10.537	2.3636	5.e-002	9.306
17466	10.814	2.3636	0.	3119.8
17467	10.721	2.2727	0.	3145.
17468	10.721	2.3636	5.e-002	9.228
17469	10.998	2.3636	0.	3071.4
17470	10.906	2.2727	0.	3096.5
17471	10.906	2.3636	5.e-002	9.1558
17472	11.183	2.3636	0.	3023.
17473	11.09	2.2727	0.	3048.1
17474	11.09	2.3636	5.e-002	9.0884
17475	11.367	2.3636	0.	2974.7
17476	11.275	2.2727	0.	2999.7
17477	11.275	2.3636	5.e-002	9.0253
17478	11.551	2.3636	0.	2926.4
17479	11.459	2.2727	0.	2951.3
17480	11.459	2.3636	5.e-002	8.9656
17481	11.736	2.3636	0.	2878.2
17482	11.644	2.2727	0.	2903.
17483	11.644	2.3636	5.e-002	8.9087
17484	11.92	2.3636	0.	2830.
17485	11.828	2.2727	0.	2854.7
17486	11.828	2.3636	5.e-002	8.8544
17487	12.105	2.3636	0.	2781.9
17488	12.012	2.2727	0.	2806.5
17489	12.012	2.3636	5.e-002	8.8024
17490	12.289	2.3636	0.	2733.9
17491	12.197	2.2727	0.	2758.4
17492	12.197	2.3636	5.e-002	8.7521
17493	12.474	2.3636	0.	2686.
17494	12.381	2.2727	0.	2710.4
17495	12.381	2.3636	5.e-002	8.7034
17496	12.658	2.3636	0.	2638.1
17497	12.566	2.2727	0.	2662.5
17498	12.566	2.3636	5.e-002	8.6563
17499	12.842	2.3636	0.	2590.4
17500	12.75	2.2727	0.	2614.7
17501	12.75	2.3636	5.e-002	8.6104
17502	13.027	2.3636	0.	2542.8
17503	12.935	2.2727	0.	2567.
17504	12.935	2.3636	5.e-002	8.5655
17505	13.211	2.3636	0.	2495.3
17506	13.119	2.2727	0.	2519.4
17507	13.119	2.3636	5.e-002	8.5219
17508	13.396	2.3636	0.	2447.9
17509	13.303	2.2727	0.	2472.
17510	13.303	2.3636	5.e-002	8.4792
17511	13.58	2.3636	0.	2400.7
17512	13.488	2.2727	0.	2424.7
17513	13.488	2.3636	5.e-002	8.4372
17514	13.764	2.3636	0.	2353.6
17515	13.672	2.2727	0.	2377.5
17516	13.672	2.3636	5.e-002	8.3959
17517	13.949	2.3636	0.	2306.7
17518	13.857	2.2727	0.	2330.4
17519	13.857	2.3636	5.e-002	8.3555
17520	14.133	2.3636	0.	2259.9
17521	14.041	2.2727	0.	2283.6
17522	14.041	2.3636	5.e-002	8.3157
17523	14.318	2.3636	0.	2213.2
17524	14.226	2.2727	0.	2236.8
17525	14.226	2.3636	5.e-002	8.2764
17526	14.502	2.3636	0.	2166.8
17527	14.41	2.2727	0.	2190.2
17528	14.41	2.3636	5.e-002	8.2379
17529	14.687	2.3636	0.	2120.4
17530	14.594	2.2727	0.	2143.8
17531	14.594	2.3636	5.e-002	8.1998
17532	14.871	2.3636	0.	2074.3
17533	14.779	2.2727	0.	2097.6
17534	14.779	2.3636	5.e-002	8.1622
17535	15.055	2.3636	0.	2028.3
17536	14.963	2.2727	0.	2051.5
17537	14.963	2.3636	5.e-002	8.1251
17538	15.24	2.3636	0.	1982.5
17539	15.148	2.2727	0.	2005.6
17540	15.148	2.3636	5.e-002	8.0886
17541	15.424	2.3636	0.	1936.9
17542	15.332	2.2727	0.	1959.9
17543	15.332	2.3636	5.e-002	8.0524
17544	15.609	2.3636	0.	1891.5
17545	15.517	2.2727	0.	1914.4
17546	15.517	2.3636	5.e-002	8.0167
17547	15.793	2.3636	0.	1846.3
17548	15.701	2.2727	0.	1869.
17549	15.701	2.3636	5.e-002	7.9814
17550	15.978	2.3636	0.	1801.2
17551	15.885	2.2727	0.	1823.9
17552	15.885	2.3636	5.e-002	7.9466
17553	16.162	2.3636	0.	1756.4
17554	16.07	2.2727	0.	1779.
17555	16.07	2.3636	5.e-002	7.9121
17556	16.346	2.3636	0.	1711.8
17557	16.254	2.2727	0.	1734.2
17558	16.254	2.3636	5.e-002	7.878
17559	16.531	2.3636	0.	1667.4
17560	16.439	2.2727	0.	1689.7
17561	16.439	2.3636	5.e-002	7.8445
17562	16.715	2.3636	0.	1623.1
17563	16.623	2.2727	0.	1645.3
17564	16.623	2.3636	5.e-002	7.8113
17565	16.9	2.3636	0.	1579.1
17566	16.807	2.2727	0.	1601.2
17567	16.807	2.3636	5.e-002	7.7785
17568	17.084	2.3636	0.	1535.3
17569	16.992	2.2727	0.	1557.3
17570	16.992	2.3636	5.e-002	7.7463
17571	17.269	2.3636	0.	1491.8
17572	17.176	2.2727	0.	1513.6
17573	17.176	2.3636	5.e-002	7.7145
17574	17.453	2.3636	0.	1448.4
17575	17.361	2.2727	0.	1470.1
17576	17.361	2.3636	5.e-002	7.6831
17577	17.637	2.3636	0.	1405.3
17578	17.545	2.2727	0.	1426.9
17579	17.545	2.3636	5.e-002	7.6523
17580	17.822	2.3636	0.	1362.5
17581	17.73	2.2727	0.	1383.9
17582	17.73	2.3636	5.e-002	7.622
17583	18.006	2.3636	0.	1319.8
17584	17.914	2.2727	0.	1341.1
17585	17.914	2.3636	5.e-002	7.5923
17586	18.191	2.3636	0.	1277.5
17587	18.098	2.2727	0.	1298.6
17588	18.098	2.3636	5.e-002	7.5631
17589	18.375	2.3636	0.	1235.3
17590	18.283	2.2727	0.	1256.3
17591	18.283	2.3636	5.e-002	7.5346
17592	18.56	2.3636	0.	1193.5
17593	18.467	2.2727	0.	1214.3
17594	18.467	2.3636	5.e-002	7.5068
17595	18.744	2.3636	0.	1151.9
17596	18.652	2.2727	0.	1172.6
17597	18.652	2.3636	5.e-002	7.4797
17598	18.928	2.3636	0.	1110.5
17599	18.836	2.2727	0.	1131.1
17600	18.836	2.3636	5.e-002	7.4535
17601	19.113	2.3636	0.	1069.5
17602	19.021	2.2727	0.	1089.8
17603	19.021	2.3636	5.e-002	7.4281
17604	19.297	2.3636	0.	1028.7
17605	19.205	2.2727	0.	1048.9
17606	19.205	2.3636	5.e-002	7.4037
17607	19.482	2.3636	0.	988.22
17608	19.389	2.2727	0.	1008.2
17609	19.389	2.3636	5.e-002	7.3802
17610	19.666	2.3636	0.	948.06
17611	19.574	2.2727	0.	967.87
17612	19.574	2.3636	5.e-002	7.358
17613	19.85	2.3636	0.	908.21
17614	19.758	2.2727	0.	927.82
17615	19.758	2.3636	5.e-002	7.337
17616	20.035	2.3636	0.	868.69
17617	19.943	2.2727	0.	888.09
17618	19.943	2.3636	5.e-002	7.3174
17619	20.219	2.3636	0.	829.5
17620	20.127	2.2727	0.	848.68
17621	20.127	2.3636	5.e-002	7.2994
17622	20.404	2.3636	0.	790.67
17623	20.312	2.2727	0.	809.62
17624	20.312	2.3636	5.e-002	7.2831
17625	20.588	2.3636	0.	752.21
17626	20.496	2.2727	0.	770.92
17627	20.496	2.3636	5.e-002	7.2687
17628	20.773	2.3636	0.	714.14
17629	20.68	2.2727	0.	732.59
17630	20.68	2.3636	5.e-002	7.2565
17631	20.957	2.3636	0.	676.48
17632	20.865	2.2727	0.	694.65
17633	20.865	2.3636	5.e-002	7.2468
17634	21.141	2.3636	0.	639.24
17635	21.049	2.2727	0.	657.12
17636	21.049	2.3636	5.e-002	7.2398
17637	21.326	2.3636	0.	602.45
17638	21.234	2.2727	0.	620.03
17639	21.234	2.3636	5.e-002	7.2358
17640	21.51	2.3636	0.	566.15
17641	21.418	2.2727	0.	583.4
17642	21.418	2.3636	5.e-002	7.2354
17643	21.695	2.3636	0.	530.37
17644	21.602	2.2727	0.	547.27
17645	21.602	2.3636	5.e-002	7.2389
17646	21.879	2.3636	0.	495.16
17647	21.787	2.2727	0.	511.68
17648	21.787	2.3636	5.e-002	7.2469
17649	22.064	2.3636	0.	460.56
17650	21.971	2.2727	0.	476.68
17651	21.971	2.3636	5.e-002	7.2599
17652	22.248	2.3636	0.	426.66
17653	22.156	2.2727	0.	442.33
17654	22.156	2.3636	5.e-002	7.2786
17655	22.432	2.3636	0.	393.53
17656	22.34	2.2727	0.	408.71
17657	22.34	2.3636	5.e-002	7.3036
17658	22.617	2.3636	0.	361.31
17659	22.525	2.2727	0.	375.93
17660	22.525	2.3636	5.e-002	7.3355
17661	22.801	2.3636	0.	330.16
17662	22.709	2.2727	0.	344.13
17663	22.709	2.3636	5.e-002	7.375
17664	22.986	2.3636	0.	300.32
17665	22.893	2.2727	0.	313.51
17666	22.893	2.3636	5.e-002	7.4227
17667	23.17	2.3636	0.	272.12
17668	23.078	2.2727	0.	284.36
17669	23.078	2.3636	5.e-002	7.479
17670	23.355	2.3636	0.	246.04
17671	23.262	2.2727	0.	257.07
17672	23.262	2.3636	5.e-002	7.5441
17673	23.539	2.3636	0.	222.77
17674	23.447	2.2727	0.	232.21
17675	23.447	2.3636	5.e-002	7.6176
17676	23.723	2.3636	0.	203.22
17677	23.631	2.2727	0.	210.6
17678	23.631	2.3636	5.e-002	7.7003
17679	23.816	2.2727	0.	193.32
17680	23.816	2.3636	5.e-002	7.8154
17681	23.908	2.3636	0.	189.22
17682	4.5433	2.1818	0.	12008
17683	4.4511	2.0909	0.	13728
17684	4.4511	2.1818	5.e-002	808.24
17685	4.7277	2.1818	0.	9258.3
17686	4.6355	2.0909	0.	9770.
17687	4.6355	2.1818	5.e-002	377.69
17688	4.9121	2.1818	0.	7751.6
17689	4.8199	2.0909	0.	7989.9
17690	4.8199	2.1818	5.e-002	192.26
17691	5.0966	2.1818	0.	6826.9
17692	5.0044	2.0909	0.	6962.9
17693	5.0044	2.1818	5.e-002	131.73
17694	5.281	2.1818	0.	6189.9
17695	5.1888	2.0909	0.	6275.6
17696	5.1888	2.1818	5.e-002	97.907
17697	5.4654	2.1818	0.	5729.6
17698	5.3732	2.0909	0.	5791.8
17699	5.3732	2.1818	5.e-002	76.92
17700	5.6498	2.1818	0.	5382.5
17701	5.5576	2.0909	0.	5432.7
17702	5.5576	2.1818	5.e-002	62.378
17703	5.8343	2.1818	0.	5113.3
17704	5.7421	2.0909	0.	5157.3
17705	5.7421	2.1818	5.e-002	51.593
17706	6.0187	2.1818	0.	4899.3
17707	5.9265	2.0909	0.	4940.
17708	5.9265	2.1818	5.e-002	43.263
17709	6.2031	2.1818	0.	4725.6
17710	6.1109	2.0909	0.	4764.3
17711	6.1109	2.1818	5.e-002	36.679
17712	6.3875	2.1818	0.	4582.
17713	6.2953	2.0909	0.	4619.2
17714	6.2953	2.1818	5.e-002	31.41
17715	6.572	2.1818	0.	4461.
17716	6.4798	2.0909	0.	4497.1
17717	6.4798	2.1818	5.e-002	27.167
17718	6.7564	2.1818	0.	4357.2
17719	6.6642	2.0909	0.	4392.3
17720	6.6642	2.1818	5.e-002	23.744
17721	6.9408	2.1818	0.	4266.6
17722	6.8486	2.0909	0.	4300.7
17723	6.8486	2.1818	5.e-002	20.979
17724	7.1252	2.1818	0.	4186.2
17725	7.033	2.0909	0.	4219.3
17726	7.033	2.1818	5.e-002	18.749
17727	7.3097	2.1818	0.	4113.5
17728	7.2174	2.0909	0.	4145.8
17729	7.2174	2.1818	5.e-002	16.952
17730	7.4941	2.1818	0.	4046.7
17731	7.4019	2.0909	0.	4078.2
17732	7.4019	2.1818	5.e-002	15.505
17733	7.6785	2.1818	0.	3984.5
17734	7.5863	2.0909	0.	4015.3
17735	7.5863	2.1818	5.e-002	14.341
17736	7.8629	2.1818	0.	3925.8
17737	7.7707	2.0909	0.	3955.9
17738	7.7707	2.1818	5.e-002	13.404
17739	8.0474	2.1818	0.	3869.7
17740	7.9551	2.0909	0.	3899.2
17741	7.9551	2.1818	5.e-002	12.648
17742	8.2318	2.1818	0.	3815.6
17743	8.1396	2.0909	0.	3844.5
17744	8.1396	2.1818	5.e-002	12.038
17745	8.4162	2.1818	0.	3763.
17746	8.324	2.0909	0.	3791.5
17747	8.324	2.1818	5.e-002	11.542
17748	8.6006	2.1818	0.	3711.6
17749	8.5084	2.0909	0.	3739.6
17750	8.5084	2.1818	5.e-002	11.138
17751	8.785	2.1818	0.	3660.9
17752	8.6928	2.0909	0.	3688.5
17753	8.6928	2.1818	5.e-002	10.806
17754	8.9695	2.1818	0.	3610.8
17755	8.8773	2.0909	0.	3638.2
17756	8.8773	2.1818	5.e-002	10.53
17757	9.1539	2.1818	0.	3561.2
17758	9.0617	2.0909	0.	3588.2
17759	9.0617	2.1818	5.e-002	10.3
17760	9.3383	2.1818	0.	3511.9
17761	9.2461	2.0909	0.	3538.7
17762	9.2461	2.1818	5.e-002	10.106
17763	9.5227	2.1818	0.	3462.8
17764	9.4305	2.0909	0.	3489.4
17765	9.4305	2.1818	5.e-002	9.9398
17766	9.7072	2.1818	0.	3413.9
17767	9.615	2.0909	0.	3440.2
17768	9.615	2.1818	5.e-002	9.7964
17769	9.8916	2.1818	0.	3365.
17770	9.7994	2.0909	0.	3391.2
17771	9.7994	2.1818	5.e-002	9.671
17772	10.076	2.1818	0.	3316.3
17773	9.9838	2.0909	0.	3342.3
17774	9.9838	2.1818	5.e-002	9.5604
17775	10.26	2.1818	0.	3267.6
17776	10.168	2.0909	0.	3293.5
17777	10.168	2.1818	5.e-002	9.4614
17778	10.445	2.1818	0.	3218.9
17779	10.353	2.0909	0.	3244.7
17780	10.353	2.1818	5.e-002	9.3718
17781	10.629	2.1818	0.	3170.3
17782	10.537	2.0909	0.	3196.
17783	10.537	2.1818	5.e-002	9.2901
17784	10.814	2.1818	0.	3121.8
17785	10.721	2.0909	0.	3147.3
17786	10.721	2.1818	5.e-002	9.2151
17787	10.998	2.1818	0.	3073.2
17788	10.906	2.0909	0.	3098.6
17789	10.906	2.1818	5.e-002	9.1452
17790	11.183	2.1818	0.	3024.7
17791	11.09	2.0909	0.	3050.
17792	11.09	2.1818	5.e-002	9.0797
17793	11.367	2.1818	0.	2976.3
17794	11.275	2.0909	0.	3001.5
17795	11.275	2.1818	5.e-002	9.018
17796	11.551	2.1818	0.	2927.9
17797	11.459	2.0909	0.	2953.
17798	11.459	2.1818	5.e-002	8.9595
17799	11.736	2.1818	0.	2879.5
17800	11.644	2.0909	0.	2904.5
17801	11.644	2.1818	5.e-002	8.9036
17802	11.92	2.1818	0.	2831.3
17803	11.828	2.0909	0.	2856.2
17804	11.828	2.1818	5.e-002	8.8501
17805	12.105	2.1818	0.	2783.1
17806	12.012	2.0909	0.	2807.9
17807	12.012	2.1818	5.e-002	8.7987
17808	12.289	2.1818	0.	2735.
17809	12.197	2.0909	0.	2759.7
17810	12.197	2.1818	5.e-002	8.7489
17811	12.474	2.1818	0.	2687.
17812	12.381	2.0909	0.	2711.6
17813	12.381	2.1818	5.e-002	8.7006
17814	12.658	2.1818	0.	2639.1
17815	12.566	2.0909	0.	2663.7
17816	12.566	2.1818	5.e-002	8.6538
17817	12.842	2.1818	0.	2591.3
17818	12.75	2.0909	0.	2615.8
17819	12.75	2.1818	5.e-002	8.6082
17820	13.027	2.1818	0.	2543.7
17821	12.935	2.0909	0.	2568.
17822	12.935	2.1818	5.e-002	8.5636
17823	13.211	2.1818	0.	2496.1
17824	13.119	2.0909	0.	2520.4
17825	13.119	2.1818	5.e-002	8.5201
17826	13.396	2.1818	0.	2448.7
17827	13.303	2.0909	0.	2472.9
17828	13.303	2.1818	5.e-002	8.4776
17829	13.58	2.1818	0.	2401.5
17830	13.488	2.0909	0.	2425.5
17831	13.488	2.1818	5.e-002	8.4357
17832	13.764	2.1818	0.	2354.3
17833	13.672	2.0909	0.	2378.3
17834	13.672	2.1818	5.e-002	8.3946
17835	13.949	2.1818	0.	2307.4
17836	13.857	2.0909	0.	2331.2
17837	13.857	2.1818	5.e-002	8.3542
17838	14.133	2.1818	0.	2260.5
17839	14.041	2.0909	0.	2284.3
17840	14.041	2.1818	5.e-002	8.3146
17841	14.318	2.1818	0.	2213.9
17842	14.226	2.0909	0.	2237.5
17843	14.226	2.1818	5.e-002	8.2754
17844	14.502	2.1818	0.	2167.3
17845	14.41	2.0909	0.	2190.9
17846	14.41	2.1818	5.e-002	8.2369
17847	14.687	2.1818	0.	2121.
17848	14.594	2.0909	0.	2144.5
17849	14.594	2.1818	5.e-002	8.1989
17850	14.871	2.1818	0.	2074.8
17851	14.779	2.0909	0.	2098.2
17852	14.779	2.1818	5.e-002	8.1613
17853	15.055	2.1818	0.	2028.8
17854	14.963	2.0909	0.	2052.1
17855	14.963	2.1818	5.e-002	8.1242
17856	15.24	2.1818	0.	1983.
17857	15.148	2.0909	0.	2006.2
17858	15.148	2.1818	5.e-002	8.0878
17859	15.424	2.1818	0.	1937.4
17860	15.332	2.0909	0.	1960.5
17861	15.332	2.1818	5.e-002	8.0517
17862	15.609	2.1818	0.	1892.
17863	15.517	2.0909	0.	1914.9
17864	15.517	2.1818	5.e-002	8.0159
17865	15.793	2.1818	0.	1846.7
17866	15.701	2.0909	0.	1869.5
17867	15.701	2.1818	5.e-002	7.9807
17868	15.978	2.1818	0.	1801.7
17869	15.885	2.0909	0.	1824.4
17870	15.885	2.1818	5.e-002	7.9459
17871	16.162	2.1818	0.	1756.8
17872	16.07	2.0909	0.	1779.4
17873	16.07	2.1818	5.e-002	7.9114
17874	16.346	2.1818	0.	1712.1
17875	16.254	2.0909	0.	1734.6
17876	16.254	2.1818	5.e-002	7.8774
17877	16.531	2.1818	0.	1667.7
17878	16.439	2.0909	0.	1690.1
17879	16.439	2.1818	5.e-002	7.8438
17880	16.715	2.1818	0.	1623.5
17881	16.623	2.0909	0.	1645.7
17882	16.623	2.1818	5.e-002	7.8107
17883	16.9	2.1818	0.	1579.4
17884	16.807	2.0909	0.	1601.6
17885	16.807	2.1818	5.e-002	7.7779
17886	17.084	2.1818	0.	1535.6
17887	16.992	2.0909	0.	1557.6
17888	16.992	2.1818	5.e-002	7.7456
17889	17.269	2.1818	0.	1492.
17890	17.176	2.0909	0.	1513.9
17891	17.176	2.1818	5.e-002	7.7139
17892	17.453	2.1818	0.	1448.7
17893	17.361	2.0909	0.	1470.4
17894	17.361	2.1818	5.e-002	7.6824
17895	17.637	2.1818	0.	1405.5
17896	17.545	2.0909	0.	1427.2
17897	17.545	2.1818	5.e-002	7.6516
17898	17.822	2.1818	0.	1362.6
17899	17.73	2.0909	0.	1384.1
17900	17.73	2.1818	5.e-002	7.6213
17901	18.006	2.1818	0.	1320.
17902	17.914	2.0909	0.	1341.3
17903	17.914	2.1818	5.e-002	7.5916
17904	18.191	2.1818	0.	1277.5
17905	18.098	2.0909	0.	1298.7
17906	18.098	2.1818	5.e-002	7.5623
17907	18.375	2.1818	0.	1235.4
17908	18.283	2.0909	0.	1256.4
17909	18.283	2.1818	5.e-002	7.5338
17910	18.56	2.1818	0.	1193.5
17911	18.467	2.0909	0.	1214.4
17912	18.467	2.1818	5.e-002	7.506
17913	18.744	2.1818	0.	1151.8
17914	18.652	2.0909	0.	1172.5
17915	18.652	2.1818	5.e-002	7.4788
17916	18.928	2.1818	0.	1110.4
17917	18.836	2.0909	0.	1131.
17918	18.836	2.1818	5.e-002	7.4525
17919	19.113	2.1818	0.	1069.3
17920	19.021	2.0909	0.	1089.7
17921	19.021	2.1818	5.e-002	7.4271
17922	19.297	2.1818	0.	1028.5
17923	19.205	2.0909	0.	1048.7
17924	19.205	2.1818	5.e-002	7.4025
17925	19.482	2.1818	0.	987.93
17926	19.389	2.0909	0.	1008.
17927	19.389	2.1818	5.e-002	7.3789
17928	19.666	2.1818	0.	947.69
17929	19.574	2.0909	0.	967.51
17930	19.574	2.1818	5.e-002	7.3566
17931	19.85	2.1818	0.	907.75
17932	19.758	2.0909	0.	927.37
17933	19.758	2.1818	5.e-002	7.3354
17934	20.035	2.1818	0.	868.14
17935	19.943	2.0909	0.	887.54
17936	19.943	2.1818	5.e-002	7.3156
17937	20.219	2.1818	0.	828.85
17938	20.127	2.0909	0.	848.03
17939	20.127	2.1818	5.e-002	7.2974
17940	20.404	2.1818	0.	789.91
17941	20.312	2.0909	0.	808.85
17942	20.312	2.1818	5.e-002	7.2808
17943	20.588	2.1818	0.	751.34
17944	20.496	2.0909	0.	770.02
17945	20.496	2.1818	5.e-002	7.2661
17946	20.773	2.1818	0.	713.13
17947	20.68	2.0909	0.	731.55
17948	20.68	2.1818	5.e-002	7.2534
17949	20.957	2.1818	0.	675.33
17950	20.865	2.0909	0.	693.46
17951	20.865	2.1818	5.e-002	7.2432
17952	21.141	2.1818	0.	637.94
17953	21.049	2.0909	0.	655.77
17954	21.049	2.1818	5.e-002	7.2356
17955	21.326	2.1818	0.	601.
17956	21.234	2.0909	0.	618.51
17957	21.234	2.1818	5.e-002	7.231
17958	21.51	2.1818	0.	564.54
17959	21.418	2.0909	0.	581.7
17960	21.418	2.1818	5.e-002	7.2299
17961	21.695	2.1818	0.	528.59
17962	21.602	2.0909	0.	545.38
17963	21.602	2.1818	5.e-002	7.2326
17964	21.879	2.1818	0.	493.19
17965	21.787	2.0909	0.	509.59
17966	21.787	2.1818	5.e-002	7.2396
17967	22.064	2.1818	0.	458.42
17968	21.971	2.0909	0.	474.38
17969	21.971	2.1818	5.e-002	7.2516
17970	22.248	2.1818	0.	424.33
17971	22.156	2.0909	0.	439.82
17972	22.156	2.1818	5.e-002	7.2692
17973	22.432	2.1818	0.	391.02
17974	22.34	2.0909	0.	405.99
17975	22.34	2.1818	5.e-002	7.2932
17976	22.617	2.1818	0.	358.61
17977	22.525	2.0909	0.	372.99
17978	22.525	2.1818	5.e-002	7.3242
17979	22.801	2.1818	0.	327.28
17980	22.709	2.0909	0.	340.98
17981	22.709	2.1818	5.e-002	7.3632
17982	22.986	2.1818	0.	297.26
17983	22.893	2.0909	0.	310.15
17984	22.893	2.1818	5.e-002	7.4107
17985	23.17	2.1818	0.	268.88
17986	23.078	2.0909	0.	280.79
17987	23.078	2.1818	5.e-002	7.4674
17988	23.355	2.1818	0.	242.64
17989	23.262	2.0909	0.	253.31
17990	23.262	2.1818	5.e-002	7.5336
17991	23.539	2.1818	0.	219.21
17992	23.447	2.0909	0.	228.26
17993	23.447	2.1818	5.e-002	7.6093
17994	23.723	2.1818	0.	199.54
17995	23.631	2.0909	0.	206.49
17996	23.631	2.1818	5.e-002	7.6958
17997	23.816	2.0909	0.	189.1
17998	23.816	2.1818	5.e-002	7.8267
17999	23.908	2.1818	0.	185.41
18000	4.5433	2.	0.	11660
18001	4.4511	1.9091	0.	12688
18002	4.4511	2.	5.e-002	1547.8
18003	4.3589	2.	0.	20520
18004	4.7277	2.	0.	8517.1
18005	4.6355	1.9091	0.	8825.8
18006	4.6355	2.	5.e-002	267.13
18007	4.9121	2.	0.	7200.
18008	4.8199	1.9091	0.	7316.4
18009	4.8199	2.	5.e-002	172.55
18010	5.0966	2.	0.	6407.9
18011	5.0044	1.9091	0.	6463.2
18012	5.0044	2.	5.e-002	115.07
18013	5.281	2.	0.	5874.1
18014	5.1888	1.9091	0.	5902.2
18015	5.1888	2.	5.e-002	86.639
18016	5.4654	2.	0.	5492.5
18017	5.3732	1.9091	0.	5511.1
18018	5.3732	2.	5.e-002	68.386
18019	5.6498	2.	0.	5205.9
18020	5.5576	1.9091	0.	5222.6
18021	5.5576	2.	5.e-002	55.785
18022	5.8343	2.	0.	4983.1
18023	5.7421	1.9091	0.	5001.3
18024	5.7421	2.	5.e-002	46.412
18025	6.0187	2.	0.	4804.5
18026	5.9265	1.9091	0.	4825.3
18027	5.9265	2.	5.e-002	39.167
18028	6.2031	2.	0.	4657.7
18029	6.1109	1.9091	0.	4681.2
18030	6.1109	2.	5.e-002	33.425
18031	6.3875	2.	0.	4534.3
18032	6.2953	1.9091	0.	4560.1
18033	6.2953	2.	5.e-002	28.812
18034	6.572	2.	0.	4428.4
18035	6.4798	1.9091	0.	4456.
18036	6.4798	2.	5.e-002	25.083
18037	6.7564	2.	0.	4335.8
18038	6.6642	1.9091	0.	4364.6
18039	6.6642	2.	5.e-002	22.062
18040	6.9408	2.	0.	4253.5
18041	6.8486	1.9091	0.	4283.
18042	6.8486	2.	5.e-002	19.617
18043	7.1252	2.	0.	4179.
18044	7.033	1.9091	0.	4208.9
18045	7.033	2.	5.e-002	17.641
18046	7.3097	2.	0.	4110.5
18047	7.2174	1.9091	0.	4140.6
18048	7.2174	2.	5.e-002	16.049
18049	7.4941	2.	0.	4046.8
18050	7.4019	1.9091	0.	4076.8
18051	7.4019	2.	5.e-002	14.768
18052	7.6785	2.	0.	3986.6
18053	7.5863	1.9091	0.	4016.5
18054	7.5863	2.	5.e-002	13.74
18055	7.8629	2.	0.	3929.2
18056	7.7707	1.9091	0.	3958.8
18057	7.7707	2.	5.e-002	12.915
18058	8.0474	2.	0.	3874.
18059	7.9551	1.9091	0.	3903.3
18060	7.9551	2.	5.e-002	12.251
18061	8.2318	2.	0.	3820.4
18062	8.1396	1.9091	0.	3849.3
18063	8.1396	2.	5.e-002	11.716
18064	8.4162	2.	0.	3768.
18065	8.324	1.9091	0.	3796.6
18066	8.324	2.	5.e-002	11.282
18067	8.6006	2.	0.	3716.5
18068	8.5084	1.9091	0.	3744.8
18069	8.5084	2.	5.e-002	10.928
18070	8.785	2.	0.	3665.8
18071	8.6928	1.9091	0.	3693.8
18072	8.6928	2.	5.e-002	10.637
18073	8.9695	2.	0.	3615.6
18074	8.8773	1.9091	0.	3643.3
18075	8.8773	2.	5.e-002	10.395
18076	9.1539	2.	0.	3565.7
18077	9.0617	1.9091	0.	3593.2
18078	9.0617	2.	5.e-002	10.191
18079	9.3383	2.	0.	3516.2
18080	9.2461	1.9091	0.	3543.4
18081	9.2461	2.	5.e-002	10.018
18082	9.5227	2.	0.	3466.8
18083	9.4305	1.9091	0.	3493.8
18084	9.4305	2.	5.e-002	9.8697
18085	9.7072	2.	0.	3417.6
18086	9.615	1.9091	0.	3444.4
18087	9.615	2.	5.e-002	9.7401
18088	9.8916	2.	0.	3368.5
18089	9.7994	1.9091	0.	3395.1
18090	9.7994	2.	5.e-002	9.6259
18091	10.076	2.	0.	3319.5
18092	9.9838	1.9091	0.	3345.9
18093	9.9838	2.	5.e-002	9.524
18094	10.26	2.	0.	3270.6
18095	10.168	1.9091	0.	3296.9
18096	10.168	2.	5.e-002	9.4321
18097	10.445	2.	0.	3221.7
18098	10.353	1.9091	0.	3247.8
18099	10.353	2.	5.e-002	9.3481
18100	10.629	2.	0.	3172.9
18101	10.537	1.9091	0.	3198.9
18102	10.537	2.	5.e-002	9.2709
18103	10.814	2.	0.	3124.2
18104	10.721	1.9091	0.	3150.
18105	10.721	2.	5.e-002	9.1994
18106	10.998	2.	0.	3075.4
18107	10.906	1.9091	0.	3101.1
18108	10.906	2.	5.e-002	9.1324
18109	11.183	2.	0.	3026.8
18110	11.09	1.9091	0.	3052.4
18111	11.09	2.	5.e-002	9.069
18112	11.367	2.	0.	2978.2
18113	11.275	1.9091	0.	3003.6
18114	11.275	2.	5.e-002	9.0092
18115	11.551	2.	0.	2929.7
18116	11.459	1.9091	0.	2955.
18117	11.459	2.	5.e-002	8.9521
18118	11.736	2.	0.	2881.2
18119	11.644	1.9091	0.	2906.4
18120	11.644	2.	5.e-002	8.8973
18121	11.92	2.	0.	2832.9
18122	11.828	1.9091	0.	2858.
18123	11.828	2.	5.e-002	8.8448
18124	12.105	2.	0.	2784.6
18125	12.012	1.9091	0.	2809.6
18126	12.012	2.	5.e-002	8.7941
18127	12.289	2.	0.	2736.4
18128	12.197	1.9091	0.	2761.3
18129	12.197	2.	5.e-002	8.7449
18130	12.474	2.	0.	2688.3
18131	12.381	1.9091	0.	2713.1
18132	12.381	2.	5.e-002	8.6971
18133	12.658	2.	0.	2640.3
18134	12.566	1.9091	0.	2665.
18135	12.566	2.	5.e-002	8.6507
18136	12.842	2.	0.	2592.5
18137	12.75	1.9091	0.	2617.1
18138	12.75	2.	5.e-002	8.6055
18139	13.027	2.	0.	2544.8
18140	12.935	1.9091	0.	2569.2
18141	12.935	2.	5.e-002	8.5612
18142	13.211	2.	0.	2497.2
18143	13.119	1.9091	0.	2521.5
18144	13.119	2.	5.e-002	8.5179
18145	13.396	2.	0.	2449.7
18146	13.303	1.9091	0.	2474.
18147	13.303	2.	5.e-002	8.4756
18148	13.58	2.	0.	2402.4
18149	13.488	1.9091	0.	2426.6
18150	13.488	2.	5.e-002	8.4339
18151	13.764	2.	0.	2355.2
18152	13.672	1.9091	0.	2379.3
18153	13.672	2.	5.e-002	8.3929
18154	13.949	2.	0.	2308.2
18155	13.857	1.9091	0.	2332.2
18156	13.857	2.	5.e-002	8.3527
18157	14.133	2.	0.	2261.3
18158	14.041	1.9091	0.	2285.2
18159	14.041	2.	5.e-002	8.3132
18160	14.318	2.	0.	2214.6
18161	14.226	1.9091	0.	2238.4
18162	14.226	2.	5.e-002	8.2741
18163	14.502	2.	0.	2168.1
18164	14.41	1.9091	0.	2191.7
18165	14.41	2.	5.e-002	8.2356
18166	14.687	2.	0.	2121.7
18167	14.594	1.9091	0.	2145.3
18168	14.594	2.	5.e-002	8.1977
18169	14.871	2.	0.	2075.5
18170	14.779	1.9091	0.	2099.
18171	14.779	2.	5.e-002	8.1602
18172	15.055	2.	0.	2029.5
18173	14.963	1.9091	0.	2052.8
18174	14.963	2.	5.e-002	8.1232
18175	15.24	2.	0.	1983.6
18176	15.148	1.9091	0.	2006.9
18177	15.148	2.	5.e-002	8.0868
18178	15.424	2.	0.	1938.
18179	15.332	1.9091	0.	1961.1
18180	15.332	2.	5.e-002	8.0508
18181	15.609	2.	0.	1892.5
18182	15.517	1.9091	0.	1915.5
18183	15.517	2.	5.e-002	8.015
18184	15.793	2.	0.	1847.3
18185	15.701	1.9091	0.	1870.2
18186	15.701	2.	5.e-002	7.9798
18187	15.978	2.	0.	1802.2
18188	15.885	1.9091	0.	1825.
18189	15.885	2.	5.e-002	7.9451
18190	16.162	2.	0.	1757.3
18191	16.07	1.9091	0.	1780.
18192	16.07	2.	5.e-002	7.9106
18193	16.346	2.	0.	1712.6
18194	16.254	1.9091	0.	1735.2
18195	16.254	2.	5.e-002	7.8766
18196	16.531	2.	0.	1668.1
18197	16.439	1.9091	0.	1690.6
18198	16.439	2.	5.e-002	7.843
18199	16.715	2.	0.	1623.9
18200	16.623	1.9091	0.	1646.2
18201	16.623	2.	5.e-002	7.8099
18202	16.9	2.	0.	1579.8
18203	16.807	1.9091	0.	1602.
18204	16.807	2.	5.e-002	7.7771
18205	17.084	2.	0.	1536.
18206	16.992	1.9091	0.	1558.
18207	16.992	2.	5.e-002	7.7448
18208	17.269	2.	0.	1492.4
18209	17.176	1.9091	0.	1514.3
18210	17.176	2.	5.e-002	7.713
18211	17.453	2.	0.	1449.
18212	17.361	1.9091	0.	1470.8
18213	17.361	2.	5.e-002	7.6816
18214	17.637	2.	0.	1405.8
18215	17.545	1.9091	0.	1427.5
18216	17.545	2.	5.e-002	7.6508
18217	17.822	2.	0.	1362.8
18218	17.73	1.9091	0.	1384.4
18219	17.73	2.	5.e-002	7.6205
18220	18.006	2.	0.	1320.1
18221	17.914	1.9091	0.	1341.5
18222	17.914	2.	5.e-002	7.5906
18223	18.191	2.	0.	1277.7
18224	18.098	1.9091	0.	1298.9
18225	18.098	2.	5.e-002	7.5614
18226	18.375	2.	0.	1235.5
18227	18.283	1.9091	0.	1256.6
18228	18.283	2.	5.e-002	7.5328
18229	18.56	2.	0.	1193.5
18230	18.467	1.9091	0.	1214.4
18231	18.467	2.	5.e-002	7.5049
18232	18.744	2.	0.	1151.8
18233	18.652	1.9091	0.	1172.6
18234	18.652	2.	5.e-002	7.4776
18235	18.928	2.	0.	1110.3
18236	18.836	1.9091	0.	1130.9
18237	18.836	2.	5.e-002	7.4512
18238	19.113	2.	0.	1069.1
18239	19.021	1.9091	0.	1089.6
18240	19.021	2.	5.e-002	7.4257
18241	19.297	2.	0.	1028.2
18242	19.205	1.9091	0.	1048.5
18243	19.205	2.	5.e-002	7.401
18244	19.482	2.	0.	987.59
18245	19.389	1.9091	0.	1007.7
18246	19.389	2.	5.e-002	7.3773
18247	19.666	2.	0.	947.26
18248	19.574	1.9091	0.	967.12
18249	19.574	2.	5.e-002	7.3548
18250	19.85	2.	0.	907.22
18251	19.758	1.9091	0.	926.87
18252	19.758	2.	5.e-002	7.3334
18253	20.035	2.	0.	867.49
18254	19.943	1.9091	0.	886.92
18255	19.943	2.	5.e-002	7.3134
18256	20.219	2.	0.	828.08
18257	20.127	1.9091	0.	847.28
18258	20.127	2.	5.e-002	7.2948
18259	20.404	2.	0.	789.01
18260	20.312	1.9091	0.	807.96
18261	20.312	2.	5.e-002	7.2779
18262	20.588	2.	0.	750.28
18263	20.496	1.9091	0.	768.98
18264	20.496	2.	5.e-002	7.2628
18265	20.773	2.	0.	711.92
18266	20.68	1.9091	0.	730.34
18267	20.68	2.	5.e-002	7.2497
18268	20.957	2.	0.	673.95
18269	20.865	1.9091	0.	692.08
18270	20.865	2.	5.e-002	7.2389
18271	21.141	2.	0.	636.38
18272	21.049	1.9091	0.	654.2
18273	21.049	2.	5.e-002	7.2306
18274	21.326	2.	0.	599.25
18275	21.234	1.9091	0.	616.73
18276	21.234	2.	5.e-002	7.2252
18277	21.51	2.	0.	562.57
18278	21.418	1.9091	0.	579.7
18279	21.418	2.	5.e-002	7.2231
18280	21.695	2.	0.	526.4
18281	21.602	1.9091	0.	543.14
18282	21.602	2.	5.e-002	7.2247
18283	21.879	2.	0.	490.78
18284	21.787	1.9091	0.	507.1
18285	21.787	2.	5.e-002	7.2306
18286	22.064	2.	0.	455.77
18287	21.971	1.9091	0.	471.63
18288	21.971	2.	5.e-002	7.2413
18289	22.248	2.	0.	421.44
18290	22.156	1.9091	0.	436.8
18291	22.156	2.	5.e-002	7.2576
18292	22.432	2.	0.	387.89
18293	22.34	1.9091	0.	402.7
18294	22.34	2.	5.e-002	7.2802
18295	22.617	2.	0.	355.24
18296	22.525	1.9091	0.	369.42
18297	22.525	2.	5.e-002	7.31
18298	22.801	2.	0.	323.67
18299	22.709	1.9091	0.	337.14
18300	22.709	2.	5.e-002	7.348
18301	22.986	2.	0.	293.41
18302	22.893	1.9091	0.	306.04
18303	22.893	2.	5.e-002	7.3952
18304	23.17	2.	0.	264.81
18305	23.078	1.9091	0.	276.41
18306	23.078	2.	5.e-002	7.4522
18307	23.355	2.	0.	238.34
18308	23.262	1.9091	0.	248.66
18309	23.262	2.	5.e-002	7.5199
18310	23.539	2.	0.	214.7
18311	23.447	1.9091	0.	223.37
18312	23.447	2.	5.e-002	7.5984
18313	23.723	2.	0.	194.88
18314	23.631	1.9091	0.	201.39
18315	23.631	2.	5.e-002	7.6898
18316	23.816	1.9091	0.	183.87
18317	23.816	2.	5.e-002	7.8406
18318	23.908	2.	0.	180.58
18319	4.5433	1.8182	0.	9878.7
18320	4.4511	1.7273	0.	10095
18321	4.4511	1.8182	5.e-002	852.74
18322	4.3589	1.8182	0.	10013
18323	4.7277	1.8182	0.	7626.9
18324	4.6355	1.7273	0.	7671.6
18325	4.6355	1.8182	5.e-002	286.19
18326	4.9121	1.8182	0.	6569.5
18327	4.8199	1.7273	0.	6556.3
18328	4.8199	1.8182	5.e-002	131.86
18329	5.0966	1.8182	0.	5949.5
18330	5.0044	1.7273	0.	5923.1
18331	5.0044	1.8182	5.e-002	95.044
18332	5.281	1.8182	0.	5533.5
18333	5.1888	1.7273	0.	5503.3
18334	5.1888	1.8182	5.e-002	74.046
18335	5.4654	1.8182	0.	5237.6
18336	5.3732	1.7273	0.	5212.8
18337	5.3732	1.8182	5.e-002	59.421
18338	5.6498	1.8182	0.	5015.7
18339	5.5576	1.7273	0.	4999.5
18340	5.5576	1.8182	5.e-002	48.977
18341	5.8343	1.8182	0.	4842.3
18342	5.7421	1.7273	0.	4835.2
18343	5.7421	1.8182	5.e-002	41.062
18344	6.0187	1.8182	0.	4701.4
18345	5.9265	1.7273	0.	4702.8
18346	5.9265	1.8182	5.e-002	34.879
18347	6.2031	1.8182	0.	4583.3
18348	6.1109	1.7273	0.	4592.
18349	6.1109	1.8182	5.e-002	29.948
18350	6.3875	1.8182	0.	4481.7
18351	6.2953	1.7273	0.	4496.2
18352	6.2953	1.8182	5.e-002	25.972
18353	6.572	1.8182	0.	4392.2
18354	6.4798	1.7273	0.	4411.2
18355	6.4798	1.8182	5.e-002	22.751
18356	6.7564	1.8182	0.	4311.9
18357	6.6642	1.7273	0.	4334.3
18358	6.6642	1.8182	5.e-002	20.142
18359	6.9408	1.8182	0.	4238.5
18360	6.8486	1.7273	0.	4263.4
18361	6.8486	1.8182	5.e-002	18.033
18362	7.1252	1.8182	0.	4170.6
18363	7.033	1.7273	0.	4197.2
18364	7.033	1.8182	5.e-002	16.336
18365	7.3097	1.8182	0.	4106.9
18366	7.2174	1.7273	0.	4134.6
18367	7.2174	1.8182	5.e-002	14.975
18368	7.4941	1.8182	0.	4046.5
18369	7.4019	1.7273	0.	4074.9
18370	7.4019	1.8182	5.e-002	13.888
18371	7.6785	1.8182	0.	3988.7
18372	7.5863	1.7273	0.	4017.5
18373	7.5863	1.8182	5.e-002	13.02
18374	7.8629	1.8182	0.	3932.9
18375	7.7707	1.7273	0.	3961.8
18376	7.7707	1.8182	5.e-002	12.329
18377	8.0474	1.8182	0.	3878.6
18378	7.9551	1.7273	0.	3907.6
18379	7.9551	1.8182	5.e-002	11.776
18380	8.2318	1.8182	0.	3825.6
18381	8.1396	1.7273	0.	3854.5
18382	8.1396	1.8182	5.e-002	11.332
18383	8.4162	1.8182	0.	3773.5
18384	8.324	1.7273	0.	3802.2
18385	8.324	1.8182	5.e-002	10.973
18386	8.6006	1.8182	0.	3722.1
18387	8.5084	1.7273	0.	3750.6
18388	8.5084	1.8182	5.e-002	10.68
18389	8.785	1.8182	0.	3671.3
18390	8.6928	1.7273	0.	3699.6
18391	8.6928	1.8182	5.e-002	10.438
18392	8.9695	1.8182	0.	3620.9
18393	8.8773	1.7273	0.	3649.
18394	8.8773	1.8182	5.e-002	10.235
18395	9.1539	1.8182	0.	3570.8
18396	9.0617	1.7273	0.	3598.7
18397	9.0617	1.8182	5.e-002	10.064
18398	9.3383	1.8182	0.	3521.
18399	9.2461	1.7273	0.	3548.6
18400	9.2461	1.8182	5.e-002	9.9166
18401	9.5227	1.8182	0.	3471.4
18402	9.4305	1.7273	0.	3498.8
18403	9.4305	1.8182	5.e-002	9.7882
18404	9.7072	1.8182	0.	3421.9
18405	9.615	1.7273	0.	3449.1
18406	9.615	1.8182	5.e-002	9.6749
18407	9.8916	1.8182	0.	3372.6
18408	9.7994	1.7273	0.	3399.5
18409	9.7994	1.8182	5.e-002	9.5736
18410	10.076	1.8182	0.	3323.3
18411	9.9838	1.7273	0.	3350.1
18412	9.9838	1.8182	5.e-002	9.4821
18413	10.26	1.8182	0.	3274.1
18414	10.168	1.7273	0.	3300.7
18415	10.168	1.8182	5.e-002	9.3983
18416	10.445	1.8182	0.	3225.
18417	10.353	1.7273	0.	3251.4
18418	10.353	1.8182	5.e-002	9.3208
18419	10.629	1.8182	0.	3175.9
18420	10.537	1.7273	0.	3202.2
18421	10.537	1.8182	5.e-002	9.2487
18422	10.814	1.8182	0.	3127.
18423	10.721	1.7273	0.	3153.1
18424	10.721	1.8182	5.e-002	9.1812
18425	10.998	1.8182	0.	3078.1
18426	10.906	1.7273	0.	3104.
18427	10.906	1.8182	5.e-002	9.1175
18428	11.183	1.8182	0.	3029.2
18429	11.09	1.7273	0.	3055.
18430	11.09	1.8182	5.e-002	9.0567
18431	11.367	1.8182	0.	2980.5
18432	11.275	1.7273	0.	3006.2
18433	11.275	1.8182	5.e-002	8.9989
18434	11.551	1.8182	0.	2931.8
18435	11.459	1.7273	0.	2957.3
18436	11.459	1.8182	5.e-002	8.9435
18437	11.736	1.8182	0.	2883.2
18438	11.644	1.7273	0.	2908.6
18439	11.644	1.8182	5.e-002	8.89
18440	11.92	1.8182	0.	2834.7
18441	11.828	1.7273	0.	2860.
18442	11.828	1.8182	5.e-002	8.8386
18443	12.105	1.8182	0.	2786.3
18444	12.012	1.7273	0.	2811.5
18445	12.012	1.8182	5.e-002	8.7888
18446	12.289	1.8182	0.	2738.
18447	12.197	1.7273	0.	2763.1
18448	12.197	1.8182	5.e-002	8.7403
18449	12.474	1.8182	0.	2689.8
18450	12.381	1.7273	0.	2714.8
18451	12.381	1.8182	5.e-002	8.693
18452	12.658	1.8182	0.	2641.8
18453	12.566	1.7273	0.	2666.6
18454	12.566	1.8182	5.e-002	8.6471
18455	12.842	1.8182	0.	2593.9
18456	12.75	1.7273	0.	2618.6
18457	12.75	1.8182	5.e-002	8.6023
18458	13.027	1.8182	0.	2546.1
18459	12.935	1.7273	0.	2570.7
18460	12.935	1.8182	5.e-002	8.5583
18461	13.211	1.8182	0.	2498.4
18462	13.119	1.7273	0.	2522.9
18463	13.119	1.8182	5.e-002	8.5153
18464	13.396	1.8182	0.	2450.9
18465	13.303	1.7273	0.	2475.3
18466	13.303	1.8182	5.e-002	8.4732
18467	13.58	1.8182	0.	2403.5
18468	13.488	1.7273	0.	2427.8
18469	13.488	1.8182	5.e-002	8.4318
18470	13.764	1.8182	0.	2356.3
18471	13.672	1.7273	0.	2380.4
18472	13.672	1.8182	5.e-002	8.3909
18473	13.949	1.8182	0.	2309.2
18474	13.857	1.7273	0.	2333.3
18475	13.857	1.8182	5.e-002	8.3509
18476	14.133	1.8182	0.	2262.3
18477	14.041	1.7273	0.	2286.2
18478	14.041	1.8182	5.e-002	8.3115
18479	14.318	1.8182	0.	2215.5
18480	14.226	1.7273	0.	2239.4
18481	14.226	1.8182	5.e-002	8.2725
18482	14.502	1.8182	0.	2168.9
18483	14.41	1.7273	0.	2192.7
18484	14.41	1.8182	5.e-002	8.2342
18485	14.687	1.8182	0.	2122.5
18486	14.594	1.7273	0.	2146.2
18487	14.594	1.8182	5.e-002	8.1964
18488	14.871	1.8182	0.	2076.3
18489	14.779	1.7273	0.	2099.8
18490	14.779	1.8182	5.e-002	8.1589
18491	15.055	1.8182	0.	2030.3
18492	14.963	1.7273	0.	2053.7
18493	14.963	1.8182	5.e-002	8.122
18494	15.24	1.8182	0.	1984.4
18495	15.148	1.7273	0.	2007.7
18496	15.148	1.8182	5.e-002	8.0856
18497	15.424	1.8182	0.	1938.7
18498	15.332	1.7273	0.	1961.9
18499	15.332	1.8182	5.e-002	8.0496
18500	15.609	1.8182	0.	1893.2
18501	15.517	1.7273	0.	1916.3
18502	15.517	1.8182	5.e-002	8.0139
18503	15.793	1.8182	0.	1847.9
18504	15.701	1.7273	0.	1870.9
18505	15.701	1.8182	5.e-002	7.9788
18506	15.978	1.8182	0.	1802.8
18507	15.885	1.7273	0.	1825.6
18508	15.885	1.8182	5.e-002	7.944
18509	16.162	1.8182	0.	1757.9
18510	16.07	1.7273	0.	1780.6
18511	16.07	1.8182	5.e-002	7.9096
18512	16.346	1.8182	0.	1713.2
18513	16.254	1.7273	0.	1735.8
18514	16.254	1.8182	5.e-002	7.8756
18515	16.531	1.8182	0.	1668.7
18516	16.439	1.7273	0.	1691.2
18517	16.439	1.8182	5.e-002	7.8421
18518	16.715	1.8182	0.	1624.4
18519	16.623	1.7273	0.	1646.8
18520	16.623	1.8182	5.e-002	7.809
18521	16.9	1.8182	0.	1580.3
18522	16.807	1.7273	0.	1602.5
18523	16.807	1.8182	5.e-002	7.7762
18524	17.084	1.8182	0.	1536.4
18525	16.992	1.7273	0.	1558.5
18526	16.992	1.8182	5.e-002	7.7439
18527	17.269	1.8182	0.	1492.8
18528	17.176	1.7273	0.	1514.8
18529	17.176	1.8182	5.e-002	7.7121
18530	17.453	1.8182	0.	1449.3
18531	17.361	1.7273	0.	1471.2
18532	17.361	1.8182	5.e-002	7.6806
18533	17.637	1.8182	0.	1406.1
18534	17.545	1.7273	0.	1427.8
18535	17.545	1.8182	5.e-002	7.6497
18536	17.822	1.8182	0.	1363.1
18537	17.73	1.7273	0.	1384.7
18538	17.73	1.8182	5.e-002	7.6194
18539	18.006	1.8182	0.	1320.4
18540	17.914	1.7273	0.	1341.8
18541	17.914	1.8182	5.e-002	7.5895
18542	18.191	1.8182	0.	1277.9
18543	18.098	1.7273	0.	1299.2
18544	18.098	1.8182	5.e-002	7.5602
18545	18.375	1.8182	0.	1235.6
18546	18.283	1.7273	0.	1256.7
18547	18.283	1.8182	5.e-002	7.5316
18548	18.56	1.8182	0.	1193.5
18549	18.467	1.7273	0.	1214.5
18550	18.467	1.8182	5.e-002	7.5036
18551	18.744	1.8182	0.	1151.8
18552	18.652	1.7273	0.	1172.6
18553	18.652	1.8182	5.e-002	7.4763
18554	18.928	1.8182	0.	1110.2
18555	18.836	1.7273	0.	1130.9
18556	18.836	1.8182	5.e-002	7.4497
18557	19.113	1.8182	0.	1069.
18558	19.021	1.7273	0.	1089.5
18559	19.021	1.8182	5.e-002	7.4241
18560	19.297	1.8182	0.	1028.
18561	19.205	1.7273	0.	1048.3
18562	19.205	1.8182	5.e-002	7.3993
18563	19.482	1.8182	0.	987.23
18564	19.389	1.7273	0.	1007.3
18565	19.389	1.8182	5.e-002	7.3754
18566	19.666	1.8182	0.	946.79
18567	19.574	1.7273	0.	966.7
18568	19.574	1.8182	5.e-002	7.3526
18569	19.85	1.8182	0.	906.63
18570	19.758	1.7273	0.	926.33
18571	19.758	1.8182	5.e-002	7.3311
18572	20.035	1.8182	0.	866.77
18573	19.943	1.7273	0.	886.25
18574	19.943	1.8182	5.e-002	7.3107
18575	20.219	1.8182	0.	827.22
18576	20.127	1.7273	0.	846.46
18577	20.127	1.8182	5.e-002	7.2918
18578	20.404	1.8182	0.	787.99
18579	20.312	1.7273	0.	806.99
18580	20.312	1.8182	5.e-002	7.2745
18581	20.588	1.8182	0.	749.09
18582	20.496	1.7273	0.	767.83
18583	20.496	1.8182	5.e-002	7.2589
18584	20.773	1.8182	0.	710.55
18585	20.68	1.7273	0.	729.
18586	20.68	1.8182	5.e-002	7.2452
18587	20.957	1.8182	0.	672.37
18588	20.865	1.7273	0.	690.53
18589	20.865	1.8182	5.e-002	7.2337
18590	21.141	1.8182	0.	634.58
18591	21.049	1.7273	0.	652.42
18592	21.049	1.8182	5.e-002	7.2247
18593	21.326	1.8182	0.	597.21
18594	21.234	1.7273	0.	614.71
18595	21.234	1.8182	5.e-002	7.2184
18596	21.51	1.8182	0.	560.29
18597	21.418	1.7273	0.	577.42
18598	21.418	1.8182	5.e-002	7.2152
18599	21.695	1.8182	0.	523.86
18600	21.602	1.7273	0.	540.58
18601	21.602	1.8182	5.e-002	7.2156
18602	21.879	1.8182	0.	487.96
18603	21.787	1.7273	0.	504.25
18604	21.787	1.8182	5.e-002	7.22
18605	22.064	1.8182	0.	452.66
18606	21.971	1.7273	0.	468.47
18607	21.971	1.8182	5.e-002	7.2292
18608	22.248	1.8182	0.	418.03
18609	22.156	1.7273	0.	433.31
18610	22.156	1.8182	5.e-002	7.2438
18611	22.432	1.8182	0.	384.17
18612	22.34	1.7273	0.	398.86
18613	22.34	1.8182	5.e-002	7.2647
18614	22.617	1.8182	0.	351.21
18615	22.525	1.7273	0.	365.25
18616	22.525	1.8182	5.e-002	7.2929
18617	22.801	1.8182	0.	319.34
18618	22.709	1.7273	0.	332.61
18619	22.709	1.8182	5.e-002	7.3295
18620	22.986	1.8182	0.	288.77
18621	22.893	1.7273	0.	301.16
18622	22.893	1.8182	5.e-002	7.3759
18623	23.17	1.8182	0.	259.87
18624	23.078	1.7273	0.	271.19
18625	23.078	1.8182	5.e-002	7.4331
18626	23.355	1.8182	0.	233.12
18627	23.262	1.7273	0.	243.11
18628	23.262	1.8182	5.e-002	7.5024
18629	23.539	1.8182	0.	209.22
18630	23.447	1.7273	0.	217.51
18631	23.447	1.8182	5.e-002	7.5841
18632	23.723	1.8182	0.	189.19
18633	23.631	1.7273	0.	195.25
18634	23.631	1.8182	5.e-002	7.6816
18635	23.816	1.7273	0.	177.57
18636	23.816	1.8182	5.e-002	7.8567
18637	23.908	1.8182	0.	174.69
18638	4.5433	1.6364	0.	7696.1
18639	4.4511	1.5455	0.	7648.7
18640	4.4511	1.6364	5.e-002	469.71
18641	4.3589	1.6364	0.	6931.1
18642	4.7277	1.6364	0.	6551.2
18643	4.6355	1.5455	0.	6390.
18644	4.6355	1.6364	5.e-002	185.41
18645	4.9121	1.6364	0.	5887.4
18646	4.8199	1.5455	0.	5757.8
18647	4.8199	1.6364	5.e-002	114.87
18648	5.0966	1.6364	0.	5463.
18649	5.0044	1.5455	0.	5354.5
18650	5.0044	1.6364	5.e-002	82.052
18651	5.281	1.6364	0.	5174.
18652	5.1888	1.5455	0.	5086.1
18653	5.1888	1.6364	5.e-002	63.21
18654	5.4654	1.6364	0.	4969.6
18655	5.3732	1.5455	0.	4902.
18656	5.3732	1.6364	5.e-002	51.477
18657	5.6498	1.6364	0.	4815.9
18658	5.5576	1.5455	0.	4767.3
18659	5.5576	1.6364	5.e-002	42.723
18660	5.8343	1.6364	0.	4694.
18661	5.7421	1.5455	0.	4662.3
18662	5.7421	1.6364	5.e-002	35.993
18663	6.0187	1.6364	0.	4592.5
18664	5.9265	1.5455	0.	4574.9
18665	5.9265	1.6364	5.e-002	30.68
18666	6.2031	1.6364	0.	4504.4
18667	6.1109	1.5455	0.	4498.5
18668	6.1109	1.6364	5.e-002	26.426
18669	6.3875	1.6364	0.	4425.5
18670	6.2953	1.5455	0.	4428.9
18671	6.2953	1.6364	5.e-002	23.
18672	6.572	1.6364	0.	4353.2
18673	6.4798	1.5455	0.	4363.7
18674	6.4798	1.6364	5.e-002	20.239
18675	6.7564	1.6364	0.	4285.8
18676	6.6642	1.5455	0.	4301.8
18677	6.6642	1.6364	5.e-002	18.023
18678	6.9408	1.6364	0.	4222.1
18679	6.8486	1.5455	0.	4242.1
18680	6.8486	1.6364	5.e-002	16.253
18681	7.1252	1.6364	0.	4161.2
18682	7.033	1.5455	0.	4184.2
18683	7.033	1.6364	5.e-002	14.848
18684	7.3097	1.6364	0.	4102.7
18685	7.2174	1.5455	0.	4127.7
18686	7.2174	1.6364	5.e-002	13.741
18687	7.4941	1.6364	0.	4045.9
18688	7.4019	1.5455	0.	4072.5
18689	7.4019	1.6364	5.e-002	12.87
18690	7.6785	1.6364	0.	3990.6
18691	7.5863	1.5455	0.	4018.2
18692	7.5863	1.6364	5.e-002	12.188
18693	7.8629	1.6364	0.	3936.6
18694	7.7707	1.5455	0.	3964.7
18695	7.7707	1.6364	5.e-002	11.652
18696	8.0474	1.6364	0.	3883.4
18697	7.9551	1.5455	0.	3911.9
18698	7.9551	1.6364	5.e-002	11.229
18699	8.2318	1.6364	0.	3831.1
18700	8.1396	1.5455	0.	3859.7
18701	8.1396	1.6364	5.e-002	10.892
18702	8.4162	1.6364	0.	3779.3
18703	8.324	1.5455	0.	3808.
18704	8.324	1.6364	5.e-002	10.62
18705	8.6006	1.6364	0.	3728.1
18706	8.5084	1.5455	0.	3756.7
18707	8.5084	1.6364	5.e-002	10.398
18708	8.785	1.6364	0.	3677.3
18709	8.6928	1.5455	0.	3705.7
18710	8.6928	1.6364	5.e-002	10.213
18711	8.9695	1.6364	0.	3626.7
18712	8.8773	1.5455	0.	3655.
18713	8.8773	1.6364	5.e-002	10.056
18714	9.1539	1.6364	0.	3576.4
18715	9.0617	1.5455	0.	3604.6
18716	9.0617	1.6364	5.e-002	9.921
18717	9.3383	1.6364	0.	3526.4
18718	9.2461	1.5455	0.	3554.3
18719	9.2461	1.6364	5.e-002	9.8027
18720	9.5227	1.6364	0.	3476.5
18721	9.4305	1.5455	0.	3504.2
18722	9.4305	1.6364	5.e-002	9.6974
18723	9.7072	1.6364	0.	3426.7
18724	9.615	1.5455	0.	3454.2
18725	9.615	1.6364	5.e-002	9.6024
18726	9.8916	1.6364	0.	3377.
18727	9.7994	1.5455	0.	3404.3
18728	9.7994	1.6364	5.e-002	9.5155
18729	10.076	1.6364	0.	3327.5
18730	9.9838	1.5455	0.	3354.6
18731	9.9838	1.6364	5.e-002	9.4354
18732	10.26	1.6364	0.	3278.
18733	10.168	1.5455	0.	3304.9
18734	10.168	1.6364	5.e-002	9.3607
18735	10.445	1.6364	0.	3228.6
18736	10.353	1.5455	0.	3255.4
18737	10.353	1.6364	5.e-002	9.2904
18738	10.629	1.6364	0.	3179.3
18739	10.537	1.5455	0.	3205.9
18740	10.537	1.6364	5.e-002	9.224
18741	10.814	1.6364	0.	3130.1
18742	10.721	1.5455	0.	3156.5
18743	10.721	1.6364	5.e-002	9.161
18744	10.998	1.6364	0.	3081.
18745	10.906	1.5455	0.	3107.2
18746	10.906	1.6364	5.e-002	9.1009
18747	11.183	1.6364	0.	3032.
18748	11.09	1.5455	0.	3058.1
18749	11.09	1.6364	5.e-002	9.043
18750	11.367	1.6364	0.	2983.
18751	11.275	1.5455	0.	3009.
18752	11.275	1.6364	5.e-002	8.9874
18753	11.551	1.6364	0.	2934.2
18754	11.459	1.5455	0.	2960.
18755	11.459	1.6364	5.e-002	8.9339
18756	11.736	1.6364	0.	2885.5
18757	11.644	1.5455	0.	2911.1
18758	11.644	1.6364	5.e-002	8.8818
18759	11.92	1.6364	0.	2836.8
18760	11.828	1.5455	0.	2862.3
18761	11.828	1.6364	5.e-002	8.8315
18762	12.105	1.6364	0.	2788.3
18763	12.012	1.5455	0.	2813.7
18764	12.012	1.6364	5.e-002	8.7827
18765	12.289	1.6364	0.	2739.9
18766	12.197	1.5455	0.	2765.1
18767	12.197	1.6364	5.e-002	8.735
18768	12.474	1.6364	0.	2691.6
18769	12.381	1.5455	0.	2716.7
18770	12.381	1.6364	5.e-002	8.6884
18771	12.658	1.6364	0.	2643.5
18772	12.566	1.5455	0.	2668.4
18773	12.566	1.6364	5.e-002	8.643
18774	12.842	1.6364	0.	2595.4
18775	12.75	1.5455	0.	2620.3
18776	12.75	1.6364	5.e-002	8.5986
18777	13.027	1.6364	0.	2547.5
18778	12.935	1.5455	0.	2572.3
18779	12.935	1.6364	5.e-002	8.555
18780	13.211	1.6364	0.	2499.8
18781	13.119	1.5455	0.	2524.4
18782	13.119	1.6364	5.e-002	8.5123
18783	13.396	1.6364	0.	2452.2
18784	13.303	1.5455	0.	2476.7
18785	13.303	1.6364	5.e-002	8.4705
18786	13.58	1.6364	0.	2404.8
18787	13.488	1.5455	0.	2429.2
18788	13.488	1.6364	5.e-002	8.4293
18789	13.764	1.6364	0.	2357.5
18790	13.672	1.5455	0.	2381.8
18791	13.672	1.6364	5.e-002	8.3886
18792	13.949	1.6364	0.	2310.3
18793	13.857	1.5455	0.	2334.5
18794	13.857	1.6364	5.e-002	8.3488
18795	14.133	1.6364	0.	2263.4
18796	14.041	1.5455	0.	2287.4
18797	14.041	1.6364	5.e-002	8.3095
18798	14.318	1.6364	0.	2216.6
18799	14.226	1.5455	0.	2240.5
18800	14.226	1.6364	5.e-002	8.2706
18801	14.502	1.6364	0.	2170.
18802	14.41	1.5455	0.	2193.8
18803	14.41	1.6364	5.e-002	8.2325
18804	14.687	1.6364	0.	2123.5
18805	14.594	1.5455	0.	2147.2
18806	14.594	1.6364	5.e-002	8.1948
18807	14.871	1.6364	0.	2077.2
18808	14.779	1.5455	0.	2100.9
18809	14.779	1.6364	5.e-002	8.1574
18810	15.055	1.6364	0.	2031.2
18811	14.963	1.5455	0.	2054.7
18812	14.963	1.6364	5.e-002	8.1205
18813	15.24	1.6364	0.	1985.2
18814	15.148	1.5455	0.	2008.6
18815	15.148	1.6364	5.e-002	8.0842
18816	15.424	1.6364	0.	1939.5
18817	15.332	1.5455	0.	1962.8
18818	15.332	1.6364	5.e-002	8.0483
18819	15.609	1.6364	0.	1894.
18820	15.517	1.5455	0.	1917.2
18821	15.517	1.6364	5.e-002	8.0127
18822	15.793	1.6364	0.	1848.7
18823	15.701	1.5455	0.	1871.7
18824	15.701	1.6364	5.e-002	7.9776
18825	15.978	1.6364	0.	1803.5
18826	15.885	1.5455	0.	1826.5
18827	15.885	1.6364	5.e-002	7.9429
18828	16.162	1.6364	0.	1758.6
18829	16.07	1.5455	0.	1781.4
18830	16.07	1.6364	5.e-002	7.9084
18831	16.346	1.6364	0.	1713.8
18832	16.254	1.5455	0.	1736.5
18833	16.254	1.6364	5.e-002	7.8744
18834	16.531	1.6364	0.	1669.3
18835	16.439	1.5455	0.	1691.9
18836	16.439	1.6364	5.e-002	7.841
18837	16.715	1.6364	0.	1625.
18838	16.623	1.5455	0.	1647.4
18839	16.623	1.6364	5.e-002	7.8078
18840	16.9	1.6364	0.	1580.9
18841	16.807	1.5455	0.	1603.2
18842	16.807	1.6364	5.e-002	7.775
18843	17.084	1.6364	0.	1536.9
18844	16.992	1.5455	0.	1559.1
18845	16.992	1.6364	5.e-002	7.7428
18846	17.269	1.6364	0.	1493.2
18847	17.176	1.5455	0.	1515.3
18848	17.176	1.6364	5.e-002	7.7109
18849	17.453	1.6364	0.	1449.8
18850	17.361	1.5455	0.	1471.7
18851	17.361	1.6364	5.e-002	7.6794
18852	17.637	1.6364	0.	1406.5
18853	17.545	1.5455	0.	1428.3
18854	17.545	1.6364	5.e-002	7.6485
18855	17.822	1.6364	0.	1363.5
18856	17.73	1.5455	0.	1385.1
18857	17.73	1.6364	5.e-002	7.6182
18858	18.006	1.6364	0.	1320.7
18859	17.914	1.5455	0.	1342.2
18860	17.914	1.6364	5.e-002	7.5882
18861	18.191	1.6364	0.	1278.1
18862	18.098	1.5455	0.	1299.5
18863	18.098	1.6364	5.e-002	7.5588
18864	18.375	1.6364	0.	1235.8
18865	18.283	1.5455	0.	1257.
18866	18.283	1.6364	5.e-002	7.5301
18867	18.56	1.6364	0.	1193.7
18868	18.467	1.5455	0.	1214.7
18869	18.467	1.6364	5.e-002	7.5021
18870	18.744	1.6364	0.	1151.8
18871	18.652	1.5455	0.	1172.7
18872	18.652	1.6364	5.e-002	7.4746
18873	18.928	1.6364	0.	1110.2
18874	18.836	1.5455	0.	1130.9
18875	18.836	1.6364	5.e-002	7.448
18876	19.113	1.6364	0.	1068.8
18877	19.021	1.5455	0.	1089.4
18878	19.021	1.6364	5.e-002	7.4222
18879	19.297	1.6364	0.	1027.7
18880	19.205	1.5455	0.	1048.1
18881	19.205	1.6364	5.e-002	7.3972
18882	19.482	1.6364	0.	986.87
18883	19.389	1.5455	0.	1007.1
18884	19.389	1.6364	5.e-002	7.3731
18885	19.666	1.6364	0.	946.3
18886	19.574	1.5455	0.	966.29
18887	19.574	1.6364	5.e-002	7.3502
18888	19.85	1.6364	0.	906.01
18889	19.758	1.5455	0.	925.79
18890	19.758	1.6364	5.e-002	7.3283
18891	20.035	1.6364	0.	866.
18892	19.943	1.5455	0.	885.56
18893	19.943	1.6364	5.e-002	7.3076
18894	20.219	1.6364	0.	826.29
18895	20.127	1.5455	0.	845.62
18896	20.127	1.6364	5.e-002	7.2884
18897	20.404	1.6364	0.	786.89
18898	20.312	1.5455	0.	805.96
18899	20.312	1.6364	5.e-002	7.2706
18900	20.588	1.6364	0.	747.8
18901	20.496	1.5455	0.	766.61
18902	20.496	1.6364	5.e-002	7.2545
18903	20.773	1.6364	0.	709.04
18904	20.68	1.5455	0.	727.57
18905	20.68	1.6364	5.e-002	7.2402
18906	20.957	1.6364	0.	670.63
18907	20.865	1.5455	0.	688.86
18908	20.865	1.6364	5.e-002	7.2279
18909	21.141	1.6364	0.	632.6
18910	21.049	1.5455	0.	650.51
18911	21.049	1.6364	5.e-002	7.218
18912	21.326	1.6364	0.	594.96
18913	21.234	1.5455	0.	612.52
18914	21.234	1.6364	5.e-002	7.2106
18915	21.51	1.6364	0.	557.75
18916	21.418	1.5455	0.	574.93
18917	21.418	1.6364	5.e-002	7.2062
18918	21.695	1.6364	0.	521.01
18919	21.602	1.5455	0.	537.77
18920	21.602	1.6364	5.e-002	7.2052
18921	21.879	1.6364	0.	484.78
18922	21.787	1.5455	0.	501.09
18923	21.787	1.6364	5.e-002	7.208
18924	22.064	1.6364	0.	449.13
18925	21.971	1.5455	0.	464.94
18926	21.971	1.6364	5.e-002	7.2153
18927	22.248	1.6364	0.	414.13
18928	22.156	1.5455	0.	429.39
18929	22.156	1.6364	5.e-002	7.2279
18930	22.432	1.6364	0.	379.9
18931	22.34	1.5455	0.	394.54
18932	22.34	1.6364	5.e-002	7.2466
18933	22.617	1.6364	0.	346.55
18934	22.525	1.5455	0.	360.49
18935	22.525	1.6364	5.e-002	7.2727
18936	22.801	1.6364	0.	314.29
18937	22.709	1.5455	0.	327.42
18938	22.709	1.6364	5.e-002	7.3075
18939	22.986	1.6364	0.	283.34
18940	22.893	1.5455	0.	295.53
18941	22.893	1.6364	5.e-002	7.3526
18942	23.17	1.6364	0.	254.06
18943	23.078	1.5455	0.	265.13
18944	23.078	1.6364	5.e-002	7.4096
18945	23.355	1.6364	0.	226.94
18946	23.262	1.5455	0.	236.63
18947	23.262	1.6364	5.e-002	7.4803
18948	23.539	1.6364	0.	202.71
18949	23.447	1.5455	0.	210.62
18950	23.447	1.6364	5.e-002	7.5657
18951	23.723	1.6364	0.	182.42
18952	23.631	1.5455	0.	188.02
18953	23.631	1.6364	5.e-002	7.6707
18954	23.816	1.5455	0.	170.12
18955	23.816	1.6364	5.e-002	7.8747
18956	23.908	1.6364	0.	167.66
18957	4.5433	1.4545	0.	6127.4
18958	4.4511	1.3636	0.	5948.4
18959	4.4511	1.4545	5.e-002	308.28
18960	4.3589	1.4545	0.	5383.2
18961	4.7277	1.4545	0.	5523.3
18962	4.6355	1.3636	0.	5264.1
18963	4.6355	1.4545	5.e-002	184.73
18964	4.9121	1.4545	0.	5187.5
18965	4.8199	1.3636	0.	4968.1
18966	4.8199	1.4545	5.e-002	110.48
18967	5.0966	1.4545	0.	4957.2
18968	5.0044	1.3636	0.	4779.3
18969	5.0044	1.4545	5.e-002	77.886
18970	5.281	1.4545	0.	4802.4
18971	5.1888	1.3636	0.	4661.9
18972	5.1888	1.4545	5.e-002	58.493
18973	5.4654	1.4545	0.	4693.1
18974	5.3732	1.3636	0.	4585.6
18975	5.3732	1.4545	5.e-002	46.64
18976	5.6498	1.4545	0.	4609.9
18977	5.5576	1.3636	0.	4531.
18978	5.5576	1.4545	5.e-002	38.224
18979	5.8343	1.4545	0.	4541.1
18980	5.7421	1.3636	0.	4486.1
18981	5.7421	1.4545	5.e-002	31.914
18982	6.0187	1.4545	0.	4479.9
18983	5.9265	1.3636	0.	4444.4
18984	5.9265	1.4545	5.e-002	27.
18985	6.2031	1.4545	0.	4422.4
18986	6.1109	1.3636	0.	4402.7
18987	6.1109	1.4545	5.e-002	23.123
18988	6.3875	1.4545	0.	4366.8
18989	6.2953	1.3636	0.	4359.5
18990	6.2953	1.4545	5.e-002	20.057
18991	6.572	1.4545	0.	4312.2
18992	6.4798	1.3636	0.	4314.5
18993	6.4798	1.4545	5.e-002	17.643
18994	6.7564	1.4545	0.	4258.1
18995	6.6642	1.3636	0.	4267.7
18996	6.6642	1.4545	5.e-002	15.76
18997	6.9408	1.4545	0.	4204.3
18998	6.8486	1.3636	0.	4219.5
18999	6.8486	1.4545	5.e-002	14.307
19000	7.1252	1.4545	0.	4150.8
19001	7.033	1.3636	0.	4170.1
19002	7.033	1.4545	5.e-002	13.198
19003	7.3097	1.4545	0.	4097.6
19004	7.2174	1.3636	0.	4120.
19005	7.2174	1.4545	5.e-002	12.361
19006	7.4941	1.4545	0.	4044.8
19007	7.4019	1.3636	0.	4069.3
19008	7.4019	1.4545	5.e-002	11.731
19009	7.6785	1.4545	0.	3992.3
19010	7.5863	1.3636	0.	4018.4
19011	7.5863	1.4545	5.e-002	11.257
19012	7.8629	1.4545	0.	3940.1
19013	7.7707	1.3636	0.	3967.3
19014	7.7707	1.4545	5.e-002	10.898
19015	8.0474	1.4545	0.	3888.2
19016	7.9551	1.3636	0.	3916.1
19017	7.9551	1.4545	5.e-002	10.622
19018	8.2318	1.4545	0.	3836.7
19019	8.1396	1.3636	0.	3865.
19020	8.1396	1.4545	5.e-002	10.406
19021	8.4162	1.4545	0.	3785.4
19022	8.324	1.3636	0.	3813.9
19023	8.324	1.4545	5.e-002	10.233
19024	8.6006	1.4545	0.	3734.3
19025	8.5084	1.3636	0.	3762.9
19026	8.5084	1.4545	5.e-002	10.09
19027	8.785	1.4545	0.	3683.5
19028	8.6928	1.3636	0.	3712.1
19029	8.6928	1.4545	5.e-002	9.9679
19030	8.9695	1.4545	0.	3632.9
19031	8.8773	1.3636	0.	3661.3
19032	8.8773	1.4545	5.e-002	9.8616
19033	9.1539	1.4545	0.	3582.4
19034	9.0617	1.3636	0.	3610.7
19035	9.0617	1.4545	5.e-002	9.7667
19036	9.3383	1.4545	0.	3532.1
19037	9.2461	1.3636	0.	3560.3
19038	9.2461	1.4545	5.e-002	9.68
19039	9.5227	1.4545	0.	3481.9
19040	9.4305	1.3636	0.	3509.9
19041	9.4305	1.4545	5.e-002	9.5998
19042	9.7072	1.4545	0.	3431.8
19043	9.615	1.3636	0.	3459.6
19044	9.615	1.4545	5.e-002	9.5245
19045	9.8916	1.4545	0.	3381.9
19046	9.7994	1.3636	0.	3409.5
19047	9.7994	1.4545	5.e-002	9.4533
19048	10.076	1.4545	0.	3332.
19049	9.9838	1.3636	0.	3359.4
19050	9.9838	1.4545	5.e-002	9.3855
19051	10.26	1.4545	0.	3282.3
19052	10.168	1.3636	0.	3309.5
19053	10.168	1.4545	5.e-002	9.3205
19054	10.445	1.4545	0.	3232.6
19055	10.353	1.3636	0.	3259.6
19056	10.353	1.4545	5.e-002	9.2578
19057	10.629	1.4545	0.	3183.1
19058	10.537	1.3636	0.	3209.9
19059	10.537	1.4545	5.e-002	9.1974
19060	10.814	1.4545	0.	3133.6
19061	10.721	1.3636	0.	3160.3
19062	10.721	1.4545	5.e-002	9.1393
19063	10.998	1.4545	0.	3084.3
19064	10.906	1.3636	0.	3110.8
19065	10.906	1.4545	5.e-002	9.0829
19066	11.183	1.4545	0.	3035.1
19067	11.09	1.3636	0.	3061.4
19068	11.09	1.4545	5.e-002	9.0281
19069	11.367	1.4545	0.	2985.9
19070	11.275	1.3636	0.	3012.1
19071	11.275	1.4545	5.e-002	8.9749
19072	11.551	1.4545	0.	2936.9
19073	11.459	1.3636	0.	2962.9
19074	11.459	1.4545	5.e-002	8.9233
19075	11.736	1.4545	0.	2888.
19076	11.644	1.3636	0.	2913.8
19077	11.644	1.4545	5.e-002	8.8728
19078	11.92	1.4545	0.	2839.2
19079	11.828	1.3636	0.	2864.9
19080	11.828	1.4545	5.e-002	8.8238
19081	12.105	1.4545	0.	2790.5
19082	12.012	1.3636	0.	2816.1
19083	12.012	1.4545	5.e-002	8.776
19084	12.289	1.4545	0.	2742.
19085	12.197	1.3636	0.	2767.4
19086	12.197	1.4545	5.e-002	8.7291
19087	12.474	1.4545	0.	2693.6
19088	12.381	1.3636	0.	2718.9
19089	12.381	1.4545	5.e-002	8.6832
19090	12.658	1.4545	0.	2645.3
19091	12.566	1.3636	0.	2670.5
19092	12.566	1.4545	5.e-002	8.6384
19093	12.842	1.4545	0.	2597.2
19094	12.75	1.3636	0.	2622.2
19095	12.75	1.4545	5.e-002	8.5945
19096	13.027	1.4545	0.	2549.2
19097	12.935	1.3636	0.	2574.1
19098	12.935	1.4545	5.e-002	8.5512
19099	13.211	1.4545	0.	2501.4
19100	13.119	1.3636	0.	2526.1
19101	13.119	1.4545	5.e-002	8.509
19102	13.396	1.4545	0.	2453.7
19103	13.303	1.3636	0.	2478.4
19104	13.303	1.4545	5.e-002	8.4674
19105	13.58	1.4545	0.	2406.2
19106	13.488	1.3636	0.	2430.7
19107	13.488	1.4545	5.e-002	8.4264
19108	13.764	1.4545	0.	2358.8
19109	13.672	1.3636	0.	2383.2
19110	13.672	1.4545	5.e-002	8.386
19111	13.949	1.4545	0.	2311.7
19112	13.857	1.3636	0.	2335.9
19113	13.857	1.4545	5.e-002	8.3464
19114	14.133	1.4545	0.	2264.6
19115	14.041	1.3636	0.	2288.8
19116	14.041	1.4545	5.e-002	8.3073
19117	14.318	1.4545	0.	2217.8
19118	14.226	1.3636	0.	2241.8
19119	14.226	1.4545	5.e-002	8.2686
19120	14.502	1.4545	0.	2171.1
19121	14.41	1.3636	0.	2195.1
19122	14.41	1.4545	5.e-002	8.2305
19123	14.687	1.4545	0.	2124.6
19124	14.594	1.3636	0.	2148.4
19125	14.594	1.4545	5.e-002	8.1929
19126	14.871	1.4545	0.	2078.3
19127	14.779	1.3636	0.	2102.
19128	14.779	1.4545	5.e-002	8.1557
19129	15.055	1.4545	0.	2032.2
19130	14.963	1.3636	0.	2055.8
19131	14.963	1.4545	5.e-002	8.1189
19132	15.24	1.4545	0.	1986.2
19133	15.148	1.3636	0.	2009.7
19134	15.148	1.4545	5.e-002	8.0827
19135	15.424	1.4545	0.	1940.5
19136	15.332	1.3636	0.	1963.8
19137	15.332	1.4545	5.e-002	8.0468
19138	15.609	1.4545	0.	1894.9
19139	15.517	1.3636	0.	1918.2
19140	15.517	1.4545	5.e-002	8.0112
19141	15.793	1.4545	0.	1849.5
19142	15.701	1.3636	0.	1872.7
19143	15.701	1.4545	5.e-002	7.9762
19144	15.978	1.4545	0.	1804.4
19145	15.885	1.3636	0.	1827.4
19146	15.885	1.4545	5.e-002	7.9415
19147	16.162	1.4545	0.	1759.4
19148	16.07	1.3636	0.	1782.3
19149	16.07	1.4545	5.e-002	7.9071
19150	16.346	1.4545	0.	1714.6
19151	16.254	1.3636	0.	1737.4
19152	16.254	1.4545	5.e-002	7.8731
19153	16.531	1.4545	0.	1670.
19154	16.439	1.3636	0.	1692.7
19155	16.439	1.4545	5.e-002	7.8397
19156	16.715	1.4545	0.	1625.7
19157	16.623	1.3636	0.	1648.2
19158	16.623	1.4545	5.e-002	7.8066
19159	16.9	1.4545	0.	1581.5
19160	16.807	1.3636	0.	1603.9
19161	16.807	1.4545	5.e-002	7.7737
19162	17.084	1.4545	0.	1537.6
19163	16.992	1.3636	0.	1559.8
19164	16.992	1.4545	5.e-002	7.7415
19165	17.269	1.4545	0.	1493.8
19166	17.176	1.3636	0.	1516.
19167	17.176	1.4545	5.e-002	7.7096
19168	17.453	1.4545	0.	1450.3
19169	17.361	1.3636	0.	1472.3
19170	17.361	1.4545	5.e-002	7.6781
19171	17.637	1.4545	0.	1407.
19172	17.545	1.3636	0.	1428.9
19173	17.545	1.4545	5.e-002	7.6471
19174	17.822	1.4545	0.	1363.9
19175	17.73	1.3636	0.	1385.7
19176	17.73	1.4545	5.e-002	7.6167
19177	18.006	1.4545	0.	1321.
19178	17.914	1.3636	0.	1342.6
19179	17.914	1.4545	5.e-002	7.5867
19180	18.191	1.4545	0.	1278.4
19181	18.098	1.3636	0.	1299.9
19182	18.098	1.4545	5.e-002	7.5573
19183	18.375	1.4545	0.	1236.
19184	18.283	1.3636	0.	1257.3
19185	18.283	1.4545	5.e-002	7.5285
19186	18.56	1.4545	0.	1193.8
19187	18.467	1.3636	0.	1215.
19188	18.467	1.4545	5.e-002	7.5003
19189	18.744	1.4545	0.	1151.9
19190	18.652	1.3636	0.	1172.9
19191	18.652	1.4545	5.e-002	7.4727
19192	18.928	1.4545	0.	1110.2
19193	18.836	1.3636	0.	1131.
19194	18.836	1.4545	5.e-002	7.446
19195	19.113	1.4545	0.	1068.7
19196	19.021	1.3636	0.	1089.4
19197	19.021	1.4545	5.e-002	7.42
19198	19.297	1.4545	0.	1027.5
19199	19.205	1.3636	0.	1048.
19200	19.205	1.4545	5.e-002	7.3948
19201	19.482	1.4545	0.	986.54
19202	19.389	1.3636	0.	1006.8
19203	19.389	1.4545	5.e-002	7.3705
19204	19.666	1.4545	0.	945.84
19205	19.574	1.3636	0.	965.93
19206	19.574	1.4545	5.e-002	7.3473
19207	19.85	1.4545	0.	905.4
19208	19.758	1.3636	0.	925.28
19209	19.758	1.4545	5.e-002	7.3252
19210	20.035	1.4545	0.	865.24
19211	19.943	1.3636	0.	884.89
19212	19.943	1.4545	5.e-002	7.3042
19213	20.219	1.4545	0.	825.35
19214	20.127	1.3636	0.	844.78
19215	20.127	1.4545	5.e-002	7.2845
19216	20.404	1.4545	0.	785.75
19217	20.312	1.3636	0.	804.93
19218	20.312	1.4545	5.e-002	7.2662
19219	20.588	1.4545	0.	746.45
19220	20.496	1.3636	0.	765.37
19221	20.496	1.4545	5.e-002	7.2495
19222	20.773	1.4545	0.	707.46
19223	20.68	1.3636	0.	726.1
19224	20.68	1.4545	5.e-002	7.2345
19225	20.957	1.4545	0.	668.8
19226	20.865	1.3636	0.	687.14
19227	20.865	1.4545	5.e-002	7.2215
19228	21.141	1.4545	0.	630.48
19229	21.049	1.3636	0.	648.51
19230	21.049	1.4545	5.e-002	7.2106
19231	21.326	1.4545	0.	592.54
19232	21.234	1.3636	0.	610.22
19233	21.234	1.4545	5.e-002	7.2021
19234	21.51	1.4545	0.	555.
19235	21.418	1.3636	0.	572.3
19236	21.418	1.4545	5.e-002	7.1964
19237	21.695	1.4545	0.	517.9
19238	21.602	1.3636	0.	534.78
19239	21.602	1.4545	5.e-002	7.1937
19240	21.879	1.4545	0.	481.29
19241	21.787	1.3636	0.	497.71
19242	21.787	1.4545	5.e-002	7.1947
19243	22.064	1.4545	0.	445.23
19244	21.971	1.3636	0.	461.13
19245	21.971	1.4545	5.e-002	7.1999
19246	22.248	1.4545	0.	409.81
19247	22.156	1.3636	0.	425.13
19248	22.156	1.4545	5.e-002	7.2101
19249	22.432	1.4545	0.	375.11
19250	22.34	1.3636	0.	389.79
19251	22.34	1.4545	5.e-002	7.2263
19252	22.617	1.4545	0.	341.3
19253	22.525	1.3636	0.	355.23
19254	22.525	1.4545	5.e-002	7.2496
19255	22.801	1.4545	0.	308.55
19256	22.709	1.3636	0.	321.62
19257	22.709	1.4545	5.e-002	7.2819
19258	22.986	1.4545	0.	277.11
19259	22.893	1.3636	0.	289.18
19260	22.893	1.4545	5.e-002	7.3249
19261	23.17	1.4545	0.	247.35
19262	23.078	1.3636	0.	258.22
19263	23.078	1.4545	5.e-002	7.381
19264	23.355	1.4545	0.	219.77
19265	23.262	1.3636	0.	229.18
19266	23.262	1.4545	5.e-002	7.4527
19267	23.539	1.4545	0.	195.12
19268	23.447	1.3636	0.	202.66
19269	23.447	1.4545	5.e-002	7.5421
19270	23.723	1.4545	0.	174.5
19271	23.631	1.3636	0.	179.62
19272	23.631	1.4545	5.e-002	7.6561
19273	23.816	1.3636	0.	161.44
19274	23.816	1.4545	5.e-002	7.8938
19275	23.908	1.4545	0.	159.42
19276	4.5433	1.2727	0.	4939.7
19277	4.4511	1.1818	0.	4722.3
19278	4.4511	1.2727	5.e-002	244.13
19279	4.3589	1.2727	0.	4238.8
19280	4.7277	1.2727	0.	4627.8
19281	4.6355	1.1818	0.	4322.6
19282	4.6355	1.2727	5.e-002	148.55
19283	4.9121	1.2727	0.	4515.2
19284	4.8199	1.1818	0.	4240.9
19285	4.8199	1.2727	5.e-002	109.2
19286	5.0966	1.2727	0.	4458.9
19287	5.0044	1.1818	0.	4229.9
19288	5.0044	1.2727	5.e-002	78.644
19289	5.281	1.2727	0.	4431.
19290	5.1888	1.1818	0.	4248.
19291	5.1888	1.2727	5.e-002	58.912
19292	5.4654	1.2727	0.	4415.7
19293	5.3732	1.1818	0.	4274.6
19294	5.3732	1.2727	5.e-002	45.631
19295	5.6498	1.2727	0.	4402.9
19296	5.5576	1.1818	0.	4297.6
19297	5.5576	1.2727	5.e-002	36.344
19298	5.8343	1.2727	0.	4387.1
19299	5.7421	1.1818	0.	4311.5
19300	5.7421	1.2727	5.e-002	29.513
19301	6.0187	1.2727	0.	4366.
19302	5.9265	1.1818	0.	4314.4
19303	5.9265	1.2727	5.e-002	24.339
19304	6.2031	1.2727	0.	4339.1
19305	6.1109	1.1818	0.	4306.7
19306	6.1109	1.2727	5.e-002	20.379
19307	6.3875	1.2727	0.	4306.8
19308	6.2953	1.1818	0.	4289.5
19309	6.2953	1.2727	5.e-002	17.359
19310	6.572	1.2727	0.	4269.8
19311	6.4798	1.1818	0.	4264.3
19312	6.4798	1.2727	5.e-002	15.09
19313	6.7564	1.2727	0.	4229.1
19314	6.6642	1.1818	0.	4232.6
19315	6.6642	1.2727	5.e-002	13.425
19316	6.9408	1.2727	0.	4185.3
19317	6.8486	1.1818	0.	4195.8
19318	6.8486	1.2727	5.e-002	12.237
19319	7.1252	1.2727	0.	4139.4
19320	7.033	1.1818	0.	4155.1
19321	7.033	1.2727	5.e-002	11.414
19322	7.3097	1.2727	0.	4091.8
19323	7.2174	1.1818	0.	4111.4
19324	7.2174	1.2727	5.e-002	10.858
19325	7.4941	1.2727	0.	4043.
19326	7.4019	1.1818	0.	4065.5
19327	7.4019	1.2727	5.e-002	10.489
19328	7.6785	1.2727	0.	3993.4
19329	7.5863	1.1818	0.	4018.
19330	7.5863	1.2727	5.e-002	10.246
19331	7.8629	1.2727	0.	3943.3
19332	7.7707	1.1818	0.	3969.4
19333	7.7707	1.2727	5.e-002	10.084
19334	8.0474	1.2727	0.	3892.9
19335	7.9551	1.1818	0.	3919.9
19336	7.9551	1.2727	5.e-002	9.9714
19337	8.2318	1.2727	0.	3842.2
19338	8.1396	1.1818	0.	3870.
19339	8.1396	1.2727	5.e-002	9.8888
19340	8.4162	1.2727	0.	3791.5
19341	8.324	1.1818	0.	3819.7
19342	8.324	1.2727	5.e-002	9.8227
19343	8.6006	1.2727	0.	3740.7
19344	8.5084	1.1818	0.	3769.1
19345	8.5084	1.2727	5.e-002	9.7651
19346	8.785	1.2727	0.	3689.9
19347	8.6928	1.1818	0.	3718.5
19348	8.6928	1.2727	5.e-002	9.7113
19349	8.9695	1.2727	0.	3639.2
19350	8.8773	1.1818	0.	3667.8
19351	8.8773	1.2727	5.e-002	9.6587
19352	9.1539	1.2727	0.	3588.6
19353	9.0617	1.1818	0.	3617.1
19354	9.0617	1.2727	5.e-002	9.606
19355	9.3383	1.2727	0.	3538.1
19356	9.2461	1.1818	0.	3566.4
19357	9.2461	1.2727	5.e-002	9.5527
19358	9.5227	1.2727	0.	3487.6
19359	9.4305	1.1818	0.	3515.8
19360	9.4305	1.2727	5.e-002	9.4986
19361	9.7072	1.2727	0.	3437.3
19362	9.615	1.1818	0.	3465.3
19363	9.615	1.2727	5.e-002	9.4439
19364	9.8916	1.2727	0.	3387.
19365	9.7994	1.1818	0.	3414.9
19366	9.7994	1.2727	5.e-002	9.3888
19367	10.076	1.2727	0.	3336.9
19368	9.9838	1.1818	0.	3364.6
19369	9.9838	1.2727	5.e-002	9.3337
19370	10.26	1.2727	0.	3286.9
19371	10.168	1.1818	0.	3314.3
19372	10.168	1.2727	5.e-002	9.2787
19373	10.445	1.2727	0.	3236.9
19374	10.353	1.1818	0.	3264.2
19375	10.353	1.2727	5.e-002	9.2239
19376	10.629	1.2727	0.	3187.1
19377	10.537	1.1818	0.	3214.2
19378	10.537	1.2727	5.e-002	9.1698
19379	10.814	1.2727	0.	3137.4
19380	10.721	1.1818	0.	3164.3
19381	10.721	1.2727	5.e-002	9.1165
19382	10.998	1.2727	0.	3087.8
19383	10.906	1.1818	0.	3114.6
19384	10.906	1.2727	5.e-002	9.0641
19385	11.183	1.2727	0.	3038.4
19386	11.09	1.1818	0.	3064.9
19387	11.09	1.2727	5.e-002	9.0123
19388	11.367	1.2727	0.	2989.
19389	11.275	1.1818	0.	3015.4
19390	11.275	1.2727	5.e-002	8.9617
19391	11.551	1.2727	0.	2939.8
19392	11.459	1.1818	0.	2966.
19393	11.459	1.2727	5.e-002	8.912
19394	11.736	1.2727	0.	2890.7
19395	11.644	1.1818	0.	2916.8
19396	11.644	1.2727	5.e-002	8.8632
19397	11.92	1.2727	0.	2841.8
19398	11.828	1.1818	0.	2867.7
19399	11.828	1.2727	5.e-002	8.8154
19400	12.105	1.2727	0.	2793.
19401	12.012	1.1818	0.	2818.7
19402	12.012	1.2727	5.e-002	8.7687
19403	12.289	1.2727	0.	2744.3
19404	12.197	1.1818	0.	2769.9
19405	12.197	1.2727	5.e-002	8.7227
19406	12.474	1.2727	0.	2695.8
19407	12.381	1.1818	0.	2721.2
19408	12.381	1.2727	5.e-002	8.6775
19409	12.658	1.2727	0.	2647.4
19410	12.566	1.1818	0.	2672.7
19411	12.566	1.2727	5.e-002	8.6333
19412	12.842	1.2727	0.	2599.1
19413	12.75	1.1818	0.	2624.3
19414	12.75	1.2727	5.e-002	8.5899
19415	13.027	1.2727	0.	2551.1
19416	12.935	1.1818	0.	2576.1
19417	12.935	1.2727	5.e-002	8.5471
19418	13.211	1.2727	0.	2503.2
19419	13.119	1.1818	0.	2528.
19420	13.119	1.2727	5.e-002	8.5052
19421	13.396	1.2727	0.	2455.4
19422	13.303	1.1818	0.	2480.2
19423	13.303	1.2727	5.e-002	8.464
19424	13.58	1.2727	0.	2407.8
19425	13.488	1.1818	0.	2432.4
19426	13.488	1.2727	5.e-002	8.4233
19427	13.764	1.2727	0.	2360.4
19428	13.672	1.1818	0.	2384.9
19429	13.672	1.2727	5.e-002	8.3831
19430	13.949	1.2727	0.	2313.1
19431	13.857	1.1818	0.	2337.5
19432	13.857	1.2727	5.e-002	8.3437
19433	14.133	1.2727	0.	2266.
19434	14.041	1.1818	0.	2290.3
19435	14.041	1.2727	5.e-002	8.3048
19436	14.318	1.2727	0.	2219.1
19437	14.226	1.1818	0.	2243.3
19438	14.226	1.2727	5.e-002	8.2662
19439	14.502	1.2727	0.	2172.4
19440	14.41	1.1818	0.	2196.4
19441	14.41	1.2727	5.e-002	8.2283
19442	14.687	1.2727	0.	2125.9
19443	14.594	1.1818	0.	2149.8
19444	14.594	1.2727	5.e-002	8.1909
19445	14.871	1.2727	0.	2079.5
19446	14.779	1.1818	0.	2103.3
19447	14.779	1.2727	5.e-002	8.1537
19448	15.055	1.2727	0.	2033.3
19449	14.963	1.1818	0.	2057.
19450	14.963	1.2727	5.e-002	8.117
19451	15.24	1.2727	0.	1987.4
19452	15.148	1.1818	0.	2010.9
19453	15.148	1.2727	5.e-002	8.0809
19454	15.424	1.2727	0.	1941.6
19455	15.332	1.1818	0.	1965.
19456	15.332	1.2727	5.e-002	8.0451
19457	15.609	1.2727	0.	1896.
19458	15.517	1.1818	0.	1919.3
19459	15.517	1.2727	5.e-002	8.0096
19460	15.793	1.2727	0.	1850.5
19461	15.701	1.1818	0.	1873.8
19462	15.701	1.2727	5.e-002	7.9746
19463	15.978	1.2727	0.	1805.3
19464	15.885	1.1818	0.	1828.4
19465	15.885	1.2727	5.e-002	7.94
19466	16.162	1.2727	0.	1760.3
19467	16.07	1.1818	0.	1783.3
19468	16.07	1.2727	5.e-002	7.9056
19469	16.346	1.2727	0.	1715.5
19470	16.254	1.1818	0.	1738.4
19471	16.254	1.2727	5.e-002	7.8717
19472	16.531	1.2727	0.	1670.9
19473	16.439	1.1818	0.	1693.6
19474	16.439	1.2727	5.e-002	7.8382
19475	16.715	1.2727	0.	1626.5
19476	16.623	1.1818	0.	1649.1
19477	16.623	1.2727	5.e-002	7.8051
19478	16.9	1.2727	0.	1582.3
19479	16.807	1.1818	0.	1604.8
19480	16.807	1.2727	5.e-002	7.7723
19481	17.084	1.2727	0.	1538.3
19482	16.992	1.1818	0.	1560.6
19483	16.992	1.2727	5.e-002	7.74
19484	17.269	1.2727	0.	1494.5
19485	17.176	1.1818	0.	1516.7
19486	17.176	1.2727	5.e-002	7.7081
19487	17.453	1.2727	0.	1450.9
19488	17.361	1.1818	0.	1473.
19489	17.361	1.2727	5.e-002	7.6766
19490	17.637	1.2727	0.	1407.6
19491	17.545	1.1818	0.	1429.5
19492	17.545	1.2727	5.e-002	7.6456
19493	17.822	1.2727	0.	1364.4
19494	17.73	1.1818	0.	1386.3
19495	17.73	1.2727	5.e-002	7.6151
19496	18.006	1.2727	0.	1321.5
19497	17.914	1.1818	0.	1343.2
19498	17.914	1.2727	5.e-002	7.585
19499	18.191	1.2727	0.	1278.8
19500	18.098	1.1818	0.	1300.4
19501	18.098	1.2727	5.e-002	7.5555
19502	18.375	1.2727	0.	1236.3
19503	18.283	1.1818	0.	1257.7
19504	18.283	1.2727	5.e-002	7.5266
19505	18.56	1.2727	0.	1194.1
19506	18.467	1.1818	0.	1215.3
19507	18.467	1.2727	5.e-002	7.4983
19508	18.744	1.2727	0.	1152.
19509	18.652	1.1818	0.	1173.1
19510	18.652	1.2727	5.e-002	7.4706
19511	18.928	1.2727	0.	1110.2
19512	18.836	1.1818	0.	1131.2
19513	18.836	1.2727	5.e-002	7.4437
19514	19.113	1.2727	0.	1068.7
19515	19.021	1.1818	0.	1089.4
19516	19.021	1.2727	5.e-002	7.4175
19517	19.297	1.2727	0.	1027.4
19518	19.205	1.1818	0.	1047.9
19519	19.205	1.2727	5.e-002	7.3922
19520	19.482	1.2727	0.	986.27
19521	19.389	1.1818	0.	1006.7
19522	19.389	1.2727	5.e-002	7.3676
19523	19.666	1.2727	0.	945.43
19524	19.574	1.1818	0.	965.63
19525	19.574	1.2727	5.e-002	7.3441
19526	19.85	1.2727	0.	904.84
19527	19.758	1.1818	0.	924.84
19528	19.758	1.2727	5.e-002	7.3217
19529	20.035	1.2727	0.	864.5
19530	19.943	1.1818	0.	884.29
19531	19.943	1.2727	5.e-002	7.3003
19532	20.219	1.2727	0.	824.42
19533	20.127	1.1818	0.	843.99
19534	20.127	1.2727	5.e-002	7.2801
19535	20.404	1.2727	0.	784.62
19536	20.312	1.1818	0.	803.94
19537	20.312	1.2727	5.e-002	7.2614
19538	20.588	1.2727	0.	745.09
19539	20.496	1.1818	0.	764.16
19540	20.496	1.2727	5.e-002	7.2441
19541	20.773	1.2727	0.	705.85
19542	20.68	1.1818	0.	724.65
19543	20.68	1.2727	5.e-002	7.2283
19544	20.957	1.2727	0.	666.92
19545	20.865	1.1818	0.	685.42
19546	20.865	1.2727	5.e-002	7.2144
19547	21.141	1.2727	0.	628.3
19548	21.049	1.1818	0.	646.49
19549	21.049	1.2727	5.e-002	7.2025
19550	21.326	1.2727	0.	590.03
19551	21.234	1.1818	0.	607.88
19552	21.234	1.2727	5.e-002	7.1928
19553	21.51	1.2727	0.	552.13
19554	21.418	1.1818	0.	569.6
19555	21.418	1.2727	5.e-002	7.1857
19556	21.695	1.2727	0.	514.64
19557	21.602	1.1818	0.	531.69
19558	21.602	1.2727	5.e-002	7.1813
19559	21.879	1.2727	0.	477.6
19560	21.787	1.1818	0.	494.19
19561	21.787	1.2727	5.e-002	7.1803
19562	22.064	1.2727	0.	441.07
19563	21.971	1.1818	0.	457.14
19564	21.971	1.2727	5.e-002	7.1831
19565	22.248	1.2727	0.	405.14
19566	22.156	1.1818	0.	420.61
19567	22.156	1.2727	5.e-002	7.1906
19568	22.432	1.2727	0.	369.9
19569	22.34	1.1818	0.	384.71
19570	22.34	1.2727	5.e-002	7.2037
19571	22.617	1.2727	0.	335.51
19572	22.525	1.1818	0.	349.54
19573	22.525	1.2727	5.e-002	7.2238
19574	22.801	1.2727	0.	302.16
19575	22.709	1.1818	0.	315.27
19576	22.709	1.2727	5.e-002	7.2526
19577	22.986	1.2727	0.	270.11
19578	22.893	1.1818	0.	282.15
19579	22.893	1.2727	5.e-002	7.2926
19580	23.17	1.2727	0.	239.74
19581	23.078	1.1818	0.	250.48
19582	23.078	1.2727	5.e-002	7.3467
19583	23.355	1.2727	0.	211.56
19584	23.262	1.1818	0.	220.74
19585	23.262	1.2727	5.e-002	7.4186
19586	23.539	1.2727	0.	186.36
19587	23.447	1.1818	0.	193.56
19588	23.447	1.2727	5.e-002	7.5119
19589	23.723	1.2727	0.	165.32
19590	23.631	1.1818	0.	169.94
19591	23.631	1.2727	5.e-002	7.6364
19592	23.816	1.1818	0.	151.39
19593	23.816	1.2727	5.e-002	7.9133
19594	23.908	1.2727	0.	149.85
19595	4.5433	1.0909	0.	3991.8
19596	4.4511	1.	0.	3761.1
19597	4.4511	1.0909	5.e-002	193.92
19598	4.3589	1.0909	0.	3381.3
19599	4.7277	1.0909	0.	3862.5
19600	4.6355	1.	0.	3537.
19601	4.6355	1.0909	5.e-002	129.55
19602	4.9121	1.0909	0.	3910.7
19603	4.8199	1.	0.	3604.7
19604	4.8199	1.0909	5.e-002	103.02
19605	5.0966	1.0909	0.	3992.9
19606	5.0044	1.	0.	3730.7
19607	5.0044	1.0909	5.e-002	79.401
19608	5.281	1.0909	0.	4076.7
19609	5.1888	1.	0.	3863.7
19610	5.1888	1.0909	5.e-002	60.908
19611	5.4654	1.0909	0.	4148.1
19612	5.3732	1.	0.	3981.7
19613	5.3732	1.0909	5.e-002	47.07
19614	5.6498	1.0909	0.	4201.6
19615	5.5576	1.	0.	4075.5
19616	5.5576	1.0909	5.e-002	36.733
19617	5.8343	1.0909	0.	4236.3
19618	5.7421	1.	0.	4143.9
19619	5.7421	1.0909	5.e-002	28.933
19620	6.0187	1.0909	0.	4253.8
19621	5.9265	1.	0.	4188.7
19622	5.9265	1.0909	5.e-002	23.
19623	6.2031	1.0909	0.	4256.4
19624	6.1109	1.	0.	4213.1
19625	6.1109	1.0909	5.e-002	18.5
19626	6.3875	1.0909	0.	4246.7
19627	6.2953	1.	0.	4220.6
19628	6.2953	1.0909	5.e-002	15.148
19629	6.572	1.0909	0.	4227.
19630	6.4798	1.	0.	4214.4
19631	6.4798	1.0909	5.e-002	12.742
19632	6.7564	1.0909	0.	4199.3
19633	6.6642	1.	0.	4197.2
19634	6.6642	1.0909	5.e-002	11.112
19635	6.9408	1.0909	0.	4165.6
19636	6.8486	1.	0.	4171.6
19637	6.8486	1.0909	5.e-002	10.095
19638	7.1252	1.0909	0.	4127.1
19639	7.033	1.	0.	4139.3
19640	7.033	1.0909	5.e-002	9.5286
19641	7.3097	1.0909	0.	4085.2
19642	7.2174	1.	0.	4102.
19643	7.2174	1.0909	5.e-002	9.2618
19644	7.4941	1.0909	0.	4040.5
19645	7.4019	1.	0.	4060.9
19646	7.4019	1.0909	5.e-002	9.1752
19647	7.6785	1.0909	0.	3994.
19648	7.5863	1.	0.	4017.
19649	7.5863	1.0909	5.e-002	9.1846
19650	7.8629	1.0909	0.	3946.1
19651	7.7707	1.	0.	3970.9
19652	7.7707	1.0909	5.e-002	9.2367
19653	8.0474	1.0909	0.	3897.1
19654	7.9551	1.	0.	3923.4
19655	7.9551	1.0909	5.e-002	9.3004
19656	8.2318	1.0909	0.	3847.5
19657	8.1396	1.	0.	3874.7
19658	8.1396	1.0909	5.e-002	9.3594
19659	8.4162	1.0909	0.	3797.4
19660	8.324	1.	0.	3825.2
19661	8.324	1.0909	5.e-002	9.4059
19662	8.6006	1.0909	0.	3747.
19663	8.5084	1.	0.	3775.2
19664	8.5084	1.0909	5.e-002	9.4371
19665	8.785	1.0909	0.	3696.4
19666	8.6928	1.	0.	3724.8
19667	8.6928	1.0909	5.e-002	9.4531
19668	8.9695	1.0909	0.	3645.7
19669	8.8773	1.	0.	3674.2
19670	8.8773	1.0909	5.e-002	9.4551
19671	9.1539	1.0909	0.	3594.9
19672	9.0617	1.	0.	3623.5
19673	9.0617	1.0909	5.e-002	9.4452
19674	9.3383	1.0909	0.	3544.2
19675	9.2461	1.	0.	3572.7
19676	9.2461	1.0909	5.e-002	9.4254
19677	9.5227	1.0909	0.	3493.6
19678	9.4305	1.	0.	3521.9
19679	9.4305	1.0909	5.e-002	9.3975
19680	9.7072	1.0909	0.	3442.9
19681	9.615	1.	0.	3471.2
19682	9.615	1.0909	5.e-002	9.3633
19683	9.8916	1.0909	0.	3392.4
19684	9.7994	1.	0.	3420.5
19685	9.7994	1.0909	5.e-002	9.3243
19686	10.076	1.0909	0.	3342.
19687	9.9838	1.	0.	3369.9
19688	9.9838	1.0909	5.e-002	9.2818
19689	10.26	1.0909	0.	3291.7
19690	10.168	1.	0.	3319.4
19691	10.168	1.0909	5.e-002	9.2367
19692	10.445	1.0909	0.	3241.5
19693	10.353	1.	0.	3269.
19694	10.353	1.0909	5.e-002	9.1897
19695	10.629	1.0909	0.	3191.4
19696	10.537	1.	0.	3218.7
19697	10.537	1.0909	5.e-002	9.1417
19698	10.814	1.0909	0.	3141.5
19699	10.721	1.	0.	3168.6
19700	10.721	1.0909	5.e-002	9.0934
19701	10.998	1.0909	0.	3091.6
19702	10.906	1.	0.	3118.6
19703	10.906	1.0909	5.e-002	9.0448
19704	11.183	1.0909	0.	3042.
19705	11.09	1.	0.	3068.7
19706	11.09	1.0909	5.e-002	8.9961
19707	11.367	1.0909	0.	2992.4
19708	11.275	1.	0.	3019.
19709	11.275	1.0909	5.e-002	8.948
19710	11.551	1.0909	0.	2943.
19711	11.459	1.	0.	2969.4
19712	11.459	1.0909	5.e-002	8.9003
19713	11.736	1.0909	0.	2893.7
19714	11.644	1.	0.	2919.9
19715	11.644	1.0909	5.e-002	8.853
19716	11.92	1.0909	0.	2844.6
19717	11.828	1.	0.	2870.7
19718	11.828	1.0909	5.e-002	8.8066
19719	12.105	1.0909	0.	2795.6
19720	12.012	1.	0.	2821.5
19721	12.012	1.0909	5.e-002	8.761
19722	12.289	1.0909	0.	2746.8
19723	12.197	1.	0.	2772.5
19724	12.197	1.0909	5.e-002	8.7158
19725	12.474	1.0909	0.	2698.1
19726	12.381	1.	0.	2723.7
19727	12.381	1.0909	5.e-002	8.6714
19728	12.658	1.0909	0.	2649.6
19729	12.566	1.	0.	2675.1
19730	12.566	1.0909	5.e-002	8.6278
19731	12.842	1.0909	0.	2601.3
19732	12.75	1.	0.	2626.6
19733	12.75	1.0909	5.e-002	8.585
19734	13.027	1.0909	0.	2553.1
19735	12.935	1.	0.	2578.3
19736	12.935	1.0909	5.e-002	8.5426
19737	13.211	1.0909	0.	2505.1
19738	13.119	1.	0.	2530.1
19739	13.119	1.0909	5.e-002	8.5011
19740	13.396	1.0909	0.	2457.2
19741	13.303	1.	0.	2482.1
19742	13.303	1.0909	5.e-002	8.4603
19743	13.58	1.0909	0.	2409.6
19744	13.488	1.	0.	2434.3
19745	13.488	1.0909	5.e-002	8.4198
19746	13.764	1.0909	0.	2362.1
19747	13.672	1.	0.	2386.7
19748	13.672	1.0909	5.e-002	8.3799
19749	13.949	1.0909	0.	2314.7
19750	13.857	1.	0.	2339.2
19751	13.857	1.0909	5.e-002	8.3407
19752	14.133	1.0909	0.	2267.6
19753	14.041	1.	0.	2292.
19754	14.041	1.0909	5.e-002	8.302
19755	14.318	1.0909	0.	2220.6
19756	14.226	1.	0.	2244.9
19757	14.226	1.0909	5.e-002	8.2636
19758	14.502	1.0909	0.	2173.8
19759	14.41	1.	0.	2198.
19760	14.41	1.0909	5.e-002	8.2259
19761	14.687	1.0909	0.	2127.3
19762	14.594	1.	0.	2151.3
19763	14.594	1.0909	5.e-002	8.1886
19764	14.871	1.0909	0.	2080.8
19765	14.779	1.	0.	2104.7
19766	14.779	1.0909	5.e-002	8.1516
19767	15.055	1.0909	0.	2034.6
19768	14.963	1.	0.	2058.4
19769	14.963	1.0909	5.e-002	8.115
19770	15.24	1.0909	0.	1988.6
19771	15.148	1.	0.	2012.2
19772	15.148	1.0909	5.e-002	8.079
19773	15.424	1.0909	0.	1942.8
19774	15.332	1.	0.	1966.3
19775	15.332	1.0909	5.e-002	8.0433
19776	15.609	1.0909	0.	1897.1
19777	15.517	1.	0.	1920.5
19778	15.517	1.0909	5.e-002	8.0078
19779	15.793	1.0909	0.	1851.7
19780	15.701	1.	0.	1875.
19781	15.701	1.0909	5.e-002	7.9729
19782	15.978	1.0909	0.	1806.4
19783	15.885	1.	0.	1829.6
19784	15.885	1.0909	5.e-002	7.9383
19785	16.162	1.0909	0.	1761.4
19786	16.07	1.	0.	1784.4
19787	16.07	1.0909	5.e-002	7.904
19788	16.346	1.0909	0.	1716.5
19789	16.254	1.	0.	1739.4
19790	16.254	1.0909	5.e-002	7.87
19791	16.531	1.0909	0.	1671.9
19792	16.439	1.	0.	1694.7
19793	16.439	1.0909	5.e-002	7.8366
19794	16.715	1.0909	0.	1627.4
19795	16.623	1.	0.	1650.1
19796	16.623	1.0909	5.e-002	7.8035
19797	16.9	1.0909	0.	1583.2
19798	16.807	1.	0.	1605.7
19799	16.807	1.0909	5.e-002	7.7707
19800	17.084	1.0909	0.	1539.1
19801	16.992	1.	0.	1561.6
19802	16.992	1.0909	5.e-002	7.7383
19803	17.269	1.0909	0.	1495.3
19804	17.176	1.	0.	1517.6
19805	17.176	1.0909	5.e-002	7.7064
19806	17.453	1.0909	0.	1451.7
19807	17.361	1.	0.	1473.9
19808	17.361	1.0909	5.e-002	7.6748
19809	17.637	1.0909	0.	1408.3
19810	17.545	1.	0.	1430.3
19811	17.545	1.0909	5.e-002	7.6438
19812	17.822	1.0909	0.	1365.1
19813	17.73	1.	0.	1387.
19814	17.73	1.0909	5.e-002	7.6132
19815	18.006	1.0909	0.	1322.1
19816	17.914	1.	0.	1343.9
19817	17.914	1.0909	5.e-002	7.5831
19818	18.191	1.0909	0.	1279.3
19819	18.098	1.	0.	1301.
19820	18.098	1.0909	5.e-002	7.5534
19821	18.375	1.0909	0.	1236.8
19822	18.283	1.	0.	1258.3
19823	18.283	1.0909	5.e-002	7.5244
19824	18.56	1.0909	0.	1194.4
19825	18.467	1.	0.	1215.8
19826	18.467	1.0909	5.e-002	7.496
19827	18.744	1.0909	0.	1152.3
19828	18.652	1.	0.	1173.5
19829	18.652	1.0909	5.e-002	7.4682
19830	18.928	1.0909	0.	1110.4
19831	18.836	1.	0.	1131.5
19832	18.836	1.0909	5.e-002	7.4411
19833	19.113	1.0909	0.	1068.8
19834	19.021	1.	0.	1089.6
19835	19.021	1.0909	5.e-002	7.4148
19836	19.297	1.0909	0.	1027.3
19837	19.205	1.	0.	1048.
19838	19.205	1.0909	5.e-002	7.3892
19839	19.482	1.0909	0.	986.09
19840	19.389	1.	0.	1006.6
19841	19.389	1.0909	5.e-002	7.3644
19842	19.666	1.0909	0.	945.1
19843	19.574	1.	0.	965.45
19844	19.574	1.0909	5.e-002	7.3406
19845	19.85	1.0909	0.	904.35
19846	19.758	1.	0.	924.5
19847	19.758	1.0909	5.e-002	7.3178
19848	20.035	1.0909	0.	863.84
19849	19.943	1.	0.	883.78
19850	19.943	1.0909	5.e-002	7.296
19851	20.219	1.0909	0.	823.57
19852	20.127	1.	0.	843.3
19853	20.127	1.0909	5.e-002	7.2754
19854	20.404	1.0909	0.	783.56
19855	20.312	1.	0.	803.05
19856	20.312	1.0909	5.e-002	7.2561
19857	20.588	1.0909	0.	743.79
19858	20.496	1.	0.	763.05
19859	20.496	1.0909	5.e-002	7.2381
19860	20.773	1.0909	0.	704.3
19861	20.68	1.	0.	723.29
19862	20.68	1.0909	5.e-002	7.2216
19863	20.957	1.0909	0.	665.07
19864	20.865	1.	0.	683.79
19865	20.865	1.0909	5.e-002	7.2069
19866	21.141	1.0909	0.	626.14
19867	21.049	1.	0.	644.55
19868	21.049	1.0909	5.e-002	7.1939
19869	21.326	1.0909	0.	587.52
19870	21.234	1.	0.	605.6
19871	21.234	1.0909	5.e-002	7.1829
19872	21.51	1.0909	0.	549.23
19873	21.418	1.	0.	566.94
19874	21.418	1.0909	5.e-002	7.1742
19875	21.695	1.0909	0.	511.31
19876	21.602	1.	0.	528.61
19877	21.602	1.0909	5.e-002	7.1681
19878	21.879	1.0909	0.	473.8
19879	21.787	1.	0.	490.65
19880	21.787	1.0909	5.e-002	7.165
19881	22.064	1.0909	0.	436.75
19882	21.971	1.	0.	453.08
19883	21.971	1.0909	5.e-002	7.1653
19884	22.248	1.0909	0.	400.24
19885	22.156	1.	0.	415.98
19886	22.156	1.0909	5.e-002	7.1697
19887	22.432	1.0909	0.	364.38
19888	22.34	1.	0.	379.44
19889	22.34	1.0909	5.e-002	7.1793
19890	22.617	1.0909	0.	329.3
19891	22.525	1.	0.	343.56
19892	22.525	1.0909	5.e-002	7.1954
19893	22.801	1.0909	0.	295.22
19894	22.709	1.	0.	308.52
19895	22.709	1.0909	5.e-002	7.2198
19896	22.986	1.0909	0.	262.4
19897	22.893	1.	0.	274.55
19898	22.893	1.0909	5.e-002	7.2554
19899	23.17	1.0909	0.	231.23
19900	23.078	1.	0.	241.99
19901	23.078	1.0909	5.e-002	7.3058
19902	23.355	1.0909	0.	202.28
19903	23.262	1.	0.	211.32
19904	23.262	1.0909	5.e-002	7.3764
19905	23.539	1.0909	0.	176.37
19906	23.447	1.	0.	183.26
19907	23.447	1.0909	5.e-002	7.4729
19908	23.723	1.0909	0.	154.77
19909	23.631	1.	0.	158.86
19910	23.631	1.0909	5.e-002	7.6094
19911	23.816	1.	0.	139.82
19912	23.816	1.0909	5.e-002	7.9317
19913	23.908	1.0909	0.	138.79
19914	4.5433	0.90909	0.	3211.7
19915	4.4511	0.81818	0.	2967.9
19916	4.4511	0.90909	5.e-002	161.25
19917	4.3589	0.90909	0.	2689.2
19918	4.7277	0.90909	0.	3215.2
19919	4.6355	0.81818	0.	2878.6
19920	4.6355	0.90909	5.e-002	114.44
19921	4.9121	0.90909	0.	3384.3
19922	4.8199	0.81818	0.	3061.4
19923	4.8199	0.90909	5.e-002	96.801
19924	5.0966	0.90909	0.	3577.7
19925	5.0044	0.81818	0.	3297.2
19926	5.0044	0.90909	5.e-002	78.788
19927	5.281	0.90909	0.	3755.
19928	5.1888	0.81818	0.	3524.5
19929	5.1888	0.90909	5.e-002	62.637
19930	5.4654	0.90909	0.	3901.4
19931	5.3732	0.81818	0.	3718.9
19932	5.3732	0.90909	5.e-002	49.15
19933	5.6498	0.90909	0.	4013.5
19934	5.5576	0.81818	0.	3873.3
19935	5.5576	0.90909	5.e-002	38.281
19936	5.8343	0.90909	0.	4093.9
19937	5.7421	0.81818	0.	3989.2
19938	5.7421	0.90909	5.e-002	29.653
19939	6.0187	0.90909	0.	4146.7
19940	5.9265	0.81818	0.	4071.1
19941	5.9265	0.90909	5.e-002	22.867
19942	6.2031	0.90909	0.	4176.6
19943	6.1109	0.81818	0.	4124.4
19944	6.1109	0.90909	5.e-002	17.603
19945	6.3875	0.90909	0.	4187.9
19946	6.2953	0.81818	0.	4154.4
19947	6.2953	0.90909	5.e-002	13.627
19948	6.572	0.90909	0.	4184.5
19949	6.4798	0.81818	0.	4165.7
19950	6.4798	0.90909	5.e-002	10.778
19951	6.7564	0.90909	0.	4169.4
19952	6.6642	0.81818	0.	4162.2
19953	6.6642	0.90909	5.e-002	8.9315
19954	6.9408	0.90909	0.	4145.3
19955	6.8486	0.81818	0.	4147.1
19956	6.8486	0.90909	5.e-002	7.937
19957	7.1252	0.90909	0.	4114.2
19958	7.033	0.81818	0.	4123.
19959	7.033	0.90909	5.e-002	7.5782
19960	7.3097	0.90909	0.	4077.8
19961	7.2174	0.81818	0.	4092.
19962	7.2174	0.90909	5.e-002	7.6094
19963	7.4941	0.90909	0.	4037.4
19964	7.4019	0.81818	0.	4055.7
19965	7.4019	0.90909	5.e-002	7.8298
19966	7.6785	0.90909	0.	3994.
19967	7.5863	0.81818	0.	4015.3
19968	7.5863	0.90909	5.e-002	8.1131
19969	7.8629	0.90909	0.	3948.3
19970	7.7707	0.81818	0.	3971.9
19971	7.7707	0.90909	5.e-002	8.3928
19972	8.0474	0.90909	0.	3901.
19973	7.9551	0.81818	0.	3926.3
19974	7.9551	0.90909	5.e-002	8.6392
19975	8.2318	0.90909	0.	3852.4
19976	8.1396	0.81818	0.	3879.
19977	8.1396	0.90909	5.e-002	8.8422
19978	8.4162	0.90909	0.	3803.1
19979	8.324	0.81818	0.	3830.5
19980	8.324	0.90909	5.e-002	9.0013
19981	8.6006	0.90909	0.	3753.1
19982	8.5084	0.81818	0.	3781.1
19983	8.5084	0.90909	5.e-002	9.1203
19984	8.785	0.90909	0.	3702.7
19985	8.6928	0.81818	0.	3731.1
19986	8.6928	0.90909	5.e-002	9.2044
19987	8.9695	0.90909	0.	3652.1
19988	8.8773	0.81818	0.	3680.6
19989	8.8773	0.90909	5.e-002	9.2596
19990	9.1539	0.90909	0.	3601.3
19991	9.0617	0.81818	0.	3629.9
19992	9.0617	0.90909	5.e-002	9.2909
19993	9.3383	0.90909	0.	3550.5
19994	9.2461	0.81818	0.	3579.1
19995	9.2461	0.90909	5.e-002	9.3032
19996	9.5227	0.90909	0.	3499.6
19997	9.4305	0.81818	0.	3528.2
19998	9.4305	0.90909	5.e-002	9.3003
19999	9.7072	0.90909	0.	3448.8
20000	9.615	0.81818	0.	3477.2
20001	9.615	0.90909	5.e-002	9.2857
20002	9.8916	0.90909	0.	3398.
20003	9.7994	0.81818	0.	3426.3
20004	9.7994	0.90909	5.e-002	9.2619
20005	10.076	0.90909	0.	3347.3
20006	9.9838	0.81818	0.	3375.4
20007	9.9838	0.90909	5.e-002	9.2314
20008	10.26	0.90909	0.	3296.7
20009	10.168	0.81818	0.	3324.7
20010	10.168	0.90909	5.e-002	9.1957
20011	10.445	0.90909	0.	3246.3
20012	10.353	0.81818	0.	3274.
20013	10.353	0.90909	5.e-002	9.1562
20014	10.629	0.90909	0.	3195.9
20015	10.537	0.81818	0.	3223.5
20016	10.537	0.90909	5.e-002	9.114
20017	10.814	0.90909	0.	3145.7
20018	10.721	0.81818	0.	3173.1
20019	10.721	0.90909	5.e-002	9.0703
20020	10.998	0.90909	0.	3095.7
20021	10.906	0.81818	0.	3122.8
20022	10.906	0.90909	5.e-002	9.0254
20023	11.183	0.90909	0.	3045.7
20024	11.09	0.81818	0.	3072.7
20025	11.09	0.90909	5.e-002	8.9797
20026	11.367	0.90909	0.	2996.
20027	11.275	0.81818	0.	3022.7
20028	11.275	0.90909	5.e-002	8.9339
20029	11.551	0.90909	0.	2946.4
20030	11.459	0.81818	0.	2972.9
20031	11.459	0.90909	5.e-002	8.8882
20032	11.736	0.90909	0.	2896.9
20033	11.644	0.81818	0.	2923.3
20034	11.644	0.90909	5.e-002	8.8425
20035	11.92	0.90909	0.	2847.6
20036	11.828	0.81818	0.	2873.8
20037	11.828	0.90909	5.e-002	8.7973
20038	12.105	0.90909	0.	2798.5
20039	12.012	0.81818	0.	2824.5
20040	12.012	0.90909	5.e-002	8.7527
20041	12.289	0.90909	0.	2749.5
20042	12.197	0.81818	0.	2775.4
20043	12.197	0.90909	5.e-002	8.7085
20044	12.474	0.90909	0.	2700.7
20045	12.381	0.81818	0.	2726.4
20046	12.381	0.90909	5.e-002	8.6648
20047	12.658	0.90909	0.	2652.
20048	12.566	0.81818	0.	2677.6
20049	12.566	0.90909	5.e-002	8.6219
20050	12.842	0.90909	0.	2603.6
20051	12.75	0.81818	0.	2629.
20052	12.75	0.90909	5.e-002	8.5796
20053	13.027	0.90909	0.	2555.3
20054	12.935	0.81818	0.	2580.6
20055	12.935	0.90909	5.e-002	8.5377
20056	13.211	0.90909	0.	2507.2
20057	13.119	0.81818	0.	2532.3
20058	13.119	0.90909	5.e-002	8.4966
20059	13.396	0.90909	0.	2459.2
20060	13.303	0.81818	0.	2484.2
20061	13.303	0.90909	5.e-002	8.4561
20062	13.58	0.90909	0.	2411.5
20063	13.488	0.81818	0.	2436.3
20064	13.488	0.90909	5.e-002	8.416
20065	13.764	0.90909	0.	2363.9
20066	13.672	0.81818	0.	2388.6
20067	13.672	0.90909	5.e-002	8.3763
20068	13.949	0.90909	0.	2316.5
20069	13.857	0.81818	0.	2341.1
20070	13.857	0.90909	5.e-002	8.3374
20071	14.133	0.90909	0.	2269.3
20072	14.041	0.81818	0.	2293.8
20073	14.041	0.90909	5.e-002	8.2989
20074	14.318	0.90909	0.	2222.3
20075	14.226	0.81818	0.	2246.6
20076	14.226	0.90909	5.e-002	8.2607
20077	14.502	0.90909	0.	2175.4
20078	14.41	0.81818	0.	2199.6
20079	14.41	0.90909	5.e-002	8.2231
20080	14.687	0.90909	0.	2128.8
20081	14.594	0.81818	0.	2152.9
20082	14.594	0.90909	5.e-002	8.186
20083	14.871	0.90909	0.	2082.3
20084	14.779	0.81818	0.	2106.3
20085	14.779	0.90909	5.e-002	8.1491
20086	15.055	0.90909	0.	2036.
20087	14.963	0.81818	0.	2059.9
20088	14.963	0.90909	5.e-002	8.1126
20089	15.24	0.90909	0.	1990.
20090	15.148	0.81818	0.	2013.7
20091	15.148	0.90909	5.e-002	8.0767
20092	15.424	0.90909	0.	1944.1
20093	15.332	0.81818	0.	1967.7
20094	15.332	0.90909	5.e-002	8.0411
20095	15.609	0.90909	0.	1898.4
20096	15.517	0.81818	0.	1921.9
20097	15.517	0.90909	5.e-002	8.0057
20098	15.793	0.90909	0.	1852.9
20099	15.701	0.81818	0.	1876.3
20100	15.701	0.90909	5.e-002	7.9708
20101	15.978	0.90909	0.	1807.6
20102	15.885	0.81818	0.	1830.9
20103	15.885	0.90909	5.e-002	7.9363
20104	16.162	0.90909	0.	1762.5
20105	16.07	0.81818	0.	1785.7
20106	16.07	0.90909	5.e-002	7.902
20107	16.346	0.90909	0.	1717.6
20108	16.254	0.81818	0.	1740.7
20109	16.254	0.90909	5.e-002	7.8681
20110	16.531	0.90909	0.	1673.
20111	16.439	0.81818	0.	1695.9
20112	16.439	0.90909	5.e-002	7.8347
20113	16.715	0.90909	0.	1628.5
20114	16.623	0.81818	0.	1651.2
20115	16.623	0.90909	5.e-002	7.8016
20116	16.9	0.90909	0.	1584.2
20117	16.807	0.81818	0.	1606.8
20118	16.807	0.90909	5.e-002	7.7687
20119	17.084	0.90909	0.	1540.1
20120	16.992	0.81818	0.	1562.6
20121	16.992	0.90909	5.e-002	7.7364
20122	17.269	0.90909	0.	1496.2
20123	17.176	0.81818	0.	1518.6
20124	17.176	0.90909	5.e-002	7.7044
20125	17.453	0.90909	0.	1452.6
20126	17.361	0.81818	0.	1474.8
20127	17.361	0.90909	5.e-002	7.6728
20128	17.637	0.90909	0.	1409.1
20129	17.545	0.81818	0.	1431.2
20130	17.545	0.90909	5.e-002	7.6417
20131	17.822	0.90909	0.	1365.8
20132	17.73	0.81818	0.	1387.9
20133	17.73	0.90909	5.e-002	7.611
20134	18.006	0.90909	0.	1322.8
20135	17.914	0.81818	0.	1344.7
20136	17.914	0.90909	5.e-002	7.5808
20137	18.191	0.90909	0.	1280.
20138	18.098	0.81818	0.	1301.7
20139	18.098	0.90909	5.e-002	7.5511
20140	18.375	0.90909	0.	1237.3
20141	18.283	0.81818	0.	1258.9
20142	18.283	0.90909	5.e-002	7.5219
20143	18.56	0.90909	0.	1194.9
20144	18.467	0.81818	0.	1216.4
20145	18.467	0.90909	5.e-002	7.4934
20146	18.744	0.90909	0.	1152.7
20147	18.652	0.81818	0.	1174.
20148	18.652	0.90909	5.e-002	7.4654
20149	18.928	0.90909	0.	1110.7
20150	18.836	0.81818	0.	1131.9
20151	18.836	0.90909	5.e-002	7.4381
20152	19.113	0.90909	0.	1068.9
20153	19.021	0.81818	0.	1090.
20154	19.021	0.90909	5.e-002	7.4116
20155	19.297	0.90909	0.	1027.4
20156	19.205	0.81818	0.	1048.2
20157	19.205	0.90909	5.e-002	7.3857
20158	19.482	0.90909	0.	986.04
20159	19.389	0.81818	0.	1006.7
20160	19.389	0.90909	5.e-002	7.3607
20161	19.666	0.90909	0.	944.91
20162	19.574	0.81818	0.	965.41
20163	19.574	0.90909	5.e-002	7.3365
20164	19.85	0.90909	0.	904.
20165	19.758	0.81818	0.	924.32
20166	19.758	0.90909	5.e-002	7.3134
20167	20.035	0.90909	0.	863.31
20168	19.943	0.81818	0.	883.44
20169	19.943	0.90909	5.e-002	7.2911
20170	20.219	0.90909	0.	822.85
20171	20.127	0.81818	0.	842.77
20172	20.127	0.90909	5.e-002	7.2701
20173	20.404	0.90909	0.	782.62
20174	20.312	0.81818	0.	802.32
20175	20.312	0.90909	5.e-002	7.2502
20176	20.588	0.90909	0.	742.62
20177	20.496	0.81818	0.	762.09
20178	20.496	0.90909	5.e-002	7.2316
20179	20.773	0.90909	0.	702.86
20180	20.68	0.81818	0.	722.08
20181	20.68	0.90909	5.e-002	7.2143
20182	20.957	0.90909	0.	663.34
20183	20.865	0.81818	0.	682.31
20184	20.865	0.90909	5.e-002	7.1986
20185	21.141	0.90909	0.	624.09
20186	21.049	0.81818	0.	642.77
20187	21.049	0.90909	5.e-002	7.1846
20188	21.326	0.90909	0.	585.11
20189	21.234	0.81818	0.	603.47
20190	21.234	0.90909	5.e-002	7.1723
20191	21.51	0.90909	0.	546.41
20192	21.418	0.81818	0.	564.44
20193	21.418	0.90909	5.e-002	7.1621
20194	21.695	0.90909	0.	508.04
20195	21.602	0.81818	0.	525.68
20196	21.602	0.90909	5.e-002	7.1542
20197	21.879	0.90909	0.	470.02
20198	21.787	0.81818	0.	487.23
20199	21.787	0.90909	5.e-002	7.1488
20200	22.064	0.90909	0.	432.41
20201	21.971	0.81818	0.	449.13
20202	21.971	0.90909	5.e-002	7.1464
20203	22.248	0.90909	0.	395.27
20204	22.156	0.81818	0.	411.42
20205	22.156	0.90909	5.e-002	7.1477
20206	22.432	0.90909	0.	358.7
20207	22.34	0.81818	0.	374.18
20208	22.34	0.90909	5.e-002	7.1533
20209	22.617	0.90909	0.	322.83
20210	22.525	0.81818	0.	337.51
20211	22.525	0.90909	5.e-002	7.1647
20212	22.801	0.90909	0.	287.87
20213	22.709	0.81818	0.	301.57
20214	22.709	0.90909	5.e-002	7.1837
20215	22.986	0.90909	0.	254.09
20216	22.893	0.81818	0.	266.59
20217	22.893	0.90909	5.e-002	7.2133
20218	23.17	0.90909	0.	221.91
20219	23.078	0.81818	0.	232.9
20220	23.078	0.90909	5.e-002	7.2578
20221	23.355	0.90909	0.	191.92
20222	23.262	0.81818	0.	201.02
20223	23.262	0.90909	5.e-002	7.3243
20224	23.539	0.90909	0.	165.03
20225	23.447	0.81818	0.	171.72
20226	23.447	0.90909	5.e-002	7.422
20227	23.723	0.90909	0.	142.67
20228	23.631	0.81818	0.	146.23
20229	23.631	0.90909	5.e-002	7.5717
20230	23.816	0.81818	0.	126.47
20231	23.816	0.90909	5.e-002	7.9467
20232	23.908	0.90909	0.	126.04
20233	4.5433	0.72727	0.	2549.9
20234	4.4511	0.63636	0.	2286.7
20235	4.4511	0.72727	5.e-002	138.19
20236	4.3589	0.72727	0.	2101.6
20237	4.7277	0.72727	0.	2670.
20238	4.6355	0.63636	0.	2324.6
20239	4.6355	0.72727	5.e-002	104.36
20240	4.9121	0.72727	0.	2941.3
20241	4.8199	0.63636	0.	2612.3
20242	4.8199	0.72727	5.e-002	91.904
20243	5.0966	0.72727	0.	3224.9
20244	5.0044	0.63636	0.	2939.2
20245	5.0044	0.72727	5.e-002	77.701
20246	5.281	0.72727	0.	3477.4
20247	5.1888	0.63636	0.	3240.9
20248	5.1888	0.72727	5.e-002	63.675
20249	5.4654	0.72727	0.	3684.6
20250	5.3732	0.63636	0.	3495.1
20251	5.3732	0.72727	5.e-002	50.969
20252	5.6498	0.72727	0.	3845.4
20253	5.5576	0.63636	0.	3697.6
20254	5.5576	0.72727	5.e-002	40.05
20255	5.8343	0.72727	0.	3964.3
20256	5.7421	0.63636	0.	3852.
20257	5.7421	0.72727	5.e-002	30.948
20258	6.0187	0.72727	0.	4047.6
20259	5.9265	0.63636	0.	3964.8
20260	5.9265	0.72727	5.e-002	23.513
20261	6.2031	0.72727	0.	4101.6
20262	6.1109	0.63636	0.	4042.8
20263	6.1109	0.72727	5.e-002	17.548
20264	6.3875	0.72727	0.	4131.9
20265	6.2953	0.63636	0.	4092.5
20266	6.2953	0.72727	5.e-002	12.877
20267	6.572	0.72727	0.	4143.3
20268	6.4798	0.63636	0.	4119.5
20269	6.4798	0.72727	5.e-002	9.3851
20270	6.7564	0.72727	0.	4139.9
20271	6.6642	0.63636	0.	4128.4
20272	6.6642	0.72727	5.e-002	7.0366
20273	6.9408	0.72727	0.	4124.9
20274	6.8486	0.63636	0.	4123.1
20275	6.8486	0.72727	5.e-002	5.8293
20276	7.1252	0.72727	0.	4100.9
20277	7.033	0.63636	0.	4106.7
20278	7.033	0.72727	5.e-002	5.5982
20279	7.3097	0.72727	0.	4069.9
20280	7.2174	0.63636	0.	4081.6
20281	7.2174	0.72727	5.e-002	5.9472
20282	7.4941	0.72727	0.	4033.6
20283	7.4019	0.63636	0.	4049.9
20284	7.4019	0.72727	5.e-002	6.5083
20285	7.6785	0.72727	0.	3993.3
20286	7.5863	0.63636	0.	4013.1
20287	7.5863	0.72727	5.e-002	7.0842
20288	7.8629	0.72727	0.	3950.
20289	7.7707	0.63636	0.	3972.4
20290	7.7707	0.72727	5.e-002	7.5964
20291	8.0474	0.72727	0.	3904.3
20292	7.9551	0.63636	0.	3928.8
20293	7.9551	0.72727	5.e-002	8.0228
20294	8.2318	0.72727	0.	3857.
20295	8.1396	0.63636	0.	3882.9
20296	8.1396	0.72727	5.e-002	8.364
20297	8.4162	0.72727	0.	3808.5
20298	8.324	0.63636	0.	3835.4
20299	8.324	0.72727	5.e-002	8.629
20300	8.6006	0.72727	0.	3759.1
20301	8.5084	0.63636	0.	3786.7
20302	8.5084	0.72727	5.e-002	8.8294
20303	8.785	0.72727	0.	3709.
20304	8.6928	0.63636	0.	3737.1
20305	8.6928	0.72727	5.e-002	8.9762
20306	8.9695	0.72727	0.	3658.5
20307	8.8773	0.63636	0.	3686.9
20308	8.8773	0.72727	5.e-002	9.0798
20309	9.1539	0.72727	0.	3607.7
20310	9.0617	0.63636	0.	3636.3
20311	9.0617	0.72727	5.e-002	9.1486
20312	9.3383	0.72727	0.	3556.8
20313	9.2461	0.63636	0.	3585.5
20314	9.2461	0.72727	5.e-002	9.1899
20315	9.5227	0.72727	0.	3505.8
20316	9.4305	0.63636	0.	3534.4
20317	9.4305	0.72727	5.e-002	9.2096
20318	9.7072	0.72727	0.	3454.7
20319	9.615	0.63636	0.	3483.3
20320	9.615	0.72727	5.e-002	9.2125
20321	9.8916	0.72727	0.	3403.7
20322	9.7994	0.63636	0.	3432.2
20323	9.7994	0.72727	5.e-002	9.2026
20324	10.076	0.72727	0.	3352.8
20325	9.9838	0.63636	0.	3381.1
20326	9.9838	0.72727	5.e-002	9.1828
20327	10.26	0.72727	0.	3302.
20328	10.168	0.63636	0.	3330.1
20329	10.168	0.72727	5.e-002	9.1555
20330	10.445	0.72727	0.	3251.2
20331	10.353	0.63636	0.	3279.2
20332	10.353	0.72727	5.e-002	9.1226
20333	10.629	0.72727	0.	3200.6
20334	10.537	0.63636	0.	3228.4
20335	10.537	0.72727	5.e-002	9.0858
20336	10.814	0.72727	0.	3150.2
20337	10.721	0.63636	0.	3177.7
20338	10.721	0.72727	5.e-002	9.0462
20339	10.998	0.72727	0.	3099.9
20340	10.906	0.63636	0.	3127.2
20341	10.906	0.72727	5.e-002	9.0047
20342	11.183	0.72727	0.	3049.7
20343	11.09	0.63636	0.	3076.9
20344	11.09	0.72727	5.e-002	8.9616
20345	11.367	0.72727	0.	2999.7
20346	11.275	0.63636	0.	3026.7
20347	11.275	0.72727	5.e-002	8.918
20348	11.551	0.72727	0.	2949.9
20349	11.459	0.63636	0.	2976.7
20350	11.459	0.72727	5.e-002	8.874
20351	11.736	0.72727	0.	2900.3
20352	11.644	0.63636	0.	2926.8
20353	11.644	0.72727	5.e-002	8.8298
20354	11.92	0.72727	0.	2850.8
20355	11.828	0.63636	0.	2877.2
20356	11.828	0.72727	5.e-002	8.7859
20357	12.105	0.72727	0.	2801.5
20358	12.012	0.63636	0.	2827.7
20359	12.012	0.72727	5.e-002	8.7423
20360	12.289	0.72727	0.	2752.3
20361	12.197	0.63636	0.	2778.4
20362	12.197	0.72727	5.e-002	8.6989
20363	12.474	0.72727	0.	2703.4
20364	12.381	0.63636	0.	2729.3
20365	12.381	0.72727	5.e-002	8.6559
20366	12.658	0.72727	0.	2654.6
20367	12.566	0.63636	0.	2680.4
20368	12.566	0.72727	5.e-002	8.6136
20369	12.842	0.72727	0.	2606.
20370	12.75	0.63636	0.	2631.6
20371	12.75	0.72727	5.e-002	8.5718
20372	13.027	0.72727	0.	2557.6
20373	12.935	0.63636	0.	2583.
20374	12.935	0.72727	5.e-002	8.5304
20375	13.211	0.72727	0.	2509.4
20376	13.119	0.63636	0.	2534.7
20377	13.119	0.72727	5.e-002	8.4897
20378	13.396	0.72727	0.	2461.4
20379	13.303	0.63636	0.	2486.5
20380	13.303	0.72727	5.e-002	8.4496
20381	13.58	0.72727	0.	2413.5
20382	13.488	0.63636	0.	2438.5
20383	13.488	0.72727	5.e-002	8.4098
20384	13.764	0.72727	0.	2365.9
20385	13.672	0.63636	0.	2390.7
20386	13.672	0.72727	5.e-002	8.3704
20387	13.949	0.72727	0.	2318.4
20388	13.857	0.63636	0.	2343.1
20389	13.857	0.72727	5.e-002	8.3317
20390	14.133	0.72727	0.	2271.1
20391	14.041	0.63636	0.	2295.7
20392	14.041	0.72727	5.e-002	8.2935
20393	14.318	0.72727	0.	2224.
20394	14.226	0.63636	0.	2248.5
20395	14.226	0.72727	5.e-002	8.2555
20396	14.502	0.72727	0.	2177.1
20397	14.41	0.63636	0.	2201.4
20398	14.41	0.72727	5.e-002	8.2181
20399	14.687	0.72727	0.	2130.4
20400	14.594	0.63636	0.	2154.6
20401	14.594	0.72727	5.e-002	8.1811
20402	14.871	0.72727	0.	2083.9
20403	14.779	0.63636	0.	2108.
20404	14.779	0.72727	5.e-002	8.1444
20405	15.055	0.72727	0.	2037.6
20406	14.963	0.63636	0.	2061.5
20407	14.963	0.72727	5.e-002	8.1081
20408	15.24	0.72727	0.	1991.5
20409	15.148	0.63636	0.	2015.3
20410	15.148	0.72727	5.e-002	8.0723
20411	15.424	0.72727	0.	1945.5
20412	15.332	0.63636	0.	1969.3
20413	15.332	0.72727	5.e-002	8.0367
20414	15.609	0.72727	0.	1899.8
20415	15.517	0.63636	0.	1923.4
20416	15.517	0.72727	5.e-002	8.0015
20417	15.793	0.72727	0.	1854.3
20418	15.701	0.63636	0.	1877.8
20419	15.701	0.72727	5.e-002	7.9666
20420	15.978	0.72727	0.	1809.
20421	15.885	0.63636	0.	1832.3
20422	15.885	0.72727	5.e-002	7.9322
20423	16.162	0.72727	0.	1763.8
20424	16.07	0.63636	0.	1787.1
20425	16.07	0.72727	5.e-002	7.8979
20426	16.346	0.72727	0.	1718.9
20427	16.254	0.63636	0.	1742.
20428	16.254	0.72727	5.e-002	7.8641
20429	16.531	0.72727	0.	1674.2
20430	16.439	0.63636	0.	1697.2
20431	16.439	0.72727	5.e-002	7.8306
20432	16.715	0.72727	0.	1629.7
20433	16.623	0.63636	0.	1652.5
20434	16.623	0.72727	5.e-002	7.7975
20435	16.9	0.72727	0.	1585.3
20436	16.807	0.63636	0.	1608.1
20437	16.807	0.72727	5.e-002	7.7647
20438	17.084	0.72727	0.	1541.2
20439	16.992	0.63636	0.	1563.8
20440	16.992	0.72727	5.e-002	7.7323
20441	17.269	0.72727	0.	1497.3
20442	17.176	0.63636	0.	1519.8
20443	17.176	0.72727	5.e-002	7.7004
20444	17.453	0.72727	0.	1453.6
20445	17.361	0.63636	0.	1476.
20446	17.361	0.72727	5.e-002	7.6687
20447	17.637	0.72727	0.	1410.1
20448	17.545	0.63636	0.	1432.3
20449	17.545	0.72727	5.e-002	7.6375
20450	17.822	0.72727	0.	1366.8
20451	17.73	0.63636	0.	1388.9
20452	17.73	0.72727	5.e-002	7.6068
20453	18.006	0.72727	0.	1323.6
20454	17.914	0.63636	0.	1345.6
20455	17.914	0.72727	5.e-002	7.5765
20456	18.191	0.72727	0.	1280.7
20457	18.098	0.63636	0.	1302.6
20458	18.098	0.72727	5.e-002	7.5467
20459	18.375	0.72727	0.	1238.
20460	18.283	0.63636	0.	1259.8
20461	18.283	0.72727	5.e-002	7.5174
20462	18.56	0.72727	0.	1195.6
20463	18.467	0.63636	0.	1217.1
20464	18.467	0.72727	5.e-002	7.4887
20465	18.744	0.72727	0.	1153.3
20466	18.652	0.63636	0.	1174.7
20467	18.652	0.72727	5.e-002	7.4606
20468	18.928	0.72727	0.	1111.2
20469	18.836	0.63636	0.	1132.5
20470	18.836	0.72727	5.e-002	7.4331
20471	19.113	0.72727	0.	1069.3
20472	19.021	0.63636	0.	1090.5
20473	19.021	0.72727	5.e-002	7.4063
20474	19.297	0.72727	0.	1027.6
20475	19.205	0.63636	0.	1048.6
20476	19.205	0.72727	5.e-002	7.3803
20477	19.482	0.72727	0.	986.15
20478	19.389	0.63636	0.	1007.
20479	19.389	0.72727	5.e-002	7.3549
20480	19.666	0.72727	0.	944.88
20481	19.574	0.63636	0.	965.57
20482	19.574	0.72727	5.e-002	7.3305
20483	19.85	0.72727	0.	903.82
20484	19.758	0.63636	0.	924.33
20485	19.758	0.72727	5.e-002	7.307
20486	20.035	0.72727	0.	862.97
20487	19.943	0.63636	0.	883.3
20488	19.943	0.72727	5.e-002	7.2843
20489	20.219	0.72727	0.	822.32
20490	20.127	0.63636	0.	842.46
20491	20.127	0.72727	5.e-002	7.2628
20492	20.404	0.72727	0.	781.87
20493	20.312	0.63636	0.	801.82
20494	20.312	0.72727	5.e-002	7.2424
20495	20.588	0.72727	0.	741.64
20496	20.496	0.63636	0.	761.37
20497	20.496	0.72727	5.e-002	7.2231
20498	20.773	0.72727	0.	701.62
20499	20.68	0.63636	0.	721.13
20500	20.68	0.72727	5.e-002	7.2051
20501	20.957	0.72727	0.	661.82
20502	20.865	0.63636	0.	681.08
20503	20.865	0.72727	5.e-002	7.1885
20504	21.141	0.72727	0.	622.24
20505	21.049	0.63636	0.	641.25
20506	21.049	0.72727	5.e-002	7.1734
20507	21.326	0.72727	0.	582.9
20508	21.234	0.63636	0.	601.62
20509	21.234	0.72727	5.e-002	7.1599
20510	21.51	0.72727	0.	543.81
20511	21.418	0.63636	0.	562.21
20512	21.418	0.72727	5.e-002	7.1482
20513	21.695	0.72727	0.	504.98
20514	21.602	0.63636	0.	523.04
20515	21.602	0.72727	5.e-002	7.1384
20516	21.879	0.72727	0.	466.45
20517	21.787	0.63636	0.	484.11
20518	21.787	0.72727	5.e-002	7.1308
20519	22.064	0.72727	0.	428.25
20520	21.971	0.63636	0.	445.47
20521	21.971	0.72727	5.e-002	7.1258
20522	22.248	0.72727	0.	390.44
20523	22.156	0.63636	0.	407.13
20524	22.156	0.72727	5.e-002	7.1237
20525	22.432	0.72727	0.	353.1
20526	22.34	0.63636	0.	369.17
20527	22.34	0.72727	5.e-002	7.1252
20528	22.617	0.72727	0.	316.36
20529	22.525	0.63636	0.	331.67
20530	22.525	0.72727	5.e-002	7.1315
20531	22.801	0.72727	0.	280.38
20532	22.709	0.63636	0.	294.74
20533	22.709	0.72727	5.e-002	7.1441
20534	22.986	0.72727	0.	245.43
20535	22.893	0.63636	0.	258.6
20536	22.893	0.72727	5.e-002	7.1659
20537	23.17	0.72727	0.	211.94
20538	23.078	0.63636	0.	223.54
20539	23.078	0.72727	5.e-002	7.2017
20540	23.355	0.72727	0.	180.56
20541	23.262	0.63636	0.	190.08
20542	23.262	0.72727	5.e-002	7.2599
20543	23.539	0.72727	0.	152.3
20544	23.447	0.63636	0.	159.05
20545	23.447	0.72727	5.e-002	7.3544
20546	23.723	0.72727	0.	128.81
20547	23.631	0.63636	0.	131.9
20548	23.631	0.72727	5.e-002	7.5173
20549	23.816	0.63636	0.	110.99
20550	23.816	0.72727	5.e-002	7.9536
20551	23.908	0.72727	0.	111.28
20552	4.5433	0.54545	0.	1981.
20553	4.4511	0.45455	0.	1687.1
20554	4.4511	0.54545	5.e-002	122.78
20555	4.3589	0.54545	0.	1581.4
20556	4.7277	0.54545	0.	2222.7
20557	4.6355	0.45455	0.	1872.9
20558	4.6355	0.54545	5.e-002	98.606
20559	4.9121	0.54545	0.	2586.7
20560	4.8199	0.45455	0.	2264.3
20561	4.8199	0.54545	5.e-002	88.836
20562	5.0966	0.54545	0.	2942.2
20563	5.0044	0.45455	0.	2664.
20564	5.0044	0.54545	5.e-002	76.839
20565	5.281	0.54545	0.	3251.1
20566	5.1888	0.45455	0.	3019.1
20567	5.1888	0.54545	5.e-002	64.308
20568	5.4654	0.54545	0.	3503.7
20569	5.3732	0.45455	0.	3315.2
20570	5.3732	0.54545	5.e-002	52.36
20571	5.6498	0.54545	0.	3701.6
20572	5.5576	0.45455	0.	3552.1
20573	5.5576	0.54545	5.e-002	41.63
20574	5.8343	0.54545	0.	3850.9
20575	5.7421	0.45455	0.	3735.2
20576	5.7421	0.54545	5.e-002	32.353
20577	6.0187	0.54545	0.	3959.
20578	5.9265	0.45455	0.	3871.9
20579	5.9265	0.54545	5.e-002	24.536
20580	6.2031	0.54545	0.	4033.1
20581	6.1109	0.45455	0.	3969.9
20582	6.1109	0.54545	5.e-002	18.079
20583	6.3875	0.54545	0.	4079.8
20584	6.2953	0.45455	0.	4036.
20585	6.2953	0.54545	5.e-002	12.848
20586	6.572	0.54545	0.	4104.4
20587	6.4798	0.45455	0.	4076.5
20588	6.4798	0.54545	5.e-002	8.7236
20589	6.7564	0.54545	0.	4111.5
20590	6.6642	0.45455	0.	4096.4
20591	6.6642	0.54545	5.e-002	5.6772
20592	6.9408	0.54545	0.	4104.8
20593	6.8486	0.45455	0.	4099.9
20594	6.8486	0.54545	5.e-002	3.8891
20595	7.1252	0.54545	0.	4087.4
20596	7.033	0.45455	0.	4090.6
20597	7.033	0.54545	5.e-002	3.6139
20598	7.3097	0.54545	0.	4061.7
20599	7.2174	0.45455	0.	4071.2
20600	7.2174	0.54545	5.e-002	4.3312
20601	7.4941	0.54545	0.	4029.4
20602	7.4019	0.45455	0.	4043.9
20603	7.4019	0.54545	5.e-002	5.278
20604	7.6785	0.54545	0.	3992.2
20605	7.5863	0.45455	0.	4010.6
20606	7.5863	0.54545	5.e-002	6.1524
20607	7.8629	0.54545	0.	3951.2
20608	7.7707	0.45455	0.	3972.5
20609	7.7707	0.54545	5.e-002	6.8845
20610	8.0474	0.54545	0.	3907.3
20611	7.9551	0.45455	0.	3930.9
20612	7.9551	0.54545	5.e-002	7.4729
20613	8.2318	0.54545	0.	3861.3
20614	8.1396	0.45455	0.	3886.6
20615	8.1396	0.54545	5.e-002	7.9347
20616	8.4162	0.54545	0.	3813.7
20617	8.324	0.45455	0.	3840.1
20618	8.324	0.54545	5.e-002	8.2904
20619	8.6006	0.54545	0.	3764.8
20620	8.5084	0.45455	0.	3792.2
20621	8.5084	0.54545	5.e-002	8.5595
20622	8.785	0.54545	0.	3715.1
20623	8.6928	0.45455	0.	3743.1
20624	8.6928	0.54545	5.e-002	8.7588
20625	8.9695	0.54545	0.	3664.8
20626	8.8773	0.45455	0.	3693.2
20627	8.8773	0.54545	5.e-002	8.9024
20628	9.1539	0.54545	0.	3614.1
20629	9.0617	0.45455	0.	3642.7
20630	9.0617	0.54545	5.e-002	9.0021
20631	9.3383	0.54545	0.	3563.1
20632	9.2461	0.45455	0.	3591.9
20633	9.2461	0.54545	5.e-002	9.0672
20634	9.5227	0.54545	0.	3512.
20635	9.4305	0.45455	0.	3540.7
20636	9.4305	0.54545	5.e-002	9.1053
20637	9.7072	0.54545	0.	3460.8
20638	9.615	0.45455	0.	3489.5
20639	9.615	0.54545	5.e-002	9.1224
20640	9.8916	0.54545	0.	3409.6
20641	9.7994	0.45455	0.	3438.2
20642	9.7994	0.54545	5.e-002	9.1234
20643	10.076	0.54545	0.	3358.4
20644	9.9838	0.45455	0.	3386.9
20645	9.9838	0.54545	5.e-002	9.1122
20646	10.26	0.54545	0.	3307.3
20647	10.168	0.45455	0.	3335.7
20648	10.168	0.54545	5.e-002	9.0917
20649	10.445	0.54545	0.	3256.3
20650	10.353	0.45455	0.	3284.5
20651	10.353	0.54545	5.e-002	9.0639
20652	10.629	0.54545	0.	3205.5
20653	10.537	0.45455	0.	3233.5
20654	10.537	0.54545	5.e-002	9.0312
20655	10.814	0.54545	0.	3154.8
20656	10.721	0.45455	0.	3182.6
20657	10.721	0.54545	5.e-002	8.9948
20658	10.998	0.54545	0.	3104.2
20659	10.906	0.45455	0.	3131.8
20660	10.906	0.54545	5.e-002	8.9558
20661	11.183	0.54545	0.	3053.9
20662	11.09	0.45455	0.	3081.3
20663	11.09	0.54545	5.e-002	8.9148
20664	11.367	0.54545	0.	3003.7
20665	11.275	0.45455	0.	3030.9
20666	11.275	0.54545	5.e-002	8.8729
20667	11.551	0.54545	0.	2953.6
20668	11.459	0.45455	0.	2980.6
20669	11.459	0.54545	5.e-002	8.8302
20670	11.736	0.54545	0.	2903.8
20671	11.644	0.45455	0.	2930.6
20672	11.644	0.54545	5.e-002	8.7871
20673	11.92	0.54545	0.	2854.1
20674	11.828	0.45455	0.	2880.7
20675	11.828	0.54545	5.e-002	8.744
20676	12.105	0.54545	0.	2804.7
20677	12.012	0.45455	0.	2831.1
20678	12.012	0.54545	5.e-002	8.7012
20679	12.289	0.54545	0.	2755.4
20680	12.197	0.45455	0.	2781.6
20681	12.197	0.54545	5.e-002	8.6585
20682	12.474	0.54545	0.	2706.3
20683	12.381	0.45455	0.	2732.4
20684	12.381	0.54545	5.e-002	8.6161
20685	12.658	0.54545	0.	2657.4
20686	12.566	0.45455	0.	2683.3
20687	12.566	0.54545	5.e-002	8.5743
20688	12.842	0.54545	0.	2608.7
20689	12.75	0.45455	0.	2634.4
20690	12.75	0.54545	5.e-002	8.533
20691	13.027	0.54545	0.	2560.1
20692	12.935	0.45455	0.	2585.7
20693	12.935	0.54545	5.e-002	8.492
20694	13.211	0.54545	0.	2511.8
20695	13.119	0.45455	0.	2537.3
20696	13.119	0.54545	5.e-002	8.4517
20697	13.396	0.54545	0.	2463.7
20698	13.303	0.45455	0.	2489.
20699	13.303	0.54545	5.e-002	8.4119
20700	13.58	0.54545	0.	2415.7
20701	13.488	0.45455	0.	2440.9
20702	13.488	0.54545	5.e-002	8.3724
20703	13.764	0.54545	0.	2368.
20704	13.672	0.45455	0.	2393.
20705	13.672	0.54545	5.e-002	8.3334
20706	13.949	0.54545	0.	2320.4
20707	13.857	0.45455	0.	2345.3
20708	13.857	0.54545	5.e-002	8.295
20709	14.133	0.54545	0.	2273.1
20710	14.041	0.45455	0.	2297.8
20711	14.041	0.54545	5.e-002	8.257
20712	14.318	0.54545	0.	2225.9
20713	14.226	0.45455	0.	2250.5
20714	14.226	0.54545	5.e-002	8.2193
20715	14.502	0.54545	0.	2179.
20716	14.41	0.45455	0.	2203.4
20717	14.41	0.54545	5.e-002	8.1821
20718	14.687	0.54545	0.	2132.2
20719	14.594	0.45455	0.	2156.6
20720	14.594	0.54545	5.e-002	8.1454
20721	14.871	0.54545	0.	2085.6
20722	14.779	0.45455	0.	2109.9
20723	14.779	0.54545	5.e-002	8.1089
20724	15.055	0.54545	0.	2039.3
20725	14.963	0.45455	0.	2063.4
20726	14.963	0.54545	5.e-002	8.0728
20727	15.24	0.54545	0.	1993.1
20728	15.148	0.45455	0.	2017.1
20729	15.148	0.54545	5.e-002	8.0372
20730	15.424	0.54545	0.	1947.2
20731	15.332	0.45455	0.	1971.
20732	15.332	0.54545	5.e-002	8.0019
20733	15.609	0.54545	0.	1901.4
20734	15.517	0.45455	0.	1925.1
20735	15.517	0.54545	5.e-002	7.9668
20736	15.793	0.54545	0.	1855.8
20737	15.701	0.45455	0.	1879.4
20738	15.701	0.54545	5.e-002	7.9322
20739	15.978	0.54545	0.	1810.5
20740	15.885	0.45455	0.	1834.
20741	15.885	0.54545	5.e-002	7.8979
20742	16.162	0.54545	0.	1765.3
20743	16.07	0.45455	0.	1788.7
20744	16.07	0.54545	5.e-002	7.8638
20745	16.346	0.54545	0.	1720.3
20746	16.254	0.45455	0.	1743.6
20747	16.254	0.54545	5.e-002	7.8301
20748	16.531	0.54545	0.	1675.6
20749	16.439	0.45455	0.	1698.7
20750	16.439	0.54545	5.e-002	7.7969
20751	16.715	0.54545	0.	1631.
20752	16.623	0.45455	0.	1654.
20753	16.623	0.54545	5.e-002	7.764
20754	16.9	0.54545	0.	1586.6
20755	16.807	0.45455	0.	1609.6
20756	16.807	0.54545	5.e-002	7.7313
20757	17.084	0.54545	0.	1542.5
20758	16.992	0.45455	0.	1565.3
20759	16.992	0.54545	5.e-002	7.6991
20760	17.269	0.54545	0.	1498.5
20761	17.176	0.45455	0.	1521.2
20762	17.176	0.54545	5.e-002	7.6672
20763	17.453	0.54545	0.	1454.7
20764	17.361	0.45455	0.	1477.3
20765	17.361	0.54545	5.e-002	7.6357
20766	17.637	0.54545	0.	1411.2
20767	17.545	0.45455	0.	1433.6
20768	17.545	0.54545	5.e-002	7.6047
20769	17.822	0.54545	0.	1367.8
20770	17.73	0.45455	0.	1390.2
20771	17.73	0.54545	5.e-002	7.5741
20772	18.006	0.54545	0.	1324.7
20773	17.914	0.45455	0.	1346.9
20774	17.914	0.54545	5.e-002	7.5439
20775	18.191	0.54545	0.	1281.7
20776	18.098	0.45455	0.	1303.8
20777	18.098	0.54545	5.e-002	7.5142
20778	18.375	0.54545	0.	1238.9
20779	18.283	0.45455	0.	1260.9
20780	18.283	0.54545	5.e-002	7.4851
20781	18.56	0.54545	0.	1196.4
20782	18.467	0.45455	0.	1218.2
20783	18.467	0.54545	5.e-002	7.4565
20784	18.744	0.54545	0.	1154.
20785	18.652	0.45455	0.	1175.7
20786	18.652	0.54545	5.e-002	7.4285
20787	18.928	0.54545	0.	1111.8
20788	18.836	0.45455	0.	1133.4
20789	18.836	0.54545	5.e-002	7.4011
20790	19.113	0.54545	0.	1069.9
20791	19.021	0.45455	0.	1091.3
20792	19.021	0.54545	5.e-002	7.3744
20793	19.297	0.54545	0.	1028.1
20794	19.205	0.45455	0.	1049.4
20795	19.205	0.54545	5.e-002	7.3484
20796	19.482	0.54545	0.	986.49
20797	19.389	0.45455	0.	1007.6
20798	19.389	0.54545	5.e-002	7.3231
20799	19.666	0.54545	0.	945.09
20800	19.574	0.45455	0.	966.07
20801	19.574	0.54545	5.e-002	7.2987
20802	19.85	0.54545	0.	903.88
20803	19.758	0.45455	0.	924.71
20804	19.758	0.54545	5.e-002	7.2752
20805	20.035	0.54545	0.	862.87
20806	19.943	0.45455	0.	883.53
20807	19.943	0.54545	5.e-002	7.2526
20808	20.219	0.54545	0.	822.04
20809	20.127	0.45455	0.	842.53
20810	20.127	0.54545	5.e-002	7.231
20811	20.404	0.54545	0.	781.4
20812	20.312	0.45455	0.	801.71
20813	20.312	0.54545	5.e-002	7.2105
20814	20.588	0.54545	0.	740.95
20815	20.496	0.45455	0.	761.07
20816	20.496	0.54545	5.e-002	7.191
20817	20.773	0.54545	0.	700.68
20818	20.68	0.45455	0.	720.61
20819	20.68	0.54545	5.e-002	7.1728
20820	20.957	0.54545	0.	660.61
20821	20.865	0.45455	0.	680.32
20822	20.865	0.54545	5.e-002	7.1559
20823	21.141	0.54545	0.	620.73
20824	21.049	0.45455	0.	640.21
20825	21.049	0.54545	5.e-002	7.1403
20826	21.326	0.54545	0.	581.04
20827	21.234	0.45455	0.	600.28
20828	21.234	0.54545	5.e-002	7.1262
20829	21.51	0.54545	0.	541.56
20830	21.418	0.45455	0.	560.52
20831	21.418	0.54545	5.e-002	7.1137
20832	21.695	0.54545	0.	502.3
20833	21.602	0.45455	0.	520.96
20834	21.602	0.54545	5.e-002	7.1029
20835	21.879	0.54545	0.	463.27
20836	21.787	0.45455	0.	481.59
20837	21.787	0.54545	5.e-002	7.0938
20838	22.064	0.54545	0.	424.5
20839	21.971	0.45455	0.	442.43
20840	21.971	0.54545	5.e-002	7.0869
20841	22.248	0.54545	0.	386.02
20842	22.156	0.45455	0.	403.5
20843	22.156	0.54545	5.e-002	7.0823
20844	22.432	0.54545	0.	347.91
20845	22.34	0.45455	0.	364.84
20846	22.34	0.54545	5.e-002	7.0806
20847	22.617	0.54545	0.	310.23
20848	22.525	0.45455	0.	326.5
20849	22.525	0.54545	5.e-002	7.0823
20850	22.801	0.54545	0.	273.14
20851	22.709	0.45455	0.	288.58
20852	22.709	0.54545	5.e-002	7.089
20853	22.986	0.54545	0.	236.86
20854	22.893	0.45455	0.	251.2
20855	22.893	0.54545	5.e-002	7.1027
20856	23.17	0.54545	0.	201.77
20857	23.078	0.45455	0.	214.59
20858	23.078	0.54545	5.e-002	7.1277
20859	23.355	0.54545	0.	168.5
20860	23.262	0.45455	0.	179.19
20861	23.262	0.54545	5.e-002	7.1732
20862	23.539	0.54545	0.	138.22
20863	23.447	0.45455	0.	145.76
20864	23.447	0.54545	5.e-002	7.2573
20865	23.723	0.54545	0.	112.95
20866	23.631	0.45455	0.	115.92
20867	23.631	0.54545	5.e-002	7.4268
20868	23.816	0.45455	0.	92.885
20869	23.816	0.54545	5.e-002	7.9469
20870	23.908	0.54545	0.	94.032
20871	4.5433	0.36364	0.	1504.4
20872	4.4511	0.27273	0.	1178.7
20873	4.4511	0.36364	5.e-002	114.99
20874	4.3589	0.36364	0.	1104.8
20875	4.7277	0.36364	0.	1885.6
20876	4.6355	0.27273	0.	1558.5
20877	4.6355	0.36364	5.e-002	97.508
20878	4.9121	0.36364	0.	2328.8
20879	4.8199	0.27273	0.	2037.3
20880	4.8199	0.36364	5.e-002	88.538
20881	5.0966	0.36364	0.	2734.1
20882	5.0044	0.27273	0.	2481.2
20883	5.0044	0.36364	5.e-002	77.395
20884	5.281	0.36364	0.	3079.1
20885	5.1888	0.27273	0.	2864.4
20886	5.1888	0.36364	5.e-002	65.672
20887	5.4654	0.36364	0.	3361.
20888	5.3732	0.27273	0.	3182.9
20889	5.3732	0.36364	5.e-002	54.245
20890	5.6498	0.36364	0.	3584.
20891	5.5576	0.27273	0.	3439.8
20892	5.5576	0.36364	5.e-002	43.704
20893	5.8343	0.36364	0.	3755.2
20894	5.7421	0.27273	0.	3641.2
20895	5.7421	0.36364	5.e-002	34.356
20896	6.0187	0.36364	0.	3882.1
20897	5.9265	0.27273	0.	3794.5
20898	5.9265	0.36364	5.e-002	26.301
20899	6.2031	0.36364	0.	3972.3
20900	6.1109	0.27273	0.	3907.3
20901	6.1109	0.36364	5.e-002	19.506
20902	6.3875	0.36364	0.	4032.5
20903	6.2953	0.27273	0.	3986.4
20904	6.2953	0.36364	5.e-002	13.871
20905	6.572	0.36364	0.	4068.3
20906	6.4798	0.27273	0.	4038.
20907	6.4798	0.36364	5.e-002	9.2673
20908	6.7564	0.36364	0.	4084.7
20909	6.6642	0.27273	0.	4067.3
20910	6.6642	0.36364	5.e-002	5.58
20911	6.9408	0.36364	0.	4085.6
20912	6.8486	0.27273	0.	4078.6
20913	6.8486	0.36364	5.e-002	2.7954
20914	7.1252	0.36364	0.	4074.4
20915	7.033	0.27273	0.	4075.7
20916	7.033	0.36364	5.e-002	1.602
20917	7.3097	0.36364	0.	4053.5
20918	7.2174	0.27273	0.	4061.5
20919	7.2174	0.36364	5.e-002	2.634
20920	7.4941	0.36364	0.	4025.1
20921	7.4019	0.27273	0.	4038.4
20922	7.4019	0.36364	5.e-002	3.971
20923	7.6785	0.36364	0.	3990.9
20924	7.5863	0.27273	0.	4008.4
20925	7.5863	0.36364	5.e-002	5.1033
20926	7.8629	0.36364	0.	3952.3
20927	7.7707	0.27273	0.	3973.
20928	7.7707	0.36364	5.e-002	6.0088
20929	8.0474	0.36364	0.	3910.2
20930	7.9551	0.27273	0.	3933.3
20931	7.9551	0.36364	5.e-002	6.718
20932	8.2318	0.36364	0.	3865.4
20933	8.1396	0.27273	0.	3890.5
20934	8.1396	0.36364	5.e-002	7.2656
20935	8.4162	0.36364	0.	3818.7
20936	8.324	0.27273	0.	3845.2
20937	8.324	0.36364	5.e-002	7.6827
20938	8.6006	0.36364	0.	3770.5
20939	8.5084	0.27273	0.	3798.
20940	8.5084	0.36364	5.e-002	7.9957
20941	8.785	0.36364	0.	3721.2
20942	8.6928	0.27273	0.	3749.5
20943	8.6928	0.36364	5.e-002	8.2261
20944	8.9695	0.36364	0.	3671.1
20945	8.8773	0.27273	0.	3699.9
20946	8.8773	0.36364	5.e-002	8.3914
20947	9.1539	0.36364	0.	3620.5
20948	9.0617	0.27273	0.	3649.6
20949	9.0617	0.36364	5.e-002	8.5055
20950	9.3383	0.36364	0.	3569.5
20951	9.2461	0.27273	0.	3598.8
20952	9.2461	0.36364	5.e-002	8.5799
20953	9.5227	0.36364	0.	3518.3
20954	9.4305	0.27273	0.	3547.7
20955	9.4305	0.36364	5.e-002	8.6233
20956	9.7072	0.36364	0.	3467.
20957	9.615	0.27273	0.	3496.4
20958	9.615	0.36364	5.e-002	8.643
20959	9.8916	0.36364	0.	3415.6
20960	9.7994	0.27273	0.	3444.9
20961	9.7994	0.36364	5.e-002	8.6445
20962	10.076	0.36364	0.	3364.2
20963	9.9838	0.27273	0.	3393.5
20964	9.9838	0.36364	5.e-002	8.6324
20965	10.26	0.36364	0.	3312.9
20966	10.168	0.27273	0.	3342.
20967	10.168	0.36364	5.e-002	8.61
20968	10.445	0.36364	0.	3261.7
20969	10.353	0.27273	0.	3290.7
20970	10.353	0.36364	5.e-002	8.5798
20971	10.629	0.36364	0.	3210.6
20972	10.537	0.27273	0.	3239.4
20973	10.537	0.36364	5.e-002	8.5442
20974	10.814	0.36364	0.	3159.6
20975	10.721	0.27273	0.	3188.3
20976	10.721	0.36364	5.e-002	8.505
20977	10.998	0.36364	0.	3108.9
20978	10.906	0.27273	0.	3137.4
20979	10.906	0.36364	5.e-002	8.463
20980	11.183	0.36364	0.	3058.3
20981	11.09	0.27273	0.	3086.6
20982	11.09	0.36364	5.e-002	8.4191
20983	11.367	0.36364	0.	3007.9
20984	11.275	0.27273	0.	3036.
20985	11.275	0.36364	5.e-002	8.3744
20986	11.551	0.36364	0.	2957.6
20987	11.459	0.27273	0.	2985.6
20988	11.459	0.36364	5.e-002	8.3292
20989	11.736	0.36364	0.	2907.6
20990	11.644	0.27273	0.	2935.4
20991	11.644	0.36364	5.e-002	8.2838
20992	11.92	0.36364	0.	2857.7
20993	11.828	0.27273	0.	2885.4
20994	11.828	0.36364	5.e-002	8.2387
20995	12.105	0.36364	0.	2808.1
20996	12.012	0.27273	0.	2835.6
20997	12.012	0.36364	5.e-002	8.1942
20998	12.289	0.36364	0.	2758.7
20999	12.197	0.27273	0.	2786.
21000	12.197	0.36364	5.e-002	8.15
21001	12.474	0.36364	0.	2709.4
21002	12.381	0.27273	0.	2736.6
21003	12.381	0.36364	5.e-002	8.1063
21004	12.658	0.36364	0.	2660.4
21005	12.566	0.27273	0.	2687.4
21006	12.566	0.36364	5.e-002	8.0636
21007	12.842	0.36364	0.	2611.5
21008	12.75	0.27273	0.	2638.4
21009	12.75	0.36364	5.e-002	8.0215
21010	13.027	0.36364	0.	2562.9
21011	12.935	0.27273	0.	2589.6
21012	12.935	0.36364	5.e-002	7.9801
21013	13.211	0.36364	0.	2514.5
21014	13.119	0.27273	0.	2541.1
21015	13.119	0.36364	5.e-002	7.9395
21016	13.396	0.36364	0.	2466.2
21017	13.303	0.27273	0.	2492.7
21018	13.303	0.36364	5.e-002	7.8997
21019	13.58	0.36364	0.	2418.2
21020	13.488	0.27273	0.	2444.5
21021	13.488	0.36364	5.e-002	7.8604
21022	13.764	0.36364	0.	2370.4
21023	13.672	0.27273	0.	2396.6
21024	13.672	0.36364	5.e-002	7.8217
21025	13.949	0.36364	0.	2322.7
21026	13.857	0.27273	0.	2348.8
21027	13.857	0.36364	5.e-002	7.7839
21028	14.133	0.36364	0.	2275.3
21029	14.041	0.27273	0.	2301.3
21030	14.041	0.36364	5.e-002	7.7466
21031	14.318	0.36364	0.	2228.1
21032	14.226	0.27273	0.	2254.
21033	14.226	0.36364	5.e-002	7.7098
21034	14.502	0.36364	0.	2181.1
21035	14.41	0.27273	0.	2206.8
21036	14.41	0.36364	5.e-002	7.6737
21037	14.687	0.36364	0.	2134.3
21038	14.594	0.27273	0.	2159.9
21039	14.594	0.36364	5.e-002	7.6382
21040	14.871	0.36364	0.	2087.7
21041	14.779	0.27273	0.	2113.2
21042	14.779	0.36364	5.e-002	7.6031
21043	15.055	0.36364	0.	2041.3
21044	14.963	0.27273	0.	2066.7
21045	14.963	0.36364	5.e-002	7.5685
21046	15.24	0.36364	0.	1995.
21047	15.148	0.27273	0.	2020.4
21048	15.148	0.36364	5.e-002	7.5345
21049	15.424	0.36364	0.	1949.
21050	15.332	0.27273	0.	1974.3
21051	15.332	0.36364	5.e-002	7.501
21052	15.609	0.36364	0.	1903.2
21053	15.517	0.27273	0.	1928.4
21054	15.517	0.36364	5.e-002	7.4678
21055	15.793	0.36364	0.	1857.6
21056	15.701	0.27273	0.	1882.7
21057	15.701	0.36364	5.e-002	7.4352
21058	15.978	0.36364	0.	1812.2
21059	15.885	0.27273	0.	1837.2
21060	15.885	0.36364	5.e-002	7.403
21061	16.162	0.36364	0.	1767.
21062	16.07	0.27273	0.	1791.9
21063	16.07	0.36364	5.e-002	7.3712
21064	16.346	0.36364	0.	1722.
21065	16.254	0.27273	0.	1746.8
21066	16.254	0.36364	5.e-002	7.3399
21067	16.531	0.36364	0.	1677.3
21068	16.439	0.27273	0.	1701.9
21069	16.439	0.36364	5.e-002	7.3092
21070	16.715	0.36364	0.	1632.7
21071	16.623	0.27273	0.	1657.2
21072	16.623	0.36364	5.e-002	7.2789
21073	16.9	0.36364	0.	1588.3
21074	16.807	0.27273	0.	1612.7
21075	16.807	0.36364	5.e-002	7.249
21076	17.084	0.36364	0.	1544.1
21077	16.992	0.27273	0.	1568.5
21078	16.992	0.36364	5.e-002	7.2197
21079	17.269	0.36364	0.	1500.1
21080	17.176	0.27273	0.	1524.4
21081	17.176	0.36364	5.e-002	7.1909
21082	17.453	0.36364	0.	1456.3
21083	17.361	0.27273	0.	1480.5
21084	17.361	0.36364	5.e-002	7.1626
21085	17.637	0.36364	0.	1412.7
21086	17.545	0.27273	0.	1436.8
21087	17.545	0.36364	5.e-002	7.1349
21088	17.822	0.36364	0.	1369.3
21089	17.73	0.27273	0.	1393.3
21090	17.73	0.36364	5.e-002	7.1078
21091	18.006	0.36364	0.	1326.1
21092	17.914	0.27273	0.	1350.
21093	17.914	0.36364	5.e-002	7.0813
21094	18.191	0.36364	0.	1283.
21095	18.098	0.27273	0.	1306.9
21096	18.098	0.36364	5.e-002	7.0554
21097	18.375	0.36364	0.	1240.2
21098	18.283	0.27273	0.	1264.
21099	18.283	0.36364	5.e-002	7.0303
21100	18.56	0.36364	0.	1197.6
21101	18.467	0.27273	0.	1221.2
21102	18.467	0.36364	5.e-002	7.0059
21103	18.744	0.36364	0.	1155.2
21104	18.652	0.27273	0.	1178.7
21105	18.652	0.36364	5.e-002	6.9823
21106	18.928	0.36364	0.	1112.9
21107	18.836	0.27273	0.	1136.3
21108	18.836	0.36364	5.e-002	6.9595
21109	19.113	0.36364	0.	1070.9
21110	19.021	0.27273	0.	1094.2
21111	19.021	0.36364	5.e-002	6.9377
21112	19.297	0.36364	0.	1029.
21113	19.205	0.27273	0.	1052.2
21114	19.205	0.36364	5.e-002	6.9168
21115	19.482	0.36364	0.	987.28
21116	19.389	0.27273	0.	1010.4
21117	19.389	0.36364	5.e-002	6.8969
21118	19.666	0.36364	0.	945.77
21119	19.574	0.27273	0.	968.77
21120	19.574	0.36364	5.e-002	6.8782
21121	19.85	0.36364	0.	904.44
21122	19.758	0.27273	0.	927.31
21123	19.758	0.36364	5.e-002	6.8607
21124	20.035	0.36364	0.	863.28
21125	19.943	0.27273	0.	886.03
21126	19.943	0.36364	5.e-002	6.8443
21127	20.219	0.36364	0.	822.29
21128	20.127	0.27273	0.	844.91
21129	20.127	0.36364	5.e-002	6.8294
21130	20.404	0.36364	0.	781.48
21131	20.312	0.27273	0.	803.96
21132	20.312	0.36364	5.e-002	6.8159
21133	20.588	0.36364	0.	740.83
21134	20.496	0.27273	0.	763.17
21135	20.496	0.36364	5.e-002	6.8039
21136	20.773	0.36364	0.	700.35
21137	20.68	0.27273	0.	722.53
21138	20.68	0.36364	5.e-002	6.7935
21139	20.957	0.36364	0.	660.03
21140	20.865	0.27273	0.	682.04
21141	20.865	0.36364	5.e-002	6.7848
21142	21.141	0.36364	0.	619.88
21143	21.049	0.27273	0.	641.7
21144	21.049	0.36364	5.e-002	6.778
21145	21.326	0.36364	0.	579.89
21146	21.234	0.27273	0.	601.51
21147	21.234	0.36364	5.e-002	6.7731
21148	21.51	0.36364	0.	540.06
21149	21.418	0.27273	0.	561.46
21150	21.418	0.36364	5.e-002	6.7703
21151	21.695	0.36364	0.	500.4
21152	21.602	0.27273	0.	521.55
21153	21.602	0.36364	5.e-002	6.7696
21154	21.879	0.36364	0.	460.91
21155	21.787	0.27273	0.	481.79
21156	21.787	0.36364	5.e-002	6.7712
21157	22.064	0.36364	0.	421.62
21158	21.971	0.27273	0.	442.17
21159	21.971	0.36364	5.e-002	6.7754
21160	22.248	0.36364	0.	382.52
21161	22.156	0.27273	0.	402.7
21162	22.156	0.36364	5.e-002	6.7823
21163	22.432	0.36364	0.	343.67
21164	22.34	0.27273	0.	363.4
21165	22.34	0.36364	5.e-002	6.7922
21166	22.617	0.36364	0.	305.11
21167	22.525	0.27273	0.	324.28
21168	22.525	0.36364	5.e-002	6.8056
21169	22.801	0.36364	0.	266.92
21170	22.709	0.27273	0.	285.39
21171	22.709	0.36364	5.e-002	6.8234
21172	22.986	0.36364	0.	229.24
21173	22.893	0.27273	0.	246.78
21174	22.893	0.36364	5.e-002	6.847
21175	23.17	0.36364	0.	192.34
21176	23.078	0.27273	0.	208.57
21177	23.078	0.36364	5.e-002	6.8796
21178	23.355	0.36364	0.	156.7
21179	23.262	0.27273	0.	170.98
21180	23.262	0.36364	5.e-002	6.9271
21181	23.539	0.36364	0.	123.42
21182	23.447	0.27273	0.	134.44
21183	23.447	0.36364	5.e-002	7.0081
21184	23.723	0.36364	0.	94.998
21185	23.631	0.27273	0.	100.15
21186	23.631	0.36364	5.e-002	7.1929
21187	23.816	0.27273	0.	71.858
21188	23.816	0.36364	5.e-002	7.8511
21189	23.908	0.36364	0.	73.535
21190	4.5433	0.18182	0.	1183.5
21191	4.4511	0.18182	5.e-002	127.08
21192	4.4511	9.0909e-002	0.	755.57
21193	4.3589	0.18182	0.	671.61
21194	4.7277	0.18182	0.	1699.3
21195	4.6355	0.18182	5.e-002	112.83
21196	4.6355	9.0909e-002	0.	1322.
21197	4.9121	0.18182	0.	2184.7
21198	4.8199	0.18182	5.e-002	104.06
21199	4.8199	9.0909e-002	0.	1853.7
21200	5.0966	0.18182	0.	2608.2
21201	5.0044	0.18182	5.e-002	93.389
21202	5.0044	9.0909e-002	0.	2323.8
21203	5.281	0.18182	0.	2965.9
21204	5.1888	0.18182	5.e-002	81.546
21205	5.1888	9.0909e-002	0.	2726.6
21206	5.4654	0.18182	0.	3260.
21207	5.3732	0.18182	5.e-002	69.456
21208	5.3732	9.0909e-002	0.	3063.2
21209	5.6498	0.18182	0.	3495.8
21210	5.5576	0.18182	5.e-002	57.859
21211	5.5576	9.0909e-002	0.	3337.4
21212	5.8343	0.18182	0.	3679.8
21213	5.7421	0.18182	5.e-002	47.245
21214	5.7421	9.0909e-002	0.	3555.1
21215	6.0187	0.18182	0.	3819.3
21216	5.9265	0.18182	5.e-002	37.87
21217	5.9265	9.0909e-002	0.	3723.4
21218	6.2031	0.18182	0.	3921.2
21219	6.1109	0.18182	5.e-002	29.811
21220	6.1109	9.0909e-002	0.	3849.5
21221	6.3875	0.18182	0.	3991.8
21222	6.2953	0.18182	5.e-002	23.03
21223	6.2953	9.0909e-002	0.	3940.3
21224	6.572	0.18182	0.	4036.9
21225	6.4798	0.18182	5.e-002	17.423
21226	6.4798	9.0909e-002	0.	4001.8
21227	6.7564	0.18182	0.	4061.1
21228	6.6642	0.18182	5.e-002	12.854
21229	6.6642	9.0909e-002	0.	4039.4
21230	6.9408	0.18182	0.	4068.7
21231	6.8486	0.18182	5.e-002	9.1809
21232	6.8486	9.0909e-002	0.	4057.7
21233	7.1252	0.18182	0.	4062.9
21234	7.033	0.18182	5.e-002	6.2674
21235	7.033	9.0909e-002	0.	4060.6
21236	7.3097	0.18182	0.	4046.5
21237	7.2174	0.18182	5.e-002	3.9931
21238	7.2174	9.0909e-002	0.	4051.
21239	7.4941	0.18182	0.	4021.8
21240	7.4019	0.18182	5.e-002	2.2651
21241	7.4019	9.0909e-002	0.	4031.6
21242	7.6785	0.18182	0.	3990.5
21243	7.5863	0.18182	5.e-002	1.0739
21244	7.5863	9.0909e-002	0.	4004.5
21245	7.8629	0.18182	0.	3954.1
21246	7.7707	0.18182	5.e-002	0.77926
21247	7.7707	9.0909e-002	0.	3971.3
21248	8.0474	0.18182	0.	3913.7
21249	7.9551	0.18182	5.e-002	1.2398
21250	7.9551	9.0909e-002	0.	3933.3
21251	8.2318	0.18182	0.	3870.3
21252	8.1396	0.18182	5.e-002	1.6984
21253	8.1396	9.0909e-002	0.	3891.7
21254	8.4162	0.18182	0.	3824.6
21255	8.324	0.18182	5.e-002	2.0314
21256	8.324	9.0909e-002	0.	3847.3
21257	8.6006	0.18182	0.	3777.1
21258	8.5084	0.18182	5.e-002	2.2466
21259	8.5084	9.0909e-002	0.	3800.7
21260	8.785	0.18182	0.	3728.3
21261	8.6928	0.18182	5.e-002	2.3658
21262	8.6928	9.0909e-002	0.	3752.5
21263	8.9695	0.18182	0.	3678.5
21264	8.8773	0.18182	5.e-002	2.4099
21265	8.8773	9.0909e-002	0.	3703.1
21266	9.1539	0.18182	0.	3628.
21267	9.0617	0.18182	5.e-002	2.3967
21268	9.0617	9.0909e-002	0.	3652.8
21269	9.3383	0.18182	0.	3577.1
21270	9.2461	0.18182	5.e-002	2.3408
21271	9.2461	9.0909e-002	0.	3601.9
21272	9.5227	0.18182	0.	3525.9
21273	9.4305	0.18182	5.e-002	2.2539
21274	9.4305	9.0909e-002	0.	3550.6
21275	9.7072	0.18182	0.	3474.4
21276	9.615	0.18182	5.e-002	2.1454
21277	9.615	9.0909e-002	0.	3499.
21278	9.8916	0.18182	0.	3422.9
21279	9.7994	0.18182	5.e-002	2.0225
21280	9.7994	9.0909e-002	0.	3447.2
21281	10.076	0.18182	0.	3371.4
21282	9.9838	0.18182	5.e-002	1.891
21283	9.9838	9.0909e-002	0.	3395.4
21284	10.26	0.18182	0.	3319.9
21285	10.168	0.18182	5.e-002	1.7551
21286	10.168	9.0909e-002	0.	3343.6
21287	10.445	0.18182	0.	3268.6
21288	10.353	0.18182	5.e-002	1.618
21289	10.353	9.0909e-002	0.	3291.9
21290	10.629	0.18182	0.	3217.3
21291	10.537	0.18182	5.e-002	1.4824
21292	10.537	9.0909e-002	0.	3240.2
21293	10.814	0.18182	0.	3166.2
21294	10.721	0.18182	5.e-002	1.3503
21295	10.721	9.0909e-002	0.	3188.8
21296	10.998	0.18182	0.	3115.2
21297	10.906	0.18182	5.e-002	1.2226
21298	10.906	9.0909e-002	0.	3137.4
21299	11.183	0.18182	0.	3064.5
21300	11.09	0.18182	5.e-002	1.1002
21301	11.09	9.0909e-002	0.	3086.3
21302	11.367	0.18182	0.	3013.9
21303	11.275	0.18182	5.e-002	0.98394
21304	11.275	9.0909e-002	0.	3035.3
21305	11.551	0.18182	0.	2963.5
21306	11.459	0.18182	5.e-002	0.87405
21307	11.459	9.0909e-002	0.	2984.6
21308	11.736	0.18182	0.	2913.3
21309	11.644	0.18182	5.e-002	0.7705
21310	11.644	9.0909e-002	0.	2934.
21311	11.92	0.18182	0.	2863.4
21312	11.828	0.18182	5.e-002	0.67361
21313	11.828	9.0909e-002	0.	2883.7
21314	12.105	0.18182	0.	2813.6
21315	12.012	0.18182	5.e-002	0.5832
21316	12.012	9.0909e-002	0.	2833.6
21317	12.289	0.18182	0.	2764.
21318	12.197	0.18182	5.e-002	0.4989
21319	12.197	9.0909e-002	0.	2783.7
21320	12.474	0.18182	0.	2714.7
21321	12.381	0.18182	5.e-002	0.42061
21322	12.381	9.0909e-002	0.	2734.
21323	12.658	0.18182	0.	2665.6
21324	12.566	0.18182	5.e-002	0.34829
21325	12.566	9.0909e-002	0.	2684.5
21326	12.842	0.18182	0.	2616.6
21327	12.75	0.18182	5.e-002	0.28154
21328	12.75	9.0909e-002	0.	2635.3
21329	13.027	0.18182	0.	2567.9
21330	12.935	0.18182	5.e-002	0.21997
21331	12.935	9.0909e-002	0.	2586.3
21332	13.211	0.18182	0.	2519.4
21333	13.119	0.18182	5.e-002	0.16363
21334	13.119	9.0909e-002	0.	2537.5
21335	13.396	0.18182	0.	2471.2
21336	13.303	0.18182	5.e-002	0.11232
21337	13.303	9.0909e-002	0.	2488.9
21338	13.58	0.18182	0.	2423.1
21339	13.488	0.18182	5.e-002	6.6141e-002
21340	13.488	9.0909e-002	0.	2440.5
21341	13.764	0.18182	0.	2375.2
21342	13.672	0.18182	5.e-002	2.8705e-002
21343	13.672	9.0909e-002	0.	2392.3
21344	13.949	0.18182	0.	2327.6
21345	13.857	0.18182	5.e-002	2.9993e-002
21346	13.857	9.0909e-002	0.	2344.4
21347	14.133	0.18182	0.	2280.1
21348	14.041	0.18182	5.e-002	6.0733e-002
21349	14.041	9.0909e-002	0.	2296.7
21350	14.318	0.18182	0.	2232.9
21351	14.226	0.18182	5.e-002	9.2009e-002
21352	14.226	9.0909e-002	0.	2249.2
21353	14.502	0.18182	0.	2185.9
21354	14.41	0.18182	5.e-002	0.12081
21355	14.41	9.0909e-002	0.	2201.8
21356	14.687	0.18182	0.	2139.
21357	14.594	0.18182	5.e-002	0.14692
21358	14.594	9.0909e-002	0.	2154.8
21359	14.871	0.18182	0.	2092.4
21360	14.779	0.18182	5.e-002	0.17051
21361	14.779	9.0909e-002	0.	2107.9
21362	15.055	0.18182	0.	2046.
21363	14.963	0.18182	5.e-002	0.19158
21364	14.963	9.0909e-002	0.	2061.2
21365	15.24	0.18182	0.	1999.8
21366	15.148	0.18182	5.e-002	0.21027
21367	15.148	9.0909e-002	0.	2014.7
21368	15.424	0.18182	0.	1953.8
21369	15.332	0.18182	5.e-002	0.22685
21370	15.332	9.0909e-002	0.	1968.4
21371	15.609	0.18182	0.	1908.
21372	15.517	0.18182	5.e-002	0.24158
21373	15.517	9.0909e-002	0.	1922.4
21374	15.793	0.18182	0.	1862.4
21375	15.701	0.18182	5.e-002	0.25449
21376	15.701	9.0909e-002	0.	1876.5
21377	15.978	0.18182	0.	1817.
21378	15.885	0.18182	5.e-002	0.26588
21379	15.885	9.0909e-002	0.	1830.9
21380	16.162	0.18182	0.	1771.9
21381	16.07	0.18182	5.e-002	0.27603
21382	16.07	9.0909e-002	0.	1785.4
21383	16.346	0.18182	0.	1726.9
21384	16.254	0.18182	5.e-002	0.28512
21385	16.254	9.0909e-002	0.	1740.2
21386	16.531	0.18182	0.	1682.1
21387	16.439	0.18182	5.e-002	0.29341
21388	16.439	9.0909e-002	0.	1695.1
21389	16.715	0.18182	0.	1637.5
21390	16.623	0.18182	5.e-002	0.30127
21391	16.623	9.0909e-002	0.	1650.3
21392	16.9	0.18182	0.	1593.1
21393	16.807	0.18182	5.e-002	0.30911
21394	16.807	9.0909e-002	0.	1605.6
21395	17.084	0.18182	0.	1549.
21396	16.992	0.18182	5.e-002	0.31725
21397	16.992	9.0909e-002	0.	1561.2
21398	17.269	0.18182	0.	1505.
21399	17.176	0.18182	5.e-002	0.32619
21400	17.176	9.0909e-002	0.	1516.9
21401	17.453	0.18182	0.	1461.2
21402	17.361	0.18182	5.e-002	0.33648
21403	17.361	9.0909e-002	0.	1472.9
21404	17.637	0.18182	0.	1417.6
21405	17.545	0.18182	5.e-002	0.34862
21406	17.545	9.0909e-002	0.	1429.
21407	17.822	0.18182	0.	1374.2
21408	17.73	0.18182	5.e-002	0.3632
21409	17.73	9.0909e-002	0.	1385.4
21410	18.006	0.18182	0.	1331.
21411	17.914	0.18182	5.e-002	0.38083
21412	17.914	9.0909e-002	0.	1341.9
21413	18.191	0.18182	0.	1288.
21414	18.098	0.18182	5.e-002	0.40206
21415	18.098	9.0909e-002	0.	1298.6
21416	18.375	0.18182	0.	1245.2
21417	18.283	0.18182	5.e-002	0.42747
21418	18.283	9.0909e-002	0.	1255.5
21419	18.56	0.18182	0.	1202.6
21420	18.467	0.18182	5.e-002	0.45756
21421	18.467	9.0909e-002	0.	1212.6
21422	18.744	0.18182	0.	1160.1
21423	18.652	0.18182	5.e-002	0.49276
21424	18.652	9.0909e-002	0.	1169.9
21425	18.928	0.18182	0.	1117.9
21426	18.836	0.18182	5.e-002	0.53354
21427	18.836	9.0909e-002	0.	1127.3
21428	19.113	0.18182	0.	1075.8
21429	19.021	0.18182	5.e-002	0.58029
21430	19.021	9.0909e-002	0.	1084.9
21431	19.297	0.18182	0.	1033.9
21432	19.205	0.18182	5.e-002	0.63331
21433	19.205	9.0909e-002	0.	1042.8
21434	19.482	0.18182	0.	992.16
21435	19.389	0.18182	5.e-002	0.69299
21436	19.389	9.0909e-002	0.	1000.7
21437	19.666	0.18182	0.	950.6
21438	19.574	0.18182	5.e-002	0.75972
21439	19.574	9.0909e-002	0.	958.9
21440	19.85	0.18182	0.	909.2
21441	19.758	0.18182	5.e-002	0.83388
21442	19.758	9.0909e-002	0.	917.23
21443	20.035	0.18182	0.	867.97
21444	19.943	0.18182	5.e-002	0.91581
21445	19.943	9.0909e-002	0.	875.72
21446	20.219	0.18182	0.	826.89
21447	20.127	0.18182	5.e-002	1.0061
21448	20.127	9.0909e-002	0.	834.38
21449	20.404	0.18182	0.	785.97
21450	20.312	0.18182	5.e-002	1.1051
21451	20.312	9.0909e-002	0.	793.19
21452	20.588	0.18182	0.	745.19
21453	20.496	0.18182	5.e-002	1.2134
21454	20.496	9.0909e-002	0.	752.17
21455	20.773	0.18182	0.	704.56
21456	20.68	0.18182	5.e-002	1.3316
21457	20.68	9.0909e-002	0.	711.29
21458	20.957	0.18182	0.	664.07
21459	20.865	0.18182	5.e-002	1.4604
21460	20.865	9.0909e-002	0.	670.57
21461	21.141	0.18182	0.	623.71
21462	21.049	0.18182	5.e-002	1.6005
21463	21.049	9.0909e-002	0.	630.
21464	21.326	0.18182	0.	583.47
21465	21.234	0.18182	5.e-002	1.7527
21466	21.234	9.0909e-002	0.	589.57
21467	21.51	0.18182	0.	543.36
21468	21.418	0.18182	5.e-002	1.9179
21469	21.418	9.0909e-002	0.	549.29
21470	21.695	0.18182	0.	503.37
21471	21.602	0.18182	5.e-002	2.0973
21472	21.602	9.0909e-002	0.	509.16
21473	21.879	0.18182	0.	463.49
21474	21.787	0.18182	5.e-002	2.2918
21475	21.787	9.0909e-002	0.	469.17
21476	22.064	0.18182	0.	423.73
21477	21.971	0.18182	5.e-002	2.5029
21478	21.971	9.0909e-002	0.	429.33
21479	22.248	0.18182	0.	384.09
21480	22.156	0.18182	5.e-002	2.7322
21481	22.156	9.0909e-002	0.	389.66
21482	22.432	0.18182	0.	344.57
21483	22.34	0.18182	5.e-002	2.9814
21484	22.34	9.0909e-002	0.	350.15
21485	22.617	0.18182	0.	305.18
21486	22.525	0.18182	5.e-002	3.253
21487	22.525	9.0909e-002	0.	310.83
21488	22.801	0.18182	0.	265.94
21489	22.709	0.18182	5.e-002	3.5498
21490	22.709	9.0909e-002	0.	271.74
21491	22.986	0.18182	0.	226.89
21492	22.893	0.18182	5.e-002	3.8758
21493	22.893	9.0909e-002	0.	232.9
21494	23.17	0.18182	0.	188.12
21495	23.078	0.18182	5.e-002	4.2366
21496	23.078	9.0909e-002	0.	194.39
21497	23.355	0.18182	0.	149.77
21498	23.262	0.18182	5.e-002	4.6418
21499	23.262	9.0909e-002	0.	156.32
21500	23.539	0.18182	0.	112.28
21501	23.447	0.18182	5.e-002	5.1045
21502	23.447	9.0909e-002	0.	118.88
21503	23.723	0.18182	0.	77.475
21504	23.631	0.18182	5.e-002	5.6848
21505	23.631	9.0909e-002	0.	82.598
21506	23.816	0.18182	5.e-002	6.9255
21507	23.816	9.0909e-002	0.	48.932
21508	23.908	0.18182	0.	48.592
21509	23.723	0.18182	0.1	77.475
21510	23.816	0.27273	0.1	71.858
21511	23.908	0.18182	0.1	48.592
21512	23.816	9.0909e-002	0.1	48.932
21513	23.539	0.18182	0.1	112.28
21514	23.631	0.27273	0.1	100.15
21515	23.631	9.0909e-002	0.1	82.598
21516	23.355	0.18182	0.1	149.77
21517	23.447	0.27273	0.1	134.44
21518	23.447	9.0909e-002	0.1	118.88
21519	23.17	0.18182	0.1	188.12
21520	23.262	0.27273	0.1	170.98
21521	23.262	9.0909e-002	0.1	156.32
21522	22.986	0.18182	0.1	226.89
21523	23.078	0.27273	0.1	208.57
21524	23.078	9.0909e-002	0.1	194.39
21525	22.801	0.18182	0.1	265.94
21526	22.893	0.27273	0.1	246.78
21527	22.893	9.0909e-002	0.1	232.9
21528	22.617	0.18182	0.1	305.18
21529	22.709	0.27273	0.1	285.39
21530	22.709	9.0909e-002	0.1	271.74
21531	22.432	0.18182	0.1	344.57
21532	22.525	0.27273	0.1	324.28
21533	22.525	9.0909e-002	0.1	310.83
21534	22.248	0.18182	0.1	384.09
21535	22.34	0.27273	0.1	363.4
21536	22.34	9.0909e-002	0.1	350.15
21537	22.064	0.18182	0.1	423.73
21538	22.156	0.27273	0.1	402.7
21539	22.156	9.0909e-002	0.1	389.66
21540	21.879	0.18182	0.1	463.49
21541	21.971	0.27273	0.1	442.17
21542	21.971	9.0909e-002	0.1	429.33
21543	21.695	0.18182	0.1	503.37
21544	21.787	0.27273	0.1	481.79
21545	21.787	9.0909e-002	0.1	469.17
21546	21.51	0.18182	0.1	543.36
21547	21.602	0.27273	0.1	521.55
21548	21.602	9.0909e-002	0.1	509.16
21549	21.326	0.18182	0.1	583.47
21550	21.418	0.27273	0.1	561.46
21551	21.418	9.0909e-002	0.1	549.29
21552	21.141	0.18182	0.1	623.71
21553	21.234	0.27273	0.1	601.51
21554	21.234	9.0909e-002	0.1	589.57
21555	20.957	0.18182	0.1	664.07
21556	21.049	0.27273	0.1	641.7
21557	21.049	9.0909e-002	0.1	630.
21558	20.773	0.18182	0.1	704.56
21559	20.865	0.27273	0.1	682.04
21560	20.865	9.0909e-002	0.1	670.57
21561	20.588	0.18182	0.1	745.19
21562	20.68	0.27273	0.1	722.53
21563	20.68	9.0909e-002	0.1	711.29
21564	20.404	0.18182	0.1	785.97
21565	20.496	0.27273	0.1	763.17
21566	20.496	9.0909e-002	0.1	752.17
21567	20.219	0.18182	0.1	826.89
21568	20.312	0.27273	0.1	803.96
21569	20.312	9.0909e-002	0.1	793.19
21570	20.035	0.18182	0.1	867.97
21571	20.127	0.27273	0.1	844.91
21572	20.127	9.0909e-002	0.1	834.38
21573	19.85	0.18182	0.1	909.2
21574	19.943	0.27273	0.1	886.03
21575	19.943	9.0909e-002	0.1	875.72
21576	19.666	0.18182	0.1	950.6
21577	19.758	0.27273	0.1	927.31
21578	19.758	9.0909e-002	0.1	917.23
21579	19.482	0.18182	0.1	992.16
21580	19.574	0.27273	0.1	968.77
21581	19.574	9.0909e-002	0.1	958.9
21582	19.297	0.18182	0.1	1033.9
21583	19.389	0.27273	0.1	1010.4
21584	19.389	9.0909e-002	0.1	1000.7
21585	19.113	0.18182	0.1	1075.8
21586	19.205	0.27273	0.1	1052.2
21587	19.205	9.0909e-002	0.1	1042.8
21588	18.928	0.18182	0.1	1117.9
21589	19.021	0.27273	0.1	1094.2
21590	19.021	9.0909e-002	0.1	1084.9
21591	18.744	0.18182	0.1	1160.1
21592	18.836	0.27273	0.1	1136.3
21593	18.836	9.0909e-002	0.1	1127.3
21594	18.56	0.18182	0.1	1202.6
21595	18.652	0.27273	0.1	1178.7
21596	18.652	9.0909e-002	0.1	1169.9
21597	18.375	0.18182	0.1	1245.2
21598	18.467	0.27273	0.1	1221.2
21599	18.467	9.0909e-002	0.1	1212.6
21600	18.191	0.18182	0.1	1288.
21601	18.283	0.27273	0.1	1264.
21602	18.283	9.0909e-002	0.1	1255.5
21603	18.006	0.18182	0.1	1331.
21604	18.098	0.27273	0.1	1306.9
21605	18.098	9.0909e-002	0.1	1298.6
21606	17.822	0.18182	0.1	1374.2
21607	17.914	0.27273	0.1	1350.
21608	17.914	9.0909e-002	0.1	1341.9
21609	17.637	0.18182	0.1	1417.6
21610	17.73	0.27273	0.1	1393.3
21611	17.73	9.0909e-002	0.1	1385.4
21612	17.453	0.18182	0.1	1461.2
21613	17.545	0.27273	0.1	1436.8
21614	17.545	9.0909e-002	0.1	1429.
21615	17.269	0.18182	0.1	1505.
21616	17.361	0.27273	0.1	1480.5
21617	17.361	9.0909e-002	0.1	1472.9
21618	17.084	0.18182	0.1	1549.
21619	17.176	0.27273	0.1	1524.4
21620	17.176	9.0909e-002	0.1	1516.9
21621	16.9	0.18182	0.1	1593.1
21622	16.992	0.27273	0.1	1568.5
21623	16.992	9.0909e-002	0.1	1561.2
21624	16.715	0.18182	0.1	1637.5
21625	16.807	0.27273	0.1	1612.7
21626	16.807	9.0909e-002	0.1	1605.6
21627	16.531	0.18182	0.1	1682.1
21628	16.623	0.27273	0.1	1657.2
21629	16.623	9.0909e-002	0.1	1650.3
21630	16.346	0.18182	0.1	1726.9
21631	16.439	0.27273	0.1	1701.9
21632	16.439	9.0909e-002	0.1	1695.1
21633	16.162	0.18182	0.1	1771.9
21634	16.254	0.27273	0.1	1746.8
21635	16.254	9.0909e-002	0.1	1740.2
21636	15.978	0.18182	0.1	1817.
21637	16.07	0.27273	0.1	1791.9
21638	16.07	9.0909e-002	0.1	1785.4
21639	15.793	0.18182	0.1	1862.4
21640	15.885	0.27273	0.1	1837.2
21641	15.885	9.0909e-002	0.1	1830.9
21642	15.609	0.18182	0.1	1908.
21643	15.701	0.27273	0.1	1882.7
21644	15.701	9.0909e-002	0.1	1876.5
21645	15.424	0.18182	0.1	1953.8
21646	15.517	0.27273	0.1	1928.4
21647	15.517	9.0909e-002	0.1	1922.4
21648	15.24	0.18182	0.1	1999.8
21649	15.332	0.27273	0.1	1974.3
21650	15.332	9.0909e-002	0.1	1968.4
21651	15.055	0.18182	0.1	2046.
21652	15.148	0.27273	0.1	2020.4
21653	15.148	9.0909e-002	0.1	2014.7
21654	14.871	0.18182	0.1	2092.4
21655	14.963	0.27273	0.1	2066.7
21656	14.963	9.0909e-002	0.1	2061.2
21657	14.687	0.18182	0.1	2139.
21658	14.779	0.27273	0.1	2113.2
21659	14.779	9.0909e-002	0.1	2107.9
21660	14.502	0.18182	0.1	2185.9
21661	14.594	0.27273	0.1	2159.9
21662	14.594	9.0909e-002	0.1	2154.8
21663	14.318	0.18182	0.1	2232.9
21664	14.41	0.27273	0.1	2206.8
21665	14.41	9.0909e-002	0.1	2201.8
21666	14.133	0.18182	0.1	2280.1
21667	14.226	0.27273	0.1	2254.
21668	14.226	9.0909e-002	0.1	2249.2
21669	13.949	0.18182	0.1	2327.6
21670	14.041	0.27273	0.1	2301.3
21671	14.041	9.0909e-002	0.1	2296.7
21672	13.764	0.18182	0.1	2375.2
21673	13.857	0.27273	0.1	2348.8
21674	13.857	9.0909e-002	0.1	2344.4
21675	13.58	0.18182	0.1	2423.1
21676	13.672	0.27273	0.1	2396.6
21677	13.672	9.0909e-002	0.1	2392.3
21678	13.396	0.18182	0.1	2471.2
21679	13.488	0.27273	0.1	2444.5
21680	13.488	9.0909e-002	0.1	2440.5
21681	13.211	0.18182	0.1	2519.4
21682	13.303	0.27273	0.1	2492.7
21683	13.303	9.0909e-002	0.1	2488.9
21684	13.027	0.18182	0.1	2567.9
21685	13.119	0.27273	0.1	2541.1
21686	13.119	9.0909e-002	0.1	2537.5
21687	12.842	0.18182	0.1	2616.6
21688	12.935	0.27273	0.1	2589.6
21689	12.935	9.0909e-002	0.1	2586.3
21690	12.658	0.18182	0.1	2665.6
21691	12.75	0.27273	0.1	2638.4
21692	12.75	9.0909e-002	0.1	2635.3
21693	12.474	0.18182	0.1	2714.7
21694	12.566	0.27273	0.1	2687.4
21695	12.566	9.0909e-002	0.1	2684.5
21696	12.289	0.18182	0.1	2764.
21697	12.381	0.27273	0.1	2736.6
21698	12.381	9.0909e-002	0.1	2734.
21699	12.105	0.18182	0.1	2813.6
21700	12.197	0.27273	0.1	2786.
21701	12.197	9.0909e-002	0.1	2783.7
21702	11.92	0.18182	0.1	2863.4
21703	12.012	0.27273	0.1	2835.6
21704	12.012	9.0909e-002	0.1	2833.6
21705	11.736	0.18182	0.1	2913.3
21706	11.828	0.27273	0.1	2885.4
21707	11.828	9.0909e-002	0.1	2883.7
21708	11.551	0.18182	0.1	2963.5
21709	11.644	0.27273	0.1	2935.4
21710	11.644	9.0909e-002	0.1	2934.
21711	11.367	0.18182	0.1	3013.9
21712	11.459	0.27273	0.1	2985.6
21713	11.459	9.0909e-002	0.1	2984.6
21714	11.183	0.18182	0.1	3064.5
21715	11.275	0.27273	0.1	3036.
21716	11.275	9.0909e-002	0.1	3035.3
21717	10.998	0.18182	0.1	3115.2
21718	11.09	0.27273	0.1	3086.6
21719	11.09	9.0909e-002	0.1	3086.3
21720	10.814	0.18182	0.1	3166.2
21721	10.906	0.27273	0.1	3137.4
21722	10.906	9.0909e-002	0.1	3137.4
21723	10.629	0.18182	0.1	3217.3
21724	10.721	0.27273	0.1	3188.3
21725	10.721	9.0909e-002	0.1	3188.8
21726	10.445	0.18182	0.1	3268.6
21727	10.537	0.27273	0.1	3239.4
21728	10.537	9.0909e-002	0.1	3240.2
21729	10.26	0.18182	0.1	3319.9
21730	10.353	0.27273	0.1	3290.7
21731	10.353	9.0909e-002	0.1	3291.9
21732	10.076	0.18182	0.1	3371.4
21733	10.168	0.27273	0.1	3342.
21734	10.168	9.0909e-002	0.1	3343.6
21735	9.8916	0.18182	0.1	3422.9
21736	9.9838	0.27273	0.1	3393.5
21737	9.9838	9.0909e-002	0.1	3395.4
21738	9.7072	0.18182	0.1	3474.4
21739	9.7994	0.27273	0.1	3444.9
21740	9.7994	9.0909e-002	0.1	3447.2
21741	9.5227	0.18182	0.1	3525.9
21742	9.615	0.27273	0.1	3496.4
21743	9.615	9.0909e-002	0.1	3499.
21744	9.3383	0.18182	0.1	3577.1
21745	9.4305	0.27273	0.1	3547.7
21746	9.4305	9.0909e-002	0.1	3550.6
21747	9.1539	0.18182	0.1	3628.
21748	9.2461	0.27273	0.1	3598.8
21749	9.2461	9.0909e-002	0.1	3601.9
21750	8.9695	0.18182	0.1	3678.5
21751	9.0617	0.27273	0.1	3649.6
21752	9.0617	9.0909e-002	0.1	3652.8
21753	8.785	0.18182	0.1	3728.3
21754	8.8773	0.27273	0.1	3699.9
21755	8.8773	9.0909e-002	0.1	3703.1
21756	8.6006	0.18182	0.1	3777.1
21757	8.6928	0.27273	0.1	3749.5
21758	8.6928	9.0909e-002	0.1	3752.5
21759	8.4162	0.18182	0.1	3824.6
21760	8.5084	0.27273	0.1	3798.
21761	8.5084	9.0909e-002	0.1	3800.7
21762	8.2318	0.18182	0.1	3870.3
21763	8.324	0.27273	0.1	3845.2
21764	8.324	9.0909e-002	0.1	3847.3
21765	8.0474	0.18182	0.1	3913.7
21766	8.1396	0.27273	0.1	3890.5
21767	8.1396	9.0909e-002	0.1	3891.7
21768	7.8629	0.18182	0.1	3954.1
21769	7.9551	0.27273	0.1	3933.3
21770	7.9551	9.0909e-002	0.1	3933.3
21771	7.6785	0.18182	0.1	3990.5
21772	7.7707	0.27273	0.1	3973.
21773	7.7707	9.0909e-002	0.1	3971.3
21774	7.4941	0.18182	0.1	4021.8
21775	7.5863	0.27273	0.1	4008.4
21776	7.5863	9.0909e-002	0.1	4004.5
21777	7.3097	0.18182	0.1	4046.5
21778	7.4019	0.27273	0.1	4038.4
21779	7.4019	9.0909e-002	0.1	4031.6
21780	7.1252	0.18182	0.1	4062.9
21781	7.2174	0.27273	0.1	4061.5
21782	7.2174	9.0909e-002	0.1	4051.
21783	6.9408	0.18182	0.1	4068.7
21784	7.033	0.27273	0.1	4075.7
21785	7.033	9.0909e-002	0.1	4060.6
21786	6.7564	0.18182	0.1	4061.1
21787	6.8486	0.27273	0.1	4078.6
21788	6.8486	9.0909e-002	0.1	4057.7
21789	6.572	0.18182	0.1	4036.9
21790	6.6642	0.27273	0.1	4067.3
21791	6.6642	9.0909e-002	0.1	4039.4
21792	6.3875	0.18182	0.1	3991.8
21793	6.4798	0.27273	0.1	4038.
21794	6.4798	9.0909e-002	0.1	4001.8
21795	6.2031	0.18182	0.1	3921.2
21796	6.2953	0.27273	0.1	3986.4
21797	6.2953	9.0909e-002	0.1	3940.3
21798	6.0187	0.18182	0.1	3819.3
21799	6.1109	0.27273	0.1	3907.3
21800	6.1109	9.0909e-002	0.1	3849.5
21801	5.8343	0.18182	0.1	3679.8
21802	5.9265	0.27273	0.1	3794.5
21803	5.9265	9.0909e-002	0.1	3723.4
21804	5.6498	0.18182	0.1	3495.8
21805	5.7421	0.27273	0.1	3641.2
21806	5.7421	9.0909e-002	0.1	3555.1
21807	5.4654	0.18182	0.1	3260.
21808	5.5576	0.27273	0.1	3439.8
21809	5.5576	9.0909e-002	0.1	3337.4
21810	5.281	0.18182	0.1	2965.9
21811	5.3732	0.27273	0.1	3182.9
21812	5.3732	9.0909e-002	0.1	3063.2
21813	5.0966	0.18182	0.1	2608.2
21814	5.1888	0.27273	0.1	2864.4
21815	5.1888	9.0909e-002	0.1	2726.6
21816	4.9121	0.18182	0.1	2184.7
21817	5.0044	0.27273	0.1	2481.2
21818	5.0044	9.0909e-002	0.1	2323.8
21819	4.7277	0.18182	0.1	1699.3
21820	4.8199	0.27273	0.1	2037.3
21821	4.8199	9.0909e-002	0.1	1853.7
21822	4.5433	0.18182	0.1	1183.5
21823	4.6355	0.27273	0.1	1558.5
21824	4.6355	9.0909e-002	0.1	1322.
21825	4.4511	0.27273	0.1	1178.7
21826	4.3589	0.18182	0.1	671.61
21827	4.4511	9.0909e-002	0.1	755.57
21828	23.723	0.36364	0.1	94.998
21829	23.816	0.45455	0.1	92.885
21830	23.908	0.36364	0.1	73.535
21831	23.539	0.36364	0.1	123.42
21832	23.631	0.45455	0.1	115.92
21833	23.355	0.36364	0.1	156.7
21834	23.447	0.45455	0.1	145.76
21835	23.17	0.36364	0.1	192.34
21836	23.262	0.45455	0.1	179.19
21837	22.986	0.36364	0.1	229.24
21838	23.078	0.45455	0.1	214.59
21839	22.801	0.36364	0.1	266.92
21840	22.893	0.45455	0.1	251.2
21841	22.617	0.36364	0.1	305.11
21842	22.709	0.45455	0.1	288.58
21843	22.432	0.36364	0.1	343.67
21844	22.525	0.45455	0.1	326.5
21845	22.248	0.36364	0.1	382.52
21846	22.34	0.45455	0.1	364.84
21847	22.064	0.36364	0.1	421.62
21848	22.156	0.45455	0.1	403.5
21849	21.879	0.36364	0.1	460.91
21850	21.971	0.45455	0.1	442.43
21851	21.695	0.36364	0.1	500.4
21852	21.787	0.45455	0.1	481.59
21853	21.51	0.36364	0.1	540.06
21854	21.602	0.45455	0.1	520.96
21855	21.326	0.36364	0.1	579.89
21856	21.418	0.45455	0.1	560.52
21857	21.141	0.36364	0.1	619.88
21858	21.234	0.45455	0.1	600.28
21859	20.957	0.36364	0.1	660.03
21860	21.049	0.45455	0.1	640.21
21861	20.773	0.36364	0.1	700.35
21862	20.865	0.45455	0.1	680.32
21863	20.588	0.36364	0.1	740.83
21864	20.68	0.45455	0.1	720.61
21865	20.404	0.36364	0.1	781.48
21866	20.496	0.45455	0.1	761.07
21867	20.219	0.36364	0.1	822.29
21868	20.312	0.45455	0.1	801.71
21869	20.035	0.36364	0.1	863.28
21870	20.127	0.45455	0.1	842.53
21871	19.85	0.36364	0.1	904.44
21872	19.943	0.45455	0.1	883.53
21873	19.666	0.36364	0.1	945.77
21874	19.758	0.45455	0.1	924.71
21875	19.482	0.36364	0.1	987.28
21876	19.574	0.45455	0.1	966.07
21877	19.297	0.36364	0.1	1029.
21878	19.389	0.45455	0.1	1007.6
21879	19.113	0.36364	0.1	1070.9
21880	19.205	0.45455	0.1	1049.4
21881	18.928	0.36364	0.1	1112.9
21882	19.021	0.45455	0.1	1091.3
21883	18.744	0.36364	0.1	1155.2
21884	18.836	0.45455	0.1	1133.4
21885	18.56	0.36364	0.1	1197.6
21886	18.652	0.45455	0.1	1175.7
21887	18.375	0.36364	0.1	1240.2
21888	18.467	0.45455	0.1	1218.2
21889	18.191	0.36364	0.1	1283.
21890	18.283	0.45455	0.1	1260.9
21891	18.006	0.36364	0.1	1326.1
21892	18.098	0.45455	0.1	1303.8
21893	17.822	0.36364	0.1	1369.3
21894	17.914	0.45455	0.1	1346.9
21895	17.637	0.36364	0.1	1412.7
21896	17.73	0.45455	0.1	1390.2
21897	17.453	0.36364	0.1	1456.3
21898	17.545	0.45455	0.1	1433.6
21899	17.269	0.36364	0.1	1500.1
21900	17.361	0.45455	0.1	1477.3
21901	17.084	0.36364	0.1	1544.1
21902	17.176	0.45455	0.1	1521.2
21903	16.9	0.36364	0.1	1588.3
21904	16.992	0.45455	0.1	1565.3
21905	16.715	0.36364	0.1	1632.7
21906	16.807	0.45455	0.1	1609.6
21907	16.531	0.36364	0.1	1677.3
21908	16.623	0.45455	0.1	1654.
21909	16.346	0.36364	0.1	1722.
21910	16.439	0.45455	0.1	1698.7
21911	16.162	0.36364	0.1	1767.
21912	16.254	0.45455	0.1	1743.6
21913	15.978	0.36364	0.1	1812.2
21914	16.07	0.45455	0.1	1788.7
21915	15.793	0.36364	0.1	1857.6
21916	15.885	0.45455	0.1	1834.
21917	15.609	0.36364	0.1	1903.2
21918	15.701	0.45455	0.1	1879.4
21919	15.424	0.36364	0.1	1949.
21920	15.517	0.45455	0.1	1925.1
21921	15.24	0.36364	0.1	1995.
21922	15.332	0.45455	0.1	1971.
21923	15.055	0.36364	0.1	2041.3
21924	15.148	0.45455	0.1	2017.1
21925	14.871	0.36364	0.1	2087.7
21926	14.963	0.45455	0.1	2063.4
21927	14.687	0.36364	0.1	2134.3
21928	14.779	0.45455	0.1	2109.9
21929	14.502	0.36364	0.1	2181.1
21930	14.594	0.45455	0.1	2156.6
21931	14.318	0.36364	0.1	2228.1
21932	14.41	0.45455	0.1	2203.4
21933	14.133	0.36364	0.1	2275.3
21934	14.226	0.45455	0.1	2250.5
21935	13.949	0.36364	0.1	2322.7
21936	14.041	0.45455	0.1	2297.8
21937	13.764	0.36364	0.1	2370.4
21938	13.857	0.45455	0.1	2345.3
21939	13.58	0.36364	0.1	2418.2
21940	13.672	0.45455	0.1	2393.
21941	13.396	0.36364	0.1	2466.2
21942	13.488	0.45455	0.1	2440.9
21943	13.211	0.36364	0.1	2514.5
21944	13.303	0.45455	0.1	2489.
21945	13.027	0.36364	0.1	2562.9
21946	13.119	0.45455	0.1	2537.2
21947	12.842	0.36364	0.1	2611.5
21948	12.935	0.45455	0.1	2585.7
21949	12.658	0.36364	0.1	2660.4
21950	12.75	0.45455	0.1	2634.4
21951	12.474	0.36364	0.1	2709.4
21952	12.566	0.45455	0.1	2683.3
21953	12.289	0.36364	0.1	2758.7
21954	12.381	0.45455	0.1	2732.4
21955	12.105	0.36364	0.1	2808.1
21956	12.197	0.45455	0.1	2781.6
21957	11.92	0.36364	0.1	2857.7
21958	12.012	0.45455	0.1	2831.1
21959	11.736	0.36364	0.1	2907.6
21960	11.828	0.45455	0.1	2880.7
21961	11.551	0.36364	0.1	2957.6
21962	11.644	0.45455	0.1	2930.6
21963	11.367	0.36364	0.1	3007.9
21964	11.459	0.45455	0.1	2980.6
21965	11.183	0.36364	0.1	3058.3
21966	11.275	0.45455	0.1	3030.9
21967	10.998	0.36364	0.1	3108.9
21968	11.09	0.45455	0.1	3081.3
21969	10.814	0.36364	0.1	3159.6
21970	10.906	0.45455	0.1	3131.8
21971	10.629	0.36364	0.1	3210.6
21972	10.721	0.45455	0.1	3182.6
21973	10.445	0.36364	0.1	3261.7
21974	10.537	0.45455	0.1	3233.5
21975	10.26	0.36364	0.1	3312.9
21976	10.353	0.45455	0.1	3284.5
21977	10.076	0.36364	0.1	3364.2
21978	10.168	0.45455	0.1	3335.7
21979	9.8916	0.36364	0.1	3415.6
21980	9.9838	0.45455	0.1	3386.9
21981	9.7072	0.36364	0.1	3467.
21982	9.7994	0.45455	0.1	3438.2
21983	9.5227	0.36364	0.1	3518.3
21984	9.615	0.45455	0.1	3489.5
21985	9.3383	0.36364	0.1	3569.5
21986	9.4305	0.45455	0.1	3540.7
21987	9.1539	0.36364	0.1	3620.5
21988	9.2461	0.45455	0.1	3591.9
21989	8.9695	0.36364	0.1	3671.1
21990	9.0617	0.45455	0.1	3642.7
21991	8.785	0.36364	0.1	3721.2
21992	8.8773	0.45455	0.1	3693.2
21993	8.6006	0.36364	0.1	3770.5
21994	8.6928	0.45455	0.1	3743.1
21995	8.4162	0.36364	0.1	3818.7
21996	8.5084	0.45455	0.1	3792.2
21997	8.2318	0.36364	0.1	3865.4
21998	8.324	0.45455	0.1	3840.1
21999	8.0474	0.36364	0.1	3910.2
22000	8.1396	0.45455	0.1	3886.6
22001	7.8629	0.36364	0.1	3952.3
22002	7.9551	0.45455	0.1	3930.9
22003	7.6785	0.36364	0.1	3990.9
22004	7.7707	0.45455	0.1	3972.5
22005	7.4941	0.36364	0.1	4025.1
22006	7.5863	0.45455	0.1	4010.6
22007	7.3097	0.36364	0.1	4053.5
22008	7.4019	0.45455	0.1	4043.9
22009	7.1252	0.36364	0.1	4074.4
22010	7.2174	0.45455	0.1	4071.2
22011	6.9408	0.36364	0.1	4085.6
22012	7.033	0.45455	0.1	4090.6
22013	6.7564	0.36364	0.1	4084.7
22014	6.8486	0.45455	0.1	4099.9
22015	6.572	0.36364	0.1	4068.3
22016	6.6642	0.45455	0.1	4096.4
22017	6.3875	0.36364	0.1	4032.5
22018	6.4798	0.45455	0.1	4076.5
22019	6.2031	0.36364	0.1	3972.3
22020	6.2953	0.45455	0.1	4036.
22021	6.0187	0.36364	0.1	3882.1
22022	6.1109	0.45455	0.1	3969.9
22023	5.8343	0.36364	0.1	3755.2
22024	5.9265	0.45455	0.1	3871.9
22025	5.6498	0.36364	0.1	3584.
22026	5.7421	0.45455	0.1	3735.2
22027	5.4654	0.36364	0.1	3361.
22028	5.5576	0.45455	0.1	3552.1
22029	5.281	0.36364	0.1	3079.1
22030	5.3732	0.45455	0.1	3315.2
22031	5.0966	0.36364	0.1	2734.1
22032	5.1888	0.45455	0.1	3019.1
22033	4.9121	0.36364	0.1	2328.8
22034	5.0044	0.45455	0.1	2664.
22035	4.7277	0.36364	0.1	1885.6
22036	4.8199	0.45455	0.1	2264.3
22037	4.5433	0.36364	0.1	1504.4
22038	4.6355	0.45455	0.1	1872.9
22039	4.4511	0.45455	0.1	1687.1
22040	4.3589	0.36364	0.1	1104.8
22041	23.723	0.54545	0.1	112.95
22042	23.816	0.63636	0.1	110.99
22043	23.908	0.54545	0.1	94.032
22044	23.539	0.54545	0.1	138.22
22045	23.631	0.63636	0.1	131.9
22046	23.355	0.54545	0.1	168.5
22047	23.447	0.63636	0.1	159.05
22048	23.17	0.54545	0.1	201.77
22049	23.262	0.63636	0.1	190.08
22050	22.986	0.54545	0.1	236.86
22051	23.078	0.63636	0.1	223.54
22052	22.801	0.54545	0.1	273.14
22053	22.893	0.63636	0.1	258.6
22054	22.617	0.54545	0.1	310.23
22055	22.709	0.63636	0.1	294.74
22056	22.432	0.54545	0.1	347.91
22057	22.525	0.63636	0.1	331.67
22058	22.248	0.54545	0.1	386.02
22059	22.34	0.63636	0.1	369.17
22060	22.064	0.54545	0.1	424.5
22061	22.156	0.63636	0.1	407.13
22062	21.879	0.54545	0.1	463.27
22063	21.971	0.63636	0.1	445.47
22064	21.695	0.54545	0.1	502.3
22065	21.787	0.63636	0.1	484.11
22066	21.51	0.54545	0.1	541.56
22067	21.602	0.63636	0.1	523.04
22068	21.326	0.54545	0.1	581.04
22069	21.418	0.63636	0.1	562.21
22070	21.141	0.54545	0.1	620.73
22071	21.234	0.63636	0.1	601.62
22072	20.957	0.54545	0.1	660.61
22073	21.049	0.63636	0.1	641.25
22074	20.773	0.54545	0.1	700.68
22075	20.865	0.63636	0.1	681.08
22076	20.588	0.54545	0.1	740.95
22077	20.68	0.63636	0.1	721.13
22078	20.404	0.54545	0.1	781.4
22079	20.496	0.63636	0.1	761.37
22080	20.219	0.54545	0.1	822.04
22081	20.312	0.63636	0.1	801.82
22082	20.035	0.54545	0.1	862.87
22083	20.127	0.63636	0.1	842.46
22084	19.85	0.54545	0.1	903.88
22085	19.943	0.63636	0.1	883.3
22086	19.666	0.54545	0.1	945.09
22087	19.758	0.63636	0.1	924.33
22088	19.482	0.54545	0.1	986.49
22089	19.574	0.63636	0.1	965.57
22090	19.297	0.54545	0.1	1028.1
22091	19.389	0.63636	0.1	1007.
22092	19.113	0.54545	0.1	1069.9
22093	19.205	0.63636	0.1	1048.6
22094	18.928	0.54545	0.1	1111.8
22095	19.021	0.63636	0.1	1090.5
22096	18.744	0.54545	0.1	1154.
22097	18.836	0.63636	0.1	1132.5
22098	18.56	0.54545	0.1	1196.4
22099	18.652	0.63636	0.1	1174.7
22100	18.375	0.54545	0.1	1238.9
22101	18.467	0.63636	0.1	1217.1
22102	18.191	0.54545	0.1	1281.7
22103	18.283	0.63636	0.1	1259.8
22104	18.006	0.54545	0.1	1324.7
22105	18.098	0.63636	0.1	1302.6
22106	17.822	0.54545	0.1	1367.8
22107	17.914	0.63636	0.1	1345.6
22108	17.637	0.54545	0.1	1411.2
22109	17.73	0.63636	0.1	1388.9
22110	17.453	0.54545	0.1	1454.7
22111	17.545	0.63636	0.1	1432.3
22112	17.269	0.54545	0.1	1498.5
22113	17.361	0.63636	0.1	1476.
22114	17.084	0.54545	0.1	1542.5
22115	17.176	0.63636	0.1	1519.8
22116	16.9	0.54545	0.1	1586.6
22117	16.992	0.63636	0.1	1563.8
22118	16.715	0.54545	0.1	1631.
22119	16.807	0.63636	0.1	1608.1
22120	16.531	0.54545	0.1	1675.6
22121	16.623	0.63636	0.1	1652.5
22122	16.346	0.54545	0.1	1720.3
22123	16.439	0.63636	0.1	1697.2
22124	16.162	0.54545	0.1	1765.3
22125	16.254	0.63636	0.1	1742.
22126	15.978	0.54545	0.1	1810.5
22127	16.07	0.63636	0.1	1787.1
22128	15.793	0.54545	0.1	1855.8
22129	15.885	0.63636	0.1	1832.3
22130	15.609	0.54545	0.1	1901.4
22131	15.701	0.63636	0.1	1877.8
22132	15.424	0.54545	0.1	1947.2
22133	15.517	0.63636	0.1	1923.4
22134	15.24	0.54545	0.1	1993.1
22135	15.332	0.63636	0.1	1969.3
22136	15.055	0.54545	0.1	2039.3
22137	15.148	0.63636	0.1	2015.3
22138	14.871	0.54545	0.1	2085.6
22139	14.963	0.63636	0.1	2061.5
22140	14.687	0.54545	0.1	2132.2
22141	14.779	0.63636	0.1	2108.
22142	14.502	0.54545	0.1	2179.
22143	14.594	0.63636	0.1	2154.6
22144	14.318	0.54545	0.1	2225.9
22145	14.41	0.63636	0.1	2201.4
22146	14.133	0.54545	0.1	2273.1
22147	14.226	0.63636	0.1	2248.5
22148	13.949	0.54545	0.1	2320.4
22149	14.041	0.63636	0.1	2295.7
22150	13.764	0.54545	0.1	2368.
22151	13.857	0.63636	0.1	2343.1
22152	13.58	0.54545	0.1	2415.7
22153	13.672	0.63636	0.1	2390.7
22154	13.396	0.54545	0.1	2463.7
22155	13.488	0.63636	0.1	2438.5
22156	13.211	0.54545	0.1	2511.8
22157	13.303	0.63636	0.1	2486.5
22158	13.027	0.54545	0.1	2560.1
22159	13.119	0.63636	0.1	2534.7
22160	12.842	0.54545	0.1	2608.7
22161	12.935	0.63636	0.1	2583.
22162	12.658	0.54545	0.1	2657.4
22163	12.75	0.63636	0.1	2631.6
22164	12.474	0.54545	0.1	2706.3
22165	12.566	0.63636	0.1	2680.4
22166	12.289	0.54545	0.1	2755.4
22167	12.381	0.63636	0.1	2729.3
22168	12.105	0.54545	0.1	2804.7
22169	12.197	0.63636	0.1	2778.4
22170	11.92	0.54545	0.1	2854.1
22171	12.012	0.63636	0.1	2827.7
22172	11.736	0.54545	0.1	2903.8
22173	11.828	0.63636	0.1	2877.2
22174	11.551	0.54545	0.1	2953.6
22175	11.644	0.63636	0.1	2926.8
22176	11.367	0.54545	0.1	3003.7
22177	11.459	0.63636	0.1	2976.7
22178	11.183	0.54545	0.1	3053.9
22179	11.275	0.63636	0.1	3026.7
22180	10.998	0.54545	0.1	3104.2
22181	11.09	0.63636	0.1	3076.9
22182	10.814	0.54545	0.1	3154.8
22183	10.906	0.63636	0.1	3127.2
22184	10.629	0.54545	0.1	3205.5
22185	10.721	0.63636	0.1	3177.7
22186	10.445	0.54545	0.1	3256.3
22187	10.537	0.63636	0.1	3228.4
22188	10.26	0.54545	0.1	3307.3
22189	10.353	0.63636	0.1	3279.2
22190	10.076	0.54545	0.1	3358.4
22191	10.168	0.63636	0.1	3330.1
22192	9.8916	0.54545	0.1	3409.6
22193	9.9838	0.63636	0.1	3381.1
22194	9.7072	0.54545	0.1	3460.8
22195	9.7994	0.63636	0.1	3432.2
22196	9.5227	0.54545	0.1	3512.
22197	9.615	0.63636	0.1	3483.3
22198	9.3383	0.54545	0.1	3563.1
22199	9.4305	0.63636	0.1	3534.4
22200	9.1539	0.54545	0.1	3614.1
22201	9.2461	0.63636	0.1	3585.5
22202	8.9695	0.54545	0.1	3664.8
22203	9.0617	0.63636	0.1	3636.3
22204	8.785	0.54545	0.1	3715.1
22205	8.8773	0.63636	0.1	3686.9
22206	8.6006	0.54545	0.1	3764.8
22207	8.6928	0.63636	0.1	3737.1
22208	8.4162	0.54545	0.1	3813.7
22209	8.5084	0.63636	0.1	3786.7
22210	8.2318	0.54545	0.1	3861.3
22211	8.324	0.63636	0.1	3835.4
22212	8.0474	0.54545	0.1	3907.3
22213	8.1396	0.63636	0.1	3882.9
22214	7.8629	0.54545	0.1	3951.2
22215	7.9551	0.63636	0.1	3928.8
22216	7.6785	0.54545	0.1	3992.2
22217	7.7707	0.63636	0.1	3972.4
22218	7.4941	0.54545	0.1	4029.4
22219	7.5863	0.63636	0.1	4013.1
22220	7.3097	0.54545	0.1	4061.7
22221	7.4019	0.63636	0.1	4049.9
22222	7.1252	0.54545	0.1	4087.4
22223	7.2174	0.63636	0.1	4081.6
22224	6.9408	0.54545	0.1	4104.8
22225	7.033	0.63636	0.1	4106.7
22226	6.7564	0.54545	0.1	4111.5
22227	6.8486	0.63636	0.1	4123.1
22228	6.572	0.54545	0.1	4104.4
22229	6.6642	0.63636	0.1	4128.4
22230	6.3875	0.54545	0.1	4079.8
22231	6.4798	0.63636	0.1	4119.5
22232	6.2031	0.54545	0.1	4033.1
22233	6.2953	0.63636	0.1	4092.5
22234	6.0187	0.54545	0.1	3959.
22235	6.1109	0.63636	0.1	4042.8
22236	5.8343	0.54545	0.1	3850.9
22237	5.9265	0.63636	0.1	3964.8
22238	5.6498	0.54545	0.1	3701.6
22239	5.7421	0.63636	0.1	3852.
22240	5.4654	0.54545	0.1	3503.7
22241	5.5576	0.63636	0.1	3697.6
22242	5.281	0.54545	0.1	3251.1
22243	5.3732	0.63636	0.1	3495.1
22244	5.0966	0.54545	0.1	2942.2
22245	5.1888	0.63636	0.1	3240.9
22246	4.9121	0.54545	0.1	2586.7
22247	5.0044	0.63636	0.1	2939.2
22248	4.7277	0.54545	0.1	2222.7
22249	4.8199	0.63636	0.1	2612.3
22250	4.5433	0.54545	0.1	1981.
22251	4.6355	0.63636	0.1	2324.6
22252	4.4511	0.63636	0.1	2286.7
22253	4.3589	0.54545	0.1	1581.4
22254	23.723	0.72727	0.1	128.81
22255	23.816	0.81818	0.1	126.47
22256	23.908	0.72727	0.1	111.28
22257	23.539	0.72727	0.1	152.3
22258	23.631	0.81818	0.1	146.23
22259	23.355	0.72727	0.1	180.56
22260	23.447	0.81818	0.1	171.72
22261	23.17	0.72727	0.1	211.94
22262	23.262	0.81818	0.1	201.02
22263	22.986	0.72727	0.1	245.43
22264	23.078	0.81818	0.1	232.9
22265	22.801	0.72727	0.1	280.38
22266	22.893	0.81818	0.1	266.59
22267	22.617	0.72727	0.1	316.36
22268	22.709	0.81818	0.1	301.57
22269	22.432	0.72727	0.1	353.1
22270	22.525	0.81818	0.1	337.51
22271	22.248	0.72727	0.1	390.44
22272	22.34	0.81818	0.1	374.18
22273	22.064	0.72727	0.1	428.25
22274	22.156	0.81818	0.1	411.42
22275	21.879	0.72727	0.1	466.45
22276	21.971	0.81818	0.1	449.13
22277	21.695	0.72727	0.1	504.98
22278	21.787	0.81818	0.1	487.23
22279	21.51	0.72727	0.1	543.81
22280	21.602	0.81818	0.1	525.68
22281	21.326	0.72727	0.1	582.9
22282	21.418	0.81818	0.1	564.44
22283	21.141	0.72727	0.1	622.24
22284	21.234	0.81818	0.1	603.47
22285	20.957	0.72727	0.1	661.82
22286	21.049	0.81818	0.1	642.77
22287	20.773	0.72727	0.1	701.62
22288	20.865	0.81818	0.1	682.31
22289	20.588	0.72727	0.1	741.64
22290	20.68	0.81818	0.1	722.08
22291	20.404	0.72727	0.1	781.87
22292	20.496	0.81818	0.1	762.09
22293	20.219	0.72727	0.1	822.32
22294	20.312	0.81818	0.1	802.32
22295	20.035	0.72727	0.1	862.97
22296	20.127	0.81818	0.1	842.77
22297	19.85	0.72727	0.1	903.82
22298	19.943	0.81818	0.1	883.44
22299	19.666	0.72727	0.1	944.88
22300	19.758	0.81818	0.1	924.32
22301	19.482	0.72727	0.1	986.15
22302	19.574	0.81818	0.1	965.41
22303	19.297	0.72727	0.1	1027.6
22304	19.389	0.81818	0.1	1006.7
22305	19.113	0.72727	0.1	1069.3
22306	19.205	0.81818	0.1	1048.2
22307	18.928	0.72727	0.1	1111.2
22308	19.021	0.81818	0.1	1090.
22309	18.744	0.72727	0.1	1153.3
22310	18.836	0.81818	0.1	1131.9
22311	18.56	0.72727	0.1	1195.6
22312	18.652	0.81818	0.1	1174.
22313	18.375	0.72727	0.1	1238.
22314	18.467	0.81818	0.1	1216.4
22315	18.191	0.72727	0.1	1280.7
22316	18.283	0.81818	0.1	1258.9
22317	18.006	0.72727	0.1	1323.6
22318	18.098	0.81818	0.1	1301.7
22319	17.822	0.72727	0.1	1366.8
22320	17.914	0.81818	0.1	1344.7
22321	17.637	0.72727	0.1	1410.1
22322	17.73	0.81818	0.1	1387.9
22323	17.453	0.72727	0.1	1453.6
22324	17.545	0.81818	0.1	1431.2
22325	17.269	0.72727	0.1	1497.3
22326	17.361	0.81818	0.1	1474.8
22327	17.084	0.72727	0.1	1541.2
22328	17.176	0.81818	0.1	1518.6
22329	16.9	0.72727	0.1	1585.3
22330	16.992	0.81818	0.1	1562.6
22331	16.715	0.72727	0.1	1629.7
22332	16.807	0.81818	0.1	1606.8
22333	16.531	0.72727	0.1	1674.2
22334	16.623	0.81818	0.1	1651.2
22335	16.346	0.72727	0.1	1718.9
22336	16.439	0.81818	0.1	1695.9
22337	16.162	0.72727	0.1	1763.8
22338	16.254	0.81818	0.1	1740.7
22339	15.978	0.72727	0.1	1809.
22340	16.07	0.81818	0.1	1785.7
22341	15.793	0.72727	0.1	1854.3
22342	15.885	0.81818	0.1	1830.9
22343	15.609	0.72727	0.1	1899.8
22344	15.701	0.81818	0.1	1876.3
22345	15.424	0.72727	0.1	1945.5
22346	15.517	0.81818	0.1	1921.9
22347	15.24	0.72727	0.1	1991.5
22348	15.332	0.81818	0.1	1967.7
22349	15.055	0.72727	0.1	2037.6
22350	15.148	0.81818	0.1	2013.7
22351	14.871	0.72727	0.1	2083.9
22352	14.963	0.81818	0.1	2059.9
22353	14.687	0.72727	0.1	2130.4
22354	14.779	0.81818	0.1	2106.3
22355	14.502	0.72727	0.1	2177.1
22356	14.594	0.81818	0.1	2152.9
22357	14.318	0.72727	0.1	2224.
22358	14.41	0.81818	0.1	2199.6
22359	14.133	0.72727	0.1	2271.1
22360	14.226	0.81818	0.1	2246.6
22361	13.949	0.72727	0.1	2318.4
22362	14.041	0.81818	0.1	2293.8
22363	13.764	0.72727	0.1	2365.9
22364	13.857	0.81818	0.1	2341.1
22365	13.58	0.72727	0.1	2413.5
22366	13.672	0.81818	0.1	2388.6
22367	13.396	0.72727	0.1	2461.4
22368	13.488	0.81818	0.1	2436.3
22369	13.211	0.72727	0.1	2509.4
22370	13.303	0.81818	0.1	2484.2
22371	13.027	0.72727	0.1	2557.6
22372	13.119	0.81818	0.1	2532.3
22373	12.842	0.72727	0.1	2606.
22374	12.935	0.81818	0.1	2580.6
22375	12.658	0.72727	0.1	2654.6
22376	12.75	0.81818	0.1	2629.
22377	12.474	0.72727	0.1	2703.4
22378	12.566	0.81818	0.1	2677.6
22379	12.289	0.72727	0.1	2752.3
22380	12.381	0.81818	0.1	2726.4
22381	12.105	0.72727	0.1	2801.5
22382	12.197	0.81818	0.1	2775.4
22383	11.92	0.72727	0.1	2850.8
22384	12.012	0.81818	0.1	2824.5
22385	11.736	0.72727	0.1	2900.3
22386	11.828	0.81818	0.1	2873.8
22387	11.551	0.72727	0.1	2949.9
22388	11.644	0.81818	0.1	2923.3
22389	11.367	0.72727	0.1	2999.7
22390	11.459	0.81818	0.1	2972.9
22391	11.183	0.72727	0.1	3049.7
22392	11.275	0.81818	0.1	3022.7
22393	10.998	0.72727	0.1	3099.9
22394	11.09	0.81818	0.1	3072.7
22395	10.814	0.72727	0.1	3150.2
22396	10.906	0.81818	0.1	3122.8
22397	10.629	0.72727	0.1	3200.6
22398	10.721	0.81818	0.1	3173.1
22399	10.445	0.72727	0.1	3251.2
22400	10.537	0.81818	0.1	3223.5
22401	10.26	0.72727	0.1	3302.
22402	10.353	0.81818	0.1	3274.
22403	10.076	0.72727	0.1	3352.8
22404	10.168	0.81818	0.1	3324.7
22405	9.8916	0.72727	0.1	3403.7
22406	9.9838	0.81818	0.1	3375.4
22407	9.7072	0.72727	0.1	3454.7
22408	9.7994	0.81818	0.1	3426.3
22409	9.5227	0.72727	0.1	3505.8
22410	9.615	0.81818	0.1	3477.2
22411	9.3383	0.72727	0.1	3556.8
22412	9.4305	0.81818	0.1	3528.2
22413	9.1539	0.72727	0.1	3607.7
22414	9.2461	0.81818	0.1	3579.1
22415	8.9695	0.72727	0.1	3658.5
22416	9.0617	0.81818	0.1	3629.9
22417	8.785	0.72727	0.1	3709.
22418	8.8773	0.81818	0.1	3680.6
22419	8.6006	0.72727	0.1	3759.1
22420	8.6928	0.81818	0.1	3731.1
22421	8.4162	0.72727	0.1	3808.5
22422	8.5084	0.81818	0.1	3781.1
22423	8.2318	0.72727	0.1	3857.
22424	8.324	0.81818	0.1	3830.5
22425	8.0474	0.72727	0.1	3904.3
22426	8.1396	0.81818	0.1	3879.
22427	7.8629	0.72727	0.1	3950.
22428	7.9551	0.81818	0.1	3926.3
22429	7.6785	0.72727	0.1	3993.3
22430	7.7707	0.81818	0.1	3971.9
22431	7.4941	0.72727	0.1	4033.6
22432	7.5863	0.81818	0.1	4015.3
22433	7.3097	0.72727	0.1	4069.9
22434	7.4019	0.81818	0.1	4055.7
22435	7.1252	0.72727	0.1	4100.9
22436	7.2174	0.81818	0.1	4092.
22437	6.9408	0.72727	0.1	4124.9
22438	7.033	0.81818	0.1	4123.
22439	6.7564	0.72727	0.1	4139.9
22440	6.8486	0.81818	0.1	4147.1
22441	6.572	0.72727	0.1	4143.3
22442	6.6642	0.81818	0.1	4162.2
22443	6.3875	0.72727	0.1	4131.9
22444	6.4798	0.81818	0.1	4165.7
22445	6.2031	0.72727	0.1	4101.6
22446	6.2953	0.81818	0.1	4154.4
22447	6.0187	0.72727	0.1	4047.6
22448	6.1109	0.81818	0.1	4124.4
22449	5.8343	0.72727	0.1	3964.3
22450	5.9265	0.81818	0.1	4071.1
22451	5.6498	0.72727	0.1	3845.4
22452	5.7421	0.81818	0.1	3989.2
22453	5.4654	0.72727	0.1	3684.6
22454	5.5576	0.81818	0.1	3873.3
22455	5.281	0.72727	0.1	3477.4
22456	5.3732	0.81818	0.1	3718.9
22457	5.0966	0.72727	0.1	3224.9
22458	5.1888	0.81818	0.1	3524.5
22459	4.9121	0.72727	0.1	2941.3
22460	5.0044	0.81818	0.1	3297.2
22461	4.7277	0.72727	0.1	2670.
22462	4.8199	0.81818	0.1	3061.4
22463	4.5433	0.72727	0.1	2549.9
22464	4.6355	0.81818	0.1	2878.6
22465	4.4511	0.81818	0.1	2967.9
22466	4.3589	0.72727	0.1	2101.6
22467	23.723	0.90909	0.1	142.67
22468	23.816	1.	0.1	139.82
22469	23.908	0.90909	0.1	126.04
22470	23.539	0.90909	0.1	165.03
22471	23.631	1.	0.1	158.86
22472	23.355	0.90909	0.1	191.92
22473	23.447	1.	0.1	183.26
22474	23.17	0.90909	0.1	221.91
22475	23.262	1.	0.1	211.32
22476	22.986	0.90909	0.1	254.09
22477	23.078	1.	0.1	241.99
22478	22.801	0.90909	0.1	287.87
22479	22.893	1.	0.1	274.55
22480	22.617	0.90909	0.1	322.83
22481	22.709	1.	0.1	308.52
22482	22.432	0.90909	0.1	358.7
22483	22.525	1.	0.1	343.56
22484	22.248	0.90909	0.1	395.27
22485	22.34	1.	0.1	379.44
22486	22.064	0.90909	0.1	432.41
22487	22.156	1.	0.1	415.98
22488	21.879	0.90909	0.1	470.02
22489	21.971	1.	0.1	453.08
22490	21.695	0.90909	0.1	508.04
22491	21.787	1.	0.1	490.65
22492	21.51	0.90909	0.1	546.41
22493	21.602	1.	0.1	528.61
22494	21.326	0.90909	0.1	585.11
22495	21.418	1.	0.1	566.94
22496	21.141	0.90909	0.1	624.09
22497	21.234	1.	0.1	605.6
22498	20.957	0.90909	0.1	663.34
22499	21.049	1.	0.1	644.55
22500	20.773	0.90909	0.1	702.86
22501	20.865	1.	0.1	683.79
22502	20.588	0.90909	0.1	742.62
22503	20.68	1.	0.1	723.29
22504	20.404	0.90909	0.1	782.62
22505	20.496	1.	0.1	763.05
22506	20.219	0.90909	0.1	822.85
22507	20.312	1.	0.1	803.05
22508	20.035	0.90909	0.1	863.31
22509	20.127	1.	0.1	843.3
22510	19.85	0.90909	0.1	904.
22511	19.943	1.	0.1	883.79
22512	19.666	0.90909	0.1	944.91
22513	19.758	1.	0.1	924.5
22514	19.482	0.90909	0.1	986.04
22515	19.574	1.	0.1	965.45
22516	19.297	0.90909	0.1	1027.4
22517	19.389	1.	0.1	1006.6
22518	19.113	0.90909	0.1	1068.9
22519	19.205	1.	0.1	1048.
22520	18.928	0.90909	0.1	1110.7
22521	19.021	1.	0.1	1089.6
22522	18.744	0.90909	0.1	1152.7
22523	18.836	1.	0.1	1131.5
22524	18.56	0.90909	0.1	1194.9
22525	18.652	1.	0.1	1173.5
22526	18.375	0.90909	0.1	1237.3
22527	18.467	1.	0.1	1215.8
22528	18.191	0.90909	0.1	1280.
22529	18.283	1.	0.1	1258.3
22530	18.006	0.90909	0.1	1322.8
22531	18.098	1.	0.1	1301.
22532	17.822	0.90909	0.1	1365.8
22533	17.914	1.	0.1	1343.9
22534	17.637	0.90909	0.1	1409.1
22535	17.73	1.	0.1	1387.
22536	17.453	0.90909	0.1	1452.6
22537	17.545	1.	0.1	1430.3
22538	17.269	0.90909	0.1	1496.2
22539	17.361	1.	0.1	1473.9
22540	17.084	0.90909	0.1	1540.1
22541	17.176	1.	0.1	1517.6
22542	16.9	0.90909	0.1	1584.2
22543	16.992	1.	0.1	1561.6
22544	16.715	0.90909	0.1	1628.5
22545	16.807	1.	0.1	1605.7
22546	16.531	0.90909	0.1	1673.
22547	16.623	1.	0.1	1650.1
22548	16.346	0.90909	0.1	1717.6
22549	16.439	1.	0.1	1694.7
22550	16.162	0.90909	0.1	1762.5
22551	16.254	1.	0.1	1739.4
22552	15.978	0.90909	0.1	1807.6
22553	16.07	1.	0.1	1784.4
22554	15.793	0.90909	0.1	1852.9
22555	15.885	1.	0.1	1829.6
22556	15.609	0.90909	0.1	1898.4
22557	15.701	1.	0.1	1875.
22558	15.424	0.90909	0.1	1944.1
22559	15.517	1.	0.1	1920.5
22560	15.24	0.90909	0.1	1990.
22561	15.332	1.	0.1	1966.3
22562	15.055	0.90909	0.1	2036.
22563	15.148	1.	0.1	2012.2
22564	14.871	0.90909	0.1	2082.3
22565	14.963	1.	0.1	2058.4
22566	14.687	0.90909	0.1	2128.8
22567	14.779	1.	0.1	2104.7
22568	14.502	0.90909	0.1	2175.4
22569	14.594	1.	0.1	2151.3
22570	14.318	0.90909	0.1	2222.3
22571	14.41	1.	0.1	2198.
22572	14.133	0.90909	0.1	2269.3
22573	14.226	1.	0.1	2244.9
22574	13.949	0.90909	0.1	2316.5
22575	14.041	1.	0.1	2292.
22576	13.764	0.90909	0.1	2363.9
22577	13.857	1.	0.1	2339.2
22578	13.58	0.90909	0.1	2411.5
22579	13.672	1.	0.1	2386.7
22580	13.396	0.90909	0.1	2459.2
22581	13.488	1.	0.1	2434.3
22582	13.211	0.90909	0.1	2507.2
22583	13.303	1.	0.1	2482.1
22584	13.027	0.90909	0.1	2555.3
22585	13.119	1.	0.1	2530.1
22586	12.842	0.90909	0.1	2603.6
22587	12.935	1.	0.1	2578.3
22588	12.658	0.90909	0.1	2652.
22589	12.75	1.	0.1	2626.6
22590	12.474	0.90909	0.1	2700.7
22591	12.566	1.	0.1	2675.1
22592	12.289	0.90909	0.1	2749.5
22593	12.381	1.	0.1	2723.7
22594	12.105	0.90909	0.1	2798.5
22595	12.197	1.	0.1	2772.5
22596	11.92	0.90909	0.1	2847.6
22597	12.012	1.	0.1	2821.5
22598	11.736	0.90909	0.1	2896.9
22599	11.828	1.	0.1	2870.7
22600	11.551	0.90909	0.1	2946.4
22601	11.644	1.	0.1	2919.9
22602	11.367	0.90909	0.1	2996.
22603	11.459	1.	0.1	2969.4
22604	11.183	0.90909	0.1	3045.7
22605	11.275	1.	0.1	3019.
22606	10.998	0.90909	0.1	3095.7
22607	11.09	1.	0.1	3068.7
22608	10.814	0.90909	0.1	3145.7
22609	10.906	1.	0.1	3118.6
22610	10.629	0.90909	0.1	3195.9
22611	10.721	1.	0.1	3168.6
22612	10.445	0.90909	0.1	3246.3
22613	10.537	1.	0.1	3218.7
22614	10.26	0.90909	0.1	3296.7
22615	10.353	1.	0.1	3269.
22616	10.076	0.90909	0.1	3347.3
22617	10.168	1.	0.1	3319.4
22618	9.8916	0.90909	0.1	3398.
22619	9.9838	1.	0.1	3369.9
22620	9.7072	0.90909	0.1	3448.8
22621	9.7994	1.	0.1	3420.5
22622	9.5227	0.90909	0.1	3499.6
22623	9.615	1.	0.1	3471.2
22624	9.3383	0.90909	0.1	3550.5
22625	9.4305	1.	0.1	3521.9
22626	9.1539	0.90909	0.1	3601.3
22627	9.2461	1.	0.1	3572.7
22628	8.9695	0.90909	0.1	3652.1
22629	9.0617	1.	0.1	3623.5
22630	8.785	0.90909	0.1	3702.7
22631	8.8773	1.	0.1	3674.2
22632	8.6006	0.90909	0.1	3753.1
22633	8.6928	1.	0.1	3724.8
22634	8.4162	0.90909	0.1	3803.1
22635	8.5084	1.	0.1	3775.2
22636	8.2318	0.90909	0.1	3852.4
22637	8.324	1.	0.1	3825.2
22638	8.0474	0.90909	0.1	3901.
22639	8.1396	1.	0.1	3874.7
22640	7.8629	0.90909	0.1	3948.3
22641	7.9551	1.	0.1	3923.4
22642	7.6785	0.90909	0.1	3994.
22643	7.7707	1.	0.1	3970.9
22644	7.4941	0.90909	0.1	4037.4
22645	7.5863	1.	0.1	4017.
22646	7.3097	0.90909	0.1	4077.8
22647	7.4019	1.	0.1	4060.9
22648	7.1252	0.90909	0.1	4114.2
22649	7.2174	1.	0.1	4102.
22650	6.9408	0.90909	0.1	4145.3
22651	7.033	1.	0.1	4139.3
22652	6.7564	0.90909	0.1	4169.4
22653	6.8486	1.	0.1	4171.6
22654	6.572	0.90909	0.1	4184.5
22655	6.6642	1.	0.1	4197.2
22656	6.3875	0.90909	0.1	4187.9
22657	6.4798	1.	0.1	4214.4
22658	6.2031	0.90909	0.1	4176.6
22659	6.2953	1.	0.1	4220.6
22660	6.0187	0.90909	0.1	4146.7
22661	6.1109	1.	0.1	4213.1
22662	5.8343	0.90909	0.1	4093.9
22663	5.9265	1.	0.1	4188.7
22664	5.6498	0.90909	0.1	4013.5
22665	5.7421	1.	0.1	4143.9
22666	5.4654	0.90909	0.1	3901.4
22667	5.5576	1.	0.1	4075.5
22668	5.281	0.90909	0.1	3755.
22669	5.3732	1.	0.1	3981.7
22670	5.0966	0.90909	0.1	3577.7
22671	5.1888	1.	0.1	3863.7
22672	4.9121	0.90909	0.1	3384.3
22673	5.0044	1.	0.1	3730.7
22674	4.7277	0.90909	0.1	3215.2
22675	4.8199	1.	0.1	3604.7
22676	4.5433	0.90909	0.1	3211.7
22677	4.6355	1.	0.1	3537.
22678	4.4511	1.	0.1	3761.1
22679	4.3589	0.90909	0.1	2689.2
22680	23.723	1.0909	0.1	154.77
22681	23.816	1.1818	0.1	151.39
22682	23.908	1.0909	0.1	138.79
22683	23.539	1.0909	0.1	176.37
22684	23.631	1.1818	0.1	169.94
22685	23.355	1.0909	0.1	202.28
22686	23.447	1.1818	0.1	193.56
22687	23.17	1.0909	0.1	231.23
22688	23.262	1.1818	0.1	220.74
22689	22.986	1.0909	0.1	262.4
22690	23.078	1.1818	0.1	250.48
22691	22.801	1.0909	0.1	295.22
22692	22.893	1.1818	0.1	282.15
22693	22.617	1.0909	0.1	329.3
22694	22.709	1.1818	0.1	315.27
22695	22.432	1.0909	0.1	364.38
22696	22.525	1.1818	0.1	349.54
22697	22.248	1.0909	0.1	400.24
22698	22.34	1.1818	0.1	384.71
22699	22.064	1.0909	0.1	436.75
22700	22.156	1.1818	0.1	420.61
22701	21.879	1.0909	0.1	473.8
22702	21.971	1.1818	0.1	457.14
22703	21.695	1.0909	0.1	511.31
22704	21.787	1.1818	0.1	494.19
22705	21.51	1.0909	0.1	549.23
22706	21.602	1.1818	0.1	531.69
22707	21.326	1.0909	0.1	587.52
22708	21.418	1.1818	0.1	569.6
22709	21.141	1.0909	0.1	626.14
22710	21.234	1.1818	0.1	607.88
22711	20.957	1.0909	0.1	665.07
22712	21.049	1.1818	0.1	646.49
22713	20.773	1.0909	0.1	704.3
22714	20.865	1.1818	0.1	685.42
22715	20.588	1.0909	0.1	743.79
22716	20.68	1.1818	0.1	724.65
22717	20.404	1.0909	0.1	783.56
22718	20.496	1.1818	0.1	764.16
22719	20.219	1.0909	0.1	823.57
22720	20.312	1.1818	0.1	803.94
22721	20.035	1.0909	0.1	863.84
22722	20.127	1.1818	0.1	843.99
22723	19.85	1.0909	0.1	904.35
22724	19.943	1.1818	0.1	884.29
22725	19.666	1.0909	0.1	945.1
22726	19.758	1.1818	0.1	924.84
22727	19.482	1.0909	0.1	986.09
22728	19.574	1.1818	0.1	965.63
22729	19.297	1.0909	0.1	1027.3
22730	19.389	1.1818	0.1	1006.7
22731	19.113	1.0909	0.1	1068.8
22732	19.205	1.1818	0.1	1047.9
22733	18.928	1.0909	0.1	1110.4
22734	19.021	1.1818	0.1	1089.4
22735	18.744	1.0909	0.1	1152.3
22736	18.836	1.1818	0.1	1131.2
22737	18.56	1.0909	0.1	1194.4
22738	18.652	1.1818	0.1	1173.1
22739	18.375	1.0909	0.1	1236.8
22740	18.467	1.1818	0.1	1215.3
22741	18.191	1.0909	0.1	1279.3
22742	18.283	1.1818	0.1	1257.7
22743	18.006	1.0909	0.1	1322.1
22744	18.098	1.1818	0.1	1300.4
22745	17.822	1.0909	0.1	1365.1
22746	17.914	1.1818	0.1	1343.2
22747	17.637	1.0909	0.1	1408.3
22748	17.73	1.1818	0.1	1386.3
22749	17.453	1.0909	0.1	1451.7
22750	17.545	1.1818	0.1	1429.5
22751	17.269	1.0909	0.1	1495.3
22752	17.361	1.1818	0.1	1473.
22753	17.084	1.0909	0.1	1539.1
22754	17.176	1.1818	0.1	1516.7
22755	16.9	1.0909	0.1	1583.2
22756	16.992	1.1818	0.1	1560.6
22757	16.715	1.0909	0.1	1627.4
22758	16.807	1.1818	0.1	1604.8
22759	16.531	1.0909	0.1	1671.9
22760	16.623	1.1818	0.1	1649.1
22761	16.346	1.0909	0.1	1716.5
22762	16.439	1.1818	0.1	1693.6
22763	16.162	1.0909	0.1	1761.4
22764	16.254	1.1818	0.1	1738.4
22765	15.978	1.0909	0.1	1806.4
22766	16.07	1.1818	0.1	1783.3
22767	15.793	1.0909	0.1	1851.7
22768	15.885	1.1818	0.1	1828.4
22769	15.609	1.0909	0.1	1897.1
22770	15.701	1.1818	0.1	1873.8
22771	15.424	1.0909	0.1	1942.8
22772	15.517	1.1818	0.1	1919.3
22773	15.24	1.0909	0.1	1988.6
22774	15.332	1.1818	0.1	1965.
22775	15.055	1.0909	0.1	2034.6
22776	15.148	1.1818	0.1	2010.9
22777	14.871	1.0909	0.1	2080.8
22778	14.963	1.1818	0.1	2057.
22779	14.687	1.0909	0.1	2127.3
22780	14.779	1.1818	0.1	2103.3
22781	14.502	1.0909	0.1	2173.8
22782	14.594	1.1818	0.1	2149.8
22783	14.318	1.0909	0.1	2220.6
22784	14.41	1.1818	0.1	2196.4
22785	14.133	1.0909	0.1	2267.6
22786	14.226	1.1818	0.1	2243.3
22787	13.949	1.0909	0.1	2314.7
22788	14.041	1.1818	0.1	2290.3
22789	13.764	1.0909	0.1	2362.1
22790	13.857	1.1818	0.1	2337.5
22791	13.58	1.0909	0.1	2409.6
22792	13.672	1.1818	0.1	2384.9
22793	13.396	1.0909	0.1	2457.2
22794	13.488	1.1818	0.1	2432.4
22795	13.211	1.0909	0.1	2505.1
22796	13.303	1.1818	0.1	2480.2
22797	13.027	1.0909	0.1	2553.1
22798	13.119	1.1818	0.1	2528.
22799	12.842	1.0909	0.1	2601.3
22800	12.935	1.1818	0.1	2576.1
22801	12.658	1.0909	0.1	2649.6
22802	12.75	1.1818	0.1	2624.3
22803	12.474	1.0909	0.1	2698.1
22804	12.566	1.1818	0.1	2672.7
22805	12.289	1.0909	0.1	2746.8
22806	12.381	1.1818	0.1	2721.2
22807	12.105	1.0909	0.1	2795.6
22808	12.197	1.1818	0.1	2769.9
22809	11.92	1.0909	0.1	2844.6
22810	12.012	1.1818	0.1	2818.7
22811	11.736	1.0909	0.1	2893.7
22812	11.828	1.1818	0.1	2867.7
22813	11.551	1.0909	0.1	2943.
22814	11.644	1.1818	0.1	2916.8
22815	11.367	1.0909	0.1	2992.4
22816	11.459	1.1818	0.1	2966.
22817	11.183	1.0909	0.1	3042.
22818	11.275	1.1818	0.1	3015.4
22819	10.998	1.0909	0.1	3091.6
22820	11.09	1.1818	0.1	3064.9
22821	10.814	1.0909	0.1	3141.5
22822	10.906	1.1818	0.1	3114.6
22823	10.629	1.0909	0.1	3191.4
22824	10.721	1.1818	0.1	3164.3
22825	10.445	1.0909	0.1	3241.5
22826	10.537	1.1818	0.1	3214.2
22827	10.26	1.0909	0.1	3291.7
22828	10.353	1.1818	0.1	3264.2
22829	10.076	1.0909	0.1	3342.
22830	10.168	1.1818	0.1	3314.3
22831	9.8916	1.0909	0.1	3392.4
22832	9.9838	1.1818	0.1	3364.6
22833	9.7072	1.0909	0.1	3442.9
22834	9.7994	1.1818	0.1	3414.9
22835	9.5227	1.0909	0.1	3493.6
22836	9.615	1.1818	0.1	3465.3
22837	9.3383	1.0909	0.1	3544.2
22838	9.4305	1.1818	0.1	3515.8
22839	9.1539	1.0909	0.1	3594.9
22840	9.2461	1.1818	0.1	3566.4
22841	8.9695	1.0909	0.1	3645.7
22842	9.0617	1.1818	0.1	3617.1
22843	8.785	1.0909	0.1	3696.4
22844	8.8773	1.1818	0.1	3667.8
22845	8.6006	1.0909	0.1	3747.
22846	8.6928	1.1818	0.1	3718.5
22847	8.4162	1.0909	0.1	3797.4
22848	8.5084	1.1818	0.1	3769.1
22849	8.2318	1.0909	0.1	3847.5
22850	8.324	1.1818	0.1	3819.7
22851	8.0474	1.0909	0.1	3897.1
22852	8.1396	1.1818	0.1	3870.
22853	7.8629	1.0909	0.1	3946.1
22854	7.9551	1.1818	0.1	3919.9
22855	7.6785	1.0909	0.1	3994.
22856	7.7707	1.1818	0.1	3969.4
22857	7.4941	1.0909	0.1	4040.5
22858	7.5863	1.1818	0.1	4018.
22859	7.3097	1.0909	0.1	4085.2
22860	7.4019	1.1818	0.1	4065.5
22861	7.1252	1.0909	0.1	4127.1
22862	7.2174	1.1818	0.1	4111.4
22863	6.9408	1.0909	0.1	4165.6
22864	7.033	1.1818	0.1	4155.1
22865	6.7564	1.0909	0.1	4199.3
22866	6.8486	1.1818	0.1	4195.8
22867	6.572	1.0909	0.1	4227.
22868	6.6642	1.1818	0.1	4232.6
22869	6.3875	1.0909	0.1	4246.7
22870	6.4798	1.1818	0.1	4264.3
22871	6.2031	1.0909	0.1	4256.4
22872	6.2953	1.1818	0.1	4289.5
22873	6.0187	1.0909	0.1	4253.8
22874	6.1109	1.1818	0.1	4306.7
22875	5.8343	1.0909	0.1	4236.3
22876	5.9265	1.1818	0.1	4314.4
22877	5.6498	1.0909	0.1	4201.6
22878	5.7421	1.1818	0.1	4311.5
22879	5.4654	1.0909	0.1	4148.1
22880	5.5576	1.1818	0.1	4297.6
22881	5.281	1.0909	0.1	4076.7
22882	5.3732	1.1818	0.1	4274.6
22883	5.0966	1.0909	0.1	3992.9
22884	5.1888	1.1818	0.1	4248.
22885	4.9121	1.0909	0.1	3910.7
22886	5.0044	1.1818	0.1	4229.9
22887	4.7277	1.0909	0.1	3862.5
22888	4.8199	1.1818	0.1	4240.9
22889	4.5433	1.0909	0.1	3991.8
22890	4.6355	1.1818	0.1	4322.6
22891	4.4511	1.1818	0.1	4722.3
22892	4.3589	1.0909	0.1	3381.3
22893	23.723	1.2727	0.1	165.32
22894	23.816	1.3636	0.1	161.44
22895	23.908	1.2727	0.1	149.85
22896	23.539	1.2727	0.1	186.36
22897	23.631	1.3636	0.1	179.62
22898	23.355	1.2727	0.1	211.56
22899	23.447	1.3636	0.1	202.66
22900	23.17	1.2727	0.1	239.74
22901	23.262	1.3636	0.1	229.18
22902	22.986	1.2727	0.1	270.11
22903	23.078	1.3636	0.1	258.22
22904	22.801	1.2727	0.1	302.16
22905	22.893	1.3636	0.1	289.18
22906	22.617	1.2727	0.1	335.51
22907	22.709	1.3636	0.1	321.62
22908	22.432	1.2727	0.1	369.9
22909	22.525	1.3636	0.1	355.23
22910	22.248	1.2727	0.1	405.14
22911	22.34	1.3636	0.1	389.79
22912	22.064	1.2727	0.1	441.07
22913	22.156	1.3636	0.1	425.13
22914	21.879	1.2727	0.1	477.6
22915	21.971	1.3636	0.1	461.13
22916	21.695	1.2727	0.1	514.64
22917	21.787	1.3636	0.1	497.71
22918	21.51	1.2727	0.1	552.13
22919	21.602	1.3636	0.1	534.78
22920	21.326	1.2727	0.1	590.03
22921	21.418	1.3636	0.1	572.3
22922	21.141	1.2727	0.1	628.3
22923	21.234	1.3636	0.1	610.22
22924	20.957	1.2727	0.1	666.92
22925	21.049	1.3636	0.1	648.51
22926	20.773	1.2727	0.1	705.85
22927	20.865	1.3636	0.1	687.14
22928	20.588	1.2727	0.1	745.09
22929	20.68	1.3636	0.1	726.1
22930	20.404	1.2727	0.1	784.62
22931	20.496	1.3636	0.1	765.37
22932	20.219	1.2727	0.1	824.42
22933	20.312	1.3636	0.1	804.93
22934	20.035	1.2727	0.1	864.5
22935	20.127	1.3636	0.1	844.78
22936	19.85	1.2727	0.1	904.84
22937	19.943	1.3636	0.1	884.9
22938	19.666	1.2727	0.1	945.43
22939	19.758	1.3636	0.1	925.28
22940	19.482	1.2727	0.1	986.27
22941	19.574	1.3636	0.1	965.93
22942	19.297	1.2727	0.1	1027.4
22943	19.389	1.3636	0.1	1006.8
22944	19.113	1.2727	0.1	1068.7
22945	19.205	1.3636	0.1	1048.
22946	18.928	1.2727	0.1	1110.2
22947	19.021	1.3636	0.1	1089.4
22948	18.744	1.2727	0.1	1152.
22949	18.836	1.3636	0.1	1131.
22950	18.56	1.2727	0.1	1194.1
22951	18.652	1.3636	0.1	1172.9
22952	18.375	1.2727	0.1	1236.3
22953	18.467	1.3636	0.1	1215.
22954	18.191	1.2727	0.1	1278.8
22955	18.283	1.3636	0.1	1257.3
22956	18.006	1.2727	0.1	1321.5
22957	18.098	1.3636	0.1	1299.9
22958	17.822	1.2727	0.1	1364.4
22959	17.914	1.3636	0.1	1342.6
22960	17.637	1.2727	0.1	1407.6
22961	17.73	1.3636	0.1	1385.7
22962	17.453	1.2727	0.1	1450.9
22963	17.545	1.3636	0.1	1428.9
22964	17.269	1.2727	0.1	1494.5
22965	17.361	1.3636	0.1	1472.3
22966	17.084	1.2727	0.1	1538.3
22967	17.176	1.3636	0.1	1516.
22968	16.9	1.2727	0.1	1582.3
22969	16.992	1.3636	0.1	1559.8
22970	16.715	1.2727	0.1	1626.5
22971	16.807	1.3636	0.1	1603.9
22972	16.531	1.2727	0.1	1670.9
22973	16.623	1.3636	0.1	1648.2
22974	16.346	1.2727	0.1	1715.5
22975	16.439	1.3636	0.1	1692.7
22976	16.162	1.2727	0.1	1760.3
22977	16.254	1.3636	0.1	1737.4
22978	15.978	1.2727	0.1	1805.3
22979	16.07	1.3636	0.1	1782.3
22980	15.793	1.2727	0.1	1850.5
22981	15.885	1.3636	0.1	1827.4
22982	15.609	1.2727	0.1	1896.
22983	15.701	1.3636	0.1	1872.7
22984	15.424	1.2727	0.1	1941.6
22985	15.517	1.3636	0.1	1918.2
22986	15.24	1.2727	0.1	1987.4
22987	15.332	1.3636	0.1	1963.8
22988	15.055	1.2727	0.1	2033.3
22989	15.148	1.3636	0.1	2009.7
22990	14.871	1.2727	0.1	2079.5
22991	14.963	1.3636	0.1	2055.8
22992	14.687	1.2727	0.1	2125.9
22993	14.779	1.3636	0.1	2102.
22994	14.502	1.2727	0.1	2172.4
22995	14.594	1.3636	0.1	2148.4
22996	14.318	1.2727	0.1	2219.1
22997	14.41	1.3636	0.1	2195.1
22998	14.133	1.2727	0.1	2266.
22999	14.226	1.3636	0.1	2241.8
23000	13.949	1.2727	0.1	2313.1
23001	14.041	1.3636	0.1	2288.8
23002	13.764	1.2727	0.1	2360.4
23003	13.857	1.3636	0.1	2335.9
23004	13.58	1.2727	0.1	2407.8
23005	13.672	1.3636	0.1	2383.2
23006	13.396	1.2727	0.1	2455.4
23007	13.488	1.3636	0.1	2430.7
23008	13.211	1.2727	0.1	2503.2
23009	13.303	1.3636	0.1	2478.4
23010	13.027	1.2727	0.1	2551.1
23011	13.119	1.3636	0.1	2526.1
23012	12.842	1.2727	0.1	2599.1
23013	12.935	1.3636	0.1	2574.1
23014	12.658	1.2727	0.1	2647.4
23015	12.75	1.3636	0.1	2622.2
23016	12.474	1.2727	0.1	2695.8
23017	12.566	1.3636	0.1	2670.5
23018	12.289	1.2727	0.1	2744.3
23019	12.381	1.3636	0.1	2718.9
23020	12.105	1.2727	0.1	2793.
23021	12.197	1.3636	0.1	2767.4
23022	11.92	1.2727	0.1	2841.8
23023	12.012	1.3636	0.1	2816.1
23024	11.736	1.2727	0.1	2890.7
23025	11.828	1.3636	0.1	2864.9
23026	11.551	1.2727	0.1	2939.8
23027	11.644	1.3636	0.1	2913.8
23028	11.367	1.2727	0.1	2989.
23029	11.459	1.3636	0.1	2962.9
23030	11.183	1.2727	0.1	3038.4
23031	11.275	1.3636	0.1	3012.1
23032	10.998	1.2727	0.1	3087.8
23033	11.09	1.3636	0.1	3061.4
23034	10.814	1.2727	0.1	3137.4
23035	10.906	1.3636	0.1	3110.8
23036	10.629	1.2727	0.1	3187.1
23037	10.721	1.3636	0.1	3160.3
23038	10.445	1.2727	0.1	3236.9
23039	10.537	1.3636	0.1	3209.9
23040	10.26	1.2727	0.1	3286.9
23041	10.353	1.3636	0.1	3259.6
23042	10.076	1.2727	0.1	3336.9
23043	10.168	1.3636	0.1	3309.5
23044	9.8916	1.2727	0.1	3387.
23045	9.9838	1.3636	0.1	3359.4
23046	9.7072	1.2727	0.1	3437.3
23047	9.7994	1.3636	0.1	3409.5
23048	9.5227	1.2727	0.1	3487.6
23049	9.615	1.3636	0.1	3459.6
23050	9.3383	1.2727	0.1	3538.1
23051	9.4305	1.3636	0.1	3509.9
23052	9.1539	1.2727	0.1	3588.6
23053	9.2461	1.3636	0.1	3560.3
23054	8.9695	1.2727	0.1	3639.2
23055	9.0617	1.3636	0.1	3610.7
23056	8.785	1.2727	0.1	3689.9
23057	8.8773	1.3636	0.1	3661.3
23058	8.6006	1.2727	0.1	3740.7
23059	8.6928	1.3636	0.1	3712.1
23060	8.4162	1.2727	0.1	3791.5
23061	8.5084	1.3636	0.1	3762.9
23062	8.2318	1.2727	0.1	3842.2
23063	8.324	1.3636	0.1	3813.9
23064	8.0474	1.2727	0.1	3892.9
23065	8.1396	1.3636	0.1	3865.
23066	7.8629	1.2727	0.1	3943.3
23067	7.9551	1.3636	0.1	3916.1
23068	7.6785	1.2727	0.1	3993.4
23069	7.7707	1.3636	0.1	3967.3
23070	7.4941	1.2727	0.1	4043.
23071	7.5863	1.3636	0.1	4018.4
23072	7.3097	1.2727	0.1	4091.8
23073	7.4019	1.3636	0.1	4069.3
23074	7.1252	1.2727	0.1	4139.4
23075	7.2174	1.3636	0.1	4120.
23076	6.9408	1.2727	0.1	4185.3
23077	7.033	1.3636	0.1	4170.1
23078	6.7564	1.2727	0.1	4229.1
23079	6.8486	1.3636	0.1	4219.5
23080	6.572	1.2727	0.1	4269.8
23081	6.6642	1.3636	0.1	4267.7
23082	6.3875	1.2727	0.1	4306.8
23083	6.4798	1.3636	0.1	4314.5
23084	6.2031	1.2727	0.1	4339.1
23085	6.2953	1.3636	0.1	4359.5
23086	6.0187	1.2727	0.1	4366.
23087	6.1109	1.3636	0.1	4402.7
23088	5.8343	1.2727	0.1	4387.1
23089	5.9265	1.3636	0.1	4444.4
23090	5.6498	1.2727	0.1	4402.9
23091	5.7421	1.3636	0.1	4486.1
23092	5.4654	1.2727	0.1	4415.7
23093	5.5576	1.3636	0.1	4531.
23094	5.281	1.2727	0.1	4431.
23095	5.3732	1.3636	0.1	4585.6
23096	5.0966	1.2727	0.1	4458.9
23097	5.1888	1.3636	0.1	4661.9
23098	4.9121	1.2727	0.1	4515.2
23099	5.0044	1.3636	0.1	4779.3
23100	4.7277	1.2727	0.1	4627.8
23101	4.8199	1.3636	0.1	4968.1
23102	4.5433	1.2727	0.1	4939.7
23103	4.6355	1.3636	0.1	5264.1
23104	4.4511	1.3636	0.1	5948.4
23105	4.3589	1.2727	0.1	4238.8
23106	23.723	1.4545	0.1	174.5
23107	23.816	1.5455	0.1	170.12
23108	23.908	1.4545	0.1	159.42
23109	23.539	1.4545	0.1	195.12
23110	23.631	1.5455	0.1	188.02
23111	23.355	1.4545	0.1	219.77
23112	23.447	1.5455	0.1	210.62
23113	23.17	1.4545	0.1	247.35
23114	23.262	1.5455	0.1	236.63
23115	22.986	1.4545	0.1	277.11
23116	23.078	1.5455	0.1	265.13
23117	22.801	1.4545	0.1	308.55
23118	22.893	1.5455	0.1	295.53
23119	22.617	1.4545	0.1	341.3
23120	22.709	1.5455	0.1	327.42
23121	22.432	1.4545	0.1	375.11
23122	22.525	1.5455	0.1	360.49
23123	22.248	1.4545	0.1	409.81
23124	22.34	1.5455	0.1	394.54
23125	22.064	1.4545	0.1	445.23
23126	22.156	1.5455	0.1	429.39
23127	21.879	1.4545	0.1	481.29
23128	21.971	1.5455	0.1	464.94
23129	21.695	1.4545	0.1	517.9
23130	21.787	1.5455	0.1	501.09
23131	21.51	1.4545	0.1	555.
23132	21.602	1.5455	0.1	537.77
23133	21.326	1.4545	0.1	592.54
23134	21.418	1.5455	0.1	574.93
23135	21.141	1.4545	0.1	630.48
23136	21.234	1.5455	0.1	612.52
23137	20.957	1.4545	0.1	668.8
23138	21.049	1.5455	0.1	650.51
23139	20.773	1.4545	0.1	707.46
23140	20.865	1.5455	0.1	688.86
23141	20.588	1.4545	0.1	746.45
23142	20.68	1.5455	0.1	727.57
23143	20.404	1.4545	0.1	785.75
23144	20.496	1.5455	0.1	766.61
23145	20.219	1.4545	0.1	825.35
23146	20.312	1.5455	0.1	805.96
23147	20.035	1.4545	0.1	865.24
23148	20.127	1.5455	0.1	845.62
23149	19.85	1.4545	0.1	905.4
23150	19.943	1.5455	0.1	885.56
23151	19.666	1.4545	0.1	945.84
23152	19.758	1.5455	0.1	925.79
23153	19.482	1.4545	0.1	986.54
23154	19.574	1.5455	0.1	966.29
23155	19.297	1.4545	0.1	1027.5
23156	19.389	1.5455	0.1	1007.1
23157	19.113	1.4545	0.1	1068.7
23158	19.205	1.5455	0.1	1048.1
23159	18.928	1.4545	0.1	1110.2
23160	19.021	1.5455	0.1	1089.4
23161	18.744	1.4545	0.1	1151.9
23162	18.836	1.5455	0.1	1130.9
23163	18.56	1.4545	0.1	1193.8
23164	18.652	1.5455	0.1	1172.7
23165	18.375	1.4545	0.1	1236.
23166	18.467	1.5455	0.1	1214.7
23167	18.191	1.4545	0.1	1278.4
23168	18.283	1.5455	0.1	1257.
23169	18.006	1.4545	0.1	1321.
23170	18.098	1.5455	0.1	1299.5
23171	17.822	1.4545	0.1	1363.9
23172	17.914	1.5455	0.1	1342.2
23173	17.637	1.4545	0.1	1407.
23174	17.73	1.5455	0.1	1385.1
23175	17.453	1.4545	0.1	1450.3
23176	17.545	1.5455	0.1	1428.3
23177	17.269	1.4545	0.1	1493.8
23178	17.361	1.5455	0.1	1471.7
23179	17.084	1.4545	0.1	1537.6
23180	17.176	1.5455	0.1	1515.3
23181	16.9	1.4545	0.1	1581.5
23182	16.992	1.5455	0.1	1559.1
23183	16.715	1.4545	0.1	1625.7
23184	16.807	1.5455	0.1	1603.2
23185	16.531	1.4545	0.1	1670.
23186	16.623	1.5455	0.1	1647.4
23187	16.346	1.4545	0.1	1714.6
23188	16.439	1.5455	0.1	1691.9
23189	16.162	1.4545	0.1	1759.4
23190	16.254	1.5455	0.1	1736.5
23191	15.978	1.4545	0.1	1804.4
23192	16.07	1.5455	0.1	1781.4
23193	15.793	1.4545	0.1	1849.5
23194	15.885	1.5455	0.1	1826.5
23195	15.609	1.4545	0.1	1894.9
23196	15.701	1.5455	0.1	1871.7
23197	15.424	1.4545	0.1	1940.5
23198	15.517	1.5455	0.1	1917.2
23199	15.24	1.4545	0.1	1986.2
23200	15.332	1.5455	0.1	1962.8
23201	15.055	1.4545	0.1	2032.2
23202	15.148	1.5455	0.1	2008.6
23203	14.871	1.4545	0.1	2078.3
23204	14.963	1.5455	0.1	2054.7
23205	14.687	1.4545	0.1	2124.6
23206	14.779	1.5455	0.1	2100.9
23207	14.502	1.4545	0.1	2171.1
23208	14.594	1.5455	0.1	2147.2
23209	14.318	1.4545	0.1	2217.8
23210	14.41	1.5455	0.1	2193.8
23211	14.133	1.4545	0.1	2264.6
23212	14.226	1.5455	0.1	2240.5
23213	13.949	1.4545	0.1	2311.7
23214	14.041	1.5455	0.1	2287.4
23215	13.764	1.4545	0.1	2358.8
23216	13.857	1.5455	0.1	2334.5
23217	13.58	1.4545	0.1	2406.2
23218	13.672	1.5455	0.1	2381.8
23219	13.396	1.4545	0.1	2453.7
23220	13.488	1.5455	0.1	2429.2
23221	13.211	1.4545	0.1	2501.4
23222	13.303	1.5455	0.1	2476.7
23223	13.027	1.4545	0.1	2549.2
23224	13.119	1.5455	0.1	2524.4
23225	12.842	1.4545	0.1	2597.2
23226	12.935	1.5455	0.1	2572.3
23227	12.658	1.4545	0.1	2645.3
23228	12.75	1.5455	0.1	2620.3
23229	12.474	1.4545	0.1	2693.6
23230	12.566	1.5455	0.1	2668.4
23231	12.289	1.4545	0.1	2742.
23232	12.381	1.5455	0.1	2716.7
23233	12.105	1.4545	0.1	2790.5
23234	12.197	1.5455	0.1	2765.1
23235	11.92	1.4545	0.1	2839.2
23236	12.012	1.5455	0.1	2813.7
23237	11.736	1.4545	0.1	2888.
23238	11.828	1.5455	0.1	2862.3
23239	11.551	1.4545	0.1	2936.9
23240	11.644	1.5455	0.1	2911.1
23241	11.367	1.4545	0.1	2985.9
23242	11.459	1.5455	0.1	2960.
23243	11.183	1.4545	0.1	3035.1
23244	11.275	1.5455	0.1	3009.
23245	10.998	1.4545	0.1	3084.3
23246	11.09	1.5455	0.1	3058.1
23247	10.814	1.4545	0.1	3133.6
23248	10.906	1.5455	0.1	3107.2
23249	10.629	1.4545	0.1	3183.1
23250	10.721	1.5455	0.1	3156.5
23251	10.445	1.4545	0.1	3232.6
23252	10.537	1.5455	0.1	3205.9
23253	10.26	1.4545	0.1	3282.3
23254	10.353	1.5455	0.1	3255.4
23255	10.076	1.4545	0.1	3332.
23256	10.168	1.5455	0.1	3304.9
23257	9.8916	1.4545	0.1	3381.9
23258	9.9838	1.5455	0.1	3354.6
23259	9.7072	1.4545	0.1	3431.8
23260	9.7994	1.5455	0.1	3404.3
23261	9.5227	1.4545	0.1	3481.9
23262	9.615	1.5455	0.1	3454.2
23263	9.3383	1.4545	0.1	3532.1
23264	9.4305	1.5455	0.1	3504.2
23265	9.1539	1.4545	0.1	3582.4
23266	9.2461	1.5455	0.1	3554.3
23267	8.9695	1.4545	0.1	3632.9
23268	9.0617	1.5455	0.1	3604.6
23269	8.785	1.4545	0.1	3683.5
23270	8.8773	1.5455	0.1	3655.
23271	8.6006	1.4545	0.1	3734.3
23272	8.6928	1.5455	0.1	3705.7
23273	8.4162	1.4545	0.1	3785.4
23274	8.5084	1.5455	0.1	3756.7
23275	8.2318	1.4545	0.1	3836.7
23276	8.324	1.5455	0.1	3808.
23277	8.0474	1.4545	0.1	3888.2
23278	8.1396	1.5455	0.1	3859.7
23279	7.8629	1.4545	0.1	3940.1
23280	7.9551	1.5455	0.1	3911.9
23281	7.6785	1.4545	0.1	3992.3
23282	7.7707	1.5455	0.1	3964.7
23283	7.4941	1.4545	0.1	4044.8
23284	7.5863	1.5455	0.1	4018.2
23285	7.3097	1.4545	0.1	4097.6
23286	7.4019	1.5455	0.1	4072.5
23287	7.1252	1.4545	0.1	4150.8
23288	7.2174	1.5455	0.1	4127.7
23289	6.9408	1.4545	0.1	4204.3
23290	7.033	1.5455	0.1	4184.2
23291	6.7564	1.4545	0.1	4258.1
23292	6.8486	1.5455	0.1	4242.1
23293	6.572	1.4545	0.1	4312.2
23294	6.6642	1.5455	0.1	4301.8
23295	6.3875	1.4545	0.1	4366.8
23296	6.4798	1.5455	0.1	4363.7
23297	6.2031	1.4545	0.1	4422.4
23298	6.2953	1.5455	0.1	4428.9
23299	6.0187	1.4545	0.1	4479.9
23300	6.1109	1.5455	0.1	4498.5
23301	5.8343	1.4545	0.1	4541.1
23302	5.9265	1.5455	0.1	4574.9
23303	5.6498	1.4545	0.1	4609.9
23304	5.7421	1.5455	0.1	4662.3
23305	5.4654	1.4545	0.1	4693.1
23306	5.5576	1.5455	0.1	4767.3
23307	5.281	1.4545	0.1	4802.4
23308	5.3732	1.5455	0.1	4902.
23309	5.0966	1.4545	0.1	4957.2
23310	5.1888	1.5455	0.1	5086.1
23311	4.9121	1.4545	0.1	5187.5
23312	5.0044	1.5455	0.1	5354.5
23313	4.7277	1.4545	0.1	5523.3
23314	4.8199	1.5455	0.1	5757.8
23315	4.5433	1.4545	0.1	6127.4
23316	4.6355	1.5455	0.1	6390.
23317	4.4511	1.5455	0.1	7648.7
23318	4.3589	1.4545	0.1	5383.2
23319	23.723	1.6364	0.1	182.42
23320	23.816	1.7273	0.1	177.57
23321	23.908	1.6364	0.1	167.66
23322	23.539	1.6364	0.1	202.71
23323	23.631	1.7273	0.1	195.25
23324	23.355	1.6364	0.1	226.94
23325	23.447	1.7273	0.1	217.51
23326	23.17	1.6364	0.1	254.06
23327	23.262	1.7273	0.1	243.11
23328	22.986	1.6364	0.1	283.34
23329	23.078	1.7273	0.1	271.19
23330	22.801	1.6364	0.1	314.29
23331	22.893	1.7273	0.1	301.16
23332	22.617	1.6364	0.1	346.55
23333	22.709	1.7273	0.1	332.61
23334	22.432	1.6364	0.1	379.9
23335	22.525	1.7273	0.1	365.25
23336	22.248	1.6364	0.1	414.13
23337	22.34	1.7273	0.1	398.86
23338	22.064	1.6364	0.1	449.13
23339	22.156	1.7273	0.1	433.31
23340	21.879	1.6364	0.1	484.78
23341	21.971	1.7273	0.1	468.47
23342	21.695	1.6364	0.1	521.01
23343	21.787	1.7273	0.1	504.25
23344	21.51	1.6364	0.1	557.75
23345	21.602	1.7273	0.1	540.58
23346	21.326	1.6364	0.1	594.96
23347	21.418	1.7273	0.1	577.42
23348	21.141	1.6364	0.1	632.6
23349	21.234	1.7273	0.1	614.71
23350	20.957	1.6364	0.1	670.63
23351	21.049	1.7273	0.1	652.42
23352	20.773	1.6364	0.1	709.04
23353	20.865	1.7273	0.1	690.53
23354	20.588	1.6364	0.1	747.8
23355	20.68	1.7273	0.1	729.
23356	20.404	1.6364	0.1	786.89
23357	20.496	1.7273	0.1	767.83
23358	20.219	1.6364	0.1	826.29
23359	20.312	1.7273	0.1	806.99
23360	20.035	1.6364	0.1	866.
23361	20.127	1.7273	0.1	846.46
23362	19.85	1.6364	0.1	906.01
23363	19.943	1.7273	0.1	886.25
23364	19.666	1.6364	0.1	946.3
23365	19.758	1.7273	0.1	926.33
23366	19.482	1.6364	0.1	986.87
23367	19.574	1.7273	0.1	966.7
23368	19.297	1.6364	0.1	1027.7
23369	19.389	1.7273	0.1	1007.3
23370	19.113	1.6364	0.1	1068.8
23371	19.205	1.7273	0.1	1048.3
23372	18.928	1.6364	0.1	1110.2
23373	19.021	1.7273	0.1	1089.5
23374	18.744	1.6364	0.1	1151.8
23375	18.836	1.7273	0.1	1130.9
23376	18.56	1.6364	0.1	1193.7
23377	18.652	1.7273	0.1	1172.6
23378	18.375	1.6364	0.1	1235.8
23379	18.467	1.7273	0.1	1214.5
23380	18.191	1.6364	0.1	1278.1
23381	18.283	1.7273	0.1	1256.7
23382	18.006	1.6364	0.1	1320.7
23383	18.098	1.7273	0.1	1299.2
23384	17.822	1.6364	0.1	1363.5
23385	17.914	1.7273	0.1	1341.8
23386	17.637	1.6364	0.1	1406.5
23387	17.73	1.7273	0.1	1384.7
23388	17.453	1.6364	0.1	1449.8
23389	17.545	1.7273	0.1	1427.8
23390	17.269	1.6364	0.1	1493.2
23391	17.361	1.7273	0.1	1471.2
23392	17.084	1.6364	0.1	1536.9
23393	17.176	1.7273	0.1	1514.8
23394	16.9	1.6364	0.1	1580.9
23395	16.992	1.7273	0.1	1558.5
23396	16.715	1.6364	0.1	1625.
23397	16.807	1.7273	0.1	1602.5
23398	16.531	1.6364	0.1	1669.3
23399	16.623	1.7273	0.1	1646.8
23400	16.346	1.6364	0.1	1713.8
23401	16.439	1.7273	0.1	1691.2
23402	16.162	1.6364	0.1	1758.6
23403	16.254	1.7273	0.1	1735.8
23404	15.978	1.6364	0.1	1803.5
23405	16.07	1.7273	0.1	1780.6
23406	15.793	1.6364	0.1	1848.7
23407	15.885	1.7273	0.1	1825.6
23408	15.609	1.6364	0.1	1894.
23409	15.701	1.7273	0.1	1870.9
23410	15.424	1.6364	0.1	1939.5
23411	15.517	1.7273	0.1	1916.3
23412	15.24	1.6364	0.1	1985.2
23413	15.332	1.7273	0.1	1961.9
23414	15.055	1.6364	0.1	2031.2
23415	15.148	1.7273	0.1	2007.7
23416	14.871	1.6364	0.1	2077.2
23417	14.963	1.7273	0.1	2053.7
23418	14.687	1.6364	0.1	2123.5
23419	14.779	1.7273	0.1	2099.8
23420	14.502	1.6364	0.1	2170.
23421	14.594	1.7273	0.1	2146.2
23422	14.318	1.6364	0.1	2216.6
23423	14.41	1.7273	0.1	2192.7
23424	14.133	1.6364	0.1	2263.4
23425	14.226	1.7273	0.1	2239.4
23426	13.949	1.6364	0.1	2310.3
23427	14.041	1.7273	0.1	2286.2
23428	13.764	1.6364	0.1	2357.5
23429	13.857	1.7273	0.1	2333.3
23430	13.58	1.6364	0.1	2404.8
23431	13.672	1.7273	0.1	2380.4
23432	13.396	1.6364	0.1	2452.2
23433	13.488	1.7273	0.1	2427.8
23434	13.211	1.6364	0.1	2499.8
23435	13.303	1.7273	0.1	2475.3
23436	13.027	1.6364	0.1	2547.5
23437	13.119	1.7273	0.1	2522.9
23438	12.842	1.6364	0.1	2595.4
23439	12.935	1.7273	0.1	2570.7
23440	12.658	1.6364	0.1	2643.5
23441	12.75	1.7273	0.1	2618.6
23442	12.474	1.6364	0.1	2691.6
23443	12.566	1.7273	0.1	2666.6
23444	12.289	1.6364	0.1	2739.9
23445	12.381	1.7273	0.1	2714.8
23446	12.105	1.6364	0.1	2788.3
23447	12.197	1.7273	0.1	2763.1
23448	11.92	1.6364	0.1	2836.8
23449	12.012	1.7273	0.1	2811.5
23450	11.736	1.6364	0.1	2885.5
23451	11.828	1.7273	0.1	2860.
23452	11.551	1.6364	0.1	2934.2
23453	11.644	1.7273	0.1	2908.6
23454	11.367	1.6364	0.1	2983.
23455	11.459	1.7273	0.1	2957.3
23456	11.183	1.6364	0.1	3032.
23457	11.275	1.7273	0.1	3006.2
23458	10.998	1.6364	0.1	3081.
23459	11.09	1.7273	0.1	3055.
23460	10.814	1.6364	0.1	3130.1
23461	10.906	1.7273	0.1	3104.
23462	10.629	1.6364	0.1	3179.3
23463	10.721	1.7273	0.1	3153.1
23464	10.445	1.6364	0.1	3228.6
23465	10.537	1.7273	0.1	3202.2
23466	10.26	1.6364	0.1	3278.
23467	10.353	1.7273	0.1	3251.4
23468	10.076	1.6364	0.1	3327.5
23469	10.168	1.7273	0.1	3300.7
23470	9.8916	1.6364	0.1	3377.
23471	9.9838	1.7273	0.1	3350.1
23472	9.7072	1.6364	0.1	3426.7
23473	9.7994	1.7273	0.1	3399.5
23474	9.5227	1.6364	0.1	3476.5
23475	9.615	1.7273	0.1	3449.1
23476	9.3383	1.6364	0.1	3526.4
23477	9.4305	1.7273	0.1	3498.8
23478	9.1539	1.6364	0.1	3576.4
23479	9.2461	1.7273	0.1	3548.6
23480	8.9695	1.6364	0.1	3626.7
23481	9.0617	1.7273	0.1	3598.7
23482	8.785	1.6364	0.1	3677.3
23483	8.8773	1.7273	0.1	3649.
23484	8.6006	1.6364	0.1	3728.1
23485	8.6928	1.7273	0.1	3699.6
23486	8.4162	1.6364	0.1	3779.3
23487	8.5084	1.7273	0.1	3750.6
23488	8.2318	1.6364	0.1	3831.1
23489	8.324	1.7273	0.1	3802.2
23490	8.0474	1.6364	0.1	3883.4
23491	8.1396	1.7273	0.1	3854.5
23492	7.8629	1.6364	0.1	3936.6
23493	7.9551	1.7273	0.1	3907.6
23494	7.6785	1.6364	0.1	3990.6
23495	7.7707	1.7273	0.1	3961.8
23496	7.4941	1.6364	0.1	4045.9
23497	7.5863	1.7273	0.1	4017.5
23498	7.3097	1.6364	0.1	4102.7
23499	7.4019	1.7273	0.1	4074.9
23500	7.1252	1.6364	0.1	4161.2
23501	7.2174	1.7273	0.1	4134.6
23502	6.9408	1.6364	0.1	4222.1
23503	7.033	1.7273	0.1	4197.2
23504	6.7564	1.6364	0.1	4285.8
23505	6.8486	1.7273	0.1	4263.4
23506	6.572	1.6364	0.1	4353.2
23507	6.6642	1.7273	0.1	4334.3
23508	6.3875	1.6364	0.1	4425.5
23509	6.4798	1.7273	0.1	4411.2
23510	6.2031	1.6364	0.1	4504.4
23511	6.2953	1.7273	0.1	4496.2
23512	6.0187	1.6364	0.1	4592.5
23513	6.1109	1.7273	0.1	4592.
23514	5.8343	1.6364	0.1	4694.
23515	5.9265	1.7273	0.1	4702.8
23516	5.6498	1.6364	0.1	4815.9
23517	5.7421	1.7273	0.1	4835.2
23518	5.4654	1.6364	0.1	4969.6
23519	5.5576	1.7273	0.1	4999.5
23520	5.281	1.6364	0.1	5174.
23521	5.3732	1.7273	0.1	5212.8
23522	5.0966	1.6364	0.1	5463.
23523	5.1888	1.7273	0.1	5503.3
23524	4.9121	1.6364	0.1	5887.4
23525	5.0044	1.7273	0.1	5923.1
23526	4.7277	1.6364	0.1	6551.2
23527	4.8199	1.7273	0.1	6556.3
23528	4.5433	1.6364	0.1	7696.1
23529	4.6355	1.7273	0.1	7671.6
23530	4.4511	1.7273	0.1	10095
23531	4.3589	1.6364	0.1	6931.1
23532	23.723	1.8182	0.1	189.19
23533	23.816	1.9091	0.1	183.87
23534	23.908	1.8182	0.1	174.69
23535	23.539	1.8182	0.1	209.22
23536	23.631	1.9091	0.1	201.39
23537	23.355	1.8182	0.1	233.12
23538	23.447	1.9091	0.1	223.37
23539	23.17	1.8182	0.1	259.87
23540	23.262	1.9091	0.1	248.66
23541	22.986	1.8182	0.1	288.77
23542	23.078	1.9091	0.1	276.41
23543	22.801	1.8182	0.1	319.34
23544	22.893	1.9091	0.1	306.04
23545	22.617	1.8182	0.1	351.21
23546	22.709	1.9091	0.1	337.14
23547	22.432	1.8182	0.1	384.17
23548	22.525	1.9091	0.1	369.42
23549	22.248	1.8182	0.1	418.03
23550	22.34	1.9091	0.1	402.7
23551	22.064	1.8182	0.1	452.66
23552	22.156	1.9091	0.1	436.8
23553	21.879	1.8182	0.1	487.96
23554	21.971	1.9091	0.1	471.63
23555	21.695	1.8182	0.1	523.86
23556	21.787	1.9091	0.1	507.1
23557	21.51	1.8182	0.1	560.29
23558	21.602	1.9091	0.1	543.14
23559	21.326	1.8182	0.1	597.21
23560	21.418	1.9091	0.1	579.7
23561	21.141	1.8182	0.1	634.58
23562	21.234	1.9091	0.1	616.73
23563	20.957	1.8182	0.1	672.37
23564	21.049	1.9091	0.1	654.2
23565	20.773	1.8182	0.1	710.55
23566	20.865	1.9091	0.1	692.08
23567	20.588	1.8182	0.1	749.09
23568	20.68	1.9091	0.1	730.34
23569	20.404	1.8182	0.1	787.99
23570	20.496	1.9091	0.1	768.98
23571	20.219	1.8182	0.1	827.22
23572	20.312	1.9091	0.1	807.96
23573	20.035	1.8182	0.1	866.77
23574	20.127	1.9091	0.1	847.28
23575	19.85	1.8182	0.1	906.63
23576	19.943	1.9091	0.1	886.92
23577	19.666	1.8182	0.1	946.79
23578	19.758	1.9091	0.1	926.87
23579	19.482	1.8182	0.1	987.23
23580	19.574	1.9091	0.1	967.12
23581	19.297	1.8182	0.1	1028.
23582	19.389	1.9091	0.1	1007.7
23583	19.113	1.8182	0.1	1069.
23584	19.205	1.9091	0.1	1048.5
23585	18.928	1.8182	0.1	1110.2
23586	19.021	1.9091	0.1	1089.6
23587	18.744	1.8182	0.1	1151.8
23588	18.836	1.9091	0.1	1130.9
23589	18.56	1.8182	0.1	1193.5
23590	18.652	1.9091	0.1	1172.6
23591	18.375	1.8182	0.1	1235.6
23592	18.467	1.9091	0.1	1214.4
23593	18.191	1.8182	0.1	1277.9
23594	18.283	1.9091	0.1	1256.6
23595	18.006	1.8182	0.1	1320.4
23596	18.098	1.9091	0.1	1298.9
23597	17.822	1.8182	0.1	1363.1
23598	17.914	1.9091	0.1	1341.5
23599	17.637	1.8182	0.1	1406.1
23600	17.73	1.9091	0.1	1384.4
23601	17.453	1.8182	0.1	1449.3
23602	17.545	1.9091	0.1	1427.5
23603	17.269	1.8182	0.1	1492.8
23604	17.361	1.9091	0.1	1470.8
23605	17.084	1.8182	0.1	1536.4
23606	17.176	1.9091	0.1	1514.3
23607	16.9	1.8182	0.1	1580.3
23608	16.992	1.9091	0.1	1558.
23609	16.715	1.8182	0.1	1624.4
23610	16.807	1.9091	0.1	1602.
23611	16.531	1.8182	0.1	1668.7
23612	16.623	1.9091	0.1	1646.2
23613	16.346	1.8182	0.1	1713.2
23614	16.439	1.9091	0.1	1690.6
23615	16.162	1.8182	0.1	1757.9
23616	16.254	1.9091	0.1	1735.2
23617	15.978	1.8182	0.1	1802.8
23618	16.07	1.9091	0.1	1780.
23619	15.793	1.8182	0.1	1847.9
23620	15.885	1.9091	0.1	1825.
23621	15.609	1.8182	0.1	1893.2
23622	15.701	1.9091	0.1	1870.2
23623	15.424	1.8182	0.1	1938.7
23624	15.517	1.9091	0.1	1915.5
23625	15.24	1.8182	0.1	1984.4
23626	15.332	1.9091	0.1	1961.1
23627	15.055	1.8182	0.1	2030.3
23628	15.148	1.9091	0.1	2006.9
23629	14.871	1.8182	0.1	2076.3
23630	14.963	1.9091	0.1	2052.8
23631	14.687	1.8182	0.1	2122.5
23632	14.779	1.9091	0.1	2099.
23633	14.502	1.8182	0.1	2168.9
23634	14.594	1.9091	0.1	2145.3
23635	14.318	1.8182	0.1	2215.5
23636	14.41	1.9091	0.1	2191.7
23637	14.133	1.8182	0.1	2262.3
23638	14.226	1.9091	0.1	2238.4
23639	13.949	1.8182	0.1	2309.2
23640	14.041	1.9091	0.1	2285.2
23641	13.764	1.8182	0.1	2356.3
23642	13.857	1.9091	0.1	2332.2
23643	13.58	1.8182	0.1	2403.5
23644	13.672	1.9091	0.1	2379.3
23645	13.396	1.8182	0.1	2450.9
23646	13.488	1.9091	0.1	2426.6
23647	13.211	1.8182	0.1	2498.4
23648	13.303	1.9091	0.1	2474.
23649	13.027	1.8182	0.1	2546.1
23650	13.119	1.9091	0.1	2521.5
23651	12.842	1.8182	0.1	2593.9
23652	12.935	1.9091	0.1	2569.2
23653	12.658	1.8182	0.1	2641.8
23654	12.75	1.9091	0.1	2617.1
23655	12.474	1.8182	0.1	2689.8
23656	12.566	1.9091	0.1	2665.
23657	12.289	1.8182	0.1	2738.
23658	12.381	1.9091	0.1	2713.1
23659	12.105	1.8182	0.1	2786.3
23660	12.197	1.9091	0.1	2761.3
23661	11.92	1.8182	0.1	2834.7
23662	12.012	1.9091	0.1	2809.6
23663	11.736	1.8182	0.1	2883.2
23664	11.828	1.9091	0.1	2858.
23665	11.551	1.8182	0.1	2931.8
23666	11.644	1.9091	0.1	2906.4
23667	11.367	1.8182	0.1	2980.5
23668	11.459	1.9091	0.1	2955.
23669	11.183	1.8182	0.1	3029.2
23670	11.275	1.9091	0.1	3003.6
23671	10.998	1.8182	0.1	3078.1
23672	11.09	1.9091	0.1	3052.4
23673	10.814	1.8182	0.1	3127.
23674	10.906	1.9091	0.1	3101.1
23675	10.629	1.8182	0.1	3175.9
23676	10.721	1.9091	0.1	3150.
23677	10.445	1.8182	0.1	3225.
23678	10.537	1.9091	0.1	3198.9
23679	10.26	1.8182	0.1	3274.1
23680	10.353	1.9091	0.1	3247.8
23681	10.076	1.8182	0.1	3323.3
23682	10.168	1.9091	0.1	3296.9
23683	9.8916	1.8182	0.1	3372.6
23684	9.9838	1.9091	0.1	3345.9
23685	9.7072	1.8182	0.1	3421.9
23686	9.7994	1.9091	0.1	3395.1
23687	9.5227	1.8182	0.1	3471.4
23688	9.615	1.9091	0.1	3444.4
23689	9.3383	1.8182	0.1	3521.
23690	9.4305	1.9091	0.1	3493.8
23691	9.1539	1.8182	0.1	3570.8
23692	9.2461	1.9091	0.1	3543.4
23693	8.9695	1.8182	0.1	3620.9
23694	9.0617	1.9091	0.1	3593.2
23695	8.785	1.8182	0.1	3671.3
23696	8.8773	1.9091	0.1	3643.3
23697	8.6006	1.8182	0.1	3722.1
23698	8.6928	1.9091	0.1	3693.8
23699	8.4162	1.8182	0.1	3773.5
23700	8.5084	1.9091	0.1	3744.8
23701	8.2318	1.8182	0.1	3825.6
23702	8.324	1.9091	0.1	3796.6
23703	8.0474	1.8182	0.1	3878.6
23704	8.1396	1.9091	0.1	3849.3
23705	7.8629	1.8182	0.1	3932.9
23706	7.9551	1.9091	0.1	3903.3
23707	7.6785	1.8182	0.1	3988.7
23708	7.7707	1.9091	0.1	3958.8
23709	7.4941	1.8182	0.1	4046.5
23710	7.5863	1.9091	0.1	4016.5
23711	7.3097	1.8182	0.1	4106.9
23712	7.4019	1.9091	0.1	4076.8
23713	7.1252	1.8182	0.1	4170.6
23714	7.2174	1.9091	0.1	4140.6
23715	6.9408	1.8182	0.1	4238.5
23716	7.033	1.9091	0.1	4208.9
23717	6.7564	1.8182	0.1	4311.9
23718	6.8486	1.9091	0.1	4283.
23719	6.572	1.8182	0.1	4392.2
23720	6.6642	1.9091	0.1	4364.6
23721	6.3875	1.8182	0.1	4481.7
23722	6.4798	1.9091	0.1	4456.
23723	6.2031	1.8182	0.1	4583.3
23724	6.2953	1.9091	0.1	4560.1
23725	6.0187	1.8182	0.1	4701.4
23726	6.1109	1.9091	0.1	4681.2
23727	5.8343	1.8182	0.1	4842.3
23728	5.9265	1.9091	0.1	4825.3
23729	5.6498	1.8182	0.1	5015.7
23730	5.7421	1.9091	0.1	5001.3
23731	5.4654	1.8182	0.1	5237.6
23732	5.5576	1.9091	0.1	5222.6
23733	5.281	1.8182	0.1	5533.5
23734	5.3732	1.9091	0.1	5511.1
23735	5.0966	1.8182	0.1	5949.5
23736	5.1888	1.9091	0.1	5902.2
23737	4.9121	1.8182	0.1	6569.5
23738	5.0044	1.9091	0.1	6463.2
23739	4.7277	1.8182	0.1	7626.9
23740	4.8199	1.9091	0.1	7316.4
23741	4.5433	1.8182	0.1	9878.7
23742	4.6355	1.9091	0.1	8825.8
23743	4.4511	1.9091	0.1	12688
23744	4.3589	1.8182	0.1	10013
23745	23.723	2.	0.1	194.88
23746	23.816	2.0909	0.1	189.1
23747	23.908	2.	0.1	180.58
23748	23.539	2.	0.1	214.7
23749	23.631	2.0909	0.1	206.49
23750	23.355	2.	0.1	238.34
23751	23.447	2.0909	0.1	228.26
23752	23.17	2.	0.1	264.81
23753	23.262	2.0909	0.1	253.31
23754	22.986	2.	0.1	293.41
23755	23.078	2.0909	0.1	280.79
23756	22.801	2.	0.1	323.67
23757	22.893	2.0909	0.1	310.15
23758	22.617	2.	0.1	355.24
23759	22.709	2.0909	0.1	340.98
23760	22.432	2.	0.1	387.89
23761	22.525	2.0909	0.1	372.99
23762	22.248	2.	0.1	421.44
23763	22.34	2.0909	0.1	405.99
23764	22.064	2.	0.1	455.77
23765	22.156	2.0909	0.1	439.82
23766	21.879	2.	0.1	490.78
23767	21.971	2.0909	0.1	474.38
23768	21.695	2.	0.1	526.4
23769	21.787	2.0909	0.1	509.59
23770	21.51	2.	0.1	562.57
23771	21.602	2.0909	0.1	545.38
23772	21.326	2.	0.1	599.25
23773	21.418	2.0909	0.1	581.7
23774	21.141	2.	0.1	636.38
23775	21.234	2.0909	0.1	618.51
23776	20.957	2.	0.1	673.95
23777	21.049	2.0909	0.1	655.77
23778	20.773	2.	0.1	711.93
23779	20.865	2.0909	0.1	693.46
23780	20.588	2.	0.1	750.28
23781	20.68	2.0909	0.1	731.55
23782	20.404	2.	0.1	789.01
23783	20.496	2.0909	0.1	770.02
23784	20.219	2.	0.1	828.08
23785	20.312	2.0909	0.1	808.85
23786	20.035	2.	0.1	867.49
23787	20.127	2.0909	0.1	848.03
23788	19.85	2.	0.1	907.22
23789	19.943	2.0909	0.1	887.54
23790	19.666	2.	0.1	947.26
23791	19.758	2.0909	0.1	927.37
23792	19.482	2.	0.1	987.59
23793	19.574	2.0909	0.1	967.51
23794	19.297	2.	0.1	1028.2
23795	19.389	2.0909	0.1	1008.
23796	19.113	2.	0.1	1069.1
23797	19.205	2.0909	0.1	1048.7
23798	18.928	2.	0.1	1110.3
23799	19.021	2.0909	0.1	1089.7
23800	18.744	2.	0.1	1151.8
23801	18.836	2.0909	0.1	1131.
23802	18.56	2.	0.1	1193.5
23803	18.652	2.0909	0.1	1172.5
23804	18.375	2.	0.1	1235.5
23805	18.467	2.0909	0.1	1214.4
23806	18.191	2.	0.1	1277.7
23807	18.283	2.0909	0.1	1256.4
23808	18.006	2.	0.1	1320.1
23809	18.098	2.0909	0.1	1298.7
23810	17.822	2.	0.1	1362.8
23811	17.914	2.0909	0.1	1341.3
23812	17.637	2.	0.1	1405.8
23813	17.73	2.0909	0.1	1384.1
23814	17.453	2.	0.1	1449.
23815	17.545	2.0909	0.1	1427.2
23816	17.269	2.	0.1	1492.4
23817	17.361	2.0909	0.1	1470.4
23818	17.084	2.	0.1	1536.
23819	17.176	2.0909	0.1	1513.9
23820	16.9	2.	0.1	1579.8
23821	16.992	2.0909	0.1	1557.6
23822	16.715	2.	0.1	1623.9
23823	16.807	2.0909	0.1	1601.6
23824	16.531	2.	0.1	1668.1
23825	16.623	2.0909	0.1	1645.7
23826	16.346	2.	0.1	1712.6
23827	16.439	2.0909	0.1	1690.1
23828	16.162	2.	0.1	1757.3
23829	16.254	2.0909	0.1	1734.6
23830	15.978	2.	0.1	1802.2
23831	16.07	2.0909	0.1	1779.4
23832	15.793	2.	0.1	1847.3
23833	15.885	2.0909	0.1	1824.4
23834	15.609	2.	0.1	1892.5
23835	15.701	2.0909	0.1	1869.5
23836	15.424	2.	0.1	1938.
23837	15.517	2.0909	0.1	1914.9
23838	15.24	2.	0.1	1983.6
23839	15.332	2.0909	0.1	1960.5
23840	15.055	2.	0.1	2029.5
23841	15.148	2.0909	0.1	2006.2
23842	14.871	2.	0.1	2075.5
23843	14.963	2.0909	0.1	2052.1
23844	14.687	2.	0.1	2121.7
23845	14.779	2.0909	0.1	2098.2
23846	14.502	2.	0.1	2168.1
23847	14.594	2.0909	0.1	2144.5
23848	14.318	2.	0.1	2214.6
23849	14.41	2.0909	0.1	2190.9
23850	14.133	2.	0.1	2261.3
23851	14.226	2.0909	0.1	2237.5
23852	13.949	2.	0.1	2308.2
23853	14.041	2.0909	0.1	2284.3
23854	13.764	2.	0.1	2355.2
23855	13.857	2.0909	0.1	2331.2
23856	13.58	2.	0.1	2402.4
23857	13.672	2.0909	0.1	2378.3
23858	13.396	2.	0.1	2449.7
23859	13.488	2.0909	0.1	2425.5
23860	13.211	2.	0.1	2497.2
23861	13.303	2.0909	0.1	2472.9
23862	13.027	2.	0.1	2544.8
23863	13.119	2.0909	0.1	2520.4
23864	12.842	2.	0.1	2592.5
23865	12.935	2.0909	0.1	2568.
23866	12.658	2.	0.1	2640.3
23867	12.75	2.0909	0.1	2615.8
23868	12.474	2.	0.1	2688.3
23869	12.566	2.0909	0.1	2663.7
23870	12.289	2.	0.1	2736.4
23871	12.381	2.0909	0.1	2711.6
23872	12.105	2.	0.1	2784.6
23873	12.197	2.0909	0.1	2759.7
23874	11.92	2.	0.1	2832.9
23875	12.012	2.0909	0.1	2807.9
23876	11.736	2.	0.1	2881.2
23877	11.828	2.0909	0.1	2856.2
23878	11.551	2.	0.1	2929.7
23879	11.644	2.0909	0.1	2904.5
23880	11.367	2.	0.1	2978.2
23881	11.459	2.0909	0.1	2953.
23882	11.183	2.	0.1	3026.8
23883	11.275	2.0909	0.1	3001.5
23884	10.998	2.	0.1	3075.4
23885	11.09	2.0909	0.1	3050.
23886	10.814	2.	0.1	3124.2
23887	10.906	2.0909	0.1	3098.6
23888	10.629	2.	0.1	3172.9
23889	10.721	2.0909	0.1	3147.3
23890	10.445	2.	0.1	3221.7
23891	10.537	2.0909	0.1	3196.
23892	10.26	2.	0.1	3270.6
23893	10.353	2.0909	0.1	3244.7
23894	10.076	2.	0.1	3319.5
23895	10.168	2.0909	0.1	3293.5
23896	9.8916	2.	0.1	3368.5
23897	9.9838	2.0909	0.1	3342.3
23898	9.7072	2.	0.1	3417.6
23899	9.7994	2.0909	0.1	3391.2
23900	9.5227	2.	0.1	3466.8
23901	9.615	2.0909	0.1	3440.2
23902	9.3383	2.	0.1	3516.2
23903	9.4305	2.0909	0.1	3489.4
23904	9.1539	2.	0.1	3565.7
23905	9.2461	2.0909	0.1	3538.7
23906	8.9695	2.	0.1	3615.6
23907	9.0617	2.0909	0.1	3588.2
23908	8.785	2.	0.1	3665.8
23909	8.8773	2.0909	0.1	3638.2
23910	8.6006	2.	0.1	3716.5
23911	8.6928	2.0909	0.1	3688.5
23912	8.4162	2.	0.1	3768.
23913	8.5084	2.0909	0.1	3739.6
23914	8.2318	2.	0.1	3820.4
23915	8.324	2.0909	0.1	3791.5
23916	8.0474	2.	0.1	3874.
23917	8.1396	2.0909	0.1	3844.5
23918	7.8629	2.	0.1	3929.2
23919	7.9551	2.0909	0.1	3899.2
23920	7.6785	2.	0.1	3986.6
23921	7.7707	2.0909	0.1	3955.9
23922	7.4941	2.	0.1	4046.8
23923	7.5863	2.0909	0.1	4015.3
23924	7.3097	2.	0.1	4110.5
23925	7.4019	2.0909	0.1	4078.2
23926	7.1252	2.	0.1	4179.
23927	7.2174	2.0909	0.1	4145.8
23928	6.9408	2.	0.1	4253.5
23929	7.033	2.0909	0.1	4219.3
23930	6.7564	2.	0.1	4335.8
23931	6.8486	2.0909	0.1	4300.7
23932	6.572	2.	0.1	4428.4
23933	6.6642	2.0909	0.1	4392.3
23934	6.3875	2.	0.1	4534.3
23935	6.4798	2.0909	0.1	4497.1
23936	6.2031	2.	0.1	4657.7
23937	6.2953	2.0909	0.1	4619.2
23938	6.0187	2.	0.1	4804.5
23939	6.1109	2.0909	0.1	4764.3
23940	5.8343	2.	0.1	4983.1
23941	5.9265	2.0909	0.1	4940.
23942	5.6498	2.	0.1	5205.9
23943	5.7421	2.0909	0.1	5157.3
23944	5.4654	2.	0.1	5492.5
23945	5.5576	2.0909	0.1	5432.7
23946	5.281	2.	0.1	5874.1
23947	5.3732	2.0909	0.1	5791.8
23948	5.0966	2.	0.1	6407.9
23949	5.1888	2.0909	0.1	6275.6
23950	4.9121	2.	0.1	7200.
23951	5.0044	2.0909	0.1	6962.9
23952	4.7277	2.	0.1	8517.1
23953	4.8199	2.0909	0.1	7989.9
23954	4.5433	2.	0.1	11660
23955	4.6355	2.0909	0.1	9770.
23956	4.4511	2.0909	0.1	13728
23957	4.3589	2.	0.1	20520
23958	23.723	2.1818	0.1	199.54
23959	23.816	2.2727	0.1	193.32
23960	23.908	2.1818	0.1	185.41
23961	23.539	2.1818	0.1	219.21
23962	23.631	2.2727	0.1	210.6
23963	23.355	2.1818	0.1	242.64
23964	23.447	2.2727	0.1	232.21
23965	23.17	2.1818	0.1	268.88
23966	23.262	2.2727	0.1	257.07
23967	22.986	2.1818	0.1	297.26
23968	23.078	2.2727	0.1	284.36
23969	22.801	2.1818	0.1	327.28
23970	22.893	2.2727	0.1	313.51
23971	22.617	2.1818	0.1	358.61
23972	22.709	2.2727	0.1	344.13
23973	22.432	2.1818	0.1	391.02
23974	22.525	2.2727	0.1	375.93
23975	22.248	2.1818	0.1	424.33
23976	22.34	2.2727	0.1	408.71
23977	22.064	2.1818	0.1	458.42
23978	22.156	2.2727	0.1	442.33
23979	21.879	2.1818	0.1	493.19
23980	21.971	2.2727	0.1	476.68
23981	21.695	2.1818	0.1	528.59
23982	21.787	2.2727	0.1	511.68
23983	21.51	2.1818	0.1	564.54
23984	21.602	2.2727	0.1	547.27
23985	21.326	2.1818	0.1	601.
23986	21.418	2.2727	0.1	583.4
23987	21.141	2.1818	0.1	637.94
23988	21.234	2.2727	0.1	620.03
23989	20.957	2.1818	0.1	675.33
23990	21.049	2.2727	0.1	657.12
23991	20.773	2.1818	0.1	713.13
23992	20.865	2.2727	0.1	694.65
23993	20.588	2.1818	0.1	751.34
23994	20.68	2.2727	0.1	732.59
23995	20.404	2.1818	0.1	789.91
23996	20.496	2.2727	0.1	770.92
23997	20.219	2.1818	0.1	828.85
23998	20.312	2.2727	0.1	809.62
23999	20.035	2.1818	0.1	868.14
24000	20.127	2.2727	0.1	848.68
24001	19.85	2.1818	0.1	907.75
24002	19.943	2.2727	0.1	888.09
24003	19.666	2.1818	0.1	947.69
24004	19.758	2.2727	0.1	927.82
24005	19.482	2.1818	0.1	987.93
24006	19.574	2.2727	0.1	967.87
24007	19.297	2.1818	0.1	1028.5
24008	19.389	2.2727	0.1	1008.2
24009	19.113	2.1818	0.1	1069.3
24010	19.205	2.2727	0.1	1048.9
24011	18.928	2.1818	0.1	1110.4
24012	19.021	2.2727	0.1	1089.8
24013	18.744	2.1818	0.1	1151.8
24014	18.836	2.2727	0.1	1131.1
24015	18.56	2.1818	0.1	1193.5
24016	18.652	2.2727	0.1	1172.6
24017	18.375	2.1818	0.1	1235.4
24018	18.467	2.2727	0.1	1214.3
24019	18.191	2.1818	0.1	1277.5
24020	18.283	2.2727	0.1	1256.3
24021	18.006	2.1818	0.1	1320.
24022	18.098	2.2727	0.1	1298.6
24023	17.822	2.1818	0.1	1362.6
24024	17.914	2.2727	0.1	1341.1
24025	17.637	2.1818	0.1	1405.5
24026	17.73	2.2727	0.1	1383.9
24027	17.453	2.1818	0.1	1448.7
24028	17.545	2.2727	0.1	1426.9
24029	17.269	2.1818	0.1	1492.
24030	17.361	2.2727	0.1	1470.1
24031	17.084	2.1818	0.1	1535.6
24032	17.176	2.2727	0.1	1513.6
24033	16.9	2.1818	0.1	1579.4
24034	16.992	2.2727	0.1	1557.3
24035	16.715	2.1818	0.1	1623.5
24036	16.807	2.2727	0.1	1601.2
24037	16.531	2.1818	0.1	1667.7
24038	16.623	2.2727	0.1	1645.3
24039	16.346	2.1818	0.1	1712.1
24040	16.439	2.2727	0.1	1689.7
24041	16.162	2.1818	0.1	1756.8
24042	16.254	2.2727	0.1	1734.2
24043	15.978	2.1818	0.1	1801.7
24044	16.07	2.2727	0.1	1779.
24045	15.793	2.1818	0.1	1846.7
24046	15.885	2.2727	0.1	1823.9
24047	15.609	2.1818	0.1	1892.
24048	15.701	2.2727	0.1	1869.
24049	15.424	2.1818	0.1	1937.4
24050	15.517	2.2727	0.1	1914.4
24051	15.24	2.1818	0.1	1983.
24052	15.332	2.2727	0.1	1959.9
24053	15.055	2.1818	0.1	2028.8
24054	15.148	2.2727	0.1	2005.6
24055	14.871	2.1818	0.1	2074.8
24056	14.963	2.2727	0.1	2051.5
24057	14.687	2.1818	0.1	2121.
24058	14.779	2.2727	0.1	2097.6
24059	14.502	2.1818	0.1	2167.3
24060	14.594	2.2727	0.1	2143.8
24061	14.318	2.1818	0.1	2213.9
24062	14.41	2.2727	0.1	2190.2
24063	14.133	2.1818	0.1	2260.5
24064	14.226	2.2727	0.1	2236.8
24065	13.949	2.1818	0.1	2307.4
24066	14.041	2.2727	0.1	2283.6
24067	13.764	2.1818	0.1	2354.3
24068	13.857	2.2727	0.1	2330.4
24069	13.58	2.1818	0.1	2401.5
24070	13.672	2.2727	0.1	2377.5
24071	13.396	2.1818	0.1	2448.7
24072	13.488	2.2727	0.1	2424.7
24073	13.211	2.1818	0.1	2496.1
24074	13.303	2.2727	0.1	2472.
24075	13.027	2.1818	0.1	2543.7
24076	13.119	2.2727	0.1	2519.4
24077	12.842	2.1818	0.1	2591.3
24078	12.935	2.2727	0.1	2567.
24079	12.658	2.1818	0.1	2639.1
24080	12.75	2.2727	0.1	2614.7
24081	12.474	2.1818	0.1	2687.
24082	12.566	2.2727	0.1	2662.5
24083	12.289	2.1818	0.1	2735.
24084	12.381	2.2727	0.1	2710.4
24085	12.105	2.1818	0.1	2783.1
24086	12.197	2.2727	0.1	2758.4
24087	11.92	2.1818	0.1	2831.3
24088	12.012	2.2727	0.1	2806.5
24089	11.736	2.1818	0.1	2879.5
24090	11.828	2.2727	0.1	2854.7
24091	11.551	2.1818	0.1	2927.9
24092	11.644	2.2727	0.1	2903.
24093	11.367	2.1818	0.1	2976.3
24094	11.459	2.2727	0.1	2951.3
24095	11.183	2.1818	0.1	3024.7
24096	11.275	2.2727	0.1	2999.7
24097	10.998	2.1818	0.1	3073.2
24098	11.09	2.2727	0.1	3048.1
24099	10.814	2.1818	0.1	3121.8
24100	10.906	2.2727	0.1	3096.5
24101	10.629	2.1818	0.1	3170.3
24102	10.721	2.2727	0.1	3145.
24103	10.445	2.1818	0.1	3218.9
24104	10.537	2.2727	0.1	3193.5
24105	10.26	2.1818	0.1	3267.6
24106	10.353	2.2727	0.1	3242.1
24107	10.076	2.1818	0.1	3316.3
24108	10.168	2.2727	0.1	3290.6
24109	9.8916	2.1818	0.1	3365.
24110	9.9838	2.2727	0.1	3339.3
24111	9.7072	2.1818	0.1	3413.9
24112	9.7994	2.2727	0.1	3387.9
24113	9.5227	2.1818	0.1	3462.8
24114	9.615	2.2727	0.1	3436.7
24115	9.3383	2.1818	0.1	3511.9
24116	9.4305	2.2727	0.1	3485.6
24117	9.1539	2.1818	0.1	3561.2
24118	9.2461	2.2727	0.1	3534.7
24119	8.9695	2.1818	0.1	3610.8
24120	9.0617	2.2727	0.1	3584.
24121	8.785	2.1818	0.1	3660.9
24122	8.8773	2.2727	0.1	3633.7
24123	8.6006	2.1818	0.1	3711.6
24124	8.6928	2.2727	0.1	3684.
24125	8.4162	2.1818	0.1	3763.
24126	8.5084	2.2727	0.1	3734.9
24127	8.2318	2.1818	0.1	3815.6
24128	8.324	2.2727	0.1	3786.9
24129	8.0474	2.1818	0.1	3869.7
24130	8.1396	2.2727	0.1	3840.3
24131	7.8629	2.1818	0.1	3925.8
24132	7.9551	2.2727	0.1	3895.5
24133	7.6785	2.1818	0.1	3984.5
24134	7.7707	2.2727	0.1	3953.1
24135	7.4941	2.1818	0.1	4046.7
24136	7.5863	2.2727	0.1	4014.
24137	7.3097	2.1818	0.1	4113.5
24138	7.4019	2.2727	0.1	4079.2
24139	7.1252	2.1818	0.1	4186.2
24140	7.2174	2.2727	0.1	4150.1
24141	6.9408	2.1818	0.1	4266.6
24142	7.033	2.2727	0.1	4228.3
24143	6.7564	2.1818	0.1	4357.2
24144	6.8486	2.2727	0.1	4316.1
24145	6.572	2.1818	0.1	4461.
24146	6.6642	2.2727	0.1	4416.6
24147	6.3875	2.1818	0.1	4582.
24148	6.4798	2.2727	0.1	4533.5
24149	6.2031	2.1818	0.1	4725.6
24150	6.2953	2.2727	0.1	4671.9
24151	6.0187	2.1818	0.1	4899.3
24152	6.1109	2.2727	0.1	4838.8
24153	5.8343	2.1818	0.1	5113.3
24154	5.9265	2.2727	0.1	5043.5
24155	5.6498	2.1818	0.1	5382.5
24156	5.7421	2.2727	0.1	5298.9
24157	5.4654	2.1818	0.1	5729.6
24158	5.5576	2.2727	0.1	5623.9
24159	5.281	2.1818	0.1	6189.9
24160	5.3732	2.2727	0.1	6046.7
24161	5.0966	2.1818	0.1	6826.9
24162	5.1888	2.2727	0.1	6611.9
24163	4.9121	2.1818	0.1	7751.6
24164	5.0044	2.2727	0.1	7396.9
24165	4.7277	2.1818	0.1	9258.3
24166	4.8199	2.2727	0.1	8535.6
24167	4.5433	2.1818	0.1	12008
24168	4.6355	2.2727	0.1	10344
24169	4.4511	2.2727	0.1	13365
24170	4.3589	2.1818	0.1	16216
24171	23.723	2.3636	0.1	203.22
24172	23.816	2.4545	0.1	196.56
24173	23.908	2.3636	0.1	189.22
24174	23.539	2.3636	0.1	222.77
24175	23.631	2.4545	0.1	213.77
24176	23.355	2.3636	0.1	246.04
24177	23.447	2.4545	0.1	235.25
24178	23.17	2.3636	0.1	272.12
24179	23.262	2.4545	0.1	259.97
24180	22.986	2.3636	0.1	300.32
24181	23.078	2.4545	0.1	287.11
24182	22.801	2.3636	0.1	330.16
24183	22.893	2.4545	0.1	316.11
24184	22.617	2.3636	0.1	361.31
24185	22.709	2.4545	0.1	346.58
24186	22.432	2.3636	0.1	393.53
24187	22.525	2.4545	0.1	378.22
24188	22.248	2.3636	0.1	426.66
24189	22.34	2.4545	0.1	410.84
24190	22.064	2.3636	0.1	460.56
24191	22.156	2.4545	0.1	444.3
24192	21.879	2.3636	0.1	495.16
24193	21.971	2.4545	0.1	478.49
24194	21.695	2.3636	0.1	530.37
24195	21.787	2.4545	0.1	513.33
24196	21.51	2.3636	0.1	566.15
24197	21.602	2.4545	0.1	548.77
24198	21.326	2.3636	0.1	602.45
24199	21.418	2.4545	0.1	584.75
24200	21.141	2.3636	0.1	639.24
24201	21.234	2.4545	0.1	621.24
24202	20.957	2.3636	0.1	676.48
24203	21.049	2.4545	0.1	658.2
24204	20.773	2.3636	0.1	714.14
24205	20.865	2.4545	0.1	695.6
24206	20.588	2.3636	0.1	752.22
24207	20.68	2.4545	0.1	733.42
24208	20.404	2.3636	0.1	790.67
24209	20.496	2.4545	0.1	771.64
24210	20.219	2.3636	0.1	829.5
24211	20.312	2.4545	0.1	810.25
24212	20.035	2.3636	0.1	868.69
24213	20.127	2.4545	0.1	849.22
24214	19.85	2.3636	0.1	908.21
24215	19.943	2.4545	0.1	888.53
24216	19.666	2.3636	0.1	948.06
24217	19.758	2.4545	0.1	928.19
24218	19.482	2.3636	0.1	988.22
24219	19.574	2.4545	0.1	968.17
24220	19.297	2.3636	0.1	1028.7
24221	19.389	2.4545	0.1	1008.5
24222	19.113	2.3636	0.1	1069.5
24223	19.205	2.4545	0.1	1049.1
24224	18.928	2.3636	0.1	1110.5
24225	19.021	2.4545	0.1	1089.9
24226	18.744	2.3636	0.1	1151.9
24227	18.836	2.4545	0.1	1131.1
24228	18.56	2.3636	0.1	1193.5
24229	18.652	2.4545	0.1	1172.6
24230	18.375	2.3636	0.1	1235.3
24231	18.467	2.4545	0.1	1214.3
24232	18.191	2.3636	0.1	1277.5
24233	18.283	2.4545	0.1	1256.3
24234	18.006	2.3636	0.1	1319.8
24235	18.098	2.4545	0.1	1298.5
24236	17.822	2.3636	0.1	1362.5
24237	17.914	2.4545	0.1	1341.
24238	17.637	2.3636	0.1	1405.3
24239	17.73	2.4545	0.1	1383.8
24240	17.453	2.3636	0.1	1448.4
24241	17.545	2.4545	0.1	1426.7
24242	17.269	2.3636	0.1	1491.8
24243	17.361	2.4545	0.1	1469.9
24244	17.084	2.3636	0.1	1535.3
24245	17.176	2.4545	0.1	1513.4
24246	16.9	2.3636	0.1	1579.1
24247	16.992	2.4545	0.1	1557.
24248	16.715	2.3636	0.1	1623.1
24249	16.807	2.4545	0.1	1600.9
24250	16.531	2.3636	0.1	1667.4
24251	16.623	2.4545	0.1	1645.
24252	16.346	2.3636	0.1	1711.8
24253	16.439	2.4545	0.1	1689.4
24254	16.162	2.3636	0.1	1756.4
24255	16.254	2.4545	0.1	1733.9
24256	15.978	2.3636	0.1	1801.2
24257	16.07	2.4545	0.1	1778.6
24258	15.793	2.3636	0.1	1846.3
24259	15.885	2.4545	0.1	1823.5
24260	15.609	2.3636	0.1	1891.5
24261	15.701	2.4545	0.1	1868.7
24262	15.424	2.3636	0.1	1936.9
24263	15.517	2.4545	0.1	1914.
24264	15.24	2.3636	0.1	1982.5
24265	15.332	2.4545	0.1	1959.5
24266	15.055	2.3636	0.1	2028.3
24267	15.148	2.4545	0.1	2005.2
24268	14.871	2.3636	0.1	2074.3
24269	14.963	2.4545	0.1	2051.1
24270	14.687	2.3636	0.1	2120.4
24271	14.779	2.4545	0.1	2097.1
24272	14.502	2.3636	0.1	2166.8
24273	14.594	2.4545	0.1	2143.3
24274	14.318	2.3636	0.1	2213.2
24275	14.41	2.4545	0.1	2189.7
24276	14.133	2.3636	0.1	2259.9
24277	14.226	2.4545	0.1	2236.3
24278	13.949	2.3636	0.1	2306.7
24279	14.041	2.4545	0.1	2283.
24280	13.764	2.3636	0.1	2353.6
24281	13.857	2.4545	0.1	2329.8
24282	13.58	2.3636	0.1	2400.7
24283	13.672	2.4545	0.1	2376.8
24284	13.396	2.3636	0.1	2447.9
24285	13.488	2.4545	0.1	2424.
24286	13.211	2.3636	0.1	2495.3
24287	13.303	2.4545	0.1	2471.3
24288	13.027	2.3636	0.1	2542.8
24289	13.119	2.4545	0.1	2518.7
24290	12.842	2.3636	0.1	2590.4
24291	12.935	2.4545	0.1	2566.2
24292	12.658	2.3636	0.1	2638.1
24293	12.75	2.4545	0.1	2613.9
24294	12.474	2.3636	0.1	2686.
24295	12.566	2.4545	0.1	2661.6
24296	12.289	2.3636	0.1	2733.9
24297	12.381	2.4545	0.1	2709.5
24298	12.105	2.3636	0.1	2781.9
24299	12.197	2.4545	0.1	2757.4
24300	11.92	2.3636	0.1	2830.
24301	12.012	2.4545	0.1	2805.5
24302	11.736	2.3636	0.1	2878.2
24303	11.828	2.4545	0.1	2853.6
24304	11.551	2.3636	0.1	2926.4
24305	11.644	2.4545	0.1	2901.7
24306	11.367	2.3636	0.1	2974.7
24307	11.459	2.4545	0.1	2949.9
24308	11.183	2.3636	0.1	3023.
24309	11.275	2.4545	0.1	2998.2
24310	10.998	2.3636	0.1	3071.4
24311	11.09	2.4545	0.1	3046.5
24312	10.814	2.3636	0.1	3119.8
24313	10.906	2.4545	0.1	3094.8
24314	10.629	2.3636	0.1	3168.2
24315	10.721	2.4545	0.1	3143.2
24316	10.445	2.3636	0.1	3216.7
24317	10.537	2.4545	0.1	3191.6
24318	10.26	2.3636	0.1	3265.1
24319	10.353	2.4545	0.1	3240.
24320	10.076	2.3636	0.1	3313.6
24321	10.168	2.4545	0.1	3288.4
24322	9.8916	2.3636	0.1	3362.2
24323	9.9838	2.4545	0.1	3336.8
24324	9.7072	2.3636	0.1	3410.8
24325	9.7994	2.4545	0.1	3385.3
24326	9.5227	2.3636	0.1	3459.5
24327	9.615	2.4545	0.1	3433.9
24328	9.3383	2.3636	0.1	3508.4
24329	9.4305	2.4545	0.1	3482.5
24330	9.1539	2.3636	0.1	3557.5
24331	9.2461	2.4545	0.1	3531.4
24332	8.9695	2.3636	0.1	3606.9
24333	9.0617	2.4545	0.1	3580.6
24334	8.785	2.3636	0.1	3656.8
24335	8.8773	2.4545	0.1	3630.1
24336	8.6006	2.3636	0.1	3707.4
24337	8.6928	2.4545	0.1	3680.2
24338	8.4162	2.3636	0.1	3758.8
24339	8.5084	2.4545	0.1	3731.2
24340	8.2318	2.3636	0.1	3811.6
24341	8.324	2.4545	0.1	3783.2
24342	8.0474	2.3636	0.1	3866.1
24343	8.1396	2.4545	0.1	3836.8
24344	7.8629	2.3636	0.1	3922.8
24345	7.9551	2.4545	0.1	3892.4
24346	7.6785	2.3636	0.1	3982.7
24347	7.7707	2.4545	0.1	3950.8
24348	7.4941	2.3636	0.1	4046.6
24349	7.5863	2.4545	0.1	4012.9
24350	7.3097	2.3636	0.1	4115.8
24351	7.4019	2.4545	0.1	4080.
24352	7.1252	2.3636	0.1	4192.2
24353	7.2174	2.4545	0.1	4153.5
24354	6.9408	2.3636	0.1	4277.8
24355	7.033	2.4545	0.1	4235.5
24356	6.7564	2.3636	0.1	4375.5
24357	6.8486	2.4545	0.1	4328.8
24358	6.572	2.3636	0.1	4489.
24359	6.6642	2.4545	0.1	4436.7
24360	6.3875	2.3636	0.1	4623.4
24361	6.4798	2.4545	0.1	4563.9
24362	6.2031	2.3636	0.1	4785.
24363	6.2953	2.4545	0.1	4716.3
24364	6.0187	2.3636	0.1	4982.7
24365	6.1109	2.4545	0.1	4901.9
24366	5.8343	2.3636	0.1	5228.6
24367	5.9265	2.4545	0.1	5131.6
24368	5.6498	2.3636	0.1	5539.4
24369	5.7421	2.4545	0.1	5419.9
24370	5.4654	2.3636	0.1	5940.
24371	5.5576	2.4545	0.1	5787.5
24372	5.281	2.3636	0.1	6467.6
24373	5.3732	2.4545	0.1	6263.5
24374	5.0966	2.3636	0.1	7182.2
24375	5.1888	2.4545	0.1	6891.2
24376	4.9121	2.3636	0.1	8187.3
24377	5.0044	2.4545	0.1	7735.1
24378	4.7277	2.3636	0.1	9650.2
24379	4.8199	2.4545	0.1	8895.1
24380	4.5433	2.3636	0.1	11778
24381	4.6355	2.4545	0.1	10492
24382	4.4511	2.4545	0.1	12554
24383	4.3589	2.3636	0.1	13995
24384	23.723	2.5455	0.1	205.95
24385	23.816	2.6364	0.1	198.86
24386	23.908	2.5455	0.1	192.05
24387	23.539	2.5455	0.1	225.42
24388	23.631	2.6364	0.1	216.02
24389	23.355	2.5455	0.1	248.58
24390	23.447	2.6364	0.1	237.41
24391	23.17	2.5455	0.1	274.53
24392	23.262	2.6364	0.1	262.03
24393	22.986	2.5455	0.1	302.61
24394	23.078	2.6364	0.1	289.07
24395	22.801	2.5455	0.1	332.32
24396	22.893	2.6364	0.1	317.97
24397	22.617	2.5455	0.1	363.34
24398	22.709	2.6364	0.1	348.33
24399	22.432	2.5455	0.1	395.43
24400	22.525	2.6364	0.1	379.86
24401	22.248	2.5455	0.1	428.42
24402	22.34	2.6364	0.1	412.37
24403	22.064	2.5455	0.1	462.19
24404	22.156	2.6364	0.1	445.71
24405	21.879	2.5455	0.1	496.65
24406	21.971	2.6364	0.1	479.79
24407	21.695	2.5455	0.1	531.73
24408	21.787	2.6364	0.1	514.53
24409	21.51	2.5455	0.1	567.39
24410	21.602	2.6364	0.1	549.86
24411	21.326	2.5455	0.1	603.56
24412	21.418	2.6364	0.1	585.73
24413	21.141	2.5455	0.1	640.23
24414	21.234	2.6364	0.1	622.12
24415	20.957	2.5455	0.1	677.36
24416	21.049	2.6364	0.1	658.98
24417	20.773	2.5455	0.1	714.92
24418	20.865	2.6364	0.1	696.3
24419	20.588	2.5455	0.1	752.9
24420	20.68	2.6364	0.1	734.04
24421	20.404	2.5455	0.1	791.26
24422	20.496	2.6364	0.1	772.18
24423	20.219	2.5455	0.1	830.01
24424	20.312	2.6364	0.1	810.71
24425	20.035	2.5455	0.1	869.12
24426	20.127	2.6364	0.1	849.61
24427	19.85	2.5455	0.1	908.57
24428	19.943	2.6364	0.1	888.87
24429	19.666	2.5455	0.1	948.35
24430	19.758	2.6364	0.1	928.46
24431	19.482	2.5455	0.1	988.46
24432	19.574	2.6364	0.1	968.39
24433	19.297	2.5455	0.1	1028.9
24434	19.389	2.6364	0.1	1008.6
24435	19.113	2.5455	0.1	1069.6
24436	19.205	2.6364	0.1	1049.2
24437	18.928	2.5455	0.1	1110.6
24438	19.021	2.6364	0.1	1090.
24439	18.744	2.5455	0.1	1151.9
24440	18.836	2.6364	0.1	1131.2
24441	18.56	2.5455	0.1	1193.5
24442	18.652	2.6364	0.1	1172.6
24443	18.375	2.5455	0.1	1235.3
24444	18.467	2.6364	0.1	1214.3
24445	18.191	2.5455	0.1	1277.4
24446	18.283	2.6364	0.1	1256.2
24447	18.006	2.5455	0.1	1319.8
24448	18.098	2.6364	0.1	1298.5
24449	17.822	2.5455	0.1	1362.4
24450	17.914	2.6364	0.1	1340.9
24451	17.637	2.5455	0.1	1405.2
24452	17.73	2.6364	0.1	1383.6
24453	17.453	2.5455	0.1	1448.3
24454	17.545	2.6364	0.1	1426.6
24455	17.269	2.5455	0.1	1491.6
24456	17.361	2.6364	0.1	1469.8
24457	17.084	2.5455	0.1	1535.1
24458	17.176	2.6364	0.1	1513.2
24459	16.9	2.5455	0.1	1578.9
24460	16.992	2.6364	0.1	1556.9
24461	16.715	2.5455	0.1	1622.9
24462	16.807	2.6364	0.1	1600.7
24463	16.531	2.5455	0.1	1667.1
24464	16.623	2.6364	0.1	1644.8
24465	16.346	2.5455	0.1	1711.5
24466	16.439	2.6364	0.1	1689.1
24467	16.162	2.5455	0.1	1756.1
24468	16.254	2.6364	0.1	1733.6
24469	15.978	2.5455	0.1	1800.9
24470	16.07	2.6364	0.1	1778.4
24471	15.793	2.5455	0.1	1846.
24472	15.885	2.6364	0.1	1823.3
24473	15.609	2.5455	0.1	1891.2
24474	15.701	2.6364	0.1	1868.4
24475	15.424	2.5455	0.1	1936.6
24476	15.517	2.6364	0.1	1913.7
24477	15.24	2.5455	0.1	1982.2
24478	15.332	2.6364	0.1	1959.2
24479	15.055	2.5455	0.1	2027.9
24480	15.148	2.6364	0.1	2004.9
24481	14.871	2.5455	0.1	2073.9
24482	14.963	2.6364	0.1	2050.7
24483	14.687	2.5455	0.1	2120.
24484	14.779	2.6364	0.1	2096.8
24485	14.502	2.5455	0.1	2166.3
24486	14.594	2.6364	0.1	2143.
24487	14.318	2.5455	0.1	2212.8
24488	14.41	2.6364	0.1	2189.3
24489	14.133	2.5455	0.1	2259.4
24490	14.226	2.6364	0.1	2235.9
24491	13.949	2.5455	0.1	2306.2
24492	14.041	2.6364	0.1	2282.6
24493	13.764	2.5455	0.1	2353.1
24494	13.857	2.6364	0.1	2329.4
24495	13.58	2.5455	0.1	2400.2
24496	13.672	2.6364	0.1	2376.4
24497	13.396	2.5455	0.1	2447.4
24498	13.488	2.6364	0.1	2423.5
24499	13.211	2.5455	0.1	2494.7
24500	13.303	2.6364	0.1	2470.8
24501	13.027	2.5455	0.1	2542.1
24502	13.119	2.6364	0.1	2518.2
24503	12.842	2.5455	0.1	2589.7
24504	12.935	2.6364	0.1	2565.7
24505	12.658	2.5455	0.1	2637.4
24506	12.75	2.6364	0.1	2613.3
24507	12.474	2.5455	0.1	2685.2
24508	12.566	2.6364	0.1	2661.
24509	12.289	2.5455	0.1	2733.1
24510	12.381	2.6364	0.1	2708.8
24511	12.105	2.5455	0.1	2781.
24512	12.197	2.6364	0.1	2756.7
24513	11.92	2.5455	0.1	2829.
24514	12.012	2.6364	0.1	2804.7
24515	11.736	2.5455	0.1	2877.1
24516	11.828	2.6364	0.1	2852.7
24517	11.551	2.5455	0.1	2925.3
24518	11.644	2.6364	0.1	2900.8
24519	11.367	2.5455	0.1	2973.5
24520	11.459	2.6364	0.1	2949.
24521	11.183	2.5455	0.1	3021.7
24522	11.275	2.6364	0.1	2997.2
24523	10.998	2.5455	0.1	3070.
24524	11.09	2.6364	0.1	3045.4
24525	10.814	2.5455	0.1	3118.3
24526	10.906	2.6364	0.1	3093.6
24527	10.629	2.5455	0.1	3166.6
24528	10.721	2.6364	0.1	3141.9
24529	10.445	2.5455	0.1	3214.9
24530	10.537	2.6364	0.1	3190.2
24531	10.26	2.5455	0.1	3263.2
24532	10.353	2.6364	0.1	3238.4
24533	10.076	2.5455	0.1	3311.6
24534	10.168	2.6364	0.1	3286.7
24535	9.8916	2.5455	0.1	3359.9
24536	9.9838	2.6364	0.1	3335.
24537	9.7072	2.5455	0.1	3408.4
24538	9.7994	2.6364	0.1	3383.4
24539	9.5227	2.5455	0.1	3456.9
24540	9.615	2.6364	0.1	3431.8
24541	9.3383	2.5455	0.1	3505.6
24542	9.4305	2.6364	0.1	3480.3
24543	9.1539	2.5455	0.1	3554.5
24544	9.2461	2.6364	0.1	3529.
24545	8.9695	2.5455	0.1	3603.8
24546	9.0617	2.6364	0.1	3578.
24547	8.785	2.5455	0.1	3653.6
24548	8.8773	2.6364	0.1	3627.4
24549	8.6006	2.5455	0.1	3704.
24550	8.6928	2.6364	0.1	3677.5
24551	8.4162	2.5455	0.1	3755.5
24552	8.5084	2.6364	0.1	3728.4
24553	8.2318	2.5455	0.1	3808.4
24554	8.324	2.6364	0.1	3780.4
24555	8.0474	2.5455	0.1	3863.1
24556	8.1396	2.6364	0.1	3834.2
24557	7.8629	2.5455	0.1	3920.4
24558	7.9551	2.6364	0.1	3890.1
24559	7.6785	2.5455	0.1	3981.1
24560	7.7707	2.6364	0.1	3949.1
24561	7.4941	2.5455	0.1	4046.4
24562	7.5863	2.6364	0.1	4012.1
24563	7.3097	2.5455	0.1	4117.6
24564	7.4019	2.6364	0.1	4080.5
24565	7.1252	2.5455	0.1	4196.8
24566	7.2174	2.6364	0.1	4156.
24567	6.9408	2.5455	0.1	4286.5
24568	7.033	2.6364	0.1	4240.9
24569	6.7564	2.5455	0.1	4390.
24570	6.8486	2.6364	0.1	4338.2
24571	6.572	2.5455	0.1	4511.5
24572	6.6642	2.6364	0.1	4451.8
24573	6.3875	2.5455	0.1	4656.7
24574	6.4798	2.6364	0.1	4586.9
24575	6.2031	2.5455	0.1	4833.2
24576	6.2953	2.6364	0.1	4750.
24577	6.0187	2.5455	0.1	5050.8
24578	6.1109	2.6364	0.1	4950.3
24579	5.8343	2.5455	0.1	5323.
24580	5.9265	2.6364	0.1	5199.4
24581	5.6498	2.5455	0.1	5668.1
24582	5.7421	2.6364	0.1	5513.4
24583	5.4654	2.5455	0.1	6111.5
24584	5.5576	2.6364	0.1	5913.5
24585	5.281	2.5455	0.1	6688.6
24586	5.3732	2.6364	0.1	6428.4
24587	5.0966	2.5455	0.1	7448.6
24588	5.1888	2.6364	0.1	7095.8
24589	4.9121	2.5455	0.1	8454.9
24590	5.0044	2.6364	0.1	7961.8
24591	4.7277	2.5455	0.1	9763.5
24592	4.8199	2.6364	0.1	9070.5
24593	4.5433	2.5455	0.1	11297
24594	4.6355	2.6364	0.1	10420
24595	4.4511	2.6364	0.1	11816
24596	4.3589	2.5455	0.1	12651
24597	23.723	2.7273	0.1	207.76
24598	23.816	2.8182	0.1	200.22
24599	23.908	2.7273	0.1	193.92
24600	23.539	2.7273	0.1	227.17
24601	23.631	2.8182	0.1	217.36
24602	23.355	2.7273	0.1	250.26
24603	23.447	2.8182	0.1	238.7
24604	23.17	2.7273	0.1	276.13
24605	23.262	2.8182	0.1	263.26
24606	22.986	2.7273	0.1	304.13
24607	23.078	2.8182	0.1	290.24
24608	22.801	2.7273	0.1	333.76
24609	22.893	2.8182	0.1	319.08
24610	22.617	2.7273	0.1	364.69
24611	22.709	2.8182	0.1	349.37
24612	22.432	2.7273	0.1	396.7
24613	22.525	2.8182	0.1	380.84
24614	22.248	2.7273	0.1	429.6
24615	22.34	2.8182	0.1	413.29
24616	22.064	2.7273	0.1	463.28
24617	22.156	2.8182	0.1	446.57
24618	21.879	2.7273	0.1	497.65
24619	21.971	2.8182	0.1	480.58
24620	21.695	2.7273	0.1	532.65
24621	21.787	2.8182	0.1	515.25
24622	21.51	2.7273	0.1	568.22
24623	21.602	2.8182	0.1	550.52
24624	21.326	2.7273	0.1	604.31
24625	21.418	2.8182	0.1	586.33
24626	21.141	2.7273	0.1	640.9
24627	21.234	2.8182	0.1	622.66
24628	20.957	2.7273	0.1	677.96
24629	21.049	2.8182	0.1	659.46
24630	20.773	2.7273	0.1	715.45
24631	20.865	2.8182	0.1	696.72
24632	20.588	2.7273	0.1	753.36
24633	20.68	2.8182	0.1	734.41
24634	20.404	2.7273	0.1	791.67
24635	20.496	2.8182	0.1	772.51
24636	20.219	2.7273	0.1	830.36
24637	20.312	2.8182	0.1	810.99
24638	20.035	2.7273	0.1	869.41
24639	20.127	2.8182	0.1	849.85
24640	19.85	2.7273	0.1	908.81
24641	19.943	2.8182	0.1	889.07
24642	19.666	2.7273	0.1	948.56
24643	19.758	2.8182	0.1	928.63
24644	19.482	2.7273	0.1	988.62
24645	19.574	2.8182	0.1	968.53
24646	19.297	2.7273	0.1	1029.
24647	19.389	2.8182	0.1	1008.7
24648	19.113	2.7273	0.1	1069.7
24649	19.205	2.8182	0.1	1049.3
24650	18.928	2.7273	0.1	1110.7
24651	19.021	2.8182	0.1	1090.1
24652	18.744	2.7273	0.1	1151.9
24653	18.836	2.8182	0.1	1131.2
24654	18.56	2.7273	0.1	1193.5
24655	18.652	2.8182	0.1	1172.6
24656	18.375	2.7273	0.1	1235.3
24657	18.467	2.8182	0.1	1214.3
24658	18.191	2.7273	0.1	1277.4
24659	18.283	2.8182	0.1	1256.2
24660	18.006	2.7273	0.1	1319.7
24661	18.098	2.8182	0.1	1298.4
24662	17.822	2.7273	0.1	1362.3
24663	17.914	2.8182	0.1	1340.9
24664	17.637	2.7273	0.1	1405.1
24665	17.73	2.8182	0.1	1383.6
24666	17.453	2.7273	0.1	1448.2
24667	17.545	2.8182	0.1	1426.5
24668	17.269	2.7273	0.1	1491.5
24669	17.361	2.8182	0.1	1469.7
24670	17.084	2.7273	0.1	1535.
24671	17.176	2.8182	0.1	1513.1
24672	16.9	2.7273	0.1	1578.8
24673	16.992	2.8182	0.1	1556.8
24674	16.715	2.7273	0.1	1622.7
24675	16.807	2.8182	0.1	1600.6
24676	16.531	2.7273	0.1	1666.9
24677	16.623	2.8182	0.1	1644.7
24678	16.346	2.7273	0.1	1711.3
24679	16.439	2.8182	0.1	1689.
24680	16.162	2.7273	0.1	1755.9
24681	16.254	2.8182	0.1	1733.5
24682	15.978	2.7273	0.1	1800.7
24683	16.07	2.8182	0.1	1778.2
24684	15.793	2.7273	0.1	1845.8
24685	15.885	2.8182	0.1	1823.1
24686	15.609	2.7273	0.1	1891.
24687	15.701	2.8182	0.1	1868.2
24688	15.424	2.7273	0.1	1936.4
24689	15.517	2.8182	0.1	1913.5
24690	15.24	2.7273	0.1	1981.9
24691	15.332	2.8182	0.1	1959.
24692	15.055	2.7273	0.1	2027.7
24693	15.148	2.8182	0.1	2004.7
24694	14.871	2.7273	0.1	2073.6
24695	14.963	2.8182	0.1	2050.5
24696	14.687	2.7273	0.1	2119.7
24697	14.779	2.8182	0.1	2096.6
24698	14.502	2.7273	0.1	2166.
24699	14.594	2.8182	0.1	2142.8
24700	14.318	2.7273	0.1	2212.5
24701	14.41	2.8182	0.1	2189.1
24702	14.133	2.7273	0.1	2259.1
24703	14.226	2.8182	0.1	2235.6
24704	13.949	2.7273	0.1	2305.8
24705	14.041	2.8182	0.1	2282.3
24706	13.764	2.7273	0.1	2352.7
24707	13.857	2.8182	0.1	2329.1
24708	13.58	2.7273	0.1	2399.8
24709	13.672	2.8182	0.1	2376.1
24710	13.396	2.7273	0.1	2447.
24711	13.488	2.8182	0.1	2423.2
24712	13.211	2.7273	0.1	2494.3
24713	13.303	2.8182	0.1	2470.5
24714	13.027	2.7273	0.1	2541.7
24715	13.119	2.8182	0.1	2517.8
24716	12.842	2.7273	0.1	2589.2
24717	12.935	2.8182	0.1	2565.3
24718	12.658	2.7273	0.1	2636.9
24719	12.75	2.8182	0.1	2612.9
24720	12.474	2.7273	0.1	2684.6
24721	12.566	2.8182	0.1	2660.6
24722	12.289	2.7273	0.1	2732.5
24723	12.381	2.8182	0.1	2708.4
24724	12.105	2.7273	0.1	2780.4
24725	12.197	2.8182	0.1	2756.3
24726	11.92	2.7273	0.1	2828.4
24727	12.012	2.8182	0.1	2804.2
24728	11.736	2.7273	0.1	2876.4
24729	11.828	2.8182	0.1	2852.2
24730	11.551	2.7273	0.1	2924.5
24731	11.644	2.8182	0.1	2900.3
24732	11.367	2.7273	0.1	2972.7
24733	11.459	2.8182	0.1	2948.4
24734	11.183	2.7273	0.1	3020.9
24735	11.275	2.8182	0.1	2996.5
24736	10.998	2.7273	0.1	3069.1
24737	11.09	2.8182	0.1	3044.7
24738	10.814	2.7273	0.1	3117.3
24739	10.906	2.8182	0.1	3092.9
24740	10.629	2.7273	0.1	3165.5
24741	10.721	2.8182	0.1	3141.1
24742	10.445	2.7273	0.1	3213.7
24743	10.537	2.8182	0.1	3189.3
24744	10.26	2.7273	0.1	3261.9
24745	10.353	2.8182	0.1	3237.5
24746	10.076	2.7273	0.1	3310.2
24747	10.168	2.8182	0.1	3285.7
24748	9.8916	2.7273	0.1	3358.4
24749	9.9838	2.8182	0.1	3333.9
24750	9.7072	2.7273	0.1	3406.8
24751	9.7994	2.8182	0.1	3382.2
24752	9.5227	2.7273	0.1	3455.2
24753	9.615	2.8182	0.1	3430.5
24754	9.3383	2.7273	0.1	3503.7
24755	9.4305	2.8182	0.1	3478.9
24756	9.1539	2.7273	0.1	3552.5
24757	9.2461	2.8182	0.1	3527.6
24758	8.9695	2.7273	0.1	3601.7
24759	9.0617	2.8182	0.1	3576.5
24760	8.785	2.7273	0.1	3651.4
24761	8.8773	2.8182	0.1	3625.8
24762	8.6006	2.7273	0.1	3701.8
24763	8.6928	2.8182	0.1	3675.8
24764	8.4162	2.7273	0.1	3753.3
24765	8.5084	2.8182	0.1	3726.6
24766	8.2318	2.7273	0.1	3806.2
24767	8.324	2.8182	0.1	3778.7
24768	8.0474	2.7273	0.1	3861.1
24769	8.1396	2.8182	0.1	3832.5
24770	7.8629	2.7273	0.1	3918.8
24771	7.9551	2.8182	0.1	3888.7
24772	7.6785	2.7273	0.1	3980.
24773	7.7707	2.8182	0.1	3948.
24774	7.4941	2.7273	0.1	4046.2
24775	7.5863	2.8182	0.1	4011.5
24776	7.3097	2.7273	0.1	4118.8
24777	7.4019	2.8182	0.1	4080.8
24778	7.1252	2.7273	0.1	4200.1
24779	7.2174	2.8182	0.1	4157.5
24780	6.9408	2.7273	0.1	4292.6
24781	7.033	2.8182	0.1	4244.2
24782	6.7564	2.7273	0.1	4400.1
24783	6.8486	2.8182	0.1	4344.1
24784	6.572	2.7273	0.1	4527.2
24785	6.6642	2.8182	0.1	4461.3
24786	6.3875	2.7273	0.1	4680.2
24787	6.4798	2.8182	0.1	4601.3
24788	6.2031	2.7273	0.1	4867.3
24789	6.2953	2.8182	0.1	4771.3
24790	6.0187	2.7273	0.1	5099.1
24791	6.1109	2.8182	0.1	4980.8
24792	5.8343	2.7273	0.1	5390.3
24793	5.9265	2.8182	0.1	5242.3
24794	5.6498	2.7273	0.1	5759.7
24795	5.7421	2.8182	0.1	5572.5
24796	5.4654	2.7273	0.1	6232.2
24797	5.5576	2.8182	0.1	5992.9
24798	5.281	2.7273	0.1	6839.3
24799	5.3732	2.8182	0.1	6530.9
24800	5.0966	2.7273	0.1	7616.2
24801	5.1888	2.8182	0.1	7218.2
24802	4.9121	2.7273	0.1	8590.6
24803	5.0044	2.8182	0.1	8084.5
24804	4.7277	2.7273	0.1	9746.3
24805	4.8199	2.8182	0.1	9136.8
24806	4.5433	2.7273	0.1	10953
24807	4.6355	2.8182	0.1	10312
24808	4.4511	2.8182	0.1	11408
24809	4.3589	2.7273	0.1	11915
24810	23.723	2.9091	0.1	208.67
24811	23.816	3.	0.1	200.68
24812	23.908	2.9091	0.1	194.85
24813	23.539	2.9091	0.1	228.05
24814	23.631	3.	0.1	217.8
24815	23.355	2.9091	0.1	251.09
24816	23.447	3.	0.1	239.13
24817	23.17	2.9091	0.1	276.93
24818	23.262	3.	0.1	263.67
24819	22.986	2.9091	0.1	304.89
24820	23.078	3.	0.1	290.63
24821	22.801	2.9091	0.1	334.48
24822	22.893	3.	0.1	319.45
24823	22.617	2.9091	0.1	365.37
24824	22.709	3.	0.1	349.72
24825	22.432	2.9091	0.1	397.33
24826	22.525	3.	0.1	381.17
24827	22.248	2.9091	0.1	430.19
24828	22.34	3.	0.1	413.59
24829	22.064	2.9091	0.1	463.83
24830	22.156	3.	0.1	446.85
24831	21.879	2.9091	0.1	498.16
24832	21.971	3.	0.1	480.85
24833	21.695	2.9091	0.1	533.11
24834	21.787	3.	0.1	515.49
24835	21.51	2.9091	0.1	568.64
24836	21.602	3.	0.1	550.74
24837	21.326	2.9091	0.1	604.69
24838	21.418	3.	0.1	586.53
24839	21.141	2.9091	0.1	641.24
24840	21.234	3.	0.1	622.84
24841	20.957	2.9091	0.1	678.26
24842	21.049	3.	0.1	659.62
24843	20.773	2.9091	0.1	715.72
24844	20.865	3.	0.1	696.86
24845	20.588	2.9091	0.1	753.59
24846	20.68	3.	0.1	734.53
24847	20.404	2.9091	0.1	791.87
24848	20.496	3.	0.1	772.62
24849	20.219	2.9091	0.1	830.53
24850	20.312	3.	0.1	811.09
24851	20.035	2.9091	0.1	869.56
24852	20.127	3.	0.1	849.93
24853	19.85	2.9091	0.1	908.94
24854	19.943	3.	0.1	889.14
24855	19.666	2.9091	0.1	948.66
24856	19.758	3.	0.1	928.69
24857	19.482	2.9091	0.1	988.7
24858	19.574	3.	0.1	968.58
24859	19.297	2.9091	0.1	1029.1
24860	19.389	3.	0.1	1008.8
24861	19.113	2.9091	0.1	1069.7
24862	19.205	3.	0.1	1049.3
24863	18.928	2.9091	0.1	1110.7
24864	19.021	3.	0.1	1090.1
24865	18.744	2.9091	0.1	1151.9
24866	18.836	3.	0.1	1131.2
24867	18.56	2.9091	0.1	1193.5
24868	18.652	3.	0.1	1172.6
24869	18.375	2.9091	0.1	1235.3
24870	18.467	3.	0.1	1214.3
24871	18.191	2.9091	0.1	1277.3
24872	18.283	3.	0.1	1256.2
24873	18.006	2.9091	0.1	1319.7
24874	18.098	3.	0.1	1298.4
24875	17.822	2.9091	0.1	1362.2
24876	17.914	3.	0.1	1340.9
24877	17.637	2.9091	0.1	1405.1
24878	17.73	3.	0.1	1383.6
24879	17.453	2.9091	0.1	1448.1
24880	17.545	3.	0.1	1426.5
24881	17.269	2.9091	0.1	1491.4
24882	17.361	3.	0.1	1469.7
24883	17.084	2.9091	0.1	1534.9
24884	17.176	3.	0.1	1513.1
24885	16.9	2.9091	0.1	1578.7
24886	16.992	3.	0.1	1556.7
24887	16.715	2.9091	0.1	1622.7
24888	16.807	3.	0.1	1600.6
24889	16.531	2.9091	0.1	1666.8
24890	16.623	3.	0.1	1644.7
24891	16.346	2.9091	0.1	1711.2
24892	16.439	3.	0.1	1689.
24893	16.162	2.9091	0.1	1755.8
24894	16.254	3.	0.1	1733.5
24895	15.978	2.9091	0.1	1800.6
24896	16.07	3.	0.1	1778.2
24897	15.793	2.9091	0.1	1845.6
24898	15.885	3.	0.1	1823.1
24899	15.609	2.9091	0.1	1890.8
24900	15.701	3.	0.1	1868.2
24901	15.424	2.9091	0.1	1936.2
24902	15.517	3.	0.1	1913.5
24903	15.24	2.9091	0.1	1981.8
24904	15.332	3.	0.1	1959.
24905	15.055	2.9091	0.1	2027.6
24906	15.148	3.	0.1	2004.6
24907	14.871	2.9091	0.1	2073.5
24908	14.963	3.	0.1	2050.5
24909	14.687	2.9091	0.1	2119.6
24910	14.779	3.	0.1	2096.5
24911	14.502	2.9091	0.1	2165.9
24912	14.594	3.	0.1	2142.7
24913	14.318	2.9091	0.1	2212.3
24914	14.41	3.	0.1	2189.
24915	14.133	2.9091	0.1	2258.9
24916	14.226	3.	0.1	2235.6
24917	13.949	2.9091	0.1	2305.7
24918	14.041	3.	0.1	2282.2
24919	13.764	2.9091	0.1	2352.6
24920	13.857	3.	0.1	2329.1
24921	13.58	2.9091	0.1	2399.6
24922	13.672	3.	0.1	2376.
24923	13.396	2.9091	0.1	2446.8
24924	13.488	3.	0.1	2423.1
24925	13.211	2.9091	0.1	2494.1
24926	13.303	3.	0.1	2470.4
24927	13.027	2.9091	0.1	2541.5
24928	13.119	3.	0.1	2517.7
24929	12.842	2.9091	0.1	2589.
24930	12.935	3.	0.1	2565.2
24931	12.658	2.9091	0.1	2636.6
24932	12.75	3.	0.1	2612.8
24933	12.474	2.9091	0.1	2684.4
24934	12.566	3.	0.1	2660.5
24935	12.289	2.9091	0.1	2732.2
24936	12.381	3.	0.1	2708.3
24937	12.105	2.9091	0.1	2780.1
24938	12.197	3.	0.1	2756.1
24939	11.92	2.9091	0.1	2828.1
24940	12.012	3.	0.1	2804.1
24941	11.736	2.9091	0.1	2876.1
24942	11.828	3.	0.1	2852.1
24943	11.551	2.9091	0.1	2924.2
24944	11.644	3.	0.1	2900.1
24945	11.367	2.9091	0.1	2972.3
24946	11.459	3.	0.1	2948.2
24947	11.183	2.9091	0.1	3020.4
24948	11.275	3.	0.1	2996.3
24949	10.998	2.9091	0.1	3068.6
24950	11.09	3.	0.1	3044.5
24951	10.814	2.9091	0.1	3116.7
24952	10.906	3.	0.1	3092.7
24953	10.629	2.9091	0.1	3164.9
24954	10.721	3.	0.1	3140.8
24955	10.445	2.9091	0.1	3213.1
24956	10.537	3.	0.1	3189.
24957	10.26	2.9091	0.1	3261.3
24958	10.353	3.	0.1	3237.2
24959	10.076	2.9091	0.1	3309.5
24960	10.168	3.	0.1	3285.4
24961	9.8916	2.9091	0.1	3357.7
24962	9.9838	3.	0.1	3333.6
24963	9.7072	2.9091	0.1	3405.9
24964	9.7994	3.	0.1	3381.8
24965	9.5227	2.9091	0.1	3454.3
24966	9.615	3.	0.1	3430.1
24967	9.3383	2.9091	0.1	3502.8
24968	9.4305	3.	0.1	3478.5
24969	9.1539	2.9091	0.1	3551.5
24970	9.2461	3.	0.1	3527.1
24971	8.9695	2.9091	0.1	3600.6
24972	9.0617	3.	0.1	3575.9
24973	8.785	2.9091	0.1	3650.2
24974	8.8773	3.	0.1	3625.3
24975	8.6006	2.9091	0.1	3700.6
24976	8.6928	3.	0.1	3675.2
24977	8.4162	2.9091	0.1	3752.1
24978	8.5084	3.	0.1	3726.
24979	8.2318	2.9091	0.1	3805.1
24980	8.324	3.	0.1	3778.1
24981	8.0474	2.9091	0.1	3860.1
24982	8.1396	3.	0.1	3832.
24983	7.8629	2.9091	0.1	3917.9
24984	7.9551	3.	0.1	3888.2
24985	7.6785	2.9091	0.1	3979.5
24986	7.7707	3.	0.1	3947.6
24987	7.4941	2.9091	0.1	4046.1
24988	7.5863	3.	0.1	4011.4
24989	7.3097	2.9091	0.1	4119.4
24990	7.4019	3.	0.1	4080.9
24991	7.1252	2.9091	0.1	4201.7
24992	7.2174	3.	0.1	4158.
24993	6.9408	2.9091	0.1	4295.7
24994	7.033	3.	0.1	4245.4
24995	6.7564	2.9091	0.1	4405.3
24996	6.8486	3.	0.1	4346.1
24997	6.572	2.9091	0.1	4535.4
24998	6.6642	3.	0.1	4464.5
24999	6.3875	2.9091	0.1	4692.4
25000	6.4798	3.	0.1	4606.2
25001	6.2031	2.9091	0.1	4885.
25002	6.2953	3.	0.1	4778.5
25003	6.0187	2.9091	0.1	5124.3
25004	6.1109	3.	0.1	4991.2
25005	5.8343	2.9091	0.1	5425.4
25006	5.9265	3.	0.1	5257.
25007	5.6498	2.9091	0.1	5807.3
25008	5.7421	3.	0.1	5592.8
25009	5.4654	2.9091	0.1	6294.4
25010	5.5576	3.	0.1	6020.1
25011	5.281	2.9091	0.1	6914.8
25012	5.3732	3.	0.1	6565.5
25013	5.0966	2.9091	0.1	7695.
25014	5.1888	3.	0.1	7258.6
25015	4.9121	2.9091	0.1	8643.5
25016	5.0044	3.	0.1	8122.6
25017	4.7277	2.9091	0.1	9717.1
25018	4.8199	3.	0.1	9152.1
25019	4.5433	2.9091	0.1	10777
25020	4.6355	3.	0.1	10268
25021	4.4511	3.	0.1	11276
25022	4.3589	2.9091	0.1	11585
25023	23.723	3.0909	0.1	208.67
25024	23.816	3.1818	0.1	200.22
25025	23.908	3.0909	0.1	194.85
25026	23.539	3.0909	0.1	228.05
25027	23.631	3.1818	0.1	217.36
25028	23.355	3.0909	0.1	251.09
25029	23.447	3.1818	0.1	238.7
25030	23.17	3.0909	0.1	276.93
25031	23.262	3.1818	0.1	263.26
25032	22.986	3.0909	0.1	304.89
25033	23.078	3.1818	0.1	290.24
25034	22.801	3.0909	0.1	334.48
25035	22.893	3.1818	0.1	319.08
25036	22.617	3.0909	0.1	365.37
25037	22.709	3.1818	0.1	349.37
25038	22.432	3.0909	0.1	397.33
25039	22.525	3.1818	0.1	380.84
25040	22.248	3.0909	0.1	430.19
25041	22.34	3.1818	0.1	413.29
25042	22.064	3.0909	0.1	463.83
25043	22.156	3.1818	0.1	446.57
25044	21.879	3.0909	0.1	498.16
25045	21.971	3.1818	0.1	480.58
25046	21.695	3.0909	0.1	533.11
25047	21.787	3.1818	0.1	515.25
25048	21.51	3.0909	0.1	568.64
25049	21.602	3.1818	0.1	550.52
25050	21.326	3.0909	0.1	604.69
25051	21.418	3.1818	0.1	586.33
25052	21.141	3.0909	0.1	641.24
25053	21.234	3.1818	0.1	622.66
25054	20.957	3.0909	0.1	678.26
25055	21.049	3.1818	0.1	659.46
25056	20.773	3.0909	0.1	715.72
25057	20.865	3.1818	0.1	696.72
25058	20.588	3.0909	0.1	753.59
25059	20.68	3.1818	0.1	734.41
25060	20.404	3.0909	0.1	791.87
25061	20.496	3.1818	0.1	772.51
25062	20.219	3.0909	0.1	830.53
25063	20.312	3.1818	0.1	810.99
25064	20.035	3.0909	0.1	869.56
25065	20.127	3.1818	0.1	849.85
25066	19.85	3.0909	0.1	908.94
25067	19.943	3.1818	0.1	889.07
25068	19.666	3.0909	0.1	948.66
25069	19.758	3.1818	0.1	928.63
25070	19.482	3.0909	0.1	988.7
25071	19.574	3.1818	0.1	968.53
25072	19.297	3.0909	0.1	1029.1
25073	19.389	3.1818	0.1	1008.7
25074	19.113	3.0909	0.1	1069.7
25075	19.205	3.1818	0.1	1049.3
25076	18.928	3.0909	0.1	1110.7
25077	19.021	3.1818	0.1	1090.1
25078	18.744	3.0909	0.1	1151.9
25079	18.836	3.1818	0.1	1131.2
25080	18.56	3.0909	0.1	1193.5
25081	18.652	3.1818	0.1	1172.6
25082	18.375	3.0909	0.1	1235.3
25083	18.467	3.1818	0.1	1214.3
25084	18.191	3.0909	0.1	1277.3
25085	18.283	3.1818	0.1	1256.2
25086	18.006	3.0909	0.1	1319.7
25087	18.098	3.1818	0.1	1298.4
25088	17.822	3.0909	0.1	1362.2
25089	17.914	3.1818	0.1	1340.9
25090	17.637	3.0909	0.1	1405.1
25091	17.73	3.1818	0.1	1383.6
25092	17.453	3.0909	0.1	1448.1
25093	17.545	3.1818	0.1	1426.5
25094	17.269	3.0909	0.1	1491.4
25095	17.361	3.1818	0.1	1469.7
25096	17.084	3.0909	0.1	1534.9
25097	17.176	3.1818	0.1	1513.1
25098	16.9	3.0909	0.1	1578.7
25099	16.992	3.1818	0.1	1556.8
25100	16.715	3.0909	0.1	1622.7
25101	16.807	3.1818	0.1	1600.6
25102	16.531	3.0909	0.1	1666.8
25103	16.623	3.1818	0.1	1644.7
25104	16.346	3.0909	0.1	1711.2
25105	16.439	3.1818	0.1	1689.
25106	16.162	3.0909	0.1	1755.8
25107	16.254	3.1818	0.1	1733.5
25108	15.978	3.0909	0.1	1800.6
25109	16.07	3.1818	0.1	1778.2
25110	15.793	3.0909	0.1	1845.6
25111	15.885	3.1818	0.1	1823.1
25112	15.609	3.0909	0.1	1890.8
25113	15.701	3.1818	0.1	1868.2
25114	15.424	3.0909	0.1	1936.2
25115	15.517	3.1818	0.1	1913.5
25116	15.24	3.0909	0.1	1981.8
25117	15.332	3.1818	0.1	1959.
25118	15.055	3.0909	0.1	2027.6
25119	15.148	3.1818	0.1	2004.7
25120	14.871	3.0909	0.1	2073.5
25121	14.963	3.1818	0.1	2050.5
25122	14.687	3.0909	0.1	2119.6
25123	14.779	3.1818	0.1	2096.6
25124	14.502	3.0909	0.1	2165.9
25125	14.594	3.1818	0.1	2142.8
25126	14.318	3.0909	0.1	2212.3
25127	14.41	3.1818	0.1	2189.1
25128	14.133	3.0909	0.1	2258.9
25129	14.226	3.1818	0.1	2235.6
25130	13.949	3.0909	0.1	2305.7
25131	14.041	3.1818	0.1	2282.3
25132	13.764	3.0909	0.1	2352.6
25133	13.857	3.1818	0.1	2329.1
25134	13.58	3.0909	0.1	2399.6
25135	13.672	3.1818	0.1	2376.1
25136	13.396	3.0909	0.1	2446.8
25137	13.488	3.1818	0.1	2423.2
25138	13.211	3.0909	0.1	2494.1
25139	13.303	3.1818	0.1	2470.5
25140	13.027	3.0909	0.1	2541.5
25141	13.119	3.1818	0.1	2517.8
25142	12.842	3.0909	0.1	2589.
25143	12.935	3.1818	0.1	2565.3
25144	12.658	3.0909	0.1	2636.6
25145	12.75	3.1818	0.1	2612.9
25146	12.474	3.0909	0.1	2684.4
25147	12.566	3.1818	0.1	2660.6
25148	12.289	3.0909	0.1	2732.2
25149	12.381	3.1818	0.1	2708.4
25150	12.105	3.0909	0.1	2780.1
25151	12.197	3.1818	0.1	2756.3
25152	11.92	3.0909	0.1	2828.1
25153	12.012	3.1818	0.1	2804.2
25154	11.736	3.0909	0.1	2876.1
25155	11.828	3.1818	0.1	2852.2
25156	11.551	3.0909	0.1	2924.2
25157	11.644	3.1818	0.1	2900.3
25158	11.367	3.0909	0.1	2972.3
25159	11.459	3.1818	0.1	2948.4
25160	11.183	3.0909	0.1	3020.4
25161	11.275	3.1818	0.1	2996.5
25162	10.998	3.0909	0.1	3068.6
25163	11.09	3.1818	0.1	3044.7
25164	10.814	3.0909	0.1	3116.7
25165	10.906	3.1818	0.1	3092.9
25166	10.629	3.0909	0.1	3164.9
25167	10.721	3.1818	0.1	3141.1
25168	10.445	3.0909	0.1	3213.1
25169	10.537	3.1818	0.1	3189.3
25170	10.26	3.0909	0.1	3261.3
25171	10.353	3.1818	0.1	3237.5
25172	10.076	3.0909	0.1	3309.5
25173	10.168	3.1818	0.1	3285.7
25174	9.8916	3.0909	0.1	3357.7
25175	9.9838	3.1818	0.1	3333.9
25176	9.7072	3.0909	0.1	3405.9
25177	9.7994	3.1818	0.1	3382.2
25178	9.5227	3.0909	0.1	3454.3
25179	9.615	3.1818	0.1	3430.5
25180	9.3383	3.0909	0.1	3502.8
25181	9.4305	3.1818	0.1	3478.9
25182	9.1539	3.0909	0.1	3551.5
25183	9.2461	3.1818	0.1	3527.6
25184	8.9695	3.0909	0.1	3600.6
25185	9.0617	3.1818	0.1	3576.5
25186	8.785	3.0909	0.1	3650.2
25187	8.8773	3.1818	0.1	3625.8
25188	8.6006	3.0909	0.1	3700.6
25189	8.6928	3.1818	0.1	3675.8
25190	8.4162	3.0909	0.1	3752.1
25191	8.5084	3.1818	0.1	3726.6
25192	8.2318	3.0909	0.1	3805.1
25193	8.324	3.1818	0.1	3778.7
25194	8.0474	3.0909	0.1	3860.1
25195	8.1396	3.1818	0.1	3832.5
25196	7.8629	3.0909	0.1	3917.9
25197	7.9551	3.1818	0.1	3888.7
25198	7.6785	3.0909	0.1	3979.5
25199	7.7707	3.1818	0.1	3948.
25200	7.4941	3.0909	0.1	4046.1
25201	7.5863	3.1818	0.1	4011.5
25202	7.3097	3.0909	0.1	4119.4
25203	7.4019	3.1818	0.1	4080.8
25204	7.1252	3.0909	0.1	4201.7
25205	7.2174	3.1818	0.1	4157.5
25206	6.9408	3.0909	0.1	4295.7
25207	7.033	3.1818	0.1	4244.2
25208	6.7564	3.0909	0.1	4405.3
25209	6.8486	3.1818	0.1	4344.1
25210	6.572	3.0909	0.1	4535.4
25211	6.6642	3.1818	0.1	4461.3
25212	6.3875	3.0909	0.1	4692.4
25213	6.4798	3.1818	0.1	4601.3
25214	6.2031	3.0909	0.1	4885.
25215	6.2953	3.1818	0.1	4771.3
25216	6.0187	3.0909	0.1	5124.3
25217	6.1109	3.1818	0.1	4980.8
25218	5.8343	3.0909	0.1	5425.4
25219	5.9265	3.1818	0.1	5242.3
25220	5.6498	3.0909	0.1	5807.3
25221	5.7421	3.1818	0.1	5572.5
25222	5.4654	3.0909	0.1	6294.4
25223	5.5576	3.1818	0.1	5992.9
25224	5.281	3.0909	0.1	6914.8
25225	5.3732	3.1818	0.1	6530.9
25226	5.0966	3.0909	0.1	7695.
25227	5.1888	3.1818	0.1	7218.2
25228	4.9121	3.0909	0.1	8643.5
25229	5.0044	3.1818	0.1	8084.5
25230	4.7277	3.0909	0.1	9717.1
25231	4.8199	3.1818	0.1	9136.8
25232	4.5433	3.0909	0.1	10777
25233	4.6355	3.1818	0.1	10312
25234	4.4511	3.1818	0.1	11408
25235	4.3589	3.0909	0.1	11585
25236	23.723	3.2727	0.1	207.76
25237	23.816	3.3636	0.1	198.86
25238	23.908	3.2727	0.1	193.92
25239	23.539	3.2727	0.1	227.17
25240	23.631	3.3636	0.1	216.02
25241	23.355	3.2727	0.1	250.26
25242	23.447	3.3636	0.1	237.41
25243	23.17	3.2727	0.1	276.13
25244	23.262	3.3636	0.1	262.03
25245	22.986	3.2727	0.1	304.13
25246	23.078	3.3636	0.1	289.07
25247	22.801	3.2727	0.1	333.76
25248	22.893	3.3636	0.1	317.97
25249	22.617	3.2727	0.1	364.69
25250	22.709	3.3636	0.1	348.33
25251	22.432	3.2727	0.1	396.7
25252	22.525	3.3636	0.1	379.86
25253	22.248	3.2727	0.1	429.6
25254	22.34	3.3636	0.1	412.37
25255	22.064	3.2727	0.1	463.28
25256	22.156	3.3636	0.1	445.71
25257	21.879	3.2727	0.1	497.65
25258	21.971	3.3636	0.1	479.79
25259	21.695	3.2727	0.1	532.65
25260	21.787	3.3636	0.1	514.53
25261	21.51	3.2727	0.1	568.22
25262	21.602	3.3636	0.1	549.86
25263	21.326	3.2727	0.1	604.31
25264	21.418	3.3636	0.1	585.73
25265	21.141	3.2727	0.1	640.9
25266	21.234	3.3636	0.1	622.12
25267	20.957	3.2727	0.1	677.96
25268	21.049	3.3636	0.1	658.98
25269	20.773	3.2727	0.1	715.45
25270	20.865	3.3636	0.1	696.3
25271	20.588	3.2727	0.1	753.36
25272	20.68	3.3636	0.1	734.04
25273	20.404	3.2727	0.1	791.67
25274	20.496	3.3636	0.1	772.18
25275	20.219	3.2727	0.1	830.36
25276	20.312	3.3636	0.1	810.71
25277	20.035	3.2727	0.1	869.41
25278	20.127	3.3636	0.1	849.61
25279	19.85	3.2727	0.1	908.81
25280	19.943	3.3636	0.1	888.87
25281	19.666	3.2727	0.1	948.56
25282	19.758	3.3636	0.1	928.46
25283	19.482	3.2727	0.1	988.62
25284	19.574	3.3636	0.1	968.39
25285	19.297	3.2727	0.1	1029.
25286	19.389	3.3636	0.1	1008.6
25287	19.113	3.2727	0.1	1069.7
25288	19.205	3.3636	0.1	1049.2
25289	18.928	3.2727	0.1	1110.7
25290	19.021	3.3636	0.1	1090.
25291	18.744	3.2727	0.1	1151.9
25292	18.836	3.3636	0.1	1131.2
25293	18.56	3.2727	0.1	1193.5
25294	18.652	3.3636	0.1	1172.6
25295	18.375	3.2727	0.1	1235.3
25296	18.467	3.3636	0.1	1214.3
25297	18.191	3.2727	0.1	1277.4
25298	18.283	3.3636	0.1	1256.2
25299	18.006	3.2727	0.1	1319.7
25300	18.098	3.3636	0.1	1298.5
25301	17.822	3.2727	0.1	1362.3
25302	17.914	3.3636	0.1	1340.9
25303	17.637	3.2727	0.1	1405.1
25304	17.73	3.3636	0.1	1383.6
25305	17.453	3.2727	0.1	1448.2
25306	17.545	3.3636	0.1	1426.6
25307	17.269	3.2727	0.1	1491.5
25308	17.361	3.3636	0.1	1469.8
25309	17.084	3.2727	0.1	1535.
25310	17.176	3.3636	0.1	1513.2
25311	16.9	3.2727	0.1	1578.8
25312	16.992	3.3636	0.1	1556.9
25313	16.715	3.2727	0.1	1622.7
25314	16.807	3.3636	0.1	1600.7
25315	16.531	3.2727	0.1	1666.9
25316	16.623	3.3636	0.1	1644.8
25317	16.346	3.2727	0.1	1711.3
25318	16.439	3.3636	0.1	1689.1
25319	16.162	3.2727	0.1	1755.9
25320	16.254	3.3636	0.1	1733.6
25321	15.978	3.2727	0.1	1800.7
25322	16.07	3.3636	0.1	1778.4
25323	15.793	3.2727	0.1	1845.8
25324	15.885	3.3636	0.1	1823.3
25325	15.609	3.2727	0.1	1891.
25326	15.701	3.3636	0.1	1868.4
25327	15.424	3.2727	0.1	1936.4
25328	15.517	3.3636	0.1	1913.7
25329	15.24	3.2727	0.1	1981.9
25330	15.332	3.3636	0.1	1959.2
25331	15.055	3.2727	0.1	2027.7
25332	15.148	3.3636	0.1	2004.9
25333	14.871	3.2727	0.1	2073.6
25334	14.963	3.3636	0.1	2050.7
25335	14.687	3.2727	0.1	2119.7
25336	14.779	3.3636	0.1	2096.8
25337	14.502	3.2727	0.1	2166.
25338	14.594	3.3636	0.1	2143.
25339	14.318	3.2727	0.1	2212.5
25340	14.41	3.3636	0.1	2189.3
25341	14.133	3.2727	0.1	2259.1
25342	14.226	3.3636	0.1	2235.9
25343	13.949	3.2727	0.1	2305.8
25344	14.041	3.3636	0.1	2282.6
25345	13.764	3.2727	0.1	2352.7
25346	13.857	3.3636	0.1	2329.4
25347	13.58	3.2727	0.1	2399.8
25348	13.672	3.3636	0.1	2376.4
25349	13.396	3.2727	0.1	2447.
25350	13.488	3.3636	0.1	2423.5
25351	13.211	3.2727	0.1	2494.3
25352	13.303	3.3636	0.1	2470.8
25353	13.027	3.2727	0.1	2541.7
25354	13.119	3.3636	0.1	2518.2
25355	12.842	3.2727	0.1	2589.2
25356	12.935	3.3636	0.1	2565.7
25357	12.658	3.2727	0.1	2636.9
25358	12.75	3.3636	0.1	2613.3
25359	12.474	3.2727	0.1	2684.6
25360	12.566	3.3636	0.1	2661.
25361	12.289	3.2727	0.1	2732.5
25362	12.381	3.3636	0.1	2708.8
25363	12.105	3.2727	0.1	2780.4
25364	12.197	3.3636	0.1	2756.7
25365	11.92	3.2727	0.1	2828.4
25366	12.012	3.3636	0.1	2804.7
25367	11.736	3.2727	0.1	2876.4
25368	11.828	3.3636	0.1	2852.7
25369	11.551	3.2727	0.1	2924.5
25370	11.644	3.3636	0.1	2900.8
25371	11.367	3.2727	0.1	2972.7
25372	11.459	3.3636	0.1	2949.
25373	11.183	3.2727	0.1	3020.9
25374	11.275	3.3636	0.1	2997.2
25375	10.998	3.2727	0.1	3069.1
25376	11.09	3.3636	0.1	3045.4
25377	10.814	3.2727	0.1	3117.3
25378	10.906	3.3636	0.1	3093.6
25379	10.629	3.2727	0.1	3165.5
25380	10.721	3.3636	0.1	3141.9
25381	10.445	3.2727	0.1	3213.7
25382	10.537	3.3636	0.1	3190.2
25383	10.26	3.2727	0.1	3261.9
25384	10.353	3.3636	0.1	3238.4
25385	10.076	3.2727	0.1	3310.2
25386	10.168	3.3636	0.1	3286.7
25387	9.8916	3.2727	0.1	3358.4
25388	9.9838	3.3636	0.1	3335.
25389	9.7072	3.2727	0.1	3406.8
25390	9.7994	3.3636	0.1	3383.4
25391	9.5227	3.2727	0.1	3455.2
25392	9.615	3.3636	0.1	3431.8
25393	9.3383	3.2727	0.1	3503.7
25394	9.4305	3.3636	0.1	3480.3
25395	9.1539	3.2727	0.1	3552.5
25396	9.2461	3.3636	0.1	3529.
25397	8.9695	3.2727	0.1	3601.7
25398	9.0617	3.3636	0.1	3578.
25399	8.785	3.2727	0.1	3651.4
25400	8.8773	3.3636	0.1	3627.4
25401	8.6006	3.2727	0.1	3701.8
25402	8.6928	3.3636	0.1	3677.5
25403	8.4162	3.2727	0.1	3753.3
25404	8.5084	3.3636	0.1	3728.4
25405	8.2318	3.2727	0.1	3806.2
25406	8.324	3.3636	0.1	3780.4
25407	8.0474	3.2727	0.1	3861.1
25408	8.1396	3.3636	0.1	3834.2
25409	7.8629	3.2727	0.1	3918.8
25410	7.9551	3.3636	0.1	3890.1
25411	7.6785	3.2727	0.1	3980.
25412	7.7707	3.3636	0.1	3949.1
25413	7.4941	3.2727	0.1	4046.2
25414	7.5863	3.3636	0.1	4012.1
25415	7.3097	3.2727	0.1	4118.8
25416	7.4019	3.3636	0.1	4080.5
25417	7.1252	3.2727	0.1	4200.1
25418	7.2174	3.3636	0.1	4156.
25419	6.9408	3.2727	0.1	4292.6
25420	7.033	3.3636	0.1	4240.9
25421	6.7564	3.2727	0.1	4400.1
25422	6.8486	3.3636	0.1	4338.2
25423	6.572	3.2727	0.1	4527.2
25424	6.6642	3.3636	0.1	4451.8
25425	6.3875	3.2727	0.1	4680.2
25426	6.4798	3.3636	0.1	4586.9
25427	6.2031	3.2727	0.1	4867.3
25428	6.2953	3.3636	0.1	4750.
25429	6.0187	3.2727	0.1	5099.1
25430	6.1109	3.3636	0.1	4950.3
25431	5.8343	3.2727	0.1	5390.3
25432	5.9265	3.3636	0.1	5199.4
25433	5.6498	3.2727	0.1	5759.7
25434	5.7421	3.3636	0.1	5513.4
25435	5.4654	3.2727	0.1	6232.2
25436	5.5576	3.3636	0.1	5913.5
25437	5.281	3.2727	0.1	6839.3
25438	5.3732	3.3636	0.1	6428.4
25439	5.0966	3.2727	0.1	7616.2
25440	5.1888	3.3636	0.1	7095.8
25441	4.9121	3.2727	0.1	8590.6
25442	5.0044	3.3636	0.1	7961.8
25443	4.7277	3.2727	0.1	9746.3
25444	4.8199	3.3636	0.1	9070.5
25445	4.5433	3.2727	0.1	10953
25446	4.6355	3.3636	0.1	10420
25447	4.4511	3.3636	0.1	11816
25448	4.3589	3.2727	0.1	11915
25449	23.723	3.4545	0.1	205.95
25450	23.816	3.5455	0.1	196.56
25451	23.908	3.4545	0.1	192.05
25452	23.539	3.4545	0.1	225.42
25453	23.631	3.5455	0.1	213.77
25454	23.355	3.4545	0.1	248.58
25455	23.447	3.5455	0.1	235.25
25456	23.17	3.4545	0.1	274.53
25457	23.262	3.5455	0.1	259.97
25458	22.986	3.4545	0.1	302.61
25459	23.078	3.5455	0.1	287.11
25460	22.801	3.4545	0.1	332.32
25461	22.893	3.5455	0.1	316.11
25462	22.617	3.4545	0.1	363.34
25463	22.709	3.5455	0.1	346.58
25464	22.432	3.4545	0.1	395.43
25465	22.525	3.5455	0.1	378.22
25466	22.248	3.4545	0.1	428.42
25467	22.34	3.5455	0.1	410.84
25468	22.064	3.4545	0.1	462.19
25469	22.156	3.5455	0.1	444.3
25470	21.879	3.4545	0.1	496.65
25471	21.971	3.5455	0.1	478.49
25472	21.695	3.4545	0.1	531.73
25473	21.787	3.5455	0.1	513.33
25474	21.51	3.4545	0.1	567.39
25475	21.602	3.5455	0.1	548.77
25476	21.326	3.4545	0.1	603.56
25477	21.418	3.5455	0.1	584.75
25478	21.141	3.4545	0.1	640.23
25479	21.234	3.5455	0.1	621.24
25480	20.957	3.4545	0.1	677.36
25481	21.049	3.5455	0.1	658.2
25482	20.773	3.4545	0.1	714.92
25483	20.865	3.5455	0.1	695.6
25484	20.588	3.4545	0.1	752.9
25485	20.68	3.5455	0.1	733.42
25486	20.404	3.4545	0.1	791.26
25487	20.496	3.5455	0.1	771.65
25488	20.219	3.4545	0.1	830.01
25489	20.312	3.5455	0.1	810.25
25490	20.035	3.4545	0.1	869.12
25491	20.127	3.5455	0.1	849.22
25492	19.85	3.4545	0.1	908.57
25493	19.943	3.5455	0.1	888.53
25494	19.666	3.4545	0.1	948.35
25495	19.758	3.5455	0.1	928.19
25496	19.482	3.4545	0.1	988.46
25497	19.574	3.5455	0.1	968.17
25498	19.297	3.4545	0.1	1028.9
25499	19.389	3.5455	0.1	1008.5
25500	19.113	3.4545	0.1	1069.6
25501	19.205	3.5455	0.1	1049.1
25502	18.928	3.4545	0.1	1110.6
25503	19.021	3.5455	0.1	1089.9
25504	18.744	3.4545	0.1	1151.9
25505	18.836	3.5455	0.1	1131.1
25506	18.56	3.4545	0.1	1193.5
25507	18.652	3.5455	0.1	1172.6
25508	18.375	3.4545	0.1	1235.3
25509	18.467	3.5455	0.1	1214.3
25510	18.191	3.4545	0.1	1277.4
25511	18.283	3.5455	0.1	1256.3
25512	18.006	3.4545	0.1	1319.8
25513	18.098	3.5455	0.1	1298.5
25514	17.822	3.4545	0.1	1362.4
25515	17.914	3.5455	0.1	1341.
25516	17.637	3.4545	0.1	1405.2
25517	17.73	3.5455	0.1	1383.8
25518	17.453	3.4545	0.1	1448.3
25519	17.545	3.5455	0.1	1426.7
25520	17.269	3.4545	0.1	1491.6
25521	17.361	3.5455	0.1	1469.9
25522	17.084	3.4545	0.1	1535.1
25523	17.176	3.5455	0.1	1513.4
25524	16.9	3.4545	0.1	1578.9
25525	16.992	3.5455	0.1	1557.
25526	16.715	3.4545	0.1	1622.9
25527	16.807	3.5455	0.1	1600.9
25528	16.531	3.4545	0.1	1667.1
25529	16.623	3.5455	0.1	1645.
25530	16.346	3.4545	0.1	1711.5
25531	16.439	3.5455	0.1	1689.4
25532	16.162	3.4545	0.1	1756.1
25533	16.254	3.5455	0.1	1733.9
25534	15.978	3.4545	0.1	1800.9
25535	16.07	3.5455	0.1	1778.6
25536	15.793	3.4545	0.1	1846.
25537	15.885	3.5455	0.1	1823.5
25538	15.609	3.4545	0.1	1891.2
25539	15.701	3.5455	0.1	1868.7
25540	15.424	3.4545	0.1	1936.6
25541	15.517	3.5455	0.1	1914.
25542	15.24	3.4545	0.1	1982.2
25543	15.332	3.5455	0.1	1959.5
25544	15.055	3.4545	0.1	2027.9
25545	15.148	3.5455	0.1	2005.2
25546	14.871	3.4545	0.1	2073.9
25547	14.963	3.5455	0.1	2051.1
25548	14.687	3.4545	0.1	2120.
25549	14.779	3.5455	0.1	2097.1
25550	14.502	3.4545	0.1	2166.3
25551	14.594	3.5455	0.1	2143.3
25552	14.318	3.4545	0.1	2212.8
25553	14.41	3.5455	0.1	2189.7
25554	14.133	3.4545	0.1	2259.4
25555	14.226	3.5455	0.1	2236.3
25556	13.949	3.4545	0.1	2306.2
25557	14.041	3.5455	0.1	2283.
25558	13.764	3.4545	0.1	2353.1
25559	13.857	3.5455	0.1	2329.8
25560	13.58	3.4545	0.1	2400.2
25561	13.672	3.5455	0.1	2376.8
25562	13.396	3.4545	0.1	2447.4
25563	13.488	3.5455	0.1	2424.
25564	13.211	3.4545	0.1	2494.7
25565	13.303	3.5455	0.1	2471.3
25566	13.027	3.4545	0.1	2542.1
25567	13.119	3.5455	0.1	2518.7
25568	12.842	3.4545	0.1	2589.7
25569	12.935	3.5455	0.1	2566.2
25570	12.658	3.4545	0.1	2637.4
25571	12.75	3.5455	0.1	2613.9
25572	12.474	3.4545	0.1	2685.2
25573	12.566	3.5455	0.1	2661.6
25574	12.289	3.4545	0.1	2733.1
25575	12.381	3.5455	0.1	2709.5
25576	12.105	3.4545	0.1	2781.
25577	12.197	3.5455	0.1	2757.4
25578	11.92	3.4545	0.1	2829.
25579	12.012	3.5455	0.1	2805.5
25580	11.736	3.4545	0.1	2877.1
25581	11.828	3.5455	0.1	2853.6
25582	11.551	3.4545	0.1	2925.3
25583	11.644	3.5455	0.1	2901.7
25584	11.367	3.4545	0.1	2973.5
25585	11.459	3.5455	0.1	2949.9
25586	11.183	3.4545	0.1	3021.7
25587	11.275	3.5455	0.1	2998.2
25588	10.998	3.4545	0.1	3070.
25589	11.09	3.5455	0.1	3046.5
25590	10.814	3.4545	0.1	3118.3
25591	10.906	3.5455	0.1	3094.8
25592	10.629	3.4545	0.1	3166.6
25593	10.721	3.5455	0.1	3143.2
25594	10.445	3.4545	0.1	3214.9
25595	10.537	3.5455	0.1	3191.6
25596	10.26	3.4545	0.1	3263.2
25597	10.353	3.5455	0.1	3240.
25598	10.076	3.4545	0.1	3311.6
25599	10.168	3.5455	0.1	3288.4
25600	9.8916	3.4545	0.1	3359.9
25601	9.9838	3.5455	0.1	3336.8
25602	9.7072	3.4545	0.1	3408.4
25603	9.7994	3.5455	0.1	3385.3
25604	9.5227	3.4545	0.1	3456.9
25605	9.615	3.5455	0.1	3433.9
25606	9.3383	3.4545	0.1	3505.6
25607	9.4305	3.5455	0.1	3482.5
25608	9.1539	3.4545	0.1	3554.5
25609	9.2461	3.5455	0.1	3531.4
25610	8.9695	3.4545	0.1	3603.8
25611	9.0617	3.5455	0.1	3580.6
25612	8.785	3.4545	0.1	3653.6
25613	8.8773	3.5455	0.1	3630.1
25614	8.6006	3.4545	0.1	3704.
25615	8.6928	3.5455	0.1	3680.2
25616	8.4162	3.4545	0.1	3755.5
25617	8.5084	3.5455	0.1	3731.2
25618	8.2318	3.4545	0.1	3808.4
25619	8.324	3.5455	0.1	3783.2
25620	8.0474	3.4545	0.1	3863.1
25621	8.1396	3.5455	0.1	3836.8
25622	7.8629	3.4545	0.1	3920.4
25623	7.9551	3.5455	0.1	3892.4
25624	7.6785	3.4545	0.1	3981.1
25625	7.7707	3.5455	0.1	3950.8
25626	7.4941	3.4545	0.1	4046.4
25627	7.5863	3.5455	0.1	4012.9
25628	7.3097	3.4545	0.1	4117.6
25629	7.4019	3.5455	0.1	4080.
25630	7.1252	3.4545	0.1	4196.8
25631	7.2174	3.5455	0.1	4153.5
25632	6.9408	3.4545	0.1	4286.5
25633	7.033	3.5455	0.1	4235.5
25634	6.7564	3.4545	0.1	4390.
25635	6.8486	3.5455	0.1	4328.8
25636	6.572	3.4545	0.1	4511.5
25637	6.6642	3.5455	0.1	4436.7
25638	6.3875	3.4545	0.1	4656.7
25639	6.4798	3.5455	0.1	4563.9
25640	6.2031	3.4545	0.1	4833.2
25641	6.2953	3.5455	0.1	4716.3
25642	6.0187	3.4545	0.1	5050.8
25643	6.1109	3.5455	0.1	4901.9
25644	5.8343	3.4545	0.1	5323.
25645	5.9265	3.5455	0.1	5131.6
25646	5.6498	3.4545	0.1	5668.1
25647	5.7421	3.5455	0.1	5419.9
25648	5.4654	3.4545	0.1	6111.5
25649	5.5576	3.5455	0.1	5787.5
25650	5.281	3.4545	0.1	6688.6
25651	5.3732	3.5455	0.1	6263.5
25652	5.0966	3.4545	0.1	7448.6
25653	5.1888	3.5455	0.1	6891.2
25654	4.9121	3.4545	0.1	8454.9
25655	5.0044	3.5455	0.1	7735.1
25656	4.7277	3.4545	0.1	9763.5
25657	4.8199	3.5455	0.1	8895.1
25658	4.5433	3.4545	0.1	11297
25659	4.6355	3.5455	0.1	10492
25660	4.4511	3.5455	0.1	12554
25661	4.3589	3.4545	0.1	12651
25662	23.723	3.6364	0.1	203.22
25663	23.816	3.7273	0.1	193.32
25664	23.908	3.6364	0.1	189.22
25665	23.539	3.6364	0.1	222.77
25666	23.631	3.7273	0.1	210.6
25667	23.355	3.6364	0.1	246.04
25668	23.447	3.7273	0.1	232.21
25669	23.17	3.6364	0.1	272.12
25670	23.262	3.7273	0.1	257.07
25671	22.986	3.6364	0.1	300.32
25672	23.078	3.7273	0.1	284.36
25673	22.801	3.6364	0.1	330.16
25674	22.893	3.7273	0.1	313.51
25675	22.617	3.6364	0.1	361.31
25676	22.709	3.7273	0.1	344.13
25677	22.432	3.6364	0.1	393.53
25678	22.525	3.7273	0.1	375.93
25679	22.248	3.6364	0.1	426.66
25680	22.34	3.7273	0.1	408.71
25681	22.064	3.6364	0.1	460.56
25682	22.156	3.7273	0.1	442.33
25683	21.879	3.6364	0.1	495.16
25684	21.971	3.7273	0.1	476.68
25685	21.695	3.6364	0.1	530.37
25686	21.787	3.7273	0.1	511.68
25687	21.51	3.6364	0.1	566.15
25688	21.602	3.7273	0.1	547.27
25689	21.326	3.6364	0.1	602.45
25690	21.418	3.7273	0.1	583.4
25691	21.141	3.6364	0.1	639.24
25692	21.234	3.7273	0.1	620.03
25693	20.957	3.6364	0.1	676.48
25694	21.049	3.7273	0.1	657.12
25695	20.773	3.6364	0.1	714.14
25696	20.865	3.7273	0.1	694.65
25697	20.588	3.6364	0.1	752.22
25698	20.68	3.7273	0.1	732.59
25699	20.404	3.6364	0.1	790.67
25700	20.496	3.7273	0.1	770.92
25701	20.219	3.6364	0.1	829.5
25702	20.312	3.7273	0.1	809.62
25703	20.035	3.6364	0.1	868.69
25704	20.127	3.7273	0.1	848.68
25705	19.85	3.6364	0.1	908.21
25706	19.943	3.7273	0.1	888.09
25707	19.666	3.6364	0.1	948.06
25708	19.758	3.7273	0.1	927.82
25709	19.482	3.6364	0.1	988.22
25710	19.574	3.7273	0.1	967.87
25711	19.297	3.6364	0.1	1028.7
25712	19.389	3.7273	0.1	1008.2
25713	19.113	3.6364	0.1	1069.5
25714	19.205	3.7273	0.1	1048.9
25715	18.928	3.6364	0.1	1110.5
25716	19.021	3.7273	0.1	1089.8
25717	18.744	3.6364	0.1	1151.9
25718	18.836	3.7273	0.1	1131.1
25719	18.56	3.6364	0.1	1193.5
25720	18.652	3.7273	0.1	1172.6
25721	18.375	3.6364	0.1	1235.3
25722	18.467	3.7273	0.1	1214.3
25723	18.191	3.6364	0.1	1277.5
25724	18.283	3.7273	0.1	1256.3
25725	18.006	3.6364	0.1	1319.8
25726	18.098	3.7273	0.1	1298.6
25727	17.822	3.6364	0.1	1362.5
25728	17.914	3.7273	0.1	1341.1
25729	17.637	3.6364	0.1	1405.3
25730	17.73	3.7273	0.1	1383.9
25731	17.453	3.6364	0.1	1448.4
25732	17.545	3.7273	0.1	1426.9
25733	17.269	3.6364	0.1	1491.8
25734	17.361	3.7273	0.1	1470.1
25735	17.084	3.6364	0.1	1535.3
25736	17.176	3.7273	0.1	1513.6
25737	16.9	3.6364	0.1	1579.1
25738	16.992	3.7273	0.1	1557.3
25739	16.715	3.6364	0.1	1623.1
25740	16.807	3.7273	0.1	1601.2
25741	16.531	3.6364	0.1	1667.4
25742	16.623	3.7273	0.1	1645.3
25743	16.346	3.6364	0.1	1711.8
25744	16.439	3.7273	0.1	1689.7
25745	16.162	3.6364	0.1	1756.4
25746	16.254	3.7273	0.1	1734.2
25747	15.978	3.6364	0.1	1801.2
25748	16.07	3.7273	0.1	1779.
25749	15.793	3.6364	0.1	1846.3
25750	15.885	3.7273	0.1	1823.9
25751	15.609	3.6364	0.1	1891.5
25752	15.701	3.7273	0.1	1869.
25753	15.424	3.6364	0.1	1936.9
25754	15.517	3.7273	0.1	1914.4
25755	15.24	3.6364	0.1	1982.5
25756	15.332	3.7273	0.1	1959.9
25757	15.055	3.6364	0.1	2028.3
25758	15.148	3.7273	0.1	2005.6
25759	14.871	3.6364	0.1	2074.3
25760	14.963	3.7273	0.1	2051.5
25761	14.687	3.6364	0.1	2120.4
25762	14.779	3.7273	0.1	2097.6
25763	14.502	3.6364	0.1	2166.8
25764	14.594	3.7273	0.1	2143.8
25765	14.318	3.6364	0.1	2213.2
25766	14.41	3.7273	0.1	2190.2
25767	14.133	3.6364	0.1	2259.9
25768	14.226	3.7273	0.1	2236.8
25769	13.949	3.6364	0.1	2306.7
25770	14.041	3.7273	0.1	2283.6
25771	13.764	3.6364	0.1	2353.6
25772	13.857	3.7273	0.1	2330.4
25773	13.58	3.6364	0.1	2400.7
25774	13.672	3.7273	0.1	2377.5
25775	13.396	3.6364	0.1	2447.9
25776	13.488	3.7273	0.1	2424.7
25777	13.211	3.6364	0.1	2495.3
25778	13.303	3.7273	0.1	2472.
25779	13.027	3.6364	0.1	2542.8
25780	13.119	3.7273	0.1	2519.4
25781	12.842	3.6364	0.1	2590.4
25782	12.935	3.7273	0.1	2567.
25783	12.658	3.6364	0.1	2638.1
25784	12.75	3.7273	0.1	2614.7
25785	12.474	3.6364	0.1	2686.
25786	12.566	3.7273	0.1	2662.5
25787	12.289	3.6364	0.1	2733.9
25788	12.381	3.7273	0.1	2710.4
25789	12.105	3.6364	0.1	2781.9
25790	12.197	3.7273	0.1	2758.4
25791	11.92	3.6364	0.1	2830.
25792	12.012	3.7273	0.1	2806.5
25793	11.736	3.6364	0.1	2878.2
25794	11.828	3.7273	0.1	2854.7
25795	11.551	3.6364	0.1	2926.4
25796	11.644	3.7273	0.1	2903.
25797	11.367	3.6364	0.1	2974.7
25798	11.459	3.7273	0.1	2951.3
25799	11.183	3.6364	0.1	3023.
25800	11.275	3.7273	0.1	2999.7
25801	10.998	3.6364	0.1	3071.4
25802	11.09	3.7273	0.1	3048.1
25803	10.814	3.6364	0.1	3119.8
25804	10.906	3.7273	0.1	3096.5
25805	10.629	3.6364	0.1	3168.2
25806	10.721	3.7273	0.1	3145.
25807	10.445	3.6364	0.1	3216.7
25808	10.537	3.7273	0.1	3193.5
25809	10.26	3.6364	0.1	3265.1
25810	10.353	3.7273	0.1	3242.1
25811	10.076	3.6364	0.1	3313.6
25812	10.168	3.7273	0.1	3290.6
25813	9.8916	3.6364	0.1	3362.2
25814	9.9838	3.7273	0.1	3339.3
25815	9.7072	3.6364	0.1	3410.8
25816	9.7994	3.7273	0.1	3387.9
25817	9.5227	3.6364	0.1	3459.5
25818	9.615	3.7273	0.1	3436.7
25819	9.3383	3.6364	0.1	3508.4
25820	9.4305	3.7273	0.1	3485.6
25821	9.1539	3.6364	0.1	3557.5
25822	9.2461	3.7273	0.1	3534.7
25823	8.9695	3.6364	0.1	3606.9
25824	9.0617	3.7273	0.1	3584.
25825	8.785	3.6364	0.1	3656.8
25826	8.8773	3.7273	0.1	3633.7
25827	8.6006	3.6364	0.1	3707.4
25828	8.6928	3.7273	0.1	3684.
25829	8.4162	3.6364	0.1	3758.8
25830	8.5084	3.7273	0.1	3734.9
25831	8.2318	3.6364	0.1	3811.6
25832	8.324	3.7273	0.1	3786.9
25833	8.0474	3.6364	0.1	3866.1
25834	8.1396	3.7273	0.1	3840.3
25835	7.8629	3.6364	0.1	3922.8
25836	7.9551	3.7273	0.1	3895.5
25837	7.6785	3.6364	0.1	3982.7
25838	7.7707	3.7273	0.1	3953.1
25839	7.4941	3.6364	0.1	4046.6
25840	7.5863	3.7273	0.1	4014.
25841	7.3097	3.6364	0.1	4115.8
25842	7.4019	3.7273	0.1	4079.2
25843	7.1252	3.6364	0.1	4192.2
25844	7.2174	3.7273	0.1	4150.1
25845	6.9408	3.6364	0.1	4277.8
25846	7.033	3.7273	0.1	4228.3
25847	6.7564	3.6364	0.1	4375.5
25848	6.8486	3.7273	0.1	4316.1
25849	6.572	3.6364	0.1	4489.
25850	6.6642	3.7273	0.1	4416.6
25851	6.3875	3.6364	0.1	4623.4
25852	6.4798	3.7273	0.1	4533.5
25853	6.2031	3.6364	0.1	4785.
25854	6.2953	3.7273	0.1	4671.9
25855	6.0187	3.6364	0.1	4982.7
25856	6.1109	3.7273	0.1	4838.8
25857	5.8343	3.6364	0.1	5228.6
25858	5.9265	3.7273	0.1	5043.5
25859	5.6498	3.6364	0.1	5539.4
25860	5.7421	3.7273	0.1	5298.9
25861	5.4654	3.6364	0.1	5940.
25862	5.5576	3.7273	0.1	5623.9
25863	5.281	3.6364	0.1	6467.7
25864	5.3732	3.7273	0.1	6046.7
25865	5.0966	3.6364	0.1	7182.2
25866	5.1888	3.7273	0.1	6611.9
25867	4.9121	3.6364	0.1	8187.3
25868	5.0044	3.7273	0.1	7396.9
25869	4.7277	3.6364	0.1	9650.2
25870	4.8199	3.7273	0.1	8535.6
25871	4.5433	3.6364	0.1	11778
25872	4.6355	3.7273	0.1	10344
25873	4.4511	3.7273	0.1	13365
25874	4.3589	3.6364	0.1	13995
25875	23.723	3.8182	0.1	199.54
25876	23.816	3.9091	0.1	189.1
25877	23.908	3.8182	0.1	185.41
25878	23.539	3.8182	0.1	219.21
25879	23.631	3.9091	0.1	206.49
25880	23.355	3.8182	0.1	242.64
25881	23.447	3.9091	0.1	228.26
25882	23.17	3.8182	0.1	268.88
25883	23.262	3.9091	0.1	253.31
25884	22.986	3.8182	0.1	297.26
25885	23.078	3.9091	0.1	280.79
25886	22.801	3.8182	0.1	327.28
25887	22.893	3.9091	0.1	310.15
25888	22.617	3.8182	0.1	358.61
25889	22.709	3.9091	0.1	340.98
25890	22.432	3.8182	0.1	391.02
25891	22.525	3.9091	0.1	372.99
25892	22.248	3.8182	0.1	424.33
25893	22.34	3.9091	0.1	405.99
25894	22.064	3.8182	0.1	458.42
25895	22.156	3.9091	0.1	439.82
25896	21.879	3.8182	0.1	493.19
25897	21.971	3.9091	0.1	474.38
25898	21.695	3.8182	0.1	528.59
25899	21.787	3.9091	0.1	509.59
25900	21.51	3.8182	0.1	564.54
25901	21.602	3.9091	0.1	545.38
25902	21.326	3.8182	0.1	601.
25903	21.418	3.9091	0.1	581.7
25904	21.141	3.8182	0.1	637.94
25905	21.234	3.9091	0.1	618.51
25906	20.957	3.8182	0.1	675.33
25907	21.049	3.9091	0.1	655.77
25908	20.773	3.8182	0.1	713.13
25909	20.865	3.9091	0.1	693.46
25910	20.588	3.8182	0.1	751.34
25911	20.68	3.9091	0.1	731.55
25912	20.404	3.8182	0.1	789.91
25913	20.496	3.9091	0.1	770.02
25914	20.219	3.8182	0.1	828.85
25915	20.312	3.9091	0.1	808.85
25916	20.035	3.8182	0.1	868.14
25917	20.127	3.9091	0.1	848.03
25918	19.85	3.8182	0.1	907.75
25919	19.943	3.9091	0.1	887.54
25920	19.666	3.8182	0.1	947.69
25921	19.758	3.9091	0.1	927.37
25922	19.482	3.8182	0.1	987.93
25923	19.574	3.9091	0.1	967.51
25924	19.297	3.8182	0.1	1028.5
25925	19.389	3.9091	0.1	1008.
25926	19.113	3.8182	0.1	1069.3
25927	19.205	3.9091	0.1	1048.7
25928	18.928	3.8182	0.1	1110.4
25929	19.021	3.9091	0.1	1089.7
25930	18.744	3.8182	0.1	1151.8
25931	18.836	3.9091	0.1	1131.
25932	18.56	3.8182	0.1	1193.5
25933	18.652	3.9091	0.1	1172.5
25934	18.375	3.8182	0.1	1235.4
25935	18.467	3.9091	0.1	1214.4
25936	18.191	3.8182	0.1	1277.5
25937	18.283	3.9091	0.1	1256.4
25938	18.006	3.8182	0.1	1320.
25939	18.098	3.9091	0.1	1298.7
25940	17.822	3.8182	0.1	1362.6
25941	17.914	3.9091	0.1	1341.3
25942	17.637	3.8182	0.1	1405.5
25943	17.73	3.9091	0.1	1384.1
25944	17.453	3.8182	0.1	1448.7
25945	17.545	3.9091	0.1	1427.2
25946	17.269	3.8182	0.1	1492.
25947	17.361	3.9091	0.1	1470.4
25948	17.084	3.8182	0.1	1535.6
25949	17.176	3.9091	0.1	1513.9
25950	16.9	3.8182	0.1	1579.4
25951	16.992	3.9091	0.1	1557.6
25952	16.715	3.8182	0.1	1623.5
25953	16.807	3.9091	0.1	1601.6
25954	16.531	3.8182	0.1	1667.7
25955	16.623	3.9091	0.1	1645.7
25956	16.346	3.8182	0.1	1712.1
25957	16.439	3.9091	0.1	1690.1
25958	16.162	3.8182	0.1	1756.8
25959	16.254	3.9091	0.1	1734.6
25960	15.978	3.8182	0.1	1801.7
25961	16.07	3.9091	0.1	1779.4
25962	15.793	3.8182	0.1	1846.7
25963	15.885	3.9091	0.1	1824.4
25964	15.609	3.8182	0.1	1892.
25965	15.701	3.9091	0.1	1869.5
25966	15.424	3.8182	0.1	1937.4
25967	15.517	3.9091	0.1	1914.9
25968	15.24	3.8182	0.1	1983.
25969	15.332	3.9091	0.1	1960.5
25970	15.055	3.8182	0.1	2028.8
25971	15.148	3.9091	0.1	2006.2
25972	14.871	3.8182	0.1	2074.8
25973	14.963	3.9091	0.1	2052.1
25974	14.687	3.8182	0.1	2121.
25975	14.779	3.9091	0.1	2098.2
25976	14.502	3.8182	0.1	2167.3
25977	14.594	3.9091	0.1	2144.5
25978	14.318	3.8182	0.1	2213.9
25979	14.41	3.9091	0.1	2190.9
25980	14.133	3.8182	0.1	2260.5
25981	14.226	3.9091	0.1	2237.5
25982	13.949	3.8182	0.1	2307.4
25983	14.041	3.9091	0.1	2284.3
25984	13.764	3.8182	0.1	2354.3
25985	13.857	3.9091	0.1	2331.2
25986	13.58	3.8182	0.1	2401.5
25987	13.672	3.9091	0.1	2378.3
25988	13.396	3.8182	0.1	2448.7
25989	13.488	3.9091	0.1	2425.5
25990	13.211	3.8182	0.1	2496.1
25991	13.303	3.9091	0.1	2472.9
25992	13.027	3.8182	0.1	2543.7
25993	13.119	3.9091	0.1	2520.4
25994	12.842	3.8182	0.1	2591.3
25995	12.935	3.9091	0.1	2568.
25996	12.658	3.8182	0.1	2639.1
25997	12.75	3.9091	0.1	2615.8
25998	12.474	3.8182	0.1	2687.
25999	12.566	3.9091	0.1	2663.7
26000	12.289	3.8182	0.1	2735.
26001	12.381	3.9091	0.1	2711.6
26002	12.105	3.8182	0.1	2783.1
26003	12.197	3.9091	0.1	2759.7
26004	11.92	3.8182	0.1	2831.3
26005	12.012	3.9091	0.1	2807.9
26006	11.736	3.8182	0.1	2879.5
26007	11.828	3.9091	0.1	2856.2
26008	11.551	3.8182	0.1	2927.9
26009	11.644	3.9091	0.1	2904.5
26010	11.367	3.8182	0.1	2976.3
26011	11.459	3.9091	0.1	2953.
26012	11.183	3.8182	0.1	3024.7
26013	11.275	3.9091	0.1	3001.5
26014	10.998	3.8182	0.1	3073.2
26015	11.09	3.9091	0.1	3050.
26016	10.814	3.8182	0.1	3121.8
26017	10.906	3.9091	0.1	3098.6
26018	10.629	3.8182	0.1	3170.3
26019	10.721	3.9091	0.1	3147.3
26020	10.445	3.8182	0.1	3218.9
26021	10.537	3.9091	0.1	3196.
26022	10.26	3.8182	0.1	3267.6
26023	10.353	3.9091	0.1	3244.7
26024	10.076	3.8182	0.1	3316.3
26025	10.168	3.9091	0.1	3293.5
26026	9.8916	3.8182	0.1	3365.
26027	9.9838	3.9091	0.1	3342.3
26028	9.7072	3.8182	0.1	3413.9
26029	9.7994	3.9091	0.1	3391.2
26030	9.5227	3.8182	0.1	3462.8
26031	9.615	3.9091	0.1	3440.2
26032	9.3383	3.8182	0.1	3511.9
26033	9.4305	3.9091	0.1	3489.4
26034	9.1539	3.8182	0.1	3561.2
26035	9.2461	3.9091	0.1	3538.7
26036	8.9695	3.8182	0.1	3610.8
26037	9.0617	3.9091	0.1	3588.2
26038	8.785	3.8182	0.1	3660.9
26039	8.8773	3.9091	0.1	3638.2
26040	8.6006	3.8182	0.1	3711.6
26041	8.6928	3.9091	0.1	3688.5
26042	8.4162	3.8182	0.1	3763.
26043	8.5084	3.9091	0.1	3739.6
26044	8.2318	3.8182	0.1	3815.6
26045	8.324	3.9091	0.1	3791.5
26046	8.0474	3.8182	0.1	3869.7
26047	8.1396	3.9091	0.1	3844.5
26048	7.8629	3.8182	0.1	3925.8
26049	7.9551	3.9091	0.1	3899.2
26050	7.6785	3.8182	0.1	3984.5
26051	7.7707	3.9091	0.1	3955.9
26052	7.4941	3.8182	0.1	4046.7
26053	7.5863	3.9091	0.1	4015.3
26054	7.3097	3.8182	0.1	4113.5
26055	7.4019	3.9091	0.1	4078.2
26056	7.1252	3.8182	0.1	4186.2
26057	7.2174	3.9091	0.1	4145.8
26058	6.9408	3.8182	0.1	4266.6
26059	7.033	3.9091	0.1	4219.3
26060	6.7564	3.8182	0.1	4357.2
26061	6.8486	3.9091	0.1	4300.7
26062	6.572	3.8182	0.1	4461.
26063	6.6642	3.9091	0.1	4392.3
26064	6.3875	3.8182	0.1	4582.
26065	6.4798	3.9091	0.1	4497.1
26066	6.2031	3.8182	0.1	4725.6
26067	6.2953	3.9091	0.1	4619.2
26068	6.0187	3.8182	0.1	4899.3
26069	6.1109	3.9091	0.1	4764.3
26070	5.8343	3.8182	0.1	5113.3
26071	5.9265	3.9091	0.1	4940.
26072	5.6498	3.8182	0.1	5382.5
26073	5.7421	3.9091	0.1	5157.3
26074	5.4654	3.8182	0.1	5729.6
26075	5.5576	3.9091	0.1	5432.7
26076	5.281	3.8182	0.1	6189.9
26077	5.3732	3.9091	0.1	5791.8
26078	5.0966	3.8182	0.1	6826.9
26079	5.1888	3.9091	0.1	6275.6
26080	4.9121	3.8182	0.1	7751.6
26081	5.0044	3.9091	0.1	6962.9
26082	4.7277	3.8182	0.1	9258.3
26083	4.8199	3.9091	0.1	7989.9
26084	4.5433	3.8182	0.1	12008
26085	4.6355	3.9091	0.1	9770.
26086	4.4511	3.9091	0.1	13728
26087	4.3589	3.8182	0.1	16216
26088	23.723	4.	0.1	194.88
26089	23.816	4.0909	0.1	183.87
26090	23.908	4.	0.1	180.58
26091	23.539	4.	0.1	214.71
26092	23.631	4.0909	0.1	201.39
26093	23.355	4.	0.1	238.34
26094	23.447	4.0909	0.1	223.37
26095	23.17	4.	0.1	264.81
26096	23.262	4.0909	0.1	248.66
26097	22.986	4.	0.1	293.41
26098	23.078	4.0909	0.1	276.41
26099	22.801	4.	0.1	323.67
26100	22.893	4.0909	0.1	306.04
26101	22.617	4.	0.1	355.24
26102	22.709	4.0909	0.1	337.14
26103	22.432	4.	0.1	387.89
26104	22.525	4.0909	0.1	369.42
26105	22.248	4.	0.1	421.44
26106	22.34	4.0909	0.1	402.7
26107	22.064	4.	0.1	455.77
26108	22.156	4.0909	0.1	436.8
26109	21.879	4.	0.1	490.78
26110	21.971	4.0909	0.1	471.63
26111	21.695	4.	0.1	526.4
26112	21.787	4.0909	0.1	507.1
26113	21.51	4.	0.1	562.57
26114	21.602	4.0909	0.1	543.14
26115	21.326	4.	0.1	599.25
26116	21.418	4.0909	0.1	579.7
26117	21.141	4.	0.1	636.38
26118	21.234	4.0909	0.1	616.73
26119	20.957	4.	0.1	673.95
26120	21.049	4.0909	0.1	654.2
26121	20.773	4.	0.1	711.93
26122	20.865	4.0909	0.1	692.08
26123	20.588	4.	0.1	750.28
26124	20.68	4.0909	0.1	730.34
26125	20.404	4.	0.1	789.01
26126	20.496	4.0909	0.1	768.98
26127	20.219	4.	0.1	828.08
26128	20.312	4.0909	0.1	807.96
26129	20.035	4.	0.1	867.49
26130	20.127	4.0909	0.1	847.28
26131	19.85	4.	0.1	907.22
26132	19.943	4.0909	0.1	886.92
26133	19.666	4.	0.1	947.26
26134	19.758	4.0909	0.1	926.87
26135	19.482	4.	0.1	987.59
26136	19.574	4.0909	0.1	967.12
26137	19.297	4.	0.1	1028.2
26138	19.389	4.0909	0.1	1007.7
26139	19.113	4.	0.1	1069.1
26140	19.205	4.0909	0.1	1048.5
26141	18.928	4.	0.1	1110.3
26142	19.021	4.0909	0.1	1089.6
26143	18.744	4.	0.1	1151.8
26144	18.836	4.0909	0.1	1130.9
26145	18.56	4.	0.1	1193.5
26146	18.652	4.0909	0.1	1172.6
26147	18.375	4.	0.1	1235.5
26148	18.467	4.0909	0.1	1214.4
26149	18.191	4.	0.1	1277.7
26150	18.283	4.0909	0.1	1256.6
26151	18.006	4.	0.1	1320.1
26152	18.098	4.0909	0.1	1298.9
26153	17.822	4.	0.1	1362.8
26154	17.914	4.0909	0.1	1341.5
26155	17.637	4.	0.1	1405.8
26156	17.73	4.0909	0.1	1384.4
26157	17.453	4.	0.1	1449.
26158	17.545	4.0909	0.1	1427.5
26159	17.269	4.	0.1	1492.4
26160	17.361	4.0909	0.1	1470.8
26161	17.084	4.	0.1	1536.
26162	17.176	4.0909	0.1	1514.3
26163	16.9	4.	0.1	1579.8
26164	16.992	4.0909	0.1	1558.
26165	16.715	4.	0.1	1623.9
26166	16.807	4.0909	0.1	1602.
26167	16.531	4.	0.1	1668.1
26168	16.623	4.0909	0.1	1646.2
26169	16.346	4.	0.1	1712.6
26170	16.439	4.0909	0.1	1690.6
26171	16.162	4.	0.1	1757.3
26172	16.254	4.0909	0.1	1735.2
26173	15.978	4.	0.1	1802.2
26174	16.07	4.0909	0.1	1780.
26175	15.793	4.	0.1	1847.3
26176	15.885	4.0909	0.1	1825.
26177	15.609	4.	0.1	1892.5
26178	15.701	4.0909	0.1	1870.2
26179	15.424	4.	0.1	1938.
26180	15.517	4.0909	0.1	1915.5
26181	15.24	4.	0.1	1983.6
26182	15.332	4.0909	0.1	1961.1
26183	15.055	4.	0.1	2029.5
26184	15.148	4.0909	0.1	2006.9
26185	14.871	4.	0.1	2075.5
26186	14.963	4.0909	0.1	2052.8
26187	14.687	4.	0.1	2121.7
26188	14.779	4.0909	0.1	2099.
26189	14.502	4.	0.1	2168.1
26190	14.594	4.0909	0.1	2145.3
26191	14.318	4.	0.1	2214.6
26192	14.41	4.0909	0.1	2191.7
26193	14.133	4.	0.1	2261.3
26194	14.226	4.0909	0.1	2238.4
26195	13.949	4.	0.1	2308.2
26196	14.041	4.0909	0.1	2285.2
26197	13.764	4.	0.1	2355.2
26198	13.857	4.0909	0.1	2332.2
26199	13.58	4.	0.1	2402.4
26200	13.672	4.0909	0.1	2379.3
26201	13.396	4.	0.1	2449.7
26202	13.488	4.0909	0.1	2426.6
26203	13.211	4.	0.1	2497.2
26204	13.303	4.0909	0.1	2474.
26205	13.027	4.	0.1	2544.8
26206	13.119	4.0909	0.1	2521.5
26207	12.842	4.	0.1	2592.5
26208	12.935	4.0909	0.1	2569.2
26209	12.658	4.	0.1	2640.3
26210	12.75	4.0909	0.1	2617.1
26211	12.474	4.	0.1	2688.3
26212	12.566	4.0909	0.1	2665.
26213	12.289	4.	0.1	2736.4
26214	12.381	4.0909	0.1	2713.1
26215	12.105	4.	0.1	2784.6
26216	12.197	4.0909	0.1	2761.3
26217	11.92	4.	0.1	2832.9
26218	12.012	4.0909	0.1	2809.6
26219	11.736	4.	0.1	2881.2
26220	11.828	4.0909	0.1	2858.
26221	11.551	4.	0.1	2929.7
26222	11.644	4.0909	0.1	2906.4
26223	11.367	4.	0.1	2978.2
26224	11.459	4.0909	0.1	2955.
26225	11.183	4.	0.1	3026.8
26226	11.275	4.0909	0.1	3003.6
26227	10.998	4.	0.1	3075.4
26228	11.09	4.0909	0.1	3052.4
26229	10.814	4.	0.1	3124.2
26230	10.906	4.0909	0.1	3101.1
26231	10.629	4.	0.1	3172.9
26232	10.721	4.0909	0.1	3150.
26233	10.445	4.	0.1	3221.7
26234	10.537	4.0909	0.1	3198.9
26235	10.26	4.	0.1	3270.6
26236	10.353	4.0909	0.1	3247.8
26237	10.076	4.	0.1	3319.5
26238	10.168	4.0909	0.1	3296.9
26239	9.8916	4.	0.1	3368.5
26240	9.9838	4.0909	0.1	3345.9
26241	9.7072	4.	0.1	3417.6
26242	9.7994	4.0909	0.1	3395.1
26243	9.5227	4.	0.1	3466.8
26244	9.615	4.0909	0.1	3444.4
26245	9.3383	4.	0.1	3516.2
26246	9.4305	4.0909	0.1	3493.8
26247	9.1539	4.	0.1	3565.7
26248	9.2461	4.0909	0.1	3543.4
26249	8.9695	4.	0.1	3615.6
26250	9.0617	4.0909	0.1	3593.2
26251	8.785	4.	0.1	3665.8
26252	8.8773	4.0909	0.1	3643.3
26253	8.6006	4.	0.1	3716.5
26254	8.6928	4.0909	0.1	3693.8
26255	8.4162	4.	0.1	3768.
26256	8.5084	4.0909	0.1	3744.8
26257	8.2318	4.	0.1	3820.4
26258	8.324	4.0909	0.1	3796.6
26259	8.0474	4.	0.1	3874.
26260	8.1396	4.0909	0.1	3849.3
26261	7.8629	4.	0.1	3929.2
26262	7.9551	4.0909	0.1	3903.3
26263	7.6785	4.	0.1	3986.6
26264	7.7707	4.0909	0.1	3958.8
26265	7.4941	4.	0.1	4046.8
26266	7.5863	4.0909	0.1	4016.5
26267	7.3097	4.	0.1	4110.5
26268	7.4019	4.0909	0.1	4076.8
26269	7.1252	4.	0.1	4179.
26270	7.2174	4.0909	0.1	4140.6
26271	6.9408	4.	0.1	4253.5
26272	7.033	4.0909	0.1	4208.9
26273	6.7564	4.	0.1	4335.8
26274	6.8486	4.0909	0.1	4283.
26275	6.572	4.	0.1	4428.4
26276	6.6642	4.0909	0.1	4364.6
26277	6.3875	4.	0.1	4534.3
26278	6.4798	4.0909	0.1	4456.
26279	6.2031	4.	0.1	4657.7
26280	6.2953	4.0909	0.1	4560.1
26281	6.0187	4.	0.1	4804.5
26282	6.1109	4.0909	0.1	4681.2
26283	5.8343	4.	0.1	4983.1
26284	5.9265	4.0909	0.1	4825.3
26285	5.6498	4.	0.1	5205.9
26286	5.7421	4.0909	0.1	5001.3
26287	5.4654	4.	0.1	5492.5
26288	5.5576	4.0909	0.1	5222.6
26289	5.281	4.	0.1	5874.1
26290	5.3732	4.0909	0.1	5511.1
26291	5.0966	4.	0.1	6407.9
26292	5.1888	4.0909	0.1	5902.2
26293	4.9121	4.	0.1	7200.
26294	5.0044	4.0909	0.1	6463.2
26295	4.7277	4.	0.1	8517.1
26296	4.8199	4.0909	0.1	7316.4
26297	4.5433	4.	0.1	11660
26298	4.6355	4.0909	0.1	8825.8
26299	4.4511	4.0909	0.1	12688
26300	4.3589	4.	0.1	20520
26301	23.723	4.1818	0.1	189.19
26302	23.816	4.2727	0.1	177.57
26303	23.908	4.1818	0.1	174.69
26304	23.539	4.1818	0.1	209.22
26305	23.631	4.2727	0.1	195.25
26306	23.355	4.1818	0.1	233.12
26307	23.447	4.2727	0.1	217.51
26308	23.17	4.1818	0.1	259.87
26309	23.262	4.2727	0.1	243.11
26310	22.986	4.1818	0.1	288.77
26311	23.078	4.2727	0.1	271.19
26312	22.801	4.1818	0.1	319.34
26313	22.893	4.2727	0.1	301.16
26314	22.617	4.1818	0.1	351.21
26315	22.709	4.2727	0.1	332.61
26316	22.432	4.1818	0.1	384.17
26317	22.525	4.2727	0.1	365.25
26318	22.248	4.1818	0.1	418.03
26319	22.34	4.2727	0.1	398.86
26320	22.064	4.1818	0.1	452.66
26321	22.156	4.2727	0.1	433.31
26322	21.879	4.1818	0.1	487.96
26323	21.971	4.2727	0.1	468.47
26324	21.695	4.1818	0.1	523.86
26325	21.787	4.2727	0.1	504.25
26326	21.51	4.1818	0.1	560.29
26327	21.602	4.2727	0.1	540.58
26328	21.326	4.1818	0.1	597.21
26329	21.418	4.2727	0.1	577.42
26330	21.141	4.1818	0.1	634.58
26331	21.234	4.2727	0.1	614.71
26332	20.957	4.1818	0.1	672.37
26333	21.049	4.2727	0.1	652.42
26334	20.773	4.1818	0.1	710.55
26335	20.865	4.2727	0.1	690.53
26336	20.588	4.1818	0.1	749.09
26337	20.68	4.2727	0.1	729.
26338	20.404	4.1818	0.1	787.99
26339	20.496	4.2727	0.1	767.83
26340	20.219	4.1818	0.1	827.22
26341	20.312	4.2727	0.1	806.99
26342	20.035	4.1818	0.1	866.77
26343	20.127	4.2727	0.1	846.46
26344	19.85	4.1818	0.1	906.63
26345	19.943	4.2727	0.1	886.25
26346	19.666	4.1818	0.1	946.79
26347	19.758	4.2727	0.1	926.33
26348	19.482	4.1818	0.1	987.23
26349	19.574	4.2727	0.1	966.7
26350	19.297	4.1818	0.1	1028.
26351	19.389	4.2727	0.1	1007.3
26352	19.113	4.1818	0.1	1069.
26353	19.205	4.2727	0.1	1048.3
26354	18.928	4.1818	0.1	1110.2
26355	19.021	4.2727	0.1	1089.5
26356	18.744	4.1818	0.1	1151.8
26357	18.836	4.2727	0.1	1130.9
26358	18.56	4.1818	0.1	1193.5
26359	18.652	4.2727	0.1	1172.6
26360	18.375	4.1818	0.1	1235.6
26361	18.467	4.2727	0.1	1214.5
26362	18.191	4.1818	0.1	1277.9
26363	18.283	4.2727	0.1	1256.7
26364	18.006	4.1818	0.1	1320.4
26365	18.098	4.2727	0.1	1299.2
26366	17.822	4.1818	0.1	1363.1
26367	17.914	4.2727	0.1	1341.8
26368	17.637	4.1818	0.1	1406.1
26369	17.73	4.2727	0.1	1384.7
26370	17.453	4.1818	0.1	1449.3
26371	17.545	4.2727	0.1	1427.8
26372	17.269	4.1818	0.1	1492.8
26373	17.361	4.2727	0.1	1471.2
26374	17.084	4.1818	0.1	1536.4
26375	17.176	4.2727	0.1	1514.8
26376	16.9	4.1818	0.1	1580.3
26377	16.992	4.2727	0.1	1558.5
26378	16.715	4.1818	0.1	1624.4
26379	16.807	4.2727	0.1	1602.5
26380	16.531	4.1818	0.1	1668.7
26381	16.623	4.2727	0.1	1646.8
26382	16.346	4.1818	0.1	1713.2
26383	16.439	4.2727	0.1	1691.2
26384	16.162	4.1818	0.1	1757.9
26385	16.254	4.2727	0.1	1735.8
26386	15.978	4.1818	0.1	1802.8
26387	16.07	4.2727	0.1	1780.6
26388	15.793	4.1818	0.1	1847.9
26389	15.885	4.2727	0.1	1825.6
26390	15.609	4.1818	0.1	1893.2
26391	15.701	4.2727	0.1	1870.9
26392	15.424	4.1818	0.1	1938.7
26393	15.517	4.2727	0.1	1916.3
26394	15.24	4.1818	0.1	1984.4
26395	15.332	4.2727	0.1	1961.9
26396	15.055	4.1818	0.1	2030.3
26397	15.148	4.2727	0.1	2007.7
26398	14.871	4.1818	0.1	2076.3
26399	14.963	4.2727	0.1	2053.7
26400	14.687	4.1818	0.1	2122.5
26401	14.779	4.2727	0.1	2099.8
26402	14.502	4.1818	0.1	2168.9
26403	14.594	4.2727	0.1	2146.2
26404	14.318	4.1818	0.1	2215.5
26405	14.41	4.2727	0.1	2192.7
26406	14.133	4.1818	0.1	2262.3
26407	14.226	4.2727	0.1	2239.4
26408	13.949	4.1818	0.1	2309.2
26409	14.041	4.2727	0.1	2286.2
26410	13.764	4.1818	0.1	2356.3
26411	13.857	4.2727	0.1	2333.3
26412	13.58	4.1818	0.1	2403.5
26413	13.672	4.2727	0.1	2380.4
26414	13.396	4.1818	0.1	2450.9
26415	13.488	4.2727	0.1	2427.8
26416	13.211	4.1818	0.1	2498.4
26417	13.303	4.2727	0.1	2475.3
26418	13.027	4.1818	0.1	2546.1
26419	13.119	4.2727	0.1	2522.9
26420	12.842	4.1818	0.1	2593.9
26421	12.935	4.2727	0.1	2570.7
26422	12.658	4.1818	0.1	2641.8
26423	12.75	4.2727	0.1	2618.6
26424	12.474	4.1818	0.1	2689.8
26425	12.566	4.2727	0.1	2666.6
26426	12.289	4.1818	0.1	2738.
26427	12.381	4.2727	0.1	2714.8
26428	12.105	4.1818	0.1	2786.3
26429	12.197	4.2727	0.1	2763.1
26430	11.92	4.1818	0.1	2834.7
26431	12.012	4.2727	0.1	2811.5
26432	11.736	4.1818	0.1	2883.2
26433	11.828	4.2727	0.1	2860.
26434	11.551	4.1818	0.1	2931.8
26435	11.644	4.2727	0.1	2908.6
26436	11.367	4.1818	0.1	2980.5
26437	11.459	4.2727	0.1	2957.3
26438	11.183	4.1818	0.1	3029.2
26439	11.275	4.2727	0.1	3006.2
26440	10.998	4.1818	0.1	3078.1
26441	11.09	4.2727	0.1	3055.
26442	10.814	4.1818	0.1	3127.
26443	10.906	4.2727	0.1	3104.
26444	10.629	4.1818	0.1	3175.9
26445	10.721	4.2727	0.1	3153.1
26446	10.445	4.1818	0.1	3225.
26447	10.537	4.2727	0.1	3202.2
26448	10.26	4.1818	0.1	3274.1
26449	10.353	4.2727	0.1	3251.4
26450	10.076	4.1818	0.1	3323.3
26451	10.168	4.2727	0.1	3300.7
26452	9.8916	4.1818	0.1	3372.6
26453	9.9838	4.2727	0.1	3350.1
26454	9.7072	4.1818	0.1	3421.9
26455	9.7994	4.2727	0.1	3399.5
26456	9.5227	4.1818	0.1	3471.4
26457	9.615	4.2727	0.1	3449.1
26458	9.3383	4.1818	0.1	3521.
26459	9.4305	4.2727	0.1	3498.8
26460	9.1539	4.1818	0.1	3570.8
26461	9.2461	4.2727	0.1	3548.6
26462	8.9695	4.1818	0.1	3620.9
26463	9.0617	4.2727	0.1	3598.7
26464	8.785	4.1818	0.1	3671.3
26465	8.8773	4.2727	0.1	3649.
26466	8.6006	4.1818	0.1	3722.1
26467	8.6928	4.2727	0.1	3699.6
26468	8.4162	4.1818	0.1	3773.5
26469	8.5084	4.2727	0.1	3750.6
26470	8.2318	4.1818	0.1	3825.6
26471	8.324	4.2727	0.1	3802.2
26472	8.0474	4.1818	0.1	3878.6
26473	8.1396	4.2727	0.1	3854.5
26474	7.8629	4.1818	0.1	3932.9
26475	7.9551	4.2727	0.1	3907.6
26476	7.6785	4.1818	0.1	3988.7
26477	7.7707	4.2727	0.1	3961.8
26478	7.4941	4.1818	0.1	4046.5
26479	7.5863	4.2727	0.1	4017.5
26480	7.3097	4.1818	0.1	4106.9
26481	7.4019	4.2727	0.1	4074.9
26482	7.1252	4.1818	0.1	4170.6
26483	7.2174	4.2727	0.1	4134.6
26484	6.9408	4.1818	0.1	4238.5
26485	7.033	4.2727	0.1	4197.2
26486	6.7564	4.1818	0.1	4311.9
26487	6.8486	4.2727	0.1	4263.4
26488	6.572	4.1818	0.1	4392.2
26489	6.6642	4.2727	0.1	4334.3
26490	6.3875	4.1818	0.1	4481.7
26491	6.4798	4.2727	0.1	4411.2
26492	6.2031	4.1818	0.1	4583.3
26493	6.2953	4.2727	0.1	4496.2
26494	6.0187	4.1818	0.1	4701.4
26495	6.1109	4.2727	0.1	4592.
26496	5.8343	4.1818	0.1	4842.3
26497	5.9265	4.2727	0.1	4702.8
26498	5.6498	4.1818	0.1	5015.7
26499	5.7421	4.2727	0.1	4835.2
26500	5.4654	4.1818	0.1	5237.6
26501	5.5576	4.2727	0.1	4999.5
26502	5.281	4.1818	0.1	5533.5
26503	5.3732	4.2727	0.1	5212.8
26504	5.0966	4.1818	0.1	5949.5
26505	5.1888	4.2727	0.1	5503.3
26506	4.9121	4.1818	0.1	6569.5
26507	5.0044	4.2727	0.1	5923.1
26508	4.7277	4.1818	0.1	7626.9
26509	4.8199	4.2727	0.1	6556.3
26510	4.5433	4.1818	0.1	9878.7
26511	4.6355	4.2727	0.1	7671.6
26512	4.4511	4.2727	0.1	10095
26513	4.3589	4.1818	0.1	10013
26514	23.723	4.3636	0.1	182.42
26515	23.816	4.4545	0.1	170.12
26516	23.908	4.3636	0.1	167.66
26517	23.539	4.3636	0.1	202.71
26518	23.631	4.4545	0.1	188.02
26519	23.355	4.3636	0.1	226.94
26520	23.447	4.4545	0.1	210.62
26521	23.17	4.3636	0.1	254.06
26522	23.262	4.4545	0.1	236.63
26523	22.986	4.3636	0.1	283.34
26524	23.078	4.4545	0.1	265.13
26525	22.801	4.3636	0.1	314.29
26526	22.893	4.4545	0.1	295.53
26527	22.617	4.3636	0.1	346.55
26528	22.709	4.4545	0.1	327.42
26529	22.432	4.3636	0.1	379.9
26530	22.525	4.4545	0.1	360.49
26531	22.248	4.3636	0.1	414.13
26532	22.34	4.4545	0.1	394.54
26533	22.064	4.3636	0.1	449.13
26534	22.156	4.4545	0.1	429.39
26535	21.879	4.3636	0.1	484.78
26536	21.971	4.4545	0.1	464.94
26537	21.695	4.3636	0.1	521.01
26538	21.787	4.4545	0.1	501.09
26539	21.51	4.3636	0.1	557.75
26540	21.602	4.4545	0.1	537.77
26541	21.326	4.3636	0.1	594.96
26542	21.418	4.4545	0.1	574.93
26543	21.141	4.3636	0.1	632.6
26544	21.234	4.4545	0.1	612.52
26545	20.957	4.3636	0.1	670.63
26546	21.049	4.4545	0.1	650.51
26547	20.773	4.3636	0.1	709.04
26548	20.865	4.4545	0.1	688.86
26549	20.588	4.3636	0.1	747.8
26550	20.68	4.4545	0.1	727.57
26551	20.404	4.3636	0.1	786.89
26552	20.496	4.4545	0.1	766.61
26553	20.219	4.3636	0.1	826.29
26554	20.312	4.4545	0.1	805.96
26555	20.035	4.3636	0.1	866.
26556	20.127	4.4545	0.1	845.62
26557	19.85	4.3636	0.1	906.01
26558	19.943	4.4545	0.1	885.56
26559	19.666	4.3636	0.1	946.3
26560	19.758	4.4545	0.1	925.79
26561	19.482	4.3636	0.1	986.87
26562	19.574	4.4545	0.1	966.29
26563	19.297	4.3636	0.1	1027.7
26564	19.389	4.4545	0.1	1007.1
26565	19.113	4.3636	0.1	1068.8
26566	19.205	4.4545	0.1	1048.1
26567	18.928	4.3636	0.1	1110.2
26568	19.021	4.4545	0.1	1089.4
26569	18.744	4.3636	0.1	1151.8
26570	18.836	4.4545	0.1	1130.9
26571	18.56	4.3636	0.1	1193.7
26572	18.652	4.4545	0.1	1172.7
26573	18.375	4.3636	0.1	1235.8
26574	18.467	4.4545	0.1	1214.7
26575	18.191	4.3636	0.1	1278.1
26576	18.283	4.4545	0.1	1257.
26577	18.006	4.3636	0.1	1320.7
26578	18.098	4.4545	0.1	1299.5
26579	17.822	4.3636	0.1	1363.5
26580	17.914	4.4545	0.1	1342.2
26581	17.637	4.3636	0.1	1406.5
26582	17.73	4.4545	0.1	1385.1
26583	17.453	4.3636	0.1	1449.8
26584	17.545	4.4545	0.1	1428.3
26585	17.269	4.3636	0.1	1493.2
26586	17.361	4.4545	0.1	1471.7
26587	17.084	4.3636	0.1	1536.9
26588	17.176	4.4545	0.1	1515.3
26589	16.9	4.3636	0.1	1580.9
26590	16.992	4.4545	0.1	1559.1
26591	16.715	4.3636	0.1	1625.
26592	16.807	4.4545	0.1	1603.2
26593	16.531	4.3636	0.1	1669.3
26594	16.623	4.4545	0.1	1647.4
26595	16.346	4.3636	0.1	1713.8
26596	16.439	4.4545	0.1	1691.9
26597	16.162	4.3636	0.1	1758.6
26598	16.254	4.4545	0.1	1736.5
26599	15.978	4.3636	0.1	1803.5
26600	16.07	4.4545	0.1	1781.4
26601	15.793	4.3636	0.1	1848.7
26602	15.885	4.4545	0.1	1826.5
26603	15.609	4.3636	0.1	1894.
26604	15.701	4.4545	0.1	1871.7
26605	15.424	4.3636	0.1	1939.5
26606	15.517	4.4545	0.1	1917.2
26607	15.24	4.3636	0.1	1985.2
26608	15.332	4.4545	0.1	1962.8
26609	15.055	4.3636	0.1	2031.2
26610	15.148	4.4545	0.1	2008.6
26611	14.871	4.3636	0.1	2077.2
26612	14.963	4.4545	0.1	2054.7
26613	14.687	4.3636	0.1	2123.5
26614	14.779	4.4545	0.1	2100.9
26615	14.502	4.3636	0.1	2170.
26616	14.594	4.4545	0.1	2147.2
26617	14.318	4.3636	0.1	2216.6
26618	14.41	4.4545	0.1	2193.8
26619	14.133	4.3636	0.1	2263.4
26620	14.226	4.4545	0.1	2240.5
26621	13.949	4.3636	0.1	2310.3
26622	14.041	4.4545	0.1	2287.4
26623	13.764	4.3636	0.1	2357.5
26624	13.857	4.4545	0.1	2334.5
26625	13.58	4.3636	0.1	2404.8
26626	13.672	4.4545	0.1	2381.8
26627	13.396	4.3636	0.1	2452.2
26628	13.488	4.4545	0.1	2429.2
26629	13.211	4.3636	0.1	2499.8
26630	13.303	4.4545	0.1	2476.7
26631	13.027	4.3636	0.1	2547.5
26632	13.119	4.4545	0.1	2524.4
26633	12.842	4.3636	0.1	2595.4
26634	12.935	4.4545	0.1	2572.3
26635	12.658	4.3636	0.1	2643.5
26636	12.75	4.4545	0.1	2620.3
26637	12.474	4.3636	0.1	2691.6
26638	12.566	4.4545	0.1	2668.4
26639	12.289	4.3636	0.1	2739.9
26640	12.381	4.4545	0.1	2716.7
26641	12.105	4.3636	0.1	2788.3
26642	12.197	4.4545	0.1	2765.1
26643	11.92	4.3636	0.1	2836.8
26644	12.012	4.4545	0.1	2813.7
26645	11.736	4.3636	0.1	2885.5
26646	11.828	4.4545	0.1	2862.3
26647	11.551	4.3636	0.1	2934.2
26648	11.644	4.4545	0.1	2911.1
26649	11.367	4.3636	0.1	2983.
26650	11.459	4.4545	0.1	2960.
26651	11.183	4.3636	0.1	3032.
26652	11.275	4.4545	0.1	3009.
26653	10.998	4.3636	0.1	3081.
26654	11.09	4.4545	0.1	3058.1
26655	10.814	4.3636	0.1	3130.1
26656	10.906	4.4545	0.1	3107.2
26657	10.629	4.3636	0.1	3179.3
26658	10.721	4.4545	0.1	3156.5
26659	10.445	4.3636	0.1	3228.6
26660	10.537	4.4545	0.1	3205.9
26661	10.26	4.3636	0.1	3278.
26662	10.353	4.4545	0.1	3255.4
26663	10.076	4.3636	0.1	3327.5
26664	10.168	4.4545	0.1	3304.9
26665	9.8916	4.3636	0.1	3377.
26666	9.9838	4.4545	0.1	3354.6
26667	9.7072	4.3636	0.1	3426.7
26668	9.7994	4.4545	0.1	3404.3
26669	9.5227	4.3636	0.1	3476.5
26670	9.615	4.4545	0.1	3454.2
26671	9.3383	4.3636	0.1	3526.4
26672	9.4305	4.4545	0.1	3504.2
26673	9.1539	4.3636	0.1	3576.4
26674	9.2461	4.4545	0.1	3554.3
26675	8.9695	4.3636	0.1	3626.7
26676	9.0617	4.4545	0.1	3604.6
26677	8.785	4.3636	0.1	3677.3
26678	8.8773	4.4545	0.1	3655.
26679	8.6006	4.3636	0.1	3728.1
26680	8.6928	4.4545	0.1	3705.7
26681	8.4162	4.3636	0.1	3779.3
26682	8.5084	4.4545	0.1	3756.7
26683	8.2318	4.3636	0.1	3831.1
26684	8.324	4.4545	0.1	3808.
26685	8.0474	4.3636	0.1	3883.4
26686	8.1396	4.4545	0.1	3859.7
26687	7.8629	4.3636	0.1	3936.6
26688	7.9551	4.4545	0.1	3911.9
26689	7.6785	4.3636	0.1	3990.6
26690	7.7707	4.4545	0.1	3964.7
26691	7.4941	4.3636	0.1	4045.9
26692	7.5863	4.4545	0.1	4018.2
26693	7.3097	4.3636	0.1	4102.7
26694	7.4019	4.4545	0.1	4072.5
26695	7.1252	4.3636	0.1	4161.2
26696	7.2174	4.4545	0.1	4127.7
26697	6.9408	4.3636	0.1	4222.1
26698	7.033	4.4545	0.1	4184.2
26699	6.7564	4.3636	0.1	4285.8
26700	6.8486	4.4545	0.1	4242.1
26701	6.572	4.3636	0.1	4353.2
26702	6.6642	4.4545	0.1	4301.8
26703	6.3875	4.3636	0.1	4425.5
26704	6.4798	4.4545	0.1	4363.7
26705	6.2031	4.3636	0.1	4504.4
26706	6.2953	4.4545	0.1	4428.9
26707	6.0187	4.3636	0.1	4592.5
26708	6.1109	4.4545	0.1	4498.5
26709	5.8343	4.3636	0.1	4694.
26710	5.9265	4.4545	0.1	4574.9
26711	5.6498	4.3636	0.1	4815.9
26712	5.7421	4.4545	0.1	4662.3
26713	5.4654	4.3636	0.1	4969.6
26714	5.5576	4.4545	0.1	4767.3
26715	5.281	4.3636	0.1	5174.
26716	5.3732	4.4545	0.1	4902.
26717	5.0966	4.3636	0.1	5463.
26718	5.1888	4.4545	0.1	5086.1
26719	4.9121	4.3636	0.1	5887.4
26720	5.0044	4.4545	0.1	5354.5
26721	4.7277	4.3636	0.1	6551.2
26722	4.8199	4.4545	0.1	5757.8
26723	4.5433	4.3636	0.1	7696.1
26724	4.6355	4.4545	0.1	6390.
26725	4.4511	4.4545	0.1	7648.7
26726	4.3589	4.3636	0.1	6931.1
26727	23.723	4.5455	0.1	174.5
26728	23.816	4.6364	0.1	161.44
26729	23.908	4.5455	0.1	159.42
26730	23.539	4.5455	0.1	195.12
26731	23.631	4.6364	0.1	179.62
26732	23.355	4.5455	0.1	219.77
26733	23.447	4.6364	0.1	202.66
26734	23.17	4.5455	0.1	247.35
26735	23.262	4.6364	0.1	229.18
26736	22.986	4.5455	0.1	277.11
26737	23.078	4.6364	0.1	258.22
26738	22.801	4.5455	0.1	308.55
26739	22.893	4.6364	0.1	289.18
26740	22.617	4.5455	0.1	341.3
26741	22.709	4.6364	0.1	321.62
26742	22.432	4.5455	0.1	375.11
26743	22.525	4.6364	0.1	355.23
26744	22.248	4.5455	0.1	409.81
26745	22.34	4.6364	0.1	389.79
26746	22.064	4.5455	0.1	445.23
26747	22.156	4.6364	0.1	425.13
26748	21.879	4.5455	0.1	481.29
26749	21.971	4.6364	0.1	461.13
26750	21.695	4.5455	0.1	517.9
26751	21.787	4.6364	0.1	497.71
26752	21.51	4.5455	0.1	555.
26753	21.602	4.6364	0.1	534.78
26754	21.326	4.5455	0.1	592.54
26755	21.418	4.6364	0.1	572.3
26756	21.141	4.5455	0.1	630.48
26757	21.234	4.6364	0.1	610.22
26758	20.957	4.5455	0.1	668.8
26759	21.049	4.6364	0.1	648.51
26760	20.773	4.5455	0.1	707.46
26761	20.865	4.6364	0.1	687.14
26762	20.588	4.5455	0.1	746.45
26763	20.68	4.6364	0.1	726.1
26764	20.404	4.5455	0.1	785.75
26765	20.496	4.6364	0.1	765.37
26766	20.219	4.5455	0.1	825.35
26767	20.312	4.6364	0.1	804.93
26768	20.035	4.5455	0.1	865.24
26769	20.127	4.6364	0.1	844.78
26770	19.85	4.5455	0.1	905.4
26771	19.943	4.6364	0.1	884.9
26772	19.666	4.5455	0.1	945.84
26773	19.758	4.6364	0.1	925.28
26774	19.482	4.5455	0.1	986.54
26775	19.574	4.6364	0.1	965.93
26776	19.297	4.5455	0.1	1027.5
26777	19.389	4.6364	0.1	1006.8
26778	19.113	4.5455	0.1	1068.7
26779	19.205	4.6364	0.1	1048.
26780	18.928	4.5455	0.1	1110.2
26781	19.021	4.6364	0.1	1089.4
26782	18.744	4.5455	0.1	1151.9
26783	18.836	4.6364	0.1	1131.
26784	18.56	4.5455	0.1	1193.8
26785	18.652	4.6364	0.1	1172.9
26786	18.375	4.5455	0.1	1236.
26787	18.467	4.6364	0.1	1215.
26788	18.191	4.5455	0.1	1278.4
26789	18.283	4.6364	0.1	1257.3
26790	18.006	4.5455	0.1	1321.
26791	18.098	4.6364	0.1	1299.9
26792	17.822	4.5455	0.1	1363.9
26793	17.914	4.6364	0.1	1342.6
26794	17.637	4.5455	0.1	1407.
26795	17.73	4.6364	0.1	1385.7
26796	17.453	4.5455	0.1	1450.3
26797	17.545	4.6364	0.1	1428.9
26798	17.269	4.5455	0.1	1493.8
26799	17.361	4.6364	0.1	1472.3
26800	17.084	4.5455	0.1	1537.6
26801	17.176	4.6364	0.1	1516.
26802	16.9	4.5455	0.1	1581.5
26803	16.992	4.6364	0.1	1559.8
26804	16.715	4.5455	0.1	1625.7
26805	16.807	4.6364	0.1	1603.9
26806	16.531	4.5455	0.1	1670.
26807	16.623	4.6364	0.1	1648.2
26808	16.346	4.5455	0.1	1714.6
26809	16.439	4.6364	0.1	1692.7
26810	16.162	4.5455	0.1	1759.4
26811	16.254	4.6364	0.1	1737.4
26812	15.978	4.5455	0.1	1804.4
26813	16.07	4.6364	0.1	1782.3
26814	15.793	4.5455	0.1	1849.5
26815	15.885	4.6364	0.1	1827.4
26816	15.609	4.5455	0.1	1894.9
26817	15.701	4.6364	0.1	1872.7
26818	15.424	4.5455	0.1	1940.5
26819	15.517	4.6364	0.1	1918.2
26820	15.24	4.5455	0.1	1986.2
26821	15.332	4.6364	0.1	1963.8
26822	15.055	4.5455	0.1	2032.2
26823	15.148	4.6364	0.1	2009.7
26824	14.871	4.5455	0.1	2078.3
26825	14.963	4.6364	0.1	2055.8
26826	14.687	4.5455	0.1	2124.6
26827	14.779	4.6364	0.1	2102.
26828	14.502	4.5455	0.1	2171.1
26829	14.594	4.6364	0.1	2148.4
26830	14.318	4.5455	0.1	2217.8
26831	14.41	4.6364	0.1	2195.1
26832	14.133	4.5455	0.1	2264.6
26833	14.226	4.6364	0.1	2241.8
26834	13.949	4.5455	0.1	2311.7
26835	14.041	4.6364	0.1	2288.8
26836	13.764	4.5455	0.1	2358.8
26837	13.857	4.6364	0.1	2335.9
26838	13.58	4.5455	0.1	2406.2
26839	13.672	4.6364	0.1	2383.2
26840	13.396	4.5455	0.1	2453.7
26841	13.488	4.6364	0.1	2430.7
26842	13.211	4.5455	0.1	2501.4
26843	13.303	4.6364	0.1	2478.4
26844	13.027	4.5455	0.1	2549.2
26845	13.119	4.6364	0.1	2526.1
26846	12.842	4.5455	0.1	2597.2
26847	12.935	4.6364	0.1	2574.1
26848	12.658	4.5455	0.1	2645.3
26849	12.75	4.6364	0.1	2622.2
26850	12.474	4.5455	0.1	2693.6
26851	12.566	4.6364	0.1	2670.5
26852	12.289	4.5455	0.1	2742.
26853	12.381	4.6364	0.1	2718.9
26854	12.105	4.5455	0.1	2790.5
26855	12.197	4.6364	0.1	2767.4
26856	11.92	4.5455	0.1	2839.2
26857	12.012	4.6364	0.1	2816.1
26858	11.736	4.5455	0.1	2888.
26859	11.828	4.6364	0.1	2864.9
26860	11.551	4.5455	0.1	2936.9
26861	11.644	4.6364	0.1	2913.8
26862	11.367	4.5455	0.1	2985.9
26863	11.459	4.6364	0.1	2962.9
26864	11.183	4.5455	0.1	3035.1
26865	11.275	4.6364	0.1	3012.1
26866	10.998	4.5455	0.1	3084.3
26867	11.09	4.6364	0.1	3061.4
26868	10.814	4.5455	0.1	3133.6
26869	10.906	4.6364	0.1	3110.8
26870	10.629	4.5455	0.1	3183.1
26871	10.721	4.6364	0.1	3160.3
26872	10.445	4.5455	0.1	3232.6
26873	10.537	4.6364	0.1	3209.9
26874	10.26	4.5455	0.1	3282.3
26875	10.353	4.6364	0.1	3259.6
26876	10.076	4.5455	0.1	3332.
26877	10.168	4.6364	0.1	3309.5
26878	9.8916	4.5455	0.1	3381.9
26879	9.9838	4.6364	0.1	3359.4
26880	9.7072	4.5455	0.1	3431.8
26881	9.7994	4.6364	0.1	3409.5
26882	9.5227	4.5455	0.1	3481.9
26883	9.615	4.6364	0.1	3459.6
26884	9.3383	4.5455	0.1	3532.1
26885	9.4305	4.6364	0.1	3509.9
26886	9.1539	4.5455	0.1	3582.4
26887	9.2461	4.6364	0.1	3560.3
26888	8.9695	4.5455	0.1	3632.9
26889	9.0617	4.6364	0.1	3610.7
26890	8.785	4.5455	0.1	3683.5
26891	8.8773	4.6364	0.1	3661.3
26892	8.6006	4.5455	0.1	3734.3
26893	8.6928	4.6364	0.1	3712.1
26894	8.4162	4.5455	0.1	3785.4
26895	8.5084	4.6364	0.1	3762.9
26896	8.2318	4.5455	0.1	3836.7
26897	8.324	4.6364	0.1	3813.9
26898	8.0474	4.5455	0.1	3888.2
26899	8.1396	4.6364	0.1	3865.
26900	7.8629	4.5455	0.1	3940.1
26901	7.9551	4.6364	0.1	3916.1
26902	7.6785	4.5455	0.1	3992.3
26903	7.7707	4.6364	0.1	3967.3
26904	7.4941	4.5455	0.1	4044.8
26905	7.5863	4.6364	0.1	4018.4
26906	7.3097	4.5455	0.1	4097.6
26907	7.4019	4.6364	0.1	4069.3
26908	7.1252	4.5455	0.1	4150.8
26909	7.2174	4.6364	0.1	4120.
26910	6.9408	4.5455	0.1	4204.3
26911	7.033	4.6364	0.1	4170.1
26912	6.7564	4.5455	0.1	4258.1
26913	6.8486	4.6364	0.1	4219.5
26914	6.572	4.5455	0.1	4312.2
26915	6.6642	4.6364	0.1	4267.7
26916	6.3875	4.5455	0.1	4366.8
26917	6.4798	4.6364	0.1	4314.5
26918	6.2031	4.5455	0.1	4422.4
26919	6.2953	4.6364	0.1	4359.5
26920	6.0187	4.5455	0.1	4479.9
26921	6.1109	4.6364	0.1	4402.7
26922	5.8343	4.5455	0.1	4541.1
26923	5.9265	4.6364	0.1	4444.4
26924	5.6498	4.5455	0.1	4609.9
26925	5.7421	4.6364	0.1	4486.1
26926	5.4654	4.5455	0.1	4693.1
26927	5.5576	4.6364	0.1	4531.
26928	5.281	4.5455	0.1	4802.4
26929	5.3732	4.6364	0.1	4585.6
26930	5.0966	4.5455	0.1	4957.2
26931	5.1888	4.6364	0.1	4661.9
26932	4.9121	4.5455	0.1	5187.5
26933	5.0044	4.6364	0.1	4779.3
26934	4.7277	4.5455	0.1	5523.3
26935	4.8199	4.6364	0.1	4968.1
26936	4.5433	4.5455	0.1	6127.4
26937	4.6355	4.6364	0.1	5264.1
26938	4.4511	4.6364	0.1	5948.4
26939	4.3589	4.5455	0.1	5383.2
26940	23.723	4.7273	0.1	165.32
26941	23.816	4.8182	0.1	151.39
26942	23.908	4.7273	0.1	149.85
26943	23.539	4.7273	0.1	186.36
26944	23.631	4.8182	0.1	169.94
26945	23.355	4.7273	0.1	211.56
26946	23.447	4.8182	0.1	193.56
26947	23.17	4.7273	0.1	239.74
26948	23.262	4.8182	0.1	220.74
26949	22.986	4.7273	0.1	270.11
26950	23.078	4.8182	0.1	250.48
26951	22.801	4.7273	0.1	302.16
26952	22.893	4.8182	0.1	282.15
26953	22.617	4.7273	0.1	335.51
26954	22.709	4.8182	0.1	315.27
26955	22.432	4.7273	0.1	369.9
26956	22.525	4.8182	0.1	349.54
26957	22.248	4.7273	0.1	405.14
26958	22.34	4.8182	0.1	384.71
26959	22.064	4.7273	0.1	441.07
26960	22.156	4.8182	0.1	420.61
26961	21.879	4.7273	0.1	477.6
26962	21.971	4.8182	0.1	457.14
26963	21.695	4.7273	0.1	514.64
26964	21.787	4.8182	0.1	494.19
26965	21.51	4.7273	0.1	552.13
26966	21.602	4.8182	0.1	531.69
26967	21.326	4.7273	0.1	590.03
26968	21.418	4.8182	0.1	569.6
26969	21.141	4.7273	0.1	628.3
26970	21.234	4.8182	0.1	607.88
26971	20.957	4.7273	0.1	666.92
26972	21.049	4.8182	0.1	646.49
26973	20.773	4.7273	0.1	705.85
26974	20.865	4.8182	0.1	685.42
26975	20.588	4.7273	0.1	745.09
26976	20.68	4.8182	0.1	724.65
26977	20.404	4.7273	0.1	784.62
26978	20.496	4.8182	0.1	764.16
26979	20.219	4.7273	0.1	824.42
26980	20.312	4.8182	0.1	803.94
26981	20.035	4.7273	0.1	864.5
26982	20.127	4.8182	0.1	843.99
26983	19.85	4.7273	0.1	904.84
26984	19.943	4.8182	0.1	884.29
26985	19.666	4.7273	0.1	945.43
26986	19.758	4.8182	0.1	924.84
26987	19.482	4.7273	0.1	986.27
26988	19.574	4.8182	0.1	965.63
26989	19.297	4.7273	0.1	1027.4
26990	19.389	4.8182	0.1	1006.7
26991	19.113	4.7273	0.1	1068.7
26992	19.205	4.8182	0.1	1047.9
26993	18.928	4.7273	0.1	1110.2
26994	19.021	4.8182	0.1	1089.4
26995	18.744	4.7273	0.1	1152.
26996	18.836	4.8182	0.1	1131.2
26997	18.56	4.7273	0.1	1194.1
26998	18.652	4.8182	0.1	1173.1
26999	18.375	4.7273	0.1	1236.3
27000	18.467	4.8182	0.1	1215.3
27001	18.191	4.7273	0.1	1278.8
27002	18.283	4.8182	0.1	1257.7
27003	18.006	4.7273	0.1	1321.5
27004	18.098	4.8182	0.1	1300.4
27005	17.822	4.7273	0.1	1364.4
27006	17.914	4.8182	0.1	1343.2
27007	17.637	4.7273	0.1	1407.6
27008	17.73	4.8182	0.1	1386.3
27009	17.453	4.7273	0.1	1450.9
27010	17.545	4.8182	0.1	1429.5
27011	17.269	4.7273	0.1	1494.5
27012	17.361	4.8182	0.1	1473.
27013	17.084	4.7273	0.1	1538.3
27014	17.176	4.8182	0.1	1516.7
27015	16.9	4.7273	0.1	1582.3
27016	16.992	4.8182	0.1	1560.6
27017	16.715	4.7273	0.1	1626.5
27018	16.807	4.8182	0.1	1604.8
27019	16.531	4.7273	0.1	1670.9
27020	16.623	4.8182	0.1	1649.1
27021	16.346	4.7273	0.1	1715.5
27022	16.439	4.8182	0.1	1693.6
27023	16.162	4.7273	0.1	1760.3
27024	16.254	4.8182	0.1	1738.4
27025	15.978	4.7273	0.1	1805.3
27026	16.07	4.8182	0.1	1783.3
27027	15.793	4.7273	0.1	1850.5
27028	15.885	4.8182	0.1	1828.4
27029	15.609	4.7273	0.1	1896.
27030	15.701	4.8182	0.1	1873.8
27031	15.424	4.7273	0.1	1941.6
27032	15.517	4.8182	0.1	1919.3
27033	15.24	4.7273	0.1	1987.4
27034	15.332	4.8182	0.1	1965.
27035	15.055	4.7273	0.1	2033.3
27036	15.148	4.8182	0.1	2010.9
27037	14.871	4.7273	0.1	2079.5
27038	14.963	4.8182	0.1	2057.
27039	14.687	4.7273	0.1	2125.9
27040	14.779	4.8182	0.1	2103.3
27041	14.502	4.7273	0.1	2172.4
27042	14.594	4.8182	0.1	2149.8
27043	14.318	4.7273	0.1	2219.1
27044	14.41	4.8182	0.1	2196.4
27045	14.133	4.7273	0.1	2266.
27046	14.226	4.8182	0.1	2243.3
27047	13.949	4.7273	0.1	2313.1
27048	14.041	4.8182	0.1	2290.3
27049	13.764	4.7273	0.1	2360.4
27050	13.857	4.8182	0.1	2337.5
27051	13.58	4.7273	0.1	2407.8
27052	13.672	4.8182	0.1	2384.9
27053	13.396	4.7273	0.1	2455.4
27054	13.488	4.8182	0.1	2432.4
27055	13.211	4.7273	0.1	2503.2
27056	13.303	4.8182	0.1	2480.2
27057	13.027	4.7273	0.1	2551.1
27058	13.119	4.8182	0.1	2528.
27059	12.842	4.7273	0.1	2599.1
27060	12.935	4.8182	0.1	2576.1
27061	12.658	4.7273	0.1	2647.4
27062	12.75	4.8182	0.1	2624.3
27063	12.474	4.7273	0.1	2695.8
27064	12.566	4.8182	0.1	2672.7
27065	12.289	4.7273	0.1	2744.3
27066	12.381	4.8182	0.1	2721.2
27067	12.105	4.7273	0.1	2793.
27068	12.197	4.8182	0.1	2769.9
27069	11.92	4.7273	0.1	2841.8
27070	12.012	4.8182	0.1	2818.7
27071	11.736	4.7273	0.1	2890.7
27072	11.828	4.8182	0.1	2867.7
27073	11.551	4.7273	0.1	2939.8
27074	11.644	4.8182	0.1	2916.8
27075	11.367	4.7273	0.1	2989.
27076	11.459	4.8182	0.1	2966.
27077	11.183	4.7273	0.1	3038.4
27078	11.275	4.8182	0.1	3015.4
27079	10.998	4.7273	0.1	3087.8
27080	11.09	4.8182	0.1	3064.9
27081	10.814	4.7273	0.1	3137.4
27082	10.906	4.8182	0.1	3114.6
27083	10.629	4.7273	0.1	3187.1
27084	10.721	4.8182	0.1	3164.3
27085	10.445	4.7273	0.1	3236.9
27086	10.537	4.8182	0.1	3214.2
27087	10.26	4.7273	0.1	3286.9
27088	10.353	4.8182	0.1	3264.2
27089	10.076	4.7273	0.1	3336.9
27090	10.168	4.8182	0.1	3314.3
27091	9.8916	4.7273	0.1	3387.
27092	9.9838	4.8182	0.1	3364.6
27093	9.7072	4.7273	0.1	3437.3
27094	9.7994	4.8182	0.1	3414.9
27095	9.5227	4.7273	0.1	3487.6
27096	9.615	4.8182	0.1	3465.3
27097	9.3383	4.7273	0.1	3538.1
27098	9.4305	4.8182	0.1	3515.8
27099	9.1539	4.7273	0.1	3588.6
27100	9.2461	4.8182	0.1	3566.4
27101	8.9695	4.7273	0.1	3639.2
27102	9.0617	4.8182	0.1	3617.1
27103	8.785	4.7273	0.1	3689.9
27104	8.8773	4.8182	0.1	3667.8
27105	8.6006	4.7273	0.1	3740.7
27106	8.6928	4.8182	0.1	3718.5
27107	8.4162	4.7273	0.1	3791.5
27108	8.5084	4.8182	0.1	3769.1
27109	8.2318	4.7273	0.1	3842.2
27110	8.324	4.8182	0.1	3819.7
27111	8.0474	4.7273	0.1	3892.9
27112	8.1396	4.8182	0.1	3870.
27113	7.8629	4.7273	0.1	3943.3
27114	7.9551	4.8182	0.1	3919.9
27115	7.6785	4.7273	0.1	3993.4
27116	7.7707	4.8182	0.1	3969.4
27117	7.4941	4.7273	0.1	4043.
27118	7.5863	4.8182	0.1	4018.
27119	7.3097	4.7273	0.1	4091.8
27120	7.4019	4.8182	0.1	4065.5
27121	7.1252	4.7273	0.1	4139.4
27122	7.2174	4.8182	0.1	4111.4
27123	6.9408	4.7273	0.1	4185.3
27124	7.033	4.8182	0.1	4155.1
27125	6.7564	4.7273	0.1	4229.1
27126	6.8486	4.8182	0.1	4195.8
27127	6.572	4.7273	0.1	4269.8
27128	6.6642	4.8182	0.1	4232.6
27129	6.3875	4.7273	0.1	4306.8
27130	6.4798	4.8182	0.1	4264.3
27131	6.2031	4.7273	0.1	4339.1
27132	6.2953	4.8182	0.1	4289.5
27133	6.0187	4.7273	0.1	4366.
27134	6.1109	4.8182	0.1	4306.7
27135	5.8343	4.7273	0.1	4387.1
27136	5.9265	4.8182	0.1	4314.4
27137	5.6498	4.7273	0.1	4402.9
27138	5.7421	4.8182	0.1	4311.5
27139	5.4654	4.7273	0.1	4415.7
27140	5.5576	4.8182	0.1	4297.6
27141	5.281	4.7273	0.1	4431.
27142	5.3732	4.8182	0.1	4274.6
27143	5.0966	4.7273	0.1	4458.9
27144	5.1888	4.8182	0.1	4248.
27145	4.9121	4.7273	0.1	4515.2
27146	5.0044	4.8182	0.1	4229.9
27147	4.7277	4.7273	0.1	4627.8
27148	4.8199	4.8182	0.1	4240.9
27149	4.5433	4.7273	0.1	4939.7
27150	4.6355	4.8182	0.1	4322.6
27151	4.4511	4.8182	0.1	4722.3
27152	4.3589	4.7273	0.1	4238.8
27153	23.723	4.9091	0.1	154.77
27154	23.816	5.	0.1	139.82
27155	23.908	4.9091	0.1	138.79
27156	23.539	4.9091	0.1	176.37
27157	23.631	5.	0.1	158.86
27158	23.355	4.9091	0.1	202.28
27159	23.447	5.	0.1	183.26
27160	23.17	4.9091	0.1	231.23
27161	23.262	5.	0.1	211.32
27162	22.986	4.9091	0.1	262.4
27163	23.078	5.	0.1	241.99
27164	22.801	4.9091	0.1	295.22
27165	22.893	5.	0.1	274.55
27166	22.617	4.9091	0.1	329.3
27167	22.709	5.	0.1	308.52
27168	22.432	4.9091	0.1	364.38
27169	22.525	5.	0.1	343.56
27170	22.248	4.9091	0.1	400.24
27171	22.34	5.	0.1	379.44
27172	22.064	4.9091	0.1	436.75
27173	22.156	5.	0.1	415.98
27174	21.879	4.9091	0.1	473.8
27175	21.971	5.	0.1	453.08
27176	21.695	4.9091	0.1	511.31
27177	21.787	5.	0.1	490.65
27178	21.51	4.9091	0.1	549.23
27179	21.602	5.	0.1	528.61
27180	21.326	4.9091	0.1	587.52
27181	21.418	5.	0.1	566.94
27182	21.141	4.9091	0.1	626.14
27183	21.234	5.	0.1	605.6
27184	20.957	4.9091	0.1	665.07
27185	21.049	5.	0.1	644.55
27186	20.773	4.9091	0.1	704.3
27187	20.865	5.	0.1	683.79
27188	20.588	4.9091	0.1	743.79
27189	20.68	5.	0.1	723.29
27190	20.404	4.9091	0.1	783.56
27191	20.496	5.	0.1	763.05
27192	20.219	4.9091	0.1	823.57
27193	20.312	5.	0.1	803.05
27194	20.035	4.9091	0.1	863.84
27195	20.127	5.	0.1	843.3
27196	19.85	4.9091	0.1	904.35
27197	19.943	5.	0.1	883.79
27198	19.666	4.9091	0.1	945.1
27199	19.758	5.	0.1	924.5
27200	19.482	4.9091	0.1	986.09
27201	19.574	5.	0.1	965.45
27202	19.297	4.9091	0.1	1027.3
27203	19.389	5.	0.1	1006.6
27204	19.113	4.9091	0.1	1068.8
27205	19.205	5.	0.1	1048.
27206	18.928	4.9091	0.1	1110.4
27207	19.021	5.	0.1	1089.6
27208	18.744	4.9091	0.1	1152.3
27209	18.836	5.	0.1	1131.5
27210	18.56	4.9091	0.1	1194.4
27211	18.652	5.	0.1	1173.5
27212	18.375	4.9091	0.1	1236.8
27213	18.467	5.	0.1	1215.8
27214	18.191	4.9091	0.1	1279.3
27215	18.283	5.	0.1	1258.3
27216	18.006	4.9091	0.1	1322.1
27217	18.098	5.	0.1	1301.
27218	17.822	4.9091	0.1	1365.1
27219	17.914	5.	0.1	1343.9
27220	17.637	4.9091	0.1	1408.3
27221	17.73	5.	0.1	1387.
27222	17.453	4.9091	0.1	1451.7
27223	17.545	5.	0.1	1430.3
27224	17.269	4.9091	0.1	1495.3
27225	17.361	5.	0.1	1473.9
27226	17.084	4.9091	0.1	1539.1
27227	17.176	5.	0.1	1517.6
27228	16.9	4.9091	0.1	1583.2
27229	16.992	5.	0.1	1561.6
27230	16.715	4.9091	0.1	1627.4
27231	16.807	5.	0.1	1605.7
27232	16.531	4.9091	0.1	1671.9
27233	16.623	5.	0.1	1650.1
27234	16.346	4.9091	0.1	1716.5
27235	16.439	5.	0.1	1694.7
27236	16.162	4.9091	0.1	1761.4
27237	16.254	5.	0.1	1739.4
27238	15.978	4.9091	0.1	1806.4
27239	16.07	5.	0.1	1784.4
27240	15.793	4.9091	0.1	1851.7
27241	15.885	5.	0.1	1829.6
27242	15.609	4.9091	0.1	1897.1
27243	15.701	5.	0.1	1875.
27244	15.424	4.9091	0.1	1942.8
27245	15.517	5.	0.1	1920.5
27246	15.24	4.9091	0.1	1988.6
27247	15.332	5.	0.1	1966.3
27248	15.055	4.9091	0.1	2034.6
27249	15.148	5.	0.1	2012.2
27250	14.871	4.9091	0.1	2080.8
27251	14.963	5.	0.1	2058.4
27252	14.687	4.9091	0.1	2127.3
27253	14.779	5.	0.1	2104.7
27254	14.502	4.9091	0.1	2173.8
27255	14.594	5.	0.1	2151.3
27256	14.318	4.9091	0.1	2220.6
27257	14.41	5.	0.1	2198.
27258	14.133	4.9091	0.1	2267.6
27259	14.226	5.	0.1	2244.9
27260	13.949	4.9091	0.1	2314.7
27261	14.041	5.	0.1	2292.
27262	13.764	4.9091	0.1	2362.1
27263	13.857	5.	0.1	2339.2
27264	13.58	4.9091	0.1	2409.6
27265	13.672	5.	0.1	2386.7
27266	13.396	4.9091	0.1	2457.2
27267	13.488	5.	0.1	2434.3
27268	13.211	4.9091	0.1	2505.1
27269	13.303	5.	0.1	2482.1
27270	13.027	4.9091	0.1	2553.1
27271	13.119	5.	0.1	2530.1
27272	12.842	4.9091	0.1	2601.3
27273	12.935	5.	0.1	2578.3
27274	12.658	4.9091	0.1	2649.6
27275	12.75	5.	0.1	2626.6
27276	12.474	4.9091	0.1	2698.1
27277	12.566	5.	0.1	2675.1
27278	12.289	4.9091	0.1	2746.8
27279	12.381	5.	0.1	2723.7
27280	12.105	4.9091	0.1	2795.6
27281	12.197	5.	0.1	2772.5
27282	11.92	4.9091	0.1	2844.6
27283	12.012	5.	0.1	2821.5
27284	11.736	4.9091	0.1	2893.7
27285	11.828	5.	0.1	2870.7
27286	11.551	4.9091	0.1	2943.
27287	11.644	5.	0.1	2919.9
27288	11.367	4.9091	0.1	2992.4
27289	11.459	5.	0.1	2969.4
27290	11.183	4.9091	0.1	3042.
27291	11.275	5.	0.1	3019.
27292	10.998	4.9091	0.1	3091.6
27293	11.09	5.	0.1	3068.7
27294	10.814	4.9091	0.1	3141.5
27295	10.906	5.	0.1	3118.6
27296	10.629	4.9091	0.1	3191.4
27297	10.721	5.	0.1	3168.6
27298	10.445	4.9091	0.1	3241.5
27299	10.537	5.	0.1	3218.7
27300	10.26	4.9091	0.1	3291.7
27301	10.353	5.	0.1	3269.
27302	10.076	4.9091	0.1	3342.
27303	10.168	5.	0.1	3319.4
27304	9.8916	4.9091	0.1	3392.4
27305	9.9838	5.	0.1	3369.9
27306	9.7072	4.9091	0.1	3442.9
27307	9.7994	5.	0.1	3420.5
27308	9.5227	4.9091	0.1	3493.6
27309	9.615	5.	0.1	3471.2
27310	9.3383	4.9091	0.1	3544.2
27311	9.4305	5.	0.1	3521.9
27312	9.1539	4.9091	0.1	3594.9
27313	9.2461	5.	0.1	3572.7
27314	8.9695	4.9091	0.1	3645.7
27315	9.0617	5.	0.1	3623.5
27316	8.785	4.9091	0.1	3696.4
27317	8.8773	5.	0.1	3674.2
27318	8.6006	4.9091	0.1	3747.
27319	8.6928	5.	0.1	3724.8
27320	8.4162	4.9091	0.1	3797.4
27321	8.5084	5.	0.1	3775.2
27322	8.2318	4.9091	0.1	3847.5
27323	8.324	5.	0.1	3825.2
27324	8.0474	4.9091	0.1	3897.1
27325	8.1396	5.	0.1	3874.7
27326	7.8629	4.9091	0.1	3946.1
27327	7.9551	5.	0.1	3923.4
27328	7.6785	4.9091	0.1	3994.
27329	7.7707	5.	0.1	3970.9
27330	7.4941	4.9091	0.1	4040.5
27331	7.5863	5.	0.1	4017.
27332	7.3097	4.9091	0.1	4085.2
27333	7.4019	5.	0.1	4060.9
27334	7.1252	4.9091	0.1	4127.1
27335	7.2174	5.	0.1	4102.
27336	6.9408	4.9091	0.1	4165.6
27337	7.033	5.	0.1	4139.3
27338	6.7564	4.9091	0.1	4199.3
27339	6.8486	5.	0.1	4171.6
27340	6.572	4.9091	0.1	4227.
27341	6.6642	5.	0.1	4197.2
27342	6.3875	4.9091	0.1	4246.7
27343	6.4798	5.	0.1	4214.4
27344	6.2031	4.9091	0.1	4256.4
27345	6.2953	5.	0.1	4220.6
27346	6.0187	4.9091	0.1	4253.8
27347	6.1109	5.	0.1	4213.1
27348	5.8343	4.9091	0.1	4236.3
27349	5.9265	5.	0.1	4188.7
27350	5.6498	4.9091	0.1	4201.6
27351	5.7421	5.	0.1	4143.9
27352	5.4654	4.9091	0.1	4148.1
27353	5.5576	5.	0.1	4075.5
27354	5.281	4.9091	0.1	4076.7
27355	5.3732	5.	0.1	3981.7
27356	5.0966	4.9091	0.1	3992.9
27357	5.1888	5.	0.1	3863.7
27358	4.9121	4.9091	0.1	3910.7
27359	5.0044	5.	0.1	3730.7
27360	4.7277	4.9091	0.1	3862.5
27361	4.8199	5.	0.1	3604.7
27362	4.5433	4.9091	0.1	3991.8
27363	4.6355	5.	0.1	3537.
27364	4.4511	5.	0.1	3761.1
27365	4.3589	4.9091	0.1	3381.3
27366	23.723	5.0909	0.1	142.67
27367	23.816	5.1818	0.1	126.47
27368	23.908	5.0909	0.1	126.04
27369	23.539	5.0909	0.1	165.03
27370	23.631	5.1818	0.1	146.23
27371	23.355	5.0909	0.1	191.92
27372	23.447	5.1818	0.1	171.72
27373	23.17	5.0909	0.1	221.91
27374	23.262	5.1818	0.1	201.02
27375	22.986	5.0909	0.1	254.09
27376	23.078	5.1818	0.1	232.9
27377	22.801	5.0909	0.1	287.87
27378	22.893	5.1818	0.1	266.59
27379	22.617	5.0909	0.1	322.83
27380	22.709	5.1818	0.1	301.57
27381	22.432	5.0909	0.1	358.7
27382	22.525	5.1818	0.1	337.51
27383	22.248	5.0909	0.1	395.27
27384	22.34	5.1818	0.1	374.18
27385	22.064	5.0909	0.1	432.41
27386	22.156	5.1818	0.1	411.42
27387	21.879	5.0909	0.1	470.02
27388	21.971	5.1818	0.1	449.13
27389	21.695	5.0909	0.1	508.04
27390	21.787	5.1818	0.1	487.23
27391	21.51	5.0909	0.1	546.41
27392	21.602	5.1818	0.1	525.68
27393	21.326	5.0909	0.1	585.11
27394	21.418	5.1818	0.1	564.44
27395	21.141	5.0909	0.1	624.09
27396	21.234	5.1818	0.1	603.47
27397	20.957	5.0909	0.1	663.34
27398	21.049	5.1818	0.1	642.77
27399	20.773	5.0909	0.1	702.86
27400	20.865	5.1818	0.1	682.31
27401	20.588	5.0909	0.1	742.62
27402	20.68	5.1818	0.1	722.08
27403	20.404	5.0909	0.1	782.62
27404	20.496	5.1818	0.1	762.09
27405	20.219	5.0909	0.1	822.85
27406	20.312	5.1818	0.1	802.32
27407	20.035	5.0909	0.1	863.31
27408	20.127	5.1818	0.1	842.77
27409	19.85	5.0909	0.1	904.
27410	19.943	5.1818	0.1	883.44
27411	19.666	5.0909	0.1	944.91
27412	19.758	5.1818	0.1	924.32
27413	19.482	5.0909	0.1	986.04
27414	19.574	5.1818	0.1	965.41
27415	19.297	5.0909	0.1	1027.4
27416	19.389	5.1818	0.1	1006.7
27417	19.113	5.0909	0.1	1068.9
27418	19.205	5.1818	0.1	1048.2
27419	18.928	5.0909	0.1	1110.7
27420	19.021	5.1818	0.1	1090.
27421	18.744	5.0909	0.1	1152.7
27422	18.836	5.1818	0.1	1131.9
27423	18.56	5.0909	0.1	1194.9
27424	18.652	5.1818	0.1	1174.
27425	18.375	5.0909	0.1	1237.3
27426	18.467	5.1818	0.1	1216.4
27427	18.191	5.0909	0.1	1280.
27428	18.283	5.1818	0.1	1258.9
27429	18.006	5.0909	0.1	1322.8
27430	18.098	5.1818	0.1	1301.7
27431	17.822	5.0909	0.1	1365.8
27432	17.914	5.1818	0.1	1344.7
27433	17.637	5.0909	0.1	1409.1
27434	17.73	5.1818	0.1	1387.9
27435	17.453	5.0909	0.1	1452.6
27436	17.545	5.1818	0.1	1431.2
27437	17.269	5.0909	0.1	1496.2
27438	17.361	5.1818	0.1	1474.8
27439	17.084	5.0909	0.1	1540.1
27440	17.176	5.1818	0.1	1518.6
27441	16.9	5.0909	0.1	1584.2
27442	16.992	5.1818	0.1	1562.6
27443	16.715	5.0909	0.1	1628.5
27444	16.807	5.1818	0.1	1606.8
27445	16.531	5.0909	0.1	1673.
27446	16.623	5.1818	0.1	1651.2
27447	16.346	5.0909	0.1	1717.6
27448	16.439	5.1818	0.1	1695.9
27449	16.162	5.0909	0.1	1762.5
27450	16.254	5.1818	0.1	1740.7
27451	15.978	5.0909	0.1	1807.6
27452	16.07	5.1818	0.1	1785.7
27453	15.793	5.0909	0.1	1852.9
27454	15.885	5.1818	0.1	1830.9
27455	15.609	5.0909	0.1	1898.4
27456	15.701	5.1818	0.1	1876.3
27457	15.424	5.0909	0.1	1944.1
27458	15.517	5.1818	0.1	1921.9
27459	15.24	5.0909	0.1	1990.
27460	15.332	5.1818	0.1	1967.7
27461	15.055	5.0909	0.1	2036.
27462	15.148	5.1818	0.1	2013.7
27463	14.871	5.0909	0.1	2082.3
27464	14.963	5.1818	0.1	2059.9
27465	14.687	5.0909	0.1	2128.8
27466	14.779	5.1818	0.1	2106.3
27467	14.502	5.0909	0.1	2175.4
27468	14.594	5.1818	0.1	2152.9
27469	14.318	5.0909	0.1	2222.3
27470	14.41	5.1818	0.1	2199.6
27471	14.133	5.0909	0.1	2269.3
27472	14.226	5.1818	0.1	2246.6
27473	13.949	5.0909	0.1	2316.5
27474	14.041	5.1818	0.1	2293.8
27475	13.764	5.0909	0.1	2363.9
27476	13.857	5.1818	0.1	2341.1
27477	13.58	5.0909	0.1	2411.5
27478	13.672	5.1818	0.1	2388.6
27479	13.396	5.0909	0.1	2459.2
27480	13.488	5.1818	0.1	2436.3
27481	13.211	5.0909	0.1	2507.2
27482	13.303	5.1818	0.1	2484.2
27483	13.027	5.0909	0.1	2555.3
27484	13.119	5.1818	0.1	2532.3
27485	12.842	5.0909	0.1	2603.6
27486	12.935	5.1818	0.1	2580.6
27487	12.658	5.0909	0.1	2652.
27488	12.75	5.1818	0.1	2629.
27489	12.474	5.0909	0.1	2700.7
27490	12.566	5.1818	0.1	2677.6
27491	12.289	5.0909	0.1	2749.5
27492	12.381	5.1818	0.1	2726.4
27493	12.105	5.0909	0.1	2798.5
27494	12.197	5.1818	0.1	2775.4
27495	11.92	5.0909	0.1	2847.6
27496	12.012	5.1818	0.1	2824.5
27497	11.736	5.0909	0.1	2896.9
27498	11.828	5.1818	0.1	2873.8
27499	11.551	5.0909	0.1	2946.4
27500	11.644	5.1818	0.1	2923.3
27501	11.367	5.0909	0.1	2996.
27502	11.459	5.1818	0.1	2972.9
27503	11.183	5.0909	0.1	3045.7
27504	11.275	5.1818	0.1	3022.7
27505	10.998	5.0909	0.1	3095.7
27506	11.09	5.1818	0.1	3072.7
27507	10.814	5.0909	0.1	3145.7
27508	10.906	5.1818	0.1	3122.8
27509	10.629	5.0909	0.1	3195.9
27510	10.721	5.1818	0.1	3173.1
27511	10.445	5.0909	0.1	3246.3
27512	10.537	5.1818	0.1	3223.5
27513	10.26	5.0909	0.1	3296.7
27514	10.353	5.1818	0.1	3274.
27515	10.076	5.0909	0.1	3347.3
27516	10.168	5.1818	0.1	3324.7
27517	9.8916	5.0909	0.1	3398.
27518	9.9838	5.1818	0.1	3375.4
27519	9.7072	5.0909	0.1	3448.8
27520	9.7994	5.1818	0.1	3426.3
27521	9.5227	5.0909	0.1	3499.6
27522	9.615	5.1818	0.1	3477.2
27523	9.3383	5.0909	0.1	3550.5
27524	9.4305	5.1818	0.1	3528.2
27525	9.1539	5.0909	0.1	3601.3
27526	9.2461	5.1818	0.1	3579.1
27527	8.9695	5.0909	0.1	3652.1
27528	9.0617	5.1818	0.1	3629.9
27529	8.785	5.0909	0.1	3702.7
27530	8.8773	5.1818	0.1	3680.6
27531	8.6006	5.0909	0.1	3753.1
27532	8.6928	5.1818	0.1	3731.1
27533	8.4162	5.0909	0.1	3803.1
27534	8.5084	5.1818	0.1	3781.1
27535	8.2318	5.0909	0.1	3852.4
27536	8.324	5.1818	0.1	3830.5
27537	8.0474	5.0909	0.1	3901.
27538	8.1396	5.1818	0.1	3879.
27539	7.8629	5.0909	0.1	3948.3
27540	7.9551	5.1818	0.1	3926.3
27541	7.6785	5.0909	0.1	3994.
27542	7.7707	5.1818	0.1	3971.9
27543	7.4941	5.0909	0.1	4037.4
27544	7.5863	5.1818	0.1	4015.3
27545	7.3097	5.0909	0.1	4077.8
27546	7.4019	5.1818	0.1	4055.7
27547	7.1252	5.0909	0.1	4114.2
27548	7.2174	5.1818	0.1	4092.
27549	6.9408	5.0909	0.1	4145.3
27550	7.033	5.1818	0.1	4123.
27551	6.7564	5.0909	0.1	4169.4
27552	6.8486	5.1818	0.1	4147.1
27553	6.572	5.0909	0.1	4184.5
27554	6.6642	5.1818	0.1	4162.2
27555	6.3875	5.0909	0.1	4187.9
27556	6.4798	5.1818	0.1	4165.7
27557	6.2031	5.0909	0.1	4176.6
27558	6.2953	5.1818	0.1	4154.4
27559	6.0187	5.0909	0.1	4146.7
27560	6.1109	5.1818	0.1	4124.4
27561	5.8343	5.0909	0.1	4093.9
27562	5.9265	5.1818	0.1	4071.1
27563	5.6498	5.0909	0.1	4013.5
27564	5.7421	5.1818	0.1	3989.2
27565	5.4654	5.0909	0.1	3901.4
27566	5.5576	5.1818	0.1	3873.3
27567	5.281	5.0909	0.1	3755.
27568	5.3732	5.1818	0.1	3718.9
27569	5.0966	5.0909	0.1	3577.7
27570	5.1888	5.1818	0.1	3524.5
27571	4.9121	5.0909	0.1	3384.3
27572	5.0044	5.1818	0.1	3297.2
27573	4.7277	5.0909	0.1	3215.2
27574	4.8199	5.1818	0.1	3061.4
27575	4.5433	5.0909	0.1	3211.7
27576	4.6355	5.1818	0.1	2878.6
27577	4.4511	5.1818	0.1	2967.9
27578	4.3589	5.0909	0.1	2689.2
27579	23.723	5.2727	0.1	128.81
27580	23.816	5.3636	0.1	110.99
27581	23.908	5.2727	0.1	111.28
27582	23.539	5.2727	0.1	152.3
27583	23.631	5.3636	0.1	131.9
27584	23.355	5.2727	0.1	180.56
27585	23.447	5.3636	0.1	159.05
27586	23.17	5.2727	0.1	211.94
27587	23.262	5.3636	0.1	190.08
27588	22.986	5.2727	0.1	245.43
27589	23.078	5.3636	0.1	223.54
27590	22.801	5.2727	0.1	280.38
27591	22.893	5.3636	0.1	258.6
27592	22.617	5.2727	0.1	316.36
27593	22.709	5.3636	0.1	294.74
27594	22.432	5.2727	0.1	353.1
27595	22.525	5.3636	0.1	331.67
27596	22.248	5.2727	0.1	390.44
27597	22.34	5.3636	0.1	369.17
27598	22.064	5.2727	0.1	428.25
27599	22.156	5.3636	0.1	407.13
27600	21.879	5.2727	0.1	466.45
27601	21.971	5.3636	0.1	445.47
27602	21.695	5.2727	0.1	504.98
27603	21.787	5.3636	0.1	484.11
27604	21.51	5.2727	0.1	543.81
27605	21.602	5.3636	0.1	523.04
27606	21.326	5.2727	0.1	582.9
27607	21.418	5.3636	0.1	562.21
27608	21.141	5.2727	0.1	622.24
27609	21.234	5.3636	0.1	601.62
27610	20.957	5.2727	0.1	661.82
27611	21.049	5.3636	0.1	641.25
27612	20.773	5.2727	0.1	701.62
27613	20.865	5.3636	0.1	681.08
27614	20.588	5.2727	0.1	741.64
27615	20.68	5.3636	0.1	721.13
27616	20.404	5.2727	0.1	781.87
27617	20.496	5.3636	0.1	761.37
27618	20.219	5.2727	0.1	822.32
27619	20.312	5.3636	0.1	801.82
27620	20.035	5.2727	0.1	862.97
27621	20.127	5.3636	0.1	842.46
27622	19.85	5.2727	0.1	903.82
27623	19.943	5.3636	0.1	883.3
27624	19.666	5.2727	0.1	944.88
27625	19.758	5.3636	0.1	924.33
27626	19.482	5.2727	0.1	986.15
27627	19.574	5.3636	0.1	965.57
27628	19.297	5.2727	0.1	1027.6
27629	19.389	5.3636	0.1	1007.
27630	19.113	5.2727	0.1	1069.3
27631	19.205	5.3636	0.1	1048.6
27632	18.928	5.2727	0.1	1111.2
27633	19.021	5.3636	0.1	1090.5
27634	18.744	5.2727	0.1	1153.3
27635	18.836	5.3636	0.1	1132.5
27636	18.56	5.2727	0.1	1195.6
27637	18.652	5.3636	0.1	1174.7
27638	18.375	5.2727	0.1	1238.
27639	18.467	5.3636	0.1	1217.1
27640	18.191	5.2727	0.1	1280.7
27641	18.283	5.3636	0.1	1259.8
27642	18.006	5.2727	0.1	1323.6
27643	18.098	5.3636	0.1	1302.6
27644	17.822	5.2727	0.1	1366.8
27645	17.914	5.3636	0.1	1345.6
27646	17.637	5.2727	0.1	1410.1
27647	17.73	5.3636	0.1	1388.9
27648	17.453	5.2727	0.1	1453.6
27649	17.545	5.3636	0.1	1432.3
27650	17.269	5.2727	0.1	1497.3
27651	17.361	5.3636	0.1	1476.
27652	17.084	5.2727	0.1	1541.2
27653	17.176	5.3636	0.1	1519.8
27654	16.9	5.2727	0.1	1585.3
27655	16.992	5.3636	0.1	1563.8
27656	16.715	5.2727	0.1	1629.7
27657	16.807	5.3636	0.1	1608.1
27658	16.531	5.2727	0.1	1674.2
27659	16.623	5.3636	0.1	1652.5
27660	16.346	5.2727	0.1	1718.9
27661	16.439	5.3636	0.1	1697.2
27662	16.162	5.2727	0.1	1763.8
27663	16.254	5.3636	0.1	1742.
27664	15.978	5.2727	0.1	1809.
27665	16.07	5.3636	0.1	1787.1
27666	15.793	5.2727	0.1	1854.3
27667	15.885	5.3636	0.1	1832.3
27668	15.609	5.2727	0.1	1899.8
27669	15.701	5.3636	0.1	1877.8
27670	15.424	5.2727	0.1	1945.5
27671	15.517	5.3636	0.1	1923.4
27672	15.24	5.2727	0.1	1991.5
27673	15.332	5.3636	0.1	1969.3
27674	15.055	5.2727	0.1	2037.6
27675	15.148	5.3636	0.1	2015.3
27676	14.871	5.2727	0.1	2083.9
27677	14.963	5.3636	0.1	2061.5
27678	14.687	5.2727	0.1	2130.4
27679	14.779	5.3636	0.1	2108.
27680	14.502	5.2727	0.1	2177.1
27681	14.594	5.3636	0.1	2154.6
27682	14.318	5.2727	0.1	2224.
27683	14.41	5.3636	0.1	2201.4
27684	14.133	5.2727	0.1	2271.1
27685	14.226	5.3636	0.1	2248.5
27686	13.949	5.2727	0.1	2318.4
27687	14.041	5.3636	0.1	2295.7
27688	13.764	5.2727	0.1	2365.9
27689	13.857	5.3636	0.1	2343.1
27690	13.58	5.2727	0.1	2413.5
27691	13.672	5.3636	0.1	2390.7
27692	13.396	5.2727	0.1	2461.4
27693	13.488	5.3636	0.1	2438.5
27694	13.211	5.2727	0.1	2509.4
27695	13.303	5.3636	0.1	2486.5
27696	13.027	5.2727	0.1	2557.6
27697	13.119	5.3636	0.1	2534.7
27698	12.842	5.2727	0.1	2606.
27699	12.935	5.3636	0.1	2583.
27700	12.658	5.2727	0.1	2654.6
27701	12.75	5.3636	0.1	2631.6
27702	12.474	5.2727	0.1	2703.4
27703	12.566	5.3636	0.1	2680.4
27704	12.289	5.2727	0.1	2752.3
27705	12.381	5.3636	0.1	2729.3
27706	12.105	5.2727	0.1	2801.5
27707	12.197	5.3636	0.1	2778.4
27708	11.92	5.2727	0.1	2850.8
27709	12.012	5.3636	0.1	2827.7
27710	11.736	5.2727	0.1	2900.3
27711	11.828	5.3636	0.1	2877.2
27712	11.551	5.2727	0.1	2949.9
27713	11.644	5.3636	0.1	2926.8
27714	11.367	5.2727	0.1	2999.7
27715	11.459	5.3636	0.1	2976.7
27716	11.183	5.2727	0.1	3049.7
27717	11.275	5.3636	0.1	3026.7
27718	10.998	5.2727	0.1	3099.9
27719	11.09	5.3636	0.1	3076.9
27720	10.814	5.2727	0.1	3150.2
27721	10.906	5.3636	0.1	3127.2
27722	10.629	5.2727	0.1	3200.6
27723	10.721	5.3636	0.1	3177.7
27724	10.445	5.2727	0.1	3251.2
27725	10.537	5.3636	0.1	3228.4
27726	10.26	5.2727	0.1	3302.
27727	10.353	5.3636	0.1	3279.2
27728	10.076	5.2727	0.1	3352.8
27729	10.168	5.3636	0.1	3330.1
27730	9.8916	5.2727	0.1	3403.7
27731	9.9838	5.3636	0.1	3381.1
27732	9.7072	5.2727	0.1	3454.7
27733	9.7994	5.3636	0.1	3432.2
27734	9.5227	5.2727	0.1	3505.8
27735	9.615	5.3636	0.1	3483.3
27736	9.3383	5.2727	0.1	3556.8
27737	9.4305	5.3636	0.1	3534.4
27738	9.1539	5.2727	0.1	3607.7
27739	9.2461	5.3636	0.1	3585.5
27740	8.9695	5.2727	0.1	3658.5
27741	9.0617	5.3636	0.1	3636.3
27742	8.785	5.2727	0.1	3709.
27743	8.8773	5.3636	0.1	3686.9
27744	8.6006	5.2727	0.1	3759.1
27745	8.6928	5.3636	0.1	3737.1
27746	8.4162	5.2727	0.1	3808.5
27747	8.5084	5.3636	0.1	3786.7
27748	8.2318	5.2727	0.1	3857.
27749	8.324	5.3636	0.1	3835.4
27750	8.0474	5.2727	0.1	3904.3
27751	8.1396	5.3636	0.1	3882.9
27752	7.8629	5.2727	0.1	3950.
27753	7.9551	5.3636	0.1	3928.8
27754	7.6785	5.2727	0.1	3993.3
27755	7.7707	5.3636	0.1	3972.4
27756	7.4941	5.2727	0.1	4033.6
27757	7.5863	5.3636	0.1	4013.1
27758	7.3097	5.2727	0.1	4069.9
27759	7.4019	5.3636	0.1	4049.9
27760	7.1252	5.2727	0.1	4100.9
27761	7.2174	5.3636	0.1	4081.6
27762	6.9408	5.2727	0.1	4124.9
27763	7.033	5.3636	0.1	4106.7
27764	6.7564	5.2727	0.1	4139.9
27765	6.8486	5.3636	0.1	4123.1
27766	6.572	5.2727	0.1	4143.3
27767	6.6642	5.3636	0.1	4128.4
27768	6.3875	5.2727	0.1	4131.9
27769	6.4798	5.3636	0.1	4119.5
27770	6.2031	5.2727	0.1	4101.6
27771	6.2953	5.3636	0.1	4092.5
27772	6.0187	5.2727	0.1	4047.6
27773	6.1109	5.3636	0.1	4042.8
27774	5.8343	5.2727	0.1	3964.3
27775	5.9265	5.3636	0.1	3964.8
27776	5.6498	5.2727	0.1	3845.4
27777	5.7421	5.3636	0.1	3852.
27778	5.4654	5.2727	0.1	3684.6
27779	5.5576	5.3636	0.1	3697.6
27780	5.281	5.2727	0.1	3477.4
27781	5.3732	5.3636	0.1	3495.1
27782	5.0966	5.2727	0.1	3224.9
27783	5.1888	5.3636	0.1	3240.9
27784	4.9121	5.2727	0.1	2941.3
27785	5.0044	5.3636	0.1	2939.2
27786	4.7277	5.2727	0.1	2670.
27787	4.8199	5.3636	0.1	2612.3
27788	4.5433	5.2727	0.1	2549.9
27789	4.6355	5.3636	0.1	2324.6
27790	4.4511	5.3636	0.1	2286.7
27791	4.3589	5.2727	0.1	2101.6
27792	23.723	5.4545	0.1	112.95
27793	23.816	5.5455	0.1	92.885
27794	23.908	5.4545	0.1	94.033
27795	23.539	5.4545	0.1	138.22
27796	23.631	5.5455	0.1	115.92
27797	23.355	5.4545	0.1	168.5
27798	23.447	5.5455	0.1	145.76
27799	23.17	5.4545	0.1	201.77
27800	23.262	5.5455	0.1	179.19
27801	22.986	5.4545	0.1	236.86
27802	23.078	5.5455	0.1	214.59
27803	22.801	5.4545	0.1	273.14
27804	22.893	5.5455	0.1	251.2
27805	22.617	5.4545	0.1	310.23
27806	22.709	5.5455	0.1	288.58
27807	22.432	5.4545	0.1	347.91
27808	22.525	5.5455	0.1	326.5
27809	22.248	5.4545	0.1	386.02
27810	22.34	5.5455	0.1	364.84
27811	22.064	5.4545	0.1	424.5
27812	22.156	5.5455	0.1	403.5
27813	21.879	5.4545	0.1	463.27
27814	21.971	5.5455	0.1	442.43
27815	21.695	5.4545	0.1	502.3
27816	21.787	5.5455	0.1	481.59
27817	21.51	5.4545	0.1	541.56
27818	21.602	5.5455	0.1	520.96
27819	21.326	5.4545	0.1	581.04
27820	21.418	5.5455	0.1	560.52
27821	21.141	5.4545	0.1	620.73
27822	21.234	5.5455	0.1	600.28
27823	20.957	5.4545	0.1	660.61
27824	21.049	5.5455	0.1	640.21
27825	20.773	5.4545	0.1	700.68
27826	20.865	5.5455	0.1	680.32
27827	20.588	5.4545	0.1	740.95
27828	20.68	5.5455	0.1	720.61
27829	20.404	5.4545	0.1	781.4
27830	20.496	5.5455	0.1	761.07
27831	20.219	5.4545	0.1	822.04
27832	20.312	5.5455	0.1	801.71
27833	20.035	5.4545	0.1	862.87
27834	20.127	5.5455	0.1	842.53
27835	19.85	5.4545	0.1	903.88
27836	19.943	5.5455	0.1	883.53
27837	19.666	5.4545	0.1	945.09
27838	19.758	5.5455	0.1	924.71
27839	19.482	5.4545	0.1	986.49
27840	19.574	5.5455	0.1	966.07
27841	19.297	5.4545	0.1	1028.1
27842	19.389	5.5455	0.1	1007.6
27843	19.113	5.4545	0.1	1069.9
27844	19.205	5.5455	0.1	1049.4
27845	18.928	5.4545	0.1	1111.8
27846	19.021	5.5455	0.1	1091.3
27847	18.744	5.4545	0.1	1154.
27848	18.836	5.5455	0.1	1133.4
27849	18.56	5.4545	0.1	1196.4
27850	18.652	5.5455	0.1	1175.7
27851	18.375	5.4545	0.1	1238.9
27852	18.467	5.5455	0.1	1218.2
27853	18.191	5.4545	0.1	1281.7
27854	18.283	5.5455	0.1	1260.9
27855	18.006	5.4545	0.1	1324.7
27856	18.098	5.5455	0.1	1303.8
27857	17.822	5.4545	0.1	1367.8
27858	17.914	5.5455	0.1	1346.9
27859	17.637	5.4545	0.1	1411.2
27860	17.73	5.5455	0.1	1390.2
27861	17.453	5.4545	0.1	1454.7
27862	17.545	5.5455	0.1	1433.6
27863	17.269	5.4545	0.1	1498.5
27864	17.361	5.5455	0.1	1477.3
27865	17.084	5.4545	0.1	1542.5
27866	17.176	5.5455	0.1	1521.2
27867	16.9	5.4545	0.1	1586.6
27868	16.992	5.5455	0.1	1565.3
27869	16.715	5.4545	0.1	1631.
27870	16.807	5.5455	0.1	1609.6
27871	16.531	5.4545	0.1	1675.6
27872	16.623	5.5455	0.1	1654.
27873	16.346	5.4545	0.1	1720.3
27874	16.439	5.5455	0.1	1698.7
27875	16.162	5.4545	0.1	1765.3
27876	16.254	5.5455	0.1	1743.6
27877	15.978	5.4545	0.1	1810.5
27878	16.07	5.5455	0.1	1788.7
27879	15.793	5.4545	0.1	1855.8
27880	15.885	5.5455	0.1	1834.
27881	15.609	5.4545	0.1	1901.4
27882	15.701	5.5455	0.1	1879.4
27883	15.424	5.4545	0.1	1947.2
27884	15.517	5.5455	0.1	1925.1
27885	15.24	5.4545	0.1	1993.1
27886	15.332	5.5455	0.1	1971.
27887	15.055	5.4545	0.1	2039.3
27888	15.148	5.5455	0.1	2017.1
27889	14.871	5.4545	0.1	2085.6
27890	14.963	5.5455	0.1	2063.4
27891	14.687	5.4545	0.1	2132.2
27892	14.779	5.5455	0.1	2109.9
27893	14.502	5.4545	0.1	2179.
27894	14.594	5.5455	0.1	2156.6
27895	14.318	5.4545	0.1	2225.9
27896	14.41	5.5455	0.1	2203.4
27897	14.133	5.4545	0.1	2273.1
27898	14.226	5.5455	0.1	2250.5
27899	13.949	5.4545	0.1	2320.4
27900	14.041	5.5455	0.1	2297.8
27901	13.764	5.4545	0.1	2368.
27902	13.857	5.5455	0.1	2345.3
27903	13.58	5.4545	0.1	2415.7
27904	13.672	5.5455	0.1	2393.
27905	13.396	5.4545	0.1	2463.7
27906	13.488	5.5455	0.1	2440.9
27907	13.211	5.4545	0.1	2511.8
27908	13.303	5.5455	0.1	2489.
27909	13.027	5.4545	0.1	2560.1
27910	13.119	5.5455	0.1	2537.3
27911	12.842	5.4545	0.1	2608.7
27912	12.935	5.5455	0.1	2585.7
27913	12.658	5.4545	0.1	2657.4
27914	12.75	5.5455	0.1	2634.4
27915	12.474	5.4545	0.1	2706.3
27916	12.566	5.5455	0.1	2683.3
27917	12.289	5.4545	0.1	2755.4
27918	12.381	5.5455	0.1	2732.4
27919	12.105	5.4545	0.1	2804.7
27920	12.197	5.5455	0.1	2781.6
27921	11.92	5.4545	0.1	2854.1
27922	12.012	5.5455	0.1	2831.1
27923	11.736	5.4545	0.1	2903.8
27924	11.828	5.5455	0.1	2880.7
27925	11.551	5.4545	0.1	2953.6
27926	11.644	5.5455	0.1	2930.6
27927	11.367	5.4545	0.1	3003.7
27928	11.459	5.5455	0.1	2980.6
27929	11.183	5.4545	0.1	3053.9
27930	11.275	5.5455	0.1	3030.9
27931	10.998	5.4545	0.1	3104.2
27932	11.09	5.5455	0.1	3081.3
27933	10.814	5.4545	0.1	3154.8
27934	10.906	5.5455	0.1	3131.8
27935	10.629	5.4545	0.1	3205.5
27936	10.721	5.5455	0.1	3182.6
27937	10.445	5.4545	0.1	3256.3
27938	10.537	5.5455	0.1	3233.5
27939	10.26	5.4545	0.1	3307.3
27940	10.353	5.5455	0.1	3284.5
27941	10.076	5.4545	0.1	3358.4
27942	10.168	5.5455	0.1	3335.7
27943	9.8916	5.4545	0.1	3409.6
27944	9.9838	5.5455	0.1	3386.9
27945	9.7072	5.4545	0.1	3460.8
27946	9.7994	5.5455	0.1	3438.2
27947	9.5227	5.4545	0.1	3512.
27948	9.615	5.5455	0.1	3489.5
27949	9.3383	5.4545	0.1	3563.1
27950	9.4305	5.5455	0.1	3540.7
27951	9.1539	5.4545	0.1	3614.1
27952	9.2461	5.5455	0.1	3591.9
27953	8.9695	5.4545	0.1	3664.8
27954	9.0617	5.5455	0.1	3642.7
27955	8.785	5.4545	0.1	3715.1
27956	8.8773	5.5455	0.1	3693.2
27957	8.6006	5.4545	0.1	3764.8
27958	8.6928	5.5455	0.1	3743.1
27959	8.4162	5.4545	0.1	3813.7
27960	8.5084	5.5455	0.1	3792.2
27961	8.2318	5.4545	0.1	3861.3
27962	8.324	5.5455	0.1	3840.1
27963	8.0474	5.4545	0.1	3907.3
27964	8.1396	5.5455	0.1	3886.6
27965	7.8629	5.4545	0.1	3951.2
27966	7.9551	5.5455	0.1	3930.9
27967	7.6785	5.4545	0.1	3992.2
27968	7.7707	5.5455	0.1	3972.5
27969	7.4941	5.4545	0.1	4029.4
27970	7.5863	5.5455	0.1	4010.6
27971	7.3097	5.4545	0.1	4061.7
27972	7.4019	5.5455	0.1	4043.9
27973	7.1252	5.4545	0.1	4087.4
27974	7.2174	5.5455	0.1	4071.2
27975	6.9408	5.4545	0.1	4104.8
27976	7.033	5.5455	0.1	4090.6
27977	6.7564	5.4545	0.1	4111.5
27978	6.8486	5.5455	0.1	4099.9
27979	6.572	5.4545	0.1	4104.4
27980	6.6642	5.5455	0.1	4096.4
27981	6.3875	5.4545	0.1	4079.8
27982	6.4798	5.5455	0.1	4076.5
27983	6.2031	5.4545	0.1	4033.1
27984	6.2953	5.5455	0.1	4036.
27985	6.0187	5.4545	0.1	3959.
27986	6.1109	5.5455	0.1	3969.9
27987	5.8343	5.4545	0.1	3850.9
27988	5.9265	5.5455	0.1	3871.9
27989	5.6498	5.4545	0.1	3701.6
27990	5.7421	5.5455	0.1	3735.2
27991	5.4654	5.4545	0.1	3503.7
27992	5.5576	5.5455	0.1	3552.1
27993	5.281	5.4545	0.1	3251.1
27994	5.3732	5.5455	0.1	3315.2
27995	5.0966	5.4545	0.1	2942.2
27996	5.1888	5.5455	0.1	3019.1
27997	4.9121	5.4545	0.1	2586.7
27998	5.0044	5.5455	0.1	2664.
27999	4.7277	5.4545	0.1	2222.7
28000	4.8199	5.5455	0.1	2264.3
28001	4.5433	5.4545	0.1	1981.
28002	4.6355	5.5455	0.1	1872.9
28003	4.4511	5.5455	0.1	1687.1
28004	4.3589	5.4545	0.1	1581.4
28005	23.723	5.6364	0.1	94.998
28006	23.816	5.7273	0.1	71.858
28007	23.908	5.6364	0.1	73.535
28008	23.539	5.6364	0.1	123.42
28009	23.631	5.7273	0.1	100.15
28010	23.355	5.6364	0.1	156.7
28011	23.447	5.7273	0.1	134.44
28012	23.17	5.6364	0.1	192.34
28013	23.262	5.7273	0.1	170.98
28014	22.986	5.6364	0.1	229.24
28015	23.078	5.7273	0.1	208.57
28016	22.801	5.6364	0.1	266.92
28017	22.893	5.7273	0.1	246.78
28018	22.617	5.6364	0.1	305.11
28019	22.709	5.7273	0.1	285.39
28020	22.432	5.6364	0.1	343.67
28021	22.525	5.7273	0.1	324.28
28022	22.248	5.6364	0.1	382.52
28023	22.34	5.7273	0.1	363.4
28024	22.064	5.6364	0.1	421.62
28025	22.156	5.7273	0.1	402.7
28026	21.879	5.6364	0.1	460.91
28027	21.971	5.7273	0.1	442.17
28028	21.695	5.6364	0.1	500.4
28029	21.787	5.7273	0.1	481.79
28030	21.51	5.6364	0.1	540.06
28031	21.602	5.7273	0.1	521.55
28032	21.326	5.6364	0.1	579.89
28033	21.418	5.7273	0.1	561.46
28034	21.141	5.6364	0.1	619.88
28035	21.234	5.7273	0.1	601.51
28036	20.957	5.6364	0.1	660.03
28037	21.049	5.7273	0.1	641.7
28038	20.773	5.6364	0.1	700.35
28039	20.865	5.7273	0.1	682.04
28040	20.588	5.6364	0.1	740.83
28041	20.68	5.7273	0.1	722.53
28042	20.404	5.6364	0.1	781.48
28043	20.496	5.7273	0.1	763.17
28044	20.219	5.6364	0.1	822.29
28045	20.312	5.7273	0.1	803.96
28046	20.035	5.6364	0.1	863.28
28047	20.127	5.7273	0.1	844.91
28048	19.85	5.6364	0.1	904.44
28049	19.943	5.7273	0.1	886.03
28050	19.666	5.6364	0.1	945.77
28051	19.758	5.7273	0.1	927.31
28052	19.482	5.6364	0.1	987.28
28053	19.574	5.7273	0.1	968.77
28054	19.297	5.6364	0.1	1029.
28055	19.389	5.7273	0.1	1010.4
28056	19.113	5.6364	0.1	1070.9
28057	19.205	5.7273	0.1	1052.2
28058	18.928	5.6364	0.1	1112.9
28059	19.021	5.7273	0.1	1094.2
28060	18.744	5.6364	0.1	1155.2
28061	18.836	5.7273	0.1	1136.3
28062	18.56	5.6364	0.1	1197.6
28063	18.652	5.7273	0.1	1178.7
28064	18.375	5.6364	0.1	1240.2
28065	18.467	5.7273	0.1	1221.2
28066	18.191	5.6364	0.1	1283.
28067	18.283	5.7273	0.1	1264.
28068	18.006	5.6364	0.1	1326.1
28069	18.098	5.7273	0.1	1306.9
28070	17.822	5.6364	0.1	1369.3
28071	17.914	5.7273	0.1	1350.
28072	17.637	5.6364	0.1	1412.7
28073	17.73	5.7273	0.1	1393.3
28074	17.453	5.6364	0.1	1456.3
28075	17.545	5.7273	0.1	1436.8
28076	17.269	5.6364	0.1	1500.1
28077	17.361	5.7273	0.1	1480.5
28078	17.084	5.6364	0.1	1544.1
28079	17.176	5.7273	0.1	1524.4
28080	16.9	5.6364	0.1	1588.3
28081	16.992	5.7273	0.1	1568.5
28082	16.715	5.6364	0.1	1632.7
28083	16.807	5.7273	0.1	1612.7
28084	16.531	5.6364	0.1	1677.3
28085	16.623	5.7273	0.1	1657.2
28086	16.346	5.6364	0.1	1722.
28087	16.439	5.7273	0.1	1701.9
28088	16.162	5.6364	0.1	1767.
28089	16.254	5.7273	0.1	1746.8
28090	15.978	5.6364	0.1	1812.2
28091	16.07	5.7273	0.1	1791.9
28092	15.793	5.6364	0.1	1857.6
28093	15.885	5.7273	0.1	1837.2
28094	15.609	5.6364	0.1	1903.2
28095	15.701	5.7273	0.1	1882.7
28096	15.424	5.6364	0.1	1949.
28097	15.517	5.7273	0.1	1928.4
28098	15.24	5.6364	0.1	1995.
28099	15.332	5.7273	0.1	1974.3
28100	15.055	5.6364	0.1	2041.3
28101	15.148	5.7273	0.1	2020.4
28102	14.871	5.6364	0.1	2087.7
28103	14.963	5.7273	0.1	2066.7
28104	14.687	5.6364	0.1	2134.3
28105	14.779	5.7273	0.1	2113.2
28106	14.502	5.6364	0.1	2181.1
28107	14.594	5.7273	0.1	2159.9
28108	14.318	5.6364	0.1	2228.1
28109	14.41	5.7273	0.1	2206.8
28110	14.133	5.6364	0.1	2275.3
28111	14.226	5.7273	0.1	2254.
28112	13.949	5.6364	0.1	2322.7
28113	14.041	5.7273	0.1	2301.3
28114	13.764	5.6364	0.1	2370.4
28115	13.857	5.7273	0.1	2348.8
28116	13.58	5.6364	0.1	2418.2
28117	13.672	5.7273	0.1	2396.6
28118	13.396	5.6364	0.1	2466.2
28119	13.488	5.7273	0.1	2444.5
28120	13.211	5.6364	0.1	2514.5
28121	13.303	5.7273	0.1	2492.7
28122	13.027	5.6364	0.1	2562.9
28123	13.119	5.7273	0.1	2541.1
28124	12.842	5.6364	0.1	2611.5
28125	12.935	5.7273	0.1	2589.6
28126	12.658	5.6364	0.1	2660.4
28127	12.75	5.7273	0.1	2638.4
28128	12.474	5.6364	0.1	2709.4
28129	12.566	5.7273	0.1	2687.4
28130	12.289	5.6364	0.1	2758.7
28131	12.381	5.7273	0.1	2736.6
28132	12.105	5.6364	0.1	2808.1
28133	12.197	5.7273	0.1	2786.
28134	11.92	5.6364	0.1	2857.7
28135	12.012	5.7273	0.1	2835.6
28136	11.736	5.6364	0.1	2907.6
28137	11.828	5.7273	0.1	2885.4
28138	11.551	5.6364	0.1	2957.6
28139	11.644	5.7273	0.1	2935.4
28140	11.367	5.6364	0.1	3007.9
28141	11.459	5.7273	0.1	2985.6
28142	11.183	5.6364	0.1	3058.3
28143	11.275	5.7273	0.1	3036.
28144	10.998	5.6364	0.1	3108.9
28145	11.09	5.7273	0.1	3086.6
28146	10.814	5.6364	0.1	3159.6
28147	10.906	5.7273	0.1	3137.4
28148	10.629	5.6364	0.1	3210.6
28149	10.721	5.7273	0.1	3188.3
28150	10.445	5.6364	0.1	3261.7
28151	10.537	5.7273	0.1	3239.4
28152	10.26	5.6364	0.1	3312.9
28153	10.353	5.7273	0.1	3290.7
28154	10.076	5.6364	0.1	3364.2
28155	10.168	5.7273	0.1	3342.
28156	9.8916	5.6364	0.1	3415.6
28157	9.9838	5.7273	0.1	3393.5
28158	9.7072	5.6364	0.1	3467.
28159	9.7994	5.7273	0.1	3444.9
28160	9.5227	5.6364	0.1	3518.3
28161	9.615	5.7273	0.1	3496.4
28162	9.3383	5.6364	0.1	3569.5
28163	9.4305	5.7273	0.1	3547.7
28164	9.1539	5.6364	0.1	3620.5
28165	9.2461	5.7273	0.1	3598.8
28166	8.9695	5.6364	0.1	3671.1
28167	9.0617	5.7273	0.1	3649.6
28168	8.785	5.6364	0.1	3721.2
28169	8.8773	5.7273	0.1	3699.9
28170	8.6006	5.6364	0.1	3770.5
28171	8.6928	5.7273	0.1	3749.5
28172	8.4162	5.6364	0.1	3818.7
28173	8.5084	5.7273	0.1	3798.
28174	8.2318	5.6364	0.1	3865.4
28175	8.324	5.7273	0.1	3845.2
28176	8.0474	5.6364	0.1	3910.2
28177	8.1396	5.7273	0.1	3890.5
28178	7.8629	5.6364	0.1	3952.3
28179	7.9551	5.7273	0.1	3933.3
28180	7.6785	5.6364	0.1	3990.9
28181	7.7707	5.7273	0.1	3973.
28182	7.4941	5.6364	0.1	4025.1
28183	7.5863	5.7273	0.1	4008.4
28184	7.3097	5.6364	0.1	4053.5
28185	7.4019	5.7273	0.1	4038.4
28186	7.1252	5.6364	0.1	4074.4
28187	7.2174	5.7273	0.1	4061.5
28188	6.9408	5.6364	0.1	4085.6
28189	7.033	5.7273	0.1	4075.7
28190	6.7564	5.6364	0.1	4084.7
28191	6.8486	5.7273	0.1	4078.6
28192	6.572	5.6364	0.1	4068.3
28193	6.6642	5.7273	0.1	4067.3
28194	6.3875	5.6364	0.1	4032.5
28195	6.4798	5.7273	0.1	4038.
28196	6.2031	5.6364	0.1	3972.3
28197	6.2953	5.7273	0.1	3986.4
28198	6.0187	5.6364	0.1	3882.1
28199	6.1109	5.7273	0.1	3907.3
28200	5.8343	5.6364	0.1	3755.2
28201	5.9265	5.7273	0.1	3794.5
28202	5.6498	5.6364	0.1	3584.
28203	5.7421	5.7273	0.1	3641.2
28204	5.4654	5.6364	0.1	3361.
28205	5.5576	5.7273	0.1	3439.8
28206	5.281	5.6364	0.1	3079.1
28207	5.3732	5.7273	0.1	3182.9
28208	5.0966	5.6364	0.1	2734.1
28209	5.1888	5.7273	0.1	2864.4
28210	4.9121	5.6364	0.1	2328.8
28211	5.0044	5.7273	0.1	2481.2
28212	4.7277	5.6364	0.1	1885.6
28213	4.8199	5.7273	0.1	2037.3
28214	4.5433	5.6364	0.1	1504.4
28215	4.6355	5.7273	0.1	1558.5
28216	4.4511	5.7273	0.1	1178.7
28217	4.3589	5.6364	0.1	1104.8
28218	23.723	5.8182	0.1	77.475
28219	23.816	5.9091	0.1	48.932
28220	23.908	5.8182	0.1	48.592
28221	23.539	5.8182	0.1	112.28
28222	23.631	5.9091	0.1	82.598
28223	23.355	5.8182	0.1	149.77
28224	23.447	5.9091	0.1	118.88
28225	23.17	5.8182	0.1	188.12
28226	23.262	5.9091	0.1	156.32
28227	22.986	5.8182	0.1	226.89
28228	23.078	5.9091	0.1	194.39
28229	22.801	5.8182	0.1	265.94
28230	22.893	5.9091	0.1	232.9
28231	22.617	5.8182	0.1	305.18
28232	22.709	5.9091	0.1	271.74
28233	22.432	5.8182	0.1	344.57
28234	22.525	5.9091	0.1	310.83
28235	22.248	5.8182	0.1	384.09
28236	22.34	5.9091	0.1	350.15
28237	22.064	5.8182	0.1	423.73
28238	22.156	5.9091	0.1	389.66
28239	21.879	5.8182	0.1	463.49
28240	21.971	5.9091	0.1	429.33
28241	21.695	5.8182	0.1	503.37
28242	21.787	5.9091	0.1	469.17
28243	21.51	5.8182	0.1	543.36
28244	21.602	5.9091	0.1	509.16
28245	21.326	5.8182	0.1	583.47
28246	21.418	5.9091	0.1	549.29
28247	21.141	5.8182	0.1	623.71
28248	21.234	5.9091	0.1	589.57
28249	20.957	5.8182	0.1	664.07
28250	21.049	5.9091	0.1	630.
28251	20.773	5.8182	0.1	704.56
28252	20.865	5.9091	0.1	670.57
28253	20.588	5.8182	0.1	745.19
28254	20.68	5.9091	0.1	711.29
28255	20.404	5.8182	0.1	785.97
28256	20.496	5.9091	0.1	752.17
28257	20.219	5.8182	0.1	826.89
28258	20.312	5.9091	0.1	793.19
28259	20.035	5.8182	0.1	867.97
28260	20.127	5.9091	0.1	834.38
28261	19.85	5.8182	0.1	909.2
28262	19.943	5.9091	0.1	875.72
28263	19.666	5.8182	0.1	950.6
28264	19.758	5.9091	0.1	917.23
28265	19.482	5.8182	0.1	992.16
28266	19.574	5.9091	0.1	958.9
28267	19.297	5.8182	0.1	1033.9
28268	19.389	5.9091	0.1	1000.7
28269	19.113	5.8182	0.1	1075.8
28270	19.205	5.9091	0.1	1042.8
28271	18.928	5.8182	0.1	1117.9
28272	19.021	5.9091	0.1	1084.9
28273	18.744	5.8182	0.1	1160.1
28274	18.836	5.9091	0.1	1127.3
28275	18.56	5.8182	0.1	1202.6
28276	18.652	5.9091	0.1	1169.9
28277	18.375	5.8182	0.1	1245.2
28278	18.467	5.9091	0.1	1212.6
28279	18.191	5.8182	0.1	1288.
28280	18.283	5.9091	0.1	1255.5
28281	18.006	5.8182	0.1	1331.
28282	18.098	5.9091	0.1	1298.6
28283	17.822	5.8182	0.1	1374.2
28284	17.914	5.9091	0.1	1341.9
28285	17.637	5.8182	0.1	1417.6
28286	17.73	5.9091	0.1	1385.4
28287	17.453	5.8182	0.1	1461.2
28288	17.545	5.9091	0.1	1429.
28289	17.269	5.8182	0.1	1505.
28290	17.361	5.9091	0.1	1472.9
28291	17.084	5.8182	0.1	1549.
28292	17.176	5.9091	0.1	1516.9
28293	16.9	5.8182	0.1	1593.1
28294	16.992	5.9091	0.1	1561.2
28295	16.715	5.8182	0.1	1637.5
28296	16.807	5.9091	0.1	1605.6
28297	16.531	5.8182	0.1	1682.1
28298	16.623	5.9091	0.1	1650.3
28299	16.346	5.8182	0.1	1726.9
28300	16.439	5.9091	0.1	1695.1
28301	16.162	5.8182	0.1	1771.9
28302	16.254	5.9091	0.1	1740.2
28303	15.978	5.8182	0.1	1817.
28304	16.07	5.9091	0.1	1785.4
28305	15.793	5.8182	0.1	1862.4
28306	15.885	5.9091	0.1	1830.9
28307	15.609	5.8182	0.1	1908.
28308	15.701	5.9091	0.1	1876.5
28309	15.424	5.8182	0.1	1953.8
28310	15.517	5.9091	0.1	1922.4
28311	15.24	5.8182	0.1	1999.8
28312	15.332	5.9091	0.1	1968.4
28313	15.055	5.8182	0.1	2046.
28314	15.148	5.9091	0.1	2014.7
28315	14.871	5.8182	0.1	2092.4
28316	14.963	5.9091	0.1	2061.2
28317	14.687	5.8182	0.1	2139.
28318	14.779	5.9091	0.1	2107.9
28319	14.502	5.8182	0.1	2185.9
28320	14.594	5.9091	0.1	2154.8
28321	14.318	5.8182	0.1	2232.9
28322	14.41	5.9091	0.1	2201.8
28323	14.133	5.8182	0.1	2280.1
28324	14.226	5.9091	0.1	2249.2
28325	13.949	5.8182	0.1	2327.6
28326	14.041	5.9091	0.1	2296.7
28327	13.764	5.8182	0.1	2375.2
28328	13.857	5.9091	0.1	2344.4
28329	13.58	5.8182	0.1	2423.1
28330	13.672	5.9091	0.1	2392.3
28331	13.396	5.8182	0.1	2471.2
28332	13.488	5.9091	0.1	2440.5
28333	13.211	5.8182	0.1	2519.4
28334	13.303	5.9091	0.1	2488.9
28335	13.027	5.8182	0.1	2567.9
28336	13.119	5.9091	0.1	2537.5
28337	12.842	5.8182	0.1	2616.6
28338	12.935	5.9091	0.1	2586.3
28339	12.658	5.8182	0.1	2665.6
28340	12.75	5.9091	0.1	2635.3
28341	12.474	5.8182	0.1	2714.7
28342	12.566	5.9091	0.1	2684.5
28343	12.289	5.8182	0.1	2764.
28344	12.381	5.9091	0.1	2734.
28345	12.105	5.8182	0.1	2813.6
28346	12.197	5.9091	0.1	2783.7
28347	11.92	5.8182	0.1	2863.4
28348	12.012	5.9091	0.1	2833.6
28349	11.736	5.8182	0.1	2913.3
28350	11.828	5.9091	0.1	2883.7
28351	11.551	5.8182	0.1	2963.5
28352	11.644	5.9091	0.1	2934.
28353	11.367	5.8182	0.1	3013.9
28354	11.459	5.9091	0.1	2984.6
28355	11.183	5.8182	0.1	3064.5
28356	11.275	5.9091	0.1	3035.3
28357	10.998	5.8182	0.1	3115.2
28358	11.09	5.9091	0.1	3086.3
28359	10.814	5.8182	0.1	3166.2
28360	10.906	5.9091	0.1	3137.4
28361	10.629	5.8182	0.1	3217.3
28362	10.721	5.9091	0.1	3188.8
28363	10.445	5.8182	0.1	3268.6
28364	10.537	5.9091	0.1	3240.2
28365	10.26	5.8182	0.1	3319.9
28366	10.353	5.9091	0.1	3291.9
28367	10.076	5.8182	0.1	3371.4
28368	10.168	5.9091	0.1	3343.6
28369	9.8916	5.8182	0.1	3422.9
28370	9.9838	5.9091	0.1	3395.4
28371	9.7072	5.8182	0.1	3474.4
28372	9.7994	5.9091	0.1	3447.2
28373	9.5227	5.8182	0.1	3525.9
28374	9.615	5.9091	0.1	3499.
28375	9.3383	5.8182	0.1	3577.1
28376	9.4305	5.9091	0.1	3550.6
28377	9.1539	5.8182	0.1	3628.
28378	9.2461	5.9091	0.1	3601.9
28379	8.9695	5.8182	0.1	3678.5
28380	9.0617	5.9091	0.1	3652.8
28381	8.785	5.8182	0.1	3728.3
28382	8.8773	5.9091	0.1	3703.1
28383	8.6006	5.8182	0.1	3777.1
28384	8.6928	5.9091	0.1	3752.5
28385	8.4162	5.8182	0.1	3824.6
28386	8.5084	5.9091	0.1	3800.7
28387	8.2318	5.8182	0.1	3870.3
28388	8.324	5.9091	0.1	3847.3
28389	8.0474	5.8182	0.1	3913.7
28390	8.1396	5.9091	0.1	3891.7
28391	7.8629	5.8182	0.1	3954.1
28392	7.9551	5.9091	0.1	3933.3
28393	7.6785	5.8182	0.1	3990.5
28394	7.7707	5.9091	0.1	3971.3
28395	7.4941	5.8182	0.1	4021.8
28396	7.5863	5.9091	0.1	4004.5
28397	7.3097	5.8182	0.1	4046.5
28398	7.4019	5.9091	0.1	4031.6
28399	7.1252	5.8182	0.1	4062.9
28400	7.2174	5.9091	0.1	4051.
28401	6.9408	5.8182	0.1	4068.7
28402	7.033	5.9091	0.1	4060.6
28403	6.7564	5.8182	0.1	4061.1
28404	6.8486	5.9091	0.1	4057.7
28405	6.572	5.8182	0.1	4036.9
28406	6.6642	5.9091	0.1	4039.4
28407	6.3875	5.8182	0.1	3991.8
28408	6.4798	5.9091	0.1	4001.8
28409	6.2031	5.8182	0.1	3921.2
28410	6.2953	5.9091	0.1	3940.3
28411	6.0187	5.8182	0.1	3819.3
28412	6.1109	5.9091	0.1	3849.5
28413	5.8343	5.8182	0.1	3679.8
28414	5.9265	5.9091	0.1	3723.4
28415	5.6498	5.8182	0.1	3495.8
28416	5.7421	5.9091	0.1	3555.1
28417	5.4654	5.8182	0.1	3260.
28418	5.5576	5.9091	0.1	3337.4
28419	5.281	5.8182	0.1	2965.9
28420	5.3732	5.9091	0.1	3063.2
28421	5.0966	5.8182	0.1	2608.2
28422	5.1888	5.9091	0.1	2726.6
28423	4.9121	5.8182	0.1	2184.7
28424	5.0044	5.9091	0.1	2323.8
28425	4.7277	5.8182	0.1	1699.3
28426	4.8199	5.9091	0.1	1853.7
28427	4.5433	5.8182	0.1	1183.5
28428	4.6355	5.9091	0.1	1322.
28429	4.3589	5.8182	0.1	671.61
28430	4.4511	5.9091	0.1	755.57
28431	0.17826	0.27273	0.1	4312.7
28432	0.26739	0.18182	0.1	4551.3
28433	8.913e-002	0.18182	0.1	2759.7
28434	0.17826	9.0909e-002	0.1	3876.8
28435	0.17826	0.45455	0.1	4958.5
28436	0.26739	0.36364	0.1	4679.8
28437	8.913e-002	0.36364	0.1	3479.7
28438	0.17826	0.63636	0.1	5560.8
28439	0.26739	0.54545	0.1	5055.3
28440	8.913e-002	0.54545	0.1	4059.8
28441	0.17826	0.81818	0.1	6010.6
28442	0.26739	0.72727	0.1	5421.2
28443	8.913e-002	0.72727	0.1	4468.8
28444	0.17826	1.	0.1	6341.8
28445	0.26739	0.90909	0.1	5725.5
28446	8.913e-002	0.90909	0.1	4758.2
28447	0.17826	1.1818	0.1	6587.8
28448	0.26739	1.0909	0.1	5967.3
28449	8.913e-002	1.0909	0.1	4968.1
28450	0.17826	1.3636	0.1	6772.1
28451	0.26739	1.2727	0.1	6156.8
28452	8.913e-002	1.2727	0.1	5122.7
28453	0.17826	1.5455	0.1	6910.9
28454	0.26739	1.4545	0.1	6304.4
28455	8.913e-002	1.4545	0.1	5237.6
28456	0.17826	1.7273	0.1	7015.2
28457	0.26739	1.6364	0.1	6418.9
28458	8.913e-002	1.6364	0.1	5323.2
28459	0.17826	1.9091	0.1	7093.3
28460	0.26739	1.8182	0.1	6507.1
28461	8.913e-002	1.8182	0.1	5386.6
28462	0.17826	2.0909	0.1	7151.
28463	0.26739	2.	0.1	6574.4
28464	8.913e-002	2.	0.1	5433.2
28465	0.17826	2.2727	0.1	7192.9
28466	0.26739	2.1818	0.1	6624.9
28467	8.913e-002	2.1818	0.1	5466.9
28468	0.17826	2.4545	0.1	7222.3
28469	0.26739	2.3636	0.1	6661.7
28470	8.913e-002	2.3636	0.1	5490.6
28471	0.17826	2.6364	0.1	7241.5
28472	0.26739	2.5455	0.1	6687.4
28473	8.913e-002	2.5455	0.1	5506.5
28474	0.17826	2.8182	0.1	7252.5
28475	0.26739	2.7273	0.1	6703.6
28476	8.913e-002	2.7273	0.1	5516.3
28477	0.17826	3.	0.1	7256.
28478	0.26739	2.9091	0.1	6711.4
28479	8.913e-002	2.9091	0.1	5520.9
28480	0.17826	3.1818	0.1	7252.5
28481	0.26739	3.0909	0.1	6711.4
28482	8.913e-002	3.0909	0.1	5520.9
28483	0.17826	3.3636	0.1	7241.5
28484	0.26739	3.2727	0.1	6703.6
28485	8.913e-002	3.2727	0.1	5516.3
28486	0.17826	3.5455	0.1	7222.3
28487	0.26739	3.4545	0.1	6687.4
28488	8.913e-002	3.4545	0.1	5506.5
28489	0.17826	3.7273	0.1	7192.9
28490	0.26739	3.6364	0.1	6661.7
28491	8.913e-002	3.6364	0.1	5490.6
28492	0.17826	3.9091	0.1	7151.
28493	0.26739	3.8182	0.1	6624.9
28494	8.913e-002	3.8182	0.1	5466.9
28495	0.17826	4.0909	0.1	7093.3
28496	0.26739	4.	0.1	6574.4
28497	8.913e-002	4.	0.1	5433.2
28498	0.17826	4.2727	0.1	7015.2
28499	0.26739	4.1818	0.1	6507.1
28500	8.913e-002	4.1818	0.1	5386.6
28501	0.17826	4.4545	0.1	6910.9
28502	0.26739	4.3636	0.1	6418.9
28503	8.913e-002	4.3636	0.1	5323.2
28504	0.17826	4.6364	0.1	6772.1
28505	0.26739	4.5455	0.1	6304.4
28506	8.913e-002	4.5455	0.1	5237.6
28507	0.17826	4.8182	0.1	6587.8
28508	0.26739	4.7273	0.1	6156.8
28509	8.913e-002	4.7273	0.1	5122.7
28510	0.17826	5.	0.1	6341.8
28511	0.26739	4.9091	0.1	5967.3
28512	8.913e-002	4.9091	0.1	4968.1
28513	0.17826	5.1818	0.1	6010.6
28514	0.26739	5.0909	0.1	5725.5
28515	8.913e-002	5.0909	0.1	4758.2
28516	0.17826	5.3636	0.1	5560.8
28517	0.26739	5.2727	0.1	5421.2
28518	8.913e-002	5.2727	0.1	4468.8
28519	0.17826	5.5455	0.1	4958.5
28520	0.26739	5.4545	0.1	5055.3
28521	8.913e-002	5.4545	0.1	4059.8
28522	0.17826	5.7273	0.1	4312.7
28523	0.26739	5.6364	0.1	4679.8
28524	8.913e-002	5.6364	0.1	3479.7
28525	0.26739	5.8182	0.1	4551.3
28526	8.913e-002	5.8182	0.1	2759.7
28527	0.17826	5.9091	0.1	3876.8
28528	0.35652	0.27273	0.1	4885.7
28529	0.44565	0.18182	0.1	5280.2
28530	0.35652	9.0909e-002	0.1	4920.4
28531	0.35652	0.45455	0.1	4803.1
28532	0.44565	0.36364	0.1	5048.3
28533	0.35652	0.63636	0.1	4945.
28534	0.44565	0.54545	0.1	5058.1
28535	0.35652	0.81818	0.1	5158.1
28536	0.44565	0.72727	0.1	5187.1
28537	0.35652	1.	0.1	5367.
28538	0.44565	0.90909	0.1	5354.2
28539	0.35652	1.1818	0.1	5548.6
28540	0.44565	1.0909	0.1	5519.7
28541	0.35652	1.3636	0.1	5699.1
28542	0.44565	1.2727	0.1	5667.8
28543	0.35652	1.5455	0.1	5821.1
28544	0.44565	1.4545	0.1	5794.1
28545	0.35652	1.7273	0.1	5918.6
28546	0.44565	1.6364	0.1	5898.9
28547	0.35652	1.9091	0.1	5995.5
28548	0.44565	1.8182	0.1	5984.2
28549	0.35652	2.0909	0.1	6055.2
28550	0.44565	2.	0.1	6052.4
28551	0.35652	2.2727	0.1	6100.5
28552	0.44565	2.1818	0.1	6105.7
28553	0.35652	2.4545	0.1	6133.5
28554	0.44565	2.3636	0.1	6146.
28555	0.35652	2.6364	0.1	6155.9
28556	0.44565	2.5455	0.1	6174.9
28557	0.35652	2.8182	0.1	6168.9
28558	0.44565	2.7273	0.1	6193.5
28559	0.35652	3.	0.1	6173.2
28560	0.44565	2.9091	0.1	6202.6
28561	0.35652	3.1818	0.1	6168.9
28562	0.44565	3.0909	0.1	6202.6
28563	0.35652	3.3636	0.1	6155.9
28564	0.44565	3.2727	0.1	6193.5
28565	0.35652	3.5455	0.1	6133.5
28566	0.44565	3.4545	0.1	6174.9
28567	0.35652	3.7273	0.1	6100.5
28568	0.44565	3.6364	0.1	6146.
28569	0.35652	3.9091	0.1	6055.2
28570	0.44565	3.8182	0.1	6105.7
28571	0.35652	4.0909	0.1	5995.5
28572	0.44565	4.	0.1	6052.4
28573	0.35652	4.2727	0.1	5918.6
28574	0.44565	4.1818	0.1	5984.2
28575	0.35652	4.4545	0.1	5821.1
28576	0.44565	4.3636	0.1	5898.9
28577	0.35652	4.6364	0.1	5699.1
28578	0.44565	4.5455	0.1	5794.1
28579	0.35652	4.8182	0.1	5548.6
28580	0.44565	4.7273	0.1	5667.8
28581	0.35652	5.	0.1	5367.
28582	0.44565	4.9091	0.1	5519.7
28583	0.35652	5.1818	0.1	5158.1
28584	0.44565	5.0909	0.1	5354.2
28585	0.35652	5.3636	0.1	4945.
28586	0.44565	5.2727	0.1	5187.1
28587	0.35652	5.5455	0.1	4803.1
28588	0.44565	5.4545	0.1	5058.1
28589	0.35652	5.7273	0.1	4885.7
28590	0.44565	5.6364	0.1	5048.3
28591	0.44565	5.8182	0.1	5280.2
28592	0.35652	5.9091	0.1	4920.4
28593	0.53478	0.27273	0.1	5426.2
28594	0.62391	0.18182	0.1	5661.1
28595	0.53478	9.0909e-002	0.1	5442.1
28596	0.53478	0.45455	0.1	5289.5
28597	0.62391	0.36364	0.1	5435.5
28598	0.53478	0.63636	0.1	5293.4
28599	0.62391	0.54545	0.1	5352.2
28600	0.53478	0.81818	0.1	5381.2
28601	0.62391	0.72727	0.1	5363.
28602	0.53478	1.	0.1	5506.9
28603	0.62391	0.90909	0.1	5434.3
28604	0.53478	1.1818	0.1	5639.4
28605	0.62391	1.0909	0.1	5533.6
28606	0.53478	1.3636	0.1	5763.3
28607	0.62391	1.2727	0.1	5639.6
28608	0.53478	1.5455	0.1	5872.3
28609	0.62391	1.4545	0.1	5740.8
28610	0.53478	1.7273	0.1	5964.9
28611	0.62391	1.6364	0.1	5831.7
28612	0.53478	1.9091	0.1	6041.5
28613	0.62391	1.8182	0.1	5910.1
28614	0.53478	2.0909	0.1	6103.3
28615	0.62391	2.	0.1	5975.8
28616	0.53478	2.2727	0.1	6151.6
28617	0.62391	2.1818	0.1	6029.
28618	0.53478	2.4545	0.1	6187.8
28619	0.62391	2.3636	0.1	6070.4
28620	0.53478	2.6364	0.1	6212.8
28621	0.62391	2.5455	0.1	6100.8
28622	0.53478	2.8182	0.1	6227.6
28623	0.62391	2.7273	0.1	6120.6
28624	0.53478	3.	0.1	6232.4
28625	0.62391	2.9091	0.1	6130.4
28626	0.53478	3.1818	0.1	6227.6
28627	0.62391	3.0909	0.1	6130.4
28628	0.53478	3.3636	0.1	6212.8
28629	0.62391	3.2727	0.1	6120.6
28630	0.53478	3.5455	0.1	6187.8
28631	0.62391	3.4545	0.1	6100.8
28632	0.53478	3.7273	0.1	6151.6
28633	0.62391	3.6364	0.1	6070.4
28634	0.53478	3.9091	0.1	6103.3
28635	0.62391	3.8182	0.1	6029.
28636	0.53478	4.0909	0.1	6041.5
28637	0.62391	4.	0.1	5975.8
28638	0.53478	4.2727	0.1	5964.9
28639	0.62391	4.1818	0.1	5910.1
28640	0.53478	4.4545	0.1	5872.3
28641	0.62391	4.3636	0.1	5831.7
28642	0.53478	4.6364	0.1	5763.3
28643	0.62391	4.5455	0.1	5740.8
28644	0.53478	4.8182	0.1	5639.4
28645	0.62391	4.7273	0.1	5639.6
28646	0.53478	5.	0.1	5506.9
28647	0.62391	4.9091	0.1	5533.6
28648	0.53478	5.1818	0.1	5381.2
28649	0.62391	5.0909	0.1	5434.3
28650	0.53478	5.3636	0.1	5293.4
28651	0.62391	5.2727	0.1	5363.
28652	0.53478	5.5455	0.1	5289.5
28653	0.62391	5.4545	0.1	5352.2
28654	0.53478	5.7273	0.1	5426.2
28655	0.62391	5.6364	0.1	5435.5
28656	0.62391	5.8182	0.1	5661.1
28657	0.53478	5.9091	0.1	5442.1
28658	0.71304	0.27273	0.1	5662.8
28659	0.80217	0.18182	0.1	5839.8
28660	0.71304	9.0909e-002	0.1	5701.2
28661	0.71304	0.45455	0.1	5491.6
28662	0.80217	0.36364	0.1	5625.3
28663	0.71304	0.63636	0.1	5417.4
28664	0.80217	0.54545	0.1	5507.2
28665	0.71304	0.81818	0.1	5414.3
28666	0.80217	0.72727	0.1	5455.2
28667	0.71304	1.	0.1	5460.9
28668	0.80217	0.90909	0.1	5458.5
28669	0.71304	1.1818	0.1	5534.4
28670	0.80217	1.0909	0.1	5499.8
28671	0.71304	1.3636	0.1	5617.9
28672	0.80217	1.2727	0.1	5561.9
28673	0.71304	1.5455	0.1	5700.9
28674	0.80217	1.4545	0.1	5632.2
28675	0.71304	1.7273	0.1	5777.4
28676	0.80217	1.6364	0.1	5702.5
28677	0.71304	1.9091	0.1	5844.8
28678	0.80217	1.8182	0.1	5768.
28679	0.71304	2.0909	0.1	5901.8
28680	0.80217	2.	0.1	5825.9
28681	0.71304	2.2727	0.1	5948.
28682	0.80217	2.1818	0.1	5874.8
28683	0.71304	2.4545	0.1	5983.5
28684	0.80217	2.3636	0.1	5914.2
28685	0.71304	2.6364	0.1	6008.6
28686	0.80217	2.5455	0.1	5943.7
28687	0.71304	2.8182	0.1	6023.6
28688	0.80217	2.7273	0.1	5963.4
28689	0.71304	3.	0.1	6028.6
28690	0.80217	2.9091	0.1	5973.2
28691	0.71304	3.1818	0.1	6023.6
28692	0.80217	3.0909	0.1	5973.2
28693	0.71304	3.3636	0.1	6008.6
28694	0.80217	3.2727	0.1	5963.4
28695	0.71304	3.5455	0.1	5983.5
28696	0.80217	3.4545	0.1	5943.7
28697	0.71304	3.7273	0.1	5948.
28698	0.80217	3.6364	0.1	5914.2
28699	0.71304	3.9091	0.1	5901.8
28700	0.80217	3.8182	0.1	5874.8
28701	0.71304	4.0909	0.1	5844.8
28702	0.80217	4.	0.1	5825.9
28703	0.71304	4.2727	0.1	5777.4
28704	0.80217	4.1818	0.1	5768.
28705	0.71304	4.4545	0.1	5700.9
28706	0.80217	4.3636	0.1	5702.5
28707	0.71304	4.6364	0.1	5617.9
28708	0.80217	4.5455	0.1	5632.2
28709	0.71304	4.8182	0.1	5534.4
28710	0.80217	4.7273	0.1	5561.9
28711	0.71304	5.	0.1	5460.9
28712	0.80217	4.9091	0.1	5499.8
28713	0.71304	5.1818	0.1	5414.3
28714	0.80217	5.0909	0.1	5458.5
28715	0.71304	5.3636	0.1	5417.4
28716	0.80217	5.2727	0.1	5455.2
28717	0.71304	5.5455	0.1	5491.6
28718	0.80217	5.4545	0.1	5507.2
28719	0.71304	5.7273	0.1	5662.8
28720	0.80217	5.6364	0.1	5625.3
28721	0.80217	5.8182	0.1	5839.8
28722	0.71304	5.9091	0.1	5701.2
28723	0.8913	0.27273	0.1	5798.4
28724	0.98043	0.18182	0.1	5920.5
28725	0.8913	9.0909e-002	0.1	5834.5
28726	0.8913	0.45455	0.1	5637.
28727	0.98043	0.36364	0.1	5731.8
28728	0.8913	0.63636	0.1	5541.1
28729	0.98043	0.54545	0.1	5611.9
28730	0.8913	0.81818	0.1	5496.4
28731	0.98043	0.72727	0.1	5536.2
28732	0.8913	1.	0.1	5495.6
28733	0.98043	0.90909	0.1	5503.7
28734	0.8913	1.1818	0.1	5526.3
28735	0.98043	1.0909	0.1	5507.
28736	0.8913	1.3636	0.1	5575.8
28737	0.98043	1.2727	0.1	5535.6
28738	0.8913	1.5455	0.1	5633.7
28739	0.98043	1.4545	0.1	5579.2
28740	0.8913	1.7273	0.1	5693.
28741	0.98043	1.6364	0.1	5629.7
28742	0.8913	1.9091	0.1	5749.
28743	0.98043	1.8182	0.1	5681.3
28744	0.8913	2.0909	0.1	5798.9
28745	0.98043	2.	0.1	5730.
28746	0.8913	2.2727	0.1	5841.
28747	0.98043	2.1818	0.1	5773.1
28748	0.8913	2.4545	0.1	5874.4
28749	0.98043	2.3636	0.1	5809.1
28750	0.8913	2.6364	0.1	5898.4
28751	0.98043	2.5455	0.1	5836.7
28752	0.8913	2.8182	0.1	5912.9
28753	0.98043	2.7273	0.1	5855.4
28754	0.8913	3.	0.1	5917.8
28755	0.98043	2.9091	0.1	5864.9
28756	0.8913	3.1818	0.1	5912.9
28757	0.98043	3.0909	0.1	5864.9
28758	0.8913	3.3636	0.1	5898.4
28759	0.98043	3.2727	0.1	5855.4
28760	0.8913	3.5455	0.1	5874.4
28761	0.98043	3.4545	0.1	5836.7
28762	0.8913	3.7273	0.1	5841.
28763	0.98043	3.6364	0.1	5809.1
28764	0.8913	3.9091	0.1	5798.9
28765	0.98043	3.8182	0.1	5773.1
28766	0.8913	4.0909	0.1	5749.
28767	0.98043	4.	0.1	5730.
28768	0.8913	4.2727	0.1	5693.
28769	0.98043	4.1818	0.1	5681.3
28770	0.8913	4.4545	0.1	5633.7
28771	0.98043	4.3636	0.1	5629.7
28772	0.8913	4.6364	0.1	5575.8
28773	0.98043	4.5455	0.1	5579.2
28774	0.8913	4.8182	0.1	5526.3
28775	0.98043	4.7273	0.1	5535.6
28776	0.8913	5.	0.1	5495.6
28777	0.98043	4.9091	0.1	5507.
28778	0.8913	5.1818	0.1	5496.4
28779	0.98043	5.0909	0.1	5503.7
28780	0.8913	5.3636	0.1	5541.1
28781	0.98043	5.2727	0.1	5536.2
28782	0.8913	5.5455	0.1	5637.
28783	0.98043	5.4545	0.1	5611.9
28784	0.8913	5.7273	0.1	5798.4
28785	0.98043	5.6364	0.1	5731.8
28786	0.98043	5.8182	0.1	5920.5
28787	0.8913	5.9091	0.1	5834.5
28788	1.0696	0.27273	0.1	5851.4
28789	1.1587	0.18182	0.1	5935.3
28790	1.0696	9.0909e-002	0.1	5885.2
28791	1.0696	0.45455	0.1	5704.3
28792	1.1587	0.36364	0.1	5771.
28793	1.0696	0.63636	0.1	5604.4
28794	1.1587	0.54545	0.1	5659.
28795	1.0696	0.81818	0.1	5541.2
28796	1.1587	0.72727	0.1	5577.8
28797	1.0696	1.	0.1	5513.4
28798	1.1587	0.90909	0.1	5528.7
28799	1.0696	1.1818	0.1	5515.2
28800	1.1587	1.0909	0.1	5510.
28801	1.0696	1.3636	0.1	5538.3
28802	1.1587	1.2727	0.1	5515.8
28803	1.0696	1.5455	0.1	5574.8
28804	1.1587	1.4545	0.1	5539.1
28805	1.0696	1.7273	0.1	5617.8
28806	1.1587	1.6364	0.1	5573.2
28807	1.0696	1.9091	0.1	5662.2
28808	1.1587	1.8182	0.1	5612.4
28809	1.0696	2.0909	0.1	5704.2
28810	1.1587	2.	0.1	5652.2
28811	1.0696	2.2727	0.1	5741.2
28812	1.1587	2.1818	0.1	5689.4
28813	1.0696	2.4545	0.1	5771.4
28814	1.1587	2.3636	0.1	5721.6
28815	1.0696	2.6364	0.1	5793.7
28816	1.1587	2.5455	0.1	5747.
28817	1.0696	2.8182	0.1	5807.4
28818	1.1587	2.7273	0.1	5764.6
28819	1.0696	3.	0.1	5812.
28820	1.1587	2.9091	0.1	5773.5
28821	1.0696	3.1818	0.1	5807.4
28822	1.1587	3.0909	0.1	5773.5
28823	1.0696	3.3636	0.1	5793.7
28824	1.1587	3.2727	0.1	5764.6
28825	1.0696	3.5455	0.1	5771.4
28826	1.1587	3.4545	0.1	5747.
28827	1.0696	3.7273	0.1	5741.2
28828	1.1587	3.6364	0.1	5721.6
28829	1.0696	3.9091	0.1	5704.2
28830	1.1587	3.8182	0.1	5689.4
28831	1.0696	4.0909	0.1	5662.2
28832	1.1587	4.	0.1	5652.2
28833	1.0696	4.2727	0.1	5617.8
28834	1.1587	4.1818	0.1	5612.4
28835	1.0696	4.4545	0.1	5574.8
28836	1.1587	4.3636	0.1	5573.2
28837	1.0696	4.6364	0.1	5538.3
28838	1.1587	4.5455	0.1	5539.1
28839	1.0696	4.8182	0.1	5515.2
28840	1.1587	4.7273	0.1	5515.8
28841	1.0696	5.	0.1	5513.4
28842	1.1587	4.9091	0.1	5510.
28843	1.0696	5.1818	0.1	5541.2
28844	1.1587	5.0909	0.1	5528.7
28845	1.0696	5.3636	0.1	5604.4
28846	1.1587	5.2727	0.1	5577.8
28847	1.0696	5.5455	0.1	5704.3
28848	1.1587	5.4545	0.1	5659.
28849	1.0696	5.7273	0.1	5851.4
28850	1.1587	5.6364	0.1	5771.
28851	1.1587	5.8182	0.1	5935.3
28852	1.0696	5.9091	0.1	5885.2
28853	1.2478	0.27273	0.1	5853.2
28854	1.337	0.18182	0.1	5905.
28855	1.2478	9.0909e-002	0.1	5881.3
28856	1.2478	0.45455	0.1	5724.1
28857	1.337	0.36364	0.1	5764.5
28858	1.2478	0.63636	0.1	5630.5
28859	1.337	0.54545	0.1	5665.7
28860	1.2478	0.81818	0.1	5563.4
28861	1.337	0.72727	0.1	5588.8
28862	1.2478	1.	0.1	5523.7
28863	1.337	0.90909	0.1	5536.
28864	1.2478	1.1818	0.1	5509.3
28865	1.337	1.0909	0.1	5507.6
28866	1.2478	1.3636	0.1	5515.7
28867	1.337	1.2727	0.1	5501.
28868	1.2478	1.5455	0.1	5536.9
28869	1.337	1.4545	0.1	5511.7
28870	1.2478	1.7273	0.1	5567.4
28871	1.337	1.6364	0.1	5534.6
28872	1.2478	1.9091	0.1	5602.2
28873	1.337	1.8182	0.1	5564.8
28874	1.2478	2.0909	0.1	5637.3
28875	1.337	2.	0.1	5598.
28876	1.2478	2.2727	0.1	5669.8
28877	1.337	2.1818	0.1	5630.6
28878	1.2478	2.4545	0.1	5697.1
28879	1.337	2.3636	0.1	5659.8
28880	1.2478	2.6364	0.1	5717.8
28881	1.337	2.5455	0.1	5683.6
28882	1.2478	2.8182	0.1	5730.6
28883	1.337	2.7273	0.1	5700.2
28884	1.2478	3.	0.1	5735.
28885	1.337	2.9091	0.1	5708.8
28886	1.2478	3.1818	0.1	5730.6
28887	1.337	3.0909	0.1	5708.8
28888	1.2478	3.3636	0.1	5717.8
28889	1.337	3.2727	0.1	5700.2
28890	1.2478	3.5455	0.1	5697.1
28891	1.337	3.4545	0.1	5683.6
28892	1.2478	3.7273	0.1	5669.8
28893	1.337	3.6364	0.1	5659.8
28894	1.2478	3.9091	0.1	5637.3
28895	1.337	3.8182	0.1	5630.6
28896	1.2478	4.0909	0.1	5602.2
28897	1.337	4.	0.1	5598.
28898	1.2478	4.2727	0.1	5567.4
28899	1.337	4.1818	0.1	5564.8
28900	1.2478	4.4545	0.1	5536.9
28901	1.337	4.3636	0.1	5534.6
28902	1.2478	4.6364	0.1	5515.7
28903	1.337	4.5455	0.1	5511.7
28904	1.2478	4.8182	0.1	5509.3
28905	1.337	4.7273	0.1	5501.
28906	1.2478	5.	0.1	5523.7
28907	1.337	4.9091	0.1	5507.6
28908	1.2478	5.1818	0.1	5563.4
28909	1.337	5.0909	0.1	5536.
28910	1.2478	5.3636	0.1	5630.5
28911	1.337	5.2727	0.1	5588.8
28912	1.2478	5.5455	0.1	5724.2
28913	1.337	5.4545	0.1	5665.7
28914	1.2478	5.7273	0.1	5853.2
28915	1.337	5.6364	0.1	5764.6
28916	1.337	5.8182	0.1	5905.
28917	1.2478	5.9091	0.1	5881.3
28918	1.4261	0.27273	0.1	5815.1
28919	1.5152	0.18182	0.1	5839.4
28920	1.4261	9.0909e-002	0.1	5835.8
28921	1.4261	0.45455	0.1	5705.
28922	1.5152	0.36364	0.1	5721.7
28923	1.4261	0.63636	0.1	5622.6
28924	1.5152	0.54545	0.1	5638.4
28925	1.4261	0.81818	0.1	5559.9
28926	1.5152	0.72727	0.1	5571.7
28927	1.4261	1.	0.1	5518.5
28928	1.5152	0.90909	0.1	5523.4
28929	1.4261	1.1818	0.1	5498.1
28930	1.5152	1.0909	0.1	5494.6
28931	1.4261	1.3636	0.1	5496.1
28932	1.5152	1.2727	0.1	5484.4
28933	1.4261	1.5455	0.1	5508.8
28934	1.5152	1.4545	0.1	5489.9
28935	1.4261	1.7273	0.1	5531.6
28936	1.5152	1.6364	0.1	5507.6
28937	1.4261	1.9091	0.1	5560.3
28938	1.5152	1.8182	0.1	5533.3
28939	1.4261	2.0909	0.1	5591.
28940	1.5152	2.	0.1	5563.2
28941	1.4261	2.2727	0.1	5620.5
28942	1.5152	2.1818	0.1	5593.6
28943	1.4261	2.4545	0.1	5646.1
28944	1.5152	2.3636	0.1	5621.7
28945	1.4261	2.6364	0.1	5665.8
28946	1.5152	2.5455	0.1	5645.
28947	1.4261	2.8182	0.1	5678.2
28948	1.5152	2.7273	0.1	5661.6
28949	1.4261	3.	0.1	5682.5
28950	1.5152	2.9091	0.1	5670.2
28951	1.4261	3.1818	0.1	5678.2
28952	1.5152	3.0909	0.1	5670.2
28953	1.4261	3.3636	0.1	5665.8
28954	1.5152	3.2727	0.1	5661.6
28955	1.4261	3.5455	0.1	5646.1
28956	1.5152	3.4545	0.1	5645.
28957	1.4261	3.7273	0.1	5620.5
28958	1.5152	3.6364	0.1	5621.7
28959	1.4261	3.9091	0.1	5591.
28960	1.5152	3.8182	0.1	5593.6
28961	1.4261	4.0909	0.1	5560.3
28962	1.5152	4.	0.1	5563.2
28963	1.4261	4.2727	0.1	5531.6
28964	1.5152	4.1818	0.1	5533.3
28965	1.4261	4.4545	0.1	5508.8
28966	1.5152	4.3636	0.1	5507.6
28967	1.4261	4.6364	0.1	5496.1
28968	1.5152	4.5455	0.1	5489.9
28969	1.4261	4.8182	0.1	5498.1
28970	1.5152	4.7273	0.1	5484.4
28971	1.4261	5.	0.1	5518.5
28972	1.5152	4.9091	0.1	5494.6
28973	1.4261	5.1818	0.1	5559.9
28974	1.5152	5.0909	0.1	5523.4
28975	1.4261	5.3636	0.1	5622.6
28976	1.5152	5.2727	0.1	5571.7
28977	1.4261	5.5455	0.1	5705.
28978	1.5152	5.4545	0.1	5638.4
28979	1.4261	5.7273	0.1	5815.1
28980	1.5152	5.6364	0.1	5721.7
28981	1.5152	5.8182	0.1	5839.4
28982	1.4261	5.9091	0.1	5835.8
28983	1.6043	0.27273	0.1	5744.9
28984	1.6935	0.18182	0.1	5743.5
28985	1.6043	9.0909e-002	0.1	5756.1
28986	1.6043	0.45455	0.1	5654.3
28987	1.6935	0.36364	0.1	5647.9
28988	1.6043	0.63636	0.1	5586.5
28989	1.6935	0.54545	0.1	5582.1
28990	1.6043	0.81818	0.1	5534.
28991	1.6935	0.72727	0.1	5529.7
28992	1.6043	1.	0.1	5498.3
28993	1.6935	0.90909	0.1	5491.9
28994	1.6043	1.1818	0.1	5479.8
28995	1.6935	1.0909	0.1	5470.1
28996	1.6043	1.3636	0.1	5477.3
28997	1.6935	1.2727	0.1	5463.8
28998	1.6043	1.5455	0.1	5488.1
28999	1.6935	1.4545	0.1	5471.4
29000	1.6043	1.7273	0.1	5508.8
29001	1.6935	1.6364	0.1	5490.1
29002	1.6043	1.9091	0.1	5535.8
29003	1.6935	1.8182	0.1	5516.6
29004	1.6043	2.0909	0.1	5565.5
29005	1.6935	2.	0.1	5547.3
29006	1.6043	2.2727	0.1	5594.7
29007	1.6935	2.1818	0.1	5579.1
29008	1.6043	2.4545	0.1	5620.4
29009	1.6935	2.3636	0.1	5608.7
29010	1.6043	2.6364	0.1	5640.6
29011	1.6935	2.5455	0.1	5633.5
29012	1.6043	2.8182	0.1	5653.4
29013	1.6935	2.7273	0.1	5651.2
29014	1.6043	3.	0.1	5657.7
29015	1.6935	2.9091	0.1	5660.5
29016	1.6043	3.1818	0.1	5653.4
29017	1.6935	3.0909	0.1	5660.5
29018	1.6043	3.3636	0.1	5640.6
29019	1.6935	3.2727	0.1	5651.2
29020	1.6043	3.5455	0.1	5620.4
29021	1.6935	3.4545	0.1	5633.5
29022	1.6043	3.7273	0.1	5594.7
29023	1.6935	3.6364	0.1	5608.7
29024	1.6043	3.9091	0.1	5565.5
29025	1.6935	3.8182	0.1	5579.1
29026	1.6043	4.0909	0.1	5535.8
29027	1.6935	4.	0.1	5547.3
29028	1.6043	4.2727	0.1	5508.8
29029	1.6935	4.1818	0.1	5516.6
29030	1.6043	4.4545	0.1	5488.1
29031	1.6935	4.3636	0.1	5490.1
29032	1.6043	4.6364	0.1	5477.3
29033	1.6935	4.5455	0.1	5471.4
29034	1.6043	4.8182	0.1	5479.8
29035	1.6935	4.7273	0.1	5463.8
29036	1.6043	5.	0.1	5498.3
29037	1.6935	4.9091	0.1	5470.1
29038	1.6043	5.1818	0.1	5534.
29039	1.6935	5.0909	0.1	5491.9
29040	1.6043	5.3636	0.1	5586.5
29041	1.6935	5.2727	0.1	5529.7
29042	1.6043	5.5455	0.1	5654.3
29043	1.6935	5.4545	0.1	5582.1
29044	1.6043	5.7273	0.1	5744.9
29045	1.6935	5.6364	0.1	5647.9
29046	1.6935	5.8182	0.1	5743.5
29047	1.6043	5.9091	0.1	5756.1
29048	1.7826	0.27273	0.1	5645.7
29049	1.8717	0.18182	0.1	5619.
29050	1.7826	9.0909e-002	0.1	5645.3
29051	1.7826	0.45455	0.1	5575.1
29052	1.8717	0.36364	0.1	5545.1
29053	1.7826	0.63636	0.1	5524.6
29054	1.8717	0.54545	0.1	5498.7
29055	1.7826	0.81818	0.1	5486.8
29056	1.8717	0.72727	0.1	5464.1
29057	1.7826	1.	0.1	5462.8
29058	1.8717	0.90909	0.1	5442.
29059	1.7826	1.1818	0.1	5453.2
29060	1.8717	1.0909	0.1	5433.4
29061	1.7826	1.3636	0.1	5457.1
29062	1.8717	1.2727	0.1	5438.1
29063	1.7826	1.5455	0.1	5472.7
29064	1.8717	1.4545	0.1	5454.6
29065	1.7826	1.7273	0.1	5497.3
29066	1.8717	1.6364	0.1	5480.9
29067	1.7826	1.9091	0.1	5527.7
29068	1.8717	1.8182	0.1	5513.9
29069	1.7826	2.0909	0.1	5560.6
29070	1.8717	2.	0.1	5550.7
29071	1.7826	2.2727	0.1	5592.8
29072	1.8717	2.1818	0.1	5587.9
29073	1.7826	2.4545	0.1	5621.4
29074	1.8717	2.3636	0.1	5622.5
29075	1.7826	2.6364	0.1	5643.9
29076	1.8717	2.5455	0.1	5651.4
29077	1.7826	2.8182	0.1	5658.2
29078	1.8717	2.7273	0.1	5672.2
29079	1.7826	3.	0.1	5663.1
29080	1.8717	2.9091	0.1	5683.
29081	1.7826	3.1818	0.1	5658.2
29082	1.8717	3.0909	0.1	5683.
29083	1.7826	3.3636	0.1	5643.9
29084	1.8717	3.2727	0.1	5672.2
29085	1.7826	3.5455	0.1	5621.4
29086	1.8717	3.4545	0.1	5651.4
29087	1.7826	3.7273	0.1	5592.8
29088	1.8717	3.6364	0.1	5622.5
29089	1.7826	3.9091	0.1	5560.6
29090	1.8717	3.8182	0.1	5587.9
29091	1.7826	4.0909	0.1	5527.7
29092	1.8717	4.	0.1	5550.7
29093	1.7826	4.2727	0.1	5497.3
29094	1.8717	4.1818	0.1	5513.9
29095	1.7826	4.4545	0.1	5472.7
29096	1.8717	4.3636	0.1	5480.9
29097	1.7826	4.6364	0.1	5457.1
29098	1.8717	4.5455	0.1	5454.6
29099	1.7826	4.8182	0.1	5453.2
29100	1.8717	4.7273	0.1	5438.1
29101	1.7826	5.	0.1	5462.8
29102	1.8717	4.9091	0.1	5433.4
29103	1.7826	5.1818	0.1	5486.8
29104	1.8717	5.0909	0.1	5442.
29105	1.7826	5.3636	0.1	5524.6
29106	1.8717	5.2727	0.1	5464.1
29107	1.7826	5.5455	0.1	5575.1
29108	1.8717	5.4545	0.1	5498.7
29109	1.7826	5.7273	0.1	5645.7
29110	1.8717	5.6364	0.1	5545.1
29111	1.8717	5.8182	0.1	5619.
29112	1.7826	5.9091	0.1	5645.3
29113	1.9609	0.27273	0.1	5517.9
29114	2.05	0.18182	0.1	5465.4
29115	1.9609	9.0909e-002	0.1	5504.
29116	1.9609	0.45455	0.1	5468.2
29117	2.05	0.36364	0.1	5413.2
29118	1.9609	0.63636	0.1	5437.6
29119	2.05	0.54545	0.1	5388.
29120	1.9609	0.81818	0.1	5418.6
29121	2.05	0.72727	0.1	5374.6
29122	1.9609	1.	0.1	5411.9
29123	2.05	0.90909	0.1	5373.3
29124	1.9609	1.1818	0.1	5417.7
29125	2.05	1.0909	0.1	5384.2
29126	1.9609	1.3636	0.1	5435.
29127	2.05	1.2727	0.1	5406.8
29128	1.9609	1.5455	0.1	5462.2
29129	2.05	1.4545	0.1	5439.5
29130	1.9609	1.7273	0.1	5497.
29131	2.05	1.6364	0.1	5480.2
29132	1.9609	1.9091	0.1	5536.5
29133	2.05	1.8182	0.1	5526.3
29134	1.9609	2.0909	0.1	5577.7
29135	2.05	2.	0.1	5574.9
29136	1.9609	2.2727	0.1	5617.2
29137	2.05	2.1818	0.1	5622.8
29138	1.9609	2.4545	0.1	5652.1
29139	2.05	2.3636	0.1	5666.5
29140	1.9609	2.6364	0.1	5679.3
29141	2.05	2.5455	0.1	5702.9
29142	1.9609	2.8182	0.1	5696.7
29143	2.05	2.7273	0.1	5729.1
29144	1.9609	3.	0.1	5702.7
29145	2.05	2.9091	0.1	5742.7
29146	1.9609	3.1818	0.1	5696.7
29147	2.05	3.0909	0.1	5742.7
29148	1.9609	3.3636	0.1	5679.3
29149	2.05	3.2727	0.1	5729.1
29150	1.9609	3.5455	0.1	5652.1
29151	2.05	3.4545	0.1	5702.9
29152	1.9609	3.7273	0.1	5617.2
29153	2.05	3.6364	0.1	5666.5
29154	1.9609	3.9091	0.1	5577.7
29155	2.05	3.8182	0.1	5622.8
29156	1.9609	4.0909	0.1	5536.5
29157	2.05	4.	0.1	5574.9
29158	1.9609	4.2727	0.1	5497.
29159	2.05	4.1818	0.1	5526.3
29160	1.9609	4.4545	0.1	5462.2
29161	2.05	4.3636	0.1	5480.2
29162	1.9609	4.6364	0.1	5435.
29163	2.05	4.5455	0.1	5439.5
29164	1.9609	4.8182	0.1	5417.7
29165	2.05	4.7273	0.1	5406.8
29166	1.9609	5.	0.1	5411.9
29167	2.05	4.9091	0.1	5384.2
29168	1.9609	5.1818	0.1	5418.6
29169	2.05	5.0909	0.1	5373.3
29170	1.9609	5.3636	0.1	5437.6
29171	2.05	5.2727	0.1	5374.6
29172	1.9609	5.5455	0.1	5468.2
29173	2.05	5.4545	0.1	5388.
29174	1.9609	5.7273	0.1	5517.9
29175	2.05	5.6364	0.1	5413.2
29176	2.05	5.8182	0.1	5465.4
29177	1.9609	5.9091	0.1	5504.
29178	2.1391	0.27273	0.1	5360.3
29179	2.2283	0.18182	0.1	5280.1
29180	2.1391	9.0909e-002	0.1	5330.6
29181	2.1391	0.45455	0.1	5332.6
29182	2.2283	0.36364	0.1	5250.
29183	2.1391	0.63636	0.1	5324.6
29184	2.2283	0.54545	0.1	5248.1
29185	2.1391	0.81818	0.1	5328.9
29186	2.2283	0.72727	0.1	5259.9
29187	2.1391	1.	0.1	5345.2
29188	2.2283	0.90909	0.1	5284.7
29189	2.1391	1.1818	0.1	5373.
29190	2.2283	1.0909	0.1	5321.9
29191	2.1391	1.3636	0.1	5410.9
29192	2.2283	1.2727	0.1	5370.
29193	2.1391	1.5455	0.1	5457.1
29194	2.2283	1.4545	0.1	5426.7
29195	2.1391	1.7273	0.1	5509.2
29196	2.2283	1.6364	0.1	5489.7
29197	2.1391	1.9091	0.1	5564.4
29198	2.2283	1.8182	0.1	5556.3
29199	2.1391	2.0909	0.1	5619.7
29200	2.2283	2.	0.1	5623.5
29201	2.1391	2.2727	0.1	5671.7
29202	2.2283	2.1818	0.1	5688.
29203	2.1391	2.4545	0.1	5717.
29204	2.2283	2.3636	0.1	5746.2
29205	2.1391	2.6364	0.1	5752.2
29206	2.2283	2.5455	0.1	5794.3
29207	2.1391	2.8182	0.1	5774.6
29208	2.2283	2.7273	0.1	5828.7
29209	2.1391	3.	0.1	5782.3
29210	2.2283	2.9091	0.1	5846.6
29211	2.1391	3.1818	0.1	5774.6
29212	2.2283	3.0909	0.1	5846.6
29213	2.1391	3.3636	0.1	5752.2
29214	2.2283	3.2727	0.1	5828.7
29215	2.1391	3.5455	0.1	5717.
29216	2.2283	3.4545	0.1	5794.3
29217	2.1391	3.7273	0.1	5671.7
29218	2.2283	3.6364	0.1	5746.2
29219	2.1391	3.9091	0.1	5619.7
29220	2.2283	3.8182	0.1	5688.
29221	2.1391	4.0909	0.1	5564.4
29222	2.2283	4.	0.1	5623.5
29223	2.1391	4.2727	0.1	5509.2
29224	2.2283	4.1818	0.1	5556.3
29225	2.1391	4.4545	0.1	5457.1
29226	2.2283	4.3636	0.1	5489.7
29227	2.1391	4.6364	0.1	5410.9
29228	2.2283	4.5455	0.1	5426.7
29229	2.1391	4.8182	0.1	5373.
29230	2.2283	4.7273	0.1	5370.
29231	2.1391	5.	0.1	5345.2
29232	2.2283	4.9091	0.1	5321.9
29233	2.1391	5.1818	0.1	5328.9
29234	2.2283	5.0909	0.1	5284.7
29235	2.1391	5.3636	0.1	5324.6
29236	2.2283	5.2727	0.1	5259.9
29237	2.1391	5.5455	0.1	5332.6
29238	2.2283	5.4545	0.1	5248.1
29239	2.1391	5.7273	0.1	5360.3
29240	2.2283	5.6364	0.1	5250.
29241	2.2283	5.8182	0.1	5280.1
29242	2.1391	5.9091	0.1	5330.6
29243	2.3174	0.27273	0.1	5169.6
29244	2.4065	0.18182	0.1	5059.5
29245	2.3174	9.0909e-002	0.1	5122.2
29246	2.3174	0.45455	0.1	5165.3
29247	2.4065	0.36364	0.1	5051.6
29248	2.3174	0.63636	0.1	5183.2
29249	2.4065	0.54545	0.1	5075.7
29250	2.3174	0.81818	0.1	5215.7
29251	2.4065	0.72727	0.1	5117.1
29252	2.3174	1.	0.1	5261.5
29253	2.4065	0.90909	0.1	5174.4
29254	2.3174	1.1818	0.1	5318.9
29255	2.4065	1.0909	0.1	5245.7
29256	2.3174	1.3636	0.1	5385.7
29257	2.4065	1.2727	0.1	5328.
29258	2.3174	1.5455	0.1	5459.2
29259	2.4065	1.4545	0.1	5418.
29260	2.3174	1.7273	0.1	5536.6
29261	2.4065	1.6364	0.1	5512.4
29262	2.3174	1.9091	0.1	5615.1
29263	2.4065	1.8182	0.1	5608.
29264	2.3174	2.0909	0.1	5691.5
29265	2.4065	2.	0.1	5701.8
29266	2.3174	2.2727	0.1	5762.1
29267	2.4065	2.1818	0.1	5790.4
29268	2.3174	2.4545	0.1	5823.
29269	2.4065	2.3636	0.1	5869.4
29270	2.3174	2.6364	0.1	5870.2
29271	2.4065	2.5455	0.1	5934.3
29272	2.3174	2.8182	0.1	5900.
29273	2.4065	2.7273	0.1	5980.5
29274	2.3174	3.	0.1	5910.3
29275	2.4065	2.9091	0.1	6004.6
29276	2.3174	3.1818	0.1	5900.
29277	2.4065	3.0909	0.1	6004.6
29278	2.3174	3.3636	0.1	5870.2
29279	2.4065	3.2727	0.1	5980.5
29280	2.3174	3.5455	0.1	5823.
29281	2.4065	3.4545	0.1	5934.3
29282	2.3174	3.7273	0.1	5762.1
29283	2.4065	3.6364	0.1	5869.4
29284	2.3174	3.9091	0.1	5691.5
29285	2.4065	3.8182	0.1	5790.4
29286	2.3174	4.0909	0.1	5615.1
29287	2.4065	4.	0.1	5701.9
29288	2.3174	4.2727	0.1	5536.6
29289	2.4065	4.1818	0.1	5608.
29290	2.3174	4.4545	0.1	5459.2
29291	2.4065	4.3636	0.1	5512.4
29292	2.3174	4.6364	0.1	5385.7
29293	2.4065	4.5455	0.1	5418.
29294	2.3174	4.8182	0.1	5318.9
29295	2.4065	4.7273	0.1	5328.
29296	2.3174	5.	0.1	5261.5
29297	2.4065	4.9091	0.1	5245.7
29298	2.3174	5.1818	0.1	5215.7
29299	2.4065	5.0909	0.1	5174.4
29300	2.3174	5.3636	0.1	5183.2
29301	2.4065	5.2727	0.1	5117.1
29302	2.3174	5.5455	0.1	5165.3
29303	2.4065	5.4545	0.1	5075.7
29304	2.3174	5.7273	0.1	5169.6
29305	2.4065	5.6364	0.1	5051.6
29306	2.4065	5.8182	0.1	5059.5
29307	2.3174	5.9091	0.1	5122.2
29308	2.4957	0.27273	0.1	4941.5
29309	2.5848	0.18182	0.1	4798.6
29310	2.4957	9.0909e-002	0.1	4874.3
29311	2.4957	0.45455	0.1	4962.
29312	2.5848	0.36364	0.1	4813.1
29313	2.4957	0.63636	0.1	5009.8
29314	2.5848	0.54545	0.1	4866.
29315	2.4957	0.81818	0.1	5076.4
29316	2.5848	0.72727	0.1	4942.4
29317	2.4957	1.	0.1	5159.4
29318	2.5848	0.90909	0.1	5039.9
29319	2.4957	1.1818	0.1	5255.5
29320	2.5848	1.0909	0.1	5154.8
29321	2.4957	1.3636	0.1	5360.9
29322	2.5848	1.2727	0.1	5282.1
29323	2.4957	1.5455	0.1	5471.6
29324	2.5848	1.4545	0.1	5416.6
29325	2.4957	1.7273	0.1	5584.
29326	2.5848	1.6364	0.1	5553.4
29327	2.4957	1.9091	0.1	5694.8
29328	2.5848	1.8182	0.1	5688.6
29329	2.4957	2.0909	0.1	5800.6
29330	2.5848	2.	0.1	5818.7
29331	2.4957	2.2727	0.1	5897.3
29332	2.5848	2.1818	0.1	5940.1
29333	2.4957	2.4545	0.1	5980.1
29334	2.5848	2.3636	0.1	6047.6
29335	2.4957	2.6364	0.1	6043.9
29336	2.5848	2.5455	0.1	6135.5
29337	2.4957	2.8182	0.1	6084.2
29338	2.5848	2.7273	0.1	6197.9
29339	2.4957	3.	0.1	6098.
29340	2.5848	2.9091	0.1	6230.3
29341	2.4957	3.1818	0.1	6084.2
29342	2.5848	3.0909	0.1	6230.3
29343	2.4957	3.3636	0.1	6043.9
29344	2.5848	3.2727	0.1	6197.9
29345	2.4957	3.5455	0.1	5980.1
29346	2.5848	3.4545	0.1	6135.5
29347	2.4957	3.7273	0.1	5897.3
29348	2.5848	3.6364	0.1	6047.6
29349	2.4957	3.9091	0.1	5800.6
29350	2.5848	3.8182	0.1	5940.1
29351	2.4957	4.0909	0.1	5694.8
29352	2.5848	4.	0.1	5818.7
29353	2.4957	4.2727	0.1	5584.
29354	2.5848	4.1818	0.1	5688.6
29355	2.4957	4.4545	0.1	5471.6
29356	2.5848	4.3636	0.1	5553.4
29357	2.4957	4.6364	0.1	5361.
29358	2.5848	4.5455	0.1	5416.6
29359	2.4957	4.8182	0.1	5255.5
29360	2.5848	4.7273	0.1	5282.2
29361	2.4957	5.	0.1	5159.4
29362	2.5848	4.9091	0.1	5154.8
29363	2.4957	5.1818	0.1	5076.4
29364	2.5848	5.0909	0.1	5039.9
29365	2.4957	5.3636	0.1	5009.8
29366	2.5848	5.2727	0.1	4942.4
29367	2.4957	5.5455	0.1	4962.
29368	2.5848	5.4545	0.1	4866.
29369	2.4957	5.7273	0.1	4941.5
29370	2.5848	5.6364	0.1	4813.1
29371	2.5848	5.8182	0.1	4798.6
29372	2.4957	5.9091	0.1	4874.3
29373	2.6739	0.27273	0.1	4670.4
29374	2.763	0.18182	0.1	4491.5
29375	2.6739	9.0909e-002	0.1	4581.6
29376	2.6739	0.45455	0.1	4717.4
29377	2.763	0.36364	0.1	4528.4
29378	2.6739	0.63636	0.1	4799.5
29379	2.763	0.54545	0.1	4613.4
29380	2.6739	0.81818	0.1	4907.4
29381	2.763	0.72727	0.1	4731.3
29382	2.6739	1.	0.1	5037.2
29383	2.763	0.90909	0.1	4878.4
29384	2.6739	1.1818	0.1	5183.4
29385	2.763	1.0909	0.1	5048.8
29386	2.6739	1.3636	0.1	5339.7
29387	2.763	1.2727	0.1	5234.9
29388	2.6739	1.5455	0.1	5499.9
29389	2.763	1.4545	0.1	5428.2
29390	2.6739	1.7273	0.1	5659.
29391	2.763	1.6364	0.1	5621.4
29392	2.6739	1.9091	0.1	5813.
29393	2.763	1.8182	0.1	5809.1
29394	2.6739	2.0909	0.1	5958.3
29395	2.763	2.	0.1	5987.4
29396	2.6739	2.2727	0.1	6090.
29397	2.763	2.1818	0.1	6152.2
29398	2.6739	2.4545	0.1	6202.2
29399	2.763	2.3636	0.1	6297.5
29400	2.6739	2.6364	0.1	6288.3
29401	2.763	2.5455	0.1	6415.4
29402	2.6739	2.8182	0.1	6342.4
29403	2.763	2.7273	0.1	6498.4
29404	2.6739	3.	0.1	6360.9
29405	2.763	2.9091	0.1	6541.3
29406	2.6739	3.1818	0.1	6342.4
29407	2.763	3.0909	0.1	6541.3
29408	2.6739	3.3636	0.1	6288.3
29409	2.763	3.2727	0.1	6498.4
29410	2.6739	3.5455	0.1	6202.2
29411	2.763	3.4545	0.1	6415.4
29412	2.6739	3.7273	0.1	6090.
29413	2.763	3.6364	0.1	6297.5
29414	2.6739	3.9091	0.1	5958.3
29415	2.763	3.8182	0.1	6152.2
29416	2.6739	4.0909	0.1	5813.
29417	2.763	4.	0.1	5987.4
29418	2.6739	4.2727	0.1	5659.
29419	2.763	4.1818	0.1	5809.1
29420	2.6739	4.4545	0.1	5499.9
29421	2.763	4.3636	0.1	5621.4
29422	2.6739	4.6364	0.1	5339.7
29423	2.763	4.5455	0.1	5428.2
29424	2.6739	4.8182	0.1	5183.4
29425	2.763	4.7273	0.1	5234.9
29426	2.6739	5.	0.1	5037.2
29427	2.763	4.9091	0.1	5048.8
29428	2.6739	5.1818	0.1	4907.4
29429	2.763	5.0909	0.1	4878.4
29430	2.6739	5.3636	0.1	4799.5
29431	2.763	5.2727	0.1	4731.3
29432	2.6739	5.5455	0.1	4717.4
29433	2.763	5.4545	0.1	4613.4
29434	2.6739	5.7273	0.1	4670.4
29435	2.763	5.6364	0.1	4528.4
29436	2.763	5.8182	0.1	4491.5
29437	2.6739	5.9091	0.1	4581.6
29438	2.8522	0.27273	0.1	4350.
29439	2.9413	0.18182	0.1	4132.2
29440	2.8522	9.0909e-002	0.1	4238.3
29441	2.8522	0.45455	0.1	4425.2
29442	2.9413	0.36364	0.1	4191.
29443	2.8522	0.63636	0.1	4547.2
29444	2.9413	0.54545	0.1	4312.4
29445	2.8522	0.81818	0.1	4705.5
29446	2.9413	0.72727	0.1	4479.8
29447	2.8522	1.	0.1	4894.
29448	2.9413	0.90909	0.1	4688.1
29449	2.8522	1.1818	0.1	5104.5
29450	2.9413	1.0909	0.1	4929.
29451	2.8522	1.3636	0.1	5327.3
29452	2.9413	1.2727	0.1	5191.2
29453	2.8522	1.5455	0.1	5552.9
29454	2.9413	1.4545	0.1	5462.2
29455	2.8522	1.7273	0.1	5773.7
29456	2.9413	1.6364	0.1	5730.3
29457	2.8522	1.9091	0.1	5984.7
29458	2.9413	1.8182	0.1	5987.4
29459	2.8522	2.0909	0.1	6181.8
29460	2.9413	2.	0.1	6228.9
29461	2.8522	2.2727	0.1	6359.4
29462	2.9413	2.1818	0.1	6450.3
29463	2.8522	2.4545	0.1	6509.5
29464	2.9413	2.3636	0.1	6643.6
29465	2.8522	2.6364	0.1	6623.6
29466	2.9413	2.5455	0.1	6798.3
29467	2.8522	2.8182	0.1	6694.8
29468	2.9413	2.7273	0.1	6905.5
29469	2.8522	3.	0.1	6719.
29470	2.9413	2.9091	0.1	6959.9
29471	2.8522	3.1818	0.1	6694.8
29472	2.9413	3.0909	0.1	6959.9
29473	2.8522	3.3636	0.1	6623.6
29474	2.9413	3.2727	0.1	6905.5
29475	2.8522	3.5455	0.1	6509.5
29476	2.9413	3.4545	0.1	6798.3
29477	2.8522	3.7273	0.1	6359.4
29478	2.9413	3.6364	0.1	6643.6
29479	2.8522	3.9091	0.1	6181.8
29480	2.9413	3.8182	0.1	6450.3
29481	2.8522	4.0909	0.1	5984.7
29482	2.9413	4.	0.1	6228.9
29483	2.8522	4.2727	0.1	5773.7
29484	2.9413	4.1818	0.1	5987.4
29485	2.8522	4.4545	0.1	5552.9
29486	2.9413	4.3636	0.1	5730.3
29487	2.8522	4.6364	0.1	5327.3
29488	2.9413	4.5455	0.1	5462.2
29489	2.8522	4.8182	0.1	5104.5
29490	2.9413	4.7273	0.1	5191.2
29491	2.8522	5.	0.1	4894.
29492	2.9413	4.9091	0.1	4929.
29493	2.8522	5.1818	0.1	4705.5
29494	2.9413	5.0909	0.1	4688.1
29495	2.8522	5.3636	0.1	4547.2
29496	2.9413	5.2727	0.1	4479.8
29497	2.8522	5.5455	0.1	4425.2
29498	2.9413	5.4545	0.1	4312.4
29499	2.8522	5.7273	0.1	4350.
29500	2.9413	5.6364	0.1	4191.
29501	2.9413	5.8182	0.1	4132.2
29502	2.8522	5.9091	0.1	4238.3
29503	3.0304	0.27273	0.1	3974.1
29504	3.1196	0.18182	0.1	3714.9
29505	3.0304	9.0909e-002	0.1	3838.5
29506	3.0304	0.45455	0.1	4079.8
29507	3.1196	0.36364	0.1	3795.6
29508	3.0304	0.63636	0.1	4248.7
29509	3.1196	0.54545	0.1	3958.9
29510	3.0304	0.81818	0.1	4468.5
29511	3.1196	0.72727	0.1	4186.2
29512	3.0304	1.	0.1	4730.7
29513	3.1196	0.90909	0.1	4470.
29514	3.0304	1.1818	0.1	5023.8
29515	3.1196	1.0909	0.1	4799.4
29516	3.0304	1.3636	0.1	5333.6
29517	3.1196	1.2727	0.1	5160.1
29518	3.0304	1.5455	0.1	5645.6
29519	3.1196	1.4545	0.1	5534.2
29520	3.0304	1.7273	0.1	5948.1
29521	3.1196	1.6364	0.1	5903.
29522	3.0304	1.9091	0.1	6233.9
29523	3.1196	1.8182	0.1	6252.8
29524	3.0304	2.0909	0.1	6498.3
29525	3.1196	2.	0.1	6577.1
29526	3.0304	2.2727	0.1	6734.
29527	3.1196	2.1818	0.1	6871.
29528	3.0304	2.4545	0.1	6930.5
29529	3.1196	2.3636	0.1	7123.2
29530	3.0304	2.6364	0.1	7077.
29531	3.1196	2.5455	0.1	7318.2
29532	3.0304	2.8182	0.1	7166.5
29533	3.1196	2.7273	0.1	7447.7
29534	3.0304	3.	0.1	7196.5
29535	3.1196	2.9091	0.1	7511.2
29536	3.0304	3.1818	0.1	7166.5
29537	3.1196	3.0909	0.1	7511.2
29538	3.0304	3.3636	0.1	7077.
29539	3.1196	3.2727	0.1	7447.7
29540	3.0304	3.5455	0.1	6930.5
29541	3.1196	3.4545	0.1	7318.2
29542	3.0304	3.7273	0.1	6734.
29543	3.1196	3.6364	0.1	7123.2
29544	3.0304	3.9091	0.1	6498.3
29545	3.1196	3.8182	0.1	6871.
29546	3.0304	4.0909	0.1	6233.9
29547	3.1196	4.	0.1	6577.1
29548	3.0304	4.2727	0.1	5948.1
29549	3.1196	4.1818	0.1	6252.8
29550	3.0304	4.4545	0.1	5645.6
29551	3.1196	4.3636	0.1	5903.
29552	3.0304	4.6364	0.1	5333.6
29553	3.1196	4.5455	0.1	5534.2
29554	3.0304	4.8182	0.1	5023.8
29555	3.1196	4.7273	0.1	5160.1
29556	3.0304	5.	0.1	4730.7
29557	3.1196	4.9091	0.1	4799.4
29558	3.0304	5.1818	0.1	4468.5
29559	3.1196	5.0909	0.1	4470.
29560	3.0304	5.3636	0.1	4248.7
29561	3.1196	5.2727	0.1	4186.2
29562	3.0304	5.5455	0.1	4079.8
29563	3.1196	5.4545	0.1	3958.9
29564	3.0304	5.7273	0.1	3974.1
29565	3.1196	5.6364	0.1	3795.6
29566	3.1196	5.8182	0.1	3714.9
29567	3.0304	5.9091	0.1	3838.5
29568	3.2087	0.27273	0.1	3537.7
29569	3.2978	0.18182	0.1	3235.
29570	3.2087	9.0909e-002	0.1	3377.3
29571	3.2087	0.45455	0.1	3677.8
29572	3.2978	0.36364	0.1	3339.8
29573	3.2087	0.63636	0.1	3903.4
29574	3.2978	0.54545	0.1	3554.7
29575	3.2087	0.81818	0.1	4198.8
29576	3.2978	0.72727	0.1	3855.8
29577	3.2087	1.	0.1	4552.8
29578	3.2978	0.90909	0.1	4231.9
29579	3.2087	1.1818	0.1	4950.9
29580	3.2978	1.0909	0.1	4670.5
29581	3.2087	1.3636	0.1	5374.7
29582	3.2978	1.2727	0.1	5156.5
29583	3.2087	1.5455	0.1	5802.5
29584	3.2978	1.4545	0.1	5668.8
29585	3.2087	1.7273	0.1	6214.7
29586	3.2978	1.6364	0.1	6179.2
29587	3.2087	1.9091	0.1	6599.6
29588	3.2978	1.8182	0.1	6657.2
29589	3.2087	2.0909	0.1	6950.8
29590	3.2978	2.	0.1	7093.4
29591	3.2087	2.2727	0.1	7258.8
29592	3.2978	2.1818	0.1	7479.6
29593	3.2087	2.4545	0.1	7507.3
29594	3.2978	2.3636	0.1	7794.9
29595	3.2087	2.6364	0.1	7683.4
29596	3.2978	2.5455	0.1	8020.9
29597	3.2087	2.8182	0.1	7785.9
29598	3.2978	2.7273	0.1	8156.
29599	3.2087	3.	0.1	7819.1
29600	3.2978	2.9091	0.1	8216.9
29601	3.2087	3.1818	0.1	7785.9
29602	3.2978	3.0909	0.1	8216.9
29603	3.2087	3.3636	0.1	7683.5
29604	3.2978	3.2727	0.1	8156.
29605	3.2087	3.5455	0.1	7507.3
29606	3.2978	3.4545	0.1	8020.9
29607	3.2087	3.7273	0.1	7258.8
29608	3.2978	3.6364	0.1	7794.9
29609	3.2087	3.9091	0.1	6950.8
29610	3.2978	3.8182	0.1	7479.6
29611	3.2087	4.0909	0.1	6599.6
29612	3.2978	4.	0.1	7093.4
29613	3.2087	4.2727	0.1	6214.7
29614	3.2978	4.1818	0.1	6657.2
29615	3.2087	4.4545	0.1	5802.5
29616	3.2978	4.3636	0.1	6179.2
29617	3.2087	4.6364	0.1	5374.7
29618	3.2978	4.5455	0.1	5668.8
29619	3.2087	4.8182	0.1	4950.9
29620	3.2978	4.7273	0.1	5156.5
29621	3.2087	5.	0.1	4552.8
29622	3.2978	4.9091	0.1	4670.5
29623	3.2087	5.1818	0.1	4198.8
29624	3.2978	5.0909	0.1	4231.9
29625	3.2087	5.3636	0.1	3903.4
29626	3.2978	5.2727	0.1	3855.8
29627	3.2087	5.5455	0.1	3677.8
29628	3.2978	5.4545	0.1	3554.7
29629	3.2087	5.7273	0.1	3537.7
29630	3.2978	5.6364	0.1	3339.8
29631	3.2978	5.8182	0.1	3235.
29632	3.2087	5.9091	0.1	3377.3
29633	3.387	0.27273	0.1	3039.1
29634	3.4761	0.18182	0.1	2690.7
29635	3.387	9.0909e-002	0.1	2851.5
29636	3.387	0.45455	0.1	3222.6
29637	3.4761	0.36364	0.1	2829.6
29638	3.387	0.63636	0.1	3520.3
29639	3.4761	0.54545	0.1	3115.1
29640	3.387	0.81818	0.1	3909.
29641	3.4761	0.72727	0.1	3509.5
29642	3.387	1.	0.1	4374.6
29643	3.4761	0.90909	0.1	3995.4
29644	3.387	1.1818	0.1	4903.1
29645	3.4761	1.0909	0.1	4562.2
29646	3.387	1.3636	0.1	5475.8
29647	3.4761	1.2727	0.1	5202.
29648	3.387	1.5455	0.1	6064.8
29649	3.4761	1.4545	0.1	5902.2
29650	3.387	1.7273	0.1	6633.
29651	3.4761	1.6364	0.1	6618.4
29652	3.387	1.9091	0.1	7155.5
29653	3.4761	1.8182	0.1	7293.8
29654	3.387	2.0909	0.1	7622.
29655	3.4761	2.	0.1	7891.8
29656	3.387	2.2727	0.1	8011.7
29657	3.4761	2.1818	0.1	8388.
29658	3.387	2.4545	0.1	8301.2
29659	3.4761	2.3636	0.1	8758.6
29660	3.387	2.6364	0.1	8484.
29661	3.4761	2.5455	0.1	8962.3
29662	3.387	2.8182	0.1	8577.
29663	3.4761	2.7273	0.1	9050.6
29664	3.387	3.	0.1	8604.5
29665	3.4761	2.9091	0.1	9079.
29666	3.387	3.1818	0.1	8577.
29667	3.4761	3.0909	0.1	9079.
29668	3.387	3.3636	0.1	8484.
29669	3.4761	3.2727	0.1	9050.6
29670	3.387	3.5455	0.1	8301.2
29671	3.4761	3.4545	0.1	8962.3
29672	3.387	3.7273	0.1	8011.7
29673	3.4761	3.6364	0.1	8758.6
29674	3.387	3.9091	0.1	7622.
29675	3.4761	3.8182	0.1	8388.
29676	3.387	4.0909	0.1	7155.5
29677	3.4761	4.	0.1	7891.8
29678	3.387	4.2727	0.1	6633.
29679	3.4761	4.1818	0.1	7293.8
29680	3.387	4.4545	0.1	6064.8
29681	3.4761	4.3636	0.1	6618.4
29682	3.387	4.6364	0.1	5475.8
29683	3.4761	4.5455	0.1	5902.2
29684	3.387	4.8182	0.1	4903.1
29685	3.4761	4.7273	0.1	5202.
29686	3.387	5.	0.1	4374.6
29687	3.4761	4.9091	0.1	4562.2
29688	3.387	5.1818	0.1	3909.
29689	3.4761	5.0909	0.1	3995.4
29690	3.387	5.3636	0.1	3520.3
29691	3.4761	5.2727	0.1	3509.5
29692	3.387	5.5455	0.1	3222.6
29693	3.4761	5.4545	0.1	3115.1
29694	3.387	5.7273	0.1	3039.1
29695	3.4761	5.6364	0.1	2829.6
29696	3.4761	5.8182	0.1	2690.7
29697	3.387	5.9091	0.1	2851.5
29698	3.5652	0.27273	0.1	2484.6
29699	3.6543	0.18182	0.1	2086.6
29700	3.5652	9.0909e-002	0.1	2260.1
29701	3.5652	0.45455	0.1	2734.7
29702	3.6543	0.36364	0.1	2294.3
29703	3.5652	0.63636	0.1	3129.5
29704	3.6543	0.54545	0.1	2688.3
29705	3.5652	0.81818	0.1	3631.1
29706	3.6543	0.72727	0.1	3200.5
29707	3.5652	1.	0.1	4225.1
29708	3.6543	0.90909	0.1	3808.7
29709	3.5652	1.1818	0.1	4906.9
29710	3.6543	1.0909	0.1	4513.6
29711	3.5652	1.3636	0.1	5672.9
29712	3.6543	1.2727	0.1	5330.3
29713	3.5652	1.5455	0.1	6491.3
29714	3.6543	1.4545	0.1	6270.9
29715	3.5652	1.7273	0.1	7297.2
29716	3.6543	1.6364	0.1	7332.4
29717	3.5652	1.9091	0.1	8033.5
29718	3.6543	1.8182	0.1	8426.3
29719	3.5652	2.0909	0.1	8652.4
29720	3.6543	2.	0.1	9250.9
29721	3.5652	2.2727	0.1	9123.1
29722	3.6543	2.1818	0.1	9895.9
29723	3.5652	2.4545	0.1	9404.3
29724	3.6543	2.3636	0.1	10167
29725	3.5652	2.6364	0.1	9513.6
29726	3.6543	2.5455	0.1	10183
29727	3.5652	2.8182	0.1	9538.5
29728	3.6543	2.7273	0.1	10106
29729	3.5652	3.	0.1	9539.9
29730	3.6543	2.9091	0.1	10049
29731	3.5652	3.1818	0.1	9538.5
29732	3.6543	3.0909	0.1	10049
29733	3.5652	3.3636	0.1	9513.6
29734	3.6543	3.2727	0.1	10106
29735	3.5652	3.5455	0.1	9404.3
29736	3.6543	3.4545	0.1	10183
29737	3.5652	3.7273	0.1	9123.1
29738	3.6543	3.6364	0.1	10167
29739	3.5652	3.9091	0.1	8652.4
29740	3.6543	3.8182	0.1	9895.9
29741	3.5652	4.0909	0.1	8033.5
29742	3.6543	4.	0.1	9250.9
29743	3.5652	4.2727	0.1	7297.2
29744	3.6543	4.1818	0.1	8426.3
29745	3.5652	4.4545	0.1	6491.3
29746	3.6543	4.3636	0.1	7332.4
29747	3.5652	4.6364	0.1	5672.9
29748	3.6543	4.5455	0.1	6270.9
29749	3.5652	4.8182	0.1	4906.9
29750	3.6543	4.7273	0.1	5330.3
29751	3.5652	5.	0.1	4225.1
29752	3.6543	4.9091	0.1	4513.6
29753	3.5652	5.1818	0.1	3631.1
29754	3.6543	5.0909	0.1	3808.7
29755	3.5652	5.3636	0.1	3129.5
29756	3.6543	5.2727	0.1	3200.5
29757	3.5652	5.5455	0.1	2734.7
29758	3.6543	5.4545	0.1	2688.3
29759	3.5652	5.7273	0.1	2484.6
29760	3.6543	5.6364	0.1	2294.3
29761	3.6543	5.8182	0.1	2086.6
29762	3.5652	5.9091	0.1	2260.1
29763	3.7435	0.27273	0.1	1906.
29764	3.8326	0.18182	0.1	1463.5
29765	3.7435	9.0909e-002	0.1	1608.1
29766	3.7435	0.45455	0.1	2279.4
29767	3.8326	0.36364	0.1	1859.
29768	3.7435	0.63636	0.1	2807.3
29769	3.8326	0.54545	0.1	2430.8
29770	3.7435	0.81818	0.1	3435.9
29771	3.8326	0.72727	0.1	3090.8
29772	3.7435	1.	0.1	4162.5
29773	3.8326	0.90909	0.1	3836.
29774	3.7435	1.1818	0.1	5009.7
29775	3.8326	1.0909	0.1	4691.9
29776	3.7435	1.3636	0.1	6007.2
29777	3.8326	1.2727	0.1	5710.1
29778	3.7435	1.5455	0.1	7180.7
29779	3.8326	1.4545	0.1	6964.3
29780	3.7435	1.7273	0.1	8501.7
29781	3.8326	1.6364	0.1	8606.5
29782	3.7435	1.9091	0.1	9625.9
29783	3.8326	1.8182	0.1	10859
29784	3.7435	2.0909	0.1	10466
29785	3.8326	2.	0.1	12630
29786	3.7435	2.2727	0.1	10904
29787	3.8326	2.1818	0.1	12618
29788	3.7435	2.4545	0.1	10918
29789	3.8326	2.3636	0.1	12179
29790	3.7435	2.6364	0.1	10756
29791	3.8326	2.5455	0.1	11589
29792	3.7435	2.8182	0.1	10600
29793	3.8326	2.7273	0.1	11189
29794	3.7435	3.	0.1	10543
29795	3.8326	2.9091	0.1	10990
29796	3.7435	3.1818	0.1	10600
29797	3.8326	3.0909	0.1	10990
29798	3.7435	3.3636	0.1	10756
29799	3.8326	3.2727	0.1	11189
29800	3.7435	3.5455	0.1	10918
29801	3.8326	3.4545	0.1	11589
29802	3.7435	3.7273	0.1	10904
29803	3.8326	3.6364	0.1	12179
29804	3.7435	3.9091	0.1	10466
29805	3.8326	3.8182	0.1	12618
29806	3.7435	4.0909	0.1	9625.9
29807	3.8326	4.	0.1	12630
29808	3.7435	4.2727	0.1	8501.7
29809	3.8326	4.1818	0.1	10859
29810	3.7435	4.4545	0.1	7180.7
29811	3.8326	4.3636	0.1	8606.5
29812	3.7435	4.6364	0.1	6007.2
29813	3.8326	4.5455	0.1	6964.3
29814	3.7435	4.8182	0.1	5009.7
29815	3.8326	4.7273	0.1	5710.1
29816	3.7435	5.	0.1	4162.5
29817	3.8326	4.9091	0.1	4691.9
29818	3.7435	5.1818	0.1	3435.9
29819	3.8326	5.0909	0.1	3836.
29820	3.7435	5.3636	0.1	2807.3
29821	3.8326	5.2727	0.1	3090.8
29822	3.7435	5.5455	0.1	2279.4
29823	3.8326	5.4545	0.1	2430.8
29824	3.7435	5.7273	0.1	1906.
29825	3.8326	5.6364	0.1	1859.
29826	3.8326	5.8182	0.1	1463.5
29827	3.7435	5.9091	0.1	1608.1
29828	3.9217	0.27273	0.1	1470.5
29829	4.0109	0.18182	0.1	845.65
29830	3.9217	9.0909e-002	0.1	928.06
29831	3.9217	0.45455	0.1	2091.3
29832	4.0109	0.36364	0.1	1387.
29833	3.9217	0.63636	0.1	2798.2
29834	4.0109	0.54545	0.1	1959.
29835	3.9217	0.81818	0.1	3576.6
29836	4.0109	0.72727	0.1	2561.
29837	3.9217	1.	0.1	4457.9
29838	4.0109	0.90909	0.1	3219.1
29839	3.9217	1.1818	0.1	5500.8
29840	4.0109	1.0909	0.1	3972.3
29841	3.9217	1.3636	0.1	6803.8
29842	4.0109	1.2727	0.1	4883.7
29843	3.9217	1.5455	0.1	8591.8
29844	4.0109	1.4545	0.1	6080.5
29845	3.9217	1.7273	0.1	11139
29846	4.0109	1.6364	0.1	7677.9
29847	3.9217	1.9091	0.1	13787
29848	4.0109	1.8182	0.1	10873
29849	3.9217	2.0909	0.1	14571
29850	4.0109	2.	0.1	21510
29851	3.9217	2.2727	0.1	13820
29852	4.0109	2.1818	0.1	16595
29853	3.9217	2.4545	0.1	12825
29854	4.0109	2.3636	0.1	14204
29855	3.9217	2.6364	0.1	12009
29856	4.0109	2.5455	0.1	12790
29857	3.9217	2.8182	0.1	11568
29858	4.0109	2.7273	0.1	12023
29859	3.9217	3.	0.1	11426
29860	4.0109	2.9091	0.1	11681
29861	3.9217	3.1818	0.1	11568
29862	4.0109	3.0909	0.1	11681
29863	3.9217	3.3636	0.1	12009
29864	4.0109	3.2727	0.1	12023
29865	3.9217	3.5455	0.1	12825
29866	4.0109	3.4545	0.1	12790
29867	3.9217	3.7273	0.1	13820
29868	4.0109	3.6364	0.1	14204
29869	3.9217	3.9091	0.1	14571
29870	4.0109	3.8182	0.1	16595
29871	3.9217	4.0909	0.1	13787
29872	4.0109	4.	0.1	21510
29873	3.9217	4.2727	0.1	11139
29874	4.0109	4.1818	0.1	10873
29875	3.9217	4.4545	0.1	8591.8
29876	4.0109	4.3636	0.1	7677.9
29877	3.9217	4.6364	0.1	6803.8
29878	4.0109	4.5455	0.1	6080.5
29879	3.9217	4.8182	0.1	5500.8
29880	4.0109	4.7273	0.1	4883.7
29881	3.9217	5.	0.1	4457.9
29882	4.0109	4.9091	0.1	3972.3
29883	3.9217	5.1818	0.1	3576.6
29884	4.0109	5.0909	0.1	3219.1
29885	3.9217	5.3636	0.1	2798.2
29886	4.0109	5.2727	0.1	2561.
29887	3.9217	5.5455	0.1	2091.3
29888	4.0109	5.4545	0.1	1959.
29889	3.9217	5.7273	0.1	1470.5
29890	4.0109	5.6364	0.1	1387.
29891	4.0109	5.8182	0.1	845.65
29892	3.9217	5.9091	0.1	928.06
29893	4.2667	3.7273	0.1	17000
29894	4.1833	3.8182	0.1	18805
29895	4.2667	3.9091	0.1	22692
29896	4.2667	3.5455	0.1	14140
29897	4.1833	3.6364	0.1	15014
29898	4.2667	3.3636	0.1	12764
29899	4.1833	3.4545	0.1	13244
29900	4.2667	3.1818	0.1	12092
29901	4.1833	3.2727	0.1	12312
29902	4.2667	3.	0.1	11891
29903	4.1833	3.0909	0.1	11912
29904	4.2667	2.8182	0.1	12092
29905	4.1833	2.9091	0.1	11912
29906	4.2667	2.6364	0.1	12764
29907	4.1833	2.7273	0.1	12312
29908	4.2667	2.4545	0.1	14140
29909	4.1833	2.5455	0.1	13244
29910	4.2667	2.2727	0.1	17000
29911	4.1833	2.3636	0.1	15014
29912	4.1833	2.1818	0.1	18805
29913	4.2667	2.0909	0.1	22692
29914	4.1	3.7273	0.1	17157
29915	4.1	3.9091	0.1	23269
29916	4.1	3.5455	0.1	14218
29917	4.1	3.3636	0.1	12818
29918	4.1	3.1818	0.1	12136
29919	4.1	3.	0.1	11932
29920	4.1	2.8182	0.1	12136
29921	4.1	2.6364	0.1	12818
29922	4.1	2.4545	0.1	14218
29923	4.1	2.2727	0.1	17157
29924	4.1	2.0909	0.1	23269
29925	4.2667	5.7273	0.1	749.2
29926	4.2667	5.9091	0.1	270.67
29927	4.2667	5.8182	5.e-002	194.07
29928	4.2667	5.5455	0.1	1179.5
29929	4.2667	5.6364	5.e-002	413.66
29930	4.2667	5.3636	0.1	1611.4
29931	4.2667	5.4545	5.e-002	631.23
29932	4.2667	5.1818	0.1	2083.3
29933	4.2667	5.2727	5.e-002	866.57
29934	4.2667	5.	0.1	2627.8
29935	4.2667	5.0909	5.e-002	1132.1
29936	4.2667	4.8182	0.1	3292.6
29937	4.2667	4.9091	5.e-002	1446.
29938	4.2667	4.6364	0.1	4176.1
29939	4.2667	4.7273	5.e-002	1839.5
29940	4.2667	4.4545	0.1	5335.3
29941	4.2667	4.5455	5.e-002	2365.5
29942	4.2667	4.2727	0.1	8187.4
29943	4.2667	4.3636	5.e-002	3205.5
29944	4.2667	4.0909	0.1	16434
29945	4.2667	4.1818	5.e-002	5324.1
29946	4.1833	4.	0.1	23717
29947	4.2667	4.	5.e-002	4572.8
29948	4.1	4.0909	0.1	17048
29949	4.1	4.	5.e-002	5104.7
29950	4.1	4.2727	0.1	8841.9
29951	4.1	4.1818	5.e-002	5906.4
29952	4.1	4.4545	0.1	5928.8
29953	4.1	4.3636	5.e-002	3647.9
29954	4.1	4.6364	0.1	4745.9
29955	4.1	4.5455	5.e-002	2746.8
29956	4.1	4.8182	0.1	3825.4
29957	4.1	4.7273	5.e-002	2166.1
29958	4.1	5.	0.1	3118.5
29959	4.1	4.9091	5.e-002	1725.5
29960	4.1	5.1818	0.1	2521.9
29961	4.1	5.0909	5.e-002	1366.7
29962	4.1	5.3636	0.1	1986.6
29963	4.1	5.2727	5.e-002	1056.9
29964	4.1	5.5455	0.1	1477.
29965	4.1	5.4545	5.e-002	776.72
29966	4.1	5.7273	0.1	948.45
29967	4.1	5.6364	5.e-002	512.56
29968	4.1	5.9091	0.1	342.77
29969	4.1	5.8182	5.e-002	239.82
29970	4.2667	0.27273	0.1	749.2
29971	4.2667	9.0909e-002	0.1	270.67
29972	4.2667	0.18182	5.e-002	194.07
29973	4.2667	0.45455	0.1	1179.5
29974	4.2667	0.36364	5.e-002	413.66
29975	4.2667	0.63636	0.1	1611.4
29976	4.2667	0.54545	5.e-002	631.23
29977	4.2667	0.81818	0.1	2083.3
29978	4.2667	0.72727	5.e-002	866.57
29979	4.2667	1.	0.1	2627.8
29980	4.2667	0.90909	5.e-002	1132.1
29981	4.2667	1.1818	0.1	3292.6
29982	4.2667	1.0909	5.e-002	1446.
29983	4.2667	1.3636	0.1	4176.1
29984	4.2667	1.2727	5.e-002	1839.5
29985	4.2667	1.5455	0.1	5335.3
29986	4.2667	1.4545	5.e-002	2365.5
29987	4.2667	1.7273	0.1	8187.4
29988	4.2667	1.6364	5.e-002	3205.5
29989	4.2667	1.9091	0.1	16434
29990	4.2667	1.8182	5.e-002	5324.1
29991	4.1833	2.	0.1	23717
29992	4.2667	2.	5.e-002	4572.8
29993	4.1	1.9091	0.1	17048
29994	4.1	2.	5.e-002	5104.7
29995	4.1	1.7273	0.1	8841.9
29996	4.1	1.8182	5.e-002	5906.4
29997	4.1	1.5455	0.1	5928.8
29998	4.1	1.6364	5.e-002	3647.9
29999	4.1	1.3636	0.1	4745.9
30000	4.1	1.4545	5.e-002	2746.8
30001	4.1	1.1818	0.1	3825.4
30002	4.1	1.2727	5.e-002	2166.1
30003	4.1	1.	0.1	3118.5
30004	4.1	1.0909	5.e-002	1725.5
30005	4.1	0.81818	0.1	2521.9
30006	4.1	0.90909	5.e-002	1366.7
30007	4.1	0.63636	0.1	1986.6
30008	4.1	0.72727	5.e-002	1056.9
30009	4.1	0.45455	0.1	1477.
30010	4.1	0.54545	5.e-002	776.72
30011	4.1	0.27273	0.1	948.45
30012	4.1	0.36364	5.e-002	512.56
30013	4.1	9.0909e-002	0.1	342.77
30014	4.1	0.18182	5.e-002	239.82
30015	4.3589	6.	0.1	330.94
30016	4.2667	6.	5.e-002	60.322
30017	4.5433	6.	0.1	946.38
30018	4.4511	6.	5.e-002	43.286
30019	4.7277	6.	0.1	1522.1
30020	4.6355	6.	5.e-002	113.54
30021	4.9121	6.	0.1	2027.8
30022	4.8199	6.	5.e-002	147.26
30023	5.0966	6.	0.1	2468.3
30024	5.0044	6.	5.e-002	163.13
30025	5.281	6.	0.1	2843.2
30026	5.1888	6.	5.e-002	166.4
30027	5.4654	6.	0.1	3154.6
30028	5.3732	6.	5.e-002	161.93
30029	5.6498	6.	0.1	3406.8
30030	5.5576	6.	5.e-002	153.07
30031	5.8343	6.	0.1	3606.
30032	5.7421	6.	5.e-002	142.29
30033	6.0187	6.	0.1	3758.9
30034	5.9265	6.	5.e-002	131.21
30035	6.2031	6.	0.1	3872.5
30036	6.1109	6.	5.e-002	120.87
30037	6.3875	6.	0.1	3953.1
30038	6.2953	6.	5.e-002	111.84
30039	6.572	6.	0.1	4006.6
30040	6.4798	6.	5.e-002	104.36
30041	6.7564	6.	0.1	4037.8
30042	6.6642	6.	5.e-002	98.504
30043	6.9408	6.	0.1	4051.1
30044	6.8486	6.	5.e-002	94.17
30045	7.1252	6.	0.1	4049.9
30046	7.033	6.	5.e-002	91.213
30047	7.3097	6.	0.1	4037.2
30048	7.2174	6.	5.e-002	89.449
30049	7.4941	6.	0.1	4015.3
30050	7.4019	6.	5.e-002	88.687
30051	7.6785	6.	0.1	3986.2
30052	7.5863	6.	5.e-002	88.744
30053	7.8629	6.	0.1	3951.5
30054	7.7707	6.	5.e-002	89.451
30055	8.0474	6.	0.1	3912.4
30056	7.9551	6.	5.e-002	90.661
30057	8.2318	6.	0.1	3869.8
30058	8.1396	6.	5.e-002	92.244
30059	8.4162	6.	0.1	3824.6
30060	8.324	6.	5.e-002	94.093
30061	8.6006	6.	0.1	3777.3
30062	8.5084	6.	5.e-002	96.118
30063	8.785	6.	0.1	3728.6
30064	8.6928	6.	5.e-002	98.244
30065	8.9695	6.	0.1	3678.8
30066	8.8773	6.	5.e-002	100.41
30067	9.1539	6.	0.1	3628.1
30068	9.0617	6.	5.e-002	102.58
30069	9.3383	6.	0.1	3576.9
30070	9.2461	6.	5.e-002	104.7
30071	9.5227	6.	0.1	3525.3
30072	9.4305	6.	5.e-002	106.76
30073	9.7072	6.	0.1	3473.4
30074	9.615	6.	5.e-002	108.73
30075	9.8916	6.	0.1	3421.4
30076	9.7994	6.	5.e-002	110.6
30077	10.076	6.	0.1	3369.4
30078	9.9838	6.	5.e-002	112.35
30079	10.26	6.	0.1	3317.5
30080	10.168	6.	5.e-002	113.99
30081	10.445	6.	0.1	3265.6
30082	10.353	6.	5.e-002	115.51
30083	10.629	6.	0.1	3213.8
30084	10.537	6.	5.e-002	116.9
30085	10.814	6.	0.1	3162.2
30086	10.721	6.	5.e-002	118.18
30087	10.998	6.	0.1	3110.7
30088	10.906	6.	5.e-002	119.34
30089	11.183	6.	0.1	3059.5
30090	11.09	6.	5.e-002	120.38
30091	11.367	6.	0.1	3008.4
30092	11.275	6.	5.e-002	121.31
30093	11.551	6.	0.1	2957.6
30094	11.459	6.	5.e-002	122.14
30095	11.736	6.	0.1	2907.
30096	11.644	6.	5.e-002	122.88
30097	11.92	6.	0.1	2856.6
30098	11.828	6.	5.e-002	123.51
30099	12.105	6.	0.1	2806.4
30100	12.012	6.	5.e-002	124.06
30101	12.289	6.	0.1	2756.5
30102	12.197	6.	5.e-002	124.52
30103	12.474	6.	0.1	2706.7
30104	12.381	6.	5.e-002	124.9
30105	12.658	6.	0.1	2657.2
30106	12.566	6.	5.e-002	125.21
30107	12.842	6.	0.1	2608.
30108	12.75	6.	5.e-002	125.45
30109	13.027	6.	0.1	2558.9
30110	12.935	6.	5.e-002	125.62
30111	13.211	6.	0.1	2510.1
30112	13.119	6.	5.e-002	125.73
30113	13.396	6.	0.1	2461.5
30114	13.303	6.	5.e-002	125.78
30115	13.58	6.	0.1	2413.1
30116	13.488	6.	5.e-002	125.78
30117	13.764	6.	0.1	2364.9
30118	13.672	6.	5.e-002	125.72
30119	13.949	6.	0.1	2317.
30120	13.857	6.	5.e-002	125.62
30121	14.133	6.	0.1	2269.2
30122	14.041	6.	5.e-002	125.47
30123	14.318	6.	0.1	2221.7
30124	14.226	6.	5.e-002	125.27
30125	14.502	6.	0.1	2174.4
30126	14.41	6.	5.e-002	125.04
30127	14.687	6.	0.1	2127.3
30128	14.594	6.	5.e-002	124.76
30129	14.871	6.	0.1	2080.4
30130	14.779	6.	5.e-002	124.45
30131	15.055	6.	0.1	2033.7
30132	14.963	6.	5.e-002	124.1
30133	15.24	6.	0.1	1987.2
30134	15.148	6.	5.e-002	123.72
30135	15.424	6.	0.1	1941.
30136	15.332	6.	5.e-002	123.31
30137	15.609	6.	0.1	1894.9
30138	15.517	6.	5.e-002	122.86
30139	15.793	6.	0.1	1849.1
30140	15.701	6.	5.e-002	122.37
30141	15.978	6.	0.1	1803.4
30142	15.885	6.	5.e-002	121.86
30143	16.162	6.	0.1	1758.
30144	16.07	6.	5.e-002	121.31
30145	16.346	6.	0.1	1712.7
30146	16.254	6.	5.e-002	120.74
30147	16.531	6.	0.1	1667.7
30148	16.439	6.	5.e-002	120.13
30149	16.715	6.	0.1	1622.8
30150	16.623	6.	5.e-002	119.49
30151	16.9	6.	0.1	1578.2
30152	16.807	6.	5.e-002	118.81
30153	17.084	6.	0.1	1533.7
30154	16.992	6.	5.e-002	118.11
30155	17.269	6.	0.1	1489.5
30156	17.176	6.	5.e-002	117.36
30157	17.453	6.	0.1	1445.4
30158	17.361	6.	5.e-002	116.59
30159	17.637	6.	0.1	1401.5
30160	17.545	6.	5.e-002	115.77
30161	17.822	6.	0.1	1357.8
30162	17.73	6.	5.e-002	114.92
30163	18.006	6.	0.1	1314.3
30164	17.914	6.	5.e-002	114.02
30165	18.191	6.	0.1	1271.
30166	18.098	6.	5.e-002	113.08
30167	18.375	6.	0.1	1227.9
30168	18.283	6.	5.e-002	112.1
30169	18.56	6.	0.1	1185.
30170	18.467	6.	5.e-002	111.07
30171	18.744	6.	0.1	1142.2
30172	18.652	6.	5.e-002	109.99
30173	18.928	6.	0.1	1099.6
30174	18.836	6.	5.e-002	108.85
30175	19.113	6.	0.1	1057.2
30176	19.021	6.	5.e-002	107.66
30177	19.297	6.	0.1	1015.
30178	19.205	6.	5.e-002	106.4
30179	19.482	6.	0.1	972.93
30180	19.389	6.	5.e-002	105.07
30181	19.666	6.	0.1	931.04
30182	19.574	6.	5.e-002	103.68
30183	19.85	6.	0.1	889.32
30184	19.758	6.	5.e-002	102.2
30185	20.035	6.	0.1	847.76
30186	19.943	6.	5.e-002	100.64
30187	20.219	6.	0.1	806.36
30188	20.127	6.	5.e-002	98.994
30189	20.404	6.	0.1	765.12
30190	20.312	6.	5.e-002	97.248
30191	20.588	6.	0.1	724.04
30192	20.496	6.	5.e-002	95.396
30193	20.773	6.	0.1	683.11
30194	20.68	6.	5.e-002	93.43
30195	20.957	6.	0.1	642.33
30196	20.865	6.	5.e-002	91.34
30197	21.141	6.	0.1	601.7
30198	21.049	6.	5.e-002	89.116
30199	21.326	6.	0.1	561.23
30200	21.234	6.	5.e-002	86.744
30201	21.51	6.	0.1	520.91
30202	21.418	6.	5.e-002	84.211
30203	21.695	6.	0.1	480.74
30204	21.602	6.	5.e-002	81.501
30205	21.879	6.	0.1	440.74
30206	21.787	6.	5.e-002	78.598
30207	22.064	6.	0.1	400.9
30208	21.971	6.	5.e-002	75.479
30209	22.248	6.	0.1	361.26
30210	22.156	6.	5.e-002	72.122
30211	22.432	6.	0.1	321.81
30212	22.34	6.	5.e-002	68.496
30213	22.617	6.	0.1	282.6
30214	22.525	6.	5.e-002	64.566
30215	22.801	6.	0.1	243.67
30216	22.709	6.	5.e-002	60.287
30217	22.986	6.	0.1	205.08
30218	22.893	6.	5.e-002	55.601
30219	23.17	6.	0.1	166.92
30220	23.078	6.	5.e-002	50.429
30221	23.355	6.	0.1	129.36
30222	23.262	6.	5.e-002	44.652
30223	23.539	6.	0.1	92.702
30224	23.447	6.	5.e-002	38.092
30225	23.723	6.	0.1	57.223
30226	23.631	6.	5.e-002	30.403
30227	23.908	6.	0.1	23.976
30228	23.816	6.	5.e-002	20.491
30229	24.	5.9091	0.1	23.213
30230	24.	6.	5.e-002	7.8594
30231	24.	5.7273	0.1	53.292
30232	24.	5.8182	5.e-002	6.9966
30233	24.	5.5455	0.1	77.56
30234	24.	5.6364	5.e-002	8.015
30235	24.	5.3636	0.1	96.875
30236	24.	5.4545	5.e-002	8.8997
30237	24.	5.1818	0.1	113.13
30238	24.	5.2727	5.e-002	9.3791
30239	24.	5.	0.1	127.07
30240	24.	5.0909	5.e-002	9.597
30241	24.	4.8182	0.1	139.11
30242	24.	4.9091	5.e-002	9.6343
30243	24.	4.6364	0.1	149.54
30244	24.	4.7273	5.e-002	9.5453
30245	24.	4.4545	0.1	158.55
30246	24.	4.5455	5.e-002	9.3701
30247	24.	4.2727	0.1	166.27
30248	24.	4.3636	5.e-002	9.1395
30249	24.	4.0909	0.1	172.8
30250	24.	4.1818	5.e-002	8.8789
30251	24.	3.9091	0.1	178.21
30252	24.	4.	5.e-002	8.6101
30253	24.	3.7273	0.1	182.58
30254	24.	3.8182	5.e-002	8.3522
30255	24.	3.5455	0.1	185.93
30256	24.	3.6364	5.e-002	8.1222
30257	24.	3.3636	0.1	188.31
30258	24.	3.4545	5.e-002	7.9351
30259	24.	3.1818	0.1	189.73
30260	24.	3.2727	5.e-002	7.803
30261	24.	3.	0.1	190.2
30262	24.	3.0909	5.e-002	7.7346
30263	24.	2.8182	0.1	189.73
30264	24.	2.9091	5.e-002	7.7346
30265	24.	2.6364	0.1	188.31
30266	24.	2.7273	5.e-002	7.803
30267	24.	2.4545	0.1	185.93
30268	24.	2.5455	5.e-002	7.9351
30269	24.	2.2727	0.1	182.58
30270	24.	2.3636	5.e-002	8.1222
30271	24.	2.0909	0.1	178.21
30272	24.	2.1818	5.e-002	8.3522
30273	24.	1.9091	0.1	172.8
30274	24.	2.	5.e-002	8.6101
30275	24.	1.7273	0.1	166.27
30276	24.	1.8182	5.e-002	8.8789
30277	24.	1.5455	0.1	158.55
30278	24.	1.6364	5.e-002	9.1395
30279	24.	1.3636	0.1	149.54
30280	24.	1.4545	5.e-002	9.3701
30281	24.	1.1818	0.1	139.11
30282	24.	1.2727	5.e-002	9.5453
30283	24.	1.	0.1	127.07
30284	24.	1.0909	5.e-002	9.6343
30285	24.	0.81818	0.1	113.13
30286	24.	0.90909	5.e-002	9.597
30287	24.	0.63636	0.1	96.875
30288	24.	0.72727	5.e-002	9.3791
30289	24.	0.45455	0.1	77.56
30290	24.	0.54545	5.e-002	8.8997
30291	24.	0.27273	0.1	53.292
30292	24.	0.36364	5.e-002	8.015
30293	24.	9.0909e-002	0.1	23.213
30294	24.	0.18182	5.e-002	6.9966
30295	2.3842e-015	0.27273	0.1	1899.3
30296	7.9472e-016	9.0909e-002	0.1	1418.5
30297	1.6109e-015	0.18182	5.e-002	146.48
30298	3.9736e-015	0.45455	0.1	2684.6
30299	3.2219e-015	0.36364	5.e-002	94.786
30300	5.563e-015	0.63636	0.1	3099.5
30301	4.8328e-015	0.54545	5.e-002	86.995
30302	7.1525e-015	0.81818	0.1	3363.9
30303	6.4438e-015	0.72727	5.e-002	77.37
30304	8.7419e-015	1.	0.1	3541.8
30305	8.0547e-015	0.90909	5.e-002	66.467
30306	1.0331e-014	1.1818	0.1	3667.2
30307	9.6657e-015	1.0909	5.e-002	56.843
30308	1.1921e-014	1.3636	0.1	3757.3
30309	1.1277e-014	1.2727	5.e-002	48.618
30310	1.351e-014	1.5455	0.1	3822.6
30311	1.2888e-014	1.4545	5.e-002	41.503
30312	1.51e-014	1.7273	0.1	3869.8
30313	1.4498e-014	1.6364	5.e-002	35.325
30314	1.6689e-014	1.9091	0.1	3903.7
30315	1.6109e-014	1.8182	5.e-002	29.971
30316	1.8279e-014	2.0909	0.1	3927.5
30317	1.772e-014	2.	5.e-002	25.381
30318	1.9868e-014	2.2727	0.1	3944.
30319	1.9331e-014	2.1818	5.e-002	21.53
30320	2.1457e-014	2.4545	0.1	3954.9
30321	2.0942e-014	2.3636	5.e-002	18.421
30322	2.3047e-014	2.6364	0.1	3961.7
30323	2.2553e-014	2.5455	5.e-002	16.067
30324	2.4636e-014	2.8182	0.1	3965.5
30325	2.4164e-014	2.7273	5.e-002	14.484
30326	2.6226e-014	3.	0.1	3966.6
30327	2.5775e-014	2.9091	5.e-002	13.689
30328	2.7815e-014	3.1818	0.1	3965.5
30329	2.7386e-014	3.0909	5.e-002	13.689
30330	2.9405e-014	3.3636	0.1	3961.7
30331	2.8997e-014	3.2727	5.e-002	14.484
30332	3.0994e-014	3.5455	0.1	3954.9
30333	3.0608e-014	3.4545	5.e-002	16.067
30334	3.2583e-014	3.7273	0.1	3944.
30335	3.2219e-014	3.6364	5.e-002	18.421
30336	3.4173e-014	3.9091	0.1	3927.5
30337	3.383e-014	3.8182	5.e-002	21.53
30338	3.5762e-014	4.0909	0.1	3903.7
30339	3.5441e-014	4.	5.e-002	25.381
30340	3.7352e-014	4.2727	0.1	3869.8
30341	3.7052e-014	4.1818	5.e-002	29.971
30342	3.8941e-014	4.4545	0.1	3822.6
30343	3.8663e-014	4.3636	5.e-002	35.325
30344	4.0531e-014	4.6364	0.1	3757.3
30345	4.0274e-014	4.5455	5.e-002	41.503
30346	4.212e-014	4.8182	0.1	3667.2
30347	4.1885e-014	4.7273	5.e-002	48.618
30348	4.371e-014	5.	0.1	3541.8
30349	4.3495e-014	4.9091	5.e-002	56.843
30350	4.5299e-014	5.1818	0.1	3363.9
30351	4.5106e-014	5.0909	5.e-002	66.467
30352	4.6888e-014	5.3636	0.1	3099.5
30353	4.6717e-014	5.2727	5.e-002	77.37
30354	4.8478e-014	5.5455	0.1	2684.6
30355	4.8328e-014	5.4545	5.e-002	86.995
30356	5.0067e-014	5.7273	0.1	1899.3
30357	4.9939e-014	5.6364	5.e-002	94.786
30358	5.1657e-014	5.9091	0.1	1418.5
30359	5.155e-014	5.8182	5.e-002	146.48
30360	23.908	0.	0.1	23.976
30361	24.	0.	5.e-002	7.8594
30362	23.723	0.	0.1	57.223
30363	23.816	0.	5.e-002	20.491
30364	23.539	0.	0.1	92.702
30365	23.631	0.	5.e-002	30.403
30366	23.355	0.	0.1	129.36
30367	23.447	0.	5.e-002	38.092
30368	23.17	0.	0.1	166.92
30369	23.262	0.	5.e-002	44.652
30370	22.986	0.	0.1	205.08
30371	23.078	0.	5.e-002	50.428
30372	22.801	0.	0.1	243.67
30373	22.893	0.	5.e-002	55.601
30374	22.617	0.	0.1	282.6
30375	22.709	0.	5.e-002	60.287
30376	22.432	0.	0.1	321.81
30377	22.525	0.	5.e-002	64.566
30378	22.248	0.	0.1	361.26
30379	22.34	0.	5.e-002	68.496
30380	22.064	0.	0.1	400.9
30381	22.156	0.	5.e-002	72.122
30382	21.879	0.	0.1	440.74
30383	21.971	0.	5.e-002	75.479
30384	21.695	0.	0.1	480.74
30385	21.787	0.	5.e-002	78.598
30386	21.51	0.	0.1	520.91
30387	21.602	0.	5.e-002	81.501
30388	21.326	0.	0.1	561.23
30389	21.418	0.	5.e-002	84.211
30390	21.141	0.	0.1	601.7
30391	21.234	0.	5.e-002	86.743
30392	20.957	0.	0.1	642.33
30393	21.049	0.	5.e-002	89.116
30394	20.773	0.	0.1	683.11
30395	20.865	0.	5.e-002	91.34
30396	20.588	0.	0.1	724.04
30397	20.68	0.	5.e-002	93.43
30398	20.404	0.	0.1	765.12
30399	20.496	0.	5.e-002	95.396
30400	20.219	0.	0.1	806.36
30401	20.312	0.	5.e-002	97.248
30402	20.035	0.	0.1	847.76
30403	20.127	0.	5.e-002	98.994
30404	19.85	0.	0.1	889.32
30405	19.943	0.	5.e-002	100.64
30406	19.666	0.	0.1	931.04
30407	19.758	0.	5.e-002	102.2
30408	19.482	0.	0.1	972.93
30409	19.574	0.	5.e-002	103.68
30410	19.297	0.	0.1	1015.
30411	19.389	0.	5.e-002	105.07
30412	19.113	0.	0.1	1057.2
30413	19.205	0.	5.e-002	106.4
30414	18.928	0.	0.1	1099.6
30415	19.021	0.	5.e-002	107.66
30416	18.744	0.	0.1	1142.2
30417	18.836	0.	5.e-002	108.85
30418	18.56	0.	0.1	1185.
30419	18.652	0.	5.e-002	109.99
30420	18.375	0.	0.1	1227.9
30421	18.467	0.	5.e-002	111.07
30422	18.191	0.	0.1	1271.
30423	18.283	0.	5.e-002	112.1
30424	18.006	0.	0.1	1314.3
30425	18.098	0.	5.e-002	113.08
30426	17.822	0.	0.1	1357.8
30427	17.914	0.	5.e-002	114.02
30428	17.637	0.	0.1	1401.5
30429	17.73	0.	5.e-002	114.92
30430	17.453	0.	0.1	1445.4
30431	17.545	0.	5.e-002	115.77
30432	17.269	0.	0.1	1489.5
30433	17.361	0.	5.e-002	116.59
30434	17.084	0.	0.1	1533.7
30435	17.176	0.	5.e-002	117.36
30436	16.9	0.	0.1	1578.2
30437	16.992	0.	5.e-002	118.1
30438	16.715	0.	0.1	1622.8
30439	16.807	0.	5.e-002	118.81
30440	16.531	0.	0.1	1667.7
30441	16.623	0.	5.e-002	119.49
30442	16.346	0.	0.1	1712.7
30443	16.439	0.	5.e-002	120.13
30444	16.162	0.	0.1	1758.
30445	16.254	0.	5.e-002	120.74
30446	15.978	0.	0.1	1803.4
30447	16.07	0.	5.e-002	121.31
30448	15.793	0.	0.1	1849.1
30449	15.885	0.	5.e-002	121.86
30450	15.609	0.	0.1	1894.9
30451	15.701	0.	5.e-002	122.37
30452	15.424	0.	0.1	1941.
30453	15.517	0.	5.e-002	122.86
30454	15.24	0.	0.1	1987.2
30455	15.332	0.	5.e-002	123.31
30456	15.055	0.	0.1	2033.7
30457	15.148	0.	5.e-002	123.72
30458	14.871	0.	0.1	2080.4
30459	14.963	0.	5.e-002	124.1
30460	14.687	0.	0.1	2127.3
30461	14.779	0.	5.e-002	124.45
30462	14.502	0.	0.1	2174.4
30463	14.594	0.	5.e-002	124.76
30464	14.318	0.	0.1	2221.7
30465	14.41	0.	5.e-002	125.04
30466	14.133	0.	0.1	2269.2
30467	14.226	0.	5.e-002	125.27
30468	13.949	0.	0.1	2317.
30469	14.041	0.	5.e-002	125.47
30470	13.764	0.	0.1	2364.9
30471	13.857	0.	5.e-002	125.62
30472	13.58	0.	0.1	2413.1
30473	13.672	0.	5.e-002	125.72
30474	13.396	0.	0.1	2461.5
30475	13.488	0.	5.e-002	125.78
30476	13.211	0.	0.1	2510.1
30477	13.303	0.	5.e-002	125.78
30478	13.027	0.	0.1	2558.9
30479	13.119	0.	5.e-002	125.73
30480	12.842	0.	0.1	2608.
30481	12.935	0.	5.e-002	125.62
30482	12.658	0.	0.1	2657.2
30483	12.75	0.	5.e-002	125.45
30484	12.474	0.	0.1	2706.7
30485	12.566	0.	5.e-002	125.21
30486	12.289	0.	0.1	2756.5
30487	12.381	0.	5.e-002	124.9
30488	12.105	0.	0.1	2806.4
30489	12.197	0.	5.e-002	124.52
30490	11.92	0.	0.1	2856.6
30491	12.012	0.	5.e-002	124.06
30492	11.736	0.	0.1	2907.
30493	11.828	0.	5.e-002	123.51
30494	11.551	0.	0.1	2957.6
30495	11.644	0.	5.e-002	122.88
30496	11.367	0.	0.1	3008.4
30497	11.459	0.	5.e-002	122.14
30498	11.183	0.	0.1	3059.5
30499	11.275	0.	5.e-002	121.31
30500	10.998	0.	0.1	3110.7
30501	11.09	0.	5.e-002	120.38
30502	10.814	0.	0.1	3162.2
30503	10.906	0.	5.e-002	119.34
30504	10.629	0.	0.1	3213.8
30505	10.721	0.	5.e-002	118.18
30506	10.445	0.	0.1	3265.6
30507	10.537	0.	5.e-002	116.9
30508	10.26	0.	0.1	3317.5
30509	10.353	0.	5.e-002	115.51
30510	10.076	0.	0.1	3369.4
30511	10.168	0.	5.e-002	113.99
30512	9.8916	0.	0.1	3421.4
30513	9.9838	0.	5.e-002	112.35
30514	9.7072	0.	0.1	3473.4
30515	9.7994	0.	5.e-002	110.6
30516	9.5227	0.	0.1	3525.3
30517	9.615	0.	5.e-002	108.73
30518	9.3383	0.	0.1	3576.9
30519	9.4305	0.	5.e-002	106.76
30520	9.1539	0.	0.1	3628.1
30521	9.2461	0.	5.e-002	104.7
30522	8.9695	0.	0.1	3678.8
30523	9.0617	0.	5.e-002	102.58
30524	8.785	0.	0.1	3728.6
30525	8.8773	0.	5.e-002	100.41
30526	8.6006	0.	0.1	3777.3
30527	8.6928	0.	5.e-002	98.244
30528	8.4162	0.	0.1	3824.6
30529	8.5084	0.	5.e-002	96.118
30530	8.2318	0.	0.1	3869.8
30531	8.324	0.	5.e-002	94.093
30532	8.0474	0.	0.1	3912.4
30533	8.1396	0.	5.e-002	92.244
30534	7.8629	0.	0.1	3951.5
30535	7.9551	0.	5.e-002	90.661
30536	7.6785	0.	0.1	3986.2
30537	7.7707	0.	5.e-002	89.452
30538	7.4941	0.	0.1	4015.3
30539	7.5863	0.	5.e-002	88.744
30540	7.3097	0.	0.1	4037.2
30541	7.4019	0.	5.e-002	88.687
30542	7.1252	0.	0.1	4049.9
30543	7.2174	0.	5.e-002	89.449
30544	6.9408	0.	0.1	4051.1
30545	7.033	0.	5.e-002	91.213
30546	6.7564	0.	0.1	4037.8
30547	6.8486	0.	5.e-002	94.17
30548	6.572	0.	0.1	4006.6
30549	6.6642	0.	5.e-002	98.504
30550	6.3875	0.	0.1	3953.1
30551	6.4798	0.	5.e-002	104.36
30552	6.2031	0.	0.1	3872.5
30553	6.2953	0.	5.e-002	111.84
30554	6.0187	0.	0.1	3758.9
30555	6.1109	0.	5.e-002	120.87
30556	5.8343	0.	0.1	3606.
30557	5.9265	0.	5.e-002	131.21
30558	5.6498	0.	0.1	3406.8
30559	5.7421	0.	5.e-002	142.29
30560	5.4654	0.	0.1	3154.6
30561	5.5576	0.	5.e-002	153.07
30562	5.281	0.	0.1	2843.2
30563	5.3732	0.	5.e-002	161.93
30564	5.0966	0.	0.1	2468.3
30565	5.1888	0.	5.e-002	166.4
30566	4.9121	0.	0.1	2027.8
30567	5.0044	0.	5.e-002	163.13
30568	4.7277	0.	0.1	1522.1
30569	4.8199	0.	5.e-002	147.26
30570	4.5433	0.	0.1	946.38
30571	4.6355	0.	5.e-002	113.54
30572	4.3589	0.	0.1	330.94
30573	4.4511	0.	5.e-002	43.286
30574	4.2667	0.	5.e-002	60.322
30575	4.0109	-1.8396e-030	0.1	398.37
30576	4.1	-1.8804e-030	5.e-002	74.363
30577	3.8326	-1.7578e-030	0.1	1149.8
30578	3.9217	0.	5.e-002	66.746
30579	3.6543	-1.676e-030	0.1	1853.
30580	3.7435	0.	5.e-002	169.2
30581	3.4761	-1.5943e-030	0.1	2481.
30582	3.5652	0.	5.e-002	229.19
30583	3.2978	-1.5125e-030	0.1	3044.7
30584	3.387	0.	5.e-002	269.83
30585	3.1196	-1.4308e-030	0.1	3544.6
30586	3.2087	0.	5.e-002	297.21
30587	2.9413	-1.349e-030	0.1	3982.7
30588	3.0304	0.	5.e-002	317.01
30589	2.763	-1.2673e-030	0.1	4362.5
30590	2.8522	0.	5.e-002	333.2
30591	2.5848	-1.1855e-030	0.1	4688.7
30592	2.6739	0.	5.e-002	348.79
30593	2.4065	-1.1037e-030	0.1	4966.9
30594	2.4957	0.	5.e-002	365.97
30595	2.2283	-1.022e-030	0.1	5202.2
30596	2.3174	0.	5.e-002	386.3
30597	2.05	-9.4022e-031	0.1	5399.4
30598	2.1391	0.	5.e-002	410.91
30599	1.8717	-8.5846e-031	0.1	5561.9
30600	1.9609	0.	5.e-002	440.62
30601	1.6935	-7.767e-031	0.1	5692.1
30602	1.7826	0.	5.e-002	476.09
30603	1.5152	-6.9494e-031	0.1	5790.3
30604	1.6043	0.	5.e-002	517.97
30605	1.337	-6.1319e-031	0.1	5854.7
30606	1.4261	0.	5.e-002	566.98
30607	1.1587	-5.3143e-031	0.1	5880.
30608	1.2478	0.	5.e-002	624.08
30609	0.98043	-4.4967e-031	0.1	5855.5
30610	1.0696	0.	5.e-002	690.7
30611	0.80217	-3.6791e-031	0.1	5761.3
30612	0.8913	0.	5.e-002	768.87
30613	0.62391	-2.8615e-031	0.1	5558.
30614	0.71304	0.	5.e-002	862.89
30615	0.44565	-2.044e-031	0.1	5167.6
30616	0.53478	0.	5.e-002	978.61
30617	0.26739	-1.2264e-031	0.1	4342.4
30618	0.35652	0.	5.e-002	1137.2
30619	8.913e-002	-4.0879e-032	0.1	2591.
30620	0.17826	0.	5.e-002	1454.
30621	0.	0.	5.e-002	1940.8
30622	8.913e-002	6.	0.1	2591.
30623	5.2451e-014	6.	5.e-002	1940.8
30624	0.26739	6.	0.1	4342.4
30625	0.17826	6.	5.e-002	1454.
30626	0.44565	6.	0.1	5167.6
30627	0.35652	6.	5.e-002	1137.2
30628	0.62391	6.	0.1	5558.
30629	0.53478	6.	5.e-002	978.61
30630	0.80217	6.	0.1	5761.3
30631	0.71304	6.	5.e-002	862.89
30632	0.98043	6.	0.1	5855.5
30633	0.8913	6.	5.e-002	768.87
30634	1.1587	6.	0.1	5880.
30635	1.0696	6.	5.e-002	690.7
30636	1.337	6.	0.1	5854.7
30637	1.2478	6.	5.e-002	624.08
30638	1.5152	6.	0.1	5790.3
30639	1.4261	6.	5.e-002	566.98
30640	1.6935	6.	0.1	5692.1
30641	1.6043	6.	5.e-002	517.97
30642	1.8717	6.	0.1	5561.9
30643	1.7826	6.	5.e-002	476.09
30644	2.05	6.	0.1	5399.4
30645	1.9609	6.	5.e-002	440.62
30646	2.2283	6.	0.1	5202.2
30647	2.1391	6.	5.e-002	410.91
30648	2.4065	6.	0.1	4966.9
30649	2.3174	6.	5.e-002	386.3
30650	2.5848	6.	0.1	4688.7
30651	2.4957	6.	5.e-002	365.97
30652	2.763	6.	0.1	4362.5
30653	2.6739	6.	5.e-002	348.79
30654	2.9413	6.	0.1	3982.7
30655	2.8522	6.	5.e-002	333.2
30656	3.1196	6.	0.1	3544.6
30657	3.0304	6.	5.e-002	317.01
30658	3.2978	6.	0.1	3044.7
30659	3.2087	6.	5.e-002	297.21
30660	3.4761	6.	0.1	2481.
30661	3.387	6.	5.e-002	269.83
30662	3.6543	6.	0.1	1853.
30663	3.5652	6.	5.e-002	229.19
30664	3.8326	6.	0.1	1149.8
30665	3.7435	6.	5.e-002	169.2
30666	4.0109	6.	0.1	398.37
30667	3.9217	6.	5.e-002	66.746
30668	4.1	6.	5.e-002	74.363
30669	3.8326	6.	0.	1149.8
30670	4.0109	6.	0.	398.37
30671	3.6543	6.	0.	1853.
30672	3.4761	6.	0.	2481.
30673	3.2978	6.	0.	3044.7
30674	3.1196	6.	0.	3544.6
30675	2.9413	6.	0.	3982.7
30676	2.763	6.	0.	4362.5
30677	2.5848	6.	0.	4688.7
30678	2.4065	6.	0.	4966.9
30679	2.2283	6.	0.	5202.2
30680	2.05	6.	0.	5399.4
30681	1.8717	6.	0.	5561.9
30682	1.6935	6.	0.	5692.1
30683	1.5152	6.	0.	5790.3
30684	1.337	6.	0.	5854.7
30685	1.1587	6.	0.	5880.
30686	0.98043	6.	0.	5855.5
30687	0.80217	6.	0.	5761.3
30688	0.62391	6.	0.	5558.
30689	0.44565	6.	0.	5167.6
30690	0.26739	6.	0.	4342.4
30691	8.913e-002	6.	0.	2591.
30692	4.1	5.9091	0.	342.77
30693	5.1657e-014	5.9091	0.	1418.5
30694	0.26739	-1.2264e-031	0.	4342.4
30695	8.913e-002	-4.0879e-032	0.	2591.
30696	0.44565	-2.044e-031	0.	5167.6
30697	0.62391	-2.8615e-031	0.	5558.
30698	0.80217	-3.6791e-031	0.	5761.3
30699	0.98043	-4.4967e-031	0.	5855.5
30700	1.1587	-5.3143e-031	0.	5880.
30701	1.337	-6.1319e-031	0.	5854.7
30702	1.5152	-6.9494e-031	0.	5790.3
30703	1.6935	-7.767e-031	0.	5692.1
30704	1.8717	-8.5846e-031	0.	5561.9
30705	2.05	-9.4022e-031	0.	5399.4
30706	2.2283	-1.022e-030	0.	5202.2
30707	2.4065	-1.1037e-030	0.	4966.9
30708	2.5848	-1.1855e-030	0.	4688.7
30709	2.763	-1.2673e-030	0.	4362.5
30710	2.9413	-1.349e-030	0.	3982.7
30711	3.1196	-1.4308e-030	0.	3544.6
30712	3.2978	-1.5125e-030	0.	3044.7
30713	3.4761	-1.5943e-030	0.	2481.
30714	3.6543	-1.676e-030	0.	1853.
30715	3.8326	-1.7578e-030	0.	1149.8
30716	4.0109	-1.8396e-030	0.	398.37
30717	4.1	9.0909e-002	0.	342.77
30718	7.9472e-016	9.0909e-002	0.	1418.5
30719	4.5433	0.	0.	946.38
30720	4.3589	0.	0.	330.94
30721	4.7277	0.	0.	1522.1
30722	4.9121	0.	0.	2027.8
30723	5.0966	0.	0.	2468.3
30724	5.281	0.	0.	2843.2
30725	5.4654	0.	0.	3154.6
30726	5.6498	0.	0.	3406.8
30727	5.8343	0.	0.	3606.
30728	6.0187	0.	0.	3758.9
30729	6.2031	0.	0.	3872.5
30730	6.3875	0.	0.	3953.1
30731	6.572	0.	0.	4006.6
30732	6.7564	0.	0.	4037.8
30733	6.9408	0.	0.	4051.1
30734	7.1252	0.	0.	4049.9
30735	7.3097	0.	0.	4037.2
30736	7.4941	0.	0.	4015.3
30737	7.6785	0.	0.	3986.2
30738	7.8629	0.	0.	3951.5
30739	8.0474	0.	0.	3912.4
30740	8.2318	0.	0.	3869.8
30741	8.4162	0.	0.	3824.6
30742	8.6006	0.	0.	3777.3
30743	8.785	0.	0.	3728.6
30744	8.9695	0.	0.	3678.8
30745	9.1539	0.	0.	3628.1
30746	9.3383	0.	0.	3576.9
30747	9.5227	0.	0.	3525.3
30748	9.7072	0.	0.	3473.4
30749	9.8916	0.	0.	3421.4
30750	10.076	0.	0.	3369.4
30751	10.26	0.	0.	3317.5
30752	10.445	0.	0.	3265.6
30753	10.629	0.	0.	3213.8
30754	10.814	0.	0.	3162.2
30755	10.998	0.	0.	3110.7
30756	11.183	0.	0.	3059.5
30757	11.367	0.	0.	3008.4
30758	11.551	0.	0.	2957.6
30759	11.736	0.	0.	2907.
30760	11.92	0.	0.	2856.6
30761	12.105	0.	0.	2806.4
30762	12.289	0.	0.	2756.5
30763	12.474	0.	0.	2706.7
30764	12.658	0.	0.	2657.2
30765	12.842	0.	0.	2608.
30766	13.027	0.	0.	2558.9
30767	13.211	0.	0.	2510.1
30768	13.396	0.	0.	2461.5
30769	13.58	0.	0.	2413.1
30770	13.764	0.	0.	2364.9
30771	13.949	0.	0.	2317.
30772	14.133	0.	0.	2269.2
30773	14.318	0.	0.	2221.7
30774	14.502	0.	0.	2174.4
30775	14.687	0.	0.	2127.3
30776	14.871	0.	0.	2080.4
30777	15.055	0.	0.	2033.7
30778	15.24	0.	0.	1987.2
30779	15.424	0.	0.	1941.
30780	15.609	0.	0.	1894.9
30781	15.793	0.	0.	1849.1
30782	15.978	0.	0.	1803.4
30783	16.162	0.	0.	1758.
30784	16.346	0.	0.	1712.7
30785	16.531	0.	0.	1667.7
30786	16.715	0.	0.	1622.8
30787	16.9	0.	0.	1578.2
30788	17.084	0.	0.	1533.7
30789	17.269	0.	0.	1489.5
30790	17.453	0.	0.	1445.4
30791	17.637	0.	0.	1401.5
30792	17.822	0.	0.	1357.8
30793	18.006	0.	0.	1314.3
30794	18.191	0.	0.	1271.
30795	18.375	0.	0.	1227.9
30796	18.56	0.	0.	1185.
30797	18.744	0.	0.	1142.2
30798	18.928	0.	0.	1099.6
30799	19.113	0.	0.	1057.2
30800	19.297	0.	0.	1015.
30801	19.482	0.	0.	972.93
30802	19.666	0.	0.	931.04
30803	19.85	0.	0.	889.32
30804	20.035	0.	0.	847.76
30805	20.219	0.	0.	806.36
30806	20.404	0.	0.	765.12
30807	20.588	0.	0.	724.04
30808	20.773	0.	0.	683.11
30809	20.957	0.	0.	642.33
30810	21.141	0.	0.	601.7
30811	21.326	0.	0.	561.23
30812	21.51	0.	0.	520.91
30813	21.695	0.	0.	480.74
30814	21.879	0.	0.	440.74
30815	22.064	0.	0.	400.9
30816	22.248	0.	0.	361.26
30817	22.432	0.	0.	321.81
30818	22.617	0.	0.	282.6
30819	22.801	0.	0.	243.67
30820	22.986	0.	0.	205.08
30821	23.17	0.	0.	166.92
30822	23.355	0.	0.	129.36
30823	23.539	0.	0.	92.702
30824	23.723	0.	0.	57.223
30825	23.908	0.	0.	23.976
30826	4.2667	9.0909e-002	0.	270.67
30827	24.	9.0909e-002	0.	23.213
30828	5.0067e-014	5.7273	0.	1899.3
30829	4.8478e-014	5.5455	0.	2684.6
30830	4.6888e-014	5.3636	0.	3099.5
30831	4.5299e-014	5.1818	0.	3363.9
30832	4.371e-014	5.	0.	3541.8
30833	4.212e-014	4.8182	0.	3667.2
30834	4.0531e-014	4.6364	0.	3757.3
30835	3.8941e-014	4.4545	0.	3822.6
30836	3.7352e-014	4.2727	0.	3869.8
30837	3.5762e-014	4.0909	0.	3903.7
30838	3.4173e-014	3.9091	0.	3927.5
30839	3.2583e-014	3.7273	0.	3944.
30840	3.0994e-014	3.5455	0.	3954.9
30841	2.9405e-014	3.3636	0.	3961.7
30842	2.7815e-014	3.1818	0.	3965.5
30843	2.6226e-014	3.	0.	3966.6
30844	2.4636e-014	2.8182	0.	3965.5
30845	2.3047e-014	2.6364	0.	3961.7
30846	2.1457e-014	2.4545	0.	3954.9
30847	1.9868e-014	2.2727	0.	3944.
30848	1.8279e-014	2.0909	0.	3927.5
30849	1.6689e-014	1.9091	0.	3903.7
30850	1.51e-014	1.7273	0.	3869.8
30851	1.351e-014	1.5455	0.	3822.6
30852	1.1921e-014	1.3636	0.	3757.3
30853	1.0331e-014	1.1818	0.	3667.2
30854	8.7419e-015	1.	0.	3541.8
30855	7.1525e-015	0.81818	0.	3363.9
30856	5.563e-015	0.63636	0.	3099.5
30857	3.9736e-015	0.45455	0.	2684.6
30858	2.3842e-015	0.27273	0.	1899.3
30859	24.	0.27273	0.	53.292
30860	24.	0.45455	0.	77.56
30861	24.	0.63636	0.	96.875
30862	24.	0.81818	0.	113.13
30863	24.	1.	0.	127.07
30864	24.	1.1818	0.	139.11
30865	24.	1.3636	0.	149.54
30866	24.	1.5455	0.	158.55
30867	24.	1.7273	0.	166.27
30868	24.	1.9091	0.	172.8
30869	24.	2.0909	0.	178.21
30870	24.	2.2727	0.	182.58
30871	24.	2.4545	0.	185.93
30872	24.	2.6364	0.	188.31
30873	24.	2.8182	0.	189.73
30874	24.	3.	0.	190.2
30875	24.	3.1818	0.	189.73
30876	24.	3.3636	0.	188.31
30877	24.	3.5455	0.	185.93
30878	24.	3.7273	0.	182.58
30879	24.	3.9091	0.	178.21
30880	24.	4.0909	0.	172.8
30881	24.	4.2727	0.	166.27
30882	24.	4.4545	0.	158.55
30883	24.	4.6364	0.	149.54
30884	24.	4.8182	0.	139.11
30885	24.	5.	0.	127.07
30886	24.	5.1818	0.	113.13
30887	24.	5.3636	0.	96.875
30888	24.	5.5455	0.	77.56
30889	24.	5.7273	0.	53.292
30890	24.	5.9091	0.	23.213
30891	23.908	6.	0.	23.976
30892	23.723	6.	0.	57.223
30893	23.539	6.	0.	92.702
30894	23.355	6.	0.	129.36
30895	23.17	6.	0.	166.92
30896	22.986	6.	0.	205.08
30897	22.801	6.	0.	243.67
30898	22.617	6.	0.	282.6
30899	22.432	6.	0.	321.81
30900	22.248	6.	0.	361.26
30901	22.064	6.	0.	400.9
30902	21.879	6.	0.	440.74
30903	21.695	6.	0.	480.74
30904	21.51	6.	0.	520.91
30905	21.326	6.	0.	561.23
30906	21.141	6.	0.	601.7
30907	20.957	6.	0.	642.33
30908	20.773	6.	0.	683.11
30909	20.588	6.	0.	724.04
30910	20.404	6.	0.	765.12
30911	20.219	6.	0.	806.36
30912	20.035	6.	0.	847.76
30913	19.85	6.	0.	889.32
30914	19.666	6.	0.	931.04
30915	19.482	6.	0.	972.93
30916	19.297	6.	0.	1015.
30917	19.113	6.	0.	1057.2
30918	18.928	6.	0.	1099.6
30919	18.744	6.	0.	1142.2
30920	18.56	6.	0.	1185.
30921	18.375	6.	0.	1227.9
30922	18.191	6.	0.	1271.
30923	18.006	6.	0.	1314.3
30924	17.822	6.	0.	1357.8
30925	17.637	6.	0.	1401.5
30926	17.453	6.	0.	1445.4
30927	17.269	6.	0.	1489.5
30928	17.084	6.	0.	1533.7
30929	16.9	6.	0.	1578.2
30930	16.715	6.	0.	1622.8
30931	16.531	6.	0.	1667.7
30932	16.346	6.	0.	1712.7
30933	16.162	6.	0.	1758.
30934	15.978	6.	0.	1803.4
30935	15.793	6.	0.	1849.1
30936	15.609	6.	0.	1894.9
30937	15.424	6.	0.	1941.
30938	15.24	6.	0.	1987.2
30939	15.055	6.	0.	2033.7
30940	14.871	6.	0.	2080.4
30941	14.687	6.	0.	2127.3
30942	14.502	6.	0.	2174.4
30943	14.318	6.	0.	2221.7
30944	14.133	6.	0.	2269.2
30945	13.949	6.	0.	2317.
30946	13.764	6.	0.	2364.9
30947	13.58	6.	0.	2413.1
30948	13.396	6.	0.	2461.5
30949	13.211	6.	0.	2510.1
30950	13.027	6.	0.	2558.9
30951	12.842	6.	0.	2608.
30952	12.658	6.	0.	2657.2
30953	12.474	6.	0.	2706.7
30954	12.289	6.	0.	2756.5
30955	12.105	6.	0.	2806.4
30956	11.92	6.	0.	2856.6
30957	11.736	6.	0.	2907.
30958	11.551	6.	0.	2957.6
30959	11.367	6.	0.	3008.4
30960	11.183	6.	0.	3059.5
30961	10.998	6.	0.	3110.7
30962	10.814	6.	0.	3162.2
30963	10.629	6.	0.	3213.8
30964	10.445	6.	0.	3265.6
30965	10.26	6.	0.	3317.5
30966	10.076	6.	0.	3369.4
30967	9.8916	6.	0.	3421.4
30968	9.7072	6.	0.	3473.4
30969	9.5227	6.	0.	3525.3
30970	9.3383	6.	0.	3576.9
30971	9.1539	6.	0.	3628.1
30972	8.9695	6.	0.	3678.8
30973	8.785	6.	0.	3728.6
30974	8.6006	6.	0.	3777.3
30975	8.4162	6.	0.	3824.6
30976	8.2318	6.	0.	3869.8
30977	8.0474	6.	0.	3912.4
30978	7.8629	6.	0.	3951.5
30979	7.6785	6.	0.	3986.2
30980	7.4941	6.	0.	4015.3
30981	7.3097	6.	0.	4037.2
30982	7.1252	6.	0.	4049.9
30983	6.9408	6.	0.	4051.1
30984	6.7564	6.	0.	4037.8
30985	6.572	6.	0.	4006.6
30986	6.3875	6.	0.	3953.1
30987	6.2031	6.	0.	3872.5
30988	6.0187	6.	0.	3758.9
30989	5.8343	6.	0.	3606.
30990	5.6498	6.	0.	3406.8
30991	5.4654	6.	0.	3154.6
30992	5.281	6.	0.	2843.2
30993	5.0966	6.	0.	2468.3
30994	4.9121	6.	0.	2027.8
30995	4.7277	6.	0.	1522.1
30996	4.5433	6.	0.	946.38
30997	4.3589	6.	0.	330.94
30998	4.2667	5.9091	0.	270.67
30999	4.1	1.7273	0.	8841.9
31000	4.1	1.9091	0.	17048
31001	4.1	1.5455	0.	5928.8
31002	4.1	1.3636	0.	4745.9
31003	4.1	1.1818	0.	3825.4
31004	4.1	1.	0.	3118.5
31005	4.1	0.81818	0.	2521.9
31006	4.1	0.63636	0.	1986.6
31007	4.1	0.45455	0.	1477.
31008	4.1	0.27273	0.	948.45
31009	4.1833	2.	0.	23717
31010	4.2667	0.27273	0.	749.2
31011	4.2667	0.45455	0.	1179.5
31012	4.2667	0.63636	0.	1611.4
31013	4.2667	0.81818	0.	2083.3
31014	4.2667	1.	0.	2627.8
31015	4.2667	1.1818	0.	3292.6
31016	4.2667	1.3636	0.	4176.1
31017	4.2667	1.5455	0.	5335.3
31018	4.2667	1.7273	0.	8187.4
31019	4.2667	1.9091	0.	16434
31020	4.1	4.2727	0.	8841.9
31021	4.1	4.0909	0.	17048
31022	4.1	4.4545	0.	5928.8
31023	4.1	4.6364	0.	4745.9
31024	4.1	4.8182	0.	3825.4
31025	4.1	5.	0.	3118.5
31026	4.1	5.1818	0.	2521.9
31027	4.1	5.3636	0.	1986.6
31028	4.1	5.5455	0.	1477.
31029	4.1	5.7273	0.	948.45
31030	4.1833	4.	0.	23717
31031	4.2667	5.7273	0.	749.2
31032	4.2667	5.5455	0.	1179.5
31033	4.2667	5.3636	0.	1611.4
31034	4.2667	5.1818	0.	2083.3
31035	4.2667	5.	0.	2627.8
31036	4.2667	4.8182	0.	3292.6
31037	4.2667	4.6364	0.	4176.1
31038	4.2667	4.4545	0.	5335.3
31039	4.2667	4.2727	0.	8187.4
31040	4.2667	4.0909	0.	16434
