Node Numbers,X Locations (inches),Y Locations (inches),Z Locations (inches),Equivalent Elastic Strains (in/in),Equivalent Stress (psi),Max Principal Elastic Strain (in/in),Max Principal Stress (psi),Middle Principal Elastic Strain (in/in),Middle Principal Stress (psi),Min Principal Elastic Strain (in/in),Min Principal Stress (psi),Total Deformation (in)
1,2.5601,3.9135,0,0.00024042,2402.5,0.00012013,446.6,4.7148e-05,-101.77,-0.00022981,-2182.7,0.0094424
2,4.1274,3.3289,0,0.0001513,1511.9,6.4186e-05,-4.3087,2.3401e-05,-310.75,-0.00015431,-1646,0.028619
3,4.4996,2.7374,0,0.00011839,1183.1,5.1165e-05,6.4664,1.7429e-05,-247.02,-0.00012042,-1282.8,0.034487
4,1.8373,0.80502,0,0.0001128,1127.2,3.6961e-05,-69.87,3.1224e-05,-112.97,-0.00011585,-1218,0.0043175
5,1.9353,2.5017,0,0.00013969,1395.9,6.0289e-05,-59.474,1.3772e-05,-408.99,-0.00014433,-1596.9,0.0054716
6,4.2479,0.61789,0,7.8817e-05,787.63,3.3819e-05,101.84,2.1801e-05,11.54,-7.6499e-05,-727.05,0.029339
7,1.9892,5.0426,0,0.00011388,1138.1,3.8004e-05,-29.918,3.4109e-05,-59.181,-0.00011537,-1182.3,0.004805
8,2.2958,4.2483,0,0.00015834,1582.3,5.918e-05,73.57,4.7118e-05,-17.06,-0.00015718,-1552.1,0.0072312
9,4.1282,4.5865,0,0.00011659,1165.1,5.3325e-05,201.84,3.1077e-05,34.673,-0.00011167,-1037.8,0.027906
10,3.8234,5.0253,0,6.4964e-05,649.19,3.6492e-05,186.06,1.1165e-05,-4.241,-5.9743e-05,-537.02,0.02272
11,1.134,4.4874,0,0.00013464,1345.5,7.6927e-05,284.6,9.0115e-06,-225.69,-0.00012617,-1241.4,0.0017395
12,5.3662,3.2023,0,9.8037e-05,979.69,3.9351e-05,-15.839,1.8239e-05,-174.47,-0.00010031,-1065.2,0.049275
13,4.0484,5.452,0,8.2554e-05,824.97,3.7242e-05,143.13,2.2996e-05,36.095,-7.8982e-05,-730.13,0.025558
14,0.90101,2.0672,0,0.00015716,1570.5,9.3373e-05,341.59,2.9077e-06,-338.13,-0.00014564,-1454.3,0.0011552
15,0.89761,1.0263,0,0.00014466,1445.6,8.3087e-05,317.66,1.001e-05,-231.42,-0.00013514,-1322,0.001054
16,5.4207,2.5148,0,9.6229e-05,961.63,4.0264e-05,4.5011,1.6726e-05,-172.35,-9.7856e-05,-1033.3,0.050287
17,0.96212,3.2087,0,0.00015856,1584.6,9.3569e-05,344.86,4.5508e-06,-323.99,-0.00014724,-1464.5,0.001349
18,5.4233,0.82058,0,9.3471e-05,934.06,3.2965e-05,34.851,3.0442e-05,15.894,-9.2593e-05,-908.54,0.049596
19,5.1738,1.4815,0,9.9464e-05,993.96,3.8538e-05,34.452,2.6037e-05,-59.477,-9.9556e-05,-1003.1,0.045586
20,7.6623,1.1363,0,7.6761e-05,767.08,2.6718e-05,1.3622,2.3084e-05,-25.943,-7.7143e-05,-779.01,0.094945
21,8.858,1.1656,0,6.6752e-05,667.06,2.2471e-05,-2.3481,2.1061e-05,-12.941,-6.7006e-05,-674.64,0.12235
22,10.024,1.1867,0,5.7265e-05,572.26,1.9027e-05,-0.83286,1.8602e-05,-4.0251,-5.7347e-05,-574.68,0.1509
23,11.19,1.1867,0,4.8424e-05,483.9,1.6113e-05,1.1305,1.5859e-05,-0.77852,-4.8417e-05,-483.72,0.18101
24,12.354,1.1831,0,4.0273e-05,402.46,1.3684e-05,4.2482,1.3013e-05,-0.79224,-4.0212e-05,-400.7,0.21235
25,13.529,1.1865,0,3.281e-05,327.88,1.1355e-05,5.991,1.048e-05,-0.58722,-3.2713e-05,-325.13,0.2451
26,14.689,1.1881,0,2.6127e-05,261.09,9.2677e-06,7.3067,8.192e-06,-0.77602,-2.6006e-05,-257.73,0.27832
27,15.856,1.1892,0,2.0227e-05,202.13,7.3634e-06,7.959,6.2294e-06,-0.56091,-2.0088e-05,-198.3,0.31244
28,17.013,1.1918,0,1.511e-05,151,5.7111e-06,8.3509,4.5095e-06,-0.67799,-1.496e-05,-146.96,0.34678
29,18.184,1.1977,0,1.0745e-05,107.38,4.2816e-06,8.5586,3.0613e-06,-0.61034,-1.0581e-05,-103.11,0.38195
30,19.351,1.1963,0,7.1848e-06,71.799,3.1107e-06,8.6426,1.8731e-06,-0.65594,-7.0036e-06,-67.352,0.41726
31,20.512,1.1957,0,4.4156e-06,44.125,2.1792e-06,8.5478,9.5627e-07,-0.64111,-4.2087e-06,-39.449,0.45261
32,21.674,1.1958,0,2.4405e-06,24.388,1.4849e-06,8.2438,3.0217e-07,-0.64245,-2.1865e-06,-19.341,0.48806
33,22.836,1.1991,0,1.2627e-06,12.618,1.0143e-06,7.6513,-9.1972e-08,-0.6606,-9.1813e-07,-6.868,0.52358
34,22.835,2.403,0,1.5945e-06,15.934,1.3572e-06,10.702,-2.3869e-07,-1.2883,-1.0492e-06,-7.3782,0.52342
35,22.831,3.6025,0,1.595e-06,15.939,1.3556e-06,10.666,-2.3701e-07,-1.2999,-1.0526e-06,-7.428,0.52312
36,22.835,4.7999,0,1.2642e-06,12.633,1.0145e-06,7.6472,-9.0811e-08,-0.65791,-9.2038e-07,-6.8909,0.52304
37,21.669,4.8033,0,2.4468e-06,24.451,1.4853e-06,8.2143,3.0522e-07,-0.65203,-2.1944e-06,-19.433,0.48739
38,20.506,4.7956,0,4.4299e-06,44.269,2.1836e-06,8.5457,9.6174e-07,-0.63506,-4.2233e-06,-39.594,0.45189
39,19.344,4.7914,0,7.1975e-06,71.926,3.113e-06,8.6341,1.8801e-06,-0.62881,-7.0164e-06,-67.474,0.41656
40,18.182,4.7902,0,1.0755e-05,107.47,4.2886e-06,8.5777,3.0595e-06,-0.65717,-1.059e-05,-103.22,0.38136
41,17.02,4.7902,0,1.5092e-05,150.82,5.7006e-06,8.3369,4.5099e-06,-0.60972,-1.4941e-05,-146.75,0.34648
42,15.856,4.7838,0,2.0225e-05,202.11,7.3721e-06,7.9937,6.2156e-06,-0.69631,-2.0087e-05,-198.32,0.31191
43,14.693,4.7581,0,2.6126e-05,261.08,9.2635e-06,7.3815,8.2055e-06,-0.56782,-2.6001e-05,-257.58,0.27795
44,13.526,4.7361,0,3.2798e-05,327.76,1.1377e-05,6.2059,1.0453e-05,-0.73381,-3.27e-05,-324.97,0.24454
45,12.364,4.7419,0,4.0227e-05,402,1.3638e-05,4.0269,1.3028e-05,-0.55727,-4.0166e-05,-400.24,0.21216
46,11.187,4.7398,0,4.8411e-05,483.78,1.6128e-05,1.2861,1.5835e-05,-0.916,-4.8404e-05,-483.59,0.18047
47,10.023,4.7255,0,5.7254e-05,572.15,1.9036e-05,-1.3827,1.8526e-05,-5.2162,-5.7365e-05,-575.44,0.15044
48,8.8041,4.7531,0,6.7333e-05,672.87,2.2985e-05,-2.1497,2.0719e-05,-19.173,-6.768e-05,-683.37,0.12062
49,7.4891,4.7163,0,7.9094e-05,790.4,2.8235e-05,2.8405,2.2689e-05,-38.829,-7.9624e-05,-807.57,0.090773
50,6.1176,4.6572,0,9.0577e-05,905.14,3.209e-05,-11.184,2.5056e-05,-64.034,-9.1741e-05,-941.59,0.062607
51,5.09,5.1696,0,8.8693e-05,886.32,3.4637e-05,21.787,2.1857e-05,-74.238,-8.9194e-05,-908.64,0.043177
52,6.424,3.4462,0,8.5293e-05,852.34,3.2488e-05,2.0472,2.0704e-05,-86.493,-8.6383e-05,-891.11,0.069325
53,6.0883,2.1847,0,8.6965e-05,869.05,3.3143e-05,-11.495,1.9762e-05,-112.04,-8.8628e-05,-926.44,0.062778
54,7.5331,2.2791,0,7.7275e-05,772.21,2.8356e-05,6.7219,2.1174e-05,-47.239,-7.7822e-05,-791.06,0.092582
55,8.7993,2.3368,0,6.6161e-05,661.16,2.2794e-05,-2.1508,1.9993e-05,-23.2,-6.6567e-05,-673.58,0.12138
56,9.9972,2.3633,0,5.701e-05,569.71,1.9237e-05,0.4986,1.814e-05,-7.7482,-5.7129e-05,-573.29,0.15058
57,11.175,2.3676,0,4.8252e-05,482.19,1.5935e-05,-0.50981,1.5857e-05,-1.0995,-4.8279e-05,-482.99,0.1809
58,12.349,2.3629,0,4.0164e-05,401.36,1.3653e-05,4.2016,1.2963e-05,-0.98902,-4.0107e-05,-399.73,0.21245
59,13.524,2.3705,0,3.2771e-05,327.48,1.1437e-05,6.8594,1.0386e-05,-1.0362,-3.2665e-05,-324.5,0.24513
60,14.687,2.3737,0,2.6119e-05,261.01,9.3923e-06,8.543,8.0841e-06,-1.2857,-2.5982e-05,-257.24,0.27836
61,15.852,2.375,0,2.0262e-05,202.48,7.5269e-06,9.4285,6.1117e-06,-1.2046,-2.0101e-05,-198.15,0.31235
62,17.013,2.3855,0,1.5144e-05,151.34,5.8846e-06,9.9943,4.3871e-06,-1.2574,-1.4964e-05,-146.66,0.34678
63,18.179,2.3964,0,1.082e-05,108.13,4.4821e-06,10.341,2.9371e-06,-1.2683,-1.0619e-05,-103.13,0.38176
64,19.349,2.3963,0,7.2741e-06,72.69,3.3171e-06,10.508,1.7511e-06,-1.2587,-7.0449e-06,-67.348,0.41713
65,20.51,2.3986,0,4.5523e-06,45.491,2.4176e-06,10.663,8.2698e-07,-1.2889,-4.2734e-06,-39.611,0.45243
66,21.673,2.4016,0,2.6548e-06,26.529,1.7639e-06,10.732,1.7294e-07,-1.2218,-2.2825e-06,-19.671,0.4879
67,21.666,3.5996,0,2.6617e-06,26.598,1.7643e-06,10.694,1.7605e-07,-1.2396,-2.2917e-06,-19.781,0.48754
68,20.504,3.5943,0,4.5612e-06,45.58,2.4163e-06,10.603,8.3296e-07,-1.2931,-4.2848e-06,-39.746,0.45209
69,19.343,3.5906,0,7.2885e-06,72.835,3.3224e-06,10.498,1.7539e-06,-1.2866,-7.0599e-06,-67.51,0.41679
70,18.18,3.5896,0,1.0817e-05,108.09,4.4793e-06,10.32,2.9369e-06,-1.2691,-1.0616e-05,-103.1,0.3816
71,17.014,3.5831,0,1.5147e-05,151.36,5.8911e-06,10.028,4.381e-06,-1.3185,-1.4967e-05,-146.69,0.34664
72,15.853,3.5782,0,2.0248e-05,202.34,7.521e-06,9.4053,6.1078e-06,-1.2132,-2.0088e-05,-198.04,0.31222
73,14.686,3.5612,0,2.6143e-05,261.25,9.386e-06,8.4605,8.1086e-06,-1.1372,-2.6005e-05,-257.45,0.27817
74,13.52,3.5533,0,3.2765e-05,327.42,1.1445e-05,6.8713,1.0367e-05,-1.2229,-3.2661e-05,-324.52,0.24487
75,12.356,3.5386,0,4.0139e-05,401.12,1.3642e-05,4.1881,1.2958e-05,-0.94993,-4.0082e-05,-399.47,0.21248
76,11.177,3.5446,0,4.822e-05,481.86,1.5917e-05,-0.37352,1.587e-05,-0.72964,-4.8238e-05,-482.41,0.18081
77,10.004,3.5325,0,5.6943e-05,569.04,1.9155e-05,-0.46128,1.8133e-05,-8.1412,-5.7086e-05,-573.3,0.15062
78,8.8334,3.521,0,6.6254e-05,662.08,2.2781e-05,-1.2863,2.0179e-05,-20.84,-6.6609e-05,-672.93,0.12205
79,7.6386,3.4731,0,7.6083e-05,760.31,2.719e-05,0.87072,2.1597e-05,-41.153,-7.6681e-05,-779.58,0.094792
80,4.6661,3.9267,0,0.00010835,1082.7,4.2215e-05,-44.571,1.9916e-05,-212.12,-0.00011174,-1201.3,0.036961
81,1.8581,1.6127,0,0.00012135,1212.7,4.9e-05,-80.382,1.5881e-05,-329.22,-0.00012639,-1398.2,0.0048067
82,1.9966,3.4328,0,0.00015556,1554.6,5.7363e-05,-20.401,3.8892e-05,-159.19,-0.00015815,-1639.7,0.005863
83,3.2964,2.8716,0,0.00021011,2099.6,9.7906e-05,165.04,3.2341e-05,-327.59,-0.00020849,-2137.1,0.017283
84,3.2761,3.4521,0,0.00020653,2063.9,8.5874e-05,145.23,5.0396e-05,-121.34,-0.00020483,-2039,0.016987
85,3.2555,3.7056,0,0.00019498,1948.5,0.00010313,647,5.5908e-05,292.22,-0.00017657,-1454.5,0.016544
86,4.1458,1.2253,0,9.2823e-05,927.59,4.1656e-05,133.97,2.362e-05,-1.5456,-8.9825e-05,-853.93,0.02834
87,4.0068,1.7918,0,0.00011533,1152.5,4.2616e-05,14.009,3.145e-05,-69.891,-0.00011605,-1178.2,0.026582
88,3.8131,2.3826,0,0.00014478,1446.8,6.5215e-05,-34.049,1.1435e-05,-438.13,-0.00014851,-1639.9,0.023966
89,3.627,3.0295,0,0.00019988,1997.4,8.0677e-05,61.839,4.5628e-05,-201.51,-0.00020095,-2054.2,0.021518
90,4.8181,2.1247,0,0.00010688,1068.1,4.7414e-05,45.021,1.7295e-05,-181.28,-0.00010739,-1118.1,0.03967
91,6.5273,1.0531,0,8.6474e-05,864.15,3.0081e-05,-1.1301,2.5788e-05,-33.386,-8.7016e-05,-880.95,0.070935
92,2.8023,3.8606,0,0.0003836,3833.4,0.00019588,1024.3,9.8681e-05,293.99,-0.00035592,-3121.7,0.011496
93,3.0288,3.0555,0,0.00025163,2514.5,9.2511e-05,122.19,7.8068e-05,13.661,-0.00024914,-2444.8,0.014296
94,3.0288,3.0555,0.1,0.00025163,2514.5,0.00024914,2444.8,-7.8068e-05,-13.661,-9.2511e-05,-122.19,0.014296
95,2.8023,3.8606,0.1,0.0003836,3833.4,0.00035592,3121.7,-9.8681e-05,-293.99,-0.00019588,-1024.3,0.011496
96,6.5273,1.0531,0.1,8.6474e-05,864.15,8.7016e-05,880.95,-2.5788e-05,33.386,-3.0081e-05,1.1301,0.070935
97,4.8181,2.1247,0.1,0.00010688,1068.1,0.00010739,1118.1,-1.7295e-05,181.28,-4.7414e-05,-45.021,0.03967
98,3.627,3.0295,0.1,0.00019988,1997.4,0.00020095,2054.2,-4.5628e-05,201.51,-8.0677e-05,-61.839,0.021518
99,3.8131,2.3826,0.1,0.00014478,1446.8,0.00014851,1639.9,-1.1435e-05,438.13,-6.5215e-05,34.049,0.023966
100,4.0068,1.7918,0.1,0.00011533,1152.5,0.00011605,1178.2,-3.145e-05,69.891,-4.2616e-05,-14.009,0.026582
101,4.1458,1.2253,0.1,9.2823e-05,927.59,8.9825e-05,853.93,-2.362e-05,1.5456,-4.1656e-05,-133.97,0.02834
102,3.2555,3.7056,0.1,0.00019498,1948.5,0.00017657,1454.5,-5.5908e-05,-292.22,-0.00010313,-647,0.016544
103,3.2761,3.4521,0.1,0.00020653,2063.9,0.00020483,2039,-5.0396e-05,121.34,-8.5874e-05,-145.23,0.016987
104,3.2964,2.8716,0.1,0.00021011,2099.6,0.00020849,2137.1,-3.2341e-05,327.59,-9.7906e-05,-165.04,0.017283
105,1.9966,3.4328,0.1,0.00015556,1554.6,0.00015815,1639.7,-3.8892e-05,159.19,-5.7363e-05,20.401,0.005863
106,1.8581,1.6127,0.1,0.00012135,1212.7,0.00012639,1398.2,-1.5881e-05,329.22,-4.9e-05,80.382,0.0048067
107,4.6661,3.9267,0.1,0.00010835,1082.7,0.00011174,1201.3,-1.9916e-05,212.12,-4.2215e-05,44.571,0.036961
108,7.6386,3.4731,0.1,7.6083e-05,760.31,7.6681e-05,779.58,-2.1597e-05,41.153,-2.719e-05,-0.87072,0.094792
109,8.8334,3.521,0.1,6.6254e-05,662.08,6.6609e-05,672.93,-2.0179e-05,20.84,-2.2781e-05,1.2863,0.12205
110,10.004,3.5325,0.1,5.6943e-05,569.04,5.7086e-05,573.3,-1.8133e-05,8.1412,-1.9155e-05,0.46128,0.15062
111,11.177,3.5446,0.1,4.822e-05,481.86,4.8238e-05,482.41,-1.587e-05,0.72964,-1.5917e-05,0.37352,0.18081
112,12.356,3.5386,0.1,4.0139e-05,401.12,4.0082e-05,399.47,-1.2958e-05,0.94993,-1.3642e-05,-4.1881,0.21248
113,13.52,3.5533,0.1,3.2765e-05,327.42,3.2661e-05,324.52,-1.0367e-05,1.2229,-1.1445e-05,-6.8713,0.24487
114,14.686,3.5612,0.1,2.6143e-05,261.25,2.6005e-05,257.45,-8.1086e-06,1.1372,-9.386e-06,-8.4605,0.27817
115,15.853,3.5782,0.1,2.0248e-05,202.34,2.0088e-05,198.04,-6.1078e-06,1.2132,-7.521e-06,-9.4053,0.31222
116,17.014,3.5831,0.1,1.5147e-05,151.36,1.4967e-05,146.69,-4.381e-06,1.3185,-5.8911e-06,-10.028,0.34664
117,18.18,3.5896,0.1,1.0817e-05,108.09,1.0616e-05,103.1,-2.9369e-06,1.2691,-4.4793e-06,-10.32,0.3816
118,19.343,3.5906,0.1,7.2885e-06,72.835,7.0599e-06,67.51,-1.7539e-06,1.2866,-3.3224e-06,-10.498,0.41679
119,20.504,3.5943,0.1,4.5612e-06,45.58,4.2848e-06,39.746,-8.3296e-07,1.2931,-2.4163e-06,-10.603,0.45209
120,21.666,3.5996,0.1,2.6617e-06,26.598,2.2917e-06,19.781,-1.7605e-07,1.2396,-1.7643e-06,-10.694,0.48754
121,21.673,2.4016,0.1,2.6548e-06,26.529,2.2825e-06,19.671,-1.7295e-07,1.2218,-1.7639e-06,-10.732,0.4879
122,20.51,2.3986,0.1,4.5523e-06,45.491,4.2734e-06,39.611,-8.2698e-07,1.2889,-2.4176e-06,-10.663,0.45243
123,19.349,2.3963,0.1,7.2741e-06,72.69,7.0449e-06,67.348,-1.7511e-06,1.2587,-3.3171e-06,-10.508,0.41713
124,18.179,2.3964,0.1,1.082e-05,108.13,1.0619e-05,103.13,-2.9371e-06,1.2683,-4.4821e-06,-10.34,0.38176
125,17.013,2.3855,0.1,1.5144e-05,151.34,1.4964e-05,146.66,-4.3871e-06,1.2574,-5.8846e-06,-9.9943,0.34678
126,15.852,2.375,0.1,2.0262e-05,202.48,2.0101e-05,198.15,-6.1117e-06,1.2046,-7.5269e-06,-9.4285,0.31235
127,14.687,2.3737,0.1,2.6119e-05,261.01,2.5982e-05,257.24,-8.0842e-06,1.2857,-9.3923e-06,-8.543,0.27836
128,13.524,2.3705,0.1,3.2771e-05,327.48,3.2665e-05,324.5,-1.0386e-05,1.0362,-1.1437e-05,-6.8594,0.24513
129,12.349,2.3629,0.1,4.0164e-05,401.36,4.0107e-05,399.73,-1.2963e-05,0.98902,-1.3653e-05,-4.2016,0.21245
130,11.175,2.3676,0.1,4.8252e-05,482.19,4.8279e-05,482.99,-1.5857e-05,1.0995,-1.5935e-05,0.50981,0.1809
131,9.9972,2.3633,0.1,5.701e-05,569.71,5.7129e-05,573.29,-1.814e-05,7.7482,-1.9237e-05,-0.4986,0.15058
132,8.7993,2.3368,0.1,6.6161e-05,661.16,6.6567e-05,673.58,-1.9993e-05,23.2,-2.2794e-05,2.1508,0.12138
133,7.5331,2.2791,0.1,7.7275e-05,772.21,7.7822e-05,791.06,-2.1174e-05,47.239,-2.8356e-05,-6.7219,0.092582
134,6.0883,2.1847,0.1,8.6965e-05,869.05,8.8628e-05,926.44,-1.9762e-05,112.04,-3.3143e-05,11.495,0.062778
135,6.424,3.4462,0.1,8.5293e-05,852.34,8.6383e-05,891.11,-2.0704e-05,86.493,-3.2488e-05,-2.0472,0.069325
136,5.09,5.1696,0.1,8.8693e-05,886.32,8.9194e-05,908.64,-2.1857e-05,74.238,-3.4637e-05,-21.787,0.043177
137,6.1176,4.6572,0.1,9.0577e-05,905.14,9.1741e-05,941.59,-2.5056e-05,64.034,-3.209e-05,11.184,0.062607
138,7.4891,4.7163,0.1,7.9094e-05,790.4,7.9624e-05,807.57,-2.2689e-05,38.829,-2.8235e-05,-2.8405,0.090773
139,8.8041,4.7531,0.1,6.7333e-05,672.87,6.768e-05,683.37,-2.0719e-05,19.173,-2.2985e-05,2.1497,0.12062
140,10.023,4.7255,0.1,5.7254e-05,572.15,5.7365e-05,575.44,-1.8526e-05,5.2162,-1.9036e-05,1.3827,0.15044
141,11.187,4.7398,0.1,4.8411e-05,483.78,4.8404e-05,483.59,-1.5835e-05,0.916,-1.6128e-05,-1.2861,0.18047
142,12.364,4.7419,0.1,4.0227e-05,402,4.0166e-05,400.24,-1.3028e-05,0.55727,-1.3638e-05,-4.0269,0.21216
143,13.526,4.7361,0.1,3.2798e-05,327.76,3.27e-05,324.97,-1.0453e-05,0.73381,-1.1377e-05,-6.2059,0.24454
144,14.693,4.7581,0.1,2.6126e-05,261.08,2.6001e-05,257.58,-8.2055e-06,0.56782,-9.2635e-06,-7.3815,0.27795
145,15.856,4.7838,0.1,2.0225e-05,202.11,2.0087e-05,198.32,-6.2156e-06,0.69631,-7.3721e-06,-7.9937,0.31191
146,17.02,4.7902,0.1,1.5092e-05,150.82,1.4941e-05,146.75,-4.5099e-06,0.60972,-5.7006e-06,-8.3369,0.34648
147,18.182,4.7902,0.1,1.0755e-05,107.47,1.059e-05,103.22,-3.0595e-06,0.65717,-4.2886e-06,-8.5777,0.38136
148,19.344,4.7914,0.1,7.1975e-06,71.926,7.0164e-06,67.474,-1.8801e-06,0.62881,-3.113e-06,-8.6341,0.41656
149,20.506,4.7956,0.1,4.4299e-06,44.269,4.2233e-06,39.594,-9.6174e-07,0.63506,-2.1836e-06,-8.5457,0.45189
150,21.669,4.8033,0.1,2.4468e-06,24.451,2.1944e-06,19.433,-3.0522e-07,0.65203,-1.4853e-06,-8.2143,0.48739
151,22.835,4.7999,0.1,1.2642e-06,12.633,9.2038e-07,6.8909,9.081e-08,0.65791,-1.0145e-06,-7.6472,0.52304
152,22.831,3.6025,0.1,1.595e-06,15.939,1.0526e-06,7.428,2.3701e-07,1.2999,-1.3556e-06,-10.666,0.52312
153,22.835,2.403,0.1,1.5945e-06,15.934,1.0492e-06,7.3782,2.3869e-07,1.2883,-1.3572e-06,-10.702,0.52342
154,22.836,1.1991,0.1,1.2627e-06,12.618,9.1813e-07,6.868,9.1971e-08,0.6606,-1.0143e-06,-7.6513,0.52358
155,21.674,1.1958,0.1,2.4405e-06,24.388,2.1865e-06,19.341,-3.0217e-07,0.64245,-1.4849e-06,-8.2438,0.48806
156,20.512,1.1957,0.1,4.4156e-06,44.125,4.2087e-06,39.449,-9.5627e-07,0.64111,-2.1792e-06,-8.5478,0.45261
157,19.351,1.1963,0.1,7.1848e-06,71.799,7.0036e-06,67.352,-1.8731e-06,0.65594,-3.1107e-06,-8.6426,0.41726
158,18.184,1.1977,0.1,1.0745e-05,107.38,1.0581e-05,103.11,-3.0613e-06,0.61034,-4.2816e-06,-8.5586,0.38195
159,17.013,1.1918,0.1,1.511e-05,151,1.496e-05,146.96,-4.5095e-06,0.67799,-5.7111e-06,-8.3509,0.34678
160,15.856,1.1892,0.1,2.0227e-05,202.13,2.0088e-05,198.3,-6.2294e-06,0.56091,-7.3634e-06,-7.959,0.31244
161,14.689,1.1881,0.1,2.6127e-05,261.09,2.6006e-05,257.73,-8.192e-06,0.77602,-9.2677e-06,-7.3067,0.27832
162,13.529,1.1865,0.1,3.281e-05,327.88,3.2713e-05,325.13,-1.048e-05,0.58722,-1.1355e-05,-5.991,0.2451
163,12.354,1.1831,0.1,4.0273e-05,402.46,4.0212e-05,400.7,-1.3013e-05,0.79224,-1.3684e-05,-4.2482,0.21235
164,11.19,1.1867,0.1,4.8424e-05,483.9,4.8417e-05,483.72,-1.5859e-05,0.77852,-1.6113e-05,-1.1305,0.18101
165,10.024,1.1867,0.1,5.7265e-05,572.26,5.7347e-05,574.68,-1.8602e-05,4.0251,-1.9027e-05,0.83286,0.1509
166,8.858,1.1656,0.1,6.6752e-05,667.06,6.7006e-05,674.64,-2.1061e-05,12.941,-2.2471e-05,2.3481,0.12235
167,7.6623,1.1363,0.1,7.6761e-05,767.08,7.7143e-05,779.01,-2.3084e-05,25.943,-2.6718e-05,-1.3622,0.094945
168,5.1738,1.4815,0.1,9.9464e-05,993.96,9.9556e-05,1003.1,-2.6037e-05,59.477,-3.8538e-05,-34.452,0.045586
169,5.4233,0.82058,0.1,9.3471e-05,934.06,9.2593e-05,908.54,-3.0442e-05,-15.894,-3.2965e-05,-34.851,0.049596
170,0.96212,3.2087,0.1,0.00015856,1584.6,0.00014724,1464.5,-4.5508e-06,323.99,-9.3569e-05,-344.86,0.001349
171,5.4207,2.5148,0.1,9.6229e-05,961.63,9.7856e-05,1033.3,-1.6726e-05,172.35,-4.0264e-05,-4.5011,0.050287
172,0.89761,1.0263,0.1,0.00014466,1445.6,0.00013514,1322,-1.001e-05,231.42,-8.3087e-05,-317.66,0.001054
173,0.90101,2.0672,0.1,0.00015716,1570.5,0.00014564,1454.3,-2.9077e-06,338.13,-9.3373e-05,-341.59,0.0011552
174,4.0484,5.452,0.1,8.2554e-05,824.97,7.8982e-05,730.13,-2.2996e-05,-36.095,-3.7242e-05,-143.13,0.025558
175,5.3662,3.2023,0.1,9.8037e-05,979.69,0.00010031,1065.2,-1.8239e-05,174.47,-3.9351e-05,15.839,0.049275
176,1.134,4.4874,0.1,0.00013464,1345.5,0.00012617,1241.4,-9.0115e-06,225.69,-7.6927e-05,-284.6,0.0017395
177,3.8234,5.0253,0.1,6.4964e-05,649.19,5.9743e-05,537.02,-1.1165e-05,4.241,-3.6492e-05,-186.06,0.02272
178,4.1282,4.5865,0.1,0.00011659,1165.1,0.00011167,1037.8,-3.1077e-05,-34.673,-5.3325e-05,-201.84,0.027906
179,2.2958,4.2483,0.1,0.00015834,1582.3,0.00015718,1552.1,-4.7118e-05,17.06,-5.918e-05,-73.57,0.0072312
180,1.9892,5.0426,0.1,0.00011388,1138.1,0.00011537,1182.3,-3.4109e-05,59.181,-3.8004e-05,29.918,0.004805
181,4.2479,0.61789,0.1,7.8817e-05,787.63,7.6499e-05,727.05,-2.1801e-05,-11.54,-3.3819e-05,-101.84,0.029339
182,1.9353,2.5017,0.1,0.00013969,1395.9,0.00014433,1596.9,-1.3772e-05,408.99,-6.0289e-05,59.474,0.0054716
183,1.8373,0.80502,0.1,0.0001128,1127.2,0.00011585,1218,-3.1224e-05,112.97,-3.6961e-05,69.87,0.0043175
184,4.4996,2.7374,0.1,0.00011839,1183.1,0.00012042,1282.8,-1.7429e-05,247.02,-5.1165e-05,-6.4664,0.034487
185,4.1274,3.3289,0.1,0.0001513,1511.9,0.00015431,1646,-2.3401e-05,310.75,-6.4186e-05,4.3087,0.028619
186,2.5601,3.9135,0.1,0.00024042,2402.5,0.00022981,2182.7,-4.7148e-05,101.77,-0.00012013,-446.6,0.0094424
187,3.0867,5.5,0.1,3.2167e-05,321.45,3.6216e-05,462.93,1.5472e-06,202.45,-1.1596e-05,103.7,0.010763
188,3.0867,5,0.1,0.00010812,1080.5,9.9755e-05,961.01,-6.979e-06,159.05,-6.3775e-05,-267.69,0.011836
189,3.0867,4.5,0.1,0.00018329,1831.6,0.00016449,1437,-2.6993e-05,-1.753,-0.00010993,-624.9,0.012984
190,3.0867,4,0.1,0.00040238,4021.1,0.00042782,4878.3,-4.8195e-05,1301.7,-0.00015146,525.82,0.014074
191,2.92,4,0.1,0.00062793,6274.9,0.00061666,6180.2,-0.00010775,737.28,-0.0002968,-683.14,0.012291
192,2.92,4.5,0.1,0.00022055,2204,0.00018024,1349.4,-2.5209e-05,-194.29,-0.0001557,-1174.8,0.010969
193,2.92,5,0.1,0.00010634,1062.7,9.0797e-05,759.52,-9.1607e-06,8.4757,-7.1036e-05,-456.43,0.0098356
194,2.92,5.5,0.1,5.4882e-05,548.44,5.9241e-05,677.76,-1.1665e-05,145.01,-1.5674e-05,114.88,0.0088856
195,3.0867,0.5,0.1,6.0998e-05,609.56,6.5214e-05,735.98,-1.2692e-05,150.63,-1.879e-05,104.8,0.011285
196,3.0867,1,0.1,0.00011854,1184.5,0.00012021,1241.7,-2.9383e-05,117.71,-4.4417e-05,4.755,0.012233
197,3.0867,1.5,0.1,0.00021278,2126.3,0.00020728,2037.6,-4.0149e-05,178.54,-0.00010128,-280.79,0.013241
198,3.0867,2,0.1,0.0003821,3818.3,0.00039518,4218.5,-9.2943e-05,550.95,-0.00013093,265.52,0.014167
199,2.92,2,0.1,0.00037316,3729.1,0.00038811,4305.8,-4.3247e-05,1064.7,-0.00015432,230.14,0.012422
200,2.92,1.5,0.1,0.00028196,2817.7,0.00028786,3070.6,-4.492e-05,570.18,-0.00011848,17.516,0.011708
201,2.92,1,0.1,0.00019318,1930.5,0.0001986,2093,-5.2071e-05,209.48,-6.4162e-05,118.63,0.010913
202,2.92,0.5,0.1,0.00011916,1190.8,0.00012275,1296.6,-3.4018e-05,118.72,-3.7399e-05,93.313,0.010086
203,3.0867,6,0.1,4.2979e-05,429.49,4.4831e-05,511.84,-1.9521e-06,160.33,-1.8883e-05,33.112,0.0097424
204,4.2485,6,0.1,6.5305e-05,652.6,6.6324e-05,683.72,-1.8313e-05,47.786,-2.2591e-05,15.64,0.027873
205,5.4104,6,0.1,8.8194e-05,881.33,8.7717e-05,868.21,-2.7341e-05,3.7104,-3.1698e-05,-29.031,0.047745
206,6.5722,6,0.1,9.046e-05,903.98,8.9828e-05,885.42,-3.0129e-05,-15.893,-3.0837e-05,-21.212,0.069981
207,7.7341,6,0.1,7.8779e-05,787.25,7.9064e-05,795.94,-2.4432e-05,18.32,-2.6948e-05,-0.58837,0.094634
208,8.8959,6,0.1,6.7889e-05,678.42,6.8098e-05,684.64,-2.1695e-05,9.9664,-2.2685e-05,2.5226,0.12142
209,10.058,6,0.1,5.79e-05,578.6,5.7931e-05,579.51,-1.8967e-05,1.7348,-1.9184e-05,0.10074,0.15003
210,11.22,6,0.1,4.8724e-05,486.9,4.8632e-05,484.26,-1.5705e-05,0.86469,-1.6628e-05,-6.0694,0.18019
211,12.381,6,0.1,4.0401e-05,403.74,4.0266e-05,399.86,-1.2927e-05,0.19024,-1.3994e-05,-7.8251,0.21165
212,13.543,6,0.1,3.2876e-05,328.54,3.2709e-05,323.79,-1.0393e-05,-0.053962,-1.1616e-05,-9.2447,0.24418
213,14.705,6,0.1,2.6182e-05,261.64,2.5994e-05,256.4,-8.134e-06,-0.022201,-9.4825e-06,-10.154,0.27757
214,15.867,6,0.1,2.0259e-05,202.45,2.0056e-05,196.87,-6.1709e-06,-0.18735,-7.5529e-06,-10.571,0.31165
215,17.029,6,0.1,1.51e-05,150.9,1.489e-05,145.23,-4.4759e-06,-0.27691,-5.8408e-06,-10.532,0.34624
216,18.191,6,0.1,1.0741e-05,107.34,1.0518e-05,101.49,-3.029e-06,-0.29078,-4.4076e-06,-10.649,0.38122
217,19.353,6,0.1,7.1753e-06,71.704,6.9349e-06,65.718,-1.8494e-06,-0.28379,-3.2191e-06,-10.575,0.41646
218,20.514,6,0.1,4.3845e-06,43.815,4.12e-06,37.698,-9.359e-07,-0.2894,-2.2595e-06,-10.234,0.45186
219,21.676,6,0.1,2.3519e-06,23.503,2.053e-06,17.357,-2.8864e-07,-0.23738,-1.4995e-06,-9.3352,0.48736
220,22.838,6,0.1,1.059e-06,10.583,7.1173e-07,4.5178,7.6895e-08,-0.2521,-9.0242e-07,-7.6103,0.5229
221,24,6,0.1,4.6627e-07,4.6595,1.667e-07,-0.22704,1.1017e-07,-0.65178,-4.7976e-07,-5.0843,0.55844
222,24,4.8,0.1,8.3417e-07,8.336,4.3229e-07,2.3139,2.1081e-07,0.64983,-7.712e-07,-6.7286,0.55867
223,24,3.6,0.1,1.2479e-06,12.47,6.1118e-07,3.2287,3.6121e-07,1.3506,-1.1593e-06,-10.074,0.55888
224,24,2.4,0.1,1.2482e-06,12.473,6.1035e-07,3.2222,3.624e-07,1.3593,-1.1597e-06,-10.077,0.55905
225,24,1.2,0.1,8.3431e-07,8.3373,4.3223e-07,2.3107,2.1075e-07,0.64659,-7.7144e-07,-6.7332,0.55919
226,1.049e-14,1.2,0.1,9.9979e-05,999.1,0.00013309,1972.4,1.282e-06,982.07,-1.0232e-06,964.75,0
227,2.0981e-14,2.4,0.1,0.00010357,1035,0.00013796,2045.7,4.6108e-07,1012.6,-3.5773e-08,1008.9,0
228,3.1471e-14,3.6,0.1,0.00010826,1081.9,0.00014417,2137.5,1.2745e-06,1063.8,-8.8762e-07,1047.5,0
229,4.1961e-14,4.8,0.1,0.0001019,1018.3,0.00013573,2012.8,7.0451e-07,998.19,-2.8712e-07,990.74,0
230,24,0,0.1,4.6575e-07,4.6543,1.6575e-07,-0.23136,1.1101e-07,-0.64266,-4.7925e-07,-5.0776,0.5593
231,22.838,0,0.1,1.0615e-06,10.608,7.1371e-07,4.5324,7.678e-08,-0.25326,-9.0432e-07,-7.6249,0.52375
232,21.676,0,0.1,2.3462e-06,23.445,2.0494e-06,17.343,-2.891e-07,-0.22758,-1.4937e-06,-9.2783,0.48822
233,20.514,0,0.1,4.3821e-06,43.791,4.1217e-06,37.763,-9.4041e-07,-0.27239,-2.2498e-06,-10.11,0.45272
234,19.353,0,0.1,7.1761e-06,71.711,6.9406e-06,65.838,-1.8572e-06,-0.26526,-3.2064e-06,-10.403,0.41731
235,18.191,0,0.1,1.0741e-05,107.34,1.052e-05,101.56,-3.0334e-06,-0.28022,-4.3998e-06,-10.547,0.38208
236,17.029,0,0.1,1.5093e-05,150.83,1.4879e-05,145.06,-4.4586e-06,-0.23641,-5.8587e-06,-10.756,0.3471
237,15.867,0,0.1,2.0242e-05,202.28,2.0044e-05,196.82,-6.1775e-06,-0.19268,-7.5279e-06,-10.339,0.31251
238,14.705,0,0.1,2.6164e-05,261.46,2.5978e-05,256.26,-8.1484e-06,-0.15192,-9.455e-06,-9.9695,0.27843
239,13.543,0,0.1,3.2876e-05,328.53,3.2714e-05,323.96,-1.04e-05,0.020308,-1.1597e-05,-8.9753,0.24504
240,12.381,0,0.1,4.0395e-05,403.67,4.0254e-05,399.66,-1.2911e-05,0.19363,-1.4014e-05,-8.0908,0.21251
241,11.22,0,0.1,4.8712e-05,486.78,4.8616e-05,484.01,-1.5753e-05,0.37035,-1.6581e-05,-5.8514,0.18105
242,10.058,0,0.1,5.7712e-05,576.72,5.7723e-05,577.04,-1.8851e-05,1.6974,-1.9216e-05,-1.0465,0.15088
243,8.8959,0,0.1,6.7876e-05,678.29,6.7943e-05,680.29,-2.2023e-05,4.3169,-2.2637e-05,-0.29154,0.12226
244,7.7341,0,0.1,7.7625e-05,775.71,7.7876e-05,783.15,-2.4852e-05,11.289,-2.587e-05,3.6456,0.095469
245,6.5722,0,0.1,8.7414e-05,873.53,8.7675e-05,881.33,-2.7794e-05,13.738,-2.936e-05,1.9727,0.070773
246,5.4104,0,0.1,9.1058e-05,909.95,8.9883e-05,875.44,-3.0943e-05,-32.405,-3.1502e-05,-36.604,0.048433
247,4.2485,0,0.1,6.8493e-05,684.46,6.7129e-05,647.18,-2.0362e-05,-10.199,-2.7187e-05,-61.48,0.028512
248,3.0867,0,0.1,4.0549e-05,405.21,4.4111e-05,516.85,-5.2157e-06,146.23,-1.347e-05,84.212,0.01038
249,2.92,0,0.1,6.5215e-05,651.7,7.0137e-05,801.19,-1.19e-05,184.79,-2.0636e-05,119.15,0.0092739
250,1.9467,2.022e-31,0.1,0.00010932,1092.5,0.00011014,1120.1,-3.0161e-05,65.888,-3.987e-05,-7.0635,0.0041064
251,0.97333,1.011e-31,0.1,0.00013989,1397.9,0.00013469,1298.9,-2.6409e-05,88.473,-6.8941e-05,-231.1,0.00091125
252,0,0,0.1,7.6171e-05,761.19,9.7787e-05,1399.7,5.2511e-07,668.87,-7.1334e-06,611.33,0
253,3.937e-14,6,0.1,7.2612e-05,725.62,9.3438e-05,1339.5,-2.2188e-07,635.77,-5.8076e-06,593.8,0
254,0.97333,6,0.1,0.00012118,1211,0.00011652,1102.7,-2.8215e-05,15.208,-5.7154e-05,-202.23,0.00083761
255,1.9467,6,0.1,9.9158e-05,990.89,0.00010028,1033,-2.354e-05,102.68,-3.8405e-05,-9.0168,0.003617
256,2.92,6,0.1,5.8087e-05,580.47,6.1372e-05,719.61,-8.1716e-07,252.35,-2.511e-05,69.819,0.0080395
257,1.9467,6,0,9.9158e-05,990.89,3.8405e-05,9.0168,2.354e-05,-102.68,-0.00010028,-1033,0.003617
258,0.97333,6,0,0.00012118,1211,5.7154e-05,202.23,2.8215e-05,-15.208,-0.00011652,-1102.7,0.00083761
259,2.92,6,0,5.8087e-05,580.47,2.511e-05,-69.819,8.1716e-07,-252.35,-6.1372e-05,-719.61,0.0080395
260,3.937e-14,6,0,7.2612e-05,725.62,5.8076e-06,-593.8,2.2188e-07,-635.77,-9.3438e-05,-1339.5,0
261,0.97333,1.011e-31,0,0.00013989,1397.9,6.8941e-05,231.1,2.6409e-05,-88.473,-0.00013469,-1298.9,0.00091125
262,1.9467,2.022e-31,0,0.00010932,1092.5,3.987e-05,7.0635,3.0161e-05,-65.888,-0.00011014,-1120.1,0.0041064
263,2.92,0,0,6.5215e-05,651.7,2.0636e-05,-119.15,1.19e-05,-184.79,-7.0137e-05,-801.19,0.0092739
264,0,0,0,7.6171e-05,761.19,7.1334e-06,-611.33,-5.2511e-07,-668.87,-9.7787e-05,-1399.7,0
265,4.2485,0,0,6.8493e-05,684.46,2.7187e-05,61.48,2.0362e-05,10.199,-6.7129e-05,-647.18,0.028512
266,5.4104,0,0,9.1058e-05,909.95,3.1502e-05,36.604,3.0943e-05,32.405,-8.9883e-05,-875.44,0.048433
267,6.5722,0,0,8.7414e-05,873.53,2.936e-05,-1.9727,2.7794e-05,-13.738,-8.7675e-05,-881.33,0.070773
268,7.7341,0,0,7.7625e-05,775.71,2.587e-05,-3.6456,2.4852e-05,-11.289,-7.7876e-05,-783.15,0.095469
269,8.8959,0,0,6.7876e-05,678.29,2.2637e-05,0.29154,2.2023e-05,-4.3169,-6.7943e-05,-680.29,0.12226
270,10.058,0,0,5.7712e-05,576.72,1.9216e-05,1.0466,1.8851e-05,-1.6974,-5.7723e-05,-577.04,0.15088
271,11.22,0,0,4.8712e-05,486.78,1.6581e-05,5.8514,1.5753e-05,-0.37035,-4.8616e-05,-484.01,0.18105
272,12.381,0,0,4.0395e-05,403.67,1.4014e-05,8.0908,1.2911e-05,-0.19363,-4.0254e-05,-399.66,0.21251
273,13.543,0,0,3.2876e-05,328.53,1.1597e-05,8.9753,1.04e-05,-0.020308,-3.2714e-05,-323.96,0.24504
274,14.705,0,0,2.6164e-05,261.46,9.455e-06,9.9695,8.1484e-06,0.15192,-2.5978e-05,-256.26,0.27843
275,15.867,0,0,2.0242e-05,202.28,7.5279e-06,10.339,6.1775e-06,0.19268,-2.0044e-05,-196.82,0.31251
276,17.029,0,0,1.5093e-05,150.83,5.8587e-06,10.756,4.4586e-06,0.23641,-1.4879e-05,-145.06,0.3471
277,18.191,0,0,1.0741e-05,107.34,4.3998e-06,10.547,3.0334e-06,0.28022,-1.052e-05,-101.56,0.38208
278,19.353,0,0,7.1761e-06,71.711,3.2064e-06,10.403,1.8572e-06,0.26526,-6.9406e-06,-65.838,0.41731
279,20.514,0,0,4.3821e-06,43.791,2.2498e-06,10.11,9.4041e-07,0.27239,-4.1217e-06,-37.763,0.45272
280,21.676,0,0,2.3462e-06,23.445,1.4937e-06,9.2784,2.891e-07,0.22758,-2.0494e-06,-17.343,0.48822
281,22.838,0,0,1.0615e-06,10.608,9.0433e-07,7.6249,-7.678e-08,0.25326,-7.1371e-07,-4.5324,0.52375
282,3.0867,0,0,4.0549e-05,405.21,1.347e-05,-84.212,5.2157e-06,-146.23,-4.4111e-05,-516.85,0.01038
283,24,0,0,4.6575e-07,4.6543,4.7925e-07,5.0776,-1.1101e-07,0.64267,-1.6575e-07,0.23136,0.5593
284,4.1961e-14,4.8,0,0.0001019,1018.3,2.8712e-07,-990.74,-7.0451e-07,-998.19,-0.00013573,-2012.8,0
285,3.1471e-14,3.6,0,0.00010826,1081.9,8.8762e-07,-1047.5,-1.2745e-06,-1063.8,-0.00014417,-2137.5,0
286,2.0981e-14,2.4,0,0.00010357,1035,3.5773e-08,-1008.9,-4.6108e-07,-1012.6,-0.00013796,-2045.7,0
287,1.049e-14,1.2,0,9.9979e-05,999.1,1.0232e-06,-964.75,-1.282e-06,-982.07,-0.00013309,-1972.4,0
288,24,1.2,0,8.3431e-07,8.3373,7.7144e-07,6.7332,-2.1075e-07,-0.64659,-4.3223e-07,-2.3107,0.55919
289,24,2.4,0,1.2482e-06,12.473,1.1597e-06,10.077,-3.624e-07,-1.3593,-6.1034e-07,-3.2222,0.55905
290,24,3.6,0,1.2479e-06,12.47,1.1593e-06,10.074,-3.6121e-07,-1.3506,-6.1118e-07,-3.2287,0.55888
291,24,4.8,0,8.3417e-07,8.336,7.712e-07,6.7286,-2.1082e-07,-0.64983,-4.3229e-07,-2.3139,0.55867
292,24,6,0,4.6627e-07,4.6594,4.7976e-07,5.0843,-1.1017e-07,0.65179,-1.667e-07,0.22704,0.55844
293,22.838,6,0,1.059e-06,10.583,9.0242e-07,7.6103,-7.6896e-08,0.2521,-7.1173e-07,-4.5178,0.5229
294,21.676,6,0,2.3519e-06,23.503,1.4995e-06,9.3352,2.8864e-07,0.23738,-2.053e-06,-17.357,0.48736
295,20.514,6,0,4.3845e-06,43.815,2.2595e-06,10.234,9.359e-07,0.2894,-4.12e-06,-37.698,0.45186
296,19.353,6,0,7.1753e-06,71.704,3.2191e-06,10.575,1.8494e-06,0.28379,-6.9349e-06,-65.718,0.41646
297,18.191,6,0,1.0741e-05,107.34,4.4076e-06,10.649,3.029e-06,0.29078,-1.0518e-05,-101.49,0.38122
298,17.029,6,0,1.51e-05,150.9,5.8408e-06,10.532,4.4759e-06,0.27691,-1.489e-05,-145.23,0.34624
299,15.867,6,0,2.0259e-05,202.45,7.5529e-06,10.571,6.1709e-06,0.18735,-2.0056e-05,-196.87,0.31165
300,14.705,6,0,2.6182e-05,261.64,9.4825e-06,10.154,8.134e-06,0.022201,-2.5994e-05,-256.4,0.27757
301,13.543,6,0,3.2876e-05,328.54,1.1616e-05,9.2447,1.0393e-05,0.053962,-3.2709e-05,-323.79,0.24418
302,12.381,6,0,4.0401e-05,403.74,1.3994e-05,7.8251,1.2927e-05,-0.19025,-4.0266e-05,-399.86,0.21165
303,11.22,6,0,4.8724e-05,486.9,1.6628e-05,6.0694,1.5705e-05,-0.86469,-4.8632e-05,-484.26,0.18019
304,10.058,6,0,5.79e-05,578.6,1.9184e-05,-0.10073,1.8967e-05,-1.7348,-5.7931e-05,-579.51,0.15003
305,8.8959,6,0,6.7889e-05,678.42,2.2685e-05,-2.5226,2.1695e-05,-9.9664,-6.8098e-05,-684.64,0.12142
306,7.7341,6,0,7.8779e-05,787.25,2.6948e-05,0.58837,2.4432e-05,-18.32,-7.9064e-05,-795.94,0.094634
307,6.5722,6,0,9.046e-05,903.98,3.0837e-05,21.212,3.0129e-05,15.893,-8.9828e-05,-885.42,0.069981
308,5.4104,6,0,8.8194e-05,881.33,3.1698e-05,29.031,2.7341e-05,-3.7104,-8.7717e-05,-868.21,0.047745
309,4.2485,6,0,6.5305e-05,652.6,2.2591e-05,-15.64,1.8313e-05,-47.786,-6.6324e-05,-683.72,0.027873
310,3.0867,6,0,4.2979e-05,429.49,1.8883e-05,-33.112,1.9521e-06,-160.33,-4.4831e-05,-511.84,0.0097424
311,2.92,1.5,0,0.00028196,2817.7,0.00011848,-17.516,4.492e-05,-570.18,-0.00028786,-3070.6,0.011708
312,2.92,1,0,0.00019318,1930.5,6.4162e-05,-118.63,5.2071e-05,-209.48,-0.0001986,-2093,0.010913
313,2.92,0.5,0,0.00011916,1190.8,3.7399e-05,-93.313,3.4018e-05,-118.72,-0.00012275,-1296.6,0.010086
314,2.92,2,0,0.00037316,3729.1,0.00015432,-230.14,4.3247e-05,-1064.7,-0.00038811,-4305.8,0.012422
315,3.0867,0.5,0,6.0998e-05,609.56,1.879e-05,-104.8,1.2692e-05,-150.63,-6.5214e-05,-735.98,0.011285
316,3.0867,1,0,0.00011854,1184.5,4.4417e-05,-4.755,2.9383e-05,-117.71,-0.00012021,-1241.7,0.012233
317,3.0867,1.5,0,0.00021278,2126.3,0.00010128,280.79,4.0149e-05,-178.54,-0.00020728,-2037.6,0.013241
318,3.0867,2,0,0.0003821,3818.3,0.00013093,-265.52,9.2943e-05,-550.95,-0.00039518,-4218.5,0.014167
319,2.92,4.5,0,0.00022055,2204,0.0001557,1174.8,2.5209e-05,194.29,-0.00018024,-1349.4,0.010969
320,2.92,5,0,0.00010634,1062.7,7.1036e-05,456.43,9.1607e-06,-8.4757,-9.0797e-05,-759.52,0.0098356
321,2.92,5.5,0,5.4882e-05,548.44,1.5674e-05,-114.88,1.1665e-05,-145.01,-5.9241e-05,-677.76,0.0088856
322,2.92,4,0,0.00062793,6274.9,0.0002968,683.14,0.00010775,-737.28,-0.00061666,-6180.2,0.012291
323,3.0867,5.5,0,3.2167e-05,321.45,1.1596e-05,-103.7,-1.5472e-06,-202.45,-3.6216e-05,-462.93,0.010763
324,3.0867,5,0,0.00010812,1080.5,6.3775e-05,267.69,6.979e-06,-159.05,-9.9755e-05,-961.01,0.011836
325,3.0867,4.5,0,0.00018329,1831.6,0.00010993,624.9,2.6993e-05,1.753,-0.00016449,-1437,0.012984
326,3.0867,4,0,0.00040238,4021.1,0.00015146,-525.82,4.8195e-05,-1301.7,-0.00042782,-4878.3,0.014074
327,2.4279,4.0809,0,0.00019636,1962.3,8.6215e-05,234.24,4.8739e-05,-47.342,-0.00019166,-1853.6,0.0082822
328,2.6812,3.8871,0,0.00031055,3103.4,0.00015711,728.72,7.2594e-05,93.698,-0.00029165,-2643.1,0.010416
329,2.5601,3.9135,0.05,3.8677e-05,386.51,2.9699e-05,223.15,-6.2997e-21,-4.7334e-14,-2.9699e-05,-223.15,0.0094333
330,2.74,2.9567,0,0.00028451,2843.1,0.00010568,-128.79,6.0899e-05,-465.24,-0.00029312,-3125.2,0.011405
331,2.74,4.2067,0,0.00017804,1779.2,0.0001009,532.55,3.1116e-05,8.2278,-0.00016295,-1449.9,0.010349
332,4.3135,3.0332,0,0.00013477,1346.8,5.7532e-05,5.4358e-05,2.0519e-05,-278.1,-0.00013733,-1464.1,0.031527
333,4.3968,3.6278,0,0.00012978,1296.9,5.3163e-05,-24.723,2.1692e-05,-261.18,-0.00013302,-1423.6,0.032714
334,3.6915,3.5173,0,0.00016919,1690.7,6.5298e-05,183.41,5.6544e-05,117.64,-0.00016397,-1539.2,0.022317
335,3.8772,3.1792,0,0.00017507,1749.5,7.0898e-05,17.242,3.5891e-05,-245.78,-0.00017747,-1848.9,0.024989
336,4.1274,3.3289,0.05,4.3371e-06,43.341,3.3303e-06,25.023,2.5565e-14,2.9592e-07,-3.3303e-06,-25.023,0.028608
337,4.9329,2.9698,0,0.00010817,1080.9,4.5203e-05,-5.1045,1.7886e-05,-210.35,-0.00011036,-1174,0.041691
338,4.1564,2.56,0,0.00013108,1309.9,5.7883e-05,-16.101,1.4363e-05,-343.1,-0.00013409,-1458.5,0.029081
339,4.6589,2.4311,0,0.00011261,1125.3,4.9171e-05,24.852,1.7479e-05,-213.27,-0.0001139,-1200.4,0.037062
340,4.4996,2.7374,0.05,5.8041e-06,58.001,4.4568e-06,33.487,-6.1645e-14,2.9146e-07,-4.4568e-06,-33.487,0.034476
341,1.3674,0.91566,0,0.00012696,1268.7,5.9547e-05,120.31,2.0886e-05,-170.18,-0.00012529,-1268.5,0.0024157
342,1.8477,1.2089,0,0.00011661,1165.3,4.2625e-05,-77.796,2.3806e-05,-219.2,-0.00012102,-1307.3,0.0045921
343,1.8373,0.80502,0.05,5.2398e-06,52.362,4.0235e-06,30.231,-8.5345e-22,-6.4125e-15,-4.0235e-06,-30.231,0.0043099
344,1.892,0.40251,0,0.0001109,1108.2,3.5696e-05,-51.834,3.3367e-05,-69.336,-0.00011295,-1168.7,0.004275
345,2.3786,0.65251,0,0.00011243,1123.6,3.6153e-05,-89.312,3.0489e-05,-131.87,-0.00011614,-1233.6,0.0070152
346,1.4487,2.8552,0,0.00014831,1482.1,7.6911e-05,142.56,8.7705e-06,-369.43,-0.00014538,-1527.6,0.0030684
347,1.8967,2.0572,0,0.00013037,1302.8,5.461e-05,-70.187,1.4748e-05,-369.7,-0.00013525,-1496.7,0.0051512
348,1.9659,2.9672,0,0.00014602,1459.2,5.8625e-05,-41.448,2.5361e-05,-291.38,-0.00015007,-1609.5,0.0057097
349,1.9353,2.5017,0.05,1.6093e-06,16.082,1.2357e-06,9.2848,1.0721e-12,4.7682e-07,-1.2357e-06,-9.2848,0.0054624
350,2.4277,2.0008,0,0.00020807,2079.3,8.9043e-05,-41.045,2.7028e-05,-507,-0.00021344,-2313.8,0.0084126
351,4.8356,0.71924,0,8.5242e-05,851.83,3.1544e-05,54.456,2.731e-05,22.646,-8.3886e-05,-812.83,0.039157
352,4.1969,0.92158,0,8.5807e-05,857.48,3.7724e-05,117.8,2.2722e-05,5.0802,-8.3159e-05,-790.46,0.028863
353,4.2479,0.61789,0.05,3.9214e-06,39.187,3.0112e-06,22.625,-6.3872e-22,-4.5848e-07,-3.0112e-06,-22.625,0.029327
354,4.2482,0.30894,0,7.3531e-05,734.81,3.0354e-05,80.543,2.114e-05,11.308,-7.1724e-05,-686.43,0.028951
355,3.6673,0.55894,0,6.6149e-05,661.03,2.0438e-05,-45.565,2.001e-05,-48.777,-6.7753e-05,-708.19,0.020159
356,2.1425,4.6455,0,0.00013578,1356.8,4.8549e-05,21.506,4.0365e-05,-39.986,-0.00013599,-1365,0.0059505
357,1.5616,4.765,0,0.0001212,1211.2,5.6776e-05,122.16,2.084e-05,-147.85,-0.00011936,-1201.3,0.003142
358,1.9892,5.0426,0.05,3.8693e-06,38.666,2.9712e-06,22.324,-6.3023e-22,2.1017e-07,-2.9712e-06,-22.324,0.004798
359,1.9679,5.5213,0,0.00010632,1062.5,3.6849e-05,-20.637,3.0145e-05,-71.007,-0.00010779,-1107.4,0.0042555
360,2.4546,5.2713,0,7.9238e-05,791.83,2.4008e-05,-93.671,2.1177e-05,-114.94,-8.2765e-05,-895.92,0.0068504
361,2.1462,3.8406,0,0.00015062,1505.1,5.6472e-05,13.063,3.9105e-05,-117.42,-0.00015197,-1553.1,0.0066118
362,2.2958,4.2483,0.05,9.4055e-06,93.99,7.2222e-06,54.265,8.8924e-13,-1.2015e-06,-7.2222e-06,-54.265,0.0072227
363,2.6079,4.6242,0,0.00011615,1160.7,5.085e-05,157.87,3.1005e-05,8.7678,-0.0001126,-1070.2,0.0086972
364,3.9758,4.8059,0,8.7788e-05,877.27,4.1615e-05,169.2,2.2305e-05,24.109,-8.3594e-05,-771.57,0.025348
365,4.6091,4.878,0,0.00010197,1019,3.8914e-05,73.737,3.1408e-05,17.345,-0.0001003,-972.29,0.035328
366,4.3971,4.2566,0,0.00011123,1111.6,4.1121e-05,28.674,3.1734e-05,-41.854,-0.00011129,-1116.5,0.032422
367,4.1282,4.5865,0.05,1.3842e-05,138.32,1.0629e-05,79.86,8.7525e-13,-1.6939e-14,-1.0629e-05,-79.86,0.027895
368,3.6074,4.5432,0,0.00012813,1280.4,6.3094e-05,274.12,3.0686e-05,30.62,-0.0001212,-1110.6,0.0202
369,3.9359,5.2386,0,7.3422e-05,733.71,3.6771e-05,163.87,1.7051e-05,15.701,-6.9236e-05,-632.62,0.024138
370,3.8234,5.0253,0.05,4.024e-06,40.212,3.0899e-06,23.216,-6.5541e-22,4.9976e-06,-3.0899e-06,-23.216,0.022707
371,3.4551,5.0126,0,8.163e-05,815.73,4.6564e-05,200.05,8.7474e-06,-84.086,-7.5854e-05,-719.75,0.01723
372,1.0481,3.8481,0,0.00014612,1460.1,8.523e-05,314.59,6.2543e-06,-278.8,-0.00013616,-1348.8,0.0015714
373,1.5653,3.9601,0,0.00014372,1436.2,6.7036e-05,131.29,2.3898e-05,-192.84,-0.000142,-1439.3,0.0034669
374,1.134,4.4874,0.05,5.7723e-06,57.683,4.4324e-06,33.303,3.3457e-13,2.9887e-06,-4.4324e-06,-33.303,0.001731
375,1.0537,5.2437,0,0.00012692,1268.4,6.7011e-05,243.19,1.8136e-05,-124.03,-0.00012084,-1168.3,0.0013319
376,0.56699,4.6437,0,0.00011596,1158.8,3.8472e-05,-354.08,3.556e-06,-616.43,-0.00013022,-1621.6,0.0004361
377,5.3934,2.8585,0,9.7065e-05,969.98,3.9798e-05,-5.7404,1.7431e-05,-173.79,-9.9021e-05,-1048.8,0.049804
378,5.8951,3.3243,0,9.1624e-05,915.61,3.5907e-05,-6.9868,1.9474e-05,-130.46,-9.3335e-05,-978.07,0.05905
379,5.0161,3.5645,0,0.00010317,1031,4.0752e-05,-30.44,1.9093e-05,-193.18,-0.00010601,-1133.1,0.043021
380,5.3662,3.2023,0.05,2.2404e-06,22.388,1.7203e-06,12.926,-6.875e-14,1.3419e-06,-1.7203e-06,-12.926,0.049266
381,4.5692,5.3108,0,8.3009e-05,829.52,2.9313e-05,32.669,2.713e-05,16.265,-8.2164e-05,-804.93,0.034161
382,4.0484,5.452,0.05,7.4771e-06,74.719,5.7415e-06,43.139,-4.3931e-21,-1.6533e-06,-5.7415e-06,-43.139,0.025546
383,4.1484,5.726,0,7.324e-05,731.9,2.9377e-05,59.69,2.0646e-05,-5.9126,-7.2104e-05,-702.8,0.026718
384,3.5675,5.476,0,5.5505e-05,554.67,1.8166e-05,-27.267,1.6064e-05,-43.062,-5.6684e-05,-589.66,0.018082
385,0.89931,1.5468,0,0.00015069,1505.8,8.821e-05,329.47,6.2731e-06,-286.17,-0.00014019,-1386.6,0.0011154
386,0.93157,2.638,0,0.00015775,1576.4,9.3466e-05,343.18,3.5982e-06,-332.05,-0.0001463,-1458.3,0.0012563
387,1.3796,1.84,0,0.0001382,1381,7.111e-05,130.03,9.1287e-06,-335.67,-0.00013567,-1423.7,0.0026826
388,0.90101,2.0672,0.05,1.8253e-06,18.24,1.4016e-06,10.531,-2.1863e-13,-5.1838e-07,-1.4016e-06,-10.531,0.0011456
389,0.45051,2.2336,0,0.00012803,1279.4,4.6684e-05,-333.81,1.173e-06,-675.76,-0.00014173,-1749.5,0.00029052
390,0.89761,1.0263,0.05,3.8239e-06,38.213,2.9363e-06,22.062,5.2908e-13,1.204e-05,-2.9363e-06,-22.062,0.0010454
391,0.93547,0.51315,0,0.00014136,1412.6,7.5962e-05,273.99,1.7641e-05,-164.22,-0.0001343,-1305.8,0.001032
392,0.44881,1.1131,0,0.00012019,1201.1,4.1591e-05,-327.03,4.322e-06,-607.06,-0.00013361,-1643.4,0.00026928
393,5.7545,2.3498,0,9.1551e-05,914.88,3.6702e-05,-3.5046,1.824e-05,-142.22,-9.3238e-05,-979.82,0.056434
394,5.1194,2.3198,0,0.00010151,1014.4,4.3817e-05,24.598,1.7001e-05,-176.89,-0.00010259,-1075.4,0.044894
395,5.4207,2.5148,0.05,1.3998e-06,13.988,1.0749e-06,8.076,-3.8517e-15,1.0114e-05,-1.0749e-06,-8.076,0.050278
396,0.96212,3.2087,0.05,4.6054e-06,46.022,3.5364e-06,26.571,-8.1629e-14,-5.6361e-15,-3.5364e-06,-26.571,0.0013393
397,0.48106,3.4044,0,0.00013111,1310.2,4.6775e-05,-354.76,2.0086e-06,-691.11,-0.00014562,-1800.3,0.00033834
398,5.2986,1.151,0,9.6416e-05,963.5,3.5741e-05,34.574,2.8249e-05,-21.719,-9.6074e-05,-955.83,0.047607
399,5.9753,0.93685,0,8.9967e-05,899.05,3.1484e-05,16.569,2.8153e-05,-8.4652,-8.9803e-05,-894.74,0.059991
400,5.4233,0.82058,0.05,5.9668e-07,5.9627,4.5818e-07,3.4426,3.7548e-14,3.2501e-07,-4.5818e-07,-3.4426,0.049586
401,5.4168,0.41029,0,9.2256e-05,921.92,3.2085e-05,34.61,3.0838e-05,25.237,-9.1234e-05,-891.96,0.049066
402,5.6311,1.8331,0,9.32e-05,931.36,3.5795e-05,11.138,2.294e-05,-85.45,-9.4088e-05,-964.75,0.054009
403,4.6598,1.3534,0,9.4641e-05,945.75,3.3413e-05,33.989,3.0643e-05,13.178,-9.3821e-05,-922,0.036707
404,4.996,1.8031,0,0.00010303,1029.6,4.2946e-05,39.514,2.1691e-05,-120.19,-0.00010347,-1060.6,0.042619
405,5.1738,1.4815,0.05,1.375e-06,13.741,1.0558e-06,7.9331,4.0444e-14,2.3071e-07,-1.0558e-06,-7.9331,0.045577
406,8.2602,1.1509,0,7.1741e-05,716.91,2.4593e-05,-0.50763,2.2063e-05,-19.517,-7.2062e-05,-726.74,0.10839
407,7.5977,1.7077,0,7.7009e-05,769.56,2.7536e-05,4.0354,2.213e-05,-36.585,-7.7483e-05,-785.03,0.093832
408,7.0948,1.0947,0,8.1617e-05,815.61,2.8397e-05,0.10068,2.4438e-05,-29.651,-8.2079e-05,-829.98,0.082676
409,7.6623,1.1363,0.05,7.031e-07,7.0262,5.399e-07,4.0566,-4.2853e-15,5.3705e-07,-5.399e-07,-4.0566,0.094938
410,7.6982,0.56813,0,7.7159e-05,771.05,2.6218e-05,-1.7144,2.402e-05,-18.229,-7.7485e-05,-780.89,0.095285
411,9.441,1.1761,0,6.2004e-05,619.61,2.0742e-05,-1.6412,1.9835e-05,-8.4592,-6.2173e-05,-624.63,0.13641
412,8.8286,1.7512,0,6.6444e-05,663.98,2.2631e-05,-2.263,2.0519e-05,-18.132,-6.6777e-05,-674.03,0.12193
413,8.858,1.1656,0.05,5.7957e-07,5.7917,4.4503e-07,3.3438,-2.8418e-14,3.3368e-07,-4.4503e-07,-3.3438,0.12234
414,8.877,0.5828,0,6.7285e-05,672.39,2.2552e-05,-1.0444,2.1519e-05,-8.8001,-6.7449e-05,-677.28,0.12238
415,10.607,1.1867,0,5.2842e-05,528.05,1.7464e-05,-0.64565,1.7334e-05,-1.6229,-5.288e-05,-529.19,0.16578
416,10.011,1.775,0,5.7118e-05,570.78,1.9129e-05,-0.19278,1.8357e-05,-5.9918,-5.7221e-05,-573.85,0.1508
417,10.024,1.1867,0.05,7.2764e-07,7.2714,5.5874e-07,4.1981,-3.0252e-15,1.4264e-06,-5.5874e-07,-4.1981,0.15089
418,10.041,0.59333,0,5.7461e-05,574.22,1.8986e-05,-0.91179,1.8838e-05,-2.0224,-5.7511e-05,-575.68,0.15096
419,11.772,1.1849,0,4.4346e-05,443.16,1.4896e-05,2.6715,1.4436e-05,-0.78001,-4.4313e-05,-442.2,0.19653
420,11.183,1.7772,0,4.8312e-05,482.79,1.6001e-05,0.14014,1.5858e-05,-0.93776,-4.8326e-05,-483.19,0.18101
421,11.19,1.1867,0.05,6.2874e-07,6.2831,4.8279e-07,3.6275,1.7336e-15,1.1981e-06,-4.8279e-07,-3.6275,0.181
422,11.205,0.59337,0,4.8537e-05,485.04,1.632e-05,3.289,1.5806e-05,-0.57341,-4.849e-05,-483.67,0.18108
423,12.941,1.1848,0,3.654e-05,365.15,1.2518e-05,5.11,1.1746e-05,-0.6895,-3.6462e-05,-362.91,0.2286
424,12.352,1.773,0,4.0189e-05,401.62,1.3642e-05,4.0292,1.2988e-05,-0.88874,-4.0134e-05,-400.02,0.21245
425,12.354,1.1831,0.05,5.8937e-07,5.8897,4.5257e-07,3.4004,-5.298e-22,1.4603e-06,-4.5257e-07,-3.4004,0.21234
426,12.368,0.59155,0,4.0301e-05,402.74,1.382e-05,5.9558,1.2962e-05,-0.49441,-4.0205e-05,-399.97,0.21247
427,14.109,1.1873,0,2.9467e-05,294.46,1.031e-05,6.6392,9.336e-06,-0.68151,-2.9359e-05,-291.42,0.26161
428,13.526,1.7785,0,3.2759e-05,327.36,1.1368e-05,6.2113,1.0433e-05,-0.80906,-3.2661e-05,-324.6,0.24515
429,13.529,1.1865,0.05,5.2747e-07,5.2711,4.0503e-07,3.0432,-8.5913e-23,1.4243e-06,-4.0503e-07,-3.0432,0.2451
430,13.536,0.59323,0,3.281e-05,327.87,1.1447e-05,7.2653,1.044e-05,-0.30461,-3.2685e-05,-324.32,0.24511
431,15.273,1.1887,0,2.3175e-05,231.59,8.3142e-06,7.6226,7.2107e-06,-0.66845,-2.3046e-05,-228,0.2953
432,14.688,1.7809,0,2.6089e-05,260.71,9.3001e-06,7.7001,8.1384e-06,-1.0287,-2.5964e-05,-257.26,0.27837
433,14.689,1.1881,0.05,4.7311e-07,4.7278,3.6329e-07,2.7296,2.2891e-13,1.5517e-06,-3.6329e-07,-2.7296,0.27832
434,14.697,0.59405,0,2.6111e-05,260.93,9.3313e-06,8.4122,8.1703e-06,-0.31138,-2.5962e-05,-256.77,0.27841
435,16.435,1.1905,0,1.7667e-05,176.55,6.5359e-06,8.1447,5.3695e-06,-0.61947,-1.7522e-05,-172.62,0.32955
436,15.854,1.7821,0,2.0208e-05,201.94,7.4135e-06,8.4558,6.1709e-06,-0.88038,-2.0063e-05,-197.99,0.31242
437,15.856,1.1892,0.05,4.135e-07,4.1321,3.1752e-07,2.3857,6.6857e-14,2.0088e-06,-3.1752e-07,-2.3857,0.31244
438,15.862,0.59462,0,2.02e-05,201.86,7.4152e-06,8.9199,6.2036e-06,-0.18292,-2.0036e-05,-197.33,0.3125
439,17.599,1.1948,0,1.2925e-05,129.16,4.9947e-06,8.4424,3.7854e-06,-0.64421,-1.2769e-05,-125.02,0.36433
440,17.013,1.7887,0,1.5091e-05,150.8,5.7664e-06,8.9358,4.4487e-06,-0.96484,-1.4931e-05,-146.57,0.3468
441,17.013,1.1918,0.05,3.554e-07,3.5515,2.729e-07,2.0505,1.253e-13,2.1142e-06,-2.729e-07,-2.0505,0.34678
442,17.021,0.59591,0,1.5065e-05,150.55,5.7533e-06,9.3161,4.4844e-06,-0.21849,-1.4888e-05,-145.77,0.34696
443,18.767,1.197,0,8.9611e-06,89.549,3.6941e-06,8.5856,2.4672e-06,-0.63325,-8.7901e-06,-85.216,0.39958
444,18.182,1.797,0,1.0745e-05,107.38,4.3502e-06,9.2116,2.9996e-06,-0.93663,-1.0569e-05,-102.88,0.38187
445,18.184,1.1977,0.05,2.9311e-07,2.9291,2.2508e-07,1.6911,1.1203e-13,2.6858e-06,-2.2507e-07,-1.6911,0.38195
446,18.188,0.59885,0,1.0707e-05,106.99,4.3093e-06,9.3165,3.0477e-06,-0.16289,-1.0519e-05,-102.1,0.38203
447,19.932,1.196,0,5.7944e-06,57.904,2.6429e-06,8.5796,1.4147e-06,-0.64868,-5.6041e-06,-53.385,0.43492
448,19.35,1.7963,0,7.1917e-06,71.867,3.1827e-06,9.3413,1.8124e-06,-0.95479,-6.9934e-06,-67.119,0.41721
449,19.351,1.1963,0.05,2.3737e-07,2.3721,1.8227e-07,1.3695,1.6753e-13,2.5645e-06,-1.8227e-07,-1.3695,0.41725
450,19.352,0.59813,0,7.1424e-06,71.375,3.1265e-06,9.2822,1.8655e-06,-0.19292,-6.9404e-06,-66.357,0.41729
451,21.093,1.1957,0,3.4186e-06,34.162,1.8307e-06,8.3853,6.2919e-07,-0.64202,-3.1961e-06,-29.384,0.47033
452,20.511,1.7972,0,4.4464e-06,44.433,2.2689e-06,9.3831,8.9198e-07,-0.96238,-4.2118e-06,-39.31,0.45253
453,20.512,1.1957,0.05,1.7973e-07,1.796,1.3801e-07,1.0369,1.867e-13,2.7582e-06,-1.3801e-07,-1.0369,0.45261
454,20.513,0.59785,0,4.3591e-06,43.561,2.182e-06,9.0852,9.4859e-07,-0.18248,-4.133e-06,-38.364,0.45267
455,22.255,1.1974,0,1.8344e-06,18.332,1.2495e-06,7.9474,1.0495e-07,-0.65263,-1.5521e-06,-13.103,0.50582
456,21.673,1.7987,0,2.5132e-06,25.115,1.599e-06,9.2971,2.3789e-07,-0.92961,-2.2095e-06,-19.318,0.48799
457,21.674,1.1958,0.05,1.2251e-07,1.2243,9.4073e-08,0.70683,1.7178e-13,2.9443e-06,-9.4073e-08,-0.70682,0.48806
458,21.675,0.59789,0,2.3513e-06,23.497,1.4564e-06,8.5141,2.9582e-07,-0.20606,-2.0853e-06,-18.097,0.48814
459,22.835,1.8011,0,1.4062e-06,14.052,1.1696e-06,9.0559,-1.6494e-07,-0.97152,-9.6797e-07,-7.0052,0.5235
460,22.836,1.1991,0.05,7.9975e-08,0.7992,6.1411e-08,0.46142,2.0575e-13,3.1756e-06,-6.1411e-08,-0.46142,0.52357
461,22.837,0.59956,0,1.123e-06,11.222,9.292e-07,7.4119,-8.4138e-08,-0.20189,-7.8606e-07,-5.4758,0.52367
462,23.418,1.1996,0,1.0328e-06,10.321,8.8782e-07,7.1544,-1.5228e-07,-0.66048,-6.6923e-07,-4.5446,0.54138
463,22.833,3.0028,0,1.583e-06,15.819,1.347e-06,10.614,-2.3746e-07,-1.2912,-1.042e-06,-7.3359,0.52328
464,22.254,2.4023,0,2.1007e-06,20.992,1.5605e-06,10.717,-3.3181e-08,-1.2574,-1.6655e-06,-13.522,0.50566
465,22.835,2.403,0.05,7.6444e-08,0.76392,5.87e-08,0.44105,1.8477e-13,2.976e-06,-5.87e-08,-0.44105,0.52342
466,23.418,2.4015,0,1.4129e-06,14.119,1.258e-06,10.386,-3.0162e-07,-1.3318,-8.2825e-07,-5.2887,0.54123
467,22.833,4.2012,0,1.4073e-06,14.063,1.169e-06,9.0362,-1.6353e-07,-0.97606,-9.7084e-07,-7.0419,0.52308
468,22.249,3.6011,0,2.1044e-06,21.03,1.5599e-06,10.68,-3.0786e-08,-1.2721,-1.6718e-06,-13.602,0.50532
469,22.831,3.6025,0.05,7.6832e-08,0.76779,5.8997e-08,0.44328,2.0116e-13,3.0136e-06,-5.8997e-08,-0.44328,0.52312
470,23.415,3.6013,0,1.4129e-06,14.12,1.257e-06,10.367,-3.0016e-07,-1.3332,-8.3038e-07,-5.317,0.541
471,22.252,4.8016,0,1.8383e-06,18.37,1.2499e-06,7.9306,1.0706e-07,-0.6561,-1.5572e-06,-13.161,0.50521
472,22.835,4.7999,0.05,8.0261e-08,0.80206,6.1631e-08,0.46307,2.151e-13,3.2702e-06,-6.1631e-08,-0.46307,0.52304
473,23.417,4.8,0,1.0332e-06,10.325,8.8772e-07,7.1492,-1.5172e-07,-0.6607,-6.7027e-07,-4.5569,0.54085
474,22.837,5.4,0,1.1228e-06,11.22,9.2858e-07,7.4041,-8.3582e-08,-0.20086,-7.8642e-07,-5.4818,0.52297
475,21.087,4.7994,0,3.4289e-06,34.266,1.833e-06,8.3691,6.3345e-07,-0.64381,-3.2074e-06,-29.502,0.46963
476,21.668,4.2014,0,2.5202e-06,25.185,1.5997e-06,9.2655,2.4096e-07,-0.9434,-2.2183e-06,-19.421,0.48747
477,21.669,4.8033,0.05,1.2357e-07,1.2349,9.4888e-08,0.71296,1.8881e-13,3.2112e-06,-9.4888e-08,-0.71295,0.48738
478,21.673,5.4016,0,2.357e-06,23.554,1.4592e-06,8.5255,2.9713e-07,-0.20587,-2.0907e-06,-18.147,0.48738
479,19.925,4.7935,0,5.808e-06,58.04,2.6462e-06,8.5744,1.4209e-06,-0.63209,-5.6178e-06,-53.518,0.43421
480,20.505,4.1949,0,4.4583e-06,44.552,2.2706e-06,9.354,8.9766e-07,-0.96168,-4.225e-06,-39.451,0.452
481,20.506,4.7956,0.05,1.802e-07,1.8008,1.3837e-07,1.0397,1.5928e-13,2.6516e-06,-1.3837e-07,-1.0397,0.45189
482,20.51,5.3978,0,4.367e-06,43.64,2.1888e-06,9.1439,9.4907e-07,-0.17099,-4.1391e-06,-38.402,0.45188
483,18.763,4.7908,0,8.9724e-06,89.662,3.6988e-06,8.5915,2.4698e-06,-0.64308,-8.8015e-06,-85.331,0.39893
484,19.344,4.191,0,7.2051e-06,72.001,3.1864e-06,9.3314,1.8174e-06,-0.95521,-7.0072e-06,-67.26,0.41668
485,19.344,4.7914,0.05,2.3804e-07,2.3788,1.8279e-07,1.3734,1.7457e-13,2.5272e-06,-1.8279e-07,-1.3734,0.41656
486,19.349,5.3957,0,7.1478e-06,71.429,3.1337e-06,9.3616,1.865e-06,-0.17061,-6.9436e-06,-66.355,0.41652
487,17.601,4.7902,0,1.2921e-05,129.12,4.9929e-06,8.4443,3.7847e-06,-0.63351,-1.2764e-05,-124.97,0.36388
488,18.181,4.1899,0,1.0748e-05,107.4,4.3518e-06,9.2077,2.9985e-06,-0.96057,-1.0571e-05,-102.92,0.38149
489,18.182,4.7902,0.05,2.9782e-07,2.9761,2.2869e-07,1.7183,2.3426e-13,2.3908e-06,-2.2869e-07,-1.7183,0.38135
490,18.186,5.3951,0,1.071e-05,107.03,4.316e-06,9.3722,3.0445e-06,-0.18111,-1.0522e-05,-102.12,0.3813
491,16.438,4.787,0,1.7656e-05,176.44,6.5348e-06,8.1535,5.3627e-06,-0.65303,-1.7512e-05,-172.53,0.32914
492,17.017,4.1867,0,1.5082e-05,150.72,5.7636e-06,8.9402,4.4458e-06,-0.96153,-1.4922e-05,-146.48,0.34658
493,17.02,4.7902,0.05,3.556e-07,3.5535,2.7305e-07,2.0516,1.1252e-13,2.0929e-06,-2.7305e-07,-2.0516,0.34648
494,17.025,5.3951,0,1.5059e-05,150.48,5.7383e-06,9.1909,4.4931e-06,-0.16483,-1.4883e-05,-145.75,0.34638
495,15.274,4.7709,0,2.3174e-05,231.58,8.3163e-06,7.6761,7.2105e-06,-0.63205,-2.3043e-05,-227.94,0.29485
496,15.854,4.181,0,2.02e-05,201.86,7.4148e-06,8.4608,6.162e-06,-0.95216,-2.0056e-05,-197.94,0.31209
497,15.856,4.7838,0.05,4.145e-07,4.1421,3.1828e-07,2.3914,5.3047e-14,1.8963e-06,-3.1828e-07,-2.3914,0.31191
498,15.861,5.3919,0,2.0204e-05,201.9,7.4291e-06,9.0315,6.1933e-06,-0.25411,-2.0038e-05,-197.35,0.3118
499,14.11,4.7471,0,2.9461e-05,294.4,1.0319e-05,6.7841,9.3292e-06,-0.65083,-2.9349e-05,-291.26,0.26114
500,14.69,4.1597,0,2.61e-05,260.82,9.2945e-06,7.6936,8.1574e-06,-0.85023,-2.5973e-05,-257.29,0.27809
501,14.693,4.7581,0.05,4.7627e-07,4.7594,3.6571e-07,2.7478,-7.6657e-15,1.5645e-06,-3.6571e-07,-2.7478,0.27794
502,14.699,5.379,0,2.6116e-05,260.98,9.3404e-06,8.523,8.1698e-06,-0.27307,-2.5965e-05,-256.75,0.27779
503,12.945,4.739,0,3.6511e-05,364.86,1.2506e-05,5.1051,1.1741e-05,-0.64482,-3.6432e-05,-362.59,0.22823
504,13.523,4.1447,0,3.2749e-05,327.26,1.1381e-05,6.3189,1.041e-05,-0.97671,-3.2652e-05,-324.53,0.24474
505,13.526,4.7361,0.05,5.3764e-07,5.3727,4.1284e-07,3.1019,3.4002e-13,1.6092e-06,-4.1284e-07,-3.1019,0.24453
506,13.535,5.368,0,3.2801e-05,327.78,1.1464e-05,7.4865,1.0423e-05,-0.3399,-3.2672e-05,-324.14,0.2444
507,11.776,4.7408,0,4.4317e-05,442.87,1.4882e-05,2.6449,1.4432e-05,-0.7351,-4.4284e-05,-441.9,0.19616
508,12.36,4.1403,0,4.0154e-05,401.27,1.3615e-05,3.9146,1.2993e-05,-0.75258,-4.0099e-05,-399.67,0.21237
509,12.364,4.7419,0.05,5.8075e-07,5.8035,4.4594e-07,3.3507,-2.6928e-15,1.4273e-06,-4.4595e-07,-3.3507,0.21216
510,12.373,5.371,0,4.0277e-05,402.49,1.3783e-05,5.6791,1.2977e-05,-0.37566,-4.0183e-05,-399.8,0.21196
511,10.605,4.7327,0,5.283e-05,527.93,1.7443e-05,-1.095,1.7318e-05,-2.034,-5.2883e-05,-529.5,0.16528
512,11.182,4.1422,0,4.8289e-05,482.56,1.5999e-05,0.27735,1.5853e-05,-0.81645,-4.8298e-05,-482.83,0.18069
513,11.187,4.7398,0.05,6.4328e-07,6.4284,4.9396e-07,3.7114,-1.0478e-22,9.5659e-07,-4.9396e-07,-3.7114,0.18046
514,11.204,5.3699,0,4.8532e-05,484.99,1.6347e-05,3.4468,1.577e-05,-0.89115,-4.8487e-05,-483.69,0.18039
515,9.4138,4.7393,0,6.2288e-05,622.45,2.101e-05,-1.7673,1.9619e-05,-12.22,-6.2519e-05,-629.38,0.1353
516,10.014,4.129,0,5.7078e-05,570.38,1.9095e-05,-0.9223,1.8311e-05,-6.8175,-5.7207e-05,-574.23,0.1506
517,10.023,4.7255,0.05,6.6483e-07,6.6437,5.1051e-07,3.8357,1.2475e-15,4.767e-07,-5.105e-07,-3.8357,0.15043
518,10.041,5.3628,0,5.7551e-05,575.11,1.9033e-05,-1.3213,1.8801e-05,-3.0667,-5.7625e-05,-577.3,0.15031
519,8.1466,4.7347,0,7.3199e-05,731.48,2.5605e-05,0.30952,2.17e-05,-29.03,-7.3643e-05,-745.4,0.10538
520,8.8188,4.137,0,6.6782e-05,667.36,2.2881e-05,-1.7309,2.0441e-05,-20.071,-6.7134e-05,-678.07,0.12141
521,8.8041,4.7531,0.05,7.1449e-07,7.14,5.4864e-07,4.1223,-3.5827e-17,3.6443e-07,-5.4864e-07,-4.1223,0.12061
522,8.85,5.3765,0,6.7594e-05,675.47,2.2834e-05,-2.3412,2.1193e-05,-14.672,-6.7875e-05,-683.89,0.1211
523,6.8033,4.6868,0,8.482e-05,847.62,3.016e-05,-4.1868,2.386e-05,-51.519,-8.5669e-05,-874.48,0.076288
524,7.5638,4.0947,0,7.7583e-05,775.29,2.7709e-05,1.8307,2.2141e-05,-40.005,-7.8147e-05,-793.53,0.092866
525,7.4891,4.7163,0.05,7.8922e-07,7.8868,6.0603e-07,4.5534,4.6549e-13,5.4509e-07,-6.0603e-07,-4.5534,0.090766
526,7.6116,5.3582,0,7.8907e-05,788.52,2.7574e-05,1.5808,2.3557e-05,-28.598,-7.9323e-05,-801.6,0.092786
527,5.6038,4.9134,0,8.9556e-05,894.94,3.3337e-05,5.1065,2.3431e-05,-69.329,-9.0416e-05,-924.73,0.052665
528,6.2708,4.0517,0,8.7916e-05,878.55,3.2279e-05,-4.6426,2.2889e-05,-75.197,-8.9061e-05,-916.34,0.066029
529,5.3919,4.292,0,9.9363e-05,992.95,3.7073e-05,-28.476,2.2563e-05,-137.49,-0.00010174,-1071.4,0.049316
530,6.1176,4.6572,0.05,8.7713e-07,8.7652,6.7352e-07,5.0606,-4.9105e-14,-3.2038e-07,-6.7352e-07,-5.0606,0.062599
531,6.3449,5.3286,0,9.0401e-05,903.38,3.1111e-05,2.366,2.787e-05,-21.981,-9.071e-05,-912.95,0.06637
532,5.09,5.1696,0.05,3.0785e-06,30.764,2.3639e-06,17.762,-1.2158e-14,1.9661e-06,-2.3639e-06,-17.762,0.043167
533,5.2502,5.5848,0,8.8257e-05,881.96,3.1143e-05,10.195,2.6609e-05,-23.873,-8.8441e-05,-888.31,0.045491
534,6.2562,2.8155,0,8.6119e-05,860.6,3.2803e-05,-4.8191,2.0239e-05,-99.216,-8.75e-05,-908.73,0.066111
535,7.0313,3.4597,0,8.0669e-05,806.14,2.9839e-05,1.4576,2.115e-05,-63.827,-8.1532e-05,-835.34,0.081757
536,6.424,3.4462,0.05,7.961e-07,7.9555,6.1131e-07,4.5931,-1.2026e-13,5.209e-06,-6.1131e-07,-4.5931,0.069317
537,6.8107,2.2319,0,8.2097e-05,820.41,3.0748e-05,-2.393,2.0463e-05,-79.673,-8.322e-05,-858.7,0.077248
538,6.3078,1.6189,0,8.6658e-05,865.98,3.1612e-05,-6.315,2.2764e-05,-72.789,-8.7812e-05,-903.62,0.066892
539,6.0883,2.1847,0.05,7.2922e-07,7.2871,5.5995e-07,4.2072,4.9448e-13,8.3309e-06,-5.5995e-07,-4.2072,0.06277
540,8.1662,2.3079,0,7.1708e-05,716.58,2.5574e-05,2.2798,2.0584e-05,-35.216,-7.2195e-05,-732.32,0.10669
541,7.5858,2.8761,0,7.6676e-05,766.24,2.7769e-05,3.7705,2.1388e-05,-44.176,-7.7251e-05,-785.31,0.09376
542,7.5331,2.2791,0.05,6.9785e-07,6.9737,5.3586e-07,4.0263,-1.1366e-22,3.4498e-07,-5.3586e-07,-4.0263,0.092575
543,9.3982,2.3501,0,6.1583e-05,615.41,2.1016e-05,-0.82852,1.9066e-05,-15.477,-6.1848e-05,-623.43,0.13576
544,8.8163,2.9289,0,6.6199e-05,661.53,2.2785e-05,-1.7396,2.0081e-05,-22.057,-6.658e-05,-673.2,0.12178
545,8.7993,2.3368,0.05,4.3144e-07,4.3114,3.3129e-07,2.4892,-1.3794e-15,2.3615e-07,-3.3129e-07,-2.4892,0.12137
546,10.586,2.3655,0,5.263e-05,525.93,1.7552e-05,-0.26107,1.7032e-05,-4.1703,-5.2704e-05,-528.14,0.16556
547,10.001,2.9479,0,5.6962e-05,569.23,1.9196e-05,0.018494,1.8123e-05,-8.0415,-5.7094e-05,-573.2,0.15066
548,9.9972,2.3633,0.05,7.4689e-07,7.4637,5.7352e-07,4.3092,3.5801e-15,9.7119e-07,-5.7352e-07,-4.3092,0.15058
549,11.762,2.3652,0,4.4207e-05,441.77,1.479e-05,1.8131,1.4414e-05,-1.0135,-4.4193e-05,-441.36,0.19653
550,11.176,2.9561,0,4.8215e-05,481.82,1.5899e-05,-0.64261,1.5871e-05,-0.85343,-4.824e-05,-482.56,0.18091
551,11.175,2.3676,0.05,6.2493e-07,6.245,4.7987e-07,3.6056,-1.0179e-22,9.6332e-07,-4.7987e-07,-3.6056,0.1809
552,12.937,2.3667,0,3.6467e-05,364.42,1.2545e-05,5.5293,1.1674e-05,-1.0125,-3.6386e-05,-362.11,0.22867
553,12.353,2.9508,0,4.0125e-05,400.97,1.3623e-05,4.0092,1.2961e-05,-0.96173,-4.0071e-05,-399.42,0.21251
554,12.349,2.3629,0.05,5.8486e-07,5.8445,4.491e-07,3.3743,-9.5261e-23,1.191e-06,-4.491e-07,-3.3743,0.21245
555,14.106,2.3721,0,2.9444e-05,294.24,1.0414e-05,7.7001,9.2349e-06,-1.161,-2.9323e-05,-290.87,0.26165
556,13.522,2.9619,0,3.2738e-05,327.16,1.1414e-05,6.6664,1.0377e-05,-1.1245,-3.2637e-05,-324.32,0.24504
557,13.524,2.3705,0.05,5.3141e-07,5.3105,4.0806e-07,3.066,1.1417e-13,1.544e-06,-4.0806e-07,-3.066,0.24512
558,15.269,2.3744,0,2.319e-05,231.74,8.4595e-06,8.9849,7.0979e-06,-1.2452,-2.3041e-05,-227.7,0.29528
559,14.686,2.9675,0,2.6098e-05,260.8,9.3599e-06,8.2824,8.0971e-06,-1.206,-2.5965e-05,-257.13,0.2783
560,14.687,2.3737,0.05,4.7514e-07,4.7481,3.6485e-07,2.7413,1.3856e-15,1.3007e-06,-3.6485e-07,-2.7413,0.27836
561,16.432,2.3803,0,1.7702e-05,176.9,6.7056e-06,9.7101,5.2494e-06,-1.2311,-1.7532e-05,-172.4,0.32951
562,15.852,2.9766,0,2.0221e-05,202.07,7.4941e-06,9.1926,6.1103e-06,-1.2047,-2.0065e-05,-197.88,0.31231
563,15.852,2.375,0.05,4.1268e-07,4.1239,3.1689e-07,2.381,1.1334e-13,1.8597e-06,-3.1689e-07,-2.381,0.31234
564,17.596,2.391,0,1.2981e-05,129.72,5.1832e-06,10.166,3.6621e-06,-1.2631,-1.2792e-05,-124.89,0.36423
565,17.014,2.9843,0,1.5111e-05,151,5.8576e-06,9.784,4.3845e-06,-1.2849,-1.4936e-05,-146.45,0.34673
566,17.013,2.3855,0.05,3.5747e-07,3.5723,2.7449e-07,2.0624,2.2716e-13,1.9073e-06,-2.7449e-07,-2.0624,0.34678
567,18.764,2.3964,0,9.0446e-06,90.383,3.8995e-06,10.423,2.344e-06,-1.2638,-8.8319e-06,-85.235,0.39942
568,18.18,2.993,0,1.0785e-05,107.77,4.4516e-06,10.111,2.9374e-06,-1.2657,-1.0589e-05,-102.9,0.3817
569,18.179,2.3964,0.05,3.0013e-07,2.9992,2.3046e-07,1.7316,5.7395e-14,2.0194e-06,-2.3046e-07,-1.7316,0.38176
570,19.929,2.3975,0,5.9074e-06,59.033,2.8672e-06,10.584,1.289e-06,-1.2743,-5.6589e-06,-53.478,0.43476
571,19.346,2.9934,0,7.2487e-06,72.437,3.2925e-06,10.298,1.7529e-06,-1.2696,-7.0255e-06,-67.227,0.41697
572,19.349,2.3963,0.05,2.3969e-07,2.3953,1.8406e-07,1.3829,1.1395e-13,2.0827e-06,-1.8406e-07,-1.3829,0.41713
573,21.091,2.4001,0,3.5911e-06,35.886,2.0907e-06,10.697,4.9987e-07,-1.256,-3.2778e-06,-29.64,0.47016
574,20.507,2.9965,0,4.5271e-06,45.239,2.3928e-06,10.452,8.3039e-07,-1.2878,-4.2554e-06,-39.5,0.45227
575,20.51,2.3986,0.05,1.8125e-07,1.8112,1.3918e-07,1.0457,1.3932e-13,2.4233e-06,-1.3918e-07,-1.0457,0.45242
576,21.67,3.0006,0,2.6348e-06,26.329,1.7457e-06,10.575,1.7489e-07,-1.2278,-2.2691e-06,-19.591,0.48773
577,21.673,2.4016,0.05,1.2233e-07,1.2224,9.3932e-08,0.70577,1.5695e-13,2.3958e-06,-9.3932e-08,-0.70577,0.4879
578,21.085,3.597,0,3.599e-06,35.965,2.0902e-06,10.648,5.0441e-07,-1.267,-3.2881e-06,-29.762,0.46981
579,21.666,3.5996,0.05,1.233e-07,1.2321,9.4678e-08,0.71138,1.7646e-13,2.6339e-06,-9.4678e-08,-0.71138,0.48754
580,19.924,3.5924,0,5.9192e-06,59.151,2.8692e-06,10.55,1.2934e-06,-1.2902,-5.6721e-06,-53.626,0.43442
581,20.504,3.5943,0.05,1.8096e-07,1.8083,1.3895e-07,1.044,1.448e-13,2.6813e-06,-1.3895e-07,-1.044,0.45209
582,18.761,3.5901,0,9.0499e-06,90.436,3.9007e-06,10.408,2.3454e-06,-1.2781,-8.8377e-06,-85.304,0.39916
583,19.343,3.5906,0.05,2.4167e-07,2.415,1.8557e-07,1.3943,1.4194e-13,2.0705e-06,-1.8557e-07,-1.3943,0.41679
584,17.597,3.5863,0,1.298e-05,129.71,5.185e-06,10.173,3.6589e-06,-1.294,-1.2791e-05,-124.89,0.36408
585,18.18,3.5896,0.05,3.0168e-07,3.0147,2.3165e-07,1.7405,5.7049e-14,2.0068e-06,-2.3165e-07,-1.7405,0.38159
586,16.434,3.5807,0,1.7696e-05,176.84,6.7059e-06,9.7152,5.2444e-06,-1.266,-1.7527e-05,-172.36,0.32937
587,17.014,3.5831,0.05,3.5428e-07,3.5404,2.7204e-07,2.044,7.1067e-16,1.9229e-06,-2.7204e-07,-2.044,0.34664
588,15.269,3.5697,0,2.3195e-05,231.79,8.4533e-06,8.9316,7.1082e-06,-1.1752,-2.3046e-05,-227.74,0.29511
589,15.853,3.5782,0.05,4.0705e-07,4.0676,3.1256e-07,2.3485,5.7342e-14,1.4896e-06,-3.1256e-07,-2.3485,0.31221
590,14.103,3.5573,0,2.9453e-05,294.33,1.0415e-05,7.6644,9.238e-06,-1.1801,-2.9333e-05,-290.99,0.26142
591,14.686,3.5612,0.05,4.7448e-07,4.7416,3.6434e-07,2.7375,1.1533e-13,1.783e-06,-3.6434e-07,-2.7375,0.27816
592,12.938,3.546,0,3.6452e-05,364.26,1.2543e-05,5.5284,1.1663e-05,-1.086,-3.6371e-05,-362,0.22855
593,13.52,3.5533,0.05,5.4213e-07,5.4176,4.1629e-07,3.1278,-4.3121e-22,1.3158e-06,-4.1629e-07,-3.1278,0.24486
594,11.767,3.5416,0,4.4179e-05,441.48,1.4777e-05,1.8848,1.4417e-05,-0.81888,-4.416e-05,-440.94,0.19649
595,12.356,3.5386,0.05,5.8669e-07,5.8628,4.505e-07,3.3849,9.203e-16,9.5174e-07,-4.505e-07,-3.3849,0.21247
596,10.591,3.5386,0,5.258e-05,525.44,1.7516e-05,-0.56559,1.7021e-05,-4.2893,-5.2662e-05,-527.86,0.16553
597,11.177,3.5446,0.05,6.355e-07,6.3507,4.8799e-07,3.6666,1.7275e-16,9.5331e-07,-4.8799e-07,-3.6666,0.1808
598,9.4189,3.5268,0,6.1597e-05,615.54,2.0967e-05,-0.88532,1.9157e-05,-14.481,-6.1847e-05,-623.11,0.13612
599,10.004,3.5325,0.05,7.0027e-07,6.9979,5.3772e-07,4.0402,-2.2733e-13,1.192e-06,-5.3772e-07,-4.0402,0.15062
600,8.236,3.497,0,7.116e-05,711.11,2.4979e-05,-0.25518,2.0891e-05,-30.975,-7.1642e-05,-726.23,0.10817
601,8.8334,3.521,0.05,6.5701e-07,6.5655,5.045e-07,3.7906,-1.0701e-22,6.5755e-07,-5.045e-07,-3.7906,0.12204
602,7.6386,3.4731,0.05,2.9877e-07,2.9857,2.2942e-07,1.7238,3.3365e-13,8.9307e-08,-2.2942e-07,-1.7238,0.094785
603,4.6661,3.9267,0.05,2.7267e-06,27.248,2.0938e-06,15.732,1.5308e-13,1.1801e-06,-2.0938e-06,-15.732,0.036951
604,3.8764,3.9634,0,0.00024417,2440,8.1615e-05,-399.59,4.1023e-05,-704.58,-0.00026152,-2977.8,0.02467
605,1.8581,1.6127,0.05,4.3986e-06,43.955,3.3775e-06,25.378,3.7728e-13,1.5067e-06,-3.3775e-06,-25.378,0.0047984
606,2.3891,1.3064,0,0.0001534,1532.9,5.6308e-05,-101.56,3.0955e-05,-292.05,-0.0001592,-1720.8,0.0076779
607,1.9966,3.4328,0.05,3.9771e-06,39.744,3.0539e-06,22.946,1.6297e-12,1.2261e-05,-3.0539e-06,-22.946,0.0058536
608,2.4583,2.7164,0,0.00026094,2607.6,0.00010578,-125.7,3.8116e-05,-634.12,-0.00027012,-2950.1,0.0089854
609,3.4617,2.9505,0,0.00020456,2044.1,8.8275e-05,105.8,3.998e-05,-257.07,-0.0002047,-2095.5,0.019344
610,3.1626,2.9635,0,0.00022954,2293.8,9.3897e-05,133.75,5.6196e-05,-149.52,-0.00022849,-2288.6,0.015751
611,3.2964,2.8716,0.05,9.0119e-06,90.057,6.92e-06,51.994,-4.322e-14,1.3949e-08,-6.92e-06,-51.994,0.01727
612,3.1915,2.4358,0,0.00029364,2934.4,0.00011387,-54.399,6.1558e-05,-447.42,-0.0003002,-3165.5,0.015824
613,3.2658,3.5789,0,0.0001985,1983.6,9.0923e-05,369.24,5.5167e-05,100.58,-0.00018914,-1735,0.016787
614,3.4516,3.2408,0,0.00019918,1990.5,8.1601e-05,90.953,4.608e-05,-175.94,-0.00019928,-2019.5,0.019227
615,3.1525,3.2538,0,0.00022631,2261.5,8.3525e-05,91.126,6.7891e-05,-26.341,-0.00022498,-2226.8,0.015623
616,3.2761,3.4521,0.05,3.3464e-05,334.41,2.5696e-05,193.07,1.5997e-13,1.0064e-06,-2.5696e-05,-193.07,0.016975
617,3.0981,3.7261,0,0.00040256,4022.9,0.00016904,246.68,9.1522e-05,-335.77,-0.0004009,-4035.7,0.014669
618,3.2555,3.7056,0.05,2.8685e-05,286.65,2.2026e-05,165.5,-4.6721e-21,1.5773e-05,-2.2026e-05,-165.5,0.016531
619,3.1711,3.8528,0,0.00029105,2908.5,0.00011668,-19.188,5.7196e-05,-466.11,-0.00029672,-3125.3,0.015358
620,4.0763,1.5085,0,0.00010364,1035.7,4.0055e-05,58.354,2.9459e-05,-21.261,-0.00010278,-1014.9,0.027478
621,4.1458,1.2253,0.05,4.4369e-06,44.338,3.407e-06,25.599,1.0952e-13,-5.4299e-15,-3.407e-06,-25.599,0.028328
622,3.6162,1.1126,0,9.8173e-05,981.05,3.6508e-05,15.558,2.6699e-05,-58.145,-9.8689e-05,-1000.3,0.020155
623,3.9099,2.0872,0,0.00012913,1290.5,5.1973e-05,-24.62,2.3382e-05,-239.44,-0.00013228,-1409,0.02527
624,4.4125,1.9583,0,0.00011028,1102.1,4.2987e-05,14.276,2.6088e-05,-112.7,-0.00011141,-1145.8,0.032952
625,4.0068,1.7918,0.05,7.2489e-06,72.439,5.5662e-06,41.823,1.5054e-13,9.4715e-07,-5.5662e-06,-41.823,0.02657
626,3.5467,1.6459,0,0.00015315,1530.4,6.1072e-05,65.677,3.8125e-05,-106.74,-0.00015311,-1543.6,0.019759
627,3.72,2.706,0,0.00017134,1712.2,7.0745e-05,-2.6399,3.0555e-05,-304.61,-0.00017455,-1845.7,0.022736
628,3.8131,2.3826,0.05,3.9545e-06,39.518,3.0366e-06,22.816,-1.9692e-16,1.4982e-05,-3.0366e-06,-22.816,0.023954
629,3.4499,2.1913,0,0.00026228,2621,9.8041e-05,-150.03,5.1928e-05,-496.5,-0.00027155,-2927,0.01887
630,3.627,3.0295,0.05,1.7143e-05,171.31,1.3164e-05,98.907,-2.7922e-21,4.8085e-07,-1.3164e-05,-98.907,0.021506
631,4.8181,2.1247,0.05,1.7836e-06,17.824,1.3696e-06,10.29,-4.2516e-13,-3.1061e-07,-1.3696e-06,-10.29,0.03966
632,6.5273,1.0531,0.05,8.5544e-07,8.5485,6.5687e-07,4.9355,-1.9119e-13,4.2228e-07,-6.5687e-07,-4.9355,0.070927
633,6.5498,0.52656,0,8.6927e-05,868.67,2.9694e-05,-1.7487,2.6807e-05,-23.446,-8.7335e-05,-881.06,0.070929
634,2.9155,3.4581,0,0.00031103,3108.1,0.00013389,495.85,9.4292e-05,198.29,-0.00029815,-2750.3,0.012977
635,2.8023,3.8606,0.05,2.4246e-05,242.29,1.8618e-05,139.89,-1.0487e-20,1.0967e-05,-1.8618e-05,-139.89,0.011484
636,2.8611,3.9303,0,0.00049886,4985.2,0.00022172,668.77,0.00012597,-50.658,-0.00048443,-4637,0.011901
637,3.0288,3.0555,0.05,1.8269e-05,182.56,1.4028e-05,105.4,-3.0628e-21,1.7072e-06,-1.4028e-05,-105.4,0.014284
638,2.9744,2.5278,0,0.00031,3097.8,0.00012217,-63.341,6.0692e-05,-525.25,-0.00031742,-3366.2,0.01349
639,2.9155,3.4581,0.1,0.00031103,3108.1,0.00029815,2750.3,-9.4292e-05,-198.29,-0.00013389,-495.85,0.012977
640,3.1525,3.2538,0.1,0.00022631,2261.5,0.00022498,2226.8,-6.7891e-05,26.341,-8.3525e-05,-91.126,0.015623
641,3.1626,2.9635,0.1,0.00022954,2293.8,0.00022849,2288.6,-5.6196e-05,149.52,-9.3897e-05,-133.75,0.015751
642,2.9744,2.5278,0.1,0.00031,3097.8,0.00031742,3366.2,-6.0692e-05,525.25,-0.00012217,63.341,0.01349
643,2.6812,3.8871,0.1,0.00031055,3103.4,0.00029165,2643.1,-7.2594e-05,-93.698,-0.00015711,-728.72,0.010416
644,2.8611,3.9303,0.1,0.00049886,4985.2,0.00048443,4637,-0.00012597,50.658,-0.00022172,-668.77,0.011901
645,6.3078,1.6189,0.1,8.6658e-05,865.98,8.7812e-05,903.62,-2.2764e-05,72.789,-3.1612e-05,6.315,0.066892
646,7.0948,1.0947,0.1,8.1617e-05,815.61,8.2079e-05,829.98,-2.4438e-05,29.651,-2.8397e-05,-0.10068,0.082676
647,5.9753,0.93685,0.1,8.9967e-05,899.05,8.9803e-05,894.74,-2.8153e-05,8.4652,-3.1484e-05,-16.569,0.059991
648,6.5498,0.52656,0.1,8.6927e-05,868.67,8.7335e-05,881.06,-2.6807e-05,23.446,-2.9694e-05,1.7487,0.070929
649,4.4125,1.9583,0.1,0.00011028,1102.1,0.00011141,1145.8,-2.6088e-05,112.7,-4.2987e-05,-14.276,0.032952
650,4.996,1.8031,0.1,0.00010303,1029.6,0.00010347,1060.6,-2.1691e-05,120.19,-4.2946e-05,-39.514,0.042619
651,5.1194,2.3198,0.1,0.00010151,1014.4,0.00010259,1075.4,-1.7001e-05,176.89,-4.3817e-05,-24.598,0.044894
652,4.6589,2.4311,0.1,0.00011261,1125.3,0.0001139,1200.4,-1.7479e-05,213.27,-4.9171e-05,-24.852,0.037062
653,3.72,2.706,0.1,0.00017134,1712.2,0.00017455,1845.7,-3.0555e-05,304.61,-7.0745e-05,2.6399,0.022736
654,3.4516,3.2408,0.1,0.00019918,1990.5,0.00019928,2019.5,-4.608e-05,175.94,-8.1601e-05,-90.953,0.019227
655,3.4617,2.9505,0.1,0.00020456,2044.1,0.0002047,2095.5,-3.998e-05,257.07,-8.8275e-05,-105.8,0.019344
656,3.8772,3.1792,0.1,0.00017507,1749.5,0.00017747,1848.9,-3.5891e-05,245.78,-7.0898e-05,-17.242,0.024989
657,3.9099,2.0872,0.1,0.00012913,1290.5,0.00013228,1409,-2.3382e-05,239.44,-5.1973e-05,24.62,0.02527
658,4.1564,2.56,0.1,0.00013108,1309.9,0.00013409,1458.5,-1.4363e-05,343.1,-5.7883e-05,16.101,0.029081
659,3.4499,2.1913,0.1,0.00026228,2621,0.00027155,2927,-5.1928e-05,496.5,-9.8041e-05,150.03,0.01887
660,4.0763,1.5085,0.1,0.00010364,1035.7,0.00010278,1014.9,-2.9459e-05,21.261,-4.0055e-05,-58.354,0.027478
661,3.5467,1.6459,0.1,0.00015315,1530.4,0.00015311,1543.6,-3.8125e-05,106.74,-6.1072e-05,-65.677,0.019759
662,4.6598,1.3534,0.1,9.4641e-05,945.75,9.3821e-05,922,-3.0643e-05,-13.178,-3.3413e-05,-33.989,0.036707
663,4.1969,0.92158,0.1,8.5807e-05,857.48,8.3159e-05,790.46,-2.2722e-05,-5.0802,-3.7724e-05,-117.8,0.028863
664,3.6162,1.1126,0.1,9.8173e-05,981.05,9.8689e-05,1000.3,-2.6699e-05,58.145,-3.6508e-05,-15.558,0.020155
665,3.2658,3.5789,0.1,0.0001985,1983.6,0.00018914,1735,-5.5167e-05,-100.58,-9.0923e-05,-369.24,0.016787
666,3.6915,3.5173,0.1,0.00016919,1690.7,0.00016397,1539.2,-5.6544e-05,-117.64,-6.5298e-05,-183.41,0.022317
667,3.1711,3.8528,0.1,0.00029105,2908.5,0.00029672,3125.3,-5.7196e-05,466.11,-0.00011668,19.188,0.015358
668,3.0981,3.7261,0.1,0.00040256,4022.9,0.0004009,4035.7,-9.1522e-05,335.77,-0.00016904,-246.68,0.014669
669,3.1915,2.4358,0.1,0.00029364,2934.4,0.0003002,3165.5,-6.1558e-05,447.42,-0.00011387,54.399,0.015824
670,1.5653,3.9601,0.1,0.00014372,1436.2,0.000142,1439.3,-2.3898e-05,192.84,-6.7036e-05,-131.29,0.0034669
671,2.1462,3.8406,0.1,0.00015062,1505.1,0.00015197,1553.1,-3.9105e-05,117.42,-5.6472e-05,-13.063,0.0066118
672,1.9659,2.9672,0.1,0.00014602,1459.2,0.00015007,1609.5,-2.5361e-05,291.38,-5.8625e-05,41.448,0.0057097
673,2.4583,2.7164,0.1,0.00026094,2607.6,0.00027012,2950.1,-3.8116e-05,634.12,-0.00010578,125.7,0.0089854
674,1.3796,1.84,0.1,0.0001382,1381,0.00013567,1423.7,-9.1287e-06,335.67,-7.111e-05,-130.03,0.0026826
675,1.8967,2.0572,0.1,0.00013037,1302.8,0.00013525,1496.7,-1.4748e-05,369.7,-5.461e-05,70.187,0.0051512
676,1.8477,1.2089,0.1,0.00011661,1165.3,0.00012102,1307.3,-2.3806e-05,219.2,-4.2625e-05,77.796,0.0045921
677,2.3891,1.3064,0.1,0.0001534,1532.9,0.0001592,1720.8,-3.0955e-05,292.05,-5.6308e-05,101.56,0.0076779
678,5.3919,4.292,0.1,9.9363e-05,992.95,0.00010174,1071.4,-2.2563e-05,137.49,-3.7073e-05,28.476,0.049316
679,5.0161,3.5645,0.1,0.00010317,1031,0.00010601,1133.1,-1.9093e-05,193.18,-4.0752e-05,30.44,0.043021
680,4.3971,4.2566,0.1,0.00011123,1111.6,0.00011129,1116.5,-3.1734e-05,41.854,-4.1121e-05,-28.674,0.032422
681,4.3968,3.6278,0.1,0.00012978,1296.9,0.00013302,1423.6,-2.1692e-05,261.18,-5.3163e-05,24.723,0.032714
682,3.8764,3.9634,0.1,0.00024417,2440,0.00026152,2977.8,-4.1023e-05,704.58,-8.1615e-05,399.59,0.02467
683,8.236,3.497,0.1,7.116e-05,711.11,7.1642e-05,726.23,-2.0891e-05,30.975,-2.4979e-05,0.25518,0.10817
684,7.5858,2.8761,0.1,7.6676e-05,766.24,7.7251e-05,785.31,-2.1388e-05,44.176,-2.7769e-05,-3.7705,0.09376
685,7.0313,3.4597,0.1,8.0669e-05,806.14,8.1532e-05,835.34,-2.115e-05,63.827,-2.9839e-05,-1.4576,0.081757
686,7.5638,4.0947,0.1,7.7583e-05,775.29,7.8147e-05,793.53,-2.2141e-05,40.005,-2.7709e-05,-1.8307,0.092866
687,9.4189,3.5268,0.1,6.1597e-05,615.54,6.1847e-05,623.11,-1.9157e-05,14.481,-2.0967e-05,0.88532,0.13612
688,8.8163,2.9289,0.1,6.6199e-05,661.53,6.658e-05,673.2,-2.0081e-05,22.057,-2.2785e-05,1.7396,0.12178
689,8.8188,4.137,0.1,6.6782e-05,667.36,6.7134e-05,678.07,-2.0441e-05,20.071,-2.2881e-05,1.7309,0.12141
690,10.591,3.5386,0.1,5.258e-05,525.44,5.2662e-05,527.86,-1.7021e-05,4.2893,-1.7516e-05,0.56559,0.16553
691,10.001,2.9479,0.1,5.6962e-05,569.23,5.7094e-05,573.2,-1.8123e-05,8.0415,-1.9196e-05,-0.018494,0.15066
692,10.014,4.129,0.1,5.7078e-05,570.38,5.7207e-05,574.23,-1.8311e-05,6.8175,-1.9095e-05,0.9223,0.1506
693,11.767,3.5416,0.1,4.4179e-05,441.48,4.416e-05,440.94,-1.4417e-05,0.81888,-1.4777e-05,-1.8848,0.19649
694,11.176,2.9561,0.1,4.8215e-05,481.82,4.824e-05,482.56,-1.5871e-05,0.85343,-1.5899e-05,0.64261,0.18091
695,11.182,4.1422,0.1,4.8289e-05,482.56,4.8298e-05,482.83,-1.5853e-05,0.81645,-1.5999e-05,-0.27735,0.18069
696,12.938,3.546,0.1,3.6452e-05,364.26,3.6371e-05,362,-1.1663e-05,1.086,-1.2543e-05,-5.5284,0.22855
697,12.353,2.9508,0.1,4.0125e-05,400.97,4.0071e-05,399.42,-1.2961e-05,0.96173,-1.3623e-05,-4.0092,0.21251
698,12.36,4.1403,0.1,4.0154e-05,401.27,4.0099e-05,399.67,-1.2993e-05,0.75258,-1.3615e-05,-3.9146,0.21237
699,14.103,3.5573,0.1,2.9453e-05,294.33,2.9333e-05,290.99,-9.238e-06,1.1801,-1.0415e-05,-7.6644,0.26142
700,13.522,2.9619,0.1,3.2738e-05,327.16,3.2637e-05,324.32,-1.0377e-05,1.1245,-1.1414e-05,-6.6663,0.24504
701,13.523,4.1447,0.1,3.2749e-05,327.26,3.2652e-05,324.53,-1.041e-05,0.97671,-1.1381e-05,-6.3189,0.24474
702,15.269,3.5697,0.1,2.3195e-05,231.79,2.3046e-05,227.74,-7.1082e-06,1.1752,-8.4533e-06,-8.9315,0.29511
703,14.686,2.9675,0.1,2.6098e-05,260.8,2.5965e-05,257.13,-8.0971e-06,1.206,-9.3599e-06,-8.2824,0.2783
704,14.69,4.1597,0.1,2.61e-05,260.82,2.5973e-05,257.29,-8.1574e-06,0.85023,-9.2945e-06,-7.6936,0.27809
705,16.434,3.5807,0.1,1.7696e-05,176.84,1.7527e-05,172.36,-5.2444e-06,1.266,-6.7059e-06,-9.7152,0.32937
706,15.852,2.9766,0.1,2.0221e-05,202.07,2.0065e-05,197.88,-6.1103e-06,1.2047,-7.4941e-06,-9.1926,0.31231
707,15.854,4.181,0.1,2.02e-05,201.86,2.0056e-05,197.94,-6.162e-06,0.95216,-7.4148e-06,-8.4608,0.31209
708,17.597,3.5863,0.1,1.298e-05,129.71,1.2791e-05,124.89,-3.6589e-06,1.294,-5.185e-06,-10.173,0.36408
709,17.014,2.9843,0.1,1.5111e-05,151,1.4936e-05,146.45,-4.3845e-06,1.2849,-5.8576e-06,-9.784,0.34673
710,17.017,4.1867,0.1,1.5082e-05,150.72,1.4922e-05,146.48,-4.4458e-06,0.96153,-5.7636e-06,-8.9402,0.34658
711,18.761,3.5901,0.1,9.0499e-06,90.436,8.8377e-06,85.304,-2.3454e-06,1.2781,-3.9007e-06,-10.408,0.39916
712,18.18,2.993,0.1,1.0785e-05,107.77,1.0589e-05,102.9,-2.9374e-06,1.2657,-4.4516e-06,-10.111,0.3817
713,18.181,4.1899,0.1,1.0748e-05,107.4,1.0571e-05,102.92,-2.9985e-06,0.96057,-4.3518e-06,-9.2077,0.38149
714,19.924,3.5924,0.1,5.9192e-06,59.151,5.6721e-06,53.626,-1.2934e-06,1.2902,-2.8692e-06,-10.55,0.43442
715,19.346,2.9934,0.1,7.2487e-06,72.437,7.0255e-06,67.227,-1.7529e-06,1.2696,-3.2925e-06,-10.298,0.41697
716,19.344,4.191,0.1,7.2051e-06,72.001,7.0072e-06,67.26,-1.8174e-06,0.95521,-3.1864e-06,-9.3313,0.41668
717,21.085,3.597,0.1,3.599e-06,35.965,3.2881e-06,29.762,-5.0441e-07,1.267,-2.0902e-06,-10.648,0.46981
718,20.507,2.9965,0.1,4.5271e-06,45.239,4.2554e-06,39.5,-8.3039e-07,1.2878,-2.3928e-06,-10.452,0.45227
719,20.505,4.1949,0.1,4.4583e-06,44.552,4.225e-06,39.451,-8.9767e-07,0.96168,-2.2706e-06,-9.3539,0.452
720,21.67,3.0006,0.1,2.6348e-06,26.329,2.2691e-06,19.591,-1.7489e-07,1.2278,-1.7457e-06,-10.575,0.48773
721,21.668,4.2014,0.1,2.5202e-06,25.185,2.2183e-06,19.421,-2.4096e-07,0.9434,-1.5997e-06,-9.2655,0.48747
722,22.249,3.6011,0.1,2.1044e-06,21.03,1.6718e-06,13.602,3.0785e-08,1.2721,-1.5599e-06,-10.68,0.50532
723,21.091,2.4001,0.1,3.5911e-06,35.886,3.2778e-06,29.64,-4.9987e-07,1.256,-2.0907e-06,-10.697,0.47016
724,22.254,2.4023,0.1,2.1007e-06,20.992,1.6655e-06,13.522,3.318e-08,1.2574,-1.5605e-06,-10.717,0.50566
725,21.673,1.7987,0.1,2.5132e-06,25.115,2.2095e-06,19.318,-2.3789e-07,0.92961,-1.599e-06,-9.297,0.48799
726,19.929,2.3975,0.1,5.9074e-06,59.033,5.6589e-06,53.478,-1.289e-06,1.2743,-2.8672e-06,-10.584,0.43476
727,20.511,1.7972,0.1,4.4464e-06,44.433,4.2118e-06,39.31,-8.9198e-07,0.96238,-2.2689e-06,-9.3831,0.45253
728,18.764,2.3964,0.1,9.0446e-06,90.383,8.8319e-06,85.235,-2.344e-06,1.2638,-3.8995e-06,-10.423,0.39942
729,19.35,1.7963,0.1,7.1917e-06,71.867,6.9934e-06,67.119,-1.8124e-06,0.95479,-3.1827e-06,-9.3413,0.41721
730,17.596,2.391,0.1,1.2981e-05,129.72,1.2792e-05,124.89,-3.6621e-06,1.2631,-5.1832e-06,-10.166,0.36423
731,18.182,1.797,0.1,1.0745e-05,107.38,1.0569e-05,102.88,-2.9996e-06,0.93663,-4.3502e-06,-9.2116,0.38187
732,16.432,2.3803,0.1,1.7702e-05,176.9,1.7532e-05,172.4,-5.2494e-06,1.2311,-6.7056e-06,-9.7101,0.32951
733,17.013,1.7887,0.1,1.5091e-05,150.8,1.4931e-05,146.57,-4.4487e-06,0.96484,-5.7663e-06,-8.9358,0.3468
734,15.269,2.3744,0.1,2.319e-05,231.74,2.3041e-05,227.7,-7.0979e-06,1.2452,-8.4595e-06,-8.9849,0.29528
735,15.854,1.7821,0.1,2.0208e-05,201.94,2.0063e-05,197.99,-6.1709e-06,0.88038,-7.4135e-06,-8.4558,0.31242
736,14.106,2.3721,0.1,2.9444e-05,294.24,2.9323e-05,290.87,-9.2349e-06,1.161,-1.0414e-05,-7.7001,0.26165
737,14.688,1.7809,0.1,2.6089e-05,260.71,2.5964e-05,257.26,-8.1384e-06,1.0287,-9.3001e-06,-7.7001,0.27837
738,12.937,2.3667,0.1,3.6467e-05,364.42,3.6386e-05,362.11,-1.1674e-05,1.0125,-1.2545e-05,-5.5293,0.22867
739,13.526,1.7785,0.1,3.2759e-05,327.36,3.2661e-05,324.6,-1.0433e-05,0.80906,-1.1368e-05,-6.2113,0.24515
740,11.762,2.3652,0.1,4.4207e-05,441.77,4.4193e-05,441.36,-1.4414e-05,1.0135,-1.479e-05,-1.8131,0.19653
741,12.352,1.773,0.1,4.0189e-05,401.62,4.0134e-05,400.02,-1.2988e-05,0.88874,-1.3642e-05,-4.0292,0.21245
742,10.586,2.3655,0.1,5.263e-05,525.93,5.2704e-05,528.14,-1.7032e-05,4.1703,-1.7552e-05,0.26107,0.16556
743,11.183,1.7772,0.1,4.8312e-05,482.79,4.8326e-05,483.19,-1.5858e-05,0.93776,-1.6001e-05,-0.14013,0.18101
744,9.3982,2.3501,0.1,6.1583e-05,615.41,6.1848e-05,623.43,-1.9066e-05,15.477,-2.1016e-05,0.82853,0.13576
745,10.011,1.775,0.1,5.7118e-05,570.78,5.7221e-05,573.85,-1.8357e-05,5.9918,-1.9129e-05,0.19278,0.1508
746,8.1662,2.3079,0.1,7.1708e-05,716.58,7.2195e-05,732.32,-2.0584e-05,35.216,-2.5574e-05,-2.2798,0.10669
747,8.8286,1.7512,0.1,6.6444e-05,663.98,6.6777e-05,674.03,-2.0519e-05,18.132,-2.2631e-05,2.263,0.12193
748,6.8107,2.2319,0.1,8.2097e-05,820.41,8.322e-05,858.7,-2.0463e-05,79.673,-3.0748e-05,2.393,0.077248
749,7.5977,1.7077,0.1,7.7009e-05,769.56,7.7483e-05,785.03,-2.213e-05,36.585,-2.7536e-05,-4.0354,0.093832
750,6.2562,2.8155,0.1,8.6119e-05,860.6,8.75e-05,908.73,-2.0239e-05,99.216,-3.2803e-05,4.8191,0.066111
751,5.6311,1.8331,0.1,9.32e-05,931.36,9.4088e-05,964.75,-2.294e-05,85.45,-3.5795e-05,-11.138,0.054009
752,5.7545,2.3498,0.1,9.1551e-05,914.88,9.3238e-05,979.82,-1.824e-05,142.22,-3.6702e-05,3.5046,0.056434
753,6.2708,4.0517,0.1,8.7916e-05,878.55,8.9061e-05,916.34,-2.2889e-05,75.197,-3.2279e-05,4.6426,0.066029
754,5.8951,3.3243,0.1,9.1624e-05,915.61,9.3335e-05,978.07,-1.9474e-05,130.46,-3.5907e-05,6.9868,0.05905
755,5.6038,4.9134,0.1,8.9556e-05,894.94,9.0416e-05,924.73,-2.3431e-05,69.329,-3.3337e-05,-5.1065,0.052665
756,4.5692,5.3108,0.1,8.3009e-05,829.52,8.2164e-05,804.93,-2.713e-05,-16.265,-2.9313e-05,-32.669,0.034161
757,4.6091,4.878,0.1,0.00010197,1019,0.0001003,972.29,-3.1408e-05,-17.345,-3.8914e-05,-73.737,0.035328
758,5.2502,5.5848,0.1,8.8257e-05,881.96,8.8441e-05,888.31,-2.6609e-05,23.873,-3.1143e-05,-10.195,0.045491
759,6.8033,4.6868,0.1,8.482e-05,847.62,8.5669e-05,874.48,-2.386e-05,51.519,-3.016e-05,4.1868,0.076288
760,6.3449,5.3286,0.1,9.0401e-05,903.38,9.071e-05,912.95,-2.787e-05,21.981,-3.1111e-05,-2.366,0.06637
761,8.1466,4.7347,0.1,7.3199e-05,731.48,7.3643e-05,745.4,-2.17e-05,29.03,-2.5605e-05,-0.30952,0.10538
762,7.6116,5.3582,0.1,7.8907e-05,788.52,7.9323e-05,801.6,-2.3557e-05,28.598,-2.7574e-05,-1.5808,0.092786
763,9.4138,4.7393,0.1,6.2288e-05,622.45,6.2519e-05,629.38,-1.9619e-05,12.22,-2.101e-05,1.7673,0.1353
764,8.85,5.3765,0.1,6.7594e-05,675.47,6.7875e-05,683.89,-2.1193e-05,14.672,-2.2834e-05,2.3412,0.1211
765,10.605,4.7327,0.1,5.283e-05,527.93,5.2883e-05,529.5,-1.7318e-05,2.034,-1.7443e-05,1.095,0.16528
766,10.041,5.3628,0.1,5.7551e-05,575.11,5.7625e-05,577.3,-1.8801e-05,3.0667,-1.9033e-05,1.3213,0.15031
767,11.776,4.7408,0.1,4.4317e-05,442.87,4.4284e-05,441.9,-1.4432e-05,0.7351,-1.4882e-05,-2.6449,0.19616
768,11.204,5.3699,0.1,4.8532e-05,484.99,4.8487e-05,483.69,-1.577e-05,0.89115,-1.6347e-05,-3.4468,0.18039
769,12.945,4.739,0.1,3.6511e-05,364.86,3.6432e-05,362.59,-1.1741e-05,0.64482,-1.2506e-05,-5.1051,0.22823
770,12.373,5.371,0.1,4.0277e-05,402.49,4.0183e-05,399.8,-1.2977e-05,0.37566,-1.3783e-05,-5.6791,0.21196
771,14.11,4.7471,0.1,2.9461e-05,294.4,2.9349e-05,291.26,-9.3292e-06,0.65083,-1.0319e-05,-6.7841,0.26114
772,13.535,5.368,0.1,3.2801e-05,327.78,3.2672e-05,324.14,-1.0423e-05,0.3399,-1.1464e-05,-7.4865,0.2444
773,15.274,4.7709,0.1,2.3174e-05,231.58,2.3043e-05,227.94,-7.2105e-06,0.63205,-8.3163e-06,-7.6761,0.29485
774,14.699,5.379,0.1,2.6116e-05,260.98,2.5965e-05,256.75,-8.1698e-06,0.27307,-9.3404e-06,-8.523,0.27779
775,16.438,4.787,0.1,1.7656e-05,176.44,1.7512e-05,172.53,-5.3627e-06,0.65303,-6.5348e-06,-8.1535,0.32914
776,15.861,5.3919,0.1,2.0204e-05,201.9,2.0038e-05,197.35,-6.1933e-06,0.25411,-7.4291e-06,-9.0315,0.3118
777,17.601,4.7902,0.1,1.2921e-05,129.12,1.2764e-05,124.97,-3.7847e-06,0.63351,-4.9929e-06,-8.4443,0.36388
778,17.025,5.3951,0.1,1.5059e-05,150.48,1.4883e-05,145.75,-4.4931e-06,0.16483,-5.7383e-06,-9.1909,0.34638
779,18.763,4.7908,0.1,8.9724e-06,89.662,8.8015e-06,85.331,-2.4698e-06,0.64308,-3.6988e-06,-8.5915,0.39893
780,18.186,5.3951,0.1,1.071e-05,107.03,1.0522e-05,102.12,-3.0445e-06,0.18111,-4.316e-06,-9.3722,0.3813
781,19.925,4.7935,0.1,5.808e-06,58.04,5.6178e-06,53.518,-1.4209e-06,0.63209,-2.6462e-06,-8.5744,0.43421
782,19.349,5.3957,0.1,7.1478e-06,71.429,6.9436e-06,66.355,-1.865e-06,0.17061,-3.1337e-06,-9.3616,0.41652
783,21.087,4.7994,0.1,3.4289e-06,34.266,3.2074e-06,29.502,-6.3345e-07,0.64381,-1.833e-06,-8.3691,0.46963
784,20.51,5.3978,0.1,4.367e-06,43.64,4.1391e-06,38.402,-9.4907e-07,0.17099,-2.1888e-06,-9.1439,0.45188
785,22.252,4.8016,0.1,1.8383e-06,18.37,1.5572e-06,13.161,-1.0706e-07,0.6561,-1.2499e-06,-7.9306,0.50521
786,21.673,5.4016,0.1,2.357e-06,23.554,2.0907e-06,18.147,-2.9713e-07,0.20587,-1.4592e-06,-8.5255,0.48738
787,22.833,4.2012,0.1,1.4073e-06,14.063,9.7084e-07,7.0419,1.6353e-07,0.97606,-1.169e-06,-9.0362,0.52308
788,22.837,5.4,0.1,1.1228e-06,11.22,7.8642e-07,5.4818,8.3581e-08,0.20086,-9.2858e-07,-7.4041,0.52297
789,23.417,4.8,0.1,1.0332e-06,10.325,6.7027e-07,4.5569,1.5172e-07,0.6607,-8.8772e-07,-7.1492,0.54085
790,22.833,3.0028,0.1,1.583e-06,15.819,1.042e-06,7.3359,2.3746e-07,1.2912,-1.347e-06,-10.614,0.52328
791,23.415,3.6013,0.1,1.4129e-06,14.12,8.3038e-07,5.317,3.0016e-07,1.3332,-1.257e-06,-10.367,0.541
792,22.835,1.8011,0.1,1.4062e-06,14.052,9.6797e-07,7.0052,1.6494e-07,0.97152,-1.1696e-06,-9.0559,0.5235
793,23.418,2.4015,0.1,1.4129e-06,14.119,8.2825e-07,5.2887,3.0162e-07,1.3318,-1.258e-06,-10.386,0.54123
794,22.255,1.1974,0.1,1.8344e-06,18.332,1.5521e-06,13.103,-1.0495e-07,0.65263,-1.2495e-06,-7.9474,0.50582
795,23.418,1.1996,0.1,1.0328e-06,10.321,6.6923e-07,4.5446,1.5227e-07,0.66048,-8.8782e-07,-7.1544,0.54138
796,22.837,0.59956,0.1,1.123e-06,11.222,7.8606e-07,5.4758,8.4138e-08,0.20189,-9.292e-07,-7.4119,0.52367
797,21.093,1.1957,0.1,3.4186e-06,34.162,3.1961e-06,29.384,-6.2919e-07,0.64202,-1.8307e-06,-8.3853,0.47033
798,21.675,0.59789,0.1,2.3513e-06,23.497,2.0853e-06,18.097,-2.9582e-07,0.20606,-1.4564e-06,-8.5141,0.48814
799,19.932,1.196,0.1,5.7944e-06,57.904,5.6041e-06,53.385,-1.4147e-06,0.64868,-2.6429e-06,-8.5796,0.43492
800,20.513,0.59785,0.1,4.3591e-06,43.561,4.133e-06,38.364,-9.4859e-07,0.18248,-2.182e-06,-9.0852,0.45267
801,18.767,1.197,0.1,8.9611e-06,89.549,8.7901e-06,85.216,-2.4672e-06,0.63325,-3.6941e-06,-8.5856,0.39958
802,19.352,0.59813,0.1,7.1424e-06,71.375,6.9404e-06,66.357,-1.8655e-06,0.19292,-3.1265e-06,-9.2821,0.41729
803,17.599,1.1948,0.1,1.2925e-05,129.16,1.2769e-05,125.02,-3.7854e-06,0.64421,-4.9947e-06,-8.4424,0.36433
804,18.188,0.59885,0.1,1.0707e-05,106.99,1.0519e-05,102.1,-3.0477e-06,0.16289,-4.3093e-06,-9.3165,0.38203
805,16.435,1.1905,0.1,1.7667e-05,176.55,1.7522e-05,172.62,-5.3695e-06,0.61947,-6.5359e-06,-8.1447,0.32955
806,17.021,0.59591,0.1,1.5065e-05,150.55,1.4888e-05,145.77,-4.4844e-06,0.21849,-5.7533e-06,-9.3161,0.34696
807,15.273,1.1887,0.1,2.3175e-05,231.59,2.3046e-05,228,-7.2107e-06,0.66845,-8.3142e-06,-7.6226,0.2953
808,15.862,0.59462,0.1,2.02e-05,201.86,2.0036e-05,197.33,-6.2036e-06,0.18292,-7.4152e-06,-8.9199,0.3125
809,14.109,1.1873,0.1,2.9467e-05,294.46,2.9359e-05,291.42,-9.336e-06,0.68151,-1.031e-05,-6.6392,0.26161
810,14.697,0.59405,0.1,2.6111e-05,260.93,2.5962e-05,256.77,-8.1703e-06,0.31138,-9.3313e-06,-8.4122,0.27841
811,12.941,1.1848,0.1,3.654e-05,365.15,3.6462e-05,362.91,-1.1746e-05,0.6895,-1.2518e-05,-5.11,0.2286
812,13.536,0.59323,0.1,3.281e-05,327.87,3.2685e-05,324.32,-1.044e-05,0.30461,-1.1447e-05,-7.2653,0.24511
813,11.772,1.1849,0.1,4.4346e-05,443.16,4.4313e-05,442.2,-1.4436e-05,0.78001,-1.4896e-05,-2.6715,0.19653
814,12.368,0.59155,0.1,4.0301e-05,402.74,4.0205e-05,399.97,-1.2962e-05,0.49441,-1.382e-05,-5.9558,0.21247
815,10.607,1.1867,0.1,5.2842e-05,528.05,5.288e-05,529.19,-1.7334e-05,1.6229,-1.7464e-05,0.64565,0.16578
816,11.205,0.59337,0.1,4.8537e-05,485.04,4.849e-05,483.67,-1.5806e-05,0.57341,-1.632e-05,-3.289,0.18108
817,9.441,1.1761,0.1,6.2004e-05,619.61,6.2173e-05,624.63,-1.9835e-05,8.4592,-2.0742e-05,1.6412,0.13641
818,10.041,0.59333,0.1,5.7461e-05,574.22,5.7511e-05,575.68,-1.8838e-05,2.0224,-1.8986e-05,0.91179,0.15096
819,8.2602,1.1509,0.1,7.1741e-05,716.91,7.2062e-05,726.74,-2.2063e-05,19.517,-2.4593e-05,0.50763,0.10839
820,8.877,0.5828,0.1,6.7285e-05,672.39,6.7449e-05,677.28,-2.1519e-05,8.8001,-2.2552e-05,1.0444,0.12238
821,7.6982,0.56813,0.1,7.7159e-05,771.05,7.7485e-05,780.89,-2.402e-05,18.229,-2.6218e-05,1.7144,0.095285
822,5.2986,1.151,0.1,9.6416e-05,963.5,9.6074e-05,955.83,-2.8249e-05,21.719,-3.5741e-05,-34.574,0.047607
823,4.8356,0.71924,0.1,8.5242e-05,851.83,8.3886e-05,812.83,-2.731e-05,-22.646,-3.1544e-05,-54.456,0.039157
824,5.4168,0.41029,0.1,9.2256e-05,921.92,9.1234e-05,891.96,-3.0838e-05,-25.237,-3.2085e-05,-34.61,0.049066
825,0.93157,2.638,0.1,0.00015775,1576.4,0.0001463,1458.3,-3.5982e-06,332.05,-9.3466e-05,-343.18,0.0012563
826,1.0481,3.8481,0.1,0.00014612,1460.1,0.00013616,1348.8,-6.2543e-06,278.8,-8.523e-05,-314.59,0.0015714
827,1.4487,2.8552,0.1,0.00014831,1482.1,0.00014538,1527.6,-8.7705e-06,369.43,-7.6911e-05,-142.56,0.0030684
828,0.48106,3.4044,0.1,0.00013111,1310.2,0.00014562,1800.3,-2.0086e-06,691.11,-4.6775e-05,354.76,0.00033834
829,5.3934,2.8585,0.1,9.7065e-05,969.98,9.9021e-05,1048.8,-1.7431e-05,173.79,-3.9798e-05,5.7404,0.049804
830,0.89931,1.5468,0.1,0.00015069,1505.8,0.00014019,1386.6,-6.2731e-06,286.17,-8.821e-05,-329.47,0.0011154
831,1.3674,0.91566,0.1,0.00012696,1268.7,0.00012529,1268.5,-2.0886e-05,170.18,-5.9547e-05,-120.31,0.0024157
832,0.44881,1.1131,0.1,0.00012019,1201.1,0.00013361,1643.4,-4.322e-06,607.06,-4.1591e-05,327.03,0.00026928
833,0.93547,0.51315,0.1,0.00014136,1412.6,0.0001343,1305.8,-1.7641e-05,164.22,-7.5962e-05,-273.99,0.001032
834,0.45051,2.2336,0.1,0.00012803,1279.4,0.00014173,1749.5,-1.173e-06,675.76,-4.6684e-05,333.81,0.00029052
835,3.9359,5.2386,0.1,7.3422e-05,733.71,6.9236e-05,632.62,-1.7051e-05,-15.701,-3.6771e-05,-163.87,0.024138
836,3.5675,5.476,0.1,5.5505e-05,554.67,5.6684e-05,589.66,-1.6064e-05,43.062,-1.8166e-05,27.267,0.018082
837,4.1484,5.726,0.1,7.324e-05,731.9,7.2104e-05,702.8,-2.0646e-05,5.9126,-2.9377e-05,-59.69,0.026718
838,4.9329,2.9698,0.1,0.00010817,1080.9,0.00011036,1174,-1.7886e-05,210.35,-4.5203e-05,5.1045,0.041691
839,1.5616,4.765,0.1,0.0001212,1211.2,0.00011936,1201.3,-2.084e-05,147.85,-5.6776e-05,-122.16,0.003142
840,0.56699,4.6437,0.1,0.00011596,1158.8,0.00013022,1621.6,-3.556e-06,616.43,-3.8472e-05,354.08,0.0004361
841,1.0537,5.2437,0.1,0.00012692,1268.4,0.00012084,1168.3,-1.8136e-05,124.03,-6.7011e-05,-243.19,0.0013319
842,3.9758,4.8059,0.1,8.7788e-05,877.27,8.3594e-05,771.57,-2.2305e-05,-24.109,-4.1615e-05,-169.2,0.025348
843,3.4551,5.0126,0.1,8.163e-05,815.73,7.5854e-05,719.75,-8.7474e-06,84.086,-4.6564e-05,-200.05,0.01723
844,3.6074,4.5432,0.1,0.00012813,1280.4,0.0001212,1110.6,-3.0686e-05,-30.62,-6.3094e-05,-274.12,0.0202
845,2.1425,4.6455,0.1,0.00013578,1356.8,0.00013599,1365,-4.0365e-05,39.986,-4.8549e-05,-21.506,0.0059505
846,2.4279,4.0809,0.1,0.00019636,1962.3,0.00019166,1853.6,-4.8739e-05,47.342,-8.6215e-05,-234.24,0.0082822
847,2.6079,4.6242,0.1,0.00011615,1160.7,0.0001126,1070.2,-3.1005e-05,-8.7678,-5.085e-05,-157.87,0.0086972
848,2.4546,5.2713,0.1,7.9238e-05,791.83,8.2765e-05,895.92,-2.1177e-05,114.94,-2.4008e-05,93.671,0.0068504
849,1.9679,5.5213,0.1,0.00010632,1062.5,0.00010779,1107.4,-3.0145e-05,71.007,-3.6849e-05,20.637,0.0042555
850,3.6673,0.55894,0.1,6.6149e-05,661.03,6.7753e-05,708.19,-2.001e-05,48.777,-2.0438e-05,45.565,0.020159
851,4.2482,0.30894,0.1,7.3531e-05,734.81,7.1724e-05,686.43,-2.114e-05,-11.308,-3.0354e-05,-80.543,0.028951
852,2.4277,2.0008,0.1,0.00020807,2079.3,0.00021344,2313.8,-2.7028e-05,507,-8.9043e-05,41.045,0.0084126
853,2.3786,0.65251,0.1,0.00011243,1123.6,0.00011614,1233.6,-3.0489e-05,131.87,-3.6153e-05,89.312,0.0070152
854,1.892,0.40251,0.1,0.0001109,1108.2,0.00011295,1168.7,-3.3367e-05,69.336,-3.5696e-05,51.834,0.004275
855,4.3135,3.0332,0.1,0.00013477,1346.8,0.00013733,1464.1,-2.0519e-05,278.1,-5.7532e-05,-5.4418e-05,0.031527
856,2.74,4.2067,0.1,0.00017804,1779.2,0.00016295,1449.9,-3.1116e-05,-8.2278,-0.0001009,-532.55,0.010349
857,2.74,2.9567,0.1,0.00028451,2843.1,0.00029312,3125.2,-6.0899e-05,465.24,-0.00010568,128.79,0.011405
858,3.0867,5.25,0.1,6.7667e-05,676.2,6.7639e-05,709.37,-8.281e-06,138.94,-3.1775e-05,-37.586,0.011291
859,3.0867,5.75,0.1,3.5582e-05,355.58,3.8483e-05,472.05,1.4251e-06,193.62,-1.4826e-05,71.509,0.010252
860,3.0867,5.5,0.05,5.3815e-06,53.778,4.1323e-06,31.049,-8.7653e-22,-6.5859e-15,-4.1323e-06,-31.049,0.010736
861,3.0867,4.75,0.1,0.00014524,1451.4,0.00013204,1198.4,-1.7799e-05,72.536,-8.596e-05,-439.59,0.012424
862,3.0867,5,0.05,2.6735e-05,267.17,2.0529e-05,154.25,-4.3546e-21,-3.2718e-14,-2.0529e-05,-154.25,0.011812
863,3.0867,4.25,0.1,0.00028284,2826.4,0.00028875,3102,-3.8828e-05,640.72,-0.00012206,15.322,0.013595
864,3.0867,4.5,0.05,2.2982e-05,229.67,1.7648e-05,132.6,-3.7433e-21,-2.8126e-14,-1.7648e-05,-132.6,0.012965
865,3.0033,4,0.1,0.00046649,4661.7,0.00047818,5198.2,-5.541e-05,1189,-0.00020263,82.884,0.013143
866,3.0867,4,0.05,6.0399e-05,603.57,4.6379e-05,348.47,1.5866e-12,-2.1806e-05,-4.6379e-05,-348.47,0.014059
867,2.92,4.25,0.1,0.00033871,3384.7,0.00032939,3245.9,-5.9384e-05,324.81,-0.00016428,-463.36,0.011621
868,2.92,4,0.05,0.00014217,1420.7,0.00010917,820.26,-3.9487e-12,3.7742e-05,-0.00010917,-820.26,0.012276
869,2.92,4.75,0.1,0.00016271,1626,0.00013479,1049,-1.6779e-05,-89.858,-0.00011305,-813.18,0.010379
870,2.92,4.5,0.05,5.8837e-05,587.96,4.5179e-05,339.46,-3.0244e-20,-7.2004e-14,-4.5179e-05,-339.46,0.010963
871,2.92,5.25,0.1,7.8876e-05,788.21,7.4469e-05,714.51,-1.0398e-05,76.85,-4.2819e-05,-166.75,0.0093438
872,2.92,5,0.05,1.2877e-05,128.68,9.8876e-06,74.292,-2.0973e-21,-1.3154e-06,-9.8876e-06,-74.292,0.0098308
873,2.92,5.75,0.1,4.1119e-05,410.91,4.4964e-05,583.41,6.3207e-06,293.06,-1.7611e-05,113.24,0.0084516
874,2.92,5.5,0.05,6.1169e-06,61.127,4.697e-06,35.292,-9.9631e-22,-7.4859e-15,-4.697e-06,-35.292,0.008881
875,3.0867,0.75,0.1,8.9461e-05,894,9.262e-05,988.15,-2.3593e-05,114.97,-2.8954e-05,74.687,0.011752
876,3.0867,0.25,0.1,4.9564e-05,495.3,5.3584e-05,618.31,-8.1817e-06,154.23,-1.5824e-05,96.808,0.010831
877,3.0867,0.5,0.05,7.6174e-06,76.121,5.8492e-06,43.949,5.6315e-13,-9.3222e-15,-5.8492e-06,-43.949,0.011259
878,3.0867,1.25,0.1,0.00016483,1647.2,0.00016341,1637.2,-3.5859e-05,139.92,-7.1421e-05,-127.29,0.01274
879,3.0867,1,0.05,1.5431e-05,154.21,1.1849e-05,89.031,-2.5134e-21,-1.8885e-14,-1.1849e-05,-89.031,0.012211
880,3.0867,1.75,0.1,0.00028321,2830.2,0.00029063,3048.4,-8.3859e-05,234.67,-8.8193e-05,202.1,0.013735
881,3.0867,1.5,0.05,2.8678e-05,286.59,2.2022e-05,165.46,-4.6711e-21,1.7152e-06,-2.2022e-05,-165.46,0.013223
882,3.0033,2,0.1,0.00036563,3653.8,0.00038082,4180.8,-5.7757e-05,885.49,-0.00014214,251.49,0.013256
883,3.0867,2,0.05,5.709e-06,57.051,4.3838e-06,32.938,-2.0489e-13,9.2408e-07,-4.3838e-06,-32.938,0.014152
884,2.92,1.75,0.1,0.00032453,3243,0.00033515,3666.8,-4.2106e-05,832.29,-0.00013553,130.3,0.01207
885,2.92,2,0.05,1.4137e-05,141.28,1.0856e-05,81.566,-9.9219e-21,-1.912e-14,-1.0856e-05,-81.566,0.012408
886,2.92,1.25,0.1,0.00023629,2361.3,0.00024248,2576.1,-4.7789e-05,395.13,-9.1266e-05,68.465,0.011322
887,2.92,1.5,0.05,2.8257e-05,282.38,2.1698e-05,163.03,-4.6025e-21,2.853e-06,-2.1698e-05,-163.03,0.011698
888,2.92,0.75,0.1,0.00015586,1557.5,0.00016042,1692.9,-4.3328e-05,161.96,-5.0244e-05,110,0.010505
889,2.92,1,0.05,2.0119e-05,201.05,1.5449e-05,116.08,-3.277e-21,-4.6608e-14,-1.5449e-05,-116.08,0.010905
890,2.92,0.25,0.1,9.0563e-05,905.01,9.504e-05,1038.4,-2.2172e-05,157.67,-2.8404e-05,110.85,0.0096793
891,2.92,0.5,0.05,1.4554e-05,145.44,1.1176e-05,83.969,-9.8023e-14,-1.7811e-14,-1.1176e-05,-83.969,0.010079
892,3.6676,6,0.1,5.3448e-05,534.11,5.5483e-05,597.07,-1.2197e-05,88.543,-1.8578e-05,40.602,0.018641
893,3.0867,6,0.05,7.7031e-06,76.978,5.915e-06,44.443,-1.2547e-21,-9.4271e-15,-5.915e-06,-44.443,0.0097122
894,4.8294,6,0.1,7.6213e-05,761.6,7.6554e-05,772.45,-2.2795e-05,25.986,-2.6709e-05,-3.4239,0.037537
895,4.2485,6,0.05,2.0723e-06,20.708,1.5913e-06,11.956,-3.3753e-22,-2.5361e-15,-1.5913e-06,-11.956,0.027861
896,5.9913,6,0.1,8.9274e-05,892.13,8.8735e-05,876.53,-2.8798e-05,-6.5675,-3.1166e-05,-24.361,0.058541
897,5.4104,6,0.05,1.5633e-06,15.622,1.2004e-06,9.0195,-2.5463e-22,-1.9132e-15,-1.2004e-06,-9.0195,0.047736
898,7.1531,6,0.1,8.4613e-05,845.54,8.4445e-05,840.68,-2.7582e-05,-1.0509,-2.8591e-05,-8.6334,0.082022
899,6.5722,6,0.05,2.4912e-06,24.895,1.913e-06,14.373,-4.0577e-22,9.3617e-07,-1.913e-06,-14.373,0.069973
900,8.315,6,0.1,7.3325e-05,732.75,7.3574e-05,740.24,-2.3057e-05,14.188,-2.4816e-05,0.97308,0.10778
901,7.7341,6,0.05,1.771e-06,17.697,1.3599e-06,10.218,1.6276e-14,7.3992e-07,-1.3599e-06,-10.218,0.094627
902,9.4769,6,0.1,6.2882e-05,628.38,6.3004e-05,632,-2.0404e-05,5.3027,-2.0852e-05,1.9373,0.13551
903,8.8959,6,0.05,1.3368e-06,13.359,1.0265e-06,7.7126,1.5513e-14,6.0474e-07,-1.0265e-06,-7.7126,0.12141
904,10.639,6,0.1,5.3303e-05,532.66,5.3274e-05,531.84,-1.7347e-05,1.2184,-1.7888e-05,-2.8517,0.16493
905,10.058,6,0.05,1.2859e-06,12.851,9.8744e-07,7.4193,2.8914e-15,1.457e-06,-9.8744e-07,-7.4192,0.15002
906,11.801,6,0.1,4.4558e-05,445.28,4.4445e-05,442.03,-1.4316e-05,0.52642,-1.5307e-05,-6.9196,0.19577
907,11.22,6,0.05,1.3033e-06,13.024,1.0008e-06,7.5194,-2.1228e-22,9.5353e-07,-1.0008e-06,-7.5194,0.18019
908,12.962,6,0.1,3.6636e-05,366.1,3.6484e-05,361.8,-1.166e-05,0.068173,-1.2802e-05,-8.5146,0.2278
909,12.381,6,0.05,1.2064e-06,12.055,9.2633e-07,6.9601,2.2737e-13,1.9139e-06,-9.2633e-07,-6.9601,0.21165
910,14.124,6,0.1,2.9525e-05,295.05,2.9348e-05,290.07,-9.2633e-06,-0.037988,-1.0546e-05,-9.6741,0.26078
911,13.543,6,0.05,1.094e-06,10.932,8.4003e-07,6.3117,4.3239e-17,1.9072e-06,-8.4003e-07,-6.3117,0.24418
912,15.286,6,0.1,2.3215e-05,231.99,2.3021e-05,226.61,-7.1524e-06,-0.10459,-8.5136e-06,-10.332,0.29454
913,14.705,6,0.05,9.9864e-07,9.9795,7.6683e-07,5.7616,-4.1237e-15,1.9067e-06,-7.6683e-07,-5.7616,0.27757
914,16.448,6,0.1,1.7675e-05,176.63,1.7469e-05,171.02,-5.3234e-06,-0.23205,-6.693e-06,-10.523,0.32889
915,15.867,6,0.05,9.1319e-07,9.1256,7.0121e-07,5.2687,1.1364e-13,1.9065e-06,-7.0121e-07,-5.2687,0.31164
916,17.61,6,0.1,1.2914e-05,129.05,1.2699e-05,123.33,-3.7524e-06,-0.28374,-5.1193e-06,-10.554,0.36369
917,17.029,6,0.05,7.8181e-07,7.8127,6.0033e-07,4.5107,-6.5083e-15,2.1456e-06,-6.0033e-07,-4.5107,0.34624
918,18.772,6,0.1,8.9491e-06,89.429,8.72e-06,83.558,-2.4392e-06,-0.2871,-3.8071e-06,-10.566,0.39881
919,18.191,6,0.05,6.4708e-07,6.4663,4.9688e-07,3.7333,1.6602e-13,2.7018e-06,-4.9688e-07,-3.7333,0.38121
920,19.934,6,0.1,5.7669e-06,57.629,5.5197e-06,51.65,-1.3926e-06,-0.28615,-2.7316e-06,-10.347,0.43414
921,19.353,6,0.05,5.1475e-07,5.1439,3.9526e-07,2.9698,2.2708e-13,2.5043e-06,-3.9526e-07,-2.9698,0.41645
922,21.095,6,0.1,3.3501e-06,33.478,3.0783e-06,27.466,-6.1215e-07,-0.26244,-1.8714e-06,-9.7242,0.4696
923,20.514,6,0.05,3.8859e-07,3.8832,2.9839e-07,2.242,1.9133e-13,2.8631e-06,-2.9839e-07,-2.242,0.45186
924,22.257,6,0.1,1.684e-06,16.828,1.3786e-06,10.909,-1.0529e-07,-0.24038,-1.1977e-06,-8.4486,0.50513
925,21.676,6,0.05,2.5865e-07,2.5848,1.9861e-07,1.4923,2.3257e-13,3.2439e-06,-1.9861e-07,-1.4923,0.48736
926,23.419,6,0.1,7.4151e-07,7.41,4.1287e-07,1.9474,1.1637e-07,-0.28033,-6.8758e-07,-6.3209,0.54067
927,22.838,6,0.05,1.4035e-07,1.4025,1.0777e-07,0.80976,2.8974e-13,4.3288e-06,-1.0777e-07,-0.80975,0.5229
928,24,5.4,0.1,6.3073e-07,6.3029,2.6569e-07,0.78945,1.8109e-07,0.15378,-6.1227e-07,-5.8072,0.55856
929,24,6,0.05,2.8921e-08,0.28901,2.2208e-08,0.16686,8.0608e-13,7.3708e-06,-2.2208e-08,-0.16686,0.55844
930,24,4.2,0.1,1.0377e-06,10.37,5.1938e-07,2.7537,2.8576e-07,0.99832,-9.6267e-07,-8.3819,0.55878
931,24,4.8,0.05,5.4013e-08,0.53976,4.1475e-08,0.31163,2.3625e-13,3.5857e-06,-4.1475e-08,-0.31163,0.55867
932,24,3,0.1,1.2458e-06,12.45,6.0913e-07,3.2132,3.6157e-07,1.3531,-1.1577e-06,-10.062,0.55897
933,24,3.6,0.05,5.7383e-08,0.57343,4.4063e-08,0.33107,2.0315e-13,3.3638e-06,-4.4063e-08,-0.33107,0.55887
934,24,1.8,0.1,1.0378e-06,10.371,5.1883e-07,2.748,2.8633e-07,1.0011,-9.6289e-07,-8.3851,0.55912
935,24,2.4,0.05,5.7505e-08,0.57465,4.4156e-08,0.33178,2.0297e-13,2.8972e-06,-4.4156e-08,-0.33177,0.55904
936,24,0.6,0.1,6.3059e-07,6.3016,2.665e-07,0.79556,1.8008e-07,0.14622,-6.1206e-07,-5.8055,0.55924
937,24,1.2,0.05,5.3993e-08,0.53956,4.146e-08,0.31152,1.9302e-13,3.2808e-06,-4.146e-08,-0.31151,0.55918
938,1.5735e-14,1.8,0.1,0.00010166,1015.9,0.00013542,2008.3,8.0578e-07,996.86,-3.6388e-07,988.07,0
939,5.2451e-15,0.6,0.1,8.5032e-05,849.73,0.0001128,1666.2,8.5201e-07,825.09,-1.3942e-06,808.21,0
940,1.0632e-14,1.2,0.05,6.768e-06,67.633,5.197e-06,39.048,-6.2604e-14,1.4095e-05,-5.197e-06,-39.048,0
941,2.6226e-14,3,0.1,0.00010591,1058.4,0.00014106,2091.6,7.7657e-07,1037.5,-3.6735e-07,1028.9,0
942,2.1264e-14,2.4,0.05,2.8619e-06,28.599,2.1975e-06,16.512,-7.8867e-16,1.5254e-05,-2.1975e-06,-16.511,0
943,3.6716e-14,4.2,0.1,0.00010506,1049.8,0.00013993,2074.9,9.88e-07,1031,-5.6237e-07,1019.3,0
944,3.1897e-14,3.6,0.05,3.6934e-06,36.909,2.8361e-06,21.309,-5.8163e-14,-3.2527e-07,-2.8361e-06,-21.309,0
945,4.7206e-14,5.4,0.1,8.5006e-05,849.48,0.00011262,1661.4,5.5682e-07,819.35,-1.4006e-06,804.65,0
946,4.2529e-14,4.8,0.05,1.2896e-06,12.887,9.9028e-07,7.4406,1.1696e-13,8.8537e-07,-9.9028e-07,-7.4406,0
947,23.419,0,0.1,7.429e-07,7.4239,4.1484e-07,1.9635,1.1532e-07,-0.28699,-6.8832e-07,-6.3252,0.54153
948,24,0,0.05,2.9135e-08,0.29114,2.2371e-08,0.16809,7.3771e-13,6.9363e-06,-2.2372e-08,-0.16809,0.5593
949,22.257,0,0.1,1.6822e-06,16.811,1.3777e-06,10.909,-1.0558e-07,-0.23602,-1.1958e-06,-8.4272,0.50598
950,22.838,0,0.05,1.4014e-07,1.4004,1.0761e-07,0.80853,3.1099e-13,4.119e-06,-1.0761e-07,-0.80852,0.52375
951,21.095,0,0.1,3.3461e-06,33.438,3.0776e-06,27.493,-6.1464e-07,-0.24912,-1.8638e-06,-9.6351,0.47046
952,21.676,0,0.05,2.5712e-07,2.5695,1.9744e-07,1.4835,2.1316e-13,3.3642e-06,-1.9744e-07,-1.4835,0.48821
953,19.934,0,0.1,5.766e-06,57.62,5.5234e-06,51.742,-1.3987e-06,-0.26845,-2.7203e-06,-10.198,0.435
954,20.514,0,0.05,3.8996e-07,3.8969,2.9944e-07,2.2499,1.9908e-13,2.9187e-06,-2.9944e-07,-2.2499,0.45272
955,18.772,0,0.1,8.9493e-06,89.431,8.7239e-06,83.649,-2.4453e-06,-0.2725,-3.7967e-06,-10.426,0.39967
956,19.353,0,0.05,5.2024e-07,5.1988,3.9948e-07,3.0015,1.0836e-13,2.8137e-06,-3.9948e-07,-3.0015,0.41731
957,17.61,0,0.1,1.2911e-05,129.02,1.2695e-05,123.27,-3.746e-06,-0.25823,-5.1245e-06,-10.616,0.36455
958,18.191,0,0.05,6.4377e-07,6.4332,4.9433e-07,3.7142,1.1929e-13,2.7439e-06,-4.9433e-07,-3.7142,0.38207
959,16.448,0,0.1,1.7662e-05,176.5,1.7457e-05,170.91,-5.3181e-06,-0.21445,-6.6892e-06,-10.516,0.32975
960,17.029,0,0.05,7.8102e-07,7.8048,5.9973e-07,4.5061,1.1387e-13,2.6277e-06,-5.9973e-07,-4.5061,0.3471
961,15.286,0,0.1,2.3199e-05,231.83,2.3007e-05,226.51,-7.163e-06,-0.17223,-8.4879e-06,-10.127,0.29539
962,15.867,0,0.05,9.0638e-07,9.0576,6.9599e-07,5.2294,1.136e-13,2.1499e-06,-6.9599e-07,-5.2294,0.3125
963,14.124,0,0.1,2.9516e-05,294.95,2.9343e-05,290.09,-9.274e-06,-0.065768,-1.0523e-05,-9.4478,0.26164
964,14.705,0,0.05,1.0266e-06,10.258,7.8827e-07,5.9227,2.2231e-13,1.9064e-06,-7.8827e-07,-5.9227,0.27843
965,12.962,0,0.1,3.6632e-05,366.07,3.6481e-05,361.79,-1.1655e-05,0.10692,-1.2802e-05,-8.5112,0.22865
966,13.543,0,0.05,1.1429e-06,11.421,8.7761e-07,6.594,2.2741e-13,1.4075e-06,-8.7761e-07,-6.594,0.24503
967,11.801,0,0.1,4.4549e-05,445.18,4.4431e-05,441.81,-1.4332e-05,0.28204,-1.5294e-05,-6.9427,0.19663
968,12.381,0,0.05,1.2667e-06,12.658,9.7266e-07,7.3082,1.0293e-16,1.908e-06,-9.7266e-07,-7.3082,0.2125
969,10.639,0,0.1,5.3207e-05,531.7,5.3165e-05,530.49,-1.7305e-05,1.016,-1.7892e-05,-3.397,0.16579
970,11.22,0,0.05,1.327e-06,13.261,1.019e-06,7.6563,1.9132e-15,9.3807e-07,-1.019e-06,-7.6563,0.18104
971,9.4769,0,0.1,6.2788e-05,627.44,6.2828e-05,628.63,-2.0593e-05,1.8372,-2.0766e-05,0.53807,0.13636
972,10.058,0,0.05,1.4255e-06,14.246,1.0946e-06,8.2247,1.603e-16,1.9074e-06,-1.0946e-06,-8.2247,0.15088
973,8.315,0,0.1,7.2734e-05,726.84,7.2895e-05,731.61,-2.3462e-05,7.6231,-2.4215e-05,1.9637,0.10862
974,8.8959,0,0.05,1.6006e-06,15.995,1.229e-06,9.2345,-2.607e-22,-1.2415e-07,-1.229e-06,-9.2345,0.12226
975,7.1531,0,0.1,8.2517e-05,824.6,8.2773e-05,832.22,-2.6332e-05,12.447,-2.7604e-05,2.892,0.082843
976,7.7341,0,0.05,1.3198e-06,13.189,1.0134e-06,7.6146,1.4172e-13,7.2842e-07,-1.0134e-06,-7.6146,0.095462
977,5.9913,0,0.1,8.9228e-05,891.67,8.8773e-05,878.34,-2.9406e-05,-9.6127,-3.0388e-05,-16.994,0.059292
978,6.5722,0,0.05,1.0755e-06,10.747,8.2583e-07,6.2049,3.7072e-13,3.911e-07,-8.2583e-07,-6.2049,0.070765
979,4.8294,0,0.1,7.9539e-05,794.84,7.8335e-05,760.02,-2.575e-05,-22.034,-2.9076e-05,-47.023,0.038181
980,5.4104,0,0.05,4.8095e-07,4.8062,3.6931e-07,2.7748,5.6249e-14,8.8321e-06,-3.6931e-07,-2.7748,0.048424
981,3.6676,0,0.1,5.3772e-05,537.35,5.5172e-05,578.65,-1.5643e-05,46.567,-1.7025e-05,36.184,0.019292
982,4.2485,0,0.05,1.8746e-06,18.733,1.4395e-06,10.815,-3.0533e-22,-2.2941e-15,-1.4395e-06,-10.815,0.0285
983,3.0867,0,0.05,3.6979e-06,36.954,2.8395e-06,21.335,-6.0231e-22,-4.5255e-15,-2.8395e-06,-21.335,0.010352
984,2.4333,2.5275e-31,0.1,8.6943e-05,868.83,9.0039e-05,959.87,-2.5157e-05,94.334,-2.6027e-05,87.8,0.0065112
985,2.92,3.033e-31,0.05,6.0496e-06,60.454,4.6453e-06,34.903,-9.8534e-22,-7.4035e-15,-4.6453e-06,-34.903,0.0092682
986,1.46,1.5165e-31,0.1,0.00012359,1235,0.00012238,1209.2,-3.2851e-05,42.874,-4.9808e-05,-84.537,0.002206
987,1.9467,0,0.05,3.536e-06,35.335,2.7152e-06,20.401,-5.7593e-22,-4.3273e-15,-2.7152e-06,-20.401,0.0040989
988,0.48667,5.0549e-32,0.1,0.00010436,1042.9,0.00011334,1327.5,-1.2616e-05,381.12,-3.5466e-05,209.43,0.00020823
989,0.97333,0,0.05,5.0946e-06,50.911,3.912e-06,29.393,-8.298e-22,-6.2348e-15,-3.912e-06,-29.393,0.0009037
990,0,0,0.05,3.3036e-05,330.13,2.5367e-05,190.6,-5.3808e-21,4.5936e-08,-2.5367e-05,-190.6,0
991,0.48667,6,0.1,9.3408e-05,933.43,0.00010207,1199.2,-1.3406e-05,331.59,-2.9379e-05,211.58,0.00019288
992,5.2451e-14,6,0.05,3.0317e-05,302.96,2.328e-05,174.91,-4.938e-21,-3.7102e-14,-2.328e-05,-174.91,0
993,1.46,6,0.1,0.0001091,1090.2,0.00010822,1066.5,-3.3059e-05,4.9836,-4.0417e-05,-50.301,0.0019842
994,0.97333,6,0.05,3.7061e-06,37.036,2.8458e-06,21.383,-1.2744e-12,-4.5356e-15,-2.8458e-06,-21.383,0.00083084
995,2.4333,6,0.1,7.0312e-05,702.63,7.4271e-05,827.06,-1.2827e-05,172.64,-2.4555e-05,84.521,0.0056653
996,1.9467,6,0.05,4.0225e-06,40.197,3.0888e-06,23.208,-6.5517e-22,-4.9227e-15,-3.0888e-06,-23.208,0.0036107
997,2.92,6,0.05,1.6669e-05,166.57,1.2799e-05,96.17,-2.7149e-21,-2.0399e-14,-1.2799e-05,-96.17,0.0080344
998,1.46,6,0,0.0001091,1090.2,4.0417e-05,50.301,3.3059e-05,-4.9836,-0.00010822,-1066.5,0.0019842
999,2.4333,6,0,7.0312e-05,702.63,2.4555e-05,-84.521,1.2827e-05,-172.64,-7.4271e-05,-827.06,0.0056653
1000,0.48667,6,0,9.3408e-05,933.43,2.9379e-05,-211.58,1.3406e-05,-331.59,-0.00010207,-1199.2,0.00019288
1001,2.92,5.75,0,4.1119e-05,410.91,1.7611e-05,-113.24,-6.3207e-06,-293.06,-4.4964e-05,-583.41,0.0084516
1002,4.7206e-14,5.4,0,8.5006e-05,849.48,1.4006e-06,-804.65,-5.5682e-07,-819.35,-0.00011262,-1661.4,0
1003,1.46,1.5165e-31,0,0.00012359,1235,4.9808e-05,84.537,3.2851e-05,-42.874,-0.00012238,-1209.2,0.002206
1004,0.48667,5.0549e-32,0,0.00010436,1042.9,3.5466e-05,-209.43,1.2616e-05,-381.12,-0.00011334,-1327.5,0.00020823
1005,2.4333,2.5275e-31,0,8.6943e-05,868.83,2.6027e-05,-87.8,2.5157e-05,-94.334,-9.0039e-05,-959.87,0.0065112
1006,2.92,0.25,0,9.0563e-05,905.01,2.8404e-05,-110.85,2.2172e-05,-157.67,-9.504e-05,-1038.4,0.0096793
1007,5.2451e-15,0.6,0,8.5032e-05,849.73,1.3942e-06,-808.21,-8.5201e-07,-825.09,-0.0001128,-1666.2,0
1008,4.8294,0,0,7.9539e-05,794.84,2.9076e-05,47.023,2.575e-05,22.034,-7.8335e-05,-760.02,0.038181
1009,3.6676,0,0,5.3772e-05,537.35,1.7025e-05,-36.184,1.5643e-05,-46.567,-5.5172e-05,-578.65,0.019292
1010,5.9913,0,0,8.9228e-05,891.67,3.0388e-05,16.994,2.9406e-05,9.6127,-8.8773e-05,-878.34,0.059292
1011,7.1531,0,0,8.2517e-05,824.6,2.7604e-05,-2.892,2.6332e-05,-12.447,-8.2773e-05,-832.22,0.082843
1012,8.315,0,0,7.2734e-05,726.84,2.4215e-05,-1.9637,2.3462e-05,-7.6231,-7.2895e-05,-731.61,0.10862
1013,9.4769,0,0,6.2788e-05,627.44,2.0766e-05,-0.53807,2.0593e-05,-1.8372,-6.2828e-05,-628.63,0.13636
1014,10.639,0,0,5.3207e-05,531.7,1.7892e-05,3.397,1.7305e-05,-1.016,-5.3165e-05,-530.49,0.16579
1015,11.801,0,0,4.4549e-05,445.18,1.5294e-05,6.9427,1.4332e-05,-0.28204,-4.4431e-05,-441.81,0.19663
1016,12.962,0,0,3.6632e-05,366.07,1.2802e-05,8.5112,1.1655e-05,-0.10692,-3.6481e-05,-361.79,0.22865
1017,14.124,0,0,2.9516e-05,294.95,1.0523e-05,9.4478,9.274e-06,0.065768,-2.9343e-05,-290.09,0.26164
1018,15.286,0,0,2.3199e-05,231.83,8.4879e-06,10.127,7.163e-06,0.17223,-2.3007e-05,-226.51,0.29539
1019,16.448,0,0,1.7662e-05,176.5,6.6892e-06,10.516,5.3181e-06,0.21445,-1.7457e-05,-170.91,0.32975
1020,17.61,0,0,1.2911e-05,129.02,5.1245e-06,10.616,3.746e-06,0.25823,-1.2695e-05,-123.27,0.36455
1021,18.772,0,0,8.9493e-06,89.431,3.7967e-06,10.426,2.4453e-06,0.2725,-8.7239e-06,-83.648,0.39967
1022,19.934,0,0,5.766e-06,57.62,2.7203e-06,10.198,1.3987e-06,0.26845,-5.5234e-06,-51.742,0.435
1023,21.095,0,0,3.3461e-06,33.438,1.8638e-06,9.6351,6.1464e-07,0.24912,-3.0776e-06,-27.493,0.47046
1024,22.257,0,0,1.6822e-06,16.811,1.1958e-06,8.4272,1.0558e-07,0.23602,-1.3777e-06,-10.909,0.50598
1025,23.419,0,0,7.429e-07,7.4239,6.8832e-07,6.3252,-1.1532e-07,0.28699,-4.1484e-07,-1.9635,0.54153
1026,3.0867,0.25,0,4.9564e-05,495.3,1.5824e-05,-96.808,8.1817e-06,-154.23,-5.3584e-05,-618.31,0.010831
1027,24,0.6,0,6.3059e-07,6.3016,6.1206e-07,5.8055,-1.8008e-07,-0.14622,-2.665e-07,-0.79555,0.55924
1028,3.6716e-14,4.2,0,0.00010506,1049.8,5.6237e-07,-1019.3,-9.88e-07,-1031,-0.00013993,-2074.9,0
1029,2.6226e-14,3,0,0.00010591,1058.4,3.6735e-07,-1028.9,-7.7657e-07,-1037.5,-0.00014106,-2091.6,0
1030,1.5735e-14,1.8,0,0.00010166,1015.9,3.6388e-07,-988.07,-8.0578e-07,-996.86,-0.00013542,-2008.3,0
1031,24,1.8,0,1.0378e-06,10.371,9.6289e-07,8.3851,-2.8633e-07,-1.0011,-5.1883e-07,-2.748,0.55912
1032,24,3,0,1.2458e-06,12.45,1.1577e-06,10.062,-3.6157e-07,-1.3531,-6.0913e-07,-3.2132,0.55897
1033,24,4.2,0,1.0377e-06,10.37,9.6267e-07,8.3819,-2.8576e-07,-0.99833,-5.1938e-07,-2.7536,0.55878
1034,24,5.4,0,6.3073e-07,6.3029,6.1227e-07,5.8072,-1.8109e-07,-0.15378,-2.6569e-07,-0.78944,0.55856
1035,23.419,6,0,7.4151e-07,7.41,6.8758e-07,6.3209,-1.1637e-07,0.28033,-4.1286e-07,-1.9474,0.54067
1036,22.257,6,0,1.684e-06,16.828,1.1977e-06,8.4486,1.0529e-07,0.24038,-1.3786e-06,-10.909,0.50513
1037,21.095,6,0,3.3501e-06,33.478,1.8714e-06,9.7242,6.1215e-07,0.26244,-3.0783e-06,-27.466,0.4696
1038,19.934,6,0,5.7669e-06,57.629,2.7316e-06,10.347,1.3926e-06,0.28615,-5.5197e-06,-51.65,0.43414
1039,18.772,6,0,8.9491e-06,89.429,3.8071e-06,10.566,2.4392e-06,0.2871,-8.72e-06,-83.558,0.39881
1040,17.61,6,0,1.2914e-05,129.05,5.1193e-06,10.554,3.7524e-06,0.28374,-1.2699e-05,-123.33,0.36369
1041,16.448,6,0,1.7675e-05,176.63,6.693e-06,10.523,5.3234e-06,0.23205,-1.7469e-05,-171.02,0.32889
1042,15.286,6,0,2.3215e-05,231.99,8.5136e-06,10.332,7.1524e-06,0.10459,-2.3021e-05,-226.61,0.29454
1043,14.124,6,0,2.9525e-05,295.05,1.0546e-05,9.6741,9.2633e-06,0.037988,-2.9348e-05,-290.07,0.26078
1044,12.962,6,0,3.6636e-05,366.1,1.2802e-05,8.5146,1.166e-05,-0.068174,-3.6484e-05,-361.8,0.2278
1045,11.801,6,0,4.4558e-05,445.28,1.5307e-05,6.9196,1.4316e-05,-0.52642,-4.4445e-05,-442.03,0.19577
1046,10.639,6,0,5.3303e-05,532.66,1.7888e-05,2.8517,1.7347e-05,-1.2184,-5.3274e-05,-531.84,0.16493
1047,9.4769,6,0,6.2882e-05,628.38,2.0852e-05,-1.9373,2.0404e-05,-5.3027,-6.3004e-05,-632,0.13551
1048,8.315,6,0,7.3325e-05,732.75,2.4816e-05,-0.97308,2.3057e-05,-14.188,-7.3574e-05,-740.24,0.10778
1049,7.1531,6,0,8.4613e-05,845.54,2.8591e-05,8.6334,2.7582e-05,1.0509,-8.4445e-05,-840.68,0.082022
1050,5.9913,6,0,8.9274e-05,892.13,3.1166e-05,24.361,2.8798e-05,6.5675,-8.8735e-05,-876.53,0.058541
1051,4.8294,6,0,7.6213e-05,761.6,2.6709e-05,3.4239,2.2795e-05,-25.986,-7.6554e-05,-772.45,0.037537
1052,3.6676,6,0,5.3448e-05,534.11,1.8578e-05,-40.602,1.2197e-05,-88.543,-5.5483e-05,-597.07,0.018641
1053,3.0867,5.75,0,3.5582e-05,355.58,1.4826e-05,-71.509,-1.4251e-06,-193.62,-3.8483e-05,-472.05,0.010252
1054,2.92,1.25,0,0.00023629,2361.3,9.1266e-05,-68.465,4.7789e-05,-395.13,-0.00024248,-2576.1,0.011322
1055,2.92,1.75,0,0.00032453,3243,0.00013553,-130.3,4.2106e-05,-832.29,-0.00033515,-3666.8,0.01207
1056,2.92,0.75,0,0.00015586,1557.5,5.0244e-05,-110,4.3328e-05,-161.96,-0.00016042,-1692.9,0.010505
1057,3.0033,2,0,0.00036563,3653.8,0.00014214,-251.49,5.7757e-05,-885.49,-0.00038082,-4180.8,0.013256
1058,3.0867,0.75,0,8.9461e-05,894,2.8954e-05,-74.687,2.3593e-05,-114.97,-9.262e-05,-988.15,0.011752
1059,3.0867,1.25,0,0.00016483,1647.2,7.1421e-05,127.29,3.5859e-05,-139.92,-0.00016341,-1637.2,0.01274
1060,3.0867,1.75,0,0.00028321,2830.2,8.8193e-05,-202.1,8.3859e-05,-234.67,-0.00029063,-3048.4,0.013735
1061,2.92,4.75,0,0.00016271,1626,0.00011305,813.18,1.6779e-05,89.858,-0.00013479,-1049,0.010379
1062,2.92,4.25,0,0.00033871,3384.7,0.00016428,463.36,5.9384e-05,-324.81,-0.00032939,-3245.9,0.011621
1063,2.92,5.25,0,7.8876e-05,788.21,4.2819e-05,166.75,1.0398e-05,-76.85,-7.4469e-05,-714.51,0.0093438
1064,3.0033,4,0,0.00046649,4661.7,0.00020263,-82.884,5.541e-05,-1189,-0.00047818,-5198.2,0.013143
1065,3.0867,5.25,0,6.7667e-05,676.2,3.1775e-05,37.586,8.281e-06,-138.94,-6.7639e-05,-709.37,0.011291
1066,3.0867,4.75,0,0.00014524,1451.4,8.596e-05,439.59,1.7799e-05,-72.536,-0.00013204,-1198.4,0.012424
1067,3.0867,4.25,0,0.00028284,2826.4,0.00012206,-15.322,3.8828e-05,-640.72,-0.00028875,-3102,0.013595
