Node Number	X Location (in)	Y Location (in)	Z Location (in)	Minimum Principal Stress (psi)
1	5.2	2.1818	0.	-16950
2	5.2	2.3636	0.	-13480
3	5.2	2.5455	0.	-11899
4	5.2	2.7273	0.	-11096
5	5.2	2.9091	0.	-10754
6	5.2	3.0909	0.	-10754
7	5.2	3.2727	0.	-11096
8	5.2	3.4545	0.	-11899
9	5.2	3.6364	0.	-13480
10	5.2	3.8182	0.	-16950
11	5.3667	2.1818	0.	-16866
12	5.3667	2.3636	0.	-13421
13	5.3667	2.5455	0.	-11844
14	5.3667	2.7273	0.	-11044
15	5.3667	2.9091	0.	-10702
16	5.3667	3.0909	0.	-10702
17	5.3667	3.2727	0.	-11044
18	5.3667	3.4545	0.	-11844
19	5.3667	3.6364	0.	-13421
20	5.3667	3.8182	0.	-16866
21	5.0207	5.8182	0.	-1001.5
22	5.0207	5.6364	0.	-1389.3
23	5.0207	5.4545	0.	-1828.9
24	5.0207	5.2727	0.	-2293.2
25	5.0207	5.0909	0.	-2800.4
26	5.0207	4.9091	0.	-3381.6
27	5.0207	4.7273	0.	-4086.4
28	5.0207	4.5455	0.	-5026.9
29	5.0207	4.3636	0.	-6376.3
30	5.0207	4.1818	0.	-9056.5
31	5.0207	4.	0.	-12629
32	5.0207	3.8182	0.	-12713
33	5.0207	3.6364	0.	-11981
34	5.0207	3.4545	0.	-11126
35	5.0207	3.2727	0.	-10627
36	5.0207	3.0909	0.	-10389
37	5.0207	2.9091	0.	-10389
38	5.0207	2.7273	0.	-10627
39	5.0207	2.5455	0.	-11126
40	5.0207	2.3636	0.	-11981
41	5.0207	2.1818	0.	-12713
42	5.0207	2.	0.	-12629
43	5.0207	1.8182	0.	-9056.5
44	5.0207	1.6364	0.	-6376.3
45	5.0207	1.4545	0.	-5026.9
46	5.0207	1.2727	0.	-4086.4
47	5.0207	1.0909	0.	-3381.6
48	5.0207	0.90909	0.	-2800.4
49	5.0207	0.72727	0.	-2293.2
50	5.0207	0.54545	0.	-1828.9
51	5.0207	0.36364	0.	-1389.3
52	5.0207	0.18182	0.	-1001.5
53	4.8414	5.8182	0.	-1559.
54	4.8414	5.6364	0.	-1774.8
55	4.8414	5.4545	0.	-2105.6
56	4.8414	5.2727	0.	-2502.7
57	4.8414	5.0909	0.	-2961.9
58	4.8414	4.9091	0.	-3499.9
59	4.8414	4.7273	0.	-4154.
60	4.8414	4.5455	0.	-4979.4
61	4.8414	4.3636	0.	-6071.3
62	4.8414	4.1818	0.	-7459.9
63	4.8414	4.	0.	-8762.1
64	4.8414	3.8182	0.	-9769.3
65	4.8414	3.6364	0.	-10060
66	4.8414	3.4545	0.	-9977.3
67	4.8414	3.2727	0.	-9823.7
68	4.8414	3.0909	0.	-9728.9
69	4.8414	2.9091	0.	-9728.9
70	4.8414	2.7273	0.	-9823.7
71	4.8414	2.5455	0.	-9977.3
72	4.8414	2.3636	0.	-10060
73	4.8414	2.1818	0.	-9769.3
74	4.8414	2.	0.	-8762.1
75	4.8414	1.8182	0.	-7459.9
76	4.8414	1.6364	0.	-6071.3
77	4.8414	1.4545	0.	-4979.4
78	4.8414	1.2727	0.	-4154.
79	4.8414	1.0909	0.	-3499.9
80	4.8414	0.90909	0.	-2961.9
81	4.8414	0.72727	0.	-2502.7
82	4.8414	0.54545	0.	-2105.6
83	4.8414	0.36364	0.	-1774.8
84	4.8414	0.18182	0.	-1559.
85	4.6621	5.8182	0.	-2136.8
86	4.6621	5.6364	0.	-2286.
87	4.6621	5.4545	0.	-2541.
88	4.6621	5.2727	0.	-2875.7
89	4.6621	5.0909	0.	-3283.4
90	4.6621	4.9091	0.	-3769.4
91	4.6621	4.7273	0.	-4348.9
92	4.6621	4.5455	0.	-5043.9
93	4.6621	4.3636	0.	-5852.3
94	4.6621	4.1818	0.	-6734.4
95	4.6621	4.	0.	-7588.2
96	4.6621	3.8182	0.	-8265.6
97	4.6621	3.6364	0.	-8701.4
98	4.6621	3.4545	0.	-8895.1
99	4.6621	3.2727	0.	-8952.7
100	4.6621	3.0909	0.	-8961.3
101	4.6621	2.9091	0.	-8961.3
102	4.6621	2.7273	0.	-8952.7
103	4.6621	2.5455	0.	-8895.1
104	4.6621	2.3636	0.	-8701.4
105	4.6621	2.1818	0.	-8265.6
106	4.6621	2.	0.	-7588.2
107	4.6621	1.8182	0.	-6734.4
108	4.6621	1.6364	0.	-5852.3
109	4.6621	1.4545	0.	-5043.9
110	4.6621	1.2727	0.	-4348.9
111	4.6621	1.0909	0.	-3769.4
112	4.6621	0.90909	0.	-3283.4
113	4.6621	0.72727	0.	-2875.7
114	4.6621	0.54545	0.	-2541.
115	4.6621	0.36364	0.	-2286.
116	4.6621	0.18182	0.	-2136.8
117	4.4828	5.8182	0.	-2670.4
118	4.4828	5.6364	0.	-2788.9
119	4.4828	5.4545	0.	-2993.7
120	4.4828	5.2727	0.	-3271.8
121	4.4828	5.0909	0.	-3619.2
122	4.4828	4.9091	0.	-4035.1
123	4.4828	4.7273	0.	-4520.8
124	4.4828	4.5455	0.	-5073.7
125	4.4828	4.3636	0.	-5679.7
126	4.4828	4.1818	0.	-6302.2
127	4.4828	4.	0.	-6894.1
128	4.4828	3.8182	0.	-7403.7
129	4.4828	3.6364	0.	-7789.7
130	4.4828	3.4545	0.	-8038.8
131	4.4828	3.2727	0.	-8173.8
132	4.4828	3.0909	0.	-8230.2
133	4.4828	2.9091	0.	-8230.2
134	4.4828	2.7273	0.	-8173.8
135	4.4828	2.5455	0.	-8038.8
136	4.4828	2.3636	0.	-7789.7
137	4.4828	2.1818	0.	-7403.7
138	4.4828	2.	0.	-6894.1
139	4.4828	1.8182	0.	-6302.2
140	4.4828	1.6364	0.	-5679.7
141	4.4828	1.4545	0.	-5073.7
142	4.4828	1.2727	0.	-4520.8
143	4.4828	1.0909	0.	-4035.1
144	4.4828	0.90909	0.	-3619.2
145	4.4828	0.72727	0.	-3271.8
146	4.4828	0.54545	0.	-2993.7
147	4.4828	0.36364	0.	-2788.9
148	4.4828	0.18182	0.	-2670.4
149	4.3034	5.8182	0.	-3151.2
150	4.3034	5.6364	0.	-3250.7
151	4.3034	5.4545	0.	-3419.3
152	4.3034	5.2727	0.	-3649.
153	4.3034	5.0909	0.	-3937.2
154	4.3034	4.9091	0.	-4280.5
155	4.3034	4.7273	0.	-4673.7
156	4.3034	4.5455	0.	-5107.5
157	4.3034	4.3636	0.	-5565.6
158	4.3034	4.1818	0.	-6025.5
159	4.3034	4.	0.	-6461.4
160	4.3034	3.8182	0.	-6848.2
161	4.3034	3.6364	0.	-7163.1
162	4.3034	3.4545	0.	-7392.4
163	4.3034	3.2727	0.	-7536.7
164	4.3034	3.0909	0.	-7604.9
165	4.3034	2.9091	0.	-7604.9
166	4.3034	2.7273	0.	-7536.7
167	4.3034	2.5455	0.	-7392.4
168	4.3034	2.3636	0.	-7163.1
169	4.3034	2.1818	0.	-6848.2
170	4.3034	2.	0.	-6461.4
171	4.3034	1.8182	0.	-6025.5
172	4.3034	1.6364	0.	-5565.6
173	4.3034	1.4545	0.	-5107.5
174	4.3034	1.2727	0.	-4673.7
175	4.3034	1.0909	0.	-4280.5
176	4.3034	0.90909	0.	-3937.2
177	4.3034	0.72727	0.	-3649.
178	4.3034	0.54545	0.	-3419.3
179	4.3034	0.36364	0.	-3250.7
180	4.3034	0.18182	0.	-3151.2
181	4.1241	5.8182	0.	-3577.
182	4.1241	5.6364	0.	-3661.1
183	4.1241	5.4545	0.	-3800.5
184	4.1241	5.2727	0.	-3988.7
185	4.1241	5.0909	0.	-4223.3
186	4.1241	4.9091	0.	-4500.
187	4.1241	4.7273	0.	-4812.1
188	4.1241	4.5455	0.	-5149.5
189	4.1241	4.3636	0.	-5499.3
190	4.1241	4.1818	0.	-5846.3
191	4.1241	4.	0.	-6175.1
192	4.1241	3.8182	0.	-6470.8
193	4.1241	3.6364	0.	-6719.6
194	4.1241	3.4545	0.	-6910.6
195	4.1241	3.2727	0.	-7038.
196	4.1241	3.0909	0.	-7101.2
197	4.1241	2.9091	0.	-7101.2
198	4.1241	2.7273	0.	-7038.
199	4.1241	2.5455	0.	-6910.6
200	4.1241	2.3636	0.	-6719.6
201	4.1241	2.1818	0.	-6470.8
202	4.1241	2.	0.	-6175.1
203	4.1241	1.8182	0.	-5846.3
204	4.1241	1.6364	0.	-5499.3
205	4.1241	1.4545	0.	-5149.5
206	4.1241	1.2727	0.	-4812.1
207	4.1241	1.0909	0.	-4500.
208	4.1241	0.90909	0.	-4223.3
209	4.1241	0.72727	0.	-3988.7
210	4.1241	0.54545	0.	-3800.5
211	4.1241	0.36364	0.	-3661.1
212	4.1241	0.18182	0.	-3577.
213	3.9448	5.8182	0.	-3949.7
214	3.9448	5.6364	0.	-4019.7
215	3.9448	5.4545	0.	-4133.7
216	3.9448	5.2727	0.	-4285.9
217	3.9448	5.0909	0.	-4473.9
218	3.9448	4.9091	0.	-4693.3
219	3.9448	4.7273	0.	-4937.9
220	3.9448	4.5455	0.	-5199.1
221	3.9448	4.3636	0.	-5467.
222	3.9448	4.1818	0.	-5731.2
223	3.9448	4.	0.	-5981.4
224	3.9448	3.8182	0.	-6208.
225	3.9448	3.6364	0.	-6401.5
226	3.9448	3.4545	0.	-6553.3
227	3.9448	3.2727	0.	-6657.3
228	3.9448	3.0909	0.	-6709.9
229	3.9448	2.9091	0.	-6709.9
230	3.9448	2.7273	0.	-6657.3
231	3.9448	2.5455	0.	-6553.3
232	3.9448	2.3636	0.	-6401.5
233	3.9448	2.1818	0.	-6208.
234	3.9448	2.	0.	-5981.4
235	3.9448	1.8182	0.	-5731.2
236	3.9448	1.6364	0.	-5467.
237	3.9448	1.4545	0.	-5199.1
238	3.9448	1.2727	0.	-4937.9
239	3.9448	1.0909	0.	-4693.3
240	3.9448	0.90909	0.	-4473.9
241	3.9448	0.72727	0.	-4285.9
242	3.9448	0.54545	0.	-4133.7
243	3.9448	0.36364	0.	-4019.7
244	3.9448	0.18182	0.	-3949.7
245	3.7655	5.8182	0.	-4273.5
246	3.7655	5.6364	0.	-4329.8
247	3.7655	5.4545	0.	-4421.4
248	3.7655	5.2727	0.	-4542.5
249	3.7655	5.0909	0.	-4690.8
250	3.7655	4.9091	0.	-4862.5
251	3.7655	4.7273	0.	-5052.2
252	3.7655	4.5455	0.	-5253.2
253	3.7655	4.3636	0.	-5458.2
254	3.7655	4.1818	0.	-5659.7
255	3.7655	4.	0.	-5850.6
256	3.7655	3.8182	0.	-6023.7
257	3.7655	3.6364	0.	-6172.4
258	3.7655	3.4545	0.	-6290.2
259	3.7655	3.2727	0.	-6371.8
260	3.7655	3.0909	0.	-6413.5
261	3.7655	2.9091	0.	-6413.5
262	3.7655	2.7273	0.	-6371.8
263	3.7655	2.5455	0.	-6290.2
264	3.7655	2.3636	0.	-6172.4
265	3.7655	2.1818	0.	-6023.7
266	3.7655	2.	0.	-5850.6
267	3.7655	1.8182	0.	-5659.7
268	3.7655	1.6364	0.	-5458.2
269	3.7655	1.4545	0.	-5253.2
270	3.7655	1.2727	0.	-5052.2
271	3.7655	1.0909	0.	-4862.5
272	3.7655	0.90909	0.	-4690.8
273	3.7655	0.72727	0.	-4542.5
274	3.7655	0.54545	0.	-4421.4
275	3.7655	0.36364	0.	-4329.8
276	3.7655	0.18182	0.	-4273.5
277	3.5862	5.8182	0.	-4553.5
278	3.5862	5.6364	0.	-4596.9
279	3.5862	5.4545	0.	-4668.6
280	3.5862	5.2727	0.	-4763.1
281	3.5862	5.0909	0.	-4878.2
282	3.5862	4.9091	0.	-5010.7
283	3.5862	4.7273	0.	-5156.2
284	3.5862	4.5455	0.	-5309.8
285	3.5862	4.3636	0.	-5465.9
286	3.5862	4.1818	0.	-5619.2
287	3.5862	4.	0.	-5764.3
288	3.5862	3.8182	0.	-5896.
289	3.5862	3.6364	0.	-6009.2
290	3.5862	3.4545	0.	-6099.3
291	3.5862	3.2727	0.	-6161.9
292	3.5862	3.0909	0.	-6194.
293	3.5862	2.9091	0.	-6194.
294	3.5862	2.7273	0.	-6161.9
295	3.5862	2.5455	0.	-6099.3
296	3.5862	2.3636	0.	-6009.2
297	3.5862	2.1818	0.	-5896.
298	3.5862	2.	0.	-5764.3
299	3.5862	1.8182	0.	-5619.2
300	3.5862	1.6364	0.	-5465.9
301	3.5862	1.4545	0.	-5309.8
302	3.5862	1.2727	0.	-5156.2
303	3.5862	1.0909	0.	-5010.7
304	3.5862	0.90909	0.	-4878.2
305	3.5862	0.72727	0.	-4763.1
306	3.5862	0.54545	0.	-4668.6
307	3.5862	0.36364	0.	-4596.9
308	3.5862	0.18182	0.	-4553.5
309	3.4069	5.8182	0.	-4795.4
310	3.4069	5.6364	0.	-4826.7
311	3.4069	5.4545	0.	-4881.
312	3.4069	5.2727	0.	-4952.9
313	3.4069	5.0909	0.	-5040.4
314	3.4069	4.9091	0.	-5140.9
315	3.4069	4.7273	0.	-5251.2
316	3.4069	4.5455	0.	-5367.4
317	3.4069	4.3636	0.	-5485.4
318	3.4069	4.1818	0.	-5601.2
319	3.4069	4.	0.	-5710.8
320	3.4069	3.8182	0.	-5810.3
321	3.4069	3.6364	0.	-5895.9
322	3.4069	3.4545	0.	-5964.
323	3.4069	3.2727	0.	-6011.3
324	3.4069	3.0909	0.	-6035.7
325	3.4069	2.9091	0.	-6035.7
326	3.4069	2.7273	0.	-6011.3
327	3.4069	2.5455	0.	-5964.
328	3.4069	2.3636	0.	-5895.9
329	3.4069	2.1818	0.	-5810.3
330	3.4069	2.	0.	-5710.8
331	3.4069	1.8182	0.	-5601.2
332	3.4069	1.6364	0.	-5485.4
333	3.4069	1.4545	0.	-5367.4
334	3.4069	1.2727	0.	-5251.2
335	3.4069	1.0909	0.	-5140.9
336	3.4069	0.90909	0.	-5040.4
337	3.4069	0.72727	0.	-4952.9
338	3.4069	0.54545	0.	-4881.
339	3.4069	0.36364	0.	-4826.7
340	3.4069	0.18182	0.	-4795.4
341	3.2276	5.8182	0.	-5004.7
342	3.2276	5.6364	0.	-5024.8
343	3.2276	5.4545	0.	-5064.
344	3.2276	5.2727	0.	-5116.9
345	3.2276	5.0909	0.	-5181.7
346	3.2276	4.9091	0.	-5256.4
347	3.2276	4.7273	0.	-5338.5
348	3.2276	4.5455	0.	-5425.2
349	3.2276	4.3636	0.	-5513.5
350	3.2276	4.1818	0.	-5600.2
351	3.2276	4.	0.	-5682.3
352	3.2276	3.8182	0.	-5757.
353	3.2276	3.6364	0.	-5821.1
354	3.2276	3.4545	0.	-5872.2
355	3.2276	3.2727	0.	-5907.7
356	3.2276	3.0909	0.	-5925.9
357	3.2276	2.9091	0.	-5925.9
358	3.2276	2.7273	0.	-5907.7
359	3.2276	2.5455	0.	-5872.2
360	3.2276	2.3636	0.	-5821.1
361	3.2276	2.1818	0.	-5757.
362	3.2276	2.	0.	-5682.3
363	3.2276	1.8182	0.	-5600.2
364	3.2276	1.6364	0.	-5513.5
365	3.2276	1.4545	0.	-5425.2
366	3.2276	1.2727	0.	-5338.5
367	3.2276	1.0909	0.	-5256.4
368	3.2276	0.90909	0.	-5181.7
369	3.2276	0.72727	0.	-5116.9
370	3.2276	0.54545	0.	-5064.
371	3.2276	0.36364	0.	-5024.8
372	3.2276	0.18182	0.	-5004.7
373	3.0483	5.8182	0.	-5186.4
374	3.0483	5.6364	0.	-5196.3
375	3.0483	5.4545	0.	-5222.5
376	3.0483	5.2727	0.	-5259.4
377	3.0483	5.0909	0.	-5305.6
378	3.0483	4.9091	0.	-5359.6
379	3.0483	4.7273	0.	-5419.5
380	3.0483	4.5455	0.	-5483.1
381	3.0483	4.3636	0.	-5548.1
382	3.0483	4.1818	0.	-5612.3
383	3.0483	4.	0.	-5673.4
384	3.0483	3.8182	0.	-5728.9
385	3.0483	3.6364	0.	-5776.7
386	3.0483	3.4545	0.	-5814.7
387	3.0483	3.2727	0.	-5841.2
388	3.0483	3.0909	0.	-5854.8
389	3.0483	2.9091	0.	-5854.8
390	3.0483	2.7273	0.	-5841.2
391	3.0483	2.5455	0.	-5814.7
392	3.0483	2.3636	0.	-5776.7
393	3.0483	2.1818	0.	-5728.9
394	3.0483	2.	0.	-5673.4
395	3.0483	1.8182	0.	-5612.3
396	3.0483	1.6364	0.	-5548.1
397	3.0483	1.4545	0.	-5483.1
398	3.0483	1.2727	0.	-5419.5
399	3.0483	1.0909	0.	-5359.6
400	3.0483	0.90909	0.	-5305.6
401	3.0483	0.72727	0.	-5259.4
402	3.0483	0.54545	0.	-5222.5
403	3.0483	0.36364	0.	-5196.3
404	3.0483	0.18182	0.	-5186.4
405	2.869	5.8182	0.	-5344.9
406	2.869	5.6364	0.	-5345.6
407	2.869	5.4545	0.	-5360.6
408	2.869	5.2727	0.	-5384.3
409	2.869	5.0909	0.	-5415.4
410	2.869	4.9091	0.	-5452.8
411	2.869	4.7273	0.	-5495.1
412	2.869	4.5455	0.	-5540.8
413	2.869	4.3636	0.	-5588.
414	2.869	4.1818	0.	-5635.
415	2.869	4.	0.	-5680.
416	2.869	3.8182	0.	-5721.1
417	2.869	3.6364	0.	-5756.6
418	2.869	3.4545	0.	-5784.9
419	2.869	3.2727	0.	-5804.6
420	2.869	3.0909	0.	-5814.7
421	2.869	2.9091	0.	-5814.7
422	2.869	2.7273	0.	-5804.6
423	2.869	2.5455	0.	-5784.9
424	2.869	2.3636	0.	-5756.6
425	2.869	2.1818	0.	-5721.1
426	2.869	2.	0.	-5680.
427	2.869	1.8182	0.	-5635.
428	2.869	1.6364	0.	-5588.
429	2.869	1.4545	0.	-5540.8
430	2.869	1.2727	0.	-5495.1
431	2.869	1.0909	0.	-5452.8
432	2.869	0.90909	0.	-5415.4
433	2.869	0.72727	0.	-5384.3
434	2.869	0.54545	0.	-5360.6
435	2.869	0.36364	0.	-5345.6
436	2.869	0.18182	0.	-5344.9
437	2.6897	5.8182	0.	-5483.7
438	2.6897	5.6364	0.	-5476.
439	2.6897	5.4545	0.	-5481.6
440	2.6897	5.2727	0.	-5494.3
441	2.6897	5.0909	0.	-5513.3
442	2.6897	4.9091	0.	-5537.7
443	2.6897	4.7273	0.	-5566.4
444	2.6897	4.5455	0.	-5598.4
445	2.6897	4.3636	0.	-5632.2
446	2.6897	4.1818	0.	-5666.3
447	2.6897	4.	0.	-5699.5
448	2.6897	3.8182	0.	-5730.
449	2.6897	3.6364	0.	-5756.5
450	2.6897	3.4545	0.	-5777.7
451	2.6897	3.2727	0.	-5792.5
452	2.6897	3.0909	0.	-5800.2
453	2.6897	2.9091	0.	-5800.2
454	2.6897	2.7273	0.	-5792.5
455	2.6897	2.5455	0.	-5777.7
456	2.6897	2.3636	0.	-5756.5
457	2.6897	2.1818	0.	-5730.
458	2.6897	2.	0.	-5699.5
459	2.6897	1.8182	0.	-5666.3
460	2.6897	1.6364	0.	-5632.2
461	2.6897	1.4545	0.	-5598.4
462	2.6897	1.2727	0.	-5566.4
463	2.6897	1.0909	0.	-5537.7
464	2.6897	0.90909	0.	-5513.3
465	2.6897	0.72727	0.	-5494.3
466	2.6897	0.54545	0.	-5481.6
467	2.6897	0.36364	0.	-5476.
468	2.6897	0.18182	0.	-5483.7
469	2.5103	5.8182	0.	-5605.8
470	2.5103	5.6364	0.	-5590.4
471	2.5103	5.4545	0.	-5588.
472	2.5103	5.2727	0.	-5591.8
473	2.5103	5.0909	0.	-5601.2
474	2.5103	4.9091	0.	-5615.6
475	2.5103	4.7273	0.	-5634.2
476	2.5103	4.5455	0.	-5656.
477	2.5103	4.3636	0.	-5680.
478	2.5103	4.1818	0.	-5705.1
479	2.5103	4.	0.	-5729.8
480	2.5103	3.8182	0.	-5752.9
481	2.5103	3.6364	0.	-5773.2
482	2.5103	3.4545	0.	-5789.5
483	2.5103	3.2727	0.	-5801.
484	2.5103	3.0909	0.	-5806.9
485	2.5103	2.9091	0.	-5806.9
486	2.5103	2.7273	0.	-5801.
487	2.5103	2.5455	0.	-5789.5
488	2.5103	2.3636	0.	-5773.2
489	2.5103	2.1818	0.	-5752.9
490	2.5103	2.	0.	-5729.8
491	2.5103	1.8182	0.	-5705.1
492	2.5103	1.6364	0.	-5680.
493	2.5103	1.4545	0.	-5656.
494	2.5103	1.2727	0.	-5634.2
495	2.5103	1.0909	0.	-5615.6
496	2.5103	0.90909	0.	-5601.2
497	2.5103	0.72727	0.	-5591.8
498	2.5103	0.54545	0.	-5588.
499	2.5103	0.36364	0.	-5590.4
500	2.5103	0.18182	0.	-5605.8
501	2.331	5.8182	0.	-5713.
502	2.331	5.6364	0.	-5690.6
503	2.331	5.4545	0.	-5681.5
504	2.331	5.2727	0.	-5678.3
505	2.331	5.0909	0.	-5680.4
506	2.331	4.9091	0.	-5687.4
507	2.331	4.7273	0.	-5698.8
508	2.331	4.5455	0.	-5713.7
509	2.331	4.3636	0.	-5731.3
510	2.331	4.1818	0.	-5750.3
511	2.331	4.	0.	-5769.7
512	2.331	3.8182	0.	-5788.1
513	2.331	3.6364	0.	-5804.5
514	2.331	3.4545	0.	-5817.8
515	2.331	3.2727	0.	-5827.2
516	2.331	3.0909	0.	-5832.
517	2.331	2.9091	0.	-5832.
518	2.331	2.7273	0.	-5827.2
519	2.331	2.5455	0.	-5817.8
520	2.331	2.3636	0.	-5804.5
521	2.331	2.1818	0.	-5788.1
522	2.331	2.	0.	-5769.7
523	2.331	1.8182	0.	-5750.3
524	2.331	1.6364	0.	-5731.3
525	2.331	1.4545	0.	-5713.7
526	2.331	1.2727	0.	-5698.8
527	2.331	1.0909	0.	-5687.4
528	2.331	0.90909	0.	-5680.4
529	2.331	0.72727	0.	-5678.3
530	2.331	0.54545	0.	-5681.5
531	2.331	0.36364	0.	-5690.6
532	2.331	0.18182	0.	-5713.
533	2.1517	5.8182	0.	-5806.8
534	2.1517	5.6364	0.	-5777.9
535	2.1517	5.4545	0.	-5763.3
536	2.1517	5.2727	0.	-5754.6
537	2.1517	5.0909	0.	-5751.6
538	2.1517	4.9091	0.	-5753.7
539	2.1517	4.7273	0.	-5760.7
540	2.1517	4.5455	0.	-5771.6
541	2.1517	4.3636	0.	-5785.7
542	2.1517	4.1818	0.	-5801.7
543	2.1517	4.	0.	-5818.4
544	2.1517	3.8182	0.	-5834.6
545	2.1517	3.6364	0.	-5849.1
546	2.1517	3.4545	0.	-5861.
547	2.1517	3.2727	0.	-5869.4
548	2.1517	3.0909	0.	-5873.7
549	2.1517	2.9091	0.	-5873.7
550	2.1517	2.7273	0.	-5869.4
551	2.1517	2.5455	0.	-5861.
552	2.1517	2.3636	0.	-5849.1
553	2.1517	2.1818	0.	-5834.6
554	2.1517	2.	0.	-5818.4
555	2.1517	1.8182	0.	-5801.7
556	2.1517	1.6364	0.	-5785.7
557	2.1517	1.4545	0.	-5771.6
558	2.1517	1.2727	0.	-5760.7
559	2.1517	1.0909	0.	-5753.7
560	2.1517	0.90909	0.	-5751.6
561	2.1517	0.72727	0.	-5754.6
562	2.1517	0.54545	0.	-5763.3
563	2.1517	0.36364	0.	-5777.9
564	2.1517	0.18182	0.	-5806.8
565	1.9724	5.8182	0.	-5887.4
566	1.9724	5.6364	0.	-5852.4
567	1.9724	5.4545	0.	-5833.4
568	1.9724	5.2727	0.	-5821.1
569	1.9724	5.0909	0.	-5814.9
570	1.9724	4.9091	0.	-5814.7
571	1.9724	4.7273	0.	-5820.
572	1.9724	4.5455	0.	-5829.9
573	1.9724	4.3636	0.	-5843.4
574	1.9724	4.1818	0.	-5859.1
575	1.9724	4.	0.	-5875.7
576	1.9724	3.8182	0.	-5891.9
577	1.9724	3.6364	0.	-5906.4
578	1.9724	3.4545	0.	-5918.3
579	1.9724	3.2727	0.	-5926.7
580	1.9724	3.0909	0.	-5931.
581	1.9724	2.9091	0.	-5931.
582	1.9724	2.7273	0.	-5926.7
583	1.9724	2.5455	0.	-5918.3
584	1.9724	2.3636	0.	-5906.4
585	1.9724	2.1818	0.	-5891.9
586	1.9724	2.	0.	-5875.7
587	1.9724	1.8182	0.	-5859.1
588	1.9724	1.6364	0.	-5843.4
589	1.9724	1.4545	0.	-5829.9
590	1.9724	1.2727	0.	-5820.
591	1.9724	1.0909	0.	-5814.7
592	1.9724	0.90909	0.	-5814.9
593	1.9724	0.72727	0.	-5821.1
594	1.9724	0.54545	0.	-5833.4
595	1.9724	0.36364	0.	-5852.4
596	1.9724	0.18182	0.	-5887.4
597	1.7931	5.8182	0.	-5954.3
598	1.7931	5.6364	0.	-5913.5
599	1.7931	5.4545	0.	-5891.5
600	1.7931	5.2727	0.	-5877.2
601	1.7931	5.0909	0.	-5870.3
602	1.7931	4.9091	0.	-5870.4
603	1.7931	4.7273	0.	-5877.
604	1.7931	4.5455	0.	-5888.9
605	1.7931	4.3636	0.	-5904.7
606	1.7931	4.1818	0.	-5922.8
607	1.7931	4.	0.	-5941.8
608	1.7931	3.8182	0.	-5960.1
609	1.7931	3.6364	0.	-5976.3
610	1.7931	3.4545	0.	-5989.5
611	1.7931	3.2727	0.	-5998.7
612	1.7931	3.0909	0.	-6003.4
613	1.7931	2.9091	0.	-6003.4
614	1.7931	2.7273	0.	-5998.7
615	1.7931	2.5455	0.	-5989.5
616	1.7931	2.3636	0.	-5976.3
617	1.7931	2.1818	0.	-5960.1
618	1.7931	2.	0.	-5941.8
619	1.7931	1.8182	0.	-5922.8
620	1.7931	1.6364	0.	-5904.7
621	1.7931	1.4545	0.	-5888.9
622	1.7931	1.2727	0.	-5877.
623	1.7931	1.0909	0.	-5870.4
624	1.7931	0.90909	0.	-5870.3
625	1.7931	0.72727	0.	-5877.2
626	1.7931	0.54545	0.	-5891.5
627	1.7931	0.36364	0.	-5913.5
628	1.7931	0.18182	0.	-5954.3
629	1.6138	5.8182	0.	-6005.8
630	1.6138	5.6364	0.	-5959.6
631	1.6138	5.4545	0.	-5936.
632	1.6138	5.2727	0.	-5921.9
633	1.6138	5.0909	0.	-5917.
634	1.6138	4.9091	0.	-5920.6
635	1.6138	4.7273	0.	-5931.9
636	1.6138	4.5455	0.	-5949.1
637	1.6138	4.3636	0.	-5970.4
638	1.6138	4.1818	0.	-5993.9
639	1.6138	4.	0.	-6017.6
640	1.6138	3.8182	0.	-6039.9
641	1.6138	3.6364	0.	-6059.4
642	1.6138	3.4545	0.	-6075.
643	1.6138	3.2727	0.	-6085.8
644	1.6138	3.0909	0.	-6091.4
645	1.6138	2.9091	0.	-6091.4
646	1.6138	2.7273	0.	-6085.8
647	1.6138	2.5455	0.	-6075.
648	1.6138	2.3636	0.	-6059.4
649	1.6138	2.1818	0.	-6039.9
650	1.6138	2.	0.	-6017.6
651	1.6138	1.8182	0.	-5993.9
652	1.6138	1.6364	0.	-5970.4
653	1.6138	1.4545	0.	-5949.1
654	1.6138	1.2727	0.	-5931.9
655	1.6138	1.0909	0.	-5920.6
656	1.6138	0.90909	0.	-5917.
657	1.6138	0.72727	0.	-5921.9
658	1.6138	0.54545	0.	-5936.
659	1.6138	0.36364	0.	-5959.6
660	1.6138	0.18182	0.	-6005.8
661	1.4345	5.8182	0.	-6038.5
662	1.4345	5.6364	0.	-5987.5
663	1.4345	5.4545	0.	-5964.2
664	1.4345	5.2727	0.	-5953.2
665	1.4345	5.0909	0.	-5953.9
666	1.4345	4.9091	0.	-5965.2
667	1.4345	4.7273	0.	-5985.3
668	1.4345	4.5455	0.	-6011.7
669	1.4345	4.3636	0.	-6042.1
670	1.4345	4.1818	0.	-6073.8
671	1.4345	4.	0.	-6104.6
672	1.4345	3.8182	0.	-6132.8
673	1.4345	3.6364	0.	-6156.9
674	1.4345	3.4545	0.	-6175.8
675	1.4345	3.2727	0.	-6188.8
676	1.4345	3.0909	0.	-6195.4
677	1.4345	2.9091	0.	-6195.4
678	1.4345	2.7273	0.	-6188.8
679	1.4345	2.5455	0.	-6175.8
680	1.4345	2.3636	0.	-6156.9
681	1.4345	2.1818	0.	-6132.8
682	1.4345	2.	0.	-6104.6
683	1.4345	1.8182	0.	-6073.8
684	1.4345	1.6364	0.	-6042.1
685	1.4345	1.4545	0.	-6011.7
686	1.4345	1.2727	0.	-5985.2
687	1.4345	1.0909	0.	-5965.2
688	1.4345	0.90909	0.	-5953.9
689	1.4345	0.72727	0.	-5953.2
690	1.4345	0.54545	0.	-5964.2
691	1.4345	0.36364	0.	-5987.5
692	1.4345	0.18182	0.	-6038.5
693	1.2552	5.8182	0.	-6046.8
694	1.2552	5.6364	0.	-5992.
695	1.2552	5.4545	0.	-5971.9
696	1.2552	5.2727	0.	-5968.4
697	1.2552	5.0909	0.	-5979.9
698	1.2552	4.9091	0.	-6004.3
699	1.2552	4.7273	0.	-6038.5
700	1.2552	4.5455	0.	-6078.9
701	1.2552	4.3636	0.	-6122.
702	1.2552	4.1818	0.	-6164.8
703	1.2552	4.	0.	-6204.9
704	1.2552	3.8182	0.	-6240.4
705	1.2552	3.6364	0.	-6270.1
706	1.2552	3.4545	0.	-6293.1
707	1.2552	3.2727	0.	-6308.6
708	1.2552	3.0909	0.	-6316.5
709	1.2552	2.9091	0.	-6316.5
710	1.2552	2.7273	0.	-6308.6
711	1.2552	2.5455	0.	-6293.1
712	1.2552	2.3636	0.	-6270.1
713	1.2552	2.1818	0.	-6240.4
714	1.2552	2.	0.	-6204.9
715	1.2552	1.8182	0.	-6164.8
716	1.2552	1.6364	0.	-6122.
717	1.2552	1.4545	0.	-6078.9
718	1.2552	1.2727	0.	-6038.5
719	1.2552	1.0909	0.	-6004.3
720	1.2552	0.90909	0.	-5979.9
721	1.2552	0.72727	0.	-5968.4
722	1.2552	0.54545	0.	-5971.9
723	1.2552	0.36364	0.	-5992.
724	1.2552	0.18182	0.	-6046.8
725	1.0759	5.8182	0.	-6021.7
726	1.0759	5.6364	0.	-5965.1
727	1.0759	5.4545	0.	-5953.5
728	1.0759	5.2727	0.	-5964.3
729	1.0759	5.0909	0.	-5994.5
730	1.0759	4.9091	0.	-6039.8
731	1.0759	4.7273	0.	-6094.8
732	1.0759	4.5455	0.	-6154.4
733	1.0759	4.3636	0.	-6214.1
734	1.0759	4.1818	0.	-6270.7
735	1.0759	4.	0.	-6321.6
736	1.0759	3.8182	0.	-6365.5
737	1.0759	3.6364	0.	-6401.4
738	1.0759	3.4545	0.	-6428.6
739	1.0759	3.2727	0.	-6446.8
740	1.0759	3.0909	0.	-6456.
741	1.0759	2.9091	0.	-6456.
742	1.0759	2.7273	0.	-6446.8
743	1.0759	2.5455	0.	-6428.6
744	1.0759	2.3636	0.	-6401.4
745	1.0759	2.1818	0.	-6365.5
746	1.0759	2.	0.	-6321.6
747	1.0759	1.8182	0.	-6270.7
748	1.0759	1.6364	0.	-6214.1
749	1.0759	1.4545	0.	-6154.4
750	1.0759	1.2727	0.	-6094.8
751	1.0759	1.0909	0.	-6039.8
752	1.0759	0.90909	0.	-5994.5
753	1.0759	0.72727	0.	-5964.3
754	1.0759	0.54545	0.	-5953.5
755	1.0759	0.36364	0.	-5965.1
756	1.0759	0.18182	0.	-6021.7
757	0.89655	5.8182	0.	-5947.5
758	0.89655	5.6364	0.	-5893.6
759	0.89655	5.4545	0.	-5899.5
760	0.89655	5.2727	0.	-5936.5
761	0.89655	5.0909	0.	-5997.8
762	0.89655	4.9091	0.	-6074.8
763	0.89655	4.7273	0.	-6158.9
764	0.89655	4.5455	0.	-6243.3
765	0.89655	4.3636	0.	-6323.
766	0.89655	4.1818	0.	-6395.
767	0.89655	4.	0.	-6457.5
768	0.89655	3.8182	0.	-6509.9
769	0.89655	3.6364	0.	-6551.6
770	0.89655	3.4545	0.	-6582.8
771	0.89655	3.2727	0.	-6603.5
772	0.89655	3.0909	0.	-6613.8
773	0.89655	2.9091	0.	-6613.8
774	0.89655	2.7273	0.	-6603.5
775	0.89655	2.5455	0.	-6582.8
776	0.89655	2.3636	0.	-6551.6
777	0.89655	2.1818	0.	-6509.9
778	0.89655	2.	0.	-6457.5
779	0.89655	1.8182	0.	-6395.
780	0.89655	1.6364	0.	-6323.
781	0.89655	1.4545	0.	-6243.3
782	0.89655	1.2727	0.	-6158.9
783	0.89655	1.0909	0.	-6074.7
784	0.89655	0.90909	0.	-5997.8
785	0.89655	0.72727	0.	-5936.5
786	0.89655	0.54545	0.	-5899.5
787	0.89655	0.36364	0.	-5893.6
788	0.89655	0.18182	0.	-5947.5
789	0.71724	5.8182	0.	-5799.4
790	0.71724	5.6364	0.	-5759.7
791	0.71724	5.4545	0.	-5802.5
792	0.71724	5.2727	0.	-5887.8
793	0.71724	5.0909	0.	-5999.9
794	0.71724	4.9091	0.	-6123.
795	0.71724	4.7273	0.	-6245.2
796	0.71724	4.5455	0.	-6358.9
797	0.71724	4.3636	0.	-6460.2
798	0.71724	4.1818	0.	-6547.7
799	0.71724	4.	0.	-6621.
800	0.71724	3.8182	0.	-6680.7
801	0.71724	3.6364	0.	-6727.3
802	0.71724	3.4545	0.	-6761.5
803	0.71724	3.2727	0.	-6784.
804	0.71724	3.0909	0.	-6795.2
805	0.71724	2.9091	0.	-6795.2
806	0.71724	2.7273	0.	-6784.
807	0.71724	2.5455	0.	-6761.5
808	0.71724	2.3636	0.	-6727.3
809	0.71724	2.1818	0.	-6680.7
810	0.71724	2.	0.	-6621.
811	0.71724	1.8182	0.	-6547.7
812	0.71724	1.6364	0.	-6460.2
813	0.71724	1.4545	0.	-6358.9
814	0.71724	1.2727	0.	-6245.2
815	0.71724	1.0909	0.	-6123.
816	0.71724	0.90909	0.	-5999.9
817	0.71724	0.72727	0.	-5887.8
818	0.71724	0.54545	0.	-5802.5
819	0.71724	0.36364	0.	-5759.7
820	0.71724	0.18182	0.	-5799.4
821	0.53793	5.8182	0.	-5519.9
822	0.53793	5.6364	0.	-5520.1
823	0.53793	5.4545	0.	-5639.7
824	0.53793	5.2727	0.	-5812.7
825	0.53793	5.0909	0.	-6003.5
826	0.53793	4.9091	0.	-6187.9
827	0.53793	4.7273	0.	-6354.
828	0.53793	4.5455	0.	-6497.5
829	0.53793	4.3636	0.	-6618.5
830	0.53793	4.1818	0.	-6718.4
831	0.53793	4.	0.	-6799.5
832	0.53793	3.8182	0.	-6863.7
833	0.53793	3.6364	0.	-6912.9
834	0.53793	3.4545	0.	-6948.5
835	0.53793	3.2727	0.	-6971.7
836	0.53793	3.0909	0.	-6983.1
837	0.53793	2.9091	0.	-6983.1
838	0.53793	2.7273	0.	-6971.7
839	0.53793	2.5455	0.	-6948.5
840	0.53793	2.3636	0.	-6912.9
841	0.53793	2.1818	0.	-6863.7
842	0.53793	2.	0.	-6799.5
843	0.53793	1.8182	0.	-6718.4
844	0.53793	1.6364	0.	-6618.5
845	0.53793	1.4545	0.	-6497.5
846	0.53793	1.2727	0.	-6354.
847	0.53793	1.0909	0.	-6187.9
848	0.53793	0.90909	0.	-6003.5
849	0.53793	0.72727	0.	-5812.7
850	0.53793	0.54545	0.	-5639.7
851	0.53793	0.36364	0.	-5520.1
852	0.53793	0.18182	0.	-5519.9
853	0.35862	5.8182	0.	-5029.9
854	0.35862	5.6364	0.	-5170.8
855	0.35862	5.4545	0.	-5475.8
856	0.35862	5.2727	0.	-5808.8
857	0.35862	5.0909	0.	-6110.
858	0.35862	4.9091	0.	-6363.7
859	0.35862	4.7273	0.	-6571.
860	0.35862	4.5455	0.	-6738.4
861	0.35862	4.3636	0.	-6872.4
862	0.35862	4.1818	0.	-6979.
863	0.35862	4.	0.	-7062.8
864	0.35862	3.8182	0.	-7127.7
865	0.35862	3.6364	0.	-7176.5
866	0.35862	3.4545	0.	-7211.3
867	0.35862	3.2727	0.	-7233.7
868	0.35862	3.0909	0.	-7244.7
869	0.35862	2.9091	0.	-7244.7
870	0.35862	2.7273	0.	-7233.7
871	0.35862	2.5455	0.	-7211.3
872	0.35862	2.3636	0.	-7176.5
873	0.35862	2.1818	0.	-7127.7
874	0.35862	2.	0.	-7062.8
875	0.35862	1.8182	0.	-6979.
876	0.35862	1.6364	0.	-6872.4
877	0.35862	1.4545	0.	-6738.4
878	0.35862	1.2727	0.	-6571.
879	0.35862	1.0909	0.	-6363.7
880	0.35862	0.90909	0.	-6110.
881	0.35862	0.72727	0.	-5808.8
882	0.35862	0.54545	0.	-5475.8
883	0.35862	0.36364	0.	-5170.8
884	0.35862	0.18182	0.	-5029.9
885	0.17931	5.8182	0.	-3907.3
886	0.17931	5.6364	0.	-4531.7
887	0.17931	5.4545	0.	-5233.6
888	0.17931	5.2727	0.	-5762.6
889	0.17931	5.0909	0.	-6156.
890	0.17931	4.9091	0.	-6449.2
891	0.17931	4.7273	0.	-6671.1
892	0.17931	4.5455	0.	-6840.8
893	0.17931	4.3636	0.	-6971.6
894	0.17931	4.1818	0.	-7072.4
895	0.17931	4.	0.	-7149.8
896	0.17931	3.8182	0.	-7208.5
897	0.17931	3.6364	0.	-7251.9
898	0.17931	3.4545	0.	-7282.4
899	0.17931	3.2727	0.	-7301.9
900	0.17931	3.0909	0.	-7311.4
901	0.17931	2.9091	0.	-7311.4
902	0.17931	2.7273	0.	-7301.9
903	0.17931	2.5455	0.	-7282.4
904	0.17931	2.3636	0.	-7251.9
905	0.17931	2.1818	0.	-7208.5
906	0.17931	2.	0.	-7149.8
907	0.17931	1.8182	0.	-7072.4
908	0.17931	1.6364	0.	-6971.6
909	0.17931	1.4545	0.	-6840.8
910	0.17931	1.2727	0.	-6671.1
911	0.17931	1.0909	0.	-6449.2
912	0.17931	0.90909	0.	-6156.
913	0.17931	0.72727	0.	-5762.6
914	0.17931	0.54545	0.	-5233.6
915	0.17931	0.36364	0.	-4531.7
916	0.17931	0.18182	0.	-3907.3
917	5.5512	5.8182	0.	-833.22
918	5.7356	5.8182	0.	-1301.6
919	5.9201	5.8182	0.	-1772.8
920	6.1046	5.8182	0.	-2193.3
921	6.2891	5.8182	0.	-2555.9
922	6.4736	5.8182	0.	-2859.3
923	6.6581	5.8182	0.	-3106.6
924	6.8426	5.8182	0.	-3302.8
925	7.0271	5.8182	0.	-3454.2
926	7.2116	5.8182	0.	-3567.2
927	7.396	5.8182	0.	-3647.8
928	7.5805	5.8182	0.	-3701.6
929	7.765	5.8182	0.	-3733.5
930	7.9495	5.8182	0.	-3747.7
931	8.134	5.8182	0.	-3747.5
932	8.3185	5.8182	0.	-3735.9
933	8.503	5.8182	0.	-3715.2
934	8.6875	5.8182	0.	-3687.4
935	8.8719	5.8182	0.	-3653.9
936	9.0564	5.8182	0.	-3616.
937	9.2409	5.8182	0.	-3574.8
938	9.4254	5.8182	0.	-3530.9
939	9.6099	5.8182	0.	-3485.
940	9.7944	5.8182	0.	-3437.7
941	9.9789	5.8182	0.	-3389.2
942	10.163	5.8182	0.	-3339.9
943	10.348	5.8182	0.	-3290.
944	10.532	5.8182	0.	-3239.8
945	10.717	5.8182	0.	-3189.3
946	10.901	5.8182	0.	-3138.7
947	11.086	5.8182	0.	-3088.
948	11.27	5.8182	0.	-3037.4
949	11.455	5.8182	0.	-2986.8
950	11.639	5.8182	0.	-2936.4
951	11.824	5.8182	0.	-2886.1
952	12.008	5.8182	0.	-2836.
953	12.193	5.8182	0.	-2786.
954	12.377	5.8182	0.	-2736.3
955	12.562	5.8182	0.	-2686.7
956	12.746	5.8182	0.	-2637.4
957	12.931	5.8182	0.	-2588.2
958	13.115	5.8182	0.	-2539.3
959	13.3	5.8182	0.	-2490.6
960	13.484	5.8182	0.	-2442.1
961	13.669	5.8182	0.	-2393.9
962	13.853	5.8182	0.	-2345.8
963	14.038	5.8182	0.	-2298.
964	14.222	5.8182	0.	-2250.4
965	14.407	5.8182	0.	-2203.
966	14.591	5.8182	0.	-2155.8
967	14.776	5.8182	0.	-2108.8
968	14.96	5.8182	0.	-2062.
969	15.145	5.8182	0.	-2015.5
970	15.329	5.8182	0.	-1969.2
971	15.514	5.8182	0.	-1923.
972	15.698	5.8182	0.	-1877.1
973	15.883	5.8182	0.	-1831.4
974	16.067	5.8182	0.	-1785.9
975	16.251	5.8182	0.	-1740.6
976	16.436	5.8182	0.	-1695.5
977	16.62	5.8182	0.	-1650.6
978	16.805	5.8182	0.	-1605.8
979	16.989	5.8182	0.	-1561.3
980	17.174	5.8182	0.	-1517.
981	17.358	5.8182	0.	-1472.9
982	17.543	5.8182	0.	-1429.
983	17.727	5.8182	0.	-1385.3
984	17.912	5.8182	0.	-1341.7
985	18.096	5.8182	0.	-1298.4
986	18.281	5.8182	0.	-1255.2
987	18.465	5.8182	0.	-1212.2
988	18.65	5.8182	0.	-1169.4
989	18.834	5.8182	0.	-1126.8
990	19.019	5.8182	0.	-1084.4
991	19.203	5.8182	0.	-1042.1
992	19.388	5.8182	0.	-1000.
993	19.572	5.8182	0.	-958.08
994	19.757	5.8182	0.	-916.31
995	19.941	5.8182	0.	-874.7
996	20.126	5.8182	0.	-833.25
997	20.31	5.8182	0.	-791.95
998	20.495	5.8182	0.	-750.79
999	20.679	5.8182	0.	-709.77
1000	20.864	5.8182	0.	-668.9
1001	21.048	5.8182	0.	-628.15
1002	21.233	5.8182	0.	-587.54
1003	21.417	5.8182	0.	-547.05
1004	21.602	5.8182	0.	-506.68
1005	21.786	5.8182	0.	-466.43
1006	21.971	5.8182	0.	-426.31
1007	22.155	5.8182	0.	-386.3
1008	22.34	5.8182	0.	-346.42
1009	22.524	5.8182	0.	-306.67
1010	22.709	5.8182	0.	-267.06
1011	22.893	5.8182	0.	-227.63
1012	23.078	5.8182	0.	-188.39
1013	23.262	5.8182	0.	-149.42
1014	23.447	5.8182	0.	-110.85
1015	23.631	5.8182	0.	-72.92
1016	23.816	5.8182	0.	-37.1
1017	5.5512	5.6364	0.	-1153.4
1018	5.7356	5.6364	0.	-1483.1
1019	5.9201	5.6364	0.	-1903.5
1020	6.1046	5.6364	0.	-2301.2
1021	6.2891	5.6364	0.	-2649.4
1022	6.4736	5.6364	0.	-2940.9
1023	6.6581	5.6364	0.	-3177.
1024	6.8426	5.6364	0.	-3362.6
1025	7.0271	5.6364	0.	-3504.1
1026	7.2116	5.6364	0.	-3608.1
1027	7.396	5.6364	0.	-3680.8
1028	7.5805	5.6364	0.	-3727.9
1029	7.765	5.6364	0.	-3754.
1030	7.9495	5.6364	0.	-3763.3
1031	8.134	5.6364	0.	-3759.1
1032	8.3185	5.6364	0.	-3744.2
1033	8.503	5.6364	0.	-3720.9
1034	8.6875	5.6364	0.	-3690.9
1035	8.8719	5.6364	0.	-3655.7
1036	9.0564	5.6364	0.	-3616.5
1037	9.2409	5.6364	0.	-3574.2
1038	9.4254	5.6364	0.	-3529.5
1039	9.6099	5.6364	0.	-3483.
1040	9.7944	5.6364	0.	-3435.2
1041	9.9789	5.6364	0.	-3386.4
1042	10.163	5.6364	0.	-3336.8
1043	10.348	5.6364	0.	-3286.8
1044	10.532	5.6364	0.	-3236.4
1045	10.717	5.6364	0.	-3185.8
1046	10.901	5.6364	0.	-3135.2
1047	11.086	5.6364	0.	-3084.5
1048	11.27	5.6364	0.	-3033.8
1049	11.455	5.6364	0.	-2983.3
1050	11.639	5.6364	0.	-2932.9
1051	11.824	5.6364	0.	-2882.6
1052	12.008	5.6364	0.	-2832.5
1053	12.193	5.6364	0.	-2782.5
1054	12.377	5.6364	0.	-2732.8
1055	12.562	5.6364	0.	-2683.3
1056	12.746	5.6364	0.	-2633.9
1057	12.931	5.6364	0.	-2584.8
1058	13.115	5.6364	0.	-2535.9
1059	13.3	5.6364	0.	-2487.2
1060	13.484	5.6364	0.	-2438.8
1061	13.669	5.6364	0.	-2390.5
1062	13.853	5.6364	0.	-2342.5
1063	14.038	5.6364	0.	-2294.6
1064	14.222	5.6364	0.	-2247.
1065	14.407	5.6364	0.	-2199.6
1066	14.591	5.6364	0.	-2152.4
1067	14.776	5.6364	0.	-2105.4
1068	14.96	5.6364	0.	-2058.6
1069	15.145	5.6364	0.	-2012.1
1070	15.329	5.6364	0.	-1965.7
1071	15.514	5.6364	0.	-1919.6
1072	15.698	5.6364	0.	-1873.6
1073	15.883	5.6364	0.	-1827.9
1074	16.067	5.6364	0.	-1782.3
1075	16.251	5.6364	0.	-1737.
1076	16.436	5.6364	0.	-1691.9
1077	16.62	5.6364	0.	-1646.9
1078	16.805	5.6364	0.	-1602.2
1079	16.989	5.6364	0.	-1557.6
1080	17.174	5.6364	0.	-1513.3
1081	17.358	5.6364	0.	-1469.2
1082	17.543	5.6364	0.	-1425.2
1083	17.727	5.6364	0.	-1381.4
1084	17.912	5.6364	0.	-1337.9
1085	18.096	5.6364	0.	-1294.5
1086	18.281	5.6364	0.	-1251.3
1087	18.465	5.6364	0.	-1208.3
1088	18.65	5.6364	0.	-1165.4
1089	18.834	5.6364	0.	-1122.8
1090	19.019	5.6364	0.	-1080.3
1091	19.203	5.6364	0.	-1038.
1092	19.388	5.6364	0.	-995.92
1093	19.572	5.6364	0.	-953.96
1094	19.757	5.6364	0.	-912.18
1095	19.941	5.6364	0.	-870.55
1096	20.126	5.6364	0.	-829.09
1097	20.31	5.6364	0.	-787.78
1098	20.495	5.6364	0.	-746.63
1099	20.679	5.6364	0.	-705.62
1100	20.864	5.6364	0.	-664.76
1101	21.048	5.6364	0.	-624.04
1102	21.233	5.6364	0.	-583.46
1103	21.417	5.6364	0.	-543.01
1104	21.602	5.6364	0.	-502.71
1105	21.786	5.6364	0.	-462.53
1106	21.971	5.6364	0.	-422.5
1107	22.155	5.6364	0.	-382.61
1108	22.34	5.6364	0.	-342.87
1109	22.524	5.6364	0.	-303.31
1110	22.709	5.6364	0.	-263.94
1111	22.893	5.6364	0.	-224.8
1112	23.078	5.6364	0.	-185.97
1113	23.262	5.6364	0.	-147.56
1114	23.447	5.6364	0.	-109.78
1115	23.631	5.6364	0.	-73.014
1116	23.816	5.6364	0.	-38.118
1117	5.5512	5.4545	0.	-1529.4
1118	5.7356	5.4545	0.	-1768.
1119	5.9201	5.4545	0.	-2126.9
1120	6.1046	5.4545	0.	-2484.2
1121	6.2891	5.4545	0.	-2802.8
1122	6.4736	5.4545	0.	-3069.9
1123	6.6581	5.4545	0.	-3284.7
1124	6.8426	5.4545	0.	-3451.5
1125	7.0271	5.4545	0.	-3576.7
1126	7.2116	5.4545	0.	-3666.7
1127	7.396	5.4545	0.	-3727.7
1128	7.5805	5.4545	0.	-3764.8
1129	7.765	5.4545	0.	-3782.8
1130	7.9495	5.4545	0.	-3785.5
1131	8.134	5.4545	0.	-3775.9
1132	8.3185	5.4545	0.	-3756.7
1133	8.503	5.4545	0.	-3729.9
1134	8.6875	5.4545	0.	-3697.2
1135	8.8719	5.4545	0.	-3659.8
1136	9.0564	5.4545	0.	-3618.9
1137	9.2409	5.4545	0.	-3575.3
1138	9.4254	5.4545	0.	-3529.6
1139	9.6099	5.4545	0.	-3482.3
1140	9.7944	5.4545	0.	-3433.9
1141	9.9789	5.4545	0.	-3384.6
1142	10.163	5.4545	0.	-3334.8
1143	10.348	5.4545	0.	-3284.5
1144	10.532	5.4545	0.	-3234.
1145	10.717	5.4545	0.	-3183.4
1146	10.901	5.4545	0.	-3132.7
1147	11.086	5.4545	0.	-3082.
1148	11.27	5.4545	0.	-3031.4
1149	11.455	5.4545	0.	-2980.9
1150	11.639	5.4545	0.	-2930.5
1151	11.824	5.4545	0.	-2880.3
1152	12.008	5.4545	0.	-2830.2
1153	12.193	5.4545	0.	-2780.3
1154	12.377	5.4545	0.	-2730.7
1155	12.562	5.4545	0.	-2681.2
1156	12.746	5.4545	0.	-2631.9
1157	12.931	5.4545	0.	-2582.8
1158	13.115	5.4545	0.	-2534.
1159	13.3	5.4545	0.	-2485.3
1160	13.484	5.4545	0.	-2436.9
1161	13.669	5.4545	0.	-2388.7
1162	13.853	5.4545	0.	-2340.7
1163	14.038	5.4545	0.	-2292.9
1164	14.222	5.4545	0.	-2245.3
1165	14.407	5.4545	0.	-2197.9
1166	14.591	5.4545	0.	-2150.7
1167	14.776	5.4545	0.	-2103.8
1168	14.96	5.4545	0.	-2057.
1169	15.145	5.4545	0.	-2010.5
1170	15.329	5.4545	0.	-1964.1
1171	15.514	5.4545	0.	-1918.
1172	15.698	5.4545	0.	-1872.
1173	15.883	5.4545	0.	-1826.3
1174	16.067	5.4545	0.	-1780.8
1175	16.251	5.4545	0.	-1735.4
1176	16.436	5.4545	0.	-1690.3
1177	16.62	5.4545	0.	-1645.4
1178	16.805	5.4545	0.	-1600.7
1179	16.989	5.4545	0.	-1556.1
1180	17.174	5.4545	0.	-1511.8
1181	17.358	5.4545	0.	-1467.6
1182	17.543	5.4545	0.	-1423.7
1183	17.727	5.4545	0.	-1379.9
1184	17.912	5.4545	0.	-1336.4
1185	18.096	5.4545	0.	-1293.
1186	18.281	5.4545	0.	-1249.8
1187	18.465	5.4545	0.	-1206.8
1188	18.65	5.4545	0.	-1164.
1189	18.834	5.4545	0.	-1121.3
1190	19.019	5.4545	0.	-1078.9
1191	19.203	5.4545	0.	-1036.6
1192	19.388	5.4545	0.	-994.5
1193	19.572	5.4545	0.	-952.57
1194	19.757	5.4545	0.	-910.81
1195	19.941	5.4545	0.	-869.21
1196	20.126	5.4545	0.	-827.78
1197	20.31	5.4545	0.	-786.51
1198	20.495	5.4545	0.	-745.4
1199	20.679	5.4545	0.	-704.44
1200	20.864	5.4545	0.	-663.63
1201	21.048	5.4545	0.	-622.98
1202	21.233	5.4545	0.	-582.47
1203	21.417	5.4545	0.	-542.1
1204	21.602	5.4545	0.	-501.88
1205	21.786	5.4545	0.	-461.81
1206	21.971	5.4545	0.	-421.9
1207	22.155	5.4545	0.	-382.14
1208	22.34	5.4545	0.	-342.57
1209	22.524	5.4545	0.	-303.19
1210	22.709	5.4545	0.	-264.04
1211	22.893	5.4545	0.	-225.17
1212	23.078	5.4545	0.	-186.66
1213	23.262	5.4545	0.	-148.61
1214	23.447	5.4545	0.	-111.2
1215	23.631	5.4545	0.	-74.565
1216	23.816	5.4545	0.	-38.976
1217	5.5512	5.2727	0.	-1940.4
1218	5.7356	5.2727	0.	-2121.6
1219	5.9201	5.2727	0.	-2427.3
1220	6.1046	5.2727	0.	-2736.2
1221	6.2891	5.2727	0.	-3013.1
1222	6.4736	5.2727	0.	-3244.
1223	6.6581	5.2727	0.	-3427.6
1224	6.8426	5.2727	0.	-3567.7
1225	7.0271	5.2727	0.	-3670.3
1226	7.2116	5.2727	0.	-3741.4
1227	7.396	5.2727	0.	-3786.8
1228	7.5805	5.2727	0.	-3811.2
1229	7.765	5.2727	0.	-3818.9
1230	7.9495	5.2727	0.	-3813.2
1231	8.134	5.2727	0.	-3796.9
1232	8.3185	5.2727	0.	-3772.4
1233	8.503	5.2727	0.	-3741.4
1234	8.6875	5.2727	0.	-3705.3
1235	8.8719	5.2727	0.	-3665.3
1236	9.0564	5.2727	0.	-3622.4
1237	9.2409	5.2727	0.	-3577.2
1238	9.4254	5.2727	0.	-3530.3
1239	9.6099	5.2727	0.	-3482.1
1240	9.7944	5.2727	0.	-3433.
1241	9.9789	5.2727	0.	-3383.3
1242	10.163	5.2727	0.	-3333.1
1243	10.348	5.2727	0.	-3282.6
1244	10.532	5.2727	0.	-3231.9
1245	10.717	5.2727	0.	-3181.2
1246	10.901	5.2727	0.	-3130.4
1247	11.086	5.2727	0.	-3079.7
1248	11.27	5.2727	0.	-3029.1
1249	11.455	5.2727	0.	-2978.6
1250	11.639	5.2727	0.	-2928.3
1251	11.824	5.2727	0.	-2878.1
1252	12.008	5.2727	0.	-2828.1
1253	12.193	5.2727	0.	-2778.3
1254	12.377	5.2727	0.	-2728.7
1255	12.562	5.2727	0.	-2679.3
1256	12.746	5.2727	0.	-2630.
1257	12.931	5.2727	0.	-2581.
1258	13.115	5.2727	0.	-2532.2
1259	13.3	5.2727	0.	-2483.6
1260	13.484	5.2727	0.	-2435.3
1261	13.669	5.2727	0.	-2387.1
1262	13.853	5.2727	0.	-2339.1
1263	14.038	5.2727	0.	-2291.3
1264	14.222	5.2727	0.	-2243.8
1265	14.407	5.2727	0.	-2196.4
1266	14.591	5.2727	0.	-2149.3
1267	14.776	5.2727	0.	-2102.3
1268	14.96	5.2727	0.	-2055.6
1269	15.145	5.2727	0.	-2009.1
1270	15.329	5.2727	0.	-1962.7
1271	15.514	5.2727	0.	-1916.6
1272	15.698	5.2727	0.	-1870.7
1273	15.883	5.2727	0.	-1825.
1274	16.067	5.2727	0.	-1779.5
1275	16.251	5.2727	0.	-1734.1
1276	16.436	5.2727	0.	-1689.
1277	16.62	5.2727	0.	-1644.1
1278	16.805	5.2727	0.	-1599.4
1279	16.989	5.2727	0.	-1554.8
1280	17.174	5.2727	0.	-1510.5
1281	17.358	5.2727	0.	-1466.4
1282	17.543	5.2727	0.	-1422.4
1283	17.727	5.2727	0.	-1378.7
1284	17.912	5.2727	0.	-1335.1
1285	18.096	5.2727	0.	-1291.8
1286	18.281	5.2727	0.	-1248.6
1287	18.465	5.2727	0.	-1205.6
1288	18.65	5.2727	0.	-1162.8
1289	18.834	5.2727	0.	-1120.2
1290	19.019	5.2727	0.	-1077.8
1291	19.203	5.2727	0.	-1035.5
1292	19.388	5.2727	0.	-993.44
1293	19.572	5.2727	0.	-951.54
1294	19.757	5.2727	0.	-909.82
1295	19.941	5.2727	0.	-868.26
1296	20.126	5.2727	0.	-826.88
1297	20.31	5.2727	0.	-785.66
1298	20.495	5.2727	0.	-744.61
1299	20.679	5.2727	0.	-703.72
1300	20.864	5.2727	0.	-662.98
1301	21.048	5.2727	0.	-622.41
1302	21.233	5.2727	0.	-581.99
1303	21.417	5.2727	0.	-541.72
1304	21.602	5.2727	0.	-501.62
1305	21.786	5.2727	0.	-461.68
1306	21.971	5.2727	0.	-421.9
1307	22.155	5.2727	0.	-382.31
1308	22.34	5.2727	0.	-342.91
1309	22.524	5.2727	0.	-303.73
1310	22.709	5.2727	0.	-264.8
1311	22.893	5.2727	0.	-226.17
1312	23.078	5.2727	0.	-187.9
1313	23.262	5.2727	0.	-150.06
1314	23.447	5.2727	0.	-112.7
1315	23.631	5.2727	0.	-75.811
1316	23.816	5.2727	0.	-39.495
1317	5.5512	5.0909	0.	-2405.
1318	5.7356	5.0909	0.	-2543.9
1319	5.9201	5.0909	0.	-2802.6
1320	6.1046	5.0909	0.	-3056.7
1321	6.2891	5.0909	0.	-3279.9
1322	6.4736	5.0909	0.	-3462.5
1323	6.6581	5.0909	0.	-3604.4
1324	6.8426	5.0909	0.	-3709.5
1325	7.0271	5.0909	0.	-3783.1
1326	7.2116	5.0909	0.	-3830.6
1327	7.396	5.0909	0.	-3856.7
1328	7.5805	5.0909	0.	-3865.7
1329	7.765	5.0909	0.	-3861.
1330	7.9495	5.0909	0.	-3845.5
1331	8.134	5.0909	0.	-3821.4
1332	8.3185	5.0909	0.	-3790.7
1333	8.503	5.0909	0.	-3754.8
1334	8.6875	5.0909	0.	-3714.9
1335	8.8719	5.0909	0.	-3672.
1336	9.0564	5.0909	0.	-3626.7
1337	9.2409	5.0909	0.	-3579.8
1338	9.4254	5.0909	0.	-3531.5
1339	9.6099	5.0909	0.	-3482.4
1340	9.7944	5.0909	0.	-3432.5
1341	9.9789	5.0909	0.	-3382.2
1342	10.163	5.0909	0.	-3331.6
1343	10.348	5.0909	0.	-3280.8
1344	10.532	5.0909	0.	-3230.
1345	10.717	5.0909	0.	-3179.1
1346	10.901	5.0909	0.	-3128.3
1347	11.086	5.0909	0.	-3077.6
1348	11.27	5.0909	0.	-3027.
1349	11.455	5.0909	0.	-2976.5
1350	11.639	5.0909	0.	-2926.2
1351	11.824	5.0909	0.	-2876.1
1352	12.008	5.0909	0.	-2826.1
1353	12.193	5.0909	0.	-2776.4
1354	12.377	5.0909	0.	-2726.8
1355	12.562	5.0909	0.	-2677.5
1356	12.746	5.0909	0.	-2628.3
1357	12.931	5.0909	0.	-2579.3
1358	13.115	5.0909	0.	-2530.6
1359	13.3	5.0909	0.	-2482.
1360	13.484	5.0909	0.	-2433.7
1361	13.669	5.0909	0.	-2385.6
1362	13.853	5.0909	0.	-2337.6
1363	14.038	5.0909	0.	-2289.9
1364	14.222	5.0909	0.	-2242.4
1365	14.407	5.0909	0.	-2195.
1366	14.591	5.0909	0.	-2147.9
1367	14.776	5.0909	0.	-2101.
1368	14.96	5.0909	0.	-2054.3
1369	15.145	5.0909	0.	-2007.8
1370	15.329	5.0909	0.	-1961.5
1371	15.514	5.0909	0.	-1915.4
1372	15.698	5.0909	0.	-1869.5
1373	15.883	5.0909	0.	-1823.8
1374	16.067	5.0909	0.	-1778.2
1375	16.251	5.0909	0.	-1732.9
1376	16.436	5.0909	0.	-1687.8
1377	16.62	5.0909	0.	-1642.9
1378	16.805	5.0909	0.	-1598.2
1379	16.989	5.0909	0.	-1553.7
1380	17.174	5.0909	0.	-1509.4
1381	17.358	5.0909	0.	-1465.3
1382	17.543	5.0909	0.	-1421.3
1383	17.727	5.0909	0.	-1377.6
1384	17.912	5.0909	0.	-1334.1
1385	18.096	5.0909	0.	-1290.7
1386	18.281	5.0909	0.	-1247.6
1387	18.465	5.0909	0.	-1204.6
1388	18.65	5.0909	0.	-1161.8
1389	18.834	5.0909	0.	-1119.2
1390	19.019	5.0909	0.	-1076.8
1391	19.203	5.0909	0.	-1034.6
1392	19.388	5.0909	0.	-992.56
1393	19.572	5.0909	0.	-950.7
1394	19.757	5.0909	0.	-909.02
1395	19.941	5.0909	0.	-867.52
1396	20.126	5.0909	0.	-826.19
1397	20.31	5.0909	0.	-785.04
1398	20.495	5.0909	0.	-744.05
1399	20.679	5.0909	0.	-703.24
1400	20.864	5.0909	0.	-662.59
1401	21.048	5.0909	0.	-622.11
1402	21.233	5.0909	0.	-581.79
1403	21.417	5.0909	0.	-541.64
1404	21.602	5.0909	0.	-501.66
1405	21.786	5.0909	0.	-461.86
1406	21.971	5.0909	0.	-422.23
1407	22.155	5.0909	0.	-382.8
1408	22.34	5.0909	0.	-343.57
1409	22.524	5.0909	0.	-304.58
1410	22.709	5.0909	0.	-265.83
1411	22.893	5.0909	0.	-227.37
1412	23.078	5.0909	0.	-189.23
1413	23.262	5.0909	0.	-151.42
1414	23.447	5.0909	0.	-113.95
1415	23.631	5.0909	0.	-76.694
1416	23.816	5.0909	0.	-39.765
1417	5.5512	4.9091	0.	-2954.9
1418	5.7356	4.9091	0.	-3053.2
1419	5.9201	4.9091	0.	-3260.5
1420	6.1046	4.9091	0.	-3447.1
1421	6.2891	4.9091	0.	-3601.6
1422	6.4736	4.9091	0.	-3722.5
1423	6.6581	4.9091	0.	-3811.9
1424	6.8426	4.9091	0.	-3873.9
1425	7.0271	4.9091	0.	-3912.5
1426	7.2116	4.9091	0.	-3932.
1427	7.396	4.9091	0.	-3935.7
1428	7.5805	4.9091	0.	-3926.9
1429	7.765	4.9091	0.	-3908.1
1430	7.9495	4.9091	0.	-3881.4
1431	8.134	4.9091	0.	-3848.5
1432	8.3185	4.9091	0.	-3810.9
1433	8.503	4.9091	0.	-3769.6
1434	8.6875	4.9091	0.	-3725.6
1435	8.8719	4.9091	0.	-3679.4
1436	9.0564	4.9091	0.	-3631.7
1437	9.2409	4.9091	0.	-3582.8
1438	9.4254	4.9091	0.	-3533.1
1439	9.6099	4.9091	0.	-3482.9
1440	9.7944	4.9091	0.	-3432.2
1441	9.9789	4.9091	0.	-3381.3
1442	10.163	4.9091	0.	-3330.3
1443	10.348	4.9091	0.	-3279.2
1444	10.532	4.9091	0.	-3228.2
1445	10.717	4.9091	0.	-3177.2
1446	10.901	4.9091	0.	-3126.3
1447	11.086	4.9091	0.	-3075.5
1448	11.27	4.9091	0.	-3024.9
1449	11.455	4.9091	0.	-2974.5
1450	11.639	4.9091	0.	-2924.2
1451	11.824	4.9091	0.	-2874.2
1452	12.008	4.9091	0.	-2824.3
1453	12.193	4.9091	0.	-2774.6
1454	12.377	4.9091	0.	-2725.1
1455	12.562	4.9091	0.	-2675.8
1456	12.746	4.9091	0.	-2626.7
1457	12.931	4.9091	0.	-2577.8
1458	13.115	4.9091	0.	-2529.1
1459	13.3	4.9091	0.	-2480.6
1460	13.484	4.9091	0.	-2432.3
1461	13.669	4.9091	0.	-2384.2
1462	13.853	4.9091	0.	-2336.3
1463	14.038	4.9091	0.	-2288.6
1464	14.222	4.9091	0.	-2241.1
1465	14.407	4.9091	0.	-2193.8
1466	14.591	4.9091	0.	-2146.7
1467	14.776	4.9091	0.	-2099.8
1468	14.96	4.9091	0.	-2053.1
1469	15.145	4.9091	0.	-2006.6
1470	15.329	4.9091	0.	-1960.3
1471	15.514	4.9091	0.	-1914.2
1472	15.698	4.9091	0.	-1868.3
1473	15.883	4.9091	0.	-1822.6
1474	16.067	4.9091	0.	-1777.2
1475	16.251	4.9091	0.	-1731.9
1476	16.436	4.9091	0.	-1686.8
1477	16.62	4.9091	0.	-1641.9
1478	16.805	4.9091	0.	-1597.2
1479	16.989	4.9091	0.	-1552.7
1480	17.174	4.9091	0.	-1508.4
1481	17.358	4.9091	0.	-1464.3
1482	17.543	4.9091	0.	-1420.3
1483	17.727	4.9091	0.	-1376.6
1484	17.912	4.9091	0.	-1333.1
1485	18.096	4.9091	0.	-1289.8
1486	18.281	4.9091	0.	-1246.6
1487	18.465	4.9091	0.	-1203.7
1488	18.65	4.9091	0.	-1161.
1489	18.834	4.9091	0.	-1118.4
1490	19.019	4.9091	0.	-1076.
1491	19.203	4.9091	0.	-1033.8
1492	19.388	4.9091	0.	-991.84
1493	19.572	4.9091	0.	-950.03
1494	19.757	4.9091	0.	-908.4
1495	19.941	4.9091	0.	-866.95
1496	20.126	4.9091	0.	-825.69
1497	20.31	4.9091	0.	-784.6
1498	20.495	4.9091	0.	-743.69
1499	20.679	4.9091	0.	-702.95
1500	20.864	4.9091	0.	-662.4
1501	21.048	4.9091	0.	-622.01
1502	21.233	4.9091	0.	-581.8
1503	21.417	4.9091	0.	-541.77
1504	21.602	4.9091	0.	-501.92
1505	21.786	4.9091	0.	-462.25
1506	21.971	4.9091	0.	-422.77
1507	22.155	4.9091	0.	-383.48
1508	22.34	4.9091	0.	-344.41
1509	22.524	4.9091	0.	-305.55
1510	22.709	4.9091	0.	-266.94
1511	22.893	4.9091	0.	-228.58
1512	23.078	4.9091	0.	-190.47
1513	23.262	4.9091	0.	-152.6
1514	23.447	4.9091	0.	-114.92
1515	23.631	4.9091	0.	-77.319
1516	23.816	4.9091	0.	-39.903
1517	5.5512	4.7273	0.	-3641.1
1518	5.7356	4.7273	0.	-3686.6
1519	5.9201	4.7273	0.	-3816.4
1520	6.1046	4.7273	0.	-3909.5
1521	6.2891	4.7273	0.	-3974.6
1522	6.4736	4.7273	0.	-4018.4
1523	6.6581	4.7273	0.	-4044.9
1524	6.8426	4.7273	0.	-4056.4
1525	7.0271	4.7273	0.	-4055.
1526	7.2116	4.7273	0.	-4042.7
1527	7.396	4.7273	0.	-4021.5
1528	7.5805	4.7273	0.	-3993.
1529	7.765	4.7273	0.	-3958.7
1530	7.9495	4.7273	0.	-3919.9
1531	8.134	4.7273	0.	-3877.5
1532	8.3185	4.7273	0.	-3832.5
1533	8.503	4.7273	0.	-3785.5
1534	8.6875	4.7273	0.	-3736.9
1535	8.8719	4.7273	0.	-3687.4
1536	9.0564	4.7273	0.	-3637.
1537	9.2409	4.7273	0.	-3586.2
1538	9.4254	4.7273	0.	-3535.
1539	9.6099	4.7273	0.	-3483.6
1540	9.7944	4.7273	0.	-3432.1
1541	9.9789	4.7273	0.	-3380.6
1542	10.163	4.7273	0.	-3329.1
1543	10.348	4.7273	0.	-3277.7
1544	10.532	4.7273	0.	-3226.5
1545	10.717	4.7273	0.	-3175.4
1546	10.901	4.7273	0.	-3124.4
1547	11.086	4.7273	0.	-3073.7
1548	11.27	4.7273	0.	-3023.1
1549	11.455	4.7273	0.	-2972.6
1550	11.639	4.7273	0.	-2922.4
1551	11.824	4.7273	0.	-2872.4
1552	12.008	4.7273	0.	-2822.5
1553	12.193	4.7273	0.	-2772.9
1554	12.377	4.7273	0.	-2723.4
1555	12.562	4.7273	0.	-2674.2
1556	12.746	4.7273	0.	-2625.1
1557	12.931	4.7273	0.	-2576.3
1558	13.115	4.7273	0.	-2527.6
1559	13.3	4.7273	0.	-2479.2
1560	13.484	4.7273	0.	-2430.9
1561	13.669	4.7273	0.	-2382.9
1562	13.853	4.7273	0.	-2335.
1563	14.038	4.7273	0.	-2287.3
1564	14.222	4.7273	0.	-2239.9
1565	14.407	4.7273	0.	-2192.6
1566	14.591	4.7273	0.	-2145.6
1567	14.776	4.7273	0.	-2098.7
1568	14.96	4.7273	0.	-2052.
1569	15.145	4.7273	0.	-2005.5
1570	15.329	4.7273	0.	-1959.3
1571	15.514	4.7273	0.	-1913.2
1572	15.698	4.7273	0.	-1867.3
1573	15.883	4.7273	0.	-1821.7
1574	16.067	4.7273	0.	-1776.2
1575	16.251	4.7273	0.	-1730.9
1576	16.436	4.7273	0.	-1685.8
1577	16.62	4.7273	0.	-1640.9
1578	16.805	4.7273	0.	-1596.2
1579	16.989	4.7273	0.	-1551.8
1580	17.174	4.7273	0.	-1507.5
1581	17.358	4.7273	0.	-1463.4
1582	17.543	4.7273	0.	-1419.5
1583	17.727	4.7273	0.	-1375.8
1584	17.912	4.7273	0.	-1332.3
1585	18.096	4.7273	0.	-1289.
1586	18.281	4.7273	0.	-1245.9
1587	18.465	4.7273	0.	-1202.9
1588	18.65	4.7273	0.	-1160.2
1589	18.834	4.7273	0.	-1117.7
1590	19.019	4.7273	0.	-1075.4
1591	19.203	4.7273	0.	-1033.2
1592	19.388	4.7273	0.	-991.26
1593	19.572	4.7273	0.	-949.49
1594	19.757	4.7273	0.	-907.91
1595	19.941	4.7273	0.	-866.53
1596	20.126	4.7273	0.	-825.32
1597	20.31	4.7273	0.	-784.31
1598	20.495	4.7273	0.	-743.47
1599	20.679	4.7273	0.	-702.82
1600	20.864	4.7273	0.	-662.36
1601	21.048	4.7273	0.	-622.07
1602	21.233	4.7273	0.	-581.97
1603	21.417	4.7273	0.	-542.05
1604	21.602	4.7273	0.	-502.32
1605	21.786	4.7273	0.	-462.77
1606	21.971	4.7273	0.	-423.42
1607	22.155	4.7273	0.	-384.26
1608	22.34	4.7273	0.	-345.3
1609	22.524	4.7273	0.	-306.56
1610	22.709	4.7273	0.	-268.02
1611	22.893	4.7273	0.	-229.69
1612	23.078	4.7273	0.	-191.56
1613	23.262	4.7273	0.	-153.57
1614	23.447	4.7273	0.	-115.68
1615	23.631	4.7273	0.	-77.766
1616	23.816	4.7273	0.	-39.961
1617	5.5512	4.5455	0.	-4576.2
1618	5.7356	4.5455	0.	-4498.
1619	5.9201	4.5455	0.	-4491.
1620	6.1046	4.5455	0.	-4442.
1621	6.2891	4.5455	0.	-4390.6
1622	6.4736	4.5455	0.	-4341.9
1623	6.6581	4.5455	0.	-4296.1
1624	6.8426	4.5455	0.	-4251.2
1625	7.0271	4.5455	0.	-4205.9
1626	7.2116	4.5455	0.	-4159.4
1627	7.396	4.5455	0.	-4111.4
1628	7.5805	4.5455	0.	-4061.9
1629	7.765	4.5455	0.	-4011.3
1630	7.9495	4.5455	0.	-3959.7
1631	8.134	4.5455	0.	-3907.4
1632	8.3185	4.5455	0.	-3854.7
1633	8.503	4.5455	0.	-3801.7
1634	8.6875	4.5455	0.	-3748.6
1635	8.8719	4.5455	0.	-3695.5
1636	9.0564	4.5455	0.	-3642.5
1637	9.2409	4.5455	0.	-3589.6
1638	9.4254	4.5455	0.	-3536.9
1639	9.6099	4.5455	0.	-3484.4
1640	9.7944	4.5455	0.	-3432.1
1641	9.9789	4.5455	0.	-3379.9
1642	10.163	4.5455	0.	-3328.1
1643	10.348	4.5455	0.	-3276.4
1644	10.532	4.5455	0.	-3225.
1645	10.717	4.5455	0.	-3173.7
1646	10.901	4.5455	0.	-3122.7
1647	11.086	4.5455	0.	-3071.9
1648	11.27	4.5455	0.	-3021.3
1649	11.455	4.5455	0.	-2970.9
1650	11.639	4.5455	0.	-2920.7
1651	11.824	4.5455	0.	-2870.7
1652	12.008	4.5455	0.	-2820.9
1653	12.193	4.5455	0.	-2771.3
1654	12.377	4.5455	0.	-2721.9
1655	12.562	4.5455	0.	-2672.8
1656	12.746	4.5455	0.	-2623.8
1657	12.931	4.5455	0.	-2574.9
1658	13.115	4.5455	0.	-2526.3
1659	13.3	4.5455	0.	-2477.9
1660	13.484	4.5455	0.	-2429.7
1661	13.669	4.5455	0.	-2381.7
1662	13.853	4.5455	0.	-2333.9
1663	14.038	4.5455	0.	-2286.2
1664	14.222	4.5455	0.	-2238.8
1665	14.407	4.5455	0.	-2191.6
1666	14.591	4.5455	0.	-2144.5
1667	14.776	4.5455	0.	-2097.7
1668	14.96	4.5455	0.	-2051.
1669	15.145	4.5455	0.	-2004.6
1670	15.329	4.5455	0.	-1958.3
1671	15.514	4.5455	0.	-1912.3
1672	15.698	4.5455	0.	-1866.4
1673	15.883	4.5455	0.	-1820.8
1674	16.067	4.5455	0.	-1775.3
1675	16.251	4.5455	0.	-1730.
1676	16.436	4.5455	0.	-1685.
1677	16.62	4.5455	0.	-1640.1
1678	16.805	4.5455	0.	-1595.4
1679	16.989	4.5455	0.	-1550.9
1680	17.174	4.5455	0.	-1506.7
1681	17.358	4.5455	0.	-1462.6
1682	17.543	4.5455	0.	-1418.7
1683	17.727	4.5455	0.	-1375.
1684	17.912	4.5455	0.	-1331.6
1685	18.096	4.5455	0.	-1288.3
1686	18.281	4.5455	0.	-1245.2
1687	18.465	4.5455	0.	-1202.3
1688	18.65	4.5455	0.	-1159.6
1689	18.834	4.5455	0.	-1117.1
1690	19.019	4.5455	0.	-1074.8
1691	19.203	4.5455	0.	-1032.7
1692	19.388	4.5455	0.	-990.79
1693	19.572	4.5455	0.	-949.07
1694	19.757	4.5455	0.	-907.55
1695	19.941	4.5455	0.	-866.22
1696	20.126	4.5455	0.	-825.08
1697	20.31	4.5455	0.	-784.13
1698	20.495	4.5455	0.	-743.38
1699	20.679	4.5455	0.	-702.81
1700	20.864	4.5455	0.	-662.43
1701	21.048	4.5455	0.	-622.24
1702	21.233	4.5455	0.	-582.24
1703	21.417	4.5455	0.	-542.42
1704	21.602	4.5455	0.	-502.8
1705	21.786	4.5455	0.	-463.36
1706	21.971	4.5455	0.	-424.12
1707	22.155	4.5455	0.	-385.06
1708	22.34	4.5455	0.	-346.2
1709	22.524	4.5455	0.	-307.52
1710	22.709	4.5455	0.	-269.02
1711	22.893	4.5455	0.	-230.68
1712	23.078	4.5455	0.	-192.48
1713	23.262	4.5455	0.	-154.36
1714	23.447	4.5455	0.	-116.27
1715	23.631	4.5455	0.	-78.087
1716	23.816	4.5455	0.	-39.973
1717	5.5512	4.3636	0.	-5931.9
1718	5.7356	4.3636	0.	-5576.1
1719	5.9201	4.3636	0.	-5281.3
1720	6.1046	4.3636	0.	-5031.4
1721	6.2891	4.3636	0.	-4835.
1722	6.4736	4.3636	0.	-4681.
1723	6.6581	4.3636	0.	-4556.4
1724	6.8426	4.3636	0.	-4451.7
1725	7.0271	4.3636	0.	-4360.4
1726	7.2116	4.3636	0.	-4278.2
1727	7.396	4.3636	0.	-4202.5
1728	7.5805	4.3636	0.	-4131.5
1729	7.765	4.3636	0.	-4064.1
1730	7.9495	4.3636	0.	-3999.5
1731	8.134	4.3636	0.	-3937.2
1732	8.3185	4.3636	0.	-3876.8
1733	8.503	4.3636	0.	-3817.8
1734	8.6875	4.3636	0.	-3760.2
1735	8.8719	4.3636	0.	-3703.6
1736	9.0564	4.3636	0.	-3647.9
1737	9.2409	4.3636	0.	-3593.1
1738	9.4254	4.3636	0.	-3538.8
1739	9.6099	4.3636	0.	-3485.2
1740	9.7944	4.3636	0.	-3432.1
1741	9.9789	4.3636	0.	-3379.4
1742	10.163	4.3636	0.	-3327.1
1743	10.348	4.3636	0.	-3275.2
1744	10.532	4.3636	0.	-3223.5
1745	10.717	4.3636	0.	-3172.2
1746	10.901	4.3636	0.	-3121.1
1747	11.086	4.3636	0.	-3070.3
1748	11.27	4.3636	0.	-3019.7
1749	11.455	4.3636	0.	-2969.3
1750	11.639	4.3636	0.	-2919.2
1751	11.824	4.3636	0.	-2869.2
1752	12.008	4.3636	0.	-2819.5
1753	12.193	4.3636	0.	-2769.9
1754	12.377	4.3636	0.	-2720.6
1755	12.562	4.3636	0.	-2671.4
1756	12.746	4.3636	0.	-2622.5
1757	12.931	4.3636	0.	-2573.7
1758	13.115	4.3636	0.	-2525.2
1759	13.3	4.3636	0.	-2476.8
1760	13.484	4.3636	0.	-2428.6
1761	13.669	4.3636	0.	-2380.6
1762	13.853	4.3636	0.	-2332.8
1763	14.038	4.3636	0.	-2285.2
1764	14.222	4.3636	0.	-2237.8
1765	14.407	4.3636	0.	-2190.6
1766	14.591	4.3636	0.	-2143.6
1767	14.776	4.3636	0.	-2096.8
1768	14.96	4.3636	0.	-2050.2
1769	15.145	4.3636	0.	-2003.7
1770	15.329	4.3636	0.	-1957.5
1771	15.514	4.3636	0.	-1911.5
1772	15.698	4.3636	0.	-1865.6
1773	15.883	4.3636	0.	-1820.
1774	16.067	4.3636	0.	-1774.5
1775	16.251	4.3636	0.	-1729.3
1776	16.436	4.3636	0.	-1684.2
1777	16.62	4.3636	0.	-1639.4
1778	16.805	4.3636	0.	-1594.7
1779	16.989	4.3636	0.	-1550.2
1780	17.174	4.3636	0.	-1506.
1781	17.358	4.3636	0.	-1461.9
1782	17.543	4.3636	0.	-1418.1
1783	17.727	4.3636	0.	-1374.4
1784	17.912	4.3636	0.	-1330.9
1785	18.096	4.3636	0.	-1287.7
1786	18.281	4.3636	0.	-1244.6
1787	18.465	4.3636	0.	-1201.7
1788	18.65	4.3636	0.	-1159.1
1789	18.834	4.3636	0.	-1116.6
1790	19.019	4.3636	0.	-1074.4
1791	19.203	4.3636	0.	-1032.3
1792	19.388	4.3636	0.	-990.42
1793	19.572	4.3636	0.	-948.75
1794	19.757	4.3636	0.	-907.28
1795	19.941	4.3636	0.	-866.01
1796	20.126	4.3636	0.	-824.93
1797	20.31	4.3636	0.	-784.05
1798	20.495	4.3636	0.	-743.36
1799	20.679	4.3636	0.	-702.87
1800	20.864	4.3636	0.	-662.58
1801	21.048	4.3636	0.	-622.47
1802	21.233	4.3636	0.	-582.56
1803	21.417	4.3636	0.	-542.84
1804	21.602	4.3636	0.	-503.31
1805	21.786	4.3636	0.	-463.97
1806	21.971	4.3636	0.	-424.81
1807	22.155	4.3636	0.	-385.84
1808	22.34	4.3636	0.	-347.03
1809	22.524	4.3636	0.	-308.4
1810	22.709	4.3636	0.	-269.91
1811	22.893	4.3636	0.	-231.54
1812	23.078	4.3636	0.	-193.25
1813	23.262	4.3636	0.	-155.
1814	23.447	4.3636	0.	-116.72
1815	23.631	4.3636	0.	-78.32
1816	23.816	4.3636	0.	-39.959
1817	5.5512	4.1818	0.	-8610.7
1818	5.7356	4.1818	0.	-6941.8
1819	5.9201	4.1818	0.	-6152.9
1820	6.1046	4.1818	0.	-5645.
1821	6.2891	4.1818	0.	-5287.3
1822	6.4736	4.1818	0.	-5022.
1823	6.6581	4.1818	0.	-4816.4
1824	6.8426	4.1818	0.	-4650.9
1825	7.0271	4.1818	0.	-4513.1
1826	7.2116	4.1818	0.	-4395.2
1827	7.396	4.1818	0.	-4291.9
1828	7.5805	4.1818	0.	-4199.5
1829	7.765	4.1818	0.	-4115.6
1830	7.9495	4.1818	0.	-4038.2
1831	8.134	4.1818	0.	-3966.1
1832	8.3185	4.1818	0.	-3898.
1833	8.503	4.1818	0.	-3833.3
1834	8.6875	4.1818	0.	-3771.2
1835	8.8719	4.1818	0.	-3711.3
1836	9.0564	4.1818	0.	-3653.1
1837	9.2409	4.1818	0.	-3596.3
1838	9.4254	4.1818	0.	-3540.7
1839	9.6099	4.1818	0.	-3486.1
1840	9.7944	4.1818	0.	-3432.2
1841	9.9789	4.1818	0.	-3378.9
1842	10.163	4.1818	0.	-3326.3
1843	10.348	4.1818	0.	-3274.1
1844	10.532	4.1818	0.	-3222.3
1845	10.717	4.1818	0.	-3170.8
1846	10.901	4.1818	0.	-3119.7
1847	11.086	4.1818	0.	-3068.8
1848	11.27	4.1818	0.	-3018.2
1849	11.455	4.1818	0.	-2967.9
1850	11.639	4.1818	0.	-2917.8
1851	11.824	4.1818	0.	-2867.8
1852	12.008	4.1818	0.	-2818.2
1853	12.193	4.1818	0.	-2768.7
1854	12.377	4.1818	0.	-2719.4
1855	12.562	4.1818	0.	-2670.3
1856	12.746	4.1818	0.	-2621.4
1857	12.931	4.1818	0.	-2572.7
1858	13.115	4.1818	0.	-2524.1
1859	13.3	4.1818	0.	-2475.8
1860	13.484	4.1818	0.	-2427.7
1861	13.669	4.1818	0.	-2379.7
1862	13.853	4.1818	0.	-2331.9
1863	14.038	4.1818	0.	-2284.4
1864	14.222	4.1818	0.	-2237.
1865	14.407	4.1818	0.	-2189.8
1866	14.591	4.1818	0.	-2142.8
1867	14.776	4.1818	0.	-2096.
1868	14.96	4.1818	0.	-2049.4
1869	15.145	4.1818	0.	-2003.
1870	15.329	4.1818	0.	-1956.8
1871	15.514	4.1818	0.	-1910.7
1872	15.698	4.1818	0.	-1864.9
1873	15.883	4.1818	0.	-1819.3
1874	16.067	4.1818	0.	-1773.8
1875	16.251	4.1818	0.	-1728.6
1876	16.436	4.1818	0.	-1683.6
1877	16.62	4.1818	0.	-1638.7
1878	16.805	4.1818	0.	-1594.1
1879	16.989	4.1818	0.	-1549.6
1880	17.174	4.1818	0.	-1505.4
1881	17.358	4.1818	0.	-1461.3
1882	17.543	4.1818	0.	-1417.5
1883	17.727	4.1818	0.	-1373.9
1884	17.912	4.1818	0.	-1330.4
1885	18.096	4.1818	0.	-1287.2
1886	18.281	4.1818	0.	-1244.1
1887	18.465	4.1818	0.	-1201.3
1888	18.65	4.1818	0.	-1158.7
1889	18.834	4.1818	0.	-1116.2
1890	19.019	4.1818	0.	-1074.
1891	19.203	4.1818	0.	-1032.
1892	19.388	4.1818	0.	-990.14
1893	19.572	4.1818	0.	-948.51
1894	19.757	4.1818	0.	-907.09
1895	19.941	4.1818	0.	-865.87
1896	20.126	4.1818	0.	-824.85
1897	20.31	4.1818	0.	-784.03
1898	20.495	4.1818	0.	-743.41
1899	20.679	4.1818	0.	-702.99
1900	20.864	4.1818	0.	-662.77
1901	21.048	4.1818	0.	-622.74
1902	21.233	4.1818	0.	-582.91
1903	21.417	4.1818	0.	-543.28
1904	21.602	4.1818	0.	-503.83
1905	21.786	4.1818	0.	-464.56
1906	21.971	4.1818	0.	-425.47
1907	22.155	4.1818	0.	-386.55
1908	22.34	4.1818	0.	-347.79
1909	22.524	4.1818	0.	-309.17
1910	22.709	4.1818	0.	-270.67
1911	22.893	4.1818	0.	-232.26
1912	23.078	4.1818	0.	-193.89
1913	23.262	4.1818	0.	-155.51
1914	23.447	4.1818	0.	-117.07
1915	23.631	4.1818	0.	-78.489
1916	23.816	4.1818	0.	-39.931
1917	5.5512	4.	0.	-12030
1918	5.7356	4.	0.	-8258.8
1919	5.9201	4.	0.	-7012.7
1920	6.1046	4.	0.	-6239.4
1921	6.2891	4.	0.	-5723.6
1922	6.4736	4.	0.	-5350.2
1923	6.6581	4.	0.	-5066.1
1924	6.8426	4.	0.	-4841.6
1925	7.0271	4.	0.	-4659.
1926	7.2116	4.	0.	-4506.5
1927	7.396	4.	0.	-4376.6
1928	7.5805	4.	0.	-4263.7
1929	7.765	4.	0.	-4164.
1930	7.9495	4.	0.	-4074.5
1931	8.134	4.	0.	-3993.
1932	8.3185	4.	0.	-3917.8
1933	8.503	4.	0.	-3847.7
1934	8.6875	4.	0.	-3781.5
1935	8.8719	4.	0.	-3718.4
1936	9.0564	4.	0.	-3657.9
1937	9.2409	4.	0.	-3599.4
1938	9.4254	4.	0.	-3542.5
1939	9.6099	4.	0.	-3486.8
1940	9.7944	4.	0.	-3432.3
1941	9.9789	4.	0.	-3378.5
1942	10.163	4.	0.	-3325.5
1943	10.348	4.	0.	-3273.1
1944	10.532	4.	0.	-3221.1
1945	10.717	4.	0.	-3169.6
1946	10.901	4.	0.	-3118.4
1947	11.086	4.	0.	-3067.5
1948	11.27	4.	0.	-3016.9
1949	11.455	4.	0.	-2966.6
1950	11.639	4.	0.	-2916.5
1951	11.824	4.	0.	-2866.7
1952	12.008	4.	0.	-2817.
1953	12.193	4.	0.	-2767.6
1954	12.377	4.	0.	-2718.3
1955	12.562	4.	0.	-2669.3
1956	12.746	4.	0.	-2620.4
1957	12.931	4.	0.	-2571.7
1958	13.115	4.	0.	-2523.2
1959	13.3	4.	0.	-2474.9
1960	13.484	4.	0.	-2426.8
1961	13.669	4.	0.	-2378.9
1962	13.853	4.	0.	-2331.2
1963	14.038	4.	0.	-2283.6
1964	14.222	4.	0.	-2236.3
1965	14.407	4.	0.	-2189.1
1966	14.591	4.	0.	-2142.1
1967	14.776	4.	0.	-2095.3
1968	14.96	4.	0.	-2048.7
1969	15.145	4.	0.	-2002.3
1970	15.329	4.	0.	-1956.1
1971	15.514	4.	0.	-1910.1
1972	15.698	4.	0.	-1864.3
1973	15.883	4.	0.	-1818.7
1974	16.067	4.	0.	-1773.3
1975	16.251	4.	0.	-1728.
1976	16.436	4.	0.	-1683.
1977	16.62	4.	0.	-1638.2
1978	16.805	4.	0.	-1593.6
1979	16.989	4.	0.	-1549.1
1980	17.174	4.	0.	-1504.9
1981	17.358	4.	0.	-1460.9
1982	17.543	4.	0.	-1417.
1983	17.727	4.	0.	-1373.4
1984	17.912	4.	0.	-1330.
1985	18.096	4.	0.	-1286.8
1986	18.281	4.	0.	-1243.7
1987	18.465	4.	0.	-1200.9
1988	18.65	4.	0.	-1158.3
1989	18.834	4.	0.	-1115.9
1990	19.019	4.	0.	-1073.7
1991	19.203	4.	0.	-1031.7
1992	19.388	4.	0.	-989.92
1993	19.572	4.	0.	-948.33
1994	19.757	4.	0.	-906.96
1995	19.941	4.	0.	-865.78
1996	20.126	4.	0.	-824.81
1997	20.31	4.	0.	-784.05
1998	20.495	4.	0.	-743.49
1999	20.679	4.	0.	-703.13
2000	20.864	4.	0.	-662.98
2001	21.048	4.	0.	-623.02
2002	21.233	4.	0.	-583.26
2003	21.417	4.	0.	-543.69
2004	21.602	4.	0.	-504.31
2005	21.786	4.	0.	-465.1
2006	21.971	4.	0.	-426.07
2007	22.155	4.	0.	-387.19
2008	22.34	4.	0.	-348.45
2009	22.524	4.	0.	-309.84
2010	22.709	4.	0.	-271.31
2011	22.893	4.	0.	-232.85
2012	23.078	4.	0.	-194.4
2013	23.262	4.	0.	-155.91
2014	23.447	4.	0.	-117.34
2015	23.631	4.	0.	-78.612
2016	23.816	4.	0.	-39.897
2017	5.5512	3.8182	0.	-12396
2018	5.7356	3.8182	0.	-9311.1
2019	5.9201	3.8182	0.	-7716.2
2020	6.1046	3.8182	0.	-6762.9
2021	6.2891	3.8182	0.	-6117.9
2022	6.4736	3.8182	0.	-5650.
2023	6.6581	3.8182	0.	-5295.1
2024	6.8426	3.8182	0.	-5016.7
2025	7.0271	3.8182	0.	-4792.5
2026	7.2116	3.8182	0.	-4608.1
2027	7.396	3.8182	0.	-4453.6
2028	7.5805	3.8182	0.	-4321.8
2029	7.765	3.8182	0.	-4207.6
2030	7.9495	3.8182	0.	-4107.
2031	8.134	3.8182	0.	-4017.1
2032	8.3185	3.8182	0.	-3935.5
2033	8.503	3.8182	0.	-3860.5
2034	8.6875	3.8182	0.	-3790.6
2035	8.8719	3.8182	0.	-3724.7
2036	9.0564	3.8182	0.	-3662.1
2037	9.2409	3.8182	0.	-3602.1
2038	9.4254	3.8182	0.	-3544.
2039	9.6099	3.8182	0.	-3487.5
2040	9.7944	3.8182	0.	-3432.3
2041	9.9789	3.8182	0.	-3378.2
2042	10.163	3.8182	0.	-3324.9
2043	10.348	3.8182	0.	-3272.2
2044	10.532	3.8182	0.	-3220.1
2045	10.717	3.8182	0.	-3168.5
2046	10.901	3.8182	0.	-3117.3
2047	11.086	3.8182	0.	-3066.4
2048	11.27	3.8182	0.	-3015.8
2049	11.455	3.8182	0.	-2965.5
2050	11.639	3.8182	0.	-2915.5
2051	11.824	3.8182	0.	-2865.6
2052	12.008	3.8182	0.	-2816.
2053	12.193	3.8182	0.	-2766.6
2054	12.377	3.8182	0.	-2717.4
2055	12.562	3.8182	0.	-2668.4
2056	12.746	3.8182	0.	-2619.6
2057	12.931	3.8182	0.	-2570.9
2058	13.115	3.8182	0.	-2522.5
2059	13.3	3.8182	0.	-2474.2
2060	13.484	3.8182	0.	-2426.1
2061	13.669	3.8182	0.	-2378.2
2062	13.853	3.8182	0.	-2330.5
2063	14.038	3.8182	0.	-2283.
2064	14.222	3.8182	0.	-2235.7
2065	14.407	3.8182	0.	-2188.5
2066	14.591	3.8182	0.	-2141.5
2067	14.776	3.8182	0.	-2094.8
2068	14.96	3.8182	0.	-2048.2
2069	15.145	3.8182	0.	-2001.8
2070	15.329	3.8182	0.	-1955.6
2071	15.514	3.8182	0.	-1909.6
2072	15.698	3.8182	0.	-1863.8
2073	15.883	3.8182	0.	-1818.2
2074	16.067	3.8182	0.	-1772.8
2075	16.251	3.8182	0.	-1727.6
2076	16.436	3.8182	0.	-1682.6
2077	16.62	3.8182	0.	-1637.7
2078	16.805	3.8182	0.	-1593.1
2079	16.989	3.8182	0.	-1548.7
2080	17.174	3.8182	0.	-1504.5
2081	17.358	3.8182	0.	-1460.5
2082	17.543	3.8182	0.	-1416.6
2083	17.727	3.8182	0.	-1373.
2084	17.912	3.8182	0.	-1329.6
2085	18.096	3.8182	0.	-1286.4
2086	18.281	3.8182	0.	-1243.4
2087	18.465	3.8182	0.	-1200.6
2088	18.65	3.8182	0.	-1158.
2089	18.834	3.8182	0.	-1115.7
2090	19.019	3.8182	0.	-1073.5
2091	19.203	3.8182	0.	-1031.5
2092	19.388	3.8182	0.	-989.76
2093	19.572	3.8182	0.	-948.21
2094	19.757	3.8182	0.	-906.87
2095	19.941	3.8182	0.	-865.74
2096	20.126	3.8182	0.	-824.81
2097	20.31	3.8182	0.	-784.1
2098	20.495	3.8182	0.	-743.59
2099	20.679	3.8182	0.	-703.28
2100	20.864	3.8182	0.	-663.18
2101	21.048	3.8182	0.	-623.28
2102	21.233	3.8182	0.	-583.58
2103	21.417	3.8182	0.	-544.06
2104	21.602	3.8182	0.	-504.73
2105	21.786	3.8182	0.	-465.57
2106	21.971	3.8182	0.	-426.58
2107	22.155	3.8182	0.	-387.73
2108	22.34	3.8182	0.	-349.01
2109	22.524	3.8182	0.	-310.38
2110	22.709	3.8182	0.	-271.84
2111	22.893	3.8182	0.	-233.32
2112	23.078	3.8182	0.	-194.8
2113	23.262	3.8182	0.	-156.22
2114	23.447	3.8182	0.	-117.54
2115	23.631	3.8182	0.	-78.701
2116	23.816	3.8182	0.	-39.863
2117	5.5512	3.6364	0.	-11759
2118	5.7356	3.6364	0.	-9668.3
2119	5.9201	3.6364	0.	-8186.
2120	6.1046	3.6364	0.	-7169.3
2121	6.2891	3.6364	0.	-6444.7
2122	6.4736	3.6364	0.	-5906.
2123	6.6581	3.6364	0.	-5493.1
2124	6.8426	3.6364	0.	-5168.5
2125	7.0271	3.6364	0.	-4908.3
2126	7.2116	3.6364	0.	-4696.
2127	7.396	3.6364	0.	-4520.
2128	7.5805	3.6364	0.	-4371.7
2129	7.765	3.6364	0.	-4244.9
2130	7.9495	3.6364	0.	-4134.8
2131	8.134	3.6364	0.	-4037.6
2132	8.3185	3.6364	0.	-3950.4
2133	8.503	3.6364	0.	-3871.2
2134	8.6875	3.6364	0.	-3798.2
2135	8.8719	3.6364	0.	-3730.
2136	9.0564	3.6364	0.	-3665.7
2137	9.2409	3.6364	0.	-3604.3
2138	9.4254	3.6364	0.	-3545.3
2139	9.6099	3.6364	0.	-3488.1
2140	9.7944	3.6364	0.	-3432.4
2141	9.9789	3.6364	0.	-3377.9
2142	10.163	3.6364	0.	-3324.3
2143	10.348	3.6364	0.	-3271.5
2144	10.532	3.6364	0.	-3219.3
2145	10.717	3.6364	0.	-3167.6
2146	10.901	3.6364	0.	-3116.4
2147	11.086	3.6364	0.	-3065.5
2148	11.27	3.6364	0.	-3014.9
2149	11.455	3.6364	0.	-2964.7
2150	11.639	3.6364	0.	-2914.6
2151	11.824	3.6364	0.	-2864.8
2152	12.008	3.6364	0.	-2815.2
2153	12.193	3.6364	0.	-2765.9
2154	12.377	3.6364	0.	-2716.7
2155	12.562	3.6364	0.	-2667.7
2156	12.746	3.6364	0.	-2618.9
2157	12.931	3.6364	0.	-2570.3
2158	13.115	3.6364	0.	-2521.9
2159	13.3	3.6364	0.	-2473.6
2160	13.484	3.6364	0.	-2425.6
2161	13.669	3.6364	0.	-2377.7
2162	13.853	3.6364	0.	-2330.
2163	14.038	3.6364	0.	-2282.5
2164	14.222	3.6364	0.	-2235.2
2165	14.407	3.6364	0.	-2188.
2166	14.591	3.6364	0.	-2141.1
2167	14.776	3.6364	0.	-2094.3
2168	14.96	3.6364	0.	-2047.8
2169	15.145	3.6364	0.	-2001.4
2170	15.329	3.6364	0.	-1955.2
2171	15.514	3.6364	0.	-1909.2
2172	15.698	3.6364	0.	-1863.4
2173	15.883	3.6364	0.	-1817.8
2174	16.067	3.6364	0.	-1772.4
2175	16.251	3.6364	0.	-1727.2
2176	16.436	3.6364	0.	-1682.2
2177	16.62	3.6364	0.	-1637.4
2178	16.805	3.6364	0.	-1592.8
2179	16.989	3.6364	0.	-1548.4
2180	17.174	3.6364	0.	-1504.2
2181	17.358	3.6364	0.	-1460.2
2182	17.543	3.6364	0.	-1416.3
2183	17.727	3.6364	0.	-1372.7
2184	17.912	3.6364	0.	-1329.4
2185	18.096	3.6364	0.	-1286.2
2186	18.281	3.6364	0.	-1243.2
2187	18.465	3.6364	0.	-1200.4
2188	18.65	3.6364	0.	-1157.8
2189	18.834	3.6364	0.	-1115.5
2190	19.019	3.6364	0.	-1073.3
2191	19.203	3.6364	0.	-1031.4
2192	19.388	3.6364	0.	-989.64
2193	19.572	3.6364	0.	-948.12
2194	19.757	3.6364	0.	-906.81
2195	19.941	3.6364	0.	-865.71
2196	20.126	3.6364	0.	-824.83
2197	20.31	3.6364	0.	-784.15
2198	20.495	3.6364	0.	-743.68
2199	20.679	3.6364	0.	-703.42
2200	20.864	3.6364	0.	-663.37
2201	21.048	3.6364	0.	-623.51
2202	21.233	3.6364	0.	-583.85
2203	21.417	3.6364	0.	-544.38
2204	21.602	3.6364	0.	-505.09
2205	21.786	3.6364	0.	-465.97
2206	21.971	3.6364	0.	-427.
2207	22.155	3.6364	0.	-388.17
2208	22.34	3.6364	0.	-349.45
2209	22.524	3.6364	0.	-310.82
2210	22.709	3.6364	0.	-272.24
2211	22.893	3.6364	0.	-233.69
2212	23.078	3.6364	0.	-195.11
2213	23.262	3.6364	0.	-156.45
2214	23.447	3.6364	0.	-117.69
2215	23.631	3.6364	0.	-78.763
2216	23.816	3.6364	0.	-39.832
2217	5.5512	3.4545	0.	-10934
2218	5.7356	3.4545	0.	-9630.4
2219	5.9201	3.4545	0.	-8412.2
2220	6.1046	3.4545	0.	-7439.3
2221	6.2891	3.4545	0.	-6687.1
2222	6.4736	3.4545	0.	-6105.2
2223	6.6581	3.4545	0.	-5650.1
2224	6.8426	3.4545	0.	-5289.8
2225	7.0271	3.4545	0.	-5000.9
2226	7.2116	3.4545	0.	-4766.2
2227	7.396	3.4545	0.	-4572.8
2228	7.5805	3.4545	0.	-4411.4
2229	7.765	3.4545	0.	-4274.5
2230	7.9495	3.4545	0.	-4156.6
2231	8.134	3.4545	0.	-4053.6
2232	8.3185	3.4545	0.	-3962.2
2233	8.503	3.4545	0.	-3879.7
2234	8.6875	3.4545	0.	-3804.2
2235	8.8719	3.4545	0.	-3734.1
2236	9.0564	3.4545	0.	-3668.4
2237	9.2409	3.4545	0.	-3606.
2238	9.4254	3.4545	0.	-3546.2
2239	9.6099	3.4545	0.	-3488.5
2240	9.7944	3.4545	0.	-3432.5
2241	9.9789	3.4545	0.	-3377.7
2242	10.163	3.4545	0.	-3323.9
2243	10.348	3.4545	0.	-3271.
2244	10.532	3.4545	0.	-3218.7
2245	10.717	3.4545	0.	-3167.
2246	10.901	3.4545	0.	-3115.7
2247	11.086	3.4545	0.	-3064.8
2248	11.27	3.4545	0.	-3014.3
2249	11.455	3.4545	0.	-2964.
2250	11.639	3.4545	0.	-2914.
2251	11.824	3.4545	0.	-2864.2
2252	12.008	3.4545	0.	-2814.6
2253	12.193	3.4545	0.	-2765.3
2254	12.377	3.4545	0.	-2716.1
2255	12.562	3.4545	0.	-2667.2
2256	12.746	3.4545	0.	-2618.4
2257	12.931	3.4545	0.	-2569.8
2258	13.115	3.4545	0.	-2521.4
2259	13.3	3.4545	0.	-2473.2
2260	13.484	3.4545	0.	-2425.1
2261	13.669	3.4545	0.	-2377.3
2262	13.853	3.4545	0.	-2329.6
2263	14.038	3.4545	0.	-2282.1
2264	14.222	3.4545	0.	-2234.8
2265	14.407	3.4545	0.	-2187.7
2266	14.591	3.4545	0.	-2140.7
2267	14.776	3.4545	0.	-2094.
2268	14.96	3.4545	0.	-2047.4
2269	15.145	3.4545	0.	-2001.1
2270	15.329	3.4545	0.	-1954.9
2271	15.514	3.4545	0.	-1908.9
2272	15.698	3.4545	0.	-1863.1
2273	15.883	3.4545	0.	-1817.5
2274	16.067	3.4545	0.	-1772.1
2275	16.251	3.4545	0.	-1726.9
2276	16.436	3.4545	0.	-1681.9
2277	16.62	3.4545	0.	-1637.1
2278	16.805	3.4545	0.	-1592.5
2279	16.989	3.4545	0.	-1548.1
2280	17.174	3.4545	0.	-1503.9
2281	17.358	3.4545	0.	-1459.9
2282	17.543	3.4545	0.	-1416.1
2283	17.727	3.4545	0.	-1372.5
2284	17.912	3.4545	0.	-1329.1
2285	18.096	3.4545	0.	-1286.
2286	18.281	3.4545	0.	-1243.
2287	18.465	3.4545	0.	-1200.2
2288	18.65	3.4545	0.	-1157.7
2289	18.834	3.4545	0.	-1115.3
2290	19.019	3.4545	0.	-1073.2
2291	19.203	3.4545	0.	-1031.3
2292	19.388	3.4545	0.	-989.56
2293	19.572	3.4545	0.	-948.06
2294	19.757	3.4545	0.	-906.78
2295	19.941	3.4545	0.	-865.71
2296	20.126	3.4545	0.	-824.85
2297	20.31	3.4545	0.	-784.2
2298	20.495	3.4545	0.	-743.77
2299	20.679	3.4545	0.	-703.54
2300	20.864	3.4545	0.	-663.52
2301	21.048	3.4545	0.	-623.69
2302	21.233	3.4545	0.	-584.07
2303	21.417	3.4545	0.	-544.63
2304	21.602	3.4545	0.	-505.36
2305	21.786	3.4545	0.	-466.27
2306	21.971	3.4545	0.	-427.32
2307	22.155	3.4545	0.	-388.5
2308	22.34	3.4545	0.	-349.78
2309	22.524	3.4545	0.	-311.14
2310	22.709	3.4545	0.	-272.55
2311	22.893	3.4545	0.	-233.96
2312	23.078	3.4545	0.	-195.33
2313	23.262	3.4545	0.	-156.62
2314	23.447	3.4545	0.	-117.8
2315	23.631	3.4545	0.	-78.805
2316	23.816	3.4545	0.	-39.806
2317	5.5512	3.2727	0.	-10447
2318	5.7356	3.2727	0.	-9500.3
2319	5.9201	3.2727	0.	-8492.4
2320	6.1046	3.2727	0.	-7590.6
2321	6.2891	3.2727	0.	-6842.2
2322	6.4736	3.2727	0.	-6239.5
2323	6.6581	3.2727	0.	-5758.6
2324	6.8426	3.2727	0.	-5374.5
2325	7.0271	3.2727	0.	-5065.7
2326	7.2116	3.2727	0.	-4815.2
2327	7.396	3.2727	0.	-4609.7
2328	7.5805	3.2727	0.	-4438.9
2329	7.765	3.2727	0.	-4294.9
2330	7.9495	3.2727	0.	-4171.8
2331	8.134	3.2727	0.	-4064.7
2332	8.3185	3.2727	0.	-3970.2
2333	8.503	3.2727	0.	-3885.4
2334	8.6875	3.2727	0.	-3808.2
2335	8.8719	3.2727	0.	-3737.
2336	9.0564	3.2727	0.	-3670.3
2337	9.2409	3.2727	0.	-3607.2
2338	9.4254	3.2727	0.	-3546.9
2339	9.6099	3.2727	0.	-3488.8
2340	9.7944	3.2727	0.	-3432.5
2341	9.9789	3.2727	0.	-3377.5
2342	10.163	3.2727	0.	-3323.6
2343	10.348	3.2727	0.	-3270.6
2344	10.532	3.2727	0.	-3218.3
2345	10.717	3.2727	0.	-3166.5
2346	10.901	3.2727	0.	-3115.2
2347	11.086	3.2727	0.	-3064.3
2348	11.27	3.2727	0.	-3013.8
2349	11.455	3.2727	0.	-2963.5
2350	11.639	3.2727	0.	-2913.5
2351	11.824	3.2727	0.	-2863.8
2352	12.008	3.2727	0.	-2814.2
2353	12.193	3.2727	0.	-2764.9
2354	12.377	3.2727	0.	-2715.8
2355	12.562	3.2727	0.	-2666.8
2356	12.746	3.2727	0.	-2618.
2357	12.931	3.2727	0.	-2569.5
2358	13.115	3.2727	0.	-2521.1
2359	13.3	3.2727	0.	-2472.9
2360	13.484	3.2727	0.	-2424.8
2361	13.669	3.2727	0.	-2377.
2362	13.853	3.2727	0.	-2329.3
2363	14.038	3.2727	0.	-2281.8
2364	14.222	3.2727	0.	-2234.5
2365	14.407	3.2727	0.	-2187.4
2366	14.591	3.2727	0.	-2140.5
2367	14.776	3.2727	0.	-2093.8
2368	14.96	3.2727	0.	-2047.2
2369	15.145	3.2727	0.	-2000.9
2370	15.329	3.2727	0.	-1954.7
2371	15.514	3.2727	0.	-1908.7
2372	15.698	3.2727	0.	-1862.9
2373	15.883	3.2727	0.	-1817.3
2374	16.067	3.2727	0.	-1771.9
2375	16.251	3.2727	0.	-1726.8
2376	16.436	3.2727	0.	-1681.8
2377	16.62	3.2727	0.	-1637.
2378	16.805	3.2727	0.	-1592.4
2379	16.989	3.2727	0.	-1548.
2380	17.174	3.2727	0.	-1503.8
2381	17.358	3.2727	0.	-1459.8
2382	17.543	3.2727	0.	-1416.
2383	17.727	3.2727	0.	-1372.4
2384	17.912	3.2727	0.	-1329.
2385	18.096	3.2727	0.	-1285.8
2386	18.281	3.2727	0.	-1242.9
2387	18.465	3.2727	0.	-1200.1
2388	18.65	3.2727	0.	-1157.6
2389	18.834	3.2727	0.	-1115.2
2390	19.019	3.2727	0.	-1073.1
2391	19.203	3.2727	0.	-1031.2
2392	19.388	3.2727	0.	-989.51
2393	19.572	3.2727	0.	-948.03
2394	19.757	3.2727	0.	-906.76
2395	19.941	3.2727	0.	-865.71
2396	20.126	3.2727	0.	-824.87
2397	20.31	3.2727	0.	-784.24
2398	20.495	3.2727	0.	-743.83
2399	20.679	3.2727	0.	-703.62
2400	20.864	3.2727	0.	-663.62
2401	21.048	3.2727	0.	-623.82
2402	21.233	3.2727	0.	-584.22
2403	21.417	3.2727	0.	-544.8
2404	21.602	3.2727	0.	-505.55
2405	21.786	3.2727	0.	-466.47
2406	21.971	3.2727	0.	-427.53
2407	22.155	3.2727	0.	-388.72
2408	22.34	3.2727	0.	-350.
2409	22.524	3.2727	0.	-311.36
2410	22.709	3.2727	0.	-272.75
2411	22.893	3.2727	0.	-234.13
2412	23.078	3.2727	0.	-195.47
2413	23.262	3.2727	0.	-156.73
2414	23.447	3.2727	0.	-117.87
2415	23.631	3.2727	0.	-78.832
2416	23.816	3.2727	0.	-39.789
2417	5.5512	3.0909	0.	-10214
2418	5.7356	3.0909	0.	-9415.6
2419	5.9201	3.0909	0.	-8512.
2420	6.1046	3.0909	0.	-7655.8
2421	6.2891	3.0909	0.	-6916.5
2422	6.4736	3.0909	0.	-6306.7
2423	6.6581	3.0909	0.	-5813.9
2424	6.8426	3.0909	0.	-5417.9
2425	7.0271	3.0909	0.	-5099.
2426	7.2116	3.0909	0.	-4840.4
2427	7.396	3.0909	0.	-4628.6
2428	7.5805	3.0909	0.	-4453.
2429	7.765	3.0909	0.	-4305.4
2430	7.9495	3.0909	0.	-4179.5
2431	8.134	3.0909	0.	-4070.4
2432	8.3185	3.0909	0.	-3974.3
2433	8.503	3.0909	0.	-3888.4
2434	8.6875	3.0909	0.	-3810.3
2435	8.8719	3.0909	0.	-3738.4
2436	9.0564	3.0909	0.	-3671.2
2437	9.2409	3.0909	0.	-3607.8
2438	9.4254	3.0909	0.	-3547.3
2439	9.6099	3.0909	0.	-3489.
2440	9.7944	3.0909	0.	-3432.5
2441	9.9789	3.0909	0.	-3377.5
2442	10.163	3.0909	0.	-3323.5
2443	10.348	3.0909	0.	-3270.4
2444	10.532	3.0909	0.	-3218.1
2445	10.717	3.0909	0.	-3166.3
2446	10.901	3.0909	0.	-3115.
2447	11.086	3.0909	0.	-3064.1
2448	11.27	3.0909	0.	-3013.6
2449	11.455	3.0909	0.	-2963.3
2450	11.639	3.0909	0.	-2913.3
2451	11.824	3.0909	0.	-2863.6
2452	12.008	3.0909	0.	-2814.
2453	12.193	3.0909	0.	-2764.7
2454	12.377	3.0909	0.	-2715.6
2455	12.562	3.0909	0.	-2666.6
2456	12.746	3.0909	0.	-2617.9
2457	12.931	3.0909	0.	-2569.3
2458	13.115	3.0909	0.	-2520.9
2459	13.3	3.0909	0.	-2472.7
2460	13.484	3.0909	0.	-2424.7
2461	13.669	3.0909	0.	-2376.9
2462	13.853	3.0909	0.	-2329.2
2463	14.038	3.0909	0.	-2281.7
2464	14.222	3.0909	0.	-2234.4
2465	14.407	3.0909	0.	-2187.3
2466	14.591	3.0909	0.	-2140.4
2467	14.776	3.0909	0.	-2093.7
2468	14.96	3.0909	0.	-2047.1
2469	15.145	3.0909	0.	-2000.8
2470	15.329	3.0909	0.	-1954.6
2471	15.514	3.0909	0.	-1908.6
2472	15.698	3.0909	0.	-1862.8
2473	15.883	3.0909	0.	-1817.2
2474	16.067	3.0909	0.	-1771.9
2475	16.251	3.0909	0.	-1726.7
2476	16.436	3.0909	0.	-1681.7
2477	16.62	3.0909	0.	-1636.9
2478	16.805	3.0909	0.	-1592.3
2479	16.989	3.0909	0.	-1547.9
2480	17.174	3.0909	0.	-1503.7
2481	17.358	3.0909	0.	-1459.7
2482	17.543	3.0909	0.	-1415.9
2483	17.727	3.0909	0.	-1372.3
2484	17.912	3.0909	0.	-1328.9
2485	18.096	3.0909	0.	-1285.8
2486	18.281	3.0909	0.	-1242.8
2487	18.465	3.0909	0.	-1200.1
2488	18.65	3.0909	0.	-1157.5
2489	18.834	3.0909	0.	-1115.2
2490	19.019	3.0909	0.	-1073.1
2491	19.203	3.0909	0.	-1031.2
2492	19.388	3.0909	0.	-989.49
2493	19.572	3.0909	0.	-948.01
2494	19.757	3.0909	0.	-906.75
2495	19.941	3.0909	0.	-865.71
2496	20.126	3.0909	0.	-824.88
2497	20.31	3.0909	0.	-784.26
2498	20.495	3.0909	0.	-743.86
2499	20.679	3.0909	0.	-703.66
2500	20.864	3.0909	0.	-663.67
2501	21.048	3.0909	0.	-623.89
2502	21.233	3.0909	0.	-584.29
2503	21.417	3.0909	0.	-544.88
2504	21.602	3.0909	0.	-505.65
2505	21.786	3.0909	0.	-466.57
2506	21.971	3.0909	0.	-427.64
2507	22.155	3.0909	0.	-388.83
2508	22.34	3.0909	0.	-350.11
2509	22.524	3.0909	0.	-311.46
2510	22.709	3.0909	0.	-272.84
2511	22.893	3.0909	0.	-234.22
2512	23.078	3.0909	0.	-195.55
2513	23.262	3.0909	0.	-156.78
2514	23.447	3.0909	0.	-117.9
2515	23.631	3.0909	0.	-78.844
2516	23.816	3.0909	0.	-39.78
2517	5.5512	2.9091	0.	-10214
2518	5.7356	2.9091	0.	-9415.6
2519	5.9201	2.9091	0.	-8512.
2520	6.1046	2.9091	0.	-7655.8
2521	6.2891	2.9091	0.	-6916.5
2522	6.4736	2.9091	0.	-6306.7
2523	6.6581	2.9091	0.	-5813.9
2524	6.8426	2.9091	0.	-5417.9
2525	7.0271	2.9091	0.	-5099.
2526	7.2116	2.9091	0.	-4840.4
2527	7.396	2.9091	0.	-4628.6
2528	7.5805	2.9091	0.	-4453.
2529	7.765	2.9091	0.	-4305.4
2530	7.9495	2.9091	0.	-4179.5
2531	8.134	2.9091	0.	-4070.4
2532	8.3185	2.9091	0.	-3974.3
2533	8.503	2.9091	0.	-3888.4
2534	8.6875	2.9091	0.	-3810.3
2535	8.8719	2.9091	0.	-3738.4
2536	9.0564	2.9091	0.	-3671.2
2537	9.2409	2.9091	0.	-3607.8
2538	9.4254	2.9091	0.	-3547.3
2539	9.6099	2.9091	0.	-3489.
2540	9.7944	2.9091	0.	-3432.5
2541	9.9789	2.9091	0.	-3377.5
2542	10.163	2.9091	0.	-3323.5
2543	10.348	2.9091	0.	-3270.4
2544	10.532	2.9091	0.	-3218.1
2545	10.717	2.9091	0.	-3166.3
2546	10.901	2.9091	0.	-3115.
2547	11.086	2.9091	0.	-3064.1
2548	11.27	2.9091	0.	-3013.6
2549	11.455	2.9091	0.	-2963.3
2550	11.639	2.9091	0.	-2913.3
2551	11.824	2.9091	0.	-2863.6
2552	12.008	2.9091	0.	-2814.
2553	12.193	2.9091	0.	-2764.7
2554	12.377	2.9091	0.	-2715.6
2555	12.562	2.9091	0.	-2666.6
2556	12.746	2.9091	0.	-2617.9
2557	12.931	2.9091	0.	-2569.3
2558	13.115	2.9091	0.	-2520.9
2559	13.3	2.9091	0.	-2472.7
2560	13.484	2.9091	0.	-2424.7
2561	13.669	2.9091	0.	-2376.9
2562	13.853	2.9091	0.	-2329.2
2563	14.038	2.9091	0.	-2281.7
2564	14.222	2.9091	0.	-2234.4
2565	14.407	2.9091	0.	-2187.3
2566	14.591	2.9091	0.	-2140.4
2567	14.776	2.9091	0.	-2093.7
2568	14.96	2.9091	0.	-2047.1
2569	15.145	2.9091	0.	-2000.8
2570	15.329	2.9091	0.	-1954.6
2571	15.514	2.9091	0.	-1908.6
2572	15.698	2.9091	0.	-1862.8
2573	15.883	2.9091	0.	-1817.2
2574	16.067	2.9091	0.	-1771.9
2575	16.251	2.9091	0.	-1726.7
2576	16.436	2.9091	0.	-1681.7
2577	16.62	2.9091	0.	-1636.9
2578	16.805	2.9091	0.	-1592.3
2579	16.989	2.9091	0.	-1547.9
2580	17.174	2.9091	0.	-1503.7
2581	17.358	2.9091	0.	-1459.7
2582	17.543	2.9091	0.	-1415.9
2583	17.727	2.9091	0.	-1372.3
2584	17.912	2.9091	0.	-1328.9
2585	18.096	2.9091	0.	-1285.8
2586	18.281	2.9091	0.	-1242.8
2587	18.465	2.9091	0.	-1200.1
2588	18.65	2.9091	0.	-1157.5
2589	18.834	2.9091	0.	-1115.2
2590	19.019	2.9091	0.	-1073.1
2591	19.203	2.9091	0.	-1031.2
2592	19.388	2.9091	0.	-989.49
2593	19.572	2.9091	0.	-948.01
2594	19.757	2.9091	0.	-906.75
2595	19.941	2.9091	0.	-865.71
2596	20.126	2.9091	0.	-824.88
2597	20.31	2.9091	0.	-784.26
2598	20.495	2.9091	0.	-743.86
2599	20.679	2.9091	0.	-703.66
2600	20.864	2.9091	0.	-663.67
2601	21.048	2.9091	0.	-623.89
2602	21.233	2.9091	0.	-584.29
2603	21.417	2.9091	0.	-544.88
2604	21.602	2.9091	0.	-505.65
2605	21.786	2.9091	0.	-466.57
2606	21.971	2.9091	0.	-427.64
2607	22.155	2.9091	0.	-388.83
2608	22.34	2.9091	0.	-350.11
2609	22.524	2.9091	0.	-311.46
2610	22.709	2.9091	0.	-272.84
2611	22.893	2.9091	0.	-234.22
2612	23.078	2.9091	0.	-195.55
2613	23.262	2.9091	0.	-156.78
2614	23.447	2.9091	0.	-117.9
2615	23.631	2.9091	0.	-78.844
2616	23.816	2.9091	0.	-39.78
2617	5.5512	2.7273	0.	-10447
2618	5.7356	2.7273	0.	-9500.3
2619	5.9201	2.7273	0.	-8492.4
2620	6.1046	2.7273	0.	-7590.6
2621	6.2891	2.7273	0.	-6842.2
2622	6.4736	2.7273	0.	-6239.5
2623	6.6581	2.7273	0.	-5758.6
2624	6.8426	2.7273	0.	-5374.5
2625	7.0271	2.7273	0.	-5065.7
2626	7.2116	2.7273	0.	-4815.2
2627	7.396	2.7273	0.	-4609.7
2628	7.5805	2.7273	0.	-4438.9
2629	7.765	2.7273	0.	-4294.9
2630	7.9495	2.7273	0.	-4171.8
2631	8.134	2.7273	0.	-4064.7
2632	8.3185	2.7273	0.	-3970.2
2633	8.503	2.7273	0.	-3885.4
2634	8.6875	2.7273	0.	-3808.2
2635	8.8719	2.7273	0.	-3737.
2636	9.0564	2.7273	0.	-3670.3
2637	9.2409	2.7273	0.	-3607.2
2638	9.4254	2.7273	0.	-3546.9
2639	9.6099	2.7273	0.	-3488.8
2640	9.7944	2.7273	0.	-3432.5
2641	9.9789	2.7273	0.	-3377.5
2642	10.163	2.7273	0.	-3323.6
2643	10.348	2.7273	0.	-3270.6
2644	10.532	2.7273	0.	-3218.3
2645	10.717	2.7273	0.	-3166.5
2646	10.901	2.7273	0.	-3115.2
2647	11.086	2.7273	0.	-3064.3
2648	11.27	2.7273	0.	-3013.8
2649	11.455	2.7273	0.	-2963.5
2650	11.639	2.7273	0.	-2913.5
2651	11.824	2.7273	0.	-2863.8
2652	12.008	2.7273	0.	-2814.2
2653	12.193	2.7273	0.	-2764.9
2654	12.377	2.7273	0.	-2715.8
2655	12.562	2.7273	0.	-2666.8
2656	12.746	2.7273	0.	-2618.
2657	12.931	2.7273	0.	-2569.5
2658	13.115	2.7273	0.	-2521.1
2659	13.3	2.7273	0.	-2472.9
2660	13.484	2.7273	0.	-2424.8
2661	13.669	2.7273	0.	-2377.
2662	13.853	2.7273	0.	-2329.3
2663	14.038	2.7273	0.	-2281.8
2664	14.222	2.7273	0.	-2234.5
2665	14.407	2.7273	0.	-2187.4
2666	14.591	2.7273	0.	-2140.5
2667	14.776	2.7273	0.	-2093.8
2668	14.96	2.7273	0.	-2047.2
2669	15.145	2.7273	0.	-2000.9
2670	15.329	2.7273	0.	-1954.7
2671	15.514	2.7273	0.	-1908.7
2672	15.698	2.7273	0.	-1862.9
2673	15.883	2.7273	0.	-1817.3
2674	16.067	2.7273	0.	-1771.9
2675	16.251	2.7273	0.	-1726.8
2676	16.436	2.7273	0.	-1681.8
2677	16.62	2.7273	0.	-1637.
2678	16.805	2.7273	0.	-1592.4
2679	16.989	2.7273	0.	-1548.
2680	17.174	2.7273	0.	-1503.8
2681	17.358	2.7273	0.	-1459.8
2682	17.543	2.7273	0.	-1416.
2683	17.727	2.7273	0.	-1372.4
2684	17.912	2.7273	0.	-1329.
2685	18.096	2.7273	0.	-1285.8
2686	18.281	2.7273	0.	-1242.9
2687	18.465	2.7273	0.	-1200.1
2688	18.65	2.7273	0.	-1157.6
2689	18.834	2.7273	0.	-1115.2
2690	19.019	2.7273	0.	-1073.1
2691	19.203	2.7273	0.	-1031.2
2692	19.388	2.7273	0.	-989.51
2693	19.572	2.7273	0.	-948.03
2694	19.757	2.7273	0.	-906.76
2695	19.941	2.7273	0.	-865.71
2696	20.126	2.7273	0.	-824.87
2697	20.31	2.7273	0.	-784.24
2698	20.495	2.7273	0.	-743.83
2699	20.679	2.7273	0.	-703.62
2700	20.864	2.7273	0.	-663.62
2701	21.048	2.7273	0.	-623.82
2702	21.233	2.7273	0.	-584.22
2703	21.417	2.7273	0.	-544.8
2704	21.602	2.7273	0.	-505.55
2705	21.786	2.7273	0.	-466.47
2706	21.971	2.7273	0.	-427.53
2707	22.155	2.7273	0.	-388.72
2708	22.34	2.7273	0.	-350.
2709	22.524	2.7273	0.	-311.36
2710	22.709	2.7273	0.	-272.75
2711	22.893	2.7273	0.	-234.13
2712	23.078	2.7273	0.	-195.47
2713	23.262	2.7273	0.	-156.73
2714	23.447	2.7273	0.	-117.87
2715	23.631	2.7273	0.	-78.832
2716	23.816	2.7273	0.	-39.789
2717	5.5512	2.5455	0.	-10934
2718	5.7356	2.5455	0.	-9630.4
2719	5.9201	2.5455	0.	-8412.2
2720	6.1046	2.5455	0.	-7439.3
2721	6.2891	2.5455	0.	-6687.1
2722	6.4736	2.5455	0.	-6105.2
2723	6.6581	2.5455	0.	-5650.1
2724	6.8426	2.5455	0.	-5289.8
2725	7.0271	2.5455	0.	-5000.9
2726	7.2116	2.5455	0.	-4766.2
2727	7.396	2.5455	0.	-4572.8
2728	7.5805	2.5455	0.	-4411.4
2729	7.765	2.5455	0.	-4274.5
2730	7.9495	2.5455	0.	-4156.6
2731	8.134	2.5455	0.	-4053.6
2732	8.3185	2.5455	0.	-3962.2
2733	8.503	2.5455	0.	-3879.7
2734	8.6875	2.5455	0.	-3804.2
2735	8.8719	2.5455	0.	-3734.1
2736	9.0564	2.5455	0.	-3668.4
2737	9.2409	2.5455	0.	-3606.
2738	9.4254	2.5455	0.	-3546.2
2739	9.6099	2.5455	0.	-3488.5
2740	9.7944	2.5455	0.	-3432.5
2741	9.9789	2.5455	0.	-3377.7
2742	10.163	2.5455	0.	-3323.9
2743	10.348	2.5455	0.	-3271.
2744	10.532	2.5455	0.	-3218.7
2745	10.717	2.5455	0.	-3167.
2746	10.901	2.5455	0.	-3115.7
2747	11.086	2.5455	0.	-3064.8
2748	11.27	2.5455	0.	-3014.3
2749	11.455	2.5455	0.	-2964.
2750	11.639	2.5455	0.	-2914.
2751	11.824	2.5455	0.	-2864.2
2752	12.008	2.5455	0.	-2814.6
2753	12.193	2.5455	0.	-2765.3
2754	12.377	2.5455	0.	-2716.1
2755	12.562	2.5455	0.	-2667.2
2756	12.746	2.5455	0.	-2618.4
2757	12.931	2.5455	0.	-2569.8
2758	13.115	2.5455	0.	-2521.4
2759	13.3	2.5455	0.	-2473.2
2760	13.484	2.5455	0.	-2425.1
2761	13.669	2.5455	0.	-2377.3
2762	13.853	2.5455	0.	-2329.6
2763	14.038	2.5455	0.	-2282.1
2764	14.222	2.5455	0.	-2234.8
2765	14.407	2.5455	0.	-2187.7
2766	14.591	2.5455	0.	-2140.7
2767	14.776	2.5455	0.	-2094.
2768	14.96	2.5455	0.	-2047.4
2769	15.145	2.5455	0.	-2001.1
2770	15.329	2.5455	0.	-1954.9
2771	15.514	2.5455	0.	-1908.9
2772	15.698	2.5455	0.	-1863.1
2773	15.883	2.5455	0.	-1817.5
2774	16.067	2.5455	0.	-1772.1
2775	16.251	2.5455	0.	-1726.9
2776	16.436	2.5455	0.	-1681.9
2777	16.62	2.5455	0.	-1637.1
2778	16.805	2.5455	0.	-1592.5
2779	16.989	2.5455	0.	-1548.1
2780	17.174	2.5455	0.	-1503.9
2781	17.358	2.5455	0.	-1459.9
2782	17.543	2.5455	0.	-1416.1
2783	17.727	2.5455	0.	-1372.5
2784	17.912	2.5455	0.	-1329.1
2785	18.096	2.5455	0.	-1286.
2786	18.281	2.5455	0.	-1243.
2787	18.465	2.5455	0.	-1200.2
2788	18.65	2.5455	0.	-1157.7
2789	18.834	2.5455	0.	-1115.3
2790	19.019	2.5455	0.	-1073.2
2791	19.203	2.5455	0.	-1031.3
2792	19.388	2.5455	0.	-989.56
2793	19.572	2.5455	0.	-948.06
2794	19.757	2.5455	0.	-906.78
2795	19.941	2.5455	0.	-865.71
2796	20.126	2.5455	0.	-824.85
2797	20.31	2.5455	0.	-784.2
2798	20.495	2.5455	0.	-743.77
2799	20.679	2.5455	0.	-703.54
2800	20.864	2.5455	0.	-663.52
2801	21.048	2.5455	0.	-623.69
2802	21.233	2.5455	0.	-584.07
2803	21.417	2.5455	0.	-544.63
2804	21.602	2.5455	0.	-505.37
2805	21.786	2.5455	0.	-466.27
2806	21.971	2.5455	0.	-427.32
2807	22.155	2.5455	0.	-388.5
2808	22.34	2.5455	0.	-349.78
2809	22.524	2.5455	0.	-311.14
2810	22.709	2.5455	0.	-272.55
2811	22.893	2.5455	0.	-233.96
2812	23.078	2.5455	0.	-195.33
2813	23.262	2.5455	0.	-156.62
2814	23.447	2.5455	0.	-117.8
2815	23.631	2.5455	0.	-78.805
2816	23.816	2.5455	0.	-39.806
2817	5.5512	2.3636	0.	-11759
2818	5.7356	2.3636	0.	-9668.3
2819	5.9201	2.3636	0.	-8186.
2820	6.1046	2.3636	0.	-7169.3
2821	6.2891	2.3636	0.	-6444.7
2822	6.4736	2.3636	0.	-5906.
2823	6.6581	2.3636	0.	-5493.1
2824	6.8426	2.3636	0.	-5168.5
2825	7.0271	2.3636	0.	-4908.3
2826	7.2116	2.3636	0.	-4696.
2827	7.396	2.3636	0.	-4520.
2828	7.5805	2.3636	0.	-4371.7
2829	7.765	2.3636	0.	-4244.9
2830	7.9495	2.3636	0.	-4134.8
2831	8.134	2.3636	0.	-4037.6
2832	8.3185	2.3636	0.	-3950.4
2833	8.503	2.3636	0.	-3871.2
2834	8.6875	2.3636	0.	-3798.2
2835	8.8719	2.3636	0.	-3730.
2836	9.0564	2.3636	0.	-3665.7
2837	9.2409	2.3636	0.	-3604.3
2838	9.4254	2.3636	0.	-3545.3
2839	9.6099	2.3636	0.	-3488.1
2840	9.7944	2.3636	0.	-3432.4
2841	9.9789	2.3636	0.	-3377.9
2842	10.163	2.3636	0.	-3324.3
2843	10.348	2.3636	0.	-3271.5
2844	10.532	2.3636	0.	-3219.3
2845	10.717	2.3636	0.	-3167.6
2846	10.901	2.3636	0.	-3116.4
2847	11.086	2.3636	0.	-3065.5
2848	11.27	2.3636	0.	-3014.9
2849	11.455	2.3636	0.	-2964.7
2850	11.639	2.3636	0.	-2914.6
2851	11.824	2.3636	0.	-2864.8
2852	12.008	2.3636	0.	-2815.2
2853	12.193	2.3636	0.	-2765.9
2854	12.377	2.3636	0.	-2716.7
2855	12.562	2.3636	0.	-2667.7
2856	12.746	2.3636	0.	-2618.9
2857	12.931	2.3636	0.	-2570.3
2858	13.115	2.3636	0.	-2521.9
2859	13.3	2.3636	0.	-2473.6
2860	13.484	2.3636	0.	-2425.6
2861	13.669	2.3636	0.	-2377.7
2862	13.853	2.3636	0.	-2330.
2863	14.038	2.3636	0.	-2282.5
2864	14.222	2.3636	0.	-2235.2
2865	14.407	2.3636	0.	-2188.
2866	14.591	2.3636	0.	-2141.1
2867	14.776	2.3636	0.	-2094.3
2868	14.96	2.3636	0.	-2047.8
2869	15.145	2.3636	0.	-2001.4
2870	15.329	2.3636	0.	-1955.2
2871	15.514	2.3636	0.	-1909.2
2872	15.698	2.3636	0.	-1863.4
2873	15.883	2.3636	0.	-1817.8
2874	16.067	2.3636	0.	-1772.4
2875	16.251	2.3636	0.	-1727.2
2876	16.436	2.3636	0.	-1682.2
2877	16.62	2.3636	0.	-1637.4
2878	16.805	2.3636	0.	-1592.8
2879	16.989	2.3636	0.	-1548.4
2880	17.174	2.3636	0.	-1504.2
2881	17.358	2.3636	0.	-1460.2
2882	17.543	2.3636	0.	-1416.3
2883	17.727	2.3636	0.	-1372.7
2884	17.912	2.3636	0.	-1329.4
2885	18.096	2.3636	0.	-1286.2
2886	18.281	2.3636	0.	-1243.2
2887	18.465	2.3636	0.	-1200.4
2888	18.65	2.3636	0.	-1157.8
2889	18.834	2.3636	0.	-1115.5
2890	19.019	2.3636	0.	-1073.3
2891	19.203	2.3636	0.	-1031.4
2892	19.388	2.3636	0.	-989.64
2893	19.572	2.3636	0.	-948.12
2894	19.757	2.3636	0.	-906.81
2895	19.941	2.3636	0.	-865.71
2896	20.126	2.3636	0.	-824.83
2897	20.31	2.3636	0.	-784.15
2898	20.495	2.3636	0.	-743.68
2899	20.679	2.3636	0.	-703.42
2900	20.864	2.3636	0.	-663.37
2901	21.048	2.3636	0.	-623.51
2902	21.233	2.3636	0.	-583.85
2903	21.417	2.3636	0.	-544.38
2904	21.602	2.3636	0.	-505.09
2905	21.786	2.3636	0.	-465.97
2906	21.971	2.3636	0.	-427.
2907	22.155	2.3636	0.	-388.17
2908	22.34	2.3636	0.	-349.45
2909	22.524	2.3636	0.	-310.82
2910	22.709	2.3636	0.	-272.24
2911	22.893	2.3636	0.	-233.69
2912	23.078	2.3636	0.	-195.11
2913	23.262	2.3636	0.	-156.45
2914	23.447	2.3636	0.	-117.69
2915	23.631	2.3636	0.	-78.763
2916	23.816	2.3636	0.	-39.832
2917	5.5512	2.1818	0.	-12396
2918	5.7356	2.1818	0.	-9311.1
2919	5.9201	2.1818	0.	-7716.2
2920	6.1046	2.1818	0.	-6762.9
2921	6.2891	2.1818	0.	-6117.8
2922	6.4736	2.1818	0.	-5650.
2923	6.6581	2.1818	0.	-5295.1
2924	6.8426	2.1818	0.	-5016.7
2925	7.0271	2.1818	0.	-4792.5
2926	7.2116	2.1818	0.	-4608.1
2927	7.396	2.1818	0.	-4453.6
2928	7.5805	2.1818	0.	-4321.8
2929	7.765	2.1818	0.	-4207.6
2930	7.9495	2.1818	0.	-4107.
2931	8.134	2.1818	0.	-4017.1
2932	8.3185	2.1818	0.	-3935.5
2933	8.503	2.1818	0.	-3860.5
2934	8.6875	2.1818	0.	-3790.6
2935	8.8719	2.1818	0.	-3724.7
2936	9.0564	2.1818	0.	-3662.1
2937	9.2409	2.1818	0.	-3602.1
2938	9.4254	2.1818	0.	-3544.
2939	9.6099	2.1818	0.	-3487.5
2940	9.7944	2.1818	0.	-3432.3
2941	9.9789	2.1818	0.	-3378.2
2942	10.163	2.1818	0.	-3324.9
2943	10.348	2.1818	0.	-3272.2
2944	10.532	2.1818	0.	-3220.1
2945	10.717	2.1818	0.	-3168.5
2946	10.901	2.1818	0.	-3117.3
2947	11.086	2.1818	0.	-3066.4
2948	11.27	2.1818	0.	-3015.8
2949	11.455	2.1818	0.	-2965.5
2950	11.639	2.1818	0.	-2915.5
2951	11.824	2.1818	0.	-2865.6
2952	12.008	2.1818	0.	-2816.
2953	12.193	2.1818	0.	-2766.6
2954	12.377	2.1818	0.	-2717.4
2955	12.562	2.1818	0.	-2668.4
2956	12.746	2.1818	0.	-2619.6
2957	12.931	2.1818	0.	-2570.9
2958	13.115	2.1818	0.	-2522.5
2959	13.3	2.1818	0.	-2474.2
2960	13.484	2.1818	0.	-2426.1
2961	13.669	2.1818	0.	-2378.2
2962	13.853	2.1818	0.	-2330.5
2963	14.038	2.1818	0.	-2283.
2964	14.222	2.1818	0.	-2235.7
2965	14.407	2.1818	0.	-2188.5
2966	14.591	2.1818	0.	-2141.5
2967	14.776	2.1818	0.	-2094.8
2968	14.96	2.1818	0.	-2048.2
2969	15.145	2.1818	0.	-2001.8
2970	15.329	2.1818	0.	-1955.6
2971	15.514	2.1818	0.	-1909.6
2972	15.698	2.1818	0.	-1863.8
2973	15.883	2.1818	0.	-1818.2
2974	16.067	2.1818	0.	-1772.8
2975	16.251	2.1818	0.	-1727.6
2976	16.436	2.1818	0.	-1682.6
2977	16.62	2.1818	0.	-1637.7
2978	16.805	2.1818	0.	-1593.1
2979	16.989	2.1818	0.	-1548.7
2980	17.174	2.1818	0.	-1504.5
2981	17.358	2.1818	0.	-1460.5
2982	17.543	2.1818	0.	-1416.6
2983	17.727	2.1818	0.	-1373.
2984	17.912	2.1818	0.	-1329.6
2985	18.096	2.1818	0.	-1286.4
2986	18.281	2.1818	0.	-1243.4
2987	18.465	2.1818	0.	-1200.6
2988	18.65	2.1818	0.	-1158.
2989	18.834	2.1818	0.	-1115.7
2990	19.019	2.1818	0.	-1073.5
2991	19.203	2.1818	0.	-1031.5
2992	19.388	2.1818	0.	-989.76
2993	19.572	2.1818	0.	-948.21
2994	19.757	2.1818	0.	-906.87
2995	19.941	2.1818	0.	-865.74
2996	20.126	2.1818	0.	-824.81
2997	20.31	2.1818	0.	-784.1
2998	20.495	2.1818	0.	-743.59
2999	20.679	2.1818	0.	-703.28
3000	20.864	2.1818	0.	-663.18
3001	21.048	2.1818	0.	-623.28
3002	21.233	2.1818	0.	-583.58
3003	21.417	2.1818	0.	-544.06
3004	21.602	2.1818	0.	-504.73
3005	21.786	2.1818	0.	-465.57
3006	21.971	2.1818	0.	-426.58
3007	22.155	2.1818	0.	-387.73
3008	22.34	2.1818	0.	-349.01
3009	22.524	2.1818	0.	-310.38
3010	22.709	2.1818	0.	-271.84
3011	22.893	2.1818	0.	-233.32
3012	23.078	2.1818	0.	-194.8
3013	23.262	2.1818	0.	-156.22
3014	23.447	2.1818	0.	-117.54
3015	23.631	2.1818	0.	-78.701
3016	23.816	2.1818	0.	-39.863
3017	5.5512	2.	0.	-12030
3018	5.7356	2.	0.	-8258.8
3019	5.9201	2.	0.	-7012.7
3020	6.1046	2.	0.	-6239.4
3021	6.2891	2.	0.	-5723.6
3022	6.4736	2.	0.	-5350.2
3023	6.6581	2.	0.	-5066.1
3024	6.8426	2.	0.	-4841.6
3025	7.0271	2.	0.	-4659.
3026	7.2116	2.	0.	-4506.5
3027	7.396	2.	0.	-4376.6
3028	7.5805	2.	0.	-4263.7
3029	7.765	2.	0.	-4164.
3030	7.9495	2.	0.	-4074.5
3031	8.134	2.	0.	-3993.
3032	8.3185	2.	0.	-3917.8
3033	8.503	2.	0.	-3847.7
3034	8.6875	2.	0.	-3781.5
3035	8.8719	2.	0.	-3718.4
3036	9.0564	2.	0.	-3657.9
3037	9.2409	2.	0.	-3599.4
3038	9.4254	2.	0.	-3542.5
3039	9.6099	2.	0.	-3486.8
3040	9.7944	2.	0.	-3432.3
3041	9.9789	2.	0.	-3378.5
3042	10.163	2.	0.	-3325.5
3043	10.348	2.	0.	-3273.1
3044	10.532	2.	0.	-3221.1
3045	10.717	2.	0.	-3169.6
3046	10.901	2.	0.	-3118.4
3047	11.086	2.	0.	-3067.5
3048	11.27	2.	0.	-3016.9
3049	11.455	2.	0.	-2966.6
3050	11.639	2.	0.	-2916.5
3051	11.824	2.	0.	-2866.7
3052	12.008	2.	0.	-2817.
3053	12.193	2.	0.	-2767.6
3054	12.377	2.	0.	-2718.3
3055	12.562	2.	0.	-2669.3
3056	12.746	2.	0.	-2620.4
3057	12.931	2.	0.	-2571.7
3058	13.115	2.	0.	-2523.2
3059	13.3	2.	0.	-2474.9
3060	13.484	2.	0.	-2426.8
3061	13.669	2.	0.	-2378.9
3062	13.853	2.	0.	-2331.2
3063	14.038	2.	0.	-2283.6
3064	14.222	2.	0.	-2236.3
3065	14.407	2.	0.	-2189.1
3066	14.591	2.	0.	-2142.1
3067	14.776	2.	0.	-2095.3
3068	14.96	2.	0.	-2048.7
3069	15.145	2.	0.	-2002.3
3070	15.329	2.	0.	-1956.1
3071	15.514	2.	0.	-1910.1
3072	15.698	2.	0.	-1864.3
3073	15.883	2.	0.	-1818.7
3074	16.067	2.	0.	-1773.3
3075	16.251	2.	0.	-1728.
3076	16.436	2.	0.	-1683.
3077	16.62	2.	0.	-1638.2
3078	16.805	2.	0.	-1593.6
3079	16.989	2.	0.	-1549.1
3080	17.174	2.	0.	-1504.9
3081	17.358	2.	0.	-1460.9
3082	17.543	2.	0.	-1417.
3083	17.727	2.	0.	-1373.4
3084	17.912	2.	0.	-1330.
3085	18.096	2.	0.	-1286.8
3086	18.281	2.	0.	-1243.7
3087	18.465	2.	0.	-1200.9
3088	18.65	2.	0.	-1158.3
3089	18.834	2.	0.	-1115.9
3090	19.019	2.	0.	-1073.7
3091	19.203	2.	0.	-1031.7
3092	19.388	2.	0.	-989.92
3093	19.572	2.	0.	-948.33
3094	19.757	2.	0.	-906.96
3095	19.941	2.	0.	-865.78
3096	20.126	2.	0.	-824.81
3097	20.31	2.	0.	-784.05
3098	20.495	2.	0.	-743.49
3099	20.679	2.	0.	-703.13
3100	20.864	2.	0.	-662.98
3101	21.048	2.	0.	-623.02
3102	21.233	2.	0.	-583.26
3103	21.417	2.	0.	-543.69
3104	21.602	2.	0.	-504.31
3105	21.786	2.	0.	-465.1
3106	21.971	2.	0.	-426.07
3107	22.155	2.	0.	-387.19
3108	22.34	2.	0.	-348.45
3109	22.524	2.	0.	-309.84
3110	22.709	2.	0.	-271.31
3111	22.893	2.	0.	-232.85
3112	23.078	2.	0.	-194.4
3113	23.262	2.	0.	-155.91
3114	23.447	2.	0.	-117.34
3115	23.631	2.	0.	-78.612
3116	23.816	2.	0.	-39.897
3117	5.5512	1.8182	0.	-8610.7
3118	5.7356	1.8182	0.	-6941.8
3119	5.9201	1.8182	0.	-6152.9
3120	6.1046	1.8182	0.	-5645.
3121	6.2891	1.8182	0.	-5287.3
3122	6.4736	1.8182	0.	-5022.
3123	6.6581	1.8182	0.	-4816.4
3124	6.8426	1.8182	0.	-4650.9
3125	7.0271	1.8182	0.	-4513.1
3126	7.2116	1.8182	0.	-4395.2
3127	7.396	1.8182	0.	-4291.9
3128	7.5805	1.8182	0.	-4199.5
3129	7.765	1.8182	0.	-4115.6
3130	7.9495	1.8182	0.	-4038.2
3131	8.134	1.8182	0.	-3966.1
3132	8.3185	1.8182	0.	-3898.
3133	8.503	1.8182	0.	-3833.3
3134	8.6875	1.8182	0.	-3771.2
3135	8.8719	1.8182	0.	-3711.3
3136	9.0564	1.8182	0.	-3653.1
3137	9.2409	1.8182	0.	-3596.3
3138	9.4254	1.8182	0.	-3540.7
3139	9.6099	1.8182	0.	-3486.1
3140	9.7944	1.8182	0.	-3432.2
3141	9.9789	1.8182	0.	-3378.9
3142	10.163	1.8182	0.	-3326.3
3143	10.348	1.8182	0.	-3274.1
3144	10.532	1.8182	0.	-3222.3
3145	10.717	1.8182	0.	-3170.8
3146	10.901	1.8182	0.	-3119.7
3147	11.086	1.8182	0.	-3068.8
3148	11.27	1.8182	0.	-3018.2
3149	11.455	1.8182	0.	-2967.9
3150	11.639	1.8182	0.	-2917.8
3151	11.824	1.8182	0.	-2867.8
3152	12.008	1.8182	0.	-2818.2
3153	12.193	1.8182	0.	-2768.7
3154	12.377	1.8182	0.	-2719.4
3155	12.562	1.8182	0.	-2670.3
3156	12.746	1.8182	0.	-2621.4
3157	12.931	1.8182	0.	-2572.7
3158	13.115	1.8182	0.	-2524.1
3159	13.3	1.8182	0.	-2475.8
3160	13.484	1.8182	0.	-2427.7
3161	13.669	1.8182	0.	-2379.7
3162	13.853	1.8182	0.	-2331.9
3163	14.038	1.8182	0.	-2284.4
3164	14.222	1.8182	0.	-2237.
3165	14.407	1.8182	0.	-2189.8
3166	14.591	1.8182	0.	-2142.8
3167	14.776	1.8182	0.	-2096.
3168	14.96	1.8182	0.	-2049.4
3169	15.145	1.8182	0.	-2003.
3170	15.329	1.8182	0.	-1956.8
3171	15.514	1.8182	0.	-1910.7
3172	15.698	1.8182	0.	-1864.9
3173	15.883	1.8182	0.	-1819.3
3174	16.067	1.8182	0.	-1773.8
3175	16.251	1.8182	0.	-1728.6
3176	16.436	1.8182	0.	-1683.6
3177	16.62	1.8182	0.	-1638.7
3178	16.805	1.8182	0.	-1594.1
3179	16.989	1.8182	0.	-1549.6
3180	17.174	1.8182	0.	-1505.4
3181	17.358	1.8182	0.	-1461.3
3182	17.543	1.8182	0.	-1417.5
3183	17.727	1.8182	0.	-1373.9
3184	17.912	1.8182	0.	-1330.4
3185	18.096	1.8182	0.	-1287.2
3186	18.281	1.8182	0.	-1244.1
3187	18.465	1.8182	0.	-1201.3
3188	18.65	1.8182	0.	-1158.7
3189	18.834	1.8182	0.	-1116.2
3190	19.019	1.8182	0.	-1074.
3191	19.203	1.8182	0.	-1032.
3192	19.388	1.8182	0.	-990.14
3193	19.572	1.8182	0.	-948.51
3194	19.757	1.8182	0.	-907.09
3195	19.941	1.8182	0.	-865.87
3196	20.126	1.8182	0.	-824.85
3197	20.31	1.8182	0.	-784.03
3198	20.495	1.8182	0.	-743.41
3199	20.679	1.8182	0.	-702.99
3200	20.864	1.8182	0.	-662.77
3201	21.048	1.8182	0.	-622.74
3202	21.233	1.8182	0.	-582.91
3203	21.417	1.8182	0.	-543.28
3204	21.602	1.8182	0.	-503.83
3205	21.786	1.8182	0.	-464.56
3206	21.971	1.8182	0.	-425.47
3207	22.155	1.8182	0.	-386.55
3208	22.34	1.8182	0.	-347.79
3209	22.524	1.8182	0.	-309.17
3210	22.709	1.8182	0.	-270.67
3211	22.893	1.8182	0.	-232.26
3212	23.078	1.8182	0.	-193.89
3213	23.262	1.8182	0.	-155.51
3214	23.447	1.8182	0.	-117.07
3215	23.631	1.8182	0.	-78.489
3216	23.816	1.8182	0.	-39.931
3217	5.5512	1.6364	0.	-5931.9
3218	5.7356	1.6364	0.	-5576.1
3219	5.9201	1.6364	0.	-5281.3
3220	6.1046	1.6364	0.	-5031.4
3221	6.2891	1.6364	0.	-4835.
3222	6.4736	1.6364	0.	-4681.
3223	6.6581	1.6364	0.	-4556.4
3224	6.8426	1.6364	0.	-4451.7
3225	7.0271	1.6364	0.	-4360.4
3226	7.2116	1.6364	0.	-4278.2
3227	7.396	1.6364	0.	-4202.5
3228	7.5805	1.6364	0.	-4131.5
3229	7.765	1.6364	0.	-4064.1
3230	7.9495	1.6364	0.	-3999.5
3231	8.134	1.6364	0.	-3937.2
3232	8.3185	1.6364	0.	-3876.8
3233	8.503	1.6364	0.	-3817.8
3234	8.6875	1.6364	0.	-3760.2
3235	8.8719	1.6364	0.	-3703.6
3236	9.0564	1.6364	0.	-3647.9
3237	9.2409	1.6364	0.	-3593.1
3238	9.4254	1.6364	0.	-3538.8
3239	9.6099	1.6364	0.	-3485.2
3240	9.7944	1.6364	0.	-3432.1
3241	9.9789	1.6364	0.	-3379.4
3242	10.163	1.6364	0.	-3327.1
3243	10.348	1.6364	0.	-3275.2
3244	10.532	1.6364	0.	-3223.5
3245	10.717	1.6364	0.	-3172.2
3246	10.901	1.6364	0.	-3121.1
3247	11.086	1.6364	0.	-3070.3
3248	11.27	1.6364	0.	-3019.7
3249	11.455	1.6364	0.	-2969.3
3250	11.639	1.6364	0.	-2919.2
3251	11.824	1.6364	0.	-2869.2
3252	12.008	1.6364	0.	-2819.5
3253	12.193	1.6364	0.	-2769.9
3254	12.377	1.6364	0.	-2720.6
3255	12.562	1.6364	0.	-2671.4
3256	12.746	1.6364	0.	-2622.5
3257	12.931	1.6364	0.	-2573.7
3258	13.115	1.6364	0.	-2525.2
3259	13.3	1.6364	0.	-2476.8
3260	13.484	1.6364	0.	-2428.6
3261	13.669	1.6364	0.	-2380.6
3262	13.853	1.6364	0.	-2332.8
3263	14.038	1.6364	0.	-2285.2
3264	14.222	1.6364	0.	-2237.8
3265	14.407	1.6364	0.	-2190.6
3266	14.591	1.6364	0.	-2143.6
3267	14.776	1.6364	0.	-2096.8
3268	14.96	1.6364	0.	-2050.2
3269	15.145	1.6364	0.	-2003.7
3270	15.329	1.6364	0.	-1957.5
3271	15.514	1.6364	0.	-1911.5
3272	15.698	1.6364	0.	-1865.6
3273	15.883	1.6364	0.	-1820.
3274	16.067	1.6364	0.	-1774.5
3275	16.251	1.6364	0.	-1729.3
3276	16.436	1.6364	0.	-1684.2
3277	16.62	1.6364	0.	-1639.4
3278	16.805	1.6364	0.	-1594.7
3279	16.989	1.6364	0.	-1550.2
3280	17.174	1.6364	0.	-1506.
3281	17.358	1.6364	0.	-1461.9
3282	17.543	1.6364	0.	-1418.1
3283	17.727	1.6364	0.	-1374.4
3284	17.912	1.6364	0.	-1330.9
3285	18.096	1.6364	0.	-1287.7
3286	18.281	1.6364	0.	-1244.6
3287	18.465	1.6364	0.	-1201.7
3288	18.65	1.6364	0.	-1159.1
3289	18.834	1.6364	0.	-1116.6
3290	19.019	1.6364	0.	-1074.4
3291	19.203	1.6364	0.	-1032.3
3292	19.388	1.6364	0.	-990.42
3293	19.572	1.6364	0.	-948.75
3294	19.757	1.6364	0.	-907.28
3295	19.941	1.6364	0.	-866.01
3296	20.126	1.6364	0.	-824.93
3297	20.31	1.6364	0.	-784.05
3298	20.495	1.6364	0.	-743.36
3299	20.679	1.6364	0.	-702.87
3300	20.864	1.6364	0.	-662.58
3301	21.048	1.6364	0.	-622.47
3302	21.233	1.6364	0.	-582.56
3303	21.417	1.6364	0.	-542.84
3304	21.602	1.6364	0.	-503.31
3305	21.786	1.6364	0.	-463.97
3306	21.971	1.6364	0.	-424.81
3307	22.155	1.6364	0.	-385.84
3308	22.34	1.6364	0.	-347.03
3309	22.524	1.6364	0.	-308.4
3310	22.709	1.6364	0.	-269.91
3311	22.893	1.6364	0.	-231.54
3312	23.078	1.6364	0.	-193.25
3313	23.262	1.6364	0.	-155.
3314	23.447	1.6364	0.	-116.72
3315	23.631	1.6364	0.	-78.32
3316	23.816	1.6364	0.	-39.959
3317	5.5512	1.4545	0.	-4576.2
3318	5.7356	1.4545	0.	-4498.
3319	5.9201	1.4545	0.	-4491.
3320	6.1046	1.4545	0.	-4442.
3321	6.2891	1.4545	0.	-4390.6
3322	6.4736	1.4545	0.	-4341.9
3323	6.6581	1.4545	0.	-4296.1
3324	6.8426	1.4545	0.	-4251.2
3325	7.0271	1.4545	0.	-4205.9
3326	7.2116	1.4545	0.	-4159.4
3327	7.396	1.4545	0.	-4111.4
3328	7.5805	1.4545	0.	-4061.9
3329	7.765	1.4545	0.	-4011.3
3330	7.9495	1.4545	0.	-3959.7
3331	8.134	1.4545	0.	-3907.4
3332	8.3185	1.4545	0.	-3854.7
3333	8.503	1.4545	0.	-3801.7
3334	8.6875	1.4545	0.	-3748.6
3335	8.8719	1.4545	0.	-3695.5
3336	9.0564	1.4545	0.	-3642.5
3337	9.2409	1.4545	0.	-3589.6
3338	9.4254	1.4545	0.	-3536.9
3339	9.6099	1.4545	0.	-3484.4
3340	9.7944	1.4545	0.	-3432.1
3341	9.9789	1.4545	0.	-3379.9
3342	10.163	1.4545	0.	-3328.1
3343	10.348	1.4545	0.	-3276.4
3344	10.532	1.4545	0.	-3225.
3345	10.717	1.4545	0.	-3173.7
3346	10.901	1.4545	0.	-3122.7
3347	11.086	1.4545	0.	-3071.9
3348	11.27	1.4545	0.	-3021.3
3349	11.455	1.4545	0.	-2970.9
3350	11.639	1.4545	0.	-2920.7
3351	11.824	1.4545	0.	-2870.7
3352	12.008	1.4545	0.	-2820.9
3353	12.193	1.4545	0.	-2771.3
3354	12.377	1.4545	0.	-2721.9
3355	12.562	1.4545	0.	-2672.8
3356	12.746	1.4545	0.	-2623.8
3357	12.931	1.4545	0.	-2574.9
3358	13.115	1.4545	0.	-2526.3
3359	13.3	1.4545	0.	-2477.9
3360	13.484	1.4545	0.	-2429.7
3361	13.669	1.4545	0.	-2381.7
3362	13.853	1.4545	0.	-2333.9
3363	14.038	1.4545	0.	-2286.2
3364	14.222	1.4545	0.	-2238.8
3365	14.407	1.4545	0.	-2191.6
3366	14.591	1.4545	0.	-2144.5
3367	14.776	1.4545	0.	-2097.7
3368	14.96	1.4545	0.	-2051.
3369	15.145	1.4545	0.	-2004.6
3370	15.329	1.4545	0.	-1958.3
3371	15.514	1.4545	0.	-1912.3
3372	15.698	1.4545	0.	-1866.4
3373	15.883	1.4545	0.	-1820.8
3374	16.067	1.4545	0.	-1775.3
3375	16.251	1.4545	0.	-1730.
3376	16.436	1.4545	0.	-1685.
3377	16.62	1.4545	0.	-1640.1
3378	16.805	1.4545	0.	-1595.4
3379	16.989	1.4545	0.	-1550.9
3380	17.174	1.4545	0.	-1506.7
3381	17.358	1.4545	0.	-1462.6
3382	17.543	1.4545	0.	-1418.7
3383	17.727	1.4545	0.	-1375.
3384	17.912	1.4545	0.	-1331.6
3385	18.096	1.4545	0.	-1288.3
3386	18.281	1.4545	0.	-1245.2
3387	18.465	1.4545	0.	-1202.3
3388	18.65	1.4545	0.	-1159.6
3389	18.834	1.4545	0.	-1117.1
3390	19.019	1.4545	0.	-1074.8
3391	19.203	1.4545	0.	-1032.7
3392	19.388	1.4545	0.	-990.79
3393	19.572	1.4545	0.	-949.07
3394	19.757	1.4545	0.	-907.55
3395	19.941	1.4545	0.	-866.22
3396	20.126	1.4545	0.	-825.08
3397	20.31	1.4545	0.	-784.13
3398	20.495	1.4545	0.	-743.38
3399	20.679	1.4545	0.	-702.81
3400	20.864	1.4545	0.	-662.43
3401	21.048	1.4545	0.	-622.24
3402	21.233	1.4545	0.	-582.24
3403	21.417	1.4545	0.	-542.42
3404	21.602	1.4545	0.	-502.8
3405	21.786	1.4545	0.	-463.36
3406	21.971	1.4545	0.	-424.12
3407	22.155	1.4545	0.	-385.06
3408	22.34	1.4545	0.	-346.2
3409	22.524	1.4545	0.	-307.52
3410	22.709	1.4545	0.	-269.02
3411	22.893	1.4545	0.	-230.68
3412	23.078	1.4545	0.	-192.48
3413	23.262	1.4545	0.	-154.36
3414	23.447	1.4545	0.	-116.27
3415	23.631	1.4545	0.	-78.087
3416	23.816	1.4545	0.	-39.973
3417	5.5512	1.2727	0.	-3641.1
3418	5.7356	1.2727	0.	-3686.6
3419	5.9201	1.2727	0.	-3816.4
3420	6.1046	1.2727	0.	-3909.5
3421	6.2891	1.2727	0.	-3974.6
3422	6.4736	1.2727	0.	-4018.4
3423	6.6581	1.2727	0.	-4044.9
3424	6.8426	1.2727	0.	-4056.4
3425	7.0271	1.2727	0.	-4055.
3426	7.2116	1.2727	0.	-4042.7
3427	7.396	1.2727	0.	-4021.5
3428	7.5805	1.2727	0.	-3993.
3429	7.765	1.2727	0.	-3958.7
3430	7.9495	1.2727	0.	-3919.9
3431	8.134	1.2727	0.	-3877.5
3432	8.3185	1.2727	0.	-3832.5
3433	8.503	1.2727	0.	-3785.5
3434	8.6875	1.2727	0.	-3736.9
3435	8.8719	1.2727	0.	-3687.4
3436	9.0564	1.2727	0.	-3637.
3437	9.2409	1.2727	0.	-3586.2
3438	9.4254	1.2727	0.	-3535.
3439	9.6099	1.2727	0.	-3483.6
3440	9.7944	1.2727	0.	-3432.1
3441	9.9789	1.2727	0.	-3380.6
3442	10.163	1.2727	0.	-3329.1
3443	10.348	1.2727	0.	-3277.7
3444	10.532	1.2727	0.	-3226.5
3445	10.717	1.2727	0.	-3175.4
3446	10.901	1.2727	0.	-3124.4
3447	11.086	1.2727	0.	-3073.7
3448	11.27	1.2727	0.	-3023.1
3449	11.455	1.2727	0.	-2972.6
3450	11.639	1.2727	0.	-2922.4
3451	11.824	1.2727	0.	-2872.4
3452	12.008	1.2727	0.	-2822.5
3453	12.193	1.2727	0.	-2772.9
3454	12.377	1.2727	0.	-2723.4
3455	12.562	1.2727	0.	-2674.2
3456	12.746	1.2727	0.	-2625.1
3457	12.931	1.2727	0.	-2576.3
3458	13.115	1.2727	0.	-2527.6
3459	13.3	1.2727	0.	-2479.2
3460	13.484	1.2727	0.	-2430.9
3461	13.669	1.2727	0.	-2382.9
3462	13.853	1.2727	0.	-2335.
3463	14.038	1.2727	0.	-2287.3
3464	14.222	1.2727	0.	-2239.9
3465	14.407	1.2727	0.	-2192.6
3466	14.591	1.2727	0.	-2145.6
3467	14.776	1.2727	0.	-2098.7
3468	14.96	1.2727	0.	-2052.
3469	15.145	1.2727	0.	-2005.5
3470	15.329	1.2727	0.	-1959.3
3471	15.514	1.2727	0.	-1913.2
3472	15.698	1.2727	0.	-1867.3
3473	15.883	1.2727	0.	-1821.7
3474	16.067	1.2727	0.	-1776.2
3475	16.251	1.2727	0.	-1730.9
3476	16.436	1.2727	0.	-1685.8
3477	16.62	1.2727	0.	-1640.9
3478	16.805	1.2727	0.	-1596.2
3479	16.989	1.2727	0.	-1551.8
3480	17.174	1.2727	0.	-1507.5
3481	17.358	1.2727	0.	-1463.4
3482	17.543	1.2727	0.	-1419.5
3483	17.727	1.2727	0.	-1375.8
3484	17.912	1.2727	0.	-1332.3
3485	18.096	1.2727	0.	-1289.
3486	18.281	1.2727	0.	-1245.9
3487	18.465	1.2727	0.	-1202.9
3488	18.65	1.2727	0.	-1160.2
3489	18.834	1.2727	0.	-1117.7
3490	19.019	1.2727	0.	-1075.4
3491	19.203	1.2727	0.	-1033.2
3492	19.388	1.2727	0.	-991.26
3493	19.572	1.2727	0.	-949.49
3494	19.757	1.2727	0.	-907.91
3495	19.941	1.2727	0.	-866.53
3496	20.126	1.2727	0.	-825.32
3497	20.31	1.2727	0.	-784.31
3498	20.495	1.2727	0.	-743.47
3499	20.679	1.2727	0.	-702.82
3500	20.864	1.2727	0.	-662.36
3501	21.048	1.2727	0.	-622.07
3502	21.233	1.2727	0.	-581.97
3503	21.417	1.2727	0.	-542.05
3504	21.602	1.2727	0.	-502.32
3505	21.786	1.2727	0.	-462.77
3506	21.971	1.2727	0.	-423.42
3507	22.155	1.2727	0.	-384.26
3508	22.34	1.2727	0.	-345.3
3509	22.524	1.2727	0.	-306.56
3510	22.709	1.2727	0.	-268.02
3511	22.893	1.2727	0.	-229.69
3512	23.078	1.2727	0.	-191.56
3513	23.262	1.2727	0.	-153.57
3514	23.447	1.2727	0.	-115.68
3515	23.631	1.2727	0.	-77.766
3516	23.816	1.2727	0.	-39.961
3517	5.5512	1.0909	0.	-2954.9
3518	5.7356	1.0909	0.	-3053.2
3519	5.9201	1.0909	0.	-3260.5
3520	6.1046	1.0909	0.	-3447.1
3521	6.2891	1.0909	0.	-3601.6
3522	6.4736	1.0909	0.	-3722.5
3523	6.6581	1.0909	0.	-3811.9
3524	6.8426	1.0909	0.	-3873.9
3525	7.0271	1.0909	0.	-3912.5
3526	7.2116	1.0909	0.	-3932.
3527	7.396	1.0909	0.	-3935.7
3528	7.5805	1.0909	0.	-3926.9
3529	7.765	1.0909	0.	-3908.1
3530	7.9495	1.0909	0.	-3881.4
3531	8.134	1.0909	0.	-3848.5
3532	8.3185	1.0909	0.	-3810.9
3533	8.503	1.0909	0.	-3769.6
3534	8.6875	1.0909	0.	-3725.6
3535	8.8719	1.0909	0.	-3679.4
3536	9.0564	1.0909	0.	-3631.7
3537	9.2409	1.0909	0.	-3582.8
3538	9.4254	1.0909	0.	-3533.1
3539	9.6099	1.0909	0.	-3482.9
3540	9.7944	1.0909	0.	-3432.2
3541	9.9789	1.0909	0.	-3381.3
3542	10.163	1.0909	0.	-3330.3
3543	10.348	1.0909	0.	-3279.2
3544	10.532	1.0909	0.	-3228.2
3545	10.717	1.0909	0.	-3177.2
3546	10.901	1.0909	0.	-3126.3
3547	11.086	1.0909	0.	-3075.5
3548	11.27	1.0909	0.	-3024.9
3549	11.455	1.0909	0.	-2974.5
3550	11.639	1.0909	0.	-2924.2
3551	11.824	1.0909	0.	-2874.2
3552	12.008	1.0909	0.	-2824.3
3553	12.193	1.0909	0.	-2774.6
3554	12.377	1.0909	0.	-2725.1
3555	12.562	1.0909	0.	-2675.8
3556	12.746	1.0909	0.	-2626.7
3557	12.931	1.0909	0.	-2577.8
3558	13.115	1.0909	0.	-2529.1
3559	13.3	1.0909	0.	-2480.6
3560	13.484	1.0909	0.	-2432.3
3561	13.669	1.0909	0.	-2384.2
3562	13.853	1.0909	0.	-2336.3
3563	14.038	1.0909	0.	-2288.6
3564	14.222	1.0909	0.	-2241.1
3565	14.407	1.0909	0.	-2193.8
3566	14.591	1.0909	0.	-2146.7
3567	14.776	1.0909	0.	-2099.8
3568	14.96	1.0909	0.	-2053.1
3569	15.145	1.0909	0.	-2006.6
3570	15.329	1.0909	0.	-1960.3
3571	15.514	1.0909	0.	-1914.2
3572	15.698	1.0909	0.	-1868.3
3573	15.883	1.0909	0.	-1822.6
3574	16.067	1.0909	0.	-1777.2
3575	16.251	1.0909	0.	-1731.9
3576	16.436	1.0909	0.	-1686.8
3577	16.62	1.0909	0.	-1641.9
3578	16.805	1.0909	0.	-1597.2
3579	16.989	1.0909	0.	-1552.7
3580	17.174	1.0909	0.	-1508.4
3581	17.358	1.0909	0.	-1464.3
3582	17.543	1.0909	0.	-1420.3
3583	17.727	1.0909	0.	-1376.6
3584	17.912	1.0909	0.	-1333.1
3585	18.096	1.0909	0.	-1289.8
3586	18.281	1.0909	0.	-1246.6
3587	18.465	1.0909	0.	-1203.7
3588	18.65	1.0909	0.	-1161.
3589	18.834	1.0909	0.	-1118.4
3590	19.019	1.0909	0.	-1076.
3591	19.203	1.0909	0.	-1033.8
3592	19.388	1.0909	0.	-991.84
3593	19.572	1.0909	0.	-950.03
3594	19.757	1.0909	0.	-908.4
3595	19.941	1.0909	0.	-866.95
3596	20.126	1.0909	0.	-825.69
3597	20.31	1.0909	0.	-784.6
3598	20.495	1.0909	0.	-743.69
3599	20.679	1.0909	0.	-702.95
3600	20.864	1.0909	0.	-662.4
3601	21.048	1.0909	0.	-622.01
3602	21.233	1.0909	0.	-581.8
3603	21.417	1.0909	0.	-541.77
3604	21.602	1.0909	0.	-501.92
3605	21.786	1.0909	0.	-462.25
3606	21.971	1.0909	0.	-422.77
3607	22.155	1.0909	0.	-383.48
3608	22.34	1.0909	0.	-344.41
3609	22.524	1.0909	0.	-305.55
3610	22.709	1.0909	0.	-266.94
3611	22.893	1.0909	0.	-228.58
3612	23.078	1.0909	0.	-190.47
3613	23.262	1.0909	0.	-152.6
3614	23.447	1.0909	0.	-114.92
3615	23.631	1.0909	0.	-77.319
3616	23.816	1.0909	0.	-39.903
3617	5.5512	0.90909	0.	-2404.9
3618	5.7356	0.90909	0.	-2543.9
3619	5.9201	0.90909	0.	-2802.6
3620	6.1046	0.90909	0.	-3056.7
3621	6.2891	0.90909	0.	-3279.9
3622	6.4736	0.90909	0.	-3462.5
3623	6.6581	0.90909	0.	-3604.4
3624	6.8426	0.90909	0.	-3709.5
3625	7.0271	0.90909	0.	-3783.1
3626	7.2116	0.90909	0.	-3830.6
3627	7.396	0.90909	0.	-3856.7
3628	7.5805	0.90909	0.	-3865.7
3629	7.765	0.90909	0.	-3861.
3630	7.9495	0.90909	0.	-3845.5
3631	8.134	0.90909	0.	-3821.4
3632	8.3185	0.90909	0.	-3790.7
3633	8.503	0.90909	0.	-3754.8
3634	8.6875	0.90909	0.	-3714.9
3635	8.8719	0.90909	0.	-3672.
3636	9.0564	0.90909	0.	-3626.7
3637	9.2409	0.90909	0.	-3579.8
3638	9.4254	0.90909	0.	-3531.5
3639	9.6099	0.90909	0.	-3482.4
3640	9.7944	0.90909	0.	-3432.5
3641	9.9789	0.90909	0.	-3382.2
3642	10.163	0.90909	0.	-3331.6
3643	10.348	0.90909	0.	-3280.8
3644	10.532	0.90909	0.	-3230.
3645	10.717	0.90909	0.	-3179.1
3646	10.901	0.90909	0.	-3128.3
3647	11.086	0.90909	0.	-3077.6
3648	11.27	0.90909	0.	-3027.
3649	11.455	0.90909	0.	-2976.5
3650	11.639	0.90909	0.	-2926.2
3651	11.824	0.90909	0.	-2876.1
3652	12.008	0.90909	0.	-2826.1
3653	12.193	0.90909	0.	-2776.4
3654	12.377	0.90909	0.	-2726.8
3655	12.562	0.90909	0.	-2677.5
3656	12.746	0.90909	0.	-2628.3
3657	12.931	0.90909	0.	-2579.3
3658	13.115	0.90909	0.	-2530.6
3659	13.3	0.90909	0.	-2482.
3660	13.484	0.90909	0.	-2433.7
3661	13.669	0.90909	0.	-2385.6
3662	13.853	0.90909	0.	-2337.6
3663	14.038	0.90909	0.	-2289.9
3664	14.222	0.90909	0.	-2242.4
3665	14.407	0.90909	0.	-2195.
3666	14.591	0.90909	0.	-2147.9
3667	14.776	0.90909	0.	-2101.
3668	14.96	0.90909	0.	-2054.3
3669	15.145	0.90909	0.	-2007.8
3670	15.329	0.90909	0.	-1961.5
3671	15.514	0.90909	0.	-1915.4
3672	15.698	0.90909	0.	-1869.5
3673	15.883	0.90909	0.	-1823.8
3674	16.067	0.90909	0.	-1778.2
3675	16.251	0.90909	0.	-1732.9
3676	16.436	0.90909	0.	-1687.8
3677	16.62	0.90909	0.	-1642.9
3678	16.805	0.90909	0.	-1598.2
3679	16.989	0.90909	0.	-1553.7
3680	17.174	0.90909	0.	-1509.4
3681	17.358	0.90909	0.	-1465.3
3682	17.543	0.90909	0.	-1421.3
3683	17.727	0.90909	0.	-1377.6
3684	17.912	0.90909	0.	-1334.1
3685	18.096	0.90909	0.	-1290.7
3686	18.281	0.90909	0.	-1247.6
3687	18.465	0.90909	0.	-1204.6
3688	18.65	0.90909	0.	-1161.8
3689	18.834	0.90909	0.	-1119.2
3690	19.019	0.90909	0.	-1076.8
3691	19.203	0.90909	0.	-1034.6
3692	19.388	0.90909	0.	-992.56
3693	19.572	0.90909	0.	-950.7
3694	19.757	0.90909	0.	-909.02
3695	19.941	0.90909	0.	-867.52
3696	20.126	0.90909	0.	-826.19
3697	20.31	0.90909	0.	-785.04
3698	20.495	0.90909	0.	-744.05
3699	20.679	0.90909	0.	-703.24
3700	20.864	0.90909	0.	-662.59
3701	21.048	0.90909	0.	-622.11
3702	21.233	0.90909	0.	-581.79
3703	21.417	0.90909	0.	-541.64
3704	21.602	0.90909	0.	-501.66
3705	21.786	0.90909	0.	-461.86
3706	21.971	0.90909	0.	-422.23
3707	22.155	0.90909	0.	-382.8
3708	22.34	0.90909	0.	-343.57
3709	22.524	0.90909	0.	-304.58
3710	22.709	0.90909	0.	-265.83
3711	22.893	0.90909	0.	-227.37
3712	23.078	0.90909	0.	-189.23
3713	23.262	0.90909	0.	-151.42
3714	23.447	0.90909	0.	-113.95
3715	23.631	0.90909	0.	-76.694
3716	23.816	0.90909	0.	-39.765
3717	5.5512	0.72727	0.	-1940.4
3718	5.7356	0.72727	0.	-2121.6
3719	5.9201	0.72727	0.	-2427.3
3720	6.1046	0.72727	0.	-2736.2
3721	6.2891	0.72727	0.	-3013.1
3722	6.4736	0.72727	0.	-3244.
3723	6.6581	0.72727	0.	-3427.6
3724	6.8426	0.72727	0.	-3567.7
3725	7.0271	0.72727	0.	-3670.3
3726	7.2116	0.72727	0.	-3741.4
3727	7.396	0.72727	0.	-3786.8
3728	7.5805	0.72727	0.	-3811.2
3729	7.765	0.72727	0.	-3818.9
3730	7.9495	0.72727	0.	-3813.2
3731	8.134	0.72727	0.	-3796.9
3732	8.3185	0.72727	0.	-3772.4
3733	8.503	0.72727	0.	-3741.4
3734	8.6875	0.72727	0.	-3705.3
3735	8.8719	0.72727	0.	-3665.3
3736	9.0564	0.72727	0.	-3622.4
3737	9.2409	0.72727	0.	-3577.2
3738	9.4254	0.72727	0.	-3530.3
3739	9.6099	0.72727	0.	-3482.1
3740	9.7944	0.72727	0.	-3433.
3741	9.9789	0.72727	0.	-3383.3
3742	10.163	0.72727	0.	-3333.1
3743	10.348	0.72727	0.	-3282.6
3744	10.532	0.72727	0.	-3231.9
3745	10.717	0.72727	0.	-3181.2
3746	10.901	0.72727	0.	-3130.4
3747	11.086	0.72727	0.	-3079.7
3748	11.27	0.72727	0.	-3029.1
3749	11.455	0.72727	0.	-2978.6
3750	11.639	0.72727	0.	-2928.3
3751	11.824	0.72727	0.	-2878.1
3752	12.008	0.72727	0.	-2828.1
3753	12.193	0.72727	0.	-2778.3
3754	12.377	0.72727	0.	-2728.7
3755	12.562	0.72727	0.	-2679.3
3756	12.746	0.72727	0.	-2630.
3757	12.931	0.72727	0.	-2581.
3758	13.115	0.72727	0.	-2532.2
3759	13.3	0.72727	0.	-2483.6
3760	13.484	0.72727	0.	-2435.3
3761	13.669	0.72727	0.	-2387.1
3762	13.853	0.72727	0.	-2339.1
3763	14.038	0.72727	0.	-2291.3
3764	14.222	0.72727	0.	-2243.8
3765	14.407	0.72727	0.	-2196.4
3766	14.591	0.72727	0.	-2149.3
3767	14.776	0.72727	0.	-2102.3
3768	14.96	0.72727	0.	-2055.6
3769	15.145	0.72727	0.	-2009.1
3770	15.329	0.72727	0.	-1962.7
3771	15.514	0.72727	0.	-1916.6
3772	15.698	0.72727	0.	-1870.7
3773	15.883	0.72727	0.	-1825.
3774	16.067	0.72727	0.	-1779.5
3775	16.251	0.72727	0.	-1734.1
3776	16.436	0.72727	0.	-1689.
3777	16.62	0.72727	0.	-1644.1
3778	16.805	0.72727	0.	-1599.4
3779	16.989	0.72727	0.	-1554.8
3780	17.174	0.72727	0.	-1510.5
3781	17.358	0.72727	0.	-1466.4
3782	17.543	0.72727	0.	-1422.4
3783	17.727	0.72727	0.	-1378.7
3784	17.912	0.72727	0.	-1335.1
3785	18.096	0.72727	0.	-1291.8
3786	18.281	0.72727	0.	-1248.6
3787	18.465	0.72727	0.	-1205.6
3788	18.65	0.72727	0.	-1162.8
3789	18.834	0.72727	0.	-1120.2
3790	19.019	0.72727	0.	-1077.8
3791	19.203	0.72727	0.	-1035.5
3792	19.388	0.72727	0.	-993.44
3793	19.572	0.72727	0.	-951.54
3794	19.757	0.72727	0.	-909.82
3795	19.941	0.72727	0.	-868.26
3796	20.126	0.72727	0.	-826.88
3797	20.31	0.72727	0.	-785.66
3798	20.495	0.72727	0.	-744.61
3799	20.679	0.72727	0.	-703.72
3800	20.864	0.72727	0.	-662.98
3801	21.048	0.72727	0.	-622.41
3802	21.233	0.72727	0.	-581.99
3803	21.417	0.72727	0.	-541.72
3804	21.602	0.72727	0.	-501.62
3805	21.786	0.72727	0.	-461.68
3806	21.971	0.72727	0.	-421.9
3807	22.155	0.72727	0.	-382.31
3808	22.34	0.72727	0.	-342.91
3809	22.524	0.72727	0.	-303.73
3810	22.709	0.72727	0.	-264.8
3811	22.893	0.72727	0.	-226.17
3812	23.078	0.72727	0.	-187.9
3813	23.262	0.72727	0.	-150.06
3814	23.447	0.72727	0.	-112.7
3815	23.631	0.72727	0.	-75.811
3816	23.816	0.72727	0.	-39.495
3817	5.5512	0.54545	0.	-1529.4
3818	5.7356	0.54545	0.	-1768.
3819	5.9201	0.54545	0.	-2126.9
3820	6.1046	0.54545	0.	-2484.2
3821	6.2891	0.54545	0.	-2802.8
3822	6.4736	0.54545	0.	-3069.9
3823	6.6581	0.54545	0.	-3284.7
3824	6.8426	0.54545	0.	-3451.5
3825	7.0271	0.54545	0.	-3576.7
3826	7.2116	0.54545	0.	-3666.7
3827	7.396	0.54545	0.	-3727.7
3828	7.5805	0.54545	0.	-3764.8
3829	7.765	0.54545	0.	-3782.8
3830	7.9495	0.54545	0.	-3785.5
3831	8.134	0.54545	0.	-3775.9
3832	8.3185	0.54545	0.	-3756.7
3833	8.503	0.54545	0.	-3729.9
3834	8.6875	0.54545	0.	-3697.2
3835	8.8719	0.54545	0.	-3659.8
3836	9.0564	0.54545	0.	-3618.9
3837	9.2409	0.54545	0.	-3575.3
3838	9.4254	0.54545	0.	-3529.6
3839	9.6099	0.54545	0.	-3482.3
3840	9.7944	0.54545	0.	-3433.9
3841	9.9789	0.54545	0.	-3384.6
3842	10.163	0.54545	0.	-3334.8
3843	10.348	0.54545	0.	-3284.5
3844	10.532	0.54545	0.	-3234.
3845	10.717	0.54545	0.	-3183.4
3846	10.901	0.54545	0.	-3132.7
3847	11.086	0.54545	0.	-3082.
3848	11.27	0.54545	0.	-3031.4
3849	11.455	0.54545	0.	-2980.9
3850	11.639	0.54545	0.	-2930.5
3851	11.824	0.54545	0.	-2880.3
3852	12.008	0.54545	0.	-2830.2
3853	12.193	0.54545	0.	-2780.3
3854	12.377	0.54545	0.	-2730.7
3855	12.562	0.54545	0.	-2681.2
3856	12.746	0.54545	0.	-2631.9
3857	12.931	0.54545	0.	-2582.8
3858	13.115	0.54545	0.	-2534.
3859	13.3	0.54545	0.	-2485.3
3860	13.484	0.54545	0.	-2436.9
3861	13.669	0.54545	0.	-2388.7
3862	13.853	0.54545	0.	-2340.7
3863	14.038	0.54545	0.	-2292.9
3864	14.222	0.54545	0.	-2245.3
3865	14.407	0.54545	0.	-2197.9
3866	14.591	0.54545	0.	-2150.7
3867	14.776	0.54545	0.	-2103.8
3868	14.96	0.54545	0.	-2057.
3869	15.145	0.54545	0.	-2010.5
3870	15.329	0.54545	0.	-1964.1
3871	15.514	0.54545	0.	-1918.
3872	15.698	0.54545	0.	-1872.
3873	15.883	0.54545	0.	-1826.3
3874	16.067	0.54545	0.	-1780.8
3875	16.251	0.54545	0.	-1735.4
3876	16.436	0.54545	0.	-1690.3
3877	16.62	0.54545	0.	-1645.4
3878	16.805	0.54545	0.	-1600.7
3879	16.989	0.54545	0.	-1556.1
3880	17.174	0.54545	0.	-1511.8
3881	17.358	0.54545	0.	-1467.6
3882	17.543	0.54545	0.	-1423.7
3883	17.727	0.54545	0.	-1379.9
3884	17.912	0.54545	0.	-1336.4
3885	18.096	0.54545	0.	-1293.
3886	18.281	0.54545	0.	-1249.8
3887	18.465	0.54545	0.	-1206.8
3888	18.65	0.54545	0.	-1164.
3889	18.834	0.54545	0.	-1121.3
3890	19.019	0.54545	0.	-1078.9
3891	19.203	0.54545	0.	-1036.6
3892	19.388	0.54545	0.	-994.5
3893	19.572	0.54545	0.	-952.57
3894	19.757	0.54545	0.	-910.81
3895	19.941	0.54545	0.	-869.21
3896	20.126	0.54545	0.	-827.78
3897	20.31	0.54545	0.	-786.51
3898	20.495	0.54545	0.	-745.4
3899	20.679	0.54545	0.	-704.44
3900	20.864	0.54545	0.	-663.63
3901	21.048	0.54545	0.	-622.98
3902	21.233	0.54545	0.	-582.47
3903	21.417	0.54545	0.	-542.1
3904	21.602	0.54545	0.	-501.88
3905	21.786	0.54545	0.	-461.81
3906	21.971	0.54545	0.	-421.9
3907	22.155	0.54545	0.	-382.14
3908	22.34	0.54545	0.	-342.57
3909	22.524	0.54545	0.	-303.19
3910	22.709	0.54545	0.	-264.04
3911	22.893	0.54545	0.	-225.17
3912	23.078	0.54545	0.	-186.66
3913	23.262	0.54545	0.	-148.61
3914	23.447	0.54545	0.	-111.2
3915	23.631	0.54545	0.	-74.565
3916	23.816	0.54545	0.	-38.976
3917	5.5512	0.36364	0.	-1153.4
3918	5.7356	0.36364	0.	-1483.1
3919	5.9201	0.36364	0.	-1903.5
3920	6.1046	0.36364	0.	-2301.2
3921	6.2891	0.36364	0.	-2649.4
3922	6.4736	0.36364	0.	-2940.9
3923	6.6581	0.36364	0.	-3177.
3924	6.8426	0.36364	0.	-3362.6
3925	7.0271	0.36364	0.	-3504.1
3926	7.2116	0.36364	0.	-3608.1
3927	7.396	0.36364	0.	-3680.8
3928	7.5805	0.36364	0.	-3727.9
3929	7.765	0.36364	0.	-3754.
3930	7.9495	0.36364	0.	-3763.3
3931	8.134	0.36364	0.	-3759.1
3932	8.3185	0.36364	0.	-3744.2
3933	8.503	0.36364	0.	-3720.9
3934	8.6875	0.36364	0.	-3690.9
3935	8.8719	0.36364	0.	-3655.7
3936	9.0564	0.36364	0.	-3616.5
3937	9.2409	0.36364	0.	-3574.2
3938	9.4254	0.36364	0.	-3529.5
3939	9.6099	0.36364	0.	-3483.
3940	9.7944	0.36364	0.	-3435.2
3941	9.9789	0.36364	0.	-3386.4
3942	10.163	0.36364	0.	-3336.8
3943	10.348	0.36364	0.	-3286.8
3944	10.532	0.36364	0.	-3236.4
3945	10.717	0.36364	0.	-3185.8
3946	10.901	0.36364	0.	-3135.2
3947	11.086	0.36364	0.	-3084.5
3948	11.27	0.36364	0.	-3033.8
3949	11.455	0.36364	0.	-2983.3
3950	11.639	0.36364	0.	-2932.9
3951	11.824	0.36364	0.	-2882.6
3952	12.008	0.36364	0.	-2832.5
3953	12.193	0.36364	0.	-2782.5
3954	12.377	0.36364	0.	-2732.8
3955	12.562	0.36364	0.	-2683.3
3956	12.746	0.36364	0.	-2633.9
3957	12.931	0.36364	0.	-2584.8
3958	13.115	0.36364	0.	-2535.9
3959	13.3	0.36364	0.	-2487.2
3960	13.484	0.36364	0.	-2438.8
3961	13.669	0.36364	0.	-2390.5
3962	13.853	0.36364	0.	-2342.5
3963	14.038	0.36364	0.	-2294.6
3964	14.222	0.36364	0.	-2247.
3965	14.407	0.36364	0.	-2199.6
3966	14.591	0.36364	0.	-2152.4
3967	14.776	0.36364	0.	-2105.4
3968	14.96	0.36364	0.	-2058.6
3969	15.145	0.36364	0.	-2012.1
3970	15.329	0.36364	0.	-1965.7
3971	15.514	0.36364	0.	-1919.6
3972	15.698	0.36364	0.	-1873.6
3973	15.883	0.36364	0.	-1827.9
3974	16.067	0.36364	0.	-1782.3
3975	16.251	0.36364	0.	-1737.
3976	16.436	0.36364	0.	-1691.9
3977	16.62	0.36364	0.	-1646.9
3978	16.805	0.36364	0.	-1602.2
3979	16.989	0.36364	0.	-1557.6
3980	17.174	0.36364	0.	-1513.3
3981	17.358	0.36364	0.	-1469.2
3982	17.543	0.36364	0.	-1425.2
3983	17.727	0.36364	0.	-1381.4
3984	17.912	0.36364	0.	-1337.9
3985	18.096	0.36364	0.	-1294.5
3986	18.281	0.36364	0.	-1251.3
3987	18.465	0.36364	0.	-1208.3
3988	18.65	0.36364	0.	-1165.4
3989	18.834	0.36364	0.	-1122.8
3990	19.019	0.36364	0.	-1080.3
3991	19.203	0.36364	0.	-1038.
3992	19.388	0.36364	0.	-995.92
3993	19.572	0.36364	0.	-953.96
3994	19.757	0.36364	0.	-912.18
3995	19.941	0.36364	0.	-870.55
3996	20.126	0.36364	0.	-829.09
3997	20.31	0.36364	0.	-787.78
3998	20.495	0.36364	0.	-746.63
3999	20.679	0.36364	0.	-705.62
4000	20.864	0.36364	0.	-664.76
4001	21.048	0.36364	0.	-624.04
4002	21.233	0.36364	0.	-583.46
4003	21.417	0.36364	0.	-543.01
4004	21.602	0.36364	0.	-502.71
4005	21.786	0.36364	0.	-462.53
4006	21.971	0.36364	0.	-422.5
4007	22.155	0.36364	0.	-382.61
4008	22.34	0.36364	0.	-342.87
4009	22.524	0.36364	0.	-303.31
4010	22.709	0.36364	0.	-263.94
4011	22.893	0.36364	0.	-224.8
4012	23.078	0.36364	0.	-185.97
4013	23.262	0.36364	0.	-147.56
4014	23.447	0.36364	0.	-109.78
4015	23.631	0.36364	0.	-73.014
4016	23.816	0.36364	0.	-38.118
4017	5.5512	0.18182	0.	-833.22
4018	5.7356	0.18182	0.	-1301.6
4019	5.9201	0.18182	0.	-1772.8
4020	6.1046	0.18182	0.	-2193.3
4021	6.2891	0.18182	0.	-2555.9
4022	6.4736	0.18182	0.	-2859.3
4023	6.6581	0.18182	0.	-3106.6
4024	6.8426	0.18182	0.	-3302.8
4025	7.0271	0.18182	0.	-3454.2
4026	7.2116	0.18182	0.	-3567.2
4027	7.396	0.18182	0.	-3647.8
4028	7.5805	0.18182	0.	-3701.6
4029	7.765	0.18182	0.	-3733.5
4030	7.9495	0.18182	0.	-3747.7
4031	8.134	0.18182	0.	-3747.5
4032	8.3185	0.18182	0.	-3735.9
4033	8.503	0.18182	0.	-3715.2
4034	8.6875	0.18182	0.	-3687.4
4035	8.8719	0.18182	0.	-3653.9
4036	9.0564	0.18182	0.	-3616.
4037	9.2409	0.18182	0.	-3574.8
4038	9.4254	0.18182	0.	-3530.9
4039	9.6099	0.18182	0.	-3485.
4040	9.7944	0.18182	0.	-3437.7
4041	9.9789	0.18182	0.	-3389.2
4042	10.163	0.18182	0.	-3339.9
4043	10.348	0.18182	0.	-3290.
4044	10.532	0.18182	0.	-3239.8
4045	10.717	0.18182	0.	-3189.3
4046	10.901	0.18182	0.	-3138.7
4047	11.086	0.18182	0.	-3088.
4048	11.27	0.18182	0.	-3037.4
4049	11.455	0.18182	0.	-2986.8
4050	11.639	0.18182	0.	-2936.4
4051	11.824	0.18182	0.	-2886.1
4052	12.008	0.18182	0.	-2836.
4053	12.193	0.18182	0.	-2786.
4054	12.377	0.18182	0.	-2736.3
4055	12.562	0.18182	0.	-2686.7
4056	12.746	0.18182	0.	-2637.4
4057	12.931	0.18182	0.	-2588.2
4058	13.115	0.18182	0.	-2539.3
4059	13.3	0.18182	0.	-2490.6
4060	13.484	0.18182	0.	-2442.1
4061	13.669	0.18182	0.	-2393.9
4062	13.853	0.18182	0.	-2345.8
4063	14.038	0.18182	0.	-2298.
4064	14.222	0.18182	0.	-2250.4
4065	14.407	0.18182	0.	-2203.
4066	14.591	0.18182	0.	-2155.8
4067	14.776	0.18182	0.	-2108.8
4068	14.96	0.18182	0.	-2062.
4069	15.145	0.18182	0.	-2015.5
4070	15.329	0.18182	0.	-1969.2
4071	15.514	0.18182	0.	-1923.
4072	15.698	0.18182	0.	-1877.1
4073	15.883	0.18182	0.	-1831.4
4074	16.067	0.18182	0.	-1785.9
4075	16.251	0.18182	0.	-1740.6
4076	16.436	0.18182	0.	-1695.5
4077	16.62	0.18182	0.	-1650.6
4078	16.805	0.18182	0.	-1605.8
4079	16.989	0.18182	0.	-1561.3
4080	17.174	0.18182	0.	-1517.
4081	17.358	0.18182	0.	-1472.9
4082	17.543	0.18182	0.	-1429.
4083	17.727	0.18182	0.	-1385.3
4084	17.912	0.18182	0.	-1341.7
4085	18.096	0.18182	0.	-1298.4
4086	18.281	0.18182	0.	-1255.2
4087	18.465	0.18182	0.	-1212.2
4088	18.65	0.18182	0.	-1169.4
4089	18.834	0.18182	0.	-1126.8
4090	19.019	0.18182	0.	-1084.4
4091	19.203	0.18182	0.	-1042.1
4092	19.388	0.18182	0.	-1000.
4093	19.572	0.18182	0.	-958.08
4094	19.757	0.18182	0.	-916.31
4095	19.941	0.18182	0.	-874.7
4096	20.126	0.18182	0.	-833.25
4097	20.31	0.18182	0.	-791.95
4098	20.495	0.18182	0.	-750.79
4099	20.679	0.18182	0.	-709.77
4100	20.864	0.18182	0.	-668.9
4101	21.048	0.18182	0.	-628.15
4102	21.233	0.18182	0.	-587.54
4103	21.417	0.18182	0.	-547.05
4104	21.602	0.18182	0.	-506.68
4105	21.786	0.18182	0.	-466.43
4106	21.971	0.18182	0.	-426.31
4107	22.155	0.18182	0.	-386.3
4108	22.34	0.18182	0.	-346.42
4109	22.524	0.18182	0.	-306.67
4110	22.709	0.18182	0.	-267.06
4111	22.893	0.18182	0.	-227.63
4112	23.078	0.18182	0.	-188.39
4113	23.262	0.18182	0.	-149.42
4114	23.447	0.18182	0.	-110.85
4115	23.631	0.18182	0.	-72.92
4116	23.816	0.18182	0.	-37.1
4117	23.816	0.18182	0.1	-34.142
4118	23.631	0.18182	0.1	-33.172
4119	23.447	0.18182	0.1	-33.506
4120	23.262	0.18182	0.1	-33.847
4121	23.078	0.18182	0.1	-34.051
4122	22.893	0.18182	0.1	-34.113
4123	22.709	0.18182	0.1	-34.053
4124	22.524	0.18182	0.1	-33.891
4125	22.34	0.18182	0.1	-33.646
4126	22.155	0.18182	0.1	-33.335
4127	21.971	0.18182	0.1	-32.969
4128	21.786	0.18182	0.1	-32.561
4129	21.602	0.18182	0.1	-32.119
4130	21.417	0.18182	0.1	-31.65
4131	21.233	0.18182	0.1	-31.161
4132	21.048	0.18182	0.1	-30.658
4133	20.864	0.18182	0.1	-30.144
4134	20.679	0.18182	0.1	-29.623
4135	20.495	0.18182	0.1	-29.099
4136	20.31	0.18182	0.1	-28.574
4137	20.126	0.18182	0.1	-28.05
4138	19.941	0.18182	0.1	-27.529
4139	19.757	0.18182	0.1	-27.012
4140	19.572	0.18182	0.1	-26.501
4141	19.388	0.18182	0.1	-25.996
4142	19.203	0.18182	0.1	-25.498
4143	19.019	0.18182	0.1	-25.008
4144	18.834	0.18182	0.1	-24.525
4145	18.65	0.18182	0.1	-24.05
4146	18.465	0.18182	0.1	-23.583
4147	18.281	0.18182	0.1	-23.124
4148	18.096	0.18182	0.1	-22.673
4149	17.912	0.18182	0.1	-22.229
4150	17.727	0.18182	0.1	-21.791
4151	17.543	0.18182	0.1	-21.36
4152	17.358	0.18182	0.1	-20.935
4153	17.174	0.18182	0.1	-20.515
4154	16.989	0.18182	0.1	-20.1
4155	16.805	0.18182	0.1	-19.689
4156	16.62	0.18182	0.1	-19.281
4157	16.436	0.18182	0.1	-18.875
4158	16.251	0.18182	0.1	-18.471
4159	16.067	0.18182	0.1	-18.067
4160	15.883	0.18182	0.1	-17.664
4161	15.698	0.18182	0.1	-17.259
4162	15.514	0.18182	0.1	-16.852
4163	15.329	0.18182	0.1	-16.442
4164	15.145	0.18182	0.1	-16.027
4165	14.96	0.18182	0.1	-15.607
4166	14.776	0.18182	0.1	-15.181
4167	14.591	0.18182	0.1	-14.747
4168	14.407	0.18182	0.1	-14.305
4169	14.222	0.18182	0.1	-13.852
4170	14.038	0.18182	0.1	-13.389
4171	13.853	0.18182	0.1	-12.913
4172	13.669	0.18182	0.1	-12.424
4173	13.484	0.18182	0.1	-11.92
4174	13.3	0.18182	0.1	-11.401
4175	13.115	0.18182	0.1	-10.866
4176	12.931	0.18182	0.1	-10.314
4177	12.746	0.18182	0.1	-9.7444
4178	12.562	0.18182	0.1	-9.1576
4179	12.377	0.18182	0.1	-8.5533
4180	12.193	0.18182	0.1	-7.9327
4181	12.008	0.18182	0.1	-7.2968
4182	11.824	0.18182	0.1	-6.6482
4183	11.639	0.18182	0.1	-5.9896
4184	11.455	0.18182	0.1	-5.3258
4185	11.27	0.18182	0.1	-4.6627
4186	11.086	0.18182	0.1	-4.0081
4187	10.901	0.18182	0.1	-3.3726
4188	10.717	0.18182	0.1	-2.7695
4189	10.532	0.18182	0.1	-2.2162
4190	10.348	0.18182	0.1	-1.7337
4191	10.163	0.18182	0.1	-1.3465
4192	9.9789	0.18182	0.1	-1.0754
4193	9.7944	0.18182	0.1	-0.93164
4194	9.6099	0.18182	0.1	-0.9228
4195	9.4254	0.18182	0.1	-1.0813
4196	9.2409	0.18182	0.1	-1.4862
4197	9.0564	0.18182	0.1	-2.2383
4198	8.8719	0.18182	0.1	-3.4227
4199	8.6875	0.18182	0.1	-5.1151
4200	8.503	0.18182	0.1	-7.3986
4201	8.3185	0.18182	0.1	-10.368
4202	8.134	0.18182	0.1	-14.128
4203	7.9495	0.18182	0.1	-18.785
4204	7.765	0.18182	0.1	-24.445
4205	7.5805	0.18182	0.1	-31.195
4206	7.396	0.18182	0.1	-39.086
4207	7.2116	0.18182	0.1	-48.099
4208	7.0271	0.18182	0.1	-58.1
4209	6.8426	0.18182	0.1	-68.777
4210	6.6581	0.18182	0.1	-79.564
4211	6.4736	0.18182	0.1	-89.577
4212	6.2891	0.18182	0.1	-97.567
4213	6.1046	0.18182	0.1	-102.13
4214	5.9201	0.18182	0.1	-101.93
4215	5.7356	0.18182	0.1	-101.53
4216	5.5512	0.18182	0.1	-137.63
4217	23.816	0.36364	0.1	-57.367
4218	23.631	0.36364	0.1	-50.904
4219	23.447	0.36364	0.1	-47.116
4220	23.262	0.36364	0.1	-44.647
4221	23.078	0.36364	0.1	-42.792
4222	22.893	0.36364	0.1	-41.273
4223	22.709	0.36364	0.1	-39.948
4224	22.524	0.36364	0.1	-38.745
4225	22.34	0.36364	0.1	-37.624
4226	22.155	0.36364	0.1	-36.564
4227	21.971	0.36364	0.1	-35.55
4228	21.786	0.36364	0.1	-34.575
4229	21.602	0.36364	0.1	-33.634
4230	21.417	0.36364	0.1	-32.724
4231	21.233	0.36364	0.1	-31.842
4232	21.048	0.36364	0.1	-30.989
4233	20.864	0.36364	0.1	-30.162
4234	20.679	0.36364	0.1	-29.361
4235	20.495	0.36364	0.1	-28.586
4236	20.31	0.36364	0.1	-27.835
4237	20.126	0.36364	0.1	-27.109
4238	19.941	0.36364	0.1	-26.405
4239	19.757	0.36364	0.1	-25.725
4240	19.572	0.36364	0.1	-25.067
4241	19.388	0.36364	0.1	-24.429
4242	19.203	0.36364	0.1	-23.812
4243	19.019	0.36364	0.1	-23.214
4244	18.834	0.36364	0.1	-22.635
4245	18.65	0.36364	0.1	-22.072
4246	18.465	0.36364	0.1	-21.526
4247	18.281	0.36364	0.1	-20.994
4248	18.096	0.36364	0.1	-20.476
4249	17.912	0.36364	0.1	-19.971
4250	17.727	0.36364	0.1	-19.477
4251	17.543	0.36364	0.1	-18.993
4252	17.358	0.36364	0.1	-18.518
4253	17.174	0.36364	0.1	-18.05
4254	16.989	0.36364	0.1	-17.589
4255	16.805	0.36364	0.1	-17.131
4256	16.62	0.36364	0.1	-16.678
4257	16.436	0.36364	0.1	-16.226
4258	16.251	0.36364	0.1	-15.774
4259	16.067	0.36364	0.1	-15.321
4260	15.883	0.36364	0.1	-14.866
4261	15.698	0.36364	0.1	-14.406
4262	15.514	0.36364	0.1	-13.94
4263	15.329	0.36364	0.1	-13.467
4264	15.145	0.36364	0.1	-12.984
4265	14.96	0.36364	0.1	-12.49
4266	14.776	0.36364	0.1	-11.983
4267	14.591	0.36364	0.1	-11.462
4268	14.407	0.36364	0.1	-10.924
4269	14.222	0.36364	0.1	-10.368
4270	14.038	0.36364	0.1	-9.7907
4271	13.853	0.36364	0.1	-9.1916
4272	13.669	0.36364	0.1	-8.5682
4273	13.484	0.36364	0.1	-7.9191
4274	13.3	0.36364	0.1	-7.2422
4275	13.115	0.36364	0.1	-6.5365
4276	12.931	0.36364	0.1	-5.8005
4277	12.746	0.36364	0.1	-5.0333
4278	12.562	0.36364	0.1	-4.2347
4279	12.377	0.36364	0.1	-3.4046
4280	12.193	0.36364	0.1	-2.5444
4281	12.008	0.36364	0.1	-1.6562
4282	11.824	0.36364	0.1	-0.74639
4283	11.639	0.36364	0.1	-4.8596e-002
4284	11.455	0.36364	0.1	-2.942e-002
4285	11.27	0.36364	0.1	-2.9366e-002
4286	11.086	0.36364	0.1	-3.0993e-002
4287	10.901	0.36364	0.1	-3.3243e-002
4288	10.717	0.36364	0.1	-3.5797e-002
4289	10.532	0.36364	0.1	-3.8567e-002
4290	10.348	0.36364	0.1	-4.151e-002
4291	10.163	0.36364	0.1	-4.4722e-002
4292	9.9789	0.36364	0.1	-4.8212e-002
4293	9.7944	0.36364	0.1	-5.2175e-002
4294	9.6099	0.36364	0.1	-5.7144e-002
4295	9.4254	0.36364	0.1	-6.4239e-002
4296	9.2409	0.36364	0.1	-7.648e-002
4297	9.0564	0.36364	0.1	-0.10386
4298	8.8719	0.36364	0.1	-0.20139
4299	8.6875	0.36364	0.1	-1.2079
4300	8.503	0.36364	0.1	-4.8612
4301	8.3185	0.36364	0.1	-9.8927
4302	8.134	0.36364	0.1	-16.215
4303	7.9495	0.36364	0.1	-23.942
4304	7.765	0.36364	0.1	-33.172
4305	7.5805	0.36364	0.1	-43.951
4306	7.396	0.36364	0.1	-56.223
4307	7.2116	0.36364	0.1	-69.773
4308	7.0271	0.36364	0.1	-84.161
4309	6.8426	0.36364	0.1	-98.636
4310	6.6581	0.36364	0.1	-112.09
4311	6.4736	0.36364	0.1	-123.09
4312	6.2891	0.36364	0.1	-130.19
4313	6.1046	0.36364	0.1	-132.97
4314	5.9201	0.36364	0.1	-134.72
4315	5.7356	0.36364	0.1	-154.55
4316	5.5512	0.36364	0.1	-280.51
4317	23.816	0.54545	0.1	-77.504
4318	23.631	0.54545	0.1	-69.063
4319	23.447	0.54545	0.1	-62.81
4320	23.262	0.54545	0.1	-58.142
4321	23.078	0.54545	0.1	-54.473
4322	22.893	0.54545	0.1	-51.469
4323	22.709	0.54545	0.1	-48.914
4324	22.524	0.54545	0.1	-46.676
4325	22.34	0.54545	0.1	-44.671
4326	22.155	0.54545	0.1	-42.846
4327	21.971	0.54545	0.1	-41.163
4328	21.786	0.54545	0.1	-39.596
4329	21.602	0.54545	0.1	-38.129
4330	21.417	0.54545	0.1	-36.748
4331	21.233	0.54545	0.1	-35.444
4332	21.048	0.54545	0.1	-34.207
4333	20.864	0.54545	0.1	-33.034
4334	20.679	0.54545	0.1	-31.918
4335	20.495	0.54545	0.1	-30.855
4336	20.31	0.54545	0.1	-29.842
4337	20.126	0.54545	0.1	-28.876
4338	19.941	0.54545	0.1	-27.953
4339	19.757	0.54545	0.1	-27.072
4340	19.572	0.54545	0.1	-26.228
4341	19.388	0.54545	0.1	-25.42
4342	19.203	0.54545	0.1	-24.646
4343	19.019	0.54545	0.1	-23.903
4344	18.834	0.54545	0.1	-23.189
4345	18.65	0.54545	0.1	-22.502
4346	18.465	0.54545	0.1	-21.839
4347	18.281	0.54545	0.1	-21.198
4348	18.096	0.54545	0.1	-20.578
4349	17.912	0.54545	0.1	-19.976
4350	17.727	0.54545	0.1	-19.39
4351	17.543	0.54545	0.1	-18.818
4352	17.358	0.54545	0.1	-18.258
4353	17.174	0.54545	0.1	-17.709
4354	16.989	0.54545	0.1	-17.167
4355	16.805	0.54545	0.1	-16.631
4356	16.62	0.54545	0.1	-16.099
4357	16.436	0.54545	0.1	-15.568
4358	16.251	0.54545	0.1	-15.037
4359	16.067	0.54545	0.1	-14.503
4360	15.883	0.54545	0.1	-13.965
4361	15.698	0.54545	0.1	-13.419
4362	15.514	0.54545	0.1	-12.864
4363	15.329	0.54545	0.1	-12.297
4364	15.145	0.54545	0.1	-11.716
4365	14.96	0.54545	0.1	-11.118
4366	14.776	0.54545	0.1	-10.502
4367	14.591	0.54545	0.1	-9.8629
4368	14.407	0.54545	0.1	-9.1997
4369	14.222	0.54545	0.1	-8.5095
4370	14.038	0.54545	0.1	-7.7892
4371	13.853	0.54545	0.1	-7.0365
4372	13.669	0.54545	0.1	-6.2483
4373	13.484	0.54545	0.1	-5.4224
4374	13.3	0.54545	0.1	-4.5559
4375	13.115	0.54545	0.1	-3.6469
4376	12.931	0.54545	0.1	-2.6933
4377	12.746	0.54545	0.1	-1.6935
4378	12.562	0.54545	0.1	-0.64821
4379	12.377	0.54545	0.1	-8.1853e-003
4380	12.193	0.54545	0.1	-5.2057e-003
4381	12.008	0.54545	0.1	-5.348e-003
4382	11.824	0.54545	0.1	-5.9827e-003
4383	11.639	0.54545	0.1	-6.8211e-003
4384	11.455	0.54545	0.1	-7.8562e-003
4385	11.27	0.54545	0.1	-9.0338e-003
4386	11.086	0.54545	0.1	-1.0366e-002
4387	10.901	0.54545	0.1	-1.1948e-002
4388	10.717	0.54545	0.1	-1.3774e-002
4389	10.532	0.54545	0.1	-1.5911e-002
4390	10.348	0.54545	0.1	-1.8432e-002
4391	10.163	0.54545	0.1	-2.1534e-002
4392	9.9789	0.54545	0.1	-2.5334e-002
4393	9.7944	0.54545	0.1	-3.0115e-002
4394	9.6099	0.54545	0.1	-3.6425e-002
4395	9.4254	0.54545	0.1	-4.5138e-002
4396	9.2409	0.54545	0.1	-5.8002e-002
4397	9.0564	0.54545	0.1	-7.8881e-002
4398	8.8719	0.54545	0.1	-0.11811
4399	8.6875	0.54545	0.1	-0.21408
4400	8.503	0.54545	0.1	-0.65824
4401	8.3185	0.54545	0.1	-4.4087
4402	8.134	0.54545	0.1	-11.822
4403	7.9495	0.54545	0.1	-21.196
4404	7.765	0.54545	0.1	-32.498
4405	7.5805	0.54545	0.1	-45.779
4406	7.396	0.54545	0.1	-61.011
4407	7.2116	0.54545	0.1	-78.023
4408	7.0271	0.54545	0.1	-96.454
4409	6.8426	0.54545	0.1	-115.71
4410	6.6581	0.54545	0.1	-135.
4411	6.4736	0.54545	0.1	-153.57
4412	6.2891	0.54545	0.1	-171.36
4413	6.1046	0.54545	0.1	-190.96
4414	5.9201	0.54545	0.1	-221.79
4415	5.7356	0.54545	0.1	-293.97
4416	5.5512	0.54545	0.1	-509.02
4417	23.816	0.72727	0.1	-94.542
4418	23.631	0.72727	0.1	-85.231
4419	23.447	0.72727	0.1	-77.573
4420	23.262	0.72727	0.1	-71.362
4421	23.078	0.72727	0.1	-66.228
4422	22.893	0.72727	0.1	-61.914
4423	22.709	0.72727	0.1	-58.211
4424	22.524	0.72727	0.1	-54.972
4425	22.34	0.72727	0.1	-52.092
4426	22.155	0.72727	0.1	-49.496
4427	21.971	0.72727	0.1	-47.133
4428	21.786	0.72727	0.1	-44.961
4429	21.602	0.72727	0.1	-42.954
4430	21.417	0.72727	0.1	-41.087
4431	21.233	0.72727	0.1	-39.345
4432	21.048	0.72727	0.1	-37.713
4433	20.864	0.72727	0.1	-36.181
4434	20.679	0.72727	0.1	-34.738
4435	20.495	0.72727	0.1	-33.379
4436	20.31	0.72727	0.1	-32.095
4437	20.126	0.72727	0.1	-30.881
4438	19.941	0.72727	0.1	-29.732
4439	19.757	0.72727	0.1	-28.642
4440	19.572	0.72727	0.1	-27.607
4441	19.388	0.72727	0.1	-26.624
4442	19.203	0.72727	0.1	-25.687
4443	19.019	0.72727	0.1	-24.794
4444	18.834	0.72727	0.1	-23.942
4445	18.65	0.72727	0.1	-23.125
4446	18.465	0.72727	0.1	-22.342
4447	18.281	0.72727	0.1	-21.589
4448	18.096	0.72727	0.1	-20.864
4449	17.912	0.72727	0.1	-20.162
4450	17.727	0.72727	0.1	-19.482
4451	17.543	0.72727	0.1	-18.82
4452	17.358	0.72727	0.1	-18.173
4453	17.174	0.72727	0.1	-17.54
4454	16.989	0.72727	0.1	-16.916
4455	16.805	0.72727	0.1	-16.299
4456	16.62	0.72727	0.1	-15.687
4457	16.436	0.72727	0.1	-15.077
4458	16.251	0.72727	0.1	-14.466
4459	16.067	0.72727	0.1	-13.851
4460	15.883	0.72727	0.1	-13.229
4461	15.698	0.72727	0.1	-12.597
4462	15.514	0.72727	0.1	-11.952
4463	15.329	0.72727	0.1	-11.292
4464	15.145	0.72727	0.1	-10.613
4465	14.96	0.72727	0.1	-9.9124
4466	14.776	0.72727	0.1	-9.1861
4467	14.591	0.72727	0.1	-8.4311
4468	14.407	0.72727	0.1	-7.6438
4469	14.222	0.72727	0.1	-6.821
4470	14.038	0.72727	0.1	-5.9589
4471	13.853	0.72727	0.1	-5.054
4472	13.669	0.72727	0.1	-4.1026
4473	13.484	0.72727	0.1	-3.1017
4474	13.3	0.72727	0.1	-2.048
4475	13.115	0.72727	0.1	-0.94228
4476	12.931	0.72727	0.1	-4.2844e-002
4477	12.746	0.72727	0.1	-1.0436e-002
4478	12.562	0.72727	0.1	-7.3519e-003
4479	12.377	0.72727	0.1	-6.5787e-003
4480	12.193	0.72727	0.1	-6.5175e-003
4481	12.008	0.72727	0.1	-6.7993e-003
4482	11.824	0.72727	0.1	-7.3467e-003
4483	11.639	0.72727	0.1	-8.0635e-003
4484	11.455	0.72727	0.1	-8.9802e-003
4485	11.27	0.72727	0.1	-1.0052e-002
4486	11.086	0.72727	0.1	-1.1293e-002
4487	10.901	0.72727	0.1	-1.2803e-002
4488	10.717	0.72727	0.1	-1.4581e-002
4489	10.532	0.72727	0.1	-1.6695e-002
4490	10.348	0.72727	0.1	-1.9228e-002
4491	10.163	0.72727	0.1	-2.2381e-002
4492	9.9789	0.72727	0.1	-2.6275e-002
4493	9.7944	0.72727	0.1	-3.1188e-002
4494	9.6099	0.72727	0.1	-3.7632e-002
4495	9.4254	0.72727	0.1	-4.6348e-002
4496	9.2409	0.72727	0.1	-5.867e-002
4497	9.0564	0.72727	0.1	-7.7089e-002
4498	8.8719	0.72727	0.1	-0.10675
4499	8.6875	0.72727	0.1	-0.15984
4500	8.503	0.72727	0.1	-0.27233
4501	8.3185	0.72727	0.1	-0.60262
4502	8.134	0.72727	0.1	-2.5638
4503	7.9495	0.72727	0.1	-10.544
4504	7.765	0.72727	0.1	-22.197
4505	7.5805	0.72727	0.1	-36.401
4506	7.396	0.72727	0.1	-53.137
4507	7.2116	0.72727	0.1	-72.46
4508	7.0271	0.72727	0.1	-94.418
4509	6.8426	0.72727	0.1	-119.1
4510	6.6581	0.72727	0.1	-146.79
4511	6.4736	0.72727	0.1	-178.44
4512	6.2891	0.72727	0.1	-216.61
4513	6.1046	0.72727	0.1	-267.67
4514	5.9201	0.72727	0.1	-345.58
4515	5.7356	0.72727	0.1	-482.44
4516	5.5512	0.72727	0.1	-782.07
4517	23.816	0.90909	0.1	-109.19
4518	23.631	0.90909	0.1	-99.434
4519	23.447	0.90909	0.1	-90.94
4520	23.262	0.90909	0.1	-83.687
4521	23.078	0.90909	0.1	-77.45
4522	22.893	0.90909	0.1	-72.064
4523	22.709	0.90909	0.1	-67.364
4524	22.524	0.90909	0.1	-63.216
4525	22.34	0.90909	0.1	-59.517
4526	22.155	0.90909	0.1	-56.186
4527	21.971	0.90909	0.1	-53.161
4528	21.786	0.90909	0.1	-50.395
4529	21.602	0.90909	0.1	-47.851
4530	21.417	0.90909	0.1	-45.501
4531	21.233	0.90909	0.1	-43.321
4532	21.048	0.90909	0.1	-41.292
4533	20.864	0.90909	0.1	-39.399
4534	20.679	0.90909	0.1	-37.628
4535	20.495	0.90909	0.1	-35.969
4536	20.31	0.90909	0.1	-34.412
4537	20.126	0.90909	0.1	-32.948
4538	19.941	0.90909	0.1	-31.57
4539	19.757	0.90909	0.1	-30.271
4540	19.572	0.90909	0.1	-29.044
4541	19.388	0.90909	0.1	-27.883
4542	19.203	0.90909	0.1	-26.784
4543	19.019	0.90909	0.1	-25.741
4544	18.834	0.90909	0.1	-24.748
4545	18.65	0.90909	0.1	-23.803
4546	18.465	0.90909	0.1	-22.9
4547	18.281	0.90909	0.1	-22.034
4548	18.096	0.90909	0.1	-21.203
4549	17.912	0.90909	0.1	-20.402
4550	17.727	0.90909	0.1	-19.628
4551	17.543	0.90909	0.1	-18.876
4552	17.358	0.90909	0.1	-18.144
4553	17.174	0.90909	0.1	-17.427
4554	16.989	0.90909	0.1	-16.722
4555	16.805	0.90909	0.1	-16.026
4556	16.62	0.90909	0.1	-15.336
4557	16.436	0.90909	0.1	-14.647
4558	16.251	0.90909	0.1	-13.957
4559	16.067	0.90909	0.1	-13.262
4560	15.883	0.90909	0.1	-12.558
4561	15.698	0.90909	0.1	-11.843
4562	15.514	0.90909	0.1	-11.111
4563	15.329	0.90909	0.1	-10.36
4564	15.145	0.90909	0.1	-9.5864
4565	14.96	0.90909	0.1	-8.7849
4566	14.776	0.90909	0.1	-7.9524
4567	14.591	0.90909	0.1	-7.0844
4568	14.407	0.90909	0.1	-6.1767
4569	14.222	0.90909	0.1	-5.2252
4570	14.038	0.90909	0.1	-4.2252
4571	13.853	0.90909	0.1	-3.1728
4572	13.669	0.90909	0.1	-2.0641
4573	13.484	0.90909	0.1	-0.90173
4574	13.3	0.90909	0.1	-4.7926e-002
4575	13.115	0.90909	0.1	-1.3353e-002
4576	12.931	0.90909	0.1	-8.63e-003
4577	12.746	0.90909	0.1	-6.9614e-003
4578	12.562	0.90909	0.1	-6.29e-003
4579	12.377	0.90909	0.1	-6.0616e-003
4580	12.193	0.90909	0.1	-6.0955e-003
4581	12.008	0.90909	0.1	-6.313e-003
4582	11.824	0.90909	0.1	-6.7256e-003
4583	11.639	0.90909	0.1	-7.2775e-003
4584	11.455	0.90909	0.1	-8.0126e-003
4585	11.27	0.90909	0.1	-8.8994e-003
4586	11.086	0.90909	0.1	-9.9607e-003
4587	10.901	0.90909	0.1	-1.1304e-002
4588	10.717	0.90909	0.1	-1.2936e-002
4589	10.532	0.90909	0.1	-1.4938e-002
4590	10.348	0.90909	0.1	-1.7402e-002
4591	10.163	0.90909	0.1	-2.0543e-002
4592	9.9789	0.90909	0.1	-2.4492e-002
4593	9.7944	0.90909	0.1	-2.9532e-002
4594	9.6099	0.90909	0.1	-3.6154e-002
4595	9.4254	0.90909	0.1	-4.5019e-002
4596	9.2409	0.90909	0.1	-5.7224e-002
4597	9.0564	0.90909	0.1	-7.4588e-002
4598	8.8719	0.90909	0.1	-0.10034
4599	8.6875	0.90909	0.1	-0.14066
4600	8.503	0.90909	0.1	-0.20835
4601	8.3185	0.90909	0.1	-0.33462
4602	8.134	0.90909	0.1	-0.61366
4603	7.9495	0.90909	0.1	-1.4662
4604	7.765	0.90909	0.1	-5.6545
4605	7.5805	0.90909	0.1	-17.37
4606	7.396	0.90909	0.1	-33.773
4607	7.2116	0.90909	0.1	-54.035
4608	7.0271	0.90909	0.1	-78.663
4609	6.8426	0.90909	0.1	-108.77
4610	6.6581	0.90909	0.1	-146.35
4611	6.4736	0.90909	0.1	-194.88
4612	6.2891	0.90909	0.1	-260.49
4613	6.1046	0.90909	0.1	-353.76
4614	5.9201	0.90909	0.1	-491.5
4615	5.7356	0.90909	0.1	-703.7
4616	5.5512	0.90909	0.1	-1099.1
4617	23.816	1.0909	0.1	-121.87
4618	23.631	1.0909	0.1	-111.86
4619	23.447	1.0909	0.1	-102.85
4620	23.262	1.0909	0.1	-94.885
4621	23.078	1.0909	0.1	-87.839
4622	22.893	1.0909	0.1	-81.612
4623	22.709	1.0909	0.1	-76.086
4624	22.524	1.0909	0.1	-71.153
4625	22.34	1.0909	0.1	-66.722
4626	22.155	1.0909	0.1	-62.717
4627	21.971	1.0909	0.1	-59.075
4628	21.786	1.0909	0.1	-55.746
4629	21.602	1.0909	0.1	-52.69
4630	21.417	1.0909	0.1	-49.872
4631	21.233	1.0909	0.1	-47.267
4632	21.048	1.0909	0.1	-44.85
4633	20.864	1.0909	0.1	-42.604
4634	20.679	1.0909	0.1	-40.511
4635	20.495	1.0909	0.1	-38.558
4636	20.31	1.0909	0.1	-36.731
4637	20.126	1.0909	0.1	-35.021
4638	19.941	1.0909	0.1	-33.418
4639	19.757	1.0909	0.1	-31.911
4640	19.572	1.0909	0.1	-30.495
4641	19.388	1.0909	0.1	-29.16
4642	19.203	1.0909	0.1	-27.899
4643	19.019	1.0909	0.1	-26.708
4644	18.834	1.0909	0.1	-25.578
4645	18.65	1.0909	0.1	-24.506
4646	18.465	1.0909	0.1	-23.484
4647	18.281	1.0909	0.1	-22.509
4648	18.096	1.0909	0.1	-21.574
4649	17.912	1.0909	0.1	-20.676
4650	17.727	1.0909	0.1	-19.809
4651	17.543	1.0909	0.1	-18.97
4652	17.358	1.0909	0.1	-18.153
4653	17.174	1.0909	0.1	-17.355
4654	16.989	1.0909	0.1	-16.572
4655	16.805	1.0909	0.1	-15.799
4656	16.62	1.0909	0.1	-15.032
4657	16.436	1.0909	0.1	-14.268
4658	16.251	1.0909	0.1	-13.502
4659	16.067	1.0909	0.1	-12.73
4660	15.883	1.0909	0.1	-11.948
4661	15.698	1.0909	0.1	-11.151
4662	15.514	1.0909	0.1	-10.336
4663	15.329	1.0909	0.1	-9.4977
4664	15.145	1.0909	0.1	-8.6322
4665	14.96	1.0909	0.1	-7.7345
4666	14.776	1.0909	0.1	-6.7999
4667	14.591	1.0909	0.1	-5.8235
4668	14.407	1.0909	0.1	-4.8003
4669	14.222	1.0909	0.1	-3.7254
4670	14.038	1.0909	0.1	-2.594
4671	13.853	1.0909	0.1	-1.404
4672	13.669	1.0909	0.1	-0.22327
4673	13.484	1.0909	0.1	-2.0707e-002
4674	13.3	1.0909	0.1	-1.1205e-002
4675	13.115	1.0909	0.1	-8.3372e-003
4676	12.931	1.0909	0.1	-7.0424e-003
4677	12.746	1.0909	0.1	-6.3683e-003
4678	12.562	1.0909	0.1	-6.0661e-003
4679	12.377	1.0909	0.1	-5.9714e-003
4680	12.193	1.0909	0.1	-6.0324e-003
4681	12.008	1.0909	0.1	-6.2201e-003
4682	11.824	1.0909	0.1	-6.5691e-003
4683	11.639	1.0909	0.1	-7.0349e-003
4684	11.455	1.0909	0.1	-7.67e-003
4685	11.27	1.0909	0.1	-8.4477e-003
4686	11.086	1.0909	0.1	-9.3944e-003
4687	10.901	1.0909	0.1	-1.062e-002
4688	10.717	1.0909	0.1	-1.2135e-002
4689	10.532	1.0909	0.1	-1.4023e-002
4690	10.348	1.0909	0.1	-1.638e-002
4691	10.163	1.0909	0.1	-1.942e-002
4692	9.9789	1.0909	0.1	-2.3271e-002
4693	9.7944	1.0909	0.1	-2.8202e-002
4694	9.6099	1.0909	0.1	-3.4667e-002
4695	9.4254	1.0909	0.1	-4.3242e-002
4696	9.2409	1.0909	0.1	-5.4831e-002
4697	9.0564	1.0909	0.1	-7.082e-002
4698	8.8719	1.0909	0.1	-9.3441e-002
4699	8.6875	1.0909	0.1	-0.12643
4700	8.503	1.0909	0.1	-0.17634
4701	8.3185	1.0909	0.1	-0.2555
4702	8.134	1.0909	0.1	-0.38924
4703	7.9495	1.0909	0.1	-0.63698
4704	7.765	1.0909	0.1	-1.1696
4705	7.5805	1.0909	0.1	-2.6669
4706	7.396	1.0909	0.1	-8.6299
4707	7.2116	1.0909	0.1	-24.865
4708	7.0271	1.0909	0.1	-49.794
4709	6.8426	1.0909	0.1	-83.822
4710	6.6581	1.0909	0.1	-130.58
4711	6.4736	1.0909	0.1	-196.66
4712	6.2891	1.0909	0.1	-292.68
4713	6.1046	1.0909	0.1	-434.82
4714	5.9201	1.0909	0.1	-644.28
4715	5.7356	1.0909	0.1	-950.19
4716	5.5512	1.0909	0.1	-1471.1
4717	23.816	1.2727	0.1	-132.87
4718	23.631	1.2727	0.1	-122.72
4719	23.447	1.2727	0.1	-113.35
4720	23.262	1.2727	0.1	-104.9
4721	23.078	1.2727	0.1	-97.265
4722	22.893	1.2727	0.1	-90.389
4723	22.709	1.2727	0.1	-84.196
4724	22.524	1.2727	0.1	-78.605
4725	22.34	1.2727	0.1	-73.542
4726	22.155	1.2727	0.1	-68.94
4727	21.971	1.2727	0.1	-64.74
4728	21.786	1.2727	0.1	-60.894
4729	21.602	1.2727	0.1	-57.361
4730	21.417	1.2727	0.1	-54.105
4731	21.233	1.2727	0.1	-51.097
4732	21.048	1.2727	0.1	-48.312
4733	20.864	1.2727	0.1	-45.727
4734	20.679	1.2727	0.1	-43.325
4735	20.495	1.2727	0.1	-41.088
4736	20.31	1.2727	0.1	-39.003
4737	20.126	1.2727	0.1	-37.055
4738	19.941	1.2727	0.1	-35.233
4739	19.757	1.2727	0.1	-33.527
4740	19.572	1.2727	0.1	-31.926
4741	19.388	1.2727	0.1	-30.422
4742	19.203	1.2727	0.1	-29.007
4743	19.019	1.2727	0.1	-27.672
4744	18.834	1.2727	0.1	-26.41
4745	18.65	1.2727	0.1	-25.214
4746	18.465	1.2727	0.1	-24.078
4747	18.281	1.2727	0.1	-22.996
4748	18.096	1.2727	0.1	-21.961
4749	17.912	1.2727	0.1	-20.969
4750	17.727	1.2727	0.1	-20.014
4751	17.543	1.2727	0.1	-19.09
4752	17.358	1.2727	0.1	-18.193
4753	17.174	1.2727	0.1	-17.317
4754	16.989	1.2727	0.1	-16.459
4755	16.805	1.2727	0.1	-15.612
4756	16.62	1.2727	0.1	-14.772
4757	16.436	1.2727	0.1	-13.936
4758	16.251	1.2727	0.1	-13.097
4759	16.067	1.2727	0.1	-12.251
4760	15.883	1.2727	0.1	-11.394
4761	15.698	1.2727	0.1	-10.521
4762	15.514	1.2727	0.1	-9.6266
4763	15.329	1.2727	0.1	-8.7058
4764	15.145	1.2727	0.1	-7.7535
4765	14.96	1.2727	0.1	-6.7645
4766	14.776	1.2727	0.1	-5.7333
4767	14.591	1.2727	0.1	-4.6542
4768	14.407	1.2727	0.1	-3.5216
4769	14.222	1.2727	0.1	-2.3307
4770	14.038	1.2727	0.1	-1.0813
4771	13.853	1.2727	0.1	-7.0661e-002
4772	13.669	1.2727	0.1	-1.6879e-002
4773	13.484	1.2727	0.1	-1.0581e-002
4774	13.3	1.2727	0.1	-8.2439e-003
4775	13.115	1.2727	0.1	-7.0971e-003
4776	12.931	1.2727	0.1	-6.4406e-003
4777	12.746	1.2727	0.1	-6.0385e-003
4778	12.562	1.2727	0.1	-5.8488e-003
4779	12.377	1.2727	0.1	-5.7841e-003
4780	12.193	1.2727	0.1	-5.8249e-003
4781	12.008	1.2727	0.1	-5.9607e-003
4782	11.824	1.2727	0.1	-6.2345e-003
4783	11.639	1.2727	0.1	-6.6046e-003
4784	11.455	1.2727	0.1	-7.1315e-003
4785	11.27	1.2727	0.1	-7.7859e-003
4786	11.086	1.2727	0.1	-8.598e-003
4787	10.901	1.2727	0.1	-9.6767e-003
4788	10.717	1.2727	0.1	-1.1035e-002
4789	10.532	1.2727	0.1	-1.2752e-002
4790	10.348	1.2727	0.1	-1.4923e-002
4791	10.163	1.2727	0.1	-1.7758e-002
4792	9.9789	1.2727	0.1	-2.1372e-002
4793	9.7944	1.2727	0.1	-2.6014e-002
4794	9.6099	1.2727	0.1	-3.2096e-002
4795	9.4254	1.2727	0.1	-4.0115e-002
4796	9.2409	1.2727	0.1	-5.0817e-002
4797	9.0564	1.2727	0.1	-6.529e-002
4798	8.8719	1.2727	0.1	-8.5165e-002
4799	8.6875	1.2727	0.1	-0.11296
4800	8.503	1.2727	0.1	-0.15265
4801	8.3185	1.2727	0.1	-0.21075
4802	8.134	1.2727	0.1	-0.29853
4803	7.9495	1.2727	0.1	-0.43664
4804	7.765	1.2727	0.1	-0.66666
4805	7.5805	1.2727	0.1	-1.0845
4806	7.396	1.2727	0.1	-1.9643
4807	7.2116	1.2727	0.1	-4.4137
4808	7.0271	1.2727	0.1	-14.565
4809	6.8426	1.2727	0.1	-44.631
4810	6.6581	1.2727	0.1	-96.114
4811	6.4736	1.2727	0.1	-175.8
4812	6.2891	1.2727	0.1	-299.18
4813	6.1046	1.2727	0.1	-490.44
4814	5.9201	1.2727	0.1	-781.49
4815	5.7356	1.2727	0.1	-1215.2
4816	5.5512	1.2727	0.1	-1922.
4817	23.816	1.4545	0.1	-142.4
4818	23.631	1.4545	0.1	-132.16
4819	23.447	1.4545	0.1	-122.56
4820	23.262	1.4545	0.1	-113.76
4821	23.078	1.4545	0.1	-105.68
4822	22.893	1.4545	0.1	-98.308
4823	22.709	1.4545	0.1	-91.584
4824	22.524	1.4545	0.1	-85.453
4825	22.34	1.4545	0.1	-79.855
4826	22.155	1.4545	0.1	-74.737
4827	21.971	1.4545	0.1	-70.046
4828	21.786	1.4545	0.1	-65.737
4829	21.602	1.4545	0.1	-61.772
4830	21.417	1.4545	0.1	-58.114
4831	21.233	1.4545	0.1	-54.735
4832	21.048	1.4545	0.1	-51.607
4833	20.864	1.4545	0.1	-48.707
4834	20.679	1.4545	0.1	-46.014
4835	20.495	1.4545	0.1	-43.511
4836	20.31	1.4545	0.1	-41.18
4837	20.126	1.4545	0.1	-39.007
4838	19.941	1.4545	0.1	-36.979
4839	19.757	1.4545	0.1	-35.083
4840	19.572	1.4545	0.1	-33.308
4841	19.388	1.4545	0.1	-31.644
4842	19.203	1.4545	0.1	-30.081
4843	19.019	1.4545	0.1	-28.609
4844	18.834	1.4545	0.1	-27.221
4845	18.65	1.4545	0.1	-25.909
4846	18.465	1.4545	0.1	-24.664
4847	18.281	1.4545	0.1	-23.481
4848	18.096	1.4545	0.1	-22.352
4849	17.912	1.4545	0.1	-21.271
4850	17.727	1.4545	0.1	-20.232
4851	17.543	1.4545	0.1	-19.228
4852	17.358	1.4545	0.1	-18.255
4853	17.174	1.4545	0.1	-17.306
4854	16.989	1.4545	0.1	-16.376
4855	16.805	1.4545	0.1	-15.46
4856	16.62	1.4545	0.1	-14.552
4857	16.436	1.4545	0.1	-13.647
4858	16.251	1.4545	0.1	-12.74
4859	16.067	1.4545	0.1	-11.826
4860	15.883	1.4545	0.1	-10.899
4861	15.698	1.4545	0.1	-9.9535
4862	15.514	1.4545	0.1	-8.9847
4863	15.329	1.4545	0.1	-7.9864
4864	15.145	1.4545	0.1	-6.9531
4865	14.96	1.4545	0.1	-5.8787
4866	14.776	1.4545	0.1	-4.7571
4867	14.591	1.4545	0.1	-3.5821
4868	14.407	1.4545	0.1	-2.348
4869	14.222	1.4545	0.1	-1.0546
4870	14.038	1.4545	0.1	-5.8213e-002
4871	13.853	1.4545	0.1	-1.5965e-002
4872	13.669	1.4545	0.1	-1.0422e-002
4873	13.484	1.4545	0.1	-8.3009e-003
4874	13.3	1.4545	0.1	-7.1848e-003
4875	13.115	1.4545	0.1	-6.538e-003
4876	12.931	1.4545	0.1	-6.113e-003
4877	12.746	1.4545	0.1	-5.8182e-003
4878	12.562	1.4545	0.1	-5.6655e-003
4879	12.377	1.4545	0.1	-5.596e-003
4880	12.193	1.4545	0.1	-5.6011e-003
4881	12.008	1.4545	0.1	-5.6782e-003
4882	11.824	1.4545	0.1	-5.8728e-003
4883	11.639	1.4545	0.1	-6.1496e-003
4884	11.455	1.4545	0.1	-6.5635e-003
4885	11.27	1.4545	0.1	-7.0892e-003
4886	11.086	1.4545	0.1	-7.7528e-003
4887	10.901	1.4545	0.1	-8.6639e-003
4888	10.717	1.4545	0.1	-9.8293e-003
4889	10.532	1.4545	0.1	-1.1329e-002
4890	10.348	1.4545	0.1	-1.3246e-002
4891	10.163	1.4545	0.1	-1.5782e-002
4892	9.9789	1.4545	0.1	-1.9037e-002
4893	9.7944	1.4545	0.1	-2.3232e-002
4894	9.6099	1.4545	0.1	-2.8736e-002
4895	9.4254	1.4545	0.1	-3.5969e-002
4896	9.2409	1.4545	0.1	-4.5551e-002
4897	9.0564	1.4545	0.1	-5.8346e-002
4898	8.8719	1.4545	0.1	-7.5591e-002
4899	8.6875	1.4545	0.1	-9.9096e-002
4900	8.503	1.4545	0.1	-0.13152
4901	8.3185	1.4545	0.1	-0.1769
4902	8.134	1.4545	0.1	-0.24156
4903	7.9495	1.4545	0.1	-0.33579
4904	7.765	1.4545	0.1	-0.47731
4905	7.5805	1.4545	0.1	-0.69939
4906	7.396	1.4545	0.1	-1.0723
4907	7.2116	1.4545	0.1	-1.7756
4908	7.0271	1.4545	0.1	-3.4278
4909	6.8426	1.4545	0.1	-9.6982
4910	6.6581	1.4545	0.1	-43.974
4911	6.4736	1.4545	0.1	-125.95
4912	6.2891	1.4545	0.1	-264.89
4913	6.1046	1.4545	0.1	-493.87
4914	5.9201	1.4545	0.1	-867.5
4915	5.7356	1.4545	0.1	-1459.6
4916	5.5512	1.4545	0.1	-2470.
4917	23.816	1.6364	0.1	-150.61
4918	23.631	1.6364	0.1	-140.31
4919	23.447	1.6364	0.1	-130.54
4920	23.262	1.6364	0.1	-121.48
4921	23.078	1.6364	0.1	-113.08
4922	22.893	1.6364	0.1	-105.33
4923	22.709	1.6364	0.1	-98.187
4924	22.524	1.6364	0.1	-91.618
4925	22.34	1.6364	0.1	-85.578
4926	22.155	1.6364	0.1	-80.022
4927	21.971	1.6364	0.1	-74.907
4928	21.786	1.6364	0.1	-70.194
4929	21.602	1.6364	0.1	-65.846
4930	21.417	1.6364	0.1	-61.829
4931	21.233	1.6364	0.1	-58.114
4932	21.048	1.6364	0.1	-54.675
4933	20.864	1.6364	0.1	-51.486
4934	20.679	1.6364	0.1	-48.527
4935	20.495	1.6364	0.1	-45.778
4936	20.31	1.6364	0.1	-43.221
4937	20.126	1.6364	0.1	-40.84
4938	19.941	1.6364	0.1	-38.621
4939	19.757	1.6364	0.1	-36.549
4940	19.572	1.6364	0.1	-34.612
4941	19.388	1.6364	0.1	-32.798
4942	19.203	1.6364	0.1	-31.097
4943	19.019	1.6364	0.1	-29.499
4944	18.834	1.6364	0.1	-27.994
4945	18.65	1.6364	0.1	-26.573
4946	18.465	1.6364	0.1	-25.227
4947	18.281	1.6364	0.1	-23.95
4948	18.096	1.6364	0.1	-22.733
4949	17.912	1.6364	0.1	-21.569
4950	17.727	1.6364	0.1	-20.452
4951	17.543	1.6364	0.1	-19.375
4952	17.358	1.6364	0.1	-18.33
4953	17.174	1.6364	0.1	-17.313
4954	16.989	1.6364	0.1	-16.318
4955	16.805	1.6364	0.1	-15.337
4956	16.62	1.6364	0.1	-14.366
4957	16.436	1.6364	0.1	-13.399
4958	16.251	1.6364	0.1	-12.429
4959	16.067	1.6364	0.1	-11.451
4960	15.883	1.6364	0.1	-10.46
4961	15.698	1.6364	0.1	-9.4482
4962	15.514	1.6364	0.1	-8.411
4963	15.329	1.6364	0.1	-7.3416
4964	15.145	1.6364	0.1	-6.2337
4965	14.96	1.6364	0.1	-5.0807
4966	14.776	1.6364	0.1	-3.876
4967	14.591	1.6364	0.1	-2.6131
4968	14.407	1.6364	0.1	-1.2883
4969	14.222	1.6364	0.1	-9.0555e-002
4970	14.038	1.6364	0.1	-1.6366e-002
4971	13.853	1.6364	0.1	-1.0538e-002
4972	13.669	1.6364	0.1	-8.4103e-003
4973	13.484	1.6364	0.1	-7.32e-003
4974	13.3	1.6364	0.1	-6.6394e-003
4975	13.115	1.6364	0.1	-6.2024e-003
4976	12.931	1.6364	0.1	-5.8798e-003
4977	12.746	1.6364	0.1	-5.6264e-003
4978	12.562	1.6364	0.1	-5.4768e-003
4979	12.377	1.6364	0.1	-5.3819e-003
4980	12.193	1.6364	0.1	-5.3411e-003
4981	12.008	1.6364	0.1	-5.3523e-003
4982	11.824	1.6364	0.1	-5.4646e-003
4983	11.639	1.6364	0.1	-5.6393e-003
4984	11.455	1.6364	0.1	-5.9342e-003
4985	11.27	1.6364	0.1	-6.319e-003
4986	11.086	1.6364	0.1	-6.8201e-003
4987	10.901	1.6364	0.1	-7.5408e-003
4988	10.717	1.6364	0.1	-8.4859e-003
4989	10.532	1.6364	0.1	-9.7244e-003
4990	10.348	1.6364	0.1	-1.1335e-002
4991	10.163	1.6364	0.1	-1.3502e-002
4992	9.9789	1.6364	0.1	-1.6307e-002
4993	9.7944	1.6364	0.1	-1.9943e-002
4994	9.6099	1.6364	0.1	-2.4735e-002
4995	9.4254	1.6364	0.1	-3.1036e-002
4996	9.2409	1.6364	0.1	-3.9359e-002
4997	9.0564	1.6364	0.1	-5.04e-002
4998	8.8719	1.6364	0.1	-6.5119e-002
4999	8.6875	1.6364	0.1	-8.4872e-002
5000	8.503	1.6364	0.1	-0.11156
5001	8.3185	1.6364	0.1	-0.14791
5002	8.134	1.6364	0.1	-0.19796
5003	7.9495	1.6364	0.1	-0.26781
5004	7.765	1.6364	0.1	-0.36708
5005	7.5805	1.6364	0.1	-0.51203
5006	7.396	1.6364	0.1	-0.73236
5007	7.2116	1.6364	0.1	-1.0906
5008	7.0271	1.6364	0.1	-1.7402
5009	6.8426	1.6364	0.1	-3.2089
5010	6.6581	1.6364	0.1	-8.5439
5011	6.4736	1.6364	0.1	-51.085
5012	6.2891	1.6364	0.1	-181.21
5013	6.1046	1.6364	0.1	-418.08
5014	5.9201	1.6364	0.1	-831.89
5015	5.7356	1.6364	0.1	-1607.
5016	5.5512	1.6364	0.1	-3245.1
5017	23.816	1.8182	0.1	-157.61
5018	23.631	1.8182	0.1	-147.27
5019	23.447	1.8182	0.1	-137.38
5020	23.262	1.8182	0.1	-128.14
5021	23.078	1.8182	0.1	-119.49
5022	22.893	1.8182	0.1	-111.44
5023	22.709	1.8182	0.1	-103.97
5024	22.524	1.8182	0.1	-97.053
5025	22.34	1.8182	0.1	-90.651
5026	22.155	1.8182	0.1	-84.732
5027	21.971	1.8182	0.1	-79.26
5028	21.786	1.8182	0.1	-74.2
5029	21.602	1.8182	0.1	-69.52
5030	21.417	1.8182	0.1	-65.189
5031	21.233	1.8182	0.1	-61.179
5032	21.048	1.8182	0.1	-57.463
5033	20.864	1.8182	0.1	-54.017
5034	20.679	1.8182	0.1	-50.82
5035	20.495	1.8182	0.1	-47.85
5036	20.31	1.8182	0.1	-45.089
5037	20.126	1.8182	0.1	-42.52
5038	19.941	1.8182	0.1	-40.126
5039	19.757	1.8182	0.1	-37.895
5040	19.572	1.8182	0.1	-35.811
5041	19.388	1.8182	0.1	-33.862
5042	19.203	1.8182	0.1	-32.036
5043	19.019	1.8182	0.1	-30.322
5044	18.834	1.8182	0.1	-28.71
5045	18.65	1.8182	0.1	-27.19
5046	18.465	1.8182	0.1	-25.753
5047	18.281	1.8182	0.1	-24.39
5048	18.096	1.8182	0.1	-23.093
5049	17.912	1.8182	0.1	-21.854
5050	17.727	1.8182	0.1	-20.666
5051	17.543	1.8182	0.1	-19.521
5052	17.358	1.8182	0.1	-18.413
5053	17.174	1.8182	0.1	-17.334
5054	16.989	1.8182	0.1	-16.279
5055	16.805	1.8182	0.1	-15.24
5056	16.62	1.8182	0.1	-14.212
5057	16.436	1.8182	0.1	-13.188
5058	16.251	1.8182	0.1	-12.161
5059	16.067	1.8182	0.1	-11.126
5060	15.883	1.8182	0.1	-10.077
5061	15.698	1.8182	0.1	-9.0054
5062	15.514	1.8182	0.1	-7.9065
5063	15.329	1.8182	0.1	-6.7729
5064	15.145	1.8182	0.1	-5.5978
5065	14.96	1.8182	0.1	-4.3739
5066	14.776	1.8182	0.1	-3.0944
5067	14.591	1.8182	0.1	-1.7527
5068	14.407	1.8182	0.1	-0.36887
5069	14.222	1.8182	0.1	-1.8547e-002
5070	14.038	1.8182	0.1	-1.0869e-002
5071	13.853	1.8182	0.1	-8.5966e-003
5072	13.669	1.8182	0.1	-7.4608e-003
5073	13.484	1.8182	0.1	-6.7838e-003
5074	13.3	1.8182	0.1	-6.3052e-003
5075	13.115	1.8182	0.1	-5.9712e-003
5076	12.931	1.8182	0.1	-5.6941e-003
5077	12.746	1.8182	0.1	-5.4532e-003
5078	12.562	1.8182	0.1	-5.2898e-003
5079	12.377	1.8182	0.1	-5.1605e-003
5080	12.193	1.8182	0.1	-5.068e-003
5081	12.008	1.8182	0.1	-5.0103e-003
5082	11.824	1.8182	0.1	-5.0377e-003
5083	11.639	1.8182	0.1	-5.1098e-003
5084	11.455	1.8182	0.1	-5.2813e-003
5085	11.27	1.8182	0.1	-5.5218e-003
5086	11.086	1.8182	0.1	-5.8516e-003
5087	10.901	1.8182	0.1	-6.3704e-003
5088	10.717	1.8182	0.1	-7.0762e-003
5089	10.532	1.8182	0.1	-8.0305e-003
5090	10.348	1.8182	0.1	-9.299e-003
5091	10.163	1.8182	0.1	-1.1054e-002
5092	9.9789	1.8182	0.1	-1.3356e-002
5093	9.7944	1.8182	0.1	-1.6367e-002
5094	9.6099	1.8182	0.1	-2.0372e-002
5095	9.4254	1.8182	0.1	-2.5667e-002
5096	9.2409	1.8182	0.1	-3.2675e-002
5097	9.0564	1.8182	0.1	-4.196e-002
5098	8.8719	1.8182	0.1	-5.4285e-002
5099	8.6875	1.8182	0.1	-7.0696e-002
5100	8.503	1.8182	0.1	-9.2606e-002
5101	8.3185	1.8182	0.1	-0.12199
5102	8.134	1.8182	0.1	-0.1616
5103	7.9495	1.8182	0.1	-0.21542
5104	7.765	1.8182	0.1	-0.28932
5105	7.5805	1.8182	0.1	-0.3925
5106	7.396	1.8182	0.1	-0.5401
5107	7.2116	1.8182	0.1	-0.76112
5108	7.0271	1.8182	0.1	-1.1118
5109	6.8426	1.8182	0.1	-1.7525
5110	6.6581	1.8182	0.1	-3.1498
5111	6.4736	1.8182	0.1	-8.5216
5112	6.2891	1.8182	0.1	-64.125
5113	6.1046	1.8182	0.1	-259.19
5114	5.9201	1.8182	0.1	-625.11
5115	5.7356	1.8182	0.1	-1475.2
5116	5.5512	1.8182	0.1	-3620.7
5117	23.816	2.	0.1	-163.49
5118	23.631	2.	0.1	-153.12
5119	23.447	2.	0.1	-143.13
5120	23.262	2.	0.1	-133.75
5121	23.078	2.	0.1	-124.92
5122	22.893	2.	0.1	-116.65
5123	22.709	2.	0.1	-108.93
5124	22.524	2.	0.1	-101.73
5125	22.34	2.	0.1	-95.039
5126	22.155	2.	0.1	-88.823
5127	21.971	2.	0.1	-83.055
5128	21.786	2.	0.1	-77.706
5129	21.602	2.	0.1	-72.746
5130	21.417	2.	0.1	-68.147
5131	21.233	2.	0.1	-63.883
5132	21.048	2.	0.1	-59.928
5133	20.864	2.	0.1	-56.259
5134	20.679	2.	0.1	-52.853
5135	20.495	2.	0.1	-49.69
5136	20.31	2.	0.1	-46.75
5137	20.126	2.	0.1	-44.015
5138	19.941	2.	0.1	-41.469
5139	19.757	2.	0.1	-39.096
5140	19.572	2.	0.1	-36.882
5141	19.388	2.	0.1	-34.813
5142	19.203	2.	0.1	-32.877
5143	19.019	2.	0.1	-31.061
5144	18.834	2.	0.1	-29.354
5145	18.65	2.	0.1	-27.747
5146	18.465	2.	0.1	-26.228
5147	18.281	2.	0.1	-24.79
5148	18.096	2.	0.1	-23.422
5149	17.912	2.	0.1	-22.117
5150	17.727	2.	0.1	-20.866
5151	17.543	2.	0.1	-19.661
5152	17.358	2.	0.1	-18.496
5153	17.174	2.	0.1	-17.363
5154	16.989	2.	0.1	-16.255
5155	16.805	2.	0.1	-15.165
5156	16.62	2.	0.1	-14.086
5157	16.436	2.	0.1	-13.012
5158	16.251	2.	0.1	-11.935
5159	16.067	2.	0.1	-10.85
5160	15.883	2.	0.1	-9.7491
5161	15.698	2.	0.1	-8.6254
5162	15.514	2.	0.1	-7.4722
5163	15.329	2.	0.1	-6.2821
5164	15.145	2.	0.1	-5.0478
5165	14.96	2.	0.1	-3.7615
5166	14.776	2.	0.1	-2.416
5167	14.591	2.	0.1	-1.0068
5168	14.407	2.	0.1	-2.8848e-002
5169	14.222	2.	0.1	-1.1549e-002
5170	14.038	2.	0.1	-8.823e-003
5171	13.853	2.	0.1	-7.6381e-003
5172	13.669	2.	0.1	-6.9249e-003
5173	13.484	2.	0.1	-6.4521e-003
5174	13.3	2.	0.1	-6.0786e-003
5175	13.115	2.	0.1	-5.7961e-003
5176	12.931	2.	0.1	-5.5391e-003
5177	12.746	2.	0.1	-5.2925e-003
5178	12.562	2.	0.1	-5.1071e-003
5179	12.377	2.	0.1	-4.9396e-003
5180	12.193	2.	0.1	-4.7936e-003
5181	12.008	2.	0.1	-4.6688e-003
5182	11.824	2.	0.1	-4.6126e-003
5183	11.639	2.	0.1	-4.5835e-003
5184	11.455	2.	0.1	-4.634e-003
5185	11.27	2.	0.1	-4.7301e-003
5186	11.086	2.	0.1	-4.8893e-003
5187	10.901	2.	0.1	-5.2047e-003
5188	10.717	2.	0.1	-5.667e-003
5189	10.532	2.	0.1	-6.331e-003
5190	10.348	2.	0.1	-7.2486e-003
5191	10.163	2.	0.1	-8.5782e-003
5192	9.9789	2.	0.1	-1.036e-002
5193	9.7944	2.	0.1	-1.2729e-002
5194	9.6099	2.	0.1	-1.5933e-002
5195	9.4254	2.	0.1	-2.0217e-002
5196	9.2409	2.	0.1	-2.5934e-002
5197	9.0564	2.	0.1	-3.3545e-002
5198	8.8719	2.	0.1	-4.3667e-002
5199	8.6875	2.	0.1	-5.7134e-002
5200	8.503	2.	0.1	-7.5042e-002
5201	8.3185	2.	0.1	-9.8879e-002
5202	8.134	2.	0.1	-0.13067
5203	7.9495	2.	0.1	-0.17317
5204	7.765	2.	0.1	-0.23023
5205	7.5805	2.	0.1	-0.30753
5206	7.396	2.	0.1	-0.41325
5207	7.2116	2.	0.1	-0.56289
5208	7.0271	2.	0.1	-0.77631
5209	6.8426	2.	0.1	-1.1306
5210	6.6581	2.	0.1	-1.6696
5211	6.4736	2.	0.1	-3.2156
5212	6.2891	2.	0.1	-7.1561
5213	6.1046	2.	0.1	-78.833
5214	5.9201	2.	0.1	-332.34
5215	5.7356	2.	0.1	-842.21
5216	5.5512	2.	0.1	-2363.7
5217	23.816	2.1818	0.1	-168.3
5218	23.631	2.1818	0.1	-157.91
5219	23.447	2.1818	0.1	-147.86
5220	23.262	2.1818	0.1	-138.38
5221	23.078	2.1818	0.1	-129.41
5222	22.893	2.1818	0.1	-120.97
5223	22.709	2.1818	0.1	-113.05
5224	22.524	2.1818	0.1	-105.64
5225	22.34	2.1818	0.1	-98.716
5226	22.155	2.1818	0.1	-92.264
5227	21.971	2.1818	0.1	-86.258
5228	21.786	2.1818	0.1	-80.673
5229	21.602	2.1818	0.1	-75.484
5230	21.417	2.1818	0.1	-70.664
5231	21.233	2.1818	0.1	-66.189
5232	21.048	2.1818	0.1	-62.034
5233	20.864	2.1818	0.1	-58.177
5234	20.679	2.1818	0.1	-54.595
5235	20.495	2.1818	0.1	-51.268
5236	20.31	2.1818	0.1	-48.176
5237	20.126	2.1818	0.1	-45.301
5238	19.941	2.1818	0.1	-42.624
5239	19.757	2.1818	0.1	-40.131
5240	19.572	2.1818	0.1	-37.806
5241	19.388	2.1818	0.1	-35.635
5242	19.203	2.1818	0.1	-33.604
5243	19.019	2.1818	0.1	-31.7
5244	18.834	2.1818	0.1	-29.913
5245	18.65	2.1818	0.1	-28.23
5246	18.465	2.1818	0.1	-26.642
5247	18.281	2.1818	0.1	-25.139
5248	18.096	2.1818	0.1	-23.71
5249	17.912	2.1818	0.1	-22.348
5250	17.727	2.1818	0.1	-21.043
5251	17.543	2.1818	0.1	-19.788
5252	17.358	2.1818	0.1	-18.575
5253	17.174	2.1818	0.1	-17.395
5254	16.989	2.1818	0.1	-16.242
5255	16.805	2.1818	0.1	-15.108
5256	16.62	2.1818	0.1	-13.986
5257	16.436	2.1818	0.1	-12.869
5258	16.251	2.1818	0.1	-11.75
5259	16.067	2.1818	0.1	-10.621
5260	15.883	2.1818	0.1	-9.4768
5261	15.698	2.1818	0.1	-8.3083
5262	15.514	2.1818	0.1	-7.1089
5263	15.329	2.1818	0.1	-5.8706
5264	15.145	2.1818	0.1	-4.5858
5265	14.96	2.1818	0.1	-3.2463
5266	14.776	2.1818	0.1	-1.8445
5267	14.591	2.1818	0.1	-0.38584
5268	14.407	2.1818	0.1	-1.3365e-002
5269	14.222	2.1818	0.1	-9.1199e-003
5270	14.038	2.1818	0.1	-7.8055e-003
5271	13.853	2.1818	0.1	-7.0892e-003
5272	13.669	2.1818	0.1	-6.592e-003
5273	13.484	2.1818	0.1	-6.2291e-003
5274	13.3	2.1818	0.1	-5.9144e-003
5275	13.115	2.1818	0.1	-5.6578e-003
5276	12.931	2.1818	0.1	-5.4059e-003
5277	12.746	2.1818	0.1	-5.1479e-003
5278	12.562	2.1818	0.1	-4.9367e-003
5279	12.377	2.1818	0.1	-4.7317e-003
5280	12.193	2.1818	0.1	-4.5344e-003
5281	12.008	2.1818	0.1	-4.3459e-003
5282	11.824	2.1818	0.1	-4.2118e-003
5283	11.639	2.1818	0.1	-4.088e-003
5284	11.455	2.1818	0.1	-4.0265e-003
5285	11.27	2.1818	0.1	-3.9872e-003
5286	11.086	2.1818	0.1	-3.9843e-003
5287	10.901	2.1818	0.1	-4.107e-003
5288	10.717	2.1818	0.1	-4.3381e-003
5289	10.532	2.1818	0.1	-4.723e-003
5290	10.348	2.1818	0.1	-5.3043e-003
5291	10.163	2.1818	0.1	-6.2244e-003
5292	9.9789	2.1818	0.1	-7.5067e-003
5293	9.7944	2.1818	0.1	-9.2608e-003
5294	9.6099	2.1818	0.1	-1.1705e-002
5295	9.4254	2.1818	0.1	-1.504e-002
5296	9.2409	2.1818	0.1	-1.9562e-002
5297	9.0564	2.1818	0.1	-2.5658e-002
5298	8.8719	2.1818	0.1	-3.3838e-002
5299	8.6875	2.1818	0.1	-4.479e-002
5300	8.503	2.1818	0.1	-5.9408e-002
5301	8.3185	2.1818	0.1	-7.8888e-002
5302	8.134	2.1818	0.1	-0.10482
5303	7.9495	2.1818	0.1	-0.1393
5304	7.765	2.1818	0.1	-0.18512
5305	7.5805	2.1818	0.1	-0.24613
5306	7.396	2.1818	0.1	-0.32725
5307	7.2116	2.1818	0.1	-0.43733
5308	7.0271	2.1818	0.1	-0.5829
5309	6.8426	2.1818	0.1	-0.80593
5310	6.6581	2.1818	0.1	-1.058
5311	6.4736	2.1818	0.1	-1.8118
5312	6.2891	2.1818	0.1	-1.7776
5313	6.1046	2.1818	0.1	-8.9578
5314	5.9201	2.1818	0.1	-117.43
5315	5.7356	2.1818	0.1	-458.51
5316	5.5512	2.1818	0.1	-1032.6
5317	23.816	2.3636	0.1	-172.1
5318	23.631	2.3636	0.1	-161.7
5319	23.447	2.3636	0.1	-151.6
5320	23.262	2.3636	0.1	-142.04
5321	23.078	2.3636	0.1	-132.97
5322	22.893	2.3636	0.1	-124.41
5323	22.709	2.3636	0.1	-116.34
5324	22.524	2.3636	0.1	-108.76
5325	22.34	2.3636	0.1	-101.67
5326	22.155	2.3636	0.1	-95.035
5327	21.971	2.3636	0.1	-88.845
5328	21.786	2.3636	0.1	-83.076
5329	21.602	2.3636	0.1	-77.705
5330	21.417	2.3636	0.1	-72.71
5331	21.233	2.3636	0.1	-68.066
5332	21.048	2.3636	0.1	-63.752
5333	20.864	2.3636	0.1	-59.743
5334	20.679	2.3636	0.1	-56.02
5335	20.495	2.3636	0.1	-52.56
5336	20.31	2.3636	0.1	-49.345
5337	20.126	2.3636	0.1	-46.355
5338	19.941	2.3636	0.1	-43.573
5339	19.757	2.3636	0.1	-40.981
5340	19.572	2.3636	0.1	-38.566
5341	19.388	2.3636	0.1	-36.311
5342	19.203	2.3636	0.1	-34.202
5343	19.019	2.3636	0.1	-32.227
5344	18.834	2.3636	0.1	-30.374
5345	18.65	2.3636	0.1	-28.63
5346	18.465	2.3636	0.1	-26.985
5347	18.281	2.3636	0.1	-25.428
5348	18.096	2.3636	0.1	-23.95
5349	17.912	2.3636	0.1	-22.542
5350	17.727	2.3636	0.1	-21.193
5351	17.543	2.3636	0.1	-19.896
5352	17.358	2.3636	0.1	-18.643
5353	17.174	2.3636	0.1	-17.425
5354	16.989	2.3636	0.1	-16.235
5355	16.805	2.3636	0.1	-15.066
5356	16.62	2.3636	0.1	-13.909
5357	16.436	2.3636	0.1	-12.757
5358	16.251	2.3636	0.1	-11.603
5359	16.067	2.3636	0.1	-10.44
5360	15.883	2.3636	0.1	-9.2593
5361	15.698	2.3636	0.1	-8.0544
5362	15.514	2.3636	0.1	-6.8173
5363	15.329	2.3636	0.1	-5.5397
5364	15.145	2.3636	0.1	-4.2138
5365	14.96	2.3636	0.1	-2.8308
5366	14.776	2.3636	0.1	-1.3829
5367	14.591	2.3636	0.1	-3.6161e-002
5368	14.407	2.3636	0.1	-9.6449e-003
5369	14.222	2.3636	0.1	-7.9612e-003
5370	14.038	2.3636	0.1	-7.231e-003
5371	13.853	2.3636	0.1	-6.7538e-003
5372	13.669	2.3636	0.1	-6.3748e-003
5373	13.484	2.3636	0.1	-6.0762e-003
5374	13.3	2.3636	0.1	-5.7938e-003
5375	13.115	2.3636	0.1	-5.5501e-003
5376	12.931	2.3636	0.1	-5.2943e-003
5377	12.746	2.3636	0.1	-5.0236e-003
5378	12.562	2.3636	0.1	-4.7882e-003
5379	12.377	2.3636	0.1	-4.5474e-003
5380	12.193	2.3636	0.1	-4.3066e-003
5381	12.008	2.3636	0.1	-4.0624e-003
5382	11.824	2.3636	0.1	-3.859e-003
5383	11.639	2.3636	0.1	-3.6531e-003
5384	11.455	2.3636	0.1	-3.4917e-003
5385	11.27	2.3636	0.1	-3.3338e-003
5386	11.086	2.3636	0.1	-3.1886e-003
5387	10.901	2.3636	0.1	-3.14e-003
5388	10.717	2.3636	0.1	-3.1662e-003
5389	10.532	2.3636	0.1	-3.3023e-003
5390	10.348	2.3636	0.1	-3.5837e-003
5391	10.163	2.3636	0.1	-4.1393e-003
5392	9.9789	2.3636	0.1	-4.9768e-003
5393	9.7944	2.3636	0.1	-6.1863e-003
5394	9.6099	2.3636	0.1	-7.959e-003
5395	9.4254	2.3636	0.1	-1.0463e-002
5396	9.2409	2.3636	0.1	-1.3952e-002
5397	9.0564	2.3636	0.1	-1.8757e-002
5398	8.8719	2.3636	0.1	-2.5317e-002
5399	8.6875	2.3636	0.1	-3.4227e-002
5400	8.503	2.3636	0.1	-4.626e-002
5401	8.3185	2.3636	0.1	-6.2451e-002
5402	8.134	2.3636	0.1	-8.4179e-002
5403	7.9495	2.3636	0.1	-0.11324
5404	7.765	2.3636	0.1	-0.15202
5405	7.5805	2.3636	0.1	-0.20361
5406	7.396	2.3636	0.1	-0.27195
5407	7.2116	2.3636	0.1	-0.36262
5408	7.0271	2.3636	0.1	-0.48136
5409	6.8426	2.3636	0.1	-0.64193
5410	6.6581	2.3636	0.1	-0.84582
5411	6.4736	2.3636	0.1	-1.155
5412	6.2891	2.3636	0.1	-1.6052
5413	6.1046	2.3636	0.1	-1.5866
5414	5.9201	2.3636	0.1	-68.749
5415	5.7356	2.3636	0.1	-395.12
5416	5.5512	2.3636	0.1	-939.55
5417	23.816	2.5455	0.1	-174.92
5418	23.631	2.5455	0.1	-164.51
5419	23.447	2.5455	0.1	-154.38
5420	23.262	2.5455	0.1	-144.77
5421	23.078	2.5455	0.1	-135.62
5422	22.893	2.5455	0.1	-126.97
5423	22.709	2.5455	0.1	-118.8
5424	22.524	2.5455	0.1	-111.11
5425	22.34	2.5455	0.1	-103.89
5426	22.155	2.5455	0.1	-97.123
5427	21.971	2.5455	0.1	-90.798
5428	21.786	2.5455	0.1	-84.893
5429	21.602	2.5455	0.1	-79.388
5430	21.417	2.5455	0.1	-74.262
5431	21.233	2.5455	0.1	-69.493
5432	21.048	2.5455	0.1	-65.058
5433	20.864	2.5455	0.1	-60.937
5434	20.679	2.5455	0.1	-57.106
5435	20.495	2.5455	0.1	-53.546
5436	20.31	2.5455	0.1	-50.237
5437	20.126	2.5455	0.1	-47.16
5438	19.941	2.5455	0.1	-44.298
5439	19.757	2.5455	0.1	-41.632
5440	19.572	2.5455	0.1	-39.147
5441	19.388	2.5455	0.1	-36.828
5442	19.203	2.5455	0.1	-34.661
5443	19.019	2.5455	0.1	-32.632
5444	18.834	2.5455	0.1	-30.728
5445	18.65	2.5455	0.1	-28.937
5446	18.465	2.5455	0.1	-27.249
5447	18.281	2.5455	0.1	-25.652
5448	18.096	2.5455	0.1	-24.136
5449	17.912	2.5455	0.1	-22.692
5450	17.727	2.5455	0.1	-21.31
5451	17.543	2.5455	0.1	-19.981
5452	17.358	2.5455	0.1	-18.698
5453	17.174	2.5455	0.1	-17.451
5454	16.989	2.5455	0.1	-16.233
5455	16.805	2.5455	0.1	-15.036
5456	16.62	2.5455	0.1	-13.852
5457	16.436	2.5455	0.1	-12.674
5458	16.251	2.5455	0.1	-11.494
5459	16.067	2.5455	0.1	-10.304
5460	15.883	2.5455	0.1	-9.0964
5461	15.698	2.5455	0.1	-7.8638
5462	15.514	2.5455	0.1	-6.598
5463	15.329	2.5455	0.1	-5.2906
5464	15.145	2.5455	0.1	-3.9332
5465	14.96	2.5455	0.1	-2.517
5466	14.776	2.5455	0.1	-1.0338
5467	14.591	2.5455	0.1	-1.2236e-002
5468	14.407	2.5455	0.1	-8.1197e-003
5469	14.222	2.5455	0.1	-7.3389e-003
5470	14.038	2.5455	0.1	-6.8934e-003
5471	13.853	2.5455	0.1	-6.5462e-003
5472	13.669	2.5455	0.1	-6.2348e-003
5473	13.484	2.5455	0.1	-5.973e-003
5474	13.3	2.5455	0.1	-5.708e-003
5475	13.115	2.5455	0.1	-5.4696e-003
5476	12.931	2.5455	0.1	-5.2102e-003
5477	12.746	2.5455	0.1	-4.9256e-003
5478	12.562	2.5455	0.1	-4.6686e-003
5479	12.377	2.5455	0.1	-4.4011e-003
5480	12.193	2.5455	0.1	-4.1231e-003
5481	12.008	2.5455	0.1	-3.8341e-003
5482	11.824	2.5455	0.1	-3.5759e-003
5483	11.639	2.5455	0.1	-3.304e-003
5484	11.455	2.5455	0.1	-3.0627e-003
5485	11.27	2.5455	0.1	-2.8089e-003
5486	11.086	2.5455	0.1	-2.5484e-003
5487	10.901	2.5455	0.1	-2.3611e-003
5488	10.717	2.5455	0.1	-2.2202e-003
5489	10.532	2.5455	0.1	-2.1559e-003
5490	10.348	2.5455	0.1	-2.1927e-003
5491	10.163	2.5455	0.1	-2.4528e-003
5492	9.9789	2.5455	0.1	-2.9289e-003
5493	9.7944	2.5455	0.1	-3.6973e-003
5494	9.6099	2.5455	0.1	-4.9292e-003
5495	9.4254	2.5455	0.1	-6.768e-003
5496	9.2409	2.5455	0.1	-9.4377e-003
5497	9.0564	2.5455	0.1	-1.3231e-002
5498	8.8719	2.5455	0.1	-1.8541e-002
5499	8.6875	2.5455	0.1	-2.591e-002
5500	8.503	2.5455	0.1	-3.6048e-002
5501	8.3185	2.5455	0.1	-4.9923e-002
5502	8.134	2.5455	0.1	-6.8846e-002
5503	7.9495	2.5455	0.1	-9.4564e-002
5504	7.765	2.5455	0.1	-0.12942
5505	7.5805	2.5455	0.1	-0.17653
5506	7.396	2.5455	0.1	-0.23997
5507	7.2116	2.5455	0.1	-0.32498
5508	7.0271	2.5455	0.1	-0.4383
5509	6.8426	2.5455	0.1	-0.58708
5510	6.6581	2.5455	0.1	-0.78678
5511	6.4736	2.5455	0.1	-1.0206
5512	6.2891	2.5455	0.1	-1.4244
5513	6.1046	2.5455	0.1	-1.9676
5514	5.9201	2.5455	0.1	-98.78
5515	5.7356	2.5455	0.1	-427.54
5516	5.5512	2.5455	0.1	-814.99
5517	23.816	2.7273	0.1	-176.78
5518	23.631	2.7273	0.1	-166.37
5519	23.447	2.7273	0.1	-156.22
5520	23.262	2.7273	0.1	-146.57
5521	23.078	2.7273	0.1	-137.39
5522	22.893	2.7273	0.1	-128.67
5523	22.709	2.7273	0.1	-120.44
5524	22.524	2.7273	0.1	-112.67
5525	22.34	2.7273	0.1	-105.37
5526	22.155	2.7273	0.1	-98.519
5527	21.971	2.7273	0.1	-92.105
5528	21.786	2.7273	0.1	-86.111
5529	21.602	2.7273	0.1	-80.518
5530	21.417	2.7273	0.1	-75.306
5531	21.233	2.7273	0.1	-70.453
5532	21.048	2.7273	0.1	-65.938
5533	20.864	2.7273	0.1	-61.741
5534	20.679	2.7273	0.1	-57.838
5535	20.495	2.7273	0.1	-54.211
5536	20.31	2.7273	0.1	-50.84
5537	20.126	2.7273	0.1	-47.705
5538	19.941	2.7273	0.1	-44.788
5539	19.757	2.7273	0.1	-42.072
5540	19.572	2.7273	0.1	-39.541
5541	19.388	2.7273	0.1	-37.179
5542	19.203	2.7273	0.1	-34.972
5543	19.019	2.7273	0.1	-32.906
5544	18.834	2.7273	0.1	-30.968
5545	18.65	2.7273	0.1	-29.146
5546	18.465	2.7273	0.1	-27.428
5547	18.281	2.7273	0.1	-25.804
5548	18.096	2.7273	0.1	-24.262
5549	17.912	2.7273	0.1	-22.794
5550	17.727	2.7273	0.1	-21.39
5551	17.543	2.7273	0.1	-20.04
5552	17.358	2.7273	0.1	-18.736
5553	17.174	2.7273	0.1	-17.47
5554	16.989	2.7273	0.1	-16.233
5555	16.805	2.7273	0.1	-15.018
5556	16.62	2.7273	0.1	-13.816
5557	16.436	2.7273	0.1	-12.62
5558	16.251	2.7273	0.1	-11.422
5559	16.067	2.7273	0.1	-10.214
5560	15.883	2.7273	0.1	-8.988
5561	15.698	2.7273	0.1	-7.7366
5562	15.514	2.7273	0.1	-6.4515
5563	15.329	2.7273	0.1	-5.124
5564	15.145	2.7273	0.1	-3.7455
5565	14.96	2.7273	0.1	-2.3069
5566	14.776	2.7273	0.1	-0.79924
5567	14.591	2.7273	0.1	-8.5197e-003
5568	14.407	2.7273	0.1	-7.3993e-003
5569	14.222	2.7273	0.1	-7.0042e-003
5570	14.038	2.7273	0.1	-6.7e-003
5571	13.853	2.7273	0.1	-6.4228e-003
5572	13.669	2.7273	0.1	-6.1495e-003
5573	13.484	2.7273	0.1	-5.9084e-003
5574	13.3	2.7273	0.1	-5.6523e-003
5575	13.115	2.7273	0.1	-5.4149e-003
5576	12.931	2.7273	0.1	-5.1517e-003
5577	12.746	2.7273	0.1	-4.8569e-003
5578	12.562	2.7273	0.1	-4.5851e-003
5579	12.377	2.7273	0.1	-4.2972e-003
5580	12.193	2.7273	0.1	-3.9934e-003
5581	12.008	2.7273	0.1	-3.6731e-003
5582	11.824	2.7273	0.1	-3.3769e-003
5583	11.639	2.7273	0.1	-3.0579e-003
5584	11.455	2.7273	0.1	-2.7612e-003
5585	11.27	2.7273	0.1	-2.4396e-003
5586	11.086	2.7273	0.1	-2.0996e-003
5587	10.901	2.7273	0.1	-1.8142e-003
5588	10.717	2.7273	0.1	-1.5557e-003
5589	10.532	2.7273	0.1	-1.3492e-003
5590	10.348	2.7273	0.1	-1.2154e-003
5591	10.163	2.7273	0.1	-1.266e-003
5592	9.9789	2.7273	0.1	-1.4885e-003
5593	9.7944	2.7273	0.1	-1.947e-003
5594	9.6099	2.7273	0.1	-2.8005e-003
5595	9.4254	2.7273	0.1	-4.1756e-003
5596	9.2409	2.7273	0.1	-6.2781e-003
5597	9.0564	2.7273	0.1	-9.3769e-003
5598	8.8719	2.7273	0.1	-1.384e-002
5599	8.6875	2.7273	0.1	-2.0182e-002
5600	8.503	2.7273	0.1	-2.9088e-002
5601	8.3185	2.7273	0.1	-4.1509e-002
5602	8.134	2.7273	0.1	-5.8767e-002
5603	7.9495	2.7273	0.1	-8.2667e-002
5604	7.765	2.7273	0.1	-0.11571
5605	7.5805	2.7273	0.1	-0.16132
5606	7.396	2.7273	0.1	-0.22416
5607	7.2116	2.7273	0.1	-0.31041
5608	7.0271	2.7273	0.1	-0.42789
5609	6.8426	2.7273	0.1	-0.58547
5610	6.6581	2.7273	0.1	-0.79085
5611	6.4736	2.7273	0.1	-1.051
5612	6.2891	2.7273	0.1	-1.3181
5613	6.1046	2.7273	0.1	-1.7449
5614	5.9201	2.7273	0.1	-131.02
5615	5.7356	2.7273	0.1	-437.45
5616	5.5512	2.7273	0.1	-758.8
5617	23.816	2.9091	0.1	-177.71
5618	23.631	2.9091	0.1	-167.3
5619	23.447	2.9091	0.1	-157.13
5620	23.262	2.9091	0.1	-147.47
5621	23.078	2.9091	0.1	-138.26
5622	22.893	2.9091	0.1	-129.53
5623	22.709	2.9091	0.1	-121.26
5624	22.524	2.9091	0.1	-113.45
5625	22.34	2.9091	0.1	-106.11
5626	22.155	2.9091	0.1	-99.218
5627	21.971	2.9091	0.1	-92.76
5628	21.786	2.9091	0.1	-86.722
5629	21.602	2.9091	0.1	-81.085
5630	21.417	2.9091	0.1	-75.83
5631	21.233	2.9091	0.1	-70.936
5632	21.048	2.9091	0.1	-66.381
5633	20.864	2.9091	0.1	-62.145
5634	20.679	2.9091	0.1	-58.207
5635	20.495	2.9091	0.1	-54.547
5636	20.31	2.9091	0.1	-51.143
5637	20.126	2.9091	0.1	-47.979
5638	19.941	2.9091	0.1	-45.035
5639	19.757	2.9091	0.1	-42.294
5640	19.572	2.9091	0.1	-39.739
5641	19.388	2.9091	0.1	-37.356
5642	19.203	2.9091	0.1	-35.129
5643	19.019	2.9091	0.1	-33.044
5644	18.834	2.9091	0.1	-31.089
5645	18.65	2.9091	0.1	-29.251
5646	18.465	2.9091	0.1	-27.519
5647	18.281	2.9091	0.1	-25.881
5648	18.096	2.9091	0.1	-24.326
5649	17.912	2.9091	0.1	-22.846
5650	17.727	2.9091	0.1	-21.43
5651	17.543	2.9091	0.1	-20.07
5652	17.358	2.9091	0.1	-18.756
5653	17.174	2.9091	0.1	-17.48
5654	16.989	2.9091	0.1	-16.233
5655	16.805	2.9091	0.1	-15.009
5656	16.62	2.9091	0.1	-13.798
5657	16.436	2.9091	0.1	-12.593
5658	16.251	2.9091	0.1	-11.386
5659	16.067	2.9091	0.1	-10.169
5660	15.883	2.9091	0.1	-8.9338
5661	15.698	2.9091	0.1	-7.673
5662	15.514	2.9091	0.1	-6.3782
5663	15.329	2.9091	0.1	-5.0405
5664	15.145	2.9091	0.1	-3.6514
5665	14.96	2.9091	0.1	-2.2014
5666	14.776	2.9091	0.1	-0.68121
5667	14.591	2.9091	0.1	-7.4332e-003
5668	14.407	2.9091	0.1	-7.0999e-003
5669	14.222	2.9091	0.1	-6.8542e-003
5670	14.038	2.9091	0.1	-6.6123e-003
5671	13.853	2.9091	0.1	-6.3655e-003
5672	13.669	2.9091	0.1	-6.1086e-003
5673	13.484	2.9091	0.1	-5.8756e-003
5674	13.3	2.9091	0.1	-5.6242e-003
5675	13.115	2.9091	0.1	-5.3878e-003
5676	12.931	2.9091	0.1	-5.1211e-003
5677	12.746	2.9091	0.1	-4.8209e-003
5678	12.562	2.9091	0.1	-4.5411e-003
5679	12.377	2.9091	0.1	-4.2432e-003
5680	12.193	2.9091	0.1	-3.9269e-003
5681	12.008	2.9091	0.1	-3.5899e-003
5682	11.824	2.9091	0.1	-3.2738e-003
5683	11.639	2.9091	0.1	-2.9313e-003
5684	11.455	2.9091	0.1	-2.6058e-003
5685	11.27	2.9091	0.1	-2.2498e-003
5686	11.086	2.9091	0.1	-1.8666e-003
5687	10.901	2.9091	0.1	-1.5325e-003
5688	10.717	2.9091	0.1	-1.2128e-003
5689	10.532	2.9091	0.1	-9.3319e-004
5690	10.348	2.9091	0.1	-7.1068e-004
5691	10.163	2.9091	0.1	-6.5373e-004
5692	9.9789	2.9091	0.1	-7.4435e-004
5693	9.7944	2.9091	0.1	-1.0444e-003
5694	9.6099	2.9091	0.1	-1.7026e-003
5695	9.4254	2.9091	0.1	-2.84e-003
5696	9.2409	2.9091	0.1	-4.6527e-003
5697	9.0564	2.9091	0.1	-7.3984e-003
5698	8.8719	2.9091	0.1	-1.1435e-002
5699	8.6875	2.9091	0.1	-1.7265e-002
5700	8.503	2.9091	0.1	-2.5566e-002
5701	8.3185	2.9091	0.1	-3.7294e-002
5702	8.134	2.9091	0.1	-5.379e-002
5703	7.9495	2.9091	0.1	-7.6925e-002
5704	7.765	2.9091	0.1	-0.10933
5705	7.5805	2.9091	0.1	-0.15471
5706	7.396	2.9091	0.1	-0.21818
5707	7.2116	2.9091	0.1	-0.30667
5708	7.0271	2.9091	0.1	-0.42893
5709	6.8426	2.9091	0.1	-0.59452
5710	6.6581	2.9091	0.1	-0.80954
5711	6.4736	2.9091	0.1	-1.0637
5712	6.2891	2.9091	0.1	-1.315
5713	6.1046	2.9091	0.1	-1.4252
5714	5.9201	2.9091	0.1	-148.7
5715	5.7356	2.9091	0.1	-442.05
5716	5.5512	2.9091	0.1	-728.19
5717	23.816	3.0909	0.1	-177.71
5718	23.631	3.0909	0.1	-167.3
5719	23.447	3.0909	0.1	-157.13
5720	23.262	3.0909	0.1	-147.47
5721	23.078	3.0909	0.1	-138.26
5722	22.893	3.0909	0.1	-129.53
5723	22.709	3.0909	0.1	-121.26
5724	22.524	3.0909	0.1	-113.45
5725	22.34	3.0909	0.1	-106.11
5726	22.155	3.0909	0.1	-99.218
5727	21.971	3.0909	0.1	-92.76
5728	21.786	3.0909	0.1	-86.722
5729	21.602	3.0909	0.1	-81.085
5730	21.417	3.0909	0.1	-75.83
5731	21.233	3.0909	0.1	-70.936
5732	21.048	3.0909	0.1	-66.381
5733	20.864	3.0909	0.1	-62.145
5734	20.679	3.0909	0.1	-58.207
5735	20.495	3.0909	0.1	-54.547
5736	20.31	3.0909	0.1	-51.143
5737	20.126	3.0909	0.1	-47.979
5738	19.941	3.0909	0.1	-45.035
5739	19.757	3.0909	0.1	-42.294
5740	19.572	3.0909	0.1	-39.739
5741	19.388	3.0909	0.1	-37.356
5742	19.203	3.0909	0.1	-35.129
5743	19.019	3.0909	0.1	-33.044
5744	18.834	3.0909	0.1	-31.089
5745	18.65	3.0909	0.1	-29.251
5746	18.465	3.0909	0.1	-27.519
5747	18.281	3.0909	0.1	-25.881
5748	18.096	3.0909	0.1	-24.326
5749	17.912	3.0909	0.1	-22.846
5750	17.727	3.0909	0.1	-21.43
5751	17.543	3.0909	0.1	-20.07
5752	17.358	3.0909	0.1	-18.756
5753	17.174	3.0909	0.1	-17.48
5754	16.989	3.0909	0.1	-16.233
5755	16.805	3.0909	0.1	-15.009
5756	16.62	3.0909	0.1	-13.798
5757	16.436	3.0909	0.1	-12.593
5758	16.251	3.0909	0.1	-11.386
5759	16.067	3.0909	0.1	-10.169
5760	15.883	3.0909	0.1	-8.9338
5761	15.698	3.0909	0.1	-7.673
5762	15.514	3.0909	0.1	-6.3782
5763	15.329	3.0909	0.1	-5.0405
5764	15.145	3.0909	0.1	-3.6514
5765	14.96	3.0909	0.1	-2.2014
5766	14.776	3.0909	0.1	-0.68122
5767	14.591	3.0909	0.1	-7.4327e-003
5768	14.407	3.0909	0.1	-7.0999e-003
5769	14.222	3.0909	0.1	-6.8546e-003
5770	14.038	3.0909	0.1	-6.6123e-003
5771	13.853	3.0909	0.1	-6.3648e-003
5772	13.669	3.0909	0.1	-6.1083e-003
5773	13.484	3.0909	0.1	-5.8762e-003
5774	13.3	3.0909	0.1	-5.6247e-003
5775	13.115	3.0909	0.1	-5.3869e-003
5776	12.931	3.0909	0.1	-5.1206e-003
5777	12.746	3.0909	0.1	-4.8208e-003
5778	12.562	3.0909	0.1	-4.5411e-003
5779	12.377	3.0909	0.1	-4.2428e-003
5780	12.193	3.0909	0.1	-3.9268e-003
5781	12.008	3.0909	0.1	-3.5902e-003
5782	11.824	3.0909	0.1	-3.2739e-003
5783	11.639	3.0909	0.1	-2.9312e-003
5784	11.455	3.0909	0.1	-2.6052e-003
5785	11.27	3.0909	0.1	-2.2497e-003
5786	11.086	3.0909	0.1	-1.8668e-003
5787	10.901	3.0909	0.1	-1.5321e-003
5788	10.717	3.0909	0.1	-1.2127e-003
5789	10.532	3.0909	0.1	-9.3325e-004
5790	10.348	3.0909	0.1	-7.1062e-004
5791	10.163	3.0909	0.1	-6.5378e-004
5792	9.9789	3.0909	0.1	-7.4518e-004
5793	9.7944	3.0909	0.1	-1.0443e-003
5794	9.6099	3.0909	0.1	-1.7025e-003
5795	9.4254	3.0909	0.1	-2.84e-003
5796	9.2409	3.0909	0.1	-4.6523e-003
5797	9.0564	3.0909	0.1	-7.3984e-003
5798	8.8719	3.0909	0.1	-1.1435e-002
5799	8.6875	3.0909	0.1	-1.7265e-002
5800	8.503	3.0909	0.1	-2.5566e-002
5801	8.3185	3.0909	0.1	-3.7293e-002
5802	8.134	3.0909	0.1	-5.379e-002
5803	7.9495	3.0909	0.1	-7.6924e-002
5804	7.765	3.0909	0.1	-0.10933
5805	7.5805	3.0909	0.1	-0.15471
5806	7.396	3.0909	0.1	-0.21818
5807	7.2116	3.0909	0.1	-0.30667
5808	7.0271	3.0909	0.1	-0.42893
5809	6.8426	3.0909	0.1	-0.59452
5810	6.6581	3.0909	0.1	-0.80954
5811	6.4736	3.0909	0.1	-1.0637
5812	6.2891	3.0909	0.1	-1.315
5813	6.1046	3.0909	0.1	-1.4252
5814	5.9201	3.0909	0.1	-148.7
5815	5.7356	3.0909	0.1	-442.05
5816	5.5512	3.0909	0.1	-728.19
5817	23.816	3.2727	0.1	-176.78
5818	23.631	3.2727	0.1	-166.37
5819	23.447	3.2727	0.1	-156.22
5820	23.262	3.2727	0.1	-146.57
5821	23.078	3.2727	0.1	-137.39
5822	22.893	3.2727	0.1	-128.67
5823	22.709	3.2727	0.1	-120.44
5824	22.524	3.2727	0.1	-112.67
5825	22.34	3.2727	0.1	-105.37
5826	22.155	3.2727	0.1	-98.519
5827	21.971	3.2727	0.1	-92.105
5828	21.786	3.2727	0.1	-86.111
5829	21.602	3.2727	0.1	-80.518
5830	21.417	3.2727	0.1	-75.306
5831	21.233	3.2727	0.1	-70.453
5832	21.048	3.2727	0.1	-65.938
5833	20.864	3.2727	0.1	-61.741
5834	20.679	3.2727	0.1	-57.838
5835	20.495	3.2727	0.1	-54.212
5836	20.31	3.2727	0.1	-50.84
5837	20.126	3.2727	0.1	-47.705
5838	19.941	3.2727	0.1	-44.788
5839	19.757	3.2727	0.1	-42.072
5840	19.572	3.2727	0.1	-39.541
5841	19.388	3.2727	0.1	-37.179
5842	19.203	3.2727	0.1	-34.972
5843	19.019	3.2727	0.1	-32.906
5844	18.834	3.2727	0.1	-30.968
5845	18.65	3.2727	0.1	-29.146
5846	18.465	3.2727	0.1	-27.428
5847	18.281	3.2727	0.1	-25.804
5848	18.096	3.2727	0.1	-24.262
5849	17.912	3.2727	0.1	-22.794
5850	17.727	3.2727	0.1	-21.39
5851	17.543	3.2727	0.1	-20.04
5852	17.358	3.2727	0.1	-18.736
5853	17.174	3.2727	0.1	-17.47
5854	16.989	3.2727	0.1	-16.233
5855	16.805	3.2727	0.1	-15.018
5856	16.62	3.2727	0.1	-13.816
5857	16.436	3.2727	0.1	-12.62
5858	16.251	3.2727	0.1	-11.422
5859	16.067	3.2727	0.1	-10.214
5860	15.883	3.2727	0.1	-8.988
5861	15.698	3.2727	0.1	-7.7366
5862	15.514	3.2727	0.1	-6.4515
5863	15.329	3.2727	0.1	-5.124
5864	15.145	3.2727	0.1	-3.7455
5865	14.96	3.2727	0.1	-2.3069
5866	14.776	3.2727	0.1	-0.79926
5867	14.591	3.2727	0.1	-8.5189e-003
5868	14.407	3.2727	0.1	-7.3992e-003
5869	14.222	3.2727	0.1	-7.0037e-003
5870	14.038	3.2727	0.1	-6.7001e-003
5871	13.853	3.2727	0.1	-6.4223e-003
5872	13.669	3.2727	0.1	-6.1495e-003
5873	13.484	3.2727	0.1	-5.9084e-003
5874	13.3	3.2727	0.1	-5.6525e-003
5875	13.115	3.2727	0.1	-5.4147e-003
5876	12.931	3.2727	0.1	-5.1514e-003
5877	12.746	3.2727	0.1	-4.8564e-003
5878	12.562	3.2727	0.1	-4.5843e-003
5879	12.377	3.2727	0.1	-4.2969e-003
5880	12.193	3.2727	0.1	-3.9934e-003
5881	12.008	3.2727	0.1	-3.6722e-003
5882	11.824	3.2727	0.1	-3.3772e-003
5883	11.639	3.2727	0.1	-3.058e-003
5884	11.455	3.2727	0.1	-2.7607e-003
5885	11.27	3.2727	0.1	-2.4397e-003
5886	11.086	3.2727	0.1	-2.0987e-003
5887	10.901	3.2727	0.1	-1.8139e-003
5888	10.717	3.2727	0.1	-1.5557e-003
5889	10.532	3.2727	0.1	-1.3496e-003
5890	10.348	3.2727	0.1	-1.2147e-003
5891	10.163	3.2727	0.1	-1.2653e-003
5892	9.9789	3.2727	0.1	-1.488e-003
5893	9.7944	3.2727	0.1	-1.9469e-003
5894	9.6099	3.2727	0.1	-2.8002e-003
5895	9.4254	3.2727	0.1	-4.1756e-003
5896	9.2409	3.2727	0.1	-6.278e-003
5897	9.0564	3.2727	0.1	-9.3766e-003
5898	8.8719	3.2727	0.1	-1.384e-002
5899	8.6875	3.2727	0.1	-2.0182e-002
5900	8.503	3.2727	0.1	-2.9087e-002
5901	8.3185	3.2727	0.1	-4.1509e-002
5902	8.134	3.2727	0.1	-5.8768e-002
5903	7.9495	3.2727	0.1	-8.2667e-002
5904	7.765	3.2727	0.1	-0.11571
5905	7.5805	3.2727	0.1	-0.16132
5906	7.396	3.2727	0.1	-0.22416
5907	7.2116	3.2727	0.1	-0.31041
5908	7.0271	3.2727	0.1	-0.42789
5909	6.8426	3.2727	0.1	-0.58547
5910	6.6581	3.2727	0.1	-0.79084
5911	6.4736	3.2727	0.1	-1.051
5912	6.2891	3.2727	0.1	-1.3181
5913	6.1046	3.2727	0.1	-1.7449
5914	5.9201	3.2727	0.1	-131.02
5915	5.7356	3.2727	0.1	-437.45
5916	5.5512	3.2727	0.1	-758.8
5917	23.816	3.4545	0.1	-174.92
5918	23.631	3.4545	0.1	-164.51
5919	23.447	3.4545	0.1	-154.38
5920	23.262	3.4545	0.1	-144.77
5921	23.078	3.4545	0.1	-135.62
5922	22.893	3.4545	0.1	-126.97
5923	22.709	3.4545	0.1	-118.8
5924	22.524	3.4545	0.1	-111.11
5925	22.34	3.4545	0.1	-103.89
5926	22.155	3.4545	0.1	-97.123
5927	21.971	3.4545	0.1	-90.798
5928	21.786	3.4545	0.1	-84.893
5929	21.602	3.4545	0.1	-79.388
5930	21.417	3.4545	0.1	-74.262
5931	21.233	3.4545	0.1	-69.493
5932	21.048	3.4545	0.1	-65.059
5933	20.864	3.4545	0.1	-60.937
5934	20.679	3.4545	0.1	-57.106
5935	20.495	3.4545	0.1	-53.546
5936	20.31	3.4545	0.1	-50.237
5937	20.126	3.4545	0.1	-47.161
5938	19.941	3.4545	0.1	-44.298
5939	19.757	3.4545	0.1	-41.632
5940	19.572	3.4545	0.1	-39.147
5941	19.388	3.4545	0.1	-36.828
5942	19.203	3.4545	0.1	-34.661
5943	19.019	3.4545	0.1	-32.632
5944	18.834	3.4545	0.1	-30.728
5945	18.65	3.4545	0.1	-28.937
5946	18.465	3.4545	0.1	-27.249
5947	18.281	3.4545	0.1	-25.652
5948	18.096	3.4545	0.1	-24.136
5949	17.912	3.4545	0.1	-22.692
5950	17.727	3.4545	0.1	-21.31
5951	17.543	3.4545	0.1	-19.981
5952	17.358	3.4545	0.1	-18.698
5953	17.174	3.4545	0.1	-17.451
5954	16.989	3.4545	0.1	-16.233
5955	16.805	3.4545	0.1	-15.036
5956	16.62	3.4545	0.1	-13.852
5957	16.436	3.4545	0.1	-12.674
5958	16.251	3.4545	0.1	-11.494
5959	16.067	3.4545	0.1	-10.304
5960	15.883	3.4545	0.1	-9.0965
5961	15.698	3.4545	0.1	-7.8638
5962	15.514	3.4545	0.1	-6.598
5963	15.329	3.4545	0.1	-5.2906
5964	15.145	3.4545	0.1	-3.9333
5965	14.96	3.4545	0.1	-2.5171
5966	14.776	3.4545	0.1	-1.0338
5967	14.591	3.4545	0.1	-1.2236e-002
5968	14.407	3.4545	0.1	-8.1185e-003
5969	14.222	3.4545	0.1	-7.3394e-003
5970	14.038	3.4545	0.1	-6.894e-003
5971	13.853	3.4545	0.1	-6.5457e-003
5972	13.669	3.4545	0.1	-6.2345e-003
5973	13.484	3.4545	0.1	-5.9725e-003
5974	13.3	3.4545	0.1	-5.708e-003
5975	13.115	3.4545	0.1	-5.4698e-003
5976	12.931	3.4545	0.1	-5.2102e-003
5977	12.746	3.4545	0.1	-4.9258e-003
5978	12.562	3.4545	0.1	-4.6691e-003
5979	12.377	3.4545	0.1	-4.4008e-003
5980	12.193	3.4545	0.1	-4.1231e-003
5981	12.008	3.4545	0.1	-3.8336e-003
5982	11.824	3.4545	0.1	-3.5763e-003
5983	11.639	3.4545	0.1	-3.3036e-003
5984	11.455	3.4545	0.1	-3.0625e-003
5985	11.27	3.4545	0.1	-2.8084e-003
5986	11.086	3.4545	0.1	-2.5487e-003
5987	10.901	3.4545	0.1	-2.3612e-003
5988	10.717	3.4545	0.1	-2.2199e-003
5989	10.532	3.4545	0.1	-2.1555e-003
5990	10.348	3.4545	0.1	-2.1934e-003
5991	10.163	3.4545	0.1	-2.4523e-003
5992	9.9789	3.4545	0.1	-2.9289e-003
5993	9.7944	3.4545	0.1	-3.6973e-003
5994	9.6099	3.4545	0.1	-4.929e-003
5995	9.4254	3.4545	0.1	-6.7678e-003
5996	9.2409	3.4545	0.1	-9.4374e-003
5997	9.0564	3.4545	0.1	-1.3231e-002
5998	8.8719	3.4545	0.1	-1.8541e-002
5999	8.6875	3.4545	0.1	-2.591e-002
6000	8.503	3.4545	0.1	-3.6048e-002
6001	8.3185	3.4545	0.1	-4.9923e-002
6002	8.134	3.4545	0.1	-6.8846e-002
6003	7.9495	3.4545	0.1	-9.4563e-002
6004	7.765	3.4545	0.1	-0.12942
6005	7.5805	3.4545	0.1	-0.17653
6006	7.396	3.4545	0.1	-0.23997
6007	7.2116	3.4545	0.1	-0.32498
6008	7.0271	3.4545	0.1	-0.4383
6009	6.8426	3.4545	0.1	-0.58708
6010	6.6581	3.4545	0.1	-0.78678
6011	6.4736	3.4545	0.1	-1.0206
6012	6.2891	3.4545	0.1	-1.4244
6013	6.1046	3.4545	0.1	-1.9676
6014	5.9201	3.4545	0.1	-98.78
6015	5.7356	3.4545	0.1	-427.54
6016	5.5512	3.4545	0.1	-814.99
6017	23.816	3.6364	0.1	-172.1
6018	23.631	3.6364	0.1	-161.7
6019	23.447	3.6364	0.1	-151.6
6020	23.262	3.6364	0.1	-142.04
6021	23.078	3.6364	0.1	-132.97
6022	22.893	3.6364	0.1	-124.41
6023	22.709	3.6364	0.1	-116.34
6024	22.524	3.6364	0.1	-108.76
6025	22.34	3.6364	0.1	-101.67
6026	22.155	3.6364	0.1	-95.036
6027	21.971	3.6364	0.1	-88.845
6028	21.786	3.6364	0.1	-83.076
6029	21.602	3.6364	0.1	-77.705
6030	21.417	3.6364	0.1	-72.71
6031	21.233	3.6364	0.1	-68.066
6032	21.048	3.6364	0.1	-63.752
6033	20.864	3.6364	0.1	-59.744
6034	20.679	3.6364	0.1	-56.02
6035	20.495	3.6364	0.1	-52.56
6036	20.31	3.6364	0.1	-49.345
6037	20.126	3.6364	0.1	-46.355
6038	19.941	3.6364	0.1	-43.573
6039	19.757	3.6364	0.1	-40.982
6040	19.572	3.6364	0.1	-38.566
6041	19.388	3.6364	0.1	-36.311
6042	19.203	3.6364	0.1	-34.202
6043	19.019	3.6364	0.1	-32.227
6044	18.834	3.6364	0.1	-30.374
6045	18.65	3.6364	0.1	-28.63
6046	18.465	3.6364	0.1	-26.985
6047	18.281	3.6364	0.1	-25.428
6048	18.096	3.6364	0.1	-23.95
6049	17.912	3.6364	0.1	-22.542
6050	17.727	3.6364	0.1	-21.193
6051	17.543	3.6364	0.1	-19.896
6052	17.358	3.6364	0.1	-18.643
6053	17.174	3.6364	0.1	-17.425
6054	16.989	3.6364	0.1	-16.235
6055	16.805	3.6364	0.1	-15.066
6056	16.62	3.6364	0.1	-13.909
6057	16.436	3.6364	0.1	-12.757
6058	16.251	3.6364	0.1	-11.603
6059	16.067	3.6364	0.1	-10.44
6060	15.883	3.6364	0.1	-9.2594
6061	15.698	3.6364	0.1	-8.0544
6062	15.514	3.6364	0.1	-6.8173
6063	15.329	3.6364	0.1	-5.5398
6064	15.145	3.6364	0.1	-4.2138
6065	14.96	3.6364	0.1	-2.8308
6066	14.776	3.6364	0.1	-1.383
6067	14.591	3.6364	0.1	-3.6166e-002
6068	14.407	3.6364	0.1	-9.645e-003
6069	14.222	3.6364	0.1	-7.9608e-003
6070	14.038	3.6364	0.1	-7.2311e-003
6071	13.853	3.6364	0.1	-6.7543e-003
6072	13.669	3.6364	0.1	-6.3753e-003
6073	13.484	3.6364	0.1	-6.0756e-003
6074	13.3	3.6364	0.1	-5.7935e-003
6075	13.115	3.6364	0.1	-5.5491e-003
6076	12.931	3.6364	0.1	-5.2954e-003
6077	12.746	3.6364	0.1	-5.0229e-003
6078	12.562	3.6364	0.1	-4.7875e-003
6079	12.377	3.6364	0.1	-4.5477e-003
6080	12.193	3.6364	0.1	-4.3066e-003
6081	12.008	3.6364	0.1	-4.0619e-003
6082	11.824	3.6364	0.1	-3.8591e-003
6083	11.639	3.6364	0.1	-3.6528e-003
6084	11.455	3.6364	0.1	-3.492e-003
6085	11.27	3.6364	0.1	-3.3336e-003
6086	11.086	3.6364	0.1	-3.1886e-003
6087	10.901	3.6364	0.1	-3.14e-003
6088	10.717	3.6364	0.1	-3.1656e-003
6089	10.532	3.6364	0.1	-3.3018e-003
6090	10.348	3.6364	0.1	-3.5835e-003
6091	10.163	3.6364	0.1	-4.1389e-003
6092	9.9789	3.6364	0.1	-4.9761e-003
6093	9.7944	3.6364	0.1	-6.186e-003
6094	9.6099	3.6364	0.1	-7.9585e-003
6095	9.4254	3.6364	0.1	-1.0463e-002
6096	9.2409	3.6364	0.1	-1.3952e-002
6097	9.0564	3.6364	0.1	-1.8757e-002
6098	8.8719	3.6364	0.1	-2.5316e-002
6099	8.6875	3.6364	0.1	-3.4227e-002
6100	8.503	3.6364	0.1	-4.6259e-002
6101	8.3185	3.6364	0.1	-6.2451e-002
6102	8.134	3.6364	0.1	-8.4178e-002
6103	7.9495	3.6364	0.1	-0.11324
6104	7.765	3.6364	0.1	-0.15202
6105	7.5805	3.6364	0.1	-0.20361
6106	7.396	3.6364	0.1	-0.27195
6107	7.2116	3.6364	0.1	-0.36262
6108	7.0271	3.6364	0.1	-0.48135
6109	6.8426	3.6364	0.1	-0.64193
6110	6.6581	3.6364	0.1	-0.84582
6111	6.4736	3.6364	0.1	-1.155
6112	6.2891	3.6364	0.1	-1.6052
6113	6.1046	3.6364	0.1	-1.5866
6114	5.9201	3.6364	0.1	-68.749
6115	5.7356	3.6364	0.1	-395.12
6116	5.5512	3.6364	0.1	-939.55
6117	23.816	3.8182	0.1	-168.3
6118	23.631	3.8182	0.1	-157.91
6119	23.447	3.8182	0.1	-147.86
6120	23.262	3.8182	0.1	-138.38
6121	23.078	3.8182	0.1	-129.41
6122	22.893	3.8182	0.1	-120.97
6123	22.709	3.8182	0.1	-113.05
6124	22.524	3.8182	0.1	-105.64
6125	22.34	3.8182	0.1	-98.716
6126	22.155	3.8182	0.1	-92.264
6127	21.971	3.8182	0.1	-86.258
6128	21.786	3.8182	0.1	-80.674
6129	21.602	3.8182	0.1	-75.484
6130	21.417	3.8182	0.1	-70.664
6131	21.233	3.8182	0.1	-66.189
6132	21.048	3.8182	0.1	-62.034
6133	20.864	3.8182	0.1	-58.177
6134	20.679	3.8182	0.1	-54.595
6135	20.495	3.8182	0.1	-51.268
6136	20.31	3.8182	0.1	-48.176
6137	20.126	3.8182	0.1	-45.301
6138	19.941	3.8182	0.1	-42.624
6139	19.757	3.8182	0.1	-40.131
6140	19.572	3.8182	0.1	-37.806
6141	19.388	3.8182	0.1	-35.635
6142	19.203	3.8182	0.1	-33.604
6143	19.019	3.8182	0.1	-31.7
6144	18.834	3.8182	0.1	-29.913
6145	18.65	3.8182	0.1	-28.23
6146	18.465	3.8182	0.1	-26.642
6147	18.281	3.8182	0.1	-25.139
6148	18.096	3.8182	0.1	-23.71
6149	17.912	3.8182	0.1	-22.348
6150	17.727	3.8182	0.1	-21.043
6151	17.543	3.8182	0.1	-19.788
6152	17.358	3.8182	0.1	-18.575
6153	17.174	3.8182	0.1	-17.395
6154	16.989	3.8182	0.1	-16.242
6155	16.805	3.8182	0.1	-15.108
6156	16.62	3.8182	0.1	-13.986
6157	16.436	3.8182	0.1	-12.869
6158	16.251	3.8182	0.1	-11.75
6159	16.067	3.8182	0.1	-10.622
6160	15.883	3.8182	0.1	-9.4768
6161	15.698	3.8182	0.1	-8.3084
6162	15.514	3.8182	0.1	-7.1089
6163	15.329	3.8182	0.1	-5.8707
6164	15.145	3.8182	0.1	-4.5859
6165	14.96	3.8182	0.1	-3.2464
6166	14.776	3.8182	0.1	-1.8446
6167	14.591	3.8182	0.1	-0.38588
6168	14.407	3.8182	0.1	-1.3365e-002
6169	14.222	3.8182	0.1	-9.1198e-003
6170	14.038	3.8182	0.1	-7.8051e-003
6171	13.853	3.8182	0.1	-7.0895e-003
6172	13.669	3.8182	0.1	-6.5911e-003
6173	13.484	3.8182	0.1	-6.2292e-003
6174	13.3	3.8182	0.1	-5.9136e-003
6175	13.115	3.8182	0.1	-5.6585e-003
6176	12.931	3.8182	0.1	-5.4058e-003
6177	12.746	3.8182	0.1	-5.148e-003
6178	12.562	3.8182	0.1	-4.9364e-003
6179	12.377	3.8182	0.1	-4.7313e-003
6180	12.193	3.8182	0.1	-4.5342e-003
6181	12.008	3.8182	0.1	-4.3459e-003
6182	11.824	3.8182	0.1	-4.2116e-003
6183	11.639	3.8182	0.1	-4.088e-003
6184	11.455	3.8182	0.1	-4.0253e-003
6185	11.27	3.8182	0.1	-3.9872e-003
6186	11.086	3.8182	0.1	-3.9844e-003
6187	10.901	3.8182	0.1	-4.1064e-003
6188	10.717	3.8182	0.1	-4.3378e-003
6189	10.532	3.8182	0.1	-4.7225e-003
6190	10.348	3.8182	0.1	-5.3047e-003
6191	10.163	3.8182	0.1	-6.2244e-003
6192	9.9789	3.8182	0.1	-7.5062e-003
6193	9.7944	3.8182	0.1	-9.261e-003
6194	9.6099	3.8182	0.1	-1.1705e-002
6195	9.4254	3.8182	0.1	-1.5039e-002
6196	9.2409	3.8182	0.1	-1.9562e-002
6197	9.0564	3.8182	0.1	-2.5657e-002
6198	8.8719	3.8182	0.1	-3.3837e-002
6199	8.6875	3.8182	0.1	-4.479e-002
6200	8.503	3.8182	0.1	-5.9408e-002
6201	8.3185	3.8182	0.1	-7.8888e-002
6202	8.134	3.8182	0.1	-0.10482
6203	7.9495	3.8182	0.1	-0.1393
6204	7.765	3.8182	0.1	-0.18512
6205	7.5805	3.8182	0.1	-0.24613
6206	7.396	3.8182	0.1	-0.32725
6207	7.2116	3.8182	0.1	-0.43732
6208	7.0271	3.8182	0.1	-0.5829
6209	6.8426	3.8182	0.1	-0.80593
6210	6.6581	3.8182	0.1	-1.058
6211	6.4736	3.8182	0.1	-1.8118
6212	6.2891	3.8182	0.1	-1.7776
6213	6.1046	3.8182	0.1	-8.9577
6214	5.9201	3.8182	0.1	-117.43
6215	5.7356	3.8182	0.1	-458.51
6216	5.5512	3.8182	0.1	-1032.6
6217	23.816	4.	0.1	-163.49
6218	23.631	4.	0.1	-153.12
6219	23.447	4.	0.1	-143.13
6220	23.262	4.	0.1	-133.75
6221	23.078	4.	0.1	-124.92
6222	22.893	4.	0.1	-116.65
6223	22.709	4.	0.1	-108.93
6224	22.524	4.	0.1	-101.73
6225	22.34	4.	0.1	-95.039
6226	22.155	4.	0.1	-88.823
6227	21.971	4.	0.1	-83.055
6228	21.786	4.	0.1	-77.706
6229	21.602	4.	0.1	-72.746
6230	21.417	4.	0.1	-68.147
6231	21.233	4.	0.1	-63.883
6232	21.048	4.	0.1	-59.929
6233	20.864	4.	0.1	-56.259
6234	20.679	4.	0.1	-52.853
6235	20.495	4.	0.1	-49.69
6236	20.31	4.	0.1	-46.75
6237	20.126	4.	0.1	-44.015
6238	19.941	4.	0.1	-41.469
6239	19.757	4.	0.1	-39.096
6240	19.572	4.	0.1	-36.882
6241	19.388	4.	0.1	-34.813
6242	19.203	4.	0.1	-32.877
6243	19.019	4.	0.1	-31.061
6244	18.834	4.	0.1	-29.354
6245	18.65	4.	0.1	-27.747
6246	18.465	4.	0.1	-26.229
6247	18.281	4.	0.1	-24.79
6248	18.096	4.	0.1	-23.422
6249	17.912	4.	0.1	-22.117
6250	17.727	4.	0.1	-20.866
6251	17.543	4.	0.1	-19.662
6252	17.358	4.	0.1	-18.496
6253	17.174	4.	0.1	-17.363
6254	16.989	4.	0.1	-16.255
6255	16.805	4.	0.1	-15.165
6256	16.62	4.	0.1	-14.086
6257	16.436	4.	0.1	-13.012
6258	16.251	4.	0.1	-11.936
6259	16.067	4.	0.1	-10.85
6260	15.883	4.	0.1	-9.7491
6261	15.698	4.	0.1	-8.6255
6262	15.514	4.	0.1	-7.4723
6263	15.329	4.	0.1	-6.2822
6264	15.145	4.	0.1	-5.0479
6265	14.96	4.	0.1	-3.7616
6266	14.776	4.	0.1	-2.4161
6267	14.591	4.	0.1	-1.0069
6268	14.407	4.	0.1	-2.8849e-002
6269	14.222	4.	0.1	-1.1548e-002
6270	14.038	4.	0.1	-8.8227e-003
6271	13.853	4.	0.1	-7.6377e-003
6272	13.669	4.	0.1	-6.925e-003
6273	13.484	4.	0.1	-6.4511e-003
6274	13.3	4.	0.1	-6.0785e-003
6275	13.115	4.	0.1	-5.7959e-003
6276	12.931	4.	0.1	-5.5391e-003
6277	12.746	4.	0.1	-5.2926e-003
6278	12.562	4.	0.1	-5.1069e-003
6279	12.377	4.	0.1	-4.9396e-003
6280	12.193	4.	0.1	-4.7933e-003
6281	12.008	4.	0.1	-4.6685e-003
6282	11.824	4.	0.1	-4.6119e-003
6283	11.639	4.	0.1	-4.5825e-003
6284	11.455	4.	0.1	-4.6345e-003
6285	11.27	4.	0.1	-4.7295e-003
6286	11.086	4.	0.1	-4.8898e-003
6287	10.901	4.	0.1	-5.2042e-003
6288	10.717	4.	0.1	-5.6669e-003
6289	10.532	4.	0.1	-6.3305e-003
6290	10.348	4.	0.1	-7.2486e-003
6291	10.163	4.	0.1	-8.5776e-003
6292	9.9789	4.	0.1	-1.0359e-002
6293	9.7944	4.	0.1	-1.2728e-002
6294	9.6099	4.	0.1	-1.5933e-002
6295	9.4254	4.	0.1	-2.0216e-002
6296	9.2409	4.	0.1	-2.5934e-002
6297	9.0564	4.	0.1	-3.3545e-002
6298	8.8719	4.	0.1	-4.3667e-002
6299	8.6875	4.	0.1	-5.7133e-002
6300	8.503	4.	0.1	-7.5041e-002
6301	8.3185	4.	0.1	-9.8878e-002
6302	8.134	4.	0.1	-0.13067
6303	7.9495	4.	0.1	-0.17317
6304	7.765	4.	0.1	-0.23023
6305	7.5805	4.	0.1	-0.30753
6306	7.396	4.	0.1	-0.41325
6307	7.2116	4.	0.1	-0.56289
6308	7.0271	4.	0.1	-0.77631
6309	6.8426	4.	0.1	-1.1306
6310	6.6581	4.	0.1	-1.6696
6311	6.4736	4.	0.1	-3.2155
6312	6.2891	4.	0.1	-7.156
6313	6.1046	4.	0.1	-78.833
6314	5.9201	4.	0.1	-332.34
6315	5.7356	4.	0.1	-842.21
6316	5.5512	4.	0.1	-2363.7
6317	23.816	4.1818	0.1	-157.61
6318	23.631	4.1818	0.1	-147.27
6319	23.447	4.1818	0.1	-137.38
6320	23.262	4.1818	0.1	-128.14
6321	23.078	4.1818	0.1	-119.49
6322	22.893	4.1818	0.1	-111.44
6323	22.709	4.1818	0.1	-103.97
6324	22.524	4.1818	0.1	-97.054
6325	22.34	4.1818	0.1	-90.651
6326	22.155	4.1818	0.1	-84.732
6327	21.971	4.1818	0.1	-79.26
6328	21.786	4.1818	0.1	-74.2
6329	21.602	4.1818	0.1	-69.52
6330	21.417	4.1818	0.1	-65.19
6331	21.233	4.1818	0.1	-61.179
6332	21.048	4.1818	0.1	-57.463
6333	20.864	4.1818	0.1	-54.017
6334	20.679	4.1818	0.1	-50.82
6335	20.495	4.1818	0.1	-47.85
6336	20.31	4.1818	0.1	-45.089
6337	20.126	4.1818	0.1	-42.52
6338	19.941	4.1818	0.1	-40.127
6339	19.757	4.1818	0.1	-37.895
6340	19.572	4.1818	0.1	-35.811
6341	19.388	4.1818	0.1	-33.862
6342	19.203	4.1818	0.1	-32.036
6343	19.019	4.1818	0.1	-30.322
6344	18.834	4.1818	0.1	-28.71
6345	18.65	4.1818	0.1	-27.19
6346	18.465	4.1818	0.1	-25.753
6347	18.281	4.1818	0.1	-24.39
6348	18.096	4.1818	0.1	-23.093
6349	17.912	4.1818	0.1	-21.855
6350	17.727	4.1818	0.1	-20.666
6351	17.543	4.1818	0.1	-19.522
6352	17.358	4.1818	0.1	-18.413
6353	17.174	4.1818	0.1	-17.335
6354	16.989	4.1818	0.1	-16.279
6355	16.805	4.1818	0.1	-15.24
6356	16.62	4.1818	0.1	-14.212
6357	16.436	4.1818	0.1	-13.188
6358	16.251	4.1818	0.1	-12.161
6359	16.067	4.1818	0.1	-11.126
6360	15.883	4.1818	0.1	-10.077
6361	15.698	4.1818	0.1	-9.0055
6362	15.514	4.1818	0.1	-7.9066
6363	15.329	4.1818	0.1	-6.773
6364	15.145	4.1818	0.1	-5.5979
6365	14.96	4.1818	0.1	-4.374
6366	14.776	4.1818	0.1	-3.0944
6367	14.591	4.1818	0.1	-1.7528
6368	14.407	4.1818	0.1	-0.36894
6369	14.222	4.1818	0.1	-1.8547e-002
6370	14.038	4.1818	0.1	-1.0867e-002
6371	13.853	4.1818	0.1	-8.5967e-003
6372	13.669	4.1818	0.1	-7.4605e-003
6373	13.484	4.1818	0.1	-6.7844e-003
6374	13.3	4.1818	0.1	-6.3047e-003
6375	13.115	4.1818	0.1	-5.971e-003
6376	12.931	4.1818	0.1	-5.6949e-003
6377	12.746	4.1818	0.1	-5.4527e-003
6378	12.562	4.1818	0.1	-5.2895e-003
6379	12.377	4.1818	0.1	-5.1603e-003
6380	12.193	4.1818	0.1	-5.0672e-003
6381	12.008	4.1818	0.1	-5.0103e-003
6382	11.824	4.1818	0.1	-5.0374e-003
6383	11.639	4.1818	0.1	-5.1092e-003
6384	11.455	4.1818	0.1	-5.2814e-003
6385	11.27	4.1818	0.1	-5.5212e-003
6386	11.086	4.1818	0.1	-5.8507e-003
6387	10.901	4.1818	0.1	-6.3701e-003
6388	10.717	4.1818	0.1	-7.0759e-003
6389	10.532	4.1818	0.1	-8.03e-003
6390	10.348	4.1818	0.1	-9.299e-003
6391	10.163	4.1818	0.1	-1.1054e-002
6392	9.9789	4.1818	0.1	-1.3355e-002
6393	9.7944	4.1818	0.1	-1.6367e-002
6394	9.6099	4.1818	0.1	-2.0372e-002
6395	9.4254	4.1818	0.1	-2.5667e-002
6396	9.2409	4.1818	0.1	-3.2674e-002
6397	9.0564	4.1818	0.1	-4.196e-002
6398	8.8719	4.1818	0.1	-5.4284e-002
6399	8.6875	4.1818	0.1	-7.0695e-002
6400	8.503	4.1818	0.1	-9.2606e-002
6401	8.3185	4.1818	0.1	-0.12199
6402	8.134	4.1818	0.1	-0.1616
6403	7.9495	4.1818	0.1	-0.21542
6404	7.765	4.1818	0.1	-0.28932
6405	7.5805	4.1818	0.1	-0.3925
6406	7.396	4.1818	0.1	-0.5401
6407	7.2116	4.1818	0.1	-0.76112
6408	7.0271	4.1818	0.1	-1.1118
6409	6.8426	4.1818	0.1	-1.7525
6410	6.6581	4.1818	0.1	-3.1498
6411	6.4736	4.1818	0.1	-8.5215
6412	6.2891	4.1818	0.1	-64.125
6413	6.1046	4.1818	0.1	-259.19
6414	5.9201	4.1818	0.1	-625.11
6415	5.7356	4.1818	0.1	-1475.2
6416	5.5512	4.1818	0.1	-3620.7
6417	23.816	4.3636	0.1	-150.61
6418	23.631	4.3636	0.1	-140.31
6419	23.447	4.3636	0.1	-130.54
6420	23.262	4.3636	0.1	-121.48
6421	23.078	4.3636	0.1	-113.08
6422	22.893	4.3636	0.1	-105.33
6423	22.709	4.3636	0.1	-98.187
6424	22.524	4.3636	0.1	-91.618
6425	22.34	4.3636	0.1	-85.578
6426	22.155	4.3636	0.1	-80.022
6427	21.971	4.3636	0.1	-74.907
6428	21.786	4.3636	0.1	-70.194
6429	21.602	4.3636	0.1	-65.846
6430	21.417	4.3636	0.1	-61.829
6431	21.233	4.3636	0.1	-58.114
6432	21.048	4.3636	0.1	-54.675
6433	20.864	4.3636	0.1	-51.486
6434	20.679	4.3636	0.1	-48.527
6435	20.495	4.3636	0.1	-45.778
6436	20.31	4.3636	0.1	-43.221
6437	20.126	4.3636	0.1	-40.84
6438	19.941	4.3636	0.1	-38.621
6439	19.757	4.3636	0.1	-36.549
6440	19.572	4.3636	0.1	-34.612
6441	19.388	4.3636	0.1	-32.798
6442	19.203	4.3636	0.1	-31.097
6443	19.019	4.3636	0.1	-29.499
6444	18.834	4.3636	0.1	-27.994
6445	18.65	4.3636	0.1	-26.573
6446	18.465	4.3636	0.1	-25.228
6447	18.281	4.3636	0.1	-23.95
6448	18.096	4.3636	0.1	-22.733
6449	17.912	4.3636	0.1	-21.57
6450	17.727	4.3636	0.1	-20.452
6451	17.543	4.3636	0.1	-19.375
6452	17.358	4.3636	0.1	-18.33
6453	17.174	4.3636	0.1	-17.314
6454	16.989	4.3636	0.1	-16.318
6455	16.805	4.3636	0.1	-15.337
6456	16.62	4.3636	0.1	-14.366
6457	16.436	4.3636	0.1	-13.399
6458	16.251	4.3636	0.1	-12.429
6459	16.067	4.3636	0.1	-11.451
6460	15.883	4.3636	0.1	-10.46
6461	15.698	4.3636	0.1	-9.4483
6462	15.514	4.3636	0.1	-8.4111
6463	15.329	4.3636	0.1	-7.3416
6464	15.145	4.3636	0.1	-6.2338
6465	14.96	4.3636	0.1	-5.0808
6466	14.776	4.3636	0.1	-3.8761
6467	14.591	4.3636	0.1	-2.6132
6468	14.407	4.3636	0.1	-1.2884
6469	14.222	4.3636	0.1	-9.0578e-002
6470	14.038	4.3636	0.1	-1.6366e-002
6471	13.853	4.3636	0.1	-1.0538e-002
6472	13.669	4.3636	0.1	-8.4098e-003
6473	13.484	4.3636	0.1	-7.3192e-003
6474	13.3	4.3636	0.1	-6.6391e-003
6475	13.115	4.3636	0.1	-6.2023e-003
6476	12.931	4.3636	0.1	-5.8786e-003
6477	12.746	4.3636	0.1	-5.6263e-003
6478	12.562	4.3636	0.1	-5.4762e-003
6479	12.377	4.3636	0.1	-5.3815e-003
6480	12.193	4.3636	0.1	-5.3404e-003
6481	12.008	4.3636	0.1	-5.3518e-003
6482	11.824	4.3636	0.1	-5.4645e-003
6483	11.639	4.3636	0.1	-5.6393e-003
6484	11.455	4.3636	0.1	-5.9334e-003
6485	11.27	4.3636	0.1	-6.3187e-003
6486	11.086	4.3636	0.1	-6.82e-003
6487	10.901	4.3636	0.1	-7.5409e-003
6488	10.717	4.3636	0.1	-8.485e-003
6489	10.532	4.3636	0.1	-9.7245e-003
6490	10.348	4.3636	0.1	-1.1334e-002
6491	10.163	4.3636	0.1	-1.3501e-002
6492	9.9789	4.3636	0.1	-1.6307e-002
6493	9.7944	4.3636	0.1	-1.9943e-002
6494	9.6099	4.3636	0.1	-2.4734e-002
6495	9.4254	4.3636	0.1	-3.1035e-002
6496	9.2409	4.3636	0.1	-3.9358e-002
6497	9.0564	4.3636	0.1	-5.0399e-002
6498	8.8719	4.3636	0.1	-6.5119e-002
6499	8.6875	4.3636	0.1	-8.4872e-002
6500	8.503	4.3636	0.1	-0.11156
6501	8.3185	4.3636	0.1	-0.14791
6502	8.134	4.3636	0.1	-0.19796
6503	7.9495	4.3636	0.1	-0.26781
6504	7.765	4.3636	0.1	-0.36708
6505	7.5805	4.3636	0.1	-0.51203
6506	7.396	4.3636	0.1	-0.73236
6507	7.2116	4.3636	0.1	-1.0906
6508	7.0271	4.3636	0.1	-1.7402
6509	6.8426	4.3636	0.1	-3.2089
6510	6.6581	4.3636	0.1	-8.5439
6511	6.4736	4.3636	0.1	-51.085
6512	6.2891	4.3636	0.1	-181.21
6513	6.1046	4.3636	0.1	-418.08
6514	5.9201	4.3636	0.1	-831.89
6515	5.7356	4.3636	0.1	-1607.
6516	5.5512	4.3636	0.1	-3245.1
6517	23.816	4.5455	0.1	-142.4
6518	23.631	4.5455	0.1	-132.16
6519	23.447	4.5455	0.1	-122.56
6520	23.262	4.5455	0.1	-113.76
6521	23.078	4.5455	0.1	-105.68
6522	22.893	4.5455	0.1	-98.308
6523	22.709	4.5455	0.1	-91.584
6524	22.524	4.5455	0.1	-85.453
6525	22.34	4.5455	0.1	-79.856
6526	22.155	4.5455	0.1	-74.737
6527	21.971	4.5455	0.1	-70.046
6528	21.786	4.5455	0.1	-65.737
6529	21.602	4.5455	0.1	-61.772
6530	21.417	4.5455	0.1	-58.114
6531	21.233	4.5455	0.1	-54.735
6532	21.048	4.5455	0.1	-51.607
6533	20.864	4.5455	0.1	-48.707
6534	20.679	4.5455	0.1	-46.014
6535	20.495	4.5455	0.1	-43.511
6536	20.31	4.5455	0.1	-41.18
6537	20.126	4.5455	0.1	-39.007
6538	19.941	4.5455	0.1	-36.979
6539	19.757	4.5455	0.1	-35.083
6540	19.572	4.5455	0.1	-33.308
6541	19.388	4.5455	0.1	-31.644
6542	19.203	4.5455	0.1	-30.081
6543	19.019	4.5455	0.1	-28.609
6544	18.834	4.5455	0.1	-27.221
6545	18.65	4.5455	0.1	-25.909
6546	18.465	4.5455	0.1	-24.664
6547	18.281	4.5455	0.1	-23.481
6548	18.096	4.5455	0.1	-22.352
6549	17.912	4.5455	0.1	-21.271
6550	17.727	4.5455	0.1	-20.232
6551	17.543	4.5455	0.1	-19.228
6552	17.358	4.5455	0.1	-18.255
6553	17.174	4.5455	0.1	-17.306
6554	16.989	4.5455	0.1	-16.376
6555	16.805	4.5455	0.1	-15.46
6556	16.62	4.5455	0.1	-14.552
6557	16.436	4.5455	0.1	-13.647
6558	16.251	4.5455	0.1	-12.74
6559	16.067	4.5455	0.1	-11.826
6560	15.883	4.5455	0.1	-10.899
6561	15.698	4.5455	0.1	-9.9536
6562	15.514	4.5455	0.1	-8.9848
6563	15.329	4.5455	0.1	-7.9865
6564	15.145	4.5455	0.1	-6.9532
6565	14.96	4.5455	0.1	-5.8788
6566	14.776	4.5455	0.1	-4.7572
6567	14.591	4.5455	0.1	-3.5822
6568	14.407	4.5455	0.1	-2.3481
6569	14.222	4.5455	0.1	-1.0546
6570	14.038	4.5455	0.1	-5.8222e-002
6571	13.853	4.5455	0.1	-1.5964e-002
6572	13.669	4.5455	0.1	-1.0421e-002
6573	13.484	4.5455	0.1	-8.3006e-003
6574	13.3	4.5455	0.1	-7.1841e-003
6575	13.115	4.5455	0.1	-6.5374e-003
6576	12.931	4.5455	0.1	-6.1129e-003
6577	12.746	4.5455	0.1	-5.8178e-003
6578	12.562	4.5455	0.1	-5.6656e-003
6579	12.377	4.5455	0.1	-5.5957e-003
6580	12.193	4.5455	0.1	-5.6005e-003
6581	12.008	4.5455	0.1	-5.6776e-003
6582	11.824	4.5455	0.1	-5.8735e-003
6583	11.639	4.5455	0.1	-6.1489e-003
6584	11.455	4.5455	0.1	-6.563e-003
6585	11.27	4.5455	0.1	-7.0885e-003
6586	11.086	4.5455	0.1	-7.7521e-003
6587	10.901	4.5455	0.1	-8.6627e-003
6588	10.717	4.5455	0.1	-9.8293e-003
6589	10.532	4.5455	0.1	-1.1327e-002
6590	10.348	4.5455	0.1	-1.3245e-002
6591	10.163	4.5455	0.1	-1.5781e-002
6592	9.9789	4.5455	0.1	-1.9037e-002
6593	9.7944	4.5455	0.1	-2.3231e-002
6594	9.6099	4.5455	0.1	-2.8734e-002
6595	9.4254	4.5455	0.1	-3.5968e-002
6596	9.2409	4.5455	0.1	-4.555e-002
6597	9.0564	4.5455	0.1	-5.8345e-002
6598	8.8719	4.5455	0.1	-7.559e-002
6599	8.6875	4.5455	0.1	-9.9095e-002
6600	8.503	4.5455	0.1	-0.13152
6601	8.3185	4.5455	0.1	-0.1769
6602	8.134	4.5455	0.1	-0.24156
6603	7.9495	4.5455	0.1	-0.33579
6604	7.765	4.5455	0.1	-0.47731
6605	7.5805	4.5455	0.1	-0.69939
6606	7.396	4.5455	0.1	-1.0723
6607	7.2116	4.5455	0.1	-1.7756
6608	7.0271	4.5455	0.1	-3.4278
6609	6.8426	4.5455	0.1	-9.6981
6610	6.6581	4.5455	0.1	-43.974
6611	6.4736	4.5455	0.1	-125.95
6612	6.2891	4.5455	0.1	-264.89
6613	6.1046	4.5455	0.1	-493.87
6614	5.9201	4.5455	0.1	-867.5
6615	5.7356	4.5455	0.1	-1459.6
6616	5.5512	4.5455	0.1	-2470.
6617	23.816	4.7273	0.1	-132.87
6618	23.631	4.7273	0.1	-122.72
6619	23.447	4.7273	0.1	-113.35
6620	23.262	4.7273	0.1	-104.9
6621	23.078	4.7273	0.1	-97.265
6622	22.893	4.7273	0.1	-90.39
6623	22.709	4.7273	0.1	-84.196
6624	22.524	4.7273	0.1	-78.605
6625	22.34	4.7273	0.1	-73.542
6626	22.155	4.7273	0.1	-68.94
6627	21.971	4.7273	0.1	-64.74
6628	21.786	4.7273	0.1	-60.894
6629	21.602	4.7273	0.1	-57.361
6630	21.417	4.7273	0.1	-54.105
6631	21.233	4.7273	0.1	-51.097
6632	21.048	4.7273	0.1	-48.312
6633	20.864	4.7273	0.1	-45.727
6634	20.679	4.7273	0.1	-43.325
6635	20.495	4.7273	0.1	-41.088
6636	20.31	4.7273	0.1	-39.003
6637	20.126	4.7273	0.1	-37.055
6638	19.941	4.7273	0.1	-35.233
6639	19.757	4.7273	0.1	-33.527
6640	19.572	4.7273	0.1	-31.927
6641	19.388	4.7273	0.1	-30.423
6642	19.203	4.7273	0.1	-29.007
6643	19.019	4.7273	0.1	-27.672
6644	18.834	4.7273	0.1	-26.41
6645	18.65	4.7273	0.1	-25.214
6646	18.465	4.7273	0.1	-24.078
6647	18.281	4.7273	0.1	-22.996
6648	18.096	4.7273	0.1	-21.962
6649	17.912	4.7273	0.1	-20.969
6650	17.727	4.7273	0.1	-20.014
6651	17.543	4.7273	0.1	-19.09
6652	17.358	4.7273	0.1	-18.193
6653	17.174	4.7273	0.1	-17.318
6654	16.989	4.7273	0.1	-16.459
6655	16.805	4.7273	0.1	-15.612
6656	16.62	4.7273	0.1	-14.773
6657	16.436	4.7273	0.1	-13.936
6658	16.251	4.7273	0.1	-13.097
6659	16.067	4.7273	0.1	-12.252
6660	15.883	4.7273	0.1	-11.395
6661	15.698	4.7273	0.1	-10.521
6662	15.514	4.7273	0.1	-9.6267
6663	15.329	4.7273	0.1	-8.7059
6664	15.145	4.7273	0.1	-7.7536
6665	14.96	4.7273	0.1	-6.7646
6666	14.776	4.7273	0.1	-5.7334
6667	14.591	4.7273	0.1	-4.6543
6668	14.407	4.7273	0.1	-3.5217
6669	14.222	4.7273	0.1	-2.3308
6670	14.038	4.7273	0.1	-1.0814
6671	13.853	4.7273	0.1	-7.0677e-002
6672	13.669	4.7273	0.1	-1.6879e-002
6673	13.484	4.7273	0.1	-1.058e-002
6674	13.3	4.7273	0.1	-8.2434e-003
6675	13.115	4.7273	0.1	-7.0965e-003
6676	12.931	4.7273	0.1	-6.4397e-003
6677	12.746	4.7273	0.1	-6.038e-003
6678	12.562	4.7273	0.1	-5.8479e-003
6679	12.377	4.7273	0.1	-5.7842e-003
6680	12.193	4.7273	0.1	-5.8245e-003
6681	12.008	4.7273	0.1	-5.9599e-003
6682	11.824	4.7273	0.1	-6.233e-003
6683	11.639	4.7273	0.1	-6.6047e-003
6684	11.455	4.7273	0.1	-7.1309e-003
6685	11.27	4.7273	0.1	-7.7854e-003
6686	11.086	4.7273	0.1	-8.5974e-003
6687	10.901	4.7273	0.1	-9.6765e-003
6688	10.717	4.7273	0.1	-1.1034e-002
6689	10.532	4.7273	0.1	-1.2752e-002
6690	10.348	4.7273	0.1	-1.4923e-002
6691	10.163	4.7273	0.1	-1.7757e-002
6692	9.9789	4.7273	0.1	-2.1372e-002
6693	9.7944	4.7273	0.1	-2.6013e-002
6694	9.6099	4.7273	0.1	-3.2095e-002
6695	9.4254	4.7273	0.1	-4.0114e-002
6696	9.2409	4.7273	0.1	-5.0816e-002
6697	9.0564	4.7273	0.1	-6.5289e-002
6698	8.8719	4.7273	0.1	-8.5164e-002
6699	8.6875	4.7273	0.1	-0.11296
6700	8.503	4.7273	0.1	-0.15265
6701	8.3185	4.7273	0.1	-0.21075
6702	8.134	4.7273	0.1	-0.29853
6703	7.9495	4.7273	0.1	-0.43663
6704	7.765	4.7273	0.1	-0.66666
6705	7.5805	4.7273	0.1	-1.0845
6706	7.396	4.7273	0.1	-1.9643
6707	7.2116	4.7273	0.1	-4.4136
6708	7.0271	4.7273	0.1	-14.565
6709	6.8426	4.7273	0.1	-44.631
6710	6.6581	4.7273	0.1	-96.114
6711	6.4736	4.7273	0.1	-175.8
6712	6.2891	4.7273	0.1	-299.18
6713	6.1046	4.7273	0.1	-490.44
6714	5.9201	4.7273	0.1	-781.49
6715	5.7356	4.7273	0.1	-1215.2
6716	5.5512	4.7273	0.1	-1922.
6717	23.816	4.9091	0.1	-121.87
6718	23.631	4.9091	0.1	-111.86
6719	23.447	4.9091	0.1	-102.85
6720	23.262	4.9091	0.1	-94.885
6721	23.078	4.9091	0.1	-87.839
6722	22.893	4.9091	0.1	-81.612
6723	22.709	4.9091	0.1	-76.086
6724	22.524	4.9091	0.1	-71.153
6725	22.34	4.9091	0.1	-66.722
6726	22.155	4.9091	0.1	-62.717
6727	21.971	4.9091	0.1	-59.075
6728	21.786	4.9091	0.1	-55.746
6729	21.602	4.9091	0.1	-52.69
6730	21.417	4.9091	0.1	-49.873
6731	21.233	4.9091	0.1	-47.267
6732	21.048	4.9091	0.1	-44.85
6733	20.864	4.9091	0.1	-42.604
6734	20.679	4.9091	0.1	-40.511
6735	20.495	4.9091	0.1	-38.558
6736	20.31	4.9091	0.1	-36.731
6737	20.126	4.9091	0.1	-35.021
6738	19.941	4.9091	0.1	-33.418
6739	19.757	4.9091	0.1	-31.912
6740	19.572	4.9091	0.1	-30.495
6741	19.388	4.9091	0.1	-29.16
6742	19.203	4.9091	0.1	-27.9
6743	19.019	4.9091	0.1	-26.708
6744	18.834	4.9091	0.1	-25.579
6745	18.65	4.9091	0.1	-24.506
6746	18.465	4.9091	0.1	-23.484
6747	18.281	4.9091	0.1	-22.509
6748	18.096	4.9091	0.1	-21.574
6749	17.912	4.9091	0.1	-20.676
6750	17.727	4.9091	0.1	-19.809
6751	17.543	4.9091	0.1	-18.97
6752	17.358	4.9091	0.1	-18.153
6753	17.174	4.9091	0.1	-17.356
6754	16.989	4.9091	0.1	-16.572
6755	16.805	4.9091	0.1	-15.799
6756	16.62	4.9091	0.1	-15.033
6757	16.436	4.9091	0.1	-14.268
6758	16.251	4.9091	0.1	-13.502
6759	16.067	4.9091	0.1	-12.73
6760	15.883	4.9091	0.1	-11.948
6761	15.698	4.9091	0.1	-11.151
6762	15.514	4.9091	0.1	-10.336
6763	15.329	4.9091	0.1	-9.4979
6764	15.145	4.9091	0.1	-8.6323
6765	14.96	4.9091	0.1	-7.7346
6766	14.776	4.9091	0.1	-6.8
6767	14.591	4.9091	0.1	-5.8237
6768	14.407	4.9091	0.1	-4.8005
6769	14.222	4.9091	0.1	-3.7256
6770	14.038	4.9091	0.1	-2.5941
6771	13.853	4.9091	0.1	-1.4041
6772	13.669	4.9091	0.1	-0.22335
6773	13.484	4.9091	0.1	-2.0707e-002
6774	13.3	4.9091	0.1	-1.1205e-002
6775	13.115	4.9091	0.1	-8.3369e-003
6776	12.931	4.9091	0.1	-7.0421e-003
6777	12.746	4.9091	0.1	-6.3679e-003
6778	12.562	4.9091	0.1	-6.0651e-003
6779	12.377	4.9091	0.1	-5.9711e-003
6780	12.193	4.9091	0.1	-6.0316e-003
6781	12.008	4.9091	0.1	-6.2193e-003
6782	11.824	4.9091	0.1	-6.5686e-003
6783	11.639	4.9091	0.1	-7.0339e-003
6784	11.455	4.9091	0.1	-7.6697e-003
6785	11.27	4.9091	0.1	-8.447e-003
6786	11.086	4.9091	0.1	-9.3932e-003
6787	10.901	4.9091	0.1	-1.0619e-002
6788	10.717	4.9091	0.1	-1.2134e-002
6789	10.532	4.9091	0.1	-1.4023e-002
6790	10.348	4.9091	0.1	-1.6379e-002
6791	10.163	4.9091	0.1	-1.9419e-002
6792	9.9789	4.9091	0.1	-2.3271e-002
6793	9.7944	4.9091	0.1	-2.8201e-002
6794	9.6099	4.9091	0.1	-3.4666e-002
6795	9.4254	4.9091	0.1	-4.3242e-002
6796	9.2409	4.9091	0.1	-5.483e-002
6797	9.0564	4.9091	0.1	-7.0819e-002
6798	8.8719	4.9091	0.1	-9.344e-002
6799	8.6875	4.9091	0.1	-0.12643
6800	8.503	4.9091	0.1	-0.17634
6801	8.3185	4.9091	0.1	-0.2555
6802	8.134	4.9091	0.1	-0.38924
6803	7.9495	4.9091	0.1	-0.63698
6804	7.765	4.9091	0.1	-1.1696
6805	7.5805	4.9091	0.1	-2.6669
6806	7.396	4.9091	0.1	-8.6299
6807	7.2116	4.9091	0.1	-24.865
6808	7.0271	4.9091	0.1	-49.794
6809	6.8426	4.9091	0.1	-83.821
6810	6.6581	4.9091	0.1	-130.58
6811	6.4736	4.9091	0.1	-196.66
6812	6.2891	4.9091	0.1	-292.68
6813	6.1046	4.9091	0.1	-434.82
6814	5.9201	4.9091	0.1	-644.28
6815	5.7356	4.9091	0.1	-950.19
6816	5.5512	4.9091	0.1	-1471.1
6817	23.816	5.0909	0.1	-109.19
6818	23.631	5.0909	0.1	-99.434
6819	23.447	5.0909	0.1	-90.94
6820	23.262	5.0909	0.1	-83.687
6821	23.078	5.0909	0.1	-77.45
6822	22.893	5.0909	0.1	-72.064
6823	22.709	5.0909	0.1	-67.364
6824	22.524	5.0909	0.1	-63.216
6825	22.34	5.0909	0.1	-59.517
6826	22.155	5.0909	0.1	-56.186
6827	21.971	5.0909	0.1	-53.161
6828	21.786	5.0909	0.1	-50.395
6829	21.602	5.0909	0.1	-47.851
6830	21.417	5.0909	0.1	-45.501
6831	21.233	5.0909	0.1	-43.321
6832	21.048	5.0909	0.1	-41.292
6833	20.864	5.0909	0.1	-39.399
6834	20.679	5.0909	0.1	-37.628
6835	20.495	5.0909	0.1	-35.969
6836	20.31	5.0909	0.1	-34.412
6837	20.126	5.0909	0.1	-32.949
6838	19.941	5.0909	0.1	-31.57
6839	19.757	5.0909	0.1	-30.271
6840	19.572	5.0909	0.1	-29.044
6841	19.388	5.0909	0.1	-27.883
6842	19.203	5.0909	0.1	-26.784
6843	19.019	5.0909	0.1	-25.741
6844	18.834	5.0909	0.1	-24.749
6845	18.65	5.0909	0.1	-23.803
6846	18.465	5.0909	0.1	-22.9
6847	18.281	5.0909	0.1	-22.035
6848	18.096	5.0909	0.1	-21.203
6849	17.912	5.0909	0.1	-20.402
6850	17.727	5.0909	0.1	-19.628
6851	17.543	5.0909	0.1	-18.876
6852	17.358	5.0909	0.1	-18.144
6853	17.174	5.0909	0.1	-17.427
6854	16.989	5.0909	0.1	-16.722
6855	16.805	5.0909	0.1	-16.027
6856	16.62	5.0909	0.1	-15.336
6857	16.436	5.0909	0.1	-14.647
6858	16.251	5.0909	0.1	-13.957
6859	16.067	5.0909	0.1	-13.262
6860	15.883	5.0909	0.1	-12.559
6861	15.698	5.0909	0.1	-11.843
6862	15.514	5.0909	0.1	-11.112
6863	15.329	5.0909	0.1	-10.361
6864	15.145	5.0909	0.1	-9.5865
6865	14.96	5.0909	0.1	-8.7851
6866	14.776	5.0909	0.1	-7.9525
6867	14.591	5.0909	0.1	-7.0845
6868	14.407	5.0909	0.1	-6.1769
6869	14.222	5.0909	0.1	-5.2253
6870	14.038	5.0909	0.1	-4.2254
6871	13.853	5.0909	0.1	-3.173
6872	13.669	5.0909	0.1	-2.0643
6873	13.484	5.0909	0.1	-0.90185
6874	13.3	5.0909	0.1	-4.7933e-002
6875	13.115	5.0909	0.1	-1.3352e-002
6876	12.931	5.0909	0.1	-8.6286e-003
6877	12.746	5.0909	0.1	-6.9599e-003
6878	12.562	5.0909	0.1	-6.2891e-003
6879	12.377	5.0909	0.1	-6.0602e-003
6880	12.193	5.0909	0.1	-6.093e-003
6881	12.008	5.0909	0.1	-6.3112e-003
6882	11.824	5.0909	0.1	-6.7238e-003
6883	11.639	5.0909	0.1	-7.2751e-003
6884	11.455	5.0909	0.1	-8.0109e-003
6885	11.27	5.0909	0.1	-8.8977e-003
6886	11.086	5.0909	0.1	-9.9601e-003
6887	10.901	5.0909	0.1	-1.1303e-002
6888	10.717	5.0909	0.1	-1.2935e-002
6889	10.532	5.0909	0.1	-1.4937e-002
6890	10.348	5.0909	0.1	-1.7401e-002
6891	10.163	5.0909	0.1	-2.0541e-002
6892	9.9789	5.0909	0.1	-2.449e-002
6893	9.7944	5.0909	0.1	-2.953e-002
6894	9.6099	5.0909	0.1	-3.6152e-002
6895	9.4254	5.0909	0.1	-4.5018e-002
6896	9.2409	5.0909	0.1	-5.7222e-002
6897	9.0564	5.0909	0.1	-7.4587e-002
6898	8.8719	5.0909	0.1	-0.10034
6899	8.6875	5.0909	0.1	-0.14066
6900	8.503	5.0909	0.1	-0.20835
6901	8.3185	5.0909	0.1	-0.33462
6902	8.134	5.0909	0.1	-0.61366
6903	7.9495	5.0909	0.1	-1.4662
6904	7.765	5.0909	0.1	-5.6545
6905	7.5805	5.0909	0.1	-17.37
6906	7.396	5.0909	0.1	-33.773
6907	7.2116	5.0909	0.1	-54.035
6908	7.0271	5.0909	0.1	-78.662
6909	6.8426	5.0909	0.1	-108.77
6910	6.6581	5.0909	0.1	-146.35
6911	6.4736	5.0909	0.1	-194.88
6912	6.2891	5.0909	0.1	-260.49
6913	6.1046	5.0909	0.1	-353.76
6914	5.9201	5.0909	0.1	-491.5
6915	5.7356	5.0909	0.1	-703.7
6916	5.5512	5.0909	0.1	-1099.1
6917	23.816	5.2727	0.1	-94.542
6918	23.631	5.2727	0.1	-85.231
6919	23.447	5.2727	0.1	-77.573
6920	23.262	5.2727	0.1	-71.362
6921	23.078	5.2727	0.1	-66.228
6922	22.893	5.2727	0.1	-61.914
6923	22.709	5.2727	0.1	-58.211
6924	22.524	5.2727	0.1	-54.972
6925	22.34	5.2727	0.1	-52.092
6926	22.155	5.2727	0.1	-49.497
6927	21.971	5.2727	0.1	-47.133
6928	21.786	5.2727	0.1	-44.961
6929	21.602	5.2727	0.1	-42.954
6930	21.417	5.2727	0.1	-41.087
6931	21.233	5.2727	0.1	-39.345
6932	21.048	5.2727	0.1	-37.713
6933	20.864	5.2727	0.1	-36.181
6934	20.679	5.2727	0.1	-34.739
6935	20.495	5.2727	0.1	-33.379
6936	20.31	5.2727	0.1	-32.095
6937	20.126	5.2727	0.1	-30.881
6938	19.941	5.2727	0.1	-29.732
6939	19.757	5.2727	0.1	-28.642
6940	19.572	5.2727	0.1	-27.607
6941	19.388	5.2727	0.1	-26.624
6942	19.203	5.2727	0.1	-25.688
6943	19.019	5.2727	0.1	-24.795
6944	18.834	5.2727	0.1	-23.942
6945	18.65	5.2727	0.1	-23.125
6946	18.465	5.2727	0.1	-22.342
6947	18.281	5.2727	0.1	-21.59
6948	18.096	5.2727	0.1	-20.864
6949	17.912	5.2727	0.1	-20.162
6950	17.727	5.2727	0.1	-19.482
6951	17.543	5.2727	0.1	-18.82
6952	17.358	5.2727	0.1	-18.173
6953	17.174	5.2727	0.1	-17.54
6954	16.989	5.2727	0.1	-16.916
6955	16.805	5.2727	0.1	-16.3
6956	16.62	5.2727	0.1	-15.688
6957	16.436	5.2727	0.1	-15.077
6958	16.251	5.2727	0.1	-14.466
6959	16.067	5.2727	0.1	-13.851
6960	15.883	5.2727	0.1	-13.229
6961	15.698	5.2727	0.1	-12.597
6962	15.514	5.2727	0.1	-11.953
6963	15.329	5.2727	0.1	-11.292
6964	15.145	5.2727	0.1	-10.614
6965	14.96	5.2727	0.1	-9.9125
6966	14.776	5.2727	0.1	-9.1862
6967	14.591	5.2727	0.1	-8.4312
6968	14.407	5.2727	0.1	-7.644
6969	14.222	5.2727	0.1	-6.8212
6970	14.038	5.2727	0.1	-5.959
6971	13.853	5.2727	0.1	-5.0541
6972	13.669	5.2727	0.1	-4.1028
6973	13.484	5.2727	0.1	-3.1018
6974	13.3	5.2727	0.1	-2.0481
6975	13.115	5.2727	0.1	-0.94239
6976	12.931	5.2727	0.1	-4.2857e-002
6977	12.746	5.2727	0.1	-1.0434e-002
6978	12.562	5.2727	0.1	-7.3505e-003
6979	12.377	5.2727	0.1	-6.577e-003
6980	12.193	5.2727	0.1	-6.5159e-003
6981	12.008	5.2727	0.1	-6.7984e-003
6982	11.824	5.2727	0.1	-7.3459e-003
6983	11.639	5.2727	0.1	-8.0628e-003
6984	11.455	5.2727	0.1	-8.9792e-003
6985	11.27	5.2727	0.1	-1.005e-002
6986	11.086	5.2727	0.1	-1.1292e-002
6987	10.901	5.2727	0.1	-1.2802e-002
6988	10.717	5.2727	0.1	-1.458e-002
6989	10.532	5.2727	0.1	-1.6694e-002
6990	10.348	5.2727	0.1	-1.9226e-002
6991	10.163	5.2727	0.1	-2.238e-002
6992	9.9789	5.2727	0.1	-2.6274e-002
6993	9.7944	5.2727	0.1	-3.1187e-002
6994	9.6099	5.2727	0.1	-3.763e-002
6995	9.4254	5.2727	0.1	-4.6347e-002
6996	9.2409	5.2727	0.1	-5.8669e-002
6997	9.0564	5.2727	0.1	-7.7088e-002
6998	8.8719	5.2727	0.1	-0.10675
6999	8.6875	5.2727	0.1	-0.15984
7000	8.503	5.2727	0.1	-0.27233
7001	8.3185	5.2727	0.1	-0.60262
7002	8.134	5.2727	0.1	-2.5638
7003	7.9495	5.2727	0.1	-10.544
7004	7.765	5.2727	0.1	-22.197
7005	7.5805	5.2727	0.1	-36.401
7006	7.396	5.2727	0.1	-53.136
7007	7.2116	5.2727	0.1	-72.46
7008	7.0271	5.2727	0.1	-94.418
7009	6.8426	5.2727	0.1	-119.1
7010	6.6581	5.2727	0.1	-146.79
7011	6.4736	5.2727	0.1	-178.44
7012	6.2891	5.2727	0.1	-216.61
7013	6.1046	5.2727	0.1	-267.67
7014	5.9201	5.2727	0.1	-345.58
7015	5.7356	5.2727	0.1	-482.44
7016	5.5512	5.2727	0.1	-782.07
7017	23.816	5.4545	0.1	-77.504
7018	23.631	5.4545	0.1	-69.063
7019	23.447	5.4545	0.1	-62.81
7020	23.262	5.4545	0.1	-58.142
7021	23.078	5.4545	0.1	-54.473
7022	22.893	5.4545	0.1	-51.469
7023	22.709	5.4545	0.1	-48.914
7024	22.524	5.4545	0.1	-46.676
7025	22.34	5.4545	0.1	-44.672
7026	22.155	5.4545	0.1	-42.846
7027	21.971	5.4545	0.1	-41.163
7028	21.786	5.4545	0.1	-39.596
7029	21.602	5.4545	0.1	-38.129
7030	21.417	5.4545	0.1	-36.748
7031	21.233	5.4545	0.1	-35.444
7032	21.048	5.4545	0.1	-34.207
7033	20.864	5.4545	0.1	-33.034
7034	20.679	5.4545	0.1	-31.918
7035	20.495	5.4545	0.1	-30.855
7036	20.31	5.4545	0.1	-29.842
7037	20.126	5.4545	0.1	-28.876
7038	19.941	5.4545	0.1	-27.953
7039	19.757	5.4545	0.1	-27.072
7040	19.572	5.4545	0.1	-26.228
7041	19.388	5.4545	0.1	-25.421
7042	19.203	5.4545	0.1	-24.646
7043	19.019	5.4545	0.1	-23.903
7044	18.834	5.4545	0.1	-23.189
7045	18.65	5.4545	0.1	-22.502
7046	18.465	5.4545	0.1	-21.839
7047	18.281	5.4545	0.1	-21.198
7048	18.096	5.4545	0.1	-20.578
7049	17.912	5.4545	0.1	-19.976
7050	17.727	5.4545	0.1	-19.39
7051	17.543	5.4545	0.1	-18.818
7052	17.358	5.4545	0.1	-18.259
7053	17.174	5.4545	0.1	-17.709
7054	16.989	5.4545	0.1	-17.167
7055	16.805	5.4545	0.1	-16.631
7056	16.62	5.4545	0.1	-16.099
7057	16.436	5.4545	0.1	-15.568
7058	16.251	5.4545	0.1	-15.037
7059	16.067	5.4545	0.1	-14.503
7060	15.883	5.4545	0.1	-13.965
7061	15.698	5.4545	0.1	-13.419
7062	15.514	5.4545	0.1	-12.864
7063	15.329	5.4545	0.1	-12.297
7064	15.145	5.4545	0.1	-11.716
7065	14.96	5.4545	0.1	-11.119
7066	14.776	5.4545	0.1	-10.502
7067	14.591	5.4545	0.1	-9.8631
7068	14.407	5.4545	0.1	-9.1998
7069	14.222	5.4545	0.1	-8.5096
7070	14.038	5.4545	0.1	-7.7893
7071	13.853	5.4545	0.1	-7.0366
7072	13.669	5.4545	0.1	-6.2484
7073	13.484	5.4545	0.1	-5.4225
7074	13.3	5.4545	0.1	-4.556
7075	13.115	5.4545	0.1	-3.6471
7076	12.931	5.4545	0.1	-2.6934
7077	12.746	5.4545	0.1	-1.6936
7078	12.562	5.4545	0.1	-0.64831
7079	12.377	5.4545	0.1	-8.1851e-003
7080	12.193	5.4545	0.1	-5.2057e-003
7081	12.008	5.4545	0.1	-5.3477e-003
7082	11.824	5.4545	0.1	-5.9821e-003
7083	11.639	5.4545	0.1	-6.8206e-003
7084	11.455	5.4545	0.1	-7.8564e-003
7085	11.27	5.4545	0.1	-9.0337e-003
7086	11.086	5.4545	0.1	-1.0366e-002
7087	10.901	5.4545	0.1	-1.1947e-002
7088	10.717	5.4545	0.1	-1.3774e-002
7089	10.532	5.4545	0.1	-1.591e-002
7090	10.348	5.4545	0.1	-1.8431e-002
7091	10.163	5.4545	0.1	-2.1534e-002
7092	9.9789	5.4545	0.1	-2.5334e-002
7093	9.7944	5.4545	0.1	-3.0115e-002
7094	9.6099	5.4545	0.1	-3.6425e-002
7095	9.4254	5.4545	0.1	-4.5138e-002
7096	9.2409	5.4545	0.1	-5.8002e-002
7097	9.0564	5.4545	0.1	-7.8881e-002
7098	8.8719	5.4545	0.1	-0.11811
7099	8.6875	5.4545	0.1	-0.21408
7100	8.503	5.4545	0.1	-0.65824
7101	8.3185	5.4545	0.1	-4.4087
7102	8.134	5.4545	0.1	-11.822
7103	7.9495	5.4545	0.1	-21.196
7104	7.765	5.4545	0.1	-32.498
7105	7.5805	5.4545	0.1	-45.779
7106	7.396	5.4545	0.1	-61.01
7107	7.2116	5.4545	0.1	-78.023
7108	7.0271	5.4545	0.1	-96.454
7109	6.8426	5.4545	0.1	-115.71
7110	6.6581	5.4545	0.1	-135.
7111	6.4736	5.4545	0.1	-153.57
7112	6.2891	5.4545	0.1	-171.36
7113	6.1046	5.4545	0.1	-190.96
7114	5.9201	5.4545	0.1	-221.79
7115	5.7356	5.4545	0.1	-293.97
7116	5.5512	5.4545	0.1	-509.02
7117	23.816	5.6364	0.1	-57.367
7118	23.631	5.6364	0.1	-50.904
7119	23.447	5.6364	0.1	-47.116
7120	23.262	5.6364	0.1	-44.647
7121	23.078	5.6364	0.1	-42.792
7122	22.893	5.6364	0.1	-41.273
7123	22.709	5.6364	0.1	-39.948
7124	22.524	5.6364	0.1	-38.745
7125	22.34	5.6364	0.1	-37.624
7126	22.155	5.6364	0.1	-36.564
7127	21.971	5.6364	0.1	-35.55
7128	21.786	5.6364	0.1	-34.575
7129	21.602	5.6364	0.1	-33.634
7130	21.417	5.6364	0.1	-32.724
7131	21.233	5.6364	0.1	-31.843
7132	21.048	5.6364	0.1	-30.989
7133	20.864	5.6364	0.1	-30.162
7134	20.679	5.6364	0.1	-29.361
7135	20.495	5.6364	0.1	-28.586
7136	20.31	5.6364	0.1	-27.835
7137	20.126	5.6364	0.1	-27.109
7138	19.941	5.6364	0.1	-26.406
7139	19.757	5.6364	0.1	-25.725
7140	19.572	5.6364	0.1	-25.067
7141	19.388	5.6364	0.1	-24.429
7142	19.203	5.6364	0.1	-23.812
7143	19.019	5.6364	0.1	-23.214
7144	18.834	5.6364	0.1	-22.635
7145	18.65	5.6364	0.1	-22.072
7146	18.465	5.6364	0.1	-21.526
7147	18.281	5.6364	0.1	-20.994
7148	18.096	5.6364	0.1	-20.477
7149	17.912	5.6364	0.1	-19.971
7150	17.727	5.6364	0.1	-19.477
7151	17.543	5.6364	0.1	-18.993
7152	17.358	5.6364	0.1	-18.518
7153	17.174	5.6364	0.1	-18.05
7154	16.989	5.6364	0.1	-17.589
7155	16.805	5.6364	0.1	-17.132
7156	16.62	5.6364	0.1	-16.678
7157	16.436	5.6364	0.1	-16.226
7158	16.251	5.6364	0.1	-15.774
7159	16.067	5.6364	0.1	-15.321
7160	15.883	5.6364	0.1	-14.866
7161	15.698	5.6364	0.1	-14.406
7162	15.514	5.6364	0.1	-13.94
7163	15.329	5.6364	0.1	-13.467
7164	15.145	5.6364	0.1	-12.984
7165	14.96	5.6364	0.1	-12.49
7166	14.776	5.6364	0.1	-11.984
7167	14.591	5.6364	0.1	-11.462
7168	14.407	5.6364	0.1	-10.924
7169	14.222	5.6364	0.1	-10.368
7170	14.038	5.6364	0.1	-9.7908
7171	13.853	5.6364	0.1	-9.1916
7172	13.669	5.6364	0.1	-8.5683
7173	13.484	5.6364	0.1	-7.9191
7174	13.3	5.6364	0.1	-7.2423
7175	13.115	5.6364	0.1	-6.5366
7176	12.931	5.6364	0.1	-5.8006
7177	12.746	5.6364	0.1	-5.0334
7178	12.562	5.6364	0.1	-4.2347
7179	12.377	5.6364	0.1	-3.4047
7180	12.193	5.6364	0.1	-2.5445
7181	12.008	5.6364	0.1	-1.6563
7182	11.824	5.6364	0.1	-0.74645
7183	11.639	5.6364	0.1	-4.8603e-002
7184	11.455	5.6364	0.1	-2.942e-002
7185	11.27	5.6364	0.1	-2.9366e-002
7186	11.086	5.6364	0.1	-3.0993e-002
7187	10.901	5.6364	0.1	-3.3243e-002
7188	10.717	5.6364	0.1	-3.5796e-002
7189	10.532	5.6364	0.1	-3.8566e-002
7190	10.348	5.6364	0.1	-4.151e-002
7191	10.163	5.6364	0.1	-4.4721e-002
7192	9.9789	5.6364	0.1	-4.8211e-002
7193	9.7944	5.6364	0.1	-5.2174e-002
7194	9.6099	5.6364	0.1	-5.7143e-002
7195	9.4254	5.6364	0.1	-6.4239e-002
7196	9.2409	5.6364	0.1	-7.6479e-002
7197	9.0564	5.6364	0.1	-0.10386
7198	8.8719	5.6364	0.1	-0.20139
7199	8.6875	5.6364	0.1	-1.2079
7200	8.503	5.6364	0.1	-4.8612
7201	8.3185	5.6364	0.1	-9.8926
7202	8.134	5.6364	0.1	-16.215
7203	7.9495	5.6364	0.1	-23.942
7204	7.765	5.6364	0.1	-33.172
7205	7.5805	5.6364	0.1	-43.951
7206	7.396	5.6364	0.1	-56.223
7207	7.2116	5.6364	0.1	-69.773
7208	7.0271	5.6364	0.1	-84.161
7209	6.8426	5.6364	0.1	-98.636
7210	6.6581	5.6364	0.1	-112.09
7211	6.4736	5.6364	0.1	-123.09
7212	6.2891	5.6364	0.1	-130.19
7213	6.1046	5.6364	0.1	-132.97
7214	5.9201	5.6364	0.1	-134.72
7215	5.7356	5.6364	0.1	-154.55
7216	5.5512	5.6364	0.1	-280.51
7217	23.816	5.8182	0.1	-34.142
7218	23.631	5.8182	0.1	-33.172
7219	23.447	5.8182	0.1	-33.506
7220	23.262	5.8182	0.1	-33.848
7221	23.078	5.8182	0.1	-34.051
7222	22.893	5.8182	0.1	-34.114
7223	22.709	5.8182	0.1	-34.053
7224	22.524	5.8182	0.1	-33.891
7225	22.34	5.8182	0.1	-33.646
7226	22.155	5.8182	0.1	-33.335
7227	21.971	5.8182	0.1	-32.969
7228	21.786	5.8182	0.1	-32.561
7229	21.602	5.8182	0.1	-32.119
7230	21.417	5.8182	0.1	-31.65
7231	21.233	5.8182	0.1	-31.161
7232	21.048	5.8182	0.1	-30.658
7233	20.864	5.8182	0.1	-30.144
7234	20.679	5.8182	0.1	-29.623
7235	20.495	5.8182	0.1	-29.099
7236	20.31	5.8182	0.1	-28.574
7237	20.126	5.8182	0.1	-28.05
7238	19.941	5.8182	0.1	-27.529
7239	19.757	5.8182	0.1	-27.012
7240	19.572	5.8182	0.1	-26.501
7241	19.388	5.8182	0.1	-25.996
7242	19.203	5.8182	0.1	-25.498
7243	19.019	5.8182	0.1	-25.008
7244	18.834	5.8182	0.1	-24.525
7245	18.65	5.8182	0.1	-24.05
7246	18.465	5.8182	0.1	-23.583
7247	18.281	5.8182	0.1	-23.124
7248	18.096	5.8182	0.1	-22.673
7249	17.912	5.8182	0.1	-22.229
7250	17.727	5.8182	0.1	-21.791
7251	17.543	5.8182	0.1	-21.36
7252	17.358	5.8182	0.1	-20.935
7253	17.174	5.8182	0.1	-20.516
7254	16.989	5.8182	0.1	-20.1
7255	16.805	5.8182	0.1	-19.689
7256	16.62	5.8182	0.1	-19.281
7257	16.436	5.8182	0.1	-18.875
7258	16.251	5.8182	0.1	-18.471
7259	16.067	5.8182	0.1	-18.068
7260	15.883	5.8182	0.1	-17.664
7261	15.698	5.8182	0.1	-17.259
7262	15.514	5.8182	0.1	-16.852
7263	15.329	5.8182	0.1	-16.442
7264	15.145	5.8182	0.1	-16.027
7265	14.96	5.8182	0.1	-15.607
7266	14.776	5.8182	0.1	-15.181
7267	14.591	5.8182	0.1	-14.747
7268	14.407	5.8182	0.1	-14.305
7269	14.222	5.8182	0.1	-13.852
7270	14.038	5.8182	0.1	-13.389
7271	13.853	5.8182	0.1	-12.913
7272	13.669	5.8182	0.1	-12.424
7273	13.484	5.8182	0.1	-11.92
7274	13.3	5.8182	0.1	-11.401
7275	13.115	5.8182	0.1	-10.866
7276	12.931	5.8182	0.1	-10.314
7277	12.746	5.8182	0.1	-9.7445
7278	12.562	5.8182	0.1	-9.1576
7279	12.377	5.8182	0.1	-8.5534
7280	12.193	5.8182	0.1	-7.9328
7281	12.008	5.8182	0.1	-7.2969
7282	11.824	5.8182	0.1	-6.6482
7283	11.639	5.8182	0.1	-5.9897
7284	11.455	5.8182	0.1	-5.3259
7285	11.27	5.8182	0.1	-4.6628
7286	11.086	5.8182	0.1	-4.0081
7287	10.901	5.8182	0.1	-3.3727
7288	10.717	5.8182	0.1	-2.7695
7289	10.532	5.8182	0.1	-2.2162
7290	10.348	5.8182	0.1	-1.7337
7291	10.163	5.8182	0.1	-1.3465
7292	9.9789	5.8182	0.1	-1.0754
7293	9.7944	5.8182	0.1	-0.93167
7294	9.6099	5.8182	0.1	-0.92283
7295	9.4254	5.8182	0.1	-1.0814
7296	9.2409	5.8182	0.1	-1.4862
7297	9.0564	5.8182	0.1	-2.2383
7298	8.8719	5.8182	0.1	-3.4227
7299	8.6875	5.8182	0.1	-5.1151
7300	8.503	5.8182	0.1	-7.3987
7301	8.3185	5.8182	0.1	-10.368
7302	8.134	5.8182	0.1	-14.128
7303	7.9495	5.8182	0.1	-18.785
7304	7.765	5.8182	0.1	-24.445
7305	7.5805	5.8182	0.1	-31.195
7306	7.396	5.8182	0.1	-39.086
7307	7.2116	5.8182	0.1	-48.099
7308	7.0271	5.8182	0.1	-58.1
7309	6.8426	5.8182	0.1	-68.777
7310	6.6581	5.8182	0.1	-79.564
7311	6.4736	5.8182	0.1	-89.577
7312	6.2891	5.8182	0.1	-97.568
7313	6.1046	5.8182	0.1	-102.13
7314	5.9201	5.8182	0.1	-101.93
7315	5.7356	5.8182	0.1	-101.53
7316	5.5512	5.8182	0.1	-137.63
7317	0.17931	0.18182	0.1	-322.24
7318	0.17931	0.36364	0.1	-620.74
7319	0.17931	0.54545	0.1	-750.8
7320	0.17931	0.72727	0.1	-834.6
7321	0.17931	0.90909	0.1	-887.8
7322	0.17931	1.0909	0.1	-925.82
7323	0.17931	1.2727	0.1	-953.3
7324	0.17931	1.4545	0.1	-973.76
7325	0.17931	1.6364	0.1	-989.12
7326	0.17931	1.8182	0.1	-1000.7
7327	0.17931	2.	0.1	-1009.4
7328	0.17931	2.1818	0.1	-1015.8
7329	0.17931	2.3636	0.1	-1020.5
7330	0.17931	2.5455	0.1	-1023.8
7331	0.17931	2.7273	0.1	-1025.8
7332	0.17931	2.9091	0.1	-1026.8
7333	0.17931	3.0909	0.1	-1026.8
7334	0.17931	3.2727	0.1	-1025.8
7335	0.17931	3.4545	0.1	-1023.8
7336	0.17931	3.6364	0.1	-1020.5
7337	0.17931	3.8182	0.1	-1015.8
7338	0.17931	4.	0.1	-1009.4
7339	0.17931	4.1818	0.1	-1000.7
7340	0.17931	4.3636	0.1	-989.12
7341	0.17931	4.5455	0.1	-973.76
7342	0.17931	4.7273	0.1	-953.3
7343	0.17931	4.9091	0.1	-925.82
7344	0.17931	5.0909	0.1	-887.8
7345	0.17931	5.2727	0.1	-834.6
7346	0.17931	5.4545	0.1	-750.8
7347	0.17931	5.6364	0.1	-620.74
7348	0.17931	5.8182	0.1	-322.24
7349	0.35862	0.18182	0.1	-78.04
7350	0.35862	0.36364	0.1	140.43
7351	0.35862	0.54545	0.1	185.63
7352	0.35862	0.72727	0.1	208.33
7353	0.35862	0.90909	0.1	222.91
7354	0.35862	1.0909	0.1	233.03
7355	0.35862	1.2727	0.1	240.32
7356	0.35862	1.4545	0.1	245.71
7357	0.35862	1.6364	0.1	249.75
7358	0.35862	1.8182	0.1	252.78
7359	0.35862	2.	0.1	255.06
7360	0.35862	2.1818	0.1	256.76
7361	0.35862	2.3636	0.1	257.98
7362	0.35862	2.5455	0.1	258.83
7363	0.35862	2.7273	0.1	259.37
7364	0.35862	2.9091	0.1	259.63
7365	0.35862	3.0909	0.1	259.63
7366	0.35862	3.2727	0.1	259.37
7367	0.35862	3.4545	0.1	258.83
7368	0.35862	3.6364	0.1	257.98
7369	0.35862	3.8182	0.1	256.76
7370	0.35862	4.	0.1	255.06
7371	0.35862	4.1818	0.1	252.78
7372	0.35862	4.3636	0.1	249.75
7373	0.35862	4.5455	0.1	245.71
7374	0.35862	4.7273	0.1	240.32
7375	0.35862	4.9091	0.1	233.03
7376	0.35862	5.0909	0.1	222.91
7377	0.35862	5.2727	0.1	208.33
7378	0.35862	5.4545	0.1	185.63
7379	0.35862	5.6364	0.1	140.43
7380	0.35862	5.8182	0.1	-78.039
7381	0.53793	0.18182	0.1	-96.715
7382	0.53793	0.36364	0.1	-41.18
7383	0.53793	0.54545	0.1	-49.833
7384	0.53793	0.72727	0.1	-54.414
7385	0.53793	0.90909	0.1	-57.577
7386	0.53793	1.0909	0.1	-59.862
7387	0.53793	1.2727	0.1	-61.529
7388	0.53793	1.4545	0.1	-62.766
7389	0.53793	1.6364	0.1	-63.695
7390	0.53793	1.8182	0.1	-64.392
7391	0.53793	2.	0.1	-64.915
7392	0.53793	2.1818	0.1	-65.302
7393	0.53793	2.3636	0.1	-65.582
7394	0.53793	2.5455	0.1	-65.775
7395	0.53793	2.7273	0.1	-65.897
7396	0.53793	2.9091	0.1	-65.955
7397	0.53793	3.0909	0.1	-65.955
7398	0.53793	3.2727	0.1	-65.897
7399	0.53793	3.4545	0.1	-65.775
7400	0.53793	3.6364	0.1	-65.582
7401	0.53793	3.8182	0.1	-65.302
7402	0.53793	4.	0.1	-64.915
7403	0.53793	4.1818	0.1	-64.392
7404	0.53793	4.3636	0.1	-63.695
7405	0.53793	4.5455	0.1	-62.766
7406	0.53793	4.7273	0.1	-61.529
7407	0.53793	4.9091	0.1	-59.862
7408	0.53793	5.0909	0.1	-57.577
7409	0.53793	5.2727	0.1	-54.414
7410	0.53793	5.4545	0.1	-49.833
7411	0.53793	5.6364	0.1	-41.18
7412	0.53793	5.8182	0.1	-96.715
7413	0.71724	0.18182	0.1	-67.46
7414	0.71724	0.36364	0.1	5.9455
7415	0.71724	0.54545	0.1	10.758
7416	0.71724	0.72727	0.1	12.508
7417	0.71724	0.90909	0.1	13.712
7418	0.71724	1.0909	0.1	14.475
7419	0.71724	1.2727	0.1	15.018
7420	0.71724	1.4545	0.1	15.414
7421	0.71724	1.6364	0.1	15.713
7422	0.71724	1.8182	0.1	15.94
7423	0.71724	2.	0.1	16.112
7424	0.71724	2.1818	0.1	16.241
7425	0.71724	2.3636	0.1	16.336
7426	0.71724	2.5455	0.1	16.403
7427	0.71724	2.7273	0.1	16.445
7428	0.71724	2.9091	0.1	16.465
7429	0.71724	3.0909	0.1	16.465
7430	0.71724	3.2727	0.1	16.445
7431	0.71724	3.4545	0.1	16.403
7432	0.71724	3.6364	0.1	16.336
7433	0.71724	3.8182	0.1	16.241
7434	0.71724	4.	0.1	16.112
7435	0.71724	4.1818	0.1	15.94
7436	0.71724	4.3636	0.1	15.713
7437	0.71724	4.5455	0.1	15.414
7438	0.71724	4.7273	0.1	15.018
7439	0.71724	4.9091	0.1	14.475
7440	0.71724	5.0909	0.1	13.712
7441	0.71724	5.2727	0.1	12.508
7442	0.71724	5.4545	0.1	10.758
7443	0.71724	5.6364	0.1	5.9455
7444	0.71724	5.8182	0.1	-67.46
7445	0.89655	0.18182	0.1	-51.258
7446	0.89655	0.36364	0.1	-4.9754
7447	0.89655	0.54545	0.1	-4.006
7448	0.89655	0.72727	0.1	-4.0806
7449	0.89655	0.90909	0.1	-4.0874
7450	0.89655	1.0909	0.1	-4.1521
7451	0.89655	1.2727	0.1	-4.2096
7452	0.89655	1.4545	0.1	-4.2596
7453	0.89655	1.6364	0.1	-4.2974
7454	0.89655	1.8182	0.1	-4.3244
7455	0.89655	2.	0.1	-4.3429
7456	0.89655	2.1818	0.1	-4.3551
7457	0.89655	2.3636	0.1	-4.3627
7458	0.89655	2.5455	0.1	-4.3673
7459	0.89655	2.7273	0.1	-4.3698
7460	0.89655	2.9091	0.1	-4.3709
7461	0.89655	3.0909	0.1	-4.3709
7462	0.89655	3.2727	0.1	-4.3698
7463	0.89655	3.4545	0.1	-4.3673
7464	0.89655	3.6364	0.1	-4.3627
7465	0.89655	3.8182	0.1	-4.3551
7466	0.89655	4.	0.1	-4.3429
7467	0.89655	4.1818	0.1	-4.3244
7468	0.89655	4.3636	0.1	-4.2974
7469	0.89655	4.5455	0.1	-4.2596
7470	0.89655	4.7273	0.1	-4.2096
7471	0.89655	4.9091	0.1	-4.1521
7472	0.89655	5.0909	0.1	-4.0874
7473	0.89655	5.2727	0.1	-4.0806
7474	0.89655	5.4545	0.1	-4.006
7475	0.89655	5.6364	0.1	-4.9754
7476	0.89655	5.8182	0.1	-51.258
7477	1.0759	0.18182	0.1	-35.949
7478	1.0759	0.36364	0.1	-1.7116
7479	1.0759	0.54545	0.1	-4.7737e-002
7480	1.0759	0.72727	0.1	0.28484
7481	1.0759	0.90909	0.1	0.54286
7482	1.0759	1.0909	0.1	0.67053
7483	1.0759	1.2727	0.1	0.75142
7484	1.0759	1.4545	0.1	0.80152
7485	1.0759	1.6364	0.1	0.83651
7486	1.0759	1.8182	0.1	0.86259
7487	1.0759	2.	0.1	0.88309
7488	1.0759	2.1818	0.1	0.89941
7489	1.0759	2.3636	0.1	0.91219
7490	1.0759	2.5455	0.1	0.92167
7491	1.0759	2.7273	0.1	0.92796
7492	1.0759	2.9091	0.1	0.9311
7493	1.0759	3.0909	0.1	0.9311
7494	1.0759	3.2727	0.1	0.92796
7495	1.0759	3.4545	0.1	0.92167
7496	1.0759	3.6364	0.1	0.91219
7497	1.0759	3.8182	0.1	0.89941
7498	1.0759	4.	0.1	0.88309
7499	1.0759	4.1818	0.1	0.86259
7500	1.0759	4.3636	0.1	0.83651
7501	1.0759	4.5455	0.1	0.80152
7502	1.0759	4.7273	0.1	0.75142
7503	1.0759	4.9091	0.1	0.67053
7504	1.0759	5.0909	0.1	0.54286
7505	1.0759	5.2727	0.1	0.28484
7506	1.0759	5.4545	0.1	-4.7737e-002
7507	1.0759	5.6364	0.1	-1.7116
7508	1.0759	5.8182	0.1	-35.949
7509	1.2552	0.18182	0.1	-25.466
7510	1.2552	0.36364	0.1	-2.1431
7511	1.2552	0.54545	0.1	-0.90269
7512	1.2552	0.72727	0.1	-0.72378
7513	1.2552	0.90909	0.1	-0.55984
7514	1.2552	1.0909	0.1	-0.48799
7515	1.2552	1.2727	0.1	-0.44513
7516	1.2552	1.4545	0.1	-0.42336
7517	1.2552	1.6364	0.1	-0.41086
7518	1.2552	1.8182	0.1	-0.40297
7519	1.2552	2.	0.1	-0.39705
7520	1.2552	2.1818	0.1	-0.39212
7521	1.2552	2.3636	0.1	-0.38794
7522	1.2552	2.5455	0.1	-0.38458
7523	1.2552	2.7273	0.1	-0.38221
7524	1.2552	2.9091	0.1	-0.38098
7525	1.2552	3.0909	0.1	-0.38098
7526	1.2552	3.2727	0.1	-0.38221
7527	1.2552	3.4545	0.1	-0.38458
7528	1.2552	3.6364	0.1	-0.38794
7529	1.2552	3.8182	0.1	-0.39212
7530	1.2552	4.	0.1	-0.39705
7531	1.2552	4.1818	0.1	-0.40297
7532	1.2552	4.3636	0.1	-0.41086
7533	1.2552	4.5455	0.1	-0.42336
7534	1.2552	4.7273	0.1	-0.44513
7535	1.2552	4.9091	0.1	-0.48799
7536	1.2552	5.0909	0.1	-0.55984
7537	1.2552	5.2727	0.1	-0.72378
7538	1.2552	5.4545	0.1	-0.90269
7539	1.2552	5.6364	0.1	-2.1431
7540	1.2552	5.8182	0.1	-25.466
7541	1.4345	0.18182	0.1	-18.11
7542	1.4345	0.36364	0.1	-1.7318
7543	1.4345	0.54545	0.1	-0.59165
7544	1.4345	0.72727	0.1	-0.41082
7545	1.4345	0.90909	0.1	-0.24512
7546	1.4345	1.0909	0.1	-0.16344
7547	1.4345	1.2727	0.1	-0.11037
7548	1.4345	1.4545	0.1	-7.9601e-002
7549	1.4345	1.6364	0.1	-6.0473e-002
7550	1.4345	1.8182	0.1	-4.8132e-002
7551	1.4345	2.	0.1	-3.9446e-002
7552	1.4345	2.1818	0.1	-3.2912e-002
7553	1.4345	2.3636	0.1	-2.7846e-002
7554	1.4345	2.5455	0.1	-2.4028e-002
7555	1.4345	2.7273	0.1	-2.1438e-002
7556	1.4345	2.9091	0.1	-2.0124e-002
7557	1.4345	3.0909	0.1	-2.0124e-002
7558	1.4345	3.2727	0.1	-2.1438e-002
7559	1.4345	3.4545	0.1	-2.4028e-002
7560	1.4345	3.6364	0.1	-2.7846e-002
7561	1.4345	3.8182	0.1	-3.2912e-002
7562	1.4345	4.	0.1	-3.9446e-002
7563	1.4345	4.1818	0.1	-4.8132e-002
7564	1.4345	4.3636	0.1	-6.0473e-002
7565	1.4345	4.5455	0.1	-7.9601e-002
7566	1.4345	4.7273	0.1	-0.11037
7567	1.4345	4.9091	0.1	-0.16344
7568	1.4345	5.0909	0.1	-0.24512
7569	1.4345	5.2727	0.1	-0.41082
7570	1.4345	5.4545	0.1	-0.59165
7571	1.4345	5.6364	0.1	-1.7318
7572	1.4345	5.8182	0.1	-18.11
7573	1.6138	0.18182	0.1	-13.362
7574	1.6138	0.36364	0.1	-1.5907
7575	1.6138	0.54545	0.1	-0.60124
7576	1.6138	0.72727	0.1	-0.45109
7577	1.6138	0.90909	0.1	-0.30628
7578	1.6138	1.0909	0.1	-0.23188
7579	1.6138	1.2727	0.1	-0.18079
7580	1.6138	1.4545	0.1	-0.14926
7581	1.6138	1.6364	0.1	-0.12873
7582	1.6138	1.8182	0.1	-0.11513
7583	1.6138	2.	0.1	-0.10561
7584	1.6138	2.1818	0.1	-9.8622e-002
7585	1.6138	2.3636	0.1	-9.3366e-002
7586	1.6138	2.5455	0.1	-8.9507e-002
7587	1.6138	2.7273	0.1	-8.6936e-002
7588	1.6138	2.9091	0.1	-8.5644e-002
7589	1.6138	3.0909	0.1	-8.5644e-002
7590	1.6138	3.2727	0.1	-8.6936e-002
7591	1.6138	3.4545	0.1	-8.9507e-002
7592	1.6138	3.6364	0.1	-9.3366e-002
7593	1.6138	3.8182	0.1	-9.8621e-002
7594	1.6138	4.	0.1	-0.10561
7595	1.6138	4.1818	0.1	-0.11513
7596	1.6138	4.3636	0.1	-0.12873
7597	1.6138	4.5455	0.1	-0.14926
7598	1.6138	4.7273	0.1	-0.18078
7599	1.6138	4.9091	0.1	-0.23188
7600	1.6138	5.0909	0.1	-0.30628
7601	1.6138	5.2727	0.1	-0.45109
7602	1.6138	5.4545	0.1	-0.60124
7603	1.6138	5.6364	0.1	-1.5907
7604	1.6138	5.8182	0.1	-13.362
7605	1.7931	0.18182	0.1	-10.335
7606	1.7931	0.36364	0.1	-1.4279
7607	1.7931	0.54545	0.1	-0.54924
7608	1.7931	0.72727	0.1	-0.41477
7609	1.7931	0.90909	0.1	-0.28296
7610	1.7931	1.0909	0.1	-0.21193
7611	1.7931	1.2727	0.1	-0.16051
7612	1.7931	1.4545	0.1	-0.12635
7613	1.7931	1.6364	0.1	-0.1025
7614	1.7931	1.8182	0.1	-8.5688e-002
7615	1.7931	2.	0.1	-7.3434e-002
7616	1.7931	2.1818	0.1	-6.4298e-002
7617	1.7931	2.3636	0.1	-5.7458e-002
7618	1.7931	2.5455	0.1	-5.2502e-002
7619	1.7931	2.7273	0.1	-4.9249e-002
7620	1.7931	2.9091	0.1	-4.7632e-002
7621	1.7931	3.0909	0.1	-4.7632e-002
7622	1.7931	3.2727	0.1	-4.9249e-002
7623	1.7931	3.4545	0.1	-5.2502e-002
7624	1.7931	3.6364	0.1	-5.7457e-002
7625	1.7931	3.8182	0.1	-6.4298e-002
7626	1.7931	4.	0.1	-7.3434e-002
7627	1.7931	4.1818	0.1	-8.5688e-002
7628	1.7931	4.3636	0.1	-0.1025
7629	1.7931	4.5455	0.1	-0.12635
7630	1.7931	4.7273	0.1	-0.16051
7631	1.7931	4.9091	0.1	-0.21193
7632	1.7931	5.0909	0.1	-0.28296
7633	1.7931	5.2727	0.1	-0.41477
7634	1.7931	5.4545	0.1	-0.54924
7635	1.7931	5.6364	0.1	-1.4279
7636	1.7931	5.8182	0.1	-10.335
7637	1.9724	0.18182	0.1	-8.4723
7638	1.9724	0.36364	0.1	-1.3098
7639	1.9724	0.54545	0.1	-0.52934
7640	1.9724	0.72727	0.1	-0.40842
7641	1.9724	0.90909	0.1	-0.2892
7642	1.9724	1.0909	0.1	-0.22242
7643	1.9724	1.2727	0.1	-0.17188
7644	1.9724	1.4545	0.1	-0.13612
7645	1.9724	1.6364	0.1	-0.10954
7646	1.9724	1.8182	0.1	-8.9657e-002
7647	1.9724	2.	0.1	-7.4476e-002
7648	1.9724	2.1818	0.1	-6.282e-002
7649	1.9724	2.3636	0.1	-5.3976e-002
7650	1.9724	2.5455	0.1	-4.7554e-002
7651	1.9724	2.7273	0.1	-4.3352e-002
7652	1.9724	2.9091	0.1	-4.1271e-002
7653	1.9724	3.0909	0.1	-4.1271e-002
7654	1.9724	3.2727	0.1	-4.3352e-002
7655	1.9724	3.4545	0.1	-4.7554e-002
7656	1.9724	3.6364	0.1	-5.3976e-002
7657	1.9724	3.8182	0.1	-6.282e-002
7658	1.9724	4.	0.1	-7.4476e-002
7659	1.9724	4.1818	0.1	-8.9657e-002
7660	1.9724	4.3636	0.1	-0.10954
7661	1.9724	4.5455	0.1	-0.13612
7662	1.9724	4.7273	0.1	-0.17188
7663	1.9724	4.9091	0.1	-0.22242
7664	1.9724	5.0909	0.1	-0.2892
7665	1.9724	5.2727	0.1	-0.40842
7666	1.9724	5.4545	0.1	-0.52934
7667	1.9724	5.6364	0.1	-1.3098
7668	1.9724	5.8182	0.1	-8.4723
7669	2.1517	0.18182	0.1	-7.4266
7670	2.1517	0.36364	0.1	-1.2173
7671	2.1517	0.54545	0.1	-0.51813
7672	2.1517	0.72727	0.1	-0.40553
7673	2.1517	0.90909	0.1	-0.29629
7674	2.1517	1.0909	0.1	-0.23276
7675	2.1517	1.2727	0.1	-0.18294
7676	2.1517	1.4545	0.1	-0.14569
7677	2.1517	1.6364	0.1	-0.11648
7678	2.1517	1.8182	0.1	-9.3431e-002
7679	2.1517	2.	0.1	-7.5083e-002
7680	2.1517	2.1818	0.1	-6.0577e-002
7681	2.1517	2.3636	0.1	-4.9392e-002
7682	2.1517	2.5455	0.1	-4.1221e-002
7683	2.1517	2.7273	0.1	-3.5873e-002
7684	2.1517	2.9091	0.1	-3.3229e-002
7685	2.1517	3.0909	0.1	-3.3229e-002
7686	2.1517	3.2727	0.1	-3.5873e-002
7687	2.1517	3.4545	0.1	-4.1221e-002
7688	2.1517	3.6364	0.1	-4.9392e-002
7689	2.1517	3.8182	0.1	-6.0577e-002
7690	2.1517	4.	0.1	-7.5083e-002
7691	2.1517	4.1818	0.1	-9.3431e-002
7692	2.1517	4.3636	0.1	-0.11648
7693	2.1517	4.5455	0.1	-0.14569
7694	2.1517	4.7273	0.1	-0.18294
7695	2.1517	4.9091	0.1	-0.23276
7696	2.1517	5.0909	0.1	-0.29629
7697	2.1517	5.2727	0.1	-0.40553
7698	2.1517	5.4545	0.1	-0.51813
7699	2.1517	5.6364	0.1	-1.2173
7700	2.1517	5.8182	0.1	-7.4266
7701	2.331	0.18182	0.1	-7.0821
7702	2.331	0.36364	0.1	-1.1581
7703	2.331	0.54545	0.1	-0.52441
7704	2.331	0.72727	0.1	-0.41524
7705	2.331	0.90909	0.1	-0.31349
7706	2.331	1.0909	0.1	-0.25205
7707	2.331	1.2727	0.1	-0.20251
7708	2.331	1.4545	0.1	-0.16369
7709	2.331	1.6364	0.1	-0.13183
7710	2.331	1.8182	0.1	-0.10556
7711	2.331	2.	0.1	-8.3909e-002
7712	2.331	2.1818	0.1	-6.6377e-002
7713	2.331	2.3636	0.1	-5.2688e-002
7714	2.331	2.5455	0.1	-4.2653e-002
7715	2.331	2.7273	0.1	-3.6097e-002
7716	2.331	2.9091	0.1	-3.2866e-002
7717	2.331	3.0909	0.1	-3.2866e-002
7718	2.331	3.2727	0.1	-3.6097e-002
7719	2.331	3.4545	0.1	-4.2653e-002
7720	2.331	3.6364	0.1	-5.2688e-002
7721	2.331	3.8182	0.1	-6.6377e-002
7722	2.331	4.	0.1	-8.3909e-002
7723	2.331	4.1818	0.1	-0.10556
7724	2.331	4.3636	0.1	-0.13183
7725	2.331	4.5455	0.1	-0.16369
7726	2.331	4.7273	0.1	-0.20251
7727	2.331	4.9091	0.1	-0.25205
7728	2.331	5.0909	0.1	-0.31349
7729	2.331	5.2727	0.1	-0.41524
7730	2.331	5.4545	0.1	-0.52441
7731	2.331	5.6364	0.1	-1.1581
7732	2.331	5.8182	0.1	-7.082
7733	2.5103	0.18182	0.1	-7.5896
7734	2.5103	0.36364	0.1	-1.1423
7735	2.5103	0.54545	0.1	-0.55299
7736	2.5103	0.72727	0.1	-0.44046
7737	2.5103	0.90909	0.1	-0.34266
7738	2.5103	1.0909	0.1	-0.28128
7739	2.5103	1.2727	0.1	-0.23084
7740	2.5103	1.4545	0.1	-0.18977
7741	2.5103	1.6364	0.1	-0.15478
7742	2.5103	1.8182	0.1	-0.1249
7743	2.5103	2.	0.1	-9.9596e-002
7744	2.5103	2.1818	0.1	-7.8774e-002
7745	2.5103	2.3636	0.1	-6.2432e-002
7746	2.5103	2.5455	0.1	-5.0494e-002
7747	2.5103	2.7273	0.1	-4.276e-002
7748	2.5103	2.9091	0.1	-3.898e-002
7749	2.5103	3.0909	0.1	-3.898e-002
7750	2.5103	3.2727	0.1	-4.276e-002
7751	2.5103	3.4545	0.1	-5.0494e-002
7752	2.5103	3.6364	0.1	-6.2432e-002
7753	2.5103	3.8182	0.1	-7.8774e-002
7754	2.5103	4.	0.1	-9.9596e-002
7755	2.5103	4.1818	0.1	-0.1249
7756	2.5103	4.3636	0.1	-0.15478
7757	2.5103	4.5455	0.1	-0.18977
7758	2.5103	4.7273	0.1	-0.23084
7759	2.5103	4.9091	0.1	-0.28127
7760	2.5103	5.0909	0.1	-0.34266
7761	2.5103	5.2727	0.1	-0.44046
7762	2.5103	5.4545	0.1	-0.55299
7763	2.5103	5.6364	0.1	-1.1423
7764	2.5103	5.8182	0.1	-7.5896
7765	2.6897	0.18182	0.1	-9.598
7766	2.6897	0.36364	0.1	-1.2006
7767	2.6897	0.54545	0.1	-0.61813
7768	2.6897	0.72727	0.1	-0.49094
7769	2.6897	0.90909	0.1	-0.39128
7770	2.6897	1.0909	0.1	-0.32641
7771	2.6897	1.2727	0.1	-0.27278
7772	2.6897	1.4545	0.1	-0.22786
7773	2.6897	1.6364	0.1	-0.18853
7774	2.6897	1.8182	0.1	-0.15405
7775	2.6897	2.	0.1	-0.12431
7776	2.6897	2.1818	0.1	-9.9663e-002
7777	2.6897	2.3636	0.1	-8.0416e-002
7778	2.6897	2.5455	0.1	-6.6572e-002
7779	2.6897	2.7273	0.1	-5.7785e-002
7780	2.6897	2.9091	0.1	-5.3566e-002
7781	2.6897	3.0909	0.1	-5.3566e-002
7782	2.6897	3.2727	0.1	-5.7785e-002
7783	2.6897	3.4545	0.1	-6.6572e-002
7784	2.6897	3.6364	0.1	-8.0416e-002
7785	2.6897	3.8182	0.1	-9.9663e-002
7786	2.6897	4.	0.1	-0.12431
7787	2.6897	4.1818	0.1	-0.15405
7788	2.6897	4.3636	0.1	-0.18853
7789	2.6897	4.5455	0.1	-0.22786
7790	2.6897	4.7273	0.1	-0.27278
7791	2.6897	4.9091	0.1	-0.32641
7792	2.6897	5.0909	0.1	-0.39128
7793	2.6897	5.2727	0.1	-0.49094
7794	2.6897	5.4545	0.1	-0.61813
7795	2.6897	5.6364	0.1	-1.2006
7796	2.6897	5.8182	0.1	-9.598
7797	2.869	0.18182	0.1	-14.411
7798	2.869	0.36364	0.1	-1.4239
7799	2.869	0.54545	0.1	-0.75279
7800	2.869	0.72727	0.1	-0.5864
7801	2.869	0.90909	0.1	-0.47311
7802	2.869	1.0909	0.1	-0.3977
7803	2.869	1.2727	0.1	-0.33622
7804	2.869	1.4545	0.1	-0.28408
7805	2.869	1.6364	0.1	-0.23781
7806	2.869	1.8182	0.1	-0.19659
7807	2.869	2.	0.1	-0.16075
7808	2.869	2.1818	0.1	-0.13115
7809	2.869	2.3636	0.1	-0.10849
7810	2.869	2.5455	0.1	-9.2716e-002
7811	2.869	2.7273	0.1	-8.3111e-002
7812	2.869	2.9091	0.1	-7.8664e-002
7813	2.869	3.0909	0.1	-7.8664e-002
7814	2.869	3.2727	0.1	-8.3111e-002
7815	2.869	3.4545	0.1	-9.2716e-002
7816	2.869	3.6364	0.1	-0.10849
7817	2.869	3.8182	0.1	-0.13115
7818	2.869	4.	0.1	-0.16075
7819	2.869	4.1818	0.1	-0.19659
7820	2.869	4.3636	0.1	-0.23781
7821	2.869	4.5455	0.1	-0.28408
7822	2.869	4.7273	0.1	-0.33622
7823	2.869	4.9091	0.1	-0.3977
7824	2.869	5.0909	0.1	-0.4731
7825	2.869	5.2727	0.1	-0.5864
7826	2.869	5.4545	0.1	-0.75279
7827	2.869	5.6364	0.1	-1.4239
7828	2.869	5.8182	0.1	-14.411
7829	3.0483	0.18182	0.1	-22.752
7830	3.0483	0.36364	0.1	-2.1927
7831	3.0483	0.54545	0.1	-1.0516
7832	3.0483	0.72727	0.1	-0.77496
7833	3.0483	0.90909	0.1	-0.61852
7834	3.0483	1.0909	0.1	-0.5163
7835	3.0483	1.2727	0.1	-0.43666
7836	3.0483	1.4545	0.1	-0.37015
7837	3.0483	1.6364	0.1	-0.31149
7838	3.0483	1.8182	0.1	-0.25919
7839	3.0483	2.	0.1	-0.21386
7840	3.0483	2.1818	0.1	-0.17702
7841	3.0483	2.3636	0.1	-0.14976
7842	3.0483	2.5455	0.1	-0.1319
7843	3.0483	2.7273	0.1	-0.12185
7844	3.0483	2.9091	0.1	-0.11754
7845	3.0483	3.0909	0.1	-0.11754
7846	3.0483	3.2727	0.1	-0.12185
7847	3.0483	3.4545	0.1	-0.1319
7848	3.0483	3.6364	0.1	-0.14976
7849	3.0483	3.8182	0.1	-0.17702
7850	3.0483	4.	0.1	-0.21386
7851	3.0483	4.1818	0.1	-0.25919
7852	3.0483	4.3636	0.1	-0.31149
7853	3.0483	4.5455	0.1	-0.37015
7854	3.0483	4.7273	0.1	-0.43666
7855	3.0483	4.9091	0.1	-0.5163
7856	3.0483	5.0909	0.1	-0.61852
7857	3.0483	5.2727	0.1	-0.77496
7858	3.0483	5.4545	0.1	-1.0516
7859	3.0483	5.6364	0.1	-2.1927
7860	3.0483	5.8182	0.1	-22.752
7861	3.2276	0.18182	0.1	-33.921
7862	3.2276	0.36364	0.1	-6.641
7863	3.2276	0.54545	0.1	-1.9009
7864	3.2276	0.72727	0.1	-1.2012
7865	3.2276	0.90909	0.1	-0.90517
7866	3.2276	1.0909	0.1	-0.73083
7867	3.2276	1.2727	0.1	-0.60704
7868	3.2276	1.4545	0.1	-0.50932
7869	3.2276	1.6364	0.1	-0.42618
7870	3.2276	1.8182	0.1	-0.3535
7871	3.2276	2.	0.1	-0.29156
7872	3.2276	2.1818	0.1	-0.24276
7873	3.2276	2.3636	0.1	-0.20871
7874	3.2276	2.5455	0.1	-0.18836
7875	3.2276	2.7273	0.1	-0.17841
7876	3.2276	2.9091	0.1	-0.17482
7877	3.2276	3.0909	0.1	-0.17482
7878	3.2276	3.2727	0.1	-0.17841
7879	3.2276	3.4545	0.1	-0.18836
7880	3.2276	3.6364	0.1	-0.20871
7881	3.2276	3.8182	0.1	-0.24276
7882	3.2276	4.	0.1	-0.29156
7883	3.2276	4.1818	0.1	-0.3535
7884	3.2276	4.3636	0.1	-0.42618
7885	3.2276	4.5455	0.1	-0.50932
7886	3.2276	4.7273	0.1	-0.60704
7887	3.2276	4.9091	0.1	-0.73083
7888	3.2276	5.0909	0.1	-0.90516
7889	3.2276	5.2727	0.1	-1.2012
7890	3.2276	5.4545	0.1	-1.9009
7891	3.2276	5.6364	0.1	-6.641
7892	3.2276	5.8182	0.1	-33.921
7893	3.4069	0.18182	0.1	-47.059
7894	3.4069	0.36364	0.1	-26.139
7895	3.4069	0.54545	0.1	-6.6989
7896	3.4069	0.72727	0.1	-2.5239
7897	3.4069	0.90909	0.1	-1.5935
7898	3.4069	1.0909	0.1	-1.1783
7899	3.4069	1.2727	0.1	-0.92969
7900	3.4069	1.4545	0.1	-0.75461
7901	3.4069	1.6364	0.1	-0.61733
7902	3.4069	1.8182	0.1	-0.5035
7903	3.4069	2.	0.1	-0.41025
7904	3.4069	2.1818	0.1	-0.33938
7905	3.4069	2.3636	0.1	-0.2926
7906	3.4069	2.5455	0.1	-0.26809
7907	3.4069	2.7273	0.1	-0.25885
7908	3.4069	2.9091	0.1	-0.25679
7909	3.4069	3.0909	0.1	-0.25679
7910	3.4069	3.2727	0.1	-0.25885
7911	3.4069	3.4545	0.1	-0.26809
7912	3.4069	3.6364	0.1	-0.2926
7913	3.4069	3.8182	0.1	-0.33938
7914	3.4069	4.	0.1	-0.41025
7915	3.4069	4.1818	0.1	-0.5035
7916	3.4069	4.3636	0.1	-0.61733
7917	3.4069	4.5455	0.1	-0.75461
7918	3.4069	4.7273	0.1	-0.92969
7919	3.4069	4.9091	0.1	-1.1783
7920	3.4069	5.0909	0.1	-1.5935
7921	3.4069	5.2727	0.1	-2.5239
7922	3.4069	5.4545	0.1	-6.6989
7923	3.4069	5.6364	0.1	-26.139
7924	3.4069	5.8182	0.1	-47.059
7925	3.5862	0.18182	0.1	-61.513
7926	3.5862	0.36364	0.1	-51.774
7927	3.5862	0.54545	0.1	-34.106
7928	3.5862	0.72727	0.1	-12.029
7929	3.5862	0.90909	0.1	-4.2227
7930	3.5862	1.0909	0.1	-2.42
7931	3.5862	1.2727	0.1	-1.6739
7932	3.5862	1.4545	0.1	-1.2526
7933	3.5862	1.6364	0.1	-0.96878
7934	3.5862	1.8182	0.1	-0.75662
7935	3.5862	2.	0.1	-0.59352
7936	3.5862	2.1818	0.1	-0.47845
7937	3.5862	2.3636	0.1	-0.41079
7938	3.5862	2.5455	0.1	-0.37949
7939	3.5862	2.7273	0.1	-0.37102
7940	3.5862	2.9091	0.1	-0.37134
7941	3.5862	3.0909	0.1	-0.37134
7942	3.5862	3.2727	0.1	-0.37102
7943	3.5862	3.4545	0.1	-0.37949
7944	3.5862	3.6364	0.1	-0.41079
7945	3.5862	3.8182	0.1	-0.47845
7946	3.5862	4.	0.1	-0.59352
7947	3.5862	4.1818	0.1	-0.75662
7948	3.5862	4.3636	0.1	-0.96878
7949	3.5862	4.5455	0.1	-1.2526
7950	3.5862	4.7273	0.1	-1.6739
7951	3.5862	4.9091	0.1	-2.42
7952	3.5862	5.0909	0.1	-4.2228
7953	3.5862	5.2727	0.1	-12.029
7954	3.5862	5.4545	0.1	-34.106
7955	3.5862	5.6364	0.1	-51.774
7956	3.5862	5.8182	0.1	-61.513
7957	3.7655	0.18182	0.1	-76.61
7958	3.7655	0.36364	0.1	-77.442
7959	3.7655	0.54545	0.1	-71.616
7960	3.7655	0.72727	0.1	-55.462
7961	3.7655	0.90909	0.1	-30.629
7962	3.7655	1.0909	0.1	-10.237
7963	3.7655	1.2727	0.1	-4.4218
7964	3.7655	1.4545	0.1	-2.6122
7965	3.7655	1.6364	0.1	-1.7628
7966	3.7655	1.8182	0.1	-1.2593
7967	3.7655	2.	0.1	-0.93159
7968	3.7655	2.1818	0.1	-0.71517
7969	3.7655	2.3636	0.1	-0.58531
7970	3.7655	2.5455	0.1	-0.53316
7971	3.7655	2.7273	0.1	-0.52385
7972	3.7655	2.9091	0.1	-0.52647
7973	3.7655	3.0909	0.1	-0.52647
7974	3.7655	3.2727	0.1	-0.52385
7975	3.7655	3.4545	0.1	-0.53316
7976	3.7655	3.6364	0.1	-0.58531
7977	3.7655	3.8182	0.1	-0.71517
7978	3.7655	4.	0.1	-0.93159
7979	3.7655	4.1818	0.1	-1.2593
7980	3.7655	4.3636	0.1	-1.7628
7981	3.7655	4.5455	0.1	-2.6122
7982	3.7655	4.7273	0.1	-4.4218
7983	3.7655	4.9091	0.1	-10.237
7984	3.7655	5.0909	0.1	-30.629
7985	3.7655	5.2727	0.1	-55.462
7986	3.7655	5.4545	0.1	-71.616
7987	3.7655	5.6364	0.1	-77.442
7988	3.7655	5.8182	0.1	-76.61
7989	3.9448	0.18182	0.1	-91.481
7990	3.9448	0.36364	0.1	-101.19
7991	3.9448	0.54545	0.1	-108.98
7992	3.9448	0.72727	0.1	-109.96
7993	3.9448	0.90909	0.1	-101.87
7994	3.9448	1.0909	0.1	-80.367
7995	3.9448	1.2727	0.1	-42.971
7996	3.9448	1.4545	0.1	-11.703
7997	3.9448	1.6364	0.1	-4.508
7998	3.9448	1.8182	0.1	-2.4656
7999	3.9448	2.	0.1	-1.518
8000	3.9448	2.1818	0.1	-1.0292
8001	3.9448	2.3636	0.1	-0.83036
8002	3.9448	2.5455	0.1	-0.74867
8003	3.9448	2.7273	0.1	-0.72442
8004	3.9448	2.9091	0.1	-0.72495
8005	3.9448	3.0909	0.1	-0.72495
8006	3.9448	3.2727	0.1	-0.72442
8007	3.9448	3.4545	0.1	-0.74867
8008	3.9448	3.6364	0.1	-0.83036
8009	3.9448	3.8182	0.1	-1.0292
8010	3.9448	4.	0.1	-1.518
8011	3.9448	4.1818	0.1	-2.4656
8012	3.9448	4.3636	0.1	-4.5081
8013	3.9448	4.5455	0.1	-11.703
8014	3.9448	4.7273	0.1	-42.971
8015	3.9448	4.9091	0.1	-80.367
8016	3.9448	5.0909	0.1	-101.87
8017	3.9448	5.2727	0.1	-109.96
8018	3.9448	5.4545	0.1	-108.98
8019	3.9448	5.6364	0.1	-101.19
8020	3.9448	5.8182	0.1	-91.481
8021	4.1241	0.18182	0.1	-104.96
8022	4.1241	0.36364	0.1	-121.24
8023	4.1241	0.54545	0.1	-144.45
8024	4.1241	0.72727	0.1	-168.43
8025	4.1241	0.90909	0.1	-188.62
8026	4.1241	1.0909	0.1	-196.42
8027	4.1241	1.2727	0.1	-180.66
8028	4.1241	1.4545	0.1	-131.24
8029	4.1241	1.6364	0.1	-50.6
8030	4.1241	1.8182	0.1	-8.6997
8031	4.1241	2.	0.1	-3.4838
8032	4.1241	2.1818	0.1	-2.0103
8033	4.1241	2.3636	0.1	-1.2525
8034	4.1241	2.5455	0.1	-1.0162
8035	4.1241	2.7273	0.1	-0.97466
8036	4.1241	2.9091	0.1	-0.95112
8037	4.1241	3.0909	0.1	-0.95112
8038	4.1241	3.2727	0.1	-0.97466
8039	4.1241	3.4545	0.1	-1.0162
8040	4.1241	3.6364	0.1	-1.2525
8041	4.1241	3.8182	0.1	-2.0103
8042	4.1241	4.	0.1	-3.4838
8043	4.1241	4.1818	0.1	-8.6997
8044	4.1241	4.3636	0.1	-50.6
8045	4.1241	4.5455	0.1	-131.24
8046	4.1241	4.7273	0.1	-180.66
8047	4.1241	4.9091	0.1	-196.42
8048	4.1241	5.0909	0.1	-188.62
8049	4.1241	5.2727	0.1	-168.43
8050	4.1241	5.4545	0.1	-144.45
8051	4.1241	5.6364	0.1	-121.24
8052	4.1241	5.8182	0.1	-104.96
8053	4.3034	0.18182	0.1	-115.56
8054	4.3034	0.36364	0.1	-135.97
8055	4.3034	0.54545	0.1	-177.92
8056	4.3034	0.72727	0.1	-232.98
8057	4.3034	0.90909	0.1	-293.45
8058	4.3034	1.0909	0.1	-346.11
8059	4.3034	1.2727	0.1	-372.97
8060	4.3034	1.4545	0.1	-353.34
8061	4.3034	1.6364	0.1	-271.16
8062	4.3034	1.8182	0.1	-133.03
8063	4.3034	2.	0.1	-15.704
8064	4.3034	2.1818	0.1	-2.8332
8065	4.3034	2.3636	0.1	-1.8941
8066	4.3034	2.5455	0.1	-1.4655
8067	4.3034	2.7273	0.1	-1.206
8068	4.3034	2.9091	0.1	-1.1481
8069	4.3034	3.0909	0.1	-1.1481
8070	4.3034	3.2727	0.1	-1.206
8071	4.3034	3.4545	0.1	-1.4655
8072	4.3034	3.6364	0.1	-1.8941
8073	4.3034	3.8182	0.1	-2.8332
8074	4.3034	4.	0.1	-15.704
8075	4.3034	4.1818	0.1	-133.03
8076	4.3034	4.3636	0.1	-271.16
8077	4.3034	4.5455	0.1	-353.35
8078	4.3034	4.7273	0.1	-372.97
8079	4.3034	4.9091	0.1	-346.11
8080	4.3034	5.0909	0.1	-293.45
8081	4.3034	5.2727	0.1	-232.98
8082	4.3034	5.4545	0.1	-177.92
8083	4.3034	5.6364	0.1	-135.97
8084	4.3034	5.8182	0.1	-115.56
8085	4.4828	0.18182	0.1	-121.7
8086	4.4828	0.36364	0.1	-145.21
8087	4.4828	0.54545	0.1	-212.62
8088	4.4828	0.72727	0.1	-310.69
8089	4.4828	0.90909	0.1	-427.04
8090	4.4828	1.0909	0.1	-544.28
8091	4.4828	1.2727	0.1	-638.25
8092	4.4828	1.4545	0.1	-675.91
8093	4.4828	1.6364	0.1	-618.77
8094	4.4828	1.8182	0.1	-448.18
8095	4.4828	2.	0.1	-218.87
8096	4.4828	2.1818	0.1	-32.655
8097	4.4828	2.3636	0.1	-2.6823
8098	4.4828	2.5455	0.1	-1.8079
8099	4.4828	2.7273	0.1	-1.4304
8100	4.4828	2.9091	0.1	-1.1514
8101	4.4828	3.0909	0.1	-1.1514
8102	4.4828	3.2727	0.1	-1.4304
8103	4.4828	3.4545	0.1	-1.8079
8104	4.4828	3.6364	0.1	-2.6824
8105	4.4828	3.8182	0.1	-32.655
8106	4.4828	4.	0.1	-218.87
8107	4.4828	4.1818	0.1	-448.19
8108	4.4828	4.3636	0.1	-618.77
8109	4.4828	4.5455	0.1	-675.91
8110	4.4828	4.7273	0.1	-638.25
8111	4.4828	4.9091	0.1	-544.28
8112	4.4828	5.0909	0.1	-427.04
8113	4.4828	5.2727	0.1	-310.69
8114	4.4828	5.4545	0.1	-212.62
8115	4.4828	5.6364	0.1	-145.21
8116	4.4828	5.8182	0.1	-121.7
8117	4.6621	0.18182	0.1	-121.99
8118	4.6621	0.36364	0.1	-153.36
8119	4.6621	0.54545	0.1	-260.
8120	4.6621	0.72727	0.1	-417.34
8121	4.6621	0.90909	0.1	-606.78
8122	4.6621	1.0909	0.1	-811.05
8123	4.6621	1.2727	0.1	-1006.
8124	4.6621	1.4545	0.1	-1151.6
8125	4.6621	1.6364	0.1	-1163.5
8126	4.6621	1.8182	0.1	-959.59
8127	4.6621	2.	0.1	-606.21
8128	4.6621	2.1818	0.1	-295.7
8129	4.6621	2.3636	0.1	-159.02
8130	4.6621	2.5455	0.1	-127.07
8131	4.6621	2.7273	0.1	-121.69
8132	4.6621	2.9091	0.1	-121.55
8133	4.6621	3.0909	0.1	-121.55
8134	4.6621	3.2727	0.1	-121.69
8135	4.6621	3.4545	0.1	-127.07
8136	4.6621	3.6364	0.1	-159.02
8137	4.6621	3.8182	0.1	-295.7
8138	4.6621	4.	0.1	-606.21
8139	4.6621	4.1818	0.1	-959.59
8140	4.6621	4.3636	0.1	-1163.5
8141	4.6621	4.5455	0.1	-1151.6
8142	4.6621	4.7273	0.1	-1006.
8143	4.6621	4.9091	0.1	-811.05
8144	4.6621	5.0909	0.1	-606.78
8145	4.6621	5.2727	0.1	-417.34
8146	4.6621	5.4545	0.1	-260.
8147	4.6621	5.6364	0.1	-153.36
8148	4.6621	5.8182	0.1	-121.99
8149	4.8414	0.18182	0.1	-122.3
8150	4.8414	0.36364	0.1	-183.67
8151	4.8414	0.54545	0.1	-355.35
8152	4.8414	0.72727	0.1	-588.78
8153	4.8414	0.90909	0.1	-864.26
8154	4.8414	1.0909	0.1	-1174.3
8155	4.8414	1.2727	0.1	-1514.4
8156	4.8414	1.4545	0.1	-1847.
8157	4.8414	1.6364	0.1	-2089.3
8158	4.8414	1.8182	0.1	-2013.9
8159	4.8414	2.	0.1	-1282.
8160	4.8414	2.1818	0.1	-728.44
8161	4.8414	2.3636	0.1	-528.42
8162	4.8414	2.5455	0.1	-480.69
8163	4.8414	2.7273	0.1	-449.25
8164	4.8414	2.9091	0.1	-435.49
8165	4.8414	3.0909	0.1	-435.49
8166	4.8414	3.2727	0.1	-449.25
8167	4.8414	3.4545	0.1	-480.69
8168	4.8414	3.6364	0.1	-528.42
8169	4.8414	3.8182	0.1	-728.44
8170	4.8414	4.	0.1	-1282.
8171	4.8414	4.1818	0.1	-2013.9
8172	4.8414	4.3636	0.1	-2089.3
8173	4.8414	4.5455	0.1	-1847.
8174	4.8414	4.7273	0.1	-1514.4
8175	4.8414	4.9091	0.1	-1174.3
8176	4.8414	5.0909	0.1	-864.26
8177	4.8414	5.2727	0.1	-588.78
8178	4.8414	5.4545	0.1	-355.35
8179	4.8414	5.6364	0.1	-183.67
8180	4.8414	5.8182	0.1	-122.3
8181	5.0207	0.18182	0.1	-168.73
8182	5.0207	0.36364	0.1	-342.46
8183	5.0207	0.54545	0.1	-618.1
8184	5.0207	0.72727	0.1	-946.26
8185	5.0207	0.90909	0.1	-1326.4
8186	5.0207	1.0909	0.1	-1771.7
8187	5.0207	1.2727	0.1	-2310.6
8188	5.0207	1.4545	0.1	-2967.6
8189	5.0207	1.6364	0.1	-3897.6
8190	5.0207	1.8182	0.1	-4483.2
8191	5.0207	2.	0.1	-3128.6
8192	5.0207	2.1818	0.1	-1341.4
8193	5.0207	2.3636	0.1	-1056.8
8194	5.0207	2.5455	0.1	-859.17
8195	5.0207	2.7273	0.1	-770.12
8196	5.0207	2.9091	0.1	-726.04
8197	5.0207	3.0909	0.1	-726.04
8198	5.0207	3.2727	0.1	-770.12
8199	5.0207	3.4545	0.1	-859.17
8200	5.0207	3.6364	0.1	-1056.8
8201	5.0207	3.8182	0.1	-1341.4
8202	5.0207	4.	0.1	-3128.6
8203	5.0207	4.1818	0.1	-4483.2
8204	5.0207	4.3636	0.1	-3897.6
8205	5.0207	4.5455	0.1	-2967.6
8206	5.0207	4.7273	0.1	-2310.6
8207	5.0207	4.9091	0.1	-1771.7
8208	5.0207	5.0909	0.1	-1326.4
8209	5.0207	5.2727	0.1	-946.26
8210	5.0207	5.4545	0.1	-618.1
8211	5.0207	5.6364	0.1	-342.46
8212	5.0207	5.8182	0.1	-168.73
8213	5.3667	3.8182	0.1	-1606.3
8214	5.3667	3.6364	0.1	-1355.9
8215	5.3667	3.4545	0.1	-1105.9
8216	5.3667	3.2727	0.1	-968.77
8217	5.3667	3.0909	0.1	-905.39
8218	5.3667	2.9091	0.1	-905.39
8219	5.3667	2.7273	0.1	-968.77
8220	5.3667	2.5455	0.1	-1105.9
8221	5.3667	2.3636	0.1	-1355.9
8222	5.3667	2.1818	0.1	-1606.3
8223	5.2	3.8182	0.1	-1767.1
8224	5.2	3.6364	0.1	-1394.4
8225	5.2	3.4545	0.1	-1117.7
8226	5.2	3.2727	0.1	-970.
8227	5.2	3.0909	0.1	-902.43
8228	5.2	2.9091	0.1	-902.43
8229	5.2	2.7273	0.1	-970.
8230	5.2	2.5455	0.1	-1117.7
8231	5.2	2.3636	0.1	-1394.4
8232	5.2	2.1818	0.1	-1767.1
8233	5.3667	5.8182	0.1	-87.125
8234	5.3667	5.6364	0.1	-219.81
8235	5.3667	5.4545	0.1	-378.04
8236	5.3667	5.2727	0.1	-564.66
8237	5.3667	5.0909	0.1	-787.03
8238	5.3667	4.9091	0.1	-1059.4
8239	5.3667	4.7273	0.1	-1408.4
8240	5.3667	4.5455	0.1	-1910.4
8241	5.3667	4.3636	0.1	-2439.8
8242	5.3667	4.1818	0.1	-5312.
8243	5.3667	4.	0.1	-3610.8
8244	5.2	4.	0.1	-4553.6
8245	5.2	4.1818	0.1	-6101.9
8246	5.2	4.3636	0.1	-2920.9
8247	5.2	4.5455	0.1	-2267.4
8248	5.2	4.7273	0.1	-1673.1
8249	5.2	4.9091	0.1	-1258.4
8250	5.2	5.0909	0.1	-934.67
8251	5.2	5.2727	0.1	-670.97
8252	5.2	5.4545	0.1	-450.18
8253	5.2	5.6364	0.1	-263.34
8254	5.2	5.8182	0.1	-106.94
8255	5.3667	0.18182	0.1	-87.125
8256	5.3667	0.36364	0.1	-219.81
8257	5.3667	0.54545	0.1	-378.04
8258	5.3667	0.72727	0.1	-564.66
8259	5.3667	0.90909	0.1	-787.03
8260	5.3667	1.0909	0.1	-1059.4
8261	5.3667	1.2727	0.1	-1408.4
8262	5.3667	1.4545	0.1	-1910.4
8263	5.3667	1.6364	0.1	-2439.8
8264	5.3667	1.8182	0.1	-5312.
8265	5.3667	2.	0.1	-3610.8
8266	5.2	2.	0.1	-4553.6
8267	5.2	1.8182	0.1	-6101.9
8268	5.2	1.6364	0.1	-2920.9
8269	5.2	1.4545	0.1	-2267.4
8270	5.2	1.2727	0.1	-1673.1
8271	5.2	1.0909	0.1	-1258.4
8272	5.2	0.90909	0.1	-934.67
8273	5.2	0.72727	0.1	-670.97
8274	5.2	0.54545	0.1	-450.18
8275	5.2	0.36364	0.1	-263.34
8276	5.2	0.18182	0.1	-106.94
8277	5.3667	6.	0.1	-12.823
8278	5.5512	6.	0.1	-20.854
8279	5.7356	6.	0.1	-24.286
8280	5.9201	6.	0.1	-26.307
8281	6.1046	6.	0.1	-25.742
8282	6.2891	6.	0.1	-23.471
8283	6.4736	6.	0.1	-20.581
8284	6.6581	6.	0.1	-17.57
8285	6.8426	6.	0.1	-14.742
8286	7.0271	6.	0.1	-12.231
8287	7.2116	6.	0.1	-10.082
8288	7.396	6.	0.1	-8.2887
8289	7.5805	6.	0.1	-6.8193
8290	7.765	6.	0.1	-5.6347
8291	7.9495	6.	0.1	-4.6943
8292	8.134	6.	0.1	-3.9609
8293	8.3185	6.	0.1	-3.4015
8294	8.503	6.	0.1	-2.9881
8295	8.6875	6.	0.1	-2.6968
8296	8.8719	6.	0.1	-2.5072
8297	9.0564	6.	0.1	-2.4023
8298	9.2409	6.	0.1	-2.3674
8299	9.4254	6.	0.1	-2.3901
8300	9.6099	6.	0.1	-2.4598
8301	9.7944	6.	0.1	-2.5675
8302	9.9789	6.	0.1	-2.7055
8303	10.163	6.	0.1	-2.8673
8304	10.348	6.	0.1	-3.0472
8305	10.532	6.	0.1	-3.2408
8306	10.717	6.	0.1	-3.4442
8307	10.901	6.	0.1	-3.6542
8308	11.086	6.	0.1	-3.8681
8309	11.27	6.	0.1	-4.084
8310	11.455	6.	0.1	-4.3002
8311	11.639	6.	0.1	-4.5152
8312	11.824	6.	0.1	-4.7282
8313	12.008	6.	0.1	-4.9384
8314	12.193	6.	0.1	-5.1453
8315	12.377	6.	0.1	-5.3486
8316	12.562	6.	0.1	-5.5481
8317	12.746	6.	0.1	-5.7437
8318	12.931	6.	0.1	-5.9355
8319	13.115	6.	0.1	-6.1235
8320	13.3	6.	0.1	-6.3079
8321	13.484	6.	0.1	-6.489
8322	13.669	6.	0.1	-6.6669
8323	13.853	6.	0.1	-6.8421
8324	14.038	6.	0.1	-7.0147
8325	14.222	6.	0.1	-7.1852
8326	14.407	6.	0.1	-7.3537
8327	14.591	6.	0.1	-7.5207
8328	14.776	6.	0.1	-7.6864
8329	14.96	6.	0.1	-7.8513
8330	15.145	6.	0.1	-8.0155
8331	15.329	6.	0.1	-8.1795
8332	15.514	6.	0.1	-8.3435
8333	15.698	6.	0.1	-8.5078
8334	15.883	6.	0.1	-8.6727
8335	16.067	6.	0.1	-8.8385
8336	16.251	6.	0.1	-9.0055
8337	16.436	6.	0.1	-9.1739
8338	16.62	6.	0.1	-9.344
8339	16.805	6.	0.1	-9.5159
8340	16.989	6.	0.1	-9.69
8341	17.174	6.	0.1	-9.8663
8342	17.358	6.	0.1	-10.045
8343	17.543	6.	0.1	-10.227
8344	17.727	6.	0.1	-10.411
8345	17.912	6.	0.1	-10.598
8346	18.096	6.	0.1	-10.788
8347	18.281	6.	0.1	-10.981
8348	18.465	6.	0.1	-11.177
8349	18.65	6.	0.1	-11.376
8350	18.834	6.	0.1	-11.578
8351	19.019	6.	0.1	-11.783
8352	19.203	6.	0.1	-11.991
8353	19.388	6.	0.1	-12.201
8354	19.572	6.	0.1	-12.413
8355	19.757	6.	0.1	-12.627
8356	19.941	6.	0.1	-12.843
8357	20.126	6.	0.1	-13.058
8358	20.31	6.	0.1	-13.274
8359	20.495	6.	0.1	-13.489
8360	20.679	6.	0.1	-13.702
8361	20.864	6.	0.1	-13.912
8362	21.048	6.	0.1	-14.117
8363	21.233	6.	0.1	-14.315
8364	21.417	6.	0.1	-14.505
8365	21.602	6.	0.1	-14.685
8366	21.786	6.	0.1	-14.85
8367	21.971	6.	0.1	-14.997
8368	22.155	6.	0.1	-15.122
8369	22.34	6.	0.1	-15.219
8370	22.524	6.	0.1	-15.28
8371	22.709	6.	0.1	-15.296
8372	22.893	6.	0.1	-15.251
8373	23.078	6.	0.1	-15.124
8374	23.262	6.	0.1	-14.883
8375	23.447	6.	0.1	-14.44
8376	23.631	6.	0.1	-13.784
8377	23.816	6.	0.1	-11.493
8378	24.	6.	0.1	-5.7203
8379	24.	5.8182	0.1	-36.626
8380	24.	5.6364	0.1	-64.041
8381	24.	5.4545	0.1	-85.215
8382	24.	5.2727	0.1	-102.81
8383	24.	5.0909	0.1	-117.82
8384	24.	4.9091	0.1	-130.77
8385	24.	4.7273	0.1	-142.
8386	24.	4.5455	0.1	-151.71
8387	24.	4.3636	0.1	-160.08
8388	24.	4.1818	0.1	-167.21
8389	24.	4.	0.1	-173.19
8390	24.	3.8182	0.1	-178.09
8391	24.	3.6364	0.1	-181.95
8392	24.	3.4545	0.1	-184.82
8393	24.	3.2727	0.1	-186.72
8394	24.	3.0909	0.1	-187.67
8395	24.	2.9091	0.1	-187.67
8396	24.	2.7273	0.1	-186.72
8397	24.	2.5455	0.1	-184.82
8398	24.	2.3636	0.1	-181.95
8399	24.	2.1818	0.1	-178.09
8400	24.	2.	0.1	-173.19
8401	24.	1.8182	0.1	-167.21
8402	24.	1.6364	0.1	-160.08
8403	24.	1.4545	0.1	-151.71
8404	24.	1.2727	0.1	-142.
8405	24.	1.0909	0.1	-130.77
8406	24.	0.90909	0.1	-117.82
8407	24.	0.72727	0.1	-102.81
8408	24.	0.54545	0.1	-85.215
8409	24.	0.36364	0.1	-64.041
8410	24.	0.18182	0.1	-36.626
8411	1.5894e-015	0.18182	0.1	1096.6
8412	3.1789e-015	0.36364	0.1	2277.6
8413	4.7683e-015	0.54545	0.1	2814.8
8414	6.3578e-015	0.72727	0.1	3133.6
8415	7.9472e-015	0.90909	0.1	3343.2
8416	9.5366e-015	1.0909	0.1	3490.9
8417	1.1126e-014	1.2727	0.1	3598.4
8418	1.2716e-014	1.4545	0.1	3678.4
8419	1.4305e-014	1.6364	0.1	3738.5
8420	1.5894e-014	1.8182	0.1	3784.
8421	1.7484e-014	2.	0.1	3818.2
8422	1.9073e-014	2.1818	0.1	3843.6
8423	2.0663e-014	2.3636	0.1	3862.1
8424	2.2252e-014	2.5455	0.1	3875.
8425	2.3842e-014	2.7273	0.1	3883.2
8426	2.5431e-014	2.9091	0.1	3887.2
8427	2.702e-014	3.0909	0.1	3887.2
8428	2.861e-014	3.2727	0.1	3883.2
8429	3.0199e-014	3.4545	0.1	3875.
8430	3.1789e-014	3.6364	0.1	3862.1
8431	3.3378e-014	3.8182	0.1	3843.6
8432	3.4968e-014	4.	0.1	3818.2
8433	3.6557e-014	4.1818	0.1	3784.
8434	3.8147e-014	4.3636	0.1	3738.5
8435	3.9736e-014	4.5455	0.1	3678.4
8436	4.1325e-014	4.7273	0.1	3598.4
8437	4.2915e-014	4.9091	0.1	3490.9
8438	4.4504e-014	5.0909	0.1	3343.2
8439	4.6094e-014	5.2727	0.1	3133.6
8440	4.7683e-014	5.4545	0.1	2814.8
8441	4.9273e-014	5.6364	0.1	2277.6
8442	5.0862e-014	5.8182	0.1	1096.6
8443	24.	0.	0.1	-5.7203
8444	23.816	0.	0.1	-11.493
8445	23.631	0.	0.1	-13.784
8446	23.447	0.	0.1	-14.44
8447	23.262	0.	0.1	-14.883
8448	23.078	0.	0.1	-15.124
8449	22.893	0.	0.1	-15.251
8450	22.709	0.	0.1	-15.296
8451	22.524	0.	0.1	-15.28
8452	22.34	0.	0.1	-15.219
8453	22.155	0.	0.1	-15.122
8454	21.971	0.	0.1	-14.997
8455	21.786	0.	0.1	-14.85
8456	21.602	0.	0.1	-14.685
8457	21.417	0.	0.1	-14.505
8458	21.233	0.	0.1	-14.315
8459	21.048	0.	0.1	-14.117
8460	20.864	0.	0.1	-13.912
8461	20.679	0.	0.1	-13.702
8462	20.495	0.	0.1	-13.489
8463	20.31	0.	0.1	-13.274
8464	20.126	0.	0.1	-13.058
8465	19.941	0.	0.1	-12.843
8466	19.757	0.	0.1	-12.627
8467	19.572	0.	0.1	-12.413
8468	19.388	0.	0.1	-12.201
8469	19.203	0.	0.1	-11.991
8470	19.019	0.	0.1	-11.783
8471	18.834	0.	0.1	-11.578
8472	18.65	0.	0.1	-11.376
8473	18.465	0.	0.1	-11.177
8474	18.281	0.	0.1	-10.981
8475	18.096	0.	0.1	-10.788
8476	17.912	0.	0.1	-10.598
8477	17.727	0.	0.1	-10.411
8478	17.543	0.	0.1	-10.227
8479	17.358	0.	0.1	-10.045
8480	17.174	0.	0.1	-9.8663
8481	16.989	0.	0.1	-9.6899
8482	16.805	0.	0.1	-9.5159
8483	16.62	0.	0.1	-9.3439
8484	16.436	0.	0.1	-9.1739
8485	16.251	0.	0.1	-9.0055
8486	16.067	0.	0.1	-8.8385
8487	15.883	0.	0.1	-8.6727
8488	15.698	0.	0.1	-8.5077
8489	15.514	0.	0.1	-8.3434
8490	15.329	0.	0.1	-8.1794
8491	15.145	0.	0.1	-8.0155
8492	14.96	0.	0.1	-7.8512
8493	14.776	0.	0.1	-7.6864
8494	14.591	0.	0.1	-7.5207
8495	14.407	0.	0.1	-7.3536
8496	14.222	0.	0.1	-7.1851
8497	14.038	0.	0.1	-7.0147
8498	13.853	0.	0.1	-6.8421
8499	13.669	0.	0.1	-6.6669
8500	13.484	0.	0.1	-6.4889
8501	13.3	0.	0.1	-6.3078
8502	13.115	0.	0.1	-6.1235
8503	12.931	0.	0.1	-5.9354
8504	12.746	0.	0.1	-5.7437
8505	12.562	0.	0.1	-5.5481
8506	12.377	0.	0.1	-5.3486
8507	12.193	0.	0.1	-5.1453
8508	12.008	0.	0.1	-4.9383
8509	11.824	0.	0.1	-4.7282
8510	11.639	0.	0.1	-4.5151
8511	11.455	0.	0.1	-4.3001
8512	11.27	0.	0.1	-4.084
8513	11.086	0.	0.1	-3.8681
8514	10.901	0.	0.1	-3.6542
8515	10.717	0.	0.1	-3.4442
8516	10.532	0.	0.1	-3.2408
8517	10.348	0.	0.1	-3.0472
8518	10.163	0.	0.1	-2.8673
8519	9.9789	0.	0.1	-2.7055
8520	9.7944	0.	0.1	-2.5675
8521	9.6099	0.	0.1	-2.4598
8522	9.4254	0.	0.1	-2.3901
8523	9.2409	0.	0.1	-2.3673
8524	9.0564	0.	0.1	-2.4022
8525	8.8719	0.	0.1	-2.5072
8526	8.6875	0.	0.1	-2.6968
8527	8.503	0.	0.1	-2.9881
8528	8.3185	0.	0.1	-3.4015
8529	8.134	0.	0.1	-3.9608
8530	7.9495	0.	0.1	-4.6943
8531	7.765	0.	0.1	-5.6347
8532	7.5805	0.	0.1	-6.8193
8533	7.396	0.	0.1	-8.2886
8534	7.2116	0.	0.1	-10.082
8535	7.0271	0.	0.1	-12.231
8536	6.8426	0.	0.1	-14.742
8537	6.6581	0.	0.1	-17.57
8538	6.4736	0.	0.1	-20.581
8539	6.2891	0.	0.1	-23.471
8540	6.1046	0.	0.1	-25.742
8541	5.9201	0.	0.1	-26.307
8542	5.7356	0.	0.1	-24.286
8543	5.5512	0.	0.1	-20.854
8544	5.3667	0.	0.1	-12.823
8545	5.2	0.	0.1	-16.551
8546	5.0207	-3.2798e-030	0.1	-25.483
8547	4.8414	-3.1626e-030	0.1	-30.082
8548	4.6621	-3.0455e-030	0.1	-33.244
8549	4.4828	-2.9284e-030	0.1	-33.4
8550	4.3034	-2.8112e-030	0.1	-31.459
8551	4.1241	-2.6941e-030	0.1	-28.683
8552	3.9448	-2.577e-030	0.1	-25.674
8553	3.7655	-2.4598e-030	0.1	-22.826
8554	3.5862	-2.3427e-030	0.1	-20.352
8555	3.4069	-2.2256e-030	0.1	-18.37
8556	3.2276	-2.1084e-030	0.1	-16.949
8557	3.0483	-1.9913e-030	0.1	-16.137
8558	2.869	-1.8742e-030	0.1	-15.976
8559	2.6897	-1.757e-030	0.1	-16.52
8560	2.5103	-1.6399e-030	0.1	-17.836
8561	2.331	-1.5228e-030	0.1	-20.016
8562	2.1517	-1.4056e-030	0.1	-23.184
8563	1.9724	-1.2885e-030	0.1	-27.503
8564	1.7931	-1.1714e-030	0.1	-33.194
8565	1.6138	-1.0542e-030	0.1	-40.561
8566	1.4345	-9.3708e-031	0.1	-50.022
8567	1.2552	-8.1995e-031	0.1	-62.246
8568	1.0759	-7.0281e-031	0.1	-78.107
8569	0.89655	-5.8568e-031	0.1	-99.634
8570	0.71724	-4.6854e-031	0.1	-128.92
8571	0.53793	-3.5141e-031	0.1	-175.16
8572	0.35862	-2.3427e-031	0.1	-253.27
8573	0.17931	-1.1714e-031	0.1	-442.2
8574	0.	0.	0.1	-1793.9
8575	3.937e-014	6.	0.1	-1793.9
8576	0.17931	6.	0.1	-442.2
8577	0.35862	6.	0.1	-253.27
8578	0.53793	6.	0.1	-175.16
8579	0.71724	6.	0.1	-128.92
8580	0.89655	6.	0.1	-99.634
8581	1.0759	6.	0.1	-78.106
8582	1.2552	6.	0.1	-62.245
8583	1.4345	6.	0.1	-50.022
8584	1.6138	6.	0.1	-40.561
8585	1.7931	6.	0.1	-33.194
8586	1.9724	6.	0.1	-27.503
8587	2.1517	6.	0.1	-23.184
8588	2.331	6.	0.1	-20.016
8589	2.5103	6.	0.1	-17.836
8590	2.6897	6.	0.1	-16.52
8591	2.869	6.	0.1	-15.976
8592	3.0483	6.	0.1	-16.137
8593	3.2276	6.	0.1	-16.949
8594	3.4069	6.	0.1	-18.37
8595	3.5862	6.	0.1	-20.352
8596	3.7655	6.	0.1	-22.826
8597	3.9448	6.	0.1	-25.674
8598	4.1241	6.	0.1	-28.683
8599	4.3034	6.	0.1	-31.459
8600	4.4828	6.	0.1	-33.4
8601	4.6621	6.	0.1	-33.244
8602	4.8414	6.	0.1	-30.082
8603	5.0207	6.	0.1	-25.483
8604	5.2	6.	0.1	-16.551
8605	5.0207	6.	0.	-697.51
8606	4.8414	6.	0.	-1374.9
8607	4.6621	6.	0.	-1986.2
8608	4.4828	6.	0.	-2541.5
8609	4.3034	6.	0.	-3040.4
8610	4.1241	6.	0.	-3482.5
8611	3.9448	6.	0.	-3869.8
8612	3.7655	6.	0.	-4206.4
8613	3.5862	6.	0.	-4497.5
8614	3.4069	6.	0.	-4748.8
8615	3.2276	6.	0.	-4965.8
8616	3.0483	6.	0.	-5153.6
8617	2.869	6.	0.	-5316.7
8618	2.6897	6.	0.	-5458.7
8619	2.5103	6.	0.	-5582.3
8620	2.331	6.	0.	-5689.8
8621	2.1517	6.	0.	-5782.2
8622	1.9724	6.	0.	-5859.8
8623	1.7931	6.	0.	-5922.
8624	1.6138	6.	0.	-5966.7
8625	1.4345	6.	0.	-5990.3
8626	1.2552	6.	0.	-5986.6
8627	1.0759	6.	0.	-5945.9
8628	0.89655	6.	0.	-5851.1
8629	0.71724	6.	0.	-5674.1
8630	0.53793	6.	0.	-5353.9
8631	0.35862	6.	0.	-4783.6
8632	0.17931	6.	0.	-3572.6
8633	5.2	6.	0.	-65.386
8634	3.937e-014	6.	0.	-800.37
8635	0.17931	-1.1714e-031	0.	-3572.6
8636	0.35862	-2.3427e-031	0.	-4783.6
8637	0.53793	-3.5141e-031	0.	-5353.9
8638	0.71724	-4.6854e-031	0.	-5674.1
8639	0.89655	-5.8568e-031	0.	-5851.1
8640	1.0759	-7.0281e-031	0.	-5945.9
8641	1.2552	-8.1995e-031	0.	-5986.6
8642	1.4345	-9.3708e-031	0.	-5990.3
8643	1.6138	-1.0542e-030	0.	-5966.7
8644	1.7931	-1.1714e-030	0.	-5922.
8645	1.9724	-1.2885e-030	0.	-5859.8
8646	2.1517	-1.4056e-030	0.	-5782.2
8647	2.331	-1.5228e-030	0.	-5689.8
8648	2.5103	-1.6399e-030	0.	-5582.3
8649	2.6897	-1.757e-030	0.	-5458.7
8650	2.869	-1.8742e-030	0.	-5316.7
8651	3.0483	-1.9913e-030	0.	-5153.6
8652	3.2276	-2.1084e-030	0.	-4965.8
8653	3.4069	-2.2256e-030	0.	-4748.8
8654	3.5862	-2.3427e-030	0.	-4497.5
8655	3.7655	-2.4598e-030	0.	-4206.4
8656	3.9448	-2.577e-030	0.	-3869.8
8657	4.1241	-2.6941e-030	0.	-3482.5
8658	4.3034	-2.8112e-030	0.	-3040.4
8659	4.4828	-2.9284e-030	0.	-2541.5
8660	4.6621	-3.0455e-030	0.	-1986.2
8661	4.8414	-3.1626e-030	0.	-1374.9
8662	5.0207	-3.2798e-030	0.	-697.51
8663	5.2	0.	0.	-65.386
8664	0.	0.	0.	-800.37
8665	5.5512	0.	0.	-589.44
8666	5.7356	0.	0.	-1153.4
8667	5.9201	0.	0.	-1652.4
8668	6.1046	0.	0.	-2091.8
8669	6.2891	0.	0.	-2470.2
8670	6.4736	0.	0.	-2787.8
8671	6.6581	0.	0.	-3047.5
8672	6.8426	0.	0.	-3254.6
8673	7.0271	0.	0.	-3415.2
8674	7.2116	0.	0.	-3535.9
8675	7.396	0.	0.	-3622.8
8676	7.5805	0.	0.	-3681.9
8677	7.765	0.	0.	-3718.
8678	7.9495	0.	0.	-3735.5
8679	8.134	0.	0.	-3738.
8680	8.3185	0.	0.	-3728.6
8681	8.503	0.	0.	-3709.6
8682	8.6875	0.	0.	-3683.
8683	8.8719	0.	0.	-3650.5
8684	9.0564	0.	0.	-3613.4
8685	9.2409	0.	0.	-3572.6
8686	9.4254	0.	0.	-3529.1
8687	9.6099	0.	0.	-3483.4
8688	9.7944	0.	0.	-3436.1
8689	9.9789	0.	0.	-3387.6
8690	10.163	0.	0.	-3338.3
8691	10.348	0.	0.	-3288.3
8692	10.532	0.	0.	-3237.9
8693	10.717	0.	0.	-3187.2
8694	10.901	0.	0.	-3136.3
8695	11.086	0.	0.	-3085.4
8696	11.27	0.	0.	-3034.5
8697	11.455	0.	0.	-2983.7
8698	11.639	0.	0.	-2933.
8699	11.824	0.	0.	-2882.4
8700	12.008	0.	0.	-2832.
8701	12.193	0.	0.	-2781.8
8702	12.377	0.	0.	-2731.8
8703	12.562	0.	0.	-2682.
8704	12.746	0.	0.	-2632.4
8705	12.931	0.	0.	-2583.
8706	13.115	0.	0.	-2533.9
8707	13.3	0.	0.	-2484.9
8708	13.484	0.	0.	-2436.2
8709	13.669	0.	0.	-2387.8
8710	13.853	0.	0.	-2339.5
8711	14.038	0.	0.	-2291.5
8712	14.222	0.	0.	-2243.6
8713	14.407	0.	0.	-2196.
8714	14.591	0.	0.	-2148.7
8715	14.776	0.	0.	-2101.5
8716	14.96	0.	0.	-2054.6
8717	15.145	0.	0.	-2007.8
8718	15.329	0.	0.	-1961.3
8719	15.514	0.	0.	-1915.
8720	15.698	0.	0.	-1868.9
8721	15.883	0.	0.	-1823.
8722	16.067	0.	0.	-1777.3
8723	16.251	0.	0.	-1731.8
8724	16.436	0.	0.	-1686.5
8725	16.62	0.	0.	-1641.5
8726	16.805	0.	0.	-1596.6
8727	16.989	0.	0.	-1551.9
8728	17.174	0.	0.	-1507.4
8729	17.358	0.	0.	-1463.1
8730	17.543	0.	0.	-1419.
8731	17.727	0.	0.	-1375.1
8732	17.912	0.	0.	-1331.4
8733	18.096	0.	0.	-1287.9
8734	18.281	0.	0.	-1244.5
8735	18.465	0.	0.	-1201.4
8736	18.65	0.	0.	-1158.4
8737	18.834	0.	0.	-1115.6
8738	19.019	0.	0.	-1073.
8739	19.203	0.	0.	-1030.5
8740	19.388	0.	0.	-988.25
8741	19.572	0.	0.	-946.15
8742	19.757	0.	0.	-904.21
8743	19.941	0.	0.	-862.44
8744	20.126	0.	0.	-820.83
8745	20.31	0.	0.	-779.39
8746	20.495	0.	0.	-738.09
8747	20.679	0.	0.	-696.96
8748	20.864	0.	0.	-655.98
8749	21.048	0.	0.	-615.15
8750	21.233	0.	0.	-574.48
8751	21.417	0.	0.	-533.96
8752	21.602	0.	0.	-493.61
8753	21.786	0.	0.	-453.41
8754	21.971	0.	0.	-413.39
8755	22.155	0.	0.	-373.56
8756	22.34	0.	0.	-333.93
8757	22.524	0.	0.	-294.52
8758	22.709	0.	0.	-255.39
8759	22.893	0.	0.	-216.58
8760	23.078	0.	0.	-178.18
8761	23.262	0.	0.	-140.32
8762	23.447	0.	0.	-103.21
8763	23.631	0.	0.	-67.262
8764	23.816	0.	0.	-33.394
8765	5.3667	0.	0.	-57.108
8766	24.	0.	0.	-5.1763
8767	5.0862e-014	5.8182	0.	-2568.6
8768	4.9273e-014	5.6364	0.	-4708.6
8769	4.7683e-014	5.4545	0.	-5746.5
8770	4.6094e-014	5.2727	0.	-6380.6
8771	4.4504e-014	5.0909	0.	-6800.1
8772	4.2915e-014	4.9091	0.	-7096.2
8773	4.1325e-014	4.7273	0.	-7312.2
8774	3.9736e-014	4.5455	0.	-7472.9
8775	3.8147e-014	4.3636	0.	-7593.9
8776	3.6557e-014	4.1818	0.	-7685.2
8777	3.4968e-014	4.	0.	-7753.9
8778	3.3378e-014	3.8182	0.	-7805.1
8779	3.1789e-014	3.6364	0.	-7842.2
8780	3.0199e-014	3.4545	0.	-7868.
8781	2.861e-014	3.2727	0.	-7884.3
8782	2.702e-014	3.0909	0.	-7892.2
8783	2.5431e-014	2.9091	0.	-7892.2
8784	2.3842e-014	2.7273	0.	-7884.3
8785	2.2252e-014	2.5455	0.	-7868.
8786	2.0663e-014	2.3636	0.	-7842.2
8787	1.9073e-014	2.1818	0.	-7805.1
8788	1.7484e-014	2.	0.	-7753.9
8789	1.5894e-014	1.8182	0.	-7685.2
8790	1.4305e-014	1.6364	0.	-7593.9
8791	1.2716e-014	1.4545	0.	-7472.9
8792	1.1126e-014	1.2727	0.	-7312.2
8793	9.5366e-015	1.0909	0.	-7096.2
8794	7.9472e-015	0.90909	0.	-6800.1
8795	6.3578e-015	0.72727	0.	-6380.6
8796	4.7683e-015	0.54545	0.	-5746.5
8797	3.1789e-015	0.36364	0.	-4708.6
8798	1.5894e-015	0.18182	0.	-2568.6
8799	24.	0.18182	0.	-6.742
8800	24.	0.36364	0.	-7.1315
8801	24.	0.54545	0.	-7.2551
8802	24.	0.72727	0.	-7.2951
8803	24.	0.90909	0.	-7.2744
8804	24.	1.0909	0.	-7.2345
8805	24.	1.2727	0.	-7.1844
8806	24.	1.4545	0.	-7.1319
8807	24.	1.6364	0.	-7.0808
8808	24.	1.8182	0.	-7.0334
8809	24.	2.	0.	-6.9912
8810	24.	2.1818	0.	-6.9551
8811	24.	2.3636	0.	-6.9257
8812	24.	2.5455	0.	-6.9033
8813	24.	2.7273	0.	-6.8883
8814	24.	2.9091	0.	-6.8808
8815	24.	3.0909	0.	-6.8808
8816	24.	3.2727	0.	-6.8883
8817	24.	3.4545	0.	-6.9033
8818	24.	3.6364	0.	-6.9257
8819	24.	3.8182	0.	-6.9551
8820	24.	4.	0.	-6.9912
8821	24.	4.1818	0.	-7.0334
8822	24.	4.3636	0.	-7.0808
8823	24.	4.5455	0.	-7.1319
8824	24.	4.7273	0.	-7.1844
8825	24.	4.9091	0.	-7.2345
8826	24.	5.0909	0.	-7.2744
8827	24.	5.2727	0.	-7.2951
8828	24.	5.4545	0.	-7.2551
8829	24.	5.6364	0.	-7.1315
8830	24.	5.8182	0.	-6.742
8831	24.	6.	0.	-5.1762
8832	23.816	6.	0.	-33.394
8833	23.631	6.	0.	-67.262
8834	23.447	6.	0.	-103.21
8835	23.262	6.	0.	-140.32
8836	23.078	6.	0.	-178.18
8837	22.893	6.	0.	-216.58
8838	22.709	6.	0.	-255.39
8839	22.524	6.	0.	-294.52
8840	22.34	6.	0.	-333.93
8841	22.155	6.	0.	-373.56
8842	21.971	6.	0.	-413.39
8843	21.786	6.	0.	-453.41
8844	21.602	6.	0.	-493.61
8845	21.417	6.	0.	-533.96
8846	21.233	6.	0.	-574.48
8847	21.048	6.	0.	-615.15
8848	20.864	6.	0.	-655.98
8849	20.679	6.	0.	-696.96
8850	20.495	6.	0.	-738.09
8851	20.31	6.	0.	-779.38
8852	20.126	6.	0.	-820.83
8853	19.941	6.	0.	-862.44
8854	19.757	6.	0.	-904.21
8855	19.572	6.	0.	-946.15
8856	19.388	6.	0.	-988.25
8857	19.203	6.	0.	-1030.5
8858	19.019	6.	0.	-1073.
8859	18.834	6.	0.	-1115.6
8860	18.65	6.	0.	-1158.4
8861	18.465	6.	0.	-1201.4
8862	18.281	6.	0.	-1244.5
8863	18.096	6.	0.	-1287.9
8864	17.912	6.	0.	-1331.4
8865	17.727	6.	0.	-1375.1
8866	17.543	6.	0.	-1419.
8867	17.358	6.	0.	-1463.1
8868	17.174	6.	0.	-1507.4
8869	16.989	6.	0.	-1551.9
8870	16.805	6.	0.	-1596.6
8871	16.62	6.	0.	-1641.5
8872	16.436	6.	0.	-1686.5
8873	16.251	6.	0.	-1731.8
8874	16.067	6.	0.	-1777.3
8875	15.883	6.	0.	-1823.
8876	15.698	6.	0.	-1868.9
8877	15.514	6.	0.	-1915.
8878	15.329	6.	0.	-1961.3
8879	15.145	6.	0.	-2007.8
8880	14.96	6.	0.	-2054.6
8881	14.776	6.	0.	-2101.5
8882	14.591	6.	0.	-2148.7
8883	14.407	6.	0.	-2196.
8884	14.222	6.	0.	-2243.6
8885	14.038	6.	0.	-2291.5
8886	13.853	6.	0.	-2339.5
8887	13.669	6.	0.	-2387.8
8888	13.484	6.	0.	-2436.2
8889	13.3	6.	0.	-2484.9
8890	13.115	6.	0.	-2533.9
8891	12.931	6.	0.	-2583.
8892	12.746	6.	0.	-2632.4
8893	12.562	6.	0.	-2682.
8894	12.377	6.	0.	-2731.8
8895	12.193	6.	0.	-2781.8
8896	12.008	6.	0.	-2832.
8897	11.824	6.	0.	-2882.4
8898	11.639	6.	0.	-2933.
8899	11.455	6.	0.	-2983.7
8900	11.27	6.	0.	-3034.5
8901	11.086	6.	0.	-3085.4
8902	10.901	6.	0.	-3136.3
8903	10.717	6.	0.	-3187.2
8904	10.532	6.	0.	-3237.9
8905	10.348	6.	0.	-3288.3
8906	10.163	6.	0.	-3338.3
8907	9.9789	6.	0.	-3387.6
8908	9.7944	6.	0.	-3436.1
8909	9.6099	6.	0.	-3483.4
8910	9.4254	6.	0.	-3529.1
8911	9.2409	6.	0.	-3572.6
8912	9.0564	6.	0.	-3613.4
8913	8.8719	6.	0.	-3650.5
8914	8.6875	6.	0.	-3683.
8915	8.503	6.	0.	-3709.6
8916	8.3185	6.	0.	-3728.6
8917	8.134	6.	0.	-3738.
8918	7.9495	6.	0.	-3735.5
8919	7.765	6.	0.	-3718.
8920	7.5805	6.	0.	-3681.9
8921	7.396	6.	0.	-3622.8
8922	7.2116	6.	0.	-3535.9
8923	7.0271	6.	0.	-3415.2
8924	6.8426	6.	0.	-3254.6
8925	6.6581	6.	0.	-3047.5
8926	6.4736	6.	0.	-2787.8
8927	6.2891	6.	0.	-2470.2
8928	6.1046	6.	0.	-2091.8
8929	5.9201	6.	0.	-1652.4
8930	5.7356	6.	0.	-1153.4
8931	5.5512	6.	0.	-589.44
8932	5.3667	6.	0.	-57.108
8933	5.2	1.8182	0.	-5997.2
8934	5.2	1.6364	0.	-4087.
8935	5.2	1.4545	0.	-3313.8
8936	5.2	1.2727	0.	-2733.2
8937	5.2	1.0909	0.	-2296.4
8938	5.2	0.90909	0.	-1925.5
8939	5.2	0.72727	0.	-1589.8
8940	5.2	0.54545	0.	-1265.
8941	5.2	0.36364	0.	-927.98
8942	5.2	0.18182	0.	-532.14
8943	5.2	2.	0.	-24420
8944	5.3667	0.18182	0.	-440.18
8945	5.3667	0.36364	0.	-770.43
8946	5.3667	0.54545	0.	-1061.1
8947	5.3667	0.72727	0.	-1353.2
8948	5.3667	0.90909	0.	-1668.8
8949	5.3667	1.0909	0.	-2033.2
8950	5.3667	1.2727	0.	-2479.9
8951	5.3667	1.4545	0.	-3089.1
8952	5.3667	1.6364	0.	-3927.5
8953	5.3667	1.8182	0.	-5958.3
8954	5.3667	2.	0.	-24169
8955	5.2	4.1818	0.	-5997.2
8956	5.2	4.3636	0.	-4087.
8957	5.2	4.5455	0.	-3313.8
8958	5.2	4.7273	0.	-2733.2
8959	5.2	4.9091	0.	-2296.4
8960	5.2	5.0909	0.	-1925.5
8961	5.2	5.2727	0.	-1589.8
8962	5.2	5.4545	0.	-1265.
8963	5.2	5.6364	0.	-927.98
8964	5.2	5.8182	0.	-532.14
8965	5.2	4.	0.	-24420
8966	5.3667	5.8182	0.	-440.18
8967	5.3667	5.6364	0.	-770.43
8968	5.3667	5.4545	0.	-1061.1
8969	5.3667	5.2727	0.	-1353.2
8970	5.3667	5.0909	0.	-1668.8
8971	5.3667	4.9091	0.	-2033.2
8972	5.3667	4.7273	0.	-2479.9
8973	5.3667	4.5455	0.	-3089.1
8974	5.3667	4.3636	0.	-3927.5
8975	5.3667	4.1818	0.	-5958.3
8976	5.3667	4.	0.	-24169
8977	5.2	2.2727	0.	-15210
8978	5.2833	2.1818	0.	-16744
8979	5.1103	2.1818	0.	-14718
8980	5.2	2.1818	5.e-002	-582.5
8981	5.2	2.0909	0.	-20365
8982	5.2	2.4545	0.	-12687
8983	5.2833	2.3636	0.	-13400
8984	5.1103	2.3636	0.	-12699
8985	5.2	2.3636	5.e-002	-102.87
8986	5.2	2.6364	0.	-11497
8987	5.2833	2.5455	0.	-11858
8988	5.1103	2.5455	0.	-11501
8989	5.2	2.5455	5.e-002	-47.115
8990	5.2	2.8182	0.	-10925
8991	5.2833	2.7273	0.	-11066
8992	5.1103	2.7273	0.	-10859
8993	5.2	2.7273	5.e-002	-23.648
8994	5.2	3.	0.	-10753
8995	5.2833	2.9091	0.	-10727
8996	5.1103	2.9091	0.	-10571
8997	5.2	2.9091	5.e-002	-11.947
8998	5.2	3.1818	0.	-10925
8999	5.2833	3.0909	0.	-10727
9000	5.1103	3.0909	0.	-10571
9001	5.2	3.0909	5.e-002	-11.947
9002	5.2	3.3636	0.	-11497
9003	5.2833	3.2727	0.	-11066
9004	5.1103	3.2727	0.	-10859
9005	5.2	3.2727	5.e-002	-23.649
9006	5.2	3.5455	0.	-12687
9007	5.2833	3.4545	0.	-11858
9008	5.1103	3.4545	0.	-11501
9009	5.2	3.4545	5.e-002	-47.115
9010	5.2	3.7273	0.	-15210
9011	5.2833	3.6364	0.	-13400
9012	5.1103	3.6364	0.	-12699
9013	5.2	3.6364	5.e-002	-102.87
9014	5.2833	3.8182	0.	-16744
9015	5.1103	3.8182	0.	-14718
9016	5.2	3.8182	5.e-002	-582.5
9017	5.2	3.9091	0.	-20365
9018	5.3667	2.2727	0.	-15135
9019	5.4589	2.1818	0.	-14529
9020	5.3667	2.1818	5.e-002	-573.87
9021	5.3667	2.0909	0.	-20201
9022	5.3667	2.4545	0.	-12629
9023	5.4589	2.3636	0.	-12558
9024	5.3667	2.3636	5.e-002	-113.42
9025	5.3667	2.6364	0.	-11443
9026	5.4589	2.5455	0.	-11377
9027	5.3667	2.5455	5.e-002	-57.03
9028	5.3667	2.8182	0.	-10872
9029	5.4589	2.7273	0.	-10742
9030	5.3667	2.7273	5.e-002	-32.554
9031	5.3667	3.	0.	-10701
9032	5.4589	2.9091	0.	-10458
9033	5.3667	2.9091	5.e-002	-22.684
9034	5.3667	3.1818	0.	-10872
9035	5.4589	3.0909	0.	-10458
9036	5.3667	3.0909	5.e-002	-22.684
9037	5.3667	3.3636	0.	-11443
9038	5.4589	3.2727	0.	-10742
9039	5.3667	3.2727	5.e-002	-32.554
9040	5.3667	3.5455	0.	-12629
9041	5.4589	3.4545	0.	-11377
9042	5.3667	3.4545	5.e-002	-57.03
9043	5.3667	3.7273	0.	-15135
9044	5.4589	3.6364	0.	-12558
9045	5.3667	3.6364	5.e-002	-113.42
9046	5.4589	3.8182	0.	-14529
9047	5.3667	3.8182	5.e-002	-573.87
9048	5.3667	3.9091	0.	-20201
9049	5.0207	5.7273	0.	-1190.3
9050	4.931	5.8182	0.	-1263.2
9051	5.0207	5.8182	5.e-002	-82.5
9052	5.0207	5.9091	0.	-814.88
9053	5.1103	5.8182	0.	-714.81
9054	5.0207	5.5455	0.	-1608.5
9055	4.931	5.6364	0.	-1556.9
9056	5.0207	5.6364	5.e-002	-73.688
9057	5.1103	5.6364	0.	-1100.9
9058	5.0207	5.3636	0.	-2061.
9059	4.931	5.4545	0.	-1943.4
9060	5.0207	5.4545	5.e-002	-77.436
9061	5.1103	5.4545	0.	-1480.
9062	5.0207	5.1818	0.	-2546.8
9063	4.931	5.2727	0.	-2375.4
9064	5.0207	5.2727	5.e-002	-85.514
9065	5.1103	5.2727	0.	-1861.8
9066	5.0207	5.	0.	-3090.8
9067	4.931	5.0909	0.	-2858.2
9068	5.0207	5.0909	5.e-002	-97.741
9069	5.1103	5.0909	0.	-2267.2
9070	5.0207	4.8182	0.	-3733.5
9071	4.931	4.9091	0.	-3415.3
9072	5.0207	4.9091	5.e-002	-115.11
9073	5.1103	4.9091	0.	-2722.9
9074	5.0207	4.6364	0.	-4555.1
9075	4.931	4.7273	0.	-4089.
9076	5.0207	4.7273	5.e-002	-141.96
9077	5.1103	4.7273	0.	-3267.7
9078	5.0207	4.4545	0.	-5698.8
9079	4.931	4.5455	0.	-4962.2
9080	5.0207	4.5455	5.e-002	-176.64
9081	5.1103	4.5455	0.	-3985.9
9082	5.0207	4.2727	0.	-7682.1
9083	4.931	4.3636	0.	-6155.1
9084	5.0207	4.3636	5.e-002	-261.32
9085	5.1103	4.3636	0.	-4997.7
9086	5.0207	4.0909	0.	-10733
9087	4.931	4.1818	0.	-8200.7
9088	5.0207	4.1818	5.e-002	-503.63
9089	5.1103	4.1818	0.	-6831.3
9090	5.0207	3.9091	0.	-12558
9091	4.931	4.	0.	-10671
9092	5.0207	4.	5.e-002	-888.41
9093	5.1103	4.	0.	-18408
9094	5.0207	3.7273	0.	-12315
9095	4.931	3.8182	0.	-11240
9096	5.0207	3.8182	5.e-002	-413.78
9097	5.0207	3.5455	0.	-11543
9098	4.931	3.6364	0.	-11017
9099	5.0207	3.6364	5.e-002	-171.78
9100	5.0207	3.3636	0.	-10872
9101	4.931	3.4545	0.	-10549
9102	5.0207	3.4545	5.e-002	-92.934
9103	5.0207	3.1818	0.	-10505
9104	4.931	3.2727	0.	-10224
9105	5.0207	3.2727	5.e-002	-53.771
9106	5.0207	3.	0.	-10387
9107	4.931	3.0909	0.	-10059
9108	5.0207	3.0909	5.e-002	-40.144
9109	5.0207	2.8182	0.	-10505
9110	4.931	2.9091	0.	-10059
9111	5.0207	2.9091	5.e-002	-40.144
9112	5.0207	2.6364	0.	-10872
9113	4.931	2.7273	0.	-10224
9114	5.0207	2.7273	5.e-002	-53.771
9115	5.0207	2.4545	0.	-11543
9116	4.931	2.5455	0.	-10549
9117	5.0207	2.5455	5.e-002	-92.934
9118	5.0207	2.2727	0.	-12315
9119	4.931	2.3636	0.	-11017
9120	5.0207	2.3636	5.e-002	-171.77
9121	5.0207	2.0909	0.	-12558
9122	4.931	2.1818	0.	-11240
9123	5.0207	2.1818	5.e-002	-413.78
9124	5.0207	1.9091	0.	-10733
9125	4.931	2.	0.	-10671
9126	5.0207	2.	5.e-002	-888.41
9127	5.1103	2.	0.	-18408
9128	5.0207	1.7273	0.	-7682.1
9129	4.931	1.8182	0.	-8200.7
9130	5.0207	1.8182	5.e-002	-503.63
9131	5.1103	1.8182	0.	-6831.3
9132	5.0207	1.5455	0.	-5698.8
9133	4.931	1.6364	0.	-6155.2
9134	5.0207	1.6364	5.e-002	-261.32
9135	5.1103	1.6364	0.	-4997.7
9136	5.0207	1.3636	0.	-4555.1
9137	4.931	1.4545	0.	-4962.2
9138	5.0207	1.4545	5.e-002	-176.64
9139	5.1103	1.4545	0.	-3985.9
9140	5.0207	1.1818	0.	-3733.5
9141	4.931	1.2727	0.	-4089.
9142	5.0207	1.2727	5.e-002	-141.96
9143	5.1103	1.2727	0.	-3267.7
9144	5.0207	1.	0.	-3090.8
9145	4.931	1.0909	0.	-3415.3
9146	5.0207	1.0909	5.e-002	-115.11
9147	5.1103	1.0909	0.	-2722.9
9148	5.0207	0.81818	0.	-2546.8
9149	4.931	0.90909	0.	-2858.2
9150	5.0207	0.90909	5.e-002	-97.741
9151	5.1103	0.90909	0.	-2267.2
9152	5.0207	0.63636	0.	-2061.
9153	4.931	0.72727	0.	-2375.4
9154	5.0207	0.72727	5.e-002	-85.514
9155	5.1103	0.72727	0.	-1861.8
9156	5.0207	0.45455	0.	-1608.5
9157	4.931	0.54545	0.	-1943.4
9158	5.0207	0.54545	5.e-002	-77.436
9159	5.1103	0.54545	0.	-1480.
9160	5.0207	0.27273	0.	-1190.3
9161	4.931	0.36364	0.	-1556.9
9162	5.0207	0.36364	5.e-002	-73.688
9163	5.1103	0.36364	0.	-1100.9
9164	4.931	0.18182	0.	-1263.2
9165	5.0207	0.18182	5.e-002	-82.5
9166	5.0207	9.0909e-002	0.	-814.88
9167	5.1103	0.18182	0.	-714.81
9168	4.8414	5.7273	0.	-1661.3
9169	4.7517	5.8182	0.	-1843.2
9170	4.8414	5.8182	5.e-002	-74.207
9171	4.8414	5.9091	0.	-1443.
9172	4.8414	5.5455	0.	-1937.4
9173	4.7517	5.6364	0.	-2020.
9174	4.8414	5.6364	5.e-002	-63.349
9175	4.8414	5.3636	0.	-2303.4
9176	4.7517	5.4545	0.	-2309.2
9177	4.8414	5.4545	5.e-002	-63.239
9178	4.8414	5.1818	0.	-2732.2
9179	4.7517	5.2727	0.	-2673.4
9180	4.8414	5.2727	5.e-002	-66.017
9181	4.8414	5.	0.	-3230.9
9182	4.7517	5.0909	0.	-3105.6
9183	4.8414	5.0909	5.e-002	-71.392
9184	4.8414	4.8182	0.	-3826.5
9185	4.7517	4.9091	0.	-3616.1
9186	4.8414	4.9091	5.e-002	-79.776
9187	4.8414	4.6364	0.	-4564.9
9188	4.7517	4.7273	0.	-4230.7
9189	4.8414	4.7273	5.e-002	-90.511
9190	4.8414	4.4545	0.	-5518.6
9191	4.7517	4.5455	0.	-4988.6
9192	4.8414	4.5455	5.e-002	-111.53
9193	4.8414	4.2727	0.	-6753.2
9194	4.7517	4.3636	0.	-5941.
9195	4.8414	4.3636	5.e-002	-109.56
9196	4.8414	4.0909	0.	-8088.4
9197	4.7517	4.1818	0.	-7080.8
9198	4.8414	4.1818	5.e-002	-158.19
9199	4.8414	3.9091	0.	-9250.4
9200	4.7517	4.	0.	-8169.9
9201	4.8414	4.	5.e-002	-139.46
9202	4.8414	3.7273	0.	-9899.
9203	4.7517	3.8182	0.	-9015.7
9204	4.8414	3.8182	5.e-002	-196.75
9205	4.8414	3.5455	0.	-10008
9206	4.7517	3.6364	0.	-9380.7
9207	4.8414	3.6364	5.e-002	-134.43
9208	4.8414	3.3636	0.	-9893.6
9209	4.7517	3.4545	0.	-9436.1
9210	4.8414	3.4545	5.e-002	-98.273
9211	4.8414	3.1818	0.	-9771.2
9212	4.7517	3.2727	0.	-9388.1
9213	4.8414	3.2727	5.e-002	-68.965
9214	4.8414	3.	0.	-9724.4
9215	4.7517	3.0909	0.	-9345.1
9216	4.8414	3.0909	5.e-002	-56.537
9217	4.8414	2.8182	0.	-9771.2
9218	4.7517	2.9091	0.	-9345.1
9219	4.8414	2.9091	5.e-002	-56.537
9220	4.8414	2.6364	0.	-9893.6
9221	4.7517	2.7273	0.	-9388.1
9222	4.8414	2.7273	5.e-002	-68.965
9223	4.8414	2.4545	0.	-10008
9224	4.7517	2.5455	0.	-9436.1
9225	4.8414	2.5455	5.e-002	-98.273
9226	4.8414	2.2727	0.	-9899.
9227	4.7517	2.3636	0.	-9380.7
9228	4.8414	2.3636	5.e-002	-134.43
9229	4.8414	2.0909	0.	-9250.4
9230	4.7517	2.1818	0.	-9015.7
9231	4.8414	2.1818	5.e-002	-196.75
9232	4.8414	1.9091	0.	-8088.4
9233	4.7517	2.	0.	-8169.9
9234	4.8414	2.	5.e-002	-139.46
9235	4.8414	1.7273	0.	-6753.2
9236	4.7517	1.8182	0.	-7080.8
9237	4.8414	1.8182	5.e-002	-158.19
9238	4.8414	1.5455	0.	-5518.6
9239	4.7517	1.6364	0.	-5941.
9240	4.8414	1.6364	5.e-002	-109.56
9241	4.8414	1.3636	0.	-4564.9
9242	4.7517	1.4545	0.	-4988.6
9243	4.8414	1.4545	5.e-002	-111.53
9244	4.8414	1.1818	0.	-3826.5
9245	4.7517	1.2727	0.	-4230.7
9246	4.8414	1.2727	5.e-002	-90.511
9247	4.8414	1.	0.	-3230.9
9248	4.7517	1.0909	0.	-3616.1
9249	4.8414	1.0909	5.e-002	-79.776
9250	4.8414	0.81818	0.	-2732.2
9251	4.7517	0.90909	0.	-3105.6
9252	4.8414	0.90909	5.e-002	-71.392
9253	4.8414	0.63636	0.	-2303.4
9254	4.7517	0.72727	0.	-2673.4
9255	4.8414	0.72727	5.e-002	-66.017
9256	4.8414	0.45455	0.	-1937.4
9257	4.7517	0.54545	0.	-2309.2
9258	4.8414	0.54545	5.e-002	-63.239
9259	4.8414	0.27273	0.	-1661.3
9260	4.7517	0.36364	0.	-2020.
9261	4.8414	0.36364	5.e-002	-63.349
9262	4.7517	0.18182	0.	-1843.2
9263	4.8414	0.18182	5.e-002	-74.207
9264	4.8414	9.0909e-002	0.	-1443.
9265	4.6621	5.7273	0.	-2208.4
9266	4.5724	5.8182	0.	-2401.4
9267	4.6621	5.8182	5.e-002	-70.296
9268	4.6621	5.9091	0.	-2043.2
9269	4.6621	5.5455	0.	-2410.9
9270	4.5724	5.6364	0.	-2532.7
9271	4.6621	5.6364	5.e-002	-59.29
9272	4.6621	5.3636	0.	-2707.1
9273	4.5724	5.4545	0.	-2759.7
9274	4.6621	5.4545	5.e-002	-59.013
9275	4.6621	5.1818	0.	-3079.2
9276	4.5724	5.2727	0.	-3064.
9277	4.6621	5.2727	5.e-002	-60.552
9278	4.6621	5.	0.	-3526.4
9279	4.5724	5.0909	0.	-3440.
9280	4.6621	5.0909	5.e-002	-63.289
9281	4.6621	4.8182	0.	-4058.9
9282	4.5724	4.9091	0.	-3889.9
9283	4.6621	4.9091	5.e-002	-66.929
9284	4.6621	4.6364	0.	-4695.
9285	4.5724	4.7273	0.	-4421.9
9286	4.6621	4.7273	5.e-002	-70.504
9287	4.6621	4.4545	0.	-5444.6
9288	4.5724	4.5455	0.	-5046.2
9289	4.6621	4.5455	5.e-002	-70.365
9290	4.6621	4.2727	0.	-6287.3
9291	4.5724	4.3636	0.	-5755.4
9292	4.6621	4.3636	5.e-002	-70.146
9293	4.6621	4.0909	0.	-7155.
9294	4.5724	4.1818	0.	-6511.3
9295	4.6621	4.1818	5.e-002	-69.646
9296	4.6621	3.9091	0.	-7920.7
9297	4.5724	4.	0.	-7237.
9298	4.6621	4.	5.e-002	-87.441
9299	4.6621	3.7273	0.	-8476.9
9300	4.5724	3.8182	0.	-7832.6
9301	4.6621	3.8182	5.e-002	-94.865
9302	4.6621	3.5455	0.	-8791.5
9303	4.5724	3.6364	0.	-8244.8
9304	4.6621	3.6364	5.e-002	-95.112
9305	4.6621	3.3636	0.	-8918.
9306	4.5724	3.4545	0.	-8466.8
9307	4.6621	3.4545	5.e-002	-79.661
9308	4.6621	3.1818	0.	-8951.8
9309	4.5724	3.2727	0.	-8563.2
9310	4.6621	3.2727	5.e-002	-67.293
9311	4.6621	3.	0.	-8956.4
9312	4.5724	3.0909	0.	-8595.7
9313	4.6621	3.0909	5.e-002	-60.129
9314	4.6621	2.8182	0.	-8951.8
9315	4.5724	2.9091	0.	-8595.7
9316	4.6621	2.9091	5.e-002	-60.129
9317	4.6621	2.6364	0.	-8918.
9318	4.5724	2.7273	0.	-8563.2
9319	4.6621	2.7273	5.e-002	-67.293
9320	4.6621	2.4545	0.	-8791.5
9321	4.5724	2.5455	0.	-8466.8
9322	4.6621	2.5455	5.e-002	-79.661
9323	4.6621	2.2727	0.	-8476.9
9324	4.5724	2.3636	0.	-8244.8
9325	4.6621	2.3636	5.e-002	-95.111
9326	4.6621	2.0909	0.	-7920.7
9327	4.5724	2.1818	0.	-7832.6
9328	4.6621	2.1818	5.e-002	-94.865
9329	4.6621	1.9091	0.	-7155.
9330	4.5724	2.	0.	-7237.
9331	4.6621	2.	5.e-002	-87.441
9332	4.6621	1.7273	0.	-6287.3
9333	4.5724	1.8182	0.	-6511.3
9334	4.6621	1.8182	5.e-002	-69.646
9335	4.6621	1.5455	0.	-5444.6
9336	4.5724	1.6364	0.	-5755.4
9337	4.6621	1.6364	5.e-002	-70.146
9338	4.6621	1.3636	0.	-4695.
9339	4.5724	1.4545	0.	-5046.2
9340	4.6621	1.4545	5.e-002	-70.365
9341	4.6621	1.1818	0.	-4058.9
9342	4.5724	1.2727	0.	-4421.9
9343	4.6621	1.2727	5.e-002	-70.504
9344	4.6621	1.	0.	-3526.4
9345	4.5724	1.0909	0.	-3889.9
9346	4.6621	1.0909	5.e-002	-66.929
9347	4.6621	0.81818	0.	-3079.2
9348	4.5724	0.90909	0.	-3440.
9349	4.6621	0.90909	5.e-002	-63.289
9350	4.6621	0.63636	0.	-2707.1
9351	4.5724	0.72727	0.	-3064.
9352	4.6621	0.72727	5.e-002	-60.552
9353	4.6621	0.45455	0.	-2410.9
9354	4.5724	0.54545	0.	-2759.7
9355	4.6621	0.54545	5.e-002	-59.013
9356	4.6621	0.27273	0.	-2208.4
9357	4.5724	0.36364	0.	-2532.7
9358	4.6621	0.36364	5.e-002	-59.29
9359	4.5724	0.18182	0.	-2401.4
9360	4.6621	0.18182	5.e-002	-70.296
9361	4.6621	9.0909e-002	0.	-2043.2
9362	4.4828	5.7273	0.	-2728.2
9363	4.3931	5.8182	0.	-2909.5
9364	4.4828	5.8182	5.e-002	-65.44
9365	4.4828	5.9091	0.	-2591.5
9366	4.4828	5.5455	0.	-2889.6
9367	4.3931	5.6364	0.	-3017.3
9368	4.4828	5.6364	5.e-002	-53.962
9369	4.4828	5.3636	0.	-3131.8
9370	4.3931	5.4545	0.	-3202.4
9371	4.4828	5.4545	5.e-002	-53.403
9372	4.4828	5.1818	0.	-3445.2
9373	4.3931	5.2727	0.	-3454.7
9374	4.4828	5.2727	5.e-002	-53.845
9375	4.4828	5.	0.	-3827.2
9376	4.3931	5.0909	0.	-3771.3
9377	4.4828	5.0909	5.e-002	-54.482
9378	4.4828	4.8182	0.	-4277.9
9379	4.3931	4.9091	0.	-4150.2
9380	4.4828	4.9091	5.e-002	-54.785
9381	4.4828	4.6364	0.	-4796.5
9382	4.3931	4.7273	0.	-4589.5
9383	4.4828	4.7273	5.e-002	-53.848
9384	4.4828	4.4545	0.	-5375.
9385	4.3931	4.5455	0.	-5083.4
9386	4.4828	4.5455	5.e-002	-51.334
9387	4.4828	4.2727	0.	-5988.4
9388	4.3931	4.3636	0.	-5616.8
9389	4.4828	4.3636	5.e-002	-48.295
9390	4.4828	4.0909	0.	-6595.3
9391	4.3931	4.1818	0.	-6159.6
9392	4.4828	4.1818	5.e-002	-49.268
9393	4.4828	3.9091	0.	-7145.9
9394	4.3931	4.	0.	-6674.9
9395	4.4828	4.	5.e-002	-55.705
9396	4.4828	3.7273	0.	-7593.4
9397	4.3931	3.8182	0.	-7124.2
9398	4.4828	3.8182	5.e-002	-61.474
9399	4.4828	3.5455	0.	-7910.4
9400	4.3931	3.6364	0.	-7475.4
9401	4.4828	3.6364	5.e-002	-63.73
9402	4.4828	3.3636	0.	-8102.2
9403	4.3931	3.4545	0.	-7715.2
9404	4.4828	3.4545	5.e-002	-61.729
9405	4.4828	3.1818	0.	-8197.9
9406	4.3931	3.2727	0.	-7855.1
9407	4.4828	3.2727	5.e-002	-57.862
9408	4.4828	3.	0.	-8226.1
9409	4.3931	3.0909	0.	-7917.5
9410	4.4828	3.0909	5.e-002	-55.167
9411	4.4828	2.8182	0.	-8197.9
9412	4.3931	2.9091	0.	-7917.5
9413	4.4828	2.9091	5.e-002	-55.167
9414	4.4828	2.6364	0.	-8102.2
9415	4.3931	2.7273	0.	-7855.1
9416	4.4828	2.7273	5.e-002	-57.862
9417	4.4828	2.4545	0.	-7910.4
9418	4.3931	2.5455	0.	-7715.2
9419	4.4828	2.5455	5.e-002	-61.728
9420	4.4828	2.2727	0.	-7593.4
9421	4.3931	2.3636	0.	-7475.4
9422	4.4828	2.3636	5.e-002	-63.73
9423	4.4828	2.0909	0.	-7145.9
9424	4.3931	2.1818	0.	-7124.2
9425	4.4828	2.1818	5.e-002	-61.474
9426	4.4828	1.9091	0.	-6595.3
9427	4.3931	2.	0.	-6674.9
9428	4.4828	2.	5.e-002	-55.704
9429	4.4828	1.7273	0.	-5988.4
9430	4.3931	1.8182	0.	-6159.6
9431	4.4828	1.8182	5.e-002	-49.268
9432	4.4828	1.5455	0.	-5375.
9433	4.3931	1.6364	0.	-5616.8
9434	4.4828	1.6364	5.e-002	-48.295
9435	4.4828	1.3636	0.	-4796.5
9436	4.3931	1.4545	0.	-5083.4
9437	4.4828	1.4545	5.e-002	-51.334
9438	4.4828	1.1818	0.	-4277.9
9439	4.3931	1.2727	0.	-4589.5
9440	4.4828	1.2727	5.e-002	-53.848
9441	4.4828	1.	0.	-3827.2
9442	4.3931	1.0909	0.	-4150.2
9443	4.4828	1.0909	5.e-002	-54.785
9444	4.4828	0.81818	0.	-3445.2
9445	4.3931	0.90909	0.	-3771.3
9446	4.4828	0.90909	5.e-002	-54.482
9447	4.4828	0.63636	0.	-3131.8
9448	4.3931	0.72727	0.	-3454.7
9449	4.4828	0.72727	5.e-002	-53.845
9450	4.4828	0.45455	0.	-2889.6
9451	4.3931	0.54545	0.	-3202.4
9452	4.4828	0.54545	5.e-002	-53.403
9453	4.4828	0.27273	0.	-2728.2
9454	4.3931	0.36364	0.	-3017.3
9455	4.4828	0.36364	5.e-002	-53.962
9456	4.3931	0.18182	0.	-2909.5
9457	4.4828	0.18182	5.e-002	-65.44
9458	4.4828	9.0909e-002	0.	-2591.5
9459	4.3034	5.7273	0.	-3200.2
9460	4.2138	5.8182	0.	-3363.3
9461	4.3034	5.8182	5.e-002	-59.9
9462	4.3034	5.9091	0.	-3084.3
9463	4.3034	5.5455	0.	-3334.
9464	4.2138	5.6364	0.	-3454.5
9465	4.3034	5.6364	5.e-002	-48.215
9466	4.3034	5.3636	0.	-3533.5
9467	4.2138	5.4545	0.	-3607.6
9468	4.3034	5.4545	5.e-002	-47.313
9469	4.3034	5.1818	0.	-3792.9
9470	4.2138	5.2727	0.	-3815.6
9471	4.3034	5.2727	5.e-002	-46.962
9472	4.3034	5.	0.	-4108.8
9473	4.2138	5.0909	0.	-4076.2
9474	4.3034	5.0909	5.e-002	-46.311
9475	4.3034	4.8182	0.	-4477.
9476	4.2138	4.9091	0.	-4385.8
9477	4.3034	4.9091	5.e-002	-44.968
9478	4.3034	4.6364	0.	-4890.2
9479	4.2138	4.7273	0.	-4738.4
9480	4.3034	4.7273	5.e-002	-42.649
9481	4.3034	4.4545	0.	-5335.8
9482	4.2138	4.5455	0.	-5124.4
9483	4.3034	4.5455	5.e-002	-39.518
9484	4.3034	4.2727	0.	-5794.3
9485	4.2138	4.3636	0.	-5529.1
9486	4.3034	4.3636	5.e-002	-37.167
9487	4.3034	4.0909	0.	-6242.
9488	4.2138	4.1818	0.	-5933.3
9489	4.3034	4.1818	5.e-002	-37.663
9490	4.3034	3.9091	0.	-6653.2
9491	4.2138	4.	0.	-6316.4
9492	4.3034	4.	5.e-002	-40.322
9493	4.3034	3.7273	0.	-7003.8
9494	4.2138	3.8182	0.	-6658.2
9495	4.3034	3.8182	5.e-002	-43.321
9496	4.3034	3.5455	0.	-7275.5
9497	4.2138	3.6364	0.	-6940.6
9498	4.3034	3.6364	5.e-002	-45.776
9499	4.3034	3.3636	0.	-7461.9
9500	4.2138	3.4545	0.	-7151.1
9501	4.3034	3.4545	5.e-002	-46.963
9502	4.3034	3.1818	0.	-7567.9
9503	4.2138	3.2727	0.	-7287.2
9504	4.3034	3.2727	5.e-002	-46.871
9505	4.3034	3.	0.	-7602.
9506	4.2138	3.0909	0.	-7353.
9507	4.3034	3.0909	5.e-002	-46.469
9508	4.3034	2.8182	0.	-7567.9
9509	4.2138	2.9091	0.	-7353.
9510	4.3034	2.9091	5.e-002	-46.469
9511	4.3034	2.6364	0.	-7461.9
9512	4.2138	2.7273	0.	-7287.2
9513	4.3034	2.7273	5.e-002	-46.871
9514	4.3034	2.4545	0.	-7275.5
9515	4.2138	2.5455	0.	-7151.1
9516	4.3034	2.5455	5.e-002	-46.963
9517	4.3034	2.2727	0.	-7003.8
9518	4.2138	2.3636	0.	-6940.6
9519	4.3034	2.3636	5.e-002	-45.775
9520	4.3034	2.0909	0.	-6653.2
9521	4.2138	2.1818	0.	-6658.2
9522	4.3034	2.1818	5.e-002	-43.321
9523	4.3034	1.9091	0.	-6242.
9524	4.2138	2.	0.	-6316.4
9525	4.3034	2.	5.e-002	-40.322
9526	4.3034	1.7273	0.	-5794.3
9527	4.2138	1.8182	0.	-5933.3
9528	4.3034	1.8182	5.e-002	-37.663
9529	4.3034	1.5455	0.	-5335.8
9530	4.2138	1.6364	0.	-5529.1
9531	4.3034	1.6364	5.e-002	-37.167
9532	4.3034	1.3636	0.	-4890.2
9533	4.2138	1.4545	0.	-5124.4
9534	4.3034	1.4545	5.e-002	-39.518
9535	4.3034	1.1818	0.	-4477.
9536	4.2138	1.2727	0.	-4738.4
9537	4.3034	1.2727	5.e-002	-42.649
9538	4.3034	1.	0.	-4108.8
9539	4.2138	1.0909	0.	-4385.8
9540	4.3034	1.0909	5.e-002	-44.968
9541	4.3034	0.81818	0.	-3792.9
9542	4.2138	0.90909	0.	-4076.2
9543	4.3034	0.90909	5.e-002	-46.311
9544	4.3034	0.63636	0.	-3533.5
9545	4.2138	0.72727	0.	-3815.6
9546	4.3034	0.72727	5.e-002	-46.962
9547	4.3034	0.45455	0.	-3334.
9548	4.2138	0.54545	0.	-3607.6
9549	4.3034	0.54545	5.e-002	-47.313
9550	4.3034	0.27273	0.	-3200.2
9551	4.2138	0.36364	0.	-3454.5
9552	4.3034	0.36364	5.e-002	-48.215
9553	4.2138	0.18182	0.	-3363.3
9554	4.3034	0.18182	5.e-002	-59.9
9555	4.3034	9.0909e-002	0.	-3084.3
9556	4.1241	5.7273	0.	-3618.7
9557	4.0345	5.8182	0.	-3762.9
9558	4.1241	5.8182	5.e-002	-54.137
9559	4.1241	5.9091	0.	-3520.5
9560	4.1241	5.5455	0.	-3730.3
9561	4.0345	5.6364	0.	-3839.6
9562	4.1241	5.6364	5.e-002	-42.5
9563	4.1241	5.3636	0.	-3894.2
9564	4.0345	5.4545	0.	-3965.8
9565	4.1241	5.4545	5.e-002	-41.358
9566	4.1241	5.1818	0.	-4105.8
9567	4.0345	5.2727	0.	-4135.5
9568	4.1241	5.2727	5.e-002	-40.57
9569	4.1241	5.	0.	-4361.6
9570	4.0345	5.0909	0.	-4346.3
9571	4.1241	5.0909	5.e-002	-39.331
9572	4.1241	4.8182	0.	-4656.
9573	4.0345	4.9091	0.	-4594.2
9574	4.1241	4.9091	5.e-002	-37.459
9575	4.1241	4.6364	0.	-4980.6
9576	4.0345	4.7273	0.	-4872.4
9577	4.1241	4.7273	5.e-002	-34.96
9578	4.1241	4.4545	0.	-5324.
9579	4.0345	4.5455	0.	-5172.
9580	4.1241	4.5455	5.e-002	-32.291
9581	4.1241	4.2727	0.	-5672.2
9582	4.0345	4.3636	0.	-5481.2
9583	4.1241	4.3636	5.e-002	-30.358
9584	4.1241	4.0909	0.	-6009.9
9585	4.0345	4.1818	0.	-5787.2
9586	4.1241	4.1818	5.e-002	-29.925
9587	4.1241	3.9091	0.	-6322.
9588	4.0345	4.	0.	-6077.1
9589	4.1241	4.	5.e-002	-30.751
9590	4.1241	3.7273	0.	-6594.1
9591	4.0345	3.8182	0.	-6338.6
9592	4.1241	3.8182	5.e-002	-32.254
9593	4.1241	3.5455	0.	-6813.7
9594	4.0345	3.6364	0.	-6560.
9595	4.1241	3.6364	5.e-002	-34.031
9596	4.1241	3.3636	0.	-6972.7
9597	4.0345	3.4545	0.	-6731.6
9598	4.1241	3.4545	5.e-002	-35.638
9599	4.1241	3.1818	0.	-7067.8
9600	4.0345	3.2727	0.	-6847.5
9601	4.1241	3.2727	5.e-002	-36.658
9602	4.1241	3.	0.	-7099.3
9603	4.0345	3.0909	0.	-6905.6
9604	4.1241	3.0909	5.e-002	-37.091
9605	4.1241	2.8182	0.	-7067.8
9606	4.0345	2.9091	0.	-6905.6
9607	4.1241	2.9091	5.e-002	-37.091
9608	4.1241	2.6364	0.	-6972.7
9609	4.0345	2.7273	0.	-6847.5
9610	4.1241	2.7273	5.e-002	-36.658
9611	4.1241	2.4545	0.	-6813.7
9612	4.0345	2.5455	0.	-6731.6
9613	4.1241	2.5455	5.e-002	-35.638
9614	4.1241	2.2727	0.	-6594.1
9615	4.0345	2.3636	0.	-6560.
9616	4.1241	2.3636	5.e-002	-34.031
9617	4.1241	2.0909	0.	-6322.
9618	4.0345	2.1818	0.	-6338.6
9619	4.1241	2.1818	5.e-002	-32.254
9620	4.1241	1.9091	0.	-6009.9
9621	4.0345	2.	0.	-6077.1
9622	4.1241	2.	5.e-002	-30.751
9623	4.1241	1.7273	0.	-5672.2
9624	4.0345	1.8182	0.	-5787.2
9625	4.1241	1.8182	5.e-002	-29.925
9626	4.1241	1.5455	0.	-5324.
9627	4.0345	1.6364	0.	-5481.2
9628	4.1241	1.6364	5.e-002	-30.358
9629	4.1241	1.3636	0.	-4980.6
9630	4.0345	1.4545	0.	-5172.
9631	4.1241	1.4545	5.e-002	-32.291
9632	4.1241	1.1818	0.	-4656.
9633	4.0345	1.2727	0.	-4872.4
9634	4.1241	1.2727	5.e-002	-34.96
9635	4.1241	1.	0.	-4361.6
9636	4.0345	1.0909	0.	-4594.2
9637	4.1241	1.0909	5.e-002	-37.459
9638	4.1241	0.81818	0.	-4105.8
9639	4.0345	0.90909	0.	-4346.3
9640	4.1241	0.90909	5.e-002	-39.331
9641	4.1241	0.63636	0.	-3894.2
9642	4.0345	0.72727	0.	-4135.5
9643	4.1241	0.72727	5.e-002	-40.57
9644	4.1241	0.45455	0.	-3730.3
9645	4.0345	0.54545	0.	-3965.8
9646	4.1241	0.54545	5.e-002	-41.357
9647	4.1241	0.27273	0.	-3618.7
9648	4.0345	0.36364	0.	-3839.6
9649	4.1241	0.36364	5.e-002	-42.5
9650	4.0345	0.18182	0.	-3762.9
9651	4.1241	0.18182	5.e-002	-54.137
9652	4.1241	9.0909e-002	0.	-3520.5
9653	3.9448	5.7273	0.	-3984.5
9654	3.8552	5.8182	0.	-4111.3
9655	3.9448	5.8182	5.e-002	-48.547
9656	3.9448	5.9091	0.	-3902.2
9657	3.9448	5.5455	0.	-4076.4
9658	3.8552	5.6364	0.	-4174.3
9659	3.9448	5.6364	5.e-002	-37.143
9660	3.9448	5.3636	0.	-4209.6
9661	3.8552	5.4545	0.	-4276.8
9662	3.9448	5.4545	5.e-002	-35.916
9663	3.9448	5.1818	0.	-4379.8
9664	3.8552	5.2727	0.	-4413.2
9665	3.9448	5.2727	5.e-002	-34.985
9666	3.9448	5.	0.	-4583.6
9667	3.8552	5.0909	0.	-4581.1
9668	3.9448	5.0909	5.e-002	-33.624
9669	3.9448	4.8182	0.	-4815.6
9670	3.8552	4.9091	0.	-4776.6
9671	3.9448	4.9091	5.e-002	-31.774
9672	3.9448	4.6364	0.	-5068.4
9673	3.8552	4.7273	0.	-4993.6
9674	3.9448	4.7273	5.e-002	-29.559
9675	3.9448	4.4545	0.	-5332.8
9676	3.8552	4.5455	0.	-5224.8
9677	3.9448	4.5455	5.e-002	-27.325
9678	3.9448	4.2727	0.	-5598.7
9679	3.8552	4.3636	0.	-5461.5
9680	3.9448	4.3636	5.e-002	-25.57
9681	3.9448	4.0909	0.	-5855.8
9682	3.8552	4.1818	0.	-5694.5
9683	3.9448	4.1818	5.e-002	-24.604
9684	3.9448	3.9091	0.	-6094.2
9685	3.8552	4.	0.	-5915.3
9686	3.9448	4.	5.e-002	-24.391
9687	3.9448	3.7273	0.	-6304.
9688	3.8552	3.8182	0.	-6115.4
9689	3.9448	3.8182	5.e-002	-24.801
9690	3.9448	3.5455	0.	-6476.5
9691	3.8552	3.6364	0.	-6286.6
9692	3.9448	3.6364	5.e-002	-25.736
9693	3.9448	3.3636	0.	-6604.2
9694	3.8552	3.4545	0.	-6421.6
9695	3.9448	3.4545	5.e-002	-26.905
9696	3.9448	3.1818	0.	-6682.4
9697	3.8552	3.2727	0.	-6514.5
9698	3.9448	3.2727	5.e-002	-27.909
9699	3.9448	3.	0.	-6708.7
9700	3.8552	3.0909	0.	-6561.7
9701	3.9448	3.0909	5.e-002	-28.46
9702	3.9448	2.8182	0.	-6682.4
9703	3.8552	2.9091	0.	-6561.7
9704	3.9448	2.9091	5.e-002	-28.46
9705	3.9448	2.6364	0.	-6604.2
9706	3.8552	2.7273	0.	-6514.5
9707	3.9448	2.7273	5.e-002	-27.909
9708	3.9448	2.4545	0.	-6476.5
9709	3.8552	2.5455	0.	-6421.6
9710	3.9448	2.5455	5.e-002	-26.905
9711	3.9448	2.2727	0.	-6304.
9712	3.8552	2.3636	0.	-6286.6
9713	3.9448	2.3636	5.e-002	-25.736
9714	3.9448	2.0909	0.	-6094.2
9715	3.8552	2.1818	0.	-6115.4
9716	3.9448	2.1818	5.e-002	-24.801
9717	3.9448	1.9091	0.	-5855.8
9718	3.8552	2.	0.	-5915.3
9719	3.9448	2.	5.e-002	-24.391
9720	3.9448	1.7273	0.	-5598.7
9721	3.8552	1.8182	0.	-5694.5
9722	3.9448	1.8182	5.e-002	-24.604
9723	3.9448	1.5455	0.	-5332.8
9724	3.8552	1.6364	0.	-5461.5
9725	3.9448	1.6364	5.e-002	-25.57
9726	3.9448	1.3636	0.	-5068.4
9727	3.8552	1.4545	0.	-5224.8
9728	3.9448	1.4545	5.e-002	-27.325
9729	3.9448	1.1818	0.	-4815.6
9730	3.8552	1.2727	0.	-4993.6
9731	3.9448	1.2727	5.e-002	-29.559
9732	3.9448	1.	0.	-4583.6
9733	3.8552	1.0909	0.	-4776.6
9734	3.9448	1.0909	5.e-002	-31.774
9735	3.9448	0.81818	0.	-4379.8
9736	3.8552	0.90909	0.	-4581.1
9737	3.9448	0.90909	5.e-002	-33.624
9738	3.9448	0.63636	0.	-4209.6
9739	3.8552	0.72727	0.	-4413.2
9740	3.9448	0.72727	5.e-002	-34.985
9741	3.9448	0.45455	0.	-4076.4
9742	3.8552	0.54545	0.	-4276.8
9743	3.9448	0.54545	5.e-002	-35.916
9744	3.9448	0.27273	0.	-3984.5
9745	3.8552	0.36364	0.	-4174.3
9746	3.9448	0.36364	5.e-002	-37.143
9747	3.8552	0.18182	0.	-4111.3
9748	3.9448	0.18182	5.e-002	-48.547
9749	3.9448	9.0909e-002	0.	-3902.2
9750	3.7655	5.7273	0.	-4301.6
9751	3.6759	5.8182	0.	-4413.3
9752	3.7655	5.8182	5.e-002	-43.423
9753	3.7655	5.9091	0.	-4233.6
9754	3.7655	5.5455	0.	-4375.4
9755	3.6759	5.6364	0.	-4463.1
9756	3.7655	5.6364	5.e-002	-32.332
9757	3.7655	5.3636	0.	-4481.9
9758	3.6759	5.4545	0.	-4544.6
9759	3.7655	5.4545	5.e-002	-31.153
9760	3.7655	5.1818	0.	-4616.6
9761	3.6759	5.2727	0.	-4652.3
9762	3.7655	5.2727	5.e-002	-30.279
9763	3.7655	5.	0.	-4776.7
9764	3.6759	5.0909	0.	-4783.9
9765	3.7655	5.0909	5.e-002	-29.048
9766	3.7655	4.8182	0.	-4957.4
9767	3.6759	4.9091	0.	-4935.9
9768	3.7655	4.9091	5.e-002	-27.452
9769	3.7655	4.6364	0.	-5152.6
9770	3.6759	4.7273	0.	-5103.5
9771	3.7655	4.7273	5.e-002	-25.612
9772	3.7655	4.4545	0.	-5355.6
9773	3.6759	4.5455	0.	-5280.8
9774	3.7655	4.5455	5.e-002	-23.746
9775	3.7655	4.2727	0.	-5558.7
9776	3.6759	4.3636	0.	-5461.5
9777	3.7655	4.3636	5.e-002	-22.094
9778	3.7655	4.0909	0.	-5754.8
9779	3.6759	4.1818	0.	-5639.
9780	3.7655	4.1818	5.e-002	-20.802
9781	3.7655	3.9091	0.	-5936.8
9782	3.6759	4.	0.	-5807.
9783	3.7655	4.	5.e-002	-19.921
9784	3.7655	3.7273	0.	-6097.6
9785	3.6759	3.8182	0.	-5959.5
9786	3.7655	3.8182	5.e-002	-19.505
9787	3.7655	3.5455	0.	-6230.8
9788	3.6759	3.6364	0.	-6090.6
9789	3.7655	3.6364	5.e-002	-19.599
9790	3.7655	3.3636	0.	-6330.4
9791	3.6759	3.4545	0.	-6194.6
9792	3.7655	3.4545	5.e-002	-20.089
9793	3.7655	3.1818	0.	-6391.9
9794	3.6759	3.2727	0.	-6266.8
9795	3.7655	3.2727	5.e-002	-20.673
9796	3.7655	3.	0.	-6412.7
9797	3.6759	3.0909	0.	-6303.8
9798	3.7655	3.0909	5.e-002	-21.049
9799	3.7655	2.8182	0.	-6391.9
9800	3.6759	2.9091	0.	-6303.8
9801	3.7655	2.9091	5.e-002	-21.049
9802	3.7655	2.6364	0.	-6330.4
9803	3.6759	2.7273	0.	-6266.8
9804	3.7655	2.7273	5.e-002	-20.673
9805	3.7655	2.4545	0.	-6230.8
9806	3.6759	2.5455	0.	-6194.6
9807	3.7655	2.5455	5.e-002	-20.089
9808	3.7655	2.2727	0.	-6097.6
9809	3.6759	2.3636	0.	-6090.6
9810	3.7655	2.3636	5.e-002	-19.599
9811	3.7655	2.0909	0.	-5936.8
9812	3.6759	2.1818	0.	-5959.5
9813	3.7655	2.1818	5.e-002	-19.505
9814	3.7655	1.9091	0.	-5754.8
9815	3.6759	2.	0.	-5807.
9816	3.7655	2.	5.e-002	-19.921
9817	3.7655	1.7273	0.	-5558.7
9818	3.6759	1.8182	0.	-5639.
9819	3.7655	1.8182	5.e-002	-20.802
9820	3.7655	1.5455	0.	-5355.6
9821	3.6759	1.6364	0.	-5461.5
9822	3.7655	1.6364	5.e-002	-22.094
9823	3.7655	1.3636	0.	-5152.6
9824	3.6759	1.4545	0.	-5280.8
9825	3.7655	1.4545	5.e-002	-23.746
9826	3.7655	1.1818	0.	-4957.4
9827	3.6759	1.2727	0.	-5103.5
9828	3.7655	1.2727	5.e-002	-25.612
9829	3.7655	1.	0.	-4776.7
9830	3.6759	1.0909	0.	-4935.9
9831	3.7655	1.0909	5.e-002	-27.452
9832	3.7655	0.81818	0.	-4616.6
9833	3.6759	0.90909	0.	-4783.9
9834	3.7655	0.90909	5.e-002	-29.048
9835	3.7655	0.63636	0.	-4481.9
9836	3.6759	0.72727	0.	-4652.3
9837	3.7655	0.72727	5.e-002	-30.279
9838	3.7655	0.45455	0.	-4375.4
9839	3.6759	0.54545	0.	-4544.6
9840	3.7655	0.54545	5.e-002	-31.153
9841	3.7655	0.27273	0.	-4301.6
9842	3.6759	0.36364	0.	-4463.1
9843	3.7655	0.36364	5.e-002	-32.332
9844	3.6759	0.18182	0.	-4413.3
9845	3.7655	0.18182	5.e-002	-43.423
9846	3.7655	9.0909e-002	0.	-4233.6
9847	3.5862	5.7273	0.	-4575.1
9848	3.4966	5.8182	0.	-4674.4
9849	3.5862	5.8182	5.e-002	-38.942
9850	3.5862	5.9091	0.	-4520.
9851	3.5862	5.5455	0.	-4632.6
9852	3.4966	5.6364	0.	-4711.6
9853	3.5862	5.6364	5.e-002	-28.152
9854	3.5862	5.3636	0.	-4715.8
9855	3.4966	5.4545	0.	-4774.6
9856	3.5862	5.4545	5.e-002	-27.11
9857	3.5862	5.1818	0.	-4820.6
9858	3.4966	5.2727	0.	-4857.7
9859	3.5862	5.2727	5.e-002	-26.407
9860	3.5862	5.	0.	-4944.4
9861	3.4966	5.0909	0.	-4959.
9862	3.5862	5.0909	5.e-002	-25.418
9863	3.5862	4.8182	0.	-5083.4
9864	3.4966	4.9091	0.	-5075.4
9865	3.5862	4.9091	5.e-002	-24.141
9866	3.5862	4.6364	0.	-5232.9
9867	3.4966	4.7273	0.	-5203.3
9868	3.5862	4.7273	5.e-002	-22.659
9869	3.5862	4.4545	0.	-5387.8
9870	3.4966	4.5455	0.	-5338.2
9871	3.5862	4.5455	5.e-002	-21.087
9872	3.5862	4.2727	0.	-5542.4
9873	3.4966	4.3636	0.	-5475.4
9874	3.5862	4.3636	5.e-002	-19.532
9875	3.5862	4.0909	0.	-5691.5
9876	3.4966	4.1818	0.	-5609.9
9877	3.5862	4.1818	5.e-002	-18.065
9878	3.5862	3.9091	0.	-5829.8
9879	3.4966	4.	0.	-5737.3
9880	3.5862	4.	5.e-002	-16.747
9881	3.5862	3.7273	0.	-5952.3
9882	3.4966	3.8182	0.	-5853.
9883	3.5862	3.8182	5.e-002	-15.685
9884	3.5862	3.5455	0.	-6053.9
9885	3.4966	3.6364	0.	-5952.5
9886	3.5862	3.6364	5.e-002	-15.012
9887	3.5862	3.3636	0.	-6130.1
9888	3.4966	3.4545	0.	-6031.6
9889	3.5862	3.4545	5.e-002	-14.761
9890	3.5862	3.1818	0.	-6177.4
9891	3.4966	3.2727	0.	-6086.6
9892	3.5862	3.2727	5.e-002	-14.791
9893	3.5862	3.	0.	-6193.5
9894	3.4966	3.0909	0.	-6114.8
9895	3.5862	3.0909	5.e-002	-14.883
9896	3.5862	2.8182	0.	-6177.4
9897	3.4966	2.9091	0.	-6114.8
9898	3.5862	2.9091	5.e-002	-14.883
9899	3.5862	2.6364	0.	-6130.1
9900	3.4966	2.7273	0.	-6086.6
9901	3.5862	2.7273	5.e-002	-14.791
9902	3.5862	2.4545	0.	-6053.9
9903	3.4966	2.5455	0.	-6031.6
9904	3.5862	2.5455	5.e-002	-14.761
9905	3.5862	2.2727	0.	-5952.3
9906	3.4966	2.3636	0.	-5952.5
9907	3.5862	2.3636	5.e-002	-15.012
9908	3.5862	2.0909	0.	-5829.8
9909	3.4966	2.1818	0.	-5853.
9910	3.5862	2.1818	5.e-002	-15.685
9911	3.5862	1.9091	0.	-5691.5
9912	3.4966	2.	0.	-5737.3
9913	3.5862	2.	5.e-002	-16.747
9914	3.5862	1.7273	0.	-5542.4
9915	3.4966	1.8182	0.	-5609.9
9916	3.5862	1.8182	5.e-002	-18.065
9917	3.5862	1.5455	0.	-5387.8
9918	3.4966	1.6364	0.	-5475.4
9919	3.5862	1.6364	5.e-002	-19.532
9920	3.5862	1.3636	0.	-5232.9
9921	3.4966	1.4545	0.	-5338.2
9922	3.5862	1.4545	5.e-002	-21.087
9923	3.5862	1.1818	0.	-5083.4
9924	3.4966	1.2727	0.	-5203.3
9925	3.5862	1.2727	5.e-002	-22.659
9926	3.5862	1.	0.	-4944.4
9927	3.4966	1.0909	0.	-5075.4
9928	3.5862	1.0909	5.e-002	-24.141
9929	3.5862	0.81818	0.	-4820.6
9930	3.4966	0.90909	0.	-4959.
9931	3.5862	0.90909	5.e-002	-25.418
9932	3.5862	0.63636	0.	-4715.8
9933	3.4966	0.72727	0.	-4857.7
9934	3.5862	0.72727	5.e-002	-26.407
9935	3.5862	0.45455	0.	-4632.6
9936	3.4966	0.54545	0.	-4774.6
9937	3.5862	0.54545	5.e-002	-27.11
9938	3.5862	0.27273	0.	-4575.1
9939	3.4966	0.36364	0.	-4711.6
9940	3.5862	0.36364	5.e-002	-28.152
9941	3.4966	0.18182	0.	-4674.4
9942	3.5862	0.18182	5.e-002	-38.942
9943	3.5862	9.0909e-002	0.	-4520.
9944	3.4069	5.7273	0.	-4811.
9945	3.3172	5.8182	0.	-4900.
9946	3.4069	5.8182	5.e-002	-35.185
9947	3.4069	5.9091	0.	-4767.1
9948	3.4069	5.5455	0.	-4853.8
9949	3.3172	5.6364	0.	-4925.7
9950	3.4069	5.6364	5.e-002	-24.619
9951	3.4069	5.3636	0.	-4916.9
9952	3.3172	5.4545	0.	-4972.4
9953	3.4069	5.4545	5.e-002	-23.761
9954	3.4069	5.1818	0.	-4996.6
9955	3.3172	5.2727	0.	-5034.8
9956	3.4069	5.2727	5.e-002	-23.279
9957	3.4069	5.	0.	-5090.7
9958	3.3172	5.0909	0.	-5110.9
9959	3.4069	5.0909	5.e-002	-22.564
9960	3.4069	4.8182	0.	-5196.1
9961	3.3172	4.9091	0.	-5198.5
9962	3.4069	4.9091	5.e-002	-21.6
9963	3.4069	4.6364	0.	-5309.2
9964	3.3172	4.7273	0.	-5294.7
9965	3.4069	4.7273	5.e-002	-20.43
9966	3.4069	4.4545	0.	-5426.3
9967	3.3172	4.5455	0.	-5396.1
9968	3.4069	4.5455	5.e-002	-19.102
9969	3.4069	4.2727	0.	-5543.2
9970	3.3172	4.3636	0.	-5499.3
9971	3.4069	4.3636	5.e-002	-17.656
9972	3.4069	4.0909	0.	-5655.8
9973	3.3172	4.1818	0.	-5600.6
9974	3.4069	4.1818	5.e-002	-16.119
9975	3.4069	3.9091	0.	-5760.4
9976	3.3172	4.	0.	-5696.5
9977	3.4069	4.	5.e-002	-14.538
9978	3.4069	3.7273	0.	-5852.9
9979	3.3172	3.8182	0.	-5783.5
9980	3.4069	3.8182	5.e-002	-13.006
9981	3.4069	3.5455	0.	-5929.7
9982	3.3172	3.6364	0.	-5858.5
9983	3.4069	3.6364	5.e-002	-11.674
9984	3.4069	3.3636	0.	-5987.3
9985	3.3172	3.4545	0.	-5918.
9986	3.4069	3.4545	5.e-002	-10.682
9987	3.4069	3.1818	0.	-6023.1
9988	3.3172	3.2727	0.	-5959.5
9989	3.4069	3.2727	5.e-002	-10.081
9990	3.4069	3.	0.	-6035.3
9991	3.3172	3.0909	0.	-5980.8
9992	3.4069	3.0909	5.e-002	-9.8179
9993	3.4069	2.8182	0.	-6023.1
9994	3.3172	2.9091	0.	-5980.8
9995	3.4069	2.9091	5.e-002	-9.8179
9996	3.4069	2.6364	0.	-5987.3
9997	3.3172	2.7273	0.	-5959.5
9998	3.4069	2.7273	5.e-002	-10.082
9999	3.4069	2.4545	0.	-5929.7
10000	3.3172	2.5455	0.	-5918.
10001	3.4069	2.5455	5.e-002	-10.682
10002	3.4069	2.2727	0.	-5852.9
10003	3.3172	2.3636	0.	-5858.5
10004	3.4069	2.3636	5.e-002	-11.674
10005	3.4069	2.0909	0.	-5760.4
10006	3.3172	2.1818	0.	-5783.5
10007	3.4069	2.1818	5.e-002	-13.006
10008	3.4069	1.9091	0.	-5655.8
10009	3.3172	2.	0.	-5696.5
10010	3.4069	2.	5.e-002	-14.538
10011	3.4069	1.7273	0.	-5543.2
10012	3.3172	1.8182	0.	-5600.6
10013	3.4069	1.8182	5.e-002	-16.119
10014	3.4069	1.5455	0.	-5426.3
10015	3.3172	1.6364	0.	-5499.3
10016	3.4069	1.6364	5.e-002	-17.656
10017	3.4069	1.3636	0.	-5309.2
10018	3.3172	1.4545	0.	-5396.1
10019	3.4069	1.4545	5.e-002	-19.102
10020	3.4069	1.1818	0.	-5196.1
10021	3.3172	1.2727	0.	-5294.7
10022	3.4069	1.2727	5.e-002	-20.43
10023	3.4069	1.	0.	-5090.7
10024	3.3172	1.0909	0.	-5198.5
10025	3.4069	1.0909	5.e-002	-21.6
10026	3.4069	0.81818	0.	-4996.6
10027	3.3172	0.90909	0.	-5110.9
10028	3.4069	0.90909	5.e-002	-22.564
10029	3.4069	0.63636	0.	-4916.9
10030	3.3172	0.72727	0.	-5034.8
10031	3.4069	0.72727	5.e-002	-23.279
10032	3.4069	0.45455	0.	-4853.8
10033	3.3172	0.54545	0.	-4972.4
10034	3.4069	0.54545	5.e-002	-23.761
10035	3.4069	0.27273	0.	-4811.
10036	3.3172	0.36364	0.	-4925.7
10037	3.4069	0.36364	5.e-002	-24.619
10038	3.3172	0.18182	0.	-4900.
10039	3.4069	0.18182	5.e-002	-35.185
10040	3.4069	9.0909e-002	0.	-4767.1
10041	3.2276	5.7273	0.	-5014.7
10042	3.1379	5.8182	0.	-5095.6
10043	3.2276	5.8182	5.e-002	-32.167
10044	3.2276	5.9091	0.	-4980.6
10045	3.2276	5.5455	0.	-5044.4
10046	3.1379	5.6364	0.	-5110.6
10047	3.2276	5.6364	5.e-002	-21.709
10048	3.2276	5.3636	0.	-5090.4
10049	3.1379	5.4545	0.	-5143.3
10050	3.2276	5.4545	5.e-002	-21.048
10051	3.2276	5.1818	0.	-5149.3
10052	3.1379	5.2727	0.	-5188.1
10053	3.2276	5.2727	5.e-002	-20.799
10054	3.2276	5.	0.	-5219.
10055	3.1379	5.0909	0.	-5243.6
10056	3.2276	5.0909	5.e-002	-20.349
10057	3.2276	4.8182	0.	-5297.4
10058	3.1379	4.9091	0.	-5307.9
10059	3.2276	4.9091	5.e-002	-19.665
10060	3.2276	4.6364	0.	-5381.8
10061	3.1379	4.7273	0.	-5378.9
10062	3.2276	4.7273	5.e-002	-18.757
10063	3.2276	4.4545	0.	-5469.3
10064	3.1379	4.5455	0.	-5454.1
10065	3.2276	4.5455	5.e-002	-17.638
10066	3.2276	4.2727	0.	-5556.7
10067	3.1379	4.3636	0.	-5530.7
10068	3.2276	4.3636	5.e-002	-16.314
10069	3.2276	4.0909	0.	-5641.1
10070	3.1379	4.1818	0.	-5606.2
10071	3.2276	4.1818	5.e-002	-14.791
10072	3.2276	3.9091	0.	-5719.5
10073	3.1379	4.	0.	-5677.8
10074	3.2276	4.	5.e-002	-13.092
10075	3.2276	3.7273	0.	-5788.8
10076	3.1379	3.8182	0.	-5742.9
10077	3.2276	3.8182	5.e-002	-11.277
10078	3.2276	3.5455	0.	-5846.4
10079	3.1379	3.6364	0.	-5798.9
10080	3.2276	3.6364	5.e-002	-9.4562
10081	3.2276	3.3636	0.	-5889.7
10082	3.1379	3.4545	0.	-5843.4
10083	3.2276	3.4545	5.e-002	-7.781
10084	3.2276	3.1818	0.	-5916.5
10085	3.1379	3.2727	0.	-5874.4
10086	3.2276	3.2727	5.e-002	-6.4456
10087	3.2276	3.	0.	-5925.6
10088	3.1379	3.0909	0.	-5890.3
10089	3.2276	3.0909	5.e-002	-5.6803
10090	3.2276	2.8182	0.	-5916.5
10091	3.1379	2.9091	0.	-5890.3
10092	3.2276	2.9091	5.e-002	-5.6803
10093	3.2276	2.6364	0.	-5889.7
10094	3.1379	2.7273	0.	-5874.4
10095	3.2276	2.7273	5.e-002	-6.4456
10096	3.2276	2.4545	0.	-5846.4
10097	3.1379	2.5455	0.	-5843.4
10098	3.2276	2.5455	5.e-002	-7.781
10099	3.2276	2.2727	0.	-5788.8
10100	3.1379	2.3636	0.	-5798.9
10101	3.2276	2.3636	5.e-002	-9.4562
10102	3.2276	2.0909	0.	-5719.5
10103	3.1379	2.1818	0.	-5742.9
10104	3.2276	2.1818	5.e-002	-11.277
10105	3.2276	1.9091	0.	-5641.1
10106	3.1379	2.	0.	-5677.8
10107	3.2276	2.	5.e-002	-13.092
10108	3.2276	1.7273	0.	-5556.7
10109	3.1379	1.8182	0.	-5606.2
10110	3.2276	1.8182	5.e-002	-14.791
10111	3.2276	1.5455	0.	-5469.3
10112	3.1379	1.6364	0.	-5530.7
10113	3.2276	1.6364	5.e-002	-16.314
10114	3.2276	1.3636	0.	-5381.8
10115	3.1379	1.4545	0.	-5454.1
10116	3.2276	1.4545	5.e-002	-17.638
10117	3.2276	1.1818	0.	-5297.4
10118	3.1379	1.2727	0.	-5378.9
10119	3.2276	1.2727	5.e-002	-18.757
10120	3.2276	1.	0.	-5219.
10121	3.1379	1.0909	0.	-5307.9
10122	3.2276	1.0909	5.e-002	-19.665
10123	3.2276	0.81818	0.	-5149.3
10124	3.1379	0.90909	0.	-5243.6
10125	3.2276	0.90909	5.e-002	-20.349
10126	3.2276	0.63636	0.	-5090.4
10127	3.1379	0.72727	0.	-5188.1
10128	3.2276	0.72727	5.e-002	-20.799
10129	3.2276	0.45455	0.	-5044.4
10130	3.1379	0.54545	0.	-5143.3
10131	3.2276	0.54545	5.e-002	-21.048
10132	3.2276	0.27273	0.	-5014.7
10133	3.1379	0.36364	0.	-5110.6
10134	3.2276	0.36364	5.e-002	-21.709
10135	3.1379	0.18182	0.	-5095.6
10136	3.2276	0.18182	5.e-002	-32.167
10137	3.2276	9.0909e-002	0.	-4980.6
10138	3.0483	5.7273	0.	-5191.4
10139	2.9586	5.8182	0.	-5265.7
10140	3.0483	5.8182	5.e-002	-29.858
10141	3.0483	5.9091	0.	-5165.5
10142	3.0483	5.5455	0.	-5209.4
10143	2.9586	5.6364	0.	-5271.
10144	3.0483	5.6364	5.e-002	-19.376
10145	3.0483	5.3636	0.	-5241.
10146	2.9586	5.4545	0.	-5291.6
10147	3.0483	5.4545	5.e-002	-18.908
10148	3.0483	5.1818	0.	-5282.5
10149	2.9586	5.2727	0.	-5321.9
10150	3.0483	5.2727	5.e-002	-18.878
10151	3.0483	5.	0.	-5332.6
10152	2.9586	5.0909	0.	-5360.5
10153	3.0483	5.0909	5.e-002	-18.665
10154	3.0483	4.8182	0.	-5389.5
10155	2.9586	4.9091	0.	-5406.2
10156	3.0483	4.9091	5.e-002	-18.219
10157	3.0483	4.6364	0.	-5451.2
10158	2.9586	4.7273	0.	-5457.3
10159	3.0483	4.7273	5.e-002	-17.531
10160	3.0483	4.4545	0.	-5515.5
10161	2.9586	4.5455	0.	-5511.9
10162	3.0483	4.5455	5.e-002	-16.594
10163	3.0483	4.2727	0.	-5580.1
10164	2.9586	4.3636	0.	-5568.
10165	3.0483	4.3636	5.e-002	-15.401
10166	3.0483	4.0909	0.	-5642.7
10167	2.9586	4.1818	0.	-5623.7
10168	3.0483	4.1818	5.e-002	-13.951
10169	3.0483	3.9091	0.	-5701.
10170	2.9586	4.	0.	-5676.7
10171	3.0483	4.	5.e-002	-12.257
10172	3.0483	3.7273	0.	-5752.6
10173	2.9586	3.8182	0.	-5725.
10174	3.0483	3.8182	5.e-002	-10.351
10175	3.0483	3.5455	0.	-5795.5
10176	2.9586	3.6364	0.	-5766.7
10177	3.0483	3.6364	5.e-002	-8.2914
10178	3.0483	3.3636	0.	-5827.8
10179	2.9586	3.4545	0.	-5799.8
10180	3.0483	3.4545	5.e-002	-6.1565
10181	3.0483	3.1818	0.	-5847.8
10182	2.9586	3.2727	0.	-5822.9
10183	3.0483	3.2727	5.e-002	-4.0696
10184	3.0483	3.	0.	-5854.6
10185	2.9586	3.0909	0.	-5834.8
10186	3.0483	3.0909	5.e-002	-2.3909
10187	3.0483	2.8182	0.	-5847.8
10188	2.9586	2.9091	0.	-5834.8
10189	3.0483	2.9091	5.e-002	-2.391
10190	3.0483	2.6364	0.	-5827.8
10191	2.9586	2.7273	0.	-5822.9
10192	3.0483	2.7273	5.e-002	-4.0696
10193	3.0483	2.4545	0.	-5795.5
10194	2.9586	2.5455	0.	-5799.8
10195	3.0483	2.5455	5.e-002	-6.1566
10196	3.0483	2.2727	0.	-5752.6
10197	2.9586	2.3636	0.	-5766.7
10198	3.0483	2.3636	5.e-002	-8.2914
10199	3.0483	2.0909	0.	-5701.
10200	2.9586	2.1818	0.	-5725.
10201	3.0483	2.1818	5.e-002	-10.351
10202	3.0483	1.9091	0.	-5642.7
10203	2.9586	2.	0.	-5676.7
10204	3.0483	2.	5.e-002	-12.257
10205	3.0483	1.7273	0.	-5580.1
10206	2.9586	1.8182	0.	-5623.7
10207	3.0483	1.8182	5.e-002	-13.951
10208	3.0483	1.5455	0.	-5515.5
10209	2.9586	1.6364	0.	-5568.
10210	3.0483	1.6364	5.e-002	-15.401
10211	3.0483	1.3636	0.	-5451.2
10212	2.9586	1.4545	0.	-5511.9
10213	3.0483	1.4545	5.e-002	-16.594
10214	3.0483	1.1818	0.	-5389.5
10215	2.9586	1.2727	0.	-5457.3
10216	3.0483	1.2727	5.e-002	-17.531
10217	3.0483	1.	0.	-5332.6
10218	2.9586	1.0909	0.	-5406.2
10219	3.0483	1.0909	5.e-002	-18.219
10220	3.0483	0.81818	0.	-5282.5
10221	2.9586	0.90909	0.	-5360.5
10222	3.0483	0.90909	5.e-002	-18.665
10223	3.0483	0.63636	0.	-5241.
10224	2.9586	0.72727	0.	-5321.9
10225	3.0483	0.72727	5.e-002	-18.878
10226	3.0483	0.45455	0.	-5209.4
10227	2.9586	0.54545	0.	-5291.6
10228	3.0483	0.54545	5.e-002	-18.908
10229	3.0483	0.27273	0.	-5191.4
10230	2.9586	0.36364	0.	-5271.
10231	3.0483	0.36364	5.e-002	-19.376
10232	2.9586	0.18182	0.	-5265.7
10233	3.0483	0.18182	5.e-002	-29.858
10234	3.0483	9.0909e-002	0.	-5165.5
10235	2.869	5.7273	0.	-5345.2
10236	2.7793	5.8182	0.	-5414.3
10237	2.869	5.8182	5.e-002	-28.198
10238	2.869	5.9091	0.	-5326.2
10239	2.869	5.5455	0.	-5353.1
10240	2.7793	5.6364	0.	-5410.8
10241	2.869	5.6364	5.e-002	-17.567
10242	2.869	5.3636	0.	-5372.5
10243	2.7793	5.4545	0.	-5421.1
10244	2.869	5.4545	5.e-002	-17.276
10245	2.869	5.1818	0.	-5399.8
10246	2.7793	5.2727	0.	-5439.3
10247	2.869	5.2727	5.e-002	-17.442
10248	2.869	5.	0.	-5434.1
10249	2.7793	5.0909	0.	-5464.4
10250	2.869	5.0909	5.e-002	-17.431
10251	2.869	4.8182	0.	-5473.9
10252	2.7793	4.9091	0.	-5495.2
10253	2.869	4.9091	5.e-002	-17.181
10254	2.869	4.6364	0.	-5517.9
10255	2.7793	4.7273	0.	-5530.8
10256	2.869	4.7273	5.e-002	-16.674
10257	2.869	4.4545	0.	-5564.3
10258	2.7793	4.5455	0.	-5569.6
10259	2.869	4.5455	5.e-002	-15.895
10260	2.869	4.2727	0.	-5611.4
10261	2.7793	4.3636	0.	-5610.1
10262	2.869	4.3636	5.e-002	-14.838
10263	2.869	4.0909	0.	-5657.4
10264	2.7793	4.1818	0.	-5650.7
10265	2.869	4.1818	5.e-002	-13.503
10266	2.869	3.9091	0.	-5700.4
10267	2.7793	4.	0.	-5689.7
10268	2.869	4.	5.e-002	-11.904
10269	2.869	3.7273	0.	-5738.7
10270	2.7793	3.8182	0.	-5725.6
10271	2.869	3.8182	5.e-002	-10.069
10272	2.869	3.5455	0.	-5770.6
10273	2.7793	3.6364	0.	-5756.6
10274	2.869	3.6364	5.e-002	-8.0398
10275	2.869	3.3636	0.	-5794.6
10276	2.7793	3.4545	0.	-5781.3
10277	2.869	3.4545	5.e-002	-5.87
10278	2.869	3.1818	0.	-5809.5
10279	2.7793	3.2727	0.	-5798.6
10280	2.869	3.2727	5.e-002	-3.623
10281	2.869	3.	0.	-5814.6
10282	2.7793	3.0909	0.	-5807.4
10283	2.869	3.0909	5.e-002	-1.4544
10284	2.869	2.8182	0.	-5809.5
10285	2.7793	2.9091	0.	-5807.4
10286	2.869	2.9091	5.e-002	-1.4544
10287	2.869	2.6364	0.	-5794.6
10288	2.7793	2.7273	0.	-5798.6
10289	2.869	2.7273	5.e-002	-3.623
10290	2.869	2.4545	0.	-5770.6
10291	2.7793	2.5455	0.	-5781.3
10292	2.869	2.5455	5.e-002	-5.87
10293	2.869	2.2727	0.	-5738.7
10294	2.7793	2.3636	0.	-5756.6
10295	2.869	2.3636	5.e-002	-8.0398
10296	2.869	2.0909	0.	-5700.4
10297	2.7793	2.1818	0.	-5725.6
10298	2.869	2.1818	5.e-002	-10.069
10299	2.869	1.9091	0.	-5657.4
10300	2.7793	2.	0.	-5689.7
10301	2.869	2.	5.e-002	-11.904
10302	2.869	1.7273	0.	-5611.4
10303	2.7793	1.8182	0.	-5650.7
10304	2.869	1.8182	5.e-002	-13.503
10305	2.869	1.5455	0.	-5564.3
10306	2.7793	1.6364	0.	-5610.1
10307	2.869	1.6364	5.e-002	-14.838
10308	2.869	1.3636	0.	-5517.9
10309	2.7793	1.4545	0.	-5569.6
10310	2.869	1.4545	5.e-002	-15.895
10311	2.869	1.1818	0.	-5473.9
10312	2.7793	1.2727	0.	-5530.8
10313	2.869	1.2727	5.e-002	-16.674
10314	2.869	1.	0.	-5434.1
10315	2.7793	1.0909	0.	-5495.2
10316	2.869	1.0909	5.e-002	-17.181
10317	2.869	0.81818	0.	-5399.8
10318	2.7793	0.90909	0.	-5464.4
10319	2.869	0.90909	5.e-002	-17.431
10320	2.869	0.63636	0.	-5372.5
10321	2.7793	0.72727	0.	-5439.3
10322	2.869	0.72727	5.e-002	-17.442
10323	2.869	0.45455	0.	-5353.1
10324	2.7793	0.54545	0.	-5421.1
10325	2.869	0.54545	5.e-002	-17.276
10326	2.869	0.27273	0.	-5345.2
10327	2.7793	0.36364	0.	-5410.8
10328	2.869	0.36364	5.e-002	-17.567
10329	2.7793	0.18182	0.	-5414.3
10330	2.869	0.18182	5.e-002	-28.198
10331	2.869	9.0909e-002	0.	-5326.2
10332	2.6897	5.7273	0.	-5479.9
10333	2.6	5.8182	0.	-5544.7
10334	2.6897	5.8182	5.e-002	-27.114
10335	2.6897	5.9091	0.	-5466.3
10336	2.6897	5.5455	0.	-5478.8
10337	2.6	5.6364	0.	-5533.2
10338	2.6897	5.6364	5.e-002	-16.229
10339	2.6897	5.3636	0.	-5488.
10340	2.6	5.4545	0.	-5534.8
10341	2.6897	5.4545	5.e-002	-16.097
10342	2.6897	5.1818	0.	-5503.8
10343	2.6	5.2727	0.	-5543.1
10344	2.6897	5.2727	5.e-002	-16.43
10345	2.6897	5.	0.	-5525.5
10346	2.6	5.0909	0.	-5557.3
10347	2.6897	5.0909	5.e-002	-16.584
10348	2.6897	4.8182	0.	-5552.
10349	2.6	4.9091	0.	-5576.6
10350	2.6897	4.9091	5.e-002	-16.492
10351	2.6897	4.6364	0.	-5582.4
10352	2.6	4.7273	0.	-5600.3
10353	2.6897	4.7273	5.e-002	-16.131
10354	2.6897	4.4545	0.	-5615.2
10355	2.6	4.5455	0.	-5627.2
10356	2.6897	4.5455	5.e-002	-15.489
10357	2.6897	4.2727	0.	-5649.2
10358	2.6	4.3636	0.	-5656.1
10359	2.6897	4.3636	5.e-002	-14.565
10360	2.6897	4.0909	0.	-5682.8
10361	2.6	4.1818	0.	-5685.7
10362	2.6897	4.1818	5.e-002	-13.368
10363	2.6897	3.9091	0.	-5714.6
10364	2.6	4.	0.	-5714.6
10365	2.6897	4.	5.e-002	-11.92
10366	2.6897	3.7273	0.	-5743.1
10367	2.6	3.8182	0.	-5741.5
10368	2.6897	3.8182	5.e-002	-10.26
10369	2.6897	3.5455	0.	-5767.
10370	2.6	3.6364	0.	-5764.9
10371	2.6897	3.6364	5.e-002	-8.4472
10372	2.6897	3.3636	0.	-5785.
10373	2.6	3.4545	0.	-5783.6
10374	2.6897	3.4545	5.e-002	-6.5727
10375	2.6897	3.1818	0.	-5796.2
10376	2.6	3.2727	0.	-5796.8
10377	2.6897	3.2727	5.e-002	-4.8077
10378	2.6897	3.	0.	-5800.
10379	2.6	3.0909	0.	-5803.5
10380	2.6897	3.0909	5.e-002	-3.5602
10381	2.6897	2.8182	0.	-5796.2
10382	2.6	2.9091	0.	-5803.5
10383	2.6897	2.9091	5.e-002	-3.5602
10384	2.6897	2.6364	0.	-5785.
10385	2.6	2.7273	0.	-5796.8
10386	2.6897	2.7273	5.e-002	-4.8077
10387	2.6897	2.4545	0.	-5767.
10388	2.6	2.5455	0.	-5783.6
10389	2.6897	2.5455	5.e-002	-6.5727
10390	2.6897	2.2727	0.	-5743.1
10391	2.6	2.3636	0.	-5764.9
10392	2.6897	2.3636	5.e-002	-8.4472
10393	2.6897	2.0909	0.	-5714.6
10394	2.6	2.1818	0.	-5741.5
10395	2.6897	2.1818	5.e-002	-10.26
10396	2.6897	1.9091	0.	-5682.8
10397	2.6	2.	0.	-5714.6
10398	2.6897	2.	5.e-002	-11.92
10399	2.6897	1.7273	0.	-5649.2
10400	2.6	1.8182	0.	-5685.7
10401	2.6897	1.8182	5.e-002	-13.368
10402	2.6897	1.5455	0.	-5615.2
10403	2.6	1.6364	0.	-5656.1
10404	2.6897	1.6364	5.e-002	-14.565
10405	2.6897	1.3636	0.	-5582.4
10406	2.6	1.4545	0.	-5627.2
10407	2.6897	1.4545	5.e-002	-15.489
10408	2.6897	1.1818	0.	-5552.
10409	2.6	1.2727	0.	-5600.3
10410	2.6897	1.2727	5.e-002	-16.131
10411	2.6897	1.	0.	-5525.5
10412	2.6	1.0909	0.	-5576.6
10413	2.6897	1.0909	5.e-002	-16.492
10414	2.6897	0.81818	0.	-5503.8
10415	2.6	0.90909	0.	-5557.3
10416	2.6897	0.90909	5.e-002	-16.584
10417	2.6897	0.63636	0.	-5488.
10418	2.6	0.72727	0.	-5543.1
10419	2.6897	0.72727	5.e-002	-16.43
10420	2.6897	0.45455	0.	-5478.8
10421	2.6	0.54545	0.	-5534.8
10422	2.6897	0.54545	5.e-002	-16.097
10423	2.6897	0.27273	0.	-5479.9
10424	2.6	0.36364	0.	-5533.2
10425	2.6897	0.36364	5.e-002	-16.229
10426	2.6	0.18182	0.	-5544.7
10427	2.6897	0.18182	5.e-002	-27.114
10428	2.6897	9.0909e-002	0.	-5466.3
10429	2.5103	5.7273	0.	-5598.1
10430	2.4207	5.8182	0.	-5659.4
10431	2.5103	5.8182	5.e-002	-26.522
10432	2.5103	5.9091	0.	-5588.8
10433	2.5103	5.5455	0.	-5589.2
10434	2.4207	5.6364	0.	-5640.5
10435	2.5103	5.6364	5.e-002	-15.313
10436	2.5103	5.3636	0.	-5589.9
10437	2.4207	5.4545	0.	-5634.7
10438	2.5103	5.4545	5.e-002	-15.327
10439	2.5103	5.1818	0.	-5596.5
10440	2.4207	5.2727	0.	-5635.1
10441	2.5103	5.2727	5.e-002	-15.797
10442	2.5103	5.	0.	-5608.4
10443	2.4207	5.0909	0.	-5640.8
10444	2.5103	5.0909	5.e-002	-16.081
10445	2.5103	4.8182	0.	-5624.8
10446	2.4207	4.9091	0.	-5651.5
10447	2.5103	4.9091	5.e-002	-16.11
10448	2.5103	4.6364	0.	-5645.
10449	2.4207	4.7273	0.	-5666.5
10450	2.5103	4.7273	5.e-002	-15.864
10451	2.5103	4.4545	0.	-5667.9
10452	2.4207	4.5455	0.	-5684.9
10453	2.5103	4.5455	5.e-002	-15.337
10454	2.5103	4.2727	0.	-5692.5
10455	2.4207	4.3636	0.	-5705.7
10456	2.5103	4.3636	5.e-002	-14.538
10457	2.5103	4.0909	0.	-5717.3
10458	2.4207	4.1818	0.	-5727.7
10459	2.5103	4.1818	5.e-002	-13.486
10460	2.5103	3.9091	0.	-5741.2
10461	2.4207	4.	0.	-5749.7
10462	2.5103	4.	5.e-002	-12.215
10463	2.5103	3.7273	0.	-5762.9
10464	2.4207	3.8182	0.	-5770.5
10465	2.5103	3.8182	5.e-002	-10.778
10466	2.5103	3.5455	0.	-5781.2
10467	2.4207	3.6364	0.	-5788.9
10468	2.5103	3.6364	5.e-002	-9.252
10469	2.5103	3.3636	0.	-5795.1
10470	2.4207	3.4545	0.	-5803.7
10471	2.5103	3.4545	5.e-002	-7.7535
10472	2.5103	3.1818	0.	-5803.8
10473	2.4207	3.2727	0.	-5814.1
10474	2.5103	3.2727	5.e-002	-6.471
10475	2.5103	3.	0.	-5806.7
10476	2.4207	3.0909	0.	-5819.4
10477	2.5103	3.0909	5.e-002	-5.6893
10478	2.5103	2.8182	0.	-5803.8
10479	2.4207	2.9091	0.	-5819.4
10480	2.5103	2.9091	5.e-002	-5.6893
10481	2.5103	2.6364	0.	-5795.1
10482	2.4207	2.7273	0.	-5814.1
10483	2.5103	2.7273	5.e-002	-6.471
10484	2.5103	2.4545	0.	-5781.2
10485	2.4207	2.5455	0.	-5803.7
10486	2.5103	2.5455	5.e-002	-7.7535
10487	2.5103	2.2727	0.	-5762.9
10488	2.4207	2.3636	0.	-5788.9
10489	2.5103	2.3636	5.e-002	-9.252
10490	2.5103	2.0909	0.	-5741.2
10491	2.4207	2.1818	0.	-5770.5
10492	2.5103	2.1818	5.e-002	-10.778
10493	2.5103	1.9091	0.	-5717.3
10494	2.4207	2.	0.	-5749.7
10495	2.5103	2.	5.e-002	-12.215
10496	2.5103	1.7273	0.	-5692.5
10497	2.4207	1.8182	0.	-5727.7
10498	2.5103	1.8182	5.e-002	-13.486
10499	2.5103	1.5455	0.	-5667.9
10500	2.4207	1.6364	0.	-5705.7
10501	2.5103	1.6364	5.e-002	-14.538
10502	2.5103	1.3636	0.	-5645.
10503	2.4207	1.4545	0.	-5684.9
10504	2.5103	1.4545	5.e-002	-15.337
10505	2.5103	1.1818	0.	-5624.8
10506	2.4207	1.2727	0.	-5666.5
10507	2.5103	1.2727	5.e-002	-15.864
10508	2.5103	1.	0.	-5608.4
10509	2.4207	1.0909	0.	-5651.5
10510	2.5103	1.0909	5.e-002	-16.11
10511	2.5103	0.81818	0.	-5596.5
10512	2.4207	0.90909	0.	-5640.8
10513	2.5103	0.90909	5.e-002	-16.081
10514	2.5103	0.63636	0.	-5589.9
10515	2.4207	0.72727	0.	-5635.1
10516	2.5103	0.72727	5.e-002	-15.797
10517	2.5103	0.45455	0.	-5589.2
10518	2.4207	0.54545	0.	-5634.7
10519	2.5103	0.54545	5.e-002	-15.327
10520	2.5103	0.27273	0.	-5598.1
10521	2.4207	0.36364	0.	-5640.5
10522	2.5103	0.36364	5.e-002	-15.313
10523	2.4207	0.18182	0.	-5659.4
10524	2.5103	0.18182	5.e-002	-26.522
10525	2.5103	9.0909e-002	0.	-5588.8
10526	2.331	5.7273	0.	-5701.8
10527	2.2414	5.8182	0.	-5759.9
10528	2.331	5.8182	5.e-002	-26.339
10529	2.331	5.9091	0.	-5695.5
10530	2.331	5.5455	0.	-5686.1
10531	2.2414	5.6364	0.	-5734.2
10532	2.331	5.6364	5.e-002	-14.778
10533	2.331	5.3636	0.	-5679.9
10534	2.2414	5.4545	0.	-5722.4
10535	2.331	5.4545	5.e-002	-14.932
10536	2.331	5.1818	0.	-5679.3
10537	2.2414	5.2727	0.	-5716.4
10538	2.331	5.2727	5.e-002	-15.512
10539	2.331	5.	0.	-5683.9
10540	2.2414	5.0909	0.	-5716.
10541	2.331	5.0909	5.e-002	-15.893
10542	2.331	4.8182	0.	-5693.1
10543	2.2414	4.9091	0.	-5720.6
10544	2.331	4.9091	5.e-002	-16.008
10545	2.331	4.6364	0.	-5706.2
10546	2.2414	4.7273	0.	-5729.7
10547	2.331	4.7273	5.e-002	-15.847
10548	2.331	4.4545	0.	-5722.4
10549	2.2414	4.5455	0.	-5742.7
10550	2.331	4.5455	5.e-002	-15.414
10551	2.331	4.2727	0.	-5740.7
10552	2.2414	4.3636	0.	-5758.5
10553	2.331	4.3636	5.e-002	-14.727
10554	2.331	4.0909	0.	-5759.9
10555	2.2414	4.1818	0.	-5776.
10556	2.331	4.1818	5.e-002	-13.817
10557	2.331	3.9091	0.	-5778.8
10558	2.2414	4.	0.	-5794.
10559	2.331	4.	5.e-002	-12.728
10560	2.331	3.7273	0.	-5796.2
10561	2.2414	3.8182	0.	-5811.4
10562	2.331	3.8182	5.e-002	-11.521
10563	2.331	3.5455	0.	-5811.
10564	2.2414	3.6364	0.	-5826.8
10565	2.331	3.6364	5.e-002	-10.279
10566	2.331	3.3636	0.	-5822.4
10567	2.2414	3.4545	0.	-5839.4
10568	2.331	3.4545	5.e-002	-9.1167
10569	2.331	3.1818	0.	-5829.5
10570	2.2414	3.2727	0.	-5848.3
10571	2.331	3.2727	5.e-002	-8.1835
10572	2.331	3.	0.	-5831.9
10573	2.2414	3.0909	0.	-5852.9
10574	2.331	3.0909	5.e-002	-7.6522
10575	2.331	2.8182	0.	-5829.5
10576	2.2414	2.9091	0.	-5852.9
10577	2.331	2.9091	5.e-002	-7.6522
10578	2.331	2.6364	0.	-5822.4
10579	2.2414	2.7273	0.	-5848.3
10580	2.331	2.7273	5.e-002	-8.1835
10581	2.331	2.4545	0.	-5811.
10582	2.2414	2.5455	0.	-5839.4
10583	2.331	2.5455	5.e-002	-9.1167
10584	2.331	2.2727	0.	-5796.2
10585	2.2414	2.3636	0.	-5826.8
10586	2.331	2.3636	5.e-002	-10.279
10587	2.331	2.0909	0.	-5778.8
10588	2.2414	2.1818	0.	-5811.4
10589	2.331	2.1818	5.e-002	-11.521
10590	2.331	1.9091	0.	-5759.9
10591	2.2414	2.	0.	-5794.
10592	2.331	2.	5.e-002	-12.728
10593	2.331	1.7273	0.	-5740.7
10594	2.2414	1.8182	0.	-5776.
10595	2.331	1.8182	5.e-002	-13.817
10596	2.331	1.5455	0.	-5722.4
10597	2.2414	1.6364	0.	-5758.5
10598	2.331	1.6364	5.e-002	-14.727
10599	2.331	1.3636	0.	-5706.2
10600	2.2414	1.4545	0.	-5742.7
10601	2.331	1.4545	5.e-002	-15.414
10602	2.331	1.1818	0.	-5693.1
10603	2.2414	1.2727	0.	-5729.7
10604	2.331	1.2727	5.e-002	-15.847
10605	2.331	1.	0.	-5683.9
10606	2.2414	1.0909	0.	-5720.6
10607	2.331	1.0909	5.e-002	-16.008
10608	2.331	0.81818	0.	-5679.3
10609	2.2414	0.90909	0.	-5716.
10610	2.331	0.90909	5.e-002	-15.893
10611	2.331	0.63636	0.	-5679.9
10612	2.2414	0.72727	0.	-5716.4
10613	2.331	0.72727	5.e-002	-15.512
10614	2.331	0.45455	0.	-5686.1
10615	2.2414	0.54545	0.	-5722.4
10616	2.331	0.54545	5.e-002	-14.932
10617	2.331	0.27273	0.	-5701.8
10618	2.2414	0.36364	0.	-5734.2
10619	2.331	0.36364	5.e-002	-14.778
10620	2.2414	0.18182	0.	-5759.9
10621	2.331	0.18182	5.e-002	-26.339
10622	2.331	9.0909e-002	0.	-5695.5
10623	2.1517	5.7273	0.	-5792.3
10624	2.0621	5.8182	0.	-5847.
10625	2.1517	5.8182	5.e-002	-26.481
10626	2.1517	5.9091	0.	-5787.8
10627	2.1517	5.5455	0.	-5770.6
10628	2.0621	5.6364	0.	-5815.
10629	2.1517	5.6364	5.e-002	-14.598
10630	2.1517	5.3636	0.	-5759.
10631	2.0621	5.4545	0.	-5798.3
10632	2.1517	5.4545	5.e-002	-14.897
10633	2.1517	5.1818	0.	-5753.1
10634	2.0621	5.2727	0.	-5787.8
10635	2.1517	5.2727	5.e-002	-15.562
10636	2.1517	5.	0.	-5752.6
10637	2.0621	5.0909	0.	-5783.2
10638	2.1517	5.0909	5.e-002	-16.005
10639	2.1517	4.8182	0.	-5757.1
10640	2.0621	4.9091	0.	-5784.2
10641	2.1517	4.9091	5.e-002	-16.173
10642	2.1517	4.6364	0.	-5766.1
10643	2.0621	4.7273	0.	-5790.3
10644	2.1517	4.7273	5.e-002	-16.066
10645	2.1517	4.4545	0.	-5778.6
10646	2.0621	4.5455	0.	-5800.8
10647	2.1517	4.5455	5.e-002	-15.703
10648	2.1517	4.2727	0.	-5793.6
10649	2.0621	4.3636	0.	-5814.5
10650	2.1517	4.3636	5.e-002	-15.112
10651	2.1517	4.0909	0.	-5809.9
10652	2.0621	4.1818	0.	-5830.4
10653	2.1517	4.1818	5.e-002	-14.334
10654	2.1517	3.9091	0.	-5826.4
10655	2.0621	4.	0.	-5847.
10656	2.1517	4.	5.e-002	-13.418
10657	2.1517	3.7273	0.	-5841.7
10658	2.0621	3.8182	0.	-5863.2
10659	2.1517	3.8182	5.e-002	-12.429
10660	2.1517	3.5455	0.	-5854.9
10661	2.0621	3.6364	0.	-5877.8
10662	2.1517	3.6364	5.e-002	-11.442
10663	2.1517	3.3636	0.	-5865.1
10664	2.0621	3.4545	0.	-5889.6
10665	2.1517	3.4545	5.e-002	-10.553
10666	2.1517	3.1818	0.	-5871.4
10667	2.0621	3.2727	0.	-5898.
10668	2.1517	3.2727	5.e-002	-9.8689
10669	2.1517	3.	0.	-5873.6
10670	2.0621	3.0909	0.	-5902.4
10671	2.1517	3.0909	5.e-002	-9.4935
10672	2.1517	2.8182	0.	-5871.4
10673	2.0621	2.9091	0.	-5902.4
10674	2.1517	2.9091	5.e-002	-9.4935
10675	2.1517	2.6364	0.	-5865.1
10676	2.0621	2.7273	0.	-5898.
10677	2.1517	2.7273	5.e-002	-9.8689
10678	2.1517	2.4545	0.	-5854.9
10679	2.0621	2.5455	0.	-5889.6
10680	2.1517	2.5455	5.e-002	-10.553
10681	2.1517	2.2727	0.	-5841.7
10682	2.0621	2.3636	0.	-5877.8
10683	2.1517	2.3636	5.e-002	-11.442
10684	2.1517	2.0909	0.	-5826.4
10685	2.0621	2.1818	0.	-5863.2
10686	2.1517	2.1818	5.e-002	-12.429
10687	2.1517	1.9091	0.	-5809.9
10688	2.0621	2.	0.	-5847.
10689	2.1517	2.	5.e-002	-13.418
10690	2.1517	1.7273	0.	-5793.6
10691	2.0621	1.8182	0.	-5830.4
10692	2.1517	1.8182	5.e-002	-14.334
10693	2.1517	1.5455	0.	-5778.6
10694	2.0621	1.6364	0.	-5814.5
10695	2.1517	1.6364	5.e-002	-15.112
10696	2.1517	1.3636	0.	-5766.1
10697	2.0621	1.4545	0.	-5800.8
10698	2.1517	1.4545	5.e-002	-15.703
10699	2.1517	1.1818	0.	-5757.1
10700	2.0621	1.2727	0.	-5790.3
10701	2.1517	1.2727	5.e-002	-16.066
10702	2.1517	1.	0.	-5752.6
10703	2.0621	1.0909	0.	-5784.2
10704	2.1517	1.0909	5.e-002	-16.173
10705	2.1517	0.81818	0.	-5753.1
10706	2.0621	0.90909	0.	-5783.2
10707	2.1517	0.90909	5.e-002	-16.005
10708	2.1517	0.63636	0.	-5758.9
10709	2.0621	0.72727	0.	-5787.8
10710	2.1517	0.72727	5.e-002	-15.562
10711	2.1517	0.45455	0.	-5770.6
10712	2.0621	0.54545	0.	-5798.3
10713	2.1517	0.54545	5.e-002	-14.897
10714	2.1517	0.27273	0.	-5792.3
10715	2.0621	0.36364	0.	-5815.
10716	2.1517	0.36364	5.e-002	-14.598
10717	2.0621	0.18182	0.	-5847.
10718	2.1517	0.18182	5.e-002	-26.481
10719	2.1517	9.0909e-002	0.	-5787.8
10720	1.9724	5.7273	0.	-5869.8
10721	1.8828	5.8182	0.	-5920.7
10722	1.9724	5.8182	5.e-002	-26.87
10723	1.9724	5.9091	0.	-5866.
10724	1.9724	5.5455	0.	-5842.9
10725	1.8828	5.6364	0.	-5882.8
10726	1.9724	5.6364	5.e-002	-14.766
10727	1.9724	5.3636	0.	-5827.3
10728	1.8828	5.4545	0.	-5862.4
10729	1.9724	5.4545	5.e-002	-15.227
10730	1.9724	5.1818	0.	-5818.
10731	1.8828	5.2727	0.	-5849.1
10732	1.9724	5.2727	5.e-002	-15.951
10733	1.9724	5.	0.	-5814.8
10734	1.8828	5.0909	0.	-5842.6
10735	1.9724	5.0909	5.e-002	-16.421
10736	1.9724	4.8182	0.	-5817.3
10737	1.8828	4.9091	0.	-5842.6
10738	1.9724	4.9091	5.e-002	-16.603
10739	1.9724	4.6364	0.	-5824.9
10740	1.8828	4.7273	0.	-5848.5
10741	1.9724	4.7273	5.e-002	-16.517
10742	1.9724	4.4545	0.	-5836.5
10743	1.8828	4.5455	0.	-5859.4
10744	1.9724	4.5455	5.e-002	-16.197
10745	1.9724	4.2727	0.	-5851.1
10746	1.8828	4.3636	0.	-5874.
10747	1.9724	4.3636	5.e-002	-15.685
10748	1.9724	4.0909	0.	-5867.2
10749	1.8828	4.1818	0.	-5891.
10750	1.9724	4.1818	5.e-002	-15.026
10751	1.9724	3.9091	0.	-5883.6
10752	1.8828	4.	0.	-5908.7
10753	1.9724	4.	5.e-002	-14.27
10754	1.9724	3.7273	0.	-5899.
10755	1.8828	3.8182	0.	-5926.
10756	1.9724	3.8182	5.e-002	-13.476
10757	1.9724	3.5455	0.	-5912.2
10758	1.8828	3.6364	0.	-5941.4
10759	1.9724	3.6364	5.e-002	-12.708
10760	1.9724	3.3636	0.	-5922.3
10761	1.8828	3.4545	0.	-5953.9
10762	1.9724	3.4545	5.e-002	-12.037
10763	1.9724	3.1818	0.	-5928.7
10764	1.8828	3.2727	0.	-5962.7
10765	1.9724	3.2727	5.e-002	-11.536
10766	1.9724	3.	0.	-5930.8
10767	1.8828	3.0909	0.	-5967.2
10768	1.9724	3.0909	5.e-002	-11.267
10769	1.9724	2.8182	0.	-5928.7
10770	1.8828	2.9091	0.	-5967.2
10771	1.9724	2.9091	5.e-002	-11.267
10772	1.9724	2.6364	0.	-5922.3
10773	1.8828	2.7273	0.	-5962.7
10774	1.9724	2.7273	5.e-002	-11.536
10775	1.9724	2.4545	0.	-5912.2
10776	1.8828	2.5455	0.	-5953.9
10777	1.9724	2.5455	5.e-002	-12.037
10778	1.9724	2.2727	0.	-5899.
10779	1.8828	2.3636	0.	-5941.4
10780	1.9724	2.3636	5.e-002	-12.708
10781	1.9724	2.0909	0.	-5883.6
10782	1.8828	2.1818	0.	-5926.
10783	1.9724	2.1818	5.e-002	-13.476
10784	1.9724	1.9091	0.	-5867.2
10785	1.8828	2.	0.	-5908.7
10786	1.9724	2.	5.e-002	-14.27
10787	1.9724	1.7273	0.	-5851.1
10788	1.8828	1.8182	0.	-5891.
10789	1.9724	1.8182	5.e-002	-15.026
10790	1.9724	1.5455	0.	-5836.5
10791	1.8828	1.6364	0.	-5874.
10792	1.9724	1.6364	5.e-002	-15.685
10793	1.9724	1.3636	0.	-5824.9
10794	1.8828	1.4545	0.	-5859.4
10795	1.9724	1.4545	5.e-002	-16.197
10796	1.9724	1.1818	0.	-5817.3
10797	1.8828	1.2727	0.	-5848.5
10798	1.9724	1.2727	5.e-002	-16.517
10799	1.9724	1.	0.	-5814.8
10800	1.8828	1.0909	0.	-5842.6
10801	1.9724	1.0909	5.e-002	-16.603
10802	1.9724	0.81818	0.	-5818.
10803	1.8828	0.90909	0.	-5842.6
10804	1.9724	0.90909	5.e-002	-16.421
10805	1.9724	0.63636	0.	-5827.3
10806	1.8828	0.72727	0.	-5849.1
10807	1.9724	0.72727	5.e-002	-15.951
10808	1.9724	0.45455	0.	-5842.9
10809	1.8828	0.54545	0.	-5862.4
10810	1.9724	0.54545	5.e-002	-15.227
10811	1.9724	0.27273	0.	-5869.8
10812	1.8828	0.36364	0.	-5882.8
10813	1.9724	0.36364	5.e-002	-14.766
10814	1.8828	0.18182	0.	-5920.7
10815	1.9724	0.18182	5.e-002	-26.87
10816	1.9724	9.0909e-002	0.	-5866.
10817	1.7931	5.7273	0.	-5933.9
10818	1.7034	5.8182	0.	-5979.9
10819	1.7931	5.8182	5.e-002	-27.427
10820	1.7931	5.9091	0.	-5929.3
10821	1.7931	5.5455	0.	-5902.5
10822	1.7034	5.6364	0.	-5936.4
10823	1.7931	5.6364	5.e-002	-15.311
10824	1.7931	5.3636	0.	-5884.4
10825	1.7034	5.4545	0.	-5913.6
10826	1.7931	5.4545	5.e-002	-15.956
10827	1.7931	5.1818	0.	-5873.7
10828	1.7034	5.2727	0.	-5899.5
10829	1.7931	5.2727	5.e-002	-16.708
10830	1.7931	5.	0.	-5870.3
10831	1.7034	5.0909	0.	-5893.6
10832	1.7931	5.0909	5.e-002	-17.158
10833	1.7931	4.8182	0.	-5873.6
10834	1.7034	4.9091	0.	-5895.5
10835	1.7931	4.9091	5.e-002	-17.307
10836	1.7931	4.6364	0.	-5882.8
10837	1.7034	4.7273	0.	-5904.4
10838	1.7931	4.7273	5.e-002	-17.203
10839	1.7931	4.4545	0.	-5896.6
10840	1.7034	4.5455	0.	-5919.
10841	1.7931	4.5455	5.e-002	-16.9
10842	1.7931	4.2727	0.	-5913.6
10843	1.7034	4.3636	0.	-5937.5
10844	1.7931	4.3636	5.e-002	-16.448
10845	1.7931	4.0909	0.	-5932.2
10846	1.7034	4.1818	0.	-5958.4
10847	1.7931	4.1818	5.e-002	-15.894
10848	1.7931	3.9091	0.	-5950.8
10849	1.7034	4.	0.	-5979.7
10850	1.7931	4.	5.e-002	-15.282
10851	1.7931	3.7273	0.	-5968.
10852	1.7034	3.8182	0.	-6000.
10853	1.7931	3.8182	5.e-002	-14.659
10854	1.7931	3.5455	0.	-5982.7
10855	1.7034	3.6364	0.	-6017.9
10856	1.7931	3.6364	5.e-002	-14.073
10857	1.7931	3.3636	0.	-5993.9
10858	1.7034	3.4545	0.	-6032.2
10859	1.7931	3.4545	5.e-002	-13.575
10860	1.7931	3.1818	0.	-6000.9
10861	1.7034	3.2727	0.	-6042.3
10862	1.7931	3.2727	5.e-002	-13.211
10863	1.7931	3.	0.	-6003.3
10864	1.7034	3.0909	0.	-6047.4
10865	1.7931	3.0909	5.e-002	-13.019
10866	1.7931	2.8182	0.	-6000.9
10867	1.7034	2.9091	0.	-6047.4
10868	1.7931	2.9091	5.e-002	-13.019
10869	1.7931	2.6364	0.	-5993.9
10870	1.7034	2.7273	0.	-6042.3
10871	1.7931	2.7273	5.e-002	-13.211
10872	1.7931	2.4545	0.	-5982.7
10873	1.7034	2.5455	0.	-6032.2
10874	1.7931	2.5455	5.e-002	-13.575
10875	1.7931	2.2727	0.	-5968.
10876	1.7034	2.3636	0.	-6017.9
10877	1.7931	2.3636	5.e-002	-14.073
10878	1.7931	2.0909	0.	-5950.8
10879	1.7034	2.1818	0.	-6000.
10880	1.7931	2.1818	5.e-002	-14.658
10881	1.7931	1.9091	0.	-5932.2
10882	1.7034	2.	0.	-5979.7
10883	1.7931	2.	5.e-002	-15.282
10884	1.7931	1.7273	0.	-5913.6
10885	1.7034	1.8182	0.	-5958.4
10886	1.7931	1.8182	5.e-002	-15.894
10887	1.7931	1.5455	0.	-5896.6
10888	1.7034	1.6364	0.	-5937.5
10889	1.7931	1.6364	5.e-002	-16.448
10890	1.7931	1.3636	0.	-5882.8
10891	1.7034	1.4545	0.	-5919.
10892	1.7931	1.4545	5.e-002	-16.9
10893	1.7931	1.1818	0.	-5873.6
10894	1.7034	1.2727	0.	-5904.4
10895	1.7931	1.2727	5.e-002	-17.203
10896	1.7931	1.	0.	-5870.3
10897	1.7034	1.0909	0.	-5895.5
10898	1.7931	1.0909	5.e-002	-17.307
10899	1.7931	0.81818	0.	-5873.7
10900	1.7034	0.90909	0.	-5893.6
10901	1.7931	0.90909	5.e-002	-17.158
10902	1.7931	0.63636	0.	-5884.4
10903	1.7034	0.72727	0.	-5899.5
10904	1.7931	0.72727	5.e-002	-16.708
10905	1.7931	0.45455	0.	-5902.5
10906	1.7034	0.54545	0.	-5913.6
10907	1.7931	0.54545	5.e-002	-15.956
10908	1.7931	0.27273	0.	-5933.9
10909	1.7034	0.36364	0.	-5936.4
10910	1.7931	0.36364	5.e-002	-15.311
10911	1.7034	0.18182	0.	-5979.9
10912	1.7931	0.18182	5.e-002	-27.427
10913	1.7931	9.0909e-002	0.	-5929.3
10914	1.6138	5.7273	0.	-5982.6
10915	1.5241	5.8182	0.	-6021.9
10916	1.6138	5.8182	5.e-002	-28.072
10917	1.6138	5.9091	0.	-5975.9
10918	1.6138	5.5455	0.	-5947.8
10919	1.5241	5.6364	0.	-5973.4
10920	1.6138	5.6364	5.e-002	-16.309
10921	1.6138	5.3636	0.	-5928.9
10922	1.5241	5.4545	0.	-5949.9
10923	1.6138	5.4545	5.e-002	-17.16
10924	1.6138	5.1818	0.	-5919.4
10925	1.5241	5.2727	0.	-5937.5
10926	1.6138	5.2727	5.e-002	-17.887
10927	1.6138	5.	0.	-5918.7
10928	1.5241	5.0909	0.	-5935.4
10929	1.6138	5.0909	5.e-002	-18.249
10930	1.6138	4.8182	0.	-5926.1
10931	1.5241	4.9091	0.	-5942.9
10932	1.6138	4.9091	5.e-002	-18.304
10933	1.6138	4.6364	0.	-5940.3
10934	1.5241	4.7273	0.	-5958.5
10935	1.6138	4.7273	5.e-002	-18.138
10936	1.6138	4.4545	0.	-5959.6
10937	1.5241	4.5455	0.	-5980.4
10938	1.6138	4.5455	5.e-002	-17.824
10939	1.6138	4.2727	0.	-5982.
10940	1.5241	4.3636	0.	-6006.2
10941	1.6138	4.3636	5.e-002	-17.415
10942	1.6138	4.0909	0.	-6005.6
10943	1.5241	4.1818	0.	-6033.8
10944	1.6138	4.1818	5.e-002	-16.95
10945	1.6138	3.9091	0.	-6028.6
10946	1.5241	4.	0.	-6061.1
10947	1.6138	4.	5.e-002	-16.463
10948	1.6138	3.7273	0.	-6049.5
10949	1.5241	3.8182	0.	-6086.4
10950	1.6138	3.8182	5.e-002	-15.985
10951	1.6138	3.5455	0.	-6067.1
10952	1.5241	3.6364	0.	-6108.2
10953	1.6138	3.6364	5.e-002	-15.548
10954	1.6138	3.3636	0.	-6080.3
10955	1.5241	3.4545	0.	-6125.4
10956	1.6138	3.4545	5.e-002	-15.185
10957	1.6138	3.1818	0.	-6088.5
10958	1.5241	3.2727	0.	-6137.3
10959	1.6138	3.2727	5.e-002	-14.923
10960	1.6138	3.	0.	-6091.2
10961	1.5241	3.0909	0.	-6143.4
10962	1.6138	3.0909	5.e-002	-14.786
10963	1.6138	2.8182	0.	-6088.5
10964	1.5241	2.9091	0.	-6143.4
10965	1.6138	2.9091	5.e-002	-14.786
10966	1.6138	2.6364	0.	-6080.3
10967	1.5241	2.7273	0.	-6137.3
10968	1.6138	2.7273	5.e-002	-14.923
10969	1.6138	2.4545	0.	-6067.1
10970	1.5241	2.5455	0.	-6125.4
10971	1.6138	2.5455	5.e-002	-15.185
10972	1.6138	2.2727	0.	-6049.5
10973	1.5241	2.3636	0.	-6108.2
10974	1.6138	2.3636	5.e-002	-15.548
10975	1.6138	2.0909	0.	-6028.6
10976	1.5241	2.1818	0.	-6086.4
10977	1.6138	2.1818	5.e-002	-15.985
10978	1.6138	1.9091	0.	-6005.6
10979	1.5241	2.	0.	-6061.1
10980	1.6138	2.	5.e-002	-16.463
10981	1.6138	1.7273	0.	-5982.
10982	1.5241	1.8182	0.	-6033.8
10983	1.6138	1.8182	5.e-002	-16.95
10984	1.6138	1.5455	0.	-5959.6
10985	1.5241	1.6364	0.	-6006.2
10986	1.6138	1.6364	5.e-002	-17.415
10987	1.6138	1.3636	0.	-5940.3
10988	1.5241	1.4545	0.	-5980.4
10989	1.6138	1.4545	5.e-002	-17.824
10990	1.6138	1.1818	0.	-5926.1
10991	1.5241	1.2727	0.	-5958.5
10992	1.6138	1.2727	5.e-002	-18.138
10993	1.6138	1.	0.	-5918.7
10994	1.5241	1.0909	0.	-5942.9
10995	1.6138	1.0909	5.e-002	-18.304
10996	1.6138	0.81818	0.	-5919.4
10997	1.5241	0.90909	0.	-5935.4
10998	1.6138	0.90909	5.e-002	-18.249
10999	1.6138	0.63636	0.	-5928.9
11000	1.5241	0.72727	0.	-5937.5
11001	1.6138	0.72727	5.e-002	-17.887
11002	1.6138	0.45455	0.	-5947.8
11003	1.5241	0.54545	0.	-5949.9
11004	1.6138	0.54545	5.e-002	-17.16
11005	1.6138	0.27273	0.	-5982.6
11006	1.5241	0.36364	0.	-5973.4
11007	1.6138	0.36364	5.e-002	-16.309
11008	1.5241	0.18182	0.	-6021.9
11009	1.6138	0.18182	5.e-002	-28.072
11010	1.6138	9.0909e-002	0.	-5975.9
11011	1.4345	5.7273	0.	-6012.9
11012	1.3448	5.8182	0.	-6042.3
11013	1.4345	5.8182	5.e-002	-28.728
11014	1.4345	5.9091	0.	-6002.2
11015	1.4345	5.5455	0.	-5975.8
11016	1.3448	5.6364	0.	-5989.5
11017	1.4345	5.6364	5.e-002	-17.916
11018	1.4345	5.3636	0.	-5958.7
11019	1.3448	5.4545	0.	-5967.9
11020	1.4345	5.4545	5.e-002	-18.969
11021	1.4345	5.1818	0.	-5953.5
11022	1.3448	5.2727	0.	-5960.7
11023	1.4345	5.2727	5.e-002	-19.577
11024	1.4345	5.	0.	-5959.4
11025	1.3448	5.0909	0.	-5966.9
11026	1.4345	5.0909	5.e-002	-19.747
11027	1.4345	4.8182	0.	-5975.
11028	1.3448	4.9091	0.	-5984.7
11029	1.4345	4.9091	5.e-002	-19.625
11030	1.4345	4.6364	0.	-5998.3
11031	1.3448	4.7273	0.	-6011.9
11032	1.4345	4.7273	5.e-002	-19.344
11033	1.4345	4.4545	0.	-6026.7
11034	1.3448	4.5455	0.	-6045.3
11035	1.4345	4.5455	5.e-002	-18.991
11036	1.4345	4.2727	0.	-6057.7
11037	1.3448	4.3636	0.	-6082.
11038	1.4345	4.3636	5.e-002	-18.609
11039	1.4345	4.0909	0.	-6089.
11040	1.3448	4.1818	0.	-6119.3
11041	1.4345	4.1818	5.e-002	-18.219
11042	1.4345	3.9091	0.	-6118.5
11043	1.3448	4.	0.	-6154.7
11044	1.4345	4.	5.e-002	-17.835
11045	1.4345	3.7273	0.	-6144.7
11046	1.3448	3.8182	0.	-6186.6
11047	1.4345	3.8182	5.e-002	-17.472
11048	1.4345	3.5455	0.	-6166.2
11049	1.3448	3.6364	0.	-6213.5
11050	1.4345	3.6364	5.e-002	-17.148
11051	1.4345	3.3636	0.	-6182.2
11052	1.3448	3.4545	0.	-6234.4
11053	1.4345	3.4545	5.e-002	-16.882
11054	1.4345	3.1818	0.	-6192.
11055	1.3448	3.2727	0.	-6248.7
11056	1.4345	3.2727	5.e-002	-16.693
11057	1.4345	3.	0.	-6195.3
11058	1.3448	3.0909	0.	-6255.9
11059	1.4345	3.0909	5.e-002	-16.595
11060	1.4345	2.8182	0.	-6192.
11061	1.3448	2.9091	0.	-6255.9
11062	1.4345	2.9091	5.e-002	-16.595
11063	1.4345	2.6364	0.	-6182.2
11064	1.3448	2.7273	0.	-6248.7
11065	1.4345	2.7273	5.e-002	-16.693
11066	1.4345	2.4545	0.	-6166.2
11067	1.3448	2.5455	0.	-6234.4
11068	1.4345	2.5455	5.e-002	-16.882
11069	1.4345	2.2727	0.	-6144.7
11070	1.3448	2.3636	0.	-6213.5
11071	1.4345	2.3636	5.e-002	-17.148
11072	1.4345	2.0909	0.	-6118.5
11073	1.3448	2.1818	0.	-6186.6
11074	1.4345	2.1818	5.e-002	-17.472
11075	1.4345	1.9091	0.	-6089.
11076	1.3448	2.	0.	-6154.7
11077	1.4345	2.	5.e-002	-17.834
11078	1.4345	1.7273	0.	-6057.7
11079	1.3448	1.8182	0.	-6119.3
11080	1.4345	1.8182	5.e-002	-18.219
11081	1.4345	1.5455	0.	-6026.7
11082	1.3448	1.6364	0.	-6082.
11083	1.4345	1.6364	5.e-002	-18.609
11084	1.4345	1.3636	0.	-5998.3
11085	1.3448	1.4545	0.	-6045.3
11086	1.4345	1.4545	5.e-002	-18.991
11087	1.4345	1.1818	0.	-5975.
11088	1.3448	1.2727	0.	-6011.9
11089	1.4345	1.2727	5.e-002	-19.344
11090	1.4345	1.	0.	-5959.4
11091	1.3448	1.0909	0.	-5984.7
11092	1.4345	1.0909	5.e-002	-19.625
11093	1.4345	0.81818	0.	-5953.5
11094	1.3448	0.90909	0.	-5966.9
11095	1.4345	0.90909	5.e-002	-19.747
11096	1.4345	0.63636	0.	-5958.7
11097	1.3448	0.72727	0.	-5960.7
11098	1.4345	0.72727	5.e-002	-19.577
11099	1.4345	0.45455	0.	-5975.8
11100	1.3448	0.54545	0.	-5967.9
11101	1.4345	0.54545	5.e-002	-18.969
11102	1.4345	0.27273	0.	-6012.9
11103	1.3448	0.36364	0.	-5989.5
11104	1.4345	0.36364	5.e-002	-17.916
11105	1.3448	0.18182	0.	-6042.3
11106	1.4345	0.18182	5.e-002	-28.728
11107	1.4345	9.0909e-002	0.	-6002.2
11108	1.2552	5.7273	0.	-6019.3
11109	1.1655	5.8182	0.	-6033.9
11110	1.2552	5.8182	5.e-002	-29.32
11111	1.2552	5.9091	0.	-6002.3
11112	1.2552	5.5455	0.	-5981.9
11113	1.1655	5.6364	0.	-5978.3
11114	1.2552	5.6364	5.e-002	-20.402
11115	1.2552	5.3636	0.	-5970.1
11116	1.1655	5.4545	0.	-5962.5
11117	1.2552	5.4545	5.e-002	-21.585
11118	1.2552	5.1818	0.	-5974.
11119	1.1655	5.2727	0.	-5966.3
11120	1.2552	5.2727	5.e-002	-21.9
11121	1.2552	5.	0.	-5991.9
11122	1.1655	5.0909	0.	-5987.2
11123	1.2552	5.0909	5.e-002	-21.715
11124	1.2552	4.8182	0.	-6021.1
11125	1.1655	4.9091	0.	-6022.
11126	1.2552	4.9091	5.e-002	-21.306
11127	1.2552	4.6364	0.	-6058.4
11128	1.1655	4.7273	0.	-6066.6
11129	1.2552	4.7273	5.e-002	-20.856
11130	1.2552	4.4545	0.	-6100.2
11131	1.1655	4.5455	0.	-6116.6
11132	1.2552	4.5455	5.e-002	-20.439
11133	1.2552	4.2727	0.	-6143.1
11134	1.1655	4.3636	0.	-6168.
11135	1.2552	4.3636	5.e-002	-20.067
11136	1.2552	4.0909	0.	-6184.6
11137	1.1655	4.1818	0.	-6217.7
11138	1.2552	4.1818	5.e-002	-19.73
11139	1.2552	3.9091	0.	-6222.5
11140	1.1655	4.	0.	-6263.2
11141	1.2552	4.	5.e-002	-19.418
11142	1.2552	3.7273	0.	-6255.1
11143	1.1655	3.8182	0.	-6303.
11144	1.2552	3.8182	5.e-002	-19.132
11145	1.2552	3.5455	0.	-6281.5
11146	1.1655	3.6364	0.	-6335.7
11147	1.2552	3.6364	5.e-002	-18.88
11148	1.2552	3.3636	0.	-6300.7
11149	1.1655	3.4545	0.	-6360.8
11150	1.2552	3.4545	5.e-002	-18.675
11151	1.2552	3.1818	0.	-6312.5
11152	1.1655	3.2727	0.	-6377.7
11153	1.2552	3.2727	5.e-002	-18.529
11154	1.2552	3.	0.	-6316.4
11155	1.1655	3.0909	0.	-6386.2
11156	1.2552	3.0909	5.e-002	-18.454
11157	1.2552	2.8182	0.	-6312.5
11158	1.1655	2.9091	0.	-6386.2
11159	1.2552	2.9091	5.e-002	-18.454
11160	1.2552	2.6364	0.	-6300.7
11161	1.1655	2.7273	0.	-6377.7
11162	1.2552	2.7273	5.e-002	-18.529
11163	1.2552	2.4545	0.	-6281.5
11164	1.1655	2.5455	0.	-6360.8
11165	1.2552	2.5455	5.e-002	-18.675
11166	1.2552	2.2727	0.	-6255.1
11167	1.1655	2.3636	0.	-6335.7
11168	1.2552	2.3636	5.e-002	-18.88
11169	1.2552	2.0909	0.	-6222.5
11170	1.1655	2.1818	0.	-6303.
11171	1.2552	2.1818	5.e-002	-19.132
11172	1.2552	1.9091	0.	-6184.6
11173	1.1655	2.	0.	-6263.2
11174	1.2552	2.	5.e-002	-19.418
11175	1.2552	1.7273	0.	-6143.1
11176	1.1655	1.8182	0.	-6217.7
11177	1.2552	1.8182	5.e-002	-19.73
11178	1.2552	1.5455	0.	-6100.2
11179	1.1655	1.6364	0.	-6168.
11180	1.2552	1.6364	5.e-002	-20.067
11181	1.2552	1.3636	0.	-6058.4
11182	1.1655	1.4545	0.	-6116.6
11183	1.2552	1.4545	5.e-002	-20.439
11184	1.2552	1.1818	0.	-6021.1
11185	1.1655	1.2727	0.	-6066.6
11186	1.2552	1.2727	5.e-002	-20.856
11187	1.2552	1.	0.	-5991.9
11188	1.1655	1.0909	0.	-6022.
11189	1.2552	1.0909	5.e-002	-21.306
11190	1.2552	0.81818	0.	-5974.
11191	1.1655	0.90909	0.	-5987.2
11192	1.2552	0.90909	5.e-002	-21.715
11193	1.2552	0.63636	0.	-5970.1
11194	1.1655	0.72727	0.	-5966.3
11195	1.2552	0.72727	5.e-002	-21.9
11196	1.2552	0.45455	0.	-5981.9
11197	1.1655	0.54545	0.	-5962.5
11198	1.2552	0.54545	5.e-002	-21.585
11199	1.2552	0.27273	0.	-6019.3
11200	1.1655	0.36364	0.	-5978.3
11201	1.2552	0.36364	5.e-002	-20.402
11202	1.1655	0.18182	0.	-6033.9
11203	1.2552	0.18182	5.e-002	-29.32
11204	1.2552	9.0909e-002	0.	-6002.3
11205	1.0759	5.7273	0.	-5993.2
11206	0.98621	5.8182	0.	-5984.1
11207	1.0759	5.8182	5.e-002	-29.86
11208	1.0759	5.9091	0.	-5966.8
11209	1.0759	5.5455	0.	-5959.3
11210	0.98621	5.6364	0.	-5929.
11211	1.0759	5.6364	5.e-002	-24.237
11212	1.0759	5.3636	0.	-5958.8
11213	0.98621	5.4545	0.	-5926.3
11214	1.0759	5.4545	5.e-002	-25.313
11215	1.0759	5.1818	0.	-5979.2
11216	0.98621	5.2727	0.	-5950.4
11217	1.0759	5.2727	5.e-002	-25.01
11218	1.0759	5.	0.	-6016.8
11219	0.98621	5.0909	0.	-5996.1
11220	1.0759	5.0909	5.e-002	-24.225
11221	1.0759	4.8182	0.	-6066.9
11222	0.98621	4.9091	0.	-6057.2
11223	1.0759	4.9091	5.e-002	-23.405
11224	1.0759	4.6364	0.	-6124.3
11225	0.98621	4.7273	0.	-6126.8
11226	1.0759	4.7273	5.e-002	-22.74
11227	1.0759	4.4545	0.	-6184.
11228	0.98621	4.5455	0.	-6198.8
11229	1.0759	4.5455	5.e-002	-22.242
11230	1.0759	4.2727	0.	-6242.1
11231	0.98621	4.3636	0.	-6268.5
11232	1.0759	4.3636	5.e-002	-21.858
11233	1.0759	4.0909	0.	-6296.
11234	0.98621	4.1818	0.	-6332.8
11235	1.0759	4.1818	5.e-002	-21.537
11236	1.0759	3.9091	0.	-6343.4
11237	0.98621	4.	0.	-6389.5
11238	1.0759	4.	5.e-002	-21.251
11239	1.0759	3.7273	0.	-6383.3
11240	0.98621	3.8182	0.	-6437.7
11241	1.0759	3.8182	5.e-002	-20.991
11242	1.0759	3.5455	0.	-6414.9
11243	0.98621	3.6364	0.	-6476.5
11244	1.0759	3.6364	5.e-002	-20.762
11245	1.0759	3.3636	0.	-6437.6
11246	0.98621	3.4545	0.	-6505.7
11247	1.0759	3.4545	5.e-002	-20.576
11248	1.0759	3.1818	0.	-6451.3
11249	0.98621	3.2727	0.	-6525.2
11250	1.0759	3.2727	5.e-002	-20.444
11251	1.0759	3.	0.	-6455.9
11252	0.98621	3.0909	0.	-6534.9
11253	1.0759	3.0909	5.e-002	-20.375
11254	1.0759	2.8182	0.	-6451.3
11255	0.98621	2.9091	0.	-6534.9
11256	1.0759	2.9091	5.e-002	-20.375
11257	1.0759	2.6364	0.	-6437.6
11258	0.98621	2.7273	0.	-6525.2
11259	1.0759	2.7273	5.e-002	-20.444
11260	1.0759	2.4545	0.	-6414.9
11261	0.98621	2.5455	0.	-6505.7
11262	1.0759	2.5455	5.e-002	-20.576
11263	1.0759	2.2727	0.	-6383.3
11264	0.98621	2.3636	0.	-6476.5
11265	1.0759	2.3636	5.e-002	-20.762
11266	1.0759	2.0909	0.	-6343.4
11267	0.98621	2.1818	0.	-6437.7
11268	1.0759	2.1818	5.e-002	-20.991
11269	1.0759	1.9091	0.	-6296.
11270	0.98621	2.	0.	-6389.5
11271	1.0759	2.	5.e-002	-21.251
11272	1.0759	1.7273	0.	-6242.1
11273	0.98621	1.8182	0.	-6332.7
11274	1.0759	1.8182	5.e-002	-21.537
11275	1.0759	1.5455	0.	-6184.
11276	0.98621	1.6364	0.	-6268.5
11277	1.0759	1.6364	5.e-002	-21.858
11278	1.0759	1.3636	0.	-6124.3
11279	0.98621	1.4545	0.	-6198.8
11280	1.0759	1.4545	5.e-002	-22.242
11281	1.0759	1.1818	0.	-6066.9
11282	0.98621	1.2727	0.	-6126.8
11283	1.0759	1.2727	5.e-002	-22.74
11284	1.0759	1.	0.	-6016.8
11285	0.98621	1.0909	0.	-6057.2
11286	1.0759	1.0909	5.e-002	-23.405
11287	1.0759	0.81818	0.	-5979.2
11288	0.98621	0.90909	0.	-5996.1
11289	1.0759	0.90909	5.e-002	-24.225
11290	1.0759	0.63636	0.	-5958.8
11291	0.98621	0.72727	0.	-5950.4
11292	1.0759	0.72727	5.e-002	-25.01
11293	1.0759	0.45455	0.	-5959.3
11294	0.98621	0.54545	0.	-5926.3
11295	1.0759	0.54545	5.e-002	-25.313
11296	1.0759	0.27273	0.	-5993.2
11297	0.98621	0.36364	0.	-5929.
11298	1.0759	0.36364	5.e-002	-24.237
11299	0.98621	0.18182	0.	-5984.1
11300	1.0759	0.18182	5.e-002	-29.86
11301	1.0759	9.0909e-002	0.	-5966.8
11302	0.89655	5.7273	0.	-5920.3
11303	0.8069	5.8182	0.	-5872.7
11304	0.89655	5.8182	5.e-002	-30.572
11305	0.89655	5.9091	0.	-5879.1
11306	0.89655	5.5455	0.	-5896.4
11307	0.8069	5.6364	0.	-5826.2
11308	0.89655	5.6364	5.e-002	-30.177
11309	0.89655	5.3636	0.	-5917.7
11310	0.8069	5.4545	0.	-5850.8
11311	0.89655	5.4545	5.e-002	-30.571
11312	0.89655	5.1818	0.	-5966.7
11313	0.8069	5.2727	0.	-5912.2
11314	0.89655	5.2727	5.e-002	-29.057
11315	0.89655	5.	0.	-6035.8
11316	0.8069	5.0909	0.	-5998.8
11317	0.89655	5.0909	5.e-002	-27.329
11318	0.89655	4.8182	0.	-6116.4
11319	0.8069	4.9091	0.	-6098.8
11320	0.89655	4.9091	5.e-002	-25.976
11321	0.89655	4.6364	0.	-6200.7
11322	0.8069	4.7273	0.	-6201.9
11323	0.89655	4.7273	5.e-002	-25.064
11324	0.89655	4.4545	0.	-6282.8
11325	0.8069	4.5455	0.	-6300.9
11326	0.89655	4.5455	5.e-002	-24.455
11327	0.89655	4.2727	0.	-6358.7
11328	0.8069	4.3636	0.	-6391.5
11329	0.89655	4.3636	5.e-002	-24.007
11330	0.89655	4.0909	0.	-6426.1
11331	0.8069	4.1818	0.	-6471.2
11332	0.89655	4.1818	5.e-002	-23.634
11333	0.89655	3.9091	0.	-6483.6
11334	0.8069	4.	0.	-6539.2
11335	0.89655	4.	5.e-002	-23.299
11336	0.89655	3.7273	0.	-6530.7
11337	0.8069	3.8182	0.	-6595.2
11338	0.89655	3.8182	5.e-002	-22.994
11339	0.89655	3.5455	0.	-6567.2
11340	0.8069	3.6364	0.	-6639.4
11341	0.89655	3.6364	5.e-002	-22.728
11342	0.89655	3.3636	0.	-6593.1
11343	0.8069	3.4545	0.	-6672.2
11344	0.89655	3.4545	5.e-002	-22.513
11345	0.89655	3.1818	0.	-6608.6
11346	0.8069	3.2727	0.	-6693.8
11347	0.89655	3.2727	5.e-002	-22.361
11348	0.89655	3.	0.	-6613.8
11349	0.8069	3.0909	0.	-6704.5
11350	0.89655	3.0909	5.e-002	-22.283
11351	0.89655	2.8182	0.	-6608.6
11352	0.8069	2.9091	0.	-6704.5
11353	0.89655	2.9091	5.e-002	-22.283
11354	0.89655	2.6364	0.	-6593.1
11355	0.8069	2.7273	0.	-6693.8
11356	0.89655	2.7273	5.e-002	-22.361
11357	0.89655	2.4545	0.	-6567.2
11358	0.8069	2.5455	0.	-6672.2
11359	0.89655	2.5455	5.e-002	-22.512
11360	0.89655	2.2727	0.	-6530.7
11361	0.8069	2.3636	0.	-6639.4
11362	0.89655	2.3636	5.e-002	-22.728
11363	0.89655	2.0909	0.	-6483.6
11364	0.8069	2.1818	0.	-6595.2
11365	0.89655	2.1818	5.e-002	-22.994
11366	0.89655	1.9091	0.	-6426.1
11367	0.8069	2.	0.	-6539.2
11368	0.89655	2.	5.e-002	-23.299
11369	0.89655	1.7273	0.	-6358.7
11370	0.8069	1.8182	0.	-6471.2
11371	0.89655	1.8182	5.e-002	-23.634
11372	0.89655	1.5455	0.	-6282.8
11373	0.8069	1.6364	0.	-6391.5
11374	0.89655	1.6364	5.e-002	-24.007
11375	0.89655	1.3636	0.	-6200.7
11376	0.8069	1.4545	0.	-6300.9
11377	0.89655	1.4545	5.e-002	-24.455
11378	0.89655	1.1818	0.	-6116.4
11379	0.8069	1.2727	0.	-6201.9
11380	0.89655	1.2727	5.e-002	-25.063
11381	0.89655	1.	0.	-6035.8
11382	0.8069	1.0909	0.	-6098.8
11383	0.89655	1.0909	5.e-002	-25.976
11384	0.89655	0.81818	0.	-5966.7
11385	0.8069	0.90909	0.	-5998.8
11386	0.89655	0.90909	5.e-002	-27.329
11387	0.89655	0.63636	0.	-5917.7
11388	0.8069	0.72727	0.	-5912.2
11389	0.89655	0.72727	5.e-002	-29.057
11390	0.89655	0.45455	0.	-5896.4
11391	0.8069	0.54545	0.	-5850.8
11392	0.89655	0.54545	5.e-002	-30.571
11393	0.89655	0.27273	0.	-5920.3
11394	0.8069	0.36364	0.	-5826.2
11395	0.89655	0.36364	5.e-002	-30.177
11396	0.8069	0.18182	0.	-5872.7
11397	0.89655	0.18182	5.e-002	-30.572
11398	0.89655	9.0909e-002	0.	-5879.1
11399	0.71724	5.7273	0.	-5779.
11400	0.62759	5.8182	0.	-5658.5
11401	0.71724	5.8182	5.e-002	-33.05
11402	0.71724	5.9091	0.	-5712.8
11403	0.71724	5.5455	0.	-5780.7
11404	0.62759	5.6364	0.	-5639.5
11405	0.71724	5.6364	5.e-002	-39.559
11406	0.71724	5.3636	0.	-5844.5
11407	0.62759	5.4545	0.	-5721.1
11408	0.71724	5.4545	5.e-002	-37.848
11409	0.71724	5.1818	0.	-5943.1
11410	0.62759	5.2727	0.	-5850.2
11411	0.71724	5.2727	5.e-002	-34.176
11412	0.71724	5.	0.	-6060.7
11413	0.62759	5.0909	0.	-6001.4
11414	0.71724	5.0909	5.e-002	-31.209
11415	0.71724	4.8182	0.	-6183.5
11416	0.62759	4.9091	0.	-6155.1
11417	0.71724	4.9091	5.e-002	-29.312
11418	0.71724	4.6364	0.	-6301.6
11419	0.62759	4.7273	0.	-6299.2
11420	0.71724	4.7273	5.e-002	-28.158
11421	0.71724	4.4545	0.	-6409.3
11422	0.62759	4.5455	0.	-6427.9
11423	0.71724	4.5455	5.e-002	-27.386
11424	0.71724	4.2727	0.	-6503.8
11425	0.62759	4.3636	0.	-6539.1
11426	0.71724	4.3636	5.e-002	-26.782
11427	0.71724	4.0909	0.	-6584.2
11428	0.62759	4.1818	0.	-6632.9
11429	0.71724	4.1818	5.e-002	-26.253
11430	0.71724	3.9091	0.	-6650.8
11431	0.62759	4.	0.	-6710.2
11432	0.71724	4.	5.e-002	-25.772
11433	0.71724	3.7273	0.	-6703.9
11434	0.62759	3.8182	0.	-6772.1
11435	0.71724	3.8182	5.e-002	-25.34
11436	0.71724	3.5455	0.	-6744.4
11437	0.62759	3.6364	0.	-6820.1
11438	0.71724	3.6364	5.e-002	-24.97
11439	0.71724	3.3636	0.	-6772.7
11440	0.62759	3.4545	0.	-6855.
11441	0.71724	3.4545	5.e-002	-24.678
11442	0.71724	3.1818	0.	-6789.5
11443	0.62759	3.2727	0.	-6877.8
11444	0.71724	3.2727	5.e-002	-24.476
11445	0.71724	3.	0.	-6795.1
11446	0.62759	3.0909	0.	-6889.1
11447	0.71724	3.0909	5.e-002	-24.373
11448	0.71724	2.8182	0.	-6789.5
11449	0.62759	2.9091	0.	-6889.1
11450	0.71724	2.9091	5.e-002	-24.373
11451	0.71724	2.6364	0.	-6772.7
11452	0.62759	2.7273	0.	-6877.8
11453	0.71724	2.7273	5.e-002	-24.476
11454	0.71724	2.4545	0.	-6744.4
11455	0.62759	2.5455	0.	-6855.
11456	0.71724	2.5455	5.e-002	-24.678
11457	0.71724	2.2727	0.	-6703.9
11458	0.62759	2.3636	0.	-6820.1
11459	0.71724	2.3636	5.e-002	-24.97
11460	0.71724	2.0909	0.	-6650.8
11461	0.62759	2.1818	0.	-6772.1
11462	0.71724	2.1818	5.e-002	-25.34
11463	0.71724	1.9091	0.	-6584.2
11464	0.62759	2.	0.	-6710.2
11465	0.71724	2.	5.e-002	-25.772
11466	0.71724	1.7273	0.	-6503.8
11467	0.62759	1.8182	0.	-6632.9
11468	0.71724	1.8182	5.e-002	-26.253
11469	0.71724	1.5455	0.	-6409.3
11470	0.62759	1.6364	0.	-6539.1
11471	0.71724	1.6364	5.e-002	-26.782
11472	0.71724	1.3636	0.	-6301.6
11473	0.62759	1.4545	0.	-6427.9
11474	0.71724	1.4545	5.e-002	-27.386
11475	0.71724	1.1818	0.	-6183.5
11476	0.62759	1.2727	0.	-6299.2
11477	0.71724	1.2727	5.e-002	-28.158
11478	0.71724	1.	0.	-6060.7
11479	0.62759	1.0909	0.	-6155.1
11480	0.71724	1.0909	5.e-002	-29.312
11481	0.71724	0.81818	0.	-5943.1
11482	0.62759	0.90909	0.	-6001.4
11483	0.71724	0.90909	5.e-002	-31.209
11484	0.71724	0.63636	0.	-5844.5
11485	0.62759	0.72727	0.	-5850.2
11486	0.71724	0.72727	5.e-002	-34.176
11487	0.71724	0.45455	0.	-5780.7
11488	0.62759	0.54545	0.	-5721.1
11489	0.71724	0.54545	5.e-002	-37.848
11490	0.71724	0.27273	0.	-5779.
11491	0.62759	0.36364	0.	-5639.5
11492	0.71724	0.36364	5.e-002	-39.559
11493	0.62759	0.18182	0.	-5658.5
11494	0.71724	0.18182	5.e-002	-33.05
11495	0.71724	9.0909e-002	0.	-5712.8
11496	0.53793	5.7273	0.	-5518.8
11497	0.44828	5.8182	0.	-5272.7
11498	0.53793	5.8182	5.e-002	-41.451
11499	0.53793	5.9091	0.	-5408.9
11500	0.53793	5.5455	0.	-5578.8
11501	0.44828	5.6364	0.	-5345.1
11502	0.53793	5.6364	5.e-002	-54.624
11503	0.53793	5.3636	0.	-5724.8
11504	0.44828	5.4545	0.	-5557.7
11505	0.53793	5.4545	5.e-002	-47.404
11506	0.53793	5.1818	0.	-5906.8
11507	0.44828	5.2727	0.	-5810.
11508	0.53793	5.2727	5.e-002	-40.206
11509	0.53793	5.	0.	-6094.9
11510	0.44828	5.0909	0.	-6055.8
11511	0.53793	5.0909	5.e-002	-35.785
11512	0.53793	4.8182	0.	-6270.4
11513	0.44828	4.9091	0.	-6275.
11514	0.53793	4.9091	5.e-002	-33.23
11515	0.53793	4.6364	0.	-6425.4
11516	0.44828	4.7273	0.	-6461.9
11517	0.53793	4.7273	5.e-002	-31.627
11518	0.53793	4.4545	0.	-6557.8
11519	0.44828	4.5455	0.	-6617.5
11520	0.53793	4.5455	5.e-002	-30.434
11521	0.53793	4.2727	0.	-6668.3
11522	0.44828	4.3636	0.	-6745.1
11523	0.53793	4.3636	5.e-002	-29.433
11524	0.53793	4.0909	0.	-6758.9
11525	0.44828	4.1818	0.	-6848.5
11526	0.53793	4.1818	5.e-002	-28.549
11527	0.53793	3.9091	0.	-6831.6
11528	0.44828	4.	0.	-6931.
11529	0.53793	4.	5.e-002	-27.768
11530	0.53793	3.7273	0.	-6888.3
11531	0.44828	3.8182	0.	-6995.6
11532	0.53793	3.8182	5.e-002	-27.094
11533	0.53793	3.5455	0.	-6930.7
11534	0.44828	3.6364	0.	-7044.6
11535	0.53793	3.6364	5.e-002	-26.539
11536	0.53793	3.3636	0.	-6960.1
11537	0.44828	3.4545	0.	-7079.9
11538	0.53793	3.4545	5.e-002	-26.112
11539	0.53793	3.1818	0.	-6977.3
11540	0.44828	3.2727	0.	-7102.7
11541	0.53793	3.2727	5.e-002	-25.822
11542	0.53793	3.	0.	-6983.
11543	0.44828	3.0909	0.	-7113.9
11544	0.53793	3.0909	5.e-002	-25.676
11545	0.53793	2.8182	0.	-6977.3
11546	0.44828	2.9091	0.	-7113.9
11547	0.53793	2.9091	5.e-002	-25.676
11548	0.53793	2.6364	0.	-6960.1
11549	0.44828	2.7273	0.	-7102.7
11550	0.53793	2.7273	5.e-002	-25.822
11551	0.53793	2.4545	0.	-6930.7
11552	0.44828	2.5455	0.	-7079.9
11553	0.53793	2.5455	5.e-002	-26.112
11554	0.53793	2.2727	0.	-6888.3
11555	0.44828	2.3636	0.	-7044.6
11556	0.53793	2.3636	5.e-002	-26.539
11557	0.53793	2.0909	0.	-6831.6
11558	0.44828	2.1818	0.	-6995.6
11559	0.53793	2.1818	5.e-002	-27.094
11560	0.53793	1.9091	0.	-6758.9
11561	0.44828	2.	0.	-6931.
11562	0.53793	2.	5.e-002	-27.768
11563	0.53793	1.7273	0.	-6668.3
11564	0.44828	1.8182	0.	-6848.5
11565	0.53793	1.8182	5.e-002	-28.549
11566	0.53793	1.5455	0.	-6557.8
11567	0.44828	1.6364	0.	-6745.1
11568	0.53793	1.6364	5.e-002	-29.433
11569	0.53793	1.3636	0.	-6425.4
11570	0.44828	1.4545	0.	-6617.5
11571	0.53793	1.4545	5.e-002	-30.434
11572	0.53793	1.1818	0.	-6270.4
11573	0.44828	1.2727	0.	-6461.9
11574	0.53793	1.2727	5.e-002	-31.627
11575	0.53793	1.	0.	-6094.9
11576	0.44828	1.0909	0.	-6275.
11577	0.53793	1.0909	5.e-002	-33.23
11578	0.53793	0.81818	0.	-5906.8
11579	0.44828	0.90909	0.	-6055.8
11580	0.53793	0.90909	5.e-002	-35.785
11581	0.53793	0.63636	0.	-5724.8
11582	0.44828	0.72727	0.	-5810.
11583	0.53793	0.72727	5.e-002	-40.206
11584	0.53793	0.45455	0.	-5578.8
11585	0.44828	0.54545	0.	-5557.7
11586	0.53793	0.54545	5.e-002	-47.404
11587	0.53793	0.27273	0.	-5518.8
11588	0.44828	0.36364	0.	-5345.1
11589	0.53793	0.36364	5.e-002	-54.624
11590	0.44828	0.18182	0.	-5272.7
11591	0.53793	0.18182	5.e-002	-41.451
11592	0.53793	9.0909e-002	0.	-5408.9
11593	0.35862	5.7273	0.	-5096.9
11594	0.26897	5.8182	0.	-4467.8
11595	0.35862	5.8182	5.e-002	-71.997
11596	0.35862	5.9091	0.	-4873.9
11597	0.35862	5.5455	0.	-5319.8
11598	0.26897	5.6364	0.	-4848.1
11599	0.35862	5.6364	5.e-002	-78.554
11600	0.35862	5.3636	0.	-5639.7
11601	0.26897	5.4545	0.	-5348.5
11602	0.35862	5.4545	5.e-002	-59.798
11603	0.35862	5.1818	0.	-5957.9
11604	0.26897	5.2727	0.	-5780.6
11605	0.35862	5.2727	5.e-002	-49.363
11606	0.35862	5.	0.	-6236.1
11607	0.26897	5.0909	0.	-6129.7
11608	0.35862	5.0909	5.e-002	-43.88
11609	0.35862	4.8182	0.	-6467.
11610	0.26897	4.9091	0.	-6404.5
11611	0.35862	4.9091	5.e-002	-40.776
11612	0.35862	4.6364	0.	-6654.5
11613	0.26897	4.7273	0.	-6619.9
11614	0.35862	4.7273	5.e-002	-38.539
11615	0.35862	4.4545	0.	-6805.3
11616	0.26897	4.5455	0.	-6788.9
11617	0.35862	4.5455	5.e-002	-36.716
11618	0.35862	4.2727	0.	-6925.6
11619	0.26897	4.3636	0.	-6921.6
11620	0.35862	4.3636	5.e-002	-35.154
11621	0.35862	4.0909	0.	-7020.8
11622	0.26897	4.1818	0.	-7025.4
11623	0.35862	4.1818	5.e-002	-33.804
11624	0.35862	3.9091	0.	-7095.2
11625	0.26897	4.	0.	-7106.1
11626	0.35862	4.	5.e-002	-32.649
11627	0.35862	3.7273	0.	-7152.1
11628	0.26897	3.8182	0.	-7168.
11629	0.35862	3.8182	5.e-002	-31.684
11630	0.35862	3.5455	0.	-7193.9
11631	0.26897	3.6364	0.	-7214.1
11632	0.35862	3.6364	5.e-002	-30.91
11633	0.35862	3.3636	0.	-7222.5
11634	0.26897	3.4545	0.	-7246.9
11635	0.35862	3.4545	5.e-002	-30.327
11636	0.35862	3.1818	0.	-7239.2
11637	0.26897	3.2727	0.	-7267.8
11638	0.35862	3.2727	5.e-002	-29.937
11639	0.35862	3.	0.	-7244.7
11640	0.26897	3.0909	0.	-7278.
11641	0.35862	3.0909	5.e-002	-29.741
11642	0.35862	2.8182	0.	-7239.2
11643	0.26897	2.9091	0.	-7278.
11644	0.35862	2.9091	5.e-002	-29.741
11645	0.35862	2.6364	0.	-7222.5
11646	0.26897	2.7273	0.	-7267.8
11647	0.35862	2.7273	5.e-002	-29.937
11648	0.35862	2.4545	0.	-7193.9
11649	0.26897	2.5455	0.	-7246.9
11650	0.35862	2.5455	5.e-002	-30.327
11651	0.35862	2.2727	0.	-7152.1
11652	0.26897	2.3636	0.	-7214.1
11653	0.35862	2.3636	5.e-002	-30.91
11654	0.35862	2.0909	0.	-7095.2
11655	0.26897	2.1818	0.	-7168.
11656	0.35862	2.1818	5.e-002	-31.684
11657	0.35862	1.9091	0.	-7020.8
11658	0.26897	2.	0.	-7106.1
11659	0.35862	2.	5.e-002	-32.649
11660	0.35862	1.7273	0.	-6925.6
11661	0.26897	1.8182	0.	-7025.4
11662	0.35862	1.8182	5.e-002	-33.804
11663	0.35862	1.5455	0.	-6805.3
11664	0.26897	1.6364	0.	-6921.6
11665	0.35862	1.6364	5.e-002	-35.154
11666	0.35862	1.3636	0.	-6654.5
11667	0.26897	1.4545	0.	-6788.9
11668	0.35862	1.4545	5.e-002	-36.716
11669	0.35862	1.1818	0.	-6467.
11670	0.26897	1.2727	0.	-6619.9
11671	0.35862	1.2727	5.e-002	-38.539
11672	0.35862	1.	0.	-6236.1
11673	0.26897	1.0909	0.	-6404.5
11674	0.35862	1.0909	5.e-002	-40.776
11675	0.35862	0.81818	0.	-5957.9
11676	0.26897	0.90909	0.	-6129.7
11677	0.35862	0.90909	5.e-002	-43.88
11678	0.35862	0.63636	0.	-5639.7
11679	0.26897	0.72727	0.	-5780.6
11680	0.35862	0.72727	5.e-002	-49.363
11681	0.35862	0.45455	0.	-5319.8
11682	0.26897	0.54545	0.	-5348.5
11683	0.35862	0.54545	5.e-002	-59.798
11684	0.35862	0.27273	0.	-5096.9
11685	0.26897	0.36364	0.	-4848.1
11686	0.35862	0.36364	5.e-002	-78.554
11687	0.26897	0.18182	0.	-4467.8
11688	0.35862	0.18182	5.e-002	-71.997
11689	0.35862	9.0909e-002	0.	-4873.9
11690	0.17931	5.7273	0.	-4203.4
11691	0.17931	5.8182	5.e-002	-172.01
11692	0.17931	5.9091	0.	-3698.9
11693	8.9655e-002	5.8182	0.	-3236.6
11694	0.17931	5.5455	0.	-4876.7
11695	0.17931	5.6364	5.e-002	-108.39
11696	8.9655e-002	5.6364	0.	-4605.6
11697	0.17931	5.3636	0.	-5496.4
11698	0.17931	5.4545	5.e-002	-74.127
11699	8.9655e-002	5.4545	0.	-5483.3
11700	0.17931	5.1818	0.	-5958.7
11701	0.17931	5.2727	5.e-002	-57.079
11702	8.9655e-002	5.2727	0.	-6068.6
11703	0.17931	5.	0.	-6302.4
11704	0.17931	5.0909	5.e-002	-48.121
11705	8.9655e-002	5.0909	0.	-6476.6
11706	0.17931	4.8182	0.	-6560.
11707	0.17931	4.9091	5.e-002	-41.9
11708	8.9655e-002	4.9091	0.	-6771.9
11709	0.17931	4.6364	0.	-6755.9
11710	0.17931	4.7273	5.e-002	-37.277
11711	8.9655e-002	4.7273	0.	-6991.2
11712	0.17931	4.4545	0.	-6906.2
11713	0.17931	4.5455	5.e-002	-33.671
11714	8.9655e-002	4.5455	0.	-7156.6
11715	0.17931	4.2727	0.	-7022.
11716	0.17931	4.3636	5.e-002	-30.788
11717	8.9655e-002	4.3636	0.	-7282.6
11718	0.17931	4.0909	0.	-7111.1
11719	0.17931	4.1818	5.e-002	-28.456
11720	8.9655e-002	4.1818	0.	-7378.7
11721	0.17931	3.9091	0.	-7179.1
11722	0.17931	4.	5.e-002	-26.572
11723	8.9655e-002	4.	0.	-7451.8
11724	0.17931	3.7273	0.	-7230.2
11725	0.17931	3.8182	5.e-002	-25.067
11726	8.9655e-002	3.8182	0.	-7506.7
11727	0.17931	3.5455	0.	-7267.2
11728	0.17931	3.6364	5.e-002	-23.9
11729	8.9655e-002	3.6364	0.	-7547.
11730	0.17931	3.3636	0.	-7292.2
11731	0.17931	3.4545	5.e-002	-23.044
11732	8.9655e-002	3.4545	0.	-7575.2
11733	0.17931	3.1818	0.	-7306.7
11734	0.17931	3.2727	5.e-002	-22.481
11735	8.9655e-002	3.2727	0.	-7593.1
11736	0.17931	3.	0.	-7311.4
11737	0.17931	3.0909	5.e-002	-22.202
11738	8.9655e-002	3.0909	0.	-7601.8
11739	0.17931	2.8182	0.	-7306.7
11740	0.17931	2.9091	5.e-002	-22.202
11741	8.9655e-002	2.9091	0.	-7601.8
11742	0.17931	2.6364	0.	-7292.2
11743	0.17931	2.7273	5.e-002	-22.481
11744	8.9655e-002	2.7273	0.	-7593.1
11745	0.17931	2.4545	0.	-7267.2
11746	0.17931	2.5455	5.e-002	-23.044
11747	8.9655e-002	2.5455	0.	-7575.2
11748	0.17931	2.2727	0.	-7230.2
11749	0.17931	2.3636	5.e-002	-23.9
11750	8.9655e-002	2.3636	0.	-7547.
11751	0.17931	2.0909	0.	-7179.1
11752	0.17931	2.1818	5.e-002	-25.067
11753	8.9655e-002	2.1818	0.	-7506.7
11754	0.17931	1.9091	0.	-7111.1
11755	0.17931	2.	5.e-002	-26.571
11756	8.9655e-002	2.	0.	-7451.8
11757	0.17931	1.7273	0.	-7022.
11758	0.17931	1.8182	5.e-002	-28.456
11759	8.9655e-002	1.8182	0.	-7378.7
11760	0.17931	1.5455	0.	-6906.2
11761	0.17931	1.6364	5.e-002	-30.788
11762	8.9655e-002	1.6364	0.	-7282.6
11763	0.17931	1.3636	0.	-6755.9
11764	0.17931	1.4545	5.e-002	-33.671
11765	8.9655e-002	1.4545	0.	-7156.6
11766	0.17931	1.1818	0.	-6560.
11767	0.17931	1.2727	5.e-002	-37.277
11768	8.9655e-002	1.2727	0.	-6991.2
11769	0.17931	1.	0.	-6302.4
11770	0.17931	1.0909	5.e-002	-41.9
11771	8.9655e-002	1.0909	0.	-6771.9
11772	0.17931	0.81818	0.	-5958.7
11773	0.17931	0.90909	5.e-002	-48.121
11774	8.9655e-002	0.90909	0.	-6476.6
11775	0.17931	0.63636	0.	-5496.4
11776	0.17931	0.72727	5.e-002	-57.079
11777	8.9655e-002	0.72727	0.	-6068.6
11778	0.17931	0.45455	0.	-4876.7
11779	0.17931	0.54545	5.e-002	-74.127
11780	8.9655e-002	0.54545	0.	-5483.3
11781	0.17931	0.27273	0.	-4203.4
11782	0.17931	0.36364	5.e-002	-108.39
11783	8.9655e-002	0.36364	0.	-4605.6
11784	0.17931	0.18182	5.e-002	-172.01
11785	0.17931	9.0909e-002	0.	-3698.9
11786	8.9655e-002	0.18182	0.	-3236.6
11787	5.6434	5.8182	0.	-1053.2
11788	5.5512	5.7273	0.	-988.98
11789	5.5512	5.8182	5.e-002	-68.371
11790	5.5512	5.9091	0.	-683.52
11791	5.4589	5.8182	0.	-593.23
11792	5.8279	5.8182	0.	-1533.2
11793	5.7356	5.7273	0.	-1388.
11794	5.7356	5.8182	5.e-002	-60.609
11795	5.7356	5.9091	0.	-1209.
11796	6.0124	5.8182	0.	-1981.1
11797	5.9201	5.7273	0.	-1836.
11798	5.9201	5.8182	5.e-002	-55.853
11799	5.9201	5.9091	0.	-1699.
11800	6.1969	5.8182	0.	-2373.4
11801	6.1046	5.7273	0.	-2246.3
11802	6.1046	5.8182	5.e-002	-50.1
11803	6.1046	5.9091	0.	-2132.5
11804	6.3814	5.8182	0.	-2706.8
11805	6.2891	5.7273	0.	-2602.2
11806	6.2891	5.8182	5.e-002	-43.73
11807	6.2891	5.9091	0.	-2505.6
11808	6.5658	5.8182	0.	-2982.5
11809	6.4736	5.7273	0.	-2899.9
11810	6.4736	5.8182	5.e-002	-37.239
11811	6.4736	5.9091	0.	-2818.1
11812	6.7503	5.8182	0.	-3204.4
11813	6.6581	5.7273	0.	-3141.7
11814	6.6581	5.8182	5.e-002	-31.02
11815	6.6581	5.9091	0.	-3073.1
11816	6.9348	5.8182	0.	-3378.3
11817	6.8426	5.7273	0.	-3332.7
11818	6.8426	5.8182	5.e-002	-25.334
11819	6.8426	5.9091	0.	-3275.9
11820	7.1193	5.8182	0.	-3510.6
11821	7.0271	5.7273	0.	-3479.2
11822	7.0271	5.8182	5.e-002	-20.315
11823	7.0271	5.9091	0.	-3432.7
11824	7.3038	5.8182	0.	-3607.4
11825	7.2116	5.7273	0.	-3587.6
11826	7.2116	5.8182	5.e-002	-16.002
11827	7.2116	5.9091	0.	-3550.
11828	7.4883	5.8182	0.	-3674.7
11829	7.396	5.7273	0.	-3664.3
11830	7.396	5.8182	5.e-002	-12.375
11831	7.396	5.9091	0.	-3634.2
11832	7.6728	5.8182	0.	-3717.6
11833	7.5805	5.7273	0.	-3714.7
11834	7.5805	5.8182	5.e-002	-9.3751
11835	7.5805	5.9091	0.	-3690.9
11836	7.8573	5.8182	0.	-3740.6
11837	7.765	5.7273	0.	-3743.8
11838	7.765	5.8182	5.e-002	-6.9309
11839	7.765	5.9091	0.	-3725.1
11840	8.0417	5.8182	0.	-3747.6
11841	7.9495	5.7273	0.	-3755.5
11842	7.9495	5.8182	5.e-002	-4.9655
11843	7.9495	5.9091	0.	-3741.
11844	8.2262	5.8182	0.	-3741.7
11845	8.134	5.7273	0.	-3753.3
11846	8.134	5.8182	5.e-002	-3.406
11847	8.134	5.9091	0.	-3742.3
11848	8.4107	5.8182	0.	-3725.5
11849	8.3185	5.7273	0.	-3740.
11850	8.3185	5.8182	5.e-002	-2.1877
11851	8.3185	5.9091	0.	-3731.8
11852	8.5952	5.8182	0.	-3701.3
11853	8.503	5.7273	0.	-3718.
11854	8.503	5.8182	5.e-002	-1.26
11855	8.503	5.9091	0.	-3712.
11856	8.7797	5.8182	0.	-3670.6
11857	8.6875	5.7273	0.	-3689.1
11858	8.6875	5.8182	5.e-002	-0.61102
11859	8.6875	5.9091	0.	-3684.8
11860	8.9642	5.8182	0.	-3635.
11861	8.8719	5.7273	0.	-3654.8
11862	8.8719	5.8182	5.e-002	-0.40396
11863	8.8719	5.9091	0.	-3651.8
11864	9.1487	5.8182	0.	-3595.4
11865	9.0564	5.7273	0.	-3616.3
11866	9.0564	5.8182	5.e-002	-0.62678
11867	9.0564	5.9091	0.	-3614.3
11868	9.3332	5.8182	0.	-3552.8
11869	9.2409	5.7273	0.	-3574.5
11870	9.2409	5.8182	5.e-002	-0.86907
11871	9.2409	5.9091	0.	-3573.3
11872	9.5177	5.8182	0.	-3507.9
11873	9.4254	5.7273	0.	-3530.2
11874	9.4254	5.8182	5.e-002	-1.0476
11875	9.4254	5.9091	0.	-3529.6
11876	9.7021	5.8182	0.	-3461.3
11877	9.6099	5.7273	0.	-3484.
11878	9.6099	5.8182	5.e-002	-1.1639
11879	9.6099	5.9091	0.	-3483.8
11880	9.8866	5.8182	0.	-3413.4
11881	9.7944	5.7273	0.	-3436.4
11882	9.7944	5.8182	5.e-002	-1.2291
11883	9.7944	5.9091	0.	-3436.4
11884	10.071	5.8182	0.	-3364.5
11885	9.9789	5.7273	0.	-3387.7
11886	9.9789	5.8182	5.e-002	-1.2543
11887	9.9789	5.9091	0.	-3387.9
11888	10.256	5.8182	0.	-3315.
11889	10.163	5.7273	0.	-3338.3
11890	10.163	5.8182	5.e-002	-1.2488
11891	10.163	5.9091	0.	-3338.6
11892	10.44	5.8182	0.	-3264.9
11893	10.348	5.7273	0.	-3288.4
11894	10.348	5.8182	5.e-002	-1.2204
11895	10.348	5.9091	0.	-3288.6
11896	10.625	5.8182	0.	-3214.5
11897	10.532	5.7273	0.	-3238.
11898	10.532	5.8182	5.e-002	-1.1753
11899	10.532	5.9091	0.	-3238.3
11900	10.809	5.8182	0.	-3164.
11901	10.717	5.7273	0.	-3187.5
11902	10.717	5.8182	5.e-002	-1.1187
11903	10.717	5.9091	0.	-3187.6
11904	10.994	5.8182	0.	-3113.4
11905	10.901	5.7273	0.	-3136.9
11906	10.901	5.8182	5.e-002	-1.0543
11907	10.901	5.9091	0.	-3136.9
11908	11.178	5.8182	0.	-3062.7
11909	11.086	5.7273	0.	-3086.2
11910	11.086	5.8182	5.e-002	-0.98524
11911	11.086	5.9091	0.	-3086.1
11912	11.363	5.8182	0.	-3012.1
11913	11.27	5.7273	0.	-3035.6
11914	11.27	5.8182	5.e-002	-0.91379
11915	11.27	5.9091	0.	-3035.3
11916	11.547	5.8182	0.	-2961.6
11917	11.455	5.7273	0.	-2985.
11918	11.455	5.8182	5.e-002	-0.84179
11919	11.455	5.9091	0.	-2984.6
11920	11.732	5.8182	0.	-2911.3
11921	11.639	5.7273	0.	-2934.6
11922	11.639	5.8182	5.e-002	-0.77052
11923	11.639	5.9091	0.	-2934.
11924	11.916	5.8182	0.	-2861.
11925	11.824	5.7273	0.	-2884.3
11926	11.824	5.8182	5.e-002	-0.70091
11927	11.824	5.9091	0.	-2883.5
11928	12.1	5.8182	0.	-2811.
11929	12.008	5.7273	0.	-2834.2
11930	12.008	5.8182	5.e-002	-0.6337
11931	12.008	5.9091	0.	-2833.2
11932	12.285	5.8182	0.	-2761.1
11933	12.193	5.7273	0.	-2784.2
11934	12.193	5.8182	5.e-002	-0.56936
11935	12.193	5.9091	0.	-2783.1
11936	12.469	5.8182	0.	-2711.5
11937	12.377	5.7273	0.	-2734.5
11938	12.377	5.8182	5.e-002	-0.5083
11939	12.377	5.9091	0.	-2733.2
11940	12.654	5.8182	0.	-2662.
11941	12.562	5.7273	0.	-2684.9
11942	12.562	5.8182	5.e-002	-0.45067
11943	12.562	5.9091	0.	-2683.5
11944	12.838	5.8182	0.	-2612.8
11945	12.746	5.7273	0.	-2635.6
11946	12.746	5.8182	5.e-002	-0.3965
11947	12.746	5.9091	0.	-2634.
11948	13.023	5.8182	0.	-2563.8
11949	12.931	5.7273	0.	-2586.5
11950	12.931	5.8182	5.e-002	-0.34583
11951	12.931	5.9091	0.	-2584.7
11952	13.207	5.8182	0.	-2515.
11953	13.115	5.7273	0.	-2537.6
11954	13.115	5.8182	5.e-002	-0.29872
11955	13.115	5.9091	0.	-2535.6
11956	13.392	5.8182	0.	-2466.4
11957	13.3	5.7273	0.	-2488.9
11958	13.3	5.8182	5.e-002	-0.25497
11959	13.3	5.9091	0.	-2486.8
11960	13.576	5.8182	0.	-2418.
11961	13.484	5.7273	0.	-2440.4
11962	13.484	5.8182	5.e-002	-0.21459
11963	13.484	5.9091	0.	-2438.2
11964	13.761	5.8182	0.	-2369.8
11965	13.669	5.7273	0.	-2392.1
11966	13.669	5.8182	5.e-002	-0.17744
11967	13.669	5.9091	0.	-2389.8
11968	13.945	5.8182	0.	-2321.9
11969	13.853	5.7273	0.	-2344.1
11970	13.853	5.8182	5.e-002	-0.14352
11971	13.853	5.9091	0.	-2341.6
11972	14.13	5.8182	0.	-2274.2
11973	14.038	5.7273	0.	-2296.2
11974	14.038	5.8182	5.e-002	-0.11286
11975	14.038	5.9091	0.	-2293.6
11976	14.314	5.8182	0.	-2226.7
11977	14.222	5.7273	0.	-2248.6
11978	14.222	5.8182	5.e-002	-8.5655e-002
11979	14.222	5.9091	0.	-2245.9
11980	14.499	5.8182	0.	-2179.4
11981	14.407	5.7273	0.	-2201.2
11982	14.407	5.8182	5.e-002	-6.249e-002
11983	14.407	5.9091	0.	-2198.4
11984	14.683	5.8182	0.	-2132.3
11985	14.591	5.7273	0.	-2154.
11986	14.591	5.8182	5.e-002	-4.5121e-002
11987	14.591	5.9091	0.	-2151.1
11988	14.868	5.8182	0.	-2085.4
11989	14.776	5.7273	0.	-2107.1
11990	14.776	5.8182	5.e-002	-3.7229e-002
11991	14.776	5.9091	0.	-2104.
11992	15.052	5.8182	0.	-2038.8
11993	14.96	5.7273	0.	-2060.3
11994	14.96	5.8182	5.e-002	-4.0777e-002
11995	14.96	5.9091	0.	-2057.1
11996	15.237	5.8182	0.	-1992.3
11997	15.145	5.7273	0.	-2013.7
11998	15.145	5.8182	5.e-002	-5.1305e-002
11999	15.145	5.9091	0.	-2010.4
12000	15.421	5.8182	0.	-1946.1
12001	15.329	5.7273	0.	-1967.4
12002	15.329	5.8182	5.e-002	-6.4044e-002
12003	15.329	5.9091	0.	-1964.
12004	15.606	5.8182	0.	-1900.1
12005	15.514	5.7273	0.	-1921.2
12006	15.514	5.8182	5.e-002	-7.6934e-002
12007	15.514	5.9091	0.	-1917.7
12008	15.79	5.8182	0.	-1854.2
12009	15.698	5.7273	0.	-1875.3
12010	15.698	5.8182	5.e-002	-8.9249e-002
12011	15.698	5.9091	0.	-1871.7
12012	15.975	5.8182	0.	-1808.6
12013	15.883	5.7273	0.	-1829.6
12014	15.883	5.8182	5.e-002	-0.10077
12015	15.883	5.9091	0.	-1825.9
12016	16.159	5.8182	0.	-1763.2
12017	16.067	5.7273	0.	-1784.
12018	16.067	5.8182	5.e-002	-0.11147
12019	16.067	5.9091	0.	-1780.2
12020	16.344	5.8182	0.	-1718.
12021	16.251	5.7273	0.	-1738.7
12022	16.251	5.8182	5.e-002	-0.12143
12023	16.251	5.9091	0.	-1734.8
12024	16.528	5.8182	0.	-1673.
12025	16.436	5.7273	0.	-1693.6
12026	16.436	5.8182	5.e-002	-0.13077
12027	16.436	5.9091	0.	-1689.6
12028	16.713	5.8182	0.	-1628.2
12029	16.62	5.7273	0.	-1648.7
12030	16.62	5.8182	5.e-002	-0.1397
12031	16.62	5.9091	0.	-1644.6
12032	16.897	5.8182	0.	-1583.6
12033	16.805	5.7273	0.	-1603.9
12034	16.805	5.8182	5.e-002	-0.14841
12035	16.805	5.9091	0.	-1599.8
12036	17.082	5.8182	0.	-1539.2
12037	16.989	5.7273	0.	-1559.4
12038	16.989	5.8182	5.e-002	-0.15711
12039	16.989	5.9091	0.	-1555.1
12040	17.266	5.8182	0.	-1495.
12041	17.174	5.7273	0.	-1515.1
12042	17.174	5.8182	5.e-002	-0.16609
12043	17.174	5.9091	0.	-1510.7
12044	17.451	5.8182	0.	-1451.
12045	17.358	5.7273	0.	-1471.
12046	17.358	5.8182	5.e-002	-0.17561
12047	17.358	5.9091	0.	-1466.5
12048	17.635	5.8182	0.	-1407.1
12049	17.543	5.7273	0.	-1427.
12050	17.543	5.8182	5.e-002	-0.18597
12051	17.543	5.9091	0.	-1422.5
12052	17.82	5.8182	0.	-1363.5
12053	17.727	5.7273	0.	-1383.3
12054	17.727	5.8182	5.e-002	-0.19749
12055	17.727	5.9091	0.	-1378.6
12056	18.004	5.8182	0.	-1320.1
12057	17.912	5.7273	0.	-1339.7
12058	17.912	5.8182	5.e-002	-0.21048
12059	17.912	5.9091	0.	-1335.
12060	18.189	5.8182	0.	-1276.8
12061	18.096	5.7273	0.	-1296.4
12062	18.096	5.8182	5.e-002	-0.22526
12063	18.096	5.9091	0.	-1291.5
12064	18.373	5.8182	0.	-1233.7
12065	18.281	5.7273	0.	-1253.2
12066	18.281	5.8182	5.e-002	-0.24213
12067	18.281	5.9091	0.	-1248.2
12068	18.558	5.8182	0.	-1190.8
12069	18.465	5.7273	0.	-1210.2
12070	18.465	5.8182	5.e-002	-0.26138
12071	18.465	5.9091	0.	-1205.1
12072	18.742	5.8182	0.	-1148.1
12073	18.65	5.7273	0.	-1167.4
12074	18.65	5.8182	5.e-002	-0.28329
12075	18.65	5.9091	0.	-1162.2
12076	18.927	5.8182	0.	-1105.6
12077	18.834	5.7273	0.	-1124.7
12078	18.834	5.8182	5.e-002	-0.30812
12079	18.834	5.9091	0.	-1119.5
12080	19.111	5.8182	0.	-1063.2
12081	19.019	5.7273	0.	-1082.3
12082	19.019	5.8182	5.e-002	-0.33611
12083	19.019	5.9091	0.	-1076.9
12084	19.296	5.8182	0.	-1021.1
12085	19.203	5.7273	0.	-1040.
12086	19.203	5.8182	5.e-002	-0.36751
12087	19.203	5.9091	0.	-1034.6
12088	19.48	5.8182	0.	-979.04
12089	19.388	5.7273	0.	-997.87
12090	19.388	5.8182	5.e-002	-0.40255
12091	19.388	5.9091	0.	-992.36
12092	19.665	5.8182	0.	-937.19
12093	19.572	5.7273	0.	-955.93
12094	19.572	5.8182	5.e-002	-0.44149
12095	19.572	5.9091	0.	-950.32
12096	19.849	5.8182	0.	-895.5
12097	19.757	5.7273	0.	-914.15
12098	19.757	5.8182	5.e-002	-0.48458
12099	19.757	5.9091	0.	-908.45
12100	20.033	5.8182	0.	-853.97
12101	19.941	5.7273	0.	-872.53
12102	19.941	5.8182	5.e-002	-0.53205
12103	19.941	5.9091	0.	-866.74
12104	20.218	5.8182	0.	-812.59
12105	20.126	5.7273	0.	-831.06
12106	20.126	5.8182	5.e-002	-0.58422
12107	20.126	5.9091	0.	-825.2
12108	20.402	5.8182	0.	-771.36
12109	20.31	5.7273	0.	-789.76
12110	20.31	5.8182	5.e-002	-0.64136
12111	20.31	5.9091	0.	-783.81
12112	20.587	5.8182	0.	-730.27
12113	20.495	5.7273	0.	-748.6
12114	20.495	5.8182	5.e-002	-0.70382
12115	20.495	5.9091	0.	-742.57
12116	20.771	5.8182	0.	-689.33
12117	20.679	5.7273	0.	-707.58
12118	20.679	5.8182	5.e-002	-0.77196
12119	20.679	5.9091	0.	-701.49
12120	20.956	5.8182	0.	-648.52
12121	20.864	5.7273	0.	-666.71
12122	20.864	5.8182	5.e-002	-0.84617
12123	20.864	5.9091	0.	-660.55
12124	21.14	5.8182	0.	-607.84
12125	21.048	5.7273	0.	-625.97
12126	21.048	5.8182	5.e-002	-0.92689
12127	21.048	5.9091	0.	-619.77
12128	21.325	5.8182	0.	-567.28
12129	21.233	5.7273	0.	-585.37
12130	21.233	5.8182	5.e-002	-1.0146
12131	21.233	5.9091	0.	-579.13
12132	21.509	5.8182	0.	-526.86
12133	21.417	5.7273	0.	-544.9
12134	21.417	5.8182	5.e-002	-1.1098
12135	21.417	5.9091	0.	-538.63
12136	21.694	5.8182	0.	-486.55
12137	21.602	5.7273	0.	-504.55
12138	21.602	5.8182	5.e-002	-1.2131
12139	21.602	5.9091	0.	-498.28
12140	21.878	5.8182	0.	-446.36
12141	21.786	5.7273	0.	-464.34
12142	21.786	5.8182	5.e-002	-1.3253
12143	21.786	5.9091	0.	-458.08
12144	22.063	5.8182	0.	-406.29
12145	21.971	5.7273	0.	-424.25
12146	21.971	5.8182	5.e-002	-1.447
12147	21.971	5.9091	0.	-418.04
12148	22.247	5.8182	0.	-366.35
12149	22.155	5.7273	0.	-384.29
12150	22.155	5.8182	5.e-002	-1.5791
12151	22.155	5.9091	0.	-378.16
12152	22.432	5.8182	0.	-326.53
12153	22.34	5.7273	0.	-344.47
12154	22.34	5.8182	5.e-002	-1.7228
12155	22.34	5.9091	0.	-338.45
12156	22.616	5.8182	0.	-286.85
12157	22.524	5.7273	0.	-304.79
12158	22.524	5.8182	5.e-002	-1.8794
12159	22.524	5.9091	0.	-298.94
12160	22.801	5.8182	0.	-247.33
12161	22.709	5.7273	0.	-265.29
12162	22.709	5.8182	5.e-002	-2.0506
12163	22.709	5.9091	0.	-259.66
12164	22.985	5.8182	0.	-208.
12165	22.893	5.7273	0.	-225.98
12166	22.893	5.8182	5.e-002	-2.2386
12167	22.893	5.9091	0.	-220.63
12168	23.17	5.8182	0.	-168.9
12169	23.078	5.7273	0.	-186.92
12170	23.078	5.8182	5.e-002	-2.4467
12171	23.078	5.9091	0.	-181.94
12172	23.354	5.8182	0.	-130.13
12173	23.262	5.7273	0.	-148.19
12174	23.262	5.8182	5.e-002	-2.6805
12175	23.262	5.9091	0.	-143.68
12176	23.539	5.8182	0.	-91.88
12177	23.447	5.7273	0.	-109.97
12178	23.447	5.8182	5.e-002	-2.9474
12179	23.447	5.9091	0.	-106.01
12180	23.723	5.8182	0.	-55.001
12181	23.631	5.7273	0.	-72.595
12182	23.631	5.8182	5.e-002	-3.2822
12183	23.631	5.9091	0.	-69.268
12184	23.816	5.7273	0.	-37.328
12185	23.816	5.8182	5.e-002	-3.9977
12186	23.908	5.8182	0.	-20.58
12187	23.816	5.9091	0.	-34.571
12188	5.6434	5.6364	0.	-1296.3
12189	5.5512	5.5455	0.	-1340.8
12190	5.5512	5.6364	5.e-002	-61.865
12191	5.4589	5.6364	0.	-913.88
12192	5.8279	5.6364	0.	-1684.4
12193	5.7356	5.5455	0.	-1623.2
12194	5.7356	5.6364	5.e-002	-52.319
12195	6.0124	5.6364	0.	-2098.2
12196	5.9201	5.5455	0.	-2013.2
12197	5.9201	5.6364	5.e-002	-47.426
12198	6.1969	5.6364	0.	-2473.1
12199	6.1046	5.5455	0.	-2391.5
12200	6.1046	5.6364	5.e-002	-41.388
12201	6.3814	5.6364	0.	-2793.8
12202	6.2891	5.5455	0.	-2725.5
12203	6.2891	5.6364	5.e-002	-35.056
12204	6.5658	5.6364	0.	-3058.2
12205	6.4736	5.5455	0.	-3005.1
12206	6.4736	5.6364	5.e-002	-28.897
12207	6.7503	5.6364	0.	-3269.3
12208	6.6581	5.5455	0.	-3230.7
12209	6.6581	5.6364	5.e-002	-23.224
12210	6.9348	5.6364	0.	-3433.1
12211	6.8426	5.5455	0.	-3407.
12212	6.8426	5.6364	5.e-002	-18.199
12213	7.1193	5.6364	0.	-3555.9
12214	7.0271	5.5455	0.	-3540.4
12215	7.0271	5.6364	5.e-002	-13.872
12216	7.3038	5.6364	0.	-3644.4
12217	7.2116	5.5455	0.	-3637.4
12218	7.2116	5.6364	5.e-002	-10.225
12219	7.4883	5.6364	0.	-3704.3
12220	7.396	5.5455	0.	-3704.2
12221	7.396	5.6364	5.e-002	-7.2029
12222	7.6728	5.6364	0.	-3740.9
12223	7.5805	5.5455	0.	-3746.3
12224	7.5805	5.6364	5.e-002	-4.7366
12225	7.8573	5.6364	0.	-3758.6
12226	7.765	5.5455	0.	-3768.4
12227	7.765	5.6364	5.e-002	-2.7677
12228	8.0417	5.6364	0.	-3761.2
12229	7.9495	5.5455	0.	-3774.4
12230	7.9495	5.6364	5.e-002	-1.3172
12231	8.2262	5.6364	0.	-3751.7
12232	8.134	5.5455	0.	-3767.5
12233	8.134	5.6364	5.e-002	-0.92223
12234	8.4107	5.6364	0.	-3732.6
12235	8.3185	5.5455	0.	-3750.5
12236	8.3185	5.6364	5.e-002	-1.6136
12237	8.5952	5.6364	0.	-3705.9
12238	8.503	5.5455	0.	-3725.4
12239	8.503	5.6364	5.e-002	-2.3525
12240	8.7797	5.6364	0.	-3673.3
12241	8.6875	5.5455	0.	-3694.
12242	8.6875	5.6364	5.e-002	-2.9658
12243	8.9642	5.6364	0.	-3636.1
12244	8.8719	5.5455	0.	-3657.8
12245	8.8719	5.6364	5.e-002	-3.4538
12246	9.1487	5.6364	0.	-3595.4
12247	9.0564	5.5455	0.	-3617.7
12248	9.0564	5.6364	5.e-002	-3.8351
12249	9.3332	5.6364	0.	-3551.9
12250	9.2409	5.5455	0.	-3574.7
12251	9.2409	5.6364	5.e-002	-4.1293
12252	9.5177	5.6364	0.	-3506.3
12253	9.4254	5.5455	0.	-3529.5
12254	9.4254	5.6364	5.e-002	-4.3533
12255	9.7021	5.6364	0.	-3459.1
12256	9.6099	5.5455	0.	-3482.7
12257	9.6099	5.6364	5.e-002	-4.5212
12258	9.8866	5.6364	0.	-3410.8
12259	9.7944	5.5455	0.	-3434.5
12260	9.7944	5.6364	5.e-002	-4.6446
12261	10.071	5.6364	0.	-3361.6
12262	9.9789	5.5455	0.	-3385.5
12263	9.9789	5.6364	5.e-002	-4.733
12264	10.256	5.6364	0.	-3311.8
12265	10.163	5.5455	0.	-3335.8
12266	10.163	5.6364	5.e-002	-4.7939
12267	10.44	5.6364	0.	-3261.6
12268	10.348	5.5455	0.	-3285.6
12269	10.348	5.6364	5.e-002	-4.8334
12270	10.625	5.6364	0.	-3211.1
12271	10.532	5.5455	0.	-3235.2
12272	10.532	5.6364	5.e-002	-4.8561
12273	10.809	5.6364	0.	-3160.5
12274	10.717	5.5455	0.	-3184.6
12275	10.717	5.6364	5.e-002	-4.8662
12276	10.994	5.6364	0.	-3109.8
12277	10.901	5.5455	0.	-3133.9
12278	10.901	5.6364	5.e-002	-4.8664
12279	11.178	5.6364	0.	-3059.2
12280	11.086	5.5455	0.	-3083.2
12281	11.086	5.6364	5.e-002	-4.8592
12282	11.363	5.6364	0.	-3008.6
12283	11.27	5.5455	0.	-3032.6
12284	11.27	5.6364	5.e-002	-4.8464
12285	11.547	5.6364	0.	-2958.1
12286	11.455	5.5455	0.	-2982.1
12287	11.455	5.6364	5.e-002	-4.8296
12288	11.732	5.6364	0.	-2907.7
12289	11.639	5.5455	0.	-2931.7
12290	11.639	5.6364	5.e-002	-4.8098
12291	11.916	5.6364	0.	-2857.5
12292	11.824	5.5455	0.	-2881.4
12293	11.824	5.6364	5.e-002	-4.7878
12294	12.1	5.6364	0.	-2807.5
12295	12.008	5.5455	0.	-2831.3
12296	12.008	5.6364	5.e-002	-4.7643
12297	12.285	5.6364	0.	-2757.7
12298	12.193	5.5455	0.	-2781.4
12299	12.193	5.6364	5.e-002	-4.7399
12300	12.469	5.6364	0.	-2708.
12301	12.377	5.5455	0.	-2731.7
12302	12.377	5.6364	5.e-002	-4.715
12303	12.654	5.6364	0.	-2658.6
12304	12.562	5.5455	0.	-2682.2
12305	12.562	5.6364	5.e-002	-4.6898
12306	12.838	5.6364	0.	-2609.4
12307	12.746	5.5455	0.	-2632.9
12308	12.746	5.6364	5.e-002	-4.6646
12309	13.023	5.6364	0.	-2560.4
12310	12.931	5.5455	0.	-2583.8
12311	12.931	5.6364	5.e-002	-4.6394
12312	13.207	5.6364	0.	-2511.6
12313	13.115	5.5455	0.	-2534.9
12314	13.115	5.6364	5.e-002	-4.6145
12315	13.392	5.6364	0.	-2463.
12316	13.3	5.5455	0.	-2486.3
12317	13.3	5.6364	5.e-002	-4.5899
12318	13.576	5.6364	0.	-2414.6
12319	13.484	5.5455	0.	-2437.8
12320	13.484	5.6364	5.e-002	-4.5656
12321	13.761	5.6364	0.	-2366.5
12322	13.669	5.5455	0.	-2389.6
12323	13.669	5.6364	5.e-002	-4.5417
12324	13.945	5.6364	0.	-2318.5
12325	13.853	5.5455	0.	-2341.6
12326	13.853	5.6364	5.e-002	-4.5182
12327	14.13	5.6364	0.	-2270.8
12328	14.038	5.5455	0.	-2293.7
12329	14.038	5.6364	5.e-002	-4.495
12330	14.314	5.6364	0.	-2223.3
12331	14.222	5.5455	0.	-2246.1
12332	14.222	5.6364	5.e-002	-4.4723
12333	14.499	5.6364	0.	-2176.
12334	14.407	5.5455	0.	-2198.7
12335	14.407	5.6364	5.e-002	-4.45
12336	14.683	5.6364	0.	-2128.9
12337	14.591	5.5455	0.	-2151.6
12338	14.591	5.6364	5.e-002	-4.4281
12339	14.868	5.6364	0.	-2082.
12340	14.776	5.5455	0.	-2104.6
12341	14.776	5.6364	5.e-002	-4.4066
12342	15.052	5.6364	0.	-2035.4
12343	14.96	5.5455	0.	-2057.8
12344	14.96	5.6364	5.e-002	-4.3854
12345	15.237	5.6364	0.	-1988.9
12346	15.145	5.5455	0.	-2011.3
12347	15.145	5.6364	5.e-002	-4.3646
12348	15.421	5.6364	0.	-1942.6
12349	15.329	5.5455	0.	-1964.9
12350	15.329	5.6364	5.e-002	-4.3442
12351	15.606	5.6364	0.	-1896.6
12352	15.514	5.5455	0.	-1918.8
12353	15.514	5.6364	5.e-002	-4.3241
12354	15.79	5.6364	0.	-1850.7
12355	15.698	5.5455	0.	-1872.8
12356	15.698	5.6364	5.e-002	-4.3043
12357	15.975	5.6364	0.	-1805.1
12358	15.883	5.5455	0.	-1827.1
12359	15.883	5.6364	5.e-002	-4.2849
12360	16.159	5.6364	0.	-1759.7
12361	16.067	5.5455	0.	-1781.5
12362	16.067	5.6364	5.e-002	-4.2658
12363	16.344	5.6364	0.	-1714.4
12364	16.251	5.5455	0.	-1736.2
12365	16.251	5.6364	5.e-002	-4.247
12366	16.528	5.6364	0.	-1669.4
12367	16.436	5.5455	0.	-1691.1
12368	16.436	5.6364	5.e-002	-4.2286
12369	16.713	5.6364	0.	-1624.6
12370	16.62	5.5455	0.	-1646.1
12371	16.62	5.6364	5.e-002	-4.2105
12372	16.897	5.6364	0.	-1579.9
12373	16.805	5.5455	0.	-1601.4
12374	16.805	5.6364	5.e-002	-4.1927
12375	17.082	5.6364	0.	-1535.5
12376	16.989	5.5455	0.	-1556.9
12377	16.989	5.6364	5.e-002	-4.1752
12378	17.266	5.6364	0.	-1491.2
12379	17.174	5.5455	0.	-1512.5
12380	17.174	5.6364	5.e-002	-4.1581
12381	17.451	5.6364	0.	-1447.2
12382	17.358	5.5455	0.	-1468.4
12383	17.358	5.6364	5.e-002	-4.1413
12384	17.635	5.6364	0.	-1403.3
12385	17.543	5.5455	0.	-1424.4
12386	17.543	5.6364	5.e-002	-4.1249
12387	17.82	5.6364	0.	-1359.7
12388	17.727	5.5455	0.	-1380.7
12389	17.727	5.6364	5.e-002	-4.1088
12390	18.004	5.6364	0.	-1316.2
12391	17.912	5.5455	0.	-1337.1
12392	17.912	5.6364	5.e-002	-4.0932
12393	18.189	5.6364	0.	-1272.9
12394	18.096	5.5455	0.	-1293.7
12395	18.096	5.6364	5.e-002	-4.0779
12396	18.373	5.6364	0.	-1229.8
12397	18.281	5.5455	0.	-1250.5
12398	18.281	5.6364	5.e-002	-4.0631
12399	18.558	5.6364	0.	-1186.9
12400	18.465	5.5455	0.	-1207.5
12401	18.465	5.6364	5.e-002	-4.0487
12402	18.742	5.6364	0.	-1144.1
12403	18.65	5.5455	0.	-1164.7
12404	18.65	5.6364	5.e-002	-4.0348
12405	18.927	5.6364	0.	-1101.6
12406	18.834	5.5455	0.	-1122.
12407	18.834	5.6364	5.e-002	-4.0215
12408	19.111	5.6364	0.	-1059.2
12409	19.019	5.5455	0.	-1079.6
12410	19.019	5.6364	5.e-002	-4.0086
12411	19.296	5.6364	0.	-1017.
12412	19.203	5.5455	0.	-1037.3
12413	19.203	5.6364	5.e-002	-3.9963
12414	19.48	5.6364	0.	-974.94
12415	19.388	5.5455	0.	-995.18
12416	19.388	5.6364	5.e-002	-3.9847
12417	19.665	5.6364	0.	-933.07
12418	19.572	5.5455	0.	-953.24
12419	19.572	5.6364	5.e-002	-3.9737
12420	19.849	5.6364	0.	-891.36
12421	19.757	5.5455	0.	-911.46
12422	19.757	5.6364	5.e-002	-3.9634
12423	20.033	5.6364	0.	-849.82
12424	19.941	5.5455	0.	-869.85
12425	19.941	5.6364	5.e-002	-3.9538
12426	20.218	5.6364	0.	-808.43
12427	20.126	5.5455	0.	-828.4
12428	20.126	5.6364	5.e-002	-3.945
12429	20.402	5.6364	0.	-767.2
12430	20.31	5.5455	0.	-787.11
12431	20.31	5.6364	5.e-002	-3.9371
12432	20.587	5.6364	0.	-726.12
12433	20.495	5.5455	0.	-745.98
12434	20.495	5.6364	5.e-002	-3.93
12435	20.771	5.6364	0.	-685.19
12436	20.679	5.5455	0.	-704.99
12437	20.679	5.6364	5.e-002	-3.9239
12438	20.956	5.6364	0.	-644.39
12439	20.864	5.5455	0.	-664.16
12440	20.864	5.6364	5.e-002	-3.9188
12441	21.14	5.6364	0.	-603.74
12442	21.048	5.5455	0.	-623.47
12443	21.048	5.6364	5.e-002	-3.9148
12444	21.325	5.6364	0.	-563.23
12445	21.233	5.5455	0.	-582.92
12446	21.233	5.6364	5.e-002	-3.9118
12447	21.509	5.6364	0.	-522.85
12448	21.417	5.5455	0.	-542.51
12449	21.417	5.6364	5.e-002	-3.9101
12450	21.694	5.6364	0.	-482.61
12451	21.602	5.5455	0.	-502.24
12452	21.602	5.6364	5.e-002	-3.9096
12453	21.878	5.6364	0.	-442.51
12454	21.786	5.5455	0.	-462.12
12455	21.786	5.6364	5.e-002	-3.9105
12456	22.063	5.6364	0.	-402.55
12457	21.971	5.5455	0.	-422.14
12458	21.971	5.6364	5.e-002	-3.9128
12459	22.247	5.6364	0.	-362.74
12460	22.155	5.5455	0.	-382.31
12461	22.155	5.6364	5.e-002	-3.9167
12462	22.432	5.6364	0.	-323.09
12463	22.34	5.5455	0.	-342.65
12464	22.34	5.6364	5.e-002	-3.9224
12465	22.616	5.6364	0.	-283.62
12466	22.524	5.5455	0.	-303.17
12467	22.524	5.6364	5.e-002	-3.93
12468	22.801	5.6364	0.	-244.37
12469	22.709	5.5455	0.	-263.9
12470	22.709	5.6364	5.e-002	-3.9402
12471	22.985	5.6364	0.	-205.39
12472	22.893	5.5455	0.	-224.89
12473	22.893	5.6364	5.e-002	-3.9538
12474	23.17	5.6364	0.	-166.77
12475	23.078	5.5455	0.	-186.21
12476	23.078	5.6364	5.e-002	-3.9725
12477	23.354	5.6364	0.	-128.67
12478	23.262	5.5455	0.	-147.98
12479	23.262	5.6364	5.e-002	-3.9999
12480	23.539	5.6364	0.	-91.39
12481	23.447	5.5455	0.	-110.38
12482	23.447	5.6364	5.e-002	-4.0465
12483	23.723	5.6364	0.	-55.538
12484	23.631	5.5455	0.	-73.699
12485	23.631	5.6364	5.e-002	-4.153
12486	23.816	5.5455	0.	-38.497
12487	23.816	5.6364	5.e-002	-4.5326
12488	23.908	5.6364	0.	-21.522
12489	5.6434	5.4545	0.	-1627.1
12490	5.5512	5.3636	0.	-1734.9
12491	5.5512	5.4545	5.e-002	-66.074
12492	5.4589	5.4545	0.	-1239.7
12493	5.8279	5.4545	0.	-1935.
12494	5.7356	5.3636	0.	-1944.1
12495	5.7356	5.4545	5.e-002	-52.893
12496	6.0124	5.4545	0.	-2298.9
12497	5.9201	5.3636	0.	-2276.1
12498	5.9201	5.4545	5.e-002	-47.57
12499	6.1969	5.4545	0.	-2639.8
12500	6.1046	5.3636	0.	-2609.5
12501	6.1046	5.4545	5.e-002	-41.079
12502	6.3814	5.4545	0.	-2934.2
12503	6.2891	5.3636	0.	-2907.5
12504	6.2891	5.4545	5.e-002	-34.317
12505	6.5658	5.4545	0.	-3176.
12506	6.4736	5.3636	0.	-3156.7
12507	6.4736	5.4545	5.e-002	-27.883
12508	6.7503	5.4545	0.	-3367.4
12509	6.6581	5.3636	0.	-3356.
12510	6.6581	5.4545	5.e-002	-22.112
12511	6.9348	5.4545	0.	-3513.7
12512	6.8426	5.3636	0.	-3509.6
12513	6.8426	5.4545	5.e-002	-17.127
12514	7.1193	5.4545	0.	-3621.5
12515	7.0271	5.3636	0.	-3623.5
12516	7.0271	5.4545	5.e-002	-12.931
12517	7.3038	5.4545	0.	-3697.
12518	7.2116	5.3636	0.	-3704.1
12519	7.2116	5.4545	5.e-002	-9.469
12520	7.4883	5.4545	0.	-3746.2
12521	7.396	5.3636	0.	-3757.2
12522	7.396	5.4545	5.e-002	-6.6703
12523	7.6728	5.4545	0.	-3773.8
12524	7.5805	5.3636	0.	-3788.
12525	7.5805	5.4545	5.e-002	-4.4771
12526	7.8573	5.4545	0.	-3784.1
12527	7.765	5.3636	0.	-3800.8
12528	7.765	5.4545	5.e-002	-2.8912
12529	8.0417	5.4545	0.	-3780.7
12530	7.9495	5.3636	0.	-3799.3
12531	7.9495	5.4545	5.e-002	-2.0479
12532	8.2262	5.4545	0.	-3766.3
12533	8.134	5.3636	0.	-3786.4
12534	8.134	5.4545	5.e-002	-2.0509
12535	8.4107	5.4545	0.	-3743.3
12536	8.3185	5.3636	0.	-3764.5
12537	8.3185	5.4545	5.e-002	-2.5156
12538	8.5952	5.4545	0.	-3713.5
12539	8.503	5.3636	0.	-3735.6
12540	8.503	5.4545	5.e-002	-3.0542
12541	8.7797	5.4545	0.	-3678.5
12542	8.6875	5.3636	0.	-3701.2
12543	8.6875	5.4545	5.e-002	-3.5361
12544	8.9642	5.4545	0.	-3639.4
12545	8.8719	5.3636	0.	-3662.6
12546	8.8719	5.4545	5.e-002	-3.9349
12547	9.1487	5.4545	0.	-3597.1
12548	9.0564	5.3636	0.	-3620.7
12549	9.0564	5.4545	5.e-002	-4.2539
12550	9.3332	5.4545	0.	-3552.4
12551	9.2409	5.3636	0.	-3576.2
12552	9.2409	5.4545	5.e-002	-4.5034
12553	9.5177	5.4545	0.	-3505.9
12554	9.4254	5.3636	0.	-3529.9
12555	9.4254	5.4545	5.e-002	-4.6952
12556	9.7021	5.4545	0.	-3458.1
12557	9.6099	5.3636	0.	-3482.2
12558	9.6099	5.4545	5.e-002	-4.8401
12559	9.8866	5.4545	0.	-3409.3
12560	9.7944	5.3636	0.	-3433.5
12561	9.7944	5.4545	5.e-002	-4.9471
12562	10.071	5.4545	0.	-3359.7
12563	9.9789	5.3636	0.	-3384.
12564	9.9789	5.4545	5.e-002	-5.0241
12565	10.256	5.4545	0.	-3309.7
12566	10.163	5.3636	0.	-3333.9
12567	10.163	5.4545	5.e-002	-5.0774
12568	10.44	5.4545	0.	-3259.3
12569	10.348	5.3636	0.	-3283.6
12570	10.348	5.4545	5.e-002	-5.1118
12571	10.625	5.4545	0.	-3208.7
12572	10.532	5.3636	0.	-3233.
12573	10.532	5.4545	5.e-002	-5.1317
12574	10.809	5.4545	0.	-3158.
12575	10.717	5.3636	0.	-3182.3
12576	10.717	5.4545	5.e-002	-5.1402
12577	10.994	5.4545	0.	-3107.3
12578	10.901	5.3636	0.	-3131.5
12579	10.901	5.4545	5.e-002	-5.1401
12580	11.178	5.4545	0.	-3056.7
12581	11.086	5.3636	0.	-3080.9
12582	11.086	5.4545	5.e-002	-5.1333
12583	11.363	5.4545	0.	-3006.1
12584	11.27	5.3636	0.	-3030.2
12585	11.27	5.4545	5.e-002	-5.1213
12586	11.547	5.4545	0.	-2955.7
12587	11.455	5.3636	0.	-2979.7
12588	11.455	5.4545	5.e-002	-5.1057
12589	11.732	5.4545	0.	-2905.4
12590	11.639	5.3636	0.	-2929.4
12591	11.639	5.4545	5.e-002	-5.0872
12592	11.916	5.4545	0.	-2855.2
12593	11.824	5.3636	0.	-2879.2
12594	11.824	5.4545	5.e-002	-5.0666
12595	12.1	5.4545	0.	-2805.3
12596	12.008	5.3636	0.	-2829.1
12597	12.008	5.4545	5.e-002	-5.0446
12598	12.285	5.4545	0.	-2755.5
12599	12.193	5.3636	0.	-2779.3
12600	12.193	5.4545	5.e-002	-5.0216
12601	12.469	5.4545	0.	-2705.9
12602	12.377	5.3636	0.	-2729.7
12603	12.377	5.4545	5.e-002	-4.9979
12604	12.654	5.4545	0.	-2656.5
12605	12.562	5.3636	0.	-2680.2
12606	12.562	5.4545	5.e-002	-4.974
12607	12.838	5.4545	0.	-2607.4
12608	12.746	5.3636	0.	-2631.
12609	12.746	5.4545	5.e-002	-4.9498
12610	13.023	5.4545	0.	-2558.4
12611	12.931	5.3636	0.	-2581.9
12612	12.931	5.4545	5.e-002	-4.9255
12613	13.207	5.4545	0.	-2509.7
12614	13.115	5.3636	0.	-2533.1
12615	13.115	5.4545	5.e-002	-4.9015
12616	13.392	5.4545	0.	-2461.1
12617	13.3	5.3636	0.	-2484.5
12618	13.3	5.4545	5.e-002	-4.8774
12619	13.576	5.4545	0.	-2412.8
12620	13.484	5.3636	0.	-2436.1
12621	13.484	5.4545	5.e-002	-4.8536
12622	13.761	5.4545	0.	-2364.7
12623	13.669	5.3636	0.	-2387.9
12624	13.669	5.4545	5.e-002	-4.83
12625	13.945	5.4545	0.	-2316.8
12626	13.853	5.3636	0.	-2339.9
12627	13.853	5.4545	5.e-002	-4.8066
12628	14.13	5.4545	0.	-2269.1
12629	14.038	5.3636	0.	-2292.1
12630	14.038	5.4545	5.e-002	-4.7836
12631	14.314	5.4545	0.	-2221.6
12632	14.222	5.3636	0.	-2244.5
12633	14.222	5.4545	5.e-002	-4.7608
12634	14.499	5.4545	0.	-2174.3
12635	14.407	5.3636	0.	-2197.2
12636	14.407	5.4545	5.e-002	-4.7383
12637	14.683	5.4545	0.	-2127.3
12638	14.591	5.3636	0.	-2150.
12639	14.591	5.4545	5.e-002	-4.7161
12640	14.868	5.4545	0.	-2080.4
12641	14.776	5.3636	0.	-2103.
12642	14.776	5.4545	5.e-002	-4.6942
12643	15.052	5.4545	0.	-2033.7
12644	14.96	5.3636	0.	-2056.3
12645	14.96	5.4545	5.e-002	-4.6725
12646	15.237	5.4545	0.	-1987.3
12647	15.145	5.3636	0.	-2009.8
12648	15.145	5.4545	5.e-002	-4.6511
12649	15.421	5.4545	0.	-1941.
12650	15.329	5.3636	0.	-1963.4
12651	15.329	5.4545	5.e-002	-4.6299
12652	15.606	5.4545	0.	-1895.
12653	15.514	5.3636	0.	-1917.3
12654	15.514	5.4545	5.e-002	-4.609
12655	15.79	5.4545	0.	-1849.2
12656	15.698	5.3636	0.	-1871.4
12657	15.698	5.4545	5.e-002	-4.5883
12658	15.975	5.4545	0.	-1803.5
12659	15.883	5.3636	0.	-1825.6
12660	15.883	5.4545	5.e-002	-4.5679
12661	16.159	5.4545	0.	-1758.1
12662	16.067	5.3636	0.	-1780.1
12663	16.067	5.4545	5.e-002	-4.5477
12664	16.344	5.4545	0.	-1712.9
12665	16.251	5.3636	0.	-1734.8
12666	16.251	5.4545	5.e-002	-4.5277
12667	16.528	5.4545	0.	-1667.8
12668	16.436	5.3636	0.	-1689.6
12669	16.436	5.4545	5.e-002	-4.5081
12670	16.713	5.4545	0.	-1623.
12671	16.62	5.3636	0.	-1644.7
12672	16.62	5.4545	5.e-002	-4.4886
12673	16.897	5.4545	0.	-1578.4
12674	16.805	5.3636	0.	-1600.
12675	16.805	5.4545	5.e-002	-4.4693
12676	17.082	5.4545	0.	-1533.9
12677	16.989	5.3636	0.	-1555.5
12678	16.989	5.4545	5.e-002	-4.4503
12679	17.266	5.4545	0.	-1489.7
12680	17.174	5.3636	0.	-1511.1
12681	17.174	5.4545	5.e-002	-4.4316
12682	17.451	5.4545	0.	-1445.7
12683	17.358	5.3636	0.	-1467.
12684	17.358	5.4545	5.e-002	-4.4131
12685	17.635	5.4545	0.	-1401.8
12686	17.543	5.3636	0.	-1423.
12687	17.543	5.4545	5.e-002	-4.3948
12688	17.82	5.4545	0.	-1358.1
12689	17.727	5.3636	0.	-1379.3
12690	17.727	5.4545	5.e-002	-4.3769
12691	18.004	5.4545	0.	-1314.7
12692	17.912	5.3636	0.	-1335.7
12693	17.912	5.4545	5.e-002	-4.3592
12694	18.189	5.4545	0.	-1271.4
12695	18.096	5.3636	0.	-1292.4
12696	18.096	5.4545	5.e-002	-4.3418
12697	18.373	5.4545	0.	-1228.3
12698	18.281	5.3636	0.	-1249.2
12699	18.281	5.4545	5.e-002	-4.3248
12700	18.558	5.4545	0.	-1185.4
12701	18.465	5.3636	0.	-1206.2
12702	18.465	5.4545	5.e-002	-4.3081
12703	18.742	5.4545	0.	-1142.7
12704	18.65	5.3636	0.	-1163.4
12705	18.65	5.4545	5.e-002	-4.2917
12706	18.927	5.4545	0.	-1100.1
12707	18.834	5.3636	0.	-1120.7
12708	18.834	5.4545	5.e-002	-4.2757
12709	19.111	5.4545	0.	-1057.7
12710	19.019	5.3636	0.	-1078.3
12711	19.019	5.4545	5.e-002	-4.2601
12712	19.296	5.4545	0.	-1015.6
12713	19.203	5.3636	0.	-1036.
12714	19.203	5.4545	5.e-002	-4.2449
12715	19.48	5.4545	0.	-973.53
12716	19.388	5.3636	0.	-993.94
12717	19.388	5.4545	5.e-002	-4.2302
12718	19.665	5.4545	0.	-931.69
12719	19.572	5.3636	0.	-952.03
12720	19.572	5.4545	5.e-002	-4.216
12721	19.849	5.4545	0.	-890.01
12722	19.757	5.3636	0.	-910.29
12723	19.757	5.4545	5.e-002	-4.2023
12724	20.033	5.4545	0.	-848.5
12725	19.941	5.3636	0.	-868.71
12726	19.941	5.4545	5.e-002	-4.1891
12727	20.218	5.4545	0.	-807.15
12728	20.126	5.3636	0.	-827.3
12729	20.126	5.4545	5.e-002	-4.1765
12730	20.402	5.4545	0.	-765.95
12731	20.31	5.3636	0.	-786.06
12732	20.31	5.4545	5.e-002	-4.1646
12733	20.587	5.4545	0.	-724.92
12734	20.495	5.3636	0.	-744.97
12735	20.495	5.4545	5.e-002	-4.1533
12736	20.771	5.4545	0.	-684.04
12737	20.679	5.3636	0.	-704.05
12738	20.679	5.4545	5.e-002	-4.1427
12739	20.956	5.4545	0.	-643.3
12740	20.864	5.3636	0.	-663.27
12741	20.864	5.4545	5.e-002	-4.1328
12742	21.14	5.4545	0.	-602.72
12743	21.048	5.3636	0.	-622.66
12744	21.048	5.4545	5.e-002	-4.1237
12745	21.325	5.4545	0.	-562.28
12746	21.233	5.3636	0.	-582.19
12747	21.233	5.4545	5.e-002	-4.1155
12748	21.509	5.4545	0.	-521.99
12749	21.417	5.3636	0.	-541.87
12750	21.417	5.4545	5.e-002	-4.1082
12751	21.694	5.4545	0.	-481.85
12752	21.602	5.3636	0.	-501.71
12753	21.602	5.4545	5.e-002	-4.1019
12754	21.878	5.4545	0.	-441.85
12755	21.786	5.3636	0.	-461.7
12756	21.786	5.4545	5.e-002	-4.0966
12757	22.063	5.4545	0.	-402.02
12758	21.971	5.3636	0.	-421.85
12759	21.971	5.4545	5.e-002	-4.0926
12760	22.247	5.4545	0.	-362.35
12761	22.155	5.3636	0.	-382.18
12762	22.155	5.4545	5.e-002	-4.0899
12763	22.432	5.4545	0.	-322.87
12764	22.34	5.3636	0.	-342.69
12765	22.34	5.4545	5.e-002	-4.0888
12766	22.616	5.4545	0.	-283.61
12767	22.524	5.3636	0.	-303.4
12768	22.524	5.4545	5.e-002	-4.0898
12769	22.801	5.4545	0.	-244.6
12770	22.709	5.3636	0.	-264.36
12771	22.709	5.4545	5.e-002	-4.0935
12772	22.985	5.4545	0.	-205.91
12773	22.893	5.3636	0.	-225.61
12774	22.893	5.4545	5.e-002	-4.1014
12775	23.17	5.4545	0.	-167.63
12776	23.078	5.3636	0.	-187.22
12777	23.078	5.4545	5.e-002	-4.1158
12778	23.354	5.4545	0.	-129.9
12779	23.262	5.3636	0.	-149.27
12780	23.262	5.4545	5.e-002	-4.1419
12781	23.539	5.4545	0.	-92.872
12782	23.447	5.3636	0.	-111.9
12783	23.447	5.4545	5.e-002	-4.1904
12784	23.723	5.4545	0.	-56.742
12785	23.631	5.3636	0.	-75.149
12786	23.631	5.4545	5.e-002	-4.2881
12787	23.816	5.3636	0.	-39.213
12788	23.816	5.4545	5.e-002	-4.588
12789	23.908	5.4545	0.	-22.05
12790	5.6434	5.2727	0.	-2009.9
12791	5.5512	5.1818	0.	-2172.7
12792	5.5512	5.2727	5.e-002	-74.402
12793	5.4589	5.2727	0.	-1580.4
12794	5.8279	5.2727	0.	-2260.
12795	5.7356	5.1818	0.	-2332.7
12796	5.7356	5.2727	5.e-002	-55.964
12797	6.0124	5.2727	0.	-2572.9
12798	5.9201	5.1818	0.	-2614.6
12799	5.9201	5.2727	5.e-002	-49.198
12800	6.1969	5.2727	0.	-2869.5
12801	6.1046	5.1818	0.	-2896.2
12802	6.1046	5.2727	5.e-002	-41.531
12803	6.3814	5.2727	0.	-3125.6
12804	6.2891	5.1818	0.	-3146.3
12805	6.2891	5.2727	5.e-002	-33.977
12806	6.5658	5.2727	0.	-3334.1
12807	6.4736	5.1818	0.	-3353.2
12808	6.4736	5.2727	5.e-002	-27.145
12809	6.7503	5.2727	0.	-3496.6
12810	6.6581	5.1818	0.	-3515.9
12811	6.6581	5.2727	5.e-002	-21.28
12812	6.9348	5.2727	0.	-3618.4
12813	6.8426	5.1818	0.	-3638.6
12814	6.8426	5.2727	5.e-002	-16.396
12815	7.1193	5.2727	0.	-3705.5
12816	7.0271	5.1818	0.	-3726.7
12817	7.0271	5.2727	5.e-002	-12.412
12818	7.3038	5.2727	0.	-3763.9
12819	7.2116	5.1818	0.	-3786.
12820	7.2116	5.2727	5.e-002	-9.2231
12821	7.4883	5.2727	0.	-3798.9
12822	7.396	5.1818	0.	-3821.7
12823	7.396	5.2727	5.e-002	-6.7387
12824	7.6728	5.2727	0.	-3815.
12825	7.5805	5.1818	0.	-3838.5
12826	7.5805	5.2727	5.e-002	-4.9047
12827	7.8573	5.2727	0.	-3816.
12828	7.765	5.1818	0.	-3839.9
12829	7.765	5.2727	5.e-002	-3.7131
12830	8.0417	5.2727	0.	-3805.
12831	7.9495	5.1818	0.	-3829.3
12832	7.9495	5.2727	5.e-002	-3.1601
12833	8.2262	5.2727	0.	-3784.7
12834	8.134	5.1818	0.	-3809.2
12835	8.134	5.2727	5.e-002	-3.1244
12836	8.4107	5.2727	0.	-3756.9
12837	8.3185	5.1818	0.	-3781.5
12838	8.3185	5.2727	5.e-002	-3.3687
12839	8.5952	5.2727	0.	-3723.3
12840	8.503	5.1818	0.	-3748.1
12841	8.503	5.2727	5.e-002	-3.7009
12842	8.7797	5.2727	0.	-3685.3
12843	8.6875	5.1818	0.	-3710.1
12844	8.6875	5.2727	5.e-002	-4.0266
12845	8.9642	5.2727	0.	-3643.9
12846	8.8719	5.1818	0.	-3668.7
12847	8.8719	5.2727	5.e-002	-4.3109
12848	9.1487	5.2727	0.	-3599.8
12849	9.0564	5.1818	0.	-3624.6
12850	9.0564	5.2727	5.e-002	-4.5452
12851	9.3332	5.2727	0.	-3553.8
12852	9.2409	5.1818	0.	-3578.5
12853	9.2409	5.2727	5.e-002	-4.7316
12854	9.5177	5.2727	0.	-3506.2
12855	9.4254	5.1818	0.	-3530.9
12856	9.4254	5.2727	5.e-002	-4.8758
12857	9.7021	5.2727	0.	-3457.6
12858	9.6099	5.1818	0.	-3482.2
12859	9.6099	5.2727	5.e-002	-4.9845
12860	9.8866	5.2727	0.	-3408.2
12861	9.7944	5.1818	0.	-3432.8
12862	9.7944	5.2727	5.e-002	-5.0639
12863	10.071	5.2727	0.	-3358.2
12864	9.9789	5.1818	0.	-3382.7
12865	9.9789	5.2727	5.e-002	-5.1197
12866	10.256	5.2727	0.	-3307.8
12867	10.163	5.1818	0.	-3332.3
12868	10.163	5.2727	5.e-002	-5.1566
12869	10.44	5.2727	0.	-3257.3
12870	10.348	5.1818	0.	-3281.7
12871	10.348	5.2727	5.e-002	-5.1785
12872	10.625	5.2727	0.	-3206.5
12873	10.532	5.1818	0.	-3230.9
12874	10.532	5.2727	5.e-002	-5.1886
12875	10.809	5.2727	0.	-3155.8
12876	10.717	5.1818	0.	-3180.1
12877	10.717	5.2727	5.e-002	-5.1896
12878	10.994	5.2727	0.	-3105.1
12879	10.901	5.1818	0.	-3129.3
12880	10.901	5.2727	5.e-002	-5.1835
12881	11.178	5.2727	0.	-3054.4
12882	11.086	5.1818	0.	-3078.6
12883	11.086	5.2727	5.e-002	-5.1722
12884	11.363	5.2727	0.	-3003.9
12885	11.27	5.1818	0.	-3028.
12886	11.27	5.2727	5.e-002	-5.1567
12887	11.547	5.2727	0.	-2953.5
12888	11.455	5.1818	0.	-2977.6
12889	11.455	5.2727	5.e-002	-5.1383
12890	11.732	5.2727	0.	-2903.2
12891	11.639	5.1818	0.	-2927.2
12892	11.639	5.2727	5.e-002	-5.1176
12893	11.916	5.2727	0.	-2853.1
12894	11.824	5.1818	0.	-2877.1
12895	11.824	5.2727	5.e-002	-5.0953
12896	12.1	5.2727	0.	-2803.2
12897	12.008	5.1818	0.	-2827.1
12898	12.008	5.2727	5.e-002	-5.0719
12899	12.285	5.2727	0.	-2753.5
12900	12.193	5.1818	0.	-2777.3
12901	12.193	5.2727	5.e-002	-5.0478
12902	12.469	5.2727	0.	-2704.
12903	12.377	5.1818	0.	-2727.7
12904	12.377	5.2727	5.e-002	-5.0233
12905	12.654	5.2727	0.	-2654.7
12906	12.562	5.1818	0.	-2678.3
12907	12.562	5.2727	5.e-002	-4.9985
12908	12.838	5.2727	0.	-2605.5
12909	12.746	5.1818	0.	-2629.2
12910	12.746	5.2727	5.e-002	-4.9737
12911	13.023	5.2727	0.	-2556.6
12912	12.931	5.1818	0.	-2580.2
12913	12.931	5.2727	5.e-002	-4.949
12914	13.207	5.2727	0.	-2507.9
12915	13.115	5.1818	0.	-2531.4
12916	13.115	5.2727	5.e-002	-4.9245
12917	13.392	5.2727	0.	-2459.4
12918	13.3	5.1818	0.	-2482.8
12919	13.3	5.2727	5.e-002	-4.9001
12920	13.576	5.2727	0.	-2411.2
12921	13.484	5.1818	0.	-2434.5
12922	13.484	5.2727	5.e-002	-4.876
12923	13.761	5.2727	0.	-2363.1
12924	13.669	5.1818	0.	-2386.3
12925	13.669	5.2727	5.e-002	-4.8521
12926	13.945	5.2727	0.	-2315.2
12927	13.853	5.1818	0.	-2338.3
12928	13.853	5.2727	5.e-002	-4.8285
12929	14.13	5.2727	0.	-2267.6
12930	14.038	5.1818	0.	-2290.6
12931	14.038	5.2727	5.e-002	-4.8052
12932	14.314	5.2727	0.	-2220.1
12933	14.222	5.1818	0.	-2243.1
12934	14.222	5.2727	5.e-002	-4.7822
12935	14.499	5.2727	0.	-2172.8
12936	14.407	5.1818	0.	-2195.7
12937	14.407	5.2727	5.e-002	-4.7596
12938	14.683	5.2727	0.	-2125.8
12939	14.591	5.1818	0.	-2148.6
12940	14.591	5.2727	5.e-002	-4.7371
12941	14.868	5.2727	0.	-2079.
12942	14.776	5.1818	0.	-2101.7
12943	14.776	5.2727	5.e-002	-4.7151
12944	15.052	5.2727	0.	-2032.3
12945	14.96	5.1818	0.	-2054.9
12946	14.96	5.2727	5.e-002	-4.6932
12947	15.237	5.2727	0.	-1985.9
12948	15.145	5.1818	0.	-2008.4
12949	15.145	5.2727	5.e-002	-4.6717
12950	15.421	5.2727	0.	-1939.7
12951	15.329	5.1818	0.	-1962.1
12952	15.329	5.2727	5.e-002	-4.6504
12953	15.606	5.2727	0.	-1893.7
12954	15.514	5.1818	0.	-1916.
12955	15.514	5.2727	5.e-002	-4.6293
12956	15.79	5.2727	0.	-1847.8
12957	15.698	5.1818	0.	-1870.1
12958	15.698	5.2727	5.e-002	-4.6085
12959	15.975	5.2727	0.	-1802.2
12960	15.883	5.1818	0.	-1824.3
12961	15.883	5.2727	5.e-002	-4.5879
12962	16.159	5.2727	0.	-1756.8
12963	16.067	5.1818	0.	-1778.8
12964	16.067	5.2727	5.e-002	-4.5676
12965	16.344	5.2727	0.	-1711.6
12966	16.251	5.1818	0.	-1733.5
12967	16.251	5.2727	5.e-002	-4.5475
12968	16.528	5.2727	0.	-1666.6
12969	16.436	5.1818	0.	-1688.4
12970	16.436	5.2727	5.e-002	-4.5277
12971	16.713	5.2727	0.	-1621.7
12972	16.62	5.1818	0.	-1643.5
12973	16.62	5.2727	5.e-002	-4.5082
12974	16.897	5.2727	0.	-1577.1
12975	16.805	5.1818	0.	-1598.8
12976	16.805	5.2727	5.e-002	-4.4888
12977	17.082	5.2727	0.	-1532.7
12978	16.989	5.1818	0.	-1554.3
12979	16.989	5.2727	5.e-002	-4.4697
12980	17.266	5.2727	0.	-1488.4
12981	17.174	5.1818	0.	-1509.9
12982	17.174	5.2727	5.e-002	-4.4508
12983	17.451	5.2727	0.	-1444.4
12984	17.358	5.1818	0.	-1465.8
12985	17.358	5.2727	5.e-002	-4.4322
12986	17.635	5.2727	0.	-1400.6
12987	17.543	5.1818	0.	-1421.9
12988	17.543	5.2727	5.e-002	-4.4139
12989	17.82	5.2727	0.	-1356.9
12990	17.727	5.1818	0.	-1378.1
12991	17.727	5.2727	5.e-002	-4.3959
12992	18.004	5.2727	0.	-1313.5
12993	17.912	5.1818	0.	-1334.6
12994	17.912	5.2727	5.e-002	-4.3781
12995	18.189	5.2727	0.	-1270.2
12996	18.096	5.1818	0.	-1291.2
12997	18.096	5.2727	5.e-002	-4.3607
12998	18.373	5.2727	0.	-1227.1
12999	18.281	5.1818	0.	-1248.1
13000	18.281	5.2727	5.e-002	-4.3436
13001	18.558	5.2727	0.	-1184.2
13002	18.465	5.1818	0.	-1205.1
13003	18.465	5.2727	5.e-002	-4.3268
13004	18.742	5.2727	0.	-1141.5
13005	18.65	5.1818	0.	-1162.3
13006	18.65	5.2727	5.e-002	-4.3103
13007	18.927	5.2727	0.	-1099.
13008	18.834	5.1818	0.	-1119.7
13009	18.834	5.2727	5.e-002	-4.2943
13010	19.111	5.2727	0.	-1056.6
13011	19.019	5.1818	0.	-1077.3
13012	19.019	5.2727	5.e-002	-4.2786
13013	19.296	5.2727	0.	-1014.5
13014	19.203	5.1818	0.	-1035.
13015	19.203	5.2727	5.e-002	-4.2634
13016	19.48	5.2727	0.	-972.49
13017	19.388	5.1818	0.	-992.97
13018	19.388	5.2727	5.e-002	-4.2487
13019	19.665	5.2727	0.	-930.68
13020	19.572	5.1818	0.	-951.1
13021	19.572	5.2727	5.e-002	-4.2344
13022	19.849	5.2727	0.	-889.04
13023	19.757	5.1818	0.	-909.39
13024	19.757	5.2727	5.e-002	-4.2207
13025	20.033	5.2727	0.	-847.57
13026	19.941	5.1818	0.	-867.87
13027	19.941	5.2727	5.e-002	-4.2075
13028	20.218	5.2727	0.	-806.27
13029	20.126	5.1818	0.	-826.51
13030	20.126	5.2727	5.e-002	-4.195
13031	20.402	5.2727	0.	-765.13
13032	20.31	5.1818	0.	-785.32
13033	20.31	5.2727	5.e-002	-4.1831
13034	20.587	5.2727	0.	-724.16
13035	20.495	5.1818	0.	-744.3
13036	20.495	5.2727	5.e-002	-4.1719
13037	20.771	5.2727	0.	-683.35
13038	20.679	5.1818	0.	-703.45
13039	20.679	5.2727	5.e-002	-4.1614
13040	20.956	5.2727	0.	-642.69
13041	20.864	5.1818	0.	-662.75
13042	20.864	5.2727	5.e-002	-4.1517
13043	21.14	5.2727	0.	-602.19
13044	21.048	5.1818	0.	-622.22
13045	21.048	5.2727	5.e-002	-4.1429
13046	21.325	5.2727	0.	-561.85
13047	21.233	5.1818	0.	-581.85
13048	21.233	5.2727	5.e-002	-4.135
13049	21.509	5.2727	0.	-521.67
13050	21.417	5.1818	0.	-541.65
13051	21.417	5.2727	5.e-002	-4.1282
13052	21.694	5.2727	0.	-481.65
13053	21.602	5.1818	0.	-501.6
13054	21.602	5.2727	5.e-002	-4.1225
13055	21.878	5.2727	0.	-441.79
13056	21.786	5.1818	0.	-461.73
13057	21.786	5.2727	5.e-002	-4.118
13058	22.063	5.2727	0.	-402.11
13059	21.971	5.1818	0.	-422.03
13060	21.971	5.2727	5.e-002	-4.115
13061	22.247	5.2727	0.	-362.61
13062	22.155	5.1818	0.	-382.51
13063	22.155	5.2727	5.e-002	-4.1138
13064	22.432	5.2727	0.	-323.32
13065	22.34	5.1818	0.	-343.2
13066	22.34	5.2727	5.e-002	-4.1146
13067	22.616	5.2727	0.	-284.27
13068	22.524	5.1818	0.	-304.11
13069	22.524	5.2727	5.e-002	-4.1181
13070	22.801	5.2727	0.	-245.49
13071	22.709	5.1818	0.	-265.27
13072	22.709	5.2727	5.e-002	-4.1254
13073	22.985	5.2727	0.	-207.04
13074	22.893	5.1818	0.	-226.73
13075	22.893	5.2727	5.e-002	-4.1379
13076	23.17	5.2727	0.	-168.98
13077	23.078	5.1818	0.	-188.52
13078	23.078	5.2727	5.e-002	-4.1585
13079	23.354	5.2727	0.	-131.38
13080	23.262	5.1818	0.	-150.7
13081	23.262	5.2727	5.e-002	-4.192
13082	23.539	5.2727	0.	-94.248
13083	23.447	5.1818	0.	-113.29
13084	23.447	5.2727	5.e-002	-4.2465
13085	23.723	5.2727	0.	-57.623
13086	23.631	5.1818	0.	-76.231
13087	23.631	5.2727	5.e-002	-4.3405
13088	23.816	5.1818	0.	-39.616
13089	23.816	5.2727	5.e-002	-4.592
13090	23.908	5.2727	0.	-22.347
13091	5.6434	5.0909	0.	-2452.4
13092	5.5512	5.	0.	-2679.8
13093	5.5512	5.0909	5.e-002	-86.855
13094	5.4589	5.0909	0.	-1956.5
13095	5.8279	5.0909	0.	-2657.2
13096	5.7356	5.	0.	-2798.5
13097	5.7356	5.0909	5.e-002	-61.357
13098	6.0124	5.0909	0.	-2919.1
13099	5.9201	5.	0.	-3031.5
13100	5.9201	5.0909	5.e-002	-51.802
13101	6.1969	5.0909	0.	-3161.9
13102	6.1046	5.	0.	-3251.8
13103	6.1046	5.0909	5.e-002	-42.102
13104	6.3814	5.0909	0.	-3367.5
13105	6.2891	5.	0.	-3440.7
13106	6.2891	5.0909	5.e-002	-33.423
13107	6.5658	5.0909	0.	-3531.3
13108	6.4736	5.	0.	-3592.5
13109	6.4736	5.0909	5.e-002	-26.184
13110	6.7503	5.0909	0.	-3655.7
13111	6.6581	5.	0.	-3708.1
13112	6.6581	5.0909	5.e-002	-20.355
13113	6.9348	5.0909	0.	-3745.6
13114	6.8426	5.	0.	-3791.7
13115	6.8426	5.0909	5.e-002	-15.734
13116	7.1193	5.0909	0.	-3806.4
13117	7.0271	5.	0.	-3847.8
13118	7.0271	5.0909	5.e-002	-12.107
13119	7.3038	5.0909	0.	-3843.4
13120	7.2116	5.	0.	-3881.3
13121	7.2116	5.0909	5.e-002	-9.3043
13122	7.4883	5.0909	0.	-3861.1
13123	7.396	5.	0.	-3896.2
13124	7.396	5.0909	5.e-002	-7.205
13125	7.6728	5.0909	0.	-3863.3
13126	7.5805	5.	0.	-3896.3
13127	7.5805	5.0909	5.e-002	-5.7256
13128	7.8573	5.0909	0.	-3853.2
13129	7.765	5.	0.	-3884.5
13130	7.765	5.0909	5.e-002	-4.7977
13131	8.0417	5.0909	0.	-3833.4
13132	7.9495	5.	0.	-3863.4
13133	7.9495	5.0909	5.e-002	-4.3315
13134	8.2262	5.0909	0.	-3806.
13135	8.134	5.	0.	-3835.
13136	8.134	5.0909	5.e-002	-4.1971
13137	8.4107	5.0909	0.	-3772.7
13138	8.3185	5.	0.	-3800.8
13139	8.3185	5.0909	5.e-002	-4.2561
13140	8.5952	5.0909	0.	-3734.8
13141	8.503	5.	0.	-3762.2
13142	8.503	5.0909	5.e-002	-4.402
13143	8.7797	5.0909	0.	-3693.4
13144	8.6875	5.	0.	-3720.2
13145	8.6875	5.0909	5.e-002	-4.5715
13146	8.9642	5.0909	0.	-3649.4
13147	8.8719	5.	0.	-3675.7
13148	8.8719	5.0909	5.e-002	-4.7326
13149	9.1487	5.0909	0.	-3603.3
13150	9.0564	5.	0.	-3629.2
13151	9.0564	5.0909	5.e-002	-4.8719
13152	9.3332	5.0909	0.	-3555.7
13153	9.2409	5.	0.	-3581.3
13154	9.2409	5.0909	5.e-002	-4.9854
13155	9.5177	5.0909	0.	-3506.9
13156	9.4254	5.	0.	-3532.3
13157	9.4254	5.0909	5.e-002	-5.0737
13158	9.7021	5.0909	0.	-3457.4
13159	9.6099	5.	0.	-3482.6
13160	9.6099	5.0909	5.e-002	-5.1393
13161	9.8866	5.0909	0.	-3407.4
13162	9.7944	5.	0.	-3432.3
13163	9.7944	5.0909	5.e-002	-5.1855
13164	10.071	5.0909	0.	-3356.9
13165	9.9789	5.	0.	-3381.7
13166	9.9789	5.0909	5.e-002	-5.2157
13167	10.256	5.0909	0.	-3306.2
13168	10.163	5.	0.	-3330.9
13169	10.163	5.0909	5.e-002	-5.2327
13170	10.44	5.0909	0.	-3255.4
13171	10.348	5.	0.	-3280.
13172	10.348	5.0909	5.e-002	-5.2391
13173	10.625	5.0909	0.	-3204.5
13174	10.532	5.	0.	-3229.1
13175	10.532	5.0909	5.e-002	-5.2372
13176	10.809	5.0909	0.	-3153.7
13177	10.717	5.	0.	-3178.1
13178	10.717	5.0909	5.e-002	-5.2289
13179	10.994	5.0909	0.	-3102.9
13180	10.901	5.	0.	-3127.3
13181	10.901	5.0909	5.e-002	-5.2155
13182	11.178	5.0909	0.	-3052.3
13183	11.086	5.	0.	-3076.6
13184	11.086	5.0909	5.e-002	-5.1983
13185	11.363	5.0909	0.	-3001.7
13186	11.27	5.	0.	-3025.9
13187	11.27	5.0909	5.e-002	-5.1784
13188	11.547	5.0909	0.	-2951.4
13189	11.455	5.	0.	-2975.5
13190	11.455	5.0909	5.e-002	-5.1564
13191	11.732	5.0909	0.	-2901.1
13192	11.639	5.	0.	-2925.2
13193	11.639	5.0909	5.e-002	-5.1329
13194	11.916	5.0909	0.	-2851.1
13195	11.824	5.	0.	-2875.1
13196	11.824	5.0909	5.e-002	-5.1084
13197	12.1	5.0909	0.	-2801.3
13198	12.008	5.	0.	-2825.2
13199	12.008	5.0909	5.e-002	-5.0831
13200	12.285	5.0909	0.	-2751.6
13201	12.193	5.	0.	-2775.5
13202	12.193	5.0909	5.e-002	-5.0576
13203	12.469	5.0909	0.	-2702.1
13204	12.377	5.	0.	-2725.9
13205	12.377	5.0909	5.e-002	-5.0319
13206	12.654	5.0909	0.	-2652.9
13207	12.562	5.	0.	-2676.6
13208	12.562	5.0909	5.e-002	-5.0062
13209	12.838	5.0909	0.	-2603.8
13210	12.746	5.	0.	-2627.5
13211	12.746	5.0909	5.e-002	-4.9807
13212	13.023	5.0909	0.	-2555.
13213	12.931	5.	0.	-2578.5
13214	12.931	5.0909	5.e-002	-4.9553
13215	13.207	5.0909	0.	-2506.3
13216	13.115	5.	0.	-2529.8
13217	13.115	5.0909	5.e-002	-4.9302
13218	13.392	5.0909	0.	-2457.9
13219	13.3	5.	0.	-2481.3
13220	13.3	5.0909	5.e-002	-4.9054
13221	13.576	5.0909	0.	-2409.6
13222	13.484	5.	0.	-2433.
13223	13.484	5.0909	5.e-002	-4.8809
13224	13.761	5.0909	0.	-2361.6
13225	13.669	5.	0.	-2384.8
13226	13.669	5.0909	5.e-002	-4.8567
13227	13.945	5.0909	0.	-2313.8
13228	13.853	5.	0.	-2336.9
13229	13.853	5.0909	5.e-002	-4.8328
13230	14.13	5.0909	0.	-2266.1
13231	14.038	5.	0.	-2289.2
13232	14.038	5.0909	5.e-002	-4.8093
13233	14.314	5.0909	0.	-2218.7
13234	14.222	5.	0.	-2241.7
13235	14.222	5.0909	5.e-002	-4.7861
13236	14.499	5.0909	0.	-2171.5
13237	14.407	5.	0.	-2194.4
13238	14.407	5.0909	5.e-002	-4.7632
13239	14.683	5.0909	0.	-2124.5
13240	14.591	5.	0.	-2147.3
13241	14.591	5.0909	5.e-002	-4.7406
13242	14.868	5.0909	0.	-2077.7
13243	14.776	5.	0.	-2100.4
13244	14.776	5.0909	5.e-002	-4.7184
13245	15.052	5.0909	0.	-2031.
13246	14.96	5.	0.	-2053.7
13247	14.96	5.0909	5.e-002	-4.6964
13248	15.237	5.0909	0.	-1984.6
13249	15.145	5.	0.	-2007.2
13250	15.145	5.0909	5.e-002	-4.6748
13251	15.421	5.0909	0.	-1938.4
13252	15.329	5.	0.	-1960.9
13253	15.329	5.0909	5.e-002	-4.6534
13254	15.606	5.0909	0.	-1892.4
13255	15.514	5.	0.	-1914.8
13256	15.514	5.0909	5.e-002	-4.6322
13257	15.79	5.0909	0.	-1846.6
13258	15.698	5.	0.	-1868.9
13259	15.698	5.0909	5.e-002	-4.6113
13260	15.975	5.0909	0.	-1801.
13261	15.883	5.	0.	-1823.2
13262	15.883	5.0909	5.e-002	-4.5907
13263	16.159	5.0909	0.	-1755.6
13264	16.067	5.	0.	-1777.7
13265	16.067	5.0909	5.e-002	-4.5703
13266	16.344	5.0909	0.	-1710.4
13267	16.251	5.	0.	-1732.4
13268	16.251	5.0909	5.e-002	-4.5502
13269	16.528	5.0909	0.	-1665.4
13270	16.436	5.	0.	-1687.3
13271	16.436	5.0909	5.e-002	-4.5304
13272	16.713	5.0909	0.	-1620.6
13273	16.62	5.	0.	-1642.4
13274	16.62	5.0909	5.e-002	-4.5108
13275	16.897	5.0909	0.	-1576.
13276	16.805	5.	0.	-1597.7
13277	16.805	5.0909	5.e-002	-4.4914
13278	17.082	5.0909	0.	-1531.5
13279	16.989	5.	0.	-1553.2
13280	16.989	5.0909	5.e-002	-4.4723
13281	17.266	5.0909	0.	-1487.3
13282	17.174	5.	0.	-1508.9
13283	17.174	5.0909	5.e-002	-4.4534
13284	17.451	5.0909	0.	-1443.3
13285	17.358	5.	0.	-1464.7
13286	17.358	5.0909	5.e-002	-4.4348
13287	17.635	5.0909	0.	-1399.5
13288	17.543	5.	0.	-1420.8
13289	17.543	5.0909	5.e-002	-4.4165
13290	17.82	5.0909	0.	-1355.8
13291	17.727	5.	0.	-1377.1
13292	17.727	5.0909	5.e-002	-4.3985
13293	18.004	5.0909	0.	-1312.4
13294	17.912	5.	0.	-1333.6
13295	17.912	5.0909	5.e-002	-4.3808
13296	18.189	5.0909	0.	-1269.1
13297	18.096	5.	0.	-1290.2
13298	18.096	5.0909	5.e-002	-4.3634
13299	18.373	5.0909	0.	-1226.1
13300	18.281	5.	0.	-1247.1
13301	18.281	5.0909	5.e-002	-4.3463
13302	18.558	5.0909	0.	-1183.2
13303	18.465	5.	0.	-1204.1
13304	18.465	5.0909	5.e-002	-4.3296
13305	18.742	5.0909	0.	-1140.5
13306	18.65	5.	0.	-1161.4
13307	18.65	5.0909	5.e-002	-4.3132
13308	18.927	5.0909	0.	-1098.
13309	18.834	5.	0.	-1118.8
13310	18.834	5.0909	5.e-002	-4.2973
13311	19.111	5.0909	0.	-1055.7
13312	19.019	5.	0.	-1076.4
13313	19.019	5.0909	5.e-002	-4.2818
13314	19.296	5.0909	0.	-1013.6
13315	19.203	5.	0.	-1034.2
13316	19.203	5.0909	5.e-002	-4.2667
13317	19.48	5.0909	0.	-971.63
13318	19.388	5.	0.	-992.18
13319	19.388	5.0909	5.e-002	-4.2521
13320	19.665	5.0909	0.	-929.86
13321	19.572	5.	0.	-950.34
13322	19.572	5.0909	5.e-002	-4.238
13323	19.849	5.0909	0.	-888.27
13324	19.757	5.	0.	-908.69
13325	19.757	5.0909	5.e-002	-4.2245
13326	20.033	5.0909	0.	-846.86
13327	19.941	5.	0.	-867.21
13328	19.941	5.0909	5.e-002	-4.2115
13329	20.218	5.0909	0.	-805.61
13330	20.126	5.	0.	-825.91
13331	20.126	5.0909	5.e-002	-4.1993
13332	20.402	5.0909	0.	-764.54
13333	20.31	5.	0.	-784.79
13334	20.31	5.0909	5.e-002	-4.1877
13335	20.587	5.0909	0.	-723.64
13336	20.495	5.	0.	-743.84
13337	20.495	5.0909	5.e-002	-4.1768
13338	20.771	5.0909	0.	-682.91
13339	20.679	5.	0.	-703.07
13340	20.679	5.0909	5.e-002	-4.1668
13341	20.956	5.0909	0.	-642.35
13342	20.864	5.	0.	-662.46
13343	20.864	5.0909	5.e-002	-4.1576
13344	21.14	5.0909	0.	-601.95
13345	21.048	5.	0.	-622.03
13346	21.048	5.0909	5.e-002	-4.1494
13347	21.325	5.0909	0.	-561.71
13348	21.233	5.	0.	-581.77
13349	21.233	5.0909	5.e-002	-4.1422
13350	21.509	5.0909	0.	-521.65
13351	21.417	5.	0.	-541.67
13352	21.417	5.0909	5.e-002	-4.1363
13353	21.694	5.0909	0.	-481.76
13354	21.602	5.	0.	-501.76
13355	21.602	5.0909	5.e-002	-4.1316
13356	21.878	5.0909	0.	-442.04
13357	21.786	5.	0.	-462.02
13358	21.786	5.0909	5.e-002	-4.1284
13359	22.063	5.0909	0.	-402.51
13360	21.971	5.	0.	-422.47
13361	21.971	5.0909	5.e-002	-4.127
13362	22.247	5.0909	0.	-363.19
13363	22.155	5.	0.	-383.11
13364	22.155	5.0909	5.e-002	-4.1276
13365	22.432	5.0909	0.	-324.07
13366	22.34	5.	0.	-343.96
13367	22.34	5.0909	5.e-002	-4.1308
13368	22.616	5.0909	0.	-285.2
13369	22.524	5.	0.	-305.03
13370	22.524	5.0909	5.e-002	-4.1374
13371	22.801	5.0909	0.	-246.6
13372	22.709	5.	0.	-266.35
13373	22.709	5.0909	5.e-002	-4.1482
13374	22.985	5.0909	0.	-208.3
13375	22.893	5.	0.	-227.94
13376	22.893	5.0909	5.e-002	-4.1652
13377	23.17	5.0909	0.	-170.32
13378	23.078	5.	0.	-189.82
13379	23.078	5.0909	5.e-002	-4.1909
13380	23.354	5.0909	0.	-132.68
13381	23.262	5.	0.	-151.99
13382	23.262	5.0909	5.e-002	-4.2292
13383	23.539	5.0909	0.	-95.311
13384	23.447	5.	0.	-114.42
13385	23.447	5.0909	5.e-002	-4.2855
13386	23.723	5.0909	0.	-58.197
13387	23.631	5.	0.	-76.992
13388	23.631	5.0909	5.e-002	-4.3719
13389	23.816	5.	0.	-39.824
13390	23.816	5.0909	5.e-002	-4.588
13391	23.908	5.0909	0.	-22.488
13392	5.6434	4.9091	0.	-2979.1
13393	5.5512	4.8182	0.	-3297.7
13394	5.5512	4.9091	5.e-002	-104.5
13395	5.4589	4.9091	0.	-2395.2
13396	5.8279	4.9091	0.	-3138.9
13397	5.7356	4.8182	0.	-3369.6
13398	5.7356	4.9091	5.e-002	-69.436
13399	6.0124	4.9091	0.	-3342.
13400	5.9201	4.8182	0.	-3538.3
13401	5.9201	4.9091	5.e-002	-55.109
13402	6.1969	4.9091	0.	-3517.2
13403	6.1046	4.8182	0.	-3678.2
13404	6.1046	4.9091	5.e-002	-42.422
13405	6.3814	4.9091	0.	-3657.8
13406	6.2891	4.8182	0.	-3788.1
13407	6.2891	4.9091	5.e-002	-32.505
13408	6.5658	4.9091	0.	-3764.8
13409	6.4736	4.8182	0.	-3870.4
13410	6.4736	4.9091	5.e-002	-25.09
13411	6.7503	4.9091	0.	-3841.5
13412	6.6581	4.8182	0.	-3928.4
13413	6.6581	4.9091	5.e-002	-19.556
13414	6.9348	4.9091	0.	-3892.4
13415	6.8426	4.8182	0.	-3965.1
13416	6.8426	4.9091	5.e-002	-15.387
13417	7.1193	4.9091	0.	-3921.8
13418	7.0271	4.8182	0.	-3983.8
13419	7.0271	4.9091	5.e-002	-12.226
13420	7.3038	4.9091	0.	-3933.6
13421	7.2116	4.8182	0.	-3987.3
13422	7.2116	4.9091	5.e-002	-9.8416
13423	7.4883	4.9091	0.	-3931.2
13424	7.396	4.8182	0.	-3978.6
13425	7.396	4.9091	5.e-002	-8.0823
13426	7.6728	4.9091	0.	-3917.4
13427	7.5805	4.8182	0.	-3959.9
13428	7.5805	4.9091	5.e-002	-6.8379
13429	7.8573	4.9091	0.	-3894.7
13430	7.765	4.8182	0.	-3933.4
13431	7.765	4.9091	5.e-002	-6.0139
13432	8.0417	4.9091	0.	-3864.9
13433	7.9495	4.8182	0.	-3900.6
13434	7.9495	4.9091	5.e-002	-5.5171
13435	8.2262	4.9091	0.	-3829.7
13436	8.134	4.8182	0.	-3863.
13437	8.134	4.9091	5.e-002	-5.2546
13438	8.4107	4.9091	0.	-3790.3
13439	8.3185	4.8182	0.	-3821.7
13440	8.3185	4.9091	5.e-002	-5.144
13441	8.5952	4.9091	0.	-3747.6
13442	8.503	4.8182	0.	-3777.5
13443	8.503	4.9091	5.e-002	-5.1212
13444	8.7797	4.9091	0.	-3702.5
13445	8.6875	4.8182	0.	-3731.2
13446	8.6875	4.9091	5.e-002	-5.1429
13447	8.9642	4.9091	0.	-3655.6
13448	8.8719	4.8182	0.	-3683.4
13449	8.8719	4.9091	5.e-002	-5.1822
13450	9.1487	4.9091	0.	-3607.3
13451	9.0564	4.8182	0.	-3634.3
13452	9.0564	4.9091	5.e-002	-5.2242
13453	9.3332	4.9091	0.	-3558.
13454	9.2409	4.8182	0.	-3584.5
13455	9.2409	4.9091	5.e-002	-5.2611
13456	9.5177	4.9091	0.	-3508.
13457	9.4254	4.8182	0.	-3534.
13458	9.4254	4.9091	5.e-002	-5.2895
13459	9.7021	4.9091	0.	-3457.5
13460	9.6099	4.8182	0.	-3483.2
13461	9.6099	4.9091	5.e-002	-5.3085
13462	9.8866	4.9091	0.	-3406.8
13463	9.7944	4.8182	0.	-3432.1
13464	9.7944	4.9091	5.e-002	-5.3184
13465	10.071	4.9091	0.	-3355.8
13466	9.9789	4.8182	0.	-3380.9
13467	9.9789	4.9091	5.e-002	-5.3203
13468	10.256	4.9091	0.	-3304.8
13469	10.163	4.8182	0.	-3329.7
13470	10.163	4.9091	5.e-002	-5.3154
13471	10.44	4.9091	0.	-3253.7
13472	10.348	4.8182	0.	-3278.5
13473	10.348	4.9091	5.e-002	-5.3046
13474	10.625	4.9091	0.	-3202.7
13475	10.532	4.8182	0.	-3227.3
13476	10.532	4.9091	5.e-002	-5.2894
13477	10.809	4.9091	0.	-3151.7
13478	10.717	4.8182	0.	-3176.3
13479	10.717	4.9091	5.e-002	-5.2706
13480	10.994	4.9091	0.	-3100.9
13481	10.901	4.8182	0.	-3125.4
13482	10.901	4.9091	5.e-002	-5.249
13483	11.178	4.9091	0.	-3050.2
13484	11.086	4.8182	0.	-3074.6
13485	11.086	4.9091	5.e-002	-5.2255
13486	11.363	4.9091	0.	-2999.7
13487	11.27	4.8182	0.	-3024.
13488	11.27	4.9091	5.e-002	-5.2005
13489	11.547	4.9091	0.	-2949.4
13490	11.455	4.8182	0.	-2973.6
13491	11.455	4.9091	5.e-002	-5.1745
13492	11.732	4.9091	0.	-2899.2
13493	11.639	4.8182	0.	-2923.3
13494	11.639	4.9091	5.e-002	-5.1479
13495	11.916	4.9091	0.	-2849.2
13496	11.824	4.8182	0.	-2873.3
13497	11.824	4.9091	5.e-002	-5.1208
13498	12.1	4.9091	0.	-2799.4
13499	12.008	4.8182	0.	-2823.4
13500	12.008	4.9091	5.e-002	-5.0937
13501	12.285	4.9091	0.	-2749.8
13502	12.193	4.8182	0.	-2773.7
13503	12.193	4.9091	5.e-002	-5.0665
13504	12.469	4.9091	0.	-2700.4
13505	12.377	4.8182	0.	-2724.2
13506	12.377	4.9091	5.e-002	-5.0396
13507	12.654	4.9091	0.	-2651.2
13508	12.562	4.8182	0.	-2675.
13509	12.562	4.9091	5.e-002	-5.0129
13510	12.838	4.9091	0.	-2602.2
13511	12.746	4.8182	0.	-2625.9
13512	12.746	4.9091	5.e-002	-4.9864
13513	13.023	4.9091	0.	-2553.4
13514	12.931	4.8182	0.	-2577.
13515	12.931	4.9091	5.e-002	-4.9604
13516	13.207	4.9091	0.	-2504.8
13517	13.115	4.8182	0.	-2528.3
13518	13.115	4.9091	5.e-002	-4.9348
13519	13.392	4.9091	0.	-2456.4
13520	13.3	4.8182	0.	-2479.9
13521	13.3	4.9091	5.e-002	-4.9094
13522	13.576	4.9091	0.	-2408.2
13523	13.484	4.8182	0.	-2431.6
13524	13.484	4.9091	5.e-002	-4.8845
13525	13.761	4.9091	0.	-2360.2
13526	13.669	4.8182	0.	-2383.5
13527	13.669	4.9091	5.e-002	-4.86
13528	13.945	4.9091	0.	-2312.4
13529	13.853	4.8182	0.	-2335.6
13530	13.853	4.9091	5.e-002	-4.8358
13531	14.13	4.9091	0.	-2264.8
13532	14.038	4.8182	0.	-2287.9
13533	14.038	4.9091	5.e-002	-4.812
13534	14.314	4.9091	0.	-2217.4
13535	14.222	4.8182	0.	-2240.5
13536	14.222	4.9091	5.e-002	-4.7886
13537	14.499	4.9091	0.	-2170.2
13538	14.407	4.8182	0.	-2193.2
13539	14.407	4.9091	5.e-002	-4.7656
13540	14.683	4.9091	0.	-2123.2
13541	14.591	4.8182	0.	-2146.1
13542	14.591	4.9091	5.e-002	-4.7428
13543	14.868	4.9091	0.	-2076.4
13544	14.776	4.8182	0.	-2099.2
13545	14.776	4.9091	5.e-002	-4.7205
13546	15.052	4.9091	0.	-2029.9
13547	14.96	4.8182	0.	-2052.5
13548	14.96	4.9091	5.e-002	-4.6984
13549	15.237	4.9091	0.	-1983.5
13550	15.145	4.8182	0.	-2006.1
13551	15.145	4.9091	5.e-002	-4.6766
13552	15.421	4.9091	0.	-1937.3
13553	15.329	4.8182	0.	-1959.8
13554	15.329	4.9091	5.e-002	-4.6551
13555	15.606	4.9091	0.	-1891.3
13556	15.514	4.8182	0.	-1913.7
13557	15.514	4.9091	5.e-002	-4.6339
13558	15.79	4.9091	0.	-1845.5
13559	15.698	4.8182	0.	-1867.8
13560	15.698	4.9091	5.e-002	-4.6129
13561	15.975	4.9091	0.	-1799.9
13562	15.883	4.8182	0.	-1822.1
13563	15.883	4.9091	5.e-002	-4.5922
13564	16.159	4.9091	0.	-1754.5
13565	16.067	4.8182	0.	-1776.6
13566	16.067	4.9091	5.e-002	-4.5718
13567	16.344	4.9091	0.	-1709.3
13568	16.251	4.8182	0.	-1731.4
13569	16.251	4.9091	5.e-002	-4.5516
13570	16.528	4.9091	0.	-1664.3
13571	16.436	4.8182	0.	-1686.3
13572	16.436	4.9091	5.e-002	-4.5318
13573	16.713	4.9091	0.	-1619.5
13574	16.62	4.8182	0.	-1641.4
13575	16.62	4.9091	5.e-002	-4.5121
13576	16.897	4.9091	0.	-1574.9
13577	16.805	4.8182	0.	-1596.7
13578	16.805	4.9091	5.e-002	-4.4928
13579	17.082	4.9091	0.	-1530.5
13580	16.989	4.8182	0.	-1552.2
13581	16.989	4.9091	5.e-002	-4.4736
13582	17.266	4.9091	0.	-1486.3
13583	17.174	4.8182	0.	-1507.9
13584	17.174	4.9091	5.e-002	-4.4548
13585	17.451	4.9091	0.	-1442.3
13586	17.358	4.8182	0.	-1463.8
13587	17.358	4.9091	5.e-002	-4.4362
13588	17.635	4.9091	0.	-1398.5
13589	17.543	4.8182	0.	-1419.9
13590	17.543	4.9091	5.e-002	-4.4179
13591	17.82	4.9091	0.	-1354.9
13592	17.727	4.8182	0.	-1376.2
13593	17.727	4.9091	5.e-002	-4.3999
13594	18.004	4.9091	0.	-1311.4
13595	17.912	4.8182	0.	-1332.7
13596	17.912	4.9091	5.e-002	-4.3822
13597	18.189	4.9091	0.	-1268.2
13598	18.096	4.8182	0.	-1289.4
13599	18.096	4.9091	5.e-002	-4.3649
13600	18.373	4.9091	0.	-1225.2
13601	18.281	4.8182	0.	-1246.2
13602	18.281	4.9091	5.e-002	-4.3479
13603	18.558	4.9091	0.	-1182.3
13604	18.465	4.8182	0.	-1203.3
13605	18.465	4.9091	5.e-002	-4.3313
13606	18.742	4.9091	0.	-1139.7
13607	18.65	4.8182	0.	-1160.6
13608	18.65	4.9091	5.e-002	-4.315
13609	18.927	4.9091	0.	-1097.2
13610	18.834	4.8182	0.	-1118.
13611	18.834	4.9091	5.e-002	-4.2991
13612	19.111	4.9091	0.	-1054.9
13613	19.019	4.8182	0.	-1075.7
13614	19.019	4.9091	5.e-002	-4.2837
13615	19.296	4.9091	0.	-1012.8
13616	19.203	4.8182	0.	-1033.5
13617	19.203	4.9091	5.e-002	-4.2687
13618	19.48	4.9091	0.	-970.93
13619	19.388	4.8182	0.	-991.53
13620	19.388	4.9091	5.e-002	-4.2543
13621	19.665	4.9091	0.	-929.21
13622	19.572	4.8182	0.	-949.74
13623	19.572	4.9091	5.e-002	-4.2404
13624	19.849	4.9091	0.	-887.67
13625	19.757	4.8182	0.	-908.13
13626	19.757	4.9091	5.e-002	-4.2271
13627	20.033	4.9091	0.	-846.32
13628	19.941	4.8182	0.	-866.72
13629	19.941	4.9091	5.e-002	-4.2144
13630	20.218	4.9091	0.	-805.14
13631	20.126	4.8182	0.	-825.48
13632	20.126	4.9091	5.e-002	-4.2024
13633	20.402	4.9091	0.	-764.14
13634	20.31	4.8182	0.	-784.43
13635	20.31	4.9091	5.e-002	-4.1911
13636	20.587	4.9091	0.	-723.32
13637	20.495	4.8182	0.	-743.56
13638	20.495	4.9091	5.e-002	-4.1806
13639	20.771	4.9091	0.	-682.67
13640	20.679	4.8182	0.	-702.86
13641	20.679	4.9091	5.e-002	-4.171
13642	20.956	4.9091	0.	-642.2
13643	20.864	4.8182	0.	-662.35
13644	20.864	4.9091	5.e-002	-4.1624
13645	21.14	4.9091	0.	-601.91
13646	21.048	4.8182	0.	-622.02
13647	21.048	4.9091	5.e-002	-4.1548
13648	21.325	4.9091	0.	-561.79
13649	21.233	4.8182	0.	-581.86
13650	21.233	4.9091	5.e-002	-4.1484
13651	21.509	4.9091	0.	-521.84
13652	21.417	4.8182	0.	-541.88
13653	21.417	4.9091	5.e-002	-4.1433
13654	21.694	4.9091	0.	-482.08
13655	21.602	4.8182	0.	-502.09
13656	21.602	4.9091	5.e-002	-4.1397
13657	21.878	4.9091	0.	-442.51
13658	21.786	4.8182	0.	-462.48
13659	21.786	4.9091	5.e-002	-4.1378
13660	22.063	4.9091	0.	-403.12
13661	21.971	4.8182	0.	-423.06
13662	21.971	4.9091	5.e-002	-4.1379
13663	22.247	4.9091	0.	-363.94
13664	22.155	4.8182	0.	-383.84
13665	22.155	4.9091	5.e-002	-4.1404
13666	22.432	4.9091	0.	-324.98
13667	22.34	4.8182	0.	-344.83
13668	22.34	4.9091	5.e-002	-4.1459
13669	22.616	4.9091	0.	-286.25
13670	22.524	4.8182	0.	-306.03
13671	22.524	4.9091	5.e-002	-4.1551
13672	22.801	4.9091	0.	-247.76
13673	22.709	4.8182	0.	-267.46
13674	22.709	4.9091	5.e-002	-4.1691
13675	22.985	4.9091	0.	-209.52
13676	22.893	4.8182	0.	-229.11
13677	22.893	4.9091	5.e-002	-4.1896
13678	23.17	4.9091	0.	-171.53
13679	23.078	4.8182	0.	-190.99
13680	23.078	4.9091	5.e-002	-4.2186
13681	23.354	4.9091	0.	-133.76
13682	23.262	4.8182	0.	-153.07
13683	23.262	4.9091	5.e-002	-4.2593
13684	23.539	4.9091	0.	-96.113
13685	23.447	4.8182	0.	-115.29
13686	23.447	4.9091	5.e-002	-4.315
13687	23.723	4.9091	0.	-58.576
13688	23.631	4.8182	0.	-77.532
13689	23.631	4.9091	5.e-002	-4.3937
13690	23.816	4.8182	0.	-39.924
13691	23.816	4.9091	5.e-002	-4.5794
13692	23.908	4.9091	0.	-22.551
13693	5.6434	4.7273	0.	-3632.8
13694	5.5512	4.6364	0.	-4107.6
13695	5.5512	4.7273	5.e-002	-131.58
13696	5.4589	4.7273	0.	-2937.6
13697	5.8279	4.7273	0.	-3731.2
13698	5.7356	4.6364	0.	-4091.
13699	5.7356	4.7273	5.e-002	-79.58
13700	6.0124	4.7273	0.	-3850.5
13701	5.9201	4.6364	0.	-4152.8
13702	5.9201	4.7273	5.e-002	-58.397
13703	6.1969	4.7273	0.	-3934.6
13704	6.1046	4.6364	0.	-4175.3
13705	6.1046	4.7273	5.e-002	-42.019
13706	6.3814	4.7273	0.	-3992.1
13707	6.2891	4.6364	0.	-4182.4
13708	6.2891	4.7273	5.e-002	-31.455
13709	6.5658	4.7273	0.	-4029.2
13710	6.4736	4.6364	0.	-4180.1
13711	6.4736	4.7273	5.e-002	-24.347
13712	6.7503	4.7273	0.	-4049.2
13713	6.6581	4.6364	0.	-4170.4
13714	6.6581	4.7273	5.e-002	-19.381
13715	6.9348	4.7273	0.	-4054.9
13716	6.8426	4.6364	0.	-4153.8
13717	6.8426	4.7273	5.e-002	-15.738
13718	7.1193	4.7273	0.	-4048.4
13719	7.0271	4.6364	0.	-4130.4
13720	7.0271	4.7273	5.e-002	-12.99
13721	7.3038	4.7273	0.	-4031.9
13722	7.2116	4.6364	0.	-4101.1
13723	7.2116	4.7273	5.e-002	-10.9
13724	7.4883	4.7273	0.	-4007.1
13725	7.396	4.6364	0.	-4066.4
13726	7.396	4.7273	5.e-002	-9.3178
13727	7.6728	4.7273	0.	-3975.8
13728	7.5805	4.6364	0.	-4027.4
13729	7.5805	4.7273	5.e-002	-8.1412
13730	7.8573	4.7273	0.	-3939.2
13731	7.765	4.6364	0.	-3985.
13732	7.765	4.7273	5.e-002	-7.2881
13733	8.0417	4.7273	0.	-3898.7
13734	7.9495	4.6364	0.	-3939.7
13735	7.9495	4.7273	5.e-002	-6.6876
13736	8.2262	4.7273	0.	-3855.
13737	8.134	4.6364	0.	-3892.4
13738	8.134	4.7273	5.e-002	-6.2777
13739	8.4107	4.7273	0.	-3809.
13740	8.3185	4.6364	0.	-3843.6
13741	8.3185	4.7273	5.e-002	-6.0053
13742	8.5952	4.7273	0.	-3761.2
13743	8.503	4.6364	0.	-3793.6
13744	8.503	4.7273	5.e-002	-5.8275
13745	8.7797	4.7273	0.	-3712.1
13746	8.6875	4.6364	0.	-3742.8
13747	8.6875	4.7273	5.e-002	-5.712
13748	8.9642	4.7273	0.	-3662.2
13749	8.8719	4.6364	0.	-3691.4
13750	8.8719	4.7273	5.e-002	-5.6359
13751	9.1487	4.7273	0.	-3611.6
13752	9.0564	4.6364	0.	-3639.7
13753	9.0564	4.7273	5.e-002	-5.5835
13754	9.3332	4.7273	0.	-3560.6
13755	9.2409	4.6364	0.	-3587.9
13756	9.2409	4.7273	5.e-002	-5.5446
13757	9.5177	4.7273	0.	-3509.3
13758	9.4254	4.6364	0.	-3535.9
13759	9.4254	4.7273	5.e-002	-5.5128
13760	9.7021	4.7273	0.	-3457.8
13761	9.6099	4.6364	0.	-3484.
13762	9.6099	4.7273	5.e-002	-5.4843
13763	9.8866	4.7273	0.	-3406.3
13764	9.7944	4.6364	0.	-3432.1
13765	9.7944	4.7273	5.e-002	-5.457
13766	10.071	4.7273	0.	-3354.8
13767	9.9789	4.6364	0.	-3380.3
13768	9.9789	4.7273	5.e-002	-5.4297
13769	10.256	4.7273	0.	-3303.4
13770	10.163	4.6364	0.	-3328.6
13771	10.163	4.7273	5.e-002	-5.4018
13772	10.44	4.7273	0.	-3252.1
13773	10.348	4.6364	0.	-3277.1
13774	10.348	4.7273	5.e-002	-5.3731
13775	10.625	4.7273	0.	-3200.9
13776	10.532	4.6364	0.	-3225.7
13777	10.532	4.7273	5.e-002	-5.3438
13778	10.809	4.7273	0.	-3149.9
13779	10.717	4.6364	0.	-3174.5
13780	10.717	4.7273	5.e-002	-5.314
13781	10.994	4.7273	0.	-3099.
13782	10.901	4.6364	0.	-3123.6
13783	10.901	4.7273	5.e-002	-5.2839
13784	11.178	4.7273	0.	-3048.4
13785	11.086	4.6364	0.	-3072.8
13786	11.086	4.7273	5.e-002	-5.2535
13787	11.363	4.7273	0.	-2997.8
13788	11.27	4.6364	0.	-3022.2
13789	11.27	4.7273	5.e-002	-5.2232
13790	11.547	4.7273	0.	-2947.5
13791	11.455	4.6364	0.	-2971.8
13792	11.455	4.7273	5.e-002	-5.193
13793	11.732	4.7273	0.	-2897.4
13794	11.639	4.6364	0.	-2921.5
13795	11.639	4.7273	5.e-002	-5.163
13796	11.916	4.7273	0.	-2847.5
13797	11.824	4.6364	0.	-2871.5
13798	11.824	4.7273	5.e-002	-5.1334
13799	12.1	4.7273	0.	-2797.7
13800	12.008	4.6364	0.	-2821.7
13801	12.008	4.7273	5.e-002	-5.1042
13802	12.285	4.7273	0.	-2748.2
13803	12.193	4.6364	0.	-2772.1
13804	12.193	4.7273	5.e-002	-5.0753
13805	12.469	4.7273	0.	-2698.8
13806	12.377	4.6364	0.	-2722.7
13807	12.377	4.7273	5.e-002	-5.047
13808	12.654	4.7273	0.	-2649.7
13809	12.562	4.6364	0.	-2673.5
13810	12.562	4.7273	5.e-002	-5.0193
13811	12.838	4.7273	0.	-2600.7
13812	12.746	4.6364	0.	-2624.4
13813	12.746	4.7273	5.e-002	-4.992
13814	13.023	4.7273	0.	-2552.
13815	12.931	4.6364	0.	-2575.6
13816	12.931	4.7273	5.e-002	-4.9652
13817	13.207	4.7273	0.	-2503.4
13818	13.115	4.6364	0.	-2527.
13819	13.115	4.7273	5.e-002	-4.939
13820	13.392	4.7273	0.	-2455.1
13821	13.3	4.6364	0.	-2478.5
13822	13.3	4.7273	5.e-002	-4.9132
13823	13.576	4.7273	0.	-2406.9
13824	13.484	4.6364	0.	-2430.3
13825	13.484	4.7273	5.e-002	-4.8879
13826	13.761	4.7273	0.	-2358.9
13827	13.669	4.6364	0.	-2382.3
13828	13.669	4.7273	5.e-002	-4.863
13829	13.945	4.7273	0.	-2311.2
13830	13.853	4.6364	0.	-2334.4
13831	13.853	4.7273	5.e-002	-4.8385
13832	14.13	4.7273	0.	-2263.6
13833	14.038	4.6364	0.	-2286.8
13834	14.038	4.7273	5.e-002	-4.8145
13835	14.314	4.7273	0.	-2216.3
13836	14.222	4.6364	0.	-2239.3
13837	14.222	4.7273	5.e-002	-4.7909
13838	14.499	4.7273	0.	-2169.1
13839	14.407	4.6364	0.	-2192.1
13840	14.407	4.7273	5.e-002	-4.7677
13841	14.683	4.7273	0.	-2122.1
13842	14.591	4.6364	0.	-2145.
13843	14.591	4.7273	5.e-002	-4.7448
13844	14.868	4.7273	0.	-2075.4
13845	14.776	4.6364	0.	-2098.2
13846	14.776	4.7273	5.e-002	-4.7223
13847	15.052	4.7273	0.	-2028.8
13848	14.96	4.6364	0.	-2051.5
13849	14.96	4.7273	5.e-002	-4.7001
13850	15.237	4.7273	0.	-1982.4
13851	15.145	4.6364	0.	-2005.1
13852	15.145	4.7273	5.e-002	-4.6782
13853	15.421	4.7273	0.	-1936.2
13854	15.329	4.6364	0.	-1958.8
13855	15.329	4.7273	5.e-002	-4.6566
13856	15.606	4.7273	0.	-1890.3
13857	15.514	4.6364	0.	-1912.7
13858	15.514	4.7273	5.e-002	-4.6353
13859	15.79	4.7273	0.	-1844.5
13860	15.698	4.6364	0.	-1866.9
13861	15.698	4.7273	5.e-002	-4.6143
13862	15.975	4.7273	0.	-1798.9
13863	15.883	4.6364	0.	-1821.2
13864	15.883	4.7273	5.e-002	-4.5935
13865	16.159	4.7273	0.	-1753.5
13866	16.067	4.6364	0.	-1775.7
13867	16.067	4.7273	5.e-002	-4.5731
13868	16.344	4.7273	0.	-1708.4
13869	16.251	4.6364	0.	-1730.4
13870	16.251	4.7273	5.e-002	-4.5529
13871	16.528	4.7273	0.	-1663.4
13872	16.436	4.6364	0.	-1685.4
13873	16.436	4.7273	5.e-002	-4.533
13874	16.713	4.7273	0.	-1618.6
13875	16.62	4.6364	0.	-1640.5
13876	16.62	4.7273	5.e-002	-4.5133
13877	16.897	4.7273	0.	-1574.
13878	16.805	4.6364	0.	-1595.8
13879	16.805	4.7273	5.e-002	-4.4939
13880	17.082	4.7273	0.	-1529.6
13881	16.989	4.6364	0.	-1551.3
13882	16.989	4.7273	5.e-002	-4.4748
13883	17.266	4.7273	0.	-1485.4
13884	17.174	4.6364	0.	-1507.1
13885	17.174	4.7273	5.e-002	-4.456
13886	17.451	4.7273	0.	-1441.4
13887	17.358	4.6364	0.	-1463.
13888	17.358	4.7273	5.e-002	-4.4374
13889	17.635	4.7273	0.	-1397.6
13890	17.543	4.6364	0.	-1419.1
13891	17.543	4.7273	5.e-002	-4.4191
13892	17.82	4.7273	0.	-1354.
13893	17.727	4.6364	0.	-1375.4
13894	17.727	4.7273	5.e-002	-4.4012
13895	18.004	4.7273	0.	-1310.6
13896	17.912	4.6364	0.	-1331.9
13897	17.912	4.7273	5.e-002	-4.3835
13898	18.189	4.7273	0.	-1267.4
13899	18.096	4.6364	0.	-1288.6
13900	18.096	4.7273	5.e-002	-4.3662
13901	18.373	4.7273	0.	-1224.4
13902	18.281	4.6364	0.	-1245.5
13903	18.281	4.7273	5.e-002	-4.3493
13904	18.558	4.7273	0.	-1181.6
13905	18.465	4.6364	0.	-1202.6
13906	18.465	4.7273	5.e-002	-4.3327
13907	18.742	4.7273	0.	-1139.
13908	18.65	4.6364	0.	-1159.9
13909	18.65	4.7273	5.e-002	-4.3165
13910	18.927	4.7273	0.	-1096.5
13911	18.834	4.6364	0.	-1117.4
13912	18.834	4.7273	5.e-002	-4.3007
13913	19.111	4.7273	0.	-1054.3
13914	19.019	4.6364	0.	-1075.1
13915	19.019	4.7273	5.e-002	-4.2854
13916	19.296	4.7273	0.	-1012.2
13917	19.203	4.6364	0.	-1032.9
13918	19.203	4.7273	5.e-002	-4.2706
13919	19.48	4.7273	0.	-970.37
13920	19.388	4.6364	0.	-991.
13921	19.388	4.7273	5.e-002	-4.2563
13922	19.665	4.7273	0.	-928.7
13923	19.572	4.6364	0.	-949.26
13924	19.572	4.7273	5.e-002	-4.2425
13925	19.849	4.7273	0.	-887.22
13926	19.757	4.6364	0.	-907.71
13927	19.757	4.7273	5.e-002	-4.2294
13928	20.033	4.7273	0.	-845.92
13929	19.941	4.6364	0.	-866.35
13930	19.941	4.7273	5.e-002	-4.217
13931	20.218	4.7273	0.	-804.81
13932	20.126	4.6364	0.	-825.18
13933	20.126	4.7273	5.e-002	-4.2052
13934	20.402	4.7273	0.	-763.89
13935	20.31	4.6364	0.	-784.2
13936	20.31	4.7273	5.e-002	-4.1943
13937	20.587	4.7273	0.	-723.15
13938	20.495	4.6364	0.	-743.4
13939	20.495	4.7273	5.e-002	-4.1841
13940	20.771	4.7273	0.	-682.59
13941	20.679	4.6364	0.	-702.79
13942	20.679	4.7273	5.e-002	-4.175
13943	20.956	4.7273	0.	-642.21
13944	20.864	4.6364	0.	-662.37
13945	20.864	4.7273	5.e-002	-4.1668
13946	21.14	4.7273	0.	-602.02
13947	21.048	4.6364	0.	-622.13
13948	21.048	4.7273	5.e-002	-4.1599
13949	21.325	4.7273	0.	-562.01
13950	21.233	4.6364	0.	-582.08
13951	21.233	4.7273	5.e-002	-4.1542
13952	21.509	4.7273	0.	-522.18
13953	21.417	4.6364	0.	-542.21
13954	21.417	4.7273	5.e-002	-4.1499
13955	21.694	4.7273	0.	-482.54
13956	21.602	4.6364	0.	-502.53
13957	21.602	4.7273	5.e-002	-4.1474
13958	21.878	4.7273	0.	-443.09
13959	21.786	4.6364	0.	-463.04
13960	21.786	4.7273	5.e-002	-4.1467
13961	22.063	4.7273	0.	-403.84
13962	21.971	4.6364	0.	-423.74
13963	21.971	4.7273	5.e-002	-4.1483
13964	22.247	4.7273	0.	-364.78
13965	22.155	4.6364	0.	-384.64
13966	22.155	4.7273	5.e-002	-4.1525
13967	22.432	4.7273	0.	-325.93
13968	22.34	4.6364	0.	-345.73
13969	22.34	4.7273	5.e-002	-4.16
13970	22.616	4.7273	0.	-287.29
13971	22.524	4.6364	0.	-307.02
13972	22.524	4.7273	5.e-002	-4.1715
13973	22.801	4.7273	0.	-248.86
13974	22.709	4.6364	0.	-268.5
13975	22.709	4.7273	5.e-002	-4.1881
13976	22.985	4.7273	0.	-210.62
13977	22.893	4.6364	0.	-230.17
13978	22.893	4.7273	5.e-002	-4.2111
13979	23.17	4.7273	0.	-172.56
13980	23.078	4.6364	0.	-192.
13981	23.078	4.7273	5.e-002	-4.2423
13982	23.354	4.7273	0.	-134.62
13983	23.262	4.6364	0.	-153.96
13984	23.262	4.7273	5.e-002	-4.2837
13985	23.539	4.7273	0.	-96.715
13986	23.447	4.6364	0.	-115.96
13987	23.447	4.7273	5.e-002	-4.3375
13988	23.723	4.7273	0.	-58.827
13989	23.631	4.6364	0.	-77.918
13990	23.631	4.7273	5.e-002	-4.4093
13991	23.816	4.6364	0.	-39.961
13992	23.816	4.7273	5.e-002	-4.5689
13993	23.908	4.7273	0.	-22.568
13994	5.6434	4.5455	0.	-4496.1
13995	5.5512	4.4545	0.	-5252.
13996	5.5512	4.5455	5.e-002	-166.25
13997	5.4589	4.5455	0.	-3669.3
13998	5.8279	4.5455	0.	-4471.8
13999	5.7356	4.4545	0.	-5031.9
14000	5.7356	4.5455	5.e-002	-98.873
14001	6.0124	4.5455	0.	-4454.2
14002	5.9201	4.4545	0.	-4883.8
14003	5.9201	4.5455	5.e-002	-59.094
14004	6.1969	4.5455	0.	-4409.2
14005	6.1046	4.4545	0.	-4735.6
14006	6.1046	4.5455	5.e-002	-41.632
14007	6.3814	4.5455	0.	-4362.1
14008	6.2891	4.4545	0.	-4612.3
14009	6.2891	4.5455	5.e-002	-31.248
14010	6.5658	4.5455	0.	-4316.6
14011	6.4736	4.4545	0.	-4511.2
14012	6.4736	4.5455	5.e-002	-24.904
14013	6.7503	4.5455	0.	-4272.3
14014	6.6581	4.4545	0.	-4426.1
14015	6.6581	4.5455	5.e-002	-20.411
14016	6.9348	4.5455	0.	-4227.8
14017	6.8426	4.4545	0.	-4351.4
14018	6.8426	4.5455	5.e-002	-17.056
14019	7.1193	4.5455	0.	-4182.2
14020	7.0271	4.4545	0.	-4283.1
14021	7.0271	4.5455	5.e-002	-14.454
14022	7.3038	4.5455	0.	-4135.1
14023	7.2116	4.4545	0.	-4218.8
14024	7.2116	4.5455	5.e-002	-12.41
14025	7.4883	4.5455	0.	-4086.5
14026	7.396	4.4545	0.	-4156.9
14027	7.396	4.5455	5.e-002	-10.802
14028	7.6728	4.5455	0.	-4036.5
14029	7.5805	4.4545	0.	-4096.7
14030	7.5805	4.5455	5.e-002	-9.5432
14031	7.8573	4.5455	0.	-3985.4
14032	7.765	4.4545	0.	-4037.7
14033	7.765	4.5455	5.e-002	-8.5661
14034	8.0417	4.5455	0.	-3933.5
14035	7.9495	4.4545	0.	-3979.6
14036	7.9495	4.5455	5.e-002	-7.8164
14037	8.2262	4.5455	0.	-3881.
14038	8.134	4.4545	0.	-3922.3
14039	8.134	4.5455	5.e-002	-7.2474
14040	8.4107	4.5455	0.	-3828.2
14041	8.3185	4.4545	0.	-3865.7
14042	8.3185	4.5455	5.e-002	-6.8192
14043	8.5952	4.5455	0.	-3775.1
14044	8.503	4.4545	0.	-3809.7
14045	8.503	4.5455	5.e-002	-6.4981
14046	8.7797	4.5455	0.	-3722.1
14047	8.6875	4.4545	0.	-3754.4
14048	8.6875	4.5455	5.e-002	-6.257
14049	8.9642	4.5455	0.	-3669.
14050	8.8719	4.4545	0.	-3699.5
14051	8.8719	4.5455	5.e-002	-6.0743
14052	9.1487	4.5455	0.	-3616.1
14053	9.0564	4.4545	0.	-3645.2
14054	9.0564	4.5455	5.e-002	-5.9336
14055	9.3332	4.5455	0.	-3563.3
14056	9.2409	4.4545	0.	-3591.3
14057	9.2409	4.5455	5.e-002	-5.8229
14058	9.5177	4.5455	0.	-3510.6
14059	9.4254	4.4545	0.	-3537.9
14060	9.4254	4.5455	5.e-002	-5.7334
14061	9.7021	4.5455	0.	-3458.2
14062	9.6099	4.4545	0.	-3484.8
14063	9.6099	4.5455	5.e-002	-5.659
14064	9.8866	4.5455	0.	-3406.
14065	9.7944	4.4545	0.	-3432.1
14066	9.7944	4.5455	5.e-002	-5.5951
14067	10.071	4.5455	0.	-3354.
14068	9.9789	4.4545	0.	-3379.7
14069	9.9789	4.5455	5.e-002	-5.539
14070	10.256	4.5455	0.	-3302.2
14071	10.163	4.4545	0.	-3327.6
14072	10.163	4.5455	5.e-002	-5.4884
14073	10.44	4.5455	0.	-3250.7
14074	10.348	4.4545	0.	-3275.8
14075	10.348	4.5455	5.e-002	-5.4418
14076	10.625	4.5455	0.	-3199.3
14077	10.532	4.4545	0.	-3224.2
14078	10.532	4.5455	5.e-002	-5.3985
14079	10.809	4.5455	0.	-3148.2
14080	10.717	4.4545	0.	-3172.9
14081	10.717	4.5455	5.e-002	-5.3576
14082	10.994	4.5455	0.	-3097.3
14083	10.901	4.4545	0.	-3121.9
14084	10.901	4.5455	5.e-002	-5.3187
14085	11.178	4.5455	0.	-3046.6
14086	11.086	4.4545	0.	-3071.1
14087	11.086	4.5455	5.e-002	-5.2815
14088	11.363	4.5455	0.	-2996.1
14089	11.27	4.4545	0.	-3020.5
14090	11.27	4.5455	5.e-002	-5.2458
14091	11.547	4.5455	0.	-2945.8
14092	11.455	4.4545	0.	-2970.1
14093	11.455	4.5455	5.e-002	-5.2114
14094	11.732	4.5455	0.	-2895.7
14095	11.639	4.4545	0.	-2919.9
14096	11.639	4.5455	5.e-002	-5.1781
14097	11.916	4.5455	0.	-2845.8
14098	11.824	4.4545	0.	-2870.
14099	11.824	4.5455	5.e-002	-5.1458
14100	12.1	4.5455	0.	-2796.1
14101	12.008	4.4545	0.	-2820.2
14102	12.008	4.5455	5.e-002	-5.1144
14103	12.285	4.5455	0.	-2746.6
14104	12.193	4.4545	0.	-2770.6
14105	12.193	4.5455	5.e-002	-5.0839
14106	12.469	4.5455	0.	-2697.3
14107	12.377	4.4545	0.	-2721.3
14108	12.377	4.5455	5.e-002	-5.0543
14109	12.654	4.5455	0.	-2648.3
14110	12.562	4.4545	0.	-2672.1
14111	12.562	4.5455	5.e-002	-5.0254
14112	12.838	4.5455	0.	-2599.3
14113	12.746	4.4545	0.	-2623.1
14114	12.746	4.5455	5.e-002	-4.9973
14115	13.023	4.5455	0.	-2550.6
14116	12.931	4.4545	0.	-2574.3
14117	12.931	4.5455	5.e-002	-4.9698
14118	13.207	4.5455	0.	-2502.1
14119	13.115	4.4545	0.	-2525.7
14120	13.115	4.5455	5.e-002	-4.943
14121	13.392	4.5455	0.	-2453.8
14122	13.3	4.4545	0.	-2477.4
14123	13.3	4.5455	5.e-002	-4.9167
14124	13.576	4.5455	0.	-2405.7
14125	13.484	4.4545	0.	-2429.2
14126	13.484	4.5455	5.e-002	-4.891
14127	13.761	4.5455	0.	-2357.8
14128	13.669	4.4545	0.	-2381.2
14129	13.669	4.5455	5.e-002	-4.8658
14130	13.945	4.5455	0.	-2310.1
14131	13.853	4.4545	0.	-2333.3
14132	13.853	4.5455	5.e-002	-4.8411
14133	14.13	4.5455	0.	-2262.5
14134	14.038	4.4545	0.	-2285.7
14135	14.038	4.5455	5.e-002	-4.8168
14136	14.314	4.5455	0.	-2215.2
14137	14.222	4.4545	0.	-2238.3
14138	14.222	4.5455	5.e-002	-4.793
14139	14.499	4.5455	0.	-2168.
14140	14.407	4.4545	0.	-2191.1
14141	14.407	4.5455	5.e-002	-4.7696
14142	14.683	4.5455	0.	-2121.1
14143	14.591	4.4545	0.	-2144.1
14144	14.591	4.5455	5.e-002	-4.7466
14145	14.868	4.5455	0.	-2074.4
14146	14.776	4.4545	0.	-2097.2
14147	14.776	4.5455	5.e-002	-4.724
14148	15.052	4.5455	0.	-2027.8
14149	14.96	4.4545	0.	-2050.6
14150	14.96	4.5455	5.e-002	-4.7017
14151	15.237	4.5455	0.	-1981.5
14152	15.145	4.4545	0.	-2004.1
14153	15.145	4.5455	5.e-002	-4.6797
14154	15.421	4.5455	0.	-1935.3
14155	15.329	4.4545	0.	-1957.9
14156	15.329	4.5455	5.e-002	-4.658
14157	15.606	4.5455	0.	-1889.3
14158	15.514	4.4545	0.	-1911.9
14159	15.514	4.5455	5.e-002	-4.6366
14160	15.79	4.5455	0.	-1843.6
14161	15.698	4.4545	0.	-1866.
14162	15.698	4.5455	5.e-002	-4.6155
14163	15.975	4.5455	0.	-1798.
14164	15.883	4.4545	0.	-1820.3
14165	15.883	4.5455	5.e-002	-4.5947
14166	16.159	4.5455	0.	-1752.7
14167	16.067	4.4545	0.	-1774.9
14168	16.067	4.5455	5.e-002	-4.5742
14169	16.344	4.5455	0.	-1707.5
14170	16.251	4.4545	0.	-1729.6
14171	16.251	4.5455	5.e-002	-4.554
14172	16.528	4.5455	0.	-1662.5
14173	16.436	4.4545	0.	-1684.6
14174	16.436	4.5455	5.e-002	-4.5341
14175	16.713	4.5455	0.	-1617.8
14176	16.62	4.4545	0.	-1639.7
14177	16.62	4.5455	5.e-002	-4.5144
14178	16.897	4.5455	0.	-1573.2
14179	16.805	4.4545	0.	-1595.
14180	16.805	4.5455	5.e-002	-4.495
14181	17.082	4.5455	0.	-1528.8
14182	16.989	4.4545	0.	-1550.6
14183	16.989	4.5455	5.e-002	-4.4759
14184	17.266	4.5455	0.	-1484.6
14185	17.174	4.4545	0.	-1506.3
14186	17.174	4.5455	5.e-002	-4.457
14187	17.451	4.5455	0.	-1440.7
14188	17.358	4.4545	0.	-1462.2
14189	17.358	4.5455	5.e-002	-4.4385
14190	17.635	4.5455	0.	-1396.9
14191	17.543	4.4545	0.	-1418.4
14192	17.543	4.5455	5.e-002	-4.4202
14193	17.82	4.5455	0.	-1353.3
14194	17.727	4.4545	0.	-1374.7
14195	17.727	4.5455	5.e-002	-4.4023
14196	18.004	4.5455	0.	-1309.9
14197	17.912	4.4545	0.	-1331.2
14198	17.912	4.5455	5.e-002	-4.3846
14199	18.189	4.5455	0.	-1266.7
14200	18.096	4.4545	0.	-1288.
14201	18.096	4.5455	5.e-002	-4.3674
14202	18.373	4.5455	0.	-1223.7
14203	18.281	4.4545	0.	-1244.9
14204	18.281	4.5455	5.e-002	-4.3505
14205	18.558	4.5455	0.	-1180.9
14206	18.465	4.4545	0.	-1202.
14207	18.465	4.5455	5.e-002	-4.334
14208	18.742	4.5455	0.	-1138.4
14209	18.65	4.4545	0.	-1159.3
14210	18.65	4.5455	5.e-002	-4.3179
14211	18.927	4.5455	0.	-1096.
14212	18.834	4.4545	0.	-1116.8
14213	18.834	4.5455	5.e-002	-4.3022
14214	19.111	4.5455	0.	-1053.8
14215	19.019	4.4545	0.	-1074.6
14216	19.019	4.5455	5.e-002	-4.2869
14217	19.296	4.5455	0.	-1011.7
14218	19.203	4.4545	0.	-1032.5
14219	19.203	4.5455	5.e-002	-4.2722
14220	19.48	4.5455	0.	-969.93
14221	19.388	4.4545	0.	-990.58
14222	19.388	4.5455	5.e-002	-4.258
14223	19.665	4.5455	0.	-928.31
14224	19.572	4.4545	0.	-948.89
14225	19.572	4.5455	5.e-002	-4.2445
14226	19.849	4.5455	0.	-886.88
14227	19.757	4.4545	0.	-907.39
14228	19.757	4.5455	5.e-002	-4.2315
14229	20.033	4.5455	0.	-845.65
14230	19.941	4.4545	0.	-866.09
14231	19.941	4.5455	5.e-002	-4.2193
14232	20.218	4.5455	0.	-804.61
14233	20.126	4.4545	0.	-824.98
14234	20.126	4.5455	5.e-002	-4.2078
14235	20.402	4.5455	0.	-763.75
14236	20.31	4.4545	0.	-784.07
14237	20.31	4.5455	5.e-002	-4.1971
14238	20.587	4.5455	0.	-723.09
14239	20.495	4.4545	0.	-743.35
14240	20.495	4.5455	5.e-002	-4.1874
14241	20.771	4.5455	0.	-682.62
14242	20.679	4.4545	0.	-702.82
14243	20.679	4.5455	5.e-002	-4.1786
14244	20.956	4.5455	0.	-642.33
14245	20.864	4.4545	0.	-662.48
14246	20.864	4.5455	5.e-002	-4.1709
14247	21.14	4.5455	0.	-602.24
14248	21.048	4.4545	0.	-622.33
14249	21.048	4.5455	5.e-002	-4.1646
14250	21.325	4.5455	0.	-562.33
14251	21.233	4.4545	0.	-582.38
14252	21.233	4.5455	5.e-002	-4.1596
14253	21.509	4.5455	0.	-522.61
14254	21.417	4.4545	0.	-542.61
14255	21.417	4.5455	5.e-002	-4.1562
14256	21.694	4.5455	0.	-483.08
14257	21.602	4.4545	0.	-503.03
14258	21.602	4.5455	5.e-002	-4.1546
14259	21.878	4.5455	0.	-443.74
14260	21.786	4.4545	0.	-463.64
14261	21.786	4.5455	5.e-002	-4.1551
14262	22.063	4.5455	0.	-404.59
14263	21.971	4.4545	0.	-424.44
14264	21.971	4.5455	5.e-002	-4.158
14265	22.247	4.5455	0.	-365.63
14266	22.155	4.4545	0.	-385.43
14267	22.155	4.5455	5.e-002	-4.1638
14268	22.432	4.5455	0.	-326.86
14269	22.34	4.4545	0.	-346.6
14270	22.34	4.5455	5.e-002	-4.173
14271	22.616	4.5455	0.	-288.27
14272	22.524	4.4545	0.	-307.94
14273	22.524	4.5455	5.e-002	-4.1865
14274	22.801	4.5455	0.	-249.85
14275	22.709	4.4545	0.	-269.45
14276	22.709	4.5455	5.e-002	-4.205
14277	22.985	4.5455	0.	-211.58
14278	22.893	4.4545	0.	-231.1
14279	22.893	4.5455	5.e-002	-4.2298
14280	23.17	4.5455	0.	-173.42
14281	23.078	4.4545	0.	-192.86
14282	23.078	4.5455	5.e-002	-4.2621
14283	23.354	4.5455	0.	-135.31
14284	23.262	4.4545	0.	-154.67
14285	23.262	4.5455	5.e-002	-4.3035
14286	23.539	4.5455	0.	-97.169
14287	23.447	4.4545	0.	-116.49
14288	23.447	4.5455	5.e-002	-4.355
14289	23.723	4.5455	0.	-58.992
14290	23.631	4.4545	0.	-78.197
14291	23.631	4.5455	5.e-002	-4.4207
14292	23.816	4.4545	0.	-39.961
14293	23.816	4.5455	5.e-002	-4.5577
14294	23.908	4.5455	0.	-22.56
14295	5.6434	4.3636	0.	-5686.3
14296	5.5512	4.2727	0.	-7242.1
14297	5.5512	4.3636	5.e-002	-253.02
14298	5.4589	4.3636	0.	-4717.4
14299	5.8279	4.3636	0.	-5408.1
14300	5.7356	4.2727	0.	-6250.
14301	5.7356	4.3636	5.e-002	-99.502
14302	6.0124	4.3636	0.	-5145.7
14303	5.9201	4.2727	0.	-5712.9
14304	5.9201	4.3636	5.e-002	-61.353
14305	6.1969	4.3636	0.	-4927.2
14306	6.1046	4.2727	0.	-5336.6
14307	6.1046	4.3636	5.e-002	-43.852
14308	6.3814	4.3636	0.	-4754.4
14309	6.2891	4.2727	0.	-5060.4
14310	6.2891	4.3636	5.e-002	-33.745
14311	6.5658	4.3636	0.	-4616.6
14312	6.4736	4.2727	0.	-4851.2
14313	6.4736	4.3636	5.e-002	-27.48
14314	6.7503	4.3636	0.	-4502.8
14315	6.6581	4.2727	0.	-4686.3
14316	6.6581	4.3636	5.e-002	-22.826
14317	6.9348	4.3636	0.	-4405.3
14318	6.8426	4.2727	0.	-4551.2
14319	6.8426	4.3636	5.e-002	-19.261
14320	7.1193	4.3636	0.	-4318.9
14321	7.0271	4.2727	0.	-4436.7
14322	7.0271	4.3636	5.e-002	-16.454
14323	7.3038	4.3636	0.	-4240.1
14324	7.2116	4.2727	0.	-4336.7
14325	7.2116	4.3636	5.e-002	-14.213
14326	7.4883	4.3636	0.	-4166.9
14327	7.396	4.2727	0.	-4247.2
14328	7.396	4.3636	5.e-002	-12.412
14329	7.6728	4.3636	0.	-4097.7
14330	7.5805	4.2727	0.	-4165.5
14331	7.5805	4.3636	5.e-002	-10.964
14332	7.8573	4.3636	0.	-4031.8
14333	7.765	4.2727	0.	-4089.8
14334	7.765	4.3636	5.e-002	-9.8033
14335	8.0417	4.3636	0.	-3968.4
14336	7.9495	4.2727	0.	-4018.9
14337	7.9495	4.3636	5.e-002	-8.8786
14338	8.2262	4.3636	0.	-3907.
14339	8.134	4.2727	0.	-3951.6
14340	8.134	4.3636	5.e-002	-8.1463
14341	8.4107	4.3636	0.	-3847.3
14342	8.3185	4.2727	0.	-3887.4
14343	8.3185	4.3636	5.e-002	-7.5694
14344	8.5952	4.3636	0.	-3789.
14345	8.503	4.2727	0.	-3825.6
14346	8.503	4.3636	5.e-002	-7.1167
14347	8.7797	4.3636	0.	-3731.9
14348	8.6875	4.2727	0.	-3765.7
14349	8.6875	4.3636	5.e-002	-6.7617
14350	8.9642	4.3636	0.	-3675.8
14351	8.8719	4.2727	0.	-3707.4
14352	8.8719	4.3636	5.e-002	-6.4827
14353	9.1487	4.3636	0.	-3620.5
14354	9.0564	4.2727	0.	-3650.5
14355	9.0564	4.3636	5.e-002	-6.2619
14356	9.3332	4.3636	0.	-3566.
14357	9.2409	4.2727	0.	-3594.7
14358	9.2409	4.3636	5.e-002	-6.0855
14359	9.5177	4.3636	0.	-3512.
14360	9.4254	4.2727	0.	-3539.8
14361	9.4254	4.3636	5.e-002	-5.9428
14362	9.7021	4.3636	0.	-3458.7
14363	9.6099	4.2727	0.	-3485.6
14364	9.6099	4.3636	5.e-002	-5.8255
14365	9.8866	4.3636	0.	-3405.8
14366	9.7944	4.2727	0.	-3432.1
14367	9.7944	4.3636	5.e-002	-5.7275
14368	10.071	4.3636	0.	-3353.3
14369	9.9789	4.2727	0.	-3379.2
14370	9.9789	4.3636	5.e-002	-5.6441
14371	10.256	4.3636	0.	-3301.1
14372	10.163	4.2727	0.	-3326.7
14373	10.163	4.3636	5.e-002	-5.5719
14374	10.44	4.3636	0.	-3249.3
14375	10.348	4.2727	0.	-3274.6
14376	10.348	4.3636	5.e-002	-5.5083
14377	10.625	4.3636	0.	-3197.9
14378	10.532	4.2727	0.	-3222.9
14379	10.532	4.3636	5.e-002	-5.4514
14380	10.809	4.3636	0.	-3146.6
14381	10.717	4.2727	0.	-3171.5
14382	10.717	4.3636	5.e-002	-5.3998
14383	10.994	4.3636	0.	-3095.7
14384	10.901	4.2727	0.	-3120.4
14385	10.901	4.3636	5.e-002	-5.3525
14386	11.178	4.3636	0.	-3045.
14387	11.086	4.2727	0.	-3069.5
14388	11.086	4.3636	5.e-002	-5.3087
14389	11.363	4.3636	0.	-2994.5
14390	11.27	4.2727	0.	-3018.9
14391	11.27	4.3636	5.e-002	-5.2677
14392	11.547	4.3636	0.	-2944.2
14393	11.455	4.2727	0.	-2968.6
14394	11.455	4.3636	5.e-002	-5.2291
14395	11.732	4.3636	0.	-2894.2
14396	11.639	4.2727	0.	-2918.4
14397	11.639	4.3636	5.e-002	-5.1925
14398	11.916	4.3636	0.	-2844.3
14399	11.824	4.2727	0.	-2868.5
14400	11.824	4.3636	5.e-002	-5.1576
14401	12.1	4.3636	0.	-2794.7
14402	12.008	4.2727	0.	-2818.8
14403	12.008	4.3636	5.e-002	-5.1242
14404	12.285	4.3636	0.	-2745.3
14405	12.193	4.2727	0.	-2769.3
14406	12.193	4.3636	5.e-002	-5.092
14407	12.469	4.3636	0.	-2696.
14408	12.377	4.2727	0.	-2720.
14409	12.377	4.3636	5.e-002	-5.0611
14410	12.654	4.3636	0.	-2647.
14411	12.562	4.2727	0.	-2670.8
14412	12.562	4.3636	5.e-002	-5.0312
14413	12.838	4.3636	0.	-2598.1
14414	12.746	4.2727	0.	-2621.9
14415	12.746	4.3636	5.e-002	-5.0022
14416	13.023	4.3636	0.	-2549.5
14417	12.931	4.2727	0.	-2573.2
14418	12.931	4.3636	5.e-002	-4.974
14419	13.207	4.3636	0.	-2501.
14420	13.115	4.2727	0.	-2524.6
14421	13.115	4.3636	5.e-002	-4.9467
14422	13.392	4.3636	0.	-2452.7
14423	13.3	4.2727	0.	-2476.3
14424	13.3	4.3636	5.e-002	-4.92
14425	13.576	4.3636	0.	-2404.6
14426	13.484	4.2727	0.	-2428.1
14427	13.484	4.3636	5.e-002	-4.8939
14428	13.761	4.3636	0.	-2356.7
14429	13.669	4.2727	0.	-2380.2
14430	13.669	4.3636	5.e-002	-4.8684
14431	13.945	4.3636	0.	-2309.
14432	13.853	4.2727	0.	-2332.4
14433	13.853	4.3636	5.e-002	-4.8434
14434	14.13	4.3636	0.	-2261.5
14435	14.038	4.2727	0.	-2284.8
14436	14.038	4.3636	5.e-002	-4.8189
14437	14.314	4.3636	0.	-2214.2
14438	14.222	4.2727	0.	-2237.4
14439	14.222	4.3636	5.e-002	-4.7949
14440	14.499	4.3636	0.	-2167.1
14441	14.407	4.2727	0.	-2190.2
14442	14.407	4.3636	5.e-002	-4.7714
14443	14.683	4.3636	0.	-2120.2
14444	14.591	4.2727	0.	-2143.2
14445	14.591	4.3636	5.e-002	-4.7482
14446	14.868	4.3636	0.	-2073.5
14447	14.776	4.2727	0.	-2096.4
14448	14.776	4.3636	5.e-002	-4.7255
14449	15.052	4.3636	0.	-2026.9
14450	14.96	4.2727	0.	-2049.8
14451	14.96	4.3636	5.e-002	-4.7031
14452	15.237	4.3636	0.	-1980.6
14453	15.145	4.2727	0.	-2003.3
14454	15.145	4.3636	5.e-002	-4.681
14455	15.421	4.3636	0.	-1934.5
14456	15.329	4.2727	0.	-1957.1
14457	15.329	4.3636	5.e-002	-4.6592
14458	15.606	4.3636	0.	-1888.5
14459	15.514	4.2727	0.	-1911.1
14460	15.514	4.3636	5.e-002	-4.6378
14461	15.79	4.3636	0.	-1842.8
14462	15.698	4.2727	0.	-1865.3
14463	15.698	4.3636	5.e-002	-4.6167
14464	15.975	4.3636	0.	-1797.2
14465	15.883	4.2727	0.	-1819.6
14466	15.883	4.3636	5.e-002	-4.5958
14467	16.159	4.3636	0.	-1751.9
14468	16.067	4.2727	0.	-1774.2
14469	16.067	4.3636	5.e-002	-4.5753
14470	16.344	4.3636	0.	-1706.7
14471	16.251	4.2727	0.	-1728.9
14472	16.251	4.3636	5.e-002	-4.555
14473	16.528	4.3636	0.	-1661.8
14474	16.436	4.2727	0.	-1683.9
14475	16.436	4.3636	5.e-002	-4.5351
14476	16.713	4.3636	0.	-1617.
14477	16.62	4.2727	0.	-1639.
14478	16.62	4.3636	5.e-002	-4.5154
14479	16.897	4.3636	0.	-1572.5
14480	16.805	4.2727	0.	-1594.4
14481	16.805	4.3636	5.e-002	-4.4959
14482	17.082	4.3636	0.	-1528.1
14483	16.989	4.2727	0.	-1549.9
14484	16.989	4.3636	5.e-002	-4.4768
14485	17.266	4.3636	0.	-1484.
14486	17.174	4.2727	0.	-1505.7
14487	17.174	4.3636	5.e-002	-4.458
14488	17.451	4.3636	0.	-1440.
14489	17.358	4.2727	0.	-1461.6
14490	17.358	4.3636	5.e-002	-4.4394
14491	17.635	4.3636	0.	-1396.2
14492	17.543	4.2727	0.	-1417.8
14493	17.543	4.3636	5.e-002	-4.4212
14494	17.82	4.3636	0.	-1352.7
14495	17.727	4.2727	0.	-1374.1
14496	17.727	4.3636	5.e-002	-4.4032
14497	18.004	4.3636	0.	-1309.3
14498	17.912	4.2727	0.	-1330.7
14499	17.912	4.3636	5.e-002	-4.3857
14500	18.189	4.3636	0.	-1266.1
14501	18.096	4.2727	0.	-1287.4
14502	18.096	4.3636	5.e-002	-4.3684
14503	18.373	4.3636	0.	-1223.2
14504	18.281	4.2727	0.	-1244.4
14505	18.281	4.3636	5.e-002	-4.3516
14506	18.558	4.3636	0.	-1180.4
14507	18.465	4.2727	0.	-1201.5
14508	18.465	4.3636	5.e-002	-4.3351
14509	18.742	4.3636	0.	-1137.9
14510	18.65	4.2727	0.	-1158.9
14511	18.65	4.3636	5.e-002	-4.319
14512	18.927	4.3636	0.	-1095.5
14513	18.834	4.2727	0.	-1116.4
14514	18.834	4.3636	5.e-002	-4.3034
14515	19.111	4.3636	0.	-1053.3
14516	19.019	4.2727	0.	-1074.2
14517	19.019	4.3636	5.e-002	-4.2883
14518	19.296	4.3636	0.	-1011.4
14519	19.203	4.2727	0.	-1032.1
14520	19.203	4.3636	5.e-002	-4.2737
14521	19.48	4.3636	0.	-969.59
14522	19.388	4.2727	0.	-990.26
14523	19.388	4.3636	5.e-002	-4.2596
14524	19.665	4.3636	0.	-928.02
14525	19.572	4.2727	0.	-948.61
14526	19.572	4.3636	5.e-002	-4.2462
14527	19.849	4.3636	0.	-886.64
14528	19.757	4.2727	0.	-907.16
14529	19.757	4.3636	5.e-002	-4.2334
14530	20.033	4.3636	0.	-845.47
14531	19.941	4.2727	0.	-865.92
14532	19.941	4.3636	5.e-002	-4.2214
14533	20.218	4.3636	0.	-804.49
14534	20.126	4.2727	0.	-824.87
14535	20.126	4.3636	5.e-002	-4.2101
14536	20.402	4.3636	0.	-763.71
14537	20.31	4.2727	0.	-784.02
14538	20.31	4.3636	5.e-002	-4.1997
14539	20.587	4.3636	0.	-723.12
14540	20.495	4.2727	0.	-743.37
14541	20.495	4.3636	5.e-002	-4.1903
14542	20.771	4.3636	0.	-682.73
14543	20.679	4.2727	0.	-702.91
14544	20.679	4.3636	5.e-002	-4.1819
14545	20.956	4.3636	0.	-642.53
14546	20.864	4.2727	0.	-662.65
14547	20.864	4.3636	5.e-002	-4.1747
14548	21.14	4.3636	0.	-602.52
14549	21.048	4.2727	0.	-622.59
14550	21.048	4.3636	5.e-002	-4.1689
14551	21.325	4.3636	0.	-562.7
14552	21.233	4.2727	0.	-582.72
14553	21.233	4.3636	5.e-002	-4.1645
14554	21.509	4.3636	0.	-523.08
14555	21.417	4.2727	0.	-543.04
14556	21.417	4.3636	5.e-002	-4.1619
14557	21.694	4.3636	0.	-483.64
14558	21.602	4.2727	0.	-503.55
14559	21.602	4.3636	5.e-002	-4.1612
14560	21.878	4.3636	0.	-444.39
14561	21.786	4.2727	0.	-464.25
14562	21.786	4.3636	5.e-002	-4.1628
14563	22.063	4.3636	0.	-405.32
14564	21.971	4.2727	0.	-425.12
14565	21.971	4.3636	5.e-002	-4.1669
14566	22.247	4.3636	0.	-366.44
14567	22.155	4.2727	0.	-386.18
14568	22.155	4.3636	5.e-002	-4.1741
14569	22.432	4.3636	0.	-327.72
14570	22.34	4.2727	0.	-347.4
14571	22.34	4.3636	5.e-002	-4.1848
14572	22.616	4.3636	0.	-289.15
14573	22.524	4.2727	0.	-308.77
14574	22.524	4.3636	5.e-002	-4.1998
14575	22.801	4.3636	0.	-250.72
14576	22.709	4.2727	0.	-270.27
14577	22.709	4.3636	5.e-002	-4.2198
14578	22.985	4.3636	0.	-212.39
14579	22.893	4.2727	0.	-231.88
14580	22.893	4.3636	5.e-002	-4.2458
14581	23.17	4.3636	0.	-174.13
14582	23.078	4.2727	0.	-193.56
14583	23.078	4.3636	5.e-002	-4.2786
14584	23.354	4.3636	0.	-135.86
14585	23.262	4.2727	0.	-155.25
14586	23.262	4.3636	5.e-002	-4.3194
14587	23.539	4.3636	0.	-97.512
14588	23.447	4.2727	0.	-116.89
14589	23.447	4.3636	5.e-002	-4.3686
14590	23.723	4.3636	0.	-59.1
14591	23.631	4.2727	0.	-78.399
14592	23.631	4.3636	5.e-002	-4.4292
14593	23.816	4.2727	0.	-39.94
14594	23.816	4.3636	5.e-002	-4.5467
14595	23.908	4.3636	0.	-22.538
14596	5.6434	4.1818	0.	-7721.8
14597	5.5512	4.0909	0.	-10232
14598	5.5512	4.1818	5.e-002	-456.85
14599	5.4589	4.1818	0.	-6633.6
14600	5.8279	4.1818	0.	-6530.4
14601	5.7356	4.0909	0.	-7583.
14602	5.7356	4.1818	5.e-002	-152.97
14603	6.0124	4.1818	0.	-5891.4
14604	5.9201	4.0909	0.	-6578.4
14605	5.9201	4.1818	5.e-002	-70.396
14606	6.1969	4.1818	0.	-5461.6
14607	6.1046	4.0909	0.	-5940.3
14608	6.1046	4.1818	5.e-002	-50.652
14609	6.3814	4.1818	0.	-5151.8
14610	6.2891	4.0909	0.	-5504.6
14611	6.2891	4.1818	5.e-002	-39.47
14612	6.5658	4.1818	0.	-4917.5
14613	6.4736	4.0909	0.	-5185.7
14614	6.4736	4.1818	5.e-002	-31.708
14615	6.7503	4.1818	0.	-4732.6
14616	6.6581	4.0909	0.	-4941.
14617	6.6581	4.1818	5.e-002	-26.18
14618	6.9348	4.1818	0.	-4581.4
14619	6.8426	4.0909	0.	-4746.1
14620	6.8426	4.1818	5.e-002	-21.998
14621	7.1193	4.1818	0.	-4453.8
14622	7.0271	4.0909	0.	-4586.
14623	7.0271	4.1818	5.e-002	-18.734
14624	7.3038	4.1818	0.	-4343.3
14625	7.2116	4.0909	0.	-4450.8
14626	7.2116	4.1818	5.e-002	-16.132
14627	7.4883	4.1818	0.	-4245.6
14628	7.396	4.0909	0.	-4334.2
14629	7.396	4.1818	5.e-002	-14.036
14630	7.6728	4.1818	0.	-4157.5
14631	7.5805	4.0909	0.	-4231.6
14632	7.5805	4.1818	5.e-002	-12.338
14633	7.8573	4.1818	0.	-4076.9
14634	7.765	4.0909	0.	-4139.8
14635	7.765	4.1818	5.e-002	-10.963
14636	8.0417	4.1818	0.	-4002.1
14637	7.9495	4.0909	0.	-4056.3
14638	7.9495	4.1818	5.e-002	-9.853
14639	8.2262	4.1818	0.	-3932.
14640	8.134	4.0909	0.	-3979.5
14641	8.134	4.1818	5.e-002	-8.9596
14642	8.4107	4.1818	0.	-3865.7
14643	8.3185	4.0909	0.	-3907.9
14644	8.3185	4.1818	5.e-002	-8.2435
14645	8.5952	4.1818	0.	-3802.3
14646	8.503	4.0909	0.	-3840.5
14647	8.503	4.1818	5.e-002	-7.6713
14648	8.7797	4.1818	0.	-3741.3
14649	8.6875	4.0909	0.	-3776.4
14650	8.6875	4.1818	5.e-002	-7.2149
14651	8.9642	4.1818	0.	-3682.2
14652	8.8719	4.0909	0.	-3714.9
14653	8.8719	4.1818	5.e-002	-6.8506
14654	9.1487	4.1818	0.	-3624.7
14655	9.0564	4.0909	0.	-3655.5
14656	9.0564	4.1818	5.e-002	-6.5591
14657	9.3332	4.1818	0.	-3568.5
14658	9.2409	4.0909	0.	-3597.9
14659	9.2409	4.1818	5.e-002	-6.3245
14660	9.5177	4.1818	0.	-3513.4
14661	9.4254	4.0909	0.	-3541.6
14662	9.4254	4.1818	5.e-002	-6.1343
14663	9.7021	4.1818	0.	-3459.1
14664	9.6099	4.0909	0.	-3486.4
14665	9.6099	4.1818	5.e-002	-5.9786
14666	9.8866	4.1818	0.	-3405.6
14667	9.7944	4.0909	0.	-3432.2
14668	9.7944	4.1818	5.e-002	-5.8496
14669	10.071	4.1818	0.	-3352.6
14670	9.9789	4.0909	0.	-3378.7
14671	9.9789	4.1818	5.e-002	-5.7414
14672	10.256	4.1818	0.	-3300.2
14673	10.163	4.0909	0.	-3325.9
14674	10.163	4.1818	5.e-002	-5.6495
14675	10.44	4.1818	0.	-3248.2
14676	10.348	4.0909	0.	-3273.6
14677	10.348	4.1818	5.e-002	-5.5701
14678	10.625	4.1818	0.	-3196.5
14679	10.532	4.0909	0.	-3221.7
14680	10.532	4.1818	5.e-002	-5.5007
14681	10.809	4.1818	0.	-3145.2
14682	10.717	4.0909	0.	-3170.2
14683	10.717	4.1818	5.e-002	-5.4393
14684	10.994	4.1818	0.	-3094.2
14685	10.901	4.0909	0.	-3119.
14686	10.901	4.1818	5.e-002	-5.3841
14687	11.178	4.1818	0.	-3043.5
14688	11.086	4.0909	0.	-3068.2
14689	11.086	4.1818	5.e-002	-5.3341
14690	11.363	4.1818	0.	-2993.
14691	11.27	4.0909	0.	-3017.6
14692	11.27	4.1818	5.e-002	-5.2881
14693	11.547	4.1818	0.	-2942.8
14694	11.455	4.0909	0.	-2967.2
14695	11.455	4.1818	5.e-002	-5.2457
14696	11.732	4.1818	0.	-2892.8
14697	11.639	4.0909	0.	-2917.1
14698	11.639	4.1818	5.e-002	-5.206
14699	11.916	4.1818	0.	-2843.
14700	11.824	4.0909	0.	-2867.2
14701	11.824	4.1818	5.e-002	-5.1686
14702	12.1	4.1818	0.	-2793.4
14703	12.008	4.0909	0.	-2817.6
14704	12.008	4.1818	5.e-002	-5.1332
14705	12.285	4.1818	0.	-2744.
14706	12.193	4.0909	0.	-2768.1
14707	12.193	4.1818	5.e-002	-5.0996
14708	12.469	4.1818	0.	-2694.8
14709	12.377	4.0909	0.	-2718.8
14710	12.377	4.1818	5.e-002	-5.0674
14711	12.654	4.1818	0.	-2645.8
14712	12.562	4.0909	0.	-2669.8
14713	12.562	4.1818	5.e-002	-5.0365
14714	12.838	4.1818	0.	-2597.
14715	12.746	4.0909	0.	-2620.9
14716	12.746	4.1818	5.e-002	-5.0067
14717	13.023	4.1818	0.	-2548.4
14718	12.931	4.0909	0.	-2572.2
14719	12.931	4.1818	5.e-002	-4.9779
14720	13.207	4.1818	0.	-2500.
14721	13.115	4.0909	0.	-2523.7
14722	13.115	4.1818	5.e-002	-4.95
14723	13.392	4.1818	0.	-2451.7
14724	13.3	4.0909	0.	-2475.4
14725	13.3	4.1818	5.e-002	-4.9229
14726	13.576	4.1818	0.	-2403.7
14727	13.484	4.0909	0.	-2427.2
14728	13.484	4.1818	5.e-002	-4.8965
14729	13.761	4.1818	0.	-2355.8
14730	13.669	4.0909	0.	-2379.3
14731	13.669	4.1818	5.e-002	-4.8707
14732	13.945	4.1818	0.	-2308.2
14733	13.853	4.0909	0.	-2331.5
14734	13.853	4.1818	5.e-002	-4.8454
14735	14.13	4.1818	0.	-2260.7
14736	14.038	4.0909	0.	-2284.
14737	14.038	4.1818	5.e-002	-4.8208
14738	14.314	4.1818	0.	-2213.4
14739	14.222	4.0909	0.	-2236.6
14740	14.222	4.1818	5.e-002	-4.7966
14741	14.499	4.1818	0.	-2166.3
14742	14.407	4.0909	0.	-2189.4
14743	14.407	4.1818	5.e-002	-4.7729
14744	14.683	4.1818	0.	-2119.4
14745	14.591	4.0909	0.	-2142.5
14746	14.591	4.1818	5.e-002	-4.7496
14747	14.868	4.1818	0.	-2072.7
14748	14.776	4.0909	0.	-2095.7
14749	14.776	4.1818	5.e-002	-4.7268
14750	15.052	4.1818	0.	-2026.2
14751	14.96	4.0909	0.	-2049.1
14752	14.96	4.1818	5.e-002	-4.7043
14753	15.237	4.1818	0.	-1979.9
14754	15.145	4.0909	0.	-2002.7
14755	15.145	4.1818	5.e-002	-4.6821
14756	15.421	4.1818	0.	-1933.8
14757	15.329	4.0909	0.	-1956.4
14758	15.329	4.1818	5.e-002	-4.6603
14759	15.606	4.1818	0.	-1887.8
14760	15.514	4.0909	0.	-1910.4
14761	15.514	4.1818	5.e-002	-4.6388
14762	15.79	4.1818	0.	-1842.1
14763	15.698	4.0909	0.	-1864.6
14764	15.698	4.1818	5.e-002	-4.6176
14765	15.975	4.1818	0.	-1796.6
14766	15.883	4.0909	0.	-1819.
14767	15.883	4.1818	5.e-002	-4.5967
14768	16.159	4.1818	0.	-1751.2
14769	16.067	4.0909	0.	-1773.5
14770	16.067	4.1818	5.e-002	-4.5762
14771	16.344	4.1818	0.	-1706.1
14772	16.251	4.0909	0.	-1728.3
14773	16.251	4.1818	5.e-002	-4.5559
14774	16.528	4.1818	0.	-1661.1
14775	16.436	4.0909	0.	-1683.3
14776	16.436	4.1818	5.e-002	-4.5359
14777	16.713	4.1818	0.	-1616.4
14778	16.62	4.0909	0.	-1638.4
14779	16.62	4.1818	5.e-002	-4.5162
14780	16.897	4.1818	0.	-1571.9
14781	16.805	4.0909	0.	-1593.8
14782	16.805	4.1818	5.e-002	-4.4968
14783	17.082	4.1818	0.	-1527.5
14784	16.989	4.0909	0.	-1549.4
14785	16.989	4.1818	5.e-002	-4.4776
14786	17.266	4.1818	0.	-1483.4
14787	17.174	4.0909	0.	-1505.1
14788	17.174	4.1818	5.e-002	-4.4588
14789	17.451	4.1818	0.	-1439.4
14790	17.358	4.0909	0.	-1461.1
14791	17.358	4.1818	5.e-002	-4.4402
14792	17.635	4.1818	0.	-1395.7
14793	17.543	4.0909	0.	-1417.3
14794	17.543	4.1818	5.e-002	-4.422
14795	17.82	4.1818	0.	-1352.1
14796	17.727	4.0909	0.	-1373.6
14797	17.727	4.1818	5.e-002	-4.4041
14798	18.004	4.1818	0.	-1308.8
14799	17.912	4.0909	0.	-1330.2
14800	17.912	4.1818	5.e-002	-4.3865
14801	18.189	4.1818	0.	-1265.7
14802	18.096	4.0909	0.	-1286.9
14803	18.096	4.1818	5.e-002	-4.3693
14804	18.373	4.1818	0.	-1222.7
14805	18.281	4.0909	0.	-1243.9
14806	18.281	4.1818	5.e-002	-4.3525
14807	18.558	4.1818	0.	-1180.
14808	18.465	4.0909	0.	-1201.1
14809	18.465	4.1818	5.e-002	-4.3361
14810	18.742	4.1818	0.	-1137.4
14811	18.65	4.0909	0.	-1158.5
14812	18.65	4.1818	5.e-002	-4.3201
14813	18.927	4.1818	0.	-1095.1
14814	18.834	4.0909	0.	-1116.
14815	18.834	4.1818	5.e-002	-4.3045
14816	19.111	4.1818	0.	-1053.
14817	19.019	4.0909	0.	-1073.8
14818	19.019	4.1818	5.e-002	-4.2895
14819	19.296	4.1818	0.	-1011.
14820	19.203	4.0909	0.	-1031.8
14821	19.203	4.1818	5.e-002	-4.2749
14822	19.48	4.1818	0.	-969.32
14823	19.388	4.0909	0.	-990.01
14824	19.388	4.1818	5.e-002	-4.261
14825	19.665	4.1818	0.	-927.8
14826	19.572	4.0909	0.	-948.4
14827	19.572	4.1818	5.e-002	-4.2477
14828	19.849	4.1818	0.	-886.48
14829	19.757	4.0909	0.	-907.
14830	19.757	4.1818	5.e-002	-4.2351
14831	20.033	4.1818	0.	-845.36
14832	19.941	4.0909	0.	-865.81
14833	19.941	4.1818	5.e-002	-4.2232
14834	20.218	4.1818	0.	-804.44
14835	20.126	4.0909	0.	-824.81
14836	20.126	4.1818	5.e-002	-4.2122
14837	20.402	4.1818	0.	-763.72
14838	20.31	4.0909	0.	-784.02
14839	20.31	4.1818	5.e-002	-4.202
14840	20.587	4.1818	0.	-723.2
14841	20.495	4.0909	0.	-743.43
14842	20.495	4.1818	5.e-002	-4.1929
14843	20.771	4.1818	0.	-682.88
14844	20.679	4.0909	0.	-703.04
14845	20.679	4.1818	5.e-002	-4.1849
14846	20.956	4.1818	0.	-642.76
14847	20.864	4.0909	0.	-662.86
14848	20.864	4.1818	5.e-002	-4.1781
14849	21.14	4.1818	0.	-602.83
14850	21.048	4.0909	0.	-622.86
14851	21.048	4.1818	5.e-002	-4.1728
14852	21.325	4.1818	0.	-563.09
14853	21.233	4.0909	0.	-583.07
14854	21.233	4.1818	5.e-002	-4.1691
14855	21.509	4.1818	0.	-523.55
14856	21.417	4.0909	0.	-543.46
14857	21.417	4.1818	5.e-002	-4.1671
14858	21.694	4.1818	0.	-484.19
14859	21.602	4.0909	0.	-504.05
14860	21.602	4.1818	5.e-002	-4.1673
14861	21.878	4.1818	0.	-445.02
14862	21.786	4.0909	0.	-464.81
14863	21.786	4.1818	5.e-002	-4.1697
14864	22.063	4.1818	0.	-406.01
14865	21.971	4.0909	0.	-425.75
14866	21.971	4.1818	5.e-002	-4.1749
14867	22.247	4.1818	0.	-367.17
14868	22.155	4.0909	0.	-386.86
14869	22.155	4.1818	5.e-002	-4.1833
14870	22.432	4.1818	0.	-328.48
14871	22.34	4.0909	0.	-348.11
14872	22.34	4.1818	5.e-002	-4.1953
14873	22.616	4.1818	0.	-289.92
14874	22.524	4.0909	0.	-309.49
14875	22.524	4.1818	5.e-002	-4.2115
14876	22.801	4.1818	0.	-251.46
14877	22.709	4.0909	0.	-270.98
14878	22.709	4.1818	5.e-002	-4.2326
14879	22.985	4.1818	0.	-213.07
14880	22.893	4.0909	0.	-232.54
14881	22.893	4.1818	5.e-002	-4.2593
14882	23.17	4.1818	0.	-174.7
14883	23.078	4.0909	0.	-194.13
14884	23.078	4.1818	5.e-002	-4.2922
14885	23.354	4.1818	0.	-136.29
14886	23.262	4.0909	0.	-155.7
14887	23.262	4.1818	5.e-002	-4.3321
14888	23.539	4.1818	0.	-97.771
14889	23.447	4.0909	0.	-117.2
14890	23.447	4.1818	5.e-002	-4.3792
14891	23.723	4.1818	0.	-59.17
14892	23.631	4.0909	0.	-78.546
14893	23.631	4.1818	5.e-002	-4.4355
14894	23.816	4.0909	0.	-39.91
14895	23.816	4.1818	5.e-002	-4.5364
14896	23.908	4.1818	0.	-22.51
14897	5.6434	4.	0.	-10119
14898	5.5512	3.9091	0.	-12113
14899	5.5512	4.	5.e-002	-825.06
14900	5.4589	4.	0.	-18018
14901	5.8279	4.	0.	-7629.3
14902	5.7356	3.9091	0.	-8772.
14903	5.7356	4.	5.e-002	-142.45
14904	6.0124	4.	0.	-6621.1
14905	5.9201	3.9091	0.	-7359.5
14906	5.9201	4.	5.e-002	-91.916
14907	6.1969	4.	0.	-5978.2
14908	6.1046	3.9091	0.	-6499.
14909	6.1046	4.	5.e-002	-61.282
14910	6.3814	4.	0.	-5534.7
14911	6.2891	3.9091	0.	-5919.7
14912	6.2891	4.	5.e-002	-46.197
14913	6.5658	4.	0.	-5206.7
14914	6.4736	3.9091	0.	-5499.5
14915	6.4736	4.	5.e-002	-36.526
14916	6.7503	4.	0.	-4953.
14917	6.6581	3.9091	0.	-5180.3
14918	6.6581	4.	5.e-002	-29.859
14919	6.9348	4.	0.	-4749.8
14920	6.8426	3.9091	0.	-4929.
14921	6.8426	4.	5.e-002	-24.903
14922	7.1193	4.	0.	-4582.4
14923	7.0271	3.9091	0.	-4725.6
14924	7.0271	4.	5.e-002	-21.072
14925	7.3038	4.	0.	-4441.4
14926	7.2116	3.9091	0.	-4557.3
14927	7.2116	4.	5.e-002	-18.034
14928	7.4883	4.	0.	-4320.1
14929	7.396	3.9091	0.	-4415.1
14930	7.396	4.	5.e-002	-15.592
14931	7.6728	4.	0.	-4213.8
14932	7.5805	3.9091	0.	-4292.8
14933	7.5805	4.	5.e-002	-13.618
14934	7.8573	4.	0.	-4119.2
14935	7.765	3.9091	0.	-4185.8
14936	7.765	4.	5.e-002	-12.018
14937	8.0417	4.	0.	-4033.7
14938	7.9495	3.9091	0.	-4090.8
14939	7.9495	4.	5.e-002	-10.723
14940	8.2262	4.	0.	-3955.4
14941	8.134	3.9091	0.	-4005.
14942	8.134	4.	5.e-002	-9.6762
14943	8.4107	4.	0.	-3882.8
14944	8.3185	3.9091	0.	-3926.7
14945	8.3185	4.	5.e-002	-8.8326
14946	8.5952	4.	0.	-3814.6
14947	8.503	3.9091	0.	-3854.1
14948	8.503	4.	5.e-002	-8.1541
14949	8.7797	4.	0.	-3750.
14950	8.6875	3.9091	0.	-3786.
14951	8.6875	4.	5.e-002	-7.609
14952	8.9642	4.	0.	-3688.2
14953	8.8719	3.9091	0.	-3721.6
14954	8.8719	4.	5.e-002	-7.1711
14955	9.1487	4.	0.	-3628.6
14956	9.0564	3.9091	0.	-3660.
14957	9.0564	4.	5.e-002	-6.8187
14958	9.3332	4.	0.	-3570.9
14959	9.2409	3.9091	0.	-3600.7
14960	9.2409	4.	5.e-002	-6.5341
14961	9.5177	4.	0.	-3514.7
14962	9.4254	3.9091	0.	-3543.2
14963	9.4254	4.	5.e-002	-6.303
14964	9.7021	4.	0.	-3459.6
14965	9.6099	3.9091	0.	-3487.2
14966	9.6099	4.	5.e-002	-6.114
14967	9.8866	4.	0.	-3405.4
14968	9.7944	3.9091	0.	-3432.3
14969	9.7944	4.	5.e-002	-5.9581
14970	10.071	4.	0.	-3352.
14971	9.9789	3.9091	0.	-3378.4
14972	9.9789	4.	5.e-002	-5.8283
14973	10.256	4.	0.	-3299.3
14974	10.163	3.9091	0.	-3325.2
14975	10.163	4.	5.e-002	-5.7189
14976	10.44	4.	0.	-3247.1
14977	10.348	3.9091	0.	-3272.6
14978	10.348	4.	5.e-002	-5.6256
14979	10.625	4.	0.	-3195.3
14980	10.532	3.9091	0.	-3220.6
14981	10.532	4.	5.e-002	-5.5451
14982	10.809	4.	0.	-3144.
14983	10.717	3.9091	0.	-3169.
14984	10.717	4.	5.e-002	-5.4748
14985	10.994	4.	0.	-3093.
14986	10.901	3.9091	0.	-3117.8
14987	10.901	4.	5.e-002	-5.4126
14988	11.178	4.	0.	-3042.2
14989	11.086	3.9091	0.	-3067.
14990	11.086	4.	5.e-002	-5.357
14991	11.363	4.	0.	-2991.8
14992	11.27	3.9091	0.	-3016.4
14993	11.27	4.	5.e-002	-5.3066
14994	11.547	4.	0.	-2941.6
14995	11.455	3.9091	0.	-2966.1
14996	11.455	4.	5.e-002	-5.2606
14997	11.732	4.	0.	-2891.6
14998	11.639	3.9091	0.	-2916.
14999	11.639	4.	5.e-002	-5.2181
15000	11.916	4.	0.	-2841.8
15001	11.824	3.9091	0.	-2866.1
15002	11.824	4.	5.e-002	-5.1786
15003	12.1	4.	0.	-2792.3
15004	12.008	3.9091	0.	-2816.5
15005	12.008	4.	5.e-002	-5.1414
15006	12.285	4.	0.	-2742.9
15007	12.193	3.9091	0.	-2767.1
15008	12.193	4.	5.e-002	-5.1063
15009	12.469	4.	0.	-2693.8
15010	12.377	3.9091	0.	-2717.9
15011	12.377	4.	5.e-002	-5.073
15012	12.654	4.	0.	-2644.8
15013	12.562	3.9091	0.	-2668.8
15014	12.562	4.	5.e-002	-5.0412
15015	12.838	4.	0.	-2596.1
15016	12.746	3.9091	0.	-2620.
15017	12.746	4.	5.e-002	-5.0107
15018	13.023	4.	0.	-2547.5
15019	12.931	3.9091	0.	-2571.3
15020	12.931	4.	5.e-002	-4.9813
15021	13.207	4.	0.	-2499.1
15022	13.115	3.9091	0.	-2522.8
15023	13.115	4.	5.e-002	-4.953
15024	13.392	4.	0.	-2450.9
15025	13.3	3.9091	0.	-2474.6
15026	13.3	4.	5.e-002	-4.9255
15027	13.576	4.	0.	-2402.9
15028	13.484	3.9091	0.	-2426.5
15029	13.484	4.	5.e-002	-4.8987
15030	13.761	4.	0.	-2355.
15031	13.669	3.9091	0.	-2378.6
15032	13.669	4.	5.e-002	-4.8727
15033	13.945	4.	0.	-2307.4
15034	13.853	3.9091	0.	-2330.8
15035	13.853	4.	5.e-002	-4.8472
15036	14.13	4.	0.	-2259.9
15037	14.038	3.9091	0.	-2283.3
15038	14.038	4.	5.e-002	-4.8224
15039	14.314	4.	0.	-2212.7
15040	14.222	3.9091	0.	-2235.9
15041	14.222	4.	5.e-002	-4.7981
15042	14.499	4.	0.	-2165.6
15043	14.407	3.9091	0.	-2188.8
15044	14.407	4.	5.e-002	-4.7742
15045	14.683	4.	0.	-2118.7
15046	14.591	3.9091	0.	-2141.8
15047	14.591	4.	5.e-002	-4.7508
15048	14.868	4.	0.	-2072.
15049	14.776	3.9091	0.	-2095.
15050	14.776	4.	5.e-002	-4.7279
15051	15.052	4.	0.	-2025.5
15052	14.96	3.9091	0.	-2048.5
15053	14.96	4.	5.e-002	-4.7053
15054	15.237	4.	0.	-1979.2
15055	15.145	3.9091	0.	-2002.1
15056	15.145	4.	5.e-002	-4.6831
15057	15.421	4.	0.	-1933.1
15058	15.329	3.9091	0.	-1955.9
15059	15.329	4.	5.e-002	-4.6613
15060	15.606	4.	0.	-1887.2
15061	15.514	3.9091	0.	-1909.9
15062	15.514	4.	5.e-002	-4.6397
15063	15.79	4.	0.	-1841.5
15064	15.698	3.9091	0.	-1864.1
15065	15.698	4.	5.e-002	-4.6185
15066	15.975	4.	0.	-1796.
15067	15.883	3.9091	0.	-1818.4
15068	15.883	4.	5.e-002	-4.5976
15069	16.159	4.	0.	-1750.7
15070	16.067	3.9091	0.	-1773.
15071	16.067	4.	5.e-002	-4.5769
15072	16.344	4.	0.	-1705.5
15073	16.251	3.9091	0.	-1727.8
15074	16.251	4.	5.e-002	-4.5566
15075	16.528	4.	0.	-1660.6
15076	16.436	3.9091	0.	-1682.8
15077	16.436	4.	5.e-002	-4.5366
15078	16.713	4.	0.	-1615.9
15079	16.62	3.9091	0.	-1638.
15080	16.62	4.	5.e-002	-4.5169
15081	16.897	4.	0.	-1571.3
15082	16.805	3.9091	0.	-1593.3
15083	16.805	4.	5.e-002	-4.4975
15084	17.082	4.	0.	-1527.
15085	16.989	3.9091	0.	-1548.9
15086	16.989	4.	5.e-002	-4.4783
15087	17.266	4.	0.	-1482.9
15088	17.174	3.9091	0.	-1504.7
15089	17.174	4.	5.e-002	-4.4595
15090	17.451	4.	0.	-1438.9
15091	17.358	3.9091	0.	-1460.6
15092	17.358	4.	5.e-002	-4.4409
15093	17.635	4.	0.	-1395.2
15094	17.543	3.9091	0.	-1416.8
15095	17.543	4.	5.e-002	-4.4227
15096	17.82	4.	0.	-1351.7
15097	17.727	3.9091	0.	-1373.2
15098	17.727	4.	5.e-002	-4.4048
15099	18.004	4.	0.	-1308.4
15100	17.912	3.9091	0.	-1329.8
15101	17.912	4.	5.e-002	-4.3873
15102	18.189	4.	0.	-1265.2
15103	18.096	3.9091	0.	-1286.6
15104	18.096	4.	5.e-002	-4.3701
15105	18.373	4.	0.	-1222.3
15106	18.281	3.9091	0.	-1243.6
15107	18.281	4.	5.e-002	-4.3533
15108	18.558	4.	0.	-1179.6
15109	18.465	3.9091	0.	-1200.8
15110	18.465	4.	5.e-002	-4.3369
15111	18.742	4.	0.	-1137.1
15112	18.65	3.9091	0.	-1158.2
15113	18.65	4.	5.e-002	-4.321
15114	18.927	4.	0.	-1094.8
15115	18.834	3.9091	0.	-1115.8
15116	18.834	4.	5.e-002	-4.3055
15117	19.111	4.	0.	-1052.7
15118	19.019	3.9091	0.	-1073.6
15119	19.019	4.	5.e-002	-4.2905
15120	19.296	4.	0.	-1010.8
15121	19.203	3.9091	0.	-1031.6
15122	19.203	4.	5.e-002	-4.276
15123	19.48	4.	0.	-969.13
15124	19.388	3.9091	0.	-989.82
15125	19.388	4.	5.e-002	-4.2622
15126	19.665	4.	0.	-927.64
15127	19.572	3.9091	0.	-948.25
15128	19.572	4.	5.e-002	-4.249
15129	19.849	4.	0.	-886.37
15130	19.757	3.9091	0.	-906.89
15131	19.757	4.	5.e-002	-4.2365
15132	20.033	4.	0.	-845.3
15133	19.941	3.9091	0.	-865.74
15134	19.941	4.	5.e-002	-4.2248
15135	20.218	4.	0.	-804.43
15136	20.126	3.9091	0.	-824.79
15137	20.126	4.	5.e-002	-4.2139
15138	20.402	4.	0.	-763.77
15139	20.31	3.9091	0.	-784.06
15140	20.31	4.	5.e-002	-4.204
15141	20.587	4.	0.	-723.31
15142	20.495	3.9091	0.	-743.52
15143	20.495	4.	5.e-002	-4.1952
15144	20.771	4.	0.	-683.06
15145	20.679	3.9091	0.	-703.19
15146	20.679	4.	5.e-002	-4.1875
15147	20.956	4.	0.	-643.
15148	20.864	3.9091	0.	-663.06
15149	20.864	4.	5.e-002	-4.1811
15150	21.14	4.	0.	-603.14
15151	21.048	3.9091	0.	-623.13
15152	21.048	4.	5.e-002	-4.1762
15153	21.325	4.	0.	-563.47
15154	21.233	3.9091	0.	-583.4
15155	21.233	4.	5.e-002	-4.173
15156	21.509	4.	0.	-524.
15157	21.417	3.9091	0.	-543.86
15158	21.417	4.	5.e-002	-4.1717
15159	21.694	4.	0.	-484.7
15160	21.602	3.9091	0.	-504.5
15161	21.602	4.	5.e-002	-4.1726
15162	21.878	4.	0.	-445.58
15163	21.786	3.9091	0.	-465.32
15164	21.786	4.	5.e-002	-4.1759
15165	22.063	4.	0.	-406.63
15166	21.971	3.9091	0.	-426.31
15167	21.971	4.	5.e-002	-4.182
15168	22.247	4.	0.	-367.82
15169	22.155	3.9091	0.	-387.45
15170	22.155	4.	5.e-002	-4.1913
15171	22.432	4.	0.	-329.14
15172	22.34	3.9091	0.	-348.72
15173	22.34	4.	5.e-002	-4.2043
15174	22.616	4.	0.	-290.57
15175	22.524	3.9091	0.	-310.1
15176	22.524	4.	5.e-002	-4.2214
15177	22.801	4.	0.	-252.08
15178	22.709	3.9091	0.	-271.56
15179	22.709	4.	5.e-002	-4.2433
15180	22.985	4.	0.	-213.62
15181	22.893	3.9091	0.	-233.07
15182	22.893	4.	5.e-002	-4.2704
15183	23.17	4.	0.	-175.15
15184	23.078	3.9091	0.	-194.59
15185	23.078	4.	5.e-002	-4.3033
15186	23.354	4.	0.	-136.62
15187	23.262	3.9091	0.	-156.06
15188	23.262	4.	5.e-002	-4.3423
15189	23.539	4.	0.	-97.966
15190	23.447	3.9091	0.	-117.43
15191	23.447	4.	5.e-002	-4.3875
15192	23.723	4.	0.	-59.213
15193	23.631	3.9091	0.	-78.652
15194	23.631	4.	5.e-002	-4.4402
15195	23.816	3.9091	0.	-39.876
15196	23.816	4.	5.e-002	-4.5271
15197	23.908	4.	0.	-22.48
15198	5.6434	3.8182	0.	-10853
15199	5.5512	3.7273	0.	-12040
15200	5.5512	3.8182	5.e-002	-437.36
15201	5.8279	3.8182	0.	-8511.
15202	5.7356	3.7273	0.	-9473.7
15203	5.7356	3.8182	5.e-002	-202.88
15204	6.0124	3.8182	0.	-7236.7
15205	5.9201	3.7273	0.	-7945.
15206	5.9201	3.8182	5.e-002	-102.78
15207	6.1969	3.8182	0.	-6438.1
15208	6.1046	3.7273	0.	-6963.3
15209	6.1046	3.8182	5.e-002	-70.422
15210	6.3814	3.8182	0.	-5882.3
15211	6.2891	3.7273	0.	-6279.8
15212	6.2891	3.8182	5.e-002	-52.349
15213	6.5658	3.8182	0.	-5471.5
15214	6.4736	3.7273	0.	-5777.3
15215	6.4736	3.8182	5.e-002	-41.186
15216	6.7503	3.8182	0.	-5155.2
15217	6.6581	3.7273	0.	-5393.7
15218	6.6581	3.8182	5.e-002	-33.464
15219	6.9348	3.8182	0.	-4904.2
15220	6.8426	3.7273	0.	-5092.4
15221	6.8426	3.8182	5.e-002	-27.74
15222	7.1193	3.8182	0.	-4700.1
15223	7.0271	3.7273	0.	-4850.3
15224	7.0271	3.8182	5.e-002	-23.319
15225	7.3038	3.8182	0.	-4530.7
15226	7.2116	3.7273	0.	-4652.
15227	7.2116	3.8182	5.e-002	-19.822
15228	7.4883	3.8182	0.	-4387.7
15229	7.396	3.7273	0.	-4486.8
15230	7.396	3.8182	5.e-002	-17.023
15231	7.6728	3.8182	0.	-4264.7
15232	7.5805	3.7273	0.	-4346.8
15233	7.5805	3.8182	5.e-002	-14.767
15234	7.8573	3.8182	0.	-4157.3
15235	7.765	3.7273	0.	-4226.3
15236	7.765	3.8182	5.e-002	-12.946
15237	8.0417	3.8182	0.	-4062.1
15238	7.9495	3.7273	0.	-4120.9
15239	7.9495	3.8182	5.e-002	-11.475
15240	8.2262	3.8182	0.	-3976.3
15241	8.134	3.7273	0.	-4027.3
15242	8.134	3.8182	5.e-002	-10.288
15243	8.4107	3.8182	0.	-3898.
15244	8.3185	3.7273	0.	-3943.
15245	8.3185	3.8182	5.e-002	-9.3309
15246	8.5952	3.8182	0.	-3825.5
15247	8.503	3.7273	0.	-3865.8
15248	8.503	3.8182	5.e-002	-8.5602
15249	8.7797	3.8182	0.	-3757.7
15250	8.6875	3.7273	0.	-3794.4
15251	8.6875	3.8182	5.e-002	-7.9398
15252	8.9642	3.8182	0.	-3693.4
15253	8.8719	3.7273	0.	-3727.4
15254	8.8719	3.8182	5.e-002	-7.4401
15255	9.1487	3.8182	0.	-3632.1
15256	9.0564	3.7273	0.	-3663.9
15257	9.0564	3.8182	5.e-002	-7.037
15258	9.3332	3.8182	0.	-3573.
15259	9.2409	3.7273	0.	-3603.2
15260	9.2409	3.8182	5.e-002	-6.7108
15261	9.5177	3.8182	0.	-3515.8
15262	9.4254	3.7273	0.	-3544.6
15263	9.4254	3.8182	5.e-002	-6.4457
15264	9.7021	3.8182	0.	-3459.9
15265	9.6099	3.7273	0.	-3487.8
15266	9.6099	3.8182	5.e-002	-6.2291
15267	9.8866	3.8182	0.	-3405.3
15268	9.7944	3.7273	0.	-3432.4
15269	9.7944	3.8182	5.e-002	-6.0507
15270	10.071	3.8182	0.	-3351.5
15271	9.9789	3.7273	0.	-3378.
15272	9.9789	3.8182	5.e-002	-5.9026
15273	10.256	3.8182	0.	-3298.5
15274	10.163	3.7273	0.	-3324.6
15275	10.163	3.8182	5.e-002	-5.7785
15276	10.44	3.8182	0.	-3246.2
15277	10.348	3.7273	0.	-3271.9
15278	10.348	3.8182	5.e-002	-5.6734
15279	10.625	3.8182	0.	-3194.3
15280	10.532	3.7273	0.	-3219.7
15281	10.532	3.8182	5.e-002	-5.5835
15282	10.809	3.8182	0.	-3142.9
15283	10.717	3.7273	0.	-3168.1
15284	10.717	3.8182	5.e-002	-5.5056
15285	10.994	3.8182	0.	-3091.9
15286	10.901	3.7273	0.	-3116.8
15287	10.901	3.8182	5.e-002	-5.4373
15288	11.178	3.8182	0.	-3041.1
15289	11.086	3.7273	0.	-3066.
15290	11.086	3.8182	5.e-002	-5.3768
15291	11.363	3.8182	0.	-2990.7
15292	11.27	3.7273	0.	-3015.4
15293	11.27	3.8182	5.e-002	-5.3226
15294	11.547	3.8182	0.	-2940.5
15295	11.455	3.7273	0.	-2965.1
15296	11.455	3.8182	5.e-002	-5.2736
15297	11.732	3.8182	0.	-2890.6
15298	11.639	3.7273	0.	-2915.
15299	11.639	3.8182	5.e-002	-5.2287
15300	11.916	3.8182	0.	-2840.8
15301	11.824	3.7273	0.	-2865.2
15302	11.824	3.8182	5.e-002	-5.1872
15303	12.1	3.8182	0.	-2791.3
15304	12.008	3.7273	0.	-2815.6
15305	12.008	3.8182	5.e-002	-5.1485
15306	12.285	3.8182	0.	-2742.
15307	12.193	3.7273	0.	-2766.2
15308	12.193	3.8182	5.e-002	-5.1122
15309	12.469	3.8182	0.	-2692.9
15310	12.377	3.7273	0.	-2717.
15311	12.377	3.8182	5.e-002	-5.0779
15312	12.654	3.8182	0.	-2644.
15313	12.562	3.7273	0.	-2668.
15314	12.562	3.8182	5.e-002	-5.0453
15315	12.838	3.8182	0.	-2595.2
15316	12.746	3.7273	0.	-2619.2
15317	12.746	3.8182	5.e-002	-5.0141
15318	13.023	3.8182	0.	-2546.7
15319	12.931	3.7273	0.	-2570.6
15320	12.931	3.8182	5.e-002	-4.9843
15321	13.207	3.8182	0.	-2498.3
15322	13.115	3.7273	0.	-2522.2
15323	13.115	3.8182	5.e-002	-4.9555
15324	13.392	3.8182	0.	-2450.2
15325	13.3	3.7273	0.	-2473.9
15326	13.3	3.8182	5.e-002	-4.9277
15327	13.576	3.8182	0.	-2402.2
15328	13.484	3.7273	0.	-2425.8
15329	13.484	3.8182	5.e-002	-4.9007
15330	13.761	3.8182	0.	-2354.4
15331	13.669	3.7273	0.	-2377.9
15332	13.669	3.8182	5.e-002	-4.8744
15333	13.945	3.8182	0.	-2306.8
15334	13.853	3.7273	0.	-2330.2
15335	13.853	3.8182	5.e-002	-4.8487
15336	14.13	3.8182	0.	-2259.3
15337	14.038	3.7273	0.	-2282.7
15338	14.038	3.8182	5.e-002	-4.8237
15339	14.314	3.8182	0.	-2212.1
15340	14.222	3.7273	0.	-2235.4
15341	14.222	3.8182	5.e-002	-4.7993
15342	14.499	3.8182	0.	-2165.
15343	14.407	3.7273	0.	-2188.3
15344	14.407	3.8182	5.e-002	-4.7754
15345	14.683	3.8182	0.	-2118.2
15346	14.591	3.7273	0.	-2141.3
15347	14.591	3.8182	5.e-002	-4.7519
15348	14.868	3.8182	0.	-2071.5
15349	14.776	3.7273	0.	-2094.5
15350	14.776	3.8182	5.e-002	-4.7289
15351	15.052	3.8182	0.	-2025.
15352	14.96	3.7273	0.	-2048.
15353	14.96	3.8182	5.e-002	-4.7062
15354	15.237	3.8182	0.	-1978.7
15355	15.145	3.7273	0.	-2001.6
15356	15.145	3.8182	5.e-002	-4.684
15357	15.421	3.8182	0.	-1932.6
15358	15.329	3.7273	0.	-1955.4
15359	15.329	3.8182	5.e-002	-4.662
15360	15.606	3.8182	0.	-1886.7
15361	15.514	3.7273	0.	-1909.4
15362	15.514	3.8182	5.e-002	-4.6405
15363	15.79	3.8182	0.	-1841.
15364	15.698	3.7273	0.	-1863.6
15365	15.698	3.8182	5.e-002	-4.6192
15366	15.975	3.8182	0.	-1795.5
15367	15.883	3.7273	0.	-1818.
15368	15.883	3.8182	5.e-002	-4.5982
15369	16.159	3.8182	0.	-1750.2
15370	16.067	3.7273	0.	-1772.6
15371	16.067	3.8182	5.e-002	-4.5776
15372	16.344	3.8182	0.	-1705.1
15373	16.251	3.7273	0.	-1727.4
15374	16.251	3.8182	5.e-002	-4.5573
15375	16.528	3.8182	0.	-1660.2
15376	16.436	3.7273	0.	-1682.4
15377	16.436	3.8182	5.e-002	-4.5373
15378	16.713	3.8182	0.	-1615.4
15379	16.62	3.7273	0.	-1637.6
15380	16.62	3.8182	5.e-002	-4.5175
15381	16.897	3.8182	0.	-1570.9
15382	16.805	3.7273	0.	-1592.9
15383	16.805	3.8182	5.e-002	-4.4981
15384	17.082	3.8182	0.	-1526.6
15385	16.989	3.7273	0.	-1548.5
15386	16.989	3.8182	5.e-002	-4.4789
15387	17.266	3.8182	0.	-1482.5
15388	17.174	3.7273	0.	-1504.3
15389	17.174	3.8182	5.e-002	-4.4601
15390	17.451	3.8182	0.	-1438.6
15391	17.358	3.7273	0.	-1460.3
15392	17.358	3.8182	5.e-002	-4.4415
15393	17.635	3.8182	0.	-1394.8
15394	17.543	3.7273	0.	-1416.5
15395	17.543	3.8182	5.e-002	-4.4233
15396	17.82	3.8182	0.	-1351.3
15397	17.727	3.7273	0.	-1372.9
15398	17.727	3.8182	5.e-002	-4.4054
15399	18.004	3.8182	0.	-1308.
15400	17.912	3.7273	0.	-1329.5
15401	17.912	3.8182	5.e-002	-4.3879
15402	18.189	3.8182	0.	-1264.9
15403	18.096	3.7273	0.	-1286.3
15404	18.096	3.8182	5.e-002	-4.3707
15405	18.373	3.8182	0.	-1222.
15406	18.281	3.7273	0.	-1243.3
15407	18.281	3.8182	5.e-002	-4.354
15408	18.558	3.8182	0.	-1179.3
15409	18.465	3.7273	0.	-1200.5
15410	18.465	3.8182	5.e-002	-4.3376
15411	18.742	3.8182	0.	-1136.8
15412	18.65	3.7273	0.	-1157.9
15413	18.65	3.8182	5.e-002	-4.3217
15414	18.927	3.8182	0.	-1094.6
15415	18.834	3.7273	0.	-1115.5
15416	18.834	3.8182	5.e-002	-4.3063
15417	19.111	3.8182	0.	-1052.5
15418	19.019	3.7273	0.	-1073.4
15419	19.019	3.8182	5.e-002	-4.2913
15420	19.296	3.8182	0.	-1010.6
15421	19.203	3.7273	0.	-1031.4
15422	19.203	3.8182	5.e-002	-4.2769
15423	19.48	3.8182	0.	-968.98
15424	19.388	3.7273	0.	-989.68
15425	19.388	3.8182	5.e-002	-4.2632
15426	19.665	3.8182	0.	-927.54
15427	19.572	3.7273	0.	-948.15
15428	19.572	3.8182	5.e-002	-4.2501
15429	19.849	3.8182	0.	-886.3
15430	19.757	3.7273	0.	-906.82
15431	19.757	3.8182	5.e-002	-4.2377
15432	20.033	3.8182	0.	-845.27
15433	19.941	3.7273	0.	-865.71
15434	19.941	3.8182	5.e-002	-4.2261
15435	20.218	3.8182	0.	-804.45
15436	20.126	3.7273	0.	-824.8
15437	20.126	3.8182	5.e-002	-4.2154
15438	20.402	3.8182	0.	-763.84
15439	20.31	3.7273	0.	-784.11
15440	20.31	3.8182	5.e-002	-4.2057
15441	20.587	3.8182	0.	-723.44
15442	20.495	3.7273	0.	-743.62
15443	20.495	3.8182	5.e-002	-4.1971
15444	20.771	3.8182	0.	-683.23
15445	20.679	3.7273	0.	-703.34
15446	20.679	3.8182	5.e-002	-4.1897
15447	20.956	3.8182	0.	-643.23
15448	20.864	3.7273	0.	-663.26
15449	20.864	3.8182	5.e-002	-4.1837
15450	21.14	3.8182	0.	-603.43
15451	21.048	3.7273	0.	-623.38
15452	21.048	3.8182	5.e-002	-4.1792
15453	21.325	3.8182	0.	-563.82
15454	21.233	3.7273	0.	-583.7
15455	21.233	3.8182	5.e-002	-4.1764
15456	21.509	3.8182	0.	-524.4
15457	21.417	3.7273	0.	-544.21
15458	21.417	3.8182	5.e-002	-4.1757
15459	21.694	3.8182	0.	-485.15
15460	21.602	3.7273	0.	-504.9
15461	21.602	3.8182	5.e-002	-4.1771
15462	21.878	3.8182	0.	-446.08
15463	21.786	3.7273	0.	-465.76
15464	21.786	3.8182	5.e-002	-4.1811
15465	22.063	3.8182	0.	-407.15
15466	21.971	3.7273	0.	-426.78
15467	21.971	3.8182	5.e-002	-4.1879
15468	22.247	3.8182	0.	-368.37
15469	22.155	3.7273	0.	-387.94
15470	22.155	3.8182	5.e-002	-4.198
15471	22.432	3.8182	0.	-329.7
15472	22.34	3.7273	0.	-349.22
15473	22.34	3.8182	5.e-002	-4.2118
15474	22.616	3.8182	0.	-291.11
15475	22.524	3.7273	0.	-310.59
15476	22.524	3.8182	5.e-002	-4.2296
15477	22.801	3.8182	0.	-252.58
15478	22.709	3.7273	0.	-272.03
15479	22.709	3.8182	5.e-002	-4.252
15480	22.985	3.8182	0.	-214.06
15481	22.893	3.7273	0.	-233.5
15482	22.893	3.8182	5.e-002	-4.2794
15483	23.17	3.8182	0.	-175.51
15484	23.078	3.7273	0.	-194.95
15485	23.078	3.8182	5.e-002	-4.312
15486	23.354	3.8182	0.	-136.88
15487	23.262	3.7273	0.	-156.33
15488	23.262	3.8182	5.e-002	-4.3502
15489	23.539	3.8182	0.	-98.112
15490	23.447	3.7273	0.	-117.61
15491	23.447	3.8182	5.e-002	-4.3938
15492	23.723	3.8182	0.	-59.239
15493	23.631	3.7273	0.	-78.728
15494	23.631	3.8182	5.e-002	-4.4437
15495	23.816	3.7273	0.	-39.843
15496	23.816	3.8182	5.e-002	-4.5191
15497	23.908	3.8182	0.	-22.452
15498	5.6434	3.6364	0.	-10710
15499	5.5512	3.5455	0.	-11333
15500	5.5512	3.6364	5.e-002	-190.24
15501	5.8279	3.6364	0.	-8926.9
15502	5.7356	3.5455	0.	-9637.6
15503	5.7356	3.6364	5.e-002	-149.15
15504	6.0124	3.6364	0.	-7676.5
15505	5.9201	3.5455	0.	-8292.4
15506	5.9201	3.6364	5.e-002	-107.22
15507	6.1969	3.6364	0.	-6805.7
15508	6.1046	3.5455	0.	-7300.8
15509	6.1046	3.6364	5.e-002	-75.196
15510	6.3814	3.6364	0.	-6174.3
15511	6.2891	3.5455	0.	-6564.
15512	6.2891	3.6364	5.e-002	-57.095
15513	6.5658	3.6364	0.	-5698.8
15514	6.4736	3.5455	0.	-6004.6
15515	6.4736	3.6364	5.e-002	-45.227
15516	6.7503	3.6364	0.	-5330.3
15517	6.6581	3.5455	0.	-5571.
15518	6.6581	3.6364	5.e-002	-36.741
15519	6.9348	3.6364	0.	-5038.1
15520	6.8426	3.5455	0.	-5228.9
15521	6.8426	3.6364	5.e-002	-30.34
15522	7.1193	3.6364	0.	-4802.
15523	7.0271	3.5455	0.	-4954.4
15524	7.0271	3.6364	5.e-002	-25.361
15525	7.3038	3.6364	0.	-4607.9
15526	7.2116	3.5455	0.	-4731.
15527	7.2116	3.6364	5.e-002	-21.421
15528	7.4883	3.6364	0.	-4445.8
15529	7.396	3.5455	0.	-4546.4
15530	7.396	3.6364	5.e-002	-18.275
15531	7.6728	3.6364	0.	-4308.3
15532	7.5805	3.5455	0.	-4391.5
15533	7.5805	3.6364	5.e-002	-15.753
15534	7.8573	3.6364	0.	-4189.9
15535	7.765	3.5455	0.	-4259.7
15536	7.765	3.6364	5.e-002	-13.727
15537	8.0417	3.6364	0.	-4086.2
15538	7.9495	3.5455	0.	-4145.7
15539	7.9495	3.6364	5.e-002	-12.098
15540	8.2262	3.6364	0.	-3994.
15541	8.134	3.5455	0.	-4045.6
15542	8.134	3.6364	5.e-002	-10.788
15543	8.4107	3.6364	0.	-3910.8
15544	8.3185	3.5455	0.	-3956.3
15545	8.3185	3.6364	5.e-002	-9.7344
15546	8.5952	3.6364	0.	-3834.7
15547	8.503	3.5455	0.	-3875.4
15548	8.503	3.6364	5.e-002	-8.887
15549	8.7797	3.6364	0.	-3764.1
15550	8.6875	3.5455	0.	-3801.2
15551	8.6875	3.6364	5.e-002	-8.205
15552	8.9642	3.6364	0.	-3697.8
15553	8.8719	3.5455	0.	-3732.1
15554	8.8719	3.6364	5.e-002	-7.6556
15555	9.1487	3.6364	0.	-3635.
15556	9.0564	3.5455	0.	-3667.
15557	9.0564	3.6364	5.e-002	-7.212
15558	9.3332	3.6364	0.	-3574.8
15559	9.2409	3.5455	0.	-3605.1
15560	9.2409	3.6364	5.e-002	-6.8527
15561	9.5177	3.6364	0.	-3516.7
15562	9.4254	3.5455	0.	-3545.8
15563	9.4254	3.6364	5.e-002	-6.5607
15564	9.7021	3.6364	0.	-3460.3
15565	9.6099	3.5455	0.	-3488.3
15566	9.6099	3.6364	5.e-002	-6.322
15567	9.8866	3.6364	0.	-3405.2
15568	9.7944	3.5455	0.	-3432.4
15569	9.7944	3.6364	5.e-002	-6.1257
15570	10.071	3.6364	0.	-3351.1
15571	9.9789	3.5455	0.	-3377.8
15572	9.9789	3.6364	5.e-002	-5.963
15573	10.256	3.6364	0.	-3297.9
15574	10.163	3.5455	0.	-3324.1
15575	10.163	3.6364	5.e-002	-5.8272
15576	10.44	3.6364	0.	-3245.4
15577	10.348	3.5455	0.	-3271.2
15578	10.348	3.6364	5.e-002	-5.7126
15579	10.625	3.6364	0.	-3193.5
15580	10.532	3.5455	0.	-3219.
15581	10.532	3.6364	5.e-002	-5.6149
15582	10.809	3.6364	0.	-3142.
15583	10.717	3.5455	0.	-3167.3
15584	10.717	3.6364	5.e-002	-5.5308
15585	10.994	3.6364	0.	-3091.
15586	10.901	3.5455	0.	-3116.
15587	10.901	3.6364	5.e-002	-5.4576
15588	11.178	3.6364	0.	-3040.2
15589	11.086	3.5455	0.	-3065.2
15590	11.086	3.6364	5.e-002	-5.3932
15591	11.363	3.6364	0.	-2989.8
15592	11.27	3.5455	0.	-3014.6
15593	11.27	3.6364	5.e-002	-5.3358
15594	11.547	3.6364	0.	-2939.6
15595	11.455	3.5455	0.	-2964.3
15596	11.455	3.6364	5.e-002	-5.2843
15597	11.732	3.6364	0.	-2889.7
15598	11.639	3.5455	0.	-2914.3
15599	11.639	3.6364	5.e-002	-5.2373
15600	11.916	3.6364	0.	-2840.
15601	11.824	3.5455	0.	-2864.5
15602	11.824	3.6364	5.e-002	-5.1942
15603	12.1	3.6364	0.	-2790.5
15604	12.008	3.5455	0.	-2814.9
15605	12.008	3.6364	5.e-002	-5.1543
15606	12.285	3.6364	0.	-2741.3
15607	12.193	3.5455	0.	-2765.6
15608	12.193	3.6364	5.e-002	-5.1169
15609	12.469	3.6364	0.	-2692.2
15610	12.377	3.5455	0.	-2716.4
15611	12.377	3.6364	5.e-002	-5.0819
15612	12.654	3.6364	0.	-2643.3
15613	12.562	3.5455	0.	-2667.4
15614	12.562	3.6364	5.e-002	-5.0486
15615	12.838	3.6364	0.	-2594.6
15616	12.746	3.5455	0.	-2618.6
15617	12.746	3.6364	5.e-002	-5.017
15618	13.023	3.6364	0.	-2546.1
15619	12.931	3.5455	0.	-2570.
15620	12.931	3.6364	5.e-002	-4.9867
15621	13.207	3.6364	0.	-2497.7
15622	13.115	3.5455	0.	-2521.6
15623	13.115	3.6364	5.e-002	-4.9576
15624	13.392	3.6364	0.	-2449.6
15625	13.3	3.5455	0.	-2473.4
15626	13.3	3.6364	5.e-002	-4.9294
15627	13.576	3.6364	0.	-2401.6
15628	13.484	3.5455	0.	-2425.3
15629	13.484	3.6364	5.e-002	-4.9022
15630	13.761	3.6364	0.	-2353.8
15631	13.669	3.5455	0.	-2377.5
15632	13.669	3.6364	5.e-002	-4.8757
15633	13.945	3.6364	0.	-2306.2
15634	13.853	3.5455	0.	-2329.8
15635	13.853	3.6364	5.e-002	-4.85
15636	14.13	3.6364	0.	-2258.8
15637	14.038	3.5455	0.	-2282.3
15638	14.038	3.6364	5.e-002	-4.8248
15639	14.314	3.6364	0.	-2211.6
15640	14.222	3.5455	0.	-2235.
15641	14.222	3.6364	5.e-002	-4.8003
15642	14.499	3.6364	0.	-2164.6
15643	14.407	3.5455	0.	-2187.8
15644	14.407	3.6364	5.e-002	-4.7763
15645	14.683	3.6364	0.	-2117.7
15646	14.591	3.5455	0.	-2140.9
15647	14.591	3.6364	5.e-002	-4.7527
15648	14.868	3.6364	0.	-2071.
15649	14.776	3.5455	0.	-2094.1
15650	14.776	3.6364	5.e-002	-4.7297
15651	15.052	3.6364	0.	-2024.6
15652	14.96	3.5455	0.	-2047.6
15653	14.96	3.6364	5.e-002	-4.7069
15654	15.237	3.6364	0.	-1978.3
15655	15.145	3.5455	0.	-2001.2
15656	15.145	3.6364	5.e-002	-4.6846
15657	15.421	3.6364	0.	-1932.2
15658	15.329	3.5455	0.	-1955.
15659	15.329	3.6364	5.e-002	-4.6627
15660	15.606	3.6364	0.	-1886.3
15661	15.514	3.5455	0.	-1909.1
15662	15.514	3.6364	5.e-002	-4.6411
15663	15.79	3.6364	0.	-1840.6
15664	15.698	3.5455	0.	-1863.3
15665	15.698	3.6364	5.e-002	-4.6197
15666	15.975	3.6364	0.	-1795.1
15667	15.883	3.5455	0.	-1817.7
15668	15.883	3.6364	5.e-002	-4.5988
15669	16.159	3.6364	0.	-1749.8
15670	16.067	3.5455	0.	-1772.3
15671	16.067	3.6364	5.e-002	-4.5781
15672	16.344	3.6364	0.	-1704.7
15673	16.251	3.5455	0.	-1727.1
15674	16.251	3.6364	5.e-002	-4.5577
15675	16.528	3.6364	0.	-1659.8
15676	16.436	3.5455	0.	-1682.1
15677	16.436	3.6364	5.e-002	-4.5377
15678	16.713	3.6364	0.	-1615.1
15679	16.62	3.5455	0.	-1637.2
15680	16.62	3.6364	5.e-002	-4.518
15681	16.897	3.6364	0.	-1570.6
15682	16.805	3.5455	0.	-1592.6
15683	16.805	3.6364	5.e-002	-4.4985
15684	17.082	3.6364	0.	-1526.3
15685	16.989	3.5455	0.	-1548.2
15686	16.989	3.6364	5.e-002	-4.4794
15687	17.266	3.6364	0.	-1482.2
15688	17.174	3.5455	0.	-1504.
15689	17.174	3.6364	5.e-002	-4.4605
15690	17.451	3.6364	0.	-1438.3
15691	17.358	3.5455	0.	-1460.
15692	17.358	3.6364	5.e-002	-4.442
15693	17.635	3.6364	0.	-1394.5
15694	17.543	3.5455	0.	-1416.2
15695	17.543	3.6364	5.e-002	-4.4237
15696	17.82	3.6364	0.	-1351.
15697	17.727	3.5455	0.	-1372.6
15698	17.727	3.6364	5.e-002	-4.4059
15699	18.004	3.6364	0.	-1307.8
15700	17.912	3.5455	0.	-1329.2
15701	17.912	3.6364	5.e-002	-4.3884
15702	18.189	3.6364	0.	-1264.7
15703	18.096	3.5455	0.	-1286.
15704	18.096	3.6364	5.e-002	-4.3713
15705	18.373	3.6364	0.	-1221.8
15706	18.281	3.5455	0.	-1243.1
15707	18.281	3.6364	5.e-002	-4.3545
15708	18.558	3.6364	0.	-1179.1
15709	18.465	3.5455	0.	-1200.3
15710	18.465	3.6364	5.e-002	-4.3382
15711	18.742	3.6364	0.	-1136.6
15712	18.65	3.5455	0.	-1157.7
15713	18.65	3.6364	5.e-002	-4.3223
15714	18.927	3.6364	0.	-1094.4
15715	18.834	3.5455	0.	-1115.4
15716	18.834	3.6364	5.e-002	-4.3069
15717	19.111	3.6364	0.	-1052.3
15718	19.019	3.5455	0.	-1073.2
15719	19.019	3.6364	5.e-002	-4.292
15720	19.296	3.6364	0.	-1010.5
15721	19.203	3.5455	0.	-1031.3
15722	19.203	3.6364	5.e-002	-4.2777
15723	19.48	3.6364	0.	-968.88
15724	19.388	3.5455	0.	-989.58
15725	19.388	3.6364	5.e-002	-4.264
15726	19.665	3.6364	0.	-927.47
15727	19.572	3.5455	0.	-948.08
15728	19.572	3.6364	5.e-002	-4.2509
15729	19.849	3.6364	0.	-886.26
15730	19.757	3.5455	0.	-906.78
15731	19.757	3.6364	5.e-002	-4.2387
15732	20.033	3.6364	0.	-845.27
15733	19.941	3.5455	0.	-865.69
15734	19.941	3.6364	5.e-002	-4.2272
15735	20.218	3.6364	0.	-804.49
15736	20.126	3.5455	0.	-824.82
15737	20.126	3.6364	5.e-002	-4.2166
15738	20.402	3.6364	0.	-763.92
15739	20.31	3.5455	0.	-784.16
15740	20.31	3.6364	5.e-002	-4.2071
15741	20.587	3.6364	0.	-723.55
15742	20.495	3.5455	0.	-743.71
15743	20.495	3.6364	5.e-002	-4.1987
15744	20.771	3.6364	0.	-683.4
15745	20.679	3.5455	0.	-703.46
15746	20.679	3.6364	5.e-002	-4.1915
15747	20.956	3.6364	0.	-643.44
15748	20.864	3.5455	0.	-663.42
15749	20.864	3.6364	5.e-002	-4.1857
15750	21.14	3.6364	0.	-603.68
15751	21.048	3.5455	0.	-623.59
15752	21.048	3.6364	5.e-002	-4.1816
15753	21.325	3.6364	0.	-564.12
15754	21.233	3.5455	0.	-583.94
15755	21.233	3.6364	5.e-002	-4.1792
15756	21.509	3.6364	0.	-524.73
15757	21.417	3.5455	0.	-544.49
15758	21.417	3.6364	5.e-002	-4.1789
15759	21.694	3.6364	0.	-485.53
15760	21.602	3.5455	0.	-505.21
15761	21.602	3.6364	5.e-002	-4.1808
15762	21.878	3.6364	0.	-446.48
15763	21.786	3.5455	0.	-466.1
15764	21.786	3.6364	5.e-002	-4.1854
15765	22.063	3.6364	0.	-407.58
15766	21.971	3.5455	0.	-427.15
15767	21.971	3.6364	5.e-002	-4.1928
15768	22.247	3.6364	0.	-368.81
15769	22.155	3.5455	0.	-388.32
15770	22.155	3.6364	5.e-002	-4.2035
15771	22.432	3.6364	0.	-330.13
15772	22.34	3.5455	0.	-349.61
15773	22.34	3.6364	5.e-002	-4.2178
15774	22.616	3.6364	0.	-291.53
15775	22.524	3.5455	0.	-310.97
15776	22.524	3.6364	5.e-002	-4.2361
15777	22.801	3.6364	0.	-252.97
15778	22.709	3.5455	0.	-272.39
15779	22.709	3.6364	5.e-002	-4.2589
15780	22.985	3.6364	0.	-214.4
15781	22.893	3.5455	0.	-233.81
15782	22.893	3.6364	5.e-002	-4.2864
15783	23.17	3.6364	0.	-175.78
15784	23.078	3.5455	0.	-195.21
15785	23.078	3.6364	5.e-002	-4.3188
15786	23.354	3.6364	0.	-137.07
15787	23.262	3.5455	0.	-156.53
15788	23.262	3.6364	5.e-002	-4.3562
15789	23.539	3.6364	0.	-98.219
15790	23.447	3.5455	0.	-117.74
15791	23.447	3.6364	5.e-002	-4.3986
15792	23.723	3.6364	0.	-59.255
15793	23.631	3.5455	0.	-78.78
15794	23.631	3.6364	5.e-002	-4.4463
15795	23.816	3.5455	0.	-39.815
15796	23.816	3.6364	5.e-002	-4.5126
15797	23.908	3.6364	0.	-22.427
15798	5.6434	3.4545	0.	-10280
15799	5.5512	3.3636	0.	-10685
15800	5.5512	3.4545	5.e-002	-107.48
15801	5.8279	3.4545	0.	-9021.3
15802	5.7356	3.3636	0.	-9557.7
15803	5.7356	3.4545	5.e-002	-113.2
15804	6.0124	3.4545	0.	-7925.4
15805	5.9201	3.3636	0.	-8446.2
15806	5.9201	3.4545	5.e-002	-93.393
15807	6.1969	3.4545	0.	-7062.6
15808	6.1046	3.3636	0.	-7511.
15809	6.1046	3.4545	5.e-002	-74.826
15810	6.3814	3.4545	0.	-6395.6
15811	6.2891	3.3636	0.	-6762.4
15812	6.2891	3.4545	5.e-002	-59.718
15813	6.5658	3.4545	0.	-5877.2
15814	6.4736	3.3636	0.	-6171.1
15815	6.4736	3.4545	5.e-002	-48.234
15816	6.7503	3.4545	0.	-5469.7
15817	6.6581	3.3636	0.	-5703.7
15818	6.6581	3.4545	5.e-002	-39.412
15819	6.9348	3.4545	0.	-5145.2
15820	6.8426	3.3636	0.	-5331.8
15821	6.8426	3.4545	5.e-002	-32.518
15822	7.1193	3.4545	0.	-4883.4
15823	7.0271	3.3636	0.	-5033.1
15824	7.0271	3.4545	5.e-002	-27.071
15825	7.3038	3.4545	0.	-4669.4
15826	7.2116	3.3636	0.	-4790.6
15827	7.2116	3.4545	5.e-002	-22.743
15828	7.4883	3.4545	0.	-4492.1
15829	7.396	3.3636	0.	-4591.2
15830	7.396	3.4545	5.e-002	-19.295
15831	7.6728	3.4545	0.	-4342.9
15832	7.5805	3.3636	0.	-4425.1
15833	7.5805	3.4545	5.e-002	-16.542
15834	7.8573	3.4545	0.	-4215.6
15835	7.765	3.3636	0.	-4284.7
15836	7.765	3.4545	5.e-002	-14.341
15837	8.0417	3.4545	0.	-4105.1
15838	7.9495	3.3636	0.	-4164.2
15839	7.9495	3.4545	5.e-002	-12.581
15840	8.2262	3.4545	0.	-4007.9
15841	8.134	3.3636	0.	-4059.2
15842	8.134	3.4545	5.e-002	-11.17
15843	8.4107	3.4545	0.	-3920.9
15844	8.3185	3.3636	0.	-3966.2
15845	8.3185	3.4545	5.e-002	-10.04
15846	8.5952	3.4545	0.	-3841.9
15847	8.503	3.3636	0.	-3882.5
15848	8.503	3.4545	5.e-002	-9.1329
15849	8.7797	3.4545	0.	-3769.2
15850	8.6875	3.3636	0.	-3806.2
15851	8.6875	3.4545	5.e-002	-8.4039
15852	8.9642	3.4545	0.	-3701.3
15853	8.8719	3.3636	0.	-3735.6
15854	8.8719	3.4545	5.e-002	-7.8168
15855	9.1487	3.4545	0.	-3637.2
15856	9.0564	3.3636	0.	-3669.3
15857	9.0564	3.4545	5.e-002	-7.3429
15858	9.3332	3.4545	0.	-3576.1
15859	9.2409	3.3636	0.	-3606.6
15860	9.2409	3.4545	5.e-002	-6.9591
15861	9.5177	3.4545	0.	-3517.4
15862	9.4254	3.3636	0.	-3546.6
15863	9.4254	3.4545	5.e-002	-6.647
15864	9.7021	3.4545	0.	-3460.5
15865	9.6099	3.3636	0.	-3488.7
15866	9.6099	3.4545	5.e-002	-6.3919
15867	9.8866	3.4545	0.	-3405.1
15868	9.7944	3.3636	0.	-3432.5
15869	9.7944	3.4545	5.e-002	-6.1823
15870	10.071	3.4545	0.	-3350.8
15871	9.9789	3.3636	0.	-3377.6
15872	9.9789	3.4545	5.e-002	-6.0088
15873	10.256	3.4545	0.	-3297.5
15874	10.163	3.3636	0.	-3323.8
15875	10.163	3.4545	5.e-002	-5.8641
15876	10.44	3.4545	0.	-3244.8
15877	10.348	3.3636	0.	-3270.8
15878	10.348	3.4545	5.e-002	-5.7423
15879	10.625	3.4545	0.	-3192.8
15880	10.532	3.3636	0.	-3218.5
15881	10.532	3.4545	5.e-002	-5.6388
15882	10.809	3.4545	0.	-3141.3
15883	10.717	3.3636	0.	-3166.8
15884	10.717	3.4545	5.e-002	-5.5501
15885	10.994	3.4545	0.	-3090.3
15886	10.901	3.3636	0.	-3115.5
15887	10.901	3.4545	5.e-002	-5.4732
15888	11.178	3.4545	0.	-3039.5
15889	11.086	3.3636	0.	-3064.6
15890	11.086	3.4545	5.e-002	-5.4057
15891	11.363	3.4545	0.	-2989.1
15892	11.27	3.3636	0.	-3014.
15893	11.27	3.4545	5.e-002	-5.346
15894	11.547	3.4545	0.	-2939.
15895	11.455	3.3636	0.	-2963.8
15896	11.455	3.4545	5.e-002	-5.2925
15897	11.732	3.4545	0.	-2889.1
15898	11.639	3.3636	0.	-2913.7
15899	11.639	3.4545	5.e-002	-5.244
15900	11.916	3.4545	0.	-2839.4
15901	11.824	3.3636	0.	-2864.
15902	11.824	3.4545	5.e-002	-5.1997
15903	12.1	3.4545	0.	-2790.
15904	12.008	3.3636	0.	-2814.4
15905	12.008	3.4545	5.e-002	-5.1587
15906	12.285	3.4545	0.	-2740.7
15907	12.193	3.3636	0.	-2765.1
15908	12.193	3.4545	5.e-002	-5.1206
15909	12.469	3.4545	0.	-2691.6
15910	12.377	3.3636	0.	-2715.9
15911	12.377	3.4545	5.e-002	-5.0849
15912	12.654	3.4545	0.	-2642.8
15913	12.562	3.3636	0.	-2667.
15914	12.562	3.4545	5.e-002	-5.0512
15915	12.838	3.4545	0.	-2594.1
15916	12.746	3.3636	0.	-2618.2
15917	12.746	3.4545	5.e-002	-5.0191
15918	13.023	3.4545	0.	-2545.6
15919	12.931	3.3636	0.	-2569.6
15920	12.931	3.4545	5.e-002	-4.9885
15921	13.207	3.4545	0.	-2497.3
15922	13.115	3.3636	0.	-2521.2
15923	13.115	3.4545	5.e-002	-4.9591
15924	13.392	3.4545	0.	-2449.1
15925	13.3	3.3636	0.	-2473.
15926	13.3	3.4545	5.e-002	-4.9308
15927	13.576	3.4545	0.	-2401.2
15928	13.484	3.3636	0.	-2425.
15929	13.484	3.4545	5.e-002	-4.9034
15930	13.761	3.4545	0.	-2353.4
15931	13.669	3.3636	0.	-2377.1
15932	13.669	3.4545	5.e-002	-4.8768
15933	13.945	3.4545	0.	-2305.8
15934	13.853	3.3636	0.	-2329.4
15935	13.853	3.4545	5.e-002	-4.8509
15936	14.13	3.4545	0.	-2258.4
15937	14.038	3.3636	0.	-2282.
15938	14.038	3.4545	5.e-002	-4.8257
15939	14.314	3.4545	0.	-2211.2
15940	14.222	3.3636	0.	-2234.7
15941	14.222	3.4545	5.e-002	-4.801
15942	14.499	3.4545	0.	-2164.2
15943	14.407	3.3636	0.	-2187.5
15944	14.407	3.4545	5.e-002	-4.7769
15945	14.683	3.4545	0.	-2117.4
15946	14.591	3.3636	0.	-2140.6
15947	14.591	3.4545	5.e-002	-4.7533
15948	14.868	3.4545	0.	-2070.7
15949	14.776	3.3636	0.	-2093.9
15950	14.776	3.4545	5.e-002	-4.7302
15951	15.052	3.4545	0.	-2024.3
15952	14.96	3.3636	0.	-2047.3
15953	14.96	3.4545	5.e-002	-4.7075
15954	15.237	3.4545	0.	-1978.
15955	15.145	3.3636	0.	-2001.
15956	15.145	3.4545	5.e-002	-4.6851
15957	15.421	3.4545	0.	-1931.9
15958	15.329	3.3636	0.	-1954.8
15959	15.329	3.4545	5.e-002	-4.6631
15960	15.606	3.4545	0.	-1886.
15961	15.514	3.3636	0.	-1908.8
15962	15.514	3.4545	5.e-002	-4.6415
15963	15.79	3.4545	0.	-1840.3
15964	15.698	3.3636	0.	-1863.
15965	15.698	3.4545	5.e-002	-4.6202
15966	15.975	3.4545	0.	-1794.8
15967	15.883	3.3636	0.	-1817.4
15968	15.883	3.4545	5.e-002	-4.5992
15969	16.159	3.4545	0.	-1749.5
15970	16.067	3.3636	0.	-1772.
15971	16.067	3.4545	5.e-002	-4.5785
15972	16.344	3.4545	0.	-1704.4
15973	16.251	3.3636	0.	-1726.8
15974	16.251	3.4545	5.e-002	-4.5581
15975	16.528	3.4545	0.	-1659.5
15976	16.436	3.3636	0.	-1681.8
15977	16.436	3.4545	5.e-002	-4.5381
15978	16.713	3.4545	0.	-1614.8
15979	16.62	3.3636	0.	-1637.
15980	16.62	3.4545	5.e-002	-4.5183
15981	16.897	3.4545	0.	-1570.3
15982	16.805	3.3636	0.	-1592.4
15983	16.805	3.4545	5.e-002	-4.4989
15984	17.082	3.4545	0.	-1526.
15985	16.989	3.3636	0.	-1548.
15986	16.989	3.4545	5.e-002	-4.4797
15987	17.266	3.4545	0.	-1481.9
15988	17.174	3.3636	0.	-1503.8
15989	17.174	3.4545	5.e-002	-4.4609
15990	17.451	3.4545	0.	-1438.
15991	17.358	3.3636	0.	-1459.8
15992	17.358	3.4545	5.e-002	-4.4423
15993	17.635	3.4545	0.	-1394.3
15994	17.543	3.3636	0.	-1416.
15995	17.543	3.4545	5.e-002	-4.4241
15996	17.82	3.4545	0.	-1350.8
15997	17.727	3.3636	0.	-1372.4
15998	17.727	3.4545	5.e-002	-4.4062
15999	18.004	3.4545	0.	-1307.6
16000	17.912	3.3636	0.	-1329.1
16001	17.912	3.4545	5.e-002	-4.3887
16002	18.189	3.4545	0.	-1264.5
16003	18.096	3.3636	0.	-1285.9
16004	18.096	3.4545	5.e-002	-4.3716
16005	18.373	3.4545	0.	-1221.6
16006	18.281	3.3636	0.	-1242.9
16007	18.281	3.4545	5.e-002	-4.3549
16008	18.558	3.4545	0.	-1179.
16009	18.465	3.3636	0.	-1200.2
16010	18.465	3.4545	5.e-002	-4.3386
16011	18.742	3.4545	0.	-1136.5
16012	18.65	3.3636	0.	-1157.6
16013	18.65	3.4545	5.e-002	-4.3227
16014	18.927	3.4545	0.	-1094.3
16015	18.834	3.3636	0.	-1115.3
16016	18.834	3.4545	5.e-002	-4.3073
16017	19.111	3.4545	0.	-1052.2
16018	19.019	3.3636	0.	-1073.1
16019	19.019	3.4545	5.e-002	-4.2925
16020	19.296	3.4545	0.	-1010.4
16021	19.203	3.3636	0.	-1031.2
16022	19.203	3.4545	5.e-002	-4.2782
16023	19.48	3.4545	0.	-968.81
16024	19.388	3.3636	0.	-989.52
16025	19.388	3.4545	5.e-002	-4.2645
16026	19.665	3.4545	0.	-927.42
16027	19.572	3.3636	0.	-948.03
16028	19.572	3.4545	5.e-002	-4.2516
16029	19.849	3.4545	0.	-886.24
16030	19.757	3.3636	0.	-906.75
16031	19.757	3.4545	5.e-002	-4.2394
16032	20.033	3.4545	0.	-845.28
16033	19.941	3.3636	0.	-865.69
16034	19.941	3.4545	5.e-002	-4.228
16035	20.218	3.4545	0.	-804.53
16036	20.126	3.3636	0.	-824.84
16037	20.126	3.4545	5.e-002	-4.2176
16038	20.402	3.4545	0.	-763.98
16039	20.31	3.3636	0.	-784.21
16040	20.31	3.4545	5.e-002	-4.2081
16041	20.587	3.4545	0.	-723.65
16042	20.495	3.3636	0.	-743.78
16043	20.495	3.4545	5.e-002	-4.1999
16044	20.771	3.4545	0.	-683.53
16045	20.679	3.3636	0.	-703.56
16046	20.679	3.4545	5.e-002	-4.1929
16047	20.956	3.4545	0.	-643.6
16048	20.864	3.3636	0.	-663.55
16049	20.864	3.4545	5.e-002	-4.1873
16050	21.14	3.4545	0.	-603.88
16051	21.048	3.3636	0.	-623.74
16052	21.048	3.4545	5.e-002	-4.1834
16053	21.325	3.4545	0.	-564.35
16054	21.233	3.3636	0.	-584.13
16055	21.233	3.4545	5.e-002	-4.1813
16056	21.509	3.4545	0.	-525.
16057	21.417	3.3636	0.	-544.7
16058	21.417	3.4545	5.e-002	-4.1813
16059	21.694	3.4545	0.	-485.82
16060	21.602	3.3636	0.	-505.45
16061	21.602	3.4545	5.e-002	-4.1836
16062	21.878	3.4545	0.	-446.79
16063	21.786	3.3636	0.	-466.36
16064	21.786	3.4545	5.e-002	-4.1886
16065	22.063	3.4545	0.	-407.91
16066	21.971	3.3636	0.	-427.41
16067	21.971	3.4545	5.e-002	-4.1964
16068	22.247	3.4545	0.	-369.14
16069	22.155	3.3636	0.	-388.6
16070	22.155	3.4545	5.e-002	-4.2076
16071	22.432	3.4545	0.	-330.46
16072	22.34	3.3636	0.	-349.88
16073	22.34	3.4545	5.e-002	-4.2223
16074	22.616	3.4545	0.	-291.84
16075	22.524	3.3636	0.	-311.24
16076	22.524	3.4545	5.e-002	-4.241
16077	22.801	3.4545	0.	-253.25
16078	22.709	3.3636	0.	-272.64
16079	22.709	3.4545	5.e-002	-4.264
16080	22.985	3.4545	0.	-214.64
16081	22.893	3.3636	0.	-234.04
16082	22.893	3.4545	5.e-002	-4.2915
16083	23.17	3.4545	0.	-175.97
16084	23.078	3.3636	0.	-195.4
16085	23.078	3.4545	5.e-002	-4.3236
16086	23.354	3.4545	0.	-137.21
16087	23.262	3.3636	0.	-156.67
16088	23.262	3.4545	5.e-002	-4.3606
16089	23.539	3.4545	0.	-98.293
16090	23.447	3.3636	0.	-117.83
16091	23.447	3.4545	5.e-002	-4.402
16092	23.723	3.4545	0.	-59.263
16093	23.631	3.3636	0.	-78.815
16094	23.631	3.4545	5.e-002	-4.448
16095	23.816	3.3636	0.	-39.794
16096	23.816	3.4545	5.e-002	-4.5076
16097	23.908	3.4545	0.	-22.408
16098	5.6434	3.2727	0.	-9972.8
16099	5.5512	3.1818	0.	-10327
16100	5.5512	3.2727	5.e-002	-67.238
16101	5.8279	3.2727	0.	-8996.3
16102	5.7356	3.1818	0.	-9452.4
16103	5.7356	3.2727	5.e-002	-83.566
16104	6.0124	3.2727	0.	-8041.4
16105	5.9201	3.1818	0.	-8496.8
16106	5.9201	3.2727	5.e-002	-81.607
16107	6.1969	3.2727	0.	-7216.2
16108	6.1046	3.1818	0.	-7619.2
16109	6.1046	3.2727	5.e-002	-71.704
16110	6.3814	3.2727	0.	-6540.7
16111	6.2891	3.1818	0.	-6876.8
16112	6.2891	3.2727	5.e-002	-60.389
16113	6.5658	3.2727	0.	-5998.9
16114	6.4736	3.1818	0.	-6271.6
16115	6.4736	3.2727	5.e-002	-50.021
16116	6.7503	3.2727	0.	-5566.4
16117	6.6581	3.1818	0.	-5785.4
16118	6.6581	3.2727	5.e-002	-41.251
16119	6.9348	3.2727	0.	-5220.
16120	6.8426	3.1818	0.	-5395.7
16121	6.8426	3.2727	5.e-002	-34.08
16122	7.1193	3.2727	0.	-4940.4
16123	7.0271	3.1818	0.	-5082.1
16124	7.0271	3.2727	5.e-002	-28.309
16125	7.3038	3.2727	0.	-4712.4
16126	7.2116	3.1818	0.	-4827.7
16127	7.2116	3.2727	5.e-002	-23.696
16128	7.4883	3.2727	0.	-4524.3
16129	7.396	3.1818	0.	-4619.1
16130	7.396	3.2727	5.e-002	-20.021
16131	7.6728	3.2727	0.	-4366.9
16132	7.5805	3.1818	0.	-4445.9
16133	7.5805	3.2727	5.e-002	-17.096
16134	7.8573	3.2727	0.	-4233.3
16135	7.765	3.1818	0.	-4300.2
16136	7.765	3.2727	5.e-002	-14.767
16137	8.0417	3.2727	0.	-4118.2
16138	7.9495	3.1818	0.	-4175.6
16139	7.9495	3.2727	5.e-002	-12.911
16140	8.2262	3.2727	0.	-4017.5
16141	8.134	3.1818	0.	-4067.6
16142	8.134	3.2727	5.e-002	-11.43
16143	8.4107	3.2727	0.	-3927.8
16144	8.3185	3.1818	0.	-3972.3
16145	8.3185	3.2727	5.e-002	-10.246
16146	8.5952	3.2727	0.	-3846.8
16147	8.503	3.1818	0.	-3886.9
16148	8.503	3.2727	5.e-002	-9.2973
16149	8.7797	3.2727	0.	-3772.6
16150	8.6875	3.1818	0.	-3809.3
16151	8.6875	3.2727	5.e-002	-8.5363
16152	8.9642	3.2727	0.	-3703.6
16153	8.8719	3.1818	0.	-3737.7
16154	8.8719	3.2727	5.e-002	-7.924
16155	9.1487	3.2727	0.	-3638.7
16156	9.0564	3.1818	0.	-3670.8
16157	9.0564	3.2727	5.e-002	-7.4299
16158	9.3332	3.2727	0.	-3577.1
16159	9.2409	3.1818	0.	-3607.5
16160	9.2409	3.2727	5.e-002	-7.0298
16161	9.5177	3.2727	0.	-3517.9
16162	9.4254	3.1818	0.	-3547.1
16163	9.4254	3.2727	5.e-002	-6.7045
16164	9.7021	3.2727	0.	-3460.7
16165	9.6099	3.1818	0.	-3488.9
16166	9.6099	3.2727	5.e-002	-6.4386
16167	9.8866	3.2727	0.	-3405.
16168	9.7944	3.1818	0.	-3432.5
16169	9.7944	3.2727	5.e-002	-6.2201
16170	10.071	3.2727	0.	-3350.6
16171	9.9789	3.1818	0.	-3377.5
16172	9.9789	3.2727	5.e-002	-6.0394
16173	10.256	3.2727	0.	-3297.1
16174	10.163	3.1818	0.	-3323.6
16175	10.163	3.2727	5.e-002	-5.8889
16176	10.44	3.2727	0.	-3244.5
16177	10.348	3.1818	0.	-3270.5
16178	10.348	3.2727	5.e-002	-5.7623
16179	10.625	3.2727	0.	-3192.4
16180	10.532	3.1818	0.	-3218.2
16181	10.532	3.2727	5.e-002	-5.655
16182	10.809	3.2727	0.	-3140.9
16183	10.717	3.1818	0.	-3166.4
16184	10.717	3.2727	5.e-002	-5.5631
16185	10.994	3.2727	0.	-3089.8
16186	10.901	3.1818	0.	-3115.1
16187	10.901	3.2727	5.e-002	-5.4837
16188	11.178	3.2727	0.	-3039.1
16189	11.086	3.1818	0.	-3064.2
16190	11.086	3.2727	5.e-002	-5.4142
16191	11.363	3.2727	0.	-2988.7
16192	11.27	3.1818	0.	-3013.7
16193	11.27	3.2727	5.e-002	-5.3528
16194	11.547	3.2727	0.	-2938.5
16195	11.455	3.1818	0.	-2963.4
16196	11.455	3.2727	5.e-002	-5.298
16197	11.732	3.2727	0.	-2888.7
16198	11.639	3.1818	0.	-2913.4
16199	11.639	3.2727	5.e-002	-5.2485
16200	11.916	3.2727	0.	-2839.
16201	11.824	3.1818	0.	-2863.7
16202	11.824	3.2727	5.e-002	-5.2034
16203	12.1	3.2727	0.	-2789.6
16204	12.008	3.1818	0.	-2814.1
16205	12.008	3.2727	5.e-002	-5.1617
16206	12.285	3.2727	0.	-2740.3
16207	12.193	3.1818	0.	-2764.8
16208	12.193	3.2727	5.e-002	-5.1231
16209	12.469	3.2727	0.	-2691.3
16210	12.377	3.1818	0.	-2715.7
16211	12.377	3.2727	5.e-002	-5.087
16212	12.654	3.2727	0.	-2642.4
16213	12.562	3.1818	0.	-2666.7
16214	12.562	3.2727	5.e-002	-5.0529
16215	12.838	3.2727	0.	-2593.8
16216	12.746	3.1818	0.	-2618.
16217	12.746	3.2727	5.e-002	-5.0206
16218	13.023	3.2727	0.	-2545.3
16219	12.931	3.1818	0.	-2569.4
16220	12.931	3.2727	5.e-002	-4.9897
16221	13.207	3.2727	0.	-2497.
16222	13.115	3.1818	0.	-2521.
16223	13.115	3.2727	5.e-002	-4.9602
16224	13.392	3.2727	0.	-2448.9
16225	13.3	3.1818	0.	-2472.8
16226	13.3	3.2727	5.e-002	-4.9317
16227	13.576	3.2727	0.	-2400.9
16228	13.484	3.1818	0.	-2424.8
16229	13.484	3.2727	5.e-002	-4.9042
16230	13.761	3.2727	0.	-2353.2
16231	13.669	3.1818	0.	-2376.9
16232	13.669	3.2727	5.e-002	-4.8775
16233	13.945	3.2727	0.	-2305.6
16234	13.853	3.1818	0.	-2329.2
16235	13.853	3.2727	5.e-002	-4.8515
16236	14.13	3.2727	0.	-2258.2
16237	14.038	3.1818	0.	-2281.8
16238	14.038	3.2727	5.e-002	-4.8262
16239	14.314	3.2727	0.	-2211.
16240	14.222	3.1818	0.	-2234.5
16241	14.222	3.2727	5.e-002	-4.8016
16242	14.499	3.2727	0.	-2164.
16243	14.407	3.1818	0.	-2187.4
16244	14.407	3.2727	5.e-002	-4.7774
16245	14.683	3.2727	0.	-2117.1
16246	14.591	3.1818	0.	-2140.4
16247	14.591	3.2727	5.e-002	-4.7538
16248	14.868	3.2727	0.	-2070.5
16249	14.776	3.1818	0.	-2093.7
16250	14.776	3.2727	5.e-002	-4.7306
16251	15.052	3.2727	0.	-2024.
16252	14.96	3.1818	0.	-2047.1
16253	14.96	3.2727	5.e-002	-4.7078
16254	15.237	3.2727	0.	-1977.8
16255	15.145	3.1818	0.	-2000.8
16256	15.145	3.2727	5.e-002	-4.6855
16257	15.421	3.2727	0.	-1931.7
16258	15.329	3.1818	0.	-1954.6
16259	15.329	3.2727	5.e-002	-4.6634
16260	15.606	3.2727	0.	-1885.8
16261	15.514	3.1818	0.	-1908.6
16262	15.514	3.2727	5.e-002	-4.6418
16263	15.79	3.2727	0.	-1840.1
16264	15.698	3.1818	0.	-1862.9
16265	15.698	3.2727	5.e-002	-4.6205
16266	15.975	3.2727	0.	-1794.6
16267	15.883	3.1818	0.	-1817.3
16268	15.883	3.2727	5.e-002	-4.5994
16269	16.159	3.2727	0.	-1749.4
16270	16.067	3.1818	0.	-1771.9
16271	16.067	3.2727	5.e-002	-4.5788
16272	16.344	3.2727	0.	-1704.3
16273	16.251	3.1818	0.	-1726.7
16274	16.251	3.2727	5.e-002	-4.5584
16275	16.528	3.2727	0.	-1659.4
16276	16.436	3.1818	0.	-1681.7
16277	16.436	3.2727	5.e-002	-4.5383
16278	16.713	3.2727	0.	-1614.7
16279	16.62	3.1818	0.	-1636.9
16280	16.62	3.2727	5.e-002	-4.5186
16281	16.897	3.2727	0.	-1570.2
16282	16.805	3.1818	0.	-1592.3
16283	16.805	3.2727	5.e-002	-4.4991
16284	17.082	3.2727	0.	-1525.9
16285	16.989	3.1818	0.	-1547.9
16286	16.989	3.2727	5.e-002	-4.48
16287	17.266	3.2727	0.	-1481.8
16288	17.174	3.1818	0.	-1503.7
16289	17.174	3.2727	5.e-002	-4.4611
16290	17.451	3.2727	0.	-1437.9
16291	17.358	3.1818	0.	-1459.7
16292	17.358	3.2727	5.e-002	-4.4426
16293	17.635	3.2727	0.	-1394.2
16294	17.543	3.1818	0.	-1415.9
16295	17.543	3.2727	5.e-002	-4.4243
16296	17.82	3.2727	0.	-1350.7
16297	17.727	3.1818	0.	-1372.3
16298	17.727	3.2727	5.e-002	-4.4065
16299	18.004	3.2727	0.	-1307.4
16300	17.912	3.1818	0.	-1329.
16301	17.912	3.2727	5.e-002	-4.389
16302	18.189	3.2727	0.	-1264.4
16303	18.096	3.1818	0.	-1285.8
16304	18.096	3.2727	5.e-002	-4.3719
16305	18.373	3.2727	0.	-1221.5
16306	18.281	3.1818	0.	-1242.8
16307	18.281	3.2727	5.e-002	-4.3552
16308	18.558	3.2727	0.	-1178.8
16309	18.465	3.1818	0.	-1200.1
16310	18.465	3.2727	5.e-002	-4.3388
16311	18.742	3.2727	0.	-1136.4
16312	18.65	3.1818	0.	-1157.5
16313	18.65	3.2727	5.e-002	-4.323
16314	18.927	3.2727	0.	-1094.2
16315	18.834	3.1818	0.	-1115.2
16316	18.834	3.2727	5.e-002	-4.3077
16317	19.111	3.2727	0.	-1052.2
16318	19.019	3.1818	0.	-1073.1
16319	19.019	3.2727	5.e-002	-4.2928
16320	19.296	3.2727	0.	-1010.4
16321	19.203	3.1818	0.	-1031.2
16322	19.203	3.2727	5.e-002	-4.2786
16323	19.48	3.2727	0.	-968.77
16324	19.388	3.1818	0.	-989.48
16325	19.388	3.2727	5.e-002	-4.2649
16326	19.665	3.2727	0.	-927.4
16327	19.572	3.1818	0.	-948.
16328	19.572	3.2727	5.e-002	-4.252
16329	19.849	3.2727	0.	-886.24
16330	19.757	3.1818	0.	-906.74
16331	19.757	3.2727	5.e-002	-4.2399
16332	20.033	3.2727	0.	-845.29
16333	19.941	3.1818	0.	-865.69
16334	19.941	3.2727	5.e-002	-4.2286
16335	20.218	3.2727	0.	-804.55
16336	20.126	3.1818	0.	-824.86
16337	20.126	3.2727	5.e-002	-4.2182
16338	20.402	3.2727	0.	-764.03
16339	20.31	3.1818	0.	-784.24
16340	20.31	3.2727	5.e-002	-4.2088
16341	20.587	3.2727	0.	-723.72
16342	20.495	3.1818	0.	-743.83
16343	20.495	3.2727	5.e-002	-4.2007
16344	20.771	3.2727	0.	-683.62
16345	20.679	3.1818	0.	-703.63
16346	20.679	3.2727	5.e-002	-4.1938
16347	20.956	3.2727	0.	-643.72
16348	20.864	3.1818	0.	-663.63
16349	20.864	3.2727	5.e-002	-4.1884
16350	21.14	3.2727	0.	-604.02
16351	21.048	3.1818	0.	-623.84
16352	21.048	3.2727	5.e-002	-4.1846
16353	21.325	3.2727	0.	-564.51
16354	21.233	3.1818	0.	-584.24
16355	21.233	3.2727	5.e-002	-4.1828
16356	21.509	3.2727	0.	-525.17
16357	21.417	3.1818	0.	-544.83
16358	21.417	3.2727	5.e-002	-4.183
16359	21.694	3.2727	0.	-486.01
16360	21.602	3.1818	0.	-505.59
16361	21.602	3.2727	5.e-002	-4.1855
16362	21.878	3.2727	0.	-447.
16363	21.786	3.1818	0.	-466.51
16364	21.786	3.2727	5.e-002	-4.1907
16365	22.063	3.2727	0.	-408.13
16366	21.971	3.1818	0.	-427.58
16367	21.971	3.2727	5.e-002	-4.1989
16368	22.247	3.2727	0.	-369.36
16369	22.155	3.1818	0.	-388.76
16370	22.155	3.2727	5.e-002	-4.2103
16371	22.432	3.2727	0.	-330.68
16372	22.34	3.1818	0.	-350.05
16373	22.34	3.2727	5.e-002	-4.2253
16374	22.616	3.2727	0.	-292.05
16375	22.524	3.1818	0.	-311.4
16376	22.524	3.2727	5.e-002	-4.2442
16377	22.801	3.2727	0.	-253.44
16378	22.709	3.1818	0.	-272.79
16379	22.709	3.2727	5.e-002	-4.2673
16380	22.985	3.2727	0.	-214.8
16381	22.893	3.1818	0.	-234.17
16382	22.893	3.2727	5.e-002	-4.2948
16383	23.17	3.2727	0.	-176.1
16384	23.078	3.1818	0.	-195.5
16385	23.078	3.2727	5.e-002	-4.3268
16386	23.354	3.2727	0.	-137.29
16387	23.262	3.1818	0.	-156.75
16388	23.262	3.2727	5.e-002	-4.3634
16389	23.539	3.2727	0.	-98.34
16390	23.447	3.1818	0.	-117.88
16391	23.447	3.2727	5.e-002	-4.4042
16392	23.723	3.2727	0.	-59.267
16393	23.631	3.1818	0.	-78.834
16394	23.631	3.2727	5.e-002	-4.4492
16395	23.816	3.1818	0.	-39.781
16396	23.816	3.2727	5.e-002	-4.5042
16397	23.908	3.2727	0.	-22.394
16398	5.6434	3.0909	0.	-9814.7
16399	5.5512	3.	0.	-10211
16400	5.5512	3.0909	5.e-002	-53.299
16401	5.8279	3.0909	0.	-8963.8
16402	5.7356	3.	0.	-9410.7
16403	5.7356	3.0909	5.e-002	-70.789
16404	6.0124	3.0909	0.	-8083.9
16405	5.9201	3.	0.	-8506.9
16406	5.9201	3.0909	5.e-002	-74.549
16407	6.1969	3.0909	0.	-7286.1
16408	6.1046	3.	0.	-7651.8
16409	6.1046	3.0909	5.e-002	-69.301
16410	6.3814	3.0909	0.	-6611.6
16411	6.2891	3.	0.	-6913.8
16412	6.2891	3.0909	5.e-002	-60.31
16413	6.5658	3.0909	0.	-6060.3
16414	6.4736	3.	0.	-6305.1
16415	6.4736	3.0909	5.e-002	-50.785
16416	6.7503	3.0909	0.	-5615.9
16417	6.6581	3.	0.	-5813.
16418	6.6581	3.0909	5.e-002	-42.166
16419	6.9348	3.0909	0.	-5258.4
16420	6.8426	3.	0.	-5417.4
16421	6.8426	3.0909	5.e-002	-34.893
16422	7.1193	3.0909	0.	-4969.7
16423	7.0271	3.	0.	-5098.8
16424	7.0271	3.0909	5.e-002	-28.959
16425	7.3038	3.0909	0.	-4734.5
16426	7.2116	3.	0.	-4840.3
16427	7.2116	3.0909	5.e-002	-24.196
16428	7.4883	3.0909	0.	-4540.8
16429	7.396	3.	0.	-4628.6
16430	7.396	3.0909	5.e-002	-20.4
16431	7.6728	3.0909	0.	-4379.2
16432	7.5805	3.	0.	-4453.
16433	7.5805	3.0909	5.e-002	-17.383
16434	7.8573	3.0909	0.	-4242.5
16435	7.765	3.	0.	-4305.4
16436	7.765	3.0909	5.e-002	-14.985
16437	8.0417	3.0909	0.	-4124.9
16438	7.9495	3.	0.	-4179.5
16439	7.9495	3.0909	5.e-002	-13.079
16440	8.2262	3.0909	0.	-4022.4
16441	8.134	3.	0.	-4070.4
16442	8.134	3.0909	5.e-002	-11.561
16443	8.4107	3.0909	0.	-3931.4
16444	8.3185	3.	0.	-3974.3
16445	8.3185	3.0909	5.e-002	-10.349
16446	8.5952	3.0909	0.	-3849.4
16447	8.503	3.	0.	-3888.4
16448	8.503	3.0909	5.e-002	-9.3797
16449	8.7797	3.0909	0.	-3774.4
16450	8.6875	3.	0.	-3810.3
16451	8.6875	3.0909	5.e-002	-8.6025
16452	8.9642	3.0909	0.	-3704.8
16453	8.8719	3.	0.	-3738.4
16454	8.8719	3.0909	5.e-002	-7.9775
16455	9.1487	3.0909	0.	-3639.5
16456	9.0564	3.	0.	-3671.2
16457	9.0564	3.0909	5.e-002	-7.4733
16458	9.3332	3.0909	0.	-3577.5
16459	9.2409	3.	0.	-3607.8
16460	9.2409	3.0909	5.e-002	-7.0651
16461	9.5177	3.0909	0.	-3518.1
16462	9.4254	3.	0.	-3547.3
16463	9.4254	3.0909	5.e-002	-6.7331
16464	9.7021	3.0909	0.	-3460.8
16465	9.6099	3.	0.	-3489.
16466	9.6099	3.0909	5.e-002	-6.4619
16467	9.8866	3.0909	0.	-3405.
16468	9.7944	3.	0.	-3432.5
16469	9.7944	3.0909	5.e-002	-6.2391
16470	10.071	3.0909	0.	-3350.5
16471	9.9789	3.	0.	-3377.5
16472	9.9789	3.0909	5.e-002	-6.0548
16473	10.256	3.0909	0.	-3297.
16474	10.163	3.	0.	-3323.5
16475	10.163	3.0909	5.e-002	-5.9013
16476	10.44	3.0909	0.	-3244.3
16477	10.348	3.	0.	-3270.4
16478	10.348	3.0909	5.e-002	-5.7723
16479	10.625	3.0909	0.	-3192.2
16480	10.532	3.	0.	-3218.1
16481	10.532	3.0909	5.e-002	-5.6631
16482	10.809	3.0909	0.	-3140.7
16483	10.717	3.	0.	-3166.3
16484	10.717	3.0909	5.e-002	-5.5697
16485	10.994	3.0909	0.	-3089.6
16486	10.901	3.	0.	-3115.
16487	10.901	3.0909	5.e-002	-5.489
16488	11.178	3.0909	0.	-3038.8
16489	11.086	3.	0.	-3064.1
16490	11.086	3.0909	5.e-002	-5.4185
16491	11.363	3.0909	0.	-2988.4
16492	11.27	3.	0.	-3013.6
16493	11.27	3.0909	5.e-002	-5.3563
16494	11.547	3.0909	0.	-2938.3
16495	11.455	3.	0.	-2963.3
16496	11.455	3.0909	5.e-002	-5.3008
16497	11.732	3.0909	0.	-2888.4
16498	11.639	3.	0.	-2913.3
16499	11.639	3.0909	5.e-002	-5.2508
16500	11.916	3.0909	0.	-2838.8
16501	11.824	3.	0.	-2863.6
16502	11.824	3.0909	5.e-002	-5.2052
16503	12.1	3.0909	0.	-2789.4
16504	12.008	3.	0.	-2814.
16505	12.008	3.0909	5.e-002	-5.1633
16506	12.285	3.0909	0.	-2740.1
16507	12.193	3.	0.	-2764.7
16508	12.193	3.0909	5.e-002	-5.1244
16509	12.469	3.0909	0.	-2691.1
16510	12.377	3.	0.	-2715.6
16511	12.377	3.0909	5.e-002	-5.088
16512	12.654	3.0909	0.	-2642.3
16513	12.562	3.	0.	-2666.6
16514	12.562	3.0909	5.e-002	-5.0538
16515	12.838	3.0909	0.	-2593.6
16516	12.746	3.	0.	-2617.9
16517	12.746	3.0909	5.e-002	-5.0213
16518	13.023	3.0909	0.	-2545.1
16519	12.931	3.	0.	-2569.3
16520	12.931	3.0909	5.e-002	-4.9903
16521	13.207	3.0909	0.	-2496.8
16522	13.115	3.	0.	-2520.9
16523	13.115	3.0909	5.e-002	-4.9607
16524	13.392	3.0909	0.	-2448.7
16525	13.3	3.	0.	-2472.7
16526	13.3	3.0909	5.e-002	-4.9322
16527	13.576	3.0909	0.	-2400.8
16528	13.484	3.	0.	-2424.7
16529	13.484	3.0909	5.e-002	-4.9046
16530	13.761	3.0909	0.	-2353.
16531	13.669	3.	0.	-2376.8
16532	13.669	3.0909	5.e-002	-4.8778
16533	13.945	3.0909	0.	-2305.5
16534	13.853	3.	0.	-2329.2
16535	13.853	3.0909	5.e-002	-4.8518
16536	14.13	3.0909	0.	-2258.1
16537	14.038	3.	0.	-2281.7
16538	14.038	3.0909	5.e-002	-4.8265
16539	14.314	3.0909	0.	-2210.9
16540	14.222	3.	0.	-2234.4
16541	14.222	3.0909	5.e-002	-4.8018
16542	14.499	3.0909	0.	-2163.8
16543	14.407	3.	0.	-2187.3
16544	14.407	3.0909	5.e-002	-4.7776
16545	14.683	3.0909	0.	-2117.
16546	14.591	3.	0.	-2140.4
16547	14.591	3.0909	5.e-002	-4.754
16548	14.868	3.0909	0.	-2070.4
16549	14.776	3.	0.	-2093.6
16550	14.776	3.0909	5.e-002	-4.7308
16551	15.052	3.0909	0.	-2023.9
16552	14.96	3.	0.	-2047.1
16553	14.96	3.0909	5.e-002	-4.708
16554	15.237	3.0909	0.	-1977.7
16555	15.145	3.	0.	-2000.7
16556	15.145	3.0909	5.e-002	-4.6856
16557	15.421	3.0909	0.	-1931.6
16558	15.329	3.	0.	-1954.6
16559	15.329	3.0909	5.e-002	-4.6636
16560	15.606	3.0909	0.	-1885.7
16561	15.514	3.	0.	-1908.6
16562	15.514	3.0909	5.e-002	-4.6419
16563	15.79	3.0909	0.	-1840.
16564	15.698	3.	0.	-1862.8
16565	15.698	3.0909	5.e-002	-4.6206
16566	15.975	3.0909	0.	-1794.6
16567	15.883	3.	0.	-1817.2
16568	15.883	3.0909	5.e-002	-4.5996
16569	16.159	3.0909	0.	-1749.3
16570	16.067	3.	0.	-1771.8
16571	16.067	3.0909	5.e-002	-4.5789
16572	16.344	3.0909	0.	-1704.2
16573	16.251	3.	0.	-1726.6
16574	16.251	3.0909	5.e-002	-4.5585
16575	16.528	3.0909	0.	-1659.3
16576	16.436	3.	0.	-1681.7
16577	16.436	3.0909	5.e-002	-4.5385
16578	16.713	3.0909	0.	-1614.6
16579	16.62	3.	0.	-1636.9
16580	16.62	3.0909	5.e-002	-4.5187
16581	16.897	3.0909	0.	-1570.1
16582	16.805	3.	0.	-1592.3
16583	16.805	3.0909	5.e-002	-4.4992
16584	17.082	3.0909	0.	-1525.8
16585	16.989	3.	0.	-1547.9
16586	16.989	3.0909	5.e-002	-4.4801
16587	17.266	3.0909	0.	-1481.7
16588	17.174	3.	0.	-1503.7
16589	17.174	3.0909	5.e-002	-4.4612
16590	17.451	3.0909	0.	-1437.8
16591	17.358	3.	0.	-1459.7
16592	17.358	3.0909	5.e-002	-4.4427
16593	17.635	3.0909	0.	-1394.1
16594	17.543	3.	0.	-1415.9
16595	17.543	3.0909	5.e-002	-4.4245
16596	17.82	3.0909	0.	-1350.6
16597	17.727	3.	0.	-1372.3
16598	17.727	3.0909	5.e-002	-4.4066
16599	18.004	3.0909	0.	-1307.4
16600	17.912	3.	0.	-1328.9
16601	17.912	3.0909	5.e-002	-4.3891
16602	18.189	3.0909	0.	-1264.3
16603	18.096	3.	0.	-1285.8
16604	18.096	3.0909	5.e-002	-4.372
16605	18.373	3.0909	0.	-1221.4
16606	18.281	3.	0.	-1242.8
16607	18.281	3.0909	5.e-002	-4.3553
16608	18.558	3.0909	0.	-1178.8
16609	18.465	3.	0.	-1200.1
16610	18.465	3.0909	5.e-002	-4.339
16611	18.742	3.0909	0.	-1136.4
16612	18.65	3.	0.	-1157.5
16613	18.65	3.0909	5.e-002	-4.3232
16614	18.927	3.0909	0.	-1094.1
16615	18.834	3.	0.	-1115.2
16616	18.834	3.0909	5.e-002	-4.3078
16617	19.111	3.0909	0.	-1052.1
16618	19.019	3.	0.	-1073.1
16619	19.019	3.0909	5.e-002	-4.293
16620	19.296	3.0909	0.	-1010.3
16621	19.203	3.	0.	-1031.2
16622	19.203	3.0909	5.e-002	-4.2787
16623	19.48	3.0909	0.	-968.75
16624	19.388	3.	0.	-989.47
16625	19.388	3.0909	5.e-002	-4.2651
16626	19.665	3.0909	0.	-927.38
16627	19.572	3.	0.	-948.
16628	19.572	3.0909	5.e-002	-4.2522
16629	19.849	3.0909	0.	-886.23
16630	19.757	3.	0.	-906.74
16631	19.757	3.0909	5.e-002	-4.2401
16632	20.033	3.0909	0.	-845.29
16633	19.941	3.	0.	-865.69
16634	19.941	3.0909	5.e-002	-4.2288
16635	20.218	3.0909	0.	-804.57
16636	20.126	3.	0.	-824.86
16637	20.126	3.0909	5.e-002	-4.2185
16638	20.402	3.0909	0.	-764.06
16639	20.31	3.	0.	-784.25
16640	20.31	3.0909	5.e-002	-4.2092
16641	20.587	3.0909	0.	-723.76
16642	20.495	3.	0.	-743.84
16643	20.495	3.0909	5.e-002	-4.2011
16644	20.771	3.0909	0.	-683.67
16645	20.679	3.	0.	-703.65
16646	20.679	3.0909	5.e-002	-4.1943
16647	20.956	3.0909	0.	-643.78
16648	20.864	3.	0.	-663.66
16649	20.864	3.0909	5.e-002	-4.1889
16650	21.14	3.0909	0.	-604.09
16651	21.048	3.	0.	-623.87
16652	21.048	3.0909	5.e-002	-4.1853
16653	21.325	3.0909	0.	-564.59
16654	21.233	3.	0.	-584.28
16655	21.233	3.0909	5.e-002	-4.1835
16656	21.509	3.0909	0.	-525.26
16657	21.417	3.	0.	-544.87
16658	21.417	3.0909	5.e-002	-4.1838
16659	21.694	3.0909	0.	-486.11
16660	21.602	3.	0.	-505.63
16661	21.602	3.0909	5.e-002	-4.1865
16662	21.878	3.0909	0.	-447.11
16663	21.786	3.	0.	-466.56
16664	21.786	3.0909	5.e-002	-4.1918
16665	22.063	3.0909	0.	-408.23
16666	21.971	3.	0.	-427.63
16667	21.971	3.0909	5.e-002	-4.2001
16668	22.247	3.0909	0.	-369.47
16669	22.155	3.	0.	-388.82
16670	22.155	3.0909	5.e-002	-4.2117
16671	22.432	3.0909	0.	-330.79
16672	22.34	3.	0.	-350.1
16673	22.34	3.0909	5.e-002	-4.2268
16674	22.616	3.0909	0.	-292.15
16675	22.524	3.	0.	-311.45
16676	22.524	3.0909	5.e-002	-4.2458
16677	22.801	3.0909	0.	-253.53
16678	22.709	3.	0.	-272.84
16679	22.709	3.0909	5.e-002	-4.269
16680	22.985	3.0909	0.	-214.88
16681	22.893	3.	0.	-234.21
16682	22.893	3.0909	5.e-002	-4.2965
16683	23.17	3.0909	0.	-176.16
16684	23.078	3.	0.	-195.54
16685	23.078	3.0909	5.e-002	-4.3284
16686	23.354	3.0909	0.	-137.34
16687	23.262	3.	0.	-156.78
16688	23.262	3.0909	5.e-002	-4.3648
16689	23.539	3.0909	0.	-98.363
16690	23.447	3.	0.	-117.89
16691	23.447	3.0909	5.e-002	-4.4053
16692	23.723	3.0909	0.	-59.269
16693	23.631	3.	0.	-78.84
16694	23.631	3.0909	5.e-002	-4.4497
16695	23.816	3.	0.	-39.776
16696	23.816	3.0909	5.e-002	-4.5025
16697	23.908	3.0909	0.	-22.387
16698	5.6434	2.9091	0.	-9814.7
16699	5.5512	2.8182	0.	-10327
16700	5.5512	2.9091	5.e-002	-53.299
16701	5.8279	2.9091	0.	-8963.8
16702	5.7356	2.8182	0.	-9452.4
16703	5.7356	2.9091	5.e-002	-70.789
16704	6.0124	2.9091	0.	-8083.9
16705	5.9201	2.8182	0.	-8496.8
16706	5.9201	2.9091	5.e-002	-74.549
16707	6.1969	2.9091	0.	-7286.1
16708	6.1046	2.8182	0.	-7619.2
16709	6.1046	2.9091	5.e-002	-69.301
16710	6.3814	2.9091	0.	-6611.6
16711	6.2891	2.8182	0.	-6876.8
16712	6.2891	2.9091	5.e-002	-60.31
16713	6.5658	2.9091	0.	-6060.3
16714	6.4736	2.8182	0.	-6271.6
16715	6.4736	2.9091	5.e-002	-50.785
16716	6.7503	2.9091	0.	-5615.9
16717	6.6581	2.8182	0.	-5785.4
16718	6.6581	2.9091	5.e-002	-42.166
16719	6.9348	2.9091	0.	-5258.4
16720	6.8426	2.8182	0.	-5395.7
16721	6.8426	2.9091	5.e-002	-34.893
16722	7.1193	2.9091	0.	-4969.7
16723	7.0271	2.8182	0.	-5082.1
16724	7.0271	2.9091	5.e-002	-28.959
16725	7.3038	2.9091	0.	-4734.5
16726	7.2116	2.8182	0.	-4827.7
16727	7.2116	2.9091	5.e-002	-24.196
16728	7.4883	2.9091	0.	-4540.8
16729	7.396	2.8182	0.	-4619.1
16730	7.396	2.9091	5.e-002	-20.4
16731	7.6728	2.9091	0.	-4379.2
16732	7.5805	2.8182	0.	-4445.9
16733	7.5805	2.9091	5.e-002	-17.383
16734	7.8573	2.9091	0.	-4242.5
16735	7.765	2.8182	0.	-4300.2
16736	7.765	2.9091	5.e-002	-14.985
16737	8.0417	2.9091	0.	-4124.9
16738	7.9495	2.8182	0.	-4175.6
16739	7.9495	2.9091	5.e-002	-13.079
16740	8.2262	2.9091	0.	-4022.4
16741	8.134	2.8182	0.	-4067.6
16742	8.134	2.9091	5.e-002	-11.561
16743	8.4107	2.9091	0.	-3931.4
16744	8.3185	2.8182	0.	-3972.3
16745	8.3185	2.9091	5.e-002	-10.349
16746	8.5952	2.9091	0.	-3849.4
16747	8.503	2.8182	0.	-3886.9
16748	8.503	2.9091	5.e-002	-9.3797
16749	8.7797	2.9091	0.	-3774.4
16750	8.6875	2.8182	0.	-3809.3
16751	8.6875	2.9091	5.e-002	-8.6025
16752	8.9642	2.9091	0.	-3704.8
16753	8.8719	2.8182	0.	-3737.7
16754	8.8719	2.9091	5.e-002	-7.9775
16755	9.1487	2.9091	0.	-3639.5
16756	9.0564	2.8182	0.	-3670.8
16757	9.0564	2.9091	5.e-002	-7.4733
16758	9.3332	2.9091	0.	-3577.5
16759	9.2409	2.8182	0.	-3607.5
16760	9.2409	2.9091	5.e-002	-7.0651
16761	9.5177	2.9091	0.	-3518.1
16762	9.4254	2.8182	0.	-3547.1
16763	9.4254	2.9091	5.e-002	-6.7331
16764	9.7021	2.9091	0.	-3460.8
16765	9.6099	2.8182	0.	-3488.9
16766	9.6099	2.9091	5.e-002	-6.4619
16767	9.8866	2.9091	0.	-3405.
16768	9.7944	2.8182	0.	-3432.5
16769	9.7944	2.9091	5.e-002	-6.2391
16770	10.071	2.9091	0.	-3350.5
16771	9.9789	2.8182	0.	-3377.5
16772	9.9789	2.9091	5.e-002	-6.0548
16773	10.256	2.9091	0.	-3297.
16774	10.163	2.8182	0.	-3323.6
16775	10.163	2.9091	5.e-002	-5.9013
16776	10.44	2.9091	0.	-3244.3
16777	10.348	2.8182	0.	-3270.5
16778	10.348	2.9091	5.e-002	-5.7723
16779	10.625	2.9091	0.	-3192.2
16780	10.532	2.8182	0.	-3218.2
16781	10.532	2.9091	5.e-002	-5.6631
16782	10.809	2.9091	0.	-3140.7
16783	10.717	2.8182	0.	-3166.4
16784	10.717	2.9091	5.e-002	-5.5697
16785	10.994	2.9091	0.	-3089.6
16786	10.901	2.8182	0.	-3115.1
16787	10.901	2.9091	5.e-002	-5.489
16788	11.178	2.9091	0.	-3038.8
16789	11.086	2.8182	0.	-3064.2
16790	11.086	2.9091	5.e-002	-5.4185
16791	11.363	2.9091	0.	-2988.4
16792	11.27	2.8182	0.	-3013.7
16793	11.27	2.9091	5.e-002	-5.3563
16794	11.547	2.9091	0.	-2938.3
16795	11.455	2.8182	0.	-2963.4
16796	11.455	2.9091	5.e-002	-5.3008
16797	11.732	2.9091	0.	-2888.4
16798	11.639	2.8182	0.	-2913.4
16799	11.639	2.9091	5.e-002	-5.2508
16800	11.916	2.9091	0.	-2838.8
16801	11.824	2.8182	0.	-2863.7
16802	11.824	2.9091	5.e-002	-5.2052
16803	12.1	2.9091	0.	-2789.4
16804	12.008	2.8182	0.	-2814.1
16805	12.008	2.9091	5.e-002	-5.1633
16806	12.285	2.9091	0.	-2740.1
16807	12.193	2.8182	0.	-2764.8
16808	12.193	2.9091	5.e-002	-5.1244
16809	12.469	2.9091	0.	-2691.1
16810	12.377	2.8182	0.	-2715.7
16811	12.377	2.9091	5.e-002	-5.088
16812	12.654	2.9091	0.	-2642.3
16813	12.562	2.8182	0.	-2666.7
16814	12.562	2.9091	5.e-002	-5.0538
16815	12.838	2.9091	0.	-2593.6
16816	12.746	2.8182	0.	-2618.
16817	12.746	2.9091	5.e-002	-5.0213
16818	13.023	2.9091	0.	-2545.1
16819	12.931	2.8182	0.	-2569.4
16820	12.931	2.9091	5.e-002	-4.9903
16821	13.207	2.9091	0.	-2496.8
16822	13.115	2.8182	0.	-2521.
16823	13.115	2.9091	5.e-002	-4.9607
16824	13.392	2.9091	0.	-2448.7
16825	13.3	2.8182	0.	-2472.8
16826	13.3	2.9091	5.e-002	-4.9322
16827	13.576	2.9091	0.	-2400.8
16828	13.484	2.8182	0.	-2424.8
16829	13.484	2.9091	5.e-002	-4.9046
16830	13.761	2.9091	0.	-2353.
16831	13.669	2.8182	0.	-2376.9
16832	13.669	2.9091	5.e-002	-4.8778
16833	13.945	2.9091	0.	-2305.5
16834	13.853	2.8182	0.	-2329.2
16835	13.853	2.9091	5.e-002	-4.8518
16836	14.13	2.9091	0.	-2258.1
16837	14.038	2.8182	0.	-2281.8
16838	14.038	2.9091	5.e-002	-4.8265
16839	14.314	2.9091	0.	-2210.9
16840	14.222	2.8182	0.	-2234.5
16841	14.222	2.9091	5.e-002	-4.8018
16842	14.499	2.9091	0.	-2163.8
16843	14.407	2.8182	0.	-2187.4
16844	14.407	2.9091	5.e-002	-4.7776
16845	14.683	2.9091	0.	-2117.
16846	14.591	2.8182	0.	-2140.4
16847	14.591	2.9091	5.e-002	-4.754
16848	14.868	2.9091	0.	-2070.4
16849	14.776	2.8182	0.	-2093.7
16850	14.776	2.9091	5.e-002	-4.7308
16851	15.052	2.9091	0.	-2023.9
16852	14.96	2.8182	0.	-2047.1
16853	14.96	2.9091	5.e-002	-4.708
16854	15.237	2.9091	0.	-1977.7
16855	15.145	2.8182	0.	-2000.8
16856	15.145	2.9091	5.e-002	-4.6856
16857	15.421	2.9091	0.	-1931.6
16858	15.329	2.8182	0.	-1954.6
16859	15.329	2.9091	5.e-002	-4.6636
16860	15.606	2.9091	0.	-1885.7
16861	15.514	2.8182	0.	-1908.6
16862	15.514	2.9091	5.e-002	-4.6419
16863	15.79	2.9091	0.	-1840.
16864	15.698	2.8182	0.	-1862.9
16865	15.698	2.9091	5.e-002	-4.6206
16866	15.975	2.9091	0.	-1794.6
16867	15.883	2.8182	0.	-1817.3
16868	15.883	2.9091	5.e-002	-4.5996
16869	16.159	2.9091	0.	-1749.3
16870	16.067	2.8182	0.	-1771.9
16871	16.067	2.9091	5.e-002	-4.5789
16872	16.344	2.9091	0.	-1704.2
16873	16.251	2.8182	0.	-1726.7
16874	16.251	2.9091	5.e-002	-4.5585
16875	16.528	2.9091	0.	-1659.3
16876	16.436	2.8182	0.	-1681.7
16877	16.436	2.9091	5.e-002	-4.5385
16878	16.713	2.9091	0.	-1614.6
16879	16.62	2.8182	0.	-1636.9
16880	16.62	2.9091	5.e-002	-4.5187
16881	16.897	2.9091	0.	-1570.1
16882	16.805	2.8182	0.	-1592.3
16883	16.805	2.9091	5.e-002	-4.4992
16884	17.082	2.9091	0.	-1525.8
16885	16.989	2.8182	0.	-1547.9
16886	16.989	2.9091	5.e-002	-4.4801
16887	17.266	2.9091	0.	-1481.7
16888	17.174	2.8182	0.	-1503.7
16889	17.174	2.9091	5.e-002	-4.4612
16890	17.451	2.9091	0.	-1437.8
16891	17.358	2.8182	0.	-1459.7
16892	17.358	2.9091	5.e-002	-4.4427
16893	17.635	2.9091	0.	-1394.1
16894	17.543	2.8182	0.	-1415.9
16895	17.543	2.9091	5.e-002	-4.4245
16896	17.82	2.9091	0.	-1350.6
16897	17.727	2.8182	0.	-1372.3
16898	17.727	2.9091	5.e-002	-4.4066
16899	18.004	2.9091	0.	-1307.4
16900	17.912	2.8182	0.	-1329.
16901	17.912	2.9091	5.e-002	-4.3891
16902	18.189	2.9091	0.	-1264.3
16903	18.096	2.8182	0.	-1285.8
16904	18.096	2.9091	5.e-002	-4.372
16905	18.373	2.9091	0.	-1221.4
16906	18.281	2.8182	0.	-1242.8
16907	18.281	2.9091	5.e-002	-4.3553
16908	18.558	2.9091	0.	-1178.8
16909	18.465	2.8182	0.	-1200.1
16910	18.465	2.9091	5.e-002	-4.339
16911	18.742	2.9091	0.	-1136.4
16912	18.65	2.8182	0.	-1157.5
16913	18.65	2.9091	5.e-002	-4.3232
16914	18.927	2.9091	0.	-1094.1
16915	18.834	2.8182	0.	-1115.2
16916	18.834	2.9091	5.e-002	-4.3078
16917	19.111	2.9091	0.	-1052.1
16918	19.019	2.8182	0.	-1073.1
16919	19.019	2.9091	5.e-002	-4.293
16920	19.296	2.9091	0.	-1010.3
16921	19.203	2.8182	0.	-1031.2
16922	19.203	2.9091	5.e-002	-4.2788
16923	19.48	2.9091	0.	-968.75
16924	19.388	2.8182	0.	-989.48
16925	19.388	2.9091	5.e-002	-4.2651
16926	19.665	2.9091	0.	-927.38
16927	19.572	2.8182	0.	-948.
16928	19.572	2.9091	5.e-002	-4.2522
16929	19.849	2.9091	0.	-886.23
16930	19.757	2.8182	0.	-906.74
16931	19.757	2.9091	5.e-002	-4.2401
16932	20.033	2.9091	0.	-845.29
16933	19.941	2.8182	0.	-865.69
16934	19.941	2.9091	5.e-002	-4.2288
16935	20.218	2.9091	0.	-804.57
16936	20.126	2.8182	0.	-824.86
16937	20.126	2.9091	5.e-002	-4.2185
16938	20.402	2.9091	0.	-764.06
16939	20.31	2.8182	0.	-784.24
16940	20.31	2.9091	5.e-002	-4.2092
16941	20.587	2.9091	0.	-723.76
16942	20.495	2.8182	0.	-743.83
16943	20.495	2.9091	5.e-002	-4.2011
16944	20.771	2.9091	0.	-683.67
16945	20.679	2.8182	0.	-703.63
16946	20.679	2.9091	5.e-002	-4.1943
16947	20.956	2.9091	0.	-643.78
16948	20.864	2.8182	0.	-663.63
16949	20.864	2.9091	5.e-002	-4.1889
16950	21.14	2.9091	0.	-604.09
16951	21.048	2.8182	0.	-623.84
16952	21.048	2.9091	5.e-002	-4.1853
16953	21.325	2.9091	0.	-564.59
16954	21.233	2.8182	0.	-584.24
16955	21.233	2.9091	5.e-002	-4.1835
16956	21.509	2.9091	0.	-525.26
16957	21.417	2.8182	0.	-544.83
16958	21.417	2.9091	5.e-002	-4.1838
16959	21.694	2.9091	0.	-486.11
16960	21.602	2.8182	0.	-505.59
16961	21.602	2.9091	5.e-002	-4.1865
16962	21.878	2.9091	0.	-447.11
16963	21.786	2.8182	0.	-466.51
16964	21.786	2.9091	5.e-002	-4.1918
16965	22.063	2.9091	0.	-408.23
16966	21.971	2.8182	0.	-427.58
16967	21.971	2.9091	5.e-002	-4.2001
16968	22.247	2.9091	0.	-369.47
16969	22.155	2.8182	0.	-388.76
16970	22.155	2.9091	5.e-002	-4.2117
16971	22.432	2.9091	0.	-330.79
16972	22.34	2.8182	0.	-350.05
16973	22.34	2.9091	5.e-002	-4.2268
16974	22.616	2.9091	0.	-292.15
16975	22.524	2.8182	0.	-311.4
16976	22.524	2.9091	5.e-002	-4.2458
16977	22.801	2.9091	0.	-253.53
16978	22.709	2.8182	0.	-272.79
16979	22.709	2.9091	5.e-002	-4.269
16980	22.985	2.9091	0.	-214.88
16981	22.893	2.8182	0.	-234.17
16982	22.893	2.9091	5.e-002	-4.2965
16983	23.17	2.9091	0.	-176.16
16984	23.078	2.8182	0.	-195.5
16985	23.078	2.9091	5.e-002	-4.3284
16986	23.354	2.9091	0.	-137.34
16987	23.262	2.8182	0.	-156.75
16988	23.262	2.9091	5.e-002	-4.3648
16989	23.539	2.9091	0.	-98.363
16990	23.447	2.8182	0.	-117.88
16991	23.447	2.9091	5.e-002	-4.4053
16992	23.723	2.9091	0.	-59.269
16993	23.631	2.8182	0.	-78.834
16994	23.631	2.9091	5.e-002	-4.4497
16995	23.816	2.8182	0.	-39.781
16996	23.816	2.9091	5.e-002	-4.5025
16997	23.908	2.9091	0.	-22.387
16998	5.6434	2.7273	0.	-9972.8
16999	5.5512	2.6364	0.	-10685
17000	5.5512	2.7273	5.e-002	-67.238
17001	5.8279	2.7273	0.	-8996.3
17002	5.7356	2.6364	0.	-9557.7
17003	5.7356	2.7273	5.e-002	-83.566
17004	6.0124	2.7273	0.	-8041.4
17005	5.9201	2.6364	0.	-8446.2
17006	5.9201	2.7273	5.e-002	-81.607
17007	6.1969	2.7273	0.	-7216.2
17008	6.1046	2.6364	0.	-7511.
17009	6.1046	2.7273	5.e-002	-71.704
17010	6.3814	2.7273	0.	-6540.7
17011	6.2891	2.6364	0.	-6762.4
17012	6.2891	2.7273	5.e-002	-60.389
17013	6.5658	2.7273	0.	-5998.9
17014	6.4736	2.6364	0.	-6171.1
17015	6.4736	2.7273	5.e-002	-50.021
17016	6.7503	2.7273	0.	-5566.4
17017	6.6581	2.6364	0.	-5703.7
17018	6.6581	2.7273	5.e-002	-41.251
17019	6.9348	2.7273	0.	-5220.
17020	6.8426	2.6364	0.	-5331.8
17021	6.8426	2.7273	5.e-002	-34.08
17022	7.1193	2.7273	0.	-4940.4
17023	7.0271	2.6364	0.	-5033.1
17024	7.0271	2.7273	5.e-002	-28.309
17025	7.3038	2.7273	0.	-4712.4
17026	7.2116	2.6364	0.	-4790.6
17027	7.2116	2.7273	5.e-002	-23.696
17028	7.4883	2.7273	0.	-4524.3
17029	7.396	2.6364	0.	-4591.2
17030	7.396	2.7273	5.e-002	-20.021
17031	7.6728	2.7273	0.	-4366.9
17032	7.5805	2.6364	0.	-4425.1
17033	7.5805	2.7273	5.e-002	-17.096
17034	7.8573	2.7273	0.	-4233.3
17035	7.765	2.6364	0.	-4284.7
17036	7.765	2.7273	5.e-002	-14.767
17037	8.0417	2.7273	0.	-4118.2
17038	7.9495	2.6364	0.	-4164.2
17039	7.9495	2.7273	5.e-002	-12.911
17040	8.2262	2.7273	0.	-4017.5
17041	8.134	2.6364	0.	-4059.2
17042	8.134	2.7273	5.e-002	-11.43
17043	8.4107	2.7273	0.	-3927.8
17044	8.3185	2.6364	0.	-3966.2
17045	8.3185	2.7273	5.e-002	-10.246
17046	8.5952	2.7273	0.	-3846.8
17047	8.503	2.6364	0.	-3882.5
17048	8.503	2.7273	5.e-002	-9.2973
17049	8.7797	2.7273	0.	-3772.6
17050	8.6875	2.6364	0.	-3806.2
17051	8.6875	2.7273	5.e-002	-8.5363
17052	8.9642	2.7273	0.	-3703.6
17053	8.8719	2.6364	0.	-3735.6
17054	8.8719	2.7273	5.e-002	-7.924
17055	9.1487	2.7273	0.	-3638.7
17056	9.0564	2.6364	0.	-3669.3
17057	9.0564	2.7273	5.e-002	-7.4299
17058	9.3332	2.7273	0.	-3577.1
17059	9.2409	2.6364	0.	-3606.6
17060	9.2409	2.7273	5.e-002	-7.0298
17061	9.5177	2.7273	0.	-3517.9
17062	9.4254	2.6364	0.	-3546.6
17063	9.4254	2.7273	5.e-002	-6.7044
17064	9.7021	2.7273	0.	-3460.7
17065	9.6099	2.6364	0.	-3488.7
17066	9.6099	2.7273	5.e-002	-6.4386
17067	9.8866	2.7273	0.	-3405.
17068	9.7944	2.6364	0.	-3432.5
17069	9.7944	2.7273	5.e-002	-6.2201
17070	10.071	2.7273	0.	-3350.6
17071	9.9789	2.6364	0.	-3377.6
17072	9.9789	2.7273	5.e-002	-6.0394
17073	10.256	2.7273	0.	-3297.1
17074	10.163	2.6364	0.	-3323.8
17075	10.163	2.7273	5.e-002	-5.8889
17076	10.44	2.7273	0.	-3244.5
17077	10.348	2.6364	0.	-3270.8
17078	10.348	2.7273	5.e-002	-5.7623
17079	10.625	2.7273	0.	-3192.4
17080	10.532	2.6364	0.	-3218.5
17081	10.532	2.7273	5.e-002	-5.655
17082	10.809	2.7273	0.	-3140.9
17083	10.717	2.6364	0.	-3166.8
17084	10.717	2.7273	5.e-002	-5.5631
17085	10.994	2.7273	0.	-3089.8
17086	10.901	2.6364	0.	-3115.5
17087	10.901	2.7273	5.e-002	-5.4837
17088	11.178	2.7273	0.	-3039.1
17089	11.086	2.6364	0.	-3064.6
17090	11.086	2.7273	5.e-002	-5.4142
17091	11.363	2.7273	0.	-2988.7
17092	11.27	2.6364	0.	-3014.
17093	11.27	2.7273	5.e-002	-5.3528
17094	11.547	2.7273	0.	-2938.5
17095	11.455	2.6364	0.	-2963.8
17096	11.455	2.7273	5.e-002	-5.298
17097	11.732	2.7273	0.	-2888.7
17098	11.639	2.6364	0.	-2913.7
17099	11.639	2.7273	5.e-002	-5.2485
17100	11.916	2.7273	0.	-2839.
17101	11.824	2.6364	0.	-2864.
17102	11.824	2.7273	5.e-002	-5.2034
17103	12.1	2.7273	0.	-2789.6
17104	12.008	2.6364	0.	-2814.4
17105	12.008	2.7273	5.e-002	-5.1617
17106	12.285	2.7273	0.	-2740.3
17107	12.193	2.6364	0.	-2765.1
17108	12.193	2.7273	5.e-002	-5.1231
17109	12.469	2.7273	0.	-2691.3
17110	12.377	2.6364	0.	-2715.9
17111	12.377	2.7273	5.e-002	-5.087
17112	12.654	2.7273	0.	-2642.4
17113	12.562	2.6364	0.	-2667.
17114	12.562	2.7273	5.e-002	-5.0529
17115	12.838	2.7273	0.	-2593.8
17116	12.746	2.6364	0.	-2618.2
17117	12.746	2.7273	5.e-002	-5.0205
17118	13.023	2.7273	0.	-2545.3
17119	12.931	2.6364	0.	-2569.6
17120	12.931	2.7273	5.e-002	-4.9897
17121	13.207	2.7273	0.	-2497.
17122	13.115	2.6364	0.	-2521.2
17123	13.115	2.7273	5.e-002	-4.9602
17124	13.392	2.7273	0.	-2448.9
17125	13.3	2.6364	0.	-2473.
17126	13.3	2.7273	5.e-002	-4.9317
17127	13.576	2.7273	0.	-2400.9
17128	13.484	2.6364	0.	-2425.
17129	13.484	2.7273	5.e-002	-4.9042
17130	13.761	2.7273	0.	-2353.2
17131	13.669	2.6364	0.	-2377.1
17132	13.669	2.7273	5.e-002	-4.8775
17133	13.945	2.7273	0.	-2305.6
17134	13.853	2.6364	0.	-2329.4
17135	13.853	2.7273	5.e-002	-4.8515
17136	14.13	2.7273	0.	-2258.2
17137	14.038	2.6364	0.	-2282.
17138	14.038	2.7273	5.e-002	-4.8262
17139	14.314	2.7273	0.	-2211.
17140	14.222	2.6364	0.	-2234.7
17141	14.222	2.7273	5.e-002	-4.8016
17142	14.499	2.7273	0.	-2164.
17143	14.407	2.6364	0.	-2187.5
17144	14.407	2.7273	5.e-002	-4.7774
17145	14.683	2.7273	0.	-2117.1
17146	14.591	2.6364	0.	-2140.6
17147	14.591	2.7273	5.e-002	-4.7538
17148	14.868	2.7273	0.	-2070.5
17149	14.776	2.6364	0.	-2093.9
17150	14.776	2.7273	5.e-002	-4.7306
17151	15.052	2.7273	0.	-2024.
17152	14.96	2.6364	0.	-2047.3
17153	14.96	2.7273	5.e-002	-4.7078
17154	15.237	2.7273	0.	-1977.8
17155	15.145	2.6364	0.	-2001.
17156	15.145	2.7273	5.e-002	-4.6854
17157	15.421	2.7273	0.	-1931.7
17158	15.329	2.6364	0.	-1954.8
17159	15.329	2.7273	5.e-002	-4.6635
17160	15.606	2.7273	0.	-1885.8
17161	15.514	2.6364	0.	-1908.8
17162	15.514	2.7273	5.e-002	-4.6418
17163	15.79	2.7273	0.	-1840.1
17164	15.698	2.6364	0.	-1863.
17165	15.698	2.7273	5.e-002	-4.6204
17166	15.975	2.7273	0.	-1794.6
17167	15.883	2.6364	0.	-1817.4
17168	15.883	2.7273	5.e-002	-4.5994
17169	16.159	2.7273	0.	-1749.4
17170	16.067	2.6364	0.	-1772.
17171	16.067	2.7273	5.e-002	-4.5787
17172	16.344	2.7273	0.	-1704.3
17173	16.251	2.6364	0.	-1726.8
17174	16.251	2.7273	5.e-002	-4.5584
17175	16.528	2.7273	0.	-1659.4
17176	16.436	2.6364	0.	-1681.8
17177	16.436	2.7273	5.e-002	-4.5383
17178	16.713	2.7273	0.	-1614.7
17179	16.62	2.6364	0.	-1637.
17180	16.62	2.7273	5.e-002	-4.5186
17181	16.897	2.7273	0.	-1570.2
17182	16.805	2.6364	0.	-1592.4
17183	16.805	2.7273	5.e-002	-4.4991
17184	17.082	2.7273	0.	-1525.9
17185	16.989	2.6364	0.	-1548.
17186	16.989	2.7273	5.e-002	-4.48
17187	17.266	2.7273	0.	-1481.8
17188	17.174	2.6364	0.	-1503.8
17189	17.174	2.7273	5.e-002	-4.4611
17190	17.451	2.7273	0.	-1437.9
17191	17.358	2.6364	0.	-1459.8
17192	17.358	2.7273	5.e-002	-4.4426
17193	17.635	2.7273	0.	-1394.2
17194	17.543	2.6364	0.	-1416.
17195	17.543	2.7273	5.e-002	-4.4243
17196	17.82	2.7273	0.	-1350.7
17197	17.727	2.6364	0.	-1372.4
17198	17.727	2.7273	5.e-002	-4.4065
17199	18.004	2.7273	0.	-1307.4
17200	17.912	2.6364	0.	-1329.1
17201	17.912	2.7273	5.e-002	-4.389
17202	18.189	2.7273	0.	-1264.4
17203	18.096	2.6364	0.	-1285.9
17204	18.096	2.7273	5.e-002	-4.3719
17205	18.373	2.7273	0.	-1221.5
17206	18.281	2.6364	0.	-1242.9
17207	18.281	2.7273	5.e-002	-4.3552
17208	18.558	2.7273	0.	-1178.8
17209	18.465	2.6364	0.	-1200.2
17210	18.465	2.7273	5.e-002	-4.3389
17211	18.742	2.7273	0.	-1136.4
17212	18.65	2.6364	0.	-1157.6
17213	18.65	2.7273	5.e-002	-4.323
17214	18.927	2.7273	0.	-1094.2
17215	18.834	2.6364	0.	-1115.3
17216	18.834	2.7273	5.e-002	-4.3077
17217	19.111	2.7273	0.	-1052.2
17218	19.019	2.6364	0.	-1073.1
17219	19.019	2.7273	5.e-002	-4.2928
17220	19.296	2.7273	0.	-1010.4
17221	19.203	2.6364	0.	-1031.2
17222	19.203	2.7273	5.e-002	-4.2786
17223	19.48	2.7273	0.	-968.77
17224	19.388	2.6364	0.	-989.52
17225	19.388	2.7273	5.e-002	-4.2649
17226	19.665	2.7273	0.	-927.4
17227	19.572	2.6364	0.	-948.03
17228	19.572	2.7273	5.e-002	-4.252
17229	19.849	2.7273	0.	-886.24
17230	19.757	2.6364	0.	-906.75
17231	19.757	2.7273	5.e-002	-4.2399
17232	20.033	2.7273	0.	-845.29
17233	19.941	2.6364	0.	-865.69
17234	19.941	2.7273	5.e-002	-4.2286
17235	20.218	2.7273	0.	-804.55
17236	20.126	2.6364	0.	-824.84
17237	20.126	2.7273	5.e-002	-4.2182
17238	20.402	2.7273	0.	-764.03
17239	20.31	2.6364	0.	-784.21
17240	20.31	2.7273	5.e-002	-4.2088
17241	20.587	2.7273	0.	-723.72
17242	20.495	2.6364	0.	-743.78
17243	20.495	2.7273	5.e-002	-4.2007
17244	20.771	2.7273	0.	-683.62
17245	20.679	2.6364	0.	-703.56
17246	20.679	2.7273	5.e-002	-4.1938
17247	20.956	2.7273	0.	-643.72
17248	20.864	2.6364	0.	-663.55
17249	20.864	2.7273	5.e-002	-4.1884
17250	21.14	2.7273	0.	-604.02
17251	21.048	2.6364	0.	-623.74
17252	21.048	2.7273	5.e-002	-4.1846
17253	21.325	2.7273	0.	-564.51
17254	21.233	2.6364	0.	-584.13
17255	21.233	2.7273	5.e-002	-4.1828
17256	21.509	2.7273	0.	-525.17
17257	21.417	2.6364	0.	-544.7
17258	21.417	2.7273	5.e-002	-4.183
17259	21.694	2.7273	0.	-486.01
17260	21.602	2.6364	0.	-505.45
17261	21.602	2.7273	5.e-002	-4.1855
17262	21.878	2.7273	0.	-447.
17263	21.786	2.6364	0.	-466.36
17264	21.786	2.7273	5.e-002	-4.1907
17265	22.063	2.7273	0.	-408.13
17266	21.971	2.6364	0.	-427.41
17267	21.971	2.7273	5.e-002	-4.1989
17268	22.247	2.7273	0.	-369.36
17269	22.155	2.6364	0.	-388.6
17270	22.155	2.7273	5.e-002	-4.2103
17271	22.432	2.7273	0.	-330.68
17272	22.34	2.6364	0.	-349.88
17273	22.34	2.7273	5.e-002	-4.2253
17274	22.616	2.7273	0.	-292.05
17275	22.524	2.6364	0.	-311.24
17276	22.524	2.7273	5.e-002	-4.2442
17277	22.801	2.7273	0.	-253.44
17278	22.709	2.6364	0.	-272.64
17279	22.709	2.7273	5.e-002	-4.2673
17280	22.985	2.7273	0.	-214.8
17281	22.893	2.6364	0.	-234.04
17282	22.893	2.7273	5.e-002	-4.2948
17283	23.17	2.7273	0.	-176.1
17284	23.078	2.6364	0.	-195.4
17285	23.078	2.7273	5.e-002	-4.3268
17286	23.354	2.7273	0.	-137.29
17287	23.262	2.6364	0.	-156.67
17288	23.262	2.7273	5.e-002	-4.3634
17289	23.539	2.7273	0.	-98.34
17290	23.447	2.6364	0.	-117.83
17291	23.447	2.7273	5.e-002	-4.4042
17292	23.723	2.7273	0.	-59.267
17293	23.631	2.6364	0.	-78.815
17294	23.631	2.7273	5.e-002	-4.4492
17295	23.816	2.6364	0.	-39.794
17296	23.816	2.7273	5.e-002	-4.5042
17297	23.908	2.7273	0.	-22.394
17298	5.6434	2.5455	0.	-10280
17299	5.5512	2.4545	0.	-11333
17300	5.5512	2.5455	5.e-002	-107.48
17301	5.8279	2.5455	0.	-9021.3
17302	5.7356	2.4545	0.	-9637.6
17303	5.7356	2.5455	5.e-002	-113.2
17304	6.0124	2.5455	0.	-7925.4
17305	5.9201	2.4545	0.	-8292.4
17306	5.9201	2.5455	5.e-002	-93.392
17307	6.1969	2.5455	0.	-7062.6
17308	6.1046	2.4545	0.	-7300.8
17309	6.1046	2.5455	5.e-002	-74.825
17310	6.3814	2.5455	0.	-6395.6
17311	6.2891	2.4545	0.	-6564.
17312	6.2891	2.5455	5.e-002	-59.718
17313	6.5658	2.5455	0.	-5877.2
17314	6.4736	2.4545	0.	-6004.6
17315	6.4736	2.5455	5.e-002	-48.234
17316	6.7503	2.5455	0.	-5469.7
17317	6.6581	2.4545	0.	-5571.
17318	6.6581	2.5455	5.e-002	-39.412
17319	6.9348	2.5455	0.	-5145.2
17320	6.8426	2.4545	0.	-5228.9
17321	6.8426	2.5455	5.e-002	-32.518
17322	7.1193	2.5455	0.	-4883.4
17323	7.0271	2.4545	0.	-4954.4
17324	7.0271	2.5455	5.e-002	-27.071
17325	7.3038	2.5455	0.	-4669.4
17326	7.2116	2.4545	0.	-4731.
17327	7.2116	2.5455	5.e-002	-22.743
17328	7.4883	2.5455	0.	-4492.1
17329	7.396	2.4545	0.	-4546.4
17330	7.396	2.5455	5.e-002	-19.295
17331	7.6728	2.5455	0.	-4342.9
17332	7.5805	2.4545	0.	-4391.5
17333	7.5805	2.5455	5.e-002	-16.542
17334	7.8573	2.5455	0.	-4215.6
17335	7.765	2.4545	0.	-4259.7
17336	7.765	2.5455	5.e-002	-14.341
17337	8.0417	2.5455	0.	-4105.1
17338	7.9495	2.4545	0.	-4145.7
17339	7.9495	2.5455	5.e-002	-12.581
17340	8.2262	2.5455	0.	-4007.9
17341	8.134	2.4545	0.	-4045.6
17342	8.134	2.5455	5.e-002	-11.17
17343	8.4107	2.5455	0.	-3920.9
17344	8.3185	2.4545	0.	-3956.3
17345	8.3185	2.5455	5.e-002	-10.04
17346	8.5952	2.5455	0.	-3841.9
17347	8.503	2.4545	0.	-3875.4
17348	8.503	2.5455	5.e-002	-9.1329
17349	8.7797	2.5455	0.	-3769.2
17350	8.6875	2.4545	0.	-3801.2
17351	8.6875	2.5455	5.e-002	-8.4039
17352	8.9642	2.5455	0.	-3701.3
17353	8.8719	2.4545	0.	-3732.1
17354	8.8719	2.5455	5.e-002	-7.8168
17355	9.1487	2.5455	0.	-3637.2
17356	9.0564	2.4545	0.	-3667.
17357	9.0564	2.5455	5.e-002	-7.3429
17358	9.3332	2.5455	0.	-3576.1
17359	9.2409	2.4545	0.	-3605.1
17360	9.2409	2.5455	5.e-002	-6.9591
17361	9.5177	2.5455	0.	-3517.4
17362	9.4254	2.4545	0.	-3545.8
17363	9.4254	2.5455	5.e-002	-6.647
17364	9.7021	2.5455	0.	-3460.5
17365	9.6099	2.4545	0.	-3488.3
17366	9.6099	2.5455	5.e-002	-6.3919
17367	9.8866	2.5455	0.	-3405.1
17368	9.7944	2.4545	0.	-3432.4
17369	9.7944	2.5455	5.e-002	-6.1823
17370	10.071	2.5455	0.	-3350.8
17371	9.9789	2.4545	0.	-3377.8
17372	9.9789	2.5455	5.e-002	-6.0088
17373	10.256	2.5455	0.	-3297.5
17374	10.163	2.4545	0.	-3324.1
17375	10.163	2.5455	5.e-002	-5.8641
17376	10.44	2.5455	0.	-3244.8
17377	10.348	2.4545	0.	-3271.2
17378	10.348	2.5455	5.e-002	-5.7423
17379	10.625	2.5455	0.	-3192.8
17380	10.532	2.4545	0.	-3219.
17381	10.532	2.5455	5.e-002	-5.6388
17382	10.809	2.5455	0.	-3141.3
17383	10.717	2.4545	0.	-3167.3
17384	10.717	2.5455	5.e-002	-5.5501
17385	10.994	2.5455	0.	-3090.3
17386	10.901	2.4545	0.	-3116.
17387	10.901	2.5455	5.e-002	-5.4732
17388	11.178	2.5455	0.	-3039.5
17389	11.086	2.4545	0.	-3065.2
17390	11.086	2.5455	5.e-002	-5.4057
17391	11.363	2.5455	0.	-2989.1
17392	11.27	2.4545	0.	-3014.6
17393	11.27	2.5455	5.e-002	-5.346
17394	11.547	2.5455	0.	-2939.
17395	11.455	2.4545	0.	-2964.3
17396	11.455	2.5455	5.e-002	-5.2925
17397	11.732	2.5455	0.	-2889.1
17398	11.639	2.4545	0.	-2914.3
17399	11.639	2.5455	5.e-002	-5.244
17400	11.916	2.5455	0.	-2839.4
17401	11.824	2.4545	0.	-2864.5
17402	11.824	2.5455	5.e-002	-5.1997
17403	12.1	2.5455	0.	-2790.
17404	12.008	2.4545	0.	-2814.9
17405	12.008	2.5455	5.e-002	-5.1587
17406	12.285	2.5455	0.	-2740.7
17407	12.193	2.4545	0.	-2765.6
17408	12.193	2.5455	5.e-002	-5.1206
17409	12.469	2.5455	0.	-2691.6
17410	12.377	2.4545	0.	-2716.4
17411	12.377	2.5455	5.e-002	-5.0849
17412	12.654	2.5455	0.	-2642.8
17413	12.562	2.4545	0.	-2667.4
17414	12.562	2.5455	5.e-002	-5.0512
17415	12.838	2.5455	0.	-2594.1
17416	12.746	2.4545	0.	-2618.6
17417	12.746	2.5455	5.e-002	-5.0191
17418	13.023	2.5455	0.	-2545.6
17419	12.931	2.4545	0.	-2570.
17420	12.931	2.5455	5.e-002	-4.9885
17421	13.207	2.5455	0.	-2497.3
17422	13.115	2.4545	0.	-2521.6
17423	13.115	2.5455	5.e-002	-4.9591
17424	13.392	2.5455	0.	-2449.1
17425	13.3	2.4545	0.	-2473.4
17426	13.3	2.5455	5.e-002	-4.9308
17427	13.576	2.5455	0.	-2401.2
17428	13.484	2.4545	0.	-2425.3
17429	13.484	2.5455	5.e-002	-4.9034
17430	13.761	2.5455	0.	-2353.4
17431	13.669	2.4545	0.	-2377.5
17432	13.669	2.5455	5.e-002	-4.8768
17433	13.945	2.5455	0.	-2305.8
17434	13.853	2.4545	0.	-2329.8
17435	13.853	2.5455	5.e-002	-4.8509
17436	14.13	2.5455	0.	-2258.4
17437	14.038	2.4545	0.	-2282.3
17438	14.038	2.5455	5.e-002	-4.8257
17439	14.314	2.5455	0.	-2211.2
17440	14.222	2.4545	0.	-2235.
17441	14.222	2.5455	5.e-002	-4.8011
17442	14.499	2.5455	0.	-2164.2
17443	14.407	2.4545	0.	-2187.8
17444	14.407	2.5455	5.e-002	-4.7769
17445	14.683	2.5455	0.	-2117.4
17446	14.591	2.4545	0.	-2140.9
17447	14.591	2.5455	5.e-002	-4.7533
17448	14.868	2.5455	0.	-2070.7
17449	14.776	2.4545	0.	-2094.1
17450	14.776	2.5455	5.e-002	-4.7302
17451	15.052	2.5455	0.	-2024.3
17452	14.96	2.4545	0.	-2047.6
17453	14.96	2.5455	5.e-002	-4.7075
17454	15.237	2.5455	0.	-1978.
17455	15.145	2.4545	0.	-2001.2
17456	15.145	2.5455	5.e-002	-4.6851
17457	15.421	2.5455	0.	-1931.9
17458	15.329	2.4545	0.	-1955.
17459	15.329	2.5455	5.e-002	-4.6631
17460	15.606	2.5455	0.	-1886.
17461	15.514	2.4545	0.	-1909.1
17462	15.514	2.5455	5.e-002	-4.6415
17463	15.79	2.5455	0.	-1840.3
17464	15.698	2.4545	0.	-1863.3
17465	15.698	2.5455	5.e-002	-4.6202
17466	15.975	2.5455	0.	-1794.8
17467	15.883	2.4545	0.	-1817.7
17468	15.883	2.5455	5.e-002	-4.5992
17469	16.159	2.5455	0.	-1749.5
17470	16.067	2.4545	0.	-1772.3
17471	16.067	2.5455	5.e-002	-4.5785
17472	16.344	2.5455	0.	-1704.4
17473	16.251	2.4545	0.	-1727.1
17474	16.251	2.5455	5.e-002	-4.5581
17475	16.528	2.5455	0.	-1659.5
17476	16.436	2.4545	0.	-1682.1
17477	16.436	2.5455	5.e-002	-4.5381
17478	16.713	2.5455	0.	-1614.8
17479	16.62	2.4545	0.	-1637.2
17480	16.62	2.5455	5.e-002	-4.5183
17481	16.897	2.5455	0.	-1570.3
17482	16.805	2.4545	0.	-1592.6
17483	16.805	2.5455	5.e-002	-4.4989
17484	17.082	2.5455	0.	-1526.
17485	16.989	2.4545	0.	-1548.2
17486	16.989	2.5455	5.e-002	-4.4797
17487	17.266	2.5455	0.	-1481.9
17488	17.174	2.4545	0.	-1504.
17489	17.174	2.5455	5.e-002	-4.4609
17490	17.451	2.5455	0.	-1438.
17491	17.358	2.4545	0.	-1460.
17492	17.358	2.5455	5.e-002	-4.4423
17493	17.635	2.5455	0.	-1394.3
17494	17.543	2.4545	0.	-1416.2
17495	17.543	2.5455	5.e-002	-4.4241
17496	17.82	2.5455	0.	-1350.8
17497	17.727	2.4545	0.	-1372.6
17498	17.727	2.5455	5.e-002	-4.4062
17499	18.004	2.5455	0.	-1307.6
17500	17.912	2.4545	0.	-1329.2
17501	17.912	2.5455	5.e-002	-4.3887
17502	18.189	2.5455	0.	-1264.5
17503	18.096	2.4545	0.	-1286.
17504	18.096	2.5455	5.e-002	-4.3716
17505	18.373	2.5455	0.	-1221.6
17506	18.281	2.4545	0.	-1243.1
17507	18.281	2.5455	5.e-002	-4.3549
17508	18.558	2.5455	0.	-1179.
17509	18.465	2.4545	0.	-1200.3
17510	18.465	2.5455	5.e-002	-4.3386
17511	18.742	2.5455	0.	-1136.5
17512	18.65	2.4545	0.	-1157.7
17513	18.65	2.5455	5.e-002	-4.3227
17514	18.927	2.5455	0.	-1094.3
17515	18.834	2.4545	0.	-1115.4
17516	18.834	2.5455	5.e-002	-4.3073
17517	19.111	2.5455	0.	-1052.2
17518	19.019	2.4545	0.	-1073.2
17519	19.019	2.5455	5.e-002	-4.2925
17520	19.296	2.5455	0.	-1010.4
17521	19.203	2.4545	0.	-1031.3
17522	19.203	2.5455	5.e-002	-4.2782
17523	19.48	2.5455	0.	-968.81
17524	19.388	2.4545	0.	-989.58
17525	19.388	2.5455	5.e-002	-4.2645
17526	19.665	2.5455	0.	-927.42
17527	19.572	2.4545	0.	-948.08
17528	19.572	2.5455	5.e-002	-4.2516
17529	19.849	2.5455	0.	-886.24
17530	19.757	2.4545	0.	-906.78
17531	19.757	2.5455	5.e-002	-4.2394
17532	20.033	2.5455	0.	-845.28
17533	19.941	2.4545	0.	-865.69
17534	19.941	2.5455	5.e-002	-4.228
17535	20.218	2.5455	0.	-804.53
17536	20.126	2.4545	0.	-824.82
17537	20.126	2.5455	5.e-002	-4.2176
17538	20.402	2.5455	0.	-763.98
17539	20.31	2.4545	0.	-784.16
17540	20.31	2.5455	5.e-002	-4.2081
17541	20.587	2.5455	0.	-723.65
17542	20.495	2.4545	0.	-743.71
17543	20.495	2.5455	5.e-002	-4.1999
17544	20.771	2.5455	0.	-683.53
17545	20.679	2.4545	0.	-703.46
17546	20.679	2.5455	5.e-002	-4.1929
17547	20.956	2.5455	0.	-643.6
17548	20.864	2.4545	0.	-663.42
17549	20.864	2.5455	5.e-002	-4.1873
17550	21.14	2.5455	0.	-603.88
17551	21.048	2.4545	0.	-623.59
17552	21.048	2.5455	5.e-002	-4.1834
17553	21.325	2.5455	0.	-564.35
17554	21.233	2.4545	0.	-583.94
17555	21.233	2.5455	5.e-002	-4.1813
17556	21.509	2.5455	0.	-525.
17557	21.417	2.4545	0.	-544.49
17558	21.417	2.5455	5.e-002	-4.1813
17559	21.694	2.5455	0.	-485.82
17560	21.602	2.4545	0.	-505.21
17561	21.602	2.5455	5.e-002	-4.1836
17562	21.878	2.5455	0.	-446.79
17563	21.786	2.4545	0.	-466.1
17564	21.786	2.5455	5.e-002	-4.1886
17565	22.063	2.5455	0.	-407.91
17566	21.971	2.4545	0.	-427.15
17567	21.971	2.5455	5.e-002	-4.1964
17568	22.247	2.5455	0.	-369.14
17569	22.155	2.4545	0.	-388.32
17570	22.155	2.5455	5.e-002	-4.2076
17571	22.432	2.5455	0.	-330.46
17572	22.34	2.4545	0.	-349.61
17573	22.34	2.5455	5.e-002	-4.2223
17574	22.616	2.5455	0.	-291.84
17575	22.524	2.4545	0.	-310.97
17576	22.524	2.5455	5.e-002	-4.241
17577	22.801	2.5455	0.	-253.25
17578	22.709	2.4545	0.	-272.39
17579	22.709	2.5455	5.e-002	-4.264
17580	22.985	2.5455	0.	-214.64
17581	22.893	2.4545	0.	-233.81
17582	22.893	2.5455	5.e-002	-4.2915
17583	23.17	2.5455	0.	-175.97
17584	23.078	2.4545	0.	-195.21
17585	23.078	2.5455	5.e-002	-4.3236
17586	23.354	2.5455	0.	-137.21
17587	23.262	2.4545	0.	-156.53
17588	23.262	2.5455	5.e-002	-4.3606
17589	23.539	2.5455	0.	-98.293
17590	23.447	2.4545	0.	-117.74
17591	23.447	2.5455	5.e-002	-4.402
17592	23.723	2.5455	0.	-59.263
17593	23.631	2.4545	0.	-78.78
17594	23.631	2.5455	5.e-002	-4.448
17595	23.816	2.4545	0.	-39.815
17596	23.816	2.5455	5.e-002	-4.5076
17597	23.908	2.5455	0.	-22.408
17598	5.6434	2.3636	0.	-10710
17599	5.5512	2.2727	0.	-12040
17600	5.5512	2.3636	5.e-002	-190.24
17601	5.8279	2.3636	0.	-8926.9
17602	5.7356	2.2727	0.	-9473.7
17603	5.7356	2.3636	5.e-002	-149.15
17604	6.0124	2.3636	0.	-7676.5
17605	5.9201	2.2727	0.	-7945.
17606	5.9201	2.3636	5.e-002	-107.22
17607	6.1969	2.3636	0.	-6805.7
17608	6.1046	2.2727	0.	-6963.3
17609	6.1046	2.3636	5.e-002	-75.196
17610	6.3814	2.3636	0.	-6174.3
17611	6.2891	2.2727	0.	-6279.8
17612	6.2891	2.3636	5.e-002	-57.095
17613	6.5658	2.3636	0.	-5698.8
17614	6.4736	2.2727	0.	-5777.3
17615	6.4736	2.3636	5.e-002	-45.227
17616	6.7503	2.3636	0.	-5330.3
17617	6.6581	2.2727	0.	-5393.7
17618	6.6581	2.3636	5.e-002	-36.741
17619	6.9348	2.3636	0.	-5038.1
17620	6.8426	2.2727	0.	-5092.4
17621	6.8426	2.3636	5.e-002	-30.34
17622	7.1193	2.3636	0.	-4802.
17623	7.0271	2.2727	0.	-4850.3
17624	7.0271	2.3636	5.e-002	-25.361
17625	7.3038	2.3636	0.	-4607.9
17626	7.2116	2.2727	0.	-4652.
17627	7.2116	2.3636	5.e-002	-21.421
17628	7.4883	2.3636	0.	-4445.8
17629	7.396	2.2727	0.	-4486.8
17630	7.396	2.3636	5.e-002	-18.275
17631	7.6728	2.3636	0.	-4308.3
17632	7.5805	2.2727	0.	-4346.8
17633	7.5805	2.3636	5.e-002	-15.753
17634	7.8573	2.3636	0.	-4189.9
17635	7.765	2.2727	0.	-4226.3
17636	7.765	2.3636	5.e-002	-13.727
17637	8.0417	2.3636	0.	-4086.2
17638	7.9495	2.2727	0.	-4120.9
17639	7.9495	2.3636	5.e-002	-12.098
17640	8.2262	2.3636	0.	-3994.
17641	8.134	2.2727	0.	-4027.3
17642	8.134	2.3636	5.e-002	-10.788
17643	8.4107	2.3636	0.	-3910.8
17644	8.3185	2.2727	0.	-3943.
17645	8.3185	2.3636	5.e-002	-9.7344
17646	8.5952	2.3636	0.	-3834.7
17647	8.503	2.2727	0.	-3865.8
17648	8.503	2.3636	5.e-002	-8.887
17649	8.7797	2.3636	0.	-3764.1
17650	8.6875	2.2727	0.	-3794.4
17651	8.6875	2.3636	5.e-002	-8.205
17652	8.9642	2.3636	0.	-3697.8
17653	8.8719	2.2727	0.	-3727.4
17654	8.8719	2.3636	5.e-002	-7.6556
17655	9.1487	2.3636	0.	-3635.
17656	9.0564	2.2727	0.	-3663.9
17657	9.0564	2.3636	5.e-002	-7.2119
17658	9.3332	2.3636	0.	-3574.8
17659	9.2409	2.2727	0.	-3603.2
17660	9.2409	2.3636	5.e-002	-6.8527
17661	9.5177	2.3636	0.	-3516.7
17662	9.4254	2.2727	0.	-3544.6
17663	9.4254	2.3636	5.e-002	-6.5606
17664	9.7021	2.3636	0.	-3460.3
17665	9.6099	2.2727	0.	-3487.8
17666	9.6099	2.3636	5.e-002	-6.322
17667	9.8866	2.3636	0.	-3405.2
17668	9.7944	2.2727	0.	-3432.4
17669	9.7944	2.3636	5.e-002	-6.1257
17670	10.071	2.3636	0.	-3351.1
17671	9.9789	2.2727	0.	-3378.
17672	9.9789	2.3636	5.e-002	-5.963
17673	10.256	2.3636	0.	-3297.9
17674	10.163	2.2727	0.	-3324.6
17675	10.163	2.3636	5.e-002	-5.8272
17676	10.44	2.3636	0.	-3245.4
17677	10.348	2.2727	0.	-3271.9
17678	10.348	2.3636	5.e-002	-5.7125
17679	10.625	2.3636	0.	-3193.5
17680	10.532	2.2727	0.	-3219.7
17681	10.532	2.3636	5.e-002	-5.6148
17682	10.809	2.3636	0.	-3142.
17683	10.717	2.2727	0.	-3168.1
17684	10.717	2.3636	5.e-002	-5.5308
17685	10.994	2.3636	0.	-3091.
17686	10.901	2.2727	0.	-3116.8
17687	10.901	2.3636	5.e-002	-5.4576
17688	11.178	2.3636	0.	-3040.2
17689	11.086	2.2727	0.	-3066.
17690	11.086	2.3636	5.e-002	-5.3932
17691	11.363	2.3636	0.	-2989.8
17692	11.27	2.2727	0.	-3015.4
17693	11.27	2.3636	5.e-002	-5.3358
17694	11.547	2.3636	0.	-2939.6
17695	11.455	2.2727	0.	-2965.1
17696	11.455	2.3636	5.e-002	-5.2843
17697	11.732	2.3636	0.	-2889.7
17698	11.639	2.2727	0.	-2915.
17699	11.639	2.3636	5.e-002	-5.2373
17700	11.916	2.3636	0.	-2840.
17701	11.824	2.2727	0.	-2865.2
17702	11.824	2.3636	5.e-002	-5.1942
17703	12.1	2.3636	0.	-2790.5
17704	12.008	2.2727	0.	-2815.6
17705	12.008	2.3636	5.e-002	-5.1543
17706	12.285	2.3636	0.	-2741.3
17707	12.193	2.2727	0.	-2766.2
17708	12.193	2.3636	5.e-002	-5.1169
17709	12.469	2.3636	0.	-2692.2
17710	12.377	2.2727	0.	-2717.
17711	12.377	2.3636	5.e-002	-5.0818
17712	12.654	2.3636	0.	-2643.3
17713	12.562	2.2727	0.	-2668.
17714	12.562	2.3636	5.e-002	-5.0486
17715	12.838	2.3636	0.	-2594.6
17716	12.746	2.2727	0.	-2619.2
17717	12.746	2.3636	5.e-002	-5.0169
17718	13.023	2.3636	0.	-2546.1
17719	12.931	2.2727	0.	-2570.6
17720	12.931	2.3636	5.e-002	-4.9866
17721	13.207	2.3636	0.	-2497.7
17722	13.115	2.2727	0.	-2522.2
17723	13.115	2.3636	5.e-002	-4.9576
17724	13.392	2.3636	0.	-2449.6
17725	13.3	2.2727	0.	-2473.9
17726	13.3	2.3636	5.e-002	-4.9294
17727	13.576	2.3636	0.	-2401.6
17728	13.484	2.2727	0.	-2425.8
17729	13.484	2.3636	5.e-002	-4.9022
17730	13.761	2.3636	0.	-2353.8
17731	13.669	2.2727	0.	-2377.9
17732	13.669	2.3636	5.e-002	-4.8757
17733	13.945	2.3636	0.	-2306.2
17734	13.853	2.2727	0.	-2330.2
17735	13.853	2.3636	5.e-002	-4.8499
17736	14.13	2.3636	0.	-2258.8
17737	14.038	2.2727	0.	-2282.7
17738	14.038	2.3636	5.e-002	-4.8248
17739	14.314	2.3636	0.	-2211.6
17740	14.222	2.2727	0.	-2235.4
17741	14.222	2.3636	5.e-002	-4.8003
17742	14.499	2.3636	0.	-2164.6
17743	14.407	2.2727	0.	-2188.3
17744	14.407	2.3636	5.e-002	-4.7763
17745	14.683	2.3636	0.	-2117.7
17746	14.591	2.2727	0.	-2141.3
17747	14.591	2.3636	5.e-002	-4.7527
17748	14.868	2.3636	0.	-2071.
17749	14.776	2.2727	0.	-2094.5
17750	14.776	2.3636	5.e-002	-4.7297
17751	15.052	2.3636	0.	-2024.6
17752	14.96	2.2727	0.	-2048.
17753	14.96	2.3636	5.e-002	-4.7069
17754	15.237	2.3636	0.	-1978.3
17755	15.145	2.2727	0.	-2001.6
17756	15.145	2.3636	5.e-002	-4.6846
17757	15.421	2.3636	0.	-1932.2
17758	15.329	2.2727	0.	-1955.4
17759	15.329	2.3636	5.e-002	-4.6626
17760	15.606	2.3636	0.	-1886.3
17761	15.514	2.2727	0.	-1909.4
17762	15.514	2.3636	5.e-002	-4.641
17763	15.79	2.3636	0.	-1840.6
17764	15.698	2.2727	0.	-1863.6
17765	15.698	2.3636	5.e-002	-4.6197
17766	15.975	2.3636	0.	-1795.1
17767	15.883	2.2727	0.	-1818.
17768	15.883	2.3636	5.e-002	-4.5988
17769	16.159	2.3636	0.	-1749.8
17770	16.067	2.2727	0.	-1772.6
17771	16.067	2.3636	5.e-002	-4.5781
17772	16.344	2.3636	0.	-1704.7
17773	16.251	2.2727	0.	-1727.4
17774	16.251	2.3636	5.e-002	-4.5577
17775	16.528	2.3636	0.	-1659.8
17776	16.436	2.2727	0.	-1682.4
17777	16.436	2.3636	5.e-002	-4.5377
17778	16.713	2.3636	0.	-1615.1
17779	16.62	2.2727	0.	-1637.6
17780	16.62	2.3636	5.e-002	-4.518
17781	16.897	2.3636	0.	-1570.6
17782	16.805	2.2727	0.	-1592.9
17783	16.805	2.3636	5.e-002	-4.4985
17784	17.082	2.3636	0.	-1526.3
17785	16.989	2.2727	0.	-1548.5
17786	16.989	2.3636	5.e-002	-4.4794
17787	17.266	2.3636	0.	-1482.2
17788	17.174	2.2727	0.	-1504.3
17789	17.174	2.3636	5.e-002	-4.4605
17790	17.451	2.3636	0.	-1438.3
17791	17.358	2.2727	0.	-1460.3
17792	17.358	2.3636	5.e-002	-4.442
17793	17.635	2.3636	0.	-1394.5
17794	17.543	2.2727	0.	-1416.5
17795	17.543	2.3636	5.e-002	-4.4238
17796	17.82	2.3636	0.	-1351.
17797	17.727	2.2727	0.	-1372.9
17798	17.727	2.3636	5.e-002	-4.4059
17799	18.004	2.3636	0.	-1307.8
17800	17.912	2.2727	0.	-1329.5
17801	17.912	2.3636	5.e-002	-4.3883
17802	18.189	2.3636	0.	-1264.7
17803	18.096	2.2727	0.	-1286.3
17804	18.096	2.3636	5.e-002	-4.3712
17805	18.373	2.3636	0.	-1221.8
17806	18.281	2.2727	0.	-1243.3
17807	18.281	2.3636	5.e-002	-4.3545
17808	18.558	2.3636	0.	-1179.1
17809	18.465	2.2727	0.	-1200.5
17810	18.465	2.3636	5.e-002	-4.3381
17811	18.742	2.3636	0.	-1136.6
17812	18.65	2.2727	0.	-1157.9
17813	18.65	2.3636	5.e-002	-4.3223
17814	18.927	2.3636	0.	-1094.4
17815	18.834	2.2727	0.	-1115.5
17816	18.834	2.3636	5.e-002	-4.3069
17817	19.111	2.3636	0.	-1052.3
17818	19.019	2.2727	0.	-1073.4
17819	19.019	2.3636	5.e-002	-4.292
17820	19.296	2.3636	0.	-1010.5
17821	19.203	2.2727	0.	-1031.4
17822	19.203	2.3636	5.e-002	-4.2776
17823	19.48	2.3636	0.	-968.88
17824	19.388	2.2727	0.	-989.68
17825	19.388	2.3636	5.e-002	-4.264
17826	19.665	2.3636	0.	-927.47
17827	19.572	2.2727	0.	-948.15
17828	19.572	2.3636	5.e-002	-4.2509
17829	19.849	2.3636	0.	-886.26
17830	19.757	2.2727	0.	-906.82
17831	19.757	2.3636	5.e-002	-4.2387
17832	20.033	2.3636	0.	-845.27
17833	19.941	2.2727	0.	-865.71
17834	19.941	2.3636	5.e-002	-4.2272
17835	20.218	2.3636	0.	-804.49
17836	20.126	2.2727	0.	-824.8
17837	20.126	2.3636	5.e-002	-4.2166
17838	20.402	2.3636	0.	-763.92
17839	20.31	2.2727	0.	-784.11
17840	20.31	2.3636	5.e-002	-4.2071
17841	20.587	2.3636	0.	-723.55
17842	20.495	2.2727	0.	-743.62
17843	20.495	2.3636	5.e-002	-4.1987
17844	20.771	2.3636	0.	-683.4
17845	20.679	2.2727	0.	-703.34
17846	20.679	2.3636	5.e-002	-4.1915
17847	20.956	2.3636	0.	-643.44
17848	20.864	2.2727	0.	-663.26
17849	20.864	2.3636	5.e-002	-4.1857
17850	21.14	2.3636	0.	-603.68
17851	21.048	2.2727	0.	-623.38
17852	21.048	2.3636	5.e-002	-4.1816
17853	21.325	2.3636	0.	-564.12
17854	21.233	2.2727	0.	-583.7
17855	21.233	2.3636	5.e-002	-4.1792
17856	21.509	2.3636	0.	-524.73
17857	21.417	2.2727	0.	-544.21
17858	21.417	2.3636	5.e-002	-4.1789
17859	21.694	2.3636	0.	-485.53
17860	21.602	2.2727	0.	-504.9
17861	21.602	2.3636	5.e-002	-4.1808
17862	21.878	2.3636	0.	-446.48
17863	21.786	2.2727	0.	-465.76
17864	21.786	2.3636	5.e-002	-4.1853
17865	22.063	2.3636	0.	-407.58
17866	21.971	2.2727	0.	-426.78
17867	21.971	2.3636	5.e-002	-4.1928
17868	22.247	2.3636	0.	-368.81
17869	22.155	2.2727	0.	-387.94
17870	22.155	2.3636	5.e-002	-4.2035
17871	22.432	2.3636	0.	-330.13
17872	22.34	2.2727	0.	-349.22
17873	22.34	2.3636	5.e-002	-4.2178
17874	22.616	2.3636	0.	-291.53
17875	22.524	2.2727	0.	-310.59
17876	22.524	2.3636	5.e-002	-4.2361
17877	22.801	2.3636	0.	-252.97
17878	22.709	2.2727	0.	-272.03
17879	22.709	2.3636	5.e-002	-4.2589
17880	22.985	2.3636	0.	-214.4
17881	22.893	2.2727	0.	-233.5
17882	22.893	2.3636	5.e-002	-4.2864
17883	23.17	2.3636	0.	-175.78
17884	23.078	2.2727	0.	-194.95
17885	23.078	2.3636	5.e-002	-4.3188
17886	23.354	2.3636	0.	-137.07
17887	23.262	2.2727	0.	-156.33
17888	23.262	2.3636	5.e-002	-4.3562
17889	23.539	2.3636	0.	-98.219
17890	23.447	2.2727	0.	-117.61
17891	23.447	2.3636	5.e-002	-4.3986
17892	23.723	2.3636	0.	-59.255
17893	23.631	2.2727	0.	-78.728
17894	23.631	2.3636	5.e-002	-4.4463
17895	23.816	2.2727	0.	-39.843
17896	23.816	2.3636	5.e-002	-4.5126
17897	23.908	2.3636	0.	-22.427
17898	5.6434	2.1818	0.	-10853
17899	5.5512	2.0909	0.	-12113
17900	5.5512	2.1818	5.e-002	-437.36
17901	5.8279	2.1818	0.	-8511.
17902	5.7356	2.0909	0.	-8772.
17903	5.7356	2.1818	5.e-002	-202.88
17904	6.0124	2.1818	0.	-7236.7
17905	5.9201	2.0909	0.	-7359.5
17906	5.9201	2.1818	5.e-002	-102.78
17907	6.1969	2.1818	0.	-6438.1
17908	6.1046	2.0909	0.	-6499.
17909	6.1046	2.1818	5.e-002	-70.421
17910	6.3814	2.1818	0.	-5882.3
17911	6.2891	2.0909	0.	-5919.7
17912	6.2891	2.1818	5.e-002	-52.348
17913	6.5658	2.1818	0.	-5471.5
17914	6.4736	2.0909	0.	-5499.5
17915	6.4736	2.1818	5.e-002	-41.186
17916	6.7503	2.1818	0.	-5155.2
17917	6.6581	2.0909	0.	-5180.3
17918	6.6581	2.1818	5.e-002	-33.464
17919	6.9348	2.1818	0.	-4904.2
17920	6.8426	2.0909	0.	-4929.
17921	6.8426	2.1818	5.e-002	-27.74
17922	7.1193	2.1818	0.	-4700.1
17923	7.0271	2.0909	0.	-4725.6
17924	7.0271	2.1818	5.e-002	-23.319
17925	7.3038	2.1818	0.	-4530.7
17926	7.2116	2.0909	0.	-4557.3
17927	7.2116	2.1818	5.e-002	-19.822
17928	7.4883	2.1818	0.	-4387.7
17929	7.396	2.0909	0.	-4415.1
17930	7.396	2.1818	5.e-002	-17.023
17931	7.6728	2.1818	0.	-4264.7
17932	7.5805	2.0909	0.	-4292.8
17933	7.5805	2.1818	5.e-002	-14.767
17934	7.8573	2.1818	0.	-4157.3
17935	7.765	2.0909	0.	-4185.8
17936	7.765	2.1818	5.e-002	-12.946
17937	8.0417	2.1818	0.	-4062.1
17938	7.9495	2.0909	0.	-4090.8
17939	7.9495	2.1818	5.e-002	-11.475
17940	8.2262	2.1818	0.	-3976.3
17941	8.134	2.0909	0.	-4005.
17942	8.134	2.1818	5.e-002	-10.288
17943	8.4107	2.1818	0.	-3898.
17944	8.3185	2.0909	0.	-3926.7
17945	8.3185	2.1818	5.e-002	-9.3309
17946	8.5952	2.1818	0.	-3825.5
17947	8.503	2.0909	0.	-3854.1
17948	8.503	2.1818	5.e-002	-8.5602
17949	8.7797	2.1818	0.	-3757.7
17950	8.6875	2.0909	0.	-3786.
17951	8.6875	2.1818	5.e-002	-7.9398
17952	8.9642	2.1818	0.	-3693.4
17953	8.8719	2.0909	0.	-3721.6
17954	8.8719	2.1818	5.e-002	-7.4401
17955	9.1487	2.1818	0.	-3632.1
17956	9.0564	2.0909	0.	-3660.
17957	9.0564	2.1818	5.e-002	-7.037
17958	9.3332	2.1818	0.	-3573.
17959	9.2409	2.0909	0.	-3600.7
17960	9.2409	2.1818	5.e-002	-6.7108
17961	9.5177	2.1818	0.	-3515.8
17962	9.4254	2.0909	0.	-3543.2
17963	9.4254	2.1818	5.e-002	-6.4457
17964	9.7021	2.1818	0.	-3459.9
17965	9.6099	2.0909	0.	-3487.2
17966	9.6099	2.1818	5.e-002	-6.229
17967	9.8866	2.1818	0.	-3405.3
17968	9.7944	2.0909	0.	-3432.3
17969	9.7944	2.1818	5.e-002	-6.0507
17970	10.071	2.1818	0.	-3351.5
17971	9.9789	2.0909	0.	-3378.4
17972	9.9789	2.1818	5.e-002	-5.9026
17973	10.256	2.1818	0.	-3298.5
17974	10.163	2.0909	0.	-3325.2
17975	10.163	2.1818	5.e-002	-5.7785
17976	10.44	2.1818	0.	-3246.2
17977	10.348	2.0909	0.	-3272.6
17978	10.348	2.1818	5.e-002	-5.6734
17979	10.625	2.1818	0.	-3194.3
17980	10.532	2.0909	0.	-3220.6
17981	10.532	2.1818	5.e-002	-5.5834
17982	10.809	2.1818	0.	-3142.9
17983	10.717	2.0909	0.	-3169.
17984	10.717	2.1818	5.e-002	-5.5055
17985	10.994	2.1818	0.	-3091.9
17986	10.901	2.0909	0.	-3117.8
17987	10.901	2.1818	5.e-002	-5.4373
17988	11.178	2.1818	0.	-3041.1
17989	11.086	2.0909	0.	-3067.
17990	11.086	2.1818	5.e-002	-5.3768
17991	11.363	2.1818	0.	-2990.7
17992	11.27	2.0909	0.	-3016.4
17993	11.27	2.1818	5.e-002	-5.3226
17994	11.547	2.1818	0.	-2940.5
17995	11.455	2.0909	0.	-2966.1
17996	11.455	2.1818	5.e-002	-5.2736
17997	11.732	2.1818	0.	-2890.6
17998	11.639	2.0909	0.	-2916.
17999	11.639	2.1818	5.e-002	-5.2286
18000	11.916	2.1818	0.	-2840.8
18001	11.824	2.0909	0.	-2866.1
18002	11.824	2.1818	5.e-002	-5.1871
18003	12.1	2.1818	0.	-2791.3
18004	12.008	2.0909	0.	-2816.5
18005	12.008	2.1818	5.e-002	-5.1485
18006	12.285	2.1818	0.	-2742.
18007	12.193	2.0909	0.	-2767.1
18008	12.193	2.1818	5.e-002	-5.1121
18009	12.469	2.1818	0.	-2692.9
18010	12.377	2.0909	0.	-2717.9
18011	12.377	2.1818	5.e-002	-5.0778
18012	12.654	2.1818	0.	-2644.
18013	12.562	2.0909	0.	-2668.8
18014	12.562	2.1818	5.e-002	-5.0453
18015	12.838	2.1818	0.	-2595.2
18016	12.746	2.0909	0.	-2620.
18017	12.746	2.1818	5.e-002	-5.0141
18018	13.023	2.1818	0.	-2546.7
18019	12.931	2.0909	0.	-2571.3
18020	12.931	2.1818	5.e-002	-4.9843
18021	13.207	2.1818	0.	-2498.3
18022	13.115	2.0909	0.	-2522.8
18023	13.115	2.1818	5.e-002	-4.9555
18024	13.392	2.1818	0.	-2450.2
18025	13.3	2.0909	0.	-2474.6
18026	13.3	2.1818	5.e-002	-4.9276
18027	13.576	2.1818	0.	-2402.2
18028	13.484	2.0909	0.	-2426.5
18029	13.484	2.1818	5.e-002	-4.9006
18030	13.761	2.1818	0.	-2354.4
18031	13.669	2.0909	0.	-2378.6
18032	13.669	2.1818	5.e-002	-4.8743
18033	13.945	2.1818	0.	-2306.8
18034	13.853	2.0909	0.	-2330.8
18035	13.853	2.1818	5.e-002	-4.8487
18036	14.13	2.1818	0.	-2259.3
18037	14.038	2.0909	0.	-2283.3
18038	14.038	2.1818	5.e-002	-4.8237
18039	14.314	2.1818	0.	-2212.1
18040	14.222	2.0909	0.	-2235.9
18041	14.222	2.1818	5.e-002	-4.7993
18042	14.499	2.1818	0.	-2165.
18043	14.407	2.0909	0.	-2188.8
18044	14.407	2.1818	5.e-002	-4.7753
18045	14.683	2.1818	0.	-2118.2
18046	14.591	2.0909	0.	-2141.8
18047	14.591	2.1818	5.e-002	-4.7519
18048	14.868	2.1818	0.	-2071.5
18049	14.776	2.0909	0.	-2095.
18050	14.776	2.1818	5.e-002	-4.7289
18051	15.052	2.1818	0.	-2025.
18052	14.96	2.0909	0.	-2048.5
18053	14.96	2.1818	5.e-002	-4.7062
18054	15.237	2.1818	0.	-1978.7
18055	15.145	2.0909	0.	-2002.1
18056	15.145	2.1818	5.e-002	-4.6839
18057	15.421	2.1818	0.	-1932.6
18058	15.329	2.0909	0.	-1955.9
18059	15.329	2.1818	5.e-002	-4.662
18060	15.606	2.1818	0.	-1886.7
18061	15.514	2.0909	0.	-1909.9
18062	15.514	2.1818	5.e-002	-4.6404
18063	15.79	2.1818	0.	-1841.
18064	15.698	2.0909	0.	-1864.1
18065	15.698	2.1818	5.e-002	-4.6192
18066	15.975	2.1818	0.	-1795.5
18067	15.883	2.0909	0.	-1818.4
18068	15.883	2.1818	5.e-002	-4.5982
18069	16.159	2.1818	0.	-1750.2
18070	16.067	2.0909	0.	-1773.
18071	16.067	2.1818	5.e-002	-4.5776
18072	16.344	2.1818	0.	-1705.1
18073	16.251	2.0909	0.	-1727.8
18074	16.251	2.1818	5.e-002	-4.5572
18075	16.528	2.1818	0.	-1660.2
18076	16.436	2.0909	0.	-1682.8
18077	16.436	2.1818	5.e-002	-4.5372
18078	16.713	2.1818	0.	-1615.4
18079	16.62	2.0909	0.	-1638.
18080	16.62	2.1818	5.e-002	-4.5175
18081	16.897	2.1818	0.	-1570.9
18082	16.805	2.0909	0.	-1593.3
18083	16.805	2.1818	5.e-002	-4.498
18084	17.082	2.1818	0.	-1526.6
18085	16.989	2.0909	0.	-1548.9
18086	16.989	2.1818	5.e-002	-4.4789
18087	17.266	2.1818	0.	-1482.5
18088	17.174	2.0909	0.	-1504.7
18089	17.174	2.1818	5.e-002	-4.4601
18090	17.451	2.1818	0.	-1438.6
18091	17.358	2.0909	0.	-1460.6
18092	17.358	2.1818	5.e-002	-4.4415
18093	17.635	2.1818	0.	-1394.8
18094	17.543	2.0909	0.	-1416.8
18095	17.543	2.1818	5.e-002	-4.4233
18096	17.82	2.1818	0.	-1351.3
18097	17.727	2.0909	0.	-1373.2
18098	17.727	2.1818	5.e-002	-4.4054
18099	18.004	2.1818	0.	-1308.
18100	17.912	2.0909	0.	-1329.8
18101	17.912	2.1818	5.e-002	-4.3879
18102	18.189	2.1818	0.	-1264.9
18103	18.096	2.0909	0.	-1286.6
18104	18.096	2.1818	5.e-002	-4.3707
18105	18.373	2.1818	0.	-1222.
18106	18.281	2.0909	0.	-1243.6
18107	18.281	2.1818	5.e-002	-4.354
18108	18.558	2.1818	0.	-1179.3
18109	18.465	2.0909	0.	-1200.8
18110	18.465	2.1818	5.e-002	-4.3376
18111	18.742	2.1818	0.	-1136.8
18112	18.65	2.0909	0.	-1158.2
18113	18.65	2.1818	5.e-002	-4.3217
18114	18.927	2.1818	0.	-1094.6
18115	18.834	2.0909	0.	-1115.8
18116	18.834	2.1818	5.e-002	-4.3063
18117	19.111	2.1818	0.	-1052.5
18118	19.019	2.0909	0.	-1073.6
18119	19.019	2.1818	5.e-002	-4.2913
18120	19.296	2.1818	0.	-1010.6
18121	19.203	2.0909	0.	-1031.6
18122	19.203	2.1818	5.e-002	-4.2769
18123	19.48	2.1818	0.	-968.98
18124	19.388	2.0909	0.	-989.82
18125	19.388	2.1818	5.e-002	-4.2632
18126	19.665	2.1818	0.	-927.54
18127	19.572	2.0909	0.	-948.25
18128	19.572	2.1818	5.e-002	-4.2501
18129	19.849	2.1818	0.	-886.3
18130	19.757	2.0909	0.	-906.89
18131	19.757	2.1818	5.e-002	-4.2377
18132	20.033	2.1818	0.	-845.27
18133	19.941	2.0909	0.	-865.74
18134	19.941	2.1818	5.e-002	-4.2261
18135	20.218	2.1818	0.	-804.45
18136	20.126	2.0909	0.	-824.79
18137	20.126	2.1818	5.e-002	-4.2154
18138	20.402	2.1818	0.	-763.84
18139	20.31	2.0909	0.	-784.06
18140	20.31	2.1818	5.e-002	-4.2057
18141	20.587	2.1818	0.	-723.44
18142	20.495	2.0909	0.	-743.52
18143	20.495	2.1818	5.e-002	-4.1971
18144	20.771	2.1818	0.	-683.23
18145	20.679	2.0909	0.	-703.19
18146	20.679	2.1818	5.e-002	-4.1897
18147	20.956	2.1818	0.	-643.23
18148	20.864	2.0909	0.	-663.06
18149	20.864	2.1818	5.e-002	-4.1837
18150	21.14	2.1818	0.	-603.43
18151	21.048	2.0909	0.	-623.13
18152	21.048	2.1818	5.e-002	-4.1792
18153	21.325	2.1818	0.	-563.82
18154	21.233	2.0909	0.	-583.4
18155	21.233	2.1818	5.e-002	-4.1764
18156	21.509	2.1818	0.	-524.4
18157	21.417	2.0909	0.	-543.86
18158	21.417	2.1818	5.e-002	-4.1757
18159	21.694	2.1818	0.	-485.15
18160	21.602	2.0909	0.	-504.5
18161	21.602	2.1818	5.e-002	-4.1771
18162	21.878	2.1818	0.	-446.08
18163	21.786	2.0909	0.	-465.32
18164	21.786	2.1818	5.e-002	-4.1811
18165	22.063	2.1818	0.	-407.15
18166	21.971	2.0909	0.	-426.31
18167	21.971	2.1818	5.e-002	-4.1879
18168	22.247	2.1818	0.	-368.37
18169	22.155	2.0909	0.	-387.45
18170	22.155	2.1818	5.e-002	-4.198
18171	22.432	2.1818	0.	-329.7
18172	22.34	2.0909	0.	-348.72
18173	22.34	2.1818	5.e-002	-4.2118
18174	22.616	2.1818	0.	-291.11
18175	22.524	2.0909	0.	-310.1
18176	22.524	2.1818	5.e-002	-4.2296
18177	22.801	2.1818	0.	-252.58
18178	22.709	2.0909	0.	-271.56
18179	22.709	2.1818	5.e-002	-4.252
18180	22.985	2.1818	0.	-214.06
18181	22.893	2.0909	0.	-233.07
18182	22.893	2.1818	5.e-002	-4.2794
18183	23.17	2.1818	0.	-175.51
18184	23.078	2.0909	0.	-194.59
18185	23.078	2.1818	5.e-002	-4.312
18186	23.354	2.1818	0.	-136.88
18187	23.262	2.0909	0.	-156.06
18188	23.262	2.1818	5.e-002	-4.3502
18189	23.539	2.1818	0.	-98.112
18190	23.447	2.0909	0.	-117.43
18191	23.447	2.1818	5.e-002	-4.3938
18192	23.723	2.1818	0.	-59.239
18193	23.631	2.0909	0.	-78.652
18194	23.631	2.1818	5.e-002	-4.4437
18195	23.816	2.0909	0.	-39.876
18196	23.816	2.1818	5.e-002	-4.5191
18197	23.908	2.1818	0.	-22.452
18198	5.6434	2.	0.	-10119
18199	5.5512	1.9091	0.	-10232
18200	5.5512	2.	5.e-002	-825.06
18201	5.4589	2.	0.	-18018
18202	5.8279	2.	0.	-7629.3
18203	5.7356	1.9091	0.	-7583.
18204	5.7356	2.	5.e-002	-142.45
18205	6.0124	2.	0.	-6621.1
18206	5.9201	1.9091	0.	-6578.4
18207	5.9201	2.	5.e-002	-91.916
18208	6.1969	2.	0.	-5978.2
18209	6.1046	1.9091	0.	-5940.3
18210	6.1046	2.	5.e-002	-61.282
18211	6.3814	2.	0.	-5534.7
18212	6.2891	1.9091	0.	-5504.6
18213	6.2891	2.	5.e-002	-46.197
18214	6.5658	2.	0.	-5206.7
18215	6.4736	1.9091	0.	-5185.7
18216	6.4736	2.	5.e-002	-36.526
18217	6.7503	2.	0.	-4953.
18218	6.6581	1.9091	0.	-4941.
18219	6.6581	2.	5.e-002	-29.859
18220	6.9348	2.	0.	-4749.8
18221	6.8426	1.9091	0.	-4746.1
18222	6.8426	2.	5.e-002	-24.903
18223	7.1193	2.	0.	-4582.4
18224	7.0271	1.9091	0.	-4586.
18225	7.0271	2.	5.e-002	-21.072
18226	7.3038	2.	0.	-4441.4
18227	7.2116	1.9091	0.	-4450.8
18228	7.2116	2.	5.e-002	-18.034
18229	7.4883	2.	0.	-4320.1
18230	7.396	1.9091	0.	-4334.2
18231	7.396	2.	5.e-002	-15.592
18232	7.6728	2.	0.	-4213.8
18233	7.5805	1.9091	0.	-4231.6
18234	7.5805	2.	5.e-002	-13.618
18235	7.8573	2.	0.	-4119.2
18236	7.765	1.9091	0.	-4139.8
18237	7.765	2.	5.e-002	-12.018
18238	8.0417	2.	0.	-4033.7
18239	7.9495	1.9091	0.	-4056.3
18240	7.9495	2.	5.e-002	-10.723
18241	8.2262	2.	0.	-3955.4
18242	8.134	1.9091	0.	-3979.5
18243	8.134	2.	5.e-002	-9.6762
18244	8.4107	2.	0.	-3882.8
18245	8.3185	1.9091	0.	-3907.9
18246	8.3185	2.	5.e-002	-8.8326
18247	8.5952	2.	0.	-3814.6
18248	8.503	1.9091	0.	-3840.5
18249	8.503	2.	5.e-002	-8.1541
18250	8.7797	2.	0.	-3750.
18251	8.6875	1.9091	0.	-3776.4
18252	8.6875	2.	5.e-002	-7.609
18253	8.9642	2.	0.	-3688.2
18254	8.8719	1.9091	0.	-3714.9
18255	8.8719	2.	5.e-002	-7.1711
18256	9.1487	2.	0.	-3628.6
18257	9.0564	1.9091	0.	-3655.5
18258	9.0564	2.	5.e-002	-6.8187
18259	9.3332	2.	0.	-3570.9
18260	9.2409	1.9091	0.	-3597.9
18261	9.2409	2.	5.e-002	-6.5341
18262	9.5177	2.	0.	-3514.7
18263	9.4254	1.9091	0.	-3541.6
18264	9.4254	2.	5.e-002	-6.303
18265	9.7021	2.	0.	-3459.6
18266	9.6099	1.9091	0.	-3486.4
18267	9.6099	2.	5.e-002	-6.114
18268	9.8866	2.	0.	-3405.4
18269	9.7944	1.9091	0.	-3432.2
18270	9.7944	2.	5.e-002	-5.9581
18271	10.071	2.	0.	-3352.
18272	9.9789	1.9091	0.	-3378.7
18273	9.9789	2.	5.e-002	-5.8283
18274	10.256	2.	0.	-3299.3
18275	10.163	1.9091	0.	-3325.9
18276	10.163	2.	5.e-002	-5.7189
18277	10.44	2.	0.	-3247.1
18278	10.348	1.9091	0.	-3273.6
18279	10.348	2.	5.e-002	-5.6256
18280	10.625	2.	0.	-3195.3
18281	10.532	1.9091	0.	-3221.7
18282	10.532	2.	5.e-002	-5.5451
18283	10.809	2.	0.	-3144.
18284	10.717	1.9091	0.	-3170.2
18285	10.717	2.	5.e-002	-5.4748
18286	10.994	2.	0.	-3093.
18287	10.901	1.9091	0.	-3119.
18288	10.901	2.	5.e-002	-5.4126
18289	11.178	2.	0.	-3042.2
18290	11.086	1.9091	0.	-3068.2
18291	11.086	2.	5.e-002	-5.3569
18292	11.363	2.	0.	-2991.8
18293	11.27	1.9091	0.	-3017.6
18294	11.27	2.	5.e-002	-5.3066
18295	11.547	2.	0.	-2941.6
18296	11.455	1.9091	0.	-2967.2
18297	11.455	2.	5.e-002	-5.2606
18298	11.732	2.	0.	-2891.6
18299	11.639	1.9091	0.	-2917.1
18300	11.639	2.	5.e-002	-5.2181
18301	11.916	2.	0.	-2841.8
18302	11.824	1.9091	0.	-2867.2
18303	11.824	2.	5.e-002	-5.1785
18304	12.1	2.	0.	-2792.3
18305	12.008	1.9091	0.	-2817.6
18306	12.008	2.	5.e-002	-5.1414
18307	12.285	2.	0.	-2742.9
18308	12.193	1.9091	0.	-2768.1
18309	12.193	2.	5.e-002	-5.1063
18310	12.469	2.	0.	-2693.8
18311	12.377	1.9091	0.	-2718.8
18312	12.377	2.	5.e-002	-5.073
18313	12.654	2.	0.	-2644.8
18314	12.562	1.9091	0.	-2669.8
18315	12.562	2.	5.e-002	-5.0412
18316	12.838	2.	0.	-2596.1
18317	12.746	1.9091	0.	-2620.9
18318	12.746	2.	5.e-002	-5.0107
18319	13.023	2.	0.	-2547.5
18320	12.931	1.9091	0.	-2572.2
18321	12.931	2.	5.e-002	-4.9813
18322	13.207	2.	0.	-2499.1
18323	13.115	1.9091	0.	-2523.7
18324	13.115	2.	5.e-002	-4.953
18325	13.392	2.	0.	-2450.9
18326	13.3	1.9091	0.	-2475.4
18327	13.3	2.	5.e-002	-4.9255
18328	13.576	2.	0.	-2402.9
18329	13.484	1.9091	0.	-2427.2
18330	13.484	2.	5.e-002	-4.8987
18331	13.761	2.	0.	-2355.
18332	13.669	1.9091	0.	-2379.3
18333	13.669	2.	5.e-002	-4.8727
18334	13.945	2.	0.	-2307.4
18335	13.853	1.9091	0.	-2331.5
18336	13.853	2.	5.e-002	-4.8472
18337	14.13	2.	0.	-2259.9
18338	14.038	1.9091	0.	-2284.
18339	14.038	2.	5.e-002	-4.8224
18340	14.314	2.	0.	-2212.7
18341	14.222	1.9091	0.	-2236.6
18342	14.222	2.	5.e-002	-4.7981
18343	14.499	2.	0.	-2165.6
18344	14.407	1.9091	0.	-2189.4
18345	14.407	2.	5.e-002	-4.7742
18346	14.683	2.	0.	-2118.7
18347	14.591	1.9091	0.	-2142.5
18348	14.591	2.	5.e-002	-4.7508
18349	14.868	2.	0.	-2072.
18350	14.776	1.9091	0.	-2095.7
18351	14.776	2.	5.e-002	-4.7279
18352	15.052	2.	0.	-2025.5
18353	14.96	1.9091	0.	-2049.1
18354	14.96	2.	5.e-002	-4.7053
18355	15.237	2.	0.	-1979.2
18356	15.145	1.9091	0.	-2002.7
18357	15.145	2.	5.e-002	-4.6831
18358	15.421	2.	0.	-1933.1
18359	15.329	1.9091	0.	-1956.4
18360	15.329	2.	5.e-002	-4.6612
18361	15.606	2.	0.	-1887.2
18362	15.514	1.9091	0.	-1910.4
18363	15.514	2.	5.e-002	-4.6397
18364	15.79	2.	0.	-1841.5
18365	15.698	1.9091	0.	-1864.6
18366	15.698	2.	5.e-002	-4.6185
18367	15.975	2.	0.	-1796.
18368	15.883	1.9091	0.	-1819.
18369	15.883	2.	5.e-002	-4.5975
18370	16.159	2.	0.	-1750.7
18371	16.067	1.9091	0.	-1773.5
18372	16.067	2.	5.e-002	-4.5769
18373	16.344	2.	0.	-1705.5
18374	16.251	1.9091	0.	-1728.3
18375	16.251	2.	5.e-002	-4.5566
18376	16.528	2.	0.	-1660.6
18377	16.436	1.9091	0.	-1683.3
18378	16.436	2.	5.e-002	-4.5366
18379	16.713	2.	0.	-1615.9
18380	16.62	1.9091	0.	-1638.4
18381	16.62	2.	5.e-002	-4.5169
18382	16.897	2.	0.	-1571.3
18383	16.805	1.9091	0.	-1593.8
18384	16.805	2.	5.e-002	-4.4975
18385	17.082	2.	0.	-1527.
18386	16.989	1.9091	0.	-1549.4
18387	16.989	2.	5.e-002	-4.4783
18388	17.266	2.	0.	-1482.9
18389	17.174	1.9091	0.	-1505.1
18390	17.174	2.	5.e-002	-4.4595
18391	17.451	2.	0.	-1438.9
18392	17.358	1.9091	0.	-1461.1
18393	17.358	2.	5.e-002	-4.4409
18394	17.635	2.	0.	-1395.2
18395	17.543	1.9091	0.	-1417.3
18396	17.543	2.	5.e-002	-4.4227
18397	17.82	2.	0.	-1351.7
18398	17.727	1.9091	0.	-1373.6
18399	17.727	2.	5.e-002	-4.4048
18400	18.004	2.	0.	-1308.4
18401	17.912	1.9091	0.	-1330.2
18402	17.912	2.	5.e-002	-4.3872
18403	18.189	2.	0.	-1265.2
18404	18.096	1.9091	0.	-1286.9
18405	18.096	2.	5.e-002	-4.3701
18406	18.373	2.	0.	-1222.3
18407	18.281	1.9091	0.	-1243.9
18408	18.281	2.	5.e-002	-4.3533
18409	18.558	2.	0.	-1179.6
18410	18.465	1.9091	0.	-1201.1
18411	18.465	2.	5.e-002	-4.3369
18412	18.742	2.	0.	-1137.1
18413	18.65	1.9091	0.	-1158.5
18414	18.65	2.	5.e-002	-4.3209
18415	18.927	2.	0.	-1094.8
18416	18.834	1.9091	0.	-1116.
18417	18.834	2.	5.e-002	-4.3055
18418	19.111	2.	0.	-1052.7
18419	19.019	1.9091	0.	-1073.8
18420	19.019	2.	5.e-002	-4.2905
18421	19.296	2.	0.	-1010.8
18422	19.203	1.9091	0.	-1031.8
18423	19.203	2.	5.e-002	-4.276
18424	19.48	2.	0.	-969.13
18425	19.388	1.9091	0.	-990.01
18426	19.388	2.	5.e-002	-4.2622
18427	19.665	2.	0.	-927.64
18428	19.572	1.9091	0.	-948.4
18429	19.572	2.	5.e-002	-4.249
18430	19.849	2.	0.	-886.37
18431	19.757	1.9091	0.	-907.
18432	19.757	2.	5.e-002	-4.2365
18433	20.033	2.	0.	-845.3
18434	19.941	1.9091	0.	-865.81
18435	19.941	2.	5.e-002	-4.2248
18436	20.218	2.	0.	-804.43
18437	20.126	1.9091	0.	-824.81
18438	20.126	2.	5.e-002	-4.2139
18439	20.402	2.	0.	-763.77
18440	20.31	1.9091	0.	-784.02
18441	20.31	2.	5.e-002	-4.204
18442	20.587	2.	0.	-723.31
18443	20.495	1.9091	0.	-743.43
18444	20.495	2.	5.e-002	-4.1952
18445	20.771	2.	0.	-683.06
18446	20.679	1.9091	0.	-703.04
18447	20.679	2.	5.e-002	-4.1875
18448	20.956	2.	0.	-643.
18449	20.864	1.9091	0.	-662.86
18450	20.864	2.	5.e-002	-4.1811
18451	21.14	2.	0.	-603.14
18452	21.048	1.9091	0.	-622.86
18453	21.048	2.	5.e-002	-4.1762
18454	21.325	2.	0.	-563.47
18455	21.233	1.9091	0.	-583.07
18456	21.233	2.	5.e-002	-4.173
18457	21.509	2.	0.	-524.
18458	21.417	1.9091	0.	-543.46
18459	21.417	2.	5.e-002	-4.1717
18460	21.694	2.	0.	-484.7
18461	21.602	1.9091	0.	-504.05
18462	21.602	2.	5.e-002	-4.1726
18463	21.878	2.	0.	-445.58
18464	21.786	1.9091	0.	-464.81
18465	21.786	2.	5.e-002	-4.1759
18466	22.063	2.	0.	-406.63
18467	21.971	1.9091	0.	-425.75
18468	21.971	2.	5.e-002	-4.182
18469	22.247	2.	0.	-367.82
18470	22.155	1.9091	0.	-386.86
18471	22.155	2.	5.e-002	-4.1913
18472	22.432	2.	0.	-329.14
18473	22.34	1.9091	0.	-348.11
18474	22.34	2.	5.e-002	-4.2043
18475	22.616	2.	0.	-290.57
18476	22.524	1.9091	0.	-309.49
18477	22.524	2.	5.e-002	-4.2214
18478	22.801	2.	0.	-252.08
18479	22.709	1.9091	0.	-270.98
18480	22.709	2.	5.e-002	-4.2433
18481	22.985	2.	0.	-213.62
18482	22.893	1.9091	0.	-232.54
18483	22.893	2.	5.e-002	-4.2704
18484	23.17	2.	0.	-175.15
18485	23.078	1.9091	0.	-194.13
18486	23.078	2.	5.e-002	-4.3033
18487	23.354	2.	0.	-136.62
18488	23.262	1.9091	0.	-155.7
18489	23.262	2.	5.e-002	-4.3423
18490	23.539	2.	0.	-97.966
18491	23.447	1.9091	0.	-117.2
18492	23.447	2.	5.e-002	-4.3875
18493	23.723	2.	0.	-59.213
18494	23.631	1.9091	0.	-78.546
18495	23.631	2.	5.e-002	-4.4402
18496	23.816	1.9091	0.	-39.91
18497	23.816	2.	5.e-002	-4.5271
18498	23.908	2.	0.	-22.48
18499	5.6434	1.8182	0.	-7721.8
18500	5.5512	1.7273	0.	-7242.1
18501	5.5512	1.8182	5.e-002	-456.85
18502	5.4589	1.8182	0.	-6633.6
18503	5.8279	1.8182	0.	-6530.4
18504	5.7356	1.7273	0.	-6250.
18505	5.7356	1.8182	5.e-002	-152.97
18506	6.0124	1.8182	0.	-5891.4
18507	5.9201	1.7273	0.	-5712.9
18508	5.9201	1.8182	5.e-002	-70.396
18509	6.1969	1.8182	0.	-5461.6
18510	6.1046	1.7273	0.	-5336.6
18511	6.1046	1.8182	5.e-002	-50.652
18512	6.3814	1.8182	0.	-5151.8
18513	6.2891	1.7273	0.	-5060.4
18514	6.2891	1.8182	5.e-002	-39.47
18515	6.5658	1.8182	0.	-4917.5
18516	6.4736	1.7273	0.	-4851.2
18517	6.4736	1.8182	5.e-002	-31.708
18518	6.7503	1.8182	0.	-4732.6
18519	6.6581	1.7273	0.	-4686.3
18520	6.6581	1.8182	5.e-002	-26.18
18521	6.9348	1.8182	0.	-4581.4
18522	6.8426	1.7273	0.	-4551.2
18523	6.8426	1.8182	5.e-002	-21.998
18524	7.1193	1.8182	0.	-4453.8
18525	7.0271	1.7273	0.	-4436.7
18526	7.0271	1.8182	5.e-002	-18.734
18527	7.3038	1.8182	0.	-4343.3
18528	7.2116	1.7273	0.	-4336.7
18529	7.2116	1.8182	5.e-002	-16.132
18530	7.4883	1.8182	0.	-4245.6
18531	7.396	1.7273	0.	-4247.2
18532	7.396	1.8182	5.e-002	-14.036
18533	7.6728	1.8182	0.	-4157.5
18534	7.5805	1.7273	0.	-4165.5
18535	7.5805	1.8182	5.e-002	-12.338
18536	7.8573	1.8182	0.	-4076.9
18537	7.765	1.7273	0.	-4089.8
18538	7.765	1.8182	5.e-002	-10.963
18539	8.0417	1.8182	0.	-4002.1
18540	7.9495	1.7273	0.	-4018.9
18541	7.9495	1.8182	5.e-002	-9.853
18542	8.2262	1.8182	0.	-3932.
18543	8.134	1.7273	0.	-3951.6
18544	8.134	1.8182	5.e-002	-8.9596
18545	8.4107	1.8182	0.	-3865.7
18546	8.3185	1.7273	0.	-3887.4
18547	8.3185	1.8182	5.e-002	-8.2435
18548	8.5952	1.8182	0.	-3802.3
18549	8.503	1.7273	0.	-3825.6
18550	8.503	1.8182	5.e-002	-7.6713
18551	8.7797	1.8182	0.	-3741.3
18552	8.6875	1.7273	0.	-3765.7
18553	8.6875	1.8182	5.e-002	-7.2148
18554	8.9642	1.8182	0.	-3682.2
18555	8.8719	1.7273	0.	-3707.4
18556	8.8719	1.8182	5.e-002	-6.8506
18557	9.1487	1.8182	0.	-3624.7
18558	9.0564	1.7273	0.	-3650.5
18559	9.0564	1.8182	5.e-002	-6.559
18560	9.3332	1.8182	0.	-3568.5
18561	9.2409	1.7273	0.	-3594.7
18562	9.2409	1.8182	5.e-002	-6.3244
18563	9.5177	1.8182	0.	-3513.4
18564	9.4254	1.7273	0.	-3539.8
18565	9.4254	1.8182	5.e-002	-6.1343
18566	9.7021	1.8182	0.	-3459.1
18567	9.6099	1.7273	0.	-3485.6
18568	9.6099	1.8182	5.e-002	-5.9785
18569	9.8866	1.8182	0.	-3405.6
18570	9.7944	1.7273	0.	-3432.1
18571	9.7944	1.8182	5.e-002	-5.8496
18572	10.071	1.8182	0.	-3352.6
18573	9.9789	1.7273	0.	-3379.2
18574	9.9789	1.8182	5.e-002	-5.7414
18575	10.256	1.8182	0.	-3300.2
18576	10.163	1.7273	0.	-3326.7
18577	10.163	1.8182	5.e-002	-5.6495
18578	10.44	1.8182	0.	-3248.2
18579	10.348	1.7273	0.	-3274.6
18580	10.348	1.8182	5.e-002	-5.5701
18581	10.625	1.8182	0.	-3196.5
18582	10.532	1.7273	0.	-3222.9
18583	10.532	1.8182	5.e-002	-5.5007
18584	10.809	1.8182	0.	-3145.2
18585	10.717	1.7273	0.	-3171.5
18586	10.717	1.8182	5.e-002	-5.4392
18587	10.994	1.8182	0.	-3094.2
18588	10.901	1.7273	0.	-3120.4
18589	10.901	1.8182	5.e-002	-5.384
18590	11.178	1.8182	0.	-3043.5
18591	11.086	1.7273	0.	-3069.5
18592	11.086	1.8182	5.e-002	-5.334
18593	11.363	1.8182	0.	-2993.
18594	11.27	1.7273	0.	-3018.9
18595	11.27	1.8182	5.e-002	-5.2881
18596	11.547	1.8182	0.	-2942.8
18597	11.455	1.7273	0.	-2968.6
18598	11.455	1.8182	5.e-002	-5.2456
18599	11.732	1.8182	0.	-2892.8
18600	11.639	1.7273	0.	-2918.4
18601	11.639	1.8182	5.e-002	-5.206
18602	11.916	1.8182	0.	-2843.
18603	11.824	1.7273	0.	-2868.5
18604	11.824	1.8182	5.e-002	-5.1686
18605	12.1	1.8182	0.	-2793.4
18606	12.008	1.7273	0.	-2818.8
18607	12.008	1.8182	5.e-002	-5.1332
18608	12.285	1.8182	0.	-2744.
18609	12.193	1.7273	0.	-2769.3
18610	12.193	1.8182	5.e-002	-5.0995
18611	12.469	1.8182	0.	-2694.8
18612	12.377	1.7273	0.	-2720.
18613	12.377	1.8182	5.e-002	-5.0674
18614	12.654	1.8182	0.	-2645.8
18615	12.562	1.7273	0.	-2670.8
18616	12.562	1.8182	5.e-002	-5.0365
18617	12.838	1.8182	0.	-2597.
18618	12.746	1.7273	0.	-2621.9
18619	12.746	1.8182	5.e-002	-5.0067
18620	13.023	1.8182	0.	-2548.4
18621	12.931	1.7273	0.	-2573.2
18622	12.931	1.8182	5.e-002	-4.9779
18623	13.207	1.8182	0.	-2500.
18624	13.115	1.7273	0.	-2524.6
18625	13.115	1.8182	5.e-002	-4.95
18626	13.392	1.8182	0.	-2451.7
18627	13.3	1.7273	0.	-2476.3
18628	13.3	1.8182	5.e-002	-4.9229
18629	13.576	1.8182	0.	-2403.7
18630	13.484	1.7273	0.	-2428.1
18631	13.484	1.8182	5.e-002	-4.8964
18632	13.761	1.8182	0.	-2355.8
18633	13.669	1.7273	0.	-2380.2
18634	13.669	1.8182	5.e-002	-4.8707
18635	13.945	1.8182	0.	-2308.2
18636	13.853	1.7273	0.	-2332.4
18637	13.853	1.8182	5.e-002	-4.8454
18638	14.13	1.8182	0.	-2260.7
18639	14.038	1.7273	0.	-2284.8
18640	14.038	1.8182	5.e-002	-4.8207
18641	14.314	1.8182	0.	-2213.4
18642	14.222	1.7273	0.	-2237.4
18643	14.222	1.8182	5.e-002	-4.7966
18644	14.499	1.8182	0.	-2166.3
18645	14.407	1.7273	0.	-2190.2
18646	14.407	1.8182	5.e-002	-4.7729
18647	14.683	1.8182	0.	-2119.4
18648	14.591	1.7273	0.	-2143.2
18649	14.591	1.8182	5.e-002	-4.7496
18650	14.868	1.8182	0.	-2072.7
18651	14.776	1.7273	0.	-2096.4
18652	14.776	1.8182	5.e-002	-4.7267
18653	15.052	1.8182	0.	-2026.2
18654	14.96	1.7273	0.	-2049.8
18655	14.96	1.8182	5.e-002	-4.7043
18656	15.237	1.8182	0.	-1979.9
18657	15.145	1.7273	0.	-2003.3
18658	15.145	1.8182	5.e-002	-4.6821
18659	15.421	1.8182	0.	-1933.8
18660	15.329	1.7273	0.	-1957.1
18661	15.329	1.8182	5.e-002	-4.6603
18662	15.606	1.8182	0.	-1887.8
18663	15.514	1.7273	0.	-1911.1
18664	15.514	1.8182	5.e-002	-4.6388
18665	15.79	1.8182	0.	-1842.1
18666	15.698	1.7273	0.	-1865.3
18667	15.698	1.8182	5.e-002	-4.6176
18668	15.975	1.8182	0.	-1796.6
18669	15.883	1.7273	0.	-1819.6
18670	15.883	1.8182	5.e-002	-4.5967
18671	16.159	1.8182	0.	-1751.2
18672	16.067	1.7273	0.	-1774.2
18673	16.067	1.8182	5.e-002	-4.5762
18674	16.344	1.8182	0.	-1706.1
18675	16.251	1.7273	0.	-1728.9
18676	16.251	1.8182	5.e-002	-4.5559
18677	16.528	1.8182	0.	-1661.1
18678	16.436	1.7273	0.	-1683.9
18679	16.436	1.8182	5.e-002	-4.5359
18680	16.713	1.8182	0.	-1616.4
18681	16.62	1.7273	0.	-1639.
18682	16.62	1.8182	5.e-002	-4.5162
18683	16.897	1.8182	0.	-1571.9
18684	16.805	1.7273	0.	-1594.4
18685	16.805	1.8182	5.e-002	-4.4968
18686	17.082	1.8182	0.	-1527.5
18687	16.989	1.7273	0.	-1549.9
18688	16.989	1.8182	5.e-002	-4.4776
18689	17.266	1.8182	0.	-1483.4
18690	17.174	1.7273	0.	-1505.7
18691	17.174	1.8182	5.e-002	-4.4588
18692	17.451	1.8182	0.	-1439.4
18693	17.358	1.7273	0.	-1461.6
18694	17.358	1.8182	5.e-002	-4.4402
18695	17.635	1.8182	0.	-1395.7
18696	17.543	1.7273	0.	-1417.8
18697	17.543	1.8182	5.e-002	-4.422
18698	17.82	1.8182	0.	-1352.1
18699	17.727	1.7273	0.	-1374.1
18700	17.727	1.8182	5.e-002	-4.4041
18701	18.004	1.8182	0.	-1308.8
18702	17.912	1.7273	0.	-1330.7
18703	17.912	1.8182	5.e-002	-4.3865
18704	18.189	1.8182	0.	-1265.7
18705	18.096	1.7273	0.	-1287.4
18706	18.096	1.8182	5.e-002	-4.3693
18707	18.373	1.8182	0.	-1222.7
18708	18.281	1.7273	0.	-1244.4
18709	18.281	1.8182	5.e-002	-4.3525
18710	18.558	1.8182	0.	-1180.
18711	18.465	1.7273	0.	-1201.5
18712	18.465	1.8182	5.e-002	-4.3361
18713	18.742	1.8182	0.	-1137.4
18714	18.65	1.7273	0.	-1158.9
18715	18.65	1.8182	5.e-002	-4.3201
18716	18.927	1.8182	0.	-1095.1
18717	18.834	1.7273	0.	-1116.4
18718	18.834	1.8182	5.e-002	-4.3045
18719	19.111	1.8182	0.	-1053.
18720	19.019	1.7273	0.	-1074.2
18721	19.019	1.8182	5.e-002	-4.2895
18722	19.296	1.8182	0.	-1011.
18723	19.203	1.7273	0.	-1032.1
18724	19.203	1.8182	5.e-002	-4.2749
18725	19.48	1.8182	0.	-969.32
18726	19.388	1.7273	0.	-990.26
18727	19.388	1.8182	5.e-002	-4.261
18728	19.665	1.8182	0.	-927.8
18729	19.572	1.7273	0.	-948.61
18730	19.572	1.8182	5.e-002	-4.2477
18731	19.849	1.8182	0.	-886.48
18732	19.757	1.7273	0.	-907.16
18733	19.757	1.8182	5.e-002	-4.2351
18734	20.033	1.8182	0.	-845.36
18735	19.941	1.7273	0.	-865.92
18736	19.941	1.8182	5.e-002	-4.2232
18737	20.218	1.8182	0.	-804.44
18738	20.126	1.7273	0.	-824.87
18739	20.126	1.8182	5.e-002	-4.2121
18740	20.402	1.8182	0.	-763.72
18741	20.31	1.7273	0.	-784.02
18742	20.31	1.8182	5.e-002	-4.202
18743	20.587	1.8182	0.	-723.2
18744	20.495	1.7273	0.	-743.37
18745	20.495	1.8182	5.e-002	-4.1929
18746	20.771	1.8182	0.	-682.88
18747	20.679	1.7273	0.	-702.91
18748	20.679	1.8182	5.e-002	-4.1849
18749	20.956	1.8182	0.	-642.76
18750	20.864	1.7273	0.	-662.65
18751	20.864	1.8182	5.e-002	-4.1781
18752	21.14	1.8182	0.	-602.83
18753	21.048	1.7273	0.	-622.59
18754	21.048	1.8182	5.e-002	-4.1728
18755	21.325	1.8182	0.	-563.1
18756	21.233	1.7273	0.	-582.72
18757	21.233	1.8182	5.e-002	-4.169
18758	21.509	1.8182	0.	-523.55
18759	21.417	1.7273	0.	-543.04
18760	21.417	1.8182	5.e-002	-4.1671
18761	21.694	1.8182	0.	-484.19
18762	21.602	1.7273	0.	-503.55
18763	21.602	1.8182	5.e-002	-4.1673
18764	21.878	1.8182	0.	-445.02
18765	21.786	1.7273	0.	-464.25
18766	21.786	1.8182	5.e-002	-4.1697
18767	22.063	1.8182	0.	-406.01
18768	21.971	1.7273	0.	-425.12
18769	21.971	1.8182	5.e-002	-4.1749
18770	22.247	1.8182	0.	-367.17
18771	22.155	1.7273	0.	-386.18
18772	22.155	1.8182	5.e-002	-4.1833
18773	22.432	1.8182	0.	-328.48
18774	22.34	1.7273	0.	-347.4
18775	22.34	1.8182	5.e-002	-4.1953
18776	22.616	1.8182	0.	-289.92
18777	22.524	1.7273	0.	-308.77
18778	22.524	1.8182	5.e-002	-4.2115
18779	22.801	1.8182	0.	-251.46
18780	22.709	1.7273	0.	-270.27
18781	22.709	1.8182	5.e-002	-4.2326
18782	22.985	1.8182	0.	-213.07
18783	22.893	1.7273	0.	-231.88
18784	22.893	1.8182	5.e-002	-4.2593
18785	23.17	1.8182	0.	-174.7
18786	23.078	1.7273	0.	-193.56
18787	23.078	1.8182	5.e-002	-4.2922
18788	23.354	1.8182	0.	-136.29
18789	23.262	1.7273	0.	-155.25
18790	23.262	1.8182	5.e-002	-4.3321
18791	23.539	1.8182	0.	-97.771
18792	23.447	1.7273	0.	-116.89
18793	23.447	1.8182	5.e-002	-4.3792
18794	23.723	1.8182	0.	-59.17
18795	23.631	1.7273	0.	-78.399
18796	23.631	1.8182	5.e-002	-4.4355
18797	23.816	1.7273	0.	-39.94
18798	23.816	1.8182	5.e-002	-4.5364
18799	23.908	1.8182	0.	-22.51
18800	5.6434	1.6364	0.	-5686.3
18801	5.5512	1.5455	0.	-5252.
18802	5.5512	1.6364	5.e-002	-253.02
18803	5.4589	1.6364	0.	-4717.4
18804	5.8279	1.6364	0.	-5408.1
18805	5.7356	1.5455	0.	-5031.9
18806	5.7356	1.6364	5.e-002	-99.502
18807	6.0124	1.6364	0.	-5145.7
18808	5.9201	1.5455	0.	-4883.8
18809	5.9201	1.6364	5.e-002	-61.353
18810	6.1969	1.6364	0.	-4927.2
18811	6.1046	1.5455	0.	-4735.6
18812	6.1046	1.6364	5.e-002	-43.852
18813	6.3814	1.6364	0.	-4754.4
18814	6.2891	1.5455	0.	-4612.3
18815	6.2891	1.6364	5.e-002	-33.745
18816	6.5658	1.6364	0.	-4616.6
18817	6.4736	1.5455	0.	-4511.2
18818	6.4736	1.6364	5.e-002	-27.48
18819	6.7503	1.6364	0.	-4502.8
18820	6.6581	1.5455	0.	-4426.1
18821	6.6581	1.6364	5.e-002	-22.826
18822	6.9348	1.6364	0.	-4405.3
18823	6.8426	1.5455	0.	-4351.4
18824	6.8426	1.6364	5.e-002	-19.261
18825	7.1193	1.6364	0.	-4318.9
18826	7.0271	1.5455	0.	-4283.1
18827	7.0271	1.6364	5.e-002	-16.454
18828	7.3038	1.6364	0.	-4240.1
18829	7.2116	1.5455	0.	-4218.8
18830	7.2116	1.6364	5.e-002	-14.213
18831	7.4883	1.6364	0.	-4166.9
18832	7.396	1.5455	0.	-4156.9
18833	7.396	1.6364	5.e-002	-12.412
18834	7.6728	1.6364	0.	-4097.7
18835	7.5805	1.5455	0.	-4096.7
18836	7.5805	1.6364	5.e-002	-10.964
18837	7.8573	1.6364	0.	-4031.8
18838	7.765	1.5455	0.	-4037.7
18839	7.765	1.6364	5.e-002	-9.8033
18840	8.0417	1.6364	0.	-3968.4
18841	7.9495	1.5455	0.	-3979.6
18842	7.9495	1.6364	5.e-002	-8.8786
18843	8.2262	1.6364	0.	-3907.
18844	8.134	1.5455	0.	-3922.3
18845	8.134	1.6364	5.e-002	-8.1462
18846	8.4107	1.6364	0.	-3847.3
18847	8.3185	1.5455	0.	-3865.7
18848	8.3185	1.6364	5.e-002	-7.5694
18849	8.5952	1.6364	0.	-3789.
18850	8.503	1.5455	0.	-3809.7
18851	8.503	1.6364	5.e-002	-7.1167
18852	8.7797	1.6364	0.	-3731.9
18853	8.6875	1.5455	0.	-3754.4
18854	8.6875	1.6364	5.e-002	-6.7617
18855	8.9642	1.6364	0.	-3675.8
18856	8.8719	1.5455	0.	-3699.5
18857	8.8719	1.6364	5.e-002	-6.4826
18858	9.1487	1.6364	0.	-3620.5
18859	9.0564	1.5455	0.	-3645.2
18860	9.0564	1.6364	5.e-002	-6.2619
18861	9.3332	1.6364	0.	-3566.
18862	9.2409	1.5455	0.	-3591.3
18863	9.2409	1.6364	5.e-002	-6.0855
18864	9.5177	1.6364	0.	-3512.
18865	9.4254	1.5455	0.	-3537.9
18866	9.4254	1.6364	5.e-002	-5.9428
18867	9.7021	1.6364	0.	-3458.7
18868	9.6099	1.5455	0.	-3484.8
18869	9.6099	1.6364	5.e-002	-5.8255
18870	9.8866	1.6364	0.	-3405.8
18871	9.7944	1.5455	0.	-3432.1
18872	9.7944	1.6364	5.e-002	-5.7275
18873	10.071	1.6364	0.	-3353.3
18874	9.9789	1.5455	0.	-3379.7
18875	9.9789	1.6364	5.e-002	-5.6441
18876	10.256	1.6364	0.	-3301.1
18877	10.163	1.5455	0.	-3327.6
18878	10.163	1.6364	5.e-002	-5.5719
18879	10.44	1.6364	0.	-3249.3
18880	10.348	1.5455	0.	-3275.8
18881	10.348	1.6364	5.e-002	-5.5082
18882	10.625	1.6364	0.	-3197.9
18883	10.532	1.5455	0.	-3224.2
18884	10.532	1.6364	5.e-002	-5.4513
18885	10.809	1.6364	0.	-3146.6
18886	10.717	1.5455	0.	-3172.9
18887	10.717	1.6364	5.e-002	-5.3998
18888	10.994	1.6364	0.	-3095.7
18889	10.901	1.5455	0.	-3121.9
18890	10.901	1.6364	5.e-002	-5.3525
18891	11.178	1.6364	0.	-3045.
18892	11.086	1.5455	0.	-3071.1
18893	11.086	1.6364	5.e-002	-5.3086
18894	11.363	1.6364	0.	-2994.5
18895	11.27	1.5455	0.	-3020.5
18896	11.27	1.6364	5.e-002	-5.2677
18897	11.547	1.6364	0.	-2944.2
18898	11.455	1.5455	0.	-2970.1
18899	11.455	1.6364	5.e-002	-5.2291
18900	11.732	1.6364	0.	-2894.2
18901	11.639	1.5455	0.	-2919.9
18902	11.639	1.6364	5.e-002	-5.1925
18903	11.916	1.6364	0.	-2844.3
18904	11.824	1.5455	0.	-2870.
18905	11.824	1.6364	5.e-002	-5.1576
18906	12.1	1.6364	0.	-2794.7
18907	12.008	1.5455	0.	-2820.2
18908	12.008	1.6364	5.e-002	-5.1241
18909	12.285	1.6364	0.	-2745.3
18910	12.193	1.5455	0.	-2770.6
18911	12.193	1.6364	5.e-002	-5.092
18912	12.469	1.6364	0.	-2696.
18913	12.377	1.5455	0.	-2721.3
18914	12.377	1.6364	5.e-002	-5.0611
18915	12.654	1.6364	0.	-2647.
18916	12.562	1.5455	0.	-2672.1
18917	12.562	1.6364	5.e-002	-5.0311
18918	12.838	1.6364	0.	-2598.1
18919	12.746	1.5455	0.	-2623.1
18920	12.746	1.6364	5.e-002	-5.0022
18921	13.023	1.6364	0.	-2549.5
18922	12.931	1.5455	0.	-2574.3
18923	12.931	1.6364	5.e-002	-4.974
18924	13.207	1.6364	0.	-2501.
18925	13.115	1.5455	0.	-2525.7
18926	13.115	1.6364	5.e-002	-4.9467
18927	13.392	1.6364	0.	-2452.7
18928	13.3	1.5455	0.	-2477.4
18929	13.3	1.6364	5.e-002	-4.92
18930	13.576	1.6364	0.	-2404.6
18931	13.484	1.5455	0.	-2429.2
18932	13.484	1.6364	5.e-002	-4.8939
18933	13.761	1.6364	0.	-2356.7
18934	13.669	1.5455	0.	-2381.2
18935	13.669	1.6364	5.e-002	-4.8683
18936	13.945	1.6364	0.	-2309.
18937	13.853	1.5455	0.	-2333.3
18938	13.853	1.6364	5.e-002	-4.8433
18939	14.13	1.6364	0.	-2261.5
18940	14.038	1.5455	0.	-2285.7
18941	14.038	1.6364	5.e-002	-4.8189
18942	14.314	1.6364	0.	-2214.2
18943	14.222	1.5455	0.	-2238.3
18944	14.222	1.6364	5.e-002	-4.7949
18945	14.499	1.6364	0.	-2167.1
18946	14.407	1.5455	0.	-2191.1
18947	14.407	1.6364	5.e-002	-4.7714
18948	14.683	1.6364	0.	-2120.2
18949	14.591	1.5455	0.	-2144.1
18950	14.591	1.6364	5.e-002	-4.7482
18951	14.868	1.6364	0.	-2073.5
18952	14.776	1.5455	0.	-2097.2
18953	14.776	1.6364	5.e-002	-4.7255
18954	15.052	1.6364	0.	-2026.9
18955	14.96	1.5455	0.	-2050.6
18956	14.96	1.6364	5.e-002	-4.703
18957	15.237	1.6364	0.	-1980.6
18958	15.145	1.5455	0.	-2004.1
18959	15.145	1.6364	5.e-002	-4.681
18960	15.421	1.6364	0.	-1934.5
18961	15.329	1.5455	0.	-1957.9
18962	15.329	1.6364	5.e-002	-4.6592
18963	15.606	1.6364	0.	-1888.5
18964	15.514	1.5455	0.	-1911.9
18965	15.514	1.6364	5.e-002	-4.6378
18966	15.79	1.6364	0.	-1842.8
18967	15.698	1.5455	0.	-1866.
18968	15.698	1.6364	5.e-002	-4.6166
18969	15.975	1.6364	0.	-1797.2
18970	15.883	1.5455	0.	-1820.3
18971	15.883	1.6364	5.e-002	-4.5958
18972	16.159	1.6364	0.	-1751.9
18973	16.067	1.5455	0.	-1774.9
18974	16.067	1.6364	5.e-002	-4.5753
18975	16.344	1.6364	0.	-1706.7
18976	16.251	1.5455	0.	-1729.6
18977	16.251	1.6364	5.e-002	-4.555
18978	16.528	1.6364	0.	-1661.8
18979	16.436	1.5455	0.	-1684.6
18980	16.436	1.6364	5.e-002	-4.5351
18981	16.713	1.6364	0.	-1617.
18982	16.62	1.5455	0.	-1639.7
18983	16.62	1.6364	5.e-002	-4.5154
18984	16.897	1.6364	0.	-1572.5
18985	16.805	1.5455	0.	-1595.
18986	16.805	1.6364	5.e-002	-4.4959
18987	17.082	1.6364	0.	-1528.1
18988	16.989	1.5455	0.	-1550.6
18989	16.989	1.6364	5.e-002	-4.4768
18990	17.266	1.6364	0.	-1484.
18991	17.174	1.5455	0.	-1506.3
18992	17.174	1.6364	5.e-002	-4.458
18993	17.451	1.6364	0.	-1440.
18994	17.358	1.5455	0.	-1462.2
18995	17.358	1.6364	5.e-002	-4.4394
18996	17.635	1.6364	0.	-1396.2
18997	17.543	1.5455	0.	-1418.4
18998	17.543	1.6364	5.e-002	-4.4212
18999	17.82	1.6364	0.	-1352.7
19000	17.727	1.5455	0.	-1374.7
19001	17.727	1.6364	5.e-002	-4.4032
19002	18.004	1.6364	0.	-1309.3
19003	17.912	1.5455	0.	-1331.2
19004	17.912	1.6364	5.e-002	-4.3856
19005	18.189	1.6364	0.	-1266.1
19006	18.096	1.5455	0.	-1288.
19007	18.096	1.6364	5.e-002	-4.3684
19008	18.373	1.6364	0.	-1223.2
19009	18.281	1.5455	0.	-1244.9
19010	18.281	1.6364	5.e-002	-4.3516
19011	18.558	1.6364	0.	-1180.4
19012	18.465	1.5455	0.	-1202.
19013	18.465	1.6364	5.e-002	-4.3351
19014	18.742	1.6364	0.	-1137.9
19015	18.65	1.5455	0.	-1159.3
19016	18.65	1.6364	5.e-002	-4.319
19017	18.927	1.6364	0.	-1095.5
19018	18.834	1.5455	0.	-1116.8
19019	18.834	1.6364	5.e-002	-4.3034
19020	19.111	1.6364	0.	-1053.3
19021	19.019	1.5455	0.	-1074.6
19022	19.019	1.6364	5.e-002	-4.2883
19023	19.296	1.6364	0.	-1011.4
19024	19.203	1.5455	0.	-1032.5
19025	19.203	1.6364	5.e-002	-4.2737
19026	19.48	1.6364	0.	-969.59
19027	19.388	1.5455	0.	-990.58
19028	19.388	1.6364	5.e-002	-4.2596
19029	19.665	1.6364	0.	-928.02
19030	19.572	1.5455	0.	-948.89
19031	19.572	1.6364	5.e-002	-4.2462
19032	19.849	1.6364	0.	-886.64
19033	19.757	1.5455	0.	-907.39
19034	19.757	1.6364	5.e-002	-4.2334
19035	20.033	1.6364	0.	-845.47
19036	19.941	1.5455	0.	-866.09
19037	19.941	1.6364	5.e-002	-4.2214
19038	20.218	1.6364	0.	-804.49
19039	20.126	1.5455	0.	-824.98
19040	20.126	1.6364	5.e-002	-4.2101
19041	20.402	1.6364	0.	-763.71
19042	20.31	1.5455	0.	-784.07
19043	20.31	1.6364	5.e-002	-4.1997
19044	20.587	1.6364	0.	-723.12
19045	20.495	1.5455	0.	-743.35
19046	20.495	1.6364	5.e-002	-4.1903
19047	20.771	1.6364	0.	-682.73
19048	20.679	1.5455	0.	-702.82
19049	20.679	1.6364	5.e-002	-4.1819
19050	20.956	1.6364	0.	-642.53
19051	20.864	1.5455	0.	-662.48
19052	20.864	1.6364	5.e-002	-4.1747
19053	21.14	1.6364	0.	-602.52
19054	21.048	1.5455	0.	-622.33
19055	21.048	1.6364	5.e-002	-4.1689
19056	21.325	1.6364	0.	-562.7
19057	21.233	1.5455	0.	-582.38
19058	21.233	1.6364	5.e-002	-4.1645
19059	21.509	1.6364	0.	-523.08
19060	21.417	1.5455	0.	-542.61
19061	21.417	1.6364	5.e-002	-4.1619
19062	21.694	1.6364	0.	-483.64
19063	21.602	1.5455	0.	-503.03
19064	21.602	1.6364	5.e-002	-4.1612
19065	21.878	1.6364	0.	-444.39
19066	21.786	1.5455	0.	-463.64
19067	21.786	1.6364	5.e-002	-4.1628
19068	22.063	1.6364	0.	-405.32
19069	21.971	1.5455	0.	-424.44
19070	21.971	1.6364	5.e-002	-4.1669
19071	22.247	1.6364	0.	-366.44
19072	22.155	1.5455	0.	-385.43
19073	22.155	1.6364	5.e-002	-4.1741
19074	22.432	1.6364	0.	-327.72
19075	22.34	1.5455	0.	-346.6
19076	22.34	1.6364	5.e-002	-4.1848
19077	22.616	1.6364	0.	-289.15
19078	22.524	1.5455	0.	-307.94
19079	22.524	1.6364	5.e-002	-4.1998
19080	22.801	1.6364	0.	-250.72
19081	22.709	1.5455	0.	-269.45
19082	22.709	1.6364	5.e-002	-4.2198
19083	22.985	1.6364	0.	-212.39
19084	22.893	1.5455	0.	-231.1
19085	22.893	1.6364	5.e-002	-4.2458
19086	23.17	1.6364	0.	-174.13
19087	23.078	1.5455	0.	-192.86
19088	23.078	1.6364	5.e-002	-4.2786
19089	23.354	1.6364	0.	-135.86
19090	23.262	1.5455	0.	-154.67
19091	23.262	1.6364	5.e-002	-4.3194
19092	23.539	1.6364	0.	-97.512
19093	23.447	1.5455	0.	-116.49
19094	23.447	1.6364	5.e-002	-4.3686
19095	23.723	1.6364	0.	-59.1
19096	23.631	1.5455	0.	-78.197
19097	23.631	1.6364	5.e-002	-4.4292
19098	23.816	1.5455	0.	-39.961
19099	23.816	1.6364	5.e-002	-4.5467
19100	23.908	1.6364	0.	-22.538
19101	5.6434	1.4545	0.	-4496.1
19102	5.5512	1.3636	0.	-4107.6
19103	5.5512	1.4545	5.e-002	-166.25
19104	5.4589	1.4545	0.	-3669.3
19105	5.8279	1.4545	0.	-4471.8
19106	5.7356	1.3636	0.	-4091.
19107	5.7356	1.4545	5.e-002	-98.874
19108	6.0124	1.4545	0.	-4454.2
19109	5.9201	1.3636	0.	-4152.8
19110	5.9201	1.4545	5.e-002	-59.094
19111	6.1969	1.4545	0.	-4409.2
19112	6.1046	1.3636	0.	-4175.3
19113	6.1046	1.4545	5.e-002	-41.632
19114	6.3814	1.4545	0.	-4362.1
19115	6.2891	1.3636	0.	-4182.4
19116	6.2891	1.4545	5.e-002	-31.248
19117	6.5658	1.4545	0.	-4316.6
19118	6.4736	1.3636	0.	-4180.1
19119	6.4736	1.4545	5.e-002	-24.904
19120	6.7503	1.4545	0.	-4272.3
19121	6.6581	1.3636	0.	-4170.4
19122	6.6581	1.4545	5.e-002	-20.411
19123	6.9348	1.4545	0.	-4227.8
19124	6.8426	1.3636	0.	-4153.8
19125	6.8426	1.4545	5.e-002	-17.056
19126	7.1193	1.4545	0.	-4182.2
19127	7.0271	1.3636	0.	-4130.4
19128	7.0271	1.4545	5.e-002	-14.454
19129	7.3038	1.4545	0.	-4135.1
19130	7.2116	1.3636	0.	-4101.1
19131	7.2116	1.4545	5.e-002	-12.41
19132	7.4883	1.4545	0.	-4086.5
19133	7.396	1.3636	0.	-4066.4
19134	7.396	1.4545	5.e-002	-10.802
19135	7.6728	1.4545	0.	-4036.5
19136	7.5805	1.3636	0.	-4027.4
19137	7.5805	1.4545	5.e-002	-9.5432
19138	7.8573	1.4545	0.	-3985.4
19139	7.765	1.3636	0.	-3985.
19140	7.765	1.4545	5.e-002	-8.5661
19141	8.0417	1.4545	0.	-3933.5
19142	7.9495	1.3636	0.	-3939.7
19143	7.9495	1.4545	5.e-002	-7.8164
19144	8.2262	1.4545	0.	-3881.
19145	8.134	1.3636	0.	-3892.4
19146	8.134	1.4545	5.e-002	-7.2474
19147	8.4107	1.4545	0.	-3828.2
19148	8.3185	1.3636	0.	-3843.6
19149	8.3185	1.4545	5.e-002	-6.8192
19150	8.5952	1.4545	0.	-3775.1
19151	8.503	1.3636	0.	-3793.6
19152	8.503	1.4545	5.e-002	-6.4981
19153	8.7797	1.4545	0.	-3722.1
19154	8.6875	1.3636	0.	-3742.8
19155	8.6875	1.4545	5.e-002	-6.257
19156	8.9642	1.4545	0.	-3669.
19157	8.8719	1.3636	0.	-3691.4
19158	8.8719	1.4545	5.e-002	-6.0742
19159	9.1487	1.4545	0.	-3616.1
19160	9.0564	1.3636	0.	-3639.7
19161	9.0564	1.4545	5.e-002	-5.9336
19162	9.3332	1.4545	0.	-3563.3
19163	9.2409	1.3636	0.	-3587.9
19164	9.2409	1.4545	5.e-002	-5.8229
19165	9.5177	1.4545	0.	-3510.6
19166	9.4254	1.3636	0.	-3535.9
19167	9.4254	1.4545	5.e-002	-5.7334
19168	9.7021	1.4545	0.	-3458.2
19169	9.6099	1.3636	0.	-3484.
19170	9.6099	1.4545	5.e-002	-5.6589
19171	9.8866	1.4545	0.	-3406.
19172	9.7944	1.3636	0.	-3432.1
19173	9.7944	1.4545	5.e-002	-5.5951
19174	10.071	1.4545	0.	-3354.
19175	9.9789	1.3636	0.	-3380.3
19176	9.9789	1.4545	5.e-002	-5.5389
19177	10.256	1.4545	0.	-3302.2
19178	10.163	1.3636	0.	-3328.6
19179	10.163	1.4545	5.e-002	-5.4884
19180	10.44	1.4545	0.	-3250.7
19181	10.348	1.3636	0.	-3277.1
19182	10.348	1.4545	5.e-002	-5.4418
19183	10.625	1.4545	0.	-3199.3
19184	10.532	1.3636	0.	-3225.7
19185	10.532	1.4545	5.e-002	-5.3985
19186	10.809	1.4545	0.	-3148.2
19187	10.717	1.3636	0.	-3174.5
19188	10.717	1.4545	5.e-002	-5.3576
19189	10.994	1.4545	0.	-3097.3
19190	10.901	1.3636	0.	-3123.6
19191	10.901	1.4545	5.e-002	-5.3187
19192	11.178	1.4545	0.	-3046.6
19193	11.086	1.3636	0.	-3072.8
19194	11.086	1.4545	5.e-002	-5.2815
19195	11.363	1.4545	0.	-2996.1
19196	11.27	1.3636	0.	-3022.2
19197	11.27	1.4545	5.e-002	-5.2458
19198	11.547	1.4545	0.	-2945.8
19199	11.455	1.3636	0.	-2971.8
19200	11.455	1.4545	5.e-002	-5.2114
19201	11.732	1.4545	0.	-2895.7
19202	11.639	1.3636	0.	-2921.5
19203	11.639	1.4545	5.e-002	-5.1781
19204	11.916	1.4545	0.	-2845.8
19205	11.824	1.3636	0.	-2871.5
19206	11.824	1.4545	5.e-002	-5.1457
19207	12.1	1.4545	0.	-2796.1
19208	12.008	1.3636	0.	-2821.7
19209	12.008	1.4545	5.e-002	-5.1143
19210	12.285	1.4545	0.	-2746.6
19211	12.193	1.3636	0.	-2772.1
19212	12.193	1.4545	5.e-002	-5.0839
19213	12.469	1.4545	0.	-2697.3
19214	12.377	1.3636	0.	-2722.7
19215	12.377	1.4545	5.e-002	-5.0543
19216	12.654	1.4545	0.	-2648.3
19217	12.562	1.3636	0.	-2673.5
19218	12.562	1.4545	5.e-002	-5.0254
19219	12.838	1.4545	0.	-2599.3
19220	12.746	1.3636	0.	-2624.4
19221	12.746	1.4545	5.e-002	-4.9972
19222	13.023	1.4545	0.	-2550.6
19223	12.931	1.3636	0.	-2575.6
19224	12.931	1.4545	5.e-002	-4.9698
19225	13.207	1.4545	0.	-2502.1
19226	13.115	1.3636	0.	-2527.
19227	13.115	1.4545	5.e-002	-4.943
19228	13.392	1.4545	0.	-2453.8
19229	13.3	1.3636	0.	-2478.5
19230	13.3	1.4545	5.e-002	-4.9167
19231	13.576	1.4545	0.	-2405.7
19232	13.484	1.3636	0.	-2430.3
19233	13.484	1.4545	5.e-002	-4.891
19234	13.761	1.4545	0.	-2357.8
19235	13.669	1.3636	0.	-2382.3
19236	13.669	1.4545	5.e-002	-4.8658
19237	13.945	1.4545	0.	-2310.1
19238	13.853	1.3636	0.	-2334.4
19239	13.853	1.4545	5.e-002	-4.8411
19240	14.13	1.4545	0.	-2262.5
19241	14.038	1.3636	0.	-2286.8
19242	14.038	1.4545	5.e-002	-4.8168
19243	14.314	1.4545	0.	-2215.2
19244	14.222	1.3636	0.	-2239.3
19245	14.222	1.4545	5.e-002	-4.793
19246	14.499	1.4545	0.	-2168.
19247	14.407	1.3636	0.	-2192.1
19248	14.407	1.4545	5.e-002	-4.7696
19249	14.683	1.4545	0.	-2121.1
19250	14.591	1.3636	0.	-2145.
19251	14.591	1.4545	5.e-002	-4.7466
19252	14.868	1.4545	0.	-2074.4
19253	14.776	1.3636	0.	-2098.2
19254	14.776	1.4545	5.e-002	-4.724
19255	15.052	1.4545	0.	-2027.8
19256	14.96	1.3636	0.	-2051.5
19257	14.96	1.4545	5.e-002	-4.7016
19258	15.237	1.4545	0.	-1981.5
19259	15.145	1.3636	0.	-2005.1
19260	15.145	1.4545	5.e-002	-4.6796
19261	15.421	1.4545	0.	-1935.3
19262	15.329	1.3636	0.	-1958.8
19263	15.329	1.4545	5.e-002	-4.658
19264	15.606	1.4545	0.	-1889.3
19265	15.514	1.3636	0.	-1912.7
19266	15.514	1.4545	5.e-002	-4.6366
19267	15.79	1.4545	0.	-1843.6
19268	15.698	1.3636	0.	-1866.9
19269	15.698	1.4545	5.e-002	-4.6155
19270	15.975	1.4545	0.	-1798.
19271	15.883	1.3636	0.	-1821.2
19272	15.883	1.4545	5.e-002	-4.5947
19273	16.159	1.4545	0.	-1752.7
19274	16.067	1.3636	0.	-1775.7
19275	16.067	1.4545	5.e-002	-4.5742
19276	16.344	1.4545	0.	-1707.5
19277	16.251	1.3636	0.	-1730.4
19278	16.251	1.4545	5.e-002	-4.554
19279	16.528	1.4545	0.	-1662.5
19280	16.436	1.3636	0.	-1685.4
19281	16.436	1.4545	5.e-002	-4.5341
19282	16.713	1.4545	0.	-1617.8
19283	16.62	1.3636	0.	-1640.5
19284	16.62	1.4545	5.e-002	-4.5144
19285	16.897	1.4545	0.	-1573.2
19286	16.805	1.3636	0.	-1595.8
19287	16.805	1.4545	5.e-002	-4.495
19288	17.082	1.4545	0.	-1528.8
19289	16.989	1.3636	0.	-1551.3
19290	16.989	1.4545	5.e-002	-4.4759
19291	17.266	1.4545	0.	-1484.6
19292	17.174	1.3636	0.	-1507.1
19293	17.174	1.4545	5.e-002	-4.457
19294	17.451	1.4545	0.	-1440.7
19295	17.358	1.3636	0.	-1463.
19296	17.358	1.4545	5.e-002	-4.4385
19297	17.635	1.4545	0.	-1396.9
19298	17.543	1.3636	0.	-1419.1
19299	17.543	1.4545	5.e-002	-4.4202
19300	17.82	1.4545	0.	-1353.3
19301	17.727	1.3636	0.	-1375.4
19302	17.727	1.4545	5.e-002	-4.4023
19303	18.004	1.4545	0.	-1309.9
19304	17.912	1.3636	0.	-1331.9
19305	17.912	1.4545	5.e-002	-4.3846
19306	18.189	1.4545	0.	-1266.7
19307	18.096	1.3636	0.	-1288.6
19308	18.096	1.4545	5.e-002	-4.3674
19309	18.373	1.4545	0.	-1223.7
19310	18.281	1.3636	0.	-1245.5
19311	18.281	1.4545	5.e-002	-4.3505
19312	18.558	1.4545	0.	-1180.9
19313	18.465	1.3636	0.	-1202.6
19314	18.465	1.4545	5.e-002	-4.334
19315	18.742	1.4545	0.	-1138.4
19316	18.65	1.3636	0.	-1159.9
19317	18.65	1.4545	5.e-002	-4.3179
19318	18.927	1.4545	0.	-1096.
19319	18.834	1.3636	0.	-1117.4
19320	18.834	1.4545	5.e-002	-4.3022
19321	19.111	1.4545	0.	-1053.8
19322	19.019	1.3636	0.	-1075.1
19323	19.019	1.4545	5.e-002	-4.2869
19324	19.296	1.4545	0.	-1011.7
19325	19.203	1.3636	0.	-1032.9
19326	19.203	1.4545	5.e-002	-4.2722
19327	19.48	1.4545	0.	-969.93
19328	19.388	1.3636	0.	-991.
19329	19.388	1.4545	5.e-002	-4.258
19330	19.665	1.4545	0.	-928.31
19331	19.572	1.3636	0.	-949.26
19332	19.572	1.4545	5.e-002	-4.2445
19333	19.849	1.4545	0.	-886.88
19334	19.757	1.3636	0.	-907.71
19335	19.757	1.4545	5.e-002	-4.2315
19336	20.033	1.4545	0.	-845.65
19337	19.941	1.3636	0.	-866.35
19338	19.941	1.4545	5.e-002	-4.2193
19339	20.218	1.4545	0.	-804.61
19340	20.126	1.3636	0.	-825.18
19341	20.126	1.4545	5.e-002	-4.2078
19342	20.402	1.4545	0.	-763.75
19343	20.31	1.3636	0.	-784.2
19344	20.31	1.4545	5.e-002	-4.1971
19345	20.587	1.4545	0.	-723.09
19346	20.495	1.3636	0.	-743.4
19347	20.495	1.4545	5.e-002	-4.1874
19348	20.771	1.4545	0.	-682.62
19349	20.679	1.3636	0.	-702.79
19350	20.679	1.4545	5.e-002	-4.1786
19351	20.956	1.4545	0.	-642.33
19352	20.864	1.3636	0.	-662.37
19353	20.864	1.4545	5.e-002	-4.1709
19354	21.14	1.4545	0.	-602.24
19355	21.048	1.3636	0.	-622.13
19356	21.048	1.4545	5.e-002	-4.1646
19357	21.325	1.4545	0.	-562.33
19358	21.233	1.3636	0.	-582.08
19359	21.233	1.4545	5.e-002	-4.1596
19360	21.509	1.4545	0.	-522.61
19361	21.417	1.3636	0.	-542.21
19362	21.417	1.4545	5.e-002	-4.1562
19363	21.694	1.4545	0.	-483.08
19364	21.602	1.3636	0.	-502.53
19365	21.602	1.4545	5.e-002	-4.1546
19366	21.878	1.4545	0.	-443.74
19367	21.786	1.3636	0.	-463.04
19368	21.786	1.4545	5.e-002	-4.1551
19369	22.063	1.4545	0.	-404.59
19370	21.971	1.3636	0.	-423.74
19371	21.971	1.4545	5.e-002	-4.158
19372	22.247	1.4545	0.	-365.63
19373	22.155	1.3636	0.	-384.64
19374	22.155	1.4545	5.e-002	-4.1638
19375	22.432	1.4545	0.	-326.86
19376	22.34	1.3636	0.	-345.73
19377	22.34	1.4545	5.e-002	-4.173
19378	22.616	1.4545	0.	-288.27
19379	22.524	1.3636	0.	-307.02
19380	22.524	1.4545	5.e-002	-4.1865
19381	22.801	1.4545	0.	-249.85
19382	22.709	1.3636	0.	-268.5
19383	22.709	1.4545	5.e-002	-4.205
19384	22.985	1.4545	0.	-211.58
19385	22.893	1.3636	0.	-230.17
19386	22.893	1.4545	5.e-002	-4.2298
19387	23.17	1.4545	0.	-173.42
19388	23.078	1.3636	0.	-192.
19389	23.078	1.4545	5.e-002	-4.2621
19390	23.354	1.4545	0.	-135.31
19391	23.262	1.3636	0.	-153.96
19392	23.262	1.4545	5.e-002	-4.3035
19393	23.539	1.4545	0.	-97.169
19394	23.447	1.3636	0.	-115.96
19395	23.447	1.4545	5.e-002	-4.355
19396	23.723	1.4545	0.	-58.992
19397	23.631	1.3636	0.	-77.918
19398	23.631	1.4545	5.e-002	-4.4207
19399	23.816	1.3636	0.	-39.961
19400	23.816	1.4545	5.e-002	-4.5577
19401	23.908	1.4545	0.	-22.56
19402	5.6434	1.2727	0.	-3632.8
19403	5.5512	1.1818	0.	-3297.7
19404	5.5512	1.2727	5.e-002	-131.58
19405	5.4589	1.2727	0.	-2937.6
19406	5.8279	1.2727	0.	-3731.2
19407	5.7356	1.1818	0.	-3369.6
19408	5.7356	1.2727	5.e-002	-79.58
19409	6.0124	1.2727	0.	-3850.5
19410	5.9201	1.1818	0.	-3538.3
19411	5.9201	1.2727	5.e-002	-58.397
19412	6.1969	1.2727	0.	-3934.6
19413	6.1046	1.1818	0.	-3678.2
19414	6.1046	1.2727	5.e-002	-42.019
19415	6.3814	1.2727	0.	-3992.1
19416	6.2891	1.1818	0.	-3788.1
19417	6.2891	1.2727	5.e-002	-31.455
19418	6.5658	1.2727	0.	-4029.2
19419	6.4736	1.1818	0.	-3870.4
19420	6.4736	1.2727	5.e-002	-24.347
19421	6.7503	1.2727	0.	-4049.2
19422	6.6581	1.1818	0.	-3928.4
19423	6.6581	1.2727	5.e-002	-19.381
19424	6.9348	1.2727	0.	-4054.9
19425	6.8426	1.1818	0.	-3965.1
19426	6.8426	1.2727	5.e-002	-15.738
19427	7.1193	1.2727	0.	-4048.4
19428	7.0271	1.1818	0.	-3983.8
19429	7.0271	1.2727	5.e-002	-12.99
19430	7.3038	1.2727	0.	-4031.9
19431	7.2116	1.1818	0.	-3987.3
19432	7.2116	1.2727	5.e-002	-10.9
19433	7.4883	1.2727	0.	-4007.1
19434	7.396	1.1818	0.	-3978.6
19435	7.396	1.2727	5.e-002	-9.3178
19436	7.6728	1.2727	0.	-3975.8
19437	7.5805	1.1818	0.	-3959.9
19438	7.5805	1.2727	5.e-002	-8.1412
19439	7.8573	1.2727	0.	-3939.2
19440	7.765	1.1818	0.	-3933.4
19441	7.765	1.2727	5.e-002	-7.2881
19442	8.0417	1.2727	0.	-3898.7
19443	7.9495	1.1818	0.	-3900.6
19444	7.9495	1.2727	5.e-002	-6.6876
19445	8.2262	1.2727	0.	-3855.
19446	8.134	1.1818	0.	-3863.
19447	8.134	1.2727	5.e-002	-6.2777
19448	8.4107	1.2727	0.	-3809.
19449	8.3185	1.1818	0.	-3821.7
19450	8.3185	1.2727	5.e-002	-6.0052
19451	8.5952	1.2727	0.	-3761.2
19452	8.503	1.1818	0.	-3777.5
19453	8.503	1.2727	5.e-002	-5.8274
19454	8.7797	1.2727	0.	-3712.1
19455	8.6875	1.1818	0.	-3731.2
19456	8.6875	1.2727	5.e-002	-5.712
19457	8.9642	1.2727	0.	-3662.2
19458	8.8719	1.1818	0.	-3683.4
19459	8.8719	1.2727	5.e-002	-5.6359
19460	9.1487	1.2727	0.	-3611.6
19461	9.0564	1.1818	0.	-3634.3
19462	9.0564	1.2727	5.e-002	-5.5834
19463	9.3332	1.2727	0.	-3560.6
19464	9.2409	1.1818	0.	-3584.5
19465	9.2409	1.2727	5.e-002	-5.5445
19466	9.5177	1.2727	0.	-3509.3
19467	9.4254	1.1818	0.	-3534.
19468	9.4254	1.2727	5.e-002	-5.5127
19469	9.7021	1.2727	0.	-3457.8
19470	9.6099	1.1818	0.	-3483.2
19471	9.6099	1.2727	5.e-002	-5.4843
19472	9.8866	1.2727	0.	-3406.3
19473	9.7944	1.1818	0.	-3432.1
19474	9.7944	1.2727	5.e-002	-5.4569
19475	10.071	1.2727	0.	-3354.8
19476	9.9789	1.1818	0.	-3380.9
19477	9.9789	1.2727	5.e-002	-5.4296
19478	10.256	1.2727	0.	-3303.4
19479	10.163	1.1818	0.	-3329.7
19480	10.163	1.2727	5.e-002	-5.4017
19481	10.44	1.2727	0.	-3252.1
19482	10.348	1.1818	0.	-3278.5
19483	10.348	1.2727	5.e-002	-5.3731
19484	10.625	1.2727	0.	-3200.9
19485	10.532	1.1818	0.	-3227.3
19486	10.532	1.2727	5.e-002	-5.3438
19487	10.809	1.2727	0.	-3149.9
19488	10.717	1.1818	0.	-3176.3
19489	10.717	1.2727	5.e-002	-5.314
19490	10.994	1.2727	0.	-3099.
19491	10.901	1.1818	0.	-3125.4
19492	10.901	1.2727	5.e-002	-5.2838
19493	11.178	1.2727	0.	-3048.4
19494	11.086	1.1818	0.	-3074.6
19495	11.086	1.2727	5.e-002	-5.2535
19496	11.363	1.2727	0.	-2997.8
19497	11.27	1.1818	0.	-3024.
19498	11.27	1.2727	5.e-002	-5.2231
19499	11.547	1.2727	0.	-2947.5
19500	11.455	1.1818	0.	-2973.6
19501	11.455	1.2727	5.e-002	-5.193
19502	11.732	1.2727	0.	-2897.4
19503	11.639	1.1818	0.	-2923.3
19504	11.639	1.2727	5.e-002	-5.163
19505	11.916	1.2727	0.	-2847.5
19506	11.824	1.1818	0.	-2873.3
19507	11.824	1.2727	5.e-002	-5.1334
19508	12.1	1.2727	0.	-2797.7
19509	12.008	1.1818	0.	-2823.4
19510	12.008	1.2727	5.e-002	-5.1041
19511	12.285	1.2727	0.	-2748.2
19512	12.193	1.1818	0.	-2773.7
19513	12.193	1.2727	5.e-002	-5.0753
19514	12.469	1.2727	0.	-2698.8
19515	12.377	1.1818	0.	-2724.2
19516	12.377	1.2727	5.e-002	-5.047
19517	12.654	1.2727	0.	-2649.7
19518	12.562	1.1818	0.	-2675.
19519	12.562	1.2727	5.e-002	-5.0192
19520	12.838	1.2727	0.	-2600.7
19521	12.746	1.1818	0.	-2625.9
19522	12.746	1.2727	5.e-002	-4.9919
19523	13.023	1.2727	0.	-2552.
19524	12.931	1.1818	0.	-2577.
19525	12.931	1.2727	5.e-002	-4.9652
19526	13.207	1.2727	0.	-2503.4
19527	13.115	1.1818	0.	-2528.3
19528	13.115	1.2727	5.e-002	-4.9389
19529	13.392	1.2727	0.	-2455.1
19530	13.3	1.1818	0.	-2479.9
19531	13.3	1.2727	5.e-002	-4.9132
19532	13.576	1.2727	0.	-2406.9
19533	13.484	1.1818	0.	-2431.6
19534	13.484	1.2727	5.e-002	-4.8879
19535	13.761	1.2727	0.	-2358.9
19536	13.669	1.1818	0.	-2383.5
19537	13.669	1.2727	5.e-002	-4.863
19538	13.945	1.2727	0.	-2311.2
19539	13.853	1.1818	0.	-2335.6
19540	13.853	1.2727	5.e-002	-4.8385
19541	14.13	1.2727	0.	-2263.6
19542	14.038	1.1818	0.	-2287.9
19543	14.038	1.2727	5.e-002	-4.8145
19544	14.314	1.2727	0.	-2216.3
19545	14.222	1.1818	0.	-2240.5
19546	14.222	1.2727	5.e-002	-4.7909
19547	14.499	1.2727	0.	-2169.1
19548	14.407	1.1818	0.	-2193.2
19549	14.407	1.2727	5.e-002	-4.7676
19550	14.683	1.2727	0.	-2122.1
19551	14.591	1.1818	0.	-2146.1
19552	14.591	1.2727	5.e-002	-4.7448
19553	14.868	1.2727	0.	-2075.4
19554	14.776	1.1818	0.	-2099.2
19555	14.776	1.2727	5.e-002	-4.7223
19556	15.052	1.2727	0.	-2028.8
19557	14.96	1.1818	0.	-2052.5
19558	14.96	1.2727	5.e-002	-4.7001
19559	15.237	1.2727	0.	-1982.4
19560	15.145	1.1818	0.	-2006.1
19561	15.145	1.2727	5.e-002	-4.6782
19562	15.421	1.2727	0.	-1936.2
19563	15.329	1.1818	0.	-1959.8
19564	15.329	1.2727	5.e-002	-4.6566
19565	15.606	1.2727	0.	-1890.3
19566	15.514	1.1818	0.	-1913.7
19567	15.514	1.2727	5.e-002	-4.6353
19568	15.79	1.2727	0.	-1844.5
19569	15.698	1.1818	0.	-1867.8
19570	15.698	1.2727	5.e-002	-4.6143
19571	15.975	1.2727	0.	-1798.9
19572	15.883	1.1818	0.	-1822.1
19573	15.883	1.2727	5.e-002	-4.5935
19574	16.159	1.2727	0.	-1753.5
19575	16.067	1.1818	0.	-1776.6
19576	16.067	1.2727	5.e-002	-4.5731
19577	16.344	1.2727	0.	-1708.4
19578	16.251	1.1818	0.	-1731.4
19579	16.251	1.2727	5.e-002	-4.5529
19580	16.528	1.2727	0.	-1663.4
19581	16.436	1.1818	0.	-1686.3
19582	16.436	1.2727	5.e-002	-4.533
19583	16.713	1.2727	0.	-1618.6
19584	16.62	1.1818	0.	-1641.4
19585	16.62	1.2727	5.e-002	-4.5133
19586	16.897	1.2727	0.	-1574.
19587	16.805	1.1818	0.	-1596.7
19588	16.805	1.2727	5.e-002	-4.4939
19589	17.082	1.2727	0.	-1529.6
19590	16.989	1.1818	0.	-1552.2
19591	16.989	1.2727	5.e-002	-4.4748
19592	17.266	1.2727	0.	-1485.4
19593	17.174	1.1818	0.	-1507.9
19594	17.174	1.2727	5.e-002	-4.456
19595	17.451	1.2727	0.	-1441.4
19596	17.358	1.1818	0.	-1463.8
19597	17.358	1.2727	5.e-002	-4.4374
19598	17.635	1.2727	0.	-1397.6
19599	17.543	1.1818	0.	-1419.9
19600	17.543	1.2727	5.e-002	-4.4191
19601	17.82	1.2727	0.	-1354.
19602	17.727	1.1818	0.	-1376.2
19603	17.727	1.2727	5.e-002	-4.4012
19604	18.004	1.2727	0.	-1310.6
19605	17.912	1.1818	0.	-1332.7
19606	17.912	1.2727	5.e-002	-4.3835
19607	18.189	1.2727	0.	-1267.4
19608	18.096	1.1818	0.	-1289.4
19609	18.096	1.2727	5.e-002	-4.3662
19610	18.373	1.2727	0.	-1224.4
19611	18.281	1.1818	0.	-1246.2
19612	18.281	1.2727	5.e-002	-4.3493
19613	18.558	1.2727	0.	-1181.6
19614	18.465	1.1818	0.	-1203.3
19615	18.465	1.2727	5.e-002	-4.3327
19616	18.742	1.2727	0.	-1139.
19617	18.65	1.1818	0.	-1160.6
19618	18.65	1.2727	5.e-002	-4.3165
19619	18.927	1.2727	0.	-1096.5
19620	18.834	1.1818	0.	-1118.
19621	18.834	1.2727	5.e-002	-4.3007
19622	19.111	1.2727	0.	-1054.3
19623	19.019	1.1818	0.	-1075.7
19624	19.019	1.2727	5.e-002	-4.2854
19625	19.296	1.2727	0.	-1012.2
19626	19.203	1.1818	0.	-1033.5
19627	19.203	1.2727	5.e-002	-4.2706
19628	19.48	1.2727	0.	-970.37
19629	19.388	1.1818	0.	-991.53
19630	19.388	1.2727	5.e-002	-4.2563
19631	19.665	1.2727	0.	-928.7
19632	19.572	1.1818	0.	-949.74
19633	19.572	1.2727	5.e-002	-4.2425
19634	19.849	1.2727	0.	-887.22
19635	19.757	1.1818	0.	-908.13
19636	19.757	1.2727	5.e-002	-4.2294
19637	20.033	1.2727	0.	-845.92
19638	19.941	1.1818	0.	-866.72
19639	19.941	1.2727	5.e-002	-4.217
19640	20.218	1.2727	0.	-804.81
19641	20.126	1.1818	0.	-825.48
19642	20.126	1.2727	5.e-002	-4.2052
19643	20.402	1.2727	0.	-763.89
19644	20.31	1.1818	0.	-784.43
19645	20.31	1.2727	5.e-002	-4.1942
19646	20.587	1.2727	0.	-723.15
19647	20.495	1.1818	0.	-743.56
19648	20.495	1.2727	5.e-002	-4.1841
19649	20.771	1.2727	0.	-682.59
19650	20.679	1.1818	0.	-702.86
19651	20.679	1.2727	5.e-002	-4.175
19652	20.956	1.2727	0.	-642.21
19653	20.864	1.1818	0.	-662.35
19654	20.864	1.2727	5.e-002	-4.1668
19655	21.14	1.2727	0.	-602.02
19656	21.048	1.1818	0.	-622.02
19657	21.048	1.2727	5.e-002	-4.1598
19658	21.325	1.2727	0.	-562.01
19659	21.233	1.1818	0.	-581.86
19660	21.233	1.2727	5.e-002	-4.1542
19661	21.509	1.2727	0.	-522.18
19662	21.417	1.1818	0.	-541.88
19663	21.417	1.2727	5.e-002	-4.1499
19664	21.694	1.2727	0.	-482.54
19665	21.602	1.1818	0.	-502.09
19666	21.602	1.2727	5.e-002	-4.1474
19667	21.878	1.2727	0.	-443.09
19668	21.786	1.1818	0.	-462.48
19669	21.786	1.2727	5.e-002	-4.1467
19670	22.063	1.2727	0.	-403.84
19671	21.971	1.1818	0.	-423.06
19672	21.971	1.2727	5.e-002	-4.1483
19673	22.247	1.2727	0.	-364.78
19674	22.155	1.1818	0.	-383.84
19675	22.155	1.2727	5.e-002	-4.1525
19676	22.432	1.2727	0.	-325.93
19677	22.34	1.1818	0.	-344.83
19678	22.34	1.2727	5.e-002	-4.16
19679	22.616	1.2727	0.	-287.29
19680	22.524	1.1818	0.	-306.03
19681	22.524	1.2727	5.e-002	-4.1715
19682	22.801	1.2727	0.	-248.86
19683	22.709	1.1818	0.	-267.46
19684	22.709	1.2727	5.e-002	-4.1881
19685	22.985	1.2727	0.	-210.62
19686	22.893	1.1818	0.	-229.11
19687	22.893	1.2727	5.e-002	-4.2111
19688	23.17	1.2727	0.	-172.56
19689	23.078	1.1818	0.	-190.99
19690	23.078	1.2727	5.e-002	-4.2422
19691	23.354	1.2727	0.	-134.62
19692	23.262	1.1818	0.	-153.07
19693	23.262	1.2727	5.e-002	-4.2837
19694	23.539	1.2727	0.	-96.715
19695	23.447	1.1818	0.	-115.29
19696	23.447	1.2727	5.e-002	-4.3375
19697	23.723	1.2727	0.	-58.827
19698	23.631	1.1818	0.	-77.532
19699	23.631	1.2727	5.e-002	-4.4093
19700	23.816	1.1818	0.	-39.924
19701	23.816	1.2727	5.e-002	-4.5689
19702	23.908	1.2727	0.	-22.568
19703	5.6434	1.0909	0.	-2979.1
19704	5.5512	1.	0.	-2679.8
19705	5.5512	1.0909	5.e-002	-104.5
19706	5.4589	1.0909	0.	-2395.2
19707	5.8279	1.0909	0.	-3138.9
19708	5.7356	1.	0.	-2798.5
19709	5.7356	1.0909	5.e-002	-69.436
19710	6.0124	1.0909	0.	-3342.
19711	5.9201	1.	0.	-3031.5
19712	5.9201	1.0909	5.e-002	-55.109
19713	6.1969	1.0909	0.	-3517.2
19714	6.1046	1.	0.	-3251.8
19715	6.1046	1.0909	5.e-002	-42.422
19716	6.3814	1.0909	0.	-3657.8
19717	6.2891	1.	0.	-3440.7
19718	6.2891	1.0909	5.e-002	-32.505
19719	6.5658	1.0909	0.	-3764.8
19720	6.4736	1.	0.	-3592.5
19721	6.4736	1.0909	5.e-002	-25.09
19722	6.7503	1.0909	0.	-3841.5
19723	6.6581	1.	0.	-3708.1
19724	6.6581	1.0909	5.e-002	-19.556
19725	6.9348	1.0909	0.	-3892.4
19726	6.8426	1.	0.	-3791.7
19727	6.8426	1.0909	5.e-002	-15.387
19728	7.1193	1.0909	0.	-3921.8
19729	7.0271	1.	0.	-3847.8
19730	7.0271	1.0909	5.e-002	-12.226
19731	7.3038	1.0909	0.	-3933.6
19732	7.2116	1.	0.	-3881.3
19733	7.2116	1.0909	5.e-002	-9.8416
19734	7.4883	1.0909	0.	-3931.2
19735	7.396	1.	0.	-3896.2
19736	7.396	1.0909	5.e-002	-8.0824
19737	7.6728	1.0909	0.	-3917.4
19738	7.5805	1.	0.	-3896.3
19739	7.5805	1.0909	5.e-002	-6.8379
19740	7.8573	1.0909	0.	-3894.7
19741	7.765	1.	0.	-3884.5
19742	7.765	1.0909	5.e-002	-6.0139
19743	8.0417	1.0909	0.	-3864.9
19744	7.9495	1.	0.	-3863.4
19745	7.9495	1.0909	5.e-002	-5.5171
19746	8.2262	1.0909	0.	-3829.7
19747	8.134	1.	0.	-3835.
19748	8.134	1.0909	5.e-002	-5.2546
19749	8.4107	1.0909	0.	-3790.3
19750	8.3185	1.	0.	-3800.8
19751	8.3185	1.0909	5.e-002	-5.1439
19752	8.5952	1.0909	0.	-3747.6
19753	8.503	1.	0.	-3762.2
19754	8.503	1.0909	5.e-002	-5.1212
19755	8.7797	1.0909	0.	-3702.5
19756	8.6875	1.	0.	-3720.2
19757	8.6875	1.0909	5.e-002	-5.1428
19758	8.9642	1.0909	0.	-3655.6
19759	8.8719	1.	0.	-3675.7
19760	8.8719	1.0909	5.e-002	-5.1822
19761	9.1487	1.0909	0.	-3607.3
19762	9.0564	1.	0.	-3629.2
19763	9.0564	1.0909	5.e-002	-5.2242
19764	9.3332	1.0909	0.	-3558.
19765	9.2409	1.	0.	-3581.3
19766	9.2409	1.0909	5.e-002	-5.261
19767	9.5177	1.0909	0.	-3508.
19768	9.4254	1.	0.	-3532.3
19769	9.4254	1.0909	5.e-002	-5.2894
19770	9.7021	1.0909	0.	-3457.5
19771	9.6099	1.	0.	-3482.6
19772	9.6099	1.0909	5.e-002	-5.3084
19773	9.8866	1.0909	0.	-3406.8
19774	9.7944	1.	0.	-3432.3
19775	9.7944	1.0909	5.e-002	-5.3184
19776	10.071	1.0909	0.	-3355.8
19777	9.9789	1.	0.	-3381.7
19778	9.9789	1.0909	5.e-002	-5.3203
19779	10.256	1.0909	0.	-3304.8
19780	10.163	1.	0.	-3330.9
19781	10.163	1.0909	5.e-002	-5.3153
19782	10.44	1.0909	0.	-3253.7
19783	10.348	1.	0.	-3280.
19784	10.348	1.0909	5.e-002	-5.3046
19785	10.625	1.0909	0.	-3202.7
19786	10.532	1.	0.	-3229.1
19787	10.532	1.0909	5.e-002	-5.2894
19788	10.809	1.0909	0.	-3151.7
19789	10.717	1.	0.	-3178.1
19790	10.717	1.0909	5.e-002	-5.2706
19791	10.994	1.0909	0.	-3100.9
19792	10.901	1.	0.	-3127.3
19793	10.901	1.0909	5.e-002	-5.249
19794	11.178	1.0909	0.	-3050.2
19795	11.086	1.	0.	-3076.6
19796	11.086	1.0909	5.e-002	-5.2254
19797	11.363	1.0909	0.	-2999.7
19798	11.27	1.	0.	-3025.9
19799	11.27	1.0909	5.e-002	-5.2004
19800	11.547	1.0909	0.	-2949.4
19801	11.455	1.	0.	-2975.5
19802	11.455	1.0909	5.e-002	-5.1745
19803	11.732	1.0909	0.	-2899.2
19804	11.639	1.	0.	-2925.2
19805	11.639	1.0909	5.e-002	-5.1478
19806	11.916	1.0909	0.	-2849.2
19807	11.824	1.	0.	-2875.1
19808	11.824	1.0909	5.e-002	-5.1208
19809	12.1	1.0909	0.	-2799.4
19810	12.008	1.	0.	-2825.2
19811	12.008	1.0909	5.e-002	-5.0936
19812	12.285	1.0909	0.	-2749.8
19813	12.193	1.	0.	-2775.5
19814	12.193	1.0909	5.e-002	-5.0665
19815	12.469	1.0909	0.	-2700.4
19816	12.377	1.	0.	-2725.9
19817	12.377	1.0909	5.e-002	-5.0395
19818	12.654	1.0909	0.	-2651.2
19819	12.562	1.	0.	-2676.6
19820	12.562	1.0909	5.e-002	-5.0128
19821	12.838	1.0909	0.	-2602.2
19822	12.746	1.	0.	-2627.5
19823	12.746	1.0909	5.e-002	-4.9864
19824	13.023	1.0909	0.	-2553.4
19825	12.931	1.	0.	-2578.5
19826	12.931	1.0909	5.e-002	-4.9604
19827	13.207	1.0909	0.	-2504.8
19828	13.115	1.	0.	-2529.8
19829	13.115	1.0909	5.e-002	-4.9347
19830	13.392	1.0909	0.	-2456.4
19831	13.3	1.	0.	-2481.3
19832	13.3	1.0909	5.e-002	-4.9094
19833	13.576	1.0909	0.	-2408.2
19834	13.484	1.	0.	-2433.
19835	13.484	1.0909	5.e-002	-4.8845
19836	13.761	1.0909	0.	-2360.2
19837	13.669	1.	0.	-2384.8
19838	13.669	1.0909	5.e-002	-4.86
19839	13.945	1.0909	0.	-2312.4
19840	13.853	1.	0.	-2336.9
19841	13.853	1.0909	5.e-002	-4.8358
19842	14.13	1.0909	0.	-2264.8
19843	14.038	1.	0.	-2289.2
19844	14.038	1.0909	5.e-002	-4.812
19845	14.314	1.0909	0.	-2217.4
19846	14.222	1.	0.	-2241.7
19847	14.222	1.0909	5.e-002	-4.7886
19848	14.499	1.0909	0.	-2170.2
19849	14.407	1.	0.	-2194.4
19850	14.407	1.0909	5.e-002	-4.7655
19851	14.683	1.0909	0.	-2123.2
19852	14.591	1.	0.	-2147.3
19853	14.591	1.0909	5.e-002	-4.7428
19854	14.868	1.0909	0.	-2076.4
19855	14.776	1.	0.	-2100.4
19856	14.776	1.0909	5.e-002	-4.7204
19857	15.052	1.0909	0.	-2029.9
19858	14.96	1.	0.	-2053.7
19859	14.96	1.0909	5.e-002	-4.6984
19860	15.237	1.0909	0.	-1983.5
19861	15.145	1.	0.	-2007.2
19862	15.145	1.0909	5.e-002	-4.6766
19863	15.421	1.0909	0.	-1937.3
19864	15.329	1.	0.	-1960.9
19865	15.329	1.0909	5.e-002	-4.6551
19866	15.606	1.0909	0.	-1891.3
19867	15.514	1.	0.	-1914.8
19868	15.514	1.0909	5.e-002	-4.6339
19869	15.79	1.0909	0.	-1845.5
19870	15.698	1.	0.	-1868.9
19871	15.698	1.0909	5.e-002	-4.6129
19872	15.975	1.0909	0.	-1799.9
19873	15.883	1.	0.	-1823.2
19874	15.883	1.0909	5.e-002	-4.5922
19875	16.159	1.0909	0.	-1754.5
19876	16.067	1.	0.	-1777.7
19877	16.067	1.0909	5.e-002	-4.5718
19878	16.344	1.0909	0.	-1709.3
19879	16.251	1.	0.	-1732.4
19880	16.251	1.0909	5.e-002	-4.5516
19881	16.528	1.0909	0.	-1664.3
19882	16.436	1.	0.	-1687.3
19883	16.436	1.0909	5.e-002	-4.5318
19884	16.713	1.0909	0.	-1619.5
19885	16.62	1.	0.	-1642.4
19886	16.62	1.0909	5.e-002	-4.5121
19887	16.897	1.0909	0.	-1574.9
19888	16.805	1.	0.	-1597.7
19889	16.805	1.0909	5.e-002	-4.4927
19890	17.082	1.0909	0.	-1530.5
19891	16.989	1.	0.	-1553.2
19892	16.989	1.0909	5.e-002	-4.4736
19893	17.266	1.0909	0.	-1486.3
19894	17.174	1.	0.	-1508.9
19895	17.174	1.0909	5.e-002	-4.4548
19896	17.451	1.0909	0.	-1442.3
19897	17.358	1.	0.	-1464.7
19898	17.358	1.0909	5.e-002	-4.4362
19899	17.635	1.0909	0.	-1398.5
19900	17.543	1.	0.	-1420.8
19901	17.543	1.0909	5.e-002	-4.4179
19902	17.82	1.0909	0.	-1354.9
19903	17.727	1.	0.	-1377.1
19904	17.727	1.0909	5.e-002	-4.3999
19905	18.004	1.0909	0.	-1311.4
19906	17.912	1.	0.	-1333.6
19907	17.912	1.0909	5.e-002	-4.3822
19908	18.189	1.0909	0.	-1268.2
19909	18.096	1.	0.	-1290.2
19910	18.096	1.0909	5.e-002	-4.3649
19911	18.373	1.0909	0.	-1225.2
19912	18.281	1.	0.	-1247.1
19913	18.281	1.0909	5.e-002	-4.3479
19914	18.558	1.0909	0.	-1182.3
19915	18.465	1.	0.	-1204.1
19916	18.465	1.0909	5.e-002	-4.3312
19917	18.742	1.0909	0.	-1139.7
19918	18.65	1.	0.	-1161.4
19919	18.65	1.0909	5.e-002	-4.315
19920	18.927	1.0909	0.	-1097.2
19921	18.834	1.	0.	-1118.8
19922	18.834	1.0909	5.e-002	-4.2991
19923	19.111	1.0909	0.	-1054.9
19924	19.019	1.	0.	-1076.4
19925	19.019	1.0909	5.e-002	-4.2837
19926	19.296	1.0909	0.	-1012.8
19927	19.203	1.	0.	-1034.2
19928	19.203	1.0909	5.e-002	-4.2687
19929	19.48	1.0909	0.	-970.93
19930	19.388	1.	0.	-992.18
19931	19.388	1.0909	5.e-002	-4.2543
19932	19.665	1.0909	0.	-929.21
19933	19.572	1.	0.	-950.34
19934	19.572	1.0909	5.e-002	-4.2404
19935	19.849	1.0909	0.	-887.67
19936	19.757	1.	0.	-908.69
19937	19.757	1.0909	5.e-002	-4.2271
19938	20.033	1.0909	0.	-846.32
19939	19.941	1.	0.	-867.21
19940	19.941	1.0909	5.e-002	-4.2144
19941	20.218	1.0909	0.	-805.14
19942	20.126	1.	0.	-825.91
19943	20.126	1.0909	5.e-002	-4.2024
19944	20.402	1.0909	0.	-764.14
19945	20.31	1.	0.	-784.79
19946	20.31	1.0909	5.e-002	-4.1911
19947	20.587	1.0909	0.	-723.32
19948	20.495	1.	0.	-743.84
19949	20.495	1.0909	5.e-002	-4.1806
19950	20.771	1.0909	0.	-682.67
19951	20.679	1.	0.	-703.07
19952	20.679	1.0909	5.e-002	-4.171
19953	20.956	1.0909	0.	-642.2
19954	20.864	1.	0.	-662.46
19955	20.864	1.0909	5.e-002	-4.1624
19956	21.14	1.0909	0.	-601.91
19957	21.048	1.	0.	-622.03
19958	21.048	1.0909	5.e-002	-4.1548
19959	21.325	1.0909	0.	-561.79
19960	21.233	1.	0.	-581.77
19961	21.233	1.0909	5.e-002	-4.1484
19962	21.509	1.0909	0.	-521.84
19963	21.417	1.	0.	-541.67
19964	21.417	1.0909	5.e-002	-4.1433
19965	21.694	1.0909	0.	-482.08
19966	21.602	1.	0.	-501.76
19967	21.602	1.0909	5.e-002	-4.1397
19968	21.878	1.0909	0.	-442.51
19969	21.786	1.	0.	-462.02
19970	21.786	1.0909	5.e-002	-4.1378
19971	22.063	1.0909	0.	-403.12
19972	21.971	1.	0.	-422.47
19973	21.971	1.0909	5.e-002	-4.1379
19974	22.247	1.0909	0.	-363.94
19975	22.155	1.	0.	-383.11
19976	22.155	1.0909	5.e-002	-4.1404
19977	22.432	1.0909	0.	-324.98
19978	22.34	1.	0.	-343.96
19979	22.34	1.0909	5.e-002	-4.1459
19980	22.616	1.0909	0.	-286.25
19981	22.524	1.	0.	-305.03
19982	22.524	1.0909	5.e-002	-4.1551
19983	22.801	1.0909	0.	-247.76
19984	22.709	1.	0.	-266.35
19985	22.709	1.0909	5.e-002	-4.1691
19986	22.985	1.0909	0.	-209.52
19987	22.893	1.	0.	-227.94
19988	22.893	1.0909	5.e-002	-4.1896
19989	23.17	1.0909	0.	-171.53
19990	23.078	1.	0.	-189.82
19991	23.078	1.0909	5.e-002	-4.2186
19992	23.354	1.0909	0.	-133.76
19993	23.262	1.	0.	-151.99
19994	23.262	1.0909	5.e-002	-4.2593
19995	23.539	1.0909	0.	-96.113
19996	23.447	1.	0.	-114.42
19997	23.447	1.0909	5.e-002	-4.315
19998	23.723	1.0909	0.	-58.576
19999	23.631	1.	0.	-76.992
20000	23.631	1.0909	5.e-002	-4.3937
20001	23.816	1.	0.	-39.824
20002	23.816	1.0909	5.e-002	-4.5794
20003	23.908	1.0909	0.	-22.551
20004	5.6434	0.90909	0.	-2452.4
20005	5.5512	0.81818	0.	-2172.7
20006	5.5512	0.90909	5.e-002	-86.855
20007	5.4589	0.90909	0.	-1956.5
20008	5.8279	0.90909	0.	-2657.2
20009	5.7356	0.81818	0.	-2332.7
20010	5.7356	0.90909	5.e-002	-61.357
20011	6.0124	0.90909	0.	-2919.1
20012	5.9201	0.81818	0.	-2614.6
20013	5.9201	0.90909	5.e-002	-51.802
20014	6.1969	0.90909	0.	-3161.9
20015	6.1046	0.81818	0.	-2896.2
20016	6.1046	0.90909	5.e-002	-42.102
20017	6.3814	0.90909	0.	-3367.5
20018	6.2891	0.81818	0.	-3146.3
20019	6.2891	0.90909	5.e-002	-33.423
20020	6.5658	0.90909	0.	-3531.3
20021	6.4736	0.81818	0.	-3353.2
20022	6.4736	0.90909	5.e-002	-26.184
20023	6.7503	0.90909	0.	-3655.7
20024	6.6581	0.81818	0.	-3515.9
20025	6.6581	0.90909	5.e-002	-20.355
20026	6.9348	0.90909	0.	-3745.6
20027	6.8426	0.81818	0.	-3638.6
20028	6.8426	0.90909	5.e-002	-15.734
20029	7.1193	0.90909	0.	-3806.4
20030	7.0271	0.81818	0.	-3726.7
20031	7.0271	0.90909	5.e-002	-12.107
20032	7.3038	0.90909	0.	-3843.4
20033	7.2116	0.81818	0.	-3786.
20034	7.2116	0.90909	5.e-002	-9.3043
20035	7.4883	0.90909	0.	-3861.1
20036	7.396	0.81818	0.	-3821.7
20037	7.396	0.90909	5.e-002	-7.205
20038	7.6728	0.90909	0.	-3863.3
20039	7.5805	0.81818	0.	-3838.5
20040	7.5805	0.90909	5.e-002	-5.7256
20041	7.8573	0.90909	0.	-3853.2
20042	7.765	0.81818	0.	-3839.9
20043	7.765	0.90909	5.e-002	-4.7977
20044	8.0417	0.90909	0.	-3833.4
20045	7.9495	0.81818	0.	-3829.3
20046	7.9495	0.90909	5.e-002	-4.3315
20047	8.2262	0.90909	0.	-3806.
20048	8.134	0.81818	0.	-3809.2
20049	8.134	0.90909	5.e-002	-4.1971
20050	8.4107	0.90909	0.	-3772.7
20051	8.3185	0.81818	0.	-3781.5
20052	8.3185	0.90909	5.e-002	-4.256
20053	8.5952	0.90909	0.	-3734.8
20054	8.503	0.81818	0.	-3748.1
20055	8.503	0.90909	5.e-002	-4.402
20056	8.7797	0.90909	0.	-3693.4
20057	8.6875	0.81818	0.	-3710.1
20058	8.6875	0.90909	5.e-002	-4.5715
20059	8.9642	0.90909	0.	-3649.4
20060	8.8719	0.81818	0.	-3668.7
20061	8.8719	0.90909	5.e-002	-4.7326
20062	9.1487	0.90909	0.	-3603.3
20063	9.0564	0.81818	0.	-3624.6
20064	9.0564	0.90909	5.e-002	-4.8719
20065	9.3332	0.90909	0.	-3555.7
20066	9.2409	0.81818	0.	-3578.5
20067	9.2409	0.90909	5.e-002	-4.9854
20068	9.5177	0.90909	0.	-3506.9
20069	9.4254	0.81818	0.	-3530.9
20070	9.4254	0.90909	5.e-002	-5.0736
20071	9.7021	0.90909	0.	-3457.4
20072	9.6099	0.81818	0.	-3482.2
20073	9.6099	0.90909	5.e-002	-5.1393
20074	9.8866	0.90909	0.	-3407.4
20075	9.7944	0.81818	0.	-3432.8
20076	9.7944	0.90909	5.e-002	-5.1855
20077	10.071	0.90909	0.	-3356.9
20078	9.9789	0.81818	0.	-3382.7
20079	9.9789	0.90909	5.e-002	-5.2156
20080	10.256	0.90909	0.	-3306.2
20081	10.163	0.81818	0.	-3332.3
20082	10.163	0.90909	5.e-002	-5.2326
20083	10.44	0.90909	0.	-3255.4
20084	10.348	0.81818	0.	-3281.7
20085	10.348	0.90909	5.e-002	-5.2391
20086	10.625	0.90909	0.	-3204.5
20087	10.532	0.81818	0.	-3230.9
20088	10.532	0.90909	5.e-002	-5.2372
20089	10.809	0.90909	0.	-3153.7
20090	10.717	0.81818	0.	-3180.1
20091	10.717	0.90909	5.e-002	-5.2288
20092	10.994	0.90909	0.	-3102.9
20093	10.901	0.81818	0.	-3129.3
20094	10.901	0.90909	5.e-002	-5.2154
20095	11.178	0.90909	0.	-3052.3
20096	11.086	0.81818	0.	-3078.6
20097	11.086	0.90909	5.e-002	-5.1983
20098	11.363	0.90909	0.	-3001.7
20099	11.27	0.81818	0.	-3028.
20100	11.27	0.90909	5.e-002	-5.1783
20101	11.547	0.90909	0.	-2951.4
20102	11.455	0.81818	0.	-2977.6
20103	11.455	0.90909	5.e-002	-5.1564
20104	11.732	0.90909	0.	-2901.1
20105	11.639	0.81818	0.	-2927.2
20106	11.639	0.90909	5.e-002	-5.1328
20107	11.916	0.90909	0.	-2851.1
20108	11.824	0.81818	0.	-2877.1
20109	11.824	0.90909	5.e-002	-5.1083
20110	12.1	0.90909	0.	-2801.3
20111	12.008	0.81818	0.	-2827.1
20112	12.008	0.90909	5.e-002	-5.0831
20113	12.285	0.90909	0.	-2751.6
20114	12.193	0.81818	0.	-2777.3
20115	12.193	0.90909	5.e-002	-5.0576
20116	12.469	0.90909	0.	-2702.1
20117	12.377	0.81818	0.	-2727.7
20118	12.377	0.90909	5.e-002	-5.0319
20119	12.654	0.90909	0.	-2652.9
20120	12.562	0.81818	0.	-2678.3
20121	12.562	0.90909	5.e-002	-5.0062
20122	12.838	0.90909	0.	-2603.8
20123	12.746	0.81818	0.	-2629.2
20124	12.746	0.90909	5.e-002	-4.9807
20125	13.023	0.90909	0.	-2555.
20126	12.931	0.81818	0.	-2580.2
20127	12.931	0.90909	5.e-002	-4.9553
20128	13.207	0.90909	0.	-2506.3
20129	13.115	0.81818	0.	-2531.4
20130	13.115	0.90909	5.e-002	-4.9302
20131	13.392	0.90909	0.	-2457.9
20132	13.3	0.81818	0.	-2482.8
20133	13.3	0.90909	5.e-002	-4.9054
20134	13.576	0.90909	0.	-2409.6
20135	13.484	0.81818	0.	-2434.5
20136	13.484	0.90909	5.e-002	-4.8809
20137	13.761	0.90909	0.	-2361.6
20138	13.669	0.81818	0.	-2386.3
20139	13.669	0.90909	5.e-002	-4.8566
20140	13.945	0.90909	0.	-2313.8
20141	13.853	0.81818	0.	-2338.3
20142	13.853	0.90909	5.e-002	-4.8328
20143	14.13	0.90909	0.	-2266.1
20144	14.038	0.81818	0.	-2290.6
20145	14.038	0.90909	5.e-002	-4.8092
20146	14.314	0.90909	0.	-2218.7
20147	14.222	0.81818	0.	-2243.1
20148	14.222	0.90909	5.e-002	-4.786
20149	14.499	0.90909	0.	-2171.5
20150	14.407	0.81818	0.	-2195.7
20151	14.407	0.90909	5.e-002	-4.7631
20152	14.683	0.90909	0.	-2124.5
20153	14.591	0.81818	0.	-2148.6
20154	14.591	0.90909	5.e-002	-4.7406
20155	14.868	0.90909	0.	-2077.7
20156	14.776	0.81818	0.	-2101.7
20157	14.776	0.90909	5.e-002	-4.7184
20158	15.052	0.90909	0.	-2031.
20159	14.96	0.81818	0.	-2054.9
20160	14.96	0.90909	5.e-002	-4.6964
20161	15.237	0.90909	0.	-1984.6
20162	15.145	0.81818	0.	-2008.4
20163	15.145	0.90909	5.e-002	-4.6747
20164	15.421	0.90909	0.	-1938.4
20165	15.329	0.81818	0.	-1962.1
20166	15.329	0.90909	5.e-002	-4.6533
20167	15.606	0.90909	0.	-1892.4
20168	15.514	0.81818	0.	-1916.
20169	15.514	0.90909	5.e-002	-4.6322
20170	15.79	0.90909	0.	-1846.6
20171	15.698	0.81818	0.	-1870.1
20172	15.698	0.90909	5.e-002	-4.6113
20173	15.975	0.90909	0.	-1801.
20174	15.883	0.81818	0.	-1824.3
20175	15.883	0.90909	5.e-002	-4.5907
20176	16.159	0.90909	0.	-1755.6
20177	16.067	0.81818	0.	-1778.8
20178	16.067	0.90909	5.e-002	-4.5703
20179	16.344	0.90909	0.	-1710.4
20180	16.251	0.81818	0.	-1733.5
20181	16.251	0.90909	5.e-002	-4.5502
20182	16.528	0.90909	0.	-1665.4
20183	16.436	0.81818	0.	-1688.4
20184	16.436	0.90909	5.e-002	-4.5304
20185	16.713	0.90909	0.	-1620.6
20186	16.62	0.81818	0.	-1643.5
20187	16.62	0.90909	5.e-002	-4.5107
20188	16.897	0.90909	0.	-1576.
20189	16.805	0.81818	0.	-1598.8
20190	16.805	0.90909	5.e-002	-4.4914
20191	17.082	0.90909	0.	-1531.5
20192	16.989	0.81818	0.	-1554.3
20193	16.989	0.90909	5.e-002	-4.4723
20194	17.266	0.90909	0.	-1487.3
20195	17.174	0.81818	0.	-1509.9
20196	17.174	0.90909	5.e-002	-4.4534
20197	17.451	0.90909	0.	-1443.3
20198	17.358	0.81818	0.	-1465.8
20199	17.358	0.90909	5.e-002	-4.4348
20200	17.635	0.90909	0.	-1399.5
20201	17.543	0.81818	0.	-1421.9
20202	17.543	0.90909	5.e-002	-4.4165
20203	17.82	0.90909	0.	-1355.8
20204	17.727	0.81818	0.	-1378.1
20205	17.727	0.90909	5.e-002	-4.3985
20206	18.004	0.90909	0.	-1312.4
20207	17.912	0.81818	0.	-1334.6
20208	17.912	0.90909	5.e-002	-4.3807
20209	18.189	0.90909	0.	-1269.1
20210	18.096	0.81818	0.	-1291.2
20211	18.096	0.90909	5.e-002	-4.3634
20212	18.373	0.90909	0.	-1226.1
20213	18.281	0.81818	0.	-1248.1
20214	18.281	0.90909	5.e-002	-4.3463
20215	18.558	0.90909	0.	-1183.2
20216	18.465	0.81818	0.	-1205.1
20217	18.465	0.90909	5.e-002	-4.3296
20218	18.742	0.90909	0.	-1140.5
20219	18.65	0.81818	0.	-1162.3
20220	18.65	0.90909	5.e-002	-4.3132
20221	18.927	0.90909	0.	-1098.
20222	18.834	0.81818	0.	-1119.7
20223	18.834	0.90909	5.e-002	-4.2973
20224	19.111	0.90909	0.	-1055.7
20225	19.019	0.81818	0.	-1077.3
20226	19.019	0.90909	5.e-002	-4.2818
20227	19.296	0.90909	0.	-1013.6
20228	19.203	0.81818	0.	-1035.
20229	19.203	0.90909	5.e-002	-4.2667
20230	19.48	0.90909	0.	-971.63
20231	19.388	0.81818	0.	-992.97
20232	19.388	0.90909	5.e-002	-4.2521
20233	19.665	0.90909	0.	-929.86
20234	19.572	0.81818	0.	-951.1
20235	19.572	0.90909	5.e-002	-4.238
20236	19.849	0.90909	0.	-888.27
20237	19.757	0.81818	0.	-909.39
20238	19.757	0.90909	5.e-002	-4.2245
20239	20.033	0.90909	0.	-846.86
20240	19.941	0.81818	0.	-867.87
20241	19.941	0.90909	5.e-002	-4.2115
20242	20.218	0.90909	0.	-805.61
20243	20.126	0.81818	0.	-826.51
20244	20.126	0.90909	5.e-002	-4.1992
20245	20.402	0.90909	0.	-764.54
20246	20.31	0.81818	0.	-785.32
20247	20.31	0.90909	5.e-002	-4.1877
20248	20.587	0.90909	0.	-723.64
20249	20.495	0.81818	0.	-744.3
20250	20.495	0.90909	5.e-002	-4.1768
20251	20.771	0.90909	0.	-682.91
20252	20.679	0.81818	0.	-703.45
20253	20.679	0.90909	5.e-002	-4.1668
20254	20.956	0.90909	0.	-642.35
20255	20.864	0.81818	0.	-662.75
20256	20.864	0.90909	5.e-002	-4.1576
20257	21.14	0.90909	0.	-601.95
20258	21.048	0.81818	0.	-622.22
20259	21.048	0.90909	5.e-002	-4.1494
20260	21.325	0.90909	0.	-561.71
20261	21.233	0.81818	0.	-581.85
20262	21.233	0.90909	5.e-002	-4.1422
20263	21.509	0.90909	0.	-521.65
20264	21.417	0.81818	0.	-541.65
20265	21.417	0.90909	5.e-002	-4.1363
20266	21.694	0.90909	0.	-481.76
20267	21.602	0.81818	0.	-501.6
20268	21.602	0.90909	5.e-002	-4.1316
20269	21.878	0.90909	0.	-442.04
20270	21.786	0.81818	0.	-461.73
20271	21.786	0.90909	5.e-002	-4.1284
20272	22.063	0.90909	0.	-402.52
20273	21.971	0.81818	0.	-422.03
20274	21.971	0.90909	5.e-002	-4.127
20275	22.247	0.90909	0.	-363.19
20276	22.155	0.81818	0.	-382.51
20277	22.155	0.90909	5.e-002	-4.1276
20278	22.432	0.90909	0.	-324.07
20279	22.34	0.81818	0.	-343.2
20280	22.34	0.90909	5.e-002	-4.1308
20281	22.616	0.90909	0.	-285.2
20282	22.524	0.81818	0.	-304.11
20283	22.524	0.90909	5.e-002	-4.1374
20284	22.801	0.90909	0.	-246.6
20285	22.709	0.81818	0.	-265.27
20286	22.709	0.90909	5.e-002	-4.1482
20287	22.985	0.90909	0.	-208.3
20288	22.893	0.81818	0.	-226.73
20289	22.893	0.90909	5.e-002	-4.1652
20290	23.17	0.90909	0.	-170.32
20291	23.078	0.81818	0.	-188.52
20292	23.078	0.90909	5.e-002	-4.1909
20293	23.354	0.90909	0.	-132.68
20294	23.262	0.81818	0.	-150.7
20295	23.262	0.90909	5.e-002	-4.2292
20296	23.539	0.90909	0.	-95.311
20297	23.447	0.81818	0.	-113.29
20298	23.447	0.90909	5.e-002	-4.2855
20299	23.723	0.90909	0.	-58.197
20300	23.631	0.81818	0.	-76.231
20301	23.631	0.90909	5.e-002	-4.3719
20302	23.816	0.81818	0.	-39.616
20303	23.816	0.90909	5.e-002	-4.588
20304	23.908	0.90909	0.	-22.488
20305	5.6434	0.72727	0.	-2009.9
20306	5.5512	0.63636	0.	-1734.9
20307	5.5512	0.72727	5.e-002	-74.402
20308	5.4589	0.72727	0.	-1580.4
20309	5.8279	0.72727	0.	-2260.
20310	5.7356	0.63636	0.	-1944.1
20311	5.7356	0.72727	5.e-002	-55.964
20312	6.0124	0.72727	0.	-2572.9
20313	5.9201	0.63636	0.	-2276.1
20314	5.9201	0.72727	5.e-002	-49.198
20315	6.1969	0.72727	0.	-2869.5
20316	6.1046	0.63636	0.	-2609.5
20317	6.1046	0.72727	5.e-002	-41.531
20318	6.3814	0.72727	0.	-3125.6
20319	6.2891	0.63636	0.	-2907.5
20320	6.2891	0.72727	5.e-002	-33.977
20321	6.5658	0.72727	0.	-3334.1
20322	6.4736	0.63636	0.	-3156.7
20323	6.4736	0.72727	5.e-002	-27.145
20324	6.7503	0.72727	0.	-3496.6
20325	6.6581	0.63636	0.	-3356.
20326	6.6581	0.72727	5.e-002	-21.28
20327	6.9348	0.72727	0.	-3618.4
20328	6.8426	0.63636	0.	-3509.6
20329	6.8426	0.72727	5.e-002	-16.396
20330	7.1193	0.72727	0.	-3705.5
20331	7.0271	0.63636	0.	-3623.5
20332	7.0271	0.72727	5.e-002	-12.412
20333	7.3038	0.72727	0.	-3763.9
20334	7.2116	0.63636	0.	-3704.1
20335	7.2116	0.72727	5.e-002	-9.2231
20336	7.4883	0.72727	0.	-3798.9
20337	7.396	0.63636	0.	-3757.2
20338	7.396	0.72727	5.e-002	-6.7387
20339	7.6728	0.72727	0.	-3815.
20340	7.5805	0.63636	0.	-3788.
20341	7.5805	0.72727	5.e-002	-4.9048
20342	7.8573	0.72727	0.	-3816.
20343	7.765	0.63636	0.	-3800.8
20344	7.765	0.72727	5.e-002	-3.7131
20345	8.0417	0.72727	0.	-3805.
20346	7.9495	0.63636	0.	-3799.3
20347	7.9495	0.72727	5.e-002	-3.1601
20348	8.2262	0.72727	0.	-3784.7
20349	8.134	0.63636	0.	-3786.4
20350	8.134	0.72727	5.e-002	-3.1244
20351	8.4107	0.72727	0.	-3756.9
20352	8.3185	0.63636	0.	-3764.5
20353	8.3185	0.72727	5.e-002	-3.3686
20354	8.5952	0.72727	0.	-3723.3
20355	8.503	0.63636	0.	-3735.6
20356	8.503	0.72727	5.e-002	-3.7009
20357	8.7797	0.72727	0.	-3685.3
20358	8.6875	0.63636	0.	-3701.2
20359	8.6875	0.72727	5.e-002	-4.0266
20360	8.9642	0.72727	0.	-3643.9
20361	8.8719	0.63636	0.	-3662.6
20362	8.8719	0.72727	5.e-002	-4.3109
20363	9.1487	0.72727	0.	-3599.8
20364	9.0564	0.63636	0.	-3620.7
20365	9.0564	0.72727	5.e-002	-4.5451
20366	9.3332	0.72727	0.	-3553.8
20367	9.2409	0.63636	0.	-3576.2
20368	9.2409	0.72727	5.e-002	-4.7315
20369	9.5177	0.72727	0.	-3506.2
20370	9.4254	0.63636	0.	-3529.9
20371	9.4254	0.72727	5.e-002	-4.8758
20372	9.7021	0.72727	0.	-3457.6
20373	9.6099	0.63636	0.	-3482.2
20374	9.6099	0.72727	5.e-002	-4.9844
20375	9.8866	0.72727	0.	-3408.2
20376	9.7944	0.63636	0.	-3433.5
20377	9.7944	0.72727	5.e-002	-5.0638
20378	10.071	0.72727	0.	-3358.2
20379	9.9789	0.63636	0.	-3384.
20380	9.9789	0.72727	5.e-002	-5.1196
20381	10.256	0.72727	0.	-3307.8
20382	10.163	0.63636	0.	-3333.9
20383	10.163	0.72727	5.e-002	-5.1565
20384	10.44	0.72727	0.	-3257.3
20385	10.348	0.63636	0.	-3283.6
20386	10.348	0.72727	5.e-002	-5.1784
20387	10.625	0.72727	0.	-3206.5
20388	10.532	0.63636	0.	-3233.
20389	10.532	0.72727	5.e-002	-5.1885
20390	10.809	0.72727	0.	-3155.8
20391	10.717	0.63636	0.	-3182.3
20392	10.717	0.72727	5.e-002	-5.1895
20393	10.994	0.72727	0.	-3105.1
20394	10.901	0.63636	0.	-3131.5
20395	10.901	0.72727	5.e-002	-5.1835
20396	11.178	0.72727	0.	-3054.4
20397	11.086	0.63636	0.	-3080.9
20398	11.086	0.72727	5.e-002	-5.1721
20399	11.363	0.72727	0.	-3003.9
20400	11.27	0.63636	0.	-3030.2
20401	11.27	0.72727	5.e-002	-5.1567
20402	11.547	0.72727	0.	-2953.5
20403	11.455	0.63636	0.	-2979.7
20404	11.455	0.72727	5.e-002	-5.1383
20405	11.732	0.72727	0.	-2903.2
20406	11.639	0.63636	0.	-2929.4
20407	11.639	0.72727	5.e-002	-5.1175
20408	11.916	0.72727	0.	-2853.1
20409	11.824	0.63636	0.	-2879.2
20410	11.824	0.72727	5.e-002	-5.0952
20411	12.1	0.72727	0.	-2803.2
20412	12.008	0.63636	0.	-2829.1
20413	12.008	0.72727	5.e-002	-5.0719
20414	12.285	0.72727	0.	-2753.5
20415	12.193	0.63636	0.	-2779.3
20416	12.193	0.72727	5.e-002	-5.0477
20417	12.469	0.72727	0.	-2704.
20418	12.377	0.63636	0.	-2729.7
20419	12.377	0.72727	5.e-002	-5.0232
20420	12.654	0.72727	0.	-2654.7
20421	12.562	0.63636	0.	-2680.2
20422	12.562	0.72727	5.e-002	-4.9985
20423	12.838	0.72727	0.	-2605.5
20424	12.746	0.63636	0.	-2631.
20425	12.746	0.72727	5.e-002	-4.9737
20426	13.023	0.72727	0.	-2556.6
20427	12.931	0.63636	0.	-2581.9
20428	12.931	0.72727	5.e-002	-4.949
20429	13.207	0.72727	0.	-2507.9
20430	13.115	0.63636	0.	-2533.1
20431	13.115	0.72727	5.e-002	-4.9244
20432	13.392	0.72727	0.	-2459.4
20433	13.3	0.63636	0.	-2484.5
20434	13.3	0.72727	5.e-002	-4.9001
20435	13.576	0.72727	0.	-2411.2
20436	13.484	0.63636	0.	-2436.1
20437	13.484	0.72727	5.e-002	-4.876
20438	13.761	0.72727	0.	-2363.1
20439	13.669	0.63636	0.	-2387.9
20440	13.669	0.72727	5.e-002	-4.8521
20441	13.945	0.72727	0.	-2315.2
20442	13.853	0.63636	0.	-2339.9
20443	13.853	0.72727	5.e-002	-4.8285
20444	14.13	0.72727	0.	-2267.6
20445	14.038	0.63636	0.	-2292.1
20446	14.038	0.72727	5.e-002	-4.8052
20447	14.314	0.72727	0.	-2220.1
20448	14.222	0.63636	0.	-2244.5
20449	14.222	0.72727	5.e-002	-4.7822
20450	14.499	0.72727	0.	-2172.8
20451	14.407	0.63636	0.	-2197.2
20452	14.407	0.72727	5.e-002	-4.7595
20453	14.683	0.72727	0.	-2125.8
20454	14.591	0.63636	0.	-2150.
20455	14.591	0.72727	5.e-002	-4.7371
20456	14.868	0.72727	0.	-2079.
20457	14.776	0.63636	0.	-2103.
20458	14.776	0.72727	5.e-002	-4.7151
20459	15.052	0.72727	0.	-2032.3
20460	14.96	0.63636	0.	-2056.3
20461	14.96	0.72727	5.e-002	-4.6932
20462	15.237	0.72727	0.	-1985.9
20463	15.145	0.63636	0.	-2009.8
20464	15.145	0.72727	5.e-002	-4.6716
20465	15.421	0.72727	0.	-1939.7
20466	15.329	0.63636	0.	-1963.4
20467	15.329	0.72727	5.e-002	-4.6503
20468	15.606	0.72727	0.	-1893.7
20469	15.514	0.63636	0.	-1917.3
20470	15.514	0.72727	5.e-002	-4.6293
20471	15.79	0.72727	0.	-1847.8
20472	15.698	0.63636	0.	-1871.4
20473	15.698	0.72727	5.e-002	-4.6085
20474	15.975	0.72727	0.	-1802.2
20475	15.883	0.63636	0.	-1825.6
20476	15.883	0.72727	5.e-002	-4.5879
20477	16.159	0.72727	0.	-1756.8
20478	16.067	0.63636	0.	-1780.1
20479	16.067	0.72727	5.e-002	-4.5676
20480	16.344	0.72727	0.	-1711.6
20481	16.251	0.63636	0.	-1734.8
20482	16.251	0.72727	5.e-002	-4.5475
20483	16.528	0.72727	0.	-1666.6
20484	16.436	0.63636	0.	-1689.6
20485	16.436	0.72727	5.e-002	-4.5277
20486	16.713	0.72727	0.	-1621.7
20487	16.62	0.63636	0.	-1644.7
20488	16.62	0.72727	5.e-002	-4.5081
20489	16.897	0.72727	0.	-1577.1
20490	16.805	0.63636	0.	-1600.
20491	16.805	0.72727	5.e-002	-4.4888
20492	17.082	0.72727	0.	-1532.7
20493	16.989	0.63636	0.	-1555.5
20494	16.989	0.72727	5.e-002	-4.4697
20495	17.266	0.72727	0.	-1488.4
20496	17.174	0.63636	0.	-1511.1
20497	17.174	0.72727	5.e-002	-4.4508
20498	17.451	0.72727	0.	-1444.4
20499	17.358	0.63636	0.	-1467.
20500	17.358	0.72727	5.e-002	-4.4322
20501	17.635	0.72727	0.	-1400.6
20502	17.543	0.63636	0.	-1423.
20503	17.543	0.72727	5.e-002	-4.4139
20504	17.82	0.72727	0.	-1356.9
20505	17.727	0.63636	0.	-1379.3
20506	17.727	0.72727	5.e-002	-4.3958
20507	18.004	0.72727	0.	-1313.5
20508	17.912	0.63636	0.	-1335.7
20509	17.912	0.72727	5.e-002	-4.3781
20510	18.189	0.72727	0.	-1270.2
20511	18.096	0.63636	0.	-1292.4
20512	18.096	0.72727	5.e-002	-4.3607
20513	18.373	0.72727	0.	-1227.1
20514	18.281	0.63636	0.	-1249.2
20515	18.281	0.72727	5.e-002	-4.3435
20516	18.558	0.72727	0.	-1184.2
20517	18.465	0.63636	0.	-1206.2
20518	18.465	0.72727	5.e-002	-4.3267
20519	18.742	0.72727	0.	-1141.5
20520	18.65	0.63636	0.	-1163.4
20521	18.65	0.72727	5.e-002	-4.3103
20522	18.927	0.72727	0.	-1099.
20523	18.834	0.63636	0.	-1120.7
20524	18.834	0.72727	5.e-002	-4.2943
20525	19.111	0.72727	0.	-1056.6
20526	19.019	0.63636	0.	-1078.3
20527	19.019	0.72727	5.e-002	-4.2786
20528	19.296	0.72727	0.	-1014.5
20529	19.203	0.63636	0.	-1036.
20530	19.203	0.72727	5.e-002	-4.2634
20531	19.48	0.72727	0.	-972.49
20532	19.388	0.63636	0.	-993.94
20533	19.388	0.72727	5.e-002	-4.2486
20534	19.665	0.72727	0.	-930.68
20535	19.572	0.63636	0.	-952.03
20536	19.572	0.72727	5.e-002	-4.2344
20537	19.849	0.72727	0.	-889.04
20538	19.757	0.63636	0.	-910.29
20539	19.757	0.72727	5.e-002	-4.2207
20540	20.033	0.72727	0.	-847.57
20541	19.941	0.63636	0.	-868.71
20542	19.941	0.72727	5.e-002	-4.2075
20543	20.218	0.72727	0.	-806.27
20544	20.126	0.63636	0.	-827.3
20545	20.126	0.72727	5.e-002	-4.195
20546	20.402	0.72727	0.	-765.13
20547	20.31	0.63636	0.	-786.06
20548	20.31	0.72727	5.e-002	-4.1831
20549	20.587	0.72727	0.	-724.16
20550	20.495	0.63636	0.	-744.97
20551	20.495	0.72727	5.e-002	-4.1718
20552	20.771	0.72727	0.	-683.35
20553	20.679	0.63636	0.	-704.05
20554	20.679	0.72727	5.e-002	-4.1614
20555	20.956	0.72727	0.	-642.69
20556	20.864	0.63636	0.	-663.27
20557	20.864	0.72727	5.e-002	-4.1517
20558	21.14	0.72727	0.	-602.19
20559	21.048	0.63636	0.	-622.66
20560	21.048	0.72727	5.e-002	-4.1429
20561	21.325	0.72727	0.	-561.85
20562	21.233	0.63636	0.	-582.19
20563	21.233	0.72727	5.e-002	-4.135
20564	21.509	0.72727	0.	-521.67
20565	21.417	0.63636	0.	-541.87
20566	21.417	0.72727	5.e-002	-4.1282
20567	21.694	0.72727	0.	-481.65
20568	21.602	0.63636	0.	-501.71
20569	21.602	0.72727	5.e-002	-4.1225
20570	21.878	0.72727	0.	-441.79
20571	21.786	0.63636	0.	-461.7
20572	21.786	0.72727	5.e-002	-4.118
20573	22.063	0.72727	0.	-402.11
20574	21.971	0.63636	0.	-421.85
20575	21.971	0.72727	5.e-002	-4.115
20576	22.247	0.72727	0.	-362.61
20577	22.155	0.63636	0.	-382.18
20578	22.155	0.72727	5.e-002	-4.1138
20579	22.432	0.72727	0.	-323.32
20580	22.34	0.63636	0.	-342.69
20581	22.34	0.72727	5.e-002	-4.1146
20582	22.616	0.72727	0.	-284.27
20583	22.524	0.63636	0.	-303.4
20584	22.524	0.72727	5.e-002	-4.1181
20585	22.801	0.72727	0.	-245.49
20586	22.709	0.63636	0.	-264.36
20587	22.709	0.72727	5.e-002	-4.1253
20588	22.985	0.72727	0.	-207.04
20589	22.893	0.63636	0.	-225.61
20590	22.893	0.72727	5.e-002	-4.1379
20591	23.17	0.72727	0.	-168.98
20592	23.078	0.63636	0.	-187.22
20593	23.078	0.72727	5.e-002	-4.1585
20594	23.354	0.72727	0.	-131.38
20595	23.262	0.63636	0.	-149.27
20596	23.262	0.72727	5.e-002	-4.192
20597	23.539	0.72727	0.	-94.248
20598	23.447	0.63636	0.	-111.9
20599	23.447	0.72727	5.e-002	-4.2465
20600	23.723	0.72727	0.	-57.623
20601	23.631	0.63636	0.	-75.149
20602	23.631	0.72727	5.e-002	-4.3405
20603	23.816	0.63636	0.	-39.213
20604	23.816	0.72727	5.e-002	-4.592
20605	23.908	0.72727	0.	-22.347
20606	5.6434	0.54545	0.	-1627.1
20607	5.5512	0.45455	0.	-1340.8
20608	5.5512	0.54545	5.e-002	-66.074
20609	5.4589	0.54545	0.	-1239.7
20610	5.8279	0.54545	0.	-1935.
20611	5.7356	0.45455	0.	-1623.2
20612	5.7356	0.54545	5.e-002	-52.893
20613	6.0124	0.54545	0.	-2298.9
20614	5.9201	0.45455	0.	-2013.2
20615	5.9201	0.54545	5.e-002	-47.57
20616	6.1969	0.54545	0.	-2639.8
20617	6.1046	0.45455	0.	-2391.5
20618	6.1046	0.54545	5.e-002	-41.079
20619	6.3814	0.54545	0.	-2934.2
20620	6.2891	0.45455	0.	-2725.5
20621	6.2891	0.54545	5.e-002	-34.317
20622	6.5658	0.54545	0.	-3176.
20623	6.4736	0.45455	0.	-3005.1
20624	6.4736	0.54545	5.e-002	-27.883
20625	6.7503	0.54545	0.	-3367.4
20626	6.6581	0.45455	0.	-3230.7
20627	6.6581	0.54545	5.e-002	-22.112
20628	6.9348	0.54545	0.	-3513.7
20629	6.8426	0.45455	0.	-3407.
20630	6.8426	0.54545	5.e-002	-17.127
20631	7.1193	0.54545	0.	-3621.5
20632	7.0271	0.45455	0.	-3540.4
20633	7.0271	0.54545	5.e-002	-12.931
20634	7.3038	0.54545	0.	-3697.
20635	7.2116	0.45455	0.	-3637.4
20636	7.2116	0.54545	5.e-002	-9.469
20637	7.4883	0.54545	0.	-3746.2
20638	7.396	0.45455	0.	-3704.2
20639	7.396	0.54545	5.e-002	-6.6703
20640	7.6728	0.54545	0.	-3773.8
20641	7.5805	0.45455	0.	-3746.3
20642	7.5805	0.54545	5.e-002	-4.4771
20643	7.8573	0.54545	0.	-3784.1
20644	7.765	0.45455	0.	-3768.4
20645	7.765	0.54545	5.e-002	-2.8912
20646	8.0417	0.54545	0.	-3780.7
20647	7.9495	0.45455	0.	-3774.4
20648	7.9495	0.54545	5.e-002	-2.0479
20649	8.2262	0.54545	0.	-3766.3
20650	8.134	0.45455	0.	-3767.5
20651	8.134	0.54545	5.e-002	-2.0509
20652	8.4107	0.54545	0.	-3743.3
20653	8.3185	0.45455	0.	-3750.5
20654	8.3185	0.54545	5.e-002	-2.5156
20655	8.5952	0.54545	0.	-3713.5
20656	8.503	0.45455	0.	-3725.4
20657	8.503	0.54545	5.e-002	-3.0541
20658	8.7797	0.54545	0.	-3678.5
20659	8.6875	0.45455	0.	-3694.
20660	8.6875	0.54545	5.e-002	-3.536
20661	8.9642	0.54545	0.	-3639.4
20662	8.8719	0.45455	0.	-3657.8
20663	8.8719	0.54545	5.e-002	-3.9349
20664	9.1487	0.54545	0.	-3597.1
20665	9.0564	0.45455	0.	-3617.7
20666	9.0564	0.54545	5.e-002	-4.2538
20667	9.3332	0.54545	0.	-3552.4
20668	9.2409	0.45455	0.	-3574.7
20669	9.2409	0.54545	5.e-002	-4.5034
20670	9.5177	0.54545	0.	-3505.9
20671	9.4254	0.45455	0.	-3529.5
20672	9.4254	0.54545	5.e-002	-4.6952
20673	9.7021	0.54545	0.	-3458.1
20674	9.6099	0.45455	0.	-3482.7
20675	9.6099	0.54545	5.e-002	-4.84
20676	9.8866	0.54545	0.	-3409.3
20677	9.7944	0.45455	0.	-3434.5
20678	9.7944	0.54545	5.e-002	-4.9471
20679	10.071	0.54545	0.	-3359.7
20680	9.9789	0.45455	0.	-3385.5
20681	9.9789	0.54545	5.e-002	-5.0241
20682	10.256	0.54545	0.	-3309.7
20683	10.163	0.45455	0.	-3335.8
20684	10.163	0.54545	5.e-002	-5.0773
20685	10.44	0.54545	0.	-3259.3
20686	10.348	0.45455	0.	-3285.6
20687	10.348	0.54545	5.e-002	-5.1117
20688	10.625	0.54545	0.	-3208.7
20689	10.532	0.45455	0.	-3235.2
20690	10.532	0.54545	5.e-002	-5.1316
20691	10.809	0.54545	0.	-3158.
20692	10.717	0.45455	0.	-3184.6
20693	10.717	0.54545	5.e-002	-5.1402
20694	10.994	0.54545	0.	-3107.3
20695	10.901	0.45455	0.	-3133.9
20696	10.901	0.54545	5.e-002	-5.14
20697	11.178	0.54545	0.	-3056.7
20698	11.086	0.45455	0.	-3083.2
20699	11.086	0.54545	5.e-002	-5.1332
20700	11.363	0.54545	0.	-3006.1
20701	11.27	0.45455	0.	-3032.6
20702	11.27	0.54545	5.e-002	-5.1212
20703	11.547	0.54545	0.	-2955.7
20704	11.455	0.45455	0.	-2982.1
20705	11.455	0.54545	5.e-002	-5.1057
20706	11.732	0.54545	0.	-2905.4
20707	11.639	0.45455	0.	-2931.7
20708	11.639	0.54545	5.e-002	-5.0871
20709	11.916	0.54545	0.	-2855.2
20710	11.824	0.45455	0.	-2881.4
20711	11.824	0.54545	5.e-002	-5.0666
20712	12.1	0.54545	0.	-2805.3
20713	12.008	0.45455	0.	-2831.3
20714	12.008	0.54545	5.e-002	-5.0446
20715	12.285	0.54545	0.	-2755.5
20716	12.193	0.45455	0.	-2781.4
20717	12.193	0.54545	5.e-002	-5.0215
20718	12.469	0.54545	0.	-2705.9
20719	12.377	0.45455	0.	-2731.7
20720	12.377	0.54545	5.e-002	-4.9979
20721	12.654	0.54545	0.	-2656.5
20722	12.562	0.45455	0.	-2682.2
20723	12.562	0.54545	5.e-002	-4.9739
20724	12.838	0.54545	0.	-2607.4
20725	12.746	0.45455	0.	-2632.9
20726	12.746	0.54545	5.e-002	-4.9497
20727	13.023	0.54545	0.	-2558.4
20728	12.931	0.45455	0.	-2583.8
20729	12.931	0.54545	5.e-002	-4.9255
20730	13.207	0.54545	0.	-2509.7
20731	13.115	0.45455	0.	-2534.9
20732	13.115	0.54545	5.e-002	-4.9014
20733	13.392	0.54545	0.	-2461.1
20734	13.3	0.45455	0.	-2486.3
20735	13.3	0.54545	5.e-002	-4.8774
20736	13.576	0.54545	0.	-2412.8
20737	13.484	0.45455	0.	-2437.8
20738	13.484	0.54545	5.e-002	-4.8536
20739	13.761	0.54545	0.	-2364.7
20740	13.669	0.45455	0.	-2389.6
20741	13.669	0.54545	5.e-002	-4.83
20742	13.945	0.54545	0.	-2316.8
20743	13.853	0.45455	0.	-2341.6
20744	13.853	0.54545	5.e-002	-4.8066
20745	14.13	0.54545	0.	-2269.1
20746	14.038	0.45455	0.	-2293.7
20747	14.038	0.54545	5.e-002	-4.7835
20748	14.314	0.54545	0.	-2221.6
20749	14.222	0.45455	0.	-2246.1
20750	14.222	0.54545	5.e-002	-4.7608
20751	14.499	0.54545	0.	-2174.3
20752	14.407	0.45455	0.	-2198.7
20753	14.407	0.54545	5.e-002	-4.7383
20754	14.683	0.54545	0.	-2127.3
20755	14.591	0.45455	0.	-2151.6
20756	14.591	0.54545	5.e-002	-4.7161
20757	14.868	0.54545	0.	-2080.4
20758	14.776	0.45455	0.	-2104.6
20759	14.776	0.54545	5.e-002	-4.6942
20760	15.052	0.54545	0.	-2033.7
20761	14.96	0.45455	0.	-2057.8
20762	14.96	0.54545	5.e-002	-4.6725
20763	15.237	0.54545	0.	-1987.3
20764	15.145	0.45455	0.	-2011.3
20765	15.145	0.54545	5.e-002	-4.6511
20766	15.421	0.54545	0.	-1941.
20767	15.329	0.45455	0.	-1964.9
20768	15.329	0.54545	5.e-002	-4.6299
20769	15.606	0.54545	0.	-1895.
20770	15.514	0.45455	0.	-1918.8
20771	15.514	0.54545	5.e-002	-4.609
20772	15.79	0.54545	0.	-1849.2
20773	15.698	0.45455	0.	-1872.8
20774	15.698	0.54545	5.e-002	-4.5883
20775	15.975	0.54545	0.	-1803.5
20776	15.883	0.45455	0.	-1827.1
20777	15.883	0.54545	5.e-002	-4.5679
20778	16.159	0.54545	0.	-1758.1
20779	16.067	0.45455	0.	-1781.5
20780	16.067	0.54545	5.e-002	-4.5477
20781	16.344	0.54545	0.	-1712.9
20782	16.251	0.45455	0.	-1736.2
20783	16.251	0.54545	5.e-002	-4.5277
20784	16.528	0.54545	0.	-1667.8
20785	16.436	0.45455	0.	-1691.1
20786	16.436	0.54545	5.e-002	-4.508
20787	16.713	0.54545	0.	-1623.
20788	16.62	0.45455	0.	-1646.1
20789	16.62	0.54545	5.e-002	-4.4886
20790	16.897	0.54545	0.	-1578.4
20791	16.805	0.45455	0.	-1601.4
20792	16.805	0.54545	5.e-002	-4.4693
20793	17.082	0.54545	0.	-1533.9
20794	16.989	0.45455	0.	-1556.9
20795	16.989	0.54545	5.e-002	-4.4503
20796	17.266	0.54545	0.	-1489.7
20797	17.174	0.45455	0.	-1512.5
20798	17.174	0.54545	5.e-002	-4.4316
20799	17.451	0.54545	0.	-1445.7
20800	17.358	0.45455	0.	-1468.4
20801	17.358	0.54545	5.e-002	-4.4131
20802	17.635	0.54545	0.	-1401.8
20803	17.543	0.45455	0.	-1424.4
20804	17.543	0.54545	5.e-002	-4.3948
20805	17.82	0.54545	0.	-1358.1
20806	17.727	0.45455	0.	-1380.7
20807	17.727	0.54545	5.e-002	-4.3768
20808	18.004	0.54545	0.	-1314.7
20809	17.912	0.45455	0.	-1337.1
20810	17.912	0.54545	5.e-002	-4.3592
20811	18.189	0.54545	0.	-1271.4
20812	18.096	0.45455	0.	-1293.7
20813	18.096	0.54545	5.e-002	-4.3418
20814	18.373	0.54545	0.	-1228.3
20815	18.281	0.45455	0.	-1250.5
20816	18.281	0.54545	5.e-002	-4.3248
20817	18.558	0.54545	0.	-1185.4
20818	18.465	0.45455	0.	-1207.5
20819	18.465	0.54545	5.e-002	-4.3081
20820	18.742	0.54545	0.	-1142.7
20821	18.65	0.45455	0.	-1164.7
20822	18.65	0.54545	5.e-002	-4.2917
20823	18.927	0.54545	0.	-1100.1
20824	18.834	0.45455	0.	-1122.
20825	18.834	0.54545	5.e-002	-4.2757
20826	19.111	0.54545	0.	-1057.7
20827	19.019	0.45455	0.	-1079.6
20828	19.019	0.54545	5.e-002	-4.2601
20829	19.296	0.54545	0.	-1015.6
20830	19.203	0.45455	0.	-1037.3
20831	19.203	0.54545	5.e-002	-4.2449
20832	19.48	0.54545	0.	-973.53
20833	19.388	0.45455	0.	-995.18
20834	19.388	0.54545	5.e-002	-4.2302
20835	19.665	0.54545	0.	-931.69
20836	19.572	0.45455	0.	-953.24
20837	19.572	0.54545	5.e-002	-4.216
20838	19.849	0.54545	0.	-890.01
20839	19.757	0.45455	0.	-911.46
20840	19.757	0.54545	5.e-002	-4.2023
20841	20.033	0.54545	0.	-848.5
20842	19.941	0.45455	0.	-869.85
20843	19.941	0.54545	5.e-002	-4.1891
20844	20.218	0.54545	0.	-807.15
20845	20.126	0.45455	0.	-828.4
20846	20.126	0.54545	5.e-002	-4.1765
20847	20.402	0.54545	0.	-765.95
20848	20.31	0.45455	0.	-787.11
20849	20.31	0.54545	5.e-002	-4.1646
20850	20.587	0.54545	0.	-724.92
20851	20.495	0.45455	0.	-745.98
20852	20.495	0.54545	5.e-002	-4.1533
20853	20.771	0.54545	0.	-684.04
20854	20.679	0.45455	0.	-704.99
20855	20.679	0.54545	5.e-002	-4.1427
20856	20.956	0.54545	0.	-643.3
20857	20.864	0.45455	0.	-664.16
20858	20.864	0.54545	5.e-002	-4.1328
20859	21.14	0.54545	0.	-602.72
20860	21.048	0.45455	0.	-623.47
20861	21.048	0.54545	5.e-002	-4.1237
20862	21.325	0.54545	0.	-562.28
20863	21.233	0.45455	0.	-582.92
20864	21.233	0.54545	5.e-002	-4.1155
20865	21.509	0.54545	0.	-521.99
20866	21.417	0.45455	0.	-542.51
20867	21.417	0.54545	5.e-002	-4.1082
20868	21.694	0.54545	0.	-481.85
20869	21.602	0.45455	0.	-502.24
20870	21.602	0.54545	5.e-002	-4.1019
20871	21.878	0.54545	0.	-441.85
20872	21.786	0.45455	0.	-462.12
20873	21.786	0.54545	5.e-002	-4.0966
20874	22.063	0.54545	0.	-402.02
20875	21.971	0.45455	0.	-422.14
20876	21.971	0.54545	5.e-002	-4.0926
20877	22.247	0.54545	0.	-362.35
20878	22.155	0.45455	0.	-382.31
20879	22.155	0.54545	5.e-002	-4.0899
20880	22.432	0.54545	0.	-322.87
20881	22.34	0.45455	0.	-342.65
20882	22.34	0.54545	5.e-002	-4.0888
20883	22.616	0.54545	0.	-283.61
20884	22.524	0.45455	0.	-303.17
20885	22.524	0.54545	5.e-002	-4.0898
20886	22.801	0.54545	0.	-244.6
20887	22.709	0.45455	0.	-263.9
20888	22.709	0.54545	5.e-002	-4.0935
20889	22.985	0.54545	0.	-205.91
20890	22.893	0.45455	0.	-224.89
20891	22.893	0.54545	5.e-002	-4.1014
20892	23.17	0.54545	0.	-167.63
20893	23.078	0.45455	0.	-186.21
20894	23.078	0.54545	5.e-002	-4.1158
20895	23.354	0.54545	0.	-129.9
20896	23.262	0.45455	0.	-147.98
20897	23.262	0.54545	5.e-002	-4.1419
20898	23.539	0.54545	0.	-92.872
20899	23.447	0.45455	0.	-110.38
20900	23.447	0.54545	5.e-002	-4.1904
20901	23.723	0.54545	0.	-56.742
20902	23.631	0.45455	0.	-73.699
20903	23.631	0.54545	5.e-002	-4.2881
20904	23.816	0.45455	0.	-38.497
20905	23.816	0.54545	5.e-002	-4.588
20906	23.908	0.54545	0.	-22.05
20907	5.6434	0.36364	0.	-1296.3
20908	5.5512	0.27273	0.	-988.98
20909	5.5512	0.36364	5.e-002	-61.865
20910	5.4589	0.36364	0.	-913.88
20911	5.8279	0.36364	0.	-1684.4
20912	5.7356	0.27273	0.	-1388.
20913	5.7356	0.36364	5.e-002	-52.319
20914	6.0124	0.36364	0.	-2098.2
20915	5.9201	0.27273	0.	-1836.
20916	5.9201	0.36364	5.e-002	-47.426
20917	6.1969	0.36364	0.	-2473.1
20918	6.1046	0.27273	0.	-2246.3
20919	6.1046	0.36364	5.e-002	-41.388
20920	6.3814	0.36364	0.	-2793.8
20921	6.2891	0.27273	0.	-2602.2
20922	6.2891	0.36364	5.e-002	-35.056
20923	6.5658	0.36364	0.	-3058.2
20924	6.4736	0.27273	0.	-2899.9
20925	6.4736	0.36364	5.e-002	-28.897
20926	6.7503	0.36364	0.	-3269.3
20927	6.6581	0.27273	0.	-3141.7
20928	6.6581	0.36364	5.e-002	-23.224
20929	6.9348	0.36364	0.	-3433.1
20930	6.8426	0.27273	0.	-3332.7
20931	6.8426	0.36364	5.e-002	-18.199
20932	7.1193	0.36364	0.	-3555.9
20933	7.0271	0.27273	0.	-3479.2
20934	7.0271	0.36364	5.e-002	-13.872
20935	7.3038	0.36364	0.	-3644.4
20936	7.2116	0.27273	0.	-3587.6
20937	7.2116	0.36364	5.e-002	-10.225
20938	7.4883	0.36364	0.	-3704.3
20939	7.396	0.27273	0.	-3664.3
20940	7.396	0.36364	5.e-002	-7.2028
20941	7.6728	0.36364	0.	-3740.9
20942	7.5805	0.27273	0.	-3714.7
20943	7.5805	0.36364	5.e-002	-4.7365
20944	7.8573	0.36364	0.	-3758.6
20945	7.765	0.27273	0.	-3743.8
20946	7.765	0.36364	5.e-002	-2.7677
20947	8.0417	0.36364	0.	-3761.2
20948	7.9495	0.27273	0.	-3755.5
20949	7.9495	0.36364	5.e-002	-1.3172
20950	8.2262	0.36364	0.	-3751.7
20951	8.134	0.27273	0.	-3753.3
20952	8.134	0.36364	5.e-002	-0.92222
20953	8.4107	0.36364	0.	-3732.6
20954	8.3185	0.27273	0.	-3740.
20955	8.3185	0.36364	5.e-002	-1.6135
20956	8.5952	0.36364	0.	-3705.9
20957	8.503	0.27273	0.	-3718.
20958	8.503	0.36364	5.e-002	-2.3525
20959	8.7797	0.36364	0.	-3673.3
20960	8.6875	0.27273	0.	-3689.1
20961	8.6875	0.36364	5.e-002	-2.9657
20962	8.9642	0.36364	0.	-3636.1
20963	8.8719	0.27273	0.	-3654.8
20964	8.8719	0.36364	5.e-002	-3.4537
20965	9.1487	0.36364	0.	-3595.4
20966	9.0564	0.27273	0.	-3616.3
20967	9.0564	0.36364	5.e-002	-3.8351
20968	9.3332	0.36364	0.	-3551.9
20969	9.2409	0.27273	0.	-3574.5
20970	9.2409	0.36364	5.e-002	-4.1293
20971	9.5177	0.36364	0.	-3506.3
20972	9.4254	0.27273	0.	-3530.2
20973	9.4254	0.36364	5.e-002	-4.3533
20974	9.7021	0.36364	0.	-3459.1
20975	9.6099	0.27273	0.	-3484.
20976	9.6099	0.36364	5.e-002	-4.5211
20977	9.8866	0.36364	0.	-3410.8
20978	9.7944	0.27273	0.	-3436.4
20979	9.7944	0.36364	5.e-002	-4.6446
20980	10.071	0.36364	0.	-3361.6
20981	9.9789	0.27273	0.	-3387.7
20982	9.9789	0.36364	5.e-002	-4.733
20983	10.256	0.36364	0.	-3311.8
20984	10.163	0.27273	0.	-3338.3
20985	10.163	0.36364	5.e-002	-4.7939
20986	10.44	0.36364	0.	-3261.6
20987	10.348	0.27273	0.	-3288.4
20988	10.348	0.36364	5.e-002	-4.8333
20989	10.625	0.36364	0.	-3211.1
20990	10.532	0.27273	0.	-3238.
20991	10.532	0.36364	5.e-002	-4.8561
20992	10.809	0.36364	0.	-3160.5
20993	10.717	0.27273	0.	-3187.5
20994	10.717	0.36364	5.e-002	-4.8661
20995	10.994	0.36364	0.	-3109.8
20996	10.901	0.27273	0.	-3136.9
20997	10.901	0.36364	5.e-002	-4.8663
20998	11.178	0.36364	0.	-3059.2
20999	11.086	0.27273	0.	-3086.2
21000	11.086	0.36364	5.e-002	-4.8591
21001	11.363	0.36364	0.	-3008.6
21002	11.27	0.27273	0.	-3035.6
21003	11.27	0.36364	5.e-002	-4.8464
21004	11.547	0.36364	0.	-2958.1
21005	11.455	0.27273	0.	-2985.
21006	11.455	0.36364	5.e-002	-4.8296
21007	11.732	0.36364	0.	-2907.7
21008	11.639	0.27273	0.	-2934.6
21009	11.639	0.36364	5.e-002	-4.8097
21010	11.916	0.36364	0.	-2857.5
21011	11.824	0.27273	0.	-2884.3
21012	11.824	0.36364	5.e-002	-4.7877
21013	12.1	0.36364	0.	-2807.5
21014	12.008	0.27273	0.	-2834.2
21015	12.008	0.36364	5.e-002	-4.7643
21016	12.285	0.36364	0.	-2757.7
21017	12.193	0.27273	0.	-2784.2
21018	12.193	0.36364	5.e-002	-4.7399
21019	12.469	0.36364	0.	-2708.
21020	12.377	0.27273	0.	-2734.5
21021	12.377	0.36364	5.e-002	-4.7149
21022	12.654	0.36364	0.	-2658.6
21023	12.562	0.27273	0.	-2684.9
21024	12.562	0.36364	5.e-002	-4.6898
21025	12.838	0.36364	0.	-2609.4
21026	12.746	0.27273	0.	-2635.6
21027	12.746	0.36364	5.e-002	-4.6645
21028	13.023	0.36364	0.	-2560.4
21029	12.931	0.27273	0.	-2586.5
21030	12.931	0.36364	5.e-002	-4.6394
21031	13.207	0.36364	0.	-2511.6
21032	13.115	0.27273	0.	-2537.6
21033	13.115	0.36364	5.e-002	-4.6145
21034	13.392	0.36364	0.	-2463.
21035	13.3	0.27273	0.	-2488.9
21036	13.3	0.36364	5.e-002	-4.5899
21037	13.576	0.36364	0.	-2414.6
21038	13.484	0.27273	0.	-2440.4
21039	13.484	0.36364	5.e-002	-4.5656
21040	13.761	0.36364	0.	-2366.5
21041	13.669	0.27273	0.	-2392.1
21042	13.669	0.36364	5.e-002	-4.5416
21043	13.945	0.36364	0.	-2318.5
21044	13.853	0.27273	0.	-2344.1
21045	13.853	0.36364	5.e-002	-4.5181
21046	14.13	0.36364	0.	-2270.8
21047	14.038	0.27273	0.	-2296.2
21048	14.038	0.36364	5.e-002	-4.495
21049	14.314	0.36364	0.	-2223.3
21050	14.222	0.27273	0.	-2248.6
21051	14.222	0.36364	5.e-002	-4.4723
21052	14.499	0.36364	0.	-2176.
21053	14.407	0.27273	0.	-2201.2
21054	14.407	0.36364	5.e-002	-4.45
21055	14.683	0.36364	0.	-2128.9
21056	14.591	0.27273	0.	-2154.
21057	14.591	0.36364	5.e-002	-4.428
21058	14.868	0.36364	0.	-2082.
21059	14.776	0.27273	0.	-2107.1
21060	14.776	0.36364	5.e-002	-4.4066
21061	15.052	0.36364	0.	-2035.4
21062	14.96	0.27273	0.	-2060.3
21063	14.96	0.36364	5.e-002	-4.3854
21064	15.237	0.36364	0.	-1988.9
21065	15.145	0.27273	0.	-2013.7
21066	15.145	0.36364	5.e-002	-4.3646
21067	15.421	0.36364	0.	-1942.6
21068	15.329	0.27273	0.	-1967.4
21069	15.329	0.36364	5.e-002	-4.3442
21070	15.606	0.36364	0.	-1896.6
21071	15.514	0.27273	0.	-1921.2
21072	15.514	0.36364	5.e-002	-4.3241
21073	15.79	0.36364	0.	-1850.7
21074	15.698	0.27273	0.	-1875.3
21075	15.698	0.36364	5.e-002	-4.3043
21076	15.975	0.36364	0.	-1805.1
21077	15.883	0.27273	0.	-1829.6
21078	15.883	0.36364	5.e-002	-4.2848
21079	16.159	0.36364	0.	-1759.7
21080	16.067	0.27273	0.	-1784.
21081	16.067	0.36364	5.e-002	-4.2658
21082	16.344	0.36364	0.	-1714.4
21083	16.251	0.27273	0.	-1738.7
21084	16.251	0.36364	5.e-002	-4.247
21085	16.528	0.36364	0.	-1669.4
21086	16.436	0.27273	0.	-1693.6
21087	16.436	0.36364	5.e-002	-4.2286
21088	16.713	0.36364	0.	-1624.6
21089	16.62	0.27273	0.	-1648.7
21090	16.62	0.36364	5.e-002	-4.2105
21091	16.897	0.36364	0.	-1579.9
21092	16.805	0.27273	0.	-1603.9
21093	16.805	0.36364	5.e-002	-4.1927
21094	17.082	0.36364	0.	-1535.5
21095	16.989	0.27273	0.	-1559.4
21096	16.989	0.36364	5.e-002	-4.1752
21097	17.266	0.36364	0.	-1491.2
21098	17.174	0.27273	0.	-1515.1
21099	17.174	0.36364	5.e-002	-4.1581
21100	17.451	0.36364	0.	-1447.2
21101	17.358	0.27273	0.	-1471.
21102	17.358	0.36364	5.e-002	-4.1413
21103	17.635	0.36364	0.	-1403.3
21104	17.543	0.27273	0.	-1427.
21105	17.543	0.36364	5.e-002	-4.1248
21106	17.82	0.36364	0.	-1359.7
21107	17.727	0.27273	0.	-1383.3
21108	17.727	0.36364	5.e-002	-4.1088
21109	18.004	0.36364	0.	-1316.2
21110	17.912	0.27273	0.	-1339.7
21111	17.912	0.36364	5.e-002	-4.0931
21112	18.189	0.36364	0.	-1272.9
21113	18.096	0.27273	0.	-1296.4
21114	18.096	0.36364	5.e-002	-4.0779
21115	18.373	0.36364	0.	-1229.8
21116	18.281	0.27273	0.	-1253.2
21117	18.281	0.36364	5.e-002	-4.0631
21118	18.558	0.36364	0.	-1186.9
21119	18.465	0.27273	0.	-1210.2
21120	18.465	0.36364	5.e-002	-4.0487
21121	18.742	0.36364	0.	-1144.1
21122	18.65	0.27273	0.	-1167.4
21123	18.65	0.36364	5.e-002	-4.0348
21124	18.927	0.36364	0.	-1101.6
21125	18.834	0.27273	0.	-1124.7
21126	18.834	0.36364	5.e-002	-4.0215
21127	19.111	0.36364	0.	-1059.2
21128	19.019	0.27273	0.	-1082.3
21129	19.019	0.36364	5.e-002	-4.0086
21130	19.296	0.36364	0.	-1017.
21131	19.203	0.27273	0.	-1040.
21132	19.203	0.36364	5.e-002	-3.9963
21133	19.48	0.36364	0.	-974.94
21134	19.388	0.27273	0.	-997.87
21135	19.388	0.36364	5.e-002	-3.9847
21136	19.665	0.36364	0.	-933.07
21137	19.572	0.27273	0.	-955.93
21138	19.572	0.36364	5.e-002	-3.9737
21139	19.849	0.36364	0.	-891.36
21140	19.757	0.27273	0.	-914.15
21141	19.757	0.36364	5.e-002	-3.9634
21142	20.033	0.36364	0.	-849.82
21143	19.941	0.27273	0.	-872.53
21144	19.941	0.36364	5.e-002	-3.9538
21145	20.218	0.36364	0.	-808.43
21146	20.126	0.27273	0.	-831.06
21147	20.126	0.36364	5.e-002	-3.945
21148	20.402	0.36364	0.	-767.2
21149	20.31	0.27273	0.	-789.76
21150	20.31	0.36364	5.e-002	-3.9371
21151	20.587	0.36364	0.	-726.12
21152	20.495	0.27273	0.	-748.6
21153	20.495	0.36364	5.e-002	-3.93
21154	20.771	0.36364	0.	-685.19
21155	20.679	0.27273	0.	-707.58
21156	20.679	0.36364	5.e-002	-3.9239
21157	20.956	0.36364	0.	-644.39
21158	20.864	0.27273	0.	-666.71
21159	20.864	0.36364	5.e-002	-3.9188
21160	21.14	0.36364	0.	-603.74
21161	21.048	0.27273	0.	-625.97
21162	21.048	0.36364	5.e-002	-3.9148
21163	21.325	0.36364	0.	-563.23
21164	21.233	0.27273	0.	-585.37
21165	21.233	0.36364	5.e-002	-3.9118
21166	21.509	0.36364	0.	-522.85
21167	21.417	0.27273	0.	-544.9
21168	21.417	0.36364	5.e-002	-3.9101
21169	21.694	0.36364	0.	-482.61
21170	21.602	0.27273	0.	-504.55
21171	21.602	0.36364	5.e-002	-3.9096
21172	21.878	0.36364	0.	-442.51
21173	21.786	0.27273	0.	-464.34
21174	21.786	0.36364	5.e-002	-3.9105
21175	22.063	0.36364	0.	-402.55
21176	21.971	0.27273	0.	-424.25
21177	21.971	0.36364	5.e-002	-3.9128
21178	22.247	0.36364	0.	-362.74
21179	22.155	0.27273	0.	-384.29
21180	22.155	0.36364	5.e-002	-3.9167
21181	22.432	0.36364	0.	-323.09
21182	22.34	0.27273	0.	-344.47
21183	22.34	0.36364	5.e-002	-3.9224
21184	22.616	0.36364	0.	-283.62
21185	22.524	0.27273	0.	-304.79
21186	22.524	0.36364	5.e-002	-3.93
21187	22.801	0.36364	0.	-244.37
21188	22.709	0.27273	0.	-265.29
21189	22.709	0.36364	5.e-002	-3.9402
21190	22.985	0.36364	0.	-205.39
21191	22.893	0.27273	0.	-225.98
21192	22.893	0.36364	5.e-002	-3.9538
21193	23.17	0.36364	0.	-166.77
21194	23.078	0.27273	0.	-186.92
21195	23.078	0.36364	5.e-002	-3.9725
21196	23.354	0.36364	0.	-128.67
21197	23.262	0.27273	0.	-148.19
21198	23.262	0.36364	5.e-002	-3.9999
21199	23.539	0.36364	0.	-91.39
21200	23.447	0.27273	0.	-109.97
21201	23.447	0.36364	5.e-002	-4.0465
21202	23.723	0.36364	0.	-55.538
21203	23.631	0.27273	0.	-72.595
21204	23.631	0.36364	5.e-002	-4.1531
21205	23.816	0.27273	0.	-37.328
21206	23.816	0.36364	5.e-002	-4.5326
21207	23.908	0.36364	0.	-21.522
21208	5.6434	0.18182	0.	-1053.2
21209	5.5512	0.18182	5.e-002	-68.371
21210	5.5512	9.0909e-002	0.	-683.52
21211	5.4589	0.18182	0.	-593.23
21212	5.8279	0.18182	0.	-1533.2
21213	5.7356	0.18182	5.e-002	-60.609
21214	5.7356	9.0909e-002	0.	-1209.
21215	6.0124	0.18182	0.	-1981.1
21216	5.9201	0.18182	5.e-002	-55.853
21217	5.9201	9.0909e-002	0.	-1699.
21218	6.1969	0.18182	0.	-2373.4
21219	6.1046	0.18182	5.e-002	-50.1
21220	6.1046	9.0909e-002	0.	-2132.5
21221	6.3814	0.18182	0.	-2706.8
21222	6.2891	0.18182	5.e-002	-43.73
21223	6.2891	9.0909e-002	0.	-2505.6
21224	6.5658	0.18182	0.	-2982.5
21225	6.4736	0.18182	5.e-002	-37.239
21226	6.4736	9.0909e-002	0.	-2818.1
21227	6.7503	0.18182	0.	-3204.4
21228	6.6581	0.18182	5.e-002	-31.02
21229	6.6581	9.0909e-002	0.	-3073.1
21230	6.9348	0.18182	0.	-3378.3
21231	6.8426	0.18182	5.e-002	-25.334
21232	6.8426	9.0909e-002	0.	-3275.9
21233	7.1193	0.18182	0.	-3510.6
21234	7.0271	0.18182	5.e-002	-20.315
21235	7.0271	9.0909e-002	0.	-3432.7
21236	7.3038	0.18182	0.	-3607.4
21237	7.2116	0.18182	5.e-002	-16.002
21238	7.2116	9.0909e-002	0.	-3550.
21239	7.4883	0.18182	0.	-3674.7
21240	7.396	0.18182	5.e-002	-12.375
21241	7.396	9.0909e-002	0.	-3634.2
21242	7.6728	0.18182	0.	-3717.6
21243	7.5805	0.18182	5.e-002	-9.3751
21244	7.5805	9.0909e-002	0.	-3690.9
21245	7.8573	0.18182	0.	-3740.6
21246	7.765	0.18182	5.e-002	-6.9309
21247	7.765	9.0909e-002	0.	-3725.1
21248	8.0417	0.18182	0.	-3747.6
21249	7.9495	0.18182	5.e-002	-4.9655
21250	7.9495	9.0909e-002	0.	-3741.
21251	8.2262	0.18182	0.	-3741.7
21252	8.134	0.18182	5.e-002	-3.406
21253	8.134	9.0909e-002	0.	-3742.3
21254	8.4107	0.18182	0.	-3725.5
21255	8.3185	0.18182	5.e-002	-2.1877
21256	8.3185	9.0909e-002	0.	-3731.8
21257	8.5952	0.18182	0.	-3701.3
21258	8.503	0.18182	5.e-002	-1.26
21259	8.503	9.0909e-002	0.	-3712.
21260	8.7797	0.18182	0.	-3670.6
21261	8.6875	0.18182	5.e-002	-0.61099
21262	8.6875	9.0909e-002	0.	-3684.8
21263	8.9642	0.18182	0.	-3635.
21264	8.8719	0.18182	5.e-002	-0.40396
21265	8.8719	9.0909e-002	0.	-3651.8
21266	9.1487	0.18182	0.	-3595.4
21267	9.0564	0.18182	5.e-002	-0.62677
21268	9.0564	9.0909e-002	0.	-3614.3
21269	9.3332	0.18182	0.	-3552.8
21270	9.2409	0.18182	5.e-002	-0.86904
21271	9.2409	9.0909e-002	0.	-3573.3
21272	9.5177	0.18182	0.	-3507.9
21273	9.4254	0.18182	5.e-002	-1.0475
21274	9.4254	9.0909e-002	0.	-3529.6
21275	9.7021	0.18182	0.	-3461.3
21276	9.6099	0.18182	5.e-002	-1.1639
21277	9.6099	9.0909e-002	0.	-3483.8
21278	9.8866	0.18182	0.	-3413.4
21279	9.7944	0.18182	5.e-002	-1.2291
21280	9.7944	9.0909e-002	0.	-3436.4
21281	10.071	0.18182	0.	-3364.5
21282	9.9789	0.18182	5.e-002	-1.2542
21283	9.9789	9.0909e-002	0.	-3387.9
21284	10.256	0.18182	0.	-3315.
21285	10.163	0.18182	5.e-002	-1.2487
21286	10.163	9.0909e-002	0.	-3338.6
21287	10.44	0.18182	0.	-3264.9
21288	10.348	0.18182	5.e-002	-1.2203
21289	10.348	9.0909e-002	0.	-3288.6
21290	10.625	0.18182	0.	-3214.5
21291	10.532	0.18182	5.e-002	-1.1753
21292	10.532	9.0909e-002	0.	-3238.3
21293	10.809	0.18182	0.	-3164.
21294	10.717	0.18182	5.e-002	-1.1186
21295	10.717	9.0909e-002	0.	-3187.6
21296	10.994	0.18182	0.	-3113.4
21297	10.901	0.18182	5.e-002	-1.0543
21298	10.901	9.0909e-002	0.	-3136.9
21299	11.178	0.18182	0.	-3062.7
21300	11.086	0.18182	5.e-002	-0.98518
21301	11.086	9.0909e-002	0.	-3086.1
21302	11.363	0.18182	0.	-3012.1
21303	11.27	0.18182	5.e-002	-0.91375
21304	11.27	9.0909e-002	0.	-3035.3
21305	11.547	0.18182	0.	-2961.6
21306	11.455	0.18182	5.e-002	-0.84179
21307	11.455	9.0909e-002	0.	-2984.6
21308	11.732	0.18182	0.	-2911.3
21309	11.639	0.18182	5.e-002	-0.77045
21310	11.639	9.0909e-002	0.	-2934.
21311	11.916	0.18182	0.	-2861.
21312	11.824	0.18182	5.e-002	-0.70086
21313	11.824	9.0909e-002	0.	-2883.5
21314	12.1	0.18182	0.	-2811.
21315	12.008	0.18182	5.e-002	-0.63366
21316	12.008	9.0909e-002	0.	-2833.2
21317	12.285	0.18182	0.	-2761.1
21318	12.193	0.18182	5.e-002	-0.56933
21319	12.193	9.0909e-002	0.	-2783.1
21320	12.469	0.18182	0.	-2711.5
21321	12.377	0.18182	5.e-002	-0.50827
21322	12.377	9.0909e-002	0.	-2733.2
21323	12.654	0.18182	0.	-2662.
21324	12.562	0.18182	5.e-002	-0.45063
21325	12.562	9.0909e-002	0.	-2683.5
21326	12.838	0.18182	0.	-2612.8
21327	12.746	0.18182	5.e-002	-0.39648
21328	12.746	9.0909e-002	0.	-2634.
21329	13.023	0.18182	0.	-2563.8
21330	12.931	0.18182	5.e-002	-0.34579
21331	12.931	9.0909e-002	0.	-2584.7
21332	13.207	0.18182	0.	-2515.
21333	13.115	0.18182	5.e-002	-0.29871
21334	13.115	9.0909e-002	0.	-2535.6
21335	13.392	0.18182	0.	-2466.4
21336	13.3	0.18182	5.e-002	-0.25495
21337	13.3	9.0909e-002	0.	-2486.8
21338	13.576	0.18182	0.	-2418.
21339	13.484	0.18182	5.e-002	-0.21459
21340	13.484	9.0909e-002	0.	-2438.2
21341	13.761	0.18182	0.	-2369.8
21342	13.669	0.18182	5.e-002	-0.17742
21343	13.669	9.0909e-002	0.	-2389.8
21344	13.945	0.18182	0.	-2321.9
21345	13.853	0.18182	5.e-002	-0.14349
21346	13.853	9.0909e-002	0.	-2341.6
21347	14.13	0.18182	0.	-2274.2
21348	14.038	0.18182	5.e-002	-0.11283
21349	14.038	9.0909e-002	0.	-2293.6
21350	14.314	0.18182	0.	-2226.7
21351	14.222	0.18182	5.e-002	-8.5622e-002
21352	14.222	9.0909e-002	0.	-2245.9
21353	14.499	0.18182	0.	-2179.4
21354	14.407	0.18182	5.e-002	-6.247e-002
21355	14.407	9.0909e-002	0.	-2198.4
21356	14.683	0.18182	0.	-2132.3
21357	14.591	0.18182	5.e-002	-4.5089e-002
21358	14.591	9.0909e-002	0.	-2151.1
21359	14.868	0.18182	0.	-2085.4
21360	14.776	0.18182	5.e-002	-3.7205e-002
21361	14.776	9.0909e-002	0.	-2104.
21362	15.052	0.18182	0.	-2038.8
21363	14.96	0.18182	5.e-002	-4.0777e-002
21364	14.96	9.0909e-002	0.	-2057.1
21365	15.237	0.18182	0.	-1992.3
21366	15.145	0.18182	5.e-002	-5.1303e-002
21367	15.145	9.0909e-002	0.	-2010.4
21368	15.421	0.18182	0.	-1946.1
21369	15.329	0.18182	5.e-002	-6.404e-002
21370	15.329	9.0909e-002	0.	-1964.
21371	15.606	0.18182	0.	-1900.1
21372	15.514	0.18182	5.e-002	-7.6925e-002
21373	15.514	9.0909e-002	0.	-1917.7
21374	15.79	0.18182	0.	-1854.2
21375	15.698	0.18182	5.e-002	-8.9244e-002
21376	15.698	9.0909e-002	0.	-1871.7
21377	15.975	0.18182	0.	-1808.6
21378	15.883	0.18182	5.e-002	-0.10077
21379	15.883	9.0909e-002	0.	-1825.9
21380	16.159	0.18182	0.	-1763.2
21381	16.067	0.18182	5.e-002	-0.11146
21382	16.067	9.0909e-002	0.	-1780.2
21383	16.344	0.18182	0.	-1718.
21384	16.251	0.18182	5.e-002	-0.12142
21385	16.251	9.0909e-002	0.	-1734.8
21386	16.528	0.18182	0.	-1673.
21387	16.436	0.18182	5.e-002	-0.13077
21388	16.436	9.0909e-002	0.	-1689.6
21389	16.713	0.18182	0.	-1628.2
21390	16.62	0.18182	5.e-002	-0.1397
21391	16.62	9.0909e-002	0.	-1644.6
21392	16.897	0.18182	0.	-1583.6
21393	16.805	0.18182	5.e-002	-0.1484
21394	16.805	9.0909e-002	0.	-1599.8
21395	17.082	0.18182	0.	-1539.2
21396	16.989	0.18182	5.e-002	-0.15711
21397	16.989	9.0909e-002	0.	-1555.1
21398	17.266	0.18182	0.	-1495.
21399	17.174	0.18182	5.e-002	-0.16609
21400	17.174	9.0909e-002	0.	-1510.7
21401	17.451	0.18182	0.	-1451.
21402	17.358	0.18182	5.e-002	-0.17561
21403	17.358	9.0909e-002	0.	-1466.5
21404	17.635	0.18182	0.	-1407.1
21405	17.543	0.18182	5.e-002	-0.18597
21406	17.543	9.0909e-002	0.	-1422.5
21407	17.82	0.18182	0.	-1363.5
21408	17.727	0.18182	5.e-002	-0.19748
21409	17.727	9.0909e-002	0.	-1378.6
21410	18.004	0.18182	0.	-1320.1
21411	17.912	0.18182	5.e-002	-0.21047
21412	17.912	9.0909e-002	0.	-1335.
21413	18.189	0.18182	0.	-1276.8
21414	18.096	0.18182	5.e-002	-0.22526
21415	18.096	9.0909e-002	0.	-1291.5
21416	18.373	0.18182	0.	-1233.7
21417	18.281	0.18182	5.e-002	-0.24213
21418	18.281	9.0909e-002	0.	-1248.2
21419	18.558	0.18182	0.	-1190.8
21420	18.465	0.18182	5.e-002	-0.26138
21421	18.465	9.0909e-002	0.	-1205.1
21422	18.742	0.18182	0.	-1148.1
21423	18.65	0.18182	5.e-002	-0.28329
21424	18.65	9.0909e-002	0.	-1162.2
21425	18.927	0.18182	0.	-1105.6
21426	18.834	0.18182	5.e-002	-0.30812
21427	18.834	9.0909e-002	0.	-1119.5
21428	19.111	0.18182	0.	-1063.2
21429	19.019	0.18182	5.e-002	-0.33611
21430	19.019	9.0909e-002	0.	-1076.9
21431	19.296	0.18182	0.	-1021.1
21432	19.203	0.18182	5.e-002	-0.36751
21433	19.203	9.0909e-002	0.	-1034.6
21434	19.48	0.18182	0.	-979.04
21435	19.388	0.18182	5.e-002	-0.40255
21436	19.388	9.0909e-002	0.	-992.36
21437	19.665	0.18182	0.	-937.19
21438	19.572	0.18182	5.e-002	-0.44149
21439	19.572	9.0909e-002	0.	-950.32
21440	19.849	0.18182	0.	-895.5
21441	19.757	0.18182	5.e-002	-0.48458
21442	19.757	9.0909e-002	0.	-908.45
21443	20.033	0.18182	0.	-853.97
21444	19.941	0.18182	5.e-002	-0.53205
21445	19.941	9.0909e-002	0.	-866.74
21446	20.218	0.18182	0.	-812.59
21447	20.126	0.18182	5.e-002	-0.58421
21448	20.126	9.0909e-002	0.	-825.2
21449	20.402	0.18182	0.	-771.36
21450	20.31	0.18182	5.e-002	-0.64135
21451	20.31	9.0909e-002	0.	-783.81
21452	20.587	0.18182	0.	-730.27
21453	20.495	0.18182	5.e-002	-0.70383
21454	20.495	9.0909e-002	0.	-742.57
21455	20.771	0.18182	0.	-689.33
21456	20.679	0.18182	5.e-002	-0.77196
21457	20.679	9.0909e-002	0.	-701.49
21458	20.956	0.18182	0.	-648.52
21459	20.864	0.18182	5.e-002	-0.84616
21460	20.864	9.0909e-002	0.	-660.55
21461	21.14	0.18182	0.	-607.84
21462	21.048	0.18182	5.e-002	-0.92687
21463	21.048	9.0909e-002	0.	-619.77
21464	21.325	0.18182	0.	-567.28
21465	21.233	0.18182	5.e-002	-1.0146
21466	21.233	9.0909e-002	0.	-579.13
21467	21.509	0.18182	0.	-526.86
21468	21.417	0.18182	5.e-002	-1.1098
21469	21.417	9.0909e-002	0.	-538.63
21470	21.694	0.18182	0.	-486.55
21471	21.602	0.18182	5.e-002	-1.2131
21472	21.602	9.0909e-002	0.	-498.28
21473	21.878	0.18182	0.	-446.36
21474	21.786	0.18182	5.e-002	-1.3253
21475	21.786	9.0909e-002	0.	-458.08
21476	22.063	0.18182	0.	-406.29
21477	21.971	0.18182	5.e-002	-1.447
21478	21.971	9.0909e-002	0.	-418.04
21479	22.247	0.18182	0.	-366.35
21480	22.155	0.18182	5.e-002	-1.5791
21481	22.155	9.0909e-002	0.	-378.16
21482	22.432	0.18182	0.	-326.53
21483	22.34	0.18182	5.e-002	-1.7228
21484	22.34	9.0909e-002	0.	-338.45
21485	22.616	0.18182	0.	-286.85
21486	22.524	0.18182	5.e-002	-1.8794
21487	22.524	9.0909e-002	0.	-298.94
21488	22.801	0.18182	0.	-247.33
21489	22.709	0.18182	5.e-002	-2.0506
21490	22.709	9.0909e-002	0.	-259.66
21491	22.985	0.18182	0.	-208.
21492	22.893	0.18182	5.e-002	-2.2386
21493	22.893	9.0909e-002	0.	-220.63
21494	23.17	0.18182	0.	-168.9
21495	23.078	0.18182	5.e-002	-2.4467
21496	23.078	9.0909e-002	0.	-181.94
21497	23.354	0.18182	0.	-130.13
21498	23.262	0.18182	5.e-002	-2.6805
21499	23.262	9.0909e-002	0.	-143.68
21500	23.539	0.18182	0.	-91.88
21501	23.447	0.18182	5.e-002	-2.9474
21502	23.447	9.0909e-002	0.	-106.01
21503	23.723	0.18182	0.	-55.001
21504	23.631	0.18182	5.e-002	-3.2822
21505	23.631	9.0909e-002	0.	-69.268
21506	23.816	0.18182	5.e-002	-3.9977
21507	23.816	9.0909e-002	0.	-34.571
21508	23.908	0.18182	0.	-20.58
21509	23.723	0.18182	0.1	-33.649
21510	23.816	0.27273	0.1	-45.461
21511	23.908	0.18182	0.1	-34.893
21512	23.816	9.0909e-002	0.1	-21.431
21513	23.539	0.18182	0.1	-33.335
21514	23.631	0.27273	0.1	-41.667
21515	23.631	9.0909e-002	0.1	-22.108
21516	23.354	0.18182	0.1	-33.667
21517	23.447	0.27273	0.1	-39.971
21518	23.447	9.0909e-002	0.1	-22.537
21519	23.17	0.18182	0.1	-33.937
21520	23.262	0.27273	0.1	-38.952
21521	23.262	9.0909e-002	0.1	-22.828
21522	22.985	0.18182	0.1	-34.069
21523	23.078	0.27273	0.1	-38.164
21524	23.078	9.0909e-002	0.1	-22.952
21525	22.801	0.18182	0.1	-34.071
21526	22.893	0.27273	0.1	-37.465
21527	22.893	9.0909e-002	0.1	-22.96
21528	22.616	0.18182	0.1	-33.96
21529	22.709	0.27273	0.1	-36.795
21530	22.709	9.0909e-002	0.1	-22.881
21531	22.432	0.18182	0.1	-33.757
21532	22.524	0.27273	0.1	-36.13
21533	22.524	9.0909e-002	0.1	-22.735
21534	22.247	0.18182	0.1	-33.48
21535	22.34	0.27273	0.1	-35.462
21536	22.34	9.0909e-002	0.1	-22.536
21537	22.063	0.18182	0.1	-33.142
21538	22.155	0.27273	0.1	-34.787
21539	22.155	9.0909e-002	0.1	-22.298
21540	21.878	0.18182	0.1	-32.756
21541	21.971	0.27273	0.1	-34.107
21542	21.971	9.0909e-002	0.1	-22.027
21543	21.694	0.18182	0.1	-32.331
21544	21.786	0.27273	0.1	-33.424
21545	21.786	9.0909e-002	0.1	-21.732
21546	21.509	0.18182	0.1	-31.876
21547	21.602	0.27273	0.1	-32.739
21548	21.602	9.0909e-002	0.1	-21.419
21549	21.325	0.18182	0.1	-31.398
21550	21.417	0.27273	0.1	-32.056
21551	21.417	9.0909e-002	0.1	-21.09
21552	21.14	0.18182	0.1	-30.902
21553	21.233	0.27273	0.1	-31.377
21554	21.233	9.0909e-002	0.1	-20.752
21555	20.956	0.18182	0.1	-30.394
21556	21.048	0.27273	0.1	-30.703
21557	21.048	9.0909e-002	0.1	-20.406
21558	20.771	0.18182	0.1	-29.877
21559	20.864	0.27273	0.1	-30.037
21560	20.864	9.0909e-002	0.1	-20.055
21561	20.587	0.18182	0.1	-29.355
21562	20.679	0.27273	0.1	-29.38
21563	20.679	9.0909e-002	0.1	-19.702
21564	20.402	0.18182	0.1	-28.831
21565	20.495	0.27273	0.1	-28.733
21566	20.495	9.0909e-002	0.1	-19.348
21567	20.218	0.18182	0.1	-28.306
21568	20.31	0.27273	0.1	-28.099
21569	20.31	9.0909e-002	0.1	-18.994
21570	20.033	0.18182	0.1	-27.784
21571	20.126	0.27273	0.1	-27.476
21572	20.126	9.0909e-002	0.1	-18.643
21573	19.849	0.18182	0.1	-27.265
21574	19.941	0.27273	0.1	-26.867
21575	19.941	9.0909e-002	0.1	-18.294
21576	19.665	0.18182	0.1	-26.752
21577	19.757	0.27273	0.1	-26.271
21578	19.757	9.0909e-002	0.1	-17.95
21579	19.48	0.18182	0.1	-26.244
21580	19.572	0.27273	0.1	-25.688
21581	19.572	9.0909e-002	0.1	-17.61
21582	19.296	0.18182	0.1	-25.743
21583	19.388	0.27273	0.1	-25.119
21584	19.388	9.0909e-002	0.1	-17.274
21585	19.111	0.18182	0.1	-25.249
21586	19.203	0.27273	0.1	-24.564
21587	19.203	9.0909e-002	0.1	-16.944
21588	18.927	0.18182	0.1	-24.763
21589	19.019	0.27273	0.1	-24.022
21590	19.019	9.0909e-002	0.1	-16.619
21591	18.742	0.18182	0.1	-24.284
21592	18.834	0.27273	0.1	-23.493
21593	18.834	9.0909e-002	0.1	-16.3
21594	18.558	0.18182	0.1	-23.813
21595	18.65	0.27273	0.1	-22.976
21596	18.65	9.0909e-002	0.1	-15.987
21597	18.373	0.18182	0.1	-23.351
21598	18.465	0.27273	0.1	-22.471
21599	18.465	9.0909e-002	0.1	-15.679
21600	18.189	0.18182	0.1	-22.896
21601	18.281	0.27273	0.1	-21.977
21602	18.281	9.0909e-002	0.1	-15.377
21603	18.004	0.18182	0.1	-22.448
21604	18.096	0.27273	0.1	-21.494
21605	18.096	9.0909e-002	0.1	-15.08
21606	17.82	0.18182	0.1	-22.007
21607	17.912	0.27273	0.1	-21.021
21608	17.912	9.0909e-002	0.1	-14.788
21609	17.635	0.18182	0.1	-21.573
21610	17.727	0.27273	0.1	-20.557
21611	17.727	9.0909e-002	0.1	-14.502
21612	17.451	0.18182	0.1	-21.145
21613	17.543	0.27273	0.1	-20.101
21614	17.543	9.0909e-002	0.1	-14.219
21615	17.266	0.18182	0.1	-20.723
21616	17.358	0.27273	0.1	-19.652
21617	17.358	9.0909e-002	0.1	-13.941
21618	17.082	0.18182	0.1	-20.305
21619	17.174	0.27273	0.1	-19.21
21620	17.174	9.0909e-002	0.1	-13.667
21621	16.897	0.18182	0.1	-19.892
21622	16.989	0.27273	0.1	-18.772
21623	16.989	9.0909e-002	0.1	-13.397
21624	16.713	0.18182	0.1	-19.483
21625	16.805	0.27273	0.1	-18.339
21626	16.805	9.0909e-002	0.1	-13.129
21627	16.528	0.18182	0.1	-19.076
21628	16.62	0.27273	0.1	-17.91
21629	16.62	9.0909e-002	0.1	-12.864
21630	16.344	0.18182	0.1	-18.671
21631	16.436	0.27273	0.1	-17.482
21632	16.436	9.0909e-002	0.1	-12.601
21633	16.159	0.18182	0.1	-18.267
21634	16.251	0.27273	0.1	-17.055
21635	16.251	9.0909e-002	0.1	-12.34
21636	15.975	0.18182	0.1	-17.864
21637	16.067	0.27273	0.1	-16.628
21638	16.067	9.0909e-002	0.1	-12.079
21639	15.79	0.18182	0.1	-17.46
21640	15.883	0.27273	0.1	-16.2
21641	15.883	9.0909e-002	0.1	-11.819
21642	15.606	0.18182	0.1	-17.054
21643	15.698	0.27273	0.1	-15.768
21644	15.698	9.0909e-002	0.1	-11.559
21645	15.421	0.18182	0.1	-16.645
21646	15.514	0.27273	0.1	-15.333
21647	15.514	9.0909e-002	0.1	-11.299
21648	15.237	0.18182	0.1	-16.233
21649	15.329	0.27273	0.1	-14.892
21650	15.329	9.0909e-002	0.1	-11.037
21651	15.052	0.18182	0.1	-15.816
21652	15.145	0.27273	0.1	-14.445
21653	15.145	9.0909e-002	0.1	-10.773
21654	14.868	0.18182	0.1	-15.393
21655	14.96	0.27273	0.1	-13.989
21656	14.96	9.0909e-002	0.1	-10.506
21657	14.683	0.18182	0.1	-14.963
21658	14.776	0.27273	0.1	-13.523
21659	14.776	9.0909e-002	0.1	-10.236
21660	14.499	0.18182	0.1	-14.524
21661	14.591	0.27273	0.1	-13.047
21662	14.591	9.0909e-002	0.1	-9.9622
21663	14.314	0.18182	0.1	-14.077
21664	14.407	0.27273	0.1	-12.557
21665	14.407	9.0909e-002	0.1	-9.6836
21666	14.13	0.18182	0.1	-13.619
21667	14.222	0.27273	0.1	-12.054
21668	14.222	9.0909e-002	0.1	-9.3997
21669	13.945	0.18182	0.1	-13.149
21670	14.038	0.27273	0.1	-11.534
21671	14.038	9.0909e-002	0.1	-9.1096
21672	13.761	0.18182	0.1	-12.667
21673	13.853	0.27273	0.1	-10.998
21674	13.853	9.0909e-002	0.1	-8.8129
21675	13.576	0.18182	0.1	-12.17
21676	13.669	0.27273	0.1	-10.442
21677	13.669	9.0909e-002	0.1	-8.5087
21678	13.392	0.18182	0.1	-11.659
21679	13.484	0.27273	0.1	-9.8671
21680	13.484	9.0909e-002	0.1	-8.1966
21681	13.207	0.18182	0.1	-11.132
21682	13.3	0.27273	0.1	-9.2701
21683	13.3	9.0909e-002	0.1	-7.8757
21684	13.023	0.18182	0.1	-10.588
21685	13.115	0.27273	0.1	-8.6507
21686	13.115	9.0909e-002	0.1	-7.5457
21687	12.838	0.18182	0.1	-10.027
21688	12.931	0.27273	0.1	-8.0076
21689	12.931	9.0909e-002	0.1	-7.2061
21690	12.654	0.18182	0.1	-9.4492
21691	12.746	0.27273	0.1	-7.3403
21692	12.746	9.0909e-002	0.1	-6.8567
21693	12.469	0.18182	0.1	-8.8536
21694	12.562	0.27273	0.1	-6.6487
21695	12.562	9.0909e-002	0.1	-6.4973
21696	12.285	0.18182	0.1	-8.2412
21697	12.377	0.27273	0.1	-5.9328
21698	12.377	9.0909e-002	0.1	-6.128
21699	12.1	0.18182	0.1	-7.6128
21700	12.193	0.27273	0.1	-5.1938
21701	12.193	9.0909e-002	0.1	-5.7493
21702	11.916	0.18182	0.1	-6.9705
21703	12.008	0.27273	0.1	-4.4333
21704	12.008	9.0909e-002	0.1	-5.3617
21705	11.732	0.18182	0.1	-6.3168
21706	11.824	0.27273	0.1	-3.6548
21707	11.824	9.0909e-002	0.1	-4.9666
21708	11.547	0.18182	0.1	-5.6556
21709	11.639	0.27273	0.1	-2.8628
21710	11.639	9.0909e-002	0.1	-4.5655
21711	11.363	0.18182	0.1	-4.992
21712	11.455	0.27273	0.1	-2.066
21713	11.455	9.0909e-002	0.1	-4.161
21714	11.178	0.18182	0.1	-4.333
21715	11.27	0.27273	0.1	-1.2811
21716	11.27	9.0909e-002	0.1	-3.756
21717	10.994	0.18182	0.1	-3.6877
21718	11.086	0.27273	0.1	-0.56951
21719	11.086	9.0909e-002	0.1	-3.3546
21720	10.809	0.18182	0.1	-3.0681
21721	10.901	0.27273	0.1	-0.18791
21722	10.901	9.0909e-002	0.1	-2.9624
21723	10.625	0.18182	0.1	-2.4893
21724	10.717	0.27273	0.1	-0.10532
21725	10.717	9.0909e-002	0.1	-2.5855
21726	10.44	0.18182	0.1	-1.9707
21727	10.532	0.27273	0.1	-8.2459e-002
21728	10.532	9.0909e-002	0.1	-2.2323
21729	10.256	0.18182	0.1	-1.5353
21730	10.348	0.27273	0.1	-7.408e-002
21731	10.348	9.0909e-002	0.1	-1.9122
21732	10.071	0.18182	0.1	-1.2065
21733	10.163	0.27273	0.1	-7.1548e-002
21734	10.163	9.0909e-002	0.1	-1.6368
21735	9.8866	0.18182	0.1	-1.0009
21736	9.9789	0.27273	0.1	-7.2342e-002
21737	9.9789	9.0909e-002	0.1	-1.4186
21738	9.7021	0.18182	0.1	-0.9262
21739	9.7944	0.27273	0.1	-7.5927e-002
21740	9.7944	9.0909e-002	0.1	-1.2724
21741	9.5177	0.18182	0.1	-0.99968
21742	9.6099	0.27273	0.1	-8.3083e-002
21743	9.6099	9.0909e-002	0.1	-1.2164
21744	9.3332	0.18182	0.1	-1.2777
21745	9.4254	0.27273	0.1	-9.663e-002
21746	9.4254	9.0909e-002	0.1	-1.276
21747	9.1487	0.18182	0.1	-1.8551
21748	9.2409	0.27273	0.1	-0.1263
21749	9.2409	9.0909e-002	0.1	-1.4864
21750	8.9642	0.18182	0.1	-2.8255
21751	9.0564	0.27273	0.1	-0.22199
21752	9.0564	9.0909e-002	0.1	-1.889
21753	8.7797	0.18182	0.1	-4.266
21754	8.8719	0.27273	0.1	-0.87732
21755	8.8719	9.0909e-002	0.1	-2.5263
21756	8.5952	0.18182	0.1	-6.2549
21757	8.6875	0.27273	0.1	-2.998
21758	8.6875	9.0909e-002	0.1	-3.4421
21759	8.4107	0.18182	0.1	-8.8811
21760	8.503	0.27273	0.1	-6.0865
21761	8.503	9.0909e-002	0.1	-4.6846
21762	8.2262	0.18182	0.1	-12.244
21763	8.3185	0.27273	0.1	-10.101
21764	8.3185	9.0909e-002	0.1	-6.3075
21765	8.0417	0.18182	0.1	-16.448
21766	8.134	0.27273	0.1	-15.146
21767	8.134	9.0909e-002	0.1	-8.3691
21768	7.8573	0.18182	0.1	-21.599
21769	7.9495	0.27273	0.1	-21.341
21770	7.9495	9.0909e-002	0.1	-10.929
21771	7.6728	0.18182	0.1	-27.79
21772	7.765	0.27273	0.1	-28.788
21773	7.765	9.0909e-002	0.1	-14.046
21774	7.4883	0.18182	0.1	-35.09
21775	7.5805	0.27273	0.1	-37.555
21776	7.5805	9.0909e-002	0.1	-17.767
21777	7.3038	0.18182	0.1	-43.509
21778	7.396	0.27273	0.1	-47.639
21779	7.396	9.0909e-002	0.1	-22.117
21780	7.1193	0.18182	0.1	-52.965
21781	7.2116	0.27273	0.1	-58.922
21782	7.2116	9.0909e-002	0.1	-27.076
21783	6.9348	0.18182	0.1	-63.227
21784	7.0271	0.27273	0.1	-71.112
21785	7.0271	9.0909e-002	0.1	-32.554
21786	6.7503	0.18182	0.1	-73.842
21787	6.8426	0.27273	0.1	-83.673
21788	6.8426	9.0909e-002	0.1	-38.342
21789	6.5658	0.18182	0.1	-84.066
21790	6.6581	0.27273	0.1	-95.748
21791	6.6581	9.0909e-002	0.1	-44.065
21792	6.3814	0.18182	0.1	-92.794
21793	6.4736	0.27273	0.1	-106.15
21794	6.4736	9.0909e-002	0.1	-49.112
21795	6.1969	0.18182	0.1	-98.618
21796	6.2891	0.27273	0.1	-113.45
21797	6.2891	9.0909e-002	0.1	-52.568
21798	6.0124	0.18182	0.1	-99.933
21799	6.1046	0.27273	0.1	-116.61
21800	6.1046	9.0909e-002	0.1	-53.256
21801	5.8279	0.18182	0.1	-97.488
21802	5.9201	0.27273	0.1	-116.33
21803	5.9201	9.0909e-002	0.1	-49.567
21804	5.6434	0.18182	0.1	-106.83
21805	5.7356	0.27273	0.1	-123.97
21806	5.7356	9.0909e-002	0.1	-42.837
21807	5.5512	0.27273	0.1	-203.57
21808	5.4589	0.18182	0.1	-61.722
21809	5.5512	9.0909e-002	0.1	-52.
21810	23.723	0.36364	0.1	-54.128
21811	23.816	0.45455	0.1	-67.377
21812	23.908	0.36364	0.1	-60.381
21813	23.539	0.36364	0.1	-49.007
21814	23.631	0.45455	0.1	-59.888
21815	23.354	0.36364	0.1	-45.881
21816	23.447	0.45455	0.1	-54.849
21817	23.17	0.36364	0.1	-43.719
21818	23.262	0.45455	0.1	-51.28
21819	22.985	0.36364	0.1	-42.031
21820	23.078	0.45455	0.1	-48.526
21821	22.801	0.36364	0.1	-40.608
21822	22.893	0.45455	0.1	-46.274
21823	22.616	0.36364	0.1	-39.343
21824	22.709	0.45455	0.1	-44.344
21825	22.432	0.36364	0.1	-38.18
21826	22.524	0.45455	0.1	-42.632
21827	22.247	0.36364	0.1	-37.089
21828	22.34	0.45455	0.1	-41.077
21829	22.063	0.36364	0.1	-36.052
21830	22.155	0.45455	0.1	-39.64
21831	21.878	0.36364	0.1	-35.057
21832	21.971	0.45455	0.1	-38.296
21833	21.694	0.36364	0.1	-34.099
21834	21.786	0.45455	0.1	-37.03
21835	21.509	0.36364	0.1	-33.174
21836	21.602	0.45455	0.1	-35.83
21837	21.325	0.36364	0.1	-32.278
21838	21.417	0.45455	0.1	-34.688
21839	21.14	0.36364	0.1	-31.411
21840	21.233	0.45455	0.1	-33.598
21841	20.956	0.36364	0.1	-30.571
21842	21.048	0.45455	0.1	-32.556
21843	20.771	0.36364	0.1	-29.758
21844	20.864	0.45455	0.1	-31.558
21845	20.587	0.36364	0.1	-28.97
21846	20.679	0.45455	0.1	-30.601
21847	20.402	0.36364	0.1	-28.207
21848	20.495	0.45455	0.1	-29.684
21849	20.218	0.36364	0.1	-27.468
21850	20.31	0.45455	0.1	-28.804
21851	20.033	0.36364	0.1	-26.753
21852	20.126	0.45455	0.1	-27.959
21853	19.849	0.36364	0.1	-26.062
21854	19.941	0.45455	0.1	-27.148
21855	19.665	0.36364	0.1	-25.393
21856	19.757	0.45455	0.1	-26.368
21857	19.48	0.36364	0.1	-24.745
21858	19.572	0.45455	0.1	-25.618
21859	19.296	0.36364	0.1	-24.118
21860	19.388	0.45455	0.1	-24.896
21861	19.111	0.36364	0.1	-23.51
21862	19.203	0.45455	0.1	-24.202
21863	18.927	0.36364	0.1	-22.922
21864	19.019	0.45455	0.1	-23.532
21865	18.742	0.36364	0.1	-22.351
21866	18.834	0.45455	0.1	-22.886
21867	18.558	0.36364	0.1	-21.796
21868	18.65	0.45455	0.1	-22.261
21869	18.373	0.36364	0.1	-21.258
21870	18.465	0.45455	0.1	-21.658
21871	18.189	0.36364	0.1	-20.733
21872	18.281	0.45455	0.1	-21.072
21873	18.004	0.36364	0.1	-20.222
21874	18.096	0.45455	0.1	-20.504
21875	17.82	0.36364	0.1	-19.722
21876	17.912	0.45455	0.1	-19.951
21877	17.635	0.36364	0.1	-19.233
21878	17.727	0.45455	0.1	-19.411
21879	17.451	0.36364	0.1	-18.754
21880	17.543	0.45455	0.1	-18.884
21881	17.266	0.36364	0.1	-18.282
21882	17.358	0.45455	0.1	-18.367
21883	17.082	0.36364	0.1	-17.818
21884	17.174	0.45455	0.1	-17.859
21885	16.897	0.36364	0.1	-17.358
21886	16.989	0.45455	0.1	-17.357
21887	16.713	0.36364	0.1	-16.903
21888	16.805	0.45455	0.1	-16.861
21889	16.528	0.36364	0.1	-16.45
21890	16.62	0.45455	0.1	-16.368
21891	16.344	0.36364	0.1	-15.998
21892	16.436	0.45455	0.1	-15.877
21893	16.159	0.36364	0.1	-15.546
21894	16.251	0.45455	0.1	-15.386
21895	15.975	0.36364	0.1	-15.092
21896	16.067	0.45455	0.1	-14.893
21897	15.79	0.36364	0.1	-14.634
21898	15.883	0.45455	0.1	-14.397
21899	15.606	0.36364	0.1	-14.171
21900	15.698	0.45455	0.1	-13.894
21901	15.421	0.36364	0.1	-13.702
21902	15.514	0.45455	0.1	-13.384
21903	15.237	0.36364	0.1	-13.224
21904	15.329	0.45455	0.1	-12.864
21905	15.052	0.36364	0.1	-12.736
21906	15.145	0.45455	0.1	-12.333
21907	14.868	0.36364	0.1	-12.235
21908	14.96	0.45455	0.1	-11.787
21909	14.683	0.36364	0.1	-11.722
21910	14.776	0.45455	0.1	-11.226
21911	14.499	0.36364	0.1	-11.192
21912	14.591	0.45455	0.1	-10.646
21913	14.314	0.36364	0.1	-10.645
21914	14.407	0.45455	0.1	-10.046
21915	14.13	0.36364	0.1	-10.078
21916	14.222	0.45455	0.1	-9.4227
21917	13.945	0.36364	0.1	-9.4898
21918	14.038	0.45455	0.1	-8.7743
21919	13.761	0.36364	0.1	-8.8786
21920	13.853	0.45455	0.1	-8.0986
21921	13.576	0.36364	0.1	-8.2423
21922	13.669	0.45455	0.1	-7.3931
21923	13.392	0.36364	0.1	-7.5793
21924	13.484	0.45455	0.1	-6.6558
21925	13.207	0.36364	0.1	-6.8881
21926	13.3	0.45455	0.1	-5.8843
21927	13.023	0.36364	0.1	-6.1672
21928	13.115	0.45455	0.1	-5.0771
21929	12.838	0.36364	0.1	-5.4155
21930	12.931	0.45455	0.1	-4.2323
21931	12.654	0.36364	0.1	-4.6326
21932	12.746	0.45455	0.1	-3.3488
21933	12.469	0.36364	0.1	-3.8182
21934	12.562	0.45455	0.1	-2.4258
21935	12.285	0.36364	0.1	-2.973
21936	12.377	0.45455	0.1	-1.4631
21937	12.1	0.36364	0.1	-2.0987
21938	12.193	0.45455	0.1	-0.4618
21939	11.916	0.36364	0.1	-1.1988
21940	12.008	0.45455	0.1	-1.0001e-002
21941	11.732	0.36364	0.1	-0.29241
21942	11.824	0.45455	0.1	-1.1464e-002
21943	11.547	0.36364	0.1	-3.2053e-002
21944	11.639	0.45455	0.1	-1.3048e-002
21945	11.363	0.36364	0.1	-2.903e-002
21946	11.455	0.45455	0.1	-1.4779e-002
21947	11.178	0.36364	0.1	-3.0097e-002
21948	11.27	0.45455	0.1	-1.6614e-002
21949	10.994	0.36364	0.1	-3.2091e-002
21950	11.086	0.45455	0.1	-1.8559e-002
21951	10.809	0.36364	0.1	-3.451e-002
21952	10.901	0.45455	0.1	-2.0695e-002
21953	10.625	0.36364	0.1	-3.7178e-002
21954	10.717	0.45455	0.1	-2.2995e-002
21955	10.44	0.36364	0.1	-4.0036e-002
21956	10.532	0.45455	0.1	-2.5495e-002
21957	10.256	0.36364	0.1	-4.3111e-002
21958	10.348	0.45455	0.1	-2.8229e-002
21959	10.071	0.36364	0.1	-4.6453e-002
21960	10.163	0.45455	0.1	-3.1344e-002
21961	9.8866	0.36364	0.1	-5.0158e-002
21962	9.9789	0.45455	0.1	-3.4896e-002
21963	9.7021	0.36364	0.1	-5.4574e-002
21964	9.7944	0.45455	0.1	-3.9099e-002
21965	9.5177	0.36364	0.1	-6.0473e-002
21966	9.6099	0.45455	0.1	-4.4429e-002
21967	9.3332	0.36364	0.1	-6.9735e-002
21968	9.4254	0.45455	0.1	-5.1717e-002
21969	9.1487	0.36364	0.1	-8.7869e-002
21970	9.2409	0.45455	0.1	-6.2836e-002
21971	8.9642	0.36364	0.1	-0.13753
21972	9.0564	0.45455	0.1	-8.2527e-002
21973	8.7797	0.36364	0.1	-0.43526
21974	8.8719	0.45455	0.1	-0.12637
21975	8.5952	0.36364	0.1	-2.941
21976	8.6875	0.45455	0.1	-0.28174
21977	8.4107	0.36364	0.1	-7.3651
21978	8.503	0.45455	0.1	-1.8495
21979	8.2262	0.36364	0.1	-13.046
21980	8.3185	0.45455	0.1	-7.0322
21981	8.0417	0.36364	0.1	-20.066
21982	8.134	0.45455	0.1	-13.981
21983	7.8573	0.36364	0.1	-28.535
21984	7.9495	0.45455	0.1	-22.546
21985	7.6728	0.36364	0.1	-38.523
21986	7.765	0.45455	0.1	-32.819
21987	7.4883	0.36364	0.1	-50.02
21988	7.5805	0.45455	0.1	-44.852
21989	7.3038	0.36364	0.1	-62.885
21990	7.396	0.45455	0.1	-58.604
21991	7.1193	0.36364	0.1	-76.78
21992	7.2116	0.45455	0.1	-73.881
21993	6.9348	0.36364	0.1	-91.094
21994	7.0271	0.45455	0.1	-90.275
21995	6.7503	0.36364	0.1	-104.87
21996	6.8426	0.45455	0.1	-107.1
21997	6.5658	0.36364	0.1	-116.79
21998	6.6581	0.45455	0.1	-123.4
21999	6.3814	0.36364	0.1	-125.32
22000	6.4736	0.45455	0.1	-138.01
22001	6.1969	0.36364	0.1	-129.3
22002	6.2891	0.45455	0.1	-150.14
22003	6.0124	0.36364	0.1	-129.63
22004	6.1046	0.45455	0.1	-160.76
22005	5.8279	0.36364	0.1	-135.86
22006	5.9201	0.45455	0.1	-176.2
22007	5.6434	0.36364	0.1	-196.9
22008	5.7356	0.45455	0.1	-221.58
22009	5.5512	0.45455	0.1	-393.65
22010	5.4589	0.36364	0.1	-200.84
22011	23.723	0.54545	0.1	-73.281
22012	23.816	0.63636	0.1	-85.996
22013	23.908	0.54545	0.1	-81.107
22014	23.539	0.54545	0.1	-65.933
22015	23.631	0.63636	0.1	-77.106
22016	23.354	0.54545	0.1	-60.475
22017	23.447	0.63636	0.1	-70.136
22018	23.17	0.54545	0.1	-56.307
22019	23.262	0.63636	0.1	-64.689
22020	22.985	0.54545	0.1	-52.971
22021	23.078	0.63636	0.1	-60.285
22022	22.801	0.54545	0.1	-50.191
22023	22.893	0.63636	0.1	-56.627
22024	22.616	0.54545	0.1	-47.794
22025	22.709	0.63636	0.1	-53.501
22026	22.432	0.54545	0.1	-45.672
22027	22.524	0.63636	0.1	-50.766
22028	22.247	0.54545	0.1	-43.757
22029	22.34	0.63636	0.1	-48.327
22030	22.063	0.54545	0.1	-42.002
22031	22.155	0.63636	0.1	-46.12
22032	21.878	0.54545	0.1	-40.377
22033	21.971	0.63636	0.1	-44.1
22034	21.694	0.54545	0.1	-38.86
22035	21.786	0.63636	0.1	-42.234
22036	21.509	0.54545	0.1	-37.436
22037	21.602	0.63636	0.1	-40.5
22038	21.325	0.54545	0.1	-36.093
22039	21.417	0.63636	0.1	-38.878
22040	21.14	0.54545	0.1	-34.822
22041	21.233	0.63636	0.1	-37.357
22042	20.956	0.54545	0.1	-33.618
22043	21.048	0.63636	0.1	-35.925
22044	20.771	0.54545	0.1	-32.473
22045	20.864	0.63636	0.1	-34.573
22046	20.587	0.54545	0.1	-31.383
22047	20.679	0.63636	0.1	-33.296
22048	20.402	0.54545	0.1	-30.346
22049	20.495	0.63636	0.1	-32.086
22050	20.218	0.54545	0.1	-29.356
22051	20.31	0.63636	0.1	-30.939
22052	20.033	0.54545	0.1	-28.412
22053	20.126	0.63636	0.1	-29.85
22054	19.849	0.54545	0.1	-27.51
22055	19.941	0.63636	0.1	-28.815
22056	19.665	0.54545	0.1	-26.647
22057	19.757	0.63636	0.1	-27.83
22058	19.48	0.54545	0.1	-25.822
22059	19.572	0.63636	0.1	-26.892
22060	19.296	0.54545	0.1	-25.031
22061	19.388	0.63636	0.1	-25.997
22062	19.111	0.54545	0.1	-24.272
22063	19.203	0.63636	0.1	-25.143
22064	18.927	0.54545	0.1	-23.544
22065	19.019	0.63636	0.1	-24.325
22066	18.742	0.54545	0.1	-22.843
22067	18.834	0.63636	0.1	-23.543
22068	18.558	0.54545	0.1	-22.168
22069	18.65	0.63636	0.1	-22.791
22070	18.373	0.54545	0.1	-21.516
22071	18.465	0.63636	0.1	-22.069
22072	18.189	0.54545	0.1	-20.886
22073	18.281	0.63636	0.1	-21.373
22074	18.004	0.54545	0.1	-20.275
22075	18.096	0.63636	0.1	-20.7
22076	17.82	0.54545	0.1	-19.681
22077	17.912	0.63636	0.1	-20.049
22078	17.635	0.54545	0.1	-19.103
22079	17.727	0.63636	0.1	-19.416
22080	17.451	0.54545	0.1	-18.537
22081	17.543	0.63636	0.1	-18.8
22082	17.266	0.54545	0.1	-17.982
22083	17.358	0.63636	0.1	-18.197
22084	17.082	0.54545	0.1	-17.436
22085	17.174	0.63636	0.1	-17.606
22086	16.897	0.54545	0.1	-16.897
22087	16.989	0.63636	0.1	-17.023
22088	16.713	0.54545	0.1	-16.363
22089	16.805	0.63636	0.1	-16.447
22090	16.528	0.54545	0.1	-15.832
22091	16.62	0.63636	0.1	-15.876
22092	16.344	0.54545	0.1	-15.301
22093	16.436	0.63636	0.1	-15.305
22094	16.159	0.54545	0.1	-14.769
22095	16.251	0.63636	0.1	-14.735
22096	15.975	0.54545	0.1	-14.233
22097	16.067	0.63636	0.1	-14.16
22098	15.79	0.54545	0.1	-13.691
22099	15.883	0.63636	0.1	-13.58
22100	15.606	0.54545	0.1	-13.14
22101	15.698	0.63636	0.1	-12.992
22102	15.421	0.54545	0.1	-12.579
22103	15.514	0.63636	0.1	-12.393
22104	15.237	0.54545	0.1	-12.006
22105	15.329	0.63636	0.1	-11.779
22106	15.052	0.54545	0.1	-11.416
22107	15.145	0.63636	0.1	-11.15
22108	14.868	0.54545	0.1	-10.809
22109	14.96	0.63636	0.1	-10.501
22110	14.683	0.54545	0.1	-10.181
22111	14.776	0.63636	0.1	-9.8293
22112	14.499	0.54545	0.1	-9.5302
22113	14.591	0.63636	0.1	-9.1327
22114	14.314	0.54545	0.1	-8.8535
22115	14.407	0.63636	0.1	-8.4077
22116	14.13	0.54545	0.1	-8.1482
22117	14.222	0.63636	0.1	-7.6514
22118	13.945	0.54545	0.1	-7.4117
22119	14.038	0.63636	0.1	-6.8604
22120	13.761	0.54545	0.1	-6.6412
22121	13.853	0.63636	0.1	-6.0318
22122	13.576	0.54545	0.1	-5.8342
22123	13.669	0.63636	0.1	-5.1622
22124	13.392	0.54545	0.1	-4.988
22125	13.484	0.63636	0.1	-4.2488
22126	13.207	0.54545	0.1	-4.1003
22127	13.3	0.63636	0.1	-3.2884
22128	13.023	0.54545	0.1	-3.1689
22129	13.115	0.63636	0.1	-2.2788
22130	12.838	0.54545	0.1	-2.1921
22131	12.931	0.63636	0.1	-1.2185
22132	12.654	0.54545	0.1	-1.1691
22133	12.746	0.63636	0.1	-0.14423
22134	12.469	0.54545	0.1	-0.1164
22135	12.562	0.63636	0.1	-9.0232e-003
22136	12.285	0.54545	0.1	-5.6681e-003
22137	12.377	0.63636	0.1	-6.2476e-003
22138	12.1	0.54545	0.1	-5.1869e-003
22139	12.193	0.63636	0.1	-5.8454e-003
22140	11.916	0.54545	0.1	-5.6385e-003
22141	12.008	0.63636	0.1	-6.057e-003
22142	11.732	0.54545	0.1	-6.3892e-003
22143	11.824	0.63636	0.1	-6.603e-003
22144	11.547	0.54545	0.1	-7.3308e-003
22145	11.639	0.63636	0.1	-7.3388e-003
22146	11.363	0.54545	0.1	-8.4389e-003
22147	11.455	0.63636	0.1	-8.2785e-003
22148	11.178	0.54545	0.1	-9.6946e-003
22149	11.27	0.63636	0.1	-9.3706e-003
22150	10.994	0.54545	0.1	-1.1152e-002
22151	11.086	0.63636	0.1	-1.0627e-002
22152	10.809	0.54545	0.1	-1.2855e-002
22153	10.901	0.63636	0.1	-1.2144e-002
22154	10.625	0.54545	0.1	-1.4834e-002
22155	10.717	0.63636	0.1	-1.3915e-002
22156	10.44	0.54545	0.1	-1.716e-002
22157	10.532	0.63636	0.1	-1.6008e-002
22158	10.256	0.54545	0.1	-1.9965e-002
22159	10.348	0.63636	0.1	-1.8499e-002
22160	10.071	0.54545	0.1	-2.3406e-002
22161	10.163	0.63636	0.1	-2.1583e-002
22162	9.8866	0.54545	0.1	-2.7677e-002
22163	9.9789	0.63636	0.1	-2.5375e-002
22164	9.7021	0.54545	0.1	-3.3186e-002
22165	9.7944	0.63636	0.1	-3.0145e-002
22166	9.5177	0.54545	0.1	-4.0619e-002
22167	9.6099	0.63636	0.1	-3.6404e-002
22168	9.3332	0.54545	0.1	-5.1229e-002
22169	9.4254	0.63636	0.1	-4.4915e-002
22170	9.1487	0.54545	0.1	-6.7631e-002
22171	9.2409	0.63636	0.1	-5.7109e-002
22172	8.9642	0.54545	0.1	-9.6153e-002
22173	9.0564	0.63636	0.1	-7.583e-002
22174	8.7797	0.54545	0.1	-0.15642
22175	8.8719	0.63636	0.1	-0.10751
22176	8.5952	0.54545	0.1	-0.34677
22177	8.6875	0.63636	0.1	-0.16986
22178	8.4107	0.54545	0.1	-1.9208
22179	8.503	0.63636	0.1	-0.33154
22180	8.2262	0.54545	0.1	-8.0439
22181	8.3185	0.63636	0.1	-1.1413
22182	8.0417	0.54545	0.1	-16.484
22183	8.134	0.63636	0.1	-6.4418
22184	7.8573	0.54545	0.1	-26.816
22185	7.9495	0.63636	0.1	-15.731
22186	7.6728	0.54545	0.1	-39.087
22187	7.765	0.63636	0.1	-27.29
22188	7.4883	0.54545	0.1	-53.305
22189	7.5805	0.63636	0.1	-41.056
22190	7.3038	0.54545	0.1	-69.364
22191	7.396	0.63636	0.1	-57.049
22192	7.1193	0.54545	0.1	-86.979
22193	7.2116	0.63636	0.1	-75.221
22194	6.9348	0.54545	0.1	-105.65
22195	7.0271	0.63636	0.1	-95.409
22196	6.7503	0.54545	0.1	-124.62
22197	6.8426	0.63636	0.1	-117.35
22198	6.5658	0.54545	0.1	-143.05
22199	6.6581	0.63636	0.1	-140.79
22200	6.3814	0.54545	0.1	-160.35
22201	6.4736	0.63636	0.1	-165.79
22202	6.1969	0.54545	0.1	-177.46
22203	6.2891	0.63636	0.1	-193.55
22204	6.0124	0.54545	0.1	-199.7
22205	6.1046	0.63636	0.1	-228.55
22206	5.8279	0.54545	0.1	-245.54
22207	5.9201	0.63636	0.1	-282.61
22208	5.6434	0.54545	0.1	-380.46
22209	5.7356	0.63636	0.1	-387.3
22210	5.5512	0.63636	0.1	-645.35
22211	5.4589	0.54545	0.1	-389.72
22212	23.723	0.72727	0.1	-89.885
22213	23.816	0.81818	0.1	-101.85
22214	23.908	0.72727	0.1	-98.471
22215	23.539	0.72727	0.1	-81.399
22216	23.631	0.81818	0.1	-92.309
22217	23.354	0.72727	0.1	-74.465
22218	23.447	0.81818	0.1	-84.225
22219	23.17	0.72727	0.1	-68.794
22220	23.262	0.81818	0.1	-77.486
22221	22.985	0.72727	0.1	-64.071
22222	23.078	0.81818	0.1	-71.796
22223	22.801	0.72727	0.1	-60.062
22224	22.893	0.81818	0.1	-66.944
22225	22.616	0.72727	0.1	-56.591
22226	22.709	0.81818	0.1	-62.742
22227	22.432	0.72727	0.1	-53.531
22228	22.524	0.81818	0.1	-59.05
22229	22.247	0.72727	0.1	-50.793
22230	22.34	0.81818	0.1	-55.761
22231	22.063	0.72727	0.1	-48.313
22232	22.155	0.81818	0.1	-52.8
22233	21.878	0.72727	0.1	-46.046
22234	21.971	0.81818	0.1	-50.107
22235	21.694	0.72727	0.1	-43.956
22236	21.786	0.81818	0.1	-47.64
22237	21.509	0.72727	0.1	-42.019
22238	21.602	0.81818	0.1	-45.366
22239	21.325	0.72727	0.1	-40.214
22240	21.417	0.81818	0.1	-43.259
22241	21.14	0.72727	0.1	-38.527
22242	21.233	0.81818	0.1	-41.299
22243	20.956	0.72727	0.1	-36.945
22244	21.048	0.81818	0.1	-39.47
22245	20.771	0.72727	0.1	-35.458
22246	20.864	0.81818	0.1	-37.759
22247	20.587	0.72727	0.1	-34.057
22248	20.679	0.81818	0.1	-36.154
22249	20.402	0.72727	0.1	-32.735
22250	20.495	0.81818	0.1	-34.645
22251	20.218	0.72727	0.1	-31.486
22252	20.31	0.81818	0.1	-33.226
22253	20.033	0.72727	0.1	-30.304
22254	20.126	0.81818	0.1	-31.888
22255	19.849	0.72727	0.1	-29.185
22256	19.941	0.81818	0.1	-30.625
22257	19.665	0.72727	0.1	-28.123
22258	19.757	0.81818	0.1	-29.431
22259	19.48	0.72727	0.1	-27.114
22260	19.572	0.81818	0.1	-28.301
22261	19.296	0.72727	0.1	-26.154
22262	19.388	0.81818	0.1	-27.23
22263	19.111	0.72727	0.1	-25.239
22264	19.203	0.81818	0.1	-26.213
22265	18.927	0.72727	0.1	-24.366
22266	19.019	0.81818	0.1	-25.245
22267	18.742	0.72727	0.1	-23.532
22268	18.834	0.81818	0.1	-24.323
22269	18.558	0.72727	0.1	-22.732
22270	18.65	0.81818	0.1	-23.443
22271	18.373	0.72727	0.1	-21.964
22272	18.465	0.81818	0.1	-22.6
22273	18.189	0.72727	0.1	-21.225
22274	18.281	0.81818	0.1	-21.791
22275	18.004	0.72727	0.1	-20.511
22276	18.096	0.81818	0.1	-21.013
22277	17.82	0.72727	0.1	-19.82
22278	17.912	0.81818	0.1	-20.263
22279	17.635	0.72727	0.1	-19.149
22280	17.727	0.81818	0.1	-19.536
22281	17.451	0.72727	0.1	-18.495
22282	17.543	0.81818	0.1	-18.829
22283	17.266	0.72727	0.1	-17.855
22284	17.358	0.81818	0.1	-18.14
22285	17.082	0.72727	0.1	-17.226
22286	17.174	0.81818	0.1	-17.465
22287	16.897	0.72727	0.1	-16.606
22288	16.989	0.81818	0.1	-16.801
22289	16.713	0.72727	0.1	-15.992
22290	16.805	0.81818	0.1	-16.146
22291	16.528	0.72727	0.1	-15.381
22292	16.62	0.81818	0.1	-15.495
22293	16.344	0.72727	0.1	-14.77
22294	16.436	0.81818	0.1	-14.846
22295	16.159	0.72727	0.1	-14.157
22296	16.251	0.81818	0.1	-14.195
22297	15.975	0.72727	0.1	-13.538
22298	16.067	0.81818	0.1	-13.54
22299	15.79	0.72727	0.1	-12.912
22300	15.883	0.81818	0.1	-12.878
22301	15.606	0.72727	0.1	-12.274
22302	15.698	0.81818	0.1	-12.204
22303	15.421	0.72727	0.1	-11.621
22304	15.514	0.81818	0.1	-11.517
22305	15.237	0.72727	0.1	-10.952
22306	15.329	0.81818	0.1	-10.811
22307	15.052	0.72727	0.1	-10.262
22308	15.145	0.81818	0.1	-10.085
22309	14.868	0.72727	0.1	-9.5483
22310	14.96	0.81818	0.1	-9.3342
22311	14.683	0.72727	0.1	-8.8076
22312	14.776	0.81818	0.1	-8.5551
22313	14.499	0.72727	0.1	-8.0365
22314	14.591	0.81818	0.1	-7.7438
22315	14.314	0.72727	0.1	-7.2315
22316	14.407	0.81818	0.1	-6.8966
22317	14.13	0.72727	0.1	-6.389
22318	14.222	0.81818	0.1	-6.0096
22319	13.945	0.72727	0.1	-5.5055
22320	14.038	0.81818	0.1	-5.0787
22321	13.761	0.72727	0.1	-4.5773
22322	13.853	0.81818	0.1	-4.1002
22323	13.576	0.72727	0.1	-3.6011
22324	13.669	0.81818	0.1	-3.0698
22325	13.392	0.72727	0.1	-2.5737
22326	13.484	0.81818	0.1	-1.9849
22327	13.207	0.72727	0.1	-1.4929
22328	13.3	0.81818	0.1	-0.84722
22329	13.023	0.72727	0.1	-0.37387
22330	13.115	0.81818	0.1	-3.9023e-002
22331	12.838	0.72727	0.1	-1.5631e-002
22332	12.931	0.81818	0.1	-1.1666e-002
22333	12.654	0.72727	0.1	-8.3369e-003
22334	12.746	0.81818	0.1	-7.8805e-003
22335	12.469	0.72727	0.1	-6.8259e-003
22336	12.562	0.81818	0.1	-6.6808e-003
22337	12.285	0.72727	0.1	-6.4916e-003
22338	12.377	0.81818	0.1	-6.2974e-003
22339	12.1	0.72727	0.1	-6.6289e-003
22340	12.193	0.81818	0.1	-6.3055e-003
22341	11.916	0.72727	0.1	-7.0548e-003
22342	12.008	0.81818	0.1	-6.5527e-003
22343	11.732	0.72727	0.1	-7.6924e-003
22344	11.824	0.81818	0.1	-7.0229e-003
22345	11.547	0.72727	0.1	-8.5119e-003
22346	11.639	0.81818	0.1	-7.6449e-003
22347	11.363	0.72727	0.1	-9.5073e-003
22348	11.455	0.81818	0.1	-8.4575e-003
22349	11.178	0.72727	0.1	-1.0664e-002
22350	11.27	0.81818	0.1	-9.4227e-003
22351	10.994	0.72727	0.1	-1.204e-002
22352	11.086	0.81818	0.1	-1.0559e-002
22353	10.809	0.72727	0.1	-1.3683e-002
22354	10.901	0.81818	0.1	-1.1971e-002
22355	10.625	0.72727	0.1	-1.5627e-002
22356	10.717	0.81818	0.1	-1.3659e-002
22357	10.44	0.72727	0.1	-1.7946e-002
22358	10.532	0.81818	0.1	-1.5698e-002
22359	10.256	0.72727	0.1	-2.0783e-002
22360	10.348	0.81818	0.1	-1.8174e-002
22361	10.071	0.72727	0.1	-2.4296e-002
22362	10.163	0.81818	0.1	-2.1293e-002
22363	9.8866	0.72727	0.1	-2.8682e-002
22364	9.9789	0.81818	0.1	-2.5179e-002
22365	9.7021	0.72727	0.1	-3.4329e-002
22366	9.7944	0.81818	0.1	-3.0105e-002
22367	9.5177	0.72727	0.1	-4.185e-002
22368	9.6099	0.81818	0.1	-3.6562e-002
22369	9.3332	0.72727	0.1	-5.2253e-002
22370	9.4254	0.81818	0.1	-4.5228e-002
22371	9.1487	0.72727	0.1	-6.7374e-002
22372	9.2409	0.81818	0.1	-5.7267e-002
22373	8.9642	0.72727	0.1	-9.0817e-002
22374	9.0564	0.81818	0.1	-7.4705e-002
22375	8.7797	0.72727	0.1	-0.13054
22376	8.8719	0.81818	0.1	-0.10136
22377	8.5952	0.72727	0.1	-0.20738
22378	8.6875	0.81818	0.1	-0.14515
22379	8.4107	0.72727	0.1	-0.39471
22380	8.503	0.81818	0.1	-0.22483
22381	8.2262	0.72727	0.1	-1.1532
22382	8.3185	0.81818	0.1	-0.39567
22383	8.0417	0.72727	0.1	-6.071
22384	8.134	0.81818	0.1	-0.89691
22385	7.8573	0.72727	0.1	-16.28
22386	7.9495	0.81818	0.1	-3.5633
22387	7.6728	0.72727	0.1	-29.224
22388	7.765	0.81818	0.1	-12.974
22389	7.4883	0.72727	0.1	-44.654
22390	7.5805	0.81818	0.1	-26.639
22391	7.3038	0.72727	0.1	-62.603
22392	7.396	0.81818	0.1	-43.348
22393	7.1193	0.72727	0.1	-83.103
22394	7.2116	0.81818	0.1	-63.187
22395	6.9348	0.72727	0.1	-106.18
22396	7.0271	0.81818	0.1	-86.5
22397	6.7503	0.72727	0.1	-131.95
22398	6.8426	0.81818	0.1	-113.9
22399	6.5658	0.72727	0.1	-160.9
22400	6.6581	0.81818	0.1	-146.52
22401	6.3814	0.72727	0.1	-194.56
22402	6.4736	0.81818	0.1	-186.57
22403	6.1969	0.72727	0.1	-237.
22404	6.2891	0.81818	0.1	-238.36
22405	6.0124	0.72727	0.1	-297.82
22406	6.1046	0.81818	0.1	-310.42
22407	5.8279	0.72727	0.1	-399.61
22408	5.9201	0.81818	0.1	-418.2
22409	5.6434	0.72727	0.1	-611.5
22410	5.7356	0.81818	0.1	-592.88
22411	5.5512	0.81818	0.1	-940.54
22412	5.4589	0.72727	0.1	-610.33
22413	23.723	0.90909	0.1	-104.31
22414	23.816	1.	0.1	-115.52
22415	23.908	0.90909	0.1	-113.34
22416	23.539	0.90909	0.1	-95.185
22417	23.631	1.	0.1	-105.63
22418	23.354	0.90909	0.1	-87.312
22419	23.447	1.	0.1	-96.872
22420	23.17	0.90909	0.1	-80.567
22421	23.262	1.	0.1	-89.261
22422	22.985	0.90909	0.1	-74.756
22423	23.078	1.	0.1	-82.615
22424	22.801	0.90909	0.1	-69.714
22425	22.893	1.	0.1	-76.806
22426	22.616	0.90909	0.1	-65.29
22427	22.709	1.	0.1	-71.691
22428	22.432	0.90909	0.1	-61.367
22429	22.524	1.	0.1	-67.15
22430	22.247	0.90909	0.1	-57.851
22431	22.34	1.	0.1	-63.085
22432	22.063	0.90909	0.1	-54.673
22433	22.155	1.	0.1	-59.417
22434	21.878	0.90909	0.1	-51.777
22435	21.971	1.	0.1	-56.085
22436	21.694	0.90909	0.1	-49.122
22437	21.786	1.	0.1	-53.038
22438	21.509	0.90909	0.1	-46.675
22439	21.602	1.	0.1	-50.239
22440	21.325	0.90909	0.1	-44.41
22441	21.417	1.	0.1	-47.656
22442	21.14	0.90909	0.1	-42.305
22443	21.233	1.	0.1	-45.264
22444	20.956	0.90909	0.1	-40.344
22445	21.048	1.	0.1	-43.042
22446	20.771	0.90909	0.1	-38.512
22447	20.864	1.	0.1	-40.973
22448	20.587	0.90909	0.1	-36.797
22449	20.679	1.	0.1	-39.042
22450	20.402	0.90909	0.1	-35.189
22451	20.495	1.	0.1	-37.237
22452	20.218	0.90909	0.1	-33.679
22453	20.31	1.	0.1	-35.546
22454	20.033	0.90909	0.1	-32.258
22455	20.126	1.	0.1	-33.96
22456	19.849	0.90909	0.1	-30.919
22457	19.941	1.	0.1	-32.469
22458	19.665	0.90909	0.1	-29.656
22459	19.757	1.	0.1	-31.067
22460	19.48	0.90909	0.1	-28.462
22461	19.572	1.	0.1	-29.746
22462	19.296	0.90909	0.1	-27.332
22463	19.388	1.	0.1	-28.499
22464	19.111	0.90909	0.1	-26.261
22465	19.203	1.	0.1	-27.319
22466	18.927	0.90909	0.1	-25.243
22467	19.019	1.	0.1	-26.202
22468	18.742	0.90909	0.1	-24.274
22469	18.834	1.	0.1	-25.142
22470	18.558	0.90909	0.1	-23.35
22471	18.65	1.	0.1	-24.133
22472	18.373	0.90909	0.1	-22.466
22473	18.465	1.	0.1	-23.171
22474	18.189	0.90909	0.1	-21.618
22475	18.281	1.	0.1	-22.251
22476	18.004	0.90909	0.1	-20.802
22477	18.096	1.	0.1	-21.369
22478	17.82	0.90909	0.1	-20.014
22479	17.912	1.	0.1	-20.52
22480	17.635	0.90909	0.1	-19.251
22481	17.727	1.	0.1	-19.7
22482	17.451	0.90909	0.1	-18.509
22483	17.543	1.	0.1	-18.905
22484	17.266	0.90909	0.1	-17.784
22485	17.358	1.	0.1	-18.13
22486	17.082	0.90909	0.1	-17.073
22487	17.174	1.	0.1	-17.373
22488	16.897	0.90909	0.1	-16.373
22489	16.989	1.	0.1	-16.63
22490	16.713	0.90909	0.1	-15.68
22491	16.805	1.	0.1	-15.896
22492	16.528	0.90909	0.1	-14.991
22493	16.62	1.	0.1	-15.167
22494	16.344	0.90909	0.1	-14.301
22495	16.436	1.	0.1	-14.441
22496	16.159	0.90909	0.1	-13.609
22497	16.251	1.	0.1	-13.713
22498	15.975	0.90909	0.1	-12.909
22499	16.067	1.	0.1	-12.98
22500	15.79	0.90909	0.1	-12.2
22501	15.883	1.	0.1	-12.237
22502	15.606	0.90909	0.1	-11.476
22503	15.698	1.	0.1	-11.482
22504	15.421	0.90909	0.1	-10.735
22505	15.514	1.	0.1	-10.709
22506	15.237	0.90909	0.1	-9.9726
22507	15.329	1.	0.1	-9.9144
22508	15.052	0.90909	0.1	-9.1848
22509	15.145	1.	0.1	-9.0948
22510	14.868	0.90909	0.1	-8.3678
22511	14.96	1.	0.1	-8.2455
22512	14.683	0.90909	0.1	-7.5176
22513	14.776	1.	0.1	-7.3622
22514	14.499	0.90909	0.1	-6.6297
22515	14.591	1.	0.1	-6.4403
22516	14.314	0.90909	0.1	-5.7001
22517	14.407	1.	0.1	-5.4751
22518	14.13	0.90909	0.1	-4.7243
22519	14.222	1.	0.1	-4.462
22520	13.945	0.90909	0.1	-3.6981
22521	14.038	1.	0.1	-3.3963
22522	13.761	0.90909	0.1	-2.6173
22523	13.853	1.	0.1	-2.274
22524	13.576	0.90909	0.1	-1.4798
22525	13.669	1.	0.1	-1.0951
22526	13.392	0.90909	0.1	-0.31857
22527	13.484	1.	0.1	-8.2151e-002
22528	13.207	0.90909	0.1	-2.0165e-002
22529	13.3	1.	0.1	-1.6132e-002
22530	13.023	0.90909	0.1	-1.0257e-002
22531	13.115	1.	0.1	-9.7669e-003
22532	12.838	0.90909	0.1	-7.6013e-003
22533	12.931	1.	0.1	-7.5906e-003
22534	12.654	0.90909	0.1	-6.5456e-003
22535	12.746	1.	0.1	-6.5938e-003
22536	12.469	0.90909	0.1	-6.1342e-003
22537	12.562	1.	0.1	-6.1583e-003
22538	12.285	0.90909	0.1	-6.0534e-003
22539	12.377	1.	0.1	-6.0128e-003
22540	12.1	0.90909	0.1	-6.1873e-003
22541	12.193	1.	0.1	-6.0637e-003
22542	11.916	0.90909	0.1	-6.5068e-003
22543	12.008	1.	0.1	-6.2643e-003
22544	11.732	0.90909	0.1	-6.9916e-003
22545	11.824	1.	0.1	-6.6407e-003
22546	11.547	0.90909	0.1	-7.6364e-003
22547	11.639	1.	0.1	-7.1436e-003
22548	11.363	0.90909	0.1	-8.448e-003
22549	11.455	1.	0.1	-7.8219e-003
22550	11.178	0.90909	0.1	-9.422e-003
22551	11.27	1.	0.1	-8.6464e-003
22552	10.994	0.90909	0.1	-1.0623e-002
22553	11.086	1.	0.1	-9.6418e-003
22554	10.809	0.90909	0.1	-1.211e-002
22555	10.901	1.	0.1	-1.0916e-002
22556	10.625	0.90909	0.1	-1.3925e-002
22557	10.717	1.	0.1	-1.2479e-002
22558	10.44	0.90909	0.1	-1.6154e-002
22559	10.532	1.	0.1	-1.4411e-002
22560	10.256	0.90909	0.1	-1.895e-002
22561	10.348	1.	0.1	-1.6805e-002
22562	10.071	0.90909	0.1	-2.2486e-002
22563	10.163	1.	0.1	-1.9874e-002
22564	9.8866	0.90909	0.1	-2.6965e-002
22565	9.9789	1.	0.1	-2.3747e-002
22566	9.7021	0.90909	0.1	-3.277e-002
22567	9.7944	1.	0.1	-2.8693e-002
22568	9.5177	0.90909	0.1	-4.0468e-002
22569	9.6099	1.	0.1	-3.5178e-002
22570	9.3332	0.90909	0.1	-5.0922e-002
22571	9.4254	1.	0.1	-4.3806e-002
22572	9.1487	0.90909	0.1	-6.5554e-002
22573	9.2409	1.	0.1	-5.5545e-002
22574	8.9642	0.90909	0.1	-8.6809e-002
22575	9.0564	1.	0.1	-7.1935e-002
22576	8.7797	0.90909	0.1	-0.11918
22577	8.8719	1.	0.1	-9.5553e-002
22578	8.5952	0.90909	0.1	-0.17161
22579	8.6875	1.	0.1	-0.13095
22580	8.4107	0.90909	0.1	-0.26416
22581	8.503	1.	0.1	-0.18669
22582	8.2262	0.90909	0.1	-0.45056
22583	8.3185	1.	0.1	-0.28047
22584	8.0417	0.90909	0.1	-0.92453
22585	8.134	1.	0.1	-0.45408
22586	7.8573	0.90909	0.1	-2.8214
22587	7.9495	1.	0.1	-0.82874
22588	7.6728	0.90909	0.1	-10.982
22589	7.765	1.	0.1	-1.899
22590	7.4883	0.90909	0.1	-25.362
22591	7.5805	1.	0.1	-6.4715
22592	7.3038	0.90909	0.1	-43.654
22593	7.396	1.	0.1	-19.562
22594	7.1193	0.90909	0.1	-65.939
22595	7.2116	1.	0.1	-38.991
22596	6.9348	0.90909	0.1	-93.011
22597	7.0271	1.	0.1	-64.055
22598	6.7503	0.90909	0.1	-126.33
22599	6.8426	1.	0.1	-96.221
22600	6.5658	0.90909	0.1	-168.48
22601	6.6581	1.	0.1	-138.43
22602	6.3814	0.90909	0.1	-223.97
22603	6.4736	1.	0.1	-195.75
22604	6.1969	0.90909	0.1	-300.77
22605	6.2891	1.	0.1	-276.56
22606	6.0124	0.90909	0.1	-412.16
22607	6.1046	1.	0.1	-394.27
22608	5.8279	0.90909	0.1	-581.59
22609	5.9201	1.	0.1	-567.87
22610	5.6434	0.90909	0.1	-879.64
22611	5.7356	1.	0.1	-826.92
22612	5.5512	1.	0.1	-1285.
22613	5.4589	0.90909	0.1	-867.31
22614	23.723	1.0909	0.1	-116.86
22615	23.816	1.1818	0.1	-127.36
22616	23.908	1.0909	0.1	-126.19
22617	23.539	1.0909	0.1	-107.35
22618	23.631	1.1818	0.1	-117.28
22619	23.354	1.0909	0.1	-98.864
22620	23.447	1.1818	0.1	-108.09
22621	23.17	1.0909	0.1	-91.361
22622	23.262	1.1818	0.1	-99.876
22623	22.985	1.0909	0.1	-84.725
22624	23.078	1.1818	0.1	-92.531
22625	22.801	1.0909	0.1	-78.849
22626	22.893	1.1818	0.1	-85.977
22627	22.616	1.0909	0.1	-73.619
22628	22.709	1.1818	0.1	-80.115
22629	22.432	1.0909	0.1	-68.938
22630	22.524	1.1818	0.1	-74.852
22631	22.247	1.0909	0.1	-64.72
22632	22.34	1.1818	0.1	-70.104
22633	22.063	1.0909	0.1	-60.896
22634	22.155	1.1818	0.1	-65.8
22635	21.878	1.0909	0.1	-57.411
22636	21.971	1.1818	0.1	-61.879
22637	21.694	1.0909	0.1	-54.218
22638	21.786	1.1818	0.1	-58.292
22639	21.509	1.0909	0.1	-51.281
22640	21.602	1.1818	0.1	-54.997
22641	21.325	1.0909	0.1	-48.569
22642	21.417	1.1818	0.1	-51.961
22643	21.14	1.0909	0.1	-46.058
22644	21.233	1.1818	0.1	-49.155
22645	20.956	1.0909	0.1	-43.726
22646	21.048	1.1818	0.1	-46.554
22647	20.771	1.0909	0.1	-41.556
22648	20.864	1.1818	0.1	-44.14
22649	20.587	1.0909	0.1	-39.533
22650	20.679	1.1818	0.1	-41.893
22651	20.402	1.0909	0.1	-37.643
22652	20.495	1.1818	0.1	-39.798
22653	20.218	1.0909	0.1	-35.875
22654	20.31	1.1818	0.1	-37.843
22655	20.033	1.0909	0.1	-34.218
22656	20.126	1.1818	0.1	-36.014
22657	19.849	1.0909	0.1	-32.663
22658	19.941	1.1818	0.1	-34.302
22659	19.665	1.0909	0.1	-31.202
22660	19.757	1.1818	0.1	-32.696
22661	19.48	1.0909	0.1	-29.826
22662	19.572	1.1818	0.1	-31.188
22663	19.296	1.0909	0.1	-28.528
22664	19.388	1.1818	0.1	-29.769
22665	19.111	1.0909	0.1	-27.303
22666	19.203	1.1818	0.1	-28.432
22667	18.927	1.0909	0.1	-26.142
22668	19.019	1.1818	0.1	-27.169
22669	18.742	1.0909	0.1	-25.041
22670	18.834	1.1818	0.1	-25.973
22671	18.558	1.0909	0.1	-23.994
22672	18.65	1.1818	0.1	-24.839
22673	18.373	1.0909	0.1	-22.995
22674	18.465	1.1818	0.1	-23.761
22675	18.189	1.0909	0.1	-22.04
22676	18.281	1.1818	0.1	-22.733
22677	18.004	1.0909	0.1	-21.124
22678	18.096	1.1818	0.1	-21.749
22679	17.82	1.0909	0.1	-20.241
22680	17.912	1.1818	0.1	-20.804
22681	17.635	1.0909	0.1	-19.389
22682	17.727	1.1818	0.1	-19.893
22683	17.451	1.0909	0.1	-18.561
22684	17.543	1.1818	0.1	-19.012
22685	17.266	1.0909	0.1	-17.753
22686	17.358	1.1818	0.1	-18.155
22687	17.082	1.0909	0.1	-16.963
22688	17.174	1.1818	0.1	-17.319
22689	16.897	1.0909	0.1	-16.185
22690	16.989	1.1818	0.1	-16.498
22691	16.713	1.0909	0.1	-15.415
22692	16.805	1.1818	0.1	-15.689
22693	16.528	1.0909	0.1	-14.649
22694	16.62	1.1818	0.1	-14.886
22695	16.344	1.0909	0.1	-13.884
22696	16.436	1.1818	0.1	-14.086
22697	16.159	1.0909	0.1	-13.115
22698	16.251	1.1818	0.1	-13.283
22699	15.975	1.0909	0.1	-12.338
22700	16.067	1.1818	0.1	-12.475
22701	15.79	1.0909	0.1	-11.548
22702	15.883	1.1818	0.1	-11.656
22703	15.606	1.0909	0.1	-10.743
22704	15.698	1.1818	0.1	-10.821
22705	15.421	1.0909	0.1	-9.9161
22706	15.514	1.1818	0.1	-9.9664
22707	15.237	1.0909	0.1	-9.0643
22708	15.329	1.1818	0.1	-9.0872
22709	15.052	1.0909	0.1	-8.1826
22710	15.145	1.1818	0.1	-8.1786
22711	14.868	1.0909	0.1	-7.2665
22712	14.96	1.1818	0.1	-7.2355
22713	14.683	1.0909	0.1	-6.311
22714	14.776	1.1818	0.1	-6.2529
22715	14.499	1.0909	0.1	-5.3112
22716	14.591	1.1818	0.1	-5.2254
22717	14.314	1.0909	0.1	-4.2621
22718	14.407	1.1818	0.1	-4.1477
22719	14.13	1.0909	0.1	-3.1588
22720	14.222	1.1818	0.1	-3.0148
22721	13.945	1.0909	0.1	-1.9972
22722	14.038	1.1818	0.1	-1.8226
22723	13.761	1.0909	0.1	-0.78275
22724	13.853	1.1818	0.1	-0.58427
22725	13.576	1.0909	0.1	-4.0592e-002
22726	13.669	1.1818	0.1	-3.0958e-002
22727	13.392	1.0909	0.1	-1.4207e-002
22728	13.484	1.1818	0.1	-1.3373e-002
22729	13.207	1.0909	0.1	-9.4289e-003
22730	13.3	1.1818	0.1	-9.2904e-003
22731	13.023	1.0909	0.1	-7.566e-003
22732	13.115	1.1818	0.1	-7.5832e-003
22733	12.838	1.0909	0.1	-6.6459e-003
22734	12.931	1.1818	0.1	-6.6934e-003
22735	12.654	1.0909	0.1	-6.1833e-003
22736	12.746	1.1818	0.1	-6.1864e-003
22737	12.469	1.0909	0.1	-5.9971e-003
22738	12.562	1.1818	0.1	-5.9525e-003
22739	12.285	1.0909	0.1	-5.9867e-003
22740	12.377	1.1818	0.1	-5.877e-003
22741	12.1	1.0909	0.1	-6.1148e-003
22742	12.193	1.1818	0.1	-5.9283e-003
22743	11.916	1.0909	0.1	-6.3854e-003
22744	12.008	1.1818	0.1	-6.0885e-003
22745	11.732	1.0909	0.1	-6.7941e-003
22746	11.824	1.1818	0.1	-6.397e-003
22747	11.547	1.0909	0.1	-7.3452e-003
22748	11.639	1.1818	0.1	-6.8113e-003
22749	11.363	1.0909	0.1	-8.0518e-003
22750	11.455	1.1818	0.1	-7.3878e-003
22751	11.178	1.0909	0.1	-8.9136e-003
22752	11.27	1.1818	0.1	-8.0986e-003
22753	10.994	1.0909	0.1	-9.9987e-003
22754	11.086	1.1818	0.1	-8.9718e-003
22755	10.809	1.0909	0.1	-1.1367e-002
22756	10.901	1.1818	0.1	-1.0117e-002
22757	10.625	1.0909	0.1	-1.3067e-002
22758	10.717	1.1818	0.1	-1.1544e-002
22759	10.44	1.0909	0.1	-1.5186e-002
22760	10.532	1.1818	0.1	-1.3337e-002
22761	10.256	1.0909	0.1	-1.7879e-002
22762	10.348	1.1818	0.1	-1.5587e-002
22763	10.071	1.0909	0.1	-2.1316e-002
22764	10.163	1.1818	0.1	-1.8507e-002
22765	9.8866	1.0909	0.1	-2.5694e-002
22766	9.9789	1.1818	0.1	-2.2217e-002
22767	9.7021	1.0909	0.1	-3.1371e-002
22768	9.7944	1.1818	0.1	-2.697e-002
22769	9.5177	1.0909	0.1	-3.8857e-002
22770	9.6099	1.1818	0.1	-3.3194e-002
22771	9.3332	1.0909	0.1	-4.8881e-002
22772	9.4254	1.1818	0.1	-4.1416e-002
22773	9.1487	1.0909	0.1	-6.2572e-002
22774	9.2409	1.1818	0.1	-5.2441e-002
22775	8.9642	1.0909	0.1	-8.1703e-002
22776	9.0564	1.1818	0.1	-6.7468e-002
22777	8.7797	1.0909	0.1	-0.10919
22778	8.8719	1.1818	0.1	-8.8352e-002
22779	8.5952	1.0909	0.1	-0.15001
22780	8.6875	1.1818	0.1	-0.11806
22781	8.4107	1.0909	0.1	-0.21321
22782	8.503	1.1818	0.1	-0.16147
22783	8.2262	1.0909	0.1	-0.31653
22784	8.3185	1.1818	0.1	-0.22707
22785	8.0417	1.0909	0.1	-0.4988
22786	8.134	1.1818	0.1	-0.33052
22787	7.8573	1.0909	0.1	-0.85999
22788	7.9495	1.1818	0.1	-0.50334
22789	7.6728	1.0909	0.1	-1.7344
22790	7.765	1.1818	0.1	-0.81756
22791	7.4883	1.0909	0.1	-4.7392
22792	7.5805	1.1818	0.1	-1.4731
22793	7.3038	1.0909	0.1	-15.807
22794	7.396	1.1818	0.1	-3.227
22795	7.1193	1.0909	0.1	-36.723
22796	7.2116	1.1818	0.1	-9.9633
22797	6.9348	1.0909	0.1	-65.971
22798	7.0271	1.1818	0.1	-30.052
22799	6.7503	1.0909	0.1	-105.8
22800	6.8426	1.1818	0.1	-63.749
22801	6.5658	1.0909	0.1	-161.19
22802	6.6581	1.1818	0.1	-113.21
22803	6.3814	1.0909	0.1	-240.45
22804	6.4736	1.1818	0.1	-186.18
22805	6.1969	1.0909	0.1	-356.57
22806	6.2891	1.1818	0.1	-295.9
22807	6.0124	1.0909	0.1	-527.8
22808	6.1046	1.1818	0.1	-462.57
22809	5.8279	1.0909	0.1	-779.33
22810	5.9201	1.1818	0.1	-712.73
22811	5.6434	1.0909	0.1	-1186.
22812	5.7356	1.1818	0.1	-1082.4
22813	5.5512	1.1818	0.1	-1696.3
22814	5.4589	1.0909	0.1	-1173.2
22815	23.723	1.2727	0.1	-127.79
22816	23.816	1.3636	0.1	-137.63
22817	23.908	1.2727	0.1	-137.33
22818	23.539	1.2727	0.1	-118.03
22819	23.631	1.3636	0.1	-127.43
22820	23.354	1.2727	0.1	-109.13
22821	23.447	1.3636	0.1	-117.94
22822	23.17	1.2727	0.1	-101.08
22823	23.262	1.3636	0.1	-109.32
22824	22.985	1.2727	0.1	-93.827
22825	23.078	1.3636	0.1	-101.46
22826	22.801	1.2727	0.1	-87.292
22827	22.893	1.3636	0.1	-94.33
22828	22.616	1.2727	0.1	-81.4
22829	22.709	1.3636	0.1	-87.87
22830	22.432	1.2727	0.1	-76.074
22831	22.524	1.3636	0.1	-82.007
22832	22.247	1.2727	0.1	-71.241
22833	22.34	1.3636	0.1	-76.676
22834	22.063	1.2727	0.1	-66.84
22835	22.155	1.3636	0.1	-71.815
22836	21.878	1.2727	0.1	-62.817
22837	21.971	1.3636	0.1	-67.369
22838	21.694	1.2727	0.1	-59.127
22839	21.786	1.3636	0.1	-63.291
22840	21.509	1.2727	0.1	-55.733
22841	21.602	1.3636	0.1	-59.542
22842	21.325	1.2727	0.1	-52.601
22843	21.417	1.3636	0.1	-56.085
22844	21.14	1.2727	0.1	-49.704
22845	21.233	1.3636	0.1	-52.892
22846	20.956	1.2727	0.1	-47.019
22847	21.048	1.3636	0.1	-49.935
22848	20.771	1.2727	0.1	-44.526
22849	20.864	1.3636	0.1	-47.193
22850	20.587	1.2727	0.1	-42.206
22851	20.679	1.3636	0.1	-44.646
22852	20.402	1.2727	0.1	-40.045
22853	20.495	1.3636	0.1	-42.276
22854	20.218	1.2727	0.1	-38.028
22855	20.31	1.3636	0.1	-40.068
22856	20.033	1.2727	0.1	-36.143
22857	20.126	1.3636	0.1	-38.008
22858	19.849	1.2727	0.1	-34.379
22859	19.941	1.3636	0.1	-36.084
22860	19.665	1.2727	0.1	-32.726
22861	19.757	1.3636	0.1	-34.283
22862	19.48	1.2727	0.1	-31.174
22863	19.572	1.3636	0.1	-32.596
22864	19.296	1.2727	0.1	-29.714
22865	19.388	1.3636	0.1	-31.012
22866	19.111	1.2727	0.1	-28.338
22867	19.203	1.3636	0.1	-29.523
22868	18.927	1.2727	0.1	-27.04
22869	19.019	1.3636	0.1	-28.12
22870	18.742	1.2727	0.1	-25.811
22871	18.834	1.3636	0.1	-26.795
22872	18.558	1.2727	0.1	-24.645
22873	18.65	1.3636	0.1	-25.541
22874	18.373	1.2727	0.1	-23.536
22875	18.465	1.3636	0.1	-24.352
22876	18.189	1.2727	0.1	-22.478
22877	18.281	1.3636	0.1	-23.219
22878	18.004	1.2727	0.1	-21.465
22879	18.096	1.3636	0.1	-22.138
22880	17.82	1.2727	0.1	-20.491
22881	17.912	1.3636	0.1	-21.102
22882	17.635	1.2727	0.1	-19.551
22883	17.727	1.3636	0.1	-20.105
22884	17.451	1.2727	0.1	-18.641
22885	17.543	1.3636	0.1	-19.141
22886	17.266	1.2727	0.1	-17.755
22887	17.358	1.3636	0.1	-18.206
22888	17.082	1.2727	0.1	-16.887
22889	17.174	1.3636	0.1	-17.294
22890	16.897	1.2727	0.1	-16.035
22891	16.989	1.3636	0.1	-16.4
22892	16.713	1.2727	0.1	-15.192
22893	16.805	1.3636	0.1	-15.519
22894	16.528	1.2727	0.1	-14.353
22895	16.62	1.3636	0.1	-14.646
22896	16.344	1.2727	0.1	-13.516
22897	16.436	1.3636	0.1	-13.775
22898	16.159	1.2727	0.1	-12.674
22899	16.251	1.3636	0.1	-12.903
22900	15.975	1.2727	0.1	-11.822
22901	16.067	1.3636	0.1	-12.023
22902	15.79	1.2727	0.1	-10.957
22903	15.883	1.3636	0.1	-11.131
22904	15.606	1.2727	0.1	-10.073
22905	15.698	1.3636	0.1	-10.222
22906	15.421	1.2727	0.1	-9.1656
22907	15.514	1.3636	0.1	-9.291
22908	15.237	1.2727	0.1	-8.2291
22909	15.329	1.3636	0.1	-8.3318
22910	15.052	1.2727	0.1	-7.2584
22911	15.145	1.3636	0.1	-7.3393
22912	14.868	1.2727	0.1	-6.2483
22913	14.96	1.3636	0.1	-6.3078
22914	14.683	1.2727	0.1	-5.1931
22915	14.776	1.3636	0.1	-5.2317
22916	14.499	1.2727	0.1	-4.0872
22917	14.591	1.3636	0.1	-4.1049
22918	14.314	1.2727	0.1	-2.9252
22919	14.407	1.3636	0.1	-2.9217
22920	14.13	1.2727	0.1	-1.7033
22921	14.222	1.3636	0.1	-1.6781
22922	13.945	1.2727	0.1	-0.4447
22923	14.038	1.3636	0.1	-0.40157
22924	13.761	1.2727	0.1	-2.6296e-002
22925	13.853	1.3636	0.1	-2.4779e-002
22926	13.576	1.2727	0.1	-1.2758e-002
22927	13.669	1.3636	0.1	-1.2551e-002
22928	13.392	1.2727	0.1	-9.1691e-003
22929	13.484	1.3636	0.1	-9.1764e-003
22930	13.207	1.2727	0.1	-7.5731e-003
22931	13.3	1.3636	0.1	-7.6214e-003
22932	13.023	1.2727	0.1	-6.7194e-003
22933	13.115	1.3636	0.1	-6.7802e-003
22934	12.838	1.2727	0.1	-6.2104e-003
22935	12.931	1.3636	0.1	-6.2616e-003
22936	12.654	1.2727	0.1	-5.9246e-003
22937	12.746	1.3636	0.1	-5.9228e-003
22938	12.469	1.2727	0.1	-5.803e-003
22939	12.562	1.3636	0.1	-5.7558e-003
22940	12.285	1.2727	0.1	-5.7943e-003
22941	12.377	1.3636	0.1	-5.6899e-003
22942	12.1	1.2727	0.1	-5.8846e-003
22943	12.193	1.3636	0.1	-5.7125e-003
22944	11.916	1.2727	0.1	-6.0906e-003
22945	12.008	1.3636	0.1	-5.8175e-003
22946	11.732	1.2727	0.1	-6.4132e-003
22947	11.824	1.3636	0.1	-6.0495e-003
22948	11.547	1.2727	0.1	-6.862e-003
22949	11.639	1.3636	0.1	-6.3703e-003
22950	11.363	1.2727	0.1	-7.4526e-003
22951	11.455	1.3636	0.1	-6.8372e-003
22952	11.178	1.2727	0.1	-8.1854e-003
22953	11.27	1.3636	0.1	-7.4231e-003
22954	10.994	1.2727	0.1	-9.13e-003
22955	11.086	1.3636	0.1	-8.156e-003
22956	10.809	1.2727	0.1	-1.0347e-002
22957	10.901	1.3636	0.1	-9.145e-003
22958	10.625	1.2727	0.1	-1.1883e-002
22959	10.717	1.3636	0.1	-1.0399e-002
22960	10.44	1.2727	0.1	-1.3824e-002
22961	10.532	1.3636	0.1	-1.1999e-002
22962	10.256	1.2727	0.1	-1.6322e-002
22963	10.348	1.3636	0.1	-1.4031e-002
22964	10.071	1.2727	0.1	-1.9539e-002
22965	10.163	1.3636	0.1	-1.67e-002
22966	9.8866	1.2727	0.1	-2.3656e-002
22967	9.9789	1.3636	0.1	-2.0114e-002
22968	9.7021	1.2727	0.1	-2.9002e-002
22969	9.7944	1.3636	0.1	-2.4503e-002
22970	9.5177	1.2727	0.1	-3.6026e-002
22971	9.6099	1.3636	0.1	-3.0253e-002
22972	9.3332	1.2727	0.1	-4.5346e-002
22973	9.4254	1.3636	0.1	-3.7816e-002
22974	9.1487	1.2727	0.1	-5.7869e-002
22975	9.2409	1.3636	0.1	-4.786e-002
22976	8.9642	1.2727	0.1	-7.4937e-002
22977	9.0564	1.3636	0.1	-6.1339e-002
22978	8.7797	1.2727	0.1	-9.8594e-002
22979	8.8719	1.3636	0.1	-7.9643e-002
22980	8.5952	1.2727	0.1	-0.13202
22981	8.6875	1.3636	0.1	-0.10486
22982	8.4107	1.2727	0.1	-0.18036
22983	8.503	1.3636	0.1	-0.14013
22984	8.2262	1.2727	0.1	-0.25222
22985	8.3185	1.3636	0.1	-0.19043
22986	8.0417	1.2727	0.1	-0.36295
22987	8.134	1.3636	0.1	-0.26382
22988	7.8573	1.2727	0.1	-0.54195
22989	7.9495	1.3636	0.1	-0.3741
22990	7.6728	1.2727	0.1	-0.85233
22991	7.765	1.3636	0.1	-0.54652
22992	7.4883	1.2727	0.1	-1.4549
22993	7.5805	1.3636	0.1	-0.83226
22994	7.3038	1.2727	0.1	-2.8896
22995	7.396	1.3636	0.1	-1.352
22996	7.1193	1.2727	0.1	-7.8838
22997	7.2116	1.3636	0.1	-2.4681
22998	6.9348	1.2727	0.1	-27.638
22999	7.0271	1.3636	0.1	-5.814
23000	6.7503	1.2727	0.1	-68.663
23001	6.8426	1.3636	0.1	-21.832
23002	6.5658	1.2727	0.1	-133.36
23003	6.6581	1.3636	0.1	-68.987
23004	6.3814	1.2727	0.1	-233.1
23005	6.4736	1.3636	0.1	-150.61
23006	6.1969	1.2727	0.1	-387.32
23007	6.2891	1.3636	0.1	-281.79
23008	6.0124	1.2727	0.1	-623.41
23009	6.1046	1.3636	0.1	-491.69
23010	5.8279	1.2727	0.1	-978.07
23011	5.9201	1.3636	0.1	-823.58
23012	5.6434	1.2727	0.1	-1537.7
23013	5.7356	1.3636	0.1	-1336.1
23014	5.5512	1.3636	0.1	-2194.9
23015	5.4589	1.2727	0.1	-1549.7
23016	23.723	1.4545	0.1	-137.28
23017	23.816	1.5455	0.1	-146.5
23018	23.908	1.4545	0.1	-146.97
23019	23.539	1.4545	0.1	-127.36
23020	23.631	1.5455	0.1	-136.23
23021	23.354	1.4545	0.1	-118.15
23022	23.447	1.5455	0.1	-126.54
23023	23.17	1.4545	0.1	-109.72
23024	23.262	1.5455	0.1	-117.61
23025	22.985	1.4545	0.1	-101.99
23026	23.078	1.5455	0.1	-109.37
23027	22.801	1.4545	0.1	-94.946
23028	22.893	1.5455	0.1	-101.8
23029	22.616	1.4545	0.1	-88.518
23030	22.709	1.5455	0.1	-94.869
23031	22.432	1.4545	0.1	-82.654
23032	22.524	1.5455	0.1	-88.518
23033	22.247	1.4545	0.1	-77.296
23034	22.34	1.5455	0.1	-82.698
23035	22.063	1.4545	0.1	-72.391
23036	22.155	1.5455	0.1	-77.359
23037	21.878	1.4545	0.1	-67.891
23038	21.971	1.5455	0.1	-72.456
23039	21.694	1.4545	0.1	-63.754
23040	21.786	1.5455	0.1	-67.944
23041	21.509	1.4545	0.1	-59.943
23042	21.602	1.5455	0.1	-63.787
23043	21.325	1.4545	0.1	-56.424
23044	21.417	1.5455	0.1	-59.95
23045	21.14	1.4545	0.1	-53.17
23046	21.233	1.5455	0.1	-56.402
23047	20.956	1.4545	0.1	-50.156
23048	21.048	1.5455	0.1	-53.119
23049	20.771	1.4545	0.1	-47.36
23050	20.864	1.5455	0.1	-50.074
23051	20.587	1.4545	0.1	-44.762
23052	20.679	1.5455	0.1	-47.249
23053	20.402	1.4545	0.1	-42.345
23054	20.495	1.5455	0.1	-44.622
23055	20.218	1.4545	0.1	-40.093
23056	20.31	1.5455	0.1	-42.179
23057	20.033	1.4545	0.1	-37.993
23058	20.126	1.5455	0.1	-39.902
23059	19.849	1.4545	0.1	-36.031
23060	19.941	1.5455	0.1	-37.779
23061	19.665	1.4545	0.1	-34.195
23062	19.757	1.5455	0.1	-35.795
23063	19.48	1.4545	0.1	-32.475
23064	19.572	1.5455	0.1	-33.939
23065	19.296	1.4545	0.1	-30.862
23066	19.388	1.5455	0.1	-32.201
23067	19.111	1.4545	0.1	-29.344
23068	19.203	1.5455	0.1	-30.569
23069	18.927	1.4545	0.1	-27.914
23070	19.019	1.5455	0.1	-29.034
23071	18.742	1.4545	0.1	-26.564
23072	18.834	1.5455	0.1	-27.588
23073	18.558	1.4545	0.1	-25.286
23074	18.65	1.5455	0.1	-26.221
23075	18.373	1.4545	0.1	-24.072
23076	18.465	1.5455	0.1	-24.927
23077	18.189	1.4545	0.1	-22.916
23078	18.281	1.5455	0.1	-23.697
23079	18.004	1.4545	0.1	-21.811
23080	18.096	1.5455	0.1	-22.524
23081	17.82	1.4545	0.1	-20.751
23082	17.912	1.5455	0.1	-21.402
23083	17.635	1.4545	0.1	-19.729
23084	17.727	1.5455	0.1	-20.324
23085	17.451	1.4545	0.1	-18.741
23086	17.543	1.5455	0.1	-19.284
23087	17.266	1.4545	0.1	-17.78
23088	17.358	1.5455	0.1	-18.275
23089	17.082	1.4545	0.1	-16.84
23090	17.174	1.5455	0.1	-17.293
23091	16.897	1.4545	0.1	-15.917
23092	16.989	1.5455	0.1	-16.33
23093	16.713	1.4545	0.1	-15.005
23094	16.805	1.5455	0.1	-15.382
23095	16.528	1.4545	0.1	-14.099
23096	16.62	1.5455	0.1	-14.443
23097	16.344	1.4545	0.1	-13.193
23098	16.436	1.5455	0.1	-13.507
23099	16.159	1.4545	0.1	-12.282
23100	16.251	1.5455	0.1	-12.569
23101	15.975	1.4545	0.1	-11.362
23102	16.067	1.5455	0.1	-11.623
23103	15.79	1.4545	0.1	-10.426
23104	15.883	1.5455	0.1	-10.664
23105	15.606	1.4545	0.1	-9.4686
23106	15.698	1.5455	0.1	-9.6861
23107	15.421	1.4545	0.1	-8.4851
23108	15.514	1.5455	0.1	-8.6834
23109	15.237	1.4545	0.1	-7.4693
23110	15.329	1.5455	0.1	-7.6498
23111	15.052	1.4545	0.1	-6.4154
23112	15.145	1.5455	0.1	-6.5796
23113	14.868	1.4545	0.1	-5.3174
23114	14.96	1.5455	0.1	-5.4661
23115	14.683	1.4545	0.1	-4.169
23116	14.776	1.5455	0.1	-4.3033
23117	14.499	1.4545	0.1	-2.9643
23118	14.591	1.5455	0.1	-3.0845
23119	14.314	1.4545	0.1	-1.6986
23120	14.407	1.5455	0.1	-1.8048
23121	14.13	1.4545	0.1	-0.39868
23122	14.222	1.5455	0.1	-0.48099
23123	13.945	1.4545	0.1	-2.3866e-002
23124	14.038	1.5455	0.1	-2.4626e-002
23125	13.761	1.4545	0.1	-1.2371e-002
23126	13.853	1.5455	0.1	-1.2458e-002
23127	13.576	1.4545	0.1	-9.1497e-003
23128	13.669	1.5455	0.1	-9.2159e-003
23129	13.392	1.4545	0.1	-7.6569e-003
23130	13.484	1.5455	0.1	-7.7362e-003
23131	13.207	1.4545	0.1	-6.8174e-003
23132	13.3	1.5455	0.1	-6.8803e-003
23133	13.023	1.4545	0.1	-6.2995e-003
23134	13.115	1.5455	0.1	-6.3562e-003
23135	12.838	1.4545	0.1	-5.9486e-003
23136	12.931	1.5455	0.1	-5.9906e-003
23137	12.654	1.4545	0.1	-5.7298e-003
23138	12.746	1.5455	0.1	-5.7203e-003
23139	12.469	1.4545	0.1	-5.6217e-003
23140	12.562	1.5455	0.1	-5.5708e-003
23141	12.285	1.4545	0.1	-5.5913e-003
23142	12.377	1.5455	0.1	-5.4888e-003
23143	12.1	1.4545	0.1	-5.6335e-003
23144	12.193	1.5455	0.1	-5.4703e-003
23145	11.916	1.4545	0.1	-5.7701e-003
23146	12.008	1.5455	0.1	-5.5132e-003
23147	11.732	1.4545	0.1	-6.0062e-003
23148	11.824	1.5455	0.1	-5.6649e-003
23149	11.547	1.4545	0.1	-6.3516e-003
23150	11.639	1.5455	0.1	-5.8883e-003
23151	11.363	1.4545	0.1	-6.8212e-003
23152	11.455	1.5455	0.1	-6.2398e-003
23153	11.178	1.4545	0.1	-7.4154e-003
23154	11.27	1.5455	0.1	-6.6915e-003
23155	10.994	1.4545	0.1	-8.202e-003
23156	11.086	1.5455	0.1	-7.2695e-003
23157	10.809	1.4545	0.1	-9.239e-003
23158	10.901	1.5455	0.1	-8.0801e-003
23159	10.625	1.4545	0.1	-1.057e-002
23160	10.717	1.5455	0.1	-9.1287e-003
23161	10.44	1.4545	0.1	-1.2275e-002
23162	10.532	1.5455	0.1	-1.0489e-002
23163	10.256	1.4545	0.1	-1.4498e-002
23164	10.348	1.5455	0.1	-1.2242e-002
23165	10.071	1.4545	0.1	-1.7388e-002
23166	10.163	1.5455	0.1	-1.4579e-002
23167	9.8866	1.4545	0.1	-2.1104e-002
23168	9.9789	1.5455	0.1	-1.759e-002
23169	9.7021	1.4545	0.1	-2.5941e-002
23170	9.7944	1.5455	0.1	-2.1479e-002
23171	9.5177	1.4545	0.1	-3.229e-002
23172	9.6099	1.5455	0.1	-2.6588e-002
23173	9.3332	1.4545	0.1	-4.0669e-002
23174	9.4254	1.5455	0.1	-3.33e-002
23175	9.1487	1.4545	0.1	-5.1814e-002
23176	9.2409	1.5455	0.1	-4.2171e-002
23177	8.9642	1.4545	0.1	-6.6767e-002
23178	9.0564	1.5455	0.1	-5.3966e-002
23179	8.7797	1.4545	0.1	-8.7036e-002
23180	8.8719	1.5455	0.1	-6.9756e-002
23181	8.5952	1.4545	0.1	-0.11483
23182	8.6875	1.5455	0.1	-9.1079e-002
23183	8.4107	1.4545	0.1	-0.15345
23184	8.503	1.5455	0.1	-0.12013
23185	8.2262	1.4545	0.1	-0.20799
23186	8.3185	1.5455	0.1	-0.16017
23187	8.0417	1.4545	0.1	-0.28657
23188	8.134	1.5455	0.1	-0.21608
23189	7.8573	1.4545	0.1	-0.40276
23190	7.9495	1.5455	0.1	-0.29553
23191	7.6728	1.4545	0.1	-0.58099
23192	7.765	1.5455	0.1	-0.41105
23193	7.4883	1.4545	0.1	-0.86972
23194	7.5805	1.5455	0.1	-0.58475
23195	7.3038	1.4545	0.1	-1.3812
23196	7.396	1.5455	0.1	-0.85946
23197	7.1193	1.4545	0.1	-2.4442
23198	7.2116	1.5455	0.1	-1.3322
23199	6.9348	1.4545	0.1	-5.5228
23200	7.0271	1.5455	0.1	-2.2742
23201	6.7503	1.4545	0.1	-21.906
23202	6.8426	1.5455	0.1	-4.8292
23203	6.5658	1.4545	0.1	-81.655
23204	6.6581	1.5455	0.1	-18.522
23205	6.3814	1.4545	0.1	-191.11
23206	6.4736	1.5455	0.1	-86.666
23207	6.1969	1.4545	0.1	-372.24
23208	6.2891	1.5455	0.1	-222.36
23209	6.0124	1.4545	0.1	-668.3
23210	6.1046	1.5455	0.1	-454.82
23211	5.8279	1.4545	0.1	-1140.8
23212	5.9201	1.5455	0.1	-847.28
23213	5.6434	1.4545	0.1	-1924.
23214	5.7356	1.5455	0.1	-1528.1
23215	5.5512	1.5455	0.1	-2855.4
23216	5.4589	1.4545	0.1	-2048.2
23217	23.723	1.6364	0.1	-145.46
23218	23.816	1.7273	0.1	-154.11
23219	23.908	1.6364	0.1	-155.28
23220	23.539	1.6364	0.1	-135.42
23221	23.631	1.7273	0.1	-143.78
23222	23.354	1.6364	0.1	-126.01
23223	23.447	1.7273	0.1	-133.95
23224	23.17	1.6364	0.1	-117.28
23225	23.262	1.7273	0.1	-124.8
23226	22.985	1.6364	0.1	-109.21
23227	23.078	1.7273	0.1	-116.28
23228	22.801	1.6364	0.1	-101.76
23229	22.893	1.7273	0.1	-108.37
23230	22.616	1.6364	0.1	-94.902
23231	22.709	1.7273	0.1	-101.07
23232	22.432	1.6364	0.1	-88.598
23233	22.524	1.7273	0.1	-94.321
23234	22.247	1.6364	0.1	-82.8
23235	22.34	1.7273	0.1	-88.098
23236	22.063	1.6364	0.1	-77.464
23237	22.155	1.7273	0.1	-82.36
23238	21.878	1.6364	0.1	-72.551
23239	21.971	1.7273	0.1	-77.065
23240	21.694	1.6364	0.1	-68.02
23241	21.786	1.7273	0.1	-72.178
23242	21.509	1.6364	0.1	-63.837
23243	21.602	1.7273	0.1	-67.664
23244	21.325	1.6364	0.1	-59.971
23245	21.417	1.7273	0.1	-63.489
23246	21.14	1.6364	0.1	-56.394
23247	21.233	1.7273	0.1	-59.627
23248	20.956	1.6364	0.1	-53.08
23249	21.048	1.7273	0.1	-56.049
23250	20.771	1.6364	0.1	-50.006
23251	20.864	1.7273	0.1	-52.731
23252	20.587	1.6364	0.1	-47.152
23253	20.679	1.7273	0.1	-49.653
23254	20.402	1.6364	0.1	-44.499
23255	20.495	1.7273	0.1	-46.793
23256	20.218	1.6364	0.1	-42.03
23257	20.31	1.7273	0.1	-44.134
23258	20.033	1.6364	0.1	-39.73
23259	20.126	1.7273	0.1	-41.66
23260	19.849	1.6364	0.1	-37.584
23261	19.941	1.7273	0.1	-39.353
23262	19.665	1.6364	0.1	-35.58
23263	19.757	1.7273	0.1	-37.202
23264	19.48	1.6364	0.1	-33.705
23265	19.572	1.7273	0.1	-35.191
23266	19.296	1.6364	0.1	-31.947
23267	19.388	1.7273	0.1	-33.31
23268	19.111	1.6364	0.1	-30.298
23269	19.203	1.7273	0.1	-31.547
23270	18.927	1.6364	0.1	-28.746
23271	19.019	1.7273	0.1	-29.891
23272	18.742	1.6364	0.1	-27.283
23273	18.834	1.7273	0.1	-28.333
23274	18.558	1.6364	0.1	-25.9
23275	18.65	1.7273	0.1	-26.863
23276	18.373	1.6364	0.1	-24.588
23277	18.465	1.7273	0.1	-25.472
23278	18.189	1.6364	0.1	-23.341
23279	18.281	1.7273	0.1	-24.152
23280	18.004	1.6364	0.1	-22.151
23281	18.096	1.7273	0.1	-22.895
23282	17.82	1.6364	0.1	-21.01
23283	17.912	1.7273	0.1	-21.694
23284	17.635	1.6364	0.1	-19.913
23285	17.727	1.7273	0.1	-20.542
23286	17.451	1.6364	0.1	-18.852
23287	17.543	1.7273	0.1	-19.431
23288	17.266	1.6364	0.1	-17.821
23289	17.358	1.7273	0.1	-18.355
23290	17.082	1.6364	0.1	-16.815
23291	17.174	1.7273	0.1	-17.307
23292	16.897	1.6364	0.1	-15.827
23293	16.989	1.7273	0.1	-16.282
23294	16.713	1.6364	0.1	-14.851
23295	16.805	1.7273	0.1	-15.273
23296	16.528	1.6364	0.1	-13.882
23297	16.62	1.7273	0.1	-14.273
23298	16.344	1.6364	0.1	-12.913
23299	16.436	1.7273	0.1	-13.277
23300	16.159	1.6364	0.1	-11.94
23301	16.251	1.7273	0.1	-12.28
23302	15.975	1.6364	0.1	-10.955
23303	16.067	1.7273	0.1	-11.274
23304	15.79	1.6364	0.1	-9.9535
23305	15.883	1.7273	0.1	-10.253
23306	15.606	1.6364	0.1	-8.9292
23307	15.698	1.7273	0.1	-9.2122
23308	15.421	1.6364	0.1	-7.8759
23309	15.514	1.7273	0.1	-8.1445
23310	15.237	1.6364	0.1	-6.7873
23311	15.329	1.7273	0.1	-7.0432
23312	15.052	1.6364	0.1	-5.6568
23313	15.145	1.7273	0.1	-5.9021
23314	14.868	1.6364	0.1	-4.4779
23315	14.96	1.7273	0.1	-4.7139
23316	14.683	1.6364	0.1	-3.244
23317	14.776	1.7273	0.1	-3.4721
23318	14.499	1.6364	0.1	-1.9491
23319	14.591	1.7273	0.1	-2.17
23320	14.314	1.6364	0.1	-0.60163
23321	14.407	1.7273	0.1	-0.80868
23322	14.13	1.6364	0.1	-2.5938e-002
23323	14.222	1.7273	0.1	-3.0307e-002
23324	13.945	1.6364	0.1	-1.2518e-002
23325	14.038	1.7273	0.1	-1.2851e-002
23326	13.761	1.6364	0.1	-9.2597e-003
23327	13.853	1.7273	0.1	-9.3891e-003
23328	13.576	1.6364	0.1	-7.7824e-003
23329	13.669	1.7273	0.1	-7.8696e-003
23330	13.392	1.6364	0.1	-6.9385e-003
23331	13.484	1.7273	0.1	-7.0228e-003
23332	13.207	1.6364	0.1	-6.397e-003
23333	13.3	1.7273	0.1	-6.4588e-003
23334	13.023	1.6364	0.1	-6.0257e-003
23335	13.115	1.7273	0.1	-6.0807e-003
23336	12.838	1.6364	0.1	-5.7423e-003
23337	12.931	1.7273	0.1	-5.7846e-003
23338	12.654	1.6364	0.1	-5.5436e-003
23339	12.746	1.7273	0.1	-5.5391e-003
23340	12.469	1.6364	0.1	-5.4231e-003
23341	12.562	1.7273	0.1	-5.3833e-003
23342	12.285	1.6364	0.1	-5.3562e-003
23343	12.377	1.7273	0.1	-5.271e-003
23344	12.1	1.6364	0.1	-5.3421e-003
23345	12.193	1.7273	0.1	-5.2036e-003
23346	11.916	1.6364	0.1	-5.4043e-003
23347	12.008	1.7273	0.1	-5.1791e-003
23348	11.732	1.6364	0.1	-5.5481e-003
23349	11.824	1.7273	0.1	-5.2473e-003
23350	11.547	1.6364	0.1	-5.7828e-003
23351	11.639	1.7273	0.1	-5.3687e-003
23352	11.363	1.6364	0.1	-6.1224e-003
23353	11.455	1.7273	0.1	-5.5992e-003
23354	11.178	1.6364	0.1	-6.565e-003
23355	11.27	1.7273	0.1	-5.9086e-003
23356	10.994	1.6364	0.1	-7.1752e-003
23357	11.086	1.7273	0.1	-6.3201e-003
23358	10.809	1.6364	0.1	-8.0071e-003
23359	10.901	1.7273	0.1	-6.9349e-003
23360	10.625	1.6364	0.1	-9.0974e-003
23361	10.717	1.7273	0.1	-7.7541e-003
23362	10.44	1.6364	0.1	-1.0519e-002
23363	10.532	1.7273	0.1	-8.8425e-003
23364	10.256	1.6364	0.1	-1.2405e-002
23365	10.348	1.7273	0.1	-1.0271e-002
23366	10.071	1.6364	0.1	-1.4887e-002
23367	10.163	1.7273	0.1	-1.2219e-002
23368	9.8866	1.6364	0.1	-1.8101e-002
23369	9.9789	1.7273	0.1	-1.4755e-002
23370	9.7021	1.6364	0.1	-2.2305e-002
23371	9.7944	1.7273	0.1	-1.8053e-002
23372	9.5177	1.6364	0.1	-2.7838e-002
23373	9.6099	1.7273	0.1	-2.2417e-002
23374	9.3332	1.6364	0.1	-3.513e-002
23375	9.4254	1.7273	0.1	-2.8166e-002
23376	9.1487	1.6364	0.1	-4.4783e-002
23377	9.2409	1.7273	0.1	-3.5762e-002
23378	8.9642	1.6364	0.1	-5.762e-002
23379	9.0564	1.7273	0.1	-4.5823e-002
23380	8.7797	1.6364	0.1	-7.479e-002
23381	8.8719	1.7273	0.1	-5.9194e-002
23382	8.5952	1.6364	0.1	-9.7909e-002
23383	8.6875	1.7273	0.1	-7.7047e-002
23384	8.4107	1.6364	0.1	-0.12927
23385	8.503	1.7273	0.1	-0.10099
23386	8.2262	1.6364	0.1	-0.17223
23387	8.3185	1.7273	0.1	-0.13331
23388	8.0417	1.6364	0.1	-0.23177
23389	8.134	1.7273	0.1	-0.17728
23390	7.8573	1.6364	0.1	-0.31561
23391	7.9495	1.7273	0.1	-0.23768
23392	7.6728	1.6364	0.1	-0.43635
23393	7.765	1.7273	0.1	-0.32185
23394	7.4883	1.6364	0.1	-0.6161
23395	7.5805	1.7273	0.1	-0.44165
23396	7.3038	1.6364	0.1	-0.89836
23397	7.396	1.7273	0.1	-0.61753
23398	7.1193	1.6364	0.1	-1.3811
23399	7.2116	1.7273	0.1	-0.89014
23400	6.9348	1.6364	0.1	-2.3504
23401	7.0271	1.7273	0.1	-1.3474
23402	6.7503	1.6364	0.1	-5.0176
23403	6.8426	1.7273	0.1	-2.2538
23404	6.5658	1.6364	0.1	-21.213
23405	6.6581	1.7273	0.1	-4.6444
23406	6.3814	1.6364	0.1	-110.79
23407	6.4736	1.7273	0.1	-19.134
23408	6.1969	1.6364	0.1	-293.38
23409	6.2891	1.7273	0.1	-119.78
23410	6.0124	1.6364	0.1	-614.18
23411	6.1046	1.7273	0.1	-336.76
23412	5.8279	1.6364	0.1	-1198.9
23413	5.9201	1.7273	0.1	-724.22
23414	5.6434	1.6364	0.1	-2358.4
23415	5.7356	1.7273	0.1	-1531.6
23416	5.5512	1.7273	0.1	-3404.
23417	5.4589	1.6364	0.1	-2622.6
23418	23.723	1.8182	0.1	-152.44
23419	23.816	1.9091	0.1	-160.54
23420	23.908	1.8182	0.1	-162.36
23421	23.539	1.8182	0.1	-142.32
23422	23.631	1.9091	0.1	-150.19
23423	23.354	1.8182	0.1	-132.76
23424	23.447	1.9091	0.1	-140.25
23425	23.17	1.8182	0.1	-123.81
23426	23.262	1.9091	0.1	-130.94
23427	22.985	1.8182	0.1	-115.47
23428	23.078	1.9091	0.1	-122.2
23429	22.801	1.8182	0.1	-107.71
23430	22.893	1.9091	0.1	-114.04
23431	22.616	1.8182	0.1	-100.51
23432	22.709	1.9091	0.1	-106.44
23433	22.432	1.8182	0.1	-93.852
23434	22.524	1.9091	0.1	-99.38
23435	22.247	1.8182	0.1	-87.692
23436	22.34	1.9091	0.1	-92.831
23437	22.063	1.8182	0.1	-81.996
23438	22.155	1.9091	0.1	-86.762
23439	21.878	1.8182	0.1	-76.73
23440	21.971	1.9091	0.1	-81.141
23441	21.694	1.8182	0.1	-71.86
23442	21.786	1.9091	0.1	-75.936
23443	21.509	1.8182	0.1	-67.355
23444	21.602	1.9091	0.1	-71.115
23445	21.325	1.8182	0.1	-63.184
23446	21.417	1.9091	0.1	-66.65
23447	21.14	1.8182	0.1	-59.321
23448	21.233	1.9091	0.1	-62.513
23449	20.956	1.8182	0.1	-55.74
23450	21.048	1.9091	0.1	-58.677
23451	20.771	1.8182	0.1	-52.418
23452	20.864	1.9091	0.1	-55.119
23453	20.587	1.8182	0.1	-49.334
23454	20.679	1.9091	0.1	-51.817
23455	20.402	1.8182	0.1	-46.469
23456	20.495	1.9091	0.1	-48.75
23457	20.218	1.8182	0.1	-43.804
23458	20.31	1.9091	0.1	-45.9
23459	20.033	1.8182	0.1	-41.323
23460	20.126	1.9091	0.1	-43.248
23461	19.849	1.8182	0.1	-39.01
23462	19.941	1.9091	0.1	-40.778
23463	19.665	1.8182	0.1	-36.852
23464	19.757	1.9091	0.1	-38.476
23465	19.48	1.8182	0.1	-34.836
23466	19.572	1.9091	0.1	-36.327
23467	19.296	1.8182	0.1	-32.948
23468	19.388	1.9091	0.1	-34.318
23469	19.111	1.8182	0.1	-31.179
23470	19.203	1.9091	0.1	-32.437
23471	18.927	1.8182	0.1	-29.516
23472	19.019	1.9091	0.1	-30.673
23473	18.742	1.8182	0.1	-27.95
23474	18.834	1.9091	0.1	-29.014
23475	18.558	1.8182	0.1	-26.471
23476	18.65	1.9091	0.1	-27.45
23477	18.373	1.8182	0.1	-25.071
23478	18.465	1.9091	0.1	-25.973
23479	18.189	1.8182	0.1	-23.741
23480	18.281	1.9091	0.1	-24.572
23481	18.004	1.8182	0.1	-22.474
23482	18.096	1.9091	0.1	-23.24
23483	17.82	1.8182	0.1	-21.26
23484	17.912	1.9091	0.1	-21.968
23485	17.635	1.8182	0.1	-20.093
23486	17.727	1.9091	0.1	-20.749
23487	17.451	1.8182	0.1	-18.967
23488	17.543	1.9091	0.1	-19.574
23489	17.266	1.8182	0.1	-17.873
23490	17.358	1.9091	0.1	-18.438
23491	17.082	1.8182	0.1	-16.806
23492	17.174	1.9091	0.1	-17.332
23493	16.897	1.8182	0.1	-15.759
23494	16.989	1.9091	0.1	-16.251
23495	16.713	1.8182	0.1	-14.726
23496	16.805	1.9091	0.1	-15.187
23497	16.528	1.8182	0.1	-13.699
23498	16.62	1.9091	0.1	-14.133
23499	16.344	1.8182	0.1	-12.674
23500	16.436	1.9091	0.1	-13.084
23501	16.159	1.8182	0.1	-11.643
23502	16.251	1.9091	0.1	-12.033
23503	15.975	1.8182	0.1	-10.601
23504	16.067	1.9091	0.1	-10.973
23505	15.79	1.8182	0.1	-9.5407
23506	15.883	1.9091	0.1	-9.8981
23507	15.606	1.8182	0.1	-8.4557
23508	15.698	1.9091	0.1	-8.801
23509	15.421	1.8182	0.1	-7.3394
23510	15.514	1.9091	0.1	-7.6752
23511	15.237	1.8182	0.1	-6.1851
23512	15.329	1.9091	0.1	-6.5137
23513	15.052	1.8182	0.1	-4.9856
23514	15.145	1.9091	0.1	-5.3092
23515	14.868	1.8182	0.1	-3.7338
23516	14.96	1.9091	0.1	-4.0545
23517	14.683	1.8182	0.1	-2.4227
23518	14.776	1.9091	0.1	-2.7422
23519	14.499	1.8182	0.1	-1.0494
23520	14.591	1.9091	0.1	-1.3668
23521	14.314	1.8182	0.1	-3.9425e-002
23522	14.407	1.9091	0.1	-8.2564e-002
23523	14.13	1.8182	0.1	-1.3203e-002
23524	14.222	1.9091	0.1	-1.3995e-002
23525	13.945	1.8182	0.1	-9.4801e-003
23526	14.038	1.9091	0.1	-9.6615e-003
23527	13.761	1.8182	0.1	-7.9422e-003
23528	13.853	1.9091	0.1	-8.053e-003
23529	13.576	1.8182	0.1	-7.0819e-003
23530	13.669	1.9091	0.1	-7.1645e-003
23531	13.392	1.8182	0.1	-6.522e-003
23532	13.484	1.9091	0.1	-6.6043e-003
23533	13.207	1.8182	0.1	-6.124e-003
23534	13.3	1.9091	0.1	-6.1854e-003
23535	13.023	1.8182	0.1	-5.823e-003
23536	13.115	1.9091	0.1	-5.8807e-003
23537	12.838	1.8182	0.1	-5.5666e-003
23538	12.931	1.9091	0.1	-5.6156e-003
23539	12.654	1.8182	0.1	-5.366e-003
23540	12.746	1.9091	0.1	-5.3727e-003
23541	12.469	1.8182	0.1	-5.2207e-003
23542	12.562	1.9091	0.1	-5.1984e-003
23543	12.285	1.8182	0.1	-5.1105e-003
23544	12.377	1.9091	0.1	-5.0496e-003
23545	12.1	1.8182	0.1	-5.0358e-003
23546	12.193	1.9091	0.1	-4.9296e-003
23547	11.916	1.8182	0.1	-5.0209e-003
23548	12.008	1.9091	0.1	-4.8372e-003
23549	11.732	1.8182	0.1	-5.0708e-003
23550	11.824	1.9091	0.1	-4.8212e-003
23551	11.547	1.8182	0.1	-5.1925e-003
23552	11.639	1.9091	0.1	-4.8408e-003
23553	11.363	1.8182	0.1	-5.3983e-003
23554	11.455	1.9091	0.1	-4.9493e-003
23555	11.178	1.8182	0.1	-5.6831e-003
23556	11.27	1.9091	0.1	-5.1145e-003
23557	10.994	1.8182	0.1	-6.1069e-003
23558	11.086	1.9091	0.1	-5.3553e-003
23559	10.809	1.8182	0.1	-6.7184e-003
23560	10.901	1.9091	0.1	-5.7677e-003
23561	10.625	1.8182	0.1	-7.5472e-003
23562	10.717	1.9091	0.1	-6.3456e-003
23563	10.44	1.8182	0.1	-8.6569e-003
23564	10.532	1.9091	0.1	-7.1471e-003
23565	10.256	1.8182	0.1	-1.0166e-002
23566	10.348	1.9091	0.1	-8.2302e-003
23567	10.071	1.8182	0.1	-1.2192e-002
23568	10.163	1.9091	0.1	-9.7594e-003
23569	9.8866	1.8182	0.1	-1.4843e-002
23570	9.9789	1.9091	0.1	-1.1784e-002
23571	9.7021	1.8182	0.1	-1.8344e-002
23572	9.7944	1.9091	0.1	-1.4451e-002
23573	9.5177	1.8182	0.1	-2.2985e-002
23574	9.6099	1.9091	0.1	-1.8024e-002
23575	9.3332	1.8182	0.1	-2.9122e-002
23576	9.4254	1.9091	0.1	-2.2769e-002
23577	9.1487	1.8182	0.1	-3.7249e-002
23578	9.2409	1.9091	0.1	-2.907e-002
23579	8.9642	1.8182	0.1	-4.8026e-002
23580	9.0564	1.9091	0.1	-3.7432e-002
23581	8.7797	1.8182	0.1	-6.2352e-002
23582	8.8719	1.9091	0.1	-4.8532e-002
23583	8.5952	1.8182	0.1	-8.1453e-002
23584	8.6875	1.9091	0.1	-6.3291e-002
23585	8.4107	1.8182	0.1	-0.10701
23586	8.503	1.9091	0.1	-8.2938e-002
23587	8.2262	1.8182	0.1	-0.14137
23588	8.3185	1.9091	0.1	-0.10916
23589	8.0417	1.8182	0.1	-0.18788
23590	8.134	1.9091	0.1	-0.14427
23591	7.8573	1.8182	0.1	-0.25139
23592	7.9495	1.9091	0.1	-0.19152
23593	7.6728	1.8182	0.1	-0.33932
23594	7.765	1.9091	0.1	-0.25557
23595	7.4883	1.8182	0.1	-0.46356
23596	7.5805	1.9091	0.1	-0.34348
23597	7.3038	1.8182	0.1	-0.64539
23598	7.396	1.9091	0.1	-0.46613
23599	7.1193	1.8182	0.1	-0.92509
23600	7.2116	1.9091	0.1	-0.64403
23601	6.9348	1.8182	0.1	-1.4018
23602	7.0271	1.9091	0.1	-0.91063
23603	6.7503	1.8182	0.1	-2.3378
23604	6.8426	1.9091	0.1	-1.3693
23605	6.5658	1.8182	0.1	-4.9916
23606	6.6581	1.9091	0.1	-2.2017
23607	6.3814	1.8182	0.1	-22.995
23608	6.4736	1.9091	0.1	-4.7143
23609	6.1969	1.8182	0.1	-154.6
23610	6.2891	1.9091	0.1	-20.394
23611	6.0124	1.8182	0.1	-434.34
23612	6.1046	1.9091	0.1	-164.92
23613	5.8279	1.8182	0.1	-1033.3
23614	5.9201	1.9091	0.1	-474.24
23615	5.6434	1.8182	0.1	-2493.8
23616	5.7356	1.9091	0.1	-1141.2
23617	5.5512	1.9091	0.1	-2911.1
23618	5.4589	1.8182	0.1	-4073.9
23619	23.723	2.	0.1	-158.3
23620	23.816	2.0909	0.1	-165.89
23621	23.908	2.	0.1	-168.3
23622	23.539	2.	0.1	-148.13
23623	23.631	2.0909	0.1	-155.51
23624	23.354	2.	0.1	-138.44
23625	23.447	2.0909	0.1	-145.49
23626	23.17	2.	0.1	-129.34
23627	23.262	2.0909	0.1	-136.06
23628	22.985	2.	0.1	-120.79
23629	23.078	2.0909	0.1	-127.16
23630	22.801	2.	0.1	-112.79
23631	22.893	2.0909	0.1	-118.8
23632	22.616	2.	0.1	-105.33
23633	22.709	2.0909	0.1	-110.98
23634	22.432	2.	0.1	-98.385
23635	22.524	2.0909	0.1	-103.67
23636	22.247	2.	0.1	-91.931
23637	22.34	2.0909	0.1	-96.865
23638	22.063	2.	0.1	-85.939
23639	22.155	2.0909	0.1	-90.53
23640	21.878	2.	0.1	-80.38
23641	21.971	2.0909	0.1	-84.642
23642	21.694	2.	0.1	-75.226
23643	21.786	2.0909	0.1	-79.174
23644	21.509	2.	0.1	-70.446
23645	21.602	2.0909	0.1	-74.099
23646	21.325	2.	0.1	-66.015
23647	21.417	2.0909	0.1	-69.389
23648	21.14	2.	0.1	-61.906
23649	21.233	2.0909	0.1	-65.019
23650	20.956	2.	0.1	-58.094
23651	21.048	2.0909	0.1	-60.964
23652	20.771	2.	0.1	-54.556
23653	20.864	2.0909	0.1	-57.2
23654	20.587	2.	0.1	-51.271
23655	20.679	2.0909	0.1	-53.706
23656	20.402	2.	0.1	-48.219
23657	20.495	2.0909	0.1	-50.46
23658	20.218	2.	0.1	-45.382
23659	20.31	2.0909	0.1	-47.444
23660	20.033	2.	0.1	-42.742
23661	20.126	2.0909	0.1	-44.639
23662	19.849	2.	0.1	-40.282
23663	19.941	2.0909	0.1	-42.028
23664	19.665	2.	0.1	-37.989
23665	19.757	2.0909	0.1	-39.595
23666	19.48	2.	0.1	-35.848
23667	19.572	2.0909	0.1	-37.326
23668	19.296	2.	0.1	-33.845
23669	19.388	2.0909	0.1	-35.205
23670	19.111	2.	0.1	-31.969
23671	19.203	2.0909	0.1	-33.222
23672	18.927	2.	0.1	-30.207
23673	19.019	2.0909	0.1	-31.362
23674	18.742	2.	0.1	-28.55
23675	18.834	2.0909	0.1	-29.615
23676	18.558	2.	0.1	-26.987
23677	18.65	2.0909	0.1	-27.97
23678	18.373	2.	0.1	-25.509
23679	18.465	2.0909	0.1	-26.417
23680	18.189	2.	0.1	-24.106
23681	18.281	2.0909	0.1	-24.947
23682	18.004	2.	0.1	-22.769
23683	18.096	2.0909	0.1	-23.549
23684	17.82	2.	0.1	-21.491
23685	17.912	2.0909	0.1	-22.215
23686	17.635	2.	0.1	-20.263
23687	17.727	2.0909	0.1	-20.937
23688	17.451	2.	0.1	-19.079
23689	17.543	2.0909	0.1	-19.708
23690	17.266	2.	0.1	-17.93
23691	17.358	2.0909	0.1	-18.519
23692	17.082	2.	0.1	-16.809
23693	17.174	2.0909	0.1	-17.363
23694	16.897	2.	0.1	-15.71
23695	16.989	2.0909	0.1	-16.232
23696	16.713	2.	0.1	-14.625
23697	16.805	2.0909	0.1	-15.121
23698	16.528	2.	0.1	-13.549
23699	16.62	2.0909	0.1	-14.02
23700	16.344	2.	0.1	-12.473
23701	16.436	2.0909	0.1	-12.925
23702	16.159	2.	0.1	-11.393
23703	16.251	2.0909	0.1	-11.828
23704	15.975	2.	0.1	-10.299
23705	16.067	2.0909	0.1	-10.721
23706	15.79	2.	0.1	-9.187
23707	15.883	2.0909	0.1	-9.5984
23708	15.606	2.	0.1	-8.0486
23709	15.698	2.0909	0.1	-8.4526
23710	15.421	2.	0.1	-6.8769
23711	15.514	2.0909	0.1	-7.2765
23712	15.237	2.	0.1	-5.6647
23713	15.329	2.0909	0.1	-6.0626
23714	15.052	2.	0.1	-4.4044
23715	15.145	2.0909	0.1	-4.8034
23716	14.868	2.	0.1	-3.0884
23717	14.96	2.0909	0.1	-3.4908
23718	14.683	2.	0.1	-1.7098
23719	14.776	2.0909	0.1	-2.1174
23720	14.499	2.	0.1	-0.29013
23721	14.591	2.0909	0.1	-0.68172
23722	14.314	2.	0.1	-1.5113e-002
23723	14.407	2.0909	0.1	-1.7859e-002
23724	14.13	2.	0.1	-9.8166e-003
23725	14.222	2.0909	0.1	-1.0101e-002
23726	13.945	2.	0.1	-8.1306e-003
23727	14.038	2.0909	0.1	-8.2448e-003
23728	13.761	2.	0.1	-7.2398e-003
23729	13.853	2.0909	0.1	-7.3341e-003
23730	13.576	2.	0.1	-6.6667e-003
23731	13.669	2.0909	0.1	-6.7441e-003
23732	13.392	2.	0.1	-6.2523e-003
23733	13.484	2.0909	0.1	-6.3334e-003
23734	13.207	2.	0.1	-5.9287e-003
23735	13.3	2.0909	0.1	-5.9931e-003
23736	13.023	2.	0.1	-5.6614e-003
23737	13.115	2.0909	0.1	-5.7255e-003
23738	12.838	2.	0.1	-5.4112e-003
23739	12.931	2.0909	0.1	-5.4721e-003
23740	12.654	2.	0.1	-5.1961e-003
23741	12.746	2.0909	0.1	-5.2202e-003
23742	12.469	2.	0.1	-5.0203e-003
23743	12.562	2.0909	0.1	-5.0218e-003
23744	12.285	2.	0.1	-4.8639e-003
23745	12.377	2.0909	0.1	-4.835e-003
23746	12.1	2.	0.1	-4.7288e-003
23747	12.193	2.0909	0.1	-4.6626e-003
23748	11.916	2.	0.1	-4.6384e-003
23749	12.008	2.0909	0.1	-4.5048e-003
23750	11.732	2.	0.1	-4.5958e-003
23751	11.824	2.0909	0.1	-4.4081e-003
23752	11.547	2.	0.1	-4.6065e-003
23753	11.639	2.0909	0.1	-4.3298e-003
23754	11.363	2.	0.1	-4.6797e-003
23755	11.455	2.0909	0.1	-4.3219e-003
23756	11.178	2.	0.1	-4.807e-003
23757	11.27	2.0909	0.1	-4.3474e-003
23758	10.994	2.	0.1	-5.0439e-003
23759	11.086	2.0909	0.1	-4.4218e-003
23760	10.809	2.	0.1	-5.4322e-003
23761	10.901	2.0909	0.1	-4.6362e-003
23762	10.625	2.	0.1	-5.9944e-003
23763	10.717	2.0909	0.1	-4.977e-003
23764	10.44	2.	0.1	-6.784e-003
23765	10.532	2.0909	0.1	-5.494e-003
23766	10.256	2.	0.1	-7.9058e-003
23767	10.348	2.0909	0.1	-6.2337e-003
23768	10.071	2.	0.1	-9.4589e-003
23769	10.163	2.0909	0.1	-7.3459e-003
23770	9.8866	2.	0.1	-1.1531e-002
23771	9.9789	2.0909	0.1	-8.8612e-003
23772	9.7021	2.	0.1	-1.4313e-002
23773	9.7944	2.0909	0.1	-1.0901e-002
23774	9.5177	2.	0.1	-1.805e-002
23775	9.6099	2.0909	0.1	-1.3696e-002
23776	9.3332	2.	0.1	-2.3041e-002
23777	9.4254	2.0909	0.1	-1.7465e-002
23778	9.1487	2.	0.1	-2.9692e-002
23779	9.2409	2.0909	0.1	-2.253e-002
23780	8.9642	2.	0.1	-3.854e-002
23781	9.0564	2.0909	0.1	-2.9308e-002
23782	8.7797	2.	0.1	-5.0308e-002
23783	8.8719	2.0909	0.1	-3.8354e-002
23784	8.5952	2.	0.1	-6.5958e-002
23785	8.6875	2.0909	0.1	-5.0417e-002
23786	8.4107	2.	0.1	-8.6777e-002
23787	8.503	2.0909	0.1	-6.6472e-002
23788	8.2262	2.	0.1	-0.11451
23789	8.3185	2.0909	0.1	-8.7833e-002
23790	8.0417	2.	0.1	-0.15154
23791	8.134	2.0909	0.1	-0.11626
23792	7.8573	2.	0.1	-0.20115
23793	7.9495	2.0909	0.1	-0.15412
23794	7.6728	2.	0.1	-0.26804
23795	7.765	2.0909	0.1	-0.20461
23796	7.4883	2.	0.1	-0.35907
23797	7.5805	2.0909	0.1	-0.2723
23798	7.3038	2.	0.1	-0.48581
23799	7.396	2.0909	0.1	-0.36338
23800	7.1193	2.	0.1	-0.66534
23801	7.2116	2.0909	0.1	-0.48926
23802	6.9348	2.	0.1	-0.94419
23803	7.0271	2.0909	0.1	-0.66144
23804	6.7503	2.	0.1	-1.3751
23805	6.8426	2.0909	0.1	-0.9349
23806	6.5658	2.	0.1	-2.3478
23807	6.6581	2.0909	0.1	-1.2921
23808	6.3814	2.	0.1	-4.4052
23809	6.4736	2.0909	0.1	-2.3097
23810	6.1969	2.	0.1	-24.633
23811	6.2891	2.0909	0.1	-3.3344
23812	6.0124	2.	0.1	-197.77
23813	6.1046	2.0909	0.1	-24.505
23814	5.8279	2.	0.1	-580.52
23815	5.9201	2.0909	0.1	-219.93
23816	5.6434	2.	0.1	-1582.1
23817	5.7356	2.0909	0.1	-636.5
23818	5.5512	2.0909	0.1	-1550.3
23819	5.4589	2.	0.1	-2449.8
23820	23.723	2.1818	0.1	-163.11
23821	23.816	2.2727	0.1	-170.19
23822	23.908	2.1818	0.1	-173.17
23823	23.539	2.1818	0.1	-152.89
23824	23.631	2.2727	0.1	-159.8
23825	23.354	2.1818	0.1	-143.12
23826	23.447	2.2727	0.1	-149.73
23827	23.17	2.1818	0.1	-133.89
23828	23.262	2.2727	0.1	-140.2
23829	22.985	2.1818	0.1	-125.19
23830	23.078	2.2727	0.1	-131.18
23831	22.801	2.1818	0.1	-117.01
23832	22.893	2.2727	0.1	-122.68
23833	22.616	2.1818	0.1	-109.34
23834	22.709	2.2727	0.1	-114.69
23835	22.432	2.1818	0.1	-102.18
23836	22.524	2.2727	0.1	-107.19
23837	22.247	2.1818	0.1	-95.49
23838	22.34	2.2727	0.1	-100.18
23839	22.063	2.1818	0.1	-89.261
23840	22.155	2.2727	0.1	-93.637
23841	21.878	2.1818	0.1	-83.466
23842	21.971	2.2727	0.1	-87.538
23843	21.694	2.1818	0.1	-78.079
23844	21.786	2.2727	0.1	-81.86
23845	21.509	2.1818	0.1	-73.074
23846	21.602	2.2727	0.1	-76.58
23847	21.325	2.1818	0.1	-68.426
23848	21.417	2.2727	0.1	-71.671
23849	21.14	2.1818	0.1	-64.112
23850	21.233	2.2727	0.1	-67.111
23851	20.956	2.1818	0.1	-60.106
23852	21.048	2.2727	0.1	-62.876
23853	20.771	2.1818	0.1	-56.386
23854	20.864	2.2727	0.1	-58.943
23855	20.587	2.1818	0.1	-52.932
23856	20.679	2.2727	0.1	-55.29
23857	20.402	2.1818	0.1	-49.722
23858	20.495	2.2727	0.1	-51.896
23859	20.218	2.1818	0.1	-46.738
23860	20.31	2.2727	0.1	-48.742
23861	20.033	2.1818	0.1	-43.962
23862	20.126	2.2727	0.1	-45.81
23863	19.849	2.1818	0.1	-41.378
23864	19.941	2.2727	0.1	-43.08
23865	19.665	2.1818	0.1	-38.969
23866	19.757	2.2727	0.1	-40.538
23867	19.48	2.1818	0.1	-36.72
23868	19.572	2.2727	0.1	-38.168
23869	19.296	2.1818	0.1	-34.619
23870	19.388	2.2727	0.1	-35.954
23871	19.111	2.1818	0.1	-32.652
23872	19.203	2.2727	0.1	-33.885
23873	18.927	2.1818	0.1	-30.806
23874	19.019	2.2727	0.1	-31.946
23875	18.742	2.1818	0.1	-29.071
23876	18.834	2.2727	0.1	-30.125
23877	18.558	2.1818	0.1	-27.436
23878	18.65	2.2727	0.1	-28.412
23879	18.373	2.1818	0.1	-25.89
23880	18.465	2.2727	0.1	-26.796
23881	18.189	2.1818	0.1	-24.424
23882	18.281	2.2727	0.1	-25.266
23883	18.004	2.1818	0.1	-23.029
23884	18.096	2.2727	0.1	-23.813
23885	17.82	2.1818	0.1	-21.696
23886	17.912	2.2727	0.1	-22.428
23887	17.635	2.1818	0.1	-20.416
23888	17.727	2.2727	0.1	-21.101
23889	17.451	2.1818	0.1	-19.181
23890	17.543	2.2727	0.1	-19.826
23891	17.266	2.1818	0.1	-17.985
23892	17.358	2.2727	0.1	-18.592
23893	17.082	2.1818	0.1	-16.818
23894	17.174	2.2727	0.1	-17.394
23895	16.897	2.1818	0.1	-15.675
23896	16.989	2.2727	0.1	-16.223
23897	16.713	2.1818	0.1	-14.547
23898	16.805	2.2727	0.1	-15.071
23899	16.528	2.1818	0.1	-13.427
23900	16.62	2.2727	0.1	-13.932
23901	16.344	2.1818	0.1	-12.309
23902	16.436	2.2727	0.1	-12.798
23903	16.159	2.1818	0.1	-11.185
23904	16.251	2.2727	0.1	-11.661
23905	15.975	2.1818	0.1	-10.049
23906	16.067	2.2727	0.1	-10.516
23907	15.79	2.1818	0.1	-8.8924
23908	15.883	2.2727	0.1	-9.3536
23909	15.606	2.1818	0.1	-7.7085
23910	15.698	2.2727	0.1	-8.1672
23911	15.421	2.1818	0.1	-6.4896
23912	15.514	2.2727	0.1	-6.9492
23913	15.237	2.1818	0.1	-5.2281
23914	15.329	2.2727	0.1	-5.6915
23915	15.052	2.1818	0.1	-3.9159
23916	15.145	2.2727	0.1	-4.3865
23917	14.868	2.1818	0.1	-2.545
23918	14.96	2.2727	0.1	-3.0255
23919	14.683	2.1818	0.1	-1.1092
23920	14.776	2.2727	0.1	-1.601
23921	14.499	2.1818	0.1	-2.5719e-002
23922	14.591	2.2727	0.1	-0.14551
23923	14.314	2.1818	0.1	-1.0418e-002
23924	14.407	2.2727	0.1	-1.1063e-002
23925	14.13	2.1818	0.1	-8.3284e-003
23926	14.222	2.2727	0.1	-8.4545e-003
23927	13.945	2.1818	0.1	-7.4016e-003
23928	14.038	2.2727	0.1	-7.4849e-003
23929	13.761	2.1818	0.1	-6.8191e-003
23930	13.853	2.2727	0.1	-6.9055e-003
23931	13.576	2.1818	0.1	-6.3985e-003
23932	13.669	2.2727	0.1	-6.4753e-003
23933	13.392	2.1818	0.1	-6.0641e-003
23934	13.484	2.2727	0.1	-6.1485e-003
23935	13.207	2.1818	0.1	-5.7808e-003
23936	13.3	2.2727	0.1	-5.8522e-003
23937	13.023	2.1818	0.1	-5.528e-003
23938	13.115	2.2727	0.1	-5.6033e-003
23939	12.838	2.1818	0.1	-5.2739e-003
23940	12.931	2.2727	0.1	-5.35e-003
23941	12.654	2.1818	0.1	-5.0399e-003
23942	12.746	2.2727	0.1	-5.0857e-003
23943	12.469	2.1818	0.1	-4.8321e-003
23944	12.562	2.2727	0.1	-4.8622e-003
23945	12.285	2.1818	0.1	-4.6312e-003
23946	12.377	2.2727	0.1	-4.6388e-003
23947	12.1	2.1818	0.1	-4.4385e-003
23948	12.193	2.2727	0.1	-4.4189e-003
23949	11.916	2.1818	0.1	-4.2773e-003
23950	12.008	2.2727	0.1	-4.2014e-003
23951	11.732	2.1818	0.1	-4.1483e-003
23952	11.824	2.2727	0.1	-4.0312e-003
23953	11.547	2.1818	0.1	-4.0557e-003
23954	11.639	2.2727	0.1	-3.8645e-003
23955	11.363	2.1818	0.1	-4.0052e-003
23956	11.455	2.2727	0.1	-3.7507e-003
23957	11.178	2.1818	0.1	-3.9839e-003
23958	11.27	2.2727	0.1	-3.6492e-003
23959	10.994	2.1818	0.1	-4.0435e-003
23960	11.086	2.2727	0.1	-3.5715e-003
23961	10.809	2.1818	0.1	-4.22e-003
23962	10.901	2.2727	0.1	-3.604e-003
23963	10.625	2.1818	0.1	-4.5274e-003
23964	10.717	2.2727	0.1	-3.7268e-003
23965	10.44	2.1818	0.1	-5.0097e-003
23966	10.532	2.2727	0.1	-3.9799e-003
23967	10.256	2.1818	0.1	-5.7592e-003
23968	10.348	2.2727	0.1	-4.4018e-003
23969	10.071	2.1818	0.1	-6.8587e-003
23970	10.163	2.2727	0.1	-5.1274e-003
23971	9.8866	2.1818	0.1	-8.3746e-003
23972	9.9789	2.2727	0.1	-6.1712e-003
23973	9.7021	2.1818	0.1	-1.0471e-002
23974	9.7944	2.2727	0.1	-7.632e-003
23975	9.5177	2.1818	0.1	-1.3356e-002
23976	9.6099	2.2727	0.1	-9.7129e-003
23977	9.3332	2.1818	0.1	-1.7278e-002
23978	9.4254	2.2727	0.1	-1.2595e-002
23979	9.1487	2.1818	0.1	-2.2578e-002
23980	9.2409	2.2727	0.1	-1.6551e-002
23981	8.9642	2.1818	0.1	-2.9703e-002
23982	9.0564	2.2727	0.1	-2.1934e-002
23983	8.7797	2.1818	0.1	-3.9252e-002
23984	8.8719	2.2727	0.1	-2.9213e-002
23985	8.5952	2.1818	0.1	-5.2014e-002
23986	8.6875	2.2727	0.1	-3.9019e-002
23987	8.4107	2.1818	0.1	-6.9029e-002
23988	8.503	2.2727	0.1	-5.2173e-002
23989	8.2262	2.1818	0.1	-9.1688e-002
23990	8.3185	2.2727	0.1	-6.977e-002
23991	8.0417	2.1818	0.1	-0.12183
23992	8.134	2.2727	0.1	-9.3265e-002
23993	7.8573	2.1818	0.1	-0.16188
23994	7.9495	2.2727	0.1	-0.12456
23995	7.6728	2.1818	0.1	-0.21516
23996	7.765	2.2727	0.1	-0.16618
23997	7.4883	2.1818	0.1	-0.28602
23998	7.5805	2.2727	0.1	-0.22149
23999	7.3038	2.1818	0.1	-0.38127
24000	7.396	2.2727	0.1	-0.29472
24001	7.1193	2.1818	0.1	-0.50848
24002	7.2116	2.2727	0.1	-0.39273
24003	6.9348	2.1818	0.1	-0.69155
24004	7.0271	2.2727	0.1	-0.52098
24005	6.7503	2.1818	0.1	-0.92623
24006	6.8426	2.2727	0.1	-0.70573
24007	6.5658	2.1818	0.1	-1.4209
24008	6.6581	2.2727	0.1	-0.91946
24009	6.3814	2.1818	0.1	-1.7424
24010	6.4736	2.2727	0.1	-1.4167
24011	6.1969	2.1818	0.1	-4.9814
24012	6.2891	2.2727	0.1	-1.5111
24013	6.0124	2.1818	0.1	-27.489
24014	6.1046	2.2727	0.1	-4.4769
24015	5.8279	2.1818	0.1	-284.27
24016	5.9201	2.2727	0.1	-85.017
24017	5.6434	2.1818	0.1	-739.61
24018	5.7356	2.2727	0.1	-410.12
24019	5.5512	2.2727	0.1	-943.91
24020	5.4589	2.1818	0.1	-1219.6
24021	23.723	2.3636	0.1	-166.9
24022	23.816	2.4545	0.1	-173.5
24023	23.908	2.3636	0.1	-177.01
24024	23.539	2.3636	0.1	-156.65
24025	23.631	2.4545	0.1	-163.1
24026	23.354	2.3636	0.1	-146.82
24027	23.447	2.4545	0.1	-152.98
24028	23.17	2.3636	0.1	-137.51
24029	23.262	2.4545	0.1	-143.4
24030	22.985	2.3636	0.1	-128.69
24031	23.078	2.4545	0.1	-134.29
24032	22.801	2.3636	0.1	-120.37
24033	22.893	2.4545	0.1	-125.68
24034	22.616	2.3636	0.1	-112.55
24035	22.709	2.4545	0.1	-117.56
24036	22.432	2.3636	0.1	-105.22
24037	22.524	2.4545	0.1	-109.93
24038	22.247	2.3636	0.1	-98.352
24039	22.34	2.4545	0.1	-102.77
24040	22.063	2.3636	0.1	-91.94
24041	22.155	2.4545	0.1	-96.068
24042	21.878	2.3636	0.1	-85.96
24043	21.971	2.4545	0.1	-89.809
24044	21.694	2.3636	0.1	-80.39
24045	21.786	2.4545	0.1	-83.971
24046	21.509	2.3636	0.1	-75.207
24047	21.602	2.4545	0.1	-78.533
24048	21.325	2.3636	0.1	-70.388
24049	21.417	2.4545	0.1	-73.471
24050	21.14	2.3636	0.1	-65.909
24051	21.233	2.4545	0.1	-68.764
24052	20.956	2.3636	0.1	-61.748
24053	21.048	2.4545	0.1	-64.389
24054	20.771	2.3636	0.1	-57.882
24055	20.864	2.4545	0.1	-60.324
24056	20.587	2.3636	0.1	-54.29
24057	20.679	2.4545	0.1	-56.546
24058	20.402	2.3636	0.1	-50.952
24059	20.495	2.4545	0.1	-53.036
24060	20.218	2.3636	0.1	-47.85
24061	20.31	2.4545	0.1	-49.774
24062	20.033	2.3636	0.1	-44.964
24063	20.126	2.4545	0.1	-46.74
24064	19.849	2.3636	0.1	-42.277
24065	19.941	2.4545	0.1	-43.917
24066	19.665	2.3636	0.1	-39.774
24067	19.757	2.4545	0.1	-41.289
24068	19.48	2.3636	0.1	-37.438
24069	19.572	2.4545	0.1	-38.839
24070	19.296	2.3636	0.1	-35.256
24071	19.388	2.4545	0.1	-36.552
24072	19.111	2.3636	0.1	-33.215
24073	19.203	2.4545	0.1	-34.414
24074	18.927	2.3636	0.1	-31.3
24075	19.019	2.4545	0.1	-32.412
24076	18.742	2.3636	0.1	-29.502
24077	18.834	2.4545	0.1	-30.533
24078	18.558	2.3636	0.1	-27.807
24079	18.65	2.4545	0.1	-28.766
24080	18.373	2.3636	0.1	-26.207
24081	18.465	2.4545	0.1	-27.099
24082	18.189	2.3636	0.1	-24.689
24083	18.281	2.4545	0.1	-25.523
24084	18.004	2.3636	0.1	-23.246
24085	18.096	2.4545	0.1	-24.026
24086	17.82	2.3636	0.1	-21.867
24087	17.912	2.4545	0.1	-22.6
24088	17.635	2.3636	0.1	-20.545
24089	17.727	2.4545	0.1	-21.235
24090	17.451	2.3636	0.1	-19.27
24091	17.543	2.4545	0.1	-19.922
24092	17.266	2.3636	0.1	-18.034
24093	17.358	2.4545	0.1	-18.654
24094	17.082	2.3636	0.1	-16.83
24095	17.174	2.4545	0.1	-17.422
24096	16.897	2.3636	0.1	-15.65
24097	16.989	2.4545	0.1	-16.218
24098	16.713	2.3636	0.1	-14.487
24099	16.805	2.4545	0.1	-15.035
24100	16.528	2.3636	0.1	-13.333
24101	16.62	2.4545	0.1	-13.865
24102	16.344	2.3636	0.1	-12.18
24103	16.436	2.4545	0.1	-12.7
24104	16.159	2.3636	0.1	-11.021
24105	16.251	2.4545	0.1	-11.534
24106	15.975	2.3636	0.1	-9.8494
24107	16.067	2.4545	0.1	-10.357
24108	15.79	2.3636	0.1	-8.6568
24109	15.883	2.4545	0.1	-9.1635
24110	15.606	2.3636	0.1	-7.4357
24111	15.698	2.4545	0.1	-7.945
24112	15.421	2.3636	0.1	-6.1784
24113	15.514	2.4545	0.1	-6.6938
24114	15.237	2.3636	0.1	-4.8766
24115	15.329	2.4545	0.1	-5.4016
24116	15.052	2.3636	0.1	-3.5221
24117	15.145	2.4545	0.1	-4.0602
24118	14.868	2.3636	0.1	-2.1064
24119	14.96	2.4545	0.1	-2.6609
24120	14.683	2.3636	0.1	-0.62477
24121	14.776	2.4545	0.1	-1.1957
24122	14.499	2.3636	0.1	-1.2279e-002
24123	14.591	2.4545	0.1	-1.7795e-002
24124	14.314	2.3636	0.1	-8.5599e-003
24125	14.407	2.4545	0.1	-8.745e-003
24126	14.13	2.3636	0.1	-7.5405e-003
24127	14.222	2.4545	0.1	-7.6083e-003
24128	13.945	2.3636	0.1	-6.9707e-003
24129	14.038	2.4545	0.1	-7.0432e-003
24130	13.761	2.3636	0.1	-6.5533e-003
24131	13.853	2.4545	0.1	-6.6402e-003
24132	13.576	2.3636	0.1	-6.219e-003
24133	13.669	2.4545	0.1	-6.2997e-003
24134	13.392	2.3636	0.1	-5.9307e-003
24135	13.484	2.4545	0.1	-6.022e-003
24136	13.207	2.3636	0.1	-5.6688e-003
24137	13.3	2.4545	0.1	-5.7497e-003
24138	13.023	2.3636	0.1	-5.4198e-003
24139	13.115	2.4545	0.1	-5.5095e-003
24140	12.838	2.3636	0.1	-5.1571e-003
24141	12.931	2.4545	0.1	-5.2522e-003
24142	12.654	2.3636	0.1	-4.9043e-003
24143	12.746	2.4545	0.1	-4.9745e-003
24144	12.469	2.3636	0.1	-4.6664e-003
24145	12.562	2.4545	0.1	-4.728e-003
24146	12.285	2.3636	0.1	-4.4258e-003
24147	12.377	2.4545	0.1	-4.4733e-003
24148	12.1	2.3636	0.1	-4.1834e-003
24149	12.193	2.4545	0.1	-4.2131e-003
24150	11.916	2.3636	0.1	-3.9596e-003
24151	12.008	2.4545	0.1	-3.9453e-003
24152	11.732	2.3636	0.1	-3.755e-003
24153	11.824	2.4545	0.1	-3.7131e-003
24154	11.547	2.3636	0.1	-3.5714e-003
24155	11.639	2.4545	0.1	-3.4724e-003
24156	11.363	2.3636	0.1	-3.4117e-003
24157	11.455	2.4545	0.1	-3.2687e-003
24158	11.178	2.3636	0.1	-3.26e-003
24159	11.27	2.4545	0.1	-3.06e-003
24160	10.994	2.3636	0.1	-3.163e-003
24161	11.086	2.4545	0.1	-2.8535e-003
24162	10.809	2.3636	0.1	-3.1516e-003
24163	10.901	2.4545	0.1	-2.731e-003
24164	10.625	2.3636	0.1	-3.2323e-003
24165	10.717	2.4545	0.1	-2.6679e-003
24166	10.44	2.3636	0.1	-3.4405e-003
24167	10.532	2.4545	0.1	-2.6965e-003
24168	10.256	2.3636	0.1	-3.8583e-003
24169	10.348	2.4545	0.1	-2.8463e-003
24170	10.071	2.3636	0.1	-4.5538e-003
24171	10.163	2.4545	0.1	-3.2421e-003
24172	9.8866	2.3636	0.1	-5.5758e-003
24173	9.9789	2.4545	0.1	-3.8833e-003
24174	9.7021	2.3636	0.1	-7.0648e-003
24175	9.7944	2.4545	0.1	-4.852e-003
24176	9.5177	2.3636	0.1	-9.2001e-003
24177	9.6099	2.4545	0.1	-6.3278e-003
24178	9.3332	2.3636	0.1	-1.2192e-002
24179	9.4254	2.4545	0.1	-8.4642e-003
24180	9.1487	2.3636	0.1	-1.6334e-002
24181	9.2409	2.4545	0.1	-1.1498e-002
24182	8.9642	2.3636	0.1	-2.2008e-002
24183	9.0564	2.4545	0.1	-1.5736e-002
24184	8.7797	2.3636	0.1	-2.9731e-002
24185	8.8719	2.4545	0.1	-2.1588e-002
24186	8.5952	2.3636	0.1	-4.0187e-002
24187	8.6875	2.4545	0.1	-2.9618e-002
24188	8.4107	2.3636	0.1	-5.4276e-002
24189	8.503	2.4545	0.1	-4.0556e-002
24190	8.2262	2.3636	0.1	-7.3204e-002
24191	8.3185	2.4545	0.1	-5.5389e-002
24192	8.0417	2.3636	0.1	-9.8558e-002
24193	8.134	2.4545	0.1	-7.5442e-002
24194	7.8573	2.3636	0.1	-0.13242
24195	7.9495	2.4545	0.1	-0.10246
24196	7.6728	2.3636	0.1	-0.17752
24197	7.765	2.4545	0.1	-0.13876
24198	7.4883	2.3636	0.1	-0.23738
24199	7.5805	2.4545	0.1	-0.18739
24200	7.3038	2.3636	0.1	-0.31675
24201	7.396	2.4545	0.1	-0.25228
24202	7.1193	2.3636	0.1	-0.42127
24203	7.2116	2.4545	0.1	-0.33866
24204	6.9348	2.3636	0.1	-0.56071
24205	7.0271	2.4545	0.1	-0.45253
24206	6.7503	2.3636	0.1	-0.74268
24207	6.8426	2.4545	0.1	-0.6039
24208	6.5658	2.3636	0.1	-0.99905
24209	6.6581	2.4545	0.1	-0.80035
24210	6.3814	2.3636	0.1	-1.379
24211	6.4736	2.4545	0.1	-1.0627
24212	6.1969	2.3636	0.1	-1.5944
24213	6.2891	2.4545	0.1	-1.4715
24214	6.0124	2.3636	0.1	-4.8809
24215	6.1046	2.4545	0.1	-1.6708
24216	5.8279	2.3636	0.1	-231.63
24217	5.9201	2.4545	0.1	-77.116
24218	5.6434	2.3636	0.1	-664.39
24219	5.7356	2.4545	0.1	-399.49
24220	5.5512	2.4545	0.1	-864.01
24221	5.4589	2.3636	0.1	-1115.8
24222	23.723	2.5455	0.1	-169.71
24223	23.816	2.6364	0.1	-175.85
24224	23.908	2.5455	0.1	-179.86
24225	23.539	2.5455	0.1	-159.44
24226	23.631	2.6364	0.1	-165.44
24227	23.354	2.5455	0.1	-149.57
24228	23.447	2.6364	0.1	-155.29
24229	23.17	2.5455	0.1	-140.2
24230	23.262	2.6364	0.1	-145.66
24231	22.985	2.5455	0.1	-131.3
24232	23.078	2.6364	0.1	-136.5
24233	22.801	2.5455	0.1	-122.89
24234	22.893	2.6364	0.1	-127.82
24235	22.616	2.5455	0.1	-114.95
24236	22.709	2.6364	0.1	-119.61
24237	22.432	2.5455	0.1	-107.5
24238	22.524	2.6364	0.1	-111.88
24239	22.247	2.5455	0.1	-100.51
24240	22.34	2.6364	0.1	-104.62
24241	22.063	2.5455	0.1	-93.96
24242	22.155	2.6364	0.1	-97.81
24243	21.878	2.5455	0.1	-87.845
24244	21.971	2.6364	0.1	-91.439
24245	21.694	2.5455	0.1	-82.141
24246	21.786	2.6364	0.1	-85.489
24247	21.509	2.5455	0.1	-76.825
24248	21.602	2.6364	0.1	-79.94
24249	21.325	2.5455	0.1	-71.878
24250	21.417	2.6364	0.1	-74.77
24251	21.14	2.5455	0.1	-67.276
24252	21.233	2.6364	0.1	-69.958
24253	20.956	2.5455	0.1	-62.998
24254	21.048	2.6364	0.1	-65.483
24255	20.771	2.5455	0.1	-59.021
24256	20.864	2.6364	0.1	-61.323
24257	20.587	2.5455	0.1	-55.326
24258	20.679	2.6364	0.1	-57.456
24259	20.402	2.5455	0.1	-51.892
24260	20.495	2.6364	0.1	-53.862
24261	20.218	2.5455	0.1	-48.699
24262	20.31	2.6364	0.1	-50.522
24263	20.033	2.5455	0.1	-45.729
24264	20.126	2.6364	0.1	-47.415
24265	19.849	2.5455	0.1	-42.965
24266	19.941	2.6364	0.1	-44.525
24267	19.665	2.5455	0.1	-40.39
24268	19.757	2.6364	0.1	-41.834
24269	19.48	2.5455	0.1	-37.988
24270	19.572	2.6364	0.1	-39.326
24271	19.296	2.5455	0.1	-35.745
24272	19.388	2.6364	0.1	-36.986
24273	19.111	2.5455	0.1	-33.646
24274	19.203	2.6364	0.1	-34.799
24275	18.927	2.5455	0.1	-31.68
24276	19.019	2.6364	0.1	-32.751
24277	18.742	2.5455	0.1	-29.833
24278	18.834	2.6364	0.1	-30.83
24279	18.558	2.5455	0.1	-28.093
24280	18.65	2.6364	0.1	-29.024
24281	18.373	2.5455	0.1	-26.45
24282	18.465	2.6364	0.1	-27.321
24283	18.189	2.5455	0.1	-24.894
24284	18.281	2.6364	0.1	-25.711
24285	18.004	2.5455	0.1	-23.414
24286	18.096	2.6364	0.1	-24.182
24287	17.82	2.5455	0.1	-22.001
24288	17.912	2.6364	0.1	-22.726
24289	17.635	2.5455	0.1	-20.646
24290	17.727	2.6364	0.1	-21.333
24291	17.451	2.5455	0.1	-19.34
24292	17.543	2.6364	0.1	-19.994
24293	17.266	2.5455	0.1	-18.075
24294	17.358	2.6364	0.1	-18.701
24295	17.082	2.5455	0.1	-16.842
24296	17.174	2.6364	0.1	-17.445
24297	16.897	2.5455	0.1	-15.635
24298	16.989	2.6364	0.1	-16.217
24299	16.713	2.5455	0.1	-14.444
24300	16.805	2.6364	0.1	-15.011
24301	16.528	2.5455	0.1	-13.263
24302	16.62	2.6364	0.1	-13.819
24303	16.344	2.5455	0.1	-12.084
24304	16.436	2.6364	0.1	-12.632
24305	16.159	2.5455	0.1	-10.899
24306	16.251	2.6364	0.1	-11.443
24307	15.975	2.5455	0.1	-9.7001
24308	16.067	2.6364	0.1	-10.244
24309	15.79	2.5455	0.1	-8.4801
24310	15.883	2.6364	0.1	-9.0279
24311	15.606	2.5455	0.1	-7.2308
24312	15.698	2.6364	0.1	-7.7861
24313	15.421	2.5455	0.1	-5.9442
24314	15.514	2.6364	0.1	-6.511
24315	15.237	2.5455	0.1	-4.6119
24316	15.329	2.6364	0.1	-5.1938
24317	15.052	2.5455	0.1	-3.2251
24318	15.145	2.6364	0.1	-3.8262
24319	14.868	2.5455	0.1	-1.775
24320	14.96	2.6364	0.1	-2.399
24321	14.683	2.5455	0.1	-0.26054
24322	14.776	2.6364	0.1	-0.90392
24323	14.499	2.5455	0.1	-9.0108e-003
24324	14.591	2.6364	0.1	-9.8241e-003
24325	14.314	2.5455	0.1	-7.6473e-003
24326	14.407	2.6364	0.1	-7.6962e-003
24327	14.13	2.5455	0.1	-7.0936e-003
24328	14.222	2.6364	0.1	-7.1466e-003
24329	13.945	2.5455	0.1	-6.7101e-003
24330	14.038	2.6364	0.1	-6.7841e-003
24331	13.761	2.5455	0.1	-6.3853e-003
24332	13.853	2.6364	0.1	-6.4777e-003
24333	13.576	2.5455	0.1	-6.1006e-003
24334	13.669	2.6364	0.1	-6.1885e-003
24335	13.392	2.5455	0.1	-5.8382e-003
24336	13.484	2.6364	0.1	-5.9389e-003
24337	13.207	2.5455	0.1	-5.5871e-003
24338	13.3	2.6364	0.1	-5.6794e-003
24339	13.023	2.5455	0.1	-5.3385e-003
24340	13.115	2.6364	0.1	-5.442e-003
24341	12.838	2.5455	0.1	-5.0667e-003
24342	12.931	2.6364	0.1	-5.1809e-003
24343	12.654	2.5455	0.1	-4.7961e-003
24344	12.746	2.6364	0.1	-4.8911e-003
24345	12.469	2.5455	0.1	-4.534e-003
24346	12.562	2.6364	0.1	-4.6264e-003
24347	12.285	2.5455	0.1	-4.2614e-003
24348	12.377	2.6364	0.1	-4.3481e-003
24349	12.1	2.5455	0.1	-3.9779e-003
24350	12.193	2.6364	0.1	-4.0564e-003
24351	11.916	2.5455	0.1	-3.7044e-003
24352	12.008	2.6364	0.1	-3.7506e-003
24353	11.732	2.5455	0.1	-3.4394e-003
24354	11.824	2.6364	0.1	-3.472e-003
24355	11.547	2.5455	0.1	-3.1827e-003
24356	11.639	2.6364	0.1	-3.1746e-003
24357	11.363	2.5455	0.1	-2.9352e-003
24358	11.455	2.6364	0.1	-2.9033e-003
24359	11.178	2.5455	0.1	-2.678e-003
24360	11.27	2.6364	0.1	-2.6128e-003
24361	10.994	2.5455	0.1	-2.4541e-003
24362	11.086	2.6364	0.1	-2.3089e-003
24363	10.809	2.5455	0.1	-2.2898e-003
24364	10.901	2.6364	0.1	-2.0681e-003
24365	10.625	2.5455	0.1	-2.187e-003
24366	10.717	2.6364	0.1	-1.8627e-003
24367	10.44	2.5455	0.1	-2.173e-003
24368	10.532	2.6364	0.1	-1.72e-003
24369	10.256	2.5455	0.1	-2.3211e-003
24370	10.348	2.6364	0.1	-1.6623e-003
24371	10.071	2.5455	0.1	-2.6885e-003
24372	10.163	2.6364	0.1	-1.8058e-003
24373	9.8866	2.5455	0.1	-3.3099e-003
24374	9.9789	2.6364	0.1	-2.1398e-003
24375	9.7021	2.5455	0.1	-4.3087e-003
24376	9.7944	2.6364	0.1	-2.7335e-003
24377	9.5177	2.5455	0.1	-5.8422e-003
24378	9.6099	2.6364	0.1	-3.7506e-003
24379	9.3332	2.5455	0.1	-8.0938e-003
24380	9.4254	2.6364	0.1	-5.3242e-003
24381	9.1487	2.5455	0.1	-1.1321e-002
24382	9.2409	2.6364	0.1	-7.6666e-003
24383	8.9642	2.5455	0.1	-1.5867e-002
24384	9.0564	2.6364	0.1	-1.1055e-002
24385	8.7797	2.5455	0.1	-2.2199e-002
24386	8.8719	2.6364	0.1	-1.5866e-002
24387	8.5952	2.5455	0.1	-3.094e-002
24388	8.6875	2.6364	0.1	-2.2622e-002
24389	8.4107	2.5455	0.1	-4.293e-002
24390	8.503	2.6364	0.1	-3.2011e-002
24391	8.2262	2.5455	0.1	-5.9305e-002
24392	8.3185	2.6364	0.1	-4.4984e-002
24393	8.0417	2.5455	0.1	-8.1592e-002
24394	8.134	2.6364	0.1	-6.2842e-002
24395	7.8573	2.5455	0.1	-0.11183
24396	7.9495	2.6364	0.1	-8.7341e-002
24397	7.6728	2.5455	0.1	-0.15275
24398	7.765	2.6364	0.1	-0.12088
24399	7.4883	2.5455	0.1	-0.20795
24400	7.5805	2.6364	0.1	-0.16669
24401	7.3038	2.5455	0.1	-0.28208
24402	7.396	2.6364	0.1	-0.22912
24403	7.1193	2.5455	0.1	-0.38115
24404	7.2116	2.6364	0.1	-0.31382
24405	6.9348	2.5455	0.1	-0.51212
24406	7.0271	2.6364	0.1	-0.42805
24407	6.7503	2.5455	0.1	-0.68633
24408	6.8426	2.6364	0.1	-0.57984
24409	6.5658	2.5455	0.1	-0.903
24410	6.6581	2.6364	0.1	-0.78092
24411	6.3814	2.5455	0.1	-1.2196
24412	6.4736	2.6364	0.1	-1.027
24413	6.1969	2.5455	0.1	-1.6403
24414	6.2891	2.6364	0.1	-1.3636
24415	6.0124	2.5455	0.1	-5.3308
24416	6.1046	2.6364	0.1	-1.8438
24417	5.8279	2.5455	0.1	-262.93
24418	5.9201	2.6364	0.1	-108.72
24419	5.6434	2.5455	0.1	-618.91
24420	5.7356	2.6364	0.1	-424.75
24421	5.5512	2.6364	0.1	-780.9
24422	5.4589	2.5455	0.1	-948.98
24423	23.723	2.7273	0.1	-171.58
24424	23.816	2.8182	0.1	-177.24
24425	23.908	2.7273	0.1	-181.75
24426	23.539	2.7273	0.1	-161.29
24427	23.631	2.8182	0.1	-166.83
24428	23.354	2.7273	0.1	-151.4
24429	23.447	2.8182	0.1	-156.67
24430	23.17	2.7273	0.1	-141.98
24431	23.262	2.8182	0.1	-147.02
24432	22.985	2.7273	0.1	-133.03
24433	23.078	2.8182	0.1	-137.82
24434	22.801	2.7273	0.1	-124.56
24435	22.893	2.8182	0.1	-129.09
24436	22.616	2.7273	0.1	-116.56
24437	22.709	2.8182	0.1	-120.84
24438	22.432	2.7273	0.1	-109.02
24439	22.524	2.8182	0.1	-113.05
24440	22.247	2.7273	0.1	-101.94
24441	22.34	2.8182	0.1	-105.73
24442	22.063	2.7273	0.1	-95.312
24443	22.155	2.8182	0.1	-98.858
24444	21.878	2.7273	0.1	-89.108
24445	21.971	2.8182	0.1	-92.421
24446	21.694	2.7273	0.1	-83.315
24447	21.786	2.8182	0.1	-86.404
24448	21.509	2.7273	0.1	-77.912
24449	21.602	2.8182	0.1	-80.789
24450	21.325	2.7273	0.1	-72.879
24451	21.417	2.8182	0.1	-75.554
24452	21.14	2.7273	0.1	-68.196
24453	21.233	2.8182	0.1	-70.68
24454	20.956	2.7273	0.1	-63.84
24455	21.048	2.8182	0.1	-66.145
24456	20.771	2.7273	0.1	-59.79
24457	20.864	2.8182	0.1	-61.927
24458	20.587	2.7273	0.1	-56.025
24459	20.679	2.8182	0.1	-58.007
24460	20.402	2.7273	0.1	-52.526
24461	20.495	2.8182	0.1	-54.362
24462	20.218	2.7273	0.1	-49.272
24463	20.31	2.8182	0.1	-50.975
24464	20.033	2.7273	0.1	-46.246
24465	20.126	2.8182	0.1	-47.825
24466	19.849	2.7273	0.1	-43.43
24467	19.941	2.8182	0.1	-44.894
24468	19.665	2.7273	0.1	-40.806
24469	19.757	2.8182	0.1	-42.165
24470	19.48	2.7273	0.1	-38.36
24471	19.572	2.8182	0.1	-39.623
24472	19.296	2.7273	0.1	-36.075
24473	19.388	2.8182	0.1	-37.25
24474	19.111	2.7273	0.1	-33.939
24475	19.203	2.8182	0.1	-35.033
24476	18.927	2.7273	0.1	-31.937
24477	19.019	2.8182	0.1	-32.957
24478	18.742	2.7273	0.1	-30.057
24479	18.834	2.8182	0.1	-31.011
24480	18.558	2.7273	0.1	-28.287
24481	18.65	2.8182	0.1	-29.181
24482	18.373	2.7273	0.1	-26.616
24483	18.465	2.8182	0.1	-27.456
24484	18.189	2.7273	0.1	-25.033
24485	18.281	2.8182	0.1	-25.825
24486	18.004	2.7273	0.1	-23.528
24487	18.096	2.8182	0.1	-24.277
24488	17.82	2.7273	0.1	-22.092
24489	17.912	2.8182	0.1	-22.803
24490	17.635	2.7273	0.1	-20.715
24491	17.727	2.8182	0.1	-21.393
24492	17.451	2.7273	0.1	-19.388
24493	17.543	2.8182	0.1	-20.038
24494	17.266	2.7273	0.1	-18.103
24495	17.358	2.8182	0.1	-18.73
24496	17.082	2.7273	0.1	-16.851
24497	17.174	2.8182	0.1	-17.459
24498	16.897	2.7273	0.1	-15.625
24499	16.989	2.8182	0.1	-16.217
24500	16.713	2.7273	0.1	-14.417
24501	16.805	2.8182	0.1	-14.998
24502	16.528	2.7273	0.1	-13.218
24503	16.62	2.8182	0.1	-13.791
24504	16.344	2.7273	0.1	-12.021
24505	16.436	2.8182	0.1	-12.591
24506	16.159	2.7273	0.1	-10.818
24507	16.251	2.8182	0.1	-11.389
24508	15.975	2.7273	0.1	-9.6008
24509	16.067	2.8182	0.1	-10.177
24510	15.79	2.7273	0.1	-8.3623
24511	15.883	2.8182	0.1	-8.9466
24512	15.606	2.7273	0.1	-7.094
24513	15.698	2.8182	0.1	-7.6908
24514	15.421	2.7273	0.1	-5.7877
24515	15.514	2.8182	0.1	-6.4011
24516	15.237	2.7273	0.1	-4.4347
24517	15.329	2.8182	0.1	-5.0688
24518	15.052	2.7273	0.1	-3.0261
24519	15.145	2.8182	0.1	-3.6853
24520	14.868	2.7273	0.1	-1.5528
24521	14.96	2.8182	0.1	-2.2412
24522	14.683	2.7273	0.1	-3.767e-002
24523	14.776	2.8182	0.1	-0.72757
24524	14.499	2.7273	0.1	-7.7354e-003
24525	14.591	2.8182	0.1	-7.807e-003
24526	14.314	2.7273	0.1	-7.1781e-003
24527	14.407	2.8182	0.1	-7.21e-003
24528	14.13	2.7273	0.1	-6.8447e-003
24529	14.222	2.8182	0.1	-6.9111e-003
24530	13.945	2.7273	0.1	-6.5578e-003
24531	14.038	2.8182	0.1	-6.6464e-003
24532	13.761	2.7273	0.1	-6.284e-003
24533	13.853	2.8182	0.1	-6.3887e-003
24534	13.576	2.7273	0.1	-6.0275e-003
24535	13.669	2.8182	0.1	-6.1261e-003
24536	13.392	2.7273	0.1	-5.7792e-003
24537	13.484	2.8182	0.1	-5.8905e-003
24538	13.207	2.7273	0.1	-5.5327e-003
24539	13.3	2.8182	0.1	-5.6377e-003
24540	13.023	2.7273	0.1	-5.2825e-003
24541	13.115	2.8182	0.1	-5.4012e-003
24542	12.838	2.7273	0.1	-5.0036e-003
24543	12.931	2.8182	0.1	-5.1364e-003
24544	12.654	2.7273	0.1	-4.7204e-003
24545	12.746	2.8182	0.1	-4.8388e-003
24546	12.469	2.7273	0.1	-4.4407e-003
24547	12.562	2.8182	0.1	-4.5626e-003
24548	12.285	2.7273	0.1	-4.1449e-003
24549	12.377	2.8182	0.1	-4.2691e-003
24550	12.1	2.7273	0.1	-3.8329e-003
24551	12.193	2.8182	0.1	-3.9582e-003
24552	11.916	2.7273	0.1	-3.5246e-003
24553	12.008	2.8182	0.1	-3.6284e-003
24554	11.732	2.7273	0.1	-3.2171e-003
24555	11.824	2.8182	0.1	-3.3208e-003
24556	11.547	2.7273	0.1	-2.9092e-003
24557	11.639	2.8182	0.1	-2.9882e-003
24558	11.363	2.7273	0.1	-2.6001e-003
24559	11.455	2.8182	0.1	-2.6748e-003
24560	11.178	2.7273	0.1	-2.2693e-003
24561	11.27	2.8182	0.1	-2.3332e-003
24562	10.994	2.7273	0.1	-1.9566e-003
24563	11.086	2.8182	0.1	-1.968e-003
24564	10.809	2.7273	0.1	-1.6847e-003
24565	10.901	2.8182	0.1	-1.6537e-003
24566	10.625	2.7273	0.1	-1.4521e-003
24567	10.717	2.8182	0.1	-1.3589e-003
24568	10.44	2.7273	0.1	-1.2818e-003
24569	10.532	2.8182	0.1	-1.1086e-003
24570	10.256	2.7273	0.1	-1.24e-003
24571	10.348	2.8182	0.1	-9.2132e-004
24572	10.071	2.7273	0.1	-1.3762e-003
24573	10.163	2.8182	0.1	-9.0639e-004
24574	9.8866	2.7273	0.1	-1.7162e-003
24575	9.9789	2.8182	0.1	-1.0479e-003
24576	9.7021	2.7273	0.1	-2.3715e-003
24577	9.7944	2.8182	0.1	-1.4078e-003
24578	9.5177	2.7273	0.1	-3.4846e-003
24579	9.6099	2.8182	0.1	-2.1385e-003
24580	9.3332	2.7273	0.1	-5.2215e-003
24581	9.4254	2.8182	0.1	-3.3623e-003
24582	9.1487	2.7273	0.1	-7.8194e-003
24583	9.2409	2.8182	0.1	-5.2776e-003
24584	8.9642	2.7273	0.1	-1.1596e-002
24585	9.0564	2.8182	0.1	-8.1447e-003
24586	8.7797	2.7273	0.1	-1.6992e-002
24587	8.8719	2.8182	0.1	-1.2322e-002
24588	8.5952	2.7273	0.1	-2.4607e-002
24589	8.6875	2.8182	0.1	-1.8314e-002
24590	8.4107	2.7273	0.1	-3.5256e-002
24591	8.503	2.8182	0.1	-2.6794e-002
24592	8.2262	2.7273	0.1	-5.0075e-002
24593	8.3185	2.8182	0.1	-3.8707e-002
24594	8.0417	2.7273	0.1	-7.0623e-002
24595	8.134	2.8182	0.1	-5.5374e-002
24596	7.8573	2.7273	0.1	-9.9049e-002
24597	7.9495	2.8182	0.1	-7.8616e-002
24598	7.6728	2.7273	0.1	-0.13831
24599	7.765	2.8182	0.1	-0.11099
24600	7.4883	2.7273	0.1	-0.19246
24601	7.5805	2.8182	0.1	-0.15603
24602	7.3038	2.7273	0.1	-0.2669
24603	7.396	2.8182	0.1	-0.21864
24604	7.1193	2.7273	0.1	-0.36863
24605	7.2116	2.8182	0.1	-0.30537
24606	6.9348	2.7273	0.1	-0.50603
24607	7.0271	2.8182	0.1	-0.42457
24608	6.7503	2.7273	0.1	-0.68737
24609	6.8426	2.8182	0.1	-0.58566
24610	6.5658	2.7273	0.1	-0.91981
24611	6.6581	2.8182	0.1	-0.79593
24612	6.3814	2.7273	0.1	-1.1809
24613	6.4736	2.8182	0.1	-1.0544
24614	6.1969	2.7273	0.1	-1.4759
24615	6.2891	2.8182	0.1	-1.3162
24616	6.0124	2.7273	0.1	-15.93
24617	6.1046	2.8182	0.1	-1.5715
24618	5.8279	2.7273	0.1	-284.11
24619	5.9201	2.8182	0.1	-134.4
24620	5.6434	2.7273	0.1	-597.15
24621	5.7356	2.8182	0.1	-434.11
24622	5.5512	2.8182	0.1	-740.08
24623	5.4589	2.7273	0.1	-860.77
24624	23.723	2.9091	0.1	-172.51
24625	23.816	3.	0.1	-177.71
24626	23.908	2.9091	0.1	-182.69
24627	23.539	2.9091	0.1	-162.22
24628	23.631	3.	0.1	-167.3
24629	23.354	2.9091	0.1	-152.3
24630	23.447	3.	0.1	-157.13
24631	23.17	2.9091	0.1	-142.87
24632	23.262	3.	0.1	-147.47
24633	22.985	2.9091	0.1	-133.89
24634	23.078	3.	0.1	-138.26
24635	22.801	2.9091	0.1	-125.39
24636	22.893	3.	0.1	-129.52
24637	22.616	2.9091	0.1	-117.36
24638	22.709	3.	0.1	-121.25
24639	22.432	2.9091	0.1	-109.78
24640	22.524	3.	0.1	-113.45
24641	22.247	2.9091	0.1	-102.66
24642	22.34	3.	0.1	-106.1
24643	22.063	2.9091	0.1	-95.989
24644	22.155	3.	0.1	-99.207
24645	21.878	2.9091	0.1	-89.741
24646	21.971	3.	0.1	-92.749
24647	21.694	2.9091	0.1	-83.904
24648	21.786	3.	0.1	-86.71
24649	21.509	2.9091	0.1	-78.458
24650	21.602	3.	0.1	-81.072
24651	21.325	2.9091	0.1	-73.383
24652	21.417	3.	0.1	-75.816
24653	21.14	2.9091	0.1	-68.658
24654	21.233	3.	0.1	-70.921
24655	20.956	2.9091	0.1	-64.263
24656	21.048	3.	0.1	-66.366
24657	20.771	2.9091	0.1	-60.176
24658	20.864	3.	0.1	-62.13
24659	20.587	2.9091	0.1	-56.377
24660	20.679	3.	0.1	-58.191
24661	20.402	2.9091	0.1	-52.845
24662	20.495	3.	0.1	-54.53
24663	20.218	2.9091	0.1	-49.561
24664	20.31	3.	0.1	-51.127
24665	20.033	2.9091	0.1	-46.507
24666	20.126	3.	0.1	-47.962
24667	19.849	2.9091	0.1	-43.664
24668	19.941	3.	0.1	-45.018
24669	19.665	2.9091	0.1	-41.016
24670	19.757	3.	0.1	-42.276
24671	19.48	2.9091	0.1	-38.547
24672	19.572	3.	0.1	-39.722
24673	19.296	2.9091	0.1	-36.242
24674	19.388	3.	0.1	-37.338
24675	19.111	2.9091	0.1	-34.086
24676	19.203	3.	0.1	-35.111
24677	18.927	2.9091	0.1	-32.067
24678	19.019	3.	0.1	-33.027
24679	18.742	2.9091	0.1	-30.17
24680	18.834	3.	0.1	-31.072
24681	18.558	2.9091	0.1	-28.385
24682	18.65	3.	0.1	-29.234
24683	18.373	2.9091	0.1	-26.7
24684	18.465	3.	0.1	-27.502
24685	18.189	2.9091	0.1	-25.104
24686	18.281	3.	0.1	-25.864
24687	18.004	2.9091	0.1	-23.586
24688	18.096	3.	0.1	-24.31
24689	17.82	2.9091	0.1	-22.138
24690	17.912	3.	0.1	-22.829
24691	17.635	2.9091	0.1	-20.75
24692	17.727	3.	0.1	-21.414
24693	17.451	2.9091	0.1	-19.413
24694	17.543	3.	0.1	-20.053
24695	17.266	2.9091	0.1	-18.118
24696	17.358	3.	0.1	-18.739
24697	17.082	2.9091	0.1	-16.856
24698	17.174	3.	0.1	-17.464
24699	16.897	2.9091	0.1	-15.621
24700	16.989	3.	0.1	-16.218
24701	16.713	2.9091	0.1	-14.403
24702	16.805	3.	0.1	-14.993
24703	16.528	2.9091	0.1	-13.195
24704	16.62	3.	0.1	-13.782
24705	16.344	2.9091	0.1	-11.989
24706	16.436	3.	0.1	-12.578
24707	16.159	2.9091	0.1	-10.777
24708	16.251	3.	0.1	-11.371
24709	15.975	2.9091	0.1	-9.5512
24710	16.067	3.	0.1	-10.154
24711	15.79	2.9091	0.1	-8.3034
24712	15.883	3.	0.1	-8.9195
24713	15.606	2.9091	0.1	-7.0256
24714	15.698	3.	0.1	-7.659
24715	15.421	2.9091	0.1	-5.7093
24716	15.514	3.	0.1	-6.3644
24717	15.237	2.9091	0.1	-4.346
24718	15.329	3.	0.1	-5.0271
24719	15.052	2.9091	0.1	-2.9264
24720	15.145	3.	0.1	-3.6382
24721	14.868	2.9091	0.1	-1.4413
24722	14.96	3.	0.1	-2.1885
24723	14.683	2.9091	0.1	-8.3263e-003
24724	14.776	3.	0.1	-0.6685
24725	14.499	2.9091	0.1	-7.2466e-003
24726	14.591	3.	0.1	-7.3194e-003
24727	14.314	2.9091	0.1	-6.9741e-003
24728	14.407	3.	0.1	-7.0662e-003
24729	14.13	2.9091	0.1	-6.7319e-003
24730	14.222	3.	0.1	-6.8381e-003
24731	13.945	2.9091	0.1	-6.488e-003
24732	14.038	3.	0.1	-6.6034e-003
24733	13.761	2.9091	0.1	-6.2363e-003
24734	13.853	3.	0.1	-6.3601e-003
24735	13.576	2.9091	0.1	-5.9914e-003
24736	13.669	3.	0.1	-6.1057e-003
24737	13.392	2.9091	0.1	-5.7493e-003
24738	13.484	3.	0.1	-5.8746e-003
24739	13.207	2.9091	0.1	-5.5055e-003
24740	13.3	3.	0.1	-5.6239e-003
24741	13.023	2.9091	0.1	-5.254e-003
24742	13.115	3.	0.1	-5.3872e-003
24743	12.838	2.9091	0.1	-4.9706e-003
24744	12.931	3.	0.1	-5.1209e-003
24745	12.654	2.9091	0.1	-4.6806e-003
24746	12.746	3.	0.1	-4.8207e-003
24747	12.469	2.9091	0.1	-4.3918e-003
24748	12.562	3.	0.1	-4.5406e-003
24749	12.285	2.9091	0.1	-4.0848e-003
24750	12.377	3.	0.1	-4.2419e-003
24751	12.1	2.9091	0.1	-3.7582e-003
24752	12.193	3.	0.1	-3.9249e-003
24753	11.916	2.9091	0.1	-3.4316e-003
24754	12.008	3.	0.1	-3.5869e-003
24755	11.732	2.9091	0.1	-3.1023e-003
24756	11.824	3.	0.1	-3.2693e-003
24757	11.547	2.9091	0.1	-2.7684e-003
24758	11.639	3.	0.1	-2.9248e-003
24759	11.363	2.9091	0.1	-2.4277e-003
24760	11.455	3.	0.1	-2.5968e-003
24761	11.178	2.9091	0.1	-2.0581e-003
24762	11.27	3.	0.1	-2.2382e-003
24763	10.994	2.9091	0.1	-1.6995e-003
24764	11.086	3.	0.1	-1.8516e-003
24765	10.809	2.9091	0.1	-1.3726e-003
24766	10.901	3.	0.1	-1.5126e-003
24767	10.625	2.9091	0.1	-1.0729e-003
24768	10.717	3.	0.1	-1.1874e-003
24769	10.44	2.9091	0.1	-8.2186e-004
24770	10.532	3.	0.1	-9.0067e-004
24771	10.256	2.9091	0.1	-6.8205e-004
24772	10.348	3.	0.1	-6.6893e-004
24773	10.071	2.9091	0.1	-6.9871e-004
24774	10.163	3.	0.1	-6.0033e-004
24775	9.8866	2.9091	0.1	-8.9375e-004
24776	9.9789	3.	0.1	-6.7635e-004
24777	9.7021	2.9091	0.1	-1.3724e-003
24778	9.7944	3.	0.1	-9.5665e-004
24779	9.5177	2.9091	0.1	-2.2693e-003
24780	9.6099	3.	0.1	-1.5899e-003
24781	9.3332	2.9091	0.1	-3.7429e-003
24782	9.4254	3.	0.1	-2.6952e-003
24783	9.1487	2.9091	0.1	-6.0198e-003
24784	9.2409	3.	0.1	-4.4658e-003
24785	8.9642	2.9091	0.1	-9.4072e-003
24786	9.0564	3.	0.1	-7.1573e-003
24787	8.7797	2.9091	0.1	-1.4335e-002
24788	8.8719	3.	0.1	-1.1123e-002
24789	8.5952	2.9091	0.1	-2.1392e-002
24790	8.6875	3.	0.1	-1.686e-002
24791	8.4107	2.9091	0.1	-3.1393e-002
24792	8.503	3.	0.1	-2.5041e-002
24793	8.2262	2.9091	0.1	-4.5485e-002
24794	8.3185	3.	0.1	-3.6612e-002
24795	8.0417	2.9091	0.1	-6.527e-002
24796	8.134	3.	0.1	-5.2904e-002
24797	7.8573	2.9091	0.1	-9.2997e-002
24798	7.9495	3.	0.1	-7.5776e-002
24799	7.6728	2.9091	0.1	-0.13183
24800	7.765	3.	0.1	-0.10785
24801	7.4883	2.9091	0.1	-0.18616
24802	7.5805	3.	0.1	-0.15281
24803	7.3038	2.9091	0.1	-0.26202
24804	7.396	3.	0.1	-0.21579
24805	7.1193	2.9091	0.1	-0.36723
24806	7.2116	3.	0.1	-0.30372
24807	6.9348	2.9091	0.1	-0.51098
24808	7.0271	3.	0.1	-0.42548
24809	6.7503	2.9091	0.1	-0.70112
24810	6.8426	3.	0.1	-0.59082
24811	6.5658	2.9091	0.1	-0.93561
24812	6.6581	3.	0.1	-0.80628
24813	6.3814	2.9091	0.1	-1.1881
24814	6.4736	3.	0.1	-1.062
24815	6.1969	2.9091	0.1	-1.3601
24816	6.2891	3.	0.1	-1.315
24817	6.0124	2.9091	0.1	-29.559
24818	6.1046	3.	0.1	-1.3976
24819	5.8279	2.9091	0.1	-295.36
24820	5.9201	3.	0.1	-143.52
24821	5.6434	2.9091	0.1	-585.01
24822	5.7356	3.	0.1	-437.08
24823	5.5512	3.	0.1	-725.35
24824	5.4589	2.9091	0.1	-816.5
24825	23.723	3.0909	0.1	-172.51
24826	23.816	3.1818	0.1	-177.24
24827	23.908	3.0909	0.1	-182.69
24828	23.539	3.0909	0.1	-162.22
24829	23.631	3.1818	0.1	-166.83
24830	23.354	3.0909	0.1	-152.3
24831	23.447	3.1818	0.1	-156.67
24832	23.17	3.0909	0.1	-142.87
24833	23.262	3.1818	0.1	-147.02
24834	22.985	3.0909	0.1	-133.89
24835	23.078	3.1818	0.1	-137.82
24836	22.801	3.0909	0.1	-125.39
24837	22.893	3.1818	0.1	-129.09
24838	22.616	3.0909	0.1	-117.36
24839	22.709	3.1818	0.1	-120.84
24840	22.432	3.0909	0.1	-109.78
24841	22.524	3.1818	0.1	-113.05
24842	22.247	3.0909	0.1	-102.66
24843	22.34	3.1818	0.1	-105.73
24844	22.063	3.0909	0.1	-95.989
24845	22.155	3.1818	0.1	-98.858
24846	21.878	3.0909	0.1	-89.741
24847	21.971	3.1818	0.1	-92.421
24848	21.694	3.0909	0.1	-83.904
24849	21.786	3.1818	0.1	-86.404
24850	21.509	3.0909	0.1	-78.458
24851	21.602	3.1818	0.1	-80.789
24852	21.325	3.0909	0.1	-73.383
24853	21.417	3.1818	0.1	-75.554
24854	21.14	3.0909	0.1	-68.658
24855	21.233	3.1818	0.1	-70.68
24856	20.956	3.0909	0.1	-64.263
24857	21.048	3.1818	0.1	-66.145
24858	20.771	3.0909	0.1	-60.176
24859	20.864	3.1818	0.1	-61.927
24860	20.587	3.0909	0.1	-56.377
24861	20.679	3.1818	0.1	-58.007
24862	20.402	3.0909	0.1	-52.845
24863	20.495	3.1818	0.1	-54.363
24864	20.218	3.0909	0.1	-49.561
24865	20.31	3.1818	0.1	-50.975
24866	20.033	3.0909	0.1	-46.507
24867	20.126	3.1818	0.1	-47.825
24868	19.849	3.0909	0.1	-43.664
24869	19.941	3.1818	0.1	-44.894
24870	19.665	3.0909	0.1	-41.016
24871	19.757	3.1818	0.1	-42.165
24872	19.48	3.0909	0.1	-38.547
24873	19.572	3.1818	0.1	-39.623
24874	19.296	3.0909	0.1	-36.242
24875	19.388	3.1818	0.1	-37.25
24876	19.111	3.0909	0.1	-34.086
24877	19.203	3.1818	0.1	-35.033
24878	18.927	3.0909	0.1	-32.067
24879	19.019	3.1818	0.1	-32.958
24880	18.742	3.0909	0.1	-30.17
24881	18.834	3.1818	0.1	-31.011
24882	18.558	3.0909	0.1	-28.385
24883	18.65	3.1818	0.1	-29.181
24884	18.373	3.0909	0.1	-26.7
24885	18.465	3.1818	0.1	-27.456
24886	18.189	3.0909	0.1	-25.104
24887	18.281	3.1818	0.1	-25.825
24888	18.004	3.0909	0.1	-23.586
24889	18.096	3.1818	0.1	-24.278
24890	17.82	3.0909	0.1	-22.138
24891	17.912	3.1818	0.1	-22.803
24892	17.635	3.0909	0.1	-20.75
24893	17.727	3.1818	0.1	-21.393
24894	17.451	3.0909	0.1	-19.413
24895	17.543	3.1818	0.1	-20.038
24896	17.266	3.0909	0.1	-18.118
24897	17.358	3.1818	0.1	-18.73
24898	17.082	3.0909	0.1	-16.856
24899	17.174	3.1818	0.1	-17.459
24900	16.897	3.0909	0.1	-15.621
24901	16.989	3.1818	0.1	-16.217
24902	16.713	3.0909	0.1	-14.403
24903	16.805	3.1818	0.1	-14.998
24904	16.528	3.0909	0.1	-13.195
24905	16.62	3.1818	0.1	-13.791
24906	16.344	3.0909	0.1	-11.989
24907	16.436	3.1818	0.1	-12.591
24908	16.159	3.0909	0.1	-10.777
24909	16.251	3.1818	0.1	-11.389
24910	15.975	3.0909	0.1	-9.5512
24911	16.067	3.1818	0.1	-10.177
24912	15.79	3.0909	0.1	-8.3034
24913	15.883	3.1818	0.1	-8.9466
24914	15.606	3.0909	0.1	-7.0256
24915	15.698	3.1818	0.1	-7.6908
24916	15.421	3.0909	0.1	-5.7094
24917	15.514	3.1818	0.1	-6.4011
24918	15.237	3.0909	0.1	-4.346
24919	15.329	3.1818	0.1	-5.0688
24920	15.052	3.0909	0.1	-2.9264
24921	15.145	3.1818	0.1	-3.6853
24922	14.868	3.0909	0.1	-1.4413
24923	14.96	3.1818	0.1	-2.2413
24924	14.683	3.0909	0.1	-8.3261e-003
24925	14.776	3.1818	0.1	-0.72758
24926	14.499	3.0909	0.1	-7.2464e-003
24927	14.591	3.1818	0.1	-7.8064e-003
24928	14.314	3.0909	0.1	-6.9743e-003
24929	14.407	3.1818	0.1	-7.2099e-003
24930	14.13	3.0909	0.1	-6.7321e-003
24931	14.222	3.1818	0.1	-6.911e-003
24932	13.945	3.0909	0.1	-6.4877e-003
24933	14.038	3.1818	0.1	-6.6465e-003
24934	13.761	3.0909	0.1	-6.2358e-003
24935	13.853	3.1818	0.1	-6.3881e-003
24936	13.576	3.0909	0.1	-5.9916e-003
24937	13.669	3.1818	0.1	-6.1259e-003
24938	13.392	3.0909	0.1	-5.7499e-003
24939	13.484	3.1818	0.1	-5.8908e-003
24940	13.207	3.0909	0.1	-5.5053e-003
24941	13.3	3.1818	0.1	-5.638e-003
24942	13.023	3.0909	0.1	-5.2533e-003
24943	13.115	3.1818	0.1	-5.4007e-003
24944	12.838	3.0909	0.1	-4.9703e-003
24945	12.931	3.1818	0.1	-5.136e-003
24946	12.654	3.0909	0.1	-4.6806e-003
24947	12.746	3.1818	0.1	-4.8385e-003
24948	12.469	3.0909	0.1	-4.3916e-003
24949	12.562	3.1818	0.1	-4.5622e-003
24950	12.285	3.0909	0.1	-4.0845e-003
24951	12.377	3.1818	0.1	-4.2687e-003
24952	12.1	3.0909	0.1	-3.7582e-003
24953	12.193	3.1818	0.1	-3.9581e-003
24954	11.916	3.0909	0.1	-3.4318e-003
24955	12.008	3.1818	0.1	-3.6281e-003
24956	11.732	3.0909	0.1	-3.1023e-003
24957	11.824	3.1818	0.1	-3.321e-003
24958	11.547	3.0909	0.1	-2.768e-003
24959	11.639	3.1818	0.1	-2.9882e-003
24960	11.363	3.0909	0.1	-2.4273e-003
24961	11.455	3.1818	0.1	-2.6743e-003
24962	11.178	3.0909	0.1	-2.0582e-003
24963	11.27	3.1818	0.1	-2.3332e-003
24964	10.994	3.0909	0.1	-1.6994e-003
24965	11.086	3.1818	0.1	-1.9677e-003
24966	10.809	3.0909	0.1	-1.3724e-003
24967	10.901	3.1818	0.1	-1.6534e-003
24968	10.625	3.0909	0.1	-1.0729e-003
24969	10.717	3.1818	0.1	-1.3589e-003
24970	10.44	3.0909	0.1	-8.2186e-004
24971	10.532	3.1818	0.1	-1.1089e-003
24972	10.256	3.0909	0.1	-6.8204e-004
24973	10.348	3.1818	0.1	-9.2091e-004
24974	10.071	3.0909	0.1	-6.9915e-004
24975	10.163	3.1818	0.1	-9.0606e-004
24976	9.8866	3.0909	0.1	-8.941e-004
24977	9.9789	3.1818	0.1	-1.0481e-003
24978	9.7021	3.0909	0.1	-1.3722e-003
24979	9.7944	3.1818	0.1	-1.4077e-003
24980	9.5177	3.0909	0.1	-2.2692e-003
24981	9.6099	3.1818	0.1	-2.1383e-003
24982	9.3332	3.0909	0.1	-3.7426e-003
24983	9.4254	3.1818	0.1	-3.3623e-003
24984	9.1487	3.0909	0.1	-6.0195e-003
24985	9.2409	3.1818	0.1	-5.2773e-003
24986	8.9642	3.0909	0.1	-9.4071e-003
24987	9.0564	3.1818	0.1	-8.1445e-003
24988	8.7797	3.0909	0.1	-1.4335e-002
24989	8.8719	3.1818	0.1	-1.2322e-002
24990	8.5952	3.0909	0.1	-2.1392e-002
24991	8.6875	3.1818	0.1	-1.8314e-002
24992	8.4107	3.0909	0.1	-3.1393e-002
24993	8.503	3.1818	0.1	-2.6794e-002
24994	8.2262	3.0909	0.1	-4.5485e-002
24995	8.3185	3.1818	0.1	-3.8707e-002
24996	8.0417	3.0909	0.1	-6.527e-002
24997	8.134	3.1818	0.1	-5.5374e-002
24998	7.8573	3.0909	0.1	-9.2997e-002
24999	7.9495	3.1818	0.1	-7.8616e-002
25000	7.6728	3.0909	0.1	-0.13183
25001	7.765	3.1818	0.1	-0.11099
25002	7.4883	3.0909	0.1	-0.18616
25003	7.5805	3.1818	0.1	-0.15603
25004	7.3038	3.0909	0.1	-0.26202
25005	7.396	3.1818	0.1	-0.21864
25006	7.1193	3.0909	0.1	-0.36723
25007	7.2116	3.1818	0.1	-0.30537
25008	6.9348	3.0909	0.1	-0.51098
25009	7.0271	3.1818	0.1	-0.42457
25010	6.7503	3.0909	0.1	-0.70112
25011	6.8426	3.1818	0.1	-0.58566
25012	6.5658	3.0909	0.1	-0.93561
25013	6.6581	3.1818	0.1	-0.79593
25014	6.3814	3.0909	0.1	-1.1881
25015	6.4736	3.1818	0.1	-1.0544
25016	6.1969	3.0909	0.1	-1.3601
25017	6.2891	3.1818	0.1	-1.3162
25018	6.0124	3.0909	0.1	-29.559
25019	6.1046	3.1818	0.1	-1.5715
25020	5.8279	3.0909	0.1	-295.36
25021	5.9201	3.1818	0.1	-134.4
25022	5.6434	3.0909	0.1	-585.01
25023	5.7356	3.1818	0.1	-434.11
25024	5.5512	3.1818	0.1	-740.08
25025	5.4589	3.0909	0.1	-816.5
25026	23.723	3.2727	0.1	-171.58
25027	23.816	3.3636	0.1	-175.85
25028	23.908	3.2727	0.1	-181.75
25029	23.539	3.2727	0.1	-161.29
25030	23.631	3.3636	0.1	-165.44
25031	23.354	3.2727	0.1	-151.4
25032	23.447	3.3636	0.1	-155.29
25033	23.17	3.2727	0.1	-141.98
25034	23.262	3.3636	0.1	-145.66
25035	22.985	3.2727	0.1	-133.03
25036	23.078	3.3636	0.1	-136.5
25037	22.801	3.2727	0.1	-124.56
25038	22.893	3.3636	0.1	-127.82
25039	22.616	3.2727	0.1	-116.56
25040	22.709	3.3636	0.1	-119.61
25041	22.432	3.2727	0.1	-109.02
25042	22.524	3.3636	0.1	-111.88
25043	22.247	3.2727	0.1	-101.94
25044	22.34	3.3636	0.1	-104.62
25045	22.063	3.2727	0.1	-95.312
25046	22.155	3.3636	0.1	-97.81
25047	21.878	3.2727	0.1	-89.108
25048	21.971	3.3636	0.1	-91.439
25049	21.694	3.2727	0.1	-83.315
25050	21.786	3.3636	0.1	-85.489
25051	21.509	3.2727	0.1	-77.912
25052	21.602	3.3636	0.1	-79.94
25053	21.325	3.2727	0.1	-72.879
25054	21.417	3.3636	0.1	-74.77
25055	21.14	3.2727	0.1	-68.196
25056	21.233	3.3636	0.1	-69.958
25057	20.956	3.2727	0.1	-63.84
25058	21.048	3.3636	0.1	-65.483
25059	20.771	3.2727	0.1	-59.79
25060	20.864	3.3636	0.1	-61.323
25061	20.587	3.2727	0.1	-56.025
25062	20.679	3.3636	0.1	-57.456
25063	20.402	3.2727	0.1	-52.526
25064	20.495	3.3636	0.1	-53.862
25065	20.218	3.2727	0.1	-49.272
25066	20.31	3.3636	0.1	-50.522
25067	20.033	3.2727	0.1	-46.246
25068	20.126	3.3636	0.1	-47.415
25069	19.849	3.2727	0.1	-43.43
25070	19.941	3.3636	0.1	-44.525
25071	19.665	3.2727	0.1	-40.806
25072	19.757	3.3636	0.1	-41.834
25073	19.48	3.2727	0.1	-38.36
25074	19.572	3.3636	0.1	-39.326
25075	19.296	3.2727	0.1	-36.075
25076	19.388	3.3636	0.1	-36.986
25077	19.111	3.2727	0.1	-33.939
25078	19.203	3.3636	0.1	-34.799
25079	18.927	3.2727	0.1	-31.937
25080	19.019	3.3636	0.1	-32.751
25081	18.742	3.2727	0.1	-30.057
25082	18.834	3.3636	0.1	-30.83
25083	18.558	3.2727	0.1	-28.287
25084	18.65	3.3636	0.1	-29.024
25085	18.373	3.2727	0.1	-26.616
25086	18.465	3.3636	0.1	-27.321
25087	18.189	3.2727	0.1	-25.033
25088	18.281	3.3636	0.1	-25.711
25089	18.004	3.2727	0.1	-23.528
25090	18.096	3.3636	0.1	-24.182
25091	17.82	3.2727	0.1	-22.092
25092	17.912	3.3636	0.1	-22.726
25093	17.635	3.2727	0.1	-20.715
25094	17.727	3.3636	0.1	-21.333
25095	17.451	3.2727	0.1	-19.388
25096	17.543	3.3636	0.1	-19.994
25097	17.266	3.2727	0.1	-18.103
25098	17.358	3.3636	0.1	-18.701
25099	17.082	3.2727	0.1	-16.851
25100	17.174	3.3636	0.1	-17.445
25101	16.897	3.2727	0.1	-15.625
25102	16.989	3.3636	0.1	-16.217
25103	16.713	3.2727	0.1	-14.417
25104	16.805	3.3636	0.1	-15.011
25105	16.528	3.2727	0.1	-13.218
25106	16.62	3.3636	0.1	-13.819
25107	16.344	3.2727	0.1	-12.021
25108	16.436	3.3636	0.1	-12.632
25109	16.159	3.2727	0.1	-10.818
25110	16.251	3.3636	0.1	-11.443
25111	15.975	3.2727	0.1	-9.6008
25112	16.067	3.3636	0.1	-10.244
25113	15.79	3.2727	0.1	-8.3623
25114	15.883	3.3636	0.1	-9.0279
25115	15.606	3.2727	0.1	-7.0941
25116	15.698	3.3636	0.1	-7.7862
25117	15.421	3.2727	0.1	-5.7877
25118	15.514	3.3636	0.1	-6.511
25119	15.237	3.2727	0.1	-4.4347
25120	15.329	3.3636	0.1	-5.1938
25121	15.052	3.2727	0.1	-3.0262
25122	15.145	3.3636	0.1	-3.8262
25123	14.868	3.2727	0.1	-1.5528
25124	14.96	3.3636	0.1	-2.3991
25125	14.683	3.2727	0.1	-3.7681e-002
25126	14.776	3.3636	0.1	-0.90395
25127	14.499	3.2727	0.1	-7.735e-003
25128	14.591	3.3636	0.1	-9.8236e-003
25129	14.314	3.2727	0.1	-7.1778e-003
25130	14.407	3.3636	0.1	-7.6955e-003
25131	14.13	3.2727	0.1	-6.8445e-003
25132	14.222	3.3636	0.1	-7.1466e-003
25133	13.945	3.2727	0.1	-6.5577e-003
25134	14.038	3.3636	0.1	-6.7845e-003
25135	13.761	3.2727	0.1	-6.2838e-003
25136	13.853	3.3636	0.1	-6.4772e-003
25137	13.576	3.2727	0.1	-6.0275e-003
25138	13.669	3.3636	0.1	-6.1883e-003
25139	13.392	3.2727	0.1	-5.7793e-003
25140	13.484	3.3636	0.1	-5.9386e-003
25141	13.207	3.2727	0.1	-5.5327e-003
25142	13.3	3.3636	0.1	-5.6795e-003
25143	13.023	3.2727	0.1	-5.2823e-003
25144	13.115	3.3636	0.1	-5.4421e-003
25145	12.838	3.2727	0.1	-5.0032e-003
25146	12.931	3.3636	0.1	-5.1808e-003
25147	12.654	3.2727	0.1	-4.7198e-003
25148	12.746	3.3636	0.1	-4.891e-003
25149	12.469	3.2727	0.1	-4.4401e-003
25150	12.562	3.3636	0.1	-4.6262e-003
25151	12.285	3.2727	0.1	-4.1447e-003
25152	12.377	3.3636	0.1	-4.3478e-003
25153	12.1	3.2727	0.1	-3.8324e-003
25154	12.193	3.3636	0.1	-4.0564e-003
25155	11.916	3.2727	0.1	-3.5243e-003
25156	12.008	3.3636	0.1	-3.7499e-003
25157	11.732	3.2727	0.1	-3.2173e-003
25158	11.824	3.3636	0.1	-3.4723e-003
25159	11.547	3.2727	0.1	-2.909e-003
25160	11.639	3.3636	0.1	-3.1745e-003
25161	11.363	3.2727	0.1	-2.5999e-003
25162	11.455	3.3636	0.1	-2.903e-003
25163	11.178	3.2727	0.1	-2.269e-003
25164	11.27	3.3636	0.1	-2.6126e-003
25165	10.994	3.2727	0.1	-1.956e-003
25166	11.086	3.3636	0.1	-2.3086e-003
25167	10.809	3.2727	0.1	-1.6845e-003
25168	10.901	3.3636	0.1	-2.068e-003
25169	10.625	3.2727	0.1	-1.4523e-003
25170	10.717	3.3636	0.1	-1.8625e-003
25171	10.44	3.2727	0.1	-1.2817e-003
25172	10.532	3.3636	0.1	-1.72e-003
25173	10.256	3.2727	0.1	-1.2393e-003
25174	10.348	3.3636	0.1	-1.6622e-003
25175	10.071	3.2727	0.1	-1.3757e-003
25176	10.163	3.3636	0.1	-1.8051e-003
25177	9.8866	3.2727	0.1	-1.716e-003
25178	9.9789	3.3636	0.1	-2.1396e-003
25179	9.7021	3.2727	0.1	-2.3713e-003
25180	9.7944	3.3636	0.1	-2.7335e-003
25181	9.5177	3.2727	0.1	-3.4844e-003
25182	9.6099	3.3636	0.1	-3.7504e-003
25183	9.3332	3.2727	0.1	-5.2215e-003
25184	9.4254	3.3636	0.1	-5.3241e-003
25185	9.1487	3.2727	0.1	-7.8192e-003
25186	9.2409	3.3636	0.1	-7.6664e-003
25187	8.9642	3.2727	0.1	-1.1596e-002
25188	9.0564	3.3636	0.1	-1.1055e-002
25189	8.7797	3.2727	0.1	-1.6992e-002
25190	8.8719	3.3636	0.1	-1.5866e-002
25191	8.5952	3.2727	0.1	-2.4607e-002
25192	8.6875	3.3636	0.1	-2.2622e-002
25193	8.4107	3.2727	0.1	-3.5256e-002
25194	8.503	3.3636	0.1	-3.2011e-002
25195	8.2262	3.2727	0.1	-5.0075e-002
25196	8.3185	3.3636	0.1	-4.4984e-002
25197	8.0417	3.2727	0.1	-7.0623e-002
25198	8.134	3.3636	0.1	-6.2842e-002
25199	7.8573	3.2727	0.1	-9.9049e-002
25200	7.9495	3.3636	0.1	-8.734e-002
25201	7.6728	3.2727	0.1	-0.13831
25202	7.765	3.3636	0.1	-0.12088
25203	7.4883	3.2727	0.1	-0.19246
25204	7.5805	3.3636	0.1	-0.16669
25205	7.3038	3.2727	0.1	-0.2669
25206	7.396	3.3636	0.1	-0.22912
25207	7.1193	3.2727	0.1	-0.36863
25208	7.2116	3.3636	0.1	-0.31382
25209	6.9348	3.2727	0.1	-0.50603
25210	7.0271	3.3636	0.1	-0.42805
25211	6.7503	3.2727	0.1	-0.68737
25212	6.8426	3.3636	0.1	-0.57984
25213	6.5658	3.2727	0.1	-0.91981
25214	6.6581	3.3636	0.1	-0.78092
25215	6.3814	3.2727	0.1	-1.1809
25216	6.4736	3.3636	0.1	-1.027
25217	6.1969	3.2727	0.1	-1.4759
25218	6.2891	3.3636	0.1	-1.3636
25219	6.0124	3.2727	0.1	-15.93
25220	6.1046	3.3636	0.1	-1.8438
25221	5.8279	3.2727	0.1	-284.11
25222	5.9201	3.3636	0.1	-108.72
25223	5.6434	3.2727	0.1	-597.15
25224	5.7356	3.3636	0.1	-424.75
25225	5.5512	3.3636	0.1	-780.9
25226	5.4589	3.2727	0.1	-860.77
25227	23.723	3.4545	0.1	-169.71
25228	23.816	3.5455	0.1	-173.5
25229	23.908	3.4545	0.1	-179.86
25230	23.539	3.4545	0.1	-159.44
25231	23.631	3.5455	0.1	-163.1
25232	23.354	3.4545	0.1	-149.57
25233	23.447	3.5455	0.1	-152.98
25234	23.17	3.4545	0.1	-140.2
25235	23.262	3.5455	0.1	-143.4
25236	22.985	3.4545	0.1	-131.3
25237	23.078	3.5455	0.1	-134.29
25238	22.801	3.4545	0.1	-122.89
25239	22.893	3.5455	0.1	-125.68
25240	22.616	3.4545	0.1	-114.95
25241	22.709	3.5455	0.1	-117.56
25242	22.432	3.4545	0.1	-107.5
25243	22.524	3.5455	0.1	-109.93
25244	22.247	3.4545	0.1	-100.51
25245	22.34	3.5455	0.1	-102.77
25246	22.063	3.4545	0.1	-93.96
25247	22.155	3.5455	0.1	-96.068
25248	21.878	3.4545	0.1	-87.845
25249	21.971	3.5455	0.1	-89.809
25250	21.694	3.4545	0.1	-82.141
25251	21.786	3.5455	0.1	-83.971
25252	21.509	3.4545	0.1	-76.825
25253	21.602	3.5455	0.1	-78.533
25254	21.325	3.4545	0.1	-71.878
25255	21.417	3.5455	0.1	-73.471
25256	21.14	3.4545	0.1	-67.276
25257	21.233	3.5455	0.1	-68.764
25258	20.956	3.4545	0.1	-62.998
25259	21.048	3.5455	0.1	-64.389
25260	20.771	3.4545	0.1	-59.021
25261	20.864	3.5455	0.1	-60.324
25262	20.587	3.4545	0.1	-55.326
25263	20.679	3.5455	0.1	-56.546
25264	20.402	3.4545	0.1	-51.892
25265	20.495	3.5455	0.1	-53.036
25266	20.218	3.4545	0.1	-48.699
25267	20.31	3.5455	0.1	-49.774
25268	20.033	3.4545	0.1	-45.729
25269	20.126	3.5455	0.1	-46.74
25270	19.849	3.4545	0.1	-42.965
25271	19.941	3.5455	0.1	-43.917
25272	19.665	3.4545	0.1	-40.39
25273	19.757	3.5455	0.1	-41.289
25274	19.48	3.4545	0.1	-37.988
25275	19.572	3.5455	0.1	-38.839
25276	19.296	3.4545	0.1	-35.745
25277	19.388	3.5455	0.1	-36.552
25278	19.111	3.4545	0.1	-33.646
25279	19.203	3.5455	0.1	-34.414
25280	18.927	3.4545	0.1	-31.68
25281	19.019	3.5455	0.1	-32.412
25282	18.742	3.4545	0.1	-29.833
25283	18.834	3.5455	0.1	-30.533
25284	18.558	3.4545	0.1	-28.093
25285	18.65	3.5455	0.1	-28.766
25286	18.373	3.4545	0.1	-26.45
25287	18.465	3.5455	0.1	-27.1
25288	18.189	3.4545	0.1	-24.894
25289	18.281	3.5455	0.1	-25.523
25290	18.004	3.4545	0.1	-23.414
25291	18.096	3.5455	0.1	-24.026
25292	17.82	3.4545	0.1	-22.001
25293	17.912	3.5455	0.1	-22.6
25294	17.635	3.4545	0.1	-20.646
25295	17.727	3.5455	0.1	-21.235
25296	17.451	3.4545	0.1	-19.34
25297	17.543	3.5455	0.1	-19.922
25298	17.266	3.4545	0.1	-18.075
25299	17.358	3.5455	0.1	-18.654
25300	17.082	3.4545	0.1	-16.842
25301	17.174	3.5455	0.1	-17.422
25302	16.897	3.4545	0.1	-15.635
25303	16.989	3.5455	0.1	-16.219
25304	16.713	3.4545	0.1	-14.444
25305	16.805	3.5455	0.1	-15.035
25306	16.528	3.4545	0.1	-13.263
25307	16.62	3.5455	0.1	-13.865
25308	16.344	3.4545	0.1	-12.084
25309	16.436	3.5455	0.1	-12.7
25310	16.159	3.4545	0.1	-10.899
25311	16.251	3.5455	0.1	-11.534
25312	15.975	3.4545	0.1	-9.7001
25313	16.067	3.5455	0.1	-10.357
25314	15.79	3.4545	0.1	-8.4801
25315	15.883	3.5455	0.1	-9.1636
25316	15.606	3.4545	0.1	-7.2309
25317	15.698	3.5455	0.1	-7.945
25318	15.421	3.4545	0.1	-5.9443
25319	15.514	3.5455	0.1	-6.6938
25320	15.237	3.4545	0.1	-4.6119
25321	15.329	3.5455	0.1	-5.4016
25322	15.052	3.4545	0.1	-3.2251
25323	15.145	3.5455	0.1	-4.0603
25324	14.868	3.4545	0.1	-1.7751
25325	14.96	3.5455	0.1	-2.661
25326	14.683	3.4545	0.1	-0.26057
25327	14.776	3.5455	0.1	-1.1958
25328	14.499	3.4545	0.1	-9.01e-003
25329	14.591	3.5455	0.1	-1.7795e-002
25330	14.314	3.4545	0.1	-7.647e-003
25331	14.407	3.5455	0.1	-8.7444e-003
25332	14.13	3.4545	0.1	-7.0941e-003
25333	14.222	3.5455	0.1	-7.6083e-003
25334	13.945	3.4545	0.1	-6.7102e-003
25335	14.038	3.5455	0.1	-7.0436e-003
25336	13.761	3.4545	0.1	-6.3849e-003
25337	13.853	3.5455	0.1	-6.6402e-003
25338	13.576	3.4545	0.1	-6.1002e-003
25339	13.669	3.5455	0.1	-6.2997e-003
25340	13.392	3.4545	0.1	-5.8379e-003
25341	13.484	3.5455	0.1	-6.0214e-003
25342	13.207	3.4545	0.1	-5.5872e-003
25343	13.3	3.5455	0.1	-5.7496e-003
25344	13.023	3.4545	0.1	-5.3386e-003
25345	13.115	3.5455	0.1	-5.5091e-003
25346	12.838	3.4545	0.1	-5.0669e-003
25347	12.931	3.5455	0.1	-5.2527e-003
25348	12.654	3.4545	0.1	-4.7965e-003
25349	12.746	3.5455	0.1	-4.9743e-003
25350	12.469	3.4545	0.1	-4.5341e-003
25351	12.562	3.5455	0.1	-4.7279e-003
25352	12.285	3.4545	0.1	-4.2612e-003
25353	12.377	3.5455	0.1	-4.4733e-003
25354	12.1	3.4545	0.1	-3.9777e-003
25355	12.193	3.5455	0.1	-4.2131e-003
25356	11.916	3.4545	0.1	-3.7043e-003
25357	12.008	3.5455	0.1	-3.9449e-003
25358	11.732	3.4545	0.1	-3.4393e-003
25359	11.824	3.5455	0.1	-3.7133e-003
25360	11.547	3.4545	0.1	-3.1824e-003
25361	11.639	3.5455	0.1	-3.472e-003
25362	11.363	3.4545	0.1	-2.9349e-003
25363	11.455	3.5455	0.1	-3.2687e-003
25364	11.178	3.4545	0.1	-2.6779e-003
25365	11.27	3.5455	0.1	-3.0596e-003
25366	10.994	3.4545	0.1	-2.4542e-003
25367	11.086	3.5455	0.1	-2.8537e-003
25368	10.809	3.4545	0.1	-2.2898e-003
25369	10.901	3.5455	0.1	-2.7311e-003
25370	10.625	3.4545	0.1	-2.1867e-003
25371	10.717	3.5455	0.1	-2.6675e-003
25372	10.44	3.4545	0.1	-2.1731e-003
25373	10.532	3.5455	0.1	-2.696e-003
25374	10.256	3.4545	0.1	-2.3211e-003
25375	10.348	3.5455	0.1	-2.8465e-003
25376	10.071	3.4545	0.1	-2.6883e-003
25377	10.163	3.5455	0.1	-3.2416e-003
25378	9.8866	3.4545	0.1	-3.3099e-003
25379	9.9789	3.5455	0.1	-3.8829e-003
25380	9.7021	3.4545	0.1	-4.3087e-003
25381	9.7944	3.5455	0.1	-4.8519e-003
25382	9.5177	3.4545	0.1	-5.8421e-003
25383	9.6099	3.5455	0.1	-6.3275e-003
25384	9.3332	3.4545	0.1	-8.0935e-003
25385	9.4254	3.5455	0.1	-8.464e-003
25386	9.1487	3.4545	0.1	-1.1321e-002
25387	9.2409	3.5455	0.1	-1.1497e-002
25388	8.9642	3.4545	0.1	-1.5867e-002
25389	9.0564	3.5455	0.1	-1.5735e-002
25390	8.7797	3.4545	0.1	-2.2199e-002
25391	8.8719	3.5455	0.1	-2.1588e-002
25392	8.5952	3.4545	0.1	-3.094e-002
25393	8.6875	3.5455	0.1	-2.9618e-002
25394	8.4107	3.4545	0.1	-4.293e-002
25395	8.503	3.5455	0.1	-4.0555e-002
25396	8.2262	3.4545	0.1	-5.9305e-002
25397	8.3185	3.5455	0.1	-5.5389e-002
25398	8.0417	3.4545	0.1	-8.1592e-002
25399	8.134	3.5455	0.1	-7.5442e-002
25400	7.8573	3.4545	0.1	-0.11183
25401	7.9495	3.5455	0.1	-0.10246
25402	7.6728	3.4545	0.1	-0.15275
25403	7.765	3.5455	0.1	-0.13876
25404	7.4883	3.4545	0.1	-0.20795
25405	7.5805	3.5455	0.1	-0.18739
25406	7.3038	3.4545	0.1	-0.28208
25407	7.396	3.5455	0.1	-0.25227
25408	7.1193	3.4545	0.1	-0.38115
25409	7.2116	3.5455	0.1	-0.33865
25410	6.9348	3.4545	0.1	-0.51212
25411	7.0271	3.5455	0.1	-0.45253
25412	6.7503	3.4545	0.1	-0.68633
25413	6.8426	3.5455	0.1	-0.6039
25414	6.5658	3.4545	0.1	-0.903
25415	6.6581	3.5455	0.1	-0.80035
25416	6.3814	3.4545	0.1	-1.2196
25417	6.4736	3.5455	0.1	-1.0627
25418	6.1969	3.4545	0.1	-1.6403
25419	6.2891	3.5455	0.1	-1.4715
25420	6.0124	3.4545	0.1	-5.3308
25421	6.1046	3.5455	0.1	-1.6708
25422	5.8279	3.4545	0.1	-262.93
25423	5.9201	3.5455	0.1	-77.116
25424	5.6434	3.4545	0.1	-618.91
25425	5.7356	3.5455	0.1	-399.49
25426	5.5512	3.5455	0.1	-864.01
25427	5.4589	3.4545	0.1	-948.98
25428	23.723	3.6364	0.1	-166.9
25429	23.816	3.7273	0.1	-170.19
25430	23.908	3.6364	0.1	-177.01
25431	23.539	3.6364	0.1	-156.65
25432	23.631	3.7273	0.1	-159.8
25433	23.354	3.6364	0.1	-146.82
25434	23.447	3.7273	0.1	-149.73
25435	23.17	3.6364	0.1	-137.51
25436	23.262	3.7273	0.1	-140.2
25437	22.985	3.6364	0.1	-128.69
25438	23.078	3.7273	0.1	-131.18
25439	22.801	3.6364	0.1	-120.37
25440	22.893	3.7273	0.1	-122.68
25441	22.616	3.6364	0.1	-112.55
25442	22.709	3.7273	0.1	-114.69
25443	22.432	3.6364	0.1	-105.22
25444	22.524	3.7273	0.1	-107.19
25445	22.247	3.6364	0.1	-98.352
25446	22.34	3.7273	0.1	-100.18
25447	22.063	3.6364	0.1	-91.94
25448	22.155	3.7273	0.1	-93.638
25449	21.878	3.6364	0.1	-85.96
25450	21.971	3.7273	0.1	-87.538
25451	21.694	3.6364	0.1	-80.39
25452	21.786	3.7273	0.1	-81.86
25453	21.509	3.6364	0.1	-75.208
25454	21.602	3.7273	0.1	-76.58
25455	21.325	3.6364	0.1	-70.388
25456	21.417	3.7273	0.1	-71.671
25457	21.14	3.6364	0.1	-65.909
25458	21.233	3.7273	0.1	-67.111
25459	20.956	3.6364	0.1	-61.748
25460	21.048	3.7273	0.1	-62.876
25461	20.771	3.6364	0.1	-57.882
25462	20.864	3.7273	0.1	-58.943
25463	20.587	3.6364	0.1	-54.29
25464	20.679	3.7273	0.1	-55.29
25465	20.402	3.6364	0.1	-50.953
25466	20.495	3.7273	0.1	-51.897
25467	20.218	3.6364	0.1	-47.85
25468	20.31	3.7273	0.1	-48.743
25469	20.033	3.6364	0.1	-44.964
25470	20.126	3.7273	0.1	-45.81
25471	19.849	3.6364	0.1	-42.277
25472	19.941	3.7273	0.1	-43.08
25473	19.665	3.6364	0.1	-39.774
25474	19.757	3.7273	0.1	-40.538
25475	19.48	3.6364	0.1	-37.438
25476	19.572	3.7273	0.1	-38.168
25477	19.296	3.6364	0.1	-35.256
25478	19.388	3.7273	0.1	-35.954
25479	19.111	3.6364	0.1	-33.215
25480	19.203	3.7273	0.1	-33.885
25481	18.927	3.6364	0.1	-31.3
25482	19.019	3.7273	0.1	-31.946
25483	18.742	3.6364	0.1	-29.502
25484	18.834	3.7273	0.1	-30.125
25485	18.558	3.6364	0.1	-27.807
25486	18.65	3.7273	0.1	-28.412
25487	18.373	3.6364	0.1	-26.207
25488	18.465	3.7273	0.1	-26.796
25489	18.189	3.6364	0.1	-24.689
25490	18.281	3.7273	0.1	-25.266
25491	18.004	3.6364	0.1	-23.246
25492	18.096	3.7273	0.1	-23.813
25493	17.82	3.6364	0.1	-21.867
25494	17.912	3.7273	0.1	-22.428
25495	17.635	3.6364	0.1	-20.545
25496	17.727	3.7273	0.1	-21.101
25497	17.451	3.6364	0.1	-19.27
25498	17.543	3.7273	0.1	-19.826
25499	17.266	3.6364	0.1	-18.034
25500	17.358	3.7273	0.1	-18.592
25501	17.082	3.6364	0.1	-16.83
25502	17.174	3.7273	0.1	-17.394
25503	16.897	3.6364	0.1	-15.651
25504	16.989	3.7273	0.1	-16.223
25505	16.713	3.6364	0.1	-14.487
25506	16.805	3.7273	0.1	-15.071
25507	16.528	3.6364	0.1	-13.333
25508	16.62	3.7273	0.1	-13.932
25509	16.344	3.6364	0.1	-12.18
25510	16.436	3.7273	0.1	-12.798
25511	16.159	3.6364	0.1	-11.021
25512	16.251	3.7273	0.1	-11.661
25513	15.975	3.6364	0.1	-9.8494
25514	16.067	3.7273	0.1	-10.516
25515	15.79	3.6364	0.1	-8.6568
25516	15.883	3.7273	0.1	-9.3536
25517	15.606	3.6364	0.1	-7.4358
25518	15.698	3.7273	0.1	-8.1672
25519	15.421	3.6364	0.1	-6.1785
25520	15.514	3.7273	0.1	-6.9492
25521	15.237	3.6364	0.1	-4.8767
25522	15.329	3.7273	0.1	-5.6916
25523	15.052	3.6364	0.1	-3.5222
25524	15.145	3.7273	0.1	-4.3865
25525	14.868	3.6364	0.1	-2.1065
25526	14.96	3.7273	0.1	-3.0255
25527	14.683	3.6364	0.1	-0.62481
25528	14.776	3.7273	0.1	-1.6011
25529	14.499	3.6364	0.1	-1.2279e-002
25530	14.591	3.7273	0.1	-0.14555
25531	14.314	3.6364	0.1	-8.5597e-003
25532	14.407	3.7273	0.1	-1.1063e-002
25533	14.13	3.6364	0.1	-7.5403e-003
25534	14.222	3.7273	0.1	-8.4543e-003
25535	13.945	3.6364	0.1	-6.971e-003
25536	14.038	3.7273	0.1	-7.4848e-003
25537	13.761	3.6364	0.1	-6.5538e-003
25538	13.853	3.7273	0.1	-6.906e-003
25539	13.576	3.6364	0.1	-6.2189e-003
25540	13.669	3.7273	0.1	-6.4751e-003
25541	13.392	3.6364	0.1	-5.9302e-003
25542	13.484	3.7273	0.1	-6.1482e-003
25543	13.207	3.6364	0.1	-5.6682e-003
25544	13.3	3.7273	0.1	-5.8516e-003
25545	13.023	3.6364	0.1	-5.4198e-003
25546	13.115	3.7273	0.1	-5.6031e-003
25547	12.838	3.6364	0.1	-5.1573e-003
25548	12.931	3.7273	0.1	-5.3505e-003
25549	12.654	3.6364	0.1	-4.9036e-003
25550	12.746	3.7273	0.1	-5.0854e-003
25551	12.469	3.6364	0.1	-4.6662e-003
25552	12.562	3.7273	0.1	-4.8617e-003
25553	12.285	3.6364	0.1	-4.426e-003
25554	12.377	3.7273	0.1	-4.6387e-003
25555	12.1	3.6364	0.1	-4.1832e-003
25556	12.193	3.7273	0.1	-4.4188e-003
25557	11.916	3.6364	0.1	-3.9595e-003
25558	12.008	3.7273	0.1	-4.2012e-003
25559	11.732	3.6364	0.1	-3.7549e-003
25560	11.824	3.7273	0.1	-4.0311e-003
25561	11.547	3.6364	0.1	-3.5714e-003
25562	11.639	3.7273	0.1	-3.8643e-003
25563	11.363	3.6364	0.1	-3.4117e-003
25564	11.455	3.7273	0.1	-3.7503e-003
25565	11.178	3.6364	0.1	-3.2599e-003
25566	11.27	3.7273	0.1	-3.6491e-003
25567	10.994	3.6364	0.1	-3.163e-003
25568	11.086	3.7273	0.1	-3.5716e-003
25569	10.809	3.6364	0.1	-3.1513e-003
25570	10.901	3.7273	0.1	-3.6037e-003
25571	10.625	3.6364	0.1	-3.2318e-003
25572	10.717	3.7273	0.1	-3.7264e-003
25573	10.44	3.6364	0.1	-3.4402e-003
25574	10.532	3.7273	0.1	-3.9795e-003
25575	10.256	3.6364	0.1	-3.858e-003
25576	10.348	3.7273	0.1	-4.4019e-003
25577	10.071	3.6364	0.1	-4.5532e-003
25578	10.163	3.7273	0.1	-5.1271e-003
25579	9.8866	3.6364	0.1	-5.5753e-003
25580	9.9789	3.7273	0.1	-6.1706e-003
25581	9.7021	3.6364	0.1	-7.0644e-003
25582	9.7944	3.7273	0.1	-7.632e-003
25583	9.5177	3.6364	0.1	-9.1997e-003
25584	9.6099	3.7273	0.1	-9.7124e-003
25585	9.3332	3.6364	0.1	-1.2192e-002
25586	9.4254	3.7273	0.1	-1.2595e-002
25587	9.1487	3.6364	0.1	-1.6334e-002
25588	9.2409	3.7273	0.1	-1.6551e-002
25589	8.9642	3.6364	0.1	-2.2008e-002
25590	9.0564	3.7273	0.1	-2.1934e-002
25591	8.7797	3.6364	0.1	-2.9731e-002
25592	8.8719	3.7273	0.1	-2.9212e-002
25593	8.5952	3.6364	0.1	-4.0186e-002
25594	8.6875	3.7273	0.1	-3.9019e-002
25595	8.4107	3.6364	0.1	-5.4276e-002
25596	8.503	3.7273	0.1	-5.2172e-002
25597	8.2262	3.6364	0.1	-7.3204e-002
25598	8.3185	3.7273	0.1	-6.9769e-002
25599	8.0417	3.6364	0.1	-9.8558e-002
25600	8.134	3.7273	0.1	-9.3264e-002
25601	7.8573	3.6364	0.1	-0.13242
25602	7.9495	3.7273	0.1	-0.12456
25603	7.6728	3.6364	0.1	-0.17752
25604	7.765	3.7273	0.1	-0.16618
25605	7.4883	3.6364	0.1	-0.23738
25606	7.5805	3.7273	0.1	-0.22149
25607	7.3038	3.6364	0.1	-0.31675
25608	7.396	3.7273	0.1	-0.29472
25609	7.1193	3.6364	0.1	-0.42127
25610	7.2116	3.7273	0.1	-0.39273
25611	6.9348	3.6364	0.1	-0.56071
25612	7.0271	3.7273	0.1	-0.52097
25613	6.7503	3.6364	0.1	-0.74268
25614	6.8426	3.7273	0.1	-0.70572
25615	6.5658	3.6364	0.1	-0.99905
25616	6.6581	3.7273	0.1	-0.91946
25617	6.3814	3.6364	0.1	-1.379
25618	6.4736	3.7273	0.1	-1.4167
25619	6.1969	3.6364	0.1	-1.5944
25620	6.2891	3.7273	0.1	-1.5111
25621	6.0124	3.6364	0.1	-4.881
25622	6.1046	3.7273	0.1	-4.4769
25623	5.8279	3.6364	0.1	-231.63
25624	5.9201	3.7273	0.1	-85.017
25625	5.6434	3.6364	0.1	-664.39
25626	5.7356	3.7273	0.1	-410.12
25627	5.5512	3.7273	0.1	-943.91
25628	5.4589	3.6364	0.1	-1115.8
25629	23.723	3.8182	0.1	-163.11
25630	23.816	3.9091	0.1	-165.89
25631	23.908	3.8182	0.1	-173.17
25632	23.539	3.8182	0.1	-152.89
25633	23.631	3.9091	0.1	-155.51
25634	23.354	3.8182	0.1	-143.12
25635	23.447	3.9091	0.1	-145.49
25636	23.17	3.8182	0.1	-133.89
25637	23.262	3.9091	0.1	-136.06
25638	22.985	3.8182	0.1	-125.19
25639	23.078	3.9091	0.1	-127.16
25640	22.801	3.8182	0.1	-117.01
25641	22.893	3.9091	0.1	-118.8
25642	22.616	3.8182	0.1	-109.34
25643	22.709	3.9091	0.1	-110.98
25644	22.432	3.8182	0.1	-102.18
25645	22.524	3.9091	0.1	-103.67
25646	22.247	3.8182	0.1	-95.49
25647	22.34	3.9091	0.1	-96.865
25648	22.063	3.8182	0.1	-89.261
25649	22.155	3.9091	0.1	-90.53
25650	21.878	3.8182	0.1	-83.466
25651	21.971	3.9091	0.1	-84.642
25652	21.694	3.8182	0.1	-78.079
25653	21.786	3.9091	0.1	-79.174
25654	21.509	3.8182	0.1	-73.074
25655	21.602	3.9091	0.1	-74.099
25656	21.325	3.8182	0.1	-68.426
25657	21.417	3.9091	0.1	-69.389
25658	21.14	3.8182	0.1	-64.112
25659	21.233	3.9091	0.1	-65.019
25660	20.956	3.8182	0.1	-60.106
25661	21.048	3.9091	0.1	-60.964
25662	20.771	3.8182	0.1	-56.386
25663	20.864	3.9091	0.1	-57.2
25664	20.587	3.8182	0.1	-52.932
25665	20.679	3.9091	0.1	-53.706
25666	20.402	3.8182	0.1	-49.722
25667	20.495	3.9091	0.1	-50.461
25668	20.218	3.8182	0.1	-46.738
25669	20.31	3.9091	0.1	-47.444
25670	20.033	3.8182	0.1	-43.962
25671	20.126	3.9091	0.1	-44.639
25672	19.849	3.8182	0.1	-41.378
25673	19.941	3.9091	0.1	-42.028
25674	19.665	3.8182	0.1	-38.969
25675	19.757	3.9091	0.1	-39.595
25676	19.48	3.8182	0.1	-36.72
25677	19.572	3.9091	0.1	-37.326
25678	19.296	3.8182	0.1	-34.619
25679	19.388	3.9091	0.1	-35.205
25680	19.111	3.8182	0.1	-32.652
25681	19.203	3.9091	0.1	-33.222
25682	18.927	3.8182	0.1	-30.806
25683	19.019	3.9091	0.1	-31.362
25684	18.742	3.8182	0.1	-29.071
25685	18.834	3.9091	0.1	-29.615
25686	18.558	3.8182	0.1	-27.436
25687	18.65	3.9091	0.1	-27.971
25688	18.373	3.8182	0.1	-25.89
25689	18.465	3.9091	0.1	-26.418
25690	18.189	3.8182	0.1	-24.424
25691	18.281	3.9091	0.1	-24.947
25692	18.004	3.8182	0.1	-23.029
25693	18.096	3.9091	0.1	-23.549
25694	17.82	3.8182	0.1	-21.696
25695	17.912	3.9091	0.1	-22.215
25696	17.635	3.8182	0.1	-20.416
25697	17.727	3.9091	0.1	-20.938
25698	17.451	3.8182	0.1	-19.181
25699	17.543	3.9091	0.1	-19.708
25700	17.266	3.8182	0.1	-17.985
25701	17.358	3.9091	0.1	-18.519
25702	17.082	3.8182	0.1	-16.818
25703	17.174	3.9091	0.1	-17.363
25704	16.897	3.8182	0.1	-15.675
25705	16.989	3.9091	0.1	-16.232
25706	16.713	3.8182	0.1	-14.547
25707	16.805	3.9091	0.1	-15.121
25708	16.528	3.8182	0.1	-13.427
25709	16.62	3.9091	0.1	-14.02
25710	16.344	3.8182	0.1	-12.309
25711	16.436	3.9091	0.1	-12.925
25712	16.159	3.8182	0.1	-11.186
25713	16.251	3.9091	0.1	-11.828
25714	15.975	3.8182	0.1	-10.049
25715	16.067	3.9091	0.1	-10.721
25716	15.79	3.8182	0.1	-8.8925
25717	15.883	3.9091	0.1	-9.5984
25718	15.606	3.8182	0.1	-7.7085
25719	15.698	3.9091	0.1	-8.4526
25720	15.421	3.8182	0.1	-6.4897
25721	15.514	3.9091	0.1	-7.2766
25722	15.237	3.8182	0.1	-5.2281
25723	15.329	3.9091	0.1	-6.0627
25724	15.052	3.8182	0.1	-3.9159
25725	15.145	3.9091	0.1	-4.8034
25726	14.868	3.8182	0.1	-2.545
25727	14.96	3.9091	0.1	-3.4908
25728	14.683	3.8182	0.1	-1.1093
25729	14.776	3.9091	0.1	-2.1175
25730	14.499	3.8182	0.1	-2.5721e-002
25731	14.591	3.9091	0.1	-0.68177
25732	14.314	3.8182	0.1	-1.0418e-002
25733	14.407	3.9091	0.1	-1.7859e-002
25734	14.13	3.8182	0.1	-8.3281e-003
25735	14.222	3.9091	0.1	-1.0101e-002
25736	13.945	3.8182	0.1	-7.4015e-003
25737	14.038	3.9091	0.1	-8.2444e-003
25738	13.761	3.8182	0.1	-6.8188e-003
25739	13.853	3.9091	0.1	-7.334e-003
25740	13.576	3.8182	0.1	-6.3981e-003
25741	13.669	3.9091	0.1	-6.7437e-003
25742	13.392	3.8182	0.1	-6.0637e-003
25743	13.484	3.9091	0.1	-6.333e-003
25744	13.207	3.8182	0.1	-5.7808e-003
25745	13.3	3.9091	0.1	-5.9926e-003
25746	13.023	3.8182	0.1	-5.5283e-003
25747	13.115	3.9091	0.1	-5.7258e-003
25748	12.838	3.8182	0.1	-5.2739e-003
25749	12.931	3.9091	0.1	-5.4721e-003
25750	12.654	3.8182	0.1	-5.0397e-003
25751	12.746	3.9091	0.1	-5.2203e-003
25752	12.469	3.8182	0.1	-4.8318e-003
25753	12.562	3.9091	0.1	-5.0215e-003
25754	12.285	3.8182	0.1	-4.6309e-003
25755	12.377	3.9091	0.1	-4.8348e-003
25756	12.1	3.8182	0.1	-4.4384e-003
25757	12.193	3.9091	0.1	-4.6623e-003
25758	11.916	3.8182	0.1	-4.2772e-003
25759	12.008	3.9091	0.1	-4.5046e-003
25760	11.732	3.8182	0.1	-4.1482e-003
25761	11.824	3.9091	0.1	-4.4077e-003
25762	11.547	3.8182	0.1	-4.0551e-003
25763	11.639	3.9091	0.1	-4.3293e-003
25764	11.363	3.8182	0.1	-4.0046e-003
25765	11.455	3.9091	0.1	-4.3216e-003
25766	11.178	3.8182	0.1	-3.9839e-003
25767	11.27	3.9091	0.1	-4.3471e-003
25768	10.994	3.8182	0.1	-4.0433e-003
25769	11.086	3.9091	0.1	-4.4221e-003
25770	10.809	3.8182	0.1	-4.2196e-003
25771	10.901	3.9091	0.1	-4.6357e-003
25772	10.625	3.8182	0.1	-4.527e-003
25773	10.717	3.9091	0.1	-4.9768e-003
25774	10.44	3.8182	0.1	-5.0096e-003
25775	10.532	3.9091	0.1	-5.4935e-003
25776	10.256	3.8182	0.1	-5.7594e-003
25777	10.348	3.9091	0.1	-6.2339e-003
25778	10.071	3.8182	0.1	-6.8584e-003
25779	10.163	3.9091	0.1	-7.3456e-003
25780	9.8866	3.8182	0.1	-8.3744e-003
25781	9.9789	3.9091	0.1	-8.8609e-003
25782	9.7021	3.8182	0.1	-1.0471e-002
25783	9.7944	3.9091	0.1	-1.0901e-002
25784	9.5177	3.8182	0.1	-1.3355e-002
25785	9.6099	3.9091	0.1	-1.3696e-002
25786	9.3332	3.8182	0.1	-1.7277e-002
25787	9.4254	3.9091	0.1	-1.7464e-002
25788	9.1487	3.8182	0.1	-2.2578e-002
25789	9.2409	3.9091	0.1	-2.253e-002
25790	8.9642	3.8182	0.1	-2.9703e-002
25791	9.0564	3.9091	0.1	-2.9308e-002
25792	8.7797	3.8182	0.1	-3.9252e-002
25793	8.8719	3.9091	0.1	-3.8354e-002
25794	8.5952	3.8182	0.1	-5.2013e-002
25795	8.6875	3.9091	0.1	-5.0416e-002
25796	8.4107	3.8182	0.1	-6.9029e-002
25797	8.503	3.9091	0.1	-6.6471e-002
25798	8.2262	3.8182	0.1	-9.1687e-002
25799	8.3185	3.9091	0.1	-8.7832e-002
25800	8.0417	3.8182	0.1	-0.12183
25801	8.134	3.9091	0.1	-0.11626
25802	7.8573	3.8182	0.1	-0.16188
25803	7.9495	3.9091	0.1	-0.15412
25804	7.6728	3.8182	0.1	-0.21516
25805	7.765	3.9091	0.1	-0.20461
25806	7.4883	3.8182	0.1	-0.28601
25807	7.5805	3.9091	0.1	-0.2723
25808	7.3038	3.8182	0.1	-0.38127
25809	7.396	3.9091	0.1	-0.36338
25810	7.1193	3.8182	0.1	-0.50848
25811	7.2116	3.9091	0.1	-0.48926
25812	6.9348	3.8182	0.1	-0.69155
25813	7.0271	3.9091	0.1	-0.66144
25814	6.7503	3.8182	0.1	-0.92623
25815	6.8426	3.9091	0.1	-0.9349
25816	6.5658	3.8182	0.1	-1.4209
25817	6.6581	3.9091	0.1	-1.2921
25818	6.3814	3.8182	0.1	-1.7424
25819	6.4736	3.9091	0.1	-2.3097
25820	6.1969	3.8182	0.1	-4.9814
25821	6.2891	3.9091	0.1	-3.3344
25822	6.0124	3.8182	0.1	-27.489
25823	6.1046	3.9091	0.1	-24.505
25824	5.8279	3.8182	0.1	-284.27
25825	5.9201	3.9091	0.1	-219.93
25826	5.6434	3.8182	0.1	-739.61
25827	5.7356	3.9091	0.1	-636.5
25828	5.5512	3.9091	0.1	-1550.3
25829	5.4589	3.8182	0.1	-1219.6
25830	23.723	4.	0.1	-158.3
25831	23.816	4.0909	0.1	-160.55
25832	23.908	4.	0.1	-168.3
25833	23.539	4.	0.1	-148.13
25834	23.631	4.0909	0.1	-150.19
25835	23.354	4.	0.1	-138.44
25836	23.447	4.0909	0.1	-140.25
25837	23.17	4.	0.1	-129.34
25838	23.262	4.0909	0.1	-130.94
25839	22.985	4.	0.1	-120.79
25840	23.078	4.0909	0.1	-122.2
25841	22.801	4.	0.1	-112.79
25842	22.893	4.0909	0.1	-114.04
25843	22.616	4.	0.1	-105.33
25844	22.709	4.0909	0.1	-106.44
25845	22.432	4.	0.1	-98.385
25846	22.524	4.0909	0.1	-99.38
25847	22.247	4.	0.1	-91.931
25848	22.34	4.0909	0.1	-92.831
25849	22.063	4.	0.1	-85.939
25850	22.155	4.0909	0.1	-86.762
25851	21.878	4.	0.1	-80.38
25852	21.971	4.0909	0.1	-81.141
25853	21.694	4.	0.1	-75.226
25854	21.786	4.0909	0.1	-75.936
25855	21.509	4.	0.1	-70.447
25856	21.602	4.0909	0.1	-71.116
25857	21.325	4.	0.1	-66.015
25858	21.417	4.0909	0.1	-66.65
25859	21.14	4.	0.1	-61.906
25860	21.233	4.0909	0.1	-62.513
25861	20.956	4.	0.1	-58.094
25862	21.048	4.0909	0.1	-58.677
25863	20.771	4.	0.1	-54.556
25864	20.864	4.0909	0.1	-55.119
25865	20.587	4.	0.1	-51.271
25866	20.679	4.0909	0.1	-51.817
25867	20.402	4.	0.1	-48.22
25868	20.495	4.0909	0.1	-48.75
25869	20.218	4.	0.1	-45.382
25870	20.31	4.0909	0.1	-45.9
25871	20.033	4.	0.1	-42.742
25872	20.126	4.0909	0.1	-43.248
25873	19.849	4.	0.1	-40.283
25874	19.941	4.0909	0.1	-40.778
25875	19.665	4.	0.1	-37.989
25876	19.757	4.0909	0.1	-38.476
25877	19.48	4.	0.1	-35.848
25878	19.572	4.0909	0.1	-36.327
25879	19.296	4.	0.1	-33.845
25880	19.388	4.0909	0.1	-34.318
25881	19.111	4.	0.1	-31.969
25882	19.203	4.0909	0.1	-32.437
25883	18.927	4.	0.1	-30.207
25884	19.019	4.0909	0.1	-30.673
25885	18.742	4.	0.1	-28.55
25886	18.834	4.0909	0.1	-29.014
25887	18.558	4.	0.1	-26.987
25888	18.65	4.0909	0.1	-27.45
25889	18.373	4.	0.1	-25.509
25890	18.465	4.0909	0.1	-25.973
25891	18.189	4.	0.1	-24.106
25892	18.281	4.0909	0.1	-24.572
25893	18.004	4.	0.1	-22.769
25894	18.096	4.0909	0.1	-23.24
25895	17.82	4.	0.1	-21.491
25896	17.912	4.0909	0.1	-21.968
25897	17.635	4.	0.1	-20.263
25898	17.727	4.0909	0.1	-20.749
25899	17.451	4.	0.1	-19.079
25900	17.543	4.0909	0.1	-19.574
25901	17.266	4.	0.1	-17.93
25902	17.358	4.0909	0.1	-18.438
25903	17.082	4.	0.1	-16.809
25904	17.174	4.0909	0.1	-17.332
25905	16.897	4.	0.1	-15.71
25906	16.989	4.0909	0.1	-16.251
25907	16.713	4.	0.1	-14.625
25908	16.805	4.0909	0.1	-15.187
25909	16.528	4.	0.1	-13.549
25910	16.62	4.0909	0.1	-14.133
25911	16.344	4.	0.1	-12.474
25912	16.436	4.0909	0.1	-13.084
25913	16.159	4.	0.1	-11.393
25914	16.251	4.0909	0.1	-12.033
25915	15.975	4.	0.1	-10.299
25916	16.067	4.0909	0.1	-10.973
25917	15.79	4.	0.1	-9.1871
25918	15.883	4.0909	0.1	-9.8982
25919	15.606	4.	0.1	-8.0487
25920	15.698	4.0909	0.1	-8.8011
25921	15.421	4.	0.1	-6.877
25922	15.514	4.0909	0.1	-7.6753
25923	15.237	4.	0.1	-5.6648
25924	15.329	4.0909	0.1	-6.5137
25925	15.052	4.	0.1	-4.4045
25926	15.145	4.0909	0.1	-5.3093
25927	14.868	4.	0.1	-3.0884
25928	14.96	4.0909	0.1	-4.0545
25929	14.683	4.	0.1	-1.7098
25930	14.776	4.0909	0.1	-2.7423
25931	14.499	4.	0.1	-0.29018
25932	14.591	4.0909	0.1	-1.3668
25933	14.314	4.	0.1	-1.5112e-002
25934	14.407	4.0909	0.1	-8.2582e-002
25935	14.13	4.	0.1	-9.8163e-003
25936	14.222	4.0909	0.1	-1.3995e-002
25937	13.945	4.	0.1	-8.1303e-003
25938	14.038	4.0909	0.1	-9.6607e-003
25939	13.761	4.	0.1	-7.2397e-003
25940	13.853	4.0909	0.1	-8.0529e-003
25941	13.576	4.	0.1	-6.6663e-003
25942	13.669	4.0909	0.1	-7.1644e-003
25943	13.392	4.	0.1	-6.2518e-003
25944	13.484	4.0909	0.1	-6.6042e-003
25945	13.207	4.	0.1	-5.9286e-003
25946	13.3	4.0909	0.1	-6.1851e-003
25947	13.023	4.	0.1	-5.6613e-003
25948	13.115	4.0909	0.1	-5.8806e-003
25949	12.838	4.	0.1	-5.4112e-003
25950	12.931	4.0909	0.1	-5.616e-003
25951	12.654	4.	0.1	-5.196e-003
25952	12.746	4.0909	0.1	-5.3725e-003
25953	12.469	4.	0.1	-5.0201e-003
25954	12.562	4.0909	0.1	-5.1981e-003
25955	12.285	4.	0.1	-4.8638e-003
25956	12.377	4.0909	0.1	-5.0495e-003
25957	12.1	4.	0.1	-4.7285e-003
25958	12.193	4.0909	0.1	-4.929e-003
25959	11.916	4.	0.1	-4.6379e-003
25960	12.008	4.0909	0.1	-4.8371e-003
25961	11.732	4.	0.1	-4.595e-003
25962	11.824	4.0909	0.1	-4.8207e-003
25963	11.547	4.	0.1	-4.6063e-003
25964	11.639	4.0909	0.1	-4.84e-003
25965	11.363	4.	0.1	-4.6796e-003
25966	11.455	4.0909	0.1	-4.9496e-003
25967	11.178	4.	0.1	-4.807e-003
25968	11.27	4.0909	0.1	-5.114e-003
25969	10.994	4.	0.1	-5.0439e-003
25970	11.086	4.0909	0.1	-5.3551e-003
25971	10.809	4.	0.1	-5.4319e-003
25972	10.901	4.0909	0.1	-5.7672e-003
25973	10.625	4.	0.1	-5.9941e-003
25974	10.717	4.0909	0.1	-6.3454e-003
25975	10.44	4.	0.1	-6.7838e-003
25976	10.532	4.0909	0.1	-7.1466e-003
25977	10.256	4.	0.1	-7.9055e-003
25978	10.348	4.0909	0.1	-8.2302e-003
25979	10.071	4.	0.1	-9.4585e-003
25980	10.163	4.0909	0.1	-9.7589e-003
25981	9.8866	4.	0.1	-1.153e-002
25982	9.9789	4.0909	0.1	-1.1783e-002
25983	9.7021	4.	0.1	-1.4312e-002
25984	9.7944	4.0909	0.1	-1.445e-002
25985	9.5177	4.	0.1	-1.805e-002
25986	9.6099	4.0909	0.1	-1.8024e-002
25987	9.3332	4.	0.1	-2.3041e-002
25988	9.4254	4.0909	0.1	-2.2769e-002
25989	9.1487	4.	0.1	-2.9692e-002
25990	9.2409	4.0909	0.1	-2.907e-002
25991	8.9642	4.	0.1	-3.8539e-002
25992	9.0564	4.0909	0.1	-3.7432e-002
25993	8.7797	4.	0.1	-5.0307e-002
25994	8.8719	4.0909	0.1	-4.8531e-002
25995	8.5952	4.	0.1	-6.5957e-002
25996	8.6875	4.0909	0.1	-6.329e-002
25997	8.4107	4.	0.1	-8.6776e-002
25998	8.503	4.0909	0.1	-8.2937e-002
25999	8.2262	4.	0.1	-0.11451
26000	8.3185	4.0909	0.1	-0.10915
26001	8.0417	4.	0.1	-0.15154
26002	8.134	4.0909	0.1	-0.14427
26003	7.8573	4.	0.1	-0.20115
26004	7.9495	4.0909	0.1	-0.19152
26005	7.6728	4.	0.1	-0.26804
26006	7.765	4.0909	0.1	-0.25557
26007	7.4883	4.	0.1	-0.35906
26008	7.5805	4.0909	0.1	-0.34348
26009	7.3038	4.	0.1	-0.48581
26010	7.396	4.0909	0.1	-0.46613
26011	7.1193	4.	0.1	-0.66534
26012	7.2116	4.0909	0.1	-0.64403
26013	6.9348	4.	0.1	-0.94419
26014	7.0271	4.0909	0.1	-0.91063
26015	6.7503	4.	0.1	-1.3751
26016	6.8426	4.0909	0.1	-1.3693
26017	6.5658	4.	0.1	-2.3478
26018	6.6581	4.0909	0.1	-2.2017
26019	6.3814	4.	0.1	-4.4052
26020	6.4736	4.0909	0.1	-4.7143
26021	6.1969	4.	0.1	-24.633
26022	6.2891	4.0909	0.1	-20.394
26023	6.0124	4.	0.1	-197.77
26024	6.1046	4.0909	0.1	-164.92
26025	5.8279	4.	0.1	-580.52
26026	5.9201	4.0909	0.1	-474.24
26027	5.6434	4.	0.1	-1582.1
26028	5.7356	4.0909	0.1	-1141.2
26029	5.5512	4.0909	0.1	-2911.1
26030	5.4589	4.	0.1	-2449.8
26031	23.723	4.1818	0.1	-152.44
26032	23.816	4.2727	0.1	-154.11
26033	23.908	4.1818	0.1	-162.36
26034	23.539	4.1818	0.1	-142.32
26035	23.631	4.2727	0.1	-143.78
26036	23.354	4.1818	0.1	-132.76
26037	23.447	4.2727	0.1	-133.95
26038	23.17	4.1818	0.1	-123.81
26039	23.262	4.2727	0.1	-124.8
26040	22.985	4.1818	0.1	-115.47
26041	23.078	4.2727	0.1	-116.28
26042	22.801	4.1818	0.1	-107.71
26043	22.893	4.2727	0.1	-108.37
26044	22.616	4.1818	0.1	-100.51
26045	22.709	4.2727	0.1	-101.07
26046	22.432	4.1818	0.1	-93.852
26047	22.524	4.2727	0.1	-94.321
26048	22.247	4.1818	0.1	-87.692
26049	22.34	4.2727	0.1	-88.098
26050	22.063	4.1818	0.1	-81.996
26051	22.155	4.2727	0.1	-82.36
26052	21.878	4.1818	0.1	-76.73
26053	21.971	4.2727	0.1	-77.065
26054	21.694	4.1818	0.1	-71.86
26055	21.786	4.2727	0.1	-72.178
26056	21.509	4.1818	0.1	-67.355
26057	21.602	4.2727	0.1	-67.664
26058	21.325	4.1818	0.1	-63.184
26059	21.417	4.2727	0.1	-63.49
26060	21.14	4.1818	0.1	-59.321
26061	21.233	4.2727	0.1	-59.627
26062	20.956	4.1818	0.1	-55.74
26063	21.048	4.2727	0.1	-56.049
26064	20.771	4.1818	0.1	-52.418
26065	20.864	4.2727	0.1	-52.731
26066	20.587	4.1818	0.1	-49.334
26067	20.679	4.2727	0.1	-49.653
26068	20.402	4.1818	0.1	-46.469
26069	20.495	4.2727	0.1	-46.793
26070	20.218	4.1818	0.1	-43.804
26071	20.31	4.2727	0.1	-44.134
26072	20.033	4.1818	0.1	-41.323
26073	20.126	4.2727	0.1	-41.66
26074	19.849	4.1818	0.1	-39.01
26075	19.941	4.2727	0.1	-39.353
26076	19.665	4.1818	0.1	-36.853
26077	19.757	4.2727	0.1	-37.202
26078	19.48	4.1818	0.1	-34.836
26079	19.572	4.2727	0.1	-35.191
26080	19.296	4.1818	0.1	-32.949
26081	19.388	4.2727	0.1	-33.31
26082	19.111	4.1818	0.1	-31.179
26083	19.203	4.2727	0.1	-31.547
26084	18.927	4.1818	0.1	-29.516
26085	19.019	4.2727	0.1	-29.891
26086	18.742	4.1818	0.1	-27.95
26087	18.834	4.2727	0.1	-28.333
26088	18.558	4.1818	0.1	-26.471
26089	18.65	4.2727	0.1	-26.863
26090	18.373	4.1818	0.1	-25.071
26091	18.465	4.2727	0.1	-25.472
26092	18.189	4.1818	0.1	-23.741
26093	18.281	4.2727	0.1	-24.152
26094	18.004	4.1818	0.1	-22.474
26095	18.096	4.2727	0.1	-22.895
26096	17.82	4.1818	0.1	-21.26
26097	17.912	4.2727	0.1	-21.694
26098	17.635	4.1818	0.1	-20.094
26099	17.727	4.2727	0.1	-20.542
26100	17.451	4.1818	0.1	-18.967
26101	17.543	4.2727	0.1	-19.431
26102	17.266	4.1818	0.1	-17.874
26103	17.358	4.2727	0.1	-18.355
26104	17.082	4.1818	0.1	-16.806
26105	17.174	4.2727	0.1	-17.307
26106	16.897	4.1818	0.1	-15.759
26107	16.989	4.2727	0.1	-16.282
26108	16.713	4.1818	0.1	-14.726
26109	16.805	4.2727	0.1	-15.273
26110	16.528	4.1818	0.1	-13.7
26111	16.62	4.2727	0.1	-14.273
26112	16.344	4.1818	0.1	-12.674
26113	16.436	4.2727	0.1	-13.278
26114	16.159	4.1818	0.1	-11.644
26115	16.251	4.2727	0.1	-12.28
26116	15.975	4.1818	0.1	-10.601
26117	16.067	4.2727	0.1	-11.274
26118	15.79	4.1818	0.1	-9.5408
26119	15.883	4.2727	0.1	-10.253
26120	15.606	4.1818	0.1	-8.4558
26121	15.698	4.2727	0.1	-9.2123
26122	15.421	4.1818	0.1	-7.3395
26123	15.514	4.2727	0.1	-8.1446
26124	15.237	4.1818	0.1	-6.1851
26125	15.329	4.2727	0.1	-7.0433
26126	15.052	4.1818	0.1	-4.9856
26127	15.145	4.2727	0.1	-5.9021
26128	14.868	4.1818	0.1	-3.7338
26129	14.96	4.2727	0.1	-4.714
26130	14.683	4.1818	0.1	-2.4228
26131	14.776	4.2727	0.1	-3.4722
26132	14.499	4.1818	0.1	-1.0495
26133	14.591	4.2727	0.1	-2.17
26134	14.314	4.1818	0.1	-3.943e-002
26135	14.407	4.2727	0.1	-0.80876
26136	14.13	4.1818	0.1	-1.3202e-002
26137	14.222	4.2727	0.1	-3.031e-002
26138	13.945	4.1818	0.1	-9.4795e-003
26139	14.038	4.2727	0.1	-1.2851e-002
26140	13.761	4.1818	0.1	-7.9421e-003
26141	13.853	4.2727	0.1	-9.3891e-003
26142	13.576	4.1818	0.1	-7.0821e-003
26143	13.669	4.2727	0.1	-7.8692e-003
26144	13.392	4.1818	0.1	-6.522e-003
26145	13.484	4.2727	0.1	-7.0227e-003
26146	13.207	4.1818	0.1	-6.1237e-003
26147	13.3	4.2727	0.1	-6.4584e-003
26148	13.023	4.1818	0.1	-5.8233e-003
26149	13.115	4.2727	0.1	-6.0806e-003
26150	12.838	4.1818	0.1	-5.5667e-003
26151	12.931	4.2727	0.1	-5.7843e-003
26152	12.654	4.1818	0.1	-5.3656e-003
26153	12.746	4.2727	0.1	-5.5389e-003
26154	12.469	4.1818	0.1	-5.2204e-003
26155	12.562	4.2727	0.1	-5.3828e-003
26156	12.285	4.1818	0.1	-5.11e-003
26157	12.377	4.2727	0.1	-5.2707e-003
26158	12.1	4.1818	0.1	-5.0354e-003
26159	12.193	4.2727	0.1	-5.2028e-003
26160	11.916	4.1818	0.1	-5.0208e-003
26161	12.008	4.2727	0.1	-5.1789e-003
26162	11.732	4.1818	0.1	-5.0703e-003
26163	11.824	4.2727	0.1	-5.2471e-003
26164	11.547	4.1818	0.1	-5.1923e-003
26165	11.639	4.2727	0.1	-5.3683e-003
26166	11.363	4.1818	0.1	-5.398e-003
26167	11.455	4.2727	0.1	-5.5989e-003
26168	11.178	4.1818	0.1	-5.6824e-003
26169	11.27	4.2727	0.1	-5.9082e-003
26170	10.994	4.1818	0.1	-6.1063e-003
26171	11.086	4.2727	0.1	-6.3196e-003
26172	10.809	4.1818	0.1	-6.718e-003
26173	10.901	4.2727	0.1	-6.9348e-003
26174	10.625	4.1818	0.1	-7.5468e-003
26175	10.717	4.2727	0.1	-7.7535e-003
26176	10.44	4.1818	0.1	-8.6567e-003
26177	10.532	4.2727	0.1	-8.8424e-003
26178	10.256	4.1818	0.1	-1.0166e-002
26179	10.348	4.2727	0.1	-1.0271e-002
26180	10.071	4.1818	0.1	-1.2191e-002
26181	10.163	4.2727	0.1	-1.2218e-002
26182	9.8866	4.1818	0.1	-1.4843e-002
26183	9.9789	4.2727	0.1	-1.4754e-002
26184	9.7021	4.1818	0.1	-1.8344e-002
26185	9.7944	4.2727	0.1	-1.8053e-002
26186	9.5177	4.1818	0.1	-2.2984e-002
26187	9.6099	4.2727	0.1	-2.2417e-002
26188	9.3332	4.1818	0.1	-2.9122e-002
26189	9.4254	4.2727	0.1	-2.8165e-002
26190	9.1487	4.1818	0.1	-3.7249e-002
26191	9.2409	4.2727	0.1	-3.5761e-002
26192	8.9642	4.1818	0.1	-4.8025e-002
26193	9.0564	4.2727	0.1	-4.5823e-002
26194	8.7797	4.1818	0.1	-6.2351e-002
26195	8.8719	4.2727	0.1	-5.9193e-002
26196	8.5952	4.1818	0.1	-8.1452e-002
26197	8.6875	4.2727	0.1	-7.7047e-002
26198	8.4107	4.1818	0.1	-0.10701
26199	8.503	4.2727	0.1	-0.10099
26200	8.2262	4.1818	0.1	-0.14137
26201	8.3185	4.2727	0.1	-0.13331
26202	8.0417	4.1818	0.1	-0.18788
26203	8.134	4.2727	0.1	-0.17728
26204	7.8573	4.1818	0.1	-0.25139
26205	7.9495	4.2727	0.1	-0.23768
26206	7.6728	4.1818	0.1	-0.33932
26207	7.765	4.2727	0.1	-0.32185
26208	7.4883	4.1818	0.1	-0.46355
26209	7.5805	4.2727	0.1	-0.44165
26210	7.3038	4.1818	0.1	-0.64539
26211	7.396	4.2727	0.1	-0.61753
26212	7.1193	4.1818	0.1	-0.92508
26213	7.2116	4.2727	0.1	-0.89014
26214	6.9348	4.1818	0.1	-1.4018
26215	7.0271	4.2727	0.1	-1.3474
26216	6.7503	4.1818	0.1	-2.3378
26217	6.8426	4.2727	0.1	-2.2538
26218	6.5658	4.1818	0.1	-4.9916
26219	6.6581	4.2727	0.1	-4.6444
26220	6.3814	4.1818	0.1	-22.995
26221	6.4736	4.2727	0.1	-19.134
26222	6.1969	4.1818	0.1	-154.59
26223	6.2891	4.2727	0.1	-119.78
26224	6.0124	4.1818	0.1	-434.34
26225	6.1046	4.2727	0.1	-336.76
26226	5.8279	4.1818	0.1	-1033.3
26227	5.9201	4.2727	0.1	-724.22
26228	5.6434	4.1818	0.1	-2493.8
26229	5.7356	4.2727	0.1	-1531.6
26230	5.5512	4.2727	0.1	-3404.
26231	5.4589	4.1818	0.1	-4073.9
26232	23.723	4.3636	0.1	-145.46
26233	23.816	4.4545	0.1	-146.5
26234	23.908	4.3636	0.1	-155.28
26235	23.539	4.3636	0.1	-135.42
26236	23.631	4.4545	0.1	-136.23
26237	23.354	4.3636	0.1	-126.01
26238	23.447	4.4545	0.1	-126.54
26239	23.17	4.3636	0.1	-117.28
26240	23.262	4.4545	0.1	-117.61
26241	22.985	4.3636	0.1	-109.21
26242	23.078	4.4545	0.1	-109.37
26243	22.801	4.3636	0.1	-101.76
26244	22.893	4.4545	0.1	-101.8
26245	22.616	4.3636	0.1	-94.903
26246	22.709	4.4545	0.1	-94.869
26247	22.432	4.3636	0.1	-88.598
26248	22.524	4.4545	0.1	-88.518
26249	22.247	4.3636	0.1	-82.8
26250	22.34	4.4545	0.1	-82.698
26251	22.063	4.3636	0.1	-77.465
26252	22.155	4.4545	0.1	-77.359
26253	21.878	4.3636	0.1	-72.551
26254	21.971	4.4545	0.1	-72.456
26255	21.694	4.3636	0.1	-68.02
26256	21.786	4.4545	0.1	-67.944
26257	21.509	4.3636	0.1	-63.837
26258	21.602	4.4545	0.1	-63.787
26259	21.325	4.3636	0.1	-59.972
26260	21.417	4.4545	0.1	-59.95
26261	21.14	4.3636	0.1	-56.394
26262	21.233	4.4545	0.1	-56.403
26263	20.956	4.3636	0.1	-53.08
26264	21.048	4.4545	0.1	-53.119
26265	20.771	4.3636	0.1	-50.006
26266	20.864	4.4545	0.1	-50.074
26267	20.587	4.3636	0.1	-47.152
26268	20.679	4.4545	0.1	-47.249
26269	20.402	4.3636	0.1	-44.499
26270	20.495	4.4545	0.1	-44.623
26271	20.218	4.3636	0.1	-42.03
26272	20.31	4.4545	0.1	-42.179
26273	20.033	4.3636	0.1	-39.73
26274	20.126	4.4545	0.1	-39.902
26275	19.849	4.3636	0.1	-37.584
26276	19.941	4.4545	0.1	-37.779
26277	19.665	4.3636	0.1	-35.58
26278	19.757	4.4545	0.1	-35.795
26279	19.48	4.3636	0.1	-33.705
26280	19.572	4.4545	0.1	-33.939
26281	19.296	4.3636	0.1	-31.947
26282	19.388	4.4545	0.1	-32.201
26283	19.111	4.3636	0.1	-30.298
26284	19.203	4.4545	0.1	-30.569
26285	18.927	4.3636	0.1	-28.746
26286	19.019	4.4545	0.1	-29.034
26287	18.742	4.3636	0.1	-27.283
26288	18.834	4.4545	0.1	-27.588
26289	18.558	4.3636	0.1	-25.9
26290	18.65	4.4545	0.1	-26.221
26291	18.373	4.3636	0.1	-24.588
26292	18.465	4.4545	0.1	-24.927
26293	18.189	4.3636	0.1	-23.341
26294	18.281	4.4545	0.1	-23.697
26295	18.004	4.3636	0.1	-22.151
26296	18.096	4.4545	0.1	-22.524
26297	17.82	4.3636	0.1	-21.01
26298	17.912	4.4545	0.1	-21.402
26299	17.635	4.3636	0.1	-19.913
26300	17.727	4.4545	0.1	-20.324
26301	17.451	4.3636	0.1	-18.852
26302	17.543	4.4545	0.1	-19.284
26303	17.266	4.3636	0.1	-17.822
26304	17.358	4.4545	0.1	-18.275
26305	17.082	4.3636	0.1	-16.815
26306	17.174	4.4545	0.1	-17.293
26307	16.897	4.3636	0.1	-15.827
26308	16.989	4.4545	0.1	-16.33
26309	16.713	4.3636	0.1	-14.851
26310	16.805	4.4545	0.1	-15.382
26311	16.528	4.3636	0.1	-13.882
26312	16.62	4.4545	0.1	-14.443
26313	16.344	4.3636	0.1	-12.913
26314	16.436	4.4545	0.1	-13.507
26315	16.159	4.3636	0.1	-11.94
26316	16.251	4.4545	0.1	-12.569
26317	15.975	4.3636	0.1	-10.955
26318	16.067	4.4545	0.1	-11.623
26319	15.79	4.3636	0.1	-9.9536
26320	15.883	4.4545	0.1	-10.664
26321	15.606	4.3636	0.1	-8.9293
26322	15.698	4.4545	0.1	-9.6862
26323	15.421	4.3636	0.1	-7.876
26324	15.514	4.4545	0.1	-8.6835
26325	15.237	4.3636	0.1	-6.7873
26326	15.329	4.4545	0.1	-7.6499
26327	15.052	4.3636	0.1	-5.6569
26328	15.145	4.4545	0.1	-6.5797
26329	14.868	4.3636	0.1	-4.478
26330	14.96	4.4545	0.1	-5.4662
26331	14.683	4.3636	0.1	-3.2441
26332	14.776	4.4545	0.1	-4.3034
26333	14.499	4.3636	0.1	-1.9491
26334	14.591	4.4545	0.1	-3.0846
26335	14.314	4.3636	0.1	-0.60171
26336	14.407	4.4545	0.1	-1.8048
26337	14.13	4.3636	0.1	-2.594e-002
26338	14.222	4.4545	0.1	-0.48107
26339	13.945	4.3636	0.1	-1.2518e-002
26340	14.038	4.4545	0.1	-2.4626e-002
26341	13.761	4.3636	0.1	-9.2594e-003
26342	13.853	4.4545	0.1	-1.2457e-002
26343	13.576	4.3636	0.1	-7.7818e-003
26344	13.669	4.4545	0.1	-9.2152e-003
26345	13.392	4.3636	0.1	-6.938e-003
26346	13.484	4.4545	0.1	-7.7356e-003
26347	13.207	4.3636	0.1	-6.3968e-003
26348	13.3	4.4545	0.1	-6.8798e-003
26349	13.023	4.3636	0.1	-6.025e-003
26350	13.115	4.4545	0.1	-6.3558e-003
26351	12.838	4.3636	0.1	-5.7417e-003
26352	12.931	4.4545	0.1	-5.9899e-003
26353	12.654	4.3636	0.1	-5.5432e-003
26354	12.746	4.4545	0.1	-5.7201e-003
26355	12.469	4.3636	0.1	-5.4225e-003
26356	12.562	4.4545	0.1	-5.5705e-003
26357	12.285	4.3636	0.1	-5.3557e-003
26358	12.377	4.4545	0.1	-5.4885e-003
26359	12.1	4.3636	0.1	-5.3416e-003
26360	12.193	4.4545	0.1	-5.4697e-003
26361	11.916	4.3636	0.1	-5.404e-003
26362	12.008	4.4545	0.1	-5.5127e-003
26363	11.732	4.3636	0.1	-5.5479e-003
26364	11.824	4.4545	0.1	-5.6651e-003
26365	11.547	4.3636	0.1	-5.7824e-003
26366	11.639	4.4545	0.1	-5.8879e-003
26367	11.363	4.3636	0.1	-6.1219e-003
26368	11.455	4.4545	0.1	-6.2392e-003
26369	11.178	4.3636	0.1	-6.5648e-003
26370	11.27	4.4545	0.1	-6.691e-003
26371	10.994	4.3636	0.1	-7.1752e-003
26372	11.086	4.4545	0.1	-7.2691e-003
26373	10.809	4.3636	0.1	-8.0067e-003
26374	10.901	4.4545	0.1	-8.0796e-003
26375	10.625	4.3636	0.1	-9.097e-003
26376	10.717	4.4545	0.1	-9.1283e-003
26377	10.44	4.3636	0.1	-1.0519e-002
26378	10.532	4.4545	0.1	-1.0489e-002
26379	10.256	4.3636	0.1	-1.2404e-002
26380	10.348	4.4545	0.1	-1.2241e-002
26381	10.071	4.3636	0.1	-1.4886e-002
26382	10.163	4.4545	0.1	-1.4578e-002
26383	9.8866	4.3636	0.1	-1.8101e-002
26384	9.9789	4.4545	0.1	-1.759e-002
26385	9.7021	4.3636	0.1	-2.2305e-002
26386	9.7944	4.4545	0.1	-2.1478e-002
26387	9.5177	4.3636	0.1	-2.7837e-002
26388	9.6099	4.4545	0.1	-2.6587e-002
26389	9.3332	4.3636	0.1	-3.5129e-002
26390	9.4254	4.4545	0.1	-3.3299e-002
26391	9.1487	4.3636	0.1	-4.4782e-002
26392	9.2409	4.4545	0.1	-4.2171e-002
26393	8.9642	4.3636	0.1	-5.7619e-002
26394	9.0564	4.4545	0.1	-5.3965e-002
26395	8.7797	4.3636	0.1	-7.479e-002
26396	8.8719	4.4545	0.1	-6.9755e-002
26397	8.5952	4.3636	0.1	-9.7909e-002
26398	8.6875	4.4545	0.1	-9.1078e-002
26399	8.4107	4.3636	0.1	-0.12927
26400	8.503	4.4545	0.1	-0.12013
26401	8.2262	4.3636	0.1	-0.17223
26402	8.3185	4.4545	0.1	-0.16016
26403	8.0417	4.3636	0.1	-0.23177
26404	8.134	4.4545	0.1	-0.21608
26405	7.8573	4.3636	0.1	-0.31561
26406	7.9495	4.4545	0.1	-0.29553
26407	7.6728	4.3636	0.1	-0.43635
26408	7.765	4.4545	0.1	-0.41105
26409	7.4883	4.3636	0.1	-0.6161
26410	7.5805	4.4545	0.1	-0.58475
26411	7.3038	4.3636	0.1	-0.89836
26412	7.396	4.4545	0.1	-0.85946
26413	7.1193	4.3636	0.1	-1.3811
26414	7.2116	4.4545	0.1	-1.3321
26415	6.9348	4.3636	0.1	-2.3504
26416	7.0271	4.4545	0.1	-2.2742
26417	6.7503	4.3636	0.1	-5.0176
26418	6.8426	4.4545	0.1	-4.8292
26419	6.5658	4.3636	0.1	-21.213
26420	6.6581	4.4545	0.1	-18.522
26421	6.3814	4.3636	0.1	-110.79
26422	6.4736	4.4545	0.1	-86.665
26423	6.1969	4.3636	0.1	-293.38
26424	6.2891	4.4545	0.1	-222.36
26425	6.0124	4.3636	0.1	-614.18
26426	6.1046	4.4545	0.1	-454.82
26427	5.8279	4.3636	0.1	-1198.9
26428	5.9201	4.4545	0.1	-847.28
26429	5.6434	4.3636	0.1	-2358.4
26430	5.7356	4.4545	0.1	-1528.1
26431	5.5512	4.4545	0.1	-2855.4
26432	5.4589	4.3636	0.1	-2622.6
26433	23.723	4.5455	0.1	-137.28
26434	23.816	4.6364	0.1	-137.63
26435	23.908	4.5455	0.1	-146.97
26436	23.539	4.5455	0.1	-127.36
26437	23.631	4.6364	0.1	-127.43
26438	23.354	4.5455	0.1	-118.16
26439	23.447	4.6364	0.1	-117.94
26440	23.17	4.5455	0.1	-109.72
26441	23.262	4.6364	0.1	-109.32
26442	22.985	4.5455	0.1	-101.99
26443	23.078	4.6364	0.1	-101.46
26444	22.801	4.5455	0.1	-94.946
26445	22.893	4.6364	0.1	-94.33
26446	22.616	4.5455	0.1	-88.518
26447	22.709	4.6364	0.1	-87.87
26448	22.432	4.5455	0.1	-82.654
26449	22.524	4.6364	0.1	-82.007
26450	22.247	4.5455	0.1	-77.296
26451	22.34	4.6364	0.1	-76.676
26452	22.063	4.5455	0.1	-72.391
26453	22.155	4.6364	0.1	-71.815
26454	21.878	4.5455	0.1	-67.892
26455	21.971	4.6364	0.1	-67.369
26456	21.694	4.5455	0.1	-63.755
26457	21.786	4.6364	0.1	-63.291
26458	21.509	4.5455	0.1	-59.943
26459	21.602	4.6364	0.1	-59.542
26460	21.325	4.5455	0.1	-56.425
26461	21.417	4.6364	0.1	-56.085
26462	21.14	4.5455	0.1	-53.171
26463	21.233	4.6364	0.1	-52.892
26464	20.956	4.5455	0.1	-50.156
26465	21.048	4.6364	0.1	-49.935
26466	20.771	4.5455	0.1	-47.36
26467	20.864	4.6364	0.1	-47.193
26468	20.587	4.5455	0.1	-44.762
26469	20.679	4.6364	0.1	-44.646
26470	20.402	4.5455	0.1	-42.345
26471	20.495	4.6364	0.1	-42.276
26472	20.218	4.5455	0.1	-40.093
26473	20.31	4.6364	0.1	-40.068
26474	20.033	4.5455	0.1	-37.993
26475	20.126	4.6364	0.1	-38.009
26476	19.849	4.5455	0.1	-36.031
26477	19.941	4.6364	0.1	-36.084
26478	19.665	4.5455	0.1	-34.195
26479	19.757	4.6364	0.1	-34.283
26480	19.48	4.5455	0.1	-32.476
26481	19.572	4.6364	0.1	-32.596
26482	19.296	4.5455	0.1	-30.862
26483	19.388	4.6364	0.1	-31.012
26484	19.111	4.5455	0.1	-29.344
26485	19.203	4.6364	0.1	-29.523
26486	18.927	4.5455	0.1	-27.915
26487	19.019	4.6364	0.1	-28.12
26488	18.742	4.5455	0.1	-26.564
26489	18.834	4.6364	0.1	-26.795
26490	18.558	4.5455	0.1	-25.286
26491	18.65	4.6364	0.1	-25.542
26492	18.373	4.5455	0.1	-24.072
26493	18.465	4.6364	0.1	-24.352
26494	18.189	4.5455	0.1	-22.916
26495	18.281	4.6364	0.1	-23.219
26496	18.004	4.5455	0.1	-21.811
26497	18.096	4.6364	0.1	-22.138
26498	17.82	4.5455	0.1	-20.751
26499	17.912	4.6364	0.1	-21.102
26500	17.635	4.5455	0.1	-19.729
26501	17.727	4.6364	0.1	-20.105
26502	17.451	4.5455	0.1	-18.741
26503	17.543	4.6364	0.1	-19.142
26504	17.266	4.5455	0.1	-17.78
26505	17.358	4.6364	0.1	-18.206
26506	17.082	4.5455	0.1	-16.84
26507	17.174	4.6364	0.1	-17.295
26508	16.897	4.5455	0.1	-15.917
26509	16.989	4.6364	0.1	-16.4
26510	16.713	4.5455	0.1	-15.005
26511	16.805	4.6364	0.1	-15.519
26512	16.528	4.5455	0.1	-14.099
26513	16.62	4.6364	0.1	-14.646
26514	16.344	4.5455	0.1	-13.193
26515	16.436	4.6364	0.1	-13.775
26516	16.159	4.5455	0.1	-12.283
26517	16.251	4.6364	0.1	-12.903
26518	15.975	4.5455	0.1	-11.362
26519	16.067	4.6364	0.1	-12.023
26520	15.79	4.5455	0.1	-10.426
26521	15.883	4.6364	0.1	-11.132
26522	15.606	4.5455	0.1	-9.4687
26523	15.698	4.6364	0.1	-10.223
26524	15.421	4.5455	0.1	-8.4852
26525	15.514	4.6364	0.1	-9.2911
26526	15.237	4.5455	0.1	-7.4694
26527	15.329	4.6364	0.1	-8.3319
26528	15.052	4.5455	0.1	-6.4155
26529	15.145	4.6364	0.1	-7.3394
26530	14.868	4.5455	0.1	-5.3175
26531	14.96	4.6364	0.1	-6.3079
26532	14.683	4.5455	0.1	-4.1691
26533	14.776	4.6364	0.1	-5.2318
26534	14.499	4.5455	0.1	-2.9644
26535	14.591	4.6364	0.1	-4.105
26536	14.314	4.5455	0.1	-1.6987
26537	14.407	4.6364	0.1	-2.9218
26538	14.13	4.5455	0.1	-0.39876
26539	14.222	4.6364	0.1	-1.6782
26540	13.945	4.5455	0.1	-2.3866e-002
26541	14.038	4.6364	0.1	-0.40166
26542	13.761	4.5455	0.1	-1.237e-002
26543	13.853	4.6364	0.1	-2.4779e-002
26544	13.576	4.5455	0.1	-9.1491e-003
26545	13.669	4.6364	0.1	-1.2551e-002
26546	13.392	4.5455	0.1	-7.6564e-003
26547	13.484	4.6364	0.1	-9.1759e-003
26548	13.207	4.5455	0.1	-6.8167e-003
26549	13.3	4.6364	0.1	-7.6208e-003
26550	13.023	4.5455	0.1	-6.2991e-003
26551	13.115	4.6364	0.1	-6.7795e-003
26552	12.838	4.5455	0.1	-5.9483e-003
26553	12.931	4.6364	0.1	-6.2611e-003
26554	12.654	4.5455	0.1	-5.7297e-003
26555	12.746	4.6364	0.1	-5.9224e-003
26556	12.469	4.5455	0.1	-5.6216e-003
26557	12.562	4.6364	0.1	-5.7553e-003
26558	12.285	4.5455	0.1	-5.5908e-003
26559	12.377	4.6364	0.1	-5.6898e-003
26560	12.1	4.5455	0.1	-5.633e-003
26561	12.193	4.6364	0.1	-5.712e-003
26562	11.916	4.5455	0.1	-5.7702e-003
26563	12.008	4.6364	0.1	-5.8168e-003
26564	11.732	4.5455	0.1	-6.0062e-003
26565	11.824	4.6364	0.1	-6.0492e-003
26566	11.547	4.5455	0.1	-6.351e-003
26567	11.639	4.6364	0.1	-6.3699e-003
26568	11.363	4.5455	0.1	-6.8207e-003
26569	11.455	4.6364	0.1	-6.8367e-003
26570	11.178	4.5455	0.1	-7.4148e-003
26571	11.27	4.6364	0.1	-7.4225e-003
26572	10.994	4.5455	0.1	-8.2011e-003
26573	11.086	4.6364	0.1	-8.1554e-003
26574	10.809	4.5455	0.1	-9.2384e-003
26575	10.901	4.6364	0.1	-9.1443e-003
26576	10.625	4.5455	0.1	-1.0569e-002
26577	10.717	4.6364	0.1	-1.0399e-002
26578	10.44	4.5455	0.1	-1.2274e-002
26579	10.532	4.6364	0.1	-1.1998e-002
26580	10.256	4.5455	0.1	-1.4497e-002
26581	10.348	4.6364	0.1	-1.403e-002
26582	10.071	4.5455	0.1	-1.7387e-002
26583	10.163	4.6364	0.1	-1.67e-002
26584	9.8866	4.5455	0.1	-2.1104e-002
26585	9.9789	4.6364	0.1	-2.0114e-002
26586	9.7021	4.5455	0.1	-2.594e-002
26587	9.7944	4.6364	0.1	-2.4502e-002
26588	9.5177	4.5455	0.1	-3.2289e-002
26589	9.6099	4.6364	0.1	-3.0252e-002
26590	9.3332	4.5455	0.1	-4.0669e-002
26591	9.4254	4.6364	0.1	-3.7815e-002
26592	9.1487	4.5455	0.1	-5.1814e-002
26593	9.2409	4.6364	0.1	-4.786e-002
26594	8.9642	4.5455	0.1	-6.6766e-002
26595	9.0564	4.6364	0.1	-6.1338e-002
26596	8.7797	4.5455	0.1	-8.7035e-002
26597	8.8719	4.6364	0.1	-7.9643e-002
26598	8.5952	4.5455	0.1	-0.11483
26599	8.6875	4.6364	0.1	-0.10486
26600	8.4107	4.5455	0.1	-0.15345
26601	8.503	4.6364	0.1	-0.14013
26602	8.2262	4.5455	0.1	-0.20799
26603	8.3185	4.6364	0.1	-0.19043
26604	8.0417	4.5455	0.1	-0.28656
26605	8.134	4.6364	0.1	-0.26382
26606	7.8573	4.5455	0.1	-0.40276
26607	7.9495	4.6364	0.1	-0.3741
26608	7.6728	4.5455	0.1	-0.58099
26609	7.765	4.6364	0.1	-0.54652
26610	7.4883	4.5455	0.1	-0.86971
26611	7.5805	4.6364	0.1	-0.83226
26612	7.3038	4.5455	0.1	-1.3811
26613	7.396	4.6364	0.1	-1.352
26614	7.1193	4.5455	0.1	-2.4442
26615	7.2116	4.6364	0.1	-2.4681
26616	6.9348	4.5455	0.1	-5.5228
26617	7.0271	4.6364	0.1	-5.814
26618	6.7503	4.5455	0.1	-21.906
26619	6.8426	4.6364	0.1	-21.832
26620	6.5658	4.5455	0.1	-81.655
26621	6.6581	4.6364	0.1	-68.986
26622	6.3814	4.5455	0.1	-191.11
26623	6.4736	4.6364	0.1	-150.61
26624	6.1969	4.5455	0.1	-372.24
26625	6.2891	4.6364	0.1	-281.79
26626	6.0124	4.5455	0.1	-668.3
26627	6.1046	4.6364	0.1	-491.69
26628	5.8279	4.5455	0.1	-1140.8
26629	5.9201	4.6364	0.1	-823.58
26630	5.6434	4.5455	0.1	-1924.
26631	5.7356	4.6364	0.1	-1336.1
26632	5.5512	4.6364	0.1	-2194.9
26633	5.4589	4.5455	0.1	-2048.2
26634	23.723	4.7273	0.1	-127.79
26635	23.816	4.8182	0.1	-127.36
26636	23.908	4.7273	0.1	-137.33
26637	23.539	4.7273	0.1	-118.03
26638	23.631	4.8182	0.1	-117.28
26639	23.354	4.7273	0.1	-109.13
26640	23.447	4.8182	0.1	-108.09
26641	23.17	4.7273	0.1	-101.08
26642	23.262	4.8182	0.1	-99.876
26643	22.985	4.7273	0.1	-93.827
26644	23.078	4.8182	0.1	-92.531
26645	22.801	4.7273	0.1	-87.293
26646	22.893	4.8182	0.1	-85.977
26647	22.616	4.7273	0.1	-81.401
26648	22.709	4.8182	0.1	-80.115
26649	22.432	4.7273	0.1	-76.074
26650	22.524	4.8182	0.1	-74.852
26651	22.247	4.7273	0.1	-71.241
26652	22.34	4.8182	0.1	-70.104
26653	22.063	4.7273	0.1	-66.84
26654	22.155	4.8182	0.1	-65.8
26655	21.878	4.7273	0.1	-62.817
26656	21.971	4.8182	0.1	-61.879
26657	21.694	4.7273	0.1	-59.127
26658	21.786	4.8182	0.1	-58.292
26659	21.509	4.7273	0.1	-55.733
26660	21.602	4.8182	0.1	-54.998
26661	21.325	4.7273	0.1	-52.601
26662	21.417	4.8182	0.1	-51.961
26663	21.14	4.7273	0.1	-49.704
26664	21.233	4.8182	0.1	-49.155
26665	20.956	4.7273	0.1	-47.019
26666	21.048	4.8182	0.1	-46.555
26667	20.771	4.7273	0.1	-44.526
26668	20.864	4.8182	0.1	-44.14
26669	20.587	4.7273	0.1	-42.206
26670	20.679	4.8182	0.1	-41.893
26671	20.402	4.7273	0.1	-40.045
26672	20.495	4.8182	0.1	-39.798
26673	20.218	4.7273	0.1	-38.028
26674	20.31	4.8182	0.1	-37.843
26675	20.033	4.7273	0.1	-36.143
26676	20.126	4.8182	0.1	-36.014
26677	19.849	4.7273	0.1	-34.379
26678	19.941	4.8182	0.1	-34.302
26679	19.665	4.7273	0.1	-32.726
26680	19.757	4.8182	0.1	-32.696
26681	19.48	4.7273	0.1	-31.174
26682	19.572	4.8182	0.1	-31.188
26683	19.296	4.7273	0.1	-29.714
26684	19.388	4.8182	0.1	-29.769
26685	19.111	4.7273	0.1	-28.338
26686	19.203	4.8182	0.1	-28.432
26687	18.927	4.7273	0.1	-27.04
26688	19.019	4.8182	0.1	-27.169
26689	18.742	4.7273	0.1	-25.811
26690	18.834	4.8182	0.1	-25.973
26691	18.558	4.7273	0.1	-24.645
26692	18.65	4.8182	0.1	-24.84
26693	18.373	4.7273	0.1	-23.536
26694	18.465	4.8182	0.1	-23.761
26695	18.189	4.7273	0.1	-22.478
26696	18.281	4.8182	0.1	-22.733
26697	18.004	4.7273	0.1	-21.465
26698	18.096	4.8182	0.1	-21.749
26699	17.82	4.7273	0.1	-20.491
26700	17.912	4.8182	0.1	-20.804
26701	17.635	4.7273	0.1	-19.552
26702	17.727	4.8182	0.1	-19.893
26703	17.451	4.7273	0.1	-18.641
26704	17.543	4.8182	0.1	-19.012
26705	17.266	4.7273	0.1	-17.755
26706	17.358	4.8182	0.1	-18.155
26707	17.082	4.7273	0.1	-16.887
26708	17.174	4.8182	0.1	-17.319
26709	16.897	4.7273	0.1	-16.035
26710	16.989	4.8182	0.1	-16.498
26711	16.713	4.7273	0.1	-15.192
26712	16.805	4.8182	0.1	-15.689
26713	16.528	4.7273	0.1	-14.354
26714	16.62	4.8182	0.1	-14.886
26715	16.344	4.7273	0.1	-13.516
26716	16.436	4.8182	0.1	-14.086
26717	16.159	4.7273	0.1	-12.674
26718	16.251	4.8182	0.1	-13.284
26719	15.975	4.7273	0.1	-11.822
26720	16.067	4.8182	0.1	-12.475
26721	15.79	4.7273	0.1	-10.957
26722	15.883	4.8182	0.1	-11.656
26723	15.606	4.7273	0.1	-10.073
26724	15.698	4.8182	0.1	-10.821
26725	15.421	4.7273	0.1	-9.1657
26726	15.514	4.8182	0.1	-9.9666
26727	15.237	4.7273	0.1	-8.2292
26728	15.329	4.8182	0.1	-9.0873
26729	15.052	4.7273	0.1	-7.2585
26730	15.145	4.8182	0.1	-8.1787
26731	14.868	4.7273	0.1	-6.2484
26732	14.96	4.8182	0.1	-7.2356
26733	14.683	4.7273	0.1	-5.1932
26734	14.776	4.8182	0.1	-6.253
26735	14.499	4.7273	0.1	-4.0873
26736	14.591	4.8182	0.1	-5.2255
26737	14.314	4.7273	0.1	-2.9254
26738	14.407	4.8182	0.1	-4.1478
26739	14.13	4.7273	0.1	-1.7034
26740	14.222	4.8182	0.1	-3.0149
26741	13.945	4.7273	0.1	-0.4448
26742	14.038	4.8182	0.1	-1.8227
26743	13.761	4.7273	0.1	-2.6297e-002
26744	13.853	4.8182	0.1	-0.58438
26745	13.576	4.7273	0.1	-1.2757e-002
26746	13.669	4.8182	0.1	-3.0961e-002
26747	13.392	4.7273	0.1	-9.1686e-003
26748	13.484	4.8182	0.1	-1.3373e-002
26749	13.207	4.7273	0.1	-7.5726e-003
26750	13.3	4.8182	0.1	-9.2898e-003
26751	13.023	4.7273	0.1	-6.7186e-003
26752	13.115	4.8182	0.1	-7.5827e-003
26753	12.838	4.7273	0.1	-6.2097e-003
26754	12.931	4.8182	0.1	-6.6928e-003
26755	12.654	4.7273	0.1	-5.9239e-003
26756	12.746	4.8182	0.1	-6.1859e-003
26757	12.469	4.7273	0.1	-5.8026e-003
26758	12.562	4.8182	0.1	-5.9515e-003
26759	12.285	4.7273	0.1	-5.7942e-003
26760	12.377	4.8182	0.1	-5.8769e-003
26761	12.1	4.7273	0.1	-5.884e-003
26762	12.193	4.8182	0.1	-5.9277e-003
26763	11.916	4.7273	0.1	-6.0895e-003
26764	12.008	4.8182	0.1	-6.0877e-003
26765	11.732	4.7273	0.1	-6.4125e-003
26766	11.824	4.8182	0.1	-6.396e-003
26767	11.547	4.7273	0.1	-6.8618e-003
26768	11.639	4.8182	0.1	-6.8108e-003
26769	11.363	4.7273	0.1	-7.452e-003
26770	11.455	4.8182	0.1	-7.3873e-003
26771	11.178	4.7273	0.1	-8.1848e-003
26772	11.27	4.8182	0.1	-8.0979e-003
26773	10.994	4.7273	0.1	-9.1296e-003
26774	11.086	4.8182	0.1	-8.971e-003
26775	10.809	4.7273	0.1	-1.0346e-002
26776	10.901	4.8182	0.1	-1.0116e-002
26777	10.625	4.7273	0.1	-1.1882e-002
26778	10.717	4.8182	0.1	-1.1544e-002
26779	10.44	4.7273	0.1	-1.3823e-002
26780	10.532	4.8182	0.1	-1.3337e-002
26781	10.256	4.7273	0.1	-1.6321e-002
26782	10.348	4.8182	0.1	-1.5587e-002
26783	10.071	4.7273	0.1	-1.9539e-002
26784	10.163	4.8182	0.1	-1.8507e-002
26785	9.8866	4.7273	0.1	-2.3656e-002
26786	9.9789	4.8182	0.1	-2.2216e-002
26787	9.7021	4.7273	0.1	-2.9001e-002
26788	9.7944	4.8182	0.1	-2.6969e-002
26789	9.5177	4.7273	0.1	-3.6026e-002
26790	9.6099	4.8182	0.1	-3.3194e-002
26791	9.3332	4.7273	0.1	-4.5346e-002
26792	9.4254	4.8182	0.1	-4.1416e-002
26793	9.1487	4.7273	0.1	-5.7868e-002
26794	9.2409	4.8182	0.1	-5.244e-002
26795	8.9642	4.7273	0.1	-7.4936e-002
26796	9.0564	4.8182	0.1	-6.7467e-002
26797	8.7797	4.7273	0.1	-9.8593e-002
26798	8.8719	4.8182	0.1	-8.8351e-002
26799	8.5952	4.7273	0.1	-0.13202
26800	8.6875	4.8182	0.1	-0.11806
26801	8.4107	4.7273	0.1	-0.18036
26802	8.503	4.8182	0.1	-0.16147
26803	8.2262	4.7273	0.1	-0.25222
26804	8.3185	4.8182	0.1	-0.22707
26805	8.0417	4.7273	0.1	-0.36295
26806	8.134	4.8182	0.1	-0.33052
26807	7.8573	4.7273	0.1	-0.54195
26808	7.9495	4.8182	0.1	-0.50334
26809	7.6728	4.7273	0.1	-0.85233
26810	7.765	4.8182	0.1	-0.81755
26811	7.4883	4.7273	0.1	-1.4549
26812	7.5805	4.8182	0.1	-1.4731
26813	7.3038	4.7273	0.1	-2.8896
26814	7.396	4.8182	0.1	-3.227
26815	7.1193	4.7273	0.1	-7.8837
26816	7.2116	4.8182	0.1	-9.9632
26817	6.9348	4.7273	0.1	-27.638
26818	7.0271	4.8182	0.1	-30.052
26819	6.7503	4.7273	0.1	-68.663
26820	6.8426	4.8182	0.1	-63.749
26821	6.5658	4.7273	0.1	-133.36
26822	6.6581	4.8182	0.1	-113.21
26823	6.3814	4.7273	0.1	-233.1
26824	6.4736	4.8182	0.1	-186.18
26825	6.1969	4.7273	0.1	-387.32
26826	6.2891	4.8182	0.1	-295.9
26827	6.0124	4.7273	0.1	-623.41
26828	6.1046	4.8182	0.1	-462.57
26829	5.8279	4.7273	0.1	-978.07
26830	5.9201	4.8182	0.1	-712.73
26831	5.6434	4.7273	0.1	-1537.7
26832	5.7356	4.8182	0.1	-1082.4
26833	5.5512	4.8182	0.1	-1696.3
26834	5.4589	4.7273	0.1	-1549.7
26835	23.723	4.9091	0.1	-116.86
26836	23.816	5.	0.1	-115.52
26837	23.908	4.9091	0.1	-126.19
26838	23.539	4.9091	0.1	-107.35
26839	23.631	5.	0.1	-105.63
26840	23.354	4.9091	0.1	-98.864
26841	23.447	5.	0.1	-96.872
26842	23.17	4.9091	0.1	-91.361
26843	23.262	5.	0.1	-89.261
26844	22.985	4.9091	0.1	-84.725
26845	23.078	5.	0.1	-82.615
26846	22.801	4.9091	0.1	-78.849
26847	22.893	5.	0.1	-76.806
26848	22.616	4.9091	0.1	-73.619
26849	22.709	5.	0.1	-71.691
26850	22.432	4.9091	0.1	-68.938
26851	22.524	5.	0.1	-67.15
26852	22.247	4.9091	0.1	-64.72
26853	22.34	5.	0.1	-63.085
26854	22.063	4.9091	0.1	-60.896
26855	22.155	5.	0.1	-59.417
26856	21.878	4.9091	0.1	-57.411
26857	21.971	5.	0.1	-56.085
26858	21.694	4.9091	0.1	-54.218
26859	21.786	5.	0.1	-53.038
26860	21.509	4.9091	0.1	-51.281
26861	21.602	5.	0.1	-50.239
26862	21.325	4.9091	0.1	-48.569
26863	21.417	5.	0.1	-47.656
26864	21.14	4.9091	0.1	-46.058
26865	21.233	5.	0.1	-45.264
26866	20.956	4.9091	0.1	-43.726
26867	21.048	5.	0.1	-43.042
26868	20.771	4.9091	0.1	-41.557
26869	20.864	5.	0.1	-40.973
26870	20.587	4.9091	0.1	-39.533
26871	20.679	5.	0.1	-39.042
26872	20.402	4.9091	0.1	-37.644
26873	20.495	5.	0.1	-37.237
26874	20.218	4.9091	0.1	-35.875
26875	20.31	5.	0.1	-35.546
26876	20.033	4.9091	0.1	-34.219
26877	20.126	5.	0.1	-33.96
26878	19.849	4.9091	0.1	-32.664
26879	19.941	5.	0.1	-32.469
26880	19.665	4.9091	0.1	-31.202
26881	19.757	5.	0.1	-31.067
26882	19.48	4.9091	0.1	-29.826
26883	19.572	5.	0.1	-29.746
26884	19.296	4.9091	0.1	-28.529
26885	19.388	5.	0.1	-28.499
26886	19.111	4.9091	0.1	-27.303
26887	19.203	5.	0.1	-27.32
26888	18.927	4.9091	0.1	-26.142
26889	19.019	5.	0.1	-26.203
26890	18.742	4.9091	0.1	-25.041
26891	18.834	5.	0.1	-25.142
26892	18.558	4.9091	0.1	-23.994
26893	18.65	5.	0.1	-24.134
26894	18.373	4.9091	0.1	-22.996
26895	18.465	5.	0.1	-23.172
26896	18.189	4.9091	0.1	-22.04
26897	18.281	5.	0.1	-22.252
26898	18.004	4.9091	0.1	-21.124
26899	18.096	5.	0.1	-21.369
26900	17.82	4.9091	0.1	-20.242
26901	17.912	5.	0.1	-20.52
26902	17.635	4.9091	0.1	-19.389
26903	17.727	5.	0.1	-19.7
26904	17.451	4.9091	0.1	-18.561
26905	17.543	5.	0.1	-18.905
26906	17.266	4.9091	0.1	-17.754
26907	17.358	5.	0.1	-18.13
26908	17.082	4.9091	0.1	-16.963
26909	17.174	5.	0.1	-17.374
26910	16.897	4.9091	0.1	-16.185
26911	16.989	5.	0.1	-16.63
26912	16.713	4.9091	0.1	-15.415
26913	16.805	5.	0.1	-15.896
26914	16.528	4.9091	0.1	-14.65
26915	16.62	5.	0.1	-15.168
26916	16.344	4.9091	0.1	-13.884
26917	16.436	5.	0.1	-14.441
26918	16.159	4.9091	0.1	-13.115
26919	16.251	5.	0.1	-13.714
26920	15.975	4.9091	0.1	-12.338
26921	16.067	5.	0.1	-12.98
26922	15.79	4.9091	0.1	-11.549
26923	15.883	5.	0.1	-12.238
26924	15.606	4.9091	0.1	-10.743
26925	15.698	5.	0.1	-11.482
26926	15.421	4.9091	0.1	-9.9162
26927	15.514	5.	0.1	-10.709
26928	15.237	4.9091	0.1	-9.0644
26929	15.329	5.	0.1	-9.9145
26930	15.052	4.9091	0.1	-8.1827
26931	15.145	5.	0.1	-9.0949
26932	14.868	4.9091	0.1	-7.2666
26933	14.96	5.	0.1	-8.2456
26934	14.683	4.9091	0.1	-6.3111
26935	14.776	5.	0.1	-7.3623
26936	14.499	4.9091	0.1	-5.3113
26937	14.591	5.	0.1	-6.4404
26938	14.314	4.9091	0.1	-4.2622
26939	14.407	5.	0.1	-5.4752
26940	14.13	4.9091	0.1	-3.1589
26941	14.222	5.	0.1	-4.4622
26942	13.945	4.9091	0.1	-1.9973
26943	14.038	5.	0.1	-3.3965
26944	13.761	4.9091	0.1	-0.78287
26945	13.853	5.	0.1	-2.2742
26946	13.576	4.9091	0.1	-4.0598e-002
26947	13.669	5.	0.1	-1.0952
26948	13.392	4.9091	0.1	-1.4207e-002
26949	13.484	5.	0.1	-8.2175e-002
26950	13.207	4.9091	0.1	-9.4283e-003
26951	13.3	5.	0.1	-1.6131e-002
26952	13.023	4.9091	0.1	-7.5657e-003
26953	13.115	5.	0.1	-9.7665e-003
26954	12.838	4.9091	0.1	-6.6455e-003
26955	12.931	5.	0.1	-7.5897e-003
26956	12.654	4.9091	0.1	-6.1826e-003
26957	12.746	5.	0.1	-6.5929e-003
26958	12.469	4.9091	0.1	-5.9964e-003
26959	12.562	5.	0.1	-6.1573e-003
26960	12.285	4.9091	0.1	-5.9862e-003
26961	12.377	5.	0.1	-6.0119e-003
26962	12.1	4.9091	0.1	-6.1141e-003
26963	12.193	5.	0.1	-6.0621e-003
26964	11.916	4.9091	0.1	-6.3847e-003
26965	12.008	5.	0.1	-6.2631e-003
26966	11.732	4.9091	0.1	-6.7933e-003
26967	11.824	5.	0.1	-6.6395e-003
26968	11.547	4.9091	0.1	-7.3445e-003
26969	11.639	5.	0.1	-7.1419e-003
26970	11.363	4.9091	0.1	-8.0512e-003
26971	11.455	5.	0.1	-7.8208e-003
26972	11.178	4.9091	0.1	-8.9127e-003
26973	11.27	5.	0.1	-8.6452e-003
26974	10.994	4.9091	0.1	-9.9978e-003
26975	11.086	5.	0.1	-9.6409e-003
26976	10.809	4.9091	0.1	-1.1367e-002
26977	10.901	5.	0.1	-1.0915e-002
26978	10.625	4.9091	0.1	-1.3067e-002
26979	10.717	5.	0.1	-1.2478e-002
26980	10.44	4.9091	0.1	-1.5186e-002
26981	10.532	5.	0.1	-1.441e-002
26982	10.256	4.9091	0.1	-1.7878e-002
26983	10.348	5.	0.1	-1.6804e-002
26984	10.071	4.9091	0.1	-2.1316e-002
26985	10.163	5.	0.1	-1.9873e-002
26986	9.8866	4.9091	0.1	-2.5693e-002
26987	9.9789	5.	0.1	-2.3746e-002
26988	9.7021	4.9091	0.1	-3.137e-002
26989	9.7944	5.	0.1	-2.8692e-002
26990	9.5177	4.9091	0.1	-3.8856e-002
26991	9.6099	5.	0.1	-3.5177e-002
26992	9.3332	4.9091	0.1	-4.8881e-002
26993	9.4254	5.	0.1	-4.3805e-002
26994	9.1487	4.9091	0.1	-6.2571e-002
26995	9.2409	5.	0.1	-5.5544e-002
26996	8.9642	4.9091	0.1	-8.1702e-002
26997	9.0564	5.	0.1	-7.1934e-002
26998	8.7797	4.9091	0.1	-0.10919
26999	8.8719	5.	0.1	-9.5552e-002
27000	8.5952	4.9091	0.1	-0.15001
27001	8.6875	5.	0.1	-0.13095
27002	8.4107	4.9091	0.1	-0.2132
27003	8.503	5.	0.1	-0.18669
27004	8.2262	4.9091	0.1	-0.31653
27005	8.3185	5.	0.1	-0.28047
27006	8.0417	4.9091	0.1	-0.4988
27007	8.134	5.	0.1	-0.45408
27008	7.8573	4.9091	0.1	-0.85999
27009	7.9495	5.	0.1	-0.82874
27010	7.6728	4.9091	0.1	-1.7344
27011	7.765	5.	0.1	-1.899
27012	7.4883	4.9091	0.1	-4.7392
27013	7.5805	5.	0.1	-6.4714
27014	7.3038	4.9091	0.1	-15.807
27015	7.396	5.	0.1	-19.562
27016	7.1193	4.9091	0.1	-36.723
27017	7.2116	5.	0.1	-38.991
27018	6.9348	4.9091	0.1	-65.971
27019	7.0271	5.	0.1	-64.055
27020	6.7503	4.9091	0.1	-105.8
27021	6.8426	5.	0.1	-96.221
27022	6.5658	4.9091	0.1	-161.19
27023	6.6581	5.	0.1	-138.43
27024	6.3814	4.9091	0.1	-240.45
27025	6.4736	5.	0.1	-195.75
27026	6.1969	4.9091	0.1	-356.57
27027	6.2891	5.	0.1	-276.56
27028	6.0124	4.9091	0.1	-527.8
27029	6.1046	5.	0.1	-394.27
27030	5.8279	4.9091	0.1	-779.33
27031	5.9201	5.	0.1	-567.87
27032	5.6434	4.9091	0.1	-1186.
27033	5.7356	5.	0.1	-826.92
27034	5.5512	5.	0.1	-1285.
27035	5.4589	4.9091	0.1	-1173.2
27036	23.723	5.0909	0.1	-104.31
27037	23.816	5.1818	0.1	-101.85
27038	23.908	5.0909	0.1	-113.34
27039	23.539	5.0909	0.1	-95.185
27040	23.631	5.1818	0.1	-92.309
27041	23.354	5.0909	0.1	-87.312
27042	23.447	5.1818	0.1	-84.225
27043	23.17	5.0909	0.1	-80.567
27044	23.262	5.1818	0.1	-77.486
27045	22.985	5.0909	0.1	-74.756
27046	23.078	5.1818	0.1	-71.796
27047	22.801	5.0909	0.1	-69.714
27048	22.893	5.1818	0.1	-66.944
27049	22.616	5.0909	0.1	-65.29
27050	22.709	5.1818	0.1	-62.742
27051	22.432	5.0909	0.1	-61.367
27052	22.524	5.1818	0.1	-59.05
27053	22.247	5.0909	0.1	-57.851
27054	22.34	5.1818	0.1	-55.761
27055	22.063	5.0909	0.1	-54.673
27056	22.155	5.1818	0.1	-52.8
27057	21.878	5.0909	0.1	-51.777
27058	21.971	5.1818	0.1	-50.107
27059	21.694	5.0909	0.1	-49.122
27060	21.786	5.1818	0.1	-47.64
27061	21.509	5.0909	0.1	-46.675
27062	21.602	5.1818	0.1	-45.366
27063	21.325	5.0909	0.1	-44.41
27064	21.417	5.1818	0.1	-43.259
27065	21.14	5.0909	0.1	-42.305
27066	21.233	5.1818	0.1	-41.299
27067	20.956	5.0909	0.1	-40.344
27068	21.048	5.1818	0.1	-39.47
27069	20.771	5.0909	0.1	-38.512
27070	20.864	5.1818	0.1	-37.759
27071	20.587	5.0909	0.1	-36.797
27072	20.679	5.1818	0.1	-36.154
27073	20.402	5.0909	0.1	-35.189
27074	20.495	5.1818	0.1	-34.646
27075	20.218	5.0909	0.1	-33.679
27076	20.31	5.1818	0.1	-33.226
27077	20.033	5.0909	0.1	-32.258
27078	20.126	5.1818	0.1	-31.888
27079	19.849	5.0909	0.1	-30.919
27080	19.941	5.1818	0.1	-30.625
27081	19.665	5.0909	0.1	-29.656
27082	19.757	5.1818	0.1	-29.431
27083	19.48	5.0909	0.1	-28.462
27084	19.572	5.1818	0.1	-28.301
27085	19.296	5.0909	0.1	-27.332
27086	19.388	5.1818	0.1	-27.23
27087	19.111	5.0909	0.1	-26.261
27088	19.203	5.1818	0.1	-26.213
27089	18.927	5.0909	0.1	-25.243
27090	19.019	5.1818	0.1	-25.245
27091	18.742	5.0909	0.1	-24.274
27092	18.834	5.1818	0.1	-24.323
27093	18.558	5.0909	0.1	-23.35
27094	18.65	5.1818	0.1	-23.443
27095	18.373	5.0909	0.1	-22.466
27096	18.465	5.1818	0.1	-22.6
27097	18.189	5.0909	0.1	-21.618
27098	18.281	5.1818	0.1	-21.792
27099	18.004	5.0909	0.1	-20.802
27100	18.096	5.1818	0.1	-21.014
27101	17.82	5.0909	0.1	-20.014
27102	17.912	5.1818	0.1	-20.263
27103	17.635	5.0909	0.1	-19.251
27104	17.727	5.1818	0.1	-19.536
27105	17.451	5.0909	0.1	-18.509
27106	17.543	5.1818	0.1	-18.829
27107	17.266	5.0909	0.1	-17.784
27108	17.358	5.1818	0.1	-18.14
27109	17.082	5.0909	0.1	-17.074
27110	17.174	5.1818	0.1	-17.465
27111	16.897	5.0909	0.1	-16.373
27112	16.989	5.1818	0.1	-16.801
27113	16.713	5.0909	0.1	-15.68
27114	16.805	5.1818	0.1	-16.146
27115	16.528	5.0909	0.1	-14.991
27116	16.62	5.1818	0.1	-15.495
27117	16.344	5.0909	0.1	-14.301
27118	16.436	5.1818	0.1	-14.846
27119	16.159	5.0909	0.1	-13.609
27120	16.251	5.1818	0.1	-14.195
27121	15.975	5.0909	0.1	-12.91
27122	16.067	5.1818	0.1	-13.54
27123	15.79	5.0909	0.1	-12.2
27124	15.883	5.1818	0.1	-12.878
27125	15.606	5.0909	0.1	-11.476
27126	15.698	5.1818	0.1	-12.204
27127	15.421	5.0909	0.1	-10.735
27128	15.514	5.1818	0.1	-11.517
27129	15.237	5.0909	0.1	-9.9727
27130	15.329	5.1818	0.1	-10.812
27131	15.052	5.0909	0.1	-9.1849
27132	15.145	5.1818	0.1	-10.085
27133	14.868	5.0909	0.1	-8.368
27134	14.96	5.1818	0.1	-9.3343
27135	14.683	5.0909	0.1	-7.5177
27136	14.776	5.1818	0.1	-8.5552
27137	14.499	5.0909	0.1	-6.6299
27138	14.591	5.1818	0.1	-7.7439
27139	14.314	5.0909	0.1	-5.7002
27140	14.407	5.1818	0.1	-6.8967
27141	14.13	5.0909	0.1	-4.7245
27142	14.222	5.1818	0.1	-6.0098
27143	13.945	5.0909	0.1	-3.6982
27144	14.038	5.1818	0.1	-5.0789
27145	13.761	5.0909	0.1	-2.6174
27146	13.853	5.1818	0.1	-4.1003
27147	13.576	5.0909	0.1	-1.4799
27148	13.669	5.1818	0.1	-3.07
27149	13.392	5.0909	0.1	-0.31867
27150	13.484	5.1818	0.1	-1.985
27151	13.207	5.0909	0.1	-2.0164e-002
27152	13.3	5.1818	0.1	-0.84733
27153	13.023	5.0909	0.1	-1.0256e-002
27154	13.115	5.1818	0.1	-3.903e-002
27155	12.838	5.0909	0.1	-7.5999e-003
27156	12.931	5.1818	0.1	-1.1665e-002
27157	12.654	5.0909	0.1	-6.5444e-003
27158	12.746	5.1818	0.1	-7.8788e-003
27159	12.469	5.0909	0.1	-6.133e-003
27160	12.562	5.1818	0.1	-6.6797e-003
27161	12.285	5.0909	0.1	-6.0515e-003
27162	12.377	5.1818	0.1	-6.2958e-003
27163	12.1	5.0909	0.1	-6.1852e-003
27164	12.193	5.1818	0.1	-6.3034e-003
27165	11.916	5.0909	0.1	-6.505e-003
27166	12.008	5.1818	0.1	-6.5514e-003
27167	11.732	5.0909	0.1	-6.9894e-003
27168	11.824	5.1818	0.1	-7.0216e-003
27169	11.547	5.0909	0.1	-7.6343e-003
27170	11.639	5.1818	0.1	-7.6434e-003
27171	11.363	5.0909	0.1	-8.4462e-003
27172	11.455	5.1818	0.1	-8.4562e-003
27173	11.178	5.0909	0.1	-9.4208e-003
27174	11.27	5.1818	0.1	-9.4209e-003
27175	10.994	5.0909	0.1	-1.0623e-002
27176	11.086	5.1818	0.1	-1.0559e-002
27177	10.809	5.0909	0.1	-1.2109e-002
27178	10.901	5.1818	0.1	-1.197e-002
27179	10.625	5.0909	0.1	-1.3924e-002
27180	10.717	5.1818	0.1	-1.3658e-002
27181	10.44	5.0909	0.1	-1.6153e-002
27182	10.532	5.1818	0.1	-1.5697e-002
27183	10.256	5.0909	0.1	-1.8949e-002
27184	10.348	5.1818	0.1	-1.8173e-002
27185	10.071	5.0909	0.1	-2.2484e-002
27186	10.163	5.1818	0.1	-2.1292e-002
27187	9.8866	5.0909	0.1	-2.6963e-002
27188	9.9789	5.1818	0.1	-2.5178e-002
27189	9.7021	5.0909	0.1	-3.2768e-002
27190	9.7944	5.1818	0.1	-3.0104e-002
27191	9.5177	5.0909	0.1	-4.0466e-002
27192	9.6099	5.1818	0.1	-3.6561e-002
27193	9.3332	5.0909	0.1	-5.092e-002
27194	9.4254	5.1818	0.1	-4.5227e-002
27195	9.1487	5.0909	0.1	-6.5552e-002
27196	9.2409	5.1818	0.1	-5.7265e-002
27197	8.9642	5.0909	0.1	-8.6808e-002
27198	9.0564	5.1818	0.1	-7.4704e-002
27199	8.7797	5.0909	0.1	-0.11918
27200	8.8719	5.1818	0.1	-0.10136
27201	8.5952	5.0909	0.1	-0.17161
27202	8.6875	5.1818	0.1	-0.14515
27203	8.4107	5.0909	0.1	-0.26416
27204	8.503	5.1818	0.1	-0.22483
27205	8.2262	5.0909	0.1	-0.45056
27206	8.3185	5.1818	0.1	-0.39566
27207	8.0417	5.0909	0.1	-0.92452
27208	8.134	5.1818	0.1	-0.89691
27209	7.8573	5.0909	0.1	-2.8213
27210	7.9495	5.1818	0.1	-3.5633
27211	7.6728	5.0909	0.1	-10.982
27212	7.765	5.1818	0.1	-12.974
27213	7.4883	5.0909	0.1	-25.362
27214	7.5805	5.1818	0.1	-26.638
27215	7.3038	5.0909	0.1	-43.654
27216	7.396	5.1818	0.1	-43.348
27217	7.1193	5.0909	0.1	-65.939
27218	7.2116	5.1818	0.1	-63.187
27219	6.9348	5.0909	0.1	-93.011
27220	7.0271	5.1818	0.1	-86.5
27221	6.7503	5.0909	0.1	-126.33
27222	6.8426	5.1818	0.1	-113.9
27223	6.5658	5.0909	0.1	-168.48
27224	6.6581	5.1818	0.1	-146.52
27225	6.3814	5.0909	0.1	-223.97
27226	6.4736	5.1818	0.1	-186.57
27227	6.1969	5.0909	0.1	-300.77
27228	6.2891	5.1818	0.1	-238.36
27229	6.0124	5.0909	0.1	-412.16
27230	6.1046	5.1818	0.1	-310.42
27231	5.8279	5.0909	0.1	-581.59
27232	5.9201	5.1818	0.1	-418.2
27233	5.6434	5.0909	0.1	-879.64
27234	5.7356	5.1818	0.1	-592.88
27235	5.5512	5.1818	0.1	-940.54
27236	5.4589	5.0909	0.1	-867.31
27237	23.723	5.2727	0.1	-89.886
27238	23.816	5.3636	0.1	-85.997
27239	23.908	5.2727	0.1	-98.471
27240	23.539	5.2727	0.1	-81.399
27241	23.631	5.3636	0.1	-77.106
27242	23.354	5.2727	0.1	-74.466
27243	23.447	5.3636	0.1	-70.136
27244	23.17	5.2727	0.1	-68.794
27245	23.262	5.3636	0.1	-64.689
27246	22.985	5.2727	0.1	-64.071
27247	23.078	5.3636	0.1	-60.285
27248	22.801	5.2727	0.1	-60.062
27249	22.893	5.3636	0.1	-56.627
27250	22.616	5.2727	0.1	-56.591
27251	22.709	5.3636	0.1	-53.501
27252	22.432	5.2727	0.1	-53.531
27253	22.524	5.3636	0.1	-50.766
27254	22.247	5.2727	0.1	-50.793
27255	22.34	5.3636	0.1	-48.328
27256	22.063	5.2727	0.1	-48.314
27257	22.155	5.3636	0.1	-46.121
27258	21.878	5.2727	0.1	-46.046
27259	21.971	5.3636	0.1	-44.1
27260	21.694	5.2727	0.1	-43.956
27261	21.786	5.3636	0.1	-42.235
27262	21.509	5.2727	0.1	-42.019
27263	21.602	5.3636	0.1	-40.5
27264	21.325	5.2727	0.1	-40.214
27265	21.417	5.3636	0.1	-38.878
27266	21.14	5.2727	0.1	-38.527
27267	21.233	5.3636	0.1	-37.357
27268	20.956	5.2727	0.1	-36.945
27269	21.048	5.3636	0.1	-35.925
27270	20.771	5.2727	0.1	-35.458
27271	20.864	5.3636	0.1	-34.573
27272	20.587	5.2727	0.1	-34.057
27273	20.679	5.3636	0.1	-33.296
27274	20.402	5.2727	0.1	-32.735
27275	20.495	5.3636	0.1	-32.086
27276	20.218	5.2727	0.1	-31.486
27277	20.31	5.3636	0.1	-30.939
27278	20.033	5.2727	0.1	-30.305
27279	20.126	5.3636	0.1	-29.85
27280	19.849	5.2727	0.1	-29.185
27281	19.941	5.3636	0.1	-28.815
27282	19.665	5.2727	0.1	-28.123
27283	19.757	5.3636	0.1	-27.83
27284	19.48	5.2727	0.1	-27.114
27285	19.572	5.3636	0.1	-26.892
27286	19.296	5.2727	0.1	-26.154
27287	19.388	5.3636	0.1	-25.997
27288	19.111	5.2727	0.1	-25.239
27289	19.203	5.3636	0.1	-25.143
27290	18.927	5.2727	0.1	-24.366
27291	19.019	5.3636	0.1	-24.326
27292	18.742	5.2727	0.1	-23.532
27293	18.834	5.3636	0.1	-23.543
27294	18.558	5.2727	0.1	-22.732
27295	18.65	5.3636	0.1	-22.791
27296	18.373	5.2727	0.1	-21.964
27297	18.465	5.3636	0.1	-22.069
27298	18.189	5.2727	0.1	-21.225
27299	18.281	5.3636	0.1	-21.373
27300	18.004	5.2727	0.1	-20.512
27301	18.096	5.3636	0.1	-20.7
27302	17.82	5.2727	0.1	-19.821
27303	17.912	5.3636	0.1	-20.049
27304	17.635	5.2727	0.1	-19.149
27305	17.727	5.3636	0.1	-19.416
27306	17.451	5.2727	0.1	-18.495
27307	17.543	5.3636	0.1	-18.8
27308	17.266	5.2727	0.1	-17.855
27309	17.358	5.3636	0.1	-18.197
27310	17.082	5.2727	0.1	-17.227
27311	17.174	5.3636	0.1	-17.606
27312	16.897	5.2727	0.1	-16.607
27313	16.989	5.3636	0.1	-17.023
27314	16.713	5.2727	0.1	-15.992
27315	16.805	5.3636	0.1	-16.447
27316	16.528	5.2727	0.1	-15.381
27317	16.62	5.3636	0.1	-15.876
27318	16.344	5.2727	0.1	-14.771
27319	16.436	5.3636	0.1	-15.306
27320	16.159	5.2727	0.1	-14.157
27321	16.251	5.3636	0.1	-14.735
27322	15.975	5.2727	0.1	-13.539
27323	16.067	5.3636	0.1	-14.161
27324	15.79	5.2727	0.1	-12.912
27325	15.883	5.3636	0.1	-13.581
27326	15.606	5.2727	0.1	-12.274
27327	15.698	5.3636	0.1	-12.992
27328	15.421	5.2727	0.1	-11.621
27329	15.514	5.3636	0.1	-12.393
27330	15.237	5.2727	0.1	-10.952
27331	15.329	5.3636	0.1	-11.78
27332	15.052	5.2727	0.1	-10.262
27333	15.145	5.3636	0.1	-11.15
27334	14.868	5.2727	0.1	-9.5484
27335	14.96	5.3636	0.1	-10.501
27336	14.683	5.2727	0.1	-8.8078
27337	14.776	5.3636	0.1	-9.8294
27338	14.499	5.2727	0.1	-8.0366
27339	14.591	5.3636	0.1	-9.1328
27340	14.314	5.2727	0.1	-7.2316
27341	14.407	5.3636	0.1	-8.4078
27342	14.13	5.2727	0.1	-6.3891
27343	14.222	5.3636	0.1	-7.6515
27344	13.945	5.2727	0.1	-5.5056
27345	14.038	5.3636	0.1	-6.8605
27346	13.761	5.2727	0.1	-4.5774
27347	13.853	5.3636	0.1	-6.0319
27348	13.576	5.2727	0.1	-3.6012
27349	13.669	5.3636	0.1	-5.1623
27350	13.392	5.2727	0.1	-2.5738
27351	13.484	5.3636	0.1	-4.2489
27352	13.207	5.2727	0.1	-1.493
27353	13.3	5.3636	0.1	-3.2885
27354	13.023	5.2727	0.1	-0.37397
27355	13.115	5.3636	0.1	-2.2789
27356	12.838	5.2727	0.1	-1.5631e-002
27357	12.931	5.3636	0.1	-1.2187
27358	12.654	5.2727	0.1	-8.3353e-003
27359	12.746	5.3636	0.1	-0.1443
27360	12.469	5.2727	0.1	-6.8244e-003
27361	12.562	5.3636	0.1	-9.0235e-003
27362	12.285	5.2727	0.1	-6.4899e-003
27363	12.377	5.3636	0.1	-6.2464e-003
27364	12.1	5.2727	0.1	-6.6277e-003
27365	12.193	5.3636	0.1	-5.8446e-003
27366	11.916	5.2727	0.1	-7.054e-003
27367	12.008	5.3636	0.1	-6.0564e-003
27368	11.732	5.2727	0.1	-7.6917e-003
27369	11.824	5.3636	0.1	-6.6023e-003
27370	11.547	5.2727	0.1	-8.5111e-003
27371	11.639	5.3636	0.1	-7.3382e-003
27372	11.363	5.2727	0.1	-9.506e-003
27373	11.455	5.3636	0.1	-8.2781e-003
27374	11.178	5.2727	0.1	-1.0663e-002
27375	11.27	5.3636	0.1	-9.3696e-003
27376	10.994	5.2727	0.1	-1.2039e-002
27377	11.086	5.3636	0.1	-1.0627e-002
27378	10.809	5.2727	0.1	-1.3681e-002
27379	10.901	5.3636	0.1	-1.2143e-002
27380	10.625	5.2727	0.1	-1.5625e-002
27381	10.717	5.3636	0.1	-1.3914e-002
27382	10.44	5.2727	0.1	-1.7945e-002
27383	10.532	5.3636	0.1	-1.6007e-002
27384	10.256	5.2727	0.1	-2.0782e-002
27385	10.348	5.3636	0.1	-1.8498e-002
27386	10.071	5.2727	0.1	-2.4295e-002
27387	10.163	5.3636	0.1	-2.1583e-002
27388	9.8866	5.2727	0.1	-2.8681e-002
27389	9.9789	5.3636	0.1	-2.5374e-002
27390	9.7021	5.2727	0.1	-3.4328e-002
27391	9.7944	5.3636	0.1	-3.0144e-002
27392	9.5177	5.2727	0.1	-4.1849e-002
27393	9.6099	5.3636	0.1	-3.6403e-002
27394	9.3332	5.2727	0.1	-5.2252e-002
27395	9.4254	5.3636	0.1	-4.4914e-002
27396	9.1487	5.2727	0.1	-6.7373e-002
27397	9.2409	5.3636	0.1	-5.7109e-002
27398	8.9642	5.2727	0.1	-9.0816e-002
27399	9.0564	5.3636	0.1	-7.5829e-002
27400	8.7797	5.2727	0.1	-0.13054
27401	8.8719	5.3636	0.1	-0.10751
27402	8.5952	5.2727	0.1	-0.20738
27403	8.6875	5.3636	0.1	-0.16986
27404	8.4107	5.2727	0.1	-0.39471
27405	8.503	5.3636	0.1	-0.33154
27406	8.2262	5.2727	0.1	-1.1532
27407	8.3185	5.3636	0.1	-1.1413
27408	8.0417	5.2727	0.1	-6.0709
27409	8.134	5.3636	0.1	-6.4418
27410	7.8573	5.2727	0.1	-16.28
27411	7.9495	5.3636	0.1	-15.731
27412	7.6728	5.2727	0.1	-29.224
27413	7.765	5.3636	0.1	-27.29
27414	7.4883	5.2727	0.1	-44.654
27415	7.5805	5.3636	0.1	-41.056
27416	7.3038	5.2727	0.1	-62.603
27417	7.396	5.3636	0.1	-57.049
27418	7.1193	5.2727	0.1	-83.103
27419	7.2116	5.3636	0.1	-75.221
27420	6.9348	5.2727	0.1	-106.18
27421	7.0271	5.3636	0.1	-95.409
27422	6.7503	5.2727	0.1	-131.95
27423	6.8426	5.3636	0.1	-117.35
27424	6.5658	5.2727	0.1	-160.9
27425	6.6581	5.3636	0.1	-140.79
27426	6.3814	5.2727	0.1	-194.56
27427	6.4736	5.3636	0.1	-165.79
27428	6.1969	5.2727	0.1	-237.
27429	6.2891	5.3636	0.1	-193.55
27430	6.0124	5.2727	0.1	-297.82
27431	6.1046	5.3636	0.1	-228.55
27432	5.8279	5.2727	0.1	-399.61
27433	5.9201	5.3636	0.1	-282.61
27434	5.6434	5.2727	0.1	-611.5
27435	5.7356	5.3636	0.1	-387.3
27436	5.5512	5.3636	0.1	-645.35
27437	5.4589	5.2727	0.1	-610.33
27438	23.723	5.4545	0.1	-73.281
27439	23.816	5.5455	0.1	-67.377
27440	23.908	5.4545	0.1	-81.107
27441	23.539	5.4545	0.1	-65.933
27442	23.631	5.5455	0.1	-59.888
27443	23.354	5.4545	0.1	-60.475
27444	23.447	5.5455	0.1	-54.849
27445	23.17	5.4545	0.1	-56.307
27446	23.262	5.5455	0.1	-51.28
27447	22.985	5.4545	0.1	-52.971
27448	23.078	5.5455	0.1	-48.526
27449	22.801	5.4545	0.1	-50.191
27450	22.893	5.5455	0.1	-46.275
27451	22.616	5.4545	0.1	-47.794
27452	22.709	5.5455	0.1	-44.344
27453	22.432	5.4545	0.1	-45.672
27454	22.524	5.5455	0.1	-42.632
27455	22.247	5.4545	0.1	-43.757
27456	22.34	5.5455	0.1	-41.077
27457	22.063	5.4545	0.1	-42.002
27458	22.155	5.5455	0.1	-39.64
27459	21.878	5.4545	0.1	-40.377
27460	21.971	5.5455	0.1	-38.297
27461	21.694	5.4545	0.1	-38.86
27462	21.786	5.5455	0.1	-37.031
27463	21.509	5.4545	0.1	-37.436
27464	21.602	5.5455	0.1	-35.83
27465	21.325	5.4545	0.1	-36.093
27466	21.417	5.5455	0.1	-34.688
27467	21.14	5.4545	0.1	-34.823
27468	21.233	5.5455	0.1	-33.598
27469	20.956	5.4545	0.1	-33.618
27470	21.048	5.5455	0.1	-32.556
27471	20.771	5.4545	0.1	-32.473
27472	20.864	5.5455	0.1	-31.558
27473	20.587	5.4545	0.1	-31.384
27474	20.679	5.5455	0.1	-30.602
27475	20.402	5.4545	0.1	-30.346
27476	20.495	5.5455	0.1	-29.684
27477	20.218	5.4545	0.1	-29.356
27478	20.31	5.5455	0.1	-28.804
27479	20.033	5.4545	0.1	-28.412
27480	20.126	5.5455	0.1	-27.959
27481	19.849	5.4545	0.1	-27.51
27482	19.941	5.5455	0.1	-27.148
27483	19.665	5.4545	0.1	-26.647
27484	19.757	5.5455	0.1	-26.368
27485	19.48	5.4545	0.1	-25.822
27486	19.572	5.5455	0.1	-25.618
27487	19.296	5.4545	0.1	-25.031
27488	19.388	5.5455	0.1	-24.896
27489	19.111	5.4545	0.1	-24.273
27490	19.203	5.5455	0.1	-24.202
27491	18.927	5.4545	0.1	-23.544
27492	19.019	5.5455	0.1	-23.532
27493	18.742	5.4545	0.1	-22.843
27494	18.834	5.5455	0.1	-22.886
27495	18.558	5.4545	0.1	-22.168
27496	18.65	5.5455	0.1	-22.262
27497	18.373	5.4545	0.1	-21.517
27498	18.465	5.5455	0.1	-21.658
27499	18.189	5.4545	0.1	-20.886
27500	18.281	5.5455	0.1	-21.072
27501	18.004	5.4545	0.1	-20.275
27502	18.096	5.5455	0.1	-20.504
27503	17.82	5.4545	0.1	-19.681
27504	17.912	5.5455	0.1	-19.951
27505	17.635	5.4545	0.1	-19.103
27506	17.727	5.5455	0.1	-19.411
27507	17.451	5.4545	0.1	-18.537
27508	17.543	5.5455	0.1	-18.884
27509	17.266	5.4545	0.1	-17.982
27510	17.358	5.5455	0.1	-18.367
27511	17.082	5.4545	0.1	-17.436
27512	17.174	5.5455	0.1	-17.859
27513	16.897	5.4545	0.1	-16.897
27514	16.989	5.5455	0.1	-17.357
27515	16.713	5.4545	0.1	-16.363
27516	16.805	5.5455	0.1	-16.861
27517	16.528	5.4545	0.1	-15.832
27518	16.62	5.5455	0.1	-16.368
27519	16.344	5.4545	0.1	-15.301
27520	16.436	5.5455	0.1	-15.877
27521	16.159	5.4545	0.1	-14.769
27522	16.251	5.5455	0.1	-15.386
27523	15.975	5.4545	0.1	-14.233
27524	16.067	5.5455	0.1	-14.894
27525	15.79	5.4545	0.1	-13.691
27526	15.883	5.5455	0.1	-14.397
27527	15.606	5.4545	0.1	-13.14
27528	15.698	5.5455	0.1	-13.894
27529	15.421	5.4545	0.1	-12.58
27530	15.514	5.5455	0.1	-13.384
27531	15.237	5.4545	0.1	-12.006
27532	15.329	5.5455	0.1	-12.864
27533	15.052	5.4545	0.1	-11.416
27534	15.145	5.5455	0.1	-12.333
27535	14.868	5.4545	0.1	-10.809
27536	14.96	5.5455	0.1	-11.788
27537	14.683	5.4545	0.1	-10.181
27538	14.776	5.5455	0.1	-11.226
27539	14.499	5.4545	0.1	-9.5303
27540	14.591	5.5455	0.1	-10.646
27541	14.314	5.4545	0.1	-8.8536
27542	14.407	5.5455	0.1	-10.046
27543	14.13	5.4545	0.1	-8.1483
27544	14.222	5.5455	0.1	-9.4228
27545	13.945	5.4545	0.1	-7.4118
27546	14.038	5.5455	0.1	-8.7744
27547	13.761	5.4545	0.1	-6.6414
27548	13.853	5.5455	0.1	-8.0987
27549	13.576	5.4545	0.1	-5.8343
27550	13.669	5.5455	0.1	-7.3932
27551	13.392	5.4545	0.1	-4.9881
27552	13.484	5.5455	0.1	-6.6559
27553	13.207	5.4545	0.1	-4.1004
27554	13.3	5.5455	0.1	-5.8844
27555	13.023	5.4545	0.1	-3.169
27556	13.115	5.5455	0.1	-5.0772
27557	12.838	5.4545	0.1	-2.1922
27558	12.931	5.5455	0.1	-4.2324
27559	12.654	5.4545	0.1	-1.1692
27560	12.746	5.5455	0.1	-3.3488
27561	12.469	5.4545	0.1	-0.11648
27562	12.562	5.5455	0.1	-2.4259
27563	12.285	5.4545	0.1	-5.6678e-003
27564	12.377	5.5455	0.1	-1.4632
27565	12.1	5.4545	0.1	-5.1868e-003
27566	12.193	5.5455	0.1	-0.46187
27567	11.916	5.4545	0.1	-5.6381e-003
27568	12.008	5.5455	0.1	-1.0001e-002
27569	11.732	5.4545	0.1	-6.3887e-003
27570	11.824	5.5455	0.1	-1.1464e-002
27571	11.547	5.4545	0.1	-7.3307e-003
27572	11.639	5.5455	0.1	-1.3048e-002
27573	11.363	5.4545	0.1	-8.439e-003
27574	11.455	5.5455	0.1	-1.4779e-002
27575	11.178	5.4545	0.1	-9.6943e-003
27576	11.27	5.5455	0.1	-1.6614e-002
27577	10.994	5.4545	0.1	-1.1151e-002
27578	11.086	5.5455	0.1	-1.8558e-002
27579	10.809	5.4545	0.1	-1.2854e-002
27580	10.901	5.5455	0.1	-2.0694e-002
27581	10.625	5.4545	0.1	-1.4834e-002
27582	10.717	5.5455	0.1	-2.2995e-002
27583	10.44	5.4545	0.1	-1.7159e-002
27584	10.532	5.5455	0.1	-2.5494e-002
27585	10.256	5.4545	0.1	-1.9965e-002
27586	10.348	5.5455	0.1	-2.8228e-002
27587	10.071	5.4545	0.1	-2.3406e-002
27588	10.163	5.5455	0.1	-3.1343e-002
27589	9.8866	5.4545	0.1	-2.7677e-002
27590	9.9789	5.5455	0.1	-3.4896e-002
27591	9.7021	5.4545	0.1	-3.3186e-002
27592	9.7944	5.5455	0.1	-3.9099e-002
27593	9.5177	5.4545	0.1	-4.0619e-002
27594	9.6099	5.5455	0.1	-4.4429e-002
27595	9.3332	5.4545	0.1	-5.1229e-002
27596	9.4254	5.5455	0.1	-5.1717e-002
27597	9.1487	5.4545	0.1	-6.7631e-002
27598	9.2409	5.5455	0.1	-6.2835e-002
27599	8.9642	5.4545	0.1	-9.6153e-002
27600	9.0564	5.5455	0.1	-8.2527e-002
27601	8.7797	5.4545	0.1	-0.15642
27602	8.8719	5.5455	0.1	-0.12637
27603	8.5952	5.4545	0.1	-0.34677
27604	8.6875	5.5455	0.1	-0.28174
27605	8.4107	5.4545	0.1	-1.9208
27606	8.503	5.5455	0.1	-1.8495
27607	8.2262	5.4545	0.1	-8.0439
27608	8.3185	5.5455	0.1	-7.0321
27609	8.0417	5.4545	0.1	-16.484
27610	8.134	5.5455	0.1	-13.981
27611	7.8573	5.4545	0.1	-26.816
27612	7.9495	5.5455	0.1	-22.546
27613	7.6728	5.4545	0.1	-39.087
27614	7.765	5.5455	0.1	-32.819
27615	7.4883	5.4545	0.1	-53.305
27616	7.5805	5.5455	0.1	-44.852
27617	7.3038	5.4545	0.1	-69.363
27618	7.396	5.5455	0.1	-58.604
27619	7.1193	5.4545	0.1	-86.979
27620	7.2116	5.5455	0.1	-73.881
27621	6.9348	5.4545	0.1	-105.65
27622	7.0271	5.5455	0.1	-90.275
27623	6.7503	5.4545	0.1	-124.62
27624	6.8426	5.5455	0.1	-107.1
27625	6.5658	5.4545	0.1	-143.05
27626	6.6581	5.5455	0.1	-123.4
27627	6.3814	5.4545	0.1	-160.35
27628	6.4736	5.5455	0.1	-138.01
27629	6.1969	5.4545	0.1	-177.46
27630	6.2891	5.5455	0.1	-150.14
27631	6.0124	5.4545	0.1	-199.7
27632	6.1046	5.5455	0.1	-160.76
27633	5.8279	5.4545	0.1	-245.54
27634	5.9201	5.5455	0.1	-176.2
27635	5.6434	5.4545	0.1	-380.46
27636	5.7356	5.5455	0.1	-221.58
27637	5.5512	5.5455	0.1	-393.65
27638	5.4589	5.4545	0.1	-389.72
27639	23.723	5.6364	0.1	-54.128
27640	23.816	5.7273	0.1	-45.461
27641	23.908	5.6364	0.1	-60.381
27642	23.539	5.6364	0.1	-49.007
27643	23.631	5.7273	0.1	-41.667
27644	23.354	5.6364	0.1	-45.882
27645	23.447	5.7273	0.1	-39.971
27646	23.17	5.6364	0.1	-43.719
27647	23.262	5.7273	0.1	-38.952
27648	22.985	5.6364	0.1	-42.031
27649	23.078	5.7273	0.1	-38.164
27650	22.801	5.6364	0.1	-40.608
27651	22.893	5.7273	0.1	-37.465
27652	22.616	5.6364	0.1	-39.343
27653	22.709	5.7273	0.1	-36.795
27654	22.432	5.6364	0.1	-38.18
27655	22.524	5.7273	0.1	-36.131
27656	22.247	5.6364	0.1	-37.089
27657	22.34	5.7273	0.1	-35.462
27658	22.063	5.6364	0.1	-36.052
27659	22.155	5.7273	0.1	-34.788
27660	21.878	5.6364	0.1	-35.057
27661	21.971	5.7273	0.1	-34.108
27662	21.694	5.6364	0.1	-34.1
27663	21.786	5.7273	0.1	-33.424
27664	21.509	5.6364	0.1	-33.174
27665	21.602	5.7273	0.1	-32.739
27666	21.325	5.6364	0.1	-32.279
27667	21.417	5.7273	0.1	-32.056
27668	21.14	5.6364	0.1	-31.411
27669	21.233	5.7273	0.1	-31.377
27670	20.956	5.6364	0.1	-30.571
27671	21.048	5.7273	0.1	-30.703
27672	20.771	5.6364	0.1	-29.758
27673	20.864	5.7273	0.1	-30.037
27674	20.587	5.6364	0.1	-28.97
27675	20.679	5.7273	0.1	-29.38
27676	20.402	5.6364	0.1	-28.207
27677	20.495	5.7273	0.1	-28.733
27678	20.218	5.6364	0.1	-27.468
27679	20.31	5.7273	0.1	-28.099
27680	20.033	5.6364	0.1	-26.754
27681	20.126	5.7273	0.1	-27.476
27682	19.849	5.6364	0.1	-26.062
27683	19.941	5.7273	0.1	-26.867
27684	19.665	5.6364	0.1	-25.393
27685	19.757	5.7273	0.1	-26.271
27686	19.48	5.6364	0.1	-24.745
27687	19.572	5.7273	0.1	-25.688
27688	19.296	5.6364	0.1	-24.118
27689	19.388	5.7273	0.1	-25.12
27690	19.111	5.6364	0.1	-23.51
27691	19.203	5.7273	0.1	-24.564
27692	18.927	5.6364	0.1	-22.922
27693	19.019	5.7273	0.1	-24.022
27694	18.742	5.6364	0.1	-22.351
27695	18.834	5.7273	0.1	-23.493
27696	18.558	5.6364	0.1	-21.797
27697	18.65	5.7273	0.1	-22.976
27698	18.373	5.6364	0.1	-21.258
27699	18.465	5.7273	0.1	-22.471
27700	18.189	5.6364	0.1	-20.733
27701	18.281	5.7273	0.1	-21.977
27702	18.004	5.6364	0.1	-20.222
27703	18.096	5.7273	0.1	-21.494
27704	17.82	5.6364	0.1	-19.722
27705	17.912	5.7273	0.1	-21.021
27706	17.635	5.6364	0.1	-19.233
27707	17.727	5.7273	0.1	-20.557
27708	17.451	5.6364	0.1	-18.754
27709	17.543	5.7273	0.1	-20.101
27710	17.266	5.6364	0.1	-18.282
27711	17.358	5.7273	0.1	-19.652
27712	17.082	5.6364	0.1	-17.818
27713	17.174	5.7273	0.1	-19.21
27714	16.897	5.6364	0.1	-17.358
27715	16.989	5.7273	0.1	-18.772
27716	16.713	5.6364	0.1	-16.903
27717	16.805	5.7273	0.1	-18.339
27718	16.528	5.6364	0.1	-16.45
27719	16.62	5.7273	0.1	-17.91
27720	16.344	5.6364	0.1	-15.998
27721	16.436	5.7273	0.1	-17.482
27722	16.159	5.6364	0.1	-15.546
27723	16.251	5.7273	0.1	-17.055
27724	15.975	5.6364	0.1	-15.092
27725	16.067	5.7273	0.1	-16.628
27726	15.79	5.6364	0.1	-14.634
27727	15.883	5.7273	0.1	-16.2
27728	15.606	5.6364	0.1	-14.171
27729	15.698	5.7273	0.1	-15.768
27730	15.421	5.6364	0.1	-13.702
27731	15.514	5.7273	0.1	-15.333
27732	15.237	5.6364	0.1	-13.224
27733	15.329	5.7273	0.1	-14.892
27734	15.052	5.6364	0.1	-12.736
27735	15.145	5.7273	0.1	-14.445
27736	14.868	5.6364	0.1	-12.236
27737	14.96	5.7273	0.1	-13.989
27738	14.683	5.6364	0.1	-11.722
27739	14.776	5.7273	0.1	-13.523
27740	14.499	5.6364	0.1	-11.192
27741	14.591	5.7273	0.1	-13.047
27742	14.314	5.6364	0.1	-10.645
27743	14.407	5.7273	0.1	-12.557
27744	14.13	5.6364	0.1	-10.078
27745	14.222	5.7273	0.1	-12.054
27746	13.945	5.6364	0.1	-9.4899
27747	14.038	5.7273	0.1	-11.534
27748	13.761	5.6364	0.1	-8.8787
27749	13.853	5.7273	0.1	-10.998
27750	13.576	5.6364	0.1	-8.2424
27751	13.669	5.7273	0.1	-10.443
27752	13.392	5.6364	0.1	-7.5794
27753	13.484	5.7273	0.1	-9.8671
27754	13.207	5.6364	0.1	-6.8881
27755	13.3	5.7273	0.1	-9.2702
27756	13.023	5.6364	0.1	-6.1672
27757	13.115	5.7273	0.1	-8.6507
27758	12.838	5.6364	0.1	-5.4156
27759	12.931	5.7273	0.1	-8.0077
27760	12.654	5.6364	0.1	-4.6326
27761	12.746	5.7273	0.1	-7.3404
27762	12.469	5.6364	0.1	-3.8183
27763	12.562	5.7273	0.1	-6.6488
27764	12.285	5.6364	0.1	-2.9731
27765	12.377	5.7273	0.1	-5.9328
27766	12.1	5.6364	0.1	-2.0987
27767	12.193	5.7273	0.1	-5.1939
27768	11.916	5.6364	0.1	-1.1988
27769	12.008	5.7273	0.1	-4.4334
27770	11.732	5.6364	0.1	-0.29246
27771	11.824	5.7273	0.1	-3.6548
27772	11.547	5.6364	0.1	-3.2053e-002
27773	11.639	5.7273	0.1	-2.8629
27774	11.363	5.6364	0.1	-2.903e-002
27775	11.455	5.7273	0.1	-2.0661
27776	11.178	5.6364	0.1	-3.0097e-002
27777	11.27	5.7273	0.1	-1.2812
27778	10.994	5.6364	0.1	-3.2091e-002
27779	11.086	5.7273	0.1	-0.56955
27780	10.809	5.6364	0.1	-3.4509e-002
27781	10.901	5.7273	0.1	-0.18793
27782	10.625	5.6364	0.1	-3.7177e-002
27783	10.717	5.7273	0.1	-0.10532
27784	10.44	5.6364	0.1	-4.0035e-002
27785	10.532	5.7273	0.1	-8.246e-002
27786	10.256	5.6364	0.1	-4.311e-002
27787	10.348	5.7273	0.1	-7.4082e-002
27788	10.071	5.6364	0.1	-4.6452e-002
27789	10.163	5.7273	0.1	-7.1548e-002
27790	9.8866	5.6364	0.1	-5.0157e-002
27791	9.9789	5.7273	0.1	-7.2341e-002
27792	9.7021	5.6364	0.1	-5.4573e-002
27793	9.7944	5.7273	0.1	-7.5928e-002
27794	9.5177	5.6364	0.1	-6.0473e-002
27795	9.6099	5.7273	0.1	-8.3083e-002
27796	9.3332	5.6364	0.1	-6.9735e-002
27797	9.4254	5.7273	0.1	-9.6631e-002
27798	9.1487	5.6364	0.1	-8.7869e-002
27799	9.2409	5.7273	0.1	-0.1263
27800	8.9642	5.6364	0.1	-0.13753
27801	9.0564	5.7273	0.1	-0.22199
27802	8.7797	5.6364	0.1	-0.43526
27803	8.8719	5.7273	0.1	-0.87733
27804	8.5952	5.6364	0.1	-2.941
27805	8.6875	5.7273	0.1	-2.998
27806	8.4107	5.6364	0.1	-7.3651
27807	8.503	5.7273	0.1	-6.0865
27808	8.2262	5.6364	0.1	-13.046
27809	8.3185	5.7273	0.1	-10.101
27810	8.0417	5.6364	0.1	-20.066
27811	8.134	5.7273	0.1	-15.146
27812	7.8573	5.6364	0.1	-28.535
27813	7.9495	5.7273	0.1	-21.341
27814	7.6728	5.6364	0.1	-38.523
27815	7.765	5.7273	0.1	-28.788
27816	7.4883	5.6364	0.1	-50.02
27817	7.5805	5.7273	0.1	-37.555
27818	7.3038	5.6364	0.1	-62.885
27819	7.396	5.7273	0.1	-47.639
27820	7.1193	5.6364	0.1	-76.78
27821	7.2116	5.7273	0.1	-58.922
27822	6.9348	5.6364	0.1	-91.094
27823	7.0271	5.7273	0.1	-71.112
27824	6.7503	5.6364	0.1	-104.87
27825	6.8426	5.7273	0.1	-83.673
27826	6.5658	5.6364	0.1	-116.79
27827	6.6581	5.7273	0.1	-95.748
27828	6.3814	5.6364	0.1	-125.32
27829	6.4736	5.7273	0.1	-106.15
27830	6.1969	5.6364	0.1	-129.3
27831	6.2891	5.7273	0.1	-113.45
27832	6.0124	5.6364	0.1	-129.63
27833	6.1046	5.7273	0.1	-116.61
27834	5.8279	5.6364	0.1	-135.86
27835	5.9201	5.7273	0.1	-116.33
27836	5.6434	5.6364	0.1	-196.9
27837	5.7356	5.7273	0.1	-123.97
27838	5.5512	5.7273	0.1	-203.57
27839	5.4589	5.6364	0.1	-200.84
27840	23.723	5.8182	0.1	-33.649
27841	23.816	5.9091	0.1	-21.431
27842	23.908	5.8182	0.1	-34.893
27843	23.539	5.8182	0.1	-33.335
27844	23.631	5.9091	0.1	-22.108
27845	23.354	5.8182	0.1	-33.668
27846	23.447	5.9091	0.1	-22.537
27847	23.17	5.8182	0.1	-33.937
27848	23.262	5.9091	0.1	-22.828
27849	22.985	5.8182	0.1	-34.069
27850	23.078	5.9091	0.1	-22.952
27851	22.801	5.8182	0.1	-34.071
27852	22.893	5.9091	0.1	-22.96
27853	22.616	5.8182	0.1	-33.96
27854	22.709	5.9091	0.1	-22.881
27855	22.432	5.8182	0.1	-33.757
27856	22.524	5.9091	0.1	-22.735
27857	22.247	5.8182	0.1	-33.48
27858	22.34	5.9091	0.1	-22.536
27859	22.063	5.8182	0.1	-33.142
27860	22.155	5.9091	0.1	-22.298
27861	21.878	5.8182	0.1	-32.756
27862	21.971	5.9091	0.1	-22.027
27863	21.694	5.8182	0.1	-32.331
27864	21.786	5.9091	0.1	-21.732
27865	21.509	5.8182	0.1	-31.876
27866	21.602	5.9091	0.1	-21.419
27867	21.325	5.8182	0.1	-31.398
27868	21.417	5.9091	0.1	-21.091
27869	21.14	5.8182	0.1	-30.902
27870	21.233	5.9091	0.1	-20.752
27871	20.956	5.8182	0.1	-30.394
27872	21.048	5.9091	0.1	-20.406
27873	20.771	5.8182	0.1	-29.877
27874	20.864	5.9091	0.1	-20.055
27875	20.587	5.8182	0.1	-29.355
27876	20.679	5.9091	0.1	-19.702
27877	20.402	5.8182	0.1	-28.831
27878	20.495	5.9091	0.1	-19.348
27879	20.218	5.8182	0.1	-28.306
27880	20.31	5.9091	0.1	-18.994
27881	20.033	5.8182	0.1	-27.784
27882	20.126	5.9091	0.1	-18.643
27883	19.849	5.8182	0.1	-27.266
27884	19.941	5.9091	0.1	-18.294
27885	19.665	5.8182	0.1	-26.752
27886	19.757	5.9091	0.1	-17.95
27887	19.48	5.8182	0.1	-26.244
27888	19.572	5.9091	0.1	-17.61
27889	19.296	5.8182	0.1	-25.743
27890	19.388	5.9091	0.1	-17.274
27891	19.111	5.8182	0.1	-25.249
27892	19.203	5.9091	0.1	-16.944
27893	18.927	5.8182	0.1	-24.763
27894	19.019	5.9091	0.1	-16.619
27895	18.742	5.8182	0.1	-24.284
27896	18.834	5.9091	0.1	-16.3
27897	18.558	5.8182	0.1	-23.813
27898	18.65	5.9091	0.1	-15.987
27899	18.373	5.8182	0.1	-23.351
27900	18.465	5.9091	0.1	-15.679
27901	18.189	5.8182	0.1	-22.896
27902	18.281	5.9091	0.1	-15.377
27903	18.004	5.8182	0.1	-22.448
27904	18.096	5.9091	0.1	-15.08
27905	17.82	5.8182	0.1	-22.007
27906	17.912	5.9091	0.1	-14.788
27907	17.635	5.8182	0.1	-21.573
27908	17.727	5.9091	0.1	-14.502
27909	17.451	5.8182	0.1	-21.145
27910	17.543	5.9091	0.1	-14.219
27911	17.266	5.8182	0.1	-20.723
27912	17.358	5.9091	0.1	-13.941
27913	17.082	5.8182	0.1	-20.306
27914	17.174	5.9091	0.1	-13.667
27915	16.897	5.8182	0.1	-19.892
27916	16.989	5.9091	0.1	-13.397
27917	16.713	5.8182	0.1	-19.483
27918	16.805	5.9091	0.1	-13.129
27919	16.528	5.8182	0.1	-19.076
27920	16.62	5.9091	0.1	-12.864
27921	16.344	5.8182	0.1	-18.671
27922	16.436	5.9091	0.1	-12.601
27923	16.159	5.8182	0.1	-18.267
27924	16.251	5.9091	0.1	-12.34
27925	15.975	5.8182	0.1	-17.864
27926	16.067	5.9091	0.1	-12.079
27927	15.79	5.8182	0.1	-17.46
27928	15.883	5.9091	0.1	-11.819
27929	15.606	5.8182	0.1	-17.054
27930	15.698	5.9091	0.1	-11.559
27931	15.421	5.8182	0.1	-16.645
27932	15.514	5.9091	0.1	-11.299
27933	15.237	5.8182	0.1	-16.233
27934	15.329	5.9091	0.1	-11.037
27935	15.052	5.8182	0.1	-15.816
27936	15.145	5.9091	0.1	-10.773
27937	14.868	5.8182	0.1	-15.393
27938	14.96	5.9091	0.1	-10.506
27939	14.683	5.8182	0.1	-14.963
27940	14.776	5.9091	0.1	-10.236
27941	14.499	5.8182	0.1	-14.524
27942	14.591	5.9091	0.1	-9.9622
27943	14.314	5.8182	0.1	-14.077
27944	14.407	5.9091	0.1	-9.6836
27945	14.13	5.8182	0.1	-13.619
27946	14.222	5.9091	0.1	-9.3997
27947	13.945	5.8182	0.1	-13.149
27948	14.038	5.9091	0.1	-9.1097
27949	13.761	5.8182	0.1	-12.667
27950	13.853	5.9091	0.1	-8.813
27951	13.576	5.8182	0.1	-12.17
27952	13.669	5.9091	0.1	-8.5088
27953	13.392	5.8182	0.1	-11.659
27954	13.484	5.9091	0.1	-8.1966
27955	13.207	5.8182	0.1	-11.132
27956	13.3	5.9091	0.1	-7.8757
27957	13.023	5.8182	0.1	-10.588
27958	13.115	5.9091	0.1	-7.5458
27959	12.838	5.8182	0.1	-10.028
27960	12.931	5.9091	0.1	-7.2062
27961	12.654	5.8182	0.1	-9.4493
27962	12.746	5.9091	0.1	-6.8567
27963	12.469	5.8182	0.1	-8.8537
27964	12.562	5.9091	0.1	-6.4974
27965	12.285	5.8182	0.1	-8.2412
27966	12.377	5.9091	0.1	-6.128
27967	12.1	5.8182	0.1	-7.6129
27968	12.193	5.9091	0.1	-5.7493
27969	11.916	5.8182	0.1	-6.9706
27970	12.008	5.9091	0.1	-5.3617
27971	11.732	5.8182	0.1	-6.3169
27972	11.824	5.9091	0.1	-4.9666
27973	11.547	5.8182	0.1	-5.6556
27974	11.639	5.9091	0.1	-4.5656
27975	11.363	5.8182	0.1	-4.992
27976	11.455	5.9091	0.1	-4.161
27977	11.178	5.8182	0.1	-4.333
27978	11.27	5.9091	0.1	-3.756
27979	10.994	5.8182	0.1	-3.6877
27980	11.086	5.9091	0.1	-3.3547
27981	10.809	5.8182	0.1	-3.0681
27982	10.901	5.9091	0.1	-2.9624
27983	10.625	5.8182	0.1	-2.4894
27984	10.717	5.9091	0.1	-2.5855
27985	10.44	5.8182	0.1	-1.9708
27986	10.532	5.9091	0.1	-2.2324
27987	10.256	5.8182	0.1	-1.5353
27988	10.348	5.9091	0.1	-1.9123
27989	10.071	5.8182	0.1	-1.2065
27990	10.163	5.9091	0.1	-1.6368
27991	9.8866	5.8182	0.1	-1.0009
27992	9.9789	5.9091	0.1	-1.4186
27993	9.7021	5.8182	0.1	-0.92623
27994	9.7944	5.9091	0.1	-1.2724
27995	9.5177	5.8182	0.1	-0.99971
27996	9.6099	5.9091	0.1	-1.2164
27997	9.3332	5.8182	0.1	-1.2777
27998	9.4254	5.9091	0.1	-1.276
27999	9.1487	5.8182	0.1	-1.8552
28000	9.2409	5.9091	0.1	-1.4864
28001	8.9642	5.8182	0.1	-2.8255
28002	9.0564	5.9091	0.1	-1.889
28003	8.7797	5.8182	0.1	-4.266
28004	8.8719	5.9091	0.1	-2.5263
28005	8.5952	5.8182	0.1	-6.2549
28006	8.6875	5.9091	0.1	-3.4421
28007	8.4107	5.8182	0.1	-8.8811
28008	8.503	5.9091	0.1	-4.6846
28009	8.2262	5.8182	0.1	-12.244
28010	8.3185	5.9091	0.1	-6.3076
28011	8.0417	5.8182	0.1	-16.448
28012	8.134	5.9091	0.1	-8.3691
28013	7.8573	5.8182	0.1	-21.599
28014	7.9495	5.9091	0.1	-10.929
28015	7.6728	5.8182	0.1	-27.79
28016	7.765	5.9091	0.1	-14.046
28017	7.4883	5.8182	0.1	-35.09
28018	7.5805	5.9091	0.1	-17.767
28019	7.3038	5.8182	0.1	-43.509
28020	7.396	5.9091	0.1	-22.117
28021	7.1193	5.8182	0.1	-52.965
28022	7.2116	5.9091	0.1	-27.076
28023	6.9348	5.8182	0.1	-63.227
28024	7.0271	5.9091	0.1	-32.554
28025	6.7503	5.8182	0.1	-73.842
28026	6.8426	5.9091	0.1	-38.342
28027	6.5658	5.8182	0.1	-84.066
28028	6.6581	5.9091	0.1	-44.065
28029	6.3814	5.8182	0.1	-92.794
28030	6.4736	5.9091	0.1	-49.112
28031	6.1969	5.8182	0.1	-98.618
28032	6.2891	5.9091	0.1	-52.568
28033	6.0124	5.8182	0.1	-99.933
28034	6.1046	5.9091	0.1	-53.256
28035	5.8279	5.8182	0.1	-97.488
28036	5.9201	5.9091	0.1	-49.567
28037	5.6434	5.8182	0.1	-106.83
28038	5.7356	5.9091	0.1	-42.837
28039	5.4589	5.8182	0.1	-61.722
28040	5.5512	5.9091	0.1	-52.
28041	0.17931	0.27273	0.1	-458.17
28042	0.26897	0.18182	0.1	-162.4
28043	8.9655e-002	0.18182	0.1	415.62
28044	0.17931	9.0909e-002	0.1	-214.29
28045	0.17931	0.45455	0.1	-685.18
28046	0.26897	0.36364	0.1	-239.64
28047	8.9655e-002	0.36364	0.1	844.
28048	0.17931	0.63636	0.1	-792.58
28049	0.26897	0.54545	0.1	-282.44
28050	8.9655e-002	0.54545	0.1	1039.7
28051	0.17931	0.81818	0.1	-861.17
28052	0.26897	0.72727	0.1	-313.07
28053	8.9655e-002	0.72727	0.1	1154.2
28054	0.17931	1.	0.1	-906.8
28055	0.26897	0.90909	0.1	-332.41
28056	8.9655e-002	0.90909	0.1	1230.9
28057	0.17931	1.1818	0.1	-939.55
28058	0.26897	1.0909	0.1	-346.37
28059	8.9655e-002	1.0909	0.1	1284.8
28060	0.17931	1.3636	0.1	-963.53
28061	0.26897	1.2727	0.1	-356.48
28062	8.9655e-002	1.2727	0.1	1324.2
28063	0.17931	1.5455	0.1	-981.44
28064	0.26897	1.4545	0.1	-364.02
28065	8.9655e-002	1.4545	0.1	1353.5
28066	0.17931	1.7273	0.1	-994.9
28067	0.26897	1.6364	0.1	-369.68
28068	8.9655e-002	1.6364	0.1	1375.6
28069	0.17931	1.9091	0.1	-1005.
28070	0.26897	1.8182	0.1	-373.95
28071	8.9655e-002	1.8182	0.1	1392.3
28072	0.17931	2.0909	0.1	-1012.6
28073	0.26897	2.	0.1	-377.16
28074	8.9655e-002	2.	0.1	1404.9
28075	0.17931	2.2727	0.1	-1018.2
28076	0.26897	2.1818	0.1	-379.54
28077	8.9655e-002	2.1818	0.1	1414.3
28078	0.17931	2.4545	0.1	-1022.2
28079	0.26897	2.3636	0.1	-381.27
28080	8.9655e-002	2.3636	0.1	1421.1
28081	0.17931	2.6364	0.1	-1024.8
28082	0.26897	2.5455	0.1	-382.47
28083	8.9655e-002	2.5455	0.1	1425.8
28084	0.17931	2.8182	0.1	-1026.3
28085	0.26897	2.7273	0.1	-383.22
28086	8.9655e-002	2.7273	0.1	1428.8
28087	0.17931	3.	0.1	-1026.8
28088	0.26897	2.9091	0.1	-383.58
28089	8.9655e-002	2.9091	0.1	1430.2
28090	0.17931	3.1818	0.1	-1026.3
28091	0.26897	3.0909	0.1	-383.58
28092	8.9655e-002	3.0909	0.1	1430.2
28093	0.17931	3.3636	0.1	-1024.8
28094	0.26897	3.2727	0.1	-383.22
28095	8.9655e-002	3.2727	0.1	1428.8
28096	0.17931	3.5455	0.1	-1022.2
28097	0.26897	3.4545	0.1	-382.47
28098	8.9655e-002	3.4545	0.1	1425.8
28099	0.17931	3.7273	0.1	-1018.2
28100	0.26897	3.6364	0.1	-381.27
28101	8.9655e-002	3.6364	0.1	1421.1
28102	0.17931	3.9091	0.1	-1012.6
28103	0.26897	3.8182	0.1	-379.54
28104	8.9655e-002	3.8182	0.1	1414.3
28105	0.17931	4.0909	0.1	-1005.
28106	0.26897	4.	0.1	-377.16
28107	8.9655e-002	4.	0.1	1404.9
28108	0.17931	4.2727	0.1	-994.9
28109	0.26897	4.1818	0.1	-373.95
28110	8.9655e-002	4.1818	0.1	1392.3
28111	0.17931	4.4545	0.1	-981.44
28112	0.26897	4.3636	0.1	-369.68
28113	8.9655e-002	4.3636	0.1	1375.6
28114	0.17931	4.6364	0.1	-963.53
28115	0.26897	4.5455	0.1	-364.02
28116	8.9655e-002	4.5455	0.1	1353.5
28117	0.17931	4.8182	0.1	-939.55
28118	0.26897	4.7273	0.1	-356.48
28119	8.9655e-002	4.7273	0.1	1324.2
28120	0.17931	5.	0.1	-906.8
28121	0.26897	4.9091	0.1	-346.37
28122	8.9655e-002	4.9091	0.1	1284.8
28123	0.17931	5.1818	0.1	-861.17
28124	0.26897	5.0909	0.1	-332.41
28125	8.9655e-002	5.0909	0.1	1230.9
28126	0.17931	5.3636	0.1	-792.58
28127	0.26897	5.2727	0.1	-313.07
28128	8.9655e-002	5.2727	0.1	1154.2
28129	0.17931	5.5455	0.1	-685.18
28130	0.26897	5.4545	0.1	-282.44
28131	8.9655e-002	5.4545	0.1	1039.7
28132	0.17931	5.7273	0.1	-458.17
28133	0.26897	5.6364	0.1	-239.64
28134	8.9655e-002	5.6364	0.1	844.
28135	0.26897	5.8182	0.1	-162.4
28136	8.9655e-002	5.8182	0.1	415.62
28137	0.17931	5.9091	0.1	-214.29
28138	0.35862	0.27273	0.1	93.685
28139	0.44828	0.18182	0.1	-85.385
28140	0.35862	9.0909e-002	0.1	-122.66
28141	0.35862	0.45455	0.1	163.83
28142	0.44828	0.36364	0.1	49.737
28143	0.35862	0.63636	0.1	197.13
28144	0.44828	0.54545	0.1	67.912
28145	0.35862	0.81818	0.1	215.67
28146	0.44828	0.72727	0.1	76.962
28147	0.35862	1.	0.1	227.99
28148	0.44828	0.90909	0.1	82.671
28149	0.35862	1.1818	0.1	236.69
28150	0.44828	1.0909	0.1	86.589
28151	0.35862	1.3636	0.1	243.02
28152	0.44828	1.2727	0.1	89.399
28153	0.35862	1.5455	0.1	247.73
28154	0.44828	1.4545	0.1	91.474
28155	0.35862	1.7273	0.1	251.27
28156	0.44828	1.6364	0.1	93.028
28157	0.35862	1.9091	0.1	253.93
28158	0.44828	1.8182	0.1	94.198
28159	0.35862	2.0909	0.1	255.91
28160	0.44828	2.	0.1	95.076
28161	0.35862	2.2727	0.1	257.37
28162	0.44828	2.1818	0.1	95.728
28163	0.35862	2.4545	0.1	258.41
28164	0.44828	2.3636	0.1	96.202
28165	0.35862	2.6364	0.1	259.1
28166	0.44828	2.5455	0.1	96.53
28167	0.35862	2.8182	0.1	259.5
28168	0.44828	2.7273	0.1	96.737
28169	0.35862	3.	0.1	259.63
28170	0.44828	2.9091	0.1	96.837
28171	0.35862	3.1818	0.1	259.5
28172	0.44828	3.0909	0.1	96.837
28173	0.35862	3.3636	0.1	259.1
28174	0.44828	3.2727	0.1	96.737
28175	0.35862	3.5455	0.1	258.41
28176	0.44828	3.4545	0.1	96.53
28177	0.35862	3.7273	0.1	257.37
28178	0.44828	3.6364	0.1	96.202
28179	0.35862	3.9091	0.1	255.91
28180	0.44828	3.8182	0.1	95.728
28181	0.35862	4.0909	0.1	253.93
28182	0.44828	4.	0.1	95.076
28183	0.35862	4.2727	0.1	251.27
28184	0.44828	4.1818	0.1	94.198
28185	0.35862	4.4545	0.1	247.73
28186	0.44828	4.3636	0.1	93.028
28187	0.35862	4.6364	0.1	243.02
28188	0.44828	4.5455	0.1	91.474
28189	0.35862	4.8182	0.1	236.69
28190	0.44828	4.7273	0.1	89.399
28191	0.35862	5.	0.1	227.99
28192	0.44828	4.9091	0.1	86.589
28193	0.35862	5.1818	0.1	215.67
28194	0.44828	5.0909	0.1	82.671
28195	0.35862	5.3636	0.1	197.13
28196	0.44828	5.2727	0.1	76.962
28197	0.35862	5.5455	0.1	163.83
28198	0.44828	5.4545	0.1	67.912
28199	0.35862	5.7273	0.1	93.685
28200	0.44828	5.6364	0.1	49.737
28201	0.44828	5.8182	0.1	-85.385
28202	0.35862	5.9091	0.1	-122.66
28203	0.53793	0.27273	0.1	-34.187
28204	0.62759	0.18182	0.1	-81.282
28205	0.53793	9.0909e-002	0.1	-102.4
28206	0.53793	0.45455	0.1	-45.193
28207	0.62759	0.36364	0.1	-17.614
28208	0.53793	0.63636	0.1	-52.037
28209	0.62759	0.54545	0.1	-19.537
28210	0.53793	0.81818	0.1	-55.962
28211	0.62759	0.72727	0.1	-20.952
28212	0.53793	1.	0.1	-58.705
28213	0.62759	0.90909	0.1	-21.931
28214	0.53793	1.1818	0.1	-60.688
28215	0.62759	1.0909	0.1	-22.692
28216	0.53793	1.3636	0.1	-62.144
28217	0.62759	1.2727	0.1	-23.254
28218	0.53793	1.5455	0.1	-63.229
28219	0.62759	1.4545	0.1	-23.675
28220	0.53793	1.7273	0.1	-64.042
28221	0.62759	1.6364	0.1	-23.99
28222	0.53793	1.9091	0.1	-64.653
28223	0.62759	1.8182	0.1	-24.226
28224	0.53793	2.0909	0.1	-65.108
28225	0.62759	2.	0.1	-24.401
28226	0.53793	2.2727	0.1	-65.441
28227	0.62759	2.1818	0.1	-24.53
28228	0.53793	2.4545	0.1	-65.678
28229	0.62759	2.3636	0.1	-24.623
28230	0.53793	2.6364	0.1	-65.836
28231	0.62759	2.5455	0.1	-24.686
28232	0.53793	2.8182	0.1	-65.926
28233	0.62759	2.7273	0.1	-24.726
28234	0.53793	3.	0.1	-65.955
28235	0.62759	2.9091	0.1	-24.745
28236	0.53793	3.1818	0.1	-65.926
28237	0.62759	3.0909	0.1	-24.745
28238	0.53793	3.3636	0.1	-65.836
28239	0.62759	3.2727	0.1	-24.726
28240	0.53793	3.5455	0.1	-65.678
28241	0.62759	3.4545	0.1	-24.686
28242	0.53793	3.7273	0.1	-65.441
28243	0.62759	3.6364	0.1	-24.623
28244	0.53793	3.9091	0.1	-65.108
28245	0.62759	3.8182	0.1	-24.53
28246	0.53793	4.0909	0.1	-64.653
28247	0.62759	4.	0.1	-24.401
28248	0.53793	4.2727	0.1	-64.042
28249	0.62759	4.1818	0.1	-24.226
28250	0.53793	4.4545	0.1	-63.229
28251	0.62759	4.3636	0.1	-23.99
28252	0.53793	4.6364	0.1	-62.144
28253	0.62759	4.5455	0.1	-23.675
28254	0.53793	4.8182	0.1	-60.688
28255	0.62759	4.7273	0.1	-23.254
28256	0.53793	5.	0.1	-58.705
28257	0.62759	4.9091	0.1	-22.692
28258	0.53793	5.1818	0.1	-55.962
28259	0.62759	5.0909	0.1	-21.931
28260	0.53793	5.3636	0.1	-52.037
28261	0.62759	5.2727	0.1	-20.952
28262	0.53793	5.5455	0.1	-45.193
28263	0.62759	5.4545	0.1	-19.537
28264	0.53793	5.7273	0.1	-34.187
28265	0.62759	5.6364	0.1	-17.614
28266	0.62759	5.8182	0.1	-81.281
28267	0.53793	5.9091	0.1	-102.4
28268	0.71724	0.27273	0.1	-2.162e-002
28269	0.8069	0.18182	0.1	-58.647
28270	0.71724	9.0909e-002	0.1	-69.536
28271	0.71724	0.45455	0.1	8.6154
28272	0.8069	0.36364	0.1	0.48711
28273	0.71724	0.63636	0.1	11.699
28274	0.8069	0.54545	0.1	3.3764
28275	0.71724	0.81818	0.1	13.138
28276	0.8069	0.72727	0.1	4.2138
28277	0.71724	1.	0.1	14.107
28278	0.8069	0.90909	0.1	4.8127
28279	0.71724	1.1818	0.1	14.754
28280	0.8069	1.0909	0.1	5.1619
28281	0.71724	1.3636	0.1	15.22
28282	0.8069	1.2727	0.1	5.4049
28283	0.71724	1.5455	0.1	15.566
28284	0.8069	1.4545	0.1	5.5779
28285	0.71724	1.7273	0.1	15.828
28286	0.8069	1.6364	0.1	5.7082
28287	0.71724	1.9091	0.1	16.027
28288	0.8069	1.8182	0.1	5.8079
28289	0.71724	2.0909	0.1	16.177
28290	0.8069	2.	0.1	5.8847
28291	0.71724	2.2727	0.1	16.289
28292	0.8069	2.1818	0.1	5.9432
28293	0.71724	2.4545	0.1	16.37
28294	0.8069	2.3636	0.1	5.9868
28295	0.71724	2.6364	0.1	16.424
28296	0.8069	2.5455	0.1	6.0177
28297	0.71724	2.8182	0.1	16.455
28298	0.8069	2.7273	0.1	6.0375
28299	0.71724	3.	0.1	16.465
28300	0.8069	2.9091	0.1	6.0472
28301	0.71724	3.1818	0.1	16.455
28302	0.8069	3.0909	0.1	6.0472
28303	0.71724	3.3636	0.1	16.424
28304	0.8069	3.2727	0.1	6.0375
28305	0.71724	3.5455	0.1	16.37
28306	0.8069	3.4545	0.1	6.0177
28307	0.71724	3.7273	0.1	16.289
28308	0.8069	3.6364	0.1	5.9868
28309	0.71724	3.9091	0.1	16.177
28310	0.8069	3.8182	0.1	5.9432
28311	0.71724	4.0909	0.1	16.027
28312	0.8069	4.	0.1	5.8847
28313	0.71724	4.2727	0.1	15.828
28314	0.8069	4.1818	0.1	5.8079
28315	0.71724	4.4545	0.1	15.566
28316	0.8069	4.3636	0.1	5.7082
28317	0.71724	4.6364	0.1	15.22
28318	0.8069	4.5455	0.1	5.5779
28319	0.71724	4.8182	0.1	14.754
28320	0.8069	4.7273	0.1	5.4049
28321	0.71724	5.	0.1	14.107
28322	0.8069	4.9091	0.1	5.1619
28323	0.71724	5.1818	0.1	13.138
28324	0.8069	5.0909	0.1	4.8127
28325	0.71724	5.3636	0.1	11.699
28326	0.8069	5.2727	0.1	4.2139
28327	0.71724	5.5455	0.1	8.6154
28328	0.8069	5.4545	0.1	3.3764
28329	0.71724	5.7273	0.1	-2.1611e-002
28330	0.8069	5.6364	0.1	0.48712
28331	0.8069	5.8182	0.1	-58.647
28332	0.71724	5.9091	0.1	-69.536
28333	0.89655	0.27273	0.1	-7.082
28334	0.98621	0.18182	0.1	-43.12
28335	0.89655	9.0909e-002	0.1	-50.185
28336	0.89655	0.45455	0.1	-4.2971
28337	0.98621	0.36364	0.1	-3.3429
28338	0.89655	0.63636	0.1	-3.9952
28339	0.98621	0.54545	0.1	-2.0268
28340	0.89655	0.81818	0.1	-4.0632
28341	0.98621	0.72727	0.1	-1.8979
28342	0.89655	1.	0.1	-4.109
28343	0.98621	0.90909	0.1	-1.7722
28344	0.89655	1.1818	0.1	-4.1749
28345	0.98621	1.0909	0.1	-1.7406
28346	0.89655	1.3636	0.1	-4.2311
28347	0.98621	1.2727	0.1	-1.7288
28348	0.89655	1.5455	0.1	-4.2764
28349	0.98621	1.4545	0.1	-1.7288
28350	0.89655	1.7273	0.1	-4.3095
28351	0.98621	1.6364	0.1	-1.7301
28352	0.89655	1.9091	0.1	-4.3328
28353	0.98621	1.8182	0.1	-1.7307
28354	0.89655	2.0909	0.1	-4.3484
28355	0.98621	2.	0.1	-1.7297
28356	0.89655	2.2727	0.1	-4.3584
28357	0.98621	2.1818	0.1	-1.7277
28358	0.89655	2.4545	0.1	-4.3646
28359	0.98621	2.3636	0.1	-1.7251
28360	0.89655	2.6364	0.1	-4.3683
28361	0.98621	2.5455	0.1	-1.7227
28362	0.89655	2.8182	0.1	-4.3701
28363	0.98621	2.7273	0.1	-1.7209
28364	0.89655	3.	0.1	-4.3707
28365	0.98621	2.9091	0.1	-1.7198
28366	0.89655	3.1818	0.1	-4.3701
28367	0.98621	3.0909	0.1	-1.7198
28368	0.89655	3.3636	0.1	-4.3683
28369	0.98621	3.2727	0.1	-1.7209
28370	0.89655	3.5455	0.1	-4.3646
28371	0.98621	3.4545	0.1	-1.7227
28372	0.89655	3.7273	0.1	-4.3584
28373	0.98621	3.6364	0.1	-1.7251
28374	0.89655	3.9091	0.1	-4.3484
28375	0.98621	3.8182	0.1	-1.7277
28376	0.89655	4.0909	0.1	-4.3328
28377	0.98621	4.	0.1	-1.7297
28378	0.89655	4.2727	0.1	-4.3095
28379	0.98621	4.1818	0.1	-1.7307
28380	0.89655	4.4545	0.1	-4.2764
28381	0.98621	4.3636	0.1	-1.7301
28382	0.89655	4.6364	0.1	-4.2311
28383	0.98621	4.5455	0.1	-1.7288
28384	0.89655	4.8182	0.1	-4.1749
28385	0.98621	4.7273	0.1	-1.7288
28386	0.89655	5.	0.1	-4.109
28387	0.98621	4.9091	0.1	-1.7406
28388	0.89655	5.1818	0.1	-4.0632
28389	0.98621	5.0909	0.1	-1.7722
28390	0.89655	5.3636	0.1	-3.9952
28391	0.98621	5.2727	0.1	-1.8979
28392	0.89655	5.5455	0.1	-4.2971
28393	0.98621	5.4545	0.1	-2.0268
28394	0.89655	5.7273	0.1	-7.082
28395	0.98621	5.6364	0.1	-3.3429
28396	0.98621	5.8182	0.1	-43.12
28397	0.89655	5.9091	0.1	-50.185
28398	1.0759	0.27273	0.1	-4.0796
28399	1.1655	0.18182	0.1	-30.315
28400	1.0759	9.0909e-002	0.1	-34.163
28401	1.0759	0.45455	0.1	-0.72378
28402	1.1655	0.36364	0.1	-1.9264
28403	1.0759	0.63636	0.1	0.15657
28404	1.1655	0.54545	0.1	-0.47514
28405	1.0759	0.81818	0.1	0.43036
28406	1.1655	0.72727	0.1	-0.21946
28407	1.0759	1.	0.1	0.61551
28408	1.1655	0.90909	0.1	-8.4774e-003
28409	1.0759	1.1818	0.1	0.71612
28410	1.1655	1.0909	0.1	9.1339e-002
28411	1.0759	1.3636	0.1	0.77963
28412	1.1655	1.2727	0.1	0.15328
28413	1.0759	1.5455	0.1	0.82104
28414	1.1655	1.4545	0.1	0.18925
28415	1.0759	1.7273	0.1	0.8509
28416	1.1655	1.6364	0.1	0.21301
28417	1.0759	1.9091	0.1	0.87378
28418	1.1655	1.8182	0.1	0.22999
28419	1.0759	2.0909	0.1	0.89194
28420	1.1655	2.	0.1	0.24319
28421	1.0759	2.2727	0.1	0.90633
28422	1.1655	2.1818	0.1	0.25379
28423	1.0759	2.4545	0.1	0.91736
28424	1.1655	2.3636	0.1	0.26225
28425	1.0759	2.6364	0.1	0.92519
28426	1.1655	2.5455	0.1	0.26865
28427	1.0759	2.8182	0.1	0.92987
28428	1.1655	2.7273	0.1	0.27297
28429	1.0759	3.	0.1	0.93143
28430	1.1655	2.9091	0.1	0.27515
28431	1.0759	3.1818	0.1	0.92987
28432	1.1655	3.0909	0.1	0.27515
28433	1.0759	3.3636	0.1	0.92519
28434	1.1655	3.2727	0.1	0.27297
28435	1.0759	3.5455	0.1	0.91736
28436	1.1655	3.4545	0.1	0.26865
28437	1.0759	3.7273	0.1	0.90633
28438	1.1655	3.6364	0.1	0.26225
28439	1.0759	3.9091	0.1	0.89194
28440	1.1655	3.8182	0.1	0.25379
28441	1.0759	4.0909	0.1	0.87378
28442	1.1655	4.	0.1	0.24319
28443	1.0759	4.2727	0.1	0.8509
28444	1.1655	4.1818	0.1	0.22999
28445	1.0759	4.4545	0.1	0.82104
28446	1.1655	4.3636	0.1	0.21301
28447	1.0759	4.6364	0.1	0.77963
28448	1.1655	4.5455	0.1	0.18925
28449	1.0759	4.8182	0.1	0.71612
28450	1.1655	4.7273	0.1	0.15328
28451	1.0759	5.	0.1	0.61551
28452	1.1655	4.9091	0.1	9.1339e-002
28453	1.0759	5.1818	0.1	0.43036
28454	1.1655	5.0909	0.1	-8.4768e-003
28455	1.0759	5.3636	0.1	0.15657
28456	1.1655	5.2727	0.1	-0.21946
28457	1.0759	5.5455	0.1	-0.72378
28458	1.1655	5.4545	0.1	-0.47514
28459	1.0759	5.7273	0.1	-4.0795
28460	1.1655	5.6364	0.1	-1.9264
28461	1.1655	5.8182	0.1	-30.315
28462	1.0759	5.9091	0.1	-34.163
28463	1.2552	0.27273	0.1	-3.8587
28464	1.3448	0.18182	0.1	-21.513
28465	1.2552	9.0909e-002	0.1	-22.538
28466	1.2552	0.45455	0.1	-1.3972
28467	1.3448	0.36364	0.1	-1.9367
28468	1.2552	0.63636	0.1	-0.78242
28469	1.3448	0.54545	0.1	-0.74713
28470	1.2552	0.81818	0.1	-0.62843
28471	1.3448	0.72727	0.1	-0.5673
28472	1.2552	1.	0.1	-0.51665
28473	1.3448	0.90909	0.1	-0.40247
28474	1.2552	1.1818	0.1	-0.46217
28475	1.3448	1.0909	0.1	-0.32567
28476	1.2552	1.3636	0.1	-0.43143
28477	1.3448	1.2727	0.1	-0.27767
28478	1.2552	1.5455	0.1	-0.41523
28479	1.3448	1.4545	0.1	-0.25136
28480	1.2552	1.7273	0.1	-0.40561
28481	1.3448	1.6364	0.1	-0.23553
28482	1.2552	1.9091	0.1	-0.39907
28483	1.3448	1.8182	0.1	-0.22541
28484	1.2552	2.0909	0.1	-0.39387
28485	1.3448	2.	0.1	-0.21811
28486	1.2552	2.2727	0.1	-0.38947
28487	1.3448	2.1818	0.1	-0.21239
28488	1.2552	2.4545	0.1	-0.38579
28489	1.3448	2.3636	0.1	-0.20778
28490	1.2552	2.6364	0.1	-0.38299
28491	1.3448	2.5455	0.1	-0.2042
28492	1.2552	2.8182	0.1	-0.38122
28493	1.3448	2.7273	0.1	-0.20173
28494	1.2552	3.	0.1	-0.38061
28495	1.3448	2.9091	0.1	-0.20046
28496	1.2552	3.1818	0.1	-0.38122
28497	1.3448	3.0909	0.1	-0.20046
28498	1.2552	3.3636	0.1	-0.38299
28499	1.3448	3.2727	0.1	-0.20173
28500	1.2552	3.5455	0.1	-0.38579
28501	1.3448	3.4545	0.1	-0.2042
28502	1.2552	3.7273	0.1	-0.38947
28503	1.3448	3.6364	0.1	-0.20778
28504	1.2552	3.9091	0.1	-0.39387
28505	1.3448	3.8182	0.1	-0.21239
28506	1.2552	4.0909	0.1	-0.39907
28507	1.3448	4.	0.1	-0.21811
28508	1.2552	4.2727	0.1	-0.40561
28509	1.3448	4.1818	0.1	-0.22541
28510	1.2552	4.4545	0.1	-0.41523
28511	1.3448	4.3636	0.1	-0.23553
28512	1.2552	4.6364	0.1	-0.43143
28513	1.3448	4.5455	0.1	-0.25136
28514	1.2552	4.8182	0.1	-0.46217
28515	1.3448	4.7273	0.1	-0.27767
28516	1.2552	5.	0.1	-0.51665
28517	1.3448	4.9091	0.1	-0.32567
28518	1.2552	5.1818	0.1	-0.62843
28519	1.3448	5.0909	0.1	-0.40247
28520	1.2552	5.3636	0.1	-0.78242
28521	1.3448	5.2727	0.1	-0.5673
28522	1.2552	5.5455	0.1	-1.3972
28523	1.3448	5.4545	0.1	-0.74713
28524	1.2552	5.7273	0.1	-3.8587
28525	1.3448	5.6364	0.1	-1.9367
28526	1.3448	5.8182	0.1	-21.513
28527	1.2552	5.9091	0.1	-22.538
28528	1.4345	0.27273	0.1	-3.1468
28529	1.5241	0.18182	0.1	-15.56
28530	1.4345	9.0909e-002	0.1	-13.859
28531	1.4345	0.45455	0.1	-1.0576
28532	1.5241	0.36364	0.1	-1.6607
28533	1.4345	0.63636	0.1	-0.47543
28534	1.5241	0.54545	0.1	-0.59642
28535	1.4345	0.81818	0.1	-0.31679
28536	1.5241	0.72727	0.1	-0.43095
28537	1.4345	1.	0.1	-0.19815
28538	1.5241	0.90909	0.1	-0.27568
28539	1.4345	1.1818	0.1	-0.13312
28540	1.5241	1.0909	0.1	-0.19762
28541	1.4345	1.3636	0.1	-9.2492e-002
28542	1.5241	1.2727	0.1	-0.14551
28543	1.4345	1.5455	0.1	-6.8311e-002
28544	1.5241	1.4545	0.1	-0.11434
28545	1.4345	1.7273	0.1	-5.3059e-002
28546	1.5241	1.6364	0.1	-9.4491e-002
28547	1.4345	1.9091	0.1	-4.2856e-002
28548	1.5241	1.8182	0.1	-8.1514e-002
28549	1.4345	2.0909	0.1	-3.545e-002
28550	1.5241	2.	0.1	-7.2408e-002
28551	1.4345	2.2727	0.1	-2.9785e-002
28552	1.5241	2.1818	0.1	-6.5649e-002
28553	1.4345	2.4545	0.1	-2.5431e-002
28554	1.5241	2.3636	0.1	-6.0494e-002
28555	1.4345	2.6364	0.1	-2.2281e-002
28556	1.5241	2.5455	0.1	-5.6661e-002
28557	1.4345	2.8182	0.1	-2.0359e-002
28558	1.5241	2.7273	0.1	-5.4086e-002
28559	1.4345	3.	0.1	-1.9712e-002
28560	1.5241	2.9091	0.1	-5.2786e-002
28561	1.4345	3.1818	0.1	-2.0359e-002
28562	1.5241	3.0909	0.1	-5.2786e-002
28563	1.4345	3.3636	0.1	-2.2281e-002
28564	1.5241	3.2727	0.1	-5.4086e-002
28565	1.4345	3.5455	0.1	-2.5431e-002
28566	1.5241	3.4545	0.1	-5.6661e-002
28567	1.4345	3.7273	0.1	-2.9785e-002
28568	1.5241	3.6364	0.1	-6.0494e-002
28569	1.4345	3.9091	0.1	-3.545e-002
28570	1.5241	3.8182	0.1	-6.5649e-002
28571	1.4345	4.0909	0.1	-4.2856e-002
28572	1.5241	4.	0.1	-7.2408e-002
28573	1.4345	4.2727	0.1	-5.3059e-002
28574	1.5241	4.1818	0.1	-8.1514e-002
28575	1.4345	4.4545	0.1	-6.8311e-002
28576	1.5241	4.3636	0.1	-9.4491e-002
28577	1.4345	4.6364	0.1	-9.2492e-002
28578	1.5241	4.5455	0.1	-0.11434
28579	1.4345	4.8182	0.1	-0.13312
28580	1.5241	4.7273	0.1	-0.14551
28581	1.4345	5.	0.1	-0.19815
28582	1.5241	4.9091	0.1	-0.19762
28583	1.4345	5.1818	0.1	-0.31679
28584	1.5241	5.0909	0.1	-0.27568
28585	1.4345	5.3636	0.1	-0.47543
28586	1.5241	5.2727	0.1	-0.43095
28587	1.4345	5.5455	0.1	-1.0576
28588	1.5241	5.4545	0.1	-0.59642
28589	1.4345	5.7273	0.1	-3.1467
28590	1.5241	5.6364	0.1	-1.6607
28591	1.5241	5.8182	0.1	-15.56
28592	1.4345	5.9091	0.1	-13.859
28593	1.6138	0.27273	0.1	-2.7339
28594	1.7034	0.18182	0.1	-11.751
28595	1.6138	9.0909e-002	0.1	-7.8116
28596	1.6138	0.45455	0.1	-1.0081
28597	1.7034	0.36364	0.1	-1.509
28598	1.6138	0.63636	0.1	-0.50405
28599	1.7034	0.54545	0.1	-0.57521
28600	1.6138	0.81818	0.1	-0.36909
28601	1.7034	0.72727	0.1	-0.43291
28602	1.6138	1.	0.1	-0.26378
28603	1.7034	0.90909	0.1	-0.29458
28604	1.6138	1.1818	0.1	-0.20302
28605	1.7034	1.0909	0.1	-0.22185
28606	1.6138	1.3636	0.1	-0.16278
28607	1.7034	1.2727	0.1	-0.17057
28608	1.6138	1.5455	0.1	-0.1374
28609	1.7034	1.4545	0.1	-0.13771
28610	1.6138	1.7273	0.1	-0.12074
28611	1.7034	1.6364	0.1	-0.11551
28612	1.6138	1.9091	0.1	-0.10945
28613	1.7034	1.8182	0.1	-0.1003
28614	1.6138	2.0909	0.1	-0.10138
28615	1.7034	2.	0.1	-8.9408e-002
28616	1.6138	2.2727	0.1	-9.5375e-002
28617	1.7034	2.1818	0.1	-8.1346e-002
28618	1.6138	2.4545	0.1	-9.0897e-002
28619	1.7034	2.3636	0.1	-7.5301e-002
28620	1.6138	2.6364	0.1	-8.7732e-002
28621	1.7034	2.5455	0.1	-7.0897e-002
28622	1.6138	2.8182	0.1	-8.5829e-002
28623	1.7034	2.7273	0.1	-6.7988e-002
28624	1.6138	3.	0.1	-8.5192e-002
28625	1.7034	2.9091	0.1	-6.6536e-002
28626	1.6138	3.1818	0.1	-8.5829e-002
28627	1.7034	3.0909	0.1	-6.6536e-002
28628	1.6138	3.3636	0.1	-8.7732e-002
28629	1.7034	3.2727	0.1	-6.7988e-002
28630	1.6138	3.5455	0.1	-9.0897e-002
28631	1.7034	3.4545	0.1	-7.0897e-002
28632	1.6138	3.7273	0.1	-9.5375e-002
28633	1.7034	3.6364	0.1	-7.5301e-002
28634	1.6138	3.9091	0.1	-0.10138
28635	1.7034	3.8182	0.1	-8.1346e-002
28636	1.6138	4.0909	0.1	-0.10945
28637	1.7034	4.	0.1	-8.9408e-002
28638	1.6138	4.2727	0.1	-0.12074
28639	1.7034	4.1818	0.1	-0.1003
28640	1.6138	4.4545	0.1	-0.1374
28641	1.7034	4.3636	0.1	-0.11551
28642	1.6138	4.6364	0.1	-0.16278
28643	1.7034	4.5455	0.1	-0.13771
28644	1.6138	4.8182	0.1	-0.20301
28645	1.7034	4.7273	0.1	-0.17057
28646	1.6138	5.	0.1	-0.26378
28647	1.7034	4.9091	0.1	-0.22185
28648	1.6138	5.1818	0.1	-0.36909
28649	1.7034	5.0909	0.1	-0.29458
28650	1.6138	5.3636	0.1	-0.50405
28651	1.7034	5.2727	0.1	-0.43291
28652	1.6138	5.5455	0.1	-1.0081
28653	1.7034	5.4545	0.1	-0.57521
28654	1.6138	5.7273	0.1	-2.7339
28655	1.7034	5.6364	0.1	-1.509
28656	1.7034	5.8182	0.1	-11.751
28657	1.6138	5.9091	0.1	-7.8115
28658	1.7931	0.27273	0.1	-2.3871
28659	1.8828	0.18182	0.1	-9.355
28660	1.7931	9.0909e-002	0.1	-4.0526
28661	1.7931	0.45455	0.1	-0.9127
28662	1.8828	0.36364	0.1	-1.3686
28663	1.7931	0.63636	0.1	-0.46257
28664	1.8828	0.54545	0.1	-0.53921
28665	1.7931	0.81818	0.1	-0.3404
28666	1.8828	0.72727	0.1	-0.41152
28667	1.7931	1.	0.1	-0.24274
28668	1.8828	0.90909	0.1	-0.28599
28669	1.7931	1.1818	0.1	-0.18324
28670	1.8828	1.0909	0.1	-0.21707
28671	1.7931	1.3636	0.1	-0.14138
28672	1.8828	1.2727	0.1	-0.16609
28673	1.7931	1.5455	0.1	-0.11292
28674	1.8828	1.4545	0.1	-0.13111
28675	1.7931	1.7273	0.1	-9.2947e-002
28676	1.8828	1.6364	0.1	-0.1059
28677	1.7931	1.9091	0.1	-7.8649e-002
28678	1.8828	1.8182	0.1	-8.755e-002
28679	1.7931	2.0909	0.1	-6.8112e-002
28680	1.8828	2.	0.1	-7.3834e-002
28681	1.7931	2.2727	0.1	-6.0275e-002
28682	1.8828	2.1818	0.1	-6.344e-002
28683	1.7931	2.4545	0.1	-5.4405e-002
28684	1.8828	2.3636	0.1	-5.56e-002
28685	1.7931	2.6364	0.1	-5.0347e-002
28686	1.8828	2.5455	0.1	-4.9915e-002
28687	1.7931	2.8182	0.1	-4.7937e-002
28688	1.8828	2.7273	0.1	-4.619e-002
28689	1.7931	3.	0.1	-4.7137e-002
28690	1.8828	2.9091	0.1	-4.4342e-002
28691	1.7931	3.1818	0.1	-4.7937e-002
28692	1.8828	3.0909	0.1	-4.4342e-002
28693	1.7931	3.3636	0.1	-5.0347e-002
28694	1.8828	3.2727	0.1	-4.619e-002
28695	1.7931	3.5455	0.1	-5.4405e-002
28696	1.8828	3.4545	0.1	-4.9915e-002
28697	1.7931	3.7273	0.1	-6.0275e-002
28698	1.8828	3.6364	0.1	-5.56e-002
28699	1.7931	3.9091	0.1	-6.8112e-002
28700	1.8828	3.8182	0.1	-6.344e-002
28701	1.7931	4.0909	0.1	-7.8649e-002
28702	1.8828	4.	0.1	-7.3833e-002
28703	1.7931	4.2727	0.1	-9.2947e-002
28704	1.8828	4.1818	0.1	-8.755e-002
28705	1.7931	4.4545	0.1	-0.11292
28706	1.8828	4.3636	0.1	-0.1059
28707	1.7931	4.6364	0.1	-0.14138
28708	1.8828	4.5455	0.1	-0.13111
28709	1.7931	4.8182	0.1	-0.18324
28710	1.8828	4.7273	0.1	-0.16609
28711	1.7931	5.	0.1	-0.24274
28712	1.8828	4.9091	0.1	-0.21707
28713	1.7931	5.1818	0.1	-0.3404
28714	1.8828	5.0909	0.1	-0.28599
28715	1.7931	5.3636	0.1	-0.46257
28716	1.8828	5.2727	0.1	-0.41152
28717	1.7931	5.5455	0.1	-0.9127
28718	1.8828	5.4545	0.1	-0.53921
28719	1.7931	5.7273	0.1	-2.3871
28720	1.8828	5.6364	0.1	-1.3686
28721	1.8828	5.8182	0.1	-9.355
28722	1.7931	5.9091	0.1	-4.0526
28723	1.9724	0.27273	0.1	-2.1409
28724	2.0621	0.18182	0.1	-7.926
28725	1.9724	9.0909e-002	0.1	-2.1946
28726	1.9724	0.45455	0.1	-0.85222
28727	2.0621	0.36364	0.1	-1.2632
28728	1.9724	0.63636	0.1	-0.45135
28729	2.0621	0.54545	0.1	-0.52351
28730	1.9724	0.81818	0.1	-0.34113
28731	2.0621	0.72727	0.1	-0.40677
28732	1.9724	1.	0.1	-0.25151
28733	2.0621	0.90909	0.1	-0.29254
28734	1.9724	1.1818	0.1	-0.19439
28735	2.0621	1.0909	0.1	-0.2274
28736	1.9724	1.3636	0.1	-0.15206
28737	2.0621	1.2727	0.1	-0.17723
28738	1.9724	1.5455	0.1	-0.12138
28739	2.0621	1.4545	0.1	-0.14073
28740	1.9724	1.7273	0.1	-9.8468e-002
28741	2.0621	1.6364	0.1	-0.11285
28742	1.9724	1.9091	0.1	-8.1143e-002
28743	2.0621	1.8182	0.1	-9.139e-002
28744	1.9724	2.0909	0.1	-6.7866e-002
28745	2.0621	2.	0.1	-7.4635e-002
28746	1.9724	2.2727	0.1	-5.7713e-002
28747	2.0621	2.1818	0.1	-6.1562e-002
28748	1.9724	2.4545	0.1	-5.0146e-002
28749	2.0621	2.3636	0.1	-5.1553e-002
28750	1.9724	2.6364	0.1	-4.4877e-002
28751	2.0621	2.5455	0.1	-4.4262e-002
28752	1.9724	2.8182	0.1	-4.1759e-002
28753	2.0621	2.7273	0.1	-3.949e-002
28754	1.9724	3.	0.1	-4.0726e-002
28755	2.0621	2.9091	0.1	-3.7129e-002
28756	1.9724	3.1818	0.1	-4.1759e-002
28757	2.0621	3.0909	0.1	-3.7129e-002
28758	1.9724	3.3636	0.1	-4.4877e-002
28759	2.0621	3.2727	0.1	-3.949e-002
28760	1.9724	3.5455	0.1	-5.0146e-002
28761	2.0621	3.4545	0.1	-4.4262e-002
28762	1.9724	3.7273	0.1	-5.7713e-002
28763	2.0621	3.6364	0.1	-5.1553e-002
28764	1.9724	3.9091	0.1	-6.7866e-002
28765	2.0621	3.8182	0.1	-6.1562e-002
28766	1.9724	4.0909	0.1	-8.1143e-002
28767	2.0621	4.	0.1	-7.4634e-002
28768	1.9724	4.2727	0.1	-9.8468e-002
28769	2.0621	4.1818	0.1	-9.139e-002
28770	1.9724	4.4545	0.1	-0.12138
28771	2.0621	4.3636	0.1	-0.11284
28772	1.9724	4.6364	0.1	-0.15206
28773	2.0621	4.5455	0.1	-0.14073
28774	1.9724	4.8182	0.1	-0.19439
28775	2.0621	4.7273	0.1	-0.17723
28776	1.9724	5.	0.1	-0.25151
28777	2.0621	4.9091	0.1	-0.22739
28778	1.9724	5.1818	0.1	-0.34113
28779	2.0621	5.0909	0.1	-0.29254
28780	1.9724	5.3636	0.1	-0.45135
28781	2.0621	5.2727	0.1	-0.40677
28782	1.9724	5.5455	0.1	-0.85222
28783	2.0621	5.4545	0.1	-0.52351
28784	1.9724	5.7273	0.1	-2.1409
28785	2.0621	5.6364	0.1	-1.2632
28786	2.0621	5.8182	0.1	-7.9259
28787	1.9724	5.9091	0.1	-2.1946
28788	2.1517	0.27273	0.1	-1.973
28789	2.2414	0.18182	0.1	-7.2348
28790	2.1517	9.0909e-002	0.1	-1.4102
28791	2.1517	0.45455	0.1	-0.80579
28792	2.2414	0.36364	0.1	-1.1868
28793	2.1517	0.63636	0.1	-0.4455
28794	2.2414	0.54545	0.1	-0.5207
28795	2.1517	0.81818	0.1	-0.34369
28796	2.2414	0.72727	0.1	-0.40991
28797	2.1517	1.	0.1	-0.26044
28798	2.2414	0.90909	0.1	-0.30447
28799	2.1517	1.1818	0.1	-0.20519
28800	2.2414	1.0909	0.1	-0.24204
28801	2.1517	1.3636	0.1	-0.16242
28802	2.2414	1.2727	0.1	-0.1924
28803	2.1517	1.5455	0.1	-0.12964
28804	2.2414	1.4545	0.1	-0.15441
28805	2.1517	1.7273	0.1	-0.10379
28806	2.2414	1.6364	0.1	-0.1239
28807	2.1517	1.9091	0.1	-8.329e-002
28808	2.2414	1.8182	0.1	-9.9279e-002
28809	2.1517	2.0909	0.1	-6.6996e-002
28810	2.2414	2.	0.1	-7.9303e-002
28811	2.1517	2.2727	0.1	-5.4242e-002
28812	2.2414	2.1818	0.1	-6.3305e-002
28813	2.1517	2.4545	0.1	-4.4627e-002
28814	2.2414	2.3636	0.1	-5.0882e-002
28815	2.1517	2.6364	0.1	-3.7909e-002
28816	2.2414	2.5455	0.1	-4.1789e-002
28817	2.1517	2.8182	0.1	-3.3937e-002
28818	2.2414	2.7273	0.1	-3.5843e-002
28819	2.1517	3.	0.1	-3.2623e-002
28820	2.2414	2.9091	0.1	-3.2909e-002
28821	2.1517	3.1818	0.1	-3.3937e-002
28822	2.2414	3.0909	0.1	-3.2909e-002
28823	2.1517	3.3636	0.1	-3.7909e-002
28824	2.2414	3.2727	0.1	-3.5843e-002
28825	2.1517	3.5455	0.1	-4.4627e-002
28826	2.2414	3.4545	0.1	-4.1789e-002
28827	2.1517	3.7273	0.1	-5.4242e-002
28828	2.2414	3.6364	0.1	-5.0882e-002
28829	2.1517	3.9091	0.1	-6.6995e-002
28830	2.2414	3.8182	0.1	-6.3305e-002
28831	2.1517	4.0909	0.1	-8.329e-002
28832	2.2414	4.	0.1	-7.9303e-002
28833	2.1517	4.2727	0.1	-0.10379
28834	2.2414	4.1818	0.1	-9.9279e-002
28835	2.1517	4.4545	0.1	-0.12964
28836	2.2414	4.3636	0.1	-0.1239
28837	2.1517	4.6364	0.1	-0.16242
28838	2.2414	4.5455	0.1	-0.15441
28839	2.1517	4.8182	0.1	-0.20519
28840	2.2414	4.7273	0.1	-0.1924
28841	2.1517	5.	0.1	-0.26044
28842	2.2414	4.9091	0.1	-0.24203
28843	2.1517	5.1818	0.1	-0.34369
28844	2.2414	5.0909	0.1	-0.30447
28845	2.1517	5.3636	0.1	-0.4455
28846	2.2414	5.2727	0.1	-0.40991
28847	2.1517	5.5455	0.1	-0.80579
28848	2.2414	5.4545	0.1	-0.5207
28849	2.1517	5.7273	0.1	-1.973
28850	2.2414	5.6364	0.1	-1.1868
28851	2.2414	5.8182	0.1	-7.2347
28852	2.1517	5.9091	0.1	-1.4102
28853	2.331	0.27273	0.1	-1.8904
28854	2.4207	0.18182	0.1	-7.2876
28855	2.331	9.0909e-002	0.1	-1.0849
28856	2.331	0.45455	0.1	-0.78143
28857	2.4207	0.36364	0.1	-1.1477
28858	2.331	0.63636	0.1	-0.45394
28859	2.4207	0.54545	0.1	-0.53732
28860	2.331	0.81818	0.1	-0.35728
28861	2.4207	0.72727	0.1	-0.4268
28862	2.331	1.	0.1	-0.27871
28863	2.4207	0.90909	0.1	-0.32722
28864	2.331	1.1818	0.1	-0.22459
28865	2.4207	1.0909	0.1	-0.26595
28866	2.331	1.3636	0.1	-0.18114
28867	2.4207	1.2727	0.1	-0.21608
28868	2.331	1.5455	0.1	-0.14624
28869	2.4207	1.4545	0.1	-0.17624
28870	2.331	1.7273	0.1	-0.11745
28871	2.4207	1.6364	0.1	-0.1429
28872	2.331	1.9091	0.1	-9.3681e-002
28873	2.4207	1.8182	0.1	-0.1149
28874	2.331	2.0909	0.1	-7.4219e-002
28875	2.4207	2.	0.1	-9.1475e-002
28876	2.331	2.2727	0.1	-5.8701e-002
28877	2.4207	2.1818	0.1	-7.2341e-002
28878	2.331	2.4545	0.1	-4.6904e-002
28879	2.4207	2.3636	0.1	-5.7356e-002
28880	2.331	2.6364	0.1	-3.8653e-002
28881	2.4207	2.5455	0.1	-4.639e-002
28882	2.331	2.8182	0.1	-3.3784e-002
28883	2.4207	2.7273	0.1	-3.9256e-002
28884	2.331	3.	0.1	-3.2177e-002
28885	2.4207	2.9091	0.1	-3.5755e-002
28886	2.331	3.1818	0.1	-3.3784e-002
28887	2.4207	3.0909	0.1	-3.5755e-002
28888	2.331	3.3636	0.1	-3.8652e-002
28889	2.4207	3.2727	0.1	-3.9256e-002
28890	2.331	3.5455	0.1	-4.6904e-002
28891	2.4207	3.4545	0.1	-4.639e-002
28892	2.331	3.7273	0.1	-5.8701e-002
28893	2.4207	3.6364	0.1	-5.7356e-002
28894	2.331	3.9091	0.1	-7.4218e-002
28895	2.4207	3.8182	0.1	-7.2341e-002
28896	2.331	4.0909	0.1	-9.3681e-002
28897	2.4207	4.	0.1	-9.1474e-002
28898	2.331	4.2727	0.1	-0.11745
28899	2.4207	4.1818	0.1	-0.1149
28900	2.331	4.4545	0.1	-0.14624
28901	2.4207	4.3636	0.1	-0.1429
28902	2.331	4.6364	0.1	-0.18114
28903	2.4207	4.5455	0.1	-0.17624
28904	2.331	4.8182	0.1	-0.22459
28905	2.4207	4.7273	0.1	-0.21608
28906	2.331	5.	0.1	-0.27871
28907	2.4207	4.9091	0.1	-0.26595
28908	2.331	5.1818	0.1	-0.35728
28909	2.4207	5.0909	0.1	-0.32722
28910	2.331	5.3636	0.1	-0.45394
28911	2.4207	5.2727	0.1	-0.4268
28912	2.331	5.5455	0.1	-0.78143
28913	2.4207	5.4545	0.1	-0.53732
28914	2.331	5.7273	0.1	-1.8904
28915	2.4207	5.6364	0.1	-1.1477
28916	2.4207	5.8182	0.1	-7.2875
28917	2.331	5.9091	0.1	-1.0849
28918	2.5103	0.27273	0.1	-1.919
28919	2.6	0.18182	0.1	-8.4491
28920	2.5103	9.0909e-002	0.1	-1.4433
28921	2.5103	0.45455	0.1	-0.7853
28922	2.6	0.36364	0.1	-1.1642
28923	2.5103	0.63636	0.1	-0.48027
28924	2.6	0.54545	0.1	-0.58223
28925	2.5103	0.81818	0.1	-0.38415
28926	2.6	0.72727	0.1	-0.4634
28927	2.5103	1.	0.1	-0.30766
28928	2.6	0.90909	0.1	-0.36521
28929	2.5103	1.1818	0.1	-0.25316
28930	2.6	1.0909	0.1	-0.30245
28931	2.5103	1.3636	0.1	-0.20816
28932	2.6	1.2727	0.1	-0.25071
28933	2.5103	1.5455	0.1	-0.17057
28934	2.6	1.4545	0.1	-0.20793
28935	2.5103	1.7273	0.1	-0.13843
28936	2.6	1.6364	0.1	-0.17096
28937	2.5103	1.9091	0.1	-0.11103
28938	2.6	1.8182	0.1	-0.13893
28939	2.5103	2.0909	0.1	-8.8112e-002
28940	2.6	2.	0.1	-0.11153
28941	2.5103	2.2727	0.1	-6.9632e-002
28942	2.6	2.1818	0.1	-8.888e-002
28943	2.5103	2.4545	0.1	-5.5568e-002
28944	2.6	2.3636	0.1	-7.1145e-002
28945	2.5103	2.6364	0.1	-4.5785e-002
28946	2.6	2.5455	0.1	-5.8292e-002
28947	2.5103	2.8182	0.1	-4.0058e-002
28948	2.6	2.7273	0.1	-5.0053e-002
28949	2.5103	3.	0.1	-3.8178e-002
28950	2.6	2.9091	0.1	-4.6062e-002
28951	2.5103	3.1818	0.1	-4.0058e-002
28952	2.6	3.0909	0.1	-4.6062e-002
28953	2.5103	3.3636	0.1	-4.5784e-002
28954	2.6	3.2727	0.1	-5.0053e-002
28955	2.5103	3.5455	0.1	-5.5568e-002
28956	2.6	3.4545	0.1	-5.8292e-002
28957	2.5103	3.7273	0.1	-6.9632e-002
28958	2.6	3.6364	0.1	-7.1145e-002
28959	2.5103	3.9091	0.1	-8.8111e-002
28960	2.6	3.8182	0.1	-8.888e-002
28961	2.5103	4.0909	0.1	-0.11103
28962	2.6	4.	0.1	-0.11153
28963	2.5103	4.2727	0.1	-0.13843
28964	2.6	4.1818	0.1	-0.13893
28965	2.5103	4.4545	0.1	-0.17057
28966	2.6	4.3636	0.1	-0.17096
28967	2.5103	4.6364	0.1	-0.20816
28968	2.6	4.5455	0.1	-0.20793
28969	2.5103	4.8182	0.1	-0.25316
28970	2.6	4.7273	0.1	-0.2507
28971	2.5103	5.	0.1	-0.30766
28972	2.6	4.9091	0.1	-0.30245
28973	2.5103	5.1818	0.1	-0.38415
28974	2.6	5.0909	0.1	-0.36521
28975	2.5103	5.3636	0.1	-0.48026
28976	2.6	5.2727	0.1	-0.4634
28977	2.5103	5.5455	0.1	-0.7853
28978	2.6	5.4545	0.1	-0.58223
28979	2.5103	5.7273	0.1	-1.919
28980	2.6	5.6364	0.1	-1.1642
28981	2.6	5.8182	0.1	-8.4491
28982	2.5103	5.9091	0.1	-1.4433
28983	2.6897	0.27273	0.1	-2.1476
28984	2.7793	0.18182	0.1	-11.731
28985	2.6897	9.0909e-002	0.1	-4.2736
28986	2.6897	0.45455	0.1	-0.83566
28987	2.7793	0.36364	0.1	-1.2885
28988	2.6897	0.63636	0.1	-0.53567
28989	2.7793	0.54545	0.1	-0.67683
28990	2.6897	0.81818	0.1	-0.43262
28991	2.7793	0.72727	0.1	-0.53339
28992	2.6897	1.	0.1	-0.35388
28993	2.7793	0.90909	0.1	-0.42846
28994	2.6897	1.1818	0.1	-0.29622
28995	2.7793	1.0909	0.1	-0.35927
28996	2.6897	1.3636	0.1	-0.24778
28997	2.7793	1.2727	0.1	-0.30238
28998	2.6897	1.5455	0.1	-0.20616
28999	2.7793	1.4545	0.1	-0.25436
29000	2.6897	1.7273	0.1	-0.16958
29001	2.7793	1.6364	0.1	-0.21196
29002	2.6897	1.9091	0.1	-0.13769
29003	2.7793	1.8182	0.1	-0.17441
29004	2.6897	2.0909	0.1	-0.11067
29005	2.7793	2.	0.1	-0.14185
29006	2.6897	2.2727	0.1	-8.8854e-002
29007	2.7793	2.1818	0.1	-0.1149
29008	2.6897	2.4545	0.1	-7.2407e-002
29009	2.7793	2.3636	0.1	-9.4056e-002
29010	2.6897	2.6364	0.1	-6.1163e-002
29011	2.7793	2.5455	0.1	-7.9317e-002
29012	2.6897	2.8182	0.1	-5.4703e-002
29013	2.7793	2.7273	0.1	-7.0157e-002
29014	2.6897	3.	0.1	-5.2608e-002
29015	2.7793	2.9091	0.1	-6.5839e-002
29016	2.6897	3.1818	0.1	-5.4703e-002
29017	2.7793	3.0909	0.1	-6.5839e-002
29018	2.6897	3.3636	0.1	-6.1163e-002
29019	2.7793	3.2727	0.1	-7.0157e-002
29020	2.6897	3.5455	0.1	-7.2407e-002
29021	2.7793	3.4545	0.1	-7.9316e-002
29022	2.6897	3.7273	0.1	-8.8853e-002
29023	2.7793	3.6364	0.1	-9.4056e-002
29024	2.6897	3.9091	0.1	-0.11067
29025	2.7793	3.8182	0.1	-0.1149
29026	2.6897	4.0909	0.1	-0.13769
29027	2.7793	4.	0.1	-0.14185
29028	2.6897	4.2727	0.1	-0.16958
29029	2.7793	4.1818	0.1	-0.17441
29030	2.6897	4.4545	0.1	-0.20616
29031	2.7793	4.3636	0.1	-0.21196
29032	2.6897	4.6364	0.1	-0.24778
29033	2.7793	4.5455	0.1	-0.25436
29034	2.6897	4.8182	0.1	-0.29622
29035	2.7793	4.7273	0.1	-0.30238
29036	2.6897	5.	0.1	-0.35388
29037	2.7793	4.9091	0.1	-0.35927
29038	2.6897	5.1818	0.1	-0.43262
29039	2.7793	5.0909	0.1	-0.42845
29040	2.6897	5.3636	0.1	-0.53567
29041	2.7793	5.2727	0.1	-0.53339
29042	2.6897	5.5455	0.1	-0.83566
29043	2.7793	5.4545	0.1	-0.67683
29044	2.6897	5.7273	0.1	-2.1476
29045	2.7793	5.6364	0.1	-1.2885
29046	2.7793	5.8182	0.1	-11.731
29047	2.6897	5.9091	0.1	-4.2735
29048	2.869	0.27273	0.1	-2.9086
29049	2.9586	0.18182	0.1	-18.362
29050	2.869	9.0909e-002	0.1	-8.5362
29051	2.869	0.45455	0.1	-0.97885
29052	2.9586	0.36364	0.1	-1.6982
29053	2.869	0.63636	0.1	-0.64413
29054	2.9586	0.54545	0.1	-0.87584
29055	2.869	0.81818	0.1	-0.51862
29056	2.9586	0.72727	0.1	-0.66724
29057	2.869	1.	0.1	-0.42896
29058	2.9586	0.90909	0.1	-0.53727
29059	2.869	1.1818	0.1	-0.36259
29060	2.9586	1.0909	0.1	-0.45108
29061	2.869	1.3636	0.1	-0.30686
29062	2.9586	1.2727	0.1	-0.38219
29063	2.869	1.5455	0.1	-0.25829
29064	2.9586	1.4545	0.1	-0.32405
29065	2.869	1.7273	0.1	-0.21496
29066	2.9586	1.6364	0.1	-0.27244
29067	2.869	1.9091	0.1	-0.17673
29068	2.9586	1.8182	0.1	-0.22632
29069	2.869	2.0909	0.1	-0.14424
29070	2.9586	2.	0.1	-0.1862
29071	2.869	2.2727	0.1	-0.1183
29072	2.9586	2.1818	0.1	-0.1533
29073	2.869	2.4545	0.1	-9.9224e-002
29074	2.9586	2.3636	0.1	-0.12855
29075	2.869	2.6364	0.1	-8.6646e-002
29076	2.9586	2.5455	0.1	-0.11185
29077	2.869	2.8182	0.1	-7.9689e-002
29078	2.9586	2.7273	0.1	-0.10209
29079	2.869	3.	0.1	-7.7489e-002
29080	2.9586	2.9091	0.1	-9.7732e-002
29081	2.869	3.1818	0.1	-7.9689e-002
29082	2.9586	3.0909	0.1	-9.7732e-002
29083	2.869	3.3636	0.1	-8.6646e-002
29084	2.9586	3.2727	0.1	-0.10209
29085	2.869	3.5455	0.1	-9.9224e-002
29086	2.9586	3.4545	0.1	-0.11185
29087	2.869	3.7273	0.1	-0.1183
29088	2.9586	3.6364	0.1	-0.12855
29089	2.869	3.9091	0.1	-0.14424
29090	2.9586	3.8182	0.1	-0.1533
29091	2.869	4.0909	0.1	-0.17673
29092	2.9586	4.	0.1	-0.1862
29093	2.869	4.2727	0.1	-0.21496
29094	2.9586	4.1818	0.1	-0.22632
29095	2.869	4.4545	0.1	-0.25829
29096	2.9586	4.3636	0.1	-0.27244
29097	2.869	4.6364	0.1	-0.30686
29098	2.9586	4.5455	0.1	-0.32404
29099	2.869	4.8182	0.1	-0.36259
29100	2.9586	4.7273	0.1	-0.38219
29101	2.869	5.	0.1	-0.42896
29102	2.9586	4.9091	0.1	-0.45108
29103	2.869	5.1818	0.1	-0.51862
29104	2.9586	5.0909	0.1	-0.53726
29105	2.869	5.3636	0.1	-0.64413
29106	2.9586	5.2727	0.1	-0.66724
29107	2.869	5.5455	0.1	-0.97884
29108	2.9586	5.4545	0.1	-0.87584
29109	2.869	5.7273	0.1	-2.9086
29110	2.9586	5.6364	0.1	-1.6982
29111	2.9586	5.8182	0.1	-18.362
29112	2.869	5.9091	0.1	-8.5362
29113	3.0483	0.27273	0.1	-6.0446
29114	3.1379	0.18182	0.1	-28.229
29115	3.0483	9.0909e-002	0.1	-13.88
29116	3.0483	0.45455	0.1	-1.3654
29117	3.1379	0.36364	0.1	-3.3954
29118	3.0483	0.63636	0.1	-0.8678
29119	3.1379	0.54545	0.1	-1.3604
29120	3.0483	0.81818	0.1	-0.6788
29121	3.1379	0.72727	0.1	-0.94603
29122	3.0483	1.	0.1	-0.55758
29123	3.1379	0.90909	0.1	-0.73937
29124	3.0483	1.1818	0.1	-0.47001
29125	3.1379	1.0909	0.1	-0.6096
29126	3.0483	1.3636	0.1	-0.39862
29127	3.1379	1.2727	0.1	-0.51259
29128	3.0483	1.5455	0.1	-0.33701
29129	3.1379	1.4545	0.1	-0.43345
29130	3.0483	1.7273	0.1	-0.28216
29131	3.1379	1.6364	0.1	-0.36457
29132	3.0483	1.9091	0.1	-0.2338
29133	3.1379	1.8182	0.1	-0.30349
29134	3.0483	2.0909	0.1	-0.19307
29135	3.1379	2.	0.1	-0.25082
29136	3.0483	2.2727	0.1	-0.16132
29137	3.1379	2.1818	0.1	-0.20865
29138	3.0483	2.4545	0.1	-0.13901
29139	3.1379	2.3636	0.1	-0.17838
29140	3.0483	2.6364	0.1	-0.12524
29141	3.1379	2.5455	0.1	-0.15949
29142	3.0483	2.8182	0.1	-0.11818
29143	3.1379	2.7273	0.1	-0.14959
29144	3.0483	3.	0.1	-0.11607
29145	3.1379	2.9091	0.1	-0.14567
29146	3.0483	3.1818	0.1	-0.11818
29147	3.1379	3.0909	0.1	-0.14567
29148	3.0483	3.3636	0.1	-0.12524
29149	3.1379	3.2727	0.1	-0.14959
29150	3.0483	3.5455	0.1	-0.13901
29151	3.1379	3.4545	0.1	-0.15949
29152	3.0483	3.7273	0.1	-0.16132
29153	3.1379	3.6364	0.1	-0.17838
29154	3.0483	3.9091	0.1	-0.19307
29155	3.1379	3.8182	0.1	-0.20865
29156	3.0483	4.0909	0.1	-0.2338
29157	3.1379	4.	0.1	-0.25082
29158	3.0483	4.2727	0.1	-0.28216
29159	3.1379	4.1818	0.1	-0.30349
29160	3.0483	4.4545	0.1	-0.33701
29161	3.1379	4.3636	0.1	-0.36457
29162	3.0483	4.6364	0.1	-0.39862
29163	3.1379	4.5455	0.1	-0.43345
29164	3.0483	4.8182	0.1	-0.47001
29165	3.1379	4.7273	0.1	-0.51259
29166	3.0483	5.	0.1	-0.55758
29167	3.1379	4.9091	0.1	-0.6096
29168	3.0483	5.1818	0.1	-0.6788
29169	3.1379	5.0909	0.1	-0.73937
29170	3.0483	5.3636	0.1	-0.8678
29171	3.1379	5.2727	0.1	-0.94603
29172	3.0483	5.5455	0.1	-1.3654
29173	3.1379	5.4545	0.1	-1.3604
29174	3.0483	5.7273	0.1	-6.0446
29175	3.1379	5.6364	0.1	-3.3954
29176	3.1379	5.8182	0.1	-28.229
29177	3.0483	5.9091	0.1	-13.88
29178	3.2276	0.27273	0.1	-17.931
29179	3.3172	0.18182	0.1	-40.42
29180	3.2276	9.0909e-002	0.1	-20.183
29181	3.2276	0.45455	0.1	-2.787
29182	3.3172	0.36364	0.1	-14.694
29183	3.2276	0.63636	0.1	-1.4154
29184	3.3172	0.54545	0.1	-3.1371
29185	3.2276	0.81818	0.1	-1.013
29186	3.3172	0.72727	0.1	-1.658
29187	3.2276	1.	0.1	-0.79899
29188	3.3172	0.90909	0.1	-1.1718
29189	3.2276	1.1818	0.1	-0.65746
29190	3.3172	1.0909	0.1	-0.91465
29191	3.2276	1.3636	0.1	-0.55015
29192	3.3172	1.2727	0.1	-0.74501
29193	3.2276	1.5455	0.1	-0.46158
29194	3.3172	1.4545	0.1	-0.61756
29195	3.2276	1.7273	0.1	-0.38484
29196	3.3172	1.6364	0.1	-0.51275
29197	3.2276	1.9091	0.1	-0.31835
29198	3.3172	1.8182	0.1	-0.42292
29199	3.2276	2.0909	0.1	-0.26364
29200	3.3172	2.	0.1	-0.34752
29201	3.2276	2.2727	0.1	-0.22276
29202	3.3172	2.1818	0.1	-0.28904
29203	3.2276	2.4545	0.1	-0.19601
29204	3.3172	2.3636	0.1	-0.24939
29205	3.2276	2.6364	0.1	-0.18121
29206	3.3172	2.5455	0.1	-0.22733
29207	3.2276	2.8182	0.1	-0.17466
29208	3.3172	2.7273	0.1	-0.21789
29209	3.2276	3.	0.1	-0.17294
29210	3.3172	2.9091	0.1	-0.21511
29211	3.2276	3.1818	0.1	-0.17466
29212	3.3172	3.0909	0.1	-0.21511
29213	3.2276	3.3636	0.1	-0.18121
29214	3.3172	3.2727	0.1	-0.21789
29215	3.2276	3.5455	0.1	-0.19601
29216	3.3172	3.4545	0.1	-0.22733
29217	3.2276	3.7273	0.1	-0.22276
29218	3.3172	3.6364	0.1	-0.24939
29219	3.2276	3.9091	0.1	-0.26364
29220	3.3172	3.8182	0.1	-0.28904
29221	3.2276	4.0909	0.1	-0.31835
29222	3.3172	4.	0.1	-0.34752
29223	3.2276	4.2727	0.1	-0.38484
29224	3.3172	4.1818	0.1	-0.42292
29225	3.2276	4.4545	0.1	-0.46158
29226	3.3172	4.3636	0.1	-0.51275
29227	3.2276	4.6364	0.1	-0.55015
29228	3.3172	4.5455	0.1	-0.61756
29229	3.2276	4.8182	0.1	-0.65746
29230	3.3172	4.7273	0.1	-0.74501
29231	3.2276	5.	0.1	-0.79899
29232	3.3172	4.9091	0.1	-0.91465
29233	3.2276	5.1818	0.1	-1.013
29234	3.3172	5.0909	0.1	-1.1718
29235	3.2276	5.3636	0.1	-1.4154
29236	3.3172	5.2727	0.1	-1.658
29237	3.2276	5.5455	0.1	-2.787
29238	3.3172	5.4545	0.1	-3.1371
29239	3.2276	5.7273	0.1	-17.931
29240	3.3172	5.6364	0.1	-14.694
29241	3.3172	5.8182	0.1	-40.42
29242	3.2276	5.9091	0.1	-20.183
29243	3.4069	0.27273	0.1	-36.37
29244	3.4966	0.18182	0.1	-54.193
29245	3.4069	9.0909e-002	0.1	-27.294
29246	3.4069	0.45455	0.1	-13.552
29247	3.4966	0.36364	0.1	-38.66
29248	3.4069	0.63636	0.1	-3.4939
29249	3.4966	0.54545	0.1	-17.221
29250	3.4069	0.81818	0.1	-1.8974
29251	3.4966	0.72727	0.1	-4.7127
29252	3.4069	1.	0.1	-1.3325
29253	3.4966	0.90909	0.1	-2.4086
29254	3.4069	1.1818	0.1	-1.0275
29255	3.4966	1.0909	0.1	-1.6293
29256	3.4069	1.3636	0.1	-0.82569
29257	3.4966	1.2727	0.1	-1.2239
29258	3.4069	1.5455	0.1	-0.67433
29259	3.4966	1.4545	0.1	-0.96302
29260	3.4069	1.7273	0.1	-0.55152
29261	3.4966	1.6364	0.1	-0.77084
29262	3.4069	1.9091	0.1	-0.44981
29263	3.4966	1.8182	0.1	-0.61783
29264	3.4069	2.0909	0.1	-0.36913
29265	3.4966	2.	0.1	-0.49529
29266	3.4069	2.2727	0.1	-0.31143
29267	3.4966	2.1818	0.1	-0.40542
29268	3.4069	2.4545	0.1	-0.27669
29269	3.4966	2.3636	0.1	-0.34978
29270	3.4069	2.6364	0.1	-0.2605
29271	3.4966	2.5455	0.1	-0.32255
29272	3.4069	2.8182	0.1	-0.25527
29273	3.4966	2.7273	0.1	-0.31394
29274	3.4069	3.	0.1	-0.25438
29275	3.4966	2.9091	0.1	-0.31312
29276	3.4069	3.1818	0.1	-0.25527
29277	3.4966	3.0909	0.1	-0.31312
29278	3.4069	3.3636	0.1	-0.2605
29279	3.4966	3.2727	0.1	-0.31394
29280	3.4069	3.5455	0.1	-0.27669
29281	3.4966	3.4545	0.1	-0.32255
29282	3.4069	3.7273	0.1	-0.31143
29283	3.4966	3.6364	0.1	-0.34978
29284	3.4069	3.9091	0.1	-0.36913
29285	3.4966	3.8182	0.1	-0.40542
29286	3.4069	4.0909	0.1	-0.44981
29287	3.4966	4.	0.1	-0.49529
29288	3.4069	4.2727	0.1	-0.55152
29289	3.4966	4.1818	0.1	-0.61783
29290	3.4069	4.4545	0.1	-0.67433
29291	3.4966	4.3636	0.1	-0.77084
29292	3.4069	4.6364	0.1	-0.82569
29293	3.4966	4.5455	0.1	-0.96302
29294	3.4069	4.8182	0.1	-1.0275
29295	3.4966	4.7273	0.1	-1.2239
29296	3.4069	5.	0.1	-1.3325
29297	3.4966	4.9091	0.1	-1.6293
29298	3.4069	5.1818	0.1	-1.8974
29299	3.4966	5.0909	0.1	-2.4086
29300	3.4069	5.3636	0.1	-3.4939
29301	3.4966	5.2727	0.1	-4.7127
29302	3.4069	5.5455	0.1	-13.552
29303	3.4966	5.4545	0.1	-17.221
29304	3.4069	5.7273	0.1	-36.369
29305	3.4966	5.6364	0.1	-38.66
29306	3.4966	5.8182	0.1	-54.193
29307	3.4069	5.9091	0.1	-27.294
29308	3.5862	0.27273	0.1	-56.57
29309	3.6759	0.18182	0.1	-68.898
29310	3.5862	9.0909e-002	0.1	-34.984
29311	3.5862	0.45455	0.1	-42.613
29312	3.6759	0.36364	0.1	-64.326
29313	3.5862	0.63636	0.1	-21.015
29314	3.6759	0.54545	0.1	-52.233
29315	3.5862	0.81818	0.1	-6.2245
29316	3.6759	0.72727	0.1	-30.453
29317	3.5862	1.	0.1	-3.0021
29318	3.6759	0.90909	0.1	-10.274
29319	3.5862	1.1818	0.1	-1.9474
29320	3.6759	1.0909	0.1	-4.2808
29321	3.5862	1.3636	0.1	-1.4161
29322	3.6759	1.2727	0.1	-2.5493
29323	3.5862	1.5455	0.1	-1.0827
29324	3.6759	1.4545	0.1	-1.7579
29325	3.5862	1.7273	0.1	-0.84377
29326	3.6759	1.6364	0.1	-1.2928
29327	3.5862	1.9091	0.1	-0.66139
29328	3.6759	1.8182	0.1	-0.9752
29329	3.5862	2.0909	0.1	-0.52584
29330	3.6759	2.	0.1	-0.74777
29331	3.5862	2.2727	0.1	-0.43708
29332	3.6759	2.1818	0.1	-0.59029
29333	3.5862	2.4545	0.1	-0.38958
29334	3.6759	2.3636	0.1	-0.4951
29335	3.5862	2.6364	0.1	-0.37111
29336	3.6759	2.5455	0.1	-0.45468
29337	3.5862	2.8182	0.1	-0.36788
29338	3.6759	2.7273	0.1	-0.44615
29339	3.5862	3.	0.1	-0.36831
29340	3.6759	2.9091	0.1	-0.44767
29341	3.5862	3.1818	0.1	-0.36788
29342	3.6759	3.0909	0.1	-0.44767
29343	3.5862	3.3636	0.1	-0.37111
29344	3.6759	3.2727	0.1	-0.44615
29345	3.5862	3.5455	0.1	-0.38958
29346	3.6759	3.4545	0.1	-0.45468
29347	3.5862	3.7273	0.1	-0.43708
29348	3.6759	3.6364	0.1	-0.4951
29349	3.5862	3.9091	0.1	-0.52584
29350	3.6759	3.8182	0.1	-0.59029
29351	3.5862	4.0909	0.1	-0.66139
29352	3.6759	4.	0.1	-0.74777
29353	3.5862	4.2727	0.1	-0.84377
29354	3.6759	4.1818	0.1	-0.9752
29355	3.5862	4.4545	0.1	-1.0827
29356	3.6759	4.3636	0.1	-1.2928
29357	3.5862	4.6364	0.1	-1.4161
29358	3.6759	4.5455	0.1	-1.7579
29359	3.5862	4.8182	0.1	-1.9474
29360	3.6759	4.7273	0.1	-2.5493
29361	3.5862	5.	0.1	-3.0021
29362	3.6759	4.9091	0.1	-4.2808
29363	3.5862	5.1818	0.1	-6.2245
29364	3.6759	5.0909	0.1	-10.274
29365	3.5862	5.3636	0.1	-21.015
29366	3.6759	5.2727	0.1	-30.453
29367	3.5862	5.5455	0.1	-42.613
29368	3.6759	5.4545	0.1	-52.233
29369	3.5862	5.7273	0.1	-56.57
29370	3.6759	5.6364	0.1	-64.326
29371	3.6759	5.8182	0.1	-68.898
29372	3.5862	5.9091	0.1	-34.983
29373	3.7655	0.27273	0.1	-76.934
29374	3.8552	0.18182	0.1	-83.757
29375	3.7655	9.0909e-002	0.1	-42.897
29376	3.7655	0.45455	0.1	-74.325
29377	3.8552	0.36364	0.1	-88.847
29378	3.7655	0.63636	0.1	-63.315
29379	3.8552	0.54545	0.1	-89.543
29380	3.7655	0.81818	0.1	-42.325
29381	3.8552	0.72727	0.1	-81.512
29382	3.7655	1.	0.1	-17.206
29383	3.8552	0.90909	0.1	-63.674
29384	3.7655	1.1818	0.1	-6.1031
29385	3.8552	1.0909	0.1	-35.509
29386	3.7655	1.3636	0.1	-3.23
29387	3.8552	1.2727	0.1	-11.467
29388	3.7655	1.5455	0.1	-2.0788
29389	3.8552	1.4545	0.1	-4.7212
29390	3.7655	1.7273	0.1	-1.456
29391	3.8552	1.6364	0.1	-2.6777
29392	3.7655	1.9091	0.1	-1.0628
29393	3.8552	1.8182	0.1	-1.7335
29394	3.7655	2.0909	0.1	-0.80248
29395	3.8552	2.	0.1	-1.1824
29396	3.7655	2.2727	0.1	-0.63654
29397	3.8552	2.1818	0.1	-0.85807
29398	3.7655	2.4545	0.1	-0.55032
29399	3.8552	2.3636	0.1	-0.70312
29400	3.7655	2.6364	0.1	-0.52267
29401	3.8552	2.5455	0.1	-0.63886
29402	3.7655	2.8182	0.1	-0.521
29403	3.8552	2.7273	0.1	-0.62259
29404	3.7655	3.	0.1	-0.52284
29405	3.8552	2.9091	0.1	-0.62419
29406	3.7655	3.1818	0.1	-0.521
29407	3.8552	3.0909	0.1	-0.62419
29408	3.7655	3.3636	0.1	-0.52267
29409	3.8552	3.2727	0.1	-0.62259
29410	3.7655	3.5455	0.1	-0.55032
29411	3.8552	3.4545	0.1	-0.63886
29412	3.7655	3.7273	0.1	-0.63654
29413	3.8552	3.6364	0.1	-0.70312
29414	3.7655	3.9091	0.1	-0.80248
29415	3.8552	3.8182	0.1	-0.85807
29416	3.7655	4.0909	0.1	-1.0628
29417	3.8552	4.	0.1	-1.1824
29418	3.7655	4.2727	0.1	-1.456
29419	3.8552	4.1818	0.1	-1.7335
29420	3.7655	4.4545	0.1	-2.0788
29421	3.8552	4.3636	0.1	-2.6777
29422	3.7655	4.6364	0.1	-3.23
29423	3.8552	4.5455	0.1	-4.7212
29424	3.7655	4.8182	0.1	-6.1031
29425	3.8552	4.7273	0.1	-11.467
29426	3.7655	5.	0.1	-17.206
29427	3.8552	4.9091	0.1	-35.509
29428	3.7655	5.1818	0.1	-42.325
29429	3.8552	5.0909	0.1	-63.674
29430	3.7655	5.3636	0.1	-63.316
29431	3.8552	5.2727	0.1	-81.512
29432	3.7655	5.5455	0.1	-74.325
29433	3.8552	5.4545	0.1	-89.543
29434	3.7655	5.7273	0.1	-76.934
29435	3.8552	5.6364	0.1	-88.847
29436	3.8552	5.8182	0.1	-83.757
29437	3.7655	5.9091	0.1	-42.897
29438	3.9448	0.27273	0.1	-96.162
29439	4.0345	0.18182	0.1	-97.734
29440	3.9448	9.0909e-002	0.1	-50.503
29441	3.9448	0.45455	0.1	-104.78
29442	4.0345	0.36364	0.1	-110.4
29443	3.9448	0.63636	0.1	-109.27
29444	4.0345	0.54545	0.1	-125.41
29445	3.9448	0.81818	0.1	-105.81
29446	4.0345	0.72727	0.1	-137.35
29447	3.9448	1.	0.1	-90.989
29448	4.0345	0.90909	0.1	-142.86
29449	3.9448	1.1818	0.1	-60.731
29450	4.0345	1.0909	0.1	-135.4
29451	3.9448	1.3636	0.1	-21.615
29452	4.0345	1.2727	0.1	-106.92
29453	3.9448	1.5455	0.1	-6.4837
29454	4.0345	1.4545	0.1	-53.772
29455	3.9448	1.7273	0.1	-3.1614
29456	4.0345	1.6364	0.1	-11.742
29457	3.9448	1.9091	0.1	-1.8767
29458	4.0345	1.8182	0.1	-4.2488
29459	3.9448	2.0909	0.1	-1.2194
29460	4.0345	2.	0.1	-2.3057
29461	3.9448	2.2727	0.1	-0.90127
29462	4.0345	2.1818	0.1	-1.4799
29463	3.9448	2.4545	0.1	-0.77423
29464	4.0345	2.3636	0.1	-1.0333
29465	3.9448	2.6364	0.1	-0.72836
29466	4.0345	2.5455	0.1	-0.88012
29467	3.9448	2.8182	0.1	-0.71986
29468	4.0345	2.7273	0.1	-0.84786
29469	3.9448	3.	0.1	-0.72108
29470	4.0345	2.9091	0.1	-0.83638
29471	3.9448	3.1818	0.1	-0.71986
29472	4.0345	3.0909	0.1	-0.83638
29473	3.9448	3.3636	0.1	-0.72836
29474	4.0345	3.2727	0.1	-0.84786
29475	3.9448	3.5455	0.1	-0.77423
29476	4.0345	3.4545	0.1	-0.88012
29477	3.9448	3.7273	0.1	-0.90127
29478	4.0345	3.6364	0.1	-1.0333
29479	3.9448	3.9091	0.1	-1.2194
29480	4.0345	3.8182	0.1	-1.4799
29481	3.9448	4.0909	0.1	-1.8767
29482	4.0345	4.	0.1	-2.3057
29483	3.9448	4.2727	0.1	-3.1614
29484	4.0345	4.1818	0.1	-4.2488
29485	3.9448	4.4545	0.1	-6.4837
29486	4.0345	4.3636	0.1	-11.742
29487	3.9448	4.6364	0.1	-21.615
29488	4.0345	4.5455	0.1	-53.772
29489	3.9448	4.8182	0.1	-60.731
29490	4.0345	4.7273	0.1	-106.92
29491	3.9448	5.	0.1	-90.989
29492	4.0345	4.9091	0.1	-135.4
29493	3.9448	5.1818	0.1	-105.81
29494	4.0345	5.0909	0.1	-142.86
29495	3.9448	5.3636	0.1	-109.27
29496	4.0345	5.2727	0.1	-137.35
29497	3.9448	5.5455	0.1	-104.78
29498	4.0345	5.4545	0.1	-125.41
29499	3.9448	5.7273	0.1	-96.162
29500	4.0345	5.6364	0.1	-110.4
29501	4.0345	5.8182	0.1	-97.734
29502	3.9448	5.9091	0.1	-50.503
29503	4.1241	0.27273	0.1	-112.75
29504	4.2138	0.18182	0.1	-109.46
29505	4.1241	9.0909e-002	0.1	-57.029
29506	4.1241	0.45455	0.1	-132.3
29507	4.2138	0.36364	0.1	-127.18
29508	4.1241	0.63636	0.1	-156.08
29509	4.2138	0.54545	0.1	-158.88
29510	4.1241	0.81818	0.1	-178.38
29511	4.2138	0.72727	0.1	-197.46
29512	4.1241	1.	0.1	-192.5
29513	4.2138	0.90909	0.1	-237.01
29514	4.1241	1.1818	0.1	-188.48
29515	4.2138	1.0909	0.1	-266.73
29516	4.1241	1.3636	0.1	-155.57
29517	4.2138	1.2727	0.1	-272.11
29518	4.1241	1.5455	0.1	-88.207
29519	4.2138	1.4545	0.1	-237.55
29520	4.1241	1.7273	0.1	-18.106
29521	4.2138	1.6364	0.1	-153.36
29522	4.1241	1.9091	0.1	-4.9589
29523	4.2138	1.8182	0.1	-39.821
29524	4.1241	2.0909	0.1	-2.528
29525	4.2138	2.	0.1	-5.9364
29526	4.1241	2.2727	0.1	-1.5575
29527	4.2138	2.1818	0.1	-2.2126
29528	4.1241	2.4545	0.1	-1.1057
29529	4.2138	2.3636	0.1	-1.5556
29530	4.1241	2.6364	0.1	-0.98429
29531	4.2138	2.5455	0.1	-1.2388
29532	4.1241	2.8182	0.1	-0.95825
29533	4.2138	2.7273	0.1	-1.0883
29534	4.1241	3.	0.1	-0.948
29535	4.2138	2.9091	0.1	-1.0481
29536	4.1241	3.1818	0.1	-0.95825
29537	4.2138	3.0909	0.1	-1.0481
29538	4.1241	3.3636	0.1	-0.98429
29539	4.2138	3.2727	0.1	-1.0883
29540	4.1241	3.5455	0.1	-1.1057
29541	4.2138	3.4545	0.1	-1.2388
29542	4.1241	3.7273	0.1	-1.5575
29543	4.2138	3.6364	0.1	-1.5556
29544	4.1241	3.9091	0.1	-2.528
29545	4.2138	3.8182	0.1	-2.2126
29546	4.1241	4.0909	0.1	-4.9589
29547	4.2138	4.	0.1	-5.9364
29548	4.1241	4.2727	0.1	-18.106
29549	4.2138	4.1818	0.1	-39.822
29550	4.1241	4.4545	0.1	-88.207
29551	4.2138	4.3636	0.1	-153.36
29552	4.1241	4.6364	0.1	-155.57
29553	4.2138	4.5455	0.1	-237.55
29554	4.1241	4.8182	0.1	-188.48
29555	4.2138	4.7273	0.1	-272.11
29556	4.1241	5.	0.1	-192.5
29557	4.2138	4.9091	0.1	-266.73
29558	4.1241	5.1818	0.1	-178.38
29559	4.2138	5.0909	0.1	-237.01
29560	4.1241	5.3636	0.1	-156.08
29561	4.2138	5.2727	0.1	-197.46
29562	4.1241	5.5455	0.1	-132.3
29563	4.2138	5.4545	0.1	-158.88
29564	4.1241	5.7273	0.1	-112.75
29565	4.2138	5.6364	0.1	-127.18
29566	4.2138	5.8182	0.1	-109.46
29567	4.1241	5.9091	0.1	-57.029
29568	4.3034	0.27273	0.1	-125.07
29569	4.3931	0.18182	0.1	-117.3
29570	4.3034	9.0909e-002	0.1	-61.393
29571	4.3034	0.45455	0.1	-155.98
29572	4.3931	0.36364	0.1	-138.05
29573	4.3034	0.63636	0.1	-204.81
29574	4.3931	0.54545	0.1	-191.14
29575	4.3034	0.81818	0.1	-262.96
29576	4.3931	0.72727	0.1	-266.15
29577	4.3034	1.	0.1	-319.76
29578	4.3931	0.90909	0.1	-353.34
29579	4.3034	1.1818	0.1	-359.48
29580	4.3931	1.0909	0.1	-437.54
29581	4.3034	1.3636	0.1	-362.77
29582	4.3931	1.2727	0.1	-497.79
29583	4.3034	1.5455	0.1	-311.3
29584	4.3931	1.4545	0.1	-507.32
29585	4.3034	1.7273	0.1	-200.05
29586	4.3931	1.6364	0.1	-438.84
29587	4.3034	1.9091	0.1	-56.612
29588	4.3931	1.8182	0.1	-285.1
29589	4.3034	2.0909	0.1	-5.7521
29590	4.3931	2.	0.1	-93.31
29591	4.3034	2.2727	0.1	-2.0559
29592	4.3931	2.1818	0.1	-8.4425
29593	4.3034	2.4545	0.1	-1.6161
29594	4.3931	2.3636	0.1	-2.1951
29595	4.3034	2.6364	0.1	-1.3224
29596	4.3931	2.5455	0.1	-1.6288
29597	4.3034	2.8182	0.1	-1.1746
29598	4.3931	2.7273	0.1	-1.3044
29599	4.3034	3.	0.1	-1.1472
29600	4.3931	2.9091	0.1	-1.1469
29601	4.3034	3.1818	0.1	-1.1746
29602	4.3931	3.0909	0.1	-1.1469
29603	4.3034	3.3636	0.1	-1.3224
29604	4.3931	3.2727	0.1	-1.3044
29605	4.3034	3.5455	0.1	-1.6161
29606	4.3931	3.4545	0.1	-1.6288
29607	4.3034	3.7273	0.1	-2.0559
29608	4.3931	3.6364	0.1	-2.1951
29609	4.3034	3.9091	0.1	-5.7521
29610	4.3931	3.8182	0.1	-8.4425
29611	4.3034	4.0909	0.1	-56.612
29612	4.3931	4.	0.1	-93.311
29613	4.3034	4.2727	0.1	-200.05
29614	4.3931	4.1818	0.1	-285.1
29615	4.3034	4.4545	0.1	-311.31
29616	4.3931	4.3636	0.1	-438.84
29617	4.3034	4.6364	0.1	-362.77
29618	4.3931	4.5455	0.1	-507.33
29619	4.3034	4.8182	0.1	-359.48
29620	4.3931	4.7273	0.1	-497.79
29621	4.3034	5.	0.1	-319.76
29622	4.3931	4.9091	0.1	-437.54
29623	4.3034	5.1818	0.1	-262.96
29624	4.3931	5.0909	0.1	-353.34
29625	4.3034	5.3636	0.1	-204.81
29626	4.3931	5.2727	0.1	-266.15
29627	4.3034	5.5455	0.1	-155.98
29628	4.3931	5.4545	0.1	-191.14
29629	4.3034	5.7273	0.1	-125.07
29630	4.3931	5.6364	0.1	-138.05
29631	4.3931	5.8182	0.1	-117.3
29632	4.3034	5.9091	0.1	-61.393
29633	4.4828	0.27273	0.1	-132.07
29634	4.5724	0.18182	0.1	-119.5
29635	4.4828	9.0909e-002	0.1	-62.26
29636	4.4828	0.45455	0.1	-177.22
29637	4.5724	0.36364	0.1	-144.48
29638	4.4828	0.63636	0.1	-260.62
29639	4.5724	0.54545	0.1	-228.76
29640	4.4828	0.81818	0.1	-368.49
29641	4.5724	0.72727	0.1	-354.27
29642	4.4828	1.	0.1	-485.63
29643	4.5724	0.90909	0.1	-505.61
29644	4.4828	1.1818	0.1	-591.14
29645	4.5724	1.0909	0.1	-665.26
29646	4.4828	1.3636	0.1	-656.34
29647	4.5724	1.2727	0.1	-809.1
29648	4.4828	1.5455	0.1	-645.58
29649	4.5724	1.4545	0.1	-901.08
29650	4.4828	1.7273	0.1	-530.8
29651	4.5724	1.6364	0.1	-880.42
29652	4.4828	1.9091	0.1	-330.21
29653	4.5724	1.8182	0.1	-696.75
29654	4.4828	2.0909	0.1	-117.31
29655	4.5724	2.	0.1	-407.72
29656	4.4828	2.2727	0.1	-8.7371
29657	4.5724	2.1818	0.1	-154.4
29658	4.4828	2.4545	0.1	-2.0109
29659	4.5724	2.3636	0.1	-27.114
29660	4.4828	2.6364	0.1	-1.6074
29661	4.5724	2.5455	0.1	-2.7399
29662	4.4828	2.8182	0.1	-1.2895
29663	4.5724	2.7273	0.1	-2.2453
29664	4.4828	3.	0.1	-1.148
29665	4.5724	2.9091	0.1	-1.1003
29666	4.4828	3.1818	0.1	-1.2895
29667	4.5724	3.0909	0.1	-1.1003
29668	4.4828	3.3636	0.1	-1.6074
29669	4.5724	3.2727	0.1	-2.2453
29670	4.4828	3.5455	0.1	-2.0109
29671	4.5724	3.4545	0.1	-2.7399
29672	4.4828	3.7273	0.1	-8.7372
29673	4.5724	3.6364	0.1	-27.115
29674	4.4828	3.9091	0.1	-117.31
29675	4.5724	3.8182	0.1	-154.4
29676	4.4828	4.0909	0.1	-330.21
29677	4.5724	4.	0.1	-407.72
29678	4.4828	4.2727	0.1	-530.8
29679	4.5724	4.1818	0.1	-696.75
29680	4.4828	4.4545	0.1	-645.58
29681	4.5724	4.3636	0.1	-880.42
29682	4.4828	4.6364	0.1	-656.34
29683	4.5724	4.5455	0.1	-901.08
29684	4.4828	4.8182	0.1	-591.14
29685	4.5724	4.7273	0.1	-809.1
29686	4.4828	5.	0.1	-485.63
29687	4.5724	4.9091	0.1	-665.26
29688	4.4828	5.1818	0.1	-368.49
29689	4.5724	5.0909	0.1	-505.61
29690	4.4828	5.3636	0.1	-260.62
29691	4.5724	5.2727	0.1	-354.27
29692	4.4828	5.5455	0.1	-177.22
29693	4.5724	5.4545	0.1	-228.76
29694	4.4828	5.7273	0.1	-132.07
29695	4.5724	5.6364	0.1	-144.48
29696	4.5724	5.8182	0.1	-119.5
29697	4.4828	5.9091	0.1	-62.26
29698	4.6621	0.27273	0.1	-134.96
29699	4.7517	0.18182	0.1	-117.28
29700	4.6621	9.0909e-002	0.1	-57.867
29701	4.6621	0.45455	0.1	-203.95
29702	4.7517	0.36364	0.1	-158.39
29703	4.6621	0.63636	0.1	-337.33
29704	4.7517	0.54545	0.1	-293.75
29705	4.6621	0.81818	0.1	-511.68
29706	4.7517	0.72727	0.1	-487.32
29707	4.6621	1.	0.1	-708.89
29708	4.7517	0.90909	0.1	-718.51
29709	4.6621	1.1818	0.1	-908.25
29710	4.7517	1.0909	0.1	-974.11
29711	4.6621	1.3636	0.1	-1077.4
29712	4.7517	1.2727	0.1	-1239.5
29713	4.6621	1.5455	0.1	-1154.1
29714	4.7517	1.4545	0.1	-1476.2
29715	4.6621	1.7273	0.1	-1055.4
29716	4.7517	1.6364	0.1	-1605.6
29717	4.6621	1.9091	0.1	-776.49
29718	4.7517	1.8182	0.1	-1470.5
29719	4.6621	2.0909	0.1	-444.77
29720	4.7517	2.	0.1	-938.76
29721	4.6621	2.2727	0.1	-220.17
29722	4.7517	2.1818	0.1	-509.77
29723	4.6621	2.4545	0.1	-136.21
29724	4.7517	2.3636	0.1	-343.59
29725	4.6621	2.6364	0.1	-118.46
29726	4.7517	2.5455	0.1	-303.8
29727	4.6621	2.8182	0.1	-116.41
29728	4.7517	2.7273	0.1	-285.36
29729	4.6621	3.	0.1	-116.6
29730	4.7517	2.9091	0.1	-278.5
29731	4.6621	3.1818	0.1	-116.41
29732	4.7517	3.0909	0.1	-278.5
29733	4.6621	3.3636	0.1	-118.46
29734	4.7517	3.2727	0.1	-285.36
29735	4.6621	3.5455	0.1	-136.21
29736	4.7517	3.4545	0.1	-303.8
29737	4.6621	3.7273	0.1	-220.17
29738	4.7517	3.6364	0.1	-343.59
29739	4.6621	3.9091	0.1	-444.77
29740	4.7517	3.8182	0.1	-509.77
29741	4.6621	4.0909	0.1	-776.49
29742	4.7517	4.	0.1	-938.76
29743	4.6621	4.2727	0.1	-1055.4
29744	4.7517	4.1818	0.1	-1470.5
29745	4.6621	4.4545	0.1	-1154.1
29746	4.7517	4.3636	0.1	-1605.6
29747	4.6621	4.6364	0.1	-1077.4
29748	4.7517	4.5455	0.1	-1476.2
29749	4.6621	4.8182	0.1	-908.25
29750	4.7517	4.7273	0.1	-1239.5
29751	4.6621	5.	0.1	-708.89
29752	4.7517	4.9091	0.1	-974.11
29753	4.6621	5.1818	0.1	-511.68
29754	4.7517	5.0909	0.1	-718.51
29755	4.6621	5.3636	0.1	-337.33
29756	4.7517	5.2727	0.1	-487.32
29757	4.6621	5.5455	0.1	-203.95
29758	4.7517	5.4545	0.1	-293.75
29759	4.6621	5.7273	0.1	-134.96
29760	4.7517	5.6364	0.1	-158.39
29761	4.7517	5.8182	0.1	-117.28
29762	4.6621	5.9091	0.1	-57.867
29763	4.8414	0.27273	0.1	-147.72
29764	4.931	0.18182	0.1	-130.53
29765	4.8414	9.0909e-002	0.1	-50.209
29766	4.8414	0.45455	0.1	-266.2
29767	4.931	0.36364	0.1	-239.48
29768	4.8414	0.63636	0.1	-471.05
29769	4.931	0.54545	0.1	-463.57
29770	4.8414	0.81818	0.1	-726.33
29771	4.931	0.72727	0.1	-745.35
29772	4.8414	1.	0.1	-1019.2
29773	4.931	0.90909	0.1	-1072.6
29774	4.8414	1.1818	0.1	-1343.9
29775	4.931	1.0909	0.1	-1447.8
29776	4.8414	1.3636	0.1	-1678.8
29777	4.931	1.2727	0.1	-1881.4
29778	4.8414	1.5455	0.1	-1961.4
29779	4.931	1.4545	0.1	-2366.5
29780	4.8414	1.7273	0.1	-2038.8
29781	4.931	1.6364	0.1	-2924.7
29782	4.8414	1.9091	0.1	-1625.2
29783	4.931	1.8182	0.1	-3191.7
29784	4.8414	2.0909	0.1	-989.37
29785	4.931	2.	0.1	-2184.7
29786	4.8414	2.2727	0.1	-612.29
29787	4.931	2.1818	0.1	-1029.5
29788	4.8414	2.4545	0.1	-493.73
29789	4.931	2.3636	0.1	-789.13
29790	4.8414	2.6364	0.1	-457.99
29791	4.931	2.5455	0.1	-667.43
29792	4.8414	2.8182	0.1	-437.28
29793	4.931	2.7273	0.1	-608.71
29794	4.8414	3.	0.1	-430.98
29795	4.931	2.9091	0.1	-580.66
29796	4.8414	3.1818	0.1	-437.28
29797	4.931	3.0909	0.1	-580.66
29798	4.8414	3.3636	0.1	-457.99
29799	4.931	3.2727	0.1	-608.71
29800	4.8414	3.5455	0.1	-493.73
29801	4.931	3.4545	0.1	-667.43
29802	4.8414	3.7273	0.1	-612.29
29803	4.931	3.6364	0.1	-789.13
29804	4.8414	3.9091	0.1	-989.37
29805	4.931	3.8182	0.1	-1029.5
29806	4.8414	4.0909	0.1	-1625.2
29807	4.931	4.	0.1	-2184.7
29808	4.8414	4.2727	0.1	-2038.8
29809	4.931	4.1818	0.1	-3191.7
29810	4.8414	4.4545	0.1	-1961.4
29811	4.931	4.3636	0.1	-2924.7
29812	4.8414	4.6364	0.1	-1678.9
29813	4.931	4.5455	0.1	-2366.5
29814	4.8414	4.8182	0.1	-1343.9
29815	4.931	4.7273	0.1	-1881.4
29816	4.8414	5.	0.1	-1019.2
29817	4.931	4.9091	0.1	-1447.8
29818	4.8414	5.1818	0.1	-726.33
29819	4.931	5.0909	0.1	-1072.6
29820	4.8414	5.3636	0.1	-471.05
29821	4.931	5.2727	0.1	-745.35
29822	4.8414	5.5455	0.1	-266.2
29823	4.931	5.4545	0.1	-463.57
29824	4.8414	5.7273	0.1	-147.72
29825	4.931	5.6364	0.1	-239.48
29826	4.931	5.8182	0.1	-130.53
29827	4.8414	5.9091	0.1	-50.209
29828	5.0207	0.27273	0.1	-248.9
29829	5.1103	0.18182	0.1	-76.654
29830	5.0207	9.0909e-002	0.1	-63.45
29831	5.0207	0.45455	0.1	-479.
29832	5.1103	0.36364	0.1	-243.7
29833	5.0207	0.63636	0.1	-781.96
29834	5.1103	0.54545	0.1	-469.41
29835	5.0207	0.81818	0.1	-1136.2
29836	5.1103	0.72727	0.1	-733.06
29837	5.0207	1.	0.1	-1548.8
29838	5.1103	0.90909	0.1	-1040.5
29839	5.0207	1.1818	0.1	-2040.6
29840	5.1103	1.0909	0.1	-1406.9
29841	5.0207	1.3636	0.1	-2637.6
29842	5.1103	1.2727	0.1	-1858.6
29843	5.0207	1.5455	0.1	-3429.8
29844	5.1103	1.4545	0.1	-2457.2
29845	5.0207	1.7273	0.1	-4157.
29846	5.1103	1.6364	0.1	-3168.7
29847	5.0207	1.9091	0.1	-3705.1
29848	5.1103	1.8182	0.1	-4892.2
29849	5.0207	2.0909	0.1	-2089.1
29850	5.1103	2.	0.1	-3286.1
29851	5.0207	2.2727	0.1	-1165.1
29852	5.1103	2.1818	0.1	-1443.
29853	5.0207	2.4545	0.1	-946.87
29854	5.1103	2.3636	0.1	-1194.1
29855	5.0207	2.6364	0.1	-809.65
29856	5.1103	2.5455	0.1	-977.55
29857	5.0207	2.8182	0.1	-745.18
29858	5.1103	2.7273	0.1	-867.19
29859	5.0207	3.	0.1	-723.62
29860	5.1103	2.9091	0.1	-813.96
29861	5.0207	3.1818	0.1	-745.18
29862	5.1103	3.0909	0.1	-813.96
29863	5.0207	3.3636	0.1	-809.65
29864	5.1103	3.2727	0.1	-867.19
29865	5.0207	3.5455	0.1	-946.87
29866	5.1103	3.4545	0.1	-977.55
29867	5.0207	3.7273	0.1	-1165.1
29868	5.1103	3.6364	0.1	-1194.1
29869	5.0207	3.9091	0.1	-2089.1
29870	5.1103	3.8182	0.1	-1443.
29871	5.0207	4.0909	0.1	-3705.1
29872	5.1103	4.	0.1	-3286.2
29873	5.0207	4.2727	0.1	-4157.
29874	5.1103	4.1818	0.1	-4892.2
29875	5.0207	4.4545	0.1	-3429.8
29876	5.1103	4.3636	0.1	-3168.7
29877	5.0207	4.6364	0.1	-2637.6
29878	5.1103	4.5455	0.1	-2457.2
29879	5.0207	4.8182	0.1	-2040.6
29880	5.1103	4.7273	0.1	-1858.6
29881	5.0207	5.	0.1	-1548.8
29882	5.1103	4.9091	0.1	-1406.9
29883	5.0207	5.1818	0.1	-1136.2
29884	5.1103	5.0909	0.1	-1040.5
29885	5.0207	5.3636	0.1	-781.96
29886	5.1103	5.2727	0.1	-733.06
29887	5.0207	5.5455	0.1	-479.
29888	5.1103	5.4545	0.1	-469.41
29889	5.0207	5.7273	0.1	-248.9
29890	5.1103	5.6364	0.1	-243.7
29891	5.1103	5.8182	0.1	-76.654
29892	5.0207	5.9091	0.1	-63.45
29893	5.3667	3.7273	0.1	-1469.8
29894	5.2833	3.8182	0.1	-1526.9
29895	5.3667	3.9091	0.1	-2360.2
29896	5.3667	3.5455	0.1	-1227.4
29897	5.2833	3.6364	0.1	-1324.8
29898	5.3667	3.3636	0.1	-1036.4
29899	5.2833	3.4545	0.1	-1098.5
29900	5.3667	3.1818	0.1	-936.55
29901	5.2833	3.2727	0.1	-965.9
29902	5.3667	3.	0.1	-904.97
29903	5.2833	3.0909	0.1	-903.59
29904	5.3667	2.8182	0.1	-936.55
29905	5.2833	2.9091	0.1	-903.59
29906	5.3667	2.6364	0.1	-1036.4
29907	5.2833	2.7273	0.1	-965.9
29908	5.3667	2.4545	0.1	-1227.4
29909	5.2833	2.5455	0.1	-1098.5
29910	5.3667	2.2727	0.1	-1469.8
29911	5.2833	2.3636	0.1	-1324.8
29912	5.2833	2.1818	0.1	-1526.9
29913	5.3667	2.0909	0.1	-2360.2
29914	5.2	3.7273	0.1	-1577.2
29915	5.2	3.9091	0.1	-2906.4
29916	5.2	3.5455	0.1	-1253.8
29917	5.2	3.3636	0.1	-1043.3
29918	5.2	3.1818	0.1	-935.85
29919	5.2	3.	0.1	-902.14
29920	5.2	2.8182	0.1	-935.85
29921	5.2	2.6364	0.1	-1043.3
29922	5.2	2.4545	0.1	-1253.8
29923	5.2	2.2727	0.1	-1577.2
29924	5.2	2.0909	0.1	-2906.4
29925	5.3667	5.7273	0.1	-152.61
29926	5.3667	5.9091	0.1	-25.486
29927	5.3667	5.8182	5.e-002	-104.05
29928	5.3667	5.5455	0.1	-298.61
29929	5.3667	5.6364	5.e-002	-221.87
29930	5.3667	5.3636	0.1	-471.03
29931	5.3667	5.4545	5.e-002	-338.54
29932	5.3667	5.1818	0.1	-675.52
29933	5.3667	5.2727	5.e-002	-464.71
29934	5.3667	5.	0.1	-922.89
29935	5.3667	5.0909	5.e-002	-607.08
29936	5.3667	4.8182	0.1	-1233.5
29937	5.3667	4.9091	5.e-002	-775.39
29938	5.3667	4.6364	0.1	-1658.8
29939	5.3667	4.7273	5.e-002	-986.36
29940	5.3667	4.4545	0.1	-2170.2
29941	5.3667	4.5455	5.e-002	-1268.5
29942	5.3667	4.2727	0.1	-3844.4
29943	5.3667	4.3636	5.e-002	-1718.
29944	5.3667	4.0909	0.1	-3718.1
29945	5.3667	4.1818	5.e-002	-2855.8
29946	5.2833	4.	0.1	-2664.9
29947	5.3667	4.	5.e-002	-2444.2
29948	5.2	4.0909	0.1	-4528.5
29949	5.2	4.	5.e-002	-2771.3
29950	5.2	4.2727	0.1	-4479.4
29951	5.2	4.1818	5.e-002	-3177.5
29952	5.2	4.4545	0.1	-2588.2
29953	5.2	4.3636	5.e-002	-1962.4
29954	5.2	4.6364	0.1	-1969.2
29955	5.2	4.5455	5.e-002	-1474.2
29956	5.2	4.8182	0.1	-1465.
29957	5.2	4.7273	5.e-002	-1161.
29958	5.2	5.	0.1	-1095.9
29959	5.2	4.9091	5.e-002	-923.34
29960	5.2	5.1818	0.1	-802.29
29961	5.2	5.0909	5.e-002	-730.02
29962	5.2	5.3636	0.1	-560.09
29963	5.2	5.2727	5.e-002	-563.45
29964	5.2	5.5455	0.1	-356.32
29965	5.2	5.4545	5.e-002	-413.22
29966	5.2	5.7273	0.1	-184.1
29967	5.2	5.6364	5.e-002	-272.18
29968	5.2	5.9091	0.1	-32.434
29969	5.2	5.8182	5.e-002	-127.75
29970	5.3667	0.27273	0.1	-152.61
29971	5.3667	9.0909e-002	0.1	-25.486
29972	5.3667	0.18182	5.e-002	-104.05
29973	5.3667	0.45455	0.1	-298.61
29974	5.3667	0.36364	5.e-002	-221.87
29975	5.3667	0.63636	0.1	-471.03
29976	5.3667	0.54545	5.e-002	-338.54
29977	5.3667	0.81818	0.1	-675.52
29978	5.3667	0.72727	5.e-002	-464.71
29979	5.3667	1.	0.1	-922.89
29980	5.3667	0.90909	5.e-002	-607.08
29981	5.3667	1.1818	0.1	-1233.5
29982	5.3667	1.0909	5.e-002	-775.39
29983	5.3667	1.3636	0.1	-1658.8
29984	5.3667	1.2727	5.e-002	-986.36
29985	5.3667	1.5455	0.1	-2170.2
29986	5.3667	1.4545	5.e-002	-1268.5
29987	5.3667	1.7273	0.1	-3844.4
29988	5.3667	1.6364	5.e-002	-1718.
29989	5.3667	1.9091	0.1	-3718.1
29990	5.3667	1.8182	5.e-002	-2855.8
29991	5.2833	2.	0.1	-2664.9
29992	5.3667	2.	5.e-002	-2444.2
29993	5.2	1.9091	0.1	-4528.5
29994	5.2	2.	5.e-002	-2771.3
29995	5.2	1.7273	0.1	-4479.4
29996	5.2	1.8182	5.e-002	-3177.5
29997	5.2	1.5455	0.1	-2588.2
29998	5.2	1.6364	5.e-002	-1962.4
29999	5.2	1.3636	0.1	-1969.2
30000	5.2	1.4545	5.e-002	-1474.2
30001	5.2	1.1818	0.1	-1465.
30002	5.2	1.2727	5.e-002	-1161.
30003	5.2	1.	0.1	-1095.9
30004	5.2	1.0909	5.e-002	-923.34
30005	5.2	0.81818	0.1	-802.29
30006	5.2	0.90909	5.e-002	-730.02
30007	5.2	0.63636	0.1	-560.09
30008	5.2	0.72727	5.e-002	-563.45
30009	5.2	0.45455	0.1	-356.32
30010	5.2	0.54545	5.e-002	-413.22
30011	5.2	0.27273	0.1	-184.1
30012	5.2	0.36364	5.e-002	-272.18
30013	5.2	9.0909e-002	0.1	-32.434
30014	5.2	0.18182	5.e-002	-127.75
30015	5.4589	6.	0.1	-6.8129
30016	5.3667	6.	5.e-002	-32.484
30017	5.6434	6.	0.1	-20.88
30018	5.5512	6.	5.e-002	-23.809
30019	5.8279	6.	0.1	-24.751
30020	5.7356	6.	5.e-002	-62.119
30021	6.0124	6.	0.1	-25.731
30022	5.9201	6.	5.e-002	-80.754
30023	6.1969	6.	0.1	-24.406
30024	6.1046	6.	5.e-002	-89.77
30025	6.3814	6.	0.1	-21.883
30026	6.2891	6.	5.e-002	-91.975
30027	6.5658	6.	0.1	-18.975
30028	6.4736	6.	5.e-002	-89.974
30029	6.7503	6.	0.1	-16.087
30030	6.6581	6.	5.e-002	-85.567
30031	6.9348	6.	0.1	-13.44
30032	6.8426	6.	5.e-002	-80.068
30033	7.1193	6.	0.1	-11.127
30034	7.0271	6.	5.e-002	-74.361
30035	7.3038	6.	0.1	-9.1666
30036	7.2116	6.	5.e-002	-69.001
30037	7.4883	6.	0.1	-7.5426
30038	7.396	6.	5.e-002	-64.3
30039	7.6728	6.	0.1	-6.2206
30040	7.5805	6.	5.e-002	-60.401
30041	7.8573	6.	0.1	-5.1611
30042	7.765	6.	5.e-002	-57.332
30043	8.0417	6.	0.1	-4.326
30044	7.9495	6.	5.e-002	-55.057
30045	8.2262	6.	0.1	-3.6806
30046	8.134	6.	5.e-002	-53.499
30047	8.4107	6.	0.1	-3.1947
30048	8.3185	6.	5.e-002	-52.563
30049	8.5952	6.	0.1	-2.8424
30050	8.503	6.	5.e-002	-52.152
30051	8.7797	6.	0.1	-2.6019
30052	8.6875	6.	5.e-002	-52.169
30053	8.9642	6.	0.1	-2.4545
30054	8.8719	6.	5.e-002	-52.527
30055	9.1487	6.	0.1	-2.3845
30056	9.0564	6.	5.e-002	-53.149
30057	9.3332	6.	0.1	-2.3782
30058	9.2409	6.	5.e-002	-53.967
30059	9.5177	6.	0.1	-2.4243
30060	9.4254	6.	5.e-002	-54.924
30061	9.7021	6.	0.1	-2.5129
30062	9.6099	6.	5.e-002	-55.973
30063	9.8866	6.	0.1	-2.6357
30064	9.7944	6.	5.e-002	-57.075
30065	10.071	6.	0.1	-2.7855
30066	9.9789	6.	5.e-002	-58.199
30067	10.256	6.	0.1	-2.9563
30068	10.163	6.	5.e-002	-59.321
30069	10.44	6.	0.1	-3.143
30070	10.348	6.	5.e-002	-60.421
30071	10.625	6.	0.1	-3.3415
30072	10.532	6.	5.e-002	-61.484
30073	10.809	6.	0.1	-3.5482
30074	10.717	6.	5.e-002	-62.501
30075	10.994	6.	0.1	-3.7601
30076	10.901	6.	5.e-002	-63.462
30077	11.178	6.	0.1	-3.9751
30078	11.086	6.	5.e-002	-64.364
30079	11.363	6.	0.1	-4.1911
30080	11.27	6.	5.e-002	-65.202
30081	11.547	6.	0.1	-4.4067
30082	11.455	6.	5.e-002	-65.976
30083	11.732	6.	0.1	-4.6207
30084	11.639	6.	5.e-002	-66.685
30085	11.916	6.	0.1	-4.8324
30086	11.824	6.	5.e-002	-67.33
30087	12.1	6.	0.1	-5.041
30088	12.008	6.	5.e-002	-67.912
30089	12.285	6.	0.1	-5.2461
30090	12.193	6.	5.e-002	-68.432
30091	12.469	6.	0.1	-5.4475
30092	12.377	6.	5.e-002	-68.894
30093	12.654	6.	0.1	-5.6451
30094	12.562	6.	5.e-002	-69.3
30095	12.838	6.	0.1	-5.8388
30096	12.746	6.	5.e-002	-69.651
30097	13.023	6.	0.1	-6.0287
30098	12.931	6.	5.e-002	-69.951
30099	13.207	6.	0.1	-6.2149
30100	13.115	6.	5.e-002	-70.203
30101	13.392	6.	0.1	-6.3976
30102	13.3	6.	5.e-002	-70.409
30103	13.576	6.	0.1	-6.5771
30104	13.484	6.	5.e-002	-70.571
30105	13.761	6.	0.1	-6.7537
30106	13.669	6.	5.e-002	-70.692
30107	13.945	6.	0.1	-6.9276
30108	13.853	6.	5.e-002	-70.775
30109	14.13	6.	0.1	-7.0991
30110	14.038	6.	5.e-002	-70.821
30111	14.314	6.	0.1	-7.2686
30112	14.222	6.	5.e-002	-70.832
30113	14.499	6.	0.1	-7.4364
30114	14.407	6.	5.e-002	-70.81
30115	14.683	6.	0.1	-7.6027
30116	14.591	6.	5.e-002	-70.758
30117	14.868	6.	0.1	-7.768
30118	14.776	6.	5.e-002	-70.676
30119	15.052	6.	0.1	-7.9325
30120	14.96	6.	5.e-002	-70.565
30121	15.237	6.	0.1	-8.0966
30122	15.145	6.	5.e-002	-70.428
30123	15.421	6.	0.1	-8.2605
30124	15.329	6.	5.e-002	-70.265
30125	15.606	6.	0.1	-8.4247
30126	15.514	6.	5.e-002	-70.077
30127	15.79	6.	0.1	-8.5893
30128	15.698	6.	5.e-002	-69.865
30129	15.975	6.	0.1	-8.7546
30130	15.883	6.	5.e-002	-69.629
30131	16.159	6.	0.1	-8.921
30132	16.067	6.	5.e-002	-69.371
30133	16.344	6.	0.1	-9.0887
30134	16.251	6.	5.e-002	-69.09
30135	16.528	6.	0.1	-9.2578
30136	16.436	6.	5.e-002	-68.786
30137	16.713	6.	0.1	-9.4288
30138	16.62	6.	5.e-002	-68.461
30139	16.897	6.	0.1	-9.6017
30140	16.805	6.	5.e-002	-68.113
30141	17.082	6.	0.1	-9.7769
30142	16.989	6.	5.e-002	-67.742
30143	17.266	6.	0.1	-9.9544
30144	17.174	6.	5.e-002	-67.349
30145	17.451	6.	0.1	-10.134
30146	17.358	6.	5.e-002	-66.933
30147	17.635	6.	0.1	-10.317
30148	17.543	6.	5.e-002	-66.492
30149	17.82	6.	0.1	-10.503
30150	17.727	6.	5.e-002	-66.027
30151	18.004	6.	0.1	-10.691
30152	17.912	6.	5.e-002	-65.536
30153	18.189	6.	0.1	-10.883
30154	18.096	6.	5.e-002	-65.018
30155	18.373	6.	0.1	-11.077
30156	18.281	6.	5.e-002	-64.473
30157	18.558	6.	0.1	-11.275
30158	18.465	6.	5.e-002	-63.898
30159	18.742	6.	0.1	-11.475
30160	18.65	6.	5.e-002	-63.291
30161	18.927	6.	0.1	-11.679
30162	18.834	6.	5.e-002	-62.652
30163	19.111	6.	0.1	-11.885
30164	19.019	6.	5.e-002	-61.978
30165	19.296	6.	0.1	-12.094
30166	19.203	6.	5.e-002	-61.266
30167	19.48	6.	0.1	-12.305
30168	19.388	6.	5.e-002	-60.515
30169	19.665	6.	0.1	-12.518
30170	19.572	6.	5.e-002	-59.721
30171	19.849	6.	0.1	-12.732
30172	19.757	6.	5.e-002	-58.881
30173	20.033	6.	0.1	-12.947
30174	19.941	6.	5.e-002	-57.992
30175	20.218	6.	0.1	-13.163
30176	20.126	6.	5.e-002	-57.051
30177	20.402	6.	0.1	-13.378
30178	20.31	6.	5.e-002	-56.052
30179	20.587	6.	0.1	-13.591
30180	20.495	6.	5.e-002	-54.992
30181	20.771	6.	0.1	-13.802
30182	20.679	6.	5.e-002	-53.865
30183	20.956	6.	0.1	-14.009
30184	20.864	6.	5.e-002	-52.665
30185	21.14	6.	0.1	-14.211
30186	21.048	6.	5.e-002	-51.388
30187	21.325	6.	0.1	-14.405
30188	21.233	6.	5.e-002	-50.025
30189	21.509	6.	0.1	-14.588
30190	21.417	6.	5.e-002	-48.568
30191	21.694	6.	0.1	-14.76
30192	21.602	6.	5.e-002	-47.01
30193	21.878	6.	0.1	-14.915
30194	21.786	6.	5.e-002	-45.339
30195	22.063	6.	0.1	-15.05
30196	21.971	6.	5.e-002	-43.543
30197	22.247	6.	0.1	-15.16
30198	22.155	6.	5.e-002	-41.609
30199	22.432	6.	0.1	-15.237
30200	22.34	6.	5.e-002	-39.52
30201	22.616	6.	0.1	-15.272
30202	22.524	6.	5.e-002	-37.255
30203	22.801	6.	0.1	-15.254
30204	22.709	6.	5.e-002	-34.789
30205	22.985	6.	0.1	-15.163
30206	22.893	6.	5.e-002	-32.087
30207	23.17	6.	0.1	-14.971
30208	23.078	6.	5.e-002	-29.103
30209	23.354	6.	0.1	-14.615
30210	23.262	6.	5.e-002	-25.772
30211	23.539	6.	0.1	-14.041
30212	23.447	6.	5.e-002	-21.987
30213	23.723	6.	0.1	-12.534
30214	23.631	6.	5.e-002	-17.55
30215	23.908	6.	0.1	-8.6016
30216	23.816	6.	5.e-002	-11.83
30217	24.	5.9091	0.1	-20.318
30218	24.	6.	5.e-002	-4.5383
30219	24.	5.7273	0.1	-50.3
30220	24.	5.8182	5.e-002	-4.0403
30221	24.	5.5455	0.1	-74.621
30222	24.	5.6364	5.e-002	-4.6266
30223	24.	5.3636	0.1	-94.008
30224	24.	5.4545	5.e-002	-5.1362
30225	24.	5.1818	0.1	-110.31
30226	24.	5.2727	5.e-002	-5.4123
30227	24.	5.	0.1	-124.29
30228	24.	5.0909	5.e-002	-5.5377
30229	24.	4.8182	0.1	-136.38
30230	24.	4.9091	5.e-002	-5.5591
30231	24.	4.6364	0.1	-146.85
30232	24.	4.7273	5.e-002	-5.5078
30233	24.	4.4545	0.1	-155.9
30234	24.	4.5455	5.e-002	-5.4068
30235	24.	4.2727	0.1	-163.64
30236	24.	4.3636	5.e-002	-5.2741
30237	24.	4.0909	0.1	-170.2
30238	24.	4.1818	5.e-002	-5.1241
30239	24.	3.9091	0.1	-175.64
30240	24.	4.	5.e-002	-4.9695
30241	24.	3.7273	0.1	-180.02
30242	24.	3.8182	5.e-002	-4.8211
30243	24.	3.5455	0.1	-183.39
30244	24.	3.6364	5.e-002	-4.6889
30245	24.	3.3636	0.1	-185.77
30246	24.	3.4545	5.e-002	-4.5813
30247	24.	3.1818	0.1	-187.2
30248	24.	3.2727	5.e-002	-4.5053
30249	24.	3.	0.1	-187.67
30250	24.	3.0909	5.e-002	-4.466
30251	24.	2.8182	0.1	-187.2
30252	24.	2.9091	5.e-002	-4.466
30253	24.	2.6364	0.1	-185.77
30254	24.	2.7273	5.e-002	-4.5053
30255	24.	2.4545	0.1	-183.39
30256	24.	2.5455	5.e-002	-4.5813
30257	24.	2.2727	0.1	-180.02
30258	24.	2.3636	5.e-002	-4.6889
30259	24.	2.0909	0.1	-175.64
30260	24.	2.1818	5.e-002	-4.8211
30261	24.	1.9091	0.1	-170.2
30262	24.	2.	5.e-002	-4.9695
30263	24.	1.7273	0.1	-163.64
30264	24.	1.8182	5.e-002	-5.1241
30265	24.	1.5455	0.1	-155.9
30266	24.	1.6364	5.e-002	-5.2741
30267	24.	1.3636	0.1	-146.85
30268	24.	1.4545	5.e-002	-5.4068
30269	24.	1.1818	0.1	-136.38
30270	24.	1.2727	5.e-002	-5.5078
30271	24.	1.	0.1	-124.29
30272	24.	1.0909	5.e-002	-5.5591
30273	24.	0.81818	0.1	-110.31
30274	24.	0.90909	5.e-002	-5.5377
30275	24.	0.63636	0.1	-94.008
30276	24.	0.72727	5.e-002	-5.4123
30277	24.	0.45455	0.1	-74.621
30278	24.	0.54545	5.e-002	-5.1363
30279	24.	0.27273	0.1	-50.3
30280	24.	0.36364	5.e-002	-4.6266
30281	24.	9.0909e-002	0.1	-20.318
30282	24.	0.18182	5.e-002	-4.0403
30283	2.3842e-015	0.27273	0.1	1699.6
30284	7.9472e-016	9.0909e-002	0.1	-105.29
30285	1.6109e-015	0.18182	5.e-002	-89.017
30286	3.9736e-015	0.45455	0.1	2546.7
30287	3.2219e-015	0.36364	5.e-002	-52.235
30288	5.563e-015	0.63636	0.1	2974.2
30289	4.8328e-015	0.54545	5.e-002	-47.692
30290	7.1525e-015	0.81818	0.1	3238.4
30291	6.4438e-015	0.72727	5.e-002	-42.253
30292	8.7419e-015	1.	0.1	3417.1
30293	8.0547e-015	0.90909	5.e-002	-36.208
30294	1.0331e-014	1.1818	0.1	3544.7
30295	9.6657e-015	1.0909	5.e-002	-30.995
30296	1.1921e-014	1.3636	0.1	3638.4
30297	1.1277e-014	1.2727	5.e-002	-26.697
30298	1.351e-014	1.5455	0.1	3708.5
30299	1.2888e-014	1.4545	5.e-002	-23.129
30300	1.51e-014	1.7273	0.1	3761.3
30301	1.4498e-014	1.6364	5.e-002	-20.166
30302	1.6689e-014	1.9091	0.1	3801.1
30303	1.6109e-014	1.8182	5.e-002	-17.708
30304	1.8279e-014	2.0909	0.1	3830.9
30305	1.772e-014	2.	5.e-002	-15.686
30306	1.9868e-014	2.2727	0.1	3852.9
30307	1.9331e-014	2.1818	5.e-002	-14.052
30308	2.1457e-014	2.4545	0.1	3868.6
30309	2.0942e-014	2.3636	5.e-002	-12.773
30310	2.3047e-014	2.6364	0.1	3879.1
30311	2.2553e-014	2.5455	5.e-002	-11.828
30312	2.4636e-014	2.8182	0.1	3885.2
30313	2.4164e-014	2.7273	5.e-002	-11.204
30314	2.6226e-014	3.	0.1	3887.2
30315	2.5775e-014	2.9091	5.e-002	-10.894
30316	2.7815e-014	3.1818	0.1	3885.2
30317	2.7386e-014	3.0909	5.e-002	-10.894
30318	2.9405e-014	3.3636	0.1	3879.1
30319	2.8997e-014	3.2727	5.e-002	-11.204
30320	3.0994e-014	3.5455	0.1	3868.6
30321	3.0608e-014	3.4545	5.e-002	-11.828
30322	3.2583e-014	3.7273	0.1	3852.9
30323	3.2219e-014	3.6364	5.e-002	-12.773
30324	3.4173e-014	3.9091	0.1	3830.9
30325	3.383e-014	3.8182	5.e-002	-14.052
30326	3.5762e-014	4.0909	0.1	3801.1
30327	3.5441e-014	4.	5.e-002	-15.686
30328	3.7352e-014	4.2727	0.1	3761.3
30329	3.7052e-014	4.1818	5.e-002	-17.708
30330	3.8941e-014	4.4545	0.1	3708.5
30331	3.8663e-014	4.3636	5.e-002	-20.166
30332	4.0531e-014	4.6364	0.1	3638.4
30333	4.0274e-014	4.5455	5.e-002	-23.129
30334	4.212e-014	4.8182	0.1	3544.7
30335	4.1885e-014	4.7273	5.e-002	-26.697
30336	4.371e-014	5.	0.1	3417.1
30337	4.3495e-014	4.9091	5.e-002	-30.995
30338	4.5299e-014	5.1818	0.1	3238.4
30339	4.5106e-014	5.0909	5.e-002	-36.208
30340	4.6888e-014	5.3636	0.1	2974.2
30341	4.6717e-014	5.2727	5.e-002	-42.253
30342	4.8478e-014	5.5455	0.1	2546.7
30343	4.8328e-014	5.4545	5.e-002	-47.692
30344	5.0067e-014	5.7273	0.1	1699.6
30345	4.9939e-014	5.6364	5.e-002	-52.235
30346	5.1657e-014	5.9091	0.1	-105.29
30347	5.155e-014	5.8182	5.e-002	-89.017
30348	23.908	0.	0.1	-8.6016
30349	24.	0.	5.e-002	-4.5383
30350	23.723	0.	0.1	-12.534
30351	23.816	0.	5.e-002	-11.83
30352	23.539	0.	0.1	-14.041
30353	23.631	0.	5.e-002	-17.55
30354	23.354	0.	0.1	-14.615
30355	23.447	0.	5.e-002	-21.987
30356	23.17	0.	0.1	-14.971
30357	23.262	0.	5.e-002	-25.771
30358	22.985	0.	0.1	-15.163
30359	23.078	0.	5.e-002	-29.103
30360	22.801	0.	0.1	-15.254
30361	22.893	0.	5.e-002	-32.087
30362	22.616	0.	0.1	-15.272
30363	22.709	0.	5.e-002	-34.788
30364	22.432	0.	0.1	-15.237
30365	22.524	0.	5.e-002	-37.255
30366	22.247	0.	0.1	-15.159
30367	22.34	0.	5.e-002	-39.52
30368	22.063	0.	0.1	-15.05
30369	22.155	0.	5.e-002	-41.609
30370	21.878	0.	0.1	-14.915
30371	21.971	0.	5.e-002	-43.543
30372	21.694	0.	0.1	-14.76
30373	21.786	0.	5.e-002	-45.339
30374	21.509	0.	0.1	-14.588
30375	21.602	0.	5.e-002	-47.01
30376	21.325	0.	0.1	-14.404
30377	21.417	0.	5.e-002	-48.568
30378	21.14	0.	0.1	-14.211
30379	21.233	0.	5.e-002	-50.025
30380	20.956	0.	0.1	-14.009
30381	21.048	0.	5.e-002	-51.388
30382	20.771	0.	0.1	-13.802
30383	20.864	0.	5.e-002	-52.665
30384	20.587	0.	0.1	-13.591
30385	20.679	0.	5.e-002	-53.865
30386	20.402	0.	0.1	-13.378
30387	20.495	0.	5.e-002	-54.991
30388	20.218	0.	0.1	-13.163
30389	20.31	0.	5.e-002	-56.052
30390	20.033	0.	0.1	-12.947
30391	20.126	0.	5.e-002	-57.05
30392	19.849	0.	0.1	-12.732
30393	19.941	0.	5.e-002	-57.992
30394	19.665	0.	0.1	-12.518
30395	19.757	0.	5.e-002	-58.881
30396	19.48	0.	0.1	-12.305
30397	19.572	0.	5.e-002	-59.721
30398	19.296	0.	0.1	-12.094
30399	19.388	0.	5.e-002	-60.515
30400	19.111	0.	0.1	-11.885
30401	19.203	0.	5.e-002	-61.266
30402	18.927	0.	0.1	-11.679
30403	19.019	0.	5.e-002	-61.978
30404	18.742	0.	0.1	-11.475
30405	18.834	0.	5.e-002	-62.652
30406	18.558	0.	0.1	-11.275
30407	18.65	0.	5.e-002	-63.291
30408	18.373	0.	0.1	-11.077
30409	18.465	0.	5.e-002	-63.897
30410	18.189	0.	0.1	-10.883
30411	18.281	0.	5.e-002	-64.473
30412	18.004	0.	0.1	-10.691
30413	18.096	0.	5.e-002	-65.018
30414	17.82	0.	0.1	-10.503
30415	17.912	0.	5.e-002	-65.536
30416	17.635	0.	0.1	-10.317
30417	17.727	0.	5.e-002	-66.027
30418	17.451	0.	0.1	-10.134
30419	17.543	0.	5.e-002	-66.492
30420	17.266	0.	0.1	-9.9543
30421	17.358	0.	5.e-002	-66.932
30422	17.082	0.	0.1	-9.7768
30423	17.174	0.	5.e-002	-67.349
30424	16.897	0.	0.1	-9.6017
30425	16.989	0.	5.e-002	-67.742
30426	16.713	0.	0.1	-9.4287
30427	16.805	0.	5.e-002	-68.113
30428	16.528	0.	0.1	-9.2578
30429	16.62	0.	5.e-002	-68.461
30430	16.344	0.	0.1	-9.0886
30431	16.436	0.	5.e-002	-68.786
30432	16.159	0.	0.1	-8.9209
30433	16.251	0.	5.e-002	-69.09
30434	15.975	0.	0.1	-8.7546
30435	16.067	0.	5.e-002	-69.371
30436	15.79	0.	0.1	-8.5892
30437	15.883	0.	5.e-002	-69.629
30438	15.606	0.	0.1	-8.4246
30439	15.698	0.	5.e-002	-69.865
30440	15.421	0.	0.1	-8.2605
30441	15.514	0.	5.e-002	-70.077
30442	15.237	0.	0.1	-8.0966
30443	15.329	0.	5.e-002	-70.265
30444	15.052	0.	0.1	-7.9325
30445	15.145	0.	5.e-002	-70.428
30446	14.868	0.	0.1	-7.7679
30447	14.96	0.	5.e-002	-70.565
30448	14.683	0.	0.1	-7.6027
30449	14.776	0.	5.e-002	-70.675
30450	14.499	0.	0.1	-7.4363
30451	14.591	0.	5.e-002	-70.757
30452	14.314	0.	0.1	-7.2686
30453	14.407	0.	5.e-002	-70.81
30454	14.13	0.	0.1	-7.0991
30455	14.222	0.	5.e-002	-70.832
30456	13.945	0.	0.1	-6.9276
30457	14.038	0.	5.e-002	-70.82
30458	13.761	0.	0.1	-6.7537
30459	13.853	0.	5.e-002	-70.775
30460	13.576	0.	0.1	-6.5771
30461	13.669	0.	5.e-002	-70.692
30462	13.392	0.	0.1	-6.3976
30463	13.484	0.	5.e-002	-70.571
30464	13.207	0.	0.1	-6.2148
30465	13.3	0.	5.e-002	-70.409
30466	13.023	0.	0.1	-6.0286
30467	13.115	0.	5.e-002	-70.203
30468	12.838	0.	0.1	-5.8387
30469	12.931	0.	5.e-002	-69.951
30470	12.654	0.	0.1	-5.645
30471	12.746	0.	5.e-002	-69.651
30472	12.469	0.	0.1	-5.4475
30473	12.562	0.	5.e-002	-69.299
30474	12.285	0.	0.1	-5.2461
30475	12.377	0.	5.e-002	-68.894
30476	12.1	0.	0.1	-5.0409
30477	12.193	0.	5.e-002	-68.432
30478	11.916	0.	0.1	-4.8323
30479	12.008	0.	5.e-002	-67.912
30480	11.732	0.	0.1	-4.6207
30481	11.824	0.	5.e-002	-67.33
30482	11.547	0.	0.1	-4.4067
30483	11.639	0.	5.e-002	-66.685
30484	11.363	0.	0.1	-4.1911
30485	11.455	0.	5.e-002	-65.976
30486	11.178	0.	0.1	-3.9751
30487	11.27	0.	5.e-002	-65.202
30488	10.994	0.	0.1	-3.7601
30489	11.086	0.	5.e-002	-64.364
30490	10.809	0.	0.1	-3.5481
30491	10.901	0.	5.e-002	-63.462
30492	10.625	0.	0.1	-3.3415
30493	10.717	0.	5.e-002	-62.5
30494	10.44	0.	0.1	-3.143
30495	10.532	0.	5.e-002	-61.484
30496	10.256	0.	0.1	-2.9562
30497	10.348	0.	5.e-002	-60.42
30498	10.071	0.	0.1	-2.7855
30499	10.163	0.	5.e-002	-59.321
30500	9.8866	0.	0.1	-2.6357
30501	9.9789	0.	5.e-002	-58.199
30502	9.7021	0.	0.1	-2.5129
30503	9.7944	0.	5.e-002	-57.075
30504	9.5177	0.	0.1	-2.4243
30505	9.6099	0.	5.e-002	-55.972
30506	9.3332	0.	0.1	-2.3782
30507	9.4254	0.	5.e-002	-54.923
30508	9.1487	0.	0.1	-2.3844
30509	9.2409	0.	5.e-002	-53.966
30510	8.9642	0.	0.1	-2.4545
30511	9.0564	0.	5.e-002	-53.149
30512	8.7797	0.	0.1	-2.6019
30513	8.8719	0.	5.e-002	-52.527
30514	8.5952	0.	0.1	-2.8424
30515	8.6875	0.	5.e-002	-52.169
30516	8.4107	0.	0.1	-3.1947
30517	8.503	0.	5.e-002	-52.152
30518	8.2262	0.	0.1	-3.6806
30519	8.3185	0.	5.e-002	-52.563
30520	8.0417	0.	0.1	-4.326
30521	8.134	0.	5.e-002	-53.499
30522	7.8573	0.	0.1	-5.1611
30523	7.9495	0.	5.e-002	-55.057
30524	7.6728	0.	0.1	-6.2205
30525	7.765	0.	5.e-002	-57.332
30526	7.4883	0.	0.1	-7.5426
30527	7.5805	0.	5.e-002	-60.4
30528	7.3038	0.	0.1	-9.1666
30529	7.396	0.	5.e-002	-64.3
30530	7.1193	0.	0.1	-11.127
30531	7.2116	0.	5.e-002	-69.001
30532	6.9348	0.	0.1	-13.44
30533	7.0271	0.	5.e-002	-74.361
30534	6.7503	0.	0.1	-16.087
30535	6.8426	0.	5.e-002	-80.068
30536	6.5658	0.	0.1	-18.975
30537	6.6581	0.	5.e-002	-85.567
30538	6.3814	0.	0.1	-21.883
30539	6.4736	0.	5.e-002	-89.973
30540	6.1969	0.	0.1	-24.406
30541	6.2891	0.	5.e-002	-91.975
30542	6.0124	0.	0.1	-25.731
30543	6.1046	0.	5.e-002	-89.77
30544	5.8279	0.	0.1	-24.751
30545	5.9201	0.	5.e-002	-80.754
30546	5.6434	0.	0.1	-20.88
30547	5.7356	0.	5.e-002	-62.119
30548	5.4589	0.	0.1	-6.8129
30549	5.5512	0.	5.e-002	-23.809
30550	5.3667	0.	5.e-002	-32.484
30551	5.1103	-3.3383e-030	0.1	-9.14
30552	5.2	-3.3969e-030	5.e-002	-38.603
30553	4.931	-3.2212e-030	0.1	-25.702
30554	5.0207	0.	5.e-002	-29.713
30555	4.7517	-3.1041e-030	0.1	-31.022
30556	4.8414	0.	5.e-002	-77.802
30557	4.5724	-2.9869e-030	0.1	-32.999
30558	4.6621	0.	5.e-002	-103.4
30559	4.3931	-2.8698e-030	0.1	-32.219
30560	4.4828	0.	5.e-002	-118.51
30561	4.2138	-2.7527e-030	0.1	-29.93
30562	4.3034	0.	5.e-002	-126.4
30563	4.0345	-2.6355e-030	0.1	-27.088
30564	4.1241	0.	5.e-002	-130.09
30565	3.8552	-2.5184e-030	0.1	-24.196
30566	3.9448	0.	5.e-002	-131.67
30567	3.6759	-2.4013e-030	0.1	-21.56
30568	3.7655	0.	5.e-002	-132.71
30569	3.4966	-2.2841e-030	0.1	-19.347
30570	3.5862	0.	5.e-002	-134.32
30571	3.3172	-2.167e-030	0.1	-17.655
30572	3.4069	0.	5.e-002	-137.26
30573	3.1379	-2.0499e-030	0.1	-16.542
30574	3.2276	0.	5.e-002	-142.02
30575	2.9586	-1.9327e-030	0.1	-16.056
30576	3.0483	0.	5.e-002	-148.89
30577	2.7793	-1.8156e-030	0.1	-16.243
30578	2.869	0.	5.e-002	-158.06
30579	2.6	-1.6985e-030	0.1	-17.167
30580	2.6897	0.	5.e-002	-169.63
30581	2.4207	-1.5813e-030	0.1	-18.905
30582	2.5103	0.	5.e-002	-183.67
30583	2.2414	-1.4642e-030	0.1	-21.567
30584	2.331	0.	5.e-002	-200.25
30585	2.0621	-1.3471e-030	0.1	-25.296
30586	2.1517	0.	5.e-002	-219.44
30587	1.8828	-1.2299e-030	0.1	-30.283
30588	1.9724	0.	5.e-002	-241.38
30589	1.7034	-1.1128e-030	0.1	-36.788
30590	1.7931	0.	5.e-002	-266.23
30591	1.5241	-9.9565e-031	0.1	-45.171
30592	1.6138	0.	5.e-002	-294.25
30593	1.3448	-8.7851e-031	0.1	-55.969
30594	1.4345	0.	5.e-002	-325.83
30595	1.1655	-7.6138e-031	0.1	-69.943
30596	1.2552	0.	5.e-002	-361.5
30597	0.98621	-6.4424e-031	0.1	-88.523
30598	1.0759	0.	5.e-002	-402.1
30599	0.8069	-5.2711e-031	0.1	-113.7
30600	0.89655	0.	5.e-002	-448.83
30601	0.62759	-4.0997e-031	0.1	-150.98
30602	0.71724	0.	5.e-002	-504.16
30603	0.44828	-2.9284e-031	0.1	-211.4
30604	0.53793	0.	5.e-002	-571.49
30605	0.26897	-1.757e-031	0.1	-333.69
30606	0.35862	0.	5.e-002	-662.73
30607	8.9655e-002	-5.8568e-032	0.1	-888.32
30608	0.17931	0.	5.e-002	-844.46
30609	0.	0.	5.e-002	-1120.4
30610	8.9655e-002	6.	0.1	-888.32
30611	5.2451e-014	6.	5.e-002	-1120.4
30612	0.26897	6.	0.1	-333.69
30613	0.17931	6.	5.e-002	-844.46
30614	0.44828	6.	0.1	-211.4
30615	0.35862	6.	5.e-002	-662.73
30616	0.62759	6.	0.1	-150.98
30617	0.53793	6.	5.e-002	-571.49
30618	0.8069	6.	0.1	-113.7
30619	0.71724	6.	5.e-002	-504.16
30620	0.98621	6.	0.1	-88.523
30621	0.89655	6.	5.e-002	-448.83
30622	1.1655	6.	0.1	-69.942
30623	1.0759	6.	5.e-002	-402.1
30624	1.3448	6.	0.1	-55.969
30625	1.2552	6.	5.e-002	-361.5
30626	1.5241	6.	0.1	-45.171
30627	1.4345	6.	5.e-002	-325.83
30628	1.7034	6.	0.1	-36.788
30629	1.6138	6.	5.e-002	-294.25
30630	1.8828	6.	0.1	-30.283
30631	1.7931	6.	5.e-002	-266.23
30632	2.0621	6.	0.1	-25.296
30633	1.9724	6.	5.e-002	-241.38
30634	2.2414	6.	0.1	-21.567
30635	2.1517	6.	5.e-002	-219.44
30636	2.4207	6.	0.1	-18.905
30637	2.331	6.	5.e-002	-200.25
30638	2.6	6.	0.1	-17.166
30639	2.5103	6.	5.e-002	-183.67
30640	2.7793	6.	0.1	-16.243
30641	2.6897	6.	5.e-002	-169.63
30642	2.9586	6.	0.1	-16.056
30643	2.869	6.	5.e-002	-158.06
30644	3.1379	6.	0.1	-16.542
30645	3.0483	6.	5.e-002	-148.89
30646	3.3172	6.	0.1	-17.655
30647	3.2276	6.	5.e-002	-142.02
30648	3.4966	6.	0.1	-19.347
30649	3.4069	6.	5.e-002	-137.26
30650	3.6759	6.	0.1	-21.56
30651	3.5862	6.	5.e-002	-134.32
30652	3.8552	6.	0.1	-24.196
30653	3.7655	6.	5.e-002	-132.71
30654	4.0345	6.	0.1	-27.088
30655	3.9448	6.	5.e-002	-131.67
30656	4.2138	6.	0.1	-29.93
30657	4.1241	6.	5.e-002	-130.09
30658	4.3931	6.	0.1	-32.219
30659	4.3034	6.	5.e-002	-126.4
30660	4.5724	6.	0.1	-32.999
30661	4.4828	6.	5.e-002	-118.51
30662	4.7517	6.	0.1	-31.022
30663	4.6621	6.	5.e-002	-103.4
30664	4.931	6.	0.1	-25.702
30665	4.8414	6.	5.e-002	-77.802
30666	5.1103	6.	0.1	-9.14
30667	5.0207	6.	5.e-002	-29.713
30668	5.2	6.	5.e-002	-38.603
30669	4.931	6.	0.	-1035.
30670	5.1103	6.	0.	-369.06
30671	4.7517	6.	0.	-1680.1
30672	4.5724	6.	0.	-2263.6
30673	4.3931	6.	0.	-2790.8
30674	4.2138	6.	0.	-3261.3
30675	4.0345	6.	0.	-3676.
30676	3.8552	6.	0.	-4038.
30677	3.6759	6.	0.	-4351.9
30678	3.4966	6.	0.	-4623.1
30679	3.3172	6.	0.	-4857.3
30680	3.1379	6.	0.	-5059.7
30681	2.9586	6.	0.	-5235.2
30682	2.7793	6.	0.	-5387.7
30683	2.6	6.	0.	-5520.5
30684	2.4207	6.	0.	-5636.
30685	2.2414	6.	0.	-5736.
30686	2.0621	6.	0.	-5821.
30687	1.8828	6.	0.	-5890.9
30688	1.7034	6.	0.	-5944.3
30689	1.5241	6.	0.	-5978.4
30690	1.3448	6.	0.	-5988.3
30691	1.1655	6.	0.	-5966.
30692	0.98621	6.	0.	-5898.1
30693	0.8069	6.	0.	-5762.
30694	0.62759	6.	0.	-5513.
30695	0.44828	6.	0.	-5065.9
30696	0.26897	6.	0.	-4162.6
30697	8.9655e-002	6.	0.	-1971.
30698	5.2	5.9091	0.	-286.24
30699	5.1657e-014	5.9091	0.	-1485.3
30700	0.26897	-1.757e-031	0.	-4162.6
30701	8.9655e-002	-5.8568e-032	0.	-1971.
30702	0.44828	-2.9284e-031	0.	-5065.9
30703	0.62759	-4.0997e-031	0.	-5513.
30704	0.8069	-5.2711e-031	0.	-5762.
30705	0.98621	-6.4424e-031	0.	-5898.1
30706	1.1655	-7.6138e-031	0.	-5966.
30707	1.3448	-8.7851e-031	0.	-5988.3
30708	1.5241	-9.9565e-031	0.	-5978.4
30709	1.7034	-1.1128e-030	0.	-5944.3
30710	1.8828	-1.2299e-030	0.	-5890.9
30711	2.0621	-1.3471e-030	0.	-5821.
30712	2.2414	-1.4642e-030	0.	-5736.
30713	2.4207	-1.5813e-030	0.	-5636.
30714	2.6	-1.6985e-030	0.	-5520.5
30715	2.7793	-1.8156e-030	0.	-5387.7
30716	2.9586	-1.9327e-030	0.	-5235.2
30717	3.1379	-2.0499e-030	0.	-5059.7
30718	3.3172	-2.167e-030	0.	-4857.3
30719	3.4966	-2.2841e-030	0.	-4623.1
30720	3.6759	-2.4013e-030	0.	-4351.9
30721	3.8552	-2.5184e-030	0.	-4038.
30722	4.0345	-2.6355e-030	0.	-3676.
30723	4.2138	-2.7527e-030	0.	-3261.3
30724	4.3931	-2.8698e-030	0.	-2790.8
30725	4.5724	-2.9869e-030	0.	-2263.6
30726	4.7517	-3.1041e-030	0.	-1680.1
30727	4.931	-3.2212e-030	0.	-1035.
30728	5.1103	-3.3383e-030	0.	-369.06
30729	5.2	9.0909e-002	0.	-286.24
30730	7.9472e-016	9.0909e-002	0.	-1485.3
30731	5.6434	0.	0.	-870.47
30732	5.4589	0.	0.	-314.32
30733	5.8279	0.	0.	-1402.5
30734	6.0124	0.	0.	-1871.8
30735	6.1969	0.	0.	-2280.8
30736	6.3814	0.	0.	-2628.8
30737	6.5658	0.	0.	-2917.6
30738	6.7503	0.	0.	-3151.
30739	6.9348	0.	0.	-3334.9
30740	7.1193	0.	0.	-3475.5
30741	7.3038	0.	0.	-3579.3
30742	7.4883	0.	0.	-3652.3
30743	7.6728	0.	0.	-3699.9
30744	7.8573	0.	0.	-3726.7
30745	8.0417	0.	0.	-3736.8
30746	8.2262	0.	0.	-3733.3
30747	8.4107	0.	0.	-3719.1
30748	8.5952	0.	0.	-3696.3
30749	8.7797	0.	0.	-3666.8
30750	8.9642	0.	0.	-3632.
30751	9.1487	0.	0.	-3593.
30752	9.3332	0.	0.	-3550.9
30753	9.5177	0.	0.	-3506.3
30754	9.7021	0.	0.	-3459.8
30755	9.8866	0.	0.	-3411.9
30756	10.071	0.	0.	-3363.
30757	10.256	0.	0.	-3313.3
30758	10.44	0.	0.	-3263.1
30759	10.625	0.	0.	-3212.5
30760	10.809	0.	0.	-3161.7
30761	10.994	0.	0.	-3110.9
30762	11.178	0.	0.	-3060.
30763	11.363	0.	0.	-3009.1
30764	11.547	0.	0.	-2958.3
30765	11.732	0.	0.	-2907.7
30766	11.916	0.	0.	-2857.2
30767	12.1	0.	0.	-2806.9
30768	12.285	0.	0.	-2756.8
30769	12.469	0.	0.	-2706.9
30770	12.654	0.	0.	-2657.2
30771	12.838	0.	0.	-2607.7
30772	13.023	0.	0.	-2558.4
30773	13.207	0.	0.	-2509.4
30774	13.392	0.	0.	-2460.6
30775	13.576	0.	0.	-2412.
30776	13.761	0.	0.	-2363.6
30777	13.945	0.	0.	-2315.5
30778	14.13	0.	0.	-2267.5
30779	14.314	0.	0.	-2219.8
30780	14.499	0.	0.	-2172.4
30781	14.683	0.	0.	-2125.1
30782	14.868	0.	0.	-2078.
30783	15.052	0.	0.	-2031.2
30784	15.237	0.	0.	-1984.6
30785	15.421	0.	0.	-1938.1
30786	15.606	0.	0.	-1891.9
30787	15.79	0.	0.	-1845.9
30788	15.975	0.	0.	-1800.1
30789	16.159	0.	0.	-1754.6
30790	16.344	0.	0.	-1709.2
30791	16.528	0.	0.	-1664.
30792	16.713	0.	0.	-1619.
30793	16.897	0.	0.	-1574.2
30794	17.082	0.	0.	-1529.6
30795	17.266	0.	0.	-1485.3
30796	17.451	0.	0.	-1441.1
30797	17.635	0.	0.	-1397.1
30798	17.82	0.	0.	-1353.3
30799	18.004	0.	0.	-1309.6
30800	18.189	0.	0.	-1266.2
30801	18.373	0.	0.	-1222.9
30802	18.558	0.	0.	-1179.9
30803	18.742	0.	0.	-1137.
30804	18.927	0.	0.	-1094.3
30805	19.111	0.	0.	-1051.7
30806	19.296	0.	0.	-1009.4
30807	19.48	0.	0.	-967.2
30808	19.665	0.	0.	-925.18
30809	19.849	0.	0.	-883.33
30810	20.033	0.	0.	-841.63
30811	20.218	0.	0.	-800.11
30812	20.402	0.	0.	-758.74
30813	20.587	0.	0.	-717.52
30814	20.771	0.	0.	-676.46
30815	20.956	0.	0.	-635.56
30816	21.14	0.	0.	-594.81
30817	21.325	0.	0.	-554.22
30818	21.509	0.	0.	-513.78
30819	21.694	0.	0.	-473.5
30820	21.878	0.	0.	-433.39
30821	22.063	0.	0.	-393.47
30822	22.247	0.	0.	-353.73
30823	22.432	0.	0.	-314.21
30824	22.616	0.	0.	-274.94
30825	22.801	0.	0.	-235.97
30826	22.985	0.	0.	-197.36
30827	23.17	0.	0.	-159.22
30828	23.354	0.	0.	-121.72
30829	23.539	0.	0.	-85.166
30830	23.723	0.	0.	-50.222
30831	23.908	0.	0.	-18.629
30832	5.3667	9.0909e-002	0.	-238.53
30833	24.	9.0909e-002	0.	-5.8875
30834	5.0067e-014	5.7273	0.	-3614.2
30835	4.8478e-014	5.5455	0.	-5227.
30836	4.6888e-014	5.3636	0.	-6063.5
30837	4.5299e-014	5.1818	0.	-6590.3
30838	4.371e-014	5.	0.	-6948.2
30839	4.212e-014	4.8182	0.	-7204.2
30840	4.0531e-014	4.6364	0.	-7392.6
30841	3.8941e-014	4.4545	0.	-7533.4
30842	3.7352e-014	4.2727	0.	-7639.5
30843	3.5762e-014	4.0909	0.	-7719.6
30844	3.4173e-014	3.9091	0.	-7779.5
30845	3.2583e-014	3.7273	0.	-7823.6
30846	3.0994e-014	3.5455	0.	-7855.1
30847	2.9405e-014	3.3636	0.	-7876.2
30848	2.7815e-014	3.1818	0.	-7888.2
30849	2.6226e-014	3.	0.	-7892.2
30850	2.4636e-014	2.8182	0.	-7888.2
30851	2.3047e-014	2.6364	0.	-7876.2
30852	2.1457e-014	2.4545	0.	-7855.1
30853	1.9868e-014	2.2727	0.	-7823.6
30854	1.8279e-014	2.0909	0.	-7779.5
30855	1.6689e-014	1.9091	0.	-7719.6
30856	1.51e-014	1.7273	0.	-7639.5
30857	1.351e-014	1.5455	0.	-7533.4
30858	1.1921e-014	1.3636	0.	-7392.6
30859	1.0331e-014	1.1818	0.	-7204.2
30860	8.7419e-015	1.	0.	-6948.2
30861	7.1525e-015	0.81818	0.	-6590.3
30862	5.563e-015	0.63636	0.	-6063.5
30863	3.9736e-015	0.45455	0.	-5227.
30864	2.3842e-015	0.27273	0.	-3614.2
30865	24.	0.27273	0.	-6.9324
30866	24.	0.45455	0.	-7.1894
30867	24.	0.63636	0.	-7.2721
30868	24.	0.81818	0.	-7.2822
30869	24.	1.	0.	-7.2522
30870	24.	1.1818	0.	-7.2075
30871	24.	1.3636	0.	-7.1564
30872	24.	1.5455	0.	-7.1048
30873	24.	1.7273	0.	-7.0557
30874	24.	1.9091	0.	-7.0109
30875	24.	2.0909	0.	-6.9718
30876	24.	2.2727	0.	-6.9391
30877	24.	2.4545	0.	-6.9133
30878	24.	2.6364	0.	-6.8947
30879	24.	2.8182	0.	-6.8834
30880	24.	3.	0.	-6.8797
30881	24.	3.1818	0.	-6.8834
30882	24.	3.3636	0.	-6.8947
30883	24.	3.5455	0.	-6.9133
30884	24.	3.7273	0.	-6.9391
30885	24.	3.9091	0.	-6.9719
30886	24.	4.0909	0.	-7.0109
30887	24.	4.2727	0.	-7.0557
30888	24.	4.4545	0.	-7.1048
30889	24.	4.6364	0.	-7.1564
30890	24.	4.8182	0.	-7.2075
30891	24.	5.	0.	-7.2522
30892	24.	5.1818	0.	-7.2822
30893	24.	5.3636	0.	-7.2721
30894	24.	5.5455	0.	-7.1894
30895	24.	5.7273	0.	-6.9324
30896	24.	5.9091	0.	-5.8875
30897	23.908	6.	0.	-18.629
30898	23.723	6.	0.	-50.222
30899	23.539	6.	0.	-85.166
30900	23.354	6.	0.	-121.72
30901	23.17	6.	0.	-159.22
30902	22.985	6.	0.	-197.36
30903	22.801	6.	0.	-235.97
30904	22.616	6.	0.	-274.94
30905	22.432	6.	0.	-314.21
30906	22.247	6.	0.	-353.73
30907	22.063	6.	0.	-393.47
30908	21.878	6.	0.	-433.39
30909	21.694	6.	0.	-473.5
30910	21.509	6.	0.	-513.78
30911	21.325	6.	0.	-554.22
30912	21.14	6.	0.	-594.81
30913	20.956	6.	0.	-635.56
30914	20.771	6.	0.	-676.46
30915	20.587	6.	0.	-717.52
30916	20.402	6.	0.	-758.74
30917	20.218	6.	0.	-800.11
30918	20.033	6.	0.	-841.63
30919	19.849	6.	0.	-883.33
30920	19.665	6.	0.	-925.18
30921	19.48	6.	0.	-967.2
30922	19.296	6.	0.	-1009.4
30923	19.111	6.	0.	-1051.7
30924	18.927	6.	0.	-1094.3
30925	18.742	6.	0.	-1137.
30926	18.558	6.	0.	-1179.9
30927	18.373	6.	0.	-1222.9
30928	18.189	6.	0.	-1266.2
30929	18.004	6.	0.	-1309.6
30930	17.82	6.	0.	-1353.3
30931	17.635	6.	0.	-1397.1
30932	17.451	6.	0.	-1441.1
30933	17.266	6.	0.	-1485.3
30934	17.082	6.	0.	-1529.6
30935	16.897	6.	0.	-1574.2
30936	16.713	6.	0.	-1619.
30937	16.528	6.	0.	-1664.
30938	16.344	6.	0.	-1709.2
30939	16.159	6.	0.	-1754.6
30940	15.975	6.	0.	-1800.1
30941	15.79	6.	0.	-1845.9
30942	15.606	6.	0.	-1891.9
30943	15.421	6.	0.	-1938.1
30944	15.237	6.	0.	-1984.6
30945	15.052	6.	0.	-2031.2
30946	14.868	6.	0.	-2078.
30947	14.683	6.	0.	-2125.1
30948	14.499	6.	0.	-2172.4
30949	14.314	6.	0.	-2219.8
30950	14.13	6.	0.	-2267.5
30951	13.945	6.	0.	-2315.5
30952	13.761	6.	0.	-2363.6
30953	13.576	6.	0.	-2412.
30954	13.392	6.	0.	-2460.6
30955	13.207	6.	0.	-2509.4
30956	13.023	6.	0.	-2558.4
30957	12.838	6.	0.	-2607.7
30958	12.654	6.	0.	-2657.2
30959	12.469	6.	0.	-2706.9
30960	12.285	6.	0.	-2756.8
30961	12.1	6.	0.	-2806.9
30962	11.916	6.	0.	-2857.2
30963	11.732	6.	0.	-2907.7
30964	11.547	6.	0.	-2958.3
30965	11.363	6.	0.	-3009.1
30966	11.178	6.	0.	-3060.
30967	10.994	6.	0.	-3110.9
30968	10.809	6.	0.	-3161.7
30969	10.625	6.	0.	-3212.5
30970	10.44	6.	0.	-3263.1
30971	10.256	6.	0.	-3313.3
30972	10.071	6.	0.	-3363.
30973	9.8866	6.	0.	-3411.9
30974	9.7021	6.	0.	-3459.8
30975	9.5177	6.	0.	-3506.3
30976	9.3332	6.	0.	-3550.9
30977	9.1487	6.	0.	-3593.
30978	8.9642	6.	0.	-3632.
30979	8.7797	6.	0.	-3666.8
30980	8.5952	6.	0.	-3696.3
30981	8.4107	6.	0.	-3719.1
30982	8.2262	6.	0.	-3733.3
30983	8.0417	6.	0.	-3736.8
30984	7.8573	6.	0.	-3726.7
30985	7.6728	6.	0.	-3699.9
30986	7.4883	6.	0.	-3652.3
30987	7.3038	6.	0.	-3579.3
30988	7.1193	6.	0.	-3475.5
30989	6.9348	6.	0.	-3334.9
30990	6.7503	6.	0.	-3151.
30991	6.5658	6.	0.	-2917.6
30992	6.3814	6.	0.	-2628.8
30993	6.1969	6.	0.	-2280.8
30994	6.0124	6.	0.	-1871.8
30995	5.8279	6.	0.	-1402.5
30996	5.6434	6.	0.	-870.47
30997	5.4589	6.	0.	-314.32
30998	5.3667	5.9091	0.	-238.53
30999	5.2	1.7273	0.	-5024.6
31000	5.2	1.9091	0.	-13545
31001	5.2	1.5455	0.	-3697.7
31002	5.2	1.3636	0.	-3022.5
31003	5.2	1.1818	0.	-2514.1
31004	5.2	1.	0.	-2110.4
31005	5.2	0.81818	0.	-1757.2
31006	5.2	0.63636	0.	-1427.
31007	5.2	0.45455	0.	-1096.1
31008	5.2	0.27273	0.	-729.79
31009	5.2833	2.	0.	-21622
31010	5.3667	0.27273	0.	-605.11
31011	5.3667	0.45455	0.	-915.5
31012	5.3667	0.63636	0.	-1206.8
31013	5.3667	0.81818	0.	-1510.7
31014	5.3667	1.	0.	-1850.7
31015	5.3667	1.1818	0.	-2256.2
31016	5.3667	1.3636	0.	-2784.
31017	5.3667	1.5455	0.	-3506.6
31018	5.3667	1.7273	0.	-4928.7
31019	5.3667	1.9091	0.	-13539
31020	5.2	4.2727	0.	-5024.6
31021	5.2	4.0909	0.	-13545
31022	5.2	4.4545	0.	-3697.7
31023	5.2	4.6364	0.	-3022.5
31024	5.2	4.8182	0.	-2514.1
31025	5.2	5.	0.	-2110.4
31026	5.2	5.1818	0.	-1757.2
31027	5.2	5.3636	0.	-1427.
31028	5.2	5.5455	0.	-1096.1
31029	5.2	5.7273	0.	-729.79
31030	5.2833	4.	0.	-21622
31031	5.3667	5.7273	0.	-605.11
31032	5.3667	5.5455	0.	-915.5
31033	5.3667	5.3636	0.	-1206.8
31034	5.3667	5.1818	0.	-1510.7
31035	5.3667	5.	0.	-1850.7
31036	5.3667	4.8182	0.	-2256.2
31037	5.3667	4.6364	0.	-2784.
31038	5.3667	4.4545	0.	-3506.6
31039	5.3667	4.2727	0.	-4928.7
31040	5.3667	4.0909	0.	-13539
