Node Number	X Location (in)	Y Location (in)	Z Location (in)	Maximum Principal Stress (psi)
1	14.7	2.1818	0.	1031.6
2	14.7	2.3636	0.	791.39
3	14.7	2.5455	0.	665.6
4	14.7	2.7273	0.	599.4
5	14.7	2.9091	0.	569.84
6	14.7	3.0909	0.	569.84
7	14.7	3.2727	0.	599.4
8	14.7	3.4545	0.	665.6
9	14.7	3.6364	0.	791.39
10	14.7	3.8182	0.	1031.6
11	14.867	2.1818	0.	765.03
12	14.867	2.3636	0.	707.72
13	14.867	2.5455	0.	610.01
14	14.867	2.7273	0.	556.21
15	14.867	2.9091	0.	530.98
16	14.867	3.0909	0.	530.98
17	14.867	3.2727	0.	556.21
18	14.867	3.4545	0.	610.01
19	14.867	3.6364	0.	707.72
20	14.867	3.8182	0.	765.03
21	14.516	5.8182	0.	73.557
22	14.516	5.6364	0.	169.66
23	14.516	5.4545	0.	313.98
24	14.516	5.2727	0.	485.97
25	14.516	5.0909	0.	685.55
26	14.516	4.9091	0.	918.91
27	14.516	4.7273	0.	1199.6
28	14.516	4.5455	0.	1542.1
29	14.516	4.3636	0.	2013.2
30	14.516	4.1818	0.	2367.1
31	14.516	4.	0.	1769.4
32	14.516	3.8182	0.	892.4
33	14.516	3.6364	0.	701.33
34	14.516	3.4545	0.	598.62
35	14.516	3.2727	0.	554.92
36	14.516	3.0909	0.	534.01
37	14.516	2.9091	0.	534.01
38	14.516	2.7273	0.	554.92
39	14.516	2.5455	0.	598.62
40	14.516	2.3636	0.	701.33
41	14.516	2.1818	0.	892.4
42	14.516	2.	0.	1769.4
43	14.516	1.8182	0.	2367.1
44	14.516	1.6364	0.	2013.2
45	14.516	1.4545	0.	1542.1
46	14.516	1.2727	0.	1199.6
47	14.516	1.0909	0.	918.91
48	14.516	0.90909	0.	685.55
49	14.516	0.72727	0.	485.97
50	14.516	0.54545	0.	313.98
51	14.516	0.36364	0.	169.66
52	14.516	0.18182	0.	73.557
53	14.333	5.8182	0.	54.136
54	14.333	5.6364	0.	108.95
55	14.333	5.4545	0.	210.94
56	14.333	5.2727	0.	342.83
57	14.333	5.0909	0.	497.54
58	14.333	4.9091	0.	672.48
59	14.333	4.7273	0.	866.46
60	14.333	4.5455	0.	1062.8
61	14.333	4.3636	0.	1228.9
62	14.333	4.1818	0.	1237.6
63	14.333	4.	0.	931.14
64	14.333	3.8182	0.	642.99
65	14.333	3.6364	0.	512.75
66	14.333	3.4545	0.	472.68
67	14.333	3.2727	0.	452.22
68	14.333	3.0909	0.	444.02
69	14.333	2.9091	0.	444.02
70	14.333	2.7273	0.	452.22
71	14.333	2.5455	0.	472.68
72	14.333	2.3636	0.	512.75
73	14.333	2.1818	0.	642.99
74	14.333	2.	0.	931.14
75	14.333	1.8182	0.	1237.6
76	14.333	1.6364	0.	1228.9
77	14.333	1.4545	0.	1062.8
78	14.333	1.2727	0.	866.46
79	14.333	1.0909	0.	672.48
80	14.333	0.90909	0.	497.54
81	14.333	0.72727	0.	342.83
82	14.333	0.54545	0.	210.94
83	14.333	0.36364	0.	108.95
84	14.333	0.18182	0.	54.136
85	14.149	5.8182	0.	53.944
86	14.149	5.6364	0.	101.55
87	14.149	5.4545	0.	179.03
88	14.149	5.2727	0.	280.01
89	14.149	5.0909	0.	398.09
90	14.149	4.9091	0.	526.5
91	14.149	4.7273	0.	654.69
92	14.149	4.5455	0.	764.36
93	14.149	4.3636	0.	814.25
94	14.149	4.1818	0.	759.6
95	14.149	4.	0.	614.8
96	14.149	3.8182	0.	464.14
97	14.149	3.6364	0.	381.86
98	14.149	3.4545	0.	352.54
99	14.149	3.2727	0.	343.18
100	14.149	3.0909	0.	340.7
101	14.149	2.9091	0.	340.7
102	14.149	2.7273	0.	343.18
103	14.149	2.5455	0.	352.54
104	14.149	2.3636	0.	381.86
105	14.149	2.1818	0.	464.14
106	14.149	2.	0.	614.8
107	14.149	1.8182	0.	759.61
108	14.149	1.6364	0.	814.25
109	14.149	1.4545	0.	764.36
110	14.149	1.2727	0.	654.69
111	14.149	1.0909	0.	526.5
112	14.149	0.90909	0.	398.09
113	14.149	0.72727	0.	280.01
114	14.149	0.54545	0.	179.03
115	14.149	0.36364	0.	101.55
116	14.149	0.18182	0.	53.944
117	13.965	5.8182	0.	54.351
118	13.965	5.6364	0.	102.23
119	13.965	5.4545	0.	165.73
120	13.965	5.2727	0.	243.21
121	13.965	5.0909	0.	330.52
122	13.965	4.9091	0.	420.53
123	13.965	4.7273	0.	502.33
124	13.965	4.5455	0.	559.88
125	13.965	4.3636	0.	572.72
126	13.965	4.1818	0.	526.62
127	13.965	4.	0.	439.15
128	13.965	3.8182	0.	349.6
129	13.965	3.6364	0.	289.24
130	13.965	3.4545	0.	261.59
131	13.965	3.2727	0.	252.38
132	13.965	3.0909	0.	250.13
133	13.965	2.9091	0.	250.13
134	13.965	2.7273	0.	252.38
135	13.965	2.5455	0.	261.59
136	13.965	2.3636	0.	289.24
137	13.965	2.1818	0.	349.6
138	13.965	2.	0.	439.15
139	13.965	1.8182	0.	526.62
140	13.965	1.6364	0.	572.72
141	13.965	1.4545	0.	559.88
142	13.965	1.2727	0.	502.33
143	13.965	1.0909	0.	420.53
144	13.965	0.90909	0.	330.52
145	13.965	0.72727	0.	243.21
146	13.965	0.54545	0.	165.73
147	13.965	0.36364	0.	102.23
148	13.965	0.18182	0.	54.351
149	13.781	5.8182	0.	53.023
150	13.781	5.6364	0.	101.76
151	13.781	5.4545	0.	156.41
152	13.781	5.2727	0.	216.99
153	13.781	5.0909	0.	280.93
154	13.781	4.9091	0.	342.51
155	13.781	4.7273	0.	393.28
156	13.781	4.5455	0.	422.59
157	13.781	4.3636	0.	420.47
158	13.781	4.1818	0.	385.08
159	13.781	4.	0.	327.13
160	13.781	3.8182	0.	267.16
161	13.781	3.6364	0.	222.1
162	13.781	3.4545	0.	196.22
163	13.781	3.2727	0.	184.64
164	13.781	3.0909	0.	180.73
165	13.781	2.9091	0.	180.73
166	13.781	2.7273	0.	184.64
167	13.781	2.5455	0.	196.22
168	13.781	2.3636	0.	222.1
169	13.781	2.1818	0.	267.16
170	13.781	2.	0.	327.13
171	13.781	1.8182	0.	385.08
172	13.781	1.6364	0.	420.47
173	13.781	1.4545	0.	422.59
174	13.781	1.2727	0.	393.28
175	13.781	1.0909	0.	342.51
176	13.781	0.90909	0.	280.93
177	13.781	0.72727	0.	216.99
178	13.781	0.54545	0.	156.41
179	13.781	0.36364	0.	101.76
180	13.781	0.18182	0.	53.024
181	13.597	5.8182	0.	50.419
182	13.597	5.6364	0.	98.736
183	13.597	5.4545	0.	146.84
184	13.597	5.2727	0.	195.26
185	13.597	5.0909	0.	242.42
186	13.597	4.9091	0.	284.34
187	13.597	4.7273	0.	315.32
188	13.597	4.5455	0.	329.19
189	13.597	4.3636	0.	321.68
190	13.597	4.1818	0.	293.5
191	13.597	4.	0.	252.05
192	13.597	3.8182	0.	208.65
193	13.597	3.6364	0.	173.03
194	13.597	3.4545	0.	149.35
195	13.597	3.2727	0.	136.42
196	13.597	3.0909	0.	131.07
197	13.597	2.9091	0.	131.07
198	13.597	2.7273	0.	136.42
199	13.597	2.5455	0.	149.35
200	13.597	2.3636	0.	173.04
201	13.597	2.1818	0.	208.65
202	13.597	2.	0.	252.05
203	13.597	1.8182	0.	293.5
204	13.597	1.6364	0.	321.68
205	13.597	1.4545	0.	329.19
206	13.597	1.2727	0.	315.32
207	13.597	1.0909	0.	284.34
208	13.597	0.90909	0.	242.42
209	13.597	0.72727	0.	195.26
210	13.597	0.54545	0.	146.84
211	13.597	0.36364	0.	98.736
212	13.597	0.18182	0.	50.419
213	13.414	5.8182	0.	47.007
214	13.414	5.6364	0.	93.428
215	13.414	5.4545	0.	136.07
216	13.414	5.2727	0.	175.54
217	13.414	5.0909	0.	210.93
218	13.414	4.9091	0.	239.68
219	13.414	4.7273	0.	258.37
220	13.414	4.5455	0.	263.7
221	13.414	4.3636	0.	254.05
222	13.414	4.1818	0.	230.92
223	13.414	4.	0.	199.23
224	13.414	3.8182	0.	165.86
225	13.414	3.6364	0.	136.92
226	13.414	3.4545	0.	115.72
227	13.414	3.2727	0.	102.68
228	13.414	3.0909	0.	96.67
229	13.414	2.9091	0.	96.67
230	13.414	2.7273	0.	102.68
231	13.414	2.5455	0.	115.72
232	13.414	2.3636	0.	136.92
233	13.414	2.1818	0.	165.86
234	13.414	2.	0.	199.23
235	13.414	1.8182	0.	230.92
236	13.414	1.6364	0.	254.05
237	13.414	1.4545	0.	263.7
238	13.414	1.2727	0.	258.37
239	13.414	1.0909	0.	239.68
240	13.414	0.90909	0.	210.93
241	13.414	0.72727	0.	175.54
242	13.414	0.54545	0.	136.07
243	13.414	0.36364	0.	93.428
244	13.414	0.18182	0.	47.007
245	13.23	5.8182	0.	43.226
246	13.23	5.6364	0.	86.594
247	13.23	5.4545	0.	124.37
248	13.23	5.2727	0.	157.06
249	13.23	5.0909	0.	184.21
250	13.23	4.9091	0.	204.29
251	13.23	4.7273	0.	215.42
252	13.23	4.5455	0.	216.04
253	13.23	4.3636	0.	205.81
254	13.23	4.1818	0.	186.29
255	13.23	4.	0.	160.93
256	13.23	3.8182	0.	134.18
257	13.23	3.6364	0.	110.14
258	13.23	3.4545	0.	91.458
259	13.23	3.2727	0.	79.146
260	13.23	3.0909	0.	73.14
261	13.23	2.9091	0.	73.14
262	13.23	2.7273	0.	79.146
263	13.23	2.5455	0.	91.459
264	13.23	2.3636	0.	110.14
265	13.23	2.1818	0.	134.18
266	13.23	2.	0.	160.93
267	13.23	1.8182	0.	186.29
268	13.23	1.6364	0.	205.81
269	13.23	1.4545	0.	216.04
270	13.23	1.2727	0.	215.42
271	13.23	1.0909	0.	204.29
272	13.23	0.90909	0.	184.21
273	13.23	0.72727	0.	157.06
274	13.23	0.54545	0.	124.37
275	13.23	0.36364	0.	86.594
276	13.23	0.18182	0.	43.226
277	13.046	5.8182	0.	39.389
278	13.046	5.6364	0.	78.968
279	13.046	5.4545	0.	112.29
280	13.046	5.2727	0.	139.71
281	13.046	5.0909	0.	161.01
282	13.046	4.9091	0.	175.39
283	13.046	4.7273	0.	181.92
284	13.046	4.5455	0.	180.02
285	13.046	4.3636	0.	169.98
286	13.046	4.1818	0.	153.24
287	13.046	4.	0.	132.31
288	13.046	3.8182	0.	110.28
289	13.046	3.6364	0.	90.075
290	13.046	3.4545	0.	73.812
291	13.046	3.2727	0.	62.657
292	13.046	3.0909	0.	57.039
293	13.046	2.9091	0.	57.039
294	13.046	2.7273	0.	62.657
295	13.046	2.5455	0.	73.812
296	13.046	2.3636	0.	90.075
297	13.046	2.1818	0.	110.28
298	13.046	2.	0.	132.31
299	13.046	1.8182	0.	153.24
300	13.046	1.6364	0.	169.99
301	13.046	1.4545	0.	180.02
302	13.046	1.2727	0.	181.92
303	13.046	1.0909	0.	175.39
304	13.046	0.90909	0.	161.01
305	13.046	0.72727	0.	139.71
306	13.046	0.54545	0.	112.29
307	13.046	0.36364	0.	78.968
308	13.046	0.18182	0.	39.389
309	12.863	5.8182	0.	35.7
310	12.863	5.6364	0.	71.131
311	12.863	5.4545	0.	100.36
312	12.863	5.2727	0.	123.54
313	12.863	5.0909	0.	140.61
314	12.863	4.9091	0.	151.2
315	12.863	4.7273	0.	154.96
316	12.863	4.5455	0.	151.84
317	12.863	4.3636	0.	142.4
318	12.863	4.1818	0.	127.93
319	12.863	4.	0.	110.35
320	12.863	3.8182	0.	91.93
321	12.863	3.6364	0.	74.838
322	12.863	3.4545	0.	60.802
323	12.863	3.2727	0.	50.955
324	12.863	3.0909	0.	45.907
325	12.863	2.9091	0.	45.907
326	12.863	2.7273	0.	50.955
327	12.863	2.5455	0.	60.802
328	12.863	2.3636	0.	74.838
329	12.863	2.1818	0.	91.931
330	12.863	2.	0.	110.35
331	12.863	1.8182	0.	127.93
332	12.863	1.6364	0.	142.4
333	12.863	1.4545	0.	151.84
334	12.863	1.2727	0.	154.96
335	12.863	1.0909	0.	151.2
336	12.863	0.90909	0.	140.61
337	12.863	0.72727	0.	123.54
338	12.863	0.54545	0.	100.36
339	12.863	0.36364	0.	71.131
340	12.863	0.18182	0.	35.7
341	12.679	5.8182	0.	32.275
342	12.679	5.6364	0.	63.487
343	12.679	5.4545	0.	88.957
344	12.679	5.2727	0.	108.65
345	12.679	5.0909	0.	122.58
346	12.679	4.9091	0.	130.6
347	12.679	4.7273	0.	132.7
348	12.679	4.5455	0.	129.11
349	12.679	4.3636	0.	120.5
350	12.679	4.1818	0.	107.97
351	12.679	4.	0.	93.077
352	12.679	3.8182	0.	77.541
353	12.679	3.6364	0.	63.051
354	12.679	3.4545	0.	51.021
355	12.679	3.2727	0.	42.474
356	12.679	3.0909	0.	38.049
357	12.679	2.9091	0.	38.049
358	12.679	2.7273	0.	42.474
359	12.679	2.5455	0.	51.021
360	12.679	2.3636	0.	63.051
361	12.679	2.1818	0.	77.541
362	12.679	2.	0.	93.077
363	12.679	1.8182	0.	107.97
364	12.679	1.6364	0.	120.5
365	12.679	1.4545	0.	129.11
366	12.679	1.2727	0.	132.7
367	12.679	1.0909	0.	130.6
368	12.679	0.90909	0.	122.58
369	12.679	0.72727	0.	108.65
370	12.679	0.54545	0.	88.957
371	12.679	0.36364	0.	63.487
372	12.679	0.18182	0.	32.276
373	12.495	5.8182	0.	29.169
374	12.495	5.6364	0.	56.289
375	12.495	5.4545	0.	78.335
376	12.495	5.2727	0.	95.099
377	12.495	5.0909	0.	106.6
378	12.495	4.9091	0.	112.85
379	12.495	4.7273	0.	113.97
380	12.495	4.5455	0.	110.34
381	12.495	4.3636	0.	102.63
382	12.495	4.1818	0.	91.82
383	12.495	4.	0.	79.153
384	12.495	3.8182	0.	66.006
385	12.495	3.6364	0.	53.722
386	12.495	3.4545	0.	43.466
387	12.495	3.2727	0.	36.131
388	12.495	3.0909	0.	32.314
389	12.495	2.9091	0.	32.314
390	12.495	2.7273	0.	36.131
391	12.495	2.5455	0.	43.466
392	12.495	2.3636	0.	53.722
393	12.495	2.1818	0.	66.006
394	12.495	2.	0.	79.153
395	12.495	1.8182	0.	91.82
396	12.495	1.6364	0.	102.63
397	12.495	1.4545	0.	110.34
398	12.495	1.2727	0.	113.97
399	12.495	1.0909	0.	112.85
400	12.495	0.90909	0.	106.6
401	12.495	0.72727	0.	95.099
402	12.495	0.54545	0.	78.336
403	12.495	0.36364	0.	56.289
404	12.495	0.18182	0.	29.169
405	12.311	5.8182	0.	26.391
406	12.311	5.6364	0.	49.672
407	12.311	5.4545	0.	68.622
408	12.311	5.2727	0.	82.879
409	12.311	5.0909	0.	92.46
410	12.311	4.9091	0.	97.421
411	12.311	4.7273	0.	97.978
412	12.311	4.5455	0.	94.541
413	12.311	4.3636	0.	87.744
414	12.311	4.1818	0.	78.443
415	12.311	4.	0.	67.668
416	12.311	3.8182	0.	56.535
417	12.311	3.6364	0.	46.133
418	12.311	3.4545	0.	37.427
419	12.311	3.2727	0.	31.18
420	12.311	3.0909	0.	27.921
421	12.311	2.9091	0.	27.921
422	12.311	2.7273	0.	31.181
423	12.311	2.5455	0.	37.427
424	12.311	2.3636	0.	46.133
425	12.311	2.1818	0.	56.535
426	12.311	2.	0.	67.669
427	12.311	1.8182	0.	78.443
428	12.311	1.6364	0.	87.744
429	12.311	1.4545	0.	94.542
430	12.311	1.2727	0.	97.979
431	12.311	1.0909	0.	97.421
432	12.311	0.90909	0.	92.46
433	12.311	0.72727	0.	82.879
434	12.311	0.54545	0.	68.622
435	12.311	0.36364	0.	49.672
436	12.311	0.18182	0.	26.391
437	12.127	5.8182	0.	23.928
438	12.127	5.6364	0.	43.689
439	12.127	5.4545	0.	59.859
440	12.127	5.2727	0.	71.947
441	12.127	5.0909	0.	79.95
442	12.127	4.9091	0.	83.948
443	12.127	4.7273	0.	84.175
444	12.127	4.5455	0.	81.037
445	12.127	4.3636	0.	75.112
446	12.127	4.1818	0.	67.141
447	12.127	4.	0.	57.985
448	12.127	3.8182	0.	48.561
449	12.127	3.6364	0.	39.767
450	12.127	3.4545	0.	32.401
451	12.127	3.2727	0.	27.109
452	12.127	3.0909	0.	24.345
453	12.127	2.9091	0.	24.345
454	12.127	2.7273	0.	27.109
455	12.127	2.5455	0.	32.401
456	12.127	2.3636	0.	39.767
457	12.127	2.1818	0.	48.561
458	12.127	2.	0.	57.985
459	12.127	1.8182	0.	67.141
460	12.127	1.6364	0.	75.112
461	12.127	1.4545	0.	81.037
462	12.127	1.2727	0.	84.175
463	12.127	1.0909	0.	83.948
464	12.127	0.90909	0.	79.95
465	12.127	0.72727	0.	71.947
466	12.127	0.54545	0.	59.859
467	12.127	0.36364	0.	43.689
468	12.127	0.18182	0.	23.928
469	11.944	5.8182	0.	21.754
470	11.944	5.6364	0.	38.34
471	11.944	5.4545	0.	52.029
472	11.944	5.2727	0.	62.222
473	11.944	5.0909	0.	68.899
474	11.944	4.9091	0.	72.137
475	11.944	4.7273	0.	72.165
476	11.944	4.5455	0.	69.357
477	11.944	4.3636	0.	64.228
478	11.944	4.1818	0.	57.416
479	11.944	4.	0.	49.644
480	11.944	3.8182	0.	41.675
481	11.944	3.6364	0.	34.249
482	11.944	3.4545	0.	28.032
483	11.944	3.2727	0.	23.564
484	11.944	3.0909	0.	21.229
485	11.944	2.9091	0.	21.229
486	11.944	2.7273	0.	23.564
487	11.944	2.5455	0.	28.032
488	11.944	2.3636	0.	34.249
489	11.944	2.1818	0.	41.675
490	11.944	2.	0.	49.645
491	11.944	1.8182	0.	57.416
492	11.944	1.6364	0.	64.228
493	11.944	1.4545	0.	69.357
494	11.944	1.2727	0.	72.165
495	11.944	1.0909	0.	72.137
496	11.944	0.90909	0.	68.899
497	11.944	0.72727	0.	62.223
498	11.944	0.54545	0.	52.029
499	11.944	0.36364	0.	38.34
500	11.944	0.18182	0.	21.755
501	11.76	5.8182	0.	19.837
502	11.76	5.6364	0.	33.592
503	11.76	5.4545	0.	45.075
504	11.76	5.2727	0.	53.606
505	11.76	5.0909	0.	59.141
506	11.76	4.9091	0.	61.751
507	11.76	4.7273	0.	61.642
508	11.76	4.5455	0.	59.15
509	11.76	4.3636	0.	54.724
510	11.76	4.1818	0.	48.909
511	11.76	4.	0.	42.315
512	11.76	3.8182	0.	35.576
513	11.76	3.6364	0.	29.309
514	11.76	3.4545	0.	24.067
515	11.76	3.2727	0.	20.302
516	11.76	3.0909	0.	18.334
517	11.76	2.9091	0.	18.334
518	11.76	2.7273	0.	20.302
519	11.76	2.5455	0.	24.067
520	11.76	2.3636	0.	29.309
521	11.76	2.1818	0.	35.576
522	11.76	2.	0.	42.315
523	11.76	1.8182	0.	48.909
524	11.76	1.6364	0.	54.724
525	11.76	1.4545	0.	59.15
526	11.76	1.2727	0.	61.642
527	11.76	1.0909	0.	61.751
528	11.76	0.90909	0.	59.141
529	11.76	0.72727	0.	53.606
530	11.76	0.54545	0.	45.075
531	11.76	0.36364	0.	33.592
532	11.76	0.18182	0.	19.837
533	11.576	5.8182	0.	18.141
534	11.576	5.6364	0.	29.393
535	11.576	5.4545	0.	38.923
536	11.576	5.2727	0.	45.984
537	11.576	5.0909	0.	50.519
538	11.576	4.9091	0.	52.585
539	11.576	4.7273	0.	52.364
540	11.576	4.5455	0.	50.147
541	11.576	4.3636	0.	46.321
542	11.576	4.1818	0.	41.35
543	11.576	4.	0.	35.748
544	11.576	3.8182	0.	30.044
545	11.576	3.6364	0.	24.752
546	11.576	3.4545	0.	20.331
547	11.576	3.2727	0.	17.158
548	11.576	3.0909	0.	15.501
549	11.576	2.9091	0.	15.501
550	11.576	2.7273	0.	17.158
551	11.576	2.5455	0.	20.331
552	11.576	2.3636	0.	24.752
553	11.576	2.1818	0.	30.044
554	11.576	2.	0.	35.748
555	11.576	1.8182	0.	41.351
556	11.576	1.6364	0.	46.321
557	11.576	1.4545	0.	50.147
558	11.576	1.2727	0.	52.364
559	11.576	1.0909	0.	52.586
560	11.576	0.90909	0.	50.519
561	11.576	0.72727	0.	45.984
562	11.576	0.54545	0.	38.923
563	11.576	0.36364	0.	29.393
564	11.576	0.18182	0.	18.141
565	11.392	5.8182	0.	16.633
566	11.392	5.6364	0.	25.684
567	11.392	5.4545	0.	33.484
568	11.392	5.2727	0.	39.241
569	11.392	5.0909	0.	42.887
570	11.392	4.9091	0.	44.465
571	11.392	4.7273	0.	44.13
572	11.392	4.5455	0.	42.133
573	11.392	4.3636	0.	38.803
574	11.392	4.1818	0.	34.534
575	11.392	4.	0.	29.756
576	11.392	3.8182	0.	24.913
577	11.392	3.6364	0.	20.433
578	11.392	3.4545	0.	16.697
579	11.392	3.2727	0.	14.018
580	11.392	3.0909	0.	12.62
581	11.392	2.9091	0.	12.62
582	11.392	2.7273	0.	14.018
583	11.392	2.5455	0.	16.697
584	11.392	2.3636	0.	20.433
585	11.392	2.1818	0.	24.913
586	11.392	2.	0.	29.756
587	11.392	1.8182	0.	34.534
588	11.392	1.6364	0.	38.803
589	11.392	1.4545	0.	42.133
590	11.392	1.2727	0.	44.13
591	11.392	1.0909	0.	44.465
592	11.392	0.90909	0.	42.887
593	11.392	0.72727	0.	39.241
594	11.392	0.54545	0.	33.485
595	11.392	0.36364	0.	25.684
596	11.392	0.18182	0.	16.633
597	11.209	5.8182	0.	15.282
598	11.209	5.6364	0.	22.401
599	11.209	5.4545	0.	28.671
600	11.209	5.2727	0.	33.263
601	11.209	5.0909	0.	36.106
602	11.209	4.9091	0.	37.231
603	11.209	4.7273	0.	36.768
604	11.209	4.5455	0.	34.93
605	11.209	4.3636	0.	31.996
606	11.209	4.1818	0.	28.297
607	11.209	4.	0.	24.194
608	11.209	3.8182	0.	20.059
609	11.209	3.6364	0.	16.248
610	11.209	3.4545	0.	13.077
611	11.209	3.2727	0.	10.807
612	11.209	3.0909	0.	9.6235
613	11.209	2.9091	0.	9.6235
614	11.209	2.7273	0.	10.807
615	11.209	2.5455	0.	13.077
616	11.209	2.3636	0.	16.248
617	11.209	2.1818	0.	20.059
618	11.209	2.	0.	24.194
619	11.209	1.8182	0.	28.297
620	11.209	1.6364	0.	31.996
621	11.209	1.4545	0.	34.93
622	11.209	1.2727	0.	36.768
623	11.209	1.0909	0.	37.231
624	11.209	0.90909	0.	36.106
625	11.209	0.72727	0.	33.263
626	11.209	0.54545	0.	28.671
627	11.209	0.36364	0.	22.401
628	11.209	0.18182	0.	15.283
629	11.025	5.8182	0.	14.062
630	11.025	5.6364	0.	19.484
631	11.025	5.4545	0.	24.394
632	11.025	5.2727	0.	27.942
633	11.025	5.0909	0.	30.051
634	11.025	4.9091	0.	30.745
635	11.025	4.7273	0.	30.132
636	11.025	4.5455	0.	28.391
637	11.025	4.3636	0.	25.757
638	11.025	4.1818	0.	22.508
639	11.025	4.	0.	18.948
640	11.025	3.8182	0.	15.386
641	11.025	3.6364	0.	12.118
642	11.025	3.4545	0.	9.4082
643	11.025	3.2727	0.	7.4717
644	11.025	3.0909	0.	6.4626
645	11.025	2.9091	0.	6.4627
646	11.025	2.7273	0.	7.4717
647	11.025	2.5455	0.	9.4082
648	11.025	2.3636	0.	12.118
649	11.025	2.1818	0.	15.386
650	11.025	2.	0.	18.948
651	11.025	1.8182	0.	22.508
652	11.025	1.6364	0.	25.757
653	11.025	1.4545	0.	28.391
654	11.025	1.2727	0.	30.132
655	11.025	1.0909	0.	30.745
656	11.025	0.90909	0.	30.051
657	11.025	0.72727	0.	27.942
658	11.025	0.54545	0.	24.394
659	11.025	0.36364	0.	19.484
660	11.025	0.18182	0.	14.062
661	10.841	5.8182	0.	12.946
662	10.841	5.6364	0.	16.875
663	10.841	5.4545	0.	20.573
664	10.841	5.2727	0.	23.176
665	10.841	5.0909	0.	24.606
666	10.841	4.9091	0.	24.882
667	10.841	4.7273	0.	24.093
668	10.841	4.5455	0.	22.389
669	10.841	4.3636	0.	19.967
670	10.841	4.1818	0.	17.062
671	10.841	4.	0.	13.926
672	10.841	3.8182	0.	10.818
673	10.841	3.6364	0.	7.9848
674	10.841	3.4545	0.	5.6445
675	10.841	3.2727	0.	3.976
676	10.841	3.0909	0.	3.1068
677	10.841	2.9091	0.	3.1068
678	10.841	2.7273	0.	3.976
679	10.841	2.5455	0.	5.6446
680	10.841	2.3636	0.	7.9848
681	10.841	2.1818	0.	10.818
682	10.841	2.	0.	13.926
683	10.841	1.8182	0.	17.062
684	10.841	1.6364	0.	19.967
685	10.841	1.4545	0.	22.389
686	10.841	1.2727	0.	24.093
687	10.841	1.0909	0.	24.882
688	10.841	0.90909	0.	24.606
689	10.841	0.72727	0.	23.176
690	10.841	0.54545	0.	20.573
691	10.841	0.36364	0.	16.875
692	10.841	0.18182	0.	12.946
693	10.658	5.8182	0.	11.912
694	10.658	5.6364	0.	14.521
695	10.658	5.4545	0.	17.132
696	10.658	5.2727	0.	18.872
697	10.658	5.0909	0.	19.667
698	10.658	4.9091	0.	19.531
699	10.658	4.7273	0.	18.538
700	10.658	4.5455	0.	16.814
701	10.658	4.3636	0.	14.526
702	10.658	4.1818	0.	11.868
703	10.658	4.	0.	9.0525
704	10.658	3.8182	0.	6.2956
705	10.658	3.6364	0.	3.803
706	10.658	3.4545	0.	1.7587
707	10.658	3.2727	0.	0.32733
708	10.658	3.0909	0.	8.6611e-003
709	10.658	2.9091	0.	8.6606e-003
710	10.658	2.7273	0.	0.32734
711	10.658	2.5455	0.	1.7587
712	10.658	2.3636	0.	3.8031
713	10.658	2.1818	0.	6.2957
714	10.658	2.	0.	9.0525
715	10.658	1.8182	0.	11.868
716	10.658	1.6364	0.	14.526
717	10.658	1.4545	0.	16.814
718	10.658	1.2727	0.	18.538
719	10.658	1.0909	0.	19.531
720	10.658	0.90909	0.	19.667
721	10.658	0.72727	0.	18.872
722	10.658	0.54545	0.	17.132
723	10.658	0.36364	0.	14.521
724	10.658	0.18182	0.	11.912
725	10.474	5.8182	0.	10.942
726	10.474	5.6364	0.	12.376
727	10.474	5.4545	0.	14.002
728	10.474	5.2727	0.	14.947
729	10.474	5.0909	0.	15.141
730	10.474	4.9091	0.	14.594
731	10.474	4.7273	0.	13.369
732	10.474	4.5455	0.	11.573
733	10.474	4.3636	0.	9.3454
734	10.474	4.1818	0.	6.8498
735	10.474	4.	0.	4.2652
736	10.474	3.8182	0.	1.7791
737	10.474	3.6364	0.	7.0864e-002
738	10.474	3.4545	0.	1.4756e-002
739	10.474	3.2727	0.	7.5193e-003
740	10.474	3.0909	0.	5.1973e-003
741	10.474	2.9091	0.	5.1976e-003
742	10.474	2.7273	0.	7.5193e-003
743	10.474	2.5455	0.	1.4756e-002
744	10.474	2.3636	0.	7.0866e-002
745	10.474	2.1818	0.	1.7792
746	10.474	2.	0.	4.2652
747	10.474	1.8182	0.	6.8498
748	10.474	1.6364	0.	9.3454
749	10.474	1.4545	0.	11.573
750	10.474	1.2727	0.	13.369
751	10.474	1.0909	0.	14.594
752	10.474	0.90909	0.	15.141
753	10.474	0.72727	0.	14.947
754	10.474	0.54545	0.	14.002
755	10.474	0.36364	0.	12.376
756	10.474	0.18182	0.	10.942
757	10.29	5.8182	0.	10.019
758	10.29	5.6364	0.	10.397
759	10.29	5.4545	0.	11.122
760	10.29	5.2727	0.	11.326
761	10.29	5.0909	0.	10.943
762	10.29	4.9091	0.	9.982
763	10.29	4.7273	0.	8.4985
764	10.29	4.5455	0.	6.5819
765	10.29	4.3636	0.	4.3509
766	10.29	4.1818	0.	1.9493
767	10.29	4.	0.	6.9243e-002
768	10.29	3.8182	0.	1.7432e-002
769	10.29	3.6364	0.	1.0458e-002
770	10.29	3.4545	0.	7.2442e-003
771	10.29	3.2727	0.	5.4633e-003
772	10.29	3.0909	0.	4.6345e-003
773	10.29	2.9091	0.	4.6347e-003
774	10.29	2.7273	0.	5.4633e-003
775	10.29	2.5455	0.	7.2453e-003
776	10.29	2.3636	0.	1.0458e-002
777	10.29	2.1818	0.	1.7433e-002
778	10.29	2.	0.	6.9247e-002
779	10.29	1.8182	0.	1.9493
780	10.29	1.6364	0.	4.351
781	10.29	1.4545	0.	6.5819
782	10.29	1.2727	0.	8.4985
783	10.29	1.0909	0.	9.982
784	10.29	0.90909	0.	10.943
785	10.29	0.72727	0.	11.326
786	10.29	0.54545	0.	11.122
787	10.29	0.36364	0.	10.397
788	10.29	0.18182	0.	10.019
789	10.106	5.8182	0.	9.1279
790	10.106	5.6364	0.	8.5464
791	10.106	5.4545	0.	8.4372
792	10.106	5.2727	0.	7.9422
793	10.106	5.0909	0.	6.9988
794	10.106	4.9091	0.	5.6182
795	10.106	4.7273	0.	3.8485
796	10.106	4.5455	0.	1.7698
797	10.106	4.3636	0.	4.1377e-002
798	10.106	4.1818	0.	1.4995e-002
799	10.106	4.	0.	1.0915e-002
800	10.106	3.8182	0.	8.5611e-003
801	10.106	3.6364	0.	6.8328e-003
802	10.106	3.4545	0.	5.5428e-003
803	10.106	3.2727	0.	4.6695e-003
804	10.106	3.0909	0.	4.2262e-003
805	10.106	2.9091	0.	4.2263e-003
806	10.106	2.7273	0.	4.6696e-003
807	10.106	2.5455	0.	5.5432e-003
808	10.106	2.3636	0.	6.8329e-003
809	10.106	2.1818	0.	8.5614e-003
810	10.106	2.	0.	1.0914e-002
811	10.106	1.8182	0.	1.4996e-002
812	10.106	1.6364	0.	4.1379e-002
813	10.106	1.4545	0.	1.7698
814	10.106	1.2727	0.	3.8486
815	10.106	1.0909	0.	5.6182
816	10.106	0.90909	0.	6.9988
817	10.106	0.72727	0.	7.9422
818	10.106	0.54545	0.	8.4372
819	10.106	0.36364	0.	8.5465
820	10.106	0.18182	0.	9.128
821	9.9225	5.8182	0.	8.2559
822	9.9225	5.6364	0.	6.7913
823	9.9225	5.4545	0.	5.8998
824	9.9225	5.2727	0.	4.736
825	9.9225	5.0909	0.	3.2426
826	9.9225	4.9091	0.	1.433
827	9.9225	4.7273	0.	1.4322e-002
828	9.9225	4.5455	0.	1.0491e-002
829	9.9225	4.3636	0.	9.4788e-003
830	9.9225	4.1818	0.	8.5013e-003
831	9.9225	4.	0.	7.467e-003
832	9.9225	3.8182	0.	6.4384e-003
833	9.9225	3.6364	0.	5.4958e-003
834	9.9225	3.4545	0.	4.7166e-003
835	9.9225	3.2727	0.	4.1598e-003
836	9.9225	3.0909	0.	3.8703e-003
837	9.9225	2.9091	0.	3.8701e-003
838	9.9225	2.7273	0.	4.16e-003
839	9.9225	2.5455	0.	4.7169e-003
840	9.9225	2.3636	0.	5.4963e-003
841	9.9225	2.1818	0.	6.4385e-003
842	9.9225	2.	0.	7.4682e-003
843	9.9225	1.8182	0.	8.5004e-003
844	9.9225	1.6364	0.	9.4794e-003
845	9.9225	1.4545	0.	1.0491e-002
846	9.9225	1.2727	0.	1.4322e-002
847	9.9225	1.0909	0.	1.433
848	9.9225	0.90909	0.	3.2427
849	9.9225	0.72727	0.	4.736
850	9.9225	0.54545	0.	5.8998
851	9.9225	0.36364	0.	6.7913
852	9.9225	0.18182	0.	8.2559
853	9.7388	5.8182	0.	7.3917
854	9.7388	5.6364	0.	5.1025
855	9.7388	5.4545	0.	3.4667
856	9.7388	5.2727	0.	1.655
857	9.7388	5.0909	0.	6.8468e-003
858	9.7388	4.9091	0.	7.4772e-003
859	9.7388	4.7273	0.	7.7883e-003
860	9.7388	4.5455	0.	7.7286e-003
861	9.7388	4.3636	0.	7.3739e-003
862	9.7388	4.1818	0.	6.8113e-003
863	9.7388	4.	0.	6.1291e-003
864	9.7388	3.8182	0.	5.4097e-003
865	9.7388	3.6364	0.	4.7306e-003
866	9.7388	3.4545	0.	4.1608e-003
867	9.7388	3.2727	0.	3.7493e-003
868	9.7388	3.0909	0.	3.5343e-003
869	9.7388	2.9091	0.	3.5345e-003
870	9.7388	2.7273	0.	3.7493e-003
871	9.7388	2.5455	0.	4.1602e-003
872	9.7388	2.3636	0.	4.7314e-003
873	9.7388	2.1818	0.	5.4094e-003
874	9.7388	2.	0.	6.1297e-003
875	9.7388	1.8182	0.	6.8128e-003
876	9.7388	1.6364	0.	7.3745e-003
877	9.7388	1.4545	0.	7.7292e-003
878	9.7388	1.2727	0.	7.7887e-003
879	9.7388	1.0909	0.	7.4777e-003
880	9.7388	0.90909	0.	6.8488e-003
881	9.7388	0.72727	0.	1.6551
882	9.7388	0.54545	0.	3.4667
883	9.7388	0.36364	0.	5.1025
884	9.7388	0.18182	0.	7.3918
885	9.555	5.8182	0.	6.5258
886	9.555	5.6364	0.	3.4543
887	9.555	5.4545	0.	1.1003
888	9.555	5.2727	0.	6.4934e-003
889	9.555	5.0909	0.	6.657e-003
890	9.555	4.9091	0.	6.9504e-003
891	9.555	4.7273	0.	6.987e-003
892	9.555	4.5455	0.	6.8024e-003
893	9.555	4.3636	0.	6.4262e-003
894	9.555	4.1818	0.	5.9173e-003
895	9.555	4.	0.	5.3332e-003
896	9.555	3.8182	0.	4.7328e-003
897	9.555	3.6364	0.	4.1755e-003
898	9.555	3.4545	0.	3.7103e-003
899	9.555	3.2727	0.	3.3766e-003
900	9.555	3.0909	0.	3.2021e-003
901	9.555	2.9091	0.	3.2016e-003
902	9.555	2.7273	0.	3.3769e-003
903	9.555	2.5455	0.	3.711e-003
904	9.555	2.3636	0.	4.1755e-003
905	9.555	2.1818	0.	4.7331e-003
906	9.555	2.	0.	5.334e-003
907	9.555	1.8182	0.	5.9174e-003
908	9.555	1.6364	0.	6.4268e-003
909	9.555	1.4545	0.	6.8028e-003
910	9.555	1.2727	0.	6.9879e-003
911	9.555	1.0909	0.	6.951e-003
912	9.555	0.90909	0.	6.6587e-003
913	9.555	0.72727	0.	6.4949e-003
914	9.555	0.54545	0.	1.1003
915	9.555	0.36364	0.	3.4543
916	9.555	0.18182	0.	6.5259
917	9.3713	5.8182	0.	5.6495
918	9.3713	5.6364	0.	1.8241
919	9.3713	5.4545	0.	5.3567e-003
920	9.3713	5.2727	0.	6.5885e-003
921	9.3713	5.0909	0.	6.6073e-003
922	9.3713	4.9091	0.	6.691e-003
923	9.3713	4.7273	0.	6.5353e-003
924	9.3713	4.5455	0.	6.2373e-003
925	9.3713	4.3636	0.	5.8092e-003
926	9.3713	4.1818	0.	5.2988e-003
927	9.3713	4.	0.	4.7501e-003
928	9.3713	3.8182	0.	4.2058e-003
929	9.3713	3.6364	0.	3.7111e-003
930	9.3713	3.4545	0.	3.3049e-003
931	9.3713	3.2727	0.	3.0146e-003
932	9.3713	3.0909	0.	2.8639e-003
933	9.3713	2.9091	0.	2.864e-003
934	9.3713	2.7273	0.	3.0153e-003
935	9.3713	2.5455	0.	3.305e-003
936	9.3713	2.3636	0.	3.7115e-003
937	9.3713	2.1818	0.	4.206e-003
938	9.3713	2.	0.	4.7501e-003
939	9.3713	1.8182	0.	5.2998e-003
940	9.3713	1.6364	0.	5.8097e-003
941	9.3713	1.4545	0.	6.2377e-003
942	9.3713	1.2727	0.	6.5361e-003
943	9.3713	1.0909	0.	6.6915e-003
944	9.3713	0.90909	0.	6.6088e-003
945	9.3713	0.72727	0.	6.5895e-003
946	9.3713	0.54545	0.	5.3569e-003
947	9.3713	0.36364	0.	1.8242
948	9.3713	0.18182	0.	5.6496
949	9.1875	5.8182	0.	4.7558
950	9.1875	5.6364	0.	0.2007
951	9.1875	5.4545	0.	5.8194e-003
952	9.1875	5.2727	0.	7.0534e-003
953	9.1875	5.0909	0.	6.6753e-003
954	9.1875	4.9091	0.	6.5596e-003
955	9.1875	4.7273	0.	6.2361e-003
956	9.1875	4.5455	0.	5.8328e-003
957	9.1875	4.3636	0.	5.3451e-003
958	9.1875	4.1818	0.	4.814e-003
959	9.1875	4.	0.	4.2713e-003
960	9.1875	3.8182	0.	3.7513e-003
961	9.1875	3.6364	0.	3.2892e-003
962	9.1875	3.4545	0.	2.9149e-003
963	9.1875	3.2727	0.	2.6502e-003
964	9.1875	3.0909	0.	2.5138e-003
965	9.1875	2.9091	0.	2.5142e-003
966	9.1875	2.7273	0.	2.6507e-003
967	9.1875	2.5455	0.	2.9148e-003
968	9.1875	2.3636	0.	3.2893e-003
969	9.1875	2.1818	0.	3.752e-003
970	9.1875	2.	0.	4.2715e-003
971	9.1875	1.8182	0.	4.8143e-003
972	9.1875	1.6364	0.	5.3458e-003
973	9.1875	1.4545	0.	5.8336e-003
974	9.1875	1.2727	0.	6.2371e-003
975	9.1875	1.0909	0.	6.5599e-003
976	9.1875	0.90909	0.	6.6767e-003
977	9.1875	0.72727	0.	7.054e-003
978	9.1875	0.54545	0.	5.8196e-003
979	9.1875	0.36364	0.	0.20075
980	9.1875	0.18182	0.	4.7559
981	9.0037	5.8182	0.	3.8392
982	9.0037	5.6364	0.	2.0111e-002
983	9.0037	5.4545	0.	6.6048e-003
984	9.0037	5.2727	0.	7.6671e-003
985	9.0037	5.0909	0.	6.8535e-003
986	9.0037	4.9091	0.	6.5325e-003
987	9.0037	4.7273	0.	6.0421e-003
988	9.0037	4.5455	0.	5.5307e-003
989	9.0037	4.3636	0.	4.9736e-003
990	9.0037	4.1818	0.	4.4065e-003
991	9.0037	4.	0.	3.8511e-003
992	9.0037	3.8182	0.	3.3349e-003
993	9.0037	3.6364	0.	2.8851e-003
994	9.0037	3.4545	0.	2.5265e-003
995	9.0037	3.2727	0.	2.2755e-003
996	9.0037	3.0909	0.	2.1457e-003
997	9.0037	2.9091	0.	2.1457e-003
998	9.0037	2.7273	0.	2.2753e-003
999	9.0037	2.5455	0.	2.5266e-003
1000	9.0037	2.3636	0.	2.8853e-003
1001	9.0037	2.1818	0.	3.3353e-003
1002	9.0037	2.	0.	3.8513e-003
1003	9.0037	1.8182	0.	4.4069e-003
1004	9.0037	1.6364	0.	4.9742e-003
1005	9.0037	1.4545	0.	5.531e-003
1006	9.0037	1.2727	0.	6.0431e-003
1007	9.0037	1.0909	0.	6.5332e-003
1008	9.0037	0.90909	0.	6.855e-003
1009	9.0037	0.72727	0.	7.6682e-003
1010	9.0037	0.54545	0.	6.6055e-003
1011	9.0037	0.36364	0.	2.0112e-002
1012	9.0037	0.18182	0.	3.8393
1013	8.82	5.8182	0.	2.8974
1014	8.82	5.6364	0.	2.3776e-002
1015	8.82	5.4545	0.	7.5352e-003
1016	8.82	5.2727	0.	8.4055e-003
1017	8.82	5.0909	0.	7.1352e-003
1018	8.82	4.9091	0.	6.5982e-003
1019	8.82	4.7273	0.	5.9331e-003
1020	8.82	4.5455	0.	5.3044e-003
1021	8.82	4.3636	0.	4.6672e-003
1022	8.82	4.1818	0.	4.0494e-003
1023	8.82	4.	0.	3.4666e-003
1024	8.82	3.8182	0.	2.9377e-003
1025	8.82	3.6364	0.	2.4858e-003
1026	8.82	3.4545	0.	2.1301e-003
1027	8.82	3.2727	0.	1.883e-003
1028	8.82	3.0909	0.	1.7564e-003
1029	8.82	2.9091	0.	1.7566e-003
1030	8.82	2.7273	0.	1.8832e-003
1031	8.82	2.5455	0.	2.1302e-003
1032	8.82	2.3636	0.	2.4862e-003
1033	8.82	2.1818	0.	2.938e-003
1034	8.82	2.	0.	3.4669e-003
1035	8.82	1.8182	0.	4.0503e-003
1036	8.82	1.6364	0.	4.6677e-003
1037	8.82	1.4545	0.	5.3052e-003
1038	8.82	1.2727	0.	5.9339e-003
1039	8.82	1.0909	0.	6.5991e-003
1040	8.82	0.90909	0.	7.1367e-003
1041	8.82	0.72727	0.	8.4065e-003
1042	8.82	0.54545	0.	7.5353e-003
1043	8.82	0.36364	0.	2.3777e-002
1044	8.82	0.18182	0.	2.8975
1045	8.6362	5.8182	0.	1.9375
1046	8.6362	5.6364	0.	2.8108e-002
1047	8.6362	5.4545	0.	8.5899e-003
1048	8.6362	5.2727	0.	9.2614e-003
1049	8.6362	5.0909	0.	7.5158e-003
1050	8.6362	4.9091	0.	6.7499e-003
1051	8.6362	4.7273	0.	5.8983e-003
1052	8.6362	4.5455	0.	5.1409e-003
1053	8.6362	4.3636	0.	4.4108e-003
1054	8.6362	4.1818	0.	3.7293e-003
1055	8.6362	4.	0.	3.1041e-003
1056	8.6362	3.8182	0.	2.5495e-003
1057	8.6362	3.6364	0.	2.0835e-003
1058	8.6362	3.4545	0.	1.7203e-003
1059	8.6362	3.2727	0.	1.4698e-003
1060	8.6362	3.0909	0.	1.3426e-003
1061	8.6362	2.9091	0.	1.3428e-003
1062	8.6362	2.7273	0.	1.4704e-003
1063	8.6362	2.5455	0.	1.7203e-003
1064	8.6362	2.3636	0.	2.0833e-003
1065	8.6362	2.1818	0.	2.5499e-003
1066	8.6362	2.	0.	3.1046e-003
1067	8.6362	1.8182	0.	3.7299e-003
1068	8.6362	1.6364	0.	4.4112e-003
1069	8.6362	1.4545	0.	5.1416e-003
1070	8.6362	1.2727	0.	5.8989e-003
1071	8.6362	1.0909	0.	6.7505e-003
1072	8.6362	0.90909	0.	7.5173e-003
1073	8.6362	0.72727	0.	9.2623e-003
1074	8.6362	0.54545	0.	8.5899e-003
1075	8.6362	0.36364	0.	2.8109e-002
1076	8.6362	0.18182	0.	1.9375
1077	8.4525	5.8182	0.	1.0108
1078	8.4525	5.6364	0.	3.2755e-002
1079	8.4525	5.4545	0.	9.7657e-003
1080	8.4525	5.2727	0.	1.0234e-002
1081	8.4525	5.0909	0.	7.9915e-003
1082	8.4525	4.9091	0.	6.9827e-003
1083	8.4525	4.7273	0.	5.9301e-003
1084	8.4525	4.5455	0.	5.0311e-003
1085	8.4525	4.3636	0.	4.1943e-003
1086	8.4525	4.1818	0.	3.436e-003
1087	8.4525	4.	0.	2.7554e-003
1088	8.4525	3.8182	0.	2.163e-003
1089	8.4525	3.6364	0.	1.6714e-003
1090	8.4525	3.4545	0.	1.2923e-003
1091	8.4525	3.2727	0.	1.0334e-003
1092	8.4525	3.0909	0.	9.013e-004
1093	8.4525	2.9091	0.	9.0178e-004
1094	8.4525	2.7273	0.	1.0337e-003
1095	8.4525	2.5455	0.	1.2927e-003
1096	8.4525	2.3636	0.	1.6717e-003
1097	8.4525	2.1818	0.	2.1635e-003
1098	8.4525	2.	0.	2.7558e-003
1099	8.4525	1.8182	0.	3.4364e-003
1100	8.4525	1.6364	0.	4.1953e-003
1101	8.4525	1.4545	0.	5.0316e-003
1102	8.4525	1.2727	0.	5.9309e-003
1103	8.4525	1.0909	0.	6.9832e-003
1104	8.4525	0.90909	0.	7.9929e-003
1105	8.4525	0.72727	0.	1.0234e-002
1106	8.4525	0.54545	0.	9.7661e-003
1107	8.4525	0.36364	0.	3.2756e-002
1108	8.4525	0.18182	0.	1.0109
1109	8.2688	5.8182	0.	0.3817
1110	8.2688	5.6364	0.	3.7689e-002
1111	8.2688	5.4545	0.	1.1065e-002
1112	8.2688	5.2727	0.	1.1323e-002
1113	8.2688	5.0909	0.	8.5608e-003
1114	8.2688	4.9091	0.	7.2922e-003
1115	8.2688	4.7273	0.	6.0235e-003
1116	8.2688	4.5455	0.	4.9683e-003
1117	8.2688	4.3636	0.	4.0118e-003
1118	8.2688	4.1818	0.	3.1621e-003
1119	8.2688	4.	0.	2.4146e-003
1120	8.2688	3.8182	0.	1.7726e-003
1121	8.2688	3.6364	0.	1.2457e-003
1122	8.2688	3.4545	0.	8.4299e-004
1123	8.2688	3.2727	0.	5.6907e-004
1124	8.2688	3.0909	0.	4.3058e-004
1125	8.2688	2.9091	0.	4.3058e-004
1126	8.2688	2.7273	0.	5.6943e-004
1127	8.2688	2.5455	0.	8.4281e-004
1128	8.2688	2.3636	0.	1.246e-003
1129	8.2688	2.1818	0.	1.773e-003
1130	8.2688	2.	0.	2.4149e-003
1131	8.2688	1.8182	0.	3.1631e-003
1132	8.2688	1.6364	0.	4.0121e-003
1133	8.2688	1.4545	0.	4.9688e-003
1134	8.2688	1.2727	0.	6.0242e-003
1135	8.2688	1.0909	0.	7.2928e-003
1136	8.2688	0.90909	0.	8.5626e-003
1137	8.2688	0.72727	0.	1.1324e-002
1138	8.2688	0.54545	0.	1.1065e-002
1139	8.2688	0.36364	0.	3.7691e-002
1140	8.2688	0.18182	0.	0.38172
1141	8.085	5.8182	0.	0.19393
1142	8.085	5.6364	0.	4.2934e-002
1143	8.085	5.4545	0.	1.2494e-002
1144	8.085	5.2727	0.	1.2533e-002
1145	8.085	5.0909	0.	9.223e-003
1146	8.085	4.9091	0.	7.6766e-003
1147	8.085	4.7273	0.	6.1754e-003
1148	8.085	4.5455	0.	4.9481e-003
1149	8.085	4.3636	0.	3.8571e-003
1150	8.085	4.1818	0.	2.9043e-003
1151	8.085	4.	0.	2.0764e-003
1152	8.085	3.8182	0.	1.374e-003
1153	8.085	3.6364	0.	8.0261e-004
1154	8.085	3.4545	0.	3.6867e-004
1155	8.085	3.2727	0.	7.5301e-005
1156	8.085	3.0909	0.	-7.2959e-005
1157	8.085	2.9091	0.	-7.2841e-005
1158	8.085	2.7273	0.	7.5419e-005
1159	8.085	2.5455	0.	3.6896e-004
1160	8.085	2.3636	0.	8.0284e-004
1161	8.085	2.1818	0.	1.3744e-003
1162	8.085	2.	0.	2.0767e-003
1163	8.085	1.8182	0.	2.9046e-003
1164	8.085	1.6364	0.	3.8577e-003
1165	8.085	1.4545	0.	4.9489e-003
1166	8.085	1.2727	0.	6.1759e-003
1167	8.085	1.0909	0.	7.6774e-003
1168	8.085	0.90909	0.	9.2245e-003
1169	8.085	0.72727	0.	1.2534e-002
1170	8.085	0.54545	0.	1.2494e-002
1171	8.085	0.36364	0.	4.2935e-002
1172	8.085	0.18182	0.	0.19393
1173	7.9012	5.8182	0.	0.13964
1174	7.9012	5.6364	0.	4.8525e-002
1175	7.9012	5.4545	0.	1.4059e-002
1176	7.9012	5.2727	0.	1.3869e-002
1177	7.9012	5.0909	0.	9.9793e-003
1178	7.9012	4.9091	0.	8.1355e-003
1179	7.9012	4.7273	0.	6.382e-003
1180	7.9012	4.5455	0.	4.9675e-003
1181	7.9012	4.3636	0.	3.7272e-003
1182	7.9012	4.1818	0.	2.6572e-003
1183	7.9012	4.	0.	1.737e-003
1184	7.9012	3.8182	0.	9.6308e-004
1185	7.9012	3.6364	0.	3.3866e-004
1186	7.9012	3.4545	0.	-1.335e-004
1187	7.9012	3.2727	0.	-4.5115e-004
1188	7.9012	3.0909	0.	-6.1163e-004
1189	7.9012	2.9091	0.	-6.1145e-004
1190	7.9012	2.7273	0.	-4.5127e-004
1191	7.9012	2.5455	0.	-1.329e-004
1192	7.9012	2.3636	0.	3.3877e-004
1193	7.9012	2.1818	0.	9.6385e-004
1194	7.9012	2.	0.	1.7374e-003
1195	7.9012	1.8182	0.	2.6574e-003
1196	7.9012	1.6364	0.	3.7277e-003
1197	7.9012	1.4545	0.	4.9682e-003
1198	7.9012	1.2727	0.	6.3828e-003
1199	7.9012	1.0909	0.	8.1362e-003
1200	7.9012	0.90909	0.	9.9805e-003
1201	7.9012	0.72727	0.	1.387e-002
1202	7.9012	0.54545	0.	1.4059e-002
1203	7.9012	0.36364	0.	4.8526e-002
1204	7.9012	0.18182	0.	0.13965
1205	7.7175	5.8182	0.	0.11782
1206	7.7175	5.6364	0.	5.4504e-002
1207	7.7175	5.4545	0.	1.5771e-002
1208	7.7175	5.2727	0.	1.5339e-002
1209	7.7175	5.0909	0.	1.0832e-002
1210	7.7175	4.9091	0.	8.6689e-003
1211	7.7175	4.7273	0.	6.6435e-003
1212	7.7175	4.5455	0.	5.0245e-003
1213	7.7175	4.3636	0.	3.619e-003
1214	7.7175	4.1818	0.	2.4177e-003
1215	7.7175	4.	0.	1.3933e-003
1216	7.7175	3.8182	0.	5.3763e-004
1217	7.7175	3.6364	0.	-1.4906e-004
1218	7.7175	3.4545	0.	-6.662e-004
1219	7.7175	3.2727	0.	-1.013e-003
1220	7.7175	3.0909	0.	-1.1875e-003
1221	7.7175	2.9091	0.	-1.1876e-003
1222	7.7175	2.7273	0.	-1.0129e-003
1223	7.7175	2.5455	0.	-6.6578e-004
1224	7.7175	2.3636	0.	-1.4895e-004
1225	7.7175	2.1818	0.	5.3822e-004
1226	7.7175	2.	0.	1.3935e-003
1227	7.7175	1.8182	0.	2.4186e-003
1228	7.7175	1.6364	0.	3.6195e-003
1229	7.7175	1.4545	0.	5.025e-003
1230	7.7175	1.2727	0.	6.6442e-003
1231	7.7175	1.0909	0.	8.6692e-003
1232	7.7175	0.90909	0.	1.0833e-002
1233	7.7175	0.72727	0.	1.534e-002
1234	7.7175	0.54545	0.	1.5772e-002
1235	7.7175	0.36364	0.	5.4506e-002
1236	7.7175	0.18182	0.	0.11782
1237	7.5338	5.8182	0.	0.10786
1238	7.5338	5.6364	0.	6.0919e-002
1239	7.5338	5.4545	0.	1.7642e-002
1240	7.5338	5.2727	0.	1.695e-002
1241	7.5338	5.0909	0.	1.1785e-002
1242	7.5338	4.9091	0.	9.2781e-003
1243	7.5338	4.7273	0.	6.9592e-003
1244	7.5338	4.5455	0.	5.1166e-003
1245	7.5338	4.3636	0.	3.5304e-003
1246	7.5338	4.1818	0.	2.1837e-003
1247	7.5338	4.	0.	1.0417e-003
1248	7.5338	3.8182	0.	9.4016e-005
1249	7.5338	3.6364	0.	-6.6426e-004
1250	7.5338	3.4545	0.	-1.2325e-003
1251	7.5338	3.2727	0.	-1.6132e-003
1252	7.5338	3.0909	0.	-1.8043e-003
1253	7.5338	2.9091	0.	-1.8044e-003
1254	7.5338	2.7273	0.	-1.6131e-003
1255	7.5338	2.5455	0.	-1.2325e-003
1256	7.5338	2.3636	0.	-6.6379e-004
1257	7.5338	2.1818	0.	9.4248e-005
1258	7.5338	2.	0.	1.0425e-003
1259	7.5338	1.8182	0.	2.1838e-003
1260	7.5338	1.6364	0.	3.531e-003
1261	7.5338	1.4545	0.	5.1176e-003
1262	7.5338	1.2727	0.	6.9596e-003
1263	7.5338	1.0909	0.	9.2788e-003
1264	7.5338	0.90909	0.	1.1786e-002
1265	7.5338	0.72727	0.	1.6951e-002
1266	7.5338	0.54545	0.	1.7642e-002
1267	7.5338	0.36364	0.	6.092e-002
1268	7.5338	0.18182	0.	0.10786
1269	7.35	5.8182	0.	0.10367
1270	7.35	5.6364	0.	6.782e-002
1271	7.35	5.4545	0.	1.9685e-002
1272	7.35	5.2727	0.	1.8713e-002
1273	7.35	5.0909	0.	1.2843e-002
1274	7.35	4.9091	0.	9.9665e-003
1275	7.35	4.7273	0.	7.33e-003
1276	7.35	4.5455	0.	5.2449e-003
1277	7.35	4.3636	0.	3.4598e-003
1278	7.35	4.1818	0.	1.9525e-003
1279	7.35	4.	0.	6.8116e-004
1280	7.35	3.8182	0.	-3.7036e-004
1281	7.35	3.6364	0.	-1.2087e-003
1282	7.35	3.4545	0.	-1.8355e-003
1283	7.35	3.2727	0.	-2.2544e-003
1284	7.35	3.0909	0.	-2.4646e-003
1285	7.35	2.9091	0.	-2.4645e-003
1286	7.35	2.7273	0.	-2.2542e-003
1287	7.35	2.5455	0.	-1.8352e-003
1288	7.35	2.3636	0.	-1.2083e-003
1289	7.35	2.1818	0.	-3.7006e-004
1290	7.35	2.	0.	6.8133e-004
1291	7.35	1.8182	0.	1.953e-003
1292	7.35	1.6364	0.	3.4605e-003
1293	7.35	1.4545	0.	5.2455e-003
1294	7.35	1.2727	0.	7.3306e-003
1295	7.35	1.0909	0.	9.9671e-003
1296	7.35	0.90909	0.	1.2845e-002
1297	7.35	0.72727	0.	1.8714e-002
1298	7.35	0.54545	0.	1.9685e-002
1299	7.35	0.36364	0.	6.7821e-002
1300	7.35	0.18182	0.	0.10368
1301	7.1663	5.8182	0.	0.10294
1302	7.1663	5.6364	0.	7.5262e-002
1303	7.1663	5.4545	0.	2.1916e-002
1304	7.1663	5.2727	0.	2.0641e-002
1305	7.1663	5.0909	0.	1.4014e-002
1306	7.1663	4.9091	0.	1.0738e-002
1307	7.1663	4.7273	0.	7.7577e-003
1308	7.1663	4.5455	0.	5.4086e-003
1309	7.1663	4.3636	0.	3.4073e-003
1310	7.1663	4.1818	0.	1.7232e-003
1311	7.1663	4.	0.	3.0805e-004
1312	7.1663	3.8182	0.	-8.5805e-004
1313	7.1663	3.6364	0.	-1.7856e-003
1314	7.1663	3.4545	0.	-2.4775e-003
1315	7.1663	3.2727	0.	-2.9396e-003
1316	7.1663	3.0909	0.	-3.1711e-003
1317	7.1663	2.9091	0.	-3.171e-003
1318	7.1663	2.7273	0.	-2.9396e-003
1319	7.1663	2.5455	0.	-2.4775e-003
1320	7.1663	2.3636	0.	-1.7851e-003
1321	7.1663	2.1818	0.	-8.5764e-004
1322	7.1663	2.	0.	3.0869e-004
1323	7.1663	1.8182	0.	1.7238e-003
1324	7.1663	1.6364	0.	3.408e-003
1325	7.1663	1.4545	0.	5.4088e-003
1326	7.1663	1.2727	0.	7.7587e-003
1327	7.1663	1.0909	0.	1.0739e-002
1328	7.1663	0.90909	0.	1.4016e-002
1329	7.1663	0.72727	0.	2.0642e-002
1330	7.1663	0.54545	0.	2.1917e-002
1331	7.1663	0.36364	0.	7.5263e-002
1332	7.1663	0.18182	0.	0.10294
1333	6.9825	5.8182	0.	0.10463
1334	6.9825	5.6364	0.	8.3303e-002
1335	6.9825	5.4545	0.	2.4354e-002
1336	6.9825	5.2727	0.	2.2748e-002
1337	6.9825	5.0909	0.	1.5306e-002
1338	6.9825	4.9091	0.	1.1598e-002
1339	6.9825	4.7273	0.	8.2456e-003
1340	6.9825	4.5455	0.	5.6091e-003
1341	6.9825	4.3636	0.	3.3715e-003
1342	6.9825	4.1818	0.	1.4947e-003
1343	6.9825	4.	0.	-7.8319e-005
1344	6.9825	3.8182	0.	-1.3716e-003
1345	6.9825	3.6364	0.	-2.3974e-003
1346	6.9825	3.4545	0.	-3.1623e-003
1347	6.9825	3.2727	0.	-3.6723e-003
1348	6.9825	3.0909	0.	-3.9275e-003
1349	6.9825	2.9091	0.	-3.9272e-003
1350	6.9825	2.7273	0.	-3.6722e-003
1351	6.9825	2.5455	0.	-3.1624e-003
1352	6.9825	2.3636	0.	-2.3973e-003
1353	6.9825	2.1818	0.	-1.3711e-003
1354	6.9825	2.	0.	-7.7908e-005
1355	6.9825	1.8182	0.	1.4952e-003
1356	6.9825	1.6364	0.	3.372e-003
1357	6.9825	1.4545	0.	5.6098e-003
1358	6.9825	1.2727	0.	8.2462e-003
1359	6.9825	1.0909	0.	1.1598e-002
1360	6.9825	0.90909	0.	1.5307e-002
1361	6.9825	0.72727	0.	2.2749e-002
1362	6.9825	0.54545	0.	2.4354e-002
1363	6.9825	0.36364	0.	8.3304e-002
1364	6.9825	0.18182	0.	0.10463
1365	6.7987	5.8182	0.	0.10825
1366	6.7987	5.6364	0.	9.2007e-002
1367	6.7987	5.4545	0.	2.7019e-002
1368	6.7987	5.2727	0.	2.5049e-002
1369	6.7987	5.0909	0.	1.6728e-002
1370	6.7987	4.9091	0.	1.2552e-002
1371	6.7987	4.7273	0.	8.797e-003
1372	6.7987	4.5455	0.	5.8487e-003
1373	6.7987	4.3636	0.	3.3537e-003
1374	6.7987	4.1818	0.	1.2661e-003
1375	6.7987	4.	0.	-4.8004e-004
1376	6.7987	3.8182	0.	-1.9124e-003
1377	6.7987	3.6364	0.	-3.0477e-003
1378	6.7987	3.4545	0.	-3.8926e-003
1379	6.7987	3.2727	0.	-4.4551e-003
1380	6.7987	3.0909	0.	-4.7363e-003
1381	6.7987	2.9091	0.	-4.7362e-003
1382	6.7987	2.7273	0.	-4.4551e-003
1383	6.7987	2.5455	0.	-3.8922e-003
1384	6.7987	2.3636	0.	-3.0471e-003
1385	6.7987	2.1818	0.	-1.912e-003
1386	6.7987	2.	0.	-4.7969e-004
1387	6.7987	1.8182	0.	1.2665e-003
1388	6.7987	1.6364	0.	3.3546e-003
1389	6.7987	1.4545	0.	5.8496e-003
1390	6.7987	1.2727	0.	8.7975e-003
1391	6.7987	1.0909	0.	1.2553e-002
1392	6.7987	0.90909	0.	1.6729e-002
1393	6.7987	0.72727	0.	2.505e-002
1394	6.7987	0.54545	0.	2.702e-002
1395	6.7987	0.36364	0.	9.2008e-002
1396	6.7987	0.18182	0.	0.10825
1397	6.615	5.8182	0.	0.11359
1398	6.615	5.6364	0.	0.10144
1399	6.615	5.4545	0.	2.9935e-002
1400	6.615	5.2727	0.	2.7564e-002
1401	6.615	5.0909	0.	1.8292e-002
1402	6.615	4.9091	0.	1.361e-002
1403	6.615	4.7273	0.	9.4173e-003
1404	6.615	4.5455	0.	6.1303e-003
1405	6.615	4.3636	0.	3.3549e-003
1406	6.615	4.1818	0.	1.0367e-003
1407	6.615	4.	0.	-8.9816e-004
1408	6.615	3.8182	0.	-2.4834e-003
1409	6.615	3.6364	0.	-3.7375e-003
1410	6.615	3.4545	0.	-4.6707e-003
1411	6.615	3.2727	0.	-5.2912e-003
1412	6.615	3.0909	0.	-5.6017e-003
1413	6.615	2.9091	0.	-5.6013e-003
1414	6.615	2.7273	0.	-5.2913e-003
1415	6.615	2.5455	0.	-4.6704e-003
1416	6.615	2.3636	0.	-3.7372e-003
1417	6.615	2.1818	0.	-2.4831e-003
1418	6.615	2.	0.	-8.9769e-004
1419	6.615	1.8182	0.	1.0373e-003
1420	6.615	1.6364	0.	3.3555e-003
1421	6.615	1.4545	0.	6.1308e-003
1422	6.615	1.2727	0.	9.4179e-003
1423	6.615	1.0909	0.	1.361e-002
1424	6.615	0.90909	0.	1.8293e-002
1425	6.615	0.72727	0.	2.7565e-002
1426	6.615	0.54545	0.	2.9935e-002
1427	6.615	0.36364	0.	0.10145
1428	6.615	0.18182	0.	0.11359
1429	6.4313	5.8182	0.	0.1206
1430	6.4313	5.6364	0.	0.11169
1431	6.4313	5.4545	0.	3.3128e-002
1432	6.4313	5.2727	0.	3.0312e-002
1433	6.4313	5.0909	0.	2.0011e-002
1434	6.4313	4.9091	0.	1.4779e-002
1435	6.4313	4.7273	0.	1.0112e-002
1436	6.4313	4.5455	0.	6.4568e-003
1437	6.4313	4.3636	0.	3.3766e-003
1438	6.4313	4.1818	0.	8.0773e-004
1439	6.4313	4.	0.	-1.3336e-003
1440	6.4313	3.8182	0.	-3.0854e-003
1441	6.4313	3.6364	0.	-4.4702e-003
1442	6.4313	3.4545	0.	-5.4995e-003
1443	6.4313	3.2727	0.	-6.184e-003
1444	6.4313	3.0909	0.	-6.5255e-003
1445	6.4313	2.9091	0.	-6.5255e-003
1446	6.4313	2.7273	0.	-6.1837e-003
1447	6.4313	2.5455	0.	-5.4995e-003
1448	6.4313	2.3636	0.	-4.4698e-003
1449	6.4313	2.1818	0.	-3.085e-003
1450	6.4313	2.	0.	-1.333e-003
1451	6.4313	1.8182	0.	8.0823e-004
1452	6.4313	1.6364	0.	3.3774e-003
1453	6.4313	1.4545	0.	6.4575e-003
1454	6.4313	1.2727	0.	1.0113e-002
1455	6.4313	1.0909	0.	1.478e-002
1456	6.4313	0.90909	0.	2.0012e-002
1457	6.4313	0.72727	0.	3.0312e-002
1458	6.4313	0.54545	0.	3.3129e-002
1459	6.4313	0.36364	0.	0.11169
1460	6.4313	0.18182	0.	0.1206
1461	6.2475	5.8182	0.	0.12931
1462	6.2475	5.6364	0.	0.12283
1463	6.2475	5.4545	0.	3.6628e-002
1464	6.2475	5.2727	0.	3.3316e-002
1465	6.2475	5.0909	0.	2.19e-002
1466	6.2475	4.9091	0.	1.6071e-002
1467	6.2475	4.7273	0.	1.0889e-002
1468	6.2475	4.5455	0.	6.8336e-003
1469	6.2475	4.3636	0.	3.4218e-003
1470	6.2475	4.1818	0.	5.7959e-004
1471	6.2475	4.	0.	-1.7864e-003
1472	6.2475	3.8182	0.	-3.7202e-003
1473	6.2475	3.6364	0.	-5.2469e-003
1474	6.2475	3.4545	0.	-6.3815e-003
1475	6.2475	3.2727	0.	-7.1351e-003
1476	6.2475	3.0909	0.	-7.5114e-003
1477	6.2475	2.9091	0.	-7.5113e-003
1478	6.2475	2.7273	0.	-7.135e-003
1479	6.2475	2.5455	0.	-6.3814e-003
1480	6.2475	2.3636	0.	-5.2467e-003
1481	6.2475	2.1818	0.	-3.7196e-003
1482	6.2475	2.	0.	-1.786e-003
1483	6.2475	1.8182	0.	5.8015e-004
1484	6.2475	1.6364	0.	3.4222e-003
1485	6.2475	1.4545	0.	6.8344e-003
1486	6.2475	1.2727	0.	1.089e-002
1487	6.2475	1.0909	0.	1.6071e-002
1488	6.2475	0.90909	0.	2.1901e-002
1489	6.2475	0.72727	0.	3.3317e-002
1490	6.2475	0.54545	0.	3.6629e-002
1491	6.2475	0.36364	0.	0.12283
1492	6.2475	0.18182	0.	0.12932
1493	6.0637	5.8182	0.	0.13987
1494	6.0637	5.6364	0.	0.13495
1495	6.0637	5.4545	0.	4.0469e-002
1496	6.0637	5.2727	0.	3.6603e-002
1497	6.0637	5.0909	0.	2.3976e-002
1498	6.0637	4.9091	0.	1.7497e-002
1499	6.0637	4.7273	0.	1.1756e-002
1500	6.0637	4.5455	0.	7.2656e-003
1501	6.0637	4.3636	0.	3.4931e-003
1502	6.0637	4.1818	0.	3.5415e-004
1503	6.0637	4.	0.	-2.2565e-003
1504	6.0637	3.8182	0.	-4.3877e-003
1505	6.0637	3.6364	0.	-6.0696e-003
1506	6.0637	3.4545	0.	-7.3185e-003
1507	6.0637	3.2727	0.	-8.1477e-003
1508	6.0637	3.0909	0.	-8.5614e-003
1509	6.0637	2.9091	0.	-8.5614e-003
1510	6.0637	2.7273	0.	-8.1476e-003
1511	6.0637	2.5455	0.	-7.3184e-003
1512	6.0637	2.3636	0.	-6.0693e-003
1513	6.0637	2.1818	0.	-4.3875e-003
1514	6.0637	2.	0.	-2.256e-003
1515	6.0637	1.8182	0.	3.5447e-004
1516	6.0637	1.6364	0.	3.4937e-003
1517	6.0637	1.4545	0.	7.2664e-003
1518	6.0637	1.2727	0.	1.1756e-002
1519	6.0637	1.0909	0.	1.7498e-002
1520	6.0637	0.90909	0.	2.3978e-002
1521	6.0637	0.72727	0.	3.6604e-002
1522	6.0637	0.54545	0.	4.047e-002
1523	6.0637	0.36364	0.	0.13495
1524	6.0637	0.18182	0.	0.13987
1525	5.88	5.8182	0.	0.15247
1526	5.88	5.6364	0.	0.14816
1527	5.88	5.4545	0.	4.4689e-002
1528	5.88	5.2727	0.	4.0202e-002
1529	5.88	5.0909	0.	2.6259e-002
1530	5.88	4.9091	0.	1.9072e-002
1531	5.88	4.7273	0.	1.2723e-002
1532	5.88	4.5455	0.	7.7597e-003
1533	5.88	4.3636	0.	3.5953e-003
1534	5.88	4.1818	0.	1.3309e-004
1535	5.88	4.	0.	-2.7429e-003
1536	5.88	3.8182	0.	-5.0889e-003
1537	5.88	3.6364	0.	-6.9385e-003
1538	5.88	3.4545	0.	-8.3114e-003
1539	5.88	3.2727	0.	-9.2226e-003
1540	5.88	3.0909	0.	-9.6769e-003
1541	5.88	2.9091	0.	-9.677e-003
1542	5.88	2.7273	0.	-9.2225e-003
1543	5.88	2.5455	0.	-8.3114e-003
1544	5.88	2.3636	0.	-6.9385e-003
1545	5.88	2.1818	0.	-5.0885e-003
1546	5.88	2.	0.	-2.7424e-003
1547	5.88	1.8182	0.	1.3385e-004
1548	5.88	1.6364	0.	3.5958e-003
1549	5.88	1.4545	0.	7.7603e-003
1550	5.88	1.2727	0.	1.2723e-002
1551	5.88	1.0909	0.	1.9073e-002
1552	5.88	0.90909	0.	2.6261e-002
1553	5.88	0.72727	0.	4.0203e-002
1554	5.88	0.54545	0.	4.4689e-002
1555	5.88	0.36364	0.	0.14816
1556	5.88	0.18182	0.	0.15247
1557	5.6962	5.8182	0.	0.16737
1558	5.6962	5.6364	0.	0.16257
1559	5.6962	5.4545	0.	4.933e-002
1560	5.6962	5.2727	0.	4.4145e-002
1561	5.6962	5.0909	0.	2.8771e-002
1562	5.6962	4.9091	0.	2.0812e-002
1563	5.6962	4.7273	0.	1.3801e-002
1564	5.6962	4.5455	0.	8.3235e-003
1565	5.6962	4.3636	0.	3.7329e-003
1566	5.6962	4.1818	0.	-7.9369e-005
1567	5.6962	4.	0.	-3.2438e-003
1568	5.6962	3.8182	0.	-5.8223e-003
1569	5.6962	3.6364	0.	-7.854e-003
1570	5.6962	3.4545	0.	-9.3611e-003
1571	5.6962	3.2727	0.	-1.036e-002
1572	5.6962	3.0909	0.	-1.0858e-002
1573	5.6962	2.9091	0.	-1.0859e-002
1574	5.6962	2.7273	0.	-1.036e-002
1575	5.6962	2.5455	0.	-9.3608e-003
1576	5.6962	2.3636	0.	-7.8534e-003
1577	5.6962	2.1818	0.	-5.822e-003
1578	5.6962	2.	0.	-3.2434e-003
1579	5.6962	1.8182	0.	-7.8783e-005
1580	5.6962	1.6364	0.	3.7336e-003
1581	5.6962	1.4545	0.	8.3243e-003
1582	5.6962	1.2727	0.	1.3802e-002
1583	5.6962	1.0909	0.	2.0813e-002
1584	5.6962	0.90909	0.	2.8772e-002
1585	5.6962	0.72727	0.	4.4146e-002
1586	5.6962	0.54545	0.	4.9331e-002
1587	5.6962	0.36364	0.	0.16257
1588	5.6962	0.18182	0.	0.16737
1589	5.5125	5.8182	0.	0.18493
1590	5.5125	5.6364	0.	0.17831
1591	5.5125	5.4545	0.	5.4442e-002
1592	5.5125	5.2727	0.	4.8469e-002
1593	5.5125	5.0909	0.	3.1536e-002
1594	5.5125	4.9091	0.	2.2735e-002
1595	5.5125	4.7273	0.	1.5003e-002
1596	5.5125	4.5455	0.	8.9662e-003
1597	5.5125	4.3636	0.	3.9126e-003
1598	5.5125	4.1818	0.	-2.7984e-004
1599	5.5125	4.	0.	-3.7564e-003
1600	5.5125	3.8182	0.	-6.5863e-003
1601	5.5125	3.6364	0.	-8.8138e-003
1602	5.5125	3.4545	0.	-1.0465e-002
1603	5.5125	3.2727	0.	-1.156e-002
1604	5.5125	3.0909	0.	-1.2105e-002
1605	5.5125	2.9091	0.	-1.2105e-002
1606	5.5125	2.7273	0.	-1.156e-002
1607	5.5125	2.5455	0.	-1.0465e-002
1608	5.5125	2.3636	0.	-8.8136e-003
1609	5.5125	2.1818	0.	-6.5858e-003
1610	5.5125	2.	0.	-3.7556e-003
1611	5.5125	1.8182	0.	-2.7932e-004
1612	5.5125	1.6364	0.	3.9131e-003
1613	5.5125	1.4545	0.	8.9667e-003
1614	5.5125	1.2727	0.	1.5004e-002
1615	5.5125	1.0909	0.	2.2735e-002
1616	5.5125	0.90909	0.	3.1537e-002
1617	5.5125	0.72727	0.	4.847e-002
1618	5.5125	0.54545	0.	5.4443e-002
1619	5.5125	0.36364	0.	0.17831
1620	5.5125	0.18182	0.	0.18493
1621	5.3288	5.8182	0.	0.20558
1622	5.3288	5.6364	0.	0.19551
1623	5.3288	5.4545	0.	6.008e-002
1624	5.3288	5.2727	0.	5.3215e-002
1625	5.3288	5.0909	0.	3.4581e-002
1626	5.3288	4.9091	0.	2.486e-002
1627	5.3288	4.7273	0.	1.6343e-002
1628	5.3288	4.5455	0.	9.6975e-003
1629	5.3288	4.3636	0.	4.1417e-003
1630	5.3288	4.1818	0.	-4.6271e-004
1631	5.3288	4.	0.	-4.2762e-003
1632	5.3288	3.8182	0.	-7.3769e-003
1633	5.3288	3.6364	0.	-9.8151e-003
1634	5.3288	3.4545	0.	-1.1621e-002
1635	5.3288	3.2727	0.	-1.2818e-002
1636	5.3288	3.0909	0.	-1.3413e-002
1637	5.3288	2.9091	0.	-1.3413e-002
1638	5.3288	2.7273	0.	-1.2817e-002
1639	5.3288	2.5455	0.	-1.1621e-002
1640	5.3288	2.3636	0.	-9.8149e-003
1641	5.3288	2.1818	0.	-7.3766e-003
1642	5.3288	2.	0.	-4.2758e-003
1643	5.3288	1.8182	0.	-4.6234e-004
1644	5.3288	1.6364	0.	4.1423e-003
1645	5.3288	1.4545	0.	9.6981e-003
1646	5.3288	1.2727	0.	1.6344e-002
1647	5.3288	1.0909	0.	2.486e-002
1648	5.3288	0.90909	0.	3.4582e-002
1649	5.3288	0.72727	0.	5.3216e-002
1650	5.3288	0.54545	0.	6.008e-002
1651	5.3288	0.36364	0.	0.19552
1652	5.3288	0.18182	0.	0.20558
1653	5.145	5.8182	0.	0.22987
1654	5.145	5.6364	0.	0.21435
1655	5.145	5.4545	0.	6.6305e-002
1656	5.145	5.2727	0.	5.8428e-002
1657	5.145	5.0909	0.	3.7938e-002
1658	5.145	4.9091	0.	2.721e-002
1659	5.145	4.7273	0.	1.7838e-002
1660	5.145	4.5455	0.	1.053e-002
1661	5.145	4.3636	0.	4.4285e-003
1662	5.145	4.1818	0.	-6.2112e-004
1663	5.145	4.	0.	-4.7978e-003
1664	5.145	3.8182	0.	-8.1891e-003
1665	5.145	3.6364	0.	-1.0853e-002
1666	5.145	3.4545	0.	-1.2824e-002
1667	5.145	3.2727	0.	-1.4128e-002
1668	5.145	3.0909	0.	-1.4777e-002
1669	5.145	2.9091	0.	-1.4777e-002
1670	5.145	2.7273	0.	-1.4128e-002
1671	5.145	2.5455	0.	-1.2824e-002
1672	5.145	2.3636	0.	-1.0852e-002
1673	5.145	2.1818	0.	-8.1887e-003
1674	5.145	2.	0.	-4.7973e-003
1675	5.145	1.8182	0.	-6.2048e-004
1676	5.145	1.6364	0.	4.4292e-003
1677	5.145	1.4545	0.	1.053e-002
1678	5.145	1.2727	0.	1.7839e-002
1679	5.145	1.0909	0.	2.721e-002
1680	5.145	0.90909	0.	3.7939e-002
1681	5.145	0.72727	0.	5.8429e-002
1682	5.145	0.54545	0.	6.6305e-002
1683	5.145	0.36364	0.	0.21435
1684	5.145	0.18182	0.	0.22987
1685	4.9612	5.8182	0.	0.25847
1686	4.9612	5.6364	0.	0.23498
1687	4.9612	5.4545	0.	7.3189e-002
1688	4.9612	5.2727	0.	6.4161e-002
1689	4.9612	5.0909	0.	4.1641e-002
1690	4.9612	4.9091	0.	2.981e-002
1691	4.9612	4.7273	0.	1.9505e-002
1692	4.9612	4.5455	0.	1.1476e-002
1693	4.9612	4.3636	0.	4.7836e-003
1694	4.9612	4.1818	0.	-7.4649e-004
1695	4.9612	4.	0.	-5.3129e-003
1696	4.9612	3.8182	0.	-9.0145e-003
1697	4.9612	3.6364	0.	-1.1917e-002
1698	4.9612	3.4545	0.	-1.4063e-002
1699	4.9612	3.2727	0.	-1.5481e-002
1700	4.9612	3.0909	0.	-1.6186e-002
1701	4.9612	2.9091	0.	-1.6186e-002
1702	4.9612	2.7273	0.	-1.548e-002
1703	4.9612	2.5455	0.	-1.4063e-002
1704	4.9612	2.3636	0.	-1.1917e-002
1705	4.9612	2.1818	0.	-9.0141e-003
1706	4.9612	2.	0.	-5.3125e-003
1707	4.9612	1.8182	0.	-7.4612e-004
1708	4.9612	1.6364	0.	4.7841e-003
1709	4.9612	1.4545	0.	1.1476e-002
1710	4.9612	1.2727	0.	1.9506e-002
1711	4.9612	1.0909	0.	2.981e-002
1712	4.9612	0.90909	0.	4.1642e-002
1713	4.9612	0.72727	0.	6.4162e-002
1714	4.9612	0.54545	0.	7.3189e-002
1715	4.9612	0.36364	0.	0.23498
1716	4.9612	0.18182	0.	0.25847
1717	4.7775	5.8182	0.	0.29223
1718	4.7775	5.6364	0.	0.25763
1719	4.7775	5.4545	0.	8.0813e-002
1720	4.7775	5.2727	0.	7.0471e-002
1721	4.7775	5.0909	0.	4.5728e-002
1722	4.7775	4.9091	0.	3.2687e-002
1723	4.7775	4.7273	0.	2.1363e-002
1724	4.7775	4.5455	0.	1.255e-002
1725	4.7775	4.3636	0.	5.2187e-003
1726	4.7775	4.1818	0.	-8.2856e-004
1727	4.7775	4.	0.	-5.8114e-003
1728	4.7775	3.8182	0.	-9.842e-003
1729	4.7775	3.6364	0.	-1.2997e-002
1730	4.7775	3.4545	0.	-1.5325e-002
1731	4.7775	3.2727	0.	-1.6861e-002
1732	4.7775	3.0909	0.	-1.7625e-002
1733	4.7775	2.9091	0.	-1.7625e-002
1734	4.7775	2.7273	0.	-1.6861e-002
1735	4.7775	2.5455	0.	-1.5325e-002
1736	4.7775	2.3636	0.	-1.2997e-002
1737	4.7775	2.1818	0.	-9.8418e-003
1738	4.7775	2.	0.	-5.811e-003
1739	4.7775	1.8182	0.	-8.2807e-004
1740	4.7775	1.6364	0.	5.2192e-003
1741	4.7775	1.4545	0.	1.2551e-002
1742	4.7775	1.2727	0.	2.1364e-002
1743	4.7775	1.0909	0.	3.2688e-002
1744	4.7775	0.90909	0.	4.5729e-002
1745	4.7775	0.72727	0.	7.0472e-002
1746	4.7775	0.54545	0.	8.0813e-002
1747	4.7775	0.36364	0.	0.25763
1748	4.7775	0.18182	0.	0.29223
1749	4.5938	5.8182	0.	0.33222
1750	4.5938	5.6364	0.	0.28252
1751	4.5938	5.4545	0.	8.9269e-002
1752	4.5938	5.2727	0.	7.7423e-002
1753	4.5938	5.0909	0.	5.0243e-002
1754	4.5938	4.9091	0.	3.5872e-002
1755	4.5938	4.7273	0.	2.3435e-002
1756	4.5938	4.5455	0.	1.3769e-002
1757	4.5938	4.3636	0.	5.7468e-003
1758	4.5938	4.1818	0.	-8.543e-004
1759	4.5938	4.	0.	-6.2795e-003
1760	4.5938	3.8182	0.	-1.0656e-002
1761	4.5938	3.6364	0.	-1.4074e-002
1762	4.5938	3.4545	0.	-1.659e-002
1763	4.5938	3.2727	0.	-1.8248e-002
1764	4.5938	3.0909	0.	-1.9071e-002
1765	4.5938	2.9091	0.	-1.9071e-002
1766	4.5938	2.7273	0.	-1.8248e-002
1767	4.5938	2.5455	0.	-1.659e-002
1768	4.5938	2.3636	0.	-1.4073e-002
1769	4.5938	2.1818	0.	-1.0656e-002
1770	4.5938	2.	0.	-6.2791e-003
1771	4.5938	1.8182	0.	-8.5386e-004
1772	4.5938	1.6364	0.	5.7472e-003
1773	4.5938	1.4545	0.	1.377e-002
1774	4.5938	1.2727	0.	2.3436e-002
1775	4.5938	1.0909	0.	3.5873e-002
1776	4.5938	0.90909	0.	5.0244e-002
1777	4.5938	0.72727	0.	7.7424e-002
1778	4.5938	0.54545	0.	8.9269e-002
1779	4.5938	0.36364	0.	0.28252
1780	4.5938	0.18182	0.	0.33223
1781	4.41	5.8182	0.	0.37979
1782	4.41	5.6364	0.	0.30992
1783	4.41	5.4545	0.	9.8663e-002
1784	4.41	5.2727	0.	8.5089e-002
1785	4.41	5.0909	0.	5.5231e-002
1786	4.41	4.9091	0.	3.9397e-002
1787	4.41	4.7273	0.	2.5743e-002
1788	4.41	4.5455	0.	1.515e-002
1789	4.41	4.3636	0.	6.3834e-003
1790	4.41	4.1818	0.	-8.0844e-004
1791	4.41	4.	0.	-6.6994e-003
1792	4.41	3.8182	0.	-1.1436e-002
1793	4.41	3.6364	0.	-1.5123e-002
1794	4.41	3.4545	0.	-1.783e-002
1795	4.41	3.2727	0.	-1.961e-002
1796	4.41	3.0909	0.	-2.0493e-002
1797	4.41	2.9091	0.	-2.0493e-002
1798	4.41	2.7273	0.	-1.961e-002
1799	4.41	2.5455	0.	-1.783e-002
1800	4.41	2.3636	0.	-1.5123e-002
1801	4.41	2.1818	0.	-1.1436e-002
1802	4.41	2.	0.	-6.6991e-003
1803	4.41	1.8182	0.	-8.0791e-004
1804	4.41	1.6364	0.	6.3841e-003
1805	4.41	1.4545	0.	1.5151e-002
1806	4.41	1.2727	0.	2.5744e-002
1807	4.41	1.0909	0.	3.9398e-002
1808	4.41	0.90909	0.	5.5232e-002
1809	4.41	0.72727	0.	8.5089e-002
1810	4.41	0.54545	0.	9.8663e-002
1811	4.41	0.36364	0.	0.30992
1812	4.41	0.18182	0.	0.37979
1813	4.2263	5.8182	0.	0.43663
1814	4.2263	5.6364	0.	0.34013
1815	4.2263	5.4545	0.	0.10911
1816	4.2263	5.2727	0.	9.355e-002
1817	4.2263	5.0909	0.	6.0745e-002
1818	4.2263	4.9091	0.	4.3297e-002
1819	4.2263	4.7273	0.	2.8311e-002
1820	4.2263	4.5455	0.	1.6712e-002
1821	4.2263	4.3636	0.	7.1459e-003
1822	4.2263	4.1818	0.	-6.7186e-004
1823	4.2263	4.	0.	-7.0489e-003
1824	4.2263	3.8182	0.	-1.2154e-002
1825	4.2263	3.6364	0.	-1.6112e-002
1826	4.2263	3.4545	0.	-1.9009e-002
1827	4.2263	3.2727	0.	-2.0908e-002
1828	4.2263	3.0909	0.	-2.1848e-002
1829	4.2263	2.9091	0.	-2.1848e-002
1830	4.2263	2.7273	0.	-2.0908e-002
1831	4.2263	2.5455	0.	-1.9009e-002
1832	4.2263	2.3636	0.	-1.6112e-002
1833	4.2263	2.1818	0.	-1.2154e-002
1834	4.2263	2.	0.	-7.0486e-003
1835	4.2263	1.8182	0.	-6.7151e-004
1836	4.2263	1.6364	0.	7.1462e-003
1837	4.2263	1.4545	0.	1.6713e-002
1838	4.2263	1.2727	0.	2.8312e-002
1839	4.2263	1.0909	0.	4.3298e-002
1840	4.2263	0.90909	0.	6.0746e-002
1841	4.2263	0.72727	0.	9.3551e-002
1842	4.2263	0.54545	0.	0.10911
1843	4.2263	0.36364	0.	0.34013
1844	4.2263	0.18182	0.	0.43663
1845	4.0425	5.8182	0.	0.50497
1846	4.0425	5.6364	0.	0.3735
1847	4.0425	5.4545	0.	0.12076
1848	4.0425	5.2727	0.	0.1029
1849	4.0425	5.0909	0.	6.6841e-002
1850	4.0425	4.9091	0.	4.7609e-002
1851	4.0425	4.7273	0.	3.1165e-002
1852	4.0425	4.5455	0.	1.8474e-002
1853	4.0425	4.3636	0.	8.053e-003
1854	4.0425	4.1818	0.	-4.2203e-004
1855	4.0425	4.	0.	-7.2987e-003
1856	4.0425	3.8182	0.	-1.2774e-002
1857	4.0425	3.6364	0.	-1.6998e-002
1858	4.0425	3.4545	0.	-2.0075e-002
1859	4.0425	3.2727	0.	-2.2085e-002
1860	4.0425	3.0909	0.	-2.3078e-002
1861	4.0425	2.9091	0.	-2.3078e-002
1862	4.0425	2.7273	0.	-2.2085e-002
1863	4.0425	2.5455	0.	-2.0075e-002
1864	4.0425	2.3636	0.	-1.6998e-002
1865	4.0425	2.1818	0.	-1.2774e-002
1866	4.0425	2.	0.	-7.2983e-003
1867	4.0425	1.8182	0.	-4.2156e-004
1868	4.0425	1.6364	0.	8.0535e-003
1869	4.0425	1.4545	0.	1.8475e-002
1870	4.0425	1.2727	0.	3.1166e-002
1871	4.0425	1.0909	0.	4.761e-002
1872	4.0425	0.90909	0.	6.6842e-002
1873	4.0425	0.72727	0.	0.1029
1874	4.0425	0.54545	0.	0.12076
1875	4.0425	0.36364	0.	0.37351
1876	4.0425	0.18182	0.	0.50497
1877	3.8588	5.8182	0.	0.58768
1878	3.8588	5.6364	0.	0.41047
1879	3.8588	5.4545	0.	0.13377
1880	3.8588	5.2727	0.	0.11323
1881	3.8588	5.0909	0.	7.358e-002
1882	3.8588	4.9091	0.	5.2372e-002
1883	3.8588	4.7273	0.	3.4329e-002
1884	3.8588	4.5455	0.	2.0457e-002
1885	3.8588	4.3636	0.	9.1267e-003
1886	3.8588	4.1818	0.	-3.1181e-005
1887	3.8588	4.	0.	-7.412e-003
1888	3.8588	3.8182	0.	-1.3249e-002
1889	3.8588	3.6364	0.	-1.7721e-002
1890	3.8588	3.4545	0.	-2.0961e-002
1891	3.8588	3.2727	0.	-2.3069e-002
1892	3.8588	3.0909	0.	-2.4107e-002
1893	3.8588	2.9091	0.	-2.4107e-002
1894	3.8588	2.7273	0.	-2.3069e-002
1895	3.8588	2.5455	0.	-2.0961e-002
1896	3.8588	2.3636	0.	-1.7721e-002
1897	3.8588	2.1818	0.	-1.3249e-002
1898	3.8588	2.	0.	-7.4116e-003
1899	3.8588	1.8182	0.	-3.0733e-005
1900	3.8588	1.6364	0.	9.1272e-003
1901	3.8588	1.4545	0.	2.0458e-002
1902	3.8588	1.2727	0.	3.433e-002
1903	3.8588	1.0909	0.	5.2372e-002
1904	3.8588	0.90909	0.	7.3581e-002
1905	3.8588	0.72727	0.	0.11323
1906	3.8588	0.54545	0.	0.13377
1907	3.8588	0.36364	0.	0.41047
1908	3.8588	0.18182	0.	0.58768
1909	3.675	5.8182	0.	0.6886
1910	3.675	5.6364	0.	0.4515
1911	3.675	5.4545	0.	0.14832
1912	3.675	5.2727	0.	0.12467
1913	3.675	5.0909	0.	8.1027e-002
1914	3.675	4.9091	0.	5.7623e-002
1915	3.675	4.7273	0.	3.7828e-002
1916	3.675	4.5455	0.	2.268e-002
1917	3.675	4.3636	0.	1.0391e-002
1918	3.675	4.1818	0.	5.3468e-004
1919	3.675	4.	0.	-7.3414e-003
1920	3.675	3.8182	0.	-1.3516e-002
1921	3.675	3.6364	0.	-1.8208e-002
1922	3.675	3.4545	0.	-2.1581e-002
1923	3.675	3.2727	0.	-2.3763e-002
1924	3.675	3.0909	0.	-2.4834e-002
1925	3.675	2.9091	0.	-2.4834e-002
1926	3.675	2.7273	0.	-2.3763e-002
1927	3.675	2.5455	0.	-2.1581e-002
1928	3.675	2.3636	0.	-1.8207e-002
1929	3.675	2.1818	0.	-1.3516e-002
1930	3.675	2.	0.	-7.3411e-003
1931	3.675	1.8182	0.	5.3514e-004
1932	3.675	1.6364	0.	1.0391e-002
1933	3.675	1.4545	0.	2.2681e-002
1934	3.675	1.2727	0.	3.7828e-002
1935	3.675	1.0909	0.	5.7624e-002
1936	3.675	0.90909	0.	8.1028e-002
1937	3.675	0.72727	0.	0.12467
1938	3.675	0.54545	0.	0.14832
1939	3.675	0.36364	0.	0.4515
1940	3.675	0.18182	0.	0.6886
1941	3.4913	5.8182	0.	0.81287
1942	3.4913	5.6364	0.	0.49719
1943	3.4913	5.4545	0.	0.16463
1944	3.4913	5.2727	0.	0.13734
1945	3.4913	5.0909	0.	8.9251e-002
1946	3.4913	4.9091	0.	6.3402e-002
1947	3.4913	4.7273	0.	4.1683e-002
1948	3.4913	4.5455	0.	2.5164e-002
1949	3.4913	4.3636	0.	1.1873e-002
1950	3.4913	4.1818	0.	1.3183e-003
1951	3.4913	4.	0.	-7.0262e-003
1952	3.4913	3.8182	0.	-1.3495e-002
1953	3.4913	3.6364	0.	-1.8358e-002
1954	3.4913	3.4545	0.	-2.1823e-002
1955	3.4913	3.2727	0.	-2.4046e-002
1956	3.4913	3.0909	0.	-2.5132e-002
1957	3.4913	2.9091	0.	-2.5132e-002
1958	3.4913	2.7273	0.	-2.4046e-002
1959	3.4913	2.5455	0.	-2.1823e-002
1960	3.4913	2.3636	0.	-1.8358e-002
1961	3.4913	2.1818	0.	-1.3495e-002
1962	3.4913	2.	0.	-7.0257e-003
1963	3.4913	1.8182	0.	1.3187e-003
1964	3.4913	1.6364	0.	1.1874e-002
1965	3.4913	1.4545	0.	2.5165e-002
1966	3.4913	1.2727	0.	4.1684e-002
1967	3.4913	1.0909	0.	6.3402e-002
1968	3.4913	0.90909	0.	8.9252e-002
1969	3.4913	0.72727	0.	0.13734
1970	3.4913	0.54545	0.	0.16463
1971	3.4913	0.36364	0.	0.49719
1972	3.4913	0.18182	0.	0.81287
1973	3.3075	5.8182	0.	0.96756
1974	3.3075	5.6364	0.	0.54823
1975	3.3075	5.4545	0.	0.18294
1976	3.3075	5.2727	0.	0.15138
1977	3.3075	5.0909	0.	9.8324e-002
1978	3.3075	4.9091	0.	6.9742e-002
1979	3.3075	4.7273	0.	4.5914e-002
1980	3.3075	4.5455	0.	2.7928e-002
1981	3.3075	4.3636	0.	1.3607e-002
1982	3.3075	4.1818	0.	2.3735e-003
1983	3.3075	4.	0.	-6.3871e-003
1984	3.3075	3.8182	0.	-1.3083e-002
1985	3.3075	3.6364	0.	-1.8048e-002
1986	3.3075	3.4545	0.	-2.1542e-002
1987	3.3075	3.2727	0.	-2.3762e-002
1988	3.3075	3.0909	0.	-2.484e-002
1989	3.3075	2.9091	0.	-2.484e-002
1990	3.3075	2.7273	0.	-2.3762e-002
1991	3.3075	2.5455	0.	-2.1541e-002
1992	3.3075	2.3636	0.	-1.8048e-002
1993	3.3075	2.1818	0.	-1.3083e-002
1994	3.3075	2.	0.	-6.3867e-003
1995	3.3075	1.8182	0.	2.3738e-003
1996	3.3075	1.6364	0.	1.3608e-002
1997	3.3075	1.4545	0.	2.7928e-002
1998	3.3075	1.2727	0.	4.5914e-002
1999	3.3075	1.0909	0.	6.9743e-002
2000	3.3075	0.90909	0.	9.8326e-002
2001	3.3075	0.72727	0.	0.15138
2002	3.3075	0.54545	0.	0.18294
2003	3.3075	0.36364	0.	0.54823
2004	3.3075	0.18182	0.	0.96756
2005	3.1237	5.8182	0.	1.1626
2006	3.1237	5.6364	0.	0.60545
2007	3.1237	5.4545	0.	0.20355
2008	3.1237	5.2727	0.	0.16696
2009	3.1237	5.0909	0.	0.10832
2010	3.1237	4.9091	0.	7.6677e-002
2011	3.1237	4.7273	0.	5.0535e-002
2012	3.1237	4.5455	0.	3.0993e-002
2013	3.1237	4.3636	0.	1.5634e-002
2014	3.1237	4.1818	0.	3.7721e-003
2015	3.1237	4.	0.	-5.3205e-003
2016	3.1237	3.8182	0.	-1.2145e-002
2017	3.1237	3.6364	0.	-1.7115e-002
2018	3.1237	3.4545	0.	-2.0557e-002
2019	3.1237	3.2727	0.	-2.2716e-002
2020	3.1237	3.0909	0.	-2.3755e-002
2021	3.1237	2.9091	0.	-2.3755e-002
2022	3.1237	2.7273	0.	-2.2716e-002
2023	3.1237	2.5455	0.	-2.0557e-002
2024	3.1237	2.3636	0.	-1.7115e-002
2025	3.1237	2.1818	0.	-1.2145e-002
2026	3.1237	2.	0.	-5.3202e-003
2027	3.1237	1.8182	0.	3.7724e-003
2028	3.1237	1.6364	0.	1.5635e-002
2029	3.1237	1.4545	0.	3.0993e-002
2030	3.1237	1.2727	0.	5.0536e-002
2031	3.1237	1.0909	0.	7.6677e-002
2032	3.1237	0.90909	0.	0.10832
2033	3.1237	0.72727	0.	0.16696
2034	3.1237	0.54545	0.	0.20355
2035	3.1237	0.36364	0.	0.60545
2036	3.1237	0.18182	0.	1.1626
2037	2.94	5.8182	0.	1.4124
2038	2.94	5.6364	0.	0.66988
2039	2.94	5.4545	0.	0.22681
2040	2.94	5.2727	0.	0.18425
2041	2.94	5.0909	0.	0.11931
2042	2.94	4.9091	0.	8.4227e-002
2043	2.94	4.7273	0.	5.5556e-002
2044	2.94	4.5455	0.	3.4382e-002
2045	2.94	4.3636	0.	1.8009e-002
2046	2.94	4.1818	0.	5.608e-003
2047	2.94	4.	0.	-3.6915e-003
2048	2.94	3.8182	0.	-1.051e-002
2049	2.94	3.6364	0.	-1.5361e-002
2050	2.94	3.4545	0.	-1.8648e-002
2051	2.94	3.2727	0.	-2.0673e-002
2052	2.94	3.0909	0.	-2.1636e-002
2053	2.94	2.9091	0.	-2.1636e-002
2054	2.94	2.7273	0.	-2.0673e-002
2055	2.94	2.5455	0.	-1.8647e-002
2056	2.94	2.3636	0.	-1.5361e-002
2057	2.94	2.1818	0.	-1.0509e-002
2058	2.94	2.	0.	-3.6912e-003
2059	2.94	1.8182	0.	5.6082e-003
2060	2.94	1.6364	0.	1.8009e-002
2061	2.94	1.4545	0.	3.4382e-002
2062	2.94	1.2727	0.	5.5557e-002
2063	2.94	1.0909	0.	8.4228e-002
2064	2.94	0.90909	0.	0.11932
2065	2.94	0.72727	0.	0.18425
2066	2.94	0.54545	0.	0.22681
2067	2.94	0.36364	0.	0.66988
2068	2.94	0.18182	0.	1.4124
2069	2.7562	5.8182	0.	1.7381
2070	2.7562	5.6364	0.	0.74276
2071	2.7562	5.4545	0.	0.25312
2072	2.7562	5.2727	0.	0.20346
2073	2.7562	5.0909	0.	0.13138
2074	2.7562	4.9091	0.	9.242e-002
2075	2.7562	4.7273	0.	6.0994e-002
2076	2.7562	4.5455	0.	3.8138e-002
2077	2.7562	4.3636	0.	2.0821e-002
2078	2.7562	4.1818	0.	8.0241e-003
2079	2.7562	4.	0.	-1.3083e-003
2080	2.7562	3.8182	0.	-7.9452e-003
2081	2.7562	3.6364	0.	-1.2522e-002
2082	2.7562	3.4545	0.	-1.5531e-002
2083	2.7562	3.2727	0.	-1.7339e-002
2084	2.7562	3.0909	0.	-1.8184e-002
2085	2.7562	2.9091	0.	-1.8184e-002
2086	2.7562	2.7273	0.	-1.7339e-002
2087	2.7562	2.5455	0.	-1.5531e-002
2088	2.7562	2.3636	0.	-1.2522e-002
2089	2.7562	2.1818	0.	-7.945e-003
2090	2.7562	2.	0.	-1.3079e-003
2091	2.7562	1.8182	0.	8.0245e-003
2092	2.7562	1.6364	0.	2.0822e-002
2093	2.7562	1.4545	0.	3.8139e-002
2094	2.7562	1.2727	0.	6.0995e-002
2095	2.7562	1.0909	0.	9.2421e-002
2096	2.7562	0.90909	0.	0.13138
2097	2.7562	0.72727	0.	0.20346
2098	2.7562	0.54545	0.	0.25312
2099	2.7562	0.36364	0.	0.74276
2100	2.7562	0.18182	0.	1.7381
2101	2.5725	5.8182	0.	2.1723
2102	2.5725	5.6364	0.	0.82564
2103	2.5725	5.4545	0.	0.28296
2104	2.5725	5.2727	0.	0.22479
2105	2.5725	5.0909	0.	0.14457
2106	2.5725	4.9091	0.	0.10124
2107	2.5725	4.7273	0.	6.6833e-002
2108	2.5725	4.5455	0.	4.2293e-002
2109	2.5725	4.3636	0.	2.4166e-002
2110	2.5725	4.1818	0.	1.118e-002
2111	2.5725	4.	0.	2.0423e-003
2112	2.5725	3.8182	0.	-4.1997e-003
2113	2.5725	3.6364	0.	-8.3228e-003
2114	2.5725	3.4545	0.	-1.0919e-002
2115	2.5725	3.2727	0.	-1.242e-002
2116	2.5725	3.0909	0.	-1.3102e-002
2117	2.5725	2.9091	0.	-1.3102e-002
2118	2.5725	2.7273	0.	-1.242e-002
2119	2.5725	2.5455	0.	-1.0919e-002
2120	2.5725	2.3636	0.	-8.3226e-003
2121	2.5725	2.1818	0.	-4.1995e-003
2122	2.5725	2.	0.	2.0427e-003
2123	2.5725	1.8182	0.	1.118e-002
2124	2.5725	1.6364	0.	2.4166e-002
2125	2.5725	1.4545	0.	4.2294e-002
2126	2.5725	1.2727	0.	6.6834e-002
2127	2.5725	1.0909	0.	0.10124
2128	2.5725	0.90909	0.	0.14457
2129	2.5725	0.72727	0.	0.22479
2130	2.5725	0.54545	0.	0.28296
2131	2.5725	0.36364	0.	0.82564
2132	2.5725	0.18182	0.	2.1723
2133	2.3888	5.8182	0.	2.767
2134	2.3888	5.6364	0.	0.92053
2135	2.3888	5.4545	0.	0.31702
2136	2.3888	5.2727	0.	0.24861
2137	2.3888	5.0909	0.	0.15907
2138	2.3888	4.9091	0.	0.11082
2139	2.3888	4.7273	0.	7.3244e-002
2140	2.3888	4.5455	0.	4.7095e-002
2141	2.3888	4.3636	0.	2.838e-002
2142	2.3888	4.1818	0.	1.549e-002
2143	2.3888	4.	0.	6.8311e-003
2144	2.3888	3.8182	0.	1.2292e-003
2145	2.3888	3.6364	0.	-2.2488e-003
2146	2.3888	3.4545	0.	-4.296e-003
2147	2.3888	3.2727	0.	-5.4041e-003
2148	2.3888	3.0909	0.	-5.8834e-003
2149	2.3888	2.9091	0.	-5.8832e-003
2150	2.3888	2.7273	0.	-5.404e-003
2151	2.3888	2.5455	0.	-4.2959e-003
2152	2.3888	2.3636	0.	-2.2487e-003
2153	2.3888	2.1818	0.	1.2292e-003
2154	2.3888	2.	0.	6.8313e-003
2155	2.3888	1.8182	0.	1.549e-002
2156	2.3888	1.6364	0.	2.838e-002
2157	2.3888	1.4545	0.	4.7095e-002
2158	2.3888	1.2727	0.	7.3245e-002
2159	2.3888	1.0909	0.	0.11082
2160	2.3888	0.90909	0.	0.15907
2161	2.3888	0.72727	0.	0.24861
2162	2.3888	0.54545	0.	0.31702
2163	2.3888	0.36364	0.	0.92053
2164	2.3888	0.18182	0.	2.767
2165	2.205	5.8182	0.	3.6085
2166	2.205	5.6364	0.	1.0296
2167	2.205	5.4545	0.	0.35566
2168	2.205	5.2727	0.	0.27482
2169	2.205	5.0909	0.	0.1745
2170	2.205	4.9091	0.	0.12072
2171	2.205	4.7273	0.	7.9836e-002
2172	2.205	4.5455	0.	5.225e-002
2173	2.205	4.3636	0.	3.3272e-002
2174	2.205	4.1818	0.	2.0834e-002
2175	2.205	4.	0.	1.297e-002
2176	2.205	3.8182	0.	8.2541e-003
2177	2.205	3.6364	0.	5.5925e-003
2178	2.205	3.4545	0.	4.2028e-003
2179	2.205	3.2727	0.	3.548e-003
2180	2.205	3.0909	0.	3.2988e-003
2181	2.205	2.9091	0.	3.2988e-003
2182	2.205	2.7273	0.	3.548e-003
2183	2.205	2.5455	0.	4.2029e-003
2184	2.205	2.3636	0.	5.5927e-003
2185	2.205	2.1818	0.	8.2541e-003
2186	2.205	2.	0.	1.297e-002
2187	2.205	1.8182	0.	2.0834e-002
2188	2.205	1.6364	0.	3.3272e-002
2189	2.205	1.4545	0.	5.225e-002
2190	2.205	1.2727	0.	7.9836e-002
2191	2.205	1.0909	0.	0.12072
2192	2.205	0.90909	0.	0.1745
2193	2.205	0.72727	0.	0.27482
2194	2.205	0.54545	0.	0.35566
2195	2.205	0.36364	0.	1.0296
2196	2.205	0.18182	0.	3.6085
2197	2.0213	5.8182	0.	4.8475
2198	2.0213	5.6364	0.	1.1571
2199	2.0213	5.4545	0.	0.40134
2200	2.0213	5.2727	0.	0.30553
2201	2.0213	5.0909	0.	0.19285
2202	2.0213	4.9091	0.	0.13302
2203	2.0213	4.7273	0.	8.8868e-002
2204	2.0213	4.5455	0.	6.0227e-002
2205	2.0213	4.3636	0.	4.1468e-002
2206	2.0213	4.1818	0.	2.9926e-002
2207	2.0213	4.	0.	2.3194e-002
2208	2.0213	3.8182	0.	1.9582e-002
2209	2.0213	3.6364	0.	1.7859e-002
2210	2.0213	3.4545	0.	1.7181e-002
2211	2.0213	3.2727	0.	1.6997e-002
2212	2.0213	3.0909	0.	1.698e-002
2213	2.0213	2.9091	0.	1.698e-002
2214	2.0213	2.7273	0.	1.6997e-002
2215	2.0213	2.5455	0.	1.7181e-002
2216	2.0213	2.3636	0.	1.7859e-002
2217	2.0213	2.1818	0.	1.9582e-002
2218	2.0213	2.	0.	2.3194e-002
2219	2.0213	1.8182	0.	2.9926e-002
2220	2.0213	1.6364	0.	4.1468e-002
2221	2.0213	1.4545	0.	6.0227e-002
2222	2.0213	1.2727	0.	8.8868e-002
2223	2.0213	1.0909	0.	0.13302
2224	2.0213	0.90909	0.	0.19285
2225	2.0213	0.72727	0.	0.30552
2226	2.0213	0.54545	0.	0.40134
2227	2.0213	0.36364	0.	1.1571
2228	2.0213	0.18182	0.	4.8475
2229	1.8375	5.8182	0.	6.7534
2230	1.8375	5.6364	0.	1.3028
2231	1.8375	5.4545	0.	0.44939
2232	1.8375	5.2727	0.	0.33452
2233	1.8375	5.0909	0.	0.20712
2234	1.8375	4.9091	0.	0.14044
2235	1.8375	4.7273	0.	9.3014e-002
2236	1.8375	4.5455	0.	6.37e-002
2237	1.8375	4.3636	0.	4.5594e-002
2238	1.8375	4.1818	0.	3.5271e-002
2239	1.8375	4.	0.	2.9834e-002
2240	1.8375	3.8182	0.	2.7355e-002
2241	1.8375	3.6364	0.	2.6508e-002
2242	1.8375	3.4545	0.	2.6446e-002
2243	1.8375	3.2727	0.	2.6645e-002
2244	1.8375	3.0909	0.	2.6811e-002
2245	1.8375	2.9091	0.	2.6811e-002
2246	1.8375	2.7273	0.	2.6646e-002
2247	1.8375	2.5455	0.	2.6446e-002
2248	1.8375	2.3636	0.	2.6508e-002
2249	1.8375	2.1818	0.	2.7355e-002
2250	1.8375	2.	0.	2.9835e-002
2251	1.8375	1.8182	0.	3.5271e-002
2252	1.8375	1.6364	0.	4.5594e-002
2253	1.8375	1.4545	0.	6.37e-002
2254	1.8375	1.2727	0.	9.3015e-002
2255	1.8375	1.0909	0.	0.14044
2256	1.8375	0.90909	0.	0.20712
2257	1.8375	0.72727	0.	0.33452
2258	1.8375	0.54545	0.	0.44939
2259	1.8375	0.36364	0.	1.3028
2260	1.8375	0.18182	0.	6.7533
2261	1.6537	5.8182	0.	9.8288
2262	1.6537	5.6364	0.	1.4894
2263	1.6537	5.4545	0.	0.52522
2264	1.6537	5.2727	0.	0.38956
2265	1.6537	5.0909	0.	0.24683
2266	1.6537	4.9091	0.	0.17409
2267	1.6537	4.7273	0.	0.12468
2268	1.6537	4.5455	0.	9.6e-002
2269	1.6537	4.3636	0.	7.9556e-002
2270	1.6537	4.1818	0.	7.107e-002
2271	1.6537	4.	0.	6.7207e-002
2272	1.6537	3.8182	0.	6.5901e-002
2273	1.6537	3.6364	0.	6.5846e-002
2274	1.6537	3.4545	0.	6.627e-002
2275	1.6537	3.2727	0.	6.6737e-002
2276	1.6537	3.0909	0.	6.7019e-002
2277	1.6537	2.9091	0.	6.7019e-002
2278	1.6537	2.7273	0.	6.6737e-002
2279	1.6537	2.5455	0.	6.627e-002
2280	1.6537	2.3636	0.	6.5846e-002
2281	1.6537	2.1818	0.	6.5901e-002
2282	1.6537	2.	0.	6.7207e-002
2283	1.6537	1.8182	0.	7.107e-002
2284	1.6537	1.6364	0.	7.9556e-002
2285	1.6537	1.4545	0.	9.6e-002
2286	1.6537	1.2727	0.	0.12468
2287	1.6537	1.0909	0.	0.17409
2288	1.6537	0.90909	0.	0.24683
2289	1.6537	0.72727	0.	0.38956
2290	1.6537	0.54545	0.	0.52522
2291	1.6537	0.36364	0.	1.4894
2292	1.6537	0.18182	0.	9.8287
2293	1.47	5.8182	0.	14.891
2294	1.47	5.6364	0.	1.6549
2295	1.47	5.4545	0.	0.53807
2296	1.47	5.2727	0.	0.36615
2297	1.47	5.0909	0.	0.19942
2298	1.47	4.9091	0.	0.11624
2299	1.47	4.7273	0.	6.2457e-002
2300	1.47	4.5455	0.	3.2744e-002
2301	1.47	4.3636	0.	1.6412e-002
2302	1.47	4.1818	0.	8.1975e-003
2303	1.47	4.	0.	4.3746e-003
2304	1.47	3.8182	0.	2.8423e-003
2305	1.47	3.6364	0.	2.3941e-003
2306	1.47	3.4545	0.	2.391e-003
2307	1.47	3.2727	0.	2.5086e-003
2308	1.47	3.0909	0.	2.5963e-003
2309	1.47	2.9091	0.	2.5963e-003
2310	1.47	2.7273	0.	2.5087e-003
2311	1.47	2.5455	0.	2.391e-003
2312	1.47	2.3636	0.	2.3941e-003
2313	1.47	2.1818	0.	2.8424e-003
2314	1.47	2.	0.	4.3746e-003
2315	1.47	1.8182	0.	8.1977e-003
2316	1.47	1.6364	0.	1.6412e-002
2317	1.47	1.4545	0.	3.2744e-002
2318	1.47	1.2727	0.	6.2458e-002
2319	1.47	1.0909	0.	0.11624
2320	1.47	0.90909	0.	0.19942
2321	1.47	0.72727	0.	0.36615
2322	1.47	0.54545	0.	0.53807
2323	1.47	0.36364	0.	1.6549
2324	1.47	0.18182	0.	14.891
2325	1.2862	5.8182	0.	23.182
2326	1.2862	5.6364	0.	2.0871
2327	1.2862	5.4545	0.	0.86537
2328	1.2862	5.2727	0.	0.68901
2329	1.2862	5.0909	0.	0.52032
2330	1.2862	4.9091	0.	0.44411
2331	1.2862	4.7273	0.	0.39903
2332	1.2862	4.5455	0.	0.37783
2333	1.2862	4.3636	0.	0.36825
2334	1.2862	4.1818	0.	0.36484
2335	1.2862	4.	0.	0.36416
2336	1.2862	3.8182	0.	0.36455
2337	1.2862	3.6364	0.	0.36521
2338	1.2862	3.4545	0.	0.36579
2339	1.2862	3.2727	0.	0.36619
2340	1.2862	3.0909	0.	0.3664
2341	1.2862	2.9091	0.	0.3664
2342	1.2862	2.7273	0.	0.36619
2343	1.2862	2.5455	0.	0.36579
2344	1.2862	2.3636	0.	0.36521
2345	1.2862	2.1818	0.	0.36455
2346	1.2862	2.	0.	0.36416
2347	1.2862	1.8182	0.	0.36484
2348	1.2862	1.6364	0.	0.36825
2349	1.2862	1.4545	0.	0.37783
2350	1.2862	1.2727	0.	0.39903
2351	1.2862	1.0909	0.	0.44411
2352	1.2862	0.90909	0.	0.52032
2353	1.2862	0.72727	0.	0.68901
2354	1.2862	0.54545	0.	0.86537
2355	1.2862	0.36364	0.	2.0871
2356	1.2862	0.18182	0.	23.182
2357	1.1025	5.8182	0.	35.401
2358	1.1025	5.6364	0.	1.6973
2359	1.1025	5.4545	0.	4.0672e-002
2360	1.1025	5.2727	0.	-0.30025
2361	1.1025	5.0909	0.	-0.57006
2362	1.1025	4.9091	0.	-0.70701
2363	1.1025	4.7273	0.	-0.7929
2364	1.1025	4.5455	0.	-0.84407
2365	1.1025	4.3636	0.	-0.87738
2366	1.1025	4.1818	0.	-0.90018
2367	1.1025	4.	0.	-0.91673
2368	1.1025	3.8182	0.	-0.92911
2369	1.1025	3.6364	0.	-0.93836
2370	1.1025	3.4545	0.	-0.94501
2371	1.1025	3.2727	0.	-0.94934
2372	1.1025	3.0909	0.	-0.95147
2373	1.1025	2.9091	0.	-0.95147
2374	1.1025	2.7273	0.	-0.94934
2375	1.1025	2.5455	0.	-0.94501
2376	1.1025	2.3636	0.	-0.93836
2377	1.1025	2.1818	0.	-0.92911
2378	1.1025	2.	0.	-0.91673
2379	1.1025	1.8182	0.	-0.90018
2380	1.1025	1.6364	0.	-0.87738
2381	1.1025	1.4545	0.	-0.84407
2382	1.1025	1.2727	0.	-0.7929
2383	1.1025	1.0909	0.	-0.70701
2384	1.1025	0.90909	0.	-0.57006
2385	1.1025	0.72727	0.	-0.30025
2386	1.1025	0.54545	0.	4.067e-002
2387	1.1025	0.36364	0.	1.6973
2388	1.1025	0.18182	0.	35.401
2389	0.91875	5.8182	0.	53.035
2390	0.91875	5.6364	0.	4.9339
2391	0.91875	5.4545	0.	3.9633
2392	0.91875	5.2727	0.	4.0232
2393	0.91875	5.0909	0.	4.0197
2394	0.91875	4.9091	0.	4.081
2395	0.91875	4.7273	0.	4.1426
2396	0.91875	4.5455	0.	4.2017
2397	0.91875	4.3636	0.	4.2513
2398	0.91875	4.1818	0.	4.2912
2399	0.91875	4.	0.	4.3222
2400	0.91875	3.8182	0.	4.3458
2401	0.91875	3.6364	0.	4.3632
2402	0.91875	3.4545	0.	4.3754
2403	0.91875	3.2727	0.	4.3832
2404	0.91875	3.0909	0.	4.387
2405	0.91875	2.9091	0.	4.387
2406	0.91875	2.7273	0.	4.3832
2407	0.91875	2.5455	0.	4.3754
2408	0.91875	2.3636	0.	4.3632
2409	0.91875	2.1818	0.	4.3458
2410	0.91875	2.	0.	4.3222
2411	0.91875	1.8182	0.	4.2912
2412	0.91875	1.6364	0.	4.2513
2413	0.91875	1.4545	0.	4.2017
2414	0.91875	1.2727	0.	4.1426
2415	0.91875	1.0909	0.	4.081
2416	0.91875	0.90909	0.	4.0197
2417	0.91875	0.72727	0.	4.0232
2418	0.91875	0.54545	0.	3.9633
2419	0.91875	0.36364	0.	4.9339
2420	0.91875	0.18182	0.	53.034
2421	0.735	5.8182	0.	72.239
2422	0.735	5.6364	0.	-5.7391
2423	0.735	5.4545	0.	-10.628
2424	0.735	5.2727	0.	-12.436
2425	0.735	5.0909	0.	-13.681
2426	0.735	4.9091	0.	-14.472
2427	0.735	4.7273	0.	-15.037
2428	0.735	4.5455	0.	-15.45
2429	0.735	4.3636	0.	-15.764
2430	0.735	4.1818	0.	-16.007
2431	0.735	4.	0.	-16.194
2432	0.735	3.8182	0.	-16.338
2433	0.735	3.6364	0.	-16.446
2434	0.735	3.4545	0.	-16.523
2435	0.735	3.2727	0.	-16.572
2436	0.735	3.0909	0.	-16.596
2437	0.735	2.9091	0.	-16.596
2438	0.735	2.7273	0.	-16.572
2439	0.735	2.5455	0.	-16.523
2440	0.735	2.3636	0.	-16.446
2441	0.735	2.1818	0.	-16.338
2442	0.735	2.	0.	-16.194
2443	0.735	1.8182	0.	-16.007
2444	0.735	1.6364	0.	-15.764
2445	0.735	1.4545	0.	-15.45
2446	0.735	1.2727	0.	-15.037
2447	0.735	1.0909	0.	-14.472
2448	0.735	0.90909	0.	-13.681
2449	0.735	0.72727	0.	-12.436
2450	0.735	0.54545	0.	-10.628
2451	0.735	0.36364	0.	-5.7391
2452	0.735	0.18182	0.	72.238
2453	0.55125	5.8182	0.	104.02
2454	0.55125	5.6364	0.	40.537
2455	0.55125	5.4545	0.	49.258
2456	0.55125	5.2727	0.	53.911
2457	0.55125	5.0909	0.	57.151
2458	0.55125	4.9091	0.	59.541
2459	0.55125	4.7273	0.	61.32
2460	0.55125	4.5455	0.	62.674
2461	0.55125	4.3636	0.	63.717
2462	0.55125	4.1818	0.	64.525
2463	0.55125	4.	0.	65.152
2464	0.55125	3.8182	0.	65.633
2465	0.55125	3.6364	0.	65.992
2466	0.55125	3.4545	0.	66.249
2467	0.55125	3.2727	0.	66.414
2468	0.55125	3.0909	0.	66.494
2469	0.55125	2.9091	0.	66.494
2470	0.55125	2.7273	0.	66.414
2471	0.55125	2.5455	0.	66.249
2472	0.55125	2.3636	0.	65.992
2473	0.55125	2.1818	0.	65.633
2474	0.55125	2.	0.	65.152
2475	0.55125	1.8182	0.	64.525
2476	0.55125	1.6364	0.	63.717
2477	0.55125	1.4545	0.	62.674
2478	0.55125	1.2727	0.	61.32
2479	0.55125	1.0909	0.	59.541
2480	0.55125	0.90909	0.	57.151
2481	0.55125	0.72727	0.	53.911
2482	0.55125	0.54545	0.	49.258
2483	0.55125	0.36364	0.	40.537
2484	0.55125	0.18182	0.	104.02
2485	0.3675	5.8182	0.	92.574
2486	0.3675	5.6364	0.	-137.99
2487	0.3675	5.4545	0.	-183.87
2488	0.3675	5.2727	0.	-207.04
2489	0.3675	5.0909	0.	-221.96
2490	0.3675	4.9091	0.	-232.43
2491	0.3675	4.7273	0.	-240.08
2492	0.3675	4.5455	0.	-245.85
2493	0.3675	4.3636	0.	-250.27
2494	0.3675	4.1818	0.	-253.69
2495	0.3675	4.	0.	-256.33
2496	0.3675	3.8182	0.	-258.36
2497	0.3675	3.6364	0.	-259.87
2498	0.3675	3.4545	0.	-260.95
2499	0.3675	3.2727	0.	-261.64
2500	0.3675	3.0909	0.	-261.98
2501	0.3675	2.9091	0.	-261.98
2502	0.3675	2.7273	0.	-261.64
2503	0.3675	2.5455	0.	-260.95
2504	0.3675	2.3636	0.	-259.87
2505	0.3675	2.1818	0.	-258.36
2506	0.3675	2.	0.	-256.33
2507	0.3675	1.8182	0.	-253.69
2508	0.3675	1.6364	0.	-250.27
2509	0.3675	1.4545	0.	-245.85
2510	0.3675	1.2727	0.	-240.08
2511	0.3675	1.0909	0.	-232.43
2512	0.3675	0.90909	0.	-221.96
2513	0.3675	0.72727	0.	-207.04
2514	0.3675	0.54545	0.	-183.87
2515	0.3675	0.36364	0.	-137.99
2516	0.3675	0.18182	0.	92.573
2517	0.18375	5.8182	0.	314.41
2518	0.18375	5.6364	0.	610.73
2519	0.18375	5.4545	0.	743.57
2520	0.18375	5.2727	0.	829.11
2521	0.18375	5.0909	0.	883.97
2522	0.18375	4.9091	0.	923.6
2523	0.18375	4.7273	0.	952.69
2524	0.18375	4.5455	0.	974.78
2525	0.18375	4.3636	0.	991.77
2526	0.18375	4.1818	0.	1004.9
2527	0.18375	4.	0.	1015.1
2528	0.18375	3.8182	0.	1023.
2529	0.18375	3.6364	0.	1028.8
2530	0.18375	3.4545	0.	1033.
2531	0.18375	3.2727	0.	1035.7
2532	0.18375	3.0909	0.	1037.
2533	0.18375	2.9091	0.	1037.
2534	0.18375	2.7273	0.	1035.7
2535	0.18375	2.5455	0.	1033.
2536	0.18375	2.3636	0.	1028.8
2537	0.18375	2.1818	0.	1023.
2538	0.18375	2.	0.	1015.1
2539	0.18375	1.8182	0.	1004.9
2540	0.18375	1.6364	0.	991.77
2541	0.18375	1.4545	0.	974.78
2542	0.18375	1.2727	0.	952.69
2543	0.18375	1.0909	0.	923.6
2544	0.18375	0.90909	0.	883.97
2545	0.18375	0.72727	0.	829.11
2546	0.18375	0.54545	0.	743.57
2547	0.18375	0.36364	0.	610.73
2548	0.18375	0.18182	0.	314.41
2549	15.049	0.18182	0.	56.905
2550	15.049	0.36364	0.	110.28
2551	15.049	0.54545	0.	197.6
2552	15.049	0.72727	0.	301.87
2553	15.049	0.90909	0.	422.81
2554	15.049	1.0909	0.	564.75
2555	15.049	1.2727	0.	737.16
2556	15.049	1.4545	0.	945.66
2557	15.049	1.6364	0.	1245.7
2558	15.049	1.8182	0.	1354.3
2559	15.049	2.	0.	851.25
2560	15.049	2.1818	0.	427.47
2561	15.049	2.3636	0.	462.6
2562	15.049	2.5455	0.	434.32
2563	15.049	2.7273	0.	421.5
2564	15.049	2.9091	0.	413.04
2565	15.049	3.0909	0.	413.04
2566	15.049	3.2727	0.	421.5
2567	15.049	3.4545	0.	434.32
2568	15.049	3.6364	0.	462.6
2569	15.049	3.8182	0.	427.47
2570	15.049	4.	0.	851.25
2571	15.049	4.1818	0.	1354.3
2572	15.049	4.3636	0.	1245.7
2573	15.049	4.5455	0.	945.66
2574	15.049	4.7273	0.	737.16
2575	15.049	4.9091	0.	564.75
2576	15.049	5.0909	0.	422.81
2577	15.049	5.2727	0.	301.87
2578	15.049	5.4545	0.	197.6
2579	15.049	5.6364	0.	110.28
2580	15.049	5.8182	0.	56.905
2581	15.232	0.18182	0.	42.354
2582	15.232	0.36364	0.	56.801
2583	15.232	0.54545	0.	106.28
2584	15.232	0.72727	0.	174.72
2585	15.232	0.90909	0.	254.96
2586	15.232	1.0909	0.	343.51
2587	15.232	1.2727	0.	437.05
2588	15.232	1.4545	0.	518.97
2589	15.232	1.6364	0.	555.65
2590	15.232	1.8182	0.	489.39
2591	15.232	2.	0.	243.85
2592	15.232	2.1818	0.	151.28
2593	15.232	2.3636	0.	181.19
2594	15.232	2.5455	0.	225.47
2595	15.232	2.7273	0.	244.56
2596	15.232	2.9091	0.	252.89
2597	15.232	3.0909	0.	252.89
2598	15.232	3.2727	0.	244.56
2599	15.232	3.4545	0.	225.47
2600	15.232	3.6364	0.	181.19
2601	15.232	3.8182	0.	151.28
2602	15.232	4.	0.	243.85
2603	15.232	4.1818	0.	489.39
2604	15.232	4.3636	0.	555.66
2605	15.232	4.5455	0.	518.97
2606	15.232	4.7273	0.	437.05
2607	15.232	4.9091	0.	343.51
2608	15.232	5.0909	0.	254.96
2609	15.232	5.2727	0.	174.72
2610	15.232	5.4545	0.	106.28
2611	15.232	5.6364	0.	56.801
2612	15.232	5.8182	0.	42.354
2613	15.415	0.18182	0.	43.257
2614	15.415	0.36364	0.	47.893
2615	15.415	0.54545	0.	74.917
2616	15.415	0.72727	0.	116.02
2617	15.415	0.90909	0.	164.79
2618	15.415	1.0909	0.	214.65
2619	15.415	1.2727	0.	256.25
2620	15.415	1.4545	0.	275.29
2621	15.415	1.6364	0.	245.47
2622	15.415	1.8182	0.	154.47
2623	15.415	2.	0.	49.097
2624	15.415	2.1818	0.	-3.2152
2625	15.415	2.3636	0.	18.497
2626	15.415	2.5455	0.	52.768
2627	15.415	2.7273	0.	81.235
2628	15.415	2.9091	0.	95.569
2629	15.415	3.0909	0.	95.569
2630	15.415	3.2727	0.	81.235
2631	15.415	3.4545	0.	52.768
2632	15.415	3.6364	0.	18.497
2633	15.415	3.8182	0.	-3.2152
2634	15.415	4.	0.	49.097
2635	15.415	4.1818	0.	154.47
2636	15.415	4.3636	0.	245.47
2637	15.415	4.5455	0.	275.29
2638	15.415	4.7273	0.	256.25
2639	15.415	4.9091	0.	214.65
2640	15.415	5.0909	0.	164.79
2641	15.415	5.2727	0.	116.02
2642	15.415	5.4545	0.	74.917
2643	15.415	5.6364	0.	47.893
2644	15.415	5.8182	0.	43.257
2645	15.597	0.18182	0.	44.012
2646	15.597	0.36364	0.	47.126
2647	15.597	0.54545	0.	61.743
2648	15.597	0.72727	0.	83.221
2649	15.597	0.90909	0.	107.46
2650	15.597	1.0909	0.	128.5
2651	15.597	1.2727	0.	138.23
2652	15.597	1.4545	0.	126.81
2653	15.597	1.6364	0.	86.298
2654	15.597	1.8182	0.	24.793
2655	15.597	2.	0.	4.3389
2656	15.597	2.1818	0.	2.5584
2657	15.597	2.3636	0.	0.80987
2658	15.597	2.5455	0.	1.2677
2659	15.597	2.7273	0.	1.1048
2660	15.597	2.9091	0.	0.77458
2661	15.597	3.0909	0.	0.77458
2662	15.597	3.2727	0.	1.1048
2663	15.597	3.4545	0.	1.2677
2664	15.597	3.6364	0.	0.80987
2665	15.597	3.8182	0.	2.5584
2666	15.597	4.	0.	4.3389
2667	15.597	4.1818	0.	24.793
2668	15.597	4.3636	0.	86.299
2669	15.597	4.5455	0.	126.81
2670	15.597	4.7273	0.	138.23
2671	15.597	4.9091	0.	128.5
2672	15.597	5.0909	0.	107.46
2673	15.597	5.2727	0.	83.221
2674	15.597	5.4545	0.	61.743
2675	15.597	5.6364	0.	47.126
2676	15.597	5.8182	0.	44.012
2677	15.78	0.18182	0.	42.622
2678	15.78	0.36364	0.	46.385
2679	15.78	0.54545	0.	54.075
2680	15.78	0.72727	0.	62.805
2681	15.78	0.90909	0.	70.245
2682	15.78	1.0909	0.	72.339
2683	15.78	1.2727	0.	63.995
2684	15.78	1.4545	0.	40.971
2685	15.78	1.6364	0.	10.887
2686	15.78	1.8182	0.	2.4941
2687	15.78	2.	0.	0.70425
2688	15.78	2.1818	0.	0.29978
2689	15.78	2.3636	0.	0.66322
2690	15.78	2.5455	0.	0.7251
2691	15.78	2.7273	0.	0.70695
2692	15.78	2.9091	0.	0.69229
2693	15.78	3.0909	0.	0.69229
2694	15.78	3.2727	0.	0.70695
2695	15.78	3.4545	0.	0.7251
2696	15.78	3.6364	0.	0.66323
2697	15.78	3.8182	0.	0.29978
2698	15.78	4.	0.	0.70425
2699	15.78	4.1818	0.	2.4941
2700	15.78	4.3636	0.	10.887
2701	15.78	4.5455	0.	40.971
2702	15.78	4.7273	0.	63.995
2703	15.78	4.9091	0.	72.339
2704	15.78	5.0909	0.	70.245
2705	15.78	5.2727	0.	62.805
2706	15.78	5.4545	0.	54.075
2707	15.78	5.6364	0.	46.385
2708	15.78	5.8182	0.	42.622
2709	15.963	0.18182	0.	39.654
2710	15.963	0.36364	0.	44.09
2711	15.963	0.54545	0.	47.713
2712	15.963	0.72727	0.	48.579
2713	15.963	0.90909	0.	45.618
2714	15.963	1.0909	0.	36.761
2715	15.963	1.2727	0.	20.626
2716	15.963	1.4545	0.	5.8228
2717	15.963	1.6364	0.	2.1194
2718	15.963	1.8182	0.	1.0886
2719	15.963	2.	0.	0.72068
2720	15.963	2.1818	0.	0.55918
2721	15.963	2.3636	0.	0.4657
2722	15.963	2.5455	0.	0.50374
2723	15.963	2.7273	0.	0.55533
2724	15.963	2.9091	0.	0.57168
2725	15.963	3.0909	0.	0.57169
2726	15.963	3.2727	0.	0.55532
2727	15.963	3.4545	0.	0.50374
2728	15.963	3.6364	0.	0.4657
2729	15.963	3.8182	0.	0.55918
2730	15.963	4.	0.	0.72069
2731	15.963	4.1818	0.	1.0886
2732	15.963	4.3636	0.	2.1194
2733	15.963	4.5455	0.	5.8229
2734	15.963	4.7273	0.	20.627
2735	15.963	4.9091	0.	36.761
2736	15.963	5.0909	0.	45.618
2737	15.963	5.2727	0.	48.58
2738	15.963	5.4545	0.	47.713
2739	15.963	5.6364	0.	44.09
2740	15.963	5.8182	0.	39.654
2741	16.145	0.18182	0.	35.738
2742	16.145	0.36364	0.	40.293
2743	16.145	0.54545	0.	41.348
2744	16.145	0.72727	0.	37.536
2745	16.145	0.90909	0.	28.712
2746	16.145	1.0909	0.	15.084
2747	16.145	1.2727	0.	4.2465
2748	16.145	1.4545	0.	1.7082
2749	16.145	1.6364	0.	0.96028
2750	16.145	1.8182	0.	0.61094
2751	16.145	2.	0.	0.41377
2752	16.145	2.1818	0.	0.33616
2753	16.145	2.3636	0.	0.35002
2754	16.145	2.5455	0.	0.38778
2755	16.145	2.7273	0.	0.42454
2756	16.145	2.9091	0.	0.44714
2757	16.145	3.0909	0.	0.44713
2758	16.145	3.2727	0.	0.42454
2759	16.145	3.4545	0.	0.38778
2760	16.145	3.6364	0.	0.35002
2761	16.145	3.8182	0.	0.33616
2762	16.145	4.	0.	0.41377
2763	16.145	4.1818	0.	0.61094
2764	16.145	4.3636	0.	0.96029
2765	16.145	4.5455	0.	1.7082
2766	16.145	4.7273	0.	4.2466
2767	16.145	4.9091	0.	15.084
2768	16.145	5.0909	0.	28.712
2769	16.145	5.2727	0.	37.536
2770	16.145	5.4545	0.	41.349
2771	16.145	5.6364	0.	40.293
2772	16.145	5.8182	0.	35.738
2773	16.328	0.18182	0.	31.44
2774	16.328	0.36364	0.	35.531
2775	16.328	0.54545	0.	34.837
2776	16.328	0.72727	0.	28.358
2777	16.328	0.90909	0.	16.715
2778	16.328	1.0909	0.	4.6591
2779	16.328	1.2727	0.	1.5598
2780	16.328	1.4545	0.	0.87578
2781	16.328	1.6364	0.	0.58428
2782	16.328	1.8182	0.	0.42059
2783	16.328	2.	0.	0.32759
2784	16.328	2.1818	0.	0.28315
2785	16.328	2.3636	0.	0.27585
2786	16.328	2.5455	0.	0.29589
2787	16.328	2.7273	0.	0.32234
2788	16.328	2.9091	0.	0.33907
2789	16.328	3.0909	0.	0.33907
2790	16.328	3.2727	0.	0.32234
2791	16.328	3.4545	0.	0.29589
2792	16.328	3.6364	0.	0.27585
2793	16.328	3.8182	0.	0.28315
2794	16.328	4.	0.	0.32759
2795	16.328	4.1818	0.	0.42059
2796	16.328	4.3636	0.	0.58429
2797	16.328	4.5455	0.	0.87578
2798	16.328	4.7273	0.	1.5598
2799	16.328	4.9091	0.	4.6592
2800	16.328	5.0909	0.	16.715
2801	16.328	5.2727	0.	28.358
2802	16.328	5.4545	0.	34.837
2803	16.328	5.6364	0.	35.531
2804	16.328	5.8182	0.	31.44
2805	16.511	0.18182	0.	27.166
2806	16.511	0.36364	0.	30.362
2807	16.511	0.54545	0.	28.392
2808	16.511	0.72727	0.	20.497
2809	16.511	0.90909	0.	8.2417
2810	16.511	1.0909	0.	1.7464
2811	16.511	1.2727	0.	0.83069
2812	16.511	1.4545	0.	0.54178
2813	16.511	1.6364	0.	0.39379
2814	16.511	1.8182	0.	0.30234
2815	16.511	2.	0.	0.24564
2816	16.511	2.1818	0.	0.21863
2817	16.511	2.3636	0.	0.21601
2818	16.511	2.5455	0.	0.22771
2819	16.511	2.7273	0.	0.24336
2820	16.511	2.9091	0.	0.25384
2821	16.511	3.0909	0.	0.25384
2822	16.511	3.2727	0.	0.24336
2823	16.511	3.4545	0.	0.22771
2824	16.511	3.6364	0.	0.21601
2825	16.511	3.8182	0.	0.21863
2826	16.511	4.	0.	0.24564
2827	16.511	4.1818	0.	0.30234
2828	16.511	4.3636	0.	0.39379
2829	16.511	4.5455	0.	0.54178
2830	16.511	4.7273	0.	0.8307
2831	16.511	4.9091	0.	1.7464
2832	16.511	5.0909	0.	8.2418
2833	16.511	5.2727	0.	20.497
2834	16.511	5.4545	0.	28.392
2835	16.511	5.6364	0.	30.362
2836	16.511	5.8182	0.	27.166
2837	16.693	0.18182	0.	23.179
2838	16.693	0.36364	0.	25.228
2839	16.693	0.54545	0.	22.279
2840	16.693	0.72727	0.	13.749
2841	16.693	0.90909	0.	3.1785
2842	16.693	1.0909	0.	0.88028
2843	16.693	1.2727	0.	0.51459
2844	16.693	1.4545	0.	0.36753
2845	16.693	1.6364	0.	0.28346
2846	16.693	1.8182	0.	0.22851
2847	16.693	2.	0.	0.1934
2848	16.693	2.1818	0.	0.17489
2849	16.693	2.3636	0.	0.17031
2850	16.693	2.5455	0.	0.17529
2851	16.693	2.7273	0.	0.18359
2852	16.693	2.9091	0.	0.18943
2853	16.693	3.0909	0.	0.18943
2854	16.693	3.2727	0.	0.18359
2855	16.693	3.4545	0.	0.17529
2856	16.693	3.6364	0.	0.17031
2857	16.693	3.8182	0.	0.17489
2858	16.693	4.	0.	0.19339
2859	16.693	4.1818	0.	0.22852
2860	16.693	4.3636	0.	0.28346
2861	16.693	4.5455	0.	0.36753
2862	16.693	4.7273	0.	0.5146
2863	16.693	4.9091	0.	0.88029
2864	16.693	5.0909	0.	3.1786
2865	16.693	5.2727	0.	13.749
2866	16.693	5.4545	0.	22.279
2867	16.693	5.6364	0.	25.228
2868	16.693	5.8182	0.	23.179
2869	16.876	0.18182	0.	19.63
2870	16.876	0.36364	0.	20.434
2871	16.876	0.54545	0.	16.715
2872	16.876	0.72727	0.	8.0814
2873	16.876	0.90909	0.	1.235
2874	16.876	1.0909	0.	0.51621
2875	16.876	1.2727	0.	0.34414
2876	16.876	1.4545	0.	0.2622
2877	16.876	1.6364	0.	0.21115
2878	16.876	1.8182	0.	0.17599
2879	16.876	2.	0.	0.15237
2880	16.876	2.1818	0.	0.13891
2881	16.876	2.3636	0.	0.13411
2882	16.876	2.5455	0.	0.13527
2883	16.876	2.7273	0.	0.13891
2884	16.876	2.9091	0.	0.14174
2885	16.876	3.0909	0.	0.14174
2886	16.876	3.2727	0.	0.13891
2887	16.876	3.4545	0.	0.13527
2888	16.876	3.6364	0.	0.13411
2889	16.876	3.8182	0.	0.13891
2890	16.876	4.	0.	0.15237
2891	16.876	4.1818	0.	0.17599
2892	16.876	4.3636	0.	0.21115
2893	16.876	4.5455	0.	0.26219
2894	16.876	4.7273	0.	0.34414
2895	16.876	4.9091	0.	0.51621
2896	16.876	5.0909	0.	1.235
2897	16.876	5.2727	0.	8.0815
2898	16.876	5.4545	0.	16.715
2899	16.876	5.6364	0.	20.434
2900	16.876	5.8182	0.	19.63
2901	17.059	0.18182	0.	16.586
2902	17.059	0.36364	0.	16.162
2903	17.059	0.54545	0.	11.839
2904	17.059	0.72727	0.	3.6583
2905	17.059	0.90909	0.	0.59505
2906	17.059	1.0909	0.	0.3291
2907	17.059	1.2727	0.	0.24113
2908	17.059	1.4545	0.	0.19324
2909	17.059	1.6364	0.	0.16106
2910	17.059	1.8182	0.	0.13772
2911	17.059	2.	0.	0.12122
2912	17.059	2.1818	0.	0.11086
2913	17.059	2.3636	0.	0.10586
2914	17.059	2.5455	0.	0.1048
2915	17.059	2.7273	0.	0.10572
2916	17.059	2.9091	0.	0.10676
2917	17.059	3.0909	0.	0.10676
2918	17.059	3.2727	0.	0.10572
2919	17.059	3.4545	0.	0.1048
2920	17.059	3.6364	0.	0.10586
2921	17.059	3.8182	0.	0.11086
2922	17.059	4.	0.	0.12122
2923	17.059	4.1818	0.	0.13772
2924	17.059	4.3636	0.	0.16106
2925	17.059	4.5455	0.	0.19324
2926	17.059	4.7273	0.	0.24113
2927	17.059	4.9091	0.	0.3291
2928	17.059	5.0909	0.	0.59506
2929	17.059	5.2727	0.	3.6584
2930	17.059	5.4545	0.	11.839
2931	17.059	5.6364	0.	16.162
2932	17.059	5.8182	0.	16.586
2933	17.241	0.18182	0.	14.062
2934	17.241	0.36364	0.	12.502
2935	17.241	0.54545	0.	7.7243
2936	17.241	0.72727	0.	1.1622
2937	17.241	0.90909	0.	0.33428
2938	17.241	1.0909	0.	0.22151
2939	17.241	1.2727	0.	0.17449
2940	17.241	1.4545	0.	0.14573
2941	17.241	1.6364	0.	0.12488
2942	17.241	1.8182	0.	0.10888
2943	17.241	2.	0.	9.6901e-002
2944	17.241	2.1818	0.	8.8684e-002
2945	17.241	2.3636	0.	8.3872e-002
2946	17.241	2.5455	0.	8.1711e-002
2947	17.241	2.7273	0.	8.1159e-002
2948	17.241	2.9091	0.	8.1199e-002
2949	17.241	3.0909	0.	8.1197e-002
2950	17.241	3.2727	0.	8.1159e-002
2951	17.241	3.4545	0.	8.1711e-002
2952	17.241	3.6364	0.	8.3871e-002
2953	17.241	3.8182	0.	8.8684e-002
2954	17.241	4.	0.	9.6901e-002
2955	17.241	4.1818	0.	0.10888
2956	17.241	4.3636	0.	0.12488
2957	17.241	4.5455	0.	0.14573
2958	17.241	4.7273	0.	0.17449
2959	17.241	4.9091	0.	0.22151
2960	17.241	5.0909	0.	0.33428
2961	17.241	5.2727	0.	1.1622
2962	17.241	5.4545	0.	7.7244
2963	17.241	5.6364	0.	12.502
2964	17.241	5.8182	0.	14.062
2965	17.424	0.18182	0.	12.042
2966	17.424	0.36364	0.	9.4829
2967	17.424	0.54545	0.	4.4021
2968	17.424	0.72727	0.	0.4286
2969	17.424	0.90909	0.	0.20681
2970	17.424	1.0909	0.	0.15522
2971	17.424	1.2727	0.	0.1295
2972	17.424	1.4545	0.	0.11192
2973	17.424	1.6364	0.	9.8144e-002
2974	17.424	1.8182	0.	8.6912e-002
2975	17.424	2.	0.	7.7976e-002
2976	17.424	2.1818	0.	7.1337e-002
2977	17.424	2.3636	0.	6.6888e-002
2978	17.424	2.5455	0.	6.429e-002
2979	17.424	2.7273	0.	6.3019e-002
2980	17.424	2.9091	0.	6.255e-002
2981	17.424	3.0909	0.	6.2548e-002
2982	17.424	3.2727	0.	6.302e-002
2983	17.424	3.4545	0.	6.429e-002
2984	17.424	3.6364	0.	6.6889e-002
2985	17.424	3.8182	0.	7.1338e-002
2986	17.424	4.	0.	7.7977e-002
2987	17.424	4.1818	0.	8.6912e-002
2988	17.424	4.3636	0.	9.8145e-002
2989	17.424	4.5455	0.	0.11192
2990	17.424	4.7273	0.	0.12951
2991	17.424	4.9091	0.	0.15522
2992	17.424	5.0909	0.	0.20681
2993	17.424	5.2727	0.	0.4286
2994	17.424	5.4545	0.	4.4022
2995	17.424	5.6364	0.	9.4829
2996	17.424	5.8182	0.	12.042
2997	17.607	0.18182	0.	10.49
2998	17.607	0.36364	0.	7.0883
2999	17.607	0.54545	0.	1.9165
3000	17.607	0.72727	0.	0.21233
3001	17.607	0.90909	0.	0.13685
3002	17.607	1.0909	0.	0.11242
3003	17.607	1.2727	0.	9.8222e-002
3004	17.607	1.4545	0.	8.7353e-002
3005	17.607	1.6364	0.	7.8092e-002
3006	17.607	1.8182	0.	7.004e-002
3007	17.607	2.	0.	6.3241e-002
3008	17.607	2.1818	0.	5.7831e-002
3009	17.607	2.3636	0.	5.3854e-002
3010	17.607	2.5455	0.	5.1203e-002
3011	17.607	2.7273	0.	4.9655e-002
3012	17.607	2.9091	0.	4.8962e-002
3013	17.607	3.0909	0.	4.8962e-002
3014	17.607	3.2727	0.	4.9656e-002
3015	17.607	3.4545	0.	5.1203e-002
3016	17.607	3.6364	0.	5.3853e-002
3017	17.607	3.8182	0.	5.783e-002
3018	17.607	4.	0.	6.3242e-002
3019	17.607	4.1818	0.	7.004e-002
3020	17.607	4.3636	0.	7.8094e-002
3021	17.607	4.5455	0.	8.7353e-002
3022	17.607	4.7273	0.	9.8221e-002
3023	17.607	4.9091	0.	0.11242
3024	17.607	5.0909	0.	0.13685
3025	17.607	5.2727	0.	0.21233
3026	17.607	5.4545	0.	1.9165
3027	17.607	5.6364	0.	7.0883
3028	17.607	5.8182	0.	10.489
3029	17.789	0.18182	0.	9.3592
3030	17.789	0.36364	0.	5.2785
3031	17.789	0.54545	0.	0.53563
3032	17.789	0.72727	0.	0.12446
3033	17.789	0.90909	0.	9.5354e-002
3034	17.789	1.0909	0.	8.3791e-002
3035	17.789	1.2727	0.	7.5997e-002
3036	17.789	1.4545	0.	6.9234e-002
3037	17.789	1.6364	0.	6.2925e-002
3038	17.789	1.8182	0.	5.7056e-002
3039	17.789	2.	0.	5.1812e-002
3040	17.789	2.1818	0.	4.739e-002
3041	17.789	2.3636	0.	4.3919e-002
3042	17.789	2.5455	0.	4.1424e-002
3043	17.789	2.7273	0.	3.9844e-002
3044	17.789	2.9091	0.	3.9087e-002
3045	17.789	3.0909	0.	3.9086e-002
3046	17.789	3.2727	0.	3.9844e-002
3047	17.789	3.4545	0.	4.1424e-002
3048	17.789	3.6364	0.	4.3919e-002
3049	17.789	3.8182	0.	4.7389e-002
3050	17.789	4.	0.	5.1811e-002
3051	17.789	4.1818	0.	5.7057e-002
3052	17.789	4.3636	0.	6.2926e-002
3053	17.789	4.5455	0.	6.9234e-002
3054	17.789	4.7273	0.	7.5997e-002
3055	17.789	4.9091	0.	8.3792e-002
3056	17.789	5.0909	0.	9.5352e-002
3057	17.789	5.2727	0.	0.12446
3058	17.789	5.4545	0.	0.53564
3059	17.789	5.6364	0.	5.2785
3060	17.789	5.8182	0.	9.3591
3061	17.972	0.18182	0.	8.6033
3062	17.972	0.36364	0.	3.9992
3063	17.972	0.54545	0.	0.1812
3064	17.972	0.72727	0.	8.0869e-002
3065	17.972	0.90909	0.	6.9307e-002
3066	17.972	1.0909	0.	6.4116e-002
3067	17.972	1.2727	0.	5.9944e-002
3068	17.972	1.4545	0.	5.5737e-002
3069	17.972	1.6364	0.	5.1396e-002
3070	17.972	1.8182	0.	4.7067e-002
3071	17.972	2.	0.	4.2986e-002
3072	17.972	2.1818	0.	3.9377e-002
3073	17.972	2.3636	0.	3.6405e-002
3074	17.972	2.5455	0.	3.4164e-002
3075	17.972	2.7273	0.	3.2681e-002
3076	17.972	2.9091	0.	3.1946e-002
3077	17.972	3.0909	0.	3.1947e-002
3078	17.972	3.2727	0.	3.268e-002
3079	17.972	3.4545	0.	3.4164e-002
3080	17.972	3.6364	0.	3.6405e-002
3081	17.972	3.8182	0.	3.9378e-002
3082	17.972	4.	0.	4.2987e-002
3083	17.972	4.1818	0.	4.7067e-002
3084	17.972	4.3636	0.	5.1395e-002
3085	17.972	4.5455	0.	5.5738e-002
3086	17.972	4.7273	0.	5.9942e-002
3087	17.972	4.9091	0.	6.4115e-002
3088	17.972	5.0909	0.	6.9308e-002
3089	17.972	5.2727	0.	8.0867e-002
3090	17.972	5.4545	0.	0.18119
3091	17.972	5.6364	0.	3.9992
3092	17.972	5.8182	0.	8.6032
3093	18.155	0.18182	0.	8.1744
3094	18.155	0.36364	0.	3.1907
3095	18.155	0.54545	0.	9.1047e-002
3096	18.155	0.72727	0.	5.6426e-002
3097	18.155	0.90909	0.	5.2227e-002
3098	18.155	1.0909	0.	5.0283e-002
3099	18.155	1.2727	0.	4.8198e-002
3100	18.155	1.4545	0.	4.5615e-002
3101	18.155	1.6364	0.	4.2613e-002
3102	18.155	1.8182	0.	3.9399e-002
3103	18.155	2.	0.	3.6215e-002
3104	18.155	2.1818	0.	3.3281e-002
3105	18.155	2.3636	0.	3.0776e-002
3106	18.155	2.5455	0.	2.8825e-002
3107	18.155	2.7273	0.	2.7496e-002
3108	18.155	2.9091	0.	2.6827e-002
3109	18.155	3.0909	0.	2.6826e-002
3110	18.155	3.2727	0.	2.7496e-002
3111	18.155	3.4545	0.	2.8824e-002
3112	18.155	3.6364	0.	3.0776e-002
3113	18.155	3.8182	0.	3.3281e-002
3114	18.155	4.	0.	3.6215e-002
3115	18.155	4.1818	0.	3.9399e-002
3116	18.155	4.3636	0.	4.2612e-002
3117	18.155	4.5455	0.	4.5615e-002
3118	18.155	4.7273	0.	4.8198e-002
3119	18.155	4.9091	0.	5.0282e-002
3120	18.155	5.0909	0.	5.2226e-002
3121	18.155	5.2727	0.	5.6425e-002
3122	18.155	5.4545	0.	9.1047e-002
3123	18.155	5.6364	0.	3.1907
3124	18.155	5.8182	0.	8.1743
3125	18.337	0.18182	0.	8.0277
3126	18.337	0.36364	0.	2.7934
3127	18.337	0.54545	0.	5.5515e-002
3128	18.337	0.72727	0.	4.1526e-002
3129	18.337	0.90909	0.	4.0625e-002
3130	18.337	1.0909	0.	4.0375e-002
3131	18.337	1.2727	0.	3.9517e-002
3132	18.337	1.4545	0.	3.799e-002
3133	18.337	1.6364	0.	3.5925e-002
3134	18.337	1.8182	0.	3.3542e-002
3135	18.337	2.	0.	3.1061e-002
3136	18.337	2.1818	0.	2.8692e-002
3137	18.337	2.3636	0.	2.6613e-002
3138	18.337	2.5455	0.	2.4951e-002
3139	18.337	2.7273	0.	2.38e-002
3140	18.337	2.9091	0.	2.3213e-002
3141	18.337	3.0909	0.	2.3213e-002
3142	18.337	3.2727	0.	2.3801e-002
3143	18.337	3.4545	0.	2.4952e-002
3144	18.337	3.6364	0.	2.6612e-002
3145	18.337	3.8182	0.	2.8692e-002
3146	18.337	4.	0.	3.106e-002
3147	18.337	4.1818	0.	3.3541e-002
3148	18.337	4.3636	0.	3.5925e-002
3149	18.337	4.5455	0.	3.7991e-002
3150	18.337	4.7273	0.	3.9517e-002
3151	18.337	4.9091	0.	4.0375e-002
3152	18.337	5.0909	0.	4.0624e-002
3153	18.337	5.2727	0.	4.1523e-002
3154	18.337	5.4545	0.	5.5515e-002
3155	18.337	5.6364	0.	2.7934
3156	18.337	5.8182	0.	8.0276
3157	18.52	0.18182	0.	8.1218
3158	18.52	0.36364	0.	2.7515
3159	18.52	0.54545	0.	3.7569e-002
3160	18.52	0.72727	0.	3.1863e-002
3161	18.52	0.90909	0.	3.2518e-002
3162	18.52	1.0909	0.	3.3174e-002
3163	18.52	1.2727	0.	3.3059e-002
3164	18.52	1.4545	0.	3.2235e-002
3165	18.52	1.6364	0.	3.0851e-002
3166	18.52	1.8182	0.	2.9096e-002
3167	18.52	2.	0.	2.7181e-002
3168	18.52	2.1818	0.	2.5289e-002
3169	18.52	2.3636	0.	2.3587e-002
3170	18.52	2.5455	0.	2.2201e-002
3171	18.52	2.7273	0.	2.1229e-002
3172	18.52	2.9091	0.	2.0728e-002
3173	18.52	3.0909	0.	2.0727e-002
3174	18.52	3.2727	0.	2.1228e-002
3175	18.52	3.4545	0.	2.2201e-002
3176	18.52	3.6364	0.	2.3586e-002
3177	18.52	3.8182	0.	2.529e-002
3178	18.52	4.	0.	2.7181e-002
3179	18.52	4.1818	0.	2.9097e-002
3180	18.52	4.3636	0.	3.085e-002
3181	18.52	4.5455	0.	3.2236e-002
3182	18.52	4.7273	0.	3.3058e-002
3183	18.52	4.9091	0.	3.3173e-002
3184	18.52	5.0909	0.	3.2517e-002
3185	18.52	5.2727	0.	3.1861e-002
3186	18.52	5.4545	0.	3.757e-002
3187	18.52	5.6364	0.	2.7515
3188	18.52	5.8182	0.	8.1218
3189	18.703	0.18182	0.	8.4197
3190	18.703	0.36364	0.	3.0135
3191	18.703	0.54545	0.	2.7087e-002
3192	18.703	0.72727	0.	2.5296e-002
3193	18.703	0.90909	0.	2.6731e-002
3194	18.703	1.0909	0.	2.7885e-002
3195	18.703	1.2727	0.	2.8236e-002
3196	18.703	1.4545	0.	2.7905e-002
3197	18.703	1.6364	0.	2.7021e-002
3198	18.703	1.8182	0.	2.5764e-002
3199	18.703	2.	0.	2.4306e-002
3200	18.703	2.1818	0.	2.2819e-002
3201	18.703	2.3636	0.	2.1447e-002
3202	18.703	2.5455	0.	2.0315e-002
3203	18.703	2.7273	0.	1.9508e-002
3204	18.703	2.9091	0.	1.909e-002
3205	18.703	3.0909	0.	1.9089e-002
3206	18.703	3.2727	0.	1.951e-002
3207	18.703	3.4545	0.	2.0316e-002
3208	18.703	3.6364	0.	2.1448e-002
3209	18.703	3.8182	0.	2.2819e-002
3210	18.703	4.	0.	2.4306e-002
3211	18.703	4.1818	0.	2.5762e-002
3212	18.703	4.3636	0.	2.7022e-002
3213	18.703	4.5455	0.	2.7904e-002
3214	18.703	4.7273	0.	2.8236e-002
3215	18.703	4.9091	0.	2.7883e-002
3216	18.703	5.0909	0.	2.6731e-002
3217	18.703	5.2727	0.	2.5294e-002
3218	18.703	5.4545	0.	2.7083e-002
3219	18.703	5.6364	0.	3.0135
3220	18.703	5.8182	0.	8.4196
3221	18.885	0.18182	0.	8.8881
3222	18.885	0.36364	0.	3.5315
3223	18.885	0.54545	0.	2.0363e-002
3224	18.885	0.72727	0.	2.0697e-002
3225	18.885	0.90909	0.	2.2555e-002
3226	18.885	1.0909	0.	2.3984e-002
3227	18.885	1.2727	0.	2.4642e-002
3228	18.885	1.4545	0.	2.4664e-002
3229	18.885	1.6364	0.	2.4168e-002
3230	18.885	1.8182	0.	2.3304e-002
3231	18.885	2.	0.	2.2228e-002
3232	18.885	2.1818	0.	2.1085e-002
3233	18.885	2.3636	0.	2.0001e-002
3234	18.885	2.5455	0.	1.9093e-002
3235	18.885	2.7273	0.	1.8439e-002
3236	18.885	2.9091	0.	1.8099e-002
3237	18.885	3.0909	0.	1.8098e-002
3238	18.885	3.2727	0.	1.844e-002
3239	18.885	3.4545	0.	1.9093e-002
3240	18.885	3.6364	0.	2.0002e-002
3241	18.885	3.8182	0.	2.1083e-002
3242	18.885	4.	0.	2.2229e-002
3243	18.885	4.1818	0.	2.3304e-002
3244	18.885	4.3636	0.	2.4167e-002
3245	18.885	4.5455	0.	2.4665e-002
3246	18.885	4.7273	0.	2.4641e-002
3247	18.885	4.9091	0.	2.3982e-002
3248	18.885	5.0909	0.	2.2553e-002
3249	18.885	5.2727	0.	2.0696e-002
3250	18.885	5.4545	0.	2.0365e-002
3251	18.885	5.6364	0.	3.5315
3252	18.885	5.8182	0.	8.888
3253	19.068	0.18182	0.	9.4976
3254	19.068	0.36364	0.	4.2615
3255	19.068	0.54545	0.	1.6854e-002
3256	19.068	0.72727	0.	1.7489e-002
3257	19.068	0.90909	0.	1.9557e-002
3258	19.068	1.0909	0.	2.1131e-002
3259	19.068	1.2727	0.	2.1992e-002
3260	19.068	1.4545	0.	2.2276e-002
3261	19.068	1.6364	0.	2.2085e-002
3262	19.068	1.8182	0.	2.1544e-002
3263	19.068	2.	0.	2.0786e-002
3264	19.068	2.1818	0.	1.9934e-002
3265	19.068	2.3636	0.	1.9105e-002
3266	19.068	2.5455	0.	1.8394e-002
3267	19.068	2.7273	0.	1.7875e-002
3268	19.068	2.9091	0.	1.7603e-002
3269	19.068	3.0909	0.	1.7603e-002
3270	19.068	3.2727	0.	1.7875e-002
3271	19.068	3.4545	0.	1.8392e-002
3272	19.068	3.6364	0.	1.9103e-002
3273	19.068	3.8182	0.	1.9933e-002
3274	19.068	4.	0.	2.0786e-002
3275	19.068	4.1818	0.	2.1544e-002
3276	19.068	4.3636	0.	2.2085e-002
3277	19.068	4.5455	0.	2.2276e-002
3278	19.068	4.7273	0.	2.1993e-002
3279	19.068	4.9091	0.	2.113e-002
3280	19.068	5.0909	0.	1.9556e-002
3281	19.068	5.2727	0.	1.7487e-002
3282	19.068	5.4545	0.	1.6853e-002
3283	19.068	5.6364	0.	4.2615
3284	19.068	5.8182	0.	9.4975
3285	19.251	0.18182	0.	10.223
3286	19.251	0.36364	0.	5.1652
3287	19.251	0.54545	0.	1.0955
3288	19.251	0.72727	0.	1.5578e-002
3289	19.251	0.90909	0.	1.753e-002
3290	19.251	1.0909	0.	1.9113e-002
3291	19.251	1.2727	0.	2.0094e-002
3292	19.251	1.4545	0.	2.0573e-002
3293	19.251	1.6364	0.	2.0622e-002
3294	19.251	1.8182	0.	2.0345e-002
3295	19.251	2.	0.	1.9854e-002
3296	19.251	2.1818	0.	1.9251e-002
3297	19.251	2.3636	0.	1.8639e-002
3298	19.251	2.5455	0.	1.8101e-002
3299	19.251	2.7273	0.	1.7704e-002
3300	19.251	2.9091	0.	1.7495e-002
3301	19.251	3.0909	0.	1.7494e-002
3302	19.251	3.2727	0.	1.7705e-002
3303	19.251	3.4545	0.	1.8102e-002
3304	19.251	3.6364	0.	1.864e-002
3305	19.251	3.8182	0.	1.9252e-002
3306	19.251	4.	0.	1.9853e-002
3307	19.251	4.1818	0.	2.0346e-002
3308	19.251	4.3636	0.	2.062e-002
3309	19.251	4.5455	0.	2.0574e-002
3310	19.251	4.7273	0.	2.0093e-002
3311	19.251	4.9091	0.	1.9114e-002
3312	19.251	5.0909	0.	1.7527e-002
3313	19.251	5.2727	0.	1.5575e-002
3314	19.251	5.4545	0.	1.0955
3315	19.251	5.6364	0.	5.1651
3316	19.251	5.8182	0.	10.223
3317	19.433	0.18182	0.	11.041
3318	19.433	0.36364	0.	6.2093
3319	19.433	0.54545	0.	2.5337
3320	19.433	0.72727	0.	1.6925e-002
3321	19.433	0.90909	0.	1.6544e-002
3322	19.433	1.0909	0.	1.7853e-002
3323	19.433	1.2727	0.	1.8838e-002
3324	19.433	1.4545	0.	1.9435e-002
3325	19.433	1.6364	0.	1.9667e-002
3326	19.433	1.8182	0.	1.9608e-002
3327	19.433	2.	0.	1.9337e-002
3328	19.433	2.1818	0.	1.8951e-002
3329	19.433	2.3636	0.	1.8525e-002
3330	19.433	2.5455	0.	1.814e-002
3331	19.433	2.7273	0.	1.7847e-002
3332	19.433	2.9091	0.	1.7691e-002
3333	19.433	3.0909	0.	1.7691e-002
3334	19.433	3.2727	0.	1.7849e-002
3335	19.433	3.4545	0.	1.8138e-002
3336	19.433	3.6364	0.	1.8526e-002
3337	19.433	3.8182	0.	1.8949e-002
3338	19.433	4.	0.	1.9338e-002
3339	19.433	4.1818	0.	1.9606e-002
3340	19.433	4.3636	0.	1.9668e-002
3341	19.433	4.5455	0.	1.9435e-002
3342	19.433	4.7273	0.	1.8836e-002
3343	19.433	4.9091	0.	1.7853e-002
3344	19.433	5.0909	0.	1.6541e-002
3345	19.433	5.2727	0.	1.6924e-002
3346	19.433	5.4545	0.	2.5336
3347	19.433	5.6364	0.	6.2093
3348	19.433	5.8182	0.	11.041
3349	19.616	0.18182	0.	11.933
3350	19.616	0.36364	0.	7.3663
3351	19.616	0.54545	0.	4.1052
3352	19.616	0.72727	0.	0.78801
3353	19.616	0.90909	0.	1.7878e-002
3354	19.616	1.0909	0.	1.7525e-002
3355	19.616	1.2727	0.	1.8219e-002
3356	19.616	1.4545	0.	1.8815e-002
3357	19.616	1.6364	0.	1.9157e-002
3358	19.616	1.8182	0.	1.9261e-002
3359	19.616	2.	0.	1.9175e-002
3360	19.616	2.1818	0.	1.8965e-002
3361	19.616	2.3636	0.	1.87e-002
3362	19.616	2.5455	0.	1.8446e-002
3363	19.616	2.7273	0.	1.8245e-002
3364	19.616	2.9091	0.	1.8136e-002
3365	19.616	3.0909	0.	1.8135e-002
3366	19.616	3.2727	0.	1.8245e-002
3367	19.616	3.4545	0.	1.8446e-002
3368	19.616	3.6364	0.	1.8703e-002
3369	19.616	3.8182	0.	1.8966e-002
3370	19.616	4.	0.	1.9174e-002
3371	19.616	4.1818	0.	1.926e-002
3372	19.616	4.3636	0.	1.9158e-002
3373	19.616	4.5455	0.	1.8813e-002
3374	19.616	4.7273	0.	1.822e-002
3375	19.616	4.9091	0.	1.7523e-002
3376	19.616	5.0909	0.	1.7874e-002
3377	19.616	5.2727	0.	0.78801
3378	19.616	5.4545	0.	4.1052
3379	19.616	5.6364	0.	7.3663
3380	19.616	5.8182	0.	11.933
3381	19.799	0.18182	0.	12.882
3382	19.799	0.36364	0.	8.6128
3383	19.799	0.54545	0.	5.7836
3384	19.799	0.72727	0.	2.9623
3385	19.799	0.90909	0.	0.15949
3386	19.799	1.0909	0.	1.9745e-002
3387	19.799	1.2727	0.	1.857e-002
3388	19.799	1.4545	0.	1.8786e-002
3389	19.799	1.6364	0.	1.9092e-002
3390	19.799	1.8182	0.	1.9278e-002
3391	19.799	2.	0.	1.9323e-002
3392	19.799	2.1818	0.	1.9257e-002
3393	19.799	2.3636	0.	1.9128e-002
3394	19.799	2.5455	0.	1.898e-002
3395	19.799	2.7273	0.	1.8858e-002
3396	19.799	2.9091	0.	1.8789e-002
3397	19.799	3.0909	0.	1.879e-002
3398	19.799	3.2727	0.	1.8857e-002
3399	19.799	3.4545	0.	1.8981e-002
3400	19.799	3.6364	0.	1.9127e-002
3401	19.799	3.8182	0.	1.9256e-002
3402	19.799	4.	0.	1.9323e-002
3403	19.799	4.1818	0.	1.9278e-002
3404	19.799	4.3636	0.	1.9092e-002
3405	19.799	4.5455	0.	1.8785e-002
3406	19.799	4.7273	0.	1.857e-002
3407	19.799	4.9091	0.	1.9746e-002
3408	19.799	5.0909	0.	0.15949
3409	19.799	5.2727	0.	2.9623
3410	19.799	5.4545	0.	5.7836
3411	19.799	5.6364	0.	8.6127
3412	19.799	5.8182	0.	12.882
3413	19.981	0.18182	0.	13.874
3414	19.981	0.36364	0.	9.9295
3415	19.981	0.54545	0.	7.5474
3416	19.981	0.72727	0.	5.2304
3417	19.981	0.90909	0.	2.8846
3418	19.981	1.0909	0.	0.53191
3419	19.981	1.2727	0.	2.3682e-002
3420	19.981	1.4545	0.	2.009e-002
3421	19.981	1.6364	0.	1.9685e-002
3422	19.981	1.8182	0.	1.9721e-002
3423	19.981	2.	0.	1.9791e-002
3424	19.981	2.1818	0.	1.9809e-002
3425	19.981	2.3636	0.	1.9776e-002
3426	19.981	2.5455	0.	1.9716e-002
3427	19.981	2.7273	0.	1.9658e-002
3428	19.981	2.9091	0.	1.9624e-002
3429	19.981	3.0909	0.	1.9623e-002
3430	19.981	3.2727	0.	1.9659e-002
3431	19.981	3.4545	0.	1.9715e-002
3432	19.981	3.6364	0.	1.9777e-002
3433	19.981	3.8182	0.	1.9809e-002
3434	19.981	4.	0.	1.9792e-002
3435	19.981	4.1818	0.	1.9722e-002
3436	19.981	4.3636	0.	1.9685e-002
3437	19.981	4.5455	0.	2.0091e-002
3438	19.981	4.7273	0.	2.368e-002
3439	19.981	4.9091	0.	0.53191
3440	19.981	5.0909	0.	2.8846
3441	19.981	5.2727	0.	5.2303
3442	19.981	5.4545	0.	7.5473
3443	19.981	5.6364	0.	9.9295
3444	19.981	5.8182	0.	13.874
3445	20.164	0.18182	0.	14.897
3446	20.164	0.36364	0.	11.301
3447	20.164	0.54545	0.	9.3792
3448	20.164	0.72727	0.	7.5704
3449	20.164	0.90909	0.	5.769
3450	20.164	1.0909	0.	3.9638
3451	20.164	1.2727	0.	2.1626
3452	20.164	1.4545	0.	0.40504
3453	20.164	1.6364	0.	2.5142e-002
3454	20.164	1.8182	0.	2.1472e-002
3455	20.164	2.	0.	2.0852e-002
3456	20.164	2.1818	0.	2.0715e-002
3457	20.164	2.3636	0.	2.0676e-002
3458	20.164	2.5455	0.	2.0655e-002
3459	20.164	2.7273	0.	2.0635e-002
3460	20.164	2.9091	0.	2.0624e-002
3461	20.164	3.0909	0.	2.0623e-002
3462	20.164	3.2727	0.	2.0635e-002
3463	20.164	3.4545	0.	2.0654e-002
3464	20.164	3.6364	0.	2.0677e-002
3465	20.164	3.8182	0.	2.0714e-002
3466	20.164	4.	0.	2.0851e-002
3467	20.164	4.1818	0.	2.1471e-002
3468	20.164	4.3636	0.	2.5142e-002
3469	20.164	4.5455	0.	0.40504
3470	20.164	4.7273	0.	2.1626
3471	20.164	4.9091	0.	3.9638
3472	20.164	5.0909	0.	5.769
3473	20.164	5.2727	0.	7.5703
3474	20.164	5.4545	0.	9.3792
3475	20.164	5.6364	0.	11.301
3476	20.164	5.8182	0.	14.897
3477	20.347	0.18182	0.	15.939
3478	20.347	0.36364	0.	12.714
3479	20.347	0.54545	0.	11.266
3480	20.347	0.72727	0.	9.9702
3481	20.347	0.90909	0.	8.7109
3482	20.347	1.0909	0.	7.4662
3483	20.347	1.2727	0.	6.2313
3484	20.347	1.4545	0.	5.0124
3485	20.347	1.6364	0.	3.8253
3486	20.347	1.8182	0.	2.693
3487	20.347	2.	0.	1.6436
3488	20.347	2.1818	0.	0.70803
3489	20.347	2.3636	0.	3.205e-002
3490	20.347	2.5455	0.	2.2457e-002
3491	20.347	2.7273	0.	2.191e-002
3492	20.347	2.9091	0.	2.1794e-002
3493	20.347	3.0909	0.	2.1793e-002
3494	20.347	3.2727	0.	2.1911e-002
3495	20.347	3.4545	0.	2.2456e-002
3496	20.347	3.6364	0.	3.2047e-002
3497	20.347	3.8182	0.	0.70802
3498	20.347	4.	0.	1.6436
3499	20.347	4.1818	0.	2.693
3500	20.347	4.3636	0.	3.8253
3501	20.347	4.5455	0.	5.0124
3502	20.347	4.7273	0.	6.2313
3503	20.347	4.9091	0.	7.4662
3504	20.347	5.0909	0.	8.7109
3505	20.347	5.2727	0.	9.9702
3506	20.347	5.4545	0.	11.266
3507	20.347	5.6364	0.	12.714
3508	20.347	5.8182	0.	15.939
3509	20.529	0.18182	0.	16.993
3510	20.529	0.36364	0.	14.159
3511	20.529	0.54545	0.	13.198
3512	20.529	0.72727	0.	12.422
3513	20.529	0.90909	0.	11.705
3514	20.529	1.0909	0.	11.014
3515	20.529	1.2727	0.	10.335
3516	20.529	1.4545	0.	9.6606
3517	20.529	1.6364	0.	8.9957
3518	20.529	1.8182	0.	8.3514
3519	20.529	2.	0.	7.7443
3520	20.529	2.1818	0.	7.1944
3521	20.529	2.3636	0.	6.7225
3522	20.529	2.5455	0.	6.3485
3523	20.529	2.7273	0.	6.089
3524	20.529	2.9091	0.	5.9561
3525	20.529	3.0909	0.	5.9561
3526	20.529	3.2727	0.	6.089
3527	20.529	3.4545	0.	6.3485
3528	20.529	3.6364	0.	6.7225
3529	20.529	3.8182	0.	7.1944
3530	20.529	4.	0.	7.7443
3531	20.529	4.1818	0.	8.3514
3532	20.529	4.3636	0.	8.9957
3533	20.529	4.5455	0.	9.6605
3534	20.529	4.7273	0.	10.335
3535	20.529	4.9091	0.	11.014
3536	20.529	5.0909	0.	11.705
3537	20.529	5.2727	0.	12.422
3538	20.529	5.4545	0.	13.198
3539	20.529	5.6364	0.	14.159
3540	20.529	5.8182	0.	16.993
3541	20.712	0.18182	0.	18.05
3542	20.712	0.36364	0.	15.628
3543	20.712	0.54545	0.	15.168
3544	20.712	0.72727	0.	14.921
3545	20.712	0.90909	0.	14.75
3546	20.712	1.0909	0.	14.612
3547	20.712	1.2727	0.	14.479
3548	20.712	1.4545	0.	14.337
3549	20.712	1.6364	0.	14.178
3550	20.712	1.8182	0.	14.003
3551	20.712	2.	0.	13.819
3552	20.712	2.1818	0.	13.636
3553	20.712	2.3636	0.	13.468
3554	20.712	2.5455	0.	13.328
3555	20.712	2.7273	0.	13.228
3556	20.712	2.9091	0.	13.175
3557	20.712	3.0909	0.	13.175
3558	20.712	3.2727	0.	13.228
3559	20.712	3.4545	0.	13.328
3560	20.712	3.6364	0.	13.468
3561	20.712	3.8182	0.	13.636
3562	20.712	4.	0.	13.819
3563	20.712	4.1818	0.	14.003
3564	20.712	4.3636	0.	14.178
3565	20.712	4.5455	0.	14.337
3566	20.712	4.7273	0.	14.479
3567	20.712	4.9091	0.	14.612
3568	20.712	5.0909	0.	14.75
3569	20.712	5.2727	0.	14.921
3570	20.712	5.4545	0.	15.168
3571	20.712	5.6364	0.	15.628
3572	20.712	5.8182	0.	18.05
3573	20.895	0.18182	0.	19.103
3574	20.895	0.36364	0.	17.115
3575	20.895	0.54545	0.	17.173
3576	20.895	0.72727	0.	17.468
3577	20.895	0.90909	0.	17.85
3578	20.895	1.0909	0.	18.266
3579	20.895	1.2727	0.	18.678
3580	20.895	1.4545	0.	19.061
3581	20.895	1.6364	0.	19.397
3582	20.895	1.8182	0.	19.677
3583	20.895	2.	0.	19.9
3584	20.895	2.1818	0.	20.069
3585	20.895	2.3636	0.	20.191
3586	20.895	2.5455	0.	20.273
3587	20.895	2.7273	0.	20.323
3588	20.895	2.9091	0.	20.346
3589	20.895	3.0909	0.	20.346
3590	20.895	3.2727	0.	20.323
3591	20.895	3.4545	0.	20.273
3592	20.895	3.6364	0.	20.191
3593	20.895	3.8182	0.	20.069
3594	20.895	4.	0.	19.9
3595	20.895	4.1818	0.	19.677
3596	20.895	4.3636	0.	19.397
3597	20.895	4.5455	0.	19.061
3598	20.895	4.7273	0.	18.678
3599	20.895	4.9091	0.	18.266
3600	20.895	5.0909	0.	17.85
3601	20.895	5.2727	0.	17.468
3602	20.895	5.4545	0.	17.173
3603	20.895	5.6364	0.	17.115
3604	20.895	5.8182	0.	19.103
3605	21.077	0.18182	0.	20.146
3606	21.077	0.36364	0.	18.616
3607	21.077	0.54545	0.	19.212
3608	21.077	0.72727	0.	20.064
3609	21.077	0.90909	0.	21.011
3610	21.077	1.0909	0.	21.989
3611	21.077	1.2727	0.	22.948
3612	21.077	1.4545	0.	23.853
3613	21.077	1.6364	0.	24.676
3614	21.077	1.8182	0.	25.402
3615	21.077	2.	0.	26.021
3616	21.077	2.1818	0.	26.53
3617	21.077	2.3636	0.	26.931
3618	21.077	2.5455	0.	27.226
3619	21.077	2.7273	0.	27.42
3620	21.077	2.9091	0.	27.516
3621	21.077	3.0909	0.	27.516
3622	21.077	3.2727	0.	27.42
3623	21.077	3.4545	0.	27.226
3624	21.077	3.6364	0.	26.931
3625	21.077	3.8182	0.	26.53
3626	21.077	4.	0.	26.021
3627	21.077	4.1818	0.	25.402
3628	21.077	4.3636	0.	24.676
3629	21.077	4.5455	0.	23.853
3630	21.077	4.7273	0.	22.948
3631	21.077	4.9091	0.	21.989
3632	21.077	5.0909	0.	21.011
3633	21.077	5.2727	0.	20.064
3634	21.077	5.4545	0.	19.212
3635	21.077	5.6364	0.	18.616
3636	21.077	5.8182	0.	20.145
3637	21.26	0.18182	0.	21.172
3638	21.26	0.36364	0.	20.128
3639	21.26	0.54545	0.	21.284
3640	21.26	0.72727	0.	22.714
3641	21.26	0.90909	0.	24.244
3642	21.26	1.0909	0.	25.795
3643	21.26	1.2727	0.	27.308
3644	21.26	1.4545	0.	28.737
3645	21.26	1.6364	0.	30.046
3646	21.26	1.8182	0.	31.211
3647	21.26	2.	0.	32.218
3648	21.26	2.1818	0.	33.058
3649	21.26	2.3636	0.	33.728
3650	21.26	2.5455	0.	34.229
3651	21.26	2.7273	0.	34.561
3652	21.26	2.9091	0.	34.726
3653	21.26	3.0909	0.	34.726
3654	21.26	3.2727	0.	34.561
3655	21.26	3.4545	0.	34.229
3656	21.26	3.6364	0.	33.728
3657	21.26	3.8182	0.	33.058
3658	21.26	4.	0.	32.218
3659	21.26	4.1818	0.	31.211
3660	21.26	4.3636	0.	30.046
3661	21.26	4.5455	0.	28.737
3662	21.26	4.7273	0.	27.308
3663	21.26	4.9091	0.	25.795
3664	21.26	5.0909	0.	24.244
3665	21.26	5.2727	0.	22.714
3666	21.26	5.4545	0.	21.284
3667	21.26	5.6364	0.	20.128
3668	21.26	5.8182	0.	21.172
3669	21.443	0.18182	0.	22.175
3670	21.443	0.36364	0.	21.65
3671	21.443	0.54545	0.	23.394
3672	21.443	0.72727	0.	25.428
3673	21.443	0.90909	0.	27.562
3674	21.443	1.0909	0.	29.704
3675	21.443	1.2727	0.	31.782
3676	21.443	1.4545	0.	33.74
3677	21.443	1.6364	0.	35.535
3678	21.443	1.8182	0.	37.137
3679	21.443	2.	0.	38.526
3680	21.443	2.1818	0.	39.69
3681	21.443	2.3636	0.	40.623
3682	21.443	2.5455	0.	41.322
3683	21.443	2.7273	0.	41.787
3684	21.443	2.9091	0.	42.019
3685	21.443	3.0909	0.	42.019
3686	21.443	3.2727	0.	41.787
3687	21.443	3.4545	0.	41.322
3688	21.443	3.6364	0.	40.623
3689	21.443	3.8182	0.	39.69
3690	21.443	4.	0.	38.526
3691	21.443	4.1818	0.	37.137
3692	21.443	4.3636	0.	35.535
3693	21.443	4.5455	0.	33.74
3694	21.443	4.7273	0.	31.782
3695	21.443	4.9091	0.	29.704
3696	21.443	5.0909	0.	27.562
3697	21.443	5.2727	0.	25.428
3698	21.443	5.4545	0.	23.394
3699	21.443	5.6364	0.	21.65
3700	21.443	5.8182	0.	22.175
3701	21.625	0.18182	0.	23.151
3702	21.625	0.36364	0.	23.182
3703	21.625	0.54545	0.	25.548
3704	21.625	0.72727	0.	28.218
3705	21.625	0.90909	0.	30.984
3706	21.625	1.0909	0.	33.738
3707	21.625	1.2727	0.	36.397
3708	21.625	1.4545	0.	38.893
3709	21.625	1.6364	0.	41.178
3710	21.625	1.8182	0.	43.216
3711	21.625	2.	0.	44.982
3712	21.625	2.1818	0.	46.464
3713	21.625	2.3636	0.	47.652
3714	21.625	2.5455	0.	48.543
3715	21.625	2.7273	0.	49.138
3716	21.625	2.9091	0.	49.435
3717	21.625	3.0909	0.	49.435
3718	21.625	3.2727	0.	49.138
3719	21.625	3.4545	0.	48.543
3720	21.625	3.6364	0.	47.652
3721	21.625	3.8182	0.	46.464
3722	21.625	4.	0.	44.982
3723	21.625	4.1818	0.	43.216
3724	21.625	4.3636	0.	41.178
3725	21.625	4.5455	0.	38.893
3726	21.625	4.7273	0.	36.397
3727	21.625	4.9091	0.	33.738
3728	21.625	5.0909	0.	30.984
3729	21.625	5.2727	0.	28.218
3730	21.625	5.4545	0.	25.547
3731	21.625	5.6364	0.	23.182
3732	21.625	5.8182	0.	23.151
3733	21.808	0.18182	0.	24.092
3734	21.808	0.36364	0.	24.725
3735	21.808	0.54545	0.	27.754
3736	21.808	0.72727	0.	31.1
3737	21.808	0.90909	0.	34.533
3738	21.808	1.0909	0.	37.927
3739	21.808	1.2727	0.	41.185
3740	21.808	1.4545	0.	44.231
3741	21.808	1.6364	0.	47.01
3742	21.808	1.8182	0.	49.482
3743	21.808	2.	0.	51.622
3744	21.808	2.1818	0.	53.415
3745	21.808	2.3636	0.	54.852
3746	21.808	2.5455	0.	55.931
3747	21.808	2.7273	0.	56.65
3748	21.808	2.9091	0.	57.009
3749	21.808	3.0909	0.	57.009
3750	21.808	3.2727	0.	56.65
3751	21.808	3.4545	0.	55.931
3752	21.808	3.6364	0.	54.852
3753	21.808	3.8182	0.	53.415
3754	21.808	4.	0.	51.622
3755	21.808	4.1818	0.	49.482
3756	21.808	4.3636	0.	47.01
3757	21.808	4.5455	0.	44.231
3758	21.808	4.7273	0.	41.185
3759	21.808	4.9091	0.	37.927
3760	21.808	5.0909	0.	34.533
3761	21.808	5.2727	0.	31.1
3762	21.808	5.4545	0.	27.754
3763	21.808	5.6364	0.	24.725
3764	21.808	5.8182	0.	24.092
3765	21.991	0.18182	0.	24.992
3766	21.991	0.36364	0.	26.284
3767	21.991	0.54545	0.	30.028
3768	21.991	0.72727	0.	34.097
3769	21.991	0.90909	0.	38.239
3770	21.991	1.0909	0.	42.304
3771	21.991	1.2727	0.	46.183
3772	21.991	1.4545	0.	49.791
3773	21.991	1.6364	0.	53.069
3774	21.991	1.8182	0.	55.975
3775	21.991	2.	0.	58.483
3776	21.991	2.1818	0.	60.581
3777	21.991	2.3636	0.	62.26
3778	21.991	2.5455	0.	63.519
3779	21.991	2.7273	0.	64.358
3780	21.991	2.9091	0.	64.776
3781	21.991	3.0909	0.	64.776
3782	21.991	3.2727	0.	64.358
3783	21.991	3.4545	0.	63.519
3784	21.991	3.6364	0.	62.26
3785	21.991	3.8182	0.	60.581
3786	21.991	4.	0.	58.483
3787	21.991	4.1818	0.	55.975
3788	21.991	4.3636	0.	53.069
3789	21.991	4.5455	0.	49.791
3790	21.991	4.7273	0.	46.183
3791	21.991	4.9091	0.	42.304
3792	21.991	5.0909	0.	38.238
3793	21.991	5.2727	0.	34.097
3794	21.991	5.4545	0.	30.028
3795	21.991	5.6364	0.	26.284
3796	21.991	5.8182	0.	24.992
3797	22.173	0.18182	0.	25.843
3798	22.173	0.36364	0.	27.863
3799	22.173	0.54545	0.	32.386
3800	22.173	0.72727	0.	37.239
3801	22.173	0.90909	0.	42.138
3802	22.173	1.0909	0.	46.912
3803	22.173	1.2727	0.	51.435
3804	22.173	1.4545	0.	55.618
3805	22.173	1.6364	0.	59.397
3806	22.173	1.8182	0.	62.733
3807	22.173	2.	0.	65.603
3808	22.173	2.1818	0.	67.997
3809	22.173	2.3636	0.	69.909
3810	22.173	2.5455	0.	71.341
3811	22.173	2.7273	0.	72.293
3812	22.173	2.9091	0.	72.769
3813	22.173	3.0909	0.	72.769
3814	22.173	3.2727	0.	72.293
3815	22.173	3.4545	0.	71.341
3816	22.173	3.6364	0.	69.909
3817	22.173	3.8182	0.	67.997
3818	22.173	4.	0.	65.603
3819	22.173	4.1818	0.	62.733
3820	22.173	4.3636	0.	59.397
3821	22.173	4.5455	0.	55.618
3822	22.173	4.7273	0.	51.435
3823	22.173	4.9091	0.	46.912
3824	22.173	5.0909	0.	42.138
3825	22.173	5.2727	0.	37.239
3826	22.173	5.4545	0.	32.386
3827	22.173	5.6364	0.	27.863
3828	22.173	5.8182	0.	25.843
3829	22.356	0.18182	0.	26.637
3830	22.356	0.36364	0.	29.473
3831	22.356	0.54545	0.	34.855
3832	22.356	0.72727	0.	40.564
3833	22.356	0.90909	0.	46.278
3834	22.356	1.0909	0.	51.8
3835	22.356	1.2727	0.	56.991
3836	22.356	1.4545	0.	61.757
3837	22.356	1.6364	0.	66.037
3838	22.356	1.8182	0.	69.797
3839	22.356	2.	0.	73.018
3840	22.356	2.1818	0.	75.696
3841	22.356	2.3636	0.	77.831
3842	22.356	2.5455	0.	79.425
3843	22.356	2.7273	0.	80.485
3844	22.356	2.9091	0.	81.014
3845	22.356	3.0909	0.	81.014
3846	22.356	3.2727	0.	80.485
3847	22.356	3.4545	0.	79.425
3848	22.356	3.6364	0.	77.831
3849	22.356	3.8182	0.	75.696
3850	22.356	4.	0.	73.018
3851	22.356	4.1818	0.	69.797
3852	22.356	4.3636	0.	66.037
3853	22.356	4.5455	0.	61.757
3854	22.356	4.7273	0.	56.991
3855	22.356	4.9091	0.	51.8
3856	22.356	5.0909	0.	46.278
3857	22.356	5.2727	0.	40.564
3858	22.356	5.4545	0.	34.855
3859	22.356	5.6364	0.	29.473
3860	22.356	5.8182	0.	26.636
3861	22.539	0.18182	0.	27.362
3862	22.539	0.36364	0.	31.129
3863	22.539	0.54545	0.	37.473
3864	22.539	0.72727	0.	44.127
3865	22.539	0.90909	0.	50.721
3866	22.539	1.0909	0.	57.032
3867	22.539	1.2727	0.	62.91
3868	22.539	1.4545	0.	68.262
3869	22.539	1.6364	0.	73.037
3870	22.539	1.8182	0.	77.207
3871	22.539	2.	0.	80.764
3872	22.539	2.1818	0.	83.71
3873	22.539	2.3636	0.	86.053
3874	22.539	2.5455	0.	87.8
3875	22.539	2.7273	0.	88.959
3876	22.539	2.9091	0.	89.537
3877	22.539	3.0909	0.	89.537
3878	22.539	3.2727	0.	88.959
3879	22.539	3.4545	0.	87.8
3880	22.539	3.6364	0.	86.053
3881	22.539	3.8182	0.	83.711
3882	22.539	4.	0.	80.764
3883	22.539	4.1818	0.	77.207
3884	22.539	4.3636	0.	73.037
3885	22.539	4.5455	0.	68.262
3886	22.539	4.7273	0.	62.91
3887	22.539	4.9091	0.	57.032
3888	22.539	5.0909	0.	50.721
3889	22.539	5.2727	0.	44.127
3890	22.539	5.4545	0.	37.473
3891	22.539	5.6364	0.	31.129
3892	22.539	5.8182	0.	27.362
3893	22.721	0.18182	0.	28.008
3894	22.721	0.36364	0.	32.855
3895	22.721	0.54545	0.	40.295
3896	22.721	0.72727	0.	48.
3897	22.721	0.90909	0.	55.545
3898	22.721	1.0909	0.	62.681
3899	22.721	1.2727	0.	69.257
3900	22.721	1.4545	0.	75.19
3901	22.721	1.6364	0.	80.442
3902	22.721	1.8182	0.	85.002
3903	22.721	2.	0.	88.873
3904	22.721	2.1818	0.	92.068
3905	22.721	2.3636	0.	94.601
3906	22.721	2.5455	0.	96.486
3907	22.721	2.7273	0.	97.736
3908	22.721	2.9091	0.	98.358
3909	22.721	3.0909	0.	98.358
3910	22.721	3.2727	0.	97.736
3911	22.721	3.4545	0.	96.486
3912	22.721	3.6364	0.	94.601
3913	22.721	3.8182	0.	92.068
3914	22.721	4.	0.	88.873
3915	22.721	4.1818	0.	85.002
3916	22.721	4.3636	0.	80.442
3917	22.721	4.5455	0.	75.19
3918	22.721	4.7273	0.	69.257
3919	22.721	4.9091	0.	62.681
3920	22.721	5.0909	0.	55.545
3921	22.721	5.2727	0.	48.
3922	22.721	5.4545	0.	40.295
3923	22.721	5.6364	0.	32.855
3924	22.721	5.8182	0.	28.008
3925	22.904	0.18182	0.	28.56
3926	22.904	0.36364	0.	34.693
3927	22.904	0.54545	0.	43.403
3928	22.904	0.72727	0.	52.284
3929	22.904	0.90909	0.	60.851
3930	22.904	1.0909	0.	68.837
3931	22.904	1.2727	0.	76.106
3932	22.904	1.4545	0.	82.598
3933	22.904	1.6364	0.	88.3
3934	22.904	1.8182	0.	93.219
3935	22.904	2.	0.	97.375
3936	22.904	2.1818	0.	100.79
3937	22.904	2.3636	0.	103.5
3938	22.904	2.5455	0.	105.5
3939	22.904	2.7273	0.	106.83
3940	22.904	2.9091	0.	107.49
3941	22.904	3.0909	0.	107.49
3942	22.904	3.2727	0.	106.83
3943	22.904	3.4545	0.	105.5
3944	22.904	3.6364	0.	103.5
3945	22.904	3.8182	0.	100.79
3946	22.904	4.	0.	97.375
3947	22.904	4.1818	0.	93.219
3948	22.904	4.3636	0.	88.3
3949	22.904	4.5455	0.	82.598
3950	22.904	4.7273	0.	76.106
3951	22.904	4.9091	0.	68.837
3952	22.904	5.0909	0.	60.851
3953	22.904	5.2727	0.	52.284
3954	22.904	5.4545	0.	43.403
3955	22.904	5.6364	0.	34.693
3956	22.904	5.8182	0.	28.56
3957	23.087	0.18182	0.	29.005
3958	23.087	0.36364	0.	36.717
3959	23.087	0.54545	0.	46.926
3960	23.087	0.72727	0.	57.122
3961	23.087	0.90909	0.	66.764
3962	23.087	1.0909	0.	75.6
3963	23.087	1.2727	0.	83.533
3964	23.087	1.4545	0.	90.544
3965	23.087	1.6364	0.	96.651
3966	23.087	1.8182	0.	101.89
3967	23.087	2.	0.	106.29
3968	23.087	2.1818	0.	109.9
3969	23.087	2.3636	0.	112.75
3970	23.087	2.5455	0.	114.86
3971	23.087	2.7273	0.	116.26
3972	23.087	2.9091	0.	116.96
3973	23.087	3.0909	0.	116.96
3974	23.087	3.2727	0.	116.26
3975	23.087	3.4545	0.	114.86
3976	23.087	3.6364	0.	112.75
3977	23.087	3.8182	0.	109.9
3978	23.087	4.	0.	106.29
3979	23.087	4.1818	0.	101.89
3980	23.087	4.3636	0.	96.651
3981	23.087	4.5455	0.	90.544
3982	23.087	4.7273	0.	83.533
3983	23.087	4.9091	0.	75.6
3984	23.087	5.0909	0.	66.764
3985	23.087	5.2727	0.	57.121
3986	23.087	5.4545	0.	46.926
3987	23.087	5.6364	0.	36.717
3988	23.087	5.8182	0.	29.005
3989	23.269	0.18182	0.	29.334
3990	23.269	0.36364	0.	39.069
3991	23.269	0.54545	0.	51.071
3992	23.269	0.72727	0.	62.708
3993	23.269	0.90909	0.	73.439
3994	23.269	1.0909	0.	83.083
3995	23.269	1.2727	0.	91.616
3996	23.269	1.4545	0.	99.079
3997	23.269	1.6364	0.	105.53
3998	23.269	1.8182	0.	111.04
3999	23.269	2.	0.	115.65
4000	23.269	2.1818	0.	119.42
4001	23.269	2.3636	0.	122.38
4002	23.269	2.5455	0.	124.58
4003	23.269	2.7273	0.	126.03
4004	23.269	2.9091	0.	126.75
4005	23.269	3.0909	0.	126.75
4006	23.269	3.2727	0.	126.03
4007	23.269	3.4545	0.	124.58
4008	23.269	3.6364	0.	122.38
4009	23.269	3.8182	0.	119.42
4010	23.269	4.	0.	115.65
4011	23.269	4.1818	0.	111.04
4012	23.269	4.3636	0.	105.53
4013	23.269	4.5455	0.	99.079
4014	23.269	4.7273	0.	91.616
4015	23.269	4.9091	0.	83.083
4016	23.269	5.0909	0.	73.439
4017	23.269	5.2727	0.	62.708
4018	23.269	5.4545	0.	51.071
4019	23.269	5.6364	0.	39.069
4020	23.269	5.8182	0.	29.333
4021	23.452	0.18182	0.	29.562
4022	23.452	0.36364	0.	42.019
4023	23.452	0.54545	0.	56.152
4024	23.452	0.72727	0.	69.282
4025	23.452	0.90909	0.	81.029
4026	23.452	1.0909	0.	91.372
4027	23.452	1.2727	0.	100.4
4028	23.452	1.4545	0.	108.23
4029	23.452	1.6364	0.	114.95
4030	23.452	1.8182	0.	120.66
4031	23.452	2.	0.	125.43
4032	23.452	2.1818	0.	129.32
4033	23.452	2.3636	0.	132.38
4034	23.452	2.5455	0.	134.64
4035	23.452	2.7273	0.	136.14
4036	23.452	2.9091	0.	136.88
4037	23.452	3.0909	0.	136.88
4038	23.452	3.2727	0.	136.14
4039	23.452	3.4545	0.	134.64
4040	23.452	3.6364	0.	132.38
4041	23.452	3.8182	0.	129.32
4042	23.452	4.	0.	125.43
4043	23.452	4.1818	0.	120.66
4044	23.452	4.3636	0.	114.95
4045	23.452	4.5455	0.	108.23
4046	23.452	4.7273	0.	100.4
4047	23.452	4.9091	0.	91.372
4048	23.452	5.0909	0.	81.029
4049	23.452	5.2727	0.	69.282
4050	23.452	5.4545	0.	56.152
4051	23.452	5.6364	0.	42.019
4052	23.452	5.8182	0.	29.562
4053	23.635	0.18182	0.	29.852
4054	23.635	0.36364	0.	46.233
4055	23.635	0.54545	0.	62.71
4056	23.635	0.72727	0.	77.181
4057	23.635	0.90909	0.	89.739
4058	23.635	1.0909	0.	100.6
4059	23.635	1.2727	0.	109.99
4060	23.635	1.4545	0.	118.06
4061	23.635	1.6364	0.	124.98
4062	23.635	1.8182	0.	130.83
4063	23.635	2.	0.	135.71
4064	23.635	2.1818	0.	139.68
4065	23.635	2.3636	0.	142.8
4066	23.635	2.5455	0.	145.11
4067	23.635	2.7273	0.	146.63
4068	23.635	2.9091	0.	147.39
4069	23.635	3.0909	0.	147.39
4070	23.635	3.2727	0.	146.63
4071	23.635	3.4545	0.	145.11
4072	23.635	3.6364	0.	142.8
4073	23.635	3.8182	0.	139.68
4074	23.635	4.	0.	135.71
4075	23.635	4.1818	0.	130.83
4076	23.635	4.3636	0.	124.98
4077	23.635	4.5455	0.	118.06
4078	23.635	4.7273	0.	109.99
4079	23.635	4.9091	0.	100.6
4080	23.635	5.0909	0.	89.739
4081	23.635	5.2727	0.	77.181
4082	23.635	5.4545	0.	62.709
4083	23.635	5.6364	0.	46.232
4084	23.635	5.8182	0.	29.852
4085	23.817	0.18182	0.	31.429
4086	23.817	0.36364	0.	52.924
4087	23.817	0.54545	0.	71.25
4088	23.817	0.72727	0.	86.553
4089	23.817	0.90909	0.	99.55
4090	23.817	1.0909	0.	110.67
4091	23.817	1.2727	0.	120.23
4092	23.817	1.4545	0.	128.42
4093	23.817	1.6364	0.	135.42
4094	23.817	1.8182	0.	141.33
4095	23.817	2.	0.	146.26
4096	23.817	2.1818	0.	150.27
4097	23.817	2.3636	0.	153.42
4098	23.817	2.5455	0.	155.74
4099	23.817	2.7273	0.	157.28
4100	23.817	2.9091	0.	158.04
4101	23.817	3.0909	0.	158.04
4102	23.817	3.2727	0.	157.28
4103	23.817	3.4545	0.	155.74
4104	23.817	3.6364	0.	153.42
4105	23.817	3.8182	0.	150.27
4106	23.817	4.	0.	146.26
4107	23.817	4.1818	0.	141.33
4108	23.817	4.3636	0.	135.42
4109	23.817	4.5455	0.	128.42
4110	23.817	4.7273	0.	120.23
4111	23.817	4.9091	0.	110.67
4112	23.817	5.0909	0.	99.55
4113	23.817	5.2727	0.	86.553
4114	23.817	5.4545	0.	71.25
4115	23.817	5.6364	0.	52.924
4116	23.817	5.8182	0.	31.429
4117	23.817	5.8182	0.1	36.777
4118	23.817	5.6364	0.1	37.755
4119	23.817	5.4545	0.1	38.49
4120	23.817	5.2727	0.1	38.912
4121	23.817	5.0909	0.1	39.11
4122	23.817	4.9091	0.1	39.194
4123	23.817	4.7273	0.1	39.212
4124	23.817	4.5455	0.1	39.194
4125	23.817	4.3636	0.1	39.156
4126	23.817	4.1818	0.1	39.11
4127	23.817	4.	0.1	39.063
4128	23.817	3.8182	0.1	39.018
4129	23.817	3.6364	0.1	38.98
4130	23.817	3.4545	0.1	38.95
4131	23.817	3.2727	0.1	38.929
4132	23.817	3.0909	0.1	38.918
4133	23.817	2.9091	0.1	38.918
4134	23.817	2.7273	0.1	38.929
4135	23.817	2.5455	0.1	38.95
4136	23.817	2.3636	0.1	38.98
4137	23.817	2.1818	0.1	39.018
4138	23.817	2.	0.1	39.063
4139	23.817	1.8182	0.1	39.11
4140	23.817	1.6364	0.1	39.156
4141	23.817	1.4545	0.1	39.194
4142	23.817	1.2727	0.1	39.212
4143	23.817	1.0909	0.1	39.194
4144	23.817	0.90909	0.1	39.11
4145	23.817	0.72727	0.1	38.912
4146	23.817	0.54545	0.1	38.49
4147	23.817	0.36364	0.1	37.755
4148	23.817	0.18182	0.1	36.777
4149	23.635	5.8182	0.1	72.359
4150	23.635	5.6364	0.1	72.576
4151	23.635	5.4545	0.1	73.973
4152	23.635	5.2727	0.1	75.043
4153	23.635	5.0909	0.1	75.764
4154	23.635	4.9091	0.1	76.248
4155	23.635	4.7273	0.1	76.57
4156	23.635	4.5455	0.1	76.782
4157	23.635	4.3636	0.1	76.921
4158	23.635	4.1818	0.1	77.009
4159	23.635	4.	0.1	77.063
4160	23.635	3.8182	0.1	77.094
4161	23.635	3.6364	0.1	77.111
4162	23.635	3.4545	0.1	77.119
4163	23.635	3.2727	0.1	77.123
4164	23.635	3.0909	0.1	77.124
4165	23.635	2.9091	0.1	77.124
4166	23.635	2.7273	0.1	77.123
4167	23.635	2.5455	0.1	77.119
4168	23.635	2.3636	0.1	77.111
4169	23.635	2.1818	0.1	77.094
4170	23.635	2.	0.1	77.063
4171	23.635	1.8182	0.1	77.009
4172	23.635	1.6364	0.1	76.921
4173	23.635	1.4545	0.1	76.782
4174	23.635	1.2727	0.1	76.57
4175	23.635	1.0909	0.1	76.248
4176	23.635	0.90909	0.1	75.764
4177	23.635	0.72727	0.1	75.043
4178	23.635	0.54545	0.1	73.973
4179	23.635	0.36364	0.1	72.576
4180	23.635	0.18182	0.1	72.359
4181	23.452	5.8182	0.1	109.88
4182	23.452	5.6364	0.1	109.05
4183	23.452	5.4545	0.1	110.34
4184	23.452	5.2727	0.1	111.64
4185	23.452	5.0909	0.1	112.67
4186	23.452	4.9091	0.1	113.45
4187	23.452	4.7273	0.1	114.02
4188	23.452	4.5455	0.1	114.44
4189	23.452	4.3636	0.1	114.74
4190	23.452	4.1818	0.1	114.96
4191	23.452	4.	0.1	115.11
4192	23.452	3.8182	0.1	115.22
4193	23.452	3.6364	0.1	115.29
4194	23.452	3.4545	0.1	115.34
4195	23.452	3.2727	0.1	115.37
4196	23.452	3.0909	0.1	115.38
4197	23.452	2.9091	0.1	115.38
4198	23.452	2.7273	0.1	115.37
4199	23.452	2.5455	0.1	115.34
4200	23.452	2.3636	0.1	115.29
4201	23.452	2.1818	0.1	115.22
4202	23.452	2.	0.1	115.11
4203	23.452	1.8182	0.1	114.96
4204	23.452	1.6364	0.1	114.74
4205	23.452	1.4545	0.1	114.44
4206	23.452	1.2727	0.1	114.02
4207	23.452	1.0909	0.1	113.45
4208	23.452	0.90909	0.1	112.67
4209	23.452	0.72727	0.1	111.64
4210	23.452	0.54545	0.1	110.34
4211	23.452	0.36364	0.1	109.05
4212	23.452	0.18182	0.1	109.88
4213	23.269	5.8182	0.1	148.
4214	23.269	5.6364	0.1	146.44
4215	23.269	5.4545	0.1	147.38
4216	23.269	5.2727	0.1	148.63
4217	23.269	5.0909	0.1	149.76
4218	23.269	4.9091	0.1	150.7
4219	23.269	4.7273	0.1	151.44
4220	23.269	4.5455	0.1	152.02
4221	23.269	4.3636	0.1	152.46
4222	23.269	4.1818	0.1	152.8
4223	23.269	4.	0.1	153.04
4224	23.269	3.8182	0.1	153.23
4225	23.269	3.6364	0.1	153.36
4226	23.269	3.4545	0.1	153.45
4227	23.269	3.2727	0.1	153.5
4228	23.269	3.0909	0.1	153.53
4229	23.269	2.9091	0.1	153.53
4230	23.269	2.7273	0.1	153.5
4231	23.269	2.5455	0.1	153.45
4232	23.269	2.3636	0.1	153.36
4233	23.269	2.1818	0.1	153.23
4234	23.269	2.	0.1	153.04
4235	23.269	1.8182	0.1	152.8
4236	23.269	1.6364	0.1	152.46
4237	23.269	1.4545	0.1	152.02
4238	23.269	1.2727	0.1	151.44
4239	23.269	1.0909	0.1	150.7
4240	23.269	0.90909	0.1	149.76
4241	23.269	0.72727	0.1	148.63
4242	23.269	0.54545	0.1	147.38
4243	23.269	0.36364	0.1	146.44
4244	23.269	0.18182	0.1	148.
4245	23.087	5.8182	0.1	186.49
4246	23.087	5.6364	0.1	184.41
4247	23.087	5.4545	0.1	185.
4248	23.087	5.2727	0.1	186.05
4249	23.087	5.0909	0.1	187.13
4250	23.087	4.9091	0.1	188.11
4251	23.087	4.7273	0.1	188.94
4252	23.087	4.5455	0.1	189.62
4253	23.087	4.3636	0.1	190.16
4254	23.087	4.1818	0.1	190.59
4255	23.087	4.	0.1	190.92
4256	23.087	3.8182	0.1	191.16
4257	23.087	3.6364	0.1	191.34
4258	23.087	3.4545	0.1	191.47
4259	23.087	3.2727	0.1	191.55
4260	23.087	3.0909	0.1	191.59
4261	23.087	2.9091	0.1	191.59
4262	23.087	2.7273	0.1	191.55
4263	23.087	2.5455	0.1	191.47
4264	23.087	2.3636	0.1	191.34
4265	23.087	2.1818	0.1	191.16
4266	23.087	2.	0.1	190.92
4267	23.087	1.8182	0.1	190.59
4268	23.087	1.6364	0.1	190.16
4269	23.087	1.4545	0.1	189.62
4270	23.087	1.2727	0.1	188.94
4271	23.087	1.0909	0.1	188.11
4272	23.087	0.90909	0.1	187.13
4273	23.087	0.72727	0.1	186.05
4274	23.087	0.54545	0.1	185.
4275	23.087	0.36364	0.1	184.41
4276	23.087	0.18182	0.1	186.49
4277	22.904	5.8182	0.1	225.24
4278	22.904	5.6364	0.1	222.78
4279	22.904	5.4545	0.1	223.04
4280	22.904	5.2727	0.1	223.85
4281	22.904	5.0909	0.1	224.8
4282	22.904	4.9091	0.1	225.74
4283	22.904	4.7273	0.1	226.58
4284	22.904	4.5455	0.1	227.3
4285	22.904	4.3636	0.1	227.9
4286	22.904	4.1818	0.1	228.38
4287	22.904	4.	0.1	228.77
4288	22.904	3.8182	0.1	229.06
4289	22.904	3.6364	0.1	229.28
4290	22.904	3.4545	0.1	229.44
4291	22.904	3.2727	0.1	229.54
4292	22.904	3.0909	0.1	229.59
4293	22.904	2.9091	0.1	229.59
4294	22.904	2.7273	0.1	229.54
4295	22.904	2.5455	0.1	229.44
4296	22.904	2.3636	0.1	229.28
4297	22.904	2.1818	0.1	229.06
4298	22.904	2.	0.1	228.77
4299	22.904	1.8182	0.1	228.38
4300	22.904	1.6364	0.1	227.9
4301	22.904	1.4545	0.1	227.3
4302	22.904	1.2727	0.1	226.58
4303	22.904	1.0909	0.1	225.74
4304	22.904	0.90909	0.1	224.8
4305	22.904	0.72727	0.1	223.85
4306	22.904	0.54545	0.1	223.04
4307	22.904	0.36364	0.1	222.78
4308	22.904	0.18182	0.1	225.24
4309	22.721	5.8182	0.1	264.18
4310	22.721	5.6364	0.1	261.44
4311	22.721	5.4545	0.1	261.43
4312	22.721	5.2727	0.1	261.99
4313	22.721	5.0909	0.1	262.77
4314	22.721	4.9091	0.1	263.6
4315	22.721	4.7273	0.1	264.39
4316	22.721	4.5455	0.1	265.1
4317	22.721	4.3636	0.1	265.71
4318	22.721	4.1818	0.1	266.22
4319	22.721	4.	0.1	266.64
4320	22.721	3.8182	0.1	266.96
4321	22.721	3.6364	0.1	267.21
4322	22.721	3.4545	0.1	267.39
4323	22.721	3.2727	0.1	267.5
4324	22.721	3.0909	0.1	267.56
4325	22.721	2.9091	0.1	267.56
4326	22.721	2.7273	0.1	267.5
4327	22.721	2.5455	0.1	267.39
4328	22.721	2.3636	0.1	267.21
4329	22.721	2.1818	0.1	266.96
4330	22.721	2.	0.1	266.64
4331	22.721	1.8182	0.1	266.22
4332	22.721	1.6364	0.1	265.71
4333	22.721	1.4545	0.1	265.1
4334	22.721	1.2727	0.1	264.39
4335	22.721	1.0909	0.1	263.6
4336	22.721	0.90909	0.1	262.77
4337	22.721	0.72727	0.1	261.99
4338	22.721	0.54545	0.1	261.43
4339	22.721	0.36364	0.1	261.44
4340	22.721	0.18182	0.1	264.18
4341	22.539	5.8182	0.1	303.29
4342	22.539	5.6364	0.1	300.33
4343	22.539	5.4545	0.1	300.08
4344	22.539	5.2727	0.1	300.42
4345	22.539	5.0909	0.1	301.
4346	22.539	4.9091	0.1	301.69
4347	22.539	4.7273	0.1	302.4
4348	22.539	4.5455	0.1	303.06
4349	22.539	4.3636	0.1	303.65
4350	22.539	4.1818	0.1	304.15
4351	22.539	4.	0.1	304.57
4352	22.539	3.8182	0.1	304.91
4353	22.539	3.6364	0.1	305.17
4354	22.539	3.4545	0.1	305.36
4355	22.539	3.2727	0.1	305.48
4356	22.539	3.0909	0.1	305.54
4357	22.539	2.9091	0.1	305.54
4358	22.539	2.7273	0.1	305.48
4359	22.539	2.5455	0.1	305.36
4360	22.539	2.3636	0.1	305.17
4361	22.539	2.1818	0.1	304.91
4362	22.539	2.	0.1	304.57
4363	22.539	1.8182	0.1	304.15
4364	22.539	1.6364	0.1	303.65
4365	22.539	1.4545	0.1	303.06
4366	22.539	1.2727	0.1	302.4
4367	22.539	1.0909	0.1	301.69
4368	22.539	0.90909	0.1	301.
4369	22.539	0.72727	0.1	300.42
4370	22.539	0.54545	0.1	300.08
4371	22.539	0.36364	0.1	300.33
4372	22.539	0.18182	0.1	303.29
4373	22.356	5.8182	0.1	342.55
4374	22.356	5.6364	0.1	339.42
4375	22.356	5.4545	0.1	338.97
4376	22.356	5.2727	0.1	339.08
4377	22.356	5.0909	0.1	339.48
4378	22.356	4.9091	0.1	340.01
4379	22.356	4.7273	0.1	340.6
4380	22.356	4.5455	0.1	341.18
4381	22.356	4.3636	0.1	341.72
4382	22.356	4.1818	0.1	342.19
4383	22.356	4.	0.1	342.59
4384	22.356	3.8182	0.1	342.92
4385	22.356	3.6364	0.1	343.18
4386	22.356	3.4545	0.1	343.37
4387	22.356	3.2727	0.1	343.49
4388	22.356	3.0909	0.1	343.56
4389	22.356	2.9091	0.1	343.56
4390	22.356	2.7273	0.1	343.49
4391	22.356	2.5455	0.1	343.37
4392	22.356	2.3636	0.1	343.18
4393	22.356	2.1818	0.1	342.92
4394	22.356	2.	0.1	342.59
4395	22.356	1.8182	0.1	342.19
4396	22.356	1.6364	0.1	341.72
4397	22.356	1.4545	0.1	341.18
4398	22.356	1.2727	0.1	340.6
4399	22.356	1.0909	0.1	340.01
4400	22.356	0.90909	0.1	339.48
4401	22.356	0.72727	0.1	339.08
4402	22.356	0.54545	0.1	338.96
4403	22.356	0.36364	0.1	339.41
4404	22.356	0.18182	0.1	342.55
4405	22.173	5.8182	0.1	381.95
4406	22.173	5.6364	0.1	378.67
4407	22.173	5.4545	0.1	378.04
4408	22.173	5.2727	0.1	377.97
4409	22.173	5.0909	0.1	378.17
4410	22.173	4.9091	0.1	378.55
4411	22.173	4.7273	0.1	379.
4412	22.173	4.5455	0.1	379.48
4413	22.173	4.3636	0.1	379.95
4414	22.173	4.1818	0.1	380.37
4415	22.173	4.	0.1	380.73
4416	22.173	3.8182	0.1	381.04
4417	22.173	3.6364	0.1	381.28
4418	22.173	3.4545	0.1	381.46
4419	22.173	3.2727	0.1	381.58
4420	22.173	3.0909	0.1	381.64
4421	22.173	2.9091	0.1	381.64
4422	22.173	2.7273	0.1	381.58
4423	22.173	2.5455	0.1	381.46
4424	22.173	2.3636	0.1	381.28
4425	22.173	2.1818	0.1	381.04
4426	22.173	2.	0.1	380.73
4427	22.173	1.8182	0.1	380.37
4428	22.173	1.6364	0.1	379.95
4429	22.173	1.4545	0.1	379.48
4430	22.173	1.2727	0.1	379.
4431	22.173	1.0909	0.1	378.55
4432	22.173	0.90909	0.1	378.17
4433	22.173	0.72727	0.1	377.97
4434	22.173	0.54545	0.1	378.04
4435	22.173	0.36364	0.1	378.67
4436	22.173	0.18182	0.1	381.95
4437	21.991	5.8182	0.1	421.48
4438	21.991	5.6364	0.1	418.09
4439	21.991	5.4545	0.1	417.3
4440	21.991	5.2727	0.1	417.04
4441	21.991	5.0909	0.1	417.07
4442	21.991	4.9091	0.1	417.28
4443	21.991	4.7273	0.1	417.6
4444	21.991	4.5455	0.1	417.97
4445	21.991	4.3636	0.1	418.34
4446	21.991	4.1818	0.1	418.69
4447	21.991	4.	0.1	419.01
4448	21.991	3.8182	0.1	419.28
4449	21.991	3.6364	0.1	419.49
4450	21.991	3.4545	0.1	419.65
4451	21.991	3.2727	0.1	419.76
4452	21.991	3.0909	0.1	419.81
4453	21.991	2.9091	0.1	419.81
4454	21.991	2.7273	0.1	419.76
4455	21.991	2.5455	0.1	419.65
4456	21.991	2.3636	0.1	419.49
4457	21.991	2.1818	0.1	419.28
4458	21.991	2.	0.1	419.01
4459	21.991	1.8182	0.1	418.69
4460	21.991	1.6364	0.1	418.34
4461	21.991	1.4545	0.1	417.97
4462	21.991	1.2727	0.1	417.6
4463	21.991	1.0909	0.1	417.28
4464	21.991	0.90909	0.1	417.07
4465	21.991	0.72727	0.1	417.04
4466	21.991	0.54545	0.1	417.3
4467	21.991	0.36364	0.1	418.09
4468	21.991	0.18182	0.1	421.48
4469	21.808	5.8182	0.1	461.13
4470	21.808	5.6364	0.1	457.66
4471	21.808	5.4545	0.1	456.72
4472	21.808	5.2727	0.1	456.3
4473	21.808	5.0909	0.1	456.16
4474	21.808	4.9091	0.1	456.21
4475	21.808	4.7273	0.1	456.39
4476	21.808	4.5455	0.1	456.64
4477	21.808	4.3636	0.1	456.91
4478	21.808	4.1818	0.1	457.18
4479	21.808	4.	0.1	457.43
4480	21.808	3.8182	0.1	457.65
4481	21.808	3.6364	0.1	457.83
4482	21.808	3.4545	0.1	457.97
4483	21.808	3.2727	0.1	458.06
4484	21.808	3.0909	0.1	458.11
4485	21.808	2.9091	0.1	458.11
4486	21.808	2.7273	0.1	458.06
4487	21.808	2.5455	0.1	457.97
4488	21.808	2.3636	0.1	457.83
4489	21.808	2.1818	0.1	457.65
4490	21.808	2.	0.1	457.43
4491	21.808	1.8182	0.1	457.18
4492	21.808	1.6364	0.1	456.91
4493	21.808	1.4545	0.1	456.64
4494	21.808	1.2727	0.1	456.39
4495	21.808	1.0909	0.1	456.21
4496	21.808	0.90909	0.1	456.16
4497	21.808	0.72727	0.1	456.3
4498	21.808	0.54545	0.1	456.72
4499	21.808	0.36364	0.1	457.66
4500	21.808	0.18182	0.1	461.13
4501	21.625	5.8182	0.1	500.91
4502	21.625	5.6364	0.1	497.37
4503	21.625	5.4545	0.1	496.3
4504	21.625	5.2727	0.1	495.72
4505	21.625	5.0909	0.1	495.42
4506	21.625	4.9091	0.1	495.32
4507	21.625	4.7273	0.1	495.36
4508	21.625	4.5455	0.1	495.49
4509	21.625	4.3636	0.1	495.66
4510	21.625	4.1818	0.1	495.84
4511	21.625	4.	0.1	496.02
4512	21.625	3.8182	0.1	496.18
4513	21.625	3.6364	0.1	496.32
4514	21.625	3.4545	0.1	496.43
4515	21.625	3.2727	0.1	496.5
4516	21.625	3.0909	0.1	496.53
4517	21.625	2.9091	0.1	496.53
4518	21.625	2.7273	0.1	496.5
4519	21.625	2.5455	0.1	496.43
4520	21.625	2.3636	0.1	496.32
4521	21.625	2.1818	0.1	496.18
4522	21.625	2.	0.1	496.02
4523	21.625	1.8182	0.1	495.84
4524	21.625	1.6364	0.1	495.66
4525	21.625	1.4545	0.1	495.49
4526	21.625	1.2727	0.1	495.36
4527	21.625	1.0909	0.1	495.32
4528	21.625	0.90909	0.1	495.42
4529	21.625	0.72727	0.1	495.72
4530	21.625	0.54545	0.1	496.3
4531	21.625	0.36364	0.1	497.36
4532	21.625	0.18182	0.1	500.91
4533	21.443	5.8182	0.1	540.81
4534	21.443	5.6364	0.1	537.21
4535	21.443	5.4545	0.1	536.02
4536	21.443	5.2727	0.1	535.3
4537	21.443	5.0909	0.1	534.86
4538	21.443	4.9091	0.1	534.62
4539	21.443	4.7273	0.1	534.52
4540	21.443	4.5455	0.1	534.52
4541	21.443	4.3636	0.1	534.58
4542	21.443	4.1818	0.1	534.68
4543	21.443	4.	0.1	534.78
4544	21.443	3.8182	0.1	534.88
4545	21.443	3.6364	0.1	534.97
4546	21.443	3.4545	0.1	535.05
4547	21.443	3.2727	0.1	535.1
4548	21.443	3.0909	0.1	535.12
4549	21.443	2.9091	0.1	535.12
4550	21.443	2.7273	0.1	535.1
4551	21.443	2.5455	0.1	535.05
4552	21.443	2.3636	0.1	534.97
4553	21.443	2.1818	0.1	534.88
4554	21.443	2.	0.1	534.78
4555	21.443	1.8182	0.1	534.68
4556	21.443	1.6364	0.1	534.58
4557	21.443	1.4545	0.1	534.52
4558	21.443	1.2727	0.1	534.52
4559	21.443	1.0909	0.1	534.62
4560	21.443	0.90909	0.1	534.86
4561	21.443	0.72727	0.1	535.3
4562	21.443	0.54545	0.1	536.02
4563	21.443	0.36364	0.1	537.21
4564	21.443	0.18182	0.1	540.81
4565	21.26	5.8182	0.1	580.83
4566	21.26	5.6364	0.1	577.18
4567	21.26	5.4545	0.1	575.89
4568	21.26	5.2727	0.1	575.04
4569	21.26	5.0909	0.1	574.46
4570	21.26	4.9091	0.1	574.08
4571	21.26	4.7273	0.1	573.86
4572	21.26	4.5455	0.1	573.74
4573	21.26	4.3636	0.1	573.7
4574	21.26	4.1818	0.1	573.7
4575	21.26	4.	0.1	573.73
4576	21.26	3.8182	0.1	573.77
4577	21.26	3.6364	0.1	573.81
4578	21.26	3.4545	0.1	573.84
4579	21.26	3.2727	0.1	573.87
4580	21.26	3.0909	0.1	573.88
4581	21.26	2.9091	0.1	573.88
4582	21.26	2.7273	0.1	573.87
4583	21.26	2.5455	0.1	573.84
4584	21.26	2.3636	0.1	573.81
4585	21.26	2.1818	0.1	573.77
4586	21.26	2.	0.1	573.73
4587	21.26	1.8182	0.1	573.7
4588	21.26	1.6364	0.1	573.7
4589	21.26	1.4545	0.1	573.74
4590	21.26	1.2727	0.1	573.86
4591	21.26	1.0909	0.1	574.08
4592	21.26	0.90909	0.1	574.46
4593	21.26	0.72727	0.1	575.04
4594	21.26	0.54545	0.1	575.89
4595	21.26	0.36364	0.1	577.18
4596	21.26	0.18182	0.1	580.83
4597	21.077	5.8182	0.1	620.97
4598	21.077	5.6364	0.1	617.29
4599	21.077	5.4545	0.1	615.89
4600	21.077	5.2727	0.1	614.92
4601	21.077	5.0909	0.1	614.22
4602	21.077	4.9091	0.1	613.71
4603	21.077	4.7273	0.1	613.37
4604	21.077	4.5455	0.1	613.14
4605	21.077	4.3636	0.1	613.
4606	21.077	4.1818	0.1	612.91
4607	21.077	4.	0.1	612.86
4608	21.077	3.8182	0.1	612.84
4609	21.077	3.6364	0.1	612.83
4610	21.077	3.4545	0.1	612.82
4611	21.077	3.2727	0.1	612.83
4612	21.077	3.0909	0.1	612.83
4613	21.077	2.9091	0.1	612.83
4614	21.077	2.7273	0.1	612.83
4615	21.077	2.5455	0.1	612.82
4616	21.077	2.3636	0.1	612.83
4617	21.077	2.1818	0.1	612.84
4618	21.077	2.	0.1	612.86
4619	21.077	1.8182	0.1	612.91
4620	21.077	1.6364	0.1	613.
4621	21.077	1.4545	0.1	613.14
4622	21.077	1.2727	0.1	613.37
4623	21.077	1.0909	0.1	613.71
4624	21.077	0.90909	0.1	614.22
4625	21.077	0.72727	0.1	614.92
4626	21.077	0.54545	0.1	615.89
4627	21.077	0.36364	0.1	617.29
4628	21.077	0.18182	0.1	620.97
4629	20.895	5.8182	0.1	661.21
4630	20.895	5.6364	0.1	657.51
4631	20.895	5.4545	0.1	656.02
4632	20.895	5.2727	0.1	654.95
4633	20.895	5.0909	0.1	654.13
4634	20.895	4.9091	0.1	653.51
4635	20.895	4.7273	0.1	653.06
4636	20.895	4.5455	0.1	652.73
4637	20.895	4.3636	0.1	652.49
4638	20.895	4.1818	0.1	652.32
4639	20.895	4.	0.1	652.2
4640	20.895	3.8182	0.1	652.11
4641	20.895	3.6364	0.1	652.05
4642	20.895	3.4545	0.1	652.01
4643	20.895	3.2727	0.1	651.99
4644	20.895	3.0909	0.1	651.98
4645	20.895	2.9091	0.1	651.98
4646	20.895	2.7273	0.1	651.99
4647	20.895	2.5455	0.1	652.01
4648	20.895	2.3636	0.1	652.05
4649	20.895	2.1818	0.1	652.11
4650	20.895	2.	0.1	652.2
4651	20.895	1.8182	0.1	652.32
4652	20.895	1.6364	0.1	652.49
4653	20.895	1.4545	0.1	652.73
4654	20.895	1.2727	0.1	653.06
4655	20.895	1.0909	0.1	653.51
4656	20.895	0.90909	0.1	654.13
4657	20.895	0.72727	0.1	654.95
4658	20.895	0.54545	0.1	656.02
4659	20.895	0.36364	0.1	657.51
4660	20.895	0.18182	0.1	661.21
4661	20.712	5.8182	0.1	701.56
4662	20.712	5.6364	0.1	697.85
4663	20.712	5.4545	0.1	696.28
4664	20.712	5.2727	0.1	695.11
4665	20.712	5.0909	0.1	694.19
4666	20.712	4.9091	0.1	693.48
4667	20.712	4.7273	0.1	692.92
4668	20.712	4.5455	0.1	692.5
4669	20.712	4.3636	0.1	692.17
4670	20.712	4.1818	0.1	691.93
4671	20.712	4.	0.1	691.74
4672	20.712	3.8182	0.1	691.6
4673	20.712	3.6364	0.1	691.5
4674	20.712	3.4545	0.1	691.42
4675	20.712	3.2727	0.1	691.38
4676	20.712	3.0909	0.1	691.36
4677	20.712	2.9091	0.1	691.36
4678	20.712	2.7273	0.1	691.38
4679	20.712	2.5455	0.1	691.42
4680	20.712	2.3636	0.1	691.5
4681	20.712	2.1818	0.1	691.6
4682	20.712	2.	0.1	691.74
4683	20.712	1.8182	0.1	691.93
4684	20.712	1.6364	0.1	692.17
4685	20.712	1.4545	0.1	692.5
4686	20.712	1.2727	0.1	692.92
4687	20.712	1.0909	0.1	693.48
4688	20.712	0.90909	0.1	694.19
4689	20.712	0.72727	0.1	695.11
4690	20.712	0.54545	0.1	696.28
4691	20.712	0.36364	0.1	697.85
4692	20.712	0.18182	0.1	701.56
4693	20.529	5.8182	0.1	742.
4694	20.529	5.6364	0.1	738.29
4695	20.529	5.4545	0.1	736.65
4696	20.529	5.2727	0.1	735.4
4697	20.529	5.0909	0.1	734.4
4698	20.529	4.9091	0.1	733.6
4699	20.529	4.7273	0.1	732.96
4700	20.529	4.5455	0.1	732.46
4701	20.529	4.3636	0.1	732.06
4702	20.529	4.1818	0.1	731.75
4703	20.529	4.	0.1	731.51
4704	20.529	3.8182	0.1	731.32
4705	20.529	3.6364	0.1	731.18
4706	20.529	3.4545	0.1	731.07
4707	20.529	3.2727	0.1	731.01
4708	20.529	3.0909	0.1	730.98
4709	20.529	2.9091	0.1	730.98
4710	20.529	2.7273	0.1	731.01
4711	20.529	2.5455	0.1	731.07
4712	20.529	2.3636	0.1	731.18
4713	20.529	2.1818	0.1	731.32
4714	20.529	2.	0.1	731.51
4715	20.529	1.8182	0.1	731.75
4716	20.529	1.6364	0.1	732.06
4717	20.529	1.4545	0.1	732.46
4718	20.529	1.2727	0.1	732.96
4719	20.529	1.0909	0.1	733.6
4720	20.529	0.90909	0.1	734.4
4721	20.529	0.72727	0.1	735.4
4722	20.529	0.54545	0.1	736.65
4723	20.529	0.36364	0.1	738.29
4724	20.529	0.18182	0.1	742.
4725	20.347	5.8182	0.1	782.51
4726	20.347	5.6364	0.1	778.81
4727	20.347	5.4545	0.1	777.12
4728	20.347	5.2727	0.1	775.8
4729	20.347	5.0909	0.1	774.74
4730	20.347	4.9091	0.1	773.87
4731	20.347	4.7273	0.1	773.17
4732	20.347	4.5455	0.1	772.61
4733	20.347	4.3636	0.1	772.15
4734	20.347	4.1818	0.1	771.79
4735	20.347	4.	0.1	771.5
4736	20.347	3.8182	0.1	771.28
4737	20.347	3.6364	0.1	771.11
4738	20.347	3.4545	0.1	770.98
4739	20.347	3.2727	0.1	770.9
4740	20.347	3.0909	0.1	770.86
4741	20.347	2.9091	0.1	770.86
4742	20.347	2.7273	0.1	770.9
4743	20.347	2.5455	0.1	770.98
4744	20.347	2.3636	0.1	771.11
4745	20.347	2.1818	0.1	771.28
4746	20.347	2.	0.1	771.5
4747	20.347	1.8182	0.1	771.79
4748	20.347	1.6364	0.1	772.15
4749	20.347	1.4545	0.1	772.61
4750	20.347	1.2727	0.1	773.17
4751	20.347	1.0909	0.1	773.87
4752	20.347	0.90909	0.1	774.74
4753	20.347	0.72727	0.1	775.8
4754	20.347	0.54545	0.1	777.12
4755	20.347	0.36364	0.1	778.81
4756	20.347	0.18182	0.1	782.51
4757	20.164	5.8182	0.1	823.06
4758	20.164	5.6364	0.1	819.39
4759	20.164	5.4545	0.1	817.67
4760	20.164	5.2727	0.1	816.31
4761	20.164	5.0909	0.1	815.2
4762	20.164	4.9091	0.1	814.29
4763	20.164	4.7273	0.1	813.55
4764	20.164	4.5455	0.1	812.94
4765	20.164	4.3636	0.1	812.46
4766	20.164	4.1818	0.1	812.07
4767	20.164	4.	0.1	811.75
4768	20.164	3.8182	0.1	811.51
4769	20.164	3.6364	0.1	811.32
4770	20.164	3.4545	0.1	811.18
4771	20.164	3.2727	0.1	811.09
4772	20.164	3.0909	0.1	811.05
4773	20.164	2.9091	0.1	811.05
4774	20.164	2.7273	0.1	811.09
4775	20.164	2.5455	0.1	811.18
4776	20.164	2.3636	0.1	811.32
4777	20.164	2.1818	0.1	811.51
4778	20.164	2.	0.1	811.75
4779	20.164	1.8182	0.1	812.07
4780	20.164	1.6364	0.1	812.46
4781	20.164	1.4545	0.1	812.94
4782	20.164	1.2727	0.1	813.55
4783	20.164	1.0909	0.1	814.29
4784	20.164	0.90909	0.1	815.2
4785	20.164	0.72727	0.1	816.31
4786	20.164	0.54545	0.1	817.66
4787	20.164	0.36364	0.1	819.39
4788	20.164	0.18182	0.1	823.06
4789	19.981	5.8182	0.1	863.64
4790	19.981	5.6364	0.1	860.01
4791	19.981	5.4545	0.1	858.27
4792	19.981	5.2727	0.1	856.89
4793	19.981	5.0909	0.1	855.76
4794	19.981	4.9091	0.1	854.84
4795	19.981	4.7273	0.1	854.08
4796	19.981	4.5455	0.1	853.48
4797	19.981	4.3636	0.1	852.98
4798	19.981	4.1818	0.1	852.59
4799	19.981	4.	0.1	852.27
4800	19.981	3.8182	0.1	852.03
4801	19.981	3.6364	0.1	851.84
4802	19.981	3.4545	0.1	851.7
4803	19.981	3.2727	0.1	851.61
4804	19.981	3.0909	0.1	851.57
4805	19.981	2.9091	0.1	851.57
4806	19.981	2.7273	0.1	851.61
4807	19.981	2.5455	0.1	851.7
4808	19.981	2.3636	0.1	851.84
4809	19.981	2.1818	0.1	852.03
4810	19.981	2.	0.1	852.27
4811	19.981	1.8182	0.1	852.59
4812	19.981	1.6364	0.1	852.98
4813	19.981	1.4545	0.1	853.48
4814	19.981	1.2727	0.1	854.08
4815	19.981	1.0909	0.1	854.84
4816	19.981	0.90909	0.1	855.76
4817	19.981	0.72727	0.1	856.89
4818	19.981	0.54545	0.1	858.27
4819	19.981	0.36364	0.1	860.01
4820	19.981	0.18182	0.1	863.64
4821	19.799	5.8182	0.1	904.18
4822	19.799	5.6364	0.1	900.62
4823	19.799	5.4545	0.1	898.88
4824	19.799	5.2727	0.1	897.52
4825	19.799	5.0909	0.1	896.41
4826	19.799	4.9091	0.1	895.51
4827	19.799	4.7273	0.1	894.78
4828	19.799	4.5455	0.1	894.2
4829	19.799	4.3636	0.1	893.74
4830	19.799	4.1818	0.1	893.38
4831	19.799	4.	0.1	893.09
4832	19.799	3.8182	0.1	892.87
4833	19.799	3.6364	0.1	892.71
4834	19.799	3.4545	0.1	892.59
4835	19.799	3.2727	0.1	892.51
4836	19.799	3.0909	0.1	892.47
4837	19.799	2.9091	0.1	892.47
4838	19.799	2.7273	0.1	892.51
4839	19.799	2.5455	0.1	892.59
4840	19.799	2.3636	0.1	892.71
4841	19.799	2.1818	0.1	892.87
4842	19.799	2.	0.1	893.09
4843	19.799	1.8182	0.1	893.38
4844	19.799	1.6364	0.1	893.74
4845	19.799	1.4545	0.1	894.2
4846	19.799	1.2727	0.1	894.78
4847	19.799	1.0909	0.1	895.51
4848	19.799	0.90909	0.1	896.41
4849	19.799	0.72727	0.1	897.52
4850	19.799	0.54545	0.1	898.88
4851	19.799	0.36364	0.1	900.62
4852	19.799	0.18182	0.1	904.18
4853	19.616	5.8182	0.1	944.63
4854	19.616	5.6364	0.1	941.17
4855	19.616	5.4545	0.1	939.47
4856	19.616	5.2727	0.1	938.16
4857	19.616	5.0909	0.1	937.11
4858	19.616	4.9091	0.1	936.28
4859	19.616	4.7273	0.1	935.63
4860	19.616	4.5455	0.1	935.12
4861	19.616	4.3636	0.1	934.74
4862	19.616	4.1818	0.1	934.45
4863	19.616	4.	0.1	934.24
4864	19.616	3.8182	0.1	934.08
4865	19.616	3.6364	0.1	933.97
4866	19.616	3.4545	0.1	933.89
4867	19.616	3.2727	0.1	933.85
4868	19.616	3.0909	0.1	933.82
4869	19.616	2.9091	0.1	933.82
4870	19.616	2.7273	0.1	933.85
4871	19.616	2.5455	0.1	933.89
4872	19.616	2.3636	0.1	933.97
4873	19.616	2.1818	0.1	934.08
4874	19.616	2.	0.1	934.24
4875	19.616	1.8182	0.1	934.45
4876	19.616	1.6364	0.1	934.74
4877	19.616	1.4545	0.1	935.12
4878	19.616	1.2727	0.1	935.63
4879	19.616	1.0909	0.1	936.28
4880	19.616	0.90909	0.1	937.11
4881	19.616	0.72727	0.1	938.16
4882	19.616	0.54545	0.1	939.47
4883	19.616	0.36364	0.1	941.17
4884	19.616	0.18182	0.1	944.63
4885	19.433	5.8182	0.1	984.92
4886	19.433	5.6364	0.1	981.58
4887	19.433	5.4545	0.1	979.97
4888	19.433	5.2727	0.1	978.76
4889	19.433	5.0909	0.1	977.82
4890	19.433	4.9091	0.1	977.12
4891	19.433	4.7273	0.1	976.61
4892	19.433	4.5455	0.1	976.25
4893	19.433	4.3636	0.1	976.
4894	19.433	4.1818	0.1	975.85
4895	19.433	4.	0.1	975.76
4896	19.433	3.8182	0.1	975.72
4897	19.433	3.6364	0.1	975.7
4898	19.433	3.4545	0.1	975.69
4899	19.433	3.2727	0.1	975.7
4900	19.433	3.0909	0.1	975.7
4901	19.433	2.9091	0.1	975.7
4902	19.433	2.7273	0.1	975.7
4903	19.433	2.5455	0.1	975.69
4904	19.433	2.3636	0.1	975.7
4905	19.433	2.1818	0.1	975.72
4906	19.433	2.	0.1	975.76
4907	19.433	1.8182	0.1	975.85
4908	19.433	1.6364	0.1	976.
4909	19.433	1.4545	0.1	976.25
4910	19.433	1.2727	0.1	976.61
4911	19.433	1.0909	0.1	977.12
4912	19.433	0.90909	0.1	977.82
4913	19.433	0.72727	0.1	978.76
4914	19.433	0.54545	0.1	979.97
4915	19.433	0.36364	0.1	981.58
4916	19.433	0.18182	0.1	984.92
4917	19.251	5.8182	0.1	1025.
4918	19.251	5.6364	0.1	1021.8
4919	19.251	5.4545	0.1	1020.3
4920	19.251	5.2727	0.1	1019.2
4921	19.251	5.0909	0.1	1018.5
4922	19.251	4.9091	0.1	1018.
4923	19.251	4.7273	0.1	1017.7
4924	19.251	4.5455	0.1	1017.6
4925	19.251	4.3636	0.1	1017.5
4926	19.251	4.1818	0.1	1017.6
4927	19.251	4.	0.1	1017.7
4928	19.251	3.8182	0.1	1017.8
4929	19.251	3.6364	0.1	1018.
4930	19.251	3.4545	0.1	1018.1
4931	19.251	3.2727	0.1	1018.2
4932	19.251	3.0909	0.1	1018.2
4933	19.251	2.9091	0.1	1018.2
4934	19.251	2.7273	0.1	1018.2
4935	19.251	2.5455	0.1	1018.1
4936	19.251	2.3636	0.1	1018.
4937	19.251	2.1818	0.1	1017.8
4938	19.251	2.	0.1	1017.7
4939	19.251	1.8182	0.1	1017.6
4940	19.251	1.6364	0.1	1017.5
4941	19.251	1.4545	0.1	1017.6
4942	19.251	1.2727	0.1	1017.7
4943	19.251	1.0909	0.1	1018.
4944	19.251	0.90909	0.1	1018.5
4945	19.251	0.72727	0.1	1019.2
4946	19.251	0.54545	0.1	1020.3
4947	19.251	0.36364	0.1	1021.8
4948	19.251	0.18182	0.1	1025.
4949	19.068	5.8182	0.1	1064.6
4950	19.068	5.6364	0.1	1061.6
4951	19.068	5.4545	0.1	1060.3
4952	19.068	5.2727	0.1	1059.5
4953	19.068	5.0909	0.1	1059.1
4954	19.068	4.9091	0.1	1058.9
4955	19.068	4.7273	0.1	1058.9
4956	19.068	4.5455	0.1	1059.1
4957	19.068	4.3636	0.1	1059.4
4958	19.068	4.1818	0.1	1059.8
4959	19.068	4.	0.1	1060.2
4960	19.068	3.8182	0.1	1060.5
4961	19.068	3.6364	0.1	1060.9
4962	19.068	3.4545	0.1	1061.2
4963	19.068	3.2727	0.1	1061.4
4964	19.068	3.0909	0.1	1061.5
4965	19.068	2.9091	0.1	1061.5
4966	19.068	2.7273	0.1	1061.4
4967	19.068	2.5455	0.1	1061.2
4968	19.068	2.3636	0.1	1060.9
4969	19.068	2.1818	0.1	1060.5
4970	19.068	2.	0.1	1060.2
4971	19.068	1.8182	0.1	1059.8
4972	19.068	1.6364	0.1	1059.4
4973	19.068	1.4545	0.1	1059.1
4974	19.068	1.2727	0.1	1058.9
4975	19.068	1.0909	0.1	1058.9
4976	19.068	0.90909	0.1	1059.1
4977	19.068	0.72727	0.1	1059.5
4978	19.068	0.54545	0.1	1060.3
4979	19.068	0.36364	0.1	1061.6
4980	19.068	0.18182	0.1	1064.6
4981	18.885	5.8182	0.1	1103.7
4982	18.885	5.6364	0.1	1101.
4983	18.885	5.4545	0.1	1100.
4984	18.885	5.2727	0.1	1099.5
4985	18.885	5.0909	0.1	1099.4
4986	18.885	4.9091	0.1	1099.7
4987	18.885	4.7273	0.1	1100.1
4988	18.885	4.5455	0.1	1100.8
4989	18.885	4.3636	0.1	1101.6
4990	18.885	4.1818	0.1	1102.4
4991	18.885	4.	0.1	1103.2
4992	18.885	3.8182	0.1	1103.9
4993	18.885	3.6364	0.1	1104.6
4994	18.885	3.4545	0.1	1105.1
4995	18.885	3.2727	0.1	1105.5
4996	18.885	3.0909	0.1	1105.7
4997	18.885	2.9091	0.1	1105.7
4998	18.885	2.7273	0.1	1105.5
4999	18.885	2.5455	0.1	1105.1
5000	18.885	2.3636	0.1	1104.6
5001	18.885	2.1818	0.1	1103.9
5002	18.885	2.	0.1	1103.2
5003	18.885	1.8182	0.1	1102.4
5004	18.885	1.6364	0.1	1101.6
5005	18.885	1.4545	0.1	1100.8
5006	18.885	1.2727	0.1	1100.1
5007	18.885	1.0909	0.1	1099.7
5008	18.885	0.90909	0.1	1099.4
5009	18.885	0.72727	0.1	1099.5
5010	18.885	0.54545	0.1	1100.
5011	18.885	0.36364	0.1	1101.
5012	18.885	0.18182	0.1	1103.7
5013	18.703	5.8182	0.1	1142.
5014	18.703	5.6364	0.1	1139.6
5015	18.703	5.4545	0.1	1139.
5016	18.703	5.2727	0.1	1139.
5017	18.703	5.0909	0.1	1139.5
5018	18.703	4.9091	0.1	1140.3
5019	18.703	4.7273	0.1	1141.4
5020	18.703	4.5455	0.1	1142.7
5021	18.703	4.3636	0.1	1144.1
5022	18.703	4.1818	0.1	1145.5
5023	18.703	4.	0.1	1146.9
5024	18.703	3.8182	0.1	1148.2
5025	18.703	3.6364	0.1	1149.3
5026	18.703	3.4545	0.1	1150.1
5027	18.703	3.2727	0.1	1150.7
5028	18.703	3.0909	0.1	1151.
5029	18.703	2.9091	0.1	1151.
5030	18.703	2.7273	0.1	1150.7
5031	18.703	2.5455	0.1	1150.1
5032	18.703	2.3636	0.1	1149.3
5033	18.703	2.1818	0.1	1148.2
5034	18.703	2.	0.1	1146.9
5035	18.703	1.8182	0.1	1145.5
5036	18.703	1.6364	0.1	1144.1
5037	18.703	1.4545	0.1	1142.7
5038	18.703	1.2727	0.1	1141.4
5039	18.703	1.0909	0.1	1140.3
5040	18.703	0.90909	0.1	1139.5
5041	18.703	0.72727	0.1	1139.
5042	18.703	0.54545	0.1	1139.
5043	18.703	0.36364	0.1	1139.6
5044	18.703	0.18182	0.1	1142.
5045	18.52	5.8182	0.1	1179.2
5046	18.52	5.6364	0.1	1177.3
5047	18.52	5.4545	0.1	1177.3
5048	18.52	5.2727	0.1	1177.9
5049	18.52	5.0909	0.1	1179.1
5050	18.52	4.9091	0.1	1180.7
5051	18.52	4.7273	0.1	1182.6
5052	18.52	4.5455	0.1	1184.8
5053	18.52	4.3636	0.1	1187.
5054	18.52	4.1818	0.1	1189.3
5055	18.52	4.	0.1	1191.5
5056	18.52	3.8182	0.1	1193.5
5057	18.52	3.6364	0.1	1195.1
5058	18.52	3.4545	0.1	1196.5
5059	18.52	3.2727	0.1	1197.4
5060	18.52	3.0909	0.1	1197.9
5061	18.52	2.9091	0.1	1197.9
5062	18.52	2.7273	0.1	1197.4
5063	18.52	2.5455	0.1	1196.5
5064	18.52	2.3636	0.1	1195.1
5065	18.52	2.1818	0.1	1193.5
5066	18.52	2.	0.1	1191.5
5067	18.52	1.8182	0.1	1189.3
5068	18.52	1.6364	0.1	1187.
5069	18.52	1.4545	0.1	1184.8
5070	18.52	1.2727	0.1	1182.6
5071	18.52	1.0909	0.1	1180.7
5072	18.52	0.90909	0.1	1179.1
5073	18.52	0.72727	0.1	1177.9
5074	18.52	0.54545	0.1	1177.3
5075	18.52	0.36364	0.1	1177.3
5076	18.52	0.18182	0.1	1179.2
5077	18.337	5.8182	0.1	1215.1
5078	18.337	5.6364	0.1	1213.8
5079	18.337	5.4545	0.1	1214.4
5080	18.337	5.2727	0.1	1215.9
5081	18.337	5.0909	0.1	1218.
5082	18.337	4.9091	0.1	1220.6
5083	18.337	4.7273	0.1	1223.7
5084	18.337	4.5455	0.1	1227.
5085	18.337	4.3636	0.1	1230.4
5086	18.337	4.1818	0.1	1233.8
5087	18.337	4.	0.1	1237.1
5088	18.337	3.8182	0.1	1240.
5089	18.337	3.6364	0.1	1242.5
5090	18.337	3.4545	0.1	1244.4
5091	18.337	3.2727	0.1	1245.8
5092	18.337	3.0909	0.1	1246.5
5093	18.337	2.9091	0.1	1246.5
5094	18.337	2.7273	0.1	1245.8
5095	18.337	2.5455	0.1	1244.4
5096	18.337	2.3636	0.1	1242.5
5097	18.337	2.1818	0.1	1240.
5098	18.337	2.	0.1	1237.1
5099	18.337	1.8182	0.1	1233.8
5100	18.337	1.6364	0.1	1230.4
5101	18.337	1.4545	0.1	1227.
5102	18.337	1.2727	0.1	1223.7
5103	18.337	1.0909	0.1	1220.6
5104	18.337	0.90909	0.1	1218.
5105	18.337	0.72727	0.1	1215.9
5106	18.337	0.54545	0.1	1214.4
5107	18.337	0.36364	0.1	1213.8
5108	18.337	0.18182	0.1	1215.1
5109	18.155	5.8182	0.1	1249.2
5110	18.155	5.6364	0.1	1248.6
5111	18.155	5.4545	0.1	1250.1
5112	18.155	5.2727	0.1	1252.6
5113	18.155	5.0909	0.1	1256.
5114	18.155	4.9091	0.1	1260.
5115	18.155	4.7273	0.1	1264.5
5116	18.155	4.5455	0.1	1269.4
5117	18.155	4.3636	0.1	1274.4
5118	18.155	4.1818	0.1	1279.3
5119	18.155	4.	0.1	1283.9
5120	18.155	3.8182	0.1	1288.1
5121	18.155	3.6364	0.1	1291.7
5122	18.155	3.4545	0.1	1294.5
5123	18.155	3.2727	0.1	1296.4
5124	18.155	3.0909	0.1	1297.4
5125	18.155	2.9091	0.1	1297.4
5126	18.155	2.7273	0.1	1296.4
5127	18.155	2.5455	0.1	1294.5
5128	18.155	2.3636	0.1	1291.7
5129	18.155	2.1818	0.1	1288.1
5130	18.155	2.	0.1	1283.9
5131	18.155	1.8182	0.1	1279.3
5132	18.155	1.6364	0.1	1274.4
5133	18.155	1.4545	0.1	1269.4
5134	18.155	1.2727	0.1	1264.5
5135	18.155	1.0909	0.1	1260.
5136	18.155	0.90909	0.1	1256.
5137	18.155	0.72727	0.1	1252.6
5138	18.155	0.54545	0.1	1250.1
5139	18.155	0.36364	0.1	1248.6
5140	18.155	0.18182	0.1	1249.2
5141	17.972	5.8182	0.1	1281.
5142	17.972	5.6364	0.1	1281.3
5143	17.972	5.4545	0.1	1283.9
5144	17.972	5.2727	0.1	1287.8
5145	17.972	5.0909	0.1	1292.7
5146	17.972	4.9091	0.1	1298.6
5147	17.972	4.7273	0.1	1305.
5148	17.972	4.5455	0.1	1311.9
5149	17.972	4.3636	0.1	1318.9
5150	17.972	4.1818	0.1	1325.7
5151	17.972	4.	0.1	1332.2
5152	17.972	3.8182	0.1	1338.1
5153	17.972	3.6364	0.1	1343.1
5154	17.972	3.4545	0.1	1347.1
5155	17.972	3.2727	0.1	1349.9
5156	17.972	3.0909	0.1	1351.3
5157	17.972	2.9091	0.1	1351.3
5158	17.972	2.7273	0.1	1349.9
5159	17.972	2.5455	0.1	1347.1
5160	17.972	2.3636	0.1	1343.1
5161	17.972	2.1818	0.1	1338.1
5162	17.972	2.	0.1	1332.2
5163	17.972	1.8182	0.1	1325.7
5164	17.972	1.6364	0.1	1318.9
5165	17.972	1.4545	0.1	1311.9
5166	17.972	1.2727	0.1	1305.
5167	17.972	1.0909	0.1	1298.6
5168	17.972	0.90909	0.1	1292.7
5169	17.972	0.72727	0.1	1287.8
5170	17.972	0.54545	0.1	1283.9
5171	17.972	0.36364	0.1	1281.3
5172	17.972	0.18182	0.1	1281.
5173	17.789	5.8182	0.1	1309.8
5174	17.789	5.6364	0.1	1311.1
5175	17.789	5.4545	0.1	1315.2
5176	17.789	5.2727	0.1	1320.8
5177	17.789	5.0909	0.1	1327.9
5178	17.789	4.9091	0.1	1336.
5179	17.789	4.7273	0.1	1344.9
5180	17.789	4.5455	0.1	1354.4
5181	17.789	4.3636	0.1	1364.
5182	17.789	4.1818	0.1	1373.5
5183	17.789	4.	0.1	1382.5
5184	17.789	3.8182	0.1	1390.6
5185	17.789	3.6364	0.1	1397.6
5186	17.789	3.4545	0.1	1403.1
5187	17.789	3.2727	0.1	1406.9
5188	17.789	3.0909	0.1	1408.8
5189	17.789	2.9091	0.1	1408.8
5190	17.789	2.7273	0.1	1406.9
5191	17.789	2.5455	0.1	1403.1
5192	17.789	2.3636	0.1	1397.6
5193	17.789	2.1818	0.1	1390.6
5194	17.789	2.	0.1	1382.5
5195	17.789	1.8182	0.1	1373.5
5196	17.789	1.6364	0.1	1364.
5197	17.789	1.4545	0.1	1354.4
5198	17.789	1.2727	0.1	1344.9
5199	17.789	1.0909	0.1	1336.
5200	17.789	0.90909	0.1	1327.9
5201	17.789	0.72727	0.1	1320.8
5202	17.789	0.54545	0.1	1315.2
5203	17.789	0.36364	0.1	1311.1
5204	17.789	0.18182	0.1	1309.8
5205	17.607	5.8182	0.1	1334.7
5206	17.607	5.6364	0.1	1337.4
5207	17.607	5.4545	0.1	1343.3
5208	17.607	5.2727	0.1	1351.2
5209	17.607	5.0909	0.1	1360.8
5210	17.607	4.9091	0.1	1371.9
5211	17.607	4.7273	0.1	1384.1
5212	17.607	4.5455	0.1	1396.9
5213	17.607	4.3636	0.1	1410.
5214	17.607	4.1818	0.1	1422.8
5215	17.607	4.	0.1	1435.
5216	17.607	3.8182	0.1	1446.1
5217	17.607	3.6364	0.1	1455.6
5218	17.607	3.4545	0.1	1463.2
5219	17.607	3.2727	0.1	1468.4
5220	17.607	3.0909	0.1	1471.1
5221	17.607	2.9091	0.1	1471.1
5222	17.607	2.7273	0.1	1468.4
5223	17.607	2.5455	0.1	1463.2
5224	17.607	2.3636	0.1	1455.6
5225	17.607	2.1818	0.1	1446.1
5226	17.607	2.	0.1	1435.
5227	17.607	1.8182	0.1	1422.8
5228	17.607	1.6364	0.1	1410.
5229	17.607	1.4545	0.1	1396.9
5230	17.607	1.2727	0.1	1384.1
5231	17.607	1.0909	0.1	1371.9
5232	17.607	0.90909	0.1	1360.8
5233	17.607	0.72727	0.1	1351.2
5234	17.607	0.54545	0.1	1343.3
5235	17.607	0.36364	0.1	1337.4
5236	17.607	0.18182	0.1	1334.7
5237	17.424	5.8182	0.1	1354.8
5238	17.424	5.6364	0.1	1359.2
5239	17.424	5.4545	0.1	1367.2
5240	17.424	5.2727	0.1	1378.
5241	17.424	5.0909	0.1	1391.
5242	17.424	4.9091	0.1	1405.8
5243	17.424	4.7273	0.1	1422.1
5244	17.424	4.5455	0.1	1439.3
5245	17.424	4.3636	0.1	1456.8
5246	17.424	4.1818	0.1	1474.1
5247	17.424	4.	0.1	1490.5
5248	17.424	3.8182	0.1	1505.5
5249	17.424	3.6364	0.1	1518.4
5250	17.424	3.4545	0.1	1528.6
5251	17.424	3.2727	0.1	1535.8
5252	17.424	3.0909	0.1	1539.4
5253	17.424	2.9091	0.1	1539.4
5254	17.424	2.7273	0.1	1535.8
5255	17.424	2.5455	0.1	1528.6
5256	17.424	2.3636	0.1	1518.4
5257	17.424	2.1818	0.1	1505.5
5258	17.424	2.	0.1	1490.5
5259	17.424	1.8182	0.1	1474.1
5260	17.424	1.6364	0.1	1456.8
5261	17.424	1.4545	0.1	1439.3
5262	17.424	1.2727	0.1	1422.1
5263	17.424	1.0909	0.1	1405.8
5264	17.424	0.90909	0.1	1391.
5265	17.424	0.72727	0.1	1378.
5266	17.424	0.54545	0.1	1367.2
5267	17.424	0.36364	0.1	1359.2
5268	17.424	0.18182	0.1	1354.8
5269	17.241	5.8182	0.1	1368.9
5270	17.241	5.6364	0.1	1375.2
5271	17.241	5.4545	0.1	1386.
5272	17.241	5.2727	0.1	1400.3
5273	17.241	5.0909	0.1	1417.5
5274	17.241	4.9091	0.1	1437.2
5275	17.241	4.7273	0.1	1458.7
5276	17.241	4.5455	0.1	1481.5
5277	17.241	4.3636	0.1	1504.8
5278	17.241	4.1818	0.1	1527.8
5279	17.241	4.	0.1	1549.7
5280	17.241	3.8182	0.1	1569.8
5281	17.241	3.6364	0.1	1587.1
5282	17.241	3.4545	0.1	1600.9
5283	17.241	3.2727	0.1	1610.5
5284	17.241	3.0909	0.1	1615.5
5285	17.241	2.9091	0.1	1615.5
5286	17.241	2.7273	0.1	1610.5
5287	17.241	2.5455	0.1	1600.9
5288	17.241	2.3636	0.1	1587.1
5289	17.241	2.1818	0.1	1569.8
5290	17.241	2.	0.1	1549.7
5291	17.241	1.8182	0.1	1527.8
5292	17.241	1.6364	0.1	1504.8
5293	17.241	1.4545	0.1	1481.5
5294	17.241	1.2727	0.1	1458.7
5295	17.241	1.0909	0.1	1437.2
5296	17.241	0.90909	0.1	1417.5
5297	17.241	0.72727	0.1	1400.3
5298	17.241	0.54545	0.1	1386.
5299	17.241	0.36364	0.1	1375.2
5300	17.241	0.18182	0.1	1368.9
5301	17.059	5.8182	0.1	1375.3
5302	17.059	5.6364	0.1	1384.
5303	17.059	5.4545	0.1	1398.3
5304	17.059	5.2727	0.1	1416.9
5305	17.059	5.0909	0.1	1439.4
5306	17.059	4.9091	0.1	1465.2
5307	17.059	4.7273	0.1	1493.4
5308	17.059	4.5455	0.1	1523.4
5309	17.059	4.3636	0.1	1554.1
5310	17.059	4.1818	0.1	1584.5
5311	17.059	4.	0.1	1613.6
5312	17.059	3.8182	0.1	1640.3
5313	17.059	3.6364	0.1	1663.4
5314	17.059	3.4545	0.1	1681.9
5315	17.059	3.2727	0.1	1694.8
5316	17.059	3.0909	0.1	1701.4
5317	17.059	2.9091	0.1	1701.4
5318	17.059	2.7273	0.1	1694.8
5319	17.059	2.5455	0.1	1681.9
5320	17.059	2.3636	0.1	1663.4
5321	17.059	2.1818	0.1	1640.3
5322	17.059	2.	0.1	1613.6
5323	17.059	1.8182	0.1	1584.5
5324	17.059	1.6364	0.1	1554.1
5325	17.059	1.4545	0.1	1523.4
5326	17.059	1.2727	0.1	1493.4
5327	17.059	1.0909	0.1	1465.2
5328	17.059	0.90909	0.1	1439.4
5329	17.059	0.72727	0.1	1416.9
5330	17.059	0.54545	0.1	1398.3
5331	17.059	0.36364	0.1	1384.
5332	17.059	0.18182	0.1	1375.3
5333	16.876	5.8182	0.1	1372.4
5334	16.876	5.6364	0.1	1383.9
5335	16.876	5.4545	0.1	1402.3
5336	16.876	5.2727	0.1	1426.4
5337	16.876	5.0909	0.1	1455.5
5338	16.876	4.9091	0.1	1488.9
5339	16.876	4.7273	0.1	1525.8
5340	16.876	4.5455	0.1	1564.9
5341	16.876	4.3636	0.1	1605.1
5342	16.876	4.1818	0.1	1645.1
5343	16.876	4.	0.1	1683.5
5344	16.876	3.8182	0.1	1718.7
5345	16.876	3.6364	0.1	1749.4
5346	16.876	3.4545	0.1	1774.
5347	16.876	3.2727	0.1	1791.3
5348	16.876	3.0909	0.1	1800.1
5349	16.876	2.9091	0.1	1800.1
5350	16.876	2.7273	0.1	1791.3
5351	16.876	2.5455	0.1	1774.
5352	16.876	2.3636	0.1	1749.4
5353	16.876	2.1818	0.1	1718.7
5354	16.876	2.	0.1	1683.5
5355	16.876	1.8182	0.1	1645.1
5356	16.876	1.6364	0.1	1605.1
5357	16.876	1.4545	0.1	1564.9
5358	16.876	1.2727	0.1	1525.8
5359	16.876	1.0909	0.1	1488.9
5360	16.876	0.90909	0.1	1455.5
5361	16.876	0.72727	0.1	1426.4
5362	16.876	0.54545	0.1	1402.3
5363	16.876	0.36364	0.1	1383.9
5364	16.876	0.18182	0.1	1372.4
5365	16.693	5.8182	0.1	1358.
5366	16.693	5.6364	0.1	1372.8
5367	16.693	5.4545	0.1	1396.2
5368	16.693	5.2727	0.1	1427.
5369	16.693	5.0909	0.1	1464.3
5370	16.693	4.9091	0.1	1507.4
5371	16.693	4.7273	0.1	1555.1
5372	16.693	4.5455	0.1	1605.9
5373	16.693	4.3636	0.1	1658.3
5374	16.693	4.1818	0.1	1710.7
5375	16.693	4.	0.1	1761.1
5376	16.693	3.8182	0.1	1807.6
5377	16.693	3.6364	0.1	1848.1
5378	16.693	3.4545	0.1	1880.7
5379	16.693	3.2727	0.1	1903.5
5380	16.693	3.0909	0.1	1915.3
5381	16.693	2.9091	0.1	1915.3
5382	16.693	2.7273	0.1	1903.5
5383	16.693	2.5455	0.1	1880.7
5384	16.693	2.3636	0.1	1848.1
5385	16.693	2.1818	0.1	1807.6
5386	16.693	2.	0.1	1761.1
5387	16.693	1.8182	0.1	1710.7
5388	16.693	1.6364	0.1	1658.3
5389	16.693	1.4545	0.1	1605.9
5390	16.693	1.2727	0.1	1555.1
5391	16.693	1.0909	0.1	1507.4
5392	16.693	0.90909	0.1	1464.3
5393	16.693	0.72727	0.1	1427.
5394	16.693	0.54545	0.1	1396.2
5395	16.693	0.36364	0.1	1372.8
5396	16.693	0.18182	0.1	1358.
5397	16.511	5.8182	0.1	1329.7
5398	16.511	5.6364	0.1	1348.2
5399	16.511	5.4545	0.1	1377.7
5400	16.511	5.2727	0.1	1416.5
5401	16.511	5.0909	0.1	1464.
5402	16.511	4.9091	0.1	1519.2
5403	16.511	4.7273	0.1	1580.6
5404	16.511	4.5455	0.1	1646.5
5405	16.511	4.3636	0.1	1714.7
5406	16.511	4.1818	0.1	1783.
5407	16.511	4.	0.1	1848.9
5408	16.511	3.8182	0.1	1910.
5409	16.511	3.6364	0.1	1963.3
5410	16.511	3.4545	0.1	2006.1
5411	16.511	3.2727	0.1	2036.1
5412	16.511	3.0909	0.1	2051.6
5413	16.511	2.9091	0.1	2051.6
5414	16.511	2.7273	0.1	2036.1
5415	16.511	2.5455	0.1	2006.1
5416	16.511	2.3636	0.1	1963.3
5417	16.511	2.1818	0.1	1910.
5418	16.511	2.	0.1	1848.9
5419	16.511	1.8182	0.1	1783.
5420	16.511	1.6364	0.1	1714.7
5421	16.511	1.4545	0.1	1646.5
5422	16.511	1.2727	0.1	1580.6
5423	16.511	1.0909	0.1	1519.2
5424	16.511	0.90909	0.1	1464.
5425	16.511	0.72727	0.1	1416.5
5426	16.511	0.54545	0.1	1377.7
5427	16.511	0.36364	0.1	1348.2
5428	16.511	0.18182	0.1	1329.7
5429	16.328	5.8182	0.1	1284.8
5430	16.328	5.6364	0.1	1307.6
5431	16.328	5.4545	0.1	1344.
5432	16.328	5.2727	0.1	1392.6
5433	16.328	5.0909	0.1	1452.7
5434	16.328	4.9091	0.1	1523.
5435	16.328	4.7273	0.1	1601.8
5436	16.328	4.5455	0.1	1686.8
5437	16.328	4.3636	0.1	1775.3
5438	16.328	4.1818	0.1	1864.3
5439	16.328	4.	0.1	1950.6
5440	16.328	3.8182	0.1	2030.5
5441	16.328	3.6364	0.1	2100.2
5442	16.328	3.4545	0.1	2156.1
5443	16.328	3.2727	0.1	2195.
5444	16.328	3.0909	0.1	2215.
5445	16.328	2.9091	0.1	2215.
5446	16.328	2.7273	0.1	2195.
5447	16.328	2.5455	0.1	2156.1
5448	16.328	2.3636	0.1	2100.2
5449	16.328	2.1818	0.1	2030.5
5450	16.328	2.	0.1	1950.6
5451	16.328	1.8182	0.1	1864.3
5452	16.328	1.6364	0.1	1775.3
5453	16.328	1.4545	0.1	1686.8
5454	16.328	1.2727	0.1	1601.8
5455	16.328	1.0909	0.1	1523.
5456	16.328	0.90909	0.1	1452.7
5457	16.328	0.72727	0.1	1392.6
5458	16.328	0.54545	0.1	1344.
5459	16.328	0.36364	0.1	1307.6
5460	16.328	0.18182	0.1	1284.8
5461	16.145	5.8182	0.1	1220.5
5462	16.145	5.6364	0.1	1247.9
5463	16.145	5.4545	0.1	1292.5
5464	16.145	5.2727	0.1	1352.8
5465	16.145	5.0909	0.1	1428.
5466	16.145	4.9091	0.1	1517.1
5467	16.145	4.7273	0.1	1617.8
5468	16.145	4.5455	0.1	1727.5
5469	16.145	4.3636	0.1	1842.4
5470	16.145	4.1818	0.1	1958.5
5471	16.145	4.	0.1	2071.4
5472	16.145	3.8182	0.1	2175.8
5473	16.145	3.6364	0.1	2266.4
5474	16.145	3.4545	0.1	2338.3
5475	16.145	3.2727	0.1	2387.7
5476	16.145	3.0909	0.1	2412.9
5477	16.145	2.9091	0.1	2412.9
5478	16.145	2.7273	0.1	2387.7
5479	16.145	2.5455	0.1	2338.3
5480	16.145	2.3636	0.1	2266.4
5481	16.145	2.1818	0.1	2175.8
5482	16.145	2.	0.1	2071.4
5483	16.145	1.8182	0.1	1958.5
5484	16.145	1.6364	0.1	1842.4
5485	16.145	1.4545	0.1	1727.5
5486	16.145	1.2727	0.1	1617.8
5487	16.145	1.0909	0.1	1517.1
5488	16.145	0.90909	0.1	1428.
5489	16.145	0.72727	0.1	1352.8
5490	16.145	0.54545	0.1	1292.5
5491	16.145	0.36364	0.1	1247.9
5492	16.145	0.18182	0.1	1220.5
5493	15.963	5.8182	0.1	1134.1
5494	15.963	5.6364	0.1	1166.4
5495	15.963	5.4545	0.1	1220.4
5496	15.963	5.2727	0.1	1294.4
5497	15.963	5.0909	0.1	1387.9
5498	15.963	4.9091	0.1	1499.8
5499	15.963	4.7273	0.1	1628.
5500	15.963	4.5455	0.1	1769.2
5501	15.963	4.3636	0.1	1918.9
5502	15.963	4.1818	0.1	2071.2
5503	15.963	4.	0.1	2219.6
5504	15.963	3.8182	0.1	2356.1
5505	15.963	3.6364	0.1	2472.9
5506	15.963	3.4545	0.1	2563.2
5507	15.963	3.2727	0.1	2623.7
5508	15.963	3.0909	0.1	2653.7
5509	15.963	2.9091	0.1	2653.7
5510	15.963	2.7273	0.1	2623.7
5511	15.963	2.5455	0.1	2563.2
5512	15.963	2.3636	0.1	2472.9
5513	15.963	2.1818	0.1	2356.1
5514	15.963	2.	0.1	2219.6
5515	15.963	1.8182	0.1	2071.2
5516	15.963	1.6364	0.1	1918.9
5517	15.963	1.4545	0.1	1769.2
5518	15.963	1.2727	0.1	1628.
5519	15.963	1.0909	0.1	1499.8
5520	15.963	0.90909	0.1	1387.9
5521	15.963	0.72727	0.1	1294.4
5522	15.963	0.54545	0.1	1220.4
5523	15.963	0.36364	0.1	1166.4
5524	15.963	0.18182	0.1	1134.1
5525	15.78	5.8182	0.1	1023.
5526	15.78	5.6364	0.1	1060.8
5527	15.78	5.4545	0.1	1125.8
5528	15.78	5.2727	0.1	1215.8
5529	15.78	5.0909	0.1	1330.6
5530	15.78	4.9091	0.1	1469.6
5531	15.78	4.7273	0.1	1631.5
5532	15.78	4.5455	0.1	1813.3
5533	15.78	4.3636	0.1	2009.3
5534	15.78	4.1818	0.1	2211.4
5535	15.78	4.	0.1	2408.8
5536	15.78	3.8182	0.1	2588.4
5537	15.78	3.6364	0.1	2736.6
5538	15.78	3.4545	0.1	2845.2
5539	15.78	3.2727	0.1	2913.7
5540	15.78	3.0909	0.1	2946.
5541	15.78	2.9091	0.1	2946.
5542	15.78	2.7273	0.1	2913.7
5543	15.78	2.5455	0.1	2845.2
5544	15.78	2.3636	0.1	2736.6
5545	15.78	2.1818	0.1	2588.4
5546	15.78	2.	0.1	2408.8
5547	15.78	1.8182	0.1	2211.4
5548	15.78	1.6364	0.1	2009.3
5549	15.78	1.4545	0.1	1813.3
5550	15.78	1.2727	0.1	1631.5
5551	15.78	1.0909	0.1	1469.6
5552	15.78	0.90909	0.1	1330.6
5553	15.78	0.72727	0.1	1215.8
5554	15.78	0.54545	0.1	1125.8
5555	15.78	0.36364	0.1	1060.8
5556	15.78	0.18182	0.1	1023.
5557	15.597	5.8182	0.1	885.75
5558	15.597	5.6364	0.1	930.37
5559	15.597	5.4545	0.1	1008.8
5560	15.597	5.2727	0.1	1117.5
5561	15.597	5.0909	0.1	1256.2
5562	15.597	4.9091	0.1	1425.6
5563	15.597	4.7273	0.1	1626.9
5564	15.597	4.5455	0.1	1859.8
5565	15.597	4.3636	0.1	2119.8
5566	15.597	4.1818	0.1	2394.1
5567	15.597	4.	0.1	2663.6
5568	15.597	3.8182	0.1	2902.
5569	15.597	3.6364	0.1	3084.9
5570	15.597	3.4545	0.1	3203.2
5571	15.597	3.2727	0.1	3267.4
5572	15.597	3.0909	0.1	3294.4
5573	15.597	2.9091	0.1	3294.4
5574	15.597	2.7273	0.1	3267.4
5575	15.597	2.5455	0.1	3203.2
5576	15.597	2.3636	0.1	3084.9
5577	15.597	2.1818	0.1	2902.
5578	15.597	2.	0.1	2663.6
5579	15.597	1.8182	0.1	2394.1
5580	15.597	1.6364	0.1	2119.8
5581	15.597	1.4545	0.1	1859.8
5582	15.597	1.2727	0.1	1626.9
5583	15.597	1.0909	0.1	1425.6
5584	15.597	0.90909	0.1	1256.2
5585	15.597	0.72727	0.1	1117.5
5586	15.597	0.54545	0.1	1008.8
5587	15.597	0.36364	0.1	930.37
5588	15.597	0.18182	0.1	885.75
5589	15.415	5.8182	0.1	722.49
5590	15.415	5.6364	0.1	777.89
5591	15.415	5.4545	0.1	874.66
5592	15.415	5.2727	0.1	1005.1
5593	15.415	5.0909	0.1	1168.5
5594	15.415	4.9091	0.1	1368.1
5595	15.415	4.7273	0.1	1611.2
5596	15.415	4.5455	0.1	1907.1
5597	15.415	4.3636	0.1	2256.
5598	15.415	4.1818	0.1	2645.6
5599	15.415	4.	0.1	3036.4
5600	15.415	3.8182	0.1	3357.1
5601	15.415	3.6364	0.1	3564.8
5602	15.415	3.4545	0.1	3658.1
5603	15.415	3.2727	0.1	3686.9
5604	15.415	3.0909	0.1	3691.8
5605	15.415	2.9091	0.1	3691.8
5606	15.415	2.7273	0.1	3686.9
5607	15.415	2.5455	0.1	3658.1
5608	15.415	2.3636	0.1	3564.8
5609	15.415	2.1818	0.1	3357.1
5610	15.415	2.	0.1	3036.4
5611	15.415	1.8182	0.1	2645.6
5612	15.415	1.6364	0.1	2256.
5613	15.415	1.4545	0.1	1907.1
5614	15.415	1.2727	0.1	1611.2
5615	15.415	1.0909	0.1	1368.1
5616	15.415	0.90909	0.1	1168.5
5617	15.415	0.72727	0.1	1005.1
5618	15.415	0.54545	0.1	874.66
5619	15.415	0.36364	0.1	777.89
5620	15.415	0.18182	0.1	722.49
5621	15.232	5.8182	0.1	535.96
5622	15.232	5.6364	0.1	614.52
5623	15.232	5.4545	0.1	738.67
5624	15.232	5.2727	0.1	892.91
5625	15.232	5.0909	0.1	1077.6
5626	15.232	4.9091	0.1	1301.2
5627	15.232	4.7273	0.1	1580.1
5628	15.232	4.5455	0.1	1938.5
5629	15.232	4.3636	0.1	2413.9
5630	15.232	4.1818	0.1	3026.7
5631	15.232	4.	0.1	3623.9
5632	15.232	3.8182	0.1	4103.
5633	15.232	3.6364	0.1	4249.3
5634	15.232	3.4545	0.1	4217.1
5635	15.232	3.2727	0.1	4148.6
5636	15.232	3.0909	0.1	4106.2
5637	15.232	2.9091	0.1	4106.2
5638	15.232	2.7273	0.1	4148.6
5639	15.232	2.5455	0.1	4217.1
5640	15.232	2.3636	0.1	4249.3
5641	15.232	2.1818	0.1	4103.
5642	15.232	2.	0.1	3623.9
5643	15.232	1.8182	0.1	3026.7
5644	15.232	1.6364	0.1	2413.9
5645	15.232	1.4545	0.1	1938.5
5646	15.232	1.2727	0.1	1580.1
5647	15.232	1.0909	0.1	1301.2
5648	15.232	0.90909	0.1	1077.6
5649	15.232	0.72727	0.1	892.91
5650	15.232	0.54545	0.1	738.67
5651	15.232	0.36364	0.1	614.52
5652	15.232	0.18182	0.1	535.96
5653	15.049	5.8182	0.1	348.65
5654	15.049	5.6364	0.1	487.41
5655	15.049	5.4545	0.1	650.5
5656	15.049	5.2727	0.1	829.75
5657	15.049	5.0909	0.1	1033.8
5658	15.049	4.9091	0.1	1277.
5659	15.049	4.7273	0.1	1582.4
5660	15.049	4.5455	0.1	2000.1
5661	15.049	4.3636	0.1	2609.4
5662	15.049	4.1818	0.1	3807.7
5663	15.049	4.	0.1	5334.7
5664	15.049	3.8182	0.1	5509.2
5665	15.049	3.6364	0.1	5189.4
5666	15.049	3.4545	0.1	4802.3
5667	15.049	3.2727	0.1	4577.3
5668	15.049	3.0909	0.1	4470.3
5669	15.049	2.9091	0.1	4470.3
5670	15.049	2.7273	0.1	4577.3
5671	15.049	2.5455	0.1	4802.3
5672	15.049	2.3636	0.1	5189.4
5673	15.049	2.1818	0.1	5509.2
5674	15.049	2.	0.1	5334.7
5675	15.049	1.8182	0.1	3807.7
5676	15.049	1.6364	0.1	2609.4
5677	15.049	1.4545	0.1	2000.1
5678	15.049	1.2727	0.1	1582.4
5679	15.049	1.0909	0.1	1277.
5680	15.049	0.90909	0.1	1033.8
5681	15.049	0.72727	0.1	829.75
5682	15.049	0.54545	0.1	650.51
5683	15.049	0.36364	0.1	487.41
5684	15.049	0.18182	0.1	348.65
5685	0.18375	0.18182	0.1	3888.2
5686	0.18375	0.36364	0.1	4488.8
5687	0.18375	0.54545	0.1	5183.2
5688	0.18375	0.72727	0.1	5714.1
5689	0.18375	0.90909	0.1	6113.
5690	0.18375	1.0909	0.1	6413.4
5691	0.18375	1.2727	0.1	6643.5
5692	0.18375	1.4545	0.1	6821.8
5693	0.18375	1.6364	0.1	6961.3
5694	0.18375	1.8182	0.1	7070.6
5695	0.18375	2.	0.1	7156.2
5696	0.18375	2.1818	0.1	7222.2
5697	0.18375	2.3636	0.1	7271.9
5698	0.18375	2.5455	0.1	7307.5
5699	0.18375	2.7273	0.1	7330.4
5700	0.18375	2.9091	0.1	7341.7
5701	0.18375	3.0909	0.1	7341.7
5702	0.18375	3.2727	0.1	7330.4
5703	0.18375	3.4545	0.1	7307.5
5704	0.18375	3.6364	0.1	7271.9
5705	0.18375	3.8182	0.1	7222.2
5706	0.18375	4.	0.1	7156.2
5707	0.18375	4.1818	0.1	7070.6
5708	0.18375	4.3636	0.1	6961.3
5709	0.18375	4.5455	0.1	6821.8
5710	0.18375	4.7273	0.1	6643.5
5711	0.18375	4.9091	0.1	6413.4
5712	0.18375	5.0909	0.1	6113.
5713	0.18375	5.2727	0.1	5714.1
5714	0.18375	5.4545	0.1	5183.2
5715	0.18375	5.6364	0.1	4488.8
5716	0.18375	5.8182	0.1	3888.2
5717	0.3675	0.18182	0.1	5028.7
5718	0.3675	0.36364	0.1	5160.
5719	0.3675	0.54545	0.1	5454.9
5720	0.3675	0.72727	0.1	5782.2
5721	0.3675	0.90909	0.1	6082.5
5722	0.3675	1.0909	0.1	6338.5
5723	0.3675	1.2727	0.1	6550.
5724	0.3675	1.4545	0.1	6722.6
5725	0.3675	1.6364	0.1	6862.4
5726	0.3675	1.8182	0.1	6974.9
5727	0.3675	2.	0.1	7064.5
5728	0.3675	2.1818	0.1	7134.7
5729	0.3675	2.3636	0.1	7188.
5730	0.3675	2.5455	0.1	7226.5
5731	0.3675	2.7273	0.1	7251.4
5732	0.3675	2.9091	0.1	7263.6
5733	0.3675	3.0909	0.1	7263.6
5734	0.3675	3.2727	0.1	7251.4
5735	0.3675	3.4545	0.1	7226.5
5736	0.3675	3.6364	0.1	7188.
5737	0.3675	3.8182	0.1	7134.7
5738	0.3675	4.	0.1	7064.5
5739	0.3675	4.1818	0.1	6974.9
5740	0.3675	4.3636	0.1	6862.4
5741	0.3675	4.5455	0.1	6722.6
5742	0.3675	4.7273	0.1	6550.
5743	0.3675	4.9091	0.1	6338.5
5744	0.3675	5.0909	0.1	6082.5
5745	0.3675	5.2727	0.1	5782.2
5746	0.3675	5.4545	0.1	5454.9
5747	0.3675	5.6364	0.1	5160.
5748	0.3675	5.8182	0.1	5028.7
5749	0.55125	0.18182	0.1	5525.4
5750	0.55125	0.36364	0.1	5520.9
5751	0.55125	0.54545	0.1	5633.8
5752	0.55125	0.72727	0.1	5800.1
5753	0.55125	0.90909	0.1	5986.3
5754	0.55125	1.0909	0.1	6168.6
5755	0.55125	1.2727	0.1	6334.5
5756	0.55125	1.4545	0.1	6479.5
5757	0.55125	1.6364	0.1	6602.7
5758	0.55125	1.8182	0.1	6705.5
5759	0.55125	2.	0.1	6789.6
5760	0.55125	2.1818	0.1	6856.7
5761	0.55125	2.3636	0.1	6908.5
5762	0.55125	2.5455	0.1	6946.3
5763	0.55125	2.7273	0.1	6970.9
5764	0.55125	2.9091	0.1	6983.1
5765	0.55125	3.0909	0.1	6983.1
5766	0.55125	3.2727	0.1	6970.9
5767	0.55125	3.4545	0.1	6946.3
5768	0.55125	3.6364	0.1	6908.5
5769	0.55125	3.8182	0.1	6856.7
5770	0.55125	4.	0.1	6789.6
5771	0.55125	4.1818	0.1	6705.5
5772	0.55125	4.3636	0.1	6602.7
5773	0.55125	4.5455	0.1	6479.5
5774	0.55125	4.7273	0.1	6334.5
5775	0.55125	4.9091	0.1	6168.6
5776	0.55125	5.0909	0.1	5986.3
5777	0.55125	5.2727	0.1	5800.1
5778	0.55125	5.4545	0.1	5633.8
5779	0.55125	5.6364	0.1	5520.9
5780	0.55125	5.8182	0.1	5525.4
5781	0.735	0.18182	0.1	5809.9
5782	0.735	0.36364	0.1	5767.5
5783	0.735	0.54545	0.1	5805.8
5784	0.735	0.72727	0.1	5885.5
5785	0.735	0.90909	0.1	5992.1
5786	0.735	1.0909	0.1	6110.9
5787	0.735	1.2727	0.1	6230.
5788	0.735	1.4545	0.1	6342.
5789	0.735	1.6364	0.1	6442.6
5790	0.735	1.8182	0.1	6530.1
5791	0.735	2.	0.1	6603.9
5792	0.735	2.1818	0.1	6664.3
5793	0.735	2.3636	0.1	6711.7
5794	0.735	2.5455	0.1	6746.7
5795	0.735	2.7273	0.1	6769.8
5796	0.735	2.9091	0.1	6781.2
5797	0.735	3.0909	0.1	6781.2
5798	0.735	3.2727	0.1	6769.8
5799	0.735	3.4545	0.1	6746.7
5800	0.735	3.6364	0.1	6711.7
5801	0.735	3.8182	0.1	6664.3
5802	0.735	4.	0.1	6603.9
5803	0.735	4.1818	0.1	6530.1
5804	0.735	4.3636	0.1	6442.6
5805	0.735	4.5455	0.1	6342.
5806	0.735	4.7273	0.1	6230.
5807	0.735	4.9091	0.1	6110.9
5808	0.735	5.0909	0.1	5992.1
5809	0.735	5.2727	0.1	5885.5
5810	0.735	5.4545	0.1	5805.8
5811	0.735	5.6364	0.1	5767.5
5812	0.735	5.8182	0.1	5809.9
5813	0.91875	0.18182	0.1	5962.7
5814	0.91875	0.36364	0.1	5906.4
5815	0.91875	0.54545	0.1	5908.5
5816	0.91875	0.72727	0.1	5940.6
5817	0.91875	0.90909	0.1	5996.2
5818	0.91875	1.0909	0.1	6067.7
5819	0.91875	1.2727	0.1	6146.9
5820	0.91875	1.4545	0.1	6227.1
5821	0.91875	1.6364	0.1	6303.5
5822	0.91875	1.8182	0.1	6373.
5823	0.91875	2.	0.1	6433.7
5824	0.91875	2.1818	0.1	6484.8
5825	0.91875	2.3636	0.1	6525.6
5826	0.91875	2.5455	0.1	6556.3
5827	0.91875	2.7273	0.1	6576.6
5828	0.91875	2.9091	0.1	6586.8
5829	0.91875	3.0909	0.1	6586.8
5830	0.91875	3.2727	0.1	6576.6
5831	0.91875	3.4545	0.1	6556.3
5832	0.91875	3.6364	0.1	6525.6
5833	0.91875	3.8182	0.1	6484.8
5834	0.91875	4.	0.1	6433.7
5835	0.91875	4.1818	0.1	6373.
5836	0.91875	4.3636	0.1	6303.5
5837	0.91875	4.5455	0.1	6227.1
5838	0.91875	4.7273	0.1	6146.9
5839	0.91875	4.9091	0.1	6067.7
5840	0.91875	5.0909	0.1	5996.2
5841	0.91875	5.2727	0.1	5940.6
5842	0.91875	5.4545	0.1	5908.5
5843	0.91875	5.6364	0.1	5906.4
5844	0.91875	5.8182	0.1	5962.7
5845	1.1025	0.18182	0.1	6042.2
5846	1.1025	0.36364	0.1	5983.
5847	1.1025	0.54545	0.1	5967.4
5848	1.1025	0.72727	0.1	5973.1
5849	1.1025	0.90909	0.1	5997.4
5850	1.1025	1.0909	0.1	6036.2
5851	1.1025	1.2727	0.1	6084.9
5852	1.1025	1.4545	0.1	6138.5
5853	1.1025	1.6364	0.1	6192.8
5854	1.1025	1.8182	0.1	6244.7
5855	1.1025	2.	0.1	6291.7
5856	1.1025	2.1818	0.1	6332.4
5857	1.1025	2.3636	0.1	6365.7
5858	1.1025	2.5455	0.1	6391.
5859	1.1025	2.7273	0.1	6408.1
5860	1.1025	2.9091	0.1	6416.7
5861	1.1025	3.0909	0.1	6416.7
5862	1.1025	3.2727	0.1	6408.1
5863	1.1025	3.4545	0.1	6391.
5864	1.1025	3.6364	0.1	6365.7
5865	1.1025	3.8182	0.1	6332.4
5866	1.1025	4.	0.1	6291.7
5867	1.1025	4.1818	0.1	6244.7
5868	1.1025	4.3636	0.1	6192.8
5869	1.1025	4.5455	0.1	6138.5
5870	1.1025	4.7273	0.1	6084.9
5871	1.1025	4.9091	0.1	6036.2
5872	1.1025	5.0909	0.1	5997.4
5873	1.1025	5.2727	0.1	5973.1
5874	1.1025	5.4545	0.1	5967.4
5875	1.1025	5.6364	0.1	5983.
5876	1.1025	5.8182	0.1	6042.2
5877	1.2862	0.18182	0.1	6073.9
5878	1.2862	0.36364	0.1	6015.7
5879	1.2862	0.54545	0.1	5991.
5880	1.2862	0.72727	0.1	5981.6
5881	1.2862	0.90909	0.1	5986.3
5882	1.2862	1.0909	0.1	6003.3
5883	1.2862	1.2727	0.1	6029.7
5884	1.2862	1.4545	0.1	6062.4
5885	1.2862	1.6364	0.1	6098.1
5886	1.2862	1.8182	0.1	6134.2
5887	1.2862	2.	0.1	6168.4
5888	1.2862	2.1818	0.1	6198.9
5889	1.2862	2.3636	0.1	6224.5
5890	1.2862	2.5455	0.1	6244.3
5891	1.2862	2.7273	0.1	6257.8
5892	1.2862	2.9091	0.1	6264.7
5893	1.2862	3.0909	0.1	6264.7
5894	1.2862	3.2727	0.1	6257.8
5895	1.2862	3.4545	0.1	6244.3
5896	1.2862	3.6364	0.1	6224.5
5897	1.2862	3.8182	0.1	6198.9
5898	1.2862	4.	0.1	6168.4
5899	1.2862	4.1818	0.1	6134.2
5900	1.2862	4.3636	0.1	6098.1
5901	1.2862	4.5455	0.1	6062.4
5902	1.2862	4.7273	0.1	6029.7
5903	1.2862	4.9091	0.1	6003.3
5904	1.2862	5.0909	0.1	5986.3
5905	1.2862	5.2727	0.1	5981.6
5906	1.2862	5.4545	0.1	5991.
5907	1.2862	5.6364	0.1	6015.7
5908	1.2862	5.8182	0.1	6073.9
5909	1.47	0.18182	0.1	6074.3
5910	1.47	0.36364	0.1	6018.8
5911	1.47	0.54545	0.1	5989.5
5912	1.47	0.72727	0.1	5971.4
5913	1.47	0.90909	0.1	5964.
5914	1.47	1.0909	0.1	5966.3
5915	1.47	1.2727	0.1	5976.9
5916	1.47	1.4545	0.1	5993.9
5917	1.47	1.6364	0.1	6014.9
5918	1.47	1.8182	0.1	6037.8
5919	1.47	2.	0.1	6060.7
5920	1.47	2.1818	0.1	6081.9
5921	1.47	2.3636	0.1	6100.3
5922	1.47	2.5455	0.1	6114.8
5923	1.47	2.7273	0.1	6124.8
5924	1.47	2.9091	0.1	6129.9
5925	1.47	3.0909	0.1	6129.9
5926	1.47	3.2727	0.1	6124.8
5927	1.47	3.4545	0.1	6114.8
5928	1.47	3.6364	0.1	6100.3
5929	1.47	3.8182	0.1	6081.9
5930	1.47	4.	0.1	6060.7
5931	1.47	4.1818	0.1	6037.8
5932	1.47	4.3636	0.1	6014.9
5933	1.47	4.5455	0.1	5993.9
5934	1.47	4.7273	0.1	5976.9
5935	1.47	4.9091	0.1	5966.3
5936	1.47	5.0909	0.1	5964.
5937	1.47	5.2727	0.1	5971.4
5938	1.47	5.4545	0.1	5989.5
5939	1.47	5.6364	0.1	6018.8
5940	1.47	5.8182	0.1	6074.3
5941	1.6537	0.18182	0.1	6053.2
5942	1.6537	0.36364	0.1	6001.1
5943	1.6537	0.54545	0.1	5969.7
5944	1.6537	0.72727	0.1	5946.6
5945	1.6537	0.90909	0.1	5931.6
5946	1.6537	1.0909	0.1	5924.2
5947	1.6537	1.2727	0.1	5923.8
5948	1.6537	1.4545	0.1	5929.2
5949	1.6537	1.6364	0.1	5938.9
5950	1.6537	1.8182	0.1	5951.2
5951	1.6537	2.	0.1	5964.7
5952	1.6537	2.1818	0.1	5978.
5953	1.6537	2.3636	0.1	5990.
5954	1.6537	2.5455	0.1	5999.7
5955	1.6537	2.7273	0.1	6006.6
5956	1.6537	2.9091	0.1	6010.1
5957	1.6537	3.0909	0.1	6010.1
5958	1.6537	3.2727	0.1	6006.6
5959	1.6537	3.4545	0.1	5999.7
5960	1.6537	3.6364	0.1	5990.
5961	1.6537	3.8182	0.1	5978.
5962	1.6537	4.	0.1	5964.7
5963	1.6537	4.1818	0.1	5951.2
5964	1.6537	4.3636	0.1	5938.9
5965	1.6537	4.5455	0.1	5929.2
5966	1.6537	4.7273	0.1	5923.8
5967	1.6537	4.9091	0.1	5924.2
5968	1.6537	5.0909	0.1	5931.6
5969	1.6537	5.2727	0.1	5946.6
5970	1.6537	5.4545	0.1	5969.7
5971	1.6537	5.6364	0.1	6001.1
5972	1.6537	5.8182	0.1	6053.2
5973	1.8375	0.18182	0.1	6017.2
5974	1.8375	0.36364	0.1	5968.7
5975	1.8375	0.54545	0.1	5936.6
5976	1.8375	0.72727	0.1	5910.8
5977	1.8375	0.90909	0.1	5891.
5978	1.8375	1.0909	0.1	5877.4
5979	1.8375	1.2727	0.1	5869.4
5980	1.8375	1.4545	0.1	5866.5
5981	1.8375	1.6364	0.1	5867.7
5982	1.8375	1.8182	0.1	5871.9
5983	1.8375	2.	0.1	5877.9
5984	1.8375	2.1818	0.1	5884.6
5985	1.8375	2.3636	0.1	5891.2
5986	1.8375	2.5455	0.1	5896.9
5987	1.8375	2.7273	0.1	5900.9
5988	1.8375	2.9091	0.1	5903.1
5989	1.8375	3.0909	0.1	5903.1
5990	1.8375	3.2727	0.1	5900.9
5991	1.8375	3.4545	0.1	5896.9
5992	1.8375	3.6364	0.1	5891.2
5993	1.8375	3.8182	0.1	5884.6
5994	1.8375	4.	0.1	5877.9
5995	1.8375	4.1818	0.1	5871.9
5996	1.8375	4.3636	0.1	5867.7
5997	1.8375	4.5455	0.1	5866.5
5998	1.8375	4.7273	0.1	5869.4
5999	1.8375	4.9091	0.1	5877.4
6000	1.8375	5.0909	0.1	5891.
6001	1.8375	5.2727	0.1	5910.8
6002	1.8375	5.4545	0.1	5936.6
6003	1.8375	5.6364	0.1	5968.7
6004	1.8375	5.8182	0.1	6017.2
6005	2.0213	0.18182	0.1	5970.8
6006	2.0213	0.36364	0.1	5925.7
6007	2.0213	0.54545	0.1	5893.9
6008	2.0213	0.72727	0.1	5866.7
6009	2.0213	0.90909	0.1	5844.2
6010	2.0213	1.0909	0.1	5826.5
6011	2.0213	1.2727	0.1	5813.5
6012	2.0213	1.4545	0.1	5804.7
6013	2.0213	1.6364	0.1	5799.7
6014	2.0213	1.8182	0.1	5797.8
6015	2.0213	2.	0.1	5798.
6016	2.0213	2.1818	0.1	5799.6
6017	2.0213	2.3636	0.1	5801.8
6018	2.0213	2.5455	0.1	5804.1
6019	2.0213	2.7273	0.1	5805.9
6020	2.0213	2.9091	0.1	5806.8
6021	2.0213	3.0909	0.1	5806.8
6022	2.0213	3.2727	0.1	5805.9
6023	2.0213	3.4545	0.1	5804.1
6024	2.0213	3.6364	0.1	5801.8
6025	2.0213	3.8182	0.1	5799.6
6026	2.0213	4.	0.1	5798.
6027	2.0213	4.1818	0.1	5797.8
6028	2.0213	4.3636	0.1	5799.7
6029	2.0213	4.5455	0.1	5804.7
6030	2.0213	4.7273	0.1	5813.5
6031	2.0213	4.9091	0.1	5826.5
6032	2.0213	5.0909	0.1	5844.2
6033	2.0213	5.2727	0.1	5866.7
6034	2.0213	5.4545	0.1	5893.9
6035	2.0213	5.6364	0.1	5925.7
6036	2.0213	5.8182	0.1	5970.8
6037	2.205	0.18182	0.1	5917.
6038	2.205	0.36364	0.1	5875.3
6039	2.205	0.54545	0.1	5844.2
6040	2.205	0.72727	0.1	5816.6
6041	2.205	0.90909	0.1	5792.6
6042	2.205	1.0909	0.1	5772.5
6043	2.205	1.2727	0.1	5756.1
6044	2.205	1.4545	0.1	5743.4
6045	2.205	1.6364	0.1	5734.
6046	2.205	1.8182	0.1	5727.6
6047	2.205	2.	0.1	5723.4
6048	2.205	2.1818	0.1	5721.1
6049	2.205	2.3636	0.1	5720.
6050	2.205	2.5455	0.1	5719.6
6051	2.205	2.7273	0.1	5719.5
6052	2.205	2.9091	0.1	5719.6
6053	2.205	3.0909	0.1	5719.6
6054	2.205	3.2727	0.1	5719.5
6055	2.205	3.4545	0.1	5719.6
6056	2.205	3.6364	0.1	5720.
6057	2.205	3.8182	0.1	5721.1
6058	2.205	4.	0.1	5723.4
6059	2.205	4.1818	0.1	5727.6
6060	2.205	4.3636	0.1	5734.
6061	2.205	4.5455	0.1	5743.4
6062	2.205	4.7273	0.1	5756.1
6063	2.205	4.9091	0.1	5772.5
6064	2.205	5.0909	0.1	5792.6
6065	2.205	5.2727	0.1	5816.6
6066	2.205	5.4545	0.1	5844.2
6067	2.205	5.6364	0.1	5875.3
6068	2.205	5.8182	0.1	5917.
6069	2.3888	0.18182	0.1	5858.1
6070	2.3888	0.36364	0.1	5819.5
6071	2.3888	0.54545	0.1	5789.5
6072	2.3888	0.72727	0.1	5762.1
6073	2.3888	0.90909	0.1	5737.5
6074	2.3888	1.0909	0.1	5716.
6075	2.3888	1.2727	0.1	5697.6
6076	2.3888	1.4545	0.1	5682.3
6077	2.3888	1.6364	0.1	5669.9
6078	2.3888	1.8182	0.1	5660.3
6079	2.3888	2.	0.1	5653.1
6080	2.3888	2.1818	0.1	5647.8
6081	2.3888	2.3636	0.1	5644.1
6082	2.3888	2.5455	0.1	5641.7
6083	2.3888	2.7273	0.1	5640.3
6084	2.3888	2.9091	0.1	5639.6
6085	2.3888	3.0909	0.1	5639.6
6086	2.3888	3.2727	0.1	5640.3
6087	2.3888	3.4545	0.1	5641.7
6088	2.3888	3.6364	0.1	5644.1
6089	2.3888	3.8182	0.1	5647.8
6090	2.3888	4.	0.1	5653.1
6091	2.3888	4.1818	0.1	5660.3
6092	2.3888	4.3636	0.1	5669.9
6093	2.3888	4.5455	0.1	5682.3
6094	2.3888	4.7273	0.1	5697.6
6095	2.3888	4.9091	0.1	5716.
6096	2.3888	5.0909	0.1	5737.5
6097	2.3888	5.2727	0.1	5762.1
6098	2.3888	5.4545	0.1	5789.5
6099	2.3888	5.6364	0.1	5819.5
6100	2.3888	5.8182	0.1	5858.1
6101	2.5725	0.18182	0.1	5795.6
6102	2.5725	0.36364	0.1	5760.
6103	2.5725	0.54545	0.1	5731.2
6104	2.5725	0.72727	0.1	5704.4
6105	2.5725	0.90909	0.1	5679.9
6106	2.5725	1.0909	0.1	5657.8
6107	2.5725	1.2727	0.1	5638.2
6108	2.5725	1.4545	0.1	5621.4
6109	2.5725	1.6364	0.1	5607.1
6110	2.5725	1.8182	0.1	5595.4
6111	2.5725	2.	0.1	5586.
6112	2.5725	2.1818	0.1	5578.7
6113	2.5725	2.3636	0.1	5573.2
6114	2.5725	2.5455	0.1	5569.3
6115	2.5725	2.7273	0.1	5566.8
6116	2.5725	2.9091	0.1	5565.6
6117	2.5725	3.0909	0.1	5565.6
6118	2.5725	3.2727	0.1	5566.8
6119	2.5725	3.4545	0.1	5569.3
6120	2.5725	3.6364	0.1	5573.2
6121	2.5725	3.8182	0.1	5578.7
6122	2.5725	4.	0.1	5586.
6123	2.5725	4.1818	0.1	5595.4
6124	2.5725	4.3636	0.1	5607.1
6125	2.5725	4.5455	0.1	5621.4
6126	2.5725	4.7273	0.1	5638.2
6127	2.5725	4.9091	0.1	5657.8
6128	2.5725	5.0909	0.1	5679.9
6129	2.5725	5.2727	0.1	5704.4
6130	2.5725	5.4545	0.1	5731.2
6131	2.5725	5.6364	0.1	5760.
6132	2.5725	5.8182	0.1	5795.6
6133	2.7562	0.18182	0.1	5730.8
6134	2.7562	0.36364	0.1	5697.9
6135	2.7562	0.54545	0.1	5670.5
6136	2.7562	0.72727	0.1	5644.6
6137	2.7562	0.90909	0.1	5620.5
6138	2.7562	1.0909	0.1	5598.3
6139	2.7562	1.2727	0.1	5578.4
6140	2.7562	1.4545	0.1	5560.7
6141	2.7562	1.6364	0.1	5545.3
6142	2.7562	1.8182	0.1	5532.3
6143	2.7562	2.	0.1	5521.5
6144	2.7562	2.1818	0.1	5512.8
6145	2.7562	2.3636	0.1	5506.
6146	2.7562	2.5455	0.1	5501.2
6147	2.7562	2.7273	0.1	5498.
6148	2.7562	2.9091	0.1	5496.4
6149	2.7562	3.0909	0.1	5496.4
6150	2.7562	3.2727	0.1	5498.
6151	2.7562	3.4545	0.1	5501.2
6152	2.7562	3.6364	0.1	5506.
6153	2.7562	3.8182	0.1	5512.8
6154	2.7562	4.	0.1	5521.5
6155	2.7562	4.1818	0.1	5532.3
6156	2.7562	4.3636	0.1	5545.3
6157	2.7562	4.5455	0.1	5560.7
6158	2.7562	4.7273	0.1	5578.4
6159	2.7562	4.9091	0.1	5598.3
6160	2.7562	5.0909	0.1	5620.5
6161	2.7562	5.2727	0.1	5644.6
6162	2.7562	5.4545	0.1	5670.5
6163	2.7562	5.6364	0.1	5697.9
6164	2.7562	5.8182	0.1	5730.8
6165	2.94	0.18182	0.1	5664.5
6166	2.94	0.36364	0.1	5634.1
6167	2.94	0.54545	0.1	5608.1
6168	2.94	0.72727	0.1	5583.3
6169	2.94	0.90909	0.1	5559.9
6170	2.94	1.0909	0.1	5538.1
6171	2.94	1.2727	0.1	5518.2
6172	2.94	1.4545	0.1	5500.2
6173	2.94	1.6364	0.1	5484.3
6174	2.94	1.8182	0.1	5470.6
6175	2.94	2.	0.1	5459.
6176	2.94	2.1818	0.1	5449.4
6177	2.94	2.3636	0.1	5441.9
6178	2.94	2.5455	0.1	5436.4
6179	2.94	2.7273	0.1	5432.7
6180	2.94	2.9091	0.1	5430.9
6181	2.94	3.0909	0.1	5430.9
6182	2.94	3.2727	0.1	5432.7
6183	2.94	3.4545	0.1	5436.4
6184	2.94	3.6364	0.1	5441.9
6185	2.94	3.8182	0.1	5449.4
6186	2.94	4.	0.1	5459.
6187	2.94	4.1818	0.1	5470.6
6188	2.94	4.3636	0.1	5484.3
6189	2.94	4.5455	0.1	5500.2
6190	2.94	4.7273	0.1	5518.2
6191	2.94	4.9091	0.1	5538.1
6192	2.94	5.0909	0.1	5559.9
6193	2.94	5.2727	0.1	5583.3
6194	2.94	5.4545	0.1	5608.1
6195	2.94	5.6364	0.1	5634.1
6196	2.94	5.8182	0.1	5664.5
6197	3.1237	0.18182	0.1	5597.4
6198	3.1237	0.36364	0.1	5569.3
6199	3.1237	0.54545	0.1	5544.7
6200	3.1237	0.72727	0.1	5521.1
6201	3.1237	0.90909	0.1	5498.6
6202	3.1237	1.0909	0.1	5477.5
6203	3.1237	1.2727	0.1	5457.9
6204	3.1237	1.4545	0.1	5440.1
6205	3.1237	1.6364	0.1	5424.1
6206	3.1237	1.8182	0.1	5410.1
6207	3.1237	2.	0.1	5398.1
6208	3.1237	2.1818	0.1	5388.1
6209	3.1237	2.3636	0.1	5380.2
6210	3.1237	2.5455	0.1	5374.3
6211	3.1237	2.7273	0.1	5370.4
6212	3.1237	2.9091	0.1	5368.4
6213	3.1237	3.0909	0.1	5368.4
6214	3.1237	3.2727	0.1	5370.4
6215	3.1237	3.4545	0.1	5374.3
6216	3.1237	3.6364	0.1	5380.2
6217	3.1237	3.8182	0.1	5388.1
6218	3.1237	4.	0.1	5398.1
6219	3.1237	4.1818	0.1	5410.1
6220	3.1237	4.3636	0.1	5424.1
6221	3.1237	4.5455	0.1	5440.1
6222	3.1237	4.7273	0.1	5457.9
6223	3.1237	4.9091	0.1	5477.5
6224	3.1237	5.0909	0.1	5498.6
6225	3.1237	5.2727	0.1	5521.1
6226	3.1237	5.4545	0.1	5544.7
6227	3.1237	5.6364	0.1	5569.3
6228	3.1237	5.8182	0.1	5597.4
6229	3.3075	0.18182	0.1	5529.9
6230	3.3075	0.36364	0.1	5503.9
6231	3.3075	0.54545	0.1	5480.8
6232	3.3075	0.72727	0.1	5458.4
6233	3.3075	0.90909	0.1	5436.9
6234	3.3075	1.0909	0.1	5416.6
6235	3.3075	1.2727	0.1	5397.6
6236	3.3075	1.4545	0.1	5380.2
6237	3.3075	1.6364	0.1	5364.4
6238	3.3075	1.8182	0.1	5350.5
6239	3.3075	2.	0.1	5338.5
6240	3.3075	2.1818	0.1	5328.4
6241	3.3075	2.3636	0.1	5320.3
6242	3.3075	2.5455	0.1	5314.2
6243	3.3075	2.7273	0.1	5310.2
6244	3.3075	2.9091	0.1	5308.2
6245	3.3075	3.0909	0.1	5308.2
6246	3.3075	3.2727	0.1	5310.2
6247	3.3075	3.4545	0.1	5314.2
6248	3.3075	3.6364	0.1	5320.3
6249	3.3075	3.8182	0.1	5328.4
6250	3.3075	4.	0.1	5338.5
6251	3.3075	4.1818	0.1	5350.5
6252	3.3075	4.3636	0.1	5364.4
6253	3.3075	4.5455	0.1	5380.2
6254	3.3075	4.7273	0.1	5397.6
6255	3.3075	4.9091	0.1	5416.6
6256	3.3075	5.0909	0.1	5436.9
6257	3.3075	5.2727	0.1	5458.4
6258	3.3075	5.4545	0.1	5480.8
6259	3.3075	5.6364	0.1	5503.9
6260	3.3075	5.8182	0.1	5529.9
6261	3.4913	0.18182	0.1	5462.3
6262	3.4913	0.36364	0.1	5438.3
6263	3.4913	0.54545	0.1	5416.6
6264	3.4913	0.72727	0.1	5395.4
6265	3.4913	0.90909	0.1	5375.1
6266	3.4913	1.0909	0.1	5355.7
6267	3.4913	1.2727	0.1	5337.5
6268	3.4913	1.4545	0.1	5320.7
6269	3.4913	1.6364	0.1	5305.4
6270	3.4913	1.8182	0.1	5291.7
6271	3.4913	2.	0.1	5279.9
6272	3.4913	2.1818	0.1	5269.9
6273	3.4913	2.3636	0.1	5261.9
6274	3.4913	2.5455	0.1	5255.8
6275	3.4913	2.7273	0.1	5251.8
6276	3.4913	2.9091	0.1	5249.7
6277	3.4913	3.0909	0.1	5249.7
6278	3.4913	3.2727	0.1	5251.8
6279	3.4913	3.4545	0.1	5255.8
6280	3.4913	3.6364	0.1	5261.9
6281	3.4913	3.8182	0.1	5269.9
6282	3.4913	4.	0.1	5279.9
6283	3.4913	4.1818	0.1	5291.7
6284	3.4913	4.3636	0.1	5305.4
6285	3.4913	4.5455	0.1	5320.7
6286	3.4913	4.7273	0.1	5337.5
6287	3.4913	4.9091	0.1	5355.7
6288	3.4913	5.0909	0.1	5375.1
6289	3.4913	5.2727	0.1	5395.4
6290	3.4913	5.4545	0.1	5416.6
6291	3.4913	5.6364	0.1	5438.3
6292	3.4913	5.8182	0.1	5462.3
6293	3.675	0.18182	0.1	5394.9
6294	3.675	0.36364	0.1	5372.8
6295	3.675	0.54545	0.1	5352.4
6296	3.675	0.72727	0.1	5332.5
6297	3.675	0.90909	0.1	5313.3
6298	3.675	1.0909	0.1	5294.9
6299	3.675	1.2727	0.1	5277.6
6300	3.675	1.4545	0.1	5261.5
6301	3.675	1.6364	0.1	5246.8
6302	3.675	1.8182	0.1	5233.6
6303	3.675	2.	0.1	5222.1
6304	3.675	2.1818	0.1	5212.4
6305	3.675	2.3636	0.1	5204.6
6306	3.675	2.5455	0.1	5198.6
6307	3.675	2.7273	0.1	5194.6
6308	3.675	2.9091	0.1	5192.6
6309	3.675	3.0909	0.1	5192.6
6310	3.675	3.2727	0.1	5194.6
6311	3.675	3.4545	0.1	5198.6
6312	3.675	3.6364	0.1	5204.6
6313	3.675	3.8182	0.1	5212.4
6314	3.675	4.	0.1	5222.1
6315	3.675	4.1818	0.1	5233.6
6316	3.675	4.3636	0.1	5246.8
6317	3.675	4.5455	0.1	5261.5
6318	3.675	4.7273	0.1	5277.6
6319	3.675	4.9091	0.1	5294.9
6320	3.675	5.0909	0.1	5313.3
6321	3.675	5.2727	0.1	5332.5
6322	3.675	5.4545	0.1	5352.4
6323	3.675	5.6364	0.1	5372.8
6324	3.675	5.8182	0.1	5394.9
6325	3.8588	0.18182	0.1	5327.9
6326	3.8588	0.36364	0.1	5307.5
6327	3.8588	0.54545	0.1	5288.4
6328	3.8588	0.72727	0.1	5269.7
6329	3.8588	0.90909	0.1	5251.6
6330	3.8588	1.0909	0.1	5234.3
6331	3.8588	1.2727	0.1	5217.9
6332	3.8588	1.4545	0.1	5202.6
6333	3.8588	1.6364	0.1	5188.6
6334	3.8588	1.8182	0.1	5176.
6335	3.8588	2.	0.1	5165.
6336	3.8588	2.1818	0.1	5155.7
6337	3.8588	2.3636	0.1	5148.1
6338	3.8588	2.5455	0.1	5142.4
6339	3.8588	2.7273	0.1	5138.5
6340	3.8588	2.9091	0.1	5136.6
6341	3.8588	3.0909	0.1	5136.6
6342	3.8588	3.2727	0.1	5138.5
6343	3.8588	3.4545	0.1	5142.4
6344	3.8588	3.6364	0.1	5148.1
6345	3.8588	3.8182	0.1	5155.7
6346	3.8588	4.	0.1	5165.
6347	3.8588	4.1818	0.1	5176.
6348	3.8588	4.3636	0.1	5188.6
6349	3.8588	4.5455	0.1	5202.6
6350	3.8588	4.7273	0.1	5217.9
6351	3.8588	4.9091	0.1	5234.3
6352	3.8588	5.0909	0.1	5251.6
6353	3.8588	5.2727	0.1	5269.7
6354	3.8588	5.4545	0.1	5288.4
6355	3.8588	5.6364	0.1	5307.5
6356	3.8588	5.8182	0.1	5327.9
6357	4.0425	0.18182	0.1	5261.4
6358	4.0425	0.36364	0.1	5242.5
6359	4.0425	0.54545	0.1	5224.7
6360	4.0425	0.72727	0.1	5207.2
6361	4.0425	0.90909	0.1	5190.3
6362	4.0425	1.0909	0.1	5174.
6363	4.0425	1.2727	0.1	5158.5
6364	4.0425	1.4545	0.1	5144.1
6365	4.0425	1.6364	0.1	5130.8
6366	4.0425	1.8182	0.1	5118.9
6367	4.0425	2.	0.1	5108.4
6368	4.0425	2.1818	0.1	5099.6
6369	4.0425	2.3636	0.1	5092.3
6370	4.0425	2.5455	0.1	5086.8
6371	4.0425	2.7273	0.1	5083.1
6372	4.0425	2.9091	0.1	5081.3
6373	4.0425	3.0909	0.1	5081.3
6374	4.0425	3.2727	0.1	5083.1
6375	4.0425	3.4545	0.1	5086.8
6376	4.0425	3.6364	0.1	5092.3
6377	4.0425	3.8182	0.1	5099.6
6378	4.0425	4.	0.1	5108.4
6379	4.0425	4.1818	0.1	5118.9
6380	4.0425	4.3636	0.1	5130.8
6381	4.0425	4.5455	0.1	5144.1
6382	4.0425	4.7273	0.1	5158.5
6383	4.0425	4.9091	0.1	5174.
6384	4.0425	5.0909	0.1	5190.3
6385	4.0425	5.2727	0.1	5207.2
6386	4.0425	5.4545	0.1	5224.7
6387	4.0425	5.6364	0.1	5242.5
6388	4.0425	5.8182	0.1	5261.4
6389	4.2263	0.18182	0.1	5195.5
6390	4.2263	0.36364	0.1	5178.
6391	4.2263	0.54545	0.1	5161.4
6392	4.2263	0.72727	0.1	5145.1
6393	4.2263	0.90909	0.1	5129.2
6394	4.2263	1.0909	0.1	5113.9
6395	4.2263	1.2727	0.1	5099.4
6396	4.2263	1.4545	0.1	5085.9
6397	4.2263	1.6364	0.1	5073.4
6398	4.2263	1.8182	0.1	5062.2
6399	4.2263	2.	0.1	5052.3
6400	4.2263	2.1818	0.1	5043.9
6401	4.2263	2.3636	0.1	5037.
6402	4.2263	2.5455	0.1	5031.8
6403	4.2263	2.7273	0.1	5028.3
6404	4.2263	2.9091	0.1	5026.6
6405	4.2263	3.0909	0.1	5026.6
6406	4.2263	3.2727	0.1	5028.3
6407	4.2263	3.4545	0.1	5031.8
6408	4.2263	3.6364	0.1	5037.
6409	4.2263	3.8182	0.1	5043.9
6410	4.2263	4.	0.1	5052.3
6411	4.2263	4.1818	0.1	5062.2
6412	4.2263	4.3636	0.1	5073.4
6413	4.2263	4.5455	0.1	5085.9
6414	4.2263	4.7273	0.1	5099.4
6415	4.2263	4.9091	0.1	5113.9
6416	4.2263	5.0909	0.1	5129.2
6417	4.2263	5.2727	0.1	5145.1
6418	4.2263	5.4545	0.1	5161.4
6419	4.2263	5.6364	0.1	5178.
6420	4.2263	5.8182	0.1	5195.5
6421	4.41	0.18182	0.1	5130.2
6422	4.41	0.36364	0.1	5114.
6423	4.41	0.54545	0.1	5098.6
6424	4.41	0.72727	0.1	5083.3
6425	4.41	0.90909	0.1	5068.5
6426	4.41	1.0909	0.1	5054.2
6427	4.41	1.2727	0.1	5040.7
6428	4.41	1.4545	0.1	5028.
6429	4.41	1.6364	0.1	5016.3
6430	4.41	1.8182	0.1	5005.7
6431	4.41	2.	0.1	4996.5
6432	4.41	2.1818	0.1	4988.6
6433	4.41	2.3636	0.1	4982.1
6434	4.41	2.5455	0.1	4977.2
6435	4.41	2.7273	0.1	4973.9
6436	4.41	2.9091	0.1	4972.3
6437	4.41	3.0909	0.1	4972.3
6438	4.41	3.2727	0.1	4973.9
6439	4.41	3.4545	0.1	4977.2
6440	4.41	3.6364	0.1	4982.1
6441	4.41	3.8182	0.1	4988.6
6442	4.41	4.	0.1	4996.5
6443	4.41	4.1818	0.1	5005.7
6444	4.41	4.3636	0.1	5016.3
6445	4.41	4.5455	0.1	5028.
6446	4.41	4.7273	0.1	5040.7
6447	4.41	4.9091	0.1	5054.2
6448	4.41	5.0909	0.1	5068.5
6449	4.41	5.2727	0.1	5083.3
6450	4.41	5.4545	0.1	5098.6
6451	4.41	5.6364	0.1	5114.
6452	4.41	5.8182	0.1	5130.2
6453	4.5938	0.18182	0.1	5065.6
6454	4.5938	0.36364	0.1	5050.6
6455	4.5938	0.54545	0.1	5036.2
6456	4.5938	0.72727	0.1	5022.
6457	4.5938	0.90909	0.1	5008.2
6458	4.5938	1.0909	0.1	4994.9
6459	4.5938	1.2727	0.1	4982.2
6460	4.5938	1.4545	0.1	4970.4
6461	4.5938	1.6364	0.1	4959.5
6462	4.5938	1.8182	0.1	4949.6
6463	4.5938	2.	0.1	4940.9
6464	4.5938	2.1818	0.1	4933.5
6465	4.5938	2.3636	0.1	4927.5
6466	4.5938	2.5455	0.1	4922.9
6467	4.5938	2.7273	0.1	4919.8
6468	4.5938	2.9091	0.1	4918.2
6469	4.5938	3.0909	0.1	4918.2
6470	4.5938	3.2727	0.1	4919.8
6471	4.5938	3.4545	0.1	4922.9
6472	4.5938	3.6364	0.1	4927.5
6473	4.5938	3.8182	0.1	4933.5
6474	4.5938	4.	0.1	4940.9
6475	4.5938	4.1818	0.1	4949.6
6476	4.5938	4.3636	0.1	4959.5
6477	4.5938	4.5455	0.1	4970.4
6478	4.5938	4.7273	0.1	4982.2
6479	4.5938	4.9091	0.1	4994.9
6480	4.5938	5.0909	0.1	5008.2
6481	4.5938	5.2727	0.1	5022.
6482	4.5938	5.4545	0.1	5036.2
6483	4.5938	5.6364	0.1	5050.6
6484	4.5938	5.8182	0.1	5065.6
6485	4.7775	0.18182	0.1	5001.6
6486	4.7775	0.36364	0.1	4987.7
6487	4.7775	0.54545	0.1	4974.3
6488	4.7775	0.72727	0.1	4961.1
6489	4.7775	0.90909	0.1	4948.3
6490	4.7775	1.0909	0.1	4935.9
6491	4.7775	1.2727	0.1	4924.1
6492	4.7775	1.4545	0.1	4913.1
6493	4.7775	1.6364	0.1	4902.9
6494	4.7775	1.8182	0.1	4893.7
6495	4.7775	2.	0.1	4885.6
6496	4.7775	2.1818	0.1	4878.7
6497	4.7775	2.3636	0.1	4873.1
6498	4.7775	2.5455	0.1	4868.8
6499	4.7775	2.7273	0.1	4865.9
6500	4.7775	2.9091	0.1	4864.5
6501	4.7775	3.0909	0.1	4864.5
6502	4.7775	3.2727	0.1	4865.9
6503	4.7775	3.4545	0.1	4868.8
6504	4.7775	3.6364	0.1	4873.1
6505	4.7775	3.8182	0.1	4878.7
6506	4.7775	4.	0.1	4885.6
6507	4.7775	4.1818	0.1	4893.7
6508	4.7775	4.3636	0.1	4902.9
6509	4.7775	4.5455	0.1	4913.1
6510	4.7775	4.7273	0.1	4924.1
6511	4.7775	4.9091	0.1	4935.9
6512	4.7775	5.0909	0.1	4948.3
6513	4.7775	5.2727	0.1	4961.1
6514	4.7775	5.4545	0.1	4974.3
6515	4.7775	5.6364	0.1	4987.7
6516	4.7775	5.8182	0.1	5001.6
6517	4.9612	0.18182	0.1	4938.3
6518	4.9612	0.36364	0.1	4925.4
6519	4.9612	0.54545	0.1	4913.
6520	4.9612	0.72727	0.1	4900.7
6521	4.9612	0.90909	0.1	4888.7
6522	4.9612	1.0909	0.1	4877.2
6523	4.9612	1.2727	0.1	4866.3
6524	4.9612	1.4545	0.1	4856.
6525	4.9612	1.6364	0.1	4846.6
6526	4.9612	1.8182	0.1	4838.
6527	4.9612	2.	0.1	4830.5
6528	4.9612	2.1818	0.1	4824.1
6529	4.9612	2.3636	0.1	4818.8
6530	4.9612	2.5455	0.1	4814.9
6531	4.9612	2.7273	0.1	4812.2
6532	4.9612	2.9091	0.1	4810.8
6533	4.9612	3.0909	0.1	4810.8
6534	4.9612	3.2727	0.1	4812.2
6535	4.9612	3.4545	0.1	4814.9
6536	4.9612	3.6364	0.1	4818.8
6537	4.9612	3.8182	0.1	4824.1
6538	4.9612	4.	0.1	4830.5
6539	4.9612	4.1818	0.1	4838.
6540	4.9612	4.3636	0.1	4846.6
6541	4.9612	4.5455	0.1	4856.
6542	4.9612	4.7273	0.1	4866.3
6543	4.9612	4.9091	0.1	4877.2
6544	4.9612	5.0909	0.1	4888.7
6545	4.9612	5.2727	0.1	4900.7
6546	4.9612	5.4545	0.1	4913.
6547	4.9612	5.6364	0.1	4925.4
6548	4.9612	5.8182	0.1	4938.3
6549	5.145	0.18182	0.1	4875.6
6550	5.145	0.36364	0.1	4863.7
6551	5.145	0.54545	0.1	4852.1
6552	5.145	0.72727	0.1	4840.7
6553	5.145	0.90909	0.1	4829.6
6554	5.145	1.0909	0.1	4818.9
6555	5.145	1.2727	0.1	4808.7
6556	5.145	1.4545	0.1	4799.2
6557	5.145	1.6364	0.1	4790.4
6558	5.145	1.8182	0.1	4782.5
6559	5.145	2.	0.1	4775.5
6560	5.145	2.1818	0.1	4769.6
6561	5.145	2.3636	0.1	4764.7
6562	5.145	2.5455	0.1	4761.
6563	5.145	2.7273	0.1	4758.5
6564	5.145	2.9091	0.1	4757.3
6565	5.145	3.0909	0.1	4757.3
6566	5.145	3.2727	0.1	4758.5
6567	5.145	3.4545	0.1	4761.
6568	5.145	3.6364	0.1	4764.7
6569	5.145	3.8182	0.1	4769.6
6570	5.145	4.	0.1	4775.5
6571	5.145	4.1818	0.1	4782.5
6572	5.145	4.3636	0.1	4790.4
6573	5.145	4.5455	0.1	4799.2
6574	5.145	4.7273	0.1	4808.7
6575	5.145	4.9091	0.1	4818.9
6576	5.145	5.0909	0.1	4829.6
6577	5.145	5.2727	0.1	4840.7
6578	5.145	5.4545	0.1	4852.1
6579	5.145	5.6364	0.1	4863.7
6580	5.145	5.8182	0.1	4875.6
6581	5.3288	0.18182	0.1	4813.5
6582	5.3288	0.36364	0.1	4802.4
6583	5.3288	0.54545	0.1	4791.7
6584	5.3288	0.72727	0.1	4781.1
6585	5.3288	0.90909	0.1	4770.8
6586	5.3288	1.0909	0.1	4760.9
6587	5.3288	1.2727	0.1	4751.5
6588	5.3288	1.4545	0.1	4742.7
6589	5.3288	1.6364	0.1	4734.5
6590	5.3288	1.8182	0.1	4727.2
6591	5.3288	2.	0.1	4720.7
6592	5.3288	2.1818	0.1	4715.2
6593	5.3288	2.3636	0.1	4710.7
6594	5.3288	2.5455	0.1	4707.3
6595	5.3288	2.7273	0.1	4705.
6596	5.3288	2.9091	0.1	4703.8
6597	5.3288	3.0909	0.1	4703.8
6598	5.3288	3.2727	0.1	4705.
6599	5.3288	3.4545	0.1	4707.3
6600	5.3288	3.6364	0.1	4710.7
6601	5.3288	3.8182	0.1	4715.2
6602	5.3288	4.	0.1	4720.7
6603	5.3288	4.1818	0.1	4727.2
6604	5.3288	4.3636	0.1	4734.5
6605	5.3288	4.5455	0.1	4742.7
6606	5.3288	4.7273	0.1	4751.5
6607	5.3288	4.9091	0.1	4760.9
6608	5.3288	5.0909	0.1	4770.8
6609	5.3288	5.2727	0.1	4781.1
6610	5.3288	5.4545	0.1	4791.7
6611	5.3288	5.6364	0.1	4802.4
6612	5.3288	5.8182	0.1	4813.5
6613	5.5125	0.18182	0.1	4752.1
6614	5.5125	0.36364	0.1	4741.8
6615	5.5125	0.54545	0.1	4731.8
6616	5.5125	0.72727	0.1	4722.
6617	5.5125	0.90909	0.1	4712.4
6618	5.5125	1.0909	0.1	4703.2
6619	5.5125	1.2727	0.1	4694.5
6620	5.5125	1.4545	0.1	4686.4
6621	5.5125	1.6364	0.1	4678.8
6622	5.5125	1.8182	0.1	4672.
6623	5.5125	2.	0.1	4666.1
6624	5.5125	2.1818	0.1	4661.
6625	5.5125	2.3636	0.1	4656.8
6626	5.5125	2.5455	0.1	4653.6
6627	5.5125	2.7273	0.1	4651.5
6628	5.5125	2.9091	0.1	4650.4
6629	5.5125	3.0909	0.1	4650.4
6630	5.5125	3.2727	0.1	4651.5
6631	5.5125	3.4545	0.1	4653.6
6632	5.5125	3.6364	0.1	4656.8
6633	5.5125	3.8182	0.1	4661.
6634	5.5125	4.	0.1	4666.1
6635	5.5125	4.1818	0.1	4672.
6636	5.5125	4.3636	0.1	4678.8
6637	5.5125	4.5455	0.1	4686.4
6638	5.5125	4.7273	0.1	4694.5
6639	5.5125	4.9091	0.1	4703.2
6640	5.5125	5.0909	0.1	4712.4
6641	5.5125	5.2727	0.1	4722.
6642	5.5125	5.4545	0.1	4731.8
6643	5.5125	5.6364	0.1	4741.8
6644	5.5125	5.8182	0.1	4752.1
6645	5.6962	0.18182	0.1	4691.2
6646	5.6962	0.36364	0.1	4681.6
6647	5.6962	0.54545	0.1	4672.4
6648	5.6962	0.72727	0.1	4663.3
6649	5.6962	0.90909	0.1	4654.4
6650	5.6962	1.0909	0.1	4645.9
6651	5.6962	1.2727	0.1	4637.8
6652	5.6962	1.4545	0.1	4630.3
6653	5.6962	1.6364	0.1	4623.3
6654	5.6962	1.8182	0.1	4617.
6655	5.6962	2.	0.1	4611.5
6656	5.6962	2.1818	0.1	4606.8
6657	5.6962	2.3636	0.1	4602.9
6658	5.6962	2.5455	0.1	4600.
6659	5.6962	2.7273	0.1	4598.1
6660	5.6962	2.9091	0.1	4597.1
6661	5.6962	3.0909	0.1	4597.1
6662	5.6962	3.2727	0.1	4598.1
6663	5.6962	3.4545	0.1	4600.
6664	5.6962	3.6364	0.1	4602.9
6665	5.6962	3.8182	0.1	4606.8
6666	5.6962	4.	0.1	4611.5
6667	5.6962	4.1818	0.1	4617.
6668	5.6962	4.3636	0.1	4623.3
6669	5.6962	4.5455	0.1	4630.3
6670	5.6962	4.7273	0.1	4637.8
6671	5.6962	4.9091	0.1	4645.9
6672	5.6962	5.0909	0.1	4654.4
6673	5.6962	5.2727	0.1	4663.3
6674	5.6962	5.4545	0.1	4672.4
6675	5.6962	5.6364	0.1	4681.6
6676	5.6962	5.8182	0.1	4691.2
6677	5.88	0.18182	0.1	4630.9
6678	5.88	0.36364	0.1	4621.9
6679	5.88	0.54545	0.1	4613.4
6680	5.88	0.72727	0.1	4604.9
6681	5.88	0.90909	0.1	4596.7
6682	5.88	1.0909	0.1	4588.8
6683	5.88	1.2727	0.1	4581.4
6684	5.88	1.4545	0.1	4574.4
6685	5.88	1.6364	0.1	4568.
6686	5.88	1.8182	0.1	4562.2
6687	5.88	2.	0.1	4557.1
6688	5.88	2.1818	0.1	4552.7
6689	5.88	2.3636	0.1	4549.2
6690	5.88	2.5455	0.1	4546.5
6691	5.88	2.7273	0.1	4544.7
6692	5.88	2.9091	0.1	4543.7
6693	5.88	3.0909	0.1	4543.7
6694	5.88	3.2727	0.1	4544.7
6695	5.88	3.4545	0.1	4546.5
6696	5.88	3.6364	0.1	4549.2
6697	5.88	3.8182	0.1	4552.7
6698	5.88	4.	0.1	4557.1
6699	5.88	4.1818	0.1	4562.2
6700	5.88	4.3636	0.1	4568.
6701	5.88	4.5455	0.1	4574.4
6702	5.88	4.7273	0.1	4581.4
6703	5.88	4.9091	0.1	4588.8
6704	5.88	5.0909	0.1	4596.7
6705	5.88	5.2727	0.1	4604.9
6706	5.88	5.4545	0.1	4613.4
6707	5.88	5.6364	0.1	4621.9
6708	5.88	5.8182	0.1	4630.9
6709	6.0637	0.18182	0.1	4571.1
6710	6.0637	0.36364	0.1	4562.8
6711	6.0637	0.54545	0.1	4554.8
6712	6.0637	0.72727	0.1	4547.
6713	6.0637	0.90909	0.1	4539.4
6714	6.0637	1.0909	0.1	4532.1
6715	6.0637	1.2727	0.1	4525.2
6716	6.0637	1.4545	0.1	4518.7
6717	6.0637	1.6364	0.1	4512.8
6718	6.0637	1.8182	0.1	4507.4
6719	6.0637	2.	0.1	4502.7
6720	6.0637	2.1818	0.1	4498.7
6721	6.0637	2.3636	0.1	4495.5
6722	6.0637	2.5455	0.1	4493.
6723	6.0637	2.7273	0.1	4491.3
6724	6.0637	2.9091	0.1	4490.4
6725	6.0637	3.0909	0.1	4490.4
6726	6.0637	3.2727	0.1	4491.3
6727	6.0637	3.4545	0.1	4493.
6728	6.0637	3.6364	0.1	4495.5
6729	6.0637	3.8182	0.1	4498.7
6730	6.0637	4.	0.1	4502.7
6731	6.0637	4.1818	0.1	4507.4
6732	6.0637	4.3636	0.1	4512.8
6733	6.0637	4.5455	0.1	4518.7
6734	6.0637	4.7273	0.1	4525.2
6735	6.0637	4.9091	0.1	4532.1
6736	6.0637	5.0909	0.1	4539.4
6737	6.0637	5.2727	0.1	4547.
6738	6.0637	5.4545	0.1	4554.8
6739	6.0637	5.6364	0.1	4562.8
6740	6.0637	5.8182	0.1	4571.1
6741	6.2475	0.18182	0.1	4511.8
6742	6.2475	0.36364	0.1	4504.
6743	6.2475	0.54545	0.1	4496.6
6744	6.2475	0.72727	0.1	4489.4
6745	6.2475	0.90909	0.1	4482.4
6746	6.2475	1.0909	0.1	4475.6
6747	6.2475	1.2727	0.1	4469.2
6748	6.2475	1.4545	0.1	4463.3
6749	6.2475	1.6364	0.1	4457.8
6750	6.2475	1.8182	0.1	4452.9
6751	6.2475	2.	0.1	4448.5
6752	6.2475	2.1818	0.1	4444.8
6753	6.2475	2.3636	0.1	4441.8
6754	6.2475	2.5455	0.1	4439.5
6755	6.2475	2.7273	0.1	4438.
6756	6.2475	2.9091	0.1	4437.2
6757	6.2475	3.0909	0.1	4437.2
6758	6.2475	3.2727	0.1	4438.
6759	6.2475	3.4545	0.1	4439.5
6760	6.2475	3.6364	0.1	4441.8
6761	6.2475	3.8182	0.1	4444.8
6762	6.2475	4.	0.1	4448.5
6763	6.2475	4.1818	0.1	4452.9
6764	6.2475	4.3636	0.1	4457.8
6765	6.2475	4.5455	0.1	4463.3
6766	6.2475	4.7273	0.1	4469.2
6767	6.2475	4.9091	0.1	4475.6
6768	6.2475	5.0909	0.1	4482.4
6769	6.2475	5.2727	0.1	4489.4
6770	6.2475	5.4545	0.1	4496.6
6771	6.2475	5.6364	0.1	4504.
6772	6.2475	5.8182	0.1	4511.8
6773	6.4313	0.18182	0.1	4453.
6774	6.4313	0.36364	0.1	4445.7
6775	6.4313	0.54545	0.1	4438.9
6776	6.4313	0.72727	0.1	4432.1
6777	6.4313	0.90909	0.1	4425.7
6778	6.4313	1.0909	0.1	4419.4
6779	6.4313	1.2727	0.1	4413.5
6780	6.4313	1.4545	0.1	4408.
6781	6.4313	1.6364	0.1	4403.
6782	6.4313	1.8182	0.1	4398.4
6783	6.4313	2.	0.1	4394.4
6784	6.4313	2.1818	0.1	4391.
6785	6.4313	2.3636	0.1	4388.2
6786	6.4313	2.5455	0.1	4386.1
6787	6.4313	2.7273	0.1	4384.7
6788	6.4313	2.9091	0.1	4384.
6789	6.4313	3.0909	0.1	4384.
6790	6.4313	3.2727	0.1	4384.7
6791	6.4313	3.4545	0.1	4386.1
6792	6.4313	3.6364	0.1	4388.2
6793	6.4313	3.8182	0.1	4391.
6794	6.4313	4.	0.1	4394.4
6795	6.4313	4.1818	0.1	4398.4
6796	6.4313	4.3636	0.1	4403.
6797	6.4313	4.5455	0.1	4408.
6798	6.4313	4.7273	0.1	4413.5
6799	6.4313	4.9091	0.1	4419.4
6800	6.4313	5.0909	0.1	4425.7
6801	6.4313	5.2727	0.1	4432.1
6802	6.4313	5.4545	0.1	4438.9
6803	6.4313	5.6364	0.1	4445.7
6804	6.4313	5.8182	0.1	4453.
6805	6.615	0.18182	0.1	4394.6
6806	6.615	0.36364	0.1	4387.8
6807	6.615	0.54545	0.1	4381.5
6808	6.615	0.72727	0.1	4375.3
6809	6.615	0.90909	0.1	4369.2
6810	6.615	1.0909	0.1	4363.5
6811	6.615	1.2727	0.1	4358.
6812	6.615	1.4545	0.1	4353.
6813	6.615	1.6364	0.1	4348.3
6814	6.615	1.8182	0.1	4344.1
6815	6.615	2.	0.1	4340.4
6816	6.615	2.1818	0.1	4337.3
6817	6.615	2.3636	0.1	4334.7
6818	6.615	2.5455	0.1	4332.8
6819	6.615	2.7273	0.1	4331.5
6820	6.615	2.9091	0.1	4330.8
6821	6.615	3.0909	0.1	4330.8
6822	6.615	3.2727	0.1	4331.5
6823	6.615	3.4545	0.1	4332.8
6824	6.615	3.6364	0.1	4334.7
6825	6.615	3.8182	0.1	4337.3
6826	6.615	4.	0.1	4340.4
6827	6.615	4.1818	0.1	4344.1
6828	6.615	4.3636	0.1	4348.3
6829	6.615	4.5455	0.1	4353.
6830	6.615	4.7273	0.1	4358.
6831	6.615	4.9091	0.1	4363.5
6832	6.615	5.0909	0.1	4369.2
6833	6.615	5.2727	0.1	4375.3
6834	6.615	5.4545	0.1	4381.5
6835	6.615	5.6364	0.1	4387.8
6836	6.615	5.8182	0.1	4394.6
6837	6.7987	0.18182	0.1	4336.7
6838	6.7987	0.36364	0.1	4330.3
6839	6.7987	0.54545	0.1	4324.4
6840	6.7987	0.72727	0.1	4318.7
6841	6.7987	0.90909	0.1	4313.1
6842	6.7987	1.0909	0.1	4307.8
6843	6.7987	1.2727	0.1	4302.8
6844	6.7987	1.4545	0.1	4298.1
6845	6.7987	1.6364	0.1	4293.8
6846	6.7987	1.8182	0.1	4289.9
6847	6.7987	2.	0.1	4286.5
6848	6.7987	2.1818	0.1	4283.6
6849	6.7987	2.3636	0.1	4281.3
6850	6.7987	2.5455	0.1	4279.5
6851	6.7987	2.7273	0.1	4278.3
6852	6.7987	2.9091	0.1	4277.7
6853	6.7987	3.0909	0.1	4277.7
6854	6.7987	3.2727	0.1	4278.3
6855	6.7987	3.4545	0.1	4279.5
6856	6.7987	3.6364	0.1	4281.3
6857	6.7987	3.8182	0.1	4283.6
6858	6.7987	4.	0.1	4286.5
6859	6.7987	4.1818	0.1	4289.9
6860	6.7987	4.3636	0.1	4293.8
6861	6.7987	4.5455	0.1	4298.1
6862	6.7987	4.7273	0.1	4302.8
6863	6.7987	4.9091	0.1	4307.8
6864	6.7987	5.0909	0.1	4313.1
6865	6.7987	5.2727	0.1	4318.7
6866	6.7987	5.4545	0.1	4324.4
6867	6.7987	5.6364	0.1	4330.3
6868	6.7987	5.8182	0.1	4336.7
6869	6.9825	0.18182	0.1	4279.2
6870	6.9825	0.36364	0.1	4273.2
6871	6.9825	0.54545	0.1	4267.7
6872	6.9825	0.72727	0.1	4262.4
6873	6.9825	0.90909	0.1	4257.3
6874	6.9825	1.0909	0.1	4252.4
6875	6.9825	1.2727	0.1	4247.7
6876	6.9825	1.4545	0.1	4243.4
6877	6.9825	1.6364	0.1	4239.5
6878	6.9825	1.8182	0.1	4235.9
6879	6.9825	2.	0.1	4232.8
6880	6.9825	2.1818	0.1	4230.1
6881	6.9825	2.3636	0.1	4228.
6882	6.9825	2.5455	0.1	4226.3
6883	6.9825	2.7273	0.1	4225.2
6884	6.9825	2.9091	0.1	4224.6
6885	6.9825	3.0909	0.1	4224.6
6886	6.9825	3.2727	0.1	4225.2
6887	6.9825	3.4545	0.1	4226.3
6888	6.9825	3.6364	0.1	4228.
6889	6.9825	3.8182	0.1	4230.1
6890	6.9825	4.	0.1	4232.8
6891	6.9825	4.1818	0.1	4235.9
6892	6.9825	4.3636	0.1	4239.5
6893	6.9825	4.5455	0.1	4243.4
6894	6.9825	4.7273	0.1	4247.7
6895	6.9825	4.9091	0.1	4252.4
6896	6.9825	5.0909	0.1	4257.3
6897	6.9825	5.2727	0.1	4262.4
6898	6.9825	5.4545	0.1	4267.7
6899	6.9825	5.6364	0.1	4273.2
6900	6.9825	5.8182	0.1	4279.2
6901	7.1663	0.18182	0.1	4222.
6902	7.1663	0.36364	0.1	4216.4
6903	7.1663	0.54545	0.1	4211.4
6904	7.1663	0.72727	0.1	4206.5
6905	7.1663	0.90909	0.1	4201.7
6906	7.1663	1.0909	0.1	4197.2
6907	7.1663	1.2727	0.1	4192.9
6908	7.1663	1.4545	0.1	4188.9
6909	7.1663	1.6364	0.1	4185.3
6910	7.1663	1.8182	0.1	4182.
6911	7.1663	2.	0.1	4179.1
6912	7.1663	2.1818	0.1	4176.7
6913	7.1663	2.3636	0.1	4174.7
6914	7.1663	2.5455	0.1	4173.2
6915	7.1663	2.7273	0.1	4172.2
6916	7.1663	2.9091	0.1	4171.7
6917	7.1663	3.0909	0.1	4171.7
6918	7.1663	3.2727	0.1	4172.2
6919	7.1663	3.4545	0.1	4173.2
6920	7.1663	3.6364	0.1	4174.7
6921	7.1663	3.8182	0.1	4176.7
6922	7.1663	4.	0.1	4179.1
6923	7.1663	4.1818	0.1	4182.
6924	7.1663	4.3636	0.1	4185.3
6925	7.1663	4.5455	0.1	4188.9
6926	7.1663	4.7273	0.1	4192.9
6927	7.1663	4.9091	0.1	4197.2
6928	7.1663	5.0909	0.1	4201.7
6929	7.1663	5.2727	0.1	4206.5
6930	7.1663	5.4545	0.1	4211.4
6931	7.1663	5.6364	0.1	4216.4
6932	7.1663	5.8182	0.1	4222.
6933	7.35	0.18182	0.1	4165.3
6934	7.35	0.36364	0.1	4160.
6935	7.35	0.54545	0.1	4155.3
6936	7.35	0.72727	0.1	4150.8
6937	7.35	0.90909	0.1	4146.4
6938	7.35	1.0909	0.1	4142.2
6939	7.35	1.2727	0.1	4138.3
6940	7.35	1.4545	0.1	4134.7
6941	7.35	1.6364	0.1	4131.3
6942	7.35	1.8182	0.1	4128.3
6943	7.35	2.	0.1	4125.6
6944	7.35	2.1818	0.1	4123.4
6945	7.35	2.3636	0.1	4121.6
6946	7.35	2.5455	0.1	4120.2
6947	7.35	2.7273	0.1	4119.2
6948	7.35	2.9091	0.1	4118.8
6949	7.35	3.0909	0.1	4118.8
6950	7.35	3.2727	0.1	4119.2
6951	7.35	3.4545	0.1	4120.2
6952	7.35	3.6364	0.1	4121.6
6953	7.35	3.8182	0.1	4123.4
6954	7.35	4.	0.1	4125.6
6955	7.35	4.1818	0.1	4128.3
6956	7.35	4.3636	0.1	4131.3
6957	7.35	4.5455	0.1	4134.7
6958	7.35	4.7273	0.1	4138.3
6959	7.35	4.9091	0.1	4142.2
6960	7.35	5.0909	0.1	4146.4
6961	7.35	5.2727	0.1	4150.8
6962	7.35	5.4545	0.1	4155.3
6963	7.35	5.6364	0.1	4160.
6964	7.35	5.8182	0.1	4165.3
6965	7.5338	0.18182	0.1	4108.9
6966	7.5338	0.36364	0.1	4103.9
6967	7.5338	0.54545	0.1	4099.6
6968	7.5338	0.72727	0.1	4095.4
6969	7.5338	0.90909	0.1	4091.4
6970	7.5338	1.0909	0.1	4087.5
6971	7.5338	1.2727	0.1	4083.9
6972	7.5338	1.4545	0.1	4080.6
6973	7.5338	1.6364	0.1	4077.5
6974	7.5338	1.8182	0.1	4074.7
6975	7.5338	2.	0.1	4072.3
6976	7.5338	2.1818	0.1	4070.2
6977	7.5338	2.3636	0.1	4068.5
6978	7.5338	2.5455	0.1	4067.3
6979	7.5338	2.7273	0.1	4066.4
6980	7.5338	2.9091	0.1	4066.
6981	7.5338	3.0909	0.1	4066.
6982	7.5338	3.2727	0.1	4066.4
6983	7.5338	3.4545	0.1	4067.3
6984	7.5338	3.6364	0.1	4068.5
6985	7.5338	3.8182	0.1	4070.2
6986	7.5338	4.	0.1	4072.3
6987	7.5338	4.1818	0.1	4074.7
6988	7.5338	4.3636	0.1	4077.5
6989	7.5338	4.5455	0.1	4080.6
6990	7.5338	4.7273	0.1	4083.9
6991	7.5338	4.9091	0.1	4087.5
6992	7.5338	5.0909	0.1	4091.4
6993	7.5338	5.2727	0.1	4095.4
6994	7.5338	5.4545	0.1	4099.6
6995	7.5338	5.6364	0.1	4103.9
6996	7.5338	5.8182	0.1	4108.9
6997	7.7175	0.18182	0.1	4052.8
6998	7.7175	0.36364	0.1	4048.1
6999	7.7175	0.54545	0.1	4044.1
7000	7.7175	0.72727	0.1	4040.3
7001	7.7175	0.90909	0.1	4036.6
7002	7.7175	1.0909	0.1	4033.
7003	7.7175	1.2727	0.1	4029.7
7004	7.7175	1.4545	0.1	4026.6
7005	7.7175	1.6364	0.1	4023.8
7006	7.7175	1.8182	0.1	4021.3
7007	7.7175	2.	0.1	4019.
7008	7.7175	2.1818	0.1	4017.2
7009	7.7175	2.3636	0.1	4015.6
7010	7.7175	2.5455	0.1	4014.4
7011	7.7175	2.7273	0.1	4013.7
7012	7.7175	2.9091	0.1	4013.3
7013	7.7175	3.0909	0.1	4013.3
7014	7.7175	3.2727	0.1	4013.7
7015	7.7175	3.4545	0.1	4014.4
7016	7.7175	3.6364	0.1	4015.6
7017	7.7175	3.8182	0.1	4017.2
7018	7.7175	4.	0.1	4019.
7019	7.7175	4.1818	0.1	4021.3
7020	7.7175	4.3636	0.1	4023.8
7021	7.7175	4.5455	0.1	4026.6
7022	7.7175	4.7273	0.1	4029.7
7023	7.7175	4.9091	0.1	4033.
7024	7.7175	5.0909	0.1	4036.6
7025	7.7175	5.2727	0.1	4040.3
7026	7.7175	5.4545	0.1	4044.1
7027	7.7175	5.6364	0.1	4048.1
7028	7.7175	5.8182	0.1	4052.8
7029	7.9012	0.18182	0.1	3997.
7030	7.9012	0.36364	0.1	3992.6
7031	7.9012	0.54545	0.1	3988.9
7032	7.9012	0.72727	0.1	3985.4
7033	7.9012	0.90909	0.1	3982.
7034	7.9012	1.0909	0.1	3978.8
7035	7.9012	1.2727	0.1	3975.7
7036	7.9012	1.4545	0.1	3972.9
7037	7.9012	1.6364	0.1	3970.3
7038	7.9012	1.8182	0.1	3968.
7039	7.9012	2.	0.1	3966.
7040	7.9012	2.1818	0.1	3964.2
7041	7.9012	2.3636	0.1	3962.8
7042	7.9012	2.5455	0.1	3961.8
7043	7.9012	2.7273	0.1	3961.
7044	7.9012	2.9091	0.1	3960.7
7045	7.9012	3.0909	0.1	3960.7
7046	7.9012	3.2727	0.1	3961.
7047	7.9012	3.4545	0.1	3961.8
7048	7.9012	3.6364	0.1	3962.8
7049	7.9012	3.8182	0.1	3964.2
7050	7.9012	4.	0.1	3966.
7051	7.9012	4.1818	0.1	3968.
7052	7.9012	4.3636	0.1	3970.3
7053	7.9012	4.5455	0.1	3972.9
7054	7.9012	4.7273	0.1	3975.7
7055	7.9012	4.9091	0.1	3978.8
7056	7.9012	5.0909	0.1	3982.
7057	7.9012	5.2727	0.1	3985.4
7058	7.9012	5.4545	0.1	3988.9
7059	7.9012	5.6364	0.1	3992.6
7060	7.9012	5.8182	0.1	3997.
7061	8.085	0.18182	0.1	3941.5
7062	8.085	0.36364	0.1	3937.4
7063	8.085	0.54545	0.1	3934.
7064	8.085	0.72727	0.1	3930.7
7065	8.085	0.90909	0.1	3927.6
7066	8.085	1.0909	0.1	3924.7
7067	8.085	1.2727	0.1	3921.9
7068	8.085	1.4545	0.1	3919.4
7069	8.085	1.6364	0.1	3917.
7070	8.085	1.8182	0.1	3914.9
7071	8.085	2.	0.1	3913.
7072	8.085	2.1818	0.1	3911.5
7073	8.085	2.3636	0.1	3910.2
7074	8.085	2.5455	0.1	3909.2
7075	8.085	2.7273	0.1	3908.5
7076	8.085	2.9091	0.1	3908.2
7077	8.085	3.0909	0.1	3908.2
7078	8.085	3.2727	0.1	3908.5
7079	8.085	3.4545	0.1	3909.2
7080	8.085	3.6364	0.1	3910.2
7081	8.085	3.8182	0.1	3911.5
7082	8.085	4.	0.1	3913.
7083	8.085	4.1818	0.1	3914.9
7084	8.085	4.3636	0.1	3917.
7085	8.085	4.5455	0.1	3919.4
7086	8.085	4.7273	0.1	3921.9
7087	8.085	4.9091	0.1	3924.7
7088	8.085	5.0909	0.1	3927.6
7089	8.085	5.2727	0.1	3930.7
7090	8.085	5.4545	0.1	3934.
7091	8.085	5.6364	0.1	3937.4
7092	8.085	5.8182	0.1	3941.5
7093	8.2688	0.18182	0.1	3886.3
7094	8.2688	0.36364	0.1	3882.4
7095	8.2688	0.54545	0.1	3879.3
7096	8.2688	0.72727	0.1	3876.3
7097	8.2688	0.90909	0.1	3873.5
7098	8.2688	1.0909	0.1	3870.8
7099	8.2688	1.2727	0.1	3868.3
7100	8.2688	1.4545	0.1	3866.
7101	8.2688	1.6364	0.1	3863.9
7102	8.2688	1.8182	0.1	3861.9
7103	8.2688	2.	0.1	3860.3
7104	8.2688	2.1818	0.1	3858.8
7105	8.2688	2.3636	0.1	3857.7
7106	8.2688	2.5455	0.1	3856.8
7107	8.2688	2.7273	0.1	3856.2
7108	8.2688	2.9091	0.1	3855.9
7109	8.2688	3.0909	0.1	3855.9
7110	8.2688	3.2727	0.1	3856.2
7111	8.2688	3.4545	0.1	3856.8
7112	8.2688	3.6364	0.1	3857.7
7113	8.2688	3.8182	0.1	3858.8
7114	8.2688	4.	0.1	3860.3
7115	8.2688	4.1818	0.1	3861.9
7116	8.2688	4.3636	0.1	3863.9
7117	8.2688	4.5455	0.1	3866.
7118	8.2688	4.7273	0.1	3868.3
7119	8.2688	4.9091	0.1	3870.8
7120	8.2688	5.0909	0.1	3873.5
7121	8.2688	5.2727	0.1	3876.3
7122	8.2688	5.4545	0.1	3879.3
7123	8.2688	5.6364	0.1	3882.4
7124	8.2688	5.8182	0.1	3886.3
7125	8.4525	0.18182	0.1	3831.3
7126	8.4525	0.36364	0.1	3827.6
7127	8.4525	0.54545	0.1	3824.8
7128	8.4525	0.72727	0.1	3822.2
7129	8.4525	0.90909	0.1	3819.6
7130	8.4525	1.0909	0.1	3817.2
7131	8.4525	1.2727	0.1	3814.9
7132	8.4525	1.4545	0.1	3812.8
7133	8.4525	1.6364	0.1	3810.9
7134	8.4525	1.8182	0.1	3809.2
7135	8.4525	2.	0.1	3807.7
7136	8.4525	2.1818	0.1	3806.4
7137	8.4525	2.3636	0.1	3805.3
7138	8.4525	2.5455	0.1	3804.5
7139	8.4525	2.7273	0.1	3804.
7140	8.4525	2.9091	0.1	3803.7
7141	8.4525	3.0909	0.1	3803.7
7142	8.4525	3.2727	0.1	3804.
7143	8.4525	3.4545	0.1	3804.5
7144	8.4525	3.6364	0.1	3805.3
7145	8.4525	3.8182	0.1	3806.4
7146	8.4525	4.	0.1	3807.7
7147	8.4525	4.1818	0.1	3809.2
7148	8.4525	4.3636	0.1	3810.9
7149	8.4525	4.5455	0.1	3812.8
7150	8.4525	4.7273	0.1	3814.9
7151	8.4525	4.9091	0.1	3817.2
7152	8.4525	5.0909	0.1	3819.6
7153	8.4525	5.2727	0.1	3822.2
7154	8.4525	5.4545	0.1	3824.8
7155	8.4525	5.6364	0.1	3827.6
7156	8.4525	5.8182	0.1	3831.3
7157	8.6362	0.18182	0.1	3776.5
7158	8.6362	0.36364	0.1	3773.1
7159	8.6362	0.54545	0.1	3770.6
7160	8.6362	0.72727	0.1	3768.2
7161	8.6362	0.90909	0.1	3765.9
7162	8.6362	1.0909	0.1	3763.7
7163	8.6362	1.2727	0.1	3761.7
7164	8.6362	1.4545	0.1	3759.9
7165	8.6362	1.6364	0.1	3758.1
7166	8.6362	1.8182	0.1	3756.6
7167	8.6362	2.	0.1	3755.2
7168	8.6362	2.1818	0.1	3754.1
7169	8.6362	2.3636	0.1	3753.1
7170	8.6362	2.5455	0.1	3752.4
7171	8.6362	2.7273	0.1	3751.9
7172	8.6362	2.9091	0.1	3751.7
7173	8.6362	3.0909	0.1	3751.7
7174	8.6362	3.2727	0.1	3751.9
7175	8.6362	3.4545	0.1	3752.4
7176	8.6362	3.6364	0.1	3753.1
7177	8.6362	3.8182	0.1	3754.1
7178	8.6362	4.	0.1	3755.2
7179	8.6362	4.1818	0.1	3756.6
7180	8.6362	4.3636	0.1	3758.1
7181	8.6362	4.5455	0.1	3759.9
7182	8.6362	4.7273	0.1	3761.7
7183	8.6362	4.9091	0.1	3763.7
7184	8.6362	5.0909	0.1	3765.9
7185	8.6362	5.2727	0.1	3768.2
7186	8.6362	5.4545	0.1	3770.6
7187	8.6362	5.6364	0.1	3773.1
7188	8.6362	5.8182	0.1	3776.5
7189	8.82	0.18182	0.1	3721.9
7190	8.82	0.36364	0.1	3718.8
7191	8.82	0.54545	0.1	3716.5
7192	8.82	0.72727	0.1	3714.4
7193	8.82	0.90909	0.1	3712.4
7194	8.82	1.0909	0.1	3710.5
7195	8.82	1.2727	0.1	3708.7
7196	8.82	1.4545	0.1	3707.1
7197	8.82	1.6364	0.1	3705.6
7198	8.82	1.8182	0.1	3704.2
7199	8.82	2.	0.1	3703.
7200	8.82	2.1818	0.1	3702.
7201	8.82	2.3636	0.1	3701.2
7202	8.82	2.5455	0.1	3700.5
7203	8.82	2.7273	0.1	3700.1
7204	8.82	2.9091	0.1	3699.9
7205	8.82	3.0909	0.1	3699.9
7206	8.82	3.2727	0.1	3700.1
7207	8.82	3.4545	0.1	3700.5
7208	8.82	3.6364	0.1	3701.2
7209	8.82	3.8182	0.1	3702.
7210	8.82	4.	0.1	3703.
7211	8.82	4.1818	0.1	3704.2
7212	8.82	4.3636	0.1	3705.6
7213	8.82	4.5455	0.1	3707.1
7214	8.82	4.7273	0.1	3708.7
7215	8.82	4.9091	0.1	3710.5
7216	8.82	5.0909	0.1	3712.4
7217	8.82	5.2727	0.1	3714.4
7218	8.82	5.4545	0.1	3716.5
7219	8.82	5.6364	0.1	3718.8
7220	8.82	5.8182	0.1	3721.9
7221	9.0037	0.18182	0.1	3667.5
7222	9.0037	0.36364	0.1	3664.6
7223	9.0037	0.54545	0.1	3662.6
7224	9.0037	0.72727	0.1	3660.8
7225	9.0037	0.90909	0.1	3659.
7226	9.0037	1.0909	0.1	3657.4
7227	9.0037	1.2727	0.1	3655.9
7228	9.0037	1.4545	0.1	3654.5
7229	9.0037	1.6364	0.1	3653.2
7230	9.0037	1.8182	0.1	3652.
7231	9.0037	2.	0.1	3651.
7232	9.0037	2.1818	0.1	3650.1
7233	9.0037	2.3636	0.1	3649.4
7234	9.0037	2.5455	0.1	3648.8
7235	9.0037	2.7273	0.1	3648.5
7236	9.0037	2.9091	0.1	3648.3
7237	9.0037	3.0909	0.1	3648.3
7238	9.0037	3.2727	0.1	3648.5
7239	9.0037	3.4545	0.1	3648.8
7240	9.0037	3.6364	0.1	3649.4
7241	9.0037	3.8182	0.1	3650.1
7242	9.0037	4.	0.1	3651.
7243	9.0037	4.1818	0.1	3652.
7244	9.0037	4.3636	0.1	3653.2
7245	9.0037	4.5455	0.1	3654.5
7246	9.0037	4.7273	0.1	3655.9
7247	9.0037	4.9091	0.1	3657.4
7248	9.0037	5.0909	0.1	3659.
7249	9.0037	5.2727	0.1	3660.8
7250	9.0037	5.4545	0.1	3662.6
7251	9.0037	5.6364	0.1	3664.6
7252	9.0037	5.8182	0.1	3667.5
7253	9.1875	0.18182	0.1	3613.2
7254	9.1875	0.36364	0.1	3610.5
7255	9.1875	0.54545	0.1	3608.8
7256	9.1875	0.72727	0.1	3607.3
7257	9.1875	0.90909	0.1	3605.8
7258	9.1875	1.0909	0.1	3604.5
7259	9.1875	1.2727	0.1	3603.2
7260	9.1875	1.4545	0.1	3602.1
7261	9.1875	1.6364	0.1	3601.
7262	9.1875	1.8182	0.1	3600.
7263	9.1875	2.	0.1	3599.2
7264	9.1875	2.1818	0.1	3598.4
7265	9.1875	2.3636	0.1	3597.8
7266	9.1875	2.5455	0.1	3597.4
7267	9.1875	2.7273	0.1	3597.1
7268	9.1875	2.9091	0.1	3596.9
7269	9.1875	3.0909	0.1	3596.9
7270	9.1875	3.2727	0.1	3597.1
7271	9.1875	3.4545	0.1	3597.4
7272	9.1875	3.6364	0.1	3597.8
7273	9.1875	3.8182	0.1	3598.4
7274	9.1875	4.	0.1	3599.2
7275	9.1875	4.1818	0.1	3600.
7276	9.1875	4.3636	0.1	3601.
7277	9.1875	4.5455	0.1	3602.1
7278	9.1875	4.7273	0.1	3603.2
7279	9.1875	4.9091	0.1	3604.5
7280	9.1875	5.0909	0.1	3605.8
7281	9.1875	5.2727	0.1	3607.3
7282	9.1875	5.4545	0.1	3608.8
7283	9.1875	5.6364	0.1	3610.5
7284	9.1875	5.8182	0.1	3613.2
7285	9.3713	0.18182	0.1	3558.9
7286	9.3713	0.36364	0.1	3556.6
7287	9.3713	0.54545	0.1	3555.2
7288	9.3713	0.72727	0.1	3553.9
7289	9.3713	0.90909	0.1	3552.8
7290	9.3713	1.0909	0.1	3551.7
7291	9.3713	1.2727	0.1	3550.8
7292	9.3713	1.4545	0.1	3549.9
7293	9.3713	1.6364	0.1	3549.
7294	9.3713	1.8182	0.1	3548.3
7295	9.3713	2.	0.1	3547.6
7296	9.3713	2.1818	0.1	3547.
7297	9.3713	2.3636	0.1	3546.6
7298	9.3713	2.5455	0.1	3546.2
7299	9.3713	2.7273	0.1	3545.9
7300	9.3713	2.9091	0.1	3545.8
7301	9.3713	3.0909	0.1	3545.8
7302	9.3713	3.2727	0.1	3545.9
7303	9.3713	3.4545	0.1	3546.2
7304	9.3713	3.6364	0.1	3546.6
7305	9.3713	3.8182	0.1	3547.
7306	9.3713	4.	0.1	3547.6
7307	9.3713	4.1818	0.1	3548.3
7308	9.3713	4.3636	0.1	3549.
7309	9.3713	4.5455	0.1	3549.9
7310	9.3713	4.7273	0.1	3550.8
7311	9.3713	4.9091	0.1	3551.7
7312	9.3713	5.0909	0.1	3552.8
7313	9.3713	5.2727	0.1	3553.9
7314	9.3713	5.4545	0.1	3555.2
7315	9.3713	5.6364	0.1	3556.6
7316	9.3713	5.8182	0.1	3558.9
7317	9.555	0.18182	0.1	3504.7
7318	9.555	0.36364	0.1	3502.6
7319	9.555	0.54545	0.1	3501.5
7320	9.555	0.72727	0.1	3500.6
7321	9.555	0.90909	0.1	3499.8
7322	9.555	1.0909	0.1	3499.1
7323	9.555	1.2727	0.1	3498.5
7324	9.555	1.4545	0.1	3497.8
7325	9.555	1.6364	0.1	3497.3
7326	9.555	1.8182	0.1	3496.8
7327	9.555	2.	0.1	3496.3
7328	9.555	2.1818	0.1	3495.9
7329	9.555	2.3636	0.1	3495.6
7330	9.555	2.5455	0.1	3495.3
7331	9.555	2.7273	0.1	3495.1
7332	9.555	2.9091	0.1	3495.
7333	9.555	3.0909	0.1	3495.
7334	9.555	3.2727	0.1	3495.1
7335	9.555	3.4545	0.1	3495.3
7336	9.555	3.6364	0.1	3495.6
7337	9.555	3.8182	0.1	3495.9
7338	9.555	4.	0.1	3496.3
7339	9.555	4.1818	0.1	3496.8
7340	9.555	4.3636	0.1	3497.3
7341	9.555	4.5455	0.1	3497.8
7342	9.555	4.7273	0.1	3498.5
7343	9.555	4.9091	0.1	3499.1
7344	9.555	5.0909	0.1	3499.8
7345	9.555	5.2727	0.1	3500.6
7346	9.555	5.4545	0.1	3501.5
7347	9.555	5.6364	0.1	3502.6
7348	9.555	5.8182	0.1	3504.7
7349	9.7388	0.18182	0.1	3450.4
7350	9.7388	0.36364	0.1	3448.7
7351	9.7388	0.54545	0.1	3447.9
7352	9.7388	0.72727	0.1	3447.4
7353	9.7388	0.90909	0.1	3447.
7354	9.7388	1.0909	0.1	3446.6
7355	9.7388	1.2727	0.1	3446.3
7356	9.7388	1.4545	0.1	3446.
7357	9.7388	1.6364	0.1	3445.8
7358	9.7388	1.8182	0.1	3445.5
7359	9.7388	2.	0.1	3445.3
7360	9.7388	2.1818	0.1	3445.1
7361	9.7388	2.3636	0.1	3444.9
7362	9.7388	2.5455	0.1	3444.8
7363	9.7388	2.7273	0.1	3444.7
7364	9.7388	2.9091	0.1	3444.6
7365	9.7388	3.0909	0.1	3444.6
7366	9.7388	3.2727	0.1	3444.7
7367	9.7388	3.4545	0.1	3444.8
7368	9.7388	3.6364	0.1	3444.9
7369	9.7388	3.8182	0.1	3445.1
7370	9.7388	4.	0.1	3445.3
7371	9.7388	4.1818	0.1	3445.5
7372	9.7388	4.3636	0.1	3445.8
7373	9.7388	4.5455	0.1	3446.
7374	9.7388	4.7273	0.1	3446.3
7375	9.7388	4.9091	0.1	3446.6
7376	9.7388	5.0909	0.1	3447.
7377	9.7388	5.2727	0.1	3447.4
7378	9.7388	5.4545	0.1	3447.9
7379	9.7388	5.6364	0.1	3448.7
7380	9.7388	5.8182	0.1	3450.4
7381	9.9225	0.18182	0.1	3396.1
7382	9.9225	0.36364	0.1	3394.6
7383	9.9225	0.54545	0.1	3394.3
7384	9.9225	0.72727	0.1	3394.2
7385	9.9225	0.90909	0.1	3394.2
7386	9.9225	1.0909	0.1	3394.2
7387	9.9225	1.2727	0.1	3394.3
7388	9.9225	1.4545	0.1	3394.4
7389	9.9225	1.6364	0.1	3394.5
7390	9.9225	1.8182	0.1	3394.6
7391	9.9225	2.	0.1	3394.6
7392	9.9225	2.1818	0.1	3394.6
7393	9.9225	2.3636	0.1	3394.6
7394	9.9225	2.5455	0.1	3394.6
7395	9.9225	2.7273	0.1	3394.6
7396	9.9225	2.9091	0.1	3394.6
7397	9.9225	3.0909	0.1	3394.6
7398	9.9225	3.2727	0.1	3394.6
7399	9.9225	3.4545	0.1	3394.6
7400	9.9225	3.6364	0.1	3394.6
7401	9.9225	3.8182	0.1	3394.6
7402	9.9225	4.	0.1	3394.6
7403	9.9225	4.1818	0.1	3394.6
7404	9.9225	4.3636	0.1	3394.5
7405	9.9225	4.5455	0.1	3394.4
7406	9.9225	4.7273	0.1	3394.3
7407	9.9225	4.9091	0.1	3394.2
7408	9.9225	5.0909	0.1	3394.2
7409	9.9225	5.2727	0.1	3394.2
7410	9.9225	5.4545	0.1	3394.3
7411	9.9225	5.6364	0.1	3394.6
7412	9.9225	5.8182	0.1	3396.1
7413	10.106	0.18182	0.1	3341.4
7414	10.106	0.36364	0.1	3340.4
7415	10.106	0.54545	0.1	3340.5
7416	10.106	0.72727	0.1	3340.9
7417	10.106	0.90909	0.1	3341.3
7418	10.106	1.0909	0.1	3341.9
7419	10.106	1.2727	0.1	3342.4
7420	10.106	1.4545	0.1	3343.
7421	10.106	1.6364	0.1	3343.5
7422	10.106	1.8182	0.1	3343.9
7423	10.106	2.	0.1	3344.3
7424	10.106	2.1818	0.1	3344.6
7425	10.106	2.3636	0.1	3344.8
7426	10.106	2.5455	0.1	3345.
7427	10.106	2.7273	0.1	3345.1
7428	10.106	2.9091	0.1	3345.2
7429	10.106	3.0909	0.1	3345.2
7430	10.106	3.2727	0.1	3345.1
7431	10.106	3.4545	0.1	3345.
7432	10.106	3.6364	0.1	3344.8
7433	10.106	3.8182	0.1	3344.6
7434	10.106	4.	0.1	3344.3
7435	10.106	4.1818	0.1	3343.9
7436	10.106	4.3636	0.1	3343.5
7437	10.106	4.5455	0.1	3343.
7438	10.106	4.7273	0.1	3342.4
7439	10.106	4.9091	0.1	3341.9
7440	10.106	5.0909	0.1	3341.3
7441	10.106	5.2727	0.1	3340.9
7442	10.106	5.4545	0.1	3340.5
7443	10.106	5.6364	0.1	3340.4
7444	10.106	5.8182	0.1	3341.4
7445	10.29	0.18182	0.1	3286.4
7446	10.29	0.36364	0.1	3285.9
7447	10.29	0.54545	0.1	3286.5
7448	10.29	0.72727	0.1	3287.4
7449	10.29	0.90909	0.1	3288.5
7450	10.29	1.0909	0.1	3289.6
7451	10.29	1.2727	0.1	3290.7
7452	10.29	1.4545	0.1	3291.7
7453	10.29	1.6364	0.1	3292.7
7454	10.29	1.8182	0.1	3293.6
7455	10.29	2.	0.1	3294.4
7456	10.29	2.1818	0.1	3295.1
7457	10.29	2.3636	0.1	3295.6
7458	10.29	2.5455	0.1	3296.
7459	10.29	2.7273	0.1	3296.2
7460	10.29	2.9091	0.1	3296.3
7461	10.29	3.0909	0.1	3296.3
7462	10.29	3.2727	0.1	3296.2
7463	10.29	3.4545	0.1	3296.
7464	10.29	3.6364	0.1	3295.6
7465	10.29	3.8182	0.1	3295.1
7466	10.29	4.	0.1	3294.4
7467	10.29	4.1818	0.1	3293.6
7468	10.29	4.3636	0.1	3292.7
7469	10.29	4.5455	0.1	3291.7
7470	10.29	4.7273	0.1	3290.7
7471	10.29	4.9091	0.1	3289.6
7472	10.29	5.0909	0.1	3288.5
7473	10.29	5.2727	0.1	3287.4
7474	10.29	5.4545	0.1	3286.5
7475	10.29	5.6364	0.1	3285.9
7476	10.29	5.8182	0.1	3286.4
7477	10.474	0.18182	0.1	3230.9
7478	10.474	0.36364	0.1	3230.9
7479	10.474	0.54545	0.1	3232.2
7480	10.474	0.72727	0.1	3233.7
7481	10.474	0.90909	0.1	3235.4
7482	10.474	1.0909	0.1	3237.2
7483	10.474	1.2727	0.1	3239.
7484	10.474	1.4545	0.1	3240.7
7485	10.474	1.6364	0.1	3242.3
7486	10.474	1.8182	0.1	3243.8
7487	10.474	2.	0.1	3245.
7488	10.474	2.1818	0.1	3246.1
7489	10.474	2.3636	0.1	3246.9
7490	10.474	2.5455	0.1	3247.6
7491	10.474	2.7273	0.1	3248.
7492	10.474	2.9091	0.1	3248.2
7493	10.474	3.0909	0.1	3248.2
7494	10.474	3.2727	0.1	3248.
7495	10.474	3.4545	0.1	3247.6
7496	10.474	3.6364	0.1	3246.9
7497	10.474	3.8182	0.1	3246.1
7498	10.474	4.	0.1	3245.
7499	10.474	4.1818	0.1	3243.8
7500	10.474	4.3636	0.1	3242.3
7501	10.474	4.5455	0.1	3240.7
7502	10.474	4.7273	0.1	3239.
7503	10.474	4.9091	0.1	3237.2
7504	10.474	5.0909	0.1	3235.4
7505	10.474	5.2727	0.1	3233.7
7506	10.474	5.4545	0.1	3232.2
7507	10.474	5.6364	0.1	3230.9
7508	10.474	5.8182	0.1	3230.9
7509	10.658	0.18182	0.1	3174.7
7510	10.658	0.36364	0.1	3175.4
7511	10.658	0.54545	0.1	3177.3
7512	10.658	0.72727	0.1	3179.6
7513	10.658	0.90909	0.1	3182.1
7514	10.658	1.0909	0.1	3184.7
7515	10.658	1.2727	0.1	3187.3
7516	10.658	1.4545	0.1	3189.9
7517	10.658	1.6364	0.1	3192.2
7518	10.658	1.8182	0.1	3194.3
7519	10.658	2.	0.1	3196.2
7520	10.658	2.1818	0.1	3197.8
7521	10.658	2.3636	0.1	3199.1
7522	10.658	2.5455	0.1	3200.1
7523	10.658	2.7273	0.1	3200.7
7524	10.658	2.9091	0.1	3201.1
7525	10.658	3.0909	0.1	3201.1
7526	10.658	3.2727	0.1	3200.7
7527	10.658	3.4545	0.1	3200.1
7528	10.658	3.6364	0.1	3199.1
7529	10.658	3.8182	0.1	3197.8
7530	10.658	4.	0.1	3196.2
7531	10.658	4.1818	0.1	3194.3
7532	10.658	4.3636	0.1	3192.2
7533	10.658	4.5455	0.1	3189.9
7534	10.658	4.7273	0.1	3187.3
7535	10.658	4.9091	0.1	3184.7
7536	10.658	5.0909	0.1	3182.1
7537	10.658	5.2727	0.1	3179.6
7538	10.658	5.4545	0.1	3177.3
7539	10.658	5.6364	0.1	3175.4
7540	10.658	5.8182	0.1	3174.7
7541	10.841	0.18182	0.1	3117.6
7542	10.841	0.36364	0.1	3119.
7543	10.841	0.54545	0.1	3121.7
7544	10.841	0.72727	0.1	3124.9
7545	10.841	0.90909	0.1	3128.4
7546	10.841	1.0909	0.1	3132.1
7547	10.841	1.2727	0.1	3135.7
7548	10.841	1.4545	0.1	3139.2
7549	10.841	1.6364	0.1	3142.5
7550	10.841	1.8182	0.1	3145.5
7551	10.841	2.	0.1	3148.1
7552	10.841	2.1818	0.1	3150.4
7553	10.841	2.3636	0.1	3152.2
7554	10.841	2.5455	0.1	3153.6
7555	10.841	2.7273	0.1	3154.6
7556	10.841	2.9091	0.1	3155.
7557	10.841	3.0909	0.1	3155.
7558	10.841	3.2727	0.1	3154.6
7559	10.841	3.4545	0.1	3153.6
7560	10.841	3.6364	0.1	3152.2
7561	10.841	3.8182	0.1	3150.4
7562	10.841	4.	0.1	3148.1
7563	10.841	4.1818	0.1	3145.5
7564	10.841	4.3636	0.1	3142.5
7565	10.841	4.5455	0.1	3139.2
7566	10.841	4.7273	0.1	3135.7
7567	10.841	4.9091	0.1	3132.1
7568	10.841	5.0909	0.1	3128.4
7569	10.841	5.2727	0.1	3124.9
7570	10.841	5.4545	0.1	3121.7
7571	10.841	5.6364	0.1	3119.
7572	10.841	5.8182	0.1	3117.6
7573	11.025	0.18182	0.1	3059.1
7574	11.025	0.36364	0.1	3061.4
7575	11.025	0.54545	0.1	3065.2
7576	11.025	0.72727	0.1	3069.5
7577	11.025	0.90909	0.1	3074.2
7578	11.025	1.0909	0.1	3079.1
7579	11.025	1.2727	0.1	3083.9
7580	11.025	1.4545	0.1	3088.7
7581	11.025	1.6364	0.1	3093.1
7582	11.025	1.8182	0.1	3097.2
7583	11.025	2.	0.1	3100.9
7584	11.025	2.1818	0.1	3104.
7585	11.025	2.3636	0.1	3106.5
7586	11.025	2.5455	0.1	3108.5
7587	11.025	2.7273	0.1	3109.8
7588	11.025	2.9091	0.1	3110.4
7589	11.025	3.0909	0.1	3110.4
7590	11.025	3.2727	0.1	3109.8
7591	11.025	3.4545	0.1	3108.5
7592	11.025	3.6364	0.1	3106.5
7593	11.025	3.8182	0.1	3104.
7594	11.025	4.	0.1	3100.9
7595	11.025	4.1818	0.1	3097.2
7596	11.025	4.3636	0.1	3093.1
7597	11.025	4.5455	0.1	3088.7
7598	11.025	4.7273	0.1	3083.9
7599	11.025	4.9091	0.1	3079.1
7600	11.025	5.0909	0.1	3074.2
7601	11.025	5.2727	0.1	3069.5
7602	11.025	5.4545	0.1	3065.2
7603	11.025	5.6364	0.1	3061.4
7604	11.025	5.8182	0.1	3059.1
7605	11.209	0.18182	0.1	2999.1
7606	11.209	0.36364	0.1	3002.4
7607	11.209	0.54545	0.1	3007.4
7608	11.209	0.72727	0.1	3013.1
7609	11.209	0.90909	0.1	3019.2
7610	11.209	1.0909	0.1	3025.6
7611	11.209	1.2727	0.1	3032.
7612	11.209	1.4545	0.1	3038.3
7613	11.209	1.6364	0.1	3044.3
7614	11.209	1.8182	0.1	3049.8
7615	11.209	2.	0.1	3054.6
7616	11.209	2.1818	0.1	3058.9
7617	11.209	2.3636	0.1	3062.3
7618	11.209	2.5455	0.1	3064.9
7619	11.209	2.7273	0.1	3066.7
7620	11.209	2.9091	0.1	3067.6
7621	11.209	3.0909	0.1	3067.6
7622	11.209	3.2727	0.1	3066.7
7623	11.209	3.4545	0.1	3064.9
7624	11.209	3.6364	0.1	3062.3
7625	11.209	3.8182	0.1	3058.9
7626	11.209	4.	0.1	3054.6
7627	11.209	4.1818	0.1	3049.8
7628	11.209	4.3636	0.1	3044.3
7629	11.209	4.5455	0.1	3038.3
7630	11.209	4.7273	0.1	3032.
7631	11.209	4.9091	0.1	3025.6
7632	11.209	5.0909	0.1	3019.2
7633	11.209	5.2727	0.1	3013.1
7634	11.209	5.4545	0.1	3007.4
7635	11.209	5.6364	0.1	3002.4
7636	11.209	5.8182	0.1	2999.1
7637	11.392	0.18182	0.1	2936.9
7638	11.392	0.36364	0.1	2941.5
7639	11.392	0.54545	0.1	2947.9
7640	11.392	0.72727	0.1	2955.3
7641	11.392	0.90909	0.1	2963.2
7642	11.392	1.0909	0.1	2971.5
7643	11.392	1.2727	0.1	2979.9
7644	11.392	1.4545	0.1	2988.1
7645	11.392	1.6364	0.1	2995.9
7646	11.392	1.8182	0.1	3003.2
7647	11.392	2.	0.1	3009.7
7648	11.392	2.1818	0.1	3015.3
7649	11.392	2.3636	0.1	3019.9
7650	11.392	2.5455	0.1	3023.4
7651	11.392	2.7273	0.1	3025.8
7652	11.392	2.9091	0.1	3027.
7653	11.392	3.0909	0.1	3027.
7654	11.392	3.2727	0.1	3025.8
7655	11.392	3.4545	0.1	3023.4
7656	11.392	3.6364	0.1	3019.9
7657	11.392	3.8182	0.1	3015.3
7658	11.392	4.	0.1	3009.7
7659	11.392	4.1818	0.1	3003.2
7660	11.392	4.3636	0.1	2995.9
7661	11.392	4.5455	0.1	2988.1
7662	11.392	4.7273	0.1	2979.9
7663	11.392	4.9091	0.1	2971.5
7664	11.392	5.0909	0.1	2963.2
7665	11.392	5.2727	0.1	2955.3
7666	11.392	5.4545	0.1	2947.9
7667	11.392	5.6364	0.1	2941.5
7668	11.392	5.8182	0.1	2936.9
7669	11.576	0.18182	0.1	2872.1
7670	11.576	0.36364	0.1	2878.2
7671	11.576	0.54545	0.1	2886.3
7672	11.576	0.72727	0.1	2895.7
7673	11.576	0.90909	0.1	2905.8
7674	11.576	1.0909	0.1	2916.5
7675	11.576	1.2727	0.1	2927.3
7676	11.576	1.4545	0.1	2938.
7677	11.576	1.6364	0.1	2948.2
7678	11.576	1.8182	0.1	2957.7
7679	11.576	2.	0.1	2966.2
7680	11.576	2.1818	0.1	2973.7
7681	11.576	2.3636	0.1	2979.8
7682	11.576	2.5455	0.1	2984.5
7683	11.576	2.7273	0.1	2987.7
7684	11.576	2.9091	0.1	2989.3
7685	11.576	3.0909	0.1	2989.3
7686	11.576	3.2727	0.1	2987.7
7687	11.576	3.4545	0.1	2984.5
7688	11.576	3.6364	0.1	2979.8
7689	11.576	3.8182	0.1	2973.7
7690	11.576	4.	0.1	2966.2
7691	11.576	4.1818	0.1	2957.7
7692	11.576	4.3636	0.1	2948.2
7693	11.576	4.5455	0.1	2938.
7694	11.576	4.7273	0.1	2927.3
7695	11.576	4.9091	0.1	2916.5
7696	11.576	5.0909	0.1	2905.8
7697	11.576	5.2727	0.1	2895.7
7698	11.576	5.4545	0.1	2886.3
7699	11.576	5.6364	0.1	2878.2
7700	11.576	5.8182	0.1	2872.1
7701	11.76	0.18182	0.1	2803.8
7702	11.76	0.36364	0.1	2811.8
7703	11.76	0.54545	0.1	2822.
7704	11.76	0.72727	0.1	2833.8
7705	11.76	0.90909	0.1	2846.7
7706	11.76	1.0909	0.1	2860.3
7707	11.76	1.2727	0.1	2874.1
7708	11.76	1.4545	0.1	2887.9
7709	11.76	1.6364	0.1	2901.1
7710	11.76	1.8182	0.1	2913.5
7711	11.76	2.	0.1	2924.7
7712	11.76	2.1818	0.1	2934.5
7713	11.76	2.3636	0.1	2942.5
7714	11.76	2.5455	0.1	2948.7
7715	11.76	2.7273	0.1	2953.
7716	11.76	2.9091	0.1	2955.1
7717	11.76	3.0909	0.1	2955.1
7718	11.76	3.2727	0.1	2953.
7719	11.76	3.4545	0.1	2948.7
7720	11.76	3.6364	0.1	2942.5
7721	11.76	3.8182	0.1	2934.5
7722	11.76	4.	0.1	2924.7
7723	11.76	4.1818	0.1	2913.5
7724	11.76	4.3636	0.1	2901.1
7725	11.76	4.5455	0.1	2887.9
7726	11.76	4.7273	0.1	2874.1
7727	11.76	4.9091	0.1	2860.3
7728	11.76	5.0909	0.1	2846.7
7729	11.76	5.2727	0.1	2833.8
7730	11.76	5.4545	0.1	2822.
7731	11.76	5.6364	0.1	2811.8
7732	11.76	5.8182	0.1	2803.8
7733	11.944	0.18182	0.1	2731.3
7734	11.944	0.36364	0.1	2741.4
7735	11.944	0.54545	0.1	2754.1
7736	11.944	0.72727	0.1	2768.9
7737	11.944	0.90909	0.1	2785.1
7738	11.944	1.0909	0.1	2802.4
7739	11.944	1.2727	0.1	2820.1
7740	11.944	1.4545	0.1	2837.8
7741	11.944	1.6364	0.1	2854.9
7742	11.944	1.8182	0.1	2871.
7743	11.944	2.	0.1	2885.6
7744	11.944	2.1818	0.1	2898.3
7745	11.944	2.3636	0.1	2908.9
7746	11.944	2.5455	0.1	2917.1
7747	11.944	2.7273	0.1	2922.6
7748	11.944	2.9091	0.1	2925.5
7749	11.944	3.0909	0.1	2925.5
7750	11.944	3.2727	0.1	2922.6
7751	11.944	3.4545	0.1	2917.1
7752	11.944	3.6364	0.1	2908.9
7753	11.944	3.8182	0.1	2898.3
7754	11.944	4.	0.1	2885.6
7755	11.944	4.1818	0.1	2871.
7756	11.944	4.3636	0.1	2854.9
7757	11.944	4.5455	0.1	2837.8
7758	11.944	4.7273	0.1	2820.1
7759	11.944	4.9091	0.1	2802.4
7760	11.944	5.0909	0.1	2785.1
7761	11.944	5.2727	0.1	2768.9
7762	11.944	5.4545	0.1	2754.1
7763	11.944	5.6364	0.1	2741.4
7764	11.944	5.8182	0.1	2731.3
7765	12.127	0.18182	0.1	2653.4
7766	12.127	0.36364	0.1	2666.
7767	12.127	0.54545	0.1	2681.8
7768	12.127	0.72727	0.1	2700.2
7769	12.127	0.90909	0.1	2720.6
7770	12.127	1.0909	0.1	2742.5
7771	12.127	1.2727	0.1	2765.
7772	12.127	1.4545	0.1	2787.7
7773	12.127	1.6364	0.1	2809.7
7774	12.127	1.8182	0.1	2830.4
7775	12.127	2.	0.1	2849.4
7776	12.127	2.1818	0.1	2866.
7777	12.127	2.3636	0.1	2879.9
7778	12.127	2.5455	0.1	2890.6
7779	12.127	2.7273	0.1	2897.9
7780	12.127	2.9091	0.1	2901.6
7781	12.127	3.0909	0.1	2901.6
7782	12.127	3.2727	0.1	2897.9
7783	12.127	3.4545	0.1	2890.6
7784	12.127	3.6364	0.1	2879.9
7785	12.127	3.8182	0.1	2866.
7786	12.127	4.	0.1	2849.4
7787	12.127	4.1818	0.1	2830.4
7788	12.127	4.3636	0.1	2809.7
7789	12.127	4.5455	0.1	2787.7
7790	12.127	4.7273	0.1	2765.
7791	12.127	4.9091	0.1	2742.5
7792	12.127	5.0909	0.1	2720.6
7793	12.127	5.2727	0.1	2700.2
7794	12.127	5.4545	0.1	2681.8
7795	12.127	5.6364	0.1	2666.
7796	12.127	5.8182	0.1	2653.4
7797	12.311	0.18182	0.1	2568.9
7798	12.311	0.36364	0.1	2584.5
7799	12.311	0.54545	0.1	2603.9
7800	12.311	0.72727	0.1	2626.7
7801	12.311	0.90909	0.1	2652.3
7802	12.311	1.0909	0.1	2679.8
7803	12.311	1.2727	0.1	2708.4
7804	12.311	1.4545	0.1	2737.3
7805	12.311	1.6364	0.1	2765.6
7806	12.311	1.8182	0.1	2792.4
7807	12.311	2.	0.1	2816.9
7808	12.311	2.1818	0.1	2838.5
7809	12.311	2.3636	0.1	2856.6
7810	12.311	2.5455	0.1	2870.7
7811	12.311	2.7273	0.1	2880.3
7812	12.311	2.9091	0.1	2885.2
7813	12.311	3.0909	0.1	2885.2
7814	12.311	3.2727	0.1	2880.3
7815	12.311	3.4545	0.1	2870.7
7816	12.311	3.6364	0.1	2856.6
7817	12.311	3.8182	0.1	2838.5
7818	12.311	4.	0.1	2816.9
7819	12.311	4.1818	0.1	2792.4
7820	12.311	4.3636	0.1	2765.6
7821	12.311	4.5455	0.1	2737.3
7822	12.311	4.7273	0.1	2708.4
7823	12.311	4.9091	0.1	2679.8
7824	12.311	5.0909	0.1	2652.3
7825	12.311	5.2727	0.1	2626.7
7826	12.311	5.4545	0.1	2603.9
7827	12.311	5.6364	0.1	2584.5
7828	12.311	5.8182	0.1	2568.9
7829	12.495	0.18182	0.1	2476.3
7830	12.495	0.36364	0.1	2495.2
7831	12.495	0.54545	0.1	2519.
7832	12.495	0.72727	0.1	2547.1
7833	12.495	0.90909	0.1	2579.
7834	12.495	1.0909	0.1	2613.6
7835	12.495	1.2727	0.1	2649.9
7836	12.495	1.4545	0.1	2686.8
7837	12.495	1.6364	0.1	2723.
7838	12.495	1.8182	0.1	2757.5
7839	12.495	2.	0.1	2789.2
7840	12.495	2.1818	0.1	2817.2
7841	12.495	2.3636	0.1	2840.8
7842	12.495	2.5455	0.1	2859.1
7843	12.495	2.7273	0.1	2871.7
7844	12.495	2.9091	0.1	2878.2
7845	12.495	3.0909	0.1	2878.2
7846	12.495	3.2727	0.1	2871.7
7847	12.495	3.4545	0.1	2859.1
7848	12.495	3.6364	0.1	2840.8
7849	12.495	3.8182	0.1	2817.2
7850	12.495	4.	0.1	2789.2
7851	12.495	4.1818	0.1	2757.5
7852	12.495	4.3636	0.1	2723.
7853	12.495	4.5455	0.1	2686.8
7854	12.495	4.7273	0.1	2649.9
7855	12.495	4.9091	0.1	2613.6
7856	12.495	5.0909	0.1	2579.
7857	12.495	5.2727	0.1	2547.1
7858	12.495	5.4545	0.1	2519.
7859	12.495	5.6364	0.1	2495.2
7860	12.495	5.8182	0.1	2476.3
7861	12.679	0.18182	0.1	2373.7
7862	12.679	0.36364	0.1	2396.5
7863	12.679	0.54545	0.1	2425.4
7864	12.679	0.72727	0.1	2460.
7865	12.679	0.90909	0.1	2499.6
7866	12.679	1.0909	0.1	2543.
7867	12.679	1.2727	0.1	2588.9
7868	12.679	1.4545	0.1	2635.8
7869	12.679	1.6364	0.1	2682.2
7870	12.679	1.8182	0.1	2726.5
7871	12.679	2.	0.1	2767.5
7872	12.679	2.1818	0.1	2803.8
7873	12.679	2.3636	0.1	2834.4
7874	12.679	2.5455	0.1	2858.4
7875	12.679	2.7273	0.1	2874.9
7876	12.679	2.9091	0.1	2883.3
7877	12.679	3.0909	0.1	2883.3
7878	12.679	3.2727	0.1	2874.9
7879	12.679	3.4545	0.1	2858.4
7880	12.679	3.6364	0.1	2834.4
7881	12.679	3.8182	0.1	2803.8
7882	12.679	4.	0.1	2767.5
7883	12.679	4.1818	0.1	2726.5
7884	12.679	4.3636	0.1	2682.2
7885	12.679	4.5455	0.1	2635.8
7886	12.679	4.7273	0.1	2588.9
7887	12.679	4.9091	0.1	2543.
7888	12.679	5.0909	0.1	2499.6
7889	12.679	5.2727	0.1	2460.
7890	12.679	5.4545	0.1	2425.4
7891	12.679	5.6364	0.1	2396.5
7892	12.679	5.8182	0.1	2373.7
7893	12.863	0.18182	0.1	2259.2
7894	12.863	0.36364	0.1	2286.3
7895	12.863	0.54545	0.1	2321.1
7896	12.863	0.72727	0.1	2363.4
7897	12.863	0.90909	0.1	2412.4
7898	12.863	1.0909	0.1	2466.7
7899	12.863	1.2727	0.1	2524.7
7900	12.863	1.4545	0.1	2584.4
7901	12.863	1.6364	0.1	2643.8
7902	12.863	1.8182	0.1	2700.7
7903	12.863	2.	0.1	2753.5
7904	12.863	2.1818	0.1	2800.5
7905	12.863	2.3636	0.1	2840.2
7906	12.863	2.5455	0.1	2871.4
7907	12.863	2.7273	0.1	2893.
7908	12.863	2.9091	0.1	2904.
7909	12.863	3.0909	0.1	2904.
7910	12.863	3.2727	0.1	2893.
7911	12.863	3.4545	0.1	2871.4
7912	12.863	3.6364	0.1	2840.2
7913	12.863	3.8182	0.1	2800.5
7914	12.863	4.	0.1	2753.5
7915	12.863	4.1818	0.1	2700.7
7916	12.863	4.3636	0.1	2643.8
7917	12.863	4.5455	0.1	2584.4
7918	12.863	4.7273	0.1	2524.7
7919	12.863	4.9091	0.1	2466.7
7920	12.863	5.0909	0.1	2412.4
7921	12.863	5.2727	0.1	2363.4
7922	12.863	5.4545	0.1	2321.1
7923	12.863	5.6364	0.1	2286.3
7924	12.863	5.8182	0.1	2259.2
7925	13.046	0.18182	0.1	2130.3
7926	13.046	0.36364	0.1	2162.2
7927	13.046	0.54545	0.1	2203.8
7928	13.046	0.72727	0.1	2255.3
7929	13.046	0.90909	0.1	2315.7
7930	13.046	1.0909	0.1	2383.5
7931	13.046	1.2727	0.1	2456.7
7932	13.046	1.4545	0.1	2532.6
7933	13.046	1.6364	0.1	2608.4
7934	13.046	1.8182	0.1	2681.5
7935	13.046	2.	0.1	2749.5
7936	13.046	2.1818	0.1	2810.2
7937	13.046	2.3636	0.1	2861.8
7938	13.046	2.5455	0.1	2902.3
7939	13.046	2.7273	0.1	2930.4
7940	13.046	2.9091	0.1	2944.7
7941	13.046	3.0909	0.1	2944.7
7942	13.046	3.2727	0.1	2930.4
7943	13.046	3.4545	0.1	2902.3
7944	13.046	3.6364	0.1	2861.8
7945	13.046	3.8182	0.1	2810.2
7946	13.046	4.	0.1	2749.5
7947	13.046	4.1818	0.1	2681.5
7948	13.046	4.3636	0.1	2608.4
7949	13.046	4.5455	0.1	2532.6
7950	13.046	4.7273	0.1	2456.7
7951	13.046	4.9091	0.1	2383.5
7952	13.046	5.0909	0.1	2315.7
7953	13.046	5.2727	0.1	2255.3
7954	13.046	5.4545	0.1	2203.8
7955	13.046	5.6364	0.1	2162.2
7956	13.046	5.8182	0.1	2130.3
7957	13.23	0.18182	0.1	1984.7
7958	13.23	0.36364	0.1	2021.6
7959	13.23	0.54545	0.1	2071.
7960	13.23	0.72727	0.1	2133.1
7961	13.23	0.90909	0.1	2207.3
7962	13.23	1.0909	0.1	2291.7
7963	13.23	1.2727	0.1	2383.8
7964	13.23	1.4545	0.1	2480.2
7965	13.23	1.6364	0.1	2577.3
7966	13.23	1.8182	0.1	2671.3
7967	13.23	2.	0.1	2758.9
7968	13.23	2.1818	0.1	2837.3
7969	13.23	2.3636	0.1	2903.9
7970	13.23	2.5455	0.1	2956.3
7971	13.23	2.7273	0.1	2992.6
7972	13.23	2.9091	0.1	3011.2
7973	13.23	3.0909	0.1	3011.2
7974	13.23	3.2727	0.1	2992.6
7975	13.23	3.4545	0.1	2956.3
7976	13.23	3.6364	0.1	2903.9
7977	13.23	3.8182	0.1	2837.3
7978	13.23	4.	0.1	2758.9
7979	13.23	4.1818	0.1	2671.3
7980	13.23	4.3636	0.1	2577.3
7981	13.23	4.5455	0.1	2480.2
7982	13.23	4.7273	0.1	2383.8
7983	13.23	4.9091	0.1	2291.7
7984	13.23	5.0909	0.1	2207.3
7985	13.23	5.2727	0.1	2133.1
7986	13.23	5.4545	0.1	2071.
7987	13.23	5.6364	0.1	2021.6
7988	13.23	5.8182	0.1	1984.7
7989	13.414	0.18182	0.1	1820.
7990	13.414	0.36364	0.1	1862.1
7991	13.414	0.54545	0.1	1920.
7992	13.414	0.72727	0.1	1994.5
7993	13.414	0.90909	0.1	2084.9
7994	13.414	1.0909	0.1	2189.4
7995	13.414	1.2727	0.1	2305.1
7996	13.414	1.4545	0.1	2427.7
7997	13.414	1.6364	0.1	2552.2
7998	13.414	1.8182	0.1	2673.3
7999	13.414	2.	0.1	2786.5
8000	13.414	2.1818	0.1	2887.6
8001	13.414	2.3636	0.1	2973.4
8002	13.414	2.5455	0.1	3040.6
8003	13.414	2.7273	0.1	3086.9
8004	13.414	2.9091	0.1	3110.4
8005	13.414	3.0909	0.1	3110.4
8006	13.414	3.2727	0.1	3086.9
8007	13.414	3.4545	0.1	3040.6
8008	13.414	3.6364	0.1	2973.4
8009	13.414	3.8182	0.1	2887.6
8010	13.414	4.	0.1	2786.5
8011	13.414	4.1818	0.1	2673.3
8012	13.414	4.3636	0.1	2552.2
8013	13.414	4.5455	0.1	2427.7
8014	13.414	4.7273	0.1	2305.1
8015	13.414	4.9091	0.1	2189.4
8016	13.414	5.0909	0.1	2084.9
8017	13.414	5.2727	0.1	1994.5
8018	13.414	5.4545	0.1	1920.
8019	13.414	5.6364	0.1	1862.1
8020	13.414	5.8182	0.1	1820.
8021	13.597	0.18182	0.1	1634.1
8022	13.597	0.36364	0.1	1681.1
8023	13.597	0.54545	0.1	1748.5
8024	13.597	0.72727	0.1	1837.
8025	13.597	0.90909	0.1	1946.3
8026	13.597	1.0909	0.1	2074.8
8027	13.597	1.2727	0.1	2219.4
8028	13.597	1.4545	0.1	2375.3
8029	13.597	1.6364	0.1	2535.6
8030	13.597	1.8182	0.1	2692.8
8031	13.597	2.	0.1	2839.7
8032	13.597	2.1818	0.1	2970.4
8033	13.597	2.3636	0.1	3080.1
8034	13.597	2.5455	0.1	3164.8
8035	13.597	2.7273	0.1	3222.1
8036	13.597	2.9091	0.1	3250.8
8037	13.597	3.0909	0.1	3250.8
8038	13.597	3.2727	0.1	3222.1
8039	13.597	3.4545	0.1	3164.8
8040	13.597	3.6364	0.1	3080.1
8041	13.597	3.8182	0.1	2970.4
8042	13.597	4.	0.1	2839.7
8043	13.597	4.1818	0.1	2692.8
8044	13.597	4.3636	0.1	2535.6
8045	13.597	4.5455	0.1	2375.3
8046	13.597	4.7273	0.1	2219.4
8047	13.597	4.9091	0.1	2074.8
8048	13.597	5.0909	0.1	1946.3
8049	13.597	5.2727	0.1	1837.
8050	13.597	5.4545	0.1	1748.5
8051	13.597	5.6364	0.1	1681.1
8052	13.597	5.8182	0.1	1634.1
8053	13.781	0.18182	0.1	1425.5
8054	13.781	0.36364	0.1	1477.5
8055	13.781	0.54545	0.1	1555.2
8056	13.781	0.72727	0.1	1659.4
8057	13.781	0.90909	0.1	1790.
8058	13.781	1.0909	0.1	1946.1
8059	13.781	1.2727	0.1	2125.4
8060	13.781	1.4545	0.1	2323.4
8061	13.781	1.6364	0.1	2531.4
8062	13.781	1.8182	0.1	2737.8
8063	13.781	2.	0.1	2930.7
8064	13.781	2.1818	0.1	3100.4
8065	13.781	2.3636	0.1	3239.1
8066	13.781	2.5455	0.1	3342.3
8067	13.781	2.7273	0.1	3408.9
8068	13.781	2.9091	0.1	3441.1
8069	13.781	3.0909	0.1	3441.1
8070	13.781	3.2727	0.1	3408.9
8071	13.781	3.4545	0.1	3342.3
8072	13.781	3.6364	0.1	3239.1
8073	13.781	3.8182	0.1	3100.4
8074	13.781	4.	0.1	2930.7
8075	13.781	4.1818	0.1	2737.8
8076	13.781	4.3636	0.1	2531.4
8077	13.781	4.5455	0.1	2323.4
8078	13.781	4.7273	0.1	2125.4
8079	13.781	4.9091	0.1	1946.1
8080	13.781	5.0909	0.1	1790.
8081	13.781	5.2727	0.1	1659.4
8082	13.781	5.4545	0.1	1555.2
8083	13.781	5.6364	0.1	1477.5
8084	13.781	5.8182	0.1	1425.5
8085	13.965	0.18182	0.1	1194.1
8086	13.965	0.36364	0.1	1251.6
8087	13.965	0.54545	0.1	1341.6
8088	13.965	0.72727	0.1	1463.5
8089	13.965	0.90909	0.1	1616.9
8090	13.965	1.0909	0.1	1802.5
8091	13.965	1.2727	0.1	2021.2
8092	13.965	1.4545	0.1	2271.1
8093	13.965	1.6364	0.1	2544.3
8094	13.965	1.8182	0.1	2821.9
8095	13.965	2.	0.1	3081.9
8096	13.965	2.1818	0.1	3304.2
8097	13.965	2.3636	0.1	3475.4
8098	13.965	2.5455	0.1	3591.1
8099	13.965	2.7273	0.1	3657.6
8100	13.965	2.9091	0.1	3686.9
8101	13.965	3.0909	0.1	3686.9
8102	13.965	3.2727	0.1	3657.6
8103	13.965	3.4545	0.1	3591.1
8104	13.965	3.6364	0.1	3475.4
8105	13.965	3.8182	0.1	3304.2
8106	13.965	4.	0.1	3081.9
8107	13.965	4.1818	0.1	2821.9
8108	13.965	4.3636	0.1	2544.3
8109	13.965	4.5455	0.1	2271.1
8110	13.965	4.7273	0.1	2021.2
8111	13.965	4.9091	0.1	1802.5
8112	13.965	5.0909	0.1	1616.9
8113	13.965	5.2727	0.1	1463.5
8114	13.965	5.4545	0.1	1341.6
8115	13.965	5.6364	0.1	1251.6
8116	13.965	5.8182	0.1	1194.1
8117	14.149	0.18182	0.1	941.72
8118	14.149	0.36364	0.1	1008.
8119	14.149	0.54545	0.1	1115.
8120	14.149	0.72727	0.1	1256.9
8121	14.149	0.90909	0.1	1432.7
8122	14.149	1.0909	0.1	1645.9
8123	14.149	1.2727	0.1	1903.4
8124	14.149	1.4545	0.1	2214.8
8125	14.149	1.6364	0.1	2577.1
8126	14.149	1.8182	0.1	2969.
8127	14.149	2.	0.1	3341.1
8128	14.149	2.1818	0.1	3635.3
8129	14.149	2.3636	0.1	3833.7
8130	14.149	2.5455	0.1	3933.9
8131	14.149	2.7273	0.1	3972.7
8132	14.149	2.9091	0.1	3983.8
8133	14.149	3.0909	0.1	3983.8
8134	14.149	3.2727	0.1	3972.7
8135	14.149	3.4545	0.1	3933.9
8136	14.149	3.6364	0.1	3833.7
8137	14.149	3.8182	0.1	3635.3
8138	14.149	4.	0.1	3341.1
8139	14.149	4.1818	0.1	2969.
8140	14.149	4.3636	0.1	2577.1
8141	14.149	4.5455	0.1	2214.8
8142	14.149	4.7273	0.1	1903.4
8143	14.149	4.9091	0.1	1645.9
8144	14.149	5.0909	0.1	1432.7
8145	14.149	5.2727	0.1	1256.9
8146	14.149	5.4545	0.1	1115.
8147	14.149	5.6364	0.1	1008.
8148	14.149	5.8182	0.1	941.72
8149	14.333	0.18182	0.1	673.22
8150	14.333	0.36364	0.1	760.82
8151	14.333	0.54545	0.1	894.46
8152	14.333	0.72727	0.1	1058.6
8153	14.333	0.90909	0.1	1252.5
8154	14.333	1.0909	0.1	1484.
8155	14.333	1.2727	0.1	1769.9
8156	14.333	1.4545	0.1	2134.6
8157	14.333	1.6364	0.1	2623.3
8158	14.333	1.8182	0.1	3230.7
8159	14.333	2.	0.1	3802.3
8160	14.333	2.1818	0.1	4237.7
8161	14.333	2.3636	0.1	4391.6
8162	14.333	2.5455	0.1	4384.
8163	14.333	2.7273	0.1	4336.1
8164	14.333	2.9091	0.1	4303.5
8165	14.333	3.0909	0.1	4303.5
8166	14.333	3.2727	0.1	4336.1
8167	14.333	3.4545	0.1	4384.
8168	14.333	3.6364	0.1	4391.6
8169	14.333	3.8182	0.1	4237.7
8170	14.333	4.	0.1	3802.3
8171	14.333	4.1818	0.1	3230.7
8172	14.333	4.3636	0.1	2623.3
8173	14.333	4.5455	0.1	2134.6
8174	14.333	4.7273	0.1	1769.9
8175	14.333	4.9091	0.1	1484.
8176	14.333	5.0909	0.1	1252.5
8177	14.333	5.2727	0.1	1058.6
8178	14.333	5.4545	0.1	894.46
8179	14.333	5.6364	0.1	760.82
8180	14.333	5.8182	0.1	673.22
8181	14.516	0.18182	0.1	415.72
8182	14.516	0.36364	0.1	567.27
8183	14.516	0.54545	0.1	743.16
8184	14.516	0.72727	0.1	932.62
8185	14.516	0.90909	0.1	1143.
8186	14.516	1.0909	0.1	1387.6
8187	14.516	1.2727	0.1	1687.7
8188	14.516	1.4545	0.1	2093.
8189	14.516	1.6364	0.1	2673.9
8190	14.516	1.8182	0.1	3846.9
8191	14.516	2.	0.1	5390.7
8192	14.516	2.1818	0.1	5480.8
8193	14.516	2.3636	0.1	5220.1
8194	14.516	2.5455	0.1	4881.
8195	14.516	2.7273	0.1	4679.4
8196	14.516	2.9091	0.1	4582.1
8197	14.516	3.0909	0.1	4582.1
8198	14.516	3.2727	0.1	4679.4
8199	14.516	3.4545	0.1	4881.
8200	14.516	3.6364	0.1	5220.1
8201	14.516	3.8182	0.1	5480.8
8202	14.516	4.	0.1	5390.7
8203	14.516	4.1818	0.1	3846.9
8204	14.516	4.3636	0.1	2673.9
8205	14.516	4.5455	0.1	2093.
8206	14.516	4.7273	0.1	1687.7
8207	14.516	4.9091	0.1	1387.6
8208	14.516	5.0909	0.1	1143.
8209	14.516	5.2727	0.1	932.62
8210	14.516	5.4545	0.1	743.17
8211	14.516	5.6364	0.1	567.27
8212	14.516	5.8182	0.1	415.72
8213	14.867	3.8182	0.1	7455.2
8214	14.867	3.6364	0.1	5909.1
8215	14.867	3.4545	0.1	5202.7
8216	14.867	3.2727	0.1	4847.8
8217	14.867	3.0909	0.1	4696.1
8218	14.867	2.9091	0.1	4696.1
8219	14.867	2.7273	0.1	4847.8
8220	14.867	2.5455	0.1	5202.7
8221	14.867	2.3636	0.1	5909.1
8222	14.867	2.1818	0.1	7455.2
8223	14.7	3.8182	0.1	7406.
8224	14.7	3.6364	0.1	5904.7
8225	14.7	3.4545	0.1	5225.7
8226	14.7	3.2727	0.1	4879.4
8227	14.7	3.0909	0.1	4731.6
8228	14.7	2.9091	0.1	4731.6
8229	14.7	2.7273	0.1	4879.4
8230	14.7	2.5455	0.1	5225.7
8231	14.7	2.3636	0.1	5904.7
8232	14.7	2.1818	0.1	7406.
8233	14.867	5.8182	0.1	188.05
8234	14.867	5.6364	0.1	332.52
8235	14.867	5.4545	0.1	461.48
8236	14.867	5.2727	0.1	592.54
8237	14.867	5.0909	0.1	735.76
8238	14.867	4.9091	0.1	902.6
8239	14.867	4.7273	0.1	1108.8
8240	14.867	4.5455	0.1	1391.4
8241	14.867	4.3636	0.1	1780.4
8242	14.867	4.1818	0.1	2706.2
8243	14.867	4.	0.1	10788
8244	14.7	4.	0.1	10504
8245	14.7	4.1818	0.1	2445.6
8246	14.7	4.3636	0.1	1626.9
8247	14.7	4.5455	0.1	1300.3
8248	14.7	4.7273	0.1	1061.1
8249	14.7	4.9091	0.1	884.47
8250	14.7	5.0909	0.1	737.25
8251	14.7	5.2727	0.1	606.84
8252	14.7	5.4545	0.1	483.11
8253	14.7	5.6364	0.1	356.67
8254	14.7	5.8182	0.1	208.38
8255	14.867	0.18182	0.1	188.05
8256	14.867	0.36364	0.1	332.52
8257	14.867	0.54545	0.1	461.48
8258	14.867	0.72727	0.1	592.54
8259	14.867	0.90909	0.1	735.76
8260	14.867	1.0909	0.1	902.6
8261	14.867	1.2727	0.1	1108.8
8262	14.867	1.4545	0.1	1391.4
8263	14.867	1.6364	0.1	1780.4
8264	14.867	1.8182	0.1	2706.2
8265	14.867	2.	0.1	10788
8266	14.7	2.	0.1	10504
8267	14.7	1.8182	0.1	2445.6
8268	14.7	1.6364	0.1	1626.9
8269	14.7	1.4545	0.1	1300.3
8270	14.7	1.2727	0.1	1061.1
8271	14.7	1.0909	0.1	884.47
8272	14.7	0.90909	0.1	737.25
8273	14.7	0.72727	0.1	606.84
8274	14.7	0.54545	0.1	483.11
8275	14.7	0.36364	0.1	356.67
8276	14.7	0.18182	0.1	208.38
8277	14.867	6.	0.1	23.498
8278	15.049	6.	0.1	242.34
8279	15.232	6.	0.1	470.17
8280	15.415	6.	0.1	668.14
8281	15.597	6.	0.1	839.16
8282	15.78	6.	0.1	983.03
8283	15.963	6.	0.1	1100.2
8284	16.145	6.	0.1	1192.1
8285	16.328	6.	0.1	1261.1
8286	16.511	6.	0.1	1310.1
8287	16.693	6.	0.1	1341.8
8288	16.876	6.	0.1	1359.
8289	17.059	6.	0.1	1364.3
8290	17.241	6.	0.1	1359.6
8291	17.424	6.	0.1	1347.1
8292	17.607	6.	0.1	1328.1
8293	17.789	6.	0.1	1304.
8294	17.972	6.	0.1	1275.8
8295	18.155	6.	0.1	1244.4
8296	18.337	6.	0.1	1210.6
8297	18.52	6.	0.1	1174.8
8298	18.703	6.	0.1	1137.5
8299	18.885	6.	0.1	1099.1
8300	19.068	6.	0.1	1059.8
8301	19.251	6.	0.1	1020.
8302	19.433	6.	0.1	979.66
8303	19.616	6.	0.1	939.05
8304	19.799	6.	0.1	898.26
8305	19.981	6.	0.1	857.36
8306	20.164	6.	0.1	816.42
8307	20.347	6.	0.1	775.5
8308	20.529	6.	0.1	734.62
8309	20.712	6.	0.1	693.82
8310	20.895	6.	0.1	653.13
8311	21.077	6.	0.1	612.56
8312	21.26	6.	0.1	572.12
8313	21.443	6.	0.1	531.82
8314	21.625	6.	0.1	491.68
8315	21.808	6.	0.1	451.71
8316	21.991	6.	0.1	411.91
8317	22.173	6.	0.1	372.31
8318	22.356	6.	0.1	332.91
8319	22.539	6.	0.1	293.74
8320	22.721	6.	0.1	254.83
8321	22.904	6.	0.1	216.24
8322	23.087	6.	0.1	178.04
8323	23.269	6.	0.1	140.34
8324	23.452	6.	0.1	103.35
8325	23.635	6.	0.1	67.436
8326	23.817	6.	0.1	33.509
8327	24.	6.	0.1	5.2921
8328	24.	5.8182	0.1	6.67
8329	24.	5.6364	0.1	6.982
8330	24.	5.4545	0.1	7.0733
8331	24.	5.2727	0.1	7.0959
8332	24.	5.0909	0.1	7.0692
8333	24.	4.9091	0.1	7.0296
8334	24.	4.7273	0.1	6.9838
8335	24.	4.5455	0.1	6.9379
8336	24.	4.3636	0.1	6.8947
8337	24.	4.1818	0.1	6.8556
8338	24.	4.	0.1	6.8214
8339	24.	3.8182	0.1	6.7927
8340	24.	3.6364	0.1	6.7697
8341	24.	3.4545	0.1	6.7523
8342	24.	3.2727	0.1	6.7408
8343	24.	3.0909	0.1	6.735
8344	24.	2.9091	0.1	6.735
8345	24.	2.7273	0.1	6.7408
8346	24.	2.5455	0.1	6.7523
8347	24.	2.3636	0.1	6.7697
8348	24.	2.1818	0.1	6.7927
8349	24.	2.	0.1	6.8214
8350	24.	1.8182	0.1	6.8556
8351	24.	1.6364	0.1	6.8947
8352	24.	1.4545	0.1	6.9379
8353	24.	1.2727	0.1	6.9838
8354	24.	1.0909	0.1	7.0296
8355	24.	0.90909	0.1	7.0692
8356	24.	0.72727	0.1	7.0959
8357	24.	0.54545	0.1	7.0733
8358	24.	0.36364	0.1	6.982
8359	24.	0.18182	0.1	6.67
8360	1.5894e-015	0.18182	0.1	2497.4
8361	3.1789e-015	0.36364	0.1	4637.5
8362	4.7683e-015	0.54545	0.1	5687.7
8363	6.3578e-015	0.72727	0.1	6333.5
8364	7.9472e-015	0.90909	0.1	6764.5
8365	9.5366e-015	1.0909	0.1	7072.2
8366	1.1126e-014	1.2727	0.1	7299.9
8367	1.2716e-014	1.4545	0.1	7472.8
8368	1.4305e-014	1.6364	0.1	7605.9
8369	1.5894e-014	1.8182	0.1	7709.1
8370	1.7484e-014	2.	0.1	7789.1
8371	1.9073e-014	2.1818	0.1	7850.4
8372	2.0663e-014	2.3636	0.1	7896.4
8373	2.2252e-014	2.5455	0.1	7929.1
8374	2.3842e-014	2.7273	0.1	7950.2
8375	2.5431e-014	2.9091	0.1	7960.5
8376	2.702e-014	3.0909	0.1	7960.5
8377	2.861e-014	3.2727	0.1	7950.2
8378	3.0199e-014	3.4545	0.1	7929.1
8379	3.1789e-014	3.6364	0.1	7896.4
8380	3.3378e-014	3.8182	0.1	7850.4
8381	3.4968e-014	4.	0.1	7789.1
8382	3.6557e-014	4.1818	0.1	7709.1
8383	3.8147e-014	4.3636	0.1	7605.9
8384	3.9736e-014	4.5455	0.1	7472.8
8385	4.1325e-014	4.7273	0.1	7299.9
8386	4.2915e-014	4.9091	0.1	7072.2
8387	4.4504e-014	5.0909	0.1	6764.5
8388	4.6094e-014	5.2727	0.1	6333.5
8389	4.7683e-014	5.4545	0.1	5687.7
8390	4.9273e-014	5.6364	0.1	4637.5
8391	5.0862e-014	5.8182	0.1	2497.4
8392	24.	0.	0.1	5.2921
8393	23.817	0.	0.1	33.508
8394	23.635	0.	0.1	67.436
8395	23.452	0.	0.1	103.35
8396	23.269	0.	0.1	140.34
8397	23.087	0.	0.1	178.04
8398	22.904	0.	0.1	216.24
8399	22.721	0.	0.1	254.83
8400	22.539	0.	0.1	293.74
8401	22.356	0.	0.1	332.91
8402	22.173	0.	0.1	372.31
8403	21.991	0.	0.1	411.91
8404	21.808	0.	0.1	451.71
8405	21.625	0.	0.1	491.68
8406	21.443	0.	0.1	531.82
8407	21.26	0.	0.1	572.12
8408	21.077	0.	0.1	612.55
8409	20.895	0.	0.1	653.13
8410	20.712	0.	0.1	693.82
8411	20.529	0.	0.1	734.62
8412	20.347	0.	0.1	775.5
8413	20.164	0.	0.1	816.42
8414	19.981	0.	0.1	857.36
8415	19.799	0.	0.1	898.26
8416	19.616	0.	0.1	939.05
8417	19.433	0.	0.1	979.66
8418	19.251	0.	0.1	1020.
8419	19.068	0.	0.1	1059.8
8420	18.885	0.	0.1	1099.1
8421	18.703	0.	0.1	1137.5
8422	18.52	0.	0.1	1174.8
8423	18.337	0.	0.1	1210.6
8424	18.155	0.	0.1	1244.4
8425	17.972	0.	0.1	1275.8
8426	17.789	0.	0.1	1304.
8427	17.607	0.	0.1	1328.1
8428	17.424	0.	0.1	1347.1
8429	17.241	0.	0.1	1359.6
8430	17.059	0.	0.1	1364.3
8431	16.876	0.	0.1	1359.
8432	16.693	0.	0.1	1341.8
8433	16.511	0.	0.1	1310.1
8434	16.328	0.	0.1	1261.1
8435	16.145	0.	0.1	1192.1
8436	15.963	0.	0.1	1100.2
8437	15.78	0.	0.1	983.03
8438	15.597	0.	0.1	839.16
8439	15.415	0.	0.1	668.14
8440	15.232	0.	0.1	470.17
8441	15.049	0.	0.1	242.34
8442	14.867	0.	0.1	23.498
8443	14.7	0.	0.1	28.175
8444	14.516	5.0317e-030	0.1	302.53
8445	14.333	4.968e-030	0.1	607.8
8446	14.149	4.9043e-030	0.1	890.49
8447	13.965	4.8406e-030	0.1	1151.9
8448	13.781	4.7769e-030	0.1	1390.4
8449	13.597	4.7132e-030	0.1	1604.7
8450	13.414	4.6495e-030	0.1	1795.4
8451	13.23	4.5858e-030	0.1	1964.1
8452	13.046	4.5221e-030	0.1	2112.8
8453	12.863	4.4585e-030	0.1	2244.2
8454	12.679	4.3948e-030	0.1	2360.8
8455	12.495	4.3311e-030	0.1	2464.9
8456	12.311	4.2674e-030	0.1	2558.8
8457	12.127	4.2037e-030	0.1	2644.3
8458	11.944	4.14e-030	0.1	2723.
8459	11.76	4.0763e-030	0.1	2796.2
8460	11.576	4.0126e-030	0.1	2865.
8461	11.392	3.9489e-030	0.1	2930.4
8462	11.209	3.8852e-030	0.1	2993.
8463	11.025	3.8215e-030	0.1	3053.4
8464	10.841	3.7578e-030	0.1	3112.2
8465	10.658	3.6941e-030	0.1	3169.7
8466	10.474	3.6305e-030	0.1	3226.2
8467	10.29	3.5668e-030	0.1	3282.
8468	10.106	3.5031e-030	0.1	3337.3
8469	9.9225	3.4394e-030	0.1	3392.2
8470	9.7388	3.3757e-030	0.1	3446.9
8471	9.555	3.312e-030	0.1	3501.5
8472	9.3713	3.2483e-030	0.1	3556.
8473	9.1875	3.1846e-030	0.1	3610.6
8474	9.0037	3.1209e-030	0.1	3665.2
8475	8.82	3.0572e-030	0.1	3720.
8476	8.6362	2.9935e-030	0.1	3775.
8477	8.4525	2.9298e-030	0.1	3830.1
8478	8.2688	2.8661e-030	0.1	3885.5
8479	8.085	2.8025e-030	0.1	3941.2
8480	7.9012	2.7388e-030	0.1	3997.1
8481	7.7175	2.6751e-030	0.1	4053.4
8482	7.5338	2.6114e-030	0.1	4109.9
8483	7.35	2.5477e-030	0.1	4166.9
8484	7.1663	2.484e-030	0.1	4224.2
8485	6.9825	2.4203e-030	0.1	4281.8
8486	6.7987	2.3566e-030	0.1	4339.9
8487	6.615	2.2929e-030	0.1	4398.5
8488	6.4313	2.2292e-030	0.1	4457.4
8489	6.2475	2.1655e-030	0.1	4516.9
8490	6.0637	2.1018e-030	0.1	4576.8
8491	5.88	2.0381e-030	0.1	4637.2
8492	5.6962	1.9745e-030	0.1	4698.2
8493	5.5125	1.9108e-030	0.1	4759.7
8494	5.3288	1.8471e-030	0.1	4821.8
8495	5.145	1.7834e-030	0.1	4884.4
8496	4.9612	1.7197e-030	0.1	4947.7
8497	4.7775	1.656e-030	0.1	5011.5
8498	4.5938	1.5923e-030	0.1	5075.9
8499	4.41	1.5286e-030	0.1	5140.8
8500	4.2263	1.4649e-030	0.1	5206.3
8501	4.0425	1.4012e-030	0.1	5272.2
8502	3.8588	1.3375e-030	0.1	5338.6
8503	3.675	1.2738e-030	0.1	5405.1
8504	3.4913	1.2102e-030	0.1	5471.8
8505	3.3075	1.1465e-030	0.1	5538.3
8506	3.1237	1.0828e-030	0.1	5604.4
8507	2.94	1.0191e-030	0.1	5669.6
8508	2.7562	9.5538e-031	0.1	5733.4
8509	2.5725	8.9169e-031	0.1	5795.
8510	2.3888	8.28e-031	0.1	5853.5
8511	2.205	7.6431e-031	0.1	5907.5
8512	2.0213	7.0061e-031	0.1	5955.2
8513	1.8375	6.3692e-031	0.1	5994.2
8514	1.6537	5.7323e-031	0.1	6021.1
8515	1.47	5.0954e-031	0.1	6031.1
8516	1.2862	4.4585e-031	0.1	6017.1
8517	1.1025	3.8215e-031	0.1	5968.3
8518	0.91875	3.1846e-031	0.1	5867.1
8519	0.735	2.5477e-031	0.1	5684.6
8520	0.55125	1.9108e-031	0.1	5359.3
8521	0.3675	1.2738e-031	0.1	4782.5
8522	0.18375	6.3692e-032	0.1	3568.6
8523	0.	0.	0.1	760.29
8524	3.937e-014	6.	0.1	760.29
8525	0.18375	6.	0.1	3568.6
8526	0.3675	6.	0.1	4782.5
8527	0.55125	6.	0.1	5359.3
8528	0.735	6.	0.1	5684.6
8529	0.91875	6.	0.1	5867.1
8530	1.1025	6.	0.1	5968.3
8531	1.2862	6.	0.1	6017.1
8532	1.47	6.	0.1	6031.1
8533	1.6537	6.	0.1	6021.1
8534	1.8375	6.	0.1	5994.2
8535	2.0213	6.	0.1	5955.2
8536	2.205	6.	0.1	5907.5
8537	2.3888	6.	0.1	5853.5
8538	2.5725	6.	0.1	5795.
8539	2.7562	6.	0.1	5733.4
8540	2.94	6.	0.1	5669.6
8541	3.1237	6.	0.1	5604.4
8542	3.3075	6.	0.1	5538.3
8543	3.4913	6.	0.1	5471.8
8544	3.675	6.	0.1	5405.1
8545	3.8588	6.	0.1	5338.6
8546	4.0425	6.	0.1	5272.2
8547	4.2263	6.	0.1	5206.3
8548	4.41	6.	0.1	5140.8
8549	4.5938	6.	0.1	5075.9
8550	4.7775	6.	0.1	5011.5
8551	4.9612	6.	0.1	4947.7
8552	5.145	6.	0.1	4884.4
8553	5.3288	6.	0.1	4821.8
8554	5.5125	6.	0.1	4759.7
8555	5.6962	6.	0.1	4698.2
8556	5.88	6.	0.1	4637.2
8557	6.0637	6.	0.1	4576.8
8558	6.2475	6.	0.1	4516.9
8559	6.4313	6.	0.1	4457.4
8560	6.615	6.	0.1	4398.5
8561	6.7987	6.	0.1	4339.9
8562	6.9825	6.	0.1	4281.8
8563	7.1663	6.	0.1	4224.2
8564	7.35	6.	0.1	4166.9
8565	7.5338	6.	0.1	4109.9
8566	7.7175	6.	0.1	4053.4
8567	7.9012	6.	0.1	3997.1
8568	8.085	6.	0.1	3941.2
8569	8.2688	6.	0.1	3885.5
8570	8.4525	6.	0.1	3830.1
8571	8.6362	6.	0.1	3775.
8572	8.82	6.	0.1	3720.
8573	9.0037	6.	0.1	3665.2
8574	9.1875	6.	0.1	3610.6
8575	9.3713	6.	0.1	3556.
8576	9.555	6.	0.1	3501.5
8577	9.7388	6.	0.1	3446.9
8578	9.9225	6.	0.1	3392.2
8579	10.106	6.	0.1	3337.3
8580	10.29	6.	0.1	3282.
8581	10.474	6.	0.1	3226.2
8582	10.658	6.	0.1	3169.7
8583	10.841	6.	0.1	3112.2
8584	11.025	6.	0.1	3053.4
8585	11.209	6.	0.1	2993.
8586	11.392	6.	0.1	2930.4
8587	11.576	6.	0.1	2865.
8588	11.76	6.	0.1	2796.2
8589	11.944	6.	0.1	2723.
8590	12.127	6.	0.1	2644.3
8591	12.311	6.	0.1	2558.8
8592	12.495	6.	0.1	2464.9
8593	12.679	6.	0.1	2360.8
8594	12.863	6.	0.1	2244.2
8595	13.046	6.	0.1	2112.8
8596	13.23	6.	0.1	1964.1
8597	13.414	6.	0.1	1795.4
8598	13.597	6.	0.1	1604.7
8599	13.781	6.	0.1	1390.4
8600	13.965	6.	0.1	1151.9
8601	14.149	6.	0.1	890.49
8602	14.333	6.	0.1	607.8
8603	14.516	6.	0.1	302.53
8604	14.7	6.	0.1	28.175
8605	14.516	6.	0.	8.1924
8606	14.333	6.	0.	8.1414
8607	14.149	6.	0.	8.0928
8608	13.965	6.	0.	7.5065
8609	13.781	6.	0.	6.6277
8610	13.597	6.	0.	5.8112
8611	13.414	6.	0.	5.1524
8612	13.23	6.	0.	4.6862
8613	13.046	6.	0.	4.3941
8614	12.863	6.	0.	4.242
8615	12.679	6.	0.	4.1913
8616	12.495	6.	0.	4.2074
8617	12.311	6.	0.	4.2623
8618	12.127	6.	0.	4.3345
8619	11.944	6.	0.	4.4088
8620	11.76	6.	0.	4.475
8621	11.576	6.	0.	4.5266
8622	11.392	6.	0.	4.56
8623	11.209	6.	0.	4.5736
8624	11.025	6.	0.	4.5667
8625	10.841	6.	0.	4.5397
8626	10.658	6.	0.	4.4934
8627	10.474	6.	0.	4.4285
8628	10.29	6.	0.	4.346
8629	10.106	6.	0.	4.2467
8630	9.9225	6.	0.	4.1315
8631	9.7388	6.	0.	4.001
8632	9.555	6.	0.	3.8556
8633	9.3713	6.	0.	3.6959
8634	9.1875	6.	0.	3.522
8635	9.0037	6.	0.	3.3342
8636	8.82	6.	0.	3.1326
8637	8.6362	6.	0.	2.9174
8638	8.4525	6.	0.	2.6886
8639	8.2688	6.	0.	2.4462
8640	8.085	6.	0.	2.1904
8641	7.9012	6.	0.	1.9214
8642	7.7175	6.	0.	1.6394
8643	7.5338	6.	0.	1.3449
8644	7.35	6.	0.	1.0383
8645	7.1663	6.	0.	0.72059
8646	6.9825	6.	0.	0.4335
8647	6.7987	6.	0.	0.47509
8648	6.615	6.	0.	0.52107
8649	6.4313	6.	0.	0.57061
8650	6.2475	6.	0.	0.62398
8651	6.0637	6.	0.	0.6815
8652	5.88	6.	0.	0.74355
8653	5.6962	6.	0.	0.81049
8654	5.5125	6.	0.	0.88275
8655	5.3288	6.	0.	0.96079
8656	5.145	6.	0.	1.0451
8657	4.9612	6.	0.	1.1363
8658	4.7775	6.	0.	1.235
8659	4.5938	6.	0.	1.3421
8660	4.41	6.	0.	1.4584
8661	4.2263	6.	0.	1.5853
8662	4.0425	6.	0.	1.7245
8663	3.8588	6.	0.	1.8788
8664	3.675	6.	0.	2.0536
8665	3.4913	6.	0.	2.2601
8666	3.3075	6.	0.	2.5324
8667	3.1237	6.	0.	3.01
8668	2.94	6.	0.	4.1905
8669	2.7562	6.	0.	6.3293
8670	2.5725	6.	0.	9.2087
8671	2.3888	6.	0.	12.828
8672	2.205	6.	0.	17.301
8673	2.0213	6.	0.	22.798
8674	1.8375	6.	0.	29.549
8675	1.6537	6.	0.	37.871
8676	1.47	6.	0.	48.194
8677	1.2862	6.	0.	61.195
8678	1.1025	6.	0.	77.774
8679	0.91875	6.	0.	99.934
8680	0.735	6.	0.	129.96
8681	0.55125	6.	0.	176.53
8682	0.3675	6.	0.	256.91
8683	0.18375	6.	0.	442.98
8684	14.7	6.	0.	6.5599
8685	3.937e-014	6.	0.	1824.4
8686	0.18375	6.3692e-032	0.	442.98
8687	0.3675	1.2738e-031	0.	256.91
8688	0.55125	1.9108e-031	0.	176.53
8689	0.735	2.5477e-031	0.	129.96
8690	0.91875	3.1846e-031	0.	99.933
8691	1.1025	3.8215e-031	0.	77.774
8692	1.2862	4.4585e-031	0.	61.195
8693	1.47	5.0954e-031	0.	48.194
8694	1.6537	5.7323e-031	0.	37.871
8695	1.8375	6.3692e-031	0.	29.549
8696	2.0213	7.0061e-031	0.	22.798
8697	2.205	7.6431e-031	0.	17.301
8698	2.3888	8.28e-031	0.	12.828
8699	2.5725	8.9169e-031	0.	9.2086
8700	2.7562	9.5538e-031	0.	6.3293
8701	2.94	1.0191e-030	0.	4.1905
8702	3.1237	1.0828e-030	0.	3.01
8703	3.3075	1.1465e-030	0.	2.5324
8704	3.4913	1.2102e-030	0.	2.2601
8705	3.675	1.2738e-030	0.	2.0536
8706	3.8588	1.3375e-030	0.	1.8788
8707	4.0425	1.4012e-030	0.	1.7245
8708	4.2263	1.4649e-030	0.	1.5853
8709	4.41	1.5286e-030	0.	1.4584
8710	4.5938	1.5923e-030	0.	1.3421
8711	4.7775	1.656e-030	0.	1.235
8712	4.9612	1.7197e-030	0.	1.1363
8713	5.145	1.7834e-030	0.	1.0451
8714	5.3288	1.8471e-030	0.	0.96079
8715	5.5125	1.9108e-030	0.	0.88275
8716	5.6962	1.9745e-030	0.	0.81049
8717	5.88	2.0381e-030	0.	0.74355
8718	6.0637	2.1018e-030	0.	0.68151
8719	6.2475	2.1655e-030	0.	0.62398
8720	6.4313	2.2292e-030	0.	0.57061
8721	6.615	2.2929e-030	0.	0.52107
8722	6.7987	2.3566e-030	0.	0.47509
8723	6.9825	2.4203e-030	0.	0.4335
8724	7.1663	2.484e-030	0.	0.72061
8725	7.35	2.5477e-030	0.	1.0383
8726	7.5338	2.6114e-030	0.	1.3449
8727	7.7175	2.6751e-030	0.	1.6394
8728	7.9012	2.7388e-030	0.	1.9214
8729	8.085	2.8025e-030	0.	2.1904
8730	8.2688	2.8661e-030	0.	2.4462
8731	8.4525	2.9298e-030	0.	2.6886
8732	8.6362	2.9935e-030	0.	2.9174
8733	8.82	3.0572e-030	0.	3.1327
8734	9.0037	3.1209e-030	0.	3.3342
8735	9.1875	3.1846e-030	0.	3.522
8736	9.3713	3.2483e-030	0.	3.6959
8737	9.555	3.312e-030	0.	3.8557
8738	9.7388	3.3757e-030	0.	4.001
8739	9.9225	3.4394e-030	0.	4.1315
8740	10.106	3.5031e-030	0.	4.2467
8741	10.29	3.5668e-030	0.	4.346
8742	10.474	3.6305e-030	0.	4.4285
8743	10.658	3.6941e-030	0.	4.4934
8744	10.841	3.7578e-030	0.	4.5398
8745	11.025	3.8215e-030	0.	4.5667
8746	11.209	3.8852e-030	0.	4.5736
8747	11.392	3.9489e-030	0.	4.5601
8748	11.576	4.0126e-030	0.	4.5266
8749	11.76	4.0763e-030	0.	4.475
8750	11.944	4.14e-030	0.	4.4089
8751	12.127	4.2037e-030	0.	4.3345
8752	12.311	4.2674e-030	0.	4.2623
8753	12.495	4.3311e-030	0.	4.2075
8754	12.679	4.3948e-030	0.	4.1913
8755	12.863	4.4585e-030	0.	4.242
8756	13.046	4.5221e-030	0.	4.3942
8757	13.23	4.5858e-030	0.	4.6862
8758	13.414	4.6495e-030	0.	5.1524
8759	13.597	4.7132e-030	0.	5.8112
8760	13.781	4.7769e-030	0.	6.6277
8761	13.965	4.8406e-030	0.	7.5065
8762	14.149	4.9043e-030	0.	8.0927
8763	14.333	4.968e-030	0.	8.1414
8764	14.516	5.0317e-030	0.	8.1923
8765	14.7	0.	0.	6.5599
8766	0.	0.	0.	1824.4
8767	15.049	0.	0.	9.5082
8768	15.232	0.	0.	11.78
8769	15.415	0.	0.	13.288
8770	15.597	0.	0.	13.495
8771	15.78	0.	0.	12.802
8772	15.963	0.	0.	11.718
8773	16.145	0.	0.	10.496
8774	16.328	0.	0.	9.3022
8775	16.511	0.	0.	8.2202
8776	16.693	0.	0.	7.2898
8777	16.876	0.	0.	6.522
8778	17.059	0.	0.	5.9126
8779	17.241	0.	0.	5.4497
8780	17.424	0.	0.	5.1184
8781	17.607	0.	0.	4.9033
8782	17.789	0.	0.	4.7897
8783	17.972	0.	0.	4.7641
8784	18.155	0.	0.	4.8143
8785	18.337	0.	0.	4.9296
8786	18.52	0.	0.	5.1003
8787	18.703	0.	0.	5.3181
8788	18.885	0.	0.	5.5754
8789	19.068	0.	0.	5.8656
8790	19.251	0.	0.	6.183
8791	19.433	0.	0.	6.5225
8792	19.616	0.	0.	6.8795
8793	19.799	0.	0.	7.25
8794	19.981	0.	0.	7.6304
8795	20.164	0.	0.	8.0177
8796	20.347	0.	0.	8.4089
8797	20.529	0.	0.	8.8014
8798	20.712	0.	0.	9.1929
8799	20.895	0.	0.	9.581
8800	21.077	0.	0.	9.9635
8801	21.26	0.	0.	10.338
8802	21.443	0.	0.	10.702
8803	21.625	0.	0.	11.054
8804	21.808	0.	0.	11.389
8805	21.991	0.	0.	11.706
8806	22.173	0.	0.	11.999
8807	22.356	0.	0.	12.265
8808	22.539	0.	0.	12.496
8809	22.721	0.	0.	12.684
8810	22.904	0.	0.	12.817
8811	23.087	0.	0.	12.877
8812	23.269	0.	0.	12.84
8813	23.452	0.	0.	12.629
8814	23.635	0.	0.	12.258
8815	23.817	0.	0.	10.436
8816	14.867	0.	0.	5.4773
8817	24.	0.	0.	5.5615
8818	5.0862e-014	5.8182	0.	-1060.8
8819	4.9273e-014	5.6364	0.	-2242.2
8820	4.7683e-014	5.4545	0.	-2785.7
8821	4.6094e-014	5.2727	0.	-3110.2
8822	4.4504e-014	5.0909	0.	-3325.5
8823	4.2915e-014	4.9091	0.	-3478.9
8824	4.1325e-014	4.7273	0.	-3592.2
8825	3.9736e-014	4.5455	0.	-3678.1
8826	3.8147e-014	4.3636	0.	-3744.2
8827	3.6557e-014	4.1818	0.	-3795.5
8828	3.4968e-014	4.	0.	-3835.3
8829	3.3378e-014	3.8182	0.	-3865.8
8830	3.1789e-014	3.6364	0.	-3888.7
8831	3.0199e-014	3.4545	0.	-3905.1
8832	2.861e-014	3.2727	0.	-3915.6
8833	2.702e-014	3.0909	0.	-3920.9
8834	2.5431e-014	2.9091	0.	-3920.9
8835	2.3842e-014	2.7273	0.	-3915.6
8836	2.2252e-014	2.5455	0.	-3905.1
8837	2.0663e-014	2.3636	0.	-3888.7
8838	1.9073e-014	2.1818	0.	-3865.8
8839	1.7484e-014	2.	0.	-3835.3
8840	1.5894e-014	1.8182	0.	-3795.5
8841	1.4305e-014	1.6364	0.	-3744.2
8842	1.2716e-014	1.4545	0.	-3678.1
8843	1.1126e-014	1.2727	0.	-3592.2
8844	9.5366e-015	1.0909	0.	-3478.9
8845	7.9472e-015	0.90909	0.	-3325.5
8846	6.3578e-015	0.72727	0.	-3110.2
8847	4.7683e-015	0.54545	0.	-2785.7
8848	3.1789e-015	0.36364	0.	-2242.2
8849	1.5894e-015	0.18182	0.	-1060.8
8850	24.	0.18182	0.	34.541
8851	24.	0.36364	0.	59.93
8852	24.	0.54545	0.	79.244
8853	24.	0.72727	0.	95.078
8854	24.	0.90909	0.	108.42
8855	24.	1.0909	0.	119.81
8856	24.	1.2727	0.	129.57
8857	24.	1.4545	0.	137.94
8858	24.	1.6364	0.	145.07
8859	24.	1.8182	0.	151.1
8860	24.	2.	0.	156.12
8861	24.	2.1818	0.	160.21
8862	24.	2.3636	0.	163.42
8863	24.	2.5455	0.	165.79
8864	24.	2.7273	0.	167.35
8865	24.	2.9091	0.	168.13
8866	24.	3.0909	0.	168.13
8867	24.	3.2727	0.	167.35
8868	24.	3.4545	0.	165.79
8869	24.	3.6364	0.	163.42
8870	24.	3.8182	0.	160.21
8871	24.	4.	0.	156.12
8872	24.	4.1818	0.	151.1
8873	24.	4.3636	0.	145.07
8874	24.	4.5455	0.	137.94
8875	24.	4.7273	0.	129.57
8876	24.	4.9091	0.	119.81
8877	24.	5.0909	0.	108.42
8878	24.	5.2727	0.	95.078
8879	24.	5.4545	0.	79.244
8880	24.	5.6364	0.	59.93
8881	24.	5.8182	0.	34.541
8882	24.	6.	0.	5.5614
8883	23.817	6.	0.	10.436
8884	23.635	6.	0.	12.258
8885	23.452	6.	0.	12.629
8886	23.269	6.	0.	12.84
8887	23.087	6.	0.	12.877
8888	22.904	6.	0.	12.817
8889	22.721	6.	0.	12.684
8890	22.539	6.	0.	12.496
8891	22.356	6.	0.	12.265
8892	22.173	6.	0.	11.999
8893	21.991	6.	0.	11.706
8894	21.808	6.	0.	11.389
8895	21.625	6.	0.	11.054
8896	21.443	6.	0.	10.702
8897	21.26	6.	0.	10.338
8898	21.077	6.	0.	9.9634
8899	20.895	6.	0.	9.581
8900	20.712	6.	0.	9.1929
8901	20.529	6.	0.	8.8014
8902	20.347	6.	0.	8.4088
8903	20.164	6.	0.	8.0176
8904	19.981	6.	0.	7.6304
8905	19.799	6.	0.	7.2499
8906	19.616	6.	0.	6.8794
8907	19.433	6.	0.	6.5225
8908	19.251	6.	0.	6.183
8909	19.068	6.	0.	5.8656
8910	18.885	6.	0.	5.5753
8911	18.703	6.	0.	5.318
8912	18.52	6.	0.	5.1003
8913	18.337	6.	0.	4.9296
8914	18.155	6.	0.	4.8143
8915	17.972	6.	0.	4.7641
8916	17.789	6.	0.	4.7897
8917	17.607	6.	0.	4.9033
8918	17.424	6.	0.	5.1183
8919	17.241	6.	0.	5.4496
8920	17.059	6.	0.	5.9126
8921	16.876	6.	0.	6.522
8922	16.693	6.	0.	7.2898
8923	16.511	6.	0.	8.2202
8924	16.328	6.	0.	9.3022
8925	16.145	6.	0.	10.496
8926	15.963	6.	0.	11.718
8927	15.78	6.	0.	12.802
8928	15.597	6.	0.	13.495
8929	15.415	6.	0.	13.288
8930	15.232	6.	0.	11.78
8931	15.049	6.	0.	9.5082
8932	14.867	6.	0.	5.4773
8933	14.7	1.8182	0.	3108.
8934	14.7	1.6364	0.	1590.7
8935	14.7	1.4545	0.	1221.9
8936	14.7	1.2727	0.	909.48
8937	14.7	1.0909	0.	684.43
8938	14.7	0.90909	0.	506.73
8939	14.7	0.72727	0.	360.72
8940	14.7	0.54545	0.	238.45
8941	14.7	0.36364	0.	136.07
8942	14.7	0.18182	0.	52.327
8943	14.7	2.	0.	2601.8
8944	14.867	0.18182	0.	34.376
8945	14.867	0.36364	0.	84.756
8946	14.867	0.54545	0.	144.23
8947	14.867	0.72727	0.	213.92
8948	14.867	0.90909	0.	296.76
8949	14.867	1.0909	0.	398.36
8950	14.867	1.2727	0.	528.62
8951	14.867	1.4545	0.	719.32
8952	14.867	1.6364	0.	903.27
8953	14.867	1.8182	0.	2063.
8954	14.867	2.	0.	1306.4
8955	14.7	4.1818	0.	3108.
8956	14.7	4.3636	0.	1590.7
8957	14.7	4.5455	0.	1221.9
8958	14.7	4.7273	0.	909.48
8959	14.7	4.9091	0.	684.43
8960	14.7	5.0909	0.	506.73
8961	14.7	5.2727	0.	360.72
8962	14.7	5.4545	0.	238.45
8963	14.7	5.6364	0.	136.07
8964	14.7	5.8182	0.	52.327
8965	14.7	4.	0.	2601.8
8966	14.867	5.8182	0.	34.376
8967	14.867	5.6364	0.	84.757
8968	14.867	5.4545	0.	144.23
8969	14.867	5.2727	0.	213.92
8970	14.867	5.0909	0.	296.76
8971	14.867	4.9091	0.	398.36
8972	14.867	4.7273	0.	528.62
8973	14.867	4.5455	0.	719.32
8974	14.867	4.3636	0.	903.27
8975	14.867	4.1818	0.	2063.
8976	14.867	4.	0.	1306.4
8977	14.7	2.2727	0.	911.36
8978	14.783	2.1818	0.	823.5
8979	14.608	2.1818	0.	911.86
8980	14.7	2.1818	5.e-002	285.05
8981	14.7	2.0909	0.	1692.
8982	14.7	2.4545	0.	728.05
8983	14.783	2.3636	0.	727.91
8984	14.608	2.3636	0.	733.3
8985	14.7	2.3636	5.e-002	46.292
8986	14.7	2.6364	0.	632.45
8987	14.783	2.5455	0.	632.17
8988	14.608	2.5455	0.	627.67
8989	14.7	2.5455	5.e-002	22.175
8990	14.7	2.8182	0.	584.6
8991	14.783	2.7273	0.	576.33
8992	14.608	2.7273	0.	575.97
8993	14.7	2.7273	5.e-002	11.304
8994	14.7	3.	0.	569.83
8995	14.783	2.9091	0.	550.28
8996	14.608	2.9091	0.	551.81
8997	14.7	2.9091	5.e-002	6.2412
8998	14.7	3.1818	0.	584.6
8999	14.783	3.0909	0.	550.28
9000	14.608	3.0909	0.	551.81
9001	14.7	3.0909	5.e-002	6.2412
9002	14.7	3.3636	0.	632.45
9003	14.783	3.2727	0.	576.33
9004	14.608	3.2727	0.	575.97
9005	14.7	3.2727	5.e-002	11.304
9006	14.7	3.5455	0.	728.05
9007	14.783	3.4545	0.	632.17
9008	14.608	3.4545	0.	627.67
9009	14.7	3.4545	5.e-002	22.175
9010	14.7	3.7273	0.	911.36
9011	14.783	3.6364	0.	727.91
9012	14.608	3.6364	0.	733.3
9013	14.7	3.6364	5.e-002	46.292
9014	14.783	3.8182	0.	823.5
9015	14.608	3.8182	0.	911.86
9016	14.7	3.8182	5.e-002	285.05
9017	14.7	3.9091	0.	1692.
9018	14.867	2.2727	0.	725.81
9019	14.958	2.1818	0.	555.01
9020	14.867	2.1818	5.e-002	244.3
9021	14.867	2.0909	0.	911.2
9022	14.867	2.4545	0.	656.44
9023	14.958	2.3636	0.	571.07
9024	14.867	2.3636	5.e-002	50.828
9025	14.867	2.6364	0.	582.31
9026	14.958	2.5455	0.	517.12
9027	14.867	2.5455	5.e-002	24.265
9028	14.867	2.8182	0.	543.07
9029	14.958	2.7273	0.	487.54
9030	14.867	2.7273	5.e-002	13.551
9031	14.867	3.	0.	530.54
9032	14.958	2.9091	0.	471.88
9033	14.867	2.9091	5.e-002	9.0095
9034	14.867	3.1818	0.	543.07
9035	14.958	3.0909	0.	471.88
9036	14.867	3.0909	5.e-002	9.0095
9037	14.867	3.3636	0.	582.31
9038	14.958	3.2727	0.	487.54
9039	14.867	3.2727	5.e-002	13.551
9040	14.867	3.5455	0.	656.44
9041	14.958	3.4545	0.	517.12
9042	14.867	3.4545	5.e-002	24.265
9043	14.867	3.7273	0.	725.81
9044	14.958	3.6364	0.	571.07
9045	14.867	3.6364	5.e-002	50.828
9046	14.958	3.8182	0.	555.01
9047	14.867	3.8182	5.e-002	244.3
9048	14.867	3.9091	0.	911.2
9049	14.516	5.7273	0.	118.99
9050	14.424	5.8182	0.	56.395
9051	14.516	5.8182	5.e-002	34.834
9052	14.516	5.9091	0.	28.306
9053	14.608	5.8182	0.	37.989
9054	14.516	5.5455	0.	241.38
9055	14.424	5.6364	0.	127.74
9056	14.516	5.6364	5.e-002	31.503
9057	14.608	5.6364	0.	129.09
9058	14.516	5.3636	0.	399.9
9059	14.424	5.4545	0.	250.73
9060	14.516	5.4545	5.e-002	33.201
9061	14.608	5.4545	0.	250.07
9062	14.516	5.1818	0.	585.72
9063	14.424	5.2727	0.	402.84
9064	14.516	5.2727	5.e-002	36.746
9065	14.608	5.2727	0.	392.73
9066	14.516	5.	0.	802.15
9067	14.424	5.0909	0.	579.53
9068	14.516	5.0909	5.e-002	42.132
9069	14.608	5.0909	0.	559.54
9070	14.516	4.8182	0.	1059.1
9071	14.424	4.9091	0.	782.27
9072	14.516	4.9091	5.e-002	49.82
9073	14.608	4.9091	0.	757.64
9074	14.516	4.6364	0.	1370.2
9075	14.424	4.7273	0.	1016.5
9076	14.516	4.7273	5.e-002	61.806
9077	14.608	4.7273	0.	1000.2
9078	14.516	4.4545	0.	1776.5
9079	14.424	4.5455	0.	1280.9
9080	14.516	4.5455	5.e-002	76.96
9081	14.608	4.5455	0.	1316.8
9082	14.516	4.2727	0.	2175.1
9083	14.424	4.3636	0.	1585.3
9084	14.516	4.3636	5.e-002	116.58
9085	14.608	4.3636	0.	1703.9
9086	14.516	4.0909	0.	2024.4
9087	14.424	4.1818	0.	1773.2
9088	14.516	4.1818	5.e-002	223.16
9089	14.608	4.1818	0.	2570.5
9090	14.516	3.9091	0.	1273.7
9091	14.424	4.	0.	1337.
9092	14.516	4.	5.e-002	402.81
9093	14.608	4.	0.	1973.9
9094	14.516	3.7273	0.	786.1
9095	14.424	3.8182	0.	766.21
9096	14.516	3.8182	5.e-002	174.86
9097	14.516	3.5455	0.	646.52
9098	14.424	3.6364	0.	605.99
9099	14.516	3.6364	5.e-002	75.925
9100	14.516	3.3636	0.	575.39
9101	14.424	3.4545	0.	534.81
9102	14.516	3.4545	5.e-002	41.597
9103	14.516	3.1818	0.	543.74
9104	14.424	3.2727	0.	503.24
9105	14.516	3.2727	5.e-002	24.561
9106	14.516	3.	0.	533.43
9107	14.424	3.0909	0.	488.98
9108	14.516	3.0909	5.e-002	18.601
9109	14.516	2.8182	0.	543.74
9110	14.424	2.9091	0.	488.98
9111	14.516	2.9091	5.e-002	18.601
9112	14.516	2.6364	0.	575.39
9113	14.424	2.7273	0.	503.24
9114	14.516	2.7273	5.e-002	24.561
9115	14.516	2.4545	0.	646.52
9116	14.424	2.5455	0.	534.81
9117	14.516	2.5455	5.e-002	41.597
9118	14.516	2.2727	0.	786.1
9119	14.424	2.3636	0.	605.99
9120	14.516	2.3636	5.e-002	75.925
9121	14.516	2.0909	0.	1273.7
9122	14.424	2.1818	0.	766.21
9123	14.516	2.1818	5.e-002	174.86
9124	14.516	1.9091	0.	2024.4
9125	14.424	2.	0.	1337.
9126	14.516	2.	5.e-002	402.81
9127	14.608	2.	0.	1974.
9128	14.516	1.7273	0.	2175.1
9129	14.424	1.8182	0.	1773.2
9130	14.516	1.8182	5.e-002	223.16
9131	14.608	1.8182	0.	2570.5
9132	14.516	1.5455	0.	1776.5
9133	14.424	1.6364	0.	1585.3
9134	14.516	1.6364	5.e-002	116.58
9135	14.608	1.6364	0.	1703.9
9136	14.516	1.3636	0.	1370.2
9137	14.424	1.4545	0.	1280.9
9138	14.516	1.4545	5.e-002	76.96
9139	14.608	1.4545	0.	1316.8
9140	14.516	1.1818	0.	1059.1
9141	14.424	1.2727	0.	1016.5
9142	14.516	1.2727	5.e-002	61.806
9143	14.608	1.2727	0.	1000.2
9144	14.516	1.	0.	802.15
9145	14.424	1.0909	0.	782.27
9146	14.516	1.0909	5.e-002	49.82
9147	14.608	1.0909	0.	757.64
9148	14.516	0.81818	0.	585.72
9149	14.424	0.90909	0.	579.53
9150	14.516	0.90909	5.e-002	42.132
9151	14.608	0.90909	0.	559.54
9152	14.516	0.63636	0.	399.9
9153	14.424	0.72727	0.	402.84
9154	14.516	0.72727	5.e-002	36.746
9155	14.608	0.72727	0.	392.73
9156	14.516	0.45455	0.	241.38
9157	14.424	0.54545	0.	250.73
9158	14.516	0.54545	5.e-002	33.201
9159	14.608	0.54545	0.	250.07
9160	14.516	0.27273	0.	118.99
9161	14.424	0.36364	0.	127.74
9162	14.516	0.36364	5.e-002	31.503
9163	14.608	0.36364	0.	129.09
9164	14.424	0.18182	0.	56.395
9165	14.516	0.18182	5.e-002	34.834
9166	14.516	9.0909e-002	0.	28.306
9167	14.608	0.18182	0.	37.989
9168	14.333	5.7273	0.	79.412
9169	14.241	5.8182	0.	51.587
9170	14.333	5.8182	5.e-002	32.243
9171	14.333	5.9091	0.	23.059
9172	14.333	5.5455	0.	158.76
9173	14.241	5.6364	0.	100.5
9174	14.333	5.6364	5.e-002	28.604
9175	14.333	5.3636	0.	276.5
9176	14.241	5.4545	0.	188.49
9177	14.333	5.4545	5.e-002	28.978
9178	14.333	5.1818	0.	420.11
9179	14.241	5.2727	0.	303.91
9180	14.333	5.2727	5.e-002	30.571
9181	14.333	5.	0.	585.
9182	14.241	5.0909	0.	439.53
9183	14.333	5.0909	5.e-002	33.293
9184	14.333	4.8182	0.	769.32
9185	14.241	4.9091	0.	590.28
9186	14.333	4.9091	5.e-002	37.309
9187	14.333	4.6364	0.	963.92
9188	14.241	4.7273	0.	750.17
9189	14.333	4.7273	5.e-002	42.42
9190	14.333	4.4545	0.	1143.
9191	14.241	4.5455	0.	901.92
9192	14.333	4.5455	5.e-002	51.869
9193	14.333	4.2727	0.	1227.7
9194	14.241	4.3636	0.	1010.9
9195	14.333	4.3636	5.e-002	48.756
9196	14.333	4.0909	0.	1074.1
9197	14.241	4.1818	0.	990.06
9198	14.333	4.1818	5.e-002	69.989
9199	14.333	3.9091	0.	781.42
9200	14.241	4.	0.	770.36
9201	14.333	4.	5.e-002	59.738
9202	14.333	3.7273	0.	572.89
9203	14.241	3.8182	0.	552.66
9204	14.333	3.8182	5.e-002	83.564
9205	14.333	3.5455	0.	489.5
9206	14.241	3.6364	0.	447.18
9207	14.333	3.6364	5.e-002	57.381
9208	14.333	3.3636	0.	460.45
9209	14.241	3.4545	0.	412.59
9210	14.333	3.4545	5.e-002	42.72
9211	14.333	3.1818	0.	446.71
9212	14.241	3.2727	0.	397.69
9213	14.333	3.2727	5.e-002	30.457
9214	14.333	3.	0.	442.8
9215	14.241	3.0909	0.	392.36
9216	14.333	3.0909	5.e-002	25.23
9217	14.333	2.8182	0.	446.71
9218	14.241	2.9091	0.	392.36
9219	14.333	2.9091	5.e-002	25.23
9220	14.333	2.6364	0.	460.45
9221	14.241	2.7273	0.	397.69
9222	14.333	2.7273	5.e-002	30.457
9223	14.333	2.4545	0.	489.5
9224	14.241	2.5455	0.	412.59
9225	14.333	2.5455	5.e-002	42.72
9226	14.333	2.2727	0.	572.89
9227	14.241	2.3636	0.	447.18
9228	14.333	2.3636	5.e-002	57.381
9229	14.333	2.0909	0.	781.42
9230	14.241	2.1818	0.	552.66
9231	14.333	2.1818	5.e-002	83.563
9232	14.333	1.9091	0.	1074.1
9233	14.241	2.	0.	770.36
9234	14.333	2.	5.e-002	59.738
9235	14.333	1.7273	0.	1227.7
9236	14.241	1.8182	0.	990.06
9237	14.333	1.8182	5.e-002	69.989
9238	14.333	1.5455	0.	1143.
9239	14.241	1.6364	0.	1010.9
9240	14.333	1.6364	5.e-002	48.756
9241	14.333	1.3636	0.	963.93
9242	14.241	1.4545	0.	901.92
9243	14.333	1.4545	5.e-002	51.869
9244	14.333	1.1818	0.	769.32
9245	14.241	1.2727	0.	750.17
9246	14.333	1.2727	5.e-002	42.42
9247	14.333	1.	0.	585.
9248	14.241	1.0909	0.	590.28
9249	14.333	1.0909	5.e-002	37.309
9250	14.333	0.81818	0.	420.11
9251	14.241	0.90909	0.	439.53
9252	14.333	0.90909	5.e-002	33.293
9253	14.333	0.63636	0.	276.5
9254	14.241	0.72727	0.	303.91
9255	14.333	0.72727	5.e-002	30.571
9256	14.333	0.45455	0.	158.76
9257	14.241	0.54545	0.	188.49
9258	14.333	0.54545	5.e-002	28.978
9259	14.333	0.27273	0.	79.412
9260	14.241	0.36364	0.	100.5
9261	14.333	0.36364	5.e-002	28.604
9262	14.241	0.18182	0.	51.587
9263	14.333	0.18182	5.e-002	32.243
9264	14.333	9.0909e-002	0.	23.059
9265	14.149	5.7273	0.	76.596
9266	14.057	5.8182	0.	52.908
9267	14.149	5.8182	5.e-002	30.594
9268	14.149	5.9091	0.	25.672
9269	14.149	5.5455	0.	139.26
9270	14.057	5.6364	0.	99.6
9271	14.149	5.6364	5.e-002	27.231
9272	14.149	5.3636	0.	229.
9273	14.057	5.4545	0.	168.86
9274	14.149	5.4545	5.e-002	27.391
9275	14.149	5.1818	0.	338.89
9276	14.057	5.2727	0.	257.03
9277	14.149	5.2727	5.e-002	28.293
9278	14.149	5.	0.	462.29
9279	14.057	5.0909	0.	358.9
9280	14.149	5.0909	5.e-002	29.69
9281	14.149	4.8182	0.	590.51
9282	14.057	4.9091	0.	467.47
9283	14.149	4.9091	5.e-002	31.421
9284	14.149	4.6364	0.	709.01
9285	14.057	4.7273	0.	572.07
9286	14.149	4.7273	5.e-002	32.856
9287	14.149	4.4545	0.	787.88
9288	14.057	4.5455	0.	655.79
9289	14.149	4.5455	5.e-002	32.259
9290	14.149	4.2727	0.	784.32
9291	14.057	4.3636	0.	688.13
9292	14.149	4.3636	5.e-002	31.422
9293	14.149	4.0909	0.	684.59
9294	14.057	4.1818	0.	639.64
9295	14.149	4.1818	5.e-002	28.797
9296	14.149	3.9091	0.	537.25
9297	14.057	4.	0.	524.98
9298	14.149	4.	5.e-002	37.026
9299	14.149	3.7273	0.	421.
9300	14.057	3.8182	0.	405.86
9301	14.149	3.8182	5.e-002	40.139
9302	14.149	3.5455	0.	365.33
9303	14.057	3.6364	0.	335.11
9304	14.149	3.6364	5.e-002	39.783
9305	14.149	3.3636	0.	346.24
9306	14.057	3.4545	0.	306.92
9307	14.149	3.4545	5.e-002	33.682
9308	14.149	3.1818	0.	340.54
9309	14.057	3.2727	0.	297.75
9310	14.149	3.2727	5.e-002	28.795
9311	14.149	3.	0.	339.38
9312	14.057	3.0909	0.	295.41
9313	14.149	3.0909	5.e-002	25.959
9314	14.149	2.8182	0.	340.54
9315	14.057	2.9091	0.	295.41
9316	14.149	2.9091	5.e-002	25.959
9317	14.149	2.6364	0.	346.24
9318	14.057	2.7273	0.	297.75
9319	14.149	2.7273	5.e-002	28.795
9320	14.149	2.4545	0.	365.34
9321	14.057	2.5455	0.	306.92
9322	14.149	2.5455	5.e-002	33.682
9323	14.149	2.2727	0.	421.
9324	14.057	2.3636	0.	335.11
9325	14.149	2.3636	5.e-002	39.782
9326	14.149	2.0909	0.	537.25
9327	14.057	2.1818	0.	405.86
9328	14.149	2.1818	5.e-002	40.139
9329	14.149	1.9091	0.	684.59
9330	14.057	2.	0.	524.98
9331	14.149	2.	5.e-002	37.026
9332	14.149	1.7273	0.	784.32
9333	14.057	1.8182	0.	639.64
9334	14.149	1.8182	5.e-002	28.797
9335	14.149	1.5455	0.	787.88
9336	14.057	1.6364	0.	688.13
9337	14.149	1.6364	5.e-002	31.422
9338	14.149	1.3636	0.	709.01
9339	14.057	1.4545	0.	655.79
9340	14.149	1.4545	5.e-002	32.259
9341	14.149	1.1818	0.	590.51
9342	14.057	1.2727	0.	572.07
9343	14.149	1.2727	5.e-002	32.856
9344	14.149	1.	0.	462.29
9345	14.057	1.0909	0.	467.47
9346	14.149	1.0909	5.e-002	31.421
9347	14.149	0.81818	0.	338.89
9348	14.057	0.90909	0.	358.91
9349	14.149	0.90909	5.e-002	29.69
9350	14.149	0.63636	0.	229.
9351	14.057	0.72727	0.	257.03
9352	14.149	0.72727	5.e-002	28.293
9353	14.149	0.45455	0.	139.26
9354	14.057	0.54545	0.	168.86
9355	14.149	0.54545	5.e-002	27.391
9356	14.149	0.27273	0.	76.596
9357	14.057	0.36364	0.	99.6
9358	14.149	0.36364	5.e-002	27.231
9359	14.057	0.18182	0.	52.908
9360	14.149	0.18182	5.e-002	30.594
9361	14.149	9.0909e-002	0.	25.672
9362	13.965	5.7273	0.	77.647
9363	13.873	5.8182	0.	52.935
9364	13.965	5.8182	5.e-002	28.249
9365	13.965	5.9091	0.	27.32
9366	13.965	5.5455	0.	133.3
9367	13.873	5.6364	0.	100.72
9368	13.965	5.6364	5.e-002	25.093
9369	13.965	5.3636	0.	204.05
9370	13.873	5.4545	0.	159.07
9371	13.965	5.4545	5.e-002	24.994
9372	13.965	5.1818	0.	286.7
9373	13.873	5.2727	0.	227.38
9374	13.965	5.2727	5.e-002	25.24
9375	13.965	5.	0.	375.51
9376	13.873	5.0909	0.	302.4
9377	13.965	5.0909	5.e-002	25.524
9378	13.965	4.8182	0.	461.39
9379	13.873	4.9091	0.	377.8
9380	13.965	4.9091	5.e-002	25.541
9381	13.965	4.6364	0.	530.84
9382	13.873	4.7273	0.	443.97
9383	13.965	4.7273	5.e-002	24.803
9384	13.965	4.4545	0.	565.62
9385	13.873	4.5455	0.	487.65
9386	13.965	4.5455	5.e-002	22.988
9387	13.965	4.2727	0.	548.64
9388	13.873	4.3636	0.	493.67
9389	13.965	4.3636	5.e-002	20.416
9390	13.965	4.0909	0.	481.79
9391	13.873	4.1818	0.	453.79
9392	13.965	4.1818	5.e-002	20.106
9393	13.965	3.9091	0.	393.39
9394	13.873	4.	0.	381.81
9395	13.965	4.	5.e-002	22.905
9396	13.965	3.7273	0.	318.49
9397	13.873	3.8182	0.	307.57
9398	13.965	3.8182	5.e-002	25.249
9399	13.965	3.5455	0.	274.42
9400	13.873	3.6364	0.	255.21
9401	13.965	3.6364	5.e-002	26.116
9402	13.965	3.3636	0.	255.95
9403	13.873	3.4545	0.	228.69
9404	13.965	3.4545	5.e-002	25.373
9405	13.965	3.1818	0.	250.23
9406	13.873	3.2727	0.	218.44
9407	13.965	3.2727	5.e-002	23.993
9408	13.965	3.	0.	249.11
9409	13.873	3.0909	0.	215.42
9410	13.965	3.0909	5.e-002	23.017
9411	13.965	2.8182	0.	250.23
9412	13.873	2.9091	0.	215.42
9413	13.965	2.9091	5.e-002	23.017
9414	13.965	2.6364	0.	255.95
9415	13.873	2.7273	0.	218.44
9416	13.965	2.7273	5.e-002	23.993
9417	13.965	2.4545	0.	274.42
9418	13.873	2.5455	0.	228.69
9419	13.965	2.5455	5.e-002	25.373
9420	13.965	2.2727	0.	318.49
9421	13.873	2.3636	0.	255.21
9422	13.965	2.3636	5.e-002	26.116
9423	13.965	2.0909	0.	393.39
9424	13.873	2.1818	0.	307.57
9425	13.965	2.1818	5.e-002	25.249
9426	13.965	1.9091	0.	481.79
9427	13.873	2.	0.	381.81
9428	13.965	2.	5.e-002	22.905
9429	13.965	1.7273	0.	548.64
9430	13.873	1.8182	0.	453.79
9431	13.965	1.8182	5.e-002	20.106
9432	13.965	1.5455	0.	565.62
9433	13.873	1.6364	0.	493.67
9434	13.965	1.6364	5.e-002	20.416
9435	13.965	1.3636	0.	530.84
9436	13.873	1.4545	0.	487.65
9437	13.965	1.4545	5.e-002	22.988
9438	13.965	1.1818	0.	461.39
9439	13.873	1.2727	0.	443.97
9440	13.965	1.2727	5.e-002	24.803
9441	13.965	1.	0.	375.51
9442	13.873	1.0909	0.	377.8
9443	13.965	1.0909	5.e-002	25.541
9444	13.965	0.81818	0.	286.7
9445	13.873	0.90909	0.	302.4
9446	13.965	0.90909	5.e-002	25.524
9447	13.965	0.63636	0.	204.05
9448	13.873	0.72727	0.	227.38
9449	13.965	0.72727	5.e-002	25.24
9450	13.965	0.45455	0.	133.3
9451	13.873	0.54545	0.	159.07
9452	13.965	0.54545	5.e-002	24.994
9453	13.965	0.27273	0.	77.647
9454	13.873	0.36364	0.	100.72
9455	13.965	0.36364	5.e-002	25.093
9456	13.873	0.18182	0.	52.935
9457	13.965	0.18182	5.e-002	28.249
9458	13.965	9.0909e-002	0.	27.32
9459	13.781	5.7273	0.	77.004
9460	13.689	5.8182	0.	51.229
9461	13.781	5.8182	5.e-002	25.453
9462	13.781	5.9091	0.	27.347
9463	13.781	5.5455	0.	128.67
9464	13.689	5.6364	0.	99.475
9465	13.781	5.6364	5.e-002	22.664
9466	13.781	5.3636	0.	186.42
9467	13.689	5.4545	0.	150.44
9468	13.781	5.4545	5.e-002	22.322
9469	13.781	5.1818	0.	248.84
9470	13.689	5.2727	0.	204.51
9471	13.781	5.2727	5.e-002	22.078
9472	13.781	5.	0.	311.7
9473	13.689	5.0909	0.	259.69
9474	13.781	5.0909	5.e-002	21.645
9475	13.781	4.8182	0.	367.88
9476	13.689	4.9091	0.	311.21
9477	13.781	4.9091	5.e-002	20.793
9478	13.781	4.6364	0.	407.81
9479	13.689	4.7273	0.	352.05
9480	13.781	4.7273	5.e-002	19.319
9481	13.781	4.4545	0.	421.23
9482	13.689	4.5455	0.	373.83
9483	13.781	4.5455	5.e-002	17.23
9484	13.781	4.2727	0.	402.33
9485	13.689	4.3636	0.	369.38
9486	13.781	4.3636	5.e-002	15.323
9487	13.781	4.0909	0.	355.61
9488	13.689	4.1818	0.	338.03
9489	13.781	4.1818	5.e-002	14.945
9490	13.781	3.9091	0.	296.67
9491	13.689	4.	0.	288.71
9492	13.781	4.	5.e-002	15.995
9493	13.781	3.7273	0.	244.15
9494	13.689	3.8182	0.	237.31
9495	13.781	3.8182	5.e-002	17.273
9496	13.781	3.5455	0.	208.62
9497	13.689	3.6364	0.	197.2
9498	13.781	3.6364	5.e-002	18.208
9499	13.781	3.3636	0.	189.83
9500	13.689	3.4545	0.	172.6
9501	13.781	3.4545	5.e-002	18.71
9502	13.781	3.1818	0.	182.05
9503	13.689	3.2727	0.	160.46
9504	13.781	3.2727	5.e-002	18.771
9505	13.781	3.	0.	180.08
9506	13.689	3.0909	0.	155.89
9507	13.781	3.0909	5.e-002	18.691
9508	13.781	2.8182	0.	182.05
9509	13.689	2.9091	0.	155.89
9510	13.781	2.9091	5.e-002	18.691
9511	13.781	2.6364	0.	189.83
9512	13.689	2.7273	0.	160.46
9513	13.781	2.7273	5.e-002	18.771
9514	13.781	2.4545	0.	208.62
9515	13.689	2.5455	0.	172.6
9516	13.781	2.5455	5.e-002	18.71
9517	13.781	2.2727	0.	244.15
9518	13.689	2.3636	0.	197.2
9519	13.781	2.3636	5.e-002	18.208
9520	13.781	2.0909	0.	296.67
9521	13.689	2.1818	0.	237.31
9522	13.781	2.1818	5.e-002	17.273
9523	13.781	1.9091	0.	355.61
9524	13.689	2.	0.	288.71
9525	13.781	2.	5.e-002	15.995
9526	13.781	1.7273	0.	402.33
9527	13.689	1.8182	0.	338.03
9528	13.781	1.8182	5.e-002	14.945
9529	13.781	1.5455	0.	421.23
9530	13.689	1.6364	0.	369.38
9531	13.781	1.6364	5.e-002	15.323
9532	13.781	1.3636	0.	407.81
9533	13.689	1.4545	0.	373.83
9534	13.781	1.4545	5.e-002	17.23
9535	13.781	1.1818	0.	367.88
9536	13.689	1.2727	0.	352.05
9537	13.781	1.2727	5.e-002	19.319
9538	13.781	1.	0.	311.7
9539	13.689	1.0909	0.	311.21
9540	13.781	1.0909	5.e-002	20.793
9541	13.781	0.81818	0.	248.84
9542	13.689	0.90909	0.	259.69
9543	13.781	0.90909	5.e-002	21.645
9544	13.781	0.63636	0.	186.42
9545	13.689	0.72727	0.	204.51
9546	13.781	0.72727	5.e-002	22.078
9547	13.781	0.45455	0.	128.67
9548	13.689	0.54545	0.	150.44
9549	13.781	0.54545	5.e-002	22.322
9550	13.781	0.27273	0.	77.004
9551	13.689	0.36364	0.	99.475
9552	13.781	0.36364	5.e-002	22.664
9553	13.689	0.18182	0.	51.229
9554	13.781	0.18182	5.e-002	25.453
9555	13.781	9.0909e-002	0.	27.347
9556	13.597	5.7273	0.	74.315
9557	13.506	5.8182	0.	48.381
9558	13.597	5.8182	5.e-002	22.468
9559	13.597	5.9091	0.	26.379
9560	13.597	5.5455	0.	122.53
9561	13.506	5.6364	0.	95.59
9562	13.597	5.6364	5.e-002	20.185
9563	13.597	5.3636	0.	170.88
9564	13.506	5.4545	0.	140.73
9565	13.597	5.4545	5.e-002	19.677
9566	13.597	5.1818	0.	218.76
9567	13.506	5.2727	0.	184.43
9568	13.597	5.2727	5.e-002	19.136
9569	13.597	5.	0.	263.37
9570	13.506	5.0909	0.	225.5
9571	13.597	5.0909	5.e-002	18.34
9572	13.597	4.8182	0.	299.82
9573	13.506	4.9091	0.	260.7
9574	13.597	4.9091	5.e-002	17.168
9575	13.597	4.6364	0.	322.2
9576	13.506	4.7273	0.	285.53
9577	13.597	4.7273	5.e-002	15.576
9578	13.597	4.4545	0.	325.3
9579	13.506	4.5455	0.	295.24
9580	13.597	4.5455	5.e-002	13.75
9581	13.597	4.2727	0.	307.39
9582	13.506	4.3636	0.	286.86
9583	13.597	4.3636	5.e-002	12.207
9584	13.597	4.0909	0.	272.54
9585	13.506	4.1818	0.	261.44
9586	13.597	4.1818	5.e-002	11.541
9587	13.597	3.9091	0.	230.11
9588	13.506	4.	0.	225.08
9589	13.597	4.	5.e-002	11.733
9590	13.597	3.7273	0.	190.59
9591	13.506	3.8182	0.	186.86
9592	13.597	3.8182	5.e-002	12.323
9593	13.597	3.5455	0.	160.91
9594	13.506	3.6364	0.	154.72
9595	13.597	3.6364	5.e-002	13.013
9596	13.597	3.3636	0.	142.56
9597	13.506	3.4545	0.	132.4
9598	13.597	3.4545	5.e-002	13.652
9599	13.597	3.1818	0.	133.38
9600	13.506	3.2727	0.	119.49
9601	13.597	3.2727	5.e-002	14.099
9602	13.597	3.	0.	130.69
9603	13.506	3.0909	0.	113.86
9604	13.597	3.0909	5.e-002	14.312
9605	13.597	2.8182	0.	133.38
9606	13.506	2.9091	0.	113.86
9607	13.597	2.9091	5.e-002	14.312
9608	13.597	2.6364	0.	142.56
9609	13.506	2.7273	0.	119.49
9610	13.597	2.7273	5.e-002	14.099
9611	13.597	2.4545	0.	160.91
9612	13.506	2.5455	0.	132.4
9613	13.597	2.5455	5.e-002	13.652
9614	13.597	2.2727	0.	190.59
9615	13.506	2.3636	0.	154.72
9616	13.597	2.3636	5.e-002	13.013
9617	13.597	2.0909	0.	230.11
9618	13.506	2.1818	0.	186.86
9619	13.597	2.1818	5.e-002	12.323
9620	13.597	1.9091	0.	272.55
9621	13.506	2.	0.	225.08
9622	13.597	2.	5.e-002	11.733
9623	13.597	1.7273	0.	307.39
9624	13.506	1.8182	0.	261.44
9625	13.597	1.8182	5.e-002	11.541
9626	13.597	1.5455	0.	325.3
9627	13.506	1.6364	0.	286.86
9628	13.597	1.6364	5.e-002	12.207
9629	13.597	1.3636	0.	322.2
9630	13.506	1.4545	0.	295.24
9631	13.597	1.4545	5.e-002	13.75
9632	13.597	1.1818	0.	299.82
9633	13.506	1.2727	0.	285.53
9634	13.597	1.2727	5.e-002	15.576
9635	13.597	1.	0.	263.37
9636	13.506	1.0909	0.	260.7
9637	13.597	1.0909	5.e-002	17.168
9638	13.597	0.81818	0.	218.77
9639	13.506	0.90909	0.	225.5
9640	13.597	0.90909	5.e-002	18.34
9641	13.597	0.63636	0.	170.88
9642	13.506	0.72727	0.	184.43
9643	13.597	0.72727	5.e-002	19.136
9644	13.597	0.45455	0.	122.53
9645	13.506	0.54545	0.	140.73
9646	13.597	0.54545	5.e-002	19.677
9647	13.597	0.27273	0.	74.315
9648	13.506	0.36364	0.	95.59
9649	13.597	0.36364	5.e-002	20.185
9650	13.506	0.18182	0.	48.381
9651	13.597	0.18182	5.e-002	22.468
9652	13.597	9.0909e-002	0.	26.379
9653	13.414	5.7273	0.	70.022
9654	13.322	5.8182	0.	44.89
9655	13.414	5.8182	5.e-002	19.505
9656	13.414	5.9091	0.	24.826
9657	13.414	5.5455	0.	114.59
9658	13.322	5.6364	0.	89.692
9659	13.414	5.6364	5.e-002	17.825
9660	13.414	5.3636	0.	155.7
9661	13.322	5.4545	0.	129.77
9662	13.414	5.4545	5.e-002	17.245
9663	13.414	5.1818	0.	193.19
9664	13.322	5.2727	0.	165.71
9665	13.414	5.2727	5.e-002	16.565
9666	13.414	5.	0.	225.3
9667	13.322	5.0909	0.	196.87
9668	13.414	5.0909	5.e-002	15.644
9669	13.414	4.8182	0.	249.02
9670	13.322	4.9091	0.	221.22
9671	13.414	4.9091	5.e-002	14.434
9672	13.414	4.6364	0.	261.01
9673	13.322	4.7273	0.	236.13
9674	13.414	4.7273	5.e-002	12.967
9675	13.414	4.4545	0.	258.81
9676	13.322	4.5455	0.	239.16
9677	13.414	4.5455	5.e-002	11.407
9678	13.414	4.2727	0.	242.39
9679	13.322	4.3636	0.	229.33
9680	13.414	4.3636	5.e-002	10.066
9681	13.414	4.0909	0.	214.96
9682	13.322	4.1818	0.	208.13
9683	13.414	4.1818	5.e-002	9.225
9684	13.414	3.9091	0.	182.42
9685	13.322	4.	0.	179.72
9686	13.414	4.	5.e-002	8.9265
9687	13.414	3.7273	0.	151.26
9688	13.322	3.8182	0.	149.77
9689	13.414	3.8182	5.e-002	9.0158
9690	13.414	3.5455	0.	126.17
9691	13.322	3.6364	0.	123.36
9692	13.414	3.6364	5.e-002	9.3528
9693	13.414	3.3636	0.	109.02
9694	13.322	3.4545	0.	103.5
9695	13.414	3.4545	5.e-002	9.803
9696	13.414	3.1818	0.	99.478
9697	13.322	3.2727	0.	90.876
9698	13.414	3.2727	5.e-002	10.21
9699	13.414	3.	0.	96.468
9700	13.322	3.0909	0.	84.901
9701	13.414	3.0909	5.e-002	10.443
9702	13.414	2.8182	0.	99.478
9703	13.322	2.9091	0.	84.901
9704	13.414	2.9091	5.e-002	10.443
9705	13.414	2.6364	0.	109.02
9706	13.322	2.7273	0.	90.876
9707	13.414	2.7273	5.e-002	10.21
9708	13.414	2.4545	0.	126.17
9709	13.322	2.5455	0.	103.5
9710	13.414	2.5455	5.e-002	9.803
9711	13.414	2.2727	0.	151.26
9712	13.322	2.3636	0.	123.36
9713	13.414	2.3636	5.e-002	9.3528
9714	13.414	2.0909	0.	182.42
9715	13.322	2.1818	0.	149.77
9716	13.414	2.1818	5.e-002	9.0158
9717	13.414	1.9091	0.	214.96
9718	13.322	2.	0.	179.73
9719	13.414	2.	5.e-002	8.9265
9720	13.414	1.7273	0.	242.39
9721	13.322	1.8182	0.	208.13
9722	13.414	1.8182	5.e-002	9.225
9723	13.414	1.5455	0.	258.81
9724	13.322	1.6364	0.	229.33
9725	13.414	1.6364	5.e-002	10.066
9726	13.414	1.3636	0.	261.01
9727	13.322	1.4545	0.	239.16
9728	13.414	1.4545	5.e-002	11.407
9729	13.414	1.1818	0.	249.02
9730	13.322	1.2727	0.	236.13
9731	13.414	1.2727	5.e-002	12.967
9732	13.414	1.	0.	225.3
9733	13.322	1.0909	0.	221.22
9734	13.414	1.0909	5.e-002	14.434
9735	13.414	0.81818	0.	193.19
9736	13.322	0.90909	0.	196.87
9737	13.414	0.90909	5.e-002	15.644
9738	13.414	0.63636	0.	155.7
9739	13.322	0.72727	0.	165.71
9740	13.414	0.72727	5.e-002	16.565
9741	13.414	0.45455	0.	114.59
9742	13.322	0.54545	0.	129.77
9743	13.414	0.54545	5.e-002	17.245
9744	13.414	0.27273	0.	70.022
9745	13.322	0.36364	0.	89.692
9746	13.414	0.36364	5.e-002	17.825
9747	13.322	0.18182	0.	44.89
9748	13.414	0.18182	5.e-002	19.505
9749	13.414	9.0909e-002	0.	24.826
9750	13.23	5.7273	0.	64.752
9751	13.138	5.8182	0.	41.153
9752	13.23	5.8182	5.e-002	16.714
9753	13.23	5.9091	0.	23.006
9754	13.23	5.5455	0.	105.38
9755	13.138	5.6364	0.	82.572
9756	13.23	5.6364	5.e-002	15.682
9757	13.23	5.3636	0.	140.65
9758	13.138	5.4545	0.	118.05
9759	13.23	5.4545	5.e-002	15.105
9760	13.23	5.1818	0.	170.61
9761	13.138	5.2727	0.	148.02
9762	13.23	5.2727	5.e-002	14.396
9763	13.23	5.	0.	194.24
9764	13.138	5.0909	0.	172.19
9765	13.23	5.0909	5.e-002	13.484
9766	13.23	4.8182	0.	209.86
9767	13.138	4.9091	0.	189.39
9768	13.23	4.9091	5.e-002	12.362
9769	13.23	4.6364	0.	215.72
9770	13.138	4.7273	0.	198.22
9771	13.23	4.7273	5.e-002	11.078
9772	13.23	4.4545	0.	210.9
9773	13.138	4.5455	0.	197.62
9774	13.23	4.5455	5.e-002	9.7491
9775	13.23	4.2727	0.	196.01
9776	13.138	4.3636	0.	187.54
9777	13.23	4.3636	5.e-002	8.5452
9778	13.23	4.0909	0.	173.56
9779	13.138	4.1818	0.	169.48
9780	13.23	4.1818	5.e-002	7.6136
9781	13.23	3.9091	0.	147.49
9782	13.138	4.	0.	146.4
9783	13.23	4.	5.e-002	7.0101
9784	13.23	3.7273	0.	122.09
9785	13.138	3.8182	0.	122.08
9786	13.23	3.8182	5.e-002	6.7162
9787	13.23	3.5455	0.	100.72
9788	13.138	3.6364	0.	100.01
9789	13.23	3.6364	5.e-002	6.6904
9790	13.23	3.3636	0.	85.215
9791	13.138	3.4545	0.	82.58
9792	13.23	3.4545	5.e-002	6.8554
9793	13.23	3.1818	0.	76.045
9794	13.138	3.2727	0.	70.881
9795	13.23	3.2727	5.e-002	7.0798
9796	13.23	3.	0.	73.037
9797	13.138	3.0909	0.	65.087
9798	13.23	3.0909	5.e-002	7.2309
9799	13.23	2.8182	0.	76.045
9800	13.138	2.9091	0.	65.087
9801	13.23	2.9091	5.e-002	7.2309
9802	13.23	2.6364	0.	85.215
9803	13.138	2.7273	0.	70.881
9804	13.23	2.7273	5.e-002	7.0798
9805	13.23	2.4545	0.	100.72
9806	13.138	2.5455	0.	82.58
9807	13.23	2.5455	5.e-002	6.8554
9808	13.23	2.2727	0.	122.09
9809	13.138	2.3636	0.	100.01
9810	13.23	2.3636	5.e-002	6.6904
9811	13.23	2.0909	0.	147.49
9812	13.138	2.1818	0.	122.08
9813	13.23	2.1818	5.e-002	6.7162
9814	13.23	1.9091	0.	173.56
9815	13.138	2.	0.	146.4
9816	13.23	2.	5.e-002	7.0101
9817	13.23	1.7273	0.	196.01
9818	13.138	1.8182	0.	169.48
9819	13.23	1.8182	5.e-002	7.6136
9820	13.23	1.5455	0.	210.9
9821	13.138	1.6364	0.	187.54
9822	13.23	1.6364	5.e-002	8.5452
9823	13.23	1.3636	0.	215.72
9824	13.138	1.4545	0.	197.62
9825	13.23	1.4545	5.e-002	9.7491
9826	13.23	1.1818	0.	209.86
9827	13.138	1.2727	0.	198.22
9828	13.23	1.2727	5.e-002	11.078
9829	13.23	1.	0.	194.24
9830	13.138	1.0909	0.	189.39
9831	13.23	1.0909	5.e-002	12.362
9832	13.23	0.81818	0.	170.61
9833	13.138	0.90909	0.	172.19
9834	13.23	0.90909	5.e-002	13.484
9835	13.23	0.63636	0.	140.65
9836	13.138	0.72727	0.	148.02
9837	13.23	0.72727	5.e-002	14.396
9838	13.23	0.45455	0.	105.38
9839	13.138	0.54545	0.	118.05
9840	13.23	0.54545	5.e-002	15.104
9841	13.23	0.27273	0.	64.752
9842	13.138	0.36364	0.	82.572
9843	13.23	0.36364	5.e-002	15.682
9844	13.138	0.18182	0.	41.153
9845	13.23	0.18182	5.e-002	16.714
9846	13.23	9.0909e-002	0.	23.006
9847	13.046	5.7273	0.	59.045
9848	12.954	5.8182	0.	37.439
9849	13.046	5.8182	5.e-002	14.181
9850	13.046	5.9091	0.	21.124
9851	13.046	5.5455	0.	95.558
9852	12.954	5.6364	0.	74.912
9853	13.046	5.6364	5.e-002	13.798
9854	13.046	5.3636	0.	125.96
9855	12.954	5.4545	0.	106.14
9856	13.046	5.4545	5.e-002	13.275
9857	13.046	5.1818	0.	150.34
9858	12.954	5.2727	0.	131.4
9859	13.046	5.2727	5.e-002	12.602
9860	13.046	5.	0.	168.19
9861	12.954	5.0909	0.	150.56
9862	13.046	5.0909	5.e-002	11.765
9863	13.046	4.8182	0.	178.65
9864	12.954	4.9091	0.	163.03
9865	13.046	4.9091	5.e-002	10.775
9866	13.046	4.6364	0.	180.97
9867	12.954	4.7273	0.	168.17
9868	13.046	4.7273	5.e-002	9.6741
9869	13.046	4.4545	0.	174.99
9870	12.954	4.5455	0.	165.69
9871	13.046	4.5455	5.e-002	8.5374
9872	13.046	4.2727	0.	161.59
9873	12.954	4.3636	0.	155.98
9874	13.046	4.3636	5.e-002	7.4557
9875	13.046	4.0909	0.	142.75
9876	12.954	4.1818	0.	140.42
9877	13.046	4.1818	5.e-002	6.5041
9878	13.046	3.9091	0.	121.27
9879	12.954	4.	0.	121.2
9880	13.046	4.	5.e-002	5.7249
9881	13.046	3.7273	0.	100.15
9882	12.954	3.8182	0.	101.01
9883	13.046	3.8182	5.e-002	5.1421
9884	13.046	3.5455	0.	81.909
9885	12.954	3.6364	0.	82.397
9886	13.046	3.6364	5.e-002	4.7774
9887	13.046	3.3636	0.	68.193
9888	12.954	3.4545	0.	67.274
9889	13.046	3.4545	5.e-002	4.6236
9890	13.046	3.1818	0.	59.8
9891	12.954	3.2727	0.	56.794
9892	13.046	3.2727	5.e-002	4.6126
9893	13.046	3.	0.	56.988
9894	12.954	3.0909	0.	51.471
9895	13.046	3.0909	5.e-002	4.6425
9896	13.046	2.8182	0.	59.801
9897	12.954	2.9091	0.	51.471
9898	13.046	2.9091	5.e-002	4.6425
9899	13.046	2.6364	0.	68.194
9900	12.954	2.7273	0.	56.794
9901	13.046	2.7273	5.e-002	4.6126
9902	13.046	2.4545	0.	81.909
9903	12.954	2.5455	0.	67.275
9904	13.046	2.5455	5.e-002	4.6237
9905	13.046	2.2727	0.	100.15
9906	12.954	2.3636	0.	82.397
9907	13.046	2.3636	5.e-002	4.7774
9908	13.046	2.0909	0.	121.27
9909	12.954	2.1818	0.	101.01
9910	13.046	2.1818	5.e-002	5.1421
9911	13.046	1.9091	0.	142.75
9912	12.954	2.	0.	121.2
9913	13.046	2.	5.e-002	5.7249
9914	13.046	1.7273	0.	161.59
9915	12.954	1.8182	0.	140.42
9916	13.046	1.8182	5.e-002	6.5041
9917	13.046	1.5455	0.	174.99
9918	12.954	1.6364	0.	155.98
9919	13.046	1.6364	5.e-002	7.4557
9920	13.046	1.3636	0.	180.97
9921	12.954	1.4545	0.	165.69
9922	13.046	1.4545	5.e-002	8.5374
9923	13.046	1.1818	0.	178.65
9924	12.954	1.2727	0.	168.17
9925	13.046	1.2727	5.e-002	9.6741
9926	13.046	1.	0.	168.19
9927	12.954	1.0909	0.	163.03
9928	13.046	1.0909	5.e-002	10.775
9929	13.046	0.81818	0.	150.34
9930	12.954	0.90909	0.	150.56
9931	13.046	0.90909	5.e-002	11.765
9932	13.046	0.63636	0.	125.96
9933	12.954	0.72727	0.	131.4
9934	13.046	0.72727	5.e-002	12.602
9935	13.046	0.45455	0.	95.558
9936	12.954	0.54545	0.	106.14
9937	13.046	0.54545	5.e-002	13.275
9938	13.046	0.27273	0.	59.045
9939	12.954	0.36364	0.	74.912
9940	13.046	0.36364	5.e-002	13.798
9941	12.954	0.18182	0.	37.439
9942	13.046	0.18182	5.e-002	14.181
9943	13.046	9.0909e-002	0.	21.124
9944	12.863	5.7273	0.	53.301
9945	12.771	5.8182	0.	33.917
9946	12.863	5.8182	5.e-002	11.945
9947	12.863	5.9091	0.	19.305
9948	12.863	5.5455	0.	85.693
9949	12.771	5.6364	0.	67.219
9950	12.863	5.6364	5.e-002	12.181
9951	12.863	5.3636	0.	111.92
9952	12.771	5.4545	0.	94.542
9953	12.863	5.4545	5.e-002	11.74
9954	12.863	5.1818	0.	132.06
9955	12.771	5.2727	0.	115.96
9956	12.863	5.2727	5.e-002	11.135
9957	12.863	5.	0.	145.9
9958	12.771	5.0909	0.	131.44
9959	12.863	5.0909	5.e-002	10.399
9960	12.863	4.8182	0.	153.08
9961	12.771	4.9091	0.	140.74
9962	12.863	4.9091	5.e-002	9.5485
9963	12.863	4.6364	0.	153.4
9964	12.771	4.7273	0.	143.67
9965	12.863	4.7273	5.e-002	8.6147
9966	12.863	4.4545	0.	147.12
9967	12.771	4.5455	0.	140.33
9968	12.863	4.5455	5.e-002	7.6434
9969	12.863	4.2727	0.	135.16
9970	12.771	4.3636	0.	131.33
9971	12.863	4.3636	5.e-002	6.6821
9972	12.863	4.0909	0.	119.13
9973	12.771	4.1818	0.	117.85
9974	12.863	4.1818	5.e-002	5.7667
9975	12.863	3.9091	0.	101.13
9976	12.771	4.	0.	101.64
9977	12.863	4.	5.e-002	4.9185
9978	12.863	3.7273	0.	83.371
9979	12.771	3.8182	0.	84.681
9980	12.863	3.8182	5.e-002	4.1567
9981	12.863	3.5455	0.	67.806
9982	12.771	3.6364	0.	68.91
9983	12.863	3.6364	5.e-002	3.5131
9984	12.863	3.3636	0.	55.861
9985	12.771	3.4545	0.	55.893
9986	12.863	3.4545	5.e-002	3.029
9987	12.863	3.1818	0.	48.41
9988	12.771	3.2727	0.	46.707
9989	12.863	3.2727	5.e-002	2.7273
9990	12.863	3.	0.	45.883
9991	12.771	3.0909	0.	41.977
9992	12.863	3.0909	5.e-002	2.5915
9993	12.863	2.8182	0.	48.41
9994	12.771	2.9091	0.	41.977
9995	12.863	2.9091	5.e-002	2.5915
9996	12.863	2.6364	0.	55.861
9997	12.771	2.7273	0.	46.707
9998	12.863	2.7273	5.e-002	2.7273
9999	12.863	2.4545	0.	67.806
10000	12.771	2.5455	0.	55.893
10001	12.863	2.5455	5.e-002	3.029
10002	12.863	2.2727	0.	83.371
10003	12.771	2.3636	0.	68.91
10004	12.863	2.3636	5.e-002	3.5131
10005	12.863	2.0909	0.	101.13
10006	12.771	2.1818	0.	84.681
10007	12.863	2.1818	5.e-002	4.1567
10008	12.863	1.9091	0.	119.13
10009	12.771	2.	0.	101.64
10010	12.863	2.	5.e-002	4.9186
10011	12.863	1.7273	0.	135.16
10012	12.771	1.8182	0.	117.85
10013	12.863	1.8182	5.e-002	5.7667
10014	12.863	1.5455	0.	147.12
10015	12.771	1.6364	0.	131.33
10016	12.863	1.6364	5.e-002	6.6821
10017	12.863	1.3636	0.	153.4
10018	12.771	1.4545	0.	140.33
10019	12.863	1.4545	5.e-002	7.6434
10020	12.863	1.1818	0.	153.08
10021	12.771	1.2727	0.	143.67
10022	12.863	1.2727	5.e-002	8.6147
10023	12.863	1.	0.	145.9
10024	12.771	1.0909	0.	140.74
10025	12.863	1.0909	5.e-002	9.5485
10026	12.863	0.81818	0.	132.06
10027	12.771	0.90909	0.	131.44
10028	12.863	0.90909	5.e-002	10.399
10029	12.863	0.63636	0.	111.92
10030	12.771	0.72727	0.	115.96
10031	12.863	0.72727	5.e-002	11.135
10032	12.863	0.45455	0.	85.693
10033	12.771	0.54545	0.	94.543
10034	12.863	0.54545	5.e-002	11.74
10035	12.863	0.27273	0.	53.301
10036	12.771	0.36364	0.	67.219
10037	12.863	0.36364	5.e-002	12.181
10038	12.771	0.18182	0.	33.917
10039	12.863	0.18182	5.e-002	11.945
10040	12.863	9.0909e-002	0.	19.305
10041	12.679	5.7273	0.	47.782
10042	12.587	5.8182	0.	30.675
10043	12.679	5.8182	5.e-002	10.01
10044	12.679	5.9091	0.	17.617
10045	12.679	5.5455	0.	76.183
10046	12.587	5.6364	0.	59.83
10047	12.679	5.6364	5.e-002	10.818
10048	12.679	5.3636	0.	98.782
10049	12.587	5.4545	0.	83.573
10050	12.679	5.4545	5.e-002	10.47
10051	12.679	5.1818	0.	115.6
10052	12.587	5.2727	0.	101.79
10053	12.679	5.2727	5.e-002	9.9462
10054	12.679	5.	0.	126.59
10055	12.587	5.0909	0.	114.5
10056	12.679	5.0909	5.e-002	9.3155
10057	12.679	4.8182	0.	131.65
10058	12.587	4.9091	0.	121.63
10059	12.679	4.9091	5.e-002	8.5958
10060	12.679	4.6364	0.	130.91
10061	12.587	4.7273	0.	123.24
10062	12.679	4.7273	5.e-002	7.8095
10063	12.679	4.4545	0.	124.8
10064	12.587	4.5455	0.	119.64
10065	12.679	4.5455	5.e-002	6.9839
10066	12.679	4.2727	0.	114.23
10067	12.587	4.3636	0.	111.49
10068	12.679	4.3636	5.e-002	6.1438
10069	12.679	4.0909	0.	100.52
10070	12.587	4.1818	0.	99.838
10071	12.679	4.1818	5.e-002	5.3055
10072	12.679	3.9091	0.	85.305
10073	12.587	4.	0.	86.07
10074	12.679	4.	5.e-002	4.4763
10075	12.679	3.7273	0.	70.292
10076	12.587	3.8182	0.	71.742
10077	12.679	3.8182	5.e-002	3.6609
10078	12.679	3.5455	0.	57.031
10079	12.587	3.6364	0.	58.367
10080	12.679	3.6364	5.e-002	2.8697
10081	12.679	3.3636	0.	46.741
10082	12.587	3.4545	0.	47.232
10083	12.679	3.4545	5.e-002	2.1239
10084	12.679	3.1818	0.	40.252
10085	12.587	3.2727	0.	39.298
10086	12.679	3.2727	5.e-002	1.4653
10087	12.679	3.	0.	38.038
10088	12.587	3.0909	0.	35.181
10089	12.679	3.0909	5.e-002	1.0075
10090	12.679	2.8182	0.	40.252
10091	12.587	2.9091	0.	35.181
10092	12.679	2.9091	5.e-002	1.0075
10093	12.679	2.6364	0.	46.741
10094	12.587	2.7273	0.	39.298
10095	12.679	2.7273	5.e-002	1.4654
10096	12.679	2.4545	0.	57.031
10097	12.587	2.5455	0.	47.233
10098	12.679	2.5455	5.e-002	2.1239
10099	12.679	2.2727	0.	70.292
10100	12.587	2.3636	0.	58.367
10101	12.679	2.3636	5.e-002	2.8697
10102	12.679	2.0909	0.	85.305
10103	12.587	2.1818	0.	71.742
10104	12.679	2.1818	5.e-002	3.6609
10105	12.679	1.9091	0.	100.52
10106	12.587	2.	0.	86.071
10107	12.679	2.	5.e-002	4.4763
10108	12.679	1.7273	0.	114.23
10109	12.587	1.8182	0.	99.838
10110	12.679	1.8182	5.e-002	5.3055
10111	12.679	1.5455	0.	124.8
10112	12.587	1.6364	0.	111.49
10113	12.679	1.6364	5.e-002	6.1438
10114	12.679	1.3636	0.	130.91
10115	12.587	1.4545	0.	119.65
10116	12.679	1.4545	5.e-002	6.9839
10117	12.679	1.1818	0.	131.65
10118	12.587	1.2727	0.	123.24
10119	12.679	1.2727	5.e-002	7.8095
10120	12.679	1.	0.	126.59
10121	12.587	1.0909	0.	121.63
10122	12.679	1.0909	5.e-002	8.5958
10123	12.679	0.81818	0.	115.6
10124	12.587	0.90909	0.	114.5
10125	12.679	0.90909	5.e-002	9.3155
10126	12.679	0.63636	0.	98.783
10127	12.587	0.72727	0.	101.79
10128	12.679	0.72727	5.e-002	9.9462
10129	12.679	0.45455	0.	76.183
10130	12.587	0.54545	0.	83.573
10131	12.679	0.54545	5.e-002	10.47
10132	12.679	0.27273	0.	47.782
10133	12.587	0.36364	0.	59.83
10134	12.679	0.36364	5.e-002	10.818
10135	12.587	0.18182	0.	30.675
10136	12.679	0.18182	5.e-002	10.01
10137	12.679	9.0909e-002	0.	17.617
10138	12.495	5.7273	0.	42.642
10139	12.403	5.8182	0.	27.748
10140	12.495	5.8182	5.e-002	8.3608
10141	12.495	5.9091	0.	16.089
10142	12.495	5.5455	0.	67.281
10143	12.403	5.6364	0.	52.942
10144	12.495	5.6364	5.e-002	9.6829
10145	12.495	5.3636	0.	86.7
10146	12.403	5.4545	0.	73.433
10147	12.495	5.4545	5.e-002	9.4286
10148	12.495	5.1818	0.	100.84
10149	12.403	5.2727	0.	88.936
10150	12.495	5.2727	5.e-002	8.987
10151	12.495	5.	0.	109.72
10152	12.403	5.0909	0.	99.476
10153	12.495	5.0909	5.e-002	8.4562
10154	12.495	4.8182	0.	113.41
10155	12.403	4.9091	0.	105.08
10156	12.495	4.9091	5.e-002	7.8541
10157	12.495	4.6364	0.	112.16
10158	12.403	4.7273	0.	105.92
10159	12.495	4.7273	5.e-002	7.1966
10160	12.495	4.4545	0.	106.49
10161	12.403	4.5455	0.	102.39
10162	12.495	4.5455	5.e-002	6.5004
10163	12.495	4.2727	0.	97.225
10164	12.403	4.3636	0.	95.146
10165	12.495	4.3636	5.e-002	5.7794
10166	12.495	4.0909	0.	85.485
10167	12.403	4.1818	0.	85.098
10168	12.495	4.1818	5.e-002	5.042
10169	12.495	3.9091	0.	72.578
10170	12.403	4.	0.	73.385
10171	12.495	4.	5.e-002	4.2913
10172	12.495	3.7273	0.	59.863
10173	12.403	3.8182	0.	61.253
10174	12.495	3.8182	5.e-002	3.5287
10175	12.495	3.5455	0.	48.593
10176	12.403	3.6364	0.	49.916
10177	12.495	3.6364	5.e-002	2.7575
10178	12.495	3.3636	0.	39.796
10179	12.403	3.4545	0.	40.44
10180	12.495	3.4545	5.e-002	1.9848
10181	12.495	3.1818	0.	34.218
10182	12.403	3.2727	0.	33.653
10183	12.495	3.2727	5.e-002	1.2234
10184	12.495	3.	0.	32.309
10185	12.403	3.0909	0.	30.117
10186	12.495	3.0909	5.e-002	0.52916
10187	12.495	2.8182	0.	34.218
10188	12.403	2.9091	0.	30.117
10189	12.495	2.9091	5.e-002	0.52916
10190	12.495	2.6364	0.	39.796
10191	12.403	2.7273	0.	33.654
10192	12.495	2.7273	5.e-002	1.2234
10193	12.495	2.4545	0.	48.593
10194	12.403	2.5455	0.	40.441
10195	12.495	2.5455	5.e-002	1.9848
10196	12.495	2.2727	0.	59.863
10197	12.403	2.3636	0.	49.917
10198	12.495	2.3636	5.e-002	2.7575
10199	12.495	2.0909	0.	72.578
10200	12.403	2.1818	0.	61.253
10201	12.495	2.1818	5.e-002	3.5287
10202	12.495	1.9091	0.	85.485
10203	12.403	2.	0.	73.385
10204	12.495	2.	5.e-002	4.2913
10205	12.495	1.7273	0.	97.225
10206	12.403	1.8182	0.	85.098
10207	12.495	1.8182	5.e-002	5.042
10208	12.495	1.5455	0.	106.49
10209	12.403	1.6364	0.	95.146
10210	12.495	1.6364	5.e-002	5.7794
10211	12.495	1.3636	0.	112.16
10212	12.403	1.4545	0.	102.39
10213	12.495	1.4545	5.e-002	6.5004
10214	12.495	1.1818	0.	113.41
10215	12.403	1.2727	0.	105.92
10216	12.495	1.2727	5.e-002	7.1966
10217	12.495	1.	0.	109.72
10218	12.403	1.0909	0.	105.08
10219	12.495	1.0909	5.e-002	7.8541
10220	12.495	0.81818	0.	100.84
10221	12.403	0.90909	0.	99.476
10222	12.495	0.90909	5.e-002	8.4561
10223	12.495	0.63636	0.	86.7
10224	12.403	0.72727	0.	88.936
10225	12.495	0.72727	5.e-002	8.987
10226	12.495	0.45455	0.	67.281
10227	12.403	0.54545	0.	73.433
10228	12.495	0.54545	5.e-002	9.4286
10229	12.495	0.27273	0.	42.642
10230	12.403	0.36364	0.	52.943
10231	12.495	0.36364	5.e-002	9.6829
10232	12.403	0.18182	0.	27.748
10233	12.495	0.18182	5.e-002	8.3607
10234	12.495	9.0909e-002	0.	16.089
10235	12.311	5.7273	0.	37.955
10236	12.219	5.8182	0.	25.139
10237	12.311	5.8182	5.e-002	6.9718
10238	12.311	5.9091	0.	14.727
10239	12.311	5.5455	0.	59.121
10240	12.219	5.6364	0.	46.656
10241	12.311	5.6364	5.e-002	8.7477
10242	12.311	5.3636	0.	75.736
10243	12.219	5.4545	0.	64.212
10244	12.311	5.4545	5.e-002	8.5814
10245	12.311	5.1818	0.	87.661
10246	12.219	5.2727	0.	77.38
10247	12.311	5.2727	5.e-002	8.2166
10248	12.311	5.	0.	94.936
10249	12.219	5.0909	0.	86.171
10250	12.311	5.0909	5.e-002	7.7758
10251	12.311	4.8182	0.	97.698
10252	12.219	4.9091	0.	90.65
10253	12.311	4.9091	5.e-002	7.2766
10254	12.311	4.6364	0.	96.259
10255	12.219	4.7273	0.	91.045
10256	12.311	4.7273	5.e-002	6.7306
10257	12.311	4.4545	0.	91.142
10258	12.219	4.5455	0.	87.761
10259	12.311	4.5455	5.e-002	6.1489
10260	12.311	4.2727	0.	83.093
10261	12.219	4.3636	0.	81.404
10262	12.311	4.3636	5.e-002	5.5407
10263	12.311	4.0909	0.	73.055
10264	12.219	4.1818	0.	72.773
10265	12.311	4.1818	5.e-002	4.9123
10266	12.311	3.9091	0.	62.101
10267	12.219	4.	0.	62.812
10268	12.311	4.	5.e-002	4.268
10269	12.311	3.7273	0.	51.334
10270	12.219	3.8182	0.	52.538
10271	12.311	3.8182	5.e-002	3.6139
10272	12.311	3.5455	0.	41.78
10273	12.219	3.6364	0.	42.944
10274	12.311	3.6364	5.e-002	2.9614
10275	12.311	3.3636	0.	34.303
10276	12.219	3.4545	0.	34.911
10277	12.311	3.4545	5.e-002	2.3348
10278	12.311	3.1818	0.	29.549
10279	12.219	3.2727	0.	29.144
10280	12.311	3.2727	5.e-002	1.7865
10281	12.311	3.	0.	27.918
10282	12.219	3.0909	0.	26.133
10283	12.311	3.0909	5.e-002	1.4312
10284	12.311	2.8182	0.	29.549
10285	12.219	2.9091	0.	26.133
10286	12.311	2.9091	5.e-002	1.4312
10287	12.311	2.6364	0.	34.303
10288	12.219	2.7273	0.	29.144
10289	12.311	2.7273	5.e-002	1.7865
10290	12.311	2.4545	0.	41.78
10291	12.219	2.5455	0.	34.911
10292	12.311	2.5455	5.e-002	2.3348
10293	12.311	2.2727	0.	51.334
10294	12.219	2.3636	0.	42.944
10295	12.311	2.3636	5.e-002	2.9614
10296	12.311	2.0909	0.	62.102
10297	12.219	2.1818	0.	52.538
10298	12.311	2.1818	5.e-002	3.6139
10299	12.311	1.9091	0.	73.056
10300	12.219	2.	0.	62.812
10301	12.311	2.	5.e-002	4.268
10302	12.311	1.7273	0.	83.093
10303	12.219	1.8182	0.	72.773
10304	12.311	1.8182	5.e-002	4.9123
10305	12.311	1.5455	0.	91.142
10306	12.219	1.6364	0.	81.404
10307	12.311	1.6364	5.e-002	5.5407
10308	12.311	1.3636	0.	96.259
10309	12.219	1.4545	0.	87.761
10310	12.311	1.4545	5.e-002	6.149
10311	12.311	1.1818	0.	97.698
10312	12.219	1.2727	0.	91.045
10313	12.311	1.2727	5.e-002	6.7306
10314	12.311	1.	0.	94.936
10315	12.219	1.0909	0.	90.65
10316	12.311	1.0909	5.e-002	7.2766
10317	12.311	0.81818	0.	87.662
10318	12.219	0.90909	0.	86.171
10319	12.311	0.90909	5.e-002	7.7758
10320	12.311	0.63636	0.	75.736
10321	12.219	0.72727	0.	77.38
10322	12.311	0.72727	5.e-002	8.2166
10323	12.311	0.45455	0.	59.122
10324	12.219	0.54545	0.	64.212
10325	12.311	0.54545	5.e-002	8.5814
10326	12.311	0.27273	0.	37.955
10327	12.219	0.36364	0.	46.656
10328	12.311	0.36364	5.e-002	8.7477
10329	12.219	0.18182	0.	25.139
10330	12.311	0.18182	5.e-002	6.9718
10331	12.311	9.0909e-002	0.	14.727
10332	12.127	5.7273	0.	33.742
10333	12.036	5.8182	0.	22.828
10334	12.127	5.8182	5.e-002	5.8122
10335	12.127	5.9091	0.	13.52
10336	12.127	5.5455	0.	51.752
10337	12.036	5.6364	0.	40.999
10338	12.127	5.6364	5.e-002	7.9835
10339	12.127	5.3636	0.	65.89
10340	12.036	5.4545	0.	55.926
10341	12.127	5.4545	5.e-002	7.8963
10342	12.127	5.1818	0.	75.941
10343	12.036	5.2727	0.	67.065
10344	12.127	5.2727	5.e-002	7.6002
10345	12.127	5.	0.	81.945
10346	12.036	5.0909	0.	74.404
10347	12.127	5.0909	5.e-002	7.2381
10348	12.127	4.8182	0.	84.059
10349	12.036	4.9091	0.	78.022
10350	12.127	4.9091	5.e-002	6.8275
10351	12.127	4.6364	0.	82.605
10352	12.036	4.7273	0.	78.151
10353	12.127	4.7273	5.e-002	6.3773
10354	12.127	4.4545	0.	78.074
10355	12.036	4.5455	0.	75.181
10356	12.127	4.5455	5.e-002	5.8959
10357	12.127	4.2727	0.	71.126
10358	12.036	4.3636	0.	69.657
10359	12.127	4.3636	5.e-002	5.3904
10360	12.127	4.0909	0.	62.562
10361	12.036	4.1818	0.	62.268
10362	12.127	4.1818	5.e-002	4.8672
10363	12.127	3.9091	0.	53.273
10364	12.036	4.	0.	53.807
10365	12.127	4.	5.e-002	4.3332
10366	12.127	3.7273	0.	44.164
10367	12.036	3.8182	0.	45.113
10368	12.127	3.8182	5.e-002	3.7986
10369	12.127	3.5455	0.	36.084
10370	12.036	3.6364	0.	37.005
10371	12.127	3.6364	5.e-002	3.2808
10372	12.127	3.3636	0.	29.754
10373	12.036	3.4545	0.	30.215
10374	12.127	3.4545	5.e-002	2.8097
10375	12.127	3.1818	0.	25.725
10376	12.036	3.2727	0.	25.336
10377	12.127	3.2727	5.e-002	2.4332
10378	12.127	3.	0.	24.342
10379	12.036	3.0909	0.	22.787
10380	12.127	3.0909	5.e-002	2.2169
10381	12.127	2.8182	0.	25.725
10382	12.036	2.9091	0.	22.787
10383	12.127	2.9091	5.e-002	2.2169
10384	12.127	2.6364	0.	29.754
10385	12.036	2.7273	0.	25.336
10386	12.127	2.7273	5.e-002	2.4332
10387	12.127	2.4545	0.	36.084
10388	12.036	2.5455	0.	30.215
10389	12.127	2.5455	5.e-002	2.8097
10390	12.127	2.2727	0.	44.164
10391	12.036	2.3636	0.	37.005
10392	12.127	2.3636	5.e-002	3.2808
10393	12.127	2.0909	0.	53.273
10394	12.036	2.1818	0.	45.113
10395	12.127	2.1818	5.e-002	3.7986
10396	12.127	1.9091	0.	62.562
10397	12.036	2.	0.	53.807
10398	12.127	2.	5.e-002	4.3332
10399	12.127	1.7273	0.	71.126
10400	12.036	1.8182	0.	62.268
10401	12.127	1.8182	5.e-002	4.8672
10402	12.127	1.5455	0.	78.074
10403	12.036	1.6364	0.	69.657
10404	12.127	1.6364	5.e-002	5.3904
10405	12.127	1.3636	0.	82.605
10406	12.036	1.4545	0.	75.181
10407	12.127	1.4545	5.e-002	5.8959
10408	12.127	1.1818	0.	84.059
10409	12.036	1.2727	0.	78.151
10410	12.127	1.2727	5.e-002	6.3773
10411	12.127	1.	0.	81.945
10412	12.036	1.0909	0.	78.022
10413	12.127	1.0909	5.e-002	6.8275
10414	12.127	0.81818	0.	75.941
10415	12.036	0.90909	0.	74.404
10416	12.127	0.90909	5.e-002	7.2381
10417	12.127	0.63636	0.	65.891
10418	12.036	0.72727	0.	67.065
10419	12.127	0.72727	5.e-002	7.6002
10420	12.127	0.45455	0.	51.752
10421	12.036	0.54545	0.	55.926
10422	12.127	0.54545	5.e-002	7.8963
10423	12.127	0.27273	0.	33.742
10424	12.036	0.36364	0.	40.999
10425	12.127	0.36364	5.e-002	7.9835
10426	12.036	0.18182	0.	22.828
10427	12.127	0.18182	5.e-002	5.8122
10428	12.127	9.0909e-002	0.	13.52
10429	11.944	5.7273	0.	29.988
10430	11.852	5.8182	0.	20.787
10431	11.944	5.8182	5.e-002	4.851
10432	11.944	5.9091	0.	12.456
10433	11.944	5.5455	0.	45.165
10434	11.852	5.6364	0.	35.956
10435	11.944	5.6364	5.e-002	7.3637
10436	11.944	5.3636	0.	57.114
10437	11.852	5.4545	0.	48.541
10438	11.944	5.4545	5.e-002	7.3451
10439	11.944	5.1818	0.	65.554
10440	11.852	5.2727	0.	57.902
10441	11.944	5.2727	5.e-002	7.1086
10442	11.944	5.	0.	70.514
10443	11.852	5.0909	0.	64.008
10444	11.944	5.0909	5.e-002	6.8141
10445	11.944	4.8182	0.	72.148
10446	11.852	4.9091	0.	66.932
10447	11.944	4.9091	5.e-002	6.4788
10448	11.944	4.6364	0.	70.759
10449	11.852	4.7273	0.	66.893
10450	11.944	4.7273	5.e-002	6.1104
10451	11.944	4.4545	0.	66.791
10452	11.852	4.5455	0.	64.244
10453	11.944	4.5455	5.e-002	5.7154
10454	11.944	4.2727	0.	60.821
10455	11.852	4.3636	0.	59.469
10456	11.944	4.3636	5.e-002	5.3004
10457	11.944	4.0909	0.	53.529
10458	11.852	4.1818	0.	53.157
10459	11.944	4.1818	5.e-002	4.8722
10460	11.944	3.9091	0.	45.659
10461	11.852	4.	0.	45.975
10462	11.944	4.	5.e-002	4.439
10463	11.944	3.7273	0.	37.961
10464	11.852	3.8182	0.	38.623
10465	11.944	3.8182	5.e-002	4.0126
10466	11.944	3.5455	0.	31.139
10467	11.852	3.6364	0.	31.778
10468	11.944	3.6364	5.e-002	3.611
10469	11.944	3.3636	0.	25.796
10470	11.852	3.4545	0.	26.049
10471	11.944	3.4545	5.e-002	3.26
10472	11.944	3.1818	0.	22.393
10473	11.852	3.2727	0.	21.932
10474	11.944	3.2727	5.e-002	2.9933
10475	11.944	3.	0.	21.226
10476	11.852	3.0909	0.	19.782
10477	11.944	3.0909	5.e-002	2.8473
10478	11.944	2.8182	0.	22.393
10479	11.852	2.9091	0.	19.782
10480	11.944	2.9091	5.e-002	2.8473
10481	11.944	2.6364	0.	25.796
10482	11.852	2.7273	0.	21.932
10483	11.944	2.7273	5.e-002	2.9933
10484	11.944	2.4545	0.	31.139
10485	11.852	2.5455	0.	26.049
10486	11.944	2.5455	5.e-002	3.26
10487	11.944	2.2727	0.	37.961
10488	11.852	2.3636	0.	31.778
10489	11.944	2.3636	5.e-002	3.611
10490	11.944	2.0909	0.	45.659
10491	11.852	2.1818	0.	38.623
10492	11.944	2.1818	5.e-002	4.0126
10493	11.944	1.9091	0.	53.529
10494	11.852	2.	0.	45.975
10495	11.944	2.	5.e-002	4.439
10496	11.944	1.7273	0.	60.821
10497	11.852	1.8182	0.	53.157
10498	11.944	1.8182	5.e-002	4.8722
10499	11.944	1.5455	0.	66.791
10500	11.852	1.6364	0.	59.469
10501	11.944	1.6364	5.e-002	5.3004
10502	11.944	1.3636	0.	70.759
10503	11.852	1.4545	0.	64.244
10504	11.944	1.4545	5.e-002	5.7154
10505	11.944	1.1818	0.	72.148
10506	11.852	1.2727	0.	66.893
10507	11.944	1.2727	5.e-002	6.1104
10508	11.944	1.	0.	70.514
10509	11.852	1.0909	0.	66.932
10510	11.944	1.0909	5.e-002	6.4788
10511	11.944	0.81818	0.	65.554
10512	11.852	0.90909	0.	64.008
10513	11.944	0.90909	5.e-002	6.8141
10514	11.944	0.63636	0.	57.114
10515	11.852	0.72727	0.	57.902
10516	11.944	0.72727	5.e-002	7.1086
10517	11.944	0.45455	0.	45.165
10518	11.852	0.54545	0.	48.541
10519	11.944	0.54545	5.e-002	7.3451
10520	11.944	0.27273	0.	29.988
10521	11.852	0.36364	0.	35.957
10522	11.944	0.36364	5.e-002	7.3637
10523	11.852	0.18182	0.	20.787
10524	11.944	0.18182	5.e-002	4.851
10525	11.944	9.0909e-002	0.	12.456
10526	11.76	5.7273	0.	26.661
10527	11.668	5.8182	0.	18.984
10528	11.76	5.8182	5.e-002	4.059
10529	11.76	5.9091	0.	11.514
10530	11.76	5.5455	0.	39.316
10531	11.668	5.6364	0.	31.487
10532	11.76	5.6364	5.e-002	6.8643
10533	11.76	5.3636	0.	49.33
10534	11.668	5.4545	0.	41.992
10535	11.76	5.4545	5.e-002	6.9042
10536	11.76	5.1818	0.	56.366
10537	11.668	5.2727	0.	49.787
10538	11.76	5.2727	5.e-002	6.7182
10539	11.76	5.	0.	60.441
10540	11.668	5.0909	0.	54.823
10541	11.76	5.0909	5.e-002	6.4807
10542	11.76	4.8182	0.	61.693
10543	11.668	4.9091	0.	57.161
10544	11.76	4.9091	5.e-002	6.2089
10545	11.76	4.6364	0.	60.393
10546	11.668	4.7273	0.	56.997
10547	11.76	4.7273	5.e-002	5.9094
10548	11.76	4.4545	0.	56.935
10549	11.668	4.5455	0.	54.644
10550	11.76	4.5455	5.e-002	5.588
10551	11.76	4.2727	0.	51.815
10552	11.668	4.3636	0.	50.519
10553	11.76	4.3636	5.e-002	5.2507
10554	11.76	4.0909	0.	45.61
10555	11.668	4.1818	0.	45.127
10556	11.76	4.1818	5.e-002	4.9043
10557	11.76	3.9091	0.	38.943
10558	11.668	4.	0.	39.029
10559	11.76	4.	5.e-002	4.5574
10560	11.76	3.7273	0.	32.441
10561	11.668	3.8182	0.	32.809
10562	11.76	3.8182	5.e-002	4.2213
10563	11.76	3.5455	0.	26.686
10564	11.668	3.6364	0.	27.03
10565	11.76	3.6364	5.e-002	3.9116
10566	11.76	3.3636	0.	22.182
10567	11.668	3.4545	0.	22.199
10568	11.76	3.4545	5.e-002	3.6483
10569	11.76	3.1818	0.	19.314
10570	11.668	3.2727	0.	18.729
10571	11.76	3.2727	5.e-002	3.4541
10572	11.76	3.	0.	18.33
10573	11.668	3.0909	0.	16.917
10574	11.76	3.0909	5.e-002	3.3503
10575	11.76	2.8182	0.	19.314
10576	11.668	2.9091	0.	16.917
10577	11.76	2.9091	5.e-002	3.3503
10578	11.76	2.6364	0.	22.182
10579	11.668	2.7273	0.	18.729
10580	11.76	2.7273	5.e-002	3.4541
10581	11.76	2.4545	0.	26.686
10582	11.668	2.5455	0.	22.199
10583	11.76	2.5455	5.e-002	3.6483
10584	11.76	2.2727	0.	32.441
10585	11.668	2.3636	0.	27.03
10586	11.76	2.3636	5.e-002	3.9116
10587	11.76	2.0909	0.	38.944
10588	11.668	2.1818	0.	32.809
10589	11.76	2.1818	5.e-002	4.2213
10590	11.76	1.9091	0.	45.61
10591	11.668	2.	0.	39.029
10592	11.76	2.	5.e-002	4.5574
10593	11.76	1.7273	0.	51.815
10594	11.668	1.8182	0.	45.127
10595	11.76	1.8182	5.e-002	4.9043
10596	11.76	1.5455	0.	56.935
10597	11.668	1.6364	0.	50.519
10598	11.76	1.6364	5.e-002	5.2507
10599	11.76	1.3636	0.	60.394
10600	11.668	1.4545	0.	54.644
10601	11.76	1.4545	5.e-002	5.588
10602	11.76	1.1818	0.	61.693
10603	11.668	1.2727	0.	56.997
10604	11.76	1.2727	5.e-002	5.9094
10605	11.76	1.	0.	60.441
10606	11.668	1.0909	0.	57.161
10607	11.76	1.0909	5.e-002	6.2089
10608	11.76	0.81818	0.	56.366
10609	11.668	0.90909	0.	54.823
10610	11.76	0.90909	5.e-002	6.4806
10611	11.76	0.63636	0.	49.33
10612	11.668	0.72727	0.	49.787
10613	11.76	0.72727	5.e-002	6.7182
10614	11.76	0.45455	0.	39.316
10615	11.668	0.54545	0.	41.993
10616	11.76	0.54545	5.e-002	6.9042
10617	11.76	0.27273	0.	26.661
10618	11.668	0.36364	0.	31.487
10619	11.76	0.36364	5.e-002	6.8643
10620	11.668	0.18182	0.	18.984
10621	11.76	0.18182	5.e-002	4.0589
10622	11.76	9.0909e-002	0.	11.514
10623	11.576	5.7273	0.	23.719
10624	11.484	5.8182	0.	17.384
10625	11.576	5.8182	5.e-002	3.4097
10626	11.576	5.9091	0.	10.678
10627	11.576	5.5455	0.	34.142
10628	11.484	5.6364	0.	27.535
10629	11.576	5.6364	5.e-002	6.4646
10630	11.576	5.3636	0.	42.443
10631	11.484	5.4545	0.	36.2
10632	11.576	5.4545	5.e-002	6.5532
10633	11.576	5.1818	0.	48.244
10634	11.484	5.2727	0.	42.608
10635	11.576	5.2727	5.e-002	6.4094
10636	11.576	5.	0.	51.547
10637	11.484	5.0909	0.	46.699
10638	11.576	5.0909	5.e-002	6.2195
10639	11.576	4.8182	0.	52.471
10640	11.484	4.9091	0.	48.521
10641	11.576	4.9091	5.e-002	6.0008
10642	11.576	4.6364	0.	51.252
10643	11.484	4.7273	0.	48.244
10644	11.576	4.7273	5.e-002	5.759
10645	11.576	4.4545	0.	48.231
10646	11.484	4.5455	0.	46.137
10647	11.576	4.5455	5.e-002	5.4993
10648	11.576	4.2727	0.	43.833
10649	11.484	4.3636	0.	42.56
10650	11.576	4.3636	5.e-002	5.2273
10651	11.576	4.0909	0.	38.546
10652	11.484	4.1818	0.	37.941
10653	11.576	4.1818	5.e-002	4.9495
10654	11.576	3.9091	0.	32.893
10655	11.484	4.	0.	32.751
10656	11.576	4.	5.e-002	4.6737
10657	11.576	3.7273	0.	27.395
10658	11.484	3.8182	0.	27.478
10659	11.576	3.8182	5.e-002	4.4102
10660	11.576	3.5455	0.	22.538
10661	11.484	3.6364	0.	22.592
10662	11.576	3.6364	5.e-002	4.1714
10663	11.576	3.3636	0.	18.74
10664	11.484	3.4545	0.	18.514
10665	11.576	3.4545	5.e-002	3.9721
10666	11.576	3.1818	0.	16.325
10667	11.484	3.2727	0.	15.588
10668	11.576	3.2727	5.e-002	3.8278
10669	11.576	3.	0.	15.496
10670	11.484	3.0909	0.	14.06
10671	11.576	3.0909	5.e-002	3.7517
10672	11.576	2.8182	0.	16.325
10673	11.484	2.9091	0.	14.06
10674	11.576	2.9091	5.e-002	3.7517
10675	11.576	2.6364	0.	18.74
10676	11.484	2.7273	0.	15.588
10677	11.576	2.7273	5.e-002	3.8278
10678	11.576	2.4545	0.	22.538
10679	11.484	2.5455	0.	18.514
10680	11.576	2.5455	5.e-002	3.9721
10681	11.576	2.2727	0.	27.395
10682	11.484	2.3636	0.	22.592
10683	11.576	2.3636	5.e-002	4.1714
10684	11.576	2.0909	0.	32.893
10685	11.484	2.1818	0.	27.478
10686	11.576	2.1818	5.e-002	4.4102
10687	11.576	1.9091	0.	38.546
10688	11.484	2.	0.	32.751
10689	11.576	2.	5.e-002	4.6737
10690	11.576	1.7273	0.	43.833
10691	11.484	1.8182	0.	37.941
10692	11.576	1.8182	5.e-002	4.9495
10693	11.576	1.5455	0.	48.231
10694	11.484	1.6364	0.	42.56
10695	11.576	1.6364	5.e-002	5.2273
10696	11.576	1.3636	0.	51.253
10697	11.484	1.4545	0.	46.137
10698	11.576	1.4545	5.e-002	5.4993
10699	11.576	1.1818	0.	52.471
10700	11.484	1.2727	0.	48.244
10701	11.576	1.2727	5.e-002	5.759
10702	11.576	1.	0.	51.547
10703	11.484	1.0909	0.	48.521
10704	11.576	1.0909	5.e-002	6.0008
10705	11.576	0.81818	0.	48.244
10706	11.484	0.90909	0.	46.699
10707	11.576	0.90909	5.e-002	6.2195
10708	11.576	0.63636	0.	42.443
10709	11.484	0.72727	0.	42.608
10710	11.576	0.72727	5.e-002	6.4094
10711	11.576	0.45455	0.	34.142
10712	11.484	0.54545	0.	36.2
10713	11.576	0.54545	5.e-002	6.5532
10714	11.576	0.27273	0.	23.719
10715	11.484	0.36364	0.	27.535
10716	11.576	0.36364	5.e-002	6.4646
10717	11.484	0.18182	0.	17.384
10718	11.576	0.18182	5.e-002	3.4097
10719	11.576	9.0909e-002	0.	10.678
10720	11.392	5.7273	0.	21.114
10721	11.301	5.8182	0.	15.956
10722	11.392	5.8182	5.e-002	2.8802
10723	11.392	5.9091	0.	9.9303
10724	11.392	5.5455	0.	29.569
10725	11.301	5.6364	0.	24.041
10726	11.392	5.6364	5.e-002	6.1469
10727	11.392	5.3636	0.	36.353
10728	11.301	5.4545	0.	31.075
10729	11.392	5.4545	5.e-002	6.2757
10730	11.392	5.1818	0.	41.056
10731	11.301	5.2727	0.	36.25
10732	11.392	5.2727	5.e-002	6.1666
10733	11.392	5.	0.	43.67
10734	11.301	5.0909	0.	39.494
10735	11.392	5.0909	5.e-002	6.016
10736	11.392	4.8182	0.	44.293
10737	11.301	4.9091	0.	40.846
10738	11.392	4.9091	5.e-002	5.8412
10739	11.392	4.6364	0.	43.127
10740	11.301	4.7273	0.	40.447
10741	11.392	4.7273	5.e-002	5.6472
10742	11.392	4.4545	0.	40.464
10743	11.301	4.5455	0.	38.53
10744	11.392	4.5455	5.e-002	5.4388
10745	11.392	4.2727	0.	36.665
10746	11.301	4.3636	0.	35.398
10747	11.392	4.3636	5.e-002	5.2209
10748	11.392	4.0909	0.	32.141
10749	11.301	4.1818	0.	31.414
10750	11.392	4.1818	5.e-002	4.9994
10751	11.392	3.9091	0.	27.331
10752	11.301	4.	0.	26.975
10753	11.392	4.	5.e-002	4.7813
10754	11.392	3.7273	0.	22.669
10755	11.301	3.8182	0.	22.486
10756	11.392	3.8182	5.e-002	4.5751
10757	11.392	3.5455	0.	18.561
10758	11.301	3.6364	0.	18.34
10759	11.392	3.6364	5.e-002	4.3906
10760	11.392	3.3636	0.	15.353
10761	11.301	3.4545	0.	14.887
10762	11.392	3.4545	5.e-002	4.2387
10763	11.392	3.1818	0.	13.314
10764	11.301	3.2727	0.	12.413
10765	11.392	3.2727	5.e-002	4.13
10766	11.392	3.	0.	12.615
10767	11.301	3.0909	0.	11.122
10768	11.392	3.0909	5.e-002	4.0731
10769	11.392	2.8182	0.	13.314
10770	11.301	2.9091	0.	11.122
10771	11.392	2.9091	5.e-002	4.0731
10772	11.392	2.6364	0.	15.353
10773	11.301	2.7273	0.	12.413
10774	11.392	2.7273	5.e-002	4.1299
10775	11.392	2.4545	0.	18.561
10776	11.301	2.5455	0.	14.887
10777	11.392	2.5455	5.e-002	4.2387
10778	11.392	2.2727	0.	22.669
10779	11.301	2.3636	0.	18.34
10780	11.392	2.3636	5.e-002	4.3906
10781	11.392	2.0909	0.	27.331
10782	11.301	2.1818	0.	22.486
10783	11.392	2.1818	5.e-002	4.5751
10784	11.392	1.9091	0.	32.141
10785	11.301	2.	0.	26.975
10786	11.392	2.	5.e-002	4.7813
10787	11.392	1.7273	0.	36.665
10788	11.301	1.8182	0.	31.414
10789	11.392	1.8182	5.e-002	4.9994
10790	11.392	1.5455	0.	40.464
10791	11.301	1.6364	0.	35.398
10792	11.392	1.6364	5.e-002	5.2209
10793	11.392	1.3636	0.	43.127
10794	11.301	1.4545	0.	38.53
10795	11.392	1.4545	5.e-002	5.4388
10796	11.392	1.1818	0.	44.293
10797	11.301	1.2727	0.	40.447
10798	11.392	1.2727	5.e-002	5.6472
10799	11.392	1.	0.	43.67
10800	11.301	1.0909	0.	40.846
10801	11.392	1.0909	5.e-002	5.8412
10802	11.392	0.81818	0.	41.056
10803	11.301	0.90909	0.	39.494
10804	11.392	0.90909	5.e-002	6.016
10805	11.392	0.63636	0.	36.353
10806	11.301	0.72727	0.	36.25
10807	11.392	0.72727	5.e-002	6.1666
10808	11.392	0.45455	0.	29.569
10809	11.301	0.54545	0.	31.075
10810	11.392	0.54545	5.e-002	6.2757
10811	11.392	0.27273	0.	21.114
10812	11.301	0.36364	0.	24.041
10813	11.392	0.36364	5.e-002	6.1469
10814	11.301	0.18182	0.	15.956
10815	11.392	0.18182	5.e-002	2.8802
10816	11.392	9.0909e-002	0.	9.9303
10817	11.209	5.7273	0.	18.799
10818	11.117	5.8182	0.	14.671
10819	11.209	5.8182	5.e-002	2.4509
10820	11.209	5.9091	0.	9.2547
10821	11.209	5.5455	0.	25.522
10822	11.117	5.6364	0.	20.941
10823	11.209	5.6364	5.e-002	5.8964
10824	11.209	5.3636	0.	30.957
10825	11.117	5.4545	0.	26.531
10826	11.209	5.4545	5.e-002	6.0577
10827	11.209	5.1818	0.	34.677
10828	11.117	5.2727	0.	30.601
10829	11.209	5.2727	5.e-002	5.9769
10830	11.209	5.	0.	36.662
10831	11.117	5.0909	0.	33.077
10832	11.209	5.0909	5.e-002	5.8585
10833	11.209	4.8182	0.	36.994
10834	11.117	4.9091	0.	33.987
10835	11.209	4.9091	5.e-002	5.7198
10836	11.209	4.6364	0.	35.845
10837	11.117	4.7273	0.	33.449
10838	11.209	4.7273	5.e-002	5.5652
10839	11.209	4.4545	0.	33.459
10840	11.117	4.5455	0.	31.66
10841	11.209	4.5455	5.e-002	5.3989
10842	11.209	4.2727	0.	30.142
10843	11.117	4.3636	0.	28.876
10844	11.209	4.3636	5.e-002	5.2253
10845	11.209	4.0909	0.	26.241
10846	11.117	4.1818	0.	25.402
10847	11.209	4.1818	5.e-002	5.0496
10848	11.209	3.9091	0.	22.123
10849	11.117	4.	0.	21.571
10850	11.209	4.	5.e-002	4.8777
10851	11.209	3.7273	0.	18.149
10852	11.117	3.8182	0.	17.723
10853	11.209	3.8182	5.e-002	4.7165
10854	11.209	3.5455	0.	14.658
10855	11.117	3.6364	0.	14.183
10856	11.209	3.6364	5.e-002	4.5736
10857	11.209	3.3636	0.	11.937
10858	11.117	3.4545	0.	11.243
10859	11.209	3.4545	5.e-002	4.4571
10860	11.209	3.1818	0.	10.21
10861	11.117	3.2727	0.	9.1394
10862	11.209	3.2727	5.e-002	4.3744
10863	11.209	3.	0.	9.6177
10864	11.117	3.0909	0.	8.043
10865	11.209	3.0909	5.e-002	4.3314
10866	11.209	2.8182	0.	10.21
10867	11.117	2.9091	0.	8.0431
10868	11.209	2.9091	5.e-002	4.3314
10869	11.209	2.6364	0.	11.937
10870	11.117	2.7273	0.	9.1394
10871	11.209	2.7273	5.e-002	4.3744
10872	11.209	2.4545	0.	14.658
10873	11.117	2.5455	0.	11.243
10874	11.209	2.5455	5.e-002	4.4571
10875	11.209	2.2727	0.	18.149
10876	11.117	2.3636	0.	14.183
10877	11.209	2.3636	5.e-002	4.5736
10878	11.209	2.0909	0.	22.123
10879	11.117	2.1818	0.	17.723
10880	11.209	2.1818	5.e-002	4.7164
10881	11.209	1.9091	0.	26.241
10882	11.117	2.	0.	21.571
10883	11.209	2.	5.e-002	4.8777
10884	11.209	1.7273	0.	30.142
10885	11.117	1.8182	0.	25.402
10886	11.209	1.8182	5.e-002	5.0496
10887	11.209	1.5455	0.	33.459
10888	11.117	1.6364	0.	28.876
10889	11.209	1.6364	5.e-002	5.2253
10890	11.209	1.3636	0.	35.845
10891	11.117	1.4545	0.	31.66
10892	11.209	1.4545	5.e-002	5.3988
10893	11.209	1.1818	0.	36.994
10894	11.117	1.2727	0.	33.449
10895	11.209	1.2727	5.e-002	5.5652
10896	11.209	1.	0.	36.662
10897	11.117	1.0909	0.	33.987
10898	11.209	1.0909	5.e-002	5.7197
10899	11.209	0.81818	0.	34.677
10900	11.117	0.90909	0.	33.077
10901	11.209	0.90909	5.e-002	5.8585
10902	11.209	0.63636	0.	30.957
10903	11.117	0.72727	0.	30.602
10904	11.209	0.72727	5.e-002	5.9769
10905	11.209	0.45455	0.	25.522
10906	11.117	0.54545	0.	26.531
10907	11.209	0.54545	5.e-002	6.0577
10908	11.209	0.27273	0.	18.8
10909	11.117	0.36364	0.	20.941
10910	11.209	0.36364	5.e-002	5.8964
10911	11.117	0.18182	0.	14.671
10912	11.209	0.18182	5.e-002	2.4508
10913	11.209	9.0909e-002	0.	9.2548
10914	11.025	5.7273	0.	16.732
10915	10.933	5.8182	0.	13.503
10916	11.025	5.8182	5.e-002	2.1053
10917	11.025	5.9091	0.	8.6376
10918	11.025	5.5455	0.	21.926
10919	10.933	5.6364	0.	18.179
10920	11.025	5.6364	5.e-002	5.7006
10921	11.025	5.3636	0.	26.159
10922	10.933	5.4545	0.	22.483
10923	11.025	5.4545	5.e-002	5.888
10924	11.025	5.1818	0.	28.989
10925	10.933	5.2727	0.	25.558
10926	11.025	5.2727	5.e-002	5.83
10927	11.025	5.	0.	30.391
10928	10.933	5.0909	0.	27.328
10929	11.025	5.0909	5.e-002	5.7379
10930	11.025	4.8182	0.	30.433
10931	10.933	4.9091	0.	27.813
10932	11.025	4.9091	5.e-002	5.6285
10933	11.025	4.6364	0.	29.256
10934	10.933	4.7273	0.	27.112
10935	11.025	4.7273	5.e-002	5.5061
10936	11.025	4.4545	0.	27.069
10937	10.933	4.5455	0.	25.389
10938	11.025	4.5455	5.e-002	5.3742
10939	11.025	4.2727	0.	24.128
10940	10.933	4.3636	0.	22.862
10941	11.025	4.3636	5.e-002	5.2366
10942	11.025	4.0909	0.	20.724
10943	10.933	4.1818	0.	19.785
10944	11.025	4.1818	5.e-002	5.0978
10945	11.025	3.9091	0.	17.163
10946	10.933	4.	0.	16.437
10947	11.025	4.	5.e-002	4.9627
10948	11.025	3.7273	0.	13.747
10949	10.933	3.8182	0.	13.102
10950	11.025	3.8182	5.e-002	4.8367
10951	11.025	3.5455	0.	10.758
10952	10.933	3.6364	0.	10.051
10953	11.025	3.6364	5.e-002	4.7259
10954	11.025	3.3636	0.	8.4344
10955	10.933	3.4545	0.	7.5262
10956	11.025	3.4545	5.e-002	4.6361
10957	11.025	3.1818	0.	6.9613
10958	10.933	3.2727	0.	5.7236
10959	11.025	3.2727	5.e-002	4.5728
10960	11.025	3.	0.	6.4565
10961	10.933	3.0909	0.	4.7847
10962	11.025	3.0909	5.e-002	4.54
10963	11.025	2.8182	0.	6.9613
10964	10.933	2.9091	0.	4.7847
10965	11.025	2.9091	5.e-002	4.54
10966	11.025	2.6364	0.	8.4345
10967	10.933	2.7273	0.	5.7236
10968	11.025	2.7273	5.e-002	4.5728
10969	11.025	2.4545	0.	10.758
10970	10.933	2.5455	0.	7.5262
10971	11.025	2.5455	5.e-002	4.6361
10972	11.025	2.2727	0.	13.747
10973	10.933	2.3636	0.	10.051
10974	11.025	2.3636	5.e-002	4.7259
10975	11.025	2.0909	0.	17.163
10976	10.933	2.1818	0.	13.102
10977	11.025	2.1818	5.e-002	4.8367
10978	11.025	1.9091	0.	20.724
10979	10.933	2.	0.	16.437
10980	11.025	2.	5.e-002	4.9626
10981	11.025	1.7273	0.	24.128
10982	10.933	1.8182	0.	19.785
10983	11.025	1.8182	5.e-002	5.0978
10984	11.025	1.5455	0.	27.069
10985	10.933	1.6364	0.	22.862
10986	11.025	1.6364	5.e-002	5.2366
10987	11.025	1.3636	0.	29.256
10988	10.933	1.4545	0.	25.389
10989	11.025	1.4545	5.e-002	5.3742
10990	11.025	1.1818	0.	30.433
10991	10.933	1.2727	0.	27.112
10992	11.025	1.2727	5.e-002	5.5061
10993	11.025	1.	0.	30.391
10994	10.933	1.0909	0.	27.813
10995	11.025	1.0909	5.e-002	5.6285
10996	11.025	0.81818	0.	28.989
10997	10.933	0.90909	0.	27.328
10998	11.025	0.90909	5.e-002	5.7378
10999	11.025	0.63636	0.	26.159
11000	10.933	0.72727	0.	25.558
11001	11.025	0.72727	5.e-002	5.83
11002	11.025	0.45455	0.	21.926
11003	10.933	0.54545	0.	22.483
11004	11.025	0.54545	5.e-002	5.888
11005	11.025	0.27273	0.	16.732
11006	10.933	0.36364	0.	18.179
11007	11.025	0.36364	5.e-002	5.7006
11008	10.933	0.18182	0.	13.503
11009	11.025	0.18182	5.e-002	2.1053
11010	11.025	9.0909e-002	0.	8.6376
11011	10.841	5.7273	0.	14.871
11012	10.749	5.8182	0.	12.429
11013	10.841	5.8182	5.e-002	1.8299
11014	10.841	5.9091	0.	8.0666
11015	10.841	5.5455	0.	18.711
11016	10.749	5.6364	0.	15.698
11017	10.841	5.6364	5.e-002	5.5494
11018	10.841	5.3636	0.	21.865
11019	10.749	5.4545	0.	18.852
11020	10.841	5.4545	5.e-002	5.7575
11021	10.841	5.1818	0.	23.883
11022	10.749	5.2727	0.	21.024
11023	10.841	5.2727	5.e-002	5.7177
11024	10.841	5.	0.	24.737
11025	10.749	5.0909	0.	22.136
11026	10.841	5.0909	5.e-002	5.6467
11027	10.841	4.8182	0.	24.481
11028	10.749	4.9091	0.	22.206
11029	10.841	4.9091	5.e-002	5.5612
11030	10.841	4.6364	0.	23.235
11031	10.749	4.7273	0.	21.315
11032	10.841	4.7273	5.e-002	5.4649
11033	10.841	4.4545	0.	21.173
11034	10.749	4.5455	0.	19.601
11035	10.841	4.5455	5.e-002	5.3609
11036	10.841	4.2727	0.	18.51
11037	10.749	4.3636	0.	17.246
11038	10.841	4.3636	5.e-002	5.2525
11039	10.841	4.0909	0.	15.489
11040	10.749	4.1818	0.	14.465
11041	10.841	4.1818	5.e-002	5.1432
11042	10.841	3.9091	0.	12.367
11043	10.749	4.	0.	11.489
11044	10.841	4.	5.e-002	5.0372
11045	10.841	3.7273	0.	9.3962
11046	10.749	3.8182	0.	8.5567
11047	10.841	3.8182	5.e-002	4.9389
11048	10.841	3.5455	0.	6.8091
11049	10.749	3.6364	0.	5.8931
11050	10.841	3.6364	5.e-002	4.8528
11051	10.841	3.3636	0.	4.8046
11052	10.749	3.4545	0.	3.699
11053	10.841	3.4545	5.e-002	4.7835
11054	10.841	3.1818	0.	3.5353
11055	10.749	3.2727	0.	2.1365
11056	10.841	3.2727	5.e-002	4.7348
11057	10.841	3.	0.	3.1002
11058	10.749	3.0909	0.	1.321
11059	10.841	3.0909	5.e-002	4.7096
11060	10.841	2.8182	0.	3.5353
11061	10.749	2.9091	0.	1.321
11062	10.841	2.9091	5.e-002	4.7096
11063	10.841	2.6364	0.	4.8046
11064	10.749	2.7273	0.	2.1365
11065	10.841	2.7273	5.e-002	4.7348
11066	10.841	2.4545	0.	6.8092
11067	10.749	2.5455	0.	3.699
11068	10.841	2.5455	5.e-002	4.7835
11069	10.841	2.2727	0.	9.3963
11070	10.749	2.3636	0.	5.8931
11071	10.841	2.3636	5.e-002	4.8528
11072	10.841	2.0909	0.	12.367
11073	10.749	2.1818	0.	8.5568
11074	10.841	2.1818	5.e-002	4.9389
11075	10.841	1.9091	0.	15.489
11076	10.749	2.	0.	11.489
11077	10.841	2.	5.e-002	5.0372
11078	10.841	1.7273	0.	18.51
11079	10.749	1.8182	0.	14.465
11080	10.841	1.8182	5.e-002	5.1432
11081	10.841	1.5455	0.	21.173
11082	10.749	1.6364	0.	17.247
11083	10.841	1.6364	5.e-002	5.2524
11084	10.841	1.3636	0.	23.235
11085	10.749	1.4545	0.	19.601
11086	10.841	1.4545	5.e-002	5.3609
11087	10.841	1.1818	0.	24.481
11088	10.749	1.2727	0.	21.315
11089	10.841	1.2727	5.e-002	5.4649
11090	10.841	1.	0.	24.737
11091	10.749	1.0909	0.	22.206
11092	10.841	1.0909	5.e-002	5.5612
11093	10.841	0.81818	0.	23.883
11094	10.749	0.90909	0.	22.136
11095	10.841	0.90909	5.e-002	5.6467
11096	10.841	0.63636	0.	21.865
11097	10.749	0.72727	0.	21.024
11098	10.841	0.72727	5.e-002	5.7177
11099	10.841	0.45455	0.	18.711
11100	10.749	0.54545	0.	18.852
11101	10.841	0.54545	5.e-002	5.7575
11102	10.841	0.27273	0.	14.871
11103	10.749	0.36364	0.	15.698
11104	10.841	0.36364	5.e-002	5.5493
11105	10.749	0.18182	0.	12.429
11106	10.841	0.18182	5.e-002	1.8298
11107	10.841	9.0909e-002	0.	8.0667
11108	10.658	5.7273	0.	13.178
11109	10.566	5.8182	0.	11.427
11110	10.658	5.8182	5.e-002	1.6137
11111	10.658	5.9091	0.	7.5311
11112	10.658	5.5455	0.	15.814
11113	10.566	5.6364	0.	13.449
11114	10.658	5.6364	5.e-002	5.4341
11115	10.658	5.3636	0.	17.993
11116	10.566	5.4545	0.	15.567
11117	10.658	5.4545	5.e-002	5.6586
11118	10.658	5.1818	0.	19.262
11119	10.566	5.2727	0.	16.91
11120	10.658	5.2727	5.e-002	5.6334
11121	10.658	5.	0.	19.592
11122	10.566	5.0909	0.	17.404
11123	10.658	5.0909	5.e-002	5.5793
11124	10.658	4.8182	0.	19.028
11125	10.566	4.9091	0.	17.062
11126	10.658	4.9091	5.e-002	5.5131
11127	10.658	4.6364	0.	17.67
11128	10.566	4.7273	0.	15.954
11129	10.658	4.7273	5.e-002	5.4379
11130	10.658	4.4545	0.	15.665
11131	10.566	4.5455	0.	14.194
11132	10.658	4.5455	5.e-002	5.3564
11133	10.658	4.2727	0.	13.191
11134	10.566	4.3636	0.	11.936
11135	10.658	4.3636	5.e-002	5.2713
11136	10.658	4.0909	0.	10.455
11137	10.566	4.1818	0.	9.3586
11138	10.658	4.1818	5.e-002	5.1857
11139	10.658	3.9091	0.	7.6684
11140	10.566	4.	0.	6.6581
11141	10.658	4.	5.e-002	5.1028
11142	10.658	3.7273	0.	5.0434
11143	10.566	3.8182	0.	4.0329
11144	10.658	3.8182	5.e-002	5.0261
11145	10.658	3.5455	0.	2.7742
11146	10.566	3.6364	0.	1.6774
11147	10.658	3.6364	5.e-002	4.9593
11148	10.658	3.3636	0.	1.0289
11149	10.566	3.4545	0.	7.9335e-002
11150	10.658	3.4545	5.e-002	4.9056
11151	10.658	3.1818	0.	4.6812e-002
11152	10.566	3.2727	0.	1.1814e-002
11153	10.658	3.2727	5.e-002	4.868
11154	10.658	3.	0.	5.4499e-003
11155	10.566	3.0909	0.	5.7326e-003
11156	10.658	3.0909	5.e-002	4.8486
11157	10.658	2.8182	0.	4.6814e-002
11158	10.566	2.9091	0.	5.7325e-003
11159	10.658	2.9091	5.e-002	4.8486
11160	10.658	2.6364	0.	1.0289
11161	10.566	2.7273	0.	1.1814e-002
11162	10.658	2.7273	5.e-002	4.868
11163	10.658	2.4545	0.	2.7742
11164	10.566	2.5455	0.	7.9339e-002
11165	10.658	2.5455	5.e-002	4.9056
11166	10.658	2.2727	0.	5.0434
11167	10.566	2.3636	0.	1.6774
11168	10.658	2.3636	5.e-002	4.9593
11169	10.658	2.0909	0.	7.6685
11170	10.566	2.1818	0.	4.0329
11171	10.658	2.1818	5.e-002	5.0261
11172	10.658	1.9091	0.	10.455
11173	10.566	2.	0.	6.6581
11174	10.658	2.	5.e-002	5.1028
11175	10.658	1.7273	0.	13.191
11176	10.566	1.8182	0.	9.3587
11177	10.658	1.8182	5.e-002	5.1857
11178	10.658	1.5455	0.	15.665
11179	10.566	1.6364	0.	11.936
11180	10.658	1.6364	5.e-002	5.2713
11181	10.658	1.3636	0.	17.67
11182	10.566	1.4545	0.	14.194
11183	10.658	1.4545	5.e-002	5.3564
11184	10.658	1.1818	0.	19.028
11185	10.566	1.2727	0.	15.954
11186	10.658	1.2727	5.e-002	5.4379
11187	10.658	1.	0.	19.592
11188	10.566	1.0909	0.	17.062
11189	10.658	1.0909	5.e-002	5.513
11190	10.658	0.81818	0.	19.262
11191	10.566	0.90909	0.	17.404
11192	10.658	0.90909	5.e-002	5.5793
11193	10.658	0.63636	0.	17.993
11194	10.566	0.72727	0.	16.91
11195	10.658	0.72727	5.e-002	5.6333
11196	10.658	0.45455	0.	15.814
11197	10.566	0.54545	0.	15.567
11198	10.658	0.54545	5.e-002	5.6586
11199	10.658	0.27273	0.	13.178
11200	10.566	0.36364	0.	13.449
11201	10.658	0.36364	5.e-002	5.434
11202	10.566	0.18182	0.	11.427
11203	10.658	0.18182	5.e-002	1.6137
11204	10.658	9.0909e-002	0.	7.5311
11205	10.474	5.7273	0.	11.621
11206	10.382	5.8182	0.	10.481
11207	10.474	5.8182	5.e-002	1.4479
11208	10.474	5.9091	0.	7.0216
11209	10.474	5.5455	0.	13.177
11210	10.382	5.6364	0.	11.387
11211	10.474	5.6364	5.e-002	5.348
11212	10.474	5.3636	0.	14.465
11213	10.382	5.4545	0.	12.562
11214	10.474	5.4545	5.e-002	5.5854
11215	10.474	5.1818	0.	15.036
11216	10.382	5.2727	0.	13.137
11217	10.474	5.2727	5.e-002	5.5715
11218	10.474	5.	0.	14.86
11219	10.382	5.0909	0.	13.042
11220	10.474	5.0909	5.e-002	5.531
11221	10.474	4.8182	0.	13.975
11222	10.382	4.9091	0.	12.288
11223	10.474	4.9091	5.e-002	5.4803
11224	10.474	4.6364	0.	12.465
11225	10.382	4.7273	0.	10.934
11226	10.474	4.7273	5.e-002	5.4221
11227	10.474	4.4545	0.	10.453
11228	10.382	4.5455	0.	9.0775
11229	10.474	4.5455	5.e-002	5.3587
11230	10.474	4.2727	0.	8.0918
11231	10.382	4.3636	0.	6.8478
11232	10.474	4.3636	5.e-002	5.2923
11233	10.474	4.0909	0.	5.5513
11234	10.382	4.1818	0.	4.3966
11235	10.474	4.1818	5.e-002	5.2255
11236	10.474	3.9091	0.	3.0136
11237	10.382	4.	0.	1.8945
11238	10.474	4.	5.e-002	5.1609
11239	10.474	3.7273	0.	0.68799
11240	10.382	3.8182	0.	7.1757e-002
11241	10.474	3.8182	5.e-002	5.1012
11242	10.474	3.5455	0.	2.5598e-002
11243	10.382	3.6364	0.	1.6846e-002
11244	10.474	3.6364	5.e-002	5.0493
11245	10.474	3.3636	0.	1.014e-002
11246	10.382	3.4545	0.	9.2885e-003
11247	10.474	3.4545	5.e-002	5.0078
11248	10.474	3.1818	0.	6.0318e-003
11249	10.382	3.2727	0.	6.1848e-003
11250	10.474	3.2727	5.e-002	4.9787
11251	10.474	3.	0.	4.964e-003
11252	10.382	3.0909	0.	4.8901e-003
11253	10.474	3.0909	5.e-002	4.9638
11254	10.474	2.8182	0.	6.0319e-003
11255	10.382	2.9091	0.	4.8903e-003
11256	10.474	2.9091	5.e-002	4.9638
11257	10.474	2.6364	0.	1.014e-002
11258	10.382	2.7273	0.	6.1848e-003
11259	10.474	2.7273	5.e-002	4.9787
11260	10.474	2.4545	0.	2.5599e-002
11261	10.382	2.5455	0.	9.2891e-003
11262	10.474	2.5455	5.e-002	5.0078
11263	10.474	2.2727	0.	0.68801
11264	10.382	2.3636	0.	1.6846e-002
11265	10.474	2.3636	5.e-002	5.0493
11266	10.474	2.0909	0.	3.0136
11267	10.382	2.1818	0.	7.176e-002
11268	10.474	2.1818	5.e-002	5.1012
11269	10.474	1.9091	0.	5.5514
11270	10.382	2.	0.	1.8945
11271	10.474	2.	5.e-002	5.1608
11272	10.474	1.7273	0.	8.0918
11273	10.382	1.8182	0.	4.3966
11274	10.474	1.8182	5.e-002	5.2255
11275	10.474	1.5455	0.	10.454
11276	10.382	1.6364	0.	6.8478
11277	10.474	1.6364	5.e-002	5.2923
11278	10.474	1.3636	0.	12.465
11279	10.382	1.4545	0.	9.0775
11280	10.474	1.4545	5.e-002	5.3586
11281	10.474	1.1818	0.	13.975
11282	10.382	1.2727	0.	10.934
11283	10.474	1.2727	5.e-002	5.4221
11284	10.474	1.	0.	14.86
11285	10.382	1.0909	0.	12.288
11286	10.474	1.0909	5.e-002	5.4802
11287	10.474	0.81818	0.	15.036
11288	10.382	0.90909	0.	13.042
11289	10.474	0.90909	5.e-002	5.531
11290	10.474	0.63636	0.	14.465
11291	10.382	0.72727	0.	13.137
11292	10.474	0.72727	5.e-002	5.5715
11293	10.474	0.45455	0.	13.177
11294	10.382	0.54545	0.	12.562
11295	10.474	0.54545	5.e-002	5.5853
11296	10.474	0.27273	0.	11.622
11297	10.382	0.36364	0.	11.387
11298	10.474	0.36364	5.e-002	5.348
11299	10.382	0.18182	0.	10.481
11300	10.474	0.18182	5.e-002	1.4478
11301	10.474	9.0909e-002	0.	7.0217
11302	10.29	5.7273	0.	10.171
11303	10.198	5.8182	0.	9.5733
11304	10.29	5.8182	5.e-002	1.3253
11305	10.29	5.9091	0.	6.5301
11306	10.29	5.5455	0.	10.748
11307	10.198	5.6364	0.	9.4717
11308	10.29	5.6364	5.e-002	5.2857
11309	10.29	5.3636	0.	11.215
11310	10.198	5.4545	0.	9.7794
11311	10.29	5.4545	5.e-002	5.5327
11312	10.29	5.1818	0.	11.126
11313	10.198	5.2727	0.	9.6341
11314	10.29	5.2727	5.e-002	5.5279
11315	10.29	5.	0.	10.455
11316	10.198	5.0909	0.	8.9707
11317	10.29	5.0909	5.e-002	5.4982
11318	10.29	4.8182	0.	9.2335
11319	10.198	4.9091	0.	7.8001
11320	10.29	4.9091	5.e-002	5.4598
11321	10.29	4.6364	0.	7.5338
11322	10.198	4.7273	0.	6.1734
11323	10.29	4.7273	5.e-002	5.4153
11324	10.29	4.4545	0.	5.4601
11325	10.198	4.5455	0.	4.1745
11326	10.29	4.5455	5.e-002	5.3664
11327	10.29	4.2727	0.	3.1422
11328	10.198	4.3636	0.	1.9169
11329	10.29	4.3636	5.e-002	5.315
11330	10.29	4.0909	0.	0.75212
11331	10.198	4.1818	0.	5.9566e-002
11332	10.29	4.1818	5.e-002	5.2631
11333	10.29	3.9091	0.	2.6513e-002
11334	10.198	4.	0.	1.6913e-002
11335	10.29	4.	5.e-002	5.2129
11336	10.29	3.7273	0.	1.3049e-002
11337	10.198	3.8182	0.	1.1083e-002
11338	10.29	3.8182	5.e-002	5.1667
11339	10.29	3.5455	0.	8.5918e-003
11340	10.198	3.6364	0.	8.1246e-003
11341	10.29	3.6364	5.e-002	5.1265
11342	10.29	3.3636	0.	6.2234e-003
11343	10.198	3.4545	0.	6.2212e-003
11344	10.29	3.4545	5.e-002	5.0943
11345	10.29	3.1818	0.	4.9583e-003
11346	10.198	3.2727	0.	5.0177e-003
11347	10.29	3.2727	5.e-002	5.0719
11348	10.29	3.	0.	4.5537e-003
11349	10.198	3.0909	0.	4.4255e-003
11350	10.29	3.0909	5.e-002	5.0603
11351	10.29	2.8182	0.	4.9583e-003
11352	10.198	2.9091	0.	4.4256e-003
11353	10.29	2.9091	5.e-002	5.0603
11354	10.29	2.6364	0.	6.2239e-003
11355	10.198	2.7273	0.	5.0177e-003
11356	10.29	2.7273	5.e-002	5.0719
11357	10.29	2.4545	0.	8.5921e-003
11358	10.198	2.5455	0.	6.2219e-003
11359	10.29	2.5455	5.e-002	5.0943
11360	10.29	2.2727	0.	1.3049e-002
11361	10.198	2.3636	0.	8.1243e-003
11362	10.29	2.3636	5.e-002	5.1265
11363	10.29	2.0909	0.	2.6514e-002
11364	10.198	2.1818	0.	1.1084e-002
11365	10.29	2.1818	5.e-002	5.1667
11366	10.29	1.9091	0.	0.75215
11367	10.198	2.	0.	1.6913e-002
11368	10.29	2.	5.e-002	5.2129
11369	10.29	1.7273	0.	3.1422
11370	10.198	1.8182	0.	5.9569e-002
11371	10.29	1.8182	5.e-002	5.2631
11372	10.29	1.5455	0.	5.4601
11373	10.198	1.6364	0.	1.917
11374	10.29	1.6364	5.e-002	5.3149
11375	10.29	1.3636	0.	7.5339
11376	10.198	1.4545	0.	4.1745
11377	10.29	1.4545	5.e-002	5.3663
11378	10.29	1.1818	0.	9.2335
11379	10.198	1.2727	0.	6.1734
11380	10.29	1.2727	5.e-002	5.4153
11381	10.29	1.	0.	10.455
11382	10.198	1.0909	0.	7.8001
11383	10.29	1.0909	5.e-002	5.4598
11384	10.29	0.81818	0.	11.126
11385	10.198	0.90909	0.	8.9707
11386	10.29	0.90909	5.e-002	5.4982
11387	10.29	0.63636	0.	11.215
11388	10.198	0.72727	0.	9.6341
11389	10.29	0.72727	5.e-002	5.5279
11390	10.29	0.45455	0.	10.748
11391	10.198	0.54545	0.	9.7795
11392	10.29	0.54545	5.e-002	5.5327
11393	10.29	0.27273	0.	10.171
11394	10.198	0.36364	0.	9.4717
11395	10.29	0.36364	5.e-002	5.2857
11396	10.198	0.18182	0.	9.5734
11397	10.29	0.18182	5.e-002	1.3252
11398	10.29	9.0909e-002	0.	6.5302
11399	10.106	5.7273	0.	8.7999
11400	10.014	5.8182	0.	8.6916
11401	10.106	5.8182	5.e-002	1.2403
11402	10.106	5.9091	0.	6.0495
11403	10.106	5.5455	0.	8.4804
11404	10.014	5.6364	0.	7.6687
11405	10.106	5.6364	5.e-002	5.2426
11406	10.106	5.3636	0.	8.1805
11407	10.014	5.4545	0.	7.1684
11408	10.106	5.4545	5.e-002	5.4969
11409	10.106	5.1818	0.	7.4623
11410	10.014	5.2727	0.	6.339
11411	10.106	5.2727	5.e-002	5.4993
11412	10.106	5.	0.	6.301
11413	10.014	5.0909	0.	5.1206
11414	10.106	5.0909	5.e-002	5.4781
11415	10.106	4.8182	0.	4.7264
11416	10.014	4.9091	0.	3.5254
11417	10.106	4.9091	5.e-002	5.4496
11418	10.106	4.6364	0.	2.8016
11419	10.014	4.7273	0.	1.6004
11420	10.106	4.7273	5.e-002	5.4159
11421	10.106	4.4545	0.	0.63303
11422	10.014	4.5455	0.	2.5748e-002
11423	10.106	4.5455	5.e-002	5.3785
11424	10.106	4.2727	0.	1.9466e-002
11425	10.014	4.3636	0.	1.2839e-002
11426	10.106	4.3636	5.e-002	5.339
11427	10.106	4.0909	0.	1.244e-002
11428	10.014	4.1818	0.	1.0401e-002
11429	10.106	4.1818	5.e-002	5.2991
11430	10.106	3.9091	0.	9.5747e-003
11431	10.014	4.	0.	8.7234e-003
11432	10.106	4.	5.e-002	5.2603
11433	10.106	3.7273	0.	7.6118e-003
11434	10.014	3.8182	0.	7.2924e-003
11435	10.106	3.8182	5.e-002	5.2246
11436	10.106	3.5455	0.	6.1306e-003
11437	10.014	3.6364	0.	6.0677e-003
11438	10.106	3.6364	5.e-002	5.1935
11439	10.106	3.3636	0.	5.0613e-003
11440	10.014	3.4545	0.	5.088e-003
11441	10.106	3.4545	5.e-002	5.1687
11442	10.106	3.1818	0.	4.4086e-003
11443	10.014	3.2727	0.	4.4011e-003
11444	10.106	3.2727	5.e-002	5.1514
11445	10.106	3.	0.	4.1886e-003
11446	10.014	3.0909	0.	4.0468e-003
11447	10.106	3.0909	5.e-002	5.1425
11448	10.106	2.8182	0.	4.4087e-003
11449	10.014	2.9091	0.	4.0468e-003
11450	10.106	2.9091	5.e-002	5.1425
11451	10.106	2.6364	0.	5.0615e-003
11452	10.014	2.7273	0.	4.4012e-003
11453	10.106	2.7273	5.e-002	5.1514
11454	10.106	2.4545	0.	6.1308e-003
11455	10.014	2.5455	0.	5.0883e-003
11456	10.106	2.5455	5.e-002	5.1687
11457	10.106	2.2727	0.	7.6119e-003
11458	10.014	2.3636	0.	6.0679e-003
11459	10.106	2.3636	5.e-002	5.1935
11460	10.106	2.0909	0.	9.5748e-003
11461	10.014	2.1818	0.	7.2926e-003
11462	10.106	2.1818	5.e-002	5.2245
11463	10.106	1.9091	0.	1.2441e-002
11464	10.014	2.	0.	8.7239e-003
11465	10.106	2.	5.e-002	5.2603
11466	10.106	1.7273	0.	1.9467e-002
11467	10.014	1.8182	0.	1.0401e-002
11468	10.106	1.8182	5.e-002	5.299
11469	10.106	1.5455	0.	0.63306
11470	10.014	1.6364	0.	1.2839e-002
11471	10.106	1.6364	5.e-002	5.339
11472	10.106	1.3636	0.	2.8017
11473	10.014	1.4545	0.	2.5749e-002
11474	10.106	1.4545	5.e-002	5.3785
11475	10.106	1.1818	0.	4.7264
11476	10.014	1.2727	0.	1.6005
11477	10.106	1.2727	5.e-002	5.4158
11478	10.106	1.	0.	6.3011
11479	10.014	1.0909	0.	3.5254
11480	10.106	1.0909	5.e-002	5.4496
11481	10.106	0.81818	0.	7.4623
11482	10.014	0.90909	0.	5.1206
11483	10.106	0.90909	5.e-002	5.4781
11484	10.106	0.63636	0.	8.1805
11485	10.014	0.72727	0.	6.339
11486	10.106	0.72727	5.e-002	5.4992
11487	10.106	0.45455	0.	8.4804
11488	10.014	0.54545	0.	7.1684
11489	10.106	0.54545	5.e-002	5.4969
11490	10.106	0.27273	0.	8.8
11491	10.014	0.36364	0.	7.6688
11492	10.106	0.36364	5.e-002	5.2426
11493	10.014	0.18182	0.	8.6916
11494	10.106	0.18182	5.e-002	1.2403
11495	10.106	9.0909e-002	0.	6.0496
11496	9.9225	5.7273	0.	7.4865
11497	9.8306	5.8182	0.	7.8233
11498	9.9225	5.8182	5.e-002	1.1882
11499	9.9225	5.9091	0.	5.5735
11500	9.9225	5.5455	0.	6.3343
11501	9.8306	5.6364	0.	5.9466
11502	9.9225	5.6364	5.e-002	5.2153
11503	9.9225	5.3636	0.	5.3088
11504	9.8306	5.4545	0.	4.683
11505	9.9225	5.4545	5.e-002	5.4747
11506	9.9225	5.1818	0.	3.9811
11507	9.8306	5.2727	0.	3.1953
11508	9.9225	5.2727	5.e-002	5.4826
11509	9.9225	5.	0.	2.3301
11510	9.8306	5.0909	0.	1.4287
11511	9.9225	5.0909	5.e-002	5.4683
11512	9.9225	4.8182	0.	0.38915
11513	9.8306	4.9091	0.	8.9401e-003
11514	9.9225	4.9091	5.e-002	5.4476
11515	9.9225	4.6364	0.	1.1116e-002
11516	9.8306	4.7273	0.	8.7675e-003
11517	9.9225	4.7273	5.e-002	5.4226
11518	9.9225	4.4545	0.	9.8579e-003
11519	9.8306	4.5455	0.	8.631e-003
11520	9.9225	4.5455	5.e-002	5.3944
11521	9.9225	4.2727	0.	8.9343e-003
11522	9.8306	4.3636	0.	8.1884e-003
11523	9.9225	4.3636	5.e-002	5.3644
11524	9.9225	4.0909	0.	7.9471e-003
11525	9.8306	4.1818	0.	7.517e-003
11526	9.9225	4.1818	5.e-002	5.3339
11527	9.9225	3.9091	0.	6.9234e-003
11528	9.8306	4.	0.	6.7133e-003
11529	9.9225	4.	5.e-002	5.3042
11530	9.9225	3.7273	0.	5.9418e-003
11531	9.8306	3.8182	0.	5.8734e-003
11532	9.9225	3.8182	5.e-002	5.2767
11533	9.9225	3.5455	0.	5.0832e-003
11534	9.8306	3.6364	0.	5.0849e-003
11535	9.9225	3.6364	5.e-002	5.2528
11536	9.9225	3.3636	0.	4.4165e-003
11537	9.8306	3.4545	0.	4.425e-003
11538	9.9225	3.4545	5.e-002	5.2337
11539	9.9225	3.1818	0.	3.9941e-003
11540	9.8306	3.2727	0.	3.9498e-003
11541	9.9225	3.2727	5.e-002	5.2204
11542	9.9225	3.	0.	3.8495e-003
11543	9.8306	3.0909	0.	3.7018e-003
11544	9.9225	3.0909	5.e-002	5.2135
11545	9.9225	2.8182	0.	3.9941e-003
11546	9.8306	2.9091	0.	3.7017e-003
11547	9.9225	2.9091	5.e-002	5.2135
11548	9.9225	2.6364	0.	4.4168e-003
11549	9.8306	2.7273	0.	3.9499e-003
11550	9.9225	2.7273	5.e-002	5.2204
11551	9.9225	2.4545	0.	5.0836e-003
11552	9.8306	2.5455	0.	4.4249e-003
11553	9.9225	2.5455	5.e-002	5.2337
11554	9.9225	2.2727	0.	5.9421e-003
11555	9.8306	2.3636	0.	5.0856e-003
11556	9.9225	2.3636	5.e-002	5.2528
11557	9.9225	2.0909	0.	6.924e-003
11558	9.8306	2.1818	0.	5.8733e-003
11559	9.9225	2.1818	5.e-002	5.2767
11560	9.9225	1.9091	0.	7.9472e-003
11561	9.8306	2.	0.	6.7141e-003
11562	9.9225	2.	5.e-002	5.3042
11563	9.9225	1.7273	0.	8.9341e-003
11564	9.8306	1.8182	0.	7.5173e-003
11565	9.9225	1.8182	5.e-002	5.3339
11566	9.9225	1.5455	0.	9.8585e-003
11567	9.8306	1.6364	0.	8.189e-003
11568	9.9225	1.6364	5.e-002	5.3644
11569	9.9225	1.3636	0.	1.1117e-002
11570	9.8306	1.4545	0.	8.6316e-003
11571	9.9225	1.4545	5.e-002	5.3944
11572	9.9225	1.1818	0.	0.38918
11573	9.8306	1.2727	0.	8.7679e-003
11574	9.9225	1.2727	5.e-002	5.4226
11575	9.9225	1.	0.	2.3301
11576	9.8306	1.0909	0.	8.9407e-003
11577	9.9225	1.0909	5.e-002	5.4476
11578	9.9225	0.81818	0.	3.9812
11579	9.8306	0.90909	0.	1.4287
11580	9.9225	0.90909	5.e-002	5.4682
11581	9.9225	0.63636	0.	5.3088
11582	9.8306	0.72727	0.	3.1953
11583	9.9225	0.72727	5.e-002	5.4826
11584	9.9225	0.45455	0.	6.3343
11585	9.8306	0.54545	0.	4.683
11586	9.9225	0.54545	5.e-002	5.4747
11587	9.9225	0.27273	0.	7.4866
11588	9.8306	0.36364	0.	5.9467
11589	9.9225	0.36364	5.e-002	5.2152
11590	9.8306	0.18182	0.	7.8234
11591	9.9225	0.18182	5.e-002	1.1882
11592	9.9225	9.0909e-002	0.	5.5736
11593	9.7388	5.7273	0.	6.2103
11594	9.6469	5.8182	0.	6.9581
11595	9.7388	5.8182	5.e-002	1.1651
11596	9.7388	5.9091	0.	5.0968
11597	9.7388	5.5455	0.	4.2735
11598	9.6469	5.6364	0.	4.278
11599	9.7388	5.6364	5.e-002	5.2007
11600	9.7388	5.3636	0.	2.5519
11601	9.6469	5.4545	0.	2.2831
11602	9.7388	5.4545	5.e-002	5.4637
11603	9.7388	5.1818	0.	0.62715
11604	9.6469	5.2727	0.	0.15667
11605	9.7388	5.2727	5.e-002	5.476
11606	9.7388	5.	0.	7.1256e-003
11607	9.6469	5.0909	0.	6.744e-003
11608	9.7388	5.0909	5.e-002	5.467
11609	9.7388	4.8182	0.	7.6307e-003
11610	9.6469	4.9091	0.	7.1768e-003
11611	9.7388	4.9091	5.e-002	5.4526
11612	9.7388	4.6364	0.	7.7533e-003
11613	9.6469	4.7273	0.	7.3381e-003
11614	9.7388	4.7273	5.e-002	5.4345
11615	9.7388	4.4545	0.	7.5436e-003
11616	9.6469	4.5455	0.	7.2175e-003
11617	9.7388	4.5455	5.e-002	5.4136
11618	9.7388	4.2727	0.	7.0831e-003
11619	9.6469	4.3636	0.	6.8588e-003
11620	9.7388	4.3636	5.e-002	5.3912
11621	9.7388	4.0909	0.	6.4594e-003
11622	9.6469	4.1818	0.	6.3317e-003
11623	9.7388	4.1818	5.e-002	5.3681
11624	9.7388	3.9091	0.	5.7577e-003
11625	9.6469	4.	0.	5.707e-003
11626	9.7388	4.	5.e-002	5.3455
11627	9.7388	3.7273	0.	5.0579e-003
11628	9.6469	3.8182	0.	5.0549e-003
11629	9.7388	3.8182	5.e-002	5.3246
11630	9.7388	3.5455	0.	4.433e-003
11631	9.6469	3.6364	0.	4.443e-003
11632	9.7388	3.6364	5.e-002	5.3063
11633	9.7388	3.3636	0.	3.9421e-003
11634	9.6469	3.4545	0.	3.9304e-003
11635	9.7388	3.4545	5.e-002	5.2917
11636	9.7388	3.1818	0.	3.6287e-003
11637	9.6469	3.2727	0.	3.5611e-003
11638	9.7388	3.2727	5.e-002	5.2815
11639	9.7388	3.	0.	3.5213e-003
11640	9.6469	3.0909	0.	3.368e-003
11641	9.7388	3.0909	5.e-002	5.2762
11642	9.7388	2.8182	0.	3.6288e-003
11643	9.6469	2.9091	0.	3.3678e-003
11644	9.7388	2.9091	5.e-002	5.2762
11645	9.7388	2.6364	0.	3.9418e-003
11646	9.6469	2.7273	0.	3.5612e-003
11647	9.7388	2.7273	5.e-002	5.2815
11648	9.7388	2.4545	0.	4.4331e-003
11649	9.6469	2.5455	0.	3.9304e-003
11650	9.7388	2.5455	5.e-002	5.2916
11651	9.7388	2.2727	0.	5.0581e-003
11652	9.6469	2.3636	0.	4.4434e-003
11653	9.7388	2.3636	5.e-002	5.3063
11654	9.7388	2.0909	0.	5.7579e-003
11655	9.6469	2.1818	0.	5.0549e-003
11656	9.7388	2.1818	5.e-002	5.3245
11657	9.7388	1.9091	0.	6.4604e-003
11658	9.6469	2.	0.	5.7077e-003
11659	9.7388	2.	5.e-002	5.3455
11660	9.7388	1.7273	0.	7.0841e-003
11661	9.6469	1.8182	0.	6.3325e-003
11662	9.7388	1.8182	5.e-002	5.3681
11663	9.7388	1.5455	0.	7.5441e-003
11664	9.6469	1.6364	0.	6.8595e-003
11665	9.7388	1.6364	5.e-002	5.3911
11666	9.7388	1.3636	0.	7.7537e-003
11667	9.6469	1.4545	0.	7.218e-003
11668	9.7388	1.4545	5.e-002	5.4136
11669	9.7388	1.1818	0.	7.6311e-003
11670	9.6469	1.2727	0.	7.3387e-003
11671	9.7388	1.2727	5.e-002	5.4344
11672	9.7388	1.	0.	7.1268e-003
11673	9.6469	1.0909	0.	7.1774e-003
11674	9.7388	1.0909	5.e-002	5.4526
11675	9.7388	0.81818	0.	0.62718
11676	9.6469	0.90909	0.	6.7458e-003
11677	9.7388	0.90909	5.e-002	5.467
11678	9.7388	0.63636	0.	2.5519
11679	9.6469	0.72727	0.	0.1567
11680	9.7388	0.72727	5.e-002	5.476
11681	9.7388	0.45455	0.	4.2736
11682	9.6469	0.54545	0.	2.2831
11683	9.7388	0.54545	5.e-002	5.4637
11684	9.7388	0.27273	0.	6.2103
11685	9.6469	0.36364	0.	4.278
11686	9.7388	0.36364	5.e-002	5.2007
11687	9.6469	0.18182	0.	6.9581
11688	9.7388	0.18182	5.e-002	1.165
11689	9.7388	9.0909e-002	0.	5.0969
11690	9.555	5.7273	0.	4.9536
11691	9.4631	5.8182	0.	6.0867
11692	9.555	5.8182	5.e-002	1.1674
11693	9.555	5.9091	0.	4.6146
11694	9.555	5.5455	0.	2.2662
11695	9.4631	5.6364	0.	2.6386
11696	9.555	5.6364	5.e-002	5.1968
11697	9.555	5.3636	0.	1.0898e-002
11698	9.4631	5.4545	0.	1.0903e-002
11699	9.555	5.4545	5.e-002	5.4619
11700	9.555	5.1818	0.	6.4989e-003
11701	9.4631	5.2727	0.	6.4536e-003
11702	9.555	5.2727	5.e-002	5.4776
11703	9.555	5.	0.	6.8002e-003
11704	9.4631	5.0909	0.	6.6309e-003
11705	9.555	5.0909	5.e-002	5.4729
11706	9.555	4.8182	0.	6.9681e-003
11707	9.4631	4.9091	0.	6.8182e-003
11708	9.555	4.9091	5.e-002	5.4634
11709	9.555	4.6364	0.	6.8929e-003
11710	9.4631	4.7273	0.	6.7538e-003
11711	9.555	4.7273	5.e-002	5.4508
11712	9.555	4.4545	0.	6.6109e-003
11713	9.4631	4.5455	0.	6.5097e-003
11714	9.555	4.5455	5.e-002	5.4358
11715	9.555	4.2727	0.	6.1668e-003
11716	9.4631	4.3636	0.	6.1068e-003
11717	9.555	4.3636	5.e-002	5.4192
11718	9.555	4.0909	0.	5.619e-003
11719	9.4631	4.1818	0.	5.5981e-003
11720	9.555	4.1818	5.e-002	5.402
11721	9.555	3.9091	0.	5.0257e-003
11722	9.4631	4.	0.	5.0335e-003
11723	9.555	4.	5.e-002	5.3851
11724	9.555	3.7273	0.	4.4461e-003
11725	9.4631	3.8182	0.	4.4633e-003
11726	9.555	3.8182	5.e-002	5.3693
11727	9.555	3.5455	0.	3.9342e-003
11728	9.4631	3.6364	0.	3.9394e-003
11729	9.555	3.6364	5.e-002	5.3554
11730	9.555	3.3636	0.	3.5344e-003
11731	9.4631	3.4545	0.	3.5055e-003
11732	9.555	3.4545	5.e-002	5.3443
11733	9.555	3.1818	0.	3.2801e-003
11734	9.4631	3.2727	0.	3.1948e-003
11735	9.555	3.2727	5.e-002	5.3366
11736	9.555	3.	0.	3.1925e-003
11737	9.4631	3.0909	0.	3.0329e-003
11738	9.555	3.0909	5.e-002	5.3326
11739	9.555	2.8182	0.	3.2799e-003
11740	9.4631	2.9091	0.	3.0327e-003
11741	9.555	2.9091	5.e-002	5.3326
11742	9.555	2.6364	0.	3.5349e-003
11743	9.4631	2.7273	0.	3.1953e-003
11744	9.555	2.7273	5.e-002	5.3366
11745	9.555	2.4545	0.	3.9346e-003
11746	9.4631	2.5455	0.	3.5059e-003
11747	9.555	2.5455	5.e-002	5.3443
11748	9.555	2.2727	0.	4.4463e-003
11749	9.4631	2.3636	0.	3.9396e-003
11750	9.555	2.3636	5.e-002	5.3554
11751	9.555	2.0909	0.	5.0263e-003
11752	9.4631	2.1818	0.	4.4636e-003
11753	9.555	2.1818	5.e-002	5.3693
11754	9.555	1.9091	0.	5.6195e-003
11755	9.4631	2.	0.	5.0338e-003
11756	9.555	2.	5.e-002	5.3851
11757	9.555	1.7273	0.	6.1672e-003
11758	9.4631	1.8182	0.	5.5986e-003
11759	9.555	1.8182	5.e-002	5.402
11760	9.555	1.5455	0.	6.6114e-003
11761	9.4631	1.6364	0.	6.1074e-003
11762	9.555	1.6364	5.e-002	5.4192
11763	9.555	1.3636	0.	6.8936e-003
11764	9.4631	1.4545	0.	6.5101e-003
11765	9.555	1.4545	5.e-002	5.4357
11766	9.555	1.1818	0.	6.9689e-003
11767	9.4631	1.2727	0.	6.7547e-003
11768	9.555	1.2727	5.e-002	5.4507
11769	9.555	1.	0.	6.8013e-003
11770	9.4631	1.0909	0.	6.8188e-003
11771	9.555	1.0909	5.e-002	5.4634
11772	9.555	0.81818	0.	6.5005e-003
11773	9.4631	0.90909	0.	6.6325e-003
11774	9.555	0.90909	5.e-002	5.4728
11775	9.555	0.63636	0.	1.09e-002
11776	9.4631	0.72727	0.	6.4549e-003
11777	9.555	0.72727	5.e-002	5.4776
11778	9.555	0.45455	0.	2.2663
11779	9.4631	0.54545	0.	1.0906e-002
11780	9.555	0.54545	5.e-002	5.4619
11781	9.555	0.27273	0.	4.9536
11782	9.4631	0.36364	0.	2.6386
11783	9.555	0.36364	5.e-002	5.1968
11784	9.4631	0.18182	0.	6.0868
11785	9.555	0.18182	5.e-002	1.1674
11786	9.555	9.0909e-002	0.	4.6147
11787	9.3713	5.7273	0.	3.7012
11788	9.2794	5.8182	0.	5.2014
11789	9.3713	5.8182	5.e-002	1.1925
11790	9.3713	5.9091	0.	4.1228
11791	9.3713	5.5455	0.	0.28405
11792	9.2794	5.6364	0.	1.0076
11793	9.3713	5.6364	5.e-002	5.2018
11794	9.3713	5.3636	0.	5.9627e-003
11795	9.2794	5.4545	0.	5.5198e-003
11796	9.3713	5.4545	5.e-002	5.4678
11797	9.3713	5.1818	0.	6.5971e-003
11798	9.2794	5.2727	0.	6.8103e-003
11799	9.3713	5.2727	5.e-002	5.4861
11800	9.3713	5.	0.	6.6481e-003
11801	9.2794	5.0909	0.	6.6402e-003
11802	9.3713	5.0909	5.e-002	5.4848
11803	9.3713	4.8182	0.	6.6113e-003
11804	9.2794	4.9091	0.	6.6251e-003
11805	9.3713	4.9091	5.e-002	5.4792
11806	9.3713	4.6364	0.	6.3836e-003
11807	9.2794	4.7273	0.	6.3843e-003
11808	9.3713	4.7273	5.e-002	5.4709
11809	9.3713	4.4545	0.	6.0196e-003
11810	9.2794	4.5455	0.	6.0325e-003
11811	9.3713	4.5455	5.e-002	5.4606
11812	9.3713	4.2727	0.	5.5495e-003
11813	9.2794	4.3636	0.	5.5739e-003
11814	9.3713	4.3636	5.e-002	5.4487
11815	9.3713	4.0909	0.	5.0192e-003
11816	9.2794	4.1818	0.	5.053e-003
11817	9.3713	4.1818	5.e-002	5.4362
11818	9.3713	3.9091	0.	4.472e-003
11819	9.2794	4.	0.	4.5077e-003
11820	9.3713	4.	5.e-002	5.4237
11821	9.3713	3.7273	0.	3.9519e-003
11822	9.2794	3.8182	0.	3.9762e-003
11823	9.3713	3.8182	5.e-002	5.4119
11824	9.3713	3.5455	0.	3.501e-003
11825	9.2794	3.6364	0.	3.4985e-003
11826	9.3713	3.6364	5.e-002	5.4016
11827	9.3713	3.3636	0.	3.1524e-003
11828	9.2794	3.4545	0.	3.109e-003
11829	9.3713	3.4545	5.e-002	5.3932
11830	9.3713	3.1818	0.	2.9317e-003
11831	9.2794	3.2727	0.	2.832e-003
11832	9.3713	3.2727	5.e-002	5.3874
11833	9.3713	3.	0.	2.8564e-003
11834	9.2794	3.0909	0.	2.6887e-003
11835	9.3713	3.0909	5.e-002	5.3843
11836	9.3713	2.8182	0.	2.9321e-003
11837	9.2794	2.9091	0.	2.689e-003
11838	9.3713	2.9091	5.e-002	5.3843
11839	9.3713	2.6364	0.	3.1528e-003
11840	9.2794	2.7273	0.	2.8326e-003
11841	9.3713	2.7273	5.e-002	5.3874
11842	9.3713	2.4545	0.	3.5012e-003
11843	9.2794	2.5455	0.	3.109e-003
11844	9.3713	2.5455	5.e-002	5.3932
11845	9.3713	2.2727	0.	3.9522e-003
11846	9.2794	2.3636	0.	3.4988e-003
11847	9.3713	2.3636	5.e-002	5.4016
11848	9.3713	2.0909	0.	4.4721e-003
11849	9.2794	2.1818	0.	3.9767e-003
11850	9.3713	2.1818	5.e-002	5.4119
11851	9.3713	1.9091	0.	5.0196e-003
11852	9.2794	2.	0.	4.5078e-003
11853	9.3713	2.	5.e-002	5.4237
11854	9.3713	1.7273	0.	5.5502e-003
11855	9.2794	1.8182	0.	5.0537e-003
11856	9.3713	1.8182	5.e-002	5.4362
11857	9.3713	1.5455	0.	6.0201e-003
11858	9.2794	1.6364	0.	5.5745e-003
11859	9.3713	1.6364	5.e-002	5.4487
11860	9.3713	1.3636	0.	6.3842e-003
11861	9.2794	1.4545	0.	6.0331e-003
11862	9.3713	1.4545	5.e-002	5.4605
11863	9.3713	1.1818	0.	6.612e-003
11864	9.2794	1.2727	0.	6.3852e-003
11865	9.3713	1.2727	5.e-002	5.4709
11866	9.3713	1.	0.	6.6491e-003
11867	9.2794	1.0909	0.	6.6254e-003
11868	9.3713	1.0909	5.e-002	5.4792
11869	9.3713	0.81818	0.	6.5983e-003
11870	9.2794	0.90909	0.	6.6417e-003
11871	9.3713	0.90909	5.e-002	5.4848
11872	9.3713	0.63636	0.	5.9633e-003
11873	9.2794	0.72727	0.	6.8111e-003
11874	9.3713	0.72727	5.e-002	5.4861
11875	9.3713	0.45455	0.	0.28409
11876	9.2794	0.54545	0.	5.52e-003
11877	9.3713	0.54545	5.e-002	5.4678
11878	9.3713	0.27273	0.	3.7013
11879	9.2794	0.36364	0.	1.0077
11880	9.3713	0.36364	5.e-002	5.2018
11881	9.2794	0.18182	0.	5.2015
11882	9.3713	0.18182	5.e-002	1.1925
11883	9.3713	9.0909e-002	0.	4.1229
11884	9.1875	5.7273	0.	2.4411
11885	9.0956	5.8182	0.	4.2958
11886	9.1875	5.8182	5.e-002	1.2379
11887	9.1875	5.9091	0.	3.6179
11888	9.1875	5.5455	0.	9.4066e-003
11889	9.0956	5.6364	0.	1.9725e-002
11890	9.1875	5.6364	5.e-002	5.2144
11891	9.1875	5.3636	0.	6.4035e-003
11892	9.0956	5.4545	0.	6.2032e-003
11893	9.1875	5.4545	5.e-002	5.4802
11894	9.1875	5.1818	0.	6.855e-003
11895	9.0956	5.2727	0.	7.356e-003
11896	9.1875	5.2727	5.e-002	5.5005
11897	9.1875	5.	0.	6.6116e-003
11898	9.0956	5.0909	0.	6.7634e-003
11899	9.1875	5.0909	5.e-002	5.5019
11900	9.1875	4.8182	0.	6.393e-003
11901	9.0956	4.9091	0.	6.546e-003
11902	9.1875	4.9091	5.e-002	5.4995
11903	9.1875	4.6364	0.	6.0298e-003
11904	9.0956	4.7273	0.	6.1389e-003
11905	9.1875	4.7273	5.e-002	5.4946
11906	9.1875	4.4545	0.	5.5841e-003
11907	9.0956	4.5455	0.	5.6811e-003
11908	9.1875	4.5455	5.e-002	5.4879
11909	9.1875	4.2727	0.	5.0744e-003
11910	9.0956	4.3636	0.	5.1584e-003
11911	9.1875	4.3636	5.e-002	5.4798
11912	9.1875	4.0909	0.	4.5372e-003
11913	9.0956	4.1818	0.	4.6091e-003
11914	9.1875	4.1818	5.e-002	5.4709
11915	9.1875	3.9091	0.	4.0055e-003
11916	9.0956	4.	0.	4.0601e-003
11917	9.1875	4.	5.e-002	5.4619
11918	9.1875	3.7273	0.	3.5141e-003
11919	9.0956	3.8182	0.	3.5422e-003
11920	9.1875	3.8182	5.e-002	5.4533
11921	9.1875	3.5455	0.	3.0957e-003
11922	9.0956	3.6364	0.	3.0865e-003
11923	9.1875	3.6364	5.e-002	5.4457
11924	9.1875	3.3636	0.	2.776e-003
11925	9.0956	3.4545	0.	2.7203e-003
11926	9.1875	3.4545	5.e-002	5.4395
11927	9.1875	3.1818	0.	2.5753e-003
11928	9.0956	3.2727	0.	2.4626e-003
11929	9.1875	3.2727	5.e-002	5.4351
11930	9.1875	3.	0.	2.5073e-003
11931	9.0956	3.0909	0.	2.3296e-003
11932	9.1875	3.0909	5.e-002	5.4329
11933	9.1875	2.8182	0.	2.5758e-003
11934	9.0956	2.9091	0.	2.3298e-003
11935	9.1875	2.9091	5.e-002	5.4329
11936	9.1875	2.6364	0.	2.7762e-003
11937	9.0956	2.7273	0.	2.4628e-003
11938	9.1875	2.7273	5.e-002	5.4351
11939	9.1875	2.4545	0.	3.0957e-003
11940	9.0956	2.5455	0.	2.7203e-003
11941	9.1875	2.5455	5.e-002	5.4395
11942	9.1875	2.2727	0.	3.5145e-003
11943	9.0956	2.3636	0.	3.0867e-003
11944	9.1875	2.3636	5.e-002	5.4457
11945	9.1875	2.0909	0.	4.0059e-003
11946	9.0956	2.1818	0.	3.5427e-003
11947	9.1875	2.1818	5.e-002	5.4533
11948	9.1875	1.9091	0.	4.5374e-003
11949	9.0956	2.	0.	4.0603e-003
11950	9.1875	2.	5.e-002	5.4619
11951	9.1875	1.7273	0.	5.0749e-003
11952	9.0956	1.8182	0.	4.6094e-003
11953	9.1875	1.8182	5.e-002	5.4709
11954	9.1875	1.5455	0.	5.5849e-003
11955	9.0956	1.6364	0.	5.159e-003
11956	9.1875	1.6364	5.e-002	5.4798
11957	9.1875	1.3636	0.	6.0307e-003
11958	9.0956	1.4545	0.	5.6817e-003
11959	9.1875	1.4545	5.e-002	5.4878
11960	9.1875	1.1818	0.	6.3936e-003
11961	9.0956	1.2727	0.	6.1399e-003
11962	9.1875	1.2727	5.e-002	5.4946
11963	9.1875	1.	0.	6.6125e-003
11964	9.0956	1.0909	0.	6.5464e-003
11965	9.1875	1.0909	5.e-002	5.4994
11966	9.1875	0.81818	0.	6.856e-003
11967	9.0956	0.90909	0.	6.7649e-003
11968	9.1875	0.90909	5.e-002	5.5018
11969	9.1875	0.63636	0.	6.4038e-003
11970	9.0956	0.72727	0.	7.3568e-003
11971	9.1875	0.72727	5.e-002	5.5005
11972	9.1875	0.45455	0.	9.4065e-003
11973	9.0956	0.54545	0.	6.2036e-003
11974	9.1875	0.54545	5.e-002	5.4801
11975	9.1875	0.27273	0.	2.4412
11976	9.0956	0.36364	0.	1.9727e-002
11977	9.1875	0.36364	5.e-002	5.2144
11978	9.0956	0.18182	0.	4.2958
11979	9.1875	0.18182	5.e-002	1.2379
11980	9.1875	9.0909e-002	0.	3.6179
11981	9.0037	5.7273	0.	1.1722
11982	8.9119	5.8182	0.	3.3656
11983	9.0037	5.8182	5.e-002	1.3017
11984	9.0037	5.9091	0.	3.097
11985	9.0037	5.5455	0.	1.1932e-002
11986	8.9119	5.6364	0.	2.1807e-002
11987	9.0037	5.6364	5.e-002	5.2335
11988	9.0037	5.3636	0.	7.0542e-003
11989	8.9119	5.4545	0.	7.0666e-003
11990	9.0037	5.4545	5.e-002	5.4981
11991	9.0037	5.1818	0.	7.2352e-003
11992	8.9119	5.2727	0.	8.0337e-003
11993	9.0037	5.2727	5.e-002	5.52
11994	9.0037	5.	0.	6.6798e-003
11995	8.9119	5.0909	0.	6.9933e-003
11996	9.0037	5.0909	5.e-002	5.5235
11997	9.0037	4.8182	0.	6.2782e-003
11998	8.9119	4.9091	0.	6.5652e-003
11999	9.0037	4.9091	5.e-002	5.5236
12000	9.0037	4.6364	0.	5.779e-003
12001	8.9119	4.7273	0.	5.9876e-003
12002	9.0037	4.7273	5.e-002	5.5214
12003	9.0037	4.4545	0.	5.2455e-003
12004	8.9119	4.5455	0.	5.4174e-003
12005	9.0037	4.5455	5.e-002	5.5176
12006	9.0037	4.2727	0.	4.6838e-003
12007	8.9119	4.3636	0.	4.8202e-003
12008	9.0037	4.3636	5.e-002	5.5124
12009	9.0037	4.0909	0.	4.1226e-003
12010	8.9119	4.1818	0.	4.2276e-003
12011	9.0037	4.1818	5.e-002	5.5065
12012	9.0037	3.9091	0.	3.5868e-003
12013	8.9119	4.	0.	3.6584e-003
12014	9.0037	4.	5.e-002	5.5002
12015	9.0037	3.7273	0.	3.1038e-003
12016	8.9119	3.8182	0.	3.1359e-003
12017	9.0037	3.8182	5.e-002	5.4941
12018	9.0037	3.5455	0.	2.6995e-003
12019	8.9119	3.6364	0.	2.6852e-003
12020	9.0037	3.6364	5.e-002	5.4886
12021	9.0037	3.3636	0.	2.3946e-003
12022	8.9119	3.4545	0.	2.3281e-003
12023	9.0037	3.4545	5.e-002	5.4841
12024	9.0037	3.1818	0.	2.2042e-003
12025	8.9119	3.2727	0.	2.0791e-003
12026	9.0037	3.2727	5.e-002	5.4809
12027	9.0037	3.	0.	2.1392e-003
12028	8.9119	3.0909	0.	1.9509e-003
12029	9.0037	3.0909	5.e-002	5.4792
12030	9.0037	2.8182	0.	2.204e-003
12031	8.9119	2.9091	0.	1.951e-003
12032	9.0037	2.9091	5.e-002	5.4792
12033	9.0037	2.6364	0.	2.3945e-003
12034	8.9119	2.7273	0.	2.0791e-003
12035	9.0037	2.7273	5.e-002	5.4809
12036	9.0037	2.4545	0.	2.6996e-003
12037	8.9119	2.5455	0.	2.3282e-003
12038	9.0037	2.5455	5.e-002	5.4841
12039	9.0037	2.2727	0.	3.1041e-003
12040	8.9119	2.3636	0.	2.6855e-003
12041	9.0037	2.3636	5.e-002	5.4886
12042	9.0037	2.0909	0.	3.5871e-003
12043	8.9119	2.1818	0.	3.1363e-003
12044	9.0037	2.1818	5.e-002	5.4941
12045	9.0037	1.9091	0.	4.1229e-003
12046	8.9119	2.	0.	3.6587e-003
12047	9.0037	2.	5.e-002	5.5002
12048	9.0037	1.7273	0.	4.6843e-003
12049	8.9119	1.8182	0.	4.2282e-003
12050	9.0037	1.8182	5.e-002	5.5065
12051	9.0037	1.5455	0.	5.246e-003
12052	8.9119	1.6364	0.	4.8207e-003
12053	9.0037	1.6364	5.e-002	5.5124
12054	9.0037	1.3636	0.	5.7797e-003
12055	8.9119	1.4545	0.	5.418e-003
12056	9.0037	1.4545	5.e-002	5.5176
12057	9.0037	1.1818	0.	6.279e-003
12058	8.9119	1.2727	0.	5.9884e-003
12059	9.0037	1.2727	5.e-002	5.5214
12060	9.0037	1.	0.	6.6809e-003
12061	8.9119	1.0909	0.	6.566e-003
12062	9.0037	1.0909	5.e-002	5.5235
12063	9.0037	0.81818	0.	7.2365e-003
12064	8.9119	0.90909	0.	6.9949e-003
12065	9.0037	0.90909	5.e-002	5.5235
12066	9.0037	0.63636	0.	7.0551e-003
12067	8.9119	0.72727	0.	8.0348e-003
12068	9.0037	0.72727	5.e-002	5.52
12069	9.0037	0.45455	0.	1.1933e-002
12070	8.9119	0.54545	0.	7.067e-003
12071	9.0037	0.54545	5.e-002	5.498
12072	9.0037	0.27273	0.	1.1722
12073	8.9119	0.36364	0.	2.1808e-002
12074	9.0037	0.36364	5.e-002	5.2335
12075	8.9119	0.18182	0.	3.3656
12076	9.0037	0.18182	5.e-002	1.3016
12077	9.0037	9.0909e-002	0.	3.097
12078	8.82	5.7273	0.	0.1588
12079	8.7281	5.8182	0.	2.4118
12080	8.82	5.8182	5.e-002	1.3825
12081	8.82	5.9091	0.	2.5584
12082	8.82	5.5455	0.	1.4534e-002
12083	8.7281	5.6364	0.	2.5916e-002
12084	8.82	5.6364	5.e-002	5.2583
12085	8.82	5.3636	0.	7.8439e-003
12086	8.7281	5.4545	0.	8.0606e-003
12087	8.82	5.4545	5.e-002	5.5209
12088	8.82	5.1818	0.	7.7276e-003
12089	8.7281	5.2727	0.	8.8316e-003
12090	8.82	5.2727	5.e-002	5.544
12091	8.82	5.	0.	6.8448e-003
12092	8.7281	5.0909	0.	7.3245e-003
12093	8.82	5.0909	5.e-002	5.5492
12094	8.82	4.8182	0.	6.2515e-003
12095	8.7281	4.9091	0.	6.6737e-003
12096	8.82	4.9091	5.e-002	5.5513
12097	8.82	4.6364	0.	5.6082e-003
12098	8.7281	4.7273	0.	5.9156e-003
12099	8.82	4.7273	5.e-002	5.5513
12100	8.82	4.4545	0.	4.9771e-003
12101	8.7281	4.5455	0.	5.2226e-003
12102	8.82	4.5455	5.e-002	5.5497
12103	8.82	4.2727	0.	4.3506e-003
12104	8.7281	4.3636	0.	4.539e-003
12105	8.82	4.3636	5.e-002	5.5469
12106	8.82	4.0909	0.	3.7508e-003
12107	8.7281	4.1818	0.	3.8892e-003
12108	8.82	4.1818	5.e-002	5.5432
12109	8.82	3.9091	0.	3.1952e-003
12110	8.7281	4.	0.	3.2852e-003
12111	8.82	4.	5.e-002	5.5391
12112	8.82	3.7273	0.	2.705e-003
12113	8.7281	3.8182	0.	2.7435e-003
12114	8.82	3.8182	5.e-002	5.5349
12115	8.82	3.5455	0.	2.3013e-003
12116	8.7281	3.6364	0.	2.2845e-003
12117	8.82	3.6364	5.e-002	5.5311
12118	8.82	3.3636	0.	2.e-003
12119	8.7281	3.4545	0.	1.9251e-003
12120	8.82	3.4545	5.e-002	5.5278
12121	8.82	3.1818	0.	1.8131e-003
12122	8.7281	3.2727	0.	1.6763e-003
12123	8.82	3.2727	5.e-002	5.5256
12124	8.82	3.	0.	1.7499e-003
12125	8.7281	3.0909	0.	1.5494e-003
12126	8.82	3.0909	5.e-002	5.5244
12127	8.82	2.8182	0.	1.8133e-003
12128	8.7281	2.9091	0.	1.5496e-003
12129	8.82	2.9091	5.e-002	5.5244
12130	8.82	2.6364	0.	2.0001e-003
12131	8.7281	2.7273	0.	1.6767e-003
12132	8.82	2.7273	5.e-002	5.5256
12133	8.82	2.4545	0.	2.3016e-003
12134	8.7281	2.5455	0.	1.9252e-003
12135	8.82	2.5455	5.e-002	5.5278
12136	8.82	2.2727	0.	2.7054e-003
12137	8.7281	2.3636	0.	2.2846e-003
12138	8.82	2.3636	5.e-002	5.5311
12139	8.82	2.0909	0.	3.1956e-003
12140	8.7281	2.1818	0.	2.7438e-003
12141	8.82	2.1818	5.e-002	5.5349
12142	8.82	1.9091	0.	3.7514e-003
12143	8.7281	2.	0.	3.2856e-003
12144	8.82	2.	5.e-002	5.5391
12145	8.82	1.7273	0.	4.3512e-003
12146	8.7281	1.8182	0.	3.89e-003
12147	8.82	1.8182	5.e-002	5.5432
12148	8.82	1.5455	0.	4.9776e-003
12149	8.7281	1.6364	0.	4.5394e-003
12150	8.82	1.6364	5.e-002	5.5469
12151	8.82	1.3636	0.	5.6089e-003
12152	8.7281	1.4545	0.	5.2233e-003
12153	8.82	1.4545	5.e-002	5.5497
12154	8.82	1.1818	0.	6.2523e-003
12155	8.7281	1.2727	0.	5.9163e-003
12156	8.82	1.2727	5.e-002	5.5513
12157	8.82	1.	0.	6.846e-003
12158	8.7281	1.0909	0.	6.6745e-003
12159	8.82	1.0909	5.e-002	5.5512
12160	8.82	0.81818	0.	7.729e-003
12161	8.7281	0.90909	0.	7.3261e-003
12162	8.82	0.90909	5.e-002	5.5492
12163	8.82	0.63636	0.	7.8445e-003
12164	8.7281	0.72727	0.	8.8325e-003
12165	8.82	0.72727	5.e-002	5.544
12166	8.82	0.45455	0.	1.4535e-002
12167	8.7281	0.54545	0.	8.0606e-003
12168	8.82	0.54545	5.e-002	5.5208
12169	8.82	0.27273	0.	0.15881
12170	8.7281	0.36364	0.	2.5917e-002
12171	8.82	0.36364	5.e-002	5.2583
12172	8.7281	0.18182	0.	2.4119
12173	8.82	0.18182	5.e-002	1.3825
12174	8.82	9.0909e-002	0.	2.5584
12175	8.6362	5.7273	0.	5.6272e-002
12176	8.5444	5.8182	0.	1.4549
12177	8.6362	5.8182	5.e-002	1.4795
12178	8.6362	5.9091	0.	2.0022
12179	8.6362	5.5455	0.	1.7268e-002
12180	8.5444	5.6364	0.	3.0422e-002
12181	8.6362	5.6364	5.e-002	5.2884
12182	8.6362	5.3636	0.	8.7569e-003
12183	8.5444	5.4545	0.	9.1764e-003
12184	8.6362	5.4545	5.e-002	5.548
12185	8.6362	5.1818	0.	8.3275e-003
12186	8.5444	5.2727	0.	9.746e-003
12187	8.6362	5.2727	5.e-002	5.5721
12188	8.6362	5.	0.	7.1014e-003
12189	8.5444	5.0909	0.	7.7528e-003
12190	8.6362	5.0909	5.e-002	5.5787
12191	8.6362	4.8182	0.	6.3043e-003
12192	8.5444	4.9091	0.	6.8659e-003
12193	8.6362	4.9091	5.e-002	5.5823
12194	8.6362	4.6364	0.	5.5053e-003
12195	8.5444	4.7273	0.	5.914e-003
12196	8.6362	4.7273	5.e-002	5.5841
12197	8.6362	4.4545	0.	4.7646e-003
12198	8.5444	4.5455	0.	5.086e-003
12199	8.6362	4.5455	5.e-002	5.5843
12200	8.6362	4.2727	0.	4.0605e-003
12201	8.5444	4.3636	0.	4.3025e-003
12202	8.6362	4.3636	5.e-002	5.5832
12203	8.6362	4.0909	0.	3.4081e-003
12204	8.5444	4.1818	0.	3.5826e-003
12205	8.6362	4.1818	5.e-002	5.5813
12206	8.6362	3.9091	0.	2.8189e-003
12207	8.5444	4.	0.	2.9297e-003
12208	8.6362	4.	5.e-002	5.5789
12209	8.6362	3.7273	0.	2.309e-003
12210	8.5444	3.8182	0.	2.3562e-003
12211	8.6362	3.8182	5.e-002	5.5762
12212	8.6362	3.5455	0.	1.8947e-003
12213	8.5444	3.6364	0.	1.8773e-003
12214	8.6362	3.6364	5.e-002	5.5736
12215	8.6362	3.3636	0.	1.588e-003
12216	8.5444	3.4545	0.	1.5062e-003
12217	8.6362	3.4545	5.e-002	5.5714
12218	8.6362	3.1818	0.	1.3993e-003
12219	8.5444	3.2727	0.	1.2516e-003
12220	8.6362	3.2727	5.e-002	5.5698
12221	8.6362	3.	0.	1.3358e-003
12222	8.5444	3.0909	0.	1.1219e-003
12223	8.6362	3.0909	5.e-002	5.569
12224	8.6362	2.8182	0.	1.3997e-003
12225	8.5444	2.9091	0.	1.1222e-003
12226	8.6362	2.9091	5.e-002	5.569
12227	8.6362	2.6364	0.	1.5883e-003
12228	8.5444	2.7273	0.	1.252e-003
12229	8.6362	2.7273	5.e-002	5.5698
12230	8.6362	2.4545	0.	1.8946e-003
12231	8.5444	2.5455	0.	1.5064e-003
12232	8.6362	2.5455	5.e-002	5.5714
12233	8.6362	2.2727	0.	2.3092e-003
12234	8.5444	2.3636	0.	1.8775e-003
12235	8.6362	2.3636	5.e-002	5.5736
12236	8.6362	2.0909	0.	2.8194e-003
12237	8.5444	2.1818	0.	2.3566e-003
12238	8.6362	2.1818	5.e-002	5.5762
12239	8.6362	1.9091	0.	3.4087e-003
12240	8.5444	2.	0.	2.9301e-003
12241	8.6362	2.	5.e-002	5.5788
12242	8.6362	1.7273	0.	4.061e-003
12243	8.5444	1.8182	0.	3.5831e-003
12244	8.6362	1.8182	5.e-002	5.5813
12245	8.6362	1.5455	0.	4.7651e-003
12246	8.5444	1.6364	0.	4.3032e-003
12247	8.6362	1.6364	5.e-002	5.5832
12248	8.6362	1.3636	0.	5.506e-003
12249	8.5444	1.4545	0.	5.0865e-003
12250	8.6362	1.4545	5.e-002	5.5843
12251	8.6362	1.1818	0.	6.3049e-003
12252	8.5444	1.2727	0.	5.9147e-003
12253	8.6362	1.2727	5.e-002	5.584
12254	8.6362	1.	0.	7.1024e-003
12255	8.5444	1.0909	0.	6.8665e-003
12256	8.6362	1.0909	5.e-002	5.5823
12257	8.6362	0.81818	0.	8.3287e-003
12258	8.5444	0.90909	0.	7.7542e-003
12259	8.6362	0.90909	5.e-002	5.5787
12260	8.6362	0.63636	0.	8.7573e-003
12261	8.5444	0.72727	0.	9.7468e-003
12262	8.6362	0.72727	5.e-002	5.5721
12263	8.6362	0.45455	0.	1.7269e-002
12264	8.5444	0.54545	0.	9.1766e-003
12265	8.6362	0.54545	5.e-002	5.548
12266	8.6362	0.27273	0.	5.6275e-002
12267	8.5444	0.36364	0.	3.0423e-002
12268	8.6362	0.36364	5.e-002	5.2884
12269	8.5444	0.18182	0.	1.4549
12270	8.6362	0.18182	5.e-002	1.4794
12271	8.6362	9.0909e-002	0.	2.0023
12272	8.4525	5.7273	0.	4.6066e-002
12273	8.3606	5.8182	0.	0.62496
12274	8.4525	5.8182	5.e-002	1.5921
12275	8.4525	5.9091	0.	1.4344
12276	8.4525	5.5455	0.	2.0157e-002
12277	8.3606	5.6364	0.	3.5217e-002
12278	8.4525	5.6364	5.e-002	5.3233
12279	8.4525	5.3636	0.	9.7893e-003
12280	8.3606	5.4545	0.	1.0414e-002
12281	8.4525	5.4545	5.e-002	5.5792
12282	8.4525	5.1818	0.	9.0325e-003
12283	8.3606	5.2727	0.	1.0777e-002
12284	8.4525	5.2727	5.e-002	5.604
12285	8.4525	5.	0.	7.4455e-003
12286	8.3606	5.0909	0.	8.2753e-003
12287	8.4525	5.0909	5.e-002	5.6118
12288	8.4525	4.8182	0.	6.4305e-003
12289	8.3606	4.9091	0.	7.137e-003
12290	8.4525	4.9091	5.e-002	5.6166
12291	8.4525	4.6364	0.	5.4623e-003
12292	8.3606	4.7273	0.	5.9765e-003
12293	8.4525	4.7273	5.e-002	5.6197
12294	8.4525	4.4545	0.	4.5986e-003
12295	8.3606	4.5455	0.	4.9996e-003
12296	8.4525	4.5455	5.e-002	5.6213
12297	8.4525	4.2727	0.	3.8035e-003
12298	8.3606	4.3636	0.	4.103e-003
12299	8.4525	4.3636	5.e-002	5.6216
12300	8.4525	4.0909	0.	3.0856e-003
12301	8.3606	4.1818	0.	3.299e-003
12302	8.4525	4.1818	5.e-002	5.6211
12303	8.4525	3.9091	0.	2.4501e-003
12304	8.3606	4.	0.	2.585e-003
12305	8.4525	4.	5.e-002	5.6199
12306	8.4525	3.7273	0.	1.9087e-003
12307	8.3606	3.8182	0.	1.9677e-003
12308	8.4525	3.8182	5.e-002	5.6184
12309	8.4525	3.5455	0.	1.4738e-003
12310	8.3606	3.6364	0.	1.4585e-003
12311	8.4525	3.6364	5.e-002	5.6168
12312	8.4525	3.3636	0.	1.1551e-003
12313	8.3606	3.4545	0.	1.0676e-003
12314	8.4525	3.4545	5.e-002	5.6153
12315	8.4525	3.1818	0.	9.5975e-004
12316	8.3606	3.2727	0.	8.012e-004
12317	8.4525	3.2727	5.e-002	5.6143
12318	8.4525	3.	0.	8.9396e-004
12319	8.3606	3.0909	0.	6.6588e-004
12320	8.4525	3.0909	5.e-002	5.6137
12321	8.4525	2.8182	0.	9.6011e-004
12322	8.3606	2.9091	0.	6.6612e-004
12323	8.4525	2.9091	5.e-002	5.6137
12324	8.4525	2.6364	0.	1.1554e-003
12325	8.3606	2.7273	0.	8.0149e-004
12326	8.4525	2.7273	5.e-002	5.6142
12327	8.4525	2.4545	0.	1.4742e-003
12328	8.3606	2.5455	0.	1.0677e-003
12329	8.4525	2.5455	5.e-002	5.6153
12330	8.4525	2.2727	0.	1.9092e-003
12331	8.3606	2.3636	0.	1.4588e-003
12332	8.4525	2.3636	5.e-002	5.6167
12333	8.4525	2.0909	0.	2.4506e-003
12334	8.3606	2.1818	0.	1.9682e-003
12335	8.4525	2.1818	5.e-002	5.6183
12336	8.4525	1.9091	0.	3.086e-003
12337	8.3606	2.	0.	2.5853e-003
12338	8.4525	2.	5.e-002	5.6199
12339	8.4525	1.7273	0.	3.8042e-003
12340	8.3606	1.8182	0.	3.2997e-003
12341	8.4525	1.8182	5.e-002	5.6211
12342	8.4525	1.5455	0.	4.5993e-003
12343	8.3606	1.6364	0.	4.1036e-003
12344	8.4525	1.6364	5.e-002	5.6216
12345	8.4525	1.3636	0.	5.4629e-003
12346	8.3606	1.4545	0.	5.0001e-003
12347	8.4525	1.4545	5.e-002	5.6213
12348	8.4525	1.1818	0.	6.4311e-003
12349	8.3606	1.2727	0.	5.9773e-003
12350	8.4525	1.2727	5.e-002	5.6197
12351	8.4525	1.	0.	7.4464e-003
12352	8.3606	1.0909	0.	7.1375e-003
12353	8.4525	1.0909	5.e-002	5.6166
12354	8.4525	0.81818	0.	9.0335e-003
12355	8.3606	0.90909	0.	8.2769e-003
12356	8.4525	0.90909	5.e-002	5.6117
12357	8.4525	0.63636	0.	9.7899e-003
12358	8.3606	0.72727	0.	1.0778e-002
12359	8.4525	0.72727	5.e-002	5.604
12360	8.4525	0.45455	0.	2.0158e-002
12361	8.3606	0.54545	0.	1.0415e-002
12362	8.4525	0.54545	5.e-002	5.5792
12363	8.4525	0.27273	0.	4.6068e-002
12364	8.3606	0.36364	0.	3.5218e-002
12365	8.4525	0.36364	5.e-002	5.3233
12366	8.3606	0.18182	0.	0.625
12367	8.4525	0.18182	5.e-002	1.592
12368	8.4525	9.0909e-002	0.	1.4345
12369	8.2688	5.7273	0.	4.4657e-002
12370	8.1769	5.8182	0.	0.25448
12371	8.2688	5.8182	5.e-002	1.7201
12372	8.2688	5.9091	0.	0.88102
12373	8.2688	5.5455	0.	2.3224e-002
12374	8.1769	5.6364	0.	4.0307e-002
12375	8.2688	5.6364	5.e-002	5.3629
12376	8.2688	5.3636	0.	1.0942e-002
12377	8.1769	5.4545	0.	1.1778e-002
12378	8.2688	5.4545	5.e-002	5.6142
12379	8.2688	5.1818	0.	9.842e-003
12380	8.1769	5.2727	0.	1.1927e-002
12381	8.2688	5.2727	5.e-002	5.6396
12382	8.2688	5.	0.	7.874e-003
12383	8.1769	5.0909	0.	8.891e-003
12384	8.2688	5.0909	5.e-002	5.6482
12385	8.2688	4.8182	0.	6.6253e-003
12386	8.1769	4.9091	0.	7.4839e-003
12387	8.2688	4.9091	5.e-002	5.6541
12388	8.2688	4.6364	0.	5.4732e-003
12389	8.1769	4.7273	0.	6.0991e-003
12390	8.2688	4.7273	5.e-002	5.6582
12391	8.2688	4.4545	0.	4.4728e-003
12392	8.1769	4.5455	0.	4.958e-003
12393	8.2688	4.5455	5.e-002	5.6609
12394	8.2688	4.2727	0.	3.573e-003
12395	8.1769	4.3636	0.	3.9344e-003
12396	8.2688	4.3636	5.e-002	5.6623
12397	8.2688	4.0909	0.	2.7765e-003
12398	8.1769	4.1818	0.	3.0331e-003
12399	8.2688	4.1818	5.e-002	5.6628
12400	8.2688	3.9091	0.	2.0831e-003
12401	8.1769	4.	0.	2.2455e-003
12402	8.2688	4.	5.e-002	5.6625
12403	8.2688	3.7273	0.	1.4995e-003
12404	8.1769	3.8182	0.	1.5732e-003
12405	8.2688	3.8182	5.e-002	5.6618
12406	8.2688	3.5455	0.	1.0353e-003
12407	8.1769	3.6364	0.	1.0241e-003
12408	8.2688	3.6364	5.e-002	5.6609
12409	8.2688	3.3636	0.	6.9735e-004
12410	8.1769	3.4545	0.	6.0578e-004
12411	8.2688	3.4545	5.e-002	5.6601
12412	8.2688	3.1818	0.	4.9136e-004
12413	8.1769	3.2727	0.	3.2213e-004
12414	8.2688	3.2727	5.e-002	5.6594
12415	8.2688	3.	0.	4.2218e-004
12416	8.1769	3.0909	0.	1.7875e-004
12417	8.2688	3.0909	5.e-002	5.659
12418	8.2688	2.8182	0.	4.9153e-004
12419	8.1769	2.9091	0.	1.7881e-004
12420	8.2688	2.9091	5.e-002	5.659
12421	8.2688	2.6364	0.	6.9744e-004
12422	8.1769	2.7273	0.	3.2237e-004
12423	8.2688	2.7273	5.e-002	5.6594
12424	8.2688	2.4545	0.	1.0354e-003
12425	8.1769	2.5455	0.	6.0583e-004
12426	8.2688	2.5455	5.e-002	5.6601
12427	8.2688	2.2727	0.	1.4999e-003
12428	8.1769	2.3636	0.	1.0244e-003
12429	8.2688	2.3636	5.e-002	5.6609
12430	8.2688	2.0909	0.	2.0834e-003
12431	8.1769	2.1818	0.	1.5736e-003
12432	8.2688	2.1818	5.e-002	5.6618
12433	8.2688	1.9091	0.	2.7771e-003
12434	8.1769	2.	0.	2.2458e-003
12435	8.2688	2.	5.e-002	5.6625
12436	8.2688	1.7273	0.	3.5736e-003
12437	8.1769	1.8182	0.	3.0338e-003
12438	8.2688	1.8182	5.e-002	5.6627
12439	8.2688	1.5455	0.	4.4732e-003
12440	8.1769	1.6364	0.	3.9348e-003
12441	8.2688	1.6364	5.e-002	5.6623
12442	8.2688	1.3636	0.	5.4738e-003
12443	8.1769	1.4545	0.	4.9587e-003
12444	8.2688	1.4545	5.e-002	5.6608
12445	8.2688	1.1818	0.	6.626e-003
12446	8.1769	1.2727	0.	6.0997e-003
12447	8.2688	1.2727	5.e-002	5.6582
12448	8.2688	1.	0.	7.8753e-003
12449	8.1769	1.0909	0.	7.4846e-003
12450	8.2688	1.0909	5.e-002	5.6541
12451	8.2688	0.81818	0.	9.8433e-003
12452	8.1769	0.90909	0.	8.8927e-003
12453	8.2688	0.90909	5.e-002	5.6482
12454	8.2688	0.63636	0.	1.0943e-002
12455	8.1769	0.72727	0.	1.1928e-002
12456	8.2688	0.72727	5.e-002	5.6396
12457	8.2688	0.45455	0.	2.3225e-002
12458	8.1769	0.54545	0.	1.1779e-002
12459	8.2688	0.54545	5.e-002	5.6142
12460	8.2688	0.27273	0.	4.4659e-002
12461	8.1769	0.36364	0.	4.0309e-002
12462	8.2688	0.36364	5.e-002	5.3629
12463	8.1769	0.18182	0.	0.25449
12464	8.2688	0.18182	5.e-002	1.7201
12465	8.2688	9.0909e-002	0.	0.88105
12466	8.085	5.7273	0.	4.5969e-002
12467	7.9931	5.8182	0.	0.15951
12468	8.085	5.8182	5.e-002	1.8638
12469	8.085	5.9091	0.	0.44172
12470	8.085	5.5455	0.	2.6494e-002
12471	7.9931	5.6364	0.	4.5726e-002
12472	8.085	5.6364	5.e-002	5.4071
12473	8.085	5.3636	0.	1.2219e-002
12474	7.9931	5.4545	0.	1.3275e-002
12475	8.085	5.4545	5.e-002	5.6531
12476	8.085	5.1818	0.	1.0758e-002
12477	7.9931	5.2727	0.	1.32e-002
12478	8.085	5.2727	5.e-002	5.6787
12479	8.085	5.	0.	8.3859e-003
12480	7.9931	5.0909	0.	9.6003e-003
12481	8.085	5.0909	5.e-002	5.6881
12482	8.085	4.8182	0.	6.8863e-003
12483	7.9931	4.9091	0.	7.9056e-003
12484	8.085	4.9091	5.e-002	5.6948
12485	8.085	4.6364	0.	5.5342e-003
12486	7.9931	4.7273	0.	6.2784e-003
12487	8.085	4.7273	5.e-002	5.6997
12488	8.085	4.4545	0.	4.382e-003
12489	7.9931	4.5455	0.	4.9576e-003
12490	8.085	4.5455	5.e-002	5.7031
12491	8.085	4.2727	0.	3.3642e-003
12492	7.9931	4.3636	0.	3.792e-003
12493	8.085	4.3636	5.e-002	5.7054
12494	8.085	4.0909	0.	2.4765e-003
12495	7.9931	4.1818	0.	2.7807e-003
12496	8.085	4.1818	5.e-002	5.7066
12497	8.085	3.9091	0.	1.713e-003
12498	7.9931	4.	0.	1.9066e-003
12499	8.085	4.	5.e-002	5.707
12500	8.085	3.7273	0.	1.0773e-003
12501	7.9931	3.8182	0.	1.1685e-003
12502	8.085	3.8182	5.e-002	5.7069
12503	8.085	3.5455	0.	5.7537e-004
12504	7.9931	3.6364	0.	5.7058e-004
12505	8.085	3.6364	5.e-002	5.7065
12506	8.085	3.3636	0.	2.1221e-004
12507	7.9931	3.4545	0.	1.1753e-004
12508	8.085	3.4545	5.e-002	5.7061
12509	8.085	3.1818	0.	-8.3346e-006
12510	7.9931	3.2727	0.	-1.8798e-004
12511	8.085	3.2727	5.e-002	5.7057
12512	8.085	3.	0.	-8.2319e-005
12513	7.9931	3.0909	0.	-3.4234e-004
12514	8.085	3.0909	5.e-002	5.7055
12515	8.085	2.8182	0.	-8.2169e-006
12516	7.9931	2.9091	0.	-3.422e-004
12517	8.085	2.9091	5.e-002	5.7055
12518	8.085	2.6364	0.	2.1241e-004
12519	7.9931	2.7273	0.	-1.8798e-004
12520	8.085	2.7273	5.e-002	5.7057
12521	8.085	2.4545	0.	5.7564e-004
12522	7.9931	2.5455	0.	1.1798e-004
12523	8.085	2.5455	5.e-002	5.7061
12524	8.085	2.2727	0.	1.0776e-003
12525	7.9931	2.3636	0.	5.7076e-004
12526	8.085	2.3636	5.e-002	5.7065
12527	8.085	2.0909	0.	1.7134e-003
12528	7.9931	2.1818	0.	1.1691e-003
12529	8.085	2.1818	5.e-002	5.7069
12530	8.085	1.9091	0.	2.4768e-003
12531	7.9931	2.	0.	1.907e-003
12532	8.085	2.	5.e-002	5.707
12533	8.085	1.7273	0.	3.3646e-003
12534	7.9931	1.8182	0.	2.7809e-003
12535	8.085	1.8182	5.e-002	5.7065
12536	8.085	1.5455	0.	4.3826e-003
12537	7.9931	1.6364	0.	3.7926e-003
12538	8.085	1.6364	5.e-002	5.7053
12539	8.085	1.3636	0.	5.5349e-003
12540	7.9931	1.4545	0.	4.9583e-003
12541	8.085	1.4545	5.e-002	5.7031
12542	8.085	1.1818	0.	6.887e-003
12543	7.9931	1.2727	0.	6.279e-003
12544	8.085	1.2727	5.e-002	5.6997
12545	8.085	1.	0.	8.387e-003
12546	7.9931	1.0909	0.	7.9063e-003
12547	8.085	1.0909	5.e-002	5.6948
12548	8.085	0.81818	0.	1.0759e-002
12549	7.9931	0.90909	0.	9.6017e-003
12550	8.085	0.90909	5.e-002	5.6881
12551	8.085	0.63636	0.	1.2219e-002
12552	7.9931	0.72727	0.	1.3201e-002
12553	8.085	0.72727	5.e-002	5.6787
12554	8.085	0.45455	0.	2.6495e-002
12555	7.9931	0.54545	0.	1.3275e-002
12556	8.085	0.54545	5.e-002	5.653
12557	8.085	0.27273	0.	4.597e-002
12558	7.9931	0.36364	0.	4.5727e-002
12559	8.085	0.36364	5.e-002	5.407
12560	7.9931	0.18182	0.	0.15952
12561	8.085	0.18182	5.e-002	1.8637
12562	8.085	9.0909e-002	0.	0.44174
12563	7.9012	5.7273	0.	4.8619e-002
12564	7.8094	5.8182	0.	0.12633
12565	7.9012	5.8182	5.e-002	2.0235
12566	7.9012	5.9091	0.	0.23827
12567	7.9012	5.5455	0.	2.9993e-002
12568	7.8094	5.6364	0.	5.1511e-002
12569	7.9012	5.6364	5.e-002	5.4558
12570	7.9012	5.3636	0.	1.3625e-002
12571	7.8094	5.4545	0.	1.4914e-002
12572	7.9012	5.4545	5.e-002	5.6956
12573	7.9012	5.1818	0.	1.1782e-002
12574	7.8094	5.2727	0.	1.4603e-002
12575	7.9012	5.2727	5.e-002	5.7214
12576	7.9012	5.	0.	8.9813e-003
12577	7.8094	5.0909	0.	1.0405e-002
12578	7.9012	5.0909	5.e-002	5.7315
12579	7.9012	4.8182	0.	7.2115e-003
12580	7.8094	4.9091	0.	8.4017e-003
12581	7.9012	4.9091	5.e-002	5.7388
12582	7.9012	4.6364	0.	5.6421e-003
12583	7.8094	4.7273	0.	6.5124e-003
12584	7.9012	4.7273	5.e-002	5.7443
12585	7.9012	4.4545	0.	4.3229e-003
12586	7.8094	4.5455	0.	4.9957e-003
12587	7.9012	4.5455	5.e-002	5.7483
12588	7.9012	4.2727	0.	3.1728e-003
12589	7.8094	4.3636	0.	3.6729e-003
12590	7.9012	4.3636	5.e-002	5.7511
12591	7.9012	4.0909	0.	2.1809e-003
12592	7.8094	4.1818	0.	2.5374e-003
12593	7.9012	4.1818	5.e-002	5.7528
12594	7.9012	3.9091	0.	1.336e-003
12595	7.8094	4.	0.	1.5651e-003
12596	7.9012	4.	5.e-002	5.7536
12597	7.9012	3.7273	0.	6.3826e-004
12598	7.8094	3.8182	0.	7.503e-004
12599	7.9012	3.8182	5.e-002	5.754
12600	7.9012	3.5455	0.	9.0918e-005
12601	7.8094	3.6364	0.	9.4749e-005
12602	7.9012	3.6364	5.e-002	5.754
12603	7.9012	3.3636	0.	-3.0338e-004
12604	7.8094	3.4545	0.	-3.9989e-004
12605	7.9012	3.4545	5.e-002	5.7538
12606	7.9012	3.1818	0.	-5.4211e-004
12607	7.8094	3.2727	0.	-7.3211e-004
12608	7.9012	3.2727	5.e-002	5.7535
12609	7.9012	3.	0.	-6.2215e-004
12610	7.8094	3.0909	0.	-8.9962e-004
12611	7.9012	3.0909	5.e-002	5.7534
12612	7.9012	2.8182	0.	-5.4208e-004
12613	7.8094	2.9091	0.	-8.9956e-004
12614	7.9012	2.9091	5.e-002	5.7534
12615	7.9012	2.6364	0.	-3.0315e-004
12616	7.8094	2.7273	0.	-7.3211e-004
12617	7.9012	2.7273	5.e-002	5.7535
12618	7.9012	2.4545	0.	9.1272e-005
12619	7.8094	2.5455	0.	-3.9939e-004
12620	7.9012	2.5455	5.e-002	5.7538
12621	7.9012	2.2727	0.	6.387e-004
12622	7.8094	2.3636	0.	9.4863e-005
12623	7.9012	2.3636	5.e-002	5.7539
12624	7.9012	2.0909	0.	1.3366e-003
12625	7.8094	2.1818	0.	7.5098e-004
12626	7.9012	2.1818	5.e-002	5.754
12627	7.9012	1.9091	0.	2.1813e-003
12628	7.8094	2.	0.	1.5654e-003
12629	7.9012	2.	5.e-002	5.7536
12630	7.9012	1.7273	0.	3.1732e-003
12631	7.8094	1.8182	0.	2.5379e-003
12632	7.9012	1.8182	5.e-002	5.7527
12633	7.9012	1.5455	0.	4.3236e-003
12634	7.8094	1.6364	0.	3.6735e-003
12635	7.9012	1.6364	5.e-002	5.751
12636	7.9012	1.3636	0.	5.6428e-003
12637	7.8094	1.4545	0.	4.9964e-003
12638	7.9012	1.4545	5.e-002	5.7483
12639	7.9012	1.1818	0.	7.2122e-003
12640	7.8094	1.2727	0.	6.5131e-003
12641	7.9012	1.2727	5.e-002	5.7442
12642	7.9012	1.	0.	8.9822e-003
12643	7.8094	1.0909	0.	8.4022e-003
12644	7.9012	1.0909	5.e-002	5.7387
12645	7.9012	0.81818	0.	1.1783e-002
12646	7.8094	0.90909	0.	1.0406e-002
12647	7.9012	0.90909	5.e-002	5.7314
12648	7.9012	0.63636	0.	1.3626e-002
12649	7.8094	0.72727	0.	1.4604e-002
12650	7.9012	0.72727	5.e-002	5.7214
12651	7.9012	0.45455	0.	2.9993e-002
12652	7.8094	0.54545	0.	1.4914e-002
12653	7.9012	0.54545	5.e-002	5.6955
12654	7.9012	0.27273	0.	4.862e-002
12655	7.8094	0.36364	0.	5.1512e-002
12656	7.9012	0.36364	5.e-002	5.4558
12657	7.8094	0.18182	0.	0.12633
12658	7.9012	0.18182	5.e-002	2.0234
12659	7.9012	9.0909e-002	0.	0.23828
12660	7.7175	5.7273	0.	5.2149e-002
12661	7.6256	5.8182	0.	0.11176
12662	7.7175	5.8182	5.e-002	2.1997
12663	7.7175	5.9091	0.	0.16857
12664	7.7175	5.5455	0.	3.3747e-002
12665	7.6256	5.6364	0.	5.7707e-002
12666	7.7175	5.6364	5.e-002	5.5092
12667	7.7175	5.3636	0.	1.5169e-002
12668	7.6256	5.4545	0.	1.6705e-002
12669	7.7175	5.4545	5.e-002	5.7419
12670	7.7175	5.1818	0.	1.292e-002
12671	7.6256	5.2727	0.	1.6143e-002
12672	7.7175	5.2727	5.e-002	5.7679
12673	7.7175	5.	0.	9.6612e-003
12674	7.6256	5.0909	0.	1.1307e-002
12675	7.7175	5.0909	5.e-002	5.7784
12676	7.7175	4.8182	0.	7.6007e-003
12677	7.6256	4.9091	0.	8.9729e-003
12678	7.7175	4.9091	5.e-002	5.7862
12679	7.7175	4.6364	0.	5.7958e-003
12680	7.6256	4.7273	0.	6.801e-003
12681	7.7175	4.7273	5.e-002	5.7921
12682	7.7175	4.4545	0.	4.2933e-003
12683	7.6256	4.5455	0.	5.0703e-003
12684	7.7175	4.5455	5.e-002	5.7965
12685	7.7175	4.2727	0.	2.9959e-003
12686	7.6256	4.3636	0.	3.5745e-003
12687	7.7175	4.3636	5.e-002	5.7996
12688	7.7175	4.0909	0.	1.8869e-003
12689	7.6256	4.1818	0.	2.3006e-003
12690	7.7175	4.1818	5.e-002	5.8016
12691	7.7175	3.9091	0.	9.4937e-004
12692	7.6256	4.	0.	1.2174e-003
12693	7.7175	4.	5.e-002	5.8028
12694	7.7175	3.7273	0.	1.7989e-004
12695	7.6256	3.8182	0.	3.1577e-004
12696	7.7175	3.8182	5.e-002	5.8033
12697	7.7175	3.5455	0.	-4.2088e-004
12698	7.6256	3.6364	0.	-4.0671e-004
12699	7.7175	3.6364	5.e-002	5.8035
12700	7.7175	3.3636	0.	-8.521e-004
12701	7.6256	3.4545	0.	-9.4939e-004
12702	7.7175	3.4545	5.e-002	5.8034
12703	7.7175	3.1818	0.	-1.1124e-003
12704	7.6256	3.2727	0.	-1.3132e-003
12705	7.7175	3.2727	5.e-002	5.8033
12706	7.7175	3.	0.	-1.1995e-003
12707	7.6256	3.0909	0.	-1.4959e-003
12708	7.7175	3.0909	5.e-002	5.8032
12709	7.7175	2.8182	0.	-1.1123e-003
12710	7.6256	2.9091	0.	-1.496e-003
12711	7.7175	2.9091	5.e-002	5.8032
12712	7.7175	2.6364	0.	-8.5184e-004
12713	7.6256	2.7273	0.	-1.313e-003
12714	7.7175	2.7273	5.e-002	5.8033
12715	7.7175	2.4545	0.	-4.2061e-004
12716	7.6256	2.5455	0.	-9.4918e-004
12717	7.7175	2.5455	5.e-002	5.8034
12718	7.7175	2.2727	0.	1.8024e-004
12719	7.6256	2.3636	0.	-4.0642e-004
12720	7.7175	2.3636	5.e-002	5.8035
12721	7.7175	2.0909	0.	9.4975e-004
12722	7.6256	2.1818	0.	3.1618e-004
12723	7.7175	2.1818	5.e-002	5.8033
12724	7.7175	1.9091	0.	1.8874e-003
12725	7.6256	2.	0.	1.2179e-003
12726	7.7175	2.	5.e-002	5.8028
12727	7.7175	1.7273	0.	2.9966e-003
12728	7.6256	1.8182	0.	2.3011e-003
12729	7.7175	1.8182	5.e-002	5.8016
12730	7.7175	1.5455	0.	4.2938e-003
12731	7.6256	1.6364	0.	3.5751e-003
12732	7.7175	1.6364	5.e-002	5.7996
12733	7.7175	1.3636	0.	5.7964e-003
12734	7.6256	1.4545	0.	5.0711e-003
12735	7.7175	1.4545	5.e-002	5.7965
12736	7.7175	1.1818	0.	7.6012e-003
12737	7.6256	1.2727	0.	6.8015e-003
12738	7.7175	1.2727	5.e-002	5.7921
12739	7.7175	1.	0.	9.6622e-003
12740	7.6256	1.0909	0.	8.9735e-003
12741	7.7175	1.0909	5.e-002	5.7862
12742	7.7175	0.81818	0.	1.2921e-002
12743	7.6256	0.90909	0.	1.1309e-002
12744	7.7175	0.90909	5.e-002	5.7784
12745	7.7175	0.63636	0.	1.517e-002
12746	7.6256	0.72727	0.	1.6144e-002
12747	7.7175	0.72727	5.e-002	5.7678
12748	7.7175	0.45455	0.	3.3748e-002
12749	7.6256	0.54545	0.	1.6705e-002
12750	7.7175	0.54545	5.e-002	5.7419
12751	7.7175	0.27273	0.	5.215e-002
12752	7.6256	0.36364	0.	5.7709e-002
12753	7.7175	0.36364	5.e-002	5.5092
12754	7.6256	0.18182	0.	0.11176
12755	7.7175	0.18182	5.e-002	2.1997
12756	7.7175	9.0909e-002	0.	0.16857
12757	7.5338	5.7273	0.	5.6385e-002
12758	7.4419	5.8182	0.	0.10517
12759	7.5338	5.8182	5.e-002	2.3933
12760	7.5338	5.9091	0.	0.14055
12761	7.5338	5.5455	0.	3.7788e-002
12762	7.4419	5.6364	0.	6.4365e-002
12763	7.5338	5.6364	5.e-002	5.5675
12764	7.5338	5.3636	0.	1.6861e-002
12765	7.4419	5.4545	0.	1.8662e-002
12766	7.5338	5.4545	5.e-002	5.7923
12767	7.5338	5.1818	0.	1.4178e-002
12768	7.4419	5.2727	0.	1.783e-002
12769	7.5338	5.2727	5.e-002	5.8182
12770	7.5338	5.	0.	1.0428e-002
12771	7.4419	5.0909	0.	1.2313e-002
12772	7.5338	5.0909	5.e-002	5.8291
12773	7.5338	4.8182	0.	8.0543e-003
12774	7.4419	4.9091	0.	9.6217e-003
12775	7.5338	4.9091	5.e-002	5.8372
12776	7.5338	4.6364	0.	5.9936e-003
12777	7.4419	4.7273	0.	7.1442e-003
12778	7.5338	4.7273	5.e-002	5.8434
12779	7.5338	4.4545	0.	4.2907e-003
12780	7.4419	4.5455	0.	5.1805e-003
12781	7.5338	4.5455	5.e-002	5.8481
12782	7.5338	4.2727	0.	2.8312e-003
12783	7.4419	4.3636	0.	3.4949e-003
12784	7.5338	4.3636	5.e-002	5.8513
12785	7.5338	4.0909	0.	1.5913e-003
12786	7.4419	4.1818	0.	2.068e-003
12787	7.5338	4.1818	5.e-002	5.8534
12788	7.5338	3.9091	0.	5.4945e-004
12789	7.4419	4.	0.	8.6134e-004
12790	7.5338	4.	5.e-002	5.8547
12791	7.5338	3.7273	0.	-3.015e-004
12792	7.4419	3.8182	0.	-1.3823e-004
12793	7.5338	3.8182	5.e-002	5.8553
12794	7.5338	3.5455	0.	-9.634e-004
12795	7.4419	3.6364	0.	-9.3652e-004
12796	7.5338	3.6364	5.e-002	5.8555
12797	7.5338	3.3636	0.	-1.437e-003
12798	7.4419	3.4545	0.	-1.534e-003
12799	7.5338	3.4545	5.e-002	5.8555
12800	7.5338	3.1818	0.	-1.7224e-003
12801	7.4419	3.2727	0.	-1.9338e-003
12802	7.5338	3.2727	5.e-002	5.8553
12803	7.5338	3.	0.	-1.8178e-003
12804	7.4419	3.0909	0.	-2.1344e-003
12805	7.5338	3.0909	5.e-002	5.8552
12806	7.5338	2.8182	0.	-1.7224e-003
12807	7.4419	2.9091	0.	-2.1345e-003
12808	7.5338	2.9091	5.e-002	5.8552
12809	7.5338	2.6364	0.	-1.437e-003
12810	7.4419	2.7273	0.	-1.9337e-003
12811	7.5338	2.7273	5.e-002	5.8553
12812	7.5338	2.4545	0.	-9.6317e-004
12813	7.4419	2.5455	0.	-1.5339e-003
12814	7.5338	2.5455	5.e-002	5.8554
12815	7.5338	2.2727	0.	-3.0115e-004
12816	7.4419	2.3636	0.	-9.3611e-004
12817	7.5338	2.3636	5.e-002	5.8555
12818	7.5338	2.0909	0.	5.4998e-004
12819	7.4419	2.1818	0.	-1.3797e-004
12820	7.5338	2.1818	5.e-002	5.8553
12821	7.5338	1.9091	0.	1.5918e-003
12822	7.4419	2.	0.	8.6183e-004
12823	7.5338	2.	5.e-002	5.8547
12824	7.5338	1.7273	0.	2.8315e-003
12825	7.4419	1.8182	0.	2.0683e-003
12826	7.5338	1.8182	5.e-002	5.8534
12827	7.5338	1.5455	0.	4.2914e-003
12828	7.4419	1.6364	0.	3.4955e-003
12829	7.5338	1.6364	5.e-002	5.8513
12830	7.5338	1.3636	0.	5.9943e-003
12831	7.4419	1.4545	0.	5.1813e-003
12832	7.5338	1.4545	5.e-002	5.848
12833	7.5338	1.1818	0.	8.0549e-003
12834	7.4419	1.2727	0.	7.1447e-003
12835	7.5338	1.2727	5.e-002	5.8434
12836	7.5338	1.	0.	1.0429e-002
12837	7.4419	1.0909	0.	9.6224e-003
12838	7.5338	1.0909	5.e-002	5.8372
12839	7.5338	0.81818	0.	1.4179e-002
12840	7.4419	0.90909	0.	1.2315e-002
12841	7.5338	0.90909	5.e-002	5.8291
12842	7.5338	0.63636	0.	1.6861e-002
12843	7.4419	0.72727	0.	1.7831e-002
12844	7.5338	0.72727	5.e-002	5.8182
12845	7.5338	0.45455	0.	3.7788e-002
12846	7.4419	0.54545	0.	1.8662e-002
12847	7.5338	0.54545	5.e-002	5.7923
12848	7.5338	0.27273	0.	5.6386e-002
12849	7.4419	0.36364	0.	6.4366e-002
12850	7.5338	0.36364	5.e-002	5.5675
12851	7.4419	0.18182	0.	0.10517
12852	7.5338	0.18182	5.e-002	2.3933
12853	7.5338	9.0909e-002	0.	0.14055
12854	7.35	5.7273	0.	6.1234e-002
12855	7.2581	5.8182	0.	0.10294
12856	7.35	5.8182	5.e-002	2.6053
12857	7.35	5.9091	0.	0.12778
12858	7.35	5.5455	0.	4.2145e-002
12859	7.2581	5.6364	0.	7.1535e-002
12860	7.35	5.6364	5.e-002	5.631
12861	7.35	5.3636	0.	1.8711e-002
12862	7.2581	5.4545	0.	2.0799e-002
12863	7.35	5.4545	5.e-002	5.8469
12864	7.35	5.1818	0.	1.5563e-002
12865	7.2581	5.2727	0.	1.9676e-002
12866	7.35	5.2727	5.e-002	5.8726
12867	7.35	5.	0.	1.1287e-002
12868	7.2581	5.0909	0.	1.3428e-002
12869	7.35	5.0909	5.e-002	5.8839
12870	7.35	4.8182	0.	8.5744e-003
12871	7.2581	4.9091	0.	1.0352e-002
12872	7.35	4.9091	5.e-002	5.8922
12873	7.35	4.6364	0.	6.2366e-003
12874	7.2581	4.7273	0.	7.5434e-003
12875	7.35	4.7273	5.e-002	5.8985
12876	7.35	4.4545	0.	4.3146e-003
12877	7.2581	4.5455	0.	5.3265e-003
12878	7.35	4.5455	5.e-002	5.9032
12879	7.35	4.2727	0.	2.6765e-003
12880	7.2581	4.3636	0.	3.4334e-003
12881	7.35	4.3636	5.e-002	5.9064
12882	7.35	4.0909	0.	1.2924e-003
12883	7.2581	4.1818	0.	1.8377e-003
12884	7.35	4.1818	5.e-002	5.9085
12885	7.35	3.9091	0.	1.3448e-004
12886	7.2581	4.	0.	4.9452e-004
12887	7.35	4.	5.e-002	5.9097
12888	7.35	3.7273	0.	-8.081e-004
12889	7.2581	3.8182	0.	-6.1426e-004
12890	7.35	3.8182	5.e-002	5.9102
12891	7.35	3.5455	0.	-1.5391e-003
12892	7.2581	3.6364	0.	-1.4972e-003
12893	7.35	3.6364	5.e-002	5.9103
12894	7.35	3.3636	0.	-2.0609e-003
12895	7.2581	3.4545	0.	-2.1565e-003
12896	7.35	3.4545	5.e-002	5.9102
12897	7.35	3.1818	0.	-2.3749e-003
12898	7.2581	3.2727	0.	-2.597e-003
12899	7.35	3.2727	5.e-002	5.91
12900	7.35	3.	0.	-2.4798e-003
12901	7.2581	3.0909	0.	-2.8178e-003
12902	7.35	3.0909	5.e-002	5.9099
12903	7.35	2.8182	0.	-2.3748e-003
12904	7.2581	2.9091	0.	-2.8177e-003
12905	7.35	2.9091	5.e-002	5.9099
12906	7.35	2.6364	0.	-2.0607e-003
12907	7.2581	2.7273	0.	-2.597e-003
12908	7.35	2.7273	5.e-002	5.91
12909	7.35	2.4545	0.	-1.5388e-003
12910	7.2581	2.5455	0.	-2.1564e-003
12911	7.35	2.5455	5.e-002	5.9102
12912	7.35	2.2727	0.	-8.0778e-004
12913	7.2581	2.3636	0.	-1.4968e-003
12914	7.35	2.3636	5.e-002	5.9103
12915	7.35	2.0909	0.	1.3471e-004
12916	7.2581	2.1818	0.	-6.1391e-004
12917	7.35	2.1818	5.e-002	5.9102
12918	7.35	1.9091	0.	1.2928e-003
12919	7.2581	2.	0.	4.9493e-004
12920	7.35	2.	5.e-002	5.9097
12921	7.35	1.7273	0.	2.6771e-003
12922	7.2581	1.8182	0.	1.8382e-003
12923	7.35	1.8182	5.e-002	5.9085
12924	7.35	1.5455	0.	4.3153e-003
12925	7.2581	1.6364	0.	3.434e-003
12926	7.35	1.6364	5.e-002	5.9064
12927	7.35	1.3636	0.	6.2372e-003
12928	7.2581	1.4545	0.	5.3269e-003
12929	7.35	1.4545	5.e-002	5.9032
12930	7.35	1.1818	0.	8.575e-003
12931	7.2581	1.2727	0.	7.5443e-003
12932	7.35	1.2727	5.e-002	5.8985
12933	7.35	1.	0.	1.1288e-002
12934	7.2581	1.0909	0.	1.0352e-002
12935	7.35	1.0909	5.e-002	5.8922
12936	7.35	0.81818	0.	1.5564e-002
12937	7.2581	0.90909	0.	1.3429e-002
12938	7.35	0.90909	5.e-002	5.8839
12939	7.35	0.63636	0.	1.8712e-002
12940	7.2581	0.72727	0.	1.9677e-002
12941	7.35	0.72727	5.e-002	5.8726
12942	7.35	0.45455	0.	4.2146e-002
12943	7.2581	0.54545	0.	2.0799e-002
12944	7.35	0.54545	5.e-002	5.8468
12945	7.35	0.27273	0.	6.1234e-002
12946	7.2581	0.36364	0.	7.1537e-002
12947	7.35	0.36364	5.e-002	5.6309
12948	7.2581	0.18182	0.	0.10294
12949	7.35	0.18182	5.e-002	2.6052
12950	7.35	9.0909e-002	0.	0.12778
12951	7.1663	5.7273	0.	6.6789e-002
12952	7.0744	5.8182	0.	0.10352
12953	7.1663	5.8182	5.e-002	2.8367
12954	7.1663	5.9091	0.	0.12213
12955	7.1663	5.5455	0.	4.6853e-002
12956	7.0744	5.6364	0.	7.9276e-002
12957	7.1663	5.6364	5.e-002	5.6999
12958	7.1663	5.3636	0.	2.0734e-002
12959	7.0744	5.4545	0.	2.3133e-002
12960	7.1663	5.4545	5.e-002	5.906
12961	7.1663	5.1818	0.	1.7084e-002
12962	7.0744	5.2727	0.	2.1693e-002
12963	7.1663	5.2727	5.e-002	5.9315
12964	7.1663	5.	0.	1.2242e-002
12965	7.0744	5.0909	0.	1.4659e-002
12966	7.1663	5.0909	5.e-002	5.9429
12967	7.1663	4.8182	0.	9.1638e-003
12968	7.0744	4.9091	0.	1.1167e-002
12969	7.1663	4.9091	5.e-002	5.9514
12970	7.1663	4.6364	0.	6.5251e-003
12971	7.0744	4.7273	0.	8.0012e-003
12972	7.1663	4.7273	5.e-002	5.9577
12973	7.1663	4.4545	0.	4.365e-003
12974	7.0744	4.5455	0.	5.5085e-003
12975	7.1663	4.5455	5.e-002	5.9623
12976	7.1663	4.2727	0.	2.5316e-003
12977	7.0744	4.3636	0.	3.3892e-003
12978	7.1663	4.3636	5.e-002	5.9654
12979	7.1663	4.0909	0.	9.8795e-004
12980	7.0744	4.1818	0.	1.6088e-003
12981	7.1663	4.1818	5.e-002	5.9672
12982	7.1663	3.9091	0.	-2.987e-004
12983	7.0744	4.	0.	1.1477e-004
12984	7.1663	4.	5.e-002	5.9681
12985	7.1663	3.7273	0.	-1.3428e-003
12986	7.0744	3.8182	0.	-1.1149e-003
12987	7.1663	3.8182	5.e-002	5.9684
12988	7.1663	3.5455	0.	-2.1507e-003
12989	7.0744	3.6364	0.	-2.0915e-003
12990	7.1663	3.6364	5.e-002	5.9683
12991	7.1663	3.3636	0.	-2.7266e-003
12992	7.0744	3.4545	0.	-2.8199e-003
12993	7.1663	3.4545	5.e-002	5.968
12994	7.1663	3.1818	0.	-3.0727e-003
12995	7.0744	3.2727	0.	-3.3059e-003
12996	7.1663	3.2727	5.e-002	5.9677
12997	7.1663	3.	0.	-3.1882e-003
12998	7.0744	3.0909	0.	-3.5493e-003
12999	7.1663	3.0909	5.e-002	5.9675
13000	7.1663	2.8182	0.	-3.0727e-003
13001	7.0744	2.9091	0.	-3.5491e-003
13002	7.1663	2.9091	5.e-002	5.9675
13003	7.1663	2.6364	0.	-2.7266e-003
13004	7.0744	2.7273	0.	-3.3059e-003
13005	7.1663	2.7273	5.e-002	5.9677
13006	7.1663	2.4545	0.	-2.1505e-003
13007	7.0744	2.5455	0.	-2.82e-003
13008	7.1663	2.5455	5.e-002	5.968
13009	7.1663	2.2727	0.	-1.3424e-003
13010	7.0744	2.3636	0.	-2.0913e-003
13011	7.1663	2.3636	5.e-002	5.9683
13012	7.1663	2.0909	0.	-2.9817e-004
13013	7.0744	2.1818	0.	-1.1144e-003
13014	7.1663	2.1818	5.e-002	5.9684
13015	7.1663	1.9091	0.	9.8853e-004
13016	7.0744	2.	0.	1.153e-004
13017	7.1663	2.	5.e-002	5.9681
13018	7.1663	1.7273	0.	2.5322e-003
13019	7.0744	1.8182	0.	1.6093e-003
13020	7.1663	1.8182	5.e-002	5.9672
13021	7.1663	1.5455	0.	4.3655e-003
13022	7.0744	1.6364	0.	3.3898e-003
13023	7.1663	1.6364	5.e-002	5.9653
13024	7.1663	1.3636	0.	6.5258e-003
13025	7.0744	1.4545	0.	5.509e-003
13026	7.1663	1.4545	5.e-002	5.9623
13027	7.1663	1.1818	0.	9.1646e-003
13028	7.0744	1.2727	0.	8.002e-003
13029	7.1663	1.2727	5.e-002	5.9577
13030	7.1663	1.	0.	1.2243e-002
13031	7.0744	1.0909	0.	1.1168e-002
13032	7.1663	1.0909	5.e-002	5.9514
13033	7.1663	0.81818	0.	1.7085e-002
13034	7.0744	0.90909	0.	1.4661e-002
13035	7.1663	0.90909	5.e-002	5.9429
13036	7.1663	0.63636	0.	2.0734e-002
13037	7.0744	0.72727	0.	2.1694e-002
13038	7.1663	0.72727	5.e-002	5.9314
13039	7.1663	0.45455	0.	4.6854e-002
13040	7.0744	0.54545	0.	2.3133e-002
13041	7.1663	0.54545	5.e-002	5.906
13042	7.1663	0.27273	0.	6.6791e-002
13043	7.0744	0.36364	0.	7.9277e-002
13044	7.1663	0.36364	5.e-002	5.6999
13045	7.0744	0.18182	0.	0.10353
13046	7.1663	0.18182	5.e-002	2.8367
13047	7.1663	9.0909e-002	0.	0.12213
13048	6.9825	5.7273	0.	7.2981e-002
13049	6.8906	5.8182	0.	0.10624
13050	6.9825	5.8182	5.e-002	3.0888
13051	6.9825	5.9091	0.	0.12045
13052	6.9825	5.5455	0.	5.195e-002
13053	6.8906	5.6364	0.	8.7647e-002
13054	6.9825	5.6364	5.e-002	5.7749
13055	6.9825	5.3636	0.	2.2944e-002
13056	6.8906	5.4545	0.	2.5684e-002
13057	6.9825	5.4545	5.e-002	5.97
13058	6.9825	5.1818	0.	1.8753e-002
13059	6.8906	5.2727	0.	2.3897e-002
13060	6.9825	5.2727	5.e-002	5.9951
13061	6.9825	5.	0.	1.33e-002
13062	6.8906	5.0909	0.	1.6016e-002
13063	6.9825	5.0909	5.e-002	6.0067
13064	6.9825	4.8182	0.	9.8263e-003
13065	6.8906	4.9091	0.	1.2074e-002
13066	6.9825	4.9091	5.e-002	6.0152
13067	6.9825	4.6364	0.	6.8616e-003
13068	6.8906	4.7273	0.	8.5208e-003
13069	6.9825	4.7273	5.e-002	6.0214
13070	6.9825	4.4545	0.	4.4416e-003
13071	6.8906	4.5455	0.	5.7286e-003
13072	6.9825	4.5455	5.e-002	6.0257
13073	6.9825	4.2727	0.	2.395e-003
13074	6.8906	4.3636	0.	3.3624e-003
13075	6.9825	4.3636	5.e-002	6.0284
13076	6.9825	4.0909	0.	6.7688e-004
13077	6.8906	4.1818	0.	1.3802e-003
13078	6.9825	4.1818	5.e-002	6.0299
13079	6.9825	3.9091	0.	-7.517e-004
13080	6.8906	4.	0.	-2.7927e-004
13081	6.9825	4.	5.e-002	6.0304
13082	6.9825	3.7273	0.	-1.9081e-003
13083	6.8906	3.8182	0.	-1.642e-003
13084	6.9825	3.8182	5.e-002	6.0303
13085	6.9825	3.5455	0.	-2.8014e-003
13086	6.8906	3.6364	0.	-2.7226e-003
13087	6.9825	3.6364	5.e-002	6.0299
13088	6.9825	3.3636	0.	-3.4375e-003
13089	6.8906	3.4545	0.	-3.5275e-003
13090	6.9825	3.4545	5.e-002	6.0293
13091	6.9825	3.1818	0.	-3.8194e-003
13092	6.8906	3.2727	0.	-4.0637e-003
13093	6.9825	3.2727	5.e-002	6.0288
13094	6.9825	3.	0.	-3.9466e-003
13095	6.8906	3.0909	0.	-4.3319e-003
13096	6.9825	3.0909	5.e-002	6.0285
13097	6.9825	2.8182	0.	-3.8192e-003
13098	6.8906	2.9091	0.	-4.3317e-003
13099	6.9825	2.9091	5.e-002	6.0285
13100	6.9825	2.6364	0.	-3.4376e-003
13101	6.8906	2.7273	0.	-4.0636e-003
13102	6.9825	2.7273	5.e-002	6.0288
13103	6.9825	2.4545	0.	-2.8015e-003
13104	6.8906	2.5455	0.	-3.5273e-003
13105	6.9825	2.5455	5.e-002	6.0292
13106	6.9825	2.2727	0.	-1.9079e-003
13107	6.8906	2.3636	0.	-2.7223e-003
13108	6.9825	2.3636	5.e-002	6.0298
13109	6.9825	2.0909	0.	-7.5126e-004
13110	6.8906	2.1818	0.	-1.6416e-003
13111	6.9825	2.1818	5.e-002	6.0303
13112	6.9825	1.9091	0.	6.7735e-004
13113	6.8906	2.	0.	-2.7889e-004
13114	6.9825	2.	5.e-002	6.0304
13115	6.9825	1.7273	0.	2.3955e-003
13116	6.8906	1.8182	0.	1.3807e-003
13117	6.9825	1.8182	5.e-002	6.0298
13118	6.9825	1.5455	0.	4.4422e-003
13119	6.8906	1.6364	0.	3.3631e-003
13120	6.9825	1.6364	5.e-002	6.0284
13121	6.9825	1.3636	0.	6.8623e-003
13122	6.8906	1.4545	0.	5.7294e-003
13123	6.9825	1.4545	5.e-002	6.0256
13124	6.9825	1.1818	0.	9.827e-003
13125	6.8906	1.2727	0.	8.5214e-003
13126	6.9825	1.2727	5.e-002	6.0214
13127	6.9825	1.	0.	1.3301e-002
13128	6.8906	1.0909	0.	1.2075e-002
13129	6.9825	1.0909	5.e-002	6.0152
13130	6.9825	0.81818	0.	1.8754e-002
13131	6.8906	0.90909	0.	1.6017e-002
13132	6.9825	0.90909	5.e-002	6.0067
13133	6.9825	0.63636	0.	2.2945e-002
13134	6.8906	0.72727	0.	2.3898e-002
13135	6.9825	0.72727	5.e-002	5.9951
13136	6.9825	0.45455	0.	5.1951e-002
13137	6.8906	0.54545	0.	2.5684e-002
13138	6.9825	0.54545	5.e-002	5.9699
13139	6.9825	0.27273	0.	7.2982e-002
13140	6.8906	0.36364	0.	8.7649e-002
13141	6.9825	0.36364	5.e-002	5.7748
13142	6.8906	0.18182	0.	0.10624
13143	6.9825	0.18182	5.e-002	3.0888
13144	6.9825	9.0909e-002	0.	0.12045
13145	6.7987	5.7273	0.	7.9889e-002
13146	6.7069	5.8182	0.	0.11075
13147	6.7987	5.8182	5.e-002	3.363
13148	6.7987	5.9091	0.	0.12134
13149	6.7987	5.5455	0.	5.7476e-002
13150	6.7069	5.6364	0.	9.6717e-002
13151	6.7987	5.6364	5.e-002	5.8562
13152	6.7987	5.3636	0.	2.5361e-002
13153	6.7069	5.4545	0.	2.8474e-002
13154	6.7987	5.4545	5.e-002	6.0393
13155	6.7987	5.1818	0.	2.0582e-002
13156	6.7069	5.2727	0.	2.6305e-002
13157	6.7987	5.2727	5.e-002	6.064
13158	6.7987	5.	0.	1.447e-002
13159	6.7069	5.0909	0.	1.7509e-002
13160	6.7987	5.0909	5.e-002	6.0756
13161	6.7987	4.8182	0.	1.0567e-002
13162	6.7069	4.9091	0.	1.308e-002
13163	6.7987	4.9091	5.e-002	6.0839
13164	6.7987	4.6364	0.	7.2487e-003
13165	6.7069	4.7273	0.	9.1066e-003
13166	6.7987	4.7273	5.e-002	6.0899
13167	6.7987	4.4545	0.	4.5463e-003
13168	6.7069	4.5455	0.	5.9891e-003
13169	6.7987	4.5455	5.e-002	6.0938
13170	6.7987	4.2727	0.	2.2669e-003
13171	6.7069	4.3636	0.	3.3541e-003
13172	6.7987	4.3636	5.e-002	6.096
13173	6.7987	4.0909	0.	3.5776e-004
13174	6.7069	4.1818	0.	1.1513e-003
13175	6.7987	4.1818	5.e-002	6.097
13176	6.7987	3.9091	0.	-1.2263e-003
13177	6.7069	4.	0.	-6.892e-004
13178	6.7987	4.	5.e-002	6.0969
13179	6.7987	3.7273	0.	-2.5067e-003
13180	6.7069	3.8182	0.	-2.1979e-003
13181	6.7987	3.8182	5.e-002	6.0963
13182	6.7987	3.5455	0.	-3.4944e-003
13183	6.7069	3.6364	0.	-3.3926e-003
13184	6.7987	3.6364	5.e-002	6.0953
13185	6.7987	3.3636	0.	-4.1966e-003
13186	6.7069	3.4545	0.	-4.2817e-003
13187	6.7987	3.4545	5.e-002	6.0944
13188	6.7987	3.1818	0.	-4.6176e-003
13189	6.7069	3.2727	0.	-4.8732e-003
13190	6.7987	3.2727	5.e-002	6.0936
13191	6.7987	3.	0.	-4.7579e-003
13192	6.7069	3.0909	0.	-5.169e-003
13193	6.7987	3.0909	5.e-002	6.0932
13194	6.7987	2.8182	0.	-4.6176e-003
13195	6.7069	2.9091	0.	-5.1688e-003
13196	6.7987	2.9091	5.e-002	6.0932
13197	6.7987	2.6364	0.	-4.1964e-003
13198	6.7069	2.7273	0.	-4.8732e-003
13199	6.7987	2.7273	5.e-002	6.0936
13200	6.7987	2.4545	0.	-3.4939e-003
13201	6.7069	2.5455	0.	-4.2813e-003
13202	6.7987	2.5455	5.e-002	6.0944
13203	6.7987	2.2727	0.	-2.5062e-003
13204	6.7069	2.3636	0.	-3.3922e-003
13205	6.7987	2.3636	5.e-002	6.0953
13206	6.7987	2.0909	0.	-1.226e-003
13207	6.7069	2.1818	0.	-2.1976e-003
13208	6.7987	2.1818	5.e-002	6.0963
13209	6.7987	1.9091	0.	3.5814e-004
13210	6.7069	2.	0.	-6.8879e-004
13211	6.7987	2.	5.e-002	6.0969
13212	6.7987	1.7273	0.	2.2676e-003
13213	6.7069	1.8182	0.	1.1518e-003
13214	6.7987	1.8182	5.e-002	6.0969
13215	6.7987	1.5455	0.	4.5472e-003
13216	6.7069	1.6364	0.	3.3548e-003
13217	6.7987	1.6364	5.e-002	6.096
13218	6.7987	1.3636	0.	7.2495e-003
13219	6.7069	1.4545	0.	5.9899e-003
13220	6.7987	1.4545	5.e-002	6.0938
13221	6.7987	1.1818	0.	1.0568e-002
13222	6.7069	1.2727	0.	9.1072e-003
13223	6.7987	1.2727	5.e-002	6.0899
13224	6.7987	1.	0.	1.4471e-002
13225	6.7069	1.0909	0.	1.3081e-002
13226	6.7987	1.0909	5.e-002	6.0839
13227	6.7987	0.81818	0.	2.0583e-002
13228	6.7069	0.90909	0.	1.751e-002
13229	6.7987	0.90909	5.e-002	6.0756
13230	6.7987	0.63636	0.	2.5361e-002
13231	6.7069	0.72727	0.	2.6306e-002
13232	6.7987	0.72727	5.e-002	6.0639
13233	6.7987	0.45455	0.	5.7477e-002
13234	6.7069	0.54545	0.	2.8474e-002
13235	6.7987	0.54545	5.e-002	6.0393
13236	6.7987	0.27273	0.	7.9891e-002
13237	6.7069	0.36364	0.	9.6718e-002
13238	6.7987	0.36364	5.e-002	5.8562
13239	6.7069	0.18182	0.	0.11076
13240	6.7987	0.18182	5.e-002	3.363
13241	6.7987	9.0909e-002	0.	0.12134
13242	6.615	5.7273	0.	8.7582e-002
13243	6.5231	5.8182	0.	0.11694
13244	6.615	5.8182	5.e-002	3.6608
13245	6.615	5.9091	0.	0.12408
13246	6.615	5.5455	0.	6.3475e-002
13247	6.5231	5.6364	0.	0.10656
13248	6.615	5.6364	5.e-002	5.9445
13249	6.615	5.3636	0.	2.8003e-002
13250	6.5231	5.4545	0.	3.1528e-002
13251	6.615	5.4545	5.e-002	6.1145
13252	6.615	5.1818	0.	2.2585e-002
13253	6.5231	5.2727	0.	2.8936e-002
13254	6.615	5.2727	5.e-002	6.1385
13255	6.615	5.	0.	1.576e-002
13256	6.5231	5.0909	0.	1.915e-002
13257	6.615	5.0909	5.e-002	6.1501
13258	6.615	4.8182	0.	1.1393e-002
13259	6.5231	4.9091	0.	1.4193e-002
13260	6.615	4.9091	5.e-002	6.1582
13261	6.615	4.6364	0.	7.6904e-003
13262	6.5231	4.7273	0.	9.7641e-003
13263	6.615	4.7273	5.e-002	6.1638
13264	6.615	4.4545	0.	4.6809e-003
13265	6.5231	4.5455	0.	6.2931e-003
13266	6.615	4.5455	5.e-002	6.1671
13267	6.615	4.2727	0.	2.1475e-003
13268	6.5231	4.3636	0.	3.3655e-003
13269	6.615	4.3636	5.e-002	6.1687
13270	6.615	4.0909	0.	2.9703e-005
13271	6.5231	4.1818	0.	9.2206e-004
13272	6.615	4.1818	5.e-002	6.1689
13273	6.615	3.9091	0.	-1.7245e-003
13274	6.5231	4.	0.	-1.116e-003
13275	6.615	4.	5.e-002	6.1681
13276	6.615	3.7273	0.	-3.1403e-003
13277	6.5231	3.8182	0.	-2.7844e-003
13278	6.615	3.8182	5.e-002	6.1668
13279	6.615	3.5455	0.	-4.2313e-003
13280	6.5231	3.6364	0.	-4.1039e-003
13281	6.615	3.6364	5.e-002	6.1653
13282	6.615	3.3636	0.	-5.0064e-003
13283	6.5231	3.4545	0.	-5.0851e-003
13284	6.615	3.4545	5.e-002	6.1638
13285	6.615	3.1818	0.	-5.471e-003
13286	6.5231	3.2727	0.	-5.7376e-003
13287	6.615	3.2727	5.e-002	6.1627
13288	6.615	3.	0.	-5.6257e-003
13289	6.5231	3.0909	0.	-6.0636e-003
13290	6.615	3.0909	5.e-002	6.1621
13291	6.615	2.8182	0.	-5.4708e-003
13292	6.5231	2.9091	0.	-6.0634e-003
13293	6.615	2.9091	5.e-002	6.1621
13294	6.615	2.6364	0.	-5.0063e-003
13295	6.5231	2.7273	0.	-5.7375e-003
13296	6.615	2.7273	5.e-002	6.1627
13297	6.615	2.4545	0.	-4.231e-003
13298	6.5231	2.5455	0.	-5.085e-003
13299	6.615	2.5455	5.e-002	6.1638
13300	6.615	2.2727	0.	-3.14e-003
13301	6.5231	2.3636	0.	-4.1035e-003
13302	6.615	2.3636	5.e-002	6.1652
13303	6.615	2.0909	0.	-1.7242e-003
13304	6.5231	2.1818	0.	-2.7842e-003
13305	6.615	2.1818	5.e-002	6.1668
13306	6.615	1.9091	0.	3.023e-005
13307	6.5231	2.	0.	-1.1155e-003
13308	6.615	2.	5.e-002	6.1681
13309	6.615	1.7273	0.	2.1482e-003
13310	6.5231	1.8182	0.	9.226e-004
13311	6.615	1.8182	5.e-002	6.1689
13312	6.615	1.5455	0.	4.6815e-003
13313	6.5231	1.6364	0.	3.3662e-003
13314	6.615	1.6364	5.e-002	6.1687
13315	6.615	1.3636	0.	7.691e-003
13316	6.5231	1.4545	0.	6.2938e-003
13317	6.615	1.4545	5.e-002	6.1671
13318	6.615	1.1818	0.	1.1393e-002
13319	6.5231	1.2727	0.	9.7647e-003
13320	6.615	1.2727	5.e-002	6.1638
13321	6.615	1.	0.	1.576e-002
13322	6.5231	1.0909	0.	1.4194e-002
13323	6.615	1.0909	5.e-002	6.1582
13324	6.615	0.81818	0.	2.2586e-002
13325	6.5231	0.90909	0.	1.9151e-002
13326	6.615	0.90909	5.e-002	6.1501
13327	6.615	0.63636	0.	2.8004e-002
13328	6.5231	0.72727	0.	2.8937e-002
13329	6.615	0.72727	5.e-002	6.1385
13330	6.615	0.45455	0.	6.3475e-002
13331	6.5231	0.54545	0.	3.1528e-002
13332	6.615	0.54545	5.e-002	6.1144
13333	6.615	0.27273	0.	8.7584e-002
13334	6.5231	0.36364	0.	0.10656
13335	6.615	0.36364	5.e-002	5.9445
13336	6.5231	0.18182	0.	0.11695
13337	6.615	0.18182	5.e-002	3.6607
13338	6.615	9.0909e-002	0.	0.12409
13339	6.4313	5.7273	0.	9.6141e-002
13340	6.3394	5.8182	0.	0.12481
13341	6.4313	5.8182	5.e-002	3.9838
13342	6.4313	5.9091	0.	0.12829
13343	6.4313	5.5455	0.	6.9996e-002
13344	6.3394	5.6364	0.	0.11725
13345	6.4313	5.6364	5.e-002	6.0404
13346	6.4313	5.3636	0.	3.0893e-002
13347	6.3394	5.4545	0.	3.4874e-002
13348	6.4313	5.4545	5.e-002	6.196
13349	6.4313	5.1818	0.	2.4779e-002
13350	6.3394	5.2727	0.	3.1811e-002
13351	6.4313	5.2727	5.e-002	6.2193
13352	6.4313	5.	0.	1.7181e-002
13353	6.3394	5.0909	0.	2.0954e-002
13354	6.4313	5.0909	5.e-002	6.2308
13355	6.4313	4.8182	0.	1.231e-002
13356	6.3394	4.9091	0.	1.5424e-002
13357	6.4313	4.9091	5.e-002	6.2386
13358	6.4313	4.6364	0.	8.1911e-003
13359	6.3394	4.7273	0.	1.05e-002
13360	6.4313	4.7273	5.e-002	6.2436
13361	6.4313	4.4545	0.	4.8476e-003
13362	6.3394	4.5455	0.	6.6448e-003
13363	6.4313	4.5455	5.e-002	6.2462
13364	6.4313	4.2727	0.	2.0381e-003
13365	6.3394	4.3636	0.	3.3989e-003
13366	6.4313	4.3636	5.e-002	6.2469
13367	6.4313	4.0909	0.	-3.0726e-004
13368	6.3394	4.1818	0.	6.9346e-004
13369	6.4313	4.1818	5.e-002	6.2463
13370	6.4313	3.9091	0.	-2.2473e-003
13371	6.3394	4.	0.	-1.5601e-003
13372	6.4313	4.	5.e-002	6.2446
13373	6.4313	3.7273	0.	-3.8112e-003
13374	6.3394	3.8182	0.	-3.4029e-003
13375	6.4313	3.8182	5.e-002	6.2424
13376	6.4313	3.5455	0.	-5.0153e-003
13377	6.3394	3.6364	0.	-4.8586e-003
13378	6.4313	3.6364	5.e-002	6.2401
13379	6.4313	3.3636	0.	-5.8703e-003
13380	6.3394	3.4545	0.	-5.9406e-003
13381	6.4313	3.4545	5.e-002	6.2381
13382	6.4313	3.1818	0.	-6.3822e-003
13383	6.3394	3.2727	0.	-6.6596e-003
13384	6.4313	3.2727	5.e-002	6.2365
13385	6.4313	3.	0.	-6.5526e-003
13386	6.3394	3.0909	0.	-7.0185e-003
13387	6.4313	3.0909	5.e-002	6.2357
13388	6.4313	2.8182	0.	-6.382e-003
13389	6.3394	2.9091	0.	-7.0184e-003
13390	6.4313	2.9091	5.e-002	6.2357
13391	6.4313	2.6364	0.	-5.8701e-003
13392	6.3394	2.7273	0.	-6.6593e-003
13393	6.4313	2.7273	5.e-002	6.2365
13394	6.4313	2.4545	0.	-5.015e-003
13395	6.3394	2.5455	0.	-5.9405e-003
13396	6.4313	2.5455	5.e-002	6.238
13397	6.4313	2.2727	0.	-3.8108e-003
13398	6.3394	2.3636	0.	-4.8583e-003
13399	6.4313	2.3636	5.e-002	6.24
13400	6.4313	2.0909	0.	-2.2468e-003
13401	6.3394	2.1818	0.	-3.4024e-003
13402	6.4313	2.1818	5.e-002	6.2424
13403	6.4313	1.9091	0.	-3.0672e-004
13404	6.3394	2.	0.	-1.5596e-003
13405	6.4313	2.	5.e-002	6.2445
13406	6.4313	1.7273	0.	2.0387e-003
13407	6.3394	1.8182	0.	6.9398e-004
13408	6.4313	1.8182	5.e-002	6.2462
13409	6.4313	1.5455	0.	4.8484e-003
13410	6.3394	1.6364	0.	3.3995e-003
13411	6.4313	1.6364	5.e-002	6.2469
13412	6.4313	1.3636	0.	8.1918e-003
13413	6.3394	1.4545	0.	6.6455e-003
13414	6.4313	1.4545	5.e-002	6.2462
13415	6.4313	1.1818	0.	1.2311e-002
13416	6.3394	1.2727	0.	1.0501e-002
13417	6.4313	1.2727	5.e-002	6.2436
13418	6.4313	1.	0.	1.7182e-002
13419	6.3394	1.0909	0.	1.5424e-002
13420	6.4313	1.0909	5.e-002	6.2386
13421	6.4313	0.81818	0.	2.478e-002
13422	6.3394	0.90909	0.	2.0955e-002
13423	6.4313	0.90909	5.e-002	6.2308
13424	6.4313	0.63636	0.	3.0894e-002
13425	6.3394	0.72727	0.	3.1812e-002
13426	6.4313	0.72727	5.e-002	6.2193
13427	6.4313	0.45455	0.	6.9997e-002
13428	6.3394	0.54545	0.	3.4874e-002
13429	6.4313	0.54545	5.e-002	6.1959
13430	6.4313	0.27273	0.	9.6142e-002
13431	6.3394	0.36364	0.	0.11725
13432	6.4313	0.36364	5.e-002	6.0404
13433	6.3394	0.18182	0.	0.12482
13434	6.4313	0.18182	5.e-002	3.9837
13435	6.4313	9.0909e-002	0.	0.1283
13436	6.2475	5.7273	0.	0.10566
13437	6.1556	5.8182	0.	0.13445
13438	6.2475	5.8182	5.e-002	4.3338
13439	6.2475	5.9091	0.	0.13376
13440	6.2475	5.5455	0.	7.7093e-002
13441	6.1556	5.6364	0.	0.12888
13442	6.2475	5.6364	5.e-002	6.1446
13443	6.2475	5.3636	0.	3.4058e-002
13444	6.1556	5.4545	0.	3.8544e-002
13445	6.2475	5.4545	5.e-002	6.2845
13446	6.2475	5.1818	0.	2.7183e-002
13447	6.1556	5.2727	0.	3.4957e-002
13448	6.2475	5.2727	5.e-002	6.307
13449	6.2475	5.	0.	1.8747e-002
13450	6.1556	5.0909	0.	2.2936e-002
13451	6.2475	5.0909	5.e-002	6.3183
13452	6.2475	4.8182	0.	1.3329e-002
13453	6.1556	4.9091	0.	1.6783e-002
13454	6.2475	4.9091	5.e-002	6.3256
13455	6.2475	4.6364	0.	8.7569e-003
13456	6.1556	4.7273	0.	1.1321e-002
13457	6.2475	4.7273	5.e-002	6.33
13458	6.2475	4.4545	0.	5.0505e-003
13459	6.1556	4.5455	0.	7.0491e-003
13460	6.2475	4.5455	5.e-002	6.3317
13461	6.2475	4.2727	0.	1.9403e-003
13462	6.1556	4.3636	0.	3.4571e-003
13463	6.2475	4.3636	5.e-002	6.3314
13464	6.2475	4.0909	0.	-6.5294e-004
13465	6.1556	4.1818	0.	4.6663e-004
13466	6.2475	4.1818	5.e-002	6.3296
13467	6.2475	3.9091	0.	-2.7955e-003
13468	6.1556	4.	0.	-2.0216e-003
13469	6.2475	4.	5.e-002	6.3268
13470	6.2475	3.7273	0.	-4.5208e-003
13471	6.1556	3.8182	0.	-4.054e-003
13472	6.2475	3.8182	5.e-002	6.3236
13473	6.2475	3.5455	0.	-5.8482e-003
13474	6.1556	3.6364	0.	-5.6583e-003
13475	6.2475	3.6364	5.e-002	6.3204
13476	6.2475	3.3636	0.	-6.7901e-003
13477	6.1556	3.4545	0.	-6.85e-003
13478	6.2475	3.4545	5.e-002	6.3176
13479	6.2475	3.1818	0.	-7.3539e-003
13480	6.1556	3.2727	0.	-7.6414e-003
13481	6.2475	3.2727	5.e-002	6.3156
13482	6.2475	3.	0.	-7.5416e-003
13483	6.1556	3.0909	0.	-8.0364e-003
13484	6.2475	3.0909	5.e-002	6.3145
13485	6.2475	2.8182	0.	-7.3537e-003
13486	6.1556	2.9091	0.	-8.0364e-003
13487	6.2475	2.9091	5.e-002	6.3145
13488	6.2475	2.6364	0.	-6.79e-003
13489	6.1556	2.7273	0.	-7.6413e-003
13490	6.2475	2.7273	5.e-002	6.3156
13491	6.2475	2.4545	0.	-5.848e-003
13492	6.1556	2.5455	0.	-6.8499e-003
13493	6.2475	2.5455	5.e-002	6.3176
13494	6.2475	2.2727	0.	-4.5204e-003
13495	6.1556	2.3636	0.	-5.658e-003
13496	6.2475	2.3636	5.e-002	6.3204
13497	6.2475	2.0909	0.	-2.7951e-003
13498	6.1556	2.1818	0.	-4.0537e-003
13499	6.2475	2.1818	5.e-002	6.3236
13500	6.2475	1.9091	0.	-6.5247e-004
13501	6.1556	2.	0.	-2.0212e-003
13502	6.2475	2.	5.e-002	6.3268
13503	6.2475	1.7273	0.	1.9408e-003
13504	6.1556	1.8182	0.	4.6706e-004
13505	6.2475	1.8182	5.e-002	6.3295
13506	6.2475	1.5455	0.	5.0511e-003
13507	6.1556	1.6364	0.	3.4576e-003
13508	6.2475	1.6364	5.e-002	6.3313
13509	6.2475	1.3636	0.	8.7578e-003
13510	6.1556	1.4545	0.	7.0499e-003
13511	6.2475	1.4545	5.e-002	6.3317
13512	6.2475	1.1818	0.	1.333e-002
13513	6.1556	1.2727	0.	1.1322e-002
13514	6.2475	1.2727	5.e-002	6.3299
13515	6.2475	1.	0.	1.8748e-002
13516	6.1556	1.0909	0.	1.6783e-002
13517	6.2475	1.0909	5.e-002	6.3256
13518	6.2475	0.81818	0.	2.7184e-002
13519	6.1556	0.90909	0.	2.2938e-002
13520	6.2475	0.90909	5.e-002	6.3182
13521	6.2475	0.63636	0.	3.4058e-002
13522	6.1556	0.72727	0.	3.4958e-002
13523	6.2475	0.72727	5.e-002	6.3069
13524	6.2475	0.45455	0.	7.7094e-002
13525	6.1556	0.54545	0.	3.8544e-002
13526	6.2475	0.54545	5.e-002	6.2845
13527	6.2475	0.27273	0.	0.10567
13528	6.1556	0.36364	0.	0.12888
13529	6.2475	0.36364	5.e-002	6.1445
13530	6.1556	0.18182	0.	0.13445
13531	6.2475	0.18182	5.e-002	4.3337
13532	6.2475	9.0909e-002	0.	0.13376
13533	6.0637	5.7273	0.	0.11627
13534	5.9719	5.8182	0.	0.14602
13535	6.0637	5.8182	5.e-002	4.7125
13536	6.0637	5.9091	0.	0.14037
13537	6.0637	5.5455	0.	8.4826e-002
13538	5.9719	5.6364	0.	0.14154
13539	6.0637	5.6364	5.e-002	6.2577
13540	6.0637	5.3636	0.	3.7525e-002
13541	5.9719	5.4545	0.	4.2573e-002
13542	6.0637	5.4545	5.e-002	6.3808
13543	6.0637	5.1818	0.	2.9818e-002
13544	5.9719	5.2727	0.	3.8399e-002
13545	6.0637	5.2727	5.e-002	6.4022
13546	6.0637	5.	0.	2.0471e-002
13547	5.9719	5.0909	0.	2.5116e-002
13548	6.0637	5.0909	5.e-002	6.4132
13549	6.0637	4.8182	0.	1.4458e-002
13550	5.9719	4.9091	0.	1.8283e-002
13551	6.0637	4.9091	5.e-002	6.4201
13552	6.0637	4.6364	0.	9.3944e-003
13553	5.9719	4.7273	0.	1.2238e-002
13554	6.0637	4.7273	5.e-002	6.4235
13555	6.0637	4.4545	0.	5.2932e-003
13556	5.9719	4.5455	0.	7.512e-003
13557	6.0637	4.5455	5.e-002	6.4242
13558	6.0637	4.2727	0.	1.8562e-003
13559	5.9719	4.3636	0.	3.5438e-003
13560	6.0637	4.3636	5.e-002	6.4227
13561	6.0637	4.0909	0.	-1.0064e-003
13562	5.9719	4.1818	0.	2.4333e-004
13563	6.0637	4.1818	5.e-002	6.4196
13564	6.0637	3.9091	0.	-3.3692e-003
13565	5.9719	4.	0.	-2.4999e-003
13566	6.0637	4.	5.e-002	6.4155
13567	6.0637	3.7273	0.	-5.2703e-003
13568	5.9719	3.8182	0.	-4.7384e-003
13569	6.0637	3.8182	5.e-002	6.4111
13570	6.0637	3.5455	0.	-6.7319e-003
13571	5.9719	3.6364	0.	-6.5041e-003
13572	6.0637	3.6364	5.e-002	6.4068
13573	6.0637	3.3636	0.	-7.7685e-003
13574	5.9719	3.4545	0.	-7.815e-003
13575	6.0637	3.4545	5.e-002	6.4032
13576	6.0637	3.1818	0.	-8.3887e-003
13577	5.9719	3.2727	0.	-8.6852e-003
13578	6.0637	3.2727	5.e-002	6.4006
13579	6.0637	3.	0.	-8.5951e-003
13580	5.9719	3.0909	0.	-9.1191e-003
13581	6.0637	3.0909	5.e-002	6.3992
13582	6.0637	2.8182	0.	-8.3886e-003
13583	5.9719	2.9091	0.	-9.1192e-003
13584	6.0637	2.9091	5.e-002	6.3992
13585	6.0637	2.6364	0.	-7.7685e-003
13586	5.9719	2.7273	0.	-8.6851e-003
13587	6.0637	2.7273	5.e-002	6.4006
13588	6.0637	2.4545	0.	-6.7317e-003
13589	5.9719	2.5455	0.	-7.8149e-003
13590	6.0637	2.5455	5.e-002	6.4032
13591	6.0637	2.2727	0.	-5.27e-003
13592	5.9719	2.3636	0.	-6.504e-003
13593	6.0637	2.3636	5.e-002	6.4068
13594	6.0637	2.0909	0.	-3.3689e-003
13595	5.9719	2.1818	0.	-4.7382e-003
13596	6.0637	2.1818	5.e-002	6.4111
13597	6.0637	1.9091	0.	-1.006e-003
13598	5.9719	2.	0.	-2.4994e-003
13599	6.0637	2.	5.e-002	6.4155
13600	6.0637	1.7273	0.	1.8567e-003
13601	5.9719	1.8182	0.	2.4387e-004
13602	6.0637	1.8182	5.e-002	6.4196
13603	6.0637	1.5455	0.	5.2939e-003
13604	5.9719	1.6364	0.	3.5443e-003
13605	6.0637	1.6364	5.e-002	6.4227
13606	6.0637	1.3636	0.	9.3952e-003
13607	5.9719	1.4545	0.	7.5127e-003
13608	6.0637	1.4545	5.e-002	6.4242
13609	6.0637	1.1818	0.	1.4459e-002
13610	5.9719	1.2727	0.	1.2239e-002
13611	6.0637	1.2727	5.e-002	6.4235
13612	6.0637	1.	0.	2.0473e-002
13613	5.9719	1.0909	0.	1.8284e-002
13614	6.0637	1.0909	5.e-002	6.42
13615	6.0637	0.81818	0.	2.9819e-002
13616	5.9719	0.90909	0.	2.5117e-002
13617	6.0637	0.90909	5.e-002	6.4132
13618	6.0637	0.63636	0.	3.7525e-002
13619	5.9719	0.72727	0.	3.84e-002
13620	6.0637	0.72727	5.e-002	6.4021
13621	6.0637	0.45455	0.	8.4827e-002
13622	5.9719	0.54545	0.	4.2573e-002
13623	6.0637	0.54545	5.e-002	6.3807
13624	6.0637	0.27273	0.	0.11627
13625	5.9719	0.36364	0.	0.14154
13626	6.0637	0.36364	5.e-002	6.2576
13627	5.9719	0.18182	0.	0.14602
13628	6.0637	0.18182	5.e-002	4.7125
13629	6.0637	9.0909e-002	0.	0.14037
13630	5.88	5.7273	0.	0.12809
13631	5.7881	5.8182	0.	0.15976
13632	5.88	5.8182	5.e-002	5.1222
13633	5.88	5.9091	0.	0.14808
13634	5.88	5.5455	0.	9.3261e-002
13635	5.7881	5.6364	0.	0.15535
13636	5.88	5.6364	5.e-002	6.3806
13637	5.88	5.3636	0.	4.1327e-002
13638	5.7881	5.4545	0.	4.7002e-002
13639	5.88	5.4545	5.e-002	6.4854
13640	5.88	5.1818	0.	3.2707e-002
13641	5.7881	5.2727	0.	4.2169e-002
13642	5.88	5.2727	5.e-002	6.5057
13643	5.88	5.	0.	2.2371e-002
13644	5.7881	5.0909	0.	2.7513e-002
13645	5.88	5.0909	5.e-002	6.5164
13646	5.88	4.8182	0.	1.5711e-002
13647	5.7881	4.9091	0.	1.9941e-002
13648	5.88	4.9091	5.e-002	6.5226
13649	5.88	4.6364	0.	1.0112e-002
13650	5.7881	4.7273	0.	1.3261e-002
13651	5.88	4.7273	5.e-002	6.5251
13652	5.88	4.4545	0.	5.5816e-003
13653	5.7881	4.5455	0.	8.0408e-003
13654	5.88	4.5455	5.e-002	6.5246
13655	5.88	4.2727	0.	1.7891e-003
13656	5.7881	4.3636	0.	3.6636e-003
13657	5.88	4.3636	5.e-002	6.5216
13658	5.88	4.0909	0.	-1.3665e-003
13659	5.7881	4.1818	0.	2.6503e-005
13660	5.88	4.1818	5.e-002	6.5171
13661	5.88	3.9091	0.	-3.9684e-003
13662	5.7881	4.	0.	-2.9936e-003
13663	5.88	4.	5.e-002	6.5115
13664	5.88	3.7273	0.	-6.06e-003
13665	5.7881	3.8182	0.	-5.4558e-003
13666	5.88	3.8182	5.e-002	6.5057
13667	5.88	3.5455	0.	-7.6671e-003
13668	5.7881	3.6364	0.	-7.3964e-003
13669	5.88	3.6364	5.e-002	6.5002
13670	5.88	3.3636	0.	-8.8065e-003
13671	5.7881	3.4545	0.	-8.8363e-003
13672	5.88	3.4545	5.e-002	6.4955
13673	5.88	3.1818	0.	-9.4877e-003
13674	5.7881	3.2727	0.	-9.7915e-003
13675	5.88	3.2727	5.e-002	6.4922
13676	5.88	3.	0.	-9.7144e-003
13677	5.7881	3.0909	0.	-1.0268e-002
13678	5.88	3.0909	5.e-002	6.4904
13679	5.88	2.8182	0.	-9.4877e-003
13680	5.7881	2.9091	0.	-1.0268e-002
13681	5.88	2.9091	5.e-002	6.4904
13682	5.88	2.6364	0.	-8.8064e-003
13683	5.7881	2.7273	0.	-9.7914e-003
13684	5.88	2.7273	5.e-002	6.4922
13685	5.88	2.4545	0.	-7.6671e-003
13686	5.7881	2.5455	0.	-8.8362e-003
13687	5.88	2.5455	5.e-002	6.4955
13688	5.88	2.2727	0.	-6.0598e-003
13689	5.7881	2.3636	0.	-7.3961e-003
13690	5.88	2.3636	5.e-002	6.5002
13691	5.88	2.0909	0.	-3.9679e-003
13692	5.7881	2.1818	0.	-5.4554e-003
13693	5.88	2.1818	5.e-002	6.5057
13694	5.88	1.9091	0.	-1.3658e-003
13695	5.7881	2.	0.	-2.9931e-003
13696	5.88	2.	5.e-002	6.5115
13697	5.88	1.7273	0.	1.7897e-003
13698	5.7881	1.8182	0.	2.7177e-005
13699	5.88	1.8182	5.e-002	6.517
13700	5.88	1.5455	0.	5.5822e-003
13701	5.7881	1.6364	0.	3.6642e-003
13702	5.88	1.6364	5.e-002	6.5216
13703	5.88	1.3636	0.	1.0113e-002
13704	5.7881	1.4545	0.	8.0416e-003
13705	5.88	1.4545	5.e-002	6.5246
13706	5.88	1.1818	0.	1.5711e-002
13707	5.7881	1.2727	0.	1.3262e-002
13708	5.88	1.2727	5.e-002	6.5251
13709	5.88	1.	0.	2.2372e-002
13710	5.7881	1.0909	0.	1.9941e-002
13711	5.88	1.0909	5.e-002	6.5226
13712	5.88	0.81818	0.	3.2708e-002
13713	5.7881	0.90909	0.	2.7514e-002
13714	5.88	0.90909	5.e-002	6.5164
13715	5.88	0.63636	0.	4.1327e-002
13716	5.7881	0.72727	0.	4.217e-002
13717	5.88	0.72727	5.e-002	6.5057
13718	5.88	0.45455	0.	9.3261e-002
13719	5.7881	0.54545	0.	4.7003e-002
13720	5.88	0.54545	5.e-002	6.4853
13721	5.88	0.27273	0.	0.12809
13722	5.7881	0.36364	0.	0.15535
13723	5.88	0.36364	5.e-002	6.3806
13724	5.7881	0.18182	0.	0.15976
13725	5.88	0.18182	5.e-002	5.1222
13726	5.88	9.0909e-002	0.	0.14808
13727	5.6962	5.7273	0.	0.14129
13728	5.6044	5.8182	0.	0.17596
13729	5.6962	5.8182	5.e-002	5.5649
13730	5.6962	5.9091	0.	0.15687
13731	5.6962	5.5455	0.	0.10247
13732	5.6044	5.6364	0.	0.17042
13733	5.6962	5.6364	5.e-002	6.5141
13734	5.6962	5.3636	0.	4.5501e-002
13735	5.6044	5.4545	0.	5.1878e-002
13736	5.6962	5.4545	5.e-002	6.5992
13737	5.6962	5.1818	0.	3.5878e-002
13738	5.6044	5.2727	0.	4.6302e-002
13739	5.6962	5.2727	5.e-002	6.6184
13740	5.6962	5.	0.	2.4464e-002
13741	5.6044	5.0909	0.	3.015e-002
13742	5.6962	5.0909	5.e-002	6.6287
13743	5.6962	4.8182	0.	1.7099e-002
13744	5.6044	4.9091	0.	2.1771e-002
13745	5.6962	4.9091	5.e-002	6.6342
13746	5.6962	4.6364	0.	1.0918e-002
13747	5.6044	4.7273	0.	1.4401e-002
13748	5.6962	4.7273	5.e-002	6.6356
13749	5.6962	4.4545	0.	5.9216e-003
13750	5.6044	4.5455	0.	8.644e-003
13751	5.6962	4.5455	5.e-002	6.6337
13752	5.6962	4.2727	0.	1.7433e-003
13753	5.6044	4.3636	0.	3.8221e-003
13754	5.6962	4.3636	5.e-002	6.6291
13755	5.6962	4.0909	0.	-1.7301e-003
13756	5.6044	4.1818	0.	-1.8004e-004
13757	5.6962	4.1818	5.e-002	6.6228
13758	5.6962	3.9091	0.	-4.5914e-003
13759	5.6044	4.	0.	-3.5004e-003
13760	5.6962	4.	5.e-002	6.6156
13761	5.6962	3.7273	0.	-6.8897e-003
13762	5.6044	3.8182	0.	-6.2045e-003
13763	5.6962	3.8182	5.e-002	6.6081
13764	5.6962	3.5455	0.	-8.6544e-003
13765	5.6044	3.6364	0.	-8.334e-003
13766	5.6962	3.6364	5.e-002	6.6012
13767	5.6962	3.3636	0.	-9.9047e-003
13768	5.6044	3.4545	0.	-9.9133e-003
13769	5.6962	3.4545	5.e-002	6.5954
13770	5.6962	3.1818	0.	-1.0652e-002
13771	5.6044	3.2727	0.	-1.096e-002
13772	5.6962	3.2727	5.e-002	6.5913
13773	5.6962	3.	0.	-1.09e-002
13774	5.6044	3.0909	0.	-1.1482e-002
13775	5.6962	3.0909	5.e-002	6.5891
13776	5.6962	2.8182	0.	-1.0652e-002
13777	5.6044	2.9091	0.	-1.1482e-002
13778	5.6962	2.9091	5.e-002	6.5891
13779	5.6962	2.6364	0.	-9.9044e-003
13780	5.6044	2.7273	0.	-1.096e-002
13781	5.6962	2.7273	5.e-002	6.5913
13782	5.6962	2.4545	0.	-8.654e-003
13783	5.6044	2.5455	0.	-9.9131e-003
13784	5.6962	2.5455	5.e-002	6.5954
13785	5.6962	2.2727	0.	-6.8892e-003
13786	5.6044	2.3636	0.	-8.3337e-003
13787	5.6962	2.3636	5.e-002	6.6012
13788	5.6962	2.0909	0.	-4.5911e-003
13789	5.6044	2.1818	0.	-6.2041e-003
13790	5.6962	2.1818	5.e-002	6.608
13791	5.6962	1.9091	0.	-1.7296e-003
13792	5.6044	2.	0.	-3.4998e-003
13793	5.6962	2.	5.e-002	6.6156
13794	5.6962	1.7273	0.	1.7439e-003
13795	5.6044	1.8182	0.	-1.7949e-004
13796	5.6962	1.8182	5.e-002	6.6228
13797	5.6962	1.5455	0.	5.9223e-003
13798	5.6044	1.6364	0.	3.8227e-003
13799	5.6962	1.6364	5.e-002	6.6291
13800	5.6962	1.3636	0.	1.0919e-002
13801	5.6044	1.4545	0.	8.6446e-003
13802	5.6962	1.4545	5.e-002	6.6336
13803	5.6962	1.1818	0.	1.71e-002
13804	5.6044	1.2727	0.	1.4402e-002
13805	5.6962	1.2727	5.e-002	6.6356
13806	5.6962	1.	0.	2.4465e-002
13807	5.6044	1.0909	0.	2.1772e-002
13808	5.6962	1.0909	5.e-002	6.6342
13809	5.6962	0.81818	0.	3.5879e-002
13810	5.6044	0.90909	0.	3.0151e-002
13811	5.6962	0.90909	5.e-002	6.6288
13812	5.6962	0.63636	0.	4.5501e-002
13813	5.6044	0.72727	0.	4.6303e-002
13814	5.6962	0.72727	5.e-002	6.6184
13815	5.6962	0.45455	0.	0.10247
13816	5.6044	0.54545	0.	5.1878e-002
13817	5.6962	0.54545	5.e-002	6.5993
13818	5.6962	0.27273	0.	0.14129
13819	5.6044	0.36364	0.	0.17042
13820	5.6962	0.36364	5.e-002	6.5141
13821	5.6044	0.18182	0.	0.17597
13822	5.6962	0.18182	5.e-002	5.5648
13823	5.6962	9.0909e-002	0.	0.15688
13824	5.5125	5.7273	0.	0.15604
13825	5.4206	5.8182	0.	0.19504
13826	5.5125	5.8182	5.e-002	6.0427
13827	5.5125	5.9091	0.	0.16678
13828	5.5125	5.5455	0.	0.11254
13829	5.4206	5.6364	0.	0.18688
13830	5.5125	5.6364	5.e-002	6.659
13831	5.5125	5.3636	0.	5.0087e-002
13832	5.4206	5.4545	0.	5.725e-002
13833	5.5125	5.4545	5.e-002	6.7233
13834	5.5125	5.1818	0.	3.9359e-002
13835	5.4206	5.2727	0.	5.0836e-002
13836	5.5125	5.2727	5.e-002	6.7412
13837	5.5125	5.	0.	2.6772e-002
13838	5.4206	5.0909	0.	3.3055e-002
13839	5.5125	5.0909	5.e-002	6.7512
13840	5.5125	4.8182	0.	1.8638e-002
13841	5.4206	4.9091	0.	2.3795e-002
13842	5.5125	4.9091	5.e-002	6.7558
13843	5.5125	4.6364	0.	1.1825e-002
13844	5.4206	4.7273	0.	1.5672e-002
13845	5.5125	4.7273	5.e-002	6.756
13846	5.5125	4.4545	0.	6.3209e-003
13847	5.4206	4.5455	0.	9.3308e-003
13848	5.5125	4.5455	5.e-002	6.7525
13849	5.5125	4.2727	0.	1.7236e-003
13850	5.4206	4.3636	0.	4.0264e-003
13851	5.5125	4.3636	5.e-002	6.7461
13852	5.5125	4.0909	0.	-2.0942e-003
13853	5.4206	4.1818	0.	-3.7182e-004
13854	5.5125	4.1818	5.e-002	6.7379
13855	5.5125	3.9091	0.	-5.2362e-003
13856	5.4206	4.	0.	-4.0167e-003
13857	5.5125	4.	5.e-002	6.7287
13858	5.5125	3.7273	0.	-7.7573e-003
13859	5.4206	3.8182	0.	-6.9819e-003
13860	5.5125	3.8182	5.e-002	6.7194
13861	5.5125	3.5455	0.	-9.6917e-003
13862	5.4206	3.6364	0.	-9.3146e-003
13863	5.5125	3.6364	5.e-002	6.7109
13864	5.5125	3.3636	0.	-1.1061e-002
13865	5.4206	3.4545	0.	-1.1044e-002
13866	5.5125	3.4545	5.e-002	6.7038
13867	5.5125	3.1818	0.	-1.1879e-002
13868	5.4206	3.2727	0.	-1.2189e-002
13869	5.5125	3.2727	5.e-002	6.6988
13870	5.5125	3.	0.	-1.2152e-002
13871	5.4206	3.0909	0.	-1.2759e-002
13872	5.5125	3.0909	5.e-002	6.6961
13873	5.5125	2.8182	0.	-1.1879e-002
13874	5.4206	2.9091	0.	-1.2759e-002
13875	5.5125	2.9091	5.e-002	6.6961
13876	5.5125	2.6364	0.	-1.1061e-002
13877	5.4206	2.7273	0.	-1.2189e-002
13878	5.5125	2.7273	5.e-002	6.6988
13879	5.5125	2.4545	0.	-9.6916e-003
13880	5.4206	2.5455	0.	-1.1043e-002
13881	5.5125	2.5455	5.e-002	6.7038
13882	5.5125	2.2727	0.	-7.757e-003
13883	5.4206	2.3636	0.	-9.3144e-003
13884	5.5125	2.3636	5.e-002	6.7109
13885	5.5125	2.0909	0.	-5.2356e-003
13886	5.4206	2.1818	0.	-6.9815e-003
13887	5.5125	2.1818	5.e-002	6.7194
13888	5.5125	1.9091	0.	-2.0936e-003
13889	5.4206	2.	0.	-4.0161e-003
13890	5.5125	2.	5.e-002	6.7287
13891	5.5125	1.7273	0.	1.7241e-003
13892	5.4206	1.8182	0.	-3.7137e-004
13893	5.5125	1.8182	5.e-002	6.7379
13894	5.5125	1.5455	0.	6.3215e-003
13895	5.4206	1.6364	0.	4.0269e-003
13896	5.5125	1.6364	5.e-002	6.7461
13897	5.5125	1.3636	0.	1.1826e-002
13898	5.4206	1.4545	0.	9.3314e-003
13899	5.5125	1.4545	5.e-002	6.7525
13900	5.5125	1.1818	0.	1.8639e-002
13901	5.4206	1.2727	0.	1.5672e-002
13902	5.5125	1.2727	5.e-002	6.756
13903	5.5125	1.	0.	2.6773e-002
13904	5.4206	1.0909	0.	2.3795e-002
13905	5.5125	1.0909	5.e-002	6.7558
13906	5.5125	0.81818	0.	3.936e-002
13907	5.4206	0.90909	0.	3.3056e-002
13908	5.5125	0.90909	5.e-002	6.7511
13909	5.5125	0.63636	0.	5.0087e-002
13910	5.4206	0.72727	0.	5.0837e-002
13911	5.5125	0.72727	5.e-002	6.7412
13912	5.5125	0.45455	0.	0.11254
13913	5.4206	0.54545	0.	5.7251e-002
13914	5.5125	0.54545	5.e-002	6.7232
13915	5.5125	0.27273	0.	0.15604
13916	5.4206	0.36364	0.	0.18689
13917	5.5125	0.36364	5.e-002	6.659
13918	5.4206	0.18182	0.	0.19504
13919	5.5125	0.18182	5.e-002	6.0426
13920	5.5125	9.0909e-002	0.	0.16678
13921	5.3288	5.7273	0.	0.17257
13922	5.2369	5.8182	0.	0.21747
13923	5.3288	5.8182	5.e-002	6.5579
13924	5.3288	5.9091	0.	0.17784
13925	5.3288	5.5455	0.	0.12356
13926	5.2369	5.6364	0.	0.2049
13927	5.3288	5.6364	5.e-002	6.8164
13928	5.3288	5.3636	0.	5.5132e-002
13929	5.2369	5.4545	0.	6.318e-002
13930	5.3288	5.4545	5.e-002	6.8584
13931	5.3288	5.1818	0.	4.3185e-002
13932	5.2369	5.2727	0.	5.5815e-002
13933	5.3288	5.2727	5.e-002	6.875
13934	5.3288	5.	0.	2.9318e-002
13935	5.2369	5.0909	0.	3.6255e-002
13936	5.3288	5.0909	5.e-002	6.8847
13937	5.3288	4.8182	0.	2.0346e-002
13938	5.2369	4.9091	0.	2.6032e-002
13939	5.3288	4.9091	5.e-002	6.8885
13940	5.3288	4.6364	0.	1.2843e-002
13941	5.2369	4.7273	0.	1.7089e-002
13942	5.3288	4.7273	5.e-002	6.8874
13943	5.3288	4.4545	0.	6.7881e-003
13944	5.2369	4.5455	0.	1.0112e-002
13945	5.3288	4.5455	5.e-002	6.8821
13946	5.3288	4.2727	0.	1.7364e-003
13947	5.2369	4.3636	0.	4.2842e-003
13948	5.3288	4.3636	5.e-002	6.8738
13949	5.3288	4.0909	0.	-2.454e-003
13950	5.2369	4.1818	0.	-5.4259e-004
13951	5.3288	4.1818	5.e-002	6.8634
13952	5.3288	3.9091	0.	-5.8987e-003
13953	5.2369	4.	0.	-4.5375e-003
13954	5.3288	4.	5.e-002	6.8521
13955	5.3288	3.7273	0.	-8.6597e-003
13956	5.2369	3.8182	0.	-7.7834e-003
13957	5.3288	3.8182	5.e-002	6.8408
13958	5.3288	3.5455	0.	-1.0776e-002
13959	5.2369	3.6364	0.	-1.0334e-002
13960	5.3288	3.6364	5.e-002	6.8304
13961	5.3288	3.3636	0.	-1.2274e-002
13962	5.2369	3.4545	0.	-1.2223e-002
13963	5.3288	3.4545	5.e-002	6.8219
13964	5.3288	3.1818	0.	-1.3168e-002
13965	5.2369	3.2727	0.	-1.3473e-002
13966	5.3288	3.2727	5.e-002	6.8158
13967	5.3288	3.	0.	-1.3465e-002
13968	5.2369	3.0909	0.	-1.4095e-002
13969	5.3288	3.0909	5.e-002	6.8127
13970	5.3288	2.8182	0.	-1.3168e-002
13971	5.2369	2.9091	0.	-1.4095e-002
13972	5.3288	2.9091	5.e-002	6.8126
13973	5.3288	2.6364	0.	-1.2274e-002
13974	5.2369	2.7273	0.	-1.3473e-002
13975	5.3288	2.7273	5.e-002	6.8158
13976	5.3288	2.4545	0.	-1.0776e-002
13977	5.2369	2.5455	0.	-1.2223e-002
13978	5.3288	2.5455	5.e-002	6.8219
13979	5.3288	2.2727	0.	-8.6594e-003
13980	5.2369	2.3636	0.	-1.0334e-002
13981	5.3288	2.3636	5.e-002	6.8304
13982	5.3288	2.0909	0.	-5.8983e-003
13983	5.2369	2.1818	0.	-7.783e-003
13984	5.3288	2.1818	5.e-002	6.8407
13985	5.3288	1.9091	0.	-2.4536e-003
13986	5.2369	2.	0.	-4.5371e-003
13987	5.3288	2.	5.e-002	6.8521
13988	5.3288	1.7273	0.	1.7369e-003
13989	5.2369	1.8182	0.	-5.4208e-004
13990	5.3288	1.8182	5.e-002	6.8634
13991	5.3288	1.5455	0.	6.7887e-003
13992	5.2369	1.6364	0.	4.2848e-003
13993	5.3288	1.6364	5.e-002	6.8738
13994	5.3288	1.3636	0.	1.2844e-002
13995	5.2369	1.4545	0.	1.0113e-002
13996	5.3288	1.4545	5.e-002	6.8821
13997	5.3288	1.1818	0.	2.0347e-002
13998	5.2369	1.2727	0.	1.709e-002
13999	5.3288	1.2727	5.e-002	6.8873
14000	5.3288	1.	0.	2.9319e-002
14001	5.2369	1.0909	0.	2.6033e-002
14002	5.3288	1.0909	5.e-002	6.8884
14003	5.3288	0.81818	0.	4.3186e-002
14004	5.2369	0.90909	0.	3.6256e-002
14005	5.3288	0.90909	5.e-002	6.8846
14006	5.3288	0.63636	0.	5.5133e-002
14007	5.2369	0.72727	0.	5.5816e-002
14008	5.3288	0.72727	5.e-002	6.875
14009	5.3288	0.45455	0.	0.12356
14010	5.2369	0.54545	0.	6.318e-002
14011	5.3288	0.54545	5.e-002	6.8583
14012	5.3288	0.27273	0.	0.17257
14013	5.2369	0.36364	0.	0.2049
14014	5.3288	0.36364	5.e-002	6.8163
14015	5.2369	0.18182	0.	0.21747
14016	5.3288	0.18182	5.e-002	6.5578
14017	5.3288	9.0909e-002	0.	0.17784
14018	5.145	5.7273	0.	0.19113
14019	5.0531	5.8182	0.	0.24386
14020	5.145	5.8182	5.e-002	7.1129
14021	5.145	5.9091	0.	0.19013
14022	5.145	5.5455	0.	0.13563
14023	5.0531	5.6364	0.	0.22463
14024	5.145	5.6364	5.e-002	6.9871
14025	5.145	5.3636	0.	6.0688e-002
14026	5.0531	5.4545	0.	6.9732e-002
14027	5.145	5.4545	5.e-002	7.0056
14028	5.145	5.1818	0.	4.7394e-002
14029	5.0531	5.2727	0.	6.1287e-002
14030	5.145	5.2727	5.e-002	7.0211
14031	5.145	5.	0.	3.2128e-002
14032	5.0531	5.0909	0.	3.9784e-002
14033	5.145	5.0909	5.e-002	7.0304
14034	5.145	4.8182	0.	2.224e-002
14035	5.0531	4.9091	0.	2.8506e-002
14036	5.145	4.9091	5.e-002	7.0334
14037	5.145	4.6364	0.	1.3987e-002
14038	5.0531	4.7273	0.	1.8669e-002
14039	5.145	4.7273	5.e-002	7.0309
14040	5.145	4.4545	0.	7.3331e-003
14041	5.0531	4.5455	0.	1.1001e-002
14042	5.145	4.5455	5.e-002	7.0239
14043	5.145	4.2727	0.	1.7893e-003
14044	5.0531	4.3636	0.	4.605e-003
14045	5.145	4.3636	5.e-002	7.0134
14046	5.145	4.0909	0.	-2.8033e-003
14047	5.0531	4.1818	0.	-6.8464e-004
14048	5.145	4.1818	5.e-002	7.0007
14049	5.145	3.9091	0.	-6.5735e-003
14050	5.0531	4.	0.	-5.056e-003
14051	5.145	4.	5.e-002	6.987
14052	5.145	3.7273	0.	-9.5916e-003
14053	5.0531	3.8182	0.	-8.6022e-003
14054	5.145	3.8182	5.e-002	6.9734
14055	5.145	3.5455	0.	-1.1903e-002
14056	5.0531	3.6364	0.	-1.1385e-002
14057	5.145	3.6364	5.e-002	6.9611
14058	5.145	3.3636	0.	-1.3536e-002
14059	5.0531	3.4545	0.	-1.3443e-002
14060	5.145	3.4545	5.e-002	6.9509
14061	5.145	3.1818	0.	-1.451e-002
14062	5.0531	3.2727	0.	-1.4804e-002
14063	5.145	3.2727	5.e-002	6.9437
14064	5.145	3.	0.	-1.4834e-002
14065	5.0531	3.0909	0.	-1.5482e-002
14066	5.145	3.0909	5.e-002	6.94
14067	5.145	2.8182	0.	-1.451e-002
14068	5.0531	2.9091	0.	-1.5482e-002
14069	5.145	2.9091	5.e-002	6.94
14070	5.145	2.6364	0.	-1.3536e-002
14071	5.0531	2.7273	0.	-1.4804e-002
14072	5.145	2.7273	5.e-002	6.9437
14073	5.145	2.4545	0.	-1.1902e-002
14074	5.0531	2.5455	0.	-1.3443e-002
14075	5.145	2.5455	5.e-002	6.9509
14076	5.145	2.2727	0.	-9.5912e-003
14077	5.0531	2.3636	0.	-1.1385e-002
14078	5.145	2.3636	5.e-002	6.9611
14079	5.145	2.0909	0.	-6.5731e-003
14080	5.0531	2.1818	0.	-8.6018e-003
14081	5.145	2.1818	5.e-002	6.9734
14082	5.145	1.9091	0.	-2.8028e-003
14083	5.0531	2.	0.	-5.0555e-003
14084	5.145	2.	5.e-002	6.987
14085	5.145	1.7273	0.	1.79e-003
14086	5.0531	1.8182	0.	-6.8413e-004
14087	5.145	1.8182	5.e-002	7.0007
14088	5.145	1.5455	0.	7.3338e-003
14089	5.0531	1.6364	0.	4.6056e-003
14090	5.145	1.6364	5.e-002	7.0134
14091	5.145	1.3636	0.	1.3988e-002
14092	5.0531	1.4545	0.	1.1002e-002
14093	5.145	1.4545	5.e-002	7.0239
14094	5.145	1.1818	0.	2.2241e-002
14095	5.0531	1.2727	0.	1.867e-002
14096	5.145	1.2727	5.e-002	7.0309
14097	5.145	1.	0.	3.2129e-002
14098	5.0531	1.0909	0.	2.8507e-002
14099	5.145	1.0909	5.e-002	7.0334
14100	5.145	0.81818	0.	4.7395e-002
14101	5.0531	0.90909	0.	3.9786e-002
14102	5.145	0.90909	5.e-002	7.0304
14103	5.145	0.63636	0.	6.0689e-002
14104	5.0531	0.72727	0.	6.1288e-002
14105	5.145	0.72727	5.e-002	7.021
14106	5.145	0.45455	0.	0.13563
14107	5.0531	0.54545	0.	6.9732e-002
14108	5.145	0.54545	5.e-002	7.0056
14109	5.145	0.27273	0.	0.19114
14110	5.0531	0.36364	0.	0.22463
14111	5.145	0.36364	5.e-002	6.9871
14112	5.0531	0.18182	0.	0.24386
14113	5.145	0.18182	5.e-002	7.1128
14114	5.145	9.0909e-002	0.	0.19013
14115	4.9612	5.7273	0.	0.21202
14116	4.8694	5.8182	0.	0.27498
14117	4.9612	5.8182	5.e-002	7.7101
14118	4.9612	5.9091	0.	0.20375
14119	4.9612	5.5455	0.	0.14887
14120	4.8694	5.6364	0.	0.24626
14121	4.9612	5.6364	5.e-002	7.1721
14122	4.9612	5.3636	0.	6.6814e-002
14123	4.8694	5.4545	0.	7.6983e-002
14124	4.9612	5.4545	5.e-002	7.1659
14125	4.9612	5.1818	0.	5.2026e-002
14126	4.8694	5.2727	0.	6.7307e-002
14127	4.9612	5.2727	5.e-002	7.1804
14128	4.9612	5.	0.	3.5231e-002
14129	4.8694	5.0909	0.	4.3679e-002
14130	4.9612	5.0909	5.e-002	7.1896
14131	4.9612	4.8182	0.	2.4343e-002
14132	4.8694	4.9091	0.	3.1245e-002
14133	4.9612	4.9091	5.e-002	7.192
14134	4.9612	4.6364	0.	1.5272e-002
14135	4.8694	4.7273	0.	2.0431e-002
14136	4.9612	4.7273	5.e-002	7.1882
14137	4.9612	4.4545	0.	7.9677e-003
14138	4.8694	4.5455	0.	1.2011e-002
14139	4.9612	4.5455	5.e-002	7.1792
14140	4.9612	4.2727	0.	1.8916e-003
14141	4.8694	4.3636	0.	4.9998e-003
14142	4.9612	4.3636	5.e-002	7.1665
14143	4.9612	4.0909	0.	-3.1339e-003
14144	4.8694	4.1818	0.	-7.8856e-004
14145	4.9612	4.1818	5.e-002	7.1513
14146	4.9612	3.9091	0.	-7.2526e-003
14147	4.8694	4.	0.	-5.5629e-003
14148	4.9612	4.	5.e-002	7.135
14149	4.9612	3.7273	0.	-1.0544e-002
14150	4.8694	3.8182	0.	-9.4288e-003
14151	4.9612	3.8182	5.e-002	7.119
14152	4.9612	3.5455	0.	-1.3062e-002
14153	4.8694	3.6364	0.	-1.2457e-002
14154	4.9612	3.6364	5.e-002	7.1044
14155	4.9612	3.3636	0.	-1.4839e-002
14156	4.8694	3.4545	0.	-1.4694e-002
14157	4.9612	3.4545	5.e-002	7.0925
14158	4.9612	3.1818	0.	-1.5898e-002
14159	4.8694	3.2727	0.	-1.6171e-002
14160	4.9612	3.2727	5.e-002	7.0841
14161	4.9612	3.	0.	-1.625e-002
14162	4.8694	3.0909	0.	-1.6906e-002
14163	4.9612	3.0909	5.e-002	7.0797
14164	4.9612	2.8182	0.	-1.5898e-002
14165	4.8694	2.9091	0.	-1.6906e-002
14166	4.9612	2.9091	5.e-002	7.0797
14167	4.9612	2.6364	0.	-1.4838e-002
14168	4.8694	2.7273	0.	-1.6171e-002
14169	4.9612	2.7273	5.e-002	7.0841
14170	4.9612	2.4545	0.	-1.3061e-002
14171	4.8694	2.5455	0.	-1.4694e-002
14172	4.9612	2.5455	5.e-002	7.0925
14173	4.9612	2.2727	0.	-1.0544e-002
14174	4.8694	2.3636	0.	-1.2457e-002
14175	4.9612	2.3636	5.e-002	7.1045
14176	4.9612	2.0909	0.	-7.2522e-003
14177	4.8694	2.1818	0.	-9.4285e-003
14178	4.9612	2.1818	5.e-002	7.1189
14179	4.9612	1.9091	0.	-3.1335e-003
14180	4.8694	2.	0.	-5.5625e-003
14181	4.9612	2.	5.e-002	7.135
14182	4.9612	1.7273	0.	1.892e-003
14183	4.8694	1.8182	0.	-7.8812e-004
14184	4.9612	1.8182	5.e-002	7.1513
14185	4.9612	1.5455	0.	7.9683e-003
14186	4.8694	1.6364	0.	5.0003e-003
14187	4.9612	1.6364	5.e-002	7.1665
14188	4.9612	1.3636	0.	1.5273e-002
14189	4.8694	1.4545	0.	1.2012e-002
14190	4.9612	1.4545	5.e-002	7.1792
14191	4.9612	1.1818	0.	2.4344e-002
14192	4.8694	1.2727	0.	2.0432e-002
14193	4.9612	1.2727	5.e-002	7.1881
14194	4.9612	1.	0.	3.5232e-002
14195	4.8694	1.0909	0.	3.1245e-002
14196	4.9612	1.0909	5.e-002	7.192
14197	4.9612	0.81818	0.	5.2027e-002
14198	4.8694	0.90909	0.	4.368e-002
14199	4.9612	0.90909	5.e-002	7.1896
14200	4.9612	0.63636	0.	6.6814e-002
14201	4.8694	0.72727	0.	6.7308e-002
14202	4.9612	0.72727	5.e-002	7.1804
14203	4.9612	0.45455	0.	0.14887
14204	4.8694	0.54545	0.	7.6984e-002
14205	4.9612	0.54545	5.e-002	7.1659
14206	4.9612	0.27273	0.	0.21202
14207	4.8694	0.36364	0.	0.24626
14208	4.9612	0.36364	5.e-002	7.1721
14209	4.8694	0.18182	0.	0.27498
14210	4.9612	0.18182	5.e-002	7.71
14211	4.9612	9.0909e-002	0.	0.20375
14212	4.7775	5.7273	0.	0.23559
14213	4.6856	5.8182	0.	0.31177
14214	4.7775	5.8182	5.e-002	8.3519
14215	4.7775	5.9091	0.	0.21881
14216	4.7775	5.5455	0.	0.16341
14217	4.6856	5.6364	0.	0.27002
14218	4.7775	5.6364	5.e-002	7.3724
14219	4.7775	5.3636	0.	7.3576e-002
14220	4.6856	5.4545	0.	8.502e-002
14221	4.7775	5.4545	5.e-002	7.3407
14222	4.7775	5.1818	0.	5.7129e-002
14223	4.6856	5.2727	0.	7.3936e-002
14224	4.7775	5.2727	5.e-002	7.3544
14225	4.7775	5.	0.	3.866e-002
14226	4.6856	5.0909	0.	4.7979e-002
14227	4.7775	5.0909	5.e-002	7.3639
14228	4.7775	4.8182	0.	2.6677e-002
14229	4.6856	4.9091	0.	3.4275e-002
14230	4.7775	4.9091	5.e-002	7.3657
14231	4.7775	4.6364	0.	1.6715e-002
14232	4.6856	4.7273	0.	2.2396e-002
14233	4.7775	4.7273	5.e-002	7.3606
14234	4.7775	4.4545	0.	8.7046e-003
14235	4.6856	4.5455	0.	1.3157e-002
14236	4.7775	4.5455	5.e-002	7.3498
14237	4.7775	4.2727	0.	2.054e-003
14238	4.6856	4.3636	0.	5.481e-003
14239	4.7775	4.3636	5.e-002	7.3347
14240	4.7775	4.0909	0.	-3.4357e-003
14241	4.6856	4.1818	0.	-8.4271e-004
14242	4.7775	4.1818	5.e-002	7.3168
14243	4.7775	3.9091	0.	-7.9255e-003
14244	4.6856	4.	0.	-6.0464e-003
14245	4.7775	4.	5.e-002	7.2978
14246	4.7775	3.7273	0.	-1.1507e-002
14247	4.6856	3.8182	0.	-1.025e-002
14248	4.7775	3.8182	5.e-002	7.2791
14249	4.7775	3.5455	0.	-1.424e-002
14250	4.6856	3.6364	0.	-1.3536e-002
14251	4.7775	3.6364	5.e-002	7.2623
14252	4.7775	3.3636	0.	-1.6167e-002
14253	4.6856	3.4545	0.	-1.5958e-002
14254	4.7775	3.4545	5.e-002	7.2485
14255	4.7775	3.1818	0.	-1.7314e-002
14256	4.6856	3.2727	0.	-1.7555e-002
14257	4.7775	3.2727	5.e-002	7.2387
14258	4.7775	3.	0.	-1.7695e-002
14259	4.6856	3.0909	0.	-1.8348e-002
14260	4.7775	3.0909	5.e-002	7.2337
14261	4.7775	2.8182	0.	-1.7314e-002
14262	4.6856	2.9091	0.	-1.8348e-002
14263	4.7775	2.9091	5.e-002	7.2337
14264	4.7775	2.6364	0.	-1.6167e-002
14265	4.6856	2.7273	0.	-1.7555e-002
14266	4.7775	2.7273	5.e-002	7.2387
14267	4.7775	2.4545	0.	-1.424e-002
14268	4.6856	2.5455	0.	-1.5958e-002
14269	4.7775	2.5455	5.e-002	7.2485
14270	4.7775	2.2727	0.	-1.1506e-002
14271	4.6856	2.3636	0.	-1.3536e-002
14272	4.7775	2.3636	5.e-002	7.2623
14273	4.7775	2.0909	0.	-7.9252e-003
14274	4.6856	2.1818	0.	-1.025e-002
14275	4.7775	2.1818	5.e-002	7.2791
14276	4.7775	1.9091	0.	-3.4353e-003
14277	4.6856	2.	0.	-6.046e-003
14278	4.7775	2.	5.e-002	7.2978
14279	4.7775	1.7273	0.	2.0546e-003
14280	4.6856	1.8182	0.	-8.4224e-004
14281	4.7775	1.8182	5.e-002	7.3168
14282	4.7775	1.5455	0.	8.7052e-003
14283	4.6856	1.6364	0.	5.4815e-003
14284	4.7775	1.6364	5.e-002	7.3347
14285	4.7775	1.3636	0.	1.6715e-002
14286	4.6856	1.4545	0.	1.3158e-002
14287	4.7775	1.4545	5.e-002	7.3497
14288	4.7775	1.1818	0.	2.6677e-002
14289	4.6856	1.2727	0.	2.2397e-002
14290	4.7775	1.2727	5.e-002	7.3605
14291	4.7775	1.	0.	3.8661e-002
14292	4.6856	1.0909	0.	3.4276e-002
14293	4.7775	1.0909	5.e-002	7.3656
14294	4.7775	0.81818	0.	5.713e-002
14295	4.6856	0.90909	0.	4.798e-002
14296	4.7775	0.90909	5.e-002	7.3638
14297	4.7775	0.63636	0.	7.3576e-002
14298	4.6856	0.72727	0.	7.3937e-002
14299	4.7775	0.72727	5.e-002	7.3543
14300	4.7775	0.45455	0.	0.16341
14301	4.6856	0.54545	0.	8.5021e-002
14302	4.7775	0.54545	5.e-002	7.3406
14303	4.7775	0.27273	0.	0.23559
14304	4.6856	0.36364	0.	0.27002
14305	4.7775	0.36364	5.e-002	7.3724
14306	4.6856	0.18182	0.	0.31177
14307	4.7775	0.18182	5.e-002	8.3519
14308	4.7775	9.0909e-002	0.	0.21881
14309	4.5938	5.7273	0.	0.26226
14310	4.5019	5.8182	0.	0.35544
14311	4.5938	5.8182	5.e-002	9.0408
14312	4.5938	5.9091	0.	0.23545
14313	4.5938	5.5455	0.	0.1794
14314	4.5019	5.6364	0.	0.29615
14315	4.5938	5.6364	5.e-002	7.589
14316	4.5938	5.3636	0.	8.1049e-002
14317	4.5019	5.4545	0.	9.3942e-002
14318	4.5938	5.4545	5.e-002	7.531
14319	4.5938	5.1818	0.	6.2756e-002
14320	4.5019	5.2727	0.	8.1243e-002
14321	4.5938	5.2727	5.e-002	7.5444
14322	4.5938	5.	0.	4.2449e-002
14323	4.5019	5.0909	0.	5.2729e-002
14324	4.5938	5.0909	5.e-002	7.5545
14325	4.5938	4.8182	0.	2.9267e-002
14326	4.5019	4.9091	0.	3.7629e-002
14327	4.5938	4.9091	5.e-002	7.5562
14328	4.5938	4.6364	0.	1.8334e-002
14329	4.5019	4.7273	0.	2.4585e-002
14330	4.5938	4.7273	5.e-002	7.55
14331	4.5938	4.4545	0.	9.5583e-003
14332	4.5019	4.5455	0.	1.4457e-002
14333	4.5938	4.5455	5.e-002	7.5374
14334	4.5938	4.2727	0.	2.2896e-003
14335	4.5019	4.3636	0.	6.063e-003
14336	4.5938	4.3636	5.e-002	7.5199
14337	4.5938	4.0909	0.	-3.6955e-003
14338	4.5019	4.1818	0.	-8.3295e-004
14339	4.5938	4.1818	5.e-002	7.4993
14340	4.5938	3.9091	0.	-8.5777e-003
14341	4.5019	4.	0.	-6.4907e-003
14342	4.5938	4.	5.e-002	7.4774
14343	4.5938	3.7273	0.	-1.2462e-002
14344	4.5019	3.8182	0.	-1.1047e-002
14345	4.5938	3.8182	5.e-002	7.456
14346	4.5938	3.5455	0.	-1.542e-002
14347	4.5019	3.6364	0.	-1.4599e-002
14348	4.5938	3.6364	5.e-002	7.4368
14349	4.5938	3.3636	0.	-1.7501e-002
14350	4.5019	3.4545	0.	-1.7211e-002
14351	4.5938	3.4545	5.e-002	7.421
14352	4.5938	3.1818	0.	-1.8739e-002
14353	4.5019	3.2727	0.	-1.893e-002
14354	4.5938	3.2727	5.e-002	7.4098
14355	4.5938	3.	0.	-1.9149e-002
14356	4.5019	3.0909	0.	-1.9783e-002
14357	4.5938	3.0909	5.e-002	7.4041
14358	4.5938	2.8182	0.	-1.8739e-002
14359	4.5019	2.9091	0.	-1.9783e-002
14360	4.5938	2.9091	5.e-002	7.4041
14361	4.5938	2.6364	0.	-1.7501e-002
14362	4.5019	2.7273	0.	-1.8929e-002
14363	4.5938	2.7273	5.e-002	7.4098
14364	4.5938	2.4545	0.	-1.542e-002
14365	4.5019	2.5455	0.	-1.7211e-002
14366	4.5938	2.5455	5.e-002	7.421
14367	4.5938	2.2727	0.	-1.2462e-002
14368	4.5019	2.3636	0.	-1.4599e-002
14369	4.5938	2.3636	5.e-002	7.4368
14370	4.5938	2.0909	0.	-8.5773e-003
14371	4.5019	2.1818	0.	-1.1047e-002
14372	4.5938	2.1818	5.e-002	7.4561
14373	4.5938	1.9091	0.	-3.6951e-003
14374	4.5019	2.	0.	-6.4903e-003
14375	4.5938	2.	5.e-002	7.4774
14376	4.5938	1.7273	0.	2.2901e-003
14377	4.5019	1.8182	0.	-8.3246e-004
14378	4.5938	1.8182	5.e-002	7.4993
14379	4.5938	1.5455	0.	9.559e-003
14380	4.5019	1.6364	0.	6.0636e-003
14381	4.5938	1.6364	5.e-002	7.5198
14382	4.5938	1.3636	0.	1.8334e-002
14383	4.5019	1.4545	0.	1.4458e-002
14384	4.5938	1.4545	5.e-002	7.5373
14385	4.5938	1.1818	0.	2.9268e-002
14386	4.5019	1.2727	0.	2.4586e-002
14387	4.5938	1.2727	5.e-002	7.55
14388	4.5938	1.	0.	4.245e-002
14389	4.5019	1.0909	0.	3.763e-002
14390	4.5938	1.0909	5.e-002	7.5561
14391	4.5938	0.81818	0.	6.2757e-002
14392	4.5019	0.90909	0.	5.273e-002
14393	4.5938	0.90909	5.e-002	7.5545
14394	4.5938	0.63636	0.	8.105e-002
14395	4.5019	0.72727	0.	8.1244e-002
14396	4.5938	0.72727	5.e-002	7.5444
14397	4.5938	0.45455	0.	0.1794
14398	4.5019	0.54545	0.	9.3942e-002
14399	4.5938	0.54545	5.e-002	7.5309
14400	4.5938	0.27273	0.	0.26226
14401	4.5019	0.36364	0.	0.29616
14402	4.5938	0.36364	5.e-002	7.589
14403	4.5019	0.18182	0.	0.35544
14404	4.5938	0.18182	5.e-002	9.0406
14405	4.5938	9.0909e-002	0.	0.23546
14406	4.41	5.7273	0.	0.29253
14407	4.3181	5.8182	0.	0.40749
14408	4.41	5.8182	5.e-002	9.779
14409	4.41	5.9091	0.	0.25388
14410	4.41	5.5455	0.	0.19701
14411	4.3181	5.6364	0.	0.32494
14412	4.41	5.6364	5.e-002	7.8229
14413	4.41	5.3636	0.	8.9319e-002
14414	4.3181	5.4545	0.	0.10386
14415	4.41	5.4545	5.e-002	7.7381
14416	4.41	5.1818	0.	6.8963e-002
14417	4.3181	5.2727	0.	8.9304e-002
14418	4.41	5.2727	5.e-002	7.752
14419	4.41	5.	0.	4.6639e-002
14420	4.3181	5.0909	0.	5.7979e-002
14421	4.41	5.0909	5.e-002	7.7635
14422	4.41	4.8182	0.	3.2141e-002
14423	4.3181	4.9091	0.	4.1341e-002
14424	4.41	4.9091	5.e-002	7.7654
14425	4.41	4.6364	0.	2.0148e-002
14426	4.3181	4.7273	0.	2.7023e-002
14427	4.41	4.7273	5.e-002	7.7584
14428	4.41	4.4545	0.	1.0545e-002
14429	4.3181	4.5455	0.	1.5928e-002
14430	4.41	4.5455	5.e-002	7.7442
14431	4.41	4.2727	0.	2.6134e-003
14432	4.3181	4.3636	0.	6.7622e-003
14433	4.41	4.3636	5.e-002	7.7243
14434	4.41	4.0909	0.	-3.8969e-003
14435	4.3181	4.1818	0.	-7.4209e-004
14436	4.41	4.1818	5.e-002	7.701
14437	4.41	3.9091	0.	-9.19e-003
14438	4.3181	4.	0.	-6.8757e-003
14439	4.41	4.	5.e-002	7.6763
14440	4.41	3.7273	0.	-1.3387e-002
14441	4.3181	3.8182	0.	-1.1797e-002
14442	4.41	3.8182	5.e-002	7.6521
14443	4.41	3.5455	0.	-1.6575e-002
14444	4.3181	3.6364	0.	-1.5619e-002
14445	4.41	3.6364	5.e-002	7.6304
14446	4.41	3.3636	0.	-1.8812e-002
14447	4.3181	3.4545	0.	-1.8421e-002
14448	4.41	3.4545	5.e-002	7.6126
14449	4.41	3.1818	0.	-2.014e-002
14450	4.3181	3.2727	0.	-2.026e-002
14451	4.41	3.2727	5.e-002	7.6
14452	4.41	3.	0.	-2.058e-002
14453	4.3181	3.0909	0.	-2.1171e-002
14454	4.41	3.0909	5.e-002	7.5935
14455	4.41	2.8182	0.	-2.014e-002
14456	4.3181	2.9091	0.	-2.1171e-002
14457	4.41	2.9091	5.e-002	7.5935
14458	4.41	2.6364	0.	-1.8812e-002
14459	4.3181	2.7273	0.	-2.026e-002
14460	4.41	2.7273	5.e-002	7.6
14461	4.41	2.4545	0.	-1.6575e-002
14462	4.3181	2.5455	0.	-1.842e-002
14463	4.41	2.5455	5.e-002	7.6126
14464	4.41	2.2727	0.	-1.3387e-002
14465	4.3181	2.3636	0.	-1.5619e-002
14466	4.41	2.3636	5.e-002	7.6304
14467	4.41	2.0909	0.	-9.1896e-003
14468	4.3181	2.1818	0.	-1.1796e-002
14469	4.41	2.1818	5.e-002	7.6521
14470	4.41	1.9091	0.	-3.8965e-003
14471	4.3181	2.	0.	-6.8754e-003
14472	4.41	2.	5.e-002	7.6763
14473	4.41	1.7273	0.	2.614e-003
14474	4.3181	1.8182	0.	-7.4165e-004
14475	4.41	1.8182	5.e-002	7.701
14476	4.41	1.5455	0.	1.0546e-002
14477	4.3181	1.6364	0.	6.7627e-003
14478	4.41	1.6364	5.e-002	7.7243
14479	4.41	1.3636	0.	2.0149e-002
14480	4.3181	1.4545	0.	1.5928e-002
14481	4.41	1.4545	5.e-002	7.7441
14482	4.41	1.1818	0.	3.2141e-002
14483	4.3181	1.2727	0.	2.7023e-002
14484	4.41	1.2727	5.e-002	7.7584
14485	4.41	1.	0.	4.664e-002
14486	4.3181	1.0909	0.	4.1342e-002
14487	4.41	1.0909	5.e-002	7.7653
14488	4.41	0.81818	0.	6.8964e-002
14489	4.3181	0.90909	0.	5.798e-002
14490	4.41	0.90909	5.e-002	7.7634
14491	4.41	0.63636	0.	8.9319e-002
14492	4.3181	0.72727	0.	8.9305e-002
14493	4.41	0.72727	5.e-002	7.752
14494	4.41	0.45455	0.	0.19701
14495	4.3181	0.54545	0.	0.10386
14496	4.41	0.54545	5.e-002	7.7381
14497	4.41	0.27273	0.	0.29253
14498	4.3181	0.36364	0.	0.32495
14499	4.41	0.36364	5.e-002	7.8228
14500	4.3181	0.18182	0.	0.40749
14501	4.41	0.18182	5.e-002	9.779
14502	4.41	9.0909e-002	0.	0.25388
14503	4.2263	5.7273	0.	0.327
14504	4.1344	5.8182	0.	0.46989
14505	4.2263	5.8182	5.e-002	10.569
14506	4.2263	5.9091	0.	0.2743
14507	4.2263	5.5455	0.	0.21644
14508	4.1344	5.6364	0.	0.35672
14509	4.2263	5.6364	5.e-002	8.0751
14510	4.2263	5.3636	0.	9.8481e-002
14511	4.1344	5.4545	0.	0.11491
14512	4.2263	5.4545	5.e-002	7.9637
14513	4.2263	5.1818	0.	7.5816e-002
14514	4.1344	5.2727	0.	9.8206e-002
14515	4.2263	5.2727	5.e-002	7.979
14516	4.2263	5.	0.	5.1271e-002
14517	4.1344	5.0909	0.	6.3782e-002
14518	4.2263	5.0909	5.e-002	7.9926
14519	4.2263	4.8182	0.	3.5327e-002
14520	4.1344	4.9091	0.	4.5446e-002
14521	4.2263	4.9091	5.e-002	7.9955
14522	4.2263	4.6364	0.	2.218e-002
14523	4.1344	4.7273	0.	2.9733e-002
14524	4.2263	4.7273	5.e-002	7.9882
14525	4.2263	4.4545	0.	1.1682e-002
14526	4.1344	4.5455	0.	1.7589e-002
14527	4.2263	4.5455	5.e-002	7.9726
14528	4.2263	4.2727	0.	3.0434e-003
14529	4.1344	4.3636	0.	7.5964e-003
14530	4.2263	4.3636	5.e-002	7.9507
14531	4.2263	4.0909	0.	-4.0194e-003
14532	4.1344	4.1818	0.	-5.4933e-004
14533	4.2263	4.1818	5.e-002	7.9247
14534	4.2263	3.9091	0.	-9.7374e-003
14535	4.1344	4.	0.	-7.1758e-003
14536	4.2263	4.	5.e-002	7.8971
14537	4.2263	3.7273	0.	-1.4253e-002
14538	4.1344	3.8182	0.	-1.2466e-002
14539	4.2263	3.8182	5.e-002	7.8702
14540	4.2263	3.5455	0.	-1.767e-002
14541	4.1344	3.6364	0.	-1.6557e-002
14542	4.2263	3.6364	5.e-002	7.846
14543	4.2263	3.3636	0.	-2.0061e-002
14544	4.1344	3.4545	0.	-1.9543e-002
14545	4.2263	3.4545	5.e-002	7.8262
14546	4.2263	3.1818	0.	-2.1476e-002
14547	4.1344	3.2727	0.	-2.1498e-002
14548	4.2263	3.2727	5.e-002	7.8123
14549	4.2263	3.	0.	-2.1945e-002
14550	4.1344	3.0909	0.	-2.2464e-002
14551	4.2263	3.0909	5.e-002	7.805
14552	4.2263	2.8182	0.	-2.1476e-002
14553	4.1344	2.9091	0.	-2.2464e-002
14554	4.2263	2.9091	5.e-002	7.805
14555	4.2263	2.6364	0.	-2.0061e-002
14556	4.1344	2.7273	0.	-2.1498e-002
14557	4.2263	2.7273	5.e-002	7.8123
14558	4.2263	2.4545	0.	-1.767e-002
14559	4.1344	2.5455	0.	-1.9543e-002
14560	4.2263	2.5455	5.e-002	7.8262
14561	4.2263	2.2727	0.	-1.4253e-002
14562	4.1344	2.3636	0.	-1.6556e-002
14563	4.2263	2.3636	5.e-002	7.846
14564	4.2263	2.0909	0.	-9.7371e-003
14565	4.1344	2.1818	0.	-1.2466e-002
14566	4.2263	2.1818	5.e-002	7.8702
14567	4.2263	1.9091	0.	-4.0191e-003
14568	4.1344	2.	0.	-7.1754e-003
14569	4.2263	2.	5.e-002	7.8971
14570	4.2263	1.7273	0.	3.0438e-003
14571	4.1344	1.8182	0.	-5.4892e-004
14572	4.2263	1.8182	5.e-002	7.9247
14573	4.2263	1.5455	0.	1.1683e-002
14574	4.1344	1.6364	0.	7.5969e-003
14575	4.2263	1.6364	5.e-002	7.9506
14576	4.2263	1.3636	0.	2.2181e-002
14577	4.1344	1.4545	0.	1.759e-002
14578	4.2263	1.4545	5.e-002	7.9726
14579	4.2263	1.1818	0.	3.5328e-002
14580	4.1344	1.2727	0.	2.9734e-002
14581	4.2263	1.2727	5.e-002	7.9882
14582	4.2263	1.	0.	5.1272e-002
14583	4.1344	1.0909	0.	4.5446e-002
14584	4.2263	1.0909	5.e-002	7.9954
14585	4.2263	0.81818	0.	7.5817e-002
14586	4.1344	0.90909	0.	6.3783e-002
14587	4.2263	0.90909	5.e-002	7.9926
14588	4.2263	0.63636	0.	9.8481e-002
14589	4.1344	0.72727	0.	9.8207e-002
14590	4.2263	0.72727	5.e-002	7.979
14591	4.2263	0.45455	0.	0.21644
14592	4.1344	0.54545	0.	0.11491
14593	4.2263	0.54545	5.e-002	7.9637
14594	4.2263	0.27273	0.	0.32701
14595	4.1344	0.36364	0.	0.35672
14596	4.2263	0.36364	5.e-002	8.075
14597	4.1344	0.18182	0.	0.46989
14598	4.2263	0.18182	5.e-002	10.569
14599	4.2263	9.0909e-002	0.	0.2743
14600	4.0425	5.7273	0.	0.36642
14601	3.9506	5.8182	0.	0.54515
14602	4.0425	5.8182	5.e-002	11.412
14603	4.0425	5.9091	0.	0.29702
14604	4.0425	5.5455	0.	0.2379
14605	3.9506	5.6364	0.	0.39188
14606	4.0425	5.6364	5.e-002	8.3466
14607	4.0425	5.3636	0.	0.10864
14608	3.9506	5.4545	0.	0.12723
14609	4.0425	5.4545	5.e-002	8.2094
14610	4.0425	5.1818	0.	8.3386e-002
14611	3.9506	5.2727	0.	0.10804
14612	4.0425	5.2727	5.e-002	8.2274
14613	4.0425	5.	0.	5.6391e-002
14614	3.9506	5.0909	0.	7.0198e-002
14615	4.0425	5.0909	5.e-002	8.2443
14616	4.0425	4.8182	0.	3.8857e-002
14617	3.9506	4.9091	0.	4.9982e-002
14618	4.0425	4.9091	5.e-002	8.249
14619	4.0425	4.6364	0.	2.4451e-002
14620	3.9506	4.7273	0.	3.2741e-002
14621	4.0425	4.7273	5.e-002	8.242
14622	4.0425	4.4545	0.	1.2989e-002
14623	3.9506	4.5455	0.	1.9461e-002
14624	4.0425	4.5455	5.e-002	8.2254
14625	4.0425	4.2727	0.	3.5999e-003
14626	3.9506	4.3636	0.	8.5863e-003
14627	4.0425	4.3636	5.e-002	8.2017
14628	4.0425	4.0909	0.	-4.0375e-003
14629	3.9506	4.1818	0.	-2.2953e-004
14630	4.0425	4.1818	5.e-002	8.1733
14631	4.0425	3.9091	0.	-1.0188e-002
14632	3.9506	4.	0.	-7.3578e-003
14633	4.0425	4.	5.e-002	8.1432
14634	4.0425	3.7273	0.	-1.502e-002
14635	3.9506	3.8182	0.	-1.3014e-002
14636	4.0425	3.8182	5.e-002	8.1136
14637	4.0425	3.5455	0.	-1.8658e-002
14638	3.9506	3.6364	0.	-1.7361e-002
14639	4.0425	3.6364	5.e-002	8.0871
14640	4.0425	3.3636	0.	-2.1194e-002
14641	3.9506	3.4545	0.	-2.052e-002
14642	4.0425	3.4545	5.e-002	8.0655
14643	4.0425	3.1818	0.	-2.2691e-002
14644	3.9506	3.2727	0.	-2.2579e-002
14645	4.0425	3.2727	5.e-002	8.0503
14646	4.0425	3.	0.	-2.3186e-002
14647	3.9506	3.0909	0.	-2.3594e-002
14648	4.0425	3.0909	5.e-002	8.0424
14649	4.0425	2.8182	0.	-2.2691e-002
14650	3.9506	2.9091	0.	-2.3594e-002
14651	4.0425	2.9091	5.e-002	8.0424
14652	4.0425	2.6364	0.	-2.1193e-002
14653	3.9506	2.7273	0.	-2.2578e-002
14654	4.0425	2.7273	5.e-002	8.0503
14655	4.0425	2.4545	0.	-1.8658e-002
14656	3.9506	2.5455	0.	-2.052e-002
14657	4.0425	2.5455	5.e-002	8.0655
14658	4.0425	2.2727	0.	-1.5019e-002
14659	3.9506	2.3636	0.	-1.7361e-002
14660	4.0425	2.3636	5.e-002	8.0871
14661	4.0425	2.0909	0.	-1.0187e-002
14662	3.9506	2.1818	0.	-1.3014e-002
14663	4.0425	2.1818	5.e-002	8.1136
14664	4.0425	1.9091	0.	-4.037e-003
14665	3.9506	2.	0.	-7.3574e-003
14666	4.0425	2.	5.e-002	8.1431
14667	4.0425	1.7273	0.	3.6004e-003
14668	3.9506	1.8182	0.	-2.2907e-004
14669	4.0425	1.8182	5.e-002	8.1733
14670	4.0425	1.5455	0.	1.299e-002
14671	3.9506	1.6364	0.	8.5868e-003
14672	4.0425	1.6364	5.e-002	8.2016
14673	4.0425	1.3636	0.	2.4452e-002
14674	3.9506	1.4545	0.	1.9462e-002
14675	4.0425	1.4545	5.e-002	8.2254
14676	4.0425	1.1818	0.	3.8857e-002
14677	3.9506	1.2727	0.	3.2741e-002
14678	4.0425	1.2727	5.e-002	8.242
14679	4.0425	1.	0.	5.6391e-002
14680	3.9506	1.0909	0.	4.9982e-002
14681	4.0425	1.0909	5.e-002	8.2489
14682	4.0425	0.81818	0.	8.3387e-002
14683	3.9506	0.90909	0.	7.0199e-002
14684	4.0425	0.90909	5.e-002	8.2443
14685	4.0425	0.63636	0.	0.10865
14686	3.9506	0.72727	0.	0.10805
14687	4.0425	0.72727	5.e-002	8.2274
14688	4.0425	0.45455	0.	0.2379
14689	3.9506	0.54545	0.	0.12723
14690	4.0425	0.54545	5.e-002	8.2093
14691	4.0425	0.27273	0.	0.36642
14692	3.9506	0.36364	0.	0.39188
14693	4.0425	0.36364	5.e-002	8.3465
14694	3.9506	0.18182	0.	0.54515
14695	4.0425	0.18182	5.e-002	11.412
14696	4.0425	9.0909e-002	0.	0.29702
14697	3.8588	5.7273	0.	0.41166
14698	3.7669	5.8182	0.	0.6366
14699	3.8588	5.8182	5.e-002	12.311
14700	3.8588	5.9091	0.	0.3224
14701	3.8588	5.5455	0.	0.26165
14702	3.7669	5.6364	0.	0.43085
14703	3.8588	5.6364	5.e-002	8.6385
14704	3.8588	5.3636	0.	0.11993
14705	3.7669	5.4545	0.	0.141
14706	3.8588	5.4545	5.e-002	8.4769
14707	3.8588	5.1818	0.	9.1752e-002
14708	3.7669	5.2727	0.	0.11893
14709	3.8588	5.2727	5.e-002	8.4994
14710	3.8588	5.	0.	6.2046e-002
14711	3.7669	5.0909	0.	7.7288e-002
14712	3.8588	5.0909	5.e-002	8.5212
14713	3.8588	4.8182	0.	4.2759e-002
14714	3.7669	4.9091	0.	5.4987e-002
14715	3.8588	4.9091	5.e-002	8.5287
14716	3.8588	4.6364	0.	2.6982e-002
14717	3.7669	4.7273	0.	3.6071e-002
14718	3.8588	4.7273	5.e-002	8.5229
14719	3.8588	4.4545	0.	1.4486e-002
14720	3.7669	4.5455	0.	2.1563e-002
14721	3.8588	4.5455	5.e-002	8.506
14722	3.8588	4.2727	0.	4.3075e-003
14723	3.7669	4.3636	0.	9.7545e-003
14724	3.8588	4.3636	5.e-002	8.4808
14725	3.8588	4.0909	0.	-3.919e-003
14726	3.7669	4.1818	0.	2.4818e-004
14727	3.8588	4.1818	5.e-002	8.4505
14728	3.8588	3.9091	0.	-1.0499e-002
14729	3.7669	4.	0.	-7.3798e-003
14730	3.8588	4.	5.e-002	8.418
14731	3.8588	3.7273	0.	-1.5634e-002
14732	3.7669	3.8182	0.	-1.3385e-002
14733	3.8588	3.8182	5.e-002	8.3863
14734	3.8588	3.5455	0.	-1.9476e-002
14735	3.7669	3.6364	0.	-1.7967e-002
14736	3.8588	3.6364	5.e-002	8.3579
14737	3.8588	3.3636	0.	-2.2141e-002
14738	3.7669	3.4545	0.	-2.1274e-002
14739	3.8588	3.4545	5.e-002	8.3348
14740	3.8588	3.1818	0.	-2.3709e-002
14741	3.7669	3.2727	0.	-2.3418e-002
14742	3.8588	3.2727	5.e-002	8.3185
14743	3.8588	3.	0.	-2.4227e-002
14744	3.7669	3.0909	0.	-2.4473e-002
14745	3.8588	3.0909	5.e-002	8.3101
14746	3.8588	2.8182	0.	-2.3709e-002
14747	3.7669	2.9091	0.	-2.4473e-002
14748	3.8588	2.9091	5.e-002	8.3101
14749	3.8588	2.6364	0.	-2.2141e-002
14750	3.7669	2.7273	0.	-2.3418e-002
14751	3.8588	2.7273	5.e-002	8.3185
14752	3.8588	2.4545	0.	-1.9476e-002
14753	3.7669	2.5455	0.	-2.1274e-002
14754	3.8588	2.5455	5.e-002	8.3348
14755	3.8588	2.2727	0.	-1.5633e-002
14756	3.7669	2.3636	0.	-1.7967e-002
14757	3.8588	2.3636	5.e-002	8.3579
14758	3.8588	2.0909	0.	-1.0499e-002
14759	3.7669	2.1818	0.	-1.3385e-002
14760	3.8588	2.1818	5.e-002	8.3863
14761	3.8588	1.9091	0.	-3.9186e-003
14762	3.7669	2.	0.	-7.3794e-003
14763	3.8588	2.	5.e-002	8.418
14764	3.8588	1.7273	0.	4.3079e-003
14765	3.7669	1.8182	0.	2.4863e-004
14766	3.8588	1.8182	5.e-002	8.4504
14767	3.8588	1.5455	0.	1.4487e-002
14768	3.7669	1.6364	0.	9.755e-003
14769	3.8588	1.6364	5.e-002	8.4808
14770	3.8588	1.3636	0.	2.6983e-002
14771	3.7669	1.4545	0.	2.1564e-002
14772	3.8588	1.4545	5.e-002	8.506
14773	3.8588	1.1818	0.	4.276e-002
14774	3.7669	1.2727	0.	3.6072e-002
14775	3.8588	1.2727	5.e-002	8.5229
14776	3.8588	1.	0.	6.2047e-002
14777	3.7669	1.0909	0.	5.4988e-002
14778	3.8588	1.0909	5.e-002	8.5287
14779	3.8588	0.81818	0.	9.1753e-002
14780	3.7669	0.90909	0.	7.729e-002
14781	3.8588	0.90909	5.e-002	8.5211
14782	3.8588	0.63636	0.	0.11993
14783	3.7669	0.72727	0.	0.11893
14784	3.8588	0.72727	5.e-002	8.4994
14785	3.8588	0.45455	0.	0.26165
14786	3.7669	0.54545	0.	0.141
14787	3.8588	0.54545	5.e-002	8.4768
14788	3.8588	0.27273	0.	0.41166
14789	3.7669	0.36364	0.	0.43085
14790	3.8588	0.36364	5.e-002	8.6385
14791	3.7669	0.18182	0.	0.6366
14792	3.8588	0.18182	5.e-002	12.311
14793	3.8588	9.0909e-002	0.	0.3224
14794	3.675	5.7273	0.	0.46383
14795	3.5831	5.8182	0.	0.74868
14796	3.675	5.8182	5.e-002	13.266
14797	3.675	5.9091	0.	0.35094
14798	3.675	5.5455	0.	0.288
14799	3.5831	5.6364	0.	0.47419
14800	3.675	5.6364	5.e-002	8.9521
14801	3.675	5.3636	0.	0.13249
14802	3.5831	5.4545	0.	0.15642
14803	3.675	5.4545	5.e-002	8.7684
14804	3.675	5.1818	0.	0.101
14805	3.5831	5.2727	0.	0.13098
14806	3.675	5.2727	5.e-002	8.798
14807	3.675	5.	0.	6.8286e-002
14808	3.5831	5.0909	0.	8.5121e-002
14809	3.675	5.0909	5.e-002	8.8264
14810	3.675	4.8182	0.	4.7065e-002
14811	3.5831	4.9091	0.	6.0501e-002
14812	3.675	4.9091	5.e-002	8.8383
14813	3.675	4.6364	0.	2.9795e-002
14814	3.5831	4.7273	0.	3.9747e-002
14815	3.675	4.7273	5.e-002	8.8346
14816	3.675	4.4545	0.	1.6194e-002
14817	3.5831	4.5455	0.	2.3916e-002
14818	3.675	4.5455	5.e-002	8.818
14819	3.675	4.2727	0.	5.1945e-003
14820	3.5831	4.3636	0.	1.1127e-002
14821	3.675	4.3636	5.e-002	8.7921
14822	3.675	4.0909	0.	-3.6237e-003
14823	3.5831	4.1818	0.	9.2214e-004
14824	3.675	4.1818	5.e-002	8.7602
14825	3.675	3.9091	0.	-1.0616e-002
14826	3.5831	4.	0.	-7.1876e-003
14827	3.675	4.	5.e-002	8.726
14828	3.675	3.7273	0.	-1.6027e-002
14829	3.5831	3.8182	0.	-1.3509e-002
14830	3.675	3.8182	5.e-002	8.6927
14831	3.675	3.5455	0.	-2.0045e-002
14832	3.5831	3.6364	0.	-1.8286e-002
14833	3.675	3.6364	5.e-002	8.663
14834	3.675	3.3636	0.	-2.2813e-002
14835	3.5831	3.4545	0.	-2.1705e-002
14836	3.675	3.4545	5.e-002	8.6389
14837	3.675	3.1818	0.	-2.4434e-002
14838	3.5831	3.2727	0.	-2.3908e-002
14839	3.675	3.2727	5.e-002	8.622
14840	3.675	3.	0.	-2.4967e-002
14841	3.5831	3.0909	0.	-2.4986e-002
14842	3.675	3.0909	5.e-002	8.6133
14843	3.675	2.8182	0.	-2.4434e-002
14844	3.5831	2.9091	0.	-2.4986e-002
14845	3.675	2.9091	5.e-002	8.6133
14846	3.675	2.6364	0.	-2.2813e-002
14847	3.5831	2.7273	0.	-2.3908e-002
14848	3.675	2.7273	5.e-002	8.622
14849	3.675	2.4545	0.	-2.0045e-002
14850	3.5831	2.5455	0.	-2.1705e-002
14851	3.675	2.5455	5.e-002	8.6389
14852	3.675	2.2727	0.	-1.6027e-002
14853	3.5831	2.3636	0.	-1.8286e-002
14854	3.675	2.3636	5.e-002	8.663
14855	3.675	2.0909	0.	-1.0616e-002
14856	3.5831	2.1818	0.	-1.3508e-002
14857	3.675	2.1818	5.e-002	8.6927
14858	3.675	1.9091	0.	-3.6233e-003
14859	3.5831	2.	0.	-7.1872e-003
14860	3.675	2.	5.e-002	8.7261
14861	3.675	1.7273	0.	5.195e-003
14862	3.5831	1.8182	0.	9.2257e-004
14863	3.675	1.8182	5.e-002	8.7601
14864	3.675	1.5455	0.	1.6195e-002
14865	3.5831	1.6364	0.	1.1128e-002
14866	3.675	1.6364	5.e-002	8.792
14867	3.675	1.3636	0.	2.9796e-002
14868	3.5831	1.4545	0.	2.3916e-002
14869	3.675	1.4545	5.e-002	8.818
14870	3.675	1.1818	0.	4.7066e-002
14871	3.5831	1.2727	0.	3.9747e-002
14872	3.675	1.2727	5.e-002	8.8346
14873	3.675	1.	0.	6.8287e-002
14874	3.5831	1.0909	0.	6.0501e-002
14875	3.675	1.0909	5.e-002	8.8382
14876	3.675	0.81818	0.	0.101
14877	3.5831	0.90909	0.	8.5123e-002
14878	3.675	0.90909	5.e-002	8.8264
14879	3.675	0.63636	0.	0.13249
14880	3.5831	0.72727	0.	0.13098
14881	3.675	0.72727	5.e-002	8.7979
14882	3.675	0.45455	0.	0.288
14883	3.5831	0.54545	0.	0.15642
14884	3.675	0.54545	5.e-002	8.7684
14885	3.675	0.27273	0.	0.46383
14886	3.5831	0.36364	0.	0.47419
14887	3.675	0.36364	5.e-002	8.952
14888	3.5831	0.18182	0.	0.74868
14889	3.675	0.18182	5.e-002	13.266
14890	3.675	9.0909e-002	0.	0.35095
14891	3.4913	5.7273	0.	0.5243
14892	3.3994	5.8182	0.	0.88744
14893	3.4913	5.8182	5.e-002	14.278
14894	3.4913	5.9091	0.	0.38332
14895	3.4913	5.5455	0.	0.3173
14896	3.3994	5.6364	0.	0.52252
14897	3.4913	5.6364	5.e-002	9.2886
14898	3.4913	5.3636	0.	0.14647
14899	3.3994	5.4545	0.	0.17372
14900	3.4913	5.4545	5.e-002	9.0869
14901	3.4913	5.1818	0.	0.11122
14902	3.3994	5.2727	0.	0.14433
14903	3.4913	5.2727	5.e-002	9.1264
14904	3.4913	5.	0.	7.5164e-002
14905	3.3994	5.0909	0.	9.3767e-002
14906	3.4913	5.0909	5.e-002	9.1638
14907	3.4913	4.8182	0.	5.1804e-002
14908	3.3994	4.9091	0.	6.6558e-002
14909	3.4913	4.9091	5.e-002	9.1817
14910	3.4913	4.6364	0.	3.291e-002
14911	3.3994	4.7273	0.	4.3788e-002
14912	3.4913	4.7273	5.e-002	9.1812
14913	3.4913	4.4545	0.	1.8137e-002
14914	3.3994	4.5455	0.	2.6538e-002
14915	3.4913	4.5455	5.e-002	9.1659
14916	3.4913	4.2727	0.	6.2958e-003
14917	3.3994	4.3636	0.	1.2734e-002
14918	3.4913	4.3636	5.e-002	9.1399
14919	3.4913	4.0909	0.	-3.1001e-003
14920	3.3994	4.1818	0.	1.8406e-003
14921	3.4913	4.1818	5.e-002	9.1073
14922	3.4913	3.9091	0.	-1.047e-002
14923	3.3994	4.	0.	-6.7113e-003
14924	3.4913	4.	5.e-002	9.0723
14925	3.4913	3.7273	0.	-1.6111e-002
14926	3.3994	3.8182	0.	-1.3293e-002
14927	3.4913	3.8182	5.e-002	9.0383
14928	3.4913	3.5455	0.	-2.0258e-002
14929	3.3994	3.6364	0.	-1.8207e-002
14930	3.4913	3.6364	5.e-002	9.008
14931	3.4913	3.3636	0.	-2.3091e-002
14932	3.3994	3.4545	0.	-2.1686e-002
14933	3.4913	3.4545	5.e-002	8.9838
14934	3.4913	3.1818	0.	-2.4739e-002
14935	3.3994	3.2727	0.	-2.3908e-002
14936	3.4913	3.2727	5.e-002	8.9668
14937	3.4913	3.	0.	-2.528e-002
14938	3.3994	3.0909	0.	-2.499e-002
14939	3.4913	3.0909	5.e-002	8.9581
14940	3.4913	2.8182	0.	-2.4739e-002
14941	3.3994	2.9091	0.	-2.499e-002
14942	3.4913	2.9091	5.e-002	8.9581
14943	3.4913	2.6364	0.	-2.3091e-002
14944	3.3994	2.7273	0.	-2.3908e-002
14945	3.4913	2.7273	5.e-002	8.9668
14946	3.4913	2.4545	0.	-2.0258e-002
14947	3.3994	2.5455	0.	-2.1686e-002
14948	3.4913	2.5455	5.e-002	8.9837
14949	3.4913	2.2727	0.	-1.6111e-002
14950	3.3994	2.3636	0.	-1.8207e-002
14951	3.4913	2.3636	5.e-002	9.008
14952	3.4913	2.0909	0.	-1.047e-002
14953	3.3994	2.1818	0.	-1.3293e-002
14954	3.4913	2.1818	5.e-002	9.0382
14955	3.4913	1.9091	0.	-3.0997e-003
14956	3.3994	2.	0.	-6.7109e-003
14957	3.4913	2.	5.e-002	9.0723
14958	3.4913	1.7273	0.	6.2963e-003
14959	3.3994	1.8182	0.	1.841e-003
14960	3.4913	1.8182	5.e-002	9.1073
14961	3.4913	1.5455	0.	1.8137e-002
14962	3.3994	1.6364	0.	1.2735e-002
14963	3.4913	1.6364	5.e-002	9.1399
14964	3.4913	1.3636	0.	3.2911e-002
14965	3.3994	1.4545	0.	2.6539e-002
14966	3.4913	1.4545	5.e-002	9.1659
14967	3.4913	1.1818	0.	5.1804e-002
14968	3.3994	1.2727	0.	4.3789e-002
14969	3.4913	1.2727	5.e-002	9.1812
14970	3.4913	1.	0.	7.5165e-002
14971	3.3994	1.0909	0.	6.6559e-002
14972	3.4913	1.0909	5.e-002	9.1816
14973	3.4913	0.81818	0.	0.11122
14974	3.3994	0.90909	0.	9.3769e-002
14975	3.4913	0.90909	5.e-002	9.1638
14976	3.4913	0.63636	0.	0.14647
14977	3.3994	0.72727	0.	0.14433
14978	3.4913	0.72727	5.e-002	9.1264
14979	3.4913	0.45455	0.	0.3173
14980	3.3994	0.54545	0.	0.17372
14981	3.4913	0.54545	5.e-002	9.0869
14982	3.4913	0.27273	0.	0.5243
14983	3.3994	0.36364	0.	0.52252
14984	3.4913	0.36364	5.e-002	9.2885
14985	3.3994	0.18182	0.	0.88744
14986	3.4913	0.18182	5.e-002	14.278
14987	3.4913	9.0909e-002	0.	0.38332
14988	3.3075	5.7273	0.	0.59476
14989	3.2156	5.8182	0.	1.0613
14990	3.3075	5.8182	5.e-002	15.347
14991	3.3075	5.9091	0.	0.42047
14992	3.3075	5.5455	0.	0.34995
14993	3.2156	5.6364	0.	0.57661
14994	3.3075	5.6364	5.e-002	9.6499
14995	3.3075	5.3636	0.	0.16207
14996	3.2156	5.4545	0.	0.19317
14997	3.3075	5.4545	5.e-002	9.4359
14998	3.3075	5.1818	0.	0.12252
14999	3.2156	5.2727	0.	0.15913
15000	3.3075	5.2727	5.e-002	9.4891
15001	3.3075	5.	0.	8.2729e-002
15002	3.2156	5.0909	0.	0.1033
15003	3.3075	5.0909	5.e-002	9.5383
15004	3.3075	4.8182	0.	5.7e-002
15005	3.2156	4.9091	0.	7.3194e-002
15006	3.3075	4.9091	5.e-002	9.564
15007	3.3075	4.6364	0.	3.6345e-002
15008	3.2156	4.7273	0.	4.8213e-002
15009	3.3075	4.7273	5.e-002	9.5681
15010	3.3075	4.4545	0.	2.0339e-002
15011	3.2156	4.5455	0.	2.9451e-002
15012	3.3075	4.5455	5.e-002	9.5549
15013	3.3075	4.2727	0.	7.6541e-003
15014	3.2156	4.3636	0.	1.4613e-002
15015	3.3075	4.3636	5.e-002	9.5297
15016	3.3075	4.0909	0.	-2.2823e-003
15017	3.2156	4.1818	0.	3.0665e-003
15018	3.3075	4.1818	5.e-002	9.4973
15019	3.3075	3.9091	0.	-9.9691e-003
15020	3.2156	4.	0.	-5.8596e-003
15021	3.3075	4.	5.e-002	9.4625
15022	3.3075	3.7273	0.	-1.5771e-002
15023	3.2156	3.8182	0.	-1.2619e-002
15024	3.3075	3.8182	5.e-002	9.429
15025	3.3075	3.5455	0.	-1.9981e-002
15026	3.2156	3.6364	0.	-1.7587e-002
15027	3.3075	3.6364	5.e-002	9.3996
15028	3.3075	3.3636	0.	-2.2825e-002
15029	3.2156	3.4545	0.	-2.1055e-002
15030	3.3075	3.4545	5.e-002	9.3762
15031	3.3075	3.1818	0.	-2.4467e-002
15032	3.2156	3.2727	0.	-2.3245e-002
15033	3.3075	3.2727	5.e-002	9.3601
15034	3.3075	3.	0.	-2.5004e-002
15035	3.2156	3.0909	0.	-2.4303e-002
15036	3.3075	3.0909	5.e-002	9.3519
15037	3.3075	2.8182	0.	-2.4467e-002
15038	3.2156	2.9091	0.	-2.4303e-002
15039	3.3075	2.9091	5.e-002	9.3519
15040	3.3075	2.6364	0.	-2.2825e-002
15041	3.2156	2.7273	0.	-2.3245e-002
15042	3.3075	2.7273	5.e-002	9.3601
15043	3.3075	2.4545	0.	-1.9981e-002
15044	3.2156	2.5455	0.	-2.1055e-002
15045	3.3075	2.5455	5.e-002	9.3763
15046	3.3075	2.2727	0.	-1.5771e-002
15047	3.2156	2.3636	0.	-1.7587e-002
15048	3.3075	2.3636	5.e-002	9.3996
15049	3.3075	2.0909	0.	-9.9688e-003
15050	3.2156	2.1818	0.	-1.2619e-002
15051	3.3075	2.1818	5.e-002	9.429
15052	3.3075	1.9091	0.	-2.2819e-003
15053	3.2156	2.	0.	-5.8593e-003
15054	3.3075	2.	5.e-002	9.4625
15055	3.3075	1.7273	0.	7.6546e-003
15056	3.2156	1.8182	0.	3.0668e-003
15057	3.3075	1.8182	5.e-002	9.4973
15058	3.3075	1.5455	0.	2.0339e-002
15059	3.2156	1.6364	0.	1.4614e-002
15060	3.3075	1.6364	5.e-002	9.5296
15061	3.3075	1.3636	0.	3.6345e-002
15062	3.2156	1.4545	0.	2.9452e-002
15063	3.3075	1.4545	5.e-002	9.5549
15064	3.3075	1.1818	0.	5.7e-002
15065	3.2156	1.2727	0.	4.8214e-002
15066	3.3075	1.2727	5.e-002	9.568
15067	3.3075	1.	0.	8.273e-002
15068	3.2156	1.0909	0.	7.3194e-002
15069	3.3075	1.0909	5.e-002	9.5639
15070	3.3075	0.81818	0.	0.12252
15071	3.2156	0.90909	0.	0.1033
15072	3.3075	0.90909	5.e-002	9.5382
15073	3.3075	0.63636	0.	0.16207
15074	3.2156	0.72727	0.	0.15913
15075	3.3075	0.72727	5.e-002	9.4891
15076	3.3075	0.45455	0.	0.34995
15077	3.2156	0.54545	0.	0.19317
15078	3.3075	0.54545	5.e-002	9.4359
15079	3.3075	0.27273	0.	0.59476
15080	3.2156	0.36364	0.	0.57661
15081	3.3075	0.36364	5.e-002	9.6499
15082	3.2156	0.18182	0.	1.0613
15083	3.3075	0.18182	5.e-002	15.347
15084	3.3075	9.0909e-002	0.	0.42047
15085	3.1237	5.7273	0.	0.67739
15086	3.0319	5.8182	0.	1.2821
15087	3.1237	5.8182	5.e-002	16.472
15088	3.1237	5.9091	0.	0.46377
15089	3.1237	5.5455	0.	0.38644
15090	3.0319	5.6364	0.	0.63738
15091	3.1237	5.6364	5.e-002	10.039
15092	3.1237	5.3636	0.	0.17948
15093	3.0319	5.4545	0.	0.21509
15094	3.1237	5.4545	5.e-002	9.8203
15095	3.1237	5.1818	0.	0.13501
15096	3.0319	5.2727	0.	0.17556
15097	3.1237	5.2727	5.e-002	9.8919
15098	3.1237	5.	0.	9.1031e-002
15099	3.0319	5.0909	0.	0.11379
15100	3.1237	5.0909	5.e-002	9.9559
15101	3.1237	4.8182	0.	6.2674e-002
15102	3.0319	4.9091	0.	8.0434e-002
15103	3.1237	4.9091	5.e-002	9.9913
15104	3.1237	4.6364	0.	4.0116e-002
15105	3.0319	4.7273	0.	5.3033e-002
15106	3.1237	4.7273	5.e-002	10.001
15107	3.1237	4.4545	0.	2.2832e-002
15108	3.0319	4.5455	0.	3.2677e-002
15109	3.1237	4.5455	5.e-002	9.9911
15110	3.1237	4.2727	0.	9.3257e-003
15111	3.0319	4.3636	0.	1.6813e-002
15112	3.1237	4.3636	5.e-002	9.9675
15113	3.1237	4.0909	0.	-1.0828e-003
15114	3.0319	4.1818	0.	4.6824e-003
15115	3.1237	4.1818	5.e-002	9.9366
15116	3.1237	3.9091	0.	-8.9942e-003
15117	3.0319	4.	0.	-4.5132e-003
15118	3.1237	4.	5.e-002	9.9035
15119	3.1237	3.7273	0.	-1.4859e-002
15120	3.0319	3.8182	0.	-1.1334e-002
15121	3.1237	3.8182	5.e-002	9.8722
15122	3.1237	3.5455	0.	-1.9043e-002
15123	3.0319	3.6364	0.	-1.6245e-002
15124	3.1237	3.6364	5.e-002	9.8453
15125	3.1237	3.3636	0.	-2.1829e-002
15126	3.0319	3.4545	0.	-1.961e-002
15127	3.1237	3.4545	5.e-002	9.8245
15128	3.1237	3.1818	0.	-2.342e-002
15129	3.0319	3.2727	0.	-2.1702e-002
15130	3.1237	3.2727	5.e-002	9.8103
15131	3.1237	3.	0.	-2.3936e-002
15132	3.0319	3.0909	0.	-2.2703e-002
15133	3.1237	3.0909	5.e-002	9.8032
15134	3.1237	2.8182	0.	-2.342e-002
15135	3.0319	2.9091	0.	-2.2703e-002
15136	3.1237	2.9091	5.e-002	9.8032
15137	3.1237	2.6364	0.	-2.1829e-002
15138	3.0319	2.7273	0.	-2.1702e-002
15139	3.1237	2.7273	5.e-002	9.8103
15140	3.1237	2.4545	0.	-1.9043e-002
15141	3.0319	2.5455	0.	-1.9609e-002
15142	3.1237	2.5455	5.e-002	9.8244
15143	3.1237	2.2727	0.	-1.4859e-002
15144	3.0319	2.3636	0.	-1.6245e-002
15145	3.1237	2.3636	5.e-002	9.8453
15146	3.1237	2.0909	0.	-8.994e-003
15147	3.0319	2.1818	0.	-1.1334e-002
15148	3.1237	2.1818	5.e-002	9.8722
15149	3.1237	1.9091	0.	-1.0825e-003
15150	3.0319	2.	0.	-4.5129e-003
15151	3.1237	2.	5.e-002	9.9035
15152	3.1237	1.7273	0.	9.3261e-003
15153	3.0319	1.8182	0.	4.6827e-003
15154	3.1237	1.8182	5.e-002	9.9366
15155	3.1237	1.5455	0.	2.2832e-002
15156	3.0319	1.6364	0.	1.6814e-002
15157	3.1237	1.6364	5.e-002	9.9675
15158	3.1237	1.3636	0.	4.0117e-002
15159	3.0319	1.4545	0.	3.2677e-002
15160	3.1237	1.4545	5.e-002	9.991
15161	3.1237	1.1818	0.	6.2675e-002
15162	3.0319	1.2727	0.	5.3033e-002
15163	3.1237	1.2727	5.e-002	10.001
15164	3.1237	1.	0.	9.1032e-002
15165	3.0319	1.0909	0.	8.0435e-002
15166	3.1237	1.0909	5.e-002	9.9913
15167	3.1237	0.81818	0.	0.13501
15168	3.0319	0.90909	0.	0.11379
15169	3.1237	0.90909	5.e-002	9.9559
15170	3.1237	0.63636	0.	0.17948
15171	3.0319	0.72727	0.	0.17556
15172	3.1237	0.72727	5.e-002	9.8918
15173	3.1237	0.45455	0.	0.38645
15174	3.0319	0.54545	0.	0.21509
15175	3.1237	0.54545	5.e-002	9.8202
15176	3.1237	0.27273	0.	0.67739
15177	3.0319	0.36364	0.	0.63738
15178	3.1237	0.36364	5.e-002	10.039
15179	3.0319	0.18182	0.	1.2821
15180	3.1237	0.18182	5.e-002	16.472
15181	3.1237	9.0909e-002	0.	0.46377
15182	2.94	5.7273	0.	0.77493
15183	2.8481	5.8182	0.	1.5674
15184	2.94	5.8182	5.e-002	17.65
15185	2.94	5.9091	0.	0.51531
15186	2.94	5.5455	0.	0.42736
15187	2.8481	5.6364	0.	0.70597
15188	2.94	5.6364	5.e-002	10.459
15189	2.94	5.3636	0.	0.19895
15190	2.8481	5.4545	0.	0.23986
15191	2.94	5.4545	5.e-002	10.247
15192	2.94	5.1818	0.	0.14881
15193	2.8481	5.2727	0.	0.1938
15194	2.94	5.2727	5.e-002	10.342
15195	2.94	5.	0.	0.10011
15196	2.8481	5.0909	0.	0.12532
15197	2.94	5.0909	5.e-002	10.425
15198	2.94	4.8182	0.	6.8839e-002
15199	2.8481	4.9091	0.	8.8303e-002
15200	2.94	4.9091	5.e-002	10.472
15201	2.94	4.6364	0.	4.4237e-002
15202	2.8481	4.7273	0.	5.826e-002
15203	2.94	4.7273	5.e-002	10.488
15204	2.94	4.4545	0.	2.5652e-002
15205	2.8481	4.5455	0.	3.6248e-002
15206	2.94	4.5455	5.e-002	10.482
15207	2.94	4.2727	0.	1.1384e-002
15208	2.8481	4.3636	0.	1.9405e-002
15209	2.94	4.3636	5.e-002	10.461
15210	2.94	4.0909	0.	6.1201e-004
15211	2.8481	4.1818	0.	6.807e-003
15212	2.94	4.1818	5.e-002	10.432
15213	2.94	3.9091	0.	-7.3929e-003
15214	2.8481	4.	0.	-2.5088e-003
15215	2.94	4.	5.e-002	10.403
15216	2.94	3.7273	0.	-1.319e-002
15217	2.8481	3.8182	0.	-9.2364e-003
15218	2.94	3.8182	5.e-002	10.376
15219	2.94	3.5455	0.	-1.7234e-002
15220	2.8481	3.6364	0.	-1.3951e-002
15221	2.94	3.6364	5.e-002	10.354
15222	2.94	3.3636	0.	-1.9873e-002
15223	2.8481	3.4545	0.	-1.7099e-002
15224	2.94	3.4545	5.e-002	10.338
15225	2.94	3.1818	0.	-2.1358e-002
15226	2.8481	3.2727	0.	-1.9016e-002
15227	2.94	3.2727	5.e-002	10.327
15228	2.94	3.	0.	-2.1836e-002
15229	2.8481	3.0909	0.	-1.992e-002
15230	2.94	3.0909	5.e-002	10.322
15231	2.94	2.8182	0.	-2.1358e-002
15232	2.8481	2.9091	0.	-1.992e-002
15233	2.94	2.9091	5.e-002	10.322
15234	2.94	2.6364	0.	-1.9873e-002
15235	2.8481	2.7273	0.	-1.9016e-002
15236	2.94	2.7273	5.e-002	10.327
15237	2.94	2.4545	0.	-1.7233e-002
15238	2.8481	2.5455	0.	-1.7099e-002
15239	2.94	2.5455	5.e-002	10.338
15240	2.94	2.2727	0.	-1.319e-002
15241	2.8481	2.3636	0.	-1.3951e-002
15242	2.94	2.3636	5.e-002	10.354
15243	2.94	2.0909	0.	-7.3926e-003
15244	2.8481	2.1818	0.	-9.2361e-003
15245	2.94	2.1818	5.e-002	10.376
15246	2.94	1.9091	0.	6.1233e-004
15247	2.8481	2.	0.	-2.5084e-003
15248	2.94	2.	5.e-002	10.403
15249	2.94	1.7273	0.	1.1384e-002
15250	2.8481	1.8182	0.	6.8073e-003
15251	2.94	1.8182	5.e-002	10.432
15252	2.94	1.5455	0.	2.5652e-002
15253	2.8481	1.6364	0.	1.9406e-002
15254	2.94	1.6364	5.e-002	10.461
15255	2.94	1.3636	0.	4.4238e-002
15256	2.8481	1.4545	0.	3.6249e-002
15257	2.94	1.4545	5.e-002	10.482
15258	2.94	1.1818	0.	6.884e-002
15259	2.8481	1.2727	0.	5.8261e-002
15260	2.94	1.2727	5.e-002	10.488
15261	2.94	1.	0.	0.10011
15262	2.8481	1.0909	0.	8.8304e-002
15263	2.94	1.0909	5.e-002	10.472
15264	2.94	0.81818	0.	0.14881
15265	2.8481	0.90909	0.	0.12532
15266	2.94	0.90909	5.e-002	10.425
15267	2.94	0.63636	0.	0.19895
15268	2.8481	0.72727	0.	0.1938
15269	2.94	0.72727	5.e-002	10.342
15270	2.94	0.45455	0.	0.42736
15271	2.8481	0.54545	0.	0.23986
15272	2.94	0.54545	5.e-002	10.247
15273	2.94	0.27273	0.	0.77493
15274	2.8481	0.36364	0.	0.70597
15275	2.94	0.36364	5.e-002	10.459
15276	2.8481	0.18182	0.	1.5674
15277	2.94	0.18182	5.e-002	17.65
15278	2.94	9.0909e-002	0.	0.51531
15279	2.7562	5.7273	0.	0.89097
15280	2.6644	5.8182	0.	1.9434
15281	2.7562	5.8182	5.e-002	18.877
15282	2.7562	5.9091	0.	0.57849
15283	2.7562	5.5455	0.	0.47341
15284	2.6644	5.6364	0.	0.78377
15285	2.7562	5.6364	5.e-002	10.916
15286	2.7562	5.3636	0.	0.22077
15287	2.6644	5.4545	0.	0.26791
15288	2.7562	5.4545	5.e-002	10.725
15289	2.7562	5.1818	0.	0.16404
15290	2.6644	5.2727	0.	0.21406
15291	2.7562	5.2727	5.e-002	10.851
15292	2.7562	5.	0.	0.11002
15293	2.6644	5.0909	0.	0.13794
15294	2.7562	5.0909	5.e-002	10.955
15295	2.7562	4.8182	0.	7.5514e-002
15296	2.6644	4.9091	0.	9.6806e-002
15297	2.7562	4.9091	5.e-002	11.015
15298	2.7562	4.6364	0.	4.8737e-002
15299	2.6644	4.7273	0.	6.3897e-002
15300	2.7562	4.7273	5.e-002	11.038
15301	2.7562	4.4545	0.	2.8865e-002
15302	2.6644	4.5455	0.	4.0203e-002
15303	2.7562	4.5455	5.e-002	11.035
15304	2.7562	4.2727	0.	1.3944e-002
15305	2.6644	4.3636	0.	2.2482e-002
15306	2.7562	4.3636	5.e-002	11.017
15307	2.7562	4.0909	0.	2.9692e-003
15308	2.6644	4.1818	0.	9.591e-003
15309	2.7562	4.1818	5.e-002	10.994
15310	2.7562	3.9091	0.	-4.9534e-003
15311	2.6644	4.	0.	3.5599e-004
15312	2.7562	4.	5.e-002	10.97
15313	2.7562	3.7273	0.	-1.0517e-002
15314	2.6644	3.8182	0.	-6.084e-003
15315	2.7562	3.8182	5.e-002	10.95
15316	2.7562	3.5455	0.	-1.4281e-002
15317	2.6644	3.6364	0.	-1.0435e-002
15318	2.7562	3.6364	5.e-002	10.936
15319	2.7562	3.3636	0.	-1.667e-002
15320	2.6644	3.4545	0.	-1.3238e-002
15321	2.7562	3.4545	5.e-002	10.927
15322	2.7562	3.1818	0.	-1.7985e-002
15323	2.6644	3.2727	0.	-1.4893e-002
15324	2.7562	3.2727	5.e-002	10.921
15325	2.7562	3.	0.	-1.8404e-002
15326	2.6644	3.0909	0.	-1.5657e-002
15327	2.7562	3.0909	5.e-002	10.919
15328	2.7562	2.8182	0.	-1.7985e-002
15329	2.6644	2.9091	0.	-1.5657e-002
15330	2.7562	2.9091	5.e-002	10.919
15331	2.7562	2.6364	0.	-1.667e-002
15332	2.6644	2.7273	0.	-1.4893e-002
15333	2.7562	2.7273	5.e-002	10.921
15334	2.7562	2.4545	0.	-1.428e-002
15335	2.6644	2.5455	0.	-1.3238e-002
15336	2.7562	2.5455	5.e-002	10.927
15337	2.7562	2.2727	0.	-1.0517e-002
15338	2.6644	2.3636	0.	-1.0434e-002
15339	2.7562	2.3636	5.e-002	10.936
15340	2.7562	2.0909	0.	-4.9531e-003
15341	2.6644	2.1818	0.	-6.0838e-003
15342	2.7562	2.1818	5.e-002	10.95
15343	2.7562	1.9091	0.	2.9696e-003
15344	2.6644	2.	0.	3.5636e-004
15345	2.7562	2.	5.e-002	10.97
15346	2.7562	1.7273	0.	1.3944e-002
15347	2.6644	1.8182	0.	9.5913e-003
15348	2.7562	1.8182	5.e-002	10.994
15349	2.7562	1.5455	0.	2.8866e-002
15350	2.6644	1.6364	0.	2.2483e-002
15351	2.7562	1.6364	5.e-002	11.017
15352	2.7562	1.3636	0.	4.8738e-002
15353	2.6644	1.4545	0.	4.0203e-002
15354	2.7562	1.4545	5.e-002	11.035
15355	2.7562	1.1818	0.	7.5514e-002
15356	2.6644	1.2727	0.	6.3898e-002
15357	2.7562	1.2727	5.e-002	11.038
15358	2.7562	1.	0.	0.11002
15359	2.6644	1.0909	0.	9.6806e-002
15360	2.7562	1.0909	5.e-002	11.015
15361	2.7562	0.81818	0.	0.16404
15362	2.6644	0.90909	0.	0.13794
15363	2.7562	0.90909	5.e-002	10.955
15364	2.7562	0.63636	0.	0.22077
15365	2.6644	0.72727	0.	0.21406
15366	2.7562	0.72727	5.e-002	10.851
15367	2.7562	0.45455	0.	0.47341
15368	2.6644	0.54545	0.	0.26791
15369	2.7562	0.54545	5.e-002	10.725
15370	2.7562	0.27273	0.	0.89097
15371	2.6644	0.36364	0.	0.78377
15372	2.7562	0.36364	5.e-002	10.916
15373	2.6644	0.18182	0.	1.9434
15374	2.7562	0.18182	5.e-002	18.876
15375	2.7562	9.0909e-002	0.	0.57849
15376	2.5725	5.7273	0.	1.0302
15377	2.4806	5.8182	0.	2.4513
15378	2.5725	5.8182	5.e-002	20.144
15379	2.5725	5.9091	0.	0.65919
15380	2.5725	5.5455	0.	0.52542
15381	2.4806	5.6364	0.	0.87255
15382	2.5725	5.6364	5.e-002	11.42
15383	2.5725	5.3636	0.	0.24523
15384	2.4806	5.4545	0.	0.29984
15385	2.5725	5.4545	5.e-002	11.269
15386	2.5725	5.1818	0.	0.18082
15387	2.4806	5.2727	0.	0.23663
15388	2.5725	5.2727	5.e-002	11.433
15389	2.5725	5.	0.	0.12076
15390	2.4806	5.0909	0.	0.15178
15391	2.5725	5.0909	5.e-002	11.561
15392	2.5725	4.8182	0.	8.2675e-002
15393	2.4806	4.9091	0.	0.106
15394	2.5725	4.9091	5.e-002	11.633
15395	2.5725	4.6364	0.	5.362e-002
15396	2.4806	4.7273	0.	7.0021e-002
15397	2.5725	4.7273	5.e-002	11.662
15398	2.5725	4.4545	0.	3.2532e-002
15399	2.4806	4.5455	0.	4.468e-002
15400	2.5725	4.5455	5.e-002	11.662
15401	2.5725	4.2727	0.	1.7131e-002
15402	2.4806	4.3636	0.	2.626e-002
15403	2.5725	4.3636	5.e-002	11.648
15404	2.5725	4.0909	0.	6.1741e-003
15405	2.4806	4.1818	0.	1.3322e-002
15406	2.5725	4.1818	5.e-002	11.63
15407	2.5725	3.9091	0.	-1.4434e-003
15408	2.4806	4.	0.	4.4229e-003
15409	2.5725	4.	5.e-002	11.615
15410	2.5725	3.7273	0.	-6.5756e-003
15411	2.4806	3.8182	0.	-1.5001e-003
15412	2.5725	3.8182	5.e-002	11.606
15413	2.5725	3.5455	0.	-9.9006e-003
15414	2.4806	3.6364	0.	-5.3018e-003
15415	2.5725	3.6364	5.e-002	11.602
15416	2.5725	3.3636	0.	-1.1926e-002
15417	2.4806	3.4545	0.	-7.6243e-003
15418	2.5725	3.4545	5.e-002	11.603
15419	2.5725	3.1818	0.	-1.3005e-002
15420	2.4806	3.2727	0.	-8.9294e-003
15421	2.5725	3.2727	5.e-002	11.605
15422	2.5725	3.	0.	-1.3342e-002
15423	2.4806	3.0909	0.	-9.5106e-003
15424	2.5725	3.0909	5.e-002	11.607
15425	2.5725	2.8182	0.	-1.3005e-002
15426	2.4806	2.9091	0.	-9.5105e-003
15427	2.5725	2.9091	5.e-002	11.607
15428	2.5725	2.6364	0.	-1.1926e-002
15429	2.4806	2.7273	0.	-8.9294e-003
15430	2.5725	2.7273	5.e-002	11.605
15431	2.5725	2.4545	0.	-9.9005e-003
15432	2.4806	2.5455	0.	-7.6242e-003
15433	2.5725	2.5455	5.e-002	11.603
15434	2.5725	2.2727	0.	-6.5755e-003
15435	2.4806	2.3636	0.	-5.3016e-003
15436	2.5725	2.3636	5.e-002	11.602
15437	2.5725	2.0909	0.	-1.4431e-003
15438	2.4806	2.1818	0.	-1.5e-003
15439	2.5725	2.1818	5.e-002	11.606
15440	2.5725	1.9091	0.	6.1744e-003
15441	2.4806	2.	0.	4.4232e-003
15442	2.5725	2.	5.e-002	11.615
15443	2.5725	1.7273	0.	1.7132e-002
15444	2.4806	1.8182	0.	1.3322e-002
15445	2.5725	1.8182	5.e-002	11.63
15446	2.5725	1.5455	0.	3.2532e-002
15447	2.4806	1.6364	0.	2.626e-002
15448	2.5725	1.6364	5.e-002	11.648
15449	2.5725	1.3636	0.	5.362e-002
15450	2.4806	1.4545	0.	4.468e-002
15451	2.5725	1.4545	5.e-002	11.662
15452	2.5725	1.1818	0.	8.2675e-002
15453	2.4806	1.2727	0.	7.0021e-002
15454	2.5725	1.2727	5.e-002	11.662
15455	2.5725	1.	0.	0.12076
15456	2.4806	1.0909	0.	0.106
15457	2.5725	1.0909	5.e-002	11.633
15458	2.5725	0.81818	0.	0.18082
15459	2.4806	0.90909	0.	0.15178
15460	2.5725	0.90909	5.e-002	11.561
15461	2.5725	0.63636	0.	0.24523
15462	2.4806	0.72727	0.	0.23663
15463	2.5725	0.72727	5.e-002	11.433
15464	2.5725	0.45455	0.	0.52542
15465	2.4806	0.54545	0.	0.29984
15466	2.5725	0.54545	5.e-002	11.269
15467	2.5725	0.27273	0.	1.0302
15468	2.4806	0.36364	0.	0.87255
15469	2.5725	0.36364	5.e-002	11.42
15470	2.4806	0.18182	0.	2.4513
15471	2.5725	0.18182	5.e-002	20.144
15472	2.5725	9.0909e-002	0.	0.65919
15473	2.3888	5.7273	0.	1.1987
15474	2.2969	5.8182	0.	3.1579
15475	2.3888	5.8182	5.e-002	21.441
15476	2.3888	5.9091	0.	0.76876
15477	2.3888	5.5455	0.	0.5845
15478	2.2969	5.6364	0.	0.97441
15479	2.3888	5.6364	5.e-002	11.985
15480	2.3888	5.3636	0.	0.27283
15481	2.2969	5.4545	0.	0.33617
15482	2.3888	5.4545	5.e-002	11.9
15483	2.3888	5.1818	0.	0.19941
15484	2.2969	5.2727	0.	0.26164
15485	2.3888	5.2727	5.e-002	12.109
15486	2.3888	5.	0.	0.13248
15487	2.2969	5.0909	0.	0.16674
15488	2.3888	5.0909	5.e-002	12.262
15489	2.3888	4.8182	0.	9.0472e-002
15490	2.2969	4.9091	0.	0.11574
15491	2.3888	4.9091	5.e-002	12.344
15492	2.3888	4.6364	0.	5.9091e-002
15493	2.2969	4.7273	0.	7.6521e-002
15494	2.3888	4.7273	5.e-002	12.375
15495	2.3888	4.4545	0.	3.6943e-002
15496	2.2969	4.5455	0.	4.9656e-002
15497	2.3888	4.5455	5.e-002	12.375
15498	2.3888	4.2727	0.	2.1322e-002
15499	2.2969	4.3636	0.	3.0811e-002
15500	2.3888	4.3636	5.e-002	12.364
15501	2.3888	4.0909	0.	1.067e-002
15502	2.2969	4.1818	0.	1.8146e-002
15503	2.3888	4.1818	5.e-002	12.353
15504	2.3888	3.9091	0.	3.6238e-003
15505	2.2969	4.	0.	9.8832e-003
15506	2.3888	4.	5.e-002	12.35
15507	2.3888	3.7273	0.	-8.5723e-004
15508	2.2969	3.8182	0.	4.7223e-003
15509	2.3888	3.8182	5.e-002	12.355
15510	2.3888	3.5455	0.	-3.5792e-003
15511	2.2969	3.6364	0.	1.6509e-003
15512	2.3888	3.6364	5.e-002	12.367
15513	2.3888	3.3636	0.	-5.1303e-003
15514	2.2969	3.4545	0.	-6.877e-005
15515	2.3888	3.4545	5.e-002	12.381
15516	2.3888	3.1818	0.	-5.909e-003
15517	2.2969	3.2727	0.	-9.5112e-004
15518	2.3888	3.2727	5.e-002	12.393
15519	2.3888	3.	0.	-6.1436e-003
15520	2.2969	3.0909	0.	-1.3158e-003
15521	2.3888	3.0909	5.e-002	12.4
15522	2.3888	2.8182	0.	-5.9089e-003
15523	2.2969	2.9091	0.	-1.3157e-003
15524	2.3888	2.9091	5.e-002	12.4
15525	2.3888	2.6364	0.	-5.1302e-003
15526	2.2969	2.7273	0.	-9.5107e-004
15527	2.3888	2.7273	5.e-002	12.393
15528	2.3888	2.4545	0.	-3.5791e-003
15529	2.2969	2.5455	0.	-6.8665e-005
15530	2.3888	2.5455	5.e-002	12.381
15531	2.3888	2.2727	0.	-8.5711e-004
15532	2.2969	2.3636	0.	1.6511e-003
15533	2.3888	2.3636	5.e-002	12.367
15534	2.3888	2.0909	0.	3.6239e-003
15535	2.2969	2.1818	0.	4.7224e-003
15536	2.3888	2.1818	5.e-002	12.355
15537	2.3888	1.9091	0.	1.067e-002
15538	2.2969	2.	0.	9.8834e-003
15539	2.3888	2.	5.e-002	12.35
15540	2.3888	1.7273	0.	2.1323e-002
15541	2.2969	1.8182	0.	1.8146e-002
15542	2.3888	1.8182	5.e-002	12.353
15543	2.3888	1.5455	0.	3.6943e-002
15544	2.2969	1.6364	0.	3.0811e-002
15545	2.3888	1.6364	5.e-002	12.364
15546	2.3888	1.3636	0.	5.9091e-002
15547	2.2969	1.4545	0.	4.9657e-002
15548	2.3888	1.4545	5.e-002	12.375
15549	2.3888	1.1818	0.	9.0473e-002
15550	2.2969	1.2727	0.	7.6521e-002
15551	2.3888	1.2727	5.e-002	12.375
15552	2.3888	1.	0.	0.13248
15553	2.2969	1.0909	0.	0.11574
15554	2.3888	1.0909	5.e-002	12.344
15555	2.3888	0.81818	0.	0.19941
15556	2.2969	0.90909	0.	0.16674
15557	2.3888	0.90909	5.e-002	12.262
15558	2.3888	0.63636	0.	0.27283
15559	2.2969	0.72727	0.	0.26164
15560	2.3888	0.72727	5.e-002	12.109
15561	2.3888	0.45455	0.	0.5845
15562	2.2969	0.54545	0.	0.33617
15563	2.3888	0.54545	5.e-002	11.9
15564	2.3888	0.27273	0.	1.1987
15565	2.2969	0.36364	0.	0.97441
15566	2.3888	0.36364	5.e-002	11.985
15567	2.2969	0.18182	0.	3.1579
15568	2.3888	0.18182	5.e-002	21.441
15569	2.3888	9.0909e-002	0.	0.76876
15570	2.205	5.7273	0.	1.4047
15571	2.1131	5.8182	0.	4.1772
15572	2.205	5.8182	5.e-002	22.753
15573	2.205	5.9091	0.	0.93182
15574	2.205	5.5455	0.	0.65163
15575	2.1131	5.6364	0.	1.0926
15576	2.205	5.6364	5.e-002	12.638
15577	2.205	5.3636	0.	0.30363
15578	2.1131	5.4545	0.	0.37831
15579	2.205	5.4545	5.e-002	12.649
15580	2.205	5.1818	0.	0.21954
15581	2.1131	5.2727	0.	0.29009
15582	2.205	5.2727	5.e-002	12.908
15583	2.205	5.	0.	0.14477
15584	2.1131	5.0909	0.	0.18363
15585	2.205	5.0909	5.e-002	13.083
15586	2.205	4.8182	0.	9.8481e-002
15587	2.1131	4.9091	0.	0.12684
15588	2.205	4.9091	5.e-002	13.168
15589	2.205	4.6364	0.	6.4802e-002
15590	2.1131	4.7273	0.	8.4332e-002
15591	2.205	4.7273	5.e-002	13.193
15592	2.205	4.4545	0.	4.1853e-002
15593	2.1131	4.5455	0.	5.6221e-002
15594	2.205	4.5455	5.e-002	13.189
15595	2.205	4.2727	0.	2.6359e-002
15596	2.1131	4.3636	0.	3.7352e-002
15597	2.205	4.3636	5.e-002	13.18
15598	2.205	4.0909	0.	1.6352e-002
15599	2.1131	4.1818	0.	2.536e-002
15600	2.205	4.1818	5.e-002	13.178
15601	2.205	3.9091	0.	1.0161e-002
15602	2.1131	4.	0.	1.8059e-002
15603	2.205	4.	5.e-002	13.19
15604	2.205	3.7273	0.	6.5415e-003
15605	2.1131	3.8182	0.	1.3893e-002
15606	2.205	3.8182	5.e-002	13.214
15607	2.205	3.5455	0.	4.5636e-003
15608	2.1131	3.6364	0.	1.1698e-002
15609	2.205	3.6364	5.e-002	13.244
15610	2.205	3.3636	0.	3.5725e-003
15611	2.1131	3.4545	0.	1.0663e-002
15612	2.205	3.4545	5.e-002	13.275
15613	2.205	3.1818	0.	3.138e-003
15614	2.1131	3.2727	0.	1.0243e-002
15615	2.205	3.2727	5.e-002	13.299
15616	2.205	3.	0.	3.0191e-003
15617	2.1131	3.0909	0.	1.0109e-002
15618	2.205	3.0909	5.e-002	13.312
15619	2.205	2.8182	0.	3.1381e-003
15620	2.1131	2.9091	0.	1.0109e-002
15621	2.205	2.9091	5.e-002	13.312
15622	2.205	2.6364	0.	3.5726e-003
15623	2.1131	2.7273	0.	1.0243e-002
15624	2.205	2.7273	5.e-002	13.299
15625	2.205	2.4545	0.	4.5638e-003
15626	2.1131	2.5455	0.	1.0663e-002
15627	2.205	2.5455	5.e-002	13.275
15628	2.205	2.2727	0.	6.5416e-003
15629	2.1131	2.3636	0.	1.1698e-002
15630	2.205	2.3636	5.e-002	13.244
15631	2.205	2.0909	0.	1.0161e-002
15632	2.1131	2.1818	0.	1.3893e-002
15633	2.205	2.1818	5.e-002	13.214
15634	2.205	1.9091	0.	1.6352e-002
15635	2.1131	2.	0.	1.8059e-002
15636	2.205	2.	5.e-002	13.19
15637	2.205	1.7273	0.	2.6359e-002
15638	2.1131	1.8182	0.	2.536e-002
15639	2.205	1.8182	5.e-002	13.178
15640	2.205	1.5455	0.	4.1853e-002
15641	2.1131	1.6364	0.	3.7352e-002
15642	2.205	1.6364	5.e-002	13.18
15643	2.205	1.3636	0.	6.4803e-002
15644	2.1131	1.4545	0.	5.6221e-002
15645	2.205	1.4545	5.e-002	13.189
15646	2.205	1.1818	0.	9.8481e-002
15647	2.1131	1.2727	0.	8.4332e-002
15648	2.205	1.2727	5.e-002	13.193
15649	2.205	1.	0.	0.14477
15650	2.1131	1.0909	0.	0.12685
15651	2.205	1.0909	5.e-002	13.168
15652	2.205	0.81818	0.	0.21954
15653	2.1131	0.90909	0.	0.18363
15654	2.205	0.90909	5.e-002	13.083
15655	2.205	0.63636	0.	0.30363
15656	2.1131	0.72727	0.	0.29009
15657	2.205	0.72727	5.e-002	12.908
15658	2.205	0.45455	0.	0.65163
15659	2.1131	0.54545	0.	0.37831
15660	2.205	0.54545	5.e-002	12.649
15661	2.205	0.27273	0.	1.4047
15662	2.1131	0.36364	0.	1.0926
15663	2.205	0.36364	5.e-002	12.638
15664	2.1131	0.18182	0.	4.1771
15665	2.205	0.18182	5.e-002	22.753
15666	2.205	9.0909e-002	0.	0.93182
15667	2.0213	5.7273	0.	1.66
15668	1.9294	5.8182	0.	5.7103
15669	2.0213	5.8182	5.e-002	24.057
15670	2.0213	5.9091	0.	1.2149
15671	2.0213	5.5455	0.	0.72973
15672	1.9294	5.6364	0.	1.229
15673	2.0213	5.6364	5.e-002	13.418
15674	2.0213	5.3636	0.	0.33982
15675	1.9294	5.4545	0.	0.42515
15676	2.0213	5.4545	5.e-002	13.564
15677	2.0213	5.1818	0.	0.24321
15678	1.9294	5.2727	0.	0.31993
15679	2.0213	5.2727	5.e-002	13.874
15680	2.0213	5.	0.	0.15963
15681	1.9294	5.0909	0.	0.19994
15682	2.0213	5.0909	5.e-002	14.058
15683	2.0213	4.8182	0.	0.10886
15684	1.9294	4.9091	0.	0.1367
15685	2.0213	4.9091	5.e-002	14.131
15686	2.0213	4.6364	0.	7.3114e-002
15687	1.9294	4.7273	0.	9.0921e-002
15688	2.0213	4.7273	5.e-002	14.138
15689	2.0213	4.4545	0.	4.9807e-002
15690	1.9294	4.5455	0.	6.1944e-002
15691	2.0213	4.5455	5.e-002	14.122
15692	2.0213	4.2727	0.	3.491e-002
15693	1.9294	4.3636	0.	4.3509e-002
15694	2.0213	4.3636	5.e-002	14.112
15695	2.0213	4.0909	0.	2.5943e-002
15696	1.9294	4.1818	0.	3.2572e-002
15697	2.0213	4.1818	5.e-002	14.121
15698	2.0213	3.9091	0.	2.089e-002
15699	1.9294	4.	0.	2.6484e-002
15700	2.0213	4.	5.e-002	14.152
15701	2.0213	3.7273	0.	1.8304e-002
15702	1.9294	3.8182	0.	2.3435e-002
15703	2.0213	3.8182	5.e-002	14.198
15704	2.0213	3.5455	0.	1.716e-002
15705	1.9294	3.6364	0.	2.2148e-002
15706	2.0213	3.6364	5.e-002	14.251
15707	2.0213	3.3636	0.	1.6765e-002
15708	1.9294	3.4545	0.	2.1776e-002
15709	2.0213	3.4545	5.e-002	14.3
15710	2.0213	3.1818	0.	1.6685e-002
15711	1.9294	3.2727	0.	2.1783e-002
15712	2.0213	3.2727	5.e-002	14.337
15713	2.0213	3.	0.	1.6684e-002
15714	1.9294	3.0909	0.	2.1858e-002
15715	2.0213	3.0909	5.e-002	14.358
15716	2.0213	2.8182	0.	1.6685e-002
15717	1.9294	2.9091	0.	2.1858e-002
15718	2.0213	2.9091	5.e-002	14.358
15719	2.0213	2.6364	0.	1.6765e-002
15720	1.9294	2.7273	0.	2.1783e-002
15721	2.0213	2.7273	5.e-002	14.337
15722	2.0213	2.4545	0.	1.716e-002
15723	1.9294	2.5455	0.	2.1777e-002
15724	2.0213	2.5455	5.e-002	14.3
15725	2.0213	2.2727	0.	1.8304e-002
15726	1.9294	2.3636	0.	2.2148e-002
15727	2.0213	2.3636	5.e-002	14.251
15728	2.0213	2.0909	0.	2.089e-002
15729	1.9294	2.1818	0.	2.3435e-002
15730	2.0213	2.1818	5.e-002	14.198
15731	2.0213	1.9091	0.	2.5944e-002
15732	1.9294	2.	0.	2.6484e-002
15733	2.0213	2.	5.e-002	14.152
15734	2.0213	1.7273	0.	3.491e-002
15735	1.9294	1.8182	0.	3.2572e-002
15736	2.0213	1.8182	5.e-002	14.121
15737	2.0213	1.5455	0.	4.9807e-002
15738	1.9294	1.6364	0.	4.3509e-002
15739	2.0213	1.6364	5.e-002	14.112
15740	2.0213	1.3636	0.	7.3114e-002
15741	1.9294	1.4545	0.	6.1944e-002
15742	2.0213	1.4545	5.e-002	14.122
15743	2.0213	1.1818	0.	0.10886
15744	1.9294	1.2727	0.	9.0921e-002
15745	2.0213	1.2727	5.e-002	14.138
15746	2.0213	1.	0.	0.15963
15747	1.9294	1.0909	0.	0.1367
15748	2.0213	1.0909	5.e-002	14.131
15749	2.0213	0.81818	0.	0.24321
15750	1.9294	0.90909	0.	0.19994
15751	2.0213	0.90909	5.e-002	14.058
15752	2.0213	0.63636	0.	0.33982
15753	1.9294	0.72727	0.	0.31993
15754	2.0213	0.72727	5.e-002	13.874
15755	2.0213	0.45455	0.	0.72973
15756	1.9294	0.54545	0.	0.42515
15757	2.0213	0.54545	5.e-002	13.564
15758	2.0213	0.27273	0.	1.66
15759	1.9294	0.36364	0.	1.229
15760	2.0213	0.36364	5.e-002	13.418
15761	1.9294	0.18182	0.	5.7103
15762	2.0213	0.18182	5.e-002	24.057
15763	2.0213	9.0909e-002	0.	1.2149
15764	1.8375	5.7273	0.	1.9765
15765	1.7456	5.8182	0.	8.1284
15766	1.8375	5.8182	5.e-002	25.323
15767	1.8375	5.9091	0.	1.8552
15768	1.8375	5.5455	0.	0.81575
15769	1.7456	5.6364	0.	1.3949
15770	1.8375	5.6364	5.e-002	14.392
15771	1.8375	5.3636	0.	0.37586
15772	1.7456	5.4545	0.	0.48707
15773	1.8375	5.4545	5.e-002	14.715
15774	1.8375	5.1818	0.	0.26379
15775	1.7456	5.2727	0.	0.36194
15776	1.8375	5.2727	5.e-002	15.065
15777	1.8375	5.	0.	0.16989
15778	1.7456	5.0909	0.	0.22693
15779	1.8375	5.0909	5.e-002	15.235
15780	1.8375	4.8182	0.	0.11428
15781	1.7456	4.9091	0.	0.15724
15782	1.8375	4.9091	5.e-002	15.268
15783	1.8375	4.6364	0.	7.669e-002
15784	1.7456	4.7273	0.	0.10882
15785	1.8375	4.7273	5.e-002	15.236
15786	1.8375	4.4545	0.	5.3452e-002
15787	1.7456	4.5455	0.	7.9826e-002
15788	1.8375	4.5455	5.e-002	15.197
15789	1.8375	4.2727	0.	3.9542e-002
15790	1.7456	4.3636	0.	6.2545e-002
15791	1.8375	4.3636	5.e-002	15.182
15792	1.8375	4.0909	0.	3.1867e-002
15793	1.7456	4.1818	0.	5.3134e-002
15794	1.8375	4.1818	5.e-002	15.203
15795	1.8375	3.9091	0.	2.8049e-002
15796	1.7456	4.	0.	4.8479e-002
15797	1.8375	4.	5.e-002	15.256
15798	1.8375	3.7273	0.	2.6482e-002
15799	1.7456	3.8182	0.	4.6583e-002
15800	1.8375	3.8182	5.e-002	15.327
15801	1.8375	3.5455	0.	2.6094e-002
15802	1.7456	3.6364	0.	4.6131e-002
15803	1.8375	3.6364	5.e-002	15.403
15804	1.8375	3.3636	0.	2.6204e-002
15805	1.7456	3.4545	0.	4.6311e-002
15806	1.8375	3.4545	5.e-002	15.472
15807	1.8375	3.1818	0.	2.641e-002
15808	1.7456	3.2727	0.	4.6644e-002
15809	1.8375	3.2727	5.e-002	15.523
15810	1.8375	3.	0.	2.6501e-002
15811	1.7456	3.0909	0.	4.6868e-002
15812	1.8375	3.0909	5.e-002	15.55
15813	1.8375	2.8182	0.	2.641e-002
15814	1.7456	2.9091	0.	4.6868e-002
15815	1.8375	2.9091	5.e-002	15.55
15816	1.8375	2.6364	0.	2.6205e-002
15817	1.7456	2.7273	0.	4.6644e-002
15818	1.8375	2.7273	5.e-002	15.523
15819	1.8375	2.4545	0.	2.6094e-002
15820	1.7456	2.5455	0.	4.6311e-002
15821	1.8375	2.5455	5.e-002	15.472
15822	1.8375	2.2727	0.	2.6482e-002
15823	1.7456	2.3636	0.	4.6131e-002
15824	1.8375	2.3636	5.e-002	15.403
15825	1.8375	2.0909	0.	2.8049e-002
15826	1.7456	2.1818	0.	4.6583e-002
15827	1.8375	2.1818	5.e-002	15.327
15828	1.8375	1.9091	0.	3.1867e-002
15829	1.7456	2.	0.	4.8479e-002
15830	1.8375	2.	5.e-002	15.256
15831	1.8375	1.7273	0.	3.9542e-002
15832	1.7456	1.8182	0.	5.3134e-002
15833	1.8375	1.8182	5.e-002	15.203
15834	1.8375	1.5455	0.	5.3452e-002
15835	1.7456	1.6364	0.	6.2545e-002
15836	1.8375	1.6364	5.e-002	15.182
15837	1.8375	1.3636	0.	7.6691e-002
15838	1.7456	1.4545	0.	7.9826e-002
15839	1.8375	1.4545	5.e-002	15.197
15840	1.8375	1.1818	0.	0.11428
15841	1.7456	1.2727	0.	0.10882
15842	1.8375	1.2727	5.e-002	15.236
15843	1.8375	1.	0.	0.16989
15844	1.7456	1.0909	0.	0.15724
15845	1.8375	1.0909	5.e-002	15.268
15846	1.8375	0.81818	0.	0.26379
15847	1.7456	0.90909	0.	0.22693
15848	1.8375	0.90909	5.e-002	15.235
15849	1.8375	0.63636	0.	0.37586
15850	1.7456	0.72727	0.	0.36194
15851	1.8375	0.72727	5.e-002	15.065
15852	1.8375	0.45455	0.	0.81575
15853	1.7456	0.54545	0.	0.48707
15854	1.8375	0.54545	5.e-002	14.715
15855	1.8375	0.27273	0.	1.9765
15856	1.7456	0.36364	0.	1.3949
15857	1.8375	0.36364	5.e-002	14.392
15858	1.7456	0.18182	0.	8.1284
15859	1.8375	0.18182	5.e-002	25.323
15860	1.8375	9.0909e-002	0.	1.8552
15861	1.6537	5.7273	0.	2.3875
15862	1.5619	5.8182	0.	12.078
15863	1.6537	5.8182	5.e-002	26.509
15864	1.6537	5.9091	0.	4.045
15865	1.6537	5.5455	0.	0.93304
15866	1.5619	5.6364	0.	1.5707
15867	1.6537	5.6364	5.e-002	15.672
15868	1.6537	5.3636	0.	0.43816
15869	1.5619	5.4545	0.	0.53139
15870	1.6537	5.4545	5.e-002	16.208
15871	1.6537	5.1818	0.	0.30982
15872	1.5619	5.2727	0.	0.37776
15873	1.6537	5.2727	5.e-002	16.565
15874	1.6537	5.	0.	0.20583
15875	1.5619	5.0909	0.	0.22308
15876	1.6537	5.0909	5.e-002	16.67
15877	1.6537	4.8182	0.	0.14649
15878	1.5619	4.9091	0.	0.14514
15879	1.6537	4.9091	5.e-002	16.618
15880	1.6537	4.6364	0.	0.10839
15881	1.5619	4.7273	0.	9.3542e-002
15882	1.6537	4.7273	5.e-002	16.518
15883	1.6537	4.4545	0.	8.6406e-002
15884	1.5619	4.5455	0.	6.4338e-002
15885	1.6537	4.5455	5.e-002	16.44
15886	1.6537	4.2727	0.	7.431e-002
15887	1.5619	4.3636	0.	4.7939e-002
15888	1.6537	4.3636	5.e-002	16.417
15889	1.6537	4.0909	0.	6.8381e-002
15890	1.5619	4.1818	0.	3.9581e-002
15891	1.6537	4.1818	5.e-002	16.45
15892	1.6537	3.9091	0.	6.5963e-002
15893	1.5619	4.	0.	3.5733e-002
15894	1.6537	4.	5.e-002	16.525
15895	1.6537	3.7273	0.	6.5396e-002
15896	1.5619	3.8182	0.	3.4312e-002
15897	1.6537	3.8182	5.e-002	16.621
15898	1.6537	3.5455	0.	6.5656e-002
15899	1.5619	3.6364	0.	3.4061e-002
15900	1.6537	3.6364	5.e-002	16.719
15901	1.6537	3.3636	0.	6.615e-002
15902	1.5619	3.4545	0.	3.4273e-002
15903	1.6537	3.4545	5.e-002	16.804
15904	1.6537	3.1818	0.	6.6551e-002
15905	1.5619	3.2727	0.	3.4566e-002
15906	1.6537	3.2727	5.e-002	16.866
15907	1.6537	3.	0.	6.6701e-002
15908	1.5619	3.0909	0.	3.4752e-002
15909	1.6537	3.0909	5.e-002	16.898
15910	1.6537	2.8182	0.	6.6551e-002
15911	1.5619	2.9091	0.	3.4752e-002
15912	1.6537	2.9091	5.e-002	16.898
15913	1.6537	2.6364	0.	6.615e-002
15914	1.5619	2.7273	0.	3.4566e-002
15915	1.6537	2.7273	5.e-002	16.866
15916	1.6537	2.4545	0.	6.5656e-002
15917	1.5619	2.5455	0.	3.4273e-002
15918	1.6537	2.5455	5.e-002	16.804
15919	1.6537	2.2727	0.	6.5396e-002
15920	1.5619	2.3636	0.	3.4061e-002
15921	1.6537	2.3636	5.e-002	16.719
15922	1.6537	2.0909	0.	6.5963e-002
15923	1.5619	2.1818	0.	3.4312e-002
15924	1.6537	2.1818	5.e-002	16.621
15925	1.6537	1.9091	0.	6.8381e-002
15926	1.5619	2.	0.	3.5733e-002
15927	1.6537	2.	5.e-002	16.525
15928	1.6537	1.7273	0.	7.431e-002
15929	1.5619	1.8182	0.	3.9581e-002
15930	1.6537	1.8182	5.e-002	16.45
15931	1.6537	1.5455	0.	8.6406e-002
15932	1.5619	1.6364	0.	4.794e-002
15933	1.6537	1.6364	5.e-002	16.417
15934	1.6537	1.3636	0.	0.10839
15935	1.5619	1.4545	0.	6.4338e-002
15936	1.6537	1.4545	5.e-002	16.44
15937	1.6537	1.1818	0.	0.14649
15938	1.5619	1.2727	0.	9.3542e-002
15939	1.6537	1.2727	5.e-002	16.518
15940	1.6537	1.	0.	0.20583
15941	1.5619	1.0909	0.	0.14514
15942	1.6537	1.0909	5.e-002	16.618
15943	1.6537	0.81818	0.	0.30982
15944	1.5619	0.90909	0.	0.22308
15945	1.6537	0.90909	5.e-002	16.67
15946	1.6537	0.63636	0.	0.43816
15947	1.5619	0.72727	0.	0.37776
15948	1.6537	0.72727	5.e-002	16.565
15949	1.6537	0.45455	0.	0.93304
15950	1.5619	0.54545	0.	0.53139
15951	1.6537	0.54545	5.e-002	16.208
15952	1.6537	0.27273	0.	2.3875
15953	1.5619	0.36364	0.	1.5707
15954	1.6537	0.36364	5.e-002	15.672
15955	1.5619	0.18182	0.	12.078
15956	1.6537	0.18182	5.e-002	26.509
15957	1.6537	9.0909e-002	0.	4.045
15958	1.47	5.7273	0.	2.8695
15959	1.3781	5.8182	0.	18.617
15960	1.47	5.8182	5.e-002	27.563
15961	1.47	5.9091	0.	10.448
15962	1.47	5.5455	0.	1.004
15963	1.3781	5.6364	0.	1.8694
15964	1.47	5.6364	5.e-002	17.44
15965	1.47	5.3636	0.	0.42884
15966	1.3781	5.4545	0.	0.70146
15967	1.47	5.4545	5.e-002	18.2
15968	1.47	5.1818	0.	0.27266
15969	1.3781	5.2727	0.	0.52749
15970	1.47	5.2727	5.e-002	18.486
15971	1.47	5.	0.	0.15226
15972	1.3781	5.0909	0.	0.35984
15973	1.47	5.0909	5.e-002	18.438
15974	1.47	4.8182	0.	8.5905e-002
15975	1.3781	4.9091	0.	0.28015
15976	1.47	4.9091	5.e-002	18.232
15977	1.47	4.6364	0.	4.5324e-002
15978	1.3781	4.7273	0.	0.23071
15979	1.47	4.7273	5.e-002	18.021
15980	1.47	4.4545	0.	2.3008e-002
15981	1.3781	4.5455	0.	0.20523
15982	1.47	4.5455	5.e-002	17.888
15983	1.47	4.2727	0.	1.1185e-002
15984	1.3781	4.3636	0.	0.19226
15985	1.47	4.3636	5.e-002	17.853
15986	1.47	4.0909	0.	5.4615e-003
15987	1.3781	4.1818	0.	0.18644
15988	1.47	4.1818	5.e-002	17.897
15989	1.47	3.9091	0.	2.98e-003
15990	1.3781	4.	0.	0.18419
15991	1.47	4.	5.e-002	17.991
15992	1.47	3.7273	0.	2.1204e-003
15993	1.3781	3.8182	0.	0.18362
15994	1.47	3.8182	5.e-002	18.104
15995	1.47	3.5455	0.	1.9805e-003
15996	1.3781	3.6364	0.	0.18373
15997	1.47	3.6364	5.e-002	18.215
15998	1.47	3.3636	0.	2.0915e-003
15999	1.3781	3.4545	0.	0.18402
16000	1.47	3.4545	5.e-002	18.309
16001	1.47	3.1818	0.	2.2237e-003
16002	1.3781	3.2727	0.	0.18429
16003	1.47	3.2727	5.e-002	18.375
16004	1.47	3.	0.	2.2769e-003
16005	1.3781	3.0909	0.	0.18443
16006	1.47	3.0909	5.e-002	18.409
16007	1.47	2.8182	0.	2.2237e-003
16008	1.3781	2.9091	0.	0.18443
16009	1.47	2.9091	5.e-002	18.409
16010	1.47	2.6364	0.	2.0916e-003
16011	1.3781	2.7273	0.	0.18429
16012	1.47	2.7273	5.e-002	18.375
16013	1.47	2.4545	0.	1.9805e-003
16014	1.3781	2.5455	0.	0.18402
16015	1.47	2.5455	5.e-002	18.309
16016	1.47	2.2727	0.	2.1205e-003
16017	1.3781	2.3636	0.	0.18373
16018	1.47	2.3636	5.e-002	18.215
16019	1.47	2.0909	0.	2.9801e-003
16020	1.3781	2.1818	0.	0.18362
16021	1.47	2.1818	5.e-002	18.104
16022	1.47	1.9091	0.	5.4616e-003
16023	1.3781	2.	0.	0.18419
16024	1.47	2.	5.e-002	17.991
16025	1.47	1.7273	0.	1.1185e-002
16026	1.3781	1.8182	0.	0.18644
16027	1.47	1.8182	5.e-002	17.897
16028	1.47	1.5455	0.	2.3008e-002
16029	1.3781	1.6364	0.	0.19226
16030	1.47	1.6364	5.e-002	17.852
16031	1.47	1.3636	0.	4.5324e-002
16032	1.3781	1.4545	0.	0.20523
16033	1.47	1.4545	5.e-002	17.888
16034	1.47	1.1818	0.	8.5905e-002
16035	1.3781	1.2727	0.	0.23071
16036	1.47	1.2727	5.e-002	18.021
16037	1.47	1.	0.	0.15226
16038	1.3781	1.0909	0.	0.28015
16039	1.47	1.0909	5.e-002	18.232
16040	1.47	0.81818	0.	0.27266
16041	1.3781	0.90909	0.	0.35984
16042	1.47	0.90909	5.e-002	18.438
16043	1.47	0.63636	0.	0.42884
16044	1.3781	0.72727	0.	0.52749
16045	1.47	0.72727	5.e-002	18.486
16046	1.47	0.45455	0.	1.004
16047	1.3781	0.54545	0.	0.70146
16048	1.47	0.54545	5.e-002	18.2
16049	1.47	0.27273	0.	2.8695
16050	1.3781	0.36364	0.	1.8694
16051	1.47	0.36364	5.e-002	17.44
16052	1.3781	0.18182	0.	18.617
16053	1.47	0.18182	5.e-002	27.563
16054	1.47	9.0909e-002	0.	10.448
16055	1.2862	5.7273	0.	3.6594
16056	1.1944	5.8182	0.	28.758
16057	1.2862	5.8182	5.e-002	28.43
16058	1.2862	5.9091	0.	20.687
16059	1.2862	5.5455	0.	1.36
16060	1.1944	5.6364	0.	1.8904
16061	1.2862	5.6364	5.e-002	19.99
16062	1.2862	5.3636	0.	0.7486
16063	1.1944	5.4545	0.	0.45273
16064	1.2862	5.4545	5.e-002	20.922
16065	1.2862	5.1818	0.	0.59223
16066	1.1944	5.2727	0.	0.19429
16067	1.2862	5.2727	5.e-002	20.977
16068	1.2862	5.	0.	0.47542
16069	1.1944	5.0909	0.	-2.4895e-002
16070	1.2862	5.0909	5.e-002	20.621
16071	1.2862	4.8182	0.	0.41744
16072	1.1944	4.9091	0.	-0.13149
16073	1.2862	4.9091	5.e-002	20.16
16074	1.2862	4.6364	0.	0.38577
16075	1.1944	4.7273	0.	-0.19701
16076	1.2862	4.7273	5.e-002	19.792
16077	1.2862	4.4545	0.	0.37126
16078	1.1944	4.5455	0.	-0.23323
16079	1.2862	4.5455	5.e-002	19.588
16080	1.2862	4.2727	0.	0.36532
16081	1.1944	4.3636	0.	-0.25469
16082	1.2862	4.3636	5.e-002	19.534
16083	1.2862	4.0909	0.	0.36362
16084	1.1944	4.1818	0.	-0.26779
16085	1.2862	4.1818	5.e-002	19.58
16086	1.2862	3.9091	0.	0.36371
16087	1.1944	4.	0.	-0.2764
16088	1.2862	4.	5.e-002	19.679
16089	1.2862	3.7273	0.	0.36437
16090	1.1944	3.8182	0.	-0.28238
16091	1.2862	3.8182	5.e-002	19.793
16092	1.2862	3.5455	0.	0.36509
16093	1.1944	3.6364	0.	-0.28667
16094	1.2862	3.6364	5.e-002	19.9
16095	1.2862	3.3636	0.	0.36564
16096	1.1944	3.4545	0.	-0.28969
16097	1.2862	3.4545	5.e-002	19.986
16098	1.2862	3.1818	0.	0.36597
16099	1.1944	3.2727	0.	-0.29164
16100	1.2862	3.2727	5.e-002	20.046
16101	1.2862	3.	0.	0.36608
16102	1.1944	3.0909	0.	-0.29261
16103	1.2862	3.0909	5.e-002	20.076
16104	1.2862	2.8182	0.	0.36597
16105	1.1944	2.9091	0.	-0.29261
16106	1.2862	2.9091	5.e-002	20.076
16107	1.2862	2.6364	0.	0.36564
16108	1.1944	2.7273	0.	-0.29164
16109	1.2862	2.7273	5.e-002	20.046
16110	1.2862	2.4545	0.	0.36509
16111	1.1944	2.5455	0.	-0.28969
16112	1.2862	2.5455	5.e-002	19.986
16113	1.2862	2.2727	0.	0.36437
16114	1.1944	2.3636	0.	-0.28667
16115	1.2862	2.3636	5.e-002	19.9
16116	1.2862	2.0909	0.	0.36371
16117	1.1944	2.1818	0.	-0.28238
16118	1.2862	2.1818	5.e-002	19.793
16119	1.2862	1.9091	0.	0.36362
16120	1.1944	2.	0.	-0.2764
16121	1.2862	2.	5.e-002	19.679
16122	1.2862	1.7273	0.	0.36532
16123	1.1944	1.8182	0.	-0.26779
16124	1.2862	1.8182	5.e-002	19.58
16125	1.2862	1.5455	0.	0.37126
16126	1.1944	1.6364	0.	-0.25469
16127	1.2862	1.6364	5.e-002	19.534
16128	1.2862	1.3636	0.	0.38577
16129	1.1944	1.4545	0.	-0.23323
16130	1.2862	1.4545	5.e-002	19.588
16131	1.2862	1.1818	0.	0.41744
16132	1.1944	1.2727	0.	-0.19701
16133	1.2862	1.2727	5.e-002	19.792
16134	1.2862	1.	0.	0.47542
16135	1.1944	1.0909	0.	-0.13149
16136	1.2862	1.0909	5.e-002	20.16
16137	1.2862	0.81818	0.	0.59223
16138	1.1944	0.90909	0.	-2.4895e-002
16139	1.2862	0.90909	5.e-002	20.621
16140	1.2862	0.63636	0.	0.7486
16141	1.1944	0.72727	0.	0.19429
16142	1.2862	0.72727	5.e-002	20.977
16143	1.2862	0.45455	0.	1.36
16144	1.1944	0.54545	0.	0.45273
16145	1.2862	0.54545	5.e-002	20.922
16146	1.2862	0.27273	0.	3.6594
16147	1.1944	0.36364	0.	1.8904
16148	1.2862	0.36364	5.e-002	19.99
16149	1.1944	0.18182	0.	28.758
16150	1.2862	0.18182	5.e-002	28.43
16151	1.2862	9.0909e-002	0.	20.687
16152	1.1025	5.7273	0.	3.9987
16153	1.0106	5.8182	0.	43.636
16154	1.1025	5.8182	5.e-002	29.123
16155	1.1025	5.9091	0.	34.044
16156	1.1025	5.5455	0.	0.72037
16157	1.0106	5.6364	0.	3.3144
16158	1.1025	5.6364	5.e-002	23.818
16159	1.1025	5.3636	0.	-0.16579
16160	1.0106	5.4545	0.	2.0018
16161	1.1025	5.4545	5.e-002	24.704
16162	1.1025	5.1818	0.	-0.45082
16163	1.0106	5.2727	0.	1.8615
16164	1.1025	5.2727	5.e-002	24.216
16165	1.1025	5.	0.	-0.64696
16166	1.0106	5.0909	0.	1.7248
16167	1.1025	5.0909	5.e-002	23.314
16168	1.1025	4.8182	0.	-0.75492
16169	1.0106	4.9091	0.	1.6869
16170	1.1025	4.9091	5.e-002	22.474
16171	1.1025	4.6364	0.	-0.82156
16172	1.0106	4.7273	0.	1.6747
16173	1.1025	4.7273	5.e-002	21.908
16174	1.1025	4.4545	0.	-0.8627
16175	1.0106	4.5455	0.	1.6786
16176	1.1025	4.5455	5.e-002	21.623
16177	1.1025	4.2727	0.	-0.8901
16178	1.0106	4.3636	0.	1.6868
16179	1.1025	4.3636	5.e-002	21.537
16180	1.1025	4.0909	0.	-0.90937
16181	1.0106	4.1818	0.	1.6953
16182	1.1025	4.1818	5.e-002	21.563
16183	1.1025	3.9091	0.	-0.92358
16184	1.0106	4.	0.	1.7026
16185	1.1025	4.	5.e-002	21.636
16186	1.1025	3.7273	0.	-0.93423
16187	1.0106	3.8182	0.	1.7082
16188	1.1025	3.8182	5.e-002	21.718
16189	1.1025	3.5455	0.	-0.94208
16190	1.0106	3.6364	0.	1.7123
16191	1.1025	3.6364	5.e-002	21.791
16192	1.1025	3.3636	0.	-0.94751
16193	1.0106	3.4545	0.	1.7151
16194	1.1025	3.4545	5.e-002	21.847
16195	1.1025	3.1818	0.	-0.95071
16196	1.0106	3.2727	0.	1.7169
16197	1.1025	3.2727	5.e-002	21.885
16198	1.1025	3.	0.	-0.95177
16199	1.0106	3.0909	0.	1.7177
16200	1.1025	3.0909	5.e-002	21.903
16201	1.1025	2.8182	0.	-0.95071
16202	1.0106	2.9091	0.	1.7177
16203	1.1025	2.9091	5.e-002	21.903
16204	1.1025	2.6364	0.	-0.94751
16205	1.0106	2.7273	0.	1.7169
16206	1.1025	2.7273	5.e-002	21.885
16207	1.1025	2.4545	0.	-0.94208
16208	1.0106	2.5455	0.	1.7151
16209	1.1025	2.5455	5.e-002	21.847
16210	1.1025	2.2727	0.	-0.93423
16211	1.0106	2.3636	0.	1.7123
16212	1.1025	2.3636	5.e-002	21.791
16213	1.1025	2.0909	0.	-0.92358
16214	1.0106	2.1818	0.	1.7082
16215	1.1025	2.1818	5.e-002	21.718
16216	1.1025	1.9091	0.	-0.90937
16217	1.0106	2.	0.	1.7026
16218	1.1025	2.	5.e-002	21.636
16219	1.1025	1.7273	0.	-0.8901
16220	1.0106	1.8182	0.	1.6953
16221	1.1025	1.8182	5.e-002	21.563
16222	1.1025	1.5455	0.	-0.8627
16223	1.0106	1.6364	0.	1.6868
16224	1.1025	1.6364	5.e-002	21.537
16225	1.1025	1.3636	0.	-0.82156
16226	1.0106	1.4545	0.	1.6786
16227	1.1025	1.4545	5.e-002	21.623
16228	1.1025	1.1818	0.	-0.75492
16229	1.0106	1.2727	0.	1.6747
16230	1.1025	1.2727	5.e-002	21.908
16231	1.1025	1.	0.	-0.64696
16232	1.0106	1.0909	0.	1.6869
16233	1.1025	1.0909	5.e-002	22.474
16234	1.1025	0.81818	0.	-0.45082
16235	1.0106	0.90909	0.	1.7248
16236	1.1025	0.90909	5.e-002	23.314
16237	1.1025	0.63636	0.	-0.1658
16238	1.0106	0.72727	0.	1.8615
16239	1.1025	0.72727	5.e-002	24.216
16240	1.1025	0.45455	0.	0.72037
16241	1.0106	0.54545	0.	2.0018
16242	1.1025	0.54545	5.e-002	24.704
16243	1.1025	0.27273	0.	3.9987
16244	1.0106	0.36364	0.	3.3144
16245	1.1025	0.36364	5.e-002	23.818
16246	1.0106	0.18182	0.	43.636
16247	1.1025	0.18182	5.e-002	29.123
16248	1.1025	9.0909e-002	0.	34.044
16249	0.91875	5.7273	0.	7.0794
16250	0.82687	5.8182	0.	61.848
16251	0.91875	5.8182	5.e-002	29.849
16252	0.91875	5.9091	0.	51.785
16253	0.91875	5.5455	0.	4.2597
16254	0.82687	5.6364	0.	-0.40557
16255	0.91875	5.6364	5.e-002	29.703
16256	0.91875	5.3636	0.	3.9471
16257	0.82687	5.4545	0.	-3.3333
16258	0.91875	5.4545	5.e-002	29.998
16259	0.91875	5.1818	0.	4.0014
16260	0.82687	5.2727	0.	-4.2064
16261	0.91875	5.2727	5.e-002	28.379
16262	0.91875	5.	0.	4.0399
16263	0.82687	5.0909	0.	-4.8307
16264	0.91875	5.0909	5.e-002	26.578
16265	0.91875	4.8182	0.	4.1059
16266	0.82687	4.9091	0.	-5.196
16267	0.91875	4.9091	5.e-002	25.233
16268	0.91875	4.6364	0.	4.1687
16269	0.82687	4.7273	0.	-5.4474
16270	0.91875	4.7273	5.e-002	24.439
16271	0.91875	4.4545	0.	4.2244
16272	0.82687	4.5455	0.	-5.6243
16273	0.91875	4.5455	5.e-002	24.05
16274	0.91875	4.2727	0.	4.2699
16275	0.82687	4.3636	0.	-5.7568
16276	0.91875	4.3636	5.e-002	23.89
16277	0.91875	4.0909	0.	4.3058
16278	0.82687	4.1818	0.	-5.858
16279	0.91875	4.1818	5.e-002	23.838
16280	0.91875	3.9091	0.	4.3334
16281	0.82687	4.	0.	-5.9363
16282	0.91875	4.	5.e-002	23.825
16283	0.91875	3.7273	0.	4.354
16284	0.82687	3.8182	0.	-5.9964
16285	0.91875	3.8182	5.e-002	23.821
16286	0.91875	3.5455	0.	4.369
16287	0.82687	3.6364	0.	-6.0415
16288	0.91875	3.6364	5.e-002	23.815
16289	0.91875	3.3636	0.	4.379
16290	0.82687	3.4545	0.	-6.0738
16291	0.91875	3.4545	5.e-002	23.808
16292	0.91875	3.1818	0.	4.3848
16293	0.82687	3.2727	0.	-6.0946
16294	0.91875	3.2727	5.e-002	23.801
16295	0.91875	3.	0.	4.3867
16296	0.82687	3.0909	0.	-6.1048
16297	0.91875	3.0909	5.e-002	23.797
16298	0.91875	2.8182	0.	4.3848
16299	0.82687	2.9091	0.	-6.1048
16300	0.91875	2.9091	5.e-002	23.797
16301	0.91875	2.6364	0.	4.379
16302	0.82687	2.7273	0.	-6.0946
16303	0.91875	2.7273	5.e-002	23.801
16304	0.91875	2.4545	0.	4.369
16305	0.82687	2.5455	0.	-6.0738
16306	0.91875	2.5455	5.e-002	23.808
16307	0.91875	2.2727	0.	4.354
16308	0.82687	2.3636	0.	-6.0415
16309	0.91875	2.3636	5.e-002	23.815
16310	0.91875	2.0909	0.	4.3334
16311	0.82687	2.1818	0.	-5.9964
16312	0.91875	2.1818	5.e-002	23.821
16313	0.91875	1.9091	0.	4.3058
16314	0.82687	2.	0.	-5.9363
16315	0.91875	2.	5.e-002	23.825
16316	0.91875	1.7273	0.	4.2699
16317	0.82687	1.8182	0.	-5.858
16318	0.91875	1.8182	5.e-002	23.838
16319	0.91875	1.5455	0.	4.2244
16320	0.82687	1.6364	0.	-5.7568
16321	0.91875	1.6364	5.e-002	23.89
16322	0.91875	1.3636	0.	4.1687
16323	0.82687	1.4545	0.	-5.6243
16324	0.91875	1.4545	5.e-002	24.05
16325	0.91875	1.1818	0.	4.1059
16326	0.82687	1.2727	0.	-5.4474
16327	0.91875	1.2727	5.e-002	24.439
16328	0.91875	1.	0.	4.0399
16329	0.82687	1.0909	0.	-5.196
16330	0.91875	1.0909	5.e-002	25.233
16331	0.91875	0.81818	0.	4.0014
16332	0.82687	0.90909	0.	-4.8307
16333	0.91875	0.90909	5.e-002	26.578
16334	0.91875	0.63636	0.	3.9471
16335	0.82687	0.72727	0.	-4.2064
16336	0.91875	0.72727	5.e-002	28.379
16337	0.91875	0.45455	0.	4.2597
16338	0.82687	0.54545	0.	-3.3333
16339	0.91875	0.54545	5.e-002	29.998
16340	0.91875	0.27273	0.	7.0794
16341	0.82687	0.36364	0.	-0.40557
16342	0.91875	0.36364	5.e-002	29.703
16343	0.82687	0.18182	0.	61.848
16344	0.91875	0.18182	5.e-002	29.849
16345	0.91875	9.0909e-002	0.	51.785
16346	0.735	5.7273	0.	0.41429
16347	0.64312	5.8182	0.	87.262
16348	0.735	5.8182	5.e-002	32.184
16349	0.735	5.9091	0.	73.056
16350	0.735	5.5455	0.	-8.4449
16351	0.64312	5.6364	0.	17.396
16352	0.735	5.6364	5.e-002	39.015
16353	0.735	5.3636	0.	-11.597
16354	0.64312	5.4545	0.	19.314
16355	0.735	5.4545	5.e-002	37.33
16356	0.735	5.1818	0.	-13.085
16357	0.64312	5.2727	0.	20.737
16358	0.735	5.2727	5.e-002	33.614
16359	0.735	5.	0.	-14.09
16360	0.64312	5.0909	0.	21.734
16361	0.735	5.0909	5.e-002	30.599
16362	0.735	4.8182	0.	-14.761
16363	0.64312	4.9091	0.	22.533
16364	0.735	4.9091	5.e-002	28.741
16365	0.735	4.6364	0.	-15.247
16366	0.64312	4.7273	0.	23.141
16367	0.735	4.7273	5.e-002	27.739
16368	0.735	4.4545	0.	-15.609
16369	0.64312	4.5455	0.	23.611
16370	0.735	4.5455	5.e-002	27.209
16371	0.735	4.2727	0.	-15.887
16372	0.64312	4.3636	0.	23.976
16373	0.735	4.3636	5.e-002	26.895
16374	0.735	4.0909	0.	-16.101
16375	0.64312	4.1818	0.	24.259
16376	0.735	4.1818	5.e-002	26.673
16377	0.735	3.9091	0.	-16.267
16378	0.64312	4.	0.	24.479
16379	0.735	4.	5.e-002	26.491
16380	0.735	3.7273	0.	-16.392
16381	0.64312	3.8182	0.	24.647
16382	0.735	3.8182	5.e-002	26.333
16383	0.735	3.5455	0.	-16.485
16384	0.64312	3.6364	0.	24.773
16385	0.735	3.6364	5.e-002	26.198
16386	0.735	3.3636	0.	-16.548
16387	0.64312	3.4545	0.	24.863
16388	0.735	3.4545	5.e-002	26.092
16389	0.735	3.1818	0.	-16.585
16390	0.64312	3.2727	0.	24.921
16391	0.735	3.2727	5.e-002	26.018
16392	0.735	3.	0.	-16.597
16393	0.64312	3.0909	0.	24.949
16394	0.735	3.0909	5.e-002	25.98
16395	0.735	2.8182	0.	-16.585
16396	0.64312	2.9091	0.	24.949
16397	0.735	2.9091	5.e-002	25.98
16398	0.735	2.6364	0.	-16.548
16399	0.64312	2.7273	0.	24.921
16400	0.735	2.7273	5.e-002	26.018
16401	0.735	2.4545	0.	-16.485
16402	0.64312	2.5455	0.	24.863
16403	0.735	2.5455	5.e-002	26.092
16404	0.735	2.2727	0.	-16.392
16405	0.64312	2.3636	0.	24.773
16406	0.735	2.3636	5.e-002	26.198
16407	0.735	2.0909	0.	-16.267
16408	0.64312	2.1818	0.	24.647
16409	0.735	2.1818	5.e-002	26.333
16410	0.735	1.9091	0.	-16.101
16411	0.64312	2.	0.	24.479
16412	0.735	2.	5.e-002	26.491
16413	0.735	1.7273	0.	-15.887
16414	0.64312	1.8182	0.	24.259
16415	0.735	1.8182	5.e-002	26.673
16416	0.735	1.5455	0.	-15.609
16417	0.64312	1.6364	0.	23.976
16418	0.735	1.6364	5.e-002	26.895
16419	0.735	1.3636	0.	-15.247
16420	0.64312	1.4545	0.	23.611
16421	0.735	1.4545	5.e-002	27.209
16422	0.735	1.1818	0.	-14.761
16423	0.64312	1.2727	0.	23.141
16424	0.735	1.2727	5.e-002	27.739
16425	0.735	1.	0.	-14.09
16426	0.64312	1.0909	0.	22.533
16427	0.735	1.0909	5.e-002	28.741
16428	0.735	0.81818	0.	-13.085
16429	0.64312	0.90909	0.	21.734
16430	0.735	0.90909	5.e-002	30.599
16431	0.735	0.63636	0.	-11.597
16432	0.64312	0.72727	0.	20.737
16433	0.735	0.72727	5.e-002	33.614
16434	0.735	0.45455	0.	-8.4449
16435	0.64312	0.54545	0.	19.314
16436	0.735	0.54545	5.e-002	37.33
16437	0.735	0.27273	0.	0.41427
16438	0.64312	0.36364	0.	17.396
16439	0.735	0.36364	5.e-002	39.015
16440	0.64312	0.18182	0.	87.262
16441	0.735	0.18182	5.e-002	32.184
16442	0.735	9.0909e-002	0.	73.056
16443	0.55125	5.7273	0.	33.799
16444	0.45937	5.8182	0.	96.218
16445	0.55125	5.8182	5.e-002	40.295
16446	0.55125	5.9091	0.	107.75
16447	0.55125	5.5455	0.	44.589
16448	0.45937	5.6364	0.	-48.85
16449	0.55125	5.6364	5.e-002	54.059
16450	0.55125	5.3636	0.	51.5
16451	0.45937	5.4545	0.	-67.324
16452	0.55125	5.4545	5.e-002	47.03
16453	0.55125	5.1818	0.	55.498
16454	0.45937	5.2727	0.	-76.573
16455	0.55125	5.2727	5.e-002	39.755
16456	0.55125	5.	0.	58.331
16457	0.45937	5.0909	0.	-82.409
16458	0.55125	5.0909	5.e-002	35.264
16459	0.55125	4.8182	0.	60.424
16460	0.45937	4.9091	0.	-86.45
16461	0.55125	4.9091	5.e-002	32.772
16462	0.55125	4.6364	0.	61.993
16463	0.45937	4.7273	0.	-89.385
16464	0.55125	4.7273	5.e-002	31.354
16465	0.55125	4.4545	0.	63.193
16466	0.45937	4.5455	0.	-91.591
16467	0.55125	4.5455	5.e-002	30.418
16468	0.55125	4.2727	0.	64.12
16469	0.45937	4.3636	0.	-93.28
16470	0.55125	4.3636	5.e-002	29.705
16471	0.55125	4.0909	0.	64.838
16472	0.45937	4.1818	0.	-94.584
16473	0.55125	4.1818	5.e-002	29.116
16474	0.55125	3.9091	0.	65.392
16475	0.45937	4.	0.	-95.592
16476	0.55125	4.	5.e-002	28.617
16477	0.55125	3.7273	0.	65.812
16478	0.45937	3.8182	0.	-96.364
16479	0.55125	3.8182	5.e-002	28.199
16480	0.55125	3.5455	0.	66.12
16481	0.45937	3.6364	0.	-96.94
16482	0.55125	3.6364	5.e-002	27.862
16483	0.55125	3.3636	0.	66.331
16484	0.45937	3.4545	0.	-97.351
16485	0.55125	3.4545	5.e-002	27.607
16486	0.55125	3.1818	0.	66.454
16487	0.45937	3.2727	0.	-97.614
16488	0.55125	3.2727	5.e-002	27.436
16489	0.55125	3.	0.	66.494
16490	0.45937	3.0909	0.	-97.743
16491	0.55125	3.0909	5.e-002	27.351
16492	0.55125	2.8182	0.	66.454
16493	0.45937	2.9091	0.	-97.743
16494	0.55125	2.9091	5.e-002	27.351
16495	0.55125	2.6364	0.	66.331
16496	0.45937	2.7273	0.	-97.614
16497	0.55125	2.7273	5.e-002	27.436
16498	0.55125	2.4545	0.	66.12
16499	0.45937	2.5455	0.	-97.351
16500	0.55125	2.5455	5.e-002	27.607
16501	0.55125	2.2727	0.	65.812
16502	0.45937	2.3636	0.	-96.94
16503	0.55125	2.3636	5.e-002	27.862
16504	0.55125	2.0909	0.	65.392
16505	0.45937	2.1818	0.	-96.364
16506	0.55125	2.1818	5.e-002	28.199
16507	0.55125	1.9091	0.	64.838
16508	0.45937	2.	0.	-95.592
16509	0.55125	2.	5.e-002	28.617
16510	0.55125	1.7273	0.	64.12
16511	0.45937	1.8182	0.	-94.584
16512	0.55125	1.8182	5.e-002	29.116
16513	0.55125	1.5455	0.	63.193
16514	0.45937	1.6364	0.	-93.28
16515	0.55125	1.6364	5.e-002	29.705
16516	0.55125	1.3636	0.	61.993
16517	0.45937	1.4545	0.	-91.591
16518	0.55125	1.4545	5.e-002	30.418
16519	0.55125	1.1818	0.	60.424
16520	0.45937	1.2727	0.	-89.385
16521	0.55125	1.2727	5.e-002	31.354
16522	0.55125	1.	0.	58.331
16523	0.45937	1.0909	0.	-86.45
16524	0.55125	1.0909	5.e-002	32.772
16525	0.55125	0.81818	0.	55.498
16526	0.45937	0.90909	0.	-82.409
16527	0.55125	0.90909	5.e-002	35.264
16528	0.55125	0.63636	0.	51.5
16529	0.45937	0.72727	0.	-76.573
16530	0.55125	0.72727	5.e-002	39.755
16531	0.55125	0.45455	0.	44.589
16532	0.45937	0.54545	0.	-67.324
16533	0.55125	0.54545	5.e-002	47.03
16534	0.55125	0.27273	0.	33.799
16535	0.45937	0.36364	0.	-48.85
16536	0.55125	0.36364	5.e-002	54.059
16537	0.45937	0.18182	0.	96.218
16538	0.55125	0.18182	5.e-002	40.295
16539	0.55125	9.0909e-002	0.	107.75
16540	0.3675	5.7273	0.	-90.433
16541	0.27562	5.8182	0.	164.75
16542	0.3675	5.8182	5.e-002	70.466
16543	0.3675	5.9091	0.	132.65
16544	0.3675	5.5455	0.	-161.75
16545	0.27562	5.6364	0.	235.83
16546	0.3675	5.6364	5.e-002	78.206
16547	0.3675	5.3636	0.	-195.61
16548	0.27562	5.4545	0.	279.7
16549	0.3675	5.4545	5.e-002	59.531
16550	0.3675	5.1818	0.	-214.55
16551	0.27562	5.2727	0.	310.96
16552	0.3675	5.2727	5.e-002	48.979
16553	0.3675	5.	0.	-227.22
16554	0.27562	5.0909	0.	330.97
16555	0.3675	5.0909	5.e-002	43.554
16556	0.3675	4.8182	0.	-236.27
16557	0.27562	4.9091	0.	345.56
16558	0.3675	4.9091	5.e-002	40.662
16559	0.3675	4.6364	0.	-242.97
16560	0.27562	4.7273	0.	356.29
16561	0.3675	4.7273	5.e-002	38.706
16562	0.3675	4.4545	0.	-248.06
16563	0.27562	4.5455	0.	364.46
16564	0.3675	4.5455	5.e-002	37.191
16565	0.3675	4.2727	0.	-251.98
16566	0.27562	4.3636	0.	370.74
16567	0.3675	4.3636	5.e-002	35.942
16568	0.3675	4.0909	0.	-255.01
16569	0.27562	4.1818	0.	375.61
16570	0.3675	4.1818	5.e-002	34.899
16571	0.3675	3.9091	0.	-257.35
16572	0.27562	4.	0.	379.39
16573	0.3675	4.	5.e-002	34.033
16574	0.3675	3.7273	0.	-259.11
16575	0.27562	3.8182	0.	382.29
16576	0.3675	3.8182	5.e-002	33.329
16577	0.3675	3.5455	0.	-260.41
16578	0.27562	3.6364	0.	384.46
16579	0.3675	3.6364	5.e-002	32.777
16580	0.3675	3.3636	0.	-261.29
16581	0.27562	3.4545	0.	386.01
16582	0.3675	3.4545	5.e-002	32.369
16583	0.3675	3.1818	0.	-261.81
16584	0.27562	3.2727	0.	387.
16585	0.3675	3.2727	5.e-002	32.1
16586	0.3675	3.	0.	-261.98
16587	0.27562	3.0909	0.	387.49
16588	0.3675	3.0909	5.e-002	31.967
16589	0.3675	2.8182	0.	-261.81
16590	0.27562	2.9091	0.	387.49
16591	0.3675	2.9091	5.e-002	31.967
16592	0.3675	2.6364	0.	-261.29
16593	0.27562	2.7273	0.	387.
16594	0.3675	2.7273	5.e-002	32.1
16595	0.3675	2.4545	0.	-260.41
16596	0.27562	2.5455	0.	386.01
16597	0.3675	2.5455	5.e-002	32.369
16598	0.3675	2.2727	0.	-259.11
16599	0.27562	2.3636	0.	384.46
16600	0.3675	2.3636	5.e-002	32.777
16601	0.3675	2.0909	0.	-257.35
16602	0.27562	2.1818	0.	382.29
16603	0.3675	2.1818	5.e-002	33.329
16604	0.3675	1.9091	0.	-255.01
16605	0.27562	2.	0.	379.39
16606	0.3675	2.	5.e-002	34.033
16607	0.3675	1.7273	0.	-251.98
16608	0.27562	1.8182	0.	375.61
16609	0.3675	1.8182	5.e-002	34.899
16610	0.3675	1.5455	0.	-248.06
16611	0.27562	1.6364	0.	370.74
16612	0.3675	1.6364	5.e-002	35.942
16613	0.3675	1.3636	0.	-242.97
16614	0.27562	1.4545	0.	364.46
16615	0.3675	1.4545	5.e-002	37.191
16616	0.3675	1.1818	0.	-236.27
16617	0.27562	1.2727	0.	356.29
16618	0.3675	1.2727	5.e-002	38.706
16619	0.3675	1.	0.	-227.22
16620	0.27562	1.0909	0.	345.56
16621	0.3675	1.0909	5.e-002	40.661
16622	0.3675	0.81818	0.	-214.55
16623	0.27562	0.90909	0.	330.97
16624	0.3675	0.90909	5.e-002	43.554
16625	0.3675	0.63636	0.	-195.61
16626	0.27562	0.72727	0.	310.96
16627	0.3675	0.72727	5.e-002	48.979
16628	0.3675	0.45455	0.	-161.75
16629	0.27562	0.54545	0.	279.7
16630	0.3675	0.54545	5.e-002	59.531
16631	0.3675	0.27273	0.	-90.433
16632	0.27562	0.36364	0.	235.83
16633	0.3675	0.36364	5.e-002	78.206
16634	0.27562	0.18182	0.	164.75
16635	0.3675	0.18182	5.e-002	70.466
16636	0.3675	9.0909e-002	0.	132.65
16637	0.18375	5.7273	0.	448.25
16638	0.18375	5.8182	5.e-002	170.08
16639	0.18375	5.9091	0.	223.2
16640	9.1875e-002	5.8182	0.	-399.87
16641	0.18375	5.5455	0.	676.56
16642	0.18375	5.6364	5.e-002	108.38
16643	9.1875e-002	5.6364	0.	-831.48
16644	0.18375	5.3636	0.	786.22
16645	0.18375	5.4545	5.e-002	73.585
16646	9.1875e-002	5.4545	0.	-1028.9
16647	0.18375	5.1818	0.	856.51
16648	0.18375	5.2727	5.e-002	56.346
16649	9.1875e-002	5.2727	0.	-1145.4
16650	0.18375	5.	0.	903.77
16651	0.18375	5.0909	5.e-002	47.395
16652	9.1875e-002	5.0909	0.	-1224.1
16653	0.18375	4.8182	0.	938.14
16654	0.18375	4.9091	5.e-002	41.285
16655	9.1875e-002	4.9091	0.	-1280.
16656	0.18375	4.6364	0.	963.74
16657	0.18375	4.7273	5.e-002	36.829
16658	9.1875e-002	4.7273	0.	-1321.5
16659	0.18375	4.4545	0.	983.27
16660	0.18375	4.5455	5.e-002	33.43
16661	9.1875e-002	4.5455	0.	-1353.
16662	0.18375	4.2727	0.	998.35
16663	0.18375	4.3636	5.e-002	30.778
16664	9.1875e-002	4.3636	0.	-1377.3
16665	0.18375	4.0909	0.	1010.
16666	0.18375	4.1818	5.e-002	28.691
16667	9.1875e-002	4.1818	0.	-1396.1
16668	0.18375	3.9091	0.	1019.
16669	0.18375	4.	5.e-002	27.049
16670	9.1875e-002	4.	0.	-1410.7
16671	0.18375	3.7273	0.	1025.9
16672	0.18375	3.8182	5.e-002	25.772
16673	9.1875e-002	3.8182	0.	-1421.9
16674	0.18375	3.5455	0.	1030.9
16675	0.18375	3.6364	5.e-002	24.804
16676	9.1875e-002	3.6364	0.	-1430.3
16677	0.18375	3.3636	0.	1034.3
16678	0.18375	3.4545	5.e-002	24.108
16679	9.1875e-002	3.4545	0.	-1436.2
16680	0.18375	3.1818	0.	1036.3
16681	0.18375	3.2727	5.e-002	23.657
16682	9.1875e-002	3.2727	0.	-1440.1
16683	0.18375	3.	0.	1037.
16684	0.18375	3.0909	5.e-002	23.436
16685	9.1875e-002	3.0909	0.	-1442.
16686	0.18375	2.8182	0.	1036.3
16687	0.18375	2.9091	5.e-002	23.436
16688	9.1875e-002	2.9091	0.	-1442.
16689	0.18375	2.6364	0.	1034.3
16690	0.18375	2.7273	5.e-002	23.657
16691	9.1875e-002	2.7273	0.	-1440.1
16692	0.18375	2.4545	0.	1030.9
16693	0.18375	2.5455	5.e-002	24.108
16694	9.1875e-002	2.5455	0.	-1436.2
16695	0.18375	2.2727	0.	1025.9
16696	0.18375	2.3636	5.e-002	24.804
16697	9.1875e-002	2.3636	0.	-1430.3
16698	0.18375	2.0909	0.	1019.
16699	0.18375	2.1818	5.e-002	25.772
16700	9.1875e-002	2.1818	0.	-1421.9
16701	0.18375	1.9091	0.	1010.
16702	0.18375	2.	5.e-002	27.049
16703	9.1875e-002	2.	0.	-1410.7
16704	0.18375	1.7273	0.	998.35
16705	0.18375	1.8182	5.e-002	28.691
16706	9.1875e-002	1.8182	0.	-1396.1
16707	0.18375	1.5455	0.	983.27
16708	0.18375	1.6364	5.e-002	30.778
16709	9.1875e-002	1.6364	0.	-1377.3
16710	0.18375	1.3636	0.	963.74
16711	0.18375	1.4545	5.e-002	33.43
16712	9.1875e-002	1.4545	0.	-1353.
16713	0.18375	1.1818	0.	938.14
16714	0.18375	1.2727	5.e-002	36.829
16715	9.1875e-002	1.2727	0.	-1321.5
16716	0.18375	1.	0.	903.77
16717	0.18375	1.0909	5.e-002	41.284
16718	9.1875e-002	1.0909	0.	-1280.
16719	0.18375	0.81818	0.	856.51
16720	0.18375	0.90909	5.e-002	47.395
16721	9.1875e-002	0.90909	0.	-1224.1
16722	0.18375	0.63636	0.	786.22
16723	0.18375	0.72727	5.e-002	56.346
16724	9.1875e-002	0.72727	0.	-1145.4
16725	0.18375	0.45455	0.	676.56
16726	0.18375	0.54545	5.e-002	73.585
16727	9.1875e-002	0.54545	0.	-1028.9
16728	0.18375	0.27273	0.	448.25
16729	0.18375	0.36364	5.e-002	108.38
16730	9.1875e-002	0.36364	0.	-831.48
16731	0.18375	0.18182	5.e-002	170.08
16732	0.18375	9.0909e-002	0.	223.2
16733	9.1875e-002	0.18182	0.	-399.87
16734	15.049	0.27273	0.	81.269
16735	15.141	0.18182	0.	44.598
16736	15.049	0.18182	5.e-002	28.465
16737	15.049	9.0909e-002	0.	21.36
16738	14.958	0.18182	0.	24.464
16739	15.049	0.45455	0.	153.44
16740	15.141	0.36364	0.	75.383
16741	15.049	0.36364	5.e-002	25.829
16742	14.958	0.36364	0.	76.582
16743	15.049	0.63636	0.	249.64
16744	15.141	0.54545	0.	143.69
16745	15.049	0.54545	5.e-002	27.786
16746	14.958	0.54545	0.	148.01
16747	15.049	0.81818	0.	362.32
16748	15.141	0.72727	0.	230.19
16749	15.049	0.72727	5.e-002	31.536
16750	14.958	0.72727	0.	230.96
16751	15.049	1.	0.	493.74
16752	15.141	0.90909	0.	330.38
16753	15.049	0.90909	5.e-002	37.097
16754	14.958	0.90909	0.	327.25
16755	15.049	1.1818	0.	650.84
16756	15.141	1.0909	0.	444.44
16757	15.049	1.0909	5.e-002	44.952
16758	14.958	1.0909	0.	441.76
16759	15.049	1.3636	0.	841.
16760	15.141	1.2727	0.	574.93
16761	15.049	1.2727	5.e-002	56.925
16762	14.958	1.2727	0.	582.59
16763	15.049	1.5455	0.	1094.8
16764	15.141	1.4545	0.	716.23
16765	15.049	1.4545	5.e-002	72.536
16766	14.958	1.4545	0.	769.98
16767	15.049	1.7273	0.	1288.7
16768	15.141	1.6364	0.	873.96
16769	15.049	1.6364	5.e-002	109.8
16770	14.958	1.6364	0.	976.96
16771	15.049	1.9091	0.	1069.7
16772	15.141	1.8182	0.	900.11
16773	15.049	1.8182	5.e-002	195.96
16774	14.958	1.8182	0.	1532.9
16775	15.049	2.0909	0.	567.38
16776	15.141	2.	0.	540.01
16777	15.049	2.	5.e-002	345.63
16778	14.958	2.	0.	824.85
16779	15.049	2.2727	0.	420.47
16780	15.141	2.1818	0.	287.94
16781	15.049	2.1818	5.e-002	199.44
16782	15.049	2.4545	0.	441.
16783	15.141	2.3636	0.	320.25
16784	15.049	2.3636	5.e-002	85.117
16785	15.049	2.6364	0.	424.39
16786	15.141	2.5455	0.	328.74
16787	15.049	2.5455	5.e-002	47.456
16788	15.049	2.8182	0.	415.15
16789	15.141	2.7273	0.	332.57
16790	15.049	2.7273	5.e-002	29.049
16791	15.049	3.	0.	411.24
16792	15.141	2.9091	0.	332.91
16793	15.049	2.9091	5.e-002	22.739
16794	15.049	3.1818	0.	415.15
16795	15.141	3.0909	0.	332.91
16796	15.049	3.0909	5.e-002	22.739
16797	15.049	3.3636	0.	424.39
16798	15.141	3.2727	0.	332.57
16799	15.049	3.2727	5.e-002	29.049
16800	15.049	3.5455	0.	441.
16801	15.141	3.4545	0.	328.74
16802	15.049	3.4545	5.e-002	47.456
16803	15.049	3.7273	0.	420.47
16804	15.141	3.6364	0.	320.25
16805	15.049	3.6364	5.e-002	85.117
16806	15.049	3.9091	0.	567.38
16807	15.141	3.8182	0.	287.94
16808	15.049	3.8182	5.e-002	199.44
16809	15.049	4.0909	0.	1069.7
16810	15.141	4.	0.	540.01
16811	15.049	4.	5.e-002	345.63
16812	14.958	4.	0.	824.86
16813	15.049	4.2727	0.	1288.7
16814	15.141	4.1818	0.	900.11
16815	15.049	4.1818	5.e-002	195.96
16816	14.958	4.1818	0.	1532.9
16817	15.049	4.4545	0.	1094.8
16818	15.141	4.3636	0.	873.96
16819	15.049	4.3636	5.e-002	109.8
16820	14.958	4.3636	0.	976.96
16821	15.049	4.6364	0.	841.
16822	15.141	4.5455	0.	716.23
16823	15.049	4.5455	5.e-002	72.536
16824	14.958	4.5455	0.	769.98
16825	15.049	4.8182	0.	650.84
16826	15.141	4.7273	0.	574.93
16827	15.049	4.7273	5.e-002	56.925
16828	14.958	4.7273	0.	582.59
16829	15.049	5.	0.	493.74
16830	15.141	4.9091	0.	444.44
16831	15.049	4.9091	5.e-002	44.952
16832	14.958	4.9091	0.	441.76
16833	15.049	5.1818	0.	362.32
16834	15.141	5.0909	0.	330.38
16835	15.049	5.0909	5.e-002	37.097
16836	14.958	5.0909	0.	327.25
16837	15.049	5.3636	0.	249.64
16838	15.141	5.2727	0.	230.19
16839	15.049	5.2727	5.e-002	31.536
16840	14.958	5.2727	0.	230.96
16841	15.049	5.5455	0.	153.44
16842	15.141	5.4545	0.	143.69
16843	15.049	5.4545	5.e-002	27.786
16844	14.958	5.4545	0.	148.01
16845	15.049	5.7273	0.	81.269
16846	15.141	5.6364	0.	75.383
16847	15.049	5.6364	5.e-002	25.829
16848	14.958	5.6364	0.	76.582
16849	15.141	5.8182	0.	44.598
16850	15.049	5.8182	5.e-002	28.465
16851	15.049	5.9091	0.	21.36
16852	14.958	5.8182	0.	24.464
16853	15.232	0.27273	0.	47.892
16854	15.323	0.18182	0.	41.134
16855	15.232	0.18182	5.e-002	24.818
16856	15.232	9.0909e-002	0.	17.817
16857	15.232	0.45455	0.	80.357
16858	15.323	0.36364	0.	48.847
16859	15.232	0.36364	5.e-002	21.233
16860	15.232	0.63636	0.	140.09
16861	15.323	0.54545	0.	85.616
16862	15.232	0.54545	5.e-002	21.487
16863	15.232	0.81818	0.	214.75
16864	15.323	0.72727	0.	139.55
16865	15.232	0.72727	5.e-002	22.808
16866	15.232	1.	0.	299.23
16867	15.323	0.90909	0.	203.41
16868	15.232	0.90909	5.e-002	25.123
16869	15.232	1.1818	0.	390.17
16870	15.323	1.0909	0.	271.85
16871	15.232	1.0909	5.e-002	28.603
16872	15.232	1.3636	0.	477.51
16873	15.323	1.2727	0.	338.45
16874	15.232	1.2727	5.e-002	32.965
16875	15.232	1.5455	0.	535.33
16876	15.323	1.4545	0.	387.93
16877	15.232	1.4545	5.e-002	41.245
16878	15.232	1.7273	0.	518.86
16879	15.323	1.6364	0.	392.19
16880	15.232	1.6364	5.e-002	43.435
16881	15.232	1.9091	0.	359.69
16882	15.323	1.8182	0.	315.
16883	15.232	1.8182	5.e-002	66.248
16884	15.232	2.0909	0.	189.69
16885	15.323	2.	0.	142.86
16886	15.232	2.	5.e-002	62.762
16887	15.232	2.2727	0.	157.37
16888	15.323	2.1818	0.	70.842
16889	15.232	2.1818	5.e-002	91.317
16890	15.232	2.4545	0.	196.52
16891	15.323	2.3636	0.	97.653
16892	15.232	2.3636	5.e-002	68.017
16893	15.232	2.6364	0.	230.6
16894	15.323	2.5455	0.	138.81
16895	15.232	2.5455	5.e-002	50.732
16896	15.232	2.8182	0.	245.49
16897	15.323	2.7273	0.	162.81
16898	15.232	2.7273	5.e-002	37.006
16899	15.232	3.	0.	250.01
16900	15.323	2.9091	0.	174.22
16901	15.232	2.9091	5.e-002	31.046
16902	15.232	3.1818	0.	245.49
16903	15.323	3.0909	0.	174.22
16904	15.232	3.0909	5.e-002	31.046
16905	15.232	3.3636	0.	230.6
16906	15.323	3.2727	0.	162.81
16907	15.232	3.2727	5.e-002	37.006
16908	15.232	3.5455	0.	196.52
16909	15.323	3.4545	0.	138.81
16910	15.232	3.4545	5.e-002	50.732
16911	15.232	3.7273	0.	157.37
16912	15.323	3.6364	0.	97.653
16913	15.232	3.6364	5.e-002	68.017
16914	15.232	3.9091	0.	189.69
16915	15.323	3.8182	0.	70.842
16916	15.232	3.8182	5.e-002	91.317
16917	15.232	4.0909	0.	359.69
16918	15.323	4.	0.	142.86
16919	15.232	4.	5.e-002	62.762
16920	15.232	4.2727	0.	518.86
16921	15.323	4.1818	0.	315.
16922	15.232	4.1818	5.e-002	66.248
16923	15.232	4.4545	0.	535.33
16924	15.323	4.3636	0.	392.19
16925	15.232	4.3636	5.e-002	43.435
16926	15.232	4.6364	0.	477.51
16927	15.323	4.5455	0.	387.93
16928	15.232	4.5455	5.e-002	41.245
16929	15.232	4.8182	0.	390.17
16930	15.323	4.7273	0.	338.45
16931	15.232	4.7273	5.e-002	32.965
16932	15.232	5.	0.	299.23
16933	15.323	4.9091	0.	271.85
16934	15.232	4.9091	5.e-002	28.603
16935	15.232	5.1818	0.	214.75
16936	15.323	5.0909	0.	203.41
16937	15.232	5.0909	5.e-002	25.123
16938	15.232	5.3636	0.	140.1
16939	15.323	5.2727	0.	139.55
16940	15.232	5.2727	5.e-002	22.808
16941	15.232	5.5455	0.	80.357
16942	15.323	5.4545	0.	85.616
16943	15.232	5.4545	5.e-002	21.487
16944	15.232	5.7273	0.	47.892
16945	15.323	5.6364	0.	48.847
16946	15.232	5.6364	5.e-002	21.233
16947	15.323	5.8182	0.	41.134
16948	15.232	5.8182	5.e-002	24.818
16949	15.232	5.9091	0.	17.817
16950	15.415	0.27273	0.	44.75
16951	15.506	0.18182	0.	42.824
16952	15.415	0.18182	5.e-002	22.656
16953	15.415	9.0909e-002	0.	21.326
16954	15.415	0.45455	0.	60.518
16955	15.506	0.36364	0.	45.818
16956	15.415	0.36364	5.e-002	18.909
16957	15.415	0.63636	0.	94.991
16958	15.506	0.54545	0.	65.626
16959	15.415	0.54545	5.e-002	18.991
16960	15.415	0.81818	0.	140.25
16961	15.506	0.72727	0.	96.033
16962	15.415	0.72727	5.e-002	19.712
16963	15.415	1.	0.	189.71
16964	15.506	0.90909	0.	131.85
16965	15.415	0.90909	5.e-002	20.865
16966	15.415	1.1818	0.	235.39
16967	15.506	1.0909	0.	166.77
16968	15.415	1.0909	5.e-002	22.357
16969	15.415	1.3636	0.	265.42
16970	15.506	1.2727	0.	192.09
16971	15.415	1.2727	5.e-002	24.011
16972	15.415	1.5455	0.	259.47
16973	15.506	1.4545	0.	195.9
16974	15.415	1.4545	5.e-002	24.914
16975	15.415	1.7273	0.	198.3
16976	15.506	1.6364	0.	161.1
16977	15.415	1.6364	5.e-002	26.511
16978	15.415	1.9091	0.	99.814
16979	15.506	1.8182	0.	83.751
16980	15.415	1.8182	5.e-002	31.761
16981	15.415	2.0909	0.	19.075
16982	15.506	2.	0.	8.5808
16983	15.415	2.	5.e-002	41.008
16984	15.415	2.2727	0.	4.1241
16985	15.506	2.1818	0.	-0.41732
16986	15.415	2.1818	5.e-002	46.529
16987	15.415	2.4545	0.	30.684
16988	15.506	2.3636	0.	3.137
16989	15.415	2.3636	5.e-002	49.174
16990	15.415	2.6364	0.	63.33
16991	15.506	2.5455	0.	5.0069
16992	15.415	2.5455	5.e-002	42.563
16993	15.415	2.8182	0.	85.256
16994	15.506	2.7273	0.	19.506
16995	15.415	2.7273	5.e-002	36.862
16996	15.415	3.	0.	92.6
16997	15.506	2.9091	0.	32.092
16998	15.415	2.9091	5.e-002	33.445
16999	15.415	3.1818	0.	85.256
17000	15.506	3.0909	0.	32.092
17001	15.415	3.0909	5.e-002	33.445
17002	15.415	3.3636	0.	63.33
17003	15.506	3.2727	0.	19.506
17004	15.415	3.2727	5.e-002	36.862
17005	15.415	3.5455	0.	30.684
17006	15.506	3.4545	0.	5.0069
17007	15.415	3.4545	5.e-002	42.563
17008	15.415	3.7273	0.	4.1242
17009	15.506	3.6364	0.	3.137
17010	15.415	3.6364	5.e-002	49.174
17011	15.415	3.9091	0.	19.075
17012	15.506	3.8182	0.	-0.41731
17013	15.415	3.8182	5.e-002	46.529
17014	15.415	4.0909	0.	99.814
17015	15.506	4.	0.	8.581
17016	15.415	4.	5.e-002	41.008
17017	15.415	4.2727	0.	198.3
17018	15.506	4.1818	0.	83.751
17019	15.415	4.1818	5.e-002	31.761
17020	15.415	4.4545	0.	259.47
17021	15.506	4.3636	0.	161.1
17022	15.415	4.3636	5.e-002	26.511
17023	15.415	4.6364	0.	265.42
17024	15.506	4.5455	0.	195.9
17025	15.415	4.5455	5.e-002	24.914
17026	15.415	4.8182	0.	235.39
17027	15.506	4.7273	0.	192.09
17028	15.415	4.7273	5.e-002	24.011
17029	15.415	5.	0.	189.71
17030	15.506	4.9091	0.	166.77
17031	15.415	4.9091	5.e-002	22.357
17032	15.415	5.1818	0.	140.25
17033	15.506	5.0909	0.	131.85
17034	15.415	5.0909	5.e-002	20.865
17035	15.415	5.3636	0.	94.991
17036	15.506	5.2727	0.	96.033
17037	15.415	5.2727	5.e-002	19.712
17038	15.415	5.5455	0.	60.518
17039	15.506	5.4545	0.	65.626
17040	15.415	5.4545	5.e-002	18.991
17041	15.415	5.7273	0.	44.75
17042	15.506	5.6364	0.	45.818
17043	15.415	5.6364	5.e-002	18.909
17044	15.506	5.8182	0.	42.824
17045	15.415	5.8182	5.e-002	22.656
17046	15.415	5.9091	0.	21.326
17047	15.597	0.27273	0.	45.196
17048	15.689	0.18182	0.	42.852
17049	15.597	0.18182	5.e-002	20.145
17050	15.597	9.0909e-002	0.	23.455
17051	15.597	0.45455	0.	53.928
17052	15.689	0.36364	0.	45.849
17053	15.597	0.36364	5.e-002	16.175
17054	15.597	0.63636	0.	72.151
17055	15.689	0.54545	0.	56.419
17056	15.597	0.54545	5.e-002	16.094
17057	15.597	0.81818	0.	95.209
17058	15.689	0.72727	0.	70.924
17059	15.597	0.72727	5.e-002	16.364
17060	15.597	1.	0.	117.97
17061	15.689	0.90909	0.	86.252
17062	15.597	0.90909	5.e-002	16.726
17063	15.597	1.1818	0.	133.35
17064	15.689	1.0909	0.	97.448
17065	15.597	1.0909	5.e-002	17.077
17066	15.597	1.3636	0.	132.34
17067	15.689	1.2727	0.	97.932
17068	15.597	1.2727	5.e-002	17.304
17069	15.597	1.5455	0.	106.01
17070	15.689	1.4545	0.	80.47
17071	15.597	1.4545	5.e-002	17.849
17072	15.597	1.7273	0.	53.095
17073	15.689	1.6364	0.	41.689
17074	15.597	1.6364	5.e-002	19.742
17075	15.597	1.9091	0.	7.9288
17076	15.689	1.8182	0.	6.8027
17077	15.597	1.8182	5.e-002	23.126
17078	15.597	2.0909	0.	2.9793
17079	15.689	2.	0.	2.2756
17080	15.597	2.	5.e-002	27.923
17081	15.597	2.2727	0.	1.5966
17082	15.689	2.1818	0.	1.429
17083	15.597	2.1818	5.e-002	32.452
17084	15.597	2.4545	0.	0.99862
17085	15.689	2.3636	0.	0.70585
17086	15.597	2.3636	5.e-002	34.887
17087	15.597	2.6364	0.	1.1678
17088	15.689	2.5455	0.	0.9156
17089	15.597	2.5455	5.e-002	34.671
17090	15.597	2.8182	0.	0.91543
17091	15.689	2.7273	0.	0.82552
17092	15.597	2.7273	5.e-002	33.02
17093	15.597	3.	0.	0.72115
17094	15.689	2.9091	0.	0.71652
17095	15.597	2.9091	5.e-002	31.776
17096	15.597	3.1818	0.	0.91543
17097	15.689	3.0909	0.	0.71652
17098	15.597	3.0909	5.e-002	31.776
17099	15.597	3.3636	0.	1.1678
17100	15.689	3.2727	0.	0.82552
17101	15.597	3.2727	5.e-002	33.02
17102	15.597	3.5455	0.	0.99862
17103	15.689	3.4545	0.	0.9156
17104	15.597	3.4545	5.e-002	34.671
17105	15.597	3.7273	0.	1.5966
17106	15.689	3.6364	0.	0.70585
17107	15.597	3.6364	5.e-002	34.887
17108	15.597	3.9091	0.	2.9793
17109	15.689	3.8182	0.	1.429
17110	15.597	3.8182	5.e-002	32.452
17111	15.597	4.0909	0.	7.9289
17112	15.689	4.	0.	2.2756
17113	15.597	4.	5.e-002	27.923
17114	15.597	4.2727	0.	53.095
17115	15.689	4.1818	0.	6.8028
17116	15.597	4.1818	5.e-002	23.126
17117	15.597	4.4545	0.	106.01
17118	15.689	4.3636	0.	41.69
17119	15.597	4.3636	5.e-002	19.742
17120	15.597	4.6364	0.	132.34
17121	15.689	4.5455	0.	80.47
17122	15.597	4.5455	5.e-002	17.849
17123	15.597	4.8182	0.	133.35
17124	15.689	4.7273	0.	97.932
17125	15.597	4.7273	5.e-002	17.304
17126	15.597	5.	0.	117.97
17127	15.689	4.9091	0.	97.449
17128	15.597	4.9091	5.e-002	17.077
17129	15.597	5.1818	0.	95.209
17130	15.689	5.0909	0.	86.252
17131	15.597	5.0909	5.e-002	16.726
17132	15.597	5.3636	0.	72.151
17133	15.689	5.2727	0.	70.925
17134	15.597	5.2727	5.e-002	16.364
17135	15.597	5.5455	0.	53.928
17136	15.689	5.4545	0.	56.419
17137	15.597	5.4545	5.e-002	16.094
17138	15.597	5.7273	0.	45.196
17139	15.689	5.6364	0.	45.849
17140	15.597	5.6364	5.e-002	16.175
17141	15.689	5.8182	0.	42.852
17142	15.597	5.8182	5.e-002	20.145
17143	15.597	5.9091	0.	23.455
17144	15.78	0.27273	0.	44.349
17145	15.871	0.18182	0.	40.852
17146	15.78	0.18182	5.e-002	17.421
17147	15.78	9.0909e-002	0.	23.59
17148	15.78	0.45455	0.	49.967
17149	15.871	0.36364	0.	44.721
17150	15.78	0.36364	5.e-002	13.362
17151	15.78	0.63636	0.	58.256
17152	15.871	0.54545	0.	50.052
17153	15.78	0.54545	5.e-002	13.128
17154	15.78	0.81818	0.	66.444
17155	15.871	0.72727	0.	54.498
17156	15.78	0.72727	5.e-002	13.117
17157	15.78	1.	0.	71.277
17158	15.871	0.90909	0.	56.413
17159	15.78	0.90909	5.e-002	13.082
17160	15.78	1.1818	0.	68.133
17161	15.871	1.0909	0.	52.749
17162	15.78	1.0909	5.e-002	13.018
17163	15.78	1.3636	0.	52.198
17164	15.871	1.2727	0.	39.961
17165	15.78	1.2727	5.e-002	13.099
17166	15.78	1.5455	0.	22.976
17167	15.871	1.4545	0.	17.707
17168	15.78	1.4545	5.e-002	13.743
17169	15.78	1.7273	0.	4.4367
17170	15.871	1.6364	0.	4.1327
17171	15.78	1.6364	5.e-002	15.512
17172	15.78	1.9091	0.	1.3152
17173	15.871	1.8182	0.	1.574
17174	15.78	1.8182	5.e-002	18.381
17175	15.78	2.0909	0.	0.42246
17176	15.871	2.	0.	0.68545
17177	15.78	2.	5.e-002	21.561
17178	15.78	2.2727	0.	0.45129
17179	15.871	2.1818	0.	0.42848
17180	15.78	2.1818	5.e-002	24.568
17181	15.78	2.4545	0.	0.68545
17182	15.871	2.3636	0.	0.56246
17183	15.78	2.3636	5.e-002	26.94
17184	15.78	2.6364	0.	0.71524
17185	15.871	2.5455	0.	0.60874
17186	15.78	2.5455	5.e-002	28.167
17187	15.78	2.8182	0.	0.6987
17188	15.871	2.7273	0.	0.62676
17189	15.78	2.7273	5.e-002	28.387
17190	15.78	3.	0.	0.69006
17191	15.871	2.9091	0.	0.63122
17192	15.78	2.9091	5.e-002	28.27
17193	15.78	3.1818	0.	0.6987
17194	15.871	3.0909	0.	0.63122
17195	15.78	3.0909	5.e-002	28.27
17196	15.78	3.3636	0.	0.71524
17197	15.871	3.2727	0.	0.62676
17198	15.78	3.2727	5.e-002	28.387
17199	15.78	3.5455	0.	0.68545
17200	15.871	3.4545	0.	0.60875
17201	15.78	3.4545	5.e-002	28.167
17202	15.78	3.7273	0.	0.45129
17203	15.871	3.6364	0.	0.56246
17204	15.78	3.6364	5.e-002	26.94
17205	15.78	3.9091	0.	0.42247
17206	15.871	3.8182	0.	0.42849
17207	15.78	3.8182	5.e-002	24.568
17208	15.78	4.0909	0.	1.3152
17209	15.871	4.	0.	0.68545
17210	15.78	4.	5.e-002	21.561
17211	15.78	4.2727	0.	4.4368
17212	15.871	4.1818	0.	1.574
17213	15.78	4.1818	5.e-002	18.381
17214	15.78	4.4545	0.	22.976
17215	15.871	4.3636	0.	4.1327
17216	15.78	4.3636	5.e-002	15.512
17217	15.78	4.6364	0.	52.198
17218	15.871	4.5455	0.	17.707
17219	15.78	4.5455	5.e-002	13.743
17220	15.78	4.8182	0.	68.133
17221	15.871	4.7273	0.	39.961
17222	15.78	4.7273	5.e-002	13.099
17223	15.78	5.	0.	71.277
17224	15.871	4.9091	0.	52.749
17225	15.78	4.9091	5.e-002	13.018
17226	15.78	5.1818	0.	66.444
17227	15.871	5.0909	0.	56.413
17228	15.78	5.0909	5.e-002	13.082
17229	15.78	5.3636	0.	58.256
17230	15.871	5.2727	0.	54.498
17231	15.78	5.2727	5.e-002	13.117
17232	15.78	5.5455	0.	49.967
17233	15.871	5.4545	0.	50.052
17234	15.78	5.4545	5.e-002	13.128
17235	15.78	5.7273	0.	44.349
17236	15.871	5.6364	0.	44.721
17237	15.78	5.6364	5.e-002	13.362
17238	15.871	5.8182	0.	40.852
17239	15.78	5.8182	5.e-002	17.421
17240	15.78	5.9091	0.	23.59
17241	15.963	0.27273	0.	41.816
17242	16.054	0.18182	0.	37.516
17243	15.963	0.18182	5.e-002	14.678
17244	15.963	9.0909e-002	0.	22.432
17245	15.963	0.45455	0.	45.775
17246	16.054	0.36364	0.	41.888
17247	15.963	0.36364	5.e-002	10.657
17248	15.963	0.63636	0.	48.051
17249	16.054	0.54545	0.	44.047
17250	15.963	0.54545	5.e-002	10.336
17251	15.963	0.81818	0.	47.045
17252	16.054	0.72727	0.	42.376
17253	15.963	0.72727	5.e-002	10.216
17254	15.963	1.	0.	41.132
17255	16.054	0.90909	0.	36.29
17256	15.963	0.90909	5.e-002	10.091
17257	15.963	1.1818	0.	28.338
17258	16.054	1.0909	0.	24.693
17259	15.963	1.0909	5.e-002	10.052
17260	15.963	1.3636	0.	10.81
17261	16.054	1.2727	0.	9.5948
17262	15.963	1.2727	5.e-002	10.337
17263	15.963	1.5455	0.	3.1262
17264	16.054	1.4545	0.	2.92
17265	15.963	1.4545	5.e-002	11.266
17266	15.963	1.7273	0.	1.4379
17267	16.054	1.6364	0.	1.403
17268	15.963	1.6364	5.e-002	12.944
17269	15.963	1.9091	0.	0.84574
17270	16.054	1.8182	0.	0.81828
17271	15.963	1.8182	5.e-002	15.132
17272	15.963	2.0909	0.	0.61231
17273	16.054	2.	0.	0.56049
17274	15.963	2.	5.e-002	17.489
17275	15.963	2.2727	0.	0.49907
17276	16.054	2.1818	0.	0.44705
17277	15.963	2.1818	5.e-002	19.788
17278	15.963	2.4545	0.	0.47951
17279	16.054	2.3636	0.	0.40766
17280	15.963	2.3636	5.e-002	21.788
17281	15.963	2.6364	0.	0.52831
17282	16.054	2.5455	0.	0.44491
17283	15.963	2.5455	5.e-002	23.231
17284	15.963	2.8182	0.	0.56343
17285	16.054	2.7273	0.	0.48914
17286	15.963	2.7273	5.e-002	24.038
17287	15.963	3.	0.	0.57168
17288	16.054	2.9091	0.	0.5091
17289	15.963	2.9091	5.e-002	24.361
17290	15.963	3.1818	0.	0.56343
17291	16.054	3.0909	0.	0.5091
17292	15.963	3.0909	5.e-002	24.361
17293	15.963	3.3636	0.	0.52831
17294	16.054	3.2727	0.	0.48914
17295	15.963	3.2727	5.e-002	24.038
17296	15.963	3.5455	0.	0.47951
17297	16.054	3.4545	0.	0.44491
17298	15.963	3.4545	5.e-002	23.231
17299	15.963	3.7273	0.	0.49907
17300	16.054	3.6364	0.	0.40766
17301	15.963	3.6364	5.e-002	21.788
17302	15.963	3.9091	0.	0.61231
17303	16.054	3.8182	0.	0.44705
17304	15.963	3.8182	5.e-002	19.788
17305	15.963	4.0909	0.	0.84574
17306	16.054	4.	0.	0.56049
17307	15.963	4.	5.e-002	17.489
17308	15.963	4.2727	0.	1.4379
17309	16.054	4.1818	0.	0.81828
17310	15.963	4.1818	5.e-002	15.132
17311	15.963	4.4545	0.	3.1262
17312	16.054	4.3636	0.	1.403
17313	15.963	4.3636	5.e-002	12.944
17314	15.963	4.6364	0.	10.81
17315	16.054	4.5455	0.	2.92
17316	15.963	4.5455	5.e-002	11.266
17317	15.963	4.8182	0.	28.338
17318	16.054	4.7273	0.	9.595
17319	15.963	4.7273	5.e-002	10.337
17320	15.963	5.	0.	41.132
17321	16.054	4.9091	0.	24.694
17322	15.963	4.9091	5.e-002	10.052
17323	15.963	5.1818	0.	47.045
17324	16.054	5.0909	0.	36.29
17325	15.963	5.0909	5.e-002	10.091
17326	15.963	5.3636	0.	48.051
17327	16.054	5.2727	0.	42.376
17328	15.963	5.2727	5.e-002	10.216
17329	15.963	5.5455	0.	45.775
17330	16.054	5.4545	0.	44.047
17331	15.963	5.4545	5.e-002	10.336
17332	15.963	5.7273	0.	41.816
17333	16.054	5.6364	0.	41.888
17334	15.963	5.6364	5.e-002	10.657
17335	16.054	5.8182	0.	37.516
17336	15.963	5.8182	5.e-002	14.678
17337	15.963	5.9091	0.	22.432
17338	16.145	0.27273	0.	37.999
17339	16.237	0.18182	0.	33.477
17340	16.145	0.18182	5.e-002	12.072
17341	16.145	9.0909e-002	0.	20.518
17342	16.145	0.45455	0.	40.762
17343	16.237	0.36364	0.	37.731
17344	16.145	0.36364	5.e-002	8.186
17345	16.145	0.63636	0.	39.39
17346	16.237	0.54545	0.	37.813
17347	16.145	0.54545	5.e-002	7.8574
17348	16.145	0.81818	0.	33.055
17349	16.237	0.72727	0.	32.558
17350	16.145	0.72727	5.e-002	7.7625
17351	16.145	1.	0.	21.564
17352	16.237	0.90909	0.	22.195
17353	16.145	0.90909	5.e-002	7.7403
17354	16.145	1.1818	0.	7.7578
17355	16.237	1.0909	0.	8.6739
17356	16.145	1.0909	5.e-002	7.9146
17357	16.145	1.3636	0.	2.4181
17358	16.237	1.2727	0.	2.4509
17359	16.145	1.2727	5.e-002	8.4735
17360	16.145	1.5455	0.	1.2181
17361	16.237	1.4545	0.	1.2038
17362	16.145	1.4545	5.e-002	9.542
17363	16.145	1.7273	0.	0.74217
17364	16.237	1.6364	0.	0.74604
17365	16.145	1.6364	5.e-002	11.066
17366	16.145	1.9091	0.	0.49027
17367	16.237	1.8182	0.	0.50708
17368	16.145	1.8182	5.e-002	12.848
17369	16.145	2.0909	0.	0.36224
17370	16.237	2.	0.	0.36819
17371	16.145	2.	5.e-002	14.699
17372	16.145	2.2727	0.	0.33584
17373	16.237	2.1818	0.	0.30923
17374	16.145	2.1818	5.e-002	16.501
17375	16.145	2.4545	0.	0.36524
17376	16.237	2.3636	0.	0.31286
17377	16.145	2.3636	5.e-002	18.131
17378	16.145	2.6364	0.	0.40464
17379	16.237	2.5455	0.	0.34161
17380	16.145	2.5455	5.e-002	19.435
17381	16.145	2.8182	0.	0.43527
17382	16.237	2.7273	0.	0.37315
17383	16.145	2.7273	5.e-002	20.306
17384	16.145	3.	0.	0.4468
17385	16.237	2.9091	0.	0.39286
17386	16.145	2.9091	5.e-002	20.729
17387	16.145	3.1818	0.	0.43527
17388	16.237	3.0909	0.	0.39286
17389	16.145	3.0909	5.e-002	20.729
17390	16.145	3.3636	0.	0.40464
17391	16.237	3.2727	0.	0.37315
17392	16.145	3.2727	5.e-002	20.306
17393	16.145	3.5455	0.	0.36524
17394	16.237	3.4545	0.	0.34161
17395	16.145	3.4545	5.e-002	19.435
17396	16.145	3.7273	0.	0.33584
17397	16.237	3.6364	0.	0.31286
17398	16.145	3.6364	5.e-002	18.131
17399	16.145	3.9091	0.	0.36224
17400	16.237	3.8182	0.	0.30923
17401	16.145	3.8182	5.e-002	16.501
17402	16.145	4.0909	0.	0.49028
17403	16.237	4.	0.	0.3682
17404	16.145	4.	5.e-002	14.699
17405	16.145	4.2727	0.	0.74217
17406	16.237	4.1818	0.	0.50708
17407	16.145	4.1818	5.e-002	12.848
17408	16.145	4.4545	0.	1.2181
17409	16.237	4.3636	0.	0.74605
17410	16.145	4.3636	5.e-002	11.066
17411	16.145	4.6364	0.	2.4181
17412	16.237	4.5455	0.	1.2038
17413	16.145	4.5455	5.e-002	9.542
17414	16.145	4.8182	0.	7.7579
17415	16.237	4.7273	0.	2.4509
17416	16.145	4.7273	5.e-002	8.4735
17417	16.145	5.	0.	21.564
17418	16.237	4.9091	0.	8.6741
17419	16.145	4.9091	5.e-002	7.9146
17420	16.145	5.1818	0.	33.055
17421	16.237	5.0909	0.	22.196
17422	16.145	5.0909	5.e-002	7.7403
17423	16.145	5.3636	0.	39.39
17424	16.237	5.2727	0.	32.558
17425	16.145	5.2727	5.e-002	7.7625
17426	16.145	5.5455	0.	40.762
17427	16.237	5.4545	0.	37.813
17428	16.145	5.4545	5.e-002	7.8574
17429	16.145	5.7273	0.	37.999
17430	16.237	5.6364	0.	37.731
17431	16.145	5.6364	5.e-002	8.186
17432	16.237	5.8182	0.	33.477
17433	16.145	5.8182	5.e-002	12.072
17434	16.145	5.9091	0.	20.518
17435	16.328	0.27273	0.	33.481
17436	16.419	0.18182	0.	29.234
17437	16.328	0.18182	5.e-002	9.703
17438	16.328	9.0909e-002	0.	18.267
17439	16.328	0.45455	0.	35.157
17440	16.419	0.36364	0.	32.839
17441	16.328	0.36364	5.e-002	6.0126
17442	16.328	0.63636	0.	31.559
17443	16.419	0.54545	0.	31.453
17444	16.328	0.54545	5.e-002	5.7457
17445	16.328	0.81818	0.	22.39
17446	16.419	0.72727	0.	24.205
17447	16.328	0.72727	5.e-002	5.7738
17448	16.328	1.	0.	9.2783
17449	16.419	0.90909	0.	12.111
17450	16.328	0.90909	5.e-002	5.9584
17451	16.328	1.1818	0.	2.3249
17452	16.419	1.0909	0.	2.7652
17453	16.328	1.0909	5.e-002	6.3958
17454	16.328	1.3636	0.	1.1009
17455	16.419	1.2727	0.	1.1246
17456	16.328	1.2727	5.e-002	7.1733
17457	16.328	1.5455	0.	0.69243
17458	16.419	1.4545	0.	0.68753
17459	16.328	1.4545	5.e-002	8.2909
17460	16.328	1.7273	0.	0.48422
17461	16.419	1.6364	0.	0.4808
17462	16.328	1.6364	5.e-002	9.6545
17463	16.328	1.9091	0.	0.3633
17464	16.419	1.8182	0.	0.35819
17465	16.328	1.8182	5.e-002	11.135
17466	16.328	2.0909	0.	0.29845
17467	16.419	2.	0.	0.28548
17468	16.328	2.	5.e-002	12.63
17469	16.328	2.2727	0.	0.27508
17470	16.419	2.1818	0.	0.25059
17471	16.328	2.1818	5.e-002	14.07
17472	16.328	2.4545	0.	0.28322
17473	16.419	2.3636	0.	0.24584
17474	16.328	2.3636	5.e-002	15.378
17475	16.328	2.6364	0.	0.30762
17476	16.419	2.5455	0.	0.26167
17477	16.328	2.5455	5.e-002	16.459
17478	16.328	2.8182	0.	0.32984
17479	16.419	2.7273	0.	0.28267
17480	16.328	2.7273	5.e-002	17.221
17481	16.328	3.	0.	0.33839
17482	16.419	2.9091	0.	0.29625
17483	16.328	2.9091	5.e-002	17.612
17484	16.328	3.1818	0.	0.32984
17485	16.419	3.0909	0.	0.29625
17486	16.328	3.0909	5.e-002	17.612
17487	16.328	3.3636	0.	0.30762
17488	16.419	3.2727	0.	0.28267
17489	16.328	3.2727	5.e-002	17.221
17490	16.328	3.5455	0.	0.28322
17491	16.419	3.4545	0.	0.26167
17492	16.328	3.4545	5.e-002	16.459
17493	16.328	3.7273	0.	0.27508
17494	16.419	3.6364	0.	0.24584
17495	16.328	3.6364	5.e-002	15.378
17496	16.328	3.9091	0.	0.29845
17497	16.419	3.8182	0.	0.25059
17498	16.328	3.8182	5.e-002	14.07
17499	16.328	4.0909	0.	0.3633
17500	16.419	4.	0.	0.28548
17501	16.328	4.	5.e-002	12.63
17502	16.328	4.2727	0.	0.48422
17503	16.419	4.1818	0.	0.35819
17504	16.328	4.1818	5.e-002	11.135
17505	16.328	4.4545	0.	0.69243
17506	16.419	4.3636	0.	0.4808
17507	16.328	4.3636	5.e-002	9.6545
17508	16.328	4.6364	0.	1.1009
17509	16.419	4.5455	0.	0.68753
17510	16.328	4.5455	5.e-002	8.2909
17511	16.328	4.8182	0.	2.3249
17512	16.419	4.7273	0.	1.1246
17513	16.328	4.7273	5.e-002	7.1733
17514	16.328	5.	0.	9.2784
17515	16.419	4.9091	0.	2.7652
17516	16.328	4.9091	5.e-002	6.3958
17517	16.328	5.1818	0.	22.39
17518	16.419	5.0909	0.	12.111
17519	16.328	5.0909	5.e-002	5.9583
17520	16.328	5.3636	0.	31.559
17521	16.419	5.2727	0.	24.205
17522	16.328	5.2727	5.e-002	5.7738
17523	16.328	5.5455	0.	35.157
17524	16.419	5.4545	0.	31.453
17525	16.328	5.4545	5.e-002	5.7457
17526	16.328	5.7273	0.	33.481
17527	16.419	5.6364	0.	32.839
17528	16.328	5.6364	5.e-002	6.0126
17529	16.419	5.8182	0.	29.234
17530	16.328	5.8182	5.e-002	9.703
17531	16.328	5.9091	0.	18.267
17532	16.511	0.27273	0.	28.759
17533	16.602	0.18182	0.	25.131
17534	16.511	0.18182	5.e-002	7.6222
17535	16.511	9.0909e-002	0.	15.964
17536	16.511	0.45455	0.	29.361
17537	16.602	0.36364	0.	27.732
17538	16.511	0.36364	5.e-002	4.1581
17539	16.511	0.63636	0.	24.401
17540	16.602	0.54545	0.	25.243
17541	16.511	0.54545	5.e-002	4.0173
17542	16.511	0.81818	0.	13.993
17543	16.602	0.72727	0.	16.993
17544	16.511	0.72727	5.e-002	4.2421
17545	16.511	1.	0.	3.2636
17546	16.602	0.90909	0.	5.3063
17547	16.511	0.90909	5.e-002	4.6771
17548	16.511	1.1818	0.	1.0919
17549	16.602	1.0909	0.	1.2239
17550	16.511	1.0909	5.e-002	5.349
17551	16.511	1.3636	0.	0.64401
17552	16.602	1.2727	0.	0.65283
17553	16.511	1.2727	5.e-002	6.257
17554	16.511	1.5455	0.	0.4506
17555	16.602	1.4545	0.	0.44712
17556	16.511	1.4545	5.e-002	7.3539
17557	16.511	1.7273	0.	0.33858
17558	16.602	1.6364	0.	0.33526
17559	16.511	1.6364	5.e-002	8.5632
17560	16.511	1.9091	0.	0.26789
17561	16.602	1.8182	0.	0.26393
17562	16.511	1.8182	5.e-002	9.8085
17563	16.511	2.0909	0.	0.22795
17564	16.602	2.	0.	0.21891
17565	16.511	2.	5.e-002	11.032
17566	16.511	2.2727	0.	0.21442
17567	16.602	2.1818	0.	0.19655
17568	16.511	2.1818	5.e-002	12.189
17569	16.511	2.4545	0.	0.2199
17570	16.602	2.3636	0.	0.19307
17571	16.511	2.3636	5.e-002	13.232
17572	16.511	2.6364	0.	0.23422
17573	16.602	2.5455	0.	0.2014
17574	16.511	2.5455	5.e-002	14.096
17575	16.511	2.8182	0.	0.24766
17576	16.602	2.7273	0.	0.21334
17577	16.511	2.7273	5.e-002	14.714
17578	16.511	3.	0.	0.25303
17579	16.602	2.9091	0.	0.22148
17580	16.511	2.9091	5.e-002	15.037
17581	16.511	3.1818	0.	0.24766
17582	16.602	3.0909	0.	0.22148
17583	16.511	3.0909	5.e-002	15.037
17584	16.511	3.3636	0.	0.23422
17585	16.602	3.2727	0.	0.21334
17586	16.511	3.2727	5.e-002	14.714
17587	16.511	3.5455	0.	0.2199
17588	16.602	3.4545	0.	0.2014
17589	16.511	3.4545	5.e-002	14.096
17590	16.511	3.7273	0.	0.21442
17591	16.602	3.6364	0.	0.19307
17592	16.511	3.6364	5.e-002	13.232
17593	16.511	3.9091	0.	0.22795
17594	16.602	3.8182	0.	0.19655
17595	16.511	3.8182	5.e-002	12.189
17596	16.511	4.0909	0.	0.26789
17597	16.602	4.	0.	0.21891
17598	16.511	4.	5.e-002	11.032
17599	16.511	4.2727	0.	0.33858
17600	16.602	4.1818	0.	0.26393
17601	16.511	4.1818	5.e-002	9.8085
17602	16.511	4.4545	0.	0.4506
17603	16.602	4.3636	0.	0.33526
17604	16.511	4.3636	5.e-002	8.5632
17605	16.511	4.6364	0.	0.64401
17606	16.602	4.5455	0.	0.44712
17607	16.511	4.5455	5.e-002	7.3539
17608	16.511	4.8182	0.	1.0919
17609	16.602	4.7273	0.	0.65283
17610	16.511	4.7273	5.e-002	6.257
17611	16.511	5.	0.	3.2636
17612	16.602	4.9091	0.	1.2239
17613	16.511	4.9091	5.e-002	5.349
17614	16.511	5.1818	0.	13.993
17615	16.602	5.0909	0.	5.3064
17616	16.511	5.0909	5.e-002	4.6771
17617	16.511	5.3636	0.	24.401
17618	16.602	5.2727	0.	16.993
17619	16.511	5.2727	5.e-002	4.2421
17620	16.511	5.5455	0.	29.361
17621	16.602	5.4545	0.	25.243
17622	16.511	5.4545	5.e-002	4.0173
17623	16.511	5.7273	0.	28.759
17624	16.602	5.6364	0.	27.732
17625	16.511	5.6364	5.e-002	4.1581
17626	16.602	5.8182	0.	25.131
17627	16.511	5.8182	5.e-002	7.6222
17628	16.511	5.9091	0.	15.964
17629	16.693	0.27273	0.	24.193
17630	16.785	0.18182	0.	21.381
17631	16.693	0.18182	5.e-002	5.8422
17632	16.693	9.0909e-002	0.	13.789
17633	16.693	0.45455	0.	23.74
17634	16.785	0.36364	0.	22.796
17635	16.693	0.36364	5.e-002	2.6241
17636	16.693	0.63636	0.	17.95
17637	16.785	0.54545	0.	19.445
17638	16.693	0.54545	5.e-002	2.6922
17639	16.693	0.81818	0.	7.4365
17640	16.785	0.72727	0.	10.828
17641	16.693	0.72727	5.e-002	3.1716
17642	16.693	1.	0.	1.3417
17643	16.785	0.90909	0.	1.9623
17644	16.693	0.90909	5.e-002	3.8431
17645	16.693	1.1818	0.	0.63018
17646	16.785	1.0909	0.	0.67263
17647	16.693	1.0909	5.e-002	4.6697
17648	16.693	1.3636	0.	0.42146
17649	16.785	1.2727	0.	0.42177
17650	16.693	1.2727	5.e-002	5.6181
17651	16.693	1.5455	0.	0.31625
17652	16.785	1.4545	0.	0.31154
17653	16.693	1.4545	5.e-002	6.6461
17654	16.693	1.7273	0.	0.25045
17655	16.785	1.6364	0.	0.24569
17656	16.693	1.6364	5.e-002	7.7066
17657	16.693	1.9091	0.	0.20719
17658	16.785	1.8182	0.	0.20146
17659	16.693	1.8182	5.e-002	8.7568
17660	16.693	2.0909	0.	0.18143
17661	16.785	2.	0.	0.17252
17662	16.693	2.	5.e-002	9.763
17663	16.693	2.2727	0.	0.17061
17664	16.785	2.1818	0.	0.15674
17665	16.693	2.1818	5.e-002	10.697
17666	16.693	2.4545	0.	0.17133
17667	16.785	2.3636	0.	0.15212
17668	16.693	2.3636	5.e-002	11.526
17669	16.693	2.6364	0.	0.17835
17670	16.785	2.5455	0.	0.1552
17671	16.693	2.5455	5.e-002	12.207
17672	16.693	2.8182	0.	0.18564
17673	16.785	2.7273	0.	0.16115
17674	16.693	2.7273	5.e-002	12.694
17675	16.693	3.	0.	0.18863
17676	16.785	2.9091	0.	0.16547
17677	16.693	2.9091	5.e-002	12.948
17678	16.693	3.1818	0.	0.18564
17679	16.785	3.0909	0.	0.16547
17680	16.693	3.0909	5.e-002	12.948
17681	16.693	3.3636	0.	0.17835
17682	16.785	3.2727	0.	0.16115
17683	16.693	3.2727	5.e-002	12.694
17684	16.693	3.5455	0.	0.17133
17685	16.785	3.4545	0.	0.1552
17686	16.693	3.4545	5.e-002	12.207
17687	16.693	3.7273	0.	0.17061
17688	16.785	3.6364	0.	0.15212
17689	16.693	3.6364	5.e-002	11.526
17690	16.693	3.9091	0.	0.18143
17691	16.785	3.8182	0.	0.15674
17692	16.693	3.8182	5.e-002	10.697
17693	16.693	4.0909	0.	0.20719
17694	16.785	4.	0.	0.17252
17695	16.693	4.	5.e-002	9.763
17696	16.693	4.2727	0.	0.25045
17697	16.785	4.1818	0.	0.20146
17698	16.693	4.1818	5.e-002	8.7568
17699	16.693	4.4545	0.	0.31626
17700	16.785	4.3636	0.	0.24569
17701	16.693	4.3636	5.e-002	7.7067
17702	16.693	4.6364	0.	0.42146
17703	16.785	4.5455	0.	0.31154
17704	16.693	4.5455	5.e-002	6.6461
17705	16.693	4.8182	0.	0.63019
17706	16.785	4.7273	0.	0.42177
17707	16.693	4.7273	5.e-002	5.6181
17708	16.693	5.	0.	1.3417
17709	16.785	4.9091	0.	0.67263
17710	16.693	4.9091	5.e-002	4.6697
17711	16.693	5.1818	0.	7.4366
17712	16.785	5.0909	0.	1.9623
17713	16.693	5.0909	5.e-002	3.8431
17714	16.693	5.3636	0.	17.95
17715	16.785	5.2727	0.	10.828
17716	16.693	5.2727	5.e-002	3.1716
17717	16.693	5.5455	0.	23.74
17718	16.785	5.4545	0.	19.445
17719	16.693	5.4545	5.e-002	2.6922
17720	16.693	5.7273	0.	24.193
17721	16.785	5.6364	0.	22.796
17722	16.693	5.6364	5.e-002	2.6241
17723	16.785	5.8182	0.	21.381
17724	16.693	5.8182	5.e-002	5.8421
17725	16.693	5.9091	0.	13.789
17726	16.876	0.27273	0.	20.015
17727	16.967	0.18182	0.	18.095
17728	16.876	0.18182	5.e-002	4.3514
17729	16.876	9.0909e-002	0.	11.843
17730	16.876	0.45455	0.	18.557
17731	16.967	0.36364	0.	18.279
17732	16.876	0.36364	5.e-002	1.4336
17733	16.876	0.63636	0.	12.283
17734	16.967	0.54545	0.	14.248
17735	16.876	0.54545	5.e-002	1.8504
17736	16.876	0.81818	0.	2.9628
17737	16.967	0.72727	0.	5.7607
17738	16.876	0.72727	5.e-002	2.5799
17739	16.876	1.	0.	0.68875
17740	16.967	0.90909	0.	0.84945
17741	16.876	0.90909	5.e-002	3.3959
17742	16.876	1.1818	0.	0.40177
17743	16.967	1.0909	0.	0.413
17744	16.876	1.0909	5.e-002	4.27
17745	16.876	1.3636	0.	0.29285
17746	16.967	1.2727	0.	0.28913
17747	16.876	1.2727	5.e-002	5.1827
17748	16.876	1.5455	0.	0.23125
17749	16.967	1.4545	0.	0.22604
17750	16.876	1.4545	5.e-002	6.111
17751	16.876	1.7273	0.	0.19011
17752	16.967	1.6364	0.	0.18523
17753	16.876	1.6364	5.e-002	7.0291
17754	16.876	1.9091	0.	0.16172
17755	16.967	1.8182	0.	0.15639
17756	16.876	1.8182	5.e-002	7.913
17757	16.876	2.0909	0.	0.14379
17758	16.967	2.	0.	0.13656
17759	16.876	2.	5.e-002	8.7423
17760	16.876	2.2727	0.	0.13509
17761	16.967	2.1818	0.	0.12477
17762	16.876	2.1818	5.e-002	9.498
17763	16.876	2.4545	0.	0.13358
17764	16.967	2.3636	0.	0.11991
17765	16.876	2.3636	5.e-002	10.157
17766	16.876	2.6364	0.	0.1362
17767	16.967	2.5455	0.	0.11997
17768	16.876	2.5455	5.e-002	10.692
17769	16.876	2.8182	0.	0.13957
17770	16.967	2.7273	0.	0.12225
17771	16.876	2.7273	5.e-002	11.072
17772	16.876	3.	0.	0.14103
17773	16.967	2.9091	0.	0.12417
17774	16.876	2.9091	5.e-002	11.269
17775	16.876	3.1818	0.	0.13957
17776	16.967	3.0909	0.	0.12417
17777	16.876	3.0909	5.e-002	11.269
17778	16.876	3.3636	0.	0.1362
17779	16.967	3.2727	0.	0.12225
17780	16.876	3.2727	5.e-002	11.072
17781	16.876	3.5455	0.	0.13358
17782	16.967	3.4545	0.	0.11997
17783	16.876	3.4545	5.e-002	10.692
17784	16.876	3.7273	0.	0.13509
17785	16.967	3.6364	0.	0.11991
17786	16.876	3.6364	5.e-002	10.158
17787	16.876	3.9091	0.	0.14379
17788	16.967	3.8182	0.	0.12477
17789	16.876	3.8182	5.e-002	9.498
17790	16.876	4.0909	0.	0.16172
17791	16.967	4.	0.	0.13656
17792	16.876	4.	5.e-002	8.7423
17793	16.876	4.2727	0.	0.19011
17794	16.967	4.1818	0.	0.15639
17795	16.876	4.1818	5.e-002	7.913
17796	16.876	4.4545	0.	0.23125
17797	16.967	4.3636	0.	0.18523
17798	16.876	4.3636	5.e-002	7.0291
17799	16.876	4.6364	0.	0.29285
17800	16.967	4.5455	0.	0.22604
17801	16.876	4.5455	5.e-002	6.111
17802	16.876	4.8182	0.	0.40177
17803	16.967	4.7273	0.	0.28913
17804	16.876	4.7273	5.e-002	5.1827
17805	16.876	5.	0.	0.68875
17806	16.967	4.9091	0.	0.413
17807	16.876	4.9091	5.e-002	4.27
17808	16.876	5.1818	0.	2.9628
17809	16.967	5.0909	0.	0.84946
17810	16.876	5.0909	5.e-002	3.3959
17811	16.876	5.3636	0.	12.283
17812	16.967	5.2727	0.	5.7607
17813	16.876	5.2727	5.e-002	2.5799
17814	16.876	5.5455	0.	18.557
17815	16.967	5.4545	0.	14.248
17816	16.876	5.4545	5.e-002	1.8504
17817	16.876	5.7273	0.	20.015
17818	16.967	5.6364	0.	18.279
17819	16.876	5.6364	5.e-002	1.4336
17820	16.967	5.8182	0.	18.095
17821	16.876	5.8182	5.e-002	4.3514
17822	16.876	5.9091	0.	11.843
17823	17.059	0.27273	0.	16.351
17824	17.15	0.18182	0.	15.318
17825	17.059	0.18182	5.e-002	3.1247
17826	17.059	9.0909e-002	0.	10.175
17827	17.059	0.45455	0.	13.977
17828	17.15	0.36364	0.	14.322
17829	17.059	0.36364	5.e-002	0.81504
17830	17.059	0.63636	0.	7.4717
17831	17.15	0.54545	0.	9.7647
17832	17.059	0.54545	5.e-002	1.6197
17833	17.059	0.81818	0.	1.0489
17834	17.15	0.72727	0.	2.1726
17835	17.059	0.72727	5.e-002	2.4276
17836	17.059	1.	0.	0.40289
17837	17.15	0.90909	0.	0.4455
17838	17.059	0.90909	5.e-002	3.2438
17839	17.059	1.1818	0.	0.27156
17840	17.15	1.0909	0.	0.27099
17841	17.059	1.0909	5.e-002	4.069
17842	17.059	1.3636	0.	0.21135
17843	17.15	1.2727	0.	0.206
17844	17.059	1.2727	5.e-002	4.8947
17845	17.059	1.5455	0.	0.1738
17846	17.15	1.4545	0.	0.16855
17847	17.059	1.4545	5.e-002	5.7075
17848	17.059	1.7273	0.	0.14714
17849	17.15	1.6364	0.	0.14245
17850	17.059	1.6364	5.e-002	6.4917
17851	17.059	1.9091	0.	0.12781
17852	17.15	1.8182	0.	0.12301
17853	17.059	1.8182	5.e-002	7.2322
17854	17.059	2.0909	0.	0.11475
17855	17.15	2.	0.	0.1089
17856	17.059	2.	5.e-002	7.9155
17857	17.059	2.2727	0.	0.10733
17858	17.15	2.1818	0.	9.9685e-002
17859	17.059	2.1818	5.e-002	8.5281
17860	17.059	2.4545	0.	0.10449
17861	17.15	2.3636	0.	9.4811e-002
17862	17.059	2.3636	5.e-002	9.0544
17863	17.059	2.6364	0.	0.10455
17864	17.15	2.5455	0.	9.3207e-002
17865	17.059	2.5455	5.e-002	9.4755
17866	17.059	2.8182	0.	0.10561
17867	17.15	2.7273	0.	9.3392e-002
17868	17.059	2.7273	5.e-002	9.7711
17869	17.059	3.	0.	0.10616
17870	17.15	2.9091	0.	9.3927e-002
17871	17.059	2.9091	5.e-002	9.924
17872	17.059	3.1818	0.	0.10561
17873	17.15	3.0909	0.	9.3926e-002
17874	17.059	3.0909	5.e-002	9.924
17875	17.059	3.3636	0.	0.10455
17876	17.15	3.2727	0.	9.3392e-002
17877	17.059	3.2727	5.e-002	9.7711
17878	17.059	3.5455	0.	0.10449
17879	17.15	3.4545	0.	9.3207e-002
17880	17.059	3.4545	5.e-002	9.4755
17881	17.059	3.7273	0.	0.10733
17882	17.15	3.6364	0.	9.481e-002
17883	17.059	3.6364	5.e-002	9.0544
17884	17.059	3.9091	0.	0.11475
17885	17.15	3.8182	0.	9.9685e-002
17886	17.059	3.8182	5.e-002	8.5281
17887	17.059	4.0909	0.	0.12781
17888	17.15	4.	0.	0.1089
17889	17.059	4.	5.e-002	7.9155
17890	17.059	4.2727	0.	0.14714
17891	17.15	4.1818	0.	0.12301
17892	17.059	4.1818	5.e-002	7.2322
17893	17.059	4.4545	0.	0.1738
17894	17.15	4.3636	0.	0.14245
17895	17.059	4.3636	5.e-002	6.4917
17896	17.059	4.6364	0.	0.21135
17897	17.15	4.5455	0.	0.16855
17898	17.059	4.5455	5.e-002	5.7075
17899	17.059	4.8182	0.	0.27156
17900	17.15	4.7273	0.	0.206
17901	17.059	4.7273	5.e-002	4.8947
17902	17.059	5.	0.	0.40289
17903	17.15	4.9091	0.	0.271
17904	17.059	4.9091	5.e-002	4.069
17905	17.059	5.1818	0.	1.0489
17906	17.15	5.0909	0.	0.4455
17907	17.059	5.0909	5.e-002	3.2438
17908	17.059	5.3636	0.	7.4718
17909	17.15	5.2727	0.	2.1726
17910	17.059	5.2727	5.e-002	2.4276
17911	17.059	5.5455	0.	13.977
17912	17.15	5.4545	0.	9.7648
17913	17.059	5.4545	5.e-002	1.6197
17914	17.059	5.7273	0.	16.351
17915	17.15	5.6364	0.	14.322
17916	17.059	5.6364	5.e-002	0.81504
17917	17.15	5.8182	0.	15.318
17918	17.059	5.8182	5.e-002	3.1247
17919	17.059	5.9091	0.	10.175
17920	17.241	0.27273	0.	13.254
17921	17.333	0.18182	0.	13.05
17922	17.241	0.18182	5.e-002	2.131
17923	17.241	9.0909e-002	0.	8.7994
17924	17.241	0.45455	0.	10.079
17925	17.333	0.36364	0.	10.988
17926	17.241	0.36364	5.e-002	1.112
17927	17.241	0.63636	0.	3.6201
17928	17.333	0.54545	0.	6.0495
17929	17.241	0.54545	5.e-002	1.868
17930	17.241	0.81818	0.	0.46893
17931	17.333	0.72727	0.	0.69323
17932	17.241	0.72727	5.e-002	2.5619
17933	17.241	1.	0.	0.25536
17934	17.333	0.90909	0.	0.26359
17935	17.241	0.90909	5.e-002	3.2755
17936	17.241	1.1818	0.	0.19101
17937	17.333	1.0909	0.	0.18622
17938	17.241	1.0909	5.e-002	3.9962
17939	17.241	1.3636	0.	0.15666
17940	17.333	1.2727	0.	0.15098
17941	17.241	1.2727	5.e-002	4.7102
17942	17.241	1.5455	0.	0.13317
17943	17.333	1.4545	0.	0.12826
17944	17.241	1.4545	5.e-002	5.4042
17945	17.241	1.7273	0.	0.11537
17946	17.333	1.6364	0.	0.11119
17947	17.241	1.6364	5.e-002	6.0654
17948	17.241	1.9091	0.	0.10174
17949	17.333	1.8182	0.	9.7707e-002
17950	17.241	1.8182	5.e-002	6.6822
17951	17.241	2.0909	0.	9.1872e-002
17952	17.333	2.	0.	8.7328e-002
17953	17.241	2.	5.e-002	7.2444
17954	17.241	2.2727	0.	8.5519e-002
17955	17.333	2.1818	0.	7.9945e-002
17956	17.241	2.1818	5.e-002	7.7418
17957	17.241	2.4545	0.	8.215e-002
17958	17.333	2.3636	0.	7.5337e-002
17959	17.241	2.3636	5.e-002	8.1633
17960	17.241	2.6364	0.	8.0876e-002
17961	17.333	2.5455	0.	7.2966e-002
17962	17.241	2.5455	5.e-002	8.4964
17963	17.241	2.8182	0.	8.0669e-002
17964	17.333	2.7273	0.	7.2056e-002
17965	17.241	2.7273	5.e-002	8.7279
17966	17.241	3.	0.	8.0704e-002
17967	17.333	2.9091	0.	7.1841e-002
17968	17.241	2.9091	5.e-002	8.8469
17969	17.241	3.1818	0.	8.0668e-002
17970	17.333	3.0909	0.	7.1839e-002
17971	17.241	3.0909	5.e-002	8.8468
17972	17.241	3.3636	0.	8.0876e-002
17973	17.333	3.2727	0.	7.2057e-002
17974	17.241	3.2727	5.e-002	8.7279
17975	17.241	3.5455	0.	8.215e-002
17976	17.333	3.4545	0.	7.2966e-002
17977	17.241	3.4545	5.e-002	8.4964
17978	17.241	3.7273	0.	8.5519e-002
17979	17.333	3.6364	0.	7.5337e-002
17980	17.241	3.6364	5.e-002	8.1633
17981	17.241	3.9091	0.	9.1872e-002
17982	17.333	3.8182	0.	7.9945e-002
17983	17.241	3.8182	5.e-002	7.7418
17984	17.241	4.0909	0.	0.10174
17985	17.333	4.	0.	8.7328e-002
17986	17.241	4.	5.e-002	7.2444
17987	17.241	4.2727	0.	0.11537
17988	17.333	4.1818	0.	9.7707e-002
17989	17.241	4.1818	5.e-002	6.6822
17990	17.241	4.4545	0.	0.13317
17991	17.333	4.3636	0.	0.11119
17992	17.241	4.3636	5.e-002	6.0654
17993	17.241	4.6364	0.	0.15666
17994	17.333	4.5455	0.	0.12826
17995	17.241	4.5455	5.e-002	5.4042
17996	17.241	4.8182	0.	0.19101
17997	17.333	4.7273	0.	0.15098
17998	17.241	4.7273	5.e-002	4.7102
17999	17.241	5.	0.	0.25536
18000	17.333	4.9091	0.	0.18622
18001	17.241	4.9091	5.e-002	3.9962
18002	17.241	5.1818	0.	0.46894
18003	17.333	5.0909	0.	0.26359
18004	17.241	5.0909	5.e-002	3.2755
18005	17.241	5.3636	0.	3.6201
18006	17.333	5.2727	0.	0.69324
18007	17.241	5.2727	5.e-002	2.5619
18008	17.241	5.5455	0.	10.079
18009	17.333	5.4545	0.	6.0495
18010	17.241	5.4545	5.e-002	1.868
18011	17.241	5.7273	0.	13.254
18012	17.333	5.6364	0.	10.988
18013	17.241	5.6364	5.e-002	1.112
18014	17.333	5.8182	0.	13.05
18015	17.241	5.8182	5.e-002	2.131
18016	17.241	5.9091	0.	8.7994
18017	17.424	0.27273	0.	10.729
18018	17.515	0.18182	0.	11.265
18019	17.424	0.18182	5.e-002	1.3389
18020	17.424	9.0909e-002	0.	7.7088
18021	17.424	0.45455	0.	6.887
18022	17.515	0.36364	0.	8.2841
18023	17.424	0.36364	5.e-002	1.6749
18024	17.424	0.63636	0.	1.1399
18025	17.515	0.54545	0.	3.1291
18026	17.424	0.54545	5.e-002	2.2716
18027	17.424	0.81818	0.	0.25419
18028	17.515	0.72727	0.	0.2997
18029	17.424	0.72727	5.e-002	2.8141
18030	17.424	1.	0.	0.17121
18031	17.515	0.90909	0.	0.16888
18032	17.424	0.90909	5.e-002	3.3966
18033	17.424	1.1818	0.	0.13855
18034	17.515	1.0909	0.	0.13267
18035	17.424	1.0909	5.e-002	3.9969
18036	17.424	1.3636	0.	0.11861
18037	17.515	1.2727	0.	0.11326
18038	17.424	1.2727	5.e-002	4.5953
18039	17.424	1.5455	0.	0.10364
18040	17.515	1.4545	0.	9.9287e-002
18041	17.424	1.4545	5.e-002	5.1763
18042	17.424	1.7273	0.	9.1497e-002
18043	17.515	1.6364	0.	8.7905e-002
18044	17.424	1.6364	5.e-002	5.7273
18045	17.424	1.9091	0.	8.1633e-002
18046	17.515	1.8182	0.	7.8345e-002
18047	17.424	1.8182	5.e-002	6.238
18048	17.424	2.0909	0.	7.399e-002
18049	17.515	2.	0.	7.053e-002
18050	17.424	2.	5.e-002	6.6995
18051	17.424	2.2727	0.	6.8549e-002
18052	17.515	2.1818	0.	6.4536e-002
18053	17.424	2.1818	5.e-002	7.1038
18054	17.424	2.4545	0.	6.5099e-002
18055	17.515	2.3636	0.	6.0339e-002
18056	17.424	2.3636	5.e-002	7.4427
18057	17.424	2.6364	0.	6.3216e-002
18058	17.515	2.5455	0.	5.7723e-002
18059	17.424	2.5455	5.e-002	7.7077
18060	17.424	2.8182	0.	6.2377e-002
18061	17.515	2.7273	0.	5.6316e-002
18062	17.424	2.7273	5.e-002	7.8903
18063	17.424	3.	0.	6.2151e-002
18064	17.515	2.9091	0.	5.5736e-002
18065	17.424	2.9091	5.e-002	7.9836
18066	17.424	3.1818	0.	6.2376e-002
18067	17.515	3.0909	0.	5.5735e-002
18068	17.424	3.0909	5.e-002	7.9836
18069	17.424	3.3636	0.	6.3216e-002
18070	17.515	3.2727	0.	5.6317e-002
18071	17.424	3.2727	5.e-002	7.8903
18072	17.424	3.5455	0.	6.5099e-002
18073	17.515	3.4545	0.	5.7723e-002
18074	17.424	3.4545	5.e-002	7.7077
18075	17.424	3.7273	0.	6.8549e-002
18076	17.515	3.6364	0.	6.0339e-002
18077	17.424	3.6364	5.e-002	7.4427
18078	17.424	3.9091	0.	7.3991e-002
18079	17.515	3.8182	0.	6.4536e-002
18080	17.424	3.8182	5.e-002	7.1038
18081	17.424	4.0909	0.	8.1633e-002
18082	17.515	4.	0.	7.053e-002
18083	17.424	4.	5.e-002	6.6995
18084	17.424	4.2727	0.	9.1498e-002
18085	17.515	4.1818	0.	7.8345e-002
18086	17.424	4.1818	5.e-002	6.238
18087	17.424	4.4545	0.	0.10364
18088	17.515	4.3636	0.	8.7906e-002
18089	17.424	4.3636	5.e-002	5.7273
18090	17.424	4.6364	0.	0.11861
18091	17.515	4.5455	0.	9.9286e-002
18092	17.424	4.5455	5.e-002	5.1763
18093	17.424	4.8182	0.	0.13855
18094	17.515	4.7273	0.	0.11326
18095	17.424	4.7273	5.e-002	4.5953
18096	17.424	5.	0.	0.17121
18097	17.515	4.9091	0.	0.13267
18098	17.424	4.9091	5.e-002	3.9969
18099	17.424	5.1818	0.	0.25419
18100	17.515	5.0909	0.	0.16888
18101	17.424	5.0909	5.e-002	3.3966
18102	17.424	5.3636	0.	1.1399
18103	17.515	5.2727	0.	0.2997
18104	17.424	5.2727	5.e-002	2.8141
18105	17.424	5.5455	0.	6.887
18106	17.515	5.4545	0.	3.1292
18107	17.424	5.4545	5.e-002	2.2716
18108	17.424	5.7273	0.	10.729
18109	17.515	5.6364	0.	8.2841
18110	17.424	5.6364	5.e-002	1.6749
18111	17.515	5.8182	0.	11.265
18112	17.424	5.8182	5.e-002	1.3389
18113	17.424	5.9091	0.	7.7088
18114	17.607	0.27273	0.	8.7504
18115	17.698	0.18182	0.	9.9244
18116	17.607	0.18182	5.e-002	0.72258
18117	17.607	9.0909e-002	0.	6.8847
18118	17.607	0.45455	0.	4.3826
18119	17.698	0.36364	0.	6.1831
18120	17.607	0.36364	5.e-002	2.1839
18121	17.607	0.63636	0.	0.35531
18122	17.698	0.54545	0.	1.114
18123	17.607	0.54545	5.e-002	2.6673
18124	17.607	0.81818	0.	0.15497
18125	17.698	0.72727	0.	0.16271
18126	17.607	0.72727	5.e-002	3.0848
18127	17.607	1.	0.	0.11993
18128	17.698	0.90909	0.	0.11471
18129	17.607	0.90909	5.e-002	3.547
18130	17.607	1.1818	0.	0.10315
18131	17.698	1.0909	0.	9.7455e-002
18132	17.607	1.0909	5.e-002	4.0342
18133	17.607	1.3636	0.	9.1467e-002
18134	17.698	1.2727	0.	8.674e-002
18135	17.607	1.2727	5.e-002	4.5253
18136	17.607	1.5455	0.	8.1794e-002
18137	17.698	1.4545	0.	7.8066e-002
18138	17.607	1.4545	5.e-002	5.0045
18139	17.607	1.7273	0.	7.3353e-002
18140	17.698	1.6364	0.	7.0365e-002
18141	17.607	1.6364	5.e-002	5.4592
18142	17.607	1.9091	0.	6.6062e-002
18143	17.698	1.8182	0.	6.3457e-002
18144	17.607	1.8182	5.e-002	5.8795
18145	17.607	2.0909	0.	6.0048e-002
18146	17.698	2.	0.	5.7469e-002
18147	17.607	2.	5.e-002	6.2574
18148	17.607	2.2727	0.	5.542e-002
18149	17.698	2.1818	0.	5.2575e-002
18150	17.607	2.1818	5.e-002	6.5862
18151	17.607	2.4545	0.	5.2153e-002
18152	17.698	2.3636	0.	4.8864e-002
18153	17.607	2.3636	5.e-002	6.8596
18154	17.607	2.6364	0.	5.0086e-002
18155	17.698	2.5455	0.	4.6298e-002
18156	17.607	2.5455	5.e-002	7.0717
18157	17.607	2.8182	0.	4.8985e-002
18158	17.698	2.7273	0.	4.4737e-002
18159	17.607	2.7273	5.e-002	7.2168
18160	17.607	3.	0.	4.8645e-002
18161	17.698	2.9091	0.	4.4013e-002
18162	17.607	2.9091	5.e-002	7.2906
18163	17.607	3.1818	0.	4.8986e-002
18164	17.698	3.0909	0.	4.4013e-002
18165	17.607	3.0909	5.e-002	7.2906
18166	17.607	3.3636	0.	5.0087e-002
18167	17.698	3.2727	0.	4.4737e-002
18168	17.607	3.2727	5.e-002	7.2168
18169	17.607	3.5455	0.	5.2153e-002
18170	17.698	3.4545	0.	4.6298e-002
18171	17.607	3.4545	5.e-002	7.0717
18172	17.607	3.7273	0.	5.5419e-002
18173	17.698	3.6364	0.	4.8863e-002
18174	17.607	3.6364	5.e-002	6.8597
18175	17.607	3.9091	0.	6.0048e-002
18176	17.698	3.8182	0.	5.2574e-002
18177	17.607	3.8182	5.e-002	6.5862
18178	17.607	4.0909	0.	6.6062e-002
18179	17.698	4.	0.	5.7469e-002
18180	17.607	4.	5.e-002	6.2574
18181	17.607	4.2727	0.	7.3354e-002
18182	17.698	4.1818	0.	6.3457e-002
18183	17.607	4.1818	5.e-002	5.8795
18184	17.607	4.4545	0.	8.1794e-002
18185	17.698	4.3636	0.	7.0366e-002
18186	17.607	4.3636	5.e-002	5.4592
18187	17.607	4.6364	0.	9.1466e-002
18188	17.698	4.5455	0.	7.8066e-002
18189	17.607	4.5455	5.e-002	5.0046
18190	17.607	4.8182	0.	0.10315
18191	17.698	4.7273	0.	8.6739e-002
18192	17.607	4.7273	5.e-002	4.5254
18193	17.607	5.	0.	0.11993
18194	17.698	4.9091	0.	9.7456e-002
18195	17.607	4.9091	5.e-002	4.0342
18196	17.607	5.1818	0.	0.15496
18197	17.698	5.0909	0.	0.1147
18198	17.607	5.0909	5.e-002	3.5471
18199	17.607	5.3636	0.	0.35532
18200	17.698	5.2727	0.	0.1627
18201	17.607	5.2727	5.e-002	3.0848
18202	17.607	5.5455	0.	4.3826
18203	17.698	5.4545	0.	1.1141
18204	17.607	5.4545	5.e-002	2.6673
18205	17.607	5.7273	0.	8.7504
18206	17.698	5.6364	0.	6.1831
18207	17.607	5.6364	5.e-002	2.1839
18208	17.698	5.8182	0.	9.9243
18209	17.607	5.8182	5.e-002	0.72258
18210	17.607	5.9091	0.	6.8847
18211	17.789	0.27273	0.	7.2762
18212	17.881	0.18182	0.	8.981
18213	17.789	0.18182	5.e-002	0.2904
18214	17.789	9.0909e-002	0.	6.3024
18215	17.789	0.45455	0.	2.5264
18216	17.881	0.36364	0.	4.6388
18217	17.789	0.36364	5.e-002	2.6032
18218	17.789	0.63636	0.	0.1639
18219	17.881	0.54545	0.	0.30643
18220	17.789	0.54545	5.e-002	3.009
18221	17.789	0.81818	0.	0.10228
18222	17.881	0.72727	0.	0.10065
18223	17.789	0.72727	5.e-002	3.3319
18224	17.789	1.	0.	8.7134e-002
18225	17.881	0.90909	0.	8.1615e-002
18226	17.789	0.90909	5.e-002	3.6953
18227	17.789	1.1818	0.	7.8609e-002
18228	17.881	1.0909	0.	7.3571e-002
18229	17.789	1.0909	5.e-002	4.0851
18230	17.789	1.3636	0.	7.1771e-002
18231	17.881	1.2727	0.	6.7735e-002
18232	17.789	1.2727	5.e-002	4.4831
18233	17.789	1.5455	0.	6.5454e-002
18234	17.881	1.4545	0.	6.2334e-002
18235	17.789	1.4545	5.e-002	4.874
18236	17.789	1.7273	0.	5.9492e-002
18237	17.881	1.6364	0.	5.7061e-002
18238	17.789	1.6364	5.e-002	5.2461
18239	17.789	1.9091	0.	5.4018e-002
18240	17.881	1.8182	0.	5.1997e-002
18241	17.789	1.8182	5.e-002	5.5902
18242	17.789	2.0909	0.	4.9242e-002
18243	17.881	2.	0.	4.7358e-002
18244	17.789	2.	5.e-002	5.8988
18245	17.789	2.2727	0.	4.5337e-002
18246	17.881	2.1818	0.	4.3358e-002
18247	17.789	2.1818	5.e-002	6.1663
18248	17.789	2.4545	0.	4.2384e-002
18249	17.881	2.3636	0.	4.0146e-002
18250	17.789	2.3636	5.e-002	6.3874
18251	17.789	2.6364	0.	4.0367e-002
18252	17.881	2.5455	0.	3.7784e-002
18253	17.789	2.5455	5.e-002	6.558
18254	17.789	2.8182	0.	3.9211e-002
18255	17.881	2.7273	0.	3.6255e-002
18256	17.789	2.7273	5.e-002	6.6741
18257	17.789	3.	0.	3.8836e-002
18258	17.881	2.9091	0.	3.5511e-002
18259	17.789	2.9091	5.e-002	6.7329
18260	17.789	3.1818	0.	3.9211e-002
18261	17.881	3.0909	0.	3.5511e-002
18262	17.789	3.0909	5.e-002	6.7329
18263	17.789	3.3636	0.	4.0367e-002
18264	17.881	3.2727	0.	3.6255e-002
18265	17.789	3.2727	5.e-002	6.6741
18266	17.789	3.5455	0.	4.2384e-002
18267	17.881	3.4545	0.	3.7784e-002
18268	17.789	3.4545	5.e-002	6.558
18269	17.789	3.7273	0.	4.5337e-002
18270	17.881	3.6364	0.	4.0146e-002
18271	17.789	3.6364	5.e-002	6.3875
18272	17.789	3.9091	0.	4.9241e-002
18273	17.881	3.8182	0.	4.3358e-002
18274	17.789	3.8182	5.e-002	6.1663
18275	17.789	4.0909	0.	5.4018e-002
18276	17.881	4.	0.	4.7358e-002
18277	17.789	4.	5.e-002	5.8988
18278	17.789	4.2727	0.	5.9493e-002
18279	17.881	4.1818	0.	5.1997e-002
18280	17.789	4.1818	5.e-002	5.5902
18281	17.789	4.4545	0.	6.5454e-002
18282	17.881	4.3636	0.	5.7061e-002
18283	17.789	4.3636	5.e-002	5.2461
18284	17.789	4.6364	0.	7.1771e-002
18285	17.881	4.5455	0.	6.2334e-002
18286	17.789	4.5455	5.e-002	4.874
18287	17.789	4.8182	0.	7.8609e-002
18288	17.881	4.7273	0.	6.7734e-002
18289	17.789	4.7273	5.e-002	4.4831
18290	17.789	5.	0.	8.7134e-002
18291	17.881	4.9091	0.	7.3571e-002
18292	17.789	4.9091	5.e-002	4.0851
18293	17.789	5.1818	0.	0.10228
18294	17.881	5.0909	0.	8.1614e-002
18295	17.789	5.0909	5.e-002	3.6953
18296	17.789	5.3636	0.	0.1639
18297	17.881	5.2727	0.	0.10064
18298	17.789	5.2727	5.e-002	3.3319
18299	17.789	5.5455	0.	2.5264
18300	17.881	5.4545	0.	0.30643
18301	17.789	5.4545	5.e-002	3.009
18302	17.789	5.7273	0.	7.2762
18303	17.881	5.6364	0.	4.6388
18304	17.789	5.6364	5.e-002	2.6033
18305	17.881	5.8182	0.	8.981
18306	17.789	5.8182	5.e-002	0.29039
18307	17.789	5.9091	0.	6.3023
18308	17.972	0.27273	0.	6.2552
18309	18.063	0.18182	0.	8.3881
18310	17.972	0.18182	5.e-002	0.27995
18311	17.972	9.0909e-002	0.	5.9346
18312	17.972	0.45455	0.	1.2703
18313	18.063	0.36364	0.	3.5947
18314	17.972	0.36364	5.e-002	2.9391
18315	17.972	0.63636	0.	9.3995e-002
18316	18.063	0.54545	0.	0.12825
18317	17.972	0.54545	5.e-002	3.2899
18318	17.972	0.81818	0.	7.1619e-002
18319	18.063	0.72727	0.	6.7798e-002
18320	17.972	0.72727	5.e-002	3.5419
18321	17.972	1.	0.	6.537e-002
18322	18.063	0.90909	0.	6.0376e-002
18323	17.972	0.90909	5.e-002	3.827
18324	17.972	1.1818	0.	6.1247e-002
18325	18.063	1.0909	0.	5.6965e-002
18326	17.972	1.0909	5.e-002	4.137
18327	17.972	1.3636	0.	5.7291e-002
18328	18.063	1.2727	0.	5.3917e-002
18329	17.972	1.2727	5.e-002	4.4568
18330	17.972	1.5455	0.	5.314e-002
18331	18.063	1.4545	0.	5.0572e-002
18332	17.972	1.4545	5.e-002	4.7733
18333	17.972	1.7273	0.	4.888e-002
18334	18.063	1.6364	0.	4.6934e-002
18335	17.972	1.6364	5.e-002	5.076
18336	17.972	1.9091	0.	4.4726e-002
18337	18.063	1.8182	0.	4.3186e-002
18338	17.972	1.8182	5.e-002	5.3563
18339	17.972	2.0909	0.	4.0917e-002
18340	18.063	2.	0.	3.957e-002
18341	17.972	2.	5.e-002	5.6078
18342	17.972	2.2727	0.	3.7652e-002
18343	18.063	2.1818	0.	3.631e-002
18344	17.972	2.1818	5.e-002	5.8253
18345	17.972	2.4545	0.	3.5064e-002
18346	18.063	2.3636	0.	3.3579e-002
18347	17.972	2.3636	5.e-002	6.0046
18348	17.972	2.6364	0.	3.3215e-002
18349	18.063	2.5455	0.	3.1487e-002
18350	17.972	2.5455	5.e-002	6.1423
18351	17.972	2.8182	0.	3.2114e-002
18352	18.063	2.7273	0.	3.0084e-002
18353	17.972	2.7273	5.e-002	6.2357
18354	17.972	3.	0.	3.1749e-002
18355	18.063	2.9091	0.	2.9384e-002
18356	17.972	2.9091	5.e-002	6.2829
18357	17.972	3.1818	0.	3.2114e-002
18358	18.063	3.0909	0.	2.9384e-002
18359	17.972	3.0909	5.e-002	6.2829
18360	17.972	3.3636	0.	3.3215e-002
18361	18.063	3.2727	0.	3.0084e-002
18362	17.972	3.2727	5.e-002	6.2357
18363	17.972	3.5455	0.	3.5064e-002
18364	18.063	3.4545	0.	3.1487e-002
18365	17.972	3.4545	5.e-002	6.1423
18366	17.972	3.7273	0.	3.7652e-002
18367	18.063	3.6364	0.	3.3579e-002
18368	17.972	3.6364	5.e-002	6.0046
18369	17.972	3.9091	0.	4.0917e-002
18370	18.063	3.8182	0.	3.631e-002
18371	17.972	3.8182	5.e-002	5.8253
18372	17.972	4.0909	0.	4.4726e-002
18373	18.063	4.	0.	3.957e-002
18374	17.972	4.	5.e-002	5.6078
18375	17.972	4.2727	0.	4.888e-002
18376	18.063	4.1818	0.	4.3187e-002
18377	17.972	4.1818	5.e-002	5.3563
18378	17.972	4.4545	0.	5.314e-002
18379	18.063	4.3636	0.	4.6933e-002
18380	17.972	4.3636	5.e-002	5.076
18381	17.972	4.6364	0.	5.7291e-002
18382	18.063	4.5455	0.	5.0573e-002
18383	17.972	4.5455	5.e-002	4.7733
18384	17.972	4.8182	0.	6.1246e-002
18385	18.063	4.7273	0.	5.3916e-002
18386	17.972	4.7273	5.e-002	4.4568
18387	17.972	5.	0.	6.537e-002
18388	18.063	4.9091	0.	5.6964e-002
18389	17.972	4.9091	5.e-002	4.137
18390	17.972	5.1818	0.	7.1618e-002
18391	18.063	5.0909	0.	6.0376e-002
18392	17.972	5.0909	5.e-002	3.827
18393	17.972	5.3636	0.	9.3993e-002
18394	18.063	5.2727	0.	6.7797e-002
18395	17.972	5.2727	5.e-002	3.5419
18396	17.972	5.5455	0.	1.2703
18397	18.063	5.4545	0.	0.12825
18398	17.972	5.4545	5.e-002	3.2899
18399	17.972	5.7273	0.	6.2552
18400	18.063	5.6364	0.	3.5947
18401	17.972	5.6364	5.e-002	2.9391
18402	18.063	5.8182	0.	8.388
18403	17.972	5.8182	5.e-002	0.27997
18404	17.972	5.9091	0.	5.9346
18405	18.155	0.27273	0.	5.634
18406	18.246	0.18182	0.	8.0995
18407	18.155	0.18182	5.e-002	0.51597
18408	18.155	9.0909e-002	0.	5.7543
18409	18.155	0.45455	0.	0.56195
18410	18.246	0.36364	0.	2.9912
18411	18.155	0.36364	5.e-002	3.2038
18412	18.155	0.63636	0.	6.0824e-002
18413	18.246	0.54545	0.	7.1559e-002
18414	18.155	0.54545	5.e-002	3.5149
18415	18.155	0.81818	0.	5.2567e-002
18416	18.246	0.72727	0.	4.8572e-002
18417	18.155	0.72727	5.e-002	3.7135
18418	18.155	1.	0.	5.0482e-002
18419	18.246	0.90909	0.	4.6199e-002
18420	18.155	0.90909	5.e-002	3.9375
18421	18.155	1.1818	0.	4.8753e-002
18422	18.246	1.0909	0.	4.5179e-002
18423	18.155	1.0909	5.e-002	4.1833
18424	18.155	1.3636	0.	4.6545e-002
18425	18.246	1.2727	0.	4.3754e-002
18426	18.155	1.2727	5.e-002	4.4391
18427	18.155	1.5455	0.	4.3822e-002
18428	18.246	1.4545	0.	4.173e-002
18429	18.155	1.4545	5.e-002	4.6941
18430	18.155	1.7273	0.	4.0758e-002
18431	18.246	1.6364	0.	3.9219e-002
18432	18.155	1.6364	5.e-002	4.9391
18433	18.155	1.9091	0.	3.7589e-002
18434	18.246	1.8182	0.	3.6436e-002
18435	18.155	1.8182	5.e-002	5.1668
18436	18.155	2.0909	0.	3.4551e-002
18437	18.246	2.	0.	3.3615e-002
18438	18.155	2.	5.e-002	5.3713
18439	18.155	2.2727	0.	3.1848e-002
18440	18.246	2.1818	0.	3.0972e-002
18441	18.155	2.1818	5.e-002	5.548
18442	18.155	2.4545	0.	2.9632e-002
18443	18.246	2.3636	0.	2.8686e-002
18444	18.155	2.3636	5.e-002	5.6935
18445	18.155	2.6364	0.	2.8e-002
18446	18.246	2.5455	0.	2.6884e-002
18447	18.155	2.5455	5.e-002	5.805
18448	18.155	2.8182	0.	2.7006e-002
18449	18.246	2.7273	0.	2.5646e-002
18450	18.155	2.7273	5.e-002	5.8806
18451	18.155	3.	0.	2.6672e-002
18452	18.246	2.9091	0.	2.5019e-002
18453	18.155	2.9091	5.e-002	5.9187
18454	18.155	3.1818	0.	2.7005e-002
18455	18.246	3.0909	0.	2.5018e-002
18456	18.155	3.0909	5.e-002	5.9187
18457	18.155	3.3636	0.	2.8e-002
18458	18.246	3.2727	0.	2.5647e-002
18459	18.155	3.2727	5.e-002	5.8806
18460	18.155	3.5455	0.	2.9632e-002
18461	18.246	3.4545	0.	2.6884e-002
18462	18.155	3.4545	5.e-002	5.8051
18463	18.155	3.7273	0.	3.1848e-002
18464	18.246	3.6364	0.	2.8686e-002
18465	18.155	3.6364	5.e-002	5.6935
18466	18.155	3.9091	0.	3.4551e-002
18467	18.246	3.8182	0.	3.0973e-002
18468	18.155	3.8182	5.e-002	5.548
18469	18.155	4.0909	0.	3.7589e-002
18470	18.246	4.	0.	3.3615e-002
18471	18.155	4.	5.e-002	5.3713
18472	18.155	4.2727	0.	4.0757e-002
18473	18.246	4.1818	0.	3.6436e-002
18474	18.155	4.1818	5.e-002	5.1668
18475	18.155	4.4545	0.	4.3821e-002
18476	18.246	4.3636	0.	3.9218e-002
18477	18.155	4.3636	5.e-002	4.9391
18478	18.155	4.6364	0.	4.6545e-002
18479	18.246	4.5455	0.	4.173e-002
18480	18.155	4.5455	5.e-002	4.6941
18481	18.155	4.8182	0.	4.8752e-002
18482	18.246	4.7273	0.	4.3754e-002
18483	18.155	4.7273	5.e-002	4.4391
18484	18.155	5.	0.	5.0481e-002
18485	18.246	4.9091	0.	4.5179e-002
18486	18.155	4.9091	5.e-002	4.1833
18487	18.155	5.1818	0.	5.2566e-002
18488	18.246	5.0909	0.	4.6198e-002
18489	18.155	5.0909	5.e-002	3.9375
18490	18.155	5.3636	0.	6.0824e-002
18491	18.246	5.2727	0.	4.857e-002
18492	18.155	5.2727	5.e-002	3.7135
18493	18.155	5.5455	0.	0.56195
18494	18.246	5.4545	0.	7.1559e-002
18495	18.155	5.4545	5.e-002	3.5149
18496	18.155	5.7273	0.	5.6339
18497	18.246	5.6364	0.	2.9911
18498	18.155	5.6364	5.e-002	3.2039
18499	18.246	5.8182	0.	8.0995
18500	18.155	5.8182	5.e-002	0.51599
18501	18.155	5.9091	0.	5.7543
18502	18.337	0.27273	0.	5.3602
18503	18.429	0.18182	0.	8.0724
18504	18.337	0.18182	5.e-002	0.71725
18505	18.337	9.0909e-002	0.	5.7355
18506	18.337	0.45455	0.	0.28043
18507	18.429	0.36364	0.	2.7707
18508	18.337	0.36364	5.e-002	3.4101
18509	18.337	0.63636	0.	4.2526e-002
18510	18.429	0.54545	0.	4.6067e-002
18511	18.337	0.54545	5.e-002	3.6918
18512	18.337	0.81818	0.	4.0115e-002
18513	18.429	0.72727	0.	3.648e-002
18514	18.337	0.72727	5.e-002	3.8499
18515	18.337	1.	0.	4.0041e-002
18516	18.429	0.90909	0.	3.6431e-002
18517	18.337	0.90909	5.e-002	4.0264
18518	18.337	1.1818	0.	3.9638e-002
18519	18.429	1.0909	0.	3.6675e-002
18520	18.337	1.0909	5.e-002	4.2212
18521	18.337	1.3636	0.	3.8514e-002
18522	18.429	1.2727	0.	3.6216e-002
18523	18.337	1.2727	5.e-002	4.4254
18524	18.337	1.5455	0.	3.6757e-002
18525	18.429	1.4545	0.	3.506e-002
18526	18.337	1.4545	5.e-002	4.6302
18527	18.337	1.7273	0.	3.4558e-002
18528	18.429	1.6364	0.	3.3351e-002
18529	18.337	1.6364	5.e-002	4.828
18530	18.337	1.9091	0.	3.2143e-002
18531	18.429	1.8182	0.	3.1293e-002
18532	18.337	1.8182	5.e-002	5.0124
18533	18.337	2.0909	0.	2.9731e-002
18534	18.429	2.	0.	2.9104e-002
18535	18.337	2.	5.e-002	5.1784
18536	18.337	2.2727	0.	2.7516e-002
18537	18.429	2.1818	0.	2.698e-002
18538	18.337	2.1818	5.e-002	5.322
18539	18.337	2.4545	0.	2.5653e-002
18540	18.429	2.3636	0.	2.5093e-002
18541	18.337	2.3636	5.e-002	5.4402
18542	18.337	2.6364	0.	2.4252e-002
18543	18.429	2.5455	0.	2.3573e-002
18544	18.337	2.5455	5.e-002	5.5307
18545	18.337	2.8182	0.	2.3386e-002
18546	18.429	2.7273	0.	2.2513e-002
18547	18.337	2.7273	5.e-002	5.592
18548	18.337	3.	0.	2.3093e-002
18549	18.429	2.9091	0.	2.197e-002
18550	18.337	2.9091	5.e-002	5.6229
18551	18.337	3.1818	0.	2.3386e-002
18552	18.429	3.0909	0.	2.197e-002
18553	18.337	3.0909	5.e-002	5.6229
18554	18.337	3.3636	0.	2.4253e-002
18555	18.429	3.2727	0.	2.2513e-002
18556	18.337	3.2727	5.e-002	5.592
18557	18.337	3.5455	0.	2.5653e-002
18558	18.429	3.4545	0.	2.3574e-002
18559	18.337	3.4545	5.e-002	5.5307
18560	18.337	3.7273	0.	2.7516e-002
18561	18.429	3.6364	0.	2.5093e-002
18562	18.337	3.6364	5.e-002	5.4402
18563	18.337	3.9091	0.	2.973e-002
18564	18.429	3.8182	0.	2.698e-002
18565	18.337	3.8182	5.e-002	5.322
18566	18.337	4.0909	0.	3.2142e-002
18567	18.429	4.	0.	2.9103e-002
18568	18.337	4.	5.e-002	5.1784
18569	18.337	4.2727	0.	3.4557e-002
18570	18.429	4.1818	0.	3.1293e-002
18571	18.337	4.1818	5.e-002	5.0124
18572	18.337	4.4545	0.	3.6757e-002
18573	18.429	4.3636	0.	3.335e-002
18574	18.337	4.3636	5.e-002	4.828
18575	18.337	4.6364	0.	3.8514e-002
18576	18.429	4.5455	0.	3.5061e-002
18577	18.337	4.5455	5.e-002	4.6302
18578	18.337	4.8182	0.	3.9638e-002
18579	18.429	4.7273	0.	3.6215e-002
18580	18.337	4.7273	5.e-002	4.4254
18581	18.337	5.	0.	4.004e-002
18582	18.429	4.9091	0.	3.6674e-002
18583	18.337	4.9091	5.e-002	4.2212
18584	18.337	5.1818	0.	4.0113e-002
18585	18.429	5.0909	0.	3.643e-002
18586	18.337	5.0909	5.e-002	4.0264
18587	18.337	5.3636	0.	4.2524e-002
18588	18.429	5.2727	0.	3.6478e-002
18589	18.337	5.2727	5.e-002	3.8499
18590	18.337	5.5455	0.	0.28042
18591	18.429	5.4545	0.	4.6068e-002
18592	18.337	5.4545	5.e-002	3.6918
18593	18.337	5.7273	0.	5.3601
18594	18.429	5.6364	0.	2.7707
18595	18.337	5.6364	5.e-002	3.4101
18596	18.429	5.8182	0.	8.0724
18597	18.337	5.8182	5.e-002	0.71726
18598	18.337	5.9091	0.	5.7355
18599	18.52	0.27273	0.	5.3847
18600	18.611	0.18182	0.	8.2676
18601	18.52	0.18182	5.e-002	0.86852
18602	18.52	9.0909e-002	0.	5.8543
18603	18.52	0.45455	0.	0.23712
18604	18.611	0.36364	0.	2.88
18605	18.52	0.36364	5.e-002	3.5688
18606	18.52	0.63636	0.	3.1381e-002
18607	18.611	0.54545	0.	3.22e-002
18608	18.52	0.54545	5.e-002	3.8288
18609	18.52	0.81818	0.	3.1646e-002
18610	18.611	0.72727	0.	2.845e-002
18611	18.52	0.72727	5.e-002	3.9558
18612	18.52	1.	0.	3.2571e-002
18613	18.611	0.90909	0.	2.953e-002
18614	18.52	0.90909	5.e-002	4.0954
18615	18.52	1.1818	0.	3.2922e-002
18616	18.611	1.0909	0.	3.0459e-002
18617	18.52	1.0909	5.e-002	4.2501
18618	18.52	1.3636	0.	3.2489e-002
18619	18.611	1.2727	0.	3.0595e-002
18620	18.52	1.2727	5.e-002	4.413
18621	18.52	1.5455	0.	3.1405e-002
18622	18.611	1.4545	0.	3.0031e-002
18623	18.52	1.4545	5.e-002	4.5773
18624	18.52	1.7273	0.	2.985e-002
18625	18.611	1.6364	0.	2.8908e-002
18626	18.52	1.6364	5.e-002	4.7367
18627	18.52	1.9091	0.	2.8024e-002
18628	18.611	1.8182	0.	2.741e-002
18629	18.52	1.8182	5.e-002	4.8858
18630	18.52	2.0909	0.	2.6128e-002
18631	18.611	2.	0.	2.573e-002
18632	18.52	2.	5.e-002	5.0204
18633	18.52	2.2727	0.	2.4336e-002
18634	18.611	2.1818	0.	2.4046e-002
18635	18.52	2.1818	5.e-002	5.137
18636	18.52	2.4545	0.	2.2796e-002
18637	18.611	2.3636	0.	2.2512e-002
18638	18.52	2.3636	5.e-002	5.2331
18639	18.52	2.6364	0.	2.162e-002
18640	18.611	2.5455	0.	2.1255e-002
18641	18.52	2.5455	5.e-002	5.3068
18642	18.52	2.8182	0.	2.0885e-002
18643	18.611	2.7273	0.	2.0368e-002
18644	18.52	2.7273	5.e-002	5.3566
18645	18.52	3.	0.	2.0634e-002
18646	18.611	2.9091	0.	1.9908e-002
18647	18.52	2.9091	5.e-002	5.3817
18648	18.52	3.1818	0.	2.0884e-002
18649	18.611	3.0909	0.	1.9908e-002
18650	18.52	3.0909	5.e-002	5.3817
18651	18.52	3.3636	0.	2.1619e-002
18652	18.611	3.2727	0.	2.0368e-002
18653	18.52	3.2727	5.e-002	5.3566
18654	18.52	3.5455	0.	2.2796e-002
18655	18.611	3.4545	0.	2.1256e-002
18656	18.52	3.4545	5.e-002	5.3068
18657	18.52	3.7273	0.	2.4336e-002
18658	18.611	3.6364	0.	2.2512e-002
18659	18.52	3.6364	5.e-002	5.2331
18660	18.52	3.9091	0.	2.6128e-002
18661	18.611	3.8182	0.	2.4046e-002
18662	18.52	3.8182	5.e-002	5.137
18663	18.52	4.0909	0.	2.8025e-002
18664	18.611	4.	0.	2.573e-002
18665	18.52	4.	5.e-002	5.0204
18666	18.52	4.2727	0.	2.985e-002
18667	18.611	4.1818	0.	2.741e-002
18668	18.52	4.1818	5.e-002	4.8858
18669	18.52	4.4545	0.	3.1406e-002
18670	18.611	4.3636	0.	2.8908e-002
18671	18.52	4.3636	5.e-002	4.7367
18672	18.52	4.6364	0.	3.2489e-002
18673	18.611	4.5455	0.	3.0031e-002
18674	18.52	4.5455	5.e-002	4.5773
18675	18.52	4.8182	0.	3.2921e-002
18676	18.611	4.7273	0.	3.0594e-002
18677	18.52	4.7273	5.e-002	4.4131
18678	18.52	5.	0.	3.257e-002
18679	18.611	4.9091	0.	3.0458e-002
18680	18.52	4.9091	5.e-002	4.2501
18681	18.52	5.1818	0.	3.1645e-002
18682	18.611	5.0909	0.	2.953e-002
18683	18.52	5.0909	5.e-002	4.0954
18684	18.52	5.3636	0.	3.138e-002
18685	18.611	5.2727	0.	2.8448e-002
18686	18.52	5.2727	5.e-002	3.9558
18687	18.52	5.5455	0.	0.23711
18688	18.611	5.4545	0.	3.2199e-002
18689	18.52	5.4545	5.e-002	3.8288
18690	18.52	5.7273	0.	5.3847
18691	18.611	5.6364	0.	2.88
18692	18.52	5.6364	5.e-002	3.5688
18693	18.611	5.8182	0.	8.2676
18694	18.52	5.8182	5.e-002	0.86853
18695	18.52	5.9091	0.	5.8543
18696	18.703	0.27273	0.	5.6625
18697	18.794	0.18182	0.	8.65
18698	18.703	0.18182	5.e-002	0.97752
18699	18.703	9.0909e-002	0.	6.0893
18700	18.703	0.45455	0.	0.49038
18701	18.794	0.36364	0.	3.2695
18702	18.703	0.36364	5.e-002	3.6894
18703	18.703	0.63636	0.	2.4098e-002
18704	18.794	0.54545	0.	2.3711e-002
18705	18.703	0.54545	5.e-002	3.9331
18706	18.703	0.81818	0.	2.5709e-002
18707	18.794	0.72727	0.	2.2903e-002
18708	18.703	0.72727	5.e-002	4.0363
18709	18.703	1.	0.	2.7147e-002
18710	18.794	0.90909	0.	2.4572e-002
18711	18.703	0.90909	5.e-002	4.1472
18712	18.703	1.1818	0.	2.794e-002
18713	18.794	1.0909	0.	2.588e-002
18714	18.703	1.0909	5.e-002	4.2703
18715	18.703	1.3636	0.	2.7968e-002
18716	18.794	1.2727	0.	2.6398e-002
18717	18.703	1.2727	5.e-002	4.4005
18718	18.703	1.5455	0.	2.737e-002
18719	18.794	1.4545	0.	2.6254e-002
18720	18.703	1.4545	5.e-002	4.5323
18721	18.703	1.7273	0.	2.6306e-002
18722	18.794	1.6364	0.	2.5572e-002
18723	18.703	1.6364	5.e-002	4.6606
18724	18.703	1.9091	0.	2.4953e-002
18725	18.794	1.8182	0.	2.4518e-002
18726	18.703	1.8182	5.e-002	4.7811
18727	18.703	2.0909	0.	2.3484e-002
18728	18.794	2.	0.	2.3256e-002
18729	18.703	2.	5.e-002	4.8903
18730	18.703	2.2727	0.	2.2057e-002
18731	18.794	2.1818	0.	2.1945e-002
18732	18.703	2.1818	5.e-002	4.985
18733	18.703	2.4545	0.	2.0807e-002
18734	18.794	2.3636	0.	2.072e-002
18735	18.703	2.3636	5.e-002	5.0632
18736	18.703	2.6364	0.	1.9839e-002
18737	18.794	2.5455	0.	1.9701e-002
18738	18.703	2.5455	5.e-002	5.1232
18739	18.703	2.8182	0.	1.9227e-002
18740	18.794	2.7273	0.	1.8973e-002
18741	18.703	2.7273	5.e-002	5.1638
18742	18.703	3.	0.	1.9018e-002
18743	18.794	2.9091	0.	1.8594e-002
18744	18.703	2.9091	5.e-002	5.1842
18745	18.703	3.1818	0.	1.9228e-002
18746	18.794	3.0909	0.	1.8593e-002
18747	18.703	3.0909	5.e-002	5.1842
18748	18.703	3.3636	0.	1.9841e-002
18749	18.794	3.2727	0.	1.8974e-002
18750	18.703	3.2727	5.e-002	5.1638
18751	18.703	3.5455	0.	2.0808e-002
18752	18.794	3.4545	0.	1.9702e-002
18753	18.703	3.4545	5.e-002	5.1232
18754	18.703	3.7273	0.	2.2057e-002
18755	18.794	3.6364	0.	2.0721e-002
18756	18.703	3.6364	5.e-002	5.0632
18757	18.703	3.9091	0.	2.3484e-002
18758	18.794	3.8182	0.	2.1944e-002
18759	18.703	3.8182	5.e-002	4.985
18760	18.703	4.0909	0.	2.4953e-002
18761	18.794	4.	0.	2.3257e-002
18762	18.703	4.	5.e-002	4.8902
18763	18.703	4.2727	0.	2.6306e-002
18764	18.794	4.1818	0.	2.4517e-002
18765	18.703	4.1818	5.e-002	4.7811
18766	18.703	4.4545	0.	2.737e-002
18767	18.794	4.3636	0.	2.5572e-002
18768	18.703	4.3636	5.e-002	4.6606
18769	18.703	4.6364	0.	2.7967e-002
18770	18.794	4.5455	0.	2.6254e-002
18771	18.703	4.5455	5.e-002	4.5323
18772	18.703	4.8182	0.	2.7939e-002
18773	18.794	4.7273	0.	2.6397e-002
18774	18.703	4.7273	5.e-002	4.4005
18775	18.703	5.	0.	2.7147e-002
18776	18.794	4.9091	0.	2.5878e-002
18777	18.703	4.9091	5.e-002	4.2703
18778	18.703	5.1818	0.	2.5708e-002
18779	18.794	5.0909	0.	2.4571e-002
18780	18.703	5.0909	5.e-002	4.1473
18781	18.703	5.3636	0.	2.4095e-002
18782	18.794	5.2727	0.	2.2901e-002
18783	18.703	5.2727	5.e-002	4.0363
18784	18.703	5.5455	0.	0.49036
18785	18.794	5.4545	0.	2.3711e-002
18786	18.703	5.4545	5.e-002	3.9331
18787	18.703	5.7273	0.	5.6625
18788	18.794	5.6364	0.	3.2694
18789	18.703	5.6364	5.e-002	3.6894
18790	18.794	5.8182	0.	8.6499
18791	18.703	5.8182	5.e-002	0.97755
18792	18.703	5.9091	0.	6.0892
18793	18.885	0.27273	0.	6.1529
18794	18.977	0.18182	0.	9.1883
18795	18.885	0.18182	5.e-002	1.0534
18796	18.885	9.0909e-002	0.	6.4215
18797	18.885	0.45455	0.	1.128
18798	18.977	0.36364	0.	3.8931
18799	18.885	0.36364	5.e-002	3.7795
18800	18.885	0.63636	0.	1.9104e-002
18801	18.977	0.54545	0.	1.824e-002
18802	18.885	0.54545	5.e-002	4.011
18803	18.885	0.81818	0.	2.1475e-002
18804	18.977	0.72727	0.	1.9e-002
18805	18.885	0.72727	5.e-002	4.0959
18806	18.885	1.	0.	2.3183e-002
18807	18.977	0.90909	0.	2.0992e-002
18808	18.885	0.90909	5.e-002	4.1846
18809	18.885	1.1818	0.	2.4242e-002
18810	18.977	1.0909	0.	2.251e-002
18811	18.885	1.0909	5.e-002	4.2829
18812	18.885	1.3636	0.	2.4589e-002
18813	18.977	1.2727	0.	2.3282e-002
18814	18.885	1.2727	5.e-002	4.3871
18815	18.885	1.5455	0.	2.4356e-002
18816	18.977	1.4545	0.	2.3444e-002
18817	18.885	1.4545	5.e-002	4.4929
18818	18.885	1.7273	0.	2.3677e-002
18819	18.977	1.6364	0.	2.3107e-002
18820	18.885	1.6364	5.e-002	4.5964
18821	18.885	1.9091	0.	2.2709e-002
18822	18.977	1.8182	0.	2.2411e-002
18823	18.885	1.8182	5.e-002	4.6938
18824	18.885	2.0909	0.	2.16e-002
18825	18.977	2.	0.	2.1497e-002
18826	18.885	2.	5.e-002	4.7823
18827	18.885	2.2727	0.	2.0488e-002
18828	18.977	2.1818	0.	2.0503e-002
18829	18.885	2.1818	5.e-002	4.8594
18830	18.885	2.4545	0.	1.9492e-002
18831	18.977	2.3636	0.	1.9549e-002
18832	18.885	2.3636	5.e-002	4.9231
18833	18.885	2.6364	0.	1.8712e-002
18834	18.977	2.5455	0.	1.8741e-002
18835	18.885	2.5455	5.e-002	4.972
18836	18.885	2.8182	0.	1.8215e-002
18837	18.977	2.7273	0.	1.8156e-002
18838	18.885	2.7273	5.e-002	5.0052
18839	18.885	3.	0.	1.8044e-002
18840	18.977	2.9091	0.	1.785e-002
18841	18.885	2.9091	5.e-002	5.0219
18842	18.885	3.1818	0.	1.8215e-002
18843	18.977	3.0909	0.	1.785e-002
18844	18.885	3.0909	5.e-002	5.0219
18845	18.885	3.3636	0.	1.8712e-002
18846	18.977	3.2727	0.	1.8156e-002
18847	18.885	3.2727	5.e-002	5.0052
18848	18.885	3.5455	0.	1.9493e-002
18849	18.977	3.4545	0.	1.874e-002
18850	18.885	3.4545	5.e-002	4.972
18851	18.885	3.7273	0.	2.0487e-002
18852	18.977	3.6364	0.	1.9548e-002
18853	18.885	3.6364	5.e-002	4.9231
18854	18.885	3.9091	0.	2.16e-002
18855	18.977	3.8182	0.	2.0501e-002
18856	18.885	3.8182	5.e-002	4.8594
18857	18.885	4.0909	0.	2.2709e-002
18858	18.977	4.	0.	2.1498e-002
18859	18.885	4.	5.e-002	4.7823
18860	18.885	4.2727	0.	2.3677e-002
18861	18.977	4.1818	0.	2.241e-002
18862	18.885	4.1818	5.e-002	4.6938
18863	18.885	4.4545	0.	2.4355e-002
18864	18.977	4.3636	0.	2.3107e-002
18865	18.885	4.3636	5.e-002	4.5964
18866	18.885	4.6364	0.	2.4589e-002
18867	18.977	4.5455	0.	2.3445e-002
18868	18.885	4.5455	5.e-002	4.4929
18869	18.885	4.8182	0.	2.4241e-002
18870	18.977	4.7273	0.	2.3282e-002
18871	18.885	4.7273	5.e-002	4.3871
18872	18.885	5.	0.	2.3181e-002
18873	18.977	4.9091	0.	2.2509e-002
18874	18.885	4.9091	5.e-002	4.2829
18875	18.885	5.1818	0.	2.1473e-002
18876	18.977	5.0909	0.	2.099e-002
18877	18.885	5.0909	5.e-002	4.1846
18878	18.885	5.3636	0.	1.9105e-002
18879	18.977	5.2727	0.	1.8998e-002
18880	18.885	5.2727	5.e-002	4.096
18881	18.885	5.5455	0.	1.128
18882	18.977	5.4545	0.	1.824e-002
18883	18.885	5.4545	5.e-002	4.0111
18884	18.885	5.7273	0.	6.1528
18885	18.977	5.6364	0.	3.893
18886	18.885	5.6364	5.e-002	3.7796
18887	18.977	5.8182	0.	9.1882
18888	18.885	5.8182	5.e-002	1.0534
18889	18.885	5.9091	0.	6.4214
18890	19.068	0.27273	0.	6.8195
18891	19.159	0.18182	0.	9.855
18892	19.068	0.18182	5.e-002	1.1041
18893	19.068	9.0909e-002	0.	6.8344
18894	19.068	0.45455	0.	2.0217
18895	19.159	0.36364	0.	4.7095
18896	19.068	0.36364	5.e-002	3.8457
18897	19.068	0.63636	0.	1.5686e-002
18898	19.159	0.54545	0.	0.45646
18899	19.068	0.54545	5.e-002	4.068
18900	19.068	0.81818	0.	1.8474e-002
18901	19.159	0.72727	0.	1.6375e-002
18902	19.068	0.72727	5.e-002	4.1387
18903	19.068	1.	0.	2.0307e-002
18904	19.159	0.90909	0.	1.8467e-002
18905	19.068	0.90909	5.e-002	4.21
18906	19.068	1.1818	0.	2.1526e-002
18907	19.159	1.0909	0.	2.0073e-002
18908	19.068	1.0909	5.e-002	4.2889
18909	19.068	1.3636	0.	2.2097e-002
18910	19.159	1.2727	0.	2.1009e-002
18911	19.068	1.2727	5.e-002	4.3726
18912	19.068	1.5455	0.	2.2143e-002
18913	19.159	1.4545	0.	2.14e-002
18914	19.068	1.4545	5.e-002	4.4578
18915	19.068	1.7273	0.	2.1776e-002
18916	19.159	1.6364	0.	2.1335e-002
18917	19.068	1.6364	5.e-002	4.5413
18918	19.068	1.9091	0.	2.1126e-002
18919	19.159	1.8182	0.	2.0932e-002
18920	19.068	1.8182	5.e-002	4.6203
18921	19.068	2.0909	0.	2.032e-002
18922	19.159	2.	0.	2.0311e-002
18923	19.068	2.	5.e-002	4.6922
18924	19.068	2.2727	0.	1.9479e-002
18925	19.159	2.1818	0.	1.9586e-002
18926	19.068	2.1818	5.e-002	4.7549
18927	19.068	2.4545	0.	1.8709e-002
18928	19.159	2.3636	0.	1.8867e-002
18929	19.068	2.3636	5.e-002	4.8069
18930	19.068	2.6364	0.	1.8094e-002
18931	19.159	2.5455	0.	1.8244e-002
18932	19.068	2.5455	5.e-002	4.8469
18933	19.068	2.8182	0.	1.7699e-002
18934	19.159	2.7273	0.	1.7787e-002
18935	19.068	2.7273	5.e-002	4.874
18936	19.068	3.	0.	1.7563e-002
18937	19.159	2.9091	0.	1.7547e-002
18938	19.068	2.9091	5.e-002	4.8877
18939	19.068	3.1818	0.	1.7699e-002
18940	19.159	3.0909	0.	1.7547e-002
18941	19.068	3.0909	5.e-002	4.8877
18942	19.068	3.3636	0.	1.8093e-002
18943	19.159	3.2727	0.	1.7788e-002
18944	19.068	3.2727	5.e-002	4.874
18945	19.068	3.5455	0.	1.8707e-002
18946	19.159	3.4545	0.	1.8244e-002
18947	19.068	3.4545	5.e-002	4.8469
18948	19.068	3.7273	0.	1.9478e-002
18949	19.159	3.6364	0.	1.8867e-002
18950	19.068	3.6364	5.e-002	4.8069
18951	19.068	3.9091	0.	2.032e-002
18952	19.159	3.8182	0.	1.9586e-002
18953	19.068	3.8182	5.e-002	4.7549
18954	19.068	4.0909	0.	2.1126e-002
18955	19.159	4.	0.	2.031e-002
18956	19.068	4.	5.e-002	4.6922
18957	19.068	4.2727	0.	2.1776e-002
18958	19.159	4.1818	0.	2.0932e-002
18959	19.068	4.1818	5.e-002	4.6203
18960	19.068	4.4545	0.	2.2143e-002
18961	19.159	4.3636	0.	2.1335e-002
18962	19.068	4.3636	5.e-002	4.5413
18963	19.068	4.6364	0.	2.2098e-002
18964	19.159	4.5455	0.	2.14e-002
18965	19.068	4.5455	5.e-002	4.4578
18966	19.068	4.8182	0.	2.1525e-002
18967	19.159	4.7273	0.	2.1009e-002
18968	19.068	4.7273	5.e-002	4.3726
18969	19.068	5.	0.	2.0305e-002
18970	19.159	4.9091	0.	2.0073e-002
18971	19.068	4.9091	5.e-002	4.2889
18972	19.068	5.1818	0.	1.8472e-002
18973	19.159	5.0909	0.	1.8465e-002
18974	19.068	5.0909	5.e-002	4.21
18975	19.068	5.3636	0.	1.5684e-002
18976	19.159	5.2727	0.	1.6372e-002
18977	19.068	5.2727	5.e-002	4.1387
18978	19.068	5.5455	0.	2.0217
18979	19.159	5.4545	0.	0.45644
18980	19.068	5.4545	5.e-002	4.068
18981	19.068	5.7273	0.	6.8194
18982	19.159	5.6364	0.	4.7095
18983	19.068	5.6364	5.e-002	3.8457
18984	19.159	5.8182	0.	9.8549
18985	19.068	5.8182	5.e-002	1.1041
18986	19.068	5.9091	0.	6.8343
18987	19.251	0.27273	0.	7.6306
18988	19.342	0.18182	0.	10.626
18989	19.251	0.18182	5.e-002	1.1366
18990	19.251	9.0909e-002	0.	7.3135
18991	19.251	0.45455	0.	3.1081
18992	19.342	0.36364	0.	5.6831
18993	19.251	0.36364	5.e-002	3.8928
18994	19.251	0.63636	0.	1.4274e-002
18995	19.342	0.54545	0.	1.8112
18996	19.251	0.54545	5.e-002	4.1083
18997	19.251	0.81818	0.	1.6538e-002
18998	19.342	0.72727	0.	1.5403e-002
18999	19.251	0.72727	5.e-002	4.168
19000	19.251	1.	0.	1.8311e-002
19001	19.342	0.90909	0.	1.6899e-002
19002	19.251	0.90909	5.e-002	4.2258
19003	19.251	1.1818	0.	1.959e-002
19004	19.342	1.0909	0.	1.8416e-002
19005	19.251	1.0909	5.e-002	4.2894
19006	19.251	1.3636	0.	2.0316e-002
19007	19.342	1.2727	0.	1.9425e-002
19008	19.251	1.2727	5.e-002	4.357
19009	19.251	1.5455	0.	2.0577e-002
19010	19.342	1.4545	0.	1.9977e-002
19011	19.251	1.4545	5.e-002	4.4259
19012	19.251	1.7273	0.	2.046e-002
19013	19.342	1.6364	0.	2.0125e-002
19014	19.251	1.6364	5.e-002	4.4936
19015	19.251	1.9091	0.	2.0075e-002
19016	19.342	1.8182	0.	1.9963e-002
19017	19.251	1.8182	5.e-002	4.5577
19018	19.251	2.0909	0.	1.9526e-002
19019	19.342	2.	0.	1.9586e-002
19020	19.251	2.	5.e-002	4.6163
19021	19.251	2.2727	0.	1.8918e-002
19022	19.342	2.1818	0.	1.9094e-002
19023	19.251	2.1818	5.e-002	4.6675
19024	19.251	2.4545	0.	1.8342e-002
19025	19.342	2.3636	0.	1.8577e-002
19026	19.251	2.3636	5.e-002	4.71
19027	19.251	2.6364	0.	1.7874e-002
19028	19.342	2.5455	0.	1.8116e-002
19029	19.251	2.5455	5.e-002	4.7427
19030	19.251	2.8182	0.	1.7571e-002
19031	19.342	2.7273	0.	1.7772e-002
19032	19.251	2.7273	5.e-002	4.765
19033	19.251	3.	0.	1.7465e-002
19034	19.342	2.9091	0.	1.759e-002
19035	19.251	2.9091	5.e-002	4.7762
19036	19.251	3.1818	0.	1.757e-002
19037	19.342	3.0909	0.	1.759e-002
19038	19.251	3.0909	5.e-002	4.7762
19039	19.251	3.3636	0.	1.7875e-002
19040	19.342	3.2727	0.	1.7773e-002
19041	19.251	3.2727	5.e-002	4.765
19042	19.251	3.5455	0.	1.8343e-002
19043	19.342	3.4545	0.	1.8116e-002
19044	19.251	3.4545	5.e-002	4.7427
19045	19.251	3.7273	0.	1.8918e-002
19046	19.342	3.6364	0.	1.8578e-002
19047	19.251	3.6364	5.e-002	4.71
19048	19.251	3.9091	0.	1.9526e-002
19049	19.342	3.8182	0.	1.9093e-002
19050	19.251	3.8182	5.e-002	4.6675
19051	19.251	4.0909	0.	2.0075e-002
19052	19.342	4.	0.	1.9586e-002
19053	19.251	4.	5.e-002	4.6163
19054	19.251	4.2727	0.	2.046e-002
19055	19.342	4.1818	0.	1.9963e-002
19056	19.251	4.1818	5.e-002	4.5577
19057	19.251	4.4545	0.	2.0577e-002
19058	19.342	4.3636	0.	2.0125e-002
19059	19.251	4.3636	5.e-002	4.4936
19060	19.251	4.6364	0.	2.0316e-002
19061	19.342	4.5455	0.	1.9977e-002
19062	19.251	4.5455	5.e-002	4.4259
19063	19.251	4.8182	0.	1.959e-002
19064	19.342	4.7273	0.	1.9424e-002
19065	19.251	4.7273	5.e-002	4.357
19066	19.251	5.	0.	1.831e-002
19067	19.342	4.9091	0.	1.8416e-002
19068	19.251	4.9091	5.e-002	4.2894
19069	19.251	5.1818	0.	1.6535e-002
19070	19.342	5.0909	0.	1.6896e-002
19071	19.251	5.0909	5.e-002	4.2258
19072	19.251	5.3636	0.	1.4272e-002
19073	19.342	5.2727	0.	1.5401e-002
19074	19.251	5.2727	5.e-002	4.168
19075	19.251	5.5455	0.	3.1081
19076	19.342	5.4545	0.	1.8112
19077	19.251	5.4545	5.e-002	4.1083
19078	19.251	5.7273	0.	7.6305
19079	19.342	5.6364	0.	5.683
19080	19.251	5.6364	5.e-002	3.8929
19081	19.342	5.8182	0.	10.626
19082	19.251	5.8182	5.e-002	1.1366
19083	19.251	5.9091	0.	7.3134
19084	19.433	0.27273	0.	8.5586
19085	19.525	0.18182	0.	11.481
19086	19.433	0.18182	5.e-002	1.1564
19087	19.433	9.0909e-002	0.	7.8463
19088	19.433	0.45455	0.	4.3484
19089	19.525	0.36364	0.	6.7833
19090	19.433	0.36364	5.e-002	3.9253
19091	19.433	0.63636	0.	0.60508
19092	19.525	0.54545	0.	3.3158
19093	19.433	0.54545	5.e-002	4.1355
19094	19.433	0.81818	0.	1.6061e-002
19095	19.525	0.72727	0.	3.5647e-002
19096	19.433	0.72727	5.e-002	4.1867
19097	19.433	1.	0.	1.717e-002
19098	19.525	0.90909	0.	1.6683e-002
19099	19.433	0.90909	5.e-002	4.234
19100	19.433	1.1818	0.	1.834e-002
19101	19.525	1.0909	0.	1.7552e-002
19102	19.433	1.0909	5.e-002	4.2857
19103	19.433	1.3636	0.	1.9131e-002
19104	19.525	1.2727	0.	1.8464e-002
19105	19.433	1.2727	5.e-002	4.3406
19106	19.433	1.5455	0.	1.9543e-002
19107	19.525	1.4545	0.	1.9088e-002
19108	19.433	1.4545	5.e-002	4.3966
19109	19.433	1.7273	0.	1.9626e-002
19110	19.525	1.6364	0.	1.9388e-002
19111	19.433	1.6364	5.e-002	4.4517
19112	19.433	1.9091	0.	1.9458e-002
19113	19.525	1.8182	0.	1.9418e-002
19114	19.433	1.8182	5.e-002	4.504
19115	19.433	2.0909	0.	1.9128e-002
19116	19.525	2.	0.	1.9244e-002
19117	19.433	2.	5.e-002	4.5518
19118	19.433	2.2727	0.	1.872e-002
19119	19.525	2.1818	0.	1.895e-002
19120	19.433	2.1818	5.e-002	4.5937
19121	19.433	2.4545	0.	1.8314e-002
19122	19.525	2.3636	0.	1.8606e-002
19123	19.433	2.3636	5.e-002	4.6286
19124	19.433	2.6364	0.	1.7974e-002
19125	19.525	2.5455	0.	1.8288e-002
19126	19.433	2.5455	5.e-002	4.6555
19127	19.433	2.8182	0.	1.7749e-002
19128	19.525	2.7273	0.	1.8041e-002
19129	19.433	2.7273	5.e-002	4.6738
19130	19.433	3.	0.	1.7671e-002
19131	19.525	2.9091	0.	1.7909e-002
19132	19.433	2.9091	5.e-002	4.6831
19133	19.433	3.1818	0.	1.775e-002
19134	19.525	3.0909	0.	1.7909e-002
19135	19.433	3.0909	5.e-002	4.6831
19136	19.433	3.3636	0.	1.7974e-002
19137	19.525	3.2727	0.	1.8043e-002
19138	19.433	3.2727	5.e-002	4.6738
19139	19.433	3.5455	0.	1.8313e-002
19140	19.525	3.4545	0.	1.8287e-002
19141	19.433	3.4545	5.e-002	4.6555
19142	19.433	3.7273	0.	1.872e-002
19143	19.525	3.6364	0.	1.8608e-002
19144	19.433	3.6364	5.e-002	4.6286
19145	19.433	3.9091	0.	1.9127e-002
19146	19.525	3.8182	0.	1.8949e-002
19147	19.433	3.8182	5.e-002	4.5938
19148	19.433	4.0909	0.	1.9458e-002
19149	19.525	4.	0.	1.9245e-002
19150	19.433	4.	5.e-002	4.5518
19151	19.433	4.2727	0.	1.9625e-002
19152	19.525	4.1818	0.	1.9417e-002
19153	19.433	4.1818	5.e-002	4.504
19154	19.433	4.4545	0.	1.9543e-002
19155	19.525	4.3636	0.	1.9389e-002
19156	19.433	4.3636	5.e-002	4.4517
19157	19.433	4.6364	0.	1.913e-002
19158	19.525	4.5455	0.	1.9087e-002
19159	19.433	4.5455	5.e-002	4.3966
19160	19.433	4.8182	0.	1.8339e-002
19161	19.525	4.7273	0.	1.8463e-002
19162	19.433	4.7273	5.e-002	4.3406
19163	19.433	5.	0.	1.7169e-002
19164	19.525	4.9091	0.	1.7551e-002
19165	19.433	4.9091	5.e-002	4.2857
19166	19.433	5.1818	0.	1.6059e-002
19167	19.525	5.0909	0.	1.668e-002
19168	19.433	5.0909	5.e-002	4.234
19169	19.433	5.3636	0.	0.60506
19170	19.525	5.2727	0.	3.5645e-002
19171	19.433	5.2727	5.e-002	4.1867
19172	19.433	5.5455	0.	4.3483
19173	19.525	5.4545	0.	3.3157
19174	19.433	5.4545	5.e-002	4.1355
19175	19.433	5.7273	0.	8.5585
19176	19.525	5.6364	0.	6.7833
19177	19.433	5.6364	5.e-002	3.9253
19178	19.525	5.8182	0.	11.481
19179	19.433	5.8182	5.e-002	1.1564
19180	19.433	5.9091	0.	7.8462
19181	19.616	0.27273	0.	9.5799
19182	19.707	0.18182	0.	12.401
19183	19.616	0.18182	5.e-002	1.1683
19184	19.616	9.0909e-002	0.	8.4219
19185	19.616	0.45455	0.	5.7118
19186	19.707	0.36364	0.	7.9848
19187	19.616	0.36364	5.e-002	3.9464
19188	19.616	0.63636	0.	2.4231
19189	19.707	0.54545	0.	4.9405
19190	19.616	0.54545	5.e-002	4.1524
19191	19.616	0.81818	0.	2.3451e-002
19192	19.707	0.72727	0.	1.8698
19193	19.616	0.72727	5.e-002	4.1971
19194	19.616	1.	0.	1.7344e-002
19195	19.707	0.90909	0.	2.2907e-002
19196	19.616	0.90909	5.e-002	4.2362
19197	19.616	1.1818	0.	1.7836e-002
19198	19.707	1.0909	0.	1.8008e-002
19199	19.616	1.0909	5.e-002	4.2786
19200	19.616	1.3636	0.	1.8511e-002
19201	19.707	1.2727	0.	1.8228e-002
19202	19.616	1.2727	5.e-002	4.3235
19203	19.616	1.5455	0.	1.8983e-002
19204	19.707	1.4545	0.	1.8727e-002
19205	19.616	1.4545	5.e-002	4.3694
19206	19.616	1.7273	0.	1.9205e-002
19207	19.707	1.6364	0.	1.9085e-002
19208	19.616	1.6364	5.e-002	4.4145
19209	19.616	1.9091	0.	1.9212e-002
19210	19.707	1.8182	0.	1.9246e-002
19211	19.616	1.8182	5.e-002	4.4574
19212	19.616	2.0909	0.	1.9062e-002
19213	19.707	2.	0.	1.9233e-002
19214	19.616	2.	5.e-002	4.4967
19215	19.616	2.2727	0.	1.8822e-002
19216	19.707	2.1818	0.	1.91e-002
19217	19.616	2.1818	5.e-002	4.5312
19218	19.616	2.4545	0.	1.8561e-002
19219	19.707	2.3636	0.	1.8906e-002
19220	19.616	2.3636	5.e-002	4.5599
19221	19.616	2.6364	0.	1.8333e-002
19222	19.707	2.5455	0.	1.8706e-002
19223	19.616	2.5455	5.e-002	4.5821
19224	19.616	2.8182	0.	1.8177e-002
19225	19.707	2.7273	0.	1.8545e-002
19226	19.616	2.7273	5.e-002	4.5973
19227	19.616	3.	0.	1.8122e-002
19228	19.707	2.9091	0.	1.8457e-002
19229	19.616	2.9091	5.e-002	4.6049
19230	19.616	3.1818	0.	1.8177e-002
19231	19.707	3.0909	0.	1.8457e-002
19232	19.616	3.0909	5.e-002	4.6049
19233	19.616	3.3636	0.	1.8333e-002
19234	19.707	3.2727	0.	1.8545e-002
19235	19.616	3.2727	5.e-002	4.5973
19236	19.616	3.5455	0.	1.8562e-002
19237	19.707	3.4545	0.	1.8706e-002
19238	19.616	3.4545	5.e-002	4.5822
19239	19.616	3.7273	0.	1.8824e-002
19240	19.707	3.6364	0.	1.8906e-002
19241	19.616	3.6364	5.e-002	4.5599
19242	19.616	3.9091	0.	1.9062e-002
19243	19.707	3.8182	0.	1.91e-002
19244	19.616	3.8182	5.e-002	4.5312
19245	19.616	4.0909	0.	1.9211e-002
19246	19.707	4.	0.	1.9233e-002
19247	19.616	4.	5.e-002	4.4967
19248	19.616	4.2727	0.	1.9205e-002
19249	19.707	4.1818	0.	1.9245e-002
19250	19.616	4.1818	5.e-002	4.4574
19251	19.616	4.4545	0.	1.8983e-002
19252	19.707	4.3636	0.	1.9086e-002
19253	19.616	4.3636	5.e-002	4.4145
19254	19.616	4.6364	0.	1.851e-002
19255	19.707	4.5455	0.	1.8726e-002
19256	19.616	4.5455	5.e-002	4.3694
19257	19.616	4.8182	0.	1.7835e-002
19258	19.707	4.7273	0.	1.8228e-002
19259	19.616	4.7273	5.e-002	4.3235
19260	19.616	5.	0.	1.7341e-002
19261	19.707	4.9091	0.	1.8008e-002
19262	19.616	4.9091	5.e-002	4.2786
19263	19.616	5.1818	0.	2.3448e-002
19264	19.707	5.0909	0.	2.2903e-002
19265	19.616	5.0909	5.e-002	4.2362
19266	19.616	5.3636	0.	2.423
19267	19.707	5.2727	0.	1.8697
19268	19.616	5.2727	5.e-002	4.1971
19269	19.616	5.5455	0.	5.7117
19270	19.707	5.4545	0.	4.9405
19271	19.616	5.4545	5.e-002	4.1524
19272	19.616	5.7273	0.	9.5799
19273	19.707	5.6364	0.	7.9847
19274	19.616	5.6364	5.e-002	3.9464
19275	19.707	5.8182	0.	12.401
19276	19.616	5.8182	5.e-002	1.1683
19277	19.616	5.9091	0.	8.4218
19278	19.799	0.27273	0.	10.675
19279	19.89	0.18182	0.	13.371
19280	19.799	0.18182	5.e-002	1.1759
19281	19.799	9.0909e-002	0.	9.031
19282	19.799	0.45455	0.	7.1733
19283	19.89	0.36364	0.	9.2662
19284	19.799	0.36364	5.e-002	3.9587
19285	19.799	0.63636	0.	4.3518
19286	19.89	0.54545	0.	6.6615
19287	19.799	0.54545	5.e-002	4.1615
19288	19.799	0.81818	0.	1.4977
19289	19.89	0.72727	0.	4.0929
19290	19.799	0.72727	5.e-002	4.2011
19291	19.799	1.	0.	2.4271e-002
19292	19.89	0.90909	0.	1.4754
19293	19.799	0.90909	5.e-002	4.2338
19294	19.799	1.1818	0.	1.8773e-002
19295	19.89	1.0909	0.	2.7328e-002
19296	19.799	1.0909	5.e-002	4.269
19297	19.799	1.3636	0.	1.8626e-002
19298	19.89	1.2727	0.	1.9657e-002
19299	19.799	1.2727	5.e-002	4.3062
19300	19.799	1.5455	0.	1.8929e-002
19301	19.89	1.4545	0.	1.9138e-002
19302	19.799	1.4545	5.e-002	4.344
19303	19.799	1.7273	0.	1.9183e-002
19304	19.89	1.6364	0.	1.9278e-002
19305	19.799	1.6364	5.e-002	4.3812
19306	19.799	1.9091	0.	1.9299e-002
19307	19.89	1.8182	0.	1.9448e-002
19308	19.799	1.8182	5.e-002	4.4166
19309	19.799	2.0909	0.	1.9287e-002
19310	19.89	2.	0.	1.9529e-002
19311	19.799	2.	5.e-002	4.4492
19312	19.799	2.2727	0.	1.9188e-002
19313	19.89	2.1818	0.	1.9516e-002
19314	19.799	2.1818	5.e-002	4.4777
19315	19.799	2.4545	0.	1.9048e-002
19316	19.89	2.3636	0.	1.944e-002
19317	19.799	2.3636	5.e-002	4.5016
19318	19.799	2.6364	0.	1.8912e-002
19319	19.89	2.5455	0.	1.9339e-002
19320	19.799	2.5455	5.e-002	4.52
19321	19.799	2.8182	0.	1.8816e-002
19322	19.89	2.7273	0.	1.925e-002
19323	19.799	2.7273	5.e-002	4.5326
19324	19.799	3.	0.	1.8782e-002
19325	19.89	2.9091	0.	1.9199e-002
19326	19.799	2.9091	5.e-002	4.539
19327	19.799	3.1818	0.	1.8816e-002
19328	19.89	3.0909	0.	1.9199e-002
19329	19.799	3.0909	5.e-002	4.539
19330	19.799	3.3636	0.	1.8912e-002
19331	19.89	3.2727	0.	1.9251e-002
19332	19.799	3.2727	5.e-002	4.5326
19333	19.799	3.5455	0.	1.9048e-002
19334	19.89	3.4545	0.	1.9339e-002
19335	19.799	3.4545	5.e-002	4.52
19336	19.799	3.7273	0.	1.9187e-002
19337	19.89	3.6364	0.	1.944e-002
19338	19.799	3.6364	5.e-002	4.5016
19339	19.799	3.9091	0.	1.9286e-002
19340	19.89	3.8182	0.	1.9515e-002
19341	19.799	3.8182	5.e-002	4.4777
19342	19.799	4.0909	0.	1.9299e-002
19343	19.89	4.	0.	1.9529e-002
19344	19.799	4.	5.e-002	4.4492
19345	19.799	4.2727	0.	1.9183e-002
19346	19.89	4.1818	0.	1.9448e-002
19347	19.799	4.1818	5.e-002	4.4167
19348	19.799	4.4545	0.	1.8929e-002
19349	19.89	4.3636	0.	1.9278e-002
19350	19.799	4.3636	5.e-002	4.3812
19351	19.799	4.6364	0.	1.8625e-002
19352	19.89	4.5455	0.	1.9139e-002
19353	19.799	4.5455	5.e-002	4.344
19354	19.799	4.8182	0.	1.8774e-002
19355	19.89	4.7273	0.	1.9656e-002
19356	19.799	4.7273	5.e-002	4.3062
19357	19.799	5.	0.	2.427e-002
19358	19.89	4.9091	0.	2.7328e-002
19359	19.799	4.9091	5.e-002	4.269
19360	19.799	5.1818	0.	1.4977
19361	19.89	5.0909	0.	1.4754
19362	19.799	5.0909	5.e-002	4.2338
19363	19.799	5.3636	0.	4.3518
19364	19.89	5.2727	0.	4.0928
19365	19.799	5.2727	5.e-002	4.2011
19366	19.799	5.5455	0.	7.1733
19367	19.89	5.4545	0.	6.6614
19368	19.799	5.4545	5.e-002	4.1615
19369	19.799	5.7273	0.	10.675
19370	19.89	5.6364	0.	9.2661
19371	19.799	5.6364	5.e-002	3.9588
19372	19.89	5.8182	0.	13.371
19373	19.799	5.8182	5.e-002	1.176
19374	19.799	5.9091	0.	9.031
19375	19.981	0.27273	0.	11.826
19376	20.073	0.18182	0.	14.378
19377	19.981	0.18182	5.e-002	1.1826
19378	19.981	9.0909e-002	0.	9.6656
19379	19.981	0.45455	0.	8.7126
19380	20.073	0.36364	0.	10.61
19381	19.981	0.36364	5.e-002	3.9646
19382	19.981	0.63636	0.	6.3671
19383	20.073	0.54545	0.	8.4592
19384	19.981	0.54545	5.e-002	4.1646
19385	19.981	0.81818	0.	4.0377
19386	20.073	0.72727	0.	6.397
19387	19.981	0.72727	5.e-002	4.2002
19388	19.981	1.	0.	1.6818
19389	20.073	0.90909	0.	4.3236
19390	19.981	0.90909	5.e-002	4.228
19391	19.981	1.1818	0.	3.7209e-002
19392	20.073	1.0909	0.	2.2346
19393	19.981	1.0909	5.e-002	4.2576
19394	19.981	1.3636	0.	2.1021e-002
19395	20.073	1.2727	0.	0.20895
19396	19.981	1.2727	5.e-002	4.2887
19397	19.981	1.5455	0.	1.9782e-002
19398	20.073	1.4545	0.	2.3454e-002
19399	19.981	1.4545	5.e-002	4.3203
19400	19.981	1.7273	0.	1.9682e-002
19401	20.073	1.6364	0.	2.0667e-002
19402	19.981	1.6364	5.e-002	4.3513
19403	19.981	1.9091	0.	1.9752e-002
19404	20.073	1.8182	0.	2.0242e-002
19405	19.981	1.8182	5.e-002	4.3808
19406	19.981	2.0909	0.	1.98e-002
19407	20.073	2.	0.	2.0201e-002
19408	19.981	2.	5.e-002	4.408
19409	19.981	2.2727	0.	1.9792e-002
19410	20.073	2.1818	0.	2.021e-002
19411	19.981	2.1818	5.e-002	4.4318
19412	19.981	2.4545	0.	1.9744e-002
19413	20.073	2.3636	0.	2.0199e-002
19414	19.981	2.3636	5.e-002	4.4518
19415	19.981	2.6364	0.	1.9685e-002
19416	20.073	2.5455	0.	2.017e-002
19417	19.981	2.5455	5.e-002	4.4672
19418	19.981	2.8182	0.	1.9638e-002
19419	20.073	2.7273	0.	2.0136e-002
19420	19.981	2.7273	5.e-002	4.4777
19421	19.981	3.	0.	1.962e-002
19422	20.073	2.9091	0.	2.0115e-002
19423	19.981	2.9091	5.e-002	4.4831
19424	19.981	3.1818	0.	1.9638e-002
19425	20.073	3.0909	0.	2.0114e-002
19426	19.981	3.0909	5.e-002	4.4831
19427	19.981	3.3636	0.	1.9685e-002
19428	20.073	3.2727	0.	2.0136e-002
19429	19.981	3.2727	5.e-002	4.4778
19430	19.981	3.5455	0.	1.9745e-002
19431	20.073	3.4545	0.	2.0169e-002
19432	19.981	3.4545	5.e-002	4.4672
19433	19.981	3.7273	0.	1.9793e-002
19434	20.073	3.6364	0.	2.0201e-002
19435	19.981	3.6364	5.e-002	4.4518
19436	19.981	3.9091	0.	1.98e-002
19437	20.073	3.8182	0.	2.0209e-002
19438	19.981	3.8182	5.e-002	4.4318
19439	19.981	4.0909	0.	1.9753e-002
19440	20.073	4.	0.	2.02e-002
19441	19.981	4.	5.e-002	4.408
19442	19.981	4.2727	0.	1.9683e-002
19443	20.073	4.1818	0.	2.0242e-002
19444	19.981	4.1818	5.e-002	4.3809
19445	19.981	4.4545	0.	1.9782e-002
19446	20.073	4.3636	0.	2.0667e-002
19447	19.981	4.3636	5.e-002	4.3513
19448	19.981	4.6364	0.	2.1021e-002
19449	20.073	4.5455	0.	2.3454e-002
19450	19.981	4.5455	5.e-002	4.3203
19451	19.981	4.8182	0.	3.7206e-002
19452	20.073	4.7273	0.	0.20895
19453	19.981	4.7273	5.e-002	4.2887
19454	19.981	5.	0.	1.6818
19455	20.073	4.9091	0.	2.2346
19456	19.981	4.9091	5.e-002	4.2577
19457	19.981	5.1818	0.	4.0377
19458	20.073	5.0909	0.	4.3236
19459	19.981	5.0909	5.e-002	4.2281
19460	19.981	5.3636	0.	6.3671
19461	20.073	5.2727	0.	6.3969
19462	19.981	5.2727	5.e-002	4.2002
19463	19.981	5.5455	0.	8.7125
19464	20.073	5.4545	0.	8.4591
19465	19.981	5.4545	5.e-002	4.1646
19466	19.981	5.7273	0.	11.826
19467	20.073	5.6364	0.	10.61
19468	19.981	5.6364	5.e-002	3.9646
19469	20.073	5.8182	0.	14.378
19470	19.981	5.8182	5.e-002	1.1826
19471	19.981	5.9091	0.	9.6655
19472	20.164	0.27273	0.	13.02
19473	20.255	0.18182	0.	15.411
19474	20.164	0.18182	5.e-002	1.1907
19475	20.164	9.0909e-002	0.	10.319
19476	20.164	0.45455	0.	10.313
19477	20.255	0.36364	0.	12.002
19478	20.164	0.36364	5.e-002	3.9657
19479	20.164	0.63636	0.	8.4522
19480	20.255	0.54545	0.	10.318
19481	20.164	0.54545	5.e-002	4.1632
19482	20.164	0.81818	0.	6.6495
19483	20.255	0.72727	0.	8.7669
19484	20.164	0.72727	5.e-002	4.1958
19485	20.164	1.	0.	4.8483
19486	20.255	0.90909	0.	7.2372
19487	20.164	0.90909	5.e-002	4.2198
19488	20.164	1.1818	0.	3.0469
19489	20.255	1.0909	0.	5.7126
19490	20.164	1.0909	5.e-002	4.2451
19491	20.164	1.3636	0.	1.2615
19492	20.255	1.2727	0.	4.1941
19493	20.164	1.2727	5.e-002	4.2714
19494	20.164	1.5455	0.	3.8188e-002
19495	20.255	1.4545	0.	2.6947
19496	20.164	1.4545	5.e-002	4.2981
19497	20.164	1.7273	0.	2.2507e-002
19498	20.255	1.6364	0.	1.2383
19499	20.164	1.6364	5.e-002	4.3243
19500	20.164	1.9091	0.	2.1065e-002
19501	20.255	1.8182	0.	4.9482e-002
19502	20.164	1.8182	5.e-002	4.3492
19503	20.164	2.0909	0.	2.0764e-002
19504	20.255	2.	0.	2.3027e-002
19505	20.164	2.	5.e-002	4.3721
19506	20.164	2.2727	0.	2.0691e-002
19507	20.255	2.1818	0.	2.1637e-002
19508	20.164	2.1818	5.e-002	4.3923
19509	20.164	2.4545	0.	2.0665e-002
19510	20.255	2.3636	0.	2.1329e-002
19511	20.164	2.3636	5.e-002	4.4091
19512	20.164	2.6364	0.	2.0645e-002
19513	20.255	2.5455	0.	2.124e-002
19514	20.164	2.5455	5.e-002	4.4221
19515	20.164	2.8182	0.	2.0629e-002
19516	20.255	2.7273	0.	2.1205e-002
19517	20.164	2.7273	5.e-002	4.431
19518	20.164	3.	0.	2.0623e-002
19519	20.255	2.9091	0.	2.1193e-002
19520	20.164	2.9091	5.e-002	4.4356
19521	20.164	3.1818	0.	2.0629e-002
19522	20.255	3.0909	0.	2.1192e-002
19523	20.164	3.0909	5.e-002	4.4356
19524	20.164	3.3636	0.	2.0644e-002
19525	20.255	3.2727	0.	2.1206e-002
19526	20.164	3.2727	5.e-002	4.431
19527	20.164	3.5455	0.	2.0665e-002
19528	20.255	3.4545	0.	2.1239e-002
19529	20.164	3.4545	5.e-002	4.4221
19530	20.164	3.7273	0.	2.0691e-002
19531	20.255	3.6364	0.	2.133e-002
19532	20.164	3.6364	5.e-002	4.4091
19533	20.164	3.9091	0.	2.0762e-002
19534	20.255	3.8182	0.	2.1636e-002
19535	20.164	3.8182	5.e-002	4.3923
19536	20.164	4.0909	0.	2.1063e-002
19537	20.255	4.	0.	2.3026e-002
19538	20.164	4.	5.e-002	4.3721
19539	20.164	4.2727	0.	2.2507e-002
19540	20.255	4.1818	0.	4.9481e-002
19541	20.164	4.1818	5.e-002	4.3492
19542	20.164	4.4545	0.	3.8188e-002
19543	20.255	4.3636	0.	1.2383
19544	20.164	4.3636	5.e-002	4.3243
19545	20.164	4.6364	0.	1.2615
19546	20.255	4.5455	0.	2.6947
19547	20.164	4.5455	5.e-002	4.2981
19548	20.164	4.8182	0.	3.0469
19549	20.255	4.7273	0.	4.1941
19550	20.164	4.7273	5.e-002	4.2714
19551	20.164	5.	0.	4.8483
19552	20.255	4.9091	0.	5.7126
19553	20.164	4.9091	5.e-002	4.2451
19554	20.164	5.1818	0.	6.6494
19555	20.255	5.0909	0.	7.2372
19556	20.164	5.0909	5.e-002	4.2199
19557	20.164	5.3636	0.	8.4522
19558	20.255	5.2727	0.	8.7669
19559	20.164	5.2727	5.e-002	4.1958
19560	20.164	5.5455	0.	10.313
19561	20.255	5.4545	0.	10.318
19562	20.164	5.4545	5.e-002	4.1632
19563	20.164	5.7273	0.	13.02
19564	20.255	5.6364	0.	12.002
19565	20.164	5.6364	5.e-002	3.9657
19566	20.255	5.8182	0.	15.41
19567	20.164	5.8182	5.e-002	1.1907
19568	20.164	5.9091	0.	10.319
19569	20.347	0.27273	0.	14.244
19570	20.438	0.18182	0.	16.459
19571	20.347	0.18182	5.e-002	1.2023
19572	20.347	9.0909e-002	0.	10.984
19573	20.347	0.45455	0.	11.962
19574	20.438	0.36364	0.	13.431
19575	20.347	0.36364	5.e-002	3.9634
19576	20.347	0.63636	0.	10.595
19577	20.438	0.54545	0.	12.228
19578	20.347	0.54545	5.e-002	4.1585
19579	20.347	0.81818	0.	9.3195
19580	20.438	0.72727	0.	11.193
19581	20.347	0.72727	5.e-002	4.1888
19582	20.347	1.	0.	8.0698
19583	20.438	0.90909	0.	10.205
19584	20.347	0.90909	5.e-002	4.21
19585	20.347	1.1818	0.	6.8322
19586	20.438	1.0909	0.	9.2382
19587	20.347	1.0909	5.e-002	4.2319
19588	20.347	1.3636	0.	5.6073
19589	20.438	1.2727	0.	8.2813
19590	20.347	1.2727	5.e-002	4.2546
19591	20.347	1.5455	0.	4.4061
19592	20.438	1.4545	0.	7.3351
19593	20.347	1.4545	5.e-002	4.2775
19594	20.347	1.7273	0.	3.248
19595	20.438	1.6364	0.	6.4094
19596	20.347	1.6364	5.e-002	4.3
19597	20.347	1.9091	0.	2.1585
19598	20.438	1.8182	0.	5.5212
19599	20.347	1.8182	5.e-002	4.3213
19600	20.347	2.0909	0.	1.1669
19601	20.438	2.	0.	4.6928
19602	20.347	2.	5.e-002	4.3408
19603	20.347	2.2727	0.	0.30656
19604	20.438	2.1818	0.	3.9496
19605	20.347	2.1818	5.e-002	4.358
19606	20.347	2.4545	0.	2.3704e-002
19607	20.438	2.3636	0.	3.317
19608	20.347	2.3636	5.e-002	4.3724
19609	20.347	2.6364	0.	2.2095e-002
19610	20.438	2.5455	0.	2.8188
19611	20.347	2.5455	5.e-002	4.3836
19612	20.347	2.8182	0.	2.1835e-002
19613	20.438	2.7273	0.	2.4748
19614	20.347	2.7273	5.e-002	4.3912
19615	20.347	3.	0.	2.1784e-002
19616	20.438	2.9091	0.	2.2991
19617	20.347	2.9091	5.e-002	4.3951
19618	20.347	3.1818	0.	2.1834e-002
19619	20.438	3.0909	0.	2.2991
19620	20.347	3.0909	5.e-002	4.3951
19621	20.347	3.3636	0.	2.2096e-002
19622	20.438	3.2727	0.	2.4748
19623	20.347	3.2727	5.e-002	4.3912
19624	20.347	3.5455	0.	2.3703e-002
19625	20.438	3.4545	0.	2.8188
19626	20.347	3.4545	5.e-002	4.3836
19627	20.347	3.7273	0.	0.30655
19628	20.438	3.6364	0.	3.317
19629	20.347	3.6364	5.e-002	4.3724
19630	20.347	3.9091	0.	1.1669
19631	20.438	3.8182	0.	3.9496
19632	20.347	3.8182	5.e-002	4.358
19633	20.347	4.0909	0.	2.1585
19634	20.438	4.	0.	4.6928
19635	20.347	4.	5.e-002	4.3408
19636	20.347	4.2727	0.	3.248
19637	20.438	4.1818	0.	5.5211
19638	20.347	4.1818	5.e-002	4.3213
19639	20.347	4.4545	0.	4.4061
19640	20.438	4.3636	0.	6.4093
19641	20.347	4.3636	5.e-002	4.3
19642	20.347	4.6364	0.	5.6073
19643	20.438	4.5455	0.	7.3351
19644	20.347	4.5455	5.e-002	4.2775
19645	20.347	4.8182	0.	6.8322
19646	20.438	4.7273	0.	8.2813
19647	20.347	4.7273	5.e-002	4.2546
19648	20.347	5.	0.	8.0698
19649	20.438	4.9091	0.	9.2382
19650	20.347	4.9091	5.e-002	4.2319
19651	20.347	5.1818	0.	9.3195
19652	20.438	5.0909	0.	10.205
19653	20.347	5.0909	5.e-002	4.21
19654	20.347	5.3636	0.	10.595
19655	20.438	5.2727	0.	11.193
19656	20.347	5.2727	5.e-002	4.1888
19657	20.347	5.5455	0.	11.962
19658	20.438	5.4545	0.	12.228
19659	20.347	5.4545	5.e-002	4.1585
19660	20.347	5.7273	0.	14.244
19661	20.438	5.6364	0.	13.431
19662	20.347	5.6364	5.e-002	3.9634
19663	20.438	5.8182	0.	16.458
19664	20.347	5.8182	5.e-002	1.2023
19665	20.347	5.9091	0.	10.984
19666	20.529	0.27273	0.	15.49
19667	20.621	0.18182	0.	17.514
19668	20.529	0.18182	5.e-002	1.2191
19669	20.529	9.0909e-002	0.	11.657
19670	20.529	0.45455	0.	13.649
19671	20.621	0.36364	0.	14.888
19672	20.529	0.36364	5.e-002	3.9587
19673	20.529	0.63636	0.	12.785
19674	20.621	0.54545	0.	14.179
19675	20.529	0.54545	5.e-002	4.1515
19676	20.529	0.81818	0.	12.041
19677	20.621	0.72727	0.	13.668
19678	20.529	0.72727	5.e-002	4.18
19679	20.529	1.	0.	11.34
19680	20.621	0.90909	0.	13.225
19681	20.529	0.90909	5.e-002	4.199
19682	20.529	1.1818	0.	10.657
19683	20.621	1.0909	0.	12.811
19684	20.529	1.0909	5.e-002	4.2185
19685	20.529	1.3636	0.	9.9825
19686	20.621	1.2727	0.	12.406
19687	20.529	1.2727	5.e-002	4.2384
19688	20.529	1.5455	0.	9.3149
19689	20.621	1.4545	0.	11.998
19690	20.529	1.4545	5.e-002	4.2584
19691	20.529	1.7273	0.	8.662
19692	20.621	1.6364	0.	11.586
19693	20.529	1.6364	5.e-002	4.278
19694	20.529	1.9091	0.	8.0377
19695	20.621	1.8182	0.	11.177
19696	20.529	1.8182	5.e-002	4.2965
19697	20.529	2.0909	0.	7.4603
19698	20.621	2.	0.	10.781
19699	20.529	2.	5.e-002	4.3135
19700	20.529	2.2727	0.	6.9503
19701	20.621	2.1818	0.	10.415
19702	20.529	2.1818	5.e-002	4.3285
19703	20.529	2.4545	0.	6.5281
19704	20.621	2.3636	0.	10.095
19705	20.529	2.3636	5.e-002	4.341
19706	20.529	2.6364	0.	6.2118
19707	20.621	2.5455	0.	9.8383
19708	20.529	2.5455	5.e-002	4.3506
19709	20.529	2.8182	0.	6.0159
19710	20.621	2.7273	0.	9.6583
19711	20.529	2.7273	5.e-002	4.3573
19712	20.529	3.	0.	5.9496
19713	20.621	2.9091	0.	9.5656
19714	20.529	2.9091	5.e-002	4.3606
19715	20.529	3.1818	0.	6.0159
19716	20.621	3.0909	0.	9.5656
19717	20.529	3.0909	5.e-002	4.3606
19718	20.529	3.3636	0.	6.2118
19719	20.621	3.2727	0.	9.6583
19720	20.529	3.2727	5.e-002	4.3573
19721	20.529	3.5455	0.	6.5281
19722	20.621	3.4545	0.	9.8383
19723	20.529	3.4545	5.e-002	4.3506
19724	20.529	3.7273	0.	6.9503
19725	20.621	3.6364	0.	10.095
19726	20.529	3.6364	5.e-002	4.341
19727	20.529	3.9091	0.	7.4603
19728	20.621	3.8182	0.	10.415
19729	20.529	3.8182	5.e-002	4.3285
19730	20.529	4.0909	0.	8.0377
19731	20.621	4.	0.	10.781
19732	20.529	4.	5.e-002	4.3135
19733	20.529	4.2727	0.	8.662
19734	20.621	4.1818	0.	11.177
19735	20.529	4.1818	5.e-002	4.2965
19736	20.529	4.4545	0.	9.3149
19737	20.621	4.3636	0.	11.586
19738	20.529	4.3636	5.e-002	4.278
19739	20.529	4.6364	0.	9.9825
19740	20.621	4.5455	0.	11.998
19741	20.529	4.5455	5.e-002	4.2585
19742	20.529	4.8182	0.	10.657
19743	20.621	4.7273	0.	12.406
19744	20.529	4.7273	5.e-002	4.2384
19745	20.529	5.	0.	11.34
19746	20.621	4.9091	0.	12.811
19747	20.529	4.9091	5.e-002	4.2185
19748	20.529	5.1818	0.	12.041
19749	20.621	5.0909	0.	13.225
19750	20.529	5.0909	5.e-002	4.199
19751	20.529	5.3636	0.	12.785
19752	20.621	5.2727	0.	13.668
19753	20.529	5.2727	5.e-002	4.18
19754	20.529	5.5455	0.	13.649
19755	20.621	5.4545	0.	14.179
19756	20.529	5.4545	5.e-002	4.1515
19757	20.529	5.7273	0.	15.49
19758	20.621	5.6364	0.	14.888
19759	20.529	5.6364	5.e-002	3.9587
19760	20.621	5.8182	0.	17.514
19761	20.529	5.8182	5.e-002	1.2191
19762	20.529	5.9091	0.	11.657
19763	20.712	0.27273	0.	16.749
19764	20.803	0.18182	0.	18.568
19765	20.712	0.18182	5.e-002	1.2423
19766	20.712	9.0909e-002	0.	12.333
19767	20.712	0.45455	0.	15.367
19768	20.803	0.36364	0.	16.366
19769	20.712	0.36364	5.e-002	3.9526
19770	20.712	0.63636	0.	15.019
19771	20.803	0.54545	0.	16.167
19772	20.712	0.54545	5.e-002	4.1429
19773	20.712	0.81818	0.	14.813
19774	20.803	0.72727	0.	16.191
19775	20.712	0.72727	5.e-002	4.1701
19776	20.712	1.	0.	14.661
19777	20.803	0.90909	0.	16.298
19778	20.712	0.90909	5.e-002	4.1876
19779	20.712	1.1818	0.	14.528
19780	20.803	1.0909	0.	16.437
19781	20.712	1.0909	5.e-002	4.2052
19782	20.712	1.3636	0.	14.393
19783	20.803	1.2727	0.	16.578
19784	20.712	1.2727	5.e-002	4.2231
19785	20.712	1.5455	0.	14.244
19786	20.803	1.4545	0.	16.698
19787	20.712	1.4545	5.e-002	4.2409
19788	20.712	1.7273	0.	14.079
19789	20.803	1.6364	0.	16.787
19790	20.712	1.6364	5.e-002	4.2583
19791	20.712	1.9091	0.	13.901
19792	20.803	1.8182	0.	16.84
19793	20.712	1.8182	5.e-002	4.2748
19794	20.712	2.0909	0.	13.718
19795	20.803	2.	0.	16.859
19796	20.712	2.	5.e-002	4.2898
19797	20.712	2.2727	0.	13.544
19798	20.803	2.1818	0.	16.852
19799	20.712	2.1818	5.e-002	4.303
19800	20.712	2.4545	0.	13.391
19801	20.803	2.3636	0.	16.829
19802	20.712	2.3636	5.e-002	4.314
19803	20.712	2.6364	0.	13.271
19804	20.803	2.5455	0.	16.801
19805	20.712	2.5455	5.e-002	4.3226
19806	20.712	2.8182	0.	13.194
19807	20.803	2.7273	0.	16.775
19808	20.712	2.7273	5.e-002	4.3284
19809	20.712	3.	0.	13.168
19810	20.803	2.9091	0.	16.761
19811	20.712	2.9091	5.e-002	4.3314
19812	20.712	3.1818	0.	13.194
19813	20.803	3.0909	0.	16.761
19814	20.712	3.0909	5.e-002	4.3314
19815	20.712	3.3636	0.	13.271
19816	20.803	3.2727	0.	16.775
19817	20.712	3.2727	5.e-002	4.3284
19818	20.712	3.5455	0.	13.391
19819	20.803	3.4545	0.	16.801
19820	20.712	3.4545	5.e-002	4.3226
19821	20.712	3.7273	0.	13.544
19822	20.803	3.6364	0.	16.829
19823	20.712	3.6364	5.e-002	4.314
19824	20.712	3.9091	0.	13.718
19825	20.803	3.8182	0.	16.852
19826	20.712	3.8182	5.e-002	4.303
19827	20.712	4.0909	0.	13.901
19828	20.803	4.	0.	16.859
19829	20.712	4.	5.e-002	4.2898
19830	20.712	4.2727	0.	14.079
19831	20.803	4.1818	0.	16.84
19832	20.712	4.1818	5.e-002	4.2748
19833	20.712	4.4545	0.	14.244
19834	20.803	4.3636	0.	16.787
19835	20.712	4.3636	5.e-002	4.2583
19836	20.712	4.6364	0.	14.393
19837	20.803	4.5455	0.	16.698
19838	20.712	4.5455	5.e-002	4.241
19839	20.712	4.8182	0.	14.528
19840	20.803	4.7273	0.	16.578
19841	20.712	4.7273	5.e-002	4.2231
19842	20.712	5.	0.	14.66
19843	20.803	4.9091	0.	16.437
19844	20.712	4.9091	5.e-002	4.2052
19845	20.712	5.1818	0.	14.813
19846	20.803	5.0909	0.	16.298
19847	20.712	5.0909	5.e-002	4.1876
19848	20.712	5.3636	0.	15.019
19849	20.803	5.2727	0.	16.191
19850	20.712	5.2727	5.e-002	4.1701
19851	20.712	5.5455	0.	15.367
19852	20.803	5.4545	0.	16.167
19853	20.712	5.4545	5.e-002	4.1429
19854	20.712	5.7273	0.	16.749
19855	20.803	5.6364	0.	16.366
19856	20.712	5.6364	5.e-002	3.9526
19857	20.803	5.8182	0.	18.568
19858	20.712	5.8182	5.e-002	1.2424
19859	20.712	5.9091	0.	12.333
19860	20.895	0.27273	0.	18.015
19861	20.986	0.18182	0.	19.616
19862	20.895	0.18182	5.e-002	1.2731
19863	20.895	9.0909e-002	0.	13.007
19864	20.895	0.45455	0.	17.111
19865	20.986	0.36364	0.	17.86
19866	20.895	0.36364	5.e-002	3.9457
19867	20.895	0.63636	0.	17.293
19868	20.986	0.54545	0.	18.188
19869	20.895	0.54545	5.e-002	4.1334
19870	20.895	0.81818	0.	17.635
19871	20.986	0.72727	0.	18.763
19872	20.895	0.72727	5.e-002	4.1596
19873	20.895	1.	0.	18.037
19874	20.986	0.90909	0.	19.428
19875	20.895	0.90909	5.e-002	4.176
19876	20.895	1.1818	0.	18.454
19877	20.986	1.0909	0.	20.126
19878	20.895	1.0909	5.e-002	4.1923
19879	20.895	1.3636	0.	18.854
19880	20.986	1.2727	0.	20.812
19881	20.895	1.2727	5.e-002	4.2088
19882	20.895	1.5455	0.	19.215
19883	20.986	1.4545	0.	21.456
19884	20.895	1.4545	5.e-002	4.2251
19885	20.895	1.7273	0.	19.525
19886	20.986	1.6364	0.	22.036
19887	20.895	1.6364	5.e-002	4.2409
19888	20.895	1.9091	0.	19.778
19889	20.986	1.8182	0.	22.539
19890	20.895	1.8182	5.e-002	4.2557
19891	20.895	2.0909	0.	19.975
19892	20.986	2.	0.	22.96
19893	20.895	2.	5.e-002	4.2693
19894	20.895	2.2727	0.	20.121
19895	20.986	2.1818	0.	23.3
19896	20.895	2.1818	5.e-002	4.2812
19897	20.895	2.4545	0.	20.224
19898	20.986	2.3636	0.	23.561
19899	20.895	2.3636	5.e-002	4.2912
19900	20.895	2.6364	0.	20.291
19901	20.986	2.5455	0.	23.749
19902	20.895	2.5455	5.e-002	4.2989
19903	20.895	2.8182	0.	20.328
19904	20.986	2.7273	0.	23.871
19905	20.895	2.7273	5.e-002	4.3041
19906	20.895	3.	0.	20.339
19907	20.986	2.9091	0.	23.931
19908	20.895	2.9091	5.e-002	4.3068
19909	20.895	3.1818	0.	20.328
19910	20.986	3.0909	0.	23.931
19911	20.895	3.0909	5.e-002	4.3068
19912	20.895	3.3636	0.	20.291
19913	20.986	3.2727	0.	23.871
19914	20.895	3.2727	5.e-002	4.3041
19915	20.895	3.5455	0.	20.224
19916	20.986	3.4545	0.	23.749
19917	20.895	3.4545	5.e-002	4.2989
19918	20.895	3.7273	0.	20.121
19919	20.986	3.6364	0.	23.561
19920	20.895	3.6364	5.e-002	4.2912
19921	20.895	3.9091	0.	19.975
19922	20.986	3.8182	0.	23.3
19923	20.895	3.8182	5.e-002	4.2812
19924	20.895	4.0909	0.	19.778
19925	20.986	4.	0.	22.96
19926	20.895	4.	5.e-002	4.2693
19927	20.895	4.2727	0.	19.524
19928	20.986	4.1818	0.	22.539
19929	20.895	4.1818	5.e-002	4.2558
19930	20.895	4.4545	0.	19.215
19931	20.986	4.3636	0.	22.036
19932	20.895	4.3636	5.e-002	4.2409
19933	20.895	4.6364	0.	18.854
19934	20.986	4.5455	0.	21.456
19935	20.895	4.5455	5.e-002	4.2251
19936	20.895	4.8182	0.	18.454
19937	20.986	4.7273	0.	20.812
19938	20.895	4.7273	5.e-002	4.2088
19939	20.895	5.	0.	18.037
19940	20.986	4.9091	0.	20.126
19941	20.895	4.9091	5.e-002	4.1923
19942	20.895	5.1818	0.	17.635
19943	20.986	5.0909	0.	19.428
19944	20.895	5.0909	5.e-002	4.176
19945	20.895	5.3636	0.	17.293
19946	20.986	5.2727	0.	18.763
19947	20.895	5.2727	5.e-002	4.1596
19948	20.895	5.5455	0.	17.111
19949	20.986	5.4545	0.	18.188
19950	20.895	5.4545	5.e-002	4.1334
19951	20.895	5.7273	0.	18.015
19952	20.986	5.6364	0.	17.859
19953	20.895	5.6364	5.e-002	3.9457
19954	20.986	5.8182	0.	19.616
19955	20.895	5.8182	5.e-002	1.2732
19956	20.895	5.9091	0.	13.007
19957	21.077	0.27273	0.	19.282
19958	21.169	0.18182	0.	20.65
19959	21.077	0.18182	5.e-002	1.3123
19960	21.077	9.0909e-002	0.	13.677
19961	21.077	0.45455	0.	18.878
19962	21.169	0.36364	0.	19.366
19963	21.077	0.36364	5.e-002	3.9386
19964	21.077	0.63636	0.	19.609
19965	21.169	0.54545	0.	20.244
19966	21.077	0.54545	5.e-002	4.1234
19967	21.077	0.81818	0.	20.512
19968	21.169	0.72727	0.	21.386
19969	21.077	0.72727	5.e-002	4.149
19970	21.077	1.	0.	21.478
19971	21.169	0.90909	0.	22.625
19972	21.077	0.90909	5.e-002	4.1648
19973	21.077	1.1818	0.	22.449
19974	21.169	1.0909	0.	23.89
19975	21.077	1.0909	5.e-002	4.1802
19976	21.077	1.3636	0.	23.384
19977	21.169	1.2727	0.	25.127
19978	21.077	1.2727	5.e-002	4.1957
19979	21.077	1.5455	0.	24.25
19980	21.169	1.4545	0.	26.294
19981	21.077	1.4545	5.e-002	4.2109
19982	21.077	1.7273	0.	25.027
19983	21.169	1.6364	0.	27.361
19984	21.077	1.6364	5.e-002	4.2256
19985	21.077	1.9091	0.	25.701
19986	21.169	1.8182	0.	28.306
19987	21.077	1.8182	5.e-002	4.2394
19988	21.077	2.0909	0.	26.266
19989	21.169	2.	0.	29.12
19990	21.077	2.	5.e-002	4.252
19991	21.077	2.2727	0.	26.722
19992	21.169	2.1818	0.	29.794
19993	21.077	2.1818	5.e-002	4.2629
19994	21.077	2.4545	0.	27.07
19995	21.169	2.3636	0.	30.33
19996	21.077	2.3636	5.e-002	4.2721
19997	21.077	2.6364	0.	27.315
19998	21.169	2.5455	0.	30.727
19999	21.077	2.5455	5.e-002	4.2792
20000	21.077	2.8182	0.	27.46
20001	21.169	2.7273	0.	30.99
20002	21.077	2.7273	5.e-002	4.284
20003	21.077	3.	0.	27.508
20004	21.169	2.9091	0.	31.121
20005	21.077	2.9091	5.e-002	4.2864
20006	21.077	3.1818	0.	27.46
20007	21.169	3.0909	0.	31.121
20008	21.077	3.0909	5.e-002	4.2864
20009	21.077	3.3636	0.	27.315
20010	21.169	3.2727	0.	30.99
20011	21.077	3.2727	5.e-002	4.284
20012	21.077	3.5455	0.	27.07
20013	21.169	3.4545	0.	30.727
20014	21.077	3.4545	5.e-002	4.2792
20015	21.077	3.7273	0.	26.722
20016	21.169	3.6364	0.	30.33
20017	21.077	3.6364	5.e-002	4.2721
20018	21.077	3.9091	0.	26.266
20019	21.169	3.8182	0.	29.794
20020	21.077	3.8182	5.e-002	4.2629
20021	21.077	4.0909	0.	25.701
20022	21.169	4.	0.	29.12
20023	21.077	4.	5.e-002	4.252
20024	21.077	4.2727	0.	25.027
20025	21.169	4.1818	0.	28.306
20026	21.077	4.1818	5.e-002	4.2394
20027	21.077	4.4545	0.	24.25
20028	21.169	4.3636	0.	27.361
20029	21.077	4.3636	5.e-002	4.2256
20030	21.077	4.6364	0.	23.384
20031	21.169	4.5455	0.	26.294
20032	21.077	4.5455	5.e-002	4.2109
20033	21.077	4.8182	0.	22.449
20034	21.169	4.7273	0.	25.127
20035	21.077	4.7273	5.e-002	4.1957
20036	21.077	5.	0.	21.478
20037	21.169	4.9091	0.	23.89
20038	21.077	4.9091	5.e-002	4.1802
20039	21.077	5.1818	0.	20.512
20040	21.169	5.0909	0.	22.625
20041	21.077	5.0909	5.e-002	4.1648
20042	21.077	5.3636	0.	19.609
20043	21.169	5.2727	0.	21.386
20044	21.077	5.2727	5.e-002	4.149
20045	21.077	5.5455	0.	18.878
20046	21.169	5.4545	0.	20.244
20047	21.077	5.4545	5.e-002	4.1234
20048	21.077	5.7273	0.	19.282
20049	21.169	5.6364	0.	19.366
20050	21.077	5.6364	5.e-002	3.9386
20051	21.169	5.8182	0.	20.649
20052	21.077	5.8182	5.e-002	1.3123
20053	21.077	5.9091	0.	13.677
20054	21.26	0.27273	0.	20.546
20055	21.351	0.18182	0.	21.664
20056	21.26	0.18182	5.e-002	1.3606
20057	21.26	9.0909e-002	0.	14.338
20058	21.26	0.45455	0.	20.668
20059	21.351	0.36364	0.	20.883
20060	21.26	0.36364	5.e-002	3.9318
20061	21.26	0.63636	0.	21.968
20062	21.351	0.54545	0.	22.335
20063	21.26	0.54545	5.e-002	4.1134
20064	21.26	0.81818	0.	23.452
20065	21.351	0.72727	0.	24.068
20066	21.26	0.72727	5.e-002	4.1386
20067	21.26	1.	0.	24.996
20068	21.351	0.90909	0.	25.901
20069	21.26	0.90909	5.e-002	4.1541
20070	21.26	1.1818	0.	26.532
20071	21.351	1.0909	0.	27.748
20072	21.26	1.0909	5.e-002	4.169
20073	21.26	1.3636	0.	28.005
20074	21.351	1.2727	0.	29.544
20075	21.26	1.2727	5.e-002	4.184
20076	21.26	1.5455	0.	29.376
20077	21.351	1.4545	0.	31.238
20078	21.26	1.4545	5.e-002	4.1986
20079	21.26	1.7273	0.	30.616
20080	21.351	1.6364	0.	32.79
20081	21.26	1.6364	5.e-002	4.2126
20082	21.26	1.9091	0.	31.704
20083	21.351	1.8182	0.	34.174
20084	21.26	1.8182	5.e-002	4.2257
20085	21.26	2.0909	0.	32.628
20086	21.351	2.	0.	35.372
20087	21.26	2.	5.e-002	4.2376
20088	21.26	2.2727	0.	33.385
20089	21.351	2.1818	0.	36.374
20090	21.26	2.1818	5.e-002	4.2479
20091	21.26	2.4545	0.	33.971
20092	21.351	2.3636	0.	37.176
20093	21.26	2.3636	5.e-002	4.2565
20094	21.26	2.6364	0.	34.387
20095	21.351	2.5455	0.	37.775
20096	21.26	2.5455	5.e-002	4.2632
20097	21.26	2.8182	0.	34.636
20098	21.351	2.7273	0.	38.174
20099	21.26	2.7273	5.e-002	4.2677
20100	21.26	3.	0.	34.719
20101	21.351	2.9091	0.	38.373
20102	21.26	2.9091	5.e-002	4.27
20103	21.26	3.1818	0.	34.636
20104	21.351	3.0909	0.	38.373
20105	21.26	3.0909	5.e-002	4.27
20106	21.26	3.3636	0.	34.387
20107	21.351	3.2727	0.	38.174
20108	21.26	3.2727	5.e-002	4.2677
20109	21.26	3.5455	0.	33.971
20110	21.351	3.4545	0.	37.775
20111	21.26	3.4545	5.e-002	4.2632
20112	21.26	3.7273	0.	33.385
20113	21.351	3.6364	0.	37.176
20114	21.26	3.6364	5.e-002	4.2565
20115	21.26	3.9091	0.	32.628
20116	21.351	3.8182	0.	36.374
20117	21.26	3.8182	5.e-002	4.2479
20118	21.26	4.0909	0.	31.704
20119	21.351	4.	0.	35.372
20120	21.26	4.	5.e-002	4.2376
20121	21.26	4.2727	0.	30.616
20122	21.351	4.1818	0.	34.174
20123	21.26	4.1818	5.e-002	4.2257
20124	21.26	4.4545	0.	29.376
20125	21.351	4.3636	0.	32.79
20126	21.26	4.3636	5.e-002	4.2126
20127	21.26	4.6364	0.	28.005
20128	21.351	4.5455	0.	31.238
20129	21.26	4.5455	5.e-002	4.1986
20130	21.26	4.8182	0.	26.532
20131	21.351	4.7273	0.	29.544
20132	21.26	4.7273	5.e-002	4.184
20133	21.26	5.	0.	24.996
20134	21.351	4.9091	0.	27.748
20135	21.26	4.9091	5.e-002	4.1691
20136	21.26	5.1818	0.	23.452
20137	21.351	5.0909	0.	25.901
20138	21.26	5.0909	5.e-002	4.1541
20139	21.26	5.3636	0.	21.968
20140	21.351	5.2727	0.	24.068
20141	21.26	5.2727	5.e-002	4.1387
20142	21.26	5.5455	0.	20.668
20143	21.351	5.4545	0.	22.335
20144	21.26	5.4545	5.e-002	4.1134
20145	21.26	5.7273	0.	20.546
20146	21.351	5.6364	0.	20.883
20147	21.26	5.6364	5.e-002	3.9318
20148	21.351	5.8182	0.	21.664
20149	21.26	5.8182	5.e-002	1.3606
20150	21.26	5.9091	0.	14.338
20151	21.443	0.27273	0.	21.803
20152	21.534	0.18182	0.	22.653
20153	21.443	0.18182	5.e-002	1.4185
20154	21.443	9.0909e-002	0.	14.987
20155	21.443	0.45455	0.	22.481
20156	21.534	0.36364	0.	22.41
20157	21.443	0.36364	5.e-002	3.9255
20158	21.443	0.63636	0.	24.378
20159	21.534	0.54545	0.	24.467
20160	21.443	0.54545	5.e-002	4.1036
20161	21.443	0.81818	0.	26.467
20162	21.534	0.72727	0.	26.82
20163	21.443	0.72727	5.e-002	4.1288
20164	21.443	1.	0.	28.609
20165	21.534	0.90909	0.	29.271
20166	21.443	0.90909	5.e-002	4.1442
20167	21.443	1.1818	0.	30.722
20168	21.534	1.0909	0.	31.72
20169	21.443	1.0909	5.e-002	4.1591
20170	21.443	1.3636	0.	32.743
20171	21.534	1.2727	0.	34.089
20172	21.443	1.2727	5.e-002	4.1739
20173	21.443	1.5455	0.	34.623
20174	21.534	1.4545	0.	36.316
20175	21.443	1.4545	5.e-002	4.1882
20176	21.443	1.7273	0.	36.324
20177	21.534	1.6364	0.	38.356
20178	21.443	1.6364	5.e-002	4.2019
20179	21.443	1.9091	0.	37.821
20180	21.534	1.8182	0.	40.176
20181	21.443	1.8182	5.e-002	4.2146
20182	21.443	2.0909	0.	39.099
20183	21.534	2.	0.	41.754
20184	21.443	2.	5.e-002	4.2261
20185	21.443	2.2727	0.	40.148
20186	21.534	2.1818	0.	43.077
20187	21.443	2.1818	5.e-002	4.2361
20188	21.443	2.4545	0.	40.964
20189	21.534	2.3636	0.	44.137
20190	21.443	2.3636	5.e-002	4.2444
20191	21.443	2.6364	0.	41.547
20192	21.534	2.5455	0.	44.933
20193	21.443	2.5455	5.e-002	4.2508
20194	21.443	2.8182	0.	41.896
20195	21.534	2.7273	0.	45.462
20196	21.443	2.7273	5.e-002	4.2552
20197	21.443	3.	0.	42.012
20198	21.534	2.9091	0.	45.727
20199	21.443	2.9091	5.e-002	4.2574
20200	21.443	3.1818	0.	41.896
20201	21.534	3.0909	0.	45.727
20202	21.443	3.0909	5.e-002	4.2574
20203	21.443	3.3636	0.	41.547
20204	21.534	3.2727	0.	45.462
20205	21.443	3.2727	5.e-002	4.2552
20206	21.443	3.5455	0.	40.964
20207	21.534	3.4545	0.	44.933
20208	21.443	3.4545	5.e-002	4.2508
20209	21.443	3.7273	0.	40.148
20210	21.534	3.6364	0.	44.137
20211	21.443	3.6364	5.e-002	4.2444
20212	21.443	3.9091	0.	39.099
20213	21.534	3.8182	0.	43.077
20214	21.443	3.8182	5.e-002	4.2361
20215	21.443	4.0909	0.	37.821
20216	21.534	4.	0.	41.754
20217	21.443	4.	5.e-002	4.2261
20218	21.443	4.2727	0.	36.324
20219	21.534	4.1818	0.	40.176
20220	21.443	4.1818	5.e-002	4.2146
20221	21.443	4.4545	0.	34.623
20222	21.534	4.3636	0.	38.356
20223	21.443	4.3636	5.e-002	4.2019
20224	21.443	4.6364	0.	32.743
20225	21.534	4.5455	0.	36.316
20226	21.443	4.5455	5.e-002	4.1882
20227	21.443	4.8182	0.	30.722
20228	21.534	4.7273	0.	34.089
20229	21.443	4.7273	5.e-002	4.1739
20230	21.443	5.	0.	28.609
20231	21.534	4.9091	0.	31.72
20232	21.443	4.9091	5.e-002	4.1591
20233	21.443	5.1818	0.	26.467
20234	21.534	5.0909	0.	29.271
20235	21.443	5.0909	5.e-002	4.1442
20236	21.443	5.3636	0.	24.378
20237	21.534	5.2727	0.	26.82
20238	21.443	5.2727	5.e-002	4.1288
20239	21.443	5.5455	0.	22.481
20240	21.534	5.4545	0.	24.467
20241	21.443	5.4545	5.e-002	4.1036
20242	21.443	5.7273	0.	21.803
20243	21.534	5.6364	0.	22.41
20244	21.443	5.6364	5.e-002	3.9256
20245	21.534	5.8182	0.	22.653
20246	21.443	5.8182	5.e-002	1.4185
20247	21.443	5.9091	0.	14.987
20248	21.625	0.27273	0.	23.051
20249	21.717	0.18182	0.	23.611
20250	21.625	0.18182	5.e-002	1.4867
20251	21.625	9.0909e-002	0.	15.62
20252	21.625	0.45455	0.	24.321
20253	21.717	0.36364	0.	23.948
20254	21.625	0.36364	5.e-002	3.9202
20255	21.625	0.63636	0.	26.848
20256	21.717	0.54545	0.	26.647
20257	21.625	0.54545	5.e-002	4.0944
20258	21.625	0.81818	0.	29.571
20259	21.717	0.72727	0.	29.657
20260	21.625	0.72727	5.e-002	4.1198
20261	21.625	1.	0.	32.336
20262	21.717	0.90909	0.	32.757
20263	21.625	0.90909	5.e-002	4.1355
20264	21.625	1.1818	0.	35.047
20265	21.717	1.0909	0.	35.832
20266	21.625	1.0909	5.e-002	4.1507
20267	21.625	1.3636	0.	37.627
20268	21.717	1.2727	0.	38.79
20269	21.625	1.2727	5.e-002	4.1656
20270	21.625	1.5455	0.	40.021
20271	21.717	1.4545	0.	41.562
20272	21.625	1.4545	5.e-002	4.18
20273	21.625	1.7273	0.	42.184
20274	21.717	1.6364	0.	44.094
20275	21.625	1.6364	5.e-002	4.1937
20276	21.625	1.9091	0.	44.088
20277	21.717	1.8182	0.	46.349
20278	21.625	1.8182	5.e-002	4.2064
20279	21.625	2.0909	0.	45.713
20280	21.717	2.	0.	48.302
20281	21.625	2.	5.e-002	4.2177
20282	21.625	2.2727	0.	47.049
20283	21.717	2.1818	0.	49.939
20284	21.625	2.1818	5.e-002	4.2276
20285	21.625	2.4545	0.	48.09
20286	21.717	2.3636	0.	51.252
20287	21.625	2.3636	5.e-002	4.2358
20288	21.625	2.6364	0.	48.833
20289	21.717	2.5455	0.	52.237
20290	21.625	2.5455	5.e-002	4.242
20291	21.625	2.8182	0.	49.279
20292	21.717	2.7273	0.	52.894
20293	21.625	2.7273	5.e-002	4.2463
20294	21.625	3.	0.	49.428
20295	21.717	2.9091	0.	53.222
20296	21.625	2.9091	5.e-002	4.2484
20297	21.625	3.1818	0.	49.279
20298	21.717	3.0909	0.	53.222
20299	21.625	3.0909	5.e-002	4.2484
20300	21.625	3.3636	0.	48.833
20301	21.717	3.2727	0.	52.894
20302	21.625	3.2727	5.e-002	4.2463
20303	21.625	3.5455	0.	48.09
20304	21.717	3.4545	0.	52.237
20305	21.625	3.4545	5.e-002	4.242
20306	21.625	3.7273	0.	47.049
20307	21.717	3.6364	0.	51.252
20308	21.625	3.6364	5.e-002	4.2358
20309	21.625	3.9091	0.	45.713
20310	21.717	3.8182	0.	49.939
20311	21.625	3.8182	5.e-002	4.2276
20312	21.625	4.0909	0.	44.088
20313	21.717	4.	0.	48.302
20314	21.625	4.	5.e-002	4.2178
20315	21.625	4.2727	0.	42.184
20316	21.717	4.1818	0.	46.349
20317	21.625	4.1818	5.e-002	4.2064
20318	21.625	4.4545	0.	40.021
20319	21.717	4.3636	0.	44.094
20320	21.625	4.3636	5.e-002	4.1937
20321	21.625	4.6364	0.	37.627
20322	21.717	4.5455	0.	41.562
20323	21.625	4.5455	5.e-002	4.18
20324	21.625	4.8182	0.	35.047
20325	21.717	4.7273	0.	38.79
20326	21.625	4.7273	5.e-002	4.1656
20327	21.625	5.	0.	32.336
20328	21.717	4.9091	0.	35.832
20329	21.625	4.9091	5.e-002	4.1507
20330	21.625	5.1818	0.	29.571
20331	21.717	5.0909	0.	32.757
20332	21.625	5.0909	5.e-002	4.1355
20333	21.625	5.3636	0.	26.848
20334	21.717	5.2727	0.	29.657
20335	21.625	5.2727	5.e-002	4.1198
20336	21.625	5.5455	0.	24.321
20337	21.717	5.4545	0.	26.647
20338	21.625	5.4545	5.e-002	4.0944
20339	21.625	5.7273	0.	23.051
20340	21.717	5.6364	0.	23.948
20341	21.625	5.6364	5.e-002	3.9202
20342	21.717	5.8182	0.	23.611
20343	21.625	5.8182	5.e-002	1.4867
20344	21.625	5.9091	0.	15.62
20345	21.808	0.27273	0.	24.286
20346	21.899	0.18182	0.	24.531
20347	21.808	0.18182	5.e-002	1.5656
20348	21.808	9.0909e-002	0.	16.235
20349	21.808	0.45455	0.	26.193
20350	21.899	0.36364	0.	25.499
20351	21.808	0.36364	5.e-002	3.916
20352	21.808	0.63636	0.	29.39
20353	21.899	0.54545	0.	28.888
20354	21.808	0.54545	5.e-002	4.086
20355	21.808	0.81818	0.	32.785
20356	21.899	0.72727	0.	32.597
20357	21.808	0.72727	5.e-002	4.1118
20358	21.808	1.	0.	36.204
20359	21.899	0.90909	0.	36.385
20360	21.808	0.90909	5.e-002	4.1282
20361	21.808	1.1818	0.	39.534
20362	21.899	1.0909	0.	40.115
20363	21.808	1.0909	5.e-002	4.144
20364	21.808	1.3636	0.	42.69
20365	21.899	1.2727	0.	43.684
20366	21.808	1.2727	5.e-002	4.1594
20367	21.808	1.5455	0.	45.605
20368	21.899	1.4545	0.	47.011
20369	21.808	1.4545	5.e-002	4.1742
20370	21.808	1.7273	0.	48.233
20371	21.899	1.6364	0.	50.039
20372	21.808	1.6364	5.e-002	4.1882
20373	21.808	1.9091	0.	50.541
20374	21.899	1.8182	0.	52.728
20375	21.808	1.8182	5.e-002	4.201
20376	21.808	2.0909	0.	52.509
20377	21.899	2.	0.	55.053
20378	21.808	2.	5.e-002	4.2125
20379	21.808	2.2727	0.	54.125
20380	21.899	2.1818	0.	56.998
20381	21.808	2.1818	5.e-002	4.2224
20382	21.808	2.4545	0.	55.384
20383	21.899	2.3636	0.	58.556
20384	21.808	2.3636	5.e-002	4.2305
20385	21.808	2.6364	0.	56.283
20386	21.899	2.5455	0.	59.725
20387	21.808	2.5455	5.e-002	4.2368
20388	21.808	2.8182	0.	56.822
20389	21.899	2.7273	0.	60.504
20390	21.808	2.7273	5.e-002	4.241
20391	21.808	3.	0.	57.002
20392	21.899	2.9091	0.	60.893
20393	21.808	2.9091	5.e-002	4.2431
20394	21.808	3.1818	0.	56.822
20395	21.899	3.0909	0.	60.893
20396	21.808	3.0909	5.e-002	4.2431
20397	21.808	3.3636	0.	56.283
20398	21.899	3.2727	0.	60.504
20399	21.808	3.2727	5.e-002	4.241
20400	21.808	3.5455	0.	55.384
20401	21.899	3.4545	0.	59.725
20402	21.808	3.4545	5.e-002	4.2368
20403	21.808	3.7273	0.	54.125
20404	21.899	3.6364	0.	58.556
20405	21.808	3.6364	5.e-002	4.2305
20406	21.808	3.9091	0.	52.509
20407	21.899	3.8182	0.	56.998
20408	21.808	3.8182	5.e-002	4.2224
20409	21.808	4.0909	0.	50.541
20410	21.899	4.	0.	55.053
20411	21.808	4.	5.e-002	4.2125
20412	21.808	4.2727	0.	48.233
20413	21.899	4.1818	0.	52.728
20414	21.808	4.1818	5.e-002	4.201
20415	21.808	4.4545	0.	45.605
20416	21.899	4.3636	0.	50.039
20417	21.808	4.3636	5.e-002	4.1882
20418	21.808	4.6364	0.	42.69
20419	21.899	4.5455	0.	47.011
20420	21.808	4.5455	5.e-002	4.1742
20421	21.808	4.8182	0.	39.534
20422	21.899	4.7273	0.	43.684
20423	21.808	4.7273	5.e-002	4.1594
20424	21.808	5.	0.	36.204
20425	21.899	4.9091	0.	40.115
20426	21.808	4.9091	5.e-002	4.144
20427	21.808	5.1818	0.	32.785
20428	21.899	5.0909	0.	36.385
20429	21.808	5.0909	5.e-002	4.1282
20430	21.808	5.3636	0.	29.39
20431	21.899	5.2727	0.	32.597
20432	21.808	5.2727	5.e-002	4.1118
20433	21.808	5.5455	0.	26.193
20434	21.899	5.4545	0.	28.888
20435	21.808	5.4545	5.e-002	4.0861
20436	21.808	5.7273	0.	24.286
20437	21.899	5.6364	0.	25.499
20438	21.808	5.6364	5.e-002	3.9161
20439	21.899	5.8182	0.	24.531
20440	21.808	5.8182	5.e-002	1.5656
20441	21.808	5.9091	0.	16.235
20442	21.991	0.27273	0.	25.507
20443	22.082	0.18182	0.	25.406
20444	21.991	0.18182	5.e-002	1.656
20445	21.991	9.0909e-002	0.	16.826
20446	21.991	0.45455	0.	28.104
20447	22.082	0.36364	0.	27.068
20448	21.991	0.36364	5.e-002	3.9133
20449	21.991	0.63636	0.	32.022
20450	22.082	0.54545	0.	31.204
20451	21.991	0.54545	5.e-002	4.0787
20452	21.991	0.81818	0.	36.135
20453	22.082	0.72727	0.	35.667
20454	21.991	0.72727	5.e-002	4.1052
20455	21.991	1.	0.	40.245
20456	22.082	0.90909	0.	40.187
20457	21.991	0.90909	5.e-002	4.1227
20458	21.991	1.1818	0.	44.222
20459	22.082	1.0909	0.	44.608
20460	21.991	1.0909	5.e-002	4.1394
20461	21.991	1.3636	0.	47.969
20462	22.082	1.2727	0.	48.809
20463	21.991	1.2727	5.e-002	4.1556
20464	21.991	1.5455	0.	51.415
20465	22.082	1.4545	0.	52.704
20466	21.991	1.4545	5.e-002	4.1711
20467	21.991	1.7273	0.	54.509
20468	22.082	1.6364	0.	56.233
20469	21.991	1.6364	5.e-002	4.1856
20470	21.991	1.9091	0.	57.218
20471	22.082	1.8182	0.	59.354
20472	21.991	1.8182	5.e-002	4.1989
20473	21.991	2.0909	0.	59.523
20474	22.082	2.	0.	62.043
20475	21.991	2.	5.e-002	4.2106
20476	21.991	2.2727	0.	61.413
20477	22.082	2.1818	0.	64.289
20478	21.991	2.1818	5.e-002	4.2207
20479	21.991	2.4545	0.	62.882
20480	22.082	2.3636	0.	66.085
20481	21.991	2.3636	5.e-002	4.2289
20482	21.991	2.6364	0.	63.931
20483	22.082	2.5455	0.	67.43
20484	21.991	2.5455	5.e-002	4.2352
20485	21.991	2.8182	0.	64.56
20486	22.082	2.7273	0.	68.325
20487	21.991	2.7273	5.e-002	4.2394
20488	21.991	3.	0.	64.77
20489	22.082	2.9091	0.	68.773
20490	21.991	2.9091	5.e-002	4.2415
20491	21.991	3.1818	0.	64.56
20492	22.082	3.0909	0.	68.773
20493	21.991	3.0909	5.e-002	4.2415
20494	21.991	3.3636	0.	63.931
20495	22.082	3.2727	0.	68.325
20496	21.991	3.2727	5.e-002	4.2394
20497	21.991	3.5455	0.	62.882
20498	22.082	3.4545	0.	67.43
20499	21.991	3.4545	5.e-002	4.2352
20500	21.991	3.7273	0.	61.413
20501	22.082	3.6364	0.	66.085
20502	21.991	3.6364	5.e-002	4.2289
20503	21.991	3.9091	0.	59.523
20504	22.082	3.8182	0.	64.289
20505	21.991	3.8182	5.e-002	4.2207
20506	21.991	4.0909	0.	57.218
20507	22.082	4.	0.	62.043
20508	21.991	4.	5.e-002	4.2106
20509	21.991	4.2727	0.	54.509
20510	22.082	4.1818	0.	59.354
20511	21.991	4.1818	5.e-002	4.1989
20512	21.991	4.4545	0.	51.415
20513	22.082	4.3636	0.	56.233
20514	21.991	4.3636	5.e-002	4.1856
20515	21.991	4.6364	0.	47.969
20516	22.082	4.5455	0.	52.704
20517	21.991	4.5455	5.e-002	4.1711
20518	21.991	4.8182	0.	44.222
20519	22.082	4.7273	0.	48.809
20520	21.991	4.7273	5.e-002	4.1556
20521	21.991	5.	0.	40.245
20522	22.082	4.9091	0.	44.608
20523	21.991	4.9091	5.e-002	4.1394
20524	21.991	5.1818	0.	36.135
20525	22.082	5.0909	0.	40.187
20526	21.991	5.0909	5.e-002	4.1227
20527	21.991	5.3636	0.	32.022
20528	22.082	5.2727	0.	35.667
20529	21.991	5.2727	5.e-002	4.1052
20530	21.991	5.5455	0.	28.104
20531	22.082	5.4545	0.	31.204
20532	21.991	5.4545	5.e-002	4.0787
20533	21.991	5.7273	0.	25.507
20534	22.082	5.6364	0.	27.068
20535	21.991	5.6364	5.e-002	3.9133
20536	22.082	5.8182	0.	25.406
20537	21.991	5.8182	5.e-002	1.656
20538	21.991	5.9091	0.	16.826
20539	22.173	0.27273	0.	26.713
20540	22.265	0.18182	0.	26.228
20541	22.173	0.18182	5.e-002	1.7586
20542	22.173	9.0909e-002	0.	17.389
20543	22.173	0.45455	0.	30.068
20544	22.265	0.36364	0.	28.663
20545	22.173	0.36364	5.e-002	3.9121
20546	22.173	0.63636	0.	34.769
20547	22.265	0.54545	0.	33.618
20548	22.173	0.54545	5.e-002	4.0727
20549	22.173	0.81818	0.	39.654
20550	22.265	0.72727	0.	38.901
20551	22.173	0.72727	5.e-002	4.1004
20552	22.173	1.	0.	44.497
20553	22.265	0.90909	0.	44.208
20554	22.173	0.90909	5.e-002	4.1193
20555	22.173	1.1818	0.	49.151
20556	22.265	1.0909	0.	49.356
20557	22.173	1.0909	5.e-002	4.1373
20558	22.173	1.3636	0.	53.509
20559	22.265	1.2727	0.	54.213
20560	22.173	1.2727	5.e-002	4.1547
20561	22.173	1.5455	0.	57.492
20562	22.265	1.4545	0.	58.687
20563	22.173	1.4545	5.e-002	4.1712
20564	22.173	1.7273	0.	61.053
20565	22.265	1.6364	0.	62.717
20566	22.173	1.6364	5.e-002	4.1864
20567	22.173	1.9091	0.	64.158
20568	22.265	1.8182	0.	66.265
20569	22.173	1.8182	5.e-002	4.2002
20570	22.173	2.0909	0.	66.791
20571	22.265	2.	0.	69.311
20572	22.173	2.	5.e-002	4.2123
20573	22.173	2.2727	0.	68.945
20574	22.265	2.1818	0.	71.847
20575	22.173	2.1818	5.e-002	4.2226
20576	22.173	2.4545	0.	70.618
20577	22.265	2.3636	0.	73.87
20578	22.173	2.3636	5.e-002	4.231
20579	22.173	2.6364	0.	71.81
20580	22.265	2.5455	0.	75.383
20581	22.173	2.5455	5.e-002	4.2374
20582	22.173	2.8182	0.	72.525
20583	22.265	2.7273	0.	76.389
20584	22.173	2.7273	5.e-002	4.2416
20585	22.173	3.	0.	72.763
20586	22.265	2.9091	0.	76.891
20587	22.173	2.9091	5.e-002	4.2438
20588	22.173	3.1818	0.	72.525
20589	22.265	3.0909	0.	76.891
20590	22.173	3.0909	5.e-002	4.2438
20591	22.173	3.3636	0.	71.81
20592	22.265	3.2727	0.	76.389
20593	22.173	3.2727	5.e-002	4.2416
20594	22.173	3.5455	0.	70.618
20595	22.265	3.4545	0.	75.383
20596	22.173	3.4545	5.e-002	4.2374
20597	22.173	3.7273	0.	68.945
20598	22.265	3.6364	0.	73.87
20599	22.173	3.6364	5.e-002	4.231
20600	22.173	3.9091	0.	66.791
20601	22.265	3.8182	0.	71.847
20602	22.173	3.8182	5.e-002	4.2226
20603	22.173	4.0909	0.	64.158
20604	22.265	4.	0.	69.311
20605	22.173	4.	5.e-002	4.2123
20606	22.173	4.2727	0.	61.053
20607	22.265	4.1818	0.	66.265
20608	22.173	4.1818	5.e-002	4.2002
20609	22.173	4.4545	0.	57.492
20610	22.265	4.3636	0.	62.717
20611	22.173	4.3636	5.e-002	4.1864
20612	22.173	4.6364	0.	53.509
20613	22.265	4.5455	0.	58.687
20614	22.173	4.5455	5.e-002	4.1712
20615	22.173	4.8182	0.	49.151
20616	22.265	4.7273	0.	54.213
20617	22.173	4.7273	5.e-002	4.1547
20618	22.173	5.	0.	44.497
20619	22.265	4.9091	0.	49.356
20620	22.173	4.9091	5.e-002	4.1373
20621	22.173	5.1818	0.	39.654
20622	22.265	5.0909	0.	44.208
20623	22.173	5.0909	5.e-002	4.1193
20624	22.173	5.3636	0.	34.769
20625	22.265	5.2727	0.	38.9
20626	22.173	5.2727	5.e-002	4.1004
20627	22.173	5.5455	0.	30.068
20628	22.265	5.4545	0.	33.618
20629	22.173	5.4545	5.e-002	4.0727
20630	22.173	5.7273	0.	26.713
20631	22.265	5.6364	0.	28.663
20632	22.173	5.6364	5.e-002	3.9121
20633	22.265	5.8182	0.	26.228
20634	22.173	5.8182	5.e-002	1.7586
20635	22.173	5.9091	0.	17.389
20636	22.356	0.27273	0.	27.904
20637	22.447	0.18182	0.	26.987
20638	22.356	0.18182	5.e-002	1.8742
20639	22.356	9.0909e-002	0.	17.919
20640	22.356	0.45455	0.	32.102
20641	22.447	0.36364	0.	30.296
20642	22.356	0.36364	5.e-002	3.9129
20643	22.356	0.63636	0.	37.664
20644	22.447	0.54545	0.	36.162
20645	22.356	0.54545	5.e-002	4.0684
20646	22.356	0.81818	0.	43.386
20647	22.447	0.72727	0.	42.345
20648	22.356	0.72727	5.e-002	4.0977
20649	22.356	1.	0.	49.011
20650	22.447	0.90909	0.	48.5
20651	22.356	0.90909	5.e-002	4.1185
20652	22.356	1.1818	0.	54.374
20653	22.447	1.0909	0.	54.416
20654	22.356	1.0909	5.e-002	4.1383
20655	22.356	1.3636	0.	59.357
20656	22.447	1.2727	0.	59.95
20657	22.356	1.2727	5.e-002	4.1572
20658	22.356	1.5455	0.	63.883
20659	22.447	1.4545	0.	65.01
20660	22.356	1.4545	5.e-002	4.1748
20661	22.356	1.7273	0.	67.905
20662	22.447	1.6364	0.	69.537
20663	22.356	1.6364	5.e-002	4.1909
20664	22.356	1.9091	0.	71.398
20665	22.447	1.8182	0.	73.502
20666	22.356	1.8182	5.e-002	4.2054
20667	22.356	2.0909	0.	74.349
20668	22.447	2.	0.	76.891
20669	22.356	2.	5.e-002	4.2179
20670	22.356	2.2727	0.	76.756
20671	22.447	2.1818	0.	79.703
20672	22.356	2.1818	5.e-002	4.2285
20673	22.356	2.4545	0.	78.621
20674	22.447	2.3636	0.	81.942
20675	22.356	2.3636	5.e-002	4.237
20676	22.356	2.6364	0.	79.949
20677	22.447	2.5455	0.	83.613
20678	22.356	2.5455	5.e-002	4.2435
20679	22.356	2.8182	0.	80.744
20680	22.447	2.7273	0.	84.722
20681	22.356	2.7273	5.e-002	4.2478
20682	22.356	3.	0.	81.008
20683	22.447	2.9091	0.	85.276
20684	22.356	2.9091	5.e-002	4.25
20685	22.356	3.1818	0.	80.744
20686	22.447	3.0909	0.	85.276
20687	22.356	3.0909	5.e-002	4.25
20688	22.356	3.3636	0.	79.949
20689	22.447	3.2727	0.	84.722
20690	22.356	3.2727	5.e-002	4.2478
20691	22.356	3.5455	0.	78.621
20692	22.447	3.4545	0.	83.613
20693	22.356	3.4545	5.e-002	4.2435
20694	22.356	3.7273	0.	76.756
20695	22.447	3.6364	0.	81.942
20696	22.356	3.6364	5.e-002	4.2371
20697	22.356	3.9091	0.	74.349
20698	22.447	3.8182	0.	79.703
20699	22.356	3.8182	5.e-002	4.2285
20700	22.356	4.0909	0.	71.398
20701	22.447	4.	0.	76.891
20702	22.356	4.	5.e-002	4.2179
20703	22.356	4.2727	0.	67.905
20704	22.447	4.1818	0.	73.502
20705	22.356	4.1818	5.e-002	4.2054
20706	22.356	4.4545	0.	63.883
20707	22.447	4.3636	0.	69.537
20708	22.356	4.3636	5.e-002	4.1909
20709	22.356	4.6364	0.	59.357
20710	22.447	4.5455	0.	65.01
20711	22.356	4.5455	5.e-002	4.1748
20712	22.356	4.8182	0.	54.374
20713	22.447	4.7273	0.	59.95
20714	22.356	4.7273	5.e-002	4.1572
20715	22.356	5.	0.	49.011
20716	22.447	4.9091	0.	54.416
20717	22.356	4.9091	5.e-002	4.1383
20718	22.356	5.1818	0.	43.385
20719	22.447	5.0909	0.	48.5
20720	22.356	5.0909	5.e-002	4.1185
20721	22.356	5.3636	0.	37.664
20722	22.447	5.2727	0.	42.345
20723	22.356	5.2727	5.e-002	4.0977
20724	22.356	5.5455	0.	32.102
20725	22.447	5.4545	0.	36.162
20726	22.356	5.4545	5.e-002	4.0684
20727	22.356	5.7273	0.	27.904
20728	22.447	5.6364	0.	30.296
20729	22.356	5.6364	5.e-002	3.9129
20730	22.447	5.8182	0.	26.987
20731	22.356	5.8182	5.e-002	1.8742
20732	22.356	5.9091	0.	17.919
20733	22.539	0.27273	0.	29.081
20734	22.63	0.18182	0.	27.672
20735	22.539	0.18182	5.e-002	2.004
20736	22.539	9.0909e-002	0.	18.408
20737	22.539	0.45455	0.	34.232
20738	22.63	0.36364	0.	31.987
20739	22.539	0.36364	5.e-002	3.9159
20740	22.539	0.63636	0.	40.751
20741	22.63	0.54545	0.	38.882
20742	22.539	0.54545	5.e-002	4.0662
20743	22.539	0.81818	0.	47.387
20744	22.63	0.72727	0.	46.063
20745	22.539	0.72727	5.e-002	4.0978
20746	22.539	1.	0.	53.848
20747	22.63	0.90909	0.	53.133
20748	22.539	0.90909	5.e-002	4.1211
20749	22.539	1.1818	0.	59.949
20750	22.63	1.0909	0.	59.856
20751	22.539	1.0909	5.e-002	4.1431
20752	22.539	1.3636	0.	65.569
20753	22.63	1.2727	0.	66.083
20754	22.539	1.2727	5.e-002	4.1637
20755	22.539	1.5455	0.	70.636
20756	22.63	1.4545	0.	71.726
20757	22.539	1.4545	5.e-002	4.1827
20758	22.539	1.7273	0.	75.111
20759	22.63	1.6364	0.	76.739
20760	22.539	1.6364	5.e-002	4.1998
20761	22.539	1.9091	0.	78.976
20762	22.63	1.8182	0.	81.104
20763	22.539	1.8182	5.e-002	4.2149
20764	22.539	2.0909	0.	82.23
20765	22.63	2.	0.	84.819
20766	22.539	2.	5.e-002	4.2278
20767	22.539	2.2727	0.	84.875
20768	22.63	2.1818	0.	87.889
20769	22.539	2.1818	5.e-002	4.2386
20770	22.539	2.4545	0.	86.92
20771	22.63	2.3636	0.	90.327
20772	22.539	2.3636	5.e-002	4.2473
20773	22.539	2.6364	0.	88.374
20774	22.63	2.5455	0.	92.143
20775	22.539	2.5455	5.e-002	4.2537
20776	22.539	2.8182	0.	89.243
20777	22.63	2.7273	0.	93.347
20778	22.539	2.7273	5.e-002	4.258
20779	22.539	3.	0.	89.532
20780	22.63	2.9091	0.	93.948
20781	22.539	2.9091	5.e-002	4.2602
20782	22.539	3.1818	0.	89.243
20783	22.63	3.0909	0.	93.948
20784	22.539	3.0909	5.e-002	4.2602
20785	22.539	3.3636	0.	88.374
20786	22.63	3.2727	0.	93.347
20787	22.539	3.2727	5.e-002	4.258
20788	22.539	3.5455	0.	86.92
20789	22.63	3.4545	0.	92.143
20790	22.539	3.4545	5.e-002	4.2537
20791	22.539	3.7273	0.	84.875
20792	22.63	3.6364	0.	90.327
20793	22.539	3.6364	5.e-002	4.2473
20794	22.539	3.9091	0.	82.23
20795	22.63	3.8182	0.	87.889
20796	22.539	3.8182	5.e-002	4.2386
20797	22.539	4.0909	0.	78.976
20798	22.63	4.	0.	84.819
20799	22.539	4.	5.e-002	4.2278
20800	22.539	4.2727	0.	75.111
20801	22.63	4.1818	0.	81.104
20802	22.539	4.1818	5.e-002	4.2149
20803	22.539	4.4545	0.	70.636
20804	22.63	4.3636	0.	76.739
20805	22.539	4.3636	5.e-002	4.1998
20806	22.539	4.6364	0.	65.569
20807	22.63	4.5455	0.	71.726
20808	22.539	4.5455	5.e-002	4.1827
20809	22.539	4.8182	0.	59.949
20810	22.63	4.7273	0.	66.083
20811	22.539	4.7273	5.e-002	4.1638
20812	22.539	5.	0.	53.848
20813	22.63	4.9091	0.	59.856
20814	22.539	4.9091	5.e-002	4.1431
20815	22.539	5.1818	0.	47.387
20816	22.63	5.0909	0.	53.133
20817	22.539	5.0909	5.e-002	4.1212
20818	22.539	5.3636	0.	40.751
20819	22.63	5.2727	0.	46.063
20820	22.539	5.2727	5.e-002	4.0978
20821	22.539	5.5455	0.	34.232
20822	22.63	5.4545	0.	38.882
20823	22.539	5.4545	5.e-002	4.0662
20824	22.539	5.7273	0.	29.081
20825	22.63	5.6364	0.	31.987
20826	22.539	5.6364	5.e-002	3.9159
20827	22.63	5.8182	0.	27.672
20828	22.539	5.8182	5.e-002	2.0041
20829	22.539	5.9091	0.	18.408
20830	22.721	0.27273	0.	30.25
20831	22.813	0.18182	0.	28.271
20832	22.721	0.18182	5.e-002	2.1497
20833	22.721	9.0909e-002	0.	18.848
20834	22.721	0.45455	0.	36.499
20835	22.813	0.36364	0.	33.77
20836	22.721	0.36364	5.e-002	3.9216
20837	22.721	0.63636	0.	44.095
20838	22.813	0.54545	0.	41.848
20839	22.721	0.54545	5.e-002	4.067
20840	22.721	0.81818	0.	51.735
20841	22.813	0.72727	0.	50.142
20842	22.721	0.72727	5.e-002	4.1017
20843	22.721	1.	0.	59.085
20844	22.813	0.90909	0.	58.198
20845	22.721	0.90909	5.e-002	4.1283
20846	22.721	1.1818	0.	65.948
20847	22.813	1.0909	0.	65.759
20848	22.721	1.0909	5.e-002	4.1529
20849	22.721	1.3636	0.	72.208
20850	22.813	1.2727	0.	72.681
20851	22.721	1.2727	5.e-002	4.1754
20852	22.721	1.5455	0.	77.804
20853	22.813	1.4545	0.	78.894
20854	22.721	1.4545	5.e-002	4.1958
20855	22.721	1.7273	0.	82.712
20856	22.813	1.6364	0.	84.371
20857	22.721	1.6364	5.e-002	4.2137
20858	22.721	1.9091	0.	86.929
20859	22.813	1.8182	0.	89.11
20860	22.721	1.8182	5.e-002	4.2292
20861	22.721	2.0909	0.	90.464
20862	22.813	2.	0.	93.124
20863	22.721	2.	5.e-002	4.2424
20864	22.721	2.2727	0.	93.328
20865	22.813	2.1818	0.	96.43
20866	22.721	2.1818	5.e-002	4.2532
20867	22.721	2.4545	0.	95.538
20868	22.813	2.3636	0.	99.048
20869	22.721	2.3636	5.e-002	4.2618
20870	22.721	2.6364	0.	97.106
20871	22.813	2.5455	0.	100.99
20872	22.721	2.5455	5.e-002	4.2682
20873	22.721	2.8182	0.	98.042
20874	22.813	2.7273	0.	102.28
20875	22.721	2.7273	5.e-002	4.2724
20876	22.721	3.	0.	98.353
20877	22.813	2.9091	0.	102.93
20878	22.721	2.9091	5.e-002	4.2745
20879	22.721	3.1818	0.	98.042
20880	22.813	3.0909	0.	102.93
20881	22.721	3.0909	5.e-002	4.2745
20882	22.721	3.3636	0.	97.106
20883	22.813	3.2727	0.	102.28
20884	22.721	3.2727	5.e-002	4.2724
20885	22.721	3.5455	0.	95.538
20886	22.813	3.4545	0.	100.99
20887	22.721	3.4545	5.e-002	4.2682
20888	22.721	3.7273	0.	93.328
20889	22.813	3.6364	0.	99.048
20890	22.721	3.6364	5.e-002	4.2618
20891	22.721	3.9091	0.	90.464
20892	22.813	3.8182	0.	96.43
20893	22.721	3.8182	5.e-002	4.2532
20894	22.721	4.0909	0.	86.929
20895	22.813	4.	0.	93.124
20896	22.721	4.	5.e-002	4.2424
20897	22.721	4.2727	0.	82.712
20898	22.813	4.1818	0.	89.11
20899	22.721	4.1818	5.e-002	4.2293
20900	22.721	4.4545	0.	77.804
20901	22.813	4.3636	0.	84.371
20902	22.721	4.3636	5.e-002	4.2137
20903	22.721	4.6364	0.	72.208
20904	22.813	4.5455	0.	78.894
20905	22.721	4.5455	5.e-002	4.1958
20906	22.721	4.8182	0.	65.948
20907	22.813	4.7273	0.	72.681
20908	22.721	4.7273	5.e-002	4.1754
20909	22.721	5.	0.	59.085
20910	22.813	4.9091	0.	65.759
20911	22.721	4.9091	5.e-002	4.1529
20912	22.721	5.1818	0.	51.734
20913	22.813	5.0909	0.	58.198
20914	22.721	5.0909	5.e-002	4.1283
20915	22.721	5.3636	0.	44.094
20916	22.813	5.2727	0.	50.142
20917	22.721	5.2727	5.e-002	4.1017
20918	22.721	5.5455	0.	36.499
20919	22.813	5.4545	0.	41.848
20920	22.721	5.4545	5.e-002	4.067
20921	22.721	5.7273	0.	30.25
20922	22.813	5.6364	0.	33.77
20923	22.721	5.6364	5.e-002	3.9217
20924	22.813	5.8182	0.	28.271
20925	22.721	5.8182	5.e-002	2.1497
20926	22.721	5.9091	0.	18.848
20927	22.904	0.27273	0.	31.424
20928	22.995	0.18182	0.	28.769
20929	22.904	0.18182	5.e-002	2.3133
20930	22.904	9.0909e-002	0.	19.227
20931	22.904	0.45455	0.	38.963
20932	22.995	0.36364	0.	35.703
20933	22.904	0.36364	5.e-002	3.9311
20934	22.904	0.63636	0.	47.788
20935	22.995	0.54545	0.	45.164
20936	22.904	0.54545	5.e-002	4.0721
20937	22.904	0.81818	0.	56.53
20938	22.995	0.72727	0.	54.703
20939	22.904	0.72727	5.e-002	4.1111
20940	22.904	1.	0.	64.817
20941	22.995	0.90909	0.	63.807
20942	22.904	0.90909	5.e-002	4.1416
20943	22.904	1.1818	0.	72.452
20944	22.995	1.0909	0.	72.218
20945	22.904	1.0909	5.e-002	4.169
20946	22.904	1.3636	0.	79.338
20947	22.995	1.2727	0.	79.819
20948	22.904	1.2727	5.e-002	4.1935
20949	22.904	1.5455	0.	85.438
20950	22.995	1.4545	0.	86.571
20951	22.904	1.4545	5.e-002	4.2149
20952	22.904	1.7273	0.	90.75
20953	22.995	1.6364	0.	92.475
20954	22.904	1.6364	5.e-002	4.2334
20955	22.904	1.9091	0.	95.29
20956	22.995	1.8182	0.	97.553
20957	22.904	1.8182	5.e-002	4.2491
20958	22.904	2.0909	0.	99.078
20959	22.995	2.	0.	101.83
20960	22.904	2.	5.e-002	4.2621
20961	22.904	2.2727	0.	102.14
20962	22.995	2.1818	0.	105.35
20963	22.904	2.1818	5.e-002	4.2726
20964	22.904	2.4545	0.	104.49
20965	22.995	2.3636	0.	108.12
20966	22.904	2.3636	5.e-002	4.2809
20967	22.904	2.6364	0.	106.16
20968	22.995	2.5455	0.	110.18
20969	22.904	2.5455	5.e-002	4.287
20970	22.904	2.8182	0.	107.16
20971	22.995	2.7273	0.	111.55
20972	22.904	2.7273	5.e-002	4.291
20973	22.904	3.	0.	107.49
20974	22.995	2.9091	0.	112.22
20975	22.904	2.9091	5.e-002	4.293
20976	22.904	3.1818	0.	107.16
20977	22.995	3.0909	0.	112.22
20978	22.904	3.0909	5.e-002	4.293
20979	22.904	3.3636	0.	106.16
20980	22.995	3.2727	0.	111.55
20981	22.904	3.2727	5.e-002	4.291
20982	22.904	3.5455	0.	104.49
20983	22.995	3.4545	0.	110.18
20984	22.904	3.4545	5.e-002	4.287
20985	22.904	3.7273	0.	102.14
20986	22.995	3.6364	0.	108.12
20987	22.904	3.6364	5.e-002	4.2809
20988	22.904	3.9091	0.	99.078
20989	22.995	3.8182	0.	105.35
20990	22.904	3.8182	5.e-002	4.2726
20991	22.904	4.0909	0.	95.29
20992	22.995	4.	0.	101.83
20993	22.904	4.	5.e-002	4.2621
20994	22.904	4.2727	0.	90.75
20995	22.995	4.1818	0.	97.553
20996	22.904	4.1818	5.e-002	4.2491
20997	22.904	4.4545	0.	85.438
20998	22.995	4.3636	0.	92.475
20999	22.904	4.3636	5.e-002	4.2334
21000	22.904	4.6364	0.	79.338
21001	22.995	4.5455	0.	86.571
21002	22.904	4.5455	5.e-002	4.215
21003	22.904	4.8182	0.	72.452
21004	22.995	4.7273	0.	79.819
21005	22.904	4.7273	5.e-002	4.1935
21006	22.904	5.	0.	64.817
21007	22.995	4.9091	0.	72.218
21008	22.904	4.9091	5.e-002	4.1691
21009	22.904	5.1818	0.	56.53
21010	22.995	5.0909	0.	63.807
21011	22.904	5.0909	5.e-002	4.1416
21012	22.904	5.3636	0.	47.788
21013	22.995	5.2727	0.	54.703
21014	22.904	5.2727	5.e-002	4.1111
21015	22.904	5.5455	0.	38.963
21016	22.995	5.4545	0.	45.164
21017	22.904	5.4545	5.e-002	4.0721
21018	22.904	5.7273	0.	31.424
21019	22.995	5.6364	0.	35.703
21020	22.904	5.6364	5.e-002	3.9311
21021	22.995	5.8182	0.	28.769
21022	22.904	5.8182	5.e-002	2.3133
21023	22.904	5.9091	0.	19.226
21024	23.087	0.27273	0.	32.631
21025	23.178	0.18182	0.	29.157
21026	23.087	0.18182	5.e-002	2.4978
21027	23.087	9.0909e-002	0.	19.529
21028	23.087	0.45455	0.	41.728
21029	23.178	0.36364	0.	37.892
21030	23.087	0.36364	5.e-002	3.946
21031	23.087	0.63636	0.	51.967
21032	23.178	0.54545	0.	48.999
21033	23.087	0.54545	5.e-002	4.0838
21034	23.087	0.81818	0.	61.906
21035	23.178	0.72727	0.	59.915
21036	23.087	0.72727	5.e-002	4.1286
21037	23.087	1.	0.	71.158
21038	23.178	0.90909	0.	70.101
21039	23.087	0.90909	5.e-002	4.1636
21040	23.087	1.1818	0.	79.549
21041	23.178	1.0909	0.	79.341
21042	23.087	1.0909	5.e-002	4.1938
21043	23.087	1.3636	0.	87.026
21044	23.178	1.2727	0.	87.574
21045	23.087	1.2727	5.e-002	4.2196
21046	23.087	1.5455	0.	93.588
21047	23.178	1.4545	0.	94.811
21048	23.087	1.4545	5.e-002	4.2414
21049	23.087	1.7273	0.	99.261
21050	23.178	1.6364	0.	101.09
21051	23.087	1.6364	5.e-002	4.2597
21052	23.087	1.9091	0.	104.08
21053	23.178	1.8182	0.	106.46
21054	23.087	1.8182	5.e-002	4.2748
21055	23.087	2.0909	0.	108.09
21056	23.178	2.	0.	110.97
21057	23.087	2.	5.e-002	4.2872
21058	23.087	2.2727	0.	111.32
21059	23.178	2.1818	0.	114.66
21060	23.087	2.1818	5.e-002	4.297
21061	23.087	2.4545	0.	113.8
21062	23.178	2.3636	0.	117.57
21063	23.087	2.3636	5.e-002	4.3046
21064	23.087	2.6364	0.	115.56
21065	23.178	2.5455	0.	119.72
21066	23.087	2.5455	5.e-002	4.3101
21067	23.087	2.8182	0.	116.6
21068	23.178	2.7273	0.	121.15
21069	23.087	2.7273	5.e-002	4.3137
21070	23.087	3.	0.	116.95
21071	23.178	2.9091	0.	121.85
21072	23.087	2.9091	5.e-002	4.3155
21073	23.087	3.1818	0.	116.6
21074	23.178	3.0909	0.	121.85
21075	23.087	3.0909	5.e-002	4.3155
21076	23.087	3.3636	0.	115.56
21077	23.178	3.2727	0.	121.15
21078	23.087	3.2727	5.e-002	4.3137
21079	23.087	3.5455	0.	113.8
21080	23.178	3.4545	0.	119.72
21081	23.087	3.4545	5.e-002	4.3101
21082	23.087	3.7273	0.	111.32
21083	23.178	3.6364	0.	117.57
21084	23.087	3.6364	5.e-002	4.3046
21085	23.087	3.9091	0.	108.09
21086	23.178	3.8182	0.	114.66
21087	23.087	3.8182	5.e-002	4.297
21088	23.087	4.0909	0.	104.08
21089	23.178	4.	0.	110.97
21090	23.087	4.	5.e-002	4.2872
21091	23.087	4.2727	0.	99.261
21092	23.178	4.1818	0.	106.46
21093	23.087	4.1818	5.e-002	4.2748
21094	23.087	4.4545	0.	93.588
21095	23.178	4.3636	0.	101.09
21096	23.087	4.3636	5.e-002	4.2597
21097	23.087	4.6364	0.	87.026
21098	23.178	4.5455	0.	94.811
21099	23.087	4.5455	5.e-002	4.2414
21100	23.087	4.8182	0.	79.549
21101	23.178	4.7273	0.	87.574
21102	23.087	4.7273	5.e-002	4.2196
21103	23.087	5.	0.	71.158
21104	23.178	4.9091	0.	79.341
21105	23.087	4.9091	5.e-002	4.1938
21106	23.087	5.1818	0.	61.906
21107	23.178	5.0909	0.	70.101
21108	23.087	5.0909	5.e-002	4.1636
21109	23.087	5.3636	0.	51.967
21110	23.178	5.2727	0.	59.915
21111	23.087	5.2727	5.e-002	4.1286
21112	23.087	5.5455	0.	41.728
21113	23.178	5.4545	0.	48.999
21114	23.087	5.4545	5.e-002	4.0838
21115	23.087	5.7273	0.	32.631
21116	23.178	5.6364	0.	37.892
21117	23.087	5.6364	5.e-002	3.946
21118	23.178	5.8182	0.	29.157
21119	23.087	5.8182	5.e-002	2.4978
21120	23.087	5.9091	0.	19.529
21121	23.269	0.27273	0.	33.937
21122	23.361	0.18182	0.	29.438
21123	23.269	0.18182	5.e-002	2.7086
21124	23.269	9.0909e-002	0.	19.737
21125	23.269	0.45455	0.	44.97
21126	23.361	0.36364	0.	40.544
21127	23.269	0.36364	5.e-002	3.9697
21128	23.269	0.63636	0.	56.835
21129	23.361	0.54545	0.	53.611
21130	23.269	0.54545	5.e-002	4.1074
21131	23.269	0.81818	0.	68.041
21132	23.361	0.72727	0.	65.994
21133	23.269	0.72727	5.e-002	4.159
21134	23.269	1.	0.	78.24
21135	23.361	0.90909	0.	77.233
21136	23.269	0.90909	5.e-002	4.198
21137	23.269	1.1818	0.	87.335
21138	23.361	1.0909	0.	87.227
21139	23.269	1.0909	5.e-002	4.2298
21140	23.269	1.3636	0.	95.337
21141	23.361	1.2727	0.	96.009
21142	23.269	1.2727	5.e-002	4.2556
21143	23.269	1.5455	0.	102.3
21144	23.361	1.4545	0.	103.65
21145	23.269	1.4545	5.e-002	4.2765
21146	23.269	1.7273	0.	108.28
21147	23.361	1.6364	0.	110.24
21148	23.269	1.6364	5.e-002	4.2934
21149	23.269	1.9091	0.	113.34
21150	23.361	1.8182	0.	115.85
21151	23.269	1.8182	5.e-002	4.307
21152	23.269	2.0909	0.	117.53
21153	23.361	2.	0.	120.54
21154	23.269	2.	5.e-002	4.3179
21155	23.269	2.2727	0.	120.89
21156	23.361	2.1818	0.	124.37
21157	23.269	2.1818	5.e-002	4.3263
21158	23.269	2.4545	0.	123.48
21159	23.361	2.3636	0.	127.38
21160	23.269	2.3636	5.e-002	4.3328
21161	23.269	2.6364	0.	125.3
21162	23.361	2.5455	0.	129.61
21163	23.269	2.5455	5.e-002	4.3375
21164	23.269	2.8182	0.	126.39
21165	23.361	2.7273	0.	131.08
21166	23.269	2.7273	5.e-002	4.3405
21167	23.269	3.	0.	126.75
21168	23.361	2.9091	0.	131.82
21169	23.269	2.9091	5.e-002	4.342
21170	23.269	3.1818	0.	126.39
21171	23.361	3.0909	0.	131.82
21172	23.269	3.0909	5.e-002	4.342
21173	23.269	3.3636	0.	125.3
21174	23.361	3.2727	0.	131.08
21175	23.269	3.2727	5.e-002	4.3405
21176	23.269	3.5455	0.	123.48
21177	23.361	3.4545	0.	129.61
21178	23.269	3.4545	5.e-002	4.3375
21179	23.269	3.7273	0.	120.89
21180	23.361	3.6364	0.	127.38
21181	23.269	3.6364	5.e-002	4.3328
21182	23.269	3.9091	0.	117.53
21183	23.361	3.8182	0.	124.37
21184	23.269	3.8182	5.e-002	4.3263
21185	23.269	4.0909	0.	113.34
21186	23.361	4.	0.	120.54
21187	23.269	4.	5.e-002	4.3179
21188	23.269	4.2727	0.	108.28
21189	23.361	4.1818	0.	115.85
21190	23.269	4.1818	5.e-002	4.307
21191	23.269	4.4545	0.	102.3
21192	23.361	4.3636	0.	110.24
21193	23.269	4.3636	5.e-002	4.2934
21194	23.269	4.6364	0.	95.337
21195	23.361	4.5455	0.	103.65
21196	23.269	4.5455	5.e-002	4.2765
21197	23.269	4.8182	0.	87.335
21198	23.361	4.7273	0.	96.009
21199	23.269	4.7273	5.e-002	4.2556
21200	23.269	5.	0.	78.24
21201	23.361	4.9091	0.	87.227
21202	23.269	4.9091	5.e-002	4.2298
21203	23.269	5.1818	0.	68.041
21204	23.361	5.0909	0.	77.233
21205	23.269	5.0909	5.e-002	4.198
21206	23.269	5.3636	0.	56.835
21207	23.361	5.2727	0.	65.994
21208	23.269	5.2727	5.e-002	4.159
21209	23.269	5.5455	0.	44.97
21210	23.361	5.4545	0.	53.611
21211	23.269	5.4545	5.e-002	4.1074
21212	23.269	5.7273	0.	33.937
21213	23.361	5.6364	0.	40.544
21214	23.269	5.6364	5.e-002	3.9697
21215	23.361	5.8182	0.	29.438
21216	23.269	5.8182	5.e-002	2.7086
21217	23.269	5.9091	0.	19.737
21218	23.452	0.27273	0.	35.485
21219	23.543	0.18182	0.	29.703
21220	23.452	0.18182	5.e-002	2.9526
21221	23.452	9.0909e-002	0.	19.811
21222	23.452	0.45455	0.	48.985
21223	23.543	0.36364	0.	44.124
21224	23.452	0.36364	5.e-002	4.0125
21225	23.452	0.63636	0.	62.669
21226	23.543	0.54545	0.	59.428
21227	23.452	0.54545	5.e-002	4.1529
21228	23.452	0.81818	0.	75.129
21229	23.543	0.72727	0.	73.23
21230	23.452	0.72727	5.e-002	4.2099
21231	23.452	1.	0.	86.184
21232	23.543	0.90909	0.	85.383
21233	23.452	0.90909	5.e-002	4.25
21234	23.452	1.1818	0.	95.875
21235	23.543	1.0909	0.	95.986
21236	23.452	1.0909	5.e-002	4.2802
21237	23.452	1.3636	0.	104.31
21238	23.543	1.2727	0.	105.19
21239	23.452	1.2727	5.e-002	4.3033
21240	23.452	1.5455	0.	111.58
21241	23.543	1.4545	0.	113.15
21242	23.452	1.4545	5.e-002	4.3211
21243	23.452	1.7273	0.	117.8
21244	23.543	1.6364	0.	119.96
21245	23.452	1.6364	5.e-002	4.3349
21246	23.452	1.9091	0.	123.04
21247	23.543	1.8182	0.	125.74
21248	23.452	1.8182	5.e-002	4.3457
21249	23.452	2.0909	0.	127.37
21250	23.543	2.	0.	130.57
21251	23.452	2.	5.e-002	4.354
21252	23.452	2.2727	0.	130.85
21253	23.543	2.1818	0.	134.5
21254	23.452	2.1818	5.e-002	4.3604
21255	23.452	2.4545	0.	133.51
21256	23.543	2.3636	0.	137.59
21257	23.452	2.3636	5.e-002	4.3652
21258	23.452	2.6364	0.	135.39
21259	23.543	2.5455	0.	139.87
21260	23.452	2.5455	5.e-002	4.3686
21261	23.452	2.8182	0.	136.5
21262	23.543	2.7273	0.	141.38
21263	23.452	2.7273	5.e-002	4.3708
21264	23.452	3.	0.	136.87
21265	23.543	2.9091	0.	142.13
21266	23.452	2.9091	5.e-002	4.3719
21267	23.452	3.1818	0.	136.5
21268	23.543	3.0909	0.	142.13
21269	23.452	3.0909	5.e-002	4.3719
21270	23.452	3.3636	0.	135.39
21271	23.543	3.2727	0.	141.38
21272	23.452	3.2727	5.e-002	4.3708
21273	23.452	3.5455	0.	133.51
21274	23.543	3.4545	0.	139.87
21275	23.452	3.4545	5.e-002	4.3686
21276	23.452	3.7273	0.	130.85
21277	23.543	3.6364	0.	137.59
21278	23.452	3.6364	5.e-002	4.3652
21279	23.452	3.9091	0.	127.37
21280	23.543	3.8182	0.	134.5
21281	23.452	3.8182	5.e-002	4.3604
21282	23.452	4.0909	0.	123.04
21283	23.543	4.	0.	130.57
21284	23.452	4.	5.e-002	4.354
21285	23.452	4.2727	0.	117.8
21286	23.543	4.1818	0.	125.74
21287	23.452	4.1818	5.e-002	4.3457
21288	23.452	4.4545	0.	111.58
21289	23.543	4.3636	0.	119.96
21290	23.452	4.3636	5.e-002	4.3349
21291	23.452	4.6364	0.	104.31
21292	23.543	4.5455	0.	113.15
21293	23.452	4.5455	5.e-002	4.3211
21294	23.452	4.8182	0.	95.875
21295	23.543	4.7273	0.	105.19
21296	23.452	4.7273	5.e-002	4.3033
21297	23.452	5.	0.	86.183
21298	23.543	4.9091	0.	95.986
21299	23.452	4.9091	5.e-002	4.2802
21300	23.452	5.1818	0.	75.128
21301	23.543	5.0909	0.	85.383
21302	23.452	5.0909	5.e-002	4.25
21303	23.452	5.3636	0.	62.669
21304	23.543	5.2727	0.	73.23
21305	23.452	5.2727	5.e-002	4.2099
21306	23.452	5.5455	0.	48.985
21307	23.543	5.4545	0.	59.428
21308	23.452	5.4545	5.e-002	4.1529
21309	23.452	5.7273	0.	35.485
21310	23.543	5.6364	0.	44.124
21311	23.452	5.6364	5.e-002	4.0125
21312	23.543	5.8182	0.	29.703
21313	23.452	5.8182	5.e-002	2.9526
21314	23.452	5.9091	0.	19.811
21315	23.635	0.27273	0.	37.709
21316	23.726	0.18182	0.	30.635
21317	23.635	0.18182	5.e-002	3.2627
21318	23.635	9.0909e-002	0.	19.805
21319	23.635	0.45455	0.	54.386
21320	23.726	0.36364	0.	49.574
21321	23.635	0.36364	5.e-002	4.112
21322	23.635	0.63636	0.	69.909
21323	23.726	0.54545	0.	66.979
21324	23.635	0.54545	5.e-002	4.2449
21325	23.635	0.81818	0.	83.44
21326	23.726	0.72727	0.	81.867
21327	23.635	0.72727	5.e-002	4.2979
21328	23.635	1.	0.	95.158
21329	23.726	0.90909	0.	94.644
21330	23.635	0.90909	5.e-002	4.3296
21331	23.635	1.1818	0.	105.29
21332	23.726	1.0909	0.	105.64
21333	23.635	1.0909	5.e-002	4.3515
21334	23.635	1.3636	0.	114.02
21335	23.726	1.2727	0.	115.11
21336	23.635	1.2727	5.e-002	4.3669
21337	23.635	1.5455	0.	121.51
21338	23.726	1.4545	0.	123.24
21339	23.635	1.4545	5.e-002	4.378
21340	23.635	1.7273	0.	127.9
21341	23.726	1.6364	0.	130.2
21342	23.635	1.6364	5.e-002	4.3862
21343	23.635	1.9091	0.	133.26
21344	23.726	1.8182	0.	136.08
21345	23.635	1.8182	5.e-002	4.3921
21346	23.635	2.0909	0.	137.69
21347	23.726	2.	0.	140.98
21348	23.635	2.	5.e-002	4.3965
21349	23.635	2.2727	0.	141.24
21350	23.726	2.1818	0.	144.97
21351	23.635	2.1818	5.e-002	4.3997
21352	23.635	2.4545	0.	143.95
21353	23.726	2.3636	0.	148.11
21354	23.635	2.3636	5.e-002	4.402
21355	23.635	2.6364	0.	145.87
21356	23.726	2.5455	0.	150.42
21357	23.635	2.5455	5.e-002	4.4036
21358	23.635	2.8182	0.	147.01
21359	23.726	2.7273	0.	151.95
21360	23.635	2.7273	5.e-002	4.4046
21361	23.635	3.	0.	147.38
21362	23.726	2.9091	0.	152.71
21363	23.635	2.9091	5.e-002	4.4051
21364	23.635	3.1818	0.	147.01
21365	23.726	3.0909	0.	152.71
21366	23.635	3.0909	5.e-002	4.4051
21367	23.635	3.3636	0.	145.87
21368	23.726	3.2727	0.	151.95
21369	23.635	3.2727	5.e-002	4.4046
21370	23.635	3.5455	0.	143.95
21371	23.726	3.4545	0.	150.42
21372	23.635	3.4545	5.e-002	4.4036
21373	23.635	3.7273	0.	141.24
21374	23.726	3.6364	0.	148.11
21375	23.635	3.6364	5.e-002	4.402
21376	23.635	3.9091	0.	137.69
21377	23.726	3.8182	0.	144.97
21378	23.635	3.8182	5.e-002	4.3997
21379	23.635	4.0909	0.	133.26
21380	23.726	4.	0.	140.98
21381	23.635	4.	5.e-002	4.3965
21382	23.635	4.2727	0.	127.9
21383	23.726	4.1818	0.	136.08
21384	23.635	4.1818	5.e-002	4.3921
21385	23.635	4.4545	0.	121.51
21386	23.726	4.3636	0.	130.2
21387	23.635	4.3636	5.e-002	4.3862
21388	23.635	4.6364	0.	114.02
21389	23.726	4.5455	0.	123.24
21390	23.635	4.5455	5.e-002	4.378
21391	23.635	4.8182	0.	105.29
21392	23.726	4.7273	0.	115.11
21393	23.635	4.7273	5.e-002	4.3669
21394	23.635	5.	0.	95.158
21395	23.726	4.9091	0.	105.64
21396	23.635	4.9091	5.e-002	4.3515
21397	23.635	5.1818	0.	83.44
21398	23.726	5.0909	0.	94.644
21399	23.635	5.0909	5.e-002	4.3296
21400	23.635	5.3636	0.	69.909
21401	23.726	5.2727	0.	81.867
21402	23.635	5.2727	5.e-002	4.2979
21403	23.635	5.5455	0.	54.386
21404	23.726	5.4545	0.	66.979
21405	23.635	5.4545	5.e-002	4.2449
21406	23.635	5.7273	0.	37.709
21407	23.726	5.6364	0.	49.574
21408	23.635	5.6364	5.e-002	4.112
21409	23.726	5.8182	0.	30.635
21410	23.635	5.8182	5.e-002	3.2627
21411	23.635	5.9091	0.	19.805
21412	23.817	0.27273	0.	41.909
21413	23.817	0.18182	5.e-002	3.9172
21414	23.817	9.0909e-002	0.	19.637
21415	23.909	0.18182	0.	32.561
21416	23.817	0.45455	0.	62.035
21417	23.817	0.36364	5.e-002	4.4575
21418	23.909	0.36364	0.	56.154
21419	23.817	0.63636	0.	78.878
21420	23.817	0.54545	5.e-002	4.5122
21421	23.909	0.54545	0.	75.039
21422	23.817	0.81818	0.	93.038
21423	23.817	0.72727	5.e-002	4.517
21424	23.909	0.72727	0.	90.651
21425	23.817	1.	0.	105.1
21426	23.817	0.90909	5.e-002	4.514
21427	23.909	0.90909	0.	103.86
21428	23.817	1.1818	0.	115.44
21429	23.817	1.0909	5.e-002	4.5067
21430	23.909	1.0909	0.	115.14
21431	23.817	1.3636	0.	124.32
21432	23.817	1.2727	5.e-002	4.4978
21433	23.909	1.2727	0.	124.82
21434	23.817	1.5455	0.	131.91
21435	23.817	1.4545	5.e-002	4.4884
21436	23.909	1.4545	0.	133.12
21437	23.817	1.7273	0.	138.37
21438	23.817	1.6364	5.e-002	4.4793
21439	23.909	1.6364	0.	140.2
21440	23.817	1.9091	0.	143.79
21441	23.817	1.8182	5.e-002	4.4709
21442	23.909	1.8182	0.	146.18
21443	23.817	2.0909	0.	148.26
21444	23.817	2.	5.e-002	4.4635
21445	23.909	2.	0.	151.17
21446	23.817	2.2727	0.	151.84
21447	23.817	2.1818	5.e-002	4.4571
21448	23.909	2.1818	0.	155.22
21449	23.817	2.4545	0.	154.58
21450	23.817	2.3636	5.e-002	4.452
21451	23.909	2.3636	0.	158.41
21452	23.817	2.6364	0.	156.51
21453	23.817	2.5455	5.e-002	4.4481
21454	23.909	2.5455	0.	160.76
21455	23.817	2.8182	0.	157.66
21456	23.817	2.7273	5.e-002	4.4455
21457	23.909	2.7273	0.	162.31
21458	23.817	3.	0.	158.04
21459	23.817	2.9091	5.e-002	4.4442
21460	23.909	2.9091	0.	163.08
21461	23.817	3.1818	0.	157.66
21462	23.817	3.0909	5.e-002	4.4442
21463	23.909	3.0909	0.	163.08
21464	23.817	3.3636	0.	156.51
21465	23.817	3.2727	5.e-002	4.4455
21466	23.909	3.2727	0.	162.31
21467	23.817	3.5455	0.	154.58
21468	23.817	3.4545	5.e-002	4.4481
21469	23.909	3.4545	0.	160.76
21470	23.817	3.7273	0.	151.84
21471	23.817	3.6364	5.e-002	4.452
21472	23.909	3.6364	0.	158.41
21473	23.817	3.9091	0.	148.26
21474	23.817	3.8182	5.e-002	4.4571
21475	23.909	3.8182	0.	155.22
21476	23.817	4.0909	0.	143.79
21477	23.817	4.	5.e-002	4.4635
21478	23.909	4.	0.	151.17
21479	23.817	4.2727	0.	138.37
21480	23.817	4.1818	5.e-002	4.4709
21481	23.909	4.1818	0.	146.18
21482	23.817	4.4545	0.	131.91
21483	23.817	4.3636	5.e-002	4.4793
21484	23.909	4.3636	0.	140.2
21485	23.817	4.6364	0.	124.32
21486	23.817	4.5455	5.e-002	4.4884
21487	23.909	4.5455	0.	133.12
21488	23.817	4.8182	0.	115.44
21489	23.817	4.7273	5.e-002	4.4978
21490	23.909	4.7273	0.	124.82
21491	23.817	5.	0.	105.1
21492	23.817	4.9091	5.e-002	4.5067
21493	23.909	4.9091	0.	115.14
21494	23.817	5.1818	0.	93.038
21495	23.817	5.0909	5.e-002	4.514
21496	23.909	5.0909	0.	103.86
21497	23.817	5.3636	0.	78.878
21498	23.817	5.2727	5.e-002	4.517
21499	23.909	5.2727	0.	90.651
21500	23.817	5.5455	0.	62.035
21501	23.817	5.4545	5.e-002	4.5122
21502	23.909	5.4545	0.	75.039
21503	23.817	5.7273	0.	41.909
21504	23.817	5.6364	5.e-002	4.4576
21505	23.909	5.6364	0.	56.154
21506	23.817	5.8182	5.e-002	3.9172
21507	23.909	5.8182	0.	32.561
21508	23.817	5.9091	0.	19.637
21509	23.817	5.7273	0.1	37.015
21510	23.726	5.8182	0.1	54.56
21511	23.817	5.9091	0.1	34.548
21512	23.909	5.8182	0.1	20.439
21513	23.817	5.5455	0.1	38.078
21514	23.726	5.6364	0.1	55.138
21515	23.909	5.6364	0.1	21.296
21516	23.817	5.3636	0.1	38.681
21517	23.726	5.4545	0.1	56.202
21518	23.909	5.4545	0.1	21.742
21519	23.817	5.1818	0.1	38.998
21520	23.726	5.2727	0.1	56.945
21521	23.909	5.2727	0.1	21.98
21522	23.817	5.	0.1	39.143
21523	23.726	5.0909	0.1	57.403
21524	23.909	5.0909	0.1	22.08
21525	23.817	4.8182	0.1	39.196
21526	23.726	4.9091	0.1	57.684
21527	23.909	4.9091	0.1	22.114
21528	23.817	4.6364	0.1	39.197
21529	23.726	4.7273	0.1	57.853
21530	23.909	4.7273	0.1	22.112
21531	23.817	4.4545	0.1	39.17
21532	23.726	4.5455	0.1	57.949
21533	23.909	4.5455	0.1	22.09
21534	23.817	4.2727	0.1	39.129
21535	23.726	4.3636	0.1	57.998
21536	23.909	4.3636	0.1	22.058
21537	23.817	4.0909	0.1	39.083
21538	23.726	4.1818	0.1	58.019
21539	23.909	4.1818	0.1	22.023
21540	23.817	3.9091	0.1	39.038
21541	23.726	4.	0.1	58.021
21542	23.909	4.	0.1	21.989
21543	23.817	3.7273	0.1	38.997
21544	23.726	3.8182	0.1	58.014
21545	23.909	3.8182	0.1	21.958
21546	23.817	3.5455	0.1	38.962
21547	23.726	3.6364	0.1	58.003
21548	23.909	3.6364	0.1	21.931
21549	23.817	3.3636	0.1	38.937
21550	23.726	3.4545	0.1	57.992
21551	23.909	3.4545	0.1	21.911
21552	23.817	3.1818	0.1	38.921
21553	23.726	3.2727	0.1	57.983
21554	23.909	3.2727	0.1	21.897
21555	23.817	3.	0.1	38.916
21556	23.726	3.0909	0.1	57.978
21557	23.909	3.0909	0.1	21.889
21558	23.817	2.8182	0.1	38.921
21559	23.726	2.9091	0.1	57.978
21560	23.909	2.9091	0.1	21.889
21561	23.817	2.6364	0.1	38.937
21562	23.726	2.7273	0.1	57.983
21563	23.909	2.7273	0.1	21.897
21564	23.817	2.4545	0.1	38.962
21565	23.726	2.5455	0.1	57.992
21566	23.909	2.5455	0.1	21.911
21567	23.817	2.2727	0.1	38.997
21568	23.726	2.3636	0.1	58.003
21569	23.909	2.3636	0.1	21.931
21570	23.817	2.0909	0.1	39.038
21571	23.726	2.1818	0.1	58.014
21572	23.909	2.1818	0.1	21.958
21573	23.817	1.9091	0.1	39.083
21574	23.726	2.	0.1	58.021
21575	23.909	2.	0.1	21.989
21576	23.817	1.7273	0.1	39.129
21577	23.726	1.8182	0.1	58.019
21578	23.909	1.8182	0.1	22.023
21579	23.817	1.5455	0.1	39.17
21580	23.726	1.6364	0.1	57.998
21581	23.909	1.6364	0.1	22.058
21582	23.817	1.3636	0.1	39.197
21583	23.726	1.4545	0.1	57.949
21584	23.909	1.4545	0.1	22.09
21585	23.817	1.1818	0.1	39.196
21586	23.726	1.2727	0.1	57.853
21587	23.909	1.2727	0.1	22.112
21588	23.817	1.	0.1	39.143
21589	23.726	1.0909	0.1	57.684
21590	23.909	1.0909	0.1	22.114
21591	23.817	0.81818	0.1	38.998
21592	23.726	0.90909	0.1	57.403
21593	23.909	0.90909	0.1	22.08
21594	23.817	0.63636	0.1	38.681
21595	23.726	0.72727	0.1	56.945
21596	23.909	0.72727	0.1	21.98
21597	23.817	0.45455	0.1	38.078
21598	23.726	0.54545	0.1	56.202
21599	23.909	0.54545	0.1	21.742
21600	23.817	0.27273	0.1	37.015
21601	23.726	0.36364	0.1	55.138
21602	23.909	0.36364	0.1	21.296
21603	23.726	0.18182	0.1	54.56
21604	23.909	0.18182	0.1	20.439
21605	23.817	9.0909e-002	0.1	34.548
21606	23.635	5.7273	0.1	72.136
21607	23.543	5.8182	0.1	91.114
21608	23.635	5.9091	0.1	69.175
21609	23.635	5.5455	0.1	73.196
21610	23.543	5.6364	0.1	90.806
21611	23.635	5.3636	0.1	74.475
21612	23.543	5.4545	0.1	92.146
21613	23.635	5.1818	0.1	75.385
21614	23.543	5.2727	0.1	93.333
21615	23.635	5.	0.1	75.994
21616	23.543	5.0909	0.1	94.211
21617	23.635	4.8182	0.1	76.4
21618	23.543	4.9091	0.1	94.841
21619	23.635	4.6364	0.1	76.669
21620	23.543	4.7273	0.1	95.288
21621	23.635	4.4545	0.1	76.846
21622	23.543	4.5455	0.1	95.603
21623	23.635	4.2727	0.1	76.96
21624	23.543	4.3636	0.1	95.823
21625	23.635	4.0909	0.1	77.032
21626	23.543	4.1818	0.1	95.975
21627	23.635	3.9091	0.1	77.075
21628	23.543	4.	0.1	96.079
21629	23.635	3.7273	0.1	77.1
21630	23.543	3.8182	0.1	96.148
21631	23.635	3.5455	0.1	77.113
21632	23.543	3.6364	0.1	96.194
21633	23.635	3.3636	0.1	77.119
21634	23.543	3.4545	0.1	96.222
21635	23.635	3.1818	0.1	77.121
21636	23.543	3.2727	0.1	96.238
21637	23.635	3.	0.1	77.122
21638	23.543	3.0909	0.1	96.246
21639	23.635	2.8182	0.1	77.121
21640	23.543	2.9091	0.1	96.246
21641	23.635	2.6364	0.1	77.119
21642	23.543	2.7273	0.1	96.238
21643	23.635	2.4545	0.1	77.113
21644	23.543	2.5455	0.1	96.222
21645	23.635	2.2727	0.1	77.1
21646	23.543	2.3636	0.1	96.194
21647	23.635	2.0909	0.1	77.075
21648	23.543	2.1818	0.1	96.148
21649	23.635	1.9091	0.1	77.032
21650	23.543	2.	0.1	96.079
21651	23.635	1.7273	0.1	76.96
21652	23.543	1.8182	0.1	95.975
21653	23.635	1.5455	0.1	76.846
21654	23.543	1.6364	0.1	95.823
21655	23.635	1.3636	0.1	76.669
21656	23.543	1.4545	0.1	95.603
21657	23.635	1.1818	0.1	76.4
21658	23.543	1.2727	0.1	95.288
21659	23.635	1.	0.1	75.994
21660	23.543	1.0909	0.1	94.841
21661	23.635	0.81818	0.1	75.385
21662	23.543	0.90909	0.1	94.211
21663	23.635	0.63636	0.1	74.474
21664	23.543	0.72727	0.1	93.333
21665	23.635	0.45455	0.1	73.196
21666	23.543	0.54545	0.1	92.146
21667	23.635	0.27273	0.1	72.136
21668	23.543	0.36364	0.1	90.806
21669	23.543	0.18182	0.1	91.114
21670	23.635	9.0909e-002	0.1	69.175
21671	23.452	5.7273	0.1	109.15
21672	23.361	5.8182	0.1	128.93
21673	23.452	5.9091	0.1	105.73
21674	23.452	5.5455	0.1	109.6
21675	23.361	5.6364	0.1	127.74
21676	23.452	5.3636	0.1	110.94
21677	23.361	5.4545	0.1	128.86
21678	23.452	5.1818	0.1	112.13
21679	23.361	5.2727	0.1	130.13
21680	23.452	5.	0.1	113.05
21681	23.361	5.0909	0.1	131.21
21682	23.452	4.8182	0.1	113.72
21683	23.361	4.9091	0.1	132.07
21684	23.452	4.6364	0.1	114.22
21685	23.361	4.7273	0.1	132.73
21686	23.452	4.4545	0.1	114.58
21687	23.361	4.5455	0.1	133.23
21688	23.452	4.2727	0.1	114.84
21689	23.361	4.3636	0.1	133.6
21690	23.452	4.0909	0.1	115.03
21691	23.361	4.1818	0.1	133.87
21692	23.452	3.9091	0.1	115.16
21693	23.361	4.	0.1	134.07
21694	23.452	3.7273	0.1	115.25
21695	23.361	3.8182	0.1	134.22
21696	23.452	3.5455	0.1	115.31
21697	23.361	3.6364	0.1	134.32
21698	23.452	3.3636	0.1	115.35
21699	23.361	3.4545	0.1	134.39
21700	23.452	3.1818	0.1	115.37
21701	23.361	3.2727	0.1	134.43
21702	23.452	3.	0.1	115.38
21703	23.361	3.0909	0.1	134.45
21704	23.452	2.8182	0.1	115.37
21705	23.361	2.9091	0.1	134.45
21706	23.452	2.6364	0.1	115.35
21707	23.361	2.7273	0.1	134.43
21708	23.452	2.4545	0.1	115.31
21709	23.361	2.5455	0.1	134.39
21710	23.452	2.2727	0.1	115.25
21711	23.361	2.3636	0.1	134.32
21712	23.452	2.0909	0.1	115.16
21713	23.361	2.1818	0.1	134.22
21714	23.452	1.9091	0.1	115.03
21715	23.361	2.	0.1	134.07
21716	23.452	1.7273	0.1	114.84
21717	23.361	1.8182	0.1	133.87
21718	23.452	1.5455	0.1	114.58
21719	23.361	1.6364	0.1	133.6
21720	23.452	1.3636	0.1	114.22
21721	23.361	1.4545	0.1	133.23
21722	23.452	1.1818	0.1	113.72
21723	23.361	1.2727	0.1	132.73
21724	23.452	1.	0.1	113.05
21725	23.361	1.0909	0.1	132.07
21726	23.452	0.81818	0.1	112.13
21727	23.361	0.90909	0.1	131.21
21728	23.452	0.63636	0.1	110.94
21729	23.361	0.72727	0.1	130.13
21730	23.452	0.45455	0.1	109.6
21731	23.361	0.54545	0.1	128.86
21732	23.452	0.27273	0.1	109.15
21733	23.361	0.36364	0.1	127.74
21734	23.361	0.18182	0.1	128.93
21735	23.452	9.0909e-002	0.1	105.73
21736	23.269	5.7273	0.1	146.95
21737	23.178	5.8182	0.1	167.23
21738	23.269	5.9091	0.1	143.15
21739	23.269	5.5455	0.1	146.81
21740	23.178	5.6364	0.1	165.42
21741	23.269	5.3636	0.1	147.95
21742	23.178	5.4545	0.1	166.19
21743	23.269	5.1818	0.1	149.16
21744	23.178	5.2727	0.1	167.33
21745	23.269	5.	0.1	150.21
21746	23.178	5.0909	0.1	168.44
21747	23.269	4.8182	0.1	151.06
21748	23.178	4.9091	0.1	169.4
21749	23.269	4.6364	0.1	151.72
21750	23.178	4.7273	0.1	170.19
21751	23.269	4.4545	0.1	152.23
21752	23.178	4.5455	0.1	170.82
21753	23.269	4.2727	0.1	152.62
21754	23.178	4.3636	0.1	171.31
21755	23.269	4.0909	0.1	152.91
21756	23.178	4.1818	0.1	171.69
21757	23.269	3.9091	0.1	153.13
21758	23.178	4.	0.1	171.98
21759	23.269	3.7273	0.1	153.29
21760	23.178	3.8182	0.1	172.19
21761	23.269	3.5455	0.1	153.4
21762	23.178	3.6364	0.1	172.35
21763	23.269	3.3636	0.1	153.47
21764	23.178	3.4545	0.1	172.46
21765	23.269	3.1818	0.1	153.51
21766	23.178	3.2727	0.1	172.52
21767	23.269	3.	0.1	153.52
21768	23.178	3.0909	0.1	172.56
21769	23.269	2.8182	0.1	153.51
21770	23.178	2.9091	0.1	172.56
21771	23.269	2.6364	0.1	153.47
21772	23.178	2.7273	0.1	172.52
21773	23.269	2.4545	0.1	153.4
21774	23.178	2.5455	0.1	172.46
21775	23.269	2.2727	0.1	153.29
21776	23.178	2.3636	0.1	172.35
21777	23.269	2.0909	0.1	153.13
21778	23.178	2.1818	0.1	172.19
21779	23.269	1.9091	0.1	152.91
21780	23.178	2.	0.1	171.98
21781	23.269	1.7273	0.1	152.62
21782	23.178	1.8182	0.1	171.69
21783	23.269	1.5455	0.1	152.23
21784	23.178	1.6364	0.1	171.31
21785	23.269	1.3636	0.1	151.72
21786	23.178	1.4545	0.1	170.82
21787	23.269	1.1818	0.1	151.06
21788	23.178	1.2727	0.1	170.19
21789	23.269	1.	0.1	150.21
21790	23.178	1.0909	0.1	169.4
21791	23.269	0.81818	0.1	149.16
21792	23.178	0.90909	0.1	168.44
21793	23.269	0.63636	0.1	147.95
21794	23.178	0.72727	0.1	167.33
21795	23.269	0.45455	0.1	146.81
21796	23.178	0.54545	0.1	166.19
21797	23.269	0.27273	0.1	146.95
21798	23.178	0.36364	0.1	165.42
21799	23.178	0.18182	0.1	167.23
21800	23.269	9.0909e-002	0.1	143.15
21801	23.087	5.7273	0.1	185.21
21802	22.995	5.8182	0.1	205.85
21803	23.087	5.9091	0.1	181.12
21804	23.087	5.5455	0.1	184.61
21805	22.995	5.6364	0.1	203.59
21806	23.087	5.3636	0.1	185.47
21807	22.995	5.4545	0.1	204.02
21808	23.087	5.1818	0.1	186.55
21809	22.995	5.2727	0.1	204.95
21810	23.087	5.	0.1	187.6
21811	22.995	5.0909	0.1	205.97
21812	23.087	4.8182	0.1	188.51
21813	22.995	4.9091	0.1	206.92
21814	23.087	4.6364	0.1	189.27
21815	22.995	4.7273	0.1	207.76
21816	23.087	4.4545	0.1	189.88
21817	22.995	4.5455	0.1	208.46
21818	23.087	4.2727	0.1	190.37
21819	22.995	4.3636	0.1	209.03
21820	23.087	4.0909	0.1	190.75
21821	22.995	4.1818	0.1	209.48
21822	23.087	3.9091	0.1	191.03
21823	22.995	4.	0.1	209.84
21824	23.087	3.7273	0.1	191.25
21825	22.995	3.8182	0.1	210.11
21826	23.087	3.5455	0.1	191.4
21827	22.995	3.6364	0.1	210.31
21828	23.087	3.3636	0.1	191.51
21829	22.995	3.4545	0.1	210.45
21830	23.087	3.1818	0.1	191.56
21831	22.995	3.2727	0.1	210.54
21832	23.087	3.	0.1	191.58
21833	22.995	3.0909	0.1	210.59
21834	23.087	2.8182	0.1	191.56
21835	22.995	2.9091	0.1	210.59
21836	23.087	2.6364	0.1	191.51
21837	22.995	2.7273	0.1	210.54
21838	23.087	2.4545	0.1	191.4
21839	22.995	2.5455	0.1	210.45
21840	23.087	2.2727	0.1	191.25
21841	22.995	2.3636	0.1	210.31
21842	23.087	2.0909	0.1	191.03
21843	22.995	2.1818	0.1	210.11
21844	23.087	1.9091	0.1	190.75
21845	22.995	2.	0.1	209.84
21846	23.087	1.7273	0.1	190.37
21847	22.995	1.8182	0.1	209.48
21848	23.087	1.5455	0.1	189.88
21849	22.995	1.6364	0.1	209.03
21850	23.087	1.3636	0.1	189.27
21851	22.995	1.4545	0.1	208.46
21852	23.087	1.1818	0.1	188.51
21853	22.995	1.2727	0.1	207.76
21854	23.087	1.	0.1	187.6
21855	22.995	1.0909	0.1	206.92
21856	23.087	0.81818	0.1	186.55
21857	22.995	0.90909	0.1	205.97
21858	23.087	0.63636	0.1	185.47
21859	22.995	0.72727	0.1	204.95
21860	23.087	0.45455	0.1	184.61
21861	22.995	0.54545	0.1	204.02
21862	23.087	0.27273	0.1	185.21
21863	22.995	0.36364	0.1	203.59
21864	22.995	0.18182	0.1	205.85
21865	23.087	9.0909e-002	0.1	181.12
21866	22.904	5.7273	0.1	223.8
21867	22.813	5.8182	0.1	244.7
21868	22.904	5.9091	0.1	219.51
21869	22.904	5.5455	0.1	222.83
21870	22.813	5.6364	0.1	242.1
21871	22.904	5.3636	0.1	223.39
21872	22.813	5.4545	0.1	242.23
21873	22.904	5.1818	0.1	224.29
21874	22.813	5.2727	0.1	242.92
21875	22.904	5.	0.1	225.25
21876	22.813	5.0909	0.1	243.79
21877	22.904	4.8182	0.1	226.14
21878	22.813	4.9091	0.1	244.67
21879	22.904	4.6364	0.1	226.93
21880	22.813	4.7273	0.1	245.49
21881	22.904	4.4545	0.1	227.59
21882	22.813	4.5455	0.1	246.2
21883	22.904	4.2727	0.1	228.13
21884	22.813	4.3636	0.1	246.81
21885	22.904	4.0909	0.1	228.57
21886	22.813	4.1818	0.1	247.3
21887	22.904	3.9091	0.1	228.91
21888	22.813	4.	0.1	247.7
21889	22.904	3.7273	0.1	229.17
21890	22.813	3.8182	0.1	248.01
21891	22.904	3.5455	0.1	229.36
21892	22.813	3.6364	0.1	248.25
21893	22.904	3.3636	0.1	229.48
21894	22.813	3.4545	0.1	248.41
21895	22.904	3.1818	0.1	229.56
21896	22.813	3.2727	0.1	248.52
21897	22.904	3.	0.1	229.58
21898	22.813	3.0909	0.1	248.57
21899	22.904	2.8182	0.1	229.56
21900	22.813	2.9091	0.1	248.57
21901	22.904	2.6364	0.1	229.48
21902	22.813	2.7273	0.1	248.52
21903	22.904	2.4545	0.1	229.36
21904	22.813	2.5455	0.1	248.41
21905	22.904	2.2727	0.1	229.17
21906	22.813	2.3636	0.1	248.25
21907	22.904	2.0909	0.1	228.91
21908	22.813	2.1818	0.1	248.01
21909	22.904	1.9091	0.1	228.57
21910	22.813	2.	0.1	247.7
21911	22.904	1.7273	0.1	228.13
21912	22.813	1.8182	0.1	247.3
21913	22.904	1.5455	0.1	227.59
21914	22.813	1.6364	0.1	246.81
21915	22.904	1.3636	0.1	226.93
21916	22.813	1.4545	0.1	246.2
21917	22.904	1.1818	0.1	226.14
21918	22.813	1.2727	0.1	245.49
21919	22.904	1.	0.1	225.24
21920	22.813	1.0909	0.1	244.67
21921	22.904	0.81818	0.1	224.29
21922	22.813	0.90909	0.1	243.79
21923	22.904	0.63636	0.1	223.39
21924	22.813	0.72727	0.1	242.92
21925	22.904	0.45455	0.1	222.83
21926	22.813	0.54545	0.1	242.23
21927	22.904	0.27273	0.1	223.8
21928	22.813	0.36364	0.1	242.1
21929	22.813	0.18182	0.1	244.7
21930	22.904	9.0909e-002	0.1	219.51
21931	22.721	5.7273	0.1	262.62
21932	22.63	5.8182	0.1	283.72
21933	22.721	5.9091	0.1	258.21
21934	22.721	5.5455	0.1	261.36
21935	22.63	5.6364	0.1	280.88
21936	22.721	5.3636	0.1	261.66
21937	22.63	5.4545	0.1	280.75
21938	22.721	5.1818	0.1	262.34
21939	22.63	5.2727	0.1	281.2
21940	22.721	5.	0.1	263.16
21941	22.63	5.0909	0.1	281.89
21942	22.721	4.8182	0.1	263.98
21943	22.63	4.9091	0.1	282.65
21944	22.721	4.6364	0.1	264.73
21945	22.63	4.7273	0.1	283.39
21946	22.721	4.4545	0.1	265.4
21947	22.63	4.5455	0.1	284.08
21948	22.721	4.2727	0.1	265.96
21949	22.63	4.3636	0.1	284.68
21950	22.721	4.0909	0.1	266.42
21951	22.63	4.1818	0.1	285.19
21952	22.721	3.9091	0.1	266.79
21953	22.63	4.	0.1	285.6
21954	22.721	3.7273	0.1	267.08
21955	22.63	3.8182	0.1	285.94
21956	22.721	3.5455	0.1	267.3
21957	22.63	3.6364	0.1	286.19
21958	22.721	3.3636	0.1	267.44
21959	22.63	3.4545	0.1	286.37
21960	22.721	3.1818	0.1	267.53
21961	22.63	3.2727	0.1	286.49
21962	22.721	3.	0.1	267.56
21963	22.63	3.0909	0.1	286.55
21964	22.721	2.8182	0.1	267.53
21965	22.63	2.9091	0.1	286.55
21966	22.721	2.6364	0.1	267.44
21967	22.63	2.7273	0.1	286.49
21968	22.721	2.4545	0.1	267.3
21969	22.63	2.5455	0.1	286.37
21970	22.721	2.2727	0.1	267.08
21971	22.63	2.3636	0.1	286.19
21972	22.721	2.0909	0.1	266.79
21973	22.63	2.1818	0.1	285.94
21974	22.721	1.9091	0.1	266.42
21975	22.63	2.	0.1	285.6
21976	22.721	1.7273	0.1	265.96
21977	22.63	1.8182	0.1	285.19
21978	22.721	1.5455	0.1	265.4
21979	22.63	1.6364	0.1	284.68
21980	22.721	1.3636	0.1	264.73
21981	22.63	1.4545	0.1	284.08
21982	22.721	1.1818	0.1	263.98
21983	22.63	1.2727	0.1	283.39
21984	22.721	1.	0.1	263.16
21985	22.63	1.0909	0.1	282.65
21986	22.721	0.81818	0.1	262.34
21987	22.63	0.90909	0.1	281.89
21988	22.721	0.63636	0.1	261.66
21989	22.63	0.72727	0.1	281.2
21990	22.721	0.45455	0.1	261.36
21991	22.63	0.54545	0.1	280.75
21992	22.721	0.27273	0.1	262.62
21993	22.63	0.36364	0.1	280.88
21994	22.63	0.18182	0.1	283.72
21995	22.721	9.0909e-002	0.1	258.2
21996	22.539	5.7273	0.1	301.64
21997	22.447	5.8182	0.1	322.91
21998	22.539	5.9091	0.1	297.16
21999	22.539	5.5455	0.1	300.14
22000	22.447	5.6364	0.1	319.87
22001	22.539	5.3636	0.1	300.2
22002	22.447	5.4545	0.1	319.52
22003	22.539	5.1818	0.1	300.67
22004	22.447	5.2727	0.1	319.75
22005	22.539	5.	0.1	301.32
22006	22.447	5.0909	0.1	320.24
22007	22.539	4.8182	0.1	302.02
22008	22.447	4.9091	0.1	320.85
22009	22.539	4.6364	0.1	302.71
22010	22.447	4.7273	0.1	321.5
22011	22.539	4.4545	0.1	303.34
22012	22.447	4.5455	0.1	322.12
22013	22.539	4.2727	0.1	303.89
22014	22.447	4.3636	0.1	322.68
22015	22.539	4.0909	0.1	304.35
22016	22.447	4.1818	0.1	323.17
22017	22.539	3.9091	0.1	304.73
22018	22.447	4.	0.1	323.58
22019	22.539	3.7273	0.1	305.03
22020	22.447	3.8182	0.1	323.92
22021	22.539	3.5455	0.1	305.26
22022	22.447	3.6364	0.1	324.17
22023	22.539	3.3636	0.1	305.41
22024	22.447	3.4545	0.1	324.36
22025	22.539	3.1818	0.1	305.5
22026	22.447	3.2727	0.1	324.49
22027	22.539	3.	0.1	305.53
22028	22.447	3.0909	0.1	324.55
22029	22.539	2.8182	0.1	305.5
22030	22.447	2.9091	0.1	324.55
22031	22.539	2.6364	0.1	305.41
22032	22.447	2.7273	0.1	324.49
22033	22.539	2.4545	0.1	305.26
22034	22.447	2.5455	0.1	324.36
22035	22.539	2.2727	0.1	305.03
22036	22.447	2.3636	0.1	324.17
22037	22.539	2.0909	0.1	304.73
22038	22.447	2.1818	0.1	323.92
22039	22.539	1.9091	0.1	304.35
22040	22.447	2.	0.1	323.58
22041	22.539	1.7273	0.1	303.89
22042	22.447	1.8182	0.1	323.17
22043	22.539	1.5455	0.1	303.34
22044	22.447	1.6364	0.1	322.68
22045	22.539	1.3636	0.1	302.71
22046	22.447	1.4545	0.1	322.12
22047	22.539	1.1818	0.1	302.02
22048	22.447	1.2727	0.1	321.5
22049	22.539	1.	0.1	301.32
22050	22.447	1.0909	0.1	320.85
22051	22.539	0.81818	0.1	300.67
22052	22.447	0.90909	0.1	320.24
22053	22.539	0.63636	0.1	300.2
22054	22.447	0.72727	0.1	319.75
22055	22.539	0.45455	0.1	300.14
22056	22.447	0.54545	0.1	319.52
22057	22.539	0.27273	0.1	301.64
22058	22.447	0.36364	0.1	319.87
22059	22.447	0.18182	0.1	322.91
22060	22.539	9.0909e-002	0.1	297.16
22061	22.356	5.7273	0.1	340.83
22062	22.265	5.8182	0.1	362.24
22063	22.356	5.9091	0.1	336.35
22064	22.356	5.5455	0.1	339.13
22065	22.265	5.6364	0.1	359.04
22066	22.356	5.3636	0.1	338.98
22067	22.265	5.4545	0.1	358.5
22068	22.356	5.1818	0.1	339.25
22069	22.265	5.2727	0.1	358.52
22070	22.356	5.	0.1	339.72
22071	22.265	5.0909	0.1	358.82
22072	22.356	4.8182	0.1	340.29
22073	22.265	4.9091	0.1	359.28
22074	22.356	4.6364	0.1	340.87
22075	22.265	4.7273	0.1	359.8
22076	22.356	4.4545	0.1	341.44
22077	22.265	4.5455	0.1	360.33
22078	22.356	4.2727	0.1	341.94
22079	22.265	4.3636	0.1	360.83
22080	22.356	4.0909	0.1	342.38
22081	22.265	4.1818	0.1	361.28
22082	22.356	3.9091	0.1	342.75
22083	22.265	4.	0.1	361.66
22084	22.356	3.7273	0.1	343.05
22085	22.265	3.8182	0.1	361.98
22086	22.356	3.5455	0.1	343.27
22087	22.265	3.6364	0.1	362.23
22088	22.356	3.3636	0.1	343.43
22089	22.265	3.4545	0.1	362.42
22090	22.356	3.1818	0.1	343.52
22091	22.265	3.2727	0.1	362.54
22092	22.356	3.	0.1	343.55
22093	22.265	3.0909	0.1	362.6
22094	22.356	2.8182	0.1	343.52
22095	22.265	2.9091	0.1	362.6
22096	22.356	2.6364	0.1	343.43
22097	22.265	2.7273	0.1	362.54
22098	22.356	2.4545	0.1	343.27
22099	22.265	2.5455	0.1	362.42
22100	22.356	2.2727	0.1	343.05
22101	22.265	2.3636	0.1	362.23
22102	22.356	2.0909	0.1	342.75
22103	22.265	2.1818	0.1	361.98
22104	22.356	1.9091	0.1	342.38
22105	22.265	2.	0.1	361.66
22106	22.356	1.7273	0.1	341.94
22107	22.265	1.8182	0.1	361.28
22108	22.356	1.5455	0.1	341.44
22109	22.265	1.6364	0.1	360.83
22110	22.356	1.3636	0.1	340.87
22111	22.265	1.4545	0.1	360.33
22112	22.356	1.1818	0.1	340.29
22113	22.265	1.2727	0.1	359.8
22114	22.356	1.	0.1	339.72
22115	22.265	1.0909	0.1	359.28
22116	22.356	0.81818	0.1	339.25
22117	22.265	0.90909	0.1	358.82
22118	22.356	0.63636	0.1	338.98
22119	22.265	0.72727	0.1	358.52
22120	22.356	0.45455	0.1	339.13
22121	22.265	0.54545	0.1	358.5
22122	22.356	0.27273	0.1	340.83
22123	22.265	0.36364	0.1	359.04
22124	22.265	0.18182	0.1	362.24
22125	22.356	9.0909e-002	0.1	336.35
22126	22.173	5.7273	0.1	380.17
22127	22.082	5.8182	0.1	401.7
22128	22.173	5.9091	0.1	375.73
22129	22.173	5.5455	0.1	378.3
22130	22.082	5.6364	0.1	398.38
22131	22.173	5.3636	0.1	377.96
22132	22.082	5.4545	0.1	397.67
22133	22.173	5.1818	0.1	378.04
22134	22.082	5.2727	0.1	397.5
22135	22.173	5.	0.1	378.33
22136	22.082	5.0909	0.1	397.62
22137	22.173	4.8182	0.1	378.75
22138	22.082	4.9091	0.1	397.92
22139	22.173	4.6364	0.1	379.23
22140	22.082	4.7273	0.1	398.3
22141	22.173	4.4545	0.1	379.7
22142	22.082	4.5455	0.1	398.73
22143	22.173	4.2727	0.1	380.15
22144	22.082	4.3636	0.1	399.14
22145	22.173	4.0909	0.1	380.54
22146	22.082	4.1818	0.1	399.53
22147	22.173	3.9091	0.1	380.88
22148	22.082	4.	0.1	399.87
22149	22.173	3.7273	0.1	381.15
22150	22.082	3.8182	0.1	400.16
22151	22.173	3.5455	0.1	381.36
22152	22.082	3.6364	0.1	400.39
22153	22.173	3.3636	0.1	381.51
22154	22.082	3.4545	0.1	400.56
22155	22.173	3.1818	0.1	381.6
22156	22.082	3.2727	0.1	400.67
22157	22.173	3.	0.1	381.63
22158	22.082	3.0909	0.1	400.73
22159	22.173	2.8182	0.1	381.6
22160	22.082	2.9091	0.1	400.73
22161	22.173	2.6364	0.1	381.51
22162	22.082	2.7273	0.1	400.67
22163	22.173	2.4545	0.1	381.36
22164	22.082	2.5455	0.1	400.56
22165	22.173	2.2727	0.1	381.15
22166	22.082	2.3636	0.1	400.39
22167	22.173	2.0909	0.1	380.88
22168	22.082	2.1818	0.1	400.16
22169	22.173	1.9091	0.1	380.54
22170	22.082	2.	0.1	399.87
22171	22.173	1.7273	0.1	380.15
22172	22.082	1.8182	0.1	399.53
22173	22.173	1.5455	0.1	379.7
22174	22.082	1.6364	0.1	399.14
22175	22.173	1.3636	0.1	379.23
22176	22.082	1.4545	0.1	398.73
22177	22.173	1.1818	0.1	378.75
22178	22.082	1.2727	0.1	398.3
22179	22.173	1.	0.1	378.33
22180	22.082	1.0909	0.1	397.92
22181	22.173	0.81818	0.1	378.04
22182	22.082	0.90909	0.1	397.62
22183	22.173	0.63636	0.1	377.96
22184	22.082	0.72727	0.1	397.5
22185	22.173	0.45455	0.1	378.3
22186	22.082	0.54545	0.1	397.67
22187	22.173	0.27273	0.1	380.17
22188	22.082	0.36364	0.1	398.38
22189	22.082	0.18182	0.1	401.7
22190	22.173	9.0909e-002	0.1	375.73
22191	21.991	5.7273	0.1	419.65
22192	21.899	5.8182	0.1	441.3
22193	21.991	5.9091	0.1	415.29
22194	21.991	5.5455	0.1	417.65
22195	21.899	5.6364	0.1	437.87
22196	21.991	5.3636	0.1	417.13
22197	21.899	5.4545	0.1	437.01
22198	21.991	5.1818	0.1	417.02
22199	21.899	5.2727	0.1	436.67
22200	21.991	5.	0.1	417.15
22201	21.899	5.0909	0.1	436.61
22202	21.991	4.8182	0.1	417.42
22203	21.899	4.9091	0.1	436.75
22204	21.991	4.6364	0.1	417.77
22205	21.899	4.7273	0.1	437.
22206	21.991	4.4545	0.1	418.14
22207	21.899	4.5455	0.1	437.3
22208	21.991	4.2727	0.1	418.51
22209	21.899	4.3636	0.1	437.63
22210	21.991	4.0909	0.1	418.84
22211	21.899	4.1818	0.1	437.94
22212	21.991	3.9091	0.1	419.13
22213	21.899	4.	0.1	438.22
22214	21.991	3.7273	0.1	419.38
22215	21.899	3.8182	0.1	438.46
22216	21.991	3.5455	0.1	419.56
22217	21.899	3.6364	0.1	438.66
22218	21.991	3.3636	0.1	419.7
22219	21.899	3.4545	0.1	438.81
22220	21.991	3.1818	0.1	419.78
22221	21.899	3.2727	0.1	438.91
22222	21.991	3.	0.1	419.81
22223	21.899	3.0909	0.1	438.96
22224	21.991	2.8182	0.1	419.78
22225	21.899	2.9091	0.1	438.96
22226	21.991	2.6364	0.1	419.7
22227	21.899	2.7273	0.1	438.91
22228	21.991	2.4545	0.1	419.56
22229	21.899	2.5455	0.1	438.81
22230	21.991	2.2727	0.1	419.38
22231	21.899	2.3636	0.1	438.66
22232	21.991	2.0909	0.1	419.13
22233	21.899	2.1818	0.1	438.46
22234	21.991	1.9091	0.1	418.84
22235	21.899	2.	0.1	438.22
22236	21.991	1.7273	0.1	418.5
22237	21.899	1.8182	0.1	437.94
22238	21.991	1.5455	0.1	418.14
22239	21.899	1.6364	0.1	437.63
22240	21.991	1.3636	0.1	417.77
22241	21.899	1.4545	0.1	437.3
22242	21.991	1.1818	0.1	417.42
22243	21.899	1.2727	0.1	437.
22244	21.991	1.	0.1	417.15
22245	21.899	1.0909	0.1	436.75
22246	21.991	0.81818	0.1	417.02
22247	21.899	0.90909	0.1	436.61
22248	21.991	0.63636	0.1	417.13
22249	21.899	0.72727	0.1	436.67
22250	21.991	0.45455	0.1	417.65
22251	21.899	0.54545	0.1	437.01
22252	21.991	0.27273	0.1	419.65
22253	21.899	0.36364	0.1	437.87
22254	21.899	0.18182	0.1	441.3
22255	21.991	9.0909e-002	0.1	415.29
22256	21.808	5.7273	0.1	459.27
22257	21.717	5.8182	0.1	481.01
22258	21.808	5.9091	0.1	455.02
22259	21.808	5.5455	0.1	457.14
22260	21.717	5.6364	0.1	477.51
22261	21.808	5.3636	0.1	456.47
22262	21.717	5.4545	0.1	476.51
22263	21.808	5.1818	0.1	456.2
22264	21.717	5.2727	0.1	476.
22265	21.808	5.	0.1	456.16
22266	21.717	5.0909	0.1	475.79
22267	21.808	4.8182	0.1	456.28
22268	21.717	4.9091	0.1	475.77
22269	21.808	4.6364	0.1	456.5
22270	21.717	4.7273	0.1	475.88
22271	21.808	4.4545	0.1	456.76
22272	21.717	4.5455	0.1	476.06
22273	21.808	4.2727	0.1	457.03
22274	21.717	4.3636	0.1	476.28
22275	21.808	4.0909	0.1	457.3
22276	21.717	4.1818	0.1	476.51
22277	21.808	3.9091	0.1	457.53
22278	21.717	4.	0.1	476.73
22279	21.808	3.7273	0.1	457.73
22280	21.717	3.8182	0.1	476.92
22281	21.808	3.5455	0.1	457.89
22282	21.717	3.6364	0.1	477.08
22283	21.808	3.3636	0.1	458.01
22284	21.717	3.4545	0.1	477.2
22285	21.808	3.1818	0.1	458.08
22286	21.717	3.2727	0.1	477.28
22287	21.808	3.	0.1	458.1
22288	21.717	3.0909	0.1	477.32
22289	21.808	2.8182	0.1	458.08
22290	21.717	2.9091	0.1	477.32
22291	21.808	2.6364	0.1	458.01
22292	21.717	2.7273	0.1	477.28
22293	21.808	2.4545	0.1	457.89
22294	21.717	2.5455	0.1	477.2
22295	21.808	2.2727	0.1	457.73
22296	21.717	2.3636	0.1	477.08
22297	21.808	2.0909	0.1	457.53
22298	21.717	2.1818	0.1	476.92
22299	21.808	1.9091	0.1	457.3
22300	21.717	2.	0.1	476.73
22301	21.808	1.7273	0.1	457.03
22302	21.717	1.8182	0.1	476.51
22303	21.808	1.5455	0.1	456.76
22304	21.717	1.6364	0.1	476.28
22305	21.808	1.3636	0.1	456.49
22306	21.717	1.4545	0.1	476.06
22307	21.808	1.1818	0.1	456.28
22308	21.717	1.2727	0.1	475.88
22309	21.808	1.	0.1	456.16
22310	21.717	1.0909	0.1	475.77
22311	21.808	0.81818	0.1	456.2
22312	21.717	0.90909	0.1	475.79
22313	21.808	0.63636	0.1	456.47
22314	21.717	0.72727	0.1	476.
22315	21.808	0.45455	0.1	457.14
22316	21.717	0.54545	0.1	476.51
22317	21.808	0.27273	0.1	459.27
22318	21.717	0.36364	0.1	477.51
22319	21.717	0.18182	0.1	481.01
22320	21.808	9.0909e-002	0.1	455.02
22321	21.625	5.7273	0.1	499.02
22322	21.534	5.8182	0.1	520.85
22323	21.625	5.9091	0.1	494.9
22324	21.625	5.5455	0.1	496.79
22325	21.534	5.6364	0.1	517.28
22326	21.625	5.3636	0.1	495.97
22327	21.534	5.4545	0.1	516.15
22328	21.625	5.1818	0.1	495.54
22329	21.534	5.2727	0.1	515.51
22330	21.625	5.	0.1	495.35
22331	21.534	5.0909	0.1	515.14
22332	21.625	4.8182	0.1	495.32
22333	21.534	4.9091	0.1	514.97
22334	21.625	4.6364	0.1	495.41
22335	21.534	4.7273	0.1	514.94
22336	21.625	4.4545	0.1	495.56
22337	21.534	4.5455	0.1	515.
22338	21.625	4.2727	0.1	495.73
22339	21.534	4.3636	0.1	515.12
22340	21.625	4.0909	0.1	495.92
22341	21.534	4.1818	0.1	515.26
22342	21.625	3.9091	0.1	496.09
22343	21.534	4.	0.1	515.4
22344	21.625	3.7273	0.1	496.24
22345	21.534	3.8182	0.1	515.53
22346	21.625	3.5455	0.1	496.37
22347	21.534	3.6364	0.1	515.65
22348	21.625	3.3636	0.1	496.46
22349	21.534	3.4545	0.1	515.74
22350	21.625	3.1818	0.1	496.51
22351	21.534	3.2727	0.1	515.8
22352	21.625	3.	0.1	496.53
22353	21.534	3.0909	0.1	515.83
22354	21.625	2.8182	0.1	496.51
22355	21.534	2.9091	0.1	515.83
22356	21.625	2.6364	0.1	496.46
22357	21.534	2.7273	0.1	515.8
22358	21.625	2.4545	0.1	496.37
22359	21.534	2.5455	0.1	515.74
22360	21.625	2.2727	0.1	496.24
22361	21.534	2.3636	0.1	515.65
22362	21.625	2.0909	0.1	496.09
22363	21.534	2.1818	0.1	515.53
22364	21.625	1.9091	0.1	495.92
22365	21.534	2.	0.1	515.4
22366	21.625	1.7273	0.1	495.73
22367	21.534	1.8182	0.1	515.26
22368	21.625	1.5455	0.1	495.56
22369	21.534	1.6364	0.1	515.12
22370	21.625	1.3636	0.1	495.41
22371	21.534	1.4545	0.1	515.
22372	21.625	1.1818	0.1	495.32
22373	21.534	1.2727	0.1	514.94
22374	21.625	1.	0.1	495.35
22375	21.534	1.0909	0.1	514.97
22376	21.625	0.81818	0.1	495.54
22377	21.534	0.90909	0.1	515.14
22378	21.625	0.63636	0.1	495.97
22379	21.534	0.72727	0.1	515.51
22380	21.625	0.45455	0.1	496.79
22381	21.534	0.54545	0.1	516.15
22382	21.625	0.27273	0.1	499.02
22383	21.534	0.36364	0.1	517.28
22384	21.534	0.18182	0.1	520.85
22385	21.625	9.0909e-002	0.1	494.9
22386	21.443	5.7273	0.1	538.9
22387	21.351	5.8182	0.1	560.81
22388	21.443	5.9091	0.1	534.94
22389	21.443	5.5455	0.1	536.57
22390	21.351	5.6364	0.1	557.19
22391	21.443	5.3636	0.1	535.63
22392	21.351	5.4545	0.1	555.95
22393	21.443	5.1818	0.1	535.05
22394	21.351	5.2727	0.1	555.17
22395	21.443	5.	0.1	534.71
22396	21.351	5.0909	0.1	554.65
22397	21.443	4.8182	0.1	534.55
22398	21.351	4.9091	0.1	554.35
22399	21.443	4.6364	0.1	534.5
22400	21.351	4.7273	0.1	554.19
22401	21.443	4.4545	0.1	534.54
22402	21.351	4.5455	0.1	554.13
22403	21.443	4.2727	0.1	534.62
22404	21.351	4.3636	0.1	554.14
22405	21.443	4.0909	0.1	534.72
22406	21.351	4.1818	0.1	554.19
22407	21.443	3.9091	0.1	534.82
22408	21.351	4.	0.1	554.25
22409	21.443	3.7273	0.1	534.92
22410	21.351	3.8182	0.1	554.32
22411	21.443	3.5455	0.1	535.
22412	21.351	3.6364	0.1	554.39
22413	21.443	3.3636	0.1	535.06
22414	21.351	3.4545	0.1	554.44
22415	21.443	3.1818	0.1	535.1
22416	21.351	3.2727	0.1	554.48
22417	21.443	3.	0.1	535.11
22418	21.351	3.0909	0.1	554.5
22419	21.443	2.8182	0.1	535.1
22420	21.351	2.9091	0.1	554.5
22421	21.443	2.6364	0.1	535.06
22422	21.351	2.7273	0.1	554.48
22423	21.443	2.4545	0.1	535.
22424	21.351	2.5455	0.1	554.44
22425	21.443	2.2727	0.1	534.92
22426	21.351	2.3636	0.1	554.39
22427	21.443	2.0909	0.1	534.82
22428	21.351	2.1818	0.1	554.32
22429	21.443	1.9091	0.1	534.72
22430	21.351	2.	0.1	554.25
22431	21.443	1.7273	0.1	534.62
22432	21.351	1.8182	0.1	554.19
22433	21.443	1.5455	0.1	534.54
22434	21.351	1.6364	0.1	554.14
22435	21.443	1.3636	0.1	534.5
22436	21.351	1.4545	0.1	554.13
22437	21.443	1.1818	0.1	534.55
22438	21.351	1.2727	0.1	554.19
22439	21.443	1.	0.1	534.71
22440	21.351	1.0909	0.1	554.35
22441	21.443	0.81818	0.1	535.05
22442	21.351	0.90909	0.1	554.65
22443	21.443	0.63636	0.1	535.63
22444	21.351	0.72727	0.1	555.17
22445	21.443	0.45455	0.1	536.57
22446	21.351	0.54545	0.1	555.95
22447	21.443	0.27273	0.1	538.9
22448	21.351	0.36364	0.1	557.19
22449	21.351	0.18182	0.1	560.81
22450	21.443	9.0909e-002	0.1	534.94
22451	21.26	5.7273	0.1	578.9
22452	21.169	5.8182	0.1	600.89
22453	21.26	5.9091	0.1	575.12
22454	21.26	5.5455	0.1	576.5
22455	21.169	5.6364	0.1	597.23
22456	21.26	5.3636	0.1	575.43
22457	21.169	5.4545	0.1	595.88
22458	21.26	5.1818	0.1	574.72
22459	21.169	5.2727	0.1	594.98
22460	21.26	5.	0.1	574.25
22461	21.169	5.0909	0.1	594.33
22462	21.26	4.8182	0.1	573.95
22463	21.169	4.9091	0.1	593.9
22464	21.26	4.6364	0.1	573.78
22465	21.169	4.7273	0.1	593.61
22466	21.26	4.4545	0.1	573.7
22467	21.169	4.5455	0.1	593.44
22468	21.26	4.2727	0.1	573.68
22469	21.169	4.3636	0.1	593.35
22470	21.26	4.0909	0.1	573.7
22471	21.169	4.1818	0.1	593.3
22472	21.26	3.9091	0.1	573.74
22473	21.169	4.	0.1	593.29
22474	21.26	3.7273	0.1	573.78
22475	21.169	3.8182	0.1	593.3
22476	21.26	3.5455	0.1	573.81
22477	21.169	3.6364	0.1	593.32
22478	21.26	3.3636	0.1	573.85
22479	21.169	3.4545	0.1	593.33
22480	21.26	3.1818	0.1	573.86
22481	21.169	3.2727	0.1	593.35
22482	21.26	3.	0.1	573.87
22483	21.169	3.0909	0.1	593.35
22484	21.26	2.8182	0.1	573.86
22485	21.169	2.9091	0.1	593.35
22486	21.26	2.6364	0.1	573.85
22487	21.169	2.7273	0.1	593.35
22488	21.26	2.4545	0.1	573.81
22489	21.169	2.5455	0.1	593.33
22490	21.26	2.2727	0.1	573.78
22491	21.169	2.3636	0.1	593.32
22492	21.26	2.0909	0.1	573.74
22493	21.169	2.1818	0.1	593.3
22494	21.26	1.9091	0.1	573.7
22495	21.169	2.	0.1	593.29
22496	21.26	1.7273	0.1	573.68
22497	21.169	1.8182	0.1	593.3
22498	21.26	1.5455	0.1	573.7
22499	21.169	1.6364	0.1	593.34
22500	21.26	1.3636	0.1	573.78
22501	21.169	1.4545	0.1	593.44
22502	21.26	1.1818	0.1	573.95
22503	21.169	1.2727	0.1	593.61
22504	21.26	1.	0.1	574.25
22505	21.169	1.0909	0.1	593.9
22506	21.26	0.81818	0.1	574.72
22507	21.169	0.90909	0.1	594.33
22508	21.26	0.63636	0.1	575.43
22509	21.169	0.72727	0.1	594.98
22510	21.26	0.45455	0.1	576.5
22511	21.169	0.54545	0.1	595.88
22512	21.26	0.27273	0.1	578.9
22513	21.169	0.36364	0.1	597.23
22514	21.169	0.18182	0.1	600.89
22515	21.26	9.0909e-002	0.1	575.12
22516	21.077	5.7273	0.1	619.03
22517	20.986	5.8182	0.1	641.08
22518	21.077	5.9091	0.1	615.44
22519	21.077	5.5455	0.1	616.55
22520	20.986	5.6364	0.1	637.39
22521	21.077	5.3636	0.1	615.38
22522	20.986	5.4545	0.1	635.95
22523	21.077	5.1818	0.1	614.54
22524	20.986	5.2727	0.1	634.93
22525	21.077	5.	0.1	613.94
22526	20.986	5.0909	0.1	634.17
22527	21.077	4.8182	0.1	613.52
22528	20.986	4.9091	0.1	633.61
22529	21.077	4.6364	0.1	613.24
22530	20.986	4.7273	0.1	633.21
22531	21.077	4.4545	0.1	613.05
22532	20.986	4.5455	0.1	632.93
22533	21.077	4.2727	0.1	612.94
22534	20.986	4.3636	0.1	632.74
22535	21.077	4.0909	0.1	612.87
22536	20.986	4.1818	0.1	632.61
22537	21.077	3.9091	0.1	612.84
22538	20.986	4.	0.1	632.53
22539	21.077	3.7273	0.1	612.82
22540	20.986	3.8182	0.1	632.47
22541	21.077	3.5455	0.1	612.82
22542	20.986	3.6364	0.1	632.44
22543	21.077	3.3636	0.1	612.82
22544	20.986	3.4545	0.1	632.42
22545	21.077	3.1818	0.1	612.82
22546	20.986	3.2727	0.1	632.41
22547	21.077	3.	0.1	612.82
22548	20.986	3.0909	0.1	632.4
22549	21.077	2.8182	0.1	612.82
22550	20.986	2.9091	0.1	632.4
22551	21.077	2.6364	0.1	612.82
22552	20.986	2.7273	0.1	632.41
22553	21.077	2.4545	0.1	612.82
22554	20.986	2.5455	0.1	632.42
22555	21.077	2.2727	0.1	612.82
22556	20.986	2.3636	0.1	632.44
22557	21.077	2.0909	0.1	612.84
22558	20.986	2.1818	0.1	632.47
22559	21.077	1.9091	0.1	612.87
22560	20.986	2.	0.1	632.53
22561	21.077	1.7273	0.1	612.94
22562	20.986	1.8182	0.1	632.61
22563	21.077	1.5455	0.1	613.05
22564	20.986	1.6364	0.1	632.74
22565	21.077	1.3636	0.1	613.24
22566	20.986	1.4545	0.1	632.93
22567	21.077	1.1818	0.1	613.52
22568	20.986	1.2727	0.1	633.21
22569	21.077	1.	0.1	613.94
22570	20.986	1.0909	0.1	633.61
22571	21.077	0.81818	0.1	614.54
22572	20.986	0.90909	0.1	634.17
22573	21.077	0.63636	0.1	615.38
22574	20.986	0.72727	0.1	634.93
22575	21.077	0.45455	0.1	616.55
22576	20.986	0.54545	0.1	635.95
22577	21.077	0.27273	0.1	619.03
22578	20.986	0.36364	0.1	637.39
22579	20.986	0.18182	0.1	641.08
22580	21.077	9.0909e-002	0.1	615.44
22581	20.895	5.7273	0.1	659.27
22582	20.803	5.8182	0.1	681.38
22583	20.895	5.9091	0.1	655.88
22584	20.895	5.5455	0.1	656.73
22585	20.803	5.6364	0.1	677.67
22586	20.895	5.3636	0.1	655.46
22587	20.803	5.4545	0.1	676.15
22588	20.895	5.1818	0.1	654.51
22589	20.803	5.2727	0.1	675.03
22590	20.895	5.	0.1	653.8
22591	20.803	5.0909	0.1	674.16
22592	20.895	4.8182	0.1	653.27
22593	20.803	4.9091	0.1	673.49
22594	20.895	4.6364	0.1	652.88
22595	20.803	4.7273	0.1	672.99
22596	20.895	4.4545	0.1	652.59
22597	20.803	4.5455	0.1	672.61
22598	20.895	4.2727	0.1	652.39
22599	20.803	4.3636	0.1	672.33
22600	20.895	4.0909	0.1	652.25
22601	20.803	4.1818	0.1	672.12
22602	20.895	3.9091	0.1	652.14
22603	20.803	4.	0.1	671.97
22604	20.895	3.7273	0.1	652.07
22605	20.803	3.8182	0.1	671.86
22606	20.895	3.5455	0.1	652.03
22607	20.803	3.6364	0.1	671.77
22608	20.895	3.3636	0.1	651.99
22609	20.803	3.4545	0.1	671.72
22610	20.895	3.1818	0.1	651.98
22611	20.803	3.2727	0.1	671.68
22612	20.895	3.	0.1	651.97
22613	20.803	3.0909	0.1	671.67
22614	20.895	2.8182	0.1	651.98
22615	20.803	2.9091	0.1	671.67
22616	20.895	2.6364	0.1	651.99
22617	20.803	2.7273	0.1	671.68
22618	20.895	2.4545	0.1	652.03
22619	20.803	2.5455	0.1	671.72
22620	20.895	2.2727	0.1	652.07
22621	20.803	2.3636	0.1	671.77
22622	20.895	2.0909	0.1	652.14
22623	20.803	2.1818	0.1	671.86
22624	20.895	1.9091	0.1	652.25
22625	20.803	2.	0.1	671.97
22626	20.895	1.7273	0.1	652.39
22627	20.803	1.8182	0.1	672.12
22628	20.895	1.5455	0.1	652.59
22629	20.803	1.6364	0.1	672.33
22630	20.895	1.3636	0.1	652.88
22631	20.803	1.4545	0.1	672.61
22632	20.895	1.1818	0.1	653.27
22633	20.803	1.2727	0.1	672.99
22634	20.895	1.	0.1	653.8
22635	20.803	1.0909	0.1	673.49
22636	20.895	0.81818	0.1	654.51
22637	20.803	0.90909	0.1	674.16
22638	20.895	0.63636	0.1	655.46
22639	20.803	0.72727	0.1	675.03
22640	20.895	0.45455	0.1	656.73
22641	20.803	0.54545	0.1	676.15
22642	20.895	0.27273	0.1	659.27
22643	20.803	0.36364	0.1	677.67
22644	20.803	0.18182	0.1	681.38
22645	20.895	9.0909e-002	0.1	655.88
22646	20.712	5.7273	0.1	699.61
22647	20.621	5.8182	0.1	721.77
22648	20.712	5.9091	0.1	696.44
22649	20.712	5.5455	0.1	697.03
22650	20.621	5.6364	0.1	718.06
22651	20.712	5.3636	0.1	695.67
22652	20.621	5.4545	0.1	716.46
22653	20.712	5.1818	0.1	694.63
22654	20.621	5.2727	0.1	715.25
22655	20.712	5.	0.1	693.81
22656	20.621	5.0909	0.1	714.29
22657	20.712	4.8182	0.1	693.18
22658	20.621	4.9091	0.1	713.54
22659	20.712	4.6364	0.1	692.7
22660	20.621	4.7273	0.1	712.94
22661	20.712	4.4545	0.1	692.32
22662	20.621	4.5455	0.1	712.48
22663	20.712	4.2727	0.1	692.04
22664	20.621	4.3636	0.1	712.12
22665	20.712	4.0909	0.1	691.82
22666	20.621	4.1818	0.1	711.84
22667	20.712	3.9091	0.1	691.66
22668	20.621	4.	0.1	711.62
22669	20.712	3.7273	0.1	691.54
22670	20.621	3.8182	0.1	711.46
22671	20.712	3.5455	0.1	691.45
22672	20.621	3.6364	0.1	711.34
22673	20.712	3.3636	0.1	691.39
22674	20.621	3.4545	0.1	711.25
22675	20.712	3.1818	0.1	691.36
22676	20.621	3.2727	0.1	711.19
22677	20.712	3.	0.1	691.35
22678	20.621	3.0909	0.1	711.17
22679	20.712	2.8182	0.1	691.36
22680	20.621	2.9091	0.1	711.17
22681	20.712	2.6364	0.1	691.39
22682	20.621	2.7273	0.1	711.19
22683	20.712	2.4545	0.1	691.45
22684	20.621	2.5455	0.1	711.25
22685	20.712	2.2727	0.1	691.54
22686	20.621	2.3636	0.1	711.34
22687	20.712	2.0909	0.1	691.66
22688	20.621	2.1818	0.1	711.46
22689	20.712	1.9091	0.1	691.82
22690	20.621	2.	0.1	711.62
22691	20.712	1.7273	0.1	692.04
22692	20.621	1.8182	0.1	711.84
22693	20.712	1.5455	0.1	692.32
22694	20.621	1.6364	0.1	712.12
22695	20.712	1.3636	0.1	692.7
22696	20.621	1.4545	0.1	712.48
22697	20.712	1.1818	0.1	693.18
22698	20.621	1.2727	0.1	712.94
22699	20.712	1.	0.1	693.81
22700	20.621	1.0909	0.1	713.54
22701	20.712	0.81818	0.1	694.63
22702	20.621	0.90909	0.1	714.29
22703	20.712	0.63636	0.1	695.67
22704	20.621	0.72727	0.1	715.25
22705	20.712	0.45455	0.1	697.03
22706	20.621	0.54545	0.1	716.46
22707	20.712	0.27273	0.1	699.61
22708	20.621	0.36364	0.1	718.06
22709	20.621	0.18182	0.1	721.77
22710	20.712	9.0909e-002	0.1	696.44
22711	20.529	5.7273	0.1	740.05
22712	20.438	5.8182	0.1	762.24
22713	20.529	5.9091	0.1	737.09
22714	20.529	5.5455	0.1	737.44
22715	20.438	5.6364	0.1	758.54
22716	20.529	5.3636	0.1	736.
22717	20.438	5.4545	0.1	756.88
22718	20.529	5.1818	0.1	734.88
22719	20.438	5.2727	0.1	755.6
22720	20.529	5.	0.1	733.98
22721	20.438	5.0909	0.1	754.56
22722	20.529	4.8182	0.1	733.26
22723	20.438	4.9091	0.1	753.73
22724	20.529	4.6364	0.1	732.69
22725	20.438	4.7273	0.1	753.06
22726	20.529	4.4545	0.1	732.25
22727	20.438	4.5455	0.1	752.53
22728	20.529	4.2727	0.1	731.89
22729	20.438	4.3636	0.1	752.11
22730	20.529	4.0909	0.1	731.62
22731	20.438	4.1818	0.1	751.77
22732	20.529	3.9091	0.1	731.4
22733	20.438	4.	0.1	751.5
22734	20.529	3.7273	0.1	731.24
22735	20.438	3.8182	0.1	751.3
22736	20.529	3.5455	0.1	731.12
22737	20.438	3.6364	0.1	751.14
22738	20.529	3.3636	0.1	731.03
22739	20.438	3.4545	0.1	751.03
22740	20.529	3.1818	0.1	730.99
22741	20.438	3.2727	0.1	750.96
22742	20.529	3.	0.1	730.97
22743	20.438	3.0909	0.1	750.92
22744	20.529	2.8182	0.1	730.99
22745	20.438	2.9091	0.1	750.92
22746	20.529	2.6364	0.1	731.03
22747	20.438	2.7273	0.1	750.96
22748	20.529	2.4545	0.1	731.12
22749	20.438	2.5455	0.1	751.03
22750	20.529	2.2727	0.1	731.24
22751	20.438	2.3636	0.1	751.14
22752	20.529	2.0909	0.1	731.4
22753	20.438	2.1818	0.1	751.3
22754	20.529	1.9091	0.1	731.62
22755	20.438	2.	0.1	751.5
22756	20.529	1.7273	0.1	731.89
22757	20.438	1.8182	0.1	751.77
22758	20.529	1.5455	0.1	732.25
22759	20.438	1.6364	0.1	752.11
22760	20.529	1.3636	0.1	732.69
22761	20.438	1.4545	0.1	752.53
22762	20.529	1.1818	0.1	733.26
22763	20.438	1.2727	0.1	753.06
22764	20.529	1.	0.1	733.98
22765	20.438	1.0909	0.1	753.73
22766	20.529	0.81818	0.1	734.88
22767	20.438	0.90909	0.1	754.56
22768	20.529	0.63636	0.1	736.
22769	20.438	0.72727	0.1	755.6
22770	20.529	0.45455	0.1	737.44
22771	20.438	0.54545	0.1	756.88
22772	20.529	0.27273	0.1	740.05
22773	20.438	0.36364	0.1	758.54
22774	20.438	0.18182	0.1	762.24
22775	20.529	9.0909e-002	0.1	737.09
22776	20.347	5.7273	0.1	780.57
22777	20.255	5.8182	0.1	802.78
22778	20.347	5.9091	0.1	777.83
22779	20.347	5.5455	0.1	777.93
22780	20.255	5.6364	0.1	799.1
22781	20.347	5.3636	0.1	776.44
22782	20.255	5.4545	0.1	797.39
22783	20.347	5.1818	0.1	775.25
22784	20.255	5.2727	0.1	796.05
22785	20.347	5.	0.1	774.28
22786	20.255	5.0909	0.1	794.96
22787	20.347	4.8182	0.1	773.5
22788	20.255	4.9091	0.1	794.08
22789	20.347	4.6364	0.1	772.87
22790	20.255	4.7273	0.1	793.36
22791	20.347	4.4545	0.1	772.37
22792	20.255	4.5455	0.1	792.77
22793	20.347	4.2727	0.1	771.96
22794	20.255	4.3636	0.1	792.3
22795	20.347	4.0909	0.1	771.64
22796	20.255	4.1818	0.1	791.93
22797	20.347	3.9091	0.1	771.38
22798	20.255	4.	0.1	791.63
22799	20.347	3.7273	0.1	771.19
22800	20.255	3.8182	0.1	791.39
22801	20.347	3.5455	0.1	771.04
22802	20.255	3.6364	0.1	791.21
22803	20.347	3.3636	0.1	770.94
22804	20.255	3.4545	0.1	791.08
22805	20.347	3.1818	0.1	770.88
22806	20.255	3.2727	0.1	791.
22807	20.347	3.	0.1	770.86
22808	20.255	3.0909	0.1	790.96
22809	20.347	2.8182	0.1	770.88
22810	20.255	2.9091	0.1	790.96
22811	20.347	2.6364	0.1	770.94
22812	20.255	2.7273	0.1	791.
22813	20.347	2.4545	0.1	771.04
22814	20.255	2.5455	0.1	791.08
22815	20.347	2.2727	0.1	771.19
22816	20.255	2.3636	0.1	791.21
22817	20.347	2.0909	0.1	771.38
22818	20.255	2.1818	0.1	791.39
22819	20.347	1.9091	0.1	771.64
22820	20.255	2.	0.1	791.63
22821	20.347	1.7273	0.1	771.96
22822	20.255	1.8182	0.1	791.93
22823	20.347	1.5455	0.1	772.37
22824	20.255	1.6364	0.1	792.3
22825	20.347	1.3636	0.1	772.87
22826	20.255	1.4545	0.1	792.77
22827	20.347	1.1818	0.1	773.5
22828	20.255	1.2727	0.1	793.36
22829	20.347	1.	0.1	774.28
22830	20.255	1.0909	0.1	794.08
22831	20.347	0.81818	0.1	775.25
22832	20.255	0.90909	0.1	794.96
22833	20.347	0.63636	0.1	776.44
22834	20.255	0.72727	0.1	796.05
22835	20.347	0.45455	0.1	777.93
22836	20.255	0.54545	0.1	797.39
22837	20.347	0.27273	0.1	780.57
22838	20.255	0.36364	0.1	799.1
22839	20.255	0.18182	0.1	802.78
22840	20.347	9.0909e-002	0.1	777.83
22841	20.164	5.7273	0.1	821.15
22842	20.073	5.8182	0.1	843.34
22843	20.164	5.9091	0.1	818.62
22844	20.164	5.5455	0.1	818.5
22845	20.073	5.6364	0.1	839.7
22846	20.164	5.3636	0.1	816.96
22847	20.073	5.4545	0.1	837.96
22848	20.164	5.1818	0.1	815.73
22849	20.073	5.2727	0.1	836.6
22850	20.164	5.	0.1	814.72
22851	20.073	5.0909	0.1	835.48
22852	20.164	4.8182	0.1	813.9
22853	20.073	4.9091	0.1	834.56
22854	20.164	4.6364	0.1	813.23
22855	20.073	4.7273	0.1	833.81
22856	20.164	4.4545	0.1	812.69
22857	20.073	4.5455	0.1	833.21
22858	20.164	4.2727	0.1	812.25
22859	20.073	4.3636	0.1	832.72
22860	20.164	4.0909	0.1	811.9
22861	20.073	4.1818	0.1	832.33
22862	20.164	3.9091	0.1	811.62
22863	20.073	4.	0.1	832.01
22864	20.164	3.7273	0.1	811.41
22865	20.073	3.8182	0.1	831.77
22866	20.164	3.5455	0.1	811.24
22867	20.073	3.6364	0.1	831.58
22868	20.164	3.3636	0.1	811.13
22869	20.073	3.4545	0.1	831.44
22870	20.164	3.1818	0.1	811.06
22871	20.073	3.2727	0.1	831.35
22872	20.164	3.	0.1	811.04
22873	20.073	3.0909	0.1	831.31
22874	20.164	2.8182	0.1	811.06
22875	20.073	2.9091	0.1	831.31
22876	20.164	2.6364	0.1	811.13
22877	20.073	2.7273	0.1	831.35
22878	20.164	2.4545	0.1	811.24
22879	20.073	2.5455	0.1	831.44
22880	20.164	2.2727	0.1	811.41
22881	20.073	2.3636	0.1	831.58
22882	20.164	2.0909	0.1	811.62
22883	20.073	2.1818	0.1	831.77
22884	20.164	1.9091	0.1	811.9
22885	20.073	2.	0.1	832.01
22886	20.164	1.7273	0.1	812.25
22887	20.073	1.8182	0.1	832.33
22888	20.164	1.5455	0.1	812.69
22889	20.073	1.6364	0.1	832.72
22890	20.164	1.3636	0.1	813.23
22891	20.073	1.4545	0.1	833.21
22892	20.164	1.1818	0.1	813.9
22893	20.073	1.2727	0.1	833.81
22894	20.164	1.	0.1	814.72
22895	20.073	1.0909	0.1	834.56
22896	20.164	0.81818	0.1	815.73
22897	20.073	0.90909	0.1	835.48
22898	20.164	0.63636	0.1	816.96
22899	20.073	0.72727	0.1	836.6
22900	20.164	0.45455	0.1	818.5
22901	20.073	0.54545	0.1	837.96
22902	20.164	0.27273	0.1	821.15
22903	20.073	0.36364	0.1	839.7
22904	20.073	0.18182	0.1	843.34
22905	20.164	9.0909e-002	0.1	818.62
22906	19.981	5.7273	0.1	861.75
22907	19.89	5.8182	0.1	883.9
22908	19.981	5.9091	0.1	859.42
22909	19.981	5.5455	0.1	859.11
22910	19.89	5.6364	0.1	880.31
22911	19.981	5.3636	0.1	857.56
22912	19.89	5.4545	0.1	878.57
22913	19.981	5.1818	0.1	856.31
22914	19.89	5.2727	0.1	877.2
22915	19.981	5.	0.1	855.28
22916	19.89	5.0909	0.1	876.08
22917	19.981	4.8182	0.1	854.45
22918	19.89	4.9091	0.1	875.17
22919	19.981	4.6364	0.1	853.77
22920	19.89	4.7273	0.1	874.43
22921	19.981	4.4545	0.1	853.22
22922	19.89	4.5455	0.1	873.84
22923	19.981	4.2727	0.1	852.78
22924	19.89	4.3636	0.1	873.36
22925	19.981	4.0909	0.1	852.42
22926	19.89	4.1818	0.1	872.98
22927	19.981	3.9091	0.1	852.14
22928	19.89	4.	0.1	872.68
22929	19.981	3.7273	0.1	851.93
22930	19.89	3.8182	0.1	872.45
22931	19.981	3.5455	0.1	851.76
22932	19.89	3.6364	0.1	872.27
22933	19.981	3.3636	0.1	851.65
22934	19.89	3.4545	0.1	872.14
22935	19.981	3.1818	0.1	851.59
22936	19.89	3.2727	0.1	872.06
22937	19.981	3.	0.1	851.56
22938	19.89	3.0909	0.1	872.02
22939	19.981	2.8182	0.1	851.59
22940	19.89	2.9091	0.1	872.02
22941	19.981	2.6364	0.1	851.65
22942	19.89	2.7273	0.1	872.06
22943	19.981	2.4545	0.1	851.76
22944	19.89	2.5455	0.1	872.14
22945	19.981	2.2727	0.1	851.93
22946	19.89	2.3636	0.1	872.27
22947	19.981	2.0909	0.1	852.14
22948	19.89	2.1818	0.1	872.45
22949	19.981	1.9091	0.1	852.42
22950	19.89	2.	0.1	872.68
22951	19.981	1.7273	0.1	852.78
22952	19.89	1.8182	0.1	872.98
22953	19.981	1.5455	0.1	853.22
22954	19.89	1.6364	0.1	873.36
22955	19.981	1.3636	0.1	853.77
22956	19.89	1.4545	0.1	873.84
22957	19.981	1.1818	0.1	854.45
22958	19.89	1.2727	0.1	874.43
22959	19.981	1.	0.1	855.28
22960	19.89	1.0909	0.1	875.17
22961	19.981	0.81818	0.1	856.31
22962	19.89	0.90909	0.1	876.08
22963	19.981	0.63636	0.1	857.56
22964	19.89	0.72727	0.1	877.2
22965	19.981	0.45455	0.1	859.11
22966	19.89	0.54545	0.1	878.57
22967	19.981	0.27273	0.1	861.75
22968	19.89	0.36364	0.1	880.31
22969	19.89	0.18182	0.1	883.9
22970	19.981	9.0909e-002	0.1	859.42
22971	19.799	5.7273	0.1	902.33
22972	19.707	5.8182	0.1	924.4
22973	19.799	5.9091	0.1	900.18
22974	19.799	5.5455	0.1	899.73
22975	19.707	5.6364	0.1	920.89
22976	19.799	5.3636	0.1	898.18
22977	19.707	5.4545	0.1	919.17
22978	19.799	5.1818	0.1	896.94
22979	19.707	5.2727	0.1	917.84
22980	19.799	5.	0.1	895.94
22981	19.707	5.0909	0.1	916.76
22982	19.799	4.8182	0.1	895.13
22983	19.707	4.9091	0.1	915.89
22984	19.799	4.6364	0.1	894.48
22985	19.707	4.7273	0.1	915.2
22986	19.799	4.4545	0.1	893.96
22987	19.707	4.5455	0.1	914.66
22988	19.799	4.2727	0.1	893.55
22989	19.707	4.3636	0.1	914.24
22990	19.799	4.0909	0.1	893.23
22991	19.707	4.1818	0.1	913.91
22992	19.799	3.9091	0.1	892.97
22993	19.707	4.	0.1	913.66
22994	19.799	3.7273	0.1	892.78
22995	19.707	3.8182	0.1	913.48
22996	19.799	3.5455	0.1	892.64
22997	19.707	3.6364	0.1	913.34
22998	19.799	3.3636	0.1	892.54
22999	19.707	3.4545	0.1	913.24
23000	19.799	3.1818	0.1	892.49
23001	19.707	3.2727	0.1	913.18
23002	19.799	3.	0.1	892.47
23003	19.707	3.0909	0.1	913.15
23004	19.799	2.8182	0.1	892.49
23005	19.707	2.9091	0.1	913.15
23006	19.799	2.6364	0.1	892.54
23007	19.707	2.7273	0.1	913.18
23008	19.799	2.4545	0.1	892.64
23009	19.707	2.5455	0.1	913.24
23010	19.799	2.2727	0.1	892.78
23011	19.707	2.3636	0.1	913.34
23012	19.799	2.0909	0.1	892.97
23013	19.707	2.1818	0.1	913.48
23014	19.799	1.9091	0.1	893.23
23015	19.707	2.	0.1	913.66
23016	19.799	1.7273	0.1	893.55
23017	19.707	1.8182	0.1	913.91
23018	19.799	1.5455	0.1	893.96
23019	19.707	1.6364	0.1	914.24
23020	19.799	1.3636	0.1	894.48
23021	19.707	1.4545	0.1	914.66
23022	19.799	1.1818	0.1	895.13
23023	19.707	1.2727	0.1	915.2
23024	19.799	1.	0.1	895.94
23025	19.707	1.0909	0.1	915.89
23026	19.799	0.81818	0.1	896.94
23027	19.707	0.90909	0.1	916.76
23028	19.799	0.63636	0.1	898.18
23029	19.707	0.72727	0.1	917.84
23030	19.799	0.45455	0.1	899.73
23031	19.707	0.54545	0.1	919.17
23032	19.799	0.27273	0.1	902.33
23033	19.707	0.36364	0.1	920.89
23034	19.707	0.18182	0.1	924.4
23035	19.799	9.0909e-002	0.1	900.18
23036	19.616	5.7273	0.1	942.83
23037	19.525	5.8182	0.1	964.77
23038	19.616	5.9091	0.1	940.85
23039	19.616	5.5455	0.1	940.3
23040	19.525	5.6364	0.1	961.37
23041	19.616	5.3636	0.1	938.79
23042	19.525	5.4545	0.1	959.72
23043	19.616	5.1818	0.1	937.61
23044	19.525	5.2727	0.1	958.45
23045	19.616	5.	0.1	936.68
23046	19.525	5.0909	0.1	957.46
23047	19.616	4.8182	0.1	935.94
23048	19.525	4.9091	0.1	956.7
23049	19.616	4.6364	0.1	935.36
23050	19.525	4.7273	0.1	956.11
23051	19.616	4.4545	0.1	934.92
23052	19.525	4.5455	0.1	955.68
23053	19.616	4.2727	0.1	934.59
23054	19.525	4.3636	0.1	955.37
23055	19.616	4.0909	0.1	934.34
23056	19.525	4.1818	0.1	955.15
23057	19.616	3.9091	0.1	934.15
23058	19.525	4.	0.1	955.
23059	19.616	3.7273	0.1	934.02
23060	19.525	3.8182	0.1	954.9
23061	19.616	3.5455	0.1	933.93
23062	19.525	3.6364	0.1	954.83
23063	19.616	3.3636	0.1	933.86
23064	19.525	3.4545	0.1	954.79
23065	19.616	3.1818	0.1	933.83
23066	19.525	3.2727	0.1	954.77
23067	19.616	3.	0.1	933.82
23068	19.525	3.0909	0.1	954.76
23069	19.616	2.8182	0.1	933.83
23070	19.525	2.9091	0.1	954.76
23071	19.616	2.6364	0.1	933.86
23072	19.525	2.7273	0.1	954.77
23073	19.616	2.4545	0.1	933.93
23074	19.525	2.5455	0.1	954.79
23075	19.616	2.2727	0.1	934.02
23076	19.525	2.3636	0.1	954.83
23077	19.616	2.0909	0.1	934.15
23078	19.525	2.1818	0.1	954.9
23079	19.616	1.9091	0.1	934.34
23080	19.525	2.	0.1	955.
23081	19.616	1.7273	0.1	934.59
23082	19.525	1.8182	0.1	955.15
23083	19.616	1.5455	0.1	934.92
23084	19.525	1.6364	0.1	955.37
23085	19.616	1.3636	0.1	935.36
23086	19.525	1.4545	0.1	955.68
23087	19.616	1.1818	0.1	935.94
23088	19.525	1.2727	0.1	956.11
23089	19.616	1.	0.1	936.68
23090	19.525	1.0909	0.1	956.7
23091	19.616	0.81818	0.1	937.61
23092	19.525	0.90909	0.1	957.46
23093	19.616	0.63636	0.1	938.79
23094	19.525	0.72727	0.1	958.45
23095	19.616	0.45455	0.1	940.3
23096	19.525	0.54545	0.1	959.72
23097	19.616	0.27273	0.1	942.83
23098	19.525	0.36364	0.1	961.37
23099	19.525	0.18182	0.1	964.77
23100	19.616	9.0909e-002	0.1	940.85
23101	19.433	5.7273	0.1	983.19
23102	19.342	5.8182	0.1	1004.9
23103	19.433	5.9091	0.1	981.35
23104	19.433	5.5455	0.1	980.75
23105	19.342	5.6364	0.1	1001.7
23106	19.433	5.3636	0.1	979.34
23107	19.342	5.4545	0.1	1000.1
23108	19.433	5.1818	0.1	978.27
23109	19.342	5.2727	0.1	999.
23110	19.433	5.	0.1	977.45
23111	19.342	5.0909	0.1	998.16
23112	19.433	4.8182	0.1	976.85
23113	19.342	4.9091	0.1	997.56
23114	19.433	4.6364	0.1	976.41
23115	19.342	4.7273	0.1	997.15
23116	19.433	4.4545	0.1	976.11
23117	19.342	4.5455	0.1	996.91
23118	19.433	4.2727	0.1	975.92
23119	19.342	4.3636	0.1	996.77
23120	19.433	4.0909	0.1	975.8
23121	19.342	4.1818	0.1	996.73
23122	19.433	3.9091	0.1	975.73
23123	19.342	4.	0.1	996.74
23124	19.433	3.7273	0.1	975.7
23125	19.342	3.8182	0.1	996.78
23126	19.433	3.5455	0.1	975.69
23127	19.342	3.6364	0.1	996.83
23128	19.433	3.3636	0.1	975.69
23129	19.342	3.4545	0.1	996.89
23130	19.433	3.1818	0.1	975.69
23131	19.342	3.2727	0.1	996.93
23132	19.433	3.	0.1	975.69
23133	19.342	3.0909	0.1	996.95
23134	19.433	2.8182	0.1	975.69
23135	19.342	2.9091	0.1	996.95
23136	19.433	2.6364	0.1	975.69
23137	19.342	2.7273	0.1	996.93
23138	19.433	2.4545	0.1	975.69
23139	19.342	2.5455	0.1	996.89
23140	19.433	2.2727	0.1	975.7
23141	19.342	2.3636	0.1	996.83
23142	19.433	2.0909	0.1	975.73
23143	19.342	2.1818	0.1	996.78
23144	19.433	1.9091	0.1	975.8
23145	19.342	2.	0.1	996.74
23146	19.433	1.7273	0.1	975.92
23147	19.342	1.8182	0.1	996.73
23148	19.433	1.5455	0.1	976.11
23149	19.342	1.6364	0.1	996.77
23150	19.433	1.3636	0.1	976.41
23151	19.342	1.4545	0.1	996.91
23152	19.433	1.1818	0.1	976.85
23153	19.342	1.2727	0.1	997.15
23154	19.433	1.	0.1	977.45
23155	19.342	1.0909	0.1	997.56
23156	19.433	0.81818	0.1	978.27
23157	19.342	0.90909	0.1	998.16
23158	19.433	0.63636	0.1	979.34
23159	19.342	0.72727	0.1	999.
23160	19.433	0.45455	0.1	980.75
23161	19.342	0.54545	0.1	1000.1
23162	19.433	0.27273	0.1	983.19
23163	19.342	0.36364	0.1	1001.7
23164	19.342	0.18182	0.1	1004.9
23165	19.433	9.0909e-002	0.1	981.34
23166	19.251	5.7273	0.1	1023.3
23167	19.159	5.8182	0.1	1044.8
23168	19.251	5.9091	0.1	1021.6
23169	19.251	5.5455	0.1	1021.
23170	19.159	5.6364	0.1	1041.7
23171	19.251	5.3636	0.1	1019.7
23172	19.159	5.4545	0.1	1040.3
23173	19.251	5.1818	0.1	1018.9
23174	19.159	5.2727	0.1	1039.4
23175	19.251	5.	0.1	1018.2
23176	19.159	5.0909	0.1	1038.8
23177	19.251	4.8182	0.1	1017.8
23178	19.159	4.9091	0.1	1038.4
23179	19.251	4.6364	0.1	1017.6
23180	19.159	4.7273	0.1	1038.3
23181	19.251	4.4545	0.1	1017.5
23182	19.159	4.5455	0.1	1038.3
23183	19.251	4.2727	0.1	1017.6
23184	19.159	4.3636	0.1	1038.5
23185	19.251	4.0909	0.1	1017.7
23186	19.159	4.1818	0.1	1038.7
23187	19.251	3.9091	0.1	1017.8
23188	19.159	4.	0.1	1038.9
23189	19.251	3.7273	0.1	1017.9
23190	19.159	3.8182	0.1	1039.2
23191	19.251	3.5455	0.1	1018.
23192	19.159	3.6364	0.1	1039.4
23193	19.251	3.3636	0.1	1018.1
23194	19.159	3.4545	0.1	1039.6
23195	19.251	3.1818	0.1	1018.2
23196	19.159	3.2727	0.1	1039.8
23197	19.251	3.	0.1	1018.2
23198	19.159	3.0909	0.1	1039.8
23199	19.251	2.8182	0.1	1018.2
23200	19.159	2.9091	0.1	1039.8
23201	19.251	2.6364	0.1	1018.1
23202	19.159	2.7273	0.1	1039.8
23203	19.251	2.4545	0.1	1018.
23204	19.159	2.5455	0.1	1039.6
23205	19.251	2.2727	0.1	1017.9
23206	19.159	2.3636	0.1	1039.4
23207	19.251	2.0909	0.1	1017.8
23208	19.159	2.1818	0.1	1039.2
23209	19.251	1.9091	0.1	1017.7
23210	19.159	2.	0.1	1038.9
23211	19.251	1.7273	0.1	1017.6
23212	19.159	1.8182	0.1	1038.7
23213	19.251	1.5455	0.1	1017.5
23214	19.159	1.6364	0.1	1038.5
23215	19.251	1.3636	0.1	1017.6
23216	19.159	1.4545	0.1	1038.3
23217	19.251	1.1818	0.1	1017.8
23218	19.159	1.2727	0.1	1038.3
23219	19.251	1.	0.1	1018.2
23220	19.159	1.0909	0.1	1038.4
23221	19.251	0.81818	0.1	1018.9
23222	19.159	0.90909	0.1	1038.8
23223	19.251	0.63636	0.1	1019.7
23224	19.159	0.72727	0.1	1039.4
23225	19.251	0.45455	0.1	1021.
23226	19.159	0.54545	0.1	1040.3
23227	19.251	0.27273	0.1	1023.3
23228	19.159	0.36364	0.1	1041.7
23229	19.159	0.18182	0.1	1044.8
23230	19.251	9.0909e-002	0.1	1021.6
23231	19.068	5.7273	0.1	1063.
23232	18.977	5.8182	0.1	1084.1
23233	19.068	5.9091	0.1	1061.3
23234	19.068	5.5455	0.1	1061.
23235	18.977	5.6364	0.1	1081.3
23236	19.068	5.3636	0.1	1059.9
23237	18.977	5.4545	0.1	1080.2
23238	19.068	5.1818	0.1	1059.3
23239	18.977	5.2727	0.1	1079.5
23240	19.068	5.	0.1	1058.9
23241	18.977	5.0909	0.1	1079.2
23242	19.068	4.8182	0.1	1058.9
23243	18.977	4.9091	0.1	1079.3
23244	19.068	4.6364	0.1	1059.
23245	18.977	4.7273	0.1	1079.5
23246	19.068	4.4545	0.1	1059.2
23247	18.977	4.5455	0.1	1079.9
23248	19.068	4.2727	0.1	1059.6
23249	18.977	4.3636	0.1	1080.5
23250	19.068	4.0909	0.1	1060.
23251	18.977	4.1818	0.1	1081.1
23252	19.068	3.9091	0.1	1060.3
23253	18.977	4.	0.1	1081.7
23254	19.068	3.7273	0.1	1060.7
23255	18.977	3.8182	0.1	1082.2
23256	19.068	3.5455	0.1	1061.
23257	18.977	3.6364	0.1	1082.7
23258	19.068	3.3636	0.1	1061.3
23259	18.977	3.4545	0.1	1083.2
23260	19.068	3.1818	0.1	1061.4
23261	18.977	3.2727	0.1	1083.4
23262	19.068	3.	0.1	1061.5
23263	18.977	3.0909	0.1	1083.6
23264	19.068	2.8182	0.1	1061.4
23265	18.977	2.9091	0.1	1083.6
23266	19.068	2.6364	0.1	1061.3
23267	18.977	2.7273	0.1	1083.4
23268	19.068	2.4545	0.1	1061.
23269	18.977	2.5455	0.1	1083.2
23270	19.068	2.2727	0.1	1060.7
23271	18.977	2.3636	0.1	1082.7
23272	19.068	2.0909	0.1	1060.3
23273	18.977	2.1818	0.1	1082.2
23274	19.068	1.9091	0.1	1060.
23275	18.977	2.	0.1	1081.7
23276	19.068	1.7273	0.1	1059.6
23277	18.977	1.8182	0.1	1081.1
23278	19.068	1.5455	0.1	1059.2
23279	18.977	1.6364	0.1	1080.5
23280	19.068	1.3636	0.1	1059.
23281	18.977	1.4545	0.1	1079.9
23282	19.068	1.1818	0.1	1058.9
23283	18.977	1.2727	0.1	1079.5
23284	19.068	1.	0.1	1058.9
23285	18.977	1.0909	0.1	1079.3
23286	19.068	0.81818	0.1	1059.3
23287	18.977	0.90909	0.1	1079.2
23288	19.068	0.63636	0.1	1059.9
23289	18.977	0.72727	0.1	1079.5
23290	19.068	0.45455	0.1	1061.
23291	18.977	0.54545	0.1	1080.2
23292	19.068	0.27273	0.1	1063.
23293	18.977	0.36364	0.1	1081.3
23294	18.977	0.18182	0.1	1084.1
23295	19.068	9.0909e-002	0.1	1061.3
23296	18.885	5.7273	0.1	1102.3
23297	18.794	5.8182	0.1	1122.8
23298	18.885	5.9091	0.1	1100.5
23299	18.885	5.5455	0.1	1100.5
23300	18.794	5.6364	0.1	1120.3
23301	18.885	5.3636	0.1	1099.7
23302	18.794	5.4545	0.1	1119.5
23303	18.885	5.1818	0.1	1099.5
23304	18.794	5.2727	0.1	1119.3
23305	18.885	5.	0.1	1099.5
23306	18.794	5.0909	0.1	1119.5
23307	18.885	4.8182	0.1	1099.9
23308	18.794	4.9091	0.1	1120.
23309	18.885	4.6364	0.1	1100.5
23310	18.794	4.7273	0.1	1120.8
23311	18.885	4.4545	0.1	1101.2
23312	18.794	4.5455	0.1	1121.7
23313	18.885	4.2727	0.1	1102.
23314	18.794	4.3636	0.1	1122.8
23315	18.885	4.0909	0.1	1102.8
23316	18.794	4.1818	0.1	1124.
23317	18.885	3.9091	0.1	1103.6
23318	18.794	4.	0.1	1125.1
23319	18.885	3.7273	0.1	1104.3
23320	18.794	3.8182	0.1	1126.1
23321	18.885	3.5455	0.1	1104.9
23322	18.794	3.6364	0.1	1126.9
23323	18.885	3.3636	0.1	1105.3
23324	18.794	3.4545	0.1	1127.6
23325	18.885	3.1818	0.1	1105.6
23326	18.794	3.2727	0.1	1128.1
23327	18.885	3.	0.1	1105.7
23328	18.794	3.0909	0.1	1128.4
23329	18.885	2.8182	0.1	1105.6
23330	18.794	2.9091	0.1	1128.4
23331	18.885	2.6364	0.1	1105.3
23332	18.794	2.7273	0.1	1128.1
23333	18.885	2.4545	0.1	1104.9
23334	18.794	2.5455	0.1	1127.6
23335	18.885	2.2727	0.1	1104.3
23336	18.794	2.3636	0.1	1126.9
23337	18.885	2.0909	0.1	1103.6
23338	18.794	2.1818	0.1	1126.1
23339	18.885	1.9091	0.1	1102.8
23340	18.794	2.	0.1	1125.1
23341	18.885	1.7273	0.1	1102.
23342	18.794	1.8182	0.1	1124.
23343	18.885	1.5455	0.1	1101.2
23344	18.794	1.6364	0.1	1122.8
23345	18.885	1.3636	0.1	1100.5
23346	18.794	1.4545	0.1	1121.7
23347	18.885	1.1818	0.1	1099.9
23348	18.794	1.2727	0.1	1120.8
23349	18.885	1.	0.1	1099.5
23350	18.794	1.0909	0.1	1120.
23351	18.885	0.81818	0.1	1099.5
23352	18.794	0.90909	0.1	1119.5
23353	18.885	0.63636	0.1	1099.7
23354	18.794	0.72727	0.1	1119.3
23355	18.885	0.45455	0.1	1100.5
23356	18.794	0.54545	0.1	1119.5
23357	18.885	0.27273	0.1	1102.3
23358	18.794	0.36364	0.1	1120.3
23359	18.794	0.18182	0.1	1122.8
23360	18.885	9.0909e-002	0.1	1100.5
23361	18.703	5.7273	0.1	1140.7
23362	18.611	5.8182	0.1	1160.6
23363	18.703	5.9091	0.1	1138.9
23364	18.703	5.5455	0.1	1139.3
23365	18.611	5.6364	0.1	1158.5
23366	18.703	5.3636	0.1	1139.
23367	18.611	5.4545	0.1	1158.1
23368	18.703	5.1818	0.1	1139.2
23369	18.611	5.2727	0.1	1158.5
23370	18.703	5.	0.1	1139.9
23371	18.611	5.0909	0.1	1159.3
23372	18.703	4.8182	0.1	1140.8
23373	18.611	4.9091	0.1	1160.5
23374	18.703	4.6364	0.1	1142.
23375	18.611	4.7273	0.1	1162.
23376	18.703	4.4545	0.1	1143.4
23377	18.611	4.5455	0.1	1163.7
23378	18.703	4.2727	0.1	1144.8
23379	18.611	4.3636	0.1	1165.6
23380	18.703	4.0909	0.1	1146.2
23381	18.611	4.1818	0.1	1167.4
23382	18.703	3.9091	0.1	1147.5
23383	18.611	4.	0.1	1169.2
23384	18.703	3.7273	0.1	1148.7
23385	18.611	3.8182	0.1	1170.8
23386	18.703	3.5455	0.1	1149.7
23387	18.611	3.6364	0.1	1172.2
23388	18.703	3.3636	0.1	1150.4
23389	18.611	3.4545	0.1	1173.3
23390	18.703	3.1818	0.1	1150.9
23391	18.611	3.2727	0.1	1174.1
23392	18.703	3.	0.1	1151.
23393	18.611	3.0909	0.1	1174.5
23394	18.703	2.8182	0.1	1150.9
23395	18.611	2.9091	0.1	1174.5
23396	18.703	2.6364	0.1	1150.4
23397	18.611	2.7273	0.1	1174.1
23398	18.703	2.4545	0.1	1149.7
23399	18.611	2.5455	0.1	1173.3
23400	18.703	2.2727	0.1	1148.7
23401	18.611	2.3636	0.1	1172.2
23402	18.703	2.0909	0.1	1147.5
23403	18.611	2.1818	0.1	1170.8
23404	18.703	1.9091	0.1	1146.2
23405	18.611	2.	0.1	1169.2
23406	18.703	1.7273	0.1	1144.8
23407	18.611	1.8182	0.1	1167.4
23408	18.703	1.5455	0.1	1143.4
23409	18.611	1.6364	0.1	1165.6
23410	18.703	1.3636	0.1	1142.
23411	18.611	1.4545	0.1	1163.7
23412	18.703	1.1818	0.1	1140.8
23413	18.611	1.2727	0.1	1162.
23414	18.703	1.	0.1	1139.9
23415	18.611	1.0909	0.1	1160.5
23416	18.703	0.81818	0.1	1139.2
23417	18.611	0.90909	0.1	1159.3
23418	18.703	0.63636	0.1	1139.
23419	18.611	0.72727	0.1	1158.5
23420	18.703	0.45455	0.1	1139.3
23421	18.611	0.54545	0.1	1158.1
23422	18.703	0.27273	0.1	1140.7
23423	18.611	0.36364	0.1	1158.5
23424	18.611	0.18182	0.1	1160.6
23425	18.703	9.0909e-002	0.1	1138.9
23426	18.52	5.7273	0.1	1178.2
23427	18.429	5.8182	0.1	1197.2
23428	18.52	5.9091	0.1	1176.2
23429	18.52	5.5455	0.1	1177.3
23430	18.429	5.6364	0.1	1195.6
23431	18.52	5.3636	0.1	1177.6
23432	18.429	5.4545	0.1	1195.8
23433	18.52	5.1818	0.1	1178.5
23434	18.429	5.2727	0.1	1196.9
23435	18.52	5.	0.1	1179.9
23436	18.429	5.0909	0.1	1198.5
23437	18.52	4.8182	0.1	1181.6
23438	18.429	4.9091	0.1	1200.7
23439	18.52	4.6364	0.1	1183.7
23440	18.429	4.7273	0.1	1203.2
23441	18.52	4.4545	0.1	1185.9
23442	18.429	4.5455	0.1	1205.9
23443	18.52	4.2727	0.1	1188.2
23444	18.429	4.3636	0.1	1208.7
23445	18.52	4.0909	0.1	1190.4
23446	18.429	4.1818	0.1	1211.6
23447	18.52	3.9091	0.1	1192.5
23448	18.429	4.	0.1	1214.3
23449	18.52	3.7273	0.1	1194.3
23450	18.429	3.8182	0.1	1216.7
23451	18.52	3.5455	0.1	1195.8
23452	18.429	3.6364	0.1	1218.8
23453	18.52	3.3636	0.1	1196.9
23454	18.429	3.4545	0.1	1220.5
23455	18.52	3.1818	0.1	1197.6
23456	18.429	3.2727	0.1	1221.6
23457	18.52	3.	0.1	1197.9
23458	18.429	3.0909	0.1	1222.2
23459	18.52	2.8182	0.1	1197.6
23460	18.429	2.9091	0.1	1222.2
23461	18.52	2.6364	0.1	1196.9
23462	18.429	2.7273	0.1	1221.6
23463	18.52	2.4545	0.1	1195.8
23464	18.429	2.5455	0.1	1220.5
23465	18.52	2.2727	0.1	1194.3
23466	18.429	2.3636	0.1	1218.8
23467	18.52	2.0909	0.1	1192.5
23468	18.429	2.1818	0.1	1216.7
23469	18.52	1.9091	0.1	1190.4
23470	18.429	2.	0.1	1214.3
23471	18.52	1.7273	0.1	1188.2
23472	18.429	1.8182	0.1	1211.6
23473	18.52	1.5455	0.1	1185.9
23474	18.429	1.6364	0.1	1208.7
23475	18.52	1.3636	0.1	1183.7
23476	18.429	1.4545	0.1	1205.9
23477	18.52	1.1818	0.1	1181.6
23478	18.429	1.2727	0.1	1203.2
23479	18.52	1.	0.1	1179.9
23480	18.429	1.0909	0.1	1200.7
23481	18.52	0.81818	0.1	1178.5
23482	18.429	0.90909	0.1	1198.5
23483	18.52	0.63636	0.1	1177.6
23484	18.429	0.72727	0.1	1196.9
23485	18.52	0.45455	0.1	1177.3
23486	18.429	0.54545	0.1	1195.8
23487	18.52	0.27273	0.1	1178.2
23488	18.429	0.36364	0.1	1195.6
23489	18.429	0.18182	0.1	1197.2
23490	18.52	9.0909e-002	0.1	1176.2
23491	18.337	5.7273	0.1	1214.4
23492	18.246	5.8182	0.1	1232.2
23493	18.337	5.9091	0.1	1212.1
23494	18.337	5.5455	0.1	1214.1
23495	18.246	5.6364	0.1	1231.2
23496	18.337	5.3636	0.1	1215.1
23497	18.246	5.4545	0.1	1232.2
23498	18.337	5.1818	0.1	1216.9
23499	18.246	5.2727	0.1	1234.2
23500	18.337	5.	0.1	1219.3
23501	18.246	5.0909	0.1	1237.
23502	18.337	4.8182	0.1	1222.2
23503	18.246	4.9091	0.1	1240.3
23504	18.337	4.6364	0.1	1225.3
23505	18.246	4.7273	0.1	1244.1
23506	18.337	4.4545	0.1	1228.7
23507	18.246	4.5455	0.1	1248.2
23508	18.337	4.2727	0.1	1232.1
23509	18.246	4.3636	0.1	1252.4
23510	18.337	4.0909	0.1	1235.4
23511	18.246	4.1818	0.1	1256.5
23512	18.337	3.9091	0.1	1238.5
23513	18.246	4.	0.1	1260.5
23514	18.337	3.7273	0.1	1241.2
23515	18.246	3.8182	0.1	1264.
23516	18.337	3.5455	0.1	1243.5
23517	18.246	3.6364	0.1	1267.1
23518	18.337	3.3636	0.1	1245.1
23519	18.246	3.4545	0.1	1269.5
23520	18.337	3.1818	0.1	1246.2
23521	18.246	3.2727	0.1	1271.1
23522	18.337	3.	0.1	1246.5
23523	18.246	3.0909	0.1	1272.
23524	18.337	2.8182	0.1	1246.2
23525	18.246	2.9091	0.1	1272.
23526	18.337	2.6364	0.1	1245.1
23527	18.246	2.7273	0.1	1271.1
23528	18.337	2.4545	0.1	1243.5
23529	18.246	2.5455	0.1	1269.5
23530	18.337	2.2727	0.1	1241.2
23531	18.246	2.3636	0.1	1267.1
23532	18.337	2.0909	0.1	1238.5
23533	18.246	2.1818	0.1	1264.
23534	18.337	1.9091	0.1	1235.4
23535	18.246	2.	0.1	1260.5
23536	18.337	1.7273	0.1	1232.1
23537	18.246	1.8182	0.1	1256.5
23538	18.337	1.5455	0.1	1228.7
23539	18.246	1.6364	0.1	1252.4
23540	18.337	1.3636	0.1	1225.3
23541	18.246	1.4545	0.1	1248.2
23542	18.337	1.1818	0.1	1222.2
23543	18.246	1.2727	0.1	1244.1
23544	18.337	1.	0.1	1219.3
23545	18.246	1.0909	0.1	1240.3
23546	18.337	0.81818	0.1	1216.9
23547	18.246	0.90909	0.1	1237.
23548	18.337	0.63636	0.1	1215.1
23549	18.246	0.72727	0.1	1234.2
23550	18.337	0.45455	0.1	1214.1
23551	18.246	0.54545	0.1	1232.2
23552	18.337	0.27273	0.1	1214.4
23553	18.246	0.36364	0.1	1231.2
23554	18.246	0.18182	0.1	1232.2
23555	18.337	9.0909e-002	0.1	1212.1
23556	18.155	5.7273	0.1	1248.9
23557	18.063	5.8182	0.1	1265.1
23558	18.155	5.9091	0.1	1246.1
23559	18.155	5.5455	0.1	1249.3
23560	18.063	5.6364	0.1	1264.9
23561	18.155	5.3636	0.1	1251.3
23562	18.063	5.4545	0.1	1267.
23563	18.155	5.1818	0.1	1254.3
23564	18.063	5.2727	0.1	1270.2
23565	18.155	5.	0.1	1258.
23566	18.063	5.0909	0.1	1274.4
23567	18.155	4.8182	0.1	1262.3
23568	18.063	4.9091	0.1	1279.3
23569	18.155	4.6364	0.1	1267.
23570	18.063	4.7273	0.1	1284.8
23571	18.155	4.4545	0.1	1271.9
23572	18.063	4.5455	0.1	1290.6
23573	18.155	4.2727	0.1	1276.8
23574	18.063	4.3636	0.1	1296.6
23575	18.155	4.0909	0.1	1281.6
23576	18.063	4.1818	0.1	1302.5
23577	18.155	3.9091	0.1	1286.
23578	18.063	4.	0.1	1308.1
23579	18.155	3.7273	0.1	1289.9
23580	18.063	3.8182	0.1	1313.1
23581	18.155	3.5455	0.1	1293.1
23582	18.063	3.6364	0.1	1317.4
23583	18.155	3.3636	0.1	1295.5
23584	18.063	3.4545	0.1	1320.8
23585	18.155	3.1818	0.1	1296.9
23586	18.063	3.2727	0.1	1323.2
23587	18.155	3.	0.1	1297.4
23588	18.063	3.0909	0.1	1324.4
23589	18.155	2.8182	0.1	1296.9
23590	18.063	2.9091	0.1	1324.4
23591	18.155	2.6364	0.1	1295.5
23592	18.063	2.7273	0.1	1323.2
23593	18.155	2.4545	0.1	1293.1
23594	18.063	2.5455	0.1	1320.8
23595	18.155	2.2727	0.1	1289.9
23596	18.063	2.3636	0.1	1317.4
23597	18.155	2.0909	0.1	1286.
23598	18.063	2.1818	0.1	1313.1
23599	18.155	1.9091	0.1	1281.6
23600	18.063	2.	0.1	1308.1
23601	18.155	1.7273	0.1	1276.8
23602	18.063	1.8182	0.1	1302.5
23603	18.155	1.5455	0.1	1271.9
23604	18.063	1.6364	0.1	1296.6
23605	18.155	1.3636	0.1	1267.
23606	18.063	1.4545	0.1	1290.6
23607	18.155	1.1818	0.1	1262.3
23608	18.063	1.2727	0.1	1284.8
23609	18.155	1.	0.1	1258.
23610	18.063	1.0909	0.1	1279.3
23611	18.155	0.81818	0.1	1254.3
23612	18.063	0.90909	0.1	1274.4
23613	18.155	0.63636	0.1	1251.3
23614	18.063	0.72727	0.1	1270.2
23615	18.155	0.45455	0.1	1249.3
23616	18.063	0.54545	0.1	1267.
23617	18.155	0.27273	0.1	1248.9
23618	18.063	0.36364	0.1	1264.9
23619	18.063	0.18182	0.1	1265.1
23620	18.155	9.0909e-002	0.1	1246.1
23621	17.972	5.7273	0.1	1281.1
23622	17.881	5.8182	0.1	1295.4
23623	17.972	5.9091	0.1	1277.7
23624	17.972	5.5455	0.1	1282.5
23625	17.881	5.6364	0.1	1296.2
23626	17.972	5.3636	0.1	1285.8
23627	17.881	5.4545	0.1	1299.5
23628	17.972	5.1818	0.1	1290.2
23629	17.881	5.2727	0.1	1304.3
23630	17.972	5.	0.1	1295.6
23631	17.881	5.0909	0.1	1310.3
23632	17.972	4.8182	0.1	1301.8
23633	17.881	4.9091	0.1	1317.3
23634	17.972	4.6364	0.1	1308.4
23635	17.881	4.7273	0.1	1325.
23636	17.972	4.4545	0.1	1315.4
23637	17.881	4.5455	0.1	1333.1
23638	17.972	4.2727	0.1	1322.3
23639	17.881	4.3636	0.1	1341.4
23640	17.972	4.0909	0.1	1329.
23641	17.881	4.1818	0.1	1349.6
23642	17.972	3.9091	0.1	1335.2
23643	17.881	4.	0.1	1357.3
23644	17.972	3.7273	0.1	1340.6
23645	17.881	3.8182	0.1	1364.4
23646	17.972	3.5455	0.1	1345.1
23647	17.881	3.6364	0.1	1370.4
23648	17.972	3.3636	0.1	1348.5
23649	17.881	3.4545	0.1	1375.1
23650	17.972	3.1818	0.1	1350.6
23651	17.881	3.2727	0.1	1378.4
23652	17.972	3.	0.1	1351.3
23653	17.881	3.0909	0.1	1380.1
23654	17.972	2.8182	0.1	1350.6
23655	17.881	2.9091	0.1	1380.1
23656	17.972	2.6364	0.1	1348.5
23657	17.881	2.7273	0.1	1378.4
23658	17.972	2.4545	0.1	1345.1
23659	17.881	2.5455	0.1	1375.1
23660	17.972	2.2727	0.1	1340.6
23661	17.881	2.3636	0.1	1370.4
23662	17.972	2.0909	0.1	1335.2
23663	17.881	2.1818	0.1	1364.4
23664	17.972	1.9091	0.1	1329.
23665	17.881	2.	0.1	1357.3
23666	17.972	1.7273	0.1	1322.3
23667	17.881	1.8182	0.1	1349.6
23668	17.972	1.5455	0.1	1315.4
23669	17.881	1.6364	0.1	1341.4
23670	17.972	1.3636	0.1	1308.4
23671	17.881	1.4545	0.1	1333.1
23672	17.972	1.1818	0.1	1301.8
23673	17.881	1.2727	0.1	1325.
23674	17.972	1.	0.1	1295.6
23675	17.881	1.0909	0.1	1317.3
23676	17.972	0.81818	0.1	1290.2
23677	17.881	0.90909	0.1	1310.3
23678	17.972	0.63636	0.1	1285.8
23679	17.881	0.72727	0.1	1304.3
23680	17.972	0.45455	0.1	1282.5
23681	17.881	0.54545	0.1	1299.5
23682	17.972	0.27273	0.1	1281.1
23683	17.881	0.36364	0.1	1296.2
23684	17.881	0.18182	0.1	1295.4
23685	17.972	9.0909e-002	0.1	1277.7
23686	17.789	5.7273	0.1	1310.4
23687	17.698	5.8182	0.1	1322.3
23688	17.789	5.9091	0.1	1306.2
23689	17.789	5.5455	0.1	1313.1
23690	17.698	5.6364	0.1	1324.3
23691	17.789	5.3636	0.1	1318.
23692	17.698	5.4545	0.1	1329.2
23693	17.789	5.1818	0.1	1324.3
23694	17.698	5.2727	0.1	1336.
23695	17.789	5.	0.1	1331.9
23696	17.698	5.0909	0.1	1344.3
23697	17.789	4.8182	0.1	1340.4
23698	17.698	4.9091	0.1	1353.9
23699	17.789	4.6364	0.1	1349.6
23700	17.698	4.7273	0.1	1364.5
23701	17.789	4.4545	0.1	1359.2
23702	17.698	4.5455	0.1	1375.6
23703	17.789	4.2727	0.1	1368.8
23704	17.698	4.3636	0.1	1387.
23705	17.789	4.0909	0.1	1378.
23706	17.698	4.1818	0.1	1398.2
23707	17.789	3.9091	0.1	1386.5
23708	17.698	4.	0.1	1408.8
23709	17.789	3.7273	0.1	1394.1
23710	17.698	3.8182	0.1	1418.4
23711	17.789	3.5455	0.1	1400.3
23712	17.698	3.6364	0.1	1426.6
23713	17.789	3.3636	0.1	1405.
23714	17.698	3.4545	0.1	1433.1
23715	17.789	3.1818	0.1	1407.9
23716	17.698	3.2727	0.1	1437.7
23717	17.789	3.	0.1	1408.8
23718	17.698	3.0909	0.1	1440.
23719	17.789	2.8182	0.1	1407.9
23720	17.698	2.9091	0.1	1440.
23721	17.789	2.6364	0.1	1405.
23722	17.698	2.7273	0.1	1437.7
23723	17.789	2.4545	0.1	1400.3
23724	17.698	2.5455	0.1	1433.1
23725	17.789	2.2727	0.1	1394.1
23726	17.698	2.3636	0.1	1426.6
23727	17.789	2.0909	0.1	1386.5
23728	17.698	2.1818	0.1	1418.4
23729	17.789	1.9091	0.1	1378.
23730	17.698	2.	0.1	1408.8
23731	17.789	1.7273	0.1	1368.8
23732	17.698	1.8182	0.1	1398.2
23733	17.789	1.5455	0.1	1359.2
23734	17.698	1.6364	0.1	1387.
23735	17.789	1.3636	0.1	1349.6
23736	17.698	1.4545	0.1	1375.6
23737	17.789	1.1818	0.1	1340.4
23738	17.698	1.2727	0.1	1364.5
23739	17.789	1.	0.1	1331.9
23740	17.698	1.0909	0.1	1353.9
23741	17.789	0.81818	0.1	1324.3
23742	17.698	0.90909	0.1	1344.3
23743	17.789	0.63636	0.1	1318.
23744	17.698	0.72727	0.1	1336.
23745	17.789	0.45455	0.1	1313.1
23746	17.698	0.54545	0.1	1329.2
23747	17.789	0.27273	0.1	1310.4
23748	17.698	0.36364	0.1	1324.3
23749	17.698	0.18182	0.1	1322.3
23750	17.789	9.0909e-002	0.1	1306.2
23751	17.607	5.7273	0.1	1336.
23752	17.515	5.8182	0.1	1344.8
23753	17.607	5.9091	0.1	1330.7
23754	17.607	5.5455	0.1	1340.3
23755	17.515	5.6364	0.1	1348.3
23756	17.607	5.3636	0.1	1347.2
23757	17.515	5.4545	0.1	1355.2
23758	17.607	5.1818	0.1	1356.
23759	17.515	5.2727	0.1	1364.6
23760	17.607	5.	0.1	1366.3
23761	17.515	5.0909	0.1	1375.9
23762	17.607	4.8182	0.1	1378.
23763	17.515	4.9091	0.1	1388.9
23764	17.607	4.6364	0.1	1390.5
23765	17.515	4.7273	0.1	1403.1
23766	17.607	4.4545	0.1	1403.4
23767	17.515	4.5455	0.1	1418.1
23768	17.607	4.2727	0.1	1416.4
23769	17.515	4.3636	0.1	1433.4
23770	17.607	4.0909	0.1	1428.9
23771	17.515	4.1818	0.1	1448.5
23772	17.607	3.9091	0.1	1440.6
23773	17.515	4.	0.1	1462.8
23774	17.607	3.7273	0.1	1450.9
23775	17.515	3.8182	0.1	1475.8
23776	17.607	3.5455	0.1	1459.4
23777	17.515	3.6364	0.1	1487.
23778	17.607	3.3636	0.1	1465.8
23779	17.515	3.4545	0.1	1495.9
23780	17.607	3.1818	0.1	1469.8
23781	17.515	3.2727	0.1	1502.1
23782	17.607	3.	0.1	1471.1
23783	17.515	3.0909	0.1	1505.3
23784	17.607	2.8182	0.1	1469.8
23785	17.515	2.9091	0.1	1505.3
23786	17.607	2.6364	0.1	1465.8
23787	17.515	2.7273	0.1	1502.1
23788	17.607	2.4545	0.1	1459.4
23789	17.515	2.5455	0.1	1495.9
23790	17.607	2.2727	0.1	1450.9
23791	17.515	2.3636	0.1	1487.
23792	17.607	2.0909	0.1	1440.6
23793	17.515	2.1818	0.1	1475.8
23794	17.607	1.9091	0.1	1428.9
23795	17.515	2.	0.1	1462.8
23796	17.607	1.7273	0.1	1416.4
23797	17.515	1.8182	0.1	1448.5
23798	17.607	1.5455	0.1	1403.4
23799	17.515	1.6364	0.1	1433.4
23800	17.607	1.3636	0.1	1390.5
23801	17.515	1.4545	0.1	1418.1
23802	17.607	1.1818	0.1	1378.
23803	17.515	1.2727	0.1	1403.1
23804	17.607	1.	0.1	1366.3
23805	17.515	1.0909	0.1	1388.9
23806	17.607	0.81818	0.1	1356.
23807	17.515	0.90909	0.1	1375.9
23808	17.607	0.63636	0.1	1347.2
23809	17.515	0.72727	0.1	1364.6
23810	17.607	0.45455	0.1	1340.3
23811	17.515	0.54545	0.1	1355.2
23812	17.607	0.27273	0.1	1336.
23813	17.515	0.36364	0.1	1348.3
23814	17.515	0.18182	0.1	1344.8
23815	17.607	9.0909e-002	0.1	1330.7
23816	17.424	5.7273	0.1	1357.
23817	17.333	5.8182	0.1	1361.9
23818	17.424	5.9091	0.1	1350.2
23819	17.424	5.5455	0.1	1363.2
23820	17.333	5.6364	0.1	1367.2
23821	17.424	5.3636	0.1	1372.6
23822	17.333	5.4545	0.1	1376.6
23823	17.424	5.1818	0.1	1384.5
23824	17.333	5.2727	0.1	1389.1
23825	17.424	5.	0.1	1398.4
23826	17.333	5.0909	0.1	1404.2
23827	17.424	4.8182	0.1	1414.
23828	17.333	4.9091	0.1	1421.5
23829	17.424	4.6364	0.1	1430.7
23830	17.333	4.7273	0.1	1440.4
23831	17.424	4.4545	0.1	1448.
23832	17.333	4.5455	0.1	1460.4
23833	17.424	4.2727	0.1	1465.5
23834	17.333	4.3636	0.1	1480.8
23835	17.424	4.0909	0.1	1482.3
23836	17.333	4.1818	0.1	1500.9
23837	17.424	3.9091	0.1	1498.
23838	17.333	4.	0.1	1520.1
23839	17.424	3.7273	0.1	1511.9
23840	17.333	3.8182	0.1	1537.6
23841	17.424	3.5455	0.1	1523.5
23842	17.333	3.6364	0.1	1552.7
23843	17.424	3.3636	0.1	1532.2
23844	17.333	3.4545	0.1	1564.8
23845	17.424	3.1818	0.1	1537.6
23846	17.333	3.2727	0.1	1573.1
23847	17.424	3.	0.1	1539.4
23848	17.333	3.0909	0.1	1577.4
23849	17.424	2.8182	0.1	1537.6
23850	17.333	2.9091	0.1	1577.4
23851	17.424	2.6364	0.1	1532.2
23852	17.333	2.7273	0.1	1573.1
23853	17.424	2.4545	0.1	1523.5
23854	17.333	2.5455	0.1	1564.8
23855	17.424	2.2727	0.1	1511.9
23856	17.333	2.3636	0.1	1552.7
23857	17.424	2.0909	0.1	1498.
23858	17.333	2.1818	0.1	1537.6
23859	17.424	1.9091	0.1	1482.3
23860	17.333	2.	0.1	1520.1
23861	17.424	1.7273	0.1	1465.5
23862	17.333	1.8182	0.1	1500.9
23863	17.424	1.5455	0.1	1448.
23864	17.333	1.6364	0.1	1480.8
23865	17.424	1.3636	0.1	1430.7
23866	17.333	1.4545	0.1	1460.4
23867	17.424	1.1818	0.1	1414.
23868	17.333	1.2727	0.1	1440.4
23869	17.424	1.	0.1	1398.4
23870	17.333	1.0909	0.1	1421.5
23871	17.424	0.81818	0.1	1384.5
23872	17.333	0.90909	0.1	1404.2
23873	17.424	0.63636	0.1	1372.6
23874	17.333	0.72727	0.1	1389.1
23875	17.424	0.45455	0.1	1363.2
23876	17.333	0.54545	0.1	1376.6
23877	17.424	0.27273	0.1	1357.
23878	17.333	0.36364	0.1	1367.2
23879	17.333	0.18182	0.1	1361.9
23880	17.424	9.0909e-002	0.1	1350.2
23881	17.241	5.7273	0.1	1372.
23882	17.15	5.8182	0.1	1372.1
23883	17.241	5.9091	0.1	1363.4
23884	17.241	5.5455	0.1	1380.6
23885	17.15	5.6364	0.1	1379.6
23886	17.241	5.3636	0.1	1393.2
23887	17.15	5.4545	0.1	1392.1
23888	17.241	5.1818	0.1	1408.9
23889	17.15	5.2727	0.1	1408.6
23890	17.241	5.	0.1	1427.3
23891	17.15	5.0909	0.1	1428.4
23892	17.241	4.8182	0.1	1447.9
23893	17.15	4.9091	0.1	1451.1
23894	17.241	4.6364	0.1	1470.1
23895	17.15	4.7273	0.1	1476.
23896	17.241	4.4545	0.1	1493.1
23897	17.15	4.5455	0.1	1502.4
23898	17.241	4.2727	0.1	1516.3
23899	17.15	4.3636	0.1	1529.4
23900	17.241	4.0909	0.1	1538.8
23901	17.15	4.1818	0.1	1556.1
23902	17.241	3.9091	0.1	1559.7
23903	17.15	4.	0.1	1581.6
23904	17.241	3.7273	0.1	1578.4
23905	17.15	3.8182	0.1	1605.
23906	17.241	3.5455	0.1	1594.
23907	17.15	3.6364	0.1	1625.2
23908	17.241	3.3636	0.1	1605.7
23909	17.15	3.4545	0.1	1641.4
23910	17.241	3.1818	0.1	1613.
23911	17.15	3.2727	0.1	1652.6
23912	17.241	3.	0.1	1615.4
23913	17.15	3.0909	0.1	1658.4
23914	17.241	2.8182	0.1	1613.
23915	17.15	2.9091	0.1	1658.4
23916	17.241	2.6364	0.1	1605.7
23917	17.15	2.7273	0.1	1652.6
23918	17.241	2.4545	0.1	1594.
23919	17.15	2.5455	0.1	1641.4
23920	17.241	2.2727	0.1	1578.4
23921	17.15	2.3636	0.1	1625.2
23922	17.241	2.0909	0.1	1559.7
23923	17.15	2.1818	0.1	1605.
23924	17.241	1.9091	0.1	1538.8
23925	17.15	2.	0.1	1581.6
23926	17.241	1.7273	0.1	1516.3
23927	17.15	1.8182	0.1	1556.1
23928	17.241	1.5455	0.1	1493.1
23929	17.15	1.6364	0.1	1529.4
23930	17.241	1.3636	0.1	1470.1
23931	17.15	1.4545	0.1	1502.4
23932	17.241	1.1818	0.1	1447.9
23933	17.15	1.2727	0.1	1476.
23934	17.241	1.	0.1	1427.3
23935	17.15	1.0909	0.1	1451.1
23936	17.241	0.81818	0.1	1408.9
23937	17.15	0.90909	0.1	1428.4
23938	17.241	0.63636	0.1	1393.2
23939	17.15	0.72727	0.1	1408.6
23940	17.241	0.45455	0.1	1380.6
23941	17.15	0.54545	0.1	1392.1
23942	17.241	0.27273	0.1	1372.
23943	17.15	0.36364	0.1	1379.6
23944	17.15	0.18182	0.1	1372.1
23945	17.241	9.0909e-002	0.1	1363.4
23946	17.059	5.7273	0.1	1379.6
23947	16.967	5.8182	0.1	1373.8
23948	17.059	5.9091	0.1	1368.9
23949	17.059	5.5455	0.1	1391.1
23950	16.967	5.6364	0.1	1383.9
23951	17.059	5.3636	0.1	1407.6
23952	16.967	5.4545	0.1	1400.3
23953	17.059	5.1818	0.1	1428.2
23954	16.967	5.2727	0.1	1421.6
23955	17.059	5.	0.1	1452.3
23956	16.967	5.0909	0.1	1447.4
23957	17.059	4.8182	0.1	1479.3
23958	16.967	4.9091	0.1	1477.
23959	17.059	4.6364	0.1	1508.4
23960	16.967	4.7273	0.1	1509.5
23961	17.059	4.4545	0.1	1538.7
23962	16.967	4.5455	0.1	1544.1
23963	17.059	4.2727	0.1	1569.3
23964	16.967	4.3636	0.1	1579.5
23965	17.059	4.0909	0.1	1599.
23966	16.967	4.1818	0.1	1614.7
23967	17.059	3.9091	0.1	1626.9
23968	16.967	4.	0.1	1648.5
23969	17.059	3.7273	0.1	1651.8
23970	16.967	3.8182	0.1	1679.5
23971	17.059	3.5455	0.1	1672.6
23972	16.967	3.6364	0.1	1706.4
23973	17.059	3.3636	0.1	1688.3
23974	16.967	3.4545	0.1	1727.9
23975	17.059	3.1818	0.1	1698.1
23976	16.967	3.2727	0.1	1743.
23977	17.059	3.	0.1	1701.4
23978	16.967	3.0909	0.1	1750.8
23979	17.059	2.8182	0.1	1698.1
23980	16.967	2.9091	0.1	1750.8
23981	17.059	2.6364	0.1	1688.3
23982	16.967	2.7273	0.1	1743.
23983	17.059	2.4545	0.1	1672.6
23984	16.967	2.5455	0.1	1727.9
23985	17.059	2.2727	0.1	1651.8
23986	16.967	2.3636	0.1	1706.4
23987	17.059	2.0909	0.1	1626.9
23988	16.967	2.1818	0.1	1679.5
23989	17.059	1.9091	0.1	1599.
23990	16.967	2.	0.1	1648.5
23991	17.059	1.7273	0.1	1569.3
23992	16.967	1.8182	0.1	1614.7
23993	17.059	1.5455	0.1	1538.7
23994	16.967	1.6364	0.1	1579.5
23995	17.059	1.3636	0.1	1508.4
23996	16.967	1.4545	0.1	1544.1
23997	17.059	1.1818	0.1	1479.3
23998	16.967	1.2727	0.1	1509.5
23999	17.059	1.	0.1	1452.3
24000	16.967	1.0909	0.1	1477.
24001	17.059	0.81818	0.1	1428.2
24002	16.967	0.90909	0.1	1447.4
24003	17.059	0.63636	0.1	1407.6
24004	16.967	0.72727	0.1	1421.6
24005	17.059	0.45455	0.1	1391.1
24006	16.967	0.54545	0.1	1400.3
24007	17.059	0.27273	0.1	1379.6
24008	16.967	0.36364	0.1	1383.9
24009	16.967	0.18182	0.1	1373.8
24010	17.059	9.0909e-002	0.1	1368.9
24011	16.876	5.7273	0.1	1378.1
24012	16.785	5.8182	0.1	1365.2
24013	16.876	5.9091	0.1	1364.7
24014	16.876	5.5455	0.1	1393.1
24015	16.785	5.6364	0.1	1378.3
24016	16.876	5.3636	0.1	1414.4
24017	16.785	5.4545	0.1	1399.2
24018	16.876	5.1818	0.1	1440.9
24019	16.785	5.2727	0.1	1426.6
24020	16.876	5.	0.1	1472.2
24021	16.785	5.0909	0.1	1459.8
24022	16.876	4.8182	0.1	1507.3
24023	16.785	4.9091	0.1	1498.1
24024	16.876	4.6364	0.1	1545.3
24025	16.785	4.7273	0.1	1540.3
24026	16.876	4.4545	0.1	1585.
24027	16.785	4.5455	0.1	1585.3
24028	16.876	4.2727	0.1	1625.1
24029	16.785	4.3636	0.1	1631.6
24030	16.876	4.0909	0.1	1664.3
24031	16.785	4.1818	0.1	1677.8
24032	16.876	3.9091	0.1	1701.1
24033	16.785	4.	0.1	1722.2
24034	16.876	3.7273	0.1	1734.1
24035	16.785	3.8182	0.1	1763.1
24036	16.876	3.5455	0.1	1761.7
24037	16.785	3.6364	0.1	1798.7
24038	16.876	3.3636	0.1	1782.6
24039	16.785	3.4545	0.1	1827.3
24040	16.876	3.1818	0.1	1795.7
24041	16.785	3.2727	0.1	1847.4
24042	16.876	3.	0.1	1800.1
24043	16.785	3.0909	0.1	1857.7
24044	16.876	2.8182	0.1	1795.7
24045	16.785	2.9091	0.1	1857.7
24046	16.876	2.6364	0.1	1782.6
24047	16.785	2.7273	0.1	1847.4
24048	16.876	2.4545	0.1	1761.7
24049	16.785	2.5455	0.1	1827.3
24050	16.876	2.2727	0.1	1734.1
24051	16.785	2.3636	0.1	1798.7
24052	16.876	2.0909	0.1	1701.1
24053	16.785	2.1818	0.1	1763.1
24054	16.876	1.9091	0.1	1664.3
24055	16.785	2.	0.1	1722.2
24056	16.876	1.7273	0.1	1625.1
24057	16.785	1.8182	0.1	1677.8
24058	16.876	1.5455	0.1	1585.
24059	16.785	1.6364	0.1	1631.6
24060	16.876	1.3636	0.1	1545.3
24061	16.785	1.4545	0.1	1585.3
24062	16.876	1.1818	0.1	1507.3
24063	16.785	1.2727	0.1	1540.3
24064	16.876	1.	0.1	1472.2
24065	16.785	1.0909	0.1	1498.1
24066	16.876	0.81818	0.1	1440.9
24067	16.785	0.90909	0.1	1459.8
24068	16.876	0.63636	0.1	1414.4
24069	16.785	0.72727	0.1	1426.6
24070	16.876	0.45455	0.1	1393.1
24071	16.785	0.54545	0.1	1399.2
24072	16.876	0.27273	0.1	1378.1
24073	16.785	0.36364	0.1	1378.3
24074	16.785	0.18182	0.1	1365.2
24075	16.876	9.0909e-002	0.1	1364.7
24076	16.693	5.7273	0.1	1365.4
24077	16.602	5.8182	0.1	1343.8
24078	16.693	5.9091	0.1	1348.6
24079	16.693	5.5455	0.1	1384.5
24080	16.602	5.6364	0.1	1360.4
24081	16.693	5.3636	0.1	1411.6
24082	16.602	5.4545	0.1	1386.9
24083	16.693	5.1818	0.1	1445.6
24084	16.602	5.2727	0.1	1421.6
24085	16.693	5.	0.1	1485.8
24086	16.602	5.0909	0.1	1464.
24087	16.693	4.8182	0.1	1531.2
24088	16.602	4.9091	0.1	1513.1
24089	16.693	4.6364	0.1	1580.5
24090	16.602	4.7273	0.1	1567.7
24091	16.693	4.4545	0.1	1632.1
24092	16.602	4.5455	0.1	1626.
24093	16.693	4.2727	0.1	1684.5
24094	16.602	4.3636	0.1	1686.3
24095	16.693	4.0909	0.1	1735.9
24096	16.602	4.1818	0.1	1746.6
24097	16.693	3.9091	0.1	1784.3
24098	16.602	4.	0.1	1804.8
24099	16.693	3.7273	0.1	1827.8
24100	16.602	3.8182	0.1	1858.6
24101	16.693	3.5455	0.1	1864.3
24102	16.602	3.6364	0.1	1905.6
24103	16.693	3.3636	0.1	1892.
24104	16.602	3.4545	0.1	1943.4
24105	16.693	3.1818	0.1	1909.3
24106	16.602	3.2727	0.1	1969.8
24107	16.693	3.	0.1	1915.2
24108	16.602	3.0909	0.1	1983.4
24109	16.693	2.8182	0.1	1909.3
24110	16.602	2.9091	0.1	1983.4
24111	16.693	2.6364	0.1	1892.
24112	16.602	2.7273	0.1	1969.8
24113	16.693	2.4545	0.1	1864.3
24114	16.602	2.5455	0.1	1943.4
24115	16.693	2.2727	0.1	1827.8
24116	16.602	2.3636	0.1	1905.6
24117	16.693	2.0909	0.1	1784.3
24118	16.602	2.1818	0.1	1858.6
24119	16.693	1.9091	0.1	1735.9
24120	16.602	2.	0.1	1804.8
24121	16.693	1.7273	0.1	1684.5
24122	16.602	1.8182	0.1	1746.6
24123	16.693	1.5455	0.1	1632.1
24124	16.602	1.6364	0.1	1686.3
24125	16.693	1.3636	0.1	1580.5
24126	16.602	1.4545	0.1	1626.
24127	16.693	1.1818	0.1	1531.2
24128	16.602	1.2727	0.1	1567.7
24129	16.693	1.	0.1	1485.8
24130	16.602	1.0909	0.1	1513.1
24131	16.693	0.81818	0.1	1445.6
24132	16.602	0.90909	0.1	1464.
24133	16.693	0.63636	0.1	1411.6
24134	16.602	0.72727	0.1	1421.6
24135	16.693	0.45455	0.1	1384.5
24136	16.602	0.54545	0.1	1386.9
24137	16.693	0.27273	0.1	1365.4
24138	16.602	0.36364	0.1	1360.4
24139	16.602	0.18182	0.1	1343.8
24140	16.693	9.0909e-002	0.1	1348.6
24141	16.511	5.7273	0.1	1339.
24142	16.419	5.8182	0.1	1307.2
24143	16.511	5.9091	0.1	1318.4
24144	16.511	5.5455	0.1	1362.9
24145	16.419	5.6364	0.1	1327.8
24146	16.511	5.3636	0.1	1397.1
24147	16.419	5.4545	0.1	1360.7
24148	16.511	5.1818	0.1	1440.3
24149	16.419	5.2727	0.1	1404.3
24150	16.511	5.	0.1	1491.6
24151	16.419	5.0909	0.1	1458.1
24152	16.511	4.8182	0.1	1549.9
24153	16.419	4.9091	0.1	1520.8
24154	16.511	4.6364	0.1	1613.6
24155	16.419	4.7273	0.1	1590.9
24156	16.511	4.4545	0.1	1680.6
24157	16.419	4.5455	0.1	1666.3
24158	16.511	4.2727	0.1	1748.8
24159	16.419	4.3636	0.1	1744.7
24160	16.511	4.0909	0.1	1815.9
24161	16.419	4.1818	0.1	1823.3
24162	16.511	3.9091	0.1	1879.4
24163	16.419	4.	0.1	1899.5
24164	16.511	3.7273	0.1	1936.5
24165	16.419	3.8182	0.1	1970.
24166	16.511	3.5455	0.1	1984.6
24167	16.419	3.6364	0.1	2031.6
24168	16.511	3.3636	0.1	2021.
24169	16.419	3.4545	0.1	2081.
24170	16.511	3.1818	0.1	2043.7
24171	16.419	3.2727	0.1	2115.5
24172	16.511	3.	0.1	2051.4
24173	16.419	3.0909	0.1	2133.3
24174	16.511	2.8182	0.1	2043.7
24175	16.419	2.9091	0.1	2133.3
24176	16.511	2.6364	0.1	2021.
24177	16.419	2.7273	0.1	2115.5
24178	16.511	2.4545	0.1	1984.6
24179	16.419	2.5455	0.1	2081.
24180	16.511	2.2727	0.1	1936.5
24181	16.419	2.3636	0.1	2031.6
24182	16.511	2.0909	0.1	1879.4
24183	16.419	2.1818	0.1	1970.
24184	16.511	1.9091	0.1	1815.9
24185	16.419	2.	0.1	1899.5
24186	16.511	1.7273	0.1	1748.8
24187	16.419	1.8182	0.1	1823.3
24188	16.511	1.5455	0.1	1680.6
24189	16.419	1.6364	0.1	1744.7
24190	16.511	1.3636	0.1	1613.6
24191	16.419	1.4545	0.1	1666.3
24192	16.511	1.1818	0.1	1549.9
24193	16.419	1.2727	0.1	1590.9
24194	16.511	1.	0.1	1491.6
24195	16.419	1.0909	0.1	1520.8
24196	16.511	0.81818	0.1	1440.3
24197	16.419	0.90909	0.1	1458.1
24198	16.511	0.63636	0.1	1397.1
24199	16.419	0.72727	0.1	1404.3
24200	16.511	0.45455	0.1	1362.9
24201	16.419	0.54545	0.1	1360.7
24202	16.511	0.27273	0.1	1339.
24203	16.419	0.36364	0.1	1327.8
24204	16.419	0.18182	0.1	1307.2
24205	16.511	9.0909e-002	0.1	1318.4
24206	16.328	5.7273	0.1	1296.2
24207	16.237	5.8182	0.1	1252.6
24208	16.328	5.9091	0.1	1271.1
24209	16.328	5.5455	0.1	1325.8
24210	16.237	5.6364	0.1	1277.5
24211	16.328	5.3636	0.1	1368.3
24212	16.237	5.4545	0.1	1318.
24213	16.328	5.1818	0.1	1422.7
24214	16.237	5.2727	0.1	1372.3
24215	16.328	5.	0.1	1487.8
24216	16.237	5.0909	0.1	1439.9
24217	16.328	4.8182	0.1	1562.4
24218	16.237	4.9091	0.1	1519.5
24219	16.328	4.6364	0.1	1644.3
24220	16.237	4.7273	0.1	1609.2
24221	16.328	4.4545	0.1	1731.1
24222	16.237	4.5455	0.1	1706.6
24223	16.328	4.2727	0.1	1819.8
24224	16.237	4.3636	0.1	1808.3
24225	16.328	4.0909	0.1	1907.4
24226	16.237	4.1818	0.1	1910.9
24227	16.328	3.9091	0.1	1990.4
24228	16.237	4.	0.1	2010.5
24229	16.328	3.7273	0.1	2065.2
24230	16.237	3.8182	0.1	2102.8
24231	16.328	3.5455	0.1	2127.9
24232	16.237	3.6364	0.1	2183.1
24233	16.328	3.3636	0.1	2175.3
24234	16.237	3.4545	0.1	2247.
24235	16.328	3.1818	0.1	2204.7
24236	16.237	3.2727	0.1	2291.3
24237	16.328	3.	0.1	2214.7
24238	16.237	3.0909	0.1	2313.9
24239	16.328	2.8182	0.1	2204.7
24240	16.237	2.9091	0.1	2313.9
24241	16.328	2.6364	0.1	2175.3
24242	16.237	2.7273	0.1	2291.3
24243	16.328	2.4545	0.1	2127.9
24244	16.237	2.5455	0.1	2247.
24245	16.328	2.2727	0.1	2065.2
24246	16.237	2.3636	0.1	2183.1
24247	16.328	2.0909	0.1	1990.4
24248	16.237	2.1818	0.1	2102.8
24249	16.328	1.9091	0.1	1907.4
24250	16.237	2.	0.1	2010.5
24251	16.328	1.7273	0.1	1819.8
24252	16.237	1.8182	0.1	1910.9
24253	16.328	1.5455	0.1	1731.1
24254	16.237	1.6364	0.1	1808.3
24255	16.328	1.3636	0.1	1644.3
24256	16.237	1.4545	0.1	1706.6
24257	16.328	1.1818	0.1	1562.4
24258	16.237	1.2727	0.1	1609.2
24259	16.328	1.	0.1	1487.8
24260	16.237	1.0909	0.1	1519.5
24261	16.328	0.81818	0.1	1422.7
24262	16.237	0.90909	0.1	1439.9
24263	16.328	0.63636	0.1	1368.3
24264	16.237	0.72727	0.1	1372.3
24265	16.328	0.45455	0.1	1325.8
24266	16.237	0.54545	0.1	1318.
24267	16.328	0.27273	0.1	1296.2
24268	16.237	0.36364	0.1	1277.5
24269	16.237	0.18182	0.1	1252.6
24270	16.328	9.0909e-002	0.1	1271.1
24271	16.145	5.7273	0.1	1234.2
24272	16.054	5.8182	0.1	1177.1
24273	16.145	5.9091	0.1	1203.9
24274	16.145	5.5455	0.1	1270.2
24275	16.054	5.6364	0.1	1206.8
24276	16.145	5.3636	0.1	1322.6
24277	16.054	5.4545	0.1	1256.
24278	16.145	5.1818	0.1	1390.4
24279	16.054	5.2727	0.1	1322.9
24280	16.145	5.	0.1	1472.5
24281	16.054	5.0909	0.1	1407.1
24282	16.145	4.8182	0.1	1567.5
24283	16.054	4.9091	0.1	1507.4
24284	16.145	4.6364	0.1	1672.6
24285	16.054	4.7273	0.1	1621.9
24286	16.145	4.4545	0.1	1784.9
24287	16.054	4.5455	0.1	1747.3
24288	16.145	4.2727	0.1	1900.4
24289	16.054	4.3636	0.1	1879.7
24290	16.145	4.0909	0.1	2014.8
24291	16.054	4.1818	0.1	2014.1
24292	16.145	3.9091	0.1	2123.4
24293	16.054	4.	0.1	2144.8
24294	16.145	3.7273	0.1	2220.9
24295	16.054	3.8182	0.1	2265.4
24296	16.145	3.5455	0.1	2302.
24297	16.054	3.6364	0.1	2369.3
24298	16.145	3.3636	0.1	2362.5
24299	16.054	3.4545	0.1	2450.5
24300	16.145	3.1818	0.1	2399.8
24301	16.054	3.2727	0.1	2505.6
24302	16.145	3.	0.1	2412.3
24303	16.054	3.0909	0.1	2533.3
24304	16.145	2.8182	0.1	2399.8
24305	16.054	2.9091	0.1	2533.3
24306	16.145	2.6364	0.1	2362.5
24307	16.054	2.7273	0.1	2505.6
24308	16.145	2.4545	0.1	2302.
24309	16.054	2.5455	0.1	2450.5
24310	16.145	2.2727	0.1	2220.9
24311	16.054	2.3636	0.1	2369.3
24312	16.145	2.0909	0.1	2123.4
24313	16.054	2.1818	0.1	2265.4
24314	16.145	1.9091	0.1	2014.8
24315	16.054	2.	0.1	2144.8
24316	16.145	1.7273	0.1	1900.4
24317	16.054	1.8182	0.1	2014.1
24318	16.145	1.5455	0.1	1784.9
24319	16.054	1.6364	0.1	1879.7
24320	16.145	1.3636	0.1	1672.6
24321	16.054	1.4545	0.1	1747.3
24322	16.145	1.1818	0.1	1567.5
24323	16.054	1.2727	0.1	1621.9
24324	16.145	1.	0.1	1472.5
24325	16.054	1.0909	0.1	1507.4
24326	16.145	0.81818	0.1	1390.4
24327	16.054	0.90909	0.1	1407.1
24328	16.145	0.63636	0.1	1322.6
24329	16.054	0.72727	0.1	1322.9
24330	16.145	0.45455	0.1	1270.2
24331	16.054	0.54545	0.1	1256.
24332	16.145	0.27273	0.1	1234.2
24333	16.054	0.36364	0.1	1206.8
24334	16.054	0.18182	0.1	1177.1
24335	16.145	9.0909e-002	0.1	1203.9
24336	15.963	5.7273	0.1	1150.2
24337	15.871	5.8182	0.1	1078.2
24338	15.963	5.9091	0.1	1114.1
24339	15.963	5.5455	0.1	1193.3
24340	15.871	5.6364	0.1	1113.1
24341	15.963	5.3636	0.1	1257.3
24342	15.871	5.4545	0.1	1172.3
24343	15.963	5.1818	0.1	1341.1
24344	15.871	5.2727	0.1	1253.9
24345	15.963	5.	0.1	1443.8
24346	15.871	5.0909	0.1	1357.7
24347	15.963	4.8182	0.1	1563.9
24348	15.871	4.9091	0.1	1482.9
24349	15.963	4.6364	0.1	1698.6
24350	15.871	4.7273	0.1	1627.9
24351	15.963	4.4545	0.1	1844.
24352	15.871	4.5455	0.1	1789.5
24353	15.963	4.2727	0.1	1994.9
24354	15.871	4.3636	0.1	1962.5
24355	15.963	4.0909	0.1	2145.2
24356	15.871	4.1818	0.1	2140.
24357	15.963	3.9091	0.1	2287.6
24358	15.871	4.	0.1	2313.1
24359	15.963	3.7273	0.1	2414.1
24360	15.871	3.8182	0.1	2471.5
24361	15.963	3.5455	0.1	2517.4
24362	15.871	3.6364	0.1	2604.3
24363	15.963	3.3636	0.1	2592.7
24364	15.871	3.4545	0.1	2704.
24365	15.963	3.1818	0.1	2637.8
24366	15.871	3.2727	0.1	2768.6
24367	15.963	3.	0.1	2652.8
24368	15.871	3.0909	0.1	2799.9
24369	15.963	2.8182	0.1	2637.8
24370	15.871	2.9091	0.1	2799.9
24371	15.963	2.6364	0.1	2592.7
24372	15.871	2.7273	0.1	2768.6
24373	15.963	2.4545	0.1	2517.4
24374	15.871	2.5455	0.1	2704.
24375	15.963	2.2727	0.1	2414.1
24376	15.871	2.3636	0.1	2604.3
24377	15.963	2.0909	0.1	2287.6
24378	15.871	2.1818	0.1	2471.5
24379	15.963	1.9091	0.1	2145.2
24380	15.871	2.	0.1	2313.1
24381	15.963	1.7273	0.1	1994.9
24382	15.871	1.8182	0.1	2140.
24383	15.963	1.5455	0.1	1844.
24384	15.871	1.6364	0.1	1962.5
24385	15.963	1.3636	0.1	1698.6
24386	15.871	1.4545	0.1	1789.5
24387	15.963	1.1818	0.1	1563.9
24388	15.871	1.2727	0.1	1627.9
24389	15.963	1.	0.1	1443.8
24390	15.871	1.0909	0.1	1482.9
24391	15.963	0.81818	0.1	1341.1
24392	15.871	0.90909	0.1	1357.7
24393	15.963	0.63636	0.1	1257.3
24394	15.871	0.72727	0.1	1253.9
24395	15.963	0.45455	0.1	1193.3
24396	15.871	0.54545	0.1	1172.3
24397	15.963	0.27273	0.1	1150.2
24398	15.871	0.36364	0.1	1113.1
24399	15.871	0.18182	0.1	1078.2
24400	15.963	9.0909e-002	0.1	1114.1
24401	15.78	5.7273	0.1	1041.7
24402	15.689	5.8182	0.1	953.92
24403	15.78	5.9091	0.1	999.15
24404	15.78	5.5455	0.1	1093.
24405	15.689	5.6364	0.1	994.69
24406	15.78	5.3636	0.1	1170.6
24407	15.689	5.4545	0.1	1065.8
24408	15.78	5.1818	0.1	1273.1
24409	15.689	5.2727	0.1	1164.5
24410	15.78	5.	0.1	1400.1
24411	15.689	5.0909	0.1	1290.8
24412	15.78	4.8182	0.1	1550.5
24413	15.689	4.9091	0.1	1444.6
24414	15.78	4.6364	0.1	1722.3
24415	15.689	4.7273	0.1	1626.1
24416	15.78	4.4545	0.1	1911.1
24417	15.689	4.5455	0.1	1833.6
24418	15.78	4.2727	0.1	2110.1
24419	15.689	4.3636	0.1	2062.
24420	15.78	4.0909	0.1	2309.8
24421	15.689	4.1818	0.1	2300.7
24422	15.78	3.9091	0.1	2498.1
24423	15.689	4.	0.1	2534.6
24424	15.78	3.7273	0.1	2661.7
24425	15.689	3.8182	0.1	2744.1
24426	15.78	3.5455	0.1	2789.8
24427	15.689	3.6364	0.1	2910.2
24428	15.78	3.3636	0.1	2878.1
24429	15.689	3.4545	0.1	3024.
24430	15.78	3.1818	0.1	2928.3
24431	15.689	3.2727	0.1	3090.5
24432	15.78	3.	0.1	2944.5
24433	15.689	3.0909	0.1	3120.2
24434	15.78	2.8182	0.1	2928.3
24435	15.689	2.9091	0.1	3120.2
24436	15.78	2.6364	0.1	2878.1
24437	15.689	2.7273	0.1	3090.5
24438	15.78	2.4545	0.1	2789.8
24439	15.689	2.5455	0.1	3024.
24440	15.78	2.2727	0.1	2661.7
24441	15.689	2.3636	0.1	2910.2
24442	15.78	2.0909	0.1	2498.1
24443	15.689	2.1818	0.1	2744.1
24444	15.78	1.9091	0.1	2309.8
24445	15.689	2.	0.1	2534.6
24446	15.78	1.7273	0.1	2110.1
24447	15.689	1.8182	0.1	2300.7
24448	15.78	1.5455	0.1	1911.1
24449	15.689	1.6364	0.1	2062.
24450	15.78	1.3636	0.1	1722.3
24451	15.689	1.4545	0.1	1833.6
24452	15.78	1.1818	0.1	1550.5
24453	15.689	1.2727	0.1	1626.1
24454	15.78	1.	0.1	1400.1
24455	15.689	1.0909	0.1	1444.6
24456	15.78	0.81818	0.1	1273.1
24457	15.689	0.90909	0.1	1290.8
24458	15.78	0.63636	0.1	1170.6
24459	15.689	0.72727	0.1	1164.5
24460	15.78	0.45455	0.1	1093.
24461	15.689	0.54545	0.1	1065.8
24462	15.78	0.27273	0.1	1041.7
24463	15.689	0.36364	0.1	994.69
24464	15.689	0.18182	0.1	953.92
24465	15.78	9.0909e-002	0.1	999.15
24466	15.597	5.7273	0.1	907.65
24467	15.506	5.8182	0.1	803.36
24468	15.597	5.9091	0.1	857.52
24469	15.597	5.5455	0.1	969.07
24470	15.506	5.6364	0.1	852.45
24471	15.597	5.3636	0.1	1062.8
24472	15.506	5.4545	0.1	938.99
24473	15.597	5.1818	0.1	1186.7
24474	15.506	5.2727	0.1	1057.7
24475	15.597	5.	0.1	1340.8
24476	15.506	5.0909	0.1	1208.
24477	15.597	4.8182	0.1	1526.2
24478	15.506	4.9091	0.1	1392.1
24479	15.597	4.6364	0.1	1743.2
24480	15.506	4.7273	0.1	1613.9
24481	15.597	4.4545	0.1	1989.4
24482	15.506	4.5455	0.1	1878.4
24483	15.597	4.2727	0.1	2256.4
24484	15.506	4.3636	0.1	2183.5
24485	15.597	4.0909	0.1	2528.1
24486	15.506	4.1818	0.1	2516.6
24487	15.597	3.9091	0.1	2781.7
24488	15.506	4.	0.1	2847.7
24489	15.597	3.7273	0.1	2991.9
24490	15.506	3.8182	0.1	3128.2
24491	15.597	3.5455	0.1	3142.
24492	15.506	3.6364	0.1	3324.4
24493	15.597	3.3636	0.1	3233.
24494	15.506	3.4545	0.1	3430.5
24495	15.597	3.1818	0.1	3278.6
24496	15.506	3.2727	0.1	3477.1
24497	15.597	3.	0.1	3292.1
24498	15.506	3.0909	0.1	3493.1
24499	15.597	2.8182	0.1	3278.6
24500	15.506	2.9091	0.1	3493.1
24501	15.597	2.6364	0.1	3233.
24502	15.506	2.7273	0.1	3477.1
24503	15.597	2.4545	0.1	3142.
24504	15.506	2.5455	0.1	3430.5
24505	15.597	2.2727	0.1	2991.9
24506	15.506	2.3636	0.1	3324.4
24507	15.597	2.0909	0.1	2781.7
24508	15.506	2.1818	0.1	3128.2
24509	15.597	1.9091	0.1	2528.1
24510	15.506	2.	0.1	2847.7
24511	15.597	1.7273	0.1	2256.4
24512	15.506	1.8182	0.1	2516.6
24513	15.597	1.5455	0.1	1989.4
24514	15.506	1.6364	0.1	2183.5
24515	15.597	1.3636	0.1	1743.2
24516	15.506	1.4545	0.1	1878.4
24517	15.597	1.1818	0.1	1526.2
24518	15.506	1.2727	0.1	1613.9
24519	15.597	1.	0.1	1340.8
24520	15.506	1.0909	0.1	1392.1
24521	15.597	0.81818	0.1	1186.7
24522	15.506	0.90909	0.1	1208.
24523	15.597	0.63636	0.1	1062.8
24524	15.506	0.72727	0.1	1057.7
24525	15.597	0.45455	0.1	969.07
24526	15.506	0.54545	0.1	938.99
24527	15.597	0.27273	0.1	907.65
24528	15.506	0.36364	0.1	852.45
24529	15.506	0.18182	0.1	803.36
24530	15.597	9.0909e-002	0.1	857.52
24531	15.415	5.7273	0.1	749.25
24532	15.323	5.8182	0.1	627.65
24533	15.415	5.9091	0.1	688.98
24534	15.415	5.5455	0.1	825.39
24535	15.323	5.6364	0.1	692.55
24536	15.415	5.3636	0.1	939.45
24537	15.323	5.4545	0.1	801.57
24538	15.415	5.1818	0.1	1086.7
24539	15.323	5.2727	0.1	943.15
24540	15.415	5.	0.1	1268.3
24541	15.323	5.0909	0.1	1116.6
24542	15.415	4.8182	0.1	1489.6
24543	15.323	4.9091	0.1	1327.4
24544	15.415	4.6364	0.1	1758.8
24545	15.323	4.7273	0.1	1587.4
24546	15.415	4.4545	0.1	2080.7
24547	15.323	4.5455	0.1	1913.6
24548	15.415	4.2727	0.1	2449.3
24549	15.323	4.3636	0.1	2326.6
24550	15.415	4.0909	0.1	2839.2
24551	15.323	4.1818	0.1	2829.1
24552	15.415	3.9091	0.1	3194.2
24553	15.323	4.	0.1	3327.2
24554	15.415	3.7273	0.1	3457.5
24555	15.323	3.8182	0.1	3728.9
24556	15.415	3.5455	0.1	3607.6
24557	15.323	3.6364	0.1	3907.
24558	15.415	3.3636	0.1	3669.
24559	15.323	3.4545	0.1	3937.6
24560	15.415	3.1818	0.1	3686.3
24561	15.323	3.2727	0.1	3917.7
24562	15.415	3.	0.1	3688.9
24563	15.323	3.0909	0.1	3899.
24564	15.415	2.8182	0.1	3686.3
24565	15.323	2.9091	0.1	3899.
24566	15.415	2.6364	0.1	3669.
24567	15.323	2.7273	0.1	3917.7
24568	15.415	2.4545	0.1	3607.6
24569	15.323	2.5455	0.1	3937.6
24570	15.415	2.2727	0.1	3457.5
24571	15.323	2.3636	0.1	3907.
24572	15.415	2.0909	0.1	3194.2
24573	15.323	2.1818	0.1	3728.9
24574	15.415	1.9091	0.1	2839.2
24575	15.323	2.	0.1	3327.2
24576	15.415	1.7273	0.1	2449.3
24577	15.323	1.8182	0.1	2829.1
24578	15.415	1.5455	0.1	2080.7
24579	15.323	1.6364	0.1	2326.6
24580	15.415	1.3636	0.1	1758.8
24581	15.323	1.4545	0.1	1913.6
24582	15.415	1.1818	0.1	1489.6
24583	15.323	1.2727	0.1	1587.4
24584	15.415	1.	0.1	1268.3
24585	15.323	1.0909	0.1	1327.4
24586	15.415	0.81818	0.1	1086.7
24587	15.323	0.90909	0.1	1116.6
24588	15.415	0.63636	0.1	939.45
24589	15.323	0.72727	0.1	943.15
24590	15.415	0.45455	0.1	825.39
24591	15.323	0.54545	0.1	801.57
24592	15.415	0.27273	0.1	749.25
24593	15.323	0.36364	0.1	692.55
24594	15.323	0.18182	0.1	627.65
24595	15.415	9.0909e-002	0.1	688.98
24596	15.232	5.7273	0.1	573.32
24597	15.141	5.8182	0.1	436.55
24598	15.232	5.9091	0.1	494.73
24599	15.232	5.5455	0.1	675.58
24600	15.141	5.6364	0.1	542.18
24601	15.232	5.3636	0.1	815.46
24602	15.141	5.4545	0.1	686.04
24603	15.232	5.1818	0.1	985.21
24604	15.141	5.2727	0.1	853.02
24605	15.232	5.	0.1	1189.4
24606	15.141	5.0909	0.1	1047.
24607	15.232	4.8182	0.1	1440.5
24608	15.141	4.9091	0.1	1279.2
24609	15.232	4.6364	0.1	1758.8
24610	15.141	4.7273	0.1	1568.9
24611	15.232	4.4545	0.1	2174.2
24612	15.141	4.5455	0.1	1953.
24613	15.232	4.2727	0.1	2717.
24614	15.141	4.3636	0.1	2484.8
24615	15.232	4.0909	0.1	3318.6
24616	15.141	4.1818	0.1	3395.4
24617	15.232	3.9091	0.1	3857.
24618	15.141	4.	0.1	4469.3
24619	15.232	3.7273	0.1	4167.3
24620	15.141	3.8182	0.1	4806.
24621	15.232	3.5455	0.1	4226.6
24622	15.141	3.6364	0.1	4717.9
24623	15.232	3.3636	0.1	4178.5
24624	15.141	3.4545	0.1	4508.6
24625	15.232	3.1818	0.1	4124.2
24626	15.141	3.2727	0.1	4362.5
24627	15.232	3.	0.1	4103.3
24628	15.141	3.0909	0.1	4288.2
24629	15.232	2.8182	0.1	4124.2
24630	15.141	2.9091	0.1	4288.2
24631	15.232	2.6364	0.1	4178.5
24632	15.141	2.7273	0.1	4362.5
24633	15.232	2.4545	0.1	4226.6
24634	15.141	2.5455	0.1	4508.6
24635	15.232	2.2727	0.1	4167.3
24636	15.141	2.3636	0.1	4717.9
24637	15.232	2.0909	0.1	3857.
24638	15.141	2.1818	0.1	4806.
24639	15.232	1.9091	0.1	3318.6
24640	15.141	2.	0.1	4469.3
24641	15.232	1.7273	0.1	2717.
24642	15.141	1.8182	0.1	3395.4
24643	15.232	1.5455	0.1	2174.2
24644	15.141	1.6364	0.1	2484.8
24645	15.232	1.3636	0.1	1758.8
24646	15.141	1.4545	0.1	1953.
24647	15.232	1.1818	0.1	1440.5
24648	15.141	1.2727	0.1	1568.9
24649	15.232	1.	0.1	1189.4
24650	15.141	1.0909	0.1	1279.2
24651	15.232	0.81818	0.1	985.21
24652	15.141	0.90909	0.1	1047.
24653	15.232	0.63636	0.1	815.46
24654	15.141	0.72727	0.1	853.02
24655	15.232	0.45455	0.1	675.58
24656	15.141	0.54545	0.1	686.04
24657	15.232	0.27273	0.1	573.32
24658	15.141	0.36364	0.1	542.18
24659	15.141	0.18182	0.1	436.55
24660	15.232	9.0909e-002	0.1	494.73
24661	15.049	5.7273	0.1	416.13
24662	14.958	5.8182	0.1	250.31
24663	15.049	5.9091	0.1	283.44
24664	15.049	5.5455	0.1	568.7
24665	14.958	5.6364	0.1	389.95
24666	15.049	5.3636	0.1	740.1
24667	14.958	5.4545	0.1	532.66
24668	15.049	5.1818	0.1	931.75
24669	14.958	5.2727	0.1	683.09
24670	15.049	5.	0.1	1155.3
24671	14.958	5.0909	0.1	850.56
24672	15.049	4.8182	0.1	1429.6
24673	14.958	4.9091	0.1	1047.5
24674	15.049	4.6364	0.1	1790.8
24675	14.958	4.7273	0.1	1292.5
24676	15.049	4.4545	0.1	2303.9
24677	14.958	4.5455	0.1	1624.7
24678	15.049	4.2727	0.1	3197.3
24679	14.958	4.3636	0.1	2101.3
24680	15.049	4.0909	0.1	4535.2
24681	14.958	4.1818	0.1	2975.1
24682	15.049	3.9091	0.1	5377.7
24683	14.958	4.	0.1	8032.9
24684	15.049	3.7273	0.1	5328.8
24685	14.958	3.8182	0.1	6439.6
24686	15.049	3.5455	0.1	4988.6
24687	14.958	3.6364	0.1	5535.3
24688	15.049	3.3636	0.1	4686.4
24689	14.958	3.4545	0.1	4997.6
24690	15.049	3.1818	0.1	4521.7
24691	14.958	3.2727	0.1	4711.2
24692	15.049	3.	0.1	4468.5
24693	14.958	3.0909	0.1	4583.1
24694	15.049	2.8182	0.1	4521.7
24695	14.958	2.9091	0.1	4583.1
24696	15.049	2.6364	0.1	4686.4
24697	14.958	2.7273	0.1	4711.2
24698	15.049	2.4545	0.1	4988.6
24699	14.958	2.5455	0.1	4997.6
24700	15.049	2.2727	0.1	5328.8
24701	14.958	2.3636	0.1	5535.3
24702	15.049	2.0909	0.1	5377.7
24703	14.958	2.1818	0.1	6439.6
24704	15.049	1.9091	0.1	4535.2
24705	14.958	2.	0.1	8032.9
24706	15.049	1.7273	0.1	3197.3
24707	14.958	1.8182	0.1	2975.1
24708	15.049	1.5455	0.1	2303.9
24709	14.958	1.6364	0.1	2101.3
24710	15.049	1.3636	0.1	1790.8
24711	14.958	1.4545	0.1	1624.7
24712	15.049	1.1818	0.1	1429.6
24713	14.958	1.2727	0.1	1292.5
24714	15.049	1.	0.1	1155.3
24715	14.958	1.0909	0.1	1047.5
24716	15.049	0.81818	0.1	931.75
24717	14.958	0.90909	0.1	850.56
24718	15.049	0.63636	0.1	740.1
24719	14.958	0.72727	0.1	683.09
24720	15.049	0.45455	0.1	568.7
24721	14.958	0.54545	0.1	532.66
24722	15.049	0.27273	0.1	416.13
24723	14.958	0.36364	0.1	389.95
24724	14.958	0.18182	0.1	250.31
24725	15.049	9.0909e-002	0.1	283.44
24726	0.18375	0.27273	0.1	4172.7
24727	0.27562	0.18182	0.1	4457.4
24728	9.1875e-002	0.18182	0.1	3191.3
24729	0.18375	9.0909e-002	0.1	3687.3
24730	0.18375	0.45455	0.1	4829.9
24731	0.27562	0.36364	0.1	4821.5
24732	9.1875e-002	0.36364	0.1	4547.8
24733	0.18375	0.63636	0.1	5446.9
24734	0.27562	0.54545	0.1	5312.8
24735	9.1875e-002	0.54545	0.1	5428.1
24736	0.18375	0.81818	0.1	5913.
24737	0.27562	0.72727	0.1	5742.9
24738	9.1875e-002	0.72727	0.1	6020.4
24739	0.18375	1.	0.1	6263.
24740	0.27562	0.90909	0.1	6094.3
24741	9.1875e-002	0.90909	0.1	6437.1
24742	0.18375	1.1818	0.1	6528.4
24743	0.27562	1.0909	0.1	6373.8
24744	9.1875e-002	1.0909	0.1	6741.9
24745	0.18375	1.3636	0.1	6732.6
24746	0.27562	1.2727	0.1	6595.4
24747	9.1875e-002	1.2727	0.1	6971.2
24748	0.18375	1.5455	0.1	6891.5
24749	0.27562	1.4545	0.1	6771.4
24750	9.1875e-002	1.4545	0.1	7147.
24751	0.18375	1.7273	0.1	7015.9
24752	0.27562	1.6364	0.1	6911.3
24753	9.1875e-002	1.6364	0.1	7283.4
24754	0.18375	1.9091	0.1	7113.4
24755	0.27562	1.8182	0.1	7022.5
24756	9.1875e-002	1.8182	0.1	7389.8
24757	0.18375	2.0909	0.1	7189.2
24758	0.27562	2.	0.1	7110.1
24759	9.1875e-002	2.	0.1	7472.6
24760	0.18375	2.2727	0.1	7247.1
24761	0.27562	2.1818	0.1	7178.3
24762	9.1875e-002	2.1818	0.1	7536.3
24763	0.18375	2.4545	0.1	7289.7
24764	0.27562	2.3636	0.1	7229.9
24765	9.1875e-002	2.3636	0.1	7584.1
24766	0.18375	2.6364	0.1	7319.
24767	0.27562	2.5455	0.1	7266.9
24768	9.1875e-002	2.5455	0.1	7618.3
24769	0.18375	2.8182	0.1	7336.
24770	0.27562	2.7273	0.1	7290.9
24771	9.1875e-002	2.7273	0.1	7640.3
24772	0.18375	3.	0.1	7341.7
24773	0.27562	2.9091	0.1	7302.6
24774	9.1875e-002	2.9091	0.1	7651.1
24775	0.18375	3.1818	0.1	7336.
24776	0.27562	3.0909	0.1	7302.6
24777	9.1875e-002	3.0909	0.1	7651.1
24778	0.18375	3.3636	0.1	7319.
24779	0.27562	3.2727	0.1	7290.9
24780	9.1875e-002	3.2727	0.1	7640.3
24781	0.18375	3.5455	0.1	7289.7
24782	0.27562	3.4545	0.1	7266.9
24783	9.1875e-002	3.4545	0.1	7618.3
24784	0.18375	3.7273	0.1	7247.1
24785	0.27562	3.6364	0.1	7229.9
24786	9.1875e-002	3.6364	0.1	7584.1
24787	0.18375	3.9091	0.1	7189.2
24788	0.27562	3.8182	0.1	7178.3
24789	9.1875e-002	3.8182	0.1	7536.3
24790	0.18375	4.0909	0.1	7113.4
24791	0.27562	4.	0.1	7110.1
24792	9.1875e-002	4.	0.1	7472.6
24793	0.18375	4.2727	0.1	7015.9
24794	0.27562	4.1818	0.1	7022.5
24795	9.1875e-002	4.1818	0.1	7389.8
24796	0.18375	4.4545	0.1	6891.5
24797	0.27562	4.3636	0.1	6911.3
24798	9.1875e-002	4.3636	0.1	7283.4
24799	0.18375	4.6364	0.1	6732.6
24800	0.27562	4.5455	0.1	6771.4
24801	9.1875e-002	4.5455	0.1	7147.
24802	0.18375	4.8182	0.1	6528.4
24803	0.27562	4.7273	0.1	6595.4
24804	9.1875e-002	4.7273	0.1	6971.2
24805	0.18375	5.	0.1	6263.
24806	0.27562	4.9091	0.1	6373.8
24807	9.1875e-002	4.9091	0.1	6741.9
24808	0.18375	5.1818	0.1	5913.
24809	0.27562	5.0909	0.1	6094.3
24810	9.1875e-002	5.0909	0.1	6437.1
24811	0.18375	5.3636	0.1	5446.9
24812	0.27562	5.2727	0.1	5742.9
24813	9.1875e-002	5.2727	0.1	6020.4
24814	0.18375	5.5455	0.1	4829.9
24815	0.27562	5.4545	0.1	5312.8
24816	9.1875e-002	5.4545	0.1	5428.1
24817	0.18375	5.7273	0.1	4172.7
24818	0.27562	5.6364	0.1	4821.5
24819	9.1875e-002	5.6364	0.1	4547.8
24820	0.27562	5.8182	0.1	4457.4
24821	9.1875e-002	5.8182	0.1	3191.3
24822	0.18375	5.9091	0.1	3687.3
24823	0.3675	0.27273	0.1	5091.1
24824	0.45937	0.18182	0.1	5274.7
24825	0.3675	9.0909e-002	0.1	4872.5
24826	0.3675	0.45455	0.1	5304.2
24827	0.45937	0.36364	0.1	5340.1
24828	0.3675	0.63636	0.1	5616.
24829	0.45937	0.54545	0.1	5544.3
24830	0.3675	0.81818	0.1	5930.9
24831	0.45937	0.72727	0.1	5790.5
24832	0.3675	1.	0.1	6209.8
24833	0.45937	0.90909	0.1	6033.5
24834	0.3675	1.1818	0.1	6443.9
24835	0.45937	1.0909	0.1	6252.7
24836	0.3675	1.3636	0.1	6636.1
24837	0.45937	1.2727	0.1	6441.6
24838	0.3675	1.5455	0.1	6792.4
24839	0.45937	1.4545	0.1	6600.5
24840	0.3675	1.7273	0.1	6918.6
24841	0.45937	1.6364	0.1	6732.2
24842	0.3675	1.9091	0.1	7019.7
24843	0.45937	1.8182	0.1	6840.
24844	0.3675	2.0909	0.1	7099.6
24845	0.45937	2.	0.1	6926.9
24846	0.3675	2.2727	0.1	7161.3
24847	0.45937	2.1818	0.1	6995.6
24848	0.3675	2.4545	0.1	7207.2
24849	0.45937	2.3636	0.1	7048.2
24850	0.3675	2.6364	0.1	7238.9
24851	0.45937	2.5455	0.1	7086.3
24852	0.3675	2.8182	0.1	7257.5
24853	0.45937	2.7273	0.1	7111.1
24854	0.3675	3.	0.1	7263.6
24855	0.45937	2.9091	0.1	7123.3
24856	0.3675	3.1818	0.1	7257.5
24857	0.45937	3.0909	0.1	7123.3
24858	0.3675	3.3636	0.1	7238.9
24859	0.45937	3.2727	0.1	7111.1
24860	0.3675	3.5455	0.1	7207.2
24861	0.45937	3.4545	0.1	7086.3
24862	0.3675	3.7273	0.1	7161.3
24863	0.45937	3.6364	0.1	7048.2
24864	0.3675	3.9091	0.1	7099.6
24865	0.45937	3.8182	0.1	6995.6
24866	0.3675	4.0909	0.1	7019.7
24867	0.45937	4.	0.1	6926.9
24868	0.3675	4.2727	0.1	6918.6
24869	0.45937	4.1818	0.1	6840.
24870	0.3675	4.4545	0.1	6792.4
24871	0.45937	4.3636	0.1	6732.2
24872	0.3675	4.6364	0.1	6636.1
24873	0.45937	4.5455	0.1	6600.5
24874	0.3675	4.8182	0.1	6443.9
24875	0.45937	4.7273	0.1	6441.6
24876	0.3675	5.	0.1	6209.8
24877	0.45937	4.9091	0.1	6252.7
24878	0.3675	5.1818	0.1	5930.9
24879	0.45937	5.0909	0.1	6033.5
24880	0.3675	5.3636	0.1	5616.
24881	0.45937	5.2727	0.1	5790.5
24882	0.3675	5.5455	0.1	5304.2
24883	0.45937	5.4545	0.1	5544.3
24884	0.3675	5.7273	0.1	5091.1
24885	0.45937	5.6364	0.1	5340.1
24886	0.45937	5.8182	0.1	5274.7
24887	0.3675	5.9091	0.1	4872.5
24888	0.55125	0.27273	0.1	5522.1
24889	0.64312	0.18182	0.1	5666.5
24890	0.55125	9.0909e-002	0.1	5414.1
24891	0.55125	0.45455	0.1	5576.3
24892	0.64312	0.36364	0.1	5643.8
24893	0.55125	0.63636	0.1	5715.6
24894	0.64312	0.54545	0.1	5719.7
24895	0.55125	0.81818	0.1	5892.
24896	0.64312	0.72727	0.1	5842.7
24897	0.55125	1.	0.1	6076.6
24898	0.64312	0.90909	0.1	5989.
24899	0.55125	1.1818	0.1	6251.
24900	0.64312	1.0909	0.1	6139.4
24901	0.55125	1.3636	0.1	6406.7
24902	0.64312	1.2727	0.1	6281.9
24903	0.55125	1.5455	0.1	6540.9
24904	0.64312	1.4545	0.1	6410.4
24905	0.55125	1.7273	0.1	6654.
24906	0.64312	1.6364	0.1	6522.4
24907	0.55125	1.9091	0.1	6747.5
24908	0.64312	1.8182	0.1	6617.6
24909	0.55125	2.0909	0.1	6823.1
24910	0.64312	2.	0.1	6696.6
24911	0.55125	2.2727	0.1	6882.6
24912	0.64312	2.1818	0.1	6760.4
24913	0.55125	2.4545	0.1	6927.4
24914	0.64312	2.3636	0.1	6810.1
24915	0.55125	2.6364	0.1	6958.6
24916	0.64312	2.5455	0.1	6846.5
24917	0.55125	2.8182	0.1	6977.
24918	0.64312	2.7273	0.1	6870.3
24919	0.55125	3.	0.1	6983.
24920	0.64312	2.9091	0.1	6882.1
24921	0.55125	3.1818	0.1	6977.
24922	0.64312	3.0909	0.1	6882.1
24923	0.55125	3.3636	0.1	6958.6
24924	0.64312	3.2727	0.1	6870.3
24925	0.55125	3.5455	0.1	6927.4
24926	0.64312	3.4545	0.1	6846.5
24927	0.55125	3.7273	0.1	6882.6
24928	0.64312	3.6364	0.1	6810.1
24929	0.55125	3.9091	0.1	6823.1
24930	0.64312	3.8182	0.1	6760.4
24931	0.55125	4.0909	0.1	6747.5
24932	0.64312	4.	0.1	6696.6
24933	0.55125	4.2727	0.1	6654.
24934	0.64312	4.1818	0.1	6617.6
24935	0.55125	4.4545	0.1	6540.9
24936	0.64312	4.3636	0.1	6522.4
24937	0.55125	4.6364	0.1	6406.7
24938	0.64312	4.5455	0.1	6410.4
24939	0.55125	4.8182	0.1	6251.
24940	0.64312	4.7273	0.1	6281.9
24941	0.55125	5.	0.1	6076.6
24942	0.64312	4.9091	0.1	6139.4
24943	0.55125	5.1818	0.1	5892.
24944	0.64312	5.0909	0.1	5989.
24945	0.55125	5.3636	0.1	5715.6
24946	0.64312	5.2727	0.1	5842.7
24947	0.55125	5.5455	0.1	5576.3
24948	0.64312	5.4545	0.1	5719.7
24949	0.55125	5.7273	0.1	5522.1
24950	0.64312	5.6364	0.1	5643.8
24951	0.64312	5.8182	0.1	5666.5
24952	0.55125	5.9091	0.1	5414.1
24953	0.735	0.27273	0.1	5788.2
24954	0.82687	0.18182	0.1	5885.5
24955	0.735	9.0909e-002	0.1	5723.2
24956	0.735	0.45455	0.1	5786.3
24957	0.82687	0.36364	0.1	5836.5
24958	0.735	0.63636	0.1	5845.1
24959	0.82687	0.54545	0.1	5857.
24960	0.735	0.81818	0.1	5938.1
24961	0.82687	0.72727	0.1	5913.
24962	0.735	1.	0.1	6050.8
24963	0.82687	0.90909	0.1	5994.2
24964	0.735	1.1818	0.1	6169.9
24965	0.82687	1.0909	0.1	6089.2
24966	0.735	1.3636	0.1	6285.6
24967	0.82687	1.2727	0.1	6188.3
24968	0.735	1.5455	0.1	6392.
24969	0.82687	1.4545	0.1	6284.4
24970	0.735	1.7273	0.1	6486.1
24971	0.82687	1.6364	0.1	6372.9
24972	0.735	1.9091	0.1	6566.8
24973	0.82687	1.8182	0.1	6451.4
24974	0.735	2.0909	0.1	6634.
24975	0.82687	2.	0.1	6518.7
24976	0.735	2.2727	0.1	6687.9
24977	0.82687	2.1818	0.1	6574.5
24978	0.735	2.4545	0.1	6729.2
24979	0.82687	2.3636	0.1	6618.6
24980	0.735	2.6364	0.1	6758.2
24981	0.82687	2.5455	0.1	6651.5
24982	0.735	2.8182	0.1	6775.4
24983	0.82687	2.7273	0.1	6673.2
24984	0.735	3.	0.1	6781.2
24985	0.82687	2.9091	0.1	6684.
24986	0.735	3.1818	0.1	6775.4
24987	0.82687	3.0909	0.1	6684.
24988	0.735	3.3636	0.1	6758.2
24989	0.82687	3.2727	0.1	6673.2
24990	0.735	3.5455	0.1	6729.2
24991	0.82687	3.4545	0.1	6651.5
24992	0.735	3.7273	0.1	6687.9
24993	0.82687	3.6364	0.1	6618.6
24994	0.735	3.9091	0.1	6634.
24995	0.82687	3.8182	0.1	6574.5
24996	0.735	4.0909	0.1	6566.8
24997	0.82687	4.	0.1	6518.7
24998	0.735	4.2727	0.1	6486.1
24999	0.82687	4.1818	0.1	6451.4
25000	0.735	4.4545	0.1	6392.
25001	0.82687	4.3636	0.1	6372.9
25002	0.735	4.6364	0.1	6285.6
25003	0.82687	4.5455	0.1	6284.4
25004	0.735	4.8182	0.1	6169.9
25005	0.82687	4.7273	0.1	6188.3
25006	0.735	5.	0.1	6050.8
25007	0.82687	4.9091	0.1	6089.2
25008	0.735	5.1818	0.1	5938.1
25009	0.82687	5.0909	0.1	5994.2
25010	0.735	5.3636	0.1	5845.1
25011	0.82687	5.2727	0.1	5913.
25012	0.735	5.5455	0.1	5786.3
25013	0.82687	5.4545	0.1	5857.
25014	0.735	5.7273	0.1	5788.2
25015	0.82687	5.6364	0.1	5836.5
25016	0.82687	5.8182	0.1	5885.5
25017	0.735	5.9091	0.1	5723.2
25018	0.91875	0.27273	0.1	5934.3
25019	1.0106	0.18182	0.1	6001.9
25020	0.91875	9.0909e-002	0.1	5894.7
25021	0.91875	0.45455	0.1	5907.4
25022	1.0106	0.36364	0.1	5944.3
25023	0.91875	0.63636	0.1	5924.3
25024	1.0106	0.54545	0.1	5937.7
25025	0.91875	0.81818	0.1	5968.
25026	1.0106	0.72727	0.1	5956.8
25027	0.91875	1.	0.1	6031.5
25028	1.0106	0.90909	0.1	5996.8
25029	0.91875	1.1818	0.1	6106.8
25030	1.0106	1.0909	0.1	6051.9
25031	0.91875	1.3636	0.1	6186.6
25032	1.0106	1.2727	0.1	6115.8
25033	0.91875	1.5455	0.1	6265.
25034	1.0106	1.4545	0.1	6182.7
25035	0.91875	1.7273	0.1	6338.
25036	1.0106	1.6364	0.1	6248.1
25037	0.91875	1.9091	0.1	6403.2
25038	1.0106	1.8182	0.1	6308.8
25039	0.91875	2.0909	0.1	6459.1
25040	1.0106	2.	0.1	6362.7
25041	0.91875	2.2727	0.1	6505.1
25042	1.0106	2.1818	0.1	6408.5
25043	0.91875	2.4545	0.1	6540.9
25044	1.0106	2.3636	0.1	6445.6
25045	0.91875	2.6364	0.1	6566.4
25046	1.0106	2.5455	0.1	6473.6
25047	0.91875	2.8182	0.1	6581.6
25048	1.0106	2.7273	0.1	6492.3
25049	0.91875	3.	0.1	6586.7
25050	1.0106	2.9091	0.1	6501.7
25051	0.91875	3.1818	0.1	6581.6
25052	1.0106	3.0909	0.1	6501.7
25053	0.91875	3.3636	0.1	6566.4
25054	1.0106	3.2727	0.1	6492.3
25055	0.91875	3.5455	0.1	6540.9
25056	1.0106	3.4545	0.1	6473.6
25057	0.91875	3.7273	0.1	6505.1
25058	1.0106	3.6364	0.1	6445.6
25059	0.91875	3.9091	0.1	6459.1
25060	1.0106	3.8182	0.1	6408.5
25061	0.91875	4.0909	0.1	6403.2
25062	1.0106	4.	0.1	6362.7
25063	0.91875	4.2727	0.1	6338.
25064	1.0106	4.1818	0.1	6308.8
25065	0.91875	4.4545	0.1	6265.
25066	1.0106	4.3636	0.1	6248.1
25067	0.91875	4.6364	0.1	6186.6
25068	1.0106	4.5455	0.1	6182.7
25069	0.91875	4.8182	0.1	6106.8
25070	1.0106	4.7273	0.1	6115.8
25071	0.91875	5.	0.1	6031.5
25072	1.0106	4.9091	0.1	6051.9
25073	0.91875	5.1818	0.1	5968.
25074	1.0106	5.0909	0.1	5996.8
25075	0.91875	5.3636	0.1	5924.3
25076	1.0106	5.2727	0.1	5956.8
25077	0.91875	5.5455	0.1	5907.4
25078	1.0106	5.4545	0.1	5937.7
25079	0.91875	5.7273	0.1	5934.3
25080	1.0106	5.6364	0.1	5944.3
25081	1.0106	5.8182	0.1	6001.9
25082	0.91875	5.9091	0.1	5894.7
25083	1.1025	0.27273	0.1	6012.4
25084	1.1944	0.18182	0.1	6057.6
25085	1.1025	9.0909e-002	0.1	5988.3
25086	1.1025	0.45455	0.1	5975.1
25087	1.1944	0.36364	0.1	5999.
25088	1.1025	0.63636	0.1	5970.1
25089	1.1944	0.54545	0.1	5978.9
25090	1.1025	0.81818	0.1	5985.
25091	1.1944	0.72727	0.1	5977.2
25092	1.1025	1.	0.1	6016.5
25093	1.1944	0.90909	0.1	5991.8
25094	1.1025	1.1818	0.1	6060.2
25095	1.1944	1.0909	0.1	6019.7
25096	1.1025	1.3636	0.1	6111.4
25097	1.1944	1.2727	0.1	6057.3
25098	1.1025	1.5455	0.1	6165.4
25099	1.1944	1.4545	0.1	6100.4
25100	1.1025	1.7273	0.1	6218.5
25101	1.1944	1.6364	0.1	6145.5
25102	1.1025	1.9091	0.1	6268.
25103	1.1944	1.8182	0.1	6189.4
25104	1.1025	2.0909	0.1	6311.9
25105	1.1944	2.	0.1	6230.
25106	1.1025	2.2727	0.1	6348.9
25107	1.1944	2.1818	0.1	6265.6
25108	1.1025	2.4545	0.1	6378.2
25109	1.1944	2.3636	0.1	6295.1
25110	1.1025	2.6364	0.1	6399.5
25111	1.1944	2.5455	0.1	6317.7
25112	1.1025	2.8182	0.1	6412.3
25113	1.1944	2.7273	0.1	6333.
25114	1.1025	3.	0.1	6416.6
25115	1.1944	2.9091	0.1	6340.7
25116	1.1025	3.1818	0.1	6412.3
25117	1.1944	3.0909	0.1	6340.7
25118	1.1025	3.3636	0.1	6399.5
25119	1.1944	3.2727	0.1	6333.
25120	1.1025	3.5455	0.1	6378.2
25121	1.1944	3.4545	0.1	6317.7
25122	1.1025	3.7273	0.1	6348.9
25123	1.1944	3.6364	0.1	6295.1
25124	1.1025	3.9091	0.1	6311.9
25125	1.1944	3.8182	0.1	6265.6
25126	1.1025	4.0909	0.1	6268.
25127	1.1944	4.	0.1	6230.
25128	1.1025	4.2727	0.1	6218.5
25129	1.1944	4.1818	0.1	6189.4
25130	1.1025	4.4545	0.1	6165.4
25131	1.1944	4.3636	0.1	6145.5
25132	1.1025	4.6364	0.1	6111.4
25133	1.1944	4.5455	0.1	6100.4
25134	1.1025	4.8182	0.1	6060.2
25135	1.1944	4.7273	0.1	6057.3
25136	1.1025	5.	0.1	6016.5
25137	1.1944	4.9091	0.1	6019.7
25138	1.1025	5.1818	0.1	5985.
25139	1.1944	5.0909	0.1	5991.8
25140	1.1025	5.3636	0.1	5970.1
25141	1.1944	5.2727	0.1	5977.2
25142	1.1025	5.5455	0.1	5975.1
25143	1.1944	5.4545	0.1	5978.9
25144	1.1025	5.7273	0.1	6012.4
25145	1.1944	5.6364	0.1	5999.
25146	1.1944	5.8182	0.1	6057.6
25147	1.1025	5.9091	0.1	5988.3
25148	1.2862	0.27273	0.1	6044.7
25149	1.3781	0.18182	0.1	6073.7
25150	1.2862	9.0909e-002	0.1	6031.3
25151	1.2862	0.45455	0.1	6003.3
25152	1.3781	0.36364	0.1	6017.
25153	1.2862	0.63636	0.1	5986.2
25154	1.3781	0.54545	0.1	5990.
25155	1.2862	0.81818	0.1	5983.9
25156	1.3781	0.72727	0.1	5976.4
25157	1.2862	1.	0.1	5994.6
25158	1.3781	0.90909	0.1	5975.1
25159	1.2862	1.1818	0.1	6016.2
25160	1.3781	1.0909	0.1	5984.7
25161	1.2862	1.3636	0.1	6045.8
25162	1.3781	1.2727	0.1	6003.3
25163	1.2862	1.5455	0.1	6080.
25164	1.3781	1.4545	0.1	6028.1
25165	1.2862	1.7273	0.1	6116.
25166	1.3781	1.6364	0.1	6056.5
25167	1.2862	1.9091	0.1	6151.1
25168	1.3781	1.8182	0.1	6086.
25169	1.2862	2.0909	0.1	6183.5
25170	1.3781	2.	0.1	6114.5
25171	1.2862	2.2727	0.1	6211.5
25172	1.3781	2.1818	0.1	6140.4
25173	1.2862	2.4545	0.1	6234.3
25174	1.3781	2.3636	0.1	6162.4
25175	1.2862	2.6364	0.1	6250.9
25176	1.3781	2.5455	0.1	6179.6
25177	1.2862	2.8182	0.1	6261.1
25178	1.3781	2.7273	0.1	6191.3
25179	1.2862	3.	0.1	6264.5
25180	1.3781	2.9091	0.1	6197.3
25181	1.2862	3.1818	0.1	6261.1
25182	1.3781	3.0909	0.1	6197.3
25183	1.2862	3.3636	0.1	6250.9
25184	1.3781	3.2727	0.1	6191.3
25185	1.2862	3.5455	0.1	6234.3
25186	1.3781	3.4545	0.1	6179.6
25187	1.2862	3.7273	0.1	6211.5
25188	1.3781	3.6364	0.1	6162.4
25189	1.2862	3.9091	0.1	6183.5
25190	1.3781	3.8182	0.1	6140.4
25191	1.2862	4.0909	0.1	6151.1
25192	1.3781	4.	0.1	6114.5
25193	1.2862	4.2727	0.1	6116.
25194	1.3781	4.1818	0.1	6086.
25195	1.2862	4.4545	0.1	6080.
25196	1.3781	4.3636	0.1	6056.5
25197	1.2862	4.6364	0.1	6045.8
25198	1.3781	4.5455	0.1	6028.1
25199	1.2862	4.8182	0.1	6016.2
25200	1.3781	4.7273	0.1	6003.3
25201	1.2862	5.	0.1	5994.6
25202	1.3781	4.9091	0.1	5984.7
25203	1.2862	5.1818	0.1	5983.9
25204	1.3781	5.0909	0.1	5975.1
25205	1.2862	5.3636	0.1	5986.2
25206	1.3781	5.2727	0.1	5976.4
25207	1.2862	5.5455	0.1	6003.3
25208	1.3781	5.4545	0.1	5990.
25209	1.2862	5.7273	0.1	6044.7
25210	1.3781	5.6364	0.1	6017.
25211	1.3781	5.8182	0.1	6073.7
25212	1.2862	5.9091	0.1	6031.3
25213	1.47	0.27273	0.1	6046.5
25214	1.5619	0.18182	0.1	6063.4
25215	1.47	9.0909e-002	0.1	6040.8
25216	1.47	0.45455	0.1	6004.2
25217	1.5619	0.36364	0.1	6009.7
25218	1.47	0.63636	0.1	5980.4
25219	1.5619	0.54545	0.1	5979.4
25220	1.47	0.81818	0.1	5967.6
25221	1.5619	0.72727	0.1	5958.9
25222	1.47	1.	0.1	5965.
25223	1.5619	0.90909	0.1	5947.7
25224	1.47	1.1818	0.1	5971.5
25225	1.5619	1.0909	0.1	5945.2
25226	1.47	1.3636	0.1	5985.2
25227	1.5619	1.2727	0.1	5950.4
25228	1.47	1.5455	0.1	6004.2
25229	1.5619	1.4545	0.1	5961.6
25230	1.47	1.7273	0.1	6026.2
25231	1.5619	1.6364	0.1	5976.9
25232	1.47	1.9091	0.1	6049.1
25233	1.5619	1.8182	0.1	5994.5
25234	1.47	2.0909	0.1	6071.1
25235	1.5619	2.	0.1	6012.7
25236	1.47	2.2727	0.1	6091.
25237	1.5619	2.1818	0.1	6030.
25238	1.47	2.4545	0.1	6107.4
25239	1.5619	2.3636	0.1	6045.1
25240	1.47	2.6364	0.1	6119.7
25241	1.5619	2.5455	0.1	6057.3
25242	1.47	2.8182	0.1	6127.2
25243	1.5619	2.7273	0.1	6065.7
25244	1.47	3.	0.1	6129.8
25245	1.5619	2.9091	0.1	6070.
25246	1.47	3.1818	0.1	6127.2
25247	1.5619	3.0909	0.1	6070.
25248	1.47	3.3636	0.1	6119.7
25249	1.5619	3.2727	0.1	6065.7
25250	1.47	3.5455	0.1	6107.4
25251	1.5619	3.4545	0.1	6057.3
25252	1.47	3.7273	0.1	6091.
25253	1.5619	3.6364	0.1	6045.1
25254	1.47	3.9091	0.1	6071.1
25255	1.5619	3.8182	0.1	6030.
25256	1.47	4.0909	0.1	6049.1
25257	1.5619	4.	0.1	6012.7
25258	1.47	4.2727	0.1	6026.2
25259	1.5619	4.1818	0.1	5994.5
25260	1.47	4.4545	0.1	6004.2
25261	1.5619	4.3636	0.1	5976.9
25262	1.47	4.6364	0.1	5985.2
25263	1.5619	4.5455	0.1	5961.6
25264	1.47	4.8182	0.1	5971.5
25265	1.5619	4.7273	0.1	5950.4
25266	1.47	5.	0.1	5965.
25267	1.5619	4.9091	0.1	5945.2
25268	1.47	5.1818	0.1	5967.6
25269	1.5619	5.0909	0.1	5947.7
25270	1.47	5.3636	0.1	5980.4
25271	1.5619	5.2727	0.1	5958.9
25272	1.47	5.5455	0.1	6004.2
25273	1.5619	5.4545	0.1	5979.4
25274	1.47	5.7273	0.1	6046.5
25275	1.5619	5.6364	0.1	6009.7
25276	1.5619	5.8182	0.1	6063.4
25277	1.47	5.9091	0.1	6040.8
25278	1.6537	0.27273	0.1	6027.1
25279	1.7456	0.18182	0.1	6035.
25280	1.6537	9.0909e-002	0.1	6027.2
25281	1.6537	0.45455	0.1	5985.4
25282	1.7456	0.36364	0.1	5984.7
25283	1.6537	0.63636	0.1	5958.2
25284	1.7456	0.54545	0.1	5953.
25285	1.6537	0.81818	0.1	5939.
25286	1.7456	0.72727	0.1	5928.6
25287	1.6537	1.	0.1	5927.8
25288	1.7456	0.90909	0.1	5911.2
25289	1.6537	1.1818	0.1	5923.9
25290	1.7456	1.0909	0.1	5900.7
25291	1.6537	1.3636	0.1	5926.4
25292	1.7456	1.2727	0.1	5896.6
25293	1.6537	1.5455	0.1	5933.9
25294	1.7456	1.4545	0.1	5897.9
25295	1.6537	1.7273	0.1	5944.9
25296	1.7456	1.6364	0.1	5903.3
25297	1.6537	1.9091	0.1	5957.8
25298	1.7456	1.8182	0.1	5911.6
25299	1.6537	2.0909	0.1	5971.2
25300	1.7456	2.	0.1	5921.3
25301	1.6537	2.2727	0.1	5983.9
25302	1.7456	2.1818	0.1	5931.3
25303	1.6537	2.4545	0.1	5994.7
25304	1.7456	2.3636	0.1	5940.6
25305	1.6537	2.6364	0.1	6003.
25306	1.7456	2.5455	0.1	5948.3
25307	1.6537	2.8182	0.1	6008.2
25308	1.7456	2.7273	0.1	5953.8
25309	1.6537	3.	0.1	6009.9
25310	1.7456	2.9091	0.1	5956.6
25311	1.6537	3.1818	0.1	6008.2
25312	1.7456	3.0909	0.1	5956.6
25313	1.6537	3.3636	0.1	6003.
25314	1.7456	3.2727	0.1	5953.8
25315	1.6537	3.5455	0.1	5994.7
25316	1.7456	3.4545	0.1	5948.3
25317	1.6537	3.7273	0.1	5983.9
25318	1.7456	3.6364	0.1	5940.6
25319	1.6537	3.9091	0.1	5971.2
25320	1.7456	3.8182	0.1	5931.3
25321	1.6537	4.0909	0.1	5957.8
25322	1.7456	4.	0.1	5921.3
25323	1.6537	4.2727	0.1	5944.9
25324	1.7456	4.1818	0.1	5911.6
25325	1.6537	4.4545	0.1	5933.9
25326	1.7456	4.3636	0.1	5903.3
25327	1.6537	4.6364	0.1	5926.4
25328	1.7456	4.5455	0.1	5897.9
25329	1.6537	4.8182	0.1	5923.9
25330	1.7456	4.7273	0.1	5896.6
25331	1.6537	5.	0.1	5927.8
25332	1.7456	4.9091	0.1	5900.7
25333	1.6537	5.1818	0.1	5939.
25334	1.7456	5.0909	0.1	5911.2
25335	1.6537	5.3636	0.1	5958.2
25336	1.7456	5.2727	0.1	5928.6
25337	1.6537	5.5455	0.1	5985.4
25338	1.7456	5.4545	0.1	5953.
25339	1.6537	5.7273	0.1	6027.1
25340	1.7456	5.6364	0.1	5984.7
25341	1.7456	5.8182	0.1	6035.
25342	1.6537	5.9091	0.1	6027.2
25343	1.8375	0.27273	0.1	5992.9
25344	1.9294	0.18182	0.1	5993.8
25345	1.8375	9.0909e-002	0.1	5997.5
25346	1.8375	0.45455	0.1	5952.7
25347	1.9294	0.36364	0.1	5947.
25348	1.8375	0.63636	0.1	5923.7
25349	1.9294	0.54545	0.1	5915.1
25350	1.8375	0.81818	0.1	5900.9
25351	1.9294	0.72727	0.1	5888.6
25352	1.8375	1.	0.1	5884.2
25353	1.9294	0.90909	0.1	5867.5
25354	1.8375	1.1818	0.1	5873.3
25355	1.9294	1.0909	0.1	5851.9
25356	1.8375	1.3636	0.1	5867.9
25357	1.9294	1.2727	0.1	5841.4
25358	1.8375	1.5455	0.1	5867.
25359	1.9294	1.4545	0.1	5835.6
25360	1.8375	1.7273	0.1	5869.7
25361	1.9294	1.6364	0.1	5833.7
25362	1.8375	1.9091	0.1	5874.7
25363	1.9294	1.8182	0.1	5834.8
25364	1.8375	2.0909	0.1	5881.1
25365	1.9294	2.	0.1	5837.9
25366	1.8375	2.2727	0.1	5887.8
25367	1.9294	2.1818	0.1	5842.1
25368	1.8375	2.4545	0.1	5893.9
25369	1.9294	2.3636	0.1	5846.5
25370	1.8375	2.6364	0.1	5898.7
25371	1.9294	2.5455	0.1	5850.5
25372	1.8375	2.8182	0.1	5901.9
25373	1.9294	2.7273	0.1	5853.4
25374	1.8375	3.	0.1	5902.9
25375	1.9294	2.9091	0.1	5855.
25376	1.8375	3.1818	0.1	5901.9
25377	1.9294	3.0909	0.1	5855.
25378	1.8375	3.3636	0.1	5898.7
25379	1.9294	3.2727	0.1	5853.4
25380	1.8375	3.5455	0.1	5893.9
25381	1.9294	3.4545	0.1	5850.5
25382	1.8375	3.7273	0.1	5887.8
25383	1.9294	3.6364	0.1	5846.5
25384	1.8375	3.9091	0.1	5881.1
25385	1.9294	3.8182	0.1	5842.1
25386	1.8375	4.0909	0.1	5874.7
25387	1.9294	4.	0.1	5837.9
25388	1.8375	4.2727	0.1	5869.7
25389	1.9294	4.1818	0.1	5834.8
25390	1.8375	4.4545	0.1	5867.
25391	1.9294	4.3636	0.1	5833.7
25392	1.8375	4.6364	0.1	5867.9
25393	1.9294	4.5455	0.1	5835.6
25394	1.8375	4.8182	0.1	5873.3
25395	1.9294	4.7273	0.1	5841.4
25396	1.8375	5.	0.1	5884.2
25397	1.9294	4.9091	0.1	5851.9
25398	1.8375	5.1818	0.1	5900.9
25399	1.9294	5.0909	0.1	5867.5
25400	1.8375	5.3636	0.1	5923.7
25401	1.9294	5.2727	0.1	5888.6
25402	1.8375	5.5455	0.1	5952.7
25403	1.9294	5.4545	0.1	5915.1
25404	1.8375	5.7273	0.1	5992.9
25405	1.9294	5.6364	0.1	5947.
25406	1.9294	5.8182	0.1	5993.8
25407	1.8375	5.9091	0.1	5997.5
25408	2.0213	0.27273	0.1	5948.2
25409	2.1131	0.18182	0.1	5943.7
25410	2.0213	9.0909e-002	0.1	5956.1
25411	2.0213	0.45455	0.1	5909.8
25412	2.1131	0.36364	0.1	5900.4
25413	2.0213	0.63636	0.1	5880.3
25414	2.1131	0.54545	0.1	5868.9
25415	2.0213	0.81818	0.1	5855.5
25416	2.1131	0.72727	0.1	5841.5
25417	2.0213	1.	0.1	5835.3
25418	2.1131	0.90909	0.1	5818.3
25419	2.0213	1.1818	0.1	5819.9
25420	2.1131	1.0909	0.1	5799.4
25421	2.0213	1.3636	0.1	5809.
25422	2.1131	1.2727	0.1	5784.7
25423	2.0213	1.5455	0.1	5802.2
25424	2.1131	1.4545	0.1	5774.
25425	2.0213	1.7273	0.1	5798.6
25426	2.1131	1.6364	0.1	5766.9
25427	2.0213	1.9091	0.1	5797.7
25428	2.1131	1.8182	0.1	5762.6
25429	2.0213	2.0909	0.1	5798.6
25430	2.1131	2.	0.1	5760.7
25431	2.0213	2.2727	0.1	5800.5
25432	2.1131	2.1818	0.1	5760.3
25433	2.0213	2.4545	0.1	5802.8
25434	2.1131	2.3636	0.1	5760.9
25435	2.0213	2.6364	0.1	5804.8
25436	2.1131	2.5455	0.1	5761.8
25437	2.0213	2.8182	0.1	5806.2
25438	2.1131	2.7273	0.1	5762.7
25439	2.0213	3.	0.1	5806.7
25440	2.1131	2.9091	0.1	5763.2
25441	2.0213	3.1818	0.1	5806.2
25442	2.1131	3.0909	0.1	5763.2
25443	2.0213	3.3636	0.1	5804.8
25444	2.1131	3.2727	0.1	5762.7
25445	2.0213	3.5455	0.1	5802.8
25446	2.1131	3.4545	0.1	5761.8
25447	2.0213	3.7273	0.1	5800.5
25448	2.1131	3.6364	0.1	5760.9
25449	2.0213	3.9091	0.1	5798.6
25450	2.1131	3.8182	0.1	5760.3
25451	2.0213	4.0909	0.1	5797.7
25452	2.1131	4.	0.1	5760.7
25453	2.0213	4.2727	0.1	5798.6
25454	2.1131	4.1818	0.1	5762.6
25455	2.0213	4.4545	0.1	5802.2
25456	2.1131	4.3636	0.1	5766.9
25457	2.0213	4.6364	0.1	5809.
25458	2.1131	4.5455	0.1	5774.
25459	2.0213	4.8182	0.1	5819.9
25460	2.1131	4.7273	0.1	5784.7
25461	2.0213	5.	0.1	5835.3
25462	2.1131	4.9091	0.1	5799.4
25463	2.0213	5.1818	0.1	5855.5
25464	2.1131	5.0909	0.1	5818.3
25465	2.0213	5.3636	0.1	5880.3
25466	2.1131	5.2727	0.1	5841.5
25467	2.0213	5.5455	0.1	5909.8
25468	2.1131	5.4545	0.1	5868.9
25469	2.0213	5.7273	0.1	5948.2
25470	2.1131	5.6364	0.1	5900.4
25471	2.1131	5.8182	0.1	5943.7
25472	2.0213	5.9091	0.1	5956.1
25473	2.205	0.27273	0.1	5896.1
25474	2.2969	0.18182	0.1	5887.4
25475	2.205	9.0909e-002	0.1	5906.6
25476	2.205	0.45455	0.1	5859.7
25477	2.2969	0.36364	0.1	5847.3
25478	2.205	0.63636	0.1	5830.4
25479	2.2969	0.54545	0.1	5816.7
25480	2.205	0.81818	0.1	5804.6
25481	2.2969	0.72727	0.1	5789.2
25482	2.205	1.	0.1	5782.5
25483	2.2969	0.90909	0.1	5765.
25484	2.205	1.1818	0.1	5764.2
25485	2.2969	1.0909	0.1	5744.2
25486	2.205	1.3636	0.1	5749.7
25487	2.2969	1.2727	0.1	5726.8
25488	2.205	1.5455	0.1	5738.6
25489	2.2969	1.4545	0.1	5712.8
25490	2.205	1.7273	0.1	5730.7
25491	2.2969	1.6364	0.1	5702.
25492	2.205	1.9091	0.1	5725.4
25493	2.2969	1.8182	0.1	5693.9
25494	2.205	2.0909	0.1	5722.1
25495	2.2969	2.	0.1	5688.2
25496	2.205	2.2727	0.1	5720.4
25497	2.2969	2.1818	0.1	5684.4
25498	2.205	2.4545	0.1	5719.6
25499	2.2969	2.3636	0.1	5682.
25500	2.205	2.6364	0.1	5719.4
25501	2.2969	2.5455	0.1	5680.7
25502	2.205	2.8182	0.1	5719.4
25503	2.2969	2.7273	0.1	5679.9
25504	2.205	3.	0.1	5719.4
25505	2.2969	2.9091	0.1	5679.6
25506	2.205	3.1818	0.1	5719.4
25507	2.2969	3.0909	0.1	5679.6
25508	2.205	3.3636	0.1	5719.4
25509	2.2969	3.2727	0.1	5679.9
25510	2.205	3.5455	0.1	5719.6
25511	2.2969	3.4545	0.1	5680.7
25512	2.205	3.7273	0.1	5720.4
25513	2.2969	3.6364	0.1	5682.
25514	2.205	3.9091	0.1	5722.1
25515	2.2969	3.8182	0.1	5684.4
25516	2.205	4.0909	0.1	5725.4
25517	2.2969	4.	0.1	5688.2
25518	2.205	4.2727	0.1	5730.7
25519	2.2969	4.1818	0.1	5693.9
25520	2.205	4.4545	0.1	5738.6
25521	2.2969	4.3636	0.1	5702.
25522	2.205	4.6364	0.1	5749.7
25523	2.2969	4.5455	0.1	5712.8
25524	2.205	4.8182	0.1	5764.2
25525	2.2969	4.7273	0.1	5726.8
25526	2.205	5.	0.1	5782.5
25527	2.2969	4.9091	0.1	5744.2
25528	2.205	5.1818	0.1	5804.6
25529	2.2969	5.0909	0.1	5765.
25530	2.205	5.3636	0.1	5830.4
25531	2.2969	5.2727	0.1	5789.2
25532	2.205	5.5455	0.1	5859.7
25533	2.2969	5.4545	0.1	5816.7
25534	2.205	5.7273	0.1	5896.1
25535	2.2969	5.6364	0.1	5847.3
25536	2.2969	5.8182	0.1	5887.4
25537	2.205	5.9091	0.1	5906.6
25538	2.3888	0.27273	0.1	5838.8
25539	2.4806	0.18182	0.1	5826.7
25540	2.3888	9.0909e-002	0.1	5851.2
25541	2.3888	0.45455	0.1	5804.5
25542	2.4806	0.36364	0.1	5789.6
25543	2.3888	0.63636	0.1	5775.8
25544	2.4806	0.54545	0.1	5760.2
25545	2.3888	0.81818	0.1	5749.8
25546	2.4806	0.72727	0.1	5733.2
25547	2.3888	1.	0.1	5726.7
25548	2.4806	0.90909	0.1	5708.6
25549	2.3888	1.1818	0.1	5706.8
25550	2.4806	1.0909	0.1	5686.8
25551	2.3888	1.3636	0.1	5689.9
25552	2.4806	1.2727	0.1	5667.9
25553	2.3888	1.5455	0.1	5676.1
25554	2.4806	1.4545	0.1	5651.8
25555	2.3888	1.7273	0.1	5665.1
25556	2.4806	1.6364	0.1	5638.5
25557	2.3888	1.9091	0.1	5656.6
25558	2.4806	1.8182	0.1	5627.8
25559	2.3888	2.0909	0.1	5650.3
25560	2.4806	2.	0.1	5619.5
25561	2.3888	2.2727	0.1	5645.9
25562	2.4806	2.1818	0.1	5613.2
25563	2.3888	2.4545	0.1	5642.8
25564	2.4806	2.3636	0.1	5608.7
25565	2.3888	2.6364	0.1	5640.9
25566	2.4806	2.5455	0.1	5605.5
25567	2.3888	2.8182	0.1	5639.8
25568	2.4806	2.7273	0.1	5603.6
25569	2.3888	3.	0.1	5639.5
25570	2.4806	2.9091	0.1	5602.6
25571	2.3888	3.1818	0.1	5639.8
25572	2.4806	3.0909	0.1	5602.6
25573	2.3888	3.3636	0.1	5640.9
25574	2.4806	3.2727	0.1	5603.6
25575	2.3888	3.5455	0.1	5642.8
25576	2.4806	3.4545	0.1	5605.5
25577	2.3888	3.7273	0.1	5645.9
25578	2.4806	3.6364	0.1	5608.7
25579	2.3888	3.9091	0.1	5650.3
25580	2.4806	3.8182	0.1	5613.2
25581	2.3888	4.0909	0.1	5656.6
25582	2.4806	4.	0.1	5619.5
25583	2.3888	4.2727	0.1	5665.1
25584	2.4806	4.1818	0.1	5627.8
25585	2.3888	4.4545	0.1	5676.1
25586	2.4806	4.3636	0.1	5638.5
25587	2.3888	4.6364	0.1	5689.9
25588	2.4806	4.5455	0.1	5651.8
25589	2.3888	4.8182	0.1	5706.8
25590	2.4806	4.7273	0.1	5667.9
25591	2.3888	5.	0.1	5726.7
25592	2.4806	4.9091	0.1	5686.8
25593	2.3888	5.1818	0.1	5749.8
25594	2.4806	5.0909	0.1	5708.6
25595	2.3888	5.3636	0.1	5775.8
25596	2.4806	5.2727	0.1	5733.2
25597	2.3888	5.5455	0.1	5804.5
25598	2.4806	5.4545	0.1	5760.2
25599	2.3888	5.7273	0.1	5838.8
25600	2.4806	5.6364	0.1	5789.6
25601	2.4806	5.8182	0.1	5826.7
25602	2.3888	5.9091	0.1	5851.2
25603	2.5725	0.27273	0.1	5777.8
25604	2.6644	0.18182	0.1	5763.1
25605	2.5725	9.0909e-002	0.1	5791.6
25606	2.5725	0.45455	0.1	5745.6
25607	2.6644	0.36364	0.1	5728.8
25608	2.5725	0.63636	0.1	5717.8
25609	2.6644	0.54545	0.1	5700.7
25610	2.5725	0.81818	0.1	5692.2
25611	2.6644	0.72727	0.1	5674.4
25612	2.5725	1.	0.1	5668.8
25613	2.6644	0.90909	0.1	5650.1
25614	2.5725	1.1818	0.1	5648.
25615	2.6644	1.0909	0.1	5628.
25616	2.5725	1.3636	0.1	5629.8
25617	2.6644	1.2727	0.1	5608.3
25618	2.5725	1.5455	0.1	5614.2
25619	2.6644	1.4545	0.1	5591.
25620	2.5725	1.7273	0.1	5601.2
25621	2.6644	1.6364	0.1	5576.2
25622	2.5725	1.9091	0.1	5590.6
25623	2.6644	1.8182	0.1	5563.8
25624	2.5725	2.0909	0.1	5582.2
25625	2.6644	2.	0.1	5553.7
25626	2.5725	2.2727	0.1	5575.8
25627	2.6644	2.1818	0.1	5545.7
25628	2.5725	2.4545	0.1	5571.1
25629	2.6644	2.3636	0.1	5539.6
25630	2.5725	2.6364	0.1	5568.
25631	2.6644	2.5455	0.1	5535.2
25632	2.5725	2.8182	0.1	5566.1
25633	2.6644	2.7273	0.1	5532.4
25634	2.5725	3.	0.1	5565.5
25635	2.6644	2.9091	0.1	5531.
25636	2.5725	3.1818	0.1	5566.1
25637	2.6644	3.0909	0.1	5531.
25638	2.5725	3.3636	0.1	5568.
25639	2.6644	3.2727	0.1	5532.4
25640	2.5725	3.5455	0.1	5571.1
25641	2.6644	3.4545	0.1	5535.2
25642	2.5725	3.7273	0.1	5575.8
25643	2.6644	3.6364	0.1	5539.6
25644	2.5725	3.9091	0.1	5582.2
25645	2.6644	3.8182	0.1	5545.7
25646	2.5725	4.0909	0.1	5590.6
25647	2.6644	4.	0.1	5553.7
25648	2.5725	4.2727	0.1	5601.2
25649	2.6644	4.1818	0.1	5563.8
25650	2.5725	4.4545	0.1	5614.2
25651	2.6644	4.3636	0.1	5576.2
25652	2.5725	4.6364	0.1	5629.8
25653	2.6644	4.5455	0.1	5591.
25654	2.5725	4.8182	0.1	5648.
25655	2.6644	4.7273	0.1	5608.3
25656	2.5725	5.	0.1	5668.8
25657	2.6644	4.9091	0.1	5628.
25658	2.5725	5.1818	0.1	5692.2
25659	2.6644	5.0909	0.1	5650.1
25660	2.5725	5.3636	0.1	5717.8
25661	2.6644	5.2727	0.1	5674.4
25662	2.5725	5.5455	0.1	5745.6
25663	2.6644	5.4545	0.1	5700.7
25664	2.5725	5.7273	0.1	5777.8
25665	2.6644	5.6364	0.1	5728.8
25666	2.6644	5.8182	0.1	5763.1
25667	2.5725	5.9091	0.1	5791.6
25668	2.7562	0.27273	0.1	5714.3
25669	2.8481	0.18182	0.1	5697.6
25670	2.7562	9.0909e-002	0.1	5729.1
25671	2.7562	0.45455	0.1	5684.2
25672	2.8481	0.36364	0.1	5665.9
25673	2.7562	0.63636	0.1	5657.5
25674	2.8481	0.54545	0.1	5639.2
25675	2.7562	0.81818	0.1	5632.5
25676	2.8481	0.72727	0.1	5613.9
25677	2.7562	1.	0.1	5609.4
25678	2.8481	0.90909	0.1	5590.1
25679	2.7562	1.1818	0.1	5588.3
25680	2.8481	1.0909	0.1	5568.2
25681	2.7562	1.3636	0.1	5569.5
25682	2.8481	1.2727	0.1	5548.2
25683	2.7562	1.5455	0.1	5553.
25684	2.8481	1.4545	0.1	5530.4
25685	2.7562	1.7273	0.1	5538.7
25686	2.8481	1.6364	0.1	5514.8
25687	2.7562	1.9091	0.1	5526.8
25688	2.8481	1.8182	0.1	5501.4
25689	2.7562	2.0909	0.1	5517.
25690	2.8481	2.	0.1	5490.2
25691	2.7562	2.2727	0.1	5509.3
25692	2.8481	2.1818	0.1	5481.1
25693	2.7562	2.4545	0.1	5503.5
25694	2.8481	2.3636	0.1	5474.
25695	2.7562	2.6364	0.1	5499.5
25696	2.8481	2.5455	0.1	5468.8
25697	2.7562	2.8182	0.1	5497.1
25698	2.8481	2.7273	0.1	5465.4
25699	2.7562	3.	0.1	5496.3
25700	2.8481	2.9091	0.1	5463.7
25701	2.7562	3.1818	0.1	5497.1
25702	2.8481	3.0909	0.1	5463.7
25703	2.7562	3.3636	0.1	5499.5
25704	2.8481	3.2727	0.1	5465.4
25705	2.7562	3.5455	0.1	5503.5
25706	2.8481	3.4545	0.1	5468.8
25707	2.7562	3.7273	0.1	5509.3
25708	2.8481	3.6364	0.1	5474.
25709	2.7562	3.9091	0.1	5517.
25710	2.8481	3.8182	0.1	5481.1
25711	2.7562	4.0909	0.1	5526.8
25712	2.8481	4.	0.1	5490.2
25713	2.7562	4.2727	0.1	5538.7
25714	2.8481	4.1818	0.1	5501.4
25715	2.7562	4.4545	0.1	5553.
25716	2.8481	4.3636	0.1	5514.8
25717	2.7562	4.6364	0.1	5569.5
25718	2.8481	4.5455	0.1	5530.4
25719	2.7562	4.8182	0.1	5588.3
25720	2.8481	4.7273	0.1	5548.2
25721	2.7562	5.	0.1	5609.4
25722	2.8481	4.9091	0.1	5568.2
25723	2.7562	5.1818	0.1	5632.5
25724	2.8481	5.0909	0.1	5590.1
25725	2.7562	5.3636	0.1	5657.5
25726	2.8481	5.2727	0.1	5613.9
25727	2.7562	5.5455	0.1	5684.2
25728	2.8481	5.4545	0.1	5639.2
25729	2.7562	5.7273	0.1	5714.3
25730	2.8481	5.6364	0.1	5665.9
25731	2.8481	5.8182	0.1	5697.6
25732	2.7562	5.9091	0.1	5729.1
25733	2.94	0.27273	0.1	5649.3
25734	3.0319	0.18182	0.1	5630.9
25735	2.94	9.0909e-002	0.1	5664.6
25736	2.94	0.45455	0.1	5621.1
25737	3.0319	0.36364	0.1	5601.6
25738	2.94	0.63636	0.1	5595.7
25739	3.0319	0.54545	0.1	5576.3
25740	2.94	0.81818	0.1	5571.6
25741	3.0319	0.72727	0.1	5552.1
25742	2.94	1.	0.1	5549.
25743	3.0319	0.90909	0.1	5529.2
25744	2.94	1.1818	0.1	5528.1
25745	3.0319	1.0909	0.1	5507.7
25746	2.94	1.3636	0.1	5509.2
25747	3.0319	1.2727	0.1	5488.
25748	2.94	1.5455	0.1	5492.2
25749	3.0319	1.4545	0.1	5470.1
25750	2.94	1.7273	0.1	5477.4
25751	3.0319	1.6364	0.1	5454.2
25752	2.94	1.9091	0.1	5464.7
25753	3.0319	1.8182	0.1	5440.3
25754	2.94	2.0909	0.1	5454.1
25755	3.0319	2.	0.1	5428.5
25756	2.94	2.2727	0.1	5445.6
25757	3.0319	2.1818	0.1	5418.8
25758	2.94	2.4545	0.1	5439.1
25759	3.0319	2.3636	0.1	5411.1
25760	2.94	2.6364	0.1	5434.5
25761	3.0319	2.5455	0.1	5405.3
25762	2.94	2.8182	0.1	5431.7
25763	3.0319	2.7273	0.1	5401.5
25764	2.94	3.	0.1	5430.8
25765	3.0319	2.9091	0.1	5399.7
25766	2.94	3.1818	0.1	5431.7
25767	3.0319	3.0909	0.1	5399.7
25768	2.94	3.3636	0.1	5434.5
25769	3.0319	3.2727	0.1	5401.5
25770	2.94	3.5455	0.1	5439.1
25771	3.0319	3.4545	0.1	5405.3
25772	2.94	3.7273	0.1	5445.6
25773	3.0319	3.6364	0.1	5411.1
25774	2.94	3.9091	0.1	5454.1
25775	3.0319	3.8182	0.1	5418.8
25776	2.94	4.0909	0.1	5464.7
25777	3.0319	4.	0.1	5428.5
25778	2.94	4.2727	0.1	5477.4
25779	3.0319	4.1818	0.1	5440.3
25780	2.94	4.4545	0.1	5492.2
25781	3.0319	4.3636	0.1	5454.2
25782	2.94	4.6364	0.1	5509.2
25783	3.0319	4.5455	0.1	5470.1
25784	2.94	4.8182	0.1	5528.1
25785	3.0319	4.7273	0.1	5488.
25786	2.94	5.	0.1	5549.
25787	3.0319	4.9091	0.1	5507.7
25788	2.94	5.1818	0.1	5571.6
25789	3.0319	5.0909	0.1	5529.2
25790	2.94	5.3636	0.1	5595.7
25791	3.0319	5.2727	0.1	5552.1
25792	2.94	5.5455	0.1	5621.1
25793	3.0319	5.4545	0.1	5576.3
25794	2.94	5.7273	0.1	5649.3
25795	3.0319	5.6364	0.1	5601.6
25796	3.0319	5.8182	0.1	5630.9
25797	2.94	5.9091	0.1	5664.6
25798	3.1237	0.27273	0.1	5583.3
25799	3.2156	0.18182	0.1	5563.6
25800	3.1237	9.0909e-002	0.1	5599.
25801	3.1237	0.45455	0.1	5557.
25802	3.2156	0.36364	0.1	5536.5
25803	3.1237	0.63636	0.1	5532.9
25804	3.2156	0.54545	0.1	5512.7
25805	3.1237	0.81818	0.1	5509.8
25806	3.2156	0.72727	0.1	5489.7
25807	3.1237	1.	0.1	5488.
25808	3.2156	0.90909	0.1	5467.7
25809	3.1237	1.1818	0.1	5467.7
25810	3.2156	1.0909	0.1	5447.
25811	3.1237	1.3636	0.1	5449.
25812	3.2156	1.2727	0.1	5427.7
25813	3.1237	1.5455	0.1	5432.
25814	3.2156	1.4545	0.1	5410.1
25815	3.1237	1.7273	0.1	5417.
25816	3.2156	1.6364	0.1	5394.2
25817	3.1237	1.9091	0.1	5404.
25818	3.2156	1.8182	0.1	5380.3
25819	3.1237	2.0909	0.1	5393.
25820	3.2156	2.	0.1	5368.3
25821	3.1237	2.2727	0.1	5384.1
25822	3.2156	2.1818	0.1	5358.2
25823	3.1237	2.4545	0.1	5377.2
25824	3.2156	2.3636	0.1	5350.2
25825	3.1237	2.6364	0.1	5372.2
25826	3.2156	2.5455	0.1	5344.3
25827	3.1237	2.8182	0.1	5369.3
25828	3.2156	2.7273	0.1	5340.3
25829	3.1237	3.	0.1	5368.3
25830	3.2156	2.9091	0.1	5338.3
25831	3.1237	3.1818	0.1	5369.3
25832	3.2156	3.0909	0.1	5338.3
25833	3.1237	3.3636	0.1	5372.2
25834	3.2156	3.2727	0.1	5340.3
25835	3.1237	3.5455	0.1	5377.2
25836	3.2156	3.4545	0.1	5344.3
25837	3.1237	3.7273	0.1	5384.1
25838	3.2156	3.6364	0.1	5350.2
25839	3.1237	3.9091	0.1	5393.
25840	3.2156	3.8182	0.1	5358.2
25841	3.1237	4.0909	0.1	5404.
25842	3.2156	4.	0.1	5368.3
25843	3.1237	4.2727	0.1	5417.
25844	3.2156	4.1818	0.1	5380.3
25845	3.1237	4.4545	0.1	5432.
25846	3.2156	4.3636	0.1	5394.2
25847	3.1237	4.6364	0.1	5449.
25848	3.2156	4.5455	0.1	5410.1
25849	3.1237	4.8182	0.1	5467.7
25850	3.2156	4.7273	0.1	5427.7
25851	3.1237	5.	0.1	5488.
25852	3.2156	4.9091	0.1	5447.
25853	3.1237	5.1818	0.1	5509.8
25854	3.2156	5.0909	0.1	5467.7
25855	3.1237	5.3636	0.1	5532.9
25856	3.2156	5.2727	0.1	5489.7
25857	3.1237	5.5455	0.1	5557.
25858	3.2156	5.4545	0.1	5512.7
25859	3.1237	5.7273	0.1	5583.3
25860	3.2156	5.6364	0.1	5536.5
25861	3.2156	5.8182	0.1	5563.6
25862	3.1237	5.9091	0.1	5599.
25863	3.3075	0.27273	0.1	5516.9
25864	3.3994	0.18182	0.1	5496.
25865	3.3075	9.0909e-002	0.1	5532.6
25866	3.3075	0.45455	0.1	5492.3
25867	3.3994	0.36364	0.1	5471.
25868	3.3075	0.63636	0.1	5469.6
25869	3.3994	0.54545	0.1	5448.6
25870	3.3075	0.81818	0.1	5447.6
25871	3.3994	0.72727	0.1	5426.8
25872	3.3075	1.	0.1	5426.7
25873	3.3994	0.90909	0.1	5405.9
25874	3.3075	1.1818	0.1	5407.1
25875	3.3994	1.0909	0.1	5386.1
25876	3.3075	1.3636	0.1	5388.9
25877	3.3994	1.2727	0.1	5367.5
25878	3.3075	1.5455	0.1	5372.3
25879	3.3994	1.4545	0.1	5350.4
25880	3.3075	1.7273	0.1	5357.5
25881	3.3994	1.6364	0.1	5334.9
25882	3.3075	1.9091	0.1	5344.5
25883	3.3994	1.8182	0.1	5321.1
25884	3.3075	2.0909	0.1	5333.4
25885	3.3994	2.	0.1	5309.2
25886	3.3075	2.2727	0.1	5324.3
25887	3.3994	2.1818	0.1	5299.2
25888	3.3075	2.4545	0.1	5317.2
25889	3.3994	2.3636	0.1	5291.1
25890	3.3075	2.6364	0.1	5312.2
25891	3.3994	2.5455	0.1	5285.
25892	3.3075	2.8182	0.1	5309.1
25893	3.3994	2.7273	0.1	5281.
25894	3.3075	3.	0.1	5308.1
25895	3.3994	2.9091	0.1	5279.
25896	3.3075	3.1818	0.1	5309.1
25897	3.3994	3.0909	0.1	5279.
25898	3.3075	3.3636	0.1	5312.2
25899	3.3994	3.2727	0.1	5281.
25900	3.3075	3.5455	0.1	5317.2
25901	3.3994	3.4545	0.1	5285.
25902	3.3075	3.7273	0.1	5324.3
25903	3.3994	3.6364	0.1	5291.1
25904	3.3075	3.9091	0.1	5333.4
25905	3.3994	3.8182	0.1	5299.2
25906	3.3075	4.0909	0.1	5344.5
25907	3.3994	4.	0.1	5309.2
25908	3.3075	4.2727	0.1	5357.5
25909	3.3994	4.1818	0.1	5321.1
25910	3.3075	4.4545	0.1	5372.3
25911	3.3994	4.3636	0.1	5334.9
25912	3.3075	4.6364	0.1	5388.9
25913	3.3994	4.5455	0.1	5350.4
25914	3.3075	4.8182	0.1	5407.1
25915	3.3994	4.7273	0.1	5367.5
25916	3.3075	5.	0.1	5426.7
25917	3.3994	4.9091	0.1	5386.1
25918	3.3075	5.1818	0.1	5447.6
25919	3.3994	5.0909	0.1	5405.9
25920	3.3075	5.3636	0.1	5469.6
25921	3.3994	5.2727	0.1	5426.8
25922	3.3075	5.5455	0.1	5492.3
25923	3.3994	5.4545	0.1	5448.6
25924	3.3075	5.7273	0.1	5516.9
25925	3.3994	5.6364	0.1	5471.
25926	3.3994	5.8182	0.1	5496.
25927	3.3075	5.9091	0.1	5532.6
25928	3.4913	0.27273	0.1	5450.3
25929	3.5831	0.18182	0.1	5428.6
25930	3.4913	9.0909e-002	0.1	5465.9
25931	3.4913	0.45455	0.1	5427.4
25932	3.5831	0.36364	0.1	5405.5
25933	3.4913	0.63636	0.1	5406.
25934	3.5831	0.54545	0.1	5384.5
25935	3.4913	0.81818	0.1	5385.2
25936	3.5831	0.72727	0.1	5363.9
25937	3.4913	1.	0.1	5365.4
25938	3.5831	0.90909	0.1	5344.1
25939	3.4913	1.1818	0.1	5346.6
25940	3.5831	1.0909	0.1	5325.2
25941	3.4913	1.3636	0.1	5329.1
25942	3.5831	1.2727	0.1	5307.5
25943	3.4913	1.5455	0.1	5313.
25944	3.5831	1.4545	0.1	5291.
25945	3.4913	1.7273	0.1	5298.5
25946	3.5831	1.6364	0.1	5276.
25947	3.4913	1.9091	0.1	5285.8
25948	3.5831	1.8182	0.1	5262.7
25949	3.4913	2.0909	0.1	5274.9
25950	3.5831	2.	0.1	5251.
25951	3.4913	2.2727	0.1	5265.9
25952	3.5831	2.1818	0.1	5241.2
25953	3.4913	2.4545	0.1	5258.8
25954	3.5831	2.3636	0.1	5233.2
25955	3.4913	2.6364	0.1	5253.7
25956	3.5831	2.5455	0.1	5227.2
25957	3.4913	2.8182	0.1	5250.7
25958	3.5831	2.7273	0.1	5223.2
25959	3.4913	3.	0.1	5249.7
25960	3.5831	2.9091	0.1	5221.2
25961	3.4913	3.1818	0.1	5250.7
25962	3.5831	3.0909	0.1	5221.2
25963	3.4913	3.3636	0.1	5253.7
25964	3.5831	3.2727	0.1	5223.2
25965	3.4913	3.5455	0.1	5258.8
25966	3.5831	3.4545	0.1	5227.2
25967	3.4913	3.7273	0.1	5265.9
25968	3.5831	3.6364	0.1	5233.2
25969	3.4913	3.9091	0.1	5274.9
25970	3.5831	3.8182	0.1	5241.2
25971	3.4913	4.0909	0.1	5285.8
25972	3.5831	4.	0.1	5251.
25973	3.4913	4.2727	0.1	5298.5
25974	3.5831	4.1818	0.1	5262.7
25975	3.4913	4.4545	0.1	5313.
25976	3.5831	4.3636	0.1	5276.
25977	3.4913	4.6364	0.1	5329.1
25978	3.5831	4.5455	0.1	5291.
25979	3.4913	4.8182	0.1	5346.6
25980	3.5831	4.7273	0.1	5307.5
25981	3.4913	5.	0.1	5365.4
25982	3.5831	4.9091	0.1	5325.2
25983	3.4913	5.1818	0.1	5385.2
25984	3.5831	5.0909	0.1	5344.1
25985	3.4913	5.3636	0.1	5406.
25986	3.5831	5.2727	0.1	5363.9
25987	3.4913	5.5455	0.1	5427.4
25988	3.5831	5.4545	0.1	5384.5
25989	3.4913	5.7273	0.1	5450.3
25990	3.5831	5.6364	0.1	5405.5
25991	3.5831	5.8182	0.1	5428.6
25992	3.4913	5.9091	0.1	5465.9
25993	3.675	0.27273	0.1	5383.8
25994	3.7669	0.18182	0.1	5361.4
25995	3.675	9.0909e-002	0.1	5399.1
25996	3.675	0.45455	0.1	5362.6
25997	3.7669	0.36364	0.1	5340.1
25998	3.675	0.63636	0.1	5342.5
25999	3.7669	0.54545	0.1	5320.4
26000	3.675	0.81818	0.1	5322.9
26001	3.7669	0.72727	0.1	5301.1
26002	3.675	1.	0.1	5304.1
26003	3.7669	0.90909	0.1	5282.4
26004	3.675	1.1818	0.1	5286.2
26005	3.7669	1.0909	0.1	5264.6
26006	3.675	1.3636	0.1	5269.5
26007	3.7669	1.2727	0.1	5247.7
26008	3.675	1.5455	0.1	5254.1
26009	3.7669	1.4545	0.1	5232.
26010	3.675	1.7273	0.1	5240.2
26011	3.7669	1.6364	0.1	5217.7
26012	3.675	1.9091	0.1	5227.9
26013	3.7669	1.8182	0.1	5204.8
26014	3.675	2.0909	0.1	5217.3
26015	3.7669	2.	0.1	5193.6
26016	3.675	2.2727	0.1	5208.5
26017	3.7669	2.1818	0.1	5184.1
26018	3.675	2.4545	0.1	5201.6
26019	3.7669	2.3636	0.1	5176.3
26020	3.675	2.6364	0.1	5196.6
26021	3.7669	2.5455	0.1	5170.5
26022	3.675	2.8182	0.1	5193.6
26023	3.7669	2.7273	0.1	5166.6
26024	3.675	3.	0.1	5192.6
26025	3.7669	2.9091	0.1	5164.6
26026	3.675	3.1818	0.1	5193.6
26027	3.7669	3.0909	0.1	5164.6
26028	3.675	3.3636	0.1	5196.6
26029	3.7669	3.2727	0.1	5166.6
26030	3.675	3.5455	0.1	5201.6
26031	3.7669	3.4545	0.1	5170.5
26032	3.675	3.7273	0.1	5208.5
26033	3.7669	3.6364	0.1	5176.3
26034	3.675	3.9091	0.1	5217.3
26035	3.7669	3.8182	0.1	5184.1
26036	3.675	4.0909	0.1	5227.9
26037	3.7669	4.	0.1	5193.6
26038	3.675	4.2727	0.1	5240.2
26039	3.7669	4.1818	0.1	5204.8
26040	3.675	4.4545	0.1	5254.1
26041	3.7669	4.3636	0.1	5217.7
26042	3.675	4.6364	0.1	5269.5
26043	3.7669	4.5455	0.1	5232.
26044	3.675	4.8182	0.1	5286.2
26045	3.7669	4.7273	0.1	5247.7
26046	3.675	5.	0.1	5304.1
26047	3.7669	4.9091	0.1	5264.6
26048	3.675	5.1818	0.1	5322.9
26049	3.7669	5.0909	0.1	5282.4
26050	3.675	5.3636	0.1	5342.5
26051	3.7669	5.2727	0.1	5301.1
26052	3.675	5.5455	0.1	5362.6
26053	3.7669	5.4545	0.1	5320.4
26054	3.675	5.7273	0.1	5383.8
26055	3.7669	5.6364	0.1	5340.1
26056	3.7669	5.8182	0.1	5361.4
26057	3.675	5.9091	0.1	5399.1
26058	3.8588	0.27273	0.1	5317.7
26059	3.9506	0.18182	0.1	5294.7
26060	3.8588	9.0909e-002	0.1	5332.6
26061	3.8588	0.45455	0.1	5297.9
26062	3.9506	0.36364	0.1	5275.
26063	3.8588	0.63636	0.1	5279.1
26064	3.9506	0.54545	0.1	5256.5
26065	3.8588	0.81818	0.1	5260.7
26066	3.9506	0.72727	0.1	5238.4
26067	3.8588	1.	0.1	5243.
26068	3.9506	0.90909	0.1	5220.9
26069	3.8588	1.1818	0.1	5226.1
26070	3.9506	1.0909	0.1	5204.1
26071	3.8588	1.3636	0.1	5210.2
26072	3.9506	1.2727	0.1	5188.2
26073	3.8588	1.5455	0.1	5195.6
26074	3.9506	1.4545	0.1	5173.3
26075	3.8588	1.7273	0.1	5182.3
26076	3.9506	1.6364	0.1	5159.7
26077	3.8588	1.9091	0.1	5170.5
26078	3.9506	1.8182	0.1	5147.5
26079	3.8588	2.0909	0.1	5160.3
26080	3.9506	2.	0.1	5136.7
26081	3.8588	2.2727	0.1	5151.9
26082	3.9506	2.1818	0.1	5127.6
26083	3.8588	2.4545	0.1	5145.2
26084	3.9506	2.3636	0.1	5120.2
26085	3.8588	2.6364	0.1	5140.4
26086	3.9506	2.5455	0.1	5114.6
26087	3.8588	2.8182	0.1	5137.5
26088	3.9506	2.7273	0.1	5110.8
26089	3.8588	3.	0.1	5136.5
26090	3.9506	2.9091	0.1	5108.9
26091	3.8588	3.1818	0.1	5137.5
26092	3.9506	3.0909	0.1	5108.9
26093	3.8588	3.3636	0.1	5140.4
26094	3.9506	3.2727	0.1	5110.8
26095	3.8588	3.5455	0.1	5145.2
26096	3.9506	3.4545	0.1	5114.6
26097	3.8588	3.7273	0.1	5151.9
26098	3.9506	3.6364	0.1	5120.2
26099	3.8588	3.9091	0.1	5160.3
26100	3.9506	3.8182	0.1	5127.6
26101	3.8588	4.0909	0.1	5170.5
26102	3.9506	4.	0.1	5136.7
26103	3.8588	4.2727	0.1	5182.3
26104	3.9506	4.1818	0.1	5147.5
26105	3.8588	4.4545	0.1	5195.6
26106	3.9506	4.3636	0.1	5159.7
26107	3.8588	4.6364	0.1	5210.2
26108	3.9506	4.5455	0.1	5173.3
26109	3.8588	4.8182	0.1	5226.1
26110	3.9506	4.7273	0.1	5188.2
26111	3.8588	5.	0.1	5243.
26112	3.9506	4.9091	0.1	5204.1
26113	3.8588	5.1818	0.1	5260.7
26114	3.9506	5.0909	0.1	5220.9
26115	3.8588	5.3636	0.1	5279.1
26116	3.9506	5.2727	0.1	5238.4
26117	3.8588	5.5455	0.1	5297.9
26118	3.9506	5.4545	0.1	5256.5
26119	3.8588	5.7273	0.1	5317.7
26120	3.9506	5.6364	0.1	5275.
26121	3.9506	5.8182	0.1	5294.7
26122	3.8588	5.9091	0.1	5332.6
26123	4.0425	0.27273	0.1	5252.
26124	4.1344	0.18182	0.1	5228.5
26125	4.0425	9.0909e-002	0.1	5266.4
26126	4.0425	0.45455	0.1	5233.6
26127	4.1344	0.36364	0.1	5210.2
26128	4.0425	0.63636	0.1	5216.
26129	4.1344	0.54545	0.1	5193.1
26130	4.0425	0.81818	0.1	5198.7
26131	4.1344	0.72727	0.1	5176.1
26132	4.0425	1.	0.1	5182.1
26133	4.1344	0.90909	0.1	5159.7
26134	4.0425	1.1818	0.1	5166.2
26135	4.1344	1.0909	0.1	5143.9
26136	4.0425	1.3636	0.1	5151.3
26137	4.1344	1.2727	0.1	5128.9
26138	4.0425	1.5455	0.1	5137.5
26139	4.1344	1.4545	0.1	5115.
26140	4.0425	1.7273	0.1	5124.9
26141	4.1344	1.6364	0.1	5102.1
26142	4.0425	1.9091	0.1	5113.7
26143	4.1344	1.8182	0.1	5090.5
26144	4.0425	2.0909	0.1	5104.
26145	4.1344	2.	0.1	5080.4
26146	4.0425	2.2727	0.1	5095.9
26147	4.1344	2.1818	0.1	5071.7
26148	4.0425	2.4545	0.1	5089.6
26149	4.1344	2.3636	0.1	5064.7
26150	4.0425	2.6364	0.1	5085.
26151	4.1344	2.5455	0.1	5059.3
26152	4.0425	2.8182	0.1	5082.2
26153	4.1344	2.7273	0.1	5055.7
26154	4.0425	3.	0.1	5081.3
26155	4.1344	2.9091	0.1	5053.9
26156	4.0425	3.1818	0.1	5082.2
26157	4.1344	3.0909	0.1	5053.9
26158	4.0425	3.3636	0.1	5085.
26159	4.1344	3.2727	0.1	5055.7
26160	4.0425	3.5455	0.1	5089.6
26161	4.1344	3.4545	0.1	5059.3
26162	4.0425	3.7273	0.1	5095.9
26163	4.1344	3.6364	0.1	5064.7
26164	4.0425	3.9091	0.1	5104.
26165	4.1344	3.8182	0.1	5071.7
26166	4.0425	4.0909	0.1	5113.7
26167	4.1344	4.	0.1	5080.4
26168	4.0425	4.2727	0.1	5124.9
26169	4.1344	4.1818	0.1	5090.5
26170	4.0425	4.4545	0.1	5137.5
26171	4.1344	4.3636	0.1	5102.1
26172	4.0425	4.6364	0.1	5151.3
26173	4.1344	4.5455	0.1	5115.
26174	4.0425	4.8182	0.1	5166.2
26175	4.1344	4.7273	0.1	5129.
26176	4.0425	5.	0.1	5182.1
26177	4.1344	4.9091	0.1	5143.9
26178	4.0425	5.1818	0.1	5198.7
26179	4.1344	5.0909	0.1	5159.7
26180	4.0425	5.3636	0.1	5216.
26181	4.1344	5.2727	0.1	5176.1
26182	4.0425	5.5455	0.1	5233.6
26183	4.1344	5.4545	0.1	5193.1
26184	4.0425	5.7273	0.1	5252.
26185	4.1344	5.6364	0.1	5210.2
26186	4.1344	5.8182	0.1	5228.5
26187	4.0425	5.9091	0.1	5266.4
26188	4.2263	0.27273	0.1	5186.8
26189	4.3181	0.18182	0.1	5162.9
26190	4.2263	9.0909e-002	0.1	5200.6
26191	4.2263	0.45455	0.1	5169.7
26192	4.3181	0.36364	0.1	5146.
26193	4.2263	0.63636	0.1	5153.3
26194	4.3181	0.54545	0.1	5130.
26195	4.2263	0.81818	0.1	5137.1
26196	4.3181	0.72727	0.1	5114.2
26197	4.2263	1.	0.1	5121.6
26198	4.3181	0.90909	0.1	5098.8
26199	4.2263	1.1818	0.1	5106.7
26200	4.3181	1.0909	0.1	5084.1
26201	4.2263	1.3636	0.1	5092.7
26202	4.3181	1.2727	0.1	5070.
26203	4.2263	1.5455	0.1	5079.6
26204	4.3181	1.4545	0.1	5056.9
26205	4.2263	1.7273	0.1	5067.8
26206	4.3181	1.6364	0.1	5044.8
26207	4.2263	1.9091	0.1	5057.2
26208	4.3181	1.8182	0.1	5033.9
26209	4.2263	2.0909	0.1	5048.1
26210	4.3181	2.	0.1	5024.4
26211	4.2263	2.2727	0.1	5040.4
26212	4.3181	2.1818	0.1	5016.2
26213	4.2263	2.4545	0.1	5034.4
26214	4.3181	2.3636	0.1	5009.6
26215	4.2263	2.6364	0.1	5030.1
26216	4.3181	2.5455	0.1	5004.5
26217	4.2263	2.8182	0.1	5027.4
26218	4.3181	2.7273	0.1	5001.1
26219	4.2263	3.	0.1	5026.5
26220	4.3181	2.9091	0.1	4999.4
26221	4.2263	3.1818	0.1	5027.4
26222	4.3181	3.0909	0.1	4999.4
26223	4.2263	3.3636	0.1	5030.1
26224	4.3181	3.2727	0.1	5001.1
26225	4.2263	3.5455	0.1	5034.4
26226	4.3181	3.4545	0.1	5004.5
26227	4.2263	3.7273	0.1	5040.4
26228	4.3181	3.6364	0.1	5009.6
26229	4.2263	3.9091	0.1	5048.1
26230	4.3181	3.8182	0.1	5016.2
26231	4.2263	4.0909	0.1	5057.2
26232	4.3181	4.	0.1	5024.4
26233	4.2263	4.2727	0.1	5067.8
26234	4.3181	4.1818	0.1	5033.9
26235	4.2263	4.4545	0.1	5079.6
26236	4.3181	4.3636	0.1	5044.8
26237	4.2263	4.6364	0.1	5092.7
26238	4.3181	4.5455	0.1	5056.9
26239	4.2263	4.8182	0.1	5106.7
26240	4.3181	4.7273	0.1	5070.
26241	4.2263	5.	0.1	5121.6
26242	4.3181	4.9091	0.1	5084.1
26243	4.2263	5.1818	0.1	5137.1
26244	4.3181	5.0909	0.1	5098.8
26245	4.2263	5.3636	0.1	5153.3
26246	4.3181	5.2727	0.1	5114.2
26247	4.2263	5.5455	0.1	5169.7
26248	4.3181	5.4545	0.1	5130.
26249	4.2263	5.7273	0.1	5186.8
26250	4.3181	5.6364	0.1	5146.
26251	4.3181	5.8182	0.1	5162.9
26252	4.2263	5.9091	0.1	5200.6
26253	4.41	0.27273	0.1	5122.1
26254	4.5019	0.18182	0.1	5097.9
26255	4.41	9.0909e-002	0.1	5135.3
26256	4.41	0.45455	0.1	5106.3
26257	4.5019	0.36364	0.1	5082.3
26258	4.41	0.63636	0.1	5091.
26259	4.5019	0.54545	0.1	5067.4
26260	4.41	0.81818	0.1	5075.9
26261	4.5019	0.72727	0.1	5052.6
26262	4.41	1.	0.1	5061.4
26263	4.5019	0.90909	0.1	5038.3
26264	4.41	1.1818	0.1	5047.5
26265	4.5019	1.0909	0.1	5024.5
26266	4.41	1.3636	0.1	5034.3
26267	4.5019	1.2727	0.1	5011.4
26268	4.41	1.5455	0.1	5022.1
26269	4.5019	1.4545	0.1	4999.2
26270	4.41	1.7273	0.1	5011.
26271	4.5019	1.6364	0.1	4987.9
26272	4.41	1.9091	0.1	5001.1
26273	4.5019	1.8182	0.1	4977.7
26274	4.41	2.0909	0.1	4992.5
26275	4.5019	2.	0.1	4968.7
26276	4.41	2.2727	0.1	4985.3
26277	4.5019	2.1818	0.1	4961.
26278	4.41	2.4545	0.1	4979.6
26279	4.5019	2.3636	0.1	4954.8
26280	4.41	2.6364	0.1	4975.5
26281	4.5019	2.5455	0.1	4950.1
26282	4.41	2.8182	0.1	4973.1
26283	4.5019	2.7273	0.1	4946.9
26284	4.41	3.	0.1	4972.2
26285	4.5019	2.9091	0.1	4945.3
26286	4.41	3.1818	0.1	4973.1
26287	4.5019	3.0909	0.1	4945.3
26288	4.41	3.3636	0.1	4975.5
26289	4.5019	3.2727	0.1	4946.9
26290	4.41	3.5455	0.1	4979.6
26291	4.5019	3.4545	0.1	4950.1
26292	4.41	3.7273	0.1	4985.3
26293	4.5019	3.6364	0.1	4954.8
26294	4.41	3.9091	0.1	4992.5
26295	4.5019	3.8182	0.1	4961.
26296	4.41	4.0909	0.1	5001.1
26297	4.5019	4.	0.1	4968.7
26298	4.41	4.2727	0.1	5011.
26299	4.5019	4.1818	0.1	4977.7
26300	4.41	4.4545	0.1	5022.1
26301	4.5019	4.3636	0.1	4987.9
26302	4.41	4.6364	0.1	5034.3
26303	4.5019	4.5455	0.1	4999.2
26304	4.41	4.8182	0.1	5047.5
26305	4.5019	4.7273	0.1	5011.4
26306	4.41	5.	0.1	5061.4
26307	4.5019	4.9091	0.1	5024.5
26308	4.41	5.1818	0.1	5075.9
26309	4.5019	5.0909	0.1	5038.3
26310	4.41	5.3636	0.1	5091.
26311	4.5019	5.2727	0.1	5052.6
26312	4.41	5.5455	0.1	5106.3
26313	4.5019	5.4545	0.1	5067.4
26314	4.41	5.7273	0.1	5122.1
26315	4.5019	5.6364	0.1	5082.3
26316	4.5019	5.8182	0.1	5097.9
26317	4.41	5.9091	0.1	5135.3
26318	4.5938	0.27273	0.1	5058.1
26319	4.6856	0.18182	0.1	5033.6
26320	4.5938	9.0909e-002	0.1	5070.6
26321	4.5938	0.45455	0.1	5043.4
26322	4.6856	0.36364	0.1	5019.1
26323	4.5938	0.63636	0.1	5029.1
26324	4.6856	0.54545	0.1	5005.3
26325	4.5938	0.81818	0.1	5015.1
26326	4.6856	0.72727	0.1	4991.5
26327	4.5938	1.	0.1	5001.5
26328	4.6856	0.90909	0.1	4978.2
26329	4.5938	1.1818	0.1	4988.6
26330	4.6856	1.0909	0.1	4965.4
26331	4.5938	1.3636	0.1	4976.3
26332	4.6856	1.2727	0.1	4953.2
26333	4.5938	1.5455	0.1	4964.9
26334	4.6856	1.4545	0.1	4941.7
26335	4.5938	1.7273	0.1	4954.5
26336	4.6856	1.6364	0.1	4931.2
26337	4.5938	1.9091	0.1	4945.3
26338	4.6856	1.8182	0.1	4921.6
26339	4.5938	2.0909	0.1	4937.2
26340	4.6856	2.	0.1	4913.3
26341	4.5938	2.2727	0.1	4930.5
26342	4.6856	2.1818	0.1	4906.1
26343	4.5938	2.4545	0.1	4925.2
26344	4.6856	2.3636	0.1	4900.3
26345	4.5938	2.6364	0.1	4921.3
26346	4.6856	2.5455	0.1	4895.8
26347	4.5938	2.8182	0.1	4919.
26348	4.6856	2.7273	0.1	4892.9
26349	4.5938	3.	0.1	4918.2
26350	4.6856	2.9091	0.1	4891.4
26351	4.5938	3.1818	0.1	4919.
26352	4.6856	3.0909	0.1	4891.4
26353	4.5938	3.3636	0.1	4921.3
26354	4.6856	3.2727	0.1	4892.9
26355	4.5938	3.5455	0.1	4925.2
26356	4.6856	3.4545	0.1	4895.8
26357	4.5938	3.7273	0.1	4930.5
26358	4.6856	3.6364	0.1	4900.3
26359	4.5938	3.9091	0.1	4937.2
26360	4.6856	3.8182	0.1	4906.1
26361	4.5938	4.0909	0.1	4945.3
26362	4.6856	4.	0.1	4913.3
26363	4.5938	4.2727	0.1	4954.5
26364	4.6856	4.1818	0.1	4921.6
26365	4.5938	4.4545	0.1	4964.9
26366	4.6856	4.3636	0.1	4931.2
26367	4.5938	4.6364	0.1	4976.3
26368	4.6856	4.5455	0.1	4941.7
26369	4.5938	4.8182	0.1	4988.6
26370	4.6856	4.7273	0.1	4953.2
26371	4.5938	5.	0.1	5001.5
26372	4.6856	4.9091	0.1	4965.4
26373	4.5938	5.1818	0.1	5015.1
26374	4.6856	5.0909	0.1	4978.2
26375	4.5938	5.3636	0.1	5029.1
26376	4.6856	5.2727	0.1	4991.5
26377	4.5938	5.5455	0.1	5043.4
26378	4.6856	5.4545	0.1	5005.3
26379	4.5938	5.7273	0.1	5058.1
26380	4.6856	5.6364	0.1	5019.1
26381	4.6856	5.8182	0.1	5033.6
26382	4.5938	5.9091	0.1	5070.6
26383	4.7775	0.27273	0.1	4994.7
26384	4.8694	0.18182	0.1	4969.9
26385	4.7775	9.0909e-002	0.1	5006.5
26386	4.7775	0.45455	0.1	4981.
26387	4.8694	0.36364	0.1	4956.6
26388	4.7775	0.63636	0.1	4967.7
26389	4.8694	0.54545	0.1	4943.6
26390	4.7775	0.81818	0.1	4954.7
26391	4.8694	0.72727	0.1	4930.9
26392	4.7775	1.	0.1	4942.1
26393	4.8694	0.90909	0.1	4918.5
26394	4.7775	1.1818	0.1	4930.
26395	4.8694	1.0909	0.1	4906.5
26396	4.7775	1.3636	0.1	4918.6
26397	4.8694	1.2727	0.1	4895.2
26398	4.7775	1.5455	0.1	4908.
26399	4.8694	1.4545	0.1	4884.5
26400	4.7775	1.7273	0.1	4898.3
26401	4.8694	1.6364	0.1	4874.7
26402	4.7775	1.9091	0.1	4889.7
26403	4.8694	1.8182	0.1	4865.9
26404	4.7775	2.0909	0.1	4882.2
26405	4.8694	2.	0.1	4858.
26406	4.7775	2.2727	0.1	4875.9
26407	4.8694	2.1818	0.1	4851.4
26408	4.7775	2.4545	0.1	4870.9
26409	4.8694	2.3636	0.1	4846.
26410	4.7775	2.6364	0.1	4867.3
26411	4.8694	2.5455	0.1	4841.8
26412	4.7775	2.8182	0.1	4865.2
26413	4.8694	2.7273	0.1	4839.
26414	4.7775	3.	0.1	4864.4
26415	4.8694	2.9091	0.1	4837.6
26416	4.7775	3.1818	0.1	4865.2
26417	4.8694	3.0909	0.1	4837.6
26418	4.7775	3.3636	0.1	4867.3
26419	4.8694	3.2727	0.1	4839.
26420	4.7775	3.5455	0.1	4870.9
26421	4.8694	3.4545	0.1	4841.8
26422	4.7775	3.7273	0.1	4875.9
26423	4.8694	3.6364	0.1	4846.
26424	4.7775	3.9091	0.1	4882.2
26425	4.8694	3.8182	0.1	4851.4
26426	4.7775	4.0909	0.1	4889.7
26427	4.8694	4.	0.1	4858.
26428	4.7775	4.2727	0.1	4898.3
26429	4.8694	4.1818	0.1	4865.9
26430	4.7775	4.4545	0.1	4908.
26431	4.8694	4.3636	0.1	4874.7
26432	4.7775	4.6364	0.1	4918.6
26433	4.8694	4.5455	0.1	4884.5
26434	4.7775	4.8182	0.1	4930.
26435	4.8694	4.7273	0.1	4895.2
26436	4.7775	5.	0.1	4942.1
26437	4.8694	4.9091	0.1	4906.5
26438	4.7775	5.1818	0.1	4954.7
26439	4.8694	5.0909	0.1	4918.5
26440	4.7775	5.3636	0.1	4967.7
26441	4.8694	5.2727	0.1	4930.9
26442	4.7775	5.5455	0.1	4981.
26443	4.8694	5.4545	0.1	4943.6
26444	4.7775	5.7273	0.1	4994.7
26445	4.8694	5.6364	0.1	4956.6
26446	4.8694	5.8182	0.1	4969.9
26447	4.7775	5.9091	0.1	5006.5
26448	4.9612	0.27273	0.1	4931.8
26449	5.0531	0.18182	0.1	4906.9
26450	4.9612	9.0909e-002	0.1	4942.9
26451	4.9612	0.45455	0.1	4919.2
26452	5.0531	0.36364	0.1	4894.5
26453	4.9612	0.63636	0.1	4906.8
26454	5.0531	0.54545	0.1	4882.5
26455	4.9612	0.81818	0.1	4894.7
26456	5.0531	0.72727	0.1	4870.7
26457	4.9612	1.	0.1	4883.
26458	5.0531	0.90909	0.1	4859.1
26459	4.9612	1.1818	0.1	4871.7
26460	5.0531	1.0909	0.1	4848.
26461	4.9612	1.3636	0.1	4861.1
26462	5.0531	1.2727	0.1	4837.5
26463	4.9612	1.5455	0.1	4851.3
26464	5.0531	1.4545	0.1	4827.6
26465	4.9612	1.7273	0.1	4842.3
26466	5.0531	1.6364	0.1	4818.5
26467	4.9612	1.9091	0.1	4834.3
26468	5.0531	1.8182	0.1	4810.3
26469	4.9612	2.0909	0.1	4827.3
26470	5.0531	2.	0.1	4803.
26471	4.9612	2.2727	0.1	4821.4
26472	5.0531	2.1818	0.1	4796.8
26473	4.9612	2.4545	0.1	4816.8
26474	5.0531	2.3636	0.1	4791.8
26475	4.9612	2.6364	0.1	4813.5
26476	5.0531	2.5455	0.1	4787.9
26477	4.9612	2.8182	0.1	4811.5
26478	5.0531	2.7273	0.1	4785.4
26479	4.9612	3.	0.1	4810.8
26480	5.0531	2.9091	0.1	4784.
26481	4.9612	3.1818	0.1	4811.5
26482	5.0531	3.0909	0.1	4784.
26483	4.9612	3.3636	0.1	4813.5
26484	5.0531	3.2727	0.1	4785.4
26485	4.9612	3.5455	0.1	4816.8
26486	5.0531	3.4545	0.1	4787.9
26487	4.9612	3.7273	0.1	4821.4
26488	5.0531	3.6364	0.1	4791.8
26489	4.9612	3.9091	0.1	4827.3
26490	5.0531	3.8182	0.1	4796.8
26491	4.9612	4.0909	0.1	4834.3
26492	5.0531	4.	0.1	4803.
26493	4.9612	4.2727	0.1	4842.3
26494	5.0531	4.1818	0.1	4810.3
26495	4.9612	4.4545	0.1	4851.3
26496	5.0531	4.3636	0.1	4818.5
26497	4.9612	4.6364	0.1	4861.1
26498	5.0531	4.5455	0.1	4827.6
26499	4.9612	4.8182	0.1	4871.7
26500	5.0531	4.7273	0.1	4837.5
26501	4.9612	5.	0.1	4883.
26502	5.0531	4.9091	0.1	4848.
26503	4.9612	5.1818	0.1	4894.7
26504	5.0531	5.0909	0.1	4859.1
26505	4.9612	5.3636	0.1	4906.8
26506	5.0531	5.2727	0.1	4870.7
26507	4.9612	5.5455	0.1	4919.2
26508	5.0531	5.4545	0.1	4882.5
26509	4.9612	5.7273	0.1	4931.8
26510	5.0531	5.6364	0.1	4894.5
26511	5.0531	5.8182	0.1	4906.9
26512	4.9612	5.9091	0.1	4942.9
26513	5.145	0.27273	0.1	4869.6
26514	5.2369	0.18182	0.1	4844.5
26515	5.145	9.0909e-002	0.1	4880.
26516	5.145	0.45455	0.1	4857.9
26517	5.2369	0.36364	0.1	4833.
26518	5.145	0.63636	0.1	4846.4
26519	5.2369	0.54545	0.1	4821.9
26520	5.145	0.81818	0.1	4835.1
26521	5.2369	0.72727	0.1	4810.9
26522	5.145	1.	0.1	4824.2
26523	5.2369	0.90909	0.1	4800.2
26524	5.145	1.1818	0.1	4813.8
26525	5.2369	1.0909	0.1	4789.9
26526	5.145	1.3636	0.1	4804.
26527	5.2369	1.2727	0.1	4780.1
26528	5.145	1.5455	0.1	4794.8
26529	5.2369	1.4545	0.1	4770.9
26530	5.145	1.7273	0.1	4786.5
26531	5.2369	1.6364	0.1	4762.5
26532	5.145	1.9091	0.1	4779.
26533	5.2369	1.8182	0.1	4754.9
26534	5.145	2.0909	0.1	4772.6
26535	5.2369	2.	0.1	4748.1
26536	5.145	2.2727	0.1	4767.2
26537	5.2369	2.1818	0.1	4742.4
26538	5.145	2.4545	0.1	4762.9
26539	5.2369	2.3636	0.1	4737.7
26540	5.145	2.6364	0.1	4759.8
26541	5.2369	2.5455	0.1	4734.2
26542	5.145	2.8182	0.1	4757.9
26543	5.2369	2.7273	0.1	4731.8
26544	5.145	3.	0.1	4757.3
26545	5.2369	2.9091	0.1	4730.6
26546	5.145	3.1818	0.1	4757.9
26547	5.2369	3.0909	0.1	4730.6
26548	5.145	3.3636	0.1	4759.8
26549	5.2369	3.2727	0.1	4731.8
26550	5.145	3.5455	0.1	4762.9
26551	5.2369	3.4545	0.1	4734.2
26552	5.145	3.7273	0.1	4767.2
26553	5.2369	3.6364	0.1	4737.7
26554	5.145	3.9091	0.1	4772.6
26555	5.2369	3.8182	0.1	4742.4
26556	5.145	4.0909	0.1	4779.
26557	5.2369	4.	0.1	4748.1
26558	5.145	4.2727	0.1	4786.5
26559	5.2369	4.1818	0.1	4754.9
26560	5.145	4.4545	0.1	4794.8
26561	5.2369	4.3636	0.1	4762.5
26562	5.145	4.6364	0.1	4804.
26563	5.2369	4.5455	0.1	4770.9
26564	5.145	4.8182	0.1	4813.8
26565	5.2369	4.7273	0.1	4780.1
26566	5.145	5.	0.1	4824.2
26567	5.2369	4.9091	0.1	4789.9
26568	5.145	5.1818	0.1	4835.1
26569	5.2369	5.0909	0.1	4800.2
26570	5.145	5.3636	0.1	4846.4
26571	5.2369	5.2727	0.1	4810.9
26572	5.145	5.5455	0.1	4857.9
26573	5.2369	5.4545	0.1	4821.9
26574	5.145	5.7273	0.1	4869.6
26575	5.2369	5.6364	0.1	4833.
26576	5.2369	5.8182	0.1	4844.5
26577	5.145	5.9091	0.1	4880.
26578	5.3288	0.27273	0.1	4808.
26579	5.4206	0.18182	0.1	4782.8
26580	5.3288	9.0909e-002	0.1	4817.6
26581	5.3288	0.45455	0.1	4797.1
26582	5.4206	0.36364	0.1	4772.1
26583	5.3288	0.63636	0.1	4786.4
26584	5.4206	0.54545	0.1	4761.8
26585	5.3288	0.81818	0.1	4776.
26586	5.4206	0.72727	0.1	4751.5
26587	5.3288	1.	0.1	4765.9
26588	5.4206	0.90909	0.1	4741.6
26589	5.3288	1.1818	0.1	4756.2
26590	5.4206	1.0909	0.1	4732.1
26591	5.3288	1.3636	0.1	4747.1
26592	5.4206	1.2727	0.1	4723.
26593	5.3288	1.5455	0.1	4738.6
26594	5.4206	1.4545	0.1	4714.5
26595	5.3288	1.7273	0.1	4730.9
26596	5.4206	1.6364	0.1	4706.7
26597	5.3288	1.9091	0.1	4724.
26598	5.4206	1.8182	0.1	4699.6
26599	5.3288	2.0909	0.1	4718.
26600	5.4206	2.	0.1	4693.4
26601	5.3288	2.2727	0.1	4713.
26602	5.4206	2.1818	0.1	4688.1
26603	5.3288	2.4545	0.1	4709.
26604	5.4206	2.3636	0.1	4683.8
26605	5.3288	2.6364	0.1	4706.1
26606	5.4206	2.5455	0.1	4680.5
26607	5.3288	2.8182	0.1	4704.4
26608	5.4206	2.7273	0.1	4678.2
26609	5.3288	3.	0.1	4703.8
26610	5.4206	2.9091	0.1	4677.1
26611	5.3288	3.1818	0.1	4704.4
26612	5.4206	3.0909	0.1	4677.1
26613	5.3288	3.3636	0.1	4706.1
26614	5.4206	3.2727	0.1	4678.2
26615	5.3288	3.5455	0.1	4709.
26616	5.4206	3.4545	0.1	4680.5
26617	5.3288	3.7273	0.1	4713.
26618	5.4206	3.6364	0.1	4683.8
26619	5.3288	3.9091	0.1	4718.
26620	5.4206	3.8182	0.1	4688.1
26621	5.3288	4.0909	0.1	4724.
26622	5.4206	4.	0.1	4693.4
26623	5.3288	4.2727	0.1	4730.9
26624	5.4206	4.1818	0.1	4699.6
26625	5.3288	4.4545	0.1	4738.6
26626	5.4206	4.3636	0.1	4706.7
26627	5.3288	4.6364	0.1	4747.1
26628	5.4206	4.5455	0.1	4714.5
26629	5.3288	4.8182	0.1	4756.2
26630	5.4206	4.7273	0.1	4723.
26631	5.3288	5.	0.1	4765.9
26632	5.4206	4.9091	0.1	4732.1
26633	5.3288	5.1818	0.1	4776.
26634	5.4206	5.0909	0.1	4741.6
26635	5.3288	5.3636	0.1	4786.4
26636	5.4206	5.2727	0.1	4751.5
26637	5.3288	5.5455	0.1	4797.1
26638	5.4206	5.4545	0.1	4761.8
26639	5.3288	5.7273	0.1	4808.
26640	5.4206	5.6364	0.1	4772.1
26641	5.4206	5.8182	0.1	4782.8
26642	5.3288	5.9091	0.1	4817.6
26643	5.5125	0.27273	0.1	4746.9
26644	5.6044	0.18182	0.1	4721.6
26645	5.5125	9.0909e-002	0.1	4755.9
26646	5.5125	0.45455	0.1	4736.8
26647	5.6044	0.36364	0.1	4711.7
26648	5.5125	0.63636	0.1	4726.9
26649	5.6044	0.54545	0.1	4702.1
26650	5.5125	0.81818	0.1	4717.2
26651	5.6044	0.72727	0.1	4692.6
26652	5.5125	1.	0.1	4707.8
26653	5.6044	0.90909	0.1	4683.4
26654	5.5125	1.1818	0.1	4698.9
26655	5.6044	1.0909	0.1	4674.6
26656	5.5125	1.3636	0.1	4690.4
26657	5.6044	1.2727	0.1	4666.2
26658	5.5125	1.5455	0.1	4682.6
26659	5.6044	1.4545	0.1	4658.3
26660	5.5125	1.7273	0.1	4675.4
26661	5.6044	1.6364	0.1	4651.1
26662	5.5125	1.9091	0.1	4669.
26663	5.6044	1.8182	0.1	4644.5
26664	5.5125	2.0909	0.1	4663.5
26665	5.6044	2.	0.1	4638.8
26666	5.5125	2.2727	0.1	4658.9
26667	5.6044	2.1818	0.1	4633.9
26668	5.5125	2.4545	0.1	4655.2
26669	5.6044	2.3636	0.1	4629.9
26670	5.5125	2.6364	0.1	4652.6
26671	5.6044	2.5455	0.1	4626.8
26672	5.5125	2.8182	0.1	4651.
26673	5.6044	2.7273	0.1	4624.8
26674	5.5125	3.	0.1	4650.4
26675	5.6044	2.9091	0.1	4623.7
26676	5.5125	3.1818	0.1	4651.
26677	5.6044	3.0909	0.1	4623.7
26678	5.5125	3.3636	0.1	4652.6
26679	5.6044	3.2727	0.1	4624.8
26680	5.5125	3.5455	0.1	4655.2
26681	5.6044	3.4545	0.1	4626.8
26682	5.5125	3.7273	0.1	4658.9
26683	5.6044	3.6364	0.1	4629.9
26684	5.5125	3.9091	0.1	4663.5
26685	5.6044	3.8182	0.1	4633.9
26686	5.5125	4.0909	0.1	4669.
26687	5.6044	4.	0.1	4638.8
26688	5.5125	4.2727	0.1	4675.4
26689	5.6044	4.1818	0.1	4644.5
26690	5.5125	4.4545	0.1	4682.6
26691	5.6044	4.3636	0.1	4651.1
26692	5.5125	4.6364	0.1	4690.4
26693	5.6044	4.5455	0.1	4658.3
26694	5.5125	4.8182	0.1	4698.9
26695	5.6044	4.7273	0.1	4666.2
26696	5.5125	5.	0.1	4707.8
26697	5.6044	4.9091	0.1	4674.6
26698	5.5125	5.1818	0.1	4717.2
26699	5.6044	5.0909	0.1	4683.4
26700	5.5125	5.3636	0.1	4726.9
26701	5.6044	5.2727	0.1	4692.6
26702	5.5125	5.5455	0.1	4736.8
26703	5.6044	5.4545	0.1	4702.1
26704	5.5125	5.7273	0.1	4746.9
26705	5.6044	5.6364	0.1	4711.7
26706	5.6044	5.8182	0.1	4721.6
26707	5.5125	5.9091	0.1	4755.9
26708	5.6962	0.27273	0.1	4686.4
26709	5.7881	0.18182	0.1	4661.
26710	5.6962	9.0909e-002	0.1	4694.7
26711	5.6962	0.45455	0.1	4677.
26712	5.7881	0.36364	0.1	4651.8
26713	5.6962	0.63636	0.1	4667.8
26714	5.7881	0.54545	0.1	4642.9
26715	5.6962	0.81818	0.1	4658.8
26716	5.7881	0.72727	0.1	4634.1
26717	5.6962	1.	0.1	4650.1
26718	5.7881	0.90909	0.1	4625.6
26719	5.6962	1.1818	0.1	4641.9
26720	5.7881	1.0909	0.1	4617.4
26721	5.6962	1.3636	0.1	4634.
26722	5.7881	1.2727	0.1	4609.6
26723	5.6962	1.5455	0.1	4626.8
26724	5.7881	1.4545	0.1	4602.3
26725	5.6962	1.7273	0.1	4620.2
26726	5.7881	1.6364	0.1	4595.6
26727	5.6962	1.9091	0.1	4614.3
26728	5.7881	1.8182	0.1	4589.6
26729	5.6962	2.0909	0.1	4609.1
26730	5.7881	2.	0.1	4584.3
26731	5.6962	2.2727	0.1	4604.9
26732	5.7881	2.1818	0.1	4579.7
26733	5.6962	2.4545	0.1	4601.5
26734	5.7881	2.3636	0.1	4576.1
26735	5.6962	2.6364	0.1	4599.
26736	5.7881	2.5455	0.1	4573.2
26737	5.6962	2.8182	0.1	4597.6
26738	5.7881	2.7273	0.1	4571.4
26739	5.6962	3.	0.1	4597.1
26740	5.7881	2.9091	0.1	4570.4
26741	5.6962	3.1818	0.1	4597.6
26742	5.7881	3.0909	0.1	4570.4
26743	5.6962	3.3636	0.1	4599.
26744	5.7881	3.2727	0.1	4571.4
26745	5.6962	3.5455	0.1	4601.5
26746	5.7881	3.4545	0.1	4573.2
26747	5.6962	3.7273	0.1	4604.9
26748	5.7881	3.6364	0.1	4576.1
26749	5.6962	3.9091	0.1	4609.1
26750	5.7881	3.8182	0.1	4579.7
26751	5.6962	4.0909	0.1	4614.3
26752	5.7881	4.	0.1	4584.3
26753	5.6962	4.2727	0.1	4620.2
26754	5.7881	4.1818	0.1	4589.6
26755	5.6962	4.4545	0.1	4626.8
26756	5.7881	4.3636	0.1	4595.6
26757	5.6962	4.6364	0.1	4634.
26758	5.7881	4.5455	0.1	4602.3
26759	5.6962	4.8182	0.1	4641.9
26760	5.7881	4.7273	0.1	4609.6
26761	5.6962	5.	0.1	4650.1
26762	5.7881	4.9091	0.1	4617.4
26763	5.6962	5.1818	0.1	4658.8
26764	5.7881	5.0909	0.1	4625.6
26765	5.6962	5.3636	0.1	4667.8
26766	5.7881	5.2727	0.1	4634.1
26767	5.6962	5.5455	0.1	4677.
26768	5.7881	5.4545	0.1	4642.9
26769	5.6962	5.7273	0.1	4686.4
26770	5.7881	5.6364	0.1	4651.8
26771	5.7881	5.8182	0.1	4661.
26772	5.6962	5.9091	0.1	4694.7
26773	5.88	0.27273	0.1	4626.4
26774	5.9719	0.18182	0.1	4601.
26775	5.88	9.0909e-002	0.1	4634.
26776	5.88	0.45455	0.1	4617.6
26777	5.9719	0.36364	0.1	4592.3
26778	5.88	0.63636	0.1	4609.1
26779	5.9719	0.54545	0.1	4584.1
26780	5.88	0.81818	0.1	4600.8
26781	5.9719	0.72727	0.1	4575.9
26782	5.88	1.	0.1	4592.8
26783	5.9719	0.90909	0.1	4568.
26784	5.88	1.1818	0.1	4585.1
26785	5.9719	1.0909	0.1	4560.5
26786	5.88	1.3636	0.1	4577.9
26787	5.9719	1.2727	0.1	4553.3
26788	5.88	1.5455	0.1	4571.2
26789	5.9719	1.4545	0.1	4546.6
26790	5.88	1.7273	0.1	4565.1
26791	5.9719	1.6364	0.1	4540.4
26792	5.88	1.9091	0.1	4559.6
26793	5.9719	1.8182	0.1	4534.8
26794	5.88	2.0909	0.1	4554.9
26795	5.9719	2.	0.1	4529.9
26796	5.88	2.2727	0.1	4550.9
26797	5.9719	2.1818	0.1	4525.7
26798	5.88	2.4545	0.1	4547.8
26799	5.9719	2.3636	0.1	4522.3
26800	5.88	2.6364	0.1	4545.6
26801	5.9719	2.5455	0.1	4519.7
26802	5.88	2.8182	0.1	4544.2
26803	5.9719	2.7273	0.1	4518.
26804	5.88	3.	0.1	4543.7
26805	5.9719	2.9091	0.1	4517.1
26806	5.88	3.1818	0.1	4544.2
26807	5.9719	3.0909	0.1	4517.1
26808	5.88	3.3636	0.1	4545.6
26809	5.9719	3.2727	0.1	4518.
26810	5.88	3.5455	0.1	4547.8
26811	5.9719	3.4545	0.1	4519.7
26812	5.88	3.7273	0.1	4550.9
26813	5.9719	3.6364	0.1	4522.3
26814	5.88	3.9091	0.1	4554.9
26815	5.9719	3.8182	0.1	4525.7
26816	5.88	4.0909	0.1	4559.6
26817	5.9719	4.	0.1	4529.9
26818	5.88	4.2727	0.1	4565.1
26819	5.9719	4.1818	0.1	4534.8
26820	5.88	4.4545	0.1	4571.2
26821	5.9719	4.3636	0.1	4540.4
26822	5.88	4.6364	0.1	4577.9
26823	5.9719	4.5455	0.1	4546.6
26824	5.88	4.8182	0.1	4585.1
26825	5.9719	4.7273	0.1	4553.3
26826	5.88	5.	0.1	4592.8
26827	5.9719	4.9091	0.1	4560.5
26828	5.88	5.1818	0.1	4600.8
26829	5.9719	5.0909	0.1	4568.
26830	5.88	5.3636	0.1	4609.1
26831	5.9719	5.2727	0.1	4575.9
26832	5.88	5.5455	0.1	4617.6
26833	5.9719	5.4545	0.1	4584.1
26834	5.88	5.7273	0.1	4626.4
26835	5.9719	5.6364	0.1	4592.3
26836	5.9719	5.8182	0.1	4601.
26837	5.88	5.9091	0.1	4634.
26838	6.0637	0.27273	0.1	4566.9
26839	6.1556	0.18182	0.1	4541.4
26840	6.0637	9.0909e-002	0.1	4573.9
26841	6.0637	0.45455	0.1	4558.8
26842	6.1556	0.36364	0.1	4533.4
26843	6.0637	0.63636	0.1	4550.9
26844	6.1556	0.54545	0.1	4525.7
26845	6.0637	0.81818	0.1	4543.2
26846	6.1556	0.72727	0.1	4518.2
26847	6.0637	1.	0.1	4535.7
26848	6.1556	0.90909	0.1	4510.9
26849	6.0637	1.1818	0.1	4528.6
26850	6.1556	1.0909	0.1	4503.9
26851	6.0637	1.3636	0.1	4522.
26852	6.1556	1.2727	0.1	4497.2
26853	6.0637	1.5455	0.1	4515.8
26854	6.1556	1.4545	0.1	4491.
26855	6.0637	1.7273	0.1	4510.1
26856	6.1556	1.6364	0.1	4485.3
26857	6.0637	1.9091	0.1	4505.1
26858	6.1556	1.8182	0.1	4480.1
26859	6.0637	2.0909	0.1	4500.7
26860	6.1556	2.	0.1	4475.6
26861	6.0637	2.2727	0.1	4497.1
26862	6.1556	2.1818	0.1	4471.8
26863	6.0637	2.4545	0.1	4494.2
26864	6.1556	2.3636	0.1	4468.6
26865	6.0637	2.6364	0.1	4492.1
26866	6.1556	2.5455	0.1	4466.2
26867	6.0637	2.8182	0.1	4490.9
26868	6.1556	2.7273	0.1	4464.6
26869	6.0637	3.	0.1	4490.4
26870	6.1556	2.9091	0.1	4463.8
26871	6.0637	3.1818	0.1	4490.9
26872	6.1556	3.0909	0.1	4463.8
26873	6.0637	3.3636	0.1	4492.1
26874	6.1556	3.2727	0.1	4464.6
26875	6.0637	3.5455	0.1	4494.2
26876	6.1556	3.4545	0.1	4466.2
26877	6.0637	3.7273	0.1	4497.1
26878	6.1556	3.6364	0.1	4468.6
26879	6.0637	3.9091	0.1	4500.7
26880	6.1556	3.8182	0.1	4471.8
26881	6.0637	4.0909	0.1	4505.1
26882	6.1556	4.	0.1	4475.6
26883	6.0637	4.2727	0.1	4510.1
26884	6.1556	4.1818	0.1	4480.1
26885	6.0637	4.4545	0.1	4515.8
26886	6.1556	4.3636	0.1	4485.3
26887	6.0637	4.6364	0.1	4522.
26888	6.1556	4.5455	0.1	4491.
26889	6.0637	4.8182	0.1	4528.6
26890	6.1556	4.7273	0.1	4497.2
26891	6.0637	5.	0.1	4535.7
26892	6.1556	4.9091	0.1	4503.9
26893	6.0637	5.1818	0.1	4543.2
26894	6.1556	5.0909	0.1	4510.9
26895	6.0637	5.3636	0.1	4550.9
26896	6.1556	5.2727	0.1	4518.2
26897	6.0637	5.5455	0.1	4558.8
26898	6.1556	5.4545	0.1	4525.7
26899	6.0637	5.7273	0.1	4566.9
26900	6.1556	5.6364	0.1	4533.4
26901	6.1556	5.8182	0.1	4541.4
26902	6.0637	5.9091	0.1	4573.9
26903	6.2475	0.27273	0.1	4507.9
26904	6.3394	0.18182	0.1	4482.4
26905	6.2475	9.0909e-002	0.1	4514.2
26906	6.2475	0.45455	0.1	4500.3
26907	6.3394	0.36364	0.1	4474.9
26908	6.2475	0.63636	0.1	4493.
26909	6.3394	0.54545	0.1	4467.7
26910	6.2475	0.81818	0.1	4485.9
26911	6.3394	0.72727	0.1	4460.8
26912	6.2475	1.	0.1	4479.
26913	6.3394	0.90909	0.1	4454.
26914	6.2475	1.1818	0.1	4472.4
26915	6.3394	1.0909	0.1	4447.5
26916	6.2475	1.3636	0.1	4466.3
26917	6.3394	1.2727	0.1	4441.4
26918	6.2475	1.5455	0.1	4460.5
26919	6.3394	1.4545	0.1	4435.6
26920	6.2475	1.7273	0.1	4455.3
26921	6.3394	1.6364	0.1	4430.4
26922	6.2475	1.9091	0.1	4450.7
26923	6.3394	1.8182	0.1	4425.6
26924	6.2475	2.0909	0.1	4446.7
26925	6.3394	2.	0.1	4421.5
26926	6.2475	2.2727	0.1	4443.3
26927	6.3394	2.1818	0.1	4417.9
26928	6.2475	2.4545	0.1	4440.7
26929	6.3394	2.3636	0.1	4415.
26930	6.2475	2.6364	0.1	4438.7
26931	6.3394	2.5455	0.1	4412.8
26932	6.2475	2.8182	0.1	4437.6
26933	6.3394	2.7273	0.1	4411.3
26934	6.2475	3.	0.1	4437.2
26935	6.3394	2.9091	0.1	4410.6
26936	6.2475	3.1818	0.1	4437.6
26937	6.3394	3.0909	0.1	4410.6
26938	6.2475	3.3636	0.1	4438.7
26939	6.3394	3.2727	0.1	4411.3
26940	6.2475	3.5455	0.1	4440.7
26941	6.3394	3.4545	0.1	4412.8
26942	6.2475	3.7273	0.1	4443.3
26943	6.3394	3.6364	0.1	4415.
26944	6.2475	3.9091	0.1	4446.7
26945	6.3394	3.8182	0.1	4417.9
26946	6.2475	4.0909	0.1	4450.7
26947	6.3394	4.	0.1	4421.5
26948	6.2475	4.2727	0.1	4455.3
26949	6.3394	4.1818	0.1	4425.6
26950	6.2475	4.4545	0.1	4460.5
26951	6.3394	4.3636	0.1	4430.4
26952	6.2475	4.6364	0.1	4466.3
26953	6.3394	4.5455	0.1	4435.6
26954	6.2475	4.8182	0.1	4472.4
26955	6.3394	4.7273	0.1	4441.4
26956	6.2475	5.	0.1	4479.
26957	6.3394	4.9091	0.1	4447.5
26958	6.2475	5.1818	0.1	4485.9
26959	6.3394	5.0909	0.1	4454.
26960	6.2475	5.3636	0.1	4493.
26961	6.3394	5.2727	0.1	4460.8
26962	6.2475	5.5455	0.1	4500.3
26963	6.3394	5.4545	0.1	4467.7
26964	6.2475	5.7273	0.1	4507.9
26965	6.3394	5.6364	0.1	4474.9
26966	6.3394	5.8182	0.1	4482.4
26967	6.2475	5.9091	0.1	4514.2
26968	6.4313	0.27273	0.1	4449.3
26969	6.5231	0.18182	0.1	4423.8
26970	6.4313	9.0909e-002	0.1	4455.1
26971	6.4313	0.45455	0.1	4442.3
26972	6.5231	0.36364	0.1	4416.8
26973	6.4313	0.63636	0.1	4435.5
26974	6.5231	0.54545	0.1	4410.2
26975	6.4313	0.81818	0.1	4428.9
26976	6.5231	0.72727	0.1	4403.7
26977	6.4313	1.	0.1	4422.5
26978	6.5231	0.90909	0.1	4397.4
26979	6.4313	1.1818	0.1	4416.5
26980	6.5231	1.0909	0.1	4391.5
26981	6.4313	1.3636	0.1	4410.8
26982	6.5231	1.2727	0.1	4385.8
26983	6.4313	1.5455	0.1	4405.5
26984	6.5231	1.4545	0.1	4380.5
26985	6.4313	1.7273	0.1	4400.7
26986	6.5231	1.6364	0.1	4375.6
26987	6.4313	1.9091	0.1	4396.4
26988	6.5231	1.8182	0.1	4371.3
26989	6.4313	2.0909	0.1	4392.7
26990	6.5231	2.	0.1	4367.4
26991	6.4313	2.2727	0.1	4389.6
26992	6.5231	2.1818	0.1	4364.1
26993	6.4313	2.4545	0.1	4387.2
26994	6.5231	2.3636	0.1	4361.5
26995	6.4313	2.6364	0.1	4385.4
26996	6.5231	2.5455	0.1	4359.4
26997	6.4313	2.8182	0.1	4384.3
26998	6.5231	2.7273	0.1	4358.1
26999	6.4313	3.	0.1	4384.
27000	6.5231	2.9091	0.1	4357.4
27001	6.4313	3.1818	0.1	4384.3
27002	6.5231	3.0909	0.1	4357.4
27003	6.4313	3.3636	0.1	4385.4
27004	6.5231	3.2727	0.1	4358.1
27005	6.4313	3.5455	0.1	4387.2
27006	6.5231	3.4545	0.1	4359.4
27007	6.4313	3.7273	0.1	4389.6
27008	6.5231	3.6364	0.1	4361.5
27009	6.4313	3.9091	0.1	4392.7
27010	6.5231	3.8182	0.1	4364.1
27011	6.4313	4.0909	0.1	4396.4
27012	6.5231	4.	0.1	4367.4
27013	6.4313	4.2727	0.1	4400.7
27014	6.5231	4.1818	0.1	4371.3
27015	6.4313	4.4545	0.1	4405.5
27016	6.5231	4.3636	0.1	4375.6
27017	6.4313	4.6364	0.1	4410.8
27018	6.5231	4.5455	0.1	4380.5
27019	6.4313	4.8182	0.1	4416.5
27020	6.5231	4.7273	0.1	4385.8
27021	6.4313	5.	0.1	4422.5
27022	6.5231	4.9091	0.1	4391.5
27023	6.4313	5.1818	0.1	4428.9
27024	6.5231	5.0909	0.1	4397.4
27025	6.4313	5.3636	0.1	4435.5
27026	6.5231	5.2727	0.1	4403.7
27027	6.4313	5.5455	0.1	4442.3
27028	6.5231	5.4545	0.1	4410.2
27029	6.4313	5.7273	0.1	4449.3
27030	6.5231	5.6364	0.1	4416.8
27031	6.5231	5.8182	0.1	4423.8
27032	6.4313	5.9091	0.1	4455.1
27033	6.615	0.27273	0.1	4391.2
27034	6.7069	0.18182	0.1	4365.6
27035	6.615	9.0909e-002	0.1	4396.4
27036	6.615	0.45455	0.1	4384.6
27037	6.7069	0.36364	0.1	4359.1
27038	6.615	0.63636	0.1	4378.4
27039	6.7069	0.54545	0.1	4352.9
27040	6.615	0.81818	0.1	4372.2
27041	6.7069	0.72727	0.1	4347.
27042	6.615	1.	0.1	4366.4
27043	6.7069	0.90909	0.1	4341.2
27044	6.615	1.1818	0.1	4360.8
27045	6.7069	1.0909	0.1	4335.6
27046	6.615	1.3636	0.1	4355.5
27047	6.7069	1.2727	0.1	4330.4
27048	6.615	1.5455	0.1	4350.6
27049	6.7069	1.4545	0.1	4325.5
27050	6.615	1.7273	0.1	4346.2
27051	6.7069	1.6364	0.1	4321.1
27052	6.615	1.9091	0.1	4342.3
27053	6.7069	1.8182	0.1	4317.
27054	6.615	2.0909	0.1	4338.8
27055	6.7069	2.	0.1	4313.5
27056	6.615	2.2727	0.1	4336.
27057	6.7069	2.1818	0.1	4310.5
27058	6.615	2.4545	0.1	4333.7
27059	6.7069	2.3636	0.1	4308.
27060	6.615	2.6364	0.1	4332.1
27061	6.7069	2.5455	0.1	4306.1
27062	6.615	2.8182	0.1	4331.1
27063	6.7069	2.7273	0.1	4304.9
27064	6.615	3.	0.1	4330.8
27065	6.7069	2.9091	0.1	4304.3
27066	6.615	3.1818	0.1	4331.1
27067	6.7069	3.0909	0.1	4304.3
27068	6.615	3.3636	0.1	4332.1
27069	6.7069	3.2727	0.1	4304.9
27070	6.615	3.5455	0.1	4333.7
27071	6.7069	3.4545	0.1	4306.1
27072	6.615	3.7273	0.1	4336.
27073	6.7069	3.6364	0.1	4308.
27074	6.615	3.9091	0.1	4338.8
27075	6.7069	3.8182	0.1	4310.5
27076	6.615	4.0909	0.1	4342.3
27077	6.7069	4.	0.1	4313.5
27078	6.615	4.2727	0.1	4346.2
27079	6.7069	4.1818	0.1	4317.
27080	6.615	4.4545	0.1	4350.6
27081	6.7069	4.3636	0.1	4321.1
27082	6.615	4.6364	0.1	4355.5
27083	6.7069	4.5455	0.1	4325.5
27084	6.615	4.8182	0.1	4360.8
27085	6.7069	4.7273	0.1	4330.4
27086	6.615	5.	0.1	4366.4
27087	6.7069	4.9091	0.1	4335.6
27088	6.615	5.1818	0.1	4372.2
27089	6.7069	5.0909	0.1	4341.2
27090	6.615	5.3636	0.1	4378.4
27091	6.7069	5.2727	0.1	4347.
27092	6.615	5.5455	0.1	4384.6
27093	6.7069	5.4545	0.1	4352.9
27094	6.615	5.7273	0.1	4391.2
27095	6.7069	5.6364	0.1	4359.1
27096	6.7069	5.8182	0.1	4365.6
27097	6.615	5.9091	0.1	4396.4
27098	6.7987	0.27273	0.1	4333.5
27099	6.8906	0.18182	0.1	4307.9
27100	6.7987	9.0909e-002	0.1	4338.1
27101	6.7987	0.45455	0.1	4327.4
27102	6.8906	0.36364	0.1	4301.8
27103	6.7987	0.63636	0.1	4321.6
27104	6.8906	0.54545	0.1	4296.1
27105	6.7987	0.81818	0.1	4315.9
27106	6.8906	0.72727	0.1	4290.5
27107	6.7987	1.	0.1	4310.5
27108	6.8906	0.90909	0.1	4285.2
27109	6.7987	1.1818	0.1	4305.3
27110	6.8906	1.0909	0.1	4280.1
27111	6.7987	1.3636	0.1	4300.4
27112	6.8906	1.2727	0.1	4275.3
27113	6.7987	1.5455	0.1	4296.
27114	6.8906	1.4545	0.1	4270.8
27115	6.7987	1.7273	0.1	4291.9
27116	6.8906	1.6364	0.1	4266.6
27117	6.7987	1.9091	0.1	4288.2
27118	6.8906	1.8182	0.1	4262.9
27119	6.7987	2.0909	0.1	4285.1
27120	6.8906	2.	0.1	4259.7
27121	6.7987	2.2727	0.1	4282.5
27122	6.8906	2.1818	0.1	4256.9
27123	6.7987	2.4545	0.1	4280.4
27124	6.8906	2.3636	0.1	4254.6
27125	6.7987	2.6364	0.1	4278.9
27126	6.8906	2.5455	0.1	4252.9
27127	6.7987	2.8182	0.1	4278.
27128	6.8906	2.7273	0.1	4251.8
27129	6.7987	3.	0.1	4277.7
27130	6.8906	2.9091	0.1	4251.2
27131	6.7987	3.1818	0.1	4278.
27132	6.8906	3.0909	0.1	4251.2
27133	6.7987	3.3636	0.1	4278.9
27134	6.8906	3.2727	0.1	4251.8
27135	6.7987	3.5455	0.1	4280.4
27136	6.8906	3.4545	0.1	4252.9
27137	6.7987	3.7273	0.1	4282.5
27138	6.8906	3.6364	0.1	4254.6
27139	6.7987	3.9091	0.1	4285.1
27140	6.8906	3.8182	0.1	4256.9
27141	6.7987	4.0909	0.1	4288.2
27142	6.8906	4.	0.1	4259.7
27143	6.7987	4.2727	0.1	4291.9
27144	6.8906	4.1818	0.1	4262.9
27145	6.7987	4.4545	0.1	4296.
27146	6.8906	4.3636	0.1	4266.6
27147	6.7987	4.6364	0.1	4300.4
27148	6.8906	4.5455	0.1	4270.8
27149	6.7987	4.8182	0.1	4305.3
27150	6.8906	4.7273	0.1	4275.3
27151	6.7987	5.	0.1	4310.5
27152	6.8906	4.9091	0.1	4280.1
27153	6.7987	5.1818	0.1	4315.9
27154	6.8906	5.0909	0.1	4285.2
27155	6.7987	5.3636	0.1	4321.6
27156	6.8906	5.2727	0.1	4290.5
27157	6.7987	5.5455	0.1	4327.4
27158	6.8906	5.4545	0.1	4296.1
27159	6.7987	5.7273	0.1	4333.5
27160	6.8906	5.6364	0.1	4301.8
27161	6.8906	5.8182	0.1	4307.9
27162	6.7987	5.9091	0.1	4338.1
27163	6.9825	0.27273	0.1	4276.2
27164	7.0744	0.18182	0.1	4250.6
27165	6.9825	9.0909e-002	0.1	4280.3
27166	6.9825	0.45455	0.1	4270.5
27167	7.0744	0.36364	0.1	4244.8
27168	6.9825	0.63636	0.1	4265.1
27169	7.0744	0.54545	0.1	4239.6
27170	6.9825	0.81818	0.1	4259.9
27171	7.0744	0.72727	0.1	4234.4
27172	6.9825	1.	0.1	4254.8
27173	7.0744	0.90909	0.1	4229.5
27174	6.9825	1.1818	0.1	4250.1
27175	7.0744	1.0909	0.1	4224.8
27176	6.9825	1.3636	0.1	4245.6
27177	7.0744	1.2727	0.1	4220.3
27178	6.9825	1.5455	0.1	4241.4
27179	7.0744	1.4545	0.1	4216.2
27180	6.9825	1.7273	0.1	4237.7
27181	7.0744	1.6364	0.1	4212.4
27182	6.9825	1.9091	0.1	4234.3
27183	7.0744	1.8182	0.1	4209.
27184	6.9825	2.0909	0.1	4231.5
27185	7.0744	2.	0.1	4206.
27186	6.9825	2.2727	0.1	4229.
27187	7.0744	2.1818	0.1	4203.4
27188	6.9825	2.4545	0.1	4227.1
27189	7.0744	2.3636	0.1	4201.3
27190	6.9825	2.6364	0.1	4225.8
27191	7.0744	2.5455	0.1	4199.8
27192	6.9825	2.8182	0.1	4224.9
27193	7.0744	2.7273	0.1	4198.7
27194	6.9825	3.	0.1	4224.6
27195	7.0744	2.9091	0.1	4198.2
27196	6.9825	3.1818	0.1	4224.9
27197	7.0744	3.0909	0.1	4198.2
27198	6.9825	3.3636	0.1	4225.8
27199	7.0744	3.2727	0.1	4198.7
27200	6.9825	3.5455	0.1	4227.1
27201	7.0744	3.4545	0.1	4199.8
27202	6.9825	3.7273	0.1	4229.
27203	7.0744	3.6364	0.1	4201.3
27204	6.9825	3.9091	0.1	4231.5
27205	7.0744	3.8182	0.1	4203.4
27206	6.9825	4.0909	0.1	4234.3
27207	7.0744	4.	0.1	4206.
27208	6.9825	4.2727	0.1	4237.7
27209	7.0744	4.1818	0.1	4209.
27210	6.9825	4.4545	0.1	4241.4
27211	7.0744	4.3636	0.1	4212.4
27212	6.9825	4.6364	0.1	4245.6
27213	7.0744	4.5455	0.1	4216.2
27214	6.9825	4.8182	0.1	4250.1
27215	7.0744	4.7273	0.1	4220.3
27216	6.9825	5.	0.1	4254.8
27217	7.0744	4.9091	0.1	4224.8
27218	6.9825	5.1818	0.1	4259.9
27219	7.0744	5.0909	0.1	4229.5
27220	6.9825	5.3636	0.1	4265.1
27221	7.0744	5.2727	0.1	4234.4
27222	6.9825	5.5455	0.1	4270.5
27223	7.0744	5.4545	0.1	4239.6
27224	6.9825	5.7273	0.1	4276.2
27225	7.0744	5.6364	0.1	4244.8
27226	7.0744	5.8182	0.1	4250.6
27227	6.9825	5.9091	0.1	4280.3
27228	7.1663	0.27273	0.1	4219.2
27229	7.2581	0.18182	0.1	4193.7
27230	7.1663	9.0909e-002	0.1	4222.9
27231	7.1663	0.45455	0.1	4213.9
27232	7.2581	0.36364	0.1	4188.2
27233	7.1663	0.63636	0.1	4208.9
27234	7.2581	0.54545	0.1	4183.4
27235	7.1663	0.81818	0.1	4204.1
27236	7.2581	0.72727	0.1	4178.6
27237	7.1663	1.	0.1	4199.5
27238	7.2581	0.90909	0.1	4174.1
27239	7.1663	1.1818	0.1	4195.1
27240	7.2581	1.0909	0.1	4169.7
27241	7.1663	1.3636	0.1	4190.9
27242	7.2581	1.2727	0.1	4165.6
27243	7.1663	1.5455	0.1	4187.1
27244	7.2581	1.4545	0.1	4161.8
27245	7.1663	1.7273	0.1	4183.7
27246	7.2581	1.6364	0.1	4158.3
27247	7.1663	1.9091	0.1	4180.6
27248	7.2581	1.8182	0.1	4155.2
27249	7.1663	2.0909	0.1	4177.9
27250	7.2581	2.	0.1	4152.4
27251	7.1663	2.2727	0.1	4175.7
27252	7.2581	2.1818	0.1	4150.
27253	7.1663	2.4545	0.1	4174.
27254	7.2581	2.3636	0.1	4148.1
27255	7.1663	2.6364	0.1	4172.7
27256	7.2581	2.5455	0.1	4146.7
27257	7.1663	2.8182	0.1	4171.9
27258	7.2581	2.7273	0.1	4145.7
27259	7.1663	3.	0.1	4171.7
27260	7.2581	2.9091	0.1	4145.2
27261	7.1663	3.1818	0.1	4171.9
27262	7.2581	3.0909	0.1	4145.2
27263	7.1663	3.3636	0.1	4172.7
27264	7.2581	3.2727	0.1	4145.7
27265	7.1663	3.5455	0.1	4174.
27266	7.2581	3.4545	0.1	4146.7
27267	7.1663	3.7273	0.1	4175.7
27268	7.2581	3.6364	0.1	4148.1
27269	7.1663	3.9091	0.1	4177.9
27270	7.2581	3.8182	0.1	4150.
27271	7.1663	4.0909	0.1	4180.6
27272	7.2581	4.	0.1	4152.4
27273	7.1663	4.2727	0.1	4183.7
27274	7.2581	4.1818	0.1	4155.2
27275	7.1663	4.4545	0.1	4187.1
27276	7.2581	4.3636	0.1	4158.3
27277	7.1663	4.6364	0.1	4190.9
27278	7.2581	4.5455	0.1	4161.8
27279	7.1663	4.8182	0.1	4195.1
27280	7.2581	4.7273	0.1	4165.6
27281	7.1663	5.	0.1	4199.5
27282	7.2581	4.9091	0.1	4169.7
27283	7.1663	5.1818	0.1	4204.1
27284	7.2581	5.0909	0.1	4174.1
27285	7.1663	5.3636	0.1	4208.9
27286	7.2581	5.2727	0.1	4178.6
27287	7.1663	5.5455	0.1	4213.9
27288	7.2581	5.4545	0.1	4183.4
27289	7.1663	5.7273	0.1	4219.2
27290	7.2581	5.6364	0.1	4188.2
27291	7.2581	5.8182	0.1	4193.7
27292	7.1663	5.9091	0.1	4222.9
27293	7.35	0.27273	0.1	4162.6
27294	7.4419	0.18182	0.1	4137.1
27295	7.35	9.0909e-002	0.1	4165.8
27296	7.35	0.45455	0.1	4157.7
27297	7.4419	0.36364	0.1	4131.9
27298	7.35	0.63636	0.1	4153.1
27299	7.4419	0.54545	0.1	4127.5
27300	7.35	0.81818	0.1	4148.6
27301	7.4419	0.72727	0.1	4123.1
27302	7.35	1.	0.1	4144.3
27303	7.4419	0.90909	0.1	4118.9
27304	7.35	1.1818	0.1	4140.3
27305	7.4419	1.0909	0.1	4114.9
27306	7.35	1.3636	0.1	4136.5
27307	7.4419	1.2727	0.1	4111.1
27308	7.35	1.5455	0.1	4133.
27309	7.4419	1.4545	0.1	4107.6
27310	7.35	1.7273	0.1	4129.8
27311	7.4419	1.6364	0.1	4104.4
27312	7.35	1.9091	0.1	4127.
27313	7.4419	1.8182	0.1	4101.5
27314	7.35	2.0909	0.1	4124.5
27315	7.4419	2.	0.1	4099.
27316	7.35	2.2727	0.1	4122.5
27317	7.4419	2.1818	0.1	4096.8
27318	7.35	2.4545	0.1	4120.9
27319	7.4419	2.3636	0.1	4095.
27320	7.35	2.6364	0.1	4119.7
27321	7.4419	2.5455	0.1	4093.7
27322	7.35	2.8182	0.1	4119.
27323	7.4419	2.7273	0.1	4092.8
27324	7.35	3.	0.1	4118.8
27325	7.4419	2.9091	0.1	4092.4
27326	7.35	3.1818	0.1	4119.
27327	7.4419	3.0909	0.1	4092.4
27328	7.35	3.3636	0.1	4119.7
27329	7.4419	3.2727	0.1	4092.8
27330	7.35	3.5455	0.1	4120.9
27331	7.4419	3.4545	0.1	4093.7
27332	7.35	3.7273	0.1	4122.5
27333	7.4419	3.6364	0.1	4095.
27334	7.35	3.9091	0.1	4124.5
27335	7.4419	3.8182	0.1	4096.8
27336	7.35	4.0909	0.1	4127.
27337	7.4419	4.	0.1	4099.
27338	7.35	4.2727	0.1	4129.8
27339	7.4419	4.1818	0.1	4101.5
27340	7.35	4.4545	0.1	4133.
27341	7.4419	4.3636	0.1	4104.4
27342	7.35	4.6364	0.1	4136.5
27343	7.4419	4.5455	0.1	4107.6
27344	7.35	4.8182	0.1	4140.3
27345	7.4419	4.7273	0.1	4111.1
27346	7.35	5.	0.1	4144.3
27347	7.4419	4.9091	0.1	4114.9
27348	7.35	5.1818	0.1	4148.6
27349	7.4419	5.0909	0.1	4118.9
27350	7.35	5.3636	0.1	4153.1
27351	7.4419	5.2727	0.1	4123.1
27352	7.35	5.5455	0.1	4157.7
27353	7.4419	5.4545	0.1	4127.5
27354	7.35	5.7273	0.1	4162.6
27355	7.4419	5.6364	0.1	4131.9
27356	7.4419	5.8182	0.1	4137.1
27357	7.35	5.9091	0.1	4165.8
27358	7.5338	0.27273	0.1	4106.4
27359	7.6256	0.18182	0.1	4080.8
27360	7.5338	9.0909e-002	0.1	4109.1
27361	7.5338	0.45455	0.1	4101.7
27362	7.6256	0.36364	0.1	4076.
27363	7.5338	0.63636	0.1	4097.5
27364	7.6256	0.54545	0.1	4071.8
27365	7.5338	0.81818	0.1	4093.4
27366	7.6256	0.72727	0.1	4067.8
27367	7.5338	1.	0.1	4089.4
27368	7.6256	0.90909	0.1	4064.
27369	7.5338	1.1818	0.1	4085.7
27370	7.6256	1.0909	0.1	4060.3
27371	7.5338	1.3636	0.1	4082.2
27372	7.6256	1.2727	0.1	4056.8
27373	7.5338	1.5455	0.1	4079.
27374	7.6256	1.4545	0.1	4053.6
27375	7.5338	1.7273	0.1	4076.1
27376	7.6256	1.6364	0.1	4050.6
27377	7.5338	1.9091	0.1	4073.5
27378	7.6256	1.8182	0.1	4048.
27379	7.5338	2.0909	0.1	4071.2
27380	7.6256	2.	0.1	4045.7
27381	7.5338	2.2727	0.1	4069.4
27382	7.6256	2.1818	0.1	4043.7
27383	7.5338	2.4545	0.1	4067.9
27384	7.6256	2.3636	0.1	4042.1
27385	7.5338	2.6364	0.1	4066.8
27386	7.6256	2.5455	0.1	4040.8
27387	7.5338	2.8182	0.1	4066.2
27388	7.6256	2.7273	0.1	4040.
27389	7.5338	3.	0.1	4066.
27390	7.6256	2.9091	0.1	4039.6
27391	7.5338	3.1818	0.1	4066.2
27392	7.6256	3.0909	0.1	4039.6
27393	7.5338	3.3636	0.1	4066.8
27394	7.6256	3.2727	0.1	4040.
27395	7.5338	3.5455	0.1	4067.9
27396	7.6256	3.4545	0.1	4040.8
27397	7.5338	3.7273	0.1	4069.4
27398	7.6256	3.6364	0.1	4042.1
27399	7.5338	3.9091	0.1	4071.2
27400	7.6256	3.8182	0.1	4043.7
27401	7.5338	4.0909	0.1	4073.5
27402	7.6256	4.	0.1	4045.7
27403	7.5338	4.2727	0.1	4076.1
27404	7.6256	4.1818	0.1	4048.
27405	7.5338	4.4545	0.1	4079.
27406	7.6256	4.3636	0.1	4050.6
27407	7.5338	4.6364	0.1	4082.2
27408	7.6256	4.5455	0.1	4053.6
27409	7.5338	4.8182	0.1	4085.7
27410	7.6256	4.7273	0.1	4056.8
27411	7.5338	5.	0.1	4089.4
27412	7.6256	4.9091	0.1	4060.3
27413	7.5338	5.1818	0.1	4093.4
27414	7.6256	5.0909	0.1	4064.
27415	7.5338	5.3636	0.1	4097.5
27416	7.6256	5.2727	0.1	4067.8
27417	7.5338	5.5455	0.1	4101.7
27418	7.6256	5.4545	0.1	4071.8
27419	7.5338	5.7273	0.1	4106.4
27420	7.6256	5.6364	0.1	4076.
27421	7.6256	5.8182	0.1	4080.8
27422	7.5338	5.9091	0.1	4109.1
27423	7.7175	0.27273	0.1	4050.4
27424	7.8094	0.18182	0.1	4024.9
27425	7.7175	9.0909e-002	0.1	4052.7
27426	7.7175	0.45455	0.1	4046.1
27427	7.8094	0.36364	0.1	4020.4
27428	7.7175	0.63636	0.1	4042.2
27429	7.8094	0.54545	0.1	4016.5
27430	7.7175	0.81818	0.1	4038.4
27431	7.8094	0.72727	0.1	4012.8
27432	7.7175	1.	0.1	4034.8
27433	7.8094	0.90909	0.1	4009.3
27434	7.7175	1.1818	0.1	4031.4
27435	7.8094	1.0909	0.1	4005.9
27436	7.7175	1.3636	0.1	4028.2
27437	7.8094	1.2727	0.1	4002.7
27438	7.7175	1.5455	0.1	4025.2
27439	7.8094	1.4545	0.1	3999.8
27440	7.7175	1.7273	0.1	4022.5
27441	7.8094	1.6364	0.1	3997.1
27442	7.7175	1.9091	0.1	4020.2
27443	7.8094	1.8182	0.1	3994.6
27444	7.7175	2.0909	0.1	4018.1
27445	7.8094	2.	0.1	3992.5
27446	7.7175	2.2727	0.1	4016.4
27447	7.8094	2.1818	0.1	3990.7
27448	7.7175	2.4545	0.1	4015.
27449	7.8094	2.3636	0.1	3989.2
27450	7.7175	2.6364	0.1	4014.
27451	7.8094	2.5455	0.1	3988.1
27452	7.7175	2.8182	0.1	4013.5
27453	7.8094	2.7273	0.1	3987.3
27454	7.7175	3.	0.1	4013.3
27455	7.8094	2.9091	0.1	3987.
27456	7.7175	3.1818	0.1	4013.5
27457	7.8094	3.0909	0.1	3987.
27458	7.7175	3.3636	0.1	4014.
27459	7.8094	3.2727	0.1	3987.3
27460	7.7175	3.5455	0.1	4015.
27461	7.8094	3.4545	0.1	3988.1
27462	7.7175	3.7273	0.1	4016.4
27463	7.8094	3.6364	0.1	3989.2
27464	7.7175	3.9091	0.1	4018.1
27465	7.8094	3.8182	0.1	3990.7
27466	7.7175	4.0909	0.1	4020.2
27467	7.8094	4.	0.1	3992.5
27468	7.7175	4.2727	0.1	4022.5
27469	7.8094	4.1818	0.1	3994.6
27470	7.7175	4.4545	0.1	4025.2
27471	7.8094	4.3636	0.1	3997.1
27472	7.7175	4.6364	0.1	4028.2
27473	7.8094	4.5455	0.1	3999.8
27474	7.7175	4.8182	0.1	4031.4
27475	7.8094	4.7273	0.1	4002.7
27476	7.7175	5.	0.1	4034.8
27477	7.8094	4.9091	0.1	4005.9
27478	7.7175	5.1818	0.1	4038.4
27479	7.8094	5.0909	0.1	4009.3
27480	7.7175	5.3636	0.1	4042.2
27481	7.8094	5.2727	0.1	4012.8
27482	7.7175	5.5455	0.1	4046.1
27483	7.8094	5.4545	0.1	4016.5
27484	7.7175	5.7273	0.1	4050.4
27485	7.8094	5.6364	0.1	4020.4
27486	7.8094	5.8182	0.1	4024.9
27487	7.7175	5.9091	0.1	4052.7
27488	7.9012	0.27273	0.1	3994.8
27489	7.9931	0.18182	0.1	3969.2
27490	7.9012	9.0909e-002	0.1	3996.7
27491	7.9012	0.45455	0.1	3990.8
27492	7.9931	0.36364	0.1	3965.
27493	7.9012	0.63636	0.1	3987.1
27494	7.9931	0.54545	0.1	3961.5
27495	7.9012	0.81818	0.1	3983.7
27496	7.9931	0.72727	0.1	3958.1
27497	7.9012	1.	0.1	3980.4
27498	7.9931	0.90909	0.1	3954.8
27499	7.9012	1.1818	0.1	3977.2
27500	7.9931	1.0909	0.1	3951.7
27501	7.9012	1.3636	0.1	3974.3
27502	7.9931	1.2727	0.1	3948.8
27503	7.9012	1.5455	0.1	3971.6
27504	7.9931	1.4545	0.1	3946.1
27505	7.9012	1.7273	0.1	3969.2
27506	7.9931	1.6364	0.1	3943.7
27507	7.9012	1.9091	0.1	3967.
27508	7.9931	1.8182	0.1	3941.4
27509	7.9012	2.0909	0.1	3965.1
27510	7.9931	2.	0.1	3939.5
27511	7.9012	2.2727	0.1	3963.5
27512	7.9931	2.1818	0.1	3937.8
27513	7.9012	2.4545	0.1	3962.3
27514	7.9931	2.3636	0.1	3936.5
27515	7.9012	2.6364	0.1	3961.4
27516	7.9931	2.5455	0.1	3935.5
27517	7.9012	2.8182	0.1	3960.8
27518	7.9931	2.7273	0.1	3934.8
27519	7.9012	3.	0.1	3960.7
27520	7.9931	2.9091	0.1	3934.4
27521	7.9012	3.1818	0.1	3960.8
27522	7.9931	3.0909	0.1	3934.4
27523	7.9012	3.3636	0.1	3961.4
27524	7.9931	3.2727	0.1	3934.8
27525	7.9012	3.5455	0.1	3962.3
27526	7.9931	3.4545	0.1	3935.5
27527	7.9012	3.7273	0.1	3963.5
27528	7.9931	3.6364	0.1	3936.5
27529	7.9012	3.9091	0.1	3965.1
27530	7.9931	3.8182	0.1	3937.8
27531	7.9012	4.0909	0.1	3967.
27532	7.9931	4.	0.1	3939.5
27533	7.9012	4.2727	0.1	3969.2
27534	7.9931	4.1818	0.1	3941.4
27535	7.9012	4.4545	0.1	3971.6
27536	7.9931	4.3636	0.1	3943.7
27537	7.9012	4.6364	0.1	3974.3
27538	7.9931	4.5455	0.1	3946.1
27539	7.9012	4.8182	0.1	3977.2
27540	7.9931	4.7273	0.1	3948.8
27541	7.9012	5.	0.1	3980.4
27542	7.9931	4.9091	0.1	3951.7
27543	7.9012	5.1818	0.1	3983.7
27544	7.9931	5.0909	0.1	3954.8
27545	7.9012	5.3636	0.1	3987.1
27546	7.9931	5.2727	0.1	3958.1
27547	7.9012	5.5455	0.1	3990.8
27548	7.9931	5.4545	0.1	3961.5
27549	7.9012	5.7273	0.1	3994.8
27550	7.9931	5.6364	0.1	3965.
27551	7.9931	5.8182	0.1	3969.2
27552	7.9012	5.9091	0.1	3996.7
27553	8.085	0.27273	0.1	3939.4
27554	8.1769	0.18182	0.1	3913.9
27555	8.085	9.0909e-002	0.1	3940.9
27556	8.085	0.45455	0.1	3935.7
27557	8.1769	0.36364	0.1	3909.9
27558	8.085	0.63636	0.1	3932.4
27559	8.1769	0.54545	0.1	3906.6
27560	8.085	0.81818	0.1	3929.2
27561	8.1769	0.72727	0.1	3903.5
27562	8.085	1.	0.1	3926.2
27563	8.1769	0.90909	0.1	3900.6
27564	8.085	1.1818	0.1	3923.3
27565	8.1769	1.0909	0.1	3897.8
27566	8.085	1.3636	0.1	3920.6
27567	8.1769	1.2727	0.1	3895.1
27568	8.085	1.5455	0.1	3918.2
27569	8.1769	1.4545	0.1	3892.7
27570	8.085	1.7273	0.1	3915.9
27571	8.1769	1.6364	0.1	3890.4
27572	8.085	1.9091	0.1	3914.
27573	8.1769	1.8182	0.1	3888.4
27574	8.085	2.0909	0.1	3912.2
27575	8.1769	2.	0.1	3886.6
27576	8.085	2.2727	0.1	3910.8
27577	8.1769	2.1818	0.1	3885.1
27578	8.085	2.4545	0.1	3909.7
27579	8.1769	2.3636	0.1	3883.9
27580	8.085	2.6364	0.1	3908.9
27581	8.1769	2.5455	0.1	3883.
27582	8.085	2.8182	0.1	3908.4
27583	8.1769	2.7273	0.1	3882.4
27584	8.085	3.	0.1	3908.2
27585	8.1769	2.9091	0.1	3882.
27586	8.085	3.1818	0.1	3908.4
27587	8.1769	3.0909	0.1	3882.
27588	8.085	3.3636	0.1	3908.9
27589	8.1769	3.2727	0.1	3882.4
27590	8.085	3.5455	0.1	3909.7
27591	8.1769	3.4545	0.1	3883.
27592	8.085	3.7273	0.1	3910.8
27593	8.1769	3.6364	0.1	3883.9
27594	8.085	3.9091	0.1	3912.2
27595	8.1769	3.8182	0.1	3885.1
27596	8.085	4.0909	0.1	3914.
27597	8.1769	4.	0.1	3886.6
27598	8.085	4.2727	0.1	3915.9
27599	8.1769	4.1818	0.1	3888.4
27600	8.085	4.4545	0.1	3918.2
27601	8.1769	4.3636	0.1	3890.4
27602	8.085	4.6364	0.1	3920.6
27603	8.1769	4.5455	0.1	3892.7
27604	8.085	4.8182	0.1	3923.3
27605	8.1769	4.7273	0.1	3895.1
27606	8.085	5.	0.1	3926.2
27607	8.1769	4.9091	0.1	3897.8
27608	8.085	5.1818	0.1	3929.2
27609	8.1769	5.0909	0.1	3900.6
27610	8.085	5.3636	0.1	3932.4
27611	8.1769	5.2727	0.1	3903.5
27612	8.085	5.5455	0.1	3935.7
27613	8.1769	5.4545	0.1	3906.6
27614	8.085	5.7273	0.1	3939.4
27615	8.1769	5.6364	0.1	3909.9
27616	8.1769	5.8182	0.1	3913.9
27617	8.085	5.9091	0.1	3940.9
27618	8.2688	0.27273	0.1	3884.3
27619	8.3606	0.18182	0.1	3858.8
27620	8.2688	9.0909e-002	0.1	3885.4
27621	8.2688	0.45455	0.1	3880.8
27622	8.3606	0.36364	0.1	3855.
27623	8.2688	0.63636	0.1	3877.8
27624	8.3606	0.54545	0.1	3852.1
27625	8.2688	0.81818	0.1	3874.9
27626	8.3606	0.72727	0.1	3849.2
27627	8.2688	1.	0.1	3872.2
27628	8.3606	0.90909	0.1	3846.6
27629	8.2688	1.1818	0.1	3869.6
27630	8.3606	1.0909	0.1	3844.
27631	8.2688	1.3636	0.1	3867.2
27632	8.3606	1.2727	0.1	3841.6
27633	8.2688	1.5455	0.1	3864.9
27634	8.3606	1.4545	0.1	3839.4
27635	8.2688	1.7273	0.1	3862.9
27636	8.3606	1.6364	0.1	3837.4
27637	8.2688	1.9091	0.1	3861.1
27638	8.3606	1.8182	0.1	3835.6
27639	8.2688	2.0909	0.1	3859.5
27640	8.3606	2.	0.1	3834.
27641	8.2688	2.2727	0.1	3858.2
27642	8.3606	2.1818	0.1	3832.6
27643	8.2688	2.4545	0.1	3857.2
27644	8.3606	2.3636	0.1	3831.5
27645	8.2688	2.6364	0.1	3856.5
27646	8.3606	2.5455	0.1	3830.6
27647	8.2688	2.8182	0.1	3856.
27648	8.3606	2.7273	0.1	3830.1
27649	8.2688	3.	0.1	3855.9
27650	8.3606	2.9091	0.1	3829.8
27651	8.2688	3.1818	0.1	3856.
27652	8.3606	3.0909	0.1	3829.8
27653	8.2688	3.3636	0.1	3856.5
27654	8.3606	3.2727	0.1	3830.1
27655	8.2688	3.5455	0.1	3857.2
27656	8.3606	3.4545	0.1	3830.6
27657	8.2688	3.7273	0.1	3858.2
27658	8.3606	3.6364	0.1	3831.5
27659	8.2688	3.9091	0.1	3859.5
27660	8.3606	3.8182	0.1	3832.6
27661	8.2688	4.0909	0.1	3861.1
27662	8.3606	4.	0.1	3834.
27663	8.2688	4.2727	0.1	3862.9
27664	8.3606	4.1818	0.1	3835.6
27665	8.2688	4.4545	0.1	3864.9
27666	8.3606	4.3636	0.1	3837.4
27667	8.2688	4.6364	0.1	3867.2
27668	8.3606	4.5455	0.1	3839.4
27669	8.2688	4.8182	0.1	3869.6
27670	8.3606	4.7273	0.1	3841.6
27671	8.2688	5.	0.1	3872.2
27672	8.3606	4.9091	0.1	3844.
27673	8.2688	5.1818	0.1	3874.9
27674	8.3606	5.0909	0.1	3846.6
27675	8.2688	5.3636	0.1	3877.8
27676	8.3606	5.2727	0.1	3849.2
27677	8.2688	5.5455	0.1	3880.8
27678	8.3606	5.4545	0.1	3852.1
27679	8.2688	5.7273	0.1	3884.3
27680	8.3606	5.6364	0.1	3855.
27681	8.3606	5.8182	0.1	3858.8
27682	8.2688	5.9091	0.1	3885.4
27683	8.4525	0.27273	0.1	3829.4
27684	8.5444	0.18182	0.1	3803.9
27685	8.4525	9.0909e-002	0.1	3830.2
27686	8.4525	0.45455	0.1	3826.2
27687	8.5444	0.36364	0.1	3800.4
27688	8.4525	0.63636	0.1	3823.5
27689	8.5444	0.54545	0.1	3797.7
27690	8.4525	0.81818	0.1	3820.9
27691	8.5444	0.72727	0.1	3795.2
27692	8.4525	1.	0.1	3818.4
27693	8.5444	0.90909	0.1	3792.8
27694	8.4525	1.1818	0.1	3816.1
27695	8.5444	1.0909	0.1	3790.5
27696	8.4525	1.3636	0.1	3813.9
27697	8.5444	1.2727	0.1	3788.3
27698	8.4525	1.5455	0.1	3811.9
27699	8.5444	1.4545	0.1	3786.3
27700	8.4525	1.7273	0.1	3810.
27701	8.5444	1.6364	0.1	3784.5
27702	8.4525	1.9091	0.1	3808.4
27703	8.5444	1.8182	0.1	3782.9
27704	8.4525	2.0909	0.1	3807.
27705	8.5444	2.	0.1	3781.5
27706	8.4525	2.2727	0.1	3805.8
27707	8.5444	2.1818	0.1	3780.2
27708	8.4525	2.4545	0.1	3804.9
27709	8.5444	2.3636	0.1	3779.2
27710	8.4525	2.6364	0.1	3804.2
27711	8.5444	2.5455	0.1	3778.5
27712	8.4525	2.8182	0.1	3803.8
27713	8.5444	2.7273	0.1	3778.
27714	8.4525	3.	0.1	3803.7
27715	8.5444	2.9091	0.1	3777.7
27716	8.4525	3.1818	0.1	3803.8
27717	8.5444	3.0909	0.1	3777.7
27718	8.4525	3.3636	0.1	3804.2
27719	8.5444	3.2727	0.1	3778.
27720	8.4525	3.5455	0.1	3804.9
27721	8.5444	3.4545	0.1	3778.5
27722	8.4525	3.7273	0.1	3805.8
27723	8.5444	3.6364	0.1	3779.2
27724	8.4525	3.9091	0.1	3807.
27725	8.5444	3.8182	0.1	3780.2
27726	8.4525	4.0909	0.1	3808.4
27727	8.5444	4.	0.1	3781.5
27728	8.4525	4.2727	0.1	3810.
27729	8.5444	4.1818	0.1	3782.9
27730	8.4525	4.4545	0.1	3811.9
27731	8.5444	4.3636	0.1	3784.5
27732	8.4525	4.6364	0.1	3813.9
27733	8.5444	4.5455	0.1	3786.3
27734	8.4525	4.8182	0.1	3816.1
27735	8.5444	4.7273	0.1	3788.3
27736	8.4525	5.	0.1	3818.4
27737	8.5444	4.9091	0.1	3790.5
27738	8.4525	5.1818	0.1	3820.9
27739	8.5444	5.0909	0.1	3792.8
27740	8.4525	5.3636	0.1	3823.5
27741	8.5444	5.2727	0.1	3795.2
27742	8.4525	5.5455	0.1	3826.2
27743	8.5444	5.4545	0.1	3797.7
27744	8.4525	5.7273	0.1	3829.4
27745	8.5444	5.6364	0.1	3800.4
27746	8.5444	5.8182	0.1	3803.9
27747	8.4525	5.9091	0.1	3830.2
27748	8.6362	0.27273	0.1	3774.8
27749	8.7281	0.18182	0.1	3749.2
27750	8.6362	9.0909e-002	0.1	3775.2
27751	8.6362	0.45455	0.1	3771.8
27752	8.7281	0.36364	0.1	3745.9
27753	8.6362	0.63636	0.1	3769.4
27754	8.7281	0.54545	0.1	3743.5
27755	8.6362	0.81818	0.1	3767.
27756	8.7281	0.72727	0.1	3741.3
27757	8.6362	1.	0.1	3764.8
27758	8.7281	0.90909	0.1	3739.1
27759	8.6362	1.1818	0.1	3762.7
27760	8.7281	1.0909	0.1	3737.1
27761	8.6362	1.3636	0.1	3760.8
27762	8.7281	1.2727	0.1	3735.2
27763	8.6362	1.5455	0.1	3759.
27764	8.7281	1.4545	0.1	3733.5
27765	8.6362	1.7273	0.1	3757.4
27766	8.7281	1.6364	0.1	3731.9
27767	8.6362	1.9091	0.1	3755.9
27768	8.7281	1.8182	0.1	3730.4
27769	8.6362	2.0909	0.1	3754.7
27770	8.7281	2.	0.1	3729.1
27771	8.6362	2.2727	0.1	3753.6
27772	8.7281	2.1818	0.1	3728.
27773	8.6362	2.4545	0.1	3752.8
27774	8.7281	2.3636	0.1	3727.2
27775	8.6362	2.6364	0.1	3752.2
27776	8.7281	2.5455	0.1	3726.5
27777	8.6362	2.8182	0.1	3751.8
27778	8.7281	2.7273	0.1	3726.
27779	8.6362	3.	0.1	3751.7
27780	8.7281	2.9091	0.1	3725.8
27781	8.6362	3.1818	0.1	3751.8
27782	8.7281	3.0909	0.1	3725.8
27783	8.6362	3.3636	0.1	3752.2
27784	8.7281	3.2727	0.1	3726.
27785	8.6362	3.5455	0.1	3752.8
27786	8.7281	3.4545	0.1	3726.5
27787	8.6362	3.7273	0.1	3753.6
27788	8.7281	3.6364	0.1	3727.2
27789	8.6362	3.9091	0.1	3754.7
27790	8.7281	3.8182	0.1	3728.
27791	8.6362	4.0909	0.1	3755.9
27792	8.7281	4.	0.1	3729.1
27793	8.6362	4.2727	0.1	3757.4
27794	8.7281	4.1818	0.1	3730.4
27795	8.6362	4.4545	0.1	3759.
27796	8.7281	4.3636	0.1	3731.9
27797	8.6362	4.6364	0.1	3760.8
27798	8.7281	4.5455	0.1	3733.5
27799	8.6362	4.8182	0.1	3762.7
27800	8.7281	4.7273	0.1	3735.2
27801	8.6362	5.	0.1	3764.8
27802	8.7281	4.9091	0.1	3737.1
27803	8.6362	5.1818	0.1	3767.
27804	8.7281	5.0909	0.1	3739.1
27805	8.6362	5.3636	0.1	3769.4
27806	8.7281	5.2727	0.1	3741.3
27807	8.6362	5.5455	0.1	3771.8
27808	8.7281	5.4545	0.1	3743.5
27809	8.6362	5.7273	0.1	3774.8
27810	8.7281	5.6364	0.1	3745.9
27811	8.7281	5.8182	0.1	3749.2
27812	8.6362	5.9091	0.1	3775.2
27813	8.82	0.27273	0.1	3720.3
27814	8.9119	0.18182	0.1	3694.7
27815	8.82	9.0909e-002	0.1	3720.4
27816	8.82	0.45455	0.1	3717.6
27817	8.9119	0.36364	0.1	3691.7
27818	8.82	0.63636	0.1	3715.4
27819	8.9119	0.54545	0.1	3689.5
27820	8.82	0.81818	0.1	3713.4
27821	8.9119	0.72727	0.1	3687.6
27822	8.82	1.	0.1	3711.4
27823	8.9119	0.90909	0.1	3685.7
27824	8.82	1.1818	0.1	3709.6
27825	8.9119	1.0909	0.1	3683.9
27826	8.82	1.3636	0.1	3707.9
27827	8.9119	1.2727	0.1	3682.3
27828	8.82	1.5455	0.1	3706.3
27829	8.9119	1.4545	0.1	3680.8
27830	8.82	1.7273	0.1	3704.9
27831	8.9119	1.6364	0.1	3679.4
27832	8.82	1.9091	0.1	3703.6
27833	8.9119	1.8182	0.1	3678.1
27834	8.82	2.0909	0.1	3702.5
27835	8.9119	2.	0.1	3677.
27836	8.82	2.2727	0.1	3701.6
27837	8.9119	2.1818	0.1	3676.1
27838	8.82	2.4545	0.1	3700.8
27839	8.9119	2.3636	0.1	3675.3
27840	8.82	2.6364	0.1	3700.3
27841	8.9119	2.5455	0.1	3674.7
27842	8.82	2.8182	0.1	3700.
27843	8.9119	2.7273	0.1	3674.3
27844	8.82	3.	0.1	3699.9
27845	8.9119	2.9091	0.1	3674.1
27846	8.82	3.1818	0.1	3700.
27847	8.9119	3.0909	0.1	3674.1
27848	8.82	3.3636	0.1	3700.3
27849	8.9119	3.2727	0.1	3674.3
27850	8.82	3.5455	0.1	3700.8
27851	8.9119	3.4545	0.1	3674.7
27852	8.82	3.7273	0.1	3701.6
27853	8.9119	3.6364	0.1	3675.3
27854	8.82	3.9091	0.1	3702.5
27855	8.9119	3.8182	0.1	3676.1
27856	8.82	4.0909	0.1	3703.6
27857	8.9119	4.	0.1	3677.
27858	8.82	4.2727	0.1	3704.9
27859	8.9119	4.1818	0.1	3678.1
27860	8.82	4.4545	0.1	3706.3
27861	8.9119	4.3636	0.1	3679.4
27862	8.82	4.6364	0.1	3707.9
27863	8.9119	4.5455	0.1	3680.8
27864	8.82	4.8182	0.1	3709.6
27865	8.9119	4.7273	0.1	3682.3
27866	8.82	5.	0.1	3711.4
27867	8.9119	4.9091	0.1	3683.9
27868	8.82	5.1818	0.1	3713.4
27869	8.9119	5.0909	0.1	3685.7
27870	8.82	5.3636	0.1	3715.4
27871	8.9119	5.2727	0.1	3687.6
27872	8.82	5.5455	0.1	3717.6
27873	8.9119	5.4545	0.1	3689.5
27874	8.82	5.7273	0.1	3720.3
27875	8.9119	5.6364	0.1	3691.7
27876	8.9119	5.8182	0.1	3694.7
27877	8.82	5.9091	0.1	3720.4
27878	9.0037	0.27273	0.1	3666.
27879	9.0956	0.18182	0.1	3640.3
27880	9.0037	9.0909e-002	0.1	3665.8
27881	9.0037	0.45455	0.1	3663.6
27882	9.0956	0.36364	0.1	3637.6
27883	9.0037	0.63636	0.1	3661.7
27884	9.0956	0.54545	0.1	3635.7
27885	9.0037	0.81818	0.1	3659.9
27886	9.0956	0.72727	0.1	3634.
27887	9.0037	1.	0.1	3658.2
27888	9.0956	0.90909	0.1	3632.4
27889	9.0037	1.1818	0.1	3656.6
27890	9.0956	1.0909	0.1	3630.9
27891	9.0037	1.3636	0.1	3655.2
27892	9.0956	1.2727	0.1	3629.6
27893	9.0037	1.5455	0.1	3653.8
27894	9.0956	1.4545	0.1	3628.3
27895	9.0037	1.7273	0.1	3652.6
27896	9.0956	1.6364	0.1	3627.1
27897	9.0037	1.9091	0.1	3651.5
27898	9.0956	1.8182	0.1	3626.
27899	9.0037	2.0909	0.1	3650.5
27900	9.0956	2.	0.1	3625.1
27901	9.0037	2.2727	0.1	3649.7
27902	9.0956	2.1818	0.1	3624.3
27903	9.0037	2.4545	0.1	3649.1
27904	9.0956	2.3636	0.1	3623.6
27905	9.0037	2.6364	0.1	3648.6
27906	9.0956	2.5455	0.1	3623.1
27907	9.0037	2.8182	0.1	3648.4
27908	9.0956	2.7273	0.1	3622.8
27909	9.0037	3.	0.1	3648.3
27910	9.0956	2.9091	0.1	3622.6
27911	9.0037	3.1818	0.1	3648.4
27912	9.0956	3.0909	0.1	3622.6
27913	9.0037	3.3636	0.1	3648.6
27914	9.0956	3.2727	0.1	3622.8
27915	9.0037	3.5455	0.1	3649.1
27916	9.0956	3.4545	0.1	3623.1
27917	9.0037	3.7273	0.1	3649.7
27918	9.0956	3.6364	0.1	3623.6
27919	9.0037	3.9091	0.1	3650.5
27920	9.0956	3.8182	0.1	3624.3
27921	9.0037	4.0909	0.1	3651.5
27922	9.0956	4.	0.1	3625.1
27923	9.0037	4.2727	0.1	3652.6
27924	9.0956	4.1818	0.1	3626.
27925	9.0037	4.4545	0.1	3653.8
27926	9.0956	4.3636	0.1	3627.1
27927	9.0037	4.6364	0.1	3655.2
27928	9.0956	4.5455	0.1	3628.3
27929	9.0037	4.8182	0.1	3656.6
27930	9.0956	4.7273	0.1	3629.6
27931	9.0037	5.	0.1	3658.2
27932	9.0956	4.9091	0.1	3630.9
27933	9.0037	5.1818	0.1	3659.9
27934	9.0956	5.0909	0.1	3632.4
27935	9.0037	5.3636	0.1	3661.7
27936	9.0956	5.2727	0.1	3634.
27937	9.0037	5.5455	0.1	3663.6
27938	9.0956	5.4545	0.1	3635.7
27939	9.0037	5.7273	0.1	3666.
27940	9.0956	5.6364	0.1	3637.6
27941	9.0956	5.8182	0.1	3640.3
27942	9.0037	5.9091	0.1	3665.8
27943	9.1875	0.27273	0.1	3611.8
27944	9.2794	0.18182	0.1	3586.1
27945	9.1875	9.0909e-002	0.1	3611.3
27946	9.1875	0.45455	0.1	3609.7
27947	9.2794	0.36364	0.1	3583.5
27948	9.1875	0.63636	0.1	3608.
27949	9.2794	0.54545	0.1	3582.
27950	9.1875	0.81818	0.1	3606.5
27951	9.2794	0.72727	0.1	3580.6
27952	9.1875	1.	0.1	3605.2
27953	9.2794	0.90909	0.1	3579.3
27954	9.1875	1.1818	0.1	3603.9
27955	9.2794	1.0909	0.1	3578.1
27956	9.1875	1.3636	0.1	3602.6
27957	9.2794	1.2727	0.1	3577.
27958	9.1875	1.5455	0.1	3601.5
27959	9.2794	1.4545	0.1	3576.
27960	9.1875	1.7273	0.1	3600.5
27961	9.2794	1.6364	0.1	3575.
27962	9.1875	1.9091	0.1	3599.6
27963	9.2794	1.8182	0.1	3574.2
27964	9.1875	2.0909	0.1	3598.8
27965	9.2794	2.	0.1	3573.4
27966	9.1875	2.2727	0.1	3598.1
27967	9.2794	2.1818	0.1	3572.7
27968	9.1875	2.4545	0.1	3597.6
27969	9.2794	2.3636	0.1	3572.2
27970	9.1875	2.6364	0.1	3597.2
27971	9.2794	2.5455	0.1	3571.8
27972	9.1875	2.8182	0.1	3597.
27973	9.2794	2.7273	0.1	3571.5
27974	9.1875	3.	0.1	3596.9
27975	9.2794	2.9091	0.1	3571.4
27976	9.1875	3.1818	0.1	3597.
27977	9.2794	3.0909	0.1	3571.4
27978	9.1875	3.3636	0.1	3597.2
27979	9.2794	3.2727	0.1	3571.5
27980	9.1875	3.5455	0.1	3597.6
27981	9.2794	3.4545	0.1	3571.8
27982	9.1875	3.7273	0.1	3598.1
27983	9.2794	3.6364	0.1	3572.2
27984	9.1875	3.9091	0.1	3598.8
27985	9.2794	3.8182	0.1	3572.7
27986	9.1875	4.0909	0.1	3599.6
27987	9.2794	4.	0.1	3573.4
27988	9.1875	4.2727	0.1	3600.5
27989	9.2794	4.1818	0.1	3574.2
27990	9.1875	4.4545	0.1	3601.5
27991	9.2794	4.3636	0.1	3575.
27992	9.1875	4.6364	0.1	3602.6
27993	9.2794	4.5455	0.1	3576.
27994	9.1875	4.8182	0.1	3603.9
27995	9.2794	4.7273	0.1	3577.
27996	9.1875	5.	0.1	3605.2
27997	9.2794	4.9091	0.1	3578.1
27998	9.1875	5.1818	0.1	3606.5
27999	9.2794	5.0909	0.1	3579.3
28000	9.1875	5.3636	0.1	3608.
28001	9.2794	5.2727	0.1	3580.6
28002	9.1875	5.5455	0.1	3609.7
28003	9.2794	5.4545	0.1	3582.
28004	9.1875	5.7273	0.1	3611.8
28005	9.2794	5.6364	0.1	3583.5
28006	9.2794	5.8182	0.1	3586.1
28007	9.1875	5.9091	0.1	3611.3
28008	9.3713	0.27273	0.1	3557.7
28009	9.4631	0.18182	0.1	3531.8
28010	9.3713	9.0909e-002	0.1	3556.9
28011	9.3713	0.45455	0.1	3555.8
28012	9.4631	0.36364	0.1	3529.6
28013	9.3713	0.63636	0.1	3554.5
28014	9.4631	0.54545	0.1	3528.3
28015	9.3713	0.81818	0.1	3553.3
28016	9.4631	0.72727	0.1	3527.3
28017	9.3713	1.	0.1	3552.2
28018	9.4631	0.90909	0.1	3526.3
28019	9.3713	1.1818	0.1	3551.2
28020	9.4631	1.0909	0.1	3525.4
28021	9.3713	1.3636	0.1	3550.3
28022	9.4631	1.2727	0.1	3524.6
28023	9.3713	1.5455	0.1	3549.4
28024	9.4631	1.4545	0.1	3523.9
28025	9.3713	1.7273	0.1	3548.7
28026	9.4631	1.6364	0.1	3523.2
28027	9.3713	1.9091	0.1	3547.9
28028	9.4631	1.8182	0.1	3522.5
28029	9.3713	2.0909	0.1	3547.3
28030	9.4631	2.	0.1	3522.
28031	9.3713	2.2727	0.1	3546.8
28032	9.4631	2.1818	0.1	3521.5
28033	9.3713	2.4545	0.1	3546.4
28034	9.4631	2.3636	0.1	3521.1
28035	9.3713	2.6364	0.1	3546.1
28036	9.4631	2.5455	0.1	3520.8
28037	9.3713	2.8182	0.1	3545.9
28038	9.4631	2.7273	0.1	3520.5
28039	9.3713	3.	0.1	3545.8
28040	9.4631	2.9091	0.1	3520.4
28041	9.3713	3.1818	0.1	3545.9
28042	9.4631	3.0909	0.1	3520.4
28043	9.3713	3.3636	0.1	3546.1
28044	9.4631	3.2727	0.1	3520.5
28045	9.3713	3.5455	0.1	3546.4
28046	9.4631	3.4545	0.1	3520.8
28047	9.3713	3.7273	0.1	3546.8
28048	9.4631	3.6364	0.1	3521.1
28049	9.3713	3.9091	0.1	3547.3
28050	9.4631	3.8182	0.1	3521.5
28051	9.3713	4.0909	0.1	3547.9
28052	9.4631	4.	0.1	3522.
28053	9.3713	4.2727	0.1	3548.7
28054	9.4631	4.1818	0.1	3522.5
28055	9.3713	4.4545	0.1	3549.4
28056	9.4631	4.3636	0.1	3523.2
28057	9.3713	4.6364	0.1	3550.3
28058	9.4631	4.5455	0.1	3523.9
28059	9.3713	4.8182	0.1	3551.2
28060	9.4631	4.7273	0.1	3524.6
28061	9.3713	5.	0.1	3552.2
28062	9.4631	4.9091	0.1	3525.4
28063	9.3713	5.1818	0.1	3553.3
28064	9.4631	5.0909	0.1	3526.3
28065	9.3713	5.3636	0.1	3554.5
28066	9.4631	5.2727	0.1	3527.3
28067	9.3713	5.5455	0.1	3555.8
28068	9.4631	5.4545	0.1	3528.3
28069	9.3713	5.7273	0.1	3557.7
28070	9.4631	5.6364	0.1	3529.6
28071	9.4631	5.8182	0.1	3531.8
28072	9.3713	5.9091	0.1	3556.9
28073	9.555	0.27273	0.1	3503.6
28074	9.6469	0.18182	0.1	3477.6
28075	9.555	9.0909e-002	0.1	3502.5
28076	9.555	0.45455	0.1	3502.1
28077	9.6469	0.36364	0.1	3475.7
28078	9.555	0.63636	0.1	3501.1
28079	9.6469	0.54545	0.1	3474.7
28080	9.555	0.81818	0.1	3500.2
28081	9.6469	0.72727	0.1	3474.
28082	9.555	1.	0.1	3499.5
28083	9.6469	0.90909	0.1	3473.4
28084	9.555	1.1818	0.1	3498.8
28085	9.6469	1.0909	0.1	3472.9
28086	9.555	1.3636	0.1	3498.1
28087	9.6469	1.2727	0.1	3472.4
28088	9.555	1.5455	0.1	3497.6
28089	9.6469	1.4545	0.1	3471.9
28090	9.555	1.7273	0.1	3497.
28091	9.6469	1.6364	0.1	3471.5
28092	9.555	1.9091	0.1	3496.5
28093	9.6469	1.8182	0.1	3471.1
28094	9.555	2.0909	0.1	3496.1
28095	9.6469	2.	0.1	3470.8
28096	9.555	2.2727	0.1	3495.7
28097	9.6469	2.1818	0.1	3470.5
28098	9.555	2.4545	0.1	3495.4
28099	9.6469	2.3636	0.1	3470.2
28100	9.555	2.6364	0.1	3495.2
28101	9.6469	2.5455	0.1	3470.
28102	9.555	2.8182	0.1	3495.1
28103	9.6469	2.7273	0.1	3469.9
28104	9.555	3.	0.1	3495.
28105	9.6469	2.9091	0.1	3469.8
28106	9.555	3.1818	0.1	3495.1
28107	9.6469	3.0909	0.1	3469.8
28108	9.555	3.3636	0.1	3495.2
28109	9.6469	3.2727	0.1	3469.9
28110	9.555	3.5455	0.1	3495.4
28111	9.6469	3.4545	0.1	3470.
28112	9.555	3.7273	0.1	3495.7
28113	9.6469	3.6364	0.1	3470.2
28114	9.555	3.9091	0.1	3496.1
28115	9.6469	3.8182	0.1	3470.5
28116	9.555	4.0909	0.1	3496.5
28117	9.6469	4.	0.1	3470.8
28118	9.555	4.2727	0.1	3497.
28119	9.6469	4.1818	0.1	3471.1
28120	9.555	4.4545	0.1	3497.6
28121	9.6469	4.3636	0.1	3471.5
28122	9.555	4.6364	0.1	3498.1
28123	9.6469	4.5455	0.1	3471.9
28124	9.555	4.8182	0.1	3498.8
28125	9.6469	4.7273	0.1	3472.4
28126	9.555	5.	0.1	3499.5
28127	9.6469	4.9091	0.1	3472.9
28128	9.555	5.1818	0.1	3500.2
28129	9.6469	5.0909	0.1	3473.4
28130	9.555	5.3636	0.1	3501.1
28131	9.6469	5.2727	0.1	3474.
28132	9.555	5.5455	0.1	3502.1
28133	9.6469	5.4545	0.1	3474.7
28134	9.555	5.7273	0.1	3503.6
28135	9.6469	5.6364	0.1	3475.7
28136	9.6469	5.8182	0.1	3477.6
28137	9.555	5.9091	0.1	3502.5
28138	9.7388	0.27273	0.1	3449.5
28139	9.8306	0.18182	0.1	3423.3
28140	9.7388	9.0909e-002	0.1	3448.1
28141	9.7388	0.45455	0.1	3448.3
28142	9.8306	0.36364	0.1	3421.7
28143	9.7388	0.63636	0.1	3447.7
28144	9.8306	0.54545	0.1	3421.1
28145	9.7388	0.81818	0.1	3447.2
28146	9.8306	0.72727	0.1	3420.8
28147	9.7388	1.	0.1	3446.8
28148	9.8306	0.90909	0.1	3420.6
28149	9.7388	1.1818	0.1	3446.5
28150	9.8306	1.0909	0.1	3420.4
28151	9.7388	1.3636	0.1	3446.2
28152	9.8306	1.2727	0.1	3420.3
28153	9.7388	1.5455	0.1	3445.9
28154	9.8306	1.4545	0.1	3420.2
28155	9.7388	1.7273	0.1	3445.6
28156	9.8306	1.6364	0.1	3420.1
28157	9.7388	1.9091	0.1	3445.4
28158	9.8306	1.8182	0.1	3420.
28159	9.7388	2.0909	0.1	3445.2
28160	9.8306	2.	0.1	3420.
28161	9.7388	2.2727	0.1	3445.
28162	9.8306	2.1818	0.1	3419.9
28163	9.7388	2.4545	0.1	3444.8
28164	9.8306	2.3636	0.1	3419.8
28165	9.7388	2.6364	0.1	3444.7
28166	9.8306	2.5455	0.1	3419.7
28167	9.7388	2.8182	0.1	3444.6
28168	9.8306	2.7273	0.1	3419.7
28169	9.7388	3.	0.1	3444.6
28170	9.8306	2.9091	0.1	3419.6
28171	9.7388	3.1818	0.1	3444.6
28172	9.8306	3.0909	0.1	3419.6
28173	9.7388	3.3636	0.1	3444.7
28174	9.8306	3.2727	0.1	3419.7
28175	9.7388	3.5455	0.1	3444.8
28176	9.8306	3.4545	0.1	3419.7
28177	9.7388	3.7273	0.1	3445.
28178	9.8306	3.6364	0.1	3419.8
28179	9.7388	3.9091	0.1	3445.2
28180	9.8306	3.8182	0.1	3419.9
28181	9.7388	4.0909	0.1	3445.4
28182	9.8306	4.	0.1	3420.
28183	9.7388	4.2727	0.1	3445.6
28184	9.8306	4.1818	0.1	3420.
28185	9.7388	4.4545	0.1	3445.9
28186	9.8306	4.3636	0.1	3420.1
28187	9.7388	4.6364	0.1	3446.2
28188	9.8306	4.5455	0.1	3420.2
28189	9.7388	4.8182	0.1	3446.5
28190	9.8306	4.7273	0.1	3420.3
28191	9.7388	5.	0.1	3446.8
28192	9.8306	4.9091	0.1	3420.4
28193	9.7388	5.1818	0.1	3447.2
28194	9.8306	5.0909	0.1	3420.6
28195	9.7388	5.3636	0.1	3447.7
28196	9.8306	5.2727	0.1	3420.8
28197	9.7388	5.5455	0.1	3448.3
28198	9.8306	5.4545	0.1	3421.1
28199	9.7388	5.7273	0.1	3449.5
28200	9.8306	5.6364	0.1	3421.7
28201	9.8306	5.8182	0.1	3423.3
28202	9.7388	5.9091	0.1	3448.1
28203	9.9225	0.27273	0.1	3395.3
28204	10.014	0.18182	0.1	3368.7
28205	9.9225	9.0909e-002	0.1	3393.5
28206	9.9225	0.45455	0.1	3394.5
28207	10.014	0.36364	0.1	3367.5
28208	9.9225	0.63636	0.1	3394.2
28209	10.014	0.54545	0.1	3367.4
28210	9.9225	0.81818	0.1	3394.2
28211	10.014	0.72727	0.1	3367.5
28212	9.9225	1.	0.1	3394.2
28213	10.014	0.90909	0.1	3367.8
28214	9.9225	1.1818	0.1	3394.3
28215	10.014	1.0909	0.1	3368.
28216	9.9225	1.3636	0.1	3394.4
28217	10.014	1.2727	0.1	3368.4
28218	9.9225	1.5455	0.1	3394.4
28219	10.014	1.4545	0.1	3368.7
28220	9.9225	1.7273	0.1	3394.5
28221	10.014	1.6364	0.1	3369.
28222	9.9225	1.9091	0.1	3394.6
28223	10.014	1.8182	0.1	3369.2
28224	9.9225	2.0909	0.1	3394.6
28225	10.014	2.	0.1	3369.5
28226	9.9225	2.2727	0.1	3394.6
28227	10.014	2.1818	0.1	3369.6
28228	9.9225	2.4545	0.1	3394.6
28229	10.014	2.3636	0.1	3369.7
28230	9.9225	2.6364	0.1	3394.6
28231	10.014	2.5455	0.1	3369.8
28232	9.9225	2.8182	0.1	3394.6
28233	10.014	2.7273	0.1	3369.9
28234	9.9225	3.	0.1	3394.6
28235	10.014	2.9091	0.1	3369.9
28236	9.9225	3.1818	0.1	3394.6
28237	10.014	3.0909	0.1	3369.9
28238	9.9225	3.3636	0.1	3394.6
28239	10.014	3.2727	0.1	3369.9
28240	9.9225	3.5455	0.1	3394.6
28241	10.014	3.4545	0.1	3369.8
28242	9.9225	3.7273	0.1	3394.6
28243	10.014	3.6364	0.1	3369.7
28244	9.9225	3.9091	0.1	3394.6
28245	10.014	3.8182	0.1	3369.6
28246	9.9225	4.0909	0.1	3394.6
28247	10.014	4.	0.1	3369.5
28248	9.9225	4.2727	0.1	3394.5
28249	10.014	4.1818	0.1	3369.2
28250	9.9225	4.4545	0.1	3394.4
28251	10.014	4.3636	0.1	3369.
28252	9.9225	4.6364	0.1	3394.4
28253	10.014	4.5455	0.1	3368.7
28254	9.9225	4.8182	0.1	3394.3
28255	10.014	4.7273	0.1	3368.4
28256	9.9225	5.	0.1	3394.2
28257	10.014	4.9091	0.1	3368.
28258	9.9225	5.1818	0.1	3394.2
28259	10.014	5.0909	0.1	3367.8
28260	9.9225	5.3636	0.1	3394.2
28261	10.014	5.2727	0.1	3367.5
28262	9.9225	5.5455	0.1	3394.5
28263	10.014	5.4545	0.1	3367.4
28264	9.9225	5.7273	0.1	3395.3
28265	10.014	5.6364	0.1	3367.5
28266	10.014	5.8182	0.1	3368.7
28267	9.9225	5.9091	0.1	3393.5
28268	10.106	0.27273	0.1	3340.9
28269	10.198	0.18182	0.1	3313.9
28270	10.106	9.0909e-002	0.1	3338.8
28271	10.106	0.45455	0.1	3340.5
28272	10.198	0.36364	0.1	3313.2
28273	10.106	0.63636	0.1	3340.7
28274	10.198	0.54545	0.1	3313.5
28275	10.106	0.81818	0.1	3341.1
28276	10.198	0.72727	0.1	3314.1
28277	10.106	1.	0.1	3341.6
28278	10.198	0.90909	0.1	3314.9
28279	10.106	1.1818	0.1	3342.2
28280	10.198	1.0909	0.1	3315.7
28281	10.106	1.3636	0.1	3342.7
28282	10.198	1.2727	0.1	3316.6
28283	10.106	1.5455	0.1	3343.2
28284	10.198	1.4545	0.1	3317.4
28285	10.106	1.7273	0.1	3343.7
28286	10.198	1.6364	0.1	3318.1
28287	10.106	1.9091	0.1	3344.1
28288	10.198	1.8182	0.1	3318.8
28289	10.106	2.0909	0.1	3344.4
28290	10.198	2.	0.1	3319.4
28291	10.106	2.2727	0.1	3344.7
28292	10.198	2.1818	0.1	3319.8
28293	10.106	2.4545	0.1	3344.9
28294	10.198	2.3636	0.1	3320.2
28295	10.106	2.6364	0.1	3345.1
28296	10.198	2.5455	0.1	3320.5
28297	10.106	2.8182	0.1	3345.1
28298	10.198	2.7273	0.1	3320.7
28299	10.106	3.	0.1	3345.2
28300	10.198	2.9091	0.1	3320.8
28301	10.106	3.1818	0.1	3345.1
28302	10.198	3.0909	0.1	3320.8
28303	10.106	3.3636	0.1	3345.1
28304	10.198	3.2727	0.1	3320.7
28305	10.106	3.5455	0.1	3344.9
28306	10.198	3.4545	0.1	3320.5
28307	10.106	3.7273	0.1	3344.7
28308	10.198	3.6364	0.1	3320.2
28309	10.106	3.9091	0.1	3344.4
28310	10.198	3.8182	0.1	3319.8
28311	10.106	4.0909	0.1	3344.1
28312	10.198	4.	0.1	3319.4
28313	10.106	4.2727	0.1	3343.7
28314	10.198	4.1818	0.1	3318.8
28315	10.106	4.4545	0.1	3343.2
28316	10.198	4.3636	0.1	3318.1
28317	10.106	4.6364	0.1	3342.7
28318	10.198	4.5455	0.1	3317.4
28319	10.106	4.8182	0.1	3342.2
28320	10.198	4.7273	0.1	3316.6
28321	10.106	5.	0.1	3341.6
28322	10.198	4.9091	0.1	3315.7
28323	10.106	5.1818	0.1	3341.1
28324	10.198	5.0909	0.1	3314.9
28325	10.106	5.3636	0.1	3340.7
28326	10.198	5.2727	0.1	3314.1
28327	10.106	5.5455	0.1	3340.5
28328	10.198	5.4545	0.1	3313.5
28329	10.106	5.7273	0.1	3340.9
28330	10.198	5.6364	0.1	3313.2
28331	10.198	5.8182	0.1	3313.9
28332	10.106	5.9091	0.1	3338.8
28333	10.29	0.27273	0.1	3286.1
28334	10.382	0.18182	0.1	3258.7
28335	10.29	9.0909e-002	0.1	3283.6
28336	10.29	0.45455	0.1	3286.2
28337	10.382	0.36364	0.1	3258.4
28338	10.29	0.63636	0.1	3287.
28339	10.382	0.54545	0.1	3259.3
28340	10.29	0.81818	0.1	3287.9
28341	10.382	0.72727	0.1	3260.6
28342	10.29	1.	0.1	3289.
28343	10.382	0.90909	0.1	3261.9
28344	10.29	1.1818	0.1	3290.1
28345	10.382	1.0909	0.1	3263.4
28346	10.29	1.3636	0.1	3291.2
28347	10.382	1.2727	0.1	3264.8
28348	10.29	1.5455	0.1	3292.2
28349	10.382	1.4545	0.1	3266.2
28350	10.29	1.7273	0.1	3293.2
28351	10.382	1.6364	0.1	3267.5
28352	10.29	1.9091	0.1	3294.
28353	10.382	1.8182	0.1	3268.7
28354	10.29	2.0909	0.1	3294.7
28355	10.382	2.	0.1	3269.7
28356	10.29	2.2727	0.1	3295.3
28357	10.382	2.1818	0.1	3270.6
28358	10.29	2.4545	0.1	3295.8
28359	10.382	2.3636	0.1	3271.3
28360	10.29	2.6364	0.1	3296.1
28361	10.382	2.5455	0.1	3271.8
28362	10.29	2.8182	0.1	3296.3
28363	10.382	2.7273	0.1	3272.1
28364	10.29	3.	0.1	3296.3
28365	10.382	2.9091	0.1	3272.3
28366	10.29	3.1818	0.1	3296.3
28367	10.382	3.0909	0.1	3272.3
28368	10.29	3.3636	0.1	3296.1
28369	10.382	3.2727	0.1	3272.1
28370	10.29	3.5455	0.1	3295.8
28371	10.382	3.4545	0.1	3271.8
28372	10.29	3.7273	0.1	3295.3
28373	10.382	3.6364	0.1	3271.3
28374	10.29	3.9091	0.1	3294.7
28375	10.382	3.8182	0.1	3270.6
28376	10.29	4.0909	0.1	3294.
28377	10.382	4.	0.1	3269.7
28378	10.29	4.2727	0.1	3293.2
28379	10.382	4.1818	0.1	3268.7
28380	10.29	4.4545	0.1	3292.2
28381	10.382	4.3636	0.1	3267.5
28382	10.29	4.6364	0.1	3291.2
28383	10.382	4.5455	0.1	3266.2
28384	10.29	4.8182	0.1	3290.1
28385	10.382	4.7273	0.1	3264.8
28386	10.29	5.	0.1	3289.
28387	10.382	4.9091	0.1	3263.4
28388	10.29	5.1818	0.1	3287.9
28389	10.382	5.0909	0.1	3261.9
28390	10.29	5.3636	0.1	3287.
28391	10.382	5.2727	0.1	3260.6
28392	10.29	5.5455	0.1	3286.2
28393	10.382	5.4545	0.1	3259.3
28394	10.29	5.7273	0.1	3286.1
28395	10.382	5.6364	0.1	3258.4
28396	10.382	5.8182	0.1	3258.7
28397	10.29	5.9091	0.1	3283.6
28398	10.474	0.27273	0.1	3230.9
28399	10.566	0.18182	0.1	3202.8
28400	10.474	9.0909e-002	0.1	3228.
28401	10.474	0.45455	0.1	3231.5
28402	10.566	0.36364	0.1	3203.2
28403	10.474	0.63636	0.1	3232.9
28404	10.566	0.54545	0.1	3204.7
28405	10.474	0.81818	0.1	3234.5
28406	10.566	0.72727	0.1	3206.6
28407	10.474	1.	0.1	3236.3
28408	10.566	0.90909	0.1	3208.8
28409	10.474	1.1818	0.1	3238.1
28410	10.566	1.0909	0.1	3211.
28411	10.474	1.3636	0.1	3239.8
28412	10.566	1.2727	0.1	3213.2
28413	10.474	1.5455	0.1	3241.5
28414	10.566	1.4545	0.1	3215.3
28415	10.474	1.7273	0.1	3243.
28416	10.566	1.6364	0.1	3217.3
28417	10.474	1.9091	0.1	3244.4
28418	10.566	1.8182	0.1	3219.1
28419	10.474	2.0909	0.1	3245.6
28420	10.566	2.	0.1	3220.6
28421	10.474	2.2727	0.1	3246.5
28422	10.566	2.1818	0.1	3222.
28423	10.474	2.4545	0.1	3247.3
28424	10.566	2.3636	0.1	3223.
28425	10.474	2.6364	0.1	3247.8
28426	10.566	2.5455	0.1	3223.8
28427	10.474	2.8182	0.1	3248.1
28428	10.566	2.7273	0.1	3224.4
28429	10.474	3.	0.1	3248.2
28430	10.566	2.9091	0.1	3224.6
28431	10.474	3.1818	0.1	3248.1
28432	10.566	3.0909	0.1	3224.6
28433	10.474	3.3636	0.1	3247.8
28434	10.566	3.2727	0.1	3224.4
28435	10.474	3.5455	0.1	3247.3
28436	10.566	3.4545	0.1	3223.8
28437	10.474	3.7273	0.1	3246.5
28438	10.566	3.6364	0.1	3223.
28439	10.474	3.9091	0.1	3245.6
28440	10.566	3.8182	0.1	3222.
28441	10.474	4.0909	0.1	3244.4
28442	10.566	4.	0.1	3220.6
28443	10.474	4.2727	0.1	3243.
28444	10.566	4.1818	0.1	3219.1
28445	10.474	4.4545	0.1	3241.5
28446	10.566	4.3636	0.1	3217.3
28447	10.474	4.6364	0.1	3239.8
28448	10.566	4.5455	0.1	3215.3
28449	10.474	4.8182	0.1	3238.1
28450	10.566	4.7273	0.1	3213.2
28451	10.474	5.	0.1	3236.3
28452	10.566	4.9091	0.1	3211.
28453	10.474	5.1818	0.1	3234.5
28454	10.566	5.0909	0.1	3208.8
28455	10.474	5.3636	0.1	3232.9
28456	10.566	5.2727	0.1	3206.6
28457	10.474	5.5455	0.1	3231.5
28458	10.566	5.4545	0.1	3204.7
28459	10.474	5.7273	0.1	3230.9
28460	10.566	5.6364	0.1	3203.2
28461	10.566	5.8182	0.1	3202.8
28462	10.474	5.9091	0.1	3228.
28463	10.658	0.27273	0.1	3175.
28464	10.749	0.18182	0.1	3146.1
28465	10.658	9.0909e-002	0.1	3171.6
28466	10.658	0.45455	0.1	3176.3
28467	10.749	0.36364	0.1	3147.2
28468	10.658	0.63636	0.1	3178.4
28469	10.749	0.54545	0.1	3149.5
28470	10.658	0.81818	0.1	3180.8
28471	10.749	0.72727	0.1	3152.3
28472	10.658	1.	0.1	3183.4
28473	10.749	0.90909	0.1	3155.3
28474	10.658	1.1818	0.1	3186.
28475	10.749	1.0909	0.1	3158.4
28476	10.658	1.3636	0.1	3188.6
28477	10.749	1.2727	0.1	3161.5
28478	10.658	1.5455	0.1	3191.
28479	10.749	1.4545	0.1	3164.5
28480	10.658	1.7273	0.1	3193.3
28481	10.749	1.6364	0.1	3167.3
28482	10.658	1.9091	0.1	3195.3
28483	10.749	1.8182	0.1	3169.9
28484	10.658	2.0909	0.1	3197.
28485	10.749	2.	0.1	3172.2
28486	10.658	2.2727	0.1	3198.5
28487	10.749	2.1818	0.1	3174.1
28488	10.658	2.4545	0.1	3199.6
28489	10.749	2.3636	0.1	3175.7
28490	10.658	2.6364	0.1	3200.4
28491	10.749	2.5455	0.1	3176.9
28492	10.658	2.8182	0.1	3200.9
28493	10.749	2.7273	0.1	3177.7
28494	10.658	3.	0.1	3201.1
28495	10.749	2.9091	0.1	3178.1
28496	10.658	3.1818	0.1	3200.9
28497	10.749	3.0909	0.1	3178.1
28498	10.658	3.3636	0.1	3200.4
28499	10.749	3.2727	0.1	3177.7
28500	10.658	3.5455	0.1	3199.6
28501	10.749	3.4545	0.1	3176.9
28502	10.658	3.7273	0.1	3198.5
28503	10.749	3.6364	0.1	3175.7
28504	10.658	3.9091	0.1	3197.
28505	10.749	3.8182	0.1	3174.1
28506	10.658	4.0909	0.1	3195.3
28507	10.749	4.	0.1	3172.2
28508	10.658	4.2727	0.1	3193.3
28509	10.749	4.1818	0.1	3169.9
28510	10.658	4.4545	0.1	3191.
28511	10.749	4.3636	0.1	3167.3
28512	10.658	4.6364	0.1	3188.6
28513	10.749	4.5455	0.1	3164.5
28514	10.658	4.8182	0.1	3186.
28515	10.749	4.7273	0.1	3161.5
28516	10.658	5.	0.1	3183.4
28517	10.749	4.9091	0.1	3158.4
28518	10.658	5.1818	0.1	3180.8
28519	10.749	5.0909	0.1	3155.3
28520	10.658	5.3636	0.1	3178.4
28521	10.749	5.2727	0.1	3152.3
28522	10.658	5.5455	0.1	3176.3
28523	10.749	5.4545	0.1	3149.5
28524	10.658	5.7273	0.1	3175.
28525	10.749	5.6364	0.1	3147.2
28526	10.749	5.8182	0.1	3146.1
28527	10.658	5.9091	0.1	3171.6
28528	10.841	0.27273	0.1	3118.2
28529	10.933	0.18182	0.1	3088.3
28530	10.841	9.0909e-002	0.1	3114.3
28531	10.841	0.45455	0.1	3120.3
28532	10.933	0.36364	0.1	3090.2
28533	10.841	0.63636	0.1	3123.3
28534	10.933	0.54545	0.1	3093.4
28535	10.841	0.81818	0.1	3126.7
28536	10.933	0.72727	0.1	3097.2
28537	10.841	1.	0.1	3130.2
28538	10.933	0.90909	0.1	3101.3
28539	10.841	1.1818	0.1	3133.9
28540	10.933	1.0909	0.1	3105.6
28541	10.841	1.3636	0.1	3137.4
28542	10.933	1.2727	0.1	3109.8
28543	10.841	1.5455	0.1	3140.8
28544	10.933	1.4545	0.1	3113.9
28545	10.841	1.7273	0.1	3144.
28546	10.933	1.6364	0.1	3117.8
28547	10.841	1.9091	0.1	3146.8
28548	10.933	1.8182	0.1	3121.4
28549	10.841	2.0909	0.1	3149.3
28550	10.933	2.	0.1	3124.5
28551	10.841	2.2727	0.1	3151.3
28552	10.933	2.1818	0.1	3127.2
28553	10.841	2.4545	0.1	3152.9
28554	10.933	2.3636	0.1	3129.4
28555	10.841	2.6364	0.1	3154.1
28556	10.933	2.5455	0.1	3131.1
28557	10.841	2.8182	0.1	3154.8
28558	10.933	2.7273	0.1	3132.2
28559	10.841	3.	0.1	3155.
28560	10.933	2.9091	0.1	3132.7
28561	10.841	3.1818	0.1	3154.8
28562	10.933	3.0909	0.1	3132.7
28563	10.841	3.3636	0.1	3154.1
28564	10.933	3.2727	0.1	3132.2
28565	10.841	3.5455	0.1	3152.9
28566	10.933	3.4545	0.1	3131.1
28567	10.841	3.7273	0.1	3151.3
28568	10.933	3.6364	0.1	3129.4
28569	10.841	3.9091	0.1	3149.3
28570	10.933	3.8182	0.1	3127.2
28571	10.841	4.0909	0.1	3146.8
28572	10.933	4.	0.1	3124.5
28573	10.841	4.2727	0.1	3144.
28574	10.933	4.1818	0.1	3121.4
28575	10.841	4.4545	0.1	3140.8
28576	10.933	4.3636	0.1	3117.8
28577	10.841	4.6364	0.1	3137.4
28578	10.933	4.5455	0.1	3113.9
28579	10.841	4.8182	0.1	3133.9
28580	10.933	4.7273	0.1	3109.8
28581	10.841	5.	0.1	3130.2
28582	10.933	4.9091	0.1	3105.6
28583	10.841	5.1818	0.1	3126.7
28584	10.933	5.0909	0.1	3101.3
28585	10.841	5.3636	0.1	3123.3
28586	10.933	5.2727	0.1	3097.2
28587	10.841	5.5455	0.1	3120.3
28588	10.933	5.4545	0.1	3093.4
28589	10.841	5.7273	0.1	3118.2
28590	10.933	5.6364	0.1	3090.2
28591	10.933	5.8182	0.1	3088.3
28592	10.841	5.9091	0.1	3114.3
28593	11.025	0.27273	0.1	3060.2
28594	11.117	0.18182	0.1	3029.1
28595	11.025	9.0909e-002	0.1	3055.7
28596	11.025	0.45455	0.1	3063.3
28597	11.117	0.36364	0.1	3031.9
28598	11.025	0.63636	0.1	3067.3
28599	11.117	0.54545	0.1	3036.3
28600	11.025	0.81818	0.1	3071.9
28601	11.117	0.72727	0.1	3041.3
28602	11.025	1.	0.1	3076.6
28603	11.117	0.90909	0.1	3046.7
28604	11.025	1.1818	0.1	3081.5
28605	11.117	1.0909	0.1	3052.3
28606	11.025	1.3636	0.1	3086.3
28607	11.117	1.2727	0.1	3058.
28608	11.025	1.5455	0.1	3090.9
28609	11.117	1.4545	0.1	3063.5
28610	11.025	1.7273	0.1	3095.2
28611	11.117	1.6364	0.1	3068.7
28612	11.025	1.9091	0.1	3099.1
28613	11.117	1.8182	0.1	3073.5
28614	11.025	2.0909	0.1	3102.4
28615	11.117	2.	0.1	3077.8
28616	11.025	2.2727	0.1	3105.3
28617	11.117	2.1818	0.1	3081.4
28618	11.025	2.4545	0.1	3107.5
28619	11.117	2.3636	0.1	3084.4
28620	11.025	2.6364	0.1	3109.1
28621	11.117	2.5455	0.1	3086.7
28622	11.025	2.8182	0.1	3110.1
28623	11.117	2.7273	0.1	3088.3
28624	11.025	3.	0.1	3110.4
28625	11.117	2.9091	0.1	3089.
28626	11.025	3.1818	0.1	3110.1
28627	11.117	3.0909	0.1	3089.
28628	11.025	3.3636	0.1	3109.1
28629	11.117	3.2727	0.1	3088.3
28630	11.025	3.5455	0.1	3107.5
28631	11.117	3.4545	0.1	3086.7
28632	11.025	3.7273	0.1	3105.3
28633	11.117	3.6364	0.1	3084.4
28634	11.025	3.9091	0.1	3102.4
28635	11.117	3.8182	0.1	3081.4
28636	11.025	4.0909	0.1	3099.1
28637	11.117	4.	0.1	3077.8
28638	11.025	4.2727	0.1	3095.2
28639	11.117	4.1818	0.1	3073.5
28640	11.025	4.4545	0.1	3090.9
28641	11.117	4.3636	0.1	3068.7
28642	11.025	4.6364	0.1	3086.3
28643	11.117	4.5455	0.1	3063.5
28644	11.025	4.8182	0.1	3081.5
28645	11.117	4.7273	0.1	3058.
28646	11.025	5.	0.1	3076.6
28647	11.117	4.9091	0.1	3052.3
28648	11.025	5.1818	0.1	3071.9
28649	11.117	5.0909	0.1	3046.7
28650	11.025	5.3636	0.1	3067.3
28651	11.117	5.2727	0.1	3041.3
28652	11.025	5.5455	0.1	3063.3
28653	11.117	5.4545	0.1	3036.3
28654	11.025	5.7273	0.1	3060.2
28655	11.117	5.6364	0.1	3031.9
28656	11.117	5.8182	0.1	3029.1
28657	11.025	5.9091	0.1	3055.7
28658	11.209	0.27273	0.1	3000.7
28659	11.301	0.18182	0.1	2968.
28660	11.209	9.0909e-002	0.1	2995.5
28661	11.209	0.45455	0.1	3004.9
28662	11.301	0.36364	0.1	2972.
28663	11.209	0.63636	0.1	3010.2
28664	11.301	0.54545	0.1	2977.7
28665	11.209	0.81818	0.1	3016.1
28666	11.301	0.72727	0.1	2984.2
28667	11.209	1.	0.1	3022.4
28668	11.301	0.90909	0.1	2991.2
28669	11.209	1.1818	0.1	3028.8
28670	11.301	1.0909	0.1	2998.6
28671	11.209	1.3636	0.1	3035.2
28672	11.301	1.2727	0.1	3006.
28673	11.209	1.5455	0.1	3041.3
28674	11.301	1.4545	0.1	3013.2
28675	11.209	1.7273	0.1	3047.
28676	11.301	1.6364	0.1	3020.1
28677	11.209	1.9091	0.1	3052.2
28678	11.301	1.8182	0.1	3026.5
28679	11.209	2.0909	0.1	3056.7
28680	11.301	2.	0.1	3032.2
28681	11.209	2.2727	0.1	3060.6
28682	11.301	2.1818	0.1	3037.1
28683	11.209	2.4545	0.1	3063.6
28684	11.301	2.3636	0.1	3041.1
28685	11.209	2.6364	0.1	3065.8
28686	11.301	2.5455	0.1	3044.2
28687	11.209	2.8182	0.1	3067.2
28688	11.301	2.7273	0.1	3046.3
28689	11.209	3.	0.1	3067.6
28690	11.301	2.9091	0.1	3047.3
28691	11.209	3.1818	0.1	3067.2
28692	11.301	3.0909	0.1	3047.3
28693	11.209	3.3636	0.1	3065.8
28694	11.301	3.2727	0.1	3046.3
28695	11.209	3.5455	0.1	3063.6
28696	11.301	3.4545	0.1	3044.2
28697	11.209	3.7273	0.1	3060.6
28698	11.301	3.6364	0.1	3041.1
28699	11.209	3.9091	0.1	3056.7
28700	11.301	3.8182	0.1	3037.1
28701	11.209	4.0909	0.1	3052.2
28702	11.301	4.	0.1	3032.2
28703	11.209	4.2727	0.1	3047.
28704	11.301	4.1818	0.1	3026.5
28705	11.209	4.4545	0.1	3041.3
28706	11.301	4.3636	0.1	3020.1
28707	11.209	4.6364	0.1	3035.2
28708	11.301	4.5455	0.1	3013.2
28709	11.209	4.8182	0.1	3028.8
28710	11.301	4.7273	0.1	3006.
28711	11.209	5.	0.1	3022.4
28712	11.301	4.9091	0.1	2998.6
28713	11.209	5.1818	0.1	3016.1
28714	11.301	5.0909	0.1	2991.2
28715	11.209	5.3636	0.1	3010.2
28716	11.301	5.2727	0.1	2984.2
28717	11.209	5.5455	0.1	3004.9
28718	11.301	5.4545	0.1	2977.7
28719	11.209	5.7273	0.1	3000.7
28720	11.301	5.6364	0.1	2972.
28721	11.301	5.8182	0.1	2968.
28722	11.209	5.9091	0.1	2995.5
28723	11.392	0.27273	0.1	2939.2
28724	11.484	0.18182	0.1	2904.5
28725	11.392	9.0909e-002	0.1	2933.2
28726	11.392	0.45455	0.1	2944.7
28727	11.484	0.36364	0.1	2909.9
28728	11.392	0.63636	0.1	2951.6
28729	11.484	0.54545	0.1	2917.1
28730	11.392	0.81818	0.1	2959.2
28731	11.484	0.72727	0.1	2925.5
28732	11.392	1.	0.1	2967.4
28733	11.484	0.90909	0.1	2934.5
28734	11.392	1.1818	0.1	2975.7
28735	11.484	1.0909	0.1	2944.
28736	11.392	1.3636	0.1	2984.
28737	11.484	1.2727	0.1	2953.6
28738	11.392	1.5455	0.1	2992.
28739	11.484	1.4545	0.1	2963.
28740	11.392	1.7273	0.1	2999.5
28741	11.484	1.6364	0.1	2972.
28742	11.392	1.9091	0.1	3006.4
28743	11.484	1.8182	0.1	2980.4
28744	11.392	2.0909	0.1	3012.5
28745	11.484	2.	0.1	2988.
28746	11.392	2.2727	0.1	3017.6
28747	11.484	2.1818	0.1	2994.5
28748	11.392	2.4545	0.1	3021.7
28749	11.484	2.3636	0.1	2999.8
28750	11.392	2.6364	0.1	3024.6
28751	11.484	2.5455	0.1	3004.
28752	11.392	2.8182	0.1	3026.4
28753	11.484	2.7273	0.1	3006.7
28754	11.392	3.	0.1	3027.
28755	11.484	2.9091	0.1	3008.2
28756	11.392	3.1818	0.1	3026.4
28757	11.484	3.0909	0.1	3008.2
28758	11.392	3.3636	0.1	3024.6
28759	11.484	3.2727	0.1	3006.7
28760	11.392	3.5455	0.1	3021.7
28761	11.484	3.4545	0.1	3004.
28762	11.392	3.7273	0.1	3017.6
28763	11.484	3.6364	0.1	2999.8
28764	11.392	3.9091	0.1	3012.5
28765	11.484	3.8182	0.1	2994.5
28766	11.392	4.0909	0.1	3006.4
28767	11.484	4.	0.1	2988.
28768	11.392	4.2727	0.1	2999.5
28769	11.484	4.1818	0.1	2980.4
28770	11.392	4.4545	0.1	2992.
28771	11.484	4.3636	0.1	2972.
28772	11.392	4.6364	0.1	2984.
28773	11.484	4.5455	0.1	2963.
28774	11.392	4.8182	0.1	2975.7
28775	11.484	4.7273	0.1	2953.6
28776	11.392	5.	0.1	2967.4
28777	11.484	4.9091	0.1	2944.
28778	11.392	5.1818	0.1	2959.2
28779	11.484	5.0909	0.1	2934.5
28780	11.392	5.3636	0.1	2951.6
28781	11.484	5.2727	0.1	2925.5
28782	11.392	5.5455	0.1	2944.7
28783	11.484	5.4545	0.1	2917.1
28784	11.392	5.7273	0.1	2939.2
28785	11.484	5.6364	0.1	2909.9
28786	11.484	5.8182	0.1	2904.5
28787	11.392	5.9091	0.1	2933.2
28788	11.576	0.27273	0.1	2875.1
28789	11.668	0.18182	0.1	2837.9
28790	11.576	9.0909e-002	0.1	2868.1
28791	11.576	0.45455	0.1	2882.3
28792	11.668	0.36364	0.1	2845.
28793	11.576	0.63636	0.1	2891.
28794	11.668	0.54545	0.1	2854.1
28795	11.576	0.81818	0.1	2900.7
28796	11.668	0.72727	0.1	2864.7
28797	11.576	1.	0.1	2911.2
28798	11.668	0.90909	0.1	2876.2
28799	11.576	1.1818	0.1	2921.9
28800	11.668	1.0909	0.1	2888.4
28801	11.576	1.3636	0.1	2932.6
28802	11.668	1.2727	0.1	2900.7
28803	11.576	1.5455	0.1	2943.1
28804	11.668	1.4545	0.1	2912.9
28805	11.576	1.7273	0.1	2952.9
28806	11.668	1.6364	0.1	2924.7
28807	11.576	1.9091	0.1	2962.
28808	11.668	1.8182	0.1	2935.6
28809	11.576	2.0909	0.1	2969.9
28810	11.668	2.	0.1	2945.5
28811	11.576	2.2727	0.1	2976.7
28812	11.668	2.1818	0.1	2954.1
28813	11.576	2.4545	0.1	2982.1
28814	11.668	2.3636	0.1	2961.2
28815	11.576	2.6364	0.1	2986.1
28816	11.668	2.5455	0.1	2966.6
28817	11.576	2.8182	0.1	2988.5
28818	11.668	2.7273	0.1	2970.3
28819	11.576	3.	0.1	2989.3
28820	11.668	2.9091	0.1	2972.2
28821	11.576	3.1818	0.1	2988.5
28822	11.668	3.0909	0.1	2972.2
28823	11.576	3.3636	0.1	2986.1
28824	11.668	3.2727	0.1	2970.3
28825	11.576	3.5455	0.1	2982.1
28826	11.668	3.4545	0.1	2966.6
28827	11.576	3.7273	0.1	2976.7
28828	11.668	3.6364	0.1	2961.2
28829	11.576	3.9091	0.1	2969.9
28830	11.668	3.8182	0.1	2954.1
28831	11.576	4.0909	0.1	2962.
28832	11.668	4.	0.1	2945.5
28833	11.576	4.2727	0.1	2952.9
28834	11.668	4.1818	0.1	2935.6
28835	11.576	4.4545	0.1	2943.1
28836	11.668	4.3636	0.1	2924.7
28837	11.576	4.6364	0.1	2932.6
28838	11.668	4.5455	0.1	2912.9
28839	11.576	4.8182	0.1	2921.9
28840	11.668	4.7273	0.1	2900.7
28841	11.576	5.	0.1	2911.2
28842	11.668	4.9091	0.1	2888.4
28843	11.576	5.1818	0.1	2900.7
28844	11.668	5.0909	0.1	2876.2
28845	11.576	5.3636	0.1	2891.
28846	11.668	5.2727	0.1	2864.7
28847	11.576	5.5455	0.1	2882.3
28848	11.668	5.4545	0.1	2854.1
28849	11.576	5.7273	0.1	2875.1
28850	11.668	5.6364	0.1	2845.
28851	11.668	5.8182	0.1	2837.9
28852	11.576	5.9091	0.1	2868.1
28853	11.76	0.27273	0.1	2807.7
28854	11.852	0.18182	0.1	2767.5
28855	11.76	9.0909e-002	0.1	2799.7
28856	11.76	0.45455	0.1	2816.9
28857	11.852	0.36364	0.1	2776.6
28858	11.76	0.63636	0.1	2827.9
28859	11.852	0.54545	0.1	2788.
28860	11.76	0.81818	0.1	2840.2
28861	11.852	0.72727	0.1	2801.3
28862	11.76	1.	0.1	2853.5
28863	11.852	0.90909	0.1	2815.9
28864	11.76	1.1818	0.1	2867.2
28865	11.852	1.0909	0.1	2831.3
28866	11.76	1.3636	0.1	2881.
28867	11.852	1.2727	0.1	2847.1
28868	11.76	1.5455	0.1	2894.5
28869	11.852	1.4545	0.1	2862.8
28870	11.76	1.7273	0.1	2907.3
28871	11.852	1.6364	0.1	2878.
28872	11.76	1.9091	0.1	2919.1
28873	11.852	1.8182	0.1	2892.2
28874	11.76	2.0909	0.1	2929.6
28875	11.852	2.	0.1	2905.1
28876	11.76	2.2727	0.1	2938.5
28877	11.852	2.1818	0.1	2916.4
28878	11.76	2.4545	0.1	2945.6
28879	11.852	2.3636	0.1	2925.7
28880	11.76	2.6364	0.1	2950.9
28881	11.852	2.5455	0.1	2932.9
28882	11.76	2.8182	0.1	2954.
28883	11.852	2.7273	0.1	2937.8
28884	11.76	3.	0.1	2955.1
28885	11.852	2.9091	0.1	2940.3
28886	11.76	3.1818	0.1	2954.
28887	11.852	3.0909	0.1	2940.3
28888	11.76	3.3636	0.1	2950.9
28889	11.852	3.2727	0.1	2937.8
28890	11.76	3.5455	0.1	2945.6
28891	11.852	3.4545	0.1	2932.9
28892	11.76	3.7273	0.1	2938.5
28893	11.852	3.6364	0.1	2925.7
28894	11.76	3.9091	0.1	2929.6
28895	11.852	3.8182	0.1	2916.4
28896	11.76	4.0909	0.1	2919.1
28897	11.852	4.	0.1	2905.1
28898	11.76	4.2727	0.1	2907.3
28899	11.852	4.1818	0.1	2892.2
28900	11.76	4.4545	0.1	2894.5
28901	11.852	4.3636	0.1	2878.
28902	11.76	4.6364	0.1	2881.
28903	11.852	4.5455	0.1	2862.8
28904	11.76	4.8182	0.1	2867.2
28905	11.852	4.7273	0.1	2847.1
28906	11.76	5.	0.1	2853.5
28907	11.852	4.9091	0.1	2831.3
28908	11.76	5.1818	0.1	2840.2
28909	11.852	5.0909	0.1	2815.9
28910	11.76	5.3636	0.1	2827.9
28911	11.852	5.2727	0.1	2801.3
28912	11.76	5.5455	0.1	2816.9
28913	11.852	5.4545	0.1	2788.
28914	11.76	5.7273	0.1	2807.7
28915	11.852	5.6364	0.1	2776.6
28916	11.852	5.8182	0.1	2767.5
28917	11.76	5.9091	0.1	2799.7
28918	11.944	0.27273	0.1	2736.3
28919	12.036	0.18182	0.1	2692.3
28920	11.944	9.0909e-002	0.1	2726.9
28921	11.944	0.45455	0.1	2747.7
28922	12.036	0.36364	0.1	2703.7
28923	11.944	0.63636	0.1	2761.5
28924	12.036	0.54545	0.1	2717.9
28925	11.944	0.81818	0.1	2777.
28926	12.036	0.72727	0.1	2734.5
28927	11.944	1.	0.1	2793.8
28928	12.036	0.90909	0.1	2752.9
28929	11.944	1.1818	0.1	2811.3
28930	12.036	1.0909	0.1	2772.4
28931	11.944	1.3636	0.1	2829.
28932	12.036	1.2727	0.1	2792.6
28933	11.944	1.5455	0.1	2846.4
28934	12.036	1.4545	0.1	2812.7
28935	11.944	1.7273	0.1	2862.9
28936	12.036	1.6364	0.1	2832.3
28937	11.944	1.9091	0.1	2878.3
28938	12.036	1.8182	0.1	2850.7
28939	11.944	2.0909	0.1	2891.9
28940	12.036	2.	0.1	2867.5
28941	11.944	2.2727	0.1	2903.6
28942	12.036	2.1818	0.1	2882.1
28943	11.944	2.4545	0.1	2913.
28944	12.036	2.3636	0.1	2894.4
28945	11.944	2.6364	0.1	2919.9
28946	12.036	2.5455	0.1	2903.8
28947	11.944	2.8182	0.1	2924.1
28948	12.036	2.7273	0.1	2910.3
28949	11.944	3.	0.1	2925.5
28950	12.036	2.9091	0.1	2913.5
28951	11.944	3.1818	0.1	2924.1
28952	12.036	3.0909	0.1	2913.5
28953	11.944	3.3636	0.1	2919.9
28954	12.036	3.2727	0.1	2910.3
28955	11.944	3.5455	0.1	2913.
28956	12.036	3.4545	0.1	2903.8
28957	11.944	3.7273	0.1	2903.6
28958	12.036	3.6364	0.1	2894.4
28959	11.944	3.9091	0.1	2891.9
28960	12.036	3.8182	0.1	2882.1
28961	11.944	4.0909	0.1	2878.3
28962	12.036	4.	0.1	2867.5
28963	11.944	4.2727	0.1	2862.9
28964	12.036	4.1818	0.1	2850.7
28965	11.944	4.4545	0.1	2846.4
28966	12.036	4.3636	0.1	2832.3
28967	11.944	4.6364	0.1	2829.
28968	12.036	4.5455	0.1	2812.7
28969	11.944	4.8182	0.1	2811.3
28970	12.036	4.7273	0.1	2792.6
28971	11.944	5.	0.1	2793.8
28972	12.036	4.9091	0.1	2772.4
28973	11.944	5.1818	0.1	2777.
28974	12.036	5.0909	0.1	2752.9
28975	11.944	5.3636	0.1	2761.5
28976	12.036	5.2727	0.1	2734.5
28977	11.944	5.5455	0.1	2747.7
28978	12.036	5.4545	0.1	2717.9
28979	11.944	5.7273	0.1	2736.3
28980	12.036	5.6364	0.1	2703.7
28981	12.036	5.8182	0.1	2692.3
28982	11.944	5.9091	0.1	2726.9
28983	12.127	0.27273	0.1	2659.7
28984	12.219	0.18182	0.1	2611.2
28985	12.127	9.0909e-002	0.1	2648.7
28986	12.127	0.45455	0.1	2673.9
28987	12.219	0.36364	0.1	2625.2
28988	12.127	0.63636	0.1	2691.
28989	12.219	0.54545	0.1	2642.8
28990	12.127	0.81818	0.1	2710.4
28991	12.219	0.72727	0.1	2663.4
28992	12.127	1.	0.1	2731.5
28993	12.219	0.90909	0.1	2686.4
28994	12.127	1.1818	0.1	2753.7
28995	12.219	1.0909	0.1	2711.1
28996	12.127	1.3636	0.1	2776.3
28997	12.219	1.2727	0.1	2736.7
28998	12.127	1.5455	0.1	2798.7
28999	12.219	1.4545	0.1	2762.5
29000	12.127	1.7273	0.1	2820.1
29001	12.219	1.6364	0.1	2787.6
29002	12.127	1.9091	0.1	2839.9
29003	12.219	1.8182	0.1	2811.4
29004	12.127	2.0909	0.1	2857.7
29005	12.219	2.	0.1	2833.1
29006	12.127	2.2727	0.1	2872.9
29007	12.219	2.1818	0.1	2852.3
29008	12.127	2.4545	0.1	2885.2
29009	12.219	2.3636	0.1	2868.2
29010	12.127	2.6364	0.1	2894.2
29011	12.219	2.5455	0.1	2880.6
29012	12.127	2.8182	0.1	2899.8
29013	12.219	2.7273	0.1	2889.1
29014	12.127	3.	0.1	2901.6
29015	12.219	2.9091	0.1	2893.4
29016	12.127	3.1818	0.1	2899.8
29017	12.219	3.0909	0.1	2893.4
29018	12.127	3.3636	0.1	2894.2
29019	12.219	3.2727	0.1	2889.1
29020	12.127	3.5455	0.1	2885.2
29021	12.219	3.4545	0.1	2880.6
29022	12.127	3.7273	0.1	2872.9
29023	12.219	3.6364	0.1	2868.2
29024	12.127	3.9091	0.1	2857.7
29025	12.219	3.8182	0.1	2852.3
29026	12.127	4.0909	0.1	2839.9
29027	12.219	4.	0.1	2833.1
29028	12.127	4.2727	0.1	2820.1
29029	12.219	4.1818	0.1	2811.4
29030	12.127	4.4545	0.1	2798.7
29031	12.219	4.3636	0.1	2787.6
29032	12.127	4.6364	0.1	2776.3
29033	12.219	4.5455	0.1	2762.5
29034	12.127	4.8182	0.1	2753.7
29035	12.219	4.7273	0.1	2736.7
29036	12.127	5.	0.1	2731.5
29037	12.219	4.9091	0.1	2711.1
29038	12.127	5.1818	0.1	2710.4
29039	12.219	5.0909	0.1	2686.4
29040	12.127	5.3636	0.1	2691.
29041	12.219	5.2727	0.1	2663.4
29042	12.127	5.5455	0.1	2673.9
29043	12.219	5.4545	0.1	2642.8
29044	12.127	5.7273	0.1	2659.7
29045	12.219	5.6364	0.1	2625.2
29046	12.219	5.8182	0.1	2611.2
29047	12.127	5.9091	0.1	2648.7
29048	12.311	0.27273	0.1	2576.7
29049	12.403	0.18182	0.1	2522.6
29050	12.311	9.0909e-002	0.1	2563.7
29051	12.311	0.45455	0.1	2594.2
29052	12.403	0.36364	0.1	2539.8
29053	12.311	0.63636	0.1	2615.3
29054	12.403	0.54545	0.1	2561.4
29055	12.311	0.81818	0.1	2639.5
29056	12.403	0.72727	0.1	2586.9
29057	12.311	1.	0.1	2666.
29058	12.403	0.90909	0.1	2615.6
29059	12.311	1.1818	0.1	2694.1
29060	12.403	1.0909	0.1	2646.6
29061	12.311	1.3636	0.1	2722.9
29062	12.403	1.2727	0.1	2679.1
29063	12.311	1.5455	0.1	2751.5
29064	12.403	1.4545	0.1	2712.
29065	12.311	1.7273	0.1	2779.
29066	12.403	1.6364	0.1	2744.3
29067	12.311	1.9091	0.1	2804.7
29068	12.403	1.8182	0.1	2774.9
29069	12.311	2.0909	0.1	2827.7
29070	12.403	2.	0.1	2803.
29071	12.311	2.2727	0.1	2847.6
29072	12.403	2.1818	0.1	2827.9
29073	12.311	2.4545	0.1	2863.6
29074	12.403	2.3636	0.1	2848.7
29075	12.311	2.6364	0.1	2875.5
29076	12.403	2.5455	0.1	2864.9
29077	12.311	2.8182	0.1	2882.7
29078	12.403	2.7273	0.1	2876.
29079	12.311	3.	0.1	2885.2
29080	12.403	2.9091	0.1	2881.7
29081	12.311	3.1818	0.1	2882.7
29082	12.403	3.0909	0.1	2881.7
29083	12.311	3.3636	0.1	2875.5
29084	12.403	3.2727	0.1	2876.
29085	12.311	3.5455	0.1	2863.6
29086	12.403	3.4545	0.1	2864.9
29087	12.311	3.7273	0.1	2847.6
29088	12.403	3.6364	0.1	2848.7
29089	12.311	3.9091	0.1	2827.7
29090	12.403	3.8182	0.1	2827.9
29091	12.311	4.0909	0.1	2804.7
29092	12.403	4.	0.1	2803.
29093	12.311	4.2727	0.1	2779.
29094	12.403	4.1818	0.1	2774.9
29095	12.311	4.4545	0.1	2751.5
29096	12.403	4.3636	0.1	2744.3
29097	12.311	4.6364	0.1	2722.9
29098	12.403	4.5455	0.1	2712.
29099	12.311	4.8182	0.1	2694.1
29100	12.403	4.7273	0.1	2679.1
29101	12.311	5.	0.1	2666.
29102	12.403	4.9091	0.1	2646.6
29103	12.311	5.1818	0.1	2639.5
29104	12.403	5.0909	0.1	2615.6
29105	12.311	5.3636	0.1	2615.3
29106	12.403	5.2727	0.1	2586.9
29107	12.311	5.5455	0.1	2594.2
29108	12.403	5.4545	0.1	2561.4
29109	12.311	5.7273	0.1	2576.7
29110	12.403	5.6364	0.1	2539.8
29111	12.403	5.8182	0.1	2522.6
29112	12.311	5.9091	0.1	2563.7
29113	12.495	0.27273	0.1	2485.7
29114	12.587	0.18182	0.1	2425.
29115	12.495	9.0909e-002	0.1	2470.5
29116	12.495	0.45455	0.1	2507.1
29117	12.587	0.36364	0.1	2445.8
29118	12.495	0.63636	0.1	2533.
29119	12.587	0.54545	0.1	2472.1
29120	12.495	0.81818	0.1	2563.1
29121	12.587	0.72727	0.1	2503.5
29122	12.495	1.	0.1	2596.3
29123	12.587	0.90909	0.1	2539.2
29124	12.495	1.1818	0.1	2631.7
29125	12.587	1.0909	0.1	2578.2
29126	12.495	1.3636	0.1	2668.3
29127	12.587	1.2727	0.1	2619.3
29128	12.495	1.5455	0.1	2704.9
29129	12.587	1.4545	0.1	2661.2
29130	12.495	1.7273	0.1	2740.2
29131	12.587	1.6364	0.1	2702.5
29132	12.495	1.9091	0.1	2773.3
29133	12.587	1.8182	0.1	2742.
29134	12.495	2.0909	0.1	2803.2
29135	12.587	2.	0.1	2778.3
29136	12.495	2.2727	0.1	2829.
29137	12.587	2.1818	0.1	2810.5
29138	12.495	2.4545	0.1	2850.
29139	12.587	2.3636	0.1	2837.6
29140	12.495	2.6364	0.1	2865.4
29141	12.587	2.5455	0.1	2858.8
29142	12.495	2.8182	0.1	2874.9
29143	12.587	2.7273	0.1	2873.3
29144	12.495	3.	0.1	2878.2
29145	12.587	2.9091	0.1	2880.7
29146	12.495	3.1818	0.1	2874.9
29147	12.587	3.0909	0.1	2880.7
29148	12.495	3.3636	0.1	2865.4
29149	12.587	3.2727	0.1	2873.3
29150	12.495	3.5455	0.1	2850.
29151	12.587	3.4545	0.1	2858.8
29152	12.495	3.7273	0.1	2829.
29153	12.587	3.6364	0.1	2837.6
29154	12.495	3.9091	0.1	2803.2
29155	12.587	3.8182	0.1	2810.5
29156	12.495	4.0909	0.1	2773.3
29157	12.587	4.	0.1	2778.3
29158	12.495	4.2727	0.1	2740.2
29159	12.587	4.1818	0.1	2742.
29160	12.495	4.4545	0.1	2704.9
29161	12.587	4.3636	0.1	2702.5
29162	12.495	4.6364	0.1	2668.3
29163	12.587	4.5455	0.1	2661.2
29164	12.495	4.8182	0.1	2631.7
29165	12.587	4.7273	0.1	2619.3
29166	12.495	5.	0.1	2596.3
29167	12.587	4.9091	0.1	2578.2
29168	12.495	5.1818	0.1	2563.1
29169	12.587	5.0909	0.1	2539.2
29170	12.495	5.3636	0.1	2533.
29171	12.587	5.2727	0.1	2503.5
29172	12.495	5.5455	0.1	2507.1
29173	12.587	5.4545	0.1	2472.1
29174	12.495	5.7273	0.1	2485.7
29175	12.587	5.6364	0.1	2445.8
29176	12.587	5.8182	0.1	2425.
29177	12.495	5.9091	0.1	2470.5
29178	12.679	0.27273	0.1	2385.1
29179	12.771	0.18182	0.1	2316.4
29180	12.679	9.0909e-002	0.1	2367.2
29181	12.679	0.45455	0.1	2410.9
29182	12.771	0.36364	0.1	2341.3
29183	12.679	0.63636	0.1	2442.6
29184	12.771	0.54545	0.1	2373.1
29185	12.679	0.81818	0.1	2479.8
29186	12.771	0.72727	0.1	2411.6
29187	12.679	1.	0.1	2521.3
29188	12.771	0.90909	0.1	2455.8
29189	12.679	1.1818	0.1	2565.9
29190	12.771	1.0909	0.1	2504.7
29191	12.679	1.3636	0.1	2612.4
29192	12.771	1.2727	0.1	2556.7
29193	12.679	1.5455	0.1	2659.
29194	12.771	1.4545	0.1	2610.
29195	12.679	1.7273	0.1	2704.4
29196	12.771	1.6364	0.1	2662.9
29197	12.679	1.9091	0.1	2747.
29198	12.771	1.8182	0.1	2713.5
29199	12.679	2.0909	0.1	2785.6
29200	12.771	2.	0.1	2760.4
29201	12.679	2.2727	0.1	2819.1
29202	12.771	2.1818	0.1	2802.1
29203	12.679	2.4545	0.1	2846.4
29204	12.771	2.3636	0.1	2837.3
29205	12.679	2.6364	0.1	2866.6
29206	12.771	2.5455	0.1	2864.9
29207	12.679	2.8182	0.1	2879.1
29208	12.771	2.7273	0.1	2883.9
29209	12.679	3.	0.1	2883.3
29210	12.771	2.9091	0.1	2893.6
29211	12.679	3.1818	0.1	2879.1
29212	12.771	3.0909	0.1	2893.6
29213	12.679	3.3636	0.1	2866.6
29214	12.771	3.2727	0.1	2883.9
29215	12.679	3.5455	0.1	2846.4
29216	12.771	3.4545	0.1	2864.9
29217	12.679	3.7273	0.1	2819.1
29218	12.771	3.6364	0.1	2837.3
29219	12.679	3.9091	0.1	2785.6
29220	12.771	3.8182	0.1	2802.1
29221	12.679	4.0909	0.1	2747.
29222	12.771	4.	0.1	2760.4
29223	12.679	4.2727	0.1	2704.4
29224	12.771	4.1818	0.1	2713.5
29225	12.679	4.4545	0.1	2659.
29226	12.771	4.3636	0.1	2662.9
29227	12.679	4.6364	0.1	2612.4
29228	12.771	4.5455	0.1	2610.
29229	12.679	4.8182	0.1	2565.9
29230	12.771	4.7273	0.1	2556.7
29231	12.679	5.	0.1	2521.3
29232	12.771	4.9091	0.1	2504.7
29233	12.679	5.1818	0.1	2479.8
29234	12.771	5.0909	0.1	2455.8
29235	12.679	5.3636	0.1	2442.6
29236	12.771	5.2727	0.1	2411.6
29237	12.679	5.5455	0.1	2410.9
29238	12.771	5.4545	0.1	2373.1
29239	12.679	5.7273	0.1	2385.1
29240	12.771	5.6364	0.1	2341.3
29241	12.771	5.8182	0.1	2316.4
29242	12.679	5.9091	0.1	2367.2
29243	12.863	0.27273	0.1	2272.7
29244	12.954	0.18182	0.1	2194.6
29245	12.863	9.0909e-002	0.1	2251.6
29246	12.863	0.45455	0.1	2303.6
29247	12.954	0.36364	0.1	2224.1
29248	12.863	0.63636	0.1	2342.2
29249	12.954	0.54545	0.1	2262.2
29250	12.863	0.81818	0.1	2387.9
29251	12.954	0.72727	0.1	2309.1
29252	12.863	1.	0.1	2439.6
29253	12.954	0.90909	0.1	2363.8
29254	12.863	1.1818	0.1	2495.7
29255	12.954	1.0909	0.1	2424.9
29256	12.863	1.3636	0.1	2554.6
29257	12.954	1.2727	0.1	2490.4
29258	12.863	1.5455	0.1	2614.1
29259	12.954	1.4545	0.1	2558.3
29260	12.863	1.7273	0.1	2672.2
29261	12.954	1.6364	0.1	2625.9
29262	12.863	1.9091	0.1	2727.1
29263	12.954	1.8182	0.1	2690.9
29264	12.863	2.0909	0.1	2777.
29265	12.954	2.	0.1	2751.4
29266	12.863	2.2727	0.1	2820.3
29267	12.954	2.1818	0.1	2805.3
29268	12.863	2.4545	0.1	2855.8
29269	12.954	2.3636	0.1	2850.9
29270	12.863	2.6364	0.1	2882.2
29271	12.954	2.5455	0.1	2886.8
29272	12.863	2.8182	0.1	2898.5
29273	12.954	2.7273	0.1	2911.7
29274	12.863	3.	0.1	2904.
29275	12.954	2.9091	0.1	2924.4
29276	12.863	3.1818	0.1	2898.5
29277	12.954	3.0909	0.1	2924.4
29278	12.863	3.3636	0.1	2882.2
29279	12.954	3.2727	0.1	2911.7
29280	12.863	3.5455	0.1	2855.8
29281	12.954	3.4545	0.1	2886.8
29282	12.863	3.7273	0.1	2820.3
29283	12.954	3.6364	0.1	2850.9
29284	12.863	3.9091	0.1	2777.
29285	12.954	3.8182	0.1	2805.3
29286	12.863	4.0909	0.1	2727.1
29287	12.954	4.	0.1	2751.4
29288	12.863	4.2727	0.1	2672.2
29289	12.954	4.1818	0.1	2690.9
29290	12.863	4.4545	0.1	2614.1
29291	12.954	4.3636	0.1	2625.9
29292	12.863	4.6364	0.1	2554.6
29293	12.954	4.5455	0.1	2558.3
29294	12.863	4.8182	0.1	2495.7
29295	12.954	4.7273	0.1	2490.4
29296	12.863	5.	0.1	2439.6
29297	12.954	4.9091	0.1	2424.9
29298	12.863	5.1818	0.1	2387.9
29299	12.954	5.0909	0.1	2363.8
29300	12.863	5.3636	0.1	2342.2
29301	12.954	5.2727	0.1	2309.1
29302	12.863	5.5455	0.1	2303.6
29303	12.954	5.4545	0.1	2262.2
29304	12.863	5.7273	0.1	2272.7
29305	12.954	5.6364	0.1	2224.1
29306	12.954	5.8182	0.1	2194.6
29307	12.863	5.9091	0.1	2251.6
29308	13.046	0.27273	0.1	2146.2
29309	13.138	0.18182	0.1	2057.4
29310	13.046	9.0909e-002	0.1	2121.4
29311	13.046	0.45455	0.1	2182.9
29312	13.138	0.36364	0.1	2091.7
29313	13.046	0.63636	0.1	2229.5
29314	13.138	0.54545	0.1	2137.1
29315	13.046	0.81818	0.1	2285.5
29316	13.138	0.72727	0.1	2193.8
29317	13.046	1.	0.1	2349.6
29318	13.138	0.90909	0.1	2261.1
29319	13.046	1.1818	0.1	2420.1
29320	13.138	1.0909	0.1	2337.2
29321	13.046	1.3636	0.1	2494.6
29322	13.138	1.2727	0.1	2419.8
29323	13.046	1.5455	0.1	2570.5
29324	13.138	1.4545	0.1	2506.
29325	13.046	1.7273	0.1	2645.
29326	13.138	1.6364	0.1	2592.5
29327	13.046	1.9091	0.1	2715.5
29328	13.138	1.8182	0.1	2676.1
29329	13.046	2.0909	0.1	2779.9
29330	13.138	2.	0.1	2754.
29331	13.046	2.2727	0.1	2836.
29332	13.138	2.1818	0.1	2823.6
29333	13.046	2.4545	0.1	2882.
29334	13.138	2.3636	0.1	2882.7
29335	13.046	2.6364	0.1	2916.3
29336	13.138	2.5455	0.1	2929.3
29337	13.046	2.8182	0.1	2937.5
29338	13.138	2.7273	0.1	2961.5
29339	13.046	3.	0.1	2944.7
29340	13.138	2.9091	0.1	2977.9
29341	13.046	3.1818	0.1	2937.5
29342	13.138	3.0909	0.1	2977.9
29343	13.046	3.3636	0.1	2916.3
29344	13.138	3.2727	0.1	2961.5
29345	13.046	3.5455	0.1	2882.
29346	13.138	3.4545	0.1	2929.3
29347	13.046	3.7273	0.1	2836.
29348	13.138	3.6364	0.1	2882.7
29349	13.046	3.9091	0.1	2779.9
29350	13.138	3.8182	0.1	2823.6
29351	13.046	4.0909	0.1	2715.5
29352	13.138	4.	0.1	2754.
29353	13.046	4.2727	0.1	2645.
29354	13.138	4.1818	0.1	2676.1
29355	13.046	4.4545	0.1	2570.5
29356	13.138	4.3636	0.1	2592.5
29357	13.046	4.6364	0.1	2494.6
29358	13.138	4.5455	0.1	2506.
29359	13.046	4.8182	0.1	2420.1
29360	13.138	4.7273	0.1	2419.8
29361	13.046	5.	0.1	2349.6
29362	13.138	4.9091	0.1	2337.2
29363	13.046	5.1818	0.1	2285.5
29364	13.138	5.0909	0.1	2261.1
29365	13.046	5.3636	0.1	2229.5
29366	13.138	5.2727	0.1	2193.8
29367	13.046	5.5455	0.1	2182.9
29368	13.138	5.4545	0.1	2137.1
29369	13.046	5.7273	0.1	2146.2
29370	13.138	5.6364	0.1	2091.7
29371	13.138	5.8182	0.1	2057.4
29372	13.046	5.9091	0.1	2121.4
29373	13.23	0.27273	0.1	2003.1
29374	13.322	0.18182	0.1	1902.1
29375	13.23	9.0909e-002	0.1	1974.1
29376	13.23	0.45455	0.1	2046.2
29377	13.322	0.36364	0.1	1941.5
29378	13.23	0.63636	0.1	2102.
29379	13.322	0.54545	0.1	1995.
29380	13.23	0.81818	0.1	2170.2
29381	13.322	0.72727	0.1	2063.2
29382	13.23	1.	0.1	2249.5
29383	13.322	0.90909	0.1	2145.4
29384	13.23	1.1818	0.1	2337.8
29385	13.322	1.0909	0.1	2239.8
29386	13.23	1.3636	0.1	2432.
29387	13.322	1.2727	0.1	2343.7
29388	13.23	1.5455	0.1	2528.7
29389	13.322	1.4545	0.1	2453.3
29390	13.23	1.7273	0.1	2624.3
29391	13.322	1.6364	0.1	2564.1
29392	13.23	1.9091	0.1	2715.1
29393	13.322	1.8182	0.1	2671.9
29394	13.23	2.0909	0.1	2798.1
29395	13.322	2.	0.1	2772.4
29396	13.23	2.2727	0.1	2870.5
29397	13.322	2.1818	0.1	2862.2
29398	13.23	2.4545	0.1	2930.
29399	13.322	2.3636	0.1	2938.5
29400	13.23	2.6364	0.1	2974.4
29401	13.322	2.5455	0.1	2998.4
29402	13.23	2.8182	0.1	3001.8
29403	13.322	2.7273	0.1	3039.7
29404	13.23	3.	0.1	3011.1
29405	13.322	2.9091	0.1	3060.8
29406	13.23	3.1818	0.1	3001.8
29407	13.322	3.0909	0.1	3060.8
29408	13.23	3.3636	0.1	2974.4
29409	13.322	3.2727	0.1	3039.7
29410	13.23	3.5455	0.1	2930.
29411	13.322	3.4545	0.1	2998.4
29412	13.23	3.7273	0.1	2870.5
29413	13.322	3.6364	0.1	2938.5
29414	13.23	3.9091	0.1	2798.1
29415	13.322	3.8182	0.1	2862.2
29416	13.23	4.0909	0.1	2715.1
29417	13.322	4.	0.1	2772.4
29418	13.23	4.2727	0.1	2624.3
29419	13.322	4.1818	0.1	2671.9
29420	13.23	4.4545	0.1	2528.7
29421	13.322	4.3636	0.1	2564.1
29422	13.23	4.6364	0.1	2432.
29423	13.322	4.5455	0.1	2453.3
29424	13.23	4.8182	0.1	2337.8
29425	13.322	4.7273	0.1	2343.7
29426	13.23	5.	0.1	2249.5
29427	13.322	4.9091	0.1	2239.8
29428	13.23	5.1818	0.1	2170.2
29429	13.322	5.0909	0.1	2145.4
29430	13.23	5.3636	0.1	2102.
29431	13.322	5.2727	0.1	2063.2
29432	13.23	5.5455	0.1	2046.2
29433	13.322	5.4545	0.1	1995.
29434	13.23	5.7273	0.1	2003.1
29435	13.322	5.6364	0.1	1941.5
29436	13.322	5.8182	0.1	1902.1
29437	13.23	5.9091	0.1	1974.1
29438	13.414	0.27273	0.1	1840.9
29439	13.506	0.18182	0.1	1726.7
29440	13.414	9.0909e-002	0.1	1807.1
29441	13.414	0.45455	0.1	1890.9
29442	13.506	0.36364	0.1	1771.1
29443	13.414	0.63636	0.1	1957.1
29444	13.506	0.54545	0.1	1833.5
29445	13.414	0.81818	0.1	2039.6
29446	13.506	0.72727	0.1	1914.8
29447	13.414	1.	0.1	2137.2
29448	13.506	0.90909	0.1	2014.4
29449	13.414	1.1818	0.1	2247.3
29450	13.506	1.0909	0.1	2130.8
29451	13.414	1.3636	0.1	2366.4
29452	13.506	1.2727	0.1	2261.
29453	13.414	1.5455	0.1	2489.9
29454	13.506	1.4545	0.1	2400.3
29455	13.414	1.7273	0.1	2612.7
29456	13.506	1.6364	0.1	2542.9
29457	13.414	1.9091	0.1	2729.8
29458	13.506	1.8182	0.1	2682.3
29459	13.414	2.0909	0.1	2837.
29460	13.506	2.	0.1	2812.5
29461	13.414	2.2727	0.1	2930.4
29462	13.506	2.1818	0.1	2928.6
29463	13.414	2.4545	0.1	3006.9
29464	13.506	2.3636	0.1	3026.5
29465	13.414	2.6364	0.1	3063.6
29466	13.506	2.5455	0.1	3102.6
29467	13.414	2.8182	0.1	3098.5
29468	13.506	2.7273	0.1	3154.5
29469	13.414	3.	0.1	3110.2
29470	13.506	2.9091	0.1	3180.6
29471	13.414	3.1818	0.1	3098.5
29472	13.506	3.0909	0.1	3180.6
29473	13.414	3.3636	0.1	3063.6
29474	13.506	3.2727	0.1	3154.5
29475	13.414	3.5455	0.1	3006.9
29476	13.506	3.4545	0.1	3102.6
29477	13.414	3.7273	0.1	2930.4
29478	13.506	3.6364	0.1	3026.5
29479	13.414	3.9091	0.1	2837.
29480	13.506	3.8182	0.1	2928.6
29481	13.414	4.0909	0.1	2729.8
29482	13.506	4.	0.1	2812.5
29483	13.414	4.2727	0.1	2612.7
29484	13.506	4.1818	0.1	2682.3
29485	13.414	4.4545	0.1	2489.9
29486	13.506	4.3636	0.1	2542.9
29487	13.414	4.6364	0.1	2366.4
29488	13.506	4.5455	0.1	2400.3
29489	13.414	4.8182	0.1	2247.3
29490	13.506	4.7273	0.1	2261.
29491	13.414	5.	0.1	2137.2
29492	13.506	4.9091	0.1	2130.8
29493	13.414	5.1818	0.1	2039.6
29494	13.506	5.0909	0.1	2014.4
29495	13.414	5.3636	0.1	1957.1
29496	13.506	5.2727	0.1	1914.8
29497	13.414	5.5455	0.1	1890.9
29498	13.506	5.4545	0.1	1833.5
29499	13.414	5.7273	0.1	1840.9
29500	13.506	5.6364	0.1	1771.1
29501	13.506	5.8182	0.1	1726.7
29502	13.414	5.9091	0.1	1807.1
29503	13.597	0.27273	0.1	1657.3
29504	13.689	0.18182	0.1	1529.3
29505	13.597	9.0909e-002	0.1	1618.2
29506	13.597	0.45455	0.1	1714.6
29507	13.689	0.36364	0.1	1578.5
29508	13.597	0.63636	0.1	1792.6
29509	13.689	0.54545	0.1	1650.7
29510	13.597	0.81818	0.1	1891.6
29511	13.689	0.72727	0.1	1746.6
29512	13.597	1.	0.1	2010.5
29513	13.689	0.90909	0.1	1866.1
29514	13.597	1.1818	0.1	2147.1
29515	13.689	1.0909	0.1	2008.2
29516	13.597	1.3636	0.1	2297.3
29517	13.689	1.2727	0.1	2170.2
29518	13.597	1.5455	0.1	2455.3
29519	13.689	1.4545	0.1	2347.3
29520	13.597	1.7273	0.1	2614.
29521	13.689	1.6364	0.1	2531.8
29522	13.597	1.9091	0.1	2766.
29523	13.689	1.8182	0.1	2714.
29524	13.597	2.0909	0.1	2904.8
29525	13.689	2.	0.1	2884.3
29526	13.597	2.2727	0.1	3025.
29527	13.689	2.1818	0.1	3034.8
29528	13.597	2.4545	0.1	3122.2
29529	13.689	2.3636	0.1	3159.2
29530	13.597	2.6364	0.1	3193.2
29531	13.689	2.5455	0.1	3253.4
29532	13.597	2.8182	0.1	3236.1
29533	13.689	2.7273	0.1	3315.4
29534	13.597	3.	0.1	3250.5
29535	13.689	2.9091	0.1	3346.
29536	13.597	3.1818	0.1	3236.1
29537	13.689	3.0909	0.1	3346.
29538	13.597	3.3636	0.1	3193.2
29539	13.689	3.2727	0.1	3315.4
29540	13.597	3.5455	0.1	3122.2
29541	13.689	3.4545	0.1	3253.4
29542	13.597	3.7273	0.1	3025.
29543	13.689	3.6364	0.1	3159.2
29544	13.597	3.9091	0.1	2904.8
29545	13.689	3.8182	0.1	3034.8
29546	13.597	4.0909	0.1	2766.
29547	13.689	4.	0.1	2884.3
29548	13.597	4.2727	0.1	2614.
29549	13.689	4.1818	0.1	2714.
29550	13.597	4.4545	0.1	2455.3
29551	13.689	4.3636	0.1	2531.8
29552	13.597	4.6364	0.1	2297.3
29553	13.689	4.5455	0.1	2347.3
29554	13.597	4.8182	0.1	2147.1
29555	13.689	4.7273	0.1	2170.2
29556	13.597	5.	0.1	2010.5
29557	13.689	4.9091	0.1	2008.2
29558	13.597	5.1818	0.1	1891.6
29559	13.689	5.0909	0.1	1866.1
29560	13.597	5.3636	0.1	1792.6
29561	13.689	5.2727	0.1	1746.6
29562	13.597	5.5455	0.1	1714.6
29563	13.689	5.4545	0.1	1650.7
29564	13.597	5.7273	0.1	1657.3
29565	13.689	5.6364	0.1	1578.5
29566	13.689	5.8182	0.1	1529.3
29567	13.597	5.9091	0.1	1618.2
29568	13.781	0.27273	0.1	1451.1
29569	13.873	0.18182	0.1	1309.
29570	13.781	9.0909e-002	0.1	1405.8
29571	13.781	0.45455	0.1	1515.9
29572	13.873	0.36364	0.1	1363.3
29573	13.781	0.63636	0.1	1607.
29574	13.873	0.54545	0.1	1446.4
29575	13.781	0.81818	0.1	1724.6
29576	13.873	0.72727	0.1	1558.7
29577	13.781	1.	0.1	1868.
29578	13.873	0.90909	0.1	1700.1
29579	13.781	1.1818	0.1	2035.7
29580	13.873	1.0909	0.1	1870.6
29581	13.781	1.3636	0.1	2224.3
29582	13.873	1.2727	0.1	2069.5
29583	13.781	1.5455	0.1	2427.1
29584	13.873	1.4545	0.1	2293.7
29585	13.781	1.7273	0.1	2634.1
29586	13.873	1.6364	0.1	2534.9
29587	13.781	1.9091	0.1	2833.8
29588	13.873	1.8182	0.1	2777.8
29589	13.781	2.0909	0.1	3015.1
29590	13.873	2.	0.1	3005.
29591	13.781	2.2727	0.1	3169.3
29592	13.873	2.1818	0.1	3201.5
29593	13.781	2.4545	0.1	3290.2
29594	13.873	2.3636	0.1	3356.8
29595	13.781	2.6364	0.1	3375.
29596	13.873	2.5455	0.1	3466.5
29597	13.781	2.8182	0.1	3424.4
29598	13.873	2.7273	0.1	3533.2
29599	13.781	3.	0.1	3440.4
29600	13.873	2.9091	0.1	3564.
29601	13.781	3.1818	0.1	3424.4
29602	13.873	3.0909	0.1	3564.
29603	13.781	3.3636	0.1	3375.
29604	13.873	3.2727	0.1	3533.2
29605	13.781	3.5455	0.1	3290.2
29606	13.873	3.4545	0.1	3466.5
29607	13.781	3.7273	0.1	3169.3
29608	13.873	3.6364	0.1	3356.8
29609	13.781	3.9091	0.1	3015.1
29610	13.873	3.8182	0.1	3201.5
29611	13.781	4.0909	0.1	2833.8
29612	13.873	4.	0.1	3005.
29613	13.781	4.2727	0.1	2634.1
29614	13.873	4.1818	0.1	2777.8
29615	13.781	4.4545	0.1	2427.1
29616	13.873	4.3636	0.1	2534.9
29617	13.781	4.6364	0.1	2224.3
29618	13.873	4.5455	0.1	2293.7
29619	13.781	4.8182	0.1	2035.7
29620	13.873	4.7273	0.1	2069.5
29621	13.781	5.	0.1	1868.
29622	13.873	4.9091	0.1	1870.6
29623	13.781	5.1818	0.1	1724.6
29624	13.873	5.0909	0.1	1700.1
29625	13.781	5.3636	0.1	1607.
29626	13.873	5.2727	0.1	1558.7
29627	13.781	5.5455	0.1	1515.9
29628	13.873	5.4545	0.1	1446.4
29629	13.781	5.7273	0.1	1451.1
29630	13.873	5.6364	0.1	1363.3
29631	13.873	5.8182	0.1	1309.
29632	13.781	5.9091	0.1	1405.8
29633	13.965	0.27273	0.1	1222.2
29634	14.057	0.18182	0.1	1066.7
29635	13.965	9.0909e-002	0.1	1169.6
29636	13.965	0.45455	0.1	1295.9
29637	14.057	0.36364	0.1	1127.6
29638	13.965	0.63636	0.1	1402.1
29639	14.057	0.54545	0.1	1224.8
29640	13.965	0.81818	0.1	1540.
29641	14.057	0.72727	0.1	1355.6
29642	13.965	1.	0.1	1709.7
29643	14.057	0.90909	0.1	1519.4
29644	13.965	1.1818	0.1	1911.8
29645	14.057	1.0909	0.1	1718.2
29646	13.965	1.3636	0.1	2145.9
29647	14.057	1.2727	0.1	1955.8
29648	13.965	1.5455	0.1	2407.
29649	14.057	1.4545	0.1	2236.6
29650	13.965	1.7273	0.1	2682.1
29651	14.057	1.6364	0.1	2555.4
29652	13.965	1.9091	0.1	2950.8
29653	14.057	1.8182	0.1	2892.
29654	13.965	2.0909	0.1	3192.
29655	14.057	2.	0.1	3209.5
29656	13.965	2.2727	0.1	3388.9
29657	14.057	2.1818	0.1	3468.7
29658	13.965	2.4545	0.1	3532.3
29659	14.057	2.3636	0.1	3654.1
29660	13.965	2.6364	0.1	3623.4
29661	14.057	2.5455	0.1	3762.4
29662	13.965	2.8182	0.1	3671.3
29663	14.057	2.7273	0.1	3815.1
29664	13.965	3.	0.1	3685.9
29665	14.057	2.9091	0.1	3835.4
29666	13.965	3.1818	0.1	3671.3
29667	14.057	3.0909	0.1	3835.4
29668	13.965	3.3636	0.1	3623.4
29669	14.057	3.2727	0.1	3815.1
29670	13.965	3.5455	0.1	3532.3
29671	14.057	3.4545	0.1	3762.4
29672	13.965	3.7273	0.1	3388.9
29673	14.057	3.6364	0.1	3654.1
29674	13.965	3.9091	0.1	3192.
29675	14.057	3.8182	0.1	3468.7
29676	13.965	4.0909	0.1	2950.8
29677	14.057	4.	0.1	3209.5
29678	13.965	4.2727	0.1	2682.1
29679	14.057	4.1818	0.1	2892.
29680	13.965	4.4545	0.1	2407.
29681	14.057	4.3636	0.1	2555.4
29682	13.965	4.6364	0.1	2145.9
29683	14.057	4.5455	0.1	2236.6
29684	13.965	4.8182	0.1	1911.8
29685	14.057	4.7273	0.1	1955.8
29686	13.965	5.	0.1	1709.7
29687	14.057	4.9091	0.1	1718.2
29688	13.965	5.1818	0.1	1540.
29689	14.057	5.0909	0.1	1519.4
29690	13.965	5.3636	0.1	1402.1
29691	14.057	5.2727	0.1	1355.6
29692	13.965	5.5455	0.1	1295.9
29693	14.057	5.4545	0.1	1224.8
29694	13.965	5.7273	0.1	1222.2
29695	14.057	5.6364	0.1	1127.6
29696	14.057	5.8182	0.1	1066.7
29697	13.965	5.9091	0.1	1169.6
29698	14.149	0.27273	0.1	973.73
29699	14.241	0.18182	0.1	805.2
29700	14.149	9.0909e-002	0.1	910.88
29701	14.149	0.45455	0.1	1060.5
29702	14.241	0.36364	0.1	879.74
29703	14.149	0.63636	0.1	1185.4
29704	14.241	0.54545	0.1	998.23
29705	14.149	0.81818	0.1	1344.7
29706	14.241	0.72727	0.1	1150.3
29707	14.149	1.	0.1	1539.3
29708	14.241	0.90909	0.1	1334.4
29709	14.149	1.1818	0.1	1774.6
29710	14.241	1.0909	0.1	1555.7
29711	14.149	1.3636	0.1	2058.6
29712	14.241	1.2727	0.1	1826.3
29713	14.149	1.5455	0.1	2394.5
29714	14.241	1.4545	0.1	2163.
29715	14.149	1.7273	0.1	2770.4
29716	14.241	1.6364	0.1	2589.5
29717	14.149	1.9091	0.1	3152.4
29718	14.241	1.8182	0.1	3091.4
29719	14.149	2.0909	0.1	3486.
29720	14.241	2.	0.1	3569.1
29721	14.149	2.2727	0.1	3732.6
29722	14.241	2.1818	0.1	3935.6
29723	14.149	2.4545	0.1	3881.9
29724	14.241	2.3636	0.1	4112.5
29725	14.149	2.6364	0.1	3951.7
29726	14.241	2.5455	0.1	4158.9
29727	14.149	2.8182	0.1	3976.9
29728	14.241	2.7273	0.1	4154.4
29729	14.149	3.	0.1	3982.5
29730	14.241	2.9091	0.1	4143.7
29731	14.149	3.1818	0.1	3976.9
29732	14.241	3.0909	0.1	4143.7
29733	14.149	3.3636	0.1	3951.7
29734	14.241	3.2727	0.1	4154.4
29735	14.149	3.5455	0.1	3881.9
29736	14.241	3.4545	0.1	4158.9
29737	14.149	3.7273	0.1	3732.6
29738	14.241	3.6364	0.1	4112.5
29739	14.149	3.9091	0.1	3486.
29740	14.241	3.8182	0.1	3935.6
29741	14.149	4.0909	0.1	3152.4
29742	14.241	4.	0.1	3569.1
29743	14.149	4.2727	0.1	2770.4
29744	14.241	4.1818	0.1	3091.4
29745	14.149	4.4545	0.1	2394.5
29746	14.241	4.3636	0.1	2589.5
29747	14.149	4.6364	0.1	2058.6
29748	14.241	4.5455	0.1	2163.
29749	14.149	4.8182	0.1	1774.6
29750	14.241	4.7273	0.1	1826.3
29751	14.149	5.	0.1	1539.3
29752	14.241	4.9091	0.1	1555.7
29753	14.149	5.1818	0.1	1344.7
29754	14.241	5.0909	0.1	1334.4
29755	14.149	5.3636	0.1	1185.4
29756	14.241	5.2727	0.1	1150.3
29757	14.149	5.5455	0.1	1060.5
29758	14.241	5.4545	0.1	998.23
29759	14.149	5.7273	0.1	973.73
29760	14.241	5.6364	0.1	879.74
29761	14.241	5.8182	0.1	805.2
29762	14.149	5.9091	0.1	910.88
29763	14.333	0.27273	0.1	714.98
29764	14.424	0.18182	0.1	536.68
29765	14.333	9.0909e-002	0.1	632.61
29766	14.333	0.45455	0.1	826.54
29767	14.424	0.36364	0.1	652.21
29768	14.333	0.63636	0.1	976.17
29769	14.424	0.54545	0.1	806.97
29770	14.333	0.81818	0.1	1155.5
29771	14.424	0.72727	0.1	984.01
29772	14.333	1.	0.1	1368.3
29773	14.424	0.90909	0.1	1185.8
29774	14.333	1.1818	0.1	1626.8
29775	14.424	1.0909	0.1	1422.4
29776	14.333	1.3636	0.1	1951.5
29777	14.424	1.2727	0.1	1712.4
29778	14.333	1.5455	0.1	2376.1
29779	14.424	1.4545	0.1	2092.3
29780	14.333	1.7273	0.1	2921.6
29781	14.424	1.6364	0.1	2613.1
29782	14.333	1.9091	0.1	3506.2
29783	14.424	1.8182	0.1	3509.2
29784	14.333	2.0909	0.1	4014.4
29785	14.424	2.	0.1	4582.7
29786	14.333	2.2727	0.1	4309.7
29787	14.424	2.1818	0.1	4859.
29788	14.333	2.4545	0.1	4384.5
29789	14.424	2.3636	0.1	4804.8
29790	14.333	2.6364	0.1	4358.
29791	14.424	2.5455	0.1	4631.7
29792	14.333	2.8182	0.1	4318.4
29793	14.424	2.7273	0.1	4507.4
29794	14.333	3.	0.1	4302.3
29795	14.424	2.9091	0.1	4442.8
29796	14.333	3.1818	0.1	4318.4
29797	14.424	3.0909	0.1	4442.8
29798	14.333	3.3636	0.1	4358.
29799	14.424	3.2727	0.1	4507.5
29800	14.333	3.5455	0.1	4384.5
29801	14.424	3.4545	0.1	4631.7
29802	14.333	3.7273	0.1	4309.7
29803	14.424	3.6364	0.1	4804.8
29804	14.333	3.9091	0.1	4014.4
29805	14.424	3.8182	0.1	4859.
29806	14.333	4.0909	0.1	3506.2
29807	14.424	4.	0.1	4582.7
29808	14.333	4.2727	0.1	2921.6
29809	14.424	4.1818	0.1	3509.2
29810	14.333	4.4545	0.1	2376.1
29811	14.424	4.3636	0.1	2613.1
29812	14.333	4.6364	0.1	1951.5
29813	14.424	4.5455	0.1	2092.3
29814	14.333	4.8182	0.1	1626.8
29815	14.424	4.7273	0.1	1712.4
29816	14.333	5.	0.1	1368.3
29817	14.424	4.9091	0.1	1422.4
29818	14.333	5.1818	0.1	1155.5
29819	14.424	5.0909	0.1	1185.8
29820	14.333	5.3636	0.1	976.17
29821	14.424	5.2727	0.1	984.01
29822	14.333	5.5455	0.1	826.54
29823	14.424	5.4545	0.1	806.97
29824	14.333	5.7273	0.1	714.98
29825	14.424	5.6364	0.1	652.21
29826	14.424	5.8182	0.1	536.68
29827	14.333	5.9091	0.1	632.61
29828	14.516	0.27273	0.1	489.6
29829	14.608	0.18182	0.1	289.91
29830	14.516	9.0909e-002	0.1	346.19
29831	14.516	0.45455	0.1	654.99
29832	14.608	0.36364	0.1	437.52
29833	14.516	0.63636	0.1	837.88
29834	14.608	0.54545	0.1	585.08
29835	14.516	0.81818	0.1	1037.8
29836	14.608	0.72727	0.1	736.51
29837	14.516	1.	0.1	1265.3
29838	14.608	0.90909	0.1	900.33
29839	14.516	1.1818	0.1	1537.5
29840	14.608	1.0909	0.1	1087.8
29841	14.516	1.3636	0.1	1889.8
29842	14.608	1.2727	0.1	1315.5
29843	14.516	1.5455	0.1	2382.4
29844	14.608	1.4545	0.1	1619.7
29845	14.516	1.7273	0.1	3244.9
29846	14.608	1.6364	0.1	2054.4
29847	14.516	1.9091	0.1	4570.7
29848	14.608	1.8182	0.1	2842.2
29849	14.516	2.0909	0.1	5387.7
29850	14.608	2.	0.1	7892.
29851	14.516	2.2727	0.1	5339.8
29852	14.608	2.1818	0.1	6393.1
29853	14.516	2.4545	0.1	5047.1
29854	14.608	2.3636	0.1	5549.3
29855	14.516	2.6364	0.1	4778.9
29856	14.608	2.5455	0.1	5048.9
29857	14.516	2.8182	0.1	4630.1
29858	14.608	2.7273	0.1	4778.2
29859	14.516	3.	0.1	4581.5
29860	14.608	2.9091	0.1	4656.7
29861	14.516	3.1818	0.1	4630.1
29862	14.608	3.0909	0.1	4656.7
29863	14.516	3.3636	0.1	4778.9
29864	14.608	3.2727	0.1	4778.2
29865	14.516	3.5455	0.1	5047.1
29866	14.608	3.4545	0.1	5048.9
29867	14.516	3.7273	0.1	5339.8
29868	14.608	3.6364	0.1	5549.3
29869	14.516	3.9091	0.1	5387.7
29870	14.608	3.8182	0.1	6393.1
29871	14.516	4.0909	0.1	4570.7
29872	14.608	4.	0.1	7892.
29873	14.516	4.2727	0.1	3244.9
29874	14.608	4.1818	0.1	2842.2
29875	14.516	4.4545	0.1	2382.4
29876	14.608	4.3636	0.1	2054.4
29877	14.516	4.6364	0.1	1889.8
29878	14.608	4.5455	0.1	1619.7
29879	14.516	4.8182	0.1	1537.5
29880	14.608	4.7273	0.1	1315.5
29881	14.516	5.	0.1	1265.3
29882	14.608	4.9091	0.1	1087.8
29883	14.516	5.1818	0.1	1037.8
29884	14.608	5.0909	0.1	900.33
29885	14.516	5.3636	0.1	837.88
29886	14.608	5.2727	0.1	736.51
29887	14.516	5.5455	0.1	654.99
29888	14.608	5.4545	0.1	585.08
29889	14.516	5.7273	0.1	489.6
29890	14.608	5.6364	0.1	437.52
29891	14.608	5.8182	0.1	289.91
29892	14.516	5.9091	0.1	346.19
29893	14.867	3.7273	0.1	6675.5
29894	14.783	3.8182	0.1	7359.
29895	14.867	3.9091	0.1	8982.
29896	14.867	3.5455	0.1	5553.7
29897	14.783	3.6364	0.1	5885.3
29898	14.867	3.3636	0.1	5024.5
29899	14.783	3.4545	0.1	5208.5
29900	14.867	3.1818	0.1	4771.5
29901	14.783	3.2727	0.1	4862.1
29902	14.867	3.	0.1	4695.7
29903	14.783	3.0909	0.1	4713.7
29904	14.867	2.8182	0.1	4771.5
29905	14.783	2.9091	0.1	4713.7
29906	14.867	2.6364	0.1	5024.5
29907	14.783	2.7273	0.1	4862.1
29908	14.867	2.4545	0.1	5553.7
29909	14.783	2.5455	0.1	5208.5
29910	14.867	2.2727	0.1	6675.5
29911	14.783	2.3636	0.1	5885.3
29912	14.783	2.1818	0.1	7359.
29913	14.867	2.0909	0.1	8982.
29914	14.7	3.7273	0.1	6653.5
29915	14.7	3.9091	0.1	8810.1
29916	14.7	3.5455	0.1	5564.9
29917	14.7	3.3636	0.1	5052.5
29918	14.7	3.1818	0.1	4805.5
29919	14.7	3.	0.1	4731.6
29920	14.7	2.8182	0.1	4805.5
29921	14.7	2.6364	0.1	5052.5
29922	14.7	2.4545	0.1	5564.9
29923	14.7	2.2727	0.1	6653.5
29924	14.7	2.0909	0.1	8810.1
29925	14.867	5.7273	0.1	260.22
29926	14.867	5.9091	0.1	101.44
29927	14.867	5.8182	5.e-002	42.377
29928	14.867	5.5455	0.1	396.91
29929	14.867	5.6364	5.e-002	90.824
29930	14.867	5.3636	0.1	526.91
29931	14.867	5.4545	5.e-002	138.62
29932	14.867	5.1818	0.1	664.05
29933	14.867	5.2727	5.e-002	190.42
29934	14.867	5.	0.1	819.07
29935	14.867	5.0909	5.e-002	249.13
29936	14.867	4.8182	0.1	1005.6
29937	14.867	4.9091	5.e-002	318.95
29938	14.867	4.6364	0.1	1249.9
29939	14.867	4.7273	5.e-002	406.98
29940	14.867	4.4545	0.1	1585.2
29941	14.867	4.5455	5.e-002	525.75
29942	14.867	4.2727	0.1	2237.6
29943	14.867	4.3636	5.e-002	713.26
29944	14.867	4.0909	0.1	6093.2
29945	14.867	4.1818	5.e-002	1201.4
29946	14.783	4.	0.1	9476.4
29947	14.867	4.	5.e-002	1026.4
29948	14.7	4.0909	0.1	5762.5
29949	14.7	4.	5.e-002	1297.6
29950	14.7	4.2727	0.1	2027.2
29951	14.7	4.1818	5.e-002	1426.8
29952	14.7	4.4545	0.1	1462.5
29953	14.7	4.3636	5.e-002	887.29
29954	14.7	4.6364	0.1	1180.4
29955	14.7	4.5455	5.e-002	663.31
29956	14.7	4.8182	0.1	972.53
29957	14.7	4.7273	5.e-002	521.93
29958	14.7	5.	0.1	810.59
29959	14.7	4.9091	5.e-002	413.96
29960	14.7	5.1818	0.1	671.78
29961	14.7	5.0909	5.e-002	326.19
29962	14.7	5.3636	0.1	544.7
29963	14.7	5.2727	5.e-002	250.71
29964	14.7	5.5455	0.1	419.63
29965	14.7	5.4545	5.e-002	183.
29966	14.7	5.7273	0.1	282.36
29967	14.7	5.6364	5.e-002	120.02
29968	14.7	5.9091	0.1	113.45
29969	14.7	5.8182	5.e-002	56.9
29970	14.867	0.27273	0.1	260.22
29971	14.867	9.0909e-002	0.1	101.44
29972	14.867	0.18182	5.e-002	42.377
29973	14.867	0.45455	0.1	396.91
29974	14.867	0.36364	5.e-002	90.824
29975	14.867	0.63636	0.1	526.91
29976	14.867	0.54545	5.e-002	138.62
29977	14.867	0.81818	0.1	664.05
29978	14.867	0.72727	5.e-002	190.42
29979	14.867	1.	0.1	819.07
29980	14.867	0.90909	5.e-002	249.13
29981	14.867	1.1818	0.1	1005.6
29982	14.867	1.0909	5.e-002	318.95
29983	14.867	1.3636	0.1	1249.9
29984	14.867	1.2727	5.e-002	406.98
29985	14.867	1.5455	0.1	1585.2
29986	14.867	1.4545	5.e-002	525.75
29987	14.867	1.7273	0.1	2237.6
29988	14.867	1.6364	5.e-002	713.26
29989	14.867	1.9091	0.1	6093.2
29990	14.867	1.8182	5.e-002	1201.4
29991	14.783	2.	0.1	9476.4
29992	14.867	2.	5.e-002	1026.4
29993	14.7	1.9091	0.1	5762.5
29994	14.7	2.	5.e-002	1297.6
29995	14.7	1.7273	0.1	2027.2
29996	14.7	1.8182	5.e-002	1426.8
29997	14.7	1.5455	0.1	1462.5
29998	14.7	1.6364	5.e-002	887.29
29999	14.7	1.3636	0.1	1180.4
30000	14.7	1.4545	5.e-002	663.31
30001	14.7	1.1818	0.1	972.53
30002	14.7	1.2727	5.e-002	521.93
30003	14.7	1.	0.1	810.59
30004	14.7	1.0909	5.e-002	413.96
30005	14.7	0.81818	0.1	671.78
30006	14.7	0.90909	5.e-002	326.19
30007	14.7	0.63636	0.1	544.7
30008	14.7	0.72727	5.e-002	250.71
30009	14.7	0.45455	0.1	419.63
30010	14.7	0.54545	5.e-002	183.
30011	14.7	0.27273	0.1	282.36
30012	14.7	0.36364	5.e-002	120.02
30013	14.7	9.0909e-002	0.1	113.45
30014	14.7	0.18182	5.e-002	56.9
30015	14.958	6.	0.1	128.97
30016	14.867	6.	5.e-002	13.541
30017	15.141	6.	0.1	355.87
30018	15.049	6.	5.e-002	11.868
30019	15.323	6.	0.1	569.
30020	15.232	6.	5.e-002	29.804
30021	15.506	6.	0.1	753.55
30022	15.415	6.	5.e-002	39.551
30023	15.689	6.	0.1	911.03
30024	15.597	6.	5.e-002	45.258
30025	15.871	6.	0.1	1041.5
30026	15.78	6.	5.e-002	48.043
30027	16.054	6.	0.1	1146.1
30028	15.963	6.	5.e-002	48.952
30029	16.237	6.	0.1	1226.6
30030	16.145	6.	5.e-002	48.712
30031	16.419	6.	0.1	1285.6
30032	16.328	6.	5.e-002	47.86
30033	16.602	6.	0.1	1325.9
30034	16.511	6.	5.e-002	46.762
30035	16.785	6.	0.1	1350.4
30036	16.693	6.	5.e-002	45.655
30037	16.967	6.	0.1	1361.6
30038	16.876	6.	5.e-002	44.677
30039	17.15	6.	0.1	1362.
30040	17.059	6.	5.e-002	43.898
30041	17.333	6.	0.1	1353.4
30042	17.241	6.	5.e-002	43.342
30043	17.515	6.	0.1	1337.6
30044	17.424	6.	5.e-002	43.003
30045	17.698	6.	0.1	1316.
30046	17.607	6.	5.e-002	42.86
30047	17.881	6.	0.1	1289.9
30048	17.789	6.	5.e-002	42.883
30049	18.063	6.	0.1	1260.1
30050	17.972	6.	5.e-002	43.037
30051	18.246	6.	0.1	1227.5
30052	18.155	6.	5.e-002	43.289
30053	18.429	6.	0.1	1192.7
30054	18.337	6.	5.e-002	43.607
30055	18.611	6.	0.1	1156.1
30056	18.52	6.	5.e-002	43.963
30057	18.794	6.	0.1	1118.3
30058	18.703	6.	5.e-002	44.331
30059	18.977	6.	0.1	1079.4
30060	18.885	6.	5.e-002	44.691
30061	19.159	6.	0.1	1039.9
30062	19.068	6.	5.e-002	45.023
30063	19.342	6.	0.1	999.81
30064	19.251	6.	5.e-002	45.312
30065	19.525	6.	0.1	959.35
30066	19.433	6.	5.e-002	45.544
30067	19.707	6.	0.1	918.65
30068	19.616	6.	5.e-002	45.71
30069	19.89	6.	0.1	877.81
30070	19.799	6.	5.e-002	45.801
30071	20.073	6.	0.1	836.89
30072	19.981	6.	5.e-002	45.808
30073	20.255	6.	0.1	795.95
30074	20.164	6.	5.e-002	45.725
30075	20.438	6.	0.1	755.05
30076	20.347	6.	5.e-002	45.547
30077	20.621	6.	0.1	714.22
30078	20.529	6.	5.e-002	45.268
30079	20.803	6.	0.1	673.47
30080	20.712	6.	5.e-002	44.884
30081	20.986	6.	0.1	632.84
30082	20.895	6.	5.e-002	44.389
30083	21.169	6.	0.1	592.33
30084	21.077	6.	5.e-002	43.779
30085	21.351	6.	0.1	551.96
30086	21.26	6.	5.e-002	43.049
30087	21.534	6.	0.1	511.75
30088	21.443	6.	5.e-002	42.193
30089	21.717	6.	0.1	471.69
30090	21.625	6.	5.e-002	41.202
30091	21.899	6.	0.1	431.8
30092	21.808	6.	5.e-002	40.071
30093	22.082	6.	0.1	392.1
30094	21.991	6.	5.e-002	38.788
30095	22.265	6.	0.1	352.59
30096	22.173	6.	5.e-002	37.343
30097	22.447	6.	0.1	313.31
30098	22.356	6.	5.e-002	35.721
30099	22.63	6.	0.1	274.27
30100	22.539	6.	5.e-002	33.904
30101	22.813	6.	0.1	235.52
30102	22.721	6.	5.e-002	31.869
30103	22.995	6.	0.1	197.12
30104	22.904	6.	5.e-002	29.584
30105	23.178	6.	0.1	159.16
30106	23.087	6.	5.e-002	27.008
30107	23.361	6.	0.1	121.8
30108	23.269	6.	5.e-002	24.077
30109	23.543	6.	0.1	85.324
30110	23.452	6.	5.e-002	20.692
30111	23.726	6.	0.1	50.365
30112	23.635	6.	5.e-002	16.661
30113	23.909	6.	0.1	18.761
30114	23.817	6.	5.e-002	11.388
30115	24.	5.9091	0.1	5.9225
30116	24.	6.	5.e-002	4.5482
30117	24.	5.7273	0.1	6.8222
30118	24.	5.8182	5.e-002	4.0747
30119	24.	5.5455	0.1	7.0241
30120	24.	5.6364	5.e-002	4.522
30121	24.	5.3636	0.1	7.082
30122	24.	5.4545	5.e-002	4.9265
30123	24.	5.1818	0.1	7.0803
30124	24.	5.2727	5.e-002	5.1303
30125	24.	5.	0.1	7.0476
30126	24.	5.0909	5.e-002	5.2123
30127	24.	4.8182	0.1	7.0051
30128	24.	4.9091	5.e-002	5.2137
30129	24.	4.6364	0.1	6.9595
30130	24.	4.7273	5.e-002	5.162
30131	24.	4.4545	0.1	6.9151
30132	24.	4.5455	5.e-002	5.0768
30133	24.	4.2727	0.1	6.874
30134	24.	4.3636	5.e-002	4.9725
30135	24.	4.0909	0.1	6.8375
30136	24.	4.1818	5.e-002	4.8604
30137	24.	3.9091	0.1	6.8062
30138	24.	4.	5.e-002	4.7492
30139	24.	3.7273	0.1	6.7803
30140	24.	3.8182	5.e-002	4.6461
30141	24.	3.5455	0.1	6.7602
30142	24.	3.6364	5.e-002	4.5567
30143	24.	3.3636	0.1	6.7458
30144	24.	3.4545	5.e-002	4.4856
30145	24.	3.1818	0.1	6.7371
30146	24.	3.2727	5.e-002	4.4363
30147	24.	3.	0.1	6.7342
30148	24.	3.0909	5.e-002	4.4111
30149	24.	2.8182	0.1	6.7371
30150	24.	2.9091	5.e-002	4.4111
30151	24.	2.6364	0.1	6.7458
30152	24.	2.7273	5.e-002	4.4363
30153	24.	2.4545	0.1	6.7602
30154	24.	2.5455	5.e-002	4.4856
30155	24.	2.2727	0.1	6.7803
30156	24.	2.3636	5.e-002	4.5567
30157	24.	2.0909	0.1	6.8062
30158	24.	2.1818	5.e-002	4.6461
30159	24.	1.9091	0.1	6.8375
30160	24.	2.	5.e-002	4.7492
30161	24.	1.7273	0.1	6.874
30162	24.	1.8182	5.e-002	4.8604
30163	24.	1.5455	0.1	6.9151
30164	24.	1.6364	5.e-002	4.9726
30165	24.	1.3636	0.1	6.9595
30166	24.	1.4545	5.e-002	5.0768
30167	24.	1.1818	0.1	7.0051
30168	24.	1.2727	5.e-002	5.162
30169	24.	1.	0.1	7.0476
30170	24.	1.0909	5.e-002	5.2137
30171	24.	0.81818	0.1	7.0803
30172	24.	0.90909	5.e-002	5.2124
30173	24.	0.63636	0.1	7.082
30174	24.	0.72727	5.e-002	5.1303
30175	24.	0.45455	0.1	7.0241
30176	24.	0.54545	5.e-002	4.9265
30177	24.	0.27273	0.1	6.8222
30178	24.	0.36364	5.e-002	4.522
30179	24.	9.0909e-002	0.1	5.9225
30180	24.	0.18182	5.e-002	4.0747
30181	2.3842e-015	0.27273	0.1	3542.2
30182	7.9472e-016	9.0909e-002	0.1	1435.3
30183	1.6109e-015	0.18182	5.e-002	95.523
30184	3.9736e-015	0.45455	0.1	5162.1
30185	3.2219e-015	0.36364	5.e-002	49.714
30186	5.563e-015	0.63636	0.1	6010.5
30187	4.8328e-015	0.54545	5.e-002	44.971
30188	7.1525e-015	0.81818	0.1	6548.9
30189	6.4438e-015	0.72727	5.e-002	39.569
30190	8.7419e-015	1.	0.1	6918.3
30191	8.0547e-015	0.90909	5.e-002	33.683
30192	1.0331e-014	1.1818	0.1	7186.
30193	9.6657e-015	1.0909	5.e-002	28.616
30194	1.1921e-014	1.3636	0.1	7386.4
30195	1.1277e-014	1.2727	5.e-002	24.507
30196	1.351e-014	1.5455	0.1	7539.3
30197	1.2888e-014	1.4545	5.e-002	21.169
30198	1.51e-014	1.7273	0.1	7657.5
30199	1.4498e-014	1.6364	5.e-002	18.465
30200	1.6689e-014	1.9091	0.1	7749.1
30201	1.6109e-014	1.8182	5.e-002	16.285
30202	1.8279e-014	2.0909	0.1	7819.8
30203	1.772e-014	2.	5.e-002	14.542
30204	1.9868e-014	2.2727	0.1	7873.4
30205	1.9331e-014	2.1818	5.e-002	13.171
30206	2.1457e-014	2.4545	0.1	7912.8
30207	2.0942e-014	2.3636	5.e-002	12.124
30208	2.3047e-014	2.6364	0.1	7939.7
30209	2.2553e-014	2.5455	5.e-002	11.366
30210	2.4636e-014	2.8182	0.1	7955.3
30211	2.4164e-014	2.7273	5.e-002	10.874
30212	2.6226e-014	3.	0.1	7960.5
30213	2.5775e-014	2.9091	5.e-002	10.631
30214	2.7815e-014	3.1818	0.1	7955.3
30215	2.7386e-014	3.0909	5.e-002	10.631
30216	2.9405e-014	3.3636	0.1	7939.7
30217	2.8997e-014	3.2727	5.e-002	10.874
30218	3.0994e-014	3.5455	0.1	7912.8
30219	3.0608e-014	3.4545	5.e-002	11.366
30220	3.2583e-014	3.7273	0.1	7873.4
30221	3.2219e-014	3.6364	5.e-002	12.124
30222	3.4173e-014	3.9091	0.1	7819.8
30223	3.383e-014	3.8182	5.e-002	13.171
30224	3.5762e-014	4.0909	0.1	7749.1
30225	3.5441e-014	4.	5.e-002	14.542
30226	3.7352e-014	4.2727	0.1	7657.5
30227	3.7052e-014	4.1818	5.e-002	16.285
30228	3.8941e-014	4.4545	0.1	7539.3
30229	3.8663e-014	4.3636	5.e-002	18.466
30230	4.0531e-014	4.6364	0.1	7386.4
30231	4.0274e-014	4.5455	5.e-002	21.169
30232	4.212e-014	4.8182	0.1	7186.
30233	4.1885e-014	4.7273	5.e-002	24.507
30234	4.371e-014	5.	0.1	6918.3
30235	4.3495e-014	4.9091	5.e-002	28.617
30236	4.5299e-014	5.1818	0.1	6548.9
30237	4.5106e-014	5.0909	5.e-002	33.683
30238	4.6888e-014	5.3636	0.1	6010.5
30239	4.6717e-014	5.2727	5.e-002	39.569
30240	4.8478e-014	5.5455	0.1	5162.1
30241	4.8328e-014	5.4545	5.e-002	44.971
30242	5.0067e-014	5.7273	0.1	3542.2
30243	4.9939e-014	5.6364	5.e-002	49.714
30244	5.1657e-014	5.9091	0.1	1435.3
30245	5.155e-014	5.8182	5.e-002	95.523
30246	23.909	0.	0.1	18.761
30247	24.	0.	5.e-002	4.5482
30248	23.726	0.	0.1	50.365
30249	23.817	0.	5.e-002	11.388
30250	23.543	0.	0.1	85.324
30251	23.635	0.	5.e-002	16.661
30252	23.361	0.	0.1	121.8
30253	23.452	0.	5.e-002	20.692
30254	23.178	0.	0.1	159.16
30255	23.269	0.	5.e-002	24.077
30256	22.995	0.	0.1	197.12
30257	23.087	0.	5.e-002	27.008
30258	22.813	0.	0.1	235.52
30259	22.904	0.	5.e-002	29.584
30260	22.63	0.	0.1	274.27
30261	22.721	0.	5.e-002	31.869
30262	22.447	0.	0.1	313.31
30263	22.539	0.	5.e-002	33.904
30264	22.265	0.	0.1	352.59
30265	22.356	0.	5.e-002	35.721
30266	22.082	0.	0.1	392.1
30267	22.173	0.	5.e-002	37.343
30268	21.899	0.	0.1	431.8
30269	21.991	0.	5.e-002	38.788
30270	21.717	0.	0.1	471.69
30271	21.808	0.	5.e-002	40.071
30272	21.534	0.	0.1	511.74
30273	21.625	0.	5.e-002	41.203
30274	21.351	0.	0.1	551.96
30275	21.443	0.	5.e-002	42.193
30276	21.169	0.	0.1	592.33
30277	21.26	0.	5.e-002	43.049
30278	20.986	0.	0.1	632.84
30279	21.077	0.	5.e-002	43.78
30280	20.803	0.	0.1	673.47
30281	20.895	0.	5.e-002	44.389
30282	20.621	0.	0.1	714.22
30283	20.712	0.	5.e-002	44.884
30284	20.438	0.	0.1	755.05
30285	20.529	0.	5.e-002	45.268
30286	20.255	0.	0.1	795.95
30287	20.347	0.	5.e-002	45.547
30288	20.073	0.	0.1	836.89
30289	20.164	0.	5.e-002	45.725
30290	19.89	0.	0.1	877.81
30291	19.981	0.	5.e-002	45.808
30292	19.707	0.	0.1	918.65
30293	19.799	0.	5.e-002	45.801
30294	19.525	0.	0.1	959.35
30295	19.616	0.	5.e-002	45.71
30296	19.342	0.	0.1	999.81
30297	19.433	0.	5.e-002	45.544
30298	19.159	0.	0.1	1039.9
30299	19.251	0.	5.e-002	45.312
30300	18.977	0.	0.1	1079.4
30301	19.068	0.	5.e-002	45.023
30302	18.794	0.	0.1	1118.3
30303	18.885	0.	5.e-002	44.691
30304	18.611	0.	0.1	1156.1
30305	18.703	0.	5.e-002	44.332
30306	18.429	0.	0.1	1192.7
30307	18.52	0.	5.e-002	43.963
30308	18.246	0.	0.1	1227.5
30309	18.337	0.	5.e-002	43.607
30310	18.063	0.	0.1	1260.1
30311	18.155	0.	5.e-002	43.289
30312	17.881	0.	0.1	1289.9
30313	17.972	0.	5.e-002	43.037
30314	17.698	0.	0.1	1316.
30315	17.789	0.	5.e-002	42.883
30316	17.515	0.	0.1	1337.6
30317	17.607	0.	5.e-002	42.861
30318	17.333	0.	0.1	1353.4
30319	17.424	0.	5.e-002	43.003
30320	17.15	0.	0.1	1362.
30321	17.241	0.	5.e-002	43.342
30322	16.967	0.	0.1	1361.6
30323	17.059	0.	5.e-002	43.898
30324	16.785	0.	0.1	1350.4
30325	16.876	0.	5.e-002	44.677
30326	16.602	0.	0.1	1325.9
30327	16.693	0.	5.e-002	45.655
30328	16.419	0.	0.1	1285.6
30329	16.511	0.	5.e-002	46.762
30330	16.237	0.	0.1	1226.6
30331	16.328	0.	5.e-002	47.86
30332	16.054	0.	0.1	1146.1
30333	16.145	0.	5.e-002	48.712
30334	15.871	0.	0.1	1041.5
30335	15.963	0.	5.e-002	48.952
30336	15.689	0.	0.1	911.03
30337	15.78	0.	5.e-002	48.043
30338	15.506	0.	0.1	753.55
30339	15.597	0.	5.e-002	45.258
30340	15.323	0.	0.1	569.
30341	15.415	0.	5.e-002	39.551
30342	15.141	0.	0.1	355.87
30343	15.232	0.	5.e-002	29.804
30344	14.958	0.	0.1	128.97
30345	15.049	0.	5.e-002	11.868
30346	14.867	0.	5.e-002	13.541
30347	14.608	5.0635e-030	0.1	160.89
30348	14.7	5.0954e-030	5.e-002	16.17
30349	14.424	4.9998e-030	0.1	454.6
30350	14.516	0.	5.e-002	5.8979
30351	14.241	4.9361e-030	0.1	748.9
30352	14.333	0.	5.e-002	18.881
30353	14.057	4.8725e-030	0.1	1021.
30354	14.149	0.	5.e-002	22.181
30355	13.873	4.8088e-030	0.1	1271.
30356	13.965	0.	5.e-002	20.693
30357	13.689	4.7451e-030	0.1	1497.4
30358	13.781	0.	5.e-002	15.94
30359	13.506	4.6814e-030	0.1	1700.
30360	13.597	0.	5.e-002	9.3861
30361	13.322	4.6177e-030	0.1	1879.7
30362	13.414	0.	5.e-002	3.1284
30363	13.138	4.554e-030	0.1	2038.4
30364	13.23	0.	5.e-002	7.3897
30365	12.954	4.4903e-030	0.1	2178.5
30366	13.046	0.	5.e-002	14.918
30367	12.771	4.4266e-030	0.1	2302.4
30368	12.863	0.	5.e-002	22.19
30369	12.587	4.3629e-030	0.1	2412.8
30370	12.679	0.	5.e-002	28.883
30371	12.403	4.2992e-030	0.1	2511.9
30372	12.495	0.	5.e-002	34.895
30373	12.219	4.2355e-030	0.1	2601.6
30374	12.311	0.	5.e-002	40.206
30375	12.036	4.1718e-030	0.1	2683.7
30376	12.127	0.	5.e-002	44.84
30377	11.852	4.1081e-030	0.1	2759.6
30378	11.944	0.	5.e-002	48.843
30379	11.668	4.0445e-030	0.1	2830.6
30380	11.76	0.	5.e-002	52.271
30381	11.484	3.9808e-030	0.1	2897.7
30382	11.576	0.	5.e-002	55.184
30383	11.301	3.9171e-030	0.1	2961.7
30384	11.392	0.	5.e-002	57.639
30385	11.117	3.8534e-030	0.1	3023.2
30386	11.209	0.	5.e-002	59.69
30387	10.933	3.7897e-030	0.1	3082.8
30388	11.025	0.	5.e-002	61.386
30389	10.749	3.726e-030	0.1	3140.9
30390	10.841	0.	5.e-002	62.769
30391	10.566	3.6623e-030	0.1	3198.
30392	10.658	0.	5.e-002	63.875
30393	10.382	3.5986e-030	0.1	3254.1
30394	10.474	0.	5.e-002	64.734
30395	10.198	3.5349e-030	0.1	3309.7
30396	10.29	0.	5.e-002	65.373
30397	10.014	3.4712e-030	0.1	3364.8
30398	10.106	0.	5.e-002	65.811
30399	9.8306	3.4075e-030	0.1	3419.6
30400	9.9225	0.	5.e-002	66.066
30401	9.6469	3.3438e-030	0.1	3474.2
30402	9.7388	0.	5.e-002	66.15
30403	9.4631	3.2801e-030	0.1	3528.8
30404	9.555	0.	5.e-002	66.072
30405	9.2794	3.2165e-030	0.1	3583.3
30406	9.3713	0.	5.e-002	65.839
30407	9.0956	3.1528e-030	0.1	3637.9
30408	9.1875	0.	5.e-002	65.454
30409	8.9119	3.0891e-030	0.1	3692.6
30410	9.0037	0.	5.e-002	64.921
30411	8.7281	3.0254e-030	0.1	3747.5
30412	8.82	0.	5.e-002	64.238
30413	8.5444	2.9617e-030	0.1	3802.5
30414	8.6362	0.	5.e-002	63.403
30415	8.3606	2.898e-030	0.1	3857.8
30416	8.4525	0.	5.e-002	62.412
30417	8.1769	2.8343e-030	0.1	3913.3
30418	8.2688	0.	5.e-002	61.26
30419	7.9931	2.7706e-030	0.1	3969.1
30420	8.085	0.	5.e-002	59.939
30421	7.8094	2.7069e-030	0.1	4025.2
30422	7.9012	0.	5.e-002	58.441
30423	7.6256	2.6432e-030	0.1	4081.6
30424	7.7175	0.	5.e-002	56.757
30425	7.4419	2.5795e-030	0.1	4138.4
30426	7.5338	0.	5.e-002	54.874
30427	7.2581	2.5158e-030	0.1	4195.5
30428	7.35	0.	5.e-002	52.78
30429	7.0744	2.4521e-030	0.1	4253.
30430	7.1663	0.	5.e-002	50.461
30431	6.8906	2.3885e-030	0.1	4310.9
30432	6.9825	0.	5.e-002	47.9
30433	6.7069	2.3248e-030	0.1	4369.2
30434	6.7987	0.	5.e-002	45.081
30435	6.5231	2.2611e-030	0.1	4427.9
30436	6.615	0.	5.e-002	41.985
30437	6.3394	2.1974e-030	0.1	4487.1
30438	6.4313	0.	5.e-002	38.591
30439	6.1556	2.1337e-030	0.1	4546.8
30440	6.2475	0.	5.e-002	34.876
30441	5.9719	2.07e-030	0.1	4607.
30442	6.0637	0.	5.e-002	30.817
30443	5.7881	2.0063e-030	0.1	4667.7
30444	5.88	0.	5.e-002	26.389
30445	5.6044	1.9426e-030	0.1	4728.9
30446	5.6962	0.	5.e-002	21.565
30447	5.4206	1.8789e-030	0.1	4790.7
30448	5.5125	0.	5.e-002	16.321
30449	5.2369	1.8152e-030	0.1	4853.1
30450	5.3288	0.	5.e-002	10.645
30451	5.0531	1.7515e-030	0.1	4916.
30452	5.145	0.	5.e-002	4.6525
30453	4.8694	1.6878e-030	0.1	4979.6
30454	4.9612	0.	5.e-002	3.2192
30455	4.6856	1.6242e-030	0.1	5043.7
30456	4.7775	0.	5.e-002	10.116
30457	4.5019	1.5605e-030	0.1	5108.3
30458	4.5938	0.	5.e-002	18.027
30459	4.3181	1.4968e-030	0.1	5173.5
30460	4.41	0.	5.e-002	26.667
30461	4.1344	1.4331e-030	0.1	5239.2
30462	4.2263	0.	5.e-002	36.053
30463	3.9506	1.3694e-030	0.1	5305.4
30464	4.0425	0.	5.e-002	46.234
30465	3.7669	1.3057e-030	0.1	5371.8
30466	3.8588	0.	5.e-002	57.27
30467	3.5831	1.242e-030	0.1	5438.5
30468	3.675	0.	5.e-002	69.227
30469	3.3994	1.1783e-030	0.1	5505.1
30470	3.4913	0.	5.e-002	82.179
30471	3.2156	1.1146e-030	0.1	5571.4
30472	3.3075	0.	5.e-002	96.207
30473	3.0319	1.0509e-030	0.1	5637.
30474	3.1237	0.	5.e-002	111.4
30475	2.8481	9.8723e-031	0.1	5701.5
30476	2.94	0.	5.e-002	127.87
30477	2.6644	9.2354e-031	0.1	5764.2
30478	2.7562	0.	5.e-002	145.71
30479	2.4806	8.5984e-031	0.1	5824.2
30480	2.5725	0.	5.e-002	165.08
30481	2.2969	7.9615e-031	0.1	5880.4
30482	2.3888	0.	5.e-002	186.11
30483	2.1131	7.3246e-031	0.1	5931.3
30484	2.205	0.	5.e-002	208.99
30485	1.9294	6.6877e-031	0.1	5974.6
30486	2.0213	0.	5.e-002	233.95
30487	1.7456	6.0508e-031	0.1	6007.5
30488	1.8375	0.	5.e-002	261.26
30489	1.5619	5.4138e-031	0.1	6026.
30490	1.6537	0.	5.e-002	291.25
30491	1.3781	4.7769e-031	0.1	6023.9
30492	1.47	0.	5.e-002	324.38
30493	1.1944	4.14e-031	0.1	5992.4
30494	1.2862	0.	5.e-002	361.25
30495	1.0106	3.5031e-031	0.1	5917.3
30496	1.1025	0.	5.e-002	402.76
30497	0.82687	2.8661e-031	0.1	5775.3
30498	0.91875	0.	5.e-002	450.13
30499	0.64312	2.2292e-031	0.1	5520.9
30500	0.735	0.	5.e-002	505.86
30501	0.45937	1.5923e-031	0.1	5068.1
30502	0.55125	0.	5.e-002	573.36
30503	0.27562	9.5538e-032	0.1	4159.8
30504	0.3675	0.	5.e-002	664.41
30505	9.1875e-002	3.1846e-032	0.1	1946.2
30506	0.18375	0.	5.e-002	845.35
30507	0.	0.	5.e-002	1119.2
30508	9.1875e-002	6.	0.1	1946.2
30509	5.2451e-014	6.	5.e-002	1119.2
30510	0.27562	6.	0.1	4159.8
30511	0.18375	6.	5.e-002	845.35
30512	0.45937	6.	0.1	5068.1
30513	0.3675	6.	5.e-002	664.41
30514	0.64312	6.	0.1	5520.9
30515	0.55125	6.	5.e-002	573.36
30516	0.82687	6.	0.1	5775.2
30517	0.735	6.	5.e-002	505.86
30518	1.0106	6.	0.1	5917.3
30519	0.91875	6.	5.e-002	450.13
30520	1.1944	6.	0.1	5992.4
30521	1.1025	6.	5.e-002	402.76
30522	1.3781	6.	0.1	6023.9
30523	1.2862	6.	5.e-002	361.25
30524	1.5619	6.	0.1	6026.
30525	1.47	6.	5.e-002	324.38
30526	1.7456	6.	0.1	6007.5
30527	1.6537	6.	5.e-002	291.25
30528	1.9294	6.	0.1	5974.6
30529	1.8375	6.	5.e-002	261.26
30530	2.1131	6.	0.1	5931.3
30531	2.0213	6.	5.e-002	233.95
30532	2.2969	6.	0.1	5880.4
30533	2.205	6.	5.e-002	209.
30534	2.4806	6.	0.1	5824.2
30535	2.3888	6.	5.e-002	186.11
30536	2.6644	6.	0.1	5764.2
30537	2.5725	6.	5.e-002	165.08
30538	2.8481	6.	0.1	5701.5
30539	2.7562	6.	5.e-002	145.71
30540	3.0319	6.	0.1	5637.
30541	2.94	6.	5.e-002	127.87
30542	3.2156	6.	0.1	5571.4
30543	3.1237	6.	5.e-002	111.4
30544	3.3994	6.	0.1	5505.1
30545	3.3075	6.	5.e-002	96.207
30546	3.5831	6.	0.1	5438.5
30547	3.4913	6.	5.e-002	82.179
30548	3.7669	6.	0.1	5371.8
30549	3.675	6.	5.e-002	69.227
30550	3.9506	6.	0.1	5305.4
30551	3.8588	6.	5.e-002	57.27
30552	4.1344	6.	0.1	5239.2
30553	4.0425	6.	5.e-002	46.234
30554	4.3181	6.	0.1	5173.5
30555	4.2263	6.	5.e-002	36.053
30556	4.5019	6.	0.1	5108.3
30557	4.41	6.	5.e-002	26.667
30558	4.6856	6.	0.1	5043.7
30559	4.5938	6.	5.e-002	18.028
30560	4.8694	6.	0.1	4979.6
30561	4.7775	6.	5.e-002	10.117
30562	5.0531	6.	0.1	4916.
30563	4.9612	6.	5.e-002	3.2194
30564	5.2369	6.	0.1	4853.1
30565	5.145	6.	5.e-002	4.6523
30566	5.4206	6.	0.1	4790.7
30567	5.3288	6.	5.e-002	10.645
30568	5.6044	6.	0.1	4728.9
30569	5.5125	6.	5.e-002	16.32
30570	5.7881	6.	0.1	4667.7
30571	5.6962	6.	5.e-002	21.565
30572	5.9719	6.	0.1	4607.
30573	5.88	6.	5.e-002	26.389
30574	6.1556	6.	0.1	4546.8
30575	6.0637	6.	5.e-002	30.817
30576	6.3394	6.	0.1	4487.1
30577	6.2475	6.	5.e-002	34.876
30578	6.5231	6.	0.1	4427.9
30579	6.4313	6.	5.e-002	38.59
30580	6.7069	6.	0.1	4369.2
30581	6.615	6.	5.e-002	41.985
30582	6.8906	6.	0.1	4310.9
30583	6.7987	6.	5.e-002	45.081
30584	7.0744	6.	0.1	4253.
30585	6.9825	6.	5.e-002	47.9
30586	7.2581	6.	0.1	4195.5
30587	7.1663	6.	5.e-002	50.461
30588	7.4419	6.	0.1	4138.4
30589	7.35	6.	5.e-002	52.78
30590	7.6256	6.	0.1	4081.6
30591	7.5338	6.	5.e-002	54.874
30592	7.8094	6.	0.1	4025.2
30593	7.7175	6.	5.e-002	56.757
30594	7.9931	6.	0.1	3969.1
30595	7.9012	6.	5.e-002	58.441
30596	8.1769	6.	0.1	3913.3
30597	8.085	6.	5.e-002	59.939
30598	8.3606	6.	0.1	3857.8
30599	8.2688	6.	5.e-002	61.259
30600	8.5444	6.	0.1	3802.5
30601	8.4525	6.	5.e-002	62.412
30602	8.7281	6.	0.1	3747.5
30603	8.6362	6.	5.e-002	63.402
30604	8.9119	6.	0.1	3692.6
30605	8.82	6.	5.e-002	64.238
30606	9.0956	6.	0.1	3637.9
30607	9.0037	6.	5.e-002	64.921
30608	9.2794	6.	0.1	3583.3
30609	9.1875	6.	5.e-002	65.454
30610	9.4631	6.	0.1	3528.8
30611	9.3713	6.	5.e-002	65.838
30612	9.6469	6.	0.1	3474.2
30613	9.555	6.	5.e-002	66.071
30614	9.8306	6.	0.1	3419.6
30615	9.7388	6.	5.e-002	66.149
30616	10.014	6.	0.1	3364.8
30617	9.9225	6.	5.e-002	66.066
30618	10.198	6.	0.1	3309.7
30619	10.106	6.	5.e-002	65.811
30620	10.382	6.	0.1	3254.1
30621	10.29	6.	5.e-002	65.373
30622	10.566	6.	0.1	3198.
30623	10.474	6.	5.e-002	64.734
30624	10.749	6.	0.1	3140.9
30625	10.658	6.	5.e-002	63.875
30626	10.933	6.	0.1	3082.8
30627	10.841	6.	5.e-002	62.769
30628	11.117	6.	0.1	3023.2
30629	11.025	6.	5.e-002	61.386
30630	11.301	6.	0.1	2961.7
30631	11.209	6.	5.e-002	59.69
30632	11.484	6.	0.1	2897.7
30633	11.392	6.	5.e-002	57.639
30634	11.668	6.	0.1	2830.6
30635	11.576	6.	5.e-002	55.183
30636	11.852	6.	0.1	2759.6
30637	11.76	6.	5.e-002	52.271
30638	12.036	6.	0.1	2683.7
30639	11.944	6.	5.e-002	48.843
30640	12.219	6.	0.1	2601.6
30641	12.127	6.	5.e-002	44.84
30642	12.403	6.	0.1	2511.9
30643	12.311	6.	5.e-002	40.206
30644	12.587	6.	0.1	2412.8
30645	12.495	6.	5.e-002	34.894
30646	12.771	6.	0.1	2302.4
30647	12.679	6.	5.e-002	28.883
30648	12.954	6.	0.1	2178.5
30649	12.863	6.	5.e-002	22.19
30650	13.138	6.	0.1	2038.4
30651	13.046	6.	5.e-002	14.918
30652	13.322	6.	0.1	1879.7
30653	13.23	6.	5.e-002	7.3896
30654	13.506	6.	0.1	1700.
30655	13.414	6.	5.e-002	3.1285
30656	13.689	6.	0.1	1497.4
30657	13.597	6.	5.e-002	9.3862
30658	13.873	6.	0.1	1271.
30659	13.781	6.	5.e-002	15.94
30660	14.057	6.	0.1	1021.
30661	13.965	6.	5.e-002	20.693
30662	14.241	6.	0.1	748.9
30663	14.149	6.	5.e-002	22.181
30664	14.424	6.	0.1	454.6
30665	14.333	6.	5.e-002	18.881
30666	14.608	6.	0.1	160.89
30667	14.516	6.	5.e-002	5.8979
30668	14.7	6.	5.e-002	16.17
30669	14.424	6.	0.	7.3483
30670	14.608	6.	0.	2.532
30671	14.241	6.	0.	7.7828
30672	14.057	6.	0.	7.6112
30673	13.873	6.	0.	6.9339
30674	13.689	6.	0.	6.1214
30675	13.506	6.	0.	5.4101
30676	13.322	6.	0.	4.8675
30677	13.138	6.	0.	4.5033
30678	12.954	6.	0.	4.2922
30679	12.771	6.	0.	4.1987
30680	12.587	6.	0.	4.1872
30681	12.403	6.	0.	4.2267
30682	12.219	6.	0.	4.2931
30683	12.036	6.	0.	4.3682
30684	11.852	6.	0.	4.4398
30685	11.668	6.	0.	4.4995
30686	11.484	6.	0.	4.5426
30687	11.301	6.	0.	4.5664
30688	11.117	6.	0.	4.57
30689	10.933	6.	0.	4.5532
30690	10.749	6.	0.	4.5165
30691	10.566	6.	0.	4.4609
30692	10.382	6.	0.	4.3872
30693	10.198	6.	0.	4.2962
30694	10.014	6.	0.	4.189
30695	9.8306	6.	0.	4.066
30696	9.6469	6.	0.	3.928
30697	9.4631	6.	0.	3.7754
30698	9.2794	6.	0.	3.6085
30699	9.0956	6.	0.	3.4276
30700	8.9119	6.	0.	3.2328
30701	8.7281	6.	0.	3.0243
30702	8.5444	6.	0.	2.8022
30703	8.3606	6.	0.	2.5665
30704	8.1769	6.	0.	2.3173
30705	7.9931	6.	0.	2.0547
30706	7.8094	6.	0.	1.7791
30707	7.6256	6.	0.	1.4907
30708	7.4419	6.	0.	1.1899
30709	7.2581	6.	0.	0.87754
30710	7.0744	6.	0.	0.55469
30711	6.8906	6.	0.	0.45377
30712	6.7069	6.	0.	0.49806
30713	6.5231	6.	0.	0.54583
30714	6.3394	6.	0.	0.59729
30715	6.1556	6.	0.	0.65273
30716	5.9719	6.	0.	0.71251
30717	5.7881	6.	0.	0.777
30718	5.6044	6.	0.	0.8466
30719	5.4206	6.	0.	0.92174
30720	5.2369	6.	0.	1.0029
30721	5.0531	6.	0.	1.0907
30722	4.8694	6.	0.	1.1856
30723	4.6856	6.	0.	1.2885
30724	4.5019	6.	0.	1.4001
30725	4.3181	6.	0.	1.5216
30726	4.1344	6.	0.	1.6545
30727	3.9506	6.	0.	1.801
30728	3.7669	6.	0.	1.9648
30729	3.5831	6.	0.	2.1536
30730	3.3994	6.	0.	2.3866
30731	3.2156	6.	0.	2.7306
30732	3.0319	6.	0.	3.4837
30733	2.8481	6.	0.	5.1812
30734	2.6644	6.	0.	7.7116
30735	2.4806	6.	0.	10.96
30736	2.2969	6.	0.	14.999
30737	2.1131	6.	0.	19.973
30738	1.9294	6.	0.	26.081
30739	1.7456	6.	0.	33.597
30740	1.5619	6.	0.	42.891
30741	1.3781	6.	0.	54.51
30742	1.1944	6.	0.	69.233
30743	1.0106	6.	0.	88.49
30744	0.82687	6.	0.	114.36
30745	0.64312	6.	0.	152.17
30746	0.45937	6.	0.	213.87
30747	0.27562	6.	0.	335.69
30748	9.1875e-002	6.	0.	900.61
30749	14.7	5.9091	0.	15.925
30750	5.1657e-014	5.9091	0.	145.54
30751	0.27562	9.5538e-032	0.	335.69
30752	9.1875e-002	3.1846e-032	0.	900.61
30753	0.45937	1.5923e-031	0.	213.87
30754	0.64312	2.2292e-031	0.	152.17
30755	0.82687	2.8661e-031	0.	114.36
30756	1.0106	3.5031e-031	0.	88.489
30757	1.1944	4.14e-031	0.	69.233
30758	1.3781	4.7769e-031	0.	54.51
30759	1.5619	5.4138e-031	0.	42.891
30760	1.7456	6.0508e-031	0.	33.597
30761	1.9294	6.6877e-031	0.	26.081
30762	2.1131	7.3246e-031	0.	19.973
30763	2.2969	7.9615e-031	0.	14.999
30764	2.4806	8.5984e-031	0.	10.96
30765	2.6644	9.2354e-031	0.	7.7116
30766	2.8481	9.8723e-031	0.	5.1811
30767	3.0319	1.0509e-030	0.	3.4837
30768	3.2156	1.1146e-030	0.	2.7306
30769	3.3994	1.1783e-030	0.	2.3866
30770	3.5831	1.242e-030	0.	2.1536
30771	3.7669	1.3057e-030	0.	1.9648
30772	3.9506	1.3694e-030	0.	1.801
30773	4.1344	1.4331e-030	0.	1.6545
30774	4.3181	1.4968e-030	0.	1.5216
30775	4.5019	1.5605e-030	0.	1.4001
30776	4.6856	1.6242e-030	0.	1.2885
30777	4.8694	1.6878e-030	0.	1.1856
30778	5.0531	1.7515e-030	0.	1.0907
30779	5.2369	1.8152e-030	0.	1.0029
30780	5.4206	1.8789e-030	0.	0.92174
30781	5.6044	1.9426e-030	0.	0.8466
30782	5.7881	2.0063e-030	0.	0.777
30783	5.9719	2.07e-030	0.	0.71251
30784	6.1556	2.1337e-030	0.	0.65273
30785	6.3394	2.1974e-030	0.	0.59729
30786	6.5231	2.2611e-030	0.	0.54583
30787	6.7069	2.3248e-030	0.	0.49807
30788	6.8906	2.3885e-030	0.	0.45378
30789	7.0744	2.4521e-030	0.	0.5547
30790	7.2581	2.5158e-030	0.	0.87756
30791	7.4419	2.5795e-030	0.	1.1899
30792	7.6256	2.6432e-030	0.	1.4907
30793	7.8094	2.7069e-030	0.	1.7791
30794	7.9931	2.7706e-030	0.	2.0548
30795	8.1769	2.8343e-030	0.	2.3173
30796	8.3606	2.898e-030	0.	2.5665
30797	8.5444	2.9617e-030	0.	2.8022
30798	8.7281	3.0254e-030	0.	3.0243
30799	8.9119	3.0891e-030	0.	3.2328
30800	9.0956	3.1528e-030	0.	3.4276
30801	9.2794	3.2165e-030	0.	3.6085
30802	9.4631	3.2801e-030	0.	3.7754
30803	9.6469	3.3438e-030	0.	3.928
30804	9.8306	3.4075e-030	0.	4.0661
30805	10.014	3.4712e-030	0.	4.189
30806	10.198	3.5349e-030	0.	4.2963
30807	10.382	3.5986e-030	0.	4.3872
30808	10.566	3.6623e-030	0.	4.4609
30809	10.749	3.726e-030	0.	4.5166
30810	10.933	3.7897e-030	0.	4.5532
30811	11.117	3.8534e-030	0.	4.57
30812	11.301	3.9171e-030	0.	4.5665
30813	11.484	3.9808e-030	0.	4.5427
30814	11.668	4.0445e-030	0.	4.4996
30815	11.852	4.1081e-030	0.	4.4398
30816	12.036	4.1718e-030	0.	4.3683
30817	12.219	4.2355e-030	0.	4.2931
30818	12.403	4.2992e-030	0.	4.2267
30819	12.587	4.3629e-030	0.	4.1872
30820	12.771	4.4266e-030	0.	4.1987
30821	12.954	4.4903e-030	0.	4.2922
30822	13.138	4.554e-030	0.	4.5033
30823	13.322	4.6177e-030	0.	4.8675
30824	13.506	4.6814e-030	0.	5.4101
30825	13.689	4.7451e-030	0.	6.1214
30826	13.873	4.8088e-030	0.	6.9339
30827	14.057	4.8725e-030	0.	7.6112
30828	14.241	4.9361e-030	0.	7.7828
30829	14.424	4.9998e-030	0.	7.3483
30830	14.608	5.0635e-030	0.	2.532
30831	14.7	9.0909e-002	0.	15.925
30832	7.9472e-016	9.0909e-002	0.	145.54
30833	15.141	0.	0.	9.9126
30834	14.958	0.	0.	3.2476
30835	15.323	0.	0.	12.325
30836	15.506	0.	0.	13.284
30837	15.689	0.	0.	13.077
30838	15.871	0.	0.	12.211
30839	16.054	0.	0.	11.074
30840	16.237	0.	0.	9.8774
30841	16.419	0.	0.	8.7476
30842	16.602	0.	0.	7.747
30843	16.785	0.	0.	6.9016
30844	16.967	0.	0.	6.2152
30845	17.15	0.	0.	5.6803
30846	17.333	0.	0.	5.2838
30847	17.515	0.	0.	5.0108
30848	17.698	0.	0.	4.8463
30849	17.881	0.	0.	4.7764
30850	18.063	0.	0.	4.7884
30851	18.246	0.	0.	4.8708
30852	18.429	0.	0.	5.0134
30853	18.611	0.	0.	5.2072
30854	18.794	0.	0.	5.4444
30855	18.977	0.	0.	5.7178
30856	19.159	0.	0.	6.0214
30857	19.342	0.	0.	6.3495
30858	19.525	0.	0.	6.6975
30859	19.707	0.	0.	7.061
30860	19.89	0.	0.	7.4362
30861	20.073	0.	0.	7.8198
30862	20.255	0.	0.	8.2088
30863	20.438	0.	0.	8.6004
30864	20.621	0.	0.	8.9921
30865	20.803	0.	0.	9.3816
30866	20.986	0.	0.	9.7665
30867	21.169	0.	0.	10.145
30868	21.351	0.	0.	10.514
30869	21.534	0.	0.	10.871
30870	21.717	0.	0.	11.214
30871	21.899	0.	0.	11.539
30872	22.082	0.	0.	11.843
30873	22.265	0.	0.	12.121
30874	22.447	0.	0.	12.367
30875	22.63	0.	0.	12.574
30876	22.813	0.	0.	12.731
30877	22.995	0.	0.	12.823
30878	23.178	0.	0.	12.827
30879	23.361	0.	0.	12.689
30880	23.543	0.	0.	12.374
30881	23.726	0.	0.	11.242
30882	23.909	0.	0.	7.9965
30883	14.867	9.0909e-002	0.	10.161
30884	24.	9.0909e-002	0.	19.208
30885	5.0067e-014	5.7273	0.	-1664.2
30886	4.8478e-014	5.5455	0.	-2514.5
30887	4.6888e-014	5.3636	0.	-2948.
30888	4.5299e-014	5.1818	0.	-3217.9
30889	4.371e-014	5.	0.	-3402.2
30890	4.212e-014	4.8182	0.	-3535.5
30891	4.0531e-014	4.6364	0.	-3635.1
30892	3.8941e-014	4.4545	0.	-3711.2
30893	3.7352e-014	4.2727	0.	-3769.9
30894	3.5762e-014	4.0909	0.	-3815.4
30895	3.4173e-014	3.9091	0.	-3850.6
30896	3.2583e-014	3.7273	0.	-3877.3
30897	3.0994e-014	3.5455	0.	-3896.9
30898	2.9405e-014	3.3636	0.	-3910.3
30899	2.7815e-014	3.1818	0.	-3918.3
30900	2.6226e-014	3.	0.	-3920.9
30901	2.4636e-014	2.8182	0.	-3918.3
30902	2.3047e-014	2.6364	0.	-3910.3
30903	2.1457e-014	2.4545	0.	-3896.9
30904	1.9868e-014	2.2727	0.	-3877.3
30905	1.8279e-014	2.0909	0.	-3850.6
30906	1.6689e-014	1.9091	0.	-3815.4
30907	1.51e-014	1.7273	0.	-3769.9
30908	1.351e-014	1.5455	0.	-3711.2
30909	1.1921e-014	1.3636	0.	-3635.1
30910	1.0331e-014	1.1818	0.	-3535.5
30911	8.7419e-015	1.	0.	-3402.2
30912	7.1525e-015	0.81818	0.	-3217.9
30913	5.563e-015	0.63636	0.	-2948.
30914	3.9736e-015	0.45455	0.	-2514.5
30915	2.3842e-015	0.27273	0.	-1664.2
30916	24.	0.27273	0.	47.204
30917	24.	0.45455	0.	69.58
30918	24.	0.63636	0.	87.157
30919	24.	0.81818	0.	101.75
30920	24.	1.	0.	114.12
30921	24.	1.1818	0.	124.69
30922	24.	1.3636	0.	133.75
30923	24.	1.5455	0.	141.5
30924	24.	1.7273	0.	148.08
30925	24.	1.9091	0.	153.61
30926	24.	2.0909	0.	158.16
30927	24.	2.2727	0.	161.81
30928	24.	2.4545	0.	164.6
30929	24.	2.6364	0.	166.57
30930	24.	2.8182	0.	167.74
30931	24.	3.	0.	168.13
30932	24.	3.1818	0.	167.74
30933	24.	3.3636	0.	166.57
30934	24.	3.5455	0.	164.6
30935	24.	3.7273	0.	161.81
30936	24.	3.9091	0.	158.16
30937	24.	4.0909	0.	153.61
30938	24.	4.2727	0.	148.08
30939	24.	4.4545	0.	141.5
30940	24.	4.6364	0.	133.75
30941	24.	4.8182	0.	124.69
30942	24.	5.	0.	114.12
30943	24.	5.1818	0.	101.75
30944	24.	5.3636	0.	87.157
30945	24.	5.5455	0.	69.58
30946	24.	5.7273	0.	47.204
30947	24.	5.9091	0.	19.208
30948	23.909	6.	0.	7.9964
30949	23.726	6.	0.	11.242
30950	23.543	6.	0.	12.374
30951	23.361	6.	0.	12.689
30952	23.178	6.	0.	12.827
30953	22.995	6.	0.	12.823
30954	22.813	6.	0.	12.731
30955	22.63	6.	0.	12.574
30956	22.447	6.	0.	12.367
30957	22.265	6.	0.	12.121
30958	22.082	6.	0.	11.843
30959	21.899	6.	0.	11.539
30960	21.717	6.	0.	11.214
30961	21.534	6.	0.	10.871
30962	21.351	6.	0.	10.514
30963	21.169	6.	0.	10.145
30964	20.986	6.	0.	9.7665
30965	20.803	6.	0.	9.3816
30966	20.621	6.	0.	8.9921
30967	20.438	6.	0.	8.6004
30968	20.255	6.	0.	8.2087
30969	20.073	6.	0.	7.8198
30970	19.89	6.	0.	7.4362
30971	19.707	6.	0.	7.0609
30972	19.525	6.	0.	6.6974
30973	19.342	6.	0.	6.3495
30974	19.159	6.	0.	6.0213
30975	18.977	6.	0.	5.7178
30976	18.794	6.	0.	5.4443
30977	18.611	6.	0.	5.2072
30978	18.429	6.	0.	5.0133
30979	18.246	6.	0.	4.8707
30980	18.063	6.	0.	4.7884
30981	17.881	6.	0.	4.7764
30982	17.698	6.	0.	4.8463
30983	17.515	6.	0.	5.0107
30984	17.333	6.	0.	5.2838
30985	17.15	6.	0.	5.6803
30986	16.967	6.	0.	6.2152
30987	16.785	6.	0.	6.9015
30988	16.602	6.	0.	7.747
30989	16.419	6.	0.	8.7475
30990	16.237	6.	0.	9.8774
30991	16.054	6.	0.	11.074
30992	15.871	6.	0.	12.211
30993	15.689	6.	0.	13.077
30994	15.506	6.	0.	13.284
30995	15.323	6.	0.	12.325
30996	15.141	6.	0.	9.9126
30997	14.958	6.	0.	3.2476
30998	14.867	5.9091	0.	10.161
30999	14.7	1.7273	0.	2336.9
31000	14.7	1.9091	0.	2496.3
31001	14.7	1.5455	0.	1404.2
31002	14.7	1.3636	0.	1065.3
31003	14.7	1.1818	0.	796.68
31004	14.7	1.	0.	595.31
31005	14.7	0.81818	0.	433.46
31006	14.7	0.63636	0.	299.31
31007	14.7	0.45455	0.	186.98
31008	14.7	0.27273	0.	93.787
31009	14.783	2.	0.	1256.6
31010	14.867	0.27273	0.	59.197
31011	14.867	0.45455	0.	114.39
31012	14.867	0.63636	0.	178.97
31013	14.867	0.81818	0.	255.23
31014	14.867	1.	0.	347.45
31015	14.867	1.1818	0.	463.36
31016	14.867	1.3636	0.	623.73
31017	14.867	1.5455	0.	809.12
31018	14.867	1.7273	0.	1468.2
31019	14.867	1.9091	0.	1369.1
31020	14.7	4.2727	0.	2336.9
31021	14.7	4.0909	0.	2496.3
31022	14.7	4.4545	0.	1404.2
31023	14.7	4.6364	0.	1065.3
31024	14.7	4.8182	0.	796.68
31025	14.7	5.	0.	595.31
31026	14.7	5.1818	0.	433.46
31027	14.7	5.3636	0.	299.31
31028	14.7	5.5455	0.	186.98
31029	14.7	5.7273	0.	93.787
31030	14.783	4.	0.	1256.6
31031	14.867	5.7273	0.	59.197
31032	14.867	5.5455	0.	114.39
31033	14.867	5.3636	0.	178.97
31034	14.867	5.1818	0.	255.23
31035	14.867	5.	0.	347.45
31036	14.867	4.8182	0.	463.36
31037	14.867	4.6364	0.	623.73
31038	14.867	4.4545	0.	809.12
31039	14.867	4.2727	0.	1468.2
31040	14.867	4.0909	0.	1369.1
