Node Number	X Location (in)	Y Location (in)	Z Location (in)	Maximum Principal Stress (psi)
1	5.7063	2.198	0.	3.0054
2	4.9311	3.5155	0.	714.83
3	5.6365	1.6903	0.	-64.007
4	4.1256	2.6436	0.	3390.5
5	3.8057	3.0755	0.	289.81
6	5.6608	4.2367	0.	6.5439
7	3.0645	2.308	0.	-96.322
8	2.898	0.80999	0.	255.17
9	5.0593	0.48483	0.	312.56
10	3.5398	4.1047	0.	338.29
11	2.9152	4.9202	0.	133.27
12	4.7883	5.0812	0.	496.11
13	6.0233	3.0024	0.	-34.555
14	1.9746	4.7484	0.	-84.885
15	5.1681	1.2395	0.	252.94
16	5.2213	4.7218	0.	224.85
17	1.9558	2.0972	0.	-283.94
18	6.0545	0.70064	0.	38.326
19	5.0195	5.4764	0.	301.04
20	2.1274	3.338	0.	-368.49
21	0.99548	2.323	0.	999.74
22	1.0591	3.5132	0.	1011.
23	1.9203	1.0099	0.	-217.
24	6.9507	1.2016	0.	211.74
25	1.0228	4.7364	0.	953.15
26	8.2965	1.2167	0.	-34.525
27	9.5096	1.2117	0.	-17.15
28	10.675	1.2021	0.	-9.1865e-002
29	11.815	1.1908	0.	2.3216
30	12.944	1.1738	0.	1.6314
31	14.066	1.1707	0.	5.8815
32	15.164	1.1689	0.	10.961
33	16.271	1.1693	0.	14.907
34	17.368	1.1714	0.	19.163
35	18.469	1.1761	0.	24.199
36	19.567	1.1828	0.	31.401
37	20.669	1.1877	0.	41.857
38	21.778	1.1876	0.	57.611
39	22.89	1.1947	0.	85.245
40	22.876	2.3925	0.	125.08
41	22.879	3.602	0.	125.36
42	22.886	4.7963	0.	85.895
43	21.775	4.7917	0.	58.35
44	20.662	4.7893	0.	43.172
45	19.558	4.7344	0.	34.066
46	18.457	4.6912	0.	25.832
47	17.361	4.6698	0.	19.718
48	16.265	4.6625	0.	14.76
49	15.169	4.6626	0.	10.236
50	14.069	4.6642	0.	3.9534
51	12.961	4.7131	0.	-5.2457e-003
52	11.832	4.7573	0.	0.86868
53	10.687	4.7698	0.	1.1583
54	9.5132	4.775	0.	-4.8275
55	8.2858	4.7757	0.	-43.122
56	6.9417	4.7743	0.	163.79
57	5.9979	5.2722	0.	-22.039
58	6.9534	2.4353	0.	-27.373
59	7.1312	3.6284	0.	-90.828
60	8.2141	2.387	0.	31.831
61	9.4305	2.3986	0.	16.267
62	10.619	2.3858	0.	1.6555
63	11.788	2.3631	0.	-0.90685
64	12.937	2.3527	0.	0.56205
65	14.06	2.3476	0.	1.4245
66	15.161	2.3467	0.	8.3069
67	16.267	2.348	0.	13.721
68	17.366	2.3528	0.	19.897
69	18.467	2.3592	0.	27.496
70	19.567	2.3673	0.	38.691
71	20.668	2.3754	0.	55.89
72	21.771	2.3856	0.	82.911
73	21.769	3.5896	0.	83.729
74	20.667	3.577	0.	56.015
75	19.568	3.5528	0.	38.004
76	18.46	3.5261	0.	27.441
77	17.363	3.5124	0.	19.851
78	16.262	3.5044	0.	14.007
79	15.163	3.5022	0.	7.3917
80	14.049	3.5114	0.	1.4654
81	12.923	3.5311	0.	-0.27154
82	11.788	3.5504	0.	-0.85446
83	10.621	3.5736	0.	2.4324
84	9.4193	3.5797	0.	-10.596
85	8.2447	3.5938	0.	23.634
86	2.8875	1.6377	0.	103.22
87	3.3807	2.6617	0.	681.6
88	0.9735	1.1334	0.	1007.9
89	3.4873	4.6375	0.	2297.9
90	3.621	3.5529	0.	669.59
91	4.8308	0.90447	0.	447.8
92	5.2247	2.7644	0.	-57.102
93	4.7146	2.4807	0.	892.97
94	4.2918	3.3561	0.	2571.9
95	5.9874	3.6513	0.	65.49
96	2.9058	3.7349	0.	364.76
97	5.1481	3.191	0.	145.85
98	4.8847	2.7169	0.	221.04
99	4.5774	3.0029	0.	847.51
100	4.5774	3.0029	0.1	8404.6
101	4.8847	2.7169	0.1	7588.7
102	5.1481	3.191	0.1	7507.6
103	2.9058	3.7349	0.1	6999.7
104	5.9874	3.6513	0.1	4863.5
105	4.2918	3.3561	0.1	10060
106	4.7146	2.4807	0.1	6688.4
107	5.2247	2.7644	0.1	7704.6
108	4.8308	0.90447	0.1	3311.3
109	3.621	3.5529	0.1	9865.4
110	3.4873	4.6375	0.1	5116.8
111	0.9735	1.1334	0.1	5763.
112	3.3807	2.6617	0.1	7367.8
113	2.8875	1.6377	0.1	6194.2
114	8.2447	3.5938	0.1	3930.5
115	9.4193	3.5797	0.1	3538.2
116	10.621	3.5736	0.1	3195.7
117	11.788	3.5504	0.1	2873.6
118	12.923	3.5311	0.1	2572.3
119	14.049	3.5114	0.1	2279.3
120	15.163	3.5022	0.1	1996.3
121	16.262	3.5044	0.1	1724.
122	17.363	3.5124	0.1	1458.6
123	18.46	3.5261	0.1	1201.2
124	19.568	3.5528	0.1	948.42
125	20.667	3.577	0.1	705.89
126	21.769	3.5896	0.1	470.04
127	21.771	2.3856	0.1	469.36
128	20.668	2.3754	0.1	705.74
129	19.567	2.3673	0.1	949.13
130	18.467	2.3592	0.1	1199.4
131	17.366	2.3528	0.1	1457.9
132	16.267	2.348	0.1	1723.1
133	15.161	2.3467	0.1	1997.1
134	14.06	2.3476	0.1	2276.8
135	12.937	2.3527	0.1	2569.1
136	11.788	2.3631	0.1	2874.8
137	10.619	2.3858	0.1	3193.2
138	9.4305	2.3986	0.1	3515.8
139	8.2141	2.387	0.1	3906.
140	7.1312	3.6284	0.1	4378.4
141	6.9534	2.4353	0.1	4365.
142	5.9979	5.2722	0.1	4343.2
143	6.9417	4.7743	0.1	3973.5
144	8.2858	4.7757	0.1	3910.7
145	9.5132	4.775	0.1	3505.2
146	10.687	4.7698	0.1	3181.5
147	11.832	4.7573	0.1	2868.6
148	12.961	4.7131	0.1	2567.6
149	14.069	4.6642	0.1	2278.4
150	15.169	4.6626	0.1	1998.8
151	16.265	4.6625	0.1	1726.9
152	17.361	4.6698	0.1	1461.9
153	18.457	4.6912	0.1	1204.4
154	19.558	4.7344	0.1	952.59
155	20.662	4.7893	0.1	706.22
156	21.775	4.7917	0.1	464.72
157	22.886	4.7963	0.1	231.95
158	22.879	3.602	0.1	237.53
159	22.876	2.3925	0.1	238.4
160	22.89	1.1947	0.1	231.08
161	21.778	1.1876	0.1	464.21
162	20.669	1.1877	0.1	704.99
163	19.567	1.1828	0.1	950.68
164	18.469	1.1761	0.1	1202.2
165	17.368	1.1714	0.1	1461.4
166	16.271	1.1693	0.1	1726.3
167	15.164	1.1689	0.1	2001.
168	14.066	1.1707	0.1	2280.1
169	12.944	1.1738	0.1	2571.7
170	11.815	1.1908	0.1	2872.3
171	10.675	1.2021	0.1	3188.1
172	9.5096	1.2117	0.1	3529.6
173	8.2965	1.2167	0.1	3926.3
174	1.0228	4.7364	0.1	5892.8
175	6.9507	1.2016	0.1	3925.
176	1.9203	1.0099	0.1	5690.7
177	1.0591	3.5132	0.1	6551.9
178	0.99548	2.323	0.1	6541.8
179	2.1274	3.338	0.1	6462.9
180	5.0195	5.4764	0.1	3184.7
181	6.0545	0.70064	0.1	4125.6
182	1.9558	2.0972	0.1	6134.9
183	5.2213	4.7218	0.1	5578.
184	5.1681	1.2395	0.1	5854.6
185	1.9746	4.7484	0.1	5514.2
186	6.0233	3.0024	0.1	5133.6
187	4.7883	5.0812	0.1	3446.2
188	2.9152	4.9202	0.1	4869.6
189	3.5398	4.1047	0.1	8891.4
190	5.0593	0.48483	0.1	3490.8
191	2.898	0.80999	0.1	4725.4
192	3.0645	2.308	0.1	8094.3
193	5.6608	4.2367	0.1	4797.9
194	3.8057	3.0755	0.1	11163
195	4.1256	2.6436	0.1	10201
196	5.6365	1.6903	0.1	4865.6
197	4.9311	3.5155	0.1	6318.8
198	5.7063	2.198	0.1	5317.8
199	4.1667	4.	0.1	14080
200	4.1667	4.5	0.1	3011.
201	4.1667	5.	0.1	2468.8
202	4.1667	5.5	0.1	1106.1
203	4.	5.5	0.1	2838.6
204	4.	5.	0.1	3290.5
205	4.	4.5	0.1	3408.9
206	4.	4.	0.1	23681
207	4.1667	2.	0.1	15404
208	4.1667	1.5	0.1	2290.1
209	4.1667	1.	0.1	2637.1
210	4.1667	0.5	0.1	986.5
211	4.	0.5	0.1	1875.6
212	4.	1.	0.1	3960.6
213	4.	1.5	0.1	6720.
214	4.	2.	0.1	23394
215	4.1667	6.	0.1	585.89
216	5.2685	6.	0.1	3164.2
217	6.3704	6.	0.1	4248.4
218	7.4722	6.	0.1	4032.5
219	8.5741	6.	0.1	3697.8
220	9.6759	6.	0.1	3481.4
221	10.778	6.	0.1	3166.2
222	11.88	6.	0.1	2866.1
223	12.981	6.	0.1	2567.7
224	14.083	6.	0.1	2278.9
225	15.185	6.	0.1	1998.2
226	16.287	6.	0.1	1724.8
227	17.389	6.	0.1	1458.5
228	18.491	6.	0.1	1198.6
229	19.593	6.	0.1	944.75
230	20.694	6.	0.1	697.3
231	21.796	6.	0.1	453.65
232	22.898	6.	0.1	212.84
233	24.	6.	0.1	12.167
234	24.	4.8	0.1	3.774
235	24.	3.6	0.1	2.6781
236	24.	2.4	0.1	2.4126
237	24.	1.2	0.1	3.733
238	0.	1.2	0.1	7546.8
239	0.	2.4	0.1	7615.7
240	0.	3.6	0.1	7574.9
241	0.	4.8	0.1	7585.4
242	24.	0.	0.1	13.214
243	22.898	0.	0.1	212.95
244	21.796	0.	0.1	453.31
245	20.694	0.	0.1	695.44
246	19.593	0.	0.1	942.98
247	18.491	0.	0.1	1196.8
248	17.389	0.	0.1	1456.8
249	16.287	0.	0.1	1724.1
250	15.185	0.	0.1	1998.
251	14.083	0.	0.1	2280.6
252	12.981	0.	0.1	2570.9
253	11.88	0.	0.1	2871.
254	10.778	0.	0.1	3168.3
255	9.6759	0.	0.1	3478.7
256	8.5741	0.	0.1	3697.7
257	7.4722	0.	0.1	4129.5
258	6.3704	0.	0.1	4349.9
259	5.2685	0.	0.1	3136.7
260	4.1667	0.	0.1	727.49
261	4.	0.	0.1	299.73
262	3.	0.	0.1	3620.2
263	2.	0.	0.1	5588.1
264	1.	0.	0.1	6185.1
265	0.	0.	0.1	2410.7
266	0.	6.	0.1	2527.7
267	1.	6.	0.1	6257.7
268	2.	6.	0.1	5689.9
269	3.	6.	0.1	3753.4
270	4.	6.	0.1	284.43
271	3.	6.	0.	106.53
272	2.	6.	0.	493.54
273	1.	6.	0.	361.86
274	4.	6.	0.	548.26
275	0.	6.	0.	-788.31
276	1.	0.	0.	402.84
277	2.	0.	0.	199.44
278	3.	0.	0.	211.48
279	4.	0.	0.	56.135
280	0.	0.	0.	-798.91
281	5.2685	0.	0.	18.542
282	6.3704	0.	0.	198.9
283	7.4722	0.	0.	-120.98
284	8.5741	0.	0.	173.09
285	9.6759	0.	0.	-8.481
286	10.778	0.	0.	26.8
287	11.88	0.	0.	4.3643
288	12.981	0.	0.	8.1797
289	14.083	0.	0.	8.5479
290	15.185	0.	0.	10.146
291	16.287	0.	0.	10.988
292	17.389	0.	0.	11.986
293	18.491	0.	0.	13.216
294	19.593	0.	0.	14.581
295	20.694	0.	0.	15.653
296	21.796	0.	0.	15.109
297	22.898	0.	0.	14.568
298	4.1667	0.	0.	186.37
299	24.	0.	0.	22.241
300	0.	4.8	0.	-3706.4
301	0.	3.6	0.	-3719.
302	0.	2.4	0.	-3678.3
303	0.	1.2	0.	-3715.9
304	24.	1.2	0.	144.44
305	24.	2.4	0.	184.25
306	24.	3.6	0.	184.34
307	24.	4.8	0.	144.53
308	24.	6.	0.	21.757
309	22.898	6.	0.	14.511
310	21.796	6.	0.	14.081
311	20.694	6.	0.	14.832
312	19.593	6.	0.	14.4
313	18.491	6.	0.	12.759
314	17.389	6.	0.	11.75
315	16.287	6.	0.	11.247
316	15.185	6.	0.	11.685
317	14.083	6.	0.	10.209
318	12.981	6.	0.	9.7368
319	11.88	6.	0.	7.2152
320	10.778	6.	0.	16.897
321	9.6759	6.	0.	-8.4089
322	8.5741	6.	0.	138.59
323	7.4722	6.	0.	-151.27
324	6.3704	6.	0.	162.73
325	5.2685	6.	0.	44.654
326	4.1667	6.	0.	196.55
327	4.	1.5	0.	3952.7
328	4.	1.	0.	2136.1
329	4.	0.5	0.	1022.9
330	4.	2.	0.	-1355.6
331	4.1667	0.5	0.	571.69
332	4.1667	1.	0.	1786.
333	4.1667	1.5	0.	4249.8
334	4.1667	2.	0.	2414.1
335	4.	4.5	0.	6834.4
336	4.	5.	0.	1097.
337	4.	5.5	0.	952.81
338	4.	4.	0.	-238.14
339	4.1667	5.5	0.	315.48
340	4.1667	5.	0.	2603.5
341	4.1667	4.5	0.	3541.6
342	4.1667	4.	0.	2521.
343	5.6714	1.9441	0.	-84.608
344	6.3299	2.3166	0.	-51.058
345	5.4655	2.4812	0.	-75.212
346	5.2105	2.3393	0.	403.65
347	5.7063	2.198	5.e-002	211.63
348	4.6114	3.4358	0.	1081.3
349	5.4593	3.5834	0.	357.13
350	5.0396	3.3532	0.	182.14
351	4.9311	3.5155	5.e-002	226.98
352	4.5489	3.7577	0.	774.39
353	5.4023	1.4649	0.	-38.94
354	6.2936	1.446	0.	51.924
355	5.6365	1.6903	5.e-002	150.18
356	4.9016	1.8451	0.	624.17
357	3.9657	2.8596	0.	1428.9
358	4.4201	2.5622	0.	1587.6
359	4.3515	2.8233	0.	1571.3
360	4.1256	2.6436	5.e-002	398.78
361	4.0628	2.3218	0.	143.14
362	3.5932	2.8686	0.	302.97
363	3.7134	3.3142	0.	66.86
364	4.0488	3.2158	0.	939.2
365	3.8057	3.0755	5.e-002	177.46
366	5.4411	4.4792	0.	8.5633
367	6.3013	4.5055	0.	71.674
368	5.8241	3.944	0.	2.4684
369	5.6608	4.2367	5.e-002	158.05
370	4.9137	4.1184	0.	783.92
371	2.596	2.823	0.	-235.65
372	2.976	1.9728	0.	1.9473
373	3.2226	2.4849	0.	76.263
374	3.0645	2.308	5.e-002	114.34
375	3.5323	1.904	0.	814.42
376	2.4092	0.90995	0.	-48.888
377	2.8928	1.2238	0.	120.37
378	2.898	0.80999	5.e-002	69.181
379	2.949	0.40499	0.	215.39
380	3.449	0.65499	0.	196.63
381	5.5569	0.59273	0.	142.99
382	4.945	0.69465	0.	336.45
383	5.0593	0.48483	5.e-002	60.771
384	5.1639	0.24241	0.	150.42
385	4.613	0.49241	0.	111.61
386	3.5135	4.3711	0.	1243.2
387	3.5804	3.8288	0.	418.31
388	3.2228	3.9198	0.	111.68
389	3.5398	4.1047	5.e-002	247.7
390	3.7699	4.3023	0.	3013.3
391	2.4449	4.8343	0.	-6.0992
392	3.2012	4.7788	0.	1018.3
393	2.9105	4.3275	0.	234.9
394	2.9152	4.9202	5.e-002	148.49
395	2.9576	5.4601	0.	32.667
396	3.4576	5.2101	0.	193.73
397	5.0048	4.9015	0.	298.88
398	4.9039	5.2788	0.	373.
399	4.7883	5.0812	5.e-002	189.74
400	4.4775	5.0406	0.	1183.8
401	6.4883	2.7188	0.	-31.883
402	5.624	2.8834	0.	-47.021
403	6.0054	3.3269	0.	-8.0064
404	5.5857	3.0967	0.	-72.021
405	6.0233	3.0024	5.e-002	123.4
406	2.051	4.0432	0.	-226.82
407	1.4987	4.7424	0.	434.09
408	1.9746	4.7484	5.e-002	9.1838
409	1.9873	5.3742	0.	-82.335
410	5.6113	0.97009	0.	48.035
411	4.9995	1.072	0.	294.11
412	5.1681	1.2395	5.e-002	252.48
413	4.6674	1.3698	0.	1553.2
414	5.6096	4.997	0.	-21.12
415	5.2213	4.7218	5.e-002	238.85
416	4.694	4.6109	0.	1316.7
417	2.0416	2.7176	0.	-327.58
418	1.4756	2.2101	0.	356.61
419	1.938	1.5535	0.	-250.5
420	2.4217	1.8674	0.	-92.13
421	1.9558	2.0972	5.e-002	67.099
422	6.5026	0.95113	0.	102.21
423	6.0545	0.70064	5.e-002	93.997
424	6.2124	0.35032	0.	90.178
425	5.5087	5.3743	0.	79.94
426	5.0195	5.4764	5.e-002	93.4
427	5.144	5.7382	0.	139.74
428	4.5931	5.4882	0.	105.14
429	1.5933	3.4256	0.	321.16
430	2.5166	3.5365	0.	-14.082
431	2.1274	3.338	5.e-002	27.415
432	1.0273	2.9181	0.	1005.4
433	0.98449	1.7282	0.	1003.8
434	0.99548	2.323	5.e-002	9.6452
435	0.49774	2.3615	0.	-1379.
436	1.041	4.1248	0.	982.08
437	1.0591	3.5132	5.e-002	8.1266
438	0.52957	3.5566	0.	-1363.7
439	1.4469	1.0716	0.	394.79
440	1.9203	1.0099	5.e-002	30.07
441	1.9602	0.50496	0.	-207.94
442	7.6236	1.2091	0.	74.551
443	6.952	1.8185	0.	84.083
444	6.9507	1.2016	5.e-002	40.173
445	7.2115	0.60082	0.	29.646
446	1.0228	4.7364	5.e-002	10.499
447	1.0114	5.3682	0.	653.01
448	0.51139	4.7682	0.	-1392.2
449	8.903	1.2142	0.	-25.874
450	8.2553	1.8018	0.	-1.3826
451	8.2965	1.2167	5.e-002	11.73
452	8.4353	0.60833	0.	13.281
453	10.092	1.2069	0.	-8.6819
454	9.47	1.8052	0.	-0.45153
455	9.5096	1.2117	5.e-002	3.6528
456	9.5927	0.60584	0.	-13.434
457	11.245	1.1964	0.	1.1114
458	10.647	1.7939	0.	0.71847
459	10.675	1.2021	5.e-002	3.478
460	10.726	0.60103	0.	2.4301
461	12.38	1.1823	0.	1.7663
462	11.801	1.777	0.	0.67028
463	11.815	1.1908	5.e-002	2.49
464	11.847	0.59538	0.	-0.27528
465	13.505	1.1723	0.	3.0229
466	12.94	1.7633	0.	0.82035
467	12.944	1.1738	5.e-002	2.0071
468	12.963	0.58692	0.	3.5484
469	14.615	1.1698	0.	8.3754
470	14.063	1.7591	0.	3.0504
471	14.066	1.1707	5.e-002	1.6452
472	14.075	0.58536	0.	7.0206
473	15.718	1.1691	0.	12.904
474	15.163	1.7578	0.	9.0149
475	15.164	1.1689	5.e-002	1.4449
476	15.175	0.58446	0.	10.405
477	16.82	1.1704	0.	17.008
478	16.269	1.7587	0.	13.621
479	16.271	1.1693	5.e-002	1.2637
480	16.279	0.58466	0.	12.796
481	17.919	1.1738	0.	21.65
482	17.367	1.7621	0.	18.771
483	17.368	1.1714	5.e-002	1.2043
484	17.378	0.5857	0.	15.388
485	19.018	1.1795	0.	27.768
486	18.468	1.7677	0.	25.025
487	18.469	1.1761	5.e-002	1.2079
488	18.48	0.58807	0.	18.468
489	20.118	1.1853	0.	36.598
490	19.567	1.7751	0.	34.171
491	19.567	1.1828	5.e-002	1.3286
492	19.58	0.59141	0.	22.662
493	21.224	1.1877	0.	49.719
494	20.669	1.7816	0.	47.974
495	20.669	1.1877	5.e-002	1.3991
496	20.682	0.59385	0.	28.244
497	22.334	1.1912	0.	71.427
498	21.775	1.7866	0.	69.44
499	21.778	1.1876	5.e-002	1.6313
500	21.787	0.5938	0.	35.456
501	22.883	1.7936	0.	104.63
502	22.89	1.1947	5.e-002	2.3729
503	22.894	0.59737	0.	48.315
504	23.445	1.1974	0.	114.56
505	22.878	2.9972	0.	124.92
506	22.324	2.389	0.	103.99
507	22.876	2.3925	5.e-002	2.4398
508	23.438	2.3963	0.	154.64
509	22.883	4.1991	0.	105.1
510	22.324	3.5958	0.	104.54
511	22.879	3.602	5.e-002	2.4431
512	23.44	3.601	0.	154.84
513	22.331	4.794	0.	72.121
514	22.886	4.7963	5.e-002	2.382
515	23.443	4.7981	0.	115.02
516	22.892	5.3981	0.	48.579
517	21.219	4.7905	0.	50.739
518	21.772	4.1906	0.	70.196
519	21.775	4.7917	5.e-002	1.6405
520	21.786	5.3959	0.	35.291
521	20.11	4.7619	0.	38.575
522	20.665	4.1832	0.	48.713
523	20.662	4.7893	5.e-002	1.2336
524	20.678	5.3947	0.	28.383
525	19.007	4.7128	0.	29.904
526	19.563	4.1436	0.	35.203
527	19.558	4.7344	5.e-002	1.5856
528	19.575	5.3672	0.	23.793
529	17.909	4.6805	0.	22.743
530	18.458	4.1087	0.	25.893
531	18.457	4.6912	5.e-002	1.835
532	18.474	5.3456	0.	18.888
533	16.813	4.6662	0.	17.215
534	17.362	4.0911	0.	19.116
535	17.361	4.6698	5.e-002	1.8743
536	17.375	5.3349	0.	15.35
537	15.717	4.6626	0.	12.478
538	16.264	4.0835	0.	13.778
539	16.265	4.6625	5.e-002	1.8878
540	16.276	5.3313	0.	12.655
541	14.619	4.6634	0.	7.0736
542	15.166	4.0824	0.	8.2689
543	15.169	4.6626	5.e-002	1.9966
544	15.177	5.3313	0.	10.645
545	13.515	4.6886	0.	0.38869
546	14.059	4.0878	0.	2.1731
547	14.069	4.6642	5.e-002	2.2565
548	14.076	5.3321	0.	6.8122
549	12.397	4.7352	0.	0.42446
550	12.942	4.1221	0.	-0.14366
551	12.961	4.7131	5.e-002	1.9967
552	12.971	5.3565	0.	2.5162
553	11.26	4.7636	0.	1.0134
554	11.81	4.1539	0.	5.5514e-003
555	11.832	4.7573	5.e-002	1.6953
556	11.856	5.3787	0.	-0.39139
557	10.1	4.7724	0.	-1.8833
558	10.654	4.1717	0.	1.7939
559	10.687	4.7698	5.e-002	1.702
560	10.732	5.3849	0.	1.6033
561	8.8995	4.7754	0.	-24.006
562	9.4662	4.1774	0.	-7.7684
563	9.5132	4.775	5.e-002	1.1345
564	9.5945	5.3875	0.	-7.3406
565	7.6137	4.775	0.	57.955
566	8.2652	4.1848	0.	-9.8274
567	8.2858	4.7757	5.e-002	5.4258
568	8.4299	5.3879	0.	8.8381
569	6.4698	5.0232	0.	33.175
570	7.0365	4.2013	0.	36.301
571	6.9417	4.7743	5.e-002	43.275
572	7.207	5.3871	0.	3.7765
573	5.9979	5.2722	5.e-002	111.32
574	6.1842	5.6361	0.	46.435
575	7.0423	3.0318	0.	-78.622
576	7.5838	2.4112	0.	-2.3286
577	6.9534	2.4353	5.e-002	92.991
578	7.688	3.6111	0.	-37.134
579	6.5593	3.6399	0.	-13.478
580	7.1312	3.6284	5.e-002	48.01
581	8.8223	2.3928	0.	23.933
582	8.2294	2.9904	0.	27.421
583	8.2141	2.387	5.e-002	8.4036
584	10.025	2.3922	0.	8.9131
585	9.4249	2.9892	0.	2.7741
586	9.4305	2.3986	5.e-002	6.7961
587	11.203	2.3745	0.	0.37103
588	10.62	2.9797	0.	1.8147
589	10.619	2.3858	5.e-002	4.9722
590	12.362	2.3579	0.	-0.1759
591	11.788	2.9568	0.	-1.0025
592	11.788	2.3631	5.e-002	2.708
593	13.498	2.3501	0.	0.34874
594	12.93	2.9419	0.	4.9441e-002
595	12.937	2.3527	5.e-002	1.7693
596	14.611	2.3472	0.	4.696
597	14.054	2.9295	0.	0.5733
598	14.06	2.3476	5.e-002	1.6372
599	15.714	2.3474	0.	10.995
600	15.162	2.9244	0.	7.2277
601	15.161	2.3467	5.e-002	1.6202
602	16.816	2.3504	0.	16.804
603	16.265	2.9262	0.	13.245
604	16.267	2.348	5.e-002	1.3464
605	17.917	2.356	0.	23.692
606	17.364	2.9326	0.	19.208
607	17.366	2.3528	5.e-002	1.2691
608	19.017	2.3633	0.	33.091
609	18.463	2.9427	0.	26.748
610	18.467	2.3592	5.e-002	1.2933
611	20.117	2.3714	0.	47.289
612	19.567	2.96	0.	37.589
613	19.567	2.3673	5.e-002	1.4684
614	21.22	2.3805	0.	69.4
615	20.668	2.9762	0.	55.218
616	20.668	2.3754	5.e-002	1.5779
617	21.77	2.9876	0.	82.755
618	21.771	2.3856	5.e-002	2.0869
619	21.218	3.5833	0.	69.872
620	21.769	3.5896	5.e-002	1.9331
621	20.118	3.5649	0.	47.005
622	20.667	3.577	5.e-002	1.4567
623	19.014	3.5395	0.	32.718
624	19.568	3.5528	5.e-002	1.3042
625	17.911	3.5193	0.	23.643
626	18.46	3.5261	5.e-002	1.3742
627	16.812	3.5084	0.	16.925
628	17.363	3.5124	5.e-002	1.3467
629	15.713	3.5033	0.	10.69
630	16.262	3.5044	5.e-002	1.3367
631	14.606	3.5068	0.	4.3503
632	15.163	3.5022	5.e-002	1.4607
633	13.486	3.5213	0.	-3.7035e-003
634	14.049	3.5114	5.e-002	1.4889
635	12.356	3.5408	0.	-0.56645
636	12.923	3.5311	5.e-002	1.6306
637	11.205	3.562	0.	0.78894
638	11.788	3.5504	5.e-002	2.0579
639	10.02	3.5766	0.	-4.0929
640	10.621	3.5736	5.e-002	3.8637
641	8.832	3.5868	0.	6.3625
642	9.4193	3.5797	5.e-002	4.8082
643	8.2447	3.5938	5.e-002	12.921
644	2.8875	1.6377	5.e-002	63.325
645	3.4438	1.3188	0.	450.35
646	3.1433	3.1983	0.	215.47
647	3.3807	2.6617	5.e-002	231.53
648	3.6903	2.3309	0.	-655.8
649	0.9735	1.1334	5.e-002	15.066
650	0.98675	0.56669	0.	702.48
651	0.48675	1.1667	0.	-1358.1
652	3.4873	4.6375	5.e-002	133.65
653	3.7436	4.8187	0.	1118.3
654	3.2634	3.6439	0.	232.76
655	3.621	3.5529	5.e-002	444.32
656	3.8105	3.7764	0.	-129.61
657	4.8308	0.90447	5.e-002	146.69
658	4.4988	0.95223	0.	882.12
659	5.1864	2.9777	0.	-93.118
660	5.0547	2.7406	0.	-30.459
661	5.2247	2.7644	5.e-002	47.832
662	4.7997	2.5988	0.	276.32
663	4.7146	2.4807	5.e-002	418.96
664	4.4406	2.2404	0.	1069.2
665	4.4346	3.1795	0.	1124.8
666	4.2918	3.3561	5.e-002	400.74
667	4.1459	3.678	0.	210.09
668	5.9874	3.6513	5.e-002	153.52
669	2.9058	3.7349	5.e-002	243.02
670	4.8627	3.097	0.	321.97
671	5.1481	3.191	5.e-002	443.24
672	4.7311	2.8599	0.	363.54
673	4.8847	2.7169	5.e-002	294.82
674	4.5774	3.0029	5.e-002	27.679
675	4.7311	2.8599	0.1	7986.3
676	4.8627	3.097	0.1	7951.
677	4.4346	3.1795	0.1	9188.8
678	4.3515	2.8233	0.1	9298.2
679	4.7997	2.5988	0.1	7066.2
680	5.0547	2.7406	0.1	7617.5
681	5.1864	2.9777	0.1	7589.2
682	5.5857	3.0967	0.1	6315.6
683	5.0396	3.3532	0.1	6909.4
684	3.2634	3.6439	0.1	8425.2
685	3.1433	3.1983	0.1	7113.2
686	2.5166	3.5365	0.1	6724.4
687	2.9105	4.3275	0.1	5905.6
688	3.2228	3.9198	0.1	7855.2
689	6.5593	3.6399	0.1	4620.2
690	6.0054	3.3269	0.1	4995.7
691	5.8241	3.944	0.1	4825.8
692	5.4593	3.5834	0.1	5589.3
693	4.0488	3.2158	0.1	10571
694	4.6114	3.4358	0.1	8179.2
695	4.1459	3.678	0.1	16524
696	4.4201	2.5622	0.1	8423.2
697	5.2105	2.3393	0.1	5990.2
698	4.4406	2.2404	0.1	10894
699	5.624	2.8834	0.1	6399.1
700	5.4655	2.4812	0.1	6507.9
701	4.9995	1.072	0.1	4536.7
702	4.945	0.69465	0.1	3355.2
703	4.4988	0.95223	0.1	2748.5
704	3.5804	3.8288	0.1	9296.1
705	3.7134	3.3142	0.1	10440
706	3.8105	3.7764	0.1	16759
707	3.2012	4.7788	0.1	4914.1
708	3.5135	4.3711	0.1	6951.6
709	3.7436	4.8187	0.1	3621.6
710	1.4469	1.0716	0.1	5725.9
711	0.98449	1.7282	0.1	6141.7
712	0.48675	1.1667	0.1	6641.7
713	0.98675	0.56669	0.1	5972.9
714	3.2226	2.4849	0.1	7730.
715	3.5932	2.8686	0.1	9250.2
716	3.6903	2.3309	0.1	15325
717	2.4217	1.8674	0.1	6151.
718	2.8928	1.2238	0.1	5454.7
719	2.976	1.9728	0.1	7128.1
720	3.4438	1.3188	0.1	4585.1
721	8.832	3.5868	0.1	3734.3
722	8.2294	2.9904	0.1	3918.1
723	7.688	3.6111	0.1	4154.1
724	8.2652	4.1848	0.1	3920.5
725	10.02	3.5766	0.1	3367.
726	9.4249	2.9892	0.1	3527.
727	9.4662	4.1774	0.1	3521.4
728	11.205	3.562	0.1	3034.6
729	10.62	2.9797	0.1	3194.3
730	10.654	4.1717	0.1	3188.2
731	12.356	3.5408	0.1	2722.9
732	11.788	2.9568	0.1	2873.9
733	11.81	4.1539	0.1	2870.7
734	13.486	3.5213	0.1	2425.8
735	12.93	2.9419	0.1	2570.3
736	12.942	4.1221	0.1	2569.5
737	14.606	3.5068	0.1	2137.8
738	14.054	2.9295	0.1	2277.6
739	14.059	4.0878	0.1	2278.3
740	15.713	3.5033	0.1	1860.1
741	15.162	2.9244	0.1	1996.2
742	15.166	4.0824	0.1	1997.
743	16.812	3.5084	0.1	1591.3
744	16.265	2.9262	0.1	1723.
745	16.264	4.0835	0.1	1724.8
746	17.911	3.5193	0.1	1329.9
747	17.364	2.9326	0.1	1457.6
748	17.362	4.0911	0.1	1459.6
749	19.014	3.5395	0.1	1074.8
750	18.463	2.9427	0.1	1199.6
751	18.458	4.1087	0.1	1202.
752	20.118	3.5649	0.1	827.15
753	19.567	2.96	0.1	948.02
754	19.563	4.1436	0.1	949.67
755	21.218	3.5833	0.1	587.97
756	20.668	2.9762	0.1	705.08
757	20.665	4.1832	0.1	705.18
758	21.77	2.9876	0.1	469.14
759	21.772	4.1906	0.1	466.54
760	22.324	3.5958	0.1	353.78
761	21.22	2.3805	0.1	587.55
762	22.324	2.389	0.1	353.87
763	21.775	1.7866	0.1	465.97
764	20.117	2.3714	0.1	827.43
765	20.669	1.7816	0.1	704.47
766	19.017	2.3633	0.1	1074.3
767	19.567	1.7751	0.1	949.03
768	17.917	2.356	0.1	1328.7
769	18.468	1.7677	0.1	1200.
770	16.816	2.3504	0.1	1590.5
771	17.367	1.7621	0.1	1458.9
772	15.714	2.3474	0.1	1860.1
773	16.269	1.7587	0.1	1724.
774	14.611	2.3472	0.1	2137.
775	15.163	1.7578	0.1	1998.4
776	13.498	2.3501	0.1	2423.
777	14.063	1.7591	0.1	2277.9
778	12.362	2.3579	0.1	2722.
779	12.94	1.7633	0.1	2570.
780	11.203	2.3745	0.1	3034.
781	11.801	1.777	0.1	2873.2
782	10.025	2.3922	0.1	3354.4
783	10.647	1.7939	0.1	3190.3
784	8.8223	2.3928	0.1	3710.9
785	9.47	1.8052	0.1	3522.5
786	7.5838	2.4112	0.1	4135.5
787	8.2553	1.8018	0.1	3915.9
788	7.0423	3.0318	0.1	4370.9
789	7.0365	4.2013	0.1	4175.8
790	6.952	1.8185	0.1	4144.7
791	6.4883	2.7188	0.1	4746.9
792	6.3299	2.3166	0.1	4835.9
793	6.4698	5.0232	0.1	4152.2
794	5.5087	5.3743	0.1	3745.6
795	5.6096	4.997	0.1	4942.
796	6.1842	5.6361	0.1	4266.1
797	7.6137	4.775	0.1	3942.
798	6.3013	4.5055	0.1	4383.
799	7.207	5.3871	0.1	3999.2
800	8.8995	4.7754	0.1	3707.9
801	8.4299	5.3879	0.1	3804.2
802	10.1	4.7724	0.1	3343.3
803	9.5945	5.3875	0.1	3493.1
804	11.26	4.7636	0.1	3025.
805	10.732	5.3849	0.1	3173.7
806	12.397	4.7352	0.1	2718.1
807	11.856	5.3787	0.1	2867.2
808	13.515	4.6886	0.1	2423.
809	12.971	5.3565	0.1	2567.4
810	14.619	4.6634	0.1	2138.6
811	14.076	5.3321	0.1	2278.4
812	15.717	4.6626	0.1	1862.8
813	15.177	5.3313	0.1	1998.2
814	16.813	4.6662	0.1	1594.4
815	16.276	5.3313	0.1	1725.5
816	17.909	4.6805	0.1	1333.1
817	17.375	5.3349	0.1	1459.8
818	19.007	4.7128	0.1	1078.4
819	18.474	5.3456	0.1	1201.1
820	20.11	4.7619	0.1	829.36
821	19.575	5.3672	0.1	948.25
822	21.219	4.7905	0.1	585.45
823	20.678	5.3947	0.1	701.2
824	22.331	4.794	0.1	348.33
825	21.786	5.3959	0.1	458.39
826	22.883	4.1991	0.1	234.21
827	22.892	5.3981	0.1	220.9
828	23.443	4.7981	0.1	116.38
829	22.878	2.9972	0.1	237.66
830	23.44	3.601	0.1	118.79
831	22.883	1.7936	0.1	234.21
832	23.438	2.3963	0.1	119.04
833	22.334	1.1912	0.1	347.64
834	23.445	1.1974	0.1	115.85
835	22.894	0.59737	0.1	220.54
836	21.224	1.1877	0.1	584.58
837	21.787	0.5938	0.1	457.96
838	20.118	1.1853	0.1	827.81
839	20.682	0.59385	0.1	699.76
840	19.018	1.1795	0.1	1076.4
841	19.58	0.59141	0.1	946.52
842	17.919	1.1738	0.1	1331.8
843	18.48	0.58807	0.1	1199.3
844	16.82	1.1704	0.1	1593.9
845	17.378	0.5857	0.1	1458.9
846	15.718	1.1691	0.1	1863.6
847	16.279	0.58466	0.1	1725.
848	14.615	1.1698	0.1	2140.5
849	15.175	0.58446	0.1	1999.3
850	13.505	1.1723	0.1	2425.9
851	14.075	0.58536	0.1	2280.2
852	12.38	1.1823	0.1	2722.
853	12.963	0.58692	0.1	2571.2
854	11.245	1.1964	0.1	3030.1
855	11.847	0.59538	0.1	2871.5
856	10.092	1.2069	0.1	3358.8
857	10.726	0.60103	0.1	3177.9
858	8.903	1.2142	0.1	3727.9
859	9.5927	0.60584	0.1	3503.9
860	7.6236	1.2091	0.1	3925.6
861	8.4353	0.60833	0.1	3811.9
862	1.041	4.1248	0.1	6214.5
863	1.4987	4.7424	0.1	5702.6
864	0.51139	4.7682	0.1	6728.5
865	1.0114	5.3682	0.1	6072.1
866	6.5026	0.95113	0.1	4019.3
867	6.2936	1.446	0.1	4392.9
868	7.2115	0.60082	0.1	4023.
869	1.938	1.5535	0.1	5908.9
870	2.4092	0.90995	0.1	5194.
871	1.9602	0.50496	0.1	5638.6
872	1.0273	2.9181	0.1	6543.8
873	1.5933	3.4256	0.1	6506.1
874	0.52957	3.5566	0.1	7061.7
875	1.4756	2.2101	0.1	6333.1
876	0.49774	2.3615	0.1	7076.7
877	2.0416	2.7176	0.1	6273.
878	2.051	4.0432	0.1	5981.5
879	2.596	2.823	0.1	7246.
880	4.9039	5.2788	0.1	3288.3
881	4.5931	5.4882	0.1	1923.3
882	5.144	5.7382	0.1	3162.9
883	5.6113	0.97009	0.1	4967.3
884	5.5569	0.59273	0.1	3794.8
885	6.2124	0.35032	0.1	4203.9
886	5.0048	4.9015	0.1	4471.9
887	5.4411	4.4792	0.1	5118.5
888	4.694	4.6109	0.1	3827.8
889	5.4023	1.4649	0.1	5286.3
890	4.6674	1.3698	0.1	3468.6
891	2.4449	4.8343	0.1	5168.
892	1.9873	5.3742	0.1	5601.7
893	4.4775	5.0406	0.1	2608.5
894	3.4576	5.2101	0.1	3622.7
895	2.9576	5.4601	0.1	4310.9
896	3.7699	4.3023	0.1	5563.3
897	4.613	0.49241	0.1	1893.4
898	5.1639	0.24241	0.1	3309.7
899	3.449	0.65499	0.1	2864.4
900	2.949	0.40499	0.1	4161.4
901	3.5323	1.904	0.1	6758.5
902	4.9137	4.1184	0.1	9077.4
903	3.9657	2.8596	0.1	10673
904	4.0628	2.3218	0.1	16495
905	5.6714	1.9441	0.1	5079.9
906	4.9016	1.8451	0.1	9840.4
907	4.5489	3.7577	0.1	9857.6
908	4.1667	4.25	0.1	8276.7
909	4.0833	4.	0.1	17088
910	4.1667	4.	5.e-002	218.84
911	4.1667	4.75	0.1	2681.6
912	4.1667	4.5	5.e-002	178.07
913	4.1667	5.25	0.1	1785.1
914	4.1667	5.	5.e-002	647.14
915	4.1667	5.75	0.1	607.43
916	4.1667	5.5	5.e-002	228.88
917	4.	5.25	0.1	2880.
918	4.	5.75	0.1	1146.5
919	4.	5.5	5.e-002	225.25
920	4.	4.75	0.1	3166.1
921	4.	5.	5.e-002	424.55
922	4.	4.25	0.1	12151
923	4.	4.5	5.e-002	955.62
924	4.	4.	5.e-002	909.73
925	4.1667	1.75	0.1	8358.8
926	4.0833	2.	0.1	17655
927	4.1667	2.	5.e-002	438.82
928	4.1667	1.25	0.1	2454.3
929	4.1667	1.5	5.e-002	185.85
930	4.1667	0.75	0.1	1797.3
931	4.1667	1.	5.e-002	542.77
932	4.1667	0.25	0.1	500.42
933	4.1667	0.5	5.e-002	132.64
934	4.	0.75	0.1	2882.9
935	4.	0.25	0.1	910.87
936	4.	0.5	5.e-002	106.44
937	4.	1.25	0.1	5312.2
938	4.	1.	5.e-002	248.37
939	4.	1.75	0.1	14373
940	4.	1.5	5.e-002	421.22
941	4.	2.	5.e-002	512.36
942	4.7176	6.	0.1	1855.7
943	4.1667	6.	5.e-002	19.198
944	5.8194	6.	0.1	3675.1
945	5.2685	6.	5.e-002	49.063
946	6.9213	6.	0.1	4117.2
947	6.3704	6.	5.e-002	55.877
948	8.0231	6.	0.1	3860.7
949	7.4722	6.	5.e-002	61.294
950	9.125	6.	0.1	3589.2
951	8.5741	6.	5.e-002	7.1019
952	10.227	6.	0.1	3323.8
953	9.6759	6.	5.e-002	12.488
954	11.329	6.	0.1	3016.1
955	10.778	6.	5.e-002	16.369
956	12.431	6.	0.1	2716.9
957	11.88	6.	5.e-002	16.114
958	13.532	6.	0.1	2423.3
959	12.981	6.	5.e-002	15.394
960	14.634	6.	0.1	2138.5
961	14.083	6.	5.e-002	14.418
962	15.736	6.	0.1	1861.5
963	15.185	6.	5.e-002	14.585
964	16.838	6.	0.1	1591.6
965	16.287	6.	5.e-002	14.392
966	17.94	6.	0.1	1328.5
967	17.389	6.	5.e-002	13.774
968	19.042	6.	0.1	1071.6
969	18.491	6.	5.e-002	13.215
970	20.144	6.	0.1	820.87
971	19.593	6.	5.e-002	13.18
972	21.245	6.	0.1	575.27
973	20.694	6.	5.e-002	13.013
974	22.347	6.	0.1	332.89
975	21.796	6.	5.e-002	10.598
976	23.449	6.	0.1	108.76
977	22.898	6.	5.e-002	7.773
978	24.	5.4	0.1	4.0476
979	24.	6.	5.e-002	4.0196
980	24.	4.2	0.1	3.1948
981	24.	4.8	5.e-002	3.3493
982	24.	3.	0.1	2.5333
983	24.	3.6	5.e-002	2.9876
984	24.	1.8	0.1	3.0481
985	24.	2.4	5.e-002	2.9618
986	24.	0.6	0.1	4.1906
987	24.	1.2	5.e-002	3.3489
988	0.	1.8	0.1	7580.7
989	0.	0.6	0.1	4857.5
990	0.	1.2	5.e-002	113.33
991	0.	3.	0.1	7594.9
992	0.	2.4	5.e-002	131.84
993	0.	4.2	0.1	7579.4
994	0.	3.6	5.e-002	82.266
995	0.	5.4	0.1	4923.4
996	0.	4.8	5.e-002	146.88
997	23.449	0.	0.1	109.32
998	24.	0.	5.e-002	4.092
999	22.347	0.	0.1	332.78
1000	22.898	0.	5.e-002	7.8311
1001	21.245	0.	0.1	574.14
1002	21.796	0.	5.e-002	10.615
1003	20.144	0.	0.1	819.07
1004	20.694	0.	5.e-002	12.562
1005	19.042	0.	0.1	1069.8
1006	19.593	0.	5.e-002	13.648
1007	17.94	0.	0.1	1326.8
1008	18.491	0.	5.e-002	14.573
1009	16.838	0.	0.1	1590.4
1010	17.389	0.	5.e-002	15.281
1011	15.736	0.	0.1	1861.
1012	16.287	0.	5.e-002	15.81
1013	14.634	0.	0.1	2139.3
1014	15.185	0.	5.e-002	16.157
1015	13.532	0.	0.1	2425.7
1016	14.083	0.	5.e-002	16.403
1017	12.431	0.	0.1	2720.9
1018	12.981	0.	5.e-002	16.717
1019	11.329	0.	0.1	3019.7
1020	11.88	0.	5.e-002	16.973
1021	10.227	0.	0.1	3323.4
1022	10.778	0.	5.e-002	17.01
1023	9.125	0.	0.1	3587.6
1024	9.6759	0.	5.e-002	6.3123
1025	8.0231	0.	0.1	3908.7
1026	8.5741	0.	5.e-002	13.838
1027	6.9213	0.	0.1	4211.6
1028	7.4722	0.	5.e-002	77.075
1029	5.8194	0.	0.1	3697.2
1030	6.3704	0.	5.e-002	73.956
1031	4.7176	0.	0.1	1892.9
1032	5.2685	0.	5.e-002	48.436
1033	4.1667	0.	5.e-002	68.298
1034	3.5	0.	0.1	1855.4
1035	4.	0.	5.e-002	91.743
1036	2.5	0.	0.1	4603.8
1037	3.	0.	5.e-002	52.499
1038	1.5	0.	0.1	5885.9
1039	2.	0.	5.e-002	121.89
1040	0.5	0.	0.1	4221.3
1041	1.	0.	5.e-002	44.164
1042	0.	0.	5.e-002	379.8
1043	0.5	6.	0.1	4307.7
1044	0.	6.	5.e-002	430.61
1045	1.5	6.	0.1	5973.5
1046	1.	6.	5.e-002	70.048
1047	2.5	6.	0.1	4699.9
1048	2.	6.	5.e-002	87.175
1049	3.5	6.	0.1	1700.7
1050	3.	6.	5.e-002	80.336
1051	4.	6.	5.e-002	65.466
1052	2.5	6.	0.	278.19
1053	3.5	6.	0.	26.923
1054	1.5	6.	0.	203.72
1055	0.5	6.	0.	-343.86
1056	4.	5.75	0.	344.
1057	0.	5.4	0.	-2348.2
1058	1.5	0.	0.	160.73
1059	0.5	0.	0.	-307.75
1060	2.5	0.	0.	205.13
1061	3.5	0.	0.	65.204
1062	4.	0.25	0.	378.33
1063	0.	0.6	0.	-2347.
1064	5.8194	0.	0.	28.721
1065	4.7176	0.	0.	80.682
1066	6.9213	0.	0.	-53.785
1067	8.0231	0.	0.	-35.379
1068	9.125	0.	0.	80.711
1069	10.227	0.	0.	8.5564
1070	11.329	0.	0.	15.567
1071	12.431	0.	0.	6.1835
1072	13.532	0.	0.	8.3322
1073	14.634	0.	0.	9.3112
1074	15.736	0.	0.	10.527
1075	16.838	0.	0.	11.436
1076	17.94	0.	0.	12.534
1077	19.042	0.	0.	13.805
1078	20.144	0.	0.	14.972
1079	21.245	0.	0.	15.143
1080	22.347	0.	0.	14.49
1081	23.449	0.	0.	14.796
1082	4.1667	0.25	0.	107.04
1083	24.	0.6	0.	76.647
1084	0.	4.2	0.	-3735.5
1085	0.	3.	0.	-3699.
1086	0.	1.8	0.	-3698.7
1087	24.	1.8	0.	164.32
1088	24.	3.	0.	184.27
1089	24.	4.2	0.	164.39
1090	24.	5.4	0.	76.759
1091	23.449	6.	0.	14.556
1092	22.347	6.	0.	13.938
1093	21.245	6.	0.	14.254
1094	20.144	6.	0.	14.455
1095	19.042	6.	0.	13.492
1096	17.94	6.	0.	12.193
1097	16.838	6.	0.	11.449
1098	15.736	6.	0.	11.424
1099	14.634	6.	0.	10.906
1100	13.532	6.	0.	9.9412
1101	12.431	6.	0.	8.4362
1102	11.329	6.	0.	12.009
1103	10.227	6.	0.	2.6409
1104	9.125	6.	0.	62.201
1105	8.0231	6.	0.	-46.554
1106	6.9213	6.	0.	-58.128
1107	5.8194	6.	0.	25.482
1108	4.7176	6.	0.	63.644
1109	4.1667	5.75	0.	61.23
1110	4.	1.25	0.	3016.1
1111	4.	1.75	0.	197.93
1112	4.	0.75	0.	1544.1
1113	4.0833	2.	0.	-1277.5
1114	4.1667	0.75	0.	1129.1
1115	4.1667	1.25	0.	3001.5
1116	4.1667	1.75	0.	2850.3
1117	4.	4.75	0.	3782.6
1118	4.	4.25	0.	1623.6
1119	4.	5.25	0.	835.53
1120	4.0833	4.	0.	-560.57
1121	4.1667	5.25	0.	1374.9
1122	4.1667	4.75	0.	3005.4
1123	4.1667	4.25	0.	2765.
