Node Number	X Location (in)	Y Location (in)	Z Location (in)	Equivalent (von-Mises) Stress (psi)
1	4.5514	2.8697	0.	2253.8
2	5.406	3.4835	0.	1401.4
3	5.7067	1.7235	0.	1044.6
4	6.3659	4.2153	0.	981.31
5	3.5919	0.60653	0.	977.42
6	6.0318	0.59398	0.	658.68
7	3.0513	4.2677	0.	1103.4
8	5.7231	5.4754	0.	645.57
9	6.7036	3.5595	0.	991.15
10	3.5294	5.3813	0.	857.01
11	3.5118	1.6167	0.	1184.5
12	2.6266	0.91012	0.	1201.8
13	6.4366	2.081	0.	971.84
14	2.4884	5.2015	0.	1278.4
15	1.6889	1.5601	0.	1374.
16	7.1861	0.77553	0.	765.6
17	6.9466	1.5867	0.	882.58
18	9.2266	1.2068	0.	628.87
19	10.391	1.2077	0.	540.95
20	11.548	1.1939	0.	456.78
21	12.702	1.1794	0.	379.15
22	13.835	1.1761	0.	308.81
23	14.972	1.1758	0.	245.79
24	16.094	1.1769	0.	190.48
25	17.223	1.1791	0.	142.45
26	18.347	1.1825	0.	101.69
27	19.474	1.183	0.	68.246
28	20.607	1.1929	0.	42.119
29	21.733	1.1951	0.	23.432
30	22.869	1.1953	0.	12.325
31	1.4627	3.8472	0.	1464.4
32	1.5496	2.7522	0.	1432.7
33	22.86	2.3936	0.	15.675
34	22.86	3.6018	0.	15.687
35	22.865	4.8093	0.	12.325
36	21.732	4.7963	0.	23.526
37	20.597	4.7985	0.	42.252
38	19.469	4.7769	0.	68.486
39	18.341	4.7376	0.	101.94
40	17.215	4.7072	0.	142.76
41	16.092	4.6917	0.	190.76
42	14.966	4.6877	0.	245.85
43	13.838	4.7221	0.	308.56
44	12.703	4.7612	0.	378.65
45	11.553	4.7686	0.	456.9
46	10.365	4.7882	0.	540.9
47	9.102	4.7892	0.	646.94
48	7.623	4.7875	0.	742.48
49	6.7094	5.2654	0.	806.36
50	7.9061	3.5743	0.	733.04
51	7.8907	2.3231	0.	693.41
52	9.1402	2.4149	0.	635.72
53	10.332	2.405	0.	544.06
54	11.512	2.3808	0.	455.94
55	12.681	2.3532	0.	378.17
56	13.83	2.357	0.	308.19
57	14.967	2.3571	0.	245.77
58	16.092	2.3599	0.	190.64
59	17.22	2.3627	0.	142.88
60	18.345	2.3661	0.	102.34
61	19.471	2.3707	0.	69.263
62	20.596	2.3878	0.	43.643
63	21.72	2.399	0.	25.778
64	21.718	3.5962	0.	25.79
65	20.586	3.5867	0.	43.803
66	19.468	3.5735	0.	69.372
67	18.337	3.5478	0.	102.6
68	17.214	3.5363	0.	143.07
69	16.091	3.527	0.	190.81
70	14.963	3.5216	0.	245.79
71	13.833	3.5206	0.	307.92
72	12.679	3.5552	0.	377.92
73	11.521	3.5674	0.	455.9
74	10.328	3.5983	0.	541.59
75	9.0825	3.6614	0.	646.62
76	5.4931	5.0865	0.	671.51
77	5.9532	4.7192	0.	958.71
78	3.8806	1.0536	0.	816.82
79	3.1383	2.2047	0.	1278.5
80	1.2898	4.9025	0.	1394.9
81	3.7445	4.9192	0.	813.76
82	3.2048	3.233	0.	1173.6
83	5.1322	2.2225	0.	1875.8
84	5.9437	1.1869	0.	782.05
85	4.8101	3.1789	0.	1966.6
86	5.6499	2.5987	0.	1429.
87	5.976	2.9599	0.	1254.7
88	6.6785	2.8253	0.	1074.8
89	8.213	1.0796	0.	708.03
90	8.213	1.0796	0.1	708.03
91	6.6785	2.8253	0.1	1074.8
92	5.976	2.9599	0.1	1254.7
93	5.6499	2.5987	0.1	1429.
94	4.8101	3.1789	0.1	1966.6
95	5.9437	1.1869	0.1	782.05
96	5.1322	2.2225	0.1	1875.8
97	3.2048	3.233	0.1	1173.6
98	3.7445	4.9192	0.1	813.76
99	1.2898	4.9025	0.1	1394.9
100	3.1383	2.2047	0.1	1278.5
101	3.8806	1.0536	0.1	816.82
102	5.9532	4.7192	0.1	958.71
103	5.4931	5.0865	0.1	671.51
104	9.0825	3.6614	0.1	646.62
105	10.328	3.5983	0.1	541.59
106	11.521	3.5674	0.1	455.9
107	12.679	3.5552	0.1	377.92
108	13.833	3.5206	0.1	307.92
109	14.963	3.5216	0.1	245.79
110	16.091	3.527	0.1	190.81
111	17.214	3.5363	0.1	143.07
112	18.337	3.5478	0.1	102.6
113	19.468	3.5735	0.1	69.372
114	20.586	3.5867	0.1	43.803
115	21.718	3.5962	0.1	25.79
116	21.72	2.399	0.1	25.778
117	20.596	2.3878	0.1	43.643
118	19.471	2.3707	0.1	69.263
119	18.345	2.3661	0.1	102.34
120	17.22	2.3627	0.1	142.88
121	16.092	2.3599	0.1	190.64
122	14.967	2.3571	0.1	245.77
123	13.83	2.357	0.1	308.19
124	12.681	2.3532	0.1	378.17
125	11.512	2.3808	0.1	455.94
126	10.332	2.405	0.1	544.06
127	9.1402	2.4149	0.1	635.72
128	7.8907	2.3231	0.1	693.41
129	7.9061	3.5743	0.1	733.04
130	6.7094	5.2654	0.1	806.36
131	7.623	4.7875	0.1	742.48
132	9.102	4.7892	0.1	646.94
133	10.365	4.7882	0.1	540.9
134	11.553	4.7686	0.1	456.9
135	12.703	4.7612	0.1	378.65
136	13.838	4.7221	0.1	308.56
137	14.966	4.6877	0.1	245.85
138	16.092	4.6917	0.1	190.76
139	17.215	4.7072	0.1	142.76
140	18.341	4.7376	0.1	101.94
141	19.469	4.7769	0.1	68.486
142	20.597	4.7985	0.1	42.252
143	21.732	4.7963	0.1	23.526
144	22.865	4.8093	0.1	12.325
145	22.86	3.6018	0.1	15.687
146	22.86	2.3936	0.1	15.675
147	1.5496	2.7522	0.1	1432.7
148	1.4627	3.8472	0.1	1464.4
149	22.869	1.1953	0.1	12.325
150	21.733	1.1951	0.1	23.432
151	20.607	1.1929	0.1	42.119
152	19.474	1.183	0.1	68.246
153	18.347	1.1825	0.1	101.69
154	17.223	1.1791	0.1	142.45
155	16.094	1.1769	0.1	190.48
156	14.972	1.1758	0.1	245.79
157	13.835	1.1761	0.1	308.81
158	12.702	1.1794	0.1	379.15
159	11.548	1.1939	0.1	456.78
160	10.391	1.2077	0.1	540.95
161	9.2266	1.2068	0.1	628.87
162	6.9466	1.5867	0.1	882.58
163	7.1861	0.77553	0.1	765.6
164	1.6889	1.5601	0.1	1374.
165	2.4884	5.2015	0.1	1278.4
166	6.4366	2.081	0.1	971.84
167	2.6266	0.91012	0.1	1201.8
168	3.5118	1.6167	0.1	1184.5
169	3.5294	5.3813	0.1	857.01
170	6.7036	3.5595	0.1	991.15
171	5.7231	5.4754	0.1	645.57
172	3.0513	4.2677	0.1	1103.4
173	6.0318	0.59398	0.1	658.68
174	3.5919	0.60653	0.1	977.42
175	6.3659	4.2153	0.1	981.31
176	5.7067	1.7235	0.1	1044.6
177	5.406	3.4835	0.1	1401.4
178	4.5514	2.8697	0.1	2253.8
179	4.8467	4.	0.	2720.
180	4.8467	4.5	0.	1325.5
181	4.8467	5.	0.	1223.6
182	4.8467	5.5	0.	355.9
183	4.68	4.	0.	3831.4
184	4.68	5.5	0.	620.53
185	4.68	5.	0.	1577.7
186	4.68	4.5	0.	1529.1
187	4.8467	2.	0.	4897.3
188	4.8467	1.5	0.	1682.3
189	4.8467	1.	0.	890.7
190	4.8467	0.5	0.	492.93
191	4.68	2.	0.	2815.4
192	4.68	0.5	0.	551.89
193	4.68	1.	0.	1403.2
194	4.68	1.5	0.	1839.5
195	4.8467	6.	0.	351.74
196	5.9733	6.	0.	589.27
197	7.1	6.	0.	753.73
198	8.2267	6.	0.	716.28
199	9.3533	6.	0.	626.45
200	10.48	6.	0.	548.56
201	11.607	6.	0.	458.81
202	12.733	6.	0.	380.25
203	13.86	6.	0.	309.12
204	14.987	6.	0.	246.27
205	16.113	6.	0.	190.75
206	17.24	6.	0.	142.45
207	18.367	6.	0.	101.58
208	19.493	6.	0.	68.078
209	20.62	6.	0.	41.654
210	21.747	6.	0.	22.254
211	22.873	6.	0.	10.276
212	24.	6.	0.	4.6014
213	24.	4.8	0.	8.295
214	24.	3.6	0.	12.37
215	24.	2.4	0.	12.379
216	24.	1.2	0.	8.2834
217	1.049e-014	1.2	0.	1016.1
218	2.0981e-014	2.4	0.	1035.
219	3.1471e-014	3.6	0.	1009.1
220	4.1961e-014	4.8	0.	948.93
221	24.	0.	0.	4.6133
222	4.8467	0.	0.	338.18
223	22.873	0.	0.	10.248
224	21.747	0.	0.	22.375
225	20.62	0.	0.	41.433
226	19.493	0.	0.	67.835
227	18.367	0.	0.	101.32
228	17.24	0.	0.	142.23
229	16.113	0.	0.	190.52
230	14.987	0.	0.	246.26
231	13.86	0.	0.	309.25
232	12.733	0.	0.	380.16
233	11.607	0.	0.	458.21
234	10.48	0.	0.	542.5
235	9.3533	0.	0.	624.77
236	8.2267	0.	0.	702.55
237	7.1	0.	0.	747.27
238	5.9733	0.	0.	565.6
239	0.	0.	0.	772.9
240	4.68	0.	0.	492.77
241	3.51	-1.6378e-030	0.	842.95
242	2.34	-1.0919e-030	0.	1300.
243	1.17	-5.4593e-031	0.	1425.7
244	3.937e-014	6.	0.	726.2
245	4.68	6.	0.	428.04
246	1.17	6.	0.	1388.1
247	2.34	6.	0.	1315.9
248	3.51	6.	0.	823.33
249	4.8467	5.5	0.1	355.9
250	4.8467	5.	0.1	1223.6
251	4.8467	4.5	0.1	1325.5
252	4.8467	4.	0.1	2720.
253	4.68	4.	0.1	3831.4
254	4.68	4.5	0.1	1529.1
255	4.68	5.	0.1	1577.7
256	4.68	5.5	0.1	620.53
257	4.8467	0.5	0.1	492.93
258	4.8467	1.	0.1	890.7
259	4.8467	1.5	0.1	1682.3
260	4.8467	2.	0.1	4897.3
261	4.68	2.	0.1	2815.4
262	4.68	1.5	0.1	1839.5
263	4.68	1.	0.1	1403.2
264	4.68	0.5	0.1	551.89
265	4.8467	6.	0.1	351.74
266	5.9733	6.	0.1	589.27
267	7.1	6.	0.1	753.73
268	8.2267	6.	0.1	716.28
269	9.3533	6.	0.1	626.45
270	10.48	6.	0.1	548.56
271	11.607	6.	0.1	458.81
272	12.733	6.	0.1	380.25
273	13.86	6.	0.1	309.12
274	14.987	6.	0.1	246.27
275	16.113	6.	0.1	190.75
276	17.24	6.	0.1	142.45
277	18.367	6.	0.1	101.58
278	19.493	6.	0.1	68.078
279	20.62	6.	0.1	41.654
280	21.747	6.	0.1	22.254
281	22.873	6.	0.1	10.276
282	24.	6.	0.1	4.6014
283	24.	4.8	0.1	8.295
284	24.	3.6	0.1	12.37
285	24.	2.4	0.1	12.379
286	24.	1.2	0.1	8.2834
287	1.049e-014	1.2	0.1	1016.1
288	2.0981e-014	2.4	0.1	1035.
289	3.1471e-014	3.6	0.1	1009.1
290	4.1961e-014	4.8	0.1	948.93
291	24.	0.	0.1	4.6133
292	22.873	0.	0.1	10.248
293	21.747	0.	0.1	22.375
294	20.62	0.	0.1	41.433
295	19.493	0.	0.1	67.835
296	18.367	0.	0.1	101.32
297	17.24	0.	0.1	142.23
298	16.113	0.	0.1	190.52
299	14.987	0.	0.1	246.26
300	13.86	0.	0.1	309.25
301	12.733	0.	0.1	380.16
302	11.607	0.	0.1	458.21
303	10.48	0.	0.1	542.5
304	9.3533	0.	0.1	624.77
305	8.2267	0.	0.1	702.55
306	7.1	0.	0.1	747.27
307	5.9733	0.	0.1	565.6
308	4.8467	0.	0.1	338.18
309	4.68	0.	0.1	492.77
310	3.51	-1.6378e-030	0.1	842.95
311	2.34	-1.0919e-030	0.1	1300.
312	1.17	-5.4593e-031	0.1	1425.7
313	0.	0.	0.1	772.9
314	3.937e-014	6.	0.1	726.2
315	1.17	6.	0.1	1388.1
316	2.34	6.	0.1	1315.9
317	3.51	6.	0.1	823.33
318	4.68	6.	0.1	428.04
319	3.8781	3.0514	0.	1687.4
320	4.8418	2.5461	0.	1998.3
321	4.6808	3.0243	0.	2109.2
322	4.5514	2.8697	5.e-002	73.788
323	4.6157	2.4349	0.	2480.9
324	6.0548	3.5215	0.	1181.4
325	5.108	3.3312	0.	1680.9
326	5.691	3.2217	0.	1298.3
327	5.406	3.4835	5.e-002	13.724
328	5.1263	3.7417	0.	1965.6
329	6.0716	1.9023	0.	994.63
330	5.4194	1.973	0.	1448.6
331	5.8252	1.4552	0.	907.53
332	5.7067	1.7235	5.e-002	123.27
333	5.2767	1.6118	0.	1282.1
334	6.5347	3.8874	0.	981.82
335	6.9944	4.5014	0.	861.16
336	6.1595	4.4673	0.	964.95
337	6.3659	4.2153	5.e-002	41.378
338	5.6063	4.1077	0.	1777.7
339	3.1093	0.75833	0.	1078.2
340	3.7363	0.83006	0.	893.54
341	3.5919	0.60653	5.e-002	71.689
342	4.136	0.55327	0.	727.29
343	3.551	0.30327	0.	904.01
344	6.6089	0.68476	0.	705.51
345	5.9877	0.89044	0.	719.52
346	6.0318	0.59398	5.e-002	31.757
347	5.4392	0.54699	0.	547.7
348	6.0026	0.29699	0.	610.98
349	2.7699	4.7346	0.	1189.1
350	2.257	4.0575	0.	1261.7
351	3.3979	4.5935	0.	954.37
352	3.1281	3.7503	0.	1128.4
353	3.0513	4.2677	5.e-002	107.05
354	3.8657	4.3839	0.	1251.5
355	6.2162	5.3704	0.	713.56
356	5.6081	5.2809	0.	657.67
357	5.7231	5.4754	5.e-002	52.227
358	5.2849	5.4877	0.	476.55
359	5.8482	5.7377	0.	608.95
360	7.3048	3.5669	0.	860.79
361	6.691	3.1924	0.	1028.3
362	6.7036	3.5595	5.e-002	34.693
363	3.0089	5.2914	0.	1065.
364	3.6369	5.1502	0.	835.06
365	3.5294	5.3813	5.e-002	67.415
366	4.1047	5.4406	0.	694.65
367	3.5197	5.6906	0.	836.41
368	3.0692	1.2634	0.	1191.2
369	3.6962	1.3351	0.	983.05
370	3.3251	1.9107	0.	1226.4
371	3.5118	1.6167	5.e-002	117.67
372	4.0959	1.5583	0.	1423.9
373	2.1577	1.2351	0.	1276.6
374	2.6266	0.91012	5.e-002	42.277
375	2.4833	0.45506	0.	1248.
376	6.6916	1.8339	0.	923.7
377	6.0433	2.3399	0.	1186.8
378	6.5575	2.4532	0.	1005.
379	6.4366	2.081	5.e-002	28.131
380	1.8891	5.052	0.	1323.8
381	2.4884	5.2015	5.e-002	33.352
382	2.4142	5.6008	0.	1296.4
383	1.6192	2.1561	0.	1401.3
384	2.4136	1.8824	0.	1321.1
385	1.6889	1.5601	5.e-002	67.877
386	0.84445	1.3801	0.	1180.5
387	1.4295	0.78005	0.	1381.
388	7.0663	1.1811	0.	823.6
389	7.6995	0.92756	0.	736.69
390	7.1861	0.77553	5.e-002	7.5274
391	7.143	0.38777	0.	756.37
392	7.4186	1.9549	0.	787.9
393	6.4451	1.3868	0.	816.27
394	6.9466	1.5867	5.e-002	3.7048
395	9.8086	1.2073	0.	584.87
396	9.1834	1.8108	0.	632.23
397	8.7198	1.1432	0.	668.41
398	9.2266	1.2068	5.e-002	7.9543
399	9.29	0.6034	0.	626.52
400	10.969	1.2008	0.	498.83
401	10.361	1.8064	0.	542.31
402	10.391	1.2077	5.e-002	4.5748
403	10.435	0.60387	0.	541.39
404	12.125	1.1866	0.	417.94
405	11.53	1.7873	0.	456.1
406	11.548	1.1939	5.e-002	5.9306
407	11.577	0.59695	0.	457.17
408	13.269	1.1777	0.	343.96
409	12.692	1.7663	0.	378.35
410	12.702	1.1794	5.e-002	5.6894
411	12.718	0.58969	0.	379.33
412	14.403	1.1759	0.	277.28
413	13.832	1.7666	0.	308.2
414	13.835	1.1761	5.e-002	5.2454
415	13.847	0.58804	0.	308.7
416	15.533	1.1763	0.	218.12
417	14.969	1.7664	0.	245.45
418	14.972	1.1758	5.e-002	4.5129
419	14.979	0.58788	0.	245.69
420	16.658	1.178	0.	166.44
421	16.093	1.7684	0.	190.22
422	16.094	1.1769	5.e-002	3.9772
423	16.103	0.58844	0.	190.16
424	17.785	1.1808	0.	122.04
425	17.221	1.7709	0.	142.3
426	17.223	1.1791	5.e-002	3.4006
427	17.231	0.58955	0.	141.99
428	18.91	1.1827	0.	84.932
429	18.346	1.7743	0.	101.65
430	18.347	1.1825	5.e-002	2.889
431	18.357	0.59123	0.	101.15
432	20.04	1.1879	0.	55.128
433	19.472	1.7769	0.	68.381
434	19.474	1.183	5.e-002	2.294
435	19.484	0.59149	0.	67.663
436	21.17	1.194	0.	32.68
437	20.601	1.7903	0.	42.513
438	20.607	1.1929	5.e-002	1.7343
439	20.614	0.59645	0.	41.386
440	22.301	1.1952	0.	17.714
441	21.726	1.7971	0.	24.274
442	21.733	1.1951	5.e-002	1.1939
443	21.74	0.59756	0.	22.484
444	22.864	1.7944	0.	13.782
445	22.869	1.1953	5.e-002	0.76953
446	23.434	1.1976	0.	10.15
447	22.871	0.59763	0.	10.901
448	1.5061	3.2997	0.	1446.2
449	1.3763	4.3748	0.	1427.4
450	1.4627	3.8472	5.e-002	28.79
451	0.73135	3.7236	0.	1218.2
452	2.3772	2.9926	0.	1295.5
453	1.5496	2.7522	5.e-002	14.759
454	0.7748	2.5761	0.	1213.4
455	22.86	2.9977	0.	15.565
456	22.29	2.3963	0.	20.497
457	22.86	2.3936	5.e-002	0.73675
458	23.43	2.3968	0.	13.946
459	22.862	4.2056	0.	13.79
460	22.289	3.599	0.	20.509
461	22.86	3.6018	5.e-002	0.74852
462	23.43	3.6009	0.	13.946
463	22.298	4.8028	0.	17.761
464	22.865	4.8093	5.e-002	0.7842
465	22.869	5.4047	0.	10.915
466	23.432	4.8047	0.	10.156
467	21.164	4.7974	0.	32.79
468	21.725	4.1962	0.	24.316
469	21.732	4.7963	5.e-002	1.2198
470	21.739	5.3981	0.	22.48
471	20.033	4.7877	0.	55.309
472	20.592	4.1926	0.	42.658
473	20.597	4.7985	5.e-002	1.7791
474	20.608	5.3993	0.	41.539
475	18.905	4.7572	0.	85.172
476	19.468	4.1752	0.	68.557
477	19.469	4.7769	5.e-002	2.3402
478	19.481	5.3885	0.	67.869
479	17.778	4.7224	0.	122.32
480	18.339	4.1427	0.	101.91
481	18.341	4.7376	5.e-002	2.9296
482	18.354	5.3688	0.	101.35
483	16.653	4.6995	0.	166.74
484	17.215	4.1218	0.	142.57
485	17.215	4.7072	5.e-002	3.4841
486	17.227	5.3536	0.	142.19
487	15.529	4.6897	0.	218.29
488	16.091	4.1093	0.	190.45
489	16.092	4.6917	5.e-002	4.0382
490	16.103	5.3458	0.	190.33
491	14.402	4.7049	0.	277.19
492	14.965	4.1047	0.	245.49
493	14.966	4.6877	5.e-002	4.5484
494	14.977	5.3439	0.	245.67
495	13.271	4.7417	0.	343.59
496	13.836	4.1213	0.	307.94
497	13.838	4.7221	5.e-002	5.1639
498	13.849	5.361	0.	308.46
499	12.128	4.7649	0.	417.75
500	12.691	4.1582	0.	377.98
501	12.703	4.7612	5.e-002	5.5489
502	12.718	5.3806	0.	379.07
503	10.959	4.7784	0.	498.87
504	11.537	4.168	0.	456.15
505	11.553	4.7686	5.e-002	5.9131
506	11.58	5.3843	0.	457.48
507	9.7337	4.7887	0.	593.69
508	10.347	4.1932	0.	541.08
509	10.365	4.7882	5.e-002	2.6722
510	10.423	5.3941	0.	544.41
511	8.3625	4.7883	0.	694.52
512	9.0923	4.2253	0.	646.76
513	9.102	4.7892	5.e-002	4.8195
514	9.2277	5.3946	0.	636.59
515	7.1662	5.0264	0.	772.48
516	7.7645	4.1809	0.	737.3
517	7.623	4.7875	5.e-002	25.562
518	7.9248	5.3937	0.	727.
519	6.3313	4.9923	0.	877.56
520	6.7094	5.2654	5.e-002	28.652
521	6.9047	5.6327	0.	779.54
522	7.8984	2.9487	0.	712.13
523	8.4943	3.6178	0.	689.68
524	7.9061	3.5743	5.e-002	4.7061
525	8.5155	2.369	0.	664.18
526	7.2846	2.5742	0.	879.52
527	8.0519	1.7013	0.	700.29
528	7.8907	2.3231	5.e-002	6.7993
529	9.736	2.4099	0.	589.88
530	9.1114	3.0382	0.	640.62
531	9.1402	2.4149	5.e-002	11.452
532	10.922	2.3929	0.	499.97
533	10.33	3.0016	0.	542.68
534	10.332	2.405	5.e-002	7.4353
535	12.096	2.367	0.	417.04
536	11.516	2.9741	0.	455.78
537	11.512	2.3808	5.e-002	6.8944
538	13.255	2.3551	0.	343.17
539	12.68	2.9542	0.	377.84
540	12.681	2.3532	5.e-002	5.4997
541	14.398	2.3571	0.	276.97
542	13.832	2.9388	0.	307.77
543	13.83	2.357	5.e-002	5.1436
544	15.529	2.3585	0.	218.2
545	14.965	2.9394	0.	245.49
546	14.967	2.3571	5.e-002	4.6118
547	16.656	2.3613	0.	166.75
548	16.092	2.9434	0.	190.41
549	16.092	2.3599	5.e-002	3.9619
550	17.782	2.3644	0.	122.59
551	17.217	2.9495	0.	142.65
552	17.22	2.3627	5.e-002	3.4446
553	18.908	2.3684	0.	85.776
554	18.341	2.9569	0.	102.14
555	18.345	2.3661	5.e-002	2.8993
556	20.033	2.3793	0.	56.397
557	19.469	2.9721	0.	68.995
558	19.471	2.3707	5.e-002	2.2985
559	21.158	2.3934	0.	34.586
560	20.591	2.9873	0.	43.424
561	20.596	2.3878	5.e-002	1.7429
562	21.719	2.9976	0.	25.554
563	21.72	2.399	5.e-002	1.2076
564	21.152	3.5914	0.	34.675
565	21.718	3.5962	5.e-002	1.2058
566	20.027	3.5801	0.	56.528
567	20.586	3.5867	5.e-002	1.7359
568	18.903	3.5606	0.	85.956
569	19.468	3.5735	5.e-002	2.2374
570	17.776	3.542	0.	122.82
571	18.337	3.5478	5.e-002	2.8558
572	16.653	3.5316	0.	166.93
573	17.214	3.5363	5.e-002	3.5118
574	15.527	3.5243	0.	218.29
575	16.091	3.527	5.e-002	4.0981
576	14.398	3.5211	0.	276.85
577	14.963	3.5216	5.e-002	4.7467
578	13.256	3.5379	0.	342.91
579	13.833	3.5206	5.e-002	5.0436
580	12.1	3.5613	0.	416.89
581	12.679	3.5552	5.e-002	5.241
582	10.924	3.5828	0.	498.74
583	11.521	3.5674	5.e-002	7.2483
584	9.7053	3.6299	0.	593.98
585	10.328	3.5983	5.e-002	7.3714
586	9.0825	3.6614	5.e-002	10.52
587	5.7232	4.9029	0.	805.49
588	5.4931	5.0865	5.e-002	34.079
589	5.1699	5.0432	0.	860.43
590	5.9532	4.7192	5.e-002	121.92
591	5.3999	4.6096	0.	1054.5
592	3.8806	1.0536	5.e-002	17.17
593	4.2803	1.0268	0.	1062.8
594	3.1715	2.7189	0.	1214.1
595	3.1383	2.2047	5.e-002	84.489
596	3.9091	2.1024	0.	2002.4
597	1.2898	4.9025	5.e-002	27.291
598	0.64491	4.8512	0.	1153.3
599	1.2299	5.4512	0.	1381.3
600	3.7445	4.9192	5.e-002	45.367
601	4.2122	4.9596	0.	1106.3
602	3.2048	3.233	5.e-002	118.72
603	3.9424	3.6165	0.	2466.2
604	5.3911	2.4106	0.	1636.3
605	5.1322	2.2225	5.e-002	88.609
606	4.9894	2.1113	0.	3367.9
607	5.9437	1.1869	5.e-002	32.873
608	5.3952	1.0935	0.	772.01
609	5.23	2.8888	0.	1683.9
610	4.8101	3.1789	5.e-002	80.424
611	4.745	3.5895	0.	2836.1
612	5.813	2.7793	0.	1332.2
613	5.6499	2.5987	5.e-002	95.858
614	6.3272	2.8926	0.	1150.2
615	5.976	2.9599	5.e-002	38.427
616	6.6785	2.8253	5.e-002	45.997
617	8.213	1.0796	5.e-002	7.3045
618	8.2198	0.53979	0.	705.01
619	8.0519	1.7013	0.1	700.29
620	8.7198	1.1432	0.1	668.41
621	7.6995	0.92756	0.1	736.69
622	8.2198	0.53979	0.1	705.01
623	6.3272	2.8926	0.1	1150.2
624	7.2846	2.5742	0.1	879.52
625	6.5575	2.4532	0.1	1005.
626	6.691	3.1924	0.1	1028.3
627	5.813	2.7793	0.1	1332.2
628	5.691	3.2217	0.1	1298.3
629	5.23	2.8888	0.1	1683.9
630	5.3911	2.4106	0.1	1636.3
631	6.0433	2.3399	0.1	1186.8
632	5.108	3.3312	0.1	1680.9
633	4.6808	3.0243	0.1	2109.2
634	4.745	3.5895	0.1	2836.1
635	6.4451	1.3868	0.1	816.27
636	5.9877	0.89044	0.1	719.52
637	5.8252	1.4552	0.1	907.53
638	5.3952	1.0935	0.1	772.01
639	5.4194	1.973	0.1	1448.6
640	4.8418	2.5461	0.1	1998.3
641	4.9894	2.1113	0.1	3367.9
642	3.1715	2.7189	0.1	1214.1
643	2.3772	2.9926	0.1	1295.5
644	3.1281	3.7503	0.1	1128.4
645	3.8781	3.0514	0.1	1687.4
646	3.9424	3.6165	0.1	2466.2
647	3.6369	5.1502	0.1	835.06
648	3.3979	4.5935	0.1	954.37
649	4.2122	4.9596	0.1	1106.3
650	1.3763	4.3748	0.1	1427.4
651	1.8891	5.052	0.1	1323.8
652	0.64491	4.8512	0.1	1153.3
653	1.2299	5.4512	0.1	1381.3
654	2.4136	1.8824	0.1	1321.1
655	3.3251	1.9107	0.1	1226.4
656	3.9091	2.1024	0.1	2002.4
657	3.6962	1.3351	0.1	983.05
658	3.7363	0.83006	0.1	893.54
659	4.2803	1.0268	0.1	1062.8
660	5.7232	4.9029	0.1	805.49
661	6.3313	4.9923	0.1	877.56
662	6.1595	4.4673	0.1	964.95
663	5.3999	4.6096	0.1	1054.5
664	5.6081	5.2809	0.1	657.67
665	5.1699	5.0432	0.1	860.43
666	9.7053	3.6299	0.1	593.98
667	9.1114	3.0382	0.1	640.62
668	8.4943	3.6178	0.1	689.68
669	9.0923	4.2253	0.1	646.76
670	10.924	3.5828	0.1	498.74
671	10.33	3.0016	0.1	542.68
672	10.347	4.1932	0.1	541.08
673	12.1	3.5613	0.1	416.89
674	11.516	2.9741	0.1	455.78
675	11.537	4.168	0.1	456.15
676	13.256	3.5379	0.1	342.91
677	12.68	2.9542	0.1	377.84
678	12.691	4.1582	0.1	377.98
679	14.398	3.5211	0.1	276.85
680	13.832	2.9388	0.1	307.77
681	13.836	4.1213	0.1	307.94
682	15.527	3.5243	0.1	218.29
683	14.965	2.9394	0.1	245.49
684	14.965	4.1047	0.1	245.49
685	16.653	3.5316	0.1	166.93
686	16.092	2.9434	0.1	190.41
687	16.091	4.1093	0.1	190.45
688	17.776	3.542	0.1	122.82
689	17.217	2.9495	0.1	142.65
690	17.215	4.1218	0.1	142.57
691	18.903	3.5606	0.1	85.956
692	18.341	2.9569	0.1	102.14
693	18.339	4.1427	0.1	101.91
694	20.027	3.5801	0.1	56.528
695	19.469	2.9721	0.1	68.995
696	19.468	4.1752	0.1	68.557
697	21.152	3.5914	0.1	34.675
698	20.591	2.9873	0.1	43.424
699	20.592	4.1926	0.1	42.658
700	21.719	2.9976	0.1	25.554
701	21.725	4.1962	0.1	24.316
702	22.289	3.599	0.1	20.509
703	21.158	2.3934	0.1	34.586
704	22.29	2.3963	0.1	20.497
705	21.726	1.7971	0.1	24.274
706	20.033	2.3793	0.1	56.397
707	20.601	1.7903	0.1	42.513
708	18.908	2.3684	0.1	85.776
709	19.472	1.7769	0.1	68.381
710	17.782	2.3644	0.1	122.59
711	18.346	1.7743	0.1	101.65
712	16.656	2.3613	0.1	166.75
713	17.221	1.7709	0.1	142.3
714	15.529	2.3585	0.1	218.2
715	16.093	1.7684	0.1	190.22
716	14.398	2.3571	0.1	276.97
717	14.969	1.7664	0.1	245.45
718	13.255	2.3551	0.1	343.17
719	13.832	1.7666	0.1	308.2
720	12.096	2.367	0.1	417.04
721	12.692	1.7663	0.1	378.35
722	10.922	2.3929	0.1	499.97
723	11.53	1.7873	0.1	456.1
724	9.736	2.4099	0.1	589.88
725	10.361	1.8064	0.1	542.31
726	8.5155	2.369	0.1	664.18
727	9.1834	1.8108	0.1	632.23
728	7.8984	2.9487	0.1	712.13
729	7.4186	1.9549	0.1	787.9
730	7.7645	4.1809	0.1	737.3
731	7.3048	3.5669	0.1	860.79
732	7.1662	5.0264	0.1	772.48
733	6.2162	5.3704	0.1	713.56
734	6.9047	5.6327	0.1	779.54
735	8.3625	4.7883	0.1	694.52
736	6.9944	4.5014	0.1	861.16
737	7.9248	5.3937	0.1	727.
738	9.7337	4.7887	0.1	593.69
739	9.2277	5.3946	0.1	636.59
740	10.959	4.7784	0.1	498.87
741	10.423	5.3941	0.1	544.41
742	12.128	4.7649	0.1	417.75
743	11.58	5.3843	0.1	457.48
744	13.271	4.7417	0.1	343.59
745	12.718	5.3806	0.1	379.07
746	14.402	4.7049	0.1	277.19
747	13.849	5.361	0.1	308.46
748	15.529	4.6897	0.1	218.29
749	14.977	5.3439	0.1	245.67
750	16.653	4.6995	0.1	166.74
751	16.103	5.3458	0.1	190.33
752	17.778	4.7224	0.1	122.32
753	17.227	5.3536	0.1	142.19
754	18.905	4.7572	0.1	85.172
755	18.354	5.3688	0.1	101.35
756	20.033	4.7877	0.1	55.309
757	19.481	5.3885	0.1	67.869
758	21.164	4.7974	0.1	32.79
759	20.608	5.3993	0.1	41.539
760	22.298	4.8028	0.1	17.761
761	21.739	5.3981	0.1	22.48
762	22.862	4.2056	0.1	13.79
763	22.869	5.4047	0.1	10.915
764	23.432	4.8047	0.1	10.156
765	22.86	2.9977	0.1	15.565
766	23.43	3.6009	0.1	13.946
767	22.864	1.7944	0.1	13.782
768	23.43	2.3968	0.1	13.946
769	1.5061	3.2997	0.1	1446.2
770	1.6192	2.1561	0.1	1401.3
771	0.7748	2.5761	0.1	1213.4
772	2.257	4.0575	0.1	1261.7
773	0.73135	3.7236	0.1	1218.2
774	22.301	1.1952	0.1	17.714
775	23.434	1.1976	0.1	10.15
776	22.871	0.59763	0.1	10.901
777	21.17	1.194	0.1	32.68
778	21.74	0.59756	0.1	22.484
779	20.04	1.1879	0.1	55.128
780	20.614	0.59645	0.1	41.386
781	18.91	1.1827	0.1	84.932
782	19.484	0.59149	0.1	67.663
783	17.785	1.1808	0.1	122.04
784	18.357	0.59123	0.1	101.15
785	16.658	1.178	0.1	166.44
786	17.231	0.58955	0.1	141.99
787	15.533	1.1763	0.1	218.12
788	16.103	0.58844	0.1	190.16
789	14.403	1.1759	0.1	277.28
790	14.979	0.58788	0.1	245.69
791	13.269	1.1777	0.1	343.96
792	13.847	0.58804	0.1	308.7
793	12.125	1.1866	0.1	417.94
794	12.718	0.58969	0.1	379.33
795	10.969	1.2008	0.1	498.83
796	11.577	0.59695	0.1	457.17
797	9.8086	1.2073	0.1	584.87
798	10.435	0.60387	0.1	541.39
799	9.29	0.6034	0.1	626.52
800	7.0663	1.1811	0.1	823.6
801	6.6916	1.8339	0.1	923.7
802	6.6089	0.68476	0.1	705.51
803	7.143	0.38777	0.1	756.37
804	2.1577	1.2351	0.1	1276.6
805	0.84445	1.3801	0.1	1180.5
806	1.4295	0.78005	0.1	1381.
807	3.0089	5.2914	0.1	1065.
808	2.7699	4.7346	0.1	1189.1
809	2.4142	5.6008	0.1	1296.4
810	6.0716	1.9023	0.1	994.63
811	3.0692	1.2634	0.1	1191.2
812	3.1093	0.75833	0.1	1078.2
813	2.4833	0.45506	0.1	1248.
814	4.0959	1.5583	0.1	1423.9
815	4.1047	5.4406	0.1	694.65
816	3.5197	5.6906	0.1	836.41
817	6.5347	3.8874	0.1	981.82
818	6.0548	3.5215	0.1	1181.4
819	5.2849	5.4877	0.1	476.55
820	5.8482	5.7377	0.1	608.95
821	3.8657	4.3839	0.1	1251.5
822	5.4392	0.54699	0.1	547.7
823	6.0026	0.29699	0.1	610.98
824	4.136	0.55327	0.1	727.29
825	3.551	0.30327	0.1	904.01
826	5.6063	4.1077	0.1	1777.7
827	5.2767	1.6118	0.1	1282.1
828	5.1263	3.7417	0.1	1965.6
829	4.6157	2.4349	0.1	2480.9
830	4.8467	4.25	0.	1994.9
831	4.7633	4.	0.	2802.3
832	4.8467	4.	5.e-002	197.19
833	4.8467	4.75	0.	1241.8
834	4.8467	4.5	5.e-002	79.867
835	4.8467	5.25	0.	761.84
836	4.8467	5.	5.e-002	319.15
837	4.8467	5.75	0.	336.7
838	4.8467	5.5	5.e-002	66.226
839	4.68	4.25	0.	2581.1
840	4.68	4.	5.e-002	375.11
841	4.68	5.25	0.	1087.2
842	4.68	5.75	0.	499.5
843	4.68	5.5	5.e-002	107.2
844	4.68	4.75	0.	1521.
845	4.68	5.	5.e-002	310.77
846	4.68	4.5	5.e-002	176.46
847	4.8467	1.75	0.	3142.4
848	4.7633	2.	0.	3416.3
849	4.8467	2.	5.e-002	723.3
850	4.8467	1.25	0.	1278.8
851	4.8467	1.5	5.e-002	264.74
852	4.8467	0.75	0.	688.47
853	4.8467	1.	5.e-002	93.526
854	4.8467	0.25	0.	406.94
855	4.8467	0.5	5.e-002	55.945
856	4.68	1.75	0.	2266.5
857	4.68	2.	5.e-002	149.15
858	4.68	0.75	0.	962.9
859	4.68	0.25	0.	484.63
860	4.68	0.5	5.e-002	76.101
861	4.68	1.25	0.	1605.8
862	4.68	1.	5.e-002	254.17
863	4.68	1.5	5.e-002	118.6
864	5.41	6.	0.	467.94
865	4.8467	6.	5.e-002	34.063
866	6.5367	6.	0.	670.02
867	5.9733	6.	5.e-002	19.514
868	7.6633	6.	0.	734.87
869	7.1	6.	5.e-002	27.225
870	8.79	6.	0.	670.
871	8.2267	6.	5.e-002	32.882
872	9.9167	6.	0.	586.93
873	9.3533	6.	5.e-002	5.3678
874	11.043	6.	0.	503.6
875	10.48	6.	5.e-002	10.335
876	12.17	6.	0.	419.49
877	11.607	6.	5.e-002	12.61
878	13.297	6.	0.	344.65
879	12.733	6.	5.e-002	12.149
880	14.423	6.	0.	277.66
881	13.86	6.	5.e-002	10.539
882	15.55	6.	0.	218.46
883	14.987	6.	5.e-002	9.0397
884	16.677	6.	0.	166.54
885	16.113	6.	5.e-002	8.0676
886	17.803	6.	0.	121.94
887	17.24	6.	5.e-002	7.09
888	18.93	6.	0.	84.73
889	18.367	6.	5.e-002	6.1131
890	20.057	6.	0.	54.74
891	19.493	6.	5.e-002	5.1212
892	21.183	6.	0.	31.786
893	20.62	6.	5.e-002	3.8791
894	22.31	6.	0.	16.055
895	21.747	6.	5.e-002	2.4792
896	23.437	6.	0.	7.23
897	22.873	6.	5.e-002	1.3529
898	24.	5.4	0.	6.2662
899	24.	6.	5.e-002	0.27721
900	24.	4.2	0.	10.299
901	24.	4.8	5.e-002	0.51434
902	24.	3.	0.	12.351
903	24.	3.6	5.e-002	0.56125
904	24.	1.8	0.	10.299
905	24.	2.4	5.e-002	0.55971
906	24.	0.6	0.	6.2595
907	24.	1.2	5.e-002	0.5243
908	1.5735e-014	1.8	0.	1025.4
909	5.2451e-015	0.6	0.	883.53
910	1.0632e-014	1.2	5.e-002	33.821
911	2.6226e-014	3.	0.	1022.
912	2.1264e-014	2.4	5.e-002	15.745
913	3.6716e-014	4.2	0.	978.46
914	3.1897e-014	3.6	5.e-002	18.124
915	4.7206e-014	5.4	0.	808.03
916	4.2529e-014	4.8	5.e-002	69.662
917	23.437	0.	0.	7.2229
918	24.	0.	5.e-002	0.27849
919	5.41	0.	0.	445.53
920	4.8467	0.	5.e-002	29.375
921	22.31	0.	0.	16.107
922	22.873	0.	5.e-002	1.3563
923	21.183	0.	0.	31.727
924	21.747	0.	5.e-002	2.4689
925	20.057	0.	0.	54.513
926	20.62	0.	5.e-002	3.7462
927	18.93	0.	0.	84.482
928	19.493	0.	5.e-002	5.0687
929	17.803	0.	0.	121.71
930	18.367	0.	5.e-002	6.3035
931	16.677	0.	0.	166.32
932	17.24	0.	5.e-002	7.5378
933	15.55	0.	0.	218.34
934	16.113	0.	5.e-002	8.7988
935	14.423	0.	0.	277.71
936	14.987	0.	5.e-002	9.9011
937	13.297	0.	0.	344.66
938	13.86	0.	5.e-002	11.023
939	12.17	0.	0.	419.14
940	12.733	0.	5.e-002	12.106
941	11.043	0.	0.	500.3
942	11.607	0.	5.e-002	13.274
943	9.9167	0.	0.	583.58
944	10.48	0.	5.e-002	12.829
945	8.79	0.	0.	663.66
946	9.3533	0.	5.e-002	11.728
947	7.6633	0.	0.	724.9
948	8.2267	0.	5.e-002	14.134
949	6.5367	0.	0.	654.56
950	7.1	0.	5.e-002	11.915
951	5.9733	0.	5.e-002	10.353
952	0.585	-2.7297e-031	0.	1079.3
953	0.	0.	5.e-002	206.37
954	4.095	-1.9108e-030	0.	657.78
955	4.68	-2.1837e-030	5.e-002	114.45
956	2.925	-1.3648e-030	0.	1071.1
957	3.51	0.	5.e-002	26.683
958	1.755	-8.189e-031	0.	1354.3
959	2.34	0.	5.e-002	81.389
960	1.17	0.	5.e-002	36.885
961	0.585	6.	0.	1024.8
962	5.2451e-014	6.	5.e-002	314.29
963	4.095	6.	0.	618.8
964	4.68	6.	5.e-002	69.928
965	1.755	6.	0.	1344.7
966	1.17	6.	5.e-002	28.412
967	2.925	6.	0.	1068.6
968	2.34	6.	5.e-002	50.051
969	3.51	6.	5.e-002	11.23
970	4.8467	5.25	0.1	761.84
971	4.8467	5.75	0.1	336.7
972	4.8467	4.75	0.1	1241.8
973	4.8467	4.25	0.1	1994.9
974	4.7633	4.	0.1	2802.3
975	4.68	4.25	0.1	2581.1
976	4.68	4.75	0.1	1521.
977	4.68	5.25	0.1	1087.2
978	4.68	5.75	0.1	499.5
979	4.8467	0.75	0.1	688.47
980	4.8467	0.25	0.1	406.94
981	4.8467	1.25	0.1	1278.8
982	4.8467	1.75	0.1	3142.4
983	4.7633	2.	0.1	3416.3
984	4.68	1.75	0.1	2266.5
985	4.68	1.25	0.1	1605.8
986	4.68	0.75	0.1	962.9
987	4.68	0.25	0.1	484.63
988	5.41	6.	0.1	467.94
989	6.5367	6.	0.1	670.02
990	7.6633	6.	0.1	734.87
991	8.79	6.	0.1	670.
992	9.9167	6.	0.1	586.93
993	11.043	6.	0.1	503.6
994	12.17	6.	0.1	419.49
995	13.297	6.	0.1	344.65
996	14.423	6.	0.1	277.66
997	15.55	6.	0.1	218.46
998	16.677	6.	0.1	166.54
999	17.803	6.	0.1	121.94
1000	18.93	6.	0.1	84.73
1001	20.057	6.	0.1	54.74
1002	21.183	6.	0.1	31.786
1003	22.31	6.	0.1	16.055
1004	23.437	6.	0.1	7.23
1005	24.	5.4	0.1	6.2662
1006	24.	4.2	0.1	10.299
1007	24.	3.	0.1	12.351
1008	24.	1.8	0.1	10.299
1009	24.	0.6	0.1	6.2595
1010	1.5735e-014	1.8	0.1	1025.4
1011	5.2451e-015	0.6	0.1	883.53
1012	2.6226e-014	3.	0.1	1022.
1013	3.6716e-014	4.2	0.1	978.46
1014	4.7206e-014	5.4	0.1	808.03
1015	23.437	0.	0.1	7.2229
1016	22.31	0.	0.1	16.107
1017	21.183	0.	0.1	31.727
1018	20.057	0.	0.1	54.513
1019	18.93	0.	0.1	84.482
1020	17.803	0.	0.1	121.71
1021	16.677	0.	0.1	166.32
1022	15.55	0.	0.1	218.34
1023	14.423	0.	0.1	277.71
1024	13.297	0.	0.1	344.66
1025	12.17	0.	0.1	419.14
1026	11.043	0.	0.1	500.3
1027	9.9167	0.	0.1	583.58
1028	8.79	0.	0.1	663.66
1029	7.6633	0.	0.1	724.9
1030	6.5367	0.	0.1	654.56
1031	5.41	0.	0.1	445.53
1032	4.095	-1.9108e-030	0.1	657.78
1033	2.925	-1.3648e-030	0.1	1071.1
1034	1.755	-8.189e-031	0.1	1354.3
1035	0.585	-2.7297e-031	0.1	1079.3
1036	0.585	6.	0.1	1024.8
1037	1.755	6.	0.1	1344.7
1038	2.925	6.	0.1	1068.6
1039	4.095	6.	0.1	618.8
