Node Number	X Location (in)	Y Location (in)	Z Location (in)	Minimum Principal Stress (psi)
1	4.5514	2.8697	0.	-2138.2
2	5.406	3.4835	0.	-1119.2
3	5.7067	1.7235	0.	-1063.9
4	6.3659	4.2153	0.	-1064.9
5	3.5919	0.60653	0.	-894.01
6	6.0318	0.59398	0.	-608.32
7	3.0513	4.2677	0.	-1159.6
8	5.7231	5.4754	0.	-604.98
9	6.7036	3.5595	0.	-1062.5
10	3.5294	5.3813	0.	-826.01
11	3.5118	1.6167	0.	-1125.4
12	2.6266	0.91012	0.	-1251.2
13	6.4366	2.081	0.	-1022.6
14	2.4884	5.2015	0.	-1281.5
15	1.6889	1.5601	0.	-1283.6
16	7.1861	0.77553	0.	-741.15
17	6.9466	1.5867	0.	-875.16
18	9.2266	1.2068	0.	-632.45
19	10.391	1.2077	0.	-544.47
20	11.548	1.1939	0.	-457.34
21	12.702	1.1794	0.	-377.81
22	13.835	1.1761	0.	-306.44
23	14.972	1.1758	0.	-242.65
24	16.094	1.1769	0.	-186.83
25	17.223	1.1791	0.	-138.45
26	18.347	1.1825	0.	-97.465
27	19.474	1.183	0.	-63.822
28	20.607	1.1929	0.	-37.414
29	21.733	1.1951	0.	-18.332
30	22.869	1.1953	0.	-6.5338
31	1.4627	3.8472	0.	-1356.
32	1.5496	2.7522	0.	-1322.
33	22.86	2.3936	0.	-7.1226
34	22.86	3.6018	0.	-7.1315
35	22.865	4.8093	0.	-6.5778
36	21.732	4.7963	0.	-18.406
37	20.597	4.7985	0.	-37.624
38	19.469	4.7769	0.	-64.083
39	18.341	4.7376	0.	-97.702
40	17.215	4.7072	0.	-138.74
41	16.092	4.6917	0.	-187.05
42	14.966	4.6877	0.	-242.69
43	13.838	4.7221	0.	-306.22
44	12.703	4.7612	0.	-377.65
45	11.553	4.7686	0.	-456.66
46	10.365	4.7882	0.	-547.64
47	9.102	4.7892	0.	-655.99
48	7.623	4.7875	0.	-770.62
49	6.7094	5.2654	0.	-795.36
50	7.9061	3.5743	0.	-773.65
51	7.8907	2.3231	0.	-741.88
52	9.1402	2.4149	0.	-640.51
53	10.332	2.405	0.	-551.83
54	11.512	2.3808	0.	-458.35
55	12.681	2.3532	0.	-377.52
56	13.83	2.357	0.	-305.76
57	14.967	2.3571	0.	-242.21
58	16.092	2.3599	0.	-186.44
59	17.22	2.3627	0.	-138.18
60	18.345	2.3661	0.	-97.301
61	19.471	2.3707	0.	-63.882
62	20.596	2.3878	0.	-37.735
63	21.72	2.399	0.	-18.875
64	21.718	3.5962	0.	-18.927
65	20.586	3.5867	0.	-37.926
66	19.468	3.5735	0.	-64.027
67	18.337	3.5478	0.	-97.616
68	17.214	3.5363	0.	-138.45
69	16.091	3.527	0.	-186.61
70	14.963	3.5216	0.	-242.28
71	13.833	3.5206	0.	-305.46
72	12.679	3.5552	0.	-377.53
73	11.521	3.5674	0.	-457.61
74	10.328	3.5983	0.	-550.94
75	9.0825	3.6614	0.	-655.54
76	5.4931	5.0865	0.	-604.01
77	5.9532	4.7192	0.	-907.74
78	3.8806	1.0536	0.	-734.25
79	3.1383	2.2047	0.	-1408.1
80	1.2898	4.9025	0.	-1277.6
81	3.7445	4.9192	0.	-748.59
82	3.2048	3.233	0.	-1423.3
83	5.1322	2.2225	0.	-1573.2
84	5.9437	1.1869	0.	-736.73
85	4.8101	3.1789	0.	-1827.1
86	5.6499	2.5987	0.	-1326.3
87	5.976	2.9599	0.	-1158.
88	6.6785	2.8253	0.	-1117.
89	8.213	1.0796	0.	-716.65
90	8.213	1.0796	0.1	2.3859
91	6.6785	2.8253	0.1	25.212
92	5.976	2.9599	0.1	-175.24
93	5.6499	2.5987	0.1	-194.96
94	4.8101	3.1789	0.1	-199.54
95	5.9437	1.1869	0.1	-104.97
96	5.1322	2.2225	0.1	-451.09
97	3.2048	3.233	0.1	120.13
98	3.7445	4.9192	0.1	-107.58
99	1.2898	4.9025	0.1	-289.41
100	3.1383	2.2047	0.1	39.285
101	3.8806	1.0536	0.1	-146.17
102	5.9532	4.7192	0.1	-112.57
103	5.4931	5.0865	0.1	-116.71
104	9.0825	3.6614	0.1	-10.349
105	10.328	3.5983	0.1	3.0108
106	11.521	3.5674	0.1	-0.45586
107	12.679	3.5552	0.1	-2.1032
108	13.833	3.5206	0.1	-5.9226
109	14.963	3.5216	0.1	-8.0035
110	16.091	3.527	0.1	-9.1322
111	17.214	3.5363	0.1	-9.8341
112	18.337	3.5478	0.1	-10.242
113	19.468	3.5735	0.1	-10.423
114	20.586	3.5867	0.1	-10.598
115	21.718	3.5962	0.1	-10.66
116	21.72	2.399	0.1	-10.702
117	20.596	2.3878	0.1	-10.598
118	19.471	2.3707	0.1	-10.489
119	18.345	2.3661	0.1	-10.316
120	17.22	2.3627	0.1	-9.9167
121	16.092	2.3599	0.1	-9.1844
122	14.967	2.3571	0.1	-7.8846
123	13.83	2.357	0.1	-5.8393
124	12.681	2.3532	0.1	-2.2859
125	11.512	2.3808	0.1	0.99259
126	10.332	2.405	0.1	-1.8139e-002
127	9.1402	2.4149	0.1	-5.3388
128	7.8907	2.3231	0.1	18.881
129	7.9061	3.5743	0.1	32.307
130	6.7094	5.2654	0.1	-21.592
131	7.623	4.7875	0.1	-1.1786
132	9.102	4.7892	0.1	-7.8024
133	10.365	4.7882	0.1	6.2824
134	11.553	4.7686	0.1	-0.80906
135	12.703	4.7612	0.1	-2.9356
136	13.838	4.7221	0.1	-5.1439
137	14.966	4.6877	0.1	-6.7547
138	16.092	4.6917	0.1	-7.6409
139	17.215	4.7072	0.1	-8.1452
140	18.341	4.7376	0.1	-8.4339
141	19.469	4.7769	0.1	-8.4909
142	20.597	4.7985	0.1	-8.4079
143	21.732	4.7963	0.1	-8.2608
144	22.865	4.8093	0.1	-7.5928
145	22.86	3.6018	0.1	-10.65
146	22.86	2.3936	0.1	-10.64
147	1.5496	2.7522	0.1	-312.88
148	1.4627	3.8472	0.1	-308.21
149	22.869	1.1953	0.1	-7.6349
150	21.733	1.1951	0.1	-8.2346
151	20.607	1.1929	0.1	-8.4849
152	19.474	1.183	0.1	-8.5283
153	18.347	1.1825	0.1	-8.4548
154	17.223	1.1791	0.1	-8.1436
155	16.094	1.1769	0.1	-7.6963
156	14.972	1.1758	0.1	-6.7238
157	13.835	1.1761	0.1	-5.3452
158	12.702	1.1794	0.1	-3.2802
159	11.548	1.1939	0.1	-0.54596
160	10.391	1.2077	0.1	2.1793
161	9.2266	1.2068	0.1	-4.6659
162	6.9466	1.5867	0.1	-36.206
163	7.1861	0.77553	0.1	-28.718
164	1.6889	1.5601	0.1	-263.42
165	2.4884	5.2015	0.1	-7.7642
166	6.4366	2.081	0.1	-31.365
167	2.6266	0.91012	0.1	22.909
168	3.5118	1.6167	0.1	-119.21
169	3.5294	5.3813	0.1	-74.554
170	6.7036	3.5595	0.1	14.245
171	5.7231	5.4754	0.1	-74.815
172	3.0513	4.2677	0.1	5.1372
173	6.0318	0.59398	0.1	-78.964
174	3.5919	0.60653	0.1	-144.07
175	6.3659	4.2153	0.1	35.301
176	5.7067	1.7235	0.1	-45.501
177	5.406	3.4835	0.1	-383.69
178	4.5514	2.8697	0.1	-213.58
179	4.8467	4.	0.	-3304.7
180	4.8467	4.5	0.	-1046.4
181	4.8467	5.	0.	-964.05
182	4.8467	5.5	0.	-481.13
183	4.68	4.	0.	-4257.9
184	4.68	5.5	0.	-781.38
185	4.68	5.	0.	-1422.
186	4.68	4.5	0.	-1526.3
187	4.8467	2.	0.	-4507.9
188	4.8467	1.5	0.	-1716.6
189	4.8467	1.	0.	-983.37
190	4.8467	0.5	0.	-608.88
191	4.68	2.	0.	-3269.
192	4.68	0.5	0.	-721.66
193	4.68	1.	0.	-1284.9
194	4.68	1.5	0.	-1621.4
195	4.8467	6.	0.	-440.33
196	5.9733	6.	0.	-600.17
197	7.1	6.	0.	-722.62
198	8.2267	6.	0.	-695.64
199	9.3533	6.	0.	-632.06
200	10.48	6.	0.	-546.71
201	11.607	6.	0.	-455.52
202	12.733	6.	0.	-376.51
203	13.86	6.	0.	-304.67
204	14.987	6.	0.	-241.04
205	16.113	6.	0.	-185.01
206	17.24	6.	0.	-136.38
207	18.367	6.	0.	-95.383
208	19.493	6.	0.	-61.841
209	20.62	6.	0.	-35.428
210	21.747	6.	0.	-16.092
211	22.873	6.	0.	-4.1581
212	24.	6.	0.	0.30563
213	24.	4.8	0.	-2.1612
214	24.	3.6	0.	-3.1049
215	24.	2.4	0.	-3.1037
216	24.	1.2	0.	-2.1767
217	1.049e-014	1.2	0.	-2015.4
218	2.0981e-014	2.4	0.	-2046.8
219	3.1471e-014	3.6	0.	-2001.9
220	4.1961e-014	4.8	0.	-1880.7
221	24.	0.	0.	0.28439
222	4.8467	0.	0.	-431.05
223	22.873	0.	0.	-4.1477
224	21.747	0.	0.	-16.177
225	20.62	0.	0.	-35.349
226	19.493	0.	0.	-61.767
227	18.367	0.	0.	-95.405
228	17.24	0.	0.	-136.54
229	16.113	0.	0.	-185.06
230	14.987	0.	0.	-241.31
231	13.86	0.	0.	-304.81
232	12.733	0.	0.	-376.41
233	11.607	0.	0.	-454.75
234	10.48	0.	0.	-539.65
235	9.3533	0.	0.	-623.84
236	8.2267	0.	0.	-701.05
237	7.1	0.	0.	-711.82
238	5.9733	0.	0.	-531.23
239	0.	0.	0.	-1514.6
240	4.68	0.	0.	-639.42
241	3.51	-1.6378e-030	0.	-836.31
242	2.34	-1.0919e-030	0.	-1300.4
243	1.17	-5.4593e-031	0.	-1252.
244	3.937e-014	6.	0.	-1344.2
245	4.68	6.	0.	-587.84
246	1.17	6.	0.	-1288.5
247	2.34	6.	0.	-1316.2
248	3.51	6.	0.	-791.06
249	4.8467	5.5	0.1	83.549
250	4.8467	5.	0.1	-425.6
251	4.8467	4.5	0.1	-434.31
252	4.8467	4.	0.1	453.4
253	4.68	4.	0.1	179.1
254	4.68	4.5	0.1	-104.48
255	4.68	5.	0.1	-318.59
256	4.68	5.5	0.1	119.22
257	4.8467	0.5	0.1	87.04
258	4.8467	1.	0.1	71.313
259	4.8467	1.5	0.1	-113.21
260	4.8467	2.	0.1	-659.61
261	4.68	2.	0.1	270.05
262	4.68	1.5	0.1	-395.3
263	4.68	1.	0.1	-265.95
264	4.68	0.5	0.1	123.1
265	4.8467	6.	0.1	58.191
266	5.9733	6.	0.1	-1.505
267	7.1	6.	0.1	-48.776
268	8.2267	6.	0.1	-48.141
269	9.3533	6.	0.1	-0.14015
270	10.48	6.	0.1	-5.7012
271	11.607	6.	0.1	-6.927
272	12.733	6.	0.1	-7.5749
273	13.86	6.	0.1	-8.6293
274	14.987	6.	0.1	-9.9405
275	16.113	6.	0.1	-10.869
276	17.24	6.	0.1	-11.241
277	18.367	6.	0.1	-11.199
278	19.493	6.	0.1	-10.888
279	20.62	6.	0.1	-10.275
280	21.747	6.	0.1	-9.2397
281	22.873	6.	0.1	-7.5926
282	24.	6.	0.1	-5.1193
283	24.	4.8	0.1	-6.8024
284	24.	3.6	0.1	-10.059
285	24.	2.4	0.1	-10.074
286	24.	1.2	0.1	-6.7806
287	1.049e-014	1.2	0.1	987.24
288	2.0981e-014	2.4	0.1	1004.2
289	3.1471e-014	3.6	0.1	982.25
290	4.1961e-014	4.8	0.1	923.85
291	24.	0.	0.1	-5.1076
292	22.873	0.	0.1	-7.574
293	21.747	0.	0.1	-9.3
294	20.62	0.	0.1	-10.095
295	19.493	0.	0.1	-10.614
296	18.367	0.	0.1	-10.696
297	17.24	0.	0.1	-10.52
298	16.113	0.	0.1	-10.283
299	14.987	0.	0.1	-9.5178
300	13.86	0.	0.1	-8.7911
301	12.733	0.	0.1	-7.4927
302	11.607	0.	0.1	-6.4221
303	10.48	0.	0.1	-5.6026
304	9.3533	0.	0.1	-4.1916
305	8.2267	0.	0.1	-3.5921
306	7.1	0.	0.1	-39.434
307	5.9733	0.	0.1	-55.424
308	4.8467	0.	0.1	71.243
309	4.68	0.	0.1	86.068
310	3.51	-1.6378e-030	0.1	-27.933
311	2.34	-1.0919e-030	0.1	-57.288
312	1.17	-5.4593e-031	0.1	-233.78
313	0.	0.	0.1	680.8
314	3.937e-014	6.	0.1	593.99
315	1.17	6.	0.1	-182.83
316	2.34	6.	0.1	-21.371
317	3.51	6.	0.1	-47.666
318	4.68	6.	0.1	115.96
319	3.8781	3.0514	0.	-1775.8
320	4.8418	2.5461	0.	-1814.7
321	4.6808	3.0243	0.	-1982.3
322	4.5514	2.8697	5.e-002	-42.601
323	4.6157	2.4349	0.	-2670.1
324	6.0548	3.5215	0.	-1087.2
325	5.108	3.3312	0.	-1472.8
326	5.691	3.2217	0.	-1126.5
327	5.406	3.4835	5.e-002	-7.9235
328	5.1263	3.7417	0.	-2151.9
329	6.0716	1.9023	0.	-1036.9
330	5.4194	1.973	0.	-1316.2
331	5.8252	1.4552	0.	-899.43
332	5.7067	1.7235	5.e-002	-71.169
333	5.2767	1.6118	0.	-1345.
334	6.5347	3.8874	0.	-1061.1
335	6.9944	4.5014	0.	-917.28
336	6.1595	4.4673	0.	-983.92
337	6.3659	4.2153	5.e-002	-23.889
338	5.6063	4.1077	0.	-2140.3
339	3.1093	0.75833	0.	-1067.3
340	3.7363	0.83006	0.	-812.06
341	3.5919	0.60653	5.e-002	-41.39
342	4.136	0.55327	0.	-787.47
343	3.551	0.30327	0.	-861.6
344	6.6089	0.68476	0.	-670.71
345	5.9877	0.89044	0.	-672.28
346	6.0318	0.59398	5.e-002	-18.335
347	5.4392	0.54699	0.	-591.44
348	6.0026	0.29699	0.	-569.08
349	2.7699	4.7346	0.	-1220.1
350	2.257	4.0575	0.	-1256.6
351	3.3979	4.5935	0.	-953.12
352	3.1281	3.7503	0.	-1290.
353	3.0513	4.2677	5.e-002	-61.807
354	3.8657	4.3839	0.	-1300.3
355	6.2162	5.3704	0.	-692.6
356	5.6081	5.2809	0.	-604.06
357	5.7231	5.4754	5.e-002	-30.153
358	5.2849	5.4877	0.	-531.85
359	5.8482	5.7377	0.	-597.9
360	7.3048	3.5669	0.	-917.83
361	6.691	3.1924	0.	-1087.2
362	6.7036	3.5595	5.e-002	-20.03
363	3.0089	5.2914	0.	-1053.
364	3.6369	5.1502	0.	-787.1
365	3.5294	5.3813	5.e-002	-38.922
366	4.1047	5.4406	0.	-776.74
367	3.5197	5.6906	0.	-806.38
368	3.0692	1.2634	0.	-1187.8
369	3.6962	1.3351	0.	-921.77
370	3.3251	1.9107	0.	-1264.5
371	3.5118	1.6167	5.e-002	-67.939
372	4.0959	1.5583	0.	-1324.6
373	2.1577	1.2351	0.	-1267.
374	2.6266	0.91012	5.e-002	-24.408
375	2.4833	0.45506	0.	-1275.3
376	6.6916	1.8339	0.	-947.43
377	6.0433	2.3399	0.	-1173.5
378	6.5575	2.4532	0.	-1059.
379	6.4366	2.081	5.e-002	-16.241
380	1.8891	5.052	0.	-1279.3
381	2.4884	5.2015	5.e-002	-19.256
382	2.4142	5.6008	0.	-1298.5
383	1.6192	2.1561	0.	-1302.
384	2.4136	1.8824	0.	-1345.8
385	1.6889	1.5601	5.e-002	-39.189
386	0.84445	1.3801	0.	-1648.2
387	1.4295	0.78005	0.	-1260.6
388	7.0663	1.1811	0.	-808.15
389	7.6995	0.92756	0.	-728.85
390	7.1861	0.77553	5.e-002	-4.346
391	7.143	0.38777	0.	-726.44
392	7.4186	1.9549	0.	-808.49
393	6.4451	1.3868	0.	-798.52
394	6.9466	1.5867	5.e-002	-2.139
395	9.8086	1.2073	0.	-588.45
396	9.1834	1.8108	0.	-636.44
397	8.7198	1.1432	0.	-674.54
398	9.2266	1.2068	5.e-002	-4.5924
399	9.29	0.6034	0.	-628.
400	10.969	1.2008	0.	-500.88
401	10.361	1.8064	0.	-548.04
402	10.391	1.2077	5.e-002	-2.6413
403	10.435	0.60387	0.	-541.84
404	12.125	1.1866	0.	-417.56
405	11.53	1.7873	0.	-457.67
406	11.548	1.1939	5.e-002	-3.424
407	11.577	0.59695	0.	-455.83
408	13.269	1.1777	0.	-342.12
409	12.692	1.7663	0.	-377.46
410	12.702	1.1794	5.e-002	-3.2848
411	12.718	0.58969	0.	-376.91
412	14.403	1.1759	0.	-274.53
413	13.832	1.7666	0.	-305.9
414	13.835	1.1761	5.e-002	-3.0284
415	13.847	0.58804	0.	-305.41
416	15.533	1.1763	0.	-214.73
417	14.969	1.7664	0.	-242.22
418	14.972	1.1758	5.e-002	-2.6055
419	14.979	0.58788	0.	-241.76
420	16.658	1.178	0.	-162.63
421	16.093	1.7684	0.	-186.41
422	16.094	1.1769	5.e-002	-2.2962
423	16.103	0.58844	0.	-185.72
424	17.785	1.1808	0.	-117.94
425	17.221	1.7709	0.	-138.08
426	17.223	1.1791	5.e-002	-1.9633
427	17.231	0.58955	0.	-137.27
428	18.91	1.1827	0.	-80.629
429	18.346	1.7743	0.	-97.155
430	18.347	1.1825	5.e-002	-1.668
431	18.357	0.59123	0.	-96.207
432	20.04	1.1879	0.	-50.604
433	19.472	1.7769	0.	-63.624
434	19.474	1.183	5.e-002	-1.3245
435	19.484	0.59149	0.	-62.559
436	21.17	1.194	0.	-27.864
437	20.601	1.7903	0.	-37.359
438	20.607	1.1929	5.e-002	-1.0013
439	20.614	0.59645	0.	-36.145
440	22.301	1.1952	0.	-12.432
441	21.726	1.7971	0.	-18.422
442	21.733	1.1951	5.e-002	-0.68928
443	21.74	0.59756	0.	-17.009
444	22.864	1.7944	0.	-6.7128
445	22.869	1.1953	5.e-002	-0.44428
446	23.434	1.1976	0.	-4.3105
447	22.871	0.59763	0.	-5.1192
448	1.5061	3.2997	0.	-1337.
449	1.3763	4.3748	0.	-1315.3
450	1.4627	3.8472	5.e-002	-16.622
451	0.73135	3.7236	0.	-1677.9
452	2.3772	2.9926	0.	-1370.5
453	1.5496	2.7522	5.e-002	-8.521
454	0.7748	2.5761	0.	-1684.2
455	22.86	2.9977	0.	-7.0606
456	22.29	2.3963	0.	-12.996
457	22.86	2.3936	5.e-002	-0.42536
458	23.43	2.3968	0.	-5.1017
459	22.862	4.2056	0.	-6.7401
460	22.289	3.599	0.	-13.027
461	22.86	3.6018	5.e-002	-0.43216
462	23.43	3.6009	0.	-5.1066
463	22.298	4.8028	0.	-12.491
464	22.865	4.8093	5.e-002	-0.45276
465	22.869	5.4047	0.	-5.1468
466	23.432	4.8047	0.	-4.3263
467	21.164	4.7974	0.	-28.004
468	21.725	4.1962	0.	-18.479
469	21.732	4.7963	5.e-002	-0.70422
470	21.739	5.3981	0.	-17.01
471	20.033	4.7877	0.	-50.836
472	20.592	4.1926	0.	-37.56
473	20.597	4.7985	5.e-002	-1.0272
474	20.608	5.3993	0.	-36.275
475	18.905	4.7572	0.	-80.875
476	19.468	4.1752	0.	-63.828
477	19.469	4.7769	5.e-002	-1.3511
478	19.481	5.3885	0.	-62.704
479	17.778	4.7224	0.	-118.21
480	18.339	4.1427	0.	-97.435
481	18.341	4.7376	5.e-002	-1.6914
482	18.354	5.3688	0.	-96.281
483	16.653	4.6995	0.	-162.88
484	17.215	4.1218	0.	-138.38
485	17.215	4.7072	5.e-002	-2.0115
486	17.227	5.3536	0.	-137.29
487	15.529	4.6897	0.	-214.86
488	16.091	4.1093	0.	-186.61
489	16.092	4.6917	5.e-002	-2.3314
490	16.103	5.3458	0.	-185.75
491	14.402	4.7049	0.	-274.45
492	14.965	4.1047	0.	-242.27
493	14.966	4.6877	5.e-002	-2.626
494	14.977	5.3439	0.	-241.61
495	13.271	4.7417	0.	-341.93
496	13.836	4.1213	0.	-305.64
497	13.838	4.7221	5.e-002	-2.9814
498	13.849	5.361	0.	-305.19
499	12.128	4.7649	0.	-417.15
500	12.691	4.1582	0.	-377.4
501	12.703	4.7612	5.e-002	-3.2037
502	12.718	5.3806	0.	-376.83
503	10.959	4.7784	0.	-502.13
504	11.537	4.168	0.	-456.97
505	11.553	4.7686	5.e-002	-3.4139
506	11.58	5.3843	0.	-455.85
507	9.7337	4.7887	0.	-601.77
508	10.347	4.1932	0.	-549.2
509	10.365	4.7882	5.e-002	-1.5428
510	10.423	5.3941	0.	-546.97
511	8.3625	4.7883	0.	-713.24
512	9.0923	4.2253	0.	-655.75
513	9.102	4.7892	5.e-002	-2.7825
514	9.2277	5.3946	0.	-644.01
515	7.1662	5.0264	0.	-782.24
516	7.7645	4.1809	0.	-772.
517	7.623	4.7875	5.e-002	-14.758
518	7.9248	5.3937	0.	-732.81
519	6.3313	4.9923	0.	-849.79
520	6.7094	5.2654	5.e-002	-16.542
521	6.9047	5.6327	0.	-758.68
522	7.8984	2.9487	0.	-757.24
523	8.4943	3.6178	0.	-714.56
524	7.9061	3.5743	5.e-002	-2.7171
525	8.5155	2.369	0.	-691.08
526	7.2846	2.5742	0.	-926.58
527	8.0519	1.7013	0.	-729.26
528	7.8907	2.3231	5.e-002	-3.9256
529	9.736	2.4099	0.	-596.17
530	9.1114	3.0382	0.	-647.69
531	9.1402	2.4149	5.e-002	-6.612
532	10.922	2.3929	0.	-505.09
533	10.33	3.0016	0.	-551.29
534	10.332	2.405	5.e-002	-4.2927
535	12.096	2.367	0.	-417.93
536	11.516	2.9741	0.	-457.89
537	11.512	2.3808	5.e-002	-3.9805
538	13.255	2.3551	0.	-341.63
539	12.68	2.9542	0.	-377.39
540	12.681	2.3532	5.e-002	-3.1752
541	14.398	2.3571	0.	-273.98
542	13.832	2.9388	0.	-305.42
543	13.83	2.357	5.e-002	-2.9696
544	15.529	2.3585	0.	-214.32
545	14.965	2.9394	0.	-242.05
546	14.967	2.3571	5.e-002	-2.6626
547	16.656	2.3613	0.	-162.31
548	16.092	2.9434	0.	-186.32
549	16.092	2.3599	5.e-002	-2.2874
550	17.782	2.3644	0.	-117.74
551	17.217	2.9495	0.	-138.11
552	17.22	2.3627	5.e-002	-1.9887
553	18.908	2.3684	0.	-80.59
554	18.341	2.9569	0.	-97.249
555	18.345	2.3661	5.e-002	-1.6739
556	20.033	2.3793	0.	-50.807
557	19.469	2.9721	0.	-63.755
558	19.471	2.3707	5.e-002	-1.327
559	21.158	2.3934	0.	-28.304
560	20.591	2.9873	0.	-37.651
561	20.596	2.3878	5.e-002	-1.0063
562	21.719	2.9976	0.	-18.769
563	21.72	2.399	5.e-002	-0.69718
564	21.152	3.5914	0.	-28.425
565	21.718	3.5962	5.e-002	-0.69616
566	20.027	3.5801	0.	-50.974
567	20.586	3.5867	5.e-002	-1.0022
568	18.903	3.5606	0.	-80.82
569	19.468	3.5735	5.e-002	-1.2917
570	17.776	3.542	0.	-118.03
571	18.337	3.5478	5.e-002	-1.6488
572	16.653	3.5316	0.	-162.53
573	17.214	3.5363	5.e-002	-2.0276
574	15.527	3.5243	0.	-214.45
575	16.091	3.527	5.e-002	-2.366
576	14.398	3.5211	0.	-273.87
577	14.963	3.5216	5.e-002	-2.7405
578	13.256	3.5379	0.	-341.49
579	13.833	3.5206	5.e-002	-2.912
580	12.1	3.5613	0.	-417.57
581	12.679	3.5552	5.e-002	-3.0259
582	10.924	3.5828	0.	-504.28
583	11.521	3.5674	5.e-002	-4.1848
584	9.7053	3.6299	0.	-603.21
585	10.328	3.5983	5.e-002	-4.2559
586	9.0825	3.6614	5.e-002	-6.0735
587	5.7232	4.9029	0.	-751.35
588	5.4931	5.0865	5.e-002	-19.675
589	5.1699	5.0432	0.	-734.71
590	5.9532	4.7192	5.e-002	-70.388
591	5.3999	4.6096	0.	-929.93
592	3.8806	1.0536	5.e-002	-9.9132
593	4.2803	1.0268	0.	-980.51
594	3.1715	2.7189	0.	-1411.
595	3.1383	2.2047	5.e-002	-48.78
596	3.9091	2.1024	0.	-2319.1
597	1.2898	4.9025	5.e-002	-15.756
598	0.64491	4.8512	0.	-1573.7
599	1.2299	5.4512	0.	-1279.2
600	3.7445	4.9192	5.e-002	-26.193
601	4.2122	4.9596	0.	-1029.4
602	3.2048	3.233	5.e-002	-68.543
603	3.9424	3.6165	0.	-2835.9
604	5.3911	2.4106	0.	-1440.5
605	5.1322	2.2225	5.e-002	-51.158
606	4.9894	2.1113	0.	-3031.4
607	5.9437	1.1869	5.e-002	-18.979
608	5.3952	1.0935	0.	-820.43
609	5.23	2.8888	0.	-1568.6
610	4.8101	3.1789	5.e-002	-46.433
611	4.745	3.5895	0.	-3006.2
612	5.813	2.7793	0.	-1241.9
613	5.6499	2.5987	5.e-002	-55.344
614	6.3272	2.8926	0.	-1128.5
615	5.976	2.9599	5.e-002	-22.186
616	6.6785	2.8253	5.e-002	-26.556
617	8.213	1.0796	5.e-002	-4.2173
618	8.2198	0.53979	0.	-708.68
619	8.0519	1.7013	0.1	11.349
620	8.7198	1.1432	0.1	-0.45809
621	7.6995	0.92756	0.1	-10.72
622	8.2198	0.53979	0.1	0.30015
623	6.3272	2.8926	0.1	-71.32
624	7.2846	2.5742	0.1	24.179
625	6.5575	2.4532	0.1	-0.23166
626	6.691	3.1924	0.1	20.946
627	5.813	2.7793	0.1	-118.31
628	5.691	3.2217	0.1	-182.16
629	5.23	2.8888	0.1	-188.45
630	5.3911	2.4106	0.1	-309.93
631	6.0433	2.3399	0.1	-36.501
632	5.108	3.3312	0.1	-285.5
633	4.6808	3.0243	0.1	-203.12
634	4.745	3.5895	0.1	52.971
635	6.4451	1.3868	0.1	-32.866
636	5.9877	0.89044	0.1	-91.724
637	5.8252	1.4552	0.1	-52.639
638	5.3952	1.0935	0.1	43.865
639	5.4194	1.973	0.1	-210.93
640	4.8418	2.5461	0.1	-291.34
641	4.9894	2.1113	0.1	-530.76
642	3.1715	2.7189	0.1	92.328
643	2.3772	2.9926	0.1	-91.294
644	3.1281	3.7503	0.1	79.685
645	3.8781	3.0514	0.1	39.166
646	3.9424	3.6165	0.1	297.45
647	3.6369	5.1502	0.1	-90.863
648	3.3979	4.5935	0.1	-28.71
649	4.2122	4.9596	0.1	-169.74
650	1.3763	4.3748	0.1	-298.8
651	1.8891	5.052	0.1	-148.53
652	0.64491	4.8512	0.1	319.43
653	1.2299	5.4512	0.1	-236.04
654	2.4136	1.8824	0.1	-109.88
655	3.3251	1.9107	0.1	-31.959
656	3.9091	2.1024	0.1	264.24
657	3.6962	1.3351	0.1	-97.587
658	3.7363	0.83006	0.1	-142.59
659	4.2803	1.0268	0.1	-180.42
660	5.7232	4.9029	0.1	-98.609
661	6.3313	4.9923	0.1	-56.145
662	6.1595	4.4673	0.1	-29.623
663	5.3999	4.6096	0.1	-199.48
664	5.6081	5.2809	0.1	-95.294
665	5.1699	5.0432	0.1	-220.71
666	9.7053	3.6299	0.1	-3.6604
667	9.1114	3.0382	0.1	-7.7798
668	8.4943	3.6178	0.1	11.033
669	9.0923	4.2253	0.1	-9.0573
670	10.924	3.5828	0.1	1.3128
671	10.33	3.0016	0.1	1.5746
672	10.347	4.1932	0.1	4.7295
673	12.1	3.5613	0.1	0.40977
674	11.516	2.9741	0.1	0.27148
675	11.537	4.168	0.1	-0.22119
676	13.256	3.5379	0.1	-4.0113
677	12.68	2.9542	0.1	-2.0509
678	12.691	4.1582	0.1	-2.3184
679	14.398	3.5211	0.1	-6.9627
680	13.832	2.9388	0.1	-5.6919
681	13.836	4.1213	0.1	-5.3341
682	15.527	3.5243	0.1	-8.5667
683	14.965	2.9394	0.1	-7.749
684	14.965	4.1047	0.1	-7.162
685	16.653	3.5316	0.1	-9.482
686	16.092	2.9434	0.1	-8.9515
687	16.091	4.1093	0.1	-8.1684
688	17.776	3.542	0.1	-10.036
689	17.217	2.9495	0.1	-9.6633
690	17.215	4.1218	0.1	-8.7657
691	18.903	3.5606	0.1	-10.331
692	18.341	2.9569	0.1	-10.064
693	18.339	4.1427	0.1	-9.1106
694	20.027	3.5801	0.1	-10.509
695	19.469	2.9721	0.1	-10.253
696	19.468	4.1752	0.1	-9.2269
697	21.152	3.5914	0.1	-10.628
698	20.591	2.9873	0.1	-10.416
699	20.592	4.1926	0.1	-9.2852
700	21.719	2.9976	0.1	-10.546
701	21.725	4.1962	0.1	-9.2701
702	22.289	3.599	0.1	-10.655
703	21.158	2.3934	0.1	-10.649
704	22.29	2.3963	0.1	-10.671
705	21.726	1.7971	0.1	-9.2838
706	20.033	2.3793	0.1	-10.543
707	20.601	1.7903	0.1	-9.3236
708	18.908	2.3684	0.1	-10.402
709	19.472	1.7769	0.1	-9.2783
710	17.782	2.3644	0.1	-10.115
711	18.346	1.7743	0.1	-9.1547
712	16.656	2.3613	0.1	-9.5494
713	17.221	1.7709	0.1	-8.7993
714	15.529	2.3585	0.1	-8.5334
715	16.093	1.7684	0.1	-8.2142
716	14.398	2.3571	0.1	-6.8608
717	14.969	1.7664	0.1	-7.0879
718	13.255	2.3551	0.1	-4.057
719	13.832	1.7666	0.1	-5.3915
720	12.096	2.367	0.1	0.73726
721	12.692	1.7663	0.1	-2.5807
722	10.922	2.3929	0.1	0.49173
723	11.53	1.7873	0.1	1.1243
724	9.736	2.4099	0.1	-2.6772
725	10.361	1.8064	0.1	1.0969
726	8.5155	2.369	0.1	6.8209
727	9.1834	1.8108	0.1	-4.994
728	7.8984	2.9487	0.1	25.762
729	7.4186	1.9549	0.1	-8.6264
730	7.7645	4.1809	0.1	15.579
731	7.3048	3.5669	0.1	23.918
732	7.1662	5.0264	0.1	-2.0913
733	6.2162	5.3704	0.1	-38.446
734	6.9047	5.6327	0.1	-34.935
735	8.3625	4.7883	0.1	-4.2071
736	6.9944	4.5014	0.1	17.26
737	7.9248	5.3937	0.1	3.8191
738	9.7337	4.7887	0.1	-0.65186
739	9.2277	5.3946	0.1	-3.65
740	10.959	4.7784	0.1	3.211
741	10.423	5.3941	0.1	0.86892
742	12.128	4.7649	0.1	-1.7982
743	11.58	5.3843	0.1	-3.5615
744	13.271	4.7417	0.1	-4.0315
745	12.718	5.3806	0.1	-5.0072
746	14.402	4.7049	0.1	-5.9412
747	13.849	5.361	0.1	-6.6319
748	15.529	4.6897	0.1	-7.1894
749	14.977	5.3439	0.1	-8.092
750	16.653	4.6995	0.1	-7.882
751	16.103	5.3458	0.1	-8.9827
752	17.778	4.7224	0.1	-8.2757
753	17.227	5.3536	0.1	-9.4235
754	18.905	4.7572	0.1	-8.4449
755	18.354	5.3688	0.1	-9.5554
756	20.033	4.7877	0.1	-8.4326
757	19.481	5.3885	0.1	-9.4319
758	21.164	4.7974	0.1	-8.3237
759	20.608	5.3993	0.1	-9.0891
760	22.298	4.8028	0.1	-7.9267
761	21.739	5.3981	0.1	-8.5092
762	22.862	4.2056	0.1	-9.0038
763	22.869	5.4047	0.1	-7.3693
764	23.432	4.8047	0.1	-7.1611
765	22.86	2.9977	0.1	-10.576
766	23.43	3.6009	0.1	-10.351
767	22.864	1.7944	0.1	-9.0194
768	23.43	2.3968	0.1	-10.354
769	1.5061	3.2997	0.1	-310.34
770	1.6192	2.1561	0.1	-287.65
771	0.7748	2.5761	0.1	348.58
772	2.257	4.0575	0.1	-124.21
773	0.73135	3.7236	0.1	340.78
774	22.301	1.1952	0.1	-7.9347
775	23.434	1.1976	0.1	-7.1701
776	22.871	0.59763	0.1	-7.3808
777	21.17	1.194	0.1	-8.351
778	21.74	0.59756	0.1	-8.5204
779	20.04	1.1879	0.1	-8.4927
780	20.614	0.59645	0.1	-9.051
781	18.91	1.1827	0.1	-8.4772
782	19.484	0.59149	0.1	-9.3339
783	17.785	1.1808	0.1	-8.2865
784	18.357	0.59123	0.1	-9.3471
785	16.658	1.178	0.1	-7.9087
786	17.231	0.58955	0.1	-9.1054
787	15.533	1.1763	0.1	-7.1994
788	16.103	0.58844	0.1	-8.7651
789	14.403	1.1759	0.1	-6.0243
790	14.979	0.58788	0.1	-7.9029
791	13.269	1.1777	0.1	-4.3012
792	13.847	0.58804	0.1	-6.855
793	12.125	1.1866	0.1	-1.8756
794	12.718	0.58969	0.1	-5.1812
795	10.969	1.2008	0.1	1.8583
796	11.577	0.59695	0.1	-3.2513
797	9.8086	1.2073	0.1	-1.234
798	10.435	0.60387	0.1	-0.16245
799	9.29	0.6034	0.1	-1.3981
800	7.0663	1.1811	0.1	-28.377
801	6.6916	1.8339	0.1	-33.689
802	6.6089	0.68476	0.1	-49.602
803	7.143	0.38777	0.1	-34.052
804	2.1577	1.2351	0.1	-120.21
805	0.84445	1.3801	0.1	366.85
806	1.4295	0.78005	0.1	-245.82
807	3.0089	5.2914	0.1	-30.283
808	2.7699	4.7346	0.1	4.7257
809	2.4142	5.6008	0.1	-7.0518
810	6.0716	1.9023	0.1	-18.743
811	3.0692	1.2634	0.1	-41.986
812	3.1093	0.75833	0.1	-29.015
813	2.4833	0.45506	0.1	7.265
814	4.0959	1.5583	0.1	-173.45
815	4.1047	5.4406	0.1	61.714
816	3.5197	5.6906	0.1	-59.038
817	6.5347	3.8874	0.1	28.996
818	6.0548	3.5215	0.1	-119.95
819	5.2849	5.4877	0.1	42.08
820	5.8482	5.7377	0.1	-23.369
821	3.8657	4.3839	0.1	-23.457
822	5.4392	0.54699	0.1	34.029
823	6.0026	0.29699	0.1	-66.013
824	4.136	0.55327	0.1	40.81
825	3.551	0.30327	0.1	-82.697
826	5.6063	4.1077	0.1	322.36
827	5.2767	1.6118	0.1	8.0605
828	5.1263	3.7417	0.1	93.019
829	4.6157	2.4349	0.1	62.288
830	4.8467	4.25	0.	-2162.4
831	4.7633	4.	0.	-3477.7
832	4.8467	4.	5.e-002	-113.85
833	4.8467	4.75	0.	-990.05
834	4.8467	4.5	5.e-002	-46.111
835	4.8467	5.25	0.	-719.24
836	4.8467	5.	5.e-002	-184.26
837	4.8467	5.75	0.	-448.16
838	4.8467	5.5	5.e-002	-38.235
839	4.68	4.25	0.	-2836.3
840	4.68	4.	5.e-002	-216.57
841	4.68	5.25	0.	-1101.4
842	4.68	5.75	0.	-667.97
843	4.68	5.5	5.e-002	-61.892
844	4.68	4.75	0.	-1463.3
845	4.68	5.	5.e-002	-179.43
846	4.68	4.5	5.e-002	-101.88
847	4.8467	1.75	0.	-3020.4
848	4.7633	2.	0.	-3605.3
849	4.8467	2.	5.e-002	-417.59
850	4.8467	1.25	0.	-1349.5
851	4.8467	1.5	5.e-002	-152.85
852	4.8467	0.75	0.	-794.15
853	4.8467	1.	5.e-002	-53.997
854	4.8467	0.25	0.	-514.02
855	4.8467	0.5	5.e-002	-32.3
856	4.68	1.75	0.	-2408.
857	4.68	2.	5.e-002	-86.112
858	4.68	0.75	0.	-1002.8
859	4.68	0.25	0.	-653.26
860	4.68	0.5	5.e-002	-43.937
861	4.68	1.25	0.	-1445.3
862	4.68	1.	5.e-002	-146.74
863	4.68	1.5	5.e-002	-68.476
864	5.41	6.	0.	-519.23
865	4.8467	6.	5.e-002	-19.666
866	6.5367	6.	0.	-660.76
867	5.9733	6.	5.e-002	-11.267
868	7.6633	6.	0.	-709.1
869	7.1	6.	5.e-002	-15.718
870	8.79	6.	0.	-663.32
871	8.2267	6.	5.e-002	-18.985
872	9.9167	6.	0.	-589.04
873	9.3533	6.	5.e-002	-3.0991
874	11.043	6.	0.	-501.06
875	10.48	6.	5.e-002	-5.967
876	12.17	6.	0.	-415.99
877	11.607	6.	5.e-002	-7.2805
878	13.297	6.	0.	-340.57
879	12.733	6.	5.e-002	-7.0144
880	14.423	6.	0.	-272.83
881	13.86	6.	5.e-002	-6.0847
882	15.55	6.	0.	-212.99
883	14.987	6.	5.e-002	-5.2191
884	16.677	6.	0.	-160.66
885	16.113	6.	5.e-002	-4.6578
886	17.803	6.	0.	-115.85
887	17.24	6.	5.e-002	-4.0934
888	18.93	6.	0.	-78.561
889	18.367	6.	5.e-002	-3.5294
890	20.057	6.	0.	-48.578
891	19.493	6.	5.e-002	-2.9567
892	21.183	6.	0.	-25.708
893	20.62	6.	5.e-002	-2.2396
894	22.31	6.	0.	-10.099
895	21.747	6.	5.e-002	-1.4314
896	23.437	6.	0.	-1.7021
897	22.873	6.	5.e-002	-0.78111
898	24.	5.4	0.	-0.66031
899	24.	6.	5.e-002	-0.16005
900	24.	4.2	0.	-2.6148
901	24.	4.8	5.e-002	-0.29695
902	24.	3.	0.	-3.0912
903	24.	3.6	5.e-002	-0.32404
904	24.	1.8	0.	-2.6229
905	24.	2.4	5.e-002	-0.32315
906	24.	0.6	0.	-0.67667
907	24.	1.2	5.e-002	-0.3027
908	1.5735e-014	1.8	0.	-2031.
909	5.2451e-015	0.6	0.	-1759.9
910	1.0632e-014	1.2	5.e-002	-19.527
911	2.6226e-014	3.	0.	-2024.3
912	2.1264e-014	2.4	5.e-002	-9.0906
913	3.6716e-014	4.2	0.	-1940.9
914	3.1897e-014	3.6	5.e-002	-10.464
915	4.7206e-014	5.4	0.	-1593.2
916	4.2529e-014	4.8	5.e-002	-40.22
917	23.437	0.	0.	-1.7113
918	24.	0.	5.e-002	-0.16079
919	5.41	0.	0.	-478.15
920	4.8467	0.	5.e-002	-16.96
921	22.31	0.	0.	-10.136
922	22.873	0.	5.e-002	-0.78307
923	21.183	0.	0.	-25.706
924	21.747	0.	5.e-002	-1.4254
925	20.057	0.	0.	-48.505
926	20.62	0.	5.e-002	-2.1629
927	18.93	0.	0.	-78.538
928	19.493	0.	5.e-002	-2.9264
929	17.803	0.	0.	-115.94
930	18.367	0.	5.e-002	-3.6393
931	16.677	0.	0.	-160.77
932	17.24	0.	5.e-002	-4.352
933	15.55	0.	0.	-213.15
934	16.113	0.	5.e-002	-5.08
935	14.423	0.	0.	-273.03
936	14.987	0.	5.e-002	-5.7164
937	13.297	0.	0.	-340.59
938	13.86	0.	5.e-002	-6.3644
939	12.17	0.	0.	-415.56
940	12.733	0.	5.e-002	-6.9892
941	11.043	0.	0.	-497.17
942	11.607	0.	5.e-002	-7.664
943	9.9167	0.	0.	-581.71
944	10.48	0.	5.e-002	-7.4067
945	8.79	0.	0.	-662.44
946	9.3533	0.	5.e-002	-6.7713
947	7.6633	0.	0.	-706.42
948	8.2267	0.	5.e-002	-8.1605
949	6.5367	0.	0.	-620.47
950	7.1	0.	5.e-002	-6.8794
951	5.9733	0.	5.e-002	-5.9772
952	0.585	-2.7297e-031	0.	-1372.9
953	0.	0.	5.e-002	-119.15
954	4.095	-1.9108e-030	0.	-736.92
955	4.68	-2.1837e-030	5.e-002	-66.077
956	2.925	-1.3648e-030	0.	-1068.2
957	3.51	0.	5.e-002	-15.405
958	1.755	-8.189e-031	0.	-1272.6
959	2.34	0.	5.e-002	-46.99
960	1.17	0.	5.e-002	-21.296
961	0.585	6.	0.	-1295.3
962	5.2451e-014	6.	5.e-002	-181.45
963	4.095	6.	0.	-687.71
964	4.68	6.	5.e-002	-40.373
965	1.755	6.	0.	-1299.5
966	1.17	6.	5.e-002	-16.404
967	2.925	6.	0.	-1053.
968	2.34	6.	5.e-002	-28.897
969	3.51	6.	5.e-002	-6.4837
970	4.8467	5.25	0.1	-121.01
971	4.8467	5.75	0.1	73.365
972	4.8467	4.75	0.1	-402.16
973	4.8467	4.25	0.1	21.474
974	4.7633	4.	0.1	606.1
975	4.68	4.25	0.1	157.97
976	4.68	4.75	0.1	-148.35
977	4.68	5.25	0.1	-63.667
978	4.68	5.75	0.1	124.88
979	4.8467	0.75	0.1	80.168
980	4.8467	0.25	0.1	80.967
981	4.8467	1.25	0.1	-0.3679
982	4.8467	1.75	0.1	-297.04
983	4.7633	2.	0.1	50.384
984	4.68	1.75	0.1	-28.658
985	4.68	1.25	0.1	-315.57
986	4.68	0.75	0.1	-25.712
987	4.68	0.25	0.1	111.57
988	5.41	6.	0.1	28.614
989	6.5367	6.	0.1	-12.009
990	7.6633	6.	0.1	-48.303
991	8.79	6.	0.1	-19.248
992	9.9167	6.	0.1	0.14298
993	11.043	6.	0.1	-6.2622
994	12.17	6.	0.1	-7.2225
995	13.297	6.	0.1	-8.0824
996	14.423	6.	0.1	-9.2623
997	15.55	6.	0.1	-10.375
998	16.677	6.	0.1	-11.024
999	17.803	6.	0.1	-11.183
1000	18.93	6.	0.1	-10.993
1001	20.057	6.	0.1	-10.525
1002	21.183	6.	0.1	-9.7054
1003	22.31	6.	0.1	-8.3933
1004	23.437	6.	0.1	-6.3267
1005	24.	5.4	0.1	-5.8693
1006	24.	4.2	0.1	-8.4104
1007	24.	3.	0.1	-10.052
1008	24.	1.8	0.1	-8.4081
1009	24.	0.6	0.1	-5.8484
1010	1.5735e-014	1.8	0.1	995.75
1011	5.2451e-015	0.6	0.1	846.63
1012	2.6226e-014	3.	0.1	999.38
1013	3.6716e-014	4.2	0.1	953.44
1014	4.7206e-014	5.4	0.1	778.67
1015	23.437	0.	0.1	-6.3128
1016	22.31	0.	0.1	-8.4148
1017	21.183	0.	0.1	-9.641
1018	20.057	0.	0.1	-10.301
1019	18.93	0.	0.1	-10.607
1020	17.803	0.	0.1	-10.571
1021	16.677	0.	0.1	-10.371
1022	15.55	0.	0.1	-9.8727
1023	14.423	0.	0.1	-9.1295
1024	13.297	0.	0.1	-8.1184
1025	12.17	0.	0.1	-6.9298
1026	11.043	0.	0.1	-5.9673
1027	9.9167	0.	0.1	-4.8462
1028	8.79	0.	0.1	-3.8571
1029	7.6633	0.	0.1	-21.439
1030	6.5367	0.	0.1	-46.428
1031	5.41	0.	0.1	27.527
1032	4.095	-1.9108e-030	0.1	51.804
1033	2.925	-1.3648e-030	0.1	-42.593
1034	1.755	-8.189e-031	0.1	-113.71
1035	0.585	-2.7297e-031	0.1	252.08
1036	0.585	6.	0.1	219.56
1037	1.755	6.	0.1	-84.678
1038	2.925	6.	0.1	-31.881
1039	4.095	6.	0.1	47.99
