Node Number	X Location (in)	Y Location (in)	Z Location (in)	Equivalent (von-Mises) Stress (psi)
1	8.	2.1818	0.	14883
2	8.	2.3636	0.	11789
3	8.	2.5455	0.	10395
4	8.	2.7273	0.	9672.4
5	8.	2.9091	0.	9364.
6	8.	3.0909	0.	9364.
7	8.	3.2727	0.	9672.4
8	8.	3.4545	0.	10395
9	8.	3.6364	0.	11789
10	8.	3.8182	0.	14883
11	8.1667	2.1818	0.	14715
12	8.1667	2.3636	0.	11729
13	8.1667	2.5455	0.	10333
14	8.1667	2.7273	0.	9611.7
15	8.1667	2.9091	0.	9303.3
16	8.1667	3.0909	0.	9303.3
17	8.1667	3.2727	0.	9611.7
18	8.1667	3.4545	0.	10333
19	8.1667	3.6364	0.	11729
20	8.1667	3.8182	0.	14715
21	7.8182	5.8182	0.	848.79
22	7.8182	5.6364	0.	1244.2
23	7.8182	5.4545	0.	1741.6
24	7.8182	5.2727	0.	2299.7
25	7.8182	5.0909	0.	2932.1
26	7.8182	4.9091	0.	3670.6
27	7.8182	4.7273	0.	4572.
28	7.8182	4.5455	0.	5736.6
29	7.8182	4.3636	0.	7399.
30	7.8182	4.1818	0.	9850.9
31	7.8182	4.	0.	11718
32	7.8182	3.8182	0.	11090
33	7.8182	3.6364	0.	10392
34	7.8182	3.4545	0.	9642.3
35	7.8182	3.2727	0.	9206.2
36	7.8182	3.0909	0.	8999.3
37	7.8182	2.9091	0.	8999.3
38	7.8182	2.7273	0.	9206.2
39	7.8182	2.5455	0.	9642.3
40	7.8182	2.3636	0.	10392
41	7.8182	2.1818	0.	11090
42	7.8182	2.	0.	11718
43	7.8182	1.8182	0.	9850.9
44	7.8182	1.6364	0.	7399.
45	7.8182	1.4545	0.	5736.6
46	7.8182	1.2727	0.	4572.
47	7.8182	1.0909	0.	3670.6
48	7.8182	0.90909	0.	2932.1
49	7.8182	0.72727	0.	2299.7
50	7.8182	0.54545	0.	1741.6
51	7.8182	0.36364	0.	1244.2
52	7.8182	0.18182	0.	848.79
53	7.6364	5.8182	0.	1289.7
54	7.6364	5.6364	0.	1499.6
55	7.6364	5.4545	0.	1852.5
56	7.6364	5.2727	0.	2298.5
57	7.6364	5.0909	0.	2827.
58	7.6364	4.9091	0.	3447.7
59	7.6364	4.7273	0.	4186.9
60	7.6364	4.5455	0.	5064.3
61	7.6364	4.3636	0.	6112.2
62	7.6364	4.1818	0.	7199.8
63	7.6364	4.	0.	7902.3
64	7.6364	3.8182	0.	8435.5
65	7.6364	3.6364	0.	8587.1
66	7.6364	3.4545	0.	8530.9
67	7.6364	3.2727	0.	8411.1
68	7.6364	3.0909	0.	8337.1
69	7.6364	2.9091	0.	8337.1
70	7.6364	2.7273	0.	8411.1
71	7.6364	2.5455	0.	8530.9
72	7.6364	2.3636	0.	8587.1
73	7.6364	2.1818	0.	8435.5
74	7.6364	2.	0.	7902.3
75	7.6364	1.8182	0.	7199.8
76	7.6364	1.6364	0.	6112.2
77	7.6364	1.4545	0.	5064.3
78	7.6364	1.2727	0.	4186.9
79	7.6364	1.0909	0.	3447.7
80	7.6364	0.90909	0.	2827.
81	7.6364	0.72727	0.	2298.5
82	7.6364	0.54545	0.	1852.5
83	7.6364	0.36364	0.	1499.6
84	7.6364	0.18182	0.	1289.7
85	7.4545	5.8182	0.	1765.5
86	7.4545	5.6364	0.	1917.8
87	7.4545	5.4545	0.	2183.7
88	7.4545	5.2727	0.	2542.
89	7.4545	5.0909	0.	2982.3
90	7.4545	4.9091	0.	3501.2
91	7.4545	4.7273	0.	4097.5
92	7.4545	4.5455	0.	4765.6
93	7.4545	4.3636	0.	5452.3
94	7.4545	4.1818	0.	6087.6
95	7.4545	4.	0.	6617.
96	7.4545	3.8182	0.	7032.3
97	7.4545	3.6364	0.	7345.8
98	7.4545	3.4545	0.	7506.4
99	7.4545	3.2727	0.	7567.5
100	7.4545	3.0909	0.	7583.3
101	7.4545	2.9091	0.	7583.3
102	7.4545	2.7273	0.	7567.5
103	7.4545	2.5455	0.	7506.4
104	7.4545	2.3636	0.	7345.8
105	7.4545	2.1818	0.	7032.3
106	7.4545	2.	0.	6617.
107	7.4545	1.8182	0.	6087.6
108	7.4545	1.6364	0.	5452.3
109	7.4545	1.4545	0.	4765.6
110	7.4545	1.2727	0.	4097.5
111	7.4545	1.0909	0.	3501.2
112	7.4545	0.90909	0.	2982.3
113	7.4545	0.72727	0.	2542.
114	7.4545	0.54545	0.	2183.7
115	7.4545	0.36364	0.	1917.8
116	7.4545	0.18182	0.	1765.5
117	7.2727	5.8182	0.	2207.4
118	7.2727	5.6364	0.	2338.1
119	7.2727	5.4545	0.	2551.4
120	7.2727	5.2727	0.	2839.5
121	7.2727	5.0909	0.	3196.4
122	7.2727	4.9091	0.	3614.3
123	7.2727	4.7273	0.	4081.5
124	7.2727	4.5455	0.	4577.6
125	7.2727	4.3636	0.	5070.3
126	7.2727	4.1818	0.	5517.
127	7.2727	4.	0.	5908.4
128	7.2727	3.8182	0.	6244.7
129	7.2727	3.6364	0.	6517.4
130	7.2727	3.4545	0.	6714.7
131	7.2727	3.2727	0.	6832.2
132	7.2727	3.0909	0.	6884.7
133	7.2727	2.9091	0.	6884.7
134	7.2727	2.7273	0.	6832.2
135	7.2727	2.5455	0.	6714.7
136	7.2727	2.3636	0.	6517.4
137	7.2727	2.1818	0.	6244.7
138	7.2727	2.	0.	5908.4
139	7.2727	1.8182	0.	5517.
140	7.2727	1.6364	0.	5070.3
141	7.2727	1.4545	0.	4577.6
142	7.2727	1.2727	0.	4081.5
143	7.2727	1.0909	0.	3614.3
144	7.2727	0.90909	0.	3196.4
145	7.2727	0.72727	0.	2839.5
146	7.2727	0.54545	0.	2551.4
147	7.2727	0.36364	0.	2338.1
148	7.2727	0.18182	0.	2207.4
149	7.0909	5.8182	0.	2604.9
150	7.0909	5.6364	0.	2723.1
151	7.0909	5.4545	0.	2900.4
152	7.0909	5.2727	0.	3133.5
153	7.0909	5.0909	0.	3418.6
154	7.0909	4.9091	0.	3747.5
155	7.0909	4.7273	0.	4107.1
156	7.0909	4.5455	0.	4478.7
157	7.0909	4.3636	0.	4839.2
158	7.0909	4.1818	0.	5171.3
159	7.0909	4.	0.	5467.7
160	7.0909	3.8182	0.	5729.9
161	7.0909	3.6364	0.	5954.3
162	7.0909	3.4545	0.	6129.
163	7.0909	3.2727	0.	6246.
164	7.0909	3.0909	0.	6303.7
165	7.0909	2.9091	0.	6303.7
166	7.0909	2.7273	0.	6246.
167	7.0909	2.5455	0.	6129.
168	7.0909	2.3636	0.	5954.3
169	7.0909	2.1818	0.	5729.9
170	7.0909	2.	0.	5467.7
171	7.0909	1.8182	0.	5171.3
172	7.0909	1.6364	0.	4839.2
173	7.0909	1.4545	0.	4478.7
174	7.0909	1.2727	0.	4107.1
175	7.0909	1.0909	0.	3747.5
176	7.0909	0.90909	0.	3418.6
177	7.0909	0.72727	0.	3133.5
178	7.0909	0.54545	0.	2900.4
179	7.0909	0.36364	0.	2723.1
180	7.0909	0.18182	0.	2604.9
181	6.9091	5.8182	0.	2956.4
182	6.9091	5.6364	0.	3063.5
183	6.9091	5.4545	0.	3212.3
184	6.9091	5.2727	0.	3401.
185	6.9091	5.0909	0.	3626.8
186	6.9091	4.9091	0.	3882.4
187	6.9091	4.7273	0.	4156.9
188	6.9091	4.5455	0.	4436.1
189	6.9091	4.3636	0.	4705.8
190	6.9091	4.1818	0.	4955.9
191	6.9091	4.	0.	5182.4
192	6.9091	3.8182	0.	5384.6
193	6.9091	3.6364	0.	5559.5
194	6.9091	3.4545	0.	5700.1
195	6.9091	3.2727	0.	5798.1
196	6.9091	3.0909	0.	5848.2
197	6.9091	2.9091	0.	5848.2
198	6.9091	2.7273	0.	5798.1
199	6.9091	2.5455	0.	5700.1
200	6.9091	2.3636	0.	5559.5
201	6.9091	2.1818	0.	5384.6
202	6.9091	2.	0.	5182.4
203	6.9091	1.8182	0.	4955.9
204	6.9091	1.6364	0.	4705.8
205	6.9091	1.4545	0.	4436.1
206	6.9091	1.2727	0.	4156.9
207	6.9091	1.0909	0.	3882.4
208	6.9091	0.90909	0.	3626.8
209	6.9091	0.72727	0.	3401.
210	6.9091	0.54545	0.	3212.3
211	6.9091	0.36364	0.	3063.5
212	6.9091	0.18182	0.	2956.4
213	6.7273	5.8182	0.	3263.7
214	6.7273	5.6364	0.	3358.7
215	6.7273	5.4545	0.	3483.
216	6.7273	5.2727	0.	3635.
217	6.7273	5.0909	0.	3812.4
218	6.7273	4.9091	0.	4009.5
219	6.7273	4.7273	0.	4217.9
220	6.7273	4.5455	0.	4428.
221	6.7273	4.3636	0.	4630.5
222	6.7273	4.1818	0.	4819.3
223	6.7273	4.	0.	4991.4
224	6.7273	3.8182	0.	5145.5
225	6.7273	3.6364	0.	5279.1
226	6.7273	3.4545	0.	5387.1
227	6.7273	3.2727	0.	5463.4
228	6.7273	3.0909	0.	5502.8
229	6.7273	2.9091	0.	5502.8
230	6.7273	2.7273	0.	5463.4
231	6.7273	2.5455	0.	5387.1
232	6.7273	2.3636	0.	5279.1
233	6.7273	2.1818	0.	5145.5
234	6.7273	2.	0.	4991.4
235	6.7273	1.8182	0.	4819.3
236	6.7273	1.6364	0.	4630.5
237	6.7273	1.4545	0.	4428.
238	6.7273	1.2727	0.	4217.9
239	6.7273	1.0909	0.	4009.5
240	6.7273	0.90909	0.	3812.4
241	6.7273	0.72727	0.	3635.
242	6.7273	0.54545	0.	3483.
243	6.7273	0.36364	0.	3358.7
244	6.7273	0.18182	0.	3263.7
245	6.5455	5.8182	0.	3530.5
246	6.5455	5.6364	0.	3612.6
247	6.5455	5.4545	0.	3715.
248	6.5455	5.2727	0.	3836.3
249	6.5455	5.0909	0.	3974.5
250	6.5455	4.9091	0.	4125.3
251	6.5455	4.7273	0.	4282.7
252	6.5455	4.5455	0.	4440.3
253	6.5455	4.3636	0.	4592.
254	6.5455	4.1818	0.	4733.8
255	6.5455	4.	0.	4863.3
256	6.5455	3.8182	0.	4979.2
257	6.5455	3.6364	0.	5079.2
258	6.5455	3.4545	0.	5159.9
259	6.5455	3.2727	0.	5217.
260	6.5455	3.0909	0.	5246.6
261	6.5455	2.9091	0.	5246.6
262	6.5455	2.7273	0.	5217.
263	6.5455	2.5455	0.	5159.9
264	6.5455	2.3636	0.	5079.2
265	6.5455	2.1818	0.	4979.2
266	6.5455	2.	0.	4863.3
267	6.5455	1.8182	0.	4733.8
268	6.5455	1.6364	0.	4592.
269	6.5455	1.4545	0.	4440.3
270	6.5455	1.2727	0.	4282.7
271	6.5455	1.0909	0.	4125.3
272	6.5455	0.90909	0.	3974.5
273	6.5455	0.72727	0.	3836.3
274	6.5455	0.54545	0.	3715.
275	6.5455	0.36364	0.	3612.6
276	6.5455	0.18182	0.	3530.5
277	6.3636	5.8182	0.	3761.3
278	6.3636	5.6364	0.	3830.3
279	6.3636	5.4545	0.	3913.2
280	6.3636	5.2727	0.	4008.6
281	6.3636	5.0909	0.	4115.
282	6.3636	4.9091	0.	4229.3
283	6.3636	4.7273	0.	4347.2
284	6.3636	4.5455	0.	4464.4
285	6.3636	4.3636	0.	4577.
286	6.3636	4.1818	0.	4682.3
287	6.3636	4.	0.	4778.5
288	6.3636	3.8182	0.	4864.2
289	6.3636	3.6364	0.	4937.8
290	6.3636	3.4545	0.	4996.8
291	6.3636	3.2727	0.	5038.4
292	6.3636	3.0909	0.	5059.9
293	6.3636	2.9091	0.	5059.9
294	6.3636	2.7273	0.	5038.4
295	6.3636	2.5455	0.	4996.8
296	6.3636	2.3636	0.	4937.8
297	6.3636	2.1818	0.	4864.2
298	6.3636	2.	0.	4778.5
299	6.3636	1.8182	0.	4682.3
300	6.3636	1.6364	0.	4577.
301	6.3636	1.4545	0.	4464.4
302	6.3636	1.2727	0.	4347.2
303	6.3636	1.0909	0.	4229.3
304	6.3636	0.90909	0.	4115.
305	6.3636	0.72727	0.	4008.6
306	6.3636	0.54545	0.	3913.2
307	6.3636	0.36364	0.	3830.3
308	6.3636	0.18182	0.	3761.3
309	6.1818	5.8182	0.	3961.2
310	6.1818	5.6364	0.	4017.3
311	6.1818	5.4545	0.	4082.7
312	6.1818	5.2727	0.	4156.4
313	6.1818	5.0909	0.	4237.1
314	6.1818	4.9091	0.	4322.3
315	6.1818	4.7273	0.	4409.3
316	6.1818	4.5455	0.	4495.3
317	6.1818	4.3636	0.	4577.7
318	6.1818	4.1818	0.	4654.6
319	6.1818	4.	0.	4724.6
320	6.1818	3.8182	0.	4786.7
321	6.1818	3.6364	0.	4839.7
322	6.1818	3.4545	0.	4881.9
323	6.1818	3.2727	0.	4911.5
324	6.1818	3.0909	0.	4926.8
325	6.1818	2.9091	0.	4926.8
326	6.1818	2.7273	0.	4911.5
327	6.1818	2.5455	0.	4881.9
328	6.1818	2.3636	0.	4839.7
329	6.1818	2.1818	0.	4786.7
330	6.1818	2.	0.	4724.6
331	6.1818	1.8182	0.	4654.6
332	6.1818	1.6364	0.	4577.7
333	6.1818	1.4545	0.	4495.3
334	6.1818	1.2727	0.	4409.3
335	6.1818	1.0909	0.	4322.3
336	6.1818	0.90909	0.	4237.1
337	6.1818	0.72727	0.	4156.4
338	6.1818	0.54545	0.	4082.7
339	6.1818	0.36364	0.	4017.3
340	6.1818	0.18182	0.	3961.2
341	6.	5.8182	0.	4134.8
342	6.	5.6364	0.	4178.6
343	6.	5.4545	0.	4228.8
344	6.	5.2727	0.	4284.2
345	6.	5.0909	0.	4343.7
346	6.	4.9091	0.	4405.9
347	6.	4.7273	0.	4468.7
348	6.	4.5455	0.	4530.3
349	6.	4.3636	0.	4589.1
350	6.	4.1818	0.	4643.7
351	6.	4.	0.	4693.3
352	6.	3.8182	0.	4737.
353	6.	3.6364	0.	4774.1
354	6.	3.4545	0.	4803.5
355	6.	3.2727	0.	4823.9
356	6.	3.0909	0.	4834.4
357	6.	2.9091	0.	4834.4
358	6.	2.7273	0.	4823.9
359	6.	2.5455	0.	4803.5
360	6.	2.3636	0.	4774.1
361	6.	2.1818	0.	4737.
362	6.	2.	0.	4693.3
363	6.	1.8182	0.	4643.7
364	6.	1.6364	0.	4589.1
365	6.	1.4545	0.	4530.3
366	6.	1.2727	0.	4468.7
367	6.	1.0909	0.	4405.9
368	6.	0.90909	0.	4343.7
369	6.	0.72727	0.	4284.2
370	6.	0.54545	0.	4228.8
371	6.	0.36364	0.	4178.6
372	6.	0.18182	0.	4134.8
373	5.8182	5.8182	0.	4286.7
374	5.8182	5.6364	0.	4319.1
375	5.8182	5.4545	0.	4355.8
376	5.8182	5.2727	0.	4395.7
377	5.8182	5.0909	0.	4438.
378	5.8182	4.9091	0.	4481.6
379	5.8182	4.7273	0.	4525.2
380	5.8182	4.5455	0.	4567.7
381	5.8182	4.3636	0.	4607.9
382	5.8182	4.1818	0.	4645.2
383	5.8182	4.	0.	4678.8
384	5.8182	3.8182	0.	4708.3
385	5.8182	3.6364	0.	4733.1
386	5.8182	3.4545	0.	4752.6
387	5.8182	3.2727	0.	4766.2
388	5.8182	3.0909	0.	4773.1
389	5.8182	2.9091	0.	4773.1
390	5.8182	2.7273	0.	4766.2
391	5.8182	2.5455	0.	4752.6
392	5.8182	2.3636	0.	4733.1
393	5.8182	2.1818	0.	4708.3
394	5.8182	2.	0.	4678.8
395	5.8182	1.8182	0.	4645.2
396	5.8182	1.6364	0.	4607.9
397	5.8182	1.4545	0.	4567.7
398	5.8182	1.2727	0.	4525.2
399	5.8182	1.0909	0.	4481.6
400	5.8182	0.90909	0.	4438.
401	5.8182	0.72727	0.	4395.7
402	5.8182	0.54545	0.	4355.8
403	5.8182	0.36364	0.	4319.1
404	5.8182	0.18182	0.	4286.7
405	5.6364	5.8182	0.	4420.7
406	5.6364	5.6364	0.	4442.6
407	5.6364	5.4545	0.	4467.5
408	5.6364	5.2727	0.	4494.3
409	5.6364	5.0909	0.	4522.4
410	5.6364	4.9091	0.	4551.
411	5.6364	4.7273	0.	4579.3
412	5.6364	4.5455	0.	4606.6
413	5.6364	4.3636	0.	4632.2
414	5.6364	4.1818	0.	4655.8
415	5.6364	4.	0.	4676.9
416	5.6364	3.8182	0.	4695.4
417	5.6364	3.6364	0.	4710.8
418	5.6364	3.4545	0.	4722.8
419	5.6364	3.2727	0.	4731.1
420	5.6364	3.0909	0.	4735.4
421	5.6364	2.9091	0.	4735.4
422	5.6364	2.7273	0.	4731.1
423	5.6364	2.5455	0.	4722.8
424	5.6364	2.3636	0.	4710.8
425	5.6364	2.1818	0.	4695.4
426	5.6364	2.	0.	4676.9
427	5.6364	1.8182	0.	4655.8
428	5.6364	1.6364	0.	4632.2
429	5.6364	1.4545	0.	4606.6
430	5.6364	1.2727	0.	4579.3
431	5.6364	1.0909	0.	4551.
432	5.6364	0.90909	0.	4522.4
433	5.6364	0.72727	0.	4494.3
434	5.6364	0.54545	0.	4467.5
435	5.6364	0.36364	0.	4442.6
436	5.6364	0.18182	0.	4420.7
437	5.4545	5.8182	0.	4540.1
438	5.4545	5.6364	0.	4552.6
439	5.4545	5.4545	0.	4567.1
440	5.4545	5.2727	0.	4582.8
441	5.4545	5.0909	0.	4599.
442	5.4545	4.9091	0.	4615.3
443	5.4545	4.7273	0.	4631.3
444	5.4545	4.5455	0.	4646.5
445	5.4545	4.3636	0.	4660.6
446	5.4545	4.1818	0.	4673.4
447	5.4545	4.	0.	4684.7
448	5.4545	3.8182	0.	4694.5
449	5.4545	3.6364	0.	4702.6
450	5.4545	3.4545	0.	4709.
451	5.4545	3.2727	0.	4713.3
452	5.4545	3.0909	0.	4715.6
453	5.4545	2.9091	0.	4715.6
454	5.4545	2.7273	0.	4713.3
455	5.4545	2.5455	0.	4709.
456	5.4545	2.3636	0.	4702.6
457	5.4545	2.1818	0.	4694.5
458	5.4545	2.	0.	4684.7
459	5.4545	1.8182	0.	4673.4
460	5.4545	1.6364	0.	4660.6
461	5.4545	1.4545	0.	4646.5
462	5.4545	1.2727	0.	4631.3
463	5.4545	1.0909	0.	4615.3
464	5.4545	0.90909	0.	4599.
465	5.4545	0.72727	0.	4582.8
466	5.4545	0.54545	0.	4567.1
467	5.4545	0.36364	0.	4552.6
468	5.4545	0.18182	0.	4540.1
469	5.2727	5.8182	0.	4647.8
470	5.2727	5.6364	0.	4651.8
471	5.2727	5.4545	0.	4657.2
472	5.2727	5.2727	0.	4663.3
473	5.2727	5.0909	0.	4669.6
474	5.2727	4.9091	0.	4675.8
475	5.2727	4.7273	0.	4681.7
476	5.2727	4.5455	0.	4687.1
477	5.2727	4.3636	0.	4691.9
478	5.2727	4.1818	0.	4696.1
479	5.2727	4.	0.	4699.7
480	5.2727	3.8182	0.	4702.8
481	5.2727	3.6364	0.	4705.3
482	5.2727	3.4545	0.	4707.2
483	5.2727	3.2727	0.	4708.6
484	5.2727	3.0909	0.	4709.3
485	5.2727	2.9091	0.	4709.3
486	5.2727	2.7273	0.	4708.6
487	5.2727	2.5455	0.	4707.2
488	5.2727	2.3636	0.	4705.3
489	5.2727	2.1818	0.	4702.8
490	5.2727	2.	0.	4699.7
491	5.2727	1.8182	0.	4696.1
492	5.2727	1.6364	0.	4691.9
493	5.2727	1.4545	0.	4687.1
494	5.2727	1.2727	0.	4681.7
495	5.2727	1.0909	0.	4675.8
496	5.2727	0.90909	0.	4669.6
497	5.2727	0.72727	0.	4663.3
498	5.2727	0.54545	0.	4657.2
499	5.2727	0.36364	0.	4651.8
500	5.2727	0.18182	0.	4647.8
501	5.0909	5.8182	0.	4746.3
502	5.0909	5.6364	0.	4742.5
503	5.0909	5.4545	0.	4739.9
504	5.0909	5.2727	0.	4737.6
505	5.0909	5.0909	0.	4735.4
506	5.0909	4.9091	0.	4733.2
507	5.0909	4.7273	0.	4730.8
508	5.0909	4.5455	0.	4728.2
509	5.0909	4.3636	0.	4725.5
510	5.0909	4.1818	0.	4722.8
511	5.0909	4.	0.	4720.3
512	5.0909	3.8182	0.	4718.
513	5.0909	3.6364	0.	4716.1
514	5.0909	3.4545	0.	4714.6
515	5.0909	3.2727	0.	4713.6
516	5.0909	3.0909	0.	4713.1
517	5.0909	2.9091	0.	4713.1
518	5.0909	2.7273	0.	4713.6
519	5.0909	2.5455	0.	4714.6
520	5.0909	2.3636	0.	4716.1
521	5.0909	2.1818	0.	4718.
522	5.0909	2.	0.	4720.3
523	5.0909	1.8182	0.	4722.8
524	5.0909	1.6364	0.	4725.5
525	5.0909	1.4545	0.	4728.2
526	5.0909	1.2727	0.	4730.8
527	5.0909	1.0909	0.	4733.2
528	5.0909	0.90909	0.	4735.4
529	5.0909	0.72727	0.	4737.6
530	5.0909	0.54545	0.	4739.9
531	5.0909	0.36364	0.	4742.5
532	5.0909	0.18182	0.	4746.3
533	4.9091	5.8182	0.	4837.4
534	4.9091	5.6364	0.	4826.6
535	4.9091	5.4545	0.	4816.8
536	4.9091	5.2727	0.	4807.2
537	4.9091	5.0909	0.	4797.7
538	4.9091	4.9091	0.	4788.2
539	4.9091	4.7273	0.	4778.8
540	4.9091	4.5455	0.	4769.6
541	4.9091	4.3636	0.	4760.8
542	4.9091	4.1818	0.	4752.5
543	4.9091	4.	0.	4745.
544	4.9091	3.8182	0.	4738.5
545	4.9091	3.6364	0.	4733.
546	4.9091	3.4545	0.	4728.8
547	4.9091	3.2727	0.	4726.
548	4.9091	3.0909	0.	4724.6
549	4.9091	2.9091	0.	4724.6
550	4.9091	2.7273	0.	4726.
551	4.9091	2.5455	0.	4728.8
552	4.9091	2.3636	0.	4733.
553	4.9091	2.1818	0.	4738.5
554	4.9091	2.	0.	4745.
555	4.9091	1.8182	0.	4752.5
556	4.9091	1.6364	0.	4760.8
557	4.9091	1.4545	0.	4769.6
558	4.9091	1.2727	0.	4778.8
559	4.9091	1.0909	0.	4788.2
560	4.9091	0.90909	0.	4797.7
561	4.9091	0.72727	0.	4807.2
562	4.9091	0.54545	0.	4816.8
563	4.9091	0.36364	0.	4826.6
564	4.9091	0.18182	0.	4837.4
565	4.7273	5.8182	0.	4922.8
566	4.7273	5.6364	0.	4905.5
567	4.7273	5.4545	0.	4889.2
568	4.7273	5.2727	0.	4873.1
569	4.7273	5.0909	0.	4857.2
570	4.7273	4.9091	0.	4841.5
571	4.7273	4.7273	0.	4826.1
572	4.7273	4.5455	0.	4811.3
573	4.7273	4.3636	0.	4797.3
574	4.7273	4.1818	0.	4784.4
575	4.7273	4.	0.	4772.8
576	4.7273	3.8182	0.	4762.8
577	4.7273	3.6364	0.	4754.5
578	4.7273	3.4545	0.	4748.1
579	4.7273	3.2727	0.	4743.8
580	4.7273	3.0909	0.	4741.7
581	4.7273	2.9091	0.	4741.7
582	4.7273	2.7273	0.	4743.8
583	4.7273	2.5455	0.	4748.1
584	4.7273	2.3636	0.	4754.5
585	4.7273	2.1818	0.	4762.8
586	4.7273	2.	0.	4772.8
587	4.7273	1.8182	0.	4784.4
588	4.7273	1.6364	0.	4797.3
589	4.7273	1.4545	0.	4811.3
590	4.7273	1.2727	0.	4826.1
591	4.7273	1.0909	0.	4841.5
592	4.7273	0.90909	0.	4857.2
593	4.7273	0.72727	0.	4873.1
594	4.7273	0.54545	0.	4889.2
595	4.7273	0.36364	0.	4905.5
596	4.7273	0.18182	0.	4922.8
597	4.5455	5.8182	0.	5003.8
598	4.5455	5.6364	0.	4980.4
599	4.5455	5.4545	0.	4958.2
600	4.5455	5.2727	0.	4936.2
601	4.5455	5.0909	0.	4914.6
602	4.5455	4.9091	0.	4893.4
603	4.5455	4.7273	0.	4872.8
604	4.5455	4.5455	0.	4853.2
605	4.5455	4.3636	0.	4834.8
606	4.5455	4.1818	0.	4817.9
607	4.5455	4.	0.	4802.9
608	4.5455	3.8182	0.	4789.9
609	4.5455	3.6364	0.	4779.3
610	4.5455	3.4545	0.	4771.1
611	4.5455	3.2727	0.	4765.7
612	4.5455	3.0909	0.	4762.9
613	4.5455	2.9091	0.	4762.9
614	4.5455	2.7273	0.	4765.7
615	4.5455	2.5455	0.	4771.1
616	4.5455	2.3636	0.	4779.3
617	4.5455	2.1818	0.	4789.9
618	4.5455	2.	0.	4802.9
619	4.5455	1.8182	0.	4817.9
620	4.5455	1.6364	0.	4834.8
621	4.5455	1.4545	0.	4853.2
622	4.5455	1.2727	0.	4872.8
623	4.5455	1.0909	0.	4893.4
624	4.5455	0.90909	0.	4914.6
625	4.5455	0.72727	0.	4936.2
626	4.5455	0.54545	0.	4958.2
627	4.5455	0.36364	0.	4980.4
628	4.5455	0.18182	0.	5003.8
629	4.3636	5.8182	0.	5081.4
630	4.3636	5.6364	0.	5052.3
631	4.3636	5.4545	0.	5024.5
632	4.3636	5.2727	0.	4997.2
633	4.3636	5.0909	0.	4970.3
634	4.3636	4.9091	0.	4944.2
635	4.3636	4.7273	0.	4919.
636	4.3636	4.5455	0.	4895.1
637	4.3636	4.3636	0.	4872.8
638	4.3636	4.1818	0.	4852.5
639	4.3636	4.	0.	4834.5
640	4.3636	3.8182	0.	4819.1
641	4.3636	3.6364	0.	4806.5
642	4.3636	3.4545	0.	4796.8
643	4.3636	3.2727	0.	4790.4
644	4.3636	3.0909	0.	4787.1
645	4.3636	2.9091	0.	4787.1
646	4.3636	2.7273	0.	4790.4
647	4.3636	2.5455	0.	4796.8
648	4.3636	2.3636	0.	4806.5
649	4.3636	2.1818	0.	4819.1
650	4.3636	2.	0.	4834.5
651	4.3636	1.8182	0.	4852.5
652	4.3636	1.6364	0.	4872.8
653	4.3636	1.4545	0.	4895.1
654	4.3636	1.2727	0.	4919.
655	4.3636	1.0909	0.	4944.2
656	4.3636	0.90909	0.	4970.3
657	4.3636	0.72727	0.	4997.2
658	4.3636	0.54545	0.	5024.5
659	4.3636	0.36364	0.	5052.3
660	4.3636	0.18182	0.	5081.4
661	4.1818	5.8182	0.	5156.6
662	4.1818	5.6364	0.	5122.
663	4.1818	5.4545	0.	5088.9
664	4.1818	5.2727	0.	5056.5
665	4.1818	5.0909	0.	5024.8
666	4.1818	4.9091	0.	4994.1
667	4.1818	4.7273	0.	4964.7
668	4.1818	4.5455	0.	4936.9
669	4.1818	4.3636	0.	4911.2
670	4.1818	4.1818	0.	4887.9
671	4.1818	4.	0.	4867.3
672	4.1818	3.8182	0.	4849.7
673	4.1818	3.6364	0.	4835.4
674	4.1818	3.4545	0.	4824.5
675	4.1818	3.2727	0.	4817.1
676	4.1818	3.0909	0.	4813.4
677	4.1818	2.9091	0.	4813.4
678	4.1818	2.7273	0.	4817.1
679	4.1818	2.5455	0.	4824.5
680	4.1818	2.3636	0.	4835.4
681	4.1818	2.1818	0.	4849.7
682	4.1818	2.	0.	4867.3
683	4.1818	1.8182	0.	4887.9
684	4.1818	1.6364	0.	4911.2
685	4.1818	1.4545	0.	4936.9
686	4.1818	1.2727	0.	4964.7
687	4.1818	1.0909	0.	4994.1
688	4.1818	0.90909	0.	5024.8
689	4.1818	0.72727	0.	5056.5
690	4.1818	0.54545	0.	5088.9
691	4.1818	0.36364	0.	5122.
692	4.1818	0.18182	0.	5156.6
693	4.	5.8182	0.	5229.9
694	4.	5.6364	0.	5189.8
695	4.	5.4545	0.	5151.8
696	4.	5.2727	0.	5114.5
697	4.	5.0909	0.	5078.3
698	4.	4.9091	0.	5043.3
699	4.	4.7273	0.	5009.9
700	4.	4.5455	0.	4978.6
701	4.	4.3636	0.	4949.7
702	4.	4.1818	0.	4923.7
703	4.	4.	0.	4900.8
704	4.	3.8182	0.	4881.3
705	4.	3.6364	0.	4865.5
706	4.	3.4545	0.	4853.4
707	4.	3.2727	0.	4845.4
708	4.	3.0909	0.	4841.3
709	4.	2.9091	0.	4841.3
710	4.	2.7273	0.	4845.4
711	4.	2.5455	0.	4853.4
712	4.	2.3636	0.	4865.5
713	4.	2.1818	0.	4881.3
714	4.	2.	0.	4900.8
715	4.	1.8182	0.	4923.7
716	4.	1.6364	0.	4949.7
717	4.	1.4545	0.	4978.6
718	4.	1.2727	0.	5009.9
719	4.	1.0909	0.	5043.3
720	4.	0.90909	0.	5078.3
721	4.	0.72727	0.	5114.5
722	4.	0.54545	0.	5151.8
723	4.	0.36364	0.	5189.8
724	4.	0.18182	0.	5229.9
725	3.8182	5.8182	0.	5301.8
726	3.8182	5.6364	0.	5256.4
727	3.8182	5.4545	0.	5213.4
728	3.8182	5.2727	0.	5171.5
729	3.8182	5.0909	0.	5130.8
730	3.8182	4.9091	0.	5091.7
731	3.8182	4.7273	0.	5054.7
732	3.8182	4.5455	0.	5020.1
733	3.8182	4.3636	0.	4988.3
734	3.8182	4.1818	0.	4959.8
735	3.8182	4.	0.	4934.8
736	3.8182	3.8182	0.	4913.6
737	3.8182	3.6364	0.	4896.4
738	3.8182	3.4545	0.	4883.4
739	3.8182	3.2727	0.	4874.7
740	3.8182	3.0909	0.	4870.3
741	3.8182	2.9091	0.	4870.3
742	3.8182	2.7273	0.	4874.7
743	3.8182	2.5455	0.	4883.4
744	3.8182	2.3636	0.	4896.4
745	3.8182	2.1818	0.	4913.6
746	3.8182	2.	0.	4934.8
747	3.8182	1.8182	0.	4959.8
748	3.8182	1.6364	0.	4988.3
749	3.8182	1.4545	0.	5020.1
750	3.8182	1.2727	0.	5054.7
751	3.8182	1.0909	0.	5091.7
752	3.8182	0.90909	0.	5130.8
753	3.8182	0.72727	0.	5171.5
754	3.8182	0.54545	0.	5213.4
755	3.8182	0.36364	0.	5256.4
756	3.8182	0.18182	0.	5301.8
757	3.6364	5.8182	0.	5372.8
758	3.6364	5.6364	0.	5321.9
759	3.6364	5.4545	0.	5274.1
760	3.6364	5.2727	0.	5227.6
761	3.6364	5.0909	0.	5182.6
762	3.6364	4.9091	0.	5139.5
763	3.6364	4.7273	0.	5098.9
764	3.6364	4.5455	0.	5061.2
765	3.6364	4.3636	0.	5026.7
766	3.6364	4.1818	0.	4995.9
767	3.6364	4.	0.	4969.
768	3.6364	3.8182	0.	4946.3
769	3.6364	3.6364	0.	4928.
770	3.6364	3.4545	0.	4914.2
771	3.6364	3.2727	0.	4904.9
772	3.6364	3.0909	0.	4900.2
773	3.6364	2.9091	0.	4900.2
774	3.6364	2.7273	0.	4904.9
775	3.6364	2.5455	0.	4914.2
776	3.6364	2.3636	0.	4928.
777	3.6364	2.1818	0.	4946.3
778	3.6364	2.	0.	4969.
779	3.6364	1.8182	0.	4995.9
780	3.6364	1.6364	0.	5026.7
781	3.6364	1.4545	0.	5061.2
782	3.6364	1.2727	0.	5098.9
783	3.6364	1.0909	0.	5139.5
784	3.6364	0.90909	0.	5182.6
785	3.6364	0.72727	0.	5227.6
786	3.6364	0.54545	0.	5274.1
787	3.6364	0.36364	0.	5321.9
788	3.6364	0.18182	0.	5372.8
789	3.4545	5.8182	0.	5443.
790	3.4545	5.6364	0.	5386.5
791	3.4545	5.4545	0.	5333.8
792	3.4545	5.2727	0.	5282.7
793	3.4545	5.0909	0.	5233.5
794	3.4545	4.9091	0.	5186.6
795	3.4545	4.7273	0.	5142.6
796	3.4545	4.5455	0.	5101.8
797	3.4545	4.3636	0.	5064.9
798	3.4545	4.1818	0.	5032.
799	3.4545	4.	0.	5003.4
800	3.4545	3.8182	0.	4979.4
801	3.4545	3.6364	0.	4960.1
802	3.4545	3.4545	0.	4945.6
803	3.4545	3.2727	0.	4935.9
804	3.4545	3.0909	0.	4931.
805	3.4545	2.9091	0.	4931.
806	3.4545	2.7273	0.	4935.9
807	3.4545	2.5455	0.	4945.6
808	3.4545	2.3636	0.	4960.1
809	3.4545	2.1818	0.	4979.4
810	3.4545	2.	0.	5003.4
811	3.4545	1.8182	0.	5032.
812	3.4545	1.6364	0.	5064.9
813	3.4545	1.4545	0.	5101.8
814	3.4545	1.2727	0.	5142.6
815	3.4545	1.0909	0.	5186.6
816	3.4545	0.90909	0.	5233.5
817	3.4545	0.72727	0.	5282.7
818	3.4545	0.54545	0.	5333.8
819	3.4545	0.36364	0.	5386.5
820	3.4545	0.18182	0.	5443.
821	3.2727	5.8182	0.	5512.6
822	3.2727	5.6364	0.	5450.3
823	3.2727	5.4545	0.	5392.6
824	3.2727	5.2727	0.	5336.9
825	3.2727	5.0909	0.	5283.5
826	3.2727	4.9091	0.	5232.8
827	3.2727	4.7273	0.	5185.5
828	3.2727	4.5455	0.	5142.
829	3.2727	4.3636	0.	5102.7
830	3.2727	4.1818	0.	5068.
831	3.2727	4.	0.	5038.
832	3.2727	3.8182	0.	5012.9
833	3.2727	3.6364	0.	4992.9
834	3.2727	3.4545	0.	4977.8
835	3.2727	3.2727	0.	4967.8
836	3.2727	3.0909	0.	4962.8
837	3.2727	2.9091	0.	4962.8
838	3.2727	2.7273	0.	4967.8
839	3.2727	2.5455	0.	4977.8
840	3.2727	2.3636	0.	4992.9
841	3.2727	2.1818	0.	5012.9
842	3.2727	2.	0.	5038.
843	3.2727	1.8182	0.	5068.
844	3.2727	1.6364	0.	5102.7
845	3.2727	1.4545	0.	5142.
846	3.2727	1.2727	0.	5185.5
847	3.2727	1.0909	0.	5232.8
848	3.2727	0.90909	0.	5283.5
849	3.2727	0.72727	0.	5336.9
850	3.2727	0.54545	0.	5392.6
851	3.2727	0.36364	0.	5450.3
852	3.2727	0.18182	0.	5512.6
853	3.0909	5.8182	0.	5581.7
854	3.0909	5.6364	0.	5513.2
855	3.0909	5.4545	0.	5450.4
856	3.0909	5.2727	0.	5390.
857	3.0909	5.0909	0.	5332.4
858	3.0909	4.9091	0.	5278.
859	3.0909	4.7273	0.	5227.5
860	3.0909	4.5455	0.	5181.4
861	3.0909	4.3636	0.	5140.1
862	3.0909	4.1818	0.	5103.8
863	3.0909	4.	0.	5072.8
864	3.0909	3.8182	0.	5047.
865	3.0909	3.6364	0.	5026.4
866	3.0909	3.4545	0.	5011.1
867	3.0909	3.2727	0.	5000.9
868	3.0909	3.0909	0.	4995.8
869	3.0909	2.9091	0.	4995.8
870	3.0909	2.7273	0.	5000.9
871	3.0909	2.5455	0.	5011.1
872	3.0909	2.3636	0.	5026.4
873	3.0909	2.1818	0.	5047.
874	3.0909	2.	0.	5072.8
875	3.0909	1.8182	0.	5103.8
876	3.0909	1.6364	0.	5140.1
877	3.0909	1.4545	0.	5181.4
878	3.0909	1.2727	0.	5227.5
879	3.0909	1.0909	0.	5278.
880	3.0909	0.90909	0.	5332.4
881	3.0909	0.72727	0.	5390.
882	3.0909	0.54545	0.	5450.4
883	3.0909	0.36364	0.	5513.2
884	3.0909	0.18182	0.	5581.7
885	2.9091	5.8182	0.	5649.9
886	2.9091	5.6364	0.	5574.9
887	2.9091	5.4545	0.	5506.9
888	2.9091	5.2727	0.	5441.7
889	2.9091	5.0909	0.	5379.8
890	2.9091	4.9091	0.	5321.8
891	2.9091	4.7273	0.	5268.4
892	2.9091	4.5455	0.	5220.1
893	2.9091	4.3636	0.	5177.1
894	2.9091	4.1818	0.	5139.7
895	2.9091	4.	0.	5107.9
896	2.9091	3.8182	0.	5081.7
897	2.9091	3.6364	0.	5061.1
898	2.9091	3.4545	0.	5045.7
899	2.9091	3.2727	0.	5035.6
900	2.9091	3.0909	0.	5030.5
901	2.9091	2.9091	0.	5030.5
902	2.9091	2.7273	0.	5035.6
903	2.9091	2.5455	0.	5045.7
904	2.9091	2.3636	0.	5061.1
905	2.9091	2.1818	0.	5081.7
906	2.9091	2.	0.	5107.9
907	2.9091	1.8182	0.	5139.7
908	2.9091	1.6364	0.	5177.1
909	2.9091	1.4545	0.	5220.1
910	2.9091	1.2727	0.	5268.4
911	2.9091	1.0909	0.	5321.8
912	2.9091	0.90909	0.	5379.8
913	2.9091	0.72727	0.	5441.7
914	2.9091	0.54545	0.	5506.9
915	2.9091	0.36364	0.	5574.9
916	2.9091	0.18182	0.	5649.9
917	2.7273	5.8182	0.	5717.2
918	2.7273	5.6364	0.	5635.1
919	2.7273	5.4545	0.	5561.6
920	2.7273	5.2727	0.	5491.6
921	2.7273	5.0909	0.	5425.5
922	2.7273	4.9091	0.	5364.
923	2.7273	4.7273	0.	5308.
924	2.7273	4.5455	0.	5257.7
925	2.7273	4.3636	0.	5213.5
926	2.7273	4.1818	0.	5175.5
927	2.7273	4.	0.	5143.6
928	2.7273	3.8182	0.	5117.6
929	2.7273	3.6364	0.	5097.3
930	2.7273	3.4545	0.	5082.3
931	2.7273	3.2727	0.	5072.4
932	2.7273	3.0909	0.	5067.5
933	2.7273	2.9091	0.	5067.5
934	2.7273	2.7273	0.	5072.4
935	2.7273	2.5455	0.	5082.3
936	2.7273	2.3636	0.	5097.3
937	2.7273	2.1818	0.	5117.6
938	2.7273	2.	0.	5143.6
939	2.7273	1.8182	0.	5175.5
940	2.7273	1.6364	0.	5213.5
941	2.7273	1.4545	0.	5257.7
942	2.7273	1.2727	0.	5308.
943	2.7273	1.0909	0.	5364.
944	2.7273	0.90909	0.	5425.5
945	2.7273	0.72727	0.	5491.6
946	2.7273	0.54545	0.	5561.6
947	2.7273	0.36364	0.	5635.1
948	2.7273	0.18182	0.	5717.2
949	2.5455	5.8182	0.	5782.9
950	2.5455	5.6364	0.	5693.2
951	2.5455	5.4545	0.	5613.9
952	2.5455	5.2727	0.	5539.
953	2.5455	5.0909	0.	5468.7
954	2.5455	4.9091	0.	5404.1
955	2.5455	4.7273	0.	5345.8
956	2.5455	4.5455	0.	5294.2
957	2.5455	4.3636	0.	5249.5
958	2.5455	4.1818	0.	5211.7
959	2.5455	4.	0.	5180.3
960	2.5455	3.8182	0.	5155.1
961	2.5455	3.6364	0.	5135.7
962	2.5455	3.4545	0.	5121.5
963	2.5455	3.2727	0.	5112.3
964	2.5455	3.0909	0.	5107.7
965	2.5455	2.9091	0.	5107.7
966	2.5455	2.7273	0.	5112.3
967	2.5455	2.5455	0.	5121.5
968	2.5455	2.3636	0.	5135.7
969	2.5455	2.1818	0.	5155.1
970	2.5455	2.	0.	5180.3
971	2.5455	1.8182	0.	5211.7
972	2.5455	1.6364	0.	5249.5
973	2.5455	1.4545	0.	5294.2
974	2.5455	1.2727	0.	5345.8
975	2.5455	1.0909	0.	5404.1
976	2.5455	0.90909	0.	5468.7
977	2.5455	0.72727	0.	5539.
978	2.5455	0.54545	0.	5613.9
979	2.5455	0.36364	0.	5693.2
980	2.5455	0.18182	0.	5782.9
981	2.3636	5.8182	0.	5846.4
982	2.3636	5.6364	0.	5748.4
983	2.3636	5.4545	0.	5663.
984	2.3636	5.2727	0.	5583.
985	2.3636	5.0909	0.	5508.7
986	2.3636	4.9091	0.	5441.3
987	2.3636	4.7273	0.	5381.4
988	2.3636	4.5455	0.	5329.3
989	2.3636	4.3636	0.	5285.1
990	2.3636	4.1818	0.	5248.3
991	2.3636	4.	0.	5218.5
992	2.3636	3.8182	0.	5195.
993	2.3636	3.6364	0.	5177.1
994	2.3636	3.4545	0.	5164.3
995	2.3636	3.2727	0.	5156.1
996	2.3636	3.0909	0.	5152.1
997	2.3636	2.9091	0.	5152.1
998	2.3636	2.7273	0.	5156.1
999	2.3636	2.5455	0.	5164.3
1000	2.3636	2.3636	0.	5177.1
1001	2.3636	2.1818	0.	5195.
1002	2.3636	2.	0.	5218.5
1003	2.3636	1.8182	0.	5248.3
1004	2.3636	1.6364	0.	5285.1
1005	2.3636	1.4545	0.	5329.3
1006	2.3636	1.2727	0.	5381.4
1007	2.3636	1.0909	0.	5441.3
1008	2.3636	0.90909	0.	5508.7
1009	2.3636	0.72727	0.	5583.
1010	2.3636	0.54545	0.	5663.
1011	2.3636	0.36364	0.	5748.4
1012	2.3636	0.18182	0.	5846.4
1013	2.1818	5.8182	0.	5906.6
1014	2.1818	5.6364	0.	5799.4
1015	2.1818	5.4545	0.	5707.7
1016	2.1818	5.2727	0.	5622.5
1017	2.1818	5.0909	0.	5544.6
1018	2.1818	4.9091	0.	5474.9
1019	2.1818	4.7273	0.	5414.3
1020	2.1818	4.5455	0.	5362.9
1021	2.1818	4.3636	0.	5320.3
1022	2.1818	4.1818	0.	5285.9
1023	2.1818	4.	0.	5258.7
1024	2.1818	3.8182	0.	5238.
1025	2.1818	3.6364	0.	5222.6
1026	2.1818	3.4545	0.	5211.9
1027	2.1818	3.2727	0.	5205.1
1028	2.1818	3.0909	0.	5201.8
1029	2.1818	2.9091	0.	5201.8
1030	2.1818	2.7273	0.	5205.1
1031	2.1818	2.5455	0.	5211.9
1032	2.1818	2.3636	0.	5222.6
1033	2.1818	2.1818	0.	5238.
1034	2.1818	2.	0.	5258.7
1035	2.1818	1.8182	0.	5285.9
1036	2.1818	1.6364	0.	5320.3
1037	2.1818	1.4545	0.	5362.9
1038	2.1818	1.2727	0.	5414.3
1039	2.1818	1.0909	0.	5474.9
1040	2.1818	0.90909	0.	5544.6
1041	2.1818	0.72727	0.	5622.5
1042	2.1818	0.54545	0.	5707.7
1043	2.1818	0.36364	0.	5799.4
1044	2.1818	0.18182	0.	5906.6
1045	2.	5.8182	0.	5962.1
1046	2.	5.6364	0.	5844.7
1047	2.	5.4545	0.	5746.2
1048	2.	5.2727	0.	5656.
1049	2.	5.0909	0.	5574.8
1050	2.	4.9091	0.	5504.
1051	2.	4.7273	0.	5444.
1052	2.	4.5455	0.	5394.8
1053	2.	4.3636	0.	5355.5
1054	2.	4.1818	0.	5325.
1055	2.	4.	0.	5302.1
1056	2.	3.8182	0.	5285.4
1057	2.	3.6364	0.	5273.6
1058	2.	3.4545	0.	5265.7
1059	2.	3.2727	0.	5260.8
1060	2.	3.0909	0.	5258.6
1061	2.	2.9091	0.	5258.6
1062	2.	2.7273	0.	5260.8
1063	2.	2.5455	0.	5265.7
1064	2.	2.3636	0.	5273.6
1065	2.	2.1818	0.	5285.4
1066	2.	2.	0.	5302.1
1067	2.	1.8182	0.	5325.
1068	2.	1.6364	0.	5355.5
1069	2.	1.4545	0.	5394.8
1070	2.	1.2727	0.	5444.
1071	2.	1.0909	0.	5504.
1072	2.	0.90909	0.	5574.8
1073	2.	0.72727	0.	5656.
1074	2.	0.54545	0.	5746.2
1075	2.	0.36364	0.	5844.7
1076	2.	0.18182	0.	5962.1
1077	1.8182	5.8182	0.	6010.7
1078	1.8182	5.6364	0.	5881.9
1079	1.8182	5.4545	0.	5776.3
1080	1.8182	5.2727	0.	5681.3
1081	1.8182	5.0909	0.	5597.8
1082	1.8182	4.9091	0.	5527.2
1083	1.8182	4.7273	0.	5469.8
1084	1.8182	4.5455	0.	5424.9
1085	1.8182	4.3636	0.	5391.2
1086	1.8182	4.1818	0.	5366.7
1087	1.8182	4.	0.	5349.8
1088	1.8182	3.8182	0.	5338.6
1089	1.8182	3.6364	0.	5331.5
1090	1.8182	3.4545	0.	5327.2
1091	1.8182	3.2727	0.	5324.9
1092	1.8182	3.0909	0.	5324.
1093	1.8182	2.9091	0.	5324.
1094	1.8182	2.7273	0.	5324.9
1095	1.8182	2.5455	0.	5327.2
1096	1.8182	2.3636	0.	5331.5
1097	1.8182	2.1818	0.	5338.6
1098	1.8182	2.	0.	5349.8
1099	1.8182	1.8182	0.	5366.7
1100	1.8182	1.6364	0.	5391.2
1101	1.8182	1.4545	0.	5424.9
1102	1.8182	1.2727	0.	5469.8
1103	1.8182	1.0909	0.	5527.2
1104	1.8182	0.90909	0.	5597.8
1105	1.8182	0.72727	0.	5681.3
1106	1.8182	0.54545	0.	5776.3
1107	1.8182	0.36364	0.	5881.9
1108	1.8182	0.18182	0.	6010.7
1109	1.6364	5.8182	0.	6049.6
1110	1.6364	5.6364	0.	5907.9
1111	1.6364	5.4545	0.	5794.9
1112	1.6364	5.2727	0.	5695.6
1113	1.6364	5.0909	0.	5611.4
1114	1.6364	4.9091	0.	5543.4
1115	1.6364	4.7273	0.	5491.4
1116	1.6364	4.5455	0.	5453.8
1117	1.6364	4.3636	0.	5428.3
1118	1.6364	4.1818	0.	5412.4
1119	1.6364	4.	0.	5403.5
1120	1.6364	3.8182	0.	5399.4
1121	1.6364	3.6364	0.	5398.3
1122	1.6364	3.4545	0.	5398.6
1123	1.6364	3.2727	0.	5399.4
1124	1.6364	3.0909	0.	5399.9
1125	1.6364	2.9091	0.	5399.9
1126	1.6364	2.7273	0.	5399.4
1127	1.6364	2.5455	0.	5398.6
1128	1.6364	2.3636	0.	5398.3
1129	1.6364	2.1818	0.	5399.4
1130	1.6364	2.	0.	5403.5
1131	1.6364	1.8182	0.	5412.4
1132	1.6364	1.6364	0.	5428.3
1133	1.6364	1.4545	0.	5453.8
1134	1.6364	1.2727	0.	5491.4
1135	1.6364	1.0909	0.	5543.4
1136	1.6364	0.90909	0.	5611.4
1137	1.6364	0.72727	0.	5695.6
1138	1.6364	0.54545	0.	5794.9
1139	1.6364	0.36364	0.	5907.9
1140	1.6364	0.18182	0.	6049.6
1141	1.4545	5.8182	0.	6074.3
1142	1.4545	5.6364	0.	5918.1
1143	1.4545	5.4545	0.	5797.5
1144	1.4545	5.2727	0.	5695.3
1145	1.4545	5.0909	0.	5612.9
1146	1.4545	4.9091	0.	5551.1
1147	1.4545	4.7273	0.	5508.5
1148	1.4545	4.5455	0.	5482.2
1149	1.4545	4.3636	0.	5468.5
1150	1.4545	4.1818	0.	5464.
1151	1.4545	4.	0.	5465.5
1152	1.4545	3.8182	0.	5470.2
1153	1.4545	3.6364	0.	5476.1
1154	1.4545	3.4545	0.	5481.7
1155	1.4545	3.2727	0.	5486.1
1156	1.4545	3.0909	0.	5488.4
1157	1.4545	2.9091	0.	5488.4
1158	1.4545	2.7273	0.	5486.1
1159	1.4545	2.5455	0.	5481.7
1160	1.4545	2.3636	0.	5476.1
1161	1.4545	2.1818	0.	5470.2
1162	1.4545	2.	0.	5465.5
1163	1.4545	1.8182	0.	5464.
1164	1.4545	1.6364	0.	5468.5
1165	1.4545	1.4545	0.	5482.2
1166	1.4545	1.2727	0.	5508.5
1167	1.4545	1.0909	0.	5551.1
1168	1.4545	0.90909	0.	5612.9
1169	1.4545	0.72727	0.	5695.3
1170	1.4545	0.54545	0.	5797.5
1171	1.4545	0.36364	0.	5918.1
1172	1.4545	0.18182	0.	6074.3
1173	1.2727	5.8182	0.	6078.7
1174	1.2727	5.6364	0.	5905.9
1175	1.2727	5.4545	0.	5778.3
1176	1.2727	5.2727	0.	5675.7
1177	1.2727	5.0909	0.	5599.7
1178	1.2727	4.9091	0.	5549.7
1179	1.2727	4.7273	0.	5522.3
1180	1.2727	4.5455	0.	5512.4
1181	1.2727	4.3636	0.	5514.8
1182	1.2727	4.1818	0.	5524.9
1183	1.2727	4.	0.	5538.8
1184	1.2727	3.8182	0.	5553.8
1185	1.2727	3.6364	0.	5567.9
1186	1.2727	3.4545	0.	5579.4
1187	1.2727	3.2727	0.	5587.6
1188	1.2727	3.0909	0.	5591.8
1189	1.2727	2.9091	0.	5591.8
1190	1.2727	2.7273	0.	5587.6
1191	1.2727	2.5455	0.	5579.4
1192	1.2727	2.3636	0.	5567.9
1193	1.2727	2.1818	0.	5553.8
1194	1.2727	2.	0.	5538.8
1195	1.2727	1.8182	0.	5524.9
1196	1.2727	1.6364	0.	5514.8
1197	1.2727	1.4545	0.	5512.4
1198	1.2727	1.2727	0.	5522.3
1199	1.2727	1.0909	0.	5549.7
1200	1.2727	0.90909	0.	5599.7
1201	1.2727	0.72727	0.	5675.7
1202	1.2727	0.54545	0.	5778.3
1203	1.2727	0.36364	0.	5905.9
1204	1.2727	0.18182	0.	6078.7
1205	1.0909	5.8182	0.	6052.7
1206	1.0909	5.6364	0.	5860.9
1207	1.0909	5.4545	0.	5727.8
1208	1.0909	5.2727	0.	5630.
1209	1.0909	5.0909	0.	5568.1
1210	1.0909	4.9091	0.	5538.6
1211	1.0909	4.7273	0.	5534.2
1212	1.0909	4.5455	0.	5547.
1213	1.0909	4.3636	0.	5569.9
1214	1.0909	4.1818	0.	5597.5
1215	1.0909	4.	0.	5625.9
1216	1.0909	3.8182	0.	5652.3
1217	1.0909	3.6364	0.	5674.9
1218	1.0909	3.4545	0.	5692.6
1219	1.0909	3.2727	0.	5704.8
1220	1.0909	3.0909	0.	5710.9
1221	1.0909	2.9091	0.	5710.9
1222	1.0909	2.7273	0.	5704.8
1223	1.0909	2.5455	0.	5692.6
1224	1.0909	2.3636	0.	5674.9
1225	1.0909	2.1818	0.	5652.3
1226	1.0909	2.	0.	5625.9
1227	1.0909	1.8182	0.	5597.5
1228	1.0909	1.6364	0.	5569.9
1229	1.0909	1.4545	0.	5547.
1230	1.0909	1.2727	0.	5534.2
1231	1.0909	1.0909	0.	5538.6
1232	1.0909	0.90909	0.	5568.1
1233	1.0909	0.72727	0.	5630.
1234	1.0909	0.54545	0.	5727.8
1235	1.0909	0.36364	0.	5860.9
1236	1.0909	0.18182	0.	6052.7
1237	0.90909	5.8182	0.	5981.4
1238	0.90909	5.6364	0.	5769.9
1239	0.90909	5.4545	0.	5637.1
1240	0.90909	5.2727	0.	5555.5
1241	0.90909	5.0909	0.	5522.
1242	0.90909	4.9091	0.	5526.2
1243	0.90909	4.7273	0.	5555.2
1244	0.90909	4.5455	0.	5597.7
1245	0.90909	4.3636	0.	5645.4
1246	0.90909	4.1818	0.	5692.9
1247	0.90909	4.	0.	5736.6
1248	0.90909	3.8182	0.	5774.6
1249	0.90909	3.6364	0.	5805.7
1250	0.90909	3.4545	0.	5829.4
1251	0.90909	3.2727	0.	5845.2
1252	0.90909	3.0909	0.	5853.2
1253	0.90909	2.9091	0.	5853.2
1254	0.90909	2.7273	0.	5845.2
1255	0.90909	2.5455	0.	5829.4
1256	0.90909	2.3636	0.	5805.7
1257	0.90909	2.1818	0.	5774.6
1258	0.90909	2.	0.	5736.6
1259	0.90909	1.8182	0.	5692.9
1260	0.90909	1.6364	0.	5645.4
1261	0.90909	1.4545	0.	5597.7
1262	0.90909	1.2727	0.	5555.2
1263	0.90909	1.0909	0.	5526.2
1264	0.90909	0.90909	0.	5522.
1265	0.90909	0.72727	0.	5555.5
1266	0.90909	0.54545	0.	5637.1
1267	0.90909	0.36364	0.	5769.9
1268	0.90909	0.18182	0.	5981.4
1269	0.72727	5.8182	0.	5833.6
1270	0.72727	5.6364	0.	5598.3
1271	0.72727	5.4545	0.	5476.1
1272	0.72727	5.2727	0.	5431.7
1273	0.72727	5.0909	0.	5448.5
1274	0.72727	4.9091	0.	5503.3
1275	0.72727	4.7273	0.	5576.2
1276	0.72727	4.5455	0.	5653.7
1277	0.72727	4.3636	0.	5728.2
1278	0.72727	4.1818	0.	5795.5
1279	0.72727	4.	0.	5853.8
1280	0.72727	3.8182	0.	5902.1
1281	0.72727	3.6364	0.	5940.5
1282	0.72727	3.4545	0.	5969.1
1283	0.72727	3.2727	0.	5987.9
1284	0.72727	3.0909	0.	5997.3
1285	0.72727	2.9091	0.	5997.3
1286	0.72727	2.7273	0.	5987.9
1287	0.72727	2.5455	0.	5969.1
1288	0.72727	2.3636	0.	5940.5
1289	0.72727	2.1818	0.	5902.1
1290	0.72727	2.	0.	5853.8
1291	0.72727	1.8182	0.	5795.5
1292	0.72727	1.6364	0.	5728.2
1293	0.72727	1.4545	0.	5653.7
1294	0.72727	1.2727	0.	5576.2
1295	0.72727	1.0909	0.	5503.3
1296	0.72727	0.90909	0.	5448.5
1297	0.72727	0.72727	0.	5431.7
1298	0.72727	0.54545	0.	5476.1
1299	0.72727	0.36364	0.	5598.3
1300	0.72727	0.18182	0.	5833.6
1301	0.54545	5.8182	0.	5570.9
1302	0.54545	5.6364	0.	5342.4
1303	0.54545	5.4545	0.	5282.8
1304	0.54545	5.2727	0.	5330.7
1305	0.54545	5.0909	0.	5439.1
1306	0.54545	4.9091	0.	5568.3
1307	0.54545	4.7273	0.	5696.1
1308	0.54545	4.5455	0.	5812.5
1309	0.54545	4.3636	0.	5913.8
1310	0.54545	4.1818	0.	5999.6
1311	0.54545	4.	0.	6070.3
1312	0.54545	3.8182	0.	6127.2
1313	0.54545	3.6364	0.	6171.2
1314	0.54545	3.4545	0.	6203.4
1315	0.54545	3.2727	0.	6224.4
1316	0.54545	3.0909	0.	6234.8
1317	0.54545	2.9091	0.	6234.8
1318	0.54545	2.7273	0.	6224.4
1319	0.54545	2.5455	0.	6203.4
1320	0.54545	2.3636	0.	6171.2
1321	0.54545	2.1818	0.	6127.2
1322	0.54545	2.	0.	6070.3
1323	0.54545	1.8182	0.	5999.6
1324	0.54545	1.6364	0.	5913.8
1325	0.54545	1.4545	0.	5812.5
1326	0.54545	1.2727	0.	5696.1
1327	0.54545	1.0909	0.	5568.3
1328	0.54545	0.90909	0.	5439.1
1329	0.54545	0.72727	0.	5330.7
1330	0.54545	0.54545	0.	5282.8
1331	0.54545	0.36364	0.	5342.4
1332	0.54545	0.18182	0.	5570.9
1333	0.36364	5.8182	0.	5025.6
1334	0.36364	5.6364	0.	4774.
1335	0.36364	5.4545	0.	4834.5
1336	0.36364	5.2727	0.	5029.7
1337	0.36364	5.0909	0.	5246.9
1338	0.36364	4.9091	0.	5445.7
1339	0.36364	4.7273	0.	5615.6
1340	0.36364	4.5455	0.	5756.7
1341	0.36364	4.3636	0.	5872.2
1342	0.36364	4.1818	0.	5965.7
1343	0.36364	4.	0.	6040.6
1344	0.36364	3.8182	0.	6099.3
1345	0.36364	3.6364	0.	6144.1
1346	0.36364	3.4545	0.	6176.4
1347	0.36364	3.2727	0.	6197.3
1348	0.36364	3.0909	0.	6207.6
1349	0.36364	2.9091	0.	6207.6
1350	0.36364	2.7273	0.	6197.3
1351	0.36364	2.5455	0.	6176.4
1352	0.36364	2.3636	0.	6144.1
1353	0.36364	2.1818	0.	6099.3
1354	0.36364	2.	0.	6040.6
1355	0.36364	1.8182	0.	5965.7
1356	0.36364	1.6364	0.	5872.2
1357	0.36364	1.4545	0.	5756.7
1358	0.36364	1.2727	0.	5615.6
1359	0.36364	1.0909	0.	5445.7
1360	0.36364	0.90909	0.	5246.9
1361	0.36364	0.72727	0.	5029.7
1362	0.36364	0.54545	0.	4834.5
1363	0.36364	0.36364	0.	4774.
1364	0.36364	0.18182	0.	5025.6
1365	0.18182	5.8182	0.	4043.4
1366	0.18182	5.6364	0.	4556.1
1367	0.18182	5.4545	0.	5228.1
1368	0.18182	5.2727	0.	5751.3
1369	0.18182	5.0909	0.	6142.4
1370	0.18182	4.9091	0.	6436.9
1371	0.18182	4.7273	0.	6661.9
1372	0.18182	4.5455	0.	6836.1
1373	0.18182	4.3636	0.	6972.1
1374	0.18182	4.1818	0.	7078.7
1375	0.18182	4.	0.	7161.9
1376	0.18182	3.8182	0.	7226.1
1377	0.18182	3.6364	0.	7274.4
1378	0.18182	3.4545	0.	7308.9
1379	0.18182	3.2727	0.	7331.1
1380	0.18182	3.0909	0.	7342.
1381	0.18182	2.9091	0.	7342.
1382	0.18182	2.7273	0.	7331.1
1383	0.18182	2.5455	0.	7308.9
1384	0.18182	2.3636	0.	7274.4
1385	0.18182	2.1818	0.	7226.1
1386	0.18182	2.	0.	7161.9
1387	0.18182	1.8182	0.	7078.7
1388	0.18182	1.6364	0.	6972.1
1389	0.18182	1.4545	0.	6836.1
1390	0.18182	1.2727	0.	6661.9
1391	0.18182	1.0909	0.	6436.9
1392	0.18182	0.90909	0.	6142.4
1393	0.18182	0.72727	0.	5751.3
1394	0.18182	0.54545	0.	5228.1
1395	0.18182	0.36364	0.	4556.1
1396	0.18182	0.18182	0.	4043.4
1397	8.3508	5.8182	0.	736.18
1398	8.5349	5.8182	0.	1101.9
1399	8.719	5.8182	0.	1484.1
1400	8.9031	5.8182	0.	1823.9
1401	9.0872	5.8182	0.	2112.9
1402	9.2713	5.8182	0.	2351.7
1403	9.4554	5.8182	0.	2543.4
1404	9.6395	5.8182	0.	2692.9
1405	9.8236	5.8182	0.	2805.7
1406	10.008	5.8182	0.	2887.4
1407	10.192	5.8182	0.	2943.1
1408	10.376	5.8182	0.	2977.4
1409	10.56	5.8182	0.	2994.2
1410	10.744	5.8182	0.	2997.
1411	10.928	5.8182	0.	2988.5
1412	11.112	5.8182	0.	2971.
1413	11.297	5.8182	0.	2946.5
1414	11.481	5.8182	0.	2916.4
1415	11.665	5.8182	0.	2882.
1416	11.849	5.8182	0.	2844.2
1417	12.033	5.8182	0.	2803.8
1418	12.217	5.8182	0.	2761.4
1419	12.401	5.8182	0.	2717.6
1420	12.585	5.8182	0.	2672.6
1421	12.769	5.8182	0.	2626.9
1422	12.953	5.8182	0.	2580.5
1423	13.138	5.8182	0.	2533.8
1424	13.322	5.8182	0.	2486.8
1425	13.506	5.8182	0.	2439.7
1426	13.69	5.8182	0.	2392.5
1427	13.874	5.8182	0.	2345.4
1428	14.058	5.8182	0.	2298.3
1429	14.242	5.8182	0.	2251.3
1430	14.426	5.8182	0.	2204.4
1431	14.61	5.8182	0.	2157.7
1432	14.795	5.8182	0.	2111.1
1433	14.979	5.8182	0.	2064.7
1434	15.163	5.8182	0.	2018.5
1435	15.347	5.8182	0.	1972.5
1436	15.531	5.8182	0.	1926.7
1437	15.715	5.8182	0.	1881.1
1438	15.899	5.8182	0.	1835.6
1439	16.083	5.8182	0.	1790.4
1440	16.267	5.8182	0.	1745.4
1441	16.452	5.8182	0.	1700.6
1442	16.636	5.8182	0.	1656.
1443	16.82	5.8182	0.	1611.6
1444	17.004	5.8182	0.	1567.4
1445	17.188	5.8182	0.	1523.4
1446	17.372	5.8182	0.	1479.6
1447	17.556	5.8182	0.	1436.1
1448	17.74	5.8182	0.	1392.7
1449	17.924	5.8182	0.	1349.5
1450	18.109	5.8182	0.	1306.4
1451	18.293	5.8182	0.	1263.6
1452	18.477	5.8182	0.	1221.
1453	18.661	5.8182	0.	1178.6
1454	18.845	5.8182	0.	1136.3
1455	19.029	5.8182	0.	1094.2
1456	19.213	5.8182	0.	1052.3
1457	19.397	5.8182	0.	1010.6
1458	19.581	5.8182	0.	969.05
1459	19.766	5.8182	0.	927.67
1460	19.95	5.8182	0.	886.45
1461	20.134	5.8182	0.	845.39
1462	20.318	5.8182	0.	804.49
1463	20.502	5.8182	0.	763.73
1464	20.686	5.8182	0.	723.12
1465	20.87	5.8182	0.	682.66
1466	21.054	5.8182	0.	642.32
1467	21.238	5.8182	0.	602.12
1468	21.422	5.8182	0.	562.04
1469	21.607	5.8182	0.	522.08
1470	21.791	5.8182	0.	482.24
1471	21.975	5.8182	0.	442.52
1472	22.159	5.8182	0.	402.91
1473	22.343	5.8182	0.	363.42
1474	22.527	5.8182	0.	324.05
1475	22.711	5.8182	0.	284.83
1476	22.895	5.8182	0.	245.77
1477	23.079	5.8182	0.	206.93
1478	23.264	5.8182	0.	168.41
1479	23.448	5.8182	0.	130.45
1480	23.632	5.8182	0.	93.709
1481	23.816	5.8182	0.	61.524
1482	8.3508	5.6364	0.	1073.1
1483	8.5349	5.6364	0.	1274.3
1484	8.719	5.6364	0.	1603.3
1485	8.9031	5.6364	0.	1922.5
1486	9.0872	5.6364	0.	2200.3
1487	9.2713	5.6364	0.	2429.5
1488	9.4554	5.6364	0.	2611.7
1489	9.6395	5.6364	0.	2751.5
1490	9.8236	5.6364	0.	2854.9
1491	10.008	5.6364	0.	2927.7
1492	10.192	5.6364	0.	2975.2
1493	10.376	5.6364	0.	3002.3
1494	10.56	5.6364	0.	3012.9
1495	10.744	5.6364	0.	3010.4
1496	10.928	5.6364	0.	2997.5
1497	11.112	5.6364	0.	2976.4
1498	11.297	5.6364	0.	2949.
1499	11.481	5.6364	0.	2916.5
1500	11.665	5.6364	0.	2880.2
1501	11.849	5.6364	0.	2840.9
1502	12.033	5.6364	0.	2799.4
1503	12.217	5.6364	0.	2756.2
1504	12.401	5.6364	0.	2711.8
1505	12.585	5.6364	0.	2666.4
1506	12.769	5.6364	0.	2620.3
1507	12.953	5.6364	0.	2573.8
1508	13.138	5.6364	0.	2526.9
1509	13.322	5.6364	0.	2479.9
1510	13.506	5.6364	0.	2432.8
1511	13.69	5.6364	0.	2385.7
1512	13.874	5.6364	0.	2338.6
1513	14.058	5.6364	0.	2291.6
1514	14.242	5.6364	0.	2244.7
1515	14.426	5.6364	0.	2197.9
1516	14.61	5.6364	0.	2151.3
1517	14.795	5.6364	0.	2104.8
1518	14.979	5.6364	0.	2058.5
1519	15.163	5.6364	0.	2012.4
1520	15.347	5.6364	0.	1966.5
1521	15.531	5.6364	0.	1920.8
1522	15.715	5.6364	0.	1875.2
1523	15.899	5.6364	0.	1829.9
1524	16.083	5.6364	0.	1784.8
1525	16.267	5.6364	0.	1739.8
1526	16.452	5.6364	0.	1695.1
1527	16.636	5.6364	0.	1650.5
1528	16.82	5.6364	0.	1606.1
1529	17.004	5.6364	0.	1562.
1530	17.188	5.6364	0.	1518.
1531	17.372	5.6364	0.	1474.3
1532	17.556	5.6364	0.	1430.7
1533	17.74	5.6364	0.	1387.3
1534	17.924	5.6364	0.	1344.1
1535	18.109	5.6364	0.	1301.2
1536	18.293	5.6364	0.	1258.4
1537	18.477	5.6364	0.	1215.8
1538	18.661	5.6364	0.	1173.4
1539	18.845	5.6364	0.	1131.1
1540	19.029	5.6364	0.	1089.1
1541	19.213	5.6364	0.	1047.2
1542	19.397	5.6364	0.	1005.6
1543	19.581	5.6364	0.	964.08
1544	19.766	5.6364	0.	922.76
1545	19.95	5.6364	0.	881.63
1546	20.134	5.6364	0.	840.66
1547	20.318	5.6364	0.	799.87
1548	20.502	5.6364	0.	759.24
1549	20.686	5.6364	0.	718.78
1550	20.87	5.6364	0.	678.48
1551	21.054	5.6364	0.	638.35
1552	21.238	5.6364	0.	598.37
1553	21.422	5.6364	0.	558.56
1554	21.607	5.6364	0.	518.91
1555	21.791	5.6364	0.	479.43
1556	21.975	5.6364	0.	440.13
1557	22.159	5.6364	0.	401.03
1558	22.343	5.6364	0.	362.14
1559	22.527	5.6364	0.	323.51
1560	22.711	5.6364	0.	285.2
1561	22.895	5.6364	0.	247.32
1562	23.079	5.6364	0.	210.05
1563	23.264	5.6364	0.	173.72
1564	23.448	5.6364	0.	139.03
1565	23.632	5.6364	0.	107.57
1566	23.816	5.6364	0.	83.022
1567	8.3508	5.4545	0.	1500.3
1568	8.5349	5.4545	0.	1573.8
1569	8.719	5.4545	0.	1824.5
1570	8.9031	5.4545	0.	2096.1
1571	9.0872	5.4545	0.	2341.5
1572	9.2713	5.4545	0.	2545.9
1573	9.4554	5.4545	0.	2707.4
1574	9.6395	5.4545	0.	2829.6
1575	9.8236	5.4545	0.	2917.7
1576	10.008	5.4545	0.	2977.5
1577	10.192	5.4545	0.	3014.1
1578	10.376	5.4545	0.	3032.1
1579	10.56	5.4545	0.	3035.2
1580	10.744	5.4545	0.	3026.5
1581	10.928	5.4545	0.	3008.6
1582	11.112	5.4545	0.	2983.5
1583	11.297	5.4545	0.	2952.8
1584	11.481	5.4545	0.	2917.8
1585	11.665	5.4545	0.	2879.6
1586	11.849	5.4545	0.	2838.8
1587	12.033	5.4545	0.	2796.2
1588	12.217	5.4545	0.	2752.2
1589	12.401	5.4545	0.	2707.1
1590	12.585	5.4545	0.	2661.4
1591	12.769	5.4545	0.	2615.1
1592	12.953	5.4545	0.	2568.4
1593	13.138	5.4545	0.	2521.6
1594	13.322	5.4545	0.	2474.6
1595	13.506	5.4545	0.	2427.6
1596	13.69	5.4545	0.	2380.6
1597	13.874	5.4545	0.	2333.7
1598	14.058	5.4545	0.	2286.8
1599	14.242	5.4545	0.	2240.1
1600	14.426	5.4545	0.	2193.5
1601	14.61	5.4545	0.	2147.
1602	14.795	5.4545	0.	2100.8
1603	14.979	5.4545	0.	2054.6
1604	15.163	5.4545	0.	2008.7
1605	15.347	5.4545	0.	1962.9
1606	15.531	5.4545	0.	1917.4
1607	15.715	5.4545	0.	1872.
1608	15.899	5.4545	0.	1826.8
1609	16.083	5.4545	0.	1781.8
1610	16.267	5.4545	0.	1736.9
1611	16.452	5.4545	0.	1692.3
1612	16.636	5.4545	0.	1647.9
1613	16.82	5.4545	0.	1603.6
1614	17.004	5.4545	0.	1559.6
1615	17.188	5.4545	0.	1515.7
1616	17.372	5.4545	0.	1472.
1617	17.556	5.4545	0.	1428.6
1618	17.74	5.4545	0.	1385.3
1619	17.924	5.4545	0.	1342.2
1620	18.109	5.4545	0.	1299.3
1621	18.293	5.4545	0.	1256.6
1622	18.477	5.4545	0.	1214.1
1623	18.661	5.4545	0.	1171.8
1624	18.845	5.4545	0.	1129.7
1625	19.029	5.4545	0.	1087.7
1626	19.213	5.4545	0.	1046.
1627	19.397	5.4545	0.	1004.5
1628	19.581	5.4545	0.	963.09
1629	19.766	5.4545	0.	921.92
1630	19.95	5.4545	0.	880.94
1631	20.134	5.4545	0.	840.14
1632	20.318	5.4545	0.	799.53
1633	20.502	5.4545	0.	759.1
1634	20.686	5.4545	0.	718.86
1635	20.87	5.4545	0.	678.8
1636	21.054	5.4545	0.	638.93
1637	21.238	5.4545	0.	599.26
1638	21.422	5.4545	0.	559.78
1639	21.607	5.4545	0.	520.51
1640	21.791	5.4545	0.	481.46
1641	21.975	5.4545	0.	442.65
1642	22.159	5.4545	0.	404.12
1643	22.343	5.4545	0.	365.9
1644	22.527	5.4545	0.	328.08
1645	22.711	5.4545	0.	290.75
1646	22.895	5.4545	0.	254.1
1647	23.079	5.4545	0.	218.4
1648	23.264	5.4545	0.	184.15
1649	23.448	5.4545	0.	152.17
1650	23.632	5.4545	0.	124.03
1651	23.816	5.4545	0.	102.35
1652	8.3508	5.2727	0.	1982.8
1653	8.5349	5.2727	0.	1956.
1654	8.719	5.2727	0.	2127.1
1655	8.9031	5.2727	0.	2335.3
1656	9.0872	5.2727	0.	2531.5
1657	9.2713	5.2727	0.	2697.1
1658	9.4554	5.2727	0.	2827.4
1659	9.6395	5.2727	0.	2924.2
1660	9.8236	5.2727	0.	2991.7
1661	10.008	5.2727	0.	3034.8
1662	10.192	5.2727	0.	3057.9
1663	10.376	5.2727	0.	3065.
1664	10.56	5.2727	0.	3059.3
1665	10.744	5.2727	0.	3043.7
1666	10.928	5.2727	0.	3020.3
1667	11.112	5.2727	0.	2990.8
1668	11.297	5.2727	0.	2956.8
1669	11.481	5.2727	0.	2919.2
1670	11.665	5.2727	0.	2878.9
1671	11.849	5.2727	0.	2836.7
1672	12.033	5.2727	0.	2793.
1673	12.217	5.2727	0.	2748.1
1674	12.401	5.2727	0.	2702.6
1675	12.585	5.2727	0.	2656.4
1676	12.769	5.2727	0.	2609.9
1677	12.953	5.2727	0.	2563.2
1678	13.138	5.2727	0.	2516.4
1679	13.322	5.2727	0.	2469.5
1680	13.506	5.2727	0.	2422.6
1681	13.69	5.2727	0.	2375.7
1682	13.874	5.2727	0.	2328.9
1683	14.058	5.2727	0.	2282.3
1684	14.242	5.2727	0.	2235.7
1685	14.426	5.2727	0.	2189.3
1686	14.61	5.2727	0.	2143.1
1687	14.795	5.2727	0.	2097.
1688	14.979	5.2727	0.	2051.
1689	15.163	5.2727	0.	2005.3
1690	15.347	5.2727	0.	1959.7
1691	15.531	5.2727	0.	1914.3
1692	15.715	5.2727	0.	1869.
1693	15.899	5.2727	0.	1824.
1694	16.083	5.2727	0.	1779.1
1695	16.267	5.2727	0.	1734.4
1696	16.452	5.2727	0.	1689.9
1697	16.636	5.2727	0.	1645.6
1698	16.82	5.2727	0.	1601.4
1699	17.004	5.2727	0.	1557.5
1700	17.188	5.2727	0.	1513.7
1701	17.372	5.2727	0.	1470.2
1702	17.556	5.2727	0.	1426.8
1703	17.74	5.2727	0.	1383.6
1704	17.924	5.2727	0.	1340.6
1705	18.109	5.2727	0.	1297.8
1706	18.293	5.2727	0.	1255.2
1707	18.477	5.2727	0.	1212.8
1708	18.661	5.2727	0.	1170.6
1709	18.845	5.2727	0.	1128.6
1710	19.029	5.2727	0.	1086.8
1711	19.213	5.2727	0.	1045.2
1712	19.397	5.2727	0.	1003.8
1713	19.581	5.2727	0.	962.58
1714	19.766	5.2727	0.	921.57
1715	19.95	5.2727	0.	880.75
1716	20.134	5.2727	0.	840.14
1717	20.318	5.2727	0.	799.73
1718	20.502	5.2727	0.	759.52
1719	20.686	5.2727	0.	719.53
1720	20.87	5.2727	0.	679.74
1721	21.054	5.2727	0.	640.17
1722	21.238	5.2727	0.	600.82
1723	21.422	5.2727	0.	561.71
1724	21.607	5.2727	0.	522.86
1725	21.791	5.2727	0.	484.28
1726	21.975	5.2727	0.	446.01
1727	22.159	5.2727	0.	408.1
1728	22.343	5.2727	0.	370.61
1729	22.527	5.2727	0.	333.63
1730	22.711	5.2727	0.	297.32
1731	22.895	5.2727	0.	261.88
1732	23.079	5.2727	0.	227.65
1733	23.264	5.2727	0.	195.15
1734	23.448	5.2727	0.	165.19
1735	23.632	5.2727	0.	139.06
1736	23.816	5.2727	0.	118.84
1737	8.3508	5.0909	0.	2535.3
1738	8.5349	5.0909	0.	2412.9
1739	8.719	5.0909	0.	2502.7
1740	8.9031	5.0909	0.	2635.3
1741	9.0872	5.0909	0.	2767.5
1742	9.2713	5.0909	0.	2881.2
1743	9.4554	5.0909	0.	2970.1
1744	9.6395	5.0909	0.	3034.2
1745	9.8236	5.0909	0.	3076.
1746	10.008	5.0909	0.	3098.8
1747	10.192	5.0909	0.	3105.9
1748	10.376	5.0909	0.	3100.5
1749	10.56	5.0909	0.	3085.
1750	10.744	5.0909	0.	3061.7
1751	10.928	5.0909	0.	3032.3
1752	11.112	5.0909	0.	2998.2
1753	11.297	5.0909	0.	2960.6
1754	11.481	5.0909	0.	2920.3
1755	11.665	5.0909	0.	2878.1
1756	11.849	5.0909	0.	2834.3
1757	12.033	5.0909	0.	2789.5
1758	12.217	5.0909	0.	2744.
1759	12.401	5.0909	0.	2697.9
1760	12.585	5.0909	0.	2651.5
1761	12.769	5.0909	0.	2604.8
1762	12.953	5.0909	0.	2558.
1763	13.138	5.0909	0.	2511.2
1764	13.322	5.0909	0.	2464.4
1765	13.506	5.0909	0.	2417.7
1766	13.69	5.0909	0.	2371.
1767	13.874	5.0909	0.	2324.4
1768	14.058	5.0909	0.	2277.9
1769	14.242	5.0909	0.	2231.6
1770	14.426	5.0909	0.	2185.4
1771	14.61	5.0909	0.	2139.3
1772	14.795	5.0909	0.	2093.4
1773	14.979	5.0909	0.	2047.6
1774	15.163	5.0909	0.	2002.1
1775	15.347	5.0909	0.	1956.6
1776	15.531	5.0909	0.	1911.4
1777	15.715	5.0909	0.	1866.3
1778	15.899	5.0909	0.	1821.4
1779	16.083	5.0909	0.	1776.6
1780	16.267	5.0909	0.	1732.
1781	16.452	5.0909	0.	1687.7
1782	16.636	5.0909	0.	1643.4
1783	16.82	5.0909	0.	1599.4
1784	17.004	5.0909	0.	1555.6
1785	17.188	5.0909	0.	1511.9
1786	17.372	5.0909	0.	1468.5
1787	17.556	5.0909	0.	1425.2
1788	17.74	5.0909	0.	1382.1
1789	17.924	5.0909	0.	1339.2
1790	18.109	5.0909	0.	1296.6
1791	18.293	5.0909	0.	1254.1
1792	18.477	5.0909	0.	1211.8
1793	18.661	5.0909	0.	1169.7
1794	18.845	5.0909	0.	1127.8
1795	19.029	5.0909	0.	1086.1
1796	19.213	5.0909	0.	1044.6
1797	19.397	5.0909	0.	1003.4
1798	19.581	5.0909	0.	962.31
1799	19.766	5.0909	0.	921.46
1800	19.95	5.0909	0.	880.82
1801	20.134	5.0909	0.	840.4
1802	20.318	5.0909	0.	800.2
1803	20.502	5.0909	0.	760.23
1804	20.686	5.0909	0.	720.49
1805	20.87	5.0909	0.	680.98
1806	21.054	5.0909	0.	641.73
1807	21.238	5.0909	0.	602.73
1808	21.422	5.0909	0.	564.01
1809	21.607	5.0909	0.	525.59
1810	21.791	5.0909	0.	487.5
1811	21.975	5.0909	0.	449.78
1812	22.159	5.0909	0.	412.49
1813	22.343	5.0909	0.	375.72
1814	22.527	5.0909	0.	339.56
1815	22.711	5.0909	0.	304.2
1816	22.895	5.0909	0.	269.85
1817	23.079	5.0909	0.	236.86
1818	23.264	5.0909	0.	205.74
1819	23.448	5.0909	0.	177.19
1820	23.632	5.0909	0.	152.37
1821	23.816	5.0909	0.	133.03
1822	8.3508	4.9091	0.	3189.
1823	8.5349	4.9091	0.	2954.8
1824	8.719	4.9091	0.	2949.5
1825	8.9031	4.9091	0.	2990.4
1826	9.0872	4.9091	0.	3043.5
1827	9.2713	4.9091	0.	3093.2
1828	9.4554	4.9091	0.	3131.9
1829	9.6395	4.9091	0.	3157.
1830	9.8236	4.9091	0.	3168.7
1831	10.008	4.9091	0.	3168.1
1832	10.192	4.9091	0.	3157.3
1833	10.376	4.9091	0.	3137.9
1834	10.56	4.9091	0.	3111.7
1835	10.744	4.9091	0.	3080.1
1836	10.928	4.9091	0.	3044.4
1837	11.112	4.9091	0.	3005.5
1838	11.297	4.9091	0.	2964.2
1839	11.481	4.9091	0.	2921.2
1840	11.665	4.9091	0.	2876.9
1841	11.849	4.9091	0.	2831.7
1842	12.033	4.9091	0.	2785.9
1843	12.217	4.9091	0.	2739.7
1844	12.401	4.9091	0.	2693.1
1845	12.585	4.9091	0.	2646.5
1846	12.769	4.9091	0.	2599.7
1847	12.953	4.9091	0.	2552.9
1848	13.138	4.9091	0.	2506.2
1849	13.322	4.9091	0.	2459.5
1850	13.506	4.9091	0.	2412.9
1851	13.69	4.9091	0.	2366.4
1852	13.874	4.9091	0.	2320.
1853	14.058	4.9091	0.	2273.7
1854	14.242	4.9091	0.	2227.6
1855	14.426	4.9091	0.	2181.6
1856	14.61	4.9091	0.	2135.7
1857	14.795	4.9091	0.	2090.
1858	14.979	4.9091	0.	2044.4
1859	15.163	4.9091	0.	1999.
1860	15.347	4.9091	0.	1953.8
1861	15.531	4.9091	0.	1908.6
1862	15.715	4.9091	0.	1863.7
1863	15.899	4.9091	0.	1818.9
1864	16.083	4.9091	0.	1774.3
1865	16.267	4.9091	0.	1729.9
1866	16.452	4.9091	0.	1685.6
1867	16.636	4.9091	0.	1641.5
1868	16.82	4.9091	0.	1597.6
1869	17.004	4.9091	0.	1553.9
1870	17.188	4.9091	0.	1510.3
1871	17.372	4.9091	0.	1467.
1872	17.556	4.9091	0.	1423.8
1873	17.74	4.9091	0.	1380.8
1874	17.924	4.9091	0.	1338.
1875	18.109	4.9091	0.	1295.4
1876	18.293	4.9091	0.	1253.1
1877	18.477	4.9091	0.	1210.9
1878	18.661	4.9091	0.	1168.9
1879	18.845	4.9091	0.	1127.1
1880	19.029	4.9091	0.	1085.6
1881	19.213	4.9091	0.	1044.2
1882	19.397	4.9091	0.	1003.1
1883	19.581	4.9091	0.	962.21
1884	19.766	4.9091	0.	921.53
1885	19.95	4.9091	0.	881.08
1886	20.134	4.9091	0.	840.86
1887	20.318	4.9091	0.	800.87
1888	20.502	4.9091	0.	761.14
1889	20.686	4.9091	0.	721.66
1890	20.87	4.9091	0.	682.44
1891	21.054	4.9091	0.	643.5
1892	21.238	4.9091	0.	604.85
1893	21.422	4.9091	0.	566.52
1894	21.607	4.9091	0.	528.53
1895	21.791	4.9091	0.	490.92
1896	21.975	4.9091	0.	453.73
1897	22.159	4.9091	0.	417.04
1898	22.343	4.9091	0.	380.94
1899	22.527	4.9091	0.	345.54
1900	22.711	4.9091	0.	311.01
1901	22.895	4.9091	0.	277.59
1902	23.079	4.9091	0.	245.6
1903	23.264	4.9091	0.	215.51
1904	23.448	4.9091	0.	187.99
1905	23.632	4.9091	0.	164.06
1906	23.816	4.9091	0.	145.32
1907	8.3508	4.7273	0.	3998.8
1908	8.5349	4.7273	0.	3606.8
1909	8.719	4.7273	0.	3468.3
1910	8.9031	4.7273	0.	3392.6
1911	9.0872	4.7273	0.	3350.4
1912	9.2713	4.7273	0.	3325.7
1913	9.4554	4.7273	0.	3307.2
1914	9.6395	4.7273	0.	3288.8
1915	9.8236	4.7273	0.	3267.1
1916	10.008	4.7273	0.	3241.2
1917	10.192	4.7273	0.	3210.9
1918	10.376	4.7273	0.	3176.6
1919	10.56	4.7273	0.	3138.9
1920	10.744	4.7273	0.	3098.7
1921	10.928	4.7273	0.	3056.3
1922	11.112	4.7273	0.	3012.5
1923	11.297	4.7273	0.	2967.5
1924	11.481	4.7273	0.	2921.8
1925	11.665	4.7273	0.	2875.5
1926	11.849	4.7273	0.	2828.9
1927	12.033	4.7273	0.	2782.1
1928	12.217	4.7273	0.	2735.2
1929	12.401	4.7273	0.	2688.3
1930	12.585	4.7273	0.	2641.4
1931	12.769	4.7273	0.	2594.6
1932	12.953	4.7273	0.	2547.9
1933	13.138	4.7273	0.	2501.2
1934	13.322	4.7273	0.	2454.7
1935	13.506	4.7273	0.	2408.3
1936	13.69	4.7273	0.	2362.
1937	13.874	4.7273	0.	2315.8
1938	14.058	4.7273	0.	2269.7
1939	14.242	4.7273	0.	2223.8
1940	14.426	4.7273	0.	2178.
1941	14.61	4.7273	0.	2132.3
1942	14.795	4.7273	0.	2086.8
1943	14.979	4.7273	0.	2041.4
1944	15.163	4.7273	0.	1996.2
1945	15.347	4.7273	0.	1951.1
1946	15.531	4.7273	0.	1906.1
1947	15.715	4.7273	0.	1861.3
1948	15.899	4.7273	0.	1816.7
1949	16.083	4.7273	0.	1772.2
1950	16.267	4.7273	0.	1727.9
1951	16.452	4.7273	0.	1683.7
1952	16.636	4.7273	0.	1639.8
1953	16.82	4.7273	0.	1595.9
1954	17.004	4.7273	0.	1552.3
1955	17.188	4.7273	0.	1508.9
1956	17.372	4.7273	0.	1465.6
1957	17.556	4.7273	0.	1422.5
1958	17.74	4.7273	0.	1379.7
1959	17.924	4.7273	0.	1337.
1960	18.109	4.7273	0.	1294.5
1961	18.293	4.7273	0.	1252.2
1962	18.477	4.7273	0.	1210.1
1963	18.661	4.7273	0.	1168.3
1964	18.845	4.7273	0.	1126.6
1965	19.029	4.7273	0.	1085.2
1966	19.213	4.7273	0.	1044.
1967	19.397	4.7273	0.	1003.
1968	19.581	4.7273	0.	962.25
1969	19.766	4.7273	0.	921.74
1970	19.95	4.7273	0.	881.47
1971	20.134	4.7273	0.	841.45
1972	20.318	4.7273	0.	801.68
1973	20.502	4.7273	0.	762.18
1974	20.686	4.7273	0.	722.95
1975	20.87	4.7273	0.	684.02
1976	21.054	4.7273	0.	645.38
1977	21.238	4.7273	0.	607.08
1978	21.422	4.7273	0.	569.12
1979	21.607	4.7273	0.	531.54
1980	21.791	4.7273	0.	494.38
1981	21.975	4.7273	0.	457.7
1982	22.159	4.7273	0.	421.56
1983	22.343	4.7273	0.	386.06
1984	22.527	4.7273	0.	351.32
1985	22.711	4.7273	0.	317.5
1986	22.895	4.7273	0.	284.83
1987	23.079	4.7273	0.	253.63
1988	23.264	4.7273	0.	224.34
1989	23.448	4.7273	0.	197.57
1990	23.632	4.7273	0.	174.3
1991	23.816	4.7273	0.	155.98
1992	8.3508	4.5455	0.	5059.
1993	8.5349	4.5455	0.	4389.7
1994	8.719	4.5455	0.	4058.
1995	8.9031	4.5455	0.	3828.6
1996	9.0872	4.5455	0.	3675.8
1997	9.2713	4.5455	0.	3569.3
1998	9.4554	4.5455	0.	3489.8
1999	9.6395	4.5455	0.	3425.3
2000	9.8236	4.5455	0.	3368.7
2001	10.008	4.5455	0.	3316.1
2002	10.192	4.5455	0.	3265.4
2003	10.376	4.5455	0.	3215.6
2004	10.56	4.5455	0.	3166.2
2005	10.744	4.5455	0.	3117.
2006	10.928	4.5455	0.	3068.
2007	11.112	4.5455	0.	3019.1
2008	11.297	4.5455	0.	2970.5
2009	11.481	4.5455	0.	2922.
2010	11.665	4.5455	0.	2873.8
2011	11.849	4.5455	0.	2825.9
2012	12.033	4.5455	0.	2778.2
2013	12.217	4.5455	0.	2730.8
2014	12.401	4.5455	0.	2683.5
2015	12.585	4.5455	0.	2636.5
2016	12.769	4.5455	0.	2589.6
2017	12.953	4.5455	0.	2543.
2018	13.138	4.5455	0.	2496.5
2019	13.322	4.5455	0.	2450.1
2020	13.506	4.5455	0.	2403.9
2021	13.69	4.5455	0.	2357.8
2022	13.874	4.5455	0.	2311.8
2023	14.058	4.5455	0.	2266.
2024	14.242	4.5455	0.	2220.3
2025	14.426	4.5455	0.	2174.7
2026	14.61	4.5455	0.	2129.2
2027	14.795	4.5455	0.	2083.9
2028	14.979	4.5455	0.	2038.6
2029	15.163	4.5455	0.	1993.6
2030	15.347	4.5455	0.	1948.6
2031	15.531	4.5455	0.	1903.8
2032	15.715	4.5455	0.	1859.2
2033	15.899	4.5455	0.	1814.6
2034	16.083	4.5455	0.	1770.3
2035	16.267	4.5455	0.	1726.1
2036	16.452	4.5455	0.	1682.
2037	16.636	4.5455	0.	1638.2
2038	16.82	4.5455	0.	1594.5
2039	17.004	4.5455	0.	1550.9
2040	17.188	4.5455	0.	1507.6
2041	17.372	4.5455	0.	1464.4
2042	17.556	4.5455	0.	1421.4
2043	17.74	4.5455	0.	1378.7
2044	17.924	4.5455	0.	1336.1
2045	18.109	4.5455	0.	1293.7
2046	18.293	4.5455	0.	1251.5
2047	18.477	4.5455	0.	1209.5
2048	18.661	4.5455	0.	1167.8
2049	18.845	4.5455	0.	1126.2
2050	19.029	4.5455	0.	1084.9
2051	19.213	4.5455	0.	1043.9
2052	19.397	4.5455	0.	1003.
2053	19.581	4.5455	0.	962.41
2054	19.766	4.5455	0.	922.05
2055	19.95	4.5455	0.	881.96
2056	20.134	4.5455	0.	842.12
2057	20.318	4.5455	0.	802.56
2058	20.502	4.5455	0.	763.29
2059	20.686	4.5455	0.	724.31
2060	20.87	4.5455	0.	685.64
2061	21.054	4.5455	0.	647.3
2062	21.238	4.5455	0.	609.32
2063	21.422	4.5455	0.	571.71
2064	21.607	4.5455	0.	534.51
2065	21.791	4.5455	0.	497.77
2066	21.975	4.5455	0.	461.54
2067	22.159	4.5455	0.	425.89
2068	22.343	4.5455	0.	390.92
2069	22.527	4.5455	0.	356.73
2070	22.711	4.5455	0.	323.51
2071	22.895	4.5455	0.	291.45
2072	23.079	4.5455	0.	260.87
2073	23.264	4.5455	0.	232.18
2074	23.448	4.5455	0.	206.
2075	23.632	4.5455	0.	183.22
2076	23.816	4.5455	0.	165.22
2077	8.3508	4.3636	0.	6597.
2078	8.5349	4.3636	0.	5333.7
2079	8.719	4.3636	0.	4681.8
2080	8.9031	4.3636	0.	4278.6
2081	9.0872	4.3636	0.	4005.4
2082	9.2713	4.3636	0.	3815.3
2083	9.4554	4.3636	0.	3673.9
2084	9.6395	4.3636	0.	3562.8
2085	9.8236	4.3636	0.	3470.8
2086	10.008	4.3636	0.	3391.2
2087	10.192	4.3636	0.	3319.9
2088	10.376	4.3636	0.	3254.4
2089	10.56	4.3636	0.	3193.1
2090	10.744	4.3636	0.	3134.9
2091	10.928	4.3636	0.	3079.2
2092	11.112	4.3636	0.	3025.4
2093	11.297	4.3636	0.	2973.1
2094	11.481	4.3636	0.	2922.1
2095	11.665	4.3636	0.	2872.
2096	11.849	4.3636	0.	2822.8
2097	12.033	4.3636	0.	2774.3
2098	12.217	4.3636	0.	2726.3
2099	12.401	4.3636	0.	2678.8
2100	12.585	4.3636	0.	2631.7
2101	12.769	4.3636	0.	2584.9
2102	12.953	4.3636	0.	2538.3
2103	13.138	4.3636	0.	2491.9
2104	13.322	4.3636	0.	2445.7
2105	13.506	4.3636	0.	2399.7
2106	13.69	4.3636	0.	2353.8
2107	13.874	4.3636	0.	2308.1
2108	14.058	4.3636	0.	2262.5
2109	14.242	4.3636	0.	2217.
2110	14.426	4.3636	0.	2171.6
2111	14.61	4.3636	0.	2126.3
2112	14.795	4.3636	0.	2081.1
2113	14.979	4.3636	0.	2036.1
2114	15.163	4.3636	0.	1991.2
2115	15.347	4.3636	0.	1946.4
2116	15.531	4.3636	0.	1901.7
2117	15.715	4.3636	0.	1857.2
2118	15.899	4.3636	0.	1812.8
2119	16.083	4.3636	0.	1768.6
2120	16.267	4.3636	0.	1724.5
2121	16.452	4.3636	0.	1680.5
2122	16.636	4.3636	0.	1636.8
2123	16.82	4.3636	0.	1593.1
2124	17.004	4.3636	0.	1549.7
2125	17.188	4.3636	0.	1506.4
2126	17.372	4.3636	0.	1463.4
2127	17.556	4.3636	0.	1420.5
2128	17.74	4.3636	0.	1377.8
2129	17.924	4.3636	0.	1335.3
2130	18.109	4.3636	0.	1293.
2131	18.293	4.3636	0.	1250.9
2132	18.477	4.3636	0.	1209.
2133	18.661	4.3636	0.	1167.4
2134	18.845	4.3636	0.	1126.
2135	19.029	4.3636	0.	1084.8
2136	19.213	4.3636	0.	1043.8
2137	19.397	4.3636	0.	1003.1
2138	19.581	4.3636	0.	962.63
2139	19.766	4.3636	0.	922.43
2140	19.95	4.3636	0.	882.49
2141	20.134	4.3636	0.	842.84
2142	20.318	4.3636	0.	803.48
2143	20.502	4.3636	0.	764.41
2144	20.686	4.3636	0.	725.66
2145	20.87	4.3636	0.	687.24
2146	21.054	4.3636	0.	649.18
2147	21.238	4.3636	0.	611.49
2148	21.422	4.3636	0.	574.2
2149	21.607	4.3636	0.	537.35
2150	21.791	4.3636	0.	500.98
2151	21.975	4.3636	0.	465.15
2152	22.159	4.3636	0.	429.92
2153	22.343	4.3636	0.	395.39
2154	22.527	4.3636	0.	361.68
2155	22.711	4.3636	0.	328.93
2156	22.895	4.3636	0.	297.36
2157	23.079	4.3636	0.	267.27
2158	23.264	4.3636	0.	239.06
2159	23.448	4.3636	0.	213.32
2160	23.632	4.3636	0.	190.94
2161	23.816	4.3636	0.	173.18
2162	8.3508	4.1818	0.	8882.3
2163	8.5349	4.1818	0.	6379.7
2164	8.719	4.1818	0.	5304.8
2165	8.9031	4.1818	0.	4717.6
2166	9.0872	4.1818	0.	4329.6
2167	9.2713	4.1818	0.	4057.4
2168	9.4554	4.1818	0.	3855.2
2169	9.6395	4.1818	0.	3698.2
2170	9.8236	4.1818	0.	3571.1
2171	10.008	4.1818	0.	3464.7
2172	10.192	4.1818	0.	3373.
2173	10.376	4.1818	0.	3292.
2174	10.56	4.1818	0.	3219.
2175	10.744	4.1818	0.	3152.
2176	10.928	4.1818	0.	3089.8
2177	11.112	4.1818	0.	3031.2
2178	11.297	4.1818	0.	2975.4
2179	11.481	4.1818	0.	2921.9
2180	11.665	4.1818	0.	2870.2
2181	11.849	4.1818	0.	2819.8
2182	12.033	4.1818	0.	2770.5
2183	12.217	4.1818	0.	2722.1
2184	12.401	4.1818	0.	2674.4
2185	12.585	4.1818	0.	2627.2
2186	12.769	4.1818	0.	2580.4
2187	12.953	4.1818	0.	2533.9
2188	13.138	4.1818	0.	2487.7
2189	13.322	4.1818	0.	2441.7
2190	13.506	4.1818	0.	2395.9
2191	13.69	4.1818	0.	2350.2
2192	13.874	4.1818	0.	2304.7
2193	14.058	4.1818	0.	2259.3
2194	14.242	4.1818	0.	2214.
2195	14.426	4.1818	0.	2168.8
2196	14.61	4.1818	0.	2123.7
2197	14.795	4.1818	0.	2078.7
2198	14.979	4.1818	0.	2033.8
2199	15.163	4.1818	0.	1989.1
2200	15.347	4.1818	0.	1944.4
2201	15.531	4.1818	0.	1899.9
2202	15.715	4.1818	0.	1855.5
2203	15.899	4.1818	0.	1811.2
2204	16.083	4.1818	0.	1767.
2205	16.267	4.1818	0.	1723.
2206	16.452	4.1818	0.	1679.2
2207	16.636	4.1818	0.	1635.5
2208	16.82	4.1818	0.	1592.
2209	17.004	4.1818	0.	1548.6
2210	17.188	4.1818	0.	1505.5
2211	17.372	4.1818	0.	1462.5
2212	17.556	4.1818	0.	1419.7
2213	17.74	4.1818	0.	1377.
2214	17.924	4.1818	0.	1334.6
2215	18.109	4.1818	0.	1292.4
2216	18.293	4.1818	0.	1250.4
2217	18.477	4.1818	0.	1208.6
2218	18.661	4.1818	0.	1167.1
2219	18.845	4.1818	0.	1125.7
2220	19.029	4.1818	0.	1084.7
2221	19.213	4.1818	0.	1043.8
2222	19.397	4.1818	0.	1003.2
2223	19.581	4.1818	0.	962.89
2224	19.766	4.1818	0.	922.83
2225	19.95	4.1818	0.	883.05
2226	20.134	4.1818	0.	843.56
2227	20.318	4.1818	0.	804.37
2228	20.502	4.1818	0.	765.5
2229	20.686	4.1818	0.	726.96
2230	20.87	4.1818	0.	688.77
2231	21.054	4.1818	0.	650.95
2232	21.238	4.1818	0.	613.52
2233	21.422	4.1818	0.	576.51
2234	21.607	4.1818	0.	539.97
2235	21.791	4.1818	0.	503.92
2236	21.975	4.1818	0.	468.43
2237	22.159	4.1818	0.	433.56
2238	22.343	4.1818	0.	399.41
2239	22.527	4.1818	0.	366.08
2240	22.711	4.1818	0.	333.72
2241	22.895	4.1818	0.	302.54
2242	23.079	4.1818	0.	272.83
2243	23.264	4.1818	0.	244.99
2244	23.448	4.1818	0.	219.6
2245	23.632	4.1818	0.	197.53
2246	23.816	4.1818	0.	179.97
2247	8.3508	4.	0.	10822
2248	8.5349	4.	0.	7201.
2249	8.719	4.	0.	5893.3
2250	8.9031	4.	0.	5140.4
2251	9.0872	4.	0.	4641.6
2252	9.2713	4.	0.	4291.4
2253	9.4554	4.	0.	4030.5
2254	9.6395	4.	0.	3828.9
2255	9.8236	4.	0.	3667.7
2256	10.008	4.	0.	3535.3
2257	10.192	4.	0.	3423.7
2258	10.376	4.	0.	3327.7
2259	10.56	4.	0.	3243.4
2260	10.744	4.	0.	3168.1
2261	10.928	4.	0.	3099.6
2262	11.112	4.	0.	3036.5
2263	11.297	4.	0.	2977.5
2264	11.481	4.	0.	2921.7
2265	11.665	4.	0.	2868.3
2266	11.849	4.	0.	2816.9
2267	12.033	4.	0.	2767.
2268	12.217	4.	0.	2718.2
2269	12.401	4.	0.	2670.3
2270	12.585	4.	0.	2623.
2271	12.769	4.	0.	2576.3
2272	12.953	4.	0.	2529.9
2273	13.138	4.	0.	2483.9
2274	13.322	4.	0.	2438.1
2275	13.506	4.	0.	2392.5
2276	13.69	4.	0.	2347.
2277	13.874	4.	0.	2301.7
2278	14.058	4.	0.	2256.5
2279	14.242	4.	0.	2211.4
2280	14.426	4.	0.	2166.3
2281	14.61	4.	0.	2121.4
2282	14.795	4.	0.	2076.6
2283	14.979	4.	0.	2031.8
2284	15.163	4.	0.	1987.2
2285	15.347	4.	0.	1942.7
2286	15.531	4.	0.	1898.2
2287	15.715	4.	0.	1853.9
2288	15.899	4.	0.	1809.8
2289	16.083	4.	0.	1765.7
2290	16.267	4.	0.	1721.8
2291	16.452	4.	0.	1678.1
2292	16.636	4.	0.	1634.5
2293	16.82	4.	0.	1591.
2294	17.004	4.	0.	1547.7
2295	17.188	4.	0.	1504.6
2296	17.372	4.	0.	1461.7
2297	17.556	4.	0.	1419.
2298	17.74	4.	0.	1376.4
2299	17.924	4.	0.	1334.1
2300	18.109	4.	0.	1291.9
2301	18.293	4.	0.	1250.
2302	18.477	4.	0.	1208.3
2303	18.661	4.	0.	1166.8
2304	18.845	4.	0.	1125.6
2305	19.029	4.	0.	1084.6
2306	19.213	4.	0.	1043.9
2307	19.397	4.	0.	1003.4
2308	19.581	4.	0.	963.17
2309	19.766	4.	0.	923.23
2310	19.95	4.	0.	883.59
2311	20.134	4.	0.	844.24
2312	20.318	4.	0.	805.21
2313	20.502	4.	0.	766.51
2314	20.686	4.	0.	728.16
2315	20.87	4.	0.	690.16
2316	21.054	4.	0.	652.56
2317	21.238	4.	0.	615.36
2318	21.422	4.	0.	578.6
2319	21.607	4.	0.	542.31
2320	21.791	4.	0.	506.54
2321	21.975	4.	0.	471.33
2322	22.159	4.	0.	436.76
2323	22.343	4.	0.	402.91
2324	22.527	4.	0.	369.89
2325	22.711	4.	0.	337.84
2326	22.895	4.	0.	306.97
2327	23.079	4.	0.	277.56
2328	23.264	4.	0.	250.01
2329	23.448	4.	0.	224.9
2330	23.632	4.	0.	203.07
2331	23.816	4.	0.	185.66
2332	8.3508	3.8182	0.	10725
2333	8.5349	3.8182	0.	7913.6
2334	8.719	3.8182	0.	6406.4
2335	8.9031	3.8182	0.	5529.4
2336	9.0872	3.8182	0.	4934.5
2337	9.2713	3.8182	0.	4511.6
2338	9.4554	3.8182	0.	4195.4
2339	9.6395	3.8182	0.	3951.4
2340	9.8236	3.8182	0.	3757.8
2341	10.008	3.8182	0.	3600.7
2342	10.192	3.8182	0.	3470.5
2343	10.376	3.8182	0.	3360.4
2344	10.56	3.8182	0.	3265.6
2345	10.744	3.8182	0.	3182.6
2346	10.928	3.8182	0.	3108.4
2347	11.112	3.8182	0.	3041.2
2348	11.297	3.8182	0.	2979.2
2349	11.481	3.8182	0.	2921.4
2350	11.665	3.8182	0.	2866.6
2351	11.849	3.8182	0.	2814.3
2352	12.033	3.8182	0.	2763.8
2353	12.217	3.8182	0.	2714.7
2354	12.401	3.8182	0.	2666.6
2355	12.585	3.8182	0.	2619.3
2356	12.769	3.8182	0.	2572.7
2357	12.953	3.8182	0.	2526.4
2358	13.138	3.8182	0.	2480.6
2359	13.322	3.8182	0.	2434.9
2360	13.506	3.8182	0.	2389.5
2361	13.69	3.8182	0.	2344.2
2362	13.874	3.8182	0.	2299.1
2363	14.058	3.8182	0.	2254.1
2364	14.242	3.8182	0.	2209.1
2365	14.426	3.8182	0.	2164.2
2366	14.61	3.8182	0.	2119.5
2367	14.795	3.8182	0.	2074.8
2368	14.979	3.8182	0.	2030.1
2369	15.163	3.8182	0.	1985.6
2370	15.347	3.8182	0.	1941.2
2371	15.531	3.8182	0.	1896.9
2372	15.715	3.8182	0.	1852.7
2373	15.899	3.8182	0.	1808.6
2374	16.083	3.8182	0.	1764.6
2375	16.267	3.8182	0.	1720.8
2376	16.452	3.8182	0.	1677.1
2377	16.636	3.8182	0.	1633.6
2378	16.82	3.8182	0.	1590.2
2379	17.004	3.8182	0.	1547.
2380	17.188	3.8182	0.	1503.9
2381	17.372	3.8182	0.	1461.1
2382	17.556	3.8182	0.	1418.4
2383	17.74	3.8182	0.	1375.9
2384	17.924	3.8182	0.	1333.6
2385	18.109	3.8182	0.	1291.6
2386	18.293	3.8182	0.	1249.7
2387	18.477	3.8182	0.	1208.1
2388	18.661	3.8182	0.	1166.7
2389	18.845	3.8182	0.	1125.5
2390	19.029	3.8182	0.	1084.6
2391	19.213	3.8182	0.	1043.9
2392	19.397	3.8182	0.	1003.5
2393	19.581	3.8182	0.	963.43
2394	19.766	3.8182	0.	923.61
2395	19.95	3.8182	0.	884.08
2396	20.134	3.8182	0.	844.86
2397	20.318	3.8182	0.	805.96
2398	20.502	3.8182	0.	767.41
2399	20.686	3.8182	0.	729.21
2400	20.87	3.8182	0.	691.39
2401	21.054	3.8182	0.	653.96
2402	21.238	3.8182	0.	616.95
2403	21.422	3.8182	0.	580.39
2404	21.607	3.8182	0.	544.32
2405	21.791	3.8182	0.	508.78
2406	21.975	3.8182	0.	473.8
2407	22.159	3.8182	0.	439.47
2408	22.343	3.8182	0.	405.86
2409	22.527	3.8182	0.	373.09
2410	22.711	3.8182	0.	341.28
2411	22.895	3.8182	0.	310.65
2412	23.079	3.8182	0.	281.47
2413	23.264	3.8182	0.	254.15
2414	23.448	3.8182	0.	229.26
2415	23.632	3.8182	0.	207.62
2416	23.816	3.8182	0.	190.33
2417	8.3508	3.6364	0.	10166
2418	8.5349	3.6364	0.	8176.3
2419	8.719	3.6364	0.	6795.6
2420	8.9031	3.6364	0.	5852.4
2421	9.0872	3.6364	0.	5191.4
2422	9.2713	3.6364	0.	4707.7
2423	9.4554	3.6364	0.	4342.9
2424	9.6395	3.6364	0.	4060.7
2425	9.8236	3.6364	0.	3837.9
2426	10.008	3.6364	0.	3658.5
2427	10.192	3.6364	0.	3511.6
2428	10.376	3.6364	0.	3389.
2429	10.56	3.6364	0.	3285.
2430	10.744	3.6364	0.	3195.1
2431	10.928	3.6364	0.	3116.
2432	11.112	3.6364	0.	3045.2
2433	11.297	3.6364	0.	2980.7
2434	11.481	3.6364	0.	2921.1
2435	11.665	3.6364	0.	2865.2
2436	11.849	3.6364	0.	2812.1
2437	12.033	3.6364	0.	2761.1
2438	12.217	3.6364	0.	2711.7
2439	12.401	3.6364	0.	2663.5
2440	12.585	3.6364	0.	2616.2
2441	12.769	3.6364	0.	2569.6
2442	12.953	3.6364	0.	2523.5
2443	13.138	3.6364	0.	2477.8
2444	13.322	3.6364	0.	2432.3
2445	13.506	3.6364	0.	2387.1
2446	13.69	3.6364	0.	2341.9
2447	13.874	3.6364	0.	2297.
2448	14.058	3.6364	0.	2252.1
2449	14.242	3.6364	0.	2207.2
2450	14.426	3.6364	0.	2162.5
2451	14.61	3.6364	0.	2117.9
2452	14.795	3.6364	0.	2073.3
2453	14.979	3.6364	0.	2028.8
2454	15.163	3.6364	0.	1984.3
2455	15.347	3.6364	0.	1940.
2456	15.531	3.6364	0.	1895.8
2457	15.715	3.6364	0.	1851.6
2458	15.899	3.6364	0.	1807.6
2459	16.083	3.6364	0.	1763.7
2460	16.267	3.6364	0.	1720.
2461	16.452	3.6364	0.	1676.3
2462	16.636	3.6364	0.	1632.9
2463	16.82	3.6364	0.	1589.5
2464	17.004	3.6364	0.	1546.4
2465	17.188	3.6364	0.	1503.4
2466	17.372	3.6364	0.	1460.6
2467	17.556	3.6364	0.	1417.9
2468	17.74	3.6364	0.	1375.5
2469	17.924	3.6364	0.	1333.3
2470	18.109	3.6364	0.	1291.3
2471	18.293	3.6364	0.	1249.5
2472	18.477	3.6364	0.	1207.9
2473	18.661	3.6364	0.	1166.5
2474	18.845	3.6364	0.	1125.5
2475	19.029	3.6364	0.	1084.6
2476	19.213	3.6364	0.	1044.
2477	19.397	3.6364	0.	1003.7
2478	19.581	3.6364	0.	963.67
2479	19.766	3.6364	0.	923.93
2480	19.95	3.6364	0.	884.5
2481	20.134	3.6364	0.	845.38
2482	20.318	3.6364	0.	806.6
2483	20.502	3.6364	0.	768.16
2484	20.686	3.6364	0.	730.09
2485	20.87	3.6364	0.	692.4
2486	21.054	3.6364	0.	655.12
2487	21.238	3.6364	0.	618.27
2488	21.422	3.6364	0.	581.87
2489	21.607	3.6364	0.	545.97
2490	21.791	3.6364	0.	510.6
2491	21.975	3.6364	0.	475.81
2492	22.159	3.6364	0.	441.67
2493	22.343	3.6364	0.	408.25
2494	22.527	3.6364	0.	375.65
2495	22.711	3.6364	0.	344.03
2496	22.895	3.6364	0.	313.58
2497	23.079	3.6364	0.	284.58
2498	23.264	3.6364	0.	257.43
2499	23.448	3.6364	0.	232.71
2500	23.632	3.6364	0.	211.21
2501	23.816	3.6364	0.	194.01
2502	8.3508	3.4545	0.	9436.7
2503	8.5349	3.4545	0.	8167.7
2504	8.719	3.4545	0.	6999.2
2505	8.9031	3.4545	0.	6084.7
2506	9.0872	3.4545	0.	5392.
2507	9.2713	3.4545	0.	4866.8
2508	9.4554	3.4545	0.	4464.
2509	9.6395	3.4545	0.	4150.7
2510	9.8236	3.4545	0.	3903.6
2511	10.008	3.4545	0.	3705.8
2512	10.192	3.4545	0.	3545.
2513	10.376	3.4545	0.	3412.1
2514	10.56	3.4545	0.	3300.5
2515	10.744	3.4545	0.	3205.1
2516	10.928	3.4545	0.	3122.
2517	11.112	3.4545	0.	3048.4
2518	11.297	3.4545	0.	2981.9
2519	11.481	3.4545	0.	2920.9
2520	11.665	3.4545	0.	2864.
2521	11.849	3.4545	0.	2810.3
2522	12.033	3.4545	0.	2759.
2523	12.217	3.4545	0.	2709.4
2524	12.401	3.4545	0.	2661.1
2525	12.585	3.4545	0.	2613.9
2526	12.769	3.4545	0.	2567.3
2527	12.953	3.4545	0.	2521.3
2528	13.138	3.4545	0.	2475.7
2529	13.322	3.4545	0.	2430.3
2530	13.506	3.4545	0.	2385.2
2531	13.69	3.4545	0.	2340.2
2532	13.874	3.4545	0.	2295.3
2533	14.058	3.4545	0.	2250.5
2534	14.242	3.4545	0.	2205.8
2535	14.426	3.4545	0.	2161.2
2536	14.61	3.4545	0.	2116.6
2537	14.795	3.4545	0.	2072.1
2538	14.979	3.4545	0.	2027.7
2539	15.163	3.4545	0.	1983.4
2540	15.347	3.4545	0.	1939.1
2541	15.531	3.4545	0.	1894.9
2542	15.715	3.4545	0.	1850.9
2543	15.899	3.4545	0.	1806.9
2544	16.083	3.4545	0.	1763.1
2545	16.267	3.4545	0.	1719.3
2546	16.452	3.4545	0.	1675.8
2547	16.636	3.4545	0.	1632.3
2548	16.82	3.4545	0.	1589.
2549	17.004	3.4545	0.	1545.9
2550	17.188	3.4545	0.	1503.
2551	17.372	3.4545	0.	1460.2
2552	17.556	3.4545	0.	1417.6
2553	17.74	3.4545	0.	1375.2
2554	17.924	3.4545	0.	1333.
2555	18.109	3.4545	0.	1291.1
2556	18.293	3.4545	0.	1249.3
2557	18.477	3.4545	0.	1207.8
2558	18.661	3.4545	0.	1166.5
2559	18.845	3.4545	0.	1125.4
2560	19.029	3.4545	0.	1084.6
2561	19.213	3.4545	0.	1044.1
2562	19.397	3.4545	0.	1003.8
2563	19.581	3.4545	0.	963.86
2564	19.766	3.4545	0.	924.19
2565	19.95	3.4545	0.	884.83
2566	20.134	3.4545	0.	845.79
2567	20.318	3.4545	0.	807.09
2568	20.502	3.4545	0.	768.75
2569	20.686	3.4545	0.	730.77
2570	20.87	3.4545	0.	693.19
2571	21.054	3.4545	0.	656.01
2572	21.238	3.4545	0.	619.28
2573	21.422	3.4545	0.	583.01
2574	21.607	3.4545	0.	547.23
2575	21.791	3.4545	0.	511.99
2576	21.975	3.4545	0.	477.34
2577	22.159	3.4545	0.	443.33
2578	22.343	3.4545	0.	410.04
2579	22.527	3.4545	0.	377.58
2580	22.711	3.4545	0.	346.09
2581	22.895	3.4545	0.	315.77
2582	23.079	3.4545	0.	286.9
2583	23.264	3.4545	0.	259.88
2584	23.448	3.4545	0.	235.27
2585	23.632	3.4545	0.	213.88
2586	23.816	3.4545	0.	196.74
2587	8.3508	3.2727	0.	9006.5
2588	8.5349	3.2727	0.	8064.6
2589	8.719	3.2727	0.	7082.1
2590	8.9031	3.2727	0.	6222.3
2591	9.0872	3.2727	0.	5525.7
2592	9.2713	3.2727	0.	4977.8
2593	9.4554	3.2727	0.	4550.
2594	9.6395	3.2727	0.	4215.
2595	9.8236	3.2727	0.	3950.5
2596	10.008	3.2727	0.	3739.4
2597	10.192	3.2727	0.	3568.6
2598	10.376	3.2727	0.	3428.4
2599	10.56	3.2727	0.	3311.4
2600	10.744	3.2727	0.	3212.1
2601	10.928	3.2727	0.	3126.2
2602	11.112	3.2727	0.	3050.6
2603	11.297	3.2727	0.	2982.7
2604	11.481	3.2727	0.	2920.7
2605	11.665	3.2727	0.	2863.2
2606	11.849	3.2727	0.	2809.1
2607	12.033	3.2727	0.	2757.5
2608	12.217	3.2727	0.	2707.8
2609	12.401	3.2727	0.	2659.5
2610	12.585	3.2727	0.	2612.2
2611	12.769	3.2727	0.	2565.7
2612	12.953	3.2727	0.	2519.7
2613	13.138	3.2727	0.	2474.2
2614	13.322	3.2727	0.	2428.9
2615	13.506	3.2727	0.	2383.9
2616	13.69	3.2727	0.	2339.
2617	13.874	3.2727	0.	2294.2
2618	14.058	3.2727	0.	2249.5
2619	14.242	3.2727	0.	2204.9
2620	14.426	3.2727	0.	2160.3
2621	14.61	3.2727	0.	2115.8
2622	14.795	3.2727	0.	2071.4
2623	14.979	3.2727	0.	2027.
2624	15.163	3.2727	0.	1982.7
2625	15.347	3.2727	0.	1938.5
2626	15.531	3.2727	0.	1894.4
2627	15.715	3.2727	0.	1850.3
2628	15.899	3.2727	0.	1806.4
2629	16.083	3.2727	0.	1762.6
2630	16.267	3.2727	0.	1718.9
2631	16.452	3.2727	0.	1675.4
2632	16.636	3.2727	0.	1632.
2633	16.82	3.2727	0.	1588.7
2634	17.004	3.2727	0.	1545.6
2635	17.188	3.2727	0.	1502.7
2636	17.372	3.2727	0.	1460.
2637	17.556	3.2727	0.	1417.4
2638	17.74	3.2727	0.	1375.
2639	17.924	3.2727	0.	1332.9
2640	18.109	3.2727	0.	1290.9
2641	18.293	3.2727	0.	1249.2
2642	18.477	3.2727	0.	1207.7
2643	18.661	3.2727	0.	1166.4
2644	18.845	3.2727	0.	1125.4
2645	19.029	3.2727	0.	1084.6
2646	19.213	3.2727	0.	1044.1
2647	19.397	3.2727	0.	1003.9
2648	19.581	3.2727	0.	964.
2649	19.766	3.2727	0.	924.37
2650	19.95	3.2727	0.	885.06
2651	20.134	3.2727	0.	846.07
2652	20.318	3.2727	0.	807.43
2653	20.502	3.2727	0.	769.15
2654	20.686	3.2727	0.	731.24
2655	20.87	3.2727	0.	693.72
2656	21.054	3.2727	0.	656.62
2657	21.238	3.2727	0.	619.96
2658	21.422	3.2727	0.	583.77
2659	21.607	3.2727	0.	548.08
2660	21.791	3.2727	0.	512.93
2661	21.975	3.2727	0.	478.36
2662	22.159	3.2727	0.	444.44
2663	22.343	3.2727	0.	411.24
2664	22.527	3.2727	0.	378.87
2665	22.711	3.2727	0.	347.47
2666	22.895	3.2727	0.	317.23
2667	23.079	3.2727	0.	288.44
2668	23.264	3.2727	0.	261.5
2669	23.448	3.2727	0.	236.97
2670	23.632	3.2727	0.	215.65
2671	23.816	3.2727	0.	198.55
2672	8.3508	3.0909	0.	8801.7
2673	8.5349	3.0909	0.	7996.8
2674	8.719	3.0909	0.	7106.7
2675	8.9031	3.0909	0.	6283.8
2676	9.0872	3.0909	0.	5591.4
2677	9.2713	3.0909	0.	5034.4
2678	9.4554	3.0909	0.	4594.5
2679	9.6395	3.0909	0.	4248.5
2680	9.8236	3.0909	0.	3975.
2681	10.008	3.0909	0.	3756.9
2682	10.192	3.0909	0.	3580.9
2683	10.376	3.0909	0.	3436.9
2684	10.56	3.0909	0.	3317.1
2685	10.744	3.0909	0.	3215.7
2686	10.928	3.0909	0.	3128.4
2687	11.112	3.0909	0.	3051.7
2688	11.297	3.0909	0.	2983.1
2689	11.481	3.0909	0.	2920.7
2690	11.665	3.0909	0.	2862.8
2691	11.849	3.0909	0.	2808.5
2692	12.033	3.0909	0.	2756.8
2693	12.217	3.0909	0.	2707.
2694	12.401	3.0909	0.	2658.6
2695	12.585	3.0909	0.	2611.4
2696	12.769	3.0909	0.	2564.9
2697	12.953	3.0909	0.	2519.
2698	13.138	3.0909	0.	2473.5
2699	13.322	3.0909	0.	2428.2
2700	13.506	3.0909	0.	2383.2
2701	13.69	3.0909	0.	2338.4
2702	13.874	3.0909	0.	2293.6
2703	14.058	3.0909	0.	2249.
2704	14.242	3.0909	0.	2204.4
2705	14.426	3.0909	0.	2159.9
2706	14.61	3.0909	0.	2115.4
2707	14.795	3.0909	0.	2071.
2708	14.979	3.0909	0.	2026.6
2709	15.163	3.0909	0.	1982.4
2710	15.347	3.0909	0.	1938.2
2711	15.531	3.0909	0.	1894.1
2712	15.715	3.0909	0.	1850.1
2713	15.899	3.0909	0.	1806.2
2714	16.083	3.0909	0.	1762.4
2715	16.267	3.0909	0.	1718.7
2716	16.452	3.0909	0.	1675.2
2717	16.636	3.0909	0.	1631.8
2718	16.82	3.0909	0.	1588.6
2719	17.004	3.0909	0.	1545.5
2720	17.188	3.0909	0.	1502.6
2721	17.372	3.0909	0.	1459.8
2722	17.556	3.0909	0.	1417.3
2723	17.74	3.0909	0.	1374.9
2724	17.924	3.0909	0.	1332.8
2725	18.109	3.0909	0.	1290.8
2726	18.293	3.0909	0.	1249.1
2727	18.477	3.0909	0.	1207.6
2728	18.661	3.0909	0.	1166.4
2729	18.845	3.0909	0.	1125.4
2730	19.029	3.0909	0.	1084.6
2731	19.213	3.0909	0.	1044.2
2732	19.397	3.0909	0.	1004.
2733	19.581	3.0909	0.	964.07
2734	19.766	3.0909	0.	924.46
2735	19.95	3.0909	0.	885.18
2736	20.134	3.0909	0.	846.22
2737	20.318	3.0909	0.	807.6
2738	20.502	3.0909	0.	769.35
2739	20.686	3.0909	0.	731.47
2740	20.87	3.0909	0.	693.99
2741	21.054	3.0909	0.	656.93
2742	21.238	3.0909	0.	620.31
2743	21.422	3.0909	0.	584.16
2744	21.607	3.0909	0.	548.51
2745	21.791	3.0909	0.	513.4
2746	21.975	3.0909	0.	478.88
2747	22.159	3.0909	0.	445.
2748	22.343	3.0909	0.	411.85
2749	22.527	3.0909	0.	379.52
2750	22.711	3.0909	0.	348.15
2751	22.895	3.0909	0.	317.96
2752	23.079	3.0909	0.	289.21
2753	23.264	3.0909	0.	262.3
2754	23.448	3.0909	0.	237.81
2755	23.632	3.0909	0.	216.53
2756	23.816	3.0909	0.	199.45
2757	8.3508	2.9091	0.	8801.7
2758	8.5349	2.9091	0.	7996.8
2759	8.719	2.9091	0.	7106.7
2760	8.9031	2.9091	0.	6283.8
2761	9.0872	2.9091	0.	5591.4
2762	9.2713	2.9091	0.	5034.4
2763	9.4554	2.9091	0.	4594.5
2764	9.6395	2.9091	0.	4248.5
2765	9.8236	2.9091	0.	3975.
2766	10.008	2.9091	0.	3756.9
2767	10.192	2.9091	0.	3580.9
2768	10.376	2.9091	0.	3436.9
2769	10.56	2.9091	0.	3317.1
2770	10.744	2.9091	0.	3215.7
2771	10.928	2.9091	0.	3128.4
2772	11.112	2.9091	0.	3051.7
2773	11.297	2.9091	0.	2983.1
2774	11.481	2.9091	0.	2920.7
2775	11.665	2.9091	0.	2862.8
2776	11.849	2.9091	0.	2808.5
2777	12.033	2.9091	0.	2756.8
2778	12.217	2.9091	0.	2707.
2779	12.401	2.9091	0.	2658.6
2780	12.585	2.9091	0.	2611.4
2781	12.769	2.9091	0.	2564.9
2782	12.953	2.9091	0.	2519.
2783	13.138	2.9091	0.	2473.5
2784	13.322	2.9091	0.	2428.2
2785	13.506	2.9091	0.	2383.2
2786	13.69	2.9091	0.	2338.4
2787	13.874	2.9091	0.	2293.6
2788	14.058	2.9091	0.	2249.
2789	14.242	2.9091	0.	2204.4
2790	14.426	2.9091	0.	2159.9
2791	14.61	2.9091	0.	2115.4
2792	14.795	2.9091	0.	2071.
2793	14.979	2.9091	0.	2026.6
2794	15.163	2.9091	0.	1982.4
2795	15.347	2.9091	0.	1938.2
2796	15.531	2.9091	0.	1894.1
2797	15.715	2.9091	0.	1850.1
2798	15.899	2.9091	0.	1806.2
2799	16.083	2.9091	0.	1762.4
2800	16.267	2.9091	0.	1718.7
2801	16.452	2.9091	0.	1675.2
2802	16.636	2.9091	0.	1631.8
2803	16.82	2.9091	0.	1588.6
2804	17.004	2.9091	0.	1545.5
2805	17.188	2.9091	0.	1502.6
2806	17.372	2.9091	0.	1459.8
2807	17.556	2.9091	0.	1417.3
2808	17.74	2.9091	0.	1374.9
2809	17.924	2.9091	0.	1332.8
2810	18.109	2.9091	0.	1290.8
2811	18.293	2.9091	0.	1249.1
2812	18.477	2.9091	0.	1207.6
2813	18.661	2.9091	0.	1166.4
2814	18.845	2.9091	0.	1125.4
2815	19.029	2.9091	0.	1084.6
2816	19.213	2.9091	0.	1044.2
2817	19.397	2.9091	0.	1004.
2818	19.581	2.9091	0.	964.07
2819	19.766	2.9091	0.	924.46
2820	19.95	2.9091	0.	885.18
2821	20.134	2.9091	0.	846.22
2822	20.318	2.9091	0.	807.6
2823	20.502	2.9091	0.	769.35
2824	20.686	2.9091	0.	731.47
2825	20.87	2.9091	0.	693.99
2826	21.054	2.9091	0.	656.93
2827	21.238	2.9091	0.	620.31
2828	21.422	2.9091	0.	584.16
2829	21.607	2.9091	0.	548.51
2830	21.791	2.9091	0.	513.4
2831	21.975	2.9091	0.	478.88
2832	22.159	2.9091	0.	445.
2833	22.343	2.9091	0.	411.85
2834	22.527	2.9091	0.	379.52
2835	22.711	2.9091	0.	348.15
2836	22.895	2.9091	0.	317.96
2837	23.079	2.9091	0.	289.21
2838	23.264	2.9091	0.	262.3
2839	23.448	2.9091	0.	237.81
2840	23.632	2.9091	0.	216.53
2841	23.816	2.9091	0.	199.45
2842	8.3508	2.7273	0.	9006.5
2843	8.5349	2.7273	0.	8064.6
2844	8.719	2.7273	0.	7082.1
2845	8.9031	2.7273	0.	6222.3
2846	9.0872	2.7273	0.	5525.7
2847	9.2713	2.7273	0.	4977.8
2848	9.4554	2.7273	0.	4550.
2849	9.6395	2.7273	0.	4215.
2850	9.8236	2.7273	0.	3950.5
2851	10.008	2.7273	0.	3739.4
2852	10.192	2.7273	0.	3568.6
2853	10.376	2.7273	0.	3428.4
2854	10.56	2.7273	0.	3311.4
2855	10.744	2.7273	0.	3212.1
2856	10.928	2.7273	0.	3126.2
2857	11.112	2.7273	0.	3050.6
2858	11.297	2.7273	0.	2982.7
2859	11.481	2.7273	0.	2920.7
2860	11.665	2.7273	0.	2863.2
2861	11.849	2.7273	0.	2809.1
2862	12.033	2.7273	0.	2757.5
2863	12.217	2.7273	0.	2707.8
2864	12.401	2.7273	0.	2659.5
2865	12.585	2.7273	0.	2612.2
2866	12.769	2.7273	0.	2565.7
2867	12.953	2.7273	0.	2519.7
2868	13.138	2.7273	0.	2474.2
2869	13.322	2.7273	0.	2428.9
2870	13.506	2.7273	0.	2383.9
2871	13.69	2.7273	0.	2339.
2872	13.874	2.7273	0.	2294.2
2873	14.058	2.7273	0.	2249.5
2874	14.242	2.7273	0.	2204.9
2875	14.426	2.7273	0.	2160.3
2876	14.61	2.7273	0.	2115.8
2877	14.795	2.7273	0.	2071.4
2878	14.979	2.7273	0.	2027.
2879	15.163	2.7273	0.	1982.7
2880	15.347	2.7273	0.	1938.5
2881	15.531	2.7273	0.	1894.4
2882	15.715	2.7273	0.	1850.3
2883	15.899	2.7273	0.	1806.4
2884	16.083	2.7273	0.	1762.6
2885	16.267	2.7273	0.	1718.9
2886	16.452	2.7273	0.	1675.4
2887	16.636	2.7273	0.	1632.
2888	16.82	2.7273	0.	1588.7
2889	17.004	2.7273	0.	1545.6
2890	17.188	2.7273	0.	1502.7
2891	17.372	2.7273	0.	1460.
2892	17.556	2.7273	0.	1417.4
2893	17.74	2.7273	0.	1375.
2894	17.924	2.7273	0.	1332.9
2895	18.109	2.7273	0.	1290.9
2896	18.293	2.7273	0.	1249.2
2897	18.477	2.7273	0.	1207.7
2898	18.661	2.7273	0.	1166.4
2899	18.845	2.7273	0.	1125.4
2900	19.029	2.7273	0.	1084.6
2901	19.213	2.7273	0.	1044.1
2902	19.397	2.7273	0.	1003.9
2903	19.581	2.7273	0.	964.
2904	19.766	2.7273	0.	924.37
2905	19.95	2.7273	0.	885.06
2906	20.134	2.7273	0.	846.07
2907	20.318	2.7273	0.	807.43
2908	20.502	2.7273	0.	769.15
2909	20.686	2.7273	0.	731.24
2910	20.87	2.7273	0.	693.72
2911	21.054	2.7273	0.	656.62
2912	21.238	2.7273	0.	619.96
2913	21.422	2.7273	0.	583.77
2914	21.607	2.7273	0.	548.08
2915	21.791	2.7273	0.	512.93
2916	21.975	2.7273	0.	478.36
2917	22.159	2.7273	0.	444.44
2918	22.343	2.7273	0.	411.24
2919	22.527	2.7273	0.	378.87
2920	22.711	2.7273	0.	347.47
2921	22.895	2.7273	0.	317.23
2922	23.079	2.7273	0.	288.44
2923	23.264	2.7273	0.	261.5
2924	23.448	2.7273	0.	236.97
2925	23.632	2.7273	0.	215.65
2926	23.816	2.7273	0.	198.55
2927	8.3508	2.5455	0.	9436.7
2928	8.5349	2.5455	0.	8167.7
2929	8.719	2.5455	0.	6999.2
2930	8.9031	2.5455	0.	6084.7
2931	9.0872	2.5455	0.	5392.
2932	9.2713	2.5455	0.	4866.8
2933	9.4554	2.5455	0.	4464.
2934	9.6395	2.5455	0.	4150.7
2935	9.8236	2.5455	0.	3903.6
2936	10.008	2.5455	0.	3705.8
2937	10.192	2.5455	0.	3545.
2938	10.376	2.5455	0.	3412.1
2939	10.56	2.5455	0.	3300.5
2940	10.744	2.5455	0.	3205.1
2941	10.928	2.5455	0.	3122.
2942	11.112	2.5455	0.	3048.4
2943	11.297	2.5455	0.	2981.9
2944	11.481	2.5455	0.	2920.9
2945	11.665	2.5455	0.	2864.
2946	11.849	2.5455	0.	2810.3
2947	12.033	2.5455	0.	2759.
2948	12.217	2.5455	0.	2709.4
2949	12.401	2.5455	0.	2661.1
2950	12.585	2.5455	0.	2613.9
2951	12.769	2.5455	0.	2567.3
2952	12.953	2.5455	0.	2521.3
2953	13.138	2.5455	0.	2475.7
2954	13.322	2.5455	0.	2430.3
2955	13.506	2.5455	0.	2385.2
2956	13.69	2.5455	0.	2340.2
2957	13.874	2.5455	0.	2295.3
2958	14.058	2.5455	0.	2250.5
2959	14.242	2.5455	0.	2205.8
2960	14.426	2.5455	0.	2161.2
2961	14.61	2.5455	0.	2116.6
2962	14.795	2.5455	0.	2072.1
2963	14.979	2.5455	0.	2027.7
2964	15.163	2.5455	0.	1983.4
2965	15.347	2.5455	0.	1939.1
2966	15.531	2.5455	0.	1894.9
2967	15.715	2.5455	0.	1850.9
2968	15.899	2.5455	0.	1806.9
2969	16.083	2.5455	0.	1763.1
2970	16.267	2.5455	0.	1719.3
2971	16.452	2.5455	0.	1675.8
2972	16.636	2.5455	0.	1632.3
2973	16.82	2.5455	0.	1589.
2974	17.004	2.5455	0.	1545.9
2975	17.188	2.5455	0.	1503.
2976	17.372	2.5455	0.	1460.2
2977	17.556	2.5455	0.	1417.6
2978	17.74	2.5455	0.	1375.2
2979	17.924	2.5455	0.	1333.
2980	18.109	2.5455	0.	1291.1
2981	18.293	2.5455	0.	1249.3
2982	18.477	2.5455	0.	1207.8
2983	18.661	2.5455	0.	1166.5
2984	18.845	2.5455	0.	1125.4
2985	19.029	2.5455	0.	1084.6
2986	19.213	2.5455	0.	1044.1
2987	19.397	2.5455	0.	1003.8
2988	19.581	2.5455	0.	963.86
2989	19.766	2.5455	0.	924.19
2990	19.95	2.5455	0.	884.83
2991	20.134	2.5455	0.	845.79
2992	20.318	2.5455	0.	807.09
2993	20.502	2.5455	0.	768.75
2994	20.686	2.5455	0.	730.77
2995	20.87	2.5455	0.	693.19
2996	21.054	2.5455	0.	656.01
2997	21.238	2.5455	0.	619.28
2998	21.422	2.5455	0.	583.01
2999	21.607	2.5455	0.	547.23
3000	21.791	2.5455	0.	511.99
3001	21.975	2.5455	0.	477.34
3002	22.159	2.5455	0.	443.33
3003	22.343	2.5455	0.	410.04
3004	22.527	2.5455	0.	377.58
3005	22.711	2.5455	0.	346.09
3006	22.895	2.5455	0.	315.77
3007	23.079	2.5455	0.	286.9
3008	23.264	2.5455	0.	259.88
3009	23.448	2.5455	0.	235.27
3010	23.632	2.5455	0.	213.88
3011	23.816	2.5455	0.	196.74
3012	8.3508	2.3636	0.	10166
3013	8.5349	2.3636	0.	8176.3
3014	8.719	2.3636	0.	6795.6
3015	8.9031	2.3636	0.	5852.4
3016	9.0872	2.3636	0.	5191.4
3017	9.2713	2.3636	0.	4707.7
3018	9.4554	2.3636	0.	4342.9
3019	9.6395	2.3636	0.	4060.7
3020	9.8236	2.3636	0.	3837.9
3021	10.008	2.3636	0.	3658.5
3022	10.192	2.3636	0.	3511.6
3023	10.376	2.3636	0.	3389.
3024	10.56	2.3636	0.	3285.
3025	10.744	2.3636	0.	3195.1
3026	10.928	2.3636	0.	3116.
3027	11.112	2.3636	0.	3045.2
3028	11.297	2.3636	0.	2980.7
3029	11.481	2.3636	0.	2921.1
3030	11.665	2.3636	0.	2865.2
3031	11.849	2.3636	0.	2812.1
3032	12.033	2.3636	0.	2761.1
3033	12.217	2.3636	0.	2711.7
3034	12.401	2.3636	0.	2663.5
3035	12.585	2.3636	0.	2616.2
3036	12.769	2.3636	0.	2569.6
3037	12.953	2.3636	0.	2523.5
3038	13.138	2.3636	0.	2477.8
3039	13.322	2.3636	0.	2432.3
3040	13.506	2.3636	0.	2387.1
3041	13.69	2.3636	0.	2341.9
3042	13.874	2.3636	0.	2297.
3043	14.058	2.3636	0.	2252.1
3044	14.242	2.3636	0.	2207.2
3045	14.426	2.3636	0.	2162.5
3046	14.61	2.3636	0.	2117.9
3047	14.795	2.3636	0.	2073.3
3048	14.979	2.3636	0.	2028.8
3049	15.163	2.3636	0.	1984.3
3050	15.347	2.3636	0.	1940.
3051	15.531	2.3636	0.	1895.8
3052	15.715	2.3636	0.	1851.6
3053	15.899	2.3636	0.	1807.6
3054	16.083	2.3636	0.	1763.7
3055	16.267	2.3636	0.	1720.
3056	16.452	2.3636	0.	1676.3
3057	16.636	2.3636	0.	1632.9
3058	16.82	2.3636	0.	1589.5
3059	17.004	2.3636	0.	1546.4
3060	17.188	2.3636	0.	1503.4
3061	17.372	2.3636	0.	1460.6
3062	17.556	2.3636	0.	1417.9
3063	17.74	2.3636	0.	1375.5
3064	17.924	2.3636	0.	1333.3
3065	18.109	2.3636	0.	1291.3
3066	18.293	2.3636	0.	1249.5
3067	18.477	2.3636	0.	1207.9
3068	18.661	2.3636	0.	1166.5
3069	18.845	2.3636	0.	1125.5
3070	19.029	2.3636	0.	1084.6
3071	19.213	2.3636	0.	1044.
3072	19.397	2.3636	0.	1003.7
3073	19.581	2.3636	0.	963.67
3074	19.766	2.3636	0.	923.93
3075	19.95	2.3636	0.	884.5
3076	20.134	2.3636	0.	845.38
3077	20.318	2.3636	0.	806.6
3078	20.502	2.3636	0.	768.16
3079	20.686	2.3636	0.	730.09
3080	20.87	2.3636	0.	692.4
3081	21.054	2.3636	0.	655.12
3082	21.238	2.3636	0.	618.27
3083	21.422	2.3636	0.	581.87
3084	21.607	2.3636	0.	545.97
3085	21.791	2.3636	0.	510.6
3086	21.975	2.3636	0.	475.81
3087	22.159	2.3636	0.	441.67
3088	22.343	2.3636	0.	408.25
3089	22.527	2.3636	0.	375.65
3090	22.711	2.3636	0.	344.03
3091	22.895	2.3636	0.	313.58
3092	23.079	2.3636	0.	284.58
3093	23.264	2.3636	0.	257.43
3094	23.448	2.3636	0.	232.71
3095	23.632	2.3636	0.	211.21
3096	23.816	2.3636	0.	194.01
3097	8.3508	2.1818	0.	10725
3098	8.5349	2.1818	0.	7913.6
3099	8.719	2.1818	0.	6406.4
3100	8.9031	2.1818	0.	5529.4
3101	9.0872	2.1818	0.	4934.5
3102	9.2713	2.1818	0.	4511.6
3103	9.4554	2.1818	0.	4195.4
3104	9.6395	2.1818	0.	3951.4
3105	9.8236	2.1818	0.	3757.8
3106	10.008	2.1818	0.	3600.7
3107	10.192	2.1818	0.	3470.5
3108	10.376	2.1818	0.	3360.4
3109	10.56	2.1818	0.	3265.6
3110	10.744	2.1818	0.	3182.6
3111	10.928	2.1818	0.	3108.4
3112	11.112	2.1818	0.	3041.2
3113	11.297	2.1818	0.	2979.2
3114	11.481	2.1818	0.	2921.4
3115	11.665	2.1818	0.	2866.6
3116	11.849	2.1818	0.	2814.3
3117	12.033	2.1818	0.	2763.8
3118	12.217	2.1818	0.	2714.7
3119	12.401	2.1818	0.	2666.6
3120	12.585	2.1818	0.	2619.3
3121	12.769	2.1818	0.	2572.7
3122	12.953	2.1818	0.	2526.4
3123	13.138	2.1818	0.	2480.6
3124	13.322	2.1818	0.	2434.9
3125	13.506	2.1818	0.	2389.5
3126	13.69	2.1818	0.	2344.2
3127	13.874	2.1818	0.	2299.1
3128	14.058	2.1818	0.	2254.1
3129	14.242	2.1818	0.	2209.1
3130	14.426	2.1818	0.	2164.2
3131	14.61	2.1818	0.	2119.5
3132	14.795	2.1818	0.	2074.8
3133	14.979	2.1818	0.	2030.1
3134	15.163	2.1818	0.	1985.6
3135	15.347	2.1818	0.	1941.2
3136	15.531	2.1818	0.	1896.9
3137	15.715	2.1818	0.	1852.7
3138	15.899	2.1818	0.	1808.6
3139	16.083	2.1818	0.	1764.6
3140	16.267	2.1818	0.	1720.8
3141	16.452	2.1818	0.	1677.1
3142	16.636	2.1818	0.	1633.6
3143	16.82	2.1818	0.	1590.2
3144	17.004	2.1818	0.	1547.
3145	17.188	2.1818	0.	1503.9
3146	17.372	2.1818	0.	1461.1
3147	17.556	2.1818	0.	1418.4
3148	17.74	2.1818	0.	1375.9
3149	17.924	2.1818	0.	1333.6
3150	18.109	2.1818	0.	1291.6
3151	18.293	2.1818	0.	1249.7
3152	18.477	2.1818	0.	1208.1
3153	18.661	2.1818	0.	1166.7
3154	18.845	2.1818	0.	1125.5
3155	19.029	2.1818	0.	1084.6
3156	19.213	2.1818	0.	1043.9
3157	19.397	2.1818	0.	1003.5
3158	19.581	2.1818	0.	963.43
3159	19.766	2.1818	0.	923.61
3160	19.95	2.1818	0.	884.08
3161	20.134	2.1818	0.	844.86
3162	20.318	2.1818	0.	805.96
3163	20.502	2.1818	0.	767.41
3164	20.686	2.1818	0.	729.21
3165	20.87	2.1818	0.	691.39
3166	21.054	2.1818	0.	653.96
3167	21.238	2.1818	0.	616.95
3168	21.422	2.1818	0.	580.39
3169	21.607	2.1818	0.	544.32
3170	21.791	2.1818	0.	508.78
3171	21.975	2.1818	0.	473.8
3172	22.159	2.1818	0.	439.47
3173	22.343	2.1818	0.	405.86
3174	22.527	2.1818	0.	373.09
3175	22.711	2.1818	0.	341.28
3176	22.895	2.1818	0.	310.65
3177	23.079	2.1818	0.	281.47
3178	23.264	2.1818	0.	254.15
3179	23.448	2.1818	0.	229.26
3180	23.632	2.1818	0.	207.62
3181	23.816	2.1818	0.	190.33
3182	8.3508	2.	0.	10822
3183	8.5349	2.	0.	7201.
3184	8.719	2.	0.	5893.3
3185	8.9031	2.	0.	5140.4
3186	9.0872	2.	0.	4641.6
3187	9.2713	2.	0.	4291.4
3188	9.4554	2.	0.	4030.5
3189	9.6395	2.	0.	3828.9
3190	9.8236	2.	0.	3667.7
3191	10.008	2.	0.	3535.3
3192	10.192	2.	0.	3423.7
3193	10.376	2.	0.	3327.7
3194	10.56	2.	0.	3243.4
3195	10.744	2.	0.	3168.1
3196	10.928	2.	0.	3099.6
3197	11.112	2.	0.	3036.5
3198	11.297	2.	0.	2977.5
3199	11.481	2.	0.	2921.7
3200	11.665	2.	0.	2868.3
3201	11.849	2.	0.	2816.9
3202	12.033	2.	0.	2767.
3203	12.217	2.	0.	2718.2
3204	12.401	2.	0.	2670.3
3205	12.585	2.	0.	2623.
3206	12.769	2.	0.	2576.3
3207	12.953	2.	0.	2529.9
3208	13.138	2.	0.	2483.9
3209	13.322	2.	0.	2438.1
3210	13.506	2.	0.	2392.5
3211	13.69	2.	0.	2347.
3212	13.874	2.	0.	2301.7
3213	14.058	2.	0.	2256.5
3214	14.242	2.	0.	2211.4
3215	14.426	2.	0.	2166.3
3216	14.61	2.	0.	2121.4
3217	14.795	2.	0.	2076.6
3218	14.979	2.	0.	2031.8
3219	15.163	2.	0.	1987.2
3220	15.347	2.	0.	1942.7
3221	15.531	2.	0.	1898.2
3222	15.715	2.	0.	1853.9
3223	15.899	2.	0.	1809.8
3224	16.083	2.	0.	1765.7
3225	16.267	2.	0.	1721.8
3226	16.452	2.	0.	1678.1
3227	16.636	2.	0.	1634.5
3228	16.82	2.	0.	1591.
3229	17.004	2.	0.	1547.7
3230	17.188	2.	0.	1504.6
3231	17.372	2.	0.	1461.7
3232	17.556	2.	0.	1419.
3233	17.74	2.	0.	1376.4
3234	17.924	2.	0.	1334.1
3235	18.109	2.	0.	1291.9
3236	18.293	2.	0.	1250.
3237	18.477	2.	0.	1208.3
3238	18.661	2.	0.	1166.8
3239	18.845	2.	0.	1125.6
3240	19.029	2.	0.	1084.6
3241	19.213	2.	0.	1043.9
3242	19.397	2.	0.	1003.4
3243	19.581	2.	0.	963.17
3244	19.766	2.	0.	923.23
3245	19.95	2.	0.	883.59
3246	20.134	2.	0.	844.24
3247	20.318	2.	0.	805.21
3248	20.502	2.	0.	766.51
3249	20.686	2.	0.	728.16
3250	20.87	2.	0.	690.16
3251	21.054	2.	0.	652.56
3252	21.238	2.	0.	615.36
3253	21.422	2.	0.	578.6
3254	21.607	2.	0.	542.31
3255	21.791	2.	0.	506.54
3256	21.975	2.	0.	471.33
3257	22.159	2.	0.	436.76
3258	22.343	2.	0.	402.91
3259	22.527	2.	0.	369.89
3260	22.711	2.	0.	337.84
3261	22.895	2.	0.	306.97
3262	23.079	2.	0.	277.56
3263	23.264	2.	0.	250.01
3264	23.448	2.	0.	224.9
3265	23.632	2.	0.	203.07
3266	23.816	2.	0.	185.66
3267	8.3508	1.8182	0.	8882.3
3268	8.5349	1.8182	0.	6379.7
3269	8.719	1.8182	0.	5304.8
3270	8.9031	1.8182	0.	4717.6
3271	9.0872	1.8182	0.	4329.6
3272	9.2713	1.8182	0.	4057.4
3273	9.4554	1.8182	0.	3855.2
3274	9.6395	1.8182	0.	3698.2
3275	9.8236	1.8182	0.	3571.1
3276	10.008	1.8182	0.	3464.7
3277	10.192	1.8182	0.	3373.
3278	10.376	1.8182	0.	3292.
3279	10.56	1.8182	0.	3219.
3280	10.744	1.8182	0.	3152.
3281	10.928	1.8182	0.	3089.8
3282	11.112	1.8182	0.	3031.2
3283	11.297	1.8182	0.	2975.4
3284	11.481	1.8182	0.	2921.9
3285	11.665	1.8182	0.	2870.2
3286	11.849	1.8182	0.	2819.8
3287	12.033	1.8182	0.	2770.5
3288	12.217	1.8182	0.	2722.1
3289	12.401	1.8182	0.	2674.4
3290	12.585	1.8182	0.	2627.2
3291	12.769	1.8182	0.	2580.4
3292	12.953	1.8182	0.	2533.9
3293	13.138	1.8182	0.	2487.7
3294	13.322	1.8182	0.	2441.7
3295	13.506	1.8182	0.	2395.9
3296	13.69	1.8182	0.	2350.2
3297	13.874	1.8182	0.	2304.7
3298	14.058	1.8182	0.	2259.3
3299	14.242	1.8182	0.	2214.
3300	14.426	1.8182	0.	2168.8
3301	14.61	1.8182	0.	2123.7
3302	14.795	1.8182	0.	2078.7
3303	14.979	1.8182	0.	2033.8
3304	15.163	1.8182	0.	1989.1
3305	15.347	1.8182	0.	1944.4
3306	15.531	1.8182	0.	1899.9
3307	15.715	1.8182	0.	1855.5
3308	15.899	1.8182	0.	1811.2
3309	16.083	1.8182	0.	1767.
3310	16.267	1.8182	0.	1723.
3311	16.452	1.8182	0.	1679.2
3312	16.636	1.8182	0.	1635.5
3313	16.82	1.8182	0.	1592.
3314	17.004	1.8182	0.	1548.6
3315	17.188	1.8182	0.	1505.5
3316	17.372	1.8182	0.	1462.5
3317	17.556	1.8182	0.	1419.7
3318	17.74	1.8182	0.	1377.
3319	17.924	1.8182	0.	1334.6
3320	18.109	1.8182	0.	1292.4
3321	18.293	1.8182	0.	1250.4
3322	18.477	1.8182	0.	1208.6
3323	18.661	1.8182	0.	1167.1
3324	18.845	1.8182	0.	1125.7
3325	19.029	1.8182	0.	1084.7
3326	19.213	1.8182	0.	1043.8
3327	19.397	1.8182	0.	1003.2
3328	19.581	1.8182	0.	962.89
3329	19.766	1.8182	0.	922.83
3330	19.95	1.8182	0.	883.05
3331	20.134	1.8182	0.	843.56
3332	20.318	1.8182	0.	804.37
3333	20.502	1.8182	0.	765.5
3334	20.686	1.8182	0.	726.96
3335	20.87	1.8182	0.	688.77
3336	21.054	1.8182	0.	650.95
3337	21.238	1.8182	0.	613.52
3338	21.422	1.8182	0.	576.51
3339	21.607	1.8182	0.	539.97
3340	21.791	1.8182	0.	503.92
3341	21.975	1.8182	0.	468.43
3342	22.159	1.8182	0.	433.56
3343	22.343	1.8182	0.	399.41
3344	22.527	1.8182	0.	366.08
3345	22.711	1.8182	0.	333.72
3346	22.895	1.8182	0.	302.54
3347	23.079	1.8182	0.	272.83
3348	23.264	1.8182	0.	244.99
3349	23.448	1.8182	0.	219.6
3350	23.632	1.8182	0.	197.53
3351	23.816	1.8182	0.	179.97
3352	8.3508	1.6364	0.	6597.
3353	8.5349	1.6364	0.	5333.7
3354	8.719	1.6364	0.	4681.8
3355	8.9031	1.6364	0.	4278.6
3356	9.0872	1.6364	0.	4005.4
3357	9.2713	1.6364	0.	3815.3
3358	9.4554	1.6364	0.	3673.9
3359	9.6395	1.6364	0.	3562.8
3360	9.8236	1.6364	0.	3470.8
3361	10.008	1.6364	0.	3391.2
3362	10.192	1.6364	0.	3319.9
3363	10.376	1.6364	0.	3254.4
3364	10.56	1.6364	0.	3193.1
3365	10.744	1.6364	0.	3134.9
3366	10.928	1.6364	0.	3079.2
3367	11.112	1.6364	0.	3025.4
3368	11.297	1.6364	0.	2973.1
3369	11.481	1.6364	0.	2922.1
3370	11.665	1.6364	0.	2872.
3371	11.849	1.6364	0.	2822.8
3372	12.033	1.6364	0.	2774.3
3373	12.217	1.6364	0.	2726.3
3374	12.401	1.6364	0.	2678.8
3375	12.585	1.6364	0.	2631.7
3376	12.769	1.6364	0.	2584.9
3377	12.953	1.6364	0.	2538.3
3378	13.138	1.6364	0.	2491.9
3379	13.322	1.6364	0.	2445.7
3380	13.506	1.6364	0.	2399.7
3381	13.69	1.6364	0.	2353.8
3382	13.874	1.6364	0.	2308.1
3383	14.058	1.6364	0.	2262.5
3384	14.242	1.6364	0.	2217.
3385	14.426	1.6364	0.	2171.6
3386	14.61	1.6364	0.	2126.3
3387	14.795	1.6364	0.	2081.1
3388	14.979	1.6364	0.	2036.1
3389	15.163	1.6364	0.	1991.2
3390	15.347	1.6364	0.	1946.4
3391	15.531	1.6364	0.	1901.7
3392	15.715	1.6364	0.	1857.2
3393	15.899	1.6364	0.	1812.8
3394	16.083	1.6364	0.	1768.6
3395	16.267	1.6364	0.	1724.5
3396	16.452	1.6364	0.	1680.5
3397	16.636	1.6364	0.	1636.8
3398	16.82	1.6364	0.	1593.1
3399	17.004	1.6364	0.	1549.7
3400	17.188	1.6364	0.	1506.4
3401	17.372	1.6364	0.	1463.4
3402	17.556	1.6364	0.	1420.5
3403	17.74	1.6364	0.	1377.8
3404	17.924	1.6364	0.	1335.3
3405	18.109	1.6364	0.	1293.
3406	18.293	1.6364	0.	1250.9
3407	18.477	1.6364	0.	1209.
3408	18.661	1.6364	0.	1167.4
3409	18.845	1.6364	0.	1126.
3410	19.029	1.6364	0.	1084.8
3411	19.213	1.6364	0.	1043.8
3412	19.397	1.6364	0.	1003.1
3413	19.581	1.6364	0.	962.63
3414	19.766	1.6364	0.	922.43
3415	19.95	1.6364	0.	882.49
3416	20.134	1.6364	0.	842.84
3417	20.318	1.6364	0.	803.48
3418	20.502	1.6364	0.	764.41
3419	20.686	1.6364	0.	725.66
3420	20.87	1.6364	0.	687.24
3421	21.054	1.6364	0.	649.18
3422	21.238	1.6364	0.	611.49
3423	21.422	1.6364	0.	574.2
3424	21.607	1.6364	0.	537.35
3425	21.791	1.6364	0.	500.98
3426	21.975	1.6364	0.	465.15
3427	22.159	1.6364	0.	429.92
3428	22.343	1.6364	0.	395.39
3429	22.527	1.6364	0.	361.68
3430	22.711	1.6364	0.	328.93
3431	22.895	1.6364	0.	297.36
3432	23.079	1.6364	0.	267.27
3433	23.264	1.6364	0.	239.06
3434	23.448	1.6364	0.	213.32
3435	23.632	1.6364	0.	190.94
3436	23.816	1.6364	0.	173.18
3437	8.3508	1.4545	0.	5059.
3438	8.5349	1.4545	0.	4389.7
3439	8.719	1.4545	0.	4058.
3440	8.9031	1.4545	0.	3828.6
3441	9.0872	1.4545	0.	3675.8
3442	9.2713	1.4545	0.	3569.3
3443	9.4554	1.4545	0.	3489.8
3444	9.6395	1.4545	0.	3425.3
3445	9.8236	1.4545	0.	3368.7
3446	10.008	1.4545	0.	3316.1
3447	10.192	1.4545	0.	3265.4
3448	10.376	1.4545	0.	3215.6
3449	10.56	1.4545	0.	3166.2
3450	10.744	1.4545	0.	3117.
3451	10.928	1.4545	0.	3068.
3452	11.112	1.4545	0.	3019.1
3453	11.297	1.4545	0.	2970.5
3454	11.481	1.4545	0.	2922.
3455	11.665	1.4545	0.	2873.8
3456	11.849	1.4545	0.	2825.9
3457	12.033	1.4545	0.	2778.2
3458	12.217	1.4545	0.	2730.8
3459	12.401	1.4545	0.	2683.5
3460	12.585	1.4545	0.	2636.5
3461	12.769	1.4545	0.	2589.6
3462	12.953	1.4545	0.	2543.
3463	13.138	1.4545	0.	2496.5
3464	13.322	1.4545	0.	2450.1
3465	13.506	1.4545	0.	2403.9
3466	13.69	1.4545	0.	2357.8
3467	13.874	1.4545	0.	2311.8
3468	14.058	1.4545	0.	2266.
3469	14.242	1.4545	0.	2220.3
3470	14.426	1.4545	0.	2174.7
3471	14.61	1.4545	0.	2129.2
3472	14.795	1.4545	0.	2083.9
3473	14.979	1.4545	0.	2038.6
3474	15.163	1.4545	0.	1993.6
3475	15.347	1.4545	0.	1948.6
3476	15.531	1.4545	0.	1903.8
3477	15.715	1.4545	0.	1859.2
3478	15.899	1.4545	0.	1814.6
3479	16.083	1.4545	0.	1770.3
3480	16.267	1.4545	0.	1726.1
3481	16.452	1.4545	0.	1682.
3482	16.636	1.4545	0.	1638.2
3483	16.82	1.4545	0.	1594.5
3484	17.004	1.4545	0.	1550.9
3485	17.188	1.4545	0.	1507.6
3486	17.372	1.4545	0.	1464.4
3487	17.556	1.4545	0.	1421.4
3488	17.74	1.4545	0.	1378.7
3489	17.924	1.4545	0.	1336.1
3490	18.109	1.4545	0.	1293.7
3491	18.293	1.4545	0.	1251.5
3492	18.477	1.4545	0.	1209.5
3493	18.661	1.4545	0.	1167.8
3494	18.845	1.4545	0.	1126.2
3495	19.029	1.4545	0.	1084.9
3496	19.213	1.4545	0.	1043.9
3497	19.397	1.4545	0.	1003.
3498	19.581	1.4545	0.	962.41
3499	19.766	1.4545	0.	922.05
3500	19.95	1.4545	0.	881.96
3501	20.134	1.4545	0.	842.12
3502	20.318	1.4545	0.	802.56
3503	20.502	1.4545	0.	763.29
3504	20.686	1.4545	0.	724.31
3505	20.87	1.4545	0.	685.64
3506	21.054	1.4545	0.	647.3
3507	21.238	1.4545	0.	609.32
3508	21.422	1.4545	0.	571.71
3509	21.607	1.4545	0.	534.51
3510	21.791	1.4545	0.	497.77
3511	21.975	1.4545	0.	461.54
3512	22.159	1.4545	0.	425.89
3513	22.343	1.4545	0.	390.92
3514	22.527	1.4545	0.	356.73
3515	22.711	1.4545	0.	323.51
3516	22.895	1.4545	0.	291.45
3517	23.079	1.4545	0.	260.87
3518	23.264	1.4545	0.	232.18
3519	23.448	1.4545	0.	206.
3520	23.632	1.4545	0.	183.22
3521	23.816	1.4545	0.	165.22
3522	8.3508	1.2727	0.	3998.8
3523	8.5349	1.2727	0.	3606.8
3524	8.719	1.2727	0.	3468.3
3525	8.9031	1.2727	0.	3392.6
3526	9.0872	1.2727	0.	3350.4
3527	9.2713	1.2727	0.	3325.7
3528	9.4554	1.2727	0.	3307.2
3529	9.6395	1.2727	0.	3288.8
3530	9.8236	1.2727	0.	3267.1
3531	10.008	1.2727	0.	3241.2
3532	10.192	1.2727	0.	3210.9
3533	10.376	1.2727	0.	3176.6
3534	10.56	1.2727	0.	3138.9
3535	10.744	1.2727	0.	3098.7
3536	10.928	1.2727	0.	3056.3
3537	11.112	1.2727	0.	3012.5
3538	11.297	1.2727	0.	2967.5
3539	11.481	1.2727	0.	2921.8
3540	11.665	1.2727	0.	2875.5
3541	11.849	1.2727	0.	2828.9
3542	12.033	1.2727	0.	2782.1
3543	12.217	1.2727	0.	2735.2
3544	12.401	1.2727	0.	2688.3
3545	12.585	1.2727	0.	2641.4
3546	12.769	1.2727	0.	2594.6
3547	12.953	1.2727	0.	2547.9
3548	13.138	1.2727	0.	2501.2
3549	13.322	1.2727	0.	2454.7
3550	13.506	1.2727	0.	2408.3
3551	13.69	1.2727	0.	2362.
3552	13.874	1.2727	0.	2315.8
3553	14.058	1.2727	0.	2269.7
3554	14.242	1.2727	0.	2223.8
3555	14.426	1.2727	0.	2178.
3556	14.61	1.2727	0.	2132.3
3557	14.795	1.2727	0.	2086.8
3558	14.979	1.2727	0.	2041.4
3559	15.163	1.2727	0.	1996.2
3560	15.347	1.2727	0.	1951.1
3561	15.531	1.2727	0.	1906.1
3562	15.715	1.2727	0.	1861.3
3563	15.899	1.2727	0.	1816.7
3564	16.083	1.2727	0.	1772.2
3565	16.267	1.2727	0.	1727.9
3566	16.452	1.2727	0.	1683.7
3567	16.636	1.2727	0.	1639.8
3568	16.82	1.2727	0.	1595.9
3569	17.004	1.2727	0.	1552.3
3570	17.188	1.2727	0.	1508.9
3571	17.372	1.2727	0.	1465.6
3572	17.556	1.2727	0.	1422.5
3573	17.74	1.2727	0.	1379.7
3574	17.924	1.2727	0.	1337.
3575	18.109	1.2727	0.	1294.5
3576	18.293	1.2727	0.	1252.2
3577	18.477	1.2727	0.	1210.1
3578	18.661	1.2727	0.	1168.3
3579	18.845	1.2727	0.	1126.6
3580	19.029	1.2727	0.	1085.2
3581	19.213	1.2727	0.	1044.
3582	19.397	1.2727	0.	1003.
3583	19.581	1.2727	0.	962.25
3584	19.766	1.2727	0.	921.74
3585	19.95	1.2727	0.	881.47
3586	20.134	1.2727	0.	841.45
3587	20.318	1.2727	0.	801.68
3588	20.502	1.2727	0.	762.18
3589	20.686	1.2727	0.	722.95
3590	20.87	1.2727	0.	684.02
3591	21.054	1.2727	0.	645.38
3592	21.238	1.2727	0.	607.08
3593	21.422	1.2727	0.	569.12
3594	21.607	1.2727	0.	531.54
3595	21.791	1.2727	0.	494.38
3596	21.975	1.2727	0.	457.7
3597	22.159	1.2727	0.	421.56
3598	22.343	1.2727	0.	386.06
3599	22.527	1.2727	0.	351.32
3600	22.711	1.2727	0.	317.5
3601	22.895	1.2727	0.	284.83
3602	23.079	1.2727	0.	253.63
3603	23.264	1.2727	0.	224.34
3604	23.448	1.2727	0.	197.57
3605	23.632	1.2727	0.	174.3
3606	23.816	1.2727	0.	155.98
3607	8.3508	1.0909	0.	3189.
3608	8.5349	1.0909	0.	2954.8
3609	8.719	1.0909	0.	2949.5
3610	8.9031	1.0909	0.	2990.4
3611	9.0872	1.0909	0.	3043.5
3612	9.2713	1.0909	0.	3093.2
3613	9.4554	1.0909	0.	3131.9
3614	9.6395	1.0909	0.	3157.
3615	9.8236	1.0909	0.	3168.7
3616	10.008	1.0909	0.	3168.1
3617	10.192	1.0909	0.	3157.3
3618	10.376	1.0909	0.	3137.9
3619	10.56	1.0909	0.	3111.7
3620	10.744	1.0909	0.	3080.1
3621	10.928	1.0909	0.	3044.4
3622	11.112	1.0909	0.	3005.5
3623	11.297	1.0909	0.	2964.2
3624	11.481	1.0909	0.	2921.2
3625	11.665	1.0909	0.	2876.9
3626	11.849	1.0909	0.	2831.7
3627	12.033	1.0909	0.	2785.9
3628	12.217	1.0909	0.	2739.7
3629	12.401	1.0909	0.	2693.1
3630	12.585	1.0909	0.	2646.5
3631	12.769	1.0909	0.	2599.7
3632	12.953	1.0909	0.	2552.9
3633	13.138	1.0909	0.	2506.2
3634	13.322	1.0909	0.	2459.5
3635	13.506	1.0909	0.	2412.9
3636	13.69	1.0909	0.	2366.4
3637	13.874	1.0909	0.	2320.
3638	14.058	1.0909	0.	2273.7
3639	14.242	1.0909	0.	2227.6
3640	14.426	1.0909	0.	2181.6
3641	14.61	1.0909	0.	2135.7
3642	14.795	1.0909	0.	2090.
3643	14.979	1.0909	0.	2044.4
3644	15.163	1.0909	0.	1999.
3645	15.347	1.0909	0.	1953.8
3646	15.531	1.0909	0.	1908.6
3647	15.715	1.0909	0.	1863.7
3648	15.899	1.0909	0.	1818.9
3649	16.083	1.0909	0.	1774.3
3650	16.267	1.0909	0.	1729.9
3651	16.452	1.0909	0.	1685.6
3652	16.636	1.0909	0.	1641.5
3653	16.82	1.0909	0.	1597.6
3654	17.004	1.0909	0.	1553.9
3655	17.188	1.0909	0.	1510.3
3656	17.372	1.0909	0.	1467.
3657	17.556	1.0909	0.	1423.8
3658	17.74	1.0909	0.	1380.8
3659	17.924	1.0909	0.	1338.
3660	18.109	1.0909	0.	1295.4
3661	18.293	1.0909	0.	1253.1
3662	18.477	1.0909	0.	1210.9
3663	18.661	1.0909	0.	1168.9
3664	18.845	1.0909	0.	1127.1
3665	19.029	1.0909	0.	1085.6
3666	19.213	1.0909	0.	1044.2
3667	19.397	1.0909	0.	1003.1
3668	19.581	1.0909	0.	962.21
3669	19.766	1.0909	0.	921.53
3670	19.95	1.0909	0.	881.08
3671	20.134	1.0909	0.	840.86
3672	20.318	1.0909	0.	800.87
3673	20.502	1.0909	0.	761.14
3674	20.686	1.0909	0.	721.66
3675	20.87	1.0909	0.	682.44
3676	21.054	1.0909	0.	643.5
3677	21.238	1.0909	0.	604.85
3678	21.422	1.0909	0.	566.52
3679	21.607	1.0909	0.	528.53
3680	21.791	1.0909	0.	490.92
3681	21.975	1.0909	0.	453.73
3682	22.159	1.0909	0.	417.04
3683	22.343	1.0909	0.	380.94
3684	22.527	1.0909	0.	345.54
3685	22.711	1.0909	0.	311.01
3686	22.895	1.0909	0.	277.59
3687	23.079	1.0909	0.	245.6
3688	23.264	1.0909	0.	215.51
3689	23.448	1.0909	0.	187.99
3690	23.632	1.0909	0.	164.06
3691	23.816	1.0909	0.	145.32
3692	8.3508	0.90909	0.	2535.3
3693	8.5349	0.90909	0.	2412.9
3694	8.719	0.90909	0.	2502.7
3695	8.9031	0.90909	0.	2635.3
3696	9.0872	0.90909	0.	2767.5
3697	9.2713	0.90909	0.	2881.2
3698	9.4554	0.90909	0.	2970.1
3699	9.6395	0.90909	0.	3034.2
3700	9.8236	0.90909	0.	3076.
3701	10.008	0.90909	0.	3098.8
3702	10.192	0.90909	0.	3105.9
3703	10.376	0.90909	0.	3100.5
3704	10.56	0.90909	0.	3085.
3705	10.744	0.90909	0.	3061.7
3706	10.928	0.90909	0.	3032.3
3707	11.112	0.90909	0.	2998.2
3708	11.297	0.90909	0.	2960.6
3709	11.481	0.90909	0.	2920.3
3710	11.665	0.90909	0.	2878.1
3711	11.849	0.90909	0.	2834.3
3712	12.033	0.90909	0.	2789.5
3713	12.217	0.90909	0.	2744.
3714	12.401	0.90909	0.	2697.9
3715	12.585	0.90909	0.	2651.5
3716	12.769	0.90909	0.	2604.8
3717	12.953	0.90909	0.	2558.
3718	13.138	0.90909	0.	2511.2
3719	13.322	0.90909	0.	2464.4
3720	13.506	0.90909	0.	2417.7
3721	13.69	0.90909	0.	2371.
3722	13.874	0.90909	0.	2324.4
3723	14.058	0.90909	0.	2277.9
3724	14.242	0.90909	0.	2231.6
3725	14.426	0.90909	0.	2185.4
3726	14.61	0.90909	0.	2139.3
3727	14.795	0.90909	0.	2093.4
3728	14.979	0.90909	0.	2047.6
3729	15.163	0.90909	0.	2002.1
3730	15.347	0.90909	0.	1956.6
3731	15.531	0.90909	0.	1911.4
3732	15.715	0.90909	0.	1866.3
3733	15.899	0.90909	0.	1821.4
3734	16.083	0.90909	0.	1776.6
3735	16.267	0.90909	0.	1732.
3736	16.452	0.90909	0.	1687.7
3737	16.636	0.90909	0.	1643.4
3738	16.82	0.90909	0.	1599.4
3739	17.004	0.90909	0.	1555.6
3740	17.188	0.90909	0.	1511.9
3741	17.372	0.90909	0.	1468.5
3742	17.556	0.90909	0.	1425.2
3743	17.74	0.90909	0.	1382.1
3744	17.924	0.90909	0.	1339.2
3745	18.109	0.90909	0.	1296.6
3746	18.293	0.90909	0.	1254.1
3747	18.477	0.90909	0.	1211.8
3748	18.661	0.90909	0.	1169.7
3749	18.845	0.90909	0.	1127.8
3750	19.029	0.90909	0.	1086.1
3751	19.213	0.90909	0.	1044.6
3752	19.397	0.90909	0.	1003.4
3753	19.581	0.90909	0.	962.31
3754	19.766	0.90909	0.	921.46
3755	19.95	0.90909	0.	880.82
3756	20.134	0.90909	0.	840.4
3757	20.318	0.90909	0.	800.2
3758	20.502	0.90909	0.	760.23
3759	20.686	0.90909	0.	720.49
3760	20.87	0.90909	0.	680.98
3761	21.054	0.90909	0.	641.73
3762	21.238	0.90909	0.	602.73
3763	21.422	0.90909	0.	564.01
3764	21.607	0.90909	0.	525.59
3765	21.791	0.90909	0.	487.5
3766	21.975	0.90909	0.	449.78
3767	22.159	0.90909	0.	412.49
3768	22.343	0.90909	0.	375.72
3769	22.527	0.90909	0.	339.56
3770	22.711	0.90909	0.	304.2
3771	22.895	0.90909	0.	269.85
3772	23.079	0.90909	0.	236.86
3773	23.264	0.90909	0.	205.74
3774	23.448	0.90909	0.	177.19
3775	23.632	0.90909	0.	152.37
3776	23.816	0.90909	0.	133.03
3777	8.3508	0.72727	0.	1982.8
3778	8.5349	0.72727	0.	1956.
3779	8.719	0.72727	0.	2127.1
3780	8.9031	0.72727	0.	2335.3
3781	9.0872	0.72727	0.	2531.5
3782	9.2713	0.72727	0.	2697.1
3783	9.4554	0.72727	0.	2827.4
3784	9.6395	0.72727	0.	2924.2
3785	9.8236	0.72727	0.	2991.7
3786	10.008	0.72727	0.	3034.8
3787	10.192	0.72727	0.	3057.9
3788	10.376	0.72727	0.	3065.
3789	10.56	0.72727	0.	3059.3
3790	10.744	0.72727	0.	3043.7
3791	10.928	0.72727	0.	3020.3
3792	11.112	0.72727	0.	2990.8
3793	11.297	0.72727	0.	2956.8
3794	11.481	0.72727	0.	2919.2
3795	11.665	0.72727	0.	2878.9
3796	11.849	0.72727	0.	2836.7
3797	12.033	0.72727	0.	2793.
3798	12.217	0.72727	0.	2748.1
3799	12.401	0.72727	0.	2702.6
3800	12.585	0.72727	0.	2656.4
3801	12.769	0.72727	0.	2609.9
3802	12.953	0.72727	0.	2563.2
3803	13.138	0.72727	0.	2516.4
3804	13.322	0.72727	0.	2469.5
3805	13.506	0.72727	0.	2422.6
3806	13.69	0.72727	0.	2375.7
3807	13.874	0.72727	0.	2328.9
3808	14.058	0.72727	0.	2282.3
3809	14.242	0.72727	0.	2235.7
3810	14.426	0.72727	0.	2189.3
3811	14.61	0.72727	0.	2143.1
3812	14.795	0.72727	0.	2097.
3813	14.979	0.72727	0.	2051.
3814	15.163	0.72727	0.	2005.3
3815	15.347	0.72727	0.	1959.7
3816	15.531	0.72727	0.	1914.3
3817	15.715	0.72727	0.	1869.
3818	15.899	0.72727	0.	1824.
3819	16.083	0.72727	0.	1779.1
3820	16.267	0.72727	0.	1734.4
3821	16.452	0.72727	0.	1689.9
3822	16.636	0.72727	0.	1645.6
3823	16.82	0.72727	0.	1601.4
3824	17.004	0.72727	0.	1557.5
3825	17.188	0.72727	0.	1513.7
3826	17.372	0.72727	0.	1470.2
3827	17.556	0.72727	0.	1426.8
3828	17.74	0.72727	0.	1383.6
3829	17.924	0.72727	0.	1340.6
3830	18.109	0.72727	0.	1297.8
3831	18.293	0.72727	0.	1255.2
3832	18.477	0.72727	0.	1212.8
3833	18.661	0.72727	0.	1170.6
3834	18.845	0.72727	0.	1128.6
3835	19.029	0.72727	0.	1086.8
3836	19.213	0.72727	0.	1045.2
3837	19.397	0.72727	0.	1003.8
3838	19.581	0.72727	0.	962.58
3839	19.766	0.72727	0.	921.57
3840	19.95	0.72727	0.	880.75
3841	20.134	0.72727	0.	840.14
3842	20.318	0.72727	0.	799.73
3843	20.502	0.72727	0.	759.52
3844	20.686	0.72727	0.	719.53
3845	20.87	0.72727	0.	679.74
3846	21.054	0.72727	0.	640.17
3847	21.238	0.72727	0.	600.82
3848	21.422	0.72727	0.	561.71
3849	21.607	0.72727	0.	522.86
3850	21.791	0.72727	0.	484.28
3851	21.975	0.72727	0.	446.01
3852	22.159	0.72727	0.	408.1
3853	22.343	0.72727	0.	370.61
3854	22.527	0.72727	0.	333.63
3855	22.711	0.72727	0.	297.32
3856	22.895	0.72727	0.	261.88
3857	23.079	0.72727	0.	227.65
3858	23.264	0.72727	0.	195.15
3859	23.448	0.72727	0.	165.19
3860	23.632	0.72727	0.	139.06
3861	23.816	0.72727	0.	118.84
3862	8.3508	0.54545	0.	1500.3
3863	8.5349	0.54545	0.	1573.8
3864	8.719	0.54545	0.	1824.5
3865	8.9031	0.54545	0.	2096.1
3866	9.0872	0.54545	0.	2341.5
3867	9.2713	0.54545	0.	2545.9
3868	9.4554	0.54545	0.	2707.4
3869	9.6395	0.54545	0.	2829.6
3870	9.8236	0.54545	0.	2917.7
3871	10.008	0.54545	0.	2977.5
3872	10.192	0.54545	0.	3014.1
3873	10.376	0.54545	0.	3032.1
3874	10.56	0.54545	0.	3035.2
3875	10.744	0.54545	0.	3026.5
3876	10.928	0.54545	0.	3008.6
3877	11.112	0.54545	0.	2983.5
3878	11.297	0.54545	0.	2952.8
3879	11.481	0.54545	0.	2917.8
3880	11.665	0.54545	0.	2879.6
3881	11.849	0.54545	0.	2838.8
3882	12.033	0.54545	0.	2796.2
3883	12.217	0.54545	0.	2752.2
3884	12.401	0.54545	0.	2707.1
3885	12.585	0.54545	0.	2661.4
3886	12.769	0.54545	0.	2615.1
3887	12.953	0.54545	0.	2568.4
3888	13.138	0.54545	0.	2521.6
3889	13.322	0.54545	0.	2474.6
3890	13.506	0.54545	0.	2427.6
3891	13.69	0.54545	0.	2380.6
3892	13.874	0.54545	0.	2333.7
3893	14.058	0.54545	0.	2286.8
3894	14.242	0.54545	0.	2240.1
3895	14.426	0.54545	0.	2193.5
3896	14.61	0.54545	0.	2147.
3897	14.795	0.54545	0.	2100.8
3898	14.979	0.54545	0.	2054.6
3899	15.163	0.54545	0.	2008.7
3900	15.347	0.54545	0.	1962.9
3901	15.531	0.54545	0.	1917.4
3902	15.715	0.54545	0.	1872.
3903	15.899	0.54545	0.	1826.8
3904	16.083	0.54545	0.	1781.8
3905	16.267	0.54545	0.	1736.9
3906	16.452	0.54545	0.	1692.3
3907	16.636	0.54545	0.	1647.9
3908	16.82	0.54545	0.	1603.6
3909	17.004	0.54545	0.	1559.6
3910	17.188	0.54545	0.	1515.7
3911	17.372	0.54545	0.	1472.
3912	17.556	0.54545	0.	1428.6
3913	17.74	0.54545	0.	1385.3
3914	17.924	0.54545	0.	1342.2
3915	18.109	0.54545	0.	1299.3
3916	18.293	0.54545	0.	1256.6
3917	18.477	0.54545	0.	1214.1
3918	18.661	0.54545	0.	1171.8
3919	18.845	0.54545	0.	1129.7
3920	19.029	0.54545	0.	1087.7
3921	19.213	0.54545	0.	1046.
3922	19.397	0.54545	0.	1004.5
3923	19.581	0.54545	0.	963.09
3924	19.766	0.54545	0.	921.92
3925	19.95	0.54545	0.	880.94
3926	20.134	0.54545	0.	840.14
3927	20.318	0.54545	0.	799.53
3928	20.502	0.54545	0.	759.1
3929	20.686	0.54545	0.	718.86
3930	20.87	0.54545	0.	678.8
3931	21.054	0.54545	0.	638.93
3932	21.238	0.54545	0.	599.26
3933	21.422	0.54545	0.	559.78
3934	21.607	0.54545	0.	520.51
3935	21.791	0.54545	0.	481.46
3936	21.975	0.54545	0.	442.65
3937	22.159	0.54545	0.	404.12
3938	22.343	0.54545	0.	365.9
3939	22.527	0.54545	0.	328.08
3940	22.711	0.54545	0.	290.75
3941	22.895	0.54545	0.	254.1
3942	23.079	0.54545	0.	218.4
3943	23.264	0.54545	0.	184.15
3944	23.448	0.54545	0.	152.17
3945	23.632	0.54545	0.	124.03
3946	23.816	0.54545	0.	102.35
3947	8.3508	0.36364	0.	1073.1
3948	8.5349	0.36364	0.	1274.3
3949	8.719	0.36364	0.	1603.3
3950	8.9031	0.36364	0.	1922.5
3951	9.0872	0.36364	0.	2200.3
3952	9.2713	0.36364	0.	2429.5
3953	9.4554	0.36364	0.	2611.7
3954	9.6395	0.36364	0.	2751.5
3955	9.8236	0.36364	0.	2854.9
3956	10.008	0.36364	0.	2927.7
3957	10.192	0.36364	0.	2975.2
3958	10.376	0.36364	0.	3002.3
3959	10.56	0.36364	0.	3012.9
3960	10.744	0.36364	0.	3010.4
3961	10.928	0.36364	0.	2997.5
3962	11.112	0.36364	0.	2976.4
3963	11.297	0.36364	0.	2949.
3964	11.481	0.36364	0.	2916.5
3965	11.665	0.36364	0.	2880.2
3966	11.849	0.36364	0.	2840.9
3967	12.033	0.36364	0.	2799.4
3968	12.217	0.36364	0.	2756.2
3969	12.401	0.36364	0.	2711.8
3970	12.585	0.36364	0.	2666.4
3971	12.769	0.36364	0.	2620.3
3972	12.953	0.36364	0.	2573.8
3973	13.138	0.36364	0.	2526.9
3974	13.322	0.36364	0.	2479.9
3975	13.506	0.36364	0.	2432.8
3976	13.69	0.36364	0.	2385.7
3977	13.874	0.36364	0.	2338.6
3978	14.058	0.36364	0.	2291.6
3979	14.242	0.36364	0.	2244.7
3980	14.426	0.36364	0.	2197.9
3981	14.61	0.36364	0.	2151.3
3982	14.795	0.36364	0.	2104.8
3983	14.979	0.36364	0.	2058.5
3984	15.163	0.36364	0.	2012.4
3985	15.347	0.36364	0.	1966.5
3986	15.531	0.36364	0.	1920.8
3987	15.715	0.36364	0.	1875.2
3988	15.899	0.36364	0.	1829.9
3989	16.083	0.36364	0.	1784.8
3990	16.267	0.36364	0.	1739.8
3991	16.452	0.36364	0.	1695.1
3992	16.636	0.36364	0.	1650.5
3993	16.82	0.36364	0.	1606.1
3994	17.004	0.36364	0.	1562.
3995	17.188	0.36364	0.	1518.
3996	17.372	0.36364	0.	1474.3
3997	17.556	0.36364	0.	1430.7
3998	17.74	0.36364	0.	1387.3
3999	17.924	0.36364	0.	1344.1
4000	18.109	0.36364	0.	1301.2
4001	18.293	0.36364	0.	1258.4
4002	18.477	0.36364	0.	1215.8
4003	18.661	0.36364	0.	1173.4
4004	18.845	0.36364	0.	1131.1
4005	19.029	0.36364	0.	1089.1
4006	19.213	0.36364	0.	1047.2
4007	19.397	0.36364	0.	1005.6
4008	19.581	0.36364	0.	964.08
4009	19.766	0.36364	0.	922.76
4010	19.95	0.36364	0.	881.63
4011	20.134	0.36364	0.	840.66
4012	20.318	0.36364	0.	799.87
4013	20.502	0.36364	0.	759.24
4014	20.686	0.36364	0.	718.78
4015	20.87	0.36364	0.	678.48
4016	21.054	0.36364	0.	638.35
4017	21.238	0.36364	0.	598.37
4018	21.422	0.36364	0.	558.56
4019	21.607	0.36364	0.	518.91
4020	21.791	0.36364	0.	479.43
4021	21.975	0.36364	0.	440.13
4022	22.159	0.36364	0.	401.03
4023	22.343	0.36364	0.	362.14
4024	22.527	0.36364	0.	323.51
4025	22.711	0.36364	0.	285.2
4026	22.895	0.36364	0.	247.32
4027	23.079	0.36364	0.	210.05
4028	23.264	0.36364	0.	173.72
4029	23.448	0.36364	0.	139.03
4030	23.632	0.36364	0.	107.57
4031	23.816	0.36364	0.	83.022
4032	8.3508	0.18182	0.	736.18
4033	8.5349	0.18182	0.	1101.9
4034	8.719	0.18182	0.	1484.1
4035	8.9031	0.18182	0.	1823.9
4036	9.0872	0.18182	0.	2112.9
4037	9.2713	0.18182	0.	2351.7
4038	9.4554	0.18182	0.	2543.4
4039	9.6395	0.18182	0.	2692.9
4040	9.8236	0.18182	0.	2805.7
4041	10.008	0.18182	0.	2887.4
4042	10.192	0.18182	0.	2943.1
4043	10.376	0.18182	0.	2977.4
4044	10.56	0.18182	0.	2994.2
4045	10.744	0.18182	0.	2997.
4046	10.928	0.18182	0.	2988.5
4047	11.112	0.18182	0.	2971.
4048	11.297	0.18182	0.	2946.5
4049	11.481	0.18182	0.	2916.4
4050	11.665	0.18182	0.	2882.
4051	11.849	0.18182	0.	2844.2
4052	12.033	0.18182	0.	2803.8
4053	12.217	0.18182	0.	2761.4
4054	12.401	0.18182	0.	2717.6
4055	12.585	0.18182	0.	2672.6
4056	12.769	0.18182	0.	2626.9
4057	12.953	0.18182	0.	2580.5
4058	13.138	0.18182	0.	2533.8
4059	13.322	0.18182	0.	2486.8
4060	13.506	0.18182	0.	2439.7
4061	13.69	0.18182	0.	2392.5
4062	13.874	0.18182	0.	2345.4
4063	14.058	0.18182	0.	2298.3
4064	14.242	0.18182	0.	2251.3
4065	14.426	0.18182	0.	2204.4
4066	14.61	0.18182	0.	2157.7
4067	14.795	0.18182	0.	2111.1
4068	14.979	0.18182	0.	2064.7
4069	15.163	0.18182	0.	2018.5
4070	15.347	0.18182	0.	1972.5
4071	15.531	0.18182	0.	1926.7
4072	15.715	0.18182	0.	1881.1
4073	15.899	0.18182	0.	1835.6
4074	16.083	0.18182	0.	1790.4
4075	16.267	0.18182	0.	1745.4
4076	16.452	0.18182	0.	1700.6
4077	16.636	0.18182	0.	1656.
4078	16.82	0.18182	0.	1611.6
4079	17.004	0.18182	0.	1567.4
4080	17.188	0.18182	0.	1523.4
4081	17.372	0.18182	0.	1479.6
4082	17.556	0.18182	0.	1436.1
4083	17.74	0.18182	0.	1392.7
4084	17.924	0.18182	0.	1349.5
4085	18.109	0.18182	0.	1306.4
4086	18.293	0.18182	0.	1263.6
4087	18.477	0.18182	0.	1221.
4088	18.661	0.18182	0.	1178.6
4089	18.845	0.18182	0.	1136.3
4090	19.029	0.18182	0.	1094.2
4091	19.213	0.18182	0.	1052.3
4092	19.397	0.18182	0.	1010.6
4093	19.581	0.18182	0.	969.05
4094	19.766	0.18182	0.	927.67
4095	19.95	0.18182	0.	886.45
4096	20.134	0.18182	0.	845.39
4097	20.318	0.18182	0.	804.49
4098	20.502	0.18182	0.	763.73
4099	20.686	0.18182	0.	723.12
4100	20.87	0.18182	0.	682.66
4101	21.054	0.18182	0.	642.32
4102	21.238	0.18182	0.	602.12
4103	21.422	0.18182	0.	562.04
4104	21.607	0.18182	0.	522.08
4105	21.791	0.18182	0.	482.24
4106	21.975	0.18182	0.	442.52
4107	22.159	0.18182	0.	402.91
4108	22.343	0.18182	0.	363.42
4109	22.527	0.18182	0.	324.05
4110	22.711	0.18182	0.	284.83
4111	22.895	0.18182	0.	245.77
4112	23.079	0.18182	0.	206.93
4113	23.264	0.18182	0.	168.41
4114	23.448	0.18182	0.	130.45
4115	23.632	0.18182	0.	93.709
4116	23.816	0.18182	0.	61.524
4117	23.816	0.18182	0.1	61.524
4118	23.632	0.18182	0.1	93.709
4119	23.448	0.18182	0.1	130.45
4120	23.264	0.18182	0.1	168.41
4121	23.079	0.18182	0.1	206.93
4122	22.895	0.18182	0.1	245.77
4123	22.711	0.18182	0.1	284.83
4124	22.527	0.18182	0.1	324.05
4125	22.343	0.18182	0.1	363.42
4126	22.159	0.18182	0.1	402.91
4127	21.975	0.18182	0.1	442.52
4128	21.791	0.18182	0.1	482.24
4129	21.607	0.18182	0.1	522.08
4130	21.422	0.18182	0.1	562.04
4131	21.238	0.18182	0.1	602.12
4132	21.054	0.18182	0.1	642.32
4133	20.87	0.18182	0.1	682.66
4134	20.686	0.18182	0.1	723.12
4135	20.502	0.18182	0.1	763.73
4136	20.318	0.18182	0.1	804.49
4137	20.134	0.18182	0.1	845.39
4138	19.95	0.18182	0.1	886.45
4139	19.766	0.18182	0.1	927.67
4140	19.581	0.18182	0.1	969.05
4141	19.397	0.18182	0.1	1010.6
4142	19.213	0.18182	0.1	1052.3
4143	19.029	0.18182	0.1	1094.2
4144	18.845	0.18182	0.1	1136.3
4145	18.661	0.18182	0.1	1178.6
4146	18.477	0.18182	0.1	1221.
4147	18.293	0.18182	0.1	1263.6
4148	18.109	0.18182	0.1	1306.4
4149	17.924	0.18182	0.1	1349.5
4150	17.74	0.18182	0.1	1392.7
4151	17.556	0.18182	0.1	1436.1
4152	17.372	0.18182	0.1	1479.6
4153	17.188	0.18182	0.1	1523.4
4154	17.004	0.18182	0.1	1567.4
4155	16.82	0.18182	0.1	1611.6
4156	16.636	0.18182	0.1	1656.
4157	16.452	0.18182	0.1	1700.6
4158	16.267	0.18182	0.1	1745.4
4159	16.083	0.18182	0.1	1790.4
4160	15.899	0.18182	0.1	1835.6
4161	15.715	0.18182	0.1	1881.1
4162	15.531	0.18182	0.1	1926.7
4163	15.347	0.18182	0.1	1972.5
4164	15.163	0.18182	0.1	2018.5
4165	14.979	0.18182	0.1	2064.7
4166	14.795	0.18182	0.1	2111.1
4167	14.61	0.18182	0.1	2157.7
4168	14.426	0.18182	0.1	2204.4
4169	14.242	0.18182	0.1	2251.3
4170	14.058	0.18182	0.1	2298.3
4171	13.874	0.18182	0.1	2345.4
4172	13.69	0.18182	0.1	2392.5
4173	13.506	0.18182	0.1	2439.7
4174	13.322	0.18182	0.1	2486.8
4175	13.138	0.18182	0.1	2533.8
4176	12.953	0.18182	0.1	2580.5
4177	12.769	0.18182	0.1	2626.9
4178	12.585	0.18182	0.1	2672.6
4179	12.401	0.18182	0.1	2717.6
4180	12.217	0.18182	0.1	2761.4
4181	12.033	0.18182	0.1	2803.8
4182	11.849	0.18182	0.1	2844.2
4183	11.665	0.18182	0.1	2882.
4184	11.481	0.18182	0.1	2916.4
4185	11.297	0.18182	0.1	2946.5
4186	11.112	0.18182	0.1	2971.
4187	10.928	0.18182	0.1	2988.5
4188	10.744	0.18182	0.1	2997.
4189	10.56	0.18182	0.1	2994.2
4190	10.376	0.18182	0.1	2977.4
4191	10.192	0.18182	0.1	2943.1
4192	10.008	0.18182	0.1	2887.4
4193	9.8236	0.18182	0.1	2805.7
4194	9.6395	0.18182	0.1	2692.9
4195	9.4554	0.18182	0.1	2543.4
4196	9.2713	0.18182	0.1	2351.7
4197	9.0872	0.18182	0.1	2112.9
4198	8.9031	0.18182	0.1	1823.9
4199	8.719	0.18182	0.1	1484.1
4200	8.5349	0.18182	0.1	1101.9
4201	8.3508	0.18182	0.1	736.18
4202	23.816	0.36364	0.1	83.022
4203	23.632	0.36364	0.1	107.57
4204	23.448	0.36364	0.1	139.03
4205	23.264	0.36364	0.1	173.72
4206	23.079	0.36364	0.1	210.05
4207	22.895	0.36364	0.1	247.32
4208	22.711	0.36364	0.1	285.2
4209	22.527	0.36364	0.1	323.51
4210	22.343	0.36364	0.1	362.14
4211	22.159	0.36364	0.1	401.03
4212	21.975	0.36364	0.1	440.13
4213	21.791	0.36364	0.1	479.43
4214	21.607	0.36364	0.1	518.91
4215	21.422	0.36364	0.1	558.56
4216	21.238	0.36364	0.1	598.37
4217	21.054	0.36364	0.1	638.35
4218	20.87	0.36364	0.1	678.48
4219	20.686	0.36364	0.1	718.78
4220	20.502	0.36364	0.1	759.24
4221	20.318	0.36364	0.1	799.87
4222	20.134	0.36364	0.1	840.66
4223	19.95	0.36364	0.1	881.63
4224	19.766	0.36364	0.1	922.76
4225	19.581	0.36364	0.1	964.08
4226	19.397	0.36364	0.1	1005.6
4227	19.213	0.36364	0.1	1047.2
4228	19.029	0.36364	0.1	1089.1
4229	18.845	0.36364	0.1	1131.1
4230	18.661	0.36364	0.1	1173.4
4231	18.477	0.36364	0.1	1215.8
4232	18.293	0.36364	0.1	1258.4
4233	18.109	0.36364	0.1	1301.2
4234	17.924	0.36364	0.1	1344.1
4235	17.74	0.36364	0.1	1387.3
4236	17.556	0.36364	0.1	1430.7
4237	17.372	0.36364	0.1	1474.3
4238	17.188	0.36364	0.1	1518.
4239	17.004	0.36364	0.1	1562.
4240	16.82	0.36364	0.1	1606.1
4241	16.636	0.36364	0.1	1650.5
4242	16.452	0.36364	0.1	1695.1
4243	16.267	0.36364	0.1	1739.8
4244	16.083	0.36364	0.1	1784.8
4245	15.899	0.36364	0.1	1829.9
4246	15.715	0.36364	0.1	1875.2
4247	15.531	0.36364	0.1	1920.8
4248	15.347	0.36364	0.1	1966.5
4249	15.163	0.36364	0.1	2012.4
4250	14.979	0.36364	0.1	2058.5
4251	14.795	0.36364	0.1	2104.8
4252	14.61	0.36364	0.1	2151.3
4253	14.426	0.36364	0.1	2197.9
4254	14.242	0.36364	0.1	2244.7
4255	14.058	0.36364	0.1	2291.6
4256	13.874	0.36364	0.1	2338.6
4257	13.69	0.36364	0.1	2385.7
4258	13.506	0.36364	0.1	2432.8
4259	13.322	0.36364	0.1	2479.9
4260	13.138	0.36364	0.1	2526.9
4261	12.953	0.36364	0.1	2573.8
4262	12.769	0.36364	0.1	2620.3
4263	12.585	0.36364	0.1	2666.4
4264	12.401	0.36364	0.1	2711.8
4265	12.217	0.36364	0.1	2756.2
4266	12.033	0.36364	0.1	2799.4
4267	11.849	0.36364	0.1	2840.9
4268	11.665	0.36364	0.1	2880.2
4269	11.481	0.36364	0.1	2916.5
4270	11.297	0.36364	0.1	2949.
4271	11.112	0.36364	0.1	2976.4
4272	10.928	0.36364	0.1	2997.5
4273	10.744	0.36364	0.1	3010.4
4274	10.56	0.36364	0.1	3012.9
4275	10.376	0.36364	0.1	3002.3
4276	10.192	0.36364	0.1	2975.2
4277	10.008	0.36364	0.1	2927.7
4278	9.8236	0.36364	0.1	2854.9
4279	9.6395	0.36364	0.1	2751.5
4280	9.4554	0.36364	0.1	2611.7
4281	9.2713	0.36364	0.1	2429.5
4282	9.0872	0.36364	0.1	2200.3
4283	8.9031	0.36364	0.1	1922.5
4284	8.719	0.36364	0.1	1603.3
4285	8.5349	0.36364	0.1	1274.3
4286	8.3508	0.36364	0.1	1073.1
4287	23.816	0.54545	0.1	102.35
4288	23.632	0.54545	0.1	124.03
4289	23.448	0.54545	0.1	152.17
4290	23.264	0.54545	0.1	184.15
4291	23.079	0.54545	0.1	218.4
4292	22.895	0.54545	0.1	254.1
4293	22.711	0.54545	0.1	290.75
4294	22.527	0.54545	0.1	328.08
4295	22.343	0.54545	0.1	365.9
4296	22.159	0.54545	0.1	404.12
4297	21.975	0.54545	0.1	442.65
4298	21.791	0.54545	0.1	481.46
4299	21.607	0.54545	0.1	520.51
4300	21.422	0.54545	0.1	559.78
4301	21.238	0.54545	0.1	599.26
4302	21.054	0.54545	0.1	638.93
4303	20.87	0.54545	0.1	678.8
4304	20.686	0.54545	0.1	718.86
4305	20.502	0.54545	0.1	759.1
4306	20.318	0.54545	0.1	799.53
4307	20.134	0.54545	0.1	840.14
4308	19.95	0.54545	0.1	880.94
4309	19.766	0.54545	0.1	921.92
4310	19.581	0.54545	0.1	963.09
4311	19.397	0.54545	0.1	1004.5
4312	19.213	0.54545	0.1	1046.
4313	19.029	0.54545	0.1	1087.7
4314	18.845	0.54545	0.1	1129.7
4315	18.661	0.54545	0.1	1171.8
4316	18.477	0.54545	0.1	1214.1
4317	18.293	0.54545	0.1	1256.6
4318	18.109	0.54545	0.1	1299.3
4319	17.924	0.54545	0.1	1342.2
4320	17.74	0.54545	0.1	1385.3
4321	17.556	0.54545	0.1	1428.6
4322	17.372	0.54545	0.1	1472.
4323	17.188	0.54545	0.1	1515.7
4324	17.004	0.54545	0.1	1559.6
4325	16.82	0.54545	0.1	1603.6
4326	16.636	0.54545	0.1	1647.9
4327	16.452	0.54545	0.1	1692.3
4328	16.267	0.54545	0.1	1736.9
4329	16.083	0.54545	0.1	1781.8
4330	15.899	0.54545	0.1	1826.8
4331	15.715	0.54545	0.1	1872.
4332	15.531	0.54545	0.1	1917.4
4333	15.347	0.54545	0.1	1962.9
4334	15.163	0.54545	0.1	2008.7
4335	14.979	0.54545	0.1	2054.6
4336	14.795	0.54545	0.1	2100.8
4337	14.61	0.54545	0.1	2147.
4338	14.426	0.54545	0.1	2193.5
4339	14.242	0.54545	0.1	2240.1
4340	14.058	0.54545	0.1	2286.8
4341	13.874	0.54545	0.1	2333.7
4342	13.69	0.54545	0.1	2380.6
4343	13.506	0.54545	0.1	2427.6
4344	13.322	0.54545	0.1	2474.6
4345	13.138	0.54545	0.1	2521.6
4346	12.953	0.54545	0.1	2568.4
4347	12.769	0.54545	0.1	2615.1
4348	12.585	0.54545	0.1	2661.4
4349	12.401	0.54545	0.1	2707.1
4350	12.217	0.54545	0.1	2752.2
4351	12.033	0.54545	0.1	2796.2
4352	11.849	0.54545	0.1	2838.8
4353	11.665	0.54545	0.1	2879.6
4354	11.481	0.54545	0.1	2917.8
4355	11.297	0.54545	0.1	2952.8
4356	11.112	0.54545	0.1	2983.5
4357	10.928	0.54545	0.1	3008.6
4358	10.744	0.54545	0.1	3026.5
4359	10.56	0.54545	0.1	3035.2
4360	10.376	0.54545	0.1	3032.1
4361	10.192	0.54545	0.1	3014.1
4362	10.008	0.54545	0.1	2977.5
4363	9.8236	0.54545	0.1	2917.7
4364	9.6395	0.54545	0.1	2829.6
4365	9.4554	0.54545	0.1	2707.4
4366	9.2713	0.54545	0.1	2545.9
4367	9.0872	0.54545	0.1	2341.5
4368	8.9031	0.54545	0.1	2096.1
4369	8.719	0.54545	0.1	1824.5
4370	8.5349	0.54545	0.1	1573.8
4371	8.3508	0.54545	0.1	1500.3
4372	23.816	0.72727	0.1	118.84
4373	23.632	0.72727	0.1	139.06
4374	23.448	0.72727	0.1	165.19
4375	23.264	0.72727	0.1	195.15
4376	23.079	0.72727	0.1	227.65
4377	22.895	0.72727	0.1	261.88
4378	22.711	0.72727	0.1	297.32
4379	22.527	0.72727	0.1	333.63
4380	22.343	0.72727	0.1	370.61
4381	22.159	0.72727	0.1	408.1
4382	21.975	0.72727	0.1	446.01
4383	21.791	0.72727	0.1	484.28
4384	21.607	0.72727	0.1	522.86
4385	21.422	0.72727	0.1	561.71
4386	21.238	0.72727	0.1	600.82
4387	21.054	0.72727	0.1	640.17
4388	20.87	0.72727	0.1	679.74
4389	20.686	0.72727	0.1	719.53
4390	20.502	0.72727	0.1	759.52
4391	20.318	0.72727	0.1	799.73
4392	20.134	0.72727	0.1	840.14
4393	19.95	0.72727	0.1	880.75
4394	19.766	0.72727	0.1	921.57
4395	19.581	0.72727	0.1	962.58
4396	19.397	0.72727	0.1	1003.8
4397	19.213	0.72727	0.1	1045.2
4398	19.029	0.72727	0.1	1086.8
4399	18.845	0.72727	0.1	1128.6
4400	18.661	0.72727	0.1	1170.6
4401	18.477	0.72727	0.1	1212.8
4402	18.293	0.72727	0.1	1255.2
4403	18.109	0.72727	0.1	1297.8
4404	17.924	0.72727	0.1	1340.6
4405	17.74	0.72727	0.1	1383.6
4406	17.556	0.72727	0.1	1426.8
4407	17.372	0.72727	0.1	1470.2
4408	17.188	0.72727	0.1	1513.7
4409	17.004	0.72727	0.1	1557.5
4410	16.82	0.72727	0.1	1601.4
4411	16.636	0.72727	0.1	1645.6
4412	16.452	0.72727	0.1	1689.9
4413	16.267	0.72727	0.1	1734.4
4414	16.083	0.72727	0.1	1779.1
4415	15.899	0.72727	0.1	1824.
4416	15.715	0.72727	0.1	1869.
4417	15.531	0.72727	0.1	1914.3
4418	15.347	0.72727	0.1	1959.7
4419	15.163	0.72727	0.1	2005.3
4420	14.979	0.72727	0.1	2051.
4421	14.795	0.72727	0.1	2097.
4422	14.61	0.72727	0.1	2143.1
4423	14.426	0.72727	0.1	2189.3
4424	14.242	0.72727	0.1	2235.7
4425	14.058	0.72727	0.1	2282.3
4426	13.874	0.72727	0.1	2328.9
4427	13.69	0.72727	0.1	2375.7
4428	13.506	0.72727	0.1	2422.6
4429	13.322	0.72727	0.1	2469.5
4430	13.138	0.72727	0.1	2516.4
4431	12.953	0.72727	0.1	2563.2
4432	12.769	0.72727	0.1	2609.9
4433	12.585	0.72727	0.1	2656.4
4434	12.401	0.72727	0.1	2702.6
4435	12.217	0.72727	0.1	2748.1
4436	12.033	0.72727	0.1	2793.
4437	11.849	0.72727	0.1	2836.7
4438	11.665	0.72727	0.1	2878.9
4439	11.481	0.72727	0.1	2919.2
4440	11.297	0.72727	0.1	2956.8
4441	11.112	0.72727	0.1	2990.8
4442	10.928	0.72727	0.1	3020.3
4443	10.744	0.72727	0.1	3043.7
4444	10.56	0.72727	0.1	3059.3
4445	10.376	0.72727	0.1	3065.
4446	10.192	0.72727	0.1	3057.9
4447	10.008	0.72727	0.1	3034.8
4448	9.8236	0.72727	0.1	2991.7
4449	9.6395	0.72727	0.1	2924.2
4450	9.4554	0.72727	0.1	2827.4
4451	9.2713	0.72727	0.1	2697.1
4452	9.0872	0.72727	0.1	2531.5
4453	8.9031	0.72727	0.1	2335.3
4454	8.719	0.72727	0.1	2127.1
4455	8.5349	0.72727	0.1	1956.
4456	8.3508	0.72727	0.1	1982.8
4457	23.816	0.90909	0.1	133.03
4458	23.632	0.90909	0.1	152.37
4459	23.448	0.90909	0.1	177.19
4460	23.264	0.90909	0.1	205.74
4461	23.079	0.90909	0.1	236.86
4462	22.895	0.90909	0.1	269.85
4463	22.711	0.90909	0.1	304.2
4464	22.527	0.90909	0.1	339.56
4465	22.343	0.90909	0.1	375.72
4466	22.159	0.90909	0.1	412.49
4467	21.975	0.90909	0.1	449.78
4468	21.791	0.90909	0.1	487.5
4469	21.607	0.90909	0.1	525.59
4470	21.422	0.90909	0.1	564.01
4471	21.238	0.90909	0.1	602.73
4472	21.054	0.90909	0.1	641.73
4473	20.87	0.90909	0.1	680.98
4474	20.686	0.90909	0.1	720.49
4475	20.502	0.90909	0.1	760.23
4476	20.318	0.90909	0.1	800.2
4477	20.134	0.90909	0.1	840.4
4478	19.95	0.90909	0.1	880.82
4479	19.766	0.90909	0.1	921.46
4480	19.581	0.90909	0.1	962.31
4481	19.397	0.90909	0.1	1003.4
4482	19.213	0.90909	0.1	1044.6
4483	19.029	0.90909	0.1	1086.1
4484	18.845	0.90909	0.1	1127.8
4485	18.661	0.90909	0.1	1169.7
4486	18.477	0.90909	0.1	1211.8
4487	18.293	0.90909	0.1	1254.1
4488	18.109	0.90909	0.1	1296.6
4489	17.924	0.90909	0.1	1339.2
4490	17.74	0.90909	0.1	1382.1
4491	17.556	0.90909	0.1	1425.2
4492	17.372	0.90909	0.1	1468.5
4493	17.188	0.90909	0.1	1511.9
4494	17.004	0.90909	0.1	1555.6
4495	16.82	0.90909	0.1	1599.4
4496	16.636	0.90909	0.1	1643.4
4497	16.452	0.90909	0.1	1687.7
4498	16.267	0.90909	0.1	1732.
4499	16.083	0.90909	0.1	1776.6
4500	15.899	0.90909	0.1	1821.4
4501	15.715	0.90909	0.1	1866.3
4502	15.531	0.90909	0.1	1911.4
4503	15.347	0.90909	0.1	1956.6
4504	15.163	0.90909	0.1	2002.1
4505	14.979	0.90909	0.1	2047.6
4506	14.795	0.90909	0.1	2093.4
4507	14.61	0.90909	0.1	2139.3
4508	14.426	0.90909	0.1	2185.4
4509	14.242	0.90909	0.1	2231.6
4510	14.058	0.90909	0.1	2277.9
4511	13.874	0.90909	0.1	2324.4
4512	13.69	0.90909	0.1	2371.
4513	13.506	0.90909	0.1	2417.7
4514	13.322	0.90909	0.1	2464.4
4515	13.138	0.90909	0.1	2511.2
4516	12.953	0.90909	0.1	2558.
4517	12.769	0.90909	0.1	2604.8
4518	12.585	0.90909	0.1	2651.5
4519	12.401	0.90909	0.1	2697.9
4520	12.217	0.90909	0.1	2744.
4521	12.033	0.90909	0.1	2789.5
4522	11.849	0.90909	0.1	2834.3
4523	11.665	0.90909	0.1	2878.1
4524	11.481	0.90909	0.1	2920.3
4525	11.297	0.90909	0.1	2960.6
4526	11.112	0.90909	0.1	2998.2
4527	10.928	0.90909	0.1	3032.3
4528	10.744	0.90909	0.1	3061.7
4529	10.56	0.90909	0.1	3085.
4530	10.376	0.90909	0.1	3100.5
4531	10.192	0.90909	0.1	3105.9
4532	10.008	0.90909	0.1	3098.8
4533	9.8236	0.90909	0.1	3076.
4534	9.6395	0.90909	0.1	3034.2
4535	9.4554	0.90909	0.1	2970.1
4536	9.2713	0.90909	0.1	2881.2
4537	9.0872	0.90909	0.1	2767.5
4538	8.9031	0.90909	0.1	2635.3
4539	8.719	0.90909	0.1	2502.7
4540	8.5349	0.90909	0.1	2412.9
4541	8.3508	0.90909	0.1	2535.3
4542	23.816	1.0909	0.1	145.32
4543	23.632	1.0909	0.1	164.06
4544	23.448	1.0909	0.1	187.99
4545	23.264	1.0909	0.1	215.51
4546	23.079	1.0909	0.1	245.6
4547	22.895	1.0909	0.1	277.59
4548	22.711	1.0909	0.1	311.01
4549	22.527	1.0909	0.1	345.54
4550	22.343	1.0909	0.1	380.94
4551	22.159	1.0909	0.1	417.04
4552	21.975	1.0909	0.1	453.73
4553	21.791	1.0909	0.1	490.92
4554	21.607	1.0909	0.1	528.53
4555	21.422	1.0909	0.1	566.52
4556	21.238	1.0909	0.1	604.85
4557	21.054	1.0909	0.1	643.5
4558	20.87	1.0909	0.1	682.44
4559	20.686	1.0909	0.1	721.66
4560	20.502	1.0909	0.1	761.14
4561	20.318	1.0909	0.1	800.87
4562	20.134	1.0909	0.1	840.86
4563	19.95	1.0909	0.1	881.08
4564	19.766	1.0909	0.1	921.53
4565	19.581	1.0909	0.1	962.21
4566	19.397	1.0909	0.1	1003.1
4567	19.213	1.0909	0.1	1044.2
4568	19.029	1.0909	0.1	1085.6
4569	18.845	1.0909	0.1	1127.1
4570	18.661	1.0909	0.1	1168.9
4571	18.477	1.0909	0.1	1210.9
4572	18.293	1.0909	0.1	1253.1
4573	18.109	1.0909	0.1	1295.4
4574	17.924	1.0909	0.1	1338.
4575	17.74	1.0909	0.1	1380.8
4576	17.556	1.0909	0.1	1423.8
4577	17.372	1.0909	0.1	1467.
4578	17.188	1.0909	0.1	1510.3
4579	17.004	1.0909	0.1	1553.9
4580	16.82	1.0909	0.1	1597.6
4581	16.636	1.0909	0.1	1641.5
4582	16.452	1.0909	0.1	1685.6
4583	16.267	1.0909	0.1	1729.9
4584	16.083	1.0909	0.1	1774.3
4585	15.899	1.0909	0.1	1818.9
4586	15.715	1.0909	0.1	1863.7
4587	15.531	1.0909	0.1	1908.6
4588	15.347	1.0909	0.1	1953.8
4589	15.163	1.0909	0.1	1999.
4590	14.979	1.0909	0.1	2044.4
4591	14.795	1.0909	0.1	2090.
4592	14.61	1.0909	0.1	2135.7
4593	14.426	1.0909	0.1	2181.6
4594	14.242	1.0909	0.1	2227.6
4595	14.058	1.0909	0.1	2273.7
4596	13.874	1.0909	0.1	2320.
4597	13.69	1.0909	0.1	2366.4
4598	13.506	1.0909	0.1	2412.9
4599	13.322	1.0909	0.1	2459.5
4600	13.138	1.0909	0.1	2506.2
4601	12.953	1.0909	0.1	2552.9
4602	12.769	1.0909	0.1	2599.7
4603	12.585	1.0909	0.1	2646.5
4604	12.401	1.0909	0.1	2693.1
4605	12.217	1.0909	0.1	2739.7
4606	12.033	1.0909	0.1	2785.9
4607	11.849	1.0909	0.1	2831.7
4608	11.665	1.0909	0.1	2876.9
4609	11.481	1.0909	0.1	2921.2
4610	11.297	1.0909	0.1	2964.2
4611	11.112	1.0909	0.1	3005.5
4612	10.928	1.0909	0.1	3044.4
4613	10.744	1.0909	0.1	3080.1
4614	10.56	1.0909	0.1	3111.7
4615	10.376	1.0909	0.1	3137.9
4616	10.192	1.0909	0.1	3157.3
4617	10.008	1.0909	0.1	3168.1
4618	9.8236	1.0909	0.1	3168.7
4619	9.6395	1.0909	0.1	3157.
4620	9.4554	1.0909	0.1	3131.9
4621	9.2713	1.0909	0.1	3093.2
4622	9.0872	1.0909	0.1	3043.5
4623	8.9031	1.0909	0.1	2990.4
4624	8.719	1.0909	0.1	2949.5
4625	8.5349	1.0909	0.1	2954.8
4626	8.3508	1.0909	0.1	3189.
4627	23.816	1.2727	0.1	155.98
4628	23.632	1.2727	0.1	174.3
4629	23.448	1.2727	0.1	197.57
4630	23.264	1.2727	0.1	224.34
4631	23.079	1.2727	0.1	253.63
4632	22.895	1.2727	0.1	284.83
4633	22.711	1.2727	0.1	317.5
4634	22.527	1.2727	0.1	351.32
4635	22.343	1.2727	0.1	386.06
4636	22.159	1.2727	0.1	421.56
4637	21.975	1.2727	0.1	457.7
4638	21.791	1.2727	0.1	494.38
4639	21.607	1.2727	0.1	531.54
4640	21.422	1.2727	0.1	569.12
4641	21.238	1.2727	0.1	607.08
4642	21.054	1.2727	0.1	645.38
4643	20.87	1.2727	0.1	684.02
4644	20.686	1.2727	0.1	722.95
4645	20.502	1.2727	0.1	762.18
4646	20.318	1.2727	0.1	801.68
4647	20.134	1.2727	0.1	841.45
4648	19.95	1.2727	0.1	881.47
4649	19.766	1.2727	0.1	921.74
4650	19.581	1.2727	0.1	962.25
4651	19.397	1.2727	0.1	1003.
4652	19.213	1.2727	0.1	1044.
4653	19.029	1.2727	0.1	1085.2
4654	18.845	1.2727	0.1	1126.6
4655	18.661	1.2727	0.1	1168.3
4656	18.477	1.2727	0.1	1210.1
4657	18.293	1.2727	0.1	1252.2
4658	18.109	1.2727	0.1	1294.5
4659	17.924	1.2727	0.1	1337.
4660	17.74	1.2727	0.1	1379.7
4661	17.556	1.2727	0.1	1422.5
4662	17.372	1.2727	0.1	1465.6
4663	17.188	1.2727	0.1	1508.9
4664	17.004	1.2727	0.1	1552.3
4665	16.82	1.2727	0.1	1595.9
4666	16.636	1.2727	0.1	1639.8
4667	16.452	1.2727	0.1	1683.7
4668	16.267	1.2727	0.1	1727.9
4669	16.083	1.2727	0.1	1772.2
4670	15.899	1.2727	0.1	1816.7
4671	15.715	1.2727	0.1	1861.3
4672	15.531	1.2727	0.1	1906.1
4673	15.347	1.2727	0.1	1951.1
4674	15.163	1.2727	0.1	1996.2
4675	14.979	1.2727	0.1	2041.4
4676	14.795	1.2727	0.1	2086.8
4677	14.61	1.2727	0.1	2132.3
4678	14.426	1.2727	0.1	2178.
4679	14.242	1.2727	0.1	2223.8
4680	14.058	1.2727	0.1	2269.7
4681	13.874	1.2727	0.1	2315.8
4682	13.69	1.2727	0.1	2362.
4683	13.506	1.2727	0.1	2408.3
4684	13.322	1.2727	0.1	2454.7
4685	13.138	1.2727	0.1	2501.2
4686	12.953	1.2727	0.1	2547.9
4687	12.769	1.2727	0.1	2594.6
4688	12.585	1.2727	0.1	2641.4
4689	12.401	1.2727	0.1	2688.3
4690	12.217	1.2727	0.1	2735.2
4691	12.033	1.2727	0.1	2782.1
4692	11.849	1.2727	0.1	2828.9
4693	11.665	1.2727	0.1	2875.5
4694	11.481	1.2727	0.1	2921.8
4695	11.297	1.2727	0.1	2967.5
4696	11.112	1.2727	0.1	3012.5
4697	10.928	1.2727	0.1	3056.3
4698	10.744	1.2727	0.1	3098.7
4699	10.56	1.2727	0.1	3138.9
4700	10.376	1.2727	0.1	3176.6
4701	10.192	1.2727	0.1	3210.9
4702	10.008	1.2727	0.1	3241.2
4703	9.8236	1.2727	0.1	3267.1
4704	9.6395	1.2727	0.1	3288.8
4705	9.4554	1.2727	0.1	3307.2
4706	9.2713	1.2727	0.1	3325.7
4707	9.0872	1.2727	0.1	3350.4
4708	8.9031	1.2727	0.1	3392.6
4709	8.719	1.2727	0.1	3468.3
4710	8.5349	1.2727	0.1	3606.8
4711	8.3508	1.2727	0.1	3998.8
4712	23.816	1.4545	0.1	165.22
4713	23.632	1.4545	0.1	183.22
4714	23.448	1.4545	0.1	206.
4715	23.264	1.4545	0.1	232.18
4716	23.079	1.4545	0.1	260.87
4717	22.895	1.4545	0.1	291.45
4718	22.711	1.4545	0.1	323.51
4719	22.527	1.4545	0.1	356.73
4720	22.343	1.4545	0.1	390.92
4721	22.159	1.4545	0.1	425.89
4722	21.975	1.4545	0.1	461.54
4723	21.791	1.4545	0.1	497.77
4724	21.607	1.4545	0.1	534.51
4725	21.422	1.4545	0.1	571.71
4726	21.238	1.4545	0.1	609.32
4727	21.054	1.4545	0.1	647.3
4728	20.87	1.4545	0.1	685.64
4729	20.686	1.4545	0.1	724.31
4730	20.502	1.4545	0.1	763.29
4731	20.318	1.4545	0.1	802.56
4732	20.134	1.4545	0.1	842.12
4733	19.95	1.4545	0.1	881.96
4734	19.766	1.4545	0.1	922.05
4735	19.581	1.4545	0.1	962.41
4736	19.397	1.4545	0.1	1003.
4737	19.213	1.4545	0.1	1043.9
4738	19.029	1.4545	0.1	1084.9
4739	18.845	1.4545	0.1	1126.2
4740	18.661	1.4545	0.1	1167.8
4741	18.477	1.4545	0.1	1209.5
4742	18.293	1.4545	0.1	1251.5
4743	18.109	1.4545	0.1	1293.7
4744	17.924	1.4545	0.1	1336.1
4745	17.74	1.4545	0.1	1378.7
4746	17.556	1.4545	0.1	1421.4
4747	17.372	1.4545	0.1	1464.4
4748	17.188	1.4545	0.1	1507.6
4749	17.004	1.4545	0.1	1550.9
4750	16.82	1.4545	0.1	1594.5
4751	16.636	1.4545	0.1	1638.2
4752	16.452	1.4545	0.1	1682.
4753	16.267	1.4545	0.1	1726.1
4754	16.083	1.4545	0.1	1770.3
4755	15.899	1.4545	0.1	1814.6
4756	15.715	1.4545	0.1	1859.2
4757	15.531	1.4545	0.1	1903.8
4758	15.347	1.4545	0.1	1948.6
4759	15.163	1.4545	0.1	1993.6
4760	14.979	1.4545	0.1	2038.6
4761	14.795	1.4545	0.1	2083.9
4762	14.61	1.4545	0.1	2129.2
4763	14.426	1.4545	0.1	2174.7
4764	14.242	1.4545	0.1	2220.3
4765	14.058	1.4545	0.1	2266.
4766	13.874	1.4545	0.1	2311.8
4767	13.69	1.4545	0.1	2357.8
4768	13.506	1.4545	0.1	2403.9
4769	13.322	1.4545	0.1	2450.1
4770	13.138	1.4545	0.1	2496.5
4771	12.953	1.4545	0.1	2543.
4772	12.769	1.4545	0.1	2589.6
4773	12.585	1.4545	0.1	2636.5
4774	12.401	1.4545	0.1	2683.5
4775	12.217	1.4545	0.1	2730.8
4776	12.033	1.4545	0.1	2778.2
4777	11.849	1.4545	0.1	2825.9
4778	11.665	1.4545	0.1	2873.8
4779	11.481	1.4545	0.1	2922.
4780	11.297	1.4545	0.1	2970.5
4781	11.112	1.4545	0.1	3019.1
4782	10.928	1.4545	0.1	3068.
4783	10.744	1.4545	0.1	3117.
4784	10.56	1.4545	0.1	3166.2
4785	10.376	1.4545	0.1	3215.6
4786	10.192	1.4545	0.1	3265.4
4787	10.008	1.4545	0.1	3316.1
4788	9.8236	1.4545	0.1	3368.7
4789	9.6395	1.4545	0.1	3425.3
4790	9.4554	1.4545	0.1	3489.8
4791	9.2713	1.4545	0.1	3569.3
4792	9.0872	1.4545	0.1	3675.8
4793	8.9031	1.4545	0.1	3828.6
4794	8.719	1.4545	0.1	4058.
4795	8.5349	1.4545	0.1	4389.7
4796	8.3508	1.4545	0.1	5059.
4797	23.816	1.6364	0.1	173.18
4798	23.632	1.6364	0.1	190.94
4799	23.448	1.6364	0.1	213.32
4800	23.264	1.6364	0.1	239.06
4801	23.079	1.6364	0.1	267.27
4802	22.895	1.6364	0.1	297.36
4803	22.711	1.6364	0.1	328.93
4804	22.527	1.6364	0.1	361.68
4805	22.343	1.6364	0.1	395.39
4806	22.159	1.6364	0.1	429.92
4807	21.975	1.6364	0.1	465.15
4808	21.791	1.6364	0.1	500.98
4809	21.607	1.6364	0.1	537.35
4810	21.422	1.6364	0.1	574.2
4811	21.238	1.6364	0.1	611.49
4812	21.054	1.6364	0.1	649.18
4813	20.87	1.6364	0.1	687.24
4814	20.686	1.6364	0.1	725.66
4815	20.502	1.6364	0.1	764.41
4816	20.318	1.6364	0.1	803.48
4817	20.134	1.6364	0.1	842.84
4818	19.95	1.6364	0.1	882.49
4819	19.766	1.6364	0.1	922.43
4820	19.581	1.6364	0.1	962.63
4821	19.397	1.6364	0.1	1003.1
4822	19.213	1.6364	0.1	1043.8
4823	19.029	1.6364	0.1	1084.8
4824	18.845	1.6364	0.1	1126.
4825	18.661	1.6364	0.1	1167.4
4826	18.477	1.6364	0.1	1209.
4827	18.293	1.6364	0.1	1250.9
4828	18.109	1.6364	0.1	1293.
4829	17.924	1.6364	0.1	1335.3
4830	17.74	1.6364	0.1	1377.8
4831	17.556	1.6364	0.1	1420.5
4832	17.372	1.6364	0.1	1463.4
4833	17.188	1.6364	0.1	1506.4
4834	17.004	1.6364	0.1	1549.7
4835	16.82	1.6364	0.1	1593.1
4836	16.636	1.6364	0.1	1636.8
4837	16.452	1.6364	0.1	1680.5
4838	16.267	1.6364	0.1	1724.5
4839	16.083	1.6364	0.1	1768.6
4840	15.899	1.6364	0.1	1812.8
4841	15.715	1.6364	0.1	1857.2
4842	15.531	1.6364	0.1	1901.7
4843	15.347	1.6364	0.1	1946.4
4844	15.163	1.6364	0.1	1991.2
4845	14.979	1.6364	0.1	2036.1
4846	14.795	1.6364	0.1	2081.1
4847	14.61	1.6364	0.1	2126.3
4848	14.426	1.6364	0.1	2171.6
4849	14.242	1.6364	0.1	2217.
4850	14.058	1.6364	0.1	2262.5
4851	13.874	1.6364	0.1	2308.1
4852	13.69	1.6364	0.1	2353.8
4853	13.506	1.6364	0.1	2399.7
4854	13.322	1.6364	0.1	2445.7
4855	13.138	1.6364	0.1	2491.9
4856	12.953	1.6364	0.1	2538.3
4857	12.769	1.6364	0.1	2584.9
4858	12.585	1.6364	0.1	2631.7
4859	12.401	1.6364	0.1	2678.8
4860	12.217	1.6364	0.1	2726.3
4861	12.033	1.6364	0.1	2774.3
4862	11.849	1.6364	0.1	2822.8
4863	11.665	1.6364	0.1	2872.
4864	11.481	1.6364	0.1	2922.1
4865	11.297	1.6364	0.1	2973.1
4866	11.112	1.6364	0.1	3025.4
4867	10.928	1.6364	0.1	3079.2
4868	10.744	1.6364	0.1	3134.9
4869	10.56	1.6364	0.1	3193.1
4870	10.376	1.6364	0.1	3254.4
4871	10.192	1.6364	0.1	3319.9
4872	10.008	1.6364	0.1	3391.2
4873	9.8236	1.6364	0.1	3470.8
4874	9.6395	1.6364	0.1	3562.8
4875	9.4554	1.6364	0.1	3673.9
4876	9.2713	1.6364	0.1	3815.3
4877	9.0872	1.6364	0.1	4005.4
4878	8.9031	1.6364	0.1	4278.6
4879	8.719	1.6364	0.1	4681.8
4880	8.5349	1.6364	0.1	5333.7
4881	8.3508	1.6364	0.1	6597.
4882	23.816	1.8182	0.1	179.97
4883	23.632	1.8182	0.1	197.53
4884	23.448	1.8182	0.1	219.6
4885	23.264	1.8182	0.1	244.99
4886	23.079	1.8182	0.1	272.83
4887	22.895	1.8182	0.1	302.54
4888	22.711	1.8182	0.1	333.72
4889	22.527	1.8182	0.1	366.08
4890	22.343	1.8182	0.1	399.41
4891	22.159	1.8182	0.1	433.56
4892	21.975	1.8182	0.1	468.43
4893	21.791	1.8182	0.1	503.92
4894	21.607	1.8182	0.1	539.97
4895	21.422	1.8182	0.1	576.51
4896	21.238	1.8182	0.1	613.52
4897	21.054	1.8182	0.1	650.95
4898	20.87	1.8182	0.1	688.77
4899	20.686	1.8182	0.1	726.96
4900	20.502	1.8182	0.1	765.5
4901	20.318	1.8182	0.1	804.37
4902	20.134	1.8182	0.1	843.56
4903	19.95	1.8182	0.1	883.05
4904	19.766	1.8182	0.1	922.83
4905	19.581	1.8182	0.1	962.89
4906	19.397	1.8182	0.1	1003.2
4907	19.213	1.8182	0.1	1043.8
4908	19.029	1.8182	0.1	1084.7
4909	18.845	1.8182	0.1	1125.7
4910	18.661	1.8182	0.1	1167.1
4911	18.477	1.8182	0.1	1208.6
4912	18.293	1.8182	0.1	1250.4
4913	18.109	1.8182	0.1	1292.4
4914	17.924	1.8182	0.1	1334.6
4915	17.74	1.8182	0.1	1377.
4916	17.556	1.8182	0.1	1419.7
4917	17.372	1.8182	0.1	1462.5
4918	17.188	1.8182	0.1	1505.5
4919	17.004	1.8182	0.1	1548.6
4920	16.82	1.8182	0.1	1592.
4921	16.636	1.8182	0.1	1635.5
4922	16.452	1.8182	0.1	1679.2
4923	16.267	1.8182	0.1	1723.
4924	16.083	1.8182	0.1	1767.
4925	15.899	1.8182	0.1	1811.2
4926	15.715	1.8182	0.1	1855.5
4927	15.531	1.8182	0.1	1899.9
4928	15.347	1.8182	0.1	1944.4
4929	15.163	1.8182	0.1	1989.1
4930	14.979	1.8182	0.1	2033.8
4931	14.795	1.8182	0.1	2078.7
4932	14.61	1.8182	0.1	2123.7
4933	14.426	1.8182	0.1	2168.8
4934	14.242	1.8182	0.1	2214.
4935	14.058	1.8182	0.1	2259.3
4936	13.874	1.8182	0.1	2304.7
4937	13.69	1.8182	0.1	2350.2
4938	13.506	1.8182	0.1	2395.9
4939	13.322	1.8182	0.1	2441.7
4940	13.138	1.8182	0.1	2487.7
4941	12.953	1.8182	0.1	2533.9
4942	12.769	1.8182	0.1	2580.4
4943	12.585	1.8182	0.1	2627.2
4944	12.401	1.8182	0.1	2674.4
4945	12.217	1.8182	0.1	2722.1
4946	12.033	1.8182	0.1	2770.5
4947	11.849	1.8182	0.1	2819.8
4948	11.665	1.8182	0.1	2870.2
4949	11.481	1.8182	0.1	2921.9
4950	11.297	1.8182	0.1	2975.4
4951	11.112	1.8182	0.1	3031.2
4952	10.928	1.8182	0.1	3089.8
4953	10.744	1.8182	0.1	3152.
4954	10.56	1.8182	0.1	3219.
4955	10.376	1.8182	0.1	3292.
4956	10.192	1.8182	0.1	3373.
4957	10.008	1.8182	0.1	3464.7
4958	9.8236	1.8182	0.1	3571.1
4959	9.6395	1.8182	0.1	3698.2
4960	9.4554	1.8182	0.1	3855.2
4961	9.2713	1.8182	0.1	4057.4
4962	9.0872	1.8182	0.1	4329.6
4963	8.9031	1.8182	0.1	4717.6
4964	8.719	1.8182	0.1	5304.8
4965	8.5349	1.8182	0.1	6379.7
4966	8.3508	1.8182	0.1	8882.3
4967	23.816	2.	0.1	185.66
4968	23.632	2.	0.1	203.07
4969	23.448	2.	0.1	224.9
4970	23.264	2.	0.1	250.01
4971	23.079	2.	0.1	277.56
4972	22.895	2.	0.1	306.97
4973	22.711	2.	0.1	337.84
4974	22.527	2.	0.1	369.89
4975	22.343	2.	0.1	402.91
4976	22.159	2.	0.1	436.76
4977	21.975	2.	0.1	471.33
4978	21.791	2.	0.1	506.54
4979	21.607	2.	0.1	542.31
4980	21.422	2.	0.1	578.6
4981	21.238	2.	0.1	615.36
4982	21.054	2.	0.1	652.56
4983	20.87	2.	0.1	690.16
4984	20.686	2.	0.1	728.16
4985	20.502	2.	0.1	766.51
4986	20.318	2.	0.1	805.21
4987	20.134	2.	0.1	844.24
4988	19.95	2.	0.1	883.59
4989	19.766	2.	0.1	923.23
4990	19.581	2.	0.1	963.17
4991	19.397	2.	0.1	1003.4
4992	19.213	2.	0.1	1043.9
4993	19.029	2.	0.1	1084.6
4994	18.845	2.	0.1	1125.6
4995	18.661	2.	0.1	1166.8
4996	18.477	2.	0.1	1208.3
4997	18.293	2.	0.1	1250.
4998	18.109	2.	0.1	1291.9
4999	17.924	2.	0.1	1334.1
5000	17.74	2.	0.1	1376.4
5001	17.556	2.	0.1	1419.
5002	17.372	2.	0.1	1461.7
5003	17.188	2.	0.1	1504.6
5004	17.004	2.	0.1	1547.7
5005	16.82	2.	0.1	1591.
5006	16.636	2.	0.1	1634.5
5007	16.452	2.	0.1	1678.1
5008	16.267	2.	0.1	1721.8
5009	16.083	2.	0.1	1765.7
5010	15.899	2.	0.1	1809.8
5011	15.715	2.	0.1	1853.9
5012	15.531	2.	0.1	1898.2
5013	15.347	2.	0.1	1942.7
5014	15.163	2.	0.1	1987.2
5015	14.979	2.	0.1	2031.8
5016	14.795	2.	0.1	2076.6
5017	14.61	2.	0.1	2121.4
5018	14.426	2.	0.1	2166.3
5019	14.242	2.	0.1	2211.4
5020	14.058	2.	0.1	2256.5
5021	13.874	2.	0.1	2301.7
5022	13.69	2.	0.1	2347.
5023	13.506	2.	0.1	2392.5
5024	13.322	2.	0.1	2438.1
5025	13.138	2.	0.1	2483.9
5026	12.953	2.	0.1	2529.9
5027	12.769	2.	0.1	2576.3
5028	12.585	2.	0.1	2623.
5029	12.401	2.	0.1	2670.3
5030	12.217	2.	0.1	2718.2
5031	12.033	2.	0.1	2767.
5032	11.849	2.	0.1	2816.9
5033	11.665	2.	0.1	2868.3
5034	11.481	2.	0.1	2921.7
5035	11.297	2.	0.1	2977.5
5036	11.112	2.	0.1	3036.5
5037	10.928	2.	0.1	3099.6
5038	10.744	2.	0.1	3168.1
5039	10.56	2.	0.1	3243.4
5040	10.376	2.	0.1	3327.7
5041	10.192	2.	0.1	3423.7
5042	10.008	2.	0.1	3535.3
5043	9.8236	2.	0.1	3667.7
5044	9.6395	2.	0.1	3828.9
5045	9.4554	2.	0.1	4030.5
5046	9.2713	2.	0.1	4291.4
5047	9.0872	2.	0.1	4641.6
5048	8.9031	2.	0.1	5140.4
5049	8.719	2.	0.1	5893.3
5050	8.5349	2.	0.1	7201.
5051	8.3508	2.	0.1	10822
5052	23.816	2.1818	0.1	190.33
5053	23.632	2.1818	0.1	207.62
5054	23.448	2.1818	0.1	229.26
5055	23.264	2.1818	0.1	254.15
5056	23.079	2.1818	0.1	281.47
5057	22.895	2.1818	0.1	310.65
5058	22.711	2.1818	0.1	341.28
5059	22.527	2.1818	0.1	373.09
5060	22.343	2.1818	0.1	405.86
5061	22.159	2.1818	0.1	439.47
5062	21.975	2.1818	0.1	473.8
5063	21.791	2.1818	0.1	508.78
5064	21.607	2.1818	0.1	544.32
5065	21.422	2.1818	0.1	580.39
5066	21.238	2.1818	0.1	616.95
5067	21.054	2.1818	0.1	653.96
5068	20.87	2.1818	0.1	691.39
5069	20.686	2.1818	0.1	729.21
5070	20.502	2.1818	0.1	767.41
5071	20.318	2.1818	0.1	805.96
5072	20.134	2.1818	0.1	844.86
5073	19.95	2.1818	0.1	884.08
5074	19.766	2.1818	0.1	923.61
5075	19.581	2.1818	0.1	963.43
5076	19.397	2.1818	0.1	1003.5
5077	19.213	2.1818	0.1	1043.9
5078	19.029	2.1818	0.1	1084.6
5079	18.845	2.1818	0.1	1125.5
5080	18.661	2.1818	0.1	1166.7
5081	18.477	2.1818	0.1	1208.1
5082	18.293	2.1818	0.1	1249.7
5083	18.109	2.1818	0.1	1291.6
5084	17.924	2.1818	0.1	1333.6
5085	17.74	2.1818	0.1	1375.9
5086	17.556	2.1818	0.1	1418.4
5087	17.372	2.1818	0.1	1461.1
5088	17.188	2.1818	0.1	1503.9
5089	17.004	2.1818	0.1	1547.
5090	16.82	2.1818	0.1	1590.2
5091	16.636	2.1818	0.1	1633.6
5092	16.452	2.1818	0.1	1677.1
5093	16.267	2.1818	0.1	1720.8
5094	16.083	2.1818	0.1	1764.6
5095	15.899	2.1818	0.1	1808.6
5096	15.715	2.1818	0.1	1852.7
5097	15.531	2.1818	0.1	1896.9
5098	15.347	2.1818	0.1	1941.2
5099	15.163	2.1818	0.1	1985.6
5100	14.979	2.1818	0.1	2030.1
5101	14.795	2.1818	0.1	2074.8
5102	14.61	2.1818	0.1	2119.5
5103	14.426	2.1818	0.1	2164.2
5104	14.242	2.1818	0.1	2209.1
5105	14.058	2.1818	0.1	2254.1
5106	13.874	2.1818	0.1	2299.1
5107	13.69	2.1818	0.1	2344.2
5108	13.506	2.1818	0.1	2389.5
5109	13.322	2.1818	0.1	2434.9
5110	13.138	2.1818	0.1	2480.6
5111	12.953	2.1818	0.1	2526.4
5112	12.769	2.1818	0.1	2572.7
5113	12.585	2.1818	0.1	2619.3
5114	12.401	2.1818	0.1	2666.6
5115	12.217	2.1818	0.1	2714.7
5116	12.033	2.1818	0.1	2763.8
5117	11.849	2.1818	0.1	2814.3
5118	11.665	2.1818	0.1	2866.6
5119	11.481	2.1818	0.1	2921.4
5120	11.297	2.1818	0.1	2979.2
5121	11.112	2.1818	0.1	3041.2
5122	10.928	2.1818	0.1	3108.4
5123	10.744	2.1818	0.1	3182.6
5124	10.56	2.1818	0.1	3265.6
5125	10.376	2.1818	0.1	3360.4
5126	10.192	2.1818	0.1	3470.5
5127	10.008	2.1818	0.1	3600.7
5128	9.8236	2.1818	0.1	3757.8
5129	9.6395	2.1818	0.1	3951.4
5130	9.4554	2.1818	0.1	4195.4
5131	9.2713	2.1818	0.1	4511.6
5132	9.0872	2.1818	0.1	4934.5
5133	8.9031	2.1818	0.1	5529.4
5134	8.719	2.1818	0.1	6406.4
5135	8.5349	2.1818	0.1	7913.6
5136	8.3508	2.1818	0.1	10725
5137	23.816	2.3636	0.1	194.01
5138	23.632	2.3636	0.1	211.21
5139	23.448	2.3636	0.1	232.71
5140	23.264	2.3636	0.1	257.43
5141	23.079	2.3636	0.1	284.58
5142	22.895	2.3636	0.1	313.58
5143	22.711	2.3636	0.1	344.03
5144	22.527	2.3636	0.1	375.65
5145	22.343	2.3636	0.1	408.25
5146	22.159	2.3636	0.1	441.67
5147	21.975	2.3636	0.1	475.81
5148	21.791	2.3636	0.1	510.6
5149	21.607	2.3636	0.1	545.97
5150	21.422	2.3636	0.1	581.87
5151	21.238	2.3636	0.1	618.27
5152	21.054	2.3636	0.1	655.12
5153	20.87	2.3636	0.1	692.4
5154	20.686	2.3636	0.1	730.09
5155	20.502	2.3636	0.1	768.16
5156	20.318	2.3636	0.1	806.6
5157	20.134	2.3636	0.1	845.38
5158	19.95	2.3636	0.1	884.5
5159	19.766	2.3636	0.1	923.93
5160	19.581	2.3636	0.1	963.67
5161	19.397	2.3636	0.1	1003.7
5162	19.213	2.3636	0.1	1044.
5163	19.029	2.3636	0.1	1084.6
5164	18.845	2.3636	0.1	1125.5
5165	18.661	2.3636	0.1	1166.5
5166	18.477	2.3636	0.1	1207.9
5167	18.293	2.3636	0.1	1249.5
5168	18.109	2.3636	0.1	1291.3
5169	17.924	2.3636	0.1	1333.3
5170	17.74	2.3636	0.1	1375.5
5171	17.556	2.3636	0.1	1417.9
5172	17.372	2.3636	0.1	1460.6
5173	17.188	2.3636	0.1	1503.4
5174	17.004	2.3636	0.1	1546.4
5175	16.82	2.3636	0.1	1589.5
5176	16.636	2.3636	0.1	1632.9
5177	16.452	2.3636	0.1	1676.3
5178	16.267	2.3636	0.1	1720.
5179	16.083	2.3636	0.1	1763.7
5180	15.899	2.3636	0.1	1807.6
5181	15.715	2.3636	0.1	1851.6
5182	15.531	2.3636	0.1	1895.8
5183	15.347	2.3636	0.1	1940.
5184	15.163	2.3636	0.1	1984.3
5185	14.979	2.3636	0.1	2028.8
5186	14.795	2.3636	0.1	2073.3
5187	14.61	2.3636	0.1	2117.9
5188	14.426	2.3636	0.1	2162.5
5189	14.242	2.3636	0.1	2207.2
5190	14.058	2.3636	0.1	2252.1
5191	13.874	2.3636	0.1	2297.
5192	13.69	2.3636	0.1	2341.9
5193	13.506	2.3636	0.1	2387.1
5194	13.322	2.3636	0.1	2432.3
5195	13.138	2.3636	0.1	2477.8
5196	12.953	2.3636	0.1	2523.5
5197	12.769	2.3636	0.1	2569.6
5198	12.585	2.3636	0.1	2616.2
5199	12.401	2.3636	0.1	2663.5
5200	12.217	2.3636	0.1	2711.7
5201	12.033	2.3636	0.1	2761.1
5202	11.849	2.3636	0.1	2812.1
5203	11.665	2.3636	0.1	2865.2
5204	11.481	2.3636	0.1	2921.1
5205	11.297	2.3636	0.1	2980.7
5206	11.112	2.3636	0.1	3045.2
5207	10.928	2.3636	0.1	3116.
5208	10.744	2.3636	0.1	3195.1
5209	10.56	2.3636	0.1	3285.
5210	10.376	2.3636	0.1	3389.
5211	10.192	2.3636	0.1	3511.6
5212	10.008	2.3636	0.1	3658.5
5213	9.8236	2.3636	0.1	3837.9
5214	9.6395	2.3636	0.1	4060.7
5215	9.4554	2.3636	0.1	4342.9
5216	9.2713	2.3636	0.1	4707.7
5217	9.0872	2.3636	0.1	5191.4
5218	8.9031	2.3636	0.1	5852.4
5219	8.719	2.3636	0.1	6795.6
5220	8.5349	2.3636	0.1	8176.3
5221	8.3508	2.3636	0.1	10166
5222	23.816	2.5455	0.1	196.74
5223	23.632	2.5455	0.1	213.88
5224	23.448	2.5455	0.1	235.27
5225	23.264	2.5455	0.1	259.88
5226	23.079	2.5455	0.1	286.9
5227	22.895	2.5455	0.1	315.77
5228	22.711	2.5455	0.1	346.09
5229	22.527	2.5455	0.1	377.58
5230	22.343	2.5455	0.1	410.04
5231	22.159	2.5455	0.1	443.33
5232	21.975	2.5455	0.1	477.34
5233	21.791	2.5455	0.1	511.99
5234	21.607	2.5455	0.1	547.23
5235	21.422	2.5455	0.1	583.01
5236	21.238	2.5455	0.1	619.28
5237	21.054	2.5455	0.1	656.01
5238	20.87	2.5455	0.1	693.19
5239	20.686	2.5455	0.1	730.77
5240	20.502	2.5455	0.1	768.75
5241	20.318	2.5455	0.1	807.09
5242	20.134	2.5455	0.1	845.79
5243	19.95	2.5455	0.1	884.83
5244	19.766	2.5455	0.1	924.19
5245	19.581	2.5455	0.1	963.86
5246	19.397	2.5455	0.1	1003.8
5247	19.213	2.5455	0.1	1044.1
5248	19.029	2.5455	0.1	1084.6
5249	18.845	2.5455	0.1	1125.4
5250	18.661	2.5455	0.1	1166.5
5251	18.477	2.5455	0.1	1207.8
5252	18.293	2.5455	0.1	1249.3
5253	18.109	2.5455	0.1	1291.1
5254	17.924	2.5455	0.1	1333.
5255	17.74	2.5455	0.1	1375.2
5256	17.556	2.5455	0.1	1417.6
5257	17.372	2.5455	0.1	1460.2
5258	17.188	2.5455	0.1	1503.
5259	17.004	2.5455	0.1	1545.9
5260	16.82	2.5455	0.1	1589.
5261	16.636	2.5455	0.1	1632.3
5262	16.452	2.5455	0.1	1675.8
5263	16.267	2.5455	0.1	1719.3
5264	16.083	2.5455	0.1	1763.1
5265	15.899	2.5455	0.1	1806.9
5266	15.715	2.5455	0.1	1850.9
5267	15.531	2.5455	0.1	1894.9
5268	15.347	2.5455	0.1	1939.1
5269	15.163	2.5455	0.1	1983.4
5270	14.979	2.5455	0.1	2027.7
5271	14.795	2.5455	0.1	2072.1
5272	14.61	2.5455	0.1	2116.6
5273	14.426	2.5455	0.1	2161.2
5274	14.242	2.5455	0.1	2205.8
5275	14.058	2.5455	0.1	2250.5
5276	13.874	2.5455	0.1	2295.3
5277	13.69	2.5455	0.1	2340.2
5278	13.506	2.5455	0.1	2385.2
5279	13.322	2.5455	0.1	2430.3
5280	13.138	2.5455	0.1	2475.7
5281	12.953	2.5455	0.1	2521.3
5282	12.769	2.5455	0.1	2567.3
5283	12.585	2.5455	0.1	2613.9
5284	12.401	2.5455	0.1	2661.1
5285	12.217	2.5455	0.1	2709.4
5286	12.033	2.5455	0.1	2759.
5287	11.849	2.5455	0.1	2810.3
5288	11.665	2.5455	0.1	2864.
5289	11.481	2.5455	0.1	2920.9
5290	11.297	2.5455	0.1	2981.9
5291	11.112	2.5455	0.1	3048.4
5292	10.928	2.5455	0.1	3122.
5293	10.744	2.5455	0.1	3205.1
5294	10.56	2.5455	0.1	3300.5
5295	10.376	2.5455	0.1	3412.1
5296	10.192	2.5455	0.1	3545.
5297	10.008	2.5455	0.1	3705.8
5298	9.8236	2.5455	0.1	3903.6
5299	9.6395	2.5455	0.1	4150.7
5300	9.4554	2.5455	0.1	4464.
5301	9.2713	2.5455	0.1	4866.8
5302	9.0872	2.5455	0.1	5392.
5303	8.9031	2.5455	0.1	6084.7
5304	8.719	2.5455	0.1	6999.2
5305	8.5349	2.5455	0.1	8167.7
5306	8.3508	2.5455	0.1	9436.7
5307	23.816	2.7273	0.1	198.55
5308	23.632	2.7273	0.1	215.65
5309	23.448	2.7273	0.1	236.97
5310	23.264	2.7273	0.1	261.5
5311	23.079	2.7273	0.1	288.44
5312	22.895	2.7273	0.1	317.23
5313	22.711	2.7273	0.1	347.47
5314	22.527	2.7273	0.1	378.87
5315	22.343	2.7273	0.1	411.24
5316	22.159	2.7273	0.1	444.44
5317	21.975	2.7273	0.1	478.36
5318	21.791	2.7273	0.1	512.93
5319	21.607	2.7273	0.1	548.08
5320	21.422	2.7273	0.1	583.77
5321	21.238	2.7273	0.1	619.96
5322	21.054	2.7273	0.1	656.62
5323	20.87	2.7273	0.1	693.72
5324	20.686	2.7273	0.1	731.24
5325	20.502	2.7273	0.1	769.15
5326	20.318	2.7273	0.1	807.43
5327	20.134	2.7273	0.1	846.07
5328	19.95	2.7273	0.1	885.06
5329	19.766	2.7273	0.1	924.37
5330	19.581	2.7273	0.1	964.
5331	19.397	2.7273	0.1	1003.9
5332	19.213	2.7273	0.1	1044.1
5333	19.029	2.7273	0.1	1084.6
5334	18.845	2.7273	0.1	1125.4
5335	18.661	2.7273	0.1	1166.4
5336	18.477	2.7273	0.1	1207.7
5337	18.293	2.7273	0.1	1249.2
5338	18.109	2.7273	0.1	1290.9
5339	17.924	2.7273	0.1	1332.9
5340	17.74	2.7273	0.1	1375.
5341	17.556	2.7273	0.1	1417.4
5342	17.372	2.7273	0.1	1460.
5343	17.188	2.7273	0.1	1502.7
5344	17.004	2.7273	0.1	1545.6
5345	16.82	2.7273	0.1	1588.7
5346	16.636	2.7273	0.1	1632.
5347	16.452	2.7273	0.1	1675.4
5348	16.267	2.7273	0.1	1718.9
5349	16.083	2.7273	0.1	1762.6
5350	15.899	2.7273	0.1	1806.4
5351	15.715	2.7273	0.1	1850.3
5352	15.531	2.7273	0.1	1894.4
5353	15.347	2.7273	0.1	1938.5
5354	15.163	2.7273	0.1	1982.7
5355	14.979	2.7273	0.1	2027.
5356	14.795	2.7273	0.1	2071.4
5357	14.61	2.7273	0.1	2115.8
5358	14.426	2.7273	0.1	2160.3
5359	14.242	2.7273	0.1	2204.9
5360	14.058	2.7273	0.1	2249.5
5361	13.874	2.7273	0.1	2294.2
5362	13.69	2.7273	0.1	2339.
5363	13.506	2.7273	0.1	2383.9
5364	13.322	2.7273	0.1	2428.9
5365	13.138	2.7273	0.1	2474.2
5366	12.953	2.7273	0.1	2519.7
5367	12.769	2.7273	0.1	2565.7
5368	12.585	2.7273	0.1	2612.2
5369	12.401	2.7273	0.1	2659.5
5370	12.217	2.7273	0.1	2707.8
5371	12.033	2.7273	0.1	2757.5
5372	11.849	2.7273	0.1	2809.1
5373	11.665	2.7273	0.1	2863.2
5374	11.481	2.7273	0.1	2920.7
5375	11.297	2.7273	0.1	2982.7
5376	11.112	2.7273	0.1	3050.6
5377	10.928	2.7273	0.1	3126.2
5378	10.744	2.7273	0.1	3212.1
5379	10.56	2.7273	0.1	3311.4
5380	10.376	2.7273	0.1	3428.4
5381	10.192	2.7273	0.1	3568.6
5382	10.008	2.7273	0.1	3739.4
5383	9.8236	2.7273	0.1	3950.5
5384	9.6395	2.7273	0.1	4215.
5385	9.4554	2.7273	0.1	4550.
5386	9.2713	2.7273	0.1	4977.8
5387	9.0872	2.7273	0.1	5525.7
5388	8.9031	2.7273	0.1	6222.3
5389	8.719	2.7273	0.1	7082.1
5390	8.5349	2.7273	0.1	8064.6
5391	8.3508	2.7273	0.1	9006.5
5392	23.816	2.9091	0.1	199.45
5393	23.632	2.9091	0.1	216.53
5394	23.448	2.9091	0.1	237.81
5395	23.264	2.9091	0.1	262.3
5396	23.079	2.9091	0.1	289.21
5397	22.895	2.9091	0.1	317.96
5398	22.711	2.9091	0.1	348.15
5399	22.527	2.9091	0.1	379.52
5400	22.343	2.9091	0.1	411.85
5401	22.159	2.9091	0.1	445.
5402	21.975	2.9091	0.1	478.88
5403	21.791	2.9091	0.1	513.4
5404	21.607	2.9091	0.1	548.51
5405	21.422	2.9091	0.1	584.16
5406	21.238	2.9091	0.1	620.31
5407	21.054	2.9091	0.1	656.93
5408	20.87	2.9091	0.1	693.99
5409	20.686	2.9091	0.1	731.47
5410	20.502	2.9091	0.1	769.35
5411	20.318	2.9091	0.1	807.6
5412	20.134	2.9091	0.1	846.22
5413	19.95	2.9091	0.1	885.18
5414	19.766	2.9091	0.1	924.46
5415	19.581	2.9091	0.1	964.07
5416	19.397	2.9091	0.1	1004.
5417	19.213	2.9091	0.1	1044.2
5418	19.029	2.9091	0.1	1084.6
5419	18.845	2.9091	0.1	1125.4
5420	18.661	2.9091	0.1	1166.4
5421	18.477	2.9091	0.1	1207.6
5422	18.293	2.9091	0.1	1249.1
5423	18.109	2.9091	0.1	1290.8
5424	17.924	2.9091	0.1	1332.8
5425	17.74	2.9091	0.1	1374.9
5426	17.556	2.9091	0.1	1417.3
5427	17.372	2.9091	0.1	1459.8
5428	17.188	2.9091	0.1	1502.6
5429	17.004	2.9091	0.1	1545.5
5430	16.82	2.9091	0.1	1588.6
5431	16.636	2.9091	0.1	1631.8
5432	16.452	2.9091	0.1	1675.2
5433	16.267	2.9091	0.1	1718.7
5434	16.083	2.9091	0.1	1762.4
5435	15.899	2.9091	0.1	1806.2
5436	15.715	2.9091	0.1	1850.1
5437	15.531	2.9091	0.1	1894.1
5438	15.347	2.9091	0.1	1938.2
5439	15.163	2.9091	0.1	1982.4
5440	14.979	2.9091	0.1	2026.6
5441	14.795	2.9091	0.1	2071.
5442	14.61	2.9091	0.1	2115.4
5443	14.426	2.9091	0.1	2159.9
5444	14.242	2.9091	0.1	2204.4
5445	14.058	2.9091	0.1	2249.
5446	13.874	2.9091	0.1	2293.6
5447	13.69	2.9091	0.1	2338.4
5448	13.506	2.9091	0.1	2383.2
5449	13.322	2.9091	0.1	2428.2
5450	13.138	2.9091	0.1	2473.5
5451	12.953	2.9091	0.1	2519.
5452	12.769	2.9091	0.1	2564.9
5453	12.585	2.9091	0.1	2611.4
5454	12.401	2.9091	0.1	2658.6
5455	12.217	2.9091	0.1	2707.
5456	12.033	2.9091	0.1	2756.8
5457	11.849	2.9091	0.1	2808.5
5458	11.665	2.9091	0.1	2862.8
5459	11.481	2.9091	0.1	2920.7
5460	11.297	2.9091	0.1	2983.1
5461	11.112	2.9091	0.1	3051.7
5462	10.928	2.9091	0.1	3128.4
5463	10.744	2.9091	0.1	3215.7
5464	10.56	2.9091	0.1	3317.1
5465	10.376	2.9091	0.1	3436.9
5466	10.192	2.9091	0.1	3580.9
5467	10.008	2.9091	0.1	3756.9
5468	9.8236	2.9091	0.1	3975.
5469	9.6395	2.9091	0.1	4248.5
5470	9.4554	2.9091	0.1	4594.5
5471	9.2713	2.9091	0.1	5034.4
5472	9.0872	2.9091	0.1	5591.4
5473	8.9031	2.9091	0.1	6283.8
5474	8.719	2.9091	0.1	7106.7
5475	8.5349	2.9091	0.1	7996.8
5476	8.3508	2.9091	0.1	8801.7
5477	23.816	3.0909	0.1	199.45
5478	23.632	3.0909	0.1	216.53
5479	23.448	3.0909	0.1	237.81
5480	23.264	3.0909	0.1	262.3
5481	23.079	3.0909	0.1	289.21
5482	22.895	3.0909	0.1	317.96
5483	22.711	3.0909	0.1	348.15
5484	22.527	3.0909	0.1	379.52
5485	22.343	3.0909	0.1	411.85
5486	22.159	3.0909	0.1	445.
5487	21.975	3.0909	0.1	478.88
5488	21.791	3.0909	0.1	513.4
5489	21.607	3.0909	0.1	548.51
5490	21.422	3.0909	0.1	584.16
5491	21.238	3.0909	0.1	620.31
5492	21.054	3.0909	0.1	656.93
5493	20.87	3.0909	0.1	693.99
5494	20.686	3.0909	0.1	731.47
5495	20.502	3.0909	0.1	769.35
5496	20.318	3.0909	0.1	807.6
5497	20.134	3.0909	0.1	846.22
5498	19.95	3.0909	0.1	885.18
5499	19.766	3.0909	0.1	924.46
5500	19.581	3.0909	0.1	964.07
5501	19.397	3.0909	0.1	1004.
5502	19.213	3.0909	0.1	1044.2
5503	19.029	3.0909	0.1	1084.6
5504	18.845	3.0909	0.1	1125.4
5505	18.661	3.0909	0.1	1166.4
5506	18.477	3.0909	0.1	1207.6
5507	18.293	3.0909	0.1	1249.1
5508	18.109	3.0909	0.1	1290.8
5509	17.924	3.0909	0.1	1332.8
5510	17.74	3.0909	0.1	1374.9
5511	17.556	3.0909	0.1	1417.3
5512	17.372	3.0909	0.1	1459.8
5513	17.188	3.0909	0.1	1502.6
5514	17.004	3.0909	0.1	1545.5
5515	16.82	3.0909	0.1	1588.6
5516	16.636	3.0909	0.1	1631.8
5517	16.452	3.0909	0.1	1675.2
5518	16.267	3.0909	0.1	1718.7
5519	16.083	3.0909	0.1	1762.4
5520	15.899	3.0909	0.1	1806.2
5521	15.715	3.0909	0.1	1850.1
5522	15.531	3.0909	0.1	1894.1
5523	15.347	3.0909	0.1	1938.2
5524	15.163	3.0909	0.1	1982.4
5525	14.979	3.0909	0.1	2026.6
5526	14.795	3.0909	0.1	2071.
5527	14.61	3.0909	0.1	2115.4
5528	14.426	3.0909	0.1	2159.9
5529	14.242	3.0909	0.1	2204.4
5530	14.058	3.0909	0.1	2249.
5531	13.874	3.0909	0.1	2293.6
5532	13.69	3.0909	0.1	2338.4
5533	13.506	3.0909	0.1	2383.2
5534	13.322	3.0909	0.1	2428.2
5535	13.138	3.0909	0.1	2473.5
5536	12.953	3.0909	0.1	2519.
5537	12.769	3.0909	0.1	2564.9
5538	12.585	3.0909	0.1	2611.4
5539	12.401	3.0909	0.1	2658.6
5540	12.217	3.0909	0.1	2707.
5541	12.033	3.0909	0.1	2756.8
5542	11.849	3.0909	0.1	2808.5
5543	11.665	3.0909	0.1	2862.8
5544	11.481	3.0909	0.1	2920.7
5545	11.297	3.0909	0.1	2983.1
5546	11.112	3.0909	0.1	3051.7
5547	10.928	3.0909	0.1	3128.4
5548	10.744	3.0909	0.1	3215.7
5549	10.56	3.0909	0.1	3317.1
5550	10.376	3.0909	0.1	3436.9
5551	10.192	3.0909	0.1	3580.9
5552	10.008	3.0909	0.1	3756.9
5553	9.8236	3.0909	0.1	3975.
5554	9.6395	3.0909	0.1	4248.5
5555	9.4554	3.0909	0.1	4594.5
5556	9.2713	3.0909	0.1	5034.4
5557	9.0872	3.0909	0.1	5591.4
5558	8.9031	3.0909	0.1	6283.8
5559	8.719	3.0909	0.1	7106.7
5560	8.5349	3.0909	0.1	7996.8
5561	8.3508	3.0909	0.1	8801.7
5562	23.816	3.2727	0.1	198.55
5563	23.632	3.2727	0.1	215.65
5564	23.448	3.2727	0.1	236.97
5565	23.264	3.2727	0.1	261.5
5566	23.079	3.2727	0.1	288.44
5567	22.895	3.2727	0.1	317.23
5568	22.711	3.2727	0.1	347.47
5569	22.527	3.2727	0.1	378.87
5570	22.343	3.2727	0.1	411.24
5571	22.159	3.2727	0.1	444.44
5572	21.975	3.2727	0.1	478.36
5573	21.791	3.2727	0.1	512.93
5574	21.607	3.2727	0.1	548.08
5575	21.422	3.2727	0.1	583.77
5576	21.238	3.2727	0.1	619.96
5577	21.054	3.2727	0.1	656.62
5578	20.87	3.2727	0.1	693.72
5579	20.686	3.2727	0.1	731.24
5580	20.502	3.2727	0.1	769.15
5581	20.318	3.2727	0.1	807.43
5582	20.134	3.2727	0.1	846.07
5583	19.95	3.2727	0.1	885.06
5584	19.766	3.2727	0.1	924.37
5585	19.581	3.2727	0.1	964.
5586	19.397	3.2727	0.1	1003.9
5587	19.213	3.2727	0.1	1044.1
5588	19.029	3.2727	0.1	1084.6
5589	18.845	3.2727	0.1	1125.4
5590	18.661	3.2727	0.1	1166.4
5591	18.477	3.2727	0.1	1207.7
5592	18.293	3.2727	0.1	1249.2
5593	18.109	3.2727	0.1	1290.9
5594	17.924	3.2727	0.1	1332.9
5595	17.74	3.2727	0.1	1375.
5596	17.556	3.2727	0.1	1417.4
5597	17.372	3.2727	0.1	1460.
5598	17.188	3.2727	0.1	1502.7
5599	17.004	3.2727	0.1	1545.6
5600	16.82	3.2727	0.1	1588.7
5601	16.636	3.2727	0.1	1632.
5602	16.452	3.2727	0.1	1675.4
5603	16.267	3.2727	0.1	1718.9
5604	16.083	3.2727	0.1	1762.6
5605	15.899	3.2727	0.1	1806.4
5606	15.715	3.2727	0.1	1850.3
5607	15.531	3.2727	0.1	1894.4
5608	15.347	3.2727	0.1	1938.5
5609	15.163	3.2727	0.1	1982.7
5610	14.979	3.2727	0.1	2027.
5611	14.795	3.2727	0.1	2071.4
5612	14.61	3.2727	0.1	2115.8
5613	14.426	3.2727	0.1	2160.3
5614	14.242	3.2727	0.1	2204.9
5615	14.058	3.2727	0.1	2249.5
5616	13.874	3.2727	0.1	2294.2
5617	13.69	3.2727	0.1	2339.
5618	13.506	3.2727	0.1	2383.9
5619	13.322	3.2727	0.1	2428.9
5620	13.138	3.2727	0.1	2474.2
5621	12.953	3.2727	0.1	2519.7
5622	12.769	3.2727	0.1	2565.7
5623	12.585	3.2727	0.1	2612.2
5624	12.401	3.2727	0.1	2659.5
5625	12.217	3.2727	0.1	2707.8
5626	12.033	3.2727	0.1	2757.5
5627	11.849	3.2727	0.1	2809.1
5628	11.665	3.2727	0.1	2863.2
5629	11.481	3.2727	0.1	2920.7
5630	11.297	3.2727	0.1	2982.7
5631	11.112	3.2727	0.1	3050.6
5632	10.928	3.2727	0.1	3126.2
5633	10.744	3.2727	0.1	3212.1
5634	10.56	3.2727	0.1	3311.4
5635	10.376	3.2727	0.1	3428.4
5636	10.192	3.2727	0.1	3568.6
5637	10.008	3.2727	0.1	3739.4
5638	9.8236	3.2727	0.1	3950.5
5639	9.6395	3.2727	0.1	4215.
5640	9.4554	3.2727	0.1	4550.
5641	9.2713	3.2727	0.1	4977.8
5642	9.0872	3.2727	0.1	5525.7
5643	8.9031	3.2727	0.1	6222.3
5644	8.719	3.2727	0.1	7082.1
5645	8.5349	3.2727	0.1	8064.6
5646	8.3508	3.2727	0.1	9006.5
5647	23.816	3.4545	0.1	196.74
5648	23.632	3.4545	0.1	213.88
5649	23.448	3.4545	0.1	235.27
5650	23.264	3.4545	0.1	259.88
5651	23.079	3.4545	0.1	286.9
5652	22.895	3.4545	0.1	315.77
5653	22.711	3.4545	0.1	346.09
5654	22.527	3.4545	0.1	377.58
5655	22.343	3.4545	0.1	410.04
5656	22.159	3.4545	0.1	443.33
5657	21.975	3.4545	0.1	477.34
5658	21.791	3.4545	0.1	511.99
5659	21.607	3.4545	0.1	547.23
5660	21.422	3.4545	0.1	583.01
5661	21.238	3.4545	0.1	619.28
5662	21.054	3.4545	0.1	656.01
5663	20.87	3.4545	0.1	693.19
5664	20.686	3.4545	0.1	730.77
5665	20.502	3.4545	0.1	768.75
5666	20.318	3.4545	0.1	807.09
5667	20.134	3.4545	0.1	845.79
5668	19.95	3.4545	0.1	884.83
5669	19.766	3.4545	0.1	924.19
5670	19.581	3.4545	0.1	963.86
5671	19.397	3.4545	0.1	1003.8
5672	19.213	3.4545	0.1	1044.1
5673	19.029	3.4545	0.1	1084.6
5674	18.845	3.4545	0.1	1125.4
5675	18.661	3.4545	0.1	1166.5
5676	18.477	3.4545	0.1	1207.8
5677	18.293	3.4545	0.1	1249.3
5678	18.109	3.4545	0.1	1291.1
5679	17.924	3.4545	0.1	1333.
5680	17.74	3.4545	0.1	1375.2
5681	17.556	3.4545	0.1	1417.6
5682	17.372	3.4545	0.1	1460.2
5683	17.188	3.4545	0.1	1503.
5684	17.004	3.4545	0.1	1545.9
5685	16.82	3.4545	0.1	1589.
5686	16.636	3.4545	0.1	1632.3
5687	16.452	3.4545	0.1	1675.8
5688	16.267	3.4545	0.1	1719.3
5689	16.083	3.4545	0.1	1763.1
5690	15.899	3.4545	0.1	1806.9
5691	15.715	3.4545	0.1	1850.9
5692	15.531	3.4545	0.1	1894.9
5693	15.347	3.4545	0.1	1939.1
5694	15.163	3.4545	0.1	1983.4
5695	14.979	3.4545	0.1	2027.7
5696	14.795	3.4545	0.1	2072.1
5697	14.61	3.4545	0.1	2116.6
5698	14.426	3.4545	0.1	2161.2
5699	14.242	3.4545	0.1	2205.8
5700	14.058	3.4545	0.1	2250.5
5701	13.874	3.4545	0.1	2295.3
5702	13.69	3.4545	0.1	2340.2
5703	13.506	3.4545	0.1	2385.2
5704	13.322	3.4545	0.1	2430.3
5705	13.138	3.4545	0.1	2475.7
5706	12.953	3.4545	0.1	2521.3
5707	12.769	3.4545	0.1	2567.3
5708	12.585	3.4545	0.1	2613.9
5709	12.401	3.4545	0.1	2661.1
5710	12.217	3.4545	0.1	2709.4
5711	12.033	3.4545	0.1	2759.
5712	11.849	3.4545	0.1	2810.3
5713	11.665	3.4545	0.1	2864.
5714	11.481	3.4545	0.1	2920.9
5715	11.297	3.4545	0.1	2981.9
5716	11.112	3.4545	0.1	3048.4
5717	10.928	3.4545	0.1	3122.
5718	10.744	3.4545	0.1	3205.1
5719	10.56	3.4545	0.1	3300.5
5720	10.376	3.4545	0.1	3412.1
5721	10.192	3.4545	0.1	3545.
5722	10.008	3.4545	0.1	3705.8
5723	9.8236	3.4545	0.1	3903.6
5724	9.6395	3.4545	0.1	4150.7
5725	9.4554	3.4545	0.1	4464.
5726	9.2713	3.4545	0.1	4866.8
5727	9.0872	3.4545	0.1	5392.
5728	8.9031	3.4545	0.1	6084.7
5729	8.719	3.4545	0.1	6999.2
5730	8.5349	3.4545	0.1	8167.7
5731	8.3508	3.4545	0.1	9436.7
5732	23.816	3.6364	0.1	194.01
5733	23.632	3.6364	0.1	211.21
5734	23.448	3.6364	0.1	232.71
5735	23.264	3.6364	0.1	257.43
5736	23.079	3.6364	0.1	284.58
5737	22.895	3.6364	0.1	313.58
5738	22.711	3.6364	0.1	344.03
5739	22.527	3.6364	0.1	375.65
5740	22.343	3.6364	0.1	408.25
5741	22.159	3.6364	0.1	441.67
5742	21.975	3.6364	0.1	475.81
5743	21.791	3.6364	0.1	510.6
5744	21.607	3.6364	0.1	545.97
5745	21.422	3.6364	0.1	581.87
5746	21.238	3.6364	0.1	618.27
5747	21.054	3.6364	0.1	655.12
5748	20.87	3.6364	0.1	692.4
5749	20.686	3.6364	0.1	730.09
5750	20.502	3.6364	0.1	768.16
5751	20.318	3.6364	0.1	806.6
5752	20.134	3.6364	0.1	845.38
5753	19.95	3.6364	0.1	884.5
5754	19.766	3.6364	0.1	923.93
5755	19.581	3.6364	0.1	963.67
5756	19.397	3.6364	0.1	1003.7
5757	19.213	3.6364	0.1	1044.
5758	19.029	3.6364	0.1	1084.6
5759	18.845	3.6364	0.1	1125.5
5760	18.661	3.6364	0.1	1166.5
5761	18.477	3.6364	0.1	1207.9
5762	18.293	3.6364	0.1	1249.5
5763	18.109	3.6364	0.1	1291.3
5764	17.924	3.6364	0.1	1333.3
5765	17.74	3.6364	0.1	1375.5
5766	17.556	3.6364	0.1	1417.9
5767	17.372	3.6364	0.1	1460.6
5768	17.188	3.6364	0.1	1503.4
5769	17.004	3.6364	0.1	1546.4
5770	16.82	3.6364	0.1	1589.5
5771	16.636	3.6364	0.1	1632.9
5772	16.452	3.6364	0.1	1676.3
5773	16.267	3.6364	0.1	1720.
5774	16.083	3.6364	0.1	1763.7
5775	15.899	3.6364	0.1	1807.6
5776	15.715	3.6364	0.1	1851.6
5777	15.531	3.6364	0.1	1895.8
5778	15.347	3.6364	0.1	1940.
5779	15.163	3.6364	0.1	1984.3
5780	14.979	3.6364	0.1	2028.8
5781	14.795	3.6364	0.1	2073.3
5782	14.61	3.6364	0.1	2117.9
5783	14.426	3.6364	0.1	2162.5
5784	14.242	3.6364	0.1	2207.2
5785	14.058	3.6364	0.1	2252.1
5786	13.874	3.6364	0.1	2297.
5787	13.69	3.6364	0.1	2341.9
5788	13.506	3.6364	0.1	2387.1
5789	13.322	3.6364	0.1	2432.3
5790	13.138	3.6364	0.1	2477.8
5791	12.953	3.6364	0.1	2523.5
5792	12.769	3.6364	0.1	2569.6
5793	12.585	3.6364	0.1	2616.2
5794	12.401	3.6364	0.1	2663.5
5795	12.217	3.6364	0.1	2711.7
5796	12.033	3.6364	0.1	2761.1
5797	11.849	3.6364	0.1	2812.1
5798	11.665	3.6364	0.1	2865.2
5799	11.481	3.6364	0.1	2921.1
5800	11.297	3.6364	0.1	2980.7
5801	11.112	3.6364	0.1	3045.2
5802	10.928	3.6364	0.1	3116.
5803	10.744	3.6364	0.1	3195.1
5804	10.56	3.6364	0.1	3285.
5805	10.376	3.6364	0.1	3389.
5806	10.192	3.6364	0.1	3511.6
5807	10.008	3.6364	0.1	3658.5
5808	9.8236	3.6364	0.1	3837.9
5809	9.6395	3.6364	0.1	4060.7
5810	9.4554	3.6364	0.1	4342.9
5811	9.2713	3.6364	0.1	4707.7
5812	9.0872	3.6364	0.1	5191.4
5813	8.9031	3.6364	0.1	5852.4
5814	8.719	3.6364	0.1	6795.6
5815	8.5349	3.6364	0.1	8176.3
5816	8.3508	3.6364	0.1	10166
5817	23.816	3.8182	0.1	190.33
5818	23.632	3.8182	0.1	207.62
5819	23.448	3.8182	0.1	229.26
5820	23.264	3.8182	0.1	254.15
5821	23.079	3.8182	0.1	281.47
5822	22.895	3.8182	0.1	310.65
5823	22.711	3.8182	0.1	341.28
5824	22.527	3.8182	0.1	373.09
5825	22.343	3.8182	0.1	405.87
5826	22.159	3.8182	0.1	439.47
5827	21.975	3.8182	0.1	473.8
5828	21.791	3.8182	0.1	508.78
5829	21.607	3.8182	0.1	544.32
5830	21.422	3.8182	0.1	580.39
5831	21.238	3.8182	0.1	616.95
5832	21.054	3.8182	0.1	653.96
5833	20.87	3.8182	0.1	691.39
5834	20.686	3.8182	0.1	729.21
5835	20.502	3.8182	0.1	767.41
5836	20.318	3.8182	0.1	805.96
5837	20.134	3.8182	0.1	844.86
5838	19.95	3.8182	0.1	884.08
5839	19.766	3.8182	0.1	923.61
5840	19.581	3.8182	0.1	963.43
5841	19.397	3.8182	0.1	1003.5
5842	19.213	3.8182	0.1	1043.9
5843	19.029	3.8182	0.1	1084.6
5844	18.845	3.8182	0.1	1125.5
5845	18.661	3.8182	0.1	1166.7
5846	18.477	3.8182	0.1	1208.1
5847	18.293	3.8182	0.1	1249.7
5848	18.109	3.8182	0.1	1291.6
5849	17.924	3.8182	0.1	1333.6
5850	17.74	3.8182	0.1	1375.9
5851	17.556	3.8182	0.1	1418.4
5852	17.372	3.8182	0.1	1461.1
5853	17.188	3.8182	0.1	1503.9
5854	17.004	3.8182	0.1	1547.
5855	16.82	3.8182	0.1	1590.2
5856	16.636	3.8182	0.1	1633.6
5857	16.452	3.8182	0.1	1677.1
5858	16.267	3.8182	0.1	1720.8
5859	16.083	3.8182	0.1	1764.6
5860	15.899	3.8182	0.1	1808.6
5861	15.715	3.8182	0.1	1852.7
5862	15.531	3.8182	0.1	1896.9
5863	15.347	3.8182	0.1	1941.2
5864	15.163	3.8182	0.1	1985.6
5865	14.979	3.8182	0.1	2030.1
5866	14.795	3.8182	0.1	2074.8
5867	14.61	3.8182	0.1	2119.5
5868	14.426	3.8182	0.1	2164.2
5869	14.242	3.8182	0.1	2209.1
5870	14.058	3.8182	0.1	2254.1
5871	13.874	3.8182	0.1	2299.1
5872	13.69	3.8182	0.1	2344.2
5873	13.506	3.8182	0.1	2389.5
5874	13.322	3.8182	0.1	2434.9
5875	13.138	3.8182	0.1	2480.6
5876	12.953	3.8182	0.1	2526.4
5877	12.769	3.8182	0.1	2572.7
5878	12.585	3.8182	0.1	2619.3
5879	12.401	3.8182	0.1	2666.6
5880	12.217	3.8182	0.1	2714.7
5881	12.033	3.8182	0.1	2763.8
5882	11.849	3.8182	0.1	2814.3
5883	11.665	3.8182	0.1	2866.6
5884	11.481	3.8182	0.1	2921.4
5885	11.297	3.8182	0.1	2979.2
5886	11.112	3.8182	0.1	3041.2
5887	10.928	3.8182	0.1	3108.4
5888	10.744	3.8182	0.1	3182.6
5889	10.56	3.8182	0.1	3265.6
5890	10.376	3.8182	0.1	3360.4
5891	10.192	3.8182	0.1	3470.5
5892	10.008	3.8182	0.1	3600.7
5893	9.8236	3.8182	0.1	3757.8
5894	9.6395	3.8182	0.1	3951.4
5895	9.4554	3.8182	0.1	4195.4
5896	9.2713	3.8182	0.1	4511.6
5897	9.0872	3.8182	0.1	4934.5
5898	8.9031	3.8182	0.1	5529.4
5899	8.719	3.8182	0.1	6406.4
5900	8.5349	3.8182	0.1	7913.6
5901	8.3508	3.8182	0.1	10725
5902	23.816	4.	0.1	185.66
5903	23.632	4.	0.1	203.07
5904	23.448	4.	0.1	224.9
5905	23.264	4.	0.1	250.01
5906	23.079	4.	0.1	277.56
5907	22.895	4.	0.1	306.97
5908	22.711	4.	0.1	337.84
5909	22.527	4.	0.1	369.89
5910	22.343	4.	0.1	402.91
5911	22.159	4.	0.1	436.76
5912	21.975	4.	0.1	471.33
5913	21.791	4.	0.1	506.54
5914	21.607	4.	0.1	542.31
5915	21.422	4.	0.1	578.6
5916	21.238	4.	0.1	615.36
5917	21.054	4.	0.1	652.56
5918	20.87	4.	0.1	690.16
5919	20.686	4.	0.1	728.16
5920	20.502	4.	0.1	766.51
5921	20.318	4.	0.1	805.21
5922	20.134	4.	0.1	844.24
5923	19.95	4.	0.1	883.59
5924	19.766	4.	0.1	923.23
5925	19.581	4.	0.1	963.17
5926	19.397	4.	0.1	1003.4
5927	19.213	4.	0.1	1043.9
5928	19.029	4.	0.1	1084.6
5929	18.845	4.	0.1	1125.6
5930	18.661	4.	0.1	1166.8
5931	18.477	4.	0.1	1208.3
5932	18.293	4.	0.1	1250.
5933	18.109	4.	0.1	1291.9
5934	17.924	4.	0.1	1334.1
5935	17.74	4.	0.1	1376.4
5936	17.556	4.	0.1	1419.
5937	17.372	4.	0.1	1461.7
5938	17.188	4.	0.1	1504.6
5939	17.004	4.	0.1	1547.7
5940	16.82	4.	0.1	1591.
5941	16.636	4.	0.1	1634.5
5942	16.452	4.	0.1	1678.1
5943	16.267	4.	0.1	1721.8
5944	16.083	4.	0.1	1765.7
5945	15.899	4.	0.1	1809.8
5946	15.715	4.	0.1	1853.9
5947	15.531	4.	0.1	1898.2
5948	15.347	4.	0.1	1942.7
5949	15.163	4.	0.1	1987.2
5950	14.979	4.	0.1	2031.8
5951	14.795	4.	0.1	2076.6
5952	14.61	4.	0.1	2121.4
5953	14.426	4.	0.1	2166.3
5954	14.242	4.	0.1	2211.4
5955	14.058	4.	0.1	2256.5
5956	13.874	4.	0.1	2301.7
5957	13.69	4.	0.1	2347.
5958	13.506	4.	0.1	2392.5
5959	13.322	4.	0.1	2438.1
5960	13.138	4.	0.1	2483.9
5961	12.953	4.	0.1	2529.9
5962	12.769	4.	0.1	2576.3
5963	12.585	4.	0.1	2623.
5964	12.401	4.	0.1	2670.3
5965	12.217	4.	0.1	2718.2
5966	12.033	4.	0.1	2767.
5967	11.849	4.	0.1	2816.9
5968	11.665	4.	0.1	2868.3
5969	11.481	4.	0.1	2921.7
5970	11.297	4.	0.1	2977.5
5971	11.112	4.	0.1	3036.5
5972	10.928	4.	0.1	3099.6
5973	10.744	4.	0.1	3168.1
5974	10.56	4.	0.1	3243.4
5975	10.376	4.	0.1	3327.7
5976	10.192	4.	0.1	3423.7
5977	10.008	4.	0.1	3535.3
5978	9.8236	4.	0.1	3667.7
5979	9.6395	4.	0.1	3828.9
5980	9.4554	4.	0.1	4030.5
5981	9.2713	4.	0.1	4291.4
5982	9.0872	4.	0.1	4641.6
5983	8.9031	4.	0.1	5140.4
5984	8.719	4.	0.1	5893.3
5985	8.5349	4.	0.1	7201.
5986	8.3508	4.	0.1	10822
5987	23.816	4.1818	0.1	179.97
5988	23.632	4.1818	0.1	197.53
5989	23.448	4.1818	0.1	219.6
5990	23.264	4.1818	0.1	244.99
5991	23.079	4.1818	0.1	272.83
5992	22.895	4.1818	0.1	302.54
5993	22.711	4.1818	0.1	333.72
5994	22.527	4.1818	0.1	366.08
5995	22.343	4.1818	0.1	399.41
5996	22.159	4.1818	0.1	433.56
5997	21.975	4.1818	0.1	468.43
5998	21.791	4.1818	0.1	503.92
5999	21.607	4.1818	0.1	539.97
6000	21.422	4.1818	0.1	576.51
6001	21.238	4.1818	0.1	613.52
6002	21.054	4.1818	0.1	650.95
6003	20.87	4.1818	0.1	688.77
6004	20.686	4.1818	0.1	726.96
6005	20.502	4.1818	0.1	765.5
6006	20.318	4.1818	0.1	804.37
6007	20.134	4.1818	0.1	843.56
6008	19.95	4.1818	0.1	883.05
6009	19.766	4.1818	0.1	922.83
6010	19.581	4.1818	0.1	962.89
6011	19.397	4.1818	0.1	1003.2
6012	19.213	4.1818	0.1	1043.8
6013	19.029	4.1818	0.1	1084.7
6014	18.845	4.1818	0.1	1125.7
6015	18.661	4.1818	0.1	1167.1
6016	18.477	4.1818	0.1	1208.6
6017	18.293	4.1818	0.1	1250.4
6018	18.109	4.1818	0.1	1292.4
6019	17.924	4.1818	0.1	1334.6
6020	17.74	4.1818	0.1	1377.
6021	17.556	4.1818	0.1	1419.7
6022	17.372	4.1818	0.1	1462.5
6023	17.188	4.1818	0.1	1505.5
6024	17.004	4.1818	0.1	1548.6
6025	16.82	4.1818	0.1	1592.
6026	16.636	4.1818	0.1	1635.5
6027	16.452	4.1818	0.1	1679.2
6028	16.267	4.1818	0.1	1723.
6029	16.083	4.1818	0.1	1767.
6030	15.899	4.1818	0.1	1811.2
6031	15.715	4.1818	0.1	1855.5
6032	15.531	4.1818	0.1	1899.9
6033	15.347	4.1818	0.1	1944.4
6034	15.163	4.1818	0.1	1989.1
6035	14.979	4.1818	0.1	2033.8
6036	14.795	4.1818	0.1	2078.7
6037	14.61	4.1818	0.1	2123.7
6038	14.426	4.1818	0.1	2168.8
6039	14.242	4.1818	0.1	2214.
6040	14.058	4.1818	0.1	2259.3
6041	13.874	4.1818	0.1	2304.7
6042	13.69	4.1818	0.1	2350.2
6043	13.506	4.1818	0.1	2395.9
6044	13.322	4.1818	0.1	2441.7
6045	13.138	4.1818	0.1	2487.7
6046	12.953	4.1818	0.1	2533.9
6047	12.769	4.1818	0.1	2580.4
6048	12.585	4.1818	0.1	2627.2
6049	12.401	4.1818	0.1	2674.4
6050	12.217	4.1818	0.1	2722.1
6051	12.033	4.1818	0.1	2770.5
6052	11.849	4.1818	0.1	2819.8
6053	11.665	4.1818	0.1	2870.2
6054	11.481	4.1818	0.1	2921.9
6055	11.297	4.1818	0.1	2975.4
6056	11.112	4.1818	0.1	3031.2
6057	10.928	4.1818	0.1	3089.8
6058	10.744	4.1818	0.1	3152.
6059	10.56	4.1818	0.1	3219.
6060	10.376	4.1818	0.1	3292.
6061	10.192	4.1818	0.1	3373.
6062	10.008	4.1818	0.1	3464.7
6063	9.8236	4.1818	0.1	3571.1
6064	9.6395	4.1818	0.1	3698.2
6065	9.4554	4.1818	0.1	3855.2
6066	9.2713	4.1818	0.1	4057.4
6067	9.0872	4.1818	0.1	4329.6
6068	8.9031	4.1818	0.1	4717.6
6069	8.719	4.1818	0.1	5304.8
6070	8.5349	4.1818	0.1	6379.7
6071	8.3508	4.1818	0.1	8882.3
6072	23.816	4.3636	0.1	173.18
6073	23.632	4.3636	0.1	190.94
6074	23.448	4.3636	0.1	213.32
6075	23.264	4.3636	0.1	239.06
6076	23.079	4.3636	0.1	267.27
6077	22.895	4.3636	0.1	297.36
6078	22.711	4.3636	0.1	328.93
6079	22.527	4.3636	0.1	361.68
6080	22.343	4.3636	0.1	395.39
6081	22.159	4.3636	0.1	429.92
6082	21.975	4.3636	0.1	465.15
6083	21.791	4.3636	0.1	500.98
6084	21.607	4.3636	0.1	537.35
6085	21.422	4.3636	0.1	574.2
6086	21.238	4.3636	0.1	611.49
6087	21.054	4.3636	0.1	649.18
6088	20.87	4.3636	0.1	687.24
6089	20.686	4.3636	0.1	725.66
6090	20.502	4.3636	0.1	764.41
6091	20.318	4.3636	0.1	803.48
6092	20.134	4.3636	0.1	842.84
6093	19.95	4.3636	0.1	882.49
6094	19.766	4.3636	0.1	922.43
6095	19.581	4.3636	0.1	962.63
6096	19.397	4.3636	0.1	1003.1
6097	19.213	4.3636	0.1	1043.8
6098	19.029	4.3636	0.1	1084.8
6099	18.845	4.3636	0.1	1126.
6100	18.661	4.3636	0.1	1167.4
6101	18.477	4.3636	0.1	1209.
6102	18.293	4.3636	0.1	1250.9
6103	18.109	4.3636	0.1	1293.
6104	17.924	4.3636	0.1	1335.3
6105	17.74	4.3636	0.1	1377.8
6106	17.556	4.3636	0.1	1420.5
6107	17.372	4.3636	0.1	1463.4
6108	17.188	4.3636	0.1	1506.4
6109	17.004	4.3636	0.1	1549.7
6110	16.82	4.3636	0.1	1593.1
6111	16.636	4.3636	0.1	1636.8
6112	16.452	4.3636	0.1	1680.5
6113	16.267	4.3636	0.1	1724.5
6114	16.083	4.3636	0.1	1768.6
6115	15.899	4.3636	0.1	1812.8
6116	15.715	4.3636	0.1	1857.2
6117	15.531	4.3636	0.1	1901.7
6118	15.347	4.3636	0.1	1946.4
6119	15.163	4.3636	0.1	1991.2
6120	14.979	4.3636	0.1	2036.1
6121	14.795	4.3636	0.1	2081.1
6122	14.61	4.3636	0.1	2126.3
6123	14.426	4.3636	0.1	2171.6
6124	14.242	4.3636	0.1	2217.
6125	14.058	4.3636	0.1	2262.5
6126	13.874	4.3636	0.1	2308.1
6127	13.69	4.3636	0.1	2353.8
6128	13.506	4.3636	0.1	2399.7
6129	13.322	4.3636	0.1	2445.7
6130	13.138	4.3636	0.1	2491.9
6131	12.953	4.3636	0.1	2538.3
6132	12.769	4.3636	0.1	2584.9
6133	12.585	4.3636	0.1	2631.7
6134	12.401	4.3636	0.1	2678.8
6135	12.217	4.3636	0.1	2726.3
6136	12.033	4.3636	0.1	2774.3
6137	11.849	4.3636	0.1	2822.8
6138	11.665	4.3636	0.1	2872.
6139	11.481	4.3636	0.1	2922.1
6140	11.297	4.3636	0.1	2973.1
6141	11.112	4.3636	0.1	3025.4
6142	10.928	4.3636	0.1	3079.2
6143	10.744	4.3636	0.1	3134.9
6144	10.56	4.3636	0.1	3193.1
6145	10.376	4.3636	0.1	3254.4
6146	10.192	4.3636	0.1	3319.9
6147	10.008	4.3636	0.1	3391.2
6148	9.8236	4.3636	0.1	3470.8
6149	9.6395	4.3636	0.1	3562.8
6150	9.4554	4.3636	0.1	3673.9
6151	9.2713	4.3636	0.1	3815.3
6152	9.0872	4.3636	0.1	4005.4
6153	8.9031	4.3636	0.1	4278.6
6154	8.719	4.3636	0.1	4681.8
6155	8.5349	4.3636	0.1	5333.7
6156	8.3508	4.3636	0.1	6597.
6157	23.816	4.5455	0.1	165.22
6158	23.632	4.5455	0.1	183.22
6159	23.448	4.5455	0.1	206.
6160	23.264	4.5455	0.1	232.18
6161	23.079	4.5455	0.1	260.87
6162	22.895	4.5455	0.1	291.45
6163	22.711	4.5455	0.1	323.51
6164	22.527	4.5455	0.1	356.73
6165	22.343	4.5455	0.1	390.92
6166	22.159	4.5455	0.1	425.89
6167	21.975	4.5455	0.1	461.54
6168	21.791	4.5455	0.1	497.77
6169	21.607	4.5455	0.1	534.51
6170	21.422	4.5455	0.1	571.71
6171	21.238	4.5455	0.1	609.32
6172	21.054	4.5455	0.1	647.3
6173	20.87	4.5455	0.1	685.64
6174	20.686	4.5455	0.1	724.31
6175	20.502	4.5455	0.1	763.29
6176	20.318	4.5455	0.1	802.56
6177	20.134	4.5455	0.1	842.12
6178	19.95	4.5455	0.1	881.96
6179	19.766	4.5455	0.1	922.05
6180	19.581	4.5455	0.1	962.41
6181	19.397	4.5455	0.1	1003.
6182	19.213	4.5455	0.1	1043.9
6183	19.029	4.5455	0.1	1084.9
6184	18.845	4.5455	0.1	1126.2
6185	18.661	4.5455	0.1	1167.8
6186	18.477	4.5455	0.1	1209.5
6187	18.293	4.5455	0.1	1251.5
6188	18.109	4.5455	0.1	1293.7
6189	17.924	4.5455	0.1	1336.1
6190	17.74	4.5455	0.1	1378.7
6191	17.556	4.5455	0.1	1421.4
6192	17.372	4.5455	0.1	1464.4
6193	17.188	4.5455	0.1	1507.6
6194	17.004	4.5455	0.1	1550.9
6195	16.82	4.5455	0.1	1594.5
6196	16.636	4.5455	0.1	1638.2
6197	16.452	4.5455	0.1	1682.
6198	16.267	4.5455	0.1	1726.1
6199	16.083	4.5455	0.1	1770.3
6200	15.899	4.5455	0.1	1814.6
6201	15.715	4.5455	0.1	1859.2
6202	15.531	4.5455	0.1	1903.8
6203	15.347	4.5455	0.1	1948.6
6204	15.163	4.5455	0.1	1993.6
6205	14.979	4.5455	0.1	2038.6
6206	14.795	4.5455	0.1	2083.9
6207	14.61	4.5455	0.1	2129.2
6208	14.426	4.5455	0.1	2174.7
6209	14.242	4.5455	0.1	2220.3
6210	14.058	4.5455	0.1	2266.
6211	13.874	4.5455	0.1	2311.8
6212	13.69	4.5455	0.1	2357.8
6213	13.506	4.5455	0.1	2403.9
6214	13.322	4.5455	0.1	2450.1
6215	13.138	4.5455	0.1	2496.5
6216	12.953	4.5455	0.1	2543.
6217	12.769	4.5455	0.1	2589.6
6218	12.585	4.5455	0.1	2636.5
6219	12.401	4.5455	0.1	2683.5
6220	12.217	4.5455	0.1	2730.8
6221	12.033	4.5455	0.1	2778.2
6222	11.849	4.5455	0.1	2825.9
6223	11.665	4.5455	0.1	2873.8
6224	11.481	4.5455	0.1	2922.
6225	11.297	4.5455	0.1	2970.5
6226	11.112	4.5455	0.1	3019.1
6227	10.928	4.5455	0.1	3068.
6228	10.744	4.5455	0.1	3117.
6229	10.56	4.5455	0.1	3166.2
6230	10.376	4.5455	0.1	3215.6
6231	10.192	4.5455	0.1	3265.4
6232	10.008	4.5455	0.1	3316.1
6233	9.8236	4.5455	0.1	3368.7
6234	9.6395	4.5455	0.1	3425.3
6235	9.4554	4.5455	0.1	3489.8
6236	9.2713	4.5455	0.1	3569.3
6237	9.0872	4.5455	0.1	3675.8
6238	8.9031	4.5455	0.1	3828.6
6239	8.719	4.5455	0.1	4058.
6240	8.5349	4.5455	0.1	4389.7
6241	8.3508	4.5455	0.1	5059.
6242	23.816	4.7273	0.1	155.98
6243	23.632	4.7273	0.1	174.3
6244	23.448	4.7273	0.1	197.57
6245	23.264	4.7273	0.1	224.34
6246	23.079	4.7273	0.1	253.63
6247	22.895	4.7273	0.1	284.83
6248	22.711	4.7273	0.1	317.5
6249	22.527	4.7273	0.1	351.32
6250	22.343	4.7273	0.1	386.06
6251	22.159	4.7273	0.1	421.56
6252	21.975	4.7273	0.1	457.7
6253	21.791	4.7273	0.1	494.38
6254	21.607	4.7273	0.1	531.54
6255	21.422	4.7273	0.1	569.12
6256	21.238	4.7273	0.1	607.08
6257	21.054	4.7273	0.1	645.38
6258	20.87	4.7273	0.1	684.02
6259	20.686	4.7273	0.1	722.95
6260	20.502	4.7273	0.1	762.18
6261	20.318	4.7273	0.1	801.68
6262	20.134	4.7273	0.1	841.45
6263	19.95	4.7273	0.1	881.47
6264	19.766	4.7273	0.1	921.74
6265	19.581	4.7273	0.1	962.26
6266	19.397	4.7273	0.1	1003.
6267	19.213	4.7273	0.1	1044.
6268	19.029	4.7273	0.1	1085.2
6269	18.845	4.7273	0.1	1126.6
6270	18.661	4.7273	0.1	1168.3
6271	18.477	4.7273	0.1	1210.1
6272	18.293	4.7273	0.1	1252.2
6273	18.109	4.7273	0.1	1294.5
6274	17.924	4.7273	0.1	1337.
6275	17.74	4.7273	0.1	1379.7
6276	17.556	4.7273	0.1	1422.5
6277	17.372	4.7273	0.1	1465.6
6278	17.188	4.7273	0.1	1508.9
6279	17.004	4.7273	0.1	1552.3
6280	16.82	4.7273	0.1	1595.9
6281	16.636	4.7273	0.1	1639.8
6282	16.452	4.7273	0.1	1683.7
6283	16.267	4.7273	0.1	1727.9
6284	16.083	4.7273	0.1	1772.2
6285	15.899	4.7273	0.1	1816.7
6286	15.715	4.7273	0.1	1861.3
6287	15.531	4.7273	0.1	1906.1
6288	15.347	4.7273	0.1	1951.1
6289	15.163	4.7273	0.1	1996.2
6290	14.979	4.7273	0.1	2041.4
6291	14.795	4.7273	0.1	2086.8
6292	14.61	4.7273	0.1	2132.3
6293	14.426	4.7273	0.1	2178.
6294	14.242	4.7273	0.1	2223.8
6295	14.058	4.7273	0.1	2269.7
6296	13.874	4.7273	0.1	2315.8
6297	13.69	4.7273	0.1	2362.
6298	13.506	4.7273	0.1	2408.3
6299	13.322	4.7273	0.1	2454.7
6300	13.138	4.7273	0.1	2501.2
6301	12.953	4.7273	0.1	2547.9
6302	12.769	4.7273	0.1	2594.6
6303	12.585	4.7273	0.1	2641.4
6304	12.401	4.7273	0.1	2688.3
6305	12.217	4.7273	0.1	2735.2
6306	12.033	4.7273	0.1	2782.1
6307	11.849	4.7273	0.1	2828.9
6308	11.665	4.7273	0.1	2875.5
6309	11.481	4.7273	0.1	2921.8
6310	11.297	4.7273	0.1	2967.5
6311	11.112	4.7273	0.1	3012.5
6312	10.928	4.7273	0.1	3056.3
6313	10.744	4.7273	0.1	3098.7
6314	10.56	4.7273	0.1	3138.9
6315	10.376	4.7273	0.1	3176.6
6316	10.192	4.7273	0.1	3210.9
6317	10.008	4.7273	0.1	3241.2
6318	9.8236	4.7273	0.1	3267.1
6319	9.6395	4.7273	0.1	3288.8
6320	9.4554	4.7273	0.1	3307.2
6321	9.2713	4.7273	0.1	3325.7
6322	9.0872	4.7273	0.1	3350.4
6323	8.9031	4.7273	0.1	3392.6
6324	8.719	4.7273	0.1	3468.3
6325	8.5349	4.7273	0.1	3606.8
6326	8.3508	4.7273	0.1	3998.8
6327	23.816	4.9091	0.1	145.32
6328	23.632	4.9091	0.1	164.06
6329	23.448	4.9091	0.1	187.99
6330	23.264	4.9091	0.1	215.51
6331	23.079	4.9091	0.1	245.6
6332	22.895	4.9091	0.1	277.59
6333	22.711	4.9091	0.1	311.01
6334	22.527	4.9091	0.1	345.54
6335	22.343	4.9091	0.1	380.94
6336	22.159	4.9091	0.1	417.04
6337	21.975	4.9091	0.1	453.73
6338	21.791	4.9091	0.1	490.92
6339	21.607	4.9091	0.1	528.53
6340	21.422	4.9091	0.1	566.52
6341	21.238	4.9091	0.1	604.85
6342	21.054	4.9091	0.1	643.5
6343	20.87	4.9091	0.1	682.44
6344	20.686	4.9091	0.1	721.66
6345	20.502	4.9091	0.1	761.14
6346	20.318	4.9091	0.1	800.87
6347	20.134	4.9091	0.1	840.86
6348	19.95	4.9091	0.1	881.08
6349	19.766	4.9091	0.1	921.53
6350	19.581	4.9091	0.1	962.21
6351	19.397	4.9091	0.1	1003.1
6352	19.213	4.9091	0.1	1044.2
6353	19.029	4.9091	0.1	1085.6
6354	18.845	4.9091	0.1	1127.1
6355	18.661	4.9091	0.1	1168.9
6356	18.477	4.9091	0.1	1210.9
6357	18.293	4.9091	0.1	1253.1
6358	18.109	4.9091	0.1	1295.4
6359	17.924	4.9091	0.1	1338.
6360	17.74	4.9091	0.1	1380.8
6361	17.556	4.9091	0.1	1423.8
6362	17.372	4.9091	0.1	1467.
6363	17.188	4.9091	0.1	1510.3
6364	17.004	4.9091	0.1	1553.9
6365	16.82	4.9091	0.1	1597.6
6366	16.636	4.9091	0.1	1641.5
6367	16.452	4.9091	0.1	1685.6
6368	16.267	4.9091	0.1	1729.9
6369	16.083	4.9091	0.1	1774.3
6370	15.899	4.9091	0.1	1818.9
6371	15.715	4.9091	0.1	1863.7
6372	15.531	4.9091	0.1	1908.6
6373	15.347	4.9091	0.1	1953.8
6374	15.163	4.9091	0.1	1999.
6375	14.979	4.9091	0.1	2044.4
6376	14.795	4.9091	0.1	2090.
6377	14.61	4.9091	0.1	2135.7
6378	14.426	4.9091	0.1	2181.6
6379	14.242	4.9091	0.1	2227.6
6380	14.058	4.9091	0.1	2273.7
6381	13.874	4.9091	0.1	2320.
6382	13.69	4.9091	0.1	2366.4
6383	13.506	4.9091	0.1	2412.9
6384	13.322	4.9091	0.1	2459.5
6385	13.138	4.9091	0.1	2506.2
6386	12.953	4.9091	0.1	2552.9
6387	12.769	4.9091	0.1	2599.7
6388	12.585	4.9091	0.1	2646.5
6389	12.401	4.9091	0.1	2693.1
6390	12.217	4.9091	0.1	2739.7
6391	12.033	4.9091	0.1	2785.9
6392	11.849	4.9091	0.1	2831.7
6393	11.665	4.9091	0.1	2876.9
6394	11.481	4.9091	0.1	2921.2
6395	11.297	4.9091	0.1	2964.2
6396	11.112	4.9091	0.1	3005.5
6397	10.928	4.9091	0.1	3044.4
6398	10.744	4.9091	0.1	3080.1
6399	10.56	4.9091	0.1	3111.7
6400	10.376	4.9091	0.1	3137.9
6401	10.192	4.9091	0.1	3157.3
6402	10.008	4.9091	0.1	3168.1
6403	9.8236	4.9091	0.1	3168.7
6404	9.6395	4.9091	0.1	3157.
6405	9.4554	4.9091	0.1	3131.9
6406	9.2713	4.9091	0.1	3093.2
6407	9.0872	4.9091	0.1	3043.5
6408	8.9031	4.9091	0.1	2990.4
6409	8.719	4.9091	0.1	2949.5
6410	8.5349	4.9091	0.1	2954.8
6411	8.3508	4.9091	0.1	3189.
6412	23.816	5.0909	0.1	133.03
6413	23.632	5.0909	0.1	152.37
6414	23.448	5.0909	0.1	177.19
6415	23.264	5.0909	0.1	205.74
6416	23.079	5.0909	0.1	236.86
6417	22.895	5.0909	0.1	269.85
6418	22.711	5.0909	0.1	304.2
6419	22.527	5.0909	0.1	339.56
6420	22.343	5.0909	0.1	375.72
6421	22.159	5.0909	0.1	412.49
6422	21.975	5.0909	0.1	449.78
6423	21.791	5.0909	0.1	487.5
6424	21.607	5.0909	0.1	525.59
6425	21.422	5.0909	0.1	564.01
6426	21.238	5.0909	0.1	602.73
6427	21.054	5.0909	0.1	641.73
6428	20.87	5.0909	0.1	680.98
6429	20.686	5.0909	0.1	720.49
6430	20.502	5.0909	0.1	760.23
6431	20.318	5.0909	0.1	800.21
6432	20.134	5.0909	0.1	840.4
6433	19.95	5.0909	0.1	880.82
6434	19.766	5.0909	0.1	921.46
6435	19.581	5.0909	0.1	962.31
6436	19.397	5.0909	0.1	1003.4
6437	19.213	5.0909	0.1	1044.6
6438	19.029	5.0909	0.1	1086.1
6439	18.845	5.0909	0.1	1127.8
6440	18.661	5.0909	0.1	1169.7
6441	18.477	5.0909	0.1	1211.8
6442	18.293	5.0909	0.1	1254.1
6443	18.109	5.0909	0.1	1296.6
6444	17.924	5.0909	0.1	1339.2
6445	17.74	5.0909	0.1	1382.1
6446	17.556	5.0909	0.1	1425.2
6447	17.372	5.0909	0.1	1468.5
6448	17.188	5.0909	0.1	1511.9
6449	17.004	5.0909	0.1	1555.6
6450	16.82	5.0909	0.1	1599.4
6451	16.636	5.0909	0.1	1643.4
6452	16.452	5.0909	0.1	1687.7
6453	16.267	5.0909	0.1	1732.
6454	16.083	5.0909	0.1	1776.6
6455	15.899	5.0909	0.1	1821.4
6456	15.715	5.0909	0.1	1866.3
6457	15.531	5.0909	0.1	1911.4
6458	15.347	5.0909	0.1	1956.6
6459	15.163	5.0909	0.1	2002.1
6460	14.979	5.0909	0.1	2047.6
6461	14.795	5.0909	0.1	2093.4
6462	14.61	5.0909	0.1	2139.3
6463	14.426	5.0909	0.1	2185.4
6464	14.242	5.0909	0.1	2231.6
6465	14.058	5.0909	0.1	2277.9
6466	13.874	5.0909	0.1	2324.4
6467	13.69	5.0909	0.1	2371.
6468	13.506	5.0909	0.1	2417.7
6469	13.322	5.0909	0.1	2464.4
6470	13.138	5.0909	0.1	2511.2
6471	12.953	5.0909	0.1	2558.
6472	12.769	5.0909	0.1	2604.8
6473	12.585	5.0909	0.1	2651.5
6474	12.401	5.0909	0.1	2697.9
6475	12.217	5.0909	0.1	2744.
6476	12.033	5.0909	0.1	2789.5
6477	11.849	5.0909	0.1	2834.3
6478	11.665	5.0909	0.1	2878.1
6479	11.481	5.0909	0.1	2920.3
6480	11.297	5.0909	0.1	2960.6
6481	11.112	5.0909	0.1	2998.2
6482	10.928	5.0909	0.1	3032.3
6483	10.744	5.0909	0.1	3061.7
6484	10.56	5.0909	0.1	3085.
6485	10.376	5.0909	0.1	3100.5
6486	10.192	5.0909	0.1	3105.9
6487	10.008	5.0909	0.1	3098.8
6488	9.8236	5.0909	0.1	3076.
6489	9.6395	5.0909	0.1	3034.2
6490	9.4554	5.0909	0.1	2970.1
6491	9.2713	5.0909	0.1	2881.2
6492	9.0872	5.0909	0.1	2767.5
6493	8.9031	5.0909	0.1	2635.3
6494	8.719	5.0909	0.1	2502.7
6495	8.5349	5.0909	0.1	2412.9
6496	8.3508	5.0909	0.1	2535.3
6497	23.816	5.2727	0.1	118.84
6498	23.632	5.2727	0.1	139.06
6499	23.448	5.2727	0.1	165.19
6500	23.264	5.2727	0.1	195.15
6501	23.079	5.2727	0.1	227.65
6502	22.895	5.2727	0.1	261.88
6503	22.711	5.2727	0.1	297.32
6504	22.527	5.2727	0.1	333.63
6505	22.343	5.2727	0.1	370.61
6506	22.159	5.2727	0.1	408.1
6507	21.975	5.2727	0.1	446.01
6508	21.791	5.2727	0.1	484.28
6509	21.607	5.2727	0.1	522.86
6510	21.422	5.2727	0.1	561.71
6511	21.238	5.2727	0.1	600.82
6512	21.054	5.2727	0.1	640.17
6513	20.87	5.2727	0.1	679.74
6514	20.686	5.2727	0.1	719.53
6515	20.502	5.2727	0.1	759.52
6516	20.318	5.2727	0.1	799.73
6517	20.134	5.2727	0.1	840.14
6518	19.95	5.2727	0.1	880.75
6519	19.766	5.2727	0.1	921.57
6520	19.581	5.2727	0.1	962.58
6521	19.397	5.2727	0.1	1003.8
6522	19.213	5.2727	0.1	1045.2
6523	19.029	5.2727	0.1	1086.8
6524	18.845	5.2727	0.1	1128.6
6525	18.661	5.2727	0.1	1170.6
6526	18.477	5.2727	0.1	1212.8
6527	18.293	5.2727	0.1	1255.2
6528	18.109	5.2727	0.1	1297.8
6529	17.924	5.2727	0.1	1340.6
6530	17.74	5.2727	0.1	1383.6
6531	17.556	5.2727	0.1	1426.8
6532	17.372	5.2727	0.1	1470.2
6533	17.188	5.2727	0.1	1513.7
6534	17.004	5.2727	0.1	1557.5
6535	16.82	5.2727	0.1	1601.4
6536	16.636	5.2727	0.1	1645.6
6537	16.452	5.2727	0.1	1689.9
6538	16.267	5.2727	0.1	1734.4
6539	16.083	5.2727	0.1	1779.1
6540	15.899	5.2727	0.1	1824.
6541	15.715	5.2727	0.1	1869.
6542	15.531	5.2727	0.1	1914.3
6543	15.347	5.2727	0.1	1959.7
6544	15.163	5.2727	0.1	2005.3
6545	14.979	5.2727	0.1	2051.
6546	14.795	5.2727	0.1	2097.
6547	14.61	5.2727	0.1	2143.1
6548	14.426	5.2727	0.1	2189.3
6549	14.242	5.2727	0.1	2235.7
6550	14.058	5.2727	0.1	2282.3
6551	13.874	5.2727	0.1	2328.9
6552	13.69	5.2727	0.1	2375.7
6553	13.506	5.2727	0.1	2422.6
6554	13.322	5.2727	0.1	2469.5
6555	13.138	5.2727	0.1	2516.4
6556	12.953	5.2727	0.1	2563.2
6557	12.769	5.2727	0.1	2609.9
6558	12.585	5.2727	0.1	2656.4
6559	12.401	5.2727	0.1	2702.6
6560	12.217	5.2727	0.1	2748.1
6561	12.033	5.2727	0.1	2793.
6562	11.849	5.2727	0.1	2836.7
6563	11.665	5.2727	0.1	2878.9
6564	11.481	5.2727	0.1	2919.2
6565	11.297	5.2727	0.1	2956.8
6566	11.112	5.2727	0.1	2990.8
6567	10.928	5.2727	0.1	3020.3
6568	10.744	5.2727	0.1	3043.7
6569	10.56	5.2727	0.1	3059.3
6570	10.376	5.2727	0.1	3065.
6571	10.192	5.2727	0.1	3057.9
6572	10.008	5.2727	0.1	3034.8
6573	9.8236	5.2727	0.1	2991.7
6574	9.6395	5.2727	0.1	2924.2
6575	9.4554	5.2727	0.1	2827.4
6576	9.2713	5.2727	0.1	2697.1
6577	9.0872	5.2727	0.1	2531.5
6578	8.9031	5.2727	0.1	2335.3
6579	8.719	5.2727	0.1	2127.1
6580	8.5349	5.2727	0.1	1956.
6581	8.3508	5.2727	0.1	1982.8
6582	23.816	5.4545	0.1	102.35
6583	23.632	5.4545	0.1	124.03
6584	23.448	5.4545	0.1	152.17
6585	23.264	5.4545	0.1	184.15
6586	23.079	5.4545	0.1	218.4
6587	22.895	5.4545	0.1	254.1
6588	22.711	5.4545	0.1	290.75
6589	22.527	5.4545	0.1	328.08
6590	22.343	5.4545	0.1	365.9
6591	22.159	5.4545	0.1	404.12
6592	21.975	5.4545	0.1	442.65
6593	21.791	5.4545	0.1	481.46
6594	21.607	5.4545	0.1	520.51
6595	21.422	5.4545	0.1	559.78
6596	21.238	5.4545	0.1	599.26
6597	21.054	5.4545	0.1	638.93
6598	20.87	5.4545	0.1	678.8
6599	20.686	5.4545	0.1	718.86
6600	20.502	5.4545	0.1	759.1
6601	20.318	5.4545	0.1	799.53
6602	20.134	5.4545	0.1	840.14
6603	19.95	5.4545	0.1	880.94
6604	19.766	5.4545	0.1	921.92
6605	19.581	5.4545	0.1	963.09
6606	19.397	5.4545	0.1	1004.5
6607	19.213	5.4545	0.1	1046.
6608	19.029	5.4545	0.1	1087.7
6609	18.845	5.4545	0.1	1129.7
6610	18.661	5.4545	0.1	1171.8
6611	18.477	5.4545	0.1	1214.1
6612	18.293	5.4545	0.1	1256.6
6613	18.109	5.4545	0.1	1299.3
6614	17.924	5.4545	0.1	1342.2
6615	17.74	5.4545	0.1	1385.3
6616	17.556	5.4545	0.1	1428.6
6617	17.372	5.4545	0.1	1472.
6618	17.188	5.4545	0.1	1515.7
6619	17.004	5.4545	0.1	1559.6
6620	16.82	5.4545	0.1	1603.6
6621	16.636	5.4545	0.1	1647.9
6622	16.452	5.4545	0.1	1692.3
6623	16.267	5.4545	0.1	1736.9
6624	16.083	5.4545	0.1	1781.8
6625	15.899	5.4545	0.1	1826.8
6626	15.715	5.4545	0.1	1872.
6627	15.531	5.4545	0.1	1917.4
6628	15.347	5.4545	0.1	1962.9
6629	15.163	5.4545	0.1	2008.7
6630	14.979	5.4545	0.1	2054.6
6631	14.795	5.4545	0.1	2100.8
6632	14.61	5.4545	0.1	2147.
6633	14.426	5.4545	0.1	2193.5
6634	14.242	5.4545	0.1	2240.1
6635	14.058	5.4545	0.1	2286.8
6636	13.874	5.4545	0.1	2333.7
6637	13.69	5.4545	0.1	2380.6
6638	13.506	5.4545	0.1	2427.6
6639	13.322	5.4545	0.1	2474.6
6640	13.138	5.4545	0.1	2521.6
6641	12.953	5.4545	0.1	2568.4
6642	12.769	5.4545	0.1	2615.1
6643	12.585	5.4545	0.1	2661.4
6644	12.401	5.4545	0.1	2707.1
6645	12.217	5.4545	0.1	2752.2
6646	12.033	5.4545	0.1	2796.2
6647	11.849	5.4545	0.1	2838.8
6648	11.665	5.4545	0.1	2879.6
6649	11.481	5.4545	0.1	2917.8
6650	11.297	5.4545	0.1	2952.8
6651	11.112	5.4545	0.1	2983.5
6652	10.928	5.4545	0.1	3008.6
6653	10.744	5.4545	0.1	3026.5
6654	10.56	5.4545	0.1	3035.2
6655	10.376	5.4545	0.1	3032.1
6656	10.192	5.4545	0.1	3014.1
6657	10.008	5.4545	0.1	2977.5
6658	9.8236	5.4545	0.1	2917.7
6659	9.6395	5.4545	0.1	2829.6
6660	9.4554	5.4545	0.1	2707.4
6661	9.2713	5.4545	0.1	2545.9
6662	9.0872	5.4545	0.1	2341.5
6663	8.9031	5.4545	0.1	2096.1
6664	8.719	5.4545	0.1	1824.5
6665	8.5349	5.4545	0.1	1573.8
6666	8.3508	5.4545	0.1	1500.3
6667	23.816	5.6364	0.1	83.022
6668	23.632	5.6364	0.1	107.57
6669	23.448	5.6364	0.1	139.03
6670	23.264	5.6364	0.1	173.72
6671	23.079	5.6364	0.1	210.05
6672	22.895	5.6364	0.1	247.32
6673	22.711	5.6364	0.1	285.2
6674	22.527	5.6364	0.1	323.51
6675	22.343	5.6364	0.1	362.14
6676	22.159	5.6364	0.1	401.03
6677	21.975	5.6364	0.1	440.13
6678	21.791	5.6364	0.1	479.43
6679	21.607	5.6364	0.1	518.91
6680	21.422	5.6364	0.1	558.56
6681	21.238	5.6364	0.1	598.37
6682	21.054	5.6364	0.1	638.35
6683	20.87	5.6364	0.1	678.48
6684	20.686	5.6364	0.1	718.78
6685	20.502	5.6364	0.1	759.24
6686	20.318	5.6364	0.1	799.87
6687	20.134	5.6364	0.1	840.66
6688	19.95	5.6364	0.1	881.63
6689	19.766	5.6364	0.1	922.76
6690	19.581	5.6364	0.1	964.08
6691	19.397	5.6364	0.1	1005.6
6692	19.213	5.6364	0.1	1047.2
6693	19.029	5.6364	0.1	1089.1
6694	18.845	5.6364	0.1	1131.1
6695	18.661	5.6364	0.1	1173.4
6696	18.477	5.6364	0.1	1215.8
6697	18.293	5.6364	0.1	1258.4
6698	18.109	5.6364	0.1	1301.2
6699	17.924	5.6364	0.1	1344.1
6700	17.74	5.6364	0.1	1387.3
6701	17.556	5.6364	0.1	1430.7
6702	17.372	5.6364	0.1	1474.3
6703	17.188	5.6364	0.1	1518.
6704	17.004	5.6364	0.1	1562.
6705	16.82	5.6364	0.1	1606.1
6706	16.636	5.6364	0.1	1650.5
6707	16.452	5.6364	0.1	1695.1
6708	16.267	5.6364	0.1	1739.8
6709	16.083	5.6364	0.1	1784.8
6710	15.899	5.6364	0.1	1829.9
6711	15.715	5.6364	0.1	1875.2
6712	15.531	5.6364	0.1	1920.8
6713	15.347	5.6364	0.1	1966.5
6714	15.163	5.6364	0.1	2012.4
6715	14.979	5.6364	0.1	2058.5
6716	14.795	5.6364	0.1	2104.8
6717	14.61	5.6364	0.1	2151.3
6718	14.426	5.6364	0.1	2197.9
6719	14.242	5.6364	0.1	2244.7
6720	14.058	5.6364	0.1	2291.6
6721	13.874	5.6364	0.1	2338.6
6722	13.69	5.6364	0.1	2385.7
6723	13.506	5.6364	0.1	2432.8
6724	13.322	5.6364	0.1	2479.9
6725	13.138	5.6364	0.1	2526.9
6726	12.953	5.6364	0.1	2573.8
6727	12.769	5.6364	0.1	2620.3
6728	12.585	5.6364	0.1	2666.4
6729	12.401	5.6364	0.1	2711.8
6730	12.217	5.6364	0.1	2756.2
6731	12.033	5.6364	0.1	2799.4
6732	11.849	5.6364	0.1	2840.9
6733	11.665	5.6364	0.1	2880.2
6734	11.481	5.6364	0.1	2916.5
6735	11.297	5.6364	0.1	2949.
6736	11.112	5.6364	0.1	2976.4
6737	10.928	5.6364	0.1	2997.5
6738	10.744	5.6364	0.1	3010.4
6739	10.56	5.6364	0.1	3012.9
6740	10.376	5.6364	0.1	3002.3
6741	10.192	5.6364	0.1	2975.2
6742	10.008	5.6364	0.1	2927.7
6743	9.8236	5.6364	0.1	2854.9
6744	9.6395	5.6364	0.1	2751.5
6745	9.4554	5.6364	0.1	2611.7
6746	9.2713	5.6364	0.1	2429.5
6747	9.0872	5.6364	0.1	2200.3
6748	8.9031	5.6364	0.1	1922.5
6749	8.719	5.6364	0.1	1603.3
6750	8.5349	5.6364	0.1	1274.3
6751	8.3508	5.6364	0.1	1073.1
6752	23.816	5.8182	0.1	61.524
6753	23.632	5.8182	0.1	93.709
6754	23.448	5.8182	0.1	130.45
6755	23.264	5.8182	0.1	168.41
6756	23.079	5.8182	0.1	206.93
6757	22.895	5.8182	0.1	245.77
6758	22.711	5.8182	0.1	284.83
6759	22.527	5.8182	0.1	324.05
6760	22.343	5.8182	0.1	363.42
6761	22.159	5.8182	0.1	402.91
6762	21.975	5.8182	0.1	442.52
6763	21.791	5.8182	0.1	482.24
6764	21.607	5.8182	0.1	522.08
6765	21.422	5.8182	0.1	562.04
6766	21.238	5.8182	0.1	602.12
6767	21.054	5.8182	0.1	642.32
6768	20.87	5.8182	0.1	682.66
6769	20.686	5.8182	0.1	723.12
6770	20.502	5.8182	0.1	763.73
6771	20.318	5.8182	0.1	804.49
6772	20.134	5.8182	0.1	845.39
6773	19.95	5.8182	0.1	886.45
6774	19.766	5.8182	0.1	927.67
6775	19.581	5.8182	0.1	969.05
6776	19.397	5.8182	0.1	1010.6
6777	19.213	5.8182	0.1	1052.3
6778	19.029	5.8182	0.1	1094.2
6779	18.845	5.8182	0.1	1136.3
6780	18.661	5.8182	0.1	1178.6
6781	18.477	5.8182	0.1	1221.
6782	18.293	5.8182	0.1	1263.6
6783	18.109	5.8182	0.1	1306.4
6784	17.924	5.8182	0.1	1349.5
6785	17.74	5.8182	0.1	1392.7
6786	17.556	5.8182	0.1	1436.1
6787	17.372	5.8182	0.1	1479.6
6788	17.188	5.8182	0.1	1523.4
6789	17.004	5.8182	0.1	1567.4
6790	16.82	5.8182	0.1	1611.6
6791	16.636	5.8182	0.1	1656.
6792	16.452	5.8182	0.1	1700.6
6793	16.267	5.8182	0.1	1745.4
6794	16.083	5.8182	0.1	1790.4
6795	15.899	5.8182	0.1	1835.6
6796	15.715	5.8182	0.1	1881.1
6797	15.531	5.8182	0.1	1926.7
6798	15.347	5.8182	0.1	1972.5
6799	15.163	5.8182	0.1	2018.5
6800	14.979	5.8182	0.1	2064.7
6801	14.795	5.8182	0.1	2111.1
6802	14.61	5.8182	0.1	2157.7
6803	14.426	5.8182	0.1	2204.4
6804	14.242	5.8182	0.1	2251.3
6805	14.058	5.8182	0.1	2298.3
6806	13.874	5.8182	0.1	2345.4
6807	13.69	5.8182	0.1	2392.5
6808	13.506	5.8182	0.1	2439.7
6809	13.322	5.8182	0.1	2486.8
6810	13.138	5.8182	0.1	2533.8
6811	12.953	5.8182	0.1	2580.5
6812	12.769	5.8182	0.1	2626.9
6813	12.585	5.8182	0.1	2672.6
6814	12.401	5.8182	0.1	2717.6
6815	12.217	5.8182	0.1	2761.4
6816	12.033	5.8182	0.1	2803.8
6817	11.849	5.8182	0.1	2844.2
6818	11.665	5.8182	0.1	2882.
6819	11.481	5.8182	0.1	2916.4
6820	11.297	5.8182	0.1	2946.5
6821	11.112	5.8182	0.1	2971.
6822	10.928	5.8182	0.1	2988.5
6823	10.744	5.8182	0.1	2997.
6824	10.56	5.8182	0.1	2994.2
6825	10.376	5.8182	0.1	2977.4
6826	10.192	5.8182	0.1	2943.1
6827	10.008	5.8182	0.1	2887.4
6828	9.8236	5.8182	0.1	2805.7
6829	9.6395	5.8182	0.1	2692.9
6830	9.4554	5.8182	0.1	2543.4
6831	9.2713	5.8182	0.1	2351.7
6832	9.0872	5.8182	0.1	2112.9
6833	8.9031	5.8182	0.1	1823.9
6834	8.719	5.8182	0.1	1484.1
6835	8.5349	5.8182	0.1	1101.9
6836	8.3508	5.8182	0.1	736.18
6837	0.18182	0.18182	0.1	4043.4
6838	0.18182	0.36364	0.1	4556.1
6839	0.18182	0.54545	0.1	5228.1
6840	0.18182	0.72727	0.1	5751.3
6841	0.18182	0.90909	0.1	6142.4
6842	0.18182	1.0909	0.1	6436.9
6843	0.18182	1.2727	0.1	6661.9
6844	0.18182	1.4545	0.1	6836.1
6845	0.18182	1.6364	0.1	6972.1
6846	0.18182	1.8182	0.1	7078.7
6847	0.18182	2.	0.1	7161.9
6848	0.18182	2.1818	0.1	7226.1
6849	0.18182	2.3636	0.1	7274.4
6850	0.18182	2.5455	0.1	7308.9
6851	0.18182	2.7273	0.1	7331.1
6852	0.18182	2.9091	0.1	7342.
6853	0.18182	3.0909	0.1	7342.
6854	0.18182	3.2727	0.1	7331.1
6855	0.18182	3.4545	0.1	7308.9
6856	0.18182	3.6364	0.1	7274.4
6857	0.18182	3.8182	0.1	7226.1
6858	0.18182	4.	0.1	7161.9
6859	0.18182	4.1818	0.1	7078.7
6860	0.18182	4.3636	0.1	6972.1
6861	0.18182	4.5455	0.1	6836.1
6862	0.18182	4.7273	0.1	6661.9
6863	0.18182	4.9091	0.1	6436.9
6864	0.18182	5.0909	0.1	6142.4
6865	0.18182	5.2727	0.1	5751.3
6866	0.18182	5.4545	0.1	5228.1
6867	0.18182	5.6364	0.1	4556.1
6868	0.18182	5.8182	0.1	4043.4
6869	0.36364	0.18182	0.1	5025.6
6870	0.36364	0.36364	0.1	4774.
6871	0.36364	0.54545	0.1	4834.5
6872	0.36364	0.72727	0.1	5029.7
6873	0.36364	0.90909	0.1	5246.9
6874	0.36364	1.0909	0.1	5445.7
6875	0.36364	1.2727	0.1	5615.6
6876	0.36364	1.4545	0.1	5756.7
6877	0.36364	1.6364	0.1	5872.2
6878	0.36364	1.8182	0.1	5965.7
6879	0.36364	2.	0.1	6040.6
6880	0.36364	2.1818	0.1	6099.3
6881	0.36364	2.3636	0.1	6144.1
6882	0.36364	2.5455	0.1	6176.4
6883	0.36364	2.7273	0.1	6197.3
6884	0.36364	2.9091	0.1	6207.6
6885	0.36364	3.0909	0.1	6207.6
6886	0.36364	3.2727	0.1	6197.3
6887	0.36364	3.4545	0.1	6176.4
6888	0.36364	3.6364	0.1	6144.1
6889	0.36364	3.8182	0.1	6099.3
6890	0.36364	4.	0.1	6040.6
6891	0.36364	4.1818	0.1	5965.7
6892	0.36364	4.3636	0.1	5872.2
6893	0.36364	4.5455	0.1	5756.7
6894	0.36364	4.7273	0.1	5615.6
6895	0.36364	4.9091	0.1	5445.7
6896	0.36364	5.0909	0.1	5246.9
6897	0.36364	5.2727	0.1	5029.7
6898	0.36364	5.4545	0.1	4834.5
6899	0.36364	5.6364	0.1	4774.
6900	0.36364	5.8182	0.1	5025.6
6901	0.54545	0.18182	0.1	5570.9
6902	0.54545	0.36364	0.1	5342.4
6903	0.54545	0.54545	0.1	5282.8
6904	0.54545	0.72727	0.1	5330.7
6905	0.54545	0.90909	0.1	5439.1
6906	0.54545	1.0909	0.1	5568.3
6907	0.54545	1.2727	0.1	5696.1
6908	0.54545	1.4545	0.1	5812.5
6909	0.54545	1.6364	0.1	5913.8
6910	0.54545	1.8182	0.1	5999.6
6911	0.54545	2.	0.1	6070.3
6912	0.54545	2.1818	0.1	6127.2
6913	0.54545	2.3636	0.1	6171.2
6914	0.54545	2.5455	0.1	6203.4
6915	0.54545	2.7273	0.1	6224.4
6916	0.54545	2.9091	0.1	6234.8
6917	0.54545	3.0909	0.1	6234.8
6918	0.54545	3.2727	0.1	6224.4
6919	0.54545	3.4545	0.1	6203.4
6920	0.54545	3.6364	0.1	6171.2
6921	0.54545	3.8182	0.1	6127.2
6922	0.54545	4.	0.1	6070.3
6923	0.54545	4.1818	0.1	5999.6
6924	0.54545	4.3636	0.1	5913.8
6925	0.54545	4.5455	0.1	5812.5
6926	0.54545	4.7273	0.1	5696.1
6927	0.54545	4.9091	0.1	5568.3
6928	0.54545	5.0909	0.1	5439.1
6929	0.54545	5.2727	0.1	5330.7
6930	0.54545	5.4545	0.1	5282.8
6931	0.54545	5.6364	0.1	5342.4
6932	0.54545	5.8182	0.1	5570.9
6933	0.72727	0.18182	0.1	5833.6
6934	0.72727	0.36364	0.1	5598.3
6935	0.72727	0.54545	0.1	5476.1
6936	0.72727	0.72727	0.1	5431.7
6937	0.72727	0.90909	0.1	5448.5
6938	0.72727	1.0909	0.1	5503.3
6939	0.72727	1.2727	0.1	5576.2
6940	0.72727	1.4545	0.1	5653.7
6941	0.72727	1.6364	0.1	5728.2
6942	0.72727	1.8182	0.1	5795.5
6943	0.72727	2.	0.1	5853.8
6944	0.72727	2.1818	0.1	5902.1
6945	0.72727	2.3636	0.1	5940.5
6946	0.72727	2.5455	0.1	5969.1
6947	0.72727	2.7273	0.1	5987.9
6948	0.72727	2.9091	0.1	5997.3
6949	0.72727	3.0909	0.1	5997.3
6950	0.72727	3.2727	0.1	5987.9
6951	0.72727	3.4545	0.1	5969.1
6952	0.72727	3.6364	0.1	5940.5
6953	0.72727	3.8182	0.1	5902.1
6954	0.72727	4.	0.1	5853.8
6955	0.72727	4.1818	0.1	5795.5
6956	0.72727	4.3636	0.1	5728.2
6957	0.72727	4.5455	0.1	5653.7
6958	0.72727	4.7273	0.1	5576.2
6959	0.72727	4.9091	0.1	5503.3
6960	0.72727	5.0909	0.1	5448.5
6961	0.72727	5.2727	0.1	5431.7
6962	0.72727	5.4545	0.1	5476.1
6963	0.72727	5.6364	0.1	5598.3
6964	0.72727	5.8182	0.1	5833.6
6965	0.90909	0.18182	0.1	5981.4
6966	0.90909	0.36364	0.1	5769.9
6967	0.90909	0.54545	0.1	5637.1
6968	0.90909	0.72727	0.1	5555.5
6969	0.90909	0.90909	0.1	5522.
6970	0.90909	1.0909	0.1	5526.2
6971	0.90909	1.2727	0.1	5555.2
6972	0.90909	1.4545	0.1	5597.7
6973	0.90909	1.6364	0.1	5645.5
6974	0.90909	1.8182	0.1	5692.9
6975	0.90909	2.	0.1	5736.6
6976	0.90909	2.1818	0.1	5774.6
6977	0.90909	2.3636	0.1	5805.7
6978	0.90909	2.5455	0.1	5829.4
6979	0.90909	2.7273	0.1	5845.2
6980	0.90909	2.9091	0.1	5853.2
6981	0.90909	3.0909	0.1	5853.2
6982	0.90909	3.2727	0.1	5845.2
6983	0.90909	3.4545	0.1	5829.4
6984	0.90909	3.6364	0.1	5805.7
6985	0.90909	3.8182	0.1	5774.6
6986	0.90909	4.	0.1	5736.6
6987	0.90909	4.1818	0.1	5692.9
6988	0.90909	4.3636	0.1	5645.4
6989	0.90909	4.5455	0.1	5597.7
6990	0.90909	4.7273	0.1	5555.2
6991	0.90909	4.9091	0.1	5526.2
6992	0.90909	5.0909	0.1	5522.
6993	0.90909	5.2727	0.1	5555.5
6994	0.90909	5.4545	0.1	5637.1
6995	0.90909	5.6364	0.1	5769.9
6996	0.90909	5.8182	0.1	5981.4
6997	1.0909	0.18182	0.1	6052.7
6998	1.0909	0.36364	0.1	5860.9
6999	1.0909	0.54545	0.1	5727.8
7000	1.0909	0.72727	0.1	5630.
7001	1.0909	0.90909	0.1	5568.1
7002	1.0909	1.0909	0.1	5538.6
7003	1.0909	1.2727	0.1	5534.2
7004	1.0909	1.4545	0.1	5547.
7005	1.0909	1.6364	0.1	5569.9
7006	1.0909	1.8182	0.1	5597.5
7007	1.0909	2.	0.1	5625.9
7008	1.0909	2.1818	0.1	5652.3
7009	1.0909	2.3636	0.1	5674.9
7010	1.0909	2.5455	0.1	5692.6
7011	1.0909	2.7273	0.1	5704.8
7012	1.0909	2.9091	0.1	5710.9
7013	1.0909	3.0909	0.1	5710.9
7014	1.0909	3.2727	0.1	5704.8
7015	1.0909	3.4545	0.1	5692.6
7016	1.0909	3.6364	0.1	5674.9
7017	1.0909	3.8182	0.1	5652.3
7018	1.0909	4.	0.1	5625.9
7019	1.0909	4.1818	0.1	5597.5
7020	1.0909	4.3636	0.1	5569.9
7021	1.0909	4.5455	0.1	5547.
7022	1.0909	4.7273	0.1	5534.2
7023	1.0909	4.9091	0.1	5538.6
7024	1.0909	5.0909	0.1	5568.1
7025	1.0909	5.2727	0.1	5630.
7026	1.0909	5.4545	0.1	5727.8
7027	1.0909	5.6364	0.1	5860.9
7028	1.0909	5.8182	0.1	6052.7
7029	1.2727	0.18182	0.1	6078.7
7030	1.2727	0.36364	0.1	5905.9
7031	1.2727	0.54545	0.1	5778.3
7032	1.2727	0.72727	0.1	5675.7
7033	1.2727	0.90909	0.1	5599.7
7034	1.2727	1.0909	0.1	5549.7
7035	1.2727	1.2727	0.1	5522.3
7036	1.2727	1.4545	0.1	5512.4
7037	1.2727	1.6364	0.1	5514.8
7038	1.2727	1.8182	0.1	5524.9
7039	1.2727	2.	0.1	5538.8
7040	1.2727	2.1818	0.1	5553.8
7041	1.2727	2.3636	0.1	5567.9
7042	1.2727	2.5455	0.1	5579.4
7043	1.2727	2.7273	0.1	5587.6
7044	1.2727	2.9091	0.1	5591.8
7045	1.2727	3.0909	0.1	5591.8
7046	1.2727	3.2727	0.1	5587.6
7047	1.2727	3.4545	0.1	5579.4
7048	1.2727	3.6364	0.1	5567.9
7049	1.2727	3.8182	0.1	5553.8
7050	1.2727	4.	0.1	5538.8
7051	1.2727	4.1818	0.1	5524.9
7052	1.2727	4.3636	0.1	5514.8
7053	1.2727	4.5455	0.1	5512.4
7054	1.2727	4.7273	0.1	5522.3
7055	1.2727	4.9091	0.1	5549.7
7056	1.2727	5.0909	0.1	5599.7
7057	1.2727	5.2727	0.1	5675.7
7058	1.2727	5.4545	0.1	5778.3
7059	1.2727	5.6364	0.1	5905.9
7060	1.2727	5.8182	0.1	6078.7
7061	1.4545	0.18182	0.1	6074.3
7062	1.4545	0.36364	0.1	5918.1
7063	1.4545	0.54545	0.1	5797.5
7064	1.4545	0.72727	0.1	5695.3
7065	1.4545	0.90909	0.1	5612.9
7066	1.4545	1.0909	0.1	5551.1
7067	1.4545	1.2727	0.1	5508.5
7068	1.4545	1.4545	0.1	5482.2
7069	1.4545	1.6364	0.1	5468.5
7070	1.4545	1.8182	0.1	5464.
7071	1.4545	2.	0.1	5465.5
7072	1.4545	2.1818	0.1	5470.2
7073	1.4545	2.3636	0.1	5476.1
7074	1.4545	2.5455	0.1	5481.7
7075	1.4545	2.7273	0.1	5486.1
7076	1.4545	2.9091	0.1	5488.4
7077	1.4545	3.0909	0.1	5488.4
7078	1.4545	3.2727	0.1	5486.1
7079	1.4545	3.4545	0.1	5481.7
7080	1.4545	3.6364	0.1	5476.1
7081	1.4545	3.8182	0.1	5470.2
7082	1.4545	4.	0.1	5465.5
7083	1.4545	4.1818	0.1	5464.
7084	1.4545	4.3636	0.1	5468.5
7085	1.4545	4.5455	0.1	5482.2
7086	1.4545	4.7273	0.1	5508.5
7087	1.4545	4.9091	0.1	5551.1
7088	1.4545	5.0909	0.1	5612.9
7089	1.4545	5.2727	0.1	5695.3
7090	1.4545	5.4545	0.1	5797.5
7091	1.4545	5.6364	0.1	5918.1
7092	1.4545	5.8182	0.1	6074.3
7093	1.6364	0.18182	0.1	6049.6
7094	1.6364	0.36364	0.1	5907.9
7095	1.6364	0.54545	0.1	5794.9
7096	1.6364	0.72727	0.1	5695.6
7097	1.6364	0.90909	0.1	5611.4
7098	1.6364	1.0909	0.1	5543.4
7099	1.6364	1.2727	0.1	5491.4
7100	1.6364	1.4545	0.1	5453.8
7101	1.6364	1.6364	0.1	5428.3
7102	1.6364	1.8182	0.1	5412.4
7103	1.6364	2.	0.1	5403.5
7104	1.6364	2.1818	0.1	5399.4
7105	1.6364	2.3636	0.1	5398.3
7106	1.6364	2.5455	0.1	5398.6
7107	1.6364	2.7273	0.1	5399.4
7108	1.6364	2.9091	0.1	5399.9
7109	1.6364	3.0909	0.1	5399.9
7110	1.6364	3.2727	0.1	5399.4
7111	1.6364	3.4545	0.1	5398.6
7112	1.6364	3.6364	0.1	5398.3
7113	1.6364	3.8182	0.1	5399.4
7114	1.6364	4.	0.1	5403.5
7115	1.6364	4.1818	0.1	5412.4
7116	1.6364	4.3636	0.1	5428.3
7117	1.6364	4.5455	0.1	5453.8
7118	1.6364	4.7273	0.1	5491.4
7119	1.6364	4.9091	0.1	5543.4
7120	1.6364	5.0909	0.1	5611.4
7121	1.6364	5.2727	0.1	5695.6
7122	1.6364	5.4545	0.1	5794.9
7123	1.6364	5.6364	0.1	5907.9
7124	1.6364	5.8182	0.1	6049.6
7125	1.8182	0.18182	0.1	6010.7
7126	1.8182	0.36364	0.1	5881.9
7127	1.8182	0.54545	0.1	5776.3
7128	1.8182	0.72727	0.1	5681.3
7129	1.8182	0.90909	0.1	5597.8
7130	1.8182	1.0909	0.1	5527.2
7131	1.8182	1.2727	0.1	5469.8
7132	1.8182	1.4545	0.1	5424.9
7133	1.8182	1.6364	0.1	5391.2
7134	1.8182	1.8182	0.1	5366.7
7135	1.8182	2.	0.1	5349.8
7136	1.8182	2.1818	0.1	5338.6
7137	1.8182	2.3636	0.1	5331.5
7138	1.8182	2.5455	0.1	5327.2
7139	1.8182	2.7273	0.1	5324.9
7140	1.8182	2.9091	0.1	5324.
7141	1.8182	3.0909	0.1	5324.
7142	1.8182	3.2727	0.1	5324.9
7143	1.8182	3.4545	0.1	5327.2
7144	1.8182	3.6364	0.1	5331.5
7145	1.8182	3.8182	0.1	5338.6
7146	1.8182	4.	0.1	5349.8
7147	1.8182	4.1818	0.1	5366.7
7148	1.8182	4.3636	0.1	5391.2
7149	1.8182	4.5455	0.1	5424.9
7150	1.8182	4.7273	0.1	5469.8
7151	1.8182	4.9091	0.1	5527.2
7152	1.8182	5.0909	0.1	5597.8
7153	1.8182	5.2727	0.1	5681.3
7154	1.8182	5.4545	0.1	5776.3
7155	1.8182	5.6364	0.1	5881.9
7156	1.8182	5.8182	0.1	6010.7
7157	2.	0.18182	0.1	5962.1
7158	2.	0.36364	0.1	5844.7
7159	2.	0.54545	0.1	5746.2
7160	2.	0.72727	0.1	5656.
7161	2.	0.90909	0.1	5574.8
7162	2.	1.0909	0.1	5504.
7163	2.	1.2727	0.1	5444.
7164	2.	1.4545	0.1	5394.8
7165	2.	1.6364	0.1	5355.5
7166	2.	1.8182	0.1	5325.
7167	2.	2.	0.1	5302.1
7168	2.	2.1818	0.1	5285.4
7169	2.	2.3636	0.1	5273.6
7170	2.	2.5455	0.1	5265.7
7171	2.	2.7273	0.1	5260.8
7172	2.	2.9091	0.1	5258.6
7173	2.	3.0909	0.1	5258.6
7174	2.	3.2727	0.1	5260.8
7175	2.	3.4545	0.1	5265.7
7176	2.	3.6364	0.1	5273.6
7177	2.	3.8182	0.1	5285.4
7178	2.	4.	0.1	5302.1
7179	2.	4.1818	0.1	5325.
7180	2.	4.3636	0.1	5355.5
7181	2.	4.5455	0.1	5394.8
7182	2.	4.7273	0.1	5444.
7183	2.	4.9091	0.1	5504.
7184	2.	5.0909	0.1	5574.8
7185	2.	5.2727	0.1	5656.
7186	2.	5.4545	0.1	5746.2
7187	2.	5.6364	0.1	5844.7
7188	2.	5.8182	0.1	5962.1
7189	2.1818	0.18182	0.1	5906.6
7190	2.1818	0.36364	0.1	5799.4
7191	2.1818	0.54545	0.1	5707.7
7192	2.1818	0.72727	0.1	5622.5
7193	2.1818	0.90909	0.1	5544.6
7194	2.1818	1.0909	0.1	5474.9
7195	2.1818	1.2727	0.1	5414.3
7196	2.1818	1.4545	0.1	5362.9
7197	2.1818	1.6364	0.1	5320.3
7198	2.1818	1.8182	0.1	5285.9
7199	2.1818	2.	0.1	5258.7
7200	2.1818	2.1818	0.1	5238.
7201	2.1818	2.3636	0.1	5222.6
7202	2.1818	2.5455	0.1	5211.9
7203	2.1818	2.7273	0.1	5205.1
7204	2.1818	2.9091	0.1	5201.8
7205	2.1818	3.0909	0.1	5201.8
7206	2.1818	3.2727	0.1	5205.1
7207	2.1818	3.4545	0.1	5211.9
7208	2.1818	3.6364	0.1	5222.6
7209	2.1818	3.8182	0.1	5238.
7210	2.1818	4.	0.1	5258.7
7211	2.1818	4.1818	0.1	5285.9
7212	2.1818	4.3636	0.1	5320.3
7213	2.1818	4.5455	0.1	5362.9
7214	2.1818	4.7273	0.1	5414.3
7215	2.1818	4.9091	0.1	5474.9
7216	2.1818	5.0909	0.1	5544.6
7217	2.1818	5.2727	0.1	5622.5
7218	2.1818	5.4545	0.1	5707.7
7219	2.1818	5.6364	0.1	5799.4
7220	2.1818	5.8182	0.1	5906.6
7221	2.3636	0.18182	0.1	5846.4
7222	2.3636	0.36364	0.1	5748.4
7223	2.3636	0.54545	0.1	5663.
7224	2.3636	0.72727	0.1	5583.
7225	2.3636	0.90909	0.1	5508.7
7226	2.3636	1.0909	0.1	5441.3
7227	2.3636	1.2727	0.1	5381.4
7228	2.3636	1.4545	0.1	5329.3
7229	2.3636	1.6364	0.1	5285.1
7230	2.3636	1.8182	0.1	5248.3
7231	2.3636	2.	0.1	5218.5
7232	2.3636	2.1818	0.1	5195.
7233	2.3636	2.3636	0.1	5177.1
7234	2.3636	2.5455	0.1	5164.3
7235	2.3636	2.7273	0.1	5156.1
7236	2.3636	2.9091	0.1	5152.1
7237	2.3636	3.0909	0.1	5152.1
7238	2.3636	3.2727	0.1	5156.1
7239	2.3636	3.4545	0.1	5164.3
7240	2.3636	3.6364	0.1	5177.1
7241	2.3636	3.8182	0.1	5195.
7242	2.3636	4.	0.1	5218.5
7243	2.3636	4.1818	0.1	5248.3
7244	2.3636	4.3636	0.1	5285.1
7245	2.3636	4.5455	0.1	5329.3
7246	2.3636	4.7273	0.1	5381.4
7247	2.3636	4.9091	0.1	5441.3
7248	2.3636	5.0909	0.1	5508.7
7249	2.3636	5.2727	0.1	5583.
7250	2.3636	5.4545	0.1	5663.
7251	2.3636	5.6364	0.1	5748.4
7252	2.3636	5.8182	0.1	5846.4
7253	2.5455	0.18182	0.1	5782.9
7254	2.5455	0.36364	0.1	5693.2
7255	2.5455	0.54545	0.1	5613.9
7256	2.5455	0.72727	0.1	5539.
7257	2.5455	0.90909	0.1	5468.7
7258	2.5455	1.0909	0.1	5404.1
7259	2.5455	1.2727	0.1	5345.8
7260	2.5455	1.4545	0.1	5294.2
7261	2.5455	1.6364	0.1	5249.5
7262	2.5455	1.8182	0.1	5211.7
7263	2.5455	2.	0.1	5180.3
7264	2.5455	2.1818	0.1	5155.1
7265	2.5455	2.3636	0.1	5135.7
7266	2.5455	2.5455	0.1	5121.5
7267	2.5455	2.7273	0.1	5112.3
7268	2.5455	2.9091	0.1	5107.7
7269	2.5455	3.0909	0.1	5107.7
7270	2.5455	3.2727	0.1	5112.3
7271	2.5455	3.4545	0.1	5121.5
7272	2.5455	3.6364	0.1	5135.7
7273	2.5455	3.8182	0.1	5155.1
7274	2.5455	4.	0.1	5180.3
7275	2.5455	4.1818	0.1	5211.7
7276	2.5455	4.3636	0.1	5249.5
7277	2.5455	4.5455	0.1	5294.2
7278	2.5455	4.7273	0.1	5345.8
7279	2.5455	4.9091	0.1	5404.1
7280	2.5455	5.0909	0.1	5468.7
7281	2.5455	5.2727	0.1	5539.
7282	2.5455	5.4545	0.1	5613.9
7283	2.5455	5.6364	0.1	5693.2
7284	2.5455	5.8182	0.1	5782.9
7285	2.7273	0.18182	0.1	5717.2
7286	2.7273	0.36364	0.1	5635.1
7287	2.7273	0.54545	0.1	5561.6
7288	2.7273	0.72727	0.1	5491.6
7289	2.7273	0.90909	0.1	5425.5
7290	2.7273	1.0909	0.1	5364.
7291	2.7273	1.2727	0.1	5308.
7292	2.7273	1.4545	0.1	5257.7
7293	2.7273	1.6364	0.1	5213.5
7294	2.7273	1.8182	0.1	5175.5
7295	2.7273	2.	0.1	5143.6
7296	2.7273	2.1818	0.1	5117.6
7297	2.7273	2.3636	0.1	5097.3
7298	2.7273	2.5455	0.1	5082.3
7299	2.7273	2.7273	0.1	5072.4
7300	2.7273	2.9091	0.1	5067.5
7301	2.7273	3.0909	0.1	5067.5
7302	2.7273	3.2727	0.1	5072.4
7303	2.7273	3.4545	0.1	5082.3
7304	2.7273	3.6364	0.1	5097.3
7305	2.7273	3.8182	0.1	5117.6
7306	2.7273	4.	0.1	5143.6
7307	2.7273	4.1818	0.1	5175.5
7308	2.7273	4.3636	0.1	5213.5
7309	2.7273	4.5455	0.1	5257.7
7310	2.7273	4.7273	0.1	5308.
7311	2.7273	4.9091	0.1	5364.
7312	2.7273	5.0909	0.1	5425.5
7313	2.7273	5.2727	0.1	5491.6
7314	2.7273	5.4545	0.1	5561.6
7315	2.7273	5.6364	0.1	5635.1
7316	2.7273	5.8182	0.1	5717.2
7317	2.9091	0.18182	0.1	5649.9
7318	2.9091	0.36364	0.1	5574.9
7319	2.9091	0.54545	0.1	5506.9
7320	2.9091	0.72727	0.1	5441.7
7321	2.9091	0.90909	0.1	5379.8
7322	2.9091	1.0909	0.1	5321.8
7323	2.9091	1.2727	0.1	5268.4
7324	2.9091	1.4545	0.1	5220.1
7325	2.9091	1.6364	0.1	5177.1
7326	2.9091	1.8182	0.1	5139.7
7327	2.9091	2.	0.1	5107.9
7328	2.9091	2.1818	0.1	5081.7
7329	2.9091	2.3636	0.1	5061.1
7330	2.9091	2.5455	0.1	5045.7
7331	2.9091	2.7273	0.1	5035.6
7332	2.9091	2.9091	0.1	5030.5
7333	2.9091	3.0909	0.1	5030.5
7334	2.9091	3.2727	0.1	5035.6
7335	2.9091	3.4545	0.1	5045.7
7336	2.9091	3.6364	0.1	5061.1
7337	2.9091	3.8182	0.1	5081.7
7338	2.9091	4.	0.1	5107.9
7339	2.9091	4.1818	0.1	5139.7
7340	2.9091	4.3636	0.1	5177.1
7341	2.9091	4.5455	0.1	5220.1
7342	2.9091	4.7273	0.1	5268.4
7343	2.9091	4.9091	0.1	5321.8
7344	2.9091	5.0909	0.1	5379.8
7345	2.9091	5.2727	0.1	5441.7
7346	2.9091	5.4545	0.1	5506.9
7347	2.9091	5.6364	0.1	5574.9
7348	2.9091	5.8182	0.1	5649.9
7349	3.0909	0.18182	0.1	5581.7
7350	3.0909	0.36364	0.1	5513.2
7351	3.0909	0.54545	0.1	5450.4
7352	3.0909	0.72727	0.1	5390.
7353	3.0909	0.90909	0.1	5332.4
7354	3.0909	1.0909	0.1	5278.
7355	3.0909	1.2727	0.1	5227.5
7356	3.0909	1.4545	0.1	5181.4
7357	3.0909	1.6364	0.1	5140.1
7358	3.0909	1.8182	0.1	5103.8
7359	3.0909	2.	0.1	5072.8
7360	3.0909	2.1818	0.1	5047.
7361	3.0909	2.3636	0.1	5026.4
7362	3.0909	2.5455	0.1	5011.1
7363	3.0909	2.7273	0.1	5000.9
7364	3.0909	2.9091	0.1	4995.8
7365	3.0909	3.0909	0.1	4995.8
7366	3.0909	3.2727	0.1	5000.9
7367	3.0909	3.4545	0.1	5011.1
7368	3.0909	3.6364	0.1	5026.4
7369	3.0909	3.8182	0.1	5047.
7370	3.0909	4.	0.1	5072.8
7371	3.0909	4.1818	0.1	5103.8
7372	3.0909	4.3636	0.1	5140.1
7373	3.0909	4.5455	0.1	5181.4
7374	3.0909	4.7273	0.1	5227.5
7375	3.0909	4.9091	0.1	5278.
7376	3.0909	5.0909	0.1	5332.4
7377	3.0909	5.2727	0.1	5390.
7378	3.0909	5.4545	0.1	5450.4
7379	3.0909	5.6364	0.1	5513.2
7380	3.0909	5.8182	0.1	5581.7
7381	3.2727	0.18182	0.1	5512.6
7382	3.2727	0.36364	0.1	5450.3
7383	3.2727	0.54545	0.1	5392.6
7384	3.2727	0.72727	0.1	5336.9
7385	3.2727	0.90909	0.1	5283.5
7386	3.2727	1.0909	0.1	5232.8
7387	3.2727	1.2727	0.1	5185.5
7388	3.2727	1.4545	0.1	5142.
7389	3.2727	1.6364	0.1	5102.7
7390	3.2727	1.8182	0.1	5068.
7391	3.2727	2.	0.1	5038.
7392	3.2727	2.1818	0.1	5012.9
7393	3.2727	2.3636	0.1	4992.9
7394	3.2727	2.5455	0.1	4977.8
7395	3.2727	2.7273	0.1	4967.8
7396	3.2727	2.9091	0.1	4962.8
7397	3.2727	3.0909	0.1	4962.8
7398	3.2727	3.2727	0.1	4967.8
7399	3.2727	3.4545	0.1	4977.8
7400	3.2727	3.6364	0.1	4992.9
7401	3.2727	3.8182	0.1	5012.9
7402	3.2727	4.	0.1	5038.
7403	3.2727	4.1818	0.1	5068.
7404	3.2727	4.3636	0.1	5102.7
7405	3.2727	4.5455	0.1	5142.
7406	3.2727	4.7273	0.1	5185.5
7407	3.2727	4.9091	0.1	5232.8
7408	3.2727	5.0909	0.1	5283.5
7409	3.2727	5.2727	0.1	5336.9
7410	3.2727	5.4545	0.1	5392.6
7411	3.2727	5.6364	0.1	5450.3
7412	3.2727	5.8182	0.1	5512.6
7413	3.4545	0.18182	0.1	5443.
7414	3.4545	0.36364	0.1	5386.5
7415	3.4545	0.54545	0.1	5333.8
7416	3.4545	0.72727	0.1	5282.7
7417	3.4545	0.90909	0.1	5233.5
7418	3.4545	1.0909	0.1	5186.6
7419	3.4545	1.2727	0.1	5142.6
7420	3.4545	1.4545	0.1	5101.8
7421	3.4545	1.6364	0.1	5064.9
7422	3.4545	1.8182	0.1	5032.
7423	3.4545	2.	0.1	5003.4
7424	3.4545	2.1818	0.1	4979.4
7425	3.4545	2.3636	0.1	4960.1
7426	3.4545	2.5455	0.1	4945.6
7427	3.4545	2.7273	0.1	4935.9
7428	3.4545	2.9091	0.1	4931.
7429	3.4545	3.0909	0.1	4931.
7430	3.4545	3.2727	0.1	4935.9
7431	3.4545	3.4545	0.1	4945.6
7432	3.4545	3.6364	0.1	4960.1
7433	3.4545	3.8182	0.1	4979.4
7434	3.4545	4.	0.1	5003.4
7435	3.4545	4.1818	0.1	5032.
7436	3.4545	4.3636	0.1	5064.9
7437	3.4545	4.5455	0.1	5101.8
7438	3.4545	4.7273	0.1	5142.6
7439	3.4545	4.9091	0.1	5186.6
7440	3.4545	5.0909	0.1	5233.5
7441	3.4545	5.2727	0.1	5282.7
7442	3.4545	5.4545	0.1	5333.8
7443	3.4545	5.6364	0.1	5386.5
7444	3.4545	5.8182	0.1	5443.
7445	3.6364	0.18182	0.1	5372.8
7446	3.6364	0.36364	0.1	5321.9
7447	3.6364	0.54545	0.1	5274.1
7448	3.6364	0.72727	0.1	5227.6
7449	3.6364	0.90909	0.1	5182.6
7450	3.6364	1.0909	0.1	5139.5
7451	3.6364	1.2727	0.1	5098.9
7452	3.6364	1.4545	0.1	5061.2
7453	3.6364	1.6364	0.1	5026.7
7454	3.6364	1.8182	0.1	4995.9
7455	3.6364	2.	0.1	4969.
7456	3.6364	2.1818	0.1	4946.3
7457	3.6364	2.3636	0.1	4928.
7458	3.6364	2.5455	0.1	4914.2
7459	3.6364	2.7273	0.1	4904.9
7460	3.6364	2.9091	0.1	4900.2
7461	3.6364	3.0909	0.1	4900.2
7462	3.6364	3.2727	0.1	4904.9
7463	3.6364	3.4545	0.1	4914.2
7464	3.6364	3.6364	0.1	4928.
7465	3.6364	3.8182	0.1	4946.3
7466	3.6364	4.	0.1	4969.
7467	3.6364	4.1818	0.1	4995.9
7468	3.6364	4.3636	0.1	5026.7
7469	3.6364	4.5455	0.1	5061.2
7470	3.6364	4.7273	0.1	5098.9
7471	3.6364	4.9091	0.1	5139.5
7472	3.6364	5.0909	0.1	5182.6
7473	3.6364	5.2727	0.1	5227.6
7474	3.6364	5.4545	0.1	5274.1
7475	3.6364	5.6364	0.1	5321.9
7476	3.6364	5.8182	0.1	5372.8
7477	3.8182	0.18182	0.1	5301.8
7478	3.8182	0.36364	0.1	5256.4
7479	3.8182	0.54545	0.1	5213.4
7480	3.8182	0.72727	0.1	5171.5
7481	3.8182	0.90909	0.1	5130.8
7482	3.8182	1.0909	0.1	5091.7
7483	3.8182	1.2727	0.1	5054.7
7484	3.8182	1.4545	0.1	5020.1
7485	3.8182	1.6364	0.1	4988.3
7486	3.8182	1.8182	0.1	4959.8
7487	3.8182	2.	0.1	4934.8
7488	3.8182	2.1818	0.1	4913.6
7489	3.8182	2.3636	0.1	4896.4
7490	3.8182	2.5455	0.1	4883.4
7491	3.8182	2.7273	0.1	4874.7
7492	3.8182	2.9091	0.1	4870.3
7493	3.8182	3.0909	0.1	4870.3
7494	3.8182	3.2727	0.1	4874.7
7495	3.8182	3.4545	0.1	4883.4
7496	3.8182	3.6364	0.1	4896.4
7497	3.8182	3.8182	0.1	4913.6
7498	3.8182	4.	0.1	4934.8
7499	3.8182	4.1818	0.1	4959.8
7500	3.8182	4.3636	0.1	4988.3
7501	3.8182	4.5455	0.1	5020.1
7502	3.8182	4.7273	0.1	5054.7
7503	3.8182	4.9091	0.1	5091.7
7504	3.8182	5.0909	0.1	5130.8
7505	3.8182	5.2727	0.1	5171.5
7506	3.8182	5.4545	0.1	5213.4
7507	3.8182	5.6364	0.1	5256.4
7508	3.8182	5.8182	0.1	5301.8
7509	4.	0.18182	0.1	5229.9
7510	4.	0.36364	0.1	5189.8
7511	4.	0.54545	0.1	5151.8
7512	4.	0.72727	0.1	5114.5
7513	4.	0.90909	0.1	5078.3
7514	4.	1.0909	0.1	5043.3
7515	4.	1.2727	0.1	5009.9
7516	4.	1.4545	0.1	4978.6
7517	4.	1.6364	0.1	4949.7
7518	4.	1.8182	0.1	4923.7
7519	4.	2.	0.1	4900.8
7520	4.	2.1818	0.1	4881.3
7521	4.	2.3636	0.1	4865.5
7522	4.	2.5455	0.1	4853.4
7523	4.	2.7273	0.1	4845.4
7524	4.	2.9091	0.1	4841.3
7525	4.	3.0909	0.1	4841.3
7526	4.	3.2727	0.1	4845.4
7527	4.	3.4545	0.1	4853.4
7528	4.	3.6364	0.1	4865.5
7529	4.	3.8182	0.1	4881.3
7530	4.	4.	0.1	4900.8
7531	4.	4.1818	0.1	4923.7
7532	4.	4.3636	0.1	4949.7
7533	4.	4.5455	0.1	4978.6
7534	4.	4.7273	0.1	5009.9
7535	4.	4.9091	0.1	5043.3
7536	4.	5.0909	0.1	5078.3
7537	4.	5.2727	0.1	5114.5
7538	4.	5.4545	0.1	5151.8
7539	4.	5.6364	0.1	5189.8
7540	4.	5.8182	0.1	5229.9
7541	4.1818	0.18182	0.1	5156.6
7542	4.1818	0.36364	0.1	5122.
7543	4.1818	0.54545	0.1	5088.9
7544	4.1818	0.72727	0.1	5056.5
7545	4.1818	0.90909	0.1	5024.8
7546	4.1818	1.0909	0.1	4994.1
7547	4.1818	1.2727	0.1	4964.7
7548	4.1818	1.4545	0.1	4936.9
7549	4.1818	1.6364	0.1	4911.2
7550	4.1818	1.8182	0.1	4887.9
7551	4.1818	2.	0.1	4867.3
7552	4.1818	2.1818	0.1	4849.7
7553	4.1818	2.3636	0.1	4835.4
7554	4.1818	2.5455	0.1	4824.5
7555	4.1818	2.7273	0.1	4817.1
7556	4.1818	2.9091	0.1	4813.4
7557	4.1818	3.0909	0.1	4813.4
7558	4.1818	3.2727	0.1	4817.1
7559	4.1818	3.4545	0.1	4824.5
7560	4.1818	3.6364	0.1	4835.4
7561	4.1818	3.8182	0.1	4849.7
7562	4.1818	4.	0.1	4867.3
7563	4.1818	4.1818	0.1	4887.9
7564	4.1818	4.3636	0.1	4911.2
7565	4.1818	4.5455	0.1	4936.9
7566	4.1818	4.7273	0.1	4964.7
7567	4.1818	4.9091	0.1	4994.1
7568	4.1818	5.0909	0.1	5024.8
7569	4.1818	5.2727	0.1	5056.5
7570	4.1818	5.4545	0.1	5088.9
7571	4.1818	5.6364	0.1	5122.
7572	4.1818	5.8182	0.1	5156.6
7573	4.3636	0.18182	0.1	5081.4
7574	4.3636	0.36364	0.1	5052.3
7575	4.3636	0.54545	0.1	5024.5
7576	4.3636	0.72727	0.1	4997.2
7577	4.3636	0.90909	0.1	4970.3
7578	4.3636	1.0909	0.1	4944.2
7579	4.3636	1.2727	0.1	4919.
7580	4.3636	1.4545	0.1	4895.1
7581	4.3636	1.6364	0.1	4872.8
7582	4.3636	1.8182	0.1	4852.5
7583	4.3636	2.	0.1	4834.5
7584	4.3636	2.1818	0.1	4819.1
7585	4.3636	2.3636	0.1	4806.5
7586	4.3636	2.5455	0.1	4796.8
7587	4.3636	2.7273	0.1	4790.4
7588	4.3636	2.9091	0.1	4787.1
7589	4.3636	3.0909	0.1	4787.1
7590	4.3636	3.2727	0.1	4790.4
7591	4.3636	3.4545	0.1	4796.8
7592	4.3636	3.6364	0.1	4806.5
7593	4.3636	3.8182	0.1	4819.1
7594	4.3636	4.	0.1	4834.5
7595	4.3636	4.1818	0.1	4852.5
7596	4.3636	4.3636	0.1	4872.8
7597	4.3636	4.5455	0.1	4895.1
7598	4.3636	4.7273	0.1	4919.
7599	4.3636	4.9091	0.1	4944.2
7600	4.3636	5.0909	0.1	4970.3
7601	4.3636	5.2727	0.1	4997.2
7602	4.3636	5.4545	0.1	5024.5
7603	4.3636	5.6364	0.1	5052.3
7604	4.3636	5.8182	0.1	5081.4
7605	4.5455	0.18182	0.1	5003.8
7606	4.5455	0.36364	0.1	4980.4
7607	4.5455	0.54545	0.1	4958.2
7608	4.5455	0.72727	0.1	4936.2
7609	4.5455	0.90909	0.1	4914.6
7610	4.5455	1.0909	0.1	4893.4
7611	4.5455	1.2727	0.1	4872.8
7612	4.5455	1.4545	0.1	4853.2
7613	4.5455	1.6364	0.1	4834.8
7614	4.5455	1.8182	0.1	4817.9
7615	4.5455	2.	0.1	4802.9
7616	4.5455	2.1818	0.1	4789.9
7617	4.5455	2.3636	0.1	4779.3
7618	4.5455	2.5455	0.1	4771.1
7619	4.5455	2.7273	0.1	4765.7
7620	4.5455	2.9091	0.1	4762.9
7621	4.5455	3.0909	0.1	4762.9
7622	4.5455	3.2727	0.1	4765.7
7623	4.5455	3.4545	0.1	4771.1
7624	4.5455	3.6364	0.1	4779.3
7625	4.5455	3.8182	0.1	4789.9
7626	4.5455	4.	0.1	4802.9
7627	4.5455	4.1818	0.1	4817.9
7628	4.5455	4.3636	0.1	4834.8
7629	4.5455	4.5455	0.1	4853.2
7630	4.5455	4.7273	0.1	4872.8
7631	4.5455	4.9091	0.1	4893.4
7632	4.5455	5.0909	0.1	4914.6
7633	4.5455	5.2727	0.1	4936.2
7634	4.5455	5.4545	0.1	4958.2
7635	4.5455	5.6364	0.1	4980.4
7636	4.5455	5.8182	0.1	5003.8
7637	4.7273	0.18182	0.1	4922.8
7638	4.7273	0.36364	0.1	4905.5
7639	4.7273	0.54545	0.1	4889.2
7640	4.7273	0.72727	0.1	4873.1
7641	4.7273	0.90909	0.1	4857.2
7642	4.7273	1.0909	0.1	4841.5
7643	4.7273	1.2727	0.1	4826.1
7644	4.7273	1.4545	0.1	4811.3
7645	4.7273	1.6364	0.1	4797.3
7646	4.7273	1.8182	0.1	4784.4
7647	4.7273	2.	0.1	4772.8
7648	4.7273	2.1818	0.1	4762.8
7649	4.7273	2.3636	0.1	4754.5
7650	4.7273	2.5455	0.1	4748.1
7651	4.7273	2.7273	0.1	4743.8
7652	4.7273	2.9091	0.1	4741.7
7653	4.7273	3.0909	0.1	4741.7
7654	4.7273	3.2727	0.1	4743.8
7655	4.7273	3.4545	0.1	4748.1
7656	4.7273	3.6364	0.1	4754.5
7657	4.7273	3.8182	0.1	4762.8
7658	4.7273	4.	0.1	4772.8
7659	4.7273	4.1818	0.1	4784.4
7660	4.7273	4.3636	0.1	4797.3
7661	4.7273	4.5455	0.1	4811.3
7662	4.7273	4.7273	0.1	4826.1
7663	4.7273	4.9091	0.1	4841.5
7664	4.7273	5.0909	0.1	4857.2
7665	4.7273	5.2727	0.1	4873.1
7666	4.7273	5.4545	0.1	4889.2
7667	4.7273	5.6364	0.1	4905.5
7668	4.7273	5.8182	0.1	4922.8
7669	4.9091	0.18182	0.1	4837.4
7670	4.9091	0.36364	0.1	4826.6
7671	4.9091	0.54545	0.1	4816.8
7672	4.9091	0.72727	0.1	4807.2
7673	4.9091	0.90909	0.1	4797.7
7674	4.9091	1.0909	0.1	4788.2
7675	4.9091	1.2727	0.1	4778.8
7676	4.9091	1.4545	0.1	4769.6
7677	4.9091	1.6364	0.1	4760.8
7678	4.9091	1.8182	0.1	4752.5
7679	4.9091	2.	0.1	4745.
7680	4.9091	2.1818	0.1	4738.5
7681	4.9091	2.3636	0.1	4733.
7682	4.9091	2.5455	0.1	4728.8
7683	4.9091	2.7273	0.1	4726.
7684	4.9091	2.9091	0.1	4724.6
7685	4.9091	3.0909	0.1	4724.6
7686	4.9091	3.2727	0.1	4726.
7687	4.9091	3.4545	0.1	4728.8
7688	4.9091	3.6364	0.1	4733.
7689	4.9091	3.8182	0.1	4738.5
7690	4.9091	4.	0.1	4745.
7691	4.9091	4.1818	0.1	4752.5
7692	4.9091	4.3636	0.1	4760.8
7693	4.9091	4.5455	0.1	4769.6
7694	4.9091	4.7273	0.1	4778.8
7695	4.9091	4.9091	0.1	4788.2
7696	4.9091	5.0909	0.1	4797.7
7697	4.9091	5.2727	0.1	4807.2
7698	4.9091	5.4545	0.1	4816.8
7699	4.9091	5.6364	0.1	4826.6
7700	4.9091	5.8182	0.1	4837.4
7701	5.0909	0.18182	0.1	4746.3
7702	5.0909	0.36364	0.1	4742.5
7703	5.0909	0.54545	0.1	4739.9
7704	5.0909	0.72727	0.1	4737.6
7705	5.0909	0.90909	0.1	4735.4
7706	5.0909	1.0909	0.1	4733.2
7707	5.0909	1.2727	0.1	4730.8
7708	5.0909	1.4545	0.1	4728.2
7709	5.0909	1.6364	0.1	4725.5
7710	5.0909	1.8182	0.1	4722.8
7711	5.0909	2.	0.1	4720.3
7712	5.0909	2.1818	0.1	4718.
7713	5.0909	2.3636	0.1	4716.1
7714	5.0909	2.5455	0.1	4714.6
7715	5.0909	2.7273	0.1	4713.6
7716	5.0909	2.9091	0.1	4713.1
7717	5.0909	3.0909	0.1	4713.1
7718	5.0909	3.2727	0.1	4713.6
7719	5.0909	3.4545	0.1	4714.6
7720	5.0909	3.6364	0.1	4716.1
7721	5.0909	3.8182	0.1	4718.
7722	5.0909	4.	0.1	4720.3
7723	5.0909	4.1818	0.1	4722.8
7724	5.0909	4.3636	0.1	4725.5
7725	5.0909	4.5455	0.1	4728.2
7726	5.0909	4.7273	0.1	4730.8
7727	5.0909	4.9091	0.1	4733.2
7728	5.0909	5.0909	0.1	4735.4
7729	5.0909	5.2727	0.1	4737.6
7730	5.0909	5.4545	0.1	4739.9
7731	5.0909	5.6364	0.1	4742.5
7732	5.0909	5.8182	0.1	4746.3
7733	5.2727	0.18182	0.1	4647.8
7734	5.2727	0.36364	0.1	4651.8
7735	5.2727	0.54545	0.1	4657.2
7736	5.2727	0.72727	0.1	4663.3
7737	5.2727	0.90909	0.1	4669.6
7738	5.2727	1.0909	0.1	4675.8
7739	5.2727	1.2727	0.1	4681.7
7740	5.2727	1.4545	0.1	4687.1
7741	5.2727	1.6364	0.1	4691.9
7742	5.2727	1.8182	0.1	4696.1
7743	5.2727	2.	0.1	4699.7
7744	5.2727	2.1818	0.1	4702.8
7745	5.2727	2.3636	0.1	4705.3
7746	5.2727	2.5455	0.1	4707.2
7747	5.2727	2.7273	0.1	4708.6
7748	5.2727	2.9091	0.1	4709.3
7749	5.2727	3.0909	0.1	4709.3
7750	5.2727	3.2727	0.1	4708.6
7751	5.2727	3.4545	0.1	4707.2
7752	5.2727	3.6364	0.1	4705.3
7753	5.2727	3.8182	0.1	4702.8
7754	5.2727	4.	0.1	4699.7
7755	5.2727	4.1818	0.1	4696.1
7756	5.2727	4.3636	0.1	4691.9
7757	5.2727	4.5455	0.1	4687.1
7758	5.2727	4.7273	0.1	4681.7
7759	5.2727	4.9091	0.1	4675.8
7760	5.2727	5.0909	0.1	4669.6
7761	5.2727	5.2727	0.1	4663.3
7762	5.2727	5.4545	0.1	4657.2
7763	5.2727	5.6364	0.1	4651.8
7764	5.2727	5.8182	0.1	4647.8
7765	5.4545	0.18182	0.1	4540.1
7766	5.4545	0.36364	0.1	4552.6
7767	5.4545	0.54545	0.1	4567.1
7768	5.4545	0.72727	0.1	4582.8
7769	5.4545	0.90909	0.1	4599.
7770	5.4545	1.0909	0.1	4615.3
7771	5.4545	1.2727	0.1	4631.3
7772	5.4545	1.4545	0.1	4646.5
7773	5.4545	1.6364	0.1	4660.6
7774	5.4545	1.8182	0.1	4673.4
7775	5.4545	2.	0.1	4684.7
7776	5.4545	2.1818	0.1	4694.5
7777	5.4545	2.3636	0.1	4702.6
7778	5.4545	2.5455	0.1	4709.
7779	5.4545	2.7273	0.1	4713.3
7780	5.4545	2.9091	0.1	4715.6
7781	5.4545	3.0909	0.1	4715.6
7782	5.4545	3.2727	0.1	4713.3
7783	5.4545	3.4545	0.1	4709.
7784	5.4545	3.6364	0.1	4702.6
7785	5.4545	3.8182	0.1	4694.5
7786	5.4545	4.	0.1	4684.7
7787	5.4545	4.1818	0.1	4673.4
7788	5.4545	4.3636	0.1	4660.6
7789	5.4545	4.5455	0.1	4646.5
7790	5.4545	4.7273	0.1	4631.3
7791	5.4545	4.9091	0.1	4615.3
7792	5.4545	5.0909	0.1	4599.
7793	5.4545	5.2727	0.1	4582.8
7794	5.4545	5.4545	0.1	4567.1
7795	5.4545	5.6364	0.1	4552.6
7796	5.4545	5.8182	0.1	4540.1
7797	5.6364	0.18182	0.1	4420.7
7798	5.6364	0.36364	0.1	4442.6
7799	5.6364	0.54545	0.1	4467.5
7800	5.6364	0.72727	0.1	4494.3
7801	5.6364	0.90909	0.1	4522.4
7802	5.6364	1.0909	0.1	4551.
7803	5.6364	1.2727	0.1	4579.3
7804	5.6364	1.4545	0.1	4606.6
7805	5.6364	1.6364	0.1	4632.2
7806	5.6364	1.8182	0.1	4655.8
7807	5.6364	2.	0.1	4676.9
7808	5.6364	2.1818	0.1	4695.4
7809	5.6364	2.3636	0.1	4710.8
7810	5.6364	2.5455	0.1	4722.8
7811	5.6364	2.7273	0.1	4731.1
7812	5.6364	2.9091	0.1	4735.4
7813	5.6364	3.0909	0.1	4735.4
7814	5.6364	3.2727	0.1	4731.1
7815	5.6364	3.4545	0.1	4722.8
7816	5.6364	3.6364	0.1	4710.8
7817	5.6364	3.8182	0.1	4695.4
7818	5.6364	4.	0.1	4676.9
7819	5.6364	4.1818	0.1	4655.8
7820	5.6364	4.3636	0.1	4632.2
7821	5.6364	4.5455	0.1	4606.6
7822	5.6364	4.7273	0.1	4579.3
7823	5.6364	4.9091	0.1	4551.
7824	5.6364	5.0909	0.1	4522.4
7825	5.6364	5.2727	0.1	4494.3
7826	5.6364	5.4545	0.1	4467.5
7827	5.6364	5.6364	0.1	4442.6
7828	5.6364	5.8182	0.1	4420.7
7829	5.8182	0.18182	0.1	4286.7
7830	5.8182	0.36364	0.1	4319.1
7831	5.8182	0.54545	0.1	4355.8
7832	5.8182	0.72727	0.1	4395.7
7833	5.8182	0.90909	0.1	4438.
7834	5.8182	1.0909	0.1	4481.6
7835	5.8182	1.2727	0.1	4525.2
7836	5.8182	1.4545	0.1	4567.7
7837	5.8182	1.6364	0.1	4607.9
7838	5.8182	1.8182	0.1	4645.2
7839	5.8182	2.	0.1	4678.8
7840	5.8182	2.1818	0.1	4708.3
7841	5.8182	2.3636	0.1	4733.1
7842	5.8182	2.5455	0.1	4752.6
7843	5.8182	2.7273	0.1	4766.2
7844	5.8182	2.9091	0.1	4773.1
7845	5.8182	3.0909	0.1	4773.1
7846	5.8182	3.2727	0.1	4766.2
7847	5.8182	3.4545	0.1	4752.6
7848	5.8182	3.6364	0.1	4733.1
7849	5.8182	3.8182	0.1	4708.3
7850	5.8182	4.	0.1	4678.8
7851	5.8182	4.1818	0.1	4645.2
7852	5.8182	4.3636	0.1	4607.9
7853	5.8182	4.5455	0.1	4567.7
7854	5.8182	4.7273	0.1	4525.2
7855	5.8182	4.9091	0.1	4481.6
7856	5.8182	5.0909	0.1	4438.
7857	5.8182	5.2727	0.1	4395.7
7858	5.8182	5.4545	0.1	4355.8
7859	5.8182	5.6364	0.1	4319.1
7860	5.8182	5.8182	0.1	4286.7
7861	6.	0.18182	0.1	4134.8
7862	6.	0.36364	0.1	4178.6
7863	6.	0.54545	0.1	4228.8
7864	6.	0.72727	0.1	4284.2
7865	6.	0.90909	0.1	4343.7
7866	6.	1.0909	0.1	4405.9
7867	6.	1.2727	0.1	4468.7
7868	6.	1.4545	0.1	4530.3
7869	6.	1.6364	0.1	4589.1
7870	6.	1.8182	0.1	4643.7
7871	6.	2.	0.1	4693.3
7872	6.	2.1818	0.1	4737.
7873	6.	2.3636	0.1	4774.1
7874	6.	2.5455	0.1	4803.5
7875	6.	2.7273	0.1	4823.9
7876	6.	2.9091	0.1	4834.4
7877	6.	3.0909	0.1	4834.4
7878	6.	3.2727	0.1	4823.9
7879	6.	3.4545	0.1	4803.5
7880	6.	3.6364	0.1	4774.1
7881	6.	3.8182	0.1	4737.
7882	6.	4.	0.1	4693.3
7883	6.	4.1818	0.1	4643.7
7884	6.	4.3636	0.1	4589.
7885	6.	4.5455	0.1	4530.3
7886	6.	4.7273	0.1	4468.7
7887	6.	4.9091	0.1	4405.9
7888	6.	5.0909	0.1	4343.7
7889	6.	5.2727	0.1	4284.2
7890	6.	5.4545	0.1	4228.8
7891	6.	5.6364	0.1	4178.6
7892	6.	5.8182	0.1	4134.8
7893	6.1818	0.18182	0.1	3961.2
7894	6.1818	0.36364	0.1	4017.3
7895	6.1818	0.54545	0.1	4082.7
7896	6.1818	0.72727	0.1	4156.4
7897	6.1818	0.90909	0.1	4237.1
7898	6.1818	1.0909	0.1	4322.3
7899	6.1818	1.2727	0.1	4409.3
7900	6.1818	1.4545	0.1	4495.3
7901	6.1818	1.6364	0.1	4577.7
7902	6.1818	1.8182	0.1	4654.6
7903	6.1818	2.	0.1	4724.6
7904	6.1818	2.1818	0.1	4786.7
7905	6.1818	2.3636	0.1	4839.7
7906	6.1818	2.5455	0.1	4881.9
7907	6.1818	2.7273	0.1	4911.5
7908	6.1818	2.9091	0.1	4926.8
7909	6.1818	3.0909	0.1	4926.8
7910	6.1818	3.2727	0.1	4911.5
7911	6.1818	3.4545	0.1	4881.9
7912	6.1818	3.6364	0.1	4839.7
7913	6.1818	3.8182	0.1	4786.7
7914	6.1818	4.	0.1	4724.6
7915	6.1818	4.1818	0.1	4654.6
7916	6.1818	4.3636	0.1	4577.7
7917	6.1818	4.5455	0.1	4495.3
7918	6.1818	4.7273	0.1	4409.3
7919	6.1818	4.9091	0.1	4322.3
7920	6.1818	5.0909	0.1	4237.1
7921	6.1818	5.2727	0.1	4156.4
7922	6.1818	5.4545	0.1	4082.7
7923	6.1818	5.6364	0.1	4017.3
7924	6.1818	5.8182	0.1	3961.2
7925	6.3636	0.18182	0.1	3761.3
7926	6.3636	0.36364	0.1	3830.3
7927	6.3636	0.54545	0.1	3913.2
7928	6.3636	0.72727	0.1	4008.6
7929	6.3636	0.90909	0.1	4115.
7930	6.3636	1.0909	0.1	4229.3
7931	6.3636	1.2727	0.1	4347.2
7932	6.3636	1.4545	0.1	4464.4
7933	6.3636	1.6364	0.1	4577.
7934	6.3636	1.8182	0.1	4682.3
7935	6.3636	2.	0.1	4778.5
7936	6.3636	2.1818	0.1	4864.2
7937	6.3636	2.3636	0.1	4937.8
7938	6.3636	2.5455	0.1	4996.8
7939	6.3636	2.7273	0.1	5038.4
7940	6.3636	2.9091	0.1	5059.9
7941	6.3636	3.0909	0.1	5059.9
7942	6.3636	3.2727	0.1	5038.4
7943	6.3636	3.4545	0.1	4996.8
7944	6.3636	3.6364	0.1	4937.8
7945	6.3636	3.8182	0.1	4864.2
7946	6.3636	4.	0.1	4778.5
7947	6.3636	4.1818	0.1	4682.3
7948	6.3636	4.3636	0.1	4577.
7949	6.3636	4.5455	0.1	4464.4
7950	6.3636	4.7273	0.1	4347.2
7951	6.3636	4.9091	0.1	4229.3
7952	6.3636	5.0909	0.1	4115.
7953	6.3636	5.2727	0.1	4008.6
7954	6.3636	5.4545	0.1	3913.2
7955	6.3636	5.6364	0.1	3830.3
7956	6.3636	5.8182	0.1	3761.3
7957	6.5455	0.18182	0.1	3530.5
7958	6.5455	0.36364	0.1	3612.6
7959	6.5455	0.54545	0.1	3715.
7960	6.5455	0.72727	0.1	3836.3
7961	6.5455	0.90909	0.1	3974.5
7962	6.5455	1.0909	0.1	4125.3
7963	6.5455	1.2727	0.1	4282.7
7964	6.5455	1.4545	0.1	4440.3
7965	6.5455	1.6364	0.1	4592.
7966	6.5455	1.8182	0.1	4733.8
7967	6.5455	2.	0.1	4863.3
7968	6.5455	2.1818	0.1	4979.2
7969	6.5455	2.3636	0.1	5079.2
7970	6.5455	2.5455	0.1	5159.9
7971	6.5455	2.7273	0.1	5217.
7972	6.5455	2.9091	0.1	5246.6
7973	6.5455	3.0909	0.1	5246.6
7974	6.5455	3.2727	0.1	5217.
7975	6.5455	3.4545	0.1	5159.9
7976	6.5455	3.6364	0.1	5079.2
7977	6.5455	3.8182	0.1	4979.2
7978	6.5455	4.	0.1	4863.3
7979	6.5455	4.1818	0.1	4733.8
7980	6.5455	4.3636	0.1	4592.
7981	6.5455	4.5455	0.1	4440.3
7982	6.5455	4.7273	0.1	4282.7
7983	6.5455	4.9091	0.1	4125.3
7984	6.5455	5.0909	0.1	3974.5
7985	6.5455	5.2727	0.1	3836.3
7986	6.5455	5.4545	0.1	3715.
7987	6.5455	5.6364	0.1	3612.6
7988	6.5455	5.8182	0.1	3530.5
7989	6.7273	0.18182	0.1	3263.7
7990	6.7273	0.36364	0.1	3358.7
7991	6.7273	0.54545	0.1	3483.
7992	6.7273	0.72727	0.1	3635.
7993	6.7273	0.90909	0.1	3812.4
7994	6.7273	1.0909	0.1	4009.5
7995	6.7273	1.2727	0.1	4218.
7996	6.7273	1.4545	0.1	4428.
7997	6.7273	1.6364	0.1	4630.5
7998	6.7273	1.8182	0.1	4819.3
7999	6.7273	2.	0.1	4991.4
8000	6.7273	2.1818	0.1	5145.5
8001	6.7273	2.3636	0.1	5279.1
8002	6.7273	2.5455	0.1	5387.1
8003	6.7273	2.7273	0.1	5463.4
8004	6.7273	2.9091	0.1	5502.8
8005	6.7273	3.0909	0.1	5502.8
8006	6.7273	3.2727	0.1	5463.3
8007	6.7273	3.4545	0.1	5387.1
8008	6.7273	3.6364	0.1	5279.1
8009	6.7273	3.8182	0.1	5145.5
8010	6.7273	4.	0.1	4991.4
8011	6.7273	4.1818	0.1	4819.3
8012	6.7273	4.3636	0.1	4630.5
8013	6.7273	4.5455	0.1	4428.
8014	6.7273	4.7273	0.1	4217.9
8015	6.7273	4.9091	0.1	4009.5
8016	6.7273	5.0909	0.1	3812.4
8017	6.7273	5.2727	0.1	3635.
8018	6.7273	5.4545	0.1	3483.
8019	6.7273	5.6364	0.1	3358.7
8020	6.7273	5.8182	0.1	3263.7
8021	6.9091	0.18182	0.1	2956.4
8022	6.9091	0.36364	0.1	3063.5
8023	6.9091	0.54545	0.1	3212.3
8024	6.9091	0.72727	0.1	3401.
8025	6.9091	0.90909	0.1	3626.8
8026	6.9091	1.0909	0.1	3882.4
8027	6.9091	1.2727	0.1	4156.9
8028	6.9091	1.4545	0.1	4436.1
8029	6.9091	1.6364	0.1	4705.8
8030	6.9091	1.8182	0.1	4955.9
8031	6.9091	2.	0.1	5182.4
8032	6.9091	2.1818	0.1	5384.6
8033	6.9091	2.3636	0.1	5559.5
8034	6.9091	2.5455	0.1	5700.1
8035	6.9091	2.7273	0.1	5798.1
8036	6.9091	2.9091	0.1	5848.2
8037	6.9091	3.0909	0.1	5848.2
8038	6.9091	3.2727	0.1	5798.1
8039	6.9091	3.4545	0.1	5700.1
8040	6.9091	3.6364	0.1	5559.5
8041	6.9091	3.8182	0.1	5384.6
8042	6.9091	4.	0.1	5182.4
8043	6.9091	4.1818	0.1	4955.9
8044	6.9091	4.3636	0.1	4705.8
8045	6.9091	4.5455	0.1	4436.1
8046	6.9091	4.7273	0.1	4156.9
8047	6.9091	4.9091	0.1	3882.4
8048	6.9091	5.0909	0.1	3626.8
8049	6.9091	5.2727	0.1	3401.
8050	6.9091	5.4545	0.1	3212.3
8051	6.9091	5.6364	0.1	3063.5
8052	6.9091	5.8182	0.1	2956.4
8053	7.0909	0.18182	0.1	2604.9
8054	7.0909	0.36364	0.1	2723.1
8055	7.0909	0.54545	0.1	2900.4
8056	7.0909	0.72727	0.1	3133.5
8057	7.0909	0.90909	0.1	3418.6
8058	7.0909	1.0909	0.1	3747.5
8059	7.0909	1.2727	0.1	4107.1
8060	7.0909	1.4545	0.1	4478.7
8061	7.0909	1.6364	0.1	4839.2
8062	7.0909	1.8182	0.1	5171.3
8063	7.0909	2.	0.1	5467.7
8064	7.0909	2.1818	0.1	5729.9
8065	7.0909	2.3636	0.1	5954.3
8066	7.0909	2.5455	0.1	6129.
8067	7.0909	2.7273	0.1	6246.
8068	7.0909	2.9091	0.1	6303.7
8069	7.0909	3.0909	0.1	6303.7
8070	7.0909	3.2727	0.1	6246.
8071	7.0909	3.4545	0.1	6129.
8072	7.0909	3.6364	0.1	5954.3
8073	7.0909	3.8182	0.1	5729.9
8074	7.0909	4.	0.1	5467.7
8075	7.0909	4.1818	0.1	5171.3
8076	7.0909	4.3636	0.1	4839.2
8077	7.0909	4.5455	0.1	4478.7
8078	7.0909	4.7273	0.1	4107.1
8079	7.0909	4.9091	0.1	3747.5
8080	7.0909	5.0909	0.1	3418.6
8081	7.0909	5.2727	0.1	3133.5
8082	7.0909	5.4545	0.1	2900.4
8083	7.0909	5.6364	0.1	2723.1
8084	7.0909	5.8182	0.1	2604.9
8085	7.2727	0.18182	0.1	2207.4
8086	7.2727	0.36364	0.1	2338.1
8087	7.2727	0.54545	0.1	2551.4
8088	7.2727	0.72727	0.1	2839.5
8089	7.2727	0.90909	0.1	3196.4
8090	7.2727	1.0909	0.1	3614.3
8091	7.2727	1.2727	0.1	4081.5
8092	7.2727	1.4545	0.1	4577.6
8093	7.2727	1.6364	0.1	5070.3
8094	7.2727	1.8182	0.1	5517.
8095	7.2727	2.	0.1	5908.4
8096	7.2727	2.1818	0.1	6244.7
8097	7.2727	2.3636	0.1	6517.4
8098	7.2727	2.5455	0.1	6714.7
8099	7.2727	2.7273	0.1	6832.2
8100	7.2727	2.9091	0.1	6884.7
8101	7.2727	3.0909	0.1	6884.7
8102	7.2727	3.2727	0.1	6832.2
8103	7.2727	3.4545	0.1	6714.7
8104	7.2727	3.6364	0.1	6517.4
8105	7.2727	3.8182	0.1	6244.7
8106	7.2727	4.	0.1	5908.4
8107	7.2727	4.1818	0.1	5517.
8108	7.2727	4.3636	0.1	5070.3
8109	7.2727	4.5455	0.1	4577.6
8110	7.2727	4.7273	0.1	4081.5
8111	7.2727	4.9091	0.1	3614.3
8112	7.2727	5.0909	0.1	3196.4
8113	7.2727	5.2727	0.1	2839.5
8114	7.2727	5.4545	0.1	2551.4
8115	7.2727	5.6364	0.1	2338.1
8116	7.2727	5.8182	0.1	2207.4
8117	7.4545	0.18182	0.1	1765.5
8118	7.4545	0.36364	0.1	1917.8
8119	7.4545	0.54545	0.1	2183.7
8120	7.4545	0.72727	0.1	2542.
8121	7.4545	0.90909	0.1	2982.3
8122	7.4545	1.0909	0.1	3501.2
8123	7.4545	1.2727	0.1	4097.5
8124	7.4545	1.4545	0.1	4765.6
8125	7.4545	1.6364	0.1	5452.3
8126	7.4545	1.8182	0.1	6087.6
8127	7.4545	2.	0.1	6617.
8128	7.4545	2.1818	0.1	7032.3
8129	7.4545	2.3636	0.1	7345.8
8130	7.4545	2.5455	0.1	7506.4
8131	7.4545	2.7273	0.1	7567.5
8132	7.4545	2.9091	0.1	7583.3
8133	7.4545	3.0909	0.1	7583.3
8134	7.4545	3.2727	0.1	7567.5
8135	7.4545	3.4545	0.1	7506.4
8136	7.4545	3.6364	0.1	7345.8
8137	7.4545	3.8182	0.1	7032.3
8138	7.4545	4.	0.1	6617.
8139	7.4545	4.1818	0.1	6087.6
8140	7.4545	4.3636	0.1	5452.3
8141	7.4545	4.5455	0.1	4765.6
8142	7.4545	4.7273	0.1	4097.5
8143	7.4545	4.9091	0.1	3501.2
8144	7.4545	5.0909	0.1	2982.3
8145	7.4545	5.2727	0.1	2542.
8146	7.4545	5.4545	0.1	2183.7
8147	7.4545	5.6364	0.1	1917.8
8148	7.4545	5.8182	0.1	1765.5
8149	7.6364	0.18182	0.1	1289.7
8150	7.6364	0.36364	0.1	1499.6
8151	7.6364	0.54545	0.1	1852.5
8152	7.6364	0.72727	0.1	2298.5
8153	7.6364	0.90909	0.1	2827.
8154	7.6364	1.0909	0.1	3447.7
8155	7.6364	1.2727	0.1	4186.9
8156	7.6364	1.4545	0.1	5064.3
8157	7.6364	1.6364	0.1	6112.2
8158	7.6364	1.8182	0.1	7199.8
8159	7.6364	2.	0.1	7902.3
8160	7.6364	2.1818	0.1	8435.5
8161	7.6364	2.3636	0.1	8587.1
8162	7.6364	2.5455	0.1	8530.9
8163	7.6364	2.7273	0.1	8411.1
8164	7.6364	2.9091	0.1	8337.1
8165	7.6364	3.0909	0.1	8337.1
8166	7.6364	3.2727	0.1	8411.1
8167	7.6364	3.4545	0.1	8530.9
8168	7.6364	3.6364	0.1	8587.1
8169	7.6364	3.8182	0.1	8435.5
8170	7.6364	4.	0.1	7902.3
8171	7.6364	4.1818	0.1	7199.8
8172	7.6364	4.3636	0.1	6112.2
8173	7.6364	4.5455	0.1	5064.3
8174	7.6364	4.7273	0.1	4186.9
8175	7.6364	4.9091	0.1	3447.7
8176	7.6364	5.0909	0.1	2827.
8177	7.6364	5.2727	0.1	2298.5
8178	7.6364	5.4545	0.1	1852.5
8179	7.6364	5.6364	0.1	1499.6
8180	7.6364	5.8182	0.1	1289.7
8181	7.8182	0.18182	0.1	848.79
8182	7.8182	0.36364	0.1	1244.2
8183	7.8182	0.54545	0.1	1741.6
8184	7.8182	0.72727	0.1	2299.7
8185	7.8182	0.90909	0.1	2932.1
8186	7.8182	1.0909	0.1	3670.6
8187	7.8182	1.2727	0.1	4572.
8188	7.8182	1.4545	0.1	5736.6
8189	7.8182	1.6364	0.1	7399.
8190	7.8182	1.8182	0.1	9850.9
8191	7.8182	2.	0.1	11718
8192	7.8182	2.1818	0.1	11090
8193	7.8182	2.3636	0.1	10392
8194	7.8182	2.5455	0.1	9642.3
8195	7.8182	2.7273	0.1	9206.2
8196	7.8182	2.9091	0.1	8999.3
8197	7.8182	3.0909	0.1	8999.3
8198	7.8182	3.2727	0.1	9206.2
8199	7.8182	3.4545	0.1	9642.3
8200	7.8182	3.6364	0.1	10392
8201	7.8182	3.8182	0.1	11090
8202	7.8182	4.	0.1	11718
8203	7.8182	4.1818	0.1	9850.9
8204	7.8182	4.3636	0.1	7399.
8205	7.8182	4.5455	0.1	5736.6
8206	7.8182	4.7273	0.1	4572.
8207	7.8182	4.9091	0.1	3670.6
8208	7.8182	5.0909	0.1	2932.1
8209	7.8182	5.2727	0.1	2299.7
8210	7.8182	5.4545	0.1	1741.6
8211	7.8182	5.6364	0.1	1244.2
8212	7.8182	5.8182	0.1	848.79
8213	8.1667	3.8182	0.1	14715
8214	8.1667	3.6364	0.1	11729
8215	8.1667	3.4545	0.1	10333
8216	8.1667	3.2727	0.1	9611.7
8217	8.1667	3.0909	0.1	9303.3
8218	8.1667	2.9091	0.1	9303.3
8219	8.1667	2.7273	0.1	9611.7
8220	8.1667	2.5455	0.1	10333
8221	8.1667	2.3636	0.1	11729
8222	8.1667	2.1818	0.1	14715
8223	8.	3.8182	0.1	14883
8224	8.	3.6364	0.1	11789
8225	8.	3.4545	0.1	10395
8226	8.	3.2727	0.1	9672.4
8227	8.	3.0909	0.1	9364.
8228	8.	2.9091	0.1	9364.
8229	8.	2.7273	0.1	9672.4
8230	8.	2.5455	0.1	10395
8231	8.	2.3636	0.1	11789
8232	8.	2.1818	0.1	14883
8233	8.1667	5.8182	0.1	405.36
8234	8.1667	5.6364	0.1	743.58
8235	8.1667	5.4545	0.1	1064.1
8236	8.1667	5.2727	0.1	1403.6
8237	8.1667	5.0909	0.1	1784.5
8238	8.1667	4.9091	0.1	2234.9
8239	8.1667	4.7273	0.1	2799.2
8240	8.1667	4.5455	0.1	3584.5
8241	8.1667	4.3636	0.1	4573.2
8242	8.1667	4.1818	0.1	7978.8
8243	8.1667	4.	0.1	21135
8244	8.	4.	0.1	21947
8245	8.	4.1818	0.1	8707.4
8246	8.	4.3636	0.1	5038.5
8247	8.	4.5455	0.1	3972.2
8248	8.	4.7273	0.1	3122.
8249	8.	4.9091	0.1	2505.7
8250	8.	5.0909	0.1	2008.1
8251	8.	5.2727	0.1	1583.6
8252	8.	5.4545	0.1	1202.4
8253	8.	5.6364	0.1	841.34
8254	8.	5.8182	0.1	460.17
8255	8.1667	0.18182	0.1	405.36
8256	8.1667	0.36364	0.1	743.58
8257	8.1667	0.54545	0.1	1064.1
8258	8.1667	0.72727	0.1	1403.6
8259	8.1667	0.90909	0.1	1784.5
8260	8.1667	1.0909	0.1	2234.9
8261	8.1667	1.2727	0.1	2799.2
8262	8.1667	1.4545	0.1	3584.5
8263	8.1667	1.6364	0.1	4573.2
8264	8.1667	1.8182	0.1	7978.8
8265	8.1667	2.	0.1	21135
8266	8.	2.	0.1	21947
8267	8.	1.8182	0.1	8707.4
8268	8.	1.6364	0.1	5038.5
8269	8.	1.4545	0.1	3972.2
8270	8.	1.2727	0.1	3122.
8271	8.	1.0909	0.1	2505.7
8272	8.	0.90909	0.1	2008.1
8273	8.	0.72727	0.1	1583.6
8274	8.	0.54545	0.1	1202.4
8275	8.	0.36364	0.1	841.34
8276	8.	0.18182	0.1	460.17
8277	8.1667	6.	0.1	51.333
8278	8.3508	6.	0.1	487.75
8279	8.5349	6.	0.1	950.05
8280	8.719	6.	0.1	1353.6
8281	8.9031	6.	0.1	1707.3
8282	9.0872	6.	0.1	2009.9
8283	9.2713	6.	0.1	2262.2
8284	9.4554	6.	0.1	2467.1
8285	9.6395	6.	0.1	2629.
8286	9.8236	6.	0.1	2752.9
8287	10.008	6.	0.1	2844.3
8288	10.192	6.	0.1	2908.4
8289	10.376	6.	0.1	2949.7
8290	10.56	6.	0.1	2972.3
8291	10.744	6.	0.1	2979.9
8292	10.928	6.	0.1	2975.3
8293	11.112	6.	0.1	2960.9
8294	11.297	6.	0.1	2938.8
8295	11.481	6.	0.1	2910.6
8296	11.665	6.	0.1	2877.6
8297	11.849	6.	0.1	2840.8
8298	12.033	6.	0.1	2801.1
8299	12.217	6.	0.1	2759.1
8300	12.401	6.	0.1	2715.5
8301	12.585	6.	0.1	2670.5
8302	12.769	6.	0.1	2624.6
8303	12.953	6.	0.1	2578.1
8304	13.138	6.	0.1	2531.
8305	13.322	6.	0.1	2483.7
8306	13.506	6.	0.1	2436.1
8307	13.69	6.	0.1	2388.5
8308	13.874	6.	0.1	2340.8
8309	14.058	6.	0.1	2293.2
8310	14.242	6.	0.1	2245.6
8311	14.426	6.	0.1	2198.2
8312	14.61	6.	0.1	2151.
8313	14.795	6.	0.1	2103.9
8314	14.979	6.	0.1	2057.
8315	15.163	6.	0.1	2010.3
8316	15.347	6.	0.1	1963.8
8317	15.531	6.	0.1	1917.4
8318	15.715	6.	0.1	1871.4
8319	15.899	6.	0.1	1825.5
8320	16.083	6.	0.1	1779.8
8321	16.267	6.	0.1	1734.3
8322	16.452	6.	0.1	1689.1
8323	16.636	6.	0.1	1644.
8324	16.82	6.	0.1	1599.2
8325	17.004	6.	0.1	1554.6
8326	17.188	6.	0.1	1510.2
8327	17.372	6.	0.1	1466.
8328	17.556	6.	0.1	1422.
8329	17.74	6.	0.1	1378.2
8330	17.924	6.	0.1	1334.6
8331	18.109	6.	0.1	1291.1
8332	18.293	6.	0.1	1247.9
8333	18.477	6.	0.1	1204.9
8334	18.661	6.	0.1	1162.1
8335	18.845	6.	0.1	1119.4
8336	19.029	6.	0.1	1076.9
8337	19.213	6.	0.1	1034.6
8338	19.397	6.	0.1	992.52
8339	19.581	6.	0.1	950.58
8340	19.766	6.	0.1	908.82
8341	19.95	6.	0.1	867.22
8342	20.134	6.	0.1	825.78
8343	20.318	6.	0.1	784.51
8344	20.502	6.	0.1	743.4
8345	20.686	6.	0.1	702.44
8346	20.87	6.	0.1	661.65
8347	21.054	6.	0.1	621.
8348	21.238	6.	0.1	580.51
8349	21.422	6.	0.1	540.17
8350	21.607	6.	0.1	499.99
8351	21.791	6.	0.1	459.96
8352	21.975	6.	0.1	420.11
8353	22.159	6.	0.1	380.43
8354	22.343	6.	0.1	340.94
8355	22.527	6.	0.1	301.68
8356	22.711	6.	0.1	262.66
8357	22.895	6.	0.1	223.95
8358	23.079	6.	0.1	185.62
8359	23.264	6.	0.1	147.8
8360	23.448	6.	0.1	110.67
8361	23.632	6.	0.1	74.707
8362	23.816	6.	0.1	40.025
8363	24.	6.	0.1	9.4611
8364	24.	5.8182	0.1	39.566
8365	24.	5.6364	0.1	66.783
8366	24.	5.4545	0.1	87.729
8367	24.	5.2727	0.1	105.17
8368	24.	5.0909	0.1	120.03
8369	24.	4.9091	0.1	132.84
8370	24.	4.7273	0.1	143.93
8371	24.	4.5455	0.1	153.53
8372	24.	4.3636	0.1	161.79
8373	24.	4.1818	0.1	168.82
8374	24.	4.	0.1	174.72
8375	24.	3.8182	0.1	179.55
8376	24.	3.6364	0.1	183.36
8377	24.	3.4545	0.1	186.19
8378	24.	3.2727	0.1	188.06
8379	24.	3.0909	0.1	189.
8380	24.	2.9091	0.1	189.
8381	24.	2.7273	0.1	188.06
8382	24.	2.5455	0.1	186.19
8383	24.	2.3636	0.1	183.36
8384	24.	2.1818	0.1	179.55
8385	24.	2.	0.1	174.72
8386	24.	1.8182	0.1	168.82
8387	24.	1.6364	0.1	161.79
8388	24.	1.4545	0.1	153.53
8389	24.	1.2727	0.1	143.93
8390	24.	1.0909	0.1	132.84
8391	24.	0.90909	0.1	120.03
8392	24.	0.72727	0.1	105.17
8393	24.	0.54545	0.1	87.729
8394	24.	0.36364	0.1	66.783
8395	24.	0.18182	0.1	39.566
8396	1.5894e-015	0.18182	0.1	1376.1
8397	3.1789e-015	0.36364	0.1	2365.4
8398	4.7683e-015	0.54545	0.1	2884.9
8399	6.3578e-015	0.72727	0.1	3213.4
8400	7.9472e-015	0.90909	0.1	3432.7
8401	9.5366e-015	1.0909	0.1	3589.1
8402	1.1126e-014	1.2727	0.1	3704.8
8403	1.2716e-014	1.4545	0.1	3792.5
8404	1.4305e-014	1.6364	0.1	3859.9
8405	1.5894e-014	1.8182	0.1	3912.1
8406	1.7484e-014	2.	0.1	3952.5
8407	1.9073e-014	2.1818	0.1	3983.5
8408	2.0663e-014	2.3636	0.1	4006.7
8409	2.2252e-014	2.5455	0.1	4023.2
8410	2.3842e-014	2.7273	0.1	4033.8
8411	2.5431e-014	2.9091	0.1	4039.
8412	2.702e-014	3.0909	0.1	4039.
8413	2.861e-014	3.2727	0.1	4033.8
8414	3.0199e-014	3.4545	0.1	4023.2
8415	3.1789e-014	3.6364	0.1	4006.7
8416	3.3378e-014	3.8182	0.1	3983.5
8417	3.4968e-014	4.	0.1	3952.5
8418	3.6557e-014	4.1818	0.1	3912.1
8419	3.8147e-014	4.3636	0.1	3859.9
8420	3.9736e-014	4.5455	0.1	3792.5
8421	4.1325e-014	4.7273	0.1	3704.8
8422	4.2915e-014	4.9091	0.1	3589.1
8423	4.4504e-014	5.0909	0.1	3432.7
8424	4.6094e-014	5.2727	0.1	3213.4
8425	4.7683e-014	5.4545	0.1	2884.9
8426	4.9273e-014	5.6364	0.1	2365.4
8427	5.0862e-014	5.8182	0.1	1376.1
8428	24.	0.	0.1	9.4611
8429	23.816	0.	0.1	40.025
8430	23.632	0.	0.1	74.707
8431	23.448	0.	0.1	110.67
8432	23.264	0.	0.1	147.8
8433	23.079	0.	0.1	185.62
8434	22.895	0.	0.1	223.95
8435	22.711	0.	0.1	262.66
8436	22.527	0.	0.1	301.67
8437	22.343	0.	0.1	340.94
8438	22.159	0.	0.1	380.43
8439	21.975	0.	0.1	420.11
8440	21.791	0.	0.1	459.96
8441	21.607	0.	0.1	499.99
8442	21.422	0.	0.1	540.17
8443	21.238	0.	0.1	580.51
8444	21.054	0.	0.1	621.
8445	20.87	0.	0.1	661.65
8446	20.686	0.	0.1	702.44
8447	20.502	0.	0.1	743.4
8448	20.318	0.	0.1	784.51
8449	20.134	0.	0.1	825.78
8450	19.95	0.	0.1	867.22
8451	19.766	0.	0.1	908.82
8452	19.581	0.	0.1	950.58
8453	19.397	0.	0.1	992.52
8454	19.213	0.	0.1	1034.6
8455	19.029	0.	0.1	1076.9
8456	18.845	0.	0.1	1119.4
8457	18.661	0.	0.1	1162.1
8458	18.477	0.	0.1	1204.9
8459	18.293	0.	0.1	1247.9
8460	18.109	0.	0.1	1291.1
8461	17.924	0.	0.1	1334.6
8462	17.74	0.	0.1	1378.2
8463	17.556	0.	0.1	1422.
8464	17.372	0.	0.1	1466.
8465	17.188	0.	0.1	1510.2
8466	17.004	0.	0.1	1554.6
8467	16.82	0.	0.1	1599.2
8468	16.636	0.	0.1	1644.
8469	16.452	0.	0.1	1689.1
8470	16.267	0.	0.1	1734.3
8471	16.083	0.	0.1	1779.8
8472	15.899	0.	0.1	1825.5
8473	15.715	0.	0.1	1871.4
8474	15.531	0.	0.1	1917.4
8475	15.347	0.	0.1	1963.8
8476	15.163	0.	0.1	2010.3
8477	14.979	0.	0.1	2057.
8478	14.795	0.	0.1	2103.9
8479	14.61	0.	0.1	2151.
8480	14.426	0.	0.1	2198.2
8481	14.242	0.	0.1	2245.6
8482	14.058	0.	0.1	2293.2
8483	13.874	0.	0.1	2340.8
8484	13.69	0.	0.1	2388.5
8485	13.506	0.	0.1	2436.1
8486	13.322	0.	0.1	2483.7
8487	13.138	0.	0.1	2531.
8488	12.953	0.	0.1	2578.1
8489	12.769	0.	0.1	2624.6
8490	12.585	0.	0.1	2670.5
8491	12.401	0.	0.1	2715.5
8492	12.217	0.	0.1	2759.1
8493	12.033	0.	0.1	2801.1
8494	11.849	0.	0.1	2840.8
8495	11.665	0.	0.1	2877.6
8496	11.481	0.	0.1	2910.6
8497	11.297	0.	0.1	2938.8
8498	11.112	0.	0.1	2960.9
8499	10.928	0.	0.1	2975.3
8500	10.744	0.	0.1	2979.9
8501	10.56	0.	0.1	2972.3
8502	10.376	0.	0.1	2949.7
8503	10.192	0.	0.1	2908.4
8504	10.008	0.	0.1	2844.3
8505	9.8236	0.	0.1	2752.9
8506	9.6395	0.	0.1	2629.
8507	9.4554	0.	0.1	2467.1
8508	9.2713	0.	0.1	2262.2
8509	9.0872	0.	0.1	2009.9
8510	8.9031	0.	0.1	1707.3
8511	8.719	0.	0.1	1353.6
8512	8.5349	0.	0.1	950.05
8513	8.3508	0.	0.1	487.75
8514	8.1667	0.	0.1	51.333
8515	8.	0.	0.1	57.957
8516	7.8182	-3.0826e-030	0.1	564.04
8517	7.6364	-3.0109e-030	0.1	1118.7
8518	7.4545	-2.9392e-030	0.1	1620.5
8519	7.2727	-2.8675e-030	0.1	2078.9
8520	7.0909	-2.7958e-030	0.1	2491.7
8521	6.9091	-2.7242e-030	0.1	2858.3
8522	6.7273	-2.6525e-030	0.1	3180.2
8523	6.5455	-2.5808e-030	0.1	3460.8
8524	6.3636	-2.5091e-030	0.1	3704.4
8525	6.1818	-2.4374e-030	0.1	3915.8
8526	6.	-2.3657e-030	0.1	4099.8
8527	5.8182	-2.294e-030	0.1	4260.9
8528	5.6364	-2.2223e-030	0.1	4403.
8529	5.4545	-2.1506e-030	0.1	4529.7
8530	5.2727	-2.079e-030	0.1	4643.8
8531	5.0909	-2.0073e-030	0.1	4748.
8532	4.9091	-1.9356e-030	0.1	4844.2
8533	4.7273	-1.8639e-030	0.1	4934.1
8534	4.5455	-1.7922e-030	0.1	5019.1
8535	4.3636	-1.7205e-030	0.1	5100.3
8536	4.1818	-1.6488e-030	0.1	5178.6
8537	4.	-1.5771e-030	0.1	5254.5
8538	3.8182	-1.5055e-030	0.1	5328.7
8539	3.6364	-1.4338e-030	0.1	5401.5
8540	3.4545	-1.3621e-030	0.1	5473.
8541	3.2727	-1.2904e-030	0.1	5543.4
8542	3.0909	-1.2187e-030	0.1	5612.6
8543	2.9091	-1.147e-030	0.1	5680.4
8544	2.7273	-1.0753e-030	0.1	5746.4
8545	2.5455	-1.0036e-030	0.1	5810.1
8546	2.3636	-9.3195e-031	0.1	5870.5
8547	2.1818	-8.6026e-031	0.1	5926.5
8548	2.	-7.8857e-031	0.1	5976.5
8549	1.8182	-7.1688e-031	0.1	6018.1
8550	1.6364	-6.4519e-031	0.1	6048.2
8551	1.4545	-5.7351e-031	0.1	6062.1
8552	1.2727	-5.0182e-031	0.1	6053.2
8553	1.0909	-4.3013e-031	0.1	6011.
8554	0.90909	-3.5844e-031	0.1	5919.3
8555	0.72727	-2.8675e-031	0.1	5749.7
8556	0.54545	-2.1506e-031	0.1	5446.9
8557	0.36364	-1.4338e-031	0.1	4912.9
8558	0.18182	-7.1688e-032	0.1	3773.3
8559	0.	0.	0.1	2246.2
8560	3.937e-014	6.	0.1	2246.2
8561	0.18182	6.	0.1	3773.3
8562	0.36364	6.	0.1	4912.9
8563	0.54545	6.	0.1	5446.9
8564	0.72727	6.	0.1	5749.7
8565	0.90909	6.	0.1	5919.3
8566	1.0909	6.	0.1	6011.
8567	1.2727	6.	0.1	6053.2
8568	1.4545	6.	0.1	6062.1
8569	1.6364	6.	0.1	6048.2
8570	1.8182	6.	0.1	6018.1
8571	2.	6.	0.1	5976.5
8572	2.1818	6.	0.1	5926.5
8573	2.3636	6.	0.1	5870.5
8574	2.5455	6.	0.1	5810.1
8575	2.7273	6.	0.1	5746.4
8576	2.9091	6.	0.1	5680.4
8577	3.0909	6.	0.1	5612.6
8578	3.2727	6.	0.1	5543.4
8579	3.4545	6.	0.1	5473.
8580	3.6364	6.	0.1	5401.5
8581	3.8182	6.	0.1	5328.7
8582	4.	6.	0.1	5254.5
8583	4.1818	6.	0.1	5178.6
8584	4.3636	6.	0.1	5100.3
8585	4.5455	6.	0.1	5019.1
8586	4.7273	6.	0.1	4934.1
8587	4.9091	6.	0.1	4844.2
8588	5.0909	6.	0.1	4748.
8589	5.2727	6.	0.1	4643.8
8590	5.4545	6.	0.1	4529.7
8591	5.6364	6.	0.1	4403.
8592	5.8182	6.	0.1	4260.9
8593	6.	6.	0.1	4099.8
8594	6.1818	6.	0.1	3915.8
8595	6.3636	6.	0.1	3704.4
8596	6.5455	6.	0.1	3460.8
8597	6.7273	6.	0.1	3180.2
8598	6.9091	6.	0.1	2858.3
8599	7.0909	6.	0.1	2491.7
8600	7.2727	6.	0.1	2079.
8601	7.4545	6.	0.1	1620.5
8602	7.6364	6.	0.1	1118.7
8603	7.8182	6.	0.1	564.04
8604	8.	6.	0.1	57.957
8605	7.8182	6.	0.	564.04
8606	7.6364	6.	0.	1118.7
8607	7.4545	6.	0.	1620.5
8608	7.2727	6.	0.	2079.
8609	7.0909	6.	0.	2491.7
8610	6.9091	6.	0.	2858.3
8611	6.7273	6.	0.	3180.2
8612	6.5455	6.	0.	3460.8
8613	6.3636	6.	0.	3704.4
8614	6.1818	6.	0.	3915.8
8615	6.	6.	0.	4099.8
8616	5.8182	6.	0.	4260.9
8617	5.6364	6.	0.	4403.
8618	5.4545	6.	0.	4529.7
8619	5.2727	6.	0.	4643.8
8620	5.0909	6.	0.	4748.
8621	4.9091	6.	0.	4844.2
8622	4.7273	6.	0.	4934.1
8623	4.5455	6.	0.	5019.1
8624	4.3636	6.	0.	5100.3
8625	4.1818	6.	0.	5178.6
8626	4.	6.	0.	5254.5
8627	3.8182	6.	0.	5328.7
8628	3.6364	6.	0.	5401.5
8629	3.4545	6.	0.	5473.
8630	3.2727	6.	0.	5543.4
8631	3.0909	6.	0.	5612.6
8632	2.9091	6.	0.	5680.4
8633	2.7273	6.	0.	5746.4
8634	2.5455	6.	0.	5810.1
8635	2.3636	6.	0.	5870.5
8636	2.1818	6.	0.	5926.5
8637	2.	6.	0.	5976.5
8638	1.8182	6.	0.	6018.1
8639	1.6364	6.	0.	6048.2
8640	1.4545	6.	0.	6062.1
8641	1.2727	6.	0.	6053.2
8642	1.0909	6.	0.	6011.
8643	0.90909	6.	0.	5919.3
8644	0.72727	6.	0.	5749.7
8645	0.54545	6.	0.	5446.9
8646	0.36364	6.	0.	4912.9
8647	0.18182	6.	0.	3773.3
8648	8.	6.	0.	57.957
8649	3.937e-014	6.	0.	2246.2
8650	0.18182	-7.1688e-032	0.	3773.3
8651	0.36364	-1.4338e-031	0.	4912.9
8652	0.54545	-2.1506e-031	0.	5446.9
8653	0.72727	-2.8675e-031	0.	5749.7
8654	0.90909	-3.5844e-031	0.	5919.3
8655	1.0909	-4.3013e-031	0.	6011.
8656	1.2727	-5.0182e-031	0.	6053.2
8657	1.4545	-5.7351e-031	0.	6062.1
8658	1.6364	-6.4519e-031	0.	6048.2
8659	1.8182	-7.1688e-031	0.	6018.1
8660	2.	-7.8857e-031	0.	5976.5
8661	2.1818	-8.6026e-031	0.	5926.5
8662	2.3636	-9.3195e-031	0.	5870.5
8663	2.5455	-1.0036e-030	0.	5810.1
8664	2.7273	-1.0753e-030	0.	5746.4
8665	2.9091	-1.147e-030	0.	5680.4
8666	3.0909	-1.2187e-030	0.	5612.6
8667	3.2727	-1.2904e-030	0.	5543.4
8668	3.4545	-1.3621e-030	0.	5473.
8669	3.6364	-1.4338e-030	0.	5401.5
8670	3.8182	-1.5055e-030	0.	5328.7
8671	4.	-1.5771e-030	0.	5254.5
8672	4.1818	-1.6488e-030	0.	5178.6
8673	4.3636	-1.7205e-030	0.	5100.3
8674	4.5455	-1.7922e-030	0.	5019.1
8675	4.7273	-1.8639e-030	0.	4934.1
8676	4.9091	-1.9356e-030	0.	4844.2
8677	5.0909	-2.0073e-030	0.	4748.
8678	5.2727	-2.079e-030	0.	4643.8
8679	5.4545	-2.1506e-030	0.	4529.7
8680	5.6364	-2.2223e-030	0.	4403.
8681	5.8182	-2.294e-030	0.	4260.9
8682	6.	-2.3657e-030	0.	4099.8
8683	6.1818	-2.4374e-030	0.	3915.8
8684	6.3636	-2.5091e-030	0.	3704.4
8685	6.5455	-2.5808e-030	0.	3460.8
8686	6.7273	-2.6525e-030	0.	3180.2
8687	6.9091	-2.7242e-030	0.	2858.3
8688	7.0909	-2.7958e-030	0.	2491.7
8689	7.2727	-2.8675e-030	0.	2078.9
8690	7.4545	-2.9392e-030	0.	1620.5
8691	7.6364	-3.0109e-030	0.	1118.7
8692	7.8182	-3.0826e-030	0.	564.04
8693	8.	0.	0.	57.957
8694	0.	0.	0.	2246.2
8695	8.3508	0.	0.	487.75
8696	8.5349	0.	0.	950.05
8697	8.719	0.	0.	1353.6
8698	8.9031	0.	0.	1707.3
8699	9.0872	0.	0.	2009.9
8700	9.2713	0.	0.	2262.2
8701	9.4554	0.	0.	2467.1
8702	9.6395	0.	0.	2629.
8703	9.8236	0.	0.	2752.9
8704	10.008	0.	0.	2844.3
8705	10.192	0.	0.	2908.4
8706	10.376	0.	0.	2949.7
8707	10.56	0.	0.	2972.3
8708	10.744	0.	0.	2979.9
8709	10.928	0.	0.	2975.3
8710	11.112	0.	0.	2960.9
8711	11.297	0.	0.	2938.8
8712	11.481	0.	0.	2910.6
8713	11.665	0.	0.	2877.6
8714	11.849	0.	0.	2840.8
8715	12.033	0.	0.	2801.1
8716	12.217	0.	0.	2759.1
8717	12.401	0.	0.	2715.5
8718	12.585	0.	0.	2670.5
8719	12.769	0.	0.	2624.6
8720	12.953	0.	0.	2578.1
8721	13.138	0.	0.	2531.
8722	13.322	0.	0.	2483.7
8723	13.506	0.	0.	2436.1
8724	13.69	0.	0.	2388.5
8725	13.874	0.	0.	2340.8
8726	14.058	0.	0.	2293.2
8727	14.242	0.	0.	2245.6
8728	14.426	0.	0.	2198.2
8729	14.61	0.	0.	2151.
8730	14.795	0.	0.	2103.9
8731	14.979	0.	0.	2057.
8732	15.163	0.	0.	2010.3
8733	15.347	0.	0.	1963.8
8734	15.531	0.	0.	1917.4
8735	15.715	0.	0.	1871.4
8736	15.899	0.	0.	1825.5
8737	16.083	0.	0.	1779.8
8738	16.267	0.	0.	1734.3
8739	16.452	0.	0.	1689.1
8740	16.636	0.	0.	1644.
8741	16.82	0.	0.	1599.2
8742	17.004	0.	0.	1554.6
8743	17.188	0.	0.	1510.2
8744	17.372	0.	0.	1466.
8745	17.556	0.	0.	1422.
8746	17.74	0.	0.	1378.2
8747	17.924	0.	0.	1334.6
8748	18.109	0.	0.	1291.1
8749	18.293	0.	0.	1247.9
8750	18.477	0.	0.	1204.9
8751	18.661	0.	0.	1162.1
8752	18.845	0.	0.	1119.4
8753	19.029	0.	0.	1076.9
8754	19.213	0.	0.	1034.6
8755	19.397	0.	0.	992.52
8756	19.581	0.	0.	950.58
8757	19.766	0.	0.	908.82
8758	19.95	0.	0.	867.22
8759	20.134	0.	0.	825.78
8760	20.318	0.	0.	784.51
8761	20.502	0.	0.	743.4
8762	20.686	0.	0.	702.44
8763	20.87	0.	0.	661.65
8764	21.054	0.	0.	621.
8765	21.238	0.	0.	580.51
8766	21.422	0.	0.	540.17
8767	21.607	0.	0.	499.99
8768	21.791	0.	0.	459.96
8769	21.975	0.	0.	420.11
8770	22.159	0.	0.	380.43
8771	22.343	0.	0.	340.94
8772	22.527	0.	0.	301.67
8773	22.711	0.	0.	262.66
8774	22.895	0.	0.	223.95
8775	23.079	0.	0.	185.62
8776	23.264	0.	0.	147.8
8777	23.448	0.	0.	110.67
8778	23.632	0.	0.	74.707
8779	23.816	0.	0.	40.025
8780	8.1667	0.	0.	51.333
8781	24.	0.	0.	9.4611
8782	5.0862e-014	5.8182	0.	1376.1
8783	4.9273e-014	5.6364	0.	2365.4
8784	4.7683e-014	5.4545	0.	2884.9
8785	4.6094e-014	5.2727	0.	3213.4
8786	4.4504e-014	5.0909	0.	3432.7
8787	4.2915e-014	4.9091	0.	3589.1
8788	4.1325e-014	4.7273	0.	3704.8
8789	3.9736e-014	4.5455	0.	3792.5
8790	3.8147e-014	4.3636	0.	3859.9
8791	3.6557e-014	4.1818	0.	3912.1
8792	3.4968e-014	4.	0.	3952.5
8793	3.3378e-014	3.8182	0.	3983.5
8794	3.1789e-014	3.6364	0.	4006.7
8795	3.0199e-014	3.4545	0.	4023.2
8796	2.861e-014	3.2727	0.	4033.8
8797	2.702e-014	3.0909	0.	4039.
8798	2.5431e-014	2.9091	0.	4039.
8799	2.3842e-014	2.7273	0.	4033.8
8800	2.2252e-014	2.5455	0.	4023.2
8801	2.0663e-014	2.3636	0.	4006.7
8802	1.9073e-014	2.1818	0.	3983.5
8803	1.7484e-014	2.	0.	3952.5
8804	1.5894e-014	1.8182	0.	3912.1
8805	1.4305e-014	1.6364	0.	3859.9
8806	1.2716e-014	1.4545	0.	3792.5
8807	1.1126e-014	1.2727	0.	3704.8
8808	9.5366e-015	1.0909	0.	3589.1
8809	7.9472e-015	0.90909	0.	3432.7
8810	6.3578e-015	0.72727	0.	3213.4
8811	4.7683e-015	0.54545	0.	2884.9
8812	3.1789e-015	0.36364	0.	2365.4
8813	1.5894e-015	0.18182	0.	1376.1
8814	24.	0.18182	0.	39.566
8815	24.	0.36364	0.	66.783
8816	24.	0.54545	0.	87.729
8817	24.	0.72727	0.	105.17
8818	24.	0.90909	0.	120.03
8819	24.	1.0909	0.	132.84
8820	24.	1.2727	0.	143.93
8821	24.	1.4545	0.	153.53
8822	24.	1.6364	0.	161.79
8823	24.	1.8182	0.	168.82
8824	24.	2.	0.	174.72
8825	24.	2.1818	0.	179.55
8826	24.	2.3636	0.	183.36
8827	24.	2.5455	0.	186.19
8828	24.	2.7273	0.	188.06
8829	24.	2.9091	0.	189.
8830	24.	3.0909	0.	189.
8831	24.	3.2727	0.	188.06
8832	24.	3.4545	0.	186.19
8833	24.	3.6364	0.	183.36
8834	24.	3.8182	0.	179.55
8835	24.	4.	0.	174.72
8836	24.	4.1818	0.	168.82
8837	24.	4.3636	0.	161.79
8838	24.	4.5455	0.	153.53
8839	24.	4.7273	0.	143.93
8840	24.	4.9091	0.	132.84
8841	24.	5.0909	0.	120.03
8842	24.	5.2727	0.	105.17
8843	24.	5.4545	0.	87.729
8844	24.	5.6364	0.	66.783
8845	24.	5.8182	0.	39.566
8846	24.	6.	0.	9.4611
8847	23.816	6.	0.	40.025
8848	23.632	6.	0.	74.707
8849	23.448	6.	0.	110.67
8850	23.264	6.	0.	147.8
8851	23.079	6.	0.	185.62
8852	22.895	6.	0.	223.95
8853	22.711	6.	0.	262.66
8854	22.527	6.	0.	301.68
8855	22.343	6.	0.	340.94
8856	22.159	6.	0.	380.43
8857	21.975	6.	0.	420.11
8858	21.791	6.	0.	459.96
8859	21.607	6.	0.	499.99
8860	21.422	6.	0.	540.17
8861	21.238	6.	0.	580.51
8862	21.054	6.	0.	621.
8863	20.87	6.	0.	661.65
8864	20.686	6.	0.	702.44
8865	20.502	6.	0.	743.4
8866	20.318	6.	0.	784.51
8867	20.134	6.	0.	825.78
8868	19.95	6.	0.	867.22
8869	19.766	6.	0.	908.82
8870	19.581	6.	0.	950.58
8871	19.397	6.	0.	992.52
8872	19.213	6.	0.	1034.6
8873	19.029	6.	0.	1076.9
8874	18.845	6.	0.	1119.4
8875	18.661	6.	0.	1162.1
8876	18.477	6.	0.	1204.9
8877	18.293	6.	0.	1247.9
8878	18.109	6.	0.	1291.1
8879	17.924	6.	0.	1334.6
8880	17.74	6.	0.	1378.2
8881	17.556	6.	0.	1422.
8882	17.372	6.	0.	1466.
8883	17.188	6.	0.	1510.2
8884	17.004	6.	0.	1554.6
8885	16.82	6.	0.	1599.2
8886	16.636	6.	0.	1644.
8887	16.452	6.	0.	1689.1
8888	16.267	6.	0.	1734.3
8889	16.083	6.	0.	1779.8
8890	15.899	6.	0.	1825.5
8891	15.715	6.	0.	1871.4
8892	15.531	6.	0.	1917.4
8893	15.347	6.	0.	1963.8
8894	15.163	6.	0.	2010.3
8895	14.979	6.	0.	2057.
8896	14.795	6.	0.	2103.9
8897	14.61	6.	0.	2151.
8898	14.426	6.	0.	2198.2
8899	14.242	6.	0.	2245.6
8900	14.058	6.	0.	2293.2
8901	13.874	6.	0.	2340.8
8902	13.69	6.	0.	2388.5
8903	13.506	6.	0.	2436.1
8904	13.322	6.	0.	2483.7
8905	13.138	6.	0.	2531.
8906	12.953	6.	0.	2578.1
8907	12.769	6.	0.	2624.6
8908	12.585	6.	0.	2670.5
8909	12.401	6.	0.	2715.5
8910	12.217	6.	0.	2759.1
8911	12.033	6.	0.	2801.1
8912	11.849	6.	0.	2840.8
8913	11.665	6.	0.	2877.6
8914	11.481	6.	0.	2910.6
8915	11.297	6.	0.	2938.8
8916	11.112	6.	0.	2960.9
8917	10.928	6.	0.	2975.3
8918	10.744	6.	0.	2979.9
8919	10.56	6.	0.	2972.3
8920	10.376	6.	0.	2949.7
8921	10.192	6.	0.	2908.4
8922	10.008	6.	0.	2844.3
8923	9.8236	6.	0.	2752.9
8924	9.6395	6.	0.	2629.
8925	9.4554	6.	0.	2467.1
8926	9.2713	6.	0.	2262.2
8927	9.0872	6.	0.	2009.9
8928	8.9031	6.	0.	1707.3
8929	8.719	6.	0.	1353.6
8930	8.5349	6.	0.	950.05
8931	8.3508	6.	0.	487.75
8932	8.1667	6.	0.	51.333
8933	8.	1.8182	0.	8707.4
8934	8.	1.6364	0.	5038.5
8935	8.	1.4545	0.	3972.2
8936	8.	1.2727	0.	3122.
8937	8.	1.0909	0.	2505.7
8938	8.	0.90909	0.	2008.1
8939	8.	0.72727	0.	1583.6
8940	8.	0.54545	0.	1202.4
8941	8.	0.36364	0.	841.34
8942	8.	0.18182	0.	460.17
8943	8.	2.	0.	21947
8944	8.1667	0.18182	0.	405.36
8945	8.1667	0.36364	0.	743.58
8946	8.1667	0.54545	0.	1064.1
8947	8.1667	0.72727	0.	1403.6
8948	8.1667	0.90909	0.	1784.5
8949	8.1667	1.0909	0.	2234.9
8950	8.1667	1.2727	0.	2799.2
8951	8.1667	1.4545	0.	3584.5
8952	8.1667	1.6364	0.	4573.2
8953	8.1667	1.8182	0.	7978.8
8954	8.1667	2.	0.	21135
8955	8.	4.1818	0.	8707.4
8956	8.	4.3636	0.	5038.5
8957	8.	4.5455	0.	3972.2
8958	8.	4.7273	0.	3122.
8959	8.	4.9091	0.	2505.7
8960	8.	5.0909	0.	2008.1
8961	8.	5.2727	0.	1583.6
8962	8.	5.4545	0.	1202.4
8963	8.	5.6364	0.	841.34
8964	8.	5.8182	0.	460.17
8965	8.	4.	0.	21947
8966	8.1667	5.8182	0.	405.36
8967	8.1667	5.6364	0.	743.58
8968	8.1667	5.4545	0.	1064.1
8969	8.1667	5.2727	0.	1403.6
8970	8.1667	5.0909	0.	1784.5
8971	8.1667	4.9091	0.	2234.9
8972	8.1667	4.7273	0.	2799.2
8973	8.1667	4.5455	0.	3584.5
8974	8.1667	4.3636	0.	4573.2
8975	8.1667	4.1818	0.	7978.8
8976	8.1667	4.	0.	21135
8977	8.	2.2727	0.	13330
8978	8.0833	2.1818	0.	14590
8979	7.9091	2.1818	0.	12842
8980	8.	2.1818	5.e-002	869.31
8981	8.	2.0909	0.	17973
8982	8.	2.4545	0.	11090
8983	8.0833	2.3636	0.	11695
8984	7.9091	2.3636	0.	11051
8985	8.	2.3636	5.e-002	149.69
8986	8.	2.6364	0.	10033
8987	8.0833	2.5455	0.	10347
8988	7.9091	2.5455	0.	10005
8989	8.	2.5455	5.e-002	70.946
8990	8.	2.8182	0.	9518.
8991	8.0833	2.7273	0.	9637.7
8992	7.9091	2.7273	0.	9435.6
8993	8.	2.7273	5.e-002	36.479
8994	8.	3.	0.	9363.9
8995	8.0833	2.9091	0.	9333.2
8996	7.9091	2.9091	0.	9181.2
8997	8.	2.9091	5.e-002	20.185
8998	8.	3.1818	0.	9518.
8999	8.0833	3.0909	0.	9333.2
9000	7.9091	3.0909	0.	9181.2
9001	8.	3.0909	5.e-002	20.185
9002	8.	3.3636	0.	10033
9003	8.0833	3.2727	0.	9637.7
9004	7.9091	3.2727	0.	9435.6
9005	8.	3.2727	5.e-002	36.479
9006	8.	3.5455	0.	11090
9007	8.0833	3.4545	0.	10347
9008	7.9091	3.4545	0.	10005
9009	8.	3.4545	5.e-002	70.946
9010	8.	3.7273	0.	13330
9011	8.0833	3.6364	0.	11695
9012	7.9091	3.6364	0.	11051
9013	8.	3.6364	5.e-002	149.69
9014	8.0833	3.8182	0.	14590
9015	7.9091	3.8182	0.	12842
9016	8.	3.8182	5.e-002	869.31
9017	8.	3.9091	0.	17973
9018	8.1667	2.2727	0.	13207
9019	8.2587	2.1818	0.	12591
9020	8.1667	2.1818	5.e-002	808.
9021	8.1667	2.0909	0.	17506
9022	8.1667	2.4545	0.	11026
9023	8.2587	2.3636	0.	10906
9024	8.1667	2.3636	5.e-002	161.59
9025	8.1667	2.6364	0.	9970.7
9026	8.2587	2.5455	0.	9870.
9027	8.1667	2.5455	5.e-002	78.871
9028	8.1667	2.8182	0.	9456.6
9029	8.2587	2.7273	0.	9305.
9030	8.1667	2.7273	5.e-002	44.036
9031	8.1667	3.	0.	9302.5
9032	8.2587	2.9091	0.	9051.9
9033	8.1667	2.9091	5.e-002	29.372
9034	8.1667	3.1818	0.	9456.6
9035	8.2587	3.0909	0.	9051.9
9036	8.1667	3.0909	5.e-002	29.372
9037	8.1667	3.3636	0.	9970.7
9038	8.2587	3.2727	0.	9305.
9039	8.1667	3.2727	5.e-002	44.036
9040	8.1667	3.5455	0.	11026
9041	8.2587	3.4545	0.	9870.
9042	8.1667	3.4545	5.e-002	78.871
9043	8.1667	3.7273	0.	13207
9044	8.2587	3.6364	0.	10906
9045	8.1667	3.6364	5.e-002	161.59
9046	8.2587	3.8182	0.	12591
9047	8.1667	3.8182	5.e-002	808.
9048	8.1667	3.9091	0.	17506
9049	7.8182	5.7273	0.	1039.6
9050	7.7273	5.8182	0.	1046.2
9051	7.8182	5.8182	5.e-002	112.35
9052	7.8182	5.9091	0.	664.77
9053	7.9091	5.8182	0.	587.34
9054	7.8182	5.5455	0.	1491.3
9055	7.7273	5.6364	0.	1336.1
9056	7.8182	5.6364	5.e-002	101.03
9057	7.9091	5.6364	0.	967.7
9058	7.8182	5.3636	0.	2020.1
9059	7.7273	5.4545	0.	1760.2
9060	7.8182	5.4545	5.e-002	106.52
9061	7.9091	5.4545	0.	1384.9
9062	7.8182	5.1818	0.	2615.5
9063	7.7273	5.2727	0.	2262.3
9064	7.8182	5.2727	5.e-002	118.08
9065	7.9091	5.2727	0.	1837.7
9066	7.8182	5.	0.	3300.9
9067	7.7273	5.0909	0.	2841.
9068	7.8182	5.0909	5.e-002	135.58
9069	7.9091	5.0909	0.	2344.8
9070	7.8182	4.8182	0.	4120.5
9071	7.7273	4.9091	0.	3515.6
9072	7.8182	4.9091	5.e-002	160.5
9073	7.9091	4.9091	0.	2936.
9074	7.8182	4.6364	0.	5152.3
9075	7.7273	4.7273	0.	4325.7
9076	7.8182	4.7273	5.e-002	199.12
9077	7.9091	4.7273	0.	3659.6
9078	7.8182	4.4545	0.	6564.3
9079	7.7273	4.5455	0.	5329.
9080	7.8182	4.5455	5.e-002	248.43
9081	7.9091	4.5455	0.	4616.5
9082	7.8182	4.2727	0.	8576.
9083	7.7273	4.3636	0.	6636.8
9084	7.8182	4.3636	5.e-002	372.8
9085	7.9091	4.3636	0.	5897.
9086	7.8182	4.0909	0.	10623
9087	7.7273	4.1818	0.	8419.4
9088	7.8182	4.1818	5.e-002	712.61
9089	7.9091	4.1818	0.	8451.5
9090	7.8182	3.9091	0.	11218
9091	7.7273	4.	0.	9756.5
9092	7.8182	4.	5.e-002	1274.7
9093	7.9091	4.	0.	16556
9094	7.8182	3.7273	0.	10703
9095	7.7273	3.8182	0.	9761.1
9096	7.8182	3.8182	5.e-002	583.15
9097	7.8182	3.5455	0.	10004
9098	7.7273	3.6364	0.	9485.4
9099	7.8182	3.6364	5.e-002	248.42
9100	7.8182	3.3636	0.	9419.
9101	7.7273	3.4545	0.	9083.5
9102	7.8182	3.4545	5.e-002	136.07
9103	7.8182	3.1818	0.	9099.8
9104	7.7273	3.2727	0.	8807.3
9105	7.8182	3.2727	5.e-002	80.28
9106	7.8182	3.	0.	8996.8
9107	7.7273	3.0909	0.	8667.8
9108	7.8182	3.0909	5.e-002	60.841
9109	7.8182	2.8182	0.	9099.8
9110	7.7273	2.9091	0.	8667.8
9111	7.8182	2.9091	5.e-002	60.841
9112	7.8182	2.6364	0.	9419.
9113	7.7273	2.7273	0.	8807.3
9114	7.8182	2.7273	5.e-002	80.28
9115	7.8182	2.4545	0.	10004
9116	7.7273	2.5455	0.	9083.5
9117	7.8182	2.5455	5.e-002	136.07
9118	7.8182	2.2727	0.	10703
9119	7.7273	2.3636	0.	9485.4
9120	7.8182	2.3636	5.e-002	248.42
9121	7.8182	2.0909	0.	11218
9122	7.7273	2.1818	0.	9761.1
9123	7.8182	2.1818	5.e-002	583.15
9124	7.8182	1.9091	0.	10623
9125	7.7273	2.	0.	9756.5
9126	7.8182	2.	5.e-002	1274.7
9127	7.9091	2.	0.	16556
9128	7.8182	1.7273	0.	8576.
9129	7.7273	1.8182	0.	8419.4
9130	7.8182	1.8182	5.e-002	712.61
9131	7.9091	1.8182	0.	8451.5
9132	7.8182	1.5455	0.	6564.3
9133	7.7273	1.6364	0.	6636.8
9134	7.8182	1.6364	5.e-002	372.8
9135	7.9091	1.6364	0.	5897.
9136	7.8182	1.3636	0.	5152.3
9137	7.7273	1.4545	0.	5329.
9138	7.8182	1.4545	5.e-002	248.43
9139	7.9091	1.4545	0.	4616.5
9140	7.8182	1.1818	0.	4120.5
9141	7.7273	1.2727	0.	4325.7
9142	7.8182	1.2727	5.e-002	199.12
9143	7.9091	1.2727	0.	3659.6
9144	7.8182	1.	0.	3300.8
9145	7.7273	1.0909	0.	3515.6
9146	7.8182	1.0909	5.e-002	160.5
9147	7.9091	1.0909	0.	2936.
9148	7.8182	0.81818	0.	2615.5
9149	7.7273	0.90909	0.	2841.
9150	7.8182	0.90909	5.e-002	135.58
9151	7.9091	0.90909	0.	2344.8
9152	7.8182	0.63636	0.	2020.1
9153	7.7273	0.72727	0.	2262.3
9154	7.8182	0.72727	5.e-002	118.08
9155	7.9091	0.72727	0.	1837.7
9156	7.8182	0.45455	0.	1491.3
9157	7.7273	0.54545	0.	1760.2
9158	7.8182	0.54545	5.e-002	106.52
9159	7.9091	0.54545	0.	1384.9
9160	7.8182	0.27273	0.	1039.6
9161	7.7273	0.36364	0.	1336.1
9162	7.8182	0.36364	5.e-002	101.03
9163	7.9091	0.36364	0.	967.7
9164	7.7273	0.18182	0.	1046.2
9165	7.8182	0.18182	5.e-002	112.35
9166	7.8182	9.0909e-002	0.	664.77
9167	7.9091	0.18182	0.	587.34
9168	7.6364	5.7273	0.	1388.2
9169	7.5455	5.8182	0.	1521.3
9170	7.6364	5.8182	5.e-002	102.31
9171	7.6364	5.9091	0.	1178.2
9172	7.6364	5.5455	0.	1672.
9173	7.5455	5.6364	0.	1695.2
9174	7.6364	5.6364	5.e-002	89.05
9175	7.6364	5.3636	0.	2073.7
9176	7.5455	5.4545	0.	1998.7
9177	7.6364	5.4545	5.e-002	89.648
9178	7.6364	5.1818	0.	2562.1
9179	7.5455	5.2727	0.	2397.2
9180	7.6364	5.2727	5.e-002	94.215
9181	7.6364	5.	0.	3137.1
9182	7.5455	5.0909	0.	2878.7
9183	7.6364	5.0909	5.e-002	102.41
9184	7.6364	4.8182	0.	3816.7
9185	7.5455	4.9091	0.	3445.1
9186	7.6364	4.9091	5.e-002	114.77
9187	7.6364	4.6364	0.	4623.4
9188	7.5455	4.7273	0.	4108.5
9189	7.6364	4.7273	5.e-002	130.49
9190	7.6364	4.4545	0.	5579.3
9191	7.5455	4.5455	0.	4876.5
9192	7.6364	4.5455	5.e-002	160.44
9193	7.6364	4.2727	0.	6637.8
9194	7.5455	4.3636	0.	5745.9
9195	7.6364	4.3636	5.e-002	154.38
9196	7.6364	4.0909	0.	7513.4
9197	7.5455	4.1818	0.	6614.2
9198	7.6364	4.1818	5.e-002	224.49
9199	7.6364	3.9091	0.	8148.1
9200	7.5455	4.	0.	7250.8
9201	7.6364	4.	5.e-002	196.55
9202	7.6364	3.7273	0.	8493.8
9203	7.5455	3.8182	0.	7730.8
9204	7.6364	3.8182	5.e-002	277.08
9205	7.6364	3.5455	0.	8547.2
9206	7.5455	3.6364	0.	7965.8
9207	7.6364	3.6364	5.e-002	191.53
9208	7.6364	3.3636	0.	8463.5
9209	7.5455	3.4545	0.	8018.2
9210	7.6364	3.4545	5.e-002	141.98
9211	7.6364	3.1818	0.	8368.8
9212	7.5455	3.2727	0.	7988.9
9213	7.6364	3.2727	5.e-002	101.08
9214	7.6364	3.	0.	8332.4
9215	7.5455	3.0909	0.	7959.8
9216	7.6364	3.0909	5.e-002	83.649
9217	7.6364	2.8182	0.	8368.8
9218	7.5455	2.9091	0.	7959.8
9219	7.6364	2.9091	5.e-002	83.649
9220	7.6364	2.6364	0.	8463.5
9221	7.5455	2.7273	0.	7988.9
9222	7.6364	2.7273	5.e-002	101.08
9223	7.6364	2.4545	0.	8547.2
9224	7.5455	2.5455	0.	8018.2
9225	7.6364	2.5455	5.e-002	141.98
9226	7.6364	2.2727	0.	8493.8
9227	7.5455	2.3636	0.	7965.8
9228	7.6364	2.3636	5.e-002	191.53
9229	7.6364	2.0909	0.	8148.1
9230	7.5455	2.1818	0.	7730.8
9231	7.6364	2.1818	5.e-002	277.08
9232	7.6364	1.9091	0.	7513.4
9233	7.5455	2.	0.	7250.8
9234	7.6364	2.	5.e-002	196.55
9235	7.6364	1.7273	0.	6637.8
9236	7.5455	1.8182	0.	6614.2
9237	7.6364	1.8182	5.e-002	224.49
9238	7.6364	1.5455	0.	5579.3
9239	7.5455	1.6364	0.	5745.9
9240	7.6364	1.6364	5.e-002	154.38
9241	7.6364	1.3636	0.	4623.4
9242	7.5455	1.4545	0.	4876.5
9243	7.6364	1.4545	5.e-002	160.44
9244	7.6364	1.1818	0.	3816.7
9245	7.5455	1.2727	0.	4108.5
9246	7.6364	1.2727	5.e-002	130.49
9247	7.6364	1.	0.	3137.1
9248	7.5455	1.0909	0.	3445.1
9249	7.6364	1.0909	5.e-002	114.77
9250	7.6364	0.81818	0.	2562.1
9251	7.5455	0.90909	0.	2878.7
9252	7.6364	0.90909	5.e-002	102.41
9253	7.6364	0.63636	0.	2073.7
9254	7.5455	0.72727	0.	2397.2
9255	7.6364	0.72727	5.e-002	94.215
9256	7.6364	0.45455	0.	1672.
9257	7.5455	0.54545	0.	1998.7
9258	7.6364	0.54545	5.e-002	89.648
9259	7.6364	0.27273	0.	1388.2
9260	7.5455	0.36364	0.	1695.2
9261	7.6364	0.36364	5.e-002	89.05
9262	7.5455	0.18182	0.	1521.3
9263	7.6364	0.18182	5.e-002	102.31
9264	7.6364	9.0909e-002	0.	1178.2
9265	7.4545	5.7273	0.	1838.2
9266	7.3636	5.8182	0.	1983.4
9267	7.4545	5.8182	5.e-002	96.716
9268	7.4545	5.9091	0.	1674.6
9269	7.4545	5.5455	0.	2047.4
9270	7.3636	5.6364	0.	2121.7
9271	7.4545	5.6364	5.e-002	83.789
9272	7.4545	5.3636	0.	2360.9
9273	7.3636	5.4545	0.	2357.4
9274	7.4545	5.4545	5.e-002	83.873
9275	7.4545	5.1818	0.	2761.3
9276	7.3636	5.2727	0.	2677.1
9277	7.4545	5.2727	5.e-002	86.401
9278	7.4545	5.	0.	3241.5
9279	7.3636	5.0909	0.	3072.9
9280	7.4545	5.0909	5.e-002	90.538
9281	7.4545	4.8182	0.	3799.
9282	7.3636	4.9091	0.	3538.9
9283	7.4545	4.9091	5.e-002	95.815
9284	7.4545	4.6364	0.	4430.
9285	7.3636	4.7273	0.	4069.1
9286	7.4545	4.7273	5.e-002	100.56
9287	7.4545	4.4545	0.	5104.4
9288	7.3636	4.5455	0.	4651.1
9289	7.4545	4.5455	5.e-002	99.487
9290	7.4545	4.2727	0.	5761.
9291	7.3636	4.3636	0.	5243.4
9292	7.4545	4.3636	5.e-002	98.288
9293	7.4545	4.0909	0.	6342.8
9294	7.3636	4.1818	0.	5790.5
9295	7.4545	4.1818	5.e-002	95.81
9296	7.4545	3.9091	0.	6816.4
9297	7.3636	4.	0.	6255.8
9298	7.4545	4.	5.e-002	122.83
9299	7.4545	3.7273	0.	7181.9
9300	7.3636	3.8182	0.	6635.
9301	7.4545	3.8182	5.e-002	133.9
9302	7.4545	3.5455	0.	7419.2
9303	7.3636	3.6364	0.	6930.1
9304	7.4545	3.6364	5.e-002	134.64
9305	7.4545	3.3636	0.	7530.9
9306	7.3636	3.4545	0.	7109.8
9307	7.4545	3.4545	5.e-002	114.05
9308	7.4545	3.1818	0.	7570.1
9309	7.3636	3.2727	0.	7199.4
9310	7.4545	3.2727	5.e-002	97.386
9311	7.4545	3.	0.	7578.3
9312	7.3636	3.0909	0.	7233.6
9313	7.4545	3.0909	5.e-002	87.662
9314	7.4545	2.8182	0.	7570.1
9315	7.3636	2.9091	0.	7233.6
9316	7.4545	2.9091	5.e-002	87.662
9317	7.4545	2.6364	0.	7530.9
9318	7.3636	2.7273	0.	7199.4
9319	7.4545	2.7273	5.e-002	97.386
9320	7.4545	2.4545	0.	7419.2
9321	7.3636	2.5455	0.	7109.8
9322	7.4545	2.5455	5.e-002	114.05
9323	7.4545	2.2727	0.	7181.9
9324	7.3636	2.3636	0.	6930.1
9325	7.4545	2.3636	5.e-002	134.64
9326	7.4545	2.0909	0.	6816.4
9327	7.3636	2.1818	0.	6635.
9328	7.4545	2.1818	5.e-002	133.9
9329	7.4545	1.9091	0.	6342.8
9330	7.3636	2.	0.	6255.8
9331	7.4545	2.	5.e-002	122.83
9332	7.4545	1.7273	0.	5761.
9333	7.3636	1.8182	0.	5790.5
9334	7.4545	1.8182	5.e-002	95.81
9335	7.4545	1.5455	0.	5104.4
9336	7.3636	1.6364	0.	5243.4
9337	7.4545	1.6364	5.e-002	98.288
9338	7.4545	1.3636	0.	4430.
9339	7.3636	1.4545	0.	4651.1
9340	7.4545	1.4545	5.e-002	99.487
9341	7.4545	1.1818	0.	3799.
9342	7.3636	1.2727	0.	4069.1
9343	7.4545	1.2727	5.e-002	100.56
9344	7.4545	1.	0.	3241.5
9345	7.3636	1.0909	0.	3538.9
9346	7.4545	1.0909	5.e-002	95.815
9347	7.4545	0.81818	0.	2761.3
9348	7.3636	0.90909	0.	3072.9
9349	7.4545	0.90909	5.e-002	90.538
9350	7.4545	0.63636	0.	2360.9
9351	7.3636	0.72727	0.	2677.1
9352	7.4545	0.72727	5.e-002	86.401
9353	7.4545	0.45455	0.	2047.4
9354	7.3636	0.54545	0.	2357.4
9355	7.4545	0.54545	5.e-002	83.873
9356	7.4545	0.27273	0.	1838.2
9357	7.3636	0.36364	0.	2121.7
9358	7.4545	0.36364	5.e-002	83.789
9359	7.3636	0.18182	0.	1983.4
9360	7.4545	0.18182	5.e-002	96.716
9361	7.4545	9.0909e-002	0.	1674.6
9362	7.2727	5.7273	0.	2270.9
9363	7.1818	5.8182	0.	2404.3
9364	7.2727	5.8182	5.e-002	89.317
9365	7.2727	5.9091	0.	2130.
9366	7.2727	5.5455	0.	2442.6
9367	7.1818	5.6364	0.	2527.2
9368	7.2727	5.6364	5.e-002	76.414
9369	7.2727	5.3636	0.	2694.
9370	7.1818	5.4545	0.	2720.3
9371	7.2727	5.4545	5.e-002	75.843
9372	7.2727	5.1818	0.	3017.3
9373	7.1818	5.2727	0.	2978.6
9374	7.2727	5.2727	5.e-002	76.504
9375	7.2727	5.	0.	3405.2
9376	7.1818	5.0909	0.	3297.7
9377	7.2727	5.0909	5.e-002	77.343
9378	7.2727	4.8182	0.	3847.7
9379	7.1818	4.9091	0.	3669.6
9380	7.2727	4.9091	5.e-002	77.507
9381	7.2727	4.6364	0.	4328.7
9382	7.1818	4.7273	0.	4082.4
9383	7.2727	4.7273	5.e-002	75.611
9384	7.2727	4.4545	0.	4821.7
9385	7.1818	4.5455	0.	4516.9
9386	7.2727	4.5455	5.e-002	71.076
9387	7.2727	4.2727	0.	5290.1
9388	7.1818	4.3636	0.	4945.4
9389	7.2727	4.3636	5.e-002	65.603
9390	7.2727	4.0909	0.	5708.7
9391	7.1818	4.1818	0.	5337.5
9392	7.2727	4.1818	5.e-002	67.117
9393	7.2727	3.9091	0.	6072.9
9394	7.1818	4.	0.	5683.7
9395	7.2727	4.	5.e-002	77.39
9396	7.2727	3.7273	0.	6377.6
9397	7.1818	3.8182	0.	5984.6
9398	7.2727	3.8182	5.e-002	86.256
9399	7.2727	3.5455	0.	6612.3
9400	7.1818	3.6364	0.	6234.3
9401	7.2727	3.6364	5.e-002	89.974
9402	7.2727	3.3636	0.	6769.5
9403	7.1818	3.4545	0.	6421.
9404	7.2727	3.4545	5.e-002	87.797
9405	7.2727	3.1818	0.	6854.5
9406	7.1818	3.2727	0.	6538.6
9407	7.2727	3.2727	5.e-002	82.975
9408	7.2727	3.	0.	6880.7
9409	7.1818	3.0909	0.	6593.9
9410	7.2727	3.0909	5.e-002	79.521
9411	7.2727	2.8182	0.	6854.5
9412	7.1818	2.9091	0.	6593.9
9413	7.2727	2.9091	5.e-002	79.521
9414	7.2727	2.6364	0.	6769.5
9415	7.1818	2.7273	0.	6538.6
9416	7.2727	2.7273	5.e-002	82.975
9417	7.2727	2.4545	0.	6612.3
9418	7.1818	2.5455	0.	6421.
9419	7.2727	2.5455	5.e-002	87.797
9420	7.2727	2.2727	0.	6377.6
9421	7.1818	2.3636	0.	6234.3
9422	7.2727	2.3636	5.e-002	89.974
9423	7.2727	2.0909	0.	6072.9
9424	7.1818	2.1818	0.	5984.6
9425	7.2727	2.1818	5.e-002	86.256
9426	7.2727	1.9091	0.	5708.7
9427	7.1818	2.	0.	5683.7
9428	7.2727	2.	5.e-002	77.39
9429	7.2727	1.7273	0.	5290.1
9430	7.1818	1.8182	0.	5337.5
9431	7.2727	1.8182	5.e-002	67.117
9432	7.2727	1.5455	0.	4821.7
9433	7.1818	1.6364	0.	4945.4
9434	7.2727	1.6364	5.e-002	65.603
9435	7.2727	1.3636	0.	4328.7
9436	7.1818	1.4545	0.	4516.9
9437	7.2727	1.4545	5.e-002	71.076
9438	7.2727	1.1818	0.	3847.7
9439	7.1818	1.2727	0.	4082.4
9440	7.2727	1.2727	5.e-002	75.611
9441	7.2727	1.	0.	3405.2
9442	7.1818	1.0909	0.	3669.6
9443	7.2727	1.0909	5.e-002	77.507
9444	7.2727	0.81818	0.	3017.3
9445	7.1818	0.90909	0.	3297.7
9446	7.2727	0.90909	5.e-002	77.343
9447	7.2727	0.63636	0.	2694.
9448	7.1818	0.72727	0.	2978.6
9449	7.2727	0.72727	5.e-002	76.504
9450	7.2727	0.45455	0.	2442.6
9451	7.1818	0.54545	0.	2720.3
9452	7.2727	0.54545	5.e-002	75.843
9453	7.2727	0.27273	0.	2270.9
9454	7.1818	0.36364	0.	2527.2
9455	7.2727	0.36364	5.e-002	76.414
9456	7.1818	0.18182	0.	2404.3
9457	7.2727	0.18182	5.e-002	89.317
9458	7.2727	9.0909e-002	0.	2130.
9459	7.0909	5.7273	0.	2663.
9460	7.	5.8182	0.	2779.5
9461	7.0909	5.8182	5.e-002	80.715
9462	7.0909	5.9091	0.	2538.9
9463	7.0909	5.5455	0.	2810.5
9464	7.	5.6364	0.	2891.3
9465	7.0909	5.6364	5.e-002	68.292
9466	7.0909	5.3636	0.	3016.1
9467	7.	5.4545	0.	3053.1
9468	7.0909	5.4545	5.e-002	67.058
9469	7.0909	5.1818	0.	3275.7
9470	7.	5.2727	0.	3262.7
9471	7.0909	5.2727	5.e-002	66.347
9472	7.0909	5.	0.	3583.
9473	7.	5.0909	0.	3517.
9474	7.0909	5.0909	5.e-002	65.114
9475	7.0909	4.8182	0.	3927.3
9476	7.	4.9091	0.	3808.4
9477	7.0909	4.9091	5.e-002	62.73
9478	7.0909	4.6364	0.	4292.5
9479	7.	4.7273	0.	4125.2
9480	7.0909	4.7273	5.e-002	58.738
9481	7.0909	4.4545	0.	4657.9
9482	7.	4.5455	0.	4451.1
9483	7.0909	4.5455	5.e-002	53.425
9484	7.0909	4.2727	0.	5003.7
9485	7.	4.3636	0.	4767.3
9486	7.0909	4.3636	5.e-002	49.46
9487	7.0909	4.0909	0.	5317.7
9488	7.	4.1818	0.	5059.6
9489	7.0909	4.1818	5.e-002	50.445
9490	7.0909	3.9091	0.	5597.
9491	7.	4.	0.	5322.2
9492	7.0909	4.	5.e-002	55.19
9493	7.0909	3.7273	0.	5840.2
9494	7.	3.8182	0.	5555.4
9495	7.0909	3.8182	5.e-002	60.332
9496	7.0909	3.5455	0.	6039.6
9497	7.	3.6364	0.	5755.7
9498	7.0909	3.6364	5.e-002	64.336
9499	7.0909	3.3636	0.	6185.1
9500	7.	3.4545	0.	5913.8
9501	7.0909	3.4545	5.e-002	66.469
9502	7.0909	3.1818	0.	6272.3
9503	7.	3.2727	0.	6021.7
9504	7.0909	3.2727	5.e-002	66.739
9505	7.0909	3.	0.	6301.1
9506	7.	3.0909	0.	6075.8
9507	7.0909	3.0909	5.e-002	66.414
9508	7.0909	2.8182	0.	6272.3
9509	7.	2.9091	0.	6075.8
9510	7.0909	2.9091	5.e-002	66.414
9511	7.0909	2.6364	0.	6185.1
9512	7.	2.7273	0.	6021.7
9513	7.0909	2.7273	5.e-002	66.739
9514	7.0909	2.4545	0.	6039.6
9515	7.	2.5455	0.	5913.8
9516	7.0909	2.5455	5.e-002	66.469
9517	7.0909	2.2727	0.	5840.2
9518	7.	2.3636	0.	5755.7
9519	7.0909	2.3636	5.e-002	64.336
9520	7.0909	2.0909	0.	5597.
9521	7.	2.1818	0.	5555.4
9522	7.0909	2.1818	5.e-002	60.332
9523	7.0909	1.9091	0.	5317.7
9524	7.	2.	0.	5322.2
9525	7.0909	2.	5.e-002	55.19
9526	7.0909	1.7273	0.	5003.7
9527	7.	1.8182	0.	5059.6
9528	7.0909	1.8182	5.e-002	50.445
9529	7.0909	1.5455	0.	4657.9
9530	7.	1.6364	0.	4767.3
9531	7.0909	1.6364	5.e-002	49.46
9532	7.0909	1.3636	0.	4292.5
9533	7.	1.4545	0.	4451.1
9534	7.0909	1.4545	5.e-002	53.425
9535	7.0909	1.1818	0.	3927.3
9536	7.	1.2727	0.	4125.2
9537	7.0909	1.2727	5.e-002	58.738
9538	7.0909	1.	0.	3583.
9539	7.	1.0909	0.	3808.4
9540	7.0909	1.0909	5.e-002	62.73
9541	7.0909	0.81818	0.	3275.7
9542	7.	0.90909	0.	3517.
9543	7.0909	0.90909	5.e-002	65.114
9544	7.0909	0.63636	0.	3016.1
9545	7.	0.72727	0.	3262.7
9546	7.0909	0.72727	5.e-002	66.347
9547	7.0909	0.45455	0.	2810.5
9548	7.	0.54545	0.	3053.1
9549	7.0909	0.54545	5.e-002	67.058
9550	7.0909	0.27273	0.	2663.
9551	7.	0.36364	0.	2891.3
9552	7.0909	0.36364	5.e-002	68.292
9553	7.	0.18182	0.	2779.5
9554	7.0909	0.18182	5.e-002	80.715
9555	7.0909	9.0909e-002	0.	2538.9
9556	6.9091	5.7273	0.	3009.3
9557	6.8182	5.8182	0.	3109.3
9558	6.9091	5.8182	5.e-002	71.659
9559	6.9091	5.9091	0.	2900.8
9560	6.9091	5.5455	0.	3137.1
9561	6.8182	5.6364	0.	3209.9
9562	6.9091	5.6364	5.e-002	60.135
9563	6.9091	5.3636	0.	3306.1
9564	6.8182	5.4545	0.	3345.7
9565	6.9091	5.4545	5.e-002	58.44
9566	6.9091	5.1818	0.	3513.7
9567	6.8182	5.2727	0.	3515.4
9568	6.9091	5.2727	5.e-002	56.923
9569	6.9091	5.	0.	3754.5
9570	6.8182	5.0909	0.	3716.3
9571	6.9091	5.0909	5.e-002	54.683
9572	6.9091	4.8182	0.	4019.6
9573	6.8182	4.9091	0.	3942.2
9574	6.9091	4.9091	5.e-002	51.424
9575	6.9091	4.6364	0.	4296.2
9576	6.8182	4.7273	0.	4183.6
9577	6.9091	4.7273	5.e-002	47.151
9578	6.9091	4.4545	0.	4570.4
9579	6.8182	4.5455	0.	4428.4
9580	6.9091	4.5455	5.e-002	42.629
9581	6.9091	4.2727	0.	4830.1
9582	6.8182	4.3636	0.	4665.1
9583	6.9091	4.3636	5.e-002	39.504
9584	6.9091	4.0909	0.	5068.2
9585	6.8182	4.1818	0.	4885.2
9586	6.9091	4.1818	5.e-002	39.227
9587	6.9091	3.9091	0.	5282.5
9588	6.8182	4.	0.	5085.1
9589	6.9091	4.	5.e-002	41.287
9590	6.9091	3.7273	0.	5471.
9591	6.8182	3.8182	0.	5263.8
9592	6.9091	3.8182	5.e-002	44.329
9593	6.9091	3.5455	0.	5628.6
9594	6.8182	3.6364	0.	5418.5
9595	6.9091	3.6364	5.e-002	47.501
9596	6.9091	3.3636	0.	5747.7
9597	6.8182	3.4545	0.	5543.1
9598	6.9091	3.4545	5.e-002	50.202
9599	6.9091	3.1818	0.	5821.7
9600	6.8182	3.2727	0.	5630.5
9601	6.9091	3.2727	5.e-002	51.94
9602	6.9091	3.	0.	5846.7
9603	6.8182	3.0909	0.	5675.4
9604	6.9091	3.0909	5.e-002	52.715
9605	6.9091	2.8182	0.	5821.7
9606	6.8182	2.9091	0.	5675.4
9607	6.9091	2.9091	5.e-002	52.715
9608	6.9091	2.6364	0.	5747.7
9609	6.8182	2.7273	0.	5630.5
9610	6.9091	2.7273	5.e-002	51.94
9611	6.9091	2.4545	0.	5628.6
9612	6.8182	2.5455	0.	5543.1
9613	6.9091	2.5455	5.e-002	50.202
9614	6.9091	2.2727	0.	5471.
9615	6.8182	2.3636	0.	5418.5
9616	6.9091	2.3636	5.e-002	47.501
9617	6.9091	2.0909	0.	5282.5
9618	6.8182	2.1818	0.	5263.8
9619	6.9091	2.1818	5.e-002	44.329
9620	6.9091	1.9091	0.	5068.2
9621	6.8182	2.	0.	5085.1
9622	6.9091	2.	5.e-002	41.287
9623	6.9091	1.7273	0.	4830.1
9624	6.8182	1.8182	0.	4885.2
9625	6.9091	1.8182	5.e-002	39.227
9626	6.9091	1.5455	0.	4570.4
9627	6.8182	1.6364	0.	4665.1
9628	6.9091	1.6364	5.e-002	39.504
9629	6.9091	1.3636	0.	4296.2
9630	6.8182	1.4545	0.	4428.4
9631	6.9091	1.4545	5.e-002	42.629
9632	6.9091	1.1818	0.	4019.6
9633	6.8182	1.2727	0.	4183.6
9634	6.9091	1.2727	5.e-002	47.151
9635	6.9091	1.	0.	3754.5
9636	6.8182	1.0909	0.	3942.2
9637	6.9091	1.0909	5.e-002	51.424
9638	6.9091	0.81818	0.	3513.7
9639	6.8182	0.90909	0.	3716.3
9640	6.9091	0.90909	5.e-002	54.683
9641	6.9091	0.63636	0.	3306.1
9642	6.8182	0.72727	0.	3515.4
9643	6.9091	0.72727	5.e-002	56.923
9644	6.9091	0.45455	0.	3137.1
9645	6.8182	0.54545	0.	3345.7
9646	6.9091	0.54545	5.e-002	58.44
9647	6.9091	0.27273	0.	3009.3
9648	6.8182	0.36364	0.	3209.9
9649	6.9091	0.36364	5.e-002	60.135
9650	6.8182	0.18182	0.	3109.3
9651	6.9091	0.18182	5.e-002	71.659
9652	6.9091	9.0909e-002	0.	2900.8
9653	6.7273	5.7273	0.	3310.9
9654	6.6364	5.8182	0.	3396.6
9655	6.7273	5.8182	5.e-002	62.774
9656	6.7273	5.9091	0.	3217.5
9657	6.7273	5.5455	0.	3420.5
9658	6.6364	5.6364	0.	3484.9
9659	6.7273	5.6364	5.e-002	52.442
9660	6.7273	5.3636	0.	3558.7
9661	6.6364	5.4545	0.	3597.9
9662	6.7273	5.4545	5.e-002	50.549
9663	6.7273	5.1818	0.	3723.6
9664	6.6364	5.2727	0.	3734.1
9665	6.7273	5.2727	5.e-002	48.689
9666	6.7273	5.	0.	3911.
9667	6.6364	5.0909	0.	3891.6
9668	6.7273	5.0909	5.e-002	46.152
9669	6.7273	4.8182	0.	4113.7
9670	6.6364	4.9091	0.	4065.3
9671	6.7273	4.9091	5.e-002	42.85
9672	6.7273	4.6364	0.	4322.8
9673	6.6364	4.7273	0.	4248.2
9674	6.7273	4.7273	5.e-002	38.991
9675	6.7273	4.4545	0.	4529.
9676	6.6364	4.5455	0.	4432.1
9677	6.7273	4.5455	5.e-002	35.198
9678	6.7273	4.2727	0.	4724.5
9679	6.6364	4.3636	0.	4609.5
9680	6.7273	4.3636	5.e-002	32.45
9681	6.7273	4.0909	0.	4904.8
9682	6.6364	4.1818	0.	4775.1
9683	6.7273	4.1818	5.e-002	31.413
9684	6.7273	3.9091	0.	5067.9
9685	6.6364	4.	0.	4926.3
9686	6.7273	4.	5.e-002	31.933
9687	6.7273	3.7273	0.	5211.7
9688	6.6364	3.8182	0.	5061.6
9689	6.7273	3.8182	5.e-002	33.461
9690	6.7273	3.5455	0.	5332.4
9691	6.6364	3.6364	0.	5178.6
9692	6.7273	3.6364	5.e-002	35.555
9693	6.7273	3.3636	0.	5424.4
9694	6.6364	3.4545	0.	5273.2
9695	6.7273	3.4545	5.e-002	37.724
9696	6.7273	3.1818	0.	5482.2
9697	6.6364	3.2727	0.	5340.
9698	6.7273	3.2727	5.e-002	39.449
9699	6.7273	3.	0.	5501.9
9700	6.6364	3.0909	0.	5374.6
9701	6.7273	3.0909	5.e-002	40.375
9702	6.7273	2.8182	0.	5482.2
9703	6.6364	2.9091	0.	5374.6
9704	6.7273	2.9091	5.e-002	40.375
9705	6.7273	2.6364	0.	5424.4
9706	6.6364	2.7273	0.	5340.
9707	6.7273	2.7273	5.e-002	39.449
9708	6.7273	2.4545	0.	5332.4
9709	6.6364	2.5455	0.	5273.2
9710	6.7273	2.5455	5.e-002	37.724
9711	6.7273	2.2727	0.	5211.7
9712	6.6364	2.3636	0.	5178.6
9713	6.7273	2.3636	5.e-002	35.555
9714	6.7273	2.0909	0.	5067.9
9715	6.6364	2.1818	0.	5061.6
9716	6.7273	2.1818	5.e-002	33.461
9717	6.7273	1.9091	0.	4904.8
9718	6.6364	2.	0.	4926.3
9719	6.7273	2.	5.e-002	31.933
9720	6.7273	1.7273	0.	4724.5
9721	6.6364	1.8182	0.	4775.1
9722	6.7273	1.8182	5.e-002	31.413
9723	6.7273	1.5455	0.	4529.
9724	6.6364	1.6364	0.	4609.5
9725	6.7273	1.6364	5.e-002	32.45
9726	6.7273	1.3636	0.	4322.8
9727	6.6364	1.4545	0.	4432.1
9728	6.7273	1.4545	5.e-002	35.198
9729	6.7273	1.1818	0.	4113.7
9730	6.6364	1.2727	0.	4248.2
9731	6.7273	1.2727	5.e-002	38.991
9732	6.7273	1.	0.	3911.
9733	6.6364	1.0909	0.	4065.3
9734	6.7273	1.0909	5.e-002	42.85
9735	6.7273	0.81818	0.	3723.6
9736	6.6364	0.90909	0.	3891.6
9737	6.7273	0.90909	5.e-002	46.152
9738	6.7273	0.63636	0.	3558.7
9739	6.6364	0.72727	0.	3734.1
9740	6.7273	0.72727	5.e-002	48.689
9741	6.7273	0.45455	0.	3420.5
9742	6.6364	0.54545	0.	3597.9
9743	6.7273	0.54545	5.e-002	50.549
9744	6.7273	0.27273	0.	3310.9
9745	6.6364	0.36364	0.	3484.9
9746	6.7273	0.36364	5.e-002	52.442
9747	6.6364	0.18182	0.	3396.6
9748	6.7273	0.18182	5.e-002	62.774
9749	6.7273	9.0909e-002	0.	3217.5
9750	6.5455	5.7273	0.	3571.3
9751	6.4545	5.8182	0.	3645.6
9752	6.5455	5.8182	5.e-002	54.502
9753	6.5455	5.9091	0.	3492.6
9754	6.5455	5.5455	0.	3663.6
9755	6.4545	5.6364	0.	3721.
9756	6.5455	5.6364	5.e-002	45.5
9757	6.5455	5.3636	0.	3775.5
9758	6.4545	5.4545	0.	3813.4
9759	6.5455	5.4545	5.e-002	43.625
9760	6.5455	5.1818	0.	3905.4
9761	6.4545	5.2727	0.	3921.6
9762	6.5455	5.2727	5.e-002	41.736
9763	6.5455	5.	0.	4049.9
9764	6.4545	5.0909	0.	4043.7
9765	6.5455	5.0909	5.e-002	39.291
9766	6.5455	4.8182	0.	4204.
9767	6.4545	4.9091	0.	4176.1
9768	6.5455	4.9091	5.e-002	36.303
9769	6.5455	4.6364	0.	4361.4
9770	6.4545	4.7273	0.	4313.7
9771	6.5455	4.7273	5.e-002	32.995
9772	6.5455	4.4545	0.	4516.
9773	6.4545	4.5455	0.	4451.2
9774	6.5455	4.5455	5.e-002	29.804
9775	6.5455	4.2727	0.	4662.6
9776	6.4545	4.3636	0.	4583.5
9777	6.5455	4.3636	5.e-002	27.263
9778	6.5455	4.0909	0.	4798.2
9779	6.4545	4.1818	0.	4707.2
9780	6.5455	4.1818	5.e-002	25.737
9781	6.5455	3.9091	0.	4920.9
9782	6.4545	4.	0.	4820.3
9783	6.5455	4.	5.e-002	25.252
9784	6.5455	3.7273	0.	5028.8
9785	6.4545	3.8182	0.	4921.2
9786	6.5455	3.8182	5.e-002	25.637
9787	6.5455	3.5455	0.	5119.2
9788	6.4545	3.6364	0.	5008.2
9789	6.5455	3.6364	5.e-002	26.675
9790	6.5455	3.3636	0.	5188.
9791	6.4545	3.4545	0.	5078.2
9792	6.5455	3.4545	5.e-002	28.031
9793	6.5455	3.1818	0.	5231.3
9794	6.4545	3.2727	0.	5127.6
9795	6.5455	3.2727	5.e-002	29.259
9796	6.5455	3.	0.	5246.1
9797	6.4545	3.0909	0.	5153.2
9798	6.5455	3.0909	5.e-002	29.976
9799	6.5455	2.8182	0.	5231.3
9800	6.4545	2.9091	0.	5153.2
9801	6.5455	2.9091	5.e-002	29.976
9802	6.5455	2.6364	0.	5188.
9803	6.4545	2.7273	0.	5127.6
9804	6.5455	2.7273	5.e-002	29.259
9805	6.5455	2.4545	0.	5119.2
9806	6.4545	2.5455	0.	5078.2
9807	6.5455	2.5455	5.e-002	28.031
9808	6.5455	2.2727	0.	5028.8
9809	6.4545	2.3636	0.	5008.2
9810	6.5455	2.3636	5.e-002	26.675
9811	6.5455	2.0909	0.	4920.9
9812	6.4545	2.1818	0.	4921.2
9813	6.5455	2.1818	5.e-002	25.637
9814	6.5455	1.9091	0.	4798.2
9815	6.4545	2.	0.	4820.3
9816	6.5455	2.	5.e-002	25.252
9817	6.5455	1.7273	0.	4662.6
9818	6.4545	1.8182	0.	4707.2
9819	6.5455	1.8182	5.e-002	25.737
9820	6.5455	1.5455	0.	4516.
9821	6.4545	1.6364	0.	4583.5
9822	6.5455	1.6364	5.e-002	27.263
9823	6.5455	1.3636	0.	4361.4
9824	6.4545	1.4545	0.	4451.2
9825	6.5455	1.4545	5.e-002	29.804
9826	6.5455	1.1818	0.	4204.
9827	6.4545	1.2727	0.	4313.7
9828	6.5455	1.2727	5.e-002	32.995
9829	6.5455	1.	0.	4049.9
9830	6.4545	1.0909	0.	4176.1
9831	6.5455	1.0909	5.e-002	36.303
9832	6.5455	0.81818	0.	3905.4
9833	6.4545	0.90909	0.	4043.7
9834	6.5455	0.90909	5.e-002	39.291
9835	6.5455	0.63636	0.	3775.5
9836	6.4545	0.72727	0.	3921.6
9837	6.5455	0.72727	5.e-002	41.736
9838	6.5455	0.45455	0.	3663.6
9839	6.4545	0.54545	0.	3813.4
9840	6.5455	0.54545	5.e-002	43.625
9841	6.5455	0.27273	0.	3571.3
9842	6.4545	0.36364	0.	3721.
9843	6.5455	0.36364	5.e-002	45.5
9844	6.4545	0.18182	0.	3645.6
9845	6.5455	0.18182	5.e-002	54.502
9846	6.5455	9.0909e-002	0.	3492.6
9847	6.3636	5.7273	0.	3795.7
9848	6.2727	5.8182	0.	3861.1
9849	6.3636	5.8182	5.e-002	47.102
9850	6.3636	5.9091	0.	3730.8
9851	6.3636	5.5455	0.	3871.6
9852	6.2727	5.6364	0.	3923.5
9853	6.3636	5.6364	5.e-002	39.434
9854	6.3636	5.3636	0.	3960.8
9855	6.2727	5.4545	0.	3997.5
9856	6.3636	5.4545	5.e-002	37.718
9857	6.3636	5.1818	0.	4061.8
9858	6.2727	5.2727	0.	4082.
9859	6.3636	5.2727	5.e-002	35.982
9860	6.3636	5.	0.	4172.2
9861	6.2727	5.0909	0.	4175.4
9862	6.3636	5.0909	5.e-002	33.808
9863	6.3636	4.8182	0.	4288.2
9864	6.2727	4.9091	0.	4275.1
9865	6.3636	4.9091	5.e-002	31.243
9866	6.3636	4.6364	0.	4405.7
9867	6.2727	4.7273	0.	4377.6
9868	6.3636	4.7273	5.e-002	28.463
9869	6.3636	4.4545	0.	4520.6
9870	6.2727	4.5455	0.	4479.2
9871	6.3636	4.5455	5.e-002	25.742
9872	6.3636	4.2727	0.	4629.5
9873	6.2727	4.3636	0.	4576.8
9874	6.3636	4.3636	5.e-002	23.372
9875	6.3636	4.0909	0.	4730.2
9876	6.2727	4.1818	0.	4668.
9877	6.3636	4.1818	5.e-002	21.561
9878	6.3636	3.9091	0.	4821.2
9879	6.2727	4.	0.	4751.2
9880	6.3636	4.	5.e-002	20.39
9881	6.3636	3.7273	0.	4900.8
9882	6.2727	3.8182	0.	4825.2
9883	6.3636	3.8182	5.e-002	19.872
9884	6.3636	3.5455	0.	4967.1
9885	6.2727	3.6364	0.	4888.6
9886	6.3636	3.6364	5.e-002	19.957
9887	6.3636	3.3636	0.	5017.4
9888	6.2727	3.4545	0.	4939.3
9889	6.3636	3.4545	5.e-002	20.465
9890	6.3636	3.1818	0.	5048.9
9891	6.2727	3.2727	0.	4974.9
9892	6.3636	3.2727	5.e-002	21.084
9893	6.3636	3.	0.	5059.7
9894	6.2727	3.0909	0.	4993.3
9895	6.3636	3.0909	5.e-002	21.489
9896	6.3636	2.8182	0.	5048.9
9897	6.2727	2.9091	0.	4993.3
9898	6.3636	2.9091	5.e-002	21.489
9899	6.3636	2.6364	0.	5017.4
9900	6.2727	2.7273	0.	4974.9
9901	6.3636	2.7273	5.e-002	21.084
9902	6.3636	2.4545	0.	4967.1
9903	6.2727	2.5455	0.	4939.3
9904	6.3636	2.5455	5.e-002	20.465
9905	6.3636	2.2727	0.	4900.8
9906	6.2727	2.3636	0.	4888.6
9907	6.3636	2.3636	5.e-002	19.957
9908	6.3636	2.0909	0.	4821.2
9909	6.2727	2.1818	0.	4825.2
9910	6.3636	2.1818	5.e-002	19.872
9911	6.3636	1.9091	0.	4730.2
9912	6.2727	2.	0.	4751.2
9913	6.3636	2.	5.e-002	20.39
9914	6.3636	1.7273	0.	4629.5
9915	6.2727	1.8182	0.	4668.
9916	6.3636	1.8182	5.e-002	21.561
9917	6.3636	1.5455	0.	4520.6
9918	6.2727	1.6364	0.	4576.8
9919	6.3636	1.6364	5.e-002	23.372
9920	6.3636	1.3636	0.	4405.7
9921	6.2727	1.4545	0.	4479.2
9922	6.3636	1.4545	5.e-002	25.742
9923	6.3636	1.1818	0.	4288.2
9924	6.2727	1.2727	0.	4377.6
9925	6.3636	1.2727	5.e-002	28.463
9926	6.3636	1.	0.	4172.2
9927	6.2727	1.0909	0.	4275.1
9928	6.3636	1.0909	5.e-002	31.243
9929	6.3636	0.81818	0.	4061.8
9930	6.2727	0.90909	0.	4175.4
9931	6.3636	0.90909	5.e-002	33.808
9932	6.3636	0.63636	0.	3960.8
9933	6.2727	0.72727	0.	4082.
9934	6.3636	0.72727	5.e-002	35.982
9935	6.3636	0.45455	0.	3871.6
9936	6.2727	0.54545	0.	3997.5
9937	6.3636	0.54545	5.e-002	37.718
9938	6.3636	0.27273	0.	3795.7
9939	6.2727	0.36364	0.	3923.5
9940	6.3636	0.36364	5.e-002	39.434
9941	6.2727	0.18182	0.	3861.1
9942	6.3636	0.18182	5.e-002	47.102
9943	6.3636	9.0909e-002	0.	3730.8
9944	6.1818	5.7273	0.	3989.1
9945	6.0909	5.8182	0.	4047.9
9946	6.1818	5.8182	5.e-002	40.691
9947	6.1818	5.9091	0.	3937.1
9948	6.1818	5.5455	0.	4049.9
9949	6.0909	5.6364	0.	4097.8
9950	6.1818	5.6364	5.e-002	34.259
9951	6.1818	5.3636	0.	4119.5
9952	6.0909	5.4545	0.	4155.5
9953	6.1818	5.4545	5.e-002	32.778
9954	6.1818	5.1818	0.	4196.7
9955	6.0909	5.2727	0.	4220.
9956	6.1818	5.2727	5.e-002	31.281
9957	6.1818	5.	0.	4279.7
9958	6.0909	5.0909	0.	4290.
9959	6.1818	5.0909	5.e-002	29.438
9960	6.1818	4.8182	0.	4365.8
9961	6.0909	4.9091	0.	4363.7
9962	6.1818	4.9091	5.e-002	27.298
9963	6.1818	4.6364	0.	4452.3
9964	6.0909	4.7273	0.	4438.6
9965	6.1818	4.7273	5.e-002	24.98
9966	6.1818	4.4545	0.	4536.4
9967	6.0909	4.5455	0.	4512.4
9968	6.1818	4.5455	5.e-002	22.645
9969	6.1818	4.2727	0.	4616.
9970	6.0909	4.3636	0.	4583.
9971	6.1818	4.3636	5.e-002	20.447
9972	6.1818	4.0909	0.	4689.4
9973	6.0909	4.1818	0.	4648.8
9974	6.1818	4.1818	5.e-002	18.499
9975	6.1818	3.9091	0.	4755.5
9976	6.0909	4.	0.	4708.7
9977	6.1818	4.	5.e-002	16.879
9978	6.1818	3.7273	0.	4813.1
9979	6.0909	3.8182	0.	4761.7
9980	6.1818	3.8182	5.e-002	15.662
9981	6.1818	3.5455	0.	4860.7
9982	6.0909	3.6364	0.	4806.8
9983	6.1818	3.6364	5.e-002	14.911
9984	6.1818	3.3636	0.	4896.6
9985	6.0909	3.4545	0.	4842.6
9986	6.1818	3.4545	5.e-002	14.607
9987	6.1818	3.1818	0.	4919.
9988	6.0909	3.2727	0.	4867.7
9989	6.1818	3.2727	5.e-002	14.598
9990	6.1818	3.	0.	4926.6
9991	6.0909	3.0909	0.	4880.6
9992	6.1818	3.0909	5.e-002	14.667
9993	6.1818	2.8182	0.	4919.
9994	6.0909	2.9091	0.	4880.6
9995	6.1818	2.9091	5.e-002	14.667
9996	6.1818	2.6364	0.	4896.6
9997	6.0909	2.7273	0.	4867.7
9998	6.1818	2.7273	5.e-002	14.598
9999	6.1818	2.4545	0.	4860.7
10000	6.0909	2.5455	0.	4842.6
10001	6.1818	2.5455	5.e-002	14.607
10002	6.1818	2.2727	0.	4813.1
10003	6.0909	2.3636	0.	4806.8
10004	6.1818	2.3636	5.e-002	14.911
10005	6.1818	2.0909	0.	4755.5
10006	6.0909	2.1818	0.	4761.7
10007	6.1818	2.1818	5.e-002	15.662
10008	6.1818	1.9091	0.	4689.4
10009	6.0909	2.	0.	4708.7
10010	6.1818	2.	5.e-002	16.879
10011	6.1818	1.7273	0.	4616.
10012	6.0909	1.8182	0.	4648.8
10013	6.1818	1.8182	5.e-002	18.499
10014	6.1818	1.5455	0.	4536.4
10015	6.0909	1.6364	0.	4583.
10016	6.1818	1.6364	5.e-002	20.447
10017	6.1818	1.3636	0.	4452.3
10018	6.0909	1.4545	0.	4512.4
10019	6.1818	1.4545	5.e-002	22.645
10020	6.1818	1.1818	0.	4365.8
10021	6.0909	1.2727	0.	4438.6
10022	6.1818	1.2727	5.e-002	24.98
10023	6.1818	1.	0.	4279.7
10024	6.0909	1.0909	0.	4363.7
10025	6.1818	1.0909	5.e-002	27.298
10026	6.1818	0.81818	0.	4196.7
10027	6.0909	0.90909	0.	4290.
10028	6.1818	0.90909	5.e-002	29.438
10029	6.1818	0.63636	0.	4119.5
10030	6.0909	0.72727	0.	4220.
10031	6.1818	0.72727	5.e-002	31.281
10032	6.1818	0.45455	0.	4049.9
10033	6.0909	0.54545	0.	4155.5
10034	6.1818	0.54545	5.e-002	32.778
10035	6.1818	0.27273	0.	3989.1
10036	6.0909	0.36364	0.	4097.8
10037	6.1818	0.36364	5.e-002	34.259
10038	6.0909	0.18182	0.	4047.9
10039	6.1818	0.18182	5.e-002	40.691
10040	6.1818	9.0909e-002	0.	3937.1
10041	6.	5.7273	0.	4156.7
10042	5.9091	5.8182	0.	4210.7
10043	6.	5.8182	5.e-002	35.289
10044	6.	5.9091	0.	4116.4
10045	6.	5.5455	0.	4203.7
10046	5.9091	5.6364	0.	4248.8
10047	6.	5.6364	5.e-002	29.928
10048	6.	5.3636	0.	4256.4
10049	5.9091	5.4545	0.	4292.1
10050	6.	5.4545	5.e-002	28.708
10051	6.	5.1818	0.	4313.9
10052	5.9091	5.2727	0.	4339.7
10053	6.	5.2727	5.e-002	27.476
10054	6.	5.	0.	4374.8
10055	5.9091	5.0909	0.	4390.7
10056	6.	5.0909	5.e-002	25.965
10057	6.	4.8182	0.	4437.3
10058	5.9091	4.9091	0.	4443.5
10059	6.	4.9091	5.e-002	24.21
10060	6.	4.6364	0.	4499.4
10061	5.9091	4.7273	0.	4496.7
10062	6.	4.7273	5.e-002	22.287
10063	6.	4.4545	0.	4559.6
10064	5.9091	4.5455	0.	4548.8
10065	6.	4.5455	5.e-002	20.281
10066	6.	4.2727	0.	4616.3
10067	5.9091	4.3636	0.	4598.3
10068	6.	4.3636	5.e-002	18.269
10069	6.	4.0909	0.	4668.4
10070	5.9091	4.1818	0.	4644.3
10071	6.	4.1818	5.e-002	16.305
10072	6.	3.9091	0.	4715.1
10073	5.9091	4.	0.	4685.9
10074	6.	4.	5.e-002	14.437
10075	6.	3.7273	0.	4755.5
10076	5.9091	3.8182	0.	4722.6
10077	6.	3.8182	5.e-002	12.732
10078	6.	3.5455	0.	4788.7
10079	5.9091	3.6364	0.	4753.6
10080	6.	3.6364	5.e-002	11.29
10081	6.	3.3636	0.	4813.6
10082	5.9091	3.4545	0.	4778.
10083	6.	3.4545	5.e-002	10.21
10084	6.	3.1818	0.	4829.1
10085	5.9091	3.2727	0.	4795.
10086	6.	3.2727	5.e-002	9.5334
10087	6.	3.	0.	4834.3
10088	5.9091	3.0909	0.	4803.7
10089	6.	3.0909	5.e-002	9.2235
10090	6.	2.8182	0.	4829.1
10091	5.9091	2.9091	0.	4803.7
10092	6.	2.9091	5.e-002	9.2235
10093	6.	2.6364	0.	4813.6
10094	5.9091	2.7273	0.	4795.
10095	6.	2.7273	5.e-002	9.5334
10096	6.	2.4545	0.	4788.7
10097	5.9091	2.5455	0.	4778.
10098	6.	2.5455	5.e-002	10.21
10099	6.	2.2727	0.	4755.5
10100	5.9091	2.3636	0.	4753.6
10101	6.	2.3636	5.e-002	11.29
10102	6.	2.0909	0.	4715.1
10103	5.9091	2.1818	0.	4722.6
10104	6.	2.1818	5.e-002	12.732
10105	6.	1.9091	0.	4668.4
10106	5.9091	2.	0.	4685.9
10107	6.	2.	5.e-002	14.437
10108	6.	1.7273	0.	4616.3
10109	5.9091	1.8182	0.	4644.3
10110	6.	1.8182	5.e-002	16.305
10111	6.	1.5455	0.	4559.6
10112	5.9091	1.6364	0.	4598.3
10113	6.	1.6364	5.e-002	18.269
10114	6.	1.3636	0.	4499.4
10115	5.9091	1.4545	0.	4548.8
10116	6.	1.4545	5.e-002	20.281
10117	6.	1.1818	0.	4437.3
10118	5.9091	1.2727	0.	4496.7
10119	6.	1.2727	5.e-002	22.287
10120	6.	1.	0.	4374.8
10121	5.9091	1.0909	0.	4443.5
10122	6.	1.0909	5.e-002	24.21
10123	6.	0.81818	0.	4313.9
10124	5.9091	0.90909	0.	4390.7
10125	6.	0.90909	5.e-002	25.965
10126	6.	0.63636	0.	4256.4
10127	5.9091	0.72727	0.	4339.7
10128	6.	0.72727	5.e-002	27.476
10129	6.	0.45455	0.	4203.7
10130	5.9091	0.54545	0.	4292.1
10131	6.	0.54545	5.e-002	28.708
10132	6.	0.27273	0.	4156.7
10133	5.9091	0.36364	0.	4248.8
10134	6.	0.36364	5.e-002	29.928
10135	5.9091	0.18182	0.	4210.7
10136	6.	0.18182	5.e-002	35.289
10137	6.	9.0909e-002	0.	4116.4
10138	5.8182	5.7273	0.	4302.9
10139	5.7273	5.8182	0.	4353.6
10140	5.8182	5.8182	5.e-002	30.855
10141	5.8182	5.9091	0.	4273.1
10142	5.8182	5.5455	0.	4337.4
10143	5.7273	5.6364	0.	4380.8
10144	5.8182	5.6364	5.e-002	26.363
10145	5.8182	5.3636	0.	4375.7
10146	5.7273	5.4545	0.	4411.5
10147	5.8182	5.4545	5.e-002	25.397
10148	5.8182	5.1818	0.	4416.8
10149	5.7273	5.2727	0.	4444.9
10150	5.8182	5.2727	5.e-002	24.424
10151	5.8182	5.	0.	4459.8
10152	5.7273	5.0909	0.	4480.1
10153	5.8182	5.0909	5.e-002	23.216
10154	5.8182	4.8182	0.	4503.4
10155	5.7273	4.9091	0.	4516.2
10156	5.8182	4.9091	5.e-002	21.796
10157	5.8182	4.6364	0.	4546.4
10158	5.7273	4.7273	0.	4552.1
10159	5.8182	4.7273	5.e-002	20.205
10160	5.8182	4.4545	0.	4587.8
10161	5.7273	4.5455	0.	4587.
10162	5.8182	4.5455	5.e-002	18.489
10163	5.8182	4.2727	0.	4626.5
10164	5.7273	4.3636	0.	4620.
10165	5.8182	4.3636	5.e-002	16.678
10166	5.8182	4.0909	0.	4661.9
10167	5.7273	4.1818	0.	4650.4
10168	5.8182	4.1818	5.e-002	14.795
10169	5.8182	3.9091	0.	4693.5
10170	5.7273	4.	0.	4677.8
10171	5.8182	4.	5.e-002	12.857
10172	5.8182	3.7273	0.	4720.6
10173	5.7273	3.8182	0.	4701.8
10174	5.8182	3.8182	5.e-002	10.897
10175	5.8182	3.5455	0.	4742.8
10176	5.7273	3.6364	0.	4721.9
10177	5.8182	3.6364	5.e-002	8.9803
10178	5.8182	3.3636	0.	4759.3
10179	5.7273	3.4545	0.	4737.7
10180	5.8182	3.4545	5.e-002	7.2154
10181	5.8182	3.1818	0.	4769.6
10182	5.7273	3.2727	0.	4748.6
10183	5.8182	3.2727	5.e-002	5.7717
10184	5.8182	3.	0.	4773.
10185	5.7273	3.0909	0.	4754.2
10186	5.8182	3.0909	5.e-002	4.9112
10187	5.8182	2.8182	0.	4769.6
10188	5.7273	2.9091	0.	4754.2
10189	5.8182	2.9091	5.e-002	4.9112
10190	5.8182	2.6364	0.	4759.3
10191	5.7273	2.7273	0.	4748.6
10192	5.8182	2.7273	5.e-002	5.7717
10193	5.8182	2.4545	0.	4742.8
10194	5.7273	2.5455	0.	4737.7
10195	5.8182	2.5455	5.e-002	7.2154
10196	5.8182	2.2727	0.	4720.6
10197	5.7273	2.3636	0.	4721.9
10198	5.8182	2.3636	5.e-002	8.9803
10199	5.8182	2.0909	0.	4693.5
10200	5.7273	2.1818	0.	4701.8
10201	5.8182	2.1818	5.e-002	10.897
10202	5.8182	1.9091	0.	4661.9
10203	5.7273	2.	0.	4677.8
10204	5.8182	2.	5.e-002	12.857
10205	5.8182	1.7273	0.	4626.5
10206	5.7273	1.8182	0.	4650.4
10207	5.8182	1.8182	5.e-002	14.795
10208	5.8182	1.5455	0.	4587.8
10209	5.7273	1.6364	0.	4620.
10210	5.8182	1.6364	5.e-002	16.678
10211	5.8182	1.3636	0.	4546.4
10212	5.7273	1.4545	0.	4587.
10213	5.8182	1.4545	5.e-002	18.489
10214	5.8182	1.1818	0.	4503.4
10215	5.7273	1.2727	0.	4552.1
10216	5.8182	1.2727	5.e-002	20.205
10217	5.8182	1.	0.	4459.8
10218	5.7273	1.0909	0.	4516.2
10219	5.8182	1.0909	5.e-002	21.796
10220	5.8182	0.81818	0.	4416.8
10221	5.7273	0.90909	0.	4480.1
10222	5.8182	0.90909	5.e-002	23.216
10223	5.8182	0.63636	0.	4375.7
10224	5.7273	0.72727	0.	4444.9
10225	5.8182	0.72727	5.e-002	24.424
10226	5.8182	0.45455	0.	4337.4
10227	5.7273	0.54545	0.	4411.5
10228	5.8182	0.54545	5.e-002	25.397
10229	5.8182	0.27273	0.	4302.9
10230	5.7273	0.36364	0.	4380.8
10231	5.8182	0.36364	5.e-002	26.363
10232	5.7273	0.18182	0.	4353.6
10233	5.8182	0.18182	5.e-002	30.855
10234	5.8182	9.0909e-002	0.	4273.1
10235	5.6364	5.7273	0.	4431.6
10236	5.5455	5.8182	0.	4480.4
10237	5.6364	5.8182	5.e-002	27.316
10238	5.6364	5.9091	0.	4411.3
10239	5.6364	5.5455	0.	4455.
10240	5.5455	5.6364	0.	4497.6
10241	5.6364	5.6364	5.e-002	23.475
10242	5.6364	5.3636	0.	4480.9
10243	5.5455	5.4545	0.	4517.3
10244	5.6364	5.4545	5.e-002	22.737
10245	5.6364	5.1818	0.	4508.3
10246	5.5455	5.2727	0.	4538.5
10247	5.6364	5.2727	5.e-002	21.997
10248	5.6364	5.	0.	4536.7
10249	5.5455	5.0909	0.	4560.6
10250	5.6364	5.0909	5.e-002	21.053
10251	5.6364	4.8182	0.	4565.1
10252	5.5455	4.9091	0.	4583.1
10253	5.6364	4.9091	5.e-002	19.917
10254	5.6364	4.6364	0.	4592.9
10255	5.5455	4.7273	0.	4605.2
10256	5.6364	4.7273	5.e-002	18.61
10257	5.6364	4.4545	0.	4619.4
10258	5.5455	4.5455	0.	4626.5
10259	5.6364	4.5455	5.e-002	17.15
10260	5.6364	4.2727	0.	4644.
10261	5.5455	4.3636	0.	4646.4
10262	5.6364	4.3636	5.e-002	15.551
10263	5.6364	4.0909	0.	4666.3
10264	5.5455	4.1818	0.	4664.5
10265	5.6364	4.1818	5.e-002	13.816
10266	5.6364	3.9091	0.	4686.1
10267	5.5455	4.	0.	4680.8
10268	5.6364	4.	5.e-002	11.951
10269	5.6364	3.7273	0.	4703.
10270	5.5455	3.8182	0.	4694.9
10271	5.6364	3.8182	5.e-002	9.9655
10272	5.6364	3.5455	0.	4716.8
10273	5.5455	3.6364	0.	4706.7
10274	5.6364	3.6364	5.e-002	7.8837
10275	5.6364	3.3636	0.	4726.9
10276	5.5455	3.4545	0.	4715.9
10277	5.6364	3.4545	5.e-002	5.7436
10278	5.6364	3.1818	0.	4733.2
10279	5.5455	3.2727	0.	4722.2
10280	5.6364	3.2727	5.e-002	3.6072
10281	5.6364	3.	0.	4735.4
10282	5.5455	3.0909	0.	4725.5
10283	5.6364	3.0909	5.e-002	1.7003
10284	5.6364	2.8182	0.	4733.2
10285	5.5455	2.9091	0.	4725.5
10286	5.6364	2.9091	5.e-002	1.7003
10287	5.6364	2.6364	0.	4726.9
10288	5.5455	2.7273	0.	4722.2
10289	5.6364	2.7273	5.e-002	3.6072
10290	5.6364	2.4545	0.	4716.8
10291	5.5455	2.5455	0.	4715.9
10292	5.6364	2.5455	5.e-002	5.7436
10293	5.6364	2.2727	0.	4703.
10294	5.5455	2.3636	0.	4706.7
10295	5.6364	2.3636	5.e-002	7.8837
10296	5.6364	2.0909	0.	4686.1
10297	5.5455	2.1818	0.	4694.9
10298	5.6364	2.1818	5.e-002	9.9655
10299	5.6364	1.9091	0.	4666.3
10300	5.5455	2.	0.	4680.8
10301	5.6364	2.	5.e-002	11.951
10302	5.6364	1.7273	0.	4644.
10303	5.5455	1.8182	0.	4664.5
10304	5.6364	1.8182	5.e-002	13.816
10305	5.6364	1.5455	0.	4619.4
10306	5.5455	1.6364	0.	4646.4
10307	5.6364	1.6364	5.e-002	15.551
10308	5.6364	1.3636	0.	4592.9
10309	5.5455	1.4545	0.	4626.5
10310	5.6364	1.4545	5.e-002	17.15
10311	5.6364	1.1818	0.	4565.1
10312	5.5455	1.2727	0.	4605.2
10313	5.6364	1.2727	5.e-002	18.61
10314	5.6364	1.	0.	4536.7
10315	5.5455	1.0909	0.	4583.1
10316	5.6364	1.0909	5.e-002	19.917
10317	5.6364	0.81818	0.	4508.3
10318	5.5455	0.90909	0.	4560.6
10319	5.6364	0.90909	5.e-002	21.053
10320	5.6364	0.63636	0.	4480.9
10321	5.5455	0.72727	0.	4538.5
10322	5.6364	0.72727	5.e-002	21.997
10323	5.6364	0.45455	0.	4455.
10324	5.5455	0.54545	0.	4517.3
10325	5.6364	0.54545	5.e-002	22.737
10326	5.6364	0.27273	0.	4431.6
10327	5.5455	0.36364	0.	4497.6
10328	5.6364	0.36364	5.e-002	23.475
10329	5.5455	0.18182	0.	4480.4
10330	5.6364	0.18182	5.e-002	27.316
10331	5.6364	9.0909e-002	0.	4411.3
10332	5.4545	5.7273	0.	4546.3
10333	5.3636	5.8182	0.	4594.
10334	5.4545	5.8182	5.e-002	24.585
10335	5.4545	5.9091	0.	4534.5
10336	5.4545	5.5455	0.	4559.9
10337	5.3636	5.6364	0.	4602.2
10338	5.4545	5.6364	5.e-002	21.174
10339	5.4545	5.3636	0.	4574.9
10340	5.3636	5.4545	0.	4612.2
10341	5.4545	5.4545	5.e-002	20.627
10342	5.4545	5.1818	0.	4590.9
10343	5.3636	5.2727	0.	4623.
10344	5.4545	5.2727	5.e-002	20.088
10345	5.4545	5.	0.	4607.2
10346	5.3636	5.0909	0.	4634.2
10347	5.4545	5.0909	5.e-002	19.368
10348	5.4545	4.8182	0.	4623.3
10349	5.3636	4.9091	0.	4645.5
10350	5.4545	4.9091	5.e-002	18.47
10351	5.4545	4.6364	0.	4638.9
10352	5.3636	4.7273	0.	4656.5
10353	5.4545	4.7273	5.e-002	17.402
10354	5.4545	4.4545	0.	4653.5
10355	5.3636	4.5455	0.	4666.8
10356	5.4545	4.5455	5.e-002	16.172
10357	5.4545	4.2727	0.	4666.9
10358	5.3636	4.3636	0.	4676.2
10359	5.4545	4.3636	5.e-002	14.784
10360	5.4545	4.0909	0.	4679.
10361	5.3636	4.1818	0.	4684.7
10362	5.4545	4.1818	5.e-002	13.239
10363	5.4545	3.9091	0.	4689.6
10364	5.3636	4.	0.	4692.2
10365	5.4545	4.	5.e-002	11.542
10366	5.4545	3.7273	0.	4698.5
10367	5.3636	3.8182	0.	4698.6
10368	5.4545	3.8182	5.e-002	9.7031
10369	5.4545	3.5455	0.	4705.8
10370	5.3636	3.6364	0.	4704.
10371	5.4545	3.6364	5.e-002	7.7467
10372	5.4545	3.3636	0.	4711.1
10373	5.3636	3.4545	0.	4708.1
10374	5.4545	3.4545	5.e-002	5.7116
10375	5.4545	3.1818	0.	4714.4
10376	5.3636	3.2727	0.	4710.9
10377	5.4545	3.2727	5.e-002	3.6743
10378	5.4545	3.	0.	4715.5
10379	5.3636	3.0909	0.	4712.4
10380	5.4545	3.0909	5.e-002	1.9186
10381	5.4545	2.8182	0.	4714.4
10382	5.3636	2.9091	0.	4712.4
10383	5.4545	2.9091	5.e-002	1.9186
10384	5.4545	2.6364	0.	4711.1
10385	5.3636	2.7273	0.	4710.9
10386	5.4545	2.7273	5.e-002	3.6743
10387	5.4545	2.4545	0.	4705.8
10388	5.3636	2.5455	0.	4708.1
10389	5.4545	2.5455	5.e-002	5.7116
10390	5.4545	2.2727	0.	4698.5
10391	5.3636	2.3636	0.	4704.
10392	5.4545	2.3636	5.e-002	7.7467
10393	5.4545	2.0909	0.	4689.6
10394	5.3636	2.1818	0.	4698.6
10395	5.4545	2.1818	5.e-002	9.7031
10396	5.4545	1.9091	0.	4679.
10397	5.3636	2.	0.	4692.2
10398	5.4545	2.	5.e-002	11.542
10399	5.4545	1.7273	0.	4666.9
10400	5.3636	1.8182	0.	4684.7
10401	5.4545	1.8182	5.e-002	13.239
10402	5.4545	1.5455	0.	4653.5
10403	5.3636	1.6364	0.	4676.2
10404	5.4545	1.6364	5.e-002	14.784
10405	5.4545	1.3636	0.	4638.9
10406	5.3636	1.4545	0.	4666.8
10407	5.4545	1.4545	5.e-002	16.172
10408	5.4545	1.1818	0.	4623.3
10409	5.3636	1.2727	0.	4656.5
10410	5.4545	1.2727	5.e-002	17.402
10411	5.4545	1.	0.	4607.2
10412	5.3636	1.0909	0.	4645.5
10413	5.4545	1.0909	5.e-002	18.47
10414	5.4545	0.81818	0.	4590.9
10415	5.3636	0.90909	0.	4634.2
10416	5.4545	0.90909	5.e-002	19.368
10417	5.4545	0.63636	0.	4574.9
10418	5.3636	0.72727	0.	4623.
10419	5.4545	0.72727	5.e-002	20.088
10420	5.4545	0.45455	0.	4559.9
10421	5.3636	0.54545	0.	4612.2
10422	5.4545	0.54545	5.e-002	20.627
10423	5.4545	0.27273	0.	4546.3
10424	5.3636	0.36364	0.	4602.2
10425	5.4545	0.36364	5.e-002	21.174
10426	5.3636	0.18182	0.	4594.
10427	5.4545	0.18182	5.e-002	24.585
10428	5.4545	9.0909e-002	0.	4534.5
10429	5.2727	5.7273	0.	4649.8
10430	5.1818	5.8182	0.	4697.1
10431	5.2727	5.8182	5.e-002	22.573
10432	5.2727	5.9091	0.	4645.5
10433	5.2727	5.5455	0.	4654.5
10434	5.1818	5.6364	0.	4697.2
10435	5.2727	5.6364	5.e-002	19.376
10436	5.2727	5.3636	0.	4660.2
10437	5.1818	5.4545	0.	4698.5
10438	5.2727	5.4545	5.e-002	18.981
10439	5.2727	5.1818	0.	4666.4
10440	5.1818	5.2727	0.	4700.4
10441	5.2727	5.2727	5.e-002	18.608
10442	5.2727	5.	0.	4672.6
10443	5.1818	5.0909	0.	4702.5
10444	5.2727	5.0909	5.e-002	18.074
10445	5.2727	4.8182	0.	4678.7
10446	5.1818	4.9091	0.	4704.4
10447	5.2727	4.9091	5.e-002	17.372
10448	5.2727	4.6364	0.	4684.3
10449	5.1818	4.7273	0.	4706.2
10450	5.2727	4.7273	5.e-002	16.507
10451	5.2727	4.4545	0.	4689.5
10452	5.1818	4.5455	0.	4707.6
10453	5.2727	4.5455	5.e-002	15.48
10454	5.2727	4.2727	0.	4694.
10455	5.1818	4.3636	0.	4708.7
10456	5.2727	4.3636	5.e-002	14.294
10457	5.2727	4.0909	0.	4697.9
10458	5.1818	4.1818	0.	4709.5
10459	5.2727	4.1818	5.e-002	12.954
10460	5.2727	3.9091	0.	4701.2
10461	5.1818	4.	0.	4710.
10462	5.2727	4.	5.e-002	11.47
10463	5.2727	3.7273	0.	4704.
10464	5.1818	3.8182	0.	4710.4
10465	5.2727	3.8182	5.e-002	9.8661
10466	5.2727	3.5455	0.	4706.2
10467	5.1818	3.6364	0.	4710.7
10468	5.2727	3.6364	5.e-002	8.1858
10469	5.2727	3.3636	0.	4707.9
10470	5.1818	3.4545	0.	4710.9
10471	5.2727	3.4545	5.e-002	6.5102
10472	5.2727	3.1818	0.	4708.9
10473	5.1818	3.2727	0.	4711.1
10474	5.2727	3.2727	5.e-002	5.0023
10475	5.2727	3.	0.	4709.2
10476	5.1818	3.0909	0.	4711.2
10477	5.2727	3.0909	5.e-002	4.0064
10478	5.2727	2.8182	0.	4708.9
10479	5.1818	2.9091	0.	4711.2
10480	5.2727	2.9091	5.e-002	4.0064
10481	5.2727	2.6364	0.	4707.9
10482	5.1818	2.7273	0.	4711.1
10483	5.2727	2.7273	5.e-002	5.0023
10484	5.2727	2.4545	0.	4706.2
10485	5.1818	2.5455	0.	4710.9
10486	5.2727	2.5455	5.e-002	6.5102
10487	5.2727	2.2727	0.	4704.
10488	5.1818	2.3636	0.	4710.7
10489	5.2727	2.3636	5.e-002	8.1858
10490	5.2727	2.0909	0.	4701.2
10491	5.1818	2.1818	0.	4710.4
10492	5.2727	2.1818	5.e-002	9.8661
10493	5.2727	1.9091	0.	4697.9
10494	5.1818	2.	0.	4710.
10495	5.2727	2.	5.e-002	11.47
10496	5.2727	1.7273	0.	4694.
10497	5.1818	1.8182	0.	4709.5
10498	5.2727	1.8182	5.e-002	12.954
10499	5.2727	1.5455	0.	4689.5
10500	5.1818	1.6364	0.	4708.7
10501	5.2727	1.6364	5.e-002	14.294
10502	5.2727	1.3636	0.	4684.3
10503	5.1818	1.4545	0.	4707.6
10504	5.2727	1.4545	5.e-002	15.48
10505	5.2727	1.1818	0.	4678.7
10506	5.1818	1.2727	0.	4706.2
10507	5.2727	1.2727	5.e-002	16.507
10508	5.2727	1.	0.	4672.6
10509	5.1818	1.0909	0.	4704.4
10510	5.2727	1.0909	5.e-002	17.372
10511	5.2727	0.81818	0.	4666.4
10512	5.1818	0.90909	0.	4702.5
10513	5.2727	0.90909	5.e-002	18.074
10514	5.2727	0.63636	0.	4660.2
10515	5.1818	0.72727	0.	4700.4
10516	5.2727	0.72727	5.e-002	18.608
10517	5.2727	0.45455	0.	4654.5
10518	5.1818	0.54545	0.	4698.5
10519	5.2727	0.54545	5.e-002	18.981
10520	5.2727	0.27273	0.	4649.8
10521	5.1818	0.36364	0.	4697.2
10522	5.2727	0.36364	5.e-002	19.376
10523	5.1818	0.18182	0.	4697.1
10524	5.2727	0.18182	5.e-002	22.573
10525	5.2727	9.0909e-002	0.	4645.5
10526	5.0909	5.7273	0.	4744.4
10527	5.	5.8182	0.	4791.8
10528	5.0909	5.8182	5.e-002	21.192
10529	5.0909	5.9091	0.	4746.8
10530	5.0909	5.5455	0.	4741.2
10531	5.	5.6364	0.	4784.6
10532	5.0909	5.6364	5.e-002	18.008
10533	5.0909	5.3636	0.	4738.7
10534	5.	5.4545	0.	4778.3
10535	5.0909	5.4545	5.e-002	17.724
10536	5.0909	5.1818	0.	4736.5
10537	5.	5.2727	0.	4772.4
10538	5.0909	5.2727	5.e-002	17.485
10539	5.0909	5.	0.	4734.3
10540	5.	5.0909	0.	4766.5
10541	5.0909	5.0909	5.e-002	17.1
10542	5.0909	4.8182	0.	4731.9
10543	5.	4.9091	0.	4760.7
10544	5.0909	4.9091	5.e-002	16.56
10545	5.0909	4.6364	0.	4729.4
10546	5.	4.7273	0.	4754.8
10547	5.0909	4.7273	5.e-002	15.865
10548	5.0909	4.4545	0.	4726.8
10549	5.	4.5455	0.	4748.9
10550	5.0909	4.5455	5.e-002	15.016
10551	5.0909	4.2727	0.	4724.1
10552	5.	4.3636	0.	4743.1
10553	5.0909	4.3636	5.e-002	14.016
10554	5.0909	4.0909	0.	4721.5
10555	5.	4.1818	0.	4737.7
10556	5.0909	4.1818	5.e-002	12.876
10557	5.0909	3.9091	0.	4719.1
10558	5.	4.	0.	4732.6
10559	5.0909	4.	5.e-002	11.613
10560	5.0909	3.7273	0.	4717.
10561	5.	3.8182	0.	4728.2
10562	5.0909	3.8182	5.e-002	10.262
10563	5.0909	3.5455	0.	4715.3
10564	5.	3.6364	0.	4724.5
10565	5.0909	3.6364	5.e-002	8.8809
10566	5.0909	3.3636	0.	4714.1
10567	5.	3.4545	0.	4721.7
10568	5.0909	3.4545	5.e-002	7.567
10569	5.0909	3.1818	0.	4713.3
10570	5.	3.2727	0.	4719.8
10571	5.0909	3.2727	5.e-002	6.4764
10572	5.0909	3.	0.	4713.1
10573	5.	3.0909	0.	4718.8
10574	5.0909	3.0909	5.e-002	5.8311
10575	5.0909	2.8182	0.	4713.3
10576	5.	2.9091	0.	4718.8
10577	5.0909	2.9091	5.e-002	5.8311
10578	5.0909	2.6364	0.	4714.1
10579	5.	2.7273	0.	4719.8
10580	5.0909	2.7273	5.e-002	6.4764
10581	5.0909	2.4545	0.	4715.3
10582	5.	2.5455	0.	4721.7
10583	5.0909	2.5455	5.e-002	7.567
10584	5.0909	2.2727	0.	4717.
10585	5.	2.3636	0.	4724.5
10586	5.0909	2.3636	5.e-002	8.8809
10587	5.0909	2.0909	0.	4719.1
10588	5.	2.1818	0.	4728.2
10589	5.0909	2.1818	5.e-002	10.262
10590	5.0909	1.9091	0.	4721.5
10591	5.	2.	0.	4732.6
10592	5.0909	2.	5.e-002	11.613
10593	5.0909	1.7273	0.	4724.1
10594	5.	1.8182	0.	4737.7
10595	5.0909	1.8182	5.e-002	12.876
10596	5.0909	1.5455	0.	4726.8
10597	5.	1.6364	0.	4743.1
10598	5.0909	1.6364	5.e-002	14.016
10599	5.0909	1.3636	0.	4729.4
10600	5.	1.4545	0.	4748.9
10601	5.0909	1.4545	5.e-002	15.016
10602	5.0909	1.1818	0.	4731.9
10603	5.	1.2727	0.	4754.8
10604	5.0909	1.2727	5.e-002	15.865
10605	5.0909	1.	0.	4734.3
10606	5.	1.0909	0.	4760.7
10607	5.0909	1.0909	5.e-002	16.56
10608	5.0909	0.81818	0.	4736.5
10609	5.	0.90909	0.	4766.5
10610	5.0909	0.90909	5.e-002	17.1
10611	5.0909	0.63636	0.	4738.7
10612	5.	0.72727	0.	4772.4
10613	5.0909	0.72727	5.e-002	17.485
10614	5.0909	0.45455	0.	4741.2
10615	5.	0.54545	0.	4778.3
10616	5.0909	0.54545	5.e-002	17.724
10617	5.0909	0.27273	0.	4744.4
10618	5.	0.36364	0.	4784.6
10619	5.0909	0.36364	5.e-002	18.008
10620	5.	0.18182	0.	4791.8
10621	5.0909	0.18182	5.e-002	21.192
10622	5.0909	9.0909e-002	0.	4746.8
10623	4.9091	5.7273	0.	4832.
10624	4.8182	5.8182	0.	4880.1
10625	4.9091	5.8182	5.e-002	20.357
10626	4.9091	5.9091	0.	4840.4
10627	4.9091	5.5455	0.	4821.7
10628	4.8182	5.6364	0.	4866.
10629	4.9091	5.6364	5.e-002	17.001
10630	4.9091	5.3636	0.	4812.
10631	4.8182	5.4545	0.	4853.
10632	4.9091	5.4545	5.e-002	16.793
10633	4.9091	5.1818	0.	4802.4
10634	4.8182	5.2727	0.	4840.1
10635	4.9091	5.2727	5.e-002	16.657
10636	4.9091	5.	0.	4792.9
10637	4.8182	5.0909	0.	4827.4
10638	4.9091	5.0909	5.e-002	16.392
10639	4.9091	4.8182	0.	4783.5
10640	4.8182	4.9091	0.	4814.8
10641	4.9091	4.9091	5.e-002	15.983
10642	4.9091	4.6364	0.	4774.2
10643	4.8182	4.7273	0.	4802.5
10644	4.9091	4.7273	5.e-002	15.43
10645	4.9091	4.4545	0.	4765.2
10646	4.8182	4.5455	0.	4790.5
10647	4.9091	4.5455	5.e-002	14.733
10648	4.9091	4.2727	0.	4756.6
10649	4.8182	4.3636	0.	4779.1
10650	4.9091	4.3636	5.e-002	13.9
10651	4.9091	4.0909	0.	4748.7
10652	4.8182	4.1818	0.	4768.5
10653	4.9091	4.1818	5.e-002	12.942
10654	4.9091	3.9091	0.	4741.7
10655	4.8182	4.	0.	4758.9
10656	4.9091	4.	5.e-002	11.885
10657	4.9091	3.7273	0.	4735.7
10658	4.8182	3.8182	0.	4750.6
10659	4.9091	3.8182	5.e-002	10.767
10660	4.9091	3.5455	0.	4730.9
10661	4.8182	3.6364	0.	4743.7
10662	4.9091	3.6364	5.e-002	9.6513
10663	4.9091	3.3636	0.	4727.4
10664	4.8182	3.4545	0.	4738.5
10665	4.9091	3.4545	5.e-002	8.6274
10666	4.9091	3.1818	0.	4725.3
10667	4.8182	3.2727	0.	4734.9
10668	4.9091	3.2727	5.e-002	7.8182
10669	4.9091	3.	0.	4724.6
10670	4.8182	3.0909	0.	4733.1
10671	4.9091	3.0909	5.e-002	7.3628
10672	4.9091	2.8182	0.	4725.3
10673	4.8182	2.9091	0.	4733.1
10674	4.9091	2.9091	5.e-002	7.3628
10675	4.9091	2.6364	0.	4727.4
10676	4.8182	2.7273	0.	4734.9
10677	4.9091	2.7273	5.e-002	7.8182
10678	4.9091	2.4545	0.	4730.9
10679	4.8182	2.5455	0.	4738.5
10680	4.9091	2.5455	5.e-002	8.6274
10681	4.9091	2.2727	0.	4735.7
10682	4.8182	2.3636	0.	4743.7
10683	4.9091	2.3636	5.e-002	9.6513
10684	4.9091	2.0909	0.	4741.7
10685	4.8182	2.1818	0.	4750.6
10686	4.9091	2.1818	5.e-002	10.767
10687	4.9091	1.9091	0.	4748.7
10688	4.8182	2.	0.	4758.9
10689	4.9091	2.	5.e-002	11.885
10690	4.9091	1.7273	0.	4756.6
10691	4.8182	1.8182	0.	4768.5
10692	4.9091	1.8182	5.e-002	12.942
10693	4.9091	1.5455	0.	4765.2
10694	4.8182	1.6364	0.	4779.1
10695	4.9091	1.6364	5.e-002	13.9
10696	4.9091	1.3636	0.	4774.2
10697	4.8182	1.4545	0.	4790.5
10698	4.9091	1.4545	5.e-002	14.733
10699	4.9091	1.1818	0.	4783.5
10700	4.8182	1.2727	0.	4802.5
10701	4.9091	1.2727	5.e-002	15.43
10702	4.9091	1.	0.	4792.9
10703	4.8182	1.0909	0.	4814.8
10704	4.9091	1.0909	5.e-002	15.983
10705	4.9091	0.81818	0.	4802.4
10706	4.8182	0.90909	0.	4827.4
10707	4.9091	0.90909	5.e-002	16.392
10708	4.9091	0.63636	0.	4812.
10709	4.8182	0.72727	0.	4840.1
10710	4.9091	0.72727	5.e-002	16.657
10711	4.9091	0.45455	0.	4821.7
10712	4.8182	0.54545	0.	4853.
10713	4.9091	0.54545	5.e-002	16.793
10714	4.9091	0.27273	0.	4832.
10715	4.8182	0.36364	0.	4866.
10716	4.9091	0.36364	5.e-002	17.001
10717	4.8182	0.18182	0.	4880.1
10718	4.9091	0.18182	5.e-002	20.357
10719	4.9091	9.0909e-002	0.	4840.4
10720	4.7273	5.7273	0.	4914.1
10721	4.6364	5.8182	0.	4963.3
10722	4.7273	5.8182	5.e-002	19.991
10723	4.7273	5.9091	0.	4928.
10724	4.7273	5.5455	0.	4897.3
10725	4.6364	5.6364	0.	4943.
10726	4.7273	5.6364	5.e-002	16.3
10727	4.7273	5.3636	0.	4881.1
10728	4.6364	5.4545	0.	4923.7
10729	4.7273	5.4545	5.e-002	16.134
10730	4.7273	5.1818	0.	4865.1
10731	4.6364	5.2727	0.	4904.7
10732	4.7273	5.2727	5.e-002	16.076
10733	4.7273	5.	0.	4849.3
10734	4.6364	5.0909	0.	4885.9
10735	4.7273	5.0909	5.e-002	15.904
10736	4.7273	4.8182	0.	4833.8
10737	4.6364	4.9091	0.	4867.4
10738	4.7273	4.9091	5.e-002	15.601
10739	4.7273	4.6364	0.	4818.7
10740	4.6364	4.7273	0.	4849.5
10741	4.7273	4.7273	5.e-002	15.165
10742	4.7273	4.4545	0.	4804.3
10743	4.6364	4.5455	0.	4832.2
10744	4.7273	4.5455	5.e-002	14.598
10745	4.7273	4.2727	0.	4790.8
10746	4.6364	4.3636	0.	4816.
10747	4.7273	4.3636	5.e-002	13.908
10748	4.7273	4.0909	0.	4778.6
10749	4.6364	4.1818	0.	4801.1
10750	4.7273	4.1818	5.e-002	13.111
10751	4.7273	3.9091	0.	4767.8
10752	4.6364	4.	0.	4787.8
10753	4.7273	4.	5.e-002	12.234
10754	4.7273	3.7273	0.	4758.6
10755	4.6364	3.8182	0.	4776.3
10756	4.7273	3.8182	5.e-002	11.316
10757	4.7273	3.5455	0.	4751.3
10758	4.6364	3.6364	0.	4766.9
10759	4.7273	3.6364	5.e-002	10.417
10760	4.7273	3.3636	0.	4746.
10761	4.6364	3.4545	0.	4759.6
10762	4.7273	3.4545	5.e-002	9.6128
10763	4.7273	3.1818	0.	4742.7
10764	4.6364	3.2727	0.	4754.7
10765	4.7273	3.2727	5.e-002	8.9961
10766	4.7273	3.	0.	4741.7
10767	4.6364	3.0909	0.	4752.3
10768	4.7273	3.0909	5.e-002	8.6579
10769	4.7273	2.8182	0.	4742.7
10770	4.6364	2.9091	0.	4752.3
10771	4.7273	2.9091	5.e-002	8.6579
10772	4.7273	2.6364	0.	4746.
10773	4.6364	2.7273	0.	4754.7
10774	4.7273	2.7273	5.e-002	8.9961
10775	4.7273	2.4545	0.	4751.3
10776	4.6364	2.5455	0.	4759.6
10777	4.7273	2.5455	5.e-002	9.6128
10778	4.7273	2.2727	0.	4758.6
10779	4.6364	2.3636	0.	4766.9
10780	4.7273	2.3636	5.e-002	10.417
10781	4.7273	2.0909	0.	4767.8
10782	4.6364	2.1818	0.	4776.3
10783	4.7273	2.1818	5.e-002	11.316
10784	4.7273	1.9091	0.	4778.6
10785	4.6364	2.	0.	4787.8
10786	4.7273	2.	5.e-002	12.234
10787	4.7273	1.7273	0.	4790.8
10788	4.6364	1.8182	0.	4801.1
10789	4.7273	1.8182	5.e-002	13.111
10790	4.7273	1.5455	0.	4804.3
10791	4.6364	1.6364	0.	4816.
10792	4.7273	1.6364	5.e-002	13.908
10793	4.7273	1.3636	0.	4818.7
10794	4.6364	1.4545	0.	4832.2
10795	4.7273	1.4545	5.e-002	14.598
10796	4.7273	1.1818	0.	4833.8
10797	4.6364	1.2727	0.	4849.5
10798	4.7273	1.2727	5.e-002	15.165
10799	4.7273	1.	0.	4849.3
10800	4.6364	1.0909	0.	4867.4
10801	4.7273	1.0909	5.e-002	15.601
10802	4.7273	0.81818	0.	4865.1
10803	4.6364	0.90909	0.	4885.9
10804	4.7273	0.90909	5.e-002	15.904
10805	4.7273	0.63636	0.	4881.1
10806	4.6364	0.72727	0.	4904.7
10807	4.7273	0.72727	5.e-002	16.076
10808	4.7273	0.45455	0.	4897.3
10809	4.6364	0.54545	0.	4923.7
10810	4.7273	0.54545	5.e-002	16.134
10811	4.7273	0.27273	0.	4914.1
10812	4.6364	0.36364	0.	4943.
10813	4.7273	0.36364	5.e-002	16.3
10814	4.6364	0.18182	0.	4963.3
10815	4.7273	0.18182	5.e-002	19.991
10816	4.7273	9.0909e-002	0.	4928.
10817	4.5455	5.7273	0.	4992.1
10818	4.4545	5.8182	0.	5042.6
10819	4.5455	5.8182	5.e-002	20.024
10820	4.5455	5.9091	0.	5011.
10821	4.5455	5.5455	0.	4969.3
10822	4.4545	5.6364	0.	5016.4
10823	4.5455	5.6364	5.e-002	15.853
10824	4.5455	5.3636	0.	4947.2
10825	4.4545	5.4545	0.	4991.3
10826	4.5455	5.4545	5.e-002	15.703
10827	4.5455	5.1818	0.	4925.4
10828	4.4545	5.2727	0.	4966.7
10829	4.5455	5.2727	5.e-002	15.703
10830	4.5455	5.	0.	4903.9
10831	4.4545	5.0909	0.	4942.4
10832	4.5455	5.0909	5.e-002	15.603
10833	4.5455	4.8182	0.	4883.1
10834	4.4545	4.9091	0.	4918.7
10835	4.5455	4.9091	5.e-002	15.384
10836	4.5455	4.6364	0.	4863.
10837	4.4545	4.7273	0.	4895.9
10838	4.5455	4.7273	5.e-002	15.044
10839	4.5455	4.4545	0.	4843.9
10840	4.4545	4.5455	0.	4874.1
10841	4.5455	4.5455	5.e-002	14.585
10842	4.5455	4.2727	0.	4826.3
10843	4.4545	4.3636	0.	4853.8
10844	4.5455	4.3636	5.e-002	14.017
10845	4.5455	4.0909	0.	4810.3
10846	4.4545	4.1818	0.	4835.2
10847	4.5455	4.1818	5.e-002	13.357
10848	4.5455	3.9091	0.	4796.3
10849	4.4545	4.	0.	4818.7
10850	4.5455	4.	5.e-002	12.631
10851	4.5455	3.7273	0.	4784.6
10852	4.4545	3.8182	0.	4804.5
10853	4.5455	3.8182	5.e-002	11.878
10854	4.5455	3.5455	0.	4775.2
10855	4.4545	3.6364	0.	4792.9
10856	4.5455	3.6364	5.e-002	11.151
10857	4.5455	3.3636	0.	4768.4
10858	4.4545	3.4545	0.	4784.
10859	4.5455	3.4545	5.e-002	10.512
10860	4.5455	3.1818	0.	4764.2
10861	4.4545	3.2727	0.	4778.
10862	4.5455	3.2727	5.e-002	10.031
10863	4.5455	3.	0.	4762.9
10864	4.4545	3.0909	0.	4775.
10865	4.5455	3.0909	5.e-002	9.7715
10866	4.5455	2.8182	0.	4764.2
10867	4.4545	2.9091	0.	4775.
10868	4.5455	2.9091	5.e-002	9.7715
10869	4.5455	2.6364	0.	4768.4
10870	4.4545	2.7273	0.	4778.
10871	4.5455	2.7273	5.e-002	10.031
10872	4.5455	2.4545	0.	4775.2
10873	4.4545	2.5455	0.	4784.
10874	4.5455	2.5455	5.e-002	10.512
10875	4.5455	2.2727	0.	4784.6
10876	4.4545	2.3636	0.	4792.9
10877	4.5455	2.3636	5.e-002	11.151
10878	4.5455	2.0909	0.	4796.4
10879	4.4545	2.1818	0.	4804.5
10880	4.5455	2.1818	5.e-002	11.878
10881	4.5455	1.9091	0.	4810.3
10882	4.4545	2.	0.	4818.7
10883	4.5455	2.	5.e-002	12.631
10884	4.5455	1.7273	0.	4826.3
10885	4.4545	1.8182	0.	4835.2
10886	4.5455	1.8182	5.e-002	13.357
10887	4.5455	1.5455	0.	4843.9
10888	4.4545	1.6364	0.	4853.8
10889	4.5455	1.6364	5.e-002	14.017
10890	4.5455	1.3636	0.	4863.
10891	4.4545	1.4545	0.	4874.1
10892	4.5455	1.4545	5.e-002	14.585
10893	4.5455	1.1818	0.	4883.1
10894	4.4545	1.2727	0.	4895.9
10895	4.5455	1.2727	5.e-002	15.044
10896	4.5455	1.	0.	4903.9
10897	4.4545	1.0909	0.	4918.7
10898	4.5455	1.0909	5.e-002	15.384
10899	4.5455	0.81818	0.	4925.4
10900	4.4545	0.90909	0.	4942.4
10901	4.5455	0.90909	5.e-002	15.603
10902	4.5455	0.63636	0.	4947.2
10903	4.4545	0.72727	0.	4966.7
10904	4.5455	0.72727	5.e-002	15.703
10905	4.5455	0.45455	0.	4969.3
10906	4.4545	0.54545	0.	4991.3
10907	4.5455	0.54545	5.e-002	15.703
10908	4.5455	0.27273	0.	4992.1
10909	4.4545	0.36364	0.	5016.4
10910	4.5455	0.36364	5.e-002	15.853
10911	4.4545	0.18182	0.	5042.6
10912	4.5455	0.18182	5.e-002	20.024
10913	4.5455	9.0909e-002	0.	5011.
10914	4.3636	5.7273	0.	5066.9
10915	4.2727	5.8182	0.	5119.
10916	4.3636	5.8182	5.e-002	20.397
10917	4.3636	5.9091	0.	5090.3
10918	4.3636	5.5455	0.	5038.4
10919	4.2727	5.6364	0.	5087.1
10920	4.3636	5.6364	5.e-002	15.619
10921	4.3636	5.3636	0.	5010.8
10922	4.2727	5.4545	0.	5056.7
10923	4.3636	5.4545	5.e-002	15.465
10924	4.3636	5.1818	0.	4983.7
10925	4.2727	5.2727	0.	5026.8
10926	4.3636	5.2727	5.e-002	15.505
10927	4.3636	5.	0.	4957.2
10928	4.2727	5.0909	0.	4997.5
10929	4.3636	5.0909	5.e-002	15.46
10930	4.3636	4.8182	0.	4931.5
10931	4.2727	4.9091	0.	4969.1
10932	4.3636	4.9091	5.e-002	15.308
10933	4.3636	4.6364	0.	4907.
10934	4.2727	4.7273	0.	4941.8
10935	4.3636	4.7273	5.e-002	15.046
10936	4.3636	4.4545	0.	4883.9
10937	4.2727	4.5455	0.	4916.
10938	4.3636	4.5455	5.e-002	14.676
10939	4.3636	4.2727	0.	4862.6
10940	4.2727	4.3636	0.	4892.
10941	4.3636	4.3636	5.e-002	14.21
10942	4.3636	4.0909	0.	4843.5
10943	4.2727	4.1818	0.	4870.2
10944	4.3636	4.1818	5.e-002	13.663
10945	4.3636	3.9091	0.	4826.8
10946	4.2727	4.	0.	4850.9
10947	4.3636	4.	5.e-002	13.063
10948	4.3636	3.7273	0.	4812.7
10949	4.2727	3.8182	0.	4834.4
10950	4.3636	3.8182	5.e-002	12.444
10951	4.3636	3.5455	0.	4801.6
10952	4.2727	3.6364	0.	4820.9
10953	4.3636	3.6364	5.e-002	11.851
10954	4.3636	3.3636	0.	4793.6
10955	4.2727	3.4545	0.	4810.6
10956	4.3636	3.4545	5.e-002	11.337
10957	4.3636	3.1818	0.	4788.7
10958	4.2727	3.2727	0.	4803.7
10959	4.3636	3.2727	5.e-002	10.955
10960	4.3636	3.	0.	4787.1
10961	4.2727	3.0909	0.	4800.2
10962	4.3636	3.0909	5.e-002	10.751
10963	4.3636	2.8182	0.	4788.7
10964	4.2727	2.9091	0.	4800.2
10965	4.3636	2.9091	5.e-002	10.751
10966	4.3636	2.6364	0.	4793.6
10967	4.2727	2.7273	0.	4803.7
10968	4.3636	2.7273	5.e-002	10.955
10969	4.3636	2.4545	0.	4801.6
10970	4.2727	2.5455	0.	4810.6
10971	4.3636	2.5455	5.e-002	11.337
10972	4.3636	2.2727	0.	4812.7
10973	4.2727	2.3636	0.	4820.9
10974	4.3636	2.3636	5.e-002	11.851
10975	4.3636	2.0909	0.	4826.8
10976	4.2727	2.1818	0.	4834.4
10977	4.3636	2.1818	5.e-002	12.444
10978	4.3636	1.9091	0.	4843.5
10979	4.2727	2.	0.	4850.9
10980	4.3636	2.	5.e-002	13.063
10981	4.3636	1.7273	0.	4862.6
10982	4.2727	1.8182	0.	4870.2
10983	4.3636	1.8182	5.e-002	13.663
10984	4.3636	1.5455	0.	4883.9
10985	4.2727	1.6364	0.	4892.
10986	4.3636	1.6364	5.e-002	14.21
10987	4.3636	1.3636	0.	4907.
10988	4.2727	1.4545	0.	4916.
10989	4.3636	1.4545	5.e-002	14.676
10990	4.3636	1.1818	0.	4931.5
10991	4.2727	1.2727	0.	4941.8
10992	4.3636	1.2727	5.e-002	15.046
10993	4.3636	1.	0.	4957.2
10994	4.2727	1.0909	0.	4969.1
10995	4.3636	1.0909	5.e-002	15.308
10996	4.3636	0.81818	0.	4983.7
10997	4.2727	0.90909	0.	4997.5
10998	4.3636	0.90909	5.e-002	15.46
10999	4.3636	0.63636	0.	5010.8
11000	4.2727	0.72727	0.	5026.8
11001	4.3636	0.72727	5.e-002	15.505
11002	4.3636	0.45455	0.	5038.4
11003	4.2727	0.54545	0.	5056.7
11004	4.3636	0.54545	5.e-002	15.465
11005	4.3636	0.27273	0.	5066.9
11006	4.2727	0.36364	0.	5087.1
11007	4.3636	0.36364	5.e-002	15.619
11008	4.2727	0.18182	0.	5119.
11009	4.3636	0.18182	5.e-002	20.397
11010	4.3636	9.0909e-002	0.	5090.3
11011	4.1818	5.7273	0.	5139.2
11012	4.0909	5.8182	0.	5193.2
11013	4.1818	5.8182	5.e-002	21.059
11014	4.1818	5.9091	0.	5166.8
11015	4.1818	5.5455	0.	5105.4
11016	4.0909	5.6364	0.	5155.9
11017	4.1818	5.6364	5.e-002	15.563
11018	4.1818	5.3636	0.	5072.7
11019	4.0909	5.4545	0.	5120.3
11020	4.1818	5.4545	5.e-002	15.389
11021	4.1818	5.1818	0.	5040.6
11022	4.0909	5.2727	0.	5085.5
11023	4.1818	5.2727	5.e-002	15.458
11024	4.1818	5.	0.	5009.4
11025	4.0909	5.0909	0.	5051.5
11026	4.1818	5.0909	5.e-002	15.456
11027	4.1818	4.8182	0.	4979.3
11028	4.0909	4.9091	0.	5018.6
11029	4.1818	4.9091	5.e-002	15.356
11030	4.1818	4.6364	0.	4950.7
11031	4.0909	4.7273	0.	4987.2
11032	4.1818	4.7273	5.e-002	15.156
11033	4.1818	4.4545	0.	4924.
11034	4.0909	4.5455	0.	4957.7
11035	4.1818	4.5455	5.e-002	14.859
11036	4.1818	4.2727	0.	4899.5
11037	4.0909	4.3636	0.	4930.4
11038	4.1818	4.3636	5.e-002	14.476
11039	4.1818	4.0909	0.	4877.5
11040	4.0909	4.1818	0.	4905.8
11041	4.1818	4.1818	5.e-002	14.023
11042	4.1818	3.9091	0.	4858.5
11043	4.0909	4.	0.	4884.
11044	4.1818	4.	5.e-002	13.525
11045	4.1818	3.7273	0.	4842.5
11046	4.0909	3.8182	0.	4865.5
11047	4.1818	3.8182	5.e-002	13.013
11048	4.1818	3.5455	0.	4829.9
11049	4.0909	3.6364	0.	4850.4
11050	4.1818	3.6364	5.e-002	12.526
11051	4.1818	3.3636	0.	4820.8
11052	4.0909	3.4545	0.	4838.9
11053	4.1818	3.4545	5.e-002	12.108
11054	4.1818	3.1818	0.	4815.2
11055	4.0909	3.2727	0.	4831.2
11056	4.1818	3.2727	5.e-002	11.799
11057	4.1818	3.	0.	4813.4
11058	4.0909	3.0909	0.	4827.3
11059	4.1818	3.0909	5.e-002	11.635
11060	4.1818	2.8182	0.	4815.2
11061	4.0909	2.9091	0.	4827.3
11062	4.1818	2.9091	5.e-002	11.635
11063	4.1818	2.6364	0.	4820.8
11064	4.0909	2.7273	0.	4831.2
11065	4.1818	2.7273	5.e-002	11.799
11066	4.1818	2.4545	0.	4829.9
11067	4.0909	2.5455	0.	4838.9
11068	4.1818	2.5455	5.e-002	12.108
11069	4.1818	2.2727	0.	4842.5
11070	4.0909	2.3636	0.	4850.4
11071	4.1818	2.3636	5.e-002	12.526
11072	4.1818	2.0909	0.	4858.5
11073	4.0909	2.1818	0.	4865.5
11074	4.1818	2.1818	5.e-002	13.013
11075	4.1818	1.9091	0.	4877.5
11076	4.0909	2.	0.	4884.
11077	4.1818	2.	5.e-002	13.525
11078	4.1818	1.7273	0.	4899.5
11079	4.0909	1.8182	0.	4905.8
11080	4.1818	1.8182	5.e-002	14.023
11081	4.1818	1.5455	0.	4924.
11082	4.0909	1.6364	0.	4930.4
11083	4.1818	1.6364	5.e-002	14.476
11084	4.1818	1.3636	0.	4950.7
11085	4.0909	1.4545	0.	4957.7
11086	4.1818	1.4545	5.e-002	14.859
11087	4.1818	1.1818	0.	4979.3
11088	4.0909	1.2727	0.	4987.2
11089	4.1818	1.2727	5.e-002	15.156
11090	4.1818	1.	0.	5009.4
11091	4.0909	1.0909	0.	5018.6
11092	4.1818	1.0909	5.e-002	15.356
11093	4.1818	0.81818	0.	5040.6
11094	4.0909	0.90909	0.	5051.5
11095	4.1818	0.90909	5.e-002	15.456
11096	4.1818	0.63636	0.	5072.7
11097	4.0909	0.72727	0.	5085.5
11098	4.1818	0.72727	5.e-002	15.458
11099	4.1818	0.45455	0.	5105.4
11100	4.0909	0.54545	0.	5120.3
11101	4.1818	0.54545	5.e-002	15.389
11102	4.1818	0.27273	0.	5139.2
11103	4.0909	0.36364	0.	5155.9
11104	4.1818	0.36364	5.e-002	15.563
11105	4.0909	0.18182	0.	5193.2
11106	4.1818	0.18182	5.e-002	21.059
11107	4.1818	9.0909e-002	0.	5166.8
11108	4.	5.7273	0.	5209.8
11109	3.9091	5.8182	0.	5265.8
11110	4.	5.8182	5.e-002	21.97
11111	4.	5.9091	0.	5241.2
11112	4.	5.5455	0.	5170.7
11113	3.9091	5.6364	0.	5223.1
11114	4.	5.6364	5.e-002	15.655
11115	4.	5.3636	0.	5133.1
11116	3.9091	5.4545	0.	5182.6
11117	4.	5.4545	5.e-002	15.452
11118	4.	5.1818	0.	5096.4
11119	3.9091	5.2727	0.	5143.
11120	4.	5.2727	5.e-002	15.542
11121	4.	5.	0.	5060.7
11122	3.9091	5.0909	0.	5104.5
11123	4.	5.0909	5.e-002	15.573
11124	4.	4.8182	0.	5026.5
11125	3.9091	4.9091	0.	5067.4
11126	4.	4.9091	5.e-002	15.515
11127	4.	4.6364	0.	4994.2
11128	3.9091	4.7273	0.	5032.2
11129	4.	4.7273	5.e-002	15.365
11130	4.	4.4545	0.	4964.1
11131	3.9091	4.5455	0.	4999.3
11132	4.	4.5455	5.e-002	15.128
11133	4.	4.2727	0.	4936.7
11134	3.9091	4.3636	0.	4969.
11135	4.	4.3636	5.e-002	14.813
11136	4.	4.0909	0.	4912.2
11137	3.9091	4.1818	0.	4941.7
11138	4.	4.1818	5.e-002	14.436
11139	4.	3.9091	0.	4891.
11140	3.9091	4.	0.	4917.7
11141	4.	4.	5.e-002	14.02
11142	4.	3.7273	0.	4873.3
11143	3.9091	3.8182	0.	4897.4
11144	4.	3.8182	5.e-002	13.594
11145	4.	3.5455	0.	4859.4
11146	3.9091	3.6364	0.	4880.9
11147	4.	3.6364	5.e-002	13.19
11148	4.	3.3636	0.	4849.4
11149	3.9091	3.4545	0.	4868.4
11150	4.	3.4545	5.e-002	12.845
11151	4.	3.1818	0.	4843.3
11152	3.9091	3.2727	0.	4860.
11153	4.	3.2727	5.e-002	12.593
11154	4.	3.	0.	4841.3
11155	3.9091	3.0909	0.	4855.8
11156	4.	3.0909	5.e-002	12.459
11157	4.	2.8182	0.	4843.3
11158	3.9091	2.9091	0.	4855.8
11159	4.	2.9091	5.e-002	12.459
11160	4.	2.6364	0.	4849.4
11161	3.9091	2.7273	0.	4860.
11162	4.	2.7273	5.e-002	12.593
11163	4.	2.4545	0.	4859.4
11164	3.9091	2.5455	0.	4868.4
11165	4.	2.5455	5.e-002	12.845
11166	4.	2.2727	0.	4873.3
11167	3.9091	2.3636	0.	4880.9
11168	4.	2.3636	5.e-002	13.19
11169	4.	2.0909	0.	4891.
11170	3.9091	2.1818	0.	4897.4
11171	4.	2.1818	5.e-002	13.594
11172	4.	1.9091	0.	4912.2
11173	3.9091	2.	0.	4917.7
11174	4.	2.	5.e-002	14.02
11175	4.	1.7273	0.	4936.7
11176	3.9091	1.8182	0.	4941.7
11177	4.	1.8182	5.e-002	14.436
11178	4.	1.5455	0.	4964.1
11179	3.9091	1.6364	0.	4969.
11180	4.	1.6364	5.e-002	14.813
11181	4.	1.3636	0.	4994.2
11182	3.9091	1.4545	0.	4999.3
11183	4.	1.4545	5.e-002	15.128
11184	4.	1.1818	0.	5026.5
11185	3.9091	1.2727	0.	5032.2
11186	4.	1.2727	5.e-002	15.365
11187	4.	1.	0.	5060.7
11188	3.9091	1.0909	0.	5067.4
11189	4.	1.0909	5.e-002	15.515
11190	4.	0.81818	0.	5096.4
11191	3.9091	0.90909	0.	5104.5
11192	4.	0.90909	5.e-002	15.573
11193	4.	0.63636	0.	5133.1
11194	3.9091	0.72727	0.	5143.
11195	4.	0.72727	5.e-002	15.542
11196	4.	0.45455	0.	5170.7
11197	3.9091	0.54545	0.	5182.6
11198	4.	0.54545	5.e-002	15.452
11199	4.	0.27273	0.	5209.8
11200	3.9091	0.36364	0.	5223.1
11201	4.	0.36364	5.e-002	15.655
11202	3.9091	0.18182	0.	5265.8
11203	4.	0.18182	5.e-002	21.97
11204	4.	9.0909e-002	0.	5241.2
11205	3.8182	5.7273	0.	5279.
11206	3.7273	5.8182	0.	5337.2
11207	3.8182	5.8182	5.e-002	23.099
11208	3.8182	5.9091	0.	5314.
11209	3.8182	5.5455	0.	5234.8
11210	3.7273	5.6364	0.	5289.1
11211	3.8182	5.6364	5.e-002	15.872
11212	3.8182	5.3636	0.	5192.4
11213	3.7273	5.4545	0.	5243.7
11214	3.8182	5.4545	5.e-002	15.636
11215	3.8182	5.1818	0.	5151.1
11216	3.7273	5.2727	0.	5199.5
11217	3.8182	5.2727	5.e-002	15.743
11218	3.8182	5.	0.	5111.2
11219	3.7273	5.0909	0.	5156.6
11220	3.8182	5.0909	5.e-002	15.8
11221	3.8182	4.8182	0.	5073.1
11222	3.7273	4.9091	0.	5115.6
11223	3.8182	4.9091	5.e-002	15.776
11224	3.8182	4.6364	0.	5037.3
11225	3.7273	4.7273	0.	5076.7
11226	3.8182	4.7273	5.e-002	15.667
11227	3.8182	4.4545	0.	5004.1
11228	3.7273	4.5455	0.	5040.6
11229	3.8182	4.5455	5.e-002	15.478
11230	3.8182	4.2727	0.	4974.
11231	3.7273	4.3636	0.	5007.4
11232	3.8182	4.3636	5.e-002	15.218
11233	3.8182	4.0909	0.	4947.2
11234	3.7273	4.1818	0.	4977.8
11235	3.8182	4.1818	5.e-002	14.903
11236	3.8182	3.9091	0.	4924.1
11237	3.7273	4.	0.	4951.8
11238	3.8182	4.	5.e-002	14.553
11239	3.8182	3.7273	0.	4904.9
11240	3.7273	3.8182	0.	4929.9
11241	3.8182	3.8182	5.e-002	14.196
11242	3.8182	3.5455	0.	4889.9
11243	3.7273	3.6364	0.	4912.2
11244	3.8182	3.6364	5.e-002	13.858
11245	3.8182	3.3636	0.	4879.
11246	3.7273	3.4545	0.	4898.7
11247	3.8182	3.4545	5.e-002	13.571
11248	3.8182	3.1818	0.	4872.5
11249	3.7273	3.2727	0.	4889.7
11250	3.8182	3.2727	5.e-002	13.362
11251	3.8182	3.	0.	4870.3
11252	3.7273	3.0909	0.	4885.2
11253	3.8182	3.0909	5.e-002	13.252
11254	3.8182	2.8182	0.	4872.5
11255	3.7273	2.9091	0.	4885.2
11256	3.8182	2.9091	5.e-002	13.252
11257	3.8182	2.6364	0.	4879.
11258	3.7273	2.7273	0.	4889.7
11259	3.8182	2.7273	5.e-002	13.362
11260	3.8182	2.4545	0.	4889.9
11261	3.7273	2.5455	0.	4898.7
11262	3.8182	2.5455	5.e-002	13.571
11263	3.8182	2.2727	0.	4904.9
11264	3.7273	2.3636	0.	4912.2
11265	3.8182	2.3636	5.e-002	13.858
11266	3.8182	2.0909	0.	4924.1
11267	3.7273	2.1818	0.	4929.9
11268	3.8182	2.1818	5.e-002	14.196
11269	3.8182	1.9091	0.	4947.2
11270	3.7273	2.	0.	4951.8
11271	3.8182	2.	5.e-002	14.553
11272	3.8182	1.7273	0.	4974.
11273	3.7273	1.8182	0.	4977.8
11274	3.8182	1.8182	5.e-002	14.903
11275	3.8182	1.5455	0.	5004.1
11276	3.7273	1.6364	0.	5007.4
11277	3.8182	1.6364	5.e-002	15.218
11278	3.8182	1.3636	0.	5037.3
11279	3.7273	1.4545	0.	5040.6
11280	3.8182	1.4545	5.e-002	15.478
11281	3.8182	1.1818	0.	5073.1
11282	3.7273	1.2727	0.	5076.7
11283	3.8182	1.2727	5.e-002	15.667
11284	3.8182	1.	0.	5111.2
11285	3.7273	1.0909	0.	5115.6
11286	3.8182	1.0909	5.e-002	15.776
11287	3.8182	0.81818	0.	5151.1
11288	3.7273	0.90909	0.	5156.6
11289	3.8182	0.90909	5.e-002	15.8
11290	3.8182	0.63636	0.	5192.4
11291	3.7273	0.72727	0.	5199.5
11292	3.8182	0.72727	5.e-002	15.743
11293	3.8182	0.45455	0.	5234.8
11294	3.7273	0.54545	0.	5243.7
11295	3.8182	0.54545	5.e-002	15.636
11296	3.8182	0.27273	0.	5279.
11297	3.7273	0.36364	0.	5289.1
11298	3.8182	0.36364	5.e-002	15.872
11299	3.7273	0.18182	0.	5337.2
11300	3.8182	0.18182	5.e-002	23.099
11301	3.8182	9.0909e-002	0.	5314.
11302	3.6364	5.7273	0.	5347.3
11303	3.5455	5.8182	0.	5407.8
11304	3.6364	5.8182	5.e-002	24.419
11305	3.6364	5.9091	0.	5385.5
11306	3.6364	5.5455	0.	5297.9
11307	3.5455	5.6364	0.	5354.1
11308	3.6364	5.6364	5.e-002	16.197
11309	3.6364	5.3636	0.	5250.7
11310	3.5455	5.4545	0.	5303.9
11311	3.6364	5.4545	5.e-002	15.927
11312	3.6364	5.1818	0.	5205.
11313	3.5455	5.2727	0.	5255.1
11314	3.6364	5.2727	5.e-002	16.049
11315	3.6364	5.	0.	5161.
11316	3.5455	5.0909	0.	5208.
11317	3.6364	5.0909	5.e-002	16.13
11318	3.6364	4.8182	0.	5119.1
11319	3.5455	4.9091	0.	5163.
11320	3.6364	4.9091	5.e-002	16.134
11321	3.6364	4.6364	0.	5080.
11322	3.5455	4.7273	0.	5120.7
11323	3.6364	4.7273	5.e-002	16.059
11324	3.6364	4.4545	0.	5043.9
11325	3.5455	4.5455	0.	5081.4
11326	3.6364	4.5455	5.e-002	15.909
11327	3.6364	4.2727	0.	5011.2
11328	3.5455	4.3636	0.	5045.7
11329	3.6364	4.3636	5.e-002	15.694
11330	3.6364	4.0909	0.	4982.4
11331	3.5455	4.1818	0.	5013.9
11332	3.6364	4.1818	5.e-002	15.429
11333	3.6364	3.9091	0.	4957.6
11334	3.5455	4.	0.	4986.2
11335	3.6364	4.	5.e-002	15.133
11336	3.6364	3.7273	0.	4937.1
11337	3.5455	3.8182	0.	4962.8
11338	3.6364	3.8182	5.e-002	14.831
11339	3.6364	3.5455	0.	4921.
11340	3.5455	3.6364	0.	4944.
11341	3.6364	3.6364	5.e-002	14.547
11342	3.6364	3.3636	0.	4909.5
11343	3.5455	3.4545	0.	4929.8
11344	3.6364	3.4545	5.e-002	14.306
11345	3.6364	3.1818	0.	4902.5
11346	3.5455	3.2727	0.	4920.3
11347	3.6364	3.2727	5.e-002	14.131
11348	3.6364	3.	0.	4900.2
11349	3.5455	3.0909	0.	4915.6
11350	3.6364	3.0909	5.e-002	14.039
11351	3.6364	2.8182	0.	4902.5
11352	3.5455	2.9091	0.	4915.6
11353	3.6364	2.9091	5.e-002	14.039
11354	3.6364	2.6364	0.	4909.5
11355	3.5455	2.7273	0.	4920.3
11356	3.6364	2.7273	5.e-002	14.131
11357	3.6364	2.4545	0.	4921.
11358	3.5455	2.5455	0.	4929.8
11359	3.6364	2.5455	5.e-002	14.306
11360	3.6364	2.2727	0.	4937.1
11361	3.5455	2.3636	0.	4944.
11362	3.6364	2.3636	5.e-002	14.547
11363	3.6364	2.0909	0.	4957.6
11364	3.5455	2.1818	0.	4962.8
11365	3.6364	2.1818	5.e-002	14.831
11366	3.6364	1.9091	0.	4982.4
11367	3.5455	2.	0.	4986.2
11368	3.6364	2.	5.e-002	15.133
11369	3.6364	1.7273	0.	5011.2
11370	3.5455	1.8182	0.	5013.9
11371	3.6364	1.8182	5.e-002	15.429
11372	3.6364	1.5455	0.	5043.9
11373	3.5455	1.6364	0.	5045.7
11374	3.6364	1.6364	5.e-002	15.694
11375	3.6364	1.3636	0.	5080.
11376	3.5455	1.4545	0.	5081.4
11377	3.6364	1.4545	5.e-002	15.909
11378	3.6364	1.1818	0.	5119.1
11379	3.5455	1.2727	0.	5120.7
11380	3.6364	1.2727	5.e-002	16.059
11381	3.6364	1.	0.	5161.
11382	3.5455	1.0909	0.	5163.
11383	3.6364	1.0909	5.e-002	16.134
11384	3.6364	0.81818	0.	5205.
11385	3.5455	0.90909	0.	5208.
11386	3.6364	0.90909	5.e-002	16.13
11387	3.6364	0.63636	0.	5250.7
11388	3.5455	0.72727	0.	5255.1
11389	3.6364	0.72727	5.e-002	16.049
11390	3.6364	0.45455	0.	5297.9
11391	3.5455	0.54545	0.	5303.9
11392	3.6364	0.54545	5.e-002	15.927
11393	3.6364	0.27273	0.	5347.3
11394	3.5455	0.36364	0.	5354.1
11395	3.6364	0.36364	5.e-002	16.197
11396	3.5455	0.18182	0.	5407.8
11397	3.6364	0.18182	5.e-002	24.419
11398	3.6364	9.0909e-002	0.	5385.5
11399	3.4545	5.7273	0.	5414.7
11400	3.3636	5.8182	0.	5477.7
11401	3.4545	5.8182	5.e-002	25.911
11402	3.4545	5.9091	0.	5456.
11403	3.4545	5.5455	0.	5360.1
11404	3.3636	5.6364	0.	5418.3
11405	3.4545	5.6364	5.e-002	16.617
11406	3.4545	5.3636	0.	5308.2
11407	3.3636	5.4545	0.	5363.2
11408	3.4545	5.4545	5.e-002	16.316
11409	3.4545	5.1818	0.	5258.
11410	3.3636	5.2727	0.	5309.8
11411	3.4545	5.2727	5.e-002	16.456
11412	3.4545	5.	0.	5210.
11413	3.3636	5.0909	0.	5258.4
11414	3.4545	5.0909	5.e-002	16.56
11415	3.4545	4.8182	0.	5164.5
11416	3.3636	4.9091	0.	5209.6
11417	3.4545	4.9091	5.e-002	16.589
11418	3.4545	4.6364	0.	5122.1
11419	3.3636	4.7273	0.	5164.
11420	3.4545	4.7273	5.e-002	16.542
11421	3.4545	4.4545	0.	5083.3
11422	3.3636	4.5455	0.	5121.8
11423	3.4545	4.5455	5.e-002	16.424
11424	3.4545	4.2727	0.	5048.3
11425	3.3636	4.3636	0.	5083.7
11426	3.4545	4.3636	5.e-002	16.245
11427	3.4545	4.0909	0.	5017.6
11428	3.3636	4.1818	0.	5049.9
11429	3.4545	4.1818	5.e-002	16.021
11430	3.4545	3.9091	0.	4991.3
11431	3.3636	4.	0.	5020.6
11432	3.4545	4.	5.e-002	15.77
11433	3.4545	3.7273	0.	4969.7
11434	3.3636	3.8182	0.	4996.1
11435	3.4545	3.8182	5.e-002	15.514
11436	3.4545	3.5455	0.	4952.8
11437	3.3636	3.6364	0.	4976.4
11438	3.4545	3.6364	5.e-002	15.274
11439	3.4545	3.3636	0.	4940.7
11440	3.3636	3.4545	0.	4961.7
11441	3.4545	3.4545	5.e-002	15.071
11442	3.4545	3.1818	0.	4933.4
11443	3.3636	3.2727	0.	4951.8
11444	3.4545	3.2727	5.e-002	14.924
11445	3.4545	3.	0.	4931.
11446	3.3636	3.0909	0.	4946.9
11447	3.4545	3.0909	5.e-002	14.847
11448	3.4545	2.8182	0.	4933.4
11449	3.3636	2.9091	0.	4946.9
11450	3.4545	2.9091	5.e-002	14.847
11451	3.4545	2.6364	0.	4940.7
11452	3.3636	2.7273	0.	4951.8
11453	3.4545	2.7273	5.e-002	14.924
11454	3.4545	2.4545	0.	4952.8
11455	3.3636	2.5455	0.	4961.7
11456	3.4545	2.5455	5.e-002	15.071
11457	3.4545	2.2727	0.	4969.7
11458	3.3636	2.3636	0.	4976.4
11459	3.4545	2.3636	5.e-002	15.274
11460	3.4545	2.0909	0.	4991.3
11461	3.3636	2.1818	0.	4996.1
11462	3.4545	2.1818	5.e-002	15.514
11463	3.4545	1.9091	0.	5017.6
11464	3.3636	2.	0.	5020.6
11465	3.4545	2.	5.e-002	15.77
11466	3.4545	1.7273	0.	5048.3
11467	3.3636	1.8182	0.	5049.9
11468	3.4545	1.8182	5.e-002	16.021
11469	3.4545	1.5455	0.	5083.3
11470	3.3636	1.6364	0.	5083.7
11471	3.4545	1.6364	5.e-002	16.245
11472	3.4545	1.3636	0.	5122.1
11473	3.3636	1.4545	0.	5121.8
11474	3.4545	1.4545	5.e-002	16.424
11475	3.4545	1.1818	0.	5164.5
11476	3.3636	1.2727	0.	5164.
11477	3.4545	1.2727	5.e-002	16.542
11478	3.4545	1.	0.	5210.
11479	3.3636	1.0909	0.	5209.6
11480	3.4545	1.0909	5.e-002	16.589
11481	3.4545	0.81818	0.	5258.
11482	3.3636	0.90909	0.	5258.4
11483	3.4545	0.90909	5.e-002	16.56
11484	3.4545	0.63636	0.	5308.2
11485	3.3636	0.72727	0.	5309.8
11486	3.4545	0.72727	5.e-002	16.456
11487	3.4545	0.45455	0.	5360.1
11488	3.3636	0.54545	0.	5363.2
11489	3.4545	0.54545	5.e-002	16.316
11490	3.4545	0.27273	0.	5414.7
11491	3.3636	0.36364	0.	5418.3
11492	3.4545	0.36364	5.e-002	16.617
11493	3.3636	0.18182	0.	5477.7
11494	3.4545	0.18182	5.e-002	25.911
11495	3.4545	9.0909e-002	0.	5456.
11496	3.2727	5.7273	0.	5481.4
11497	3.1818	5.8182	0.	5547.1
11498	3.2727	5.8182	5.e-002	27.558
11499	3.2727	5.9091	0.	5525.5
11500	3.2727	5.5455	0.	5421.4
11501	3.1818	5.6364	0.	5481.7
11502	3.2727	5.6364	5.e-002	17.121
11503	3.2727	5.3636	0.	5364.7
11504	3.1818	5.4545	0.	5421.4
11505	3.2727	5.4545	5.e-002	16.799
11506	3.2727	5.1818	0.	5310.1
11507	3.1818	5.2727	0.	5363.4
11508	3.2727	5.2727	5.e-002	16.96
11509	3.2727	5.	0.	5258.
11510	3.1818	5.0909	0.	5307.8
11511	3.2727	5.0909	5.e-002	17.088
11512	3.2727	4.8182	0.	5209.
11513	3.1818	4.9091	0.	5255.3
11514	3.2727	4.9091	5.e-002	17.141
11515	3.2727	4.6364	0.	5163.6
11516	3.1818	4.7273	0.	5206.4
11517	3.2727	4.7273	5.e-002	17.118
11518	3.2727	4.4545	0.	5122.2
11519	3.1818	4.5455	0.	5161.6
11520	3.2727	4.5455	5.e-002	17.027
11521	3.2727	4.2727	0.	5085.2
11522	3.1818	4.3636	0.	5121.3
11523	3.2727	4.3636	5.e-002	16.879
11524	3.2727	4.0909	0.	5052.9
11525	3.1818	4.1818	0.	5085.8
11526	3.2727	4.1818	5.e-002	16.689
11527	3.2727	3.9091	0.	5025.4
11528	3.1818	4.	0.	5055.3
11529	3.2727	4.	5.e-002	16.476
11530	3.2727	3.7273	0.	5002.8
11531	3.1818	3.8182	0.	5029.9
11532	3.2727	3.8182	5.e-002	16.258
11533	3.2727	3.5455	0.	4985.3
11534	3.1818	3.6364	0.	5009.6
11535	3.2727	3.6364	5.e-002	16.055
11536	3.2727	3.3636	0.	4972.7
11537	3.1818	3.4545	0.	4994.4
11538	3.2727	3.4545	5.e-002	15.885
11539	3.2727	3.1818	0.	4965.2
11540	3.1818	3.2727	0.	4984.3
11541	3.2727	3.2727	5.e-002	15.762
11542	3.2727	3.	0.	4962.7
11543	3.1818	3.0909	0.	4979.2
11544	3.2727	3.0909	5.e-002	15.698
11545	3.2727	2.8182	0.	4965.2
11546	3.1818	2.9091	0.	4979.2
11547	3.2727	2.9091	5.e-002	15.698
11548	3.2727	2.6364	0.	4972.7
11549	3.1818	2.7273	0.	4984.3
11550	3.2727	2.7273	5.e-002	15.762
11551	3.2727	2.4545	0.	4985.3
11552	3.1818	2.5455	0.	4994.4
11553	3.2727	2.5455	5.e-002	15.885
11554	3.2727	2.2727	0.	5002.8
11555	3.1818	2.3636	0.	5009.6
11556	3.2727	2.3636	5.e-002	16.055
11557	3.2727	2.0909	0.	5025.4
11558	3.1818	2.1818	0.	5029.9
11559	3.2727	2.1818	5.e-002	16.258
11560	3.2727	1.9091	0.	5052.9
11561	3.1818	2.	0.	5055.3
11562	3.2727	2.	5.e-002	16.476
11563	3.2727	1.7273	0.	5085.2
11564	3.1818	1.8182	0.	5085.8
11565	3.2727	1.8182	5.e-002	16.689
11566	3.2727	1.5455	0.	5122.2
11567	3.1818	1.6364	0.	5121.3
11568	3.2727	1.6364	5.e-002	16.879
11569	3.2727	1.3636	0.	5163.6
11570	3.1818	1.4545	0.	5161.6
11571	3.2727	1.4545	5.e-002	17.027
11572	3.2727	1.1818	0.	5209.
11573	3.1818	1.2727	0.	5206.4
11574	3.2727	1.2727	5.e-002	17.118
11575	3.2727	1.	0.	5258.
11576	3.1818	1.0909	0.	5255.3
11577	3.2727	1.0909	5.e-002	17.141
11578	3.2727	0.81818	0.	5310.1
11579	3.1818	0.90909	0.	5307.8
11580	3.2727	0.90909	5.e-002	17.088
11581	3.2727	0.63636	0.	5364.7
11582	3.1818	0.72727	0.	5363.4
11583	3.2727	0.72727	5.e-002	16.96
11584	3.2727	0.45455	0.	5421.4
11585	3.1818	0.54545	0.	5421.4
11586	3.2727	0.54545	5.e-002	16.799
11587	3.2727	0.27273	0.	5481.4
11588	3.1818	0.36364	0.	5481.7
11589	3.2727	0.36364	5.e-002	17.121
11590	3.1818	0.18182	0.	5547.1
11591	3.2727	0.18182	5.e-002	27.557
11592	3.2727	9.0909e-002	0.	5525.5
11593	3.0909	5.7273	0.	5547.3
11594	3.	5.8182	0.	5615.7
11595	3.0909	5.8182	5.e-002	29.344
11596	3.0909	5.9091	0.	5594.
11597	3.0909	5.5455	0.	5481.7
11598	3.	5.6364	0.	5543.9
11599	3.0909	5.6364	5.e-002	17.706
11600	3.0909	5.3636	0.	5420.1
11601	3.	5.4545	0.	5478.6
11602	3.0909	5.4545	5.e-002	17.375
11603	3.0909	5.1818	0.	5361.1
11604	3.	5.2727	0.	5415.8
11605	3.0909	5.2727	5.e-002	17.565
11606	3.0909	5.	0.	5305.
11607	3.	5.0909	0.	5356.
11608	3.0909	5.0909	5.e-002	17.72
11609	3.0909	4.8182	0.	5252.6
11610	3.	4.9091	0.	5299.8
11611	3.0909	4.9091	5.e-002	17.796
11612	3.0909	4.6364	0.	5204.3
11613	3.	4.7273	0.	5247.9
11614	3.0909	4.7273	5.e-002	17.795
11615	3.0909	4.4545	0.	5160.6
11616	3.	4.5455	0.	5200.7
11617	3.0909	4.5455	5.e-002	17.727
11618	3.0909	4.2727	0.	5121.9
11619	3.	4.3636	0.	5158.5
11620	3.0909	4.3636	5.e-002	17.604
11621	3.0909	4.0909	0.	5088.2
11622	3.	4.1818	0.	5121.7
11623	3.0909	4.1818	5.e-002	17.444
11624	3.0909	3.9091	0.	5059.8
11625	3.	4.	0.	5090.3
11626	3.0909	4.	5.e-002	17.263
11627	3.0909	3.7273	0.	5036.6
11628	3.	3.8182	0.	5064.3
11629	3.0909	3.8182	5.e-002	17.08
11630	3.0909	3.5455	0.	5018.6
11631	3.	3.6364	0.	5043.7
11632	3.0909	3.6364	5.e-002	16.91
11633	3.0909	3.3636	0.	5005.9
11634	3.	3.4545	0.	5028.3
11635	3.0909	3.4545	5.e-002	16.769
11636	3.0909	3.1818	0.	4998.3
11637	3.	3.2727	0.	5018.2
11638	3.0909	3.2727	5.e-002	16.668
11639	3.0909	3.	0.	4995.7
11640	3.	3.0909	0.	5013.1
11641	3.0909	3.0909	5.e-002	16.615
11642	3.0909	2.8182	0.	4998.3
11643	3.	2.9091	0.	5013.1
11644	3.0909	2.9091	5.e-002	16.615
11645	3.0909	2.6364	0.	5005.9
11646	3.	2.7273	0.	5018.2
11647	3.0909	2.7273	5.e-002	16.668
11648	3.0909	2.4545	0.	5018.6
11649	3.	2.5455	0.	5028.3
11650	3.0909	2.5455	5.e-002	16.769
11651	3.0909	2.2727	0.	5036.6
11652	3.	2.3636	0.	5043.7
11653	3.0909	2.3636	5.e-002	16.91
11654	3.0909	2.0909	0.	5059.8
11655	3.	2.1818	0.	5064.3
11656	3.0909	2.1818	5.e-002	17.08
11657	3.0909	1.9091	0.	5088.2
11658	3.	2.	0.	5090.3
11659	3.0909	2.	5.e-002	17.263
11660	3.0909	1.7273	0.	5121.9
11661	3.	1.8182	0.	5121.7
11662	3.0909	1.8182	5.e-002	17.444
11663	3.0909	1.5455	0.	5160.6
11664	3.	1.6364	0.	5158.5
11665	3.0909	1.6364	5.e-002	17.604
11666	3.0909	1.3636	0.	5204.3
11667	3.	1.4545	0.	5200.7
11668	3.0909	1.4545	5.e-002	17.727
11669	3.0909	1.1818	0.	5252.6
11670	3.	1.2727	0.	5247.9
11671	3.0909	1.2727	5.e-002	17.795
11672	3.0909	1.	0.	5305.
11673	3.	1.0909	0.	5299.8
11674	3.0909	1.0909	5.e-002	17.796
11675	3.0909	0.81818	0.	5361.1
11676	3.	0.90909	0.	5356.
11677	3.0909	0.90909	5.e-002	17.72
11678	3.0909	0.63636	0.	5420.1
11679	3.	0.72727	0.	5415.8
11680	3.0909	0.72727	5.e-002	17.565
11681	3.0909	0.45455	0.	5481.7
11682	3.	0.54545	0.	5478.6
11683	3.0909	0.54545	5.e-002	17.375
11684	3.0909	0.27273	0.	5547.3
11685	3.	0.36364	0.	5543.9
11686	3.0909	0.36364	5.e-002	17.706
11687	3.	0.18182	0.	5615.7
11688	3.0909	0.18182	5.e-002	29.344
11689	3.0909	9.0909e-002	0.	5594.
11690	2.9091	5.7273	0.	5612.3
11691	2.8182	5.8182	0.	5683.4
11692	2.9091	5.8182	5.e-002	31.255
11693	2.9091	5.9091	0.	5661.2
11694	2.9091	5.5455	0.	5540.7
11695	2.8182	5.6364	0.	5604.9
11696	2.9091	5.6364	5.e-002	18.37
11697	2.9091	5.3636	0.	5474.2
11698	2.8182	5.4545	0.	5534.1
11699	2.9091	5.4545	5.e-002	18.049
11700	2.9091	5.1818	0.	5410.6
11701	2.8182	5.2727	0.	5466.6
11702	2.9091	5.2727	5.e-002	18.277
11703	2.9091	5.	0.	5350.7
11704	2.8182	5.0909	0.	5402.5
11705	2.9091	5.0909	5.e-002	18.463
11706	2.9091	4.8182	0.	5295.
11707	2.8182	4.9091	0.	5342.8
11708	2.9091	4.9091	5.e-002	18.563
11709	2.9091	4.6364	0.	5244.1
11710	2.8182	4.7273	0.	5288.1
11711	2.9091	4.7273	5.e-002	18.582
11712	2.9091	4.4545	0.	5198.4
11713	2.8182	4.5455	0.	5238.8
11714	2.9091	4.5455	5.e-002	18.533
11715	2.9091	4.2727	0.	5158.2
11716	2.8182	4.3636	0.	5195.2
11717	2.9091	4.3636	5.e-002	18.432
11718	2.9091	4.0909	0.	5123.7
11719	2.8182	4.1818	0.	5157.5
11720	2.9091	4.1818	5.e-002	18.297
11721	2.9091	3.9091	0.	5094.7
11722	2.8182	4.	0.	5125.7
11723	2.9091	4.	5.e-002	18.146
11724	2.9091	3.7273	0.	5071.3
11725	2.8182	3.8182	0.	5099.6
11726	2.9091	3.8182	5.e-002	17.995
11727	2.9091	3.5455	0.	5053.3
11728	2.8182	3.6364	0.	5079.1
11729	2.9091	3.6364	5.e-002	17.858
11730	2.9091	3.3636	0.	5040.5
11731	2.8182	3.4545	0.	5063.9
11732	2.9091	3.4545	5.e-002	17.745
11733	2.9091	3.1818	0.	5032.9
11734	2.8182	3.2727	0.	5053.9
11735	2.9091	3.2727	5.e-002	17.665
11736	2.9091	3.	0.	5030.4
11737	2.8182	3.0909	0.	5048.9
11738	2.9091	3.0909	5.e-002	17.623
11739	2.9091	2.8182	0.	5032.9
11740	2.8182	2.9091	0.	5048.9
11741	2.9091	2.9091	5.e-002	17.623
11742	2.9091	2.6364	0.	5040.5
11743	2.8182	2.7273	0.	5053.9
11744	2.9091	2.7273	5.e-002	17.665
11745	2.9091	2.4545	0.	5053.3
11746	2.8182	2.5455	0.	5063.9
11747	2.9091	2.5455	5.e-002	17.745
11748	2.9091	2.2727	0.	5071.3
11749	2.8182	2.3636	0.	5079.1
11750	2.9091	2.3636	5.e-002	17.858
11751	2.9091	2.0909	0.	5094.7
11752	2.8182	2.1818	0.	5099.6
11753	2.9091	2.1818	5.e-002	17.995
11754	2.9091	1.9091	0.	5123.7
11755	2.8182	2.	0.	5125.7
11756	2.9091	2.	5.e-002	18.146
11757	2.9091	1.7273	0.	5158.2
11758	2.8182	1.8182	0.	5157.5
11759	2.9091	1.8182	5.e-002	18.297
11760	2.9091	1.5455	0.	5198.4
11761	2.8182	1.6364	0.	5195.2
11762	2.9091	1.6364	5.e-002	18.432
11763	2.9091	1.3636	0.	5244.1
11764	2.8182	1.4545	0.	5238.8
11765	2.9091	1.4545	5.e-002	18.533
11766	2.9091	1.1818	0.	5295.
11767	2.8182	1.2727	0.	5288.1
11768	2.9091	1.2727	5.e-002	18.582
11769	2.9091	1.	0.	5350.7
11770	2.8182	1.0909	0.	5342.8
11771	2.9091	1.0909	5.e-002	18.563
11772	2.9091	0.81818	0.	5410.6
11773	2.8182	0.90909	0.	5402.5
11774	2.9091	0.90909	5.e-002	18.463
11775	2.9091	0.63636	0.	5474.2
11776	2.8182	0.72727	0.	5466.6
11777	2.9091	0.72727	5.e-002	18.277
11778	2.9091	0.45455	0.	5540.7
11779	2.8182	0.54545	0.	5534.1
11780	2.9091	0.54545	5.e-002	18.049
11781	2.9091	0.27273	0.	5612.3
11782	2.8182	0.36364	0.	5604.9
11783	2.9091	0.36364	5.e-002	18.37
11784	2.8182	0.18182	0.	5683.4
11785	2.9091	0.18182	5.e-002	31.255
11786	2.9091	9.0909e-002	0.	5661.2
11787	2.7273	5.7273	0.	5676.
11788	2.6364	5.8182	0.	5749.9
11789	2.7273	5.8182	5.e-002	33.276
11790	2.7273	5.9091	0.	5727.
11791	2.7273	5.5455	0.	5598.2
11792	2.6364	5.6364	0.	5664.
11793	2.7273	5.6364	5.e-002	19.118
11794	2.7273	5.3636	0.	5526.4
11795	2.6364	5.4545	0.	5587.6
11796	2.7273	5.4545	5.e-002	18.834
11797	2.7273	5.1818	0.	5458.3
11798	2.6364	5.2727	0.	5515.2
11799	2.7273	5.2727	5.e-002	19.111
11800	2.7273	5.	0.	5394.6
11801	2.6364	5.0909	0.	5447.
11802	2.7273	5.0909	5.e-002	19.332
11803	2.7273	4.8182	0.	5335.8
11804	2.6364	4.9091	0.	5383.9
11805	2.7273	4.9091	5.e-002	19.456
11806	2.7273	4.6364	0.	5282.7
11807	2.6364	4.7273	0.	5326.7
11808	2.7273	4.7273	5.e-002	19.491
11809	2.7273	4.4545	0.	5235.4
11810	2.6364	4.5455	0.	5275.8
11811	2.7273	4.5455	5.e-002	19.458
11812	2.7273	4.2727	0.	5194.4
11813	2.6364	4.3636	0.	5231.4
11814	2.7273	4.3636	5.e-002	19.376
11815	2.7273	4.0909	0.	5159.4
11816	2.6364	4.1818	0.	5193.5
11817	2.7273	4.1818	5.e-002	19.265
11818	2.7273	3.9091	0.	5130.5
11819	2.6364	4.	0.	5161.9
11820	2.7273	4.	5.e-002	19.143
11821	2.7273	3.7273	0.	5107.3
11822	2.6364	3.8182	0.	5136.3
11823	2.7273	3.8182	5.e-002	19.024
11824	2.7273	3.5455	0.	5089.6
11825	2.6364	3.6364	0.	5116.4
11826	2.7273	3.6364	5.e-002	18.919
11827	2.7273	3.3636	0.	5077.2
11828	2.6364	3.4545	0.	5101.8
11829	2.7273	3.4545	5.e-002	18.835
11830	2.7273	3.1818	0.	5069.8
11831	2.6364	3.2727	0.	5092.2
11832	2.7273	3.2727	5.e-002	18.776
11833	2.7273	3.	0.	5067.4
11834	2.6364	3.0909	0.	5087.5
11835	2.7273	3.0909	5.e-002	18.746
11836	2.7273	2.8182	0.	5069.8
11837	2.6364	2.9091	0.	5087.5
11838	2.7273	2.9091	5.e-002	18.746
11839	2.7273	2.6364	0.	5077.2
11840	2.6364	2.7273	0.	5092.2
11841	2.7273	2.7273	5.e-002	18.776
11842	2.7273	2.4545	0.	5089.6
11843	2.6364	2.5455	0.	5101.8
11844	2.7273	2.5455	5.e-002	18.835
11845	2.7273	2.2727	0.	5107.3
11846	2.6364	2.3636	0.	5116.4
11847	2.7273	2.3636	5.e-002	18.919
11848	2.7273	2.0909	0.	5130.5
11849	2.6364	2.1818	0.	5136.3
11850	2.7273	2.1818	5.e-002	19.024
11851	2.7273	1.9091	0.	5159.4
11852	2.6364	2.	0.	5161.9
11853	2.7273	2.	5.e-002	19.143
11854	2.7273	1.7273	0.	5194.4
11855	2.6364	1.8182	0.	5193.5
11856	2.7273	1.8182	5.e-002	19.265
11857	2.7273	1.5455	0.	5235.4
11858	2.6364	1.6364	0.	5231.4
11859	2.7273	1.6364	5.e-002	19.376
11860	2.7273	1.3636	0.	5282.7
11861	2.6364	1.4545	0.	5275.8
11862	2.7273	1.4545	5.e-002	19.458
11863	2.7273	1.1818	0.	5335.8
11864	2.6364	1.2727	0.	5326.7
11865	2.7273	1.2727	5.e-002	19.491
11866	2.7273	1.	0.	5394.6
11867	2.6364	1.0909	0.	5383.9
11868	2.7273	1.0909	5.e-002	19.456
11869	2.7273	0.81818	0.	5458.3
11870	2.6364	0.90909	0.	5447.
11871	2.7273	0.90909	5.e-002	19.332
11872	2.7273	0.63636	0.	5526.4
11873	2.6364	0.72727	0.	5515.2
11874	2.7273	0.72727	5.e-002	19.111
11875	2.7273	0.45455	0.	5598.2
11876	2.6364	0.54545	0.	5587.6
11877	2.7273	0.54545	5.e-002	18.834
11878	2.7273	0.27273	0.	5676.
11879	2.6364	0.36364	0.	5664.
11880	2.7273	0.36364	5.e-002	19.118
11881	2.6364	0.18182	0.	5749.9
11882	2.7273	0.18182	5.e-002	33.276
11883	2.7273	9.0909e-002	0.	5727.
11884	2.5455	5.7273	0.	5737.8
11885	2.4545	5.8182	0.	5814.5
11886	2.5455	5.8182	5.e-002	35.387
11887	2.5455	5.9091	0.	5790.6
11888	2.5455	5.5455	0.	5653.4
11889	2.4545	5.6364	0.	5720.6
11890	2.5455	5.6364	5.e-002	19.963
11891	2.5455	5.3636	0.	5576.2
11892	2.4545	5.4545	0.	5638.4
11893	2.5455	5.4545	5.e-002	19.751
11894	2.5455	5.1818	0.	5503.6
11895	2.4545	5.2727	0.	5560.8
11896	2.5455	5.2727	5.e-002	20.088
11897	2.5455	5.	0.	5436.2
11898	2.4545	5.0909	0.	5488.6
11899	2.5455	5.0909	5.e-002	20.348
11900	2.5455	4.8182	0.	5374.7
11901	2.4545	4.9091	0.	5422.6
11902	2.5455	4.9091	5.e-002	20.493
11903	2.5455	4.6364	0.	5319.8
11904	2.4545	4.7273	0.	5363.4
11905	2.5455	4.7273	5.e-002	20.541
11906	2.5455	4.4545	0.	5271.6
11907	2.4545	4.5455	0.	5311.6
11908	2.5455	4.5455	5.e-002	20.518
11909	2.5455	4.2727	0.	5230.4
11910	2.4545	4.3636	0.	5267.2
11911	2.5455	4.3636	5.e-002	20.451
11912	2.5455	4.0909	0.	5195.8
11913	2.4545	4.1818	0.	5229.8
11914	2.5455	4.1818	5.e-002	20.364
11915	2.5455	3.9091	0.	5167.5
11916	2.4545	4.	0.	5199.3
11917	2.5455	4.	5.e-002	20.272
11918	2.5455	3.7273	0.	5145.2
11919	2.4545	3.8182	0.	5174.9
11920	2.5455	3.8182	5.e-002	20.187
11921	2.5455	3.5455	0.	5128.4
11922	2.4545	3.6364	0.	5156.3
11923	2.5455	3.6364	5.e-002	20.116
11924	2.5455	3.3636	0.	5116.7
11925	2.4545	3.4545	0.	5142.8
11926	2.5455	3.4545	5.e-002	20.063
11927	2.5455	3.1818	0.	5109.8
11928	2.4545	3.2727	0.	5134.1
11929	2.5455	3.2727	5.e-002	20.027
11930	2.5455	3.	0.	5107.6
11931	2.4545	3.0909	0.	5129.8
11932	2.5455	3.0909	5.e-002	20.009
11933	2.5455	2.8182	0.	5109.8
11934	2.4545	2.9091	0.	5129.8
11935	2.5455	2.9091	5.e-002	20.009
11936	2.5455	2.6364	0.	5116.7
11937	2.4545	2.7273	0.	5134.1
11938	2.5455	2.7273	5.e-002	20.027
11939	2.5455	2.4545	0.	5128.4
11940	2.4545	2.5455	0.	5142.8
11941	2.5455	2.5455	5.e-002	20.063
11942	2.5455	2.2727	0.	5145.2
11943	2.4545	2.3636	0.	5156.3
11944	2.5455	2.3636	5.e-002	20.116
11945	2.5455	2.0909	0.	5167.5
11946	2.4545	2.1818	0.	5174.9
11947	2.5455	2.1818	5.e-002	20.187
11948	2.5455	1.9091	0.	5195.8
11949	2.4545	2.	0.	5199.3
11950	2.5455	2.	5.e-002	20.272
11951	2.5455	1.7273	0.	5230.4
11952	2.4545	1.8182	0.	5229.8
11953	2.5455	1.8182	5.e-002	20.364
11954	2.5455	1.5455	0.	5271.6
11955	2.4545	1.6364	0.	5267.2
11956	2.5455	1.6364	5.e-002	20.452
11957	2.5455	1.3636	0.	5319.8
11958	2.4545	1.4545	0.	5311.6
11959	2.5455	1.4545	5.e-002	20.518
11960	2.5455	1.1818	0.	5374.7
11961	2.4545	1.2727	0.	5363.4
11962	2.5455	1.2727	5.e-002	20.541
11963	2.5455	1.	0.	5436.2
11964	2.4545	1.0909	0.	5422.6
11965	2.5455	1.0909	5.e-002	20.493
11966	2.5455	0.81818	0.	5503.6
11967	2.4545	0.90909	0.	5488.6
11968	2.5455	0.90909	5.e-002	20.348
11969	2.5455	0.63636	0.	5576.2
11970	2.4545	0.72727	0.	5560.8
11971	2.5455	0.72727	5.e-002	20.088
11972	2.5455	0.45455	0.	5653.4
11973	2.4545	0.54545	0.	5638.4
11974	2.5455	0.54545	5.e-002	19.751
11975	2.5455	0.27273	0.	5737.8
11976	2.4545	0.36364	0.	5720.6
11977	2.5455	0.36364	5.e-002	19.963
11978	2.4545	0.18182	0.	5814.5
11979	2.5455	0.18182	5.e-002	35.387
11980	2.5455	9.0909e-002	0.	5790.6
11981	2.3636	5.7273	0.	5797.1
11982	2.2727	5.8182	0.	5876.3
11983	2.3636	5.8182	5.e-002	37.564
11984	2.3636	5.9091	0.	5851.2
11985	2.3636	5.5455	0.	5705.5
11986	2.2727	5.6364	0.	5773.7
11987	2.3636	5.6364	5.e-002	20.93
11988	2.3636	5.3636	0.	5622.8
11989	2.2727	5.4545	0.	5685.2
11990	2.3636	5.4545	5.e-002	20.833
11991	2.3636	5.1818	0.	5545.6
11992	2.2727	5.2727	0.	5602.6
11993	2.3636	5.2727	5.e-002	21.243
11994	2.3636	5.	0.	5474.8
11995	2.2727	5.0909	0.	5526.5
11996	2.3636	5.0909	5.e-002	21.542
11997	2.3636	4.8182	0.	5411.1
11998	2.2727	4.9091	0.	5458.
11999	2.3636	4.9091	5.e-002	21.701
12000	2.3636	4.6364	0.	5355.1
12001	2.2727	4.7273	0.	5397.7
12002	2.3636	4.7273	5.e-002	21.753
12003	2.3636	4.4545	0.	5306.9
12004	2.2727	4.5455	0.	5346.
12005	2.3636	4.5455	5.e-002	21.734
12006	2.3636	4.2727	0.	5266.4
12007	2.2727	4.3636	0.	5302.5
12008	2.3636	4.3636	5.e-002	21.679
12009	2.3636	4.0909	0.	5233.1
12010	2.2727	4.1818	0.	5266.9
12011	2.3636	4.1818	5.e-002	21.614
12012	2.3636	3.9091	0.	5206.5
12013	2.2727	4.	0.	5238.5
12014	2.3636	4.	5.e-002	21.554
12015	2.3636	3.7273	0.	5185.8
12016	2.2727	3.8182	0.	5216.3
12017	2.3636	3.8182	5.e-002	21.507
12018	2.3636	3.5455	0.	5170.5
12019	2.2727	3.6364	0.	5199.7
12020	2.3636	3.6364	5.e-002	21.474
12021	2.3636	3.3636	0.	5160.
12022	2.2727	3.4545	0.	5188.
12023	2.3636	3.4545	5.e-002	21.454
12024	2.3636	3.1818	0.	5153.9
12025	2.2727	3.2727	0.	5180.5
12026	2.3636	3.2727	5.e-002	21.443
12027	2.3636	3.	0.	5151.9
12028	2.2727	3.0909	0.	5176.8
12029	2.3636	3.0909	5.e-002	21.439
12030	2.3636	2.8182	0.	5153.9
12031	2.2727	2.9091	0.	5176.8
12032	2.3636	2.9091	5.e-002	21.439
12033	2.3636	2.6364	0.	5160.
12034	2.2727	2.7273	0.	5180.5
12035	2.3636	2.7273	5.e-002	21.443
12036	2.3636	2.4545	0.	5170.5
12037	2.2727	2.5455	0.	5188.
12038	2.3636	2.5455	5.e-002	21.454
12039	2.3636	2.2727	0.	5185.8
12040	2.2727	2.3636	0.	5199.7
12041	2.3636	2.3636	5.e-002	21.474
12042	2.3636	2.0909	0.	5206.5
12043	2.2727	2.1818	0.	5216.3
12044	2.3636	2.1818	5.e-002	21.507
12045	2.3636	1.9091	0.	5233.1
12046	2.2727	2.	0.	5238.5
12047	2.3636	2.	5.e-002	21.554
12048	2.3636	1.7273	0.	5266.4
12049	2.2727	1.8182	0.	5266.9
12050	2.3636	1.8182	5.e-002	21.614
12051	2.3636	1.5455	0.	5306.9
12052	2.2727	1.6364	0.	5302.5
12053	2.3636	1.6364	5.e-002	21.679
12054	2.3636	1.3636	0.	5355.1
12055	2.2727	1.4545	0.	5346.
12056	2.3636	1.4545	5.e-002	21.734
12057	2.3636	1.1818	0.	5411.1
12058	2.2727	1.2727	0.	5397.7
12059	2.3636	1.2727	5.e-002	21.753
12060	2.3636	1.	0.	5474.8
12061	2.2727	1.0909	0.	5458.
12062	2.3636	1.0909	5.e-002	21.701
12063	2.3636	0.81818	0.	5545.6
12064	2.2727	0.90909	0.	5526.5
12065	2.3636	0.90909	5.e-002	21.542
12066	2.3636	0.63636	0.	5622.8
12067	2.2727	0.72727	0.	5602.6
12068	2.3636	0.72727	5.e-002	21.243
12069	2.3636	0.45455	0.	5705.5
12070	2.2727	0.54545	0.	5685.2
12071	2.3636	0.54545	5.e-002	20.833
12072	2.3636	0.27273	0.	5797.1
12073	2.2727	0.36364	0.	5773.7
12074	2.3636	0.36364	5.e-002	20.93
12075	2.2727	0.18182	0.	5876.3
12076	2.3636	0.18182	5.e-002	37.564
12077	2.3636	9.0909e-002	0.	5851.2
12078	2.1818	5.7273	0.	5852.7
12079	2.0909	5.8182	0.	5934.1
12080	2.1818	5.8182	5.e-002	39.777
12081	2.1818	5.9091	0.	5907.8
12082	2.1818	5.5455	0.	5753.3
12083	2.0909	5.6364	0.	5821.8
12084	2.1818	5.6364	5.e-002	22.061
12085	2.1818	5.3636	0.	5664.8
12086	2.0909	5.4545	0.	5726.8
12087	2.1818	5.4545	5.e-002	22.133
12088	2.1818	5.1818	0.	5583.2
12089	2.0909	5.2727	0.	5639.1
12090	2.1818	5.2727	5.e-002	22.625
12091	2.1818	5.	0.	5509.4
12092	2.0909	5.0909	0.	5559.5
12093	2.1818	5.0909	5.e-002	22.956
12094	2.1818	4.8182	0.	5444.3
12095	2.0909	4.9091	0.	5489.3
12096	2.1818	4.9091	5.e-002	23.115
12097	2.1818	4.6364	0.	5388.3
12098	2.0909	4.7273	0.	5429.
12099	2.1818	4.7273	5.e-002	23.155
12100	2.1818	4.4545	0.	5341.3
12101	2.0909	4.5455	0.	5378.7
12102	2.1818	4.5455	5.e-002	23.13
12103	2.1818	4.2727	0.	5302.8
12104	2.0909	4.3636	0.	5337.7
12105	2.1818	4.3636	5.e-002	23.082
12106	2.1818	4.0909	0.	5272.
12107	2.0909	4.1818	0.	5305.3
12108	2.1818	4.1818	5.e-002	23.039
12109	2.1818	3.9091	0.	5248.1
12110	2.0909	4.	0.	5280.3
12111	2.1818	4.	5.e-002	23.015
12112	2.1818	3.7273	0.	5230.1
12113	2.0909	3.8182	0.	5261.5
12114	2.1818	3.8182	5.e-002	23.01
12115	2.1818	3.5455	0.	5217.1
12116	2.0909	3.6364	0.	5248.
12117	2.1818	3.6364	5.e-002	23.019
12118	2.1818	3.3636	0.	5208.3
12119	2.0909	3.4545	0.	5238.6
12120	2.1818	3.4545	5.e-002	23.036
12121	2.1818	3.1818	0.	5203.3
12122	2.0909	3.2727	0.	5232.9
12123	2.1818	3.2727	5.e-002	23.052
12124	2.1818	3.	0.	5201.7
12125	2.0909	3.0909	0.	5230.1
12126	2.1818	3.0909	5.e-002	23.062
12127	2.1818	2.8182	0.	5203.3
12128	2.0909	2.9091	0.	5230.1
12129	2.1818	2.9091	5.e-002	23.062
12130	2.1818	2.6364	0.	5208.3
12131	2.0909	2.7273	0.	5232.9
12132	2.1818	2.7273	5.e-002	23.052
12133	2.1818	2.4545	0.	5217.1
12134	2.0909	2.5455	0.	5238.6
12135	2.1818	2.5455	5.e-002	23.036
12136	2.1818	2.2727	0.	5230.1
12137	2.0909	2.3636	0.	5248.
12138	2.1818	2.3636	5.e-002	23.019
12139	2.1818	2.0909	0.	5248.1
12140	2.0909	2.1818	0.	5261.5
12141	2.1818	2.1818	5.e-002	23.01
12142	2.1818	1.9091	0.	5272.
12143	2.0909	2.	0.	5280.3
12144	2.1818	2.	5.e-002	23.015
12145	2.1818	1.7273	0.	5302.8
12146	2.0909	1.8182	0.	5305.3
12147	2.1818	1.8182	5.e-002	23.039
12148	2.1818	1.5455	0.	5341.3
12149	2.0909	1.6364	0.	5337.7
12150	2.1818	1.6364	5.e-002	23.082
12151	2.1818	1.3636	0.	5388.3
12152	2.0909	1.4545	0.	5378.7
12153	2.1818	1.4545	5.e-002	23.13
12154	2.1818	1.1818	0.	5444.3
12155	2.0909	1.2727	0.	5429.
12156	2.1818	1.2727	5.e-002	23.155
12157	2.1818	1.	0.	5509.4
12158	2.0909	1.0909	0.	5489.3
12159	2.1818	1.0909	5.e-002	23.115
12160	2.1818	0.81818	0.	5583.2
12161	2.0909	0.90909	0.	5559.5
12162	2.1818	0.90909	5.e-002	22.956
12163	2.1818	0.63636	0.	5664.8
12164	2.0909	0.72727	0.	5639.1
12165	2.1818	0.72727	5.e-002	22.625
12166	2.1818	0.45455	0.	5753.3
12167	2.0909	0.54545	0.	5726.8
12168	2.1818	0.54545	5.e-002	22.133
12169	2.1818	0.27273	0.	5852.7
12170	2.0909	0.36364	0.	5821.8
12171	2.1818	0.36364	5.e-002	22.061
12172	2.0909	0.18182	0.	5934.1
12173	2.1818	0.18182	5.e-002	39.777
12174	2.1818	9.0909e-002	0.	5907.8
12175	2.	5.7273	0.	5903.
12176	1.9091	5.8182	0.	5986.1
12177	2.	5.8182	5.e-002	41.985
12178	2.	5.9091	0.	5958.7
12179	2.	5.5455	0.	5795.1
12180	1.9091	5.6364	0.	5863.
12181	2.	5.6364	5.e-002	23.426
12182	2.	5.3636	0.	5700.7
12183	1.9091	5.4545	0.	5761.
12184	2.	5.4545	5.e-002	23.733
12185	2.	5.1818	0.	5615.
12186	1.9091	5.2727	0.	5668.4
12187	2.	5.2727	5.e-002	24.306
12188	2.	5.	0.	5539.
12189	1.9091	5.0909	0.	5586.1
12190	2.	5.0909	5.e-002	24.647
12191	2.	4.8182	0.	5473.6
12192	1.9091	4.9091	0.	5515.4
12193	2.	4.9091	5.e-002	24.778
12194	2.	4.6364	0.	5419.
12195	1.9091	4.7273	0.	5456.8
12196	2.	4.7273	5.e-002	24.783
12197	2.	4.4545	0.	5374.8
12198	1.9091	4.5455	0.	5409.7
12199	2.	4.5455	5.e-002	24.736
12200	2.	4.2727	0.	5339.9
12201	1.9091	4.3636	0.	5373.2
12202	2.	4.3636	5.e-002	24.689
12203	2.	4.0909	0.	5313.3
12204	1.9091	4.1818	0.	5345.7
12205	2.	4.1818	5.e-002	24.669
12206	2.	3.9091	0.	5293.5
12207	1.9091	4.	0.	5325.8
12208	2.	4.	5.e-002	24.684
12209	2.	3.7273	0.	5279.2
12210	1.9091	3.8182	0.	5311.8
12211	2.	3.8182	5.e-002	24.725
12212	2.	3.5455	0.	5269.4
12213	1.9091	3.6364	0.	5302.4
12214	2.	3.6364	5.e-002	24.78
12215	2.	3.3636	0.	5263.
12216	1.9091	3.4545	0.	5296.3
12217	2.	3.4545	5.e-002	24.836
12218	2.	3.1818	0.	5259.5
12219	1.9091	3.2727	0.	5292.8
12220	2.	3.2727	5.e-002	24.88
12221	2.	3.	0.	5258.4
12222	1.9091	3.0909	0.	5291.1
12223	2.	3.0909	5.e-002	24.904
12224	2.	2.8182	0.	5259.5
12225	1.9091	2.9091	0.	5291.1
12226	2.	2.9091	5.e-002	24.904
12227	2.	2.6364	0.	5263.
12228	1.9091	2.7273	0.	5292.8
12229	2.	2.7273	5.e-002	24.88
12230	2.	2.4545	0.	5269.4
12231	1.9091	2.5455	0.	5296.3
12232	2.	2.5455	5.e-002	24.836
12233	2.	2.2727	0.	5279.2
12234	1.9091	2.3636	0.	5302.4
12235	2.	2.3636	5.e-002	24.78
12236	2.	2.0909	0.	5293.5
12237	1.9091	2.1818	0.	5311.8
12238	2.	2.1818	5.e-002	24.725
12239	2.	1.9091	0.	5313.3
12240	1.9091	2.	0.	5325.8
12241	2.	2.	5.e-002	24.684
12242	2.	1.7273	0.	5339.9
12243	1.9091	1.8182	0.	5345.7
12244	2.	1.8182	5.e-002	24.669
12245	2.	1.5455	0.	5374.8
12246	1.9091	1.6364	0.	5373.2
12247	2.	1.6364	5.e-002	24.689
12248	2.	1.3636	0.	5419.
12249	1.9091	1.4545	0.	5409.7
12250	2.	1.4545	5.e-002	24.736
12251	2.	1.1818	0.	5473.6
12252	1.9091	1.2727	0.	5456.8
12253	2.	1.2727	5.e-002	24.783
12254	2.	1.	0.	5539.
12255	1.9091	1.0909	0.	5515.4
12256	2.	1.0909	5.e-002	24.778
12257	2.	0.81818	0.	5615.
12258	1.9091	0.90909	0.	5586.1
12259	2.	0.90909	5.e-002	24.647
12260	2.	0.63636	0.	5700.7
12261	1.9091	0.72727	0.	5668.4
12262	2.	0.72727	5.e-002	24.306
12263	2.	0.45455	0.	5795.1
12264	1.9091	0.54545	0.	5761.
12265	2.	0.54545	5.e-002	23.733
12266	2.	0.27273	0.	5903.
12267	1.9091	0.36364	0.	5863.
12268	2.	0.36364	5.e-002	23.426
12269	1.9091	0.18182	0.	5986.1
12270	2.	0.18182	5.e-002	41.985
12271	2.	9.0909e-002	0.	5958.7
12272	1.8182	5.7273	0.	5945.8
12273	1.7273	5.8182	0.	6029.8
12274	1.8182	5.8182	5.e-002	44.133
12275	1.8182	5.9091	0.	6001.7
12276	1.8182	5.5455	0.	5828.7
12277	1.7273	5.6364	0.	5894.6
12278	1.8182	5.6364	5.e-002	25.142
12279	1.8182	5.3636	0.	5728.3
12280	1.7273	5.4545	0.	5785.4
12281	1.8182	5.4545	5.e-002	25.755
12282	1.8182	5.1818	0.	5639.1
12283	1.7273	5.2727	0.	5688.2
12284	1.8182	5.2727	5.e-002	26.389
12285	1.8182	5.	0.	5562.
12286	1.7273	5.0909	0.	5604.4
12287	1.8182	5.0909	5.e-002	26.694
12288	1.8182	4.8182	0.	5498.1
12289	1.7273	4.9091	0.	5535.1
12290	1.8182	4.9091	5.e-002	26.748
12291	1.8182	4.6364	0.	5447.
12292	1.7273	4.7273	0.	5480.4
12293	1.8182	4.7273	5.e-002	26.68
12294	1.8182	4.4545	0.	5407.7
12295	1.7273	4.5455	0.	5439.2
12296	1.8182	4.5455	5.e-002	26.589
12297	1.8182	4.2727	0.	5378.6
12298	1.7273	4.3636	0.	5409.6
12299	1.8182	4.3636	5.e-002	26.536
12300	1.8182	4.0909	0.	5358.
12301	1.7273	4.1818	0.	5389.4
12302	1.8182	4.1818	5.e-002	26.54
12303	1.8182	3.9091	0.	5343.9
12304	1.7273	4.	0.	5376.5
12305	1.8182	4.	5.e-002	26.596
12306	1.8182	3.7273	0.	5334.8
12307	1.7273	3.8182	0.	5368.8
12308	1.8182	3.8182	5.e-002	26.685
12309	1.8182	3.5455	0.	5329.1
12310	1.7273	3.6364	0.	5364.7
12311	1.8182	3.6364	5.e-002	26.787
12312	1.8182	3.3636	0.	5325.9
12313	1.7273	3.4545	0.	5362.8
12314	1.8182	3.4545	5.e-002	26.88
12315	1.8182	3.1818	0.	5324.3
12316	1.7273	3.2727	0.	5362.
12317	1.8182	3.2727	5.e-002	26.95
12318	1.8182	3.	0.	5323.8
12319	1.7273	3.0909	0.	5361.8
12320	1.8182	3.0909	5.e-002	26.987
12321	1.8182	2.8182	0.	5324.3
12322	1.7273	2.9091	0.	5361.8
12323	1.8182	2.9091	5.e-002	26.987
12324	1.8182	2.6364	0.	5325.9
12325	1.7273	2.7273	0.	5362.
12326	1.8182	2.7273	5.e-002	26.95
12327	1.8182	2.4545	0.	5329.1
12328	1.7273	2.5455	0.	5362.8
12329	1.8182	2.5455	5.e-002	26.88
12330	1.8182	2.2727	0.	5334.8
12331	1.7273	2.3636	0.	5364.7
12332	1.8182	2.3636	5.e-002	26.787
12333	1.8182	2.0909	0.	5343.9
12334	1.7273	2.1818	0.	5368.8
12335	1.8182	2.1818	5.e-002	26.685
12336	1.8182	1.9091	0.	5358.
12337	1.7273	2.	0.	5376.5
12338	1.8182	2.	5.e-002	26.596
12339	1.8182	1.7273	0.	5378.6
12340	1.7273	1.8182	0.	5389.4
12341	1.8182	1.8182	5.e-002	26.54
12342	1.8182	1.5455	0.	5407.7
12343	1.7273	1.6364	0.	5409.6
12344	1.8182	1.6364	5.e-002	26.536
12345	1.8182	1.3636	0.	5447.
12346	1.7273	1.4545	0.	5439.2
12347	1.8182	1.4545	5.e-002	26.589
12348	1.8182	1.1818	0.	5498.1
12349	1.7273	1.2727	0.	5480.4
12350	1.8182	1.2727	5.e-002	26.68
12351	1.8182	1.	0.	5562.
12352	1.7273	1.0909	0.	5535.1
12353	1.8182	1.0909	5.e-002	26.748
12354	1.8182	0.81818	0.	5639.1
12355	1.7273	0.90909	0.	5604.4
12356	1.8182	0.90909	5.e-002	26.694
12357	1.8182	0.63636	0.	5728.3
12358	1.7273	0.72727	0.	5688.2
12359	1.8182	0.72727	5.e-002	26.389
12360	1.8182	0.45455	0.	5828.7
12361	1.7273	0.54545	0.	5785.4
12362	1.8182	0.54545	5.e-002	25.755
12363	1.8182	0.27273	0.	5945.8
12364	1.7273	0.36364	0.	5894.6
12365	1.8182	0.36364	5.e-002	25.142
12366	1.7273	0.18182	0.	6029.8
12367	1.8182	0.18182	5.e-002	44.133
12368	1.8182	9.0909e-002	0.	6001.7
12369	1.6364	5.7273	0.	5978.1
12370	1.5455	5.8182	0.	6061.5
12371	1.6364	5.8182	5.e-002	46.147
12372	1.6364	5.9091	0.	6033.7
12373	1.6364	5.5455	0.	5850.9
12374	1.5455	5.6364	0.	5912.6
12375	1.6364	5.6364	5.e-002	27.404
12376	1.6364	5.3636	0.	5744.7
12377	1.5455	5.4545	0.	5795.9
12378	1.6364	5.4545	5.e-002	28.383
12379	1.6364	5.1818	0.	5652.9
12380	1.5455	5.2727	0.	5695.2
12381	1.6364	5.2727	5.e-002	29.017
12382	1.6364	5.	0.	5576.8
12383	1.5455	5.0909	0.	5611.9
12384	1.6364	5.0909	5.e-002	29.196
12385	1.6364	4.8182	0.	5516.8
12386	1.5455	4.9091	0.	5547.
12387	1.6364	4.9091	5.e-002	29.093
12388	1.6364	4.6364	0.	5472.1
12389	1.5455	4.7273	0.	5499.7
12390	1.6364	4.7273	5.e-002	28.897
12391	1.6364	4.4545	0.	5440.6
12392	1.5455	4.5455	0.	5467.8
12393	1.6364	4.5455	5.e-002	28.736
12394	1.6364	4.2727	0.	5420.
12395	1.5455	4.3636	0.	5448.3
12396	1.6364	4.3636	5.e-002	28.667
12397	1.6364	4.0909	0.	5407.6
12398	1.5455	4.1818	0.	5438.1
12399	1.6364	4.1818	5.e-002	28.694
12400	1.6364	3.9091	0.	5401.2
12401	1.5455	4.	0.	5434.3
12402	1.6364	4.	5.e-002	28.791
12403	1.6364	3.7273	0.	5398.6
12404	1.5455	3.8182	0.	5434.6
12405	1.6364	3.8182	5.e-002	28.926
12406	1.6364	3.5455	0.	5398.2
12407	1.5455	3.6364	0.	5437.
12408	1.6364	3.6364	5.e-002	29.068
12409	1.6364	3.3636	0.	5398.8
12410	1.5455	3.4545	0.	5440.
12411	1.6364	3.4545	5.e-002	29.192
12412	1.6364	3.1818	0.	5399.4
12413	1.5455	3.2727	0.	5442.6
12414	1.6364	3.2727	5.e-002	29.282
12415	1.6364	3.	0.	5399.7
12416	1.5455	3.0909	0.	5444.
12417	1.6364	3.0909	5.e-002	29.33
12418	1.6364	2.8182	0.	5399.4
12419	1.5455	2.9091	0.	5444.
12420	1.6364	2.9091	5.e-002	29.33
12421	1.6364	2.6364	0.	5398.8
12422	1.5455	2.7273	0.	5442.6
12423	1.6364	2.7273	5.e-002	29.282
12424	1.6364	2.4545	0.	5398.2
12425	1.5455	2.5455	0.	5440.
12426	1.6364	2.5455	5.e-002	29.192
12427	1.6364	2.2727	0.	5398.6
12428	1.5455	2.3636	0.	5437.
12429	1.6364	2.3636	5.e-002	29.068
12430	1.6364	2.0909	0.	5401.2
12431	1.5455	2.1818	0.	5434.6
12432	1.6364	2.1818	5.e-002	28.926
12433	1.6364	1.9091	0.	5407.6
12434	1.5455	2.	0.	5434.3
12435	1.6364	2.	5.e-002	28.791
12436	1.6364	1.7273	0.	5420.
12437	1.5455	1.8182	0.	5438.1
12438	1.6364	1.8182	5.e-002	28.694
12439	1.6364	1.5455	0.	5440.6
12440	1.5455	1.6364	0.	5448.3
12441	1.6364	1.6364	5.e-002	28.667
12442	1.6364	1.3636	0.	5472.1
12443	1.5455	1.4545	0.	5467.8
12444	1.6364	1.4545	5.e-002	28.736
12445	1.6364	1.1818	0.	5516.8
12446	1.5455	1.2727	0.	5499.7
12447	1.6364	1.2727	5.e-002	28.897
12448	1.6364	1.	0.	5576.8
12449	1.5455	1.0909	0.	5547.
12450	1.6364	1.0909	5.e-002	29.093
12451	1.6364	0.81818	0.	5652.9
12452	1.5455	0.90909	0.	5611.9
12453	1.6364	0.90909	5.e-002	29.196
12454	1.6364	0.63636	0.	5744.7
12455	1.5455	0.72727	0.	5695.2
12456	1.6364	0.72727	5.e-002	29.017
12457	1.6364	0.45455	0.	5850.9
12458	1.5455	0.54545	0.	5795.9
12459	1.6364	0.54545	5.e-002	28.383
12460	1.6364	0.27273	0.	5978.1
12461	1.5455	0.36364	0.	5912.6
12462	1.6364	0.36364	5.e-002	27.404
12463	1.5455	0.18182	0.	6061.5
12464	1.6364	0.18182	5.e-002	46.147
12465	1.6364	9.0909e-002	0.	6033.7
12466	1.4545	5.7273	0.	5995.4
12467	1.3636	5.8182	0.	6076.
12468	1.4545	5.8182	5.e-002	47.942
12469	1.4545	5.9091	0.	6050.
12470	1.4545	5.5455	0.	5857.1
12471	1.3636	5.6364	0.	5911.6
12472	1.4545	5.6364	5.e-002	30.53
12473	1.4545	5.3636	0.	5745.7
12474	1.3636	5.4545	0.	5787.6
12475	1.4545	5.4545	5.e-002	31.889
12476	1.4545	5.1818	0.	5653.3
12477	1.3636	5.2727	0.	5685.2
12478	1.4545	5.2727	5.e-002	32.382
12479	1.4545	5.	0.	5581.2
12480	1.3636	5.0909	0.	5606.
12481	1.4545	5.0909	5.e-002	32.277
12482	1.4545	4.8182	0.	5529.1
12483	1.3636	4.9091	0.	5550.2
12484	1.4545	4.9091	5.e-002	31.892
12485	1.4545	4.6364	0.	5494.7
12486	1.3636	4.7273	0.	5515.2
12487	1.4545	4.7273	5.e-002	31.498
12488	1.4545	4.4545	0.	5474.9
12489	1.3636	4.5455	0.	5497.1
12490	1.4545	4.5455	5.e-002	31.238
12491	1.4545	4.2727	0.	5465.9
12492	1.3636	4.3636	0.	5491.5
12493	1.4545	4.3636	5.e-002	31.145
12494	1.4545	4.0909	0.	5464.4
12495	1.3636	4.1818	0.	5494.3
12496	1.4545	4.1818	5.e-002	31.189
12497	1.4545	3.9091	0.	5467.5
12498	1.3636	4.	0.	5502.
12499	1.4545	4.	5.e-002	31.319
12500	1.4545	3.7273	0.	5472.9
12501	1.3636	3.8182	0.	5511.8
12502	1.4545	3.8182	5.e-002	31.486
12503	1.4545	3.5455	0.	5478.7
12504	1.3636	3.6364	0.	5521.8
12505	1.4545	3.6364	5.e-002	31.651
12506	1.4545	3.3636	0.	5483.7
12507	1.3636	3.4545	0.	5530.5
12508	1.4545	3.4545	5.e-002	31.791
12509	1.4545	3.1818	0.	5487.1
12510	1.3636	3.2727	0.	5536.7
12511	1.4545	3.2727	5.e-002	31.89
12512	1.4545	3.	0.	5488.2
12513	1.3636	3.0909	0.	5540.
12514	1.4545	3.0909	5.e-002	31.941
12515	1.4545	2.8182	0.	5487.1
12516	1.3636	2.9091	0.	5540.
12517	1.4545	2.9091	5.e-002	31.941
12518	1.4545	2.6364	0.	5483.7
12519	1.3636	2.7273	0.	5536.7
12520	1.4545	2.7273	5.e-002	31.89
12521	1.4545	2.4545	0.	5478.7
12522	1.3636	2.5455	0.	5530.5
12523	1.4545	2.5455	5.e-002	31.791
12524	1.4545	2.2727	0.	5472.9
12525	1.3636	2.3636	0.	5521.8
12526	1.4545	2.3636	5.e-002	31.651
12527	1.4545	2.0909	0.	5467.5
12528	1.3636	2.1818	0.	5511.8
12529	1.4545	2.1818	5.e-002	31.486
12530	1.4545	1.9091	0.	5464.4
12531	1.3636	2.	0.	5502.
12532	1.4545	2.	5.e-002	31.319
12533	1.4545	1.7273	0.	5465.9
12534	1.3636	1.8182	0.	5494.3
12535	1.4545	1.8182	5.e-002	31.189
12536	1.4545	1.5455	0.	5474.9
12537	1.3636	1.6364	0.	5491.5
12538	1.4545	1.6364	5.e-002	31.145
12539	1.4545	1.3636	0.	5494.7
12540	1.3636	1.4545	0.	5497.1
12541	1.4545	1.4545	5.e-002	31.238
12542	1.4545	1.1818	0.	5529.1
12543	1.3636	1.2727	0.	5515.2
12544	1.4545	1.2727	5.e-002	31.498
12545	1.4545	1.	0.	5581.2
12546	1.3636	1.0909	0.	5550.2
12547	1.4545	1.0909	5.e-002	31.892
12548	1.4545	0.81818	0.	5653.3
12549	1.3636	0.90909	0.	5606.
12550	1.4545	0.90909	5.e-002	32.277
12551	1.4545	0.63636	0.	5745.7
12552	1.3636	0.72727	0.	5685.2
12553	1.4545	0.72727	5.e-002	32.382
12554	1.4545	0.45455	0.	5857.1
12555	1.3636	0.54545	0.	5787.6
12556	1.4545	0.54545	5.e-002	31.889
12557	1.4545	0.27273	0.	5995.4
12558	1.3636	0.36364	0.	5911.6
12559	1.4545	0.36364	5.e-002	30.53
12560	1.3636	0.18182	0.	6076.
12561	1.4545	0.18182	5.e-002	47.942
12562	1.4545	9.0909e-002	0.	6050.
12563	1.2727	5.7273	0.	5991.2
12564	1.1818	5.8182	0.	6065.1
12565	1.2727	5.8182	5.e-002	49.423
12566	1.2727	5.9091	0.	6044.3
12567	1.2727	5.5455	0.	5841.2
12568	1.1818	5.6364	0.	5882.9
12569	1.2727	5.6364	5.e-002	35.032
12570	1.2727	5.3636	0.	5726.1
12571	1.1818	5.4545	0.	5752.7
12572	1.2727	5.4545	5.e-002	36.669
12573	1.2727	5.1818	0.	5636.7
12574	1.1818	5.2727	0.	5652.6
12575	1.2727	5.2727	5.e-002	36.736
12576	1.2727	5.	0.	5573.8
12577	1.1818	5.0909	0.	5583.6
12578	1.2727	5.0909	5.e-002	36.077
12579	1.2727	4.8182	0.	5535.2
12580	1.1818	4.9091	0.	5543.9
12581	1.2727	4.9091	5.e-002	35.236
12582	1.2727	4.6364	0.	5516.7
12583	1.1818	4.7273	0.	5528.
12584	1.2727	4.7273	5.e-002	34.561
12585	1.2727	4.4545	0.	5513.1
12586	1.1818	4.5455	0.	5529.4
12587	1.2727	4.5455	5.e-002	34.174
12588	1.2727	4.2727	0.	5519.4
12589	1.1818	4.3636	0.	5542.1
12590	1.2727	4.3636	5.e-002	34.044
12591	1.2727	4.0909	0.	5531.5
12592	1.1818	4.1818	0.	5561.
12593	1.2727	4.1818	5.e-002	34.09
12594	1.2727	3.9091	0.	5546.1
12595	1.1818	4.	0.	5582.2
12596	1.2727	4.	5.e-002	34.226
12597	1.2727	3.7273	0.	5560.6
12598	1.1818	3.8182	0.	5602.9
12599	1.2727	3.8182	5.e-002	34.392
12600	1.2727	3.5455	0.	5573.5
12601	1.1818	3.6364	0.	5621.2
12602	1.2727	3.6364	5.e-002	34.549
12603	1.2727	3.3636	0.	5583.4
12604	1.1818	3.4545	0.	5635.9
12605	1.2727	3.4545	5.e-002	34.677
12606	1.2727	3.1818	0.	5589.6
12607	1.1818	3.2727	0.	5646.1
12608	1.2727	3.2727	5.e-002	34.765
12609	1.2727	3.	0.	5591.7
12610	1.1818	3.0909	0.	5651.3
12611	1.2727	3.0909	5.e-002	34.81
12612	1.2727	2.8182	0.	5589.6
12613	1.1818	2.9091	0.	5651.3
12614	1.2727	2.9091	5.e-002	34.81
12615	1.2727	2.6364	0.	5583.4
12616	1.1818	2.7273	0.	5646.1
12617	1.2727	2.7273	5.e-002	34.765
12618	1.2727	2.4545	0.	5573.5
12619	1.1818	2.5455	0.	5635.9
12620	1.2727	2.5455	5.e-002	34.677
12621	1.2727	2.2727	0.	5560.6
12622	1.1818	2.3636	0.	5621.2
12623	1.2727	2.3636	5.e-002	34.549
12624	1.2727	2.0909	0.	5546.1
12625	1.1818	2.1818	0.	5602.9
12626	1.2727	2.1818	5.e-002	34.392
12627	1.2727	1.9091	0.	5531.5
12628	1.1818	2.	0.	5582.2
12629	1.2727	2.	5.e-002	34.226
12630	1.2727	1.7273	0.	5519.4
12631	1.1818	1.8182	0.	5561.
12632	1.2727	1.8182	5.e-002	34.09
12633	1.2727	1.5455	0.	5513.1
12634	1.1818	1.6364	0.	5542.1
12635	1.2727	1.6364	5.e-002	34.044
12636	1.2727	1.3636	0.	5516.7
12637	1.1818	1.4545	0.	5529.4
12638	1.2727	1.4545	5.e-002	34.174
12639	1.2727	1.1818	0.	5535.2
12640	1.1818	1.2727	0.	5528.
12641	1.2727	1.2727	5.e-002	34.561
12642	1.2727	1.	0.	5573.8
12643	1.1818	1.0909	0.	5543.9
12644	1.2727	1.0909	5.e-002	35.236
12645	1.2727	0.81818	0.	5636.7
12646	1.1818	0.90909	0.	5583.6
12647	1.2727	0.90909	5.e-002	36.077
12648	1.2727	0.63636	0.	5726.1
12649	1.1818	0.72727	0.	5652.6
12650	1.2727	0.72727	5.e-002	36.736
12651	1.2727	0.45455	0.	5841.2
12652	1.1818	0.54545	0.	5752.7
12653	1.2727	0.54545	5.e-002	36.669
12654	1.2727	0.27273	0.	5991.2
12655	1.1818	0.36364	0.	5882.9
12656	1.2727	0.36364	5.e-002	35.032
12657	1.1818	0.18182	0.	6065.1
12658	1.2727	0.18182	5.e-002	49.423
12659	1.2727	9.0909e-002	0.	6044.3
12660	1.0909	5.7273	0.	5955.3
12661	1.	5.8182	0.	6016.2
12662	1.0909	5.8182	5.e-002	50.627
12663	1.0909	5.9091	0.	6006.
12664	1.0909	5.5455	0.	5793.1
12665	1.	5.6364	0.	5814.8
12666	1.0909	5.6364	5.e-002	41.767
12667	1.0909	5.3636	0.	5677.6
12668	1.	5.4545	0.	5682.
12669	1.0909	5.4545	5.e-002	43.291
12670	1.0909	5.1818	0.	5597.8
12671	1.	5.2727	0.	5592.4
12672	1.0909	5.2727	5.e-002	42.381
12673	1.0909	5.	0.	5552.2
12674	1.	5.0909	0.	5544.7
12675	1.0909	5.0909	5.e-002	40.752
12676	1.0909	4.8182	0.	5535.5
12677	1.	4.9091	0.	5532.
12678	1.0909	4.9091	5.e-002	39.242
12679	1.0909	4.6364	0.	5539.9
12680	1.	4.7273	0.	5544.3
12681	1.0909	4.7273	5.e-002	38.218
12682	1.0909	4.4545	0.	5557.9
12683	1.	4.5455	0.	5572.
12684	1.0909	4.5455	5.e-002	37.684
12685	1.0909	4.2727	0.	5583.3
12686	1.	4.3636	0.	5607.4
12687	1.0909	4.3636	5.e-002	37.495
12688	1.0909	4.0909	0.	5611.4
12689	1.	4.1818	0.	5644.9
12690	1.0909	4.1818	5.e-002	37.499
12691	1.0909	3.9091	0.	5638.8
12692	1.	4.	0.	5681.
12693	1.0909	4.	5.e-002	37.587
12694	1.0909	3.7273	0.	5663.4
12695	1.	3.8182	0.	5713.3
12696	1.0909	3.8182	5.e-002	37.696
12697	1.0909	3.5455	0.	5683.6
12698	1.	3.6364	0.	5740.2
12699	1.0909	3.6364	5.e-002	37.793
12700	1.0909	3.3636	0.	5698.6
12701	1.	3.4545	0.	5760.9
12702	1.0909	3.4545	5.e-002	37.867
12703	1.0909	3.1818	0.	5707.7
12704	1.	3.2727	0.	5774.9
12705	1.0909	3.2727	5.e-002	37.916
12706	1.0909	3.	0.	5710.8
12707	1.	3.0909	0.	5782.
12708	1.0909	3.0909	5.e-002	37.94
12709	1.0909	2.8182	0.	5707.7
12710	1.	2.9091	0.	5782.
12711	1.0909	2.9091	5.e-002	37.94
12712	1.0909	2.6364	0.	5698.6
12713	1.	2.7273	0.	5774.9
12714	1.0909	2.7273	5.e-002	37.916
12715	1.0909	2.4545	0.	5683.6
12716	1.	2.5455	0.	5760.9
12717	1.0909	2.5455	5.e-002	37.867
12718	1.0909	2.2727	0.	5663.4
12719	1.	2.3636	0.	5740.2
12720	1.0909	2.3636	5.e-002	37.793
12721	1.0909	2.0909	0.	5638.8
12722	1.	2.1818	0.	5713.3
12723	1.0909	2.1818	5.e-002	37.696
12724	1.0909	1.9091	0.	5611.4
12725	1.	2.	0.	5681.
12726	1.0909	2.	5.e-002	37.587
12727	1.0909	1.7273	0.	5583.3
12728	1.	1.8182	0.	5644.9
12729	1.0909	1.8182	5.e-002	37.499
12730	1.0909	1.5455	0.	5557.9
12731	1.	1.6364	0.	5607.4
12732	1.0909	1.6364	5.e-002	37.495
12733	1.0909	1.3636	0.	5539.9
12734	1.	1.4545	0.	5572.
12735	1.0909	1.4545	5.e-002	37.684
12736	1.0909	1.1818	0.	5535.5
12737	1.	1.2727	0.	5544.3
12738	1.0909	1.2727	5.e-002	38.218
12739	1.0909	1.	0.	5552.2
12740	1.	1.0909	0.	5532.
12741	1.0909	1.0909	5.e-002	39.242
12742	1.0909	0.81818	0.	5597.8
12743	1.	0.90909	0.	5544.7
12744	1.0909	0.90909	5.e-002	40.752
12745	1.0909	0.63636	0.	5677.6
12746	1.	0.72727	0.	5592.4
12747	1.0909	0.72727	5.e-002	42.381
12748	1.0909	0.45455	0.	5793.1
12749	1.	0.54545	0.	5682.
12750	1.0909	0.54545	5.e-002	43.291
12751	1.0909	0.27273	0.	5955.3
12752	1.	0.36364	0.	5814.8
12753	1.0909	0.36364	5.e-002	41.767
12754	1.	0.18182	0.	6016.2
12755	1.0909	0.18182	5.e-002	50.627
12756	1.0909	9.0909e-002	0.	6006.
12757	0.90909	5.7273	0.	5873.5
12758	0.81818	5.8182	0.	5906.2
12759	0.90909	5.8182	5.e-002	51.95
12760	0.90909	5.9091	0.	5919.5
12761	0.90909	5.5455	0.	5701.7
12762	0.81818	5.6364	0.	5683.4
12763	0.90909	5.6364	5.e-002	52.083
12764	0.90909	5.3636	0.	5594.4
12765	0.81818	5.4545	0.	5556.1
12766	0.90909	5.4545	5.e-002	52.525
12767	0.90909	5.1818	0.	5537.
12768	0.81818	5.2727	0.	5493.1
12769	0.90909	5.2727	5.e-002	49.61
12770	0.90909	5.	0.	5522.7
12771	0.81818	5.0909	0.	5484.7
12772	0.90909	5.0909	5.e-002	46.405
12773	0.90909	4.8182	0.	5539.7
12774	0.81818	4.9091	0.	5514.1
12775	0.90909	4.9091	5.e-002	44.014
12776	0.90909	4.6364	0.	5575.7
12777	0.81818	4.7273	0.	5565.1
12778	0.90909	4.7273	5.e-002	42.589
12779	0.90909	4.4545	0.	5621.1
12780	0.81818	4.5455	0.	5625.3
12781	0.90909	4.5455	5.e-002	41.867
12782	0.90909	4.2727	0.	5668.8
12783	0.81818	4.3636	0.	5686.5
12784	0.90909	4.3636	5.e-002	41.542
12785	0.90909	4.0909	0.	5714.5
12786	0.81818	4.1818	0.	5743.9
12787	0.90909	4.1818	5.e-002	41.405
12788	0.90909	3.9091	0.	5755.4
12789	0.81818	4.	0.	5795.
12790	0.90909	4.	5.e-002	41.339
12791	0.90909	3.7273	0.	5790.
12792	0.81818	3.8182	0.	5838.2
12793	0.90909	3.8182	5.e-002	41.295
12794	0.90909	3.5455	0.	5817.4
12795	0.81818	3.6364	0.	5873.
12796	0.90909	3.6364	5.e-002	41.256
12797	0.90909	3.3636	0.	5837.2
12798	0.81818	3.4545	0.	5899.1
12799	0.90909	3.4545	5.e-002	41.22
12800	0.90909	3.1818	0.	5849.1
12801	0.81818	3.2727	0.	5916.5
12802	0.90909	3.2727	5.e-002	41.192
12803	0.90909	3.	0.	5853.1
12804	0.81818	3.0909	0.	5925.2
12805	0.90909	3.0909	5.e-002	41.177
12806	0.90909	2.8182	0.	5849.1
12807	0.81818	2.9091	0.	5925.2
12808	0.90909	2.9091	5.e-002	41.177
12809	0.90909	2.6364	0.	5837.2
12810	0.81818	2.7273	0.	5916.5
12811	0.90909	2.7273	5.e-002	41.192
12812	0.90909	2.4545	0.	5817.4
12813	0.81818	2.5455	0.	5899.1
12814	0.90909	2.5455	5.e-002	41.22
12815	0.90909	2.2727	0.	5790.
12816	0.81818	2.3636	0.	5873.
12817	0.90909	2.3636	5.e-002	41.256
12818	0.90909	2.0909	0.	5755.4
12819	0.81818	2.1818	0.	5838.2
12820	0.90909	2.1818	5.e-002	41.295
12821	0.90909	1.9091	0.	5714.5
12822	0.81818	2.	0.	5795.
12823	0.90909	2.	5.e-002	41.339
12824	0.90909	1.7273	0.	5668.8
12825	0.81818	1.8182	0.	5743.9
12826	0.90909	1.8182	5.e-002	41.405
12827	0.90909	1.5455	0.	5621.1
12828	0.81818	1.6364	0.	5686.5
12829	0.90909	1.6364	5.e-002	41.542
12830	0.90909	1.3636	0.	5575.7
12831	0.81818	1.4545	0.	5625.3
12832	0.90909	1.4545	5.e-002	41.867
12833	0.90909	1.1818	0.	5539.7
12834	0.81818	1.2727	0.	5565.1
12835	0.90909	1.2727	5.e-002	42.589
12836	0.90909	1.	0.	5522.7
12837	0.81818	1.0909	0.	5514.1
12838	0.90909	1.0909	5.e-002	44.014
12839	0.90909	0.81818	0.	5537.
12840	0.81818	0.90909	0.	5484.7
12841	0.90909	0.90909	5.e-002	46.405
12842	0.90909	0.63636	0.	5594.4
12843	0.81818	0.72727	0.	5493.1
12844	0.90909	0.72727	5.e-002	49.61
12845	0.90909	0.45455	0.	5701.7
12846	0.81818	0.54545	0.	5556.1
12847	0.90909	0.54545	5.e-002	52.525
12848	0.90909	0.27273	0.	5873.5
12849	0.81818	0.36364	0.	5683.4
12850	0.90909	0.36364	5.e-002	52.083
12851	0.81818	0.18182	0.	5906.2
12852	0.90909	0.18182	5.e-002	51.95
12853	0.90909	9.0909e-002	0.	5919.5
12854	0.72727	5.7273	0.	5712.6
12855	0.63636	5.8182	0.	5700.6
12856	0.72727	5.8182	5.e-002	56.18
12857	0.72727	5.9091	0.	5755.
12858	0.72727	5.5455	0.	5534.2
12859	0.63636	5.6364	0.	5469.4
12860	0.72727	5.6364	5.e-002	68.342
12861	0.72727	5.3636	0.	5451.1
12862	0.63636	5.4545	0.	5378.4
12863	0.72727	5.4545	5.e-002	65.257
12864	0.72727	5.1818	0.	5437.9
12865	0.63636	5.2727	0.	5379.8
12866	0.72727	5.2727	5.e-002	58.667
12867	0.72727	5.	0.	5474.3
12868	0.63636	5.0909	0.	5442.3
12869	0.72727	5.0909	5.e-002	53.35
12870	0.72727	4.8182	0.	5538.7
12871	0.63636	4.9091	0.	5534.4
12872	0.72727	4.9091	5.e-002	50.064
12873	0.72727	4.6364	0.	5614.3
12874	0.63636	4.7273	0.	5635.
12875	0.72727	4.7273	5.e-002	48.267
12876	0.72727	4.4545	0.	5690.5
12877	0.63636	4.5455	0.	5732.3
12878	0.72727	4.5455	5.e-002	47.287
12879	0.72727	4.2727	0.	5761.6
12880	0.63636	4.3636	0.	5820.4
12881	0.72727	4.3636	5.e-002	46.685
12882	0.72727	4.0909	0.	5824.4
12883	0.63636	4.1818	0.	5897.1
12884	0.72727	4.1818	5.e-002	46.246
12885	0.72727	3.9091	0.	5877.8
12886	0.63636	4.	0.	5961.7
12887	0.72727	4.	5.e-002	45.884
12888	0.72727	3.7273	0.	5921.2
12889	0.63636	3.8182	0.	6014.4
12890	0.72727	3.8182	5.e-002	45.572
12891	0.72727	3.5455	0.	5954.7
12892	0.63636	3.6364	0.	6055.7
12893	0.72727	3.6364	5.e-002	45.309
12894	0.72727	3.3636	0.	5978.4
12895	0.63636	3.4545	0.	6086.1
12896	0.72727	3.4545	5.e-002	45.101
12897	0.72727	3.1818	0.	5992.6
12898	0.63636	3.2727	0.	6106.1
12899	0.72727	3.2727	5.e-002	44.958
12900	0.72727	3.	0.	5997.3
12901	0.63636	3.0909	0.	6116.
12902	0.72727	3.0909	5.e-002	44.885
12903	0.72727	2.8182	0.	5992.6
12904	0.63636	2.9091	0.	6116.
12905	0.72727	2.9091	5.e-002	44.885
12906	0.72727	2.6364	0.	5978.4
12907	0.63636	2.7273	0.	6106.1
12908	0.72727	2.7273	5.e-002	44.958
12909	0.72727	2.4545	0.	5954.7
12910	0.63636	2.5455	0.	6086.1
12911	0.72727	2.5455	5.e-002	45.101
12912	0.72727	2.2727	0.	5921.2
12913	0.63636	2.3636	0.	6055.7
12914	0.72727	2.3636	5.e-002	45.309
12915	0.72727	2.0909	0.	5877.8
12916	0.63636	2.1818	0.	6014.4
12917	0.72727	2.1818	5.e-002	45.572
12918	0.72727	1.9091	0.	5824.4
12919	0.63636	2.	0.	5961.7
12920	0.72727	2.	5.e-002	45.884
12921	0.72727	1.7273	0.	5761.6
12922	0.63636	1.8182	0.	5897.1
12923	0.72727	1.8182	5.e-002	46.246
12924	0.72727	1.5455	0.	5690.5
12925	0.63636	1.6364	0.	5820.4
12926	0.72727	1.6364	5.e-002	46.685
12927	0.72727	1.3636	0.	5614.3
12928	0.63636	1.4545	0.	5732.3
12929	0.72727	1.4545	5.e-002	47.287
12930	0.72727	1.1818	0.	5538.7
12931	0.63636	1.2727	0.	5635.
12932	0.72727	1.2727	5.e-002	48.267
12933	0.72727	1.	0.	5474.3
12934	0.63636	1.0909	0.	5534.4
12935	0.72727	1.0909	5.e-002	50.064
12936	0.72727	0.81818	0.	5437.9
12937	0.63636	0.90909	0.	5442.3
12938	0.72727	0.90909	5.e-002	53.35
12939	0.72727	0.63636	0.	5451.1
12940	0.63636	0.72727	0.	5379.8
12941	0.72727	0.72727	5.e-002	58.667
12942	0.72727	0.45455	0.	5534.2
12943	0.63636	0.54545	0.	5378.4
12944	0.72727	0.54545	5.e-002	65.257
12945	0.72727	0.27273	0.	5712.6
12946	0.63636	0.36364	0.	5469.4
12947	0.72727	0.36364	5.e-002	68.342
12948	0.63636	0.18182	0.	5700.6
12949	0.72727	0.18182	5.e-002	56.18
12950	0.72727	9.0909e-002	0.	5755.
12951	0.54545	5.7273	0.	5450.2
12952	0.45455	5.8182	0.	5294.7
12953	0.54545	5.8182	5.e-002	70.621
12954	0.54545	5.9091	0.	5465.7
12955	0.54545	5.5455	0.	5307.2
12956	0.45455	5.6364	0.	5057.4
12957	0.54545	5.6364	5.e-002	94.497
12958	0.54545	5.3636	0.	5302.6
12959	0.45455	5.4545	0.	5057.7
12960	0.54545	5.4545	5.e-002	82.01
12961	0.54545	5.1818	0.	5382.3
12962	0.45455	5.2727	0.	5178.7
12963	0.54545	5.2727	5.e-002	69.264
12964	0.54545	5.	0.	5502.2
12965	0.45455	5.0909	0.	5341.6
12966	0.54545	5.0909	5.e-002	61.414
12967	0.54545	4.8182	0.	5631.3
12968	0.45455	4.9091	0.	5505.9
12969	0.54545	4.9091	5.e-002	57.033
12970	0.54545	4.6364	0.	5753.8
12971	0.45455	4.7273	0.	5655.1
12972	0.54545	4.7273	5.e-002	54.508
12973	0.54545	4.4545	0.	5862.9
12974	0.45455	4.5455	0.	5784.
12975	0.54545	4.5455	5.e-002	52.819
12976	0.54545	4.2727	0.	5956.5
12977	0.45455	4.3636	0.	5892.6
12978	0.54545	4.3636	5.e-002	51.523
12979	0.54545	4.0909	0.	6034.8
12980	0.45455	4.1818	0.	5982.3
12981	0.54545	4.1818	5.e-002	50.45
12982	0.54545	3.9091	0.	6098.7
12983	0.45455	4.	0.	6055.2
12984	0.54545	4.	5.e-002	49.542
12985	0.54545	3.7273	0.	6149.2
12986	0.45455	3.8182	0.	6113.
12987	0.54545	3.8182	5.e-002	48.783
12988	0.54545	3.5455	0.	6187.3
12989	0.45455	3.6364	0.	6157.5
12990	0.54545	3.6364	5.e-002	48.172
12991	0.54545	3.3636	0.	6213.9
12992	0.45455	3.4545	0.	6189.7
12993	0.54545	3.4545	5.e-002	47.711
12994	0.54545	3.1818	0.	6229.6
12995	0.45455	3.2727	0.	6210.7
12996	0.54545	3.2727	5.e-002	47.402
12997	0.54545	3.	0.	6234.8
12998	0.45455	3.0909	0.	6221.1
12999	0.54545	3.0909	5.e-002	47.247
13000	0.54545	2.8182	0.	6229.6
13001	0.45455	2.9091	0.	6221.1
13002	0.54545	2.9091	5.e-002	47.247
13003	0.54545	2.6364	0.	6213.9
13004	0.45455	2.7273	0.	6210.7
13005	0.54545	2.7273	5.e-002	47.402
13006	0.54545	2.4545	0.	6187.3
13007	0.45455	2.5455	0.	6189.7
13008	0.54545	2.5455	5.e-002	47.711
13009	0.54545	2.2727	0.	6149.2
13010	0.45455	2.3636	0.	6157.5
13011	0.54545	2.3636	5.e-002	48.172
13012	0.54545	2.0909	0.	6098.7
13013	0.45455	2.1818	0.	6113.
13014	0.54545	2.1818	5.e-002	48.783
13015	0.54545	1.9091	0.	6034.8
13016	0.45455	2.	0.	6055.2
13017	0.54545	2.	5.e-002	49.542
13018	0.54545	1.7273	0.	5956.5
13019	0.45455	1.8182	0.	5982.3
13020	0.54545	1.8182	5.e-002	50.45
13021	0.54545	1.5455	0.	5862.9
13022	0.45455	1.6364	0.	5892.6
13023	0.54545	1.6364	5.e-002	51.523
13024	0.54545	1.3636	0.	5753.8
13025	0.45455	1.4545	0.	5784.
13026	0.54545	1.4545	5.e-002	52.819
13027	0.54545	1.1818	0.	5631.3
13028	0.45455	1.2727	0.	5655.1
13029	0.54545	1.2727	5.e-002	54.508
13030	0.54545	1.	0.	5502.2
13031	0.45455	1.0909	0.	5505.9
13032	0.54545	1.0909	5.e-002	57.033
13033	0.54545	0.81818	0.	5382.3
13034	0.45455	0.90909	0.	5341.6
13035	0.54545	0.90909	5.e-002	61.414
13036	0.54545	0.63636	0.	5302.6
13037	0.45455	0.72727	0.	5178.7
13038	0.54545	0.72727	5.e-002	69.264
13039	0.54545	0.45455	0.	5307.2
13040	0.45455	0.54545	0.	5057.7
13041	0.54545	0.54545	5.e-002	82.01
13042	0.54545	0.27273	0.	5450.2
13043	0.45455	0.36364	0.	5057.4
13044	0.54545	0.36364	5.e-002	94.497
13045	0.45455	0.18182	0.	5294.7
13046	0.54545	0.18182	5.e-002	70.621
13047	0.54545	9.0909e-002	0.	5465.7
13048	0.36364	5.7273	0.	4886.4
13049	0.27273	5.8182	0.	4529.6
13050	0.36364	5.8182	5.e-002	123.5
13051	0.36364	5.9091	0.	4918.
13052	0.36364	5.5455	0.	4794.4
13053	0.27273	5.6364	0.	4641.8
13054	0.36364	5.6364	5.e-002	136.22
13055	0.36364	5.3636	0.	4926.9
13056	0.27273	5.4545	0.	5009.3
13057	0.36364	5.4545	5.e-002	103.53
13058	0.36364	5.1818	0.	5135.9
13059	0.27273	5.2727	0.	5375.
13060	0.36364	5.2727	5.e-002	85.119
13061	0.36364	5.	0.	5345.2
13062	0.27273	5.0909	0.	5684.1
13063	0.36364	5.0909	5.e-002	75.59
13064	0.36364	4.8182	0.	5530.2
13065	0.27273	4.9091	0.	5933.6
13066	0.36364	4.9091	5.e-002	70.452
13067	0.36364	4.6364	0.	5685.9
13068	0.27273	4.7273	0.	6132.8
13069	0.36364	4.7273	5.e-002	66.955
13070	0.36364	4.4545	0.	5814.3
13071	0.27273	4.5455	0.	6291.4
13072	0.36364	4.5455	5.e-002	64.244
13073	0.36364	4.2727	0.	5918.9
13074	0.27273	4.3636	0.	6417.8
13075	0.36364	4.3636	5.e-002	62.014
13076	0.36364	4.0909	0.	6003.1
13077	0.27273	4.1818	0.	6518.2
13078	0.36364	4.1818	5.e-002	60.154
13079	0.36364	3.9091	0.	6069.9
13080	0.27273	4.	0.	6597.5
13081	0.36364	4.	5.e-002	58.612
13082	0.36364	3.7273	0.	6121.7
13083	0.27273	3.8182	0.	6659.1
13084	0.36364	3.8182	5.e-002	57.36
13085	0.36364	3.5455	0.	6160.2
13086	0.27273	3.6364	0.	6705.7
13087	0.36364	3.6364	5.e-002	56.379
13088	0.36364	3.3636	0.	6186.8
13089	0.27273	3.4545	0.	6739.2
13090	0.36364	3.4545	5.e-002	55.654
13091	0.36364	3.1818	0.	6202.5
13092	0.27273	3.2727	0.	6760.8
13093	0.36364	3.2727	5.e-002	55.177
13094	0.36364	3.	0.	6207.6
13095	0.27273	3.0909	0.	6771.4
13096	0.36364	3.0909	5.e-002	54.94
13097	0.36364	2.8182	0.	6202.5
13098	0.27273	2.9091	0.	6771.4
13099	0.36364	2.9091	5.e-002	54.94
13100	0.36364	2.6364	0.	6186.8
13101	0.27273	2.7273	0.	6760.8
13102	0.36364	2.7273	5.e-002	55.177
13103	0.36364	2.4545	0.	6160.2
13104	0.27273	2.5455	0.	6739.2
13105	0.36364	2.5455	5.e-002	55.654
13106	0.36364	2.2727	0.	6121.7
13107	0.27273	2.3636	0.	6705.7
13108	0.36364	2.3636	5.e-002	56.379
13109	0.36364	2.0909	0.	6069.9
13110	0.27273	2.1818	0.	6659.1
13111	0.36364	2.1818	5.e-002	57.36
13112	0.36364	1.9091	0.	6003.1
13113	0.27273	2.	0.	6597.5
13114	0.36364	2.	5.e-002	58.612
13115	0.36364	1.7273	0.	5918.9
13116	0.27273	1.8182	0.	6518.2
13117	0.36364	1.8182	5.e-002	60.154
13118	0.36364	1.5455	0.	5814.3
13119	0.27273	1.6364	0.	6417.8
13120	0.36364	1.6364	5.e-002	62.014
13121	0.36364	1.3636	0.	5685.9
13122	0.27273	1.4545	0.	6291.4
13123	0.36364	1.4545	5.e-002	64.244
13124	0.36364	1.1818	0.	5530.2
13125	0.27273	1.2727	0.	6132.8
13126	0.36364	1.2727	5.e-002	66.955
13127	0.36364	1.	0.	5345.2
13128	0.27273	1.0909	0.	5933.7
13129	0.36364	1.0909	5.e-002	70.452
13130	0.36364	0.81818	0.	5135.9
13131	0.27273	0.90909	0.	5684.1
13132	0.36364	0.90909	5.e-002	75.59
13133	0.36364	0.63636	0.	4926.9
13134	0.27273	0.72727	0.	5375.
13135	0.36364	0.72727	5.e-002	85.119
13136	0.36364	0.45455	0.	4794.4
13137	0.27273	0.54545	0.	5009.3
13138	0.36364	0.54545	5.e-002	103.53
13139	0.36364	0.27273	0.	4886.4
13140	0.27273	0.36364	0.	4641.8
13141	0.36364	0.36364	5.e-002	136.22
13142	0.27273	0.18182	0.	4529.6
13143	0.36364	0.18182	5.e-002	123.5
13144	0.36364	9.0909e-002	0.	4918.
13145	0.18182	5.7273	0.	4250.9
13146	0.18182	5.8182	5.e-002	296.1
13147	0.18182	5.9091	0.	3831.
13148	9.0909e-002	5.8182	0.	2704.6
13149	0.18182	5.5455	0.	4882.4
13150	0.18182	5.6364	5.e-002	188.2
13151	9.0909e-002	5.6364	0.	3410.9
13152	0.18182	5.3636	0.	5487.4
13153	0.18182	5.4545	5.e-002	127.98
13154	9.0909e-002	5.4545	0.	3994.8
13155	0.18182	5.1818	0.	5946.1
13156	0.18182	5.2727	5.e-002	98.107
13157	9.0909e-002	5.2727	0.	4411.9
13158	0.18182	5.	0.	6289.4
13159	0.18182	5.0909	5.e-002	82.58
13160	9.0909e-002	5.0909	0.	4711.4
13161	0.18182	4.8182	0.	6549.3
13162	0.18182	4.9091	5.e-002	71.972
13163	9.0909e-002	4.9091	0.	4932.7
13164	0.18182	4.6364	0.	6748.9
13165	0.18182	4.7273	5.e-002	64.241
13166	9.0909e-002	4.7273	0.	5100.
13167	0.18182	4.4545	0.	6904.1
13168	0.18182	4.5455	5.e-002	58.343
13169	9.0909e-002	4.5455	0.	5228.7
13170	0.18182	4.2727	0.	7025.4
13171	0.18182	4.3636	5.e-002	53.744
13172	9.0909e-002	4.3636	0.	5328.7
13173	0.18182	4.0909	0.	7120.3
13174	0.18182	4.1818	5.e-002	50.122
13175	9.0909e-002	4.1818	0.	5406.7
13176	0.18182	3.9091	0.	7194.
13177	0.18182	4.	5.e-002	47.272
13178	9.0909e-002	4.	0.	5467.5
13179	0.18182	3.7273	0.	7250.2
13180	0.18182	3.8182	5.e-002	45.054
13181	9.0909e-002	3.8182	0.	5514.3
13182	0.18182	3.5455	0.	7291.6
13183	0.18182	3.6364	5.e-002	43.373
13184	9.0909e-002	3.6364	0.	5549.5
13185	0.18182	3.3636	0.	7320.
13186	0.18182	3.4545	5.e-002	42.162
13187	9.0909e-002	3.4545	0.	5574.5
13188	0.18182	3.1818	0.	7336.6
13189	0.18182	3.2727	5.e-002	41.378
13190	9.0909e-002	3.2727	0.	5590.7
13191	0.18182	3.	0.	7342.
13192	0.18182	3.0909	5.e-002	40.992
13193	9.0909e-002	3.0909	0.	5598.6
13194	0.18182	2.8182	0.	7336.6
13195	0.18182	2.9091	5.e-002	40.992
13196	9.0909e-002	2.9091	0.	5598.6
13197	0.18182	2.6364	0.	7320.
13198	0.18182	2.7273	5.e-002	41.378
13199	9.0909e-002	2.7273	0.	5590.7
13200	0.18182	2.4545	0.	7291.6
13201	0.18182	2.5455	5.e-002	42.162
13202	9.0909e-002	2.5455	0.	5574.5
13203	0.18182	2.2727	0.	7250.2
13204	0.18182	2.3636	5.e-002	43.373
13205	9.0909e-002	2.3636	0.	5549.5
13206	0.18182	2.0909	0.	7194.
13207	0.18182	2.1818	5.e-002	45.054
13208	9.0909e-002	2.1818	0.	5514.3
13209	0.18182	1.9091	0.	7120.3
13210	0.18182	2.	5.e-002	47.272
13211	9.0909e-002	2.	0.	5467.5
13212	0.18182	1.7273	0.	7025.4
13213	0.18182	1.8182	5.e-002	50.122
13214	9.0909e-002	1.8182	0.	5406.7
13215	0.18182	1.5455	0.	6904.1
13216	0.18182	1.6364	5.e-002	53.744
13217	9.0909e-002	1.6364	0.	5328.7
13218	0.18182	1.3636	0.	6748.9
13219	0.18182	1.4545	5.e-002	58.343
13220	9.0909e-002	1.4545	0.	5228.7
13221	0.18182	1.1818	0.	6549.3
13222	0.18182	1.2727	5.e-002	64.241
13223	9.0909e-002	1.2727	0.	5100.
13224	0.18182	1.	0.	6289.4
13225	0.18182	1.0909	5.e-002	71.972
13226	9.0909e-002	1.0909	0.	4932.7
13227	0.18182	0.81818	0.	5946.1
13228	0.18182	0.90909	5.e-002	82.58
13229	9.0909e-002	0.90909	0.	4711.4
13230	0.18182	0.63636	0.	5487.4
13231	0.18182	0.72727	5.e-002	98.107
13232	9.0909e-002	0.72727	0.	4411.9
13233	0.18182	0.45455	0.	4882.4
13234	0.18182	0.54545	5.e-002	127.98
13235	9.0909e-002	0.54545	0.	3994.8
13236	0.18182	0.27273	0.	4250.9
13237	0.18182	0.36364	5.e-002	188.2
13238	9.0909e-002	0.36364	0.	3410.9
13239	0.18182	0.18182	5.e-002	296.1
13240	0.18182	9.0909e-002	0.	3831.
13241	9.0909e-002	0.18182	0.	2704.6
13242	8.4428	5.8182	0.	900.16
13243	8.3508	5.7273	0.	898.42
13244	8.3508	5.8182	5.e-002	96.768
13245	8.3508	5.9091	0.	574.78
13246	8.2587	5.8182	0.	513.04
13247	8.6269	5.8182	0.	1287.9
13248	8.5349	5.7273	0.	1182.5
13249	8.5349	5.8182	5.e-002	85.48
13250	8.5349	5.9091	0.	1001.8
13251	8.811	5.8182	0.	1651.6
13252	8.719	5.7273	0.	1541.
13253	8.719	5.8182	5.e-002	78.643
13254	8.719	5.9091	0.	1401.2
13255	8.9952	5.8182	0.	1967.
13256	8.9031	5.7273	0.	1871.9
13257	8.9031	5.8182	5.e-002	70.459
13258	8.9031	5.9091	0.	1752.3
13259	9.1793	5.8182	0.	2231.4
13260	9.0872	5.7273	0.	2156.
13261	9.0872	5.8182	5.e-002	61.441
13262	9.0872	5.9091	0.	2051.5
13263	9.3634	5.8182	0.	2446.9
13264	9.2713	5.7273	0.	2390.4
13265	9.2713	5.8182	5.e-002	52.279
13266	9.2713	5.9091	0.	2299.6
13267	9.5475	5.8182	0.	2617.8
13268	9.4554	5.7273	0.	2577.4
13269	9.4554	5.8182	5.e-002	43.517
13270	9.4554	5.9091	0.	2499.8
13271	9.7316	5.8182	0.	2749.1
13272	9.6395	5.7273	0.	2722.2
13273	9.6395	5.8182	5.e-002	35.516
13274	9.6395	5.9091	0.	2656.9
13275	9.9157	5.8182	0.	2846.4
13276	9.8236	5.7273	0.	2830.3
13277	9.8236	5.8182	5.e-002	28.458
13278	9.8236	5.9091	0.	2776.3
13279	10.1	5.8182	0.	2915.2
13280	10.008	5.7273	0.	2907.5
13281	10.008	5.8182	5.e-002	22.398
13282	10.008	5.9091	0.	2863.6
13283	10.284	5.8182	0.	2960.2
13284	10.192	5.7273	0.	2959.1
13285	10.192	5.8182	5.e-002	17.302
13286	10.192	5.9091	0.	2924.
13287	10.468	5.8182	0.	2985.7
13288	10.376	5.7273	0.	2989.8
13289	10.376	5.8182	5.e-002	13.089
13290	10.376	5.9091	0.	2962.1
13291	10.652	5.8182	0.	2995.5
13292	10.56	5.7273	0.	3003.5
13293	10.56	5.8182	5.e-002	9.6581
13294	10.56	5.9091	0.	2982.1
13295	10.836	5.8182	0.	2992.7
13296	10.744	5.7273	0.	3003.7
13297	10.744	5.8182	5.e-002	6.9002
13298	10.744	5.9091	0.	2987.5
13299	11.02	5.8182	0.	2979.7
13300	10.928	5.7273	0.	2993.
13301	10.928	5.8182	5.e-002	4.7135
13302	10.928	5.9091	0.	2981.
13303	11.204	5.8182	0.	2958.7
13304	11.112	5.7273	0.	2973.7
13305	11.112	5.8182	5.e-002	3.0081
13306	11.112	5.9091	0.	2965.2
13307	11.389	5.8182	0.	2931.4
13308	11.297	5.7273	0.	2947.7
13309	11.297	5.8182	5.e-002	1.7162
13310	11.297	5.9091	0.	2941.9
13311	11.573	5.8182	0.	2899.2
13312	11.481	5.7273	0.	2916.4
13313	11.481	5.8182	5.e-002	0.8366
13314	11.481	5.9091	0.	2912.8
13315	11.757	5.8182	0.	2863.1
13316	11.665	5.7273	0.	2881.
13317	11.665	5.8182	5.e-002	0.62452
13318	11.665	5.9091	0.	2879.1
13319	11.941	5.8182	0.	2824.
13320	11.849	5.7273	0.	2842.5
13321	11.849	5.8182	5.e-002	0.95489
13322	11.849	5.9091	0.	2841.8
13323	12.125	5.8182	0.	2782.6
13324	12.033	5.7273	0.	2801.6
13325	12.033	5.8182	5.e-002	1.2915
13326	12.033	5.9091	0.	2801.7
13327	12.309	5.8182	0.	2739.5
13328	12.217	5.7273	0.	2758.8
13329	12.217	5.8182	5.e-002	1.5373
13330	12.217	5.9091	0.	2759.5
13331	12.493	5.8182	0.	2695.1
13332	12.401	5.7273	0.	2714.6
13333	12.401	5.8182	5.e-002	1.696
13334	12.401	5.9091	0.	2715.7
13335	12.677	5.8182	0.	2649.7
13336	12.585	5.7273	0.	2669.4
13337	12.585	5.8182	5.e-002	1.783
13338	12.585	5.9091	0.	2670.8
13339	12.861	5.8182	0.	2603.7
13340	12.769	5.7273	0.	2623.5
13341	12.769	5.8182	5.e-002	1.814
13342	12.769	5.9091	0.	2624.9
13343	13.046	5.8182	0.	2557.2
13344	12.953	5.7273	0.	2577.1
13345	12.953	5.8182	5.e-002	1.8022
13346	12.953	5.9091	0.	2578.4
13347	13.23	5.8182	0.	2510.3
13348	13.138	5.7273	0.	2530.3
13349	13.138	5.8182	5.e-002	1.7586
13350	13.138	5.9091	0.	2531.4
13351	13.414	5.8182	0.	2463.3
13352	13.322	5.7273	0.	2483.3
13353	13.322	5.8182	5.e-002	1.692
13354	13.322	5.9091	0.	2484.2
13355	13.598	5.8182	0.	2416.1
13356	13.506	5.7273	0.	2436.2
13357	13.506	5.8182	5.e-002	1.6096
13358	13.506	5.9091	0.	2436.8
13359	13.782	5.8182	0.	2368.9
13360	13.69	5.7273	0.	2389.
13361	13.69	5.8182	5.e-002	1.5166
13362	13.69	5.9091	0.	2389.4
13363	13.966	5.8182	0.	2321.8
13364	13.874	5.7273	0.	2341.9
13365	13.874	5.8182	5.e-002	1.4175
13366	13.874	5.9091	0.	2341.9
13367	14.15	5.8182	0.	2274.8
13368	14.058	5.7273	0.	2294.9
13369	14.058	5.8182	5.e-002	1.3158
13370	14.058	5.9091	0.	2294.5
13371	14.334	5.8182	0.	2227.8
13372	14.242	5.7273	0.	2247.9
13373	14.242	5.8182	5.e-002	1.2137
13374	14.242	5.9091	0.	2247.2
13375	14.518	5.8182	0.	2181.
13376	14.426	5.7273	0.	2201.1
13377	14.426	5.8182	5.e-002	1.1133
13378	14.426	5.9091	0.	2200.
13379	14.703	5.8182	0.	2134.4
13380	14.61	5.7273	0.	2154.4
13381	14.61	5.8182	5.e-002	1.0162
13382	14.61	5.9091	0.	2152.9
13383	14.887	5.8182	0.	2087.9
13384	14.795	5.7273	0.	2107.9
13385	14.795	5.8182	5.e-002	0.92318
13386	14.795	5.9091	0.	2106.
13387	15.071	5.8182	0.	2041.6
13388	14.979	5.7273	0.	2061.5
13389	14.979	5.8182	5.e-002	0.83512
13390	14.979	5.9091	0.	2059.3
13391	15.255	5.8182	0.	1995.5
13392	15.163	5.7273	0.	2015.4
13393	15.163	5.8182	5.e-002	0.75269
13394	15.163	5.9091	0.	2012.8
13395	15.439	5.8182	0.	1949.6
13396	15.347	5.7273	0.	1969.4
13397	15.347	5.8182	5.e-002	0.6762
13398	15.347	5.9091	0.	1966.5
13399	15.623	5.8182	0.	1903.9
13400	15.531	5.7273	0.	1923.6
13401	15.531	5.8182	5.e-002	0.60598
13402	15.531	5.9091	0.	1920.4
13403	15.807	5.8182	0.	1858.3
13404	15.715	5.7273	0.	1878.1
13405	15.715	5.8182	5.e-002	0.54244
13406	15.715	5.9091	0.	1874.5
13407	15.991	5.8182	0.	1813.
13408	15.899	5.7273	0.	1832.7
13409	15.899	5.8182	5.e-002	0.48575
13410	15.899	5.9091	0.	1828.8
13411	16.175	5.8182	0.	1767.9
13412	16.083	5.7273	0.	1787.5
13413	16.083	5.8182	5.e-002	0.43626
13414	16.083	5.9091	0.	1783.3
13415	16.359	5.8182	0.	1723.
13416	16.267	5.7273	0.	1742.5
13417	16.267	5.8182	5.e-002	0.39439
13418	16.267	5.9091	0.	1738.
13419	16.544	5.8182	0.	1678.3
13420	16.452	5.7273	0.	1697.7
13421	16.452	5.8182	5.e-002	0.36058
13422	16.452	5.9091	0.	1693.
13423	16.728	5.8182	0.	1633.8
13424	16.636	5.7273	0.	1653.2
13425	16.636	5.8182	5.e-002	0.3352
13426	16.636	5.9091	0.	1648.1
13427	16.912	5.8182	0.	1589.5
13428	16.82	5.7273	0.	1608.8
13429	16.82	5.8182	5.e-002	0.31839
13430	16.82	5.9091	0.	1603.4
13431	17.096	5.8182	0.	1545.4
13432	17.004	5.7273	0.	1564.6
13433	17.004	5.8182	5.e-002	0.31016
13434	17.004	5.9091	0.	1559.
13435	17.28	5.8182	0.	1501.5
13436	17.188	5.7273	0.	1520.6
13437	17.188	5.8182	5.e-002	0.31008
13438	17.188	5.9091	0.	1514.7
13439	17.464	5.8182	0.	1457.8
13440	17.372	5.7273	0.	1476.8
13441	17.372	5.8182	5.e-002	0.31733
13442	17.372	5.9091	0.	1470.7
13443	17.648	5.8182	0.	1414.4
13444	17.556	5.7273	0.	1433.3
13445	17.556	5.8182	5.e-002	0.3311
13446	17.556	5.9091	0.	1426.8
13447	17.832	5.8182	0.	1371.
13448	17.74	5.7273	0.	1389.9
13449	17.74	5.8182	5.e-002	0.35052
13450	17.74	5.9091	0.	1383.2
13451	18.016	5.8182	0.	1327.9
13452	17.924	5.7273	0.	1346.7
13453	17.924	5.8182	5.e-002	0.37485
13454	17.924	5.9091	0.	1339.7
13455	18.201	5.8182	0.	1285.
13456	18.109	5.7273	0.	1303.7
13457	18.109	5.8182	5.e-002	0.40369
13458	18.109	5.9091	0.	1296.5
13459	18.385	5.8182	0.	1242.3
13460	18.293	5.7273	0.	1260.9
13461	18.293	5.8182	5.e-002	0.43679
13462	18.293	5.9091	0.	1253.4
13463	18.569	5.8182	0.	1199.8
13464	18.477	5.7273	0.	1218.3
13465	18.477	5.8182	5.e-002	0.47406
13466	18.477	5.9091	0.	1210.5
13467	18.753	5.8182	0.	1157.4
13468	18.661	5.7273	0.	1175.8
13469	18.661	5.8182	5.e-002	0.51565
13470	18.661	5.9091	0.	1167.9
13471	18.937	5.8182	0.	1115.3
13472	18.845	5.7273	0.	1133.6
13473	18.845	5.8182	5.e-002	0.56179
13474	18.845	5.9091	0.	1125.4
13475	19.121	5.8182	0.	1073.3
13476	19.029	5.7273	0.	1091.5
13477	19.029	5.8182	5.e-002	0.61276
13478	19.029	5.9091	0.	1083.
13479	19.305	5.8182	0.	1031.5
13480	19.213	5.7273	0.	1049.6
13481	19.213	5.8182	5.e-002	0.66896
13482	19.213	5.9091	0.	1040.9
13483	19.489	5.8182	0.	989.82
13484	19.397	5.7273	0.	1007.9
13485	19.397	5.8182	5.e-002	0.73084
13486	19.397	5.9091	0.	998.95
13487	19.673	5.8182	0.	948.35
13488	19.581	5.7273	0.	966.42
13489	19.581	5.8182	5.e-002	0.7988
13490	19.581	5.9091	0.	957.17
13491	19.858	5.8182	0.	907.05
13492	19.766	5.7273	0.	925.07
13493	19.766	5.8182	5.e-002	0.87341
13494	19.766	5.9091	0.	915.56
13495	20.042	5.8182	0.	865.91
13496	19.95	5.7273	0.	883.88
13497	19.95	5.8182	5.e-002	0.95518
13498	19.95	5.9091	0.	874.11
13499	20.226	5.8182	0.	824.93
13500	20.134	5.7273	0.	842.87
13501	20.134	5.8182	5.e-002	1.0447
13502	20.134	5.9091	0.	832.83
13503	20.41	5.8182	0.	784.1
13504	20.318	5.7273	0.	802.01
13505	20.318	5.8182	5.e-002	1.1425
13506	20.318	5.9091	0.	791.72
13507	20.594	5.8182	0.	743.42
13508	20.502	5.7273	0.	761.32
13509	20.502	5.8182	5.e-002	1.2492
13510	20.502	5.9091	0.	750.76
13511	20.778	5.8182	0.	702.88
13512	20.686	5.7273	0.	720.78
13513	20.686	5.8182	5.e-002	1.3656
13514	20.686	5.9091	0.	709.95
13515	20.962	5.8182	0.	662.48
13516	20.87	5.7273	0.	680.39
13517	20.87	5.8182	5.e-002	1.4923
13518	20.87	5.9091	0.	669.3
13519	21.146	5.8182	0.	622.21
13520	21.054	5.7273	0.	640.15
13521	21.054	5.8182	5.e-002	1.6302
13522	21.054	5.9091	0.	628.8
13523	21.33	5.8182	0.	582.07
13524	21.238	5.7273	0.	600.05
13525	21.238	5.8182	5.e-002	1.7801
13526	21.238	5.9091	0.	588.44
13527	21.515	5.8182	0.	542.05
13528	21.422	5.7273	0.	560.09
13529	21.422	5.8182	5.e-002	1.943
13530	21.422	5.9091	0.	548.23
13531	21.699	5.8182	0.	502.15
13532	21.607	5.7273	0.	520.28
13533	21.607	5.8182	5.e-002	2.1198
13534	21.607	5.9091	0.	508.17
13535	21.883	5.8182	0.	462.37
13536	21.791	5.7273	0.	480.61
13537	21.791	5.8182	5.e-002	2.3119
13538	21.791	5.9091	0.	468.26
13539	22.067	5.8182	0.	422.7
13540	21.975	5.7273	0.	441.08
13541	21.975	5.8182	5.e-002	2.5206
13542	21.975	5.9091	0.	428.49
13543	22.251	5.8182	0.	383.14
13544	22.159	5.7273	0.	401.71
13545	22.159	5.8182	5.e-002	2.7473
13546	22.159	5.9091	0.	388.89
13547	22.435	5.8182	0.	343.71
13548	22.343	5.7273	0.	362.5
13549	22.343	5.8182	5.e-002	2.9941
13550	22.343	5.9091	0.	349.46
13551	22.619	5.8182	0.	304.41
13552	22.527	5.7273	0.	323.47
13553	22.527	5.8182	5.e-002	3.2632
13554	22.527	5.9091	0.	310.22
13555	22.803	5.8182	0.	265.27
13556	22.711	5.7273	0.	284.67
13557	22.711	5.8182	5.e-002	3.5576
13558	22.711	5.9091	0.	271.19
13559	22.987	5.8182	0.	226.31
13560	22.895	5.7273	0.	246.15
13561	22.895	5.8182	5.e-002	3.8812
13562	22.895	5.9091	0.	232.43
13563	23.172	5.8182	0.	187.63
13564	23.079	5.7273	0.	208.03
13565	23.079	5.8182	5.e-002	4.2396
13566	23.079	5.9091	0.	193.99
13567	23.356	5.8182	0.	149.37
13568	23.264	5.7273	0.	170.52
13569	23.264	5.8182	5.e-002	4.6425
13570	23.264	5.9091	0.	156.
13571	23.54	5.8182	0.	111.97
13572	23.448	5.7273	0.	134.08
13573	23.448	5.8182	5.e-002	5.1028
13574	23.448	5.9091	0.	118.63
13575	23.724	5.8182	0.	77.245
13576	23.632	5.7273	0.	99.859
13577	23.632	5.8182	5.e-002	5.6808
13578	23.632	5.9091	0.	82.412
13579	23.816	5.7273	0.	71.618
13580	23.816	5.8182	5.e-002	6.9158
13581	23.908	5.8182	0.	48.434
13582	23.816	5.9091	0.	48.808
13583	8.4428	5.6364	0.	1143.9
13584	8.3508	5.5455	0.	1285.4
13585	8.3508	5.6364	5.e-002	87.579
13586	8.2587	5.6364	0.	844.02
13587	8.6269	5.6364	0.	1427.4
13588	8.5349	5.5455	0.	1420.6
13589	8.5349	5.6364	5.e-002	73.603
13590	8.811	5.6364	0.	1757.7
13591	8.719	5.5455	0.	1711.2
13592	8.719	5.6364	5.e-002	66.485
13593	8.9952	5.6364	0.	2058.6
13594	8.9031	5.5455	0.	2007.7
13595	8.9031	5.6364	5.e-002	57.812
13596	9.1793	5.6364	0.	2313.3
13597	9.0872	5.5455	0.	2270.
13598	9.0872	5.6364	5.e-002	48.761
13599	9.3634	5.6364	0.	2519.6
13600	9.2713	5.5455	0.	2487.3
13601	9.2713	5.6364	5.e-002	39.986
13602	9.5475	5.6364	0.	2681.
13603	9.4554	5.5455	0.	2659.4
13604	9.4554	5.6364	5.e-002	31.92
13605	9.7316	5.6364	0.	2802.9
13606	9.6395	5.5455	0.	2790.5
13607	9.6395	5.6364	5.e-002	24.786
13608	9.9157	5.6364	0.	2891.1
13609	9.8236	5.5455	0.	2886.3
13610	9.8236	5.6364	5.e-002	18.649
13611	10.1	5.6364	0.	2951.3
13612	10.008	5.5455	0.	2952.6
13613	10.008	5.6364	5.e-002	13.483
13614	10.284	5.6364	0.	2988.7
13615	10.192	5.5455	0.	2994.7
13616	10.192	5.6364	5.e-002	9.2092
13617	10.468	5.6364	0.	3007.6
13618	10.376	5.5455	0.	3017.2
13619	10.376	5.6364	5.e-002	5.7387
13620	10.652	5.6364	0.	3011.6
13621	10.56	5.5455	0.	3024.
13622	10.56	5.6364	5.e-002	3.0302
13623	10.836	5.6364	0.	3004.
13624	10.744	5.5455	0.	3018.4
13625	10.744	5.6364	5.e-002	1.4377
13626	11.02	5.6364	0.	2987.
13627	10.928	5.5455	0.	3003.
13628	10.928	5.6364	5.e-002	2.0318
13629	11.204	5.6364	0.	2962.7
13630	11.112	5.5455	0.	2980.
13631	11.112	5.6364	5.e-002	3.2717
13632	11.389	5.6364	0.	2932.7
13633	11.297	5.5455	0.	2950.9
13634	11.297	5.6364	5.e-002	4.3594
13635	11.573	5.6364	0.	2898.4
13636	11.481	5.5455	0.	2917.2
13637	11.481	5.6364	5.e-002	5.2391
13638	11.757	5.6364	0.	2860.6
13639	11.665	5.5455	0.	2879.9
13640	11.665	5.6364	5.e-002	5.9336
13641	11.941	5.6364	0.	2820.2
13642	11.849	5.5455	0.	2839.9
13643	11.849	5.6364	5.e-002	6.4744
13644	12.125	5.6364	0.	2777.8
13645	12.033	5.5455	0.	2797.8
13646	12.033	5.6364	5.e-002	6.8903
13647	12.309	5.6364	0.	2734.
13648	12.217	5.5455	0.	2754.2
13649	12.217	5.6364	5.e-002	7.2058
13650	12.493	5.6364	0.	2689.1
13651	12.401	5.5455	0.	2709.4
13652	12.401	5.6364	5.e-002	7.4413
13653	12.677	5.6364	0.	2643.3
13654	12.585	5.5455	0.	2663.8
13655	12.585	5.6364	5.e-002	7.6133
13656	12.861	5.6364	0.	2597.
13657	12.769	5.5455	0.	2617.7
13658	12.769	5.6364	5.e-002	7.7351
13659	13.046	5.6364	0.	2550.3
13660	12.953	5.5455	0.	2571.1
13661	12.953	5.6364	5.e-002	7.8179
13662	13.23	5.6364	0.	2503.4
13663	13.138	5.5455	0.	2524.2
13664	13.138	5.6364	5.e-002	7.8699
13665	13.414	5.6364	0.	2456.4
13666	13.322	5.5455	0.	2477.2
13667	13.322	5.6364	5.e-002	7.8981
13668	13.598	5.6364	0.	2409.2
13669	13.506	5.5455	0.	2430.2
13670	13.506	5.6364	5.e-002	7.9081
13671	13.782	5.6364	0.	2362.1
13672	13.69	5.5455	0.	2383.1
13673	13.69	5.6364	5.e-002	7.9041
13674	13.966	5.6364	0.	2315.1
13675	13.874	5.5455	0.	2336.1
13676	13.874	5.6364	5.e-002	7.8894
13677	14.15	5.6364	0.	2268.1
13678	14.058	5.5455	0.	2289.2
13679	14.058	5.6364	5.e-002	7.8668
13680	14.334	5.6364	0.	2221.3
13681	14.242	5.5455	0.	2242.4
13682	14.242	5.6364	5.e-002	7.8384
13683	14.518	5.6364	0.	2174.6
13684	14.426	5.5455	0.	2195.7
13685	14.426	5.6364	5.e-002	7.8056
13686	14.703	5.6364	0.	2128.
13687	14.61	5.5455	0.	2149.1
13688	14.61	5.6364	5.e-002	7.77
13689	14.887	5.6364	0.	2081.7
13690	14.795	5.5455	0.	2102.8
13691	14.795	5.6364	5.e-002	7.7323
13692	15.071	5.6364	0.	2035.5
13693	14.979	5.5455	0.	2056.6
13694	14.979	5.6364	5.e-002	7.6933
13695	15.255	5.6364	0.	1989.5
13696	15.163	5.5455	0.	2010.5
13697	15.163	5.6364	5.e-002	7.6537
13698	15.439	5.6364	0.	1943.6
13699	15.347	5.5455	0.	1964.7
13700	15.347	5.6364	5.e-002	7.6137
13701	15.623	5.6364	0.	1898.
13702	15.531	5.5455	0.	1919.
13703	15.531	5.6364	5.e-002	7.5738
13704	15.807	5.6364	0.	1852.6
13705	15.715	5.5455	0.	1873.6
13706	15.715	5.6364	5.e-002	7.5342
13707	15.991	5.6364	0.	1807.3
13708	15.899	5.5455	0.	1828.3
13709	15.899	5.6364	5.e-002	7.495
13710	16.175	5.6364	0.	1762.3
13711	16.083	5.5455	0.	1783.2
13712	16.083	5.6364	5.e-002	7.4564
13713	16.359	5.6364	0.	1717.4
13714	16.267	5.5455	0.	1738.3
13715	16.267	5.6364	5.e-002	7.4185
13716	16.544	5.6364	0.	1672.8
13717	16.452	5.5455	0.	1693.6
13718	16.452	5.6364	5.e-002	7.3813
13719	16.728	5.6364	0.	1628.3
13720	16.636	5.5455	0.	1649.2
13721	16.636	5.6364	5.e-002	7.345
13722	16.912	5.6364	0.	1584.1
13723	16.82	5.5455	0.	1604.9
13724	16.82	5.6364	5.e-002	7.3094
13725	17.096	5.6364	0.	1540.
13726	17.004	5.5455	0.	1560.7
13727	17.004	5.6364	5.e-002	7.2747
13728	17.28	5.6364	0.	1496.1
13729	17.188	5.5455	0.	1516.8
13730	17.188	5.6364	5.e-002	7.2408
13731	17.464	5.6364	0.	1452.5
13732	17.372	5.5455	0.	1473.1
13733	17.372	5.6364	5.e-002	7.2078
13734	17.648	5.6364	0.	1409.
13735	17.556	5.5455	0.	1429.6
13736	17.556	5.6364	5.e-002	7.1758
13737	17.832	5.6364	0.	1365.7
13738	17.74	5.5455	0.	1386.3
13739	17.74	5.6364	5.e-002	7.1446
13740	18.016	5.6364	0.	1322.6
13741	17.924	5.5455	0.	1343.1
13742	17.924	5.6364	5.e-002	7.1143
13743	18.201	5.6364	0.	1279.8
13744	18.109	5.5455	0.	1300.2
13745	18.109	5.6364	5.e-002	7.085
13746	18.385	5.6364	0.	1237.1
13747	18.293	5.5455	0.	1257.5
13748	18.293	5.6364	5.e-002	7.0567
13749	18.569	5.6364	0.	1194.6
13750	18.477	5.5455	0.	1214.9
13751	18.477	5.6364	5.e-002	7.0293
13752	18.753	5.6364	0.	1152.2
13753	18.661	5.5455	0.	1172.5
13754	18.661	5.6364	5.e-002	7.003
13755	18.937	5.6364	0.	1110.1
13756	18.845	5.5455	0.	1130.4
13757	18.845	5.6364	5.e-002	6.9777
13758	19.121	5.6364	0.	1068.2
13759	19.029	5.5455	0.	1088.4
13760	19.029	5.6364	5.e-002	6.9535
13761	19.305	5.6364	0.	1026.4
13762	19.213	5.5455	0.	1046.6
13763	19.213	5.6364	5.e-002	6.9305
13764	19.489	5.6364	0.	984.82
13765	19.397	5.5455	0.	1005.
13766	19.397	5.6364	5.e-002	6.9087
13767	19.673	5.6364	0.	943.42
13768	19.581	5.5455	0.	963.54
13769	19.581	5.6364	5.e-002	6.8881
13770	19.858	5.6364	0.	902.19
13771	19.766	5.5455	0.	922.3
13772	19.766	5.6364	5.e-002	6.8689
13773	20.042	5.6364	0.	861.14
13774	19.95	5.5455	0.	881.23
13775	19.95	5.6364	5.e-002	6.851
13776	20.226	5.6364	0.	820.26
13777	20.134	5.5455	0.	840.35
13778	20.134	5.6364	5.e-002	6.8346
13779	20.41	5.6364	0.	779.55
13780	20.318	5.5455	0.	799.65
13781	20.318	5.6364	5.e-002	6.8198
13782	20.594	5.6364	0.	739.
13783	20.502	5.5455	0.	759.12
13784	20.502	5.6364	5.e-002	6.8066
13785	20.778	5.6364	0.	698.62
13786	20.686	5.5455	0.	718.76
13787	20.686	5.6364	5.e-002	6.7951
13788	20.962	5.6364	0.	658.41
13789	20.87	5.5455	0.	678.58
13790	20.87	5.6364	5.e-002	6.7854
13791	21.146	5.6364	0.	618.35
13792	21.054	5.5455	0.	638.57
13793	21.054	5.6364	5.e-002	6.7777
13794	21.33	5.6364	0.	578.46
13795	21.238	5.5455	0.	598.75
13796	21.238	5.6364	5.e-002	6.7719
13797	21.515	5.6364	0.	538.73
13798	21.422	5.5455	0.	559.09
13799	21.422	5.6364	5.e-002	6.7682
13800	21.699	5.6364	0.	499.16
13801	21.607	5.5455	0.	519.63
13802	21.607	5.6364	5.e-002	6.7668
13803	21.883	5.6364	0.	459.77
13804	21.791	5.5455	0.	480.36
13805	21.791	5.6364	5.e-002	6.7677
13806	22.067	5.6364	0.	420.57
13807	21.975	5.5455	0.	441.29
13808	21.975	5.6364	5.e-002	6.7712
13809	22.251	5.6364	0.	381.57
13810	22.159	5.5455	0.	402.46
13811	22.159	5.6364	5.e-002	6.7775
13812	22.435	5.6364	0.	342.81
13813	22.343	5.5455	0.	363.9
13814	22.343	5.6364	5.e-002	6.7869
13815	22.619	5.6364	0.	304.34
13816	22.527	5.5455	0.	325.66
13817	22.527	5.6364	5.e-002	6.7998
13818	22.803	5.6364	0.	266.24
13819	22.711	5.5455	0.	287.82
13820	22.711	5.6364	5.e-002	6.8172
13821	22.987	5.6364	0.	228.65
13822	22.895	5.5455	0.	250.53
13823	22.895	5.6364	5.e-002	6.8405
13824	23.172	5.6364	0.	191.83
13825	23.079	5.5455	0.	214.01
13826	23.079	5.6364	5.e-002	6.8728
13827	23.356	5.6364	0.	156.27
13828	23.264	5.5455	0.	178.69
13829	23.264	5.6364	5.e-002	6.9202
13830	23.54	5.6364	0.	123.06
13831	23.448	5.5455	0.	145.33
13832	23.448	5.6364	5.e-002	7.0011
13833	23.724	5.6364	0.	94.689
13834	23.632	5.5455	0.	115.55
13835	23.632	5.6364	5.e-002	7.1855
13836	23.816	5.5455	0.	92.535
13837	23.816	5.6364	5.e-002	7.8407
13838	23.908	5.6364	0.	73.26
13839	8.4428	5.4545	0.	1506.3
13840	8.3508	5.3636	0.	1741.1
13841	8.3508	5.4545	5.e-002	93.654
13842	8.2587	5.4545	0.	1207.2
13843	8.6269	5.4545	0.	1682.7
13844	8.5349	5.3636	0.	1763.5
13845	8.5349	5.4545	5.e-002	74.385
13846	8.811	5.4545	0.	1951.7
13847	8.719	5.3636	0.	1974.3
13848	8.719	5.4545	5.e-002	66.667
13849	8.9952	5.4545	0.	2214.1
13850	8.9031	5.3636	0.	2214.6
13851	8.9031	5.4545	5.e-002	57.371
13852	9.1793	5.4545	0.	2441.1
13853	9.0872	5.3636	0.	2435.9
13854	9.0872	5.4545	5.e-002	47.731
13855	9.3634	5.4545	0.	2625.1
13856	9.2713	5.3636	0.	2621.2
13857	9.2713	5.4545	5.e-002	38.581
13858	9.5475	5.4545	0.	2767.6
13859	9.4554	5.3636	0.	2767.3
13860	9.4554	5.4545	5.e-002	30.389
13861	9.7316	5.4545	0.	2873.1
13862	9.6395	5.3636	0.	2876.8
13863	9.6395	5.4545	5.e-002	23.324
13864	9.9157	5.4545	0.	2947.3
13865	9.8236	5.3636	0.	2954.7
13866	9.8236	5.4545	5.e-002	17.388
13867	10.1	5.4545	0.	2995.6
13868	10.008	5.3636	0.	3006.2
13869	10.008	5.4545	5.e-002	12.51
13870	10.284	5.4545	0.	3023.
13871	10.192	5.3636	0.	3036.
13872	10.192	5.4545	5.e-002	8.6024
13873	10.468	5.4545	0.	3033.6
13874	10.376	5.3636	0.	3048.5
13875	10.376	5.4545	5.e-002	5.6272
13876	10.652	5.4545	0.	3030.8
13877	10.56	5.3636	0.	3047.2
13878	10.56	5.4545	5.e-002	3.7037
13879	10.836	5.4545	0.	3017.5
13880	10.744	5.3636	0.	3035.1
13881	10.744	5.4545	5.e-002	3.1345
13882	11.02	5.4545	0.	2996.
13883	10.928	5.3636	0.	3014.4
13884	10.928	5.4545	5.e-002	3.6673
13885	11.204	5.4545	0.	2968.1
13886	11.112	5.3636	0.	2987.1
13887	11.112	5.4545	5.e-002	4.5374
13888	11.389	5.4545	0.	2935.3
13889	11.297	5.3636	0.	2954.8
13890	11.297	5.4545	5.e-002	5.3752
13891	11.573	5.4545	0.	2898.7
13892	11.481	5.3636	0.	2918.5
13893	11.481	5.4545	5.e-002	6.0881
13894	11.757	5.4545	0.	2859.2
13895	11.665	5.3636	0.	2879.2
13896	11.665	5.4545	5.e-002	6.6666
13897	11.941	5.4545	0.	2817.5
13898	11.849	5.3636	0.	2837.7
13899	11.849	5.4545	5.e-002	7.1246
13900	12.125	5.4545	0.	2774.2
13901	12.033	5.3636	0.	2794.6
13902	12.033	5.4545	5.e-002	7.4807
13903	12.309	5.4545	0.	2729.7
13904	12.217	5.3636	0.	2750.1
13905	12.217	5.4545	5.e-002	7.7528
13906	12.493	5.4545	0.	2684.3
13907	12.401	5.3636	0.	2704.8
13908	12.401	5.4545	5.e-002	7.9569
13909	12.677	5.4545	0.	2638.2
13910	12.585	5.3636	0.	2658.9
13911	12.585	5.4545	5.e-002	8.1065
13912	12.861	5.4545	0.	2591.7
13913	12.769	5.3636	0.	2612.5
13914	12.769	5.4545	5.e-002	8.2127
13915	13.046	5.4545	0.	2545.
13916	12.953	5.3636	0.	2565.8
13917	12.953	5.4545	5.e-002	8.2847
13918	13.23	5.4545	0.	2498.1
13919	13.138	5.3636	0.	2519.
13920	13.138	5.4545	5.e-002	8.3298
13921	13.414	5.4545	0.	2451.1
13922	13.322	5.3636	0.	2472.
13923	13.322	5.4545	5.e-002	8.3538
13924	13.598	5.4545	0.	2404.1
13925	13.506	5.3636	0.	2425.1
13926	13.506	5.4545	5.e-002	8.3615
13927	13.782	5.4545	0.	2357.1
13928	13.69	5.3636	0.	2378.1
13929	13.69	5.4545	5.e-002	8.3567
13930	13.966	5.4545	0.	2310.2
13931	13.874	5.3636	0.	2331.3
13932	13.874	5.4545	5.e-002	8.3422
13933	14.15	5.4545	0.	2263.4
13934	14.058	5.3636	0.	2284.5
13935	14.058	5.4545	5.e-002	8.3204
13936	14.334	5.4545	0.	2216.8
13937	14.242	5.3636	0.	2237.9
13938	14.242	5.4545	5.e-002	8.2932
13939	14.518	5.4545	0.	2170.3
13940	14.426	5.3636	0.	2191.4
13941	14.426	5.4545	5.e-002	8.2619
13942	14.703	5.4545	0.	2123.9
13943	14.61	5.3636	0.	2145.
13944	14.61	5.4545	5.e-002	8.2278
13945	14.887	5.4545	0.	2077.7
13946	14.795	5.3636	0.	2098.8
13947	14.795	5.4545	5.e-002	8.1915
13948	15.071	5.4545	0.	2031.7
13949	14.979	5.3636	0.	2052.8
13950	14.979	5.4545	5.e-002	8.1539
13951	15.255	5.4545	0.	1985.8
13952	15.163	5.3636	0.	2007.
13953	15.163	5.4545	5.e-002	8.1154
13954	15.439	5.4545	0.	1940.2
13955	15.347	5.3636	0.	1961.3
13956	15.347	5.4545	5.e-002	8.0765
13957	15.623	5.4545	0.	1894.7
13958	15.531	5.3636	0.	1915.8
13959	15.531	5.4545	5.e-002	8.0373
13960	15.807	5.4545	0.	1849.4
13961	15.715	5.3636	0.	1870.5
13962	15.715	5.4545	5.e-002	7.9982
13963	15.991	5.4545	0.	1804.3
13964	15.899	5.3636	0.	1825.3
13965	15.899	5.4545	5.e-002	7.9593
13966	16.175	5.4545	0.	1759.3
13967	16.083	5.3636	0.	1780.4
13968	16.083	5.4545	5.e-002	7.9206
13969	16.359	5.4545	0.	1714.6
13970	16.267	5.3636	0.	1735.6
13971	16.267	5.4545	5.e-002	7.8824
13972	16.544	5.4545	0.	1670.1
13973	16.452	5.3636	0.	1691.1
13974	16.452	5.4545	5.e-002	7.8447
13975	16.728	5.4545	0.	1625.7
13976	16.636	5.3636	0.	1646.7
13977	16.636	5.4545	5.e-002	7.8076
13978	16.912	5.4545	0.	1581.6
13979	16.82	5.3636	0.	1602.5
13980	16.82	5.4545	5.e-002	7.7709
13981	17.096	5.4545	0.	1537.6
13982	17.004	5.3636	0.	1558.5
13983	17.004	5.4545	5.e-002	7.7349
13984	17.28	5.4545	0.	1493.9
13985	17.188	5.3636	0.	1514.7
13986	17.188	5.4545	5.e-002	7.6995
13987	17.464	5.4545	0.	1450.3
13988	17.372	5.3636	0.	1471.1
13989	17.372	5.4545	5.e-002	7.6647
13990	17.648	5.4545	0.	1406.9
13991	17.556	5.3636	0.	1427.6
13992	17.556	5.4545	5.e-002	7.6306
13993	17.832	5.4545	0.	1363.7
13994	17.74	5.3636	0.	1384.4
13995	17.74	5.4545	5.e-002	7.5971
13996	18.016	5.4545	0.	1320.7
13997	17.924	5.3636	0.	1341.4
13998	17.924	5.4545	5.e-002	7.5643
13999	18.201	5.4545	0.	1278.
14000	18.109	5.3636	0.	1298.5
14001	18.109	5.4545	5.e-002	7.5321
14002	18.385	5.4545	0.	1235.3
14003	18.293	5.3636	0.	1255.9
14004	18.293	5.4545	5.e-002	7.5007
14005	18.569	5.4545	0.	1192.9
14006	18.477	5.3636	0.	1213.4
14007	18.477	5.4545	5.e-002	7.47
14008	18.753	5.4545	0.	1150.7
14009	18.661	5.3636	0.	1171.2
14010	18.661	5.4545	5.e-002	7.4401
14011	18.937	5.4545	0.	1108.7
14012	18.845	5.3636	0.	1129.1
14013	18.845	5.4545	5.e-002	7.4109
14014	19.121	5.4545	0.	1066.9
14015	19.029	5.3636	0.	1087.2
14016	19.029	5.4545	5.e-002	7.3825
14017	19.305	5.4545	0.	1025.2
14018	19.213	5.3636	0.	1045.6
14019	19.213	5.4545	5.e-002	7.355
14020	19.489	5.4545	0.	983.77
14021	19.397	5.3636	0.	1004.1
14022	19.397	5.4545	5.e-002	7.3284
14023	19.673	5.4545	0.	942.5
14024	19.581	5.3636	0.	962.8
14025	19.581	5.4545	5.e-002	7.3027
14026	19.858	5.4545	0.	901.43
14027	19.766	5.3636	0.	921.71
14028	19.766	5.4545	5.e-002	7.278
14029	20.042	5.4545	0.	860.54
14030	19.95	5.3636	0.	880.81
14031	19.95	5.4545	5.e-002	7.2543
14032	20.226	5.4545	0.	819.83
14033	20.134	5.3636	0.	840.1
14034	20.134	5.4545	5.e-002	7.2317
14035	20.41	5.4545	0.	779.31
14036	20.318	5.3636	0.	799.58
14037	20.318	5.4545	5.e-002	7.2102
14038	20.594	5.4545	0.	738.97
14039	20.502	5.3636	0.	759.27
14040	20.502	5.4545	5.e-002	7.19
14041	20.778	5.4545	0.	698.82
14042	20.686	5.3636	0.	719.14
14043	20.686	5.4545	5.e-002	7.171
14044	20.962	5.4545	0.	658.86
14045	20.87	5.3636	0.	679.22
14046	20.87	5.4545	5.e-002	7.1534
14047	21.146	5.4545	0.	619.09
14048	21.054	5.3636	0.	639.5
14049	21.054	5.4545	5.e-002	7.1371
14050	21.33	5.4545	0.	579.51
14051	21.238	5.3636	0.	599.98
14052	21.238	5.4545	5.e-002	7.1224
14053	21.515	5.4545	0.	540.14
14054	21.422	5.3636	0.	560.68
14055	21.422	5.4545	5.e-002	7.1093
14056	21.699	5.4545	0.	500.98
14057	21.607	5.3636	0.	521.62
14058	21.607	5.4545	5.e-002	7.098
14059	21.883	5.4545	0.	462.05
14060	21.791	5.3636	0.	482.8
14061	21.791	5.4545	5.e-002	7.0885
14062	22.067	5.4545	0.	423.37
14063	21.975	5.3636	0.	444.25
14064	21.975	5.4545	5.e-002	7.0811
14065	22.251	5.4545	0.	385.
14066	22.159	5.3636	0.	406.02
14067	22.159	5.4545	5.e-002	7.0762
14068	22.435	5.4545	0.	346.98
14069	22.343	5.3636	0.	368.16
14070	22.343	5.4545	5.e-002	7.0741
14071	22.619	5.4545	0.	309.4
14072	22.527	5.3636	0.	330.75
14073	22.527	5.4545	5.e-002	7.0756
14074	22.803	5.4545	0.	272.4
14075	22.711	5.3636	0.	293.92
14076	22.711	5.4545	5.e-002	7.082
14077	22.987	5.4545	0.	236.2
14078	22.895	5.3636	0.	257.86
14079	22.895	5.4545	5.e-002	7.0955
14080	23.172	5.4545	0.	201.19
14081	23.079	5.3636	0.	222.88
14082	23.079	5.4545	5.e-002	7.1204
14083	23.356	5.4545	0.	167.99
14084	23.264	5.3636	0.	189.5
14085	23.264	5.4545	5.e-002	7.1658
14086	23.54	5.4545	0.	137.77
14087	23.448	5.3636	0.	158.53
14088	23.448	5.4545	5.e-002	7.2498
14089	23.724	5.4545	0.	112.53
14090	23.632	5.3636	0.	131.42
14091	23.632	5.4545	5.e-002	7.4189
14092	23.816	5.3636	0.	110.53
14093	23.816	5.4545	5.e-002	7.9357
14094	23.908	5.4545	0.	93.641
14095	8.4428	5.2727	0.	1938.4
14096	8.3508	5.1818	0.	2258.8
14097	8.3508	5.2727	5.e-002	105.61
14098	8.2587	5.2727	0.	1603.2
14099	8.6269	5.2727	0.	2021.8
14100	8.5349	5.1818	0.	2184.
14101	8.5349	5.2727	5.e-002	78.707
14102	8.811	5.2727	0.	2219.6
14103	8.719	5.1818	0.	2314.3
14104	8.719	5.2727	5.e-002	68.952
14105	8.9952	5.2727	0.	2426.8
14106	8.9031	5.1818	0.	2484.8
14107	8.9031	5.2727	5.e-002	58.025
14108	9.1793	5.2727	0.	2610.6
14109	9.0872	5.1818	0.	2649.3
14110	9.0872	5.2727	5.e-002	47.299
14111	9.3634	5.2727	0.	2760.1
14112	9.2713	5.1818	0.	2789.
14113	9.2713	5.2727	5.e-002	37.618
14114	9.5475	5.2727	0.	2874.5
14115	9.4554	5.1818	0.	2898.7
14116	9.4554	5.2727	5.e-002	29.322
14117	9.7316	5.2727	0.	2957.2
14118	9.6395	5.1818	0.	2979.2
14119	9.6395	5.2727	5.e-002	22.429
14120	9.9157	5.2727	0.	3012.8
14121	9.8236	5.1818	0.	3033.9
14122	9.8236	5.2727	5.e-002	16.829
14123	10.1	5.2727	0.	3046.1
14124	10.008	5.1818	0.	3066.8
14125	10.008	5.2727	5.e-002	12.387
14126	10.284	5.2727	0.	3061.3
14127	10.192	5.1818	0.	3081.9
14128	10.192	5.2727	5.e-002	8.9988
14129	10.468	5.2727	0.	3062.1
14130	10.376	5.1818	0.	3082.7
14131	10.376	5.2727	5.e-002	6.6289
14132	10.652	5.2727	0.	3051.5
14133	10.56	5.1818	0.	3072.1
14134	10.56	5.2727	5.e-002	5.2976
14135	10.836	5.2727	0.	3032.
14136	10.744	5.1818	0.	3052.7
14137	10.744	5.2727	5.e-002	4.9258
14138	11.02	5.2727	0.	3005.5
14139	10.928	5.1818	0.	3026.3
14140	10.928	5.2727	5.e-002	5.1856
14141	11.204	5.2727	0.	2973.8
14142	11.112	5.1818	0.	2994.5
14143	11.112	5.2727	5.e-002	5.7033
14144	11.389	5.2727	0.	2938.
14145	11.297	5.1818	0.	2958.7
14146	11.297	5.2727	5.e-002	6.2597
14147	11.573	5.2727	0.	2899.1
14148	11.481	5.1818	0.	2919.7
14149	11.481	5.2727	5.e-002	6.7645
14150	11.757	5.2727	0.	2857.8
14151	11.665	5.1818	0.	2878.5
14152	11.665	5.2727	5.e-002	7.1897
14153	11.941	5.2727	0.	2814.8
14154	11.849	5.1818	0.	2835.5
14155	11.849	5.2727	5.e-002	7.5336
14156	12.125	5.2727	0.	2770.5
14157	12.033	5.1818	0.	2791.2
14158	12.033	5.2727	5.e-002	7.8038
14159	12.309	5.2727	0.	2725.4
14160	12.217	5.1818	0.	2746.
14161	12.217	5.2727	5.e-002	8.0106
14162	12.493	5.2727	0.	2679.5
14163	12.401	5.1818	0.	2700.2
14164	12.401	5.2727	5.e-002	8.1649
14165	12.677	5.2727	0.	2633.2
14166	12.585	5.1818	0.	2653.9
14167	12.585	5.2727	5.e-002	8.2762
14168	12.861	5.2727	0.	2586.6
14169	12.769	5.1818	0.	2607.4
14170	12.769	5.2727	5.e-002	8.3529
14171	13.046	5.2727	0.	2539.8
14172	12.953	5.1818	0.	2560.6
14173	12.953	5.2727	5.e-002	8.4021
14174	13.23	5.2727	0.	2492.9
14175	13.138	5.1818	0.	2513.8
14176	13.138	5.2727	5.e-002	8.4295
14177	13.414	5.2727	0.	2446.
14178	13.322	5.1818	0.	2466.9
14179	13.322	5.2727	5.e-002	8.4398
14180	13.598	5.2727	0.	2399.1
14181	13.506	5.1818	0.	2420.1
14182	13.506	5.2727	5.e-002	8.4369
14183	13.782	5.2727	0.	2352.3
14184	13.69	5.1818	0.	2373.3
14185	13.69	5.2727	5.e-002	8.4237
14186	13.966	5.2727	0.	2305.6
14187	13.874	5.1818	0.	2326.6
14188	13.874	5.2727	5.e-002	8.4027
14189	14.15	5.2727	0.	2259.
14190	14.058	5.1818	0.	2280.1
14191	14.058	5.2727	5.e-002	8.3759
14192	14.334	5.2727	0.	2212.5
14193	14.242	5.1818	0.	2233.6
14194	14.242	5.2727	5.e-002	8.3447
14195	14.518	5.2727	0.	2166.2
14196	14.426	5.1818	0.	2187.3
14197	14.426	5.2727	5.e-002	8.3102
14198	14.703	5.2727	0.	2120.
14199	14.61	5.1818	0.	2141.2
14200	14.61	5.2727	5.e-002	8.2736
14201	14.887	5.2727	0.	2074.
14202	14.795	5.1818	0.	2095.2
14203	14.795	5.2727	5.e-002	8.2354
14204	15.071	5.2727	0.	2028.2
14205	14.979	5.1818	0.	2049.3
14206	14.979	5.2727	5.e-002	8.1961
14207	15.255	5.2727	0.	1982.5
14208	15.163	5.1818	0.	2003.6
14209	15.163	5.2727	5.e-002	8.1563
14210	15.439	5.2727	0.	1937.
14211	15.347	5.1818	0.	1958.1
14212	15.347	5.2727	5.e-002	8.1163
14213	15.623	5.2727	0.	1891.6
14214	15.531	5.1818	0.	1912.8
14215	15.531	5.2727	5.e-002	8.0762
14216	15.807	5.2727	0.	1846.5
14217	15.715	5.1818	0.	1867.6
14218	15.715	5.2727	5.e-002	8.0364
14219	15.991	5.2727	0.	1801.5
14220	15.899	5.1818	0.	1822.6
14221	15.899	5.2727	5.e-002	7.9968
14222	16.175	5.2727	0.	1756.7
14223	16.083	5.1818	0.	1777.8
14224	16.083	5.2727	5.e-002	7.9576
14225	16.359	5.2727	0.	1712.1
14226	16.267	5.1818	0.	1733.2
14227	16.267	5.2727	5.e-002	7.919
14228	16.544	5.2727	0.	1667.7
14229	16.452	5.1818	0.	1688.7
14230	16.452	5.2727	5.e-002	7.8808
14231	16.728	5.2727	0.	1623.5
14232	16.636	5.1818	0.	1644.5
14233	16.636	5.2727	5.e-002	7.8433
14234	16.912	5.2727	0.	1579.5
14235	16.82	5.1818	0.	1600.4
14236	16.82	5.2727	5.e-002	7.8063
14237	17.096	5.2727	0.	1535.6
14238	17.004	5.1818	0.	1556.5
14239	17.004	5.2727	5.e-002	7.77
14240	17.28	5.2727	0.	1491.9
14241	17.188	5.1818	0.	1512.8
14242	17.188	5.2727	5.e-002	7.7343
14243	17.464	5.2727	0.	1448.5
14244	17.372	5.1818	0.	1469.3
14245	17.372	5.2727	5.e-002	7.6992
14246	17.648	5.2727	0.	1405.2
14247	17.556	5.1818	0.	1426.
14248	17.556	5.2727	5.e-002	7.6649
14249	17.832	5.2727	0.	1362.1
14250	17.74	5.1818	0.	1382.8
14251	17.74	5.2727	5.e-002	7.6312
14252	18.016	5.2727	0.	1319.2
14253	17.924	5.1818	0.	1339.9
14254	17.924	5.2727	5.e-002	7.5981
14255	18.201	5.2727	0.	1276.5
14256	18.109	5.1818	0.	1297.2
14257	18.109	5.2727	5.e-002	7.5658
14258	18.385	5.2727	0.	1234.
14259	18.293	5.1818	0.	1254.6
14260	18.293	5.2727	5.e-002	7.5342
14261	18.569	5.2727	0.	1191.7
14262	18.477	5.1818	0.	1212.3
14263	18.477	5.2727	5.e-002	7.5033
14264	18.753	5.2727	0.	1149.6
14265	18.661	5.1818	0.	1170.1
14266	18.661	5.2727	5.e-002	7.4732
14267	18.937	5.2727	0.	1107.7
14268	18.845	5.1818	0.	1128.2
14269	18.845	5.2727	5.e-002	7.4439
14270	19.121	5.2727	0.	1066.
14271	19.029	5.1818	0.	1086.4
14272	19.029	5.2727	5.e-002	7.4153
14273	19.305	5.2727	0.	1024.5
14274	19.213	5.1818	0.	1044.9
14275	19.213	5.2727	5.e-002	7.3877
14276	19.489	5.2727	0.	983.19
14277	19.397	5.1818	0.	1003.5
14278	19.397	5.2727	5.e-002	7.361
14279	19.673	5.2727	0.	942.07
14280	19.581	5.1818	0.	962.41
14281	19.581	5.2727	5.e-002	7.3352
14282	19.858	5.2727	0.	901.16
14283	19.766	5.1818	0.	921.48
14284	19.766	5.2727	5.e-002	7.3105
14285	20.042	5.2727	0.	860.44
14286	19.95	5.1818	0.	880.75
14287	19.95	5.2727	5.e-002	7.2868
14288	20.226	5.2727	0.	819.93
14289	20.134	5.1818	0.	840.23
14290	20.134	5.2727	5.e-002	7.2642
14291	20.41	5.2727	0.	779.62
14292	20.318	5.1818	0.	799.93
14293	20.318	5.2727	5.e-002	7.2428
14294	20.594	5.2727	0.	739.52
14295	20.502	5.1818	0.	759.83
14296	20.502	5.2727	5.e-002	7.2227
14297	20.778	5.2727	0.	699.63
14298	20.686	5.1818	0.	719.96
14299	20.686	5.2727	5.e-002	7.2039
14300	20.962	5.2727	0.	659.95
14301	20.87	5.1818	0.	680.31
14302	20.87	5.2727	5.e-002	7.1866
14303	21.146	5.2727	0.	620.49
14304	21.054	5.1818	0.	640.9
14305	21.054	5.2727	5.e-002	7.1708
14306	21.33	5.2727	0.	581.26
14307	21.238	5.1818	0.	601.72
14308	21.238	5.2727	5.e-002	7.1567
14309	21.515	5.2727	0.	542.28
14310	21.422	5.1818	0.	562.81
14311	21.422	5.2727	5.e-002	7.1444
14312	21.699	5.2727	0.	503.56
14313	21.607	5.1818	0.	524.16
14314	21.607	5.2727	5.e-002	7.1341
14315	21.883	5.2727	0.	465.14
14316	21.791	5.1818	0.	485.83
14317	21.791	5.2727	5.e-002	7.126
14318	22.067	5.2727	0.	427.05
14319	21.975	5.1818	0.	447.83
14320	21.975	5.2727	5.e-002	7.1205
14321	22.251	5.2727	0.	389.34
14322	22.159	5.1818	0.	410.22
14323	22.159	5.2727	5.e-002	7.118
14324	22.435	5.2727	0.	352.1
14325	22.343	5.1818	0.	373.08
14326	22.343	5.2727	5.e-002	7.1192
14327	22.619	5.2727	0.	315.44
14328	22.527	5.1818	0.	336.51
14329	22.527	5.2727	5.e-002	7.1251
14330	22.803	5.2727	0.	279.55
14331	22.711	5.1818	0.	300.67
14332	22.711	5.2727	5.e-002	7.1375
14333	22.987	5.2727	0.	244.69
14334	22.895	5.1818	0.	265.77
14335	22.895	5.2727	5.e-002	7.1591
14336	23.172	5.2727	0.	211.28
14337	23.079	5.1818	0.	232.16
14338	23.079	5.2727	5.e-002	7.1947
14339	23.356	5.2727	0.	179.96
14340	23.264	5.1818	0.	200.34
14341	23.264	5.2727	5.e-002	7.2528
14342	23.54	5.2727	0.	151.75
14343	23.448	5.1818	0.	171.1
14344	23.448	5.2727	5.e-002	7.347
14345	23.724	5.2727	0.	128.28
14346	23.632	5.1818	0.	145.64
14347	23.632	5.2727	5.e-002	7.5093
14348	23.816	5.1818	0.	125.9
14349	23.816	5.2727	5.e-002	7.9422
14350	23.908	5.2727	0.	110.78
14351	8.4428	5.0909	0.	2441.
14352	8.3508	5.	0.	2861.9
14353	8.3508	5.0909	5.e-002	123.46
14354	8.2587	5.0909	0.	2050.3
14355	8.6269	5.0909	0.	2435.3
14356	8.5349	5.	0.	2683.7
14357	8.5349	5.0909	5.e-002	86.313
14358	8.811	5.0909	0.	2554.8
14359	8.719	5.	0.	2726.
14360	8.719	5.0909	5.e-002	72.618
14361	8.9952	5.0909	0.	2693.
14362	8.9031	5.	0.	2812.8
14363	8.9031	5.0909	5.e-002	58.861
14364	9.1793	5.0909	0.	2819.6
14365	9.0872	5.	0.	2905.5
14366	9.0872	5.0909	5.e-002	46.591
14367	9.3634	5.0909	0.	2922.9
14368	9.2713	5.	0.	2987.2
14369	9.2713	5.0909	5.e-002	36.377
14370	9.5475	5.0909	0.	3000.6
14371	9.4554	5.	0.	3051.
14372	9.4554	5.0909	5.e-002	28.17
14373	9.7316	5.0909	0.	3054.2
14374	9.6395	5.	0.	3095.6
14375	9.6395	5.0909	5.e-002	21.688
14376	9.9157	5.0909	0.	3086.9
14377	9.8236	5.	0.	3122.3
14378	9.8236	5.0909	5.e-002	16.639
14379	10.1	5.0909	0.	3102.1
14380	10.008	5.	0.	3133.4
14381	10.008	5.0909	5.e-002	12.797
14382	10.284	5.0909	0.	3103.
14383	10.192	5.	0.	3131.6
14384	10.192	5.0909	5.e-002	10.004
14385	10.468	5.0909	0.	3092.6
14386	10.376	5.	0.	3119.2
14387	10.376	5.0909	5.e-002	8.1509
14388	10.652	5.0909	0.	3073.3
14389	10.56	5.	0.	3098.3
14390	10.56	5.0909	5.e-002	7.1182
14391	10.836	5.0909	0.	3047.
14392	10.744	5.	0.	3070.9
14393	10.744	5.0909	5.e-002	6.7231
14394	11.02	5.0909	0.	3015.2
14395	10.928	5.	0.	3038.3
14396	10.928	5.0909	5.e-002	6.7345
14397	11.204	5.0909	0.	2979.4
14398	11.112	5.	0.	3001.8
14399	11.112	5.0909	5.e-002	6.9495
14400	11.389	5.0909	0.	2940.5
14401	11.297	5.	0.	2962.4
14402	11.297	5.0909	5.e-002	7.2356
14403	11.573	5.0909	0.	2899.2
14404	11.481	5.	0.	2920.7
14405	11.481	5.0909	5.e-002	7.5226
14406	11.757	5.0909	0.	2856.2
14407	11.665	5.	0.	2877.5
14408	11.665	5.0909	5.e-002	7.7781
14409	11.941	5.0909	0.	2811.9
14410	11.849	5.	0.	2833.
14411	11.849	5.0909	5.e-002	7.9912
14412	12.125	5.0909	0.	2766.7
14413	12.033	5.	0.	2787.7
14414	12.033	5.0909	5.e-002	8.1608
14415	12.309	5.0909	0.	2720.9
14416	12.217	5.	0.	2741.8
14417	12.217	5.0909	5.e-002	8.2901
14418	12.493	5.0909	0.	2674.7
14419	12.401	5.	0.	2695.5
14420	12.401	5.0909	5.e-002	8.3846
14421	12.677	5.0909	0.	2628.1
14422	12.585	5.	0.	2648.9
14423	12.585	5.0909	5.e-002	8.4496
14424	12.861	5.0909	0.	2581.4
14425	12.769	5.	0.	2602.2
14426	12.769	5.0909	5.e-002	8.4904
14427	13.046	5.0909	0.	2534.6
14428	12.953	5.	0.	2555.5
14429	12.953	5.0909	5.e-002	8.5117
14430	13.23	5.0909	0.	2487.8
14431	13.138	5.	0.	2508.7
14432	13.138	5.0909	5.e-002	8.5173
14433	13.414	5.0909	0.	2441.
14434	13.322	5.	0.	2461.9
14435	13.322	5.0909	5.e-002	8.5106
14436	13.598	5.0909	0.	2394.3
14437	13.506	5.	0.	2415.3
14438	13.506	5.0909	5.e-002	8.4944
14439	13.782	5.0909	0.	2347.7
14440	13.69	5.	0.	2368.7
14441	13.69	5.0909	5.e-002	8.4708
14442	13.966	5.0909	0.	2301.1
14443	13.874	5.	0.	2322.2
14444	13.874	5.0909	5.e-002	8.4416
14445	14.15	5.0909	0.	2254.7
14446	14.058	5.	0.	2275.8
14447	14.058	5.0909	5.e-002	8.4083
14448	14.334	5.0909	0.	2208.5
14449	14.242	5.	0.	2229.6
14450	14.242	5.0909	5.e-002	8.372
14451	14.518	5.0909	0.	2162.3
14452	14.426	5.	0.	2183.5
14453	14.426	5.0909	5.e-002	8.3335
14454	14.703	5.0909	0.	2116.3
14455	14.61	5.	0.	2137.5
14456	14.61	5.0909	5.e-002	8.2936
14457	14.887	5.0909	0.	2070.5
14458	14.795	5.	0.	2091.7
14459	14.795	5.0909	5.e-002	8.2528
14460	15.071	5.0909	0.	2024.8
14461	14.979	5.	0.	2046.
14462	14.979	5.0909	5.e-002	8.2115
14463	15.255	5.0909	0.	1979.3
14464	15.163	5.	0.	2000.5
14465	15.163	5.0909	5.e-002	8.17
14466	15.439	5.0909	0.	1934.
14467	15.347	5.	0.	1955.2
14468	15.347	5.0909	5.e-002	8.1286
14469	15.623	5.0909	0.	1888.8
14470	15.531	5.	0.	1910.
14471	15.531	5.0909	5.e-002	8.0874
14472	15.807	5.0909	0.	1843.8
14473	15.715	5.	0.	1865.
14474	15.715	5.0909	5.e-002	8.0467
14475	15.991	5.0909	0.	1799.
14476	15.899	5.	0.	1820.1
14477	15.899	5.0909	5.e-002	8.0064
14478	16.175	5.0909	0.	1754.3
14479	16.083	5.	0.	1775.4
14480	16.083	5.0909	5.e-002	7.9666
14481	16.359	5.0909	0.	1709.8
14482	16.267	5.	0.	1730.9
14483	16.267	5.0909	5.e-002	7.9274
14484	16.544	5.0909	0.	1665.6
14485	16.452	5.	0.	1686.6
14486	16.452	5.0909	5.e-002	7.8888
14487	16.728	5.0909	0.	1621.4
14488	16.636	5.	0.	1642.5
14489	16.636	5.0909	5.e-002	7.8509
14490	16.912	5.0909	0.	1577.5
14491	16.82	5.	0.	1598.5
14492	16.82	5.0909	5.e-002	7.8136
14493	17.096	5.0909	0.	1533.8
14494	17.004	5.	0.	1554.7
14495	17.004	5.0909	5.e-002	7.777
14496	17.28	5.0909	0.	1490.2
14497	17.188	5.	0.	1511.1
14498	17.188	5.0909	5.e-002	7.7412
14499	17.464	5.0909	0.	1446.8
14500	17.372	5.	0.	1467.7
14501	17.372	5.0909	5.e-002	7.7059
14502	17.648	5.0909	0.	1403.7
14503	17.556	5.	0.	1424.5
14504	17.556	5.0909	5.e-002	7.6714
14505	17.832	5.0909	0.	1360.7
14506	17.74	5.	0.	1381.4
14507	17.74	5.0909	5.e-002	7.6376
14508	18.016	5.0909	0.	1317.9
14509	17.924	5.	0.	1338.6
14510	17.924	5.0909	5.e-002	7.6045
14511	18.201	5.0909	0.	1275.3
14512	18.109	5.	0.	1296.
14513	18.109	5.0909	5.e-002	7.5721
14514	18.385	5.0909	0.	1232.9
14515	18.293	5.	0.	1253.5
14516	18.293	5.0909	5.e-002	7.5405
14517	18.569	5.0909	0.	1190.7
14518	18.477	5.	0.	1211.3
14519	18.477	5.0909	5.e-002	7.5096
14520	18.753	5.0909	0.	1148.7
14521	18.661	5.	0.	1169.3
14522	18.661	5.0909	5.e-002	7.4796
14523	18.937	5.0909	0.	1107.
14524	18.845	5.	0.	1127.4
14525	18.845	5.0909	5.e-002	7.4504
14526	19.121	5.0909	0.	1065.4
14527	19.029	5.	0.	1085.8
14528	19.029	5.0909	5.e-002	7.422
14529	19.305	5.0909	0.	1024.
14530	19.213	5.	0.	1044.4
14531	19.213	5.0909	5.e-002	7.3945
14532	19.489	5.0909	0.	982.83
14533	19.397	5.	0.	1003.2
14534	19.397	5.0909	5.e-002	7.368
14535	19.673	5.0909	0.	941.88
14536	19.581	5.	0.	962.22
14537	19.581	5.0909	5.e-002	7.3424
14538	19.858	5.0909	0.	901.14
14539	19.766	5.	0.	921.46
14540	19.766	5.0909	5.e-002	7.318
14541	20.042	5.0909	0.	860.61
14542	19.95	5.	0.	880.91
14543	19.95	5.0909	5.e-002	7.2946
14544	20.226	5.0909	0.	820.3
14545	20.134	5.	0.	840.59
14546	20.134	5.0909	5.e-002	7.2725
14547	20.41	5.0909	0.	780.21
14548	20.318	5.	0.	800.5
14549	20.318	5.0909	5.e-002	7.2516
14550	20.594	5.0909	0.	740.36
14551	20.502	5.	0.	760.64
14552	20.502	5.0909	5.e-002	7.2321
14553	20.778	5.0909	0.	700.73
14554	20.686	5.	0.	721.03
14555	20.686	5.0909	5.e-002	7.214
14556	20.962	5.0909	0.	661.35
14557	20.87	5.	0.	681.67
14558	20.87	5.0909	5.e-002	7.1975
14559	21.146	5.0909	0.	622.22
14560	21.054	5.	0.	642.57
14561	21.054	5.0909	5.e-002	7.1828
14562	21.33	5.0909	0.	583.36
14563	21.238	5.	0.	603.74
14564	21.238	5.0909	5.e-002	7.1698
14565	21.515	5.0909	0.	544.79
14566	21.422	5.	0.	565.21
14567	21.422	5.0909	5.e-002	7.159
14568	21.699	5.0909	0.	506.53
14569	21.607	5.	0.	527.
14570	21.607	5.0909	5.e-002	7.1505
14571	21.883	5.0909	0.	468.63
14572	21.791	5.	0.	489.15
14573	21.791	5.0909	5.e-002	7.1446
14574	22.067	5.0909	0.	431.12
14575	21.975	5.	0.	451.7
14576	21.975	5.0909	5.e-002	7.1418
14577	22.251	5.0909	0.	394.09
14578	22.159	5.	0.	414.71
14579	22.159	5.0909	5.e-002	7.1426
14580	22.435	5.0909	0.	357.61
14581	22.343	5.	0.	378.26
14582	22.343	5.0909	5.e-002	7.1479
14583	22.619	5.0909	0.	321.84
14584	22.527	5.	0.	342.48
14585	22.527	5.0909	5.e-002	7.1589
14586	22.803	5.0909	0.	286.97
14587	22.711	5.	0.	307.53
14588	22.711	5.0909	5.e-002	7.1776
14589	22.987	5.0909	0.	253.26
14590	22.895	5.	0.	273.65
14591	22.895	5.0909	5.e-002	7.2068
14592	23.172	5.0909	0.	221.15
14593	23.079	5.	0.	241.16
14594	23.079	5.0909	5.e-002	7.2511
14595	23.356	5.0909	0.	191.22
14596	23.264	5.	0.	210.56
14597	23.264	5.0909	5.e-002	7.3173
14598	23.54	5.0909	0.	164.38
14599	23.448	5.	0.	182.53
14600	23.448	5.0909	5.e-002	7.4146
14601	23.724	5.0909	0.	142.04
14602	23.632	5.	0.	158.17
14603	23.632	5.0909	5.e-002	7.5636
14604	23.816	5.	0.	139.15
14605	23.816	5.0909	5.e-002	7.9352
14606	23.908	5.0909	0.	125.44
14607	8.4428	4.9091	0.	3034.
14608	8.3508	4.8182	0.	3593.4
14609	8.3508	4.9091	5.e-002	148.72
14610	8.2587	4.9091	0.	2577.1
14611	8.6269	4.9091	0.	2926.5
14612	8.5349	4.8182	0.	3280.4
14613	8.5349	4.9091	5.e-002	97.721
14614	8.811	4.9091	0.	2953.7
14615	8.719	4.8182	0.	3208.7
14616	8.719	4.9091	5.e-002	77.289
14617	8.9952	4.9091	0.	3007.4
14618	8.9031	4.8182	0.	3191.4
14619	8.9031	4.9091	5.e-002	59.388
14620	9.1793	4.9091	0.	3062.9
14621	9.0872	4.8182	0.	3196.9
14622	9.0872	4.9091	5.e-002	45.427
14623	9.3634	4.9091	0.	3109.5
14624	9.2713	4.8182	0.	3209.4
14625	9.2713	4.9091	5.e-002	35.01
14626	9.5475	4.9091	0.	3142.7
14627	9.4554	4.8182	0.	3219.5
14628	9.4554	4.9091	5.e-002	27.26
14629	9.7316	4.9091	0.	3161.8
14630	9.6395	4.8182	0.	3222.8
14631	9.6395	4.9091	5.e-002	21.456
14632	9.9157	4.9091	0.	3167.8
14633	9.8236	4.8182	0.	3217.8
14634	9.8236	4.9091	5.e-002	17.102
14635	10.1	4.9091	0.	3162.4
14636	10.008	4.8182	0.	3204.6
14637	10.008	4.9091	5.e-002	13.877
14638	10.284	4.9091	0.	3147.4
14639	10.192	4.8182	0.	3184.
14640	10.192	4.9091	5.e-002	11.566
14641	10.468	4.9091	0.	3124.7
14642	10.376	4.8182	0.	3157.2
14643	10.376	4.9091	5.e-002	10.004
14644	10.652	4.9091	0.	3095.8
14645	10.56	4.8182	0.	3125.3
14646	10.56	4.9091	5.e-002	9.037
14647	10.836	4.9091	0.	3062.2
14648	10.744	4.8182	0.	3089.3
14649	10.744	4.9091	5.e-002	8.5094
14650	11.02	4.9091	0.	3024.9
14651	10.928	4.8182	0.	3050.3
14652	10.928	4.9091	5.e-002	8.2761
14653	11.204	4.9091	0.	2984.8
14654	11.112	4.8182	0.	3008.9
14655	11.112	4.9091	5.e-002	8.2188
14656	11.389	4.9091	0.	2942.7
14657	11.297	4.8182	0.	2965.8
14658	11.297	4.9091	5.e-002	8.254
14659	11.573	4.9091	0.	2899.1
14660	11.481	4.8182	0.	2921.5
14661	11.481	4.9091	5.e-002	8.3287
14662	11.757	4.9091	0.	2854.3
14663	11.665	4.8182	0.	2876.2
14664	11.665	4.9091	5.e-002	8.4123
14665	11.941	4.9091	0.	2808.8
14666	11.849	4.8182	0.	2830.3
14667	11.849	4.9091	5.e-002	8.489
14668	12.125	4.9091	0.	2762.8
14669	12.033	4.8182	0.	2784.
14670	12.033	4.9091	5.e-002	8.5513
14671	12.309	4.9091	0.	2716.4
14672	12.217	4.8182	0.	2737.4
14673	12.217	4.9091	5.e-002	8.5968
14674	12.493	4.9091	0.	2669.8
14675	12.401	4.8182	0.	2690.7
14676	12.401	4.9091	5.e-002	8.6258
14677	12.677	4.9091	0.	2623.1
14678	12.585	4.8182	0.	2643.9
14679	12.585	4.9091	5.e-002	8.6398
14680	12.861	4.9091	0.	2576.3
14681	12.769	4.8182	0.	2597.1
14682	12.769	4.9091	5.e-002	8.6407
14683	13.046	4.9091	0.	2529.5
14684	12.953	4.8182	0.	2550.4
14685	12.953	4.9091	5.e-002	8.6309
14686	13.23	4.9091	0.	2482.8
14687	13.138	4.8182	0.	2503.7
14688	13.138	4.9091	5.e-002	8.6122
14689	13.414	4.9091	0.	2436.2
14690	13.322	4.8182	0.	2457.1
14691	13.322	4.9091	5.e-002	8.5865
14692	13.598	4.9091	0.	2389.6
14693	13.506	4.8182	0.	2410.6
14694	13.506	4.9091	5.e-002	8.5554
14695	13.782	4.9091	0.	2343.2
14696	13.69	4.8182	0.	2364.2
14697	13.69	4.9091	5.e-002	8.5201
14698	13.966	4.9091	0.	2296.9
14699	13.874	4.8182	0.	2317.9
14700	13.874	4.9091	5.e-002	8.4817
14701	14.15	4.9091	0.	2250.6
14702	14.058	4.8182	0.	2271.7
14703	14.058	4.9091	5.e-002	8.4412
14704	14.334	4.9091	0.	2204.6
14705	14.242	4.8182	0.	2225.7
14706	14.242	4.9091	5.e-002	8.3991
14707	14.518	4.9091	0.	2158.6
14708	14.426	4.8182	0.	2179.8
14709	14.426	4.9091	5.e-002	8.3561
14710	14.703	4.9091	0.	2112.9
14711	14.61	4.8182	0.	2134.
14712	14.61	4.9091	5.e-002	8.3126
14713	14.887	4.9091	0.	2067.2
14714	14.795	4.8182	0.	2088.4
14715	14.795	4.9091	5.e-002	8.269
14716	15.071	4.9091	0.	2021.7
14717	14.979	4.8182	0.	2042.9
14718	14.979	4.9091	5.e-002	8.2253
14719	15.255	4.9091	0.	1976.4
14720	15.163	4.8182	0.	1997.6
14721	15.163	4.9091	5.e-002	8.1821
14722	15.439	4.9091	0.	1931.2
14723	15.347	4.8182	0.	1952.4
14724	15.347	4.9091	5.e-002	8.1392
14725	15.623	4.9091	0.	1886.2
14726	15.531	4.8182	0.	1907.4
14727	15.531	4.9091	5.e-002	8.0968
14728	15.807	4.9091	0.	1841.3
14729	15.715	4.8182	0.	1862.5
14730	15.715	4.9091	5.e-002	8.055
14731	15.991	4.9091	0.	1796.6
14732	15.899	4.8182	0.	1817.8
14733	15.899	4.9091	5.e-002	8.0139
14734	16.175	4.9091	0.	1752.1
14735	16.083	4.8182	0.	1773.2
14736	16.083	4.9091	5.e-002	7.9735
14737	16.359	4.9091	0.	1707.7
14738	16.267	4.8182	0.	1728.9
14739	16.267	4.9091	5.e-002	7.9337
14740	16.544	4.9091	0.	1663.6
14741	16.452	4.8182	0.	1684.6
14742	16.452	4.9091	5.e-002	7.8947
14743	16.728	4.9091	0.	1619.6
14744	16.636	4.8182	0.	1640.6
14745	16.636	4.9091	5.e-002	7.8564
14746	16.912	4.9091	0.	1575.7
14747	16.82	4.8182	0.	1596.8
14748	16.82	4.9091	5.e-002	7.8188
14749	17.096	4.9091	0.	1532.1
14750	17.004	4.8182	0.	1553.1
14751	17.004	4.9091	5.e-002	7.782
14752	17.28	4.9091	0.	1488.6
14753	17.188	4.8182	0.	1509.6
14754	17.188	4.9091	5.e-002	7.7459
14755	17.464	4.9091	0.	1445.4
14756	17.372	4.8182	0.	1466.3
14757	17.372	4.9091	5.e-002	7.7105
14758	17.648	4.9091	0.	1402.3
14759	17.556	4.8182	0.	1423.1
14760	17.556	4.9091	5.e-002	7.6758
14761	17.832	4.9091	0.	1359.4
14762	17.74	4.8182	0.	1380.2
14763	17.74	4.9091	5.e-002	7.642
14764	18.016	4.9091	0.	1316.7
14765	17.924	4.8182	0.	1337.5
14766	17.924	4.9091	5.e-002	7.6088
14767	18.201	4.9091	0.	1274.3
14768	18.109	4.8182	0.	1294.9
14769	18.109	4.9091	5.e-002	7.5764
14770	18.385	4.9091	0.	1232.
14771	18.293	4.8182	0.	1252.6
14772	18.293	4.9091	5.e-002	7.5448
14773	18.569	4.9091	0.	1189.9
14774	18.477	4.8182	0.	1210.5
14775	18.477	4.9091	5.e-002	7.5139
14776	18.753	4.9091	0.	1148.
14777	18.661	4.8182	0.	1168.6
14778	18.661	4.9091	5.e-002	7.4839
14779	18.937	4.9091	0.	1106.4
14780	18.845	4.8182	0.	1126.9
14781	18.845	4.9091	5.e-002	7.4548
14782	19.121	4.9091	0.	1064.9
14783	19.029	4.8182	0.	1085.4
14784	19.029	4.9091	5.e-002	7.4265
14785	19.305	4.9091	0.	1023.7
14786	19.213	4.8182	0.	1044.1
14787	19.213	4.9091	5.e-002	7.3992
14788	19.489	4.9091	0.	982.66
14789	19.397	4.8182	0.	1003.
14790	19.397	4.9091	5.e-002	7.3729
14791	19.673	4.9091	0.	941.87
14792	19.581	4.8182	0.	962.2
14793	19.581	4.9091	5.e-002	7.3476
14794	19.858	4.9091	0.	901.3
14795	19.766	4.8182	0.	921.6
14796	19.766	4.9091	5.e-002	7.3235
14797	20.042	4.9091	0.	860.96
14798	19.95	4.8182	0.	881.24
14799	19.95	4.9091	5.e-002	7.3005
14800	20.226	4.9091	0.	820.86
14801	20.134	4.8182	0.	841.11
14802	20.134	4.9091	5.e-002	7.2788
14803	20.41	4.9091	0.	781.
14804	20.318	4.8182	0.	801.24
14805	20.318	4.9091	5.e-002	7.2584
14806	20.594	4.9091	0.	741.39
14807	20.502	4.8182	0.	761.62
14808	20.502	4.9091	5.e-002	7.2395
14809	20.778	4.9091	0.	702.04
14810	20.686	4.8182	0.	722.27
14811	20.686	4.9091	5.e-002	7.2221
14812	20.962	4.9091	0.	662.96
14813	20.87	4.8182	0.	683.19
14814	20.87	4.9091	5.e-002	7.2065
14815	21.146	4.9091	0.	624.17
14816	21.054	4.8182	0.	644.4
14817	21.054	4.9091	5.e-002	7.1928
14818	21.33	4.9091	0.	585.68
14819	21.238	4.8182	0.	605.92
14820	21.238	4.9091	5.e-002	7.1812
14821	21.515	4.9091	0.	547.51
14822	21.422	4.8182	0.	567.77
14823	21.422	4.9091	5.e-002	7.1718
14824	21.699	4.9091	0.	509.71
14825	21.607	4.8182	0.	529.99
14826	21.607	4.9091	5.e-002	7.1651
14827	21.883	4.9091	0.	472.31
14828	21.791	4.8182	0.	492.6
14829	21.791	4.9091	5.e-002	7.1614
14830	22.067	4.9091	0.	435.37
14831	21.975	4.8182	0.	455.67
14832	21.975	4.9091	5.e-002	7.1613
14833	22.251	4.9091	0.	398.97
14834	22.159	4.8182	0.	419.25
14835	22.159	4.9091	5.e-002	7.1653
14836	22.435	4.9091	0.	363.21
14837	22.343	4.8182	0.	383.45
14838	22.343	4.9091	5.e-002	7.1744
14839	22.619	4.9091	0.	328.23
14840	22.527	4.8182	0.	348.37
14841	22.527	4.9091	5.e-002	7.1901
14842	22.803	4.9091	0.	294.23
14843	22.711	4.8182	0.	314.2
14844	22.711	4.9091	5.e-002	7.2141
14845	22.987	4.9091	0.	261.48
14846	22.895	4.8182	0.	281.16
14847	22.895	4.9091	5.e-002	7.2493
14848	23.172	4.9091	0.	230.39
14849	23.079	4.8182	0.	249.56
14850	23.079	4.9091	5.e-002	7.2994
14851	23.356	4.9091	0.	201.49
14852	23.264	4.8182	0.	219.88
14853	23.264	4.9091	5.e-002	7.3695
14854	23.54	4.9091	0.	175.61
14855	23.448	4.8182	0.	192.74
14856	23.448	4.9091	5.e-002	7.4655
14857	23.724	4.9091	0.	154.04
14858	23.632	4.8182	0.	169.15
14859	23.632	4.9091	5.e-002	7.6012
14860	23.816	4.8182	0.	150.63
14861	23.816	4.9091	5.e-002	7.9202
14862	23.908	4.9091	0.	138.09
14863	8.4428	4.7273	0.	3755.2
14864	8.3508	4.6364	0.	4527.5
14865	8.3508	4.7273	5.e-002	187.44
14866	8.2587	4.7273	0.	3230.2
14867	8.6269	4.7273	0.	3507.9
14868	8.5349	4.6364	0.	3996.5
14869	8.5349	4.7273	5.e-002	112.02
14870	8.811	4.7273	0.	3412.9
14871	8.719	4.6364	0.	3762.
14872	8.719	4.7273	5.e-002	82.021
14873	8.9952	4.7273	0.	3361.4
14874	8.9031	4.6364	0.	3610.
14875	8.9031	4.7273	5.e-002	58.981
14876	9.1793	4.7273	0.	3332.3
14877	9.0872	4.6364	0.	3512.8
14878	9.0872	4.7273	5.e-002	44.167
14879	9.3634	4.7273	0.	3313.2
14880	9.2713	4.6364	0.	3447.3
14881	9.2713	4.7273	5.e-002	34.215
14882	9.5475	4.7273	0.	3296.2
14883	9.4554	4.6364	0.	3398.4
14884	9.4554	4.7273	5.e-002	27.29
14885	9.7316	4.7273	0.	3276.9
14886	9.6395	4.6364	0.	3356.9
14887	9.6395	4.7273	5.e-002	22.247
14888	9.9157	4.7273	0.	3253.6
14889	9.8236	4.6364	0.	3317.8
14890	9.8236	4.7273	5.e-002	18.484
14891	10.1	4.7273	0.	3225.7
14892	10.008	4.6364	0.	3278.6
14893	10.008	4.7273	5.e-002	15.665
14894	10.284	4.7273	0.	3193.5
14895	10.192	4.6364	0.	3238.1
14896	10.192	4.7273	5.e-002	13.573
14897	10.468	4.7273	0.	3157.7
14898	10.376	4.6364	0.	3196.
14899	10.376	4.7273	5.e-002	12.056
14900	10.652	4.7273	0.	3118.7
14901	10.56	4.6364	0.	3152.5
14902	10.56	4.7273	5.e-002	10.987
14903	10.836	4.7273	0.	3077.5
14904	10.744	4.6364	0.	3107.8
14905	10.744	4.7273	5.e-002	10.258
14906	11.02	4.7273	0.	3034.4
14907	10.928	4.6364	0.	3062.1
14908	10.928	4.7273	5.e-002	9.7753
14909	11.204	4.7273	0.	2990.
14910	11.112	4.6364	0.	3015.8
14911	11.112	4.7273	5.e-002	9.4645
14912	11.389	4.7273	0.	2944.6
14913	11.297	4.6364	0.	2969.
14914	11.297	4.7273	5.e-002	9.2672
14915	11.573	4.7273	0.	2898.6
14916	11.481	4.6364	0.	2921.9
14917	11.481	4.7273	5.e-002	9.1418
14918	11.757	4.7273	0.	2852.2
14919	11.665	4.6364	0.	2874.7
14920	11.665	4.7273	5.e-002	9.0594
14921	11.941	4.7273	0.	2805.5
14922	11.849	4.6364	0.	2827.4
14923	11.849	4.7273	5.e-002	9.0015
14924	12.125	4.7273	0.	2758.7
14925	12.033	4.6364	0.	2780.1
14926	12.033	4.7273	5.e-002	8.9562
14927	12.309	4.7273	0.	2711.8
14928	12.217	4.6364	0.	2733.
14929	12.217	4.7273	5.e-002	8.9164
14930	12.493	4.7273	0.	2664.9
14931	12.401	4.6364	0.	2685.9
14932	12.401	4.7273	5.e-002	8.8781
14933	12.677	4.7273	0.	2618.
14934	12.585	4.6364	0.	2638.9
14935	12.585	4.7273	5.e-002	8.8391
14936	12.861	4.7273	0.	2571.2
14937	12.769	4.6364	0.	2592.1
14938	12.769	4.7273	5.e-002	8.7985
14939	13.046	4.7273	0.	2524.5
14940	12.953	4.6364	0.	2545.4
14941	12.953	4.7273	5.e-002	8.7561
14942	13.23	4.7273	0.	2478.
14943	13.138	4.6364	0.	2498.8
14944	13.138	4.7273	5.e-002	8.7118
14945	13.414	4.7273	0.	2431.5
14946	13.322	4.6364	0.	2452.4
14947	13.322	4.7273	5.e-002	8.666
14948	13.598	4.7273	0.	2385.1
14949	13.506	4.6364	0.	2406.
14950	13.506	4.7273	5.e-002	8.6191
14951	13.782	4.7273	0.	2338.9
14952	13.69	4.6364	0.	2359.9
14953	13.69	4.7273	5.e-002	8.5714
14954	13.966	4.7273	0.	2292.8
14955	13.874	4.6364	0.	2313.8
14956	13.874	4.7273	5.e-002	8.5232
14957	14.15	4.7273	0.	2246.8
14958	14.058	4.6364	0.	2267.8
14959	14.058	4.7273	5.e-002	8.475
14960	14.334	4.7273	0.	2200.9
14961	14.242	4.6364	0.	2222.
14962	14.242	4.7273	5.e-002	8.4269
14963	14.518	4.7273	0.	2155.2
14964	14.426	4.6364	0.	2176.3
14965	14.426	4.7273	5.e-002	8.379
14966	14.703	4.7273	0.	2109.6
14967	14.61	4.6364	0.	2130.8
14968	14.61	4.7273	5.e-002	8.3318
14969	14.887	4.7273	0.	2064.1
14970	14.795	4.6364	0.	2085.3
14971	14.795	4.7273	5.e-002	8.2851
14972	15.071	4.7273	0.	2018.8
14973	14.979	4.6364	0.	2040.
14974	14.979	4.7273	5.e-002	8.239
14975	15.255	4.7273	0.	1973.6
14976	15.163	4.6364	0.	1994.9
14977	15.163	4.7273	5.e-002	8.1938
14978	15.439	4.7273	0.	1928.6
14979	15.347	4.6364	0.	1949.8
14980	15.347	4.7273	5.e-002	8.1494
14981	15.623	4.7273	0.	1883.7
14982	15.531	4.6364	0.	1905.
14983	15.531	4.7273	5.e-002	8.1057
14984	15.807	4.7273	0.	1839.
14985	15.715	4.6364	0.	1860.2
14986	15.715	4.7273	5.e-002	8.063
14987	15.991	4.7273	0.	1794.4
14988	15.899	4.6364	0.	1815.6
14989	15.899	4.7273	5.e-002	8.021
14990	16.175	4.7273	0.	1750.
14991	16.083	4.6364	0.	1771.2
14992	16.083	4.7273	5.e-002	7.9799
14993	16.359	4.7273	0.	1705.8
14994	16.267	4.6364	0.	1727.
14995	16.267	4.7273	5.e-002	7.9395
14996	16.544	4.7273	0.	1661.7
14997	16.452	4.6364	0.	1682.9
14998	16.452	4.7273	5.e-002	7.9001
14999	16.728	4.7273	0.	1617.8
15000	16.636	4.6364	0.	1638.9
15001	16.636	4.7273	5.e-002	7.8614
15002	16.912	4.7273	0.	1574.1
15003	16.82	4.6364	0.	1595.2
15004	16.82	4.7273	5.e-002	7.8235
15005	17.096	4.7273	0.	1530.6
15006	17.004	4.6364	0.	1551.6
15007	17.004	4.7273	5.e-002	7.7864
15008	17.28	4.7273	0.	1487.2
15009	17.188	4.6364	0.	1508.2
15010	17.188	4.7273	5.e-002	7.7502
15011	17.464	4.7273	0.	1444.1
15012	17.372	4.6364	0.	1465.
15013	17.372	4.7273	5.e-002	7.7146
15014	17.648	4.7273	0.	1401.1
15015	17.556	4.6364	0.	1422.
15016	17.556	4.7273	5.e-002	7.6798
15017	17.832	4.7273	0.	1358.3
15018	17.74	4.6364	0.	1379.1
15019	17.74	4.7273	5.e-002	7.6458
15020	18.016	4.7273	0.	1315.7
15021	17.924	4.6364	0.	1336.5
15022	17.924	4.7273	5.e-002	7.6126
15023	18.201	4.7273	0.	1273.4
15024	18.109	4.6364	0.	1294.1
15025	18.109	4.7273	5.e-002	7.5801
15026	18.385	4.7273	0.	1231.2
15027	18.293	4.6364	0.	1251.8
15028	18.293	4.7273	5.e-002	7.5485
15029	18.569	4.7273	0.	1189.2
15030	18.477	4.6364	0.	1209.8
15031	18.477	4.7273	5.e-002	7.5177
15032	18.753	4.7273	0.	1147.5
15033	18.661	4.6364	0.	1168.
15034	18.661	4.7273	5.e-002	7.4878
15035	18.937	4.7273	0.	1105.9
15036	18.845	4.6364	0.	1126.4
15037	18.845	4.7273	5.e-002	7.4587
15038	19.121	4.7273	0.	1064.6
15039	19.029	4.6364	0.	1085.
15040	19.029	4.7273	5.e-002	7.4306
15041	19.305	4.7273	0.	1023.5
15042	19.213	4.6364	0.	1043.9
15043	19.213	4.7273	5.e-002	7.4034
15044	19.489	4.7273	0.	982.63
15045	19.397	4.6364	0.	1003.
15046	19.397	4.7273	5.e-002	7.3773
15047	19.673	4.7273	0.	942.
15048	19.581	4.6364	0.	962.3
15049	19.581	4.7273	5.e-002	7.3523
15050	19.858	4.7273	0.	901.6
15051	19.766	4.6364	0.	921.86
15052	19.766	4.7273	5.e-002	7.3284
15053	20.042	4.7273	0.	861.45
15054	19.95	4.6364	0.	881.68
15055	19.95	4.7273	5.e-002	7.3058
15056	20.226	4.7273	0.	821.56
15057	20.134	4.6364	0.	841.75
15058	20.134	4.7273	5.e-002	7.2845
15059	20.41	4.7273	0.	781.93
15060	20.318	4.6364	0.	802.09
15061	20.318	4.7273	5.e-002	7.2646
15062	20.594	4.7273	0.	742.56
15063	20.502	4.6364	0.	762.7
15064	20.502	4.7273	5.e-002	7.2463
15065	20.778	4.7273	0.	703.48
15066	20.686	4.6364	0.	723.59
15067	20.686	4.7273	5.e-002	7.2297
15068	20.962	4.7273	0.	664.69
15069	20.87	4.6364	0.	684.79
15070	20.87	4.7273	5.e-002	7.2149
15071	21.146	4.7273	0.	626.22
15072	21.054	4.6364	0.	646.31
15073	21.054	4.7273	5.e-002	7.2022
15074	21.33	4.7273	0.	588.09
15075	21.238	4.6364	0.	608.16
15076	21.238	4.7273	5.e-002	7.1918
15077	21.515	4.7273	0.	550.32
15078	21.422	4.6364	0.	570.37
15079	21.422	4.7273	5.e-002	7.184
15080	21.699	4.7273	0.	512.95
15081	21.607	4.6364	0.	532.99
15082	21.607	4.7273	5.e-002	7.179
15083	21.883	4.7273	0.	476.03
15084	21.791	4.6364	0.	496.04
15085	21.791	4.7273	5.e-002	7.1774
15086	22.067	4.7273	0.	439.61
15087	21.975	4.6364	0.	459.58
15088	21.975	4.7273	5.e-002	7.1797
15089	22.251	4.7273	0.	403.78
15090	22.159	4.6364	0.	423.68
15091	22.159	4.7273	5.e-002	7.1867
15092	22.435	4.7273	0.	368.65
15093	22.343	4.6364	0.	388.44
15094	22.343	4.7273	5.e-002	7.1993
15095	22.619	4.7273	0.	334.35
15096	22.527	4.6364	0.	353.98
15097	22.527	4.7273	5.e-002	7.2189
15098	22.803	4.7273	0.	301.08
15099	22.711	4.6364	0.	320.46
15100	22.711	4.7273	5.e-002	7.2473
15101	22.987	4.7273	0.	269.11
15102	22.895	4.6364	0.	288.1
15103	22.895	4.7273	5.e-002	7.2868
15104	23.172	4.7273	0.	238.8
15105	23.079	4.6364	0.	257.21
15106	23.079	4.7273	5.e-002	7.3405
15107	23.356	4.7273	0.	210.68
15108	23.264	4.6364	0.	228.22
15109	23.264	4.7273	5.e-002	7.4119
15110	23.54	4.7273	0.	185.52
15111	23.448	4.6364	0.	201.76
15112	23.448	4.7273	5.e-002	7.5045
15113	23.724	4.7273	0.	164.5
15114	23.632	4.6364	0.	178.74
15115	23.632	4.7273	5.e-002	7.6281
15116	23.816	4.6364	0.	160.59
15117	23.816	4.7273	5.e-002	7.9019
15118	23.908	4.7273	0.	149.06
15119	8.4428	4.5455	0.	4660.5
15120	8.3508	4.4545	0.	5825.3
15121	8.3508	4.5455	5.e-002	237.25
15122	8.2587	4.5455	0.	4102.1
15123	8.6269	4.5455	0.	4190.
15124	8.5349	4.4545	0.	4854.6
15125	8.5349	4.5455	5.e-002	139.2
15126	8.811	4.5455	0.	3925.6
15127	8.719	4.4545	0.	4366.6
15128	8.719	4.5455	5.e-002	83.276
15129	8.9952	4.5455	0.	3742.5
15130	8.9031	4.4545	0.	4052.1
15131	8.9031	4.5455	5.e-002	58.732
15132	9.1793	4.5455	0.	3617.1
15133	9.0872	4.4545	0.	3839.9
15134	9.0872	4.5455	5.e-002	44.17
15135	9.3634	4.5455	0.	3526.4
15136	9.2713	4.4545	0.	3691.9
15137	9.2713	4.5455	5.e-002	35.287
15138	9.5475	4.5455	0.	3455.8
15139	9.4554	4.4545	0.	3581.6
15140	9.4554	4.5455	5.e-002	29.024
15141	9.7316	4.5455	0.	3396.
15142	9.6395	4.4545	0.	3493.9
15143	9.6395	4.5455	5.e-002	24.38
15144	9.9157	4.5455	0.	3341.8
15145	9.8236	4.4545	0.	3419.6
15146	9.8236	4.5455	5.e-002	20.811
15147	10.1	4.5455	0.	3290.5
15148	10.008	4.4545	0.	3353.5
15149	10.008	4.5455	5.e-002	18.034
15150	10.284	4.5455	0.	3240.4
15151	10.192	4.4545	0.	3292.6
15152	10.192	4.5455	5.e-002	15.872
15153	10.468	4.5455	0.	3190.8
15154	10.376	4.4545	0.	3235.
15155	10.376	4.5455	5.e-002	14.198
15156	10.652	4.5455	0.	3141.6
15157	10.56	4.4545	0.	3179.6
15158	10.56	4.5455	5.e-002	12.913
15159	10.836	4.5455	0.	3092.5
15160	10.744	4.4545	0.	3125.9
15161	10.744	4.5455	5.e-002	11.937
15162	11.02	4.5455	0.	3043.5
15163	10.928	4.4545	0.	3073.6
15164	10.928	4.5455	5.e-002	11.202
15165	11.204	4.5455	0.	2994.8
15166	11.112	4.4545	0.	3022.2
15167	11.112	4.5455	5.e-002	10.652
15168	11.389	4.5455	0.	2946.2
15169	11.297	4.4545	0.	2971.8
15170	11.297	4.5455	5.e-002	10.24
15171	11.573	4.5455	0.	2897.9
15172	11.481	4.4545	0.	2922.
15173	11.481	4.5455	5.e-002	9.9289
15174	11.757	4.5455	0.	2849.9
15175	11.665	4.4545	0.	2872.9
15176	11.665	4.5455	5.e-002	9.6912
15177	11.941	4.5455	0.	2802.1
15178	11.849	4.4545	0.	2824.4
15179	11.849	4.5455	5.e-002	9.5058
15180	12.125	4.5455	0.	2754.5
15181	12.033	4.4545	0.	2776.3
15182	12.033	4.5455	5.e-002	9.3573
15183	12.309	4.5455	0.	2707.1
15184	12.217	4.4545	0.	2728.5
15185	12.217	4.5455	5.e-002	9.2347
15186	12.493	4.5455	0.	2660.
15187	12.401	4.4545	0.	2681.2
15188	12.401	4.5455	5.e-002	9.1305
15189	12.677	4.5455	0.	2613.1
15190	12.585	4.4545	0.	2634.1
15191	12.585	4.5455	5.e-002	9.0393
15192	12.861	4.5455	0.	2566.3
15193	12.769	4.4545	0.	2587.2
15194	12.769	4.5455	5.e-002	8.9573
15195	13.046	4.5455	0.	2519.7
15196	12.953	4.4545	0.	2540.6
15197	12.953	4.5455	5.e-002	8.8822
15198	13.23	4.5455	0.	2473.3
15199	13.138	4.4545	0.	2494.2
15200	13.138	4.5455	5.e-002	8.8122
15201	13.414	4.5455	0.	2427.
15202	13.322	4.4545	0.	2447.9
15203	13.322	4.5455	5.e-002	8.7461
15204	13.598	4.5455	0.	2380.8
15205	13.506	4.4545	0.	2401.8
15206	13.506	4.5455	5.e-002	8.6833
15207	13.782	4.5455	0.	2334.8
15208	13.69	4.4545	0.	2355.8
15209	13.69	4.5455	5.e-002	8.623
15210	13.966	4.5455	0.	2288.9
15211	13.874	4.4545	0.	2309.9
15212	13.874	4.5455	5.e-002	8.5649
15213	14.15	4.5455	0.	2243.1
15214	14.058	4.4545	0.	2264.2
15215	14.058	4.5455	5.e-002	8.5089
15216	14.334	4.5455	0.	2197.5
15217	14.242	4.4545	0.	2218.6
15218	14.242	4.5455	5.e-002	8.4545
15219	14.518	4.5455	0.	2151.9
15220	14.426	4.4545	0.	2173.1
15221	14.426	4.5455	5.e-002	8.4018
15222	14.703	4.5455	0.	2106.5
15223	14.61	4.4545	0.	2127.7
15224	14.61	4.5455	5.e-002	8.3506
15225	14.887	4.5455	0.	2061.2
15226	14.795	4.4545	0.	2082.5
15227	14.795	4.5455	5.e-002	8.3009
15228	15.071	4.5455	0.	2016.1
15229	14.979	4.4545	0.	2037.4
15230	14.979	4.5455	5.e-002	8.2523
15231	15.255	4.5455	0.	1971.1
15232	15.163	4.4545	0.	1992.4
15233	15.163	4.5455	5.e-002	8.2052
15234	15.439	4.5455	0.	1926.2
15235	15.347	4.4545	0.	1947.5
15236	15.347	4.5455	5.e-002	8.1592
15237	15.623	4.5455	0.	1881.5
15238	15.531	4.4545	0.	1902.8
15239	15.531	4.5455	5.e-002	8.1142
15240	15.807	4.5455	0.	1836.9
15241	15.715	4.4545	0.	1858.2
15242	15.715	4.5455	5.e-002	8.0705
15243	15.991	4.5455	0.	1792.5
15244	15.899	4.4545	0.	1813.7
15245	15.899	4.5455	5.e-002	8.0277
15246	16.175	4.5455	0.	1748.2
15247	16.083	4.4545	0.	1769.4
15248	16.083	4.5455	5.e-002	7.9859
15249	16.359	4.5455	0.	1704.1
15250	16.267	4.4545	0.	1725.3
15251	16.267	4.5455	5.e-002	7.945
15252	16.544	4.5455	0.	1660.1
15253	16.452	4.4545	0.	1681.3
15254	16.452	4.5455	5.e-002	7.9051
15255	16.728	4.5455	0.	1616.3
15256	16.636	4.4545	0.	1637.4
15257	16.636	4.5455	5.e-002	7.8661
15258	16.912	4.5455	0.	1572.7
15259	16.82	4.4545	0.	1593.8
15260	16.82	4.5455	5.e-002	7.8279
15261	17.096	4.5455	0.	1529.3
15262	17.004	4.4545	0.	1550.3
15263	17.004	4.5455	5.e-002	7.7905
15264	17.28	4.5455	0.	1486.
15265	17.188	4.4545	0.	1507.
15266	17.188	4.5455	5.e-002	7.7541
15267	17.464	4.5455	0.	1442.9
15268	17.372	4.4545	0.	1463.9
15269	17.372	4.5455	5.e-002	7.7183
15270	17.648	4.5455	0.	1400.
15271	17.556	4.4545	0.	1420.9
15272	17.556	4.5455	5.e-002	7.6834
15273	17.832	4.5455	0.	1357.4
15274	17.74	4.4545	0.	1378.2
15275	17.74	4.5455	5.e-002	7.6494
15276	18.016	4.5455	0.	1314.9
15277	17.924	4.4545	0.	1335.6
15278	17.924	4.5455	5.e-002	7.616
15279	18.201	4.5455	0.	1272.6
15280	18.109	4.4545	0.	1293.3
15281	18.109	4.5455	5.e-002	7.5836
15282	18.385	4.5455	0.	1230.5
15283	18.293	4.4545	0.	1251.2
15284	18.293	4.5455	5.e-002	7.552
15285	18.569	4.5455	0.	1188.6
15286	18.477	4.4545	0.	1209.3
15287	18.477	4.5455	5.e-002	7.5212
15288	18.753	4.5455	0.	1147.
15289	18.661	4.4545	0.	1167.5
15290	18.661	4.5455	5.e-002	7.4913
15291	18.937	4.5455	0.	1105.6
15292	18.845	4.4545	0.	1126.1
15293	18.845	4.5455	5.e-002	7.4623
15294	19.121	4.5455	0.	1064.4
15295	19.029	4.4545	0.	1084.8
15296	19.029	4.5455	5.e-002	7.4343
15297	19.305	4.5455	0.	1023.4
15298	19.213	4.4545	0.	1043.8
15299	19.213	4.5455	5.e-002	7.4072
15300	19.489	4.5455	0.	982.7
15301	19.397	4.4545	0.	1003.
15302	19.397	4.5455	5.e-002	7.3813
15303	19.673	4.5455	0.	942.23
15304	19.581	4.4545	0.	962.49
15305	19.581	4.5455	5.e-002	7.3565
15306	19.858	4.5455	0.	902.
15307	19.766	4.4545	0.	922.21
15308	19.766	4.5455	5.e-002	7.3329
15309	20.042	4.5455	0.	862.04
15310	19.95	4.4545	0.	882.19
15311	19.95	4.5455	5.e-002	7.3106
15312	20.226	4.5455	0.	822.34
15313	20.134	4.4545	0.	842.45
15314	20.134	4.5455	5.e-002	7.2897
15315	20.41	4.5455	0.	782.92
15316	20.318	4.4545	0.	802.99
15317	20.318	4.5455	5.e-002	7.2703
15318	20.594	4.5455	0.	743.79
15319	20.502	4.4545	0.	763.82
15320	20.502	4.5455	5.e-002	7.2526
15321	20.778	4.5455	0.	704.97
15322	20.686	4.4545	0.	724.95
15323	20.686	4.5455	5.e-002	7.2366
15324	20.962	4.5455	0.	666.47
15325	20.87	4.4545	0.	686.41
15326	20.87	4.5455	5.e-002	7.2227
15327	21.146	4.5455	0.	628.3
15328	21.054	4.4545	0.	648.21
15329	21.054	4.5455	5.e-002	7.211
15330	21.33	4.5455	0.	590.5
15331	21.238	4.4545	0.	610.37
15332	21.238	4.5455	5.e-002	7.2018
15333	21.515	4.5455	0.	553.1
15334	21.422	4.4545	0.	572.92
15335	21.422	4.5455	5.e-002	7.1953
15336	21.699	4.5455	0.	516.13
15337	21.607	4.4545	0.	535.89
15338	21.607	4.5455	5.e-002	7.192
15339	21.883	4.5455	0.	479.64
15340	21.791	4.4545	0.	499.34
15341	21.791	4.5455	5.e-002	7.1924
15342	22.067	4.5455	0.	443.69
15343	21.975	4.4545	0.	463.31
15344	21.975	4.5455	5.e-002	7.197
15345	22.251	4.5455	0.	408.37
15346	22.159	4.4545	0.	427.87
15347	22.159	4.5455	5.e-002	7.2067
15348	22.435	4.5455	0.	373.78
15349	22.343	4.4545	0.	393.12
15350	22.343	4.5455	5.e-002	7.2223
15351	22.619	4.5455	0.	340.06
15352	22.527	4.4545	0.	359.17
15353	22.527	4.5455	5.e-002	7.2452
15354	22.803	4.5455	0.	307.39
15355	22.711	4.4545	0.	326.18
15356	22.711	4.5455	5.e-002	7.277
15357	22.987	4.5455	0.	276.03
15358	22.895	4.4545	0.	294.37
15359	22.895	4.5455	5.e-002	7.3195
15360	23.172	4.5455	0.	246.33
15361	23.079	4.4545	0.	264.04
15362	23.079	4.5455	5.e-002	7.375
15363	23.356	4.5455	0.	218.8
15364	23.264	4.4545	0.	235.59
15365	23.264	4.5455	5.e-002	7.4461
15366	23.54	4.5455	0.	194.19
15367	23.448	4.4545	0.	209.63
15368	23.448	4.5455	5.e-002	7.5347
15369	23.724	4.5455	0.	173.6
15370	23.632	4.4545	0.	187.06
15371	23.632	4.5455	5.e-002	7.6477
15372	23.816	4.4545	0.	169.19
15373	23.816	4.5455	5.e-002	7.8825
15374	23.908	4.5455	0.	158.55
15375	8.4428	4.3636	0.	5859.5
15376	8.3508	4.2727	0.	7698.6
15377	8.3508	4.3636	5.e-002	360.17
15378	8.2587	4.3636	0.	5282.5
15379	8.6269	4.3636	0.	4976.2
15380	8.5349	4.2727	0.	5843.4
15381	8.5349	4.3636	5.e-002	141.34
15382	8.811	4.3636	0.	4464.6
15383	8.719	4.2727	0.	4987.
15384	8.719	4.3636	5.e-002	86.578
15385	8.9952	4.3636	0.	4133.8
15386	8.9031	4.2727	0.	4495.7
15387	8.9031	4.3636	5.e-002	62.215
15388	9.1793	4.3636	0.	3905.7
15389	9.0872	4.2727	0.	4166.4
15390	9.0872	4.3636	5.e-002	47.926
15391	9.3634	4.3636	0.	3741.8
15392	9.2713	4.2727	0.	3935.8
15393	9.2713	4.3636	5.e-002	39.136
15394	9.5475	4.3636	0.	3616.7
15395	9.4554	4.2727	0.	3764.2
15396	9.4554	4.3636	5.e-002	32.647
15397	9.7316	4.3636	0.	3515.8
15398	9.6395	4.2727	0.	3630.3
15399	9.6395	4.3636	5.e-002	27.707
15400	9.9157	4.3636	0.	3430.4
15401	9.8236	4.2727	0.	3520.8
15402	9.8236	4.3636	5.e-002	23.839
15403	10.1	4.3636	0.	3355.2
15404	10.008	4.2727	0.	3427.8
15405	10.008	4.3636	5.e-002	20.765
15406	10.284	4.3636	0.	3287.
15407	10.192	4.2727	0.	3346.4
15408	10.192	4.3636	5.e-002	18.305
15409	10.468	4.3636	0.	3223.6
15410	10.376	4.2727	0.	3273.1
15411	10.376	4.3636	5.e-002	16.337
15412	10.652	4.3636	0.	3164.
15413	10.56	4.2727	0.	3206.
15414	10.56	4.3636	5.e-002	14.765
15415	10.836	4.3636	0.	3107.
15416	10.744	4.2727	0.	3143.4
15417	10.744	4.3636	5.e-002	13.517
15418	11.02	4.3636	0.	3052.3
15419	10.928	4.2727	0.	3084.5
15420	10.928	4.3636	5.e-002	12.531
15421	11.204	4.3636	0.	2999.2
15422	11.112	4.2727	0.	3028.2
15423	11.112	4.3636	5.e-002	11.755
15424	11.389	4.3636	0.	2947.6
15425	11.297	4.2727	0.	2974.2
15426	11.297	4.3636	5.e-002	11.145
15427	11.573	4.3636	0.	2897.
15428	11.481	4.2727	0.	2922.
15429	11.481	4.3636	5.e-002	10.665
15430	11.757	4.3636	0.	2847.4
15431	11.665	4.2727	0.	2871.1
15432	11.665	4.3636	5.e-002	10.286
15433	11.941	4.3636	0.	2798.6
15434	11.849	4.2727	0.	2821.3
15435	11.849	4.3636	5.e-002	9.9833
15436	12.125	4.3636	0.	2750.3
15437	12.033	4.2727	0.	2772.4
15438	12.033	4.3636	5.e-002	9.7392
15439	12.309	4.3636	0.	2702.6
15440	12.217	4.2727	0.	2724.2
15441	12.217	4.3636	5.e-002	9.5394
15442	12.493	4.3636	0.	2655.3
15443	12.401	4.2727	0.	2676.6
15444	12.401	4.3636	5.e-002	9.3732
15445	12.677	4.3636	0.	2608.3
15446	12.585	4.2727	0.	2629.4
15447	12.585	4.3636	5.e-002	9.2324
15448	12.861	4.3636	0.	2561.6
15449	12.769	4.2727	0.	2582.6
15450	12.769	4.3636	5.e-002	9.111
15451	13.046	4.3636	0.	2515.1
15452	12.953	4.2727	0.	2536.1
15453	12.953	4.3636	5.e-002	9.0046
15454	13.23	4.3636	0.	2468.8
15455	13.138	4.2727	0.	2489.8
15456	13.138	4.3636	5.e-002	8.9098
15457	13.414	4.3636	0.	2422.7
15458	13.322	4.2727	0.	2443.7
15459	13.322	4.3636	5.e-002	8.8241
15460	13.598	4.3636	0.	2376.8
15461	13.506	4.2727	0.	2397.8
15462	13.506	4.3636	5.e-002	8.7457
15463	13.782	4.3636	0.	2331.
15464	13.69	4.2727	0.	2352.
15465	13.69	4.3636	5.e-002	8.6732
15466	13.966	4.3636	0.	2285.3
15467	13.874	4.2727	0.	2306.4
15468	13.874	4.3636	5.e-002	8.6054
15469	14.15	4.3636	0.	2239.7
15470	14.058	4.2727	0.	2260.9
15471	14.058	4.3636	5.e-002	8.5417
15472	14.334	4.3636	0.	2194.3
15473	14.242	4.2727	0.	2215.5
15474	14.242	4.3636	5.e-002	8.4813
15475	14.518	4.3636	0.	2148.9
15476	14.426	4.2727	0.	2170.2
15477	14.426	4.3636	5.e-002	8.4237
15478	14.703	4.3636	0.	2103.7
15479	14.61	4.2727	0.	2125.
15480	14.61	4.3636	5.e-002	8.3688
15481	14.887	4.3636	0.	2058.6
15482	14.795	4.2727	0.	2079.9
15483	14.795	4.3636	5.e-002	8.316
15484	15.071	4.3636	0.	2013.6
15485	14.979	4.2727	0.	2035.
15486	14.979	4.3636	5.e-002	8.265
15487	15.255	4.3636	0.	1968.8
15488	15.163	4.2727	0.	1990.1
15489	15.163	4.3636	5.e-002	8.2159
15490	15.439	4.3636	0.	1924.1
15491	15.347	4.2727	0.	1945.4
15492	15.347	4.3636	5.e-002	8.1684
15493	15.623	4.3636	0.	1879.5
15494	15.531	4.2727	0.	1900.8
15495	15.531	4.3636	5.e-002	8.1222
15496	15.807	4.3636	0.	1835.
15497	15.715	4.2727	0.	1856.3
15498	15.715	4.3636	5.e-002	8.0775
15499	15.991	4.3636	0.	1790.7
15500	15.899	4.2727	0.	1812.
15501	15.899	4.3636	5.e-002	8.0339
15502	16.175	4.3636	0.	1746.5
15503	16.083	4.2727	0.	1767.8
15504	16.083	4.3636	5.e-002	7.9914
15505	16.359	4.3636	0.	1702.5
15506	16.267	4.2727	0.	1723.7
15507	16.267	4.3636	5.e-002	7.95
15508	16.544	4.3636	0.	1658.6
15509	16.452	4.2727	0.	1679.8
15510	16.452	4.3636	5.e-002	7.9097
15511	16.728	4.3636	0.	1614.9
15512	16.636	4.2727	0.	1636.1
15513	16.636	4.3636	5.e-002	7.8703
15514	16.912	4.3636	0.	1571.4
15515	16.82	4.2727	0.	1592.5
15516	16.82	4.3636	5.e-002	7.8318
15517	17.096	4.3636	0.	1528.1
15518	17.004	4.2727	0.	1549.2
15519	17.004	4.3636	5.e-002	7.7942
15520	17.28	4.3636	0.	1484.9
15521	17.188	4.2727	0.	1505.9
15522	17.188	4.3636	5.e-002	7.7576
15523	17.464	4.3636	0.	1441.9
15524	17.372	4.2727	0.	1462.9
15525	17.372	4.3636	5.e-002	7.7217
15526	17.648	4.3636	0.	1399.1
15527	17.556	4.2727	0.	1420.
15528	17.556	4.3636	5.e-002	7.6867
15529	17.832	4.3636	0.	1356.5
15530	17.74	4.2727	0.	1377.4
15531	17.74	4.3636	5.e-002	7.6525
15532	18.016	4.3636	0.	1314.1
15533	17.924	4.2727	0.	1334.9
15534	17.924	4.3636	5.e-002	7.6191
15535	18.201	4.3636	0.	1271.9
15536	18.109	4.2727	0.	1292.7
15537	18.109	4.3636	5.e-002	7.5866
15538	18.385	4.3636	0.	1230.
15539	18.293	4.2727	0.	1250.6
15540	18.293	4.3636	5.e-002	7.555
15541	18.569	4.3636	0.	1188.2
15542	18.477	4.2727	0.	1208.8
15543	18.477	4.3636	5.e-002	7.5242
15544	18.753	4.3636	0.	1146.7
15545	18.661	4.2727	0.	1167.2
15546	18.661	4.3636	5.e-002	7.4944
15547	18.937	4.3636	0.	1105.4
15548	18.845	4.2727	0.	1125.8
15549	18.845	4.3636	5.e-002	7.4655
15550	19.121	4.3636	0.	1064.3
15551	19.029	4.2727	0.	1084.7
15552	19.029	4.3636	5.e-002	7.4375
15553	19.305	4.3636	0.	1023.4
15554	19.213	4.2727	0.	1043.8
15555	19.213	4.3636	5.e-002	7.4107
15556	19.489	4.3636	0.	982.86
15557	19.397	4.2727	0.	1003.1
15558	19.397	4.3636	5.e-002	7.3849
15559	19.673	4.3636	0.	942.52
15560	19.581	4.2727	0.	962.73
15561	19.581	4.3636	5.e-002	7.3603
15562	19.858	4.3636	0.	902.46
15563	19.766	4.2727	0.	922.6
15564	19.766	4.3636	5.e-002	7.3369
15565	20.042	4.3636	0.	862.67
15566	19.95	4.2727	0.	882.74
15567	19.95	4.3636	5.e-002	7.3149
15568	20.226	4.3636	0.	823.16
15569	20.134	4.2727	0.	843.17
15570	20.134	4.3636	5.e-002	7.2944
15571	20.41	4.3636	0.	783.94
15572	20.318	4.2727	0.	803.89
15573	20.318	4.3636	5.e-002	7.2755
15574	20.594	4.3636	0.	745.03
15575	20.502	4.2727	0.	764.92
15576	20.502	4.3636	5.e-002	7.2583
15577	20.778	4.3636	0.	706.45
15578	20.686	4.2727	0.	726.28
15579	20.686	4.3636	5.e-002	7.243
15580	20.962	4.3636	0.	668.21
15581	20.87	4.2727	0.	687.98
15582	20.87	4.3636	5.e-002	7.2299
15583	21.146	4.3636	0.	630.33
15584	21.054	4.2727	0.	650.03
15585	21.054	4.3636	5.e-002	7.2191
15586	21.33	4.3636	0.	592.83
15587	21.238	4.2727	0.	612.47
15588	21.238	4.3636	5.e-002	7.2109
15589	21.515	4.3636	0.	555.76
15590	21.422	4.2727	0.	575.32
15591	21.422	4.3636	5.e-002	7.2058
15592	21.699	4.3636	0.	519.15
15593	21.607	4.2727	0.	538.63
15594	21.607	4.3636	5.e-002	7.2041
15595	21.883	4.3636	0.	483.04
15596	21.791	4.2727	0.	502.42
15597	21.791	4.3636	5.e-002	7.2063
15598	22.067	4.3636	0.	447.51
15599	21.975	4.2727	0.	466.76
15600	21.975	4.3636	5.e-002	7.213
15601	22.251	4.3636	0.	412.62
15602	22.159	4.2727	0.	431.71
15603	22.159	4.3636	5.e-002	7.225
15604	22.435	4.3636	0.	378.48
15605	22.343	4.2727	0.	397.37
15606	22.343	4.3636	5.e-002	7.2431
15607	22.619	4.3636	0.	345.23
15608	22.527	4.2727	0.	363.85
15609	22.527	4.3636	5.e-002	7.2687
15610	22.803	4.3636	0.	313.05
15611	22.711	4.2727	0.	331.3
15612	22.711	4.3636	5.e-002	7.3029
15613	22.987	4.3636	0.	282.17
15614	22.895	4.2727	0.	299.93
15615	22.895	4.3636	5.e-002	7.3474
15616	23.172	4.3636	0.	252.96
15617	23.079	4.2727	0.	270.02
15618	23.079	4.3636	5.e-002	7.4038
15619	23.356	4.3636	0.	225.89
15620	23.264	4.2727	0.	242.
15621	23.264	4.3636	5.e-002	7.4737
15622	23.54	4.3636	0.	201.7
15623	23.448	4.2727	0.	216.44
15624	23.448	4.3636	5.e-002	7.5582
15625	23.724	4.3636	0.	181.44
15626	23.632	4.2727	0.	194.22
15627	23.632	4.3636	5.e-002	7.6622
15628	23.816	4.2727	0.	176.57
15629	23.816	4.3636	5.e-002	7.8635
15630	23.908	4.3636	0.	166.71
15631	8.4428	4.1818	0.	7539.3
15632	8.3508	4.0909	0.	9723.7
15633	8.3508	4.1818	5.e-002	647.01
15634	8.2587	4.1818	0.	7618.5
15635	8.6269	4.1818	0.	5815.9
15636	8.5349	4.0909	0.	6762.4
15637	8.5349	4.1818	5.e-002	216.06
15638	8.811	4.1818	0.	5000.3
15639	8.719	4.0909	0.	5592.5
15640	8.719	4.1818	5.e-002	99.833
15641	8.9952	4.1818	0.	4517.2
15642	8.9031	4.0909	0.	4926.3
15643	8.9031	4.1818	5.e-002	71.779
15644	9.1793	4.1818	0.	4189.7
15645	9.0872	4.0909	0.	4484.3
15646	9.0872	4.1818	5.e-002	56.074
15647	9.3634	4.1818	0.	3954.
15648	9.2713	4.0909	0.	4173.7
15649	9.2713	4.1818	5.e-002	45.23
15650	9.5475	4.1818	0.	3775.3
15651	9.4554	4.0909	0.	3942.5
15652	9.4554	4.1818	5.e-002	37.543
15653	9.7316	4.1818	0.	3633.9
15654	9.6395	4.0909	0.	3763.3
15655	9.6395	4.1818	5.e-002	31.744
15656	9.9157	4.1818	0.	3517.5
15657	9.8236	4.0909	0.	3619.3
15658	9.8236	4.1818	5.e-002	27.228
15659	10.1	4.1818	0.	3418.6
15660	10.008	4.0909	0.	3499.9
15661	10.008	4.1818	5.e-002	23.632
15662	10.284	4.1818	0.	3332.4
15663	10.192	4.0909	0.	3398.3
15664	10.192	4.1818	5.e-002	20.737
15665	10.468	4.1818	0.	3255.4
15666	10.376	4.0909	0.	3309.8
15667	10.376	4.1818	5.e-002	18.395
15668	10.652	4.1818	0.	3185.5
15669	10.56	4.0909	0.	3231.1
15670	10.56	4.1818	5.e-002	16.501
15671	10.836	4.1818	0.	3120.9
15672	10.744	4.0909	0.	3160.
15673	10.744	4.1818	5.e-002	14.971
15674	11.02	4.1818	0.	3060.5
15675	10.928	4.0909	0.	3094.7
15676	10.928	4.1818	5.e-002	13.741
15677	11.204	4.1818	0.	3003.3
15678	11.112	4.0909	0.	3033.8
15679	11.112	4.1818	5.e-002	12.754
15680	11.389	4.1818	0.	2948.7
15681	11.297	4.0909	0.	2976.4
15682	11.297	4.1818	5.e-002	11.965
15683	11.573	4.1818	0.	2896.
15684	11.481	4.0909	0.	2921.8
15685	11.481	4.1818	5.e-002	11.333
15686	11.757	4.1818	0.	2845.
15687	11.665	4.0909	0.	2869.2
15688	11.665	4.1818	5.e-002	10.827
15689	11.941	4.1818	0.	2795.2
15690	11.849	4.0909	0.	2818.3
15691	11.849	4.1818	5.e-002	10.42
15692	12.125	4.1818	0.	2746.3
15693	12.033	4.0909	0.	2768.7
15694	12.033	4.1818	5.e-002	10.09
15695	12.309	4.1818	0.	2698.2
15696	12.217	4.0909	0.	2720.1
15697	12.217	4.1818	5.e-002	9.8205
15698	12.493	4.1818	0.	2650.8
15699	12.401	4.0909	0.	2672.3
15700	12.401	4.1818	5.e-002	9.598
15701	12.677	4.1818	0.	2603.8
15702	12.585	4.0909	0.	2625.1
15703	12.585	4.1818	5.e-002	9.4119
15704	12.861	4.1818	0.	2557.1
15705	12.769	4.0909	0.	2578.3
15706	12.769	4.1818	5.e-002	9.2543
15707	13.046	4.1818	0.	2510.8
15708	12.953	4.0909	0.	2531.9
15709	12.953	4.1818	5.e-002	9.1191
15710	13.23	4.1818	0.	2464.7
15711	13.138	4.0909	0.	2485.8
15712	13.138	4.1818	5.e-002	9.0013
15713	13.414	4.1818	0.	2418.8
15714	13.322	4.0909	0.	2439.9
15715	13.322	4.1818	5.e-002	8.8973
15716	13.598	4.1818	0.	2373.1
15717	13.506	4.0909	0.	2394.2
15718	13.506	4.1818	5.e-002	8.8044
15719	13.782	4.1818	0.	2327.5
15720	13.69	4.0909	0.	2348.6
15721	13.69	4.1818	5.e-002	8.7203
15722	13.966	4.1818	0.	2282.
15723	13.874	4.0909	0.	2303.2
15724	13.874	4.1818	5.e-002	8.6434
15725	14.15	4.1818	0.	2236.7
15726	14.058	4.0909	0.	2257.9
15727	14.058	4.1818	5.e-002	8.5725
15728	14.334	4.1818	0.	2191.4
15729	14.242	4.0909	0.	2212.7
15730	14.242	4.1818	5.e-002	8.5064
15731	14.518	4.1818	0.	2146.3
15732	14.426	4.0909	0.	2167.6
15733	14.426	4.1818	5.e-002	8.4443
15734	14.703	4.1818	0.	2101.2
15735	14.61	4.0909	0.	2122.5
15736	14.61	4.1818	5.e-002	8.3857
15737	14.887	4.1818	0.	2056.3
15738	14.795	4.0909	0.	2077.6
15739	14.795	4.1818	5.e-002	8.33
15740	15.071	4.1818	0.	2011.4
15741	14.979	4.0909	0.	2032.8
15742	14.979	4.1818	5.e-002	8.2768
15743	15.255	4.1818	0.	1966.7
15744	15.163	4.0909	0.	1988.1
15745	15.163	4.1818	5.e-002	8.2259
15746	15.439	4.1818	0.	1922.1
15747	15.347	4.0909	0.	1943.5
15748	15.347	4.1818	5.e-002	8.1769
15749	15.623	4.1818	0.	1877.7
15750	15.531	4.0909	0.	1899.
15751	15.531	4.1818	5.e-002	8.1295
15752	15.807	4.1818	0.	1833.3
15753	15.715	4.0909	0.	1854.7
15754	15.715	4.1818	5.e-002	8.0838
15755	15.991	4.1818	0.	1789.1
15756	15.899	4.0909	0.	1810.5
15757	15.899	4.1818	5.e-002	8.0395
15758	16.175	4.1818	0.	1745.
15759	16.083	4.0909	0.	1766.4
15760	16.083	4.1818	5.e-002	7.9964
15761	16.359	4.1818	0.	1701.1
15762	16.267	4.0909	0.	1722.4
15763	16.267	4.1818	5.e-002	7.9545
15764	16.544	4.1818	0.	1657.4
15765	16.452	4.0909	0.	1678.6
15766	16.452	4.1818	5.e-002	7.9138
15767	16.728	4.1818	0.	1613.8
15768	16.636	4.0909	0.	1635.
15769	16.636	4.1818	5.e-002	7.8741
15770	16.912	4.1818	0.	1570.3
15771	16.82	4.0909	0.	1591.5
15772	16.82	4.1818	5.e-002	7.8353
15773	17.096	4.1818	0.	1527.1
15774	17.004	4.0909	0.	1548.2
15775	17.004	4.1818	5.e-002	7.7975
15776	17.28	4.1818	0.	1484.
15777	17.188	4.0909	0.	1505.
15778	17.188	4.1818	5.e-002	7.7607
15779	17.464	4.1818	0.	1441.1
15780	17.372	4.0909	0.	1462.1
15781	17.372	4.1818	5.e-002	7.7247
15782	17.648	4.1818	0.	1398.3
15783	17.556	4.0909	0.	1419.3
15784	17.556	4.1818	5.e-002	7.6895
15785	17.832	4.1818	0.	1355.8
15786	17.74	4.0909	0.	1376.7
15787	17.74	4.1818	5.e-002	7.6553
15788	18.016	4.1818	0.	1313.5
15789	17.924	4.0909	0.	1334.3
15790	17.924	4.1818	5.e-002	7.6219
15791	18.201	4.1818	0.	1271.4
15792	18.109	4.0909	0.	1292.2
15793	18.109	4.1818	5.e-002	7.5893
15794	18.385	4.1818	0.	1229.5
15795	18.293	4.0909	0.	1250.2
15796	18.293	4.1818	5.e-002	7.5577
15797	18.569	4.1818	0.	1187.9
15798	18.477	4.0909	0.	1208.4
15799	18.477	4.1818	5.e-002	7.5269
15800	18.753	4.1818	0.	1146.4
15801	18.661	4.0909	0.	1166.9
15802	18.661	4.1818	5.e-002	7.4971
15803	18.937	4.1818	0.	1105.2
15804	18.845	4.0909	0.	1125.6
15805	18.845	4.1818	5.e-002	7.4683
15806	19.121	4.1818	0.	1064.2
15807	19.029	4.0909	0.	1084.6
15808	19.029	4.1818	5.e-002	7.4404
15809	19.305	4.1818	0.	1023.5
15810	19.213	4.0909	0.	1043.8
15811	19.213	4.1818	5.e-002	7.4137
15812	19.489	4.1818	0.	983.05
15813	19.397	4.0909	0.	1003.3
15814	19.397	4.1818	5.e-002	7.388
15815	19.673	4.1818	0.	942.86
15816	19.581	4.0909	0.	963.
15817	19.581	4.1818	5.e-002	7.3636
15818	19.858	4.1818	0.	902.94
15819	19.766	4.0909	0.	923.
15820	19.766	4.1818	5.e-002	7.3405
15821	20.042	4.1818	0.	863.3
15822	19.95	4.0909	0.	883.29
15823	19.95	4.1818	5.e-002	7.3188
15824	20.226	4.1818	0.	823.96
15825	20.134	4.0909	0.	843.87
15826	20.134	4.1818	5.e-002	7.2986
15827	20.41	4.1818	0.	784.93
15828	20.318	4.0909	0.	804.76
15829	20.318	4.1818	5.e-002	7.2801
15830	20.594	4.1818	0.	746.23
15831	20.502	4.0909	0.	765.98
15832	20.502	4.1818	5.e-002	7.2634
15833	20.778	4.1818	0.	707.86
15834	20.686	4.0909	0.	727.53
15835	20.686	4.1818	5.e-002	7.2487
15836	20.962	4.1818	0.	669.85
15837	20.87	4.0909	0.	689.44
15838	20.87	4.1818	5.e-002	7.2363
15839	21.146	4.1818	0.	632.23
15840	21.054	4.0909	0.	651.72
15841	21.054	4.1818	5.e-002	7.2264
15842	21.33	4.1818	0.	595.01
15843	21.238	4.0909	0.	614.41
15844	21.238	4.1818	5.e-002	7.2193
15845	21.515	4.1818	0.	558.23
15846	21.422	4.0909	0.	577.53
15847	21.422	4.1818	5.e-002	7.2153
15848	21.699	4.1818	0.	521.93
15849	21.607	4.0909	0.	541.11
15850	21.607	4.1818	5.e-002	7.215
15851	21.883	4.1818	0.	486.15
15852	21.791	4.0909	0.	505.2
15853	21.791	4.1818	5.e-002	7.2188
15854	22.067	4.1818	0.	450.97
15855	21.975	4.0909	0.	469.85
15856	21.975	4.1818	5.e-002	7.2273
15857	22.251	4.1818	0.	416.45
15858	22.159	4.0909	0.	435.14
15859	22.159	4.1818	5.e-002	7.2413
15860	22.435	4.1818	0.	382.69
15861	22.343	4.0909	0.	401.13
15862	22.343	4.1818	5.e-002	7.2616
15863	22.619	4.1818	0.	349.82
15864	22.527	4.0909	0.	367.96
15865	22.527	4.1818	5.e-002	7.2892
15866	22.803	4.1818	0.	318.03
15867	22.711	4.0909	0.	335.76
15868	22.711	4.1818	5.e-002	7.3252
15869	22.987	4.1818	0.	287.54
15870	22.895	4.0909	0.	304.73
15871	22.895	4.1818	5.e-002	7.3709
15872	23.172	4.1818	0.	258.7
15873	23.079	4.0909	0.	275.17
15874	23.079	4.1818	5.e-002	7.4274
15875	23.356	4.1818	0.	231.99
15876	23.264	4.0909	0.	247.48
15877	23.264	4.1818	5.e-002	7.4959
15878	23.54	4.1818	0.	208.14
15879	23.448	4.0909	0.	222.24
15880	23.448	4.1818	5.e-002	7.5766
15881	23.724	4.1818	0.	188.14
15882	23.632	4.0909	0.	200.29
15883	23.632	4.1818	5.e-002	7.673
15884	23.816	4.0909	0.	182.81
15885	23.816	4.1818	5.e-002	7.8458
15886	23.908	4.1818	0.	173.67
15887	8.4428	4.	0.	8962.2
15888	8.3508	3.9091	0.	10613
15889	8.3508	4.	5.e-002	1158.
15890	8.2587	4.	0.	15774
15891	8.6269	4.	0.	6537.8
15892	8.5349	3.9091	0.	7539.3
15893	8.5349	4.	5.e-002	201.19
15894	8.811	4.	0.	5509.7
15895	8.719	3.9091	0.	6142.9
15896	8.719	4.	5.e-002	129.88
15897	8.9952	4.	0.	4886.5
15898	8.9031	3.9091	0.	5331.9
15899	8.9031	4.	5.e-002	86.775
15900	9.1793	4.	0.	4463.6
15901	9.0872	3.9091	0.	4786.6
15902	9.0872	4.	5.e-002	65.688
15903	9.3634	4.	0.	4159.1
15904	9.2713	3.9091	0.	4400.7
15905	9.2713	4.	5.e-002	52.192
15906	9.5475	4.	0.	3928.5
15907	9.4554	3.9091	0.	4112.5
15908	9.4554	4.	5.e-002	42.914
15909	9.7316	4.	0.	3747.6
15910	9.6395	3.9091	0.	3889.9
15911	9.6395	4.	5.e-002	36.021
15912	9.9157	4.	0.	3601.1
15913	9.8236	3.9091	0.	3712.6
15914	9.8236	4.	5.e-002	30.692
15915	10.1	4.	0.	3479.3
15916	10.008	3.9091	0.	3567.9
15917	10.008	4.	5.e-002	26.465
15918	10.284	4.	0.	3375.6
15919	10.192	3.9091	0.	3447.
15920	10.192	4.	5.e-002	23.065
15921	10.468	4.	0.	3285.5
15922	10.376	3.9091	0.	3344.
15923	10.376	4.	5.e-002	20.313
15924	10.652	4.	0.	3205.7
15925	10.56	3.9091	0.	3254.5
15926	10.56	4.	5.e-002	18.082
15927	10.836	4.	0.	3133.8
15928	10.744	3.9091	0.	3175.3
15929	10.744	4.	5.e-002	16.275
15930	11.02	4.	0.	3068.
15931	10.928	3.9091	0.	3104.
15932	10.928	4.	5.e-002	14.814
15933	11.204	4.	0.	3007.
15934	11.112	3.9091	0.	3038.8
15935	11.112	4.	5.e-002	13.634
15936	11.389	4.	0.	2949.6
15937	11.297	3.9091	0.	2978.3
15938	11.297	4.	5.e-002	12.684
15939	11.573	4.	0.	2895.
15940	11.481	3.9091	0.	2921.5
15941	11.481	4.	5.e-002	11.919
15942	11.757	4.	0.	2842.6
15943	11.665	3.9091	0.	2867.5
15944	11.665	4.	5.e-002	11.303
15945	11.941	4.	0.	2791.9
15946	11.849	3.9091	0.	2815.6
15947	11.849	4.	5.e-002	10.805
15948	12.125	4.	0.	2742.6
15949	12.033	3.9091	0.	2765.4
15950	12.033	4.	5.e-002	10.4
15951	12.309	4.	0.	2694.2
15952	12.217	3.9091	0.	2716.4
15953	12.217	4.	5.e-002	10.07
15954	12.493	4.	0.	2646.6
15955	12.401	3.9091	0.	2668.4
15956	12.401	4.	5.e-002	9.7985
15957	12.677	4.	0.	2599.6
15958	12.585	3.9091	0.	2621.2
15959	12.585	4.	5.e-002	9.5727
15960	12.861	4.	0.	2553.1
15961	12.769	3.9091	0.	2574.5
15962	12.769	4.	5.e-002	9.3831
15963	13.046	4.	0.	2506.9
15964	12.953	3.9091	0.	2528.2
15965	12.953	4.	5.e-002	9.2222
15966	13.23	4.	0.	2461.
15967	13.138	3.9091	0.	2482.2
15968	13.138	4.	5.e-002	9.0839
15969	13.414	4.	0.	2415.3
15970	13.322	3.9091	0.	2436.5
15971	13.322	4.	5.e-002	8.9635
15972	13.598	4.	0.	2369.8
15973	13.506	3.9091	0.	2391.
15974	13.506	4.	5.e-002	8.8575
15975	13.782	4.	0.	2324.4
15976	13.69	3.9091	0.	2345.6
15977	13.69	4.	5.e-002	8.7631
15978	13.966	4.	0.	2279.1
15979	13.874	3.9091	0.	2300.4
15980	13.874	4.	5.e-002	8.6779
15981	14.15	4.	0.	2233.9
15982	14.058	3.9091	0.	2255.3
15983	14.058	4.	5.e-002	8.6004
15984	14.334	4.	0.	2188.9
15985	14.242	3.9091	0.	2210.2
15986	14.242	4.	5.e-002	8.5291
15987	14.518	4.	0.	2143.9
15988	14.426	3.9091	0.	2165.3
15989	14.426	4.	5.e-002	8.4628
15990	14.703	4.	0.	2099.
15991	14.61	3.9091	0.	2120.4
15992	14.61	4.	5.e-002	8.401
15993	14.887	4.	0.	2054.2
15994	14.795	3.9091	0.	2075.6
15995	14.795	4.	5.e-002	8.3427
15996	15.071	4.	0.	2009.5
15997	14.979	3.9091	0.	2031.
15998	14.979	4.	5.e-002	8.2874
15999	15.255	4.	0.	1964.9
16000	15.163	3.9091	0.	1986.4
16001	15.163	4.	5.e-002	8.2348
16002	15.439	4.	0.	1920.5
16003	15.347	3.9091	0.	1941.9
16004	15.347	4.	5.e-002	8.1845
16005	15.623	4.	0.	1876.1
16006	15.531	3.9091	0.	1897.5
16007	15.531	4.	5.e-002	8.1361
16008	15.807	4.	0.	1831.9
16009	15.715	3.9091	0.	1853.3
16010	15.715	4.	5.e-002	8.0895
16011	15.991	4.	0.	1787.7
16012	15.899	3.9091	0.	1809.2
16013	15.899	4.	5.e-002	8.0445
16014	16.175	4.	0.	1743.8
16015	16.083	3.9091	0.	1765.2
16016	16.083	4.	5.e-002	8.0008
16017	16.359	4.	0.	1699.9
16018	16.267	3.9091	0.	1721.3
16019	16.267	4.	5.e-002	7.9585
16020	16.544	4.	0.	1656.3
16021	16.452	3.9091	0.	1677.6
16022	16.452	4.	5.e-002	7.9174
16023	16.728	4.	0.	1612.7
16024	16.636	3.9091	0.	1634.
16025	16.636	4.	5.e-002	7.8774
16026	16.912	4.	0.	1569.4
16027	16.82	3.9091	0.	1590.6
16028	16.82	4.	5.e-002	7.8384
16029	17.096	4.	0.	1526.2
16030	17.004	3.9091	0.	1547.3
16031	17.004	4.	5.e-002	7.8004
16032	17.28	4.	0.	1483.2
16033	17.188	3.9091	0.	1504.3
16034	17.188	4.	5.e-002	7.7634
16035	17.464	4.	0.	1440.3
16036	17.372	3.9091	0.	1461.4
16037	17.372	4.	5.e-002	7.7272
16038	17.648	4.	0.	1397.7
16039	17.556	3.9091	0.	1418.7
16040	17.556	4.	5.e-002	7.692
16041	17.832	4.	0.	1355.2
16042	17.74	3.9091	0.	1376.1
16043	17.74	4.	5.e-002	7.6577
16044	18.016	4.	0.	1313.
16045	17.924	3.9091	0.	1333.8
16046	17.924	4.	5.e-002	7.6242
16047	18.201	4.	0.	1271.
16048	18.109	3.9091	0.	1291.7
16049	18.109	4.	5.e-002	7.5917
16050	18.385	4.	0.	1229.2
16051	18.293	3.9091	0.	1249.8
16052	18.293	4.	5.e-002	7.56
16053	18.569	4.	0.	1187.6
16054	18.477	3.9091	0.	1208.2
16055	18.477	4.	5.e-002	7.5293
16056	18.753	4.	0.	1146.2
16057	18.661	3.9091	0.	1166.7
16058	18.661	4.	5.e-002	7.4995
16059	18.937	4.	0.	1105.1
16060	18.845	3.9091	0.	1125.5
16061	18.845	4.	5.e-002	7.4707
16062	19.121	4.	0.	1064.2
16063	19.029	3.9091	0.	1084.6
16064	19.029	4.	5.e-002	7.4429
16065	19.305	4.	0.	1023.6
16066	19.213	3.9091	0.	1043.9
16067	19.213	4.	5.e-002	7.4162
16068	19.489	4.	0.	983.27
16069	19.397	3.9091	0.	1003.4
16070	19.397	4.	5.e-002	7.3908
16071	19.673	4.	0.	943.2
16072	19.581	3.9091	0.	963.27
16073	19.581	4.	5.e-002	7.3665
16074	19.858	4.	0.	903.41
16075	19.766	3.9091	0.	923.39
16076	19.766	4.	5.e-002	7.3436
16077	20.042	4.	0.	863.91
16078	19.95	3.9091	0.	883.8
16079	19.95	4.	5.e-002	7.3221
16080	20.226	4.	0.	824.72
16081	20.134	3.9091	0.	844.52
16082	20.134	4.	5.e-002	7.3022
16083	20.41	4.	0.	785.86
16084	20.318	3.9091	0.	805.56
16085	20.318	4.	5.e-002	7.2841
16086	20.594	4.	0.	747.33
16087	20.502	3.9091	0.	766.93
16088	20.502	4.	5.e-002	7.2679
16089	20.778	4.	0.	709.15
16090	20.686	3.9091	0.	728.65
16091	20.686	4.	5.e-002	7.2537
16092	20.962	4.	0.	671.35
16093	20.87	3.9091	0.	690.75
16094	20.87	4.	5.e-002	7.242
16095	21.146	4.	0.	633.95
16096	21.054	3.9091	0.	653.23
16097	21.054	4.	5.e-002	7.2328
16098	21.33	4.	0.	596.96
16099	21.238	3.9091	0.	616.13
16100	21.238	4.	5.e-002	7.2266
16101	21.515	4.	0.	560.44
16102	21.422	3.9091	0.	579.47
16103	21.422	4.	5.e-002	7.2237
16104	21.699	4.	0.	524.4
16105	21.607	3.9091	0.	543.29
16106	21.607	4.	5.e-002	7.2246
16107	21.883	4.	0.	488.91
16108	21.791	3.9091	0.	507.63
16109	21.791	4.	5.e-002	7.2298
16110	22.067	4.	0.	454.02
16111	21.975	3.9091	0.	472.54
16112	21.975	4.	5.e-002	7.2399
16113	22.251	4.	0.	419.79
16114	22.159	3.9091	0.	438.1
16115	22.159	4.	5.e-002	7.2555
16116	22.435	4.	0.	386.34
16117	22.343	3.9091	0.	404.37
16118	22.343	4.	5.e-002	7.2774
16119	22.619	4.	0.	353.78
16120	22.527	3.9091	0.	371.47
16121	22.527	4.	5.e-002	7.3066
16122	22.803	4.	0.	322.29
16123	22.711	3.9091	0.	339.54
16124	22.711	4.	5.e-002	7.3439
16125	22.987	4.	0.	292.11
16126	22.895	3.9091	0.	308.79
16127	22.895	4.	5.e-002	7.3903
16128	23.172	4.	0.	263.57
16129	23.079	3.9091	0.	279.5
16130	23.079	4.	5.e-002	7.4466
16131	23.356	4.	0.	237.15
16132	23.264	3.9091	0.	252.07
16133	23.264	4.	5.e-002	7.5134
16134	23.54	4.	0.	213.56
16135	23.448	3.9091	0.	227.07
16136	23.448	4.	5.e-002	7.5909
16137	23.724	4.	0.	193.77
16138	23.632	3.9091	0.	205.34
16139	23.632	4.	5.e-002	7.6811
16140	23.816	3.9091	0.	187.99
16141	23.816	4.	5.e-002	7.8298
16142	23.908	4.	0.	179.51
16143	8.4428	3.8182	0.	9317.1
16144	8.3508	3.7273	0.	10393
16145	8.3508	3.8182	5.e-002	629.58
16146	8.6269	3.8182	0.	7156.
16147	8.5349	3.7273	0.	8023.1
16148	8.5349	3.8182	5.e-002	289.63
16149	8.811	3.8182	0.	5963.8
16150	8.719	3.7273	0.	6592.7
16151	8.719	3.8182	5.e-002	146.06
16152	8.9952	3.8182	0.	5228.9
16153	8.9031	3.7273	0.	5687.2
16154	8.9031	3.8182	5.e-002	100.28
16155	9.1793	3.8182	0.	4720.8
16156	9.0872	3.7273	0.	5061.
16157	9.0872	3.8182	5.e-002	74.715
16158	9.3634	3.8182	0.	4352.
16159	9.2713	3.7273	0.	4608.6
16160	9.2713	3.8182	5.e-002	59.042
16161	9.5475	3.8182	0.	4072.5
16162	9.4554	3.7273	0.	4268.6
16163	9.4554	3.8182	5.e-002	48.229
16164	9.7316	3.8182	0.	3854.1
16165	9.6395	3.7273	0.	4005.7
16166	9.6395	3.8182	5.e-002	40.222
16167	9.9157	3.8182	0.	3678.9
16168	9.8236	3.7273	0.	3797.7
16169	9.8236	3.8182	5.e-002	34.035
16170	10.1	3.8182	0.	3535.4
16171	10.008	3.7273	0.	3629.5
16172	10.008	3.8182	5.e-002	29.137
16173	10.284	3.8182	0.	3415.3
16174	10.192	3.7273	0.	3490.9
16175	10.192	3.8182	5.e-002	25.209
16176	10.468	3.8182	0.	3313.
16177	10.376	3.7273	0.	3374.7
16178	10.376	3.8182	5.e-002	22.041
16179	10.652	3.8182	0.	3224.1
16180	10.56	3.7273	0.	3275.3
16181	10.56	3.8182	5.e-002	19.48
16182	10.836	3.8182	0.	3145.5
16183	10.744	3.7273	0.	3188.8
16184	10.744	3.8182	5.e-002	17.409
16185	11.02	3.8182	0.	3074.8
16186	10.928	3.7273	0.	3112.2
16187	10.928	3.8182	5.e-002	15.736
16188	11.204	3.8182	0.	3010.2
16189	11.112	3.7273	0.	3043.2
16190	11.112	3.8182	5.e-002	14.385
16191	11.389	3.8182	0.	2950.3
16192	11.297	3.7273	0.	2980.
16193	11.297	3.8182	5.e-002	13.295
16194	11.573	3.8182	0.	2894.
16195	11.481	3.7273	0.	2921.2
16196	11.481	3.8182	5.e-002	12.416
16197	11.757	3.8182	0.	2840.5
16198	11.665	3.7273	0.	2865.9
16199	11.665	3.8182	5.e-002	11.706
16200	11.941	3.8182	0.	2789.
16201	11.849	3.7273	0.	2813.2
16202	11.849	3.8182	5.e-002	11.132
16203	12.125	3.8182	0.	2739.2
16204	12.033	3.7273	0.	2762.4
16205	12.033	3.8182	5.e-002	10.665
16206	12.309	3.8182	0.	2690.6
16207	12.217	3.7273	0.	2713.2
16208	12.217	3.8182	5.e-002	10.283
16209	12.493	3.8182	0.	2643.
16210	12.401	3.7273	0.	2665.1
16211	12.401	3.8182	5.e-002	9.9702
16212	12.677	3.8182	0.	2596.
16213	12.585	3.7273	0.	2617.8
16214	12.585	3.8182	5.e-002	9.7108
16215	12.861	3.8182	0.	2549.5
16216	12.769	3.7273	0.	2571.1
16217	12.769	3.8182	5.e-002	9.4941
16218	13.046	3.8182	0.	2503.5
16219	12.953	3.7273	0.	2525.
16220	12.953	3.8182	5.e-002	9.3113
16221	13.23	3.8182	0.	2457.8
16222	13.138	3.7273	0.	2479.2
16223	13.138	3.8182	5.e-002	9.1554
16224	13.414	3.8182	0.	2412.2
16225	13.322	3.7273	0.	2433.6
16226	13.322	3.8182	5.e-002	9.0209
16227	13.598	3.8182	0.	2366.9
16228	13.506	3.7273	0.	2388.3
16229	13.506	3.8182	5.e-002	8.9037
16230	13.782	3.8182	0.	2321.7
16231	13.69	3.7273	0.	2343.1
16232	13.69	3.8182	5.e-002	8.8003
16233	13.966	3.8182	0.	2276.6
16234	13.874	3.7273	0.	2298.
16235	13.874	3.8182	5.e-002	8.7079
16236	14.15	3.8182	0.	2231.6
16237	14.058	3.7273	0.	2253.
16238	14.058	3.8182	5.e-002	8.6247
16239	14.334	3.8182	0.	2186.7
16240	14.242	3.7273	0.	2208.2
16241	14.242	3.8182	5.e-002	8.5489
16242	14.518	3.8182	0.	2141.8
16243	14.426	3.7273	0.	2163.4
16244	14.426	3.8182	5.e-002	8.479
16245	14.703	3.8182	0.	2097.1
16246	14.61	3.7273	0.	2118.6
16247	14.61	3.8182	5.e-002	8.4143
16248	14.887	3.8182	0.	2052.4
16249	14.795	3.7273	0.	2074.
16250	14.795	3.8182	5.e-002	8.3537
16251	15.071	3.8182	0.	2007.9
16252	14.979	3.7273	0.	2029.4
16253	14.979	3.8182	5.e-002	8.2965
16254	15.255	3.8182	0.	1963.4
16255	15.163	3.7273	0.	1985.
16256	15.163	3.8182	5.e-002	8.2425
16257	15.439	3.8182	0.	1919.
16258	15.347	3.7273	0.	1940.6
16259	15.347	3.8182	5.e-002	8.191
16260	15.623	3.8182	0.	1874.8
16261	15.531	3.7273	0.	1896.3
16262	15.531	3.8182	5.e-002	8.1417
16263	15.807	3.8182	0.	1830.6
16264	15.715	3.7273	0.	1852.1
16265	15.715	3.8182	5.e-002	8.0944
16266	15.991	3.8182	0.	1786.6
16267	15.899	3.7273	0.	1808.1
16268	15.899	3.8182	5.e-002	8.0487
16269	16.175	3.8182	0.	1742.7
16270	16.083	3.7273	0.	1764.2
16271	16.083	3.8182	5.e-002	8.0046
16272	16.359	3.8182	0.	1698.9
16273	16.267	3.7273	0.	1720.4
16274	16.267	3.8182	5.e-002	7.9619
16275	16.544	3.8182	0.	1655.3
16276	16.452	3.7273	0.	1676.7
16277	16.452	3.8182	5.e-002	7.9204
16278	16.728	3.8182	0.	1611.9
16279	16.636	3.7273	0.	1633.2
16280	16.636	3.8182	5.e-002	7.8802
16281	16.912	3.8182	0.	1568.6
16282	16.82	3.7273	0.	1589.8
16283	16.82	3.8182	5.e-002	7.841
16284	17.096	3.8182	0.	1525.5
16285	17.004	3.7273	0.	1546.7
16286	17.004	3.8182	5.e-002	7.8028
16287	17.28	3.8182	0.	1482.5
16288	17.188	3.7273	0.	1503.6
16289	17.188	3.8182	5.e-002	7.7657
16290	17.464	3.8182	0.	1439.7
16291	17.372	3.7273	0.	1460.8
16292	17.372	3.8182	5.e-002	7.7294
16293	17.648	3.8182	0.	1397.2
16294	17.556	3.7273	0.	1418.1
16295	17.556	3.8182	5.e-002	7.6941
16296	17.832	3.8182	0.	1354.8
16297	17.74	3.7273	0.	1375.7
16298	17.74	3.8182	5.e-002	7.6597
16299	18.016	3.8182	0.	1312.6
16300	17.924	3.7273	0.	1333.4
16301	17.924	3.8182	5.e-002	7.6262
16302	18.201	3.8182	0.	1270.6
16303	18.109	3.7273	0.	1291.4
16304	18.109	3.8182	5.e-002	7.5936
16305	18.385	3.8182	0.	1228.9
16306	18.293	3.7273	0.	1249.6
16307	18.293	3.8182	5.e-002	7.562
16308	18.569	3.8182	0.	1187.4
16309	18.477	3.7273	0.	1208.
16310	18.477	3.8182	5.e-002	7.5312
16311	18.753	3.8182	0.	1146.1
16312	18.661	3.7273	0.	1166.6
16313	18.661	3.8182	5.e-002	7.5014
16314	18.937	3.8182	0.	1105.1
16315	18.845	3.7273	0.	1125.5
16316	18.845	3.8182	5.e-002	7.4727
16317	19.121	3.8182	0.	1064.3
16318	19.029	3.7273	0.	1084.6
16319	19.029	3.8182	5.e-002	7.445
16320	19.305	3.8182	0.	1023.7
16321	19.213	3.7273	0.	1044.
16322	19.213	3.8182	5.e-002	7.4184
16323	19.489	3.8182	0.	983.49
16324	19.397	3.7273	0.	1003.6
16325	19.397	3.8182	5.e-002	7.393
16326	19.673	3.8182	0.	943.52
16327	19.581	3.7273	0.	963.53
16328	19.581	3.8182	5.e-002	7.3689
16329	19.858	3.8182	0.	903.84
16330	19.766	3.7273	0.	923.74
16331	19.766	3.8182	5.e-002	7.3462
16332	20.042	3.8182	0.	864.46
16333	19.95	3.7273	0.	884.26
16334	19.95	3.8182	5.e-002	7.3249
16335	20.226	3.8182	0.	825.41
16336	20.134	3.7273	0.	845.09
16337	20.134	3.8182	5.e-002	7.3053
16338	20.41	3.8182	0.	786.68
16339	20.318	3.7273	0.	806.25
16340	20.318	3.8182	5.e-002	7.2875
16341	20.594	3.8182	0.	748.3
16342	20.502	3.7273	0.	767.76
16343	20.502	3.8182	5.e-002	7.2717
16344	20.778	3.8182	0.	710.29
16345	20.686	3.7273	0.	729.62
16346	20.686	3.8182	5.e-002	7.258
16347	20.962	3.8182	0.	672.66
16348	20.87	3.7273	0.	691.87
16349	20.87	3.8182	5.e-002	7.2468
16350	21.146	3.8182	0.	635.45
16351	21.054	3.7273	0.	654.51
16352	21.054	3.8182	5.e-002	7.2383
16353	21.33	3.8182	0.	598.66
16354	21.238	3.7273	0.	617.58
16355	21.238	3.8182	5.e-002	7.2329
16356	21.515	3.8182	0.	562.34
16357	21.422	3.7273	0.	581.11
16358	21.422	3.8182	5.e-002	7.2309
16359	21.699	3.8182	0.	526.53
16360	21.607	3.7273	0.	545.12
16361	21.607	3.8182	5.e-002	7.2328
16362	21.883	3.8182	0.	491.26
16363	21.791	3.7273	0.	509.67
16364	21.791	3.8182	5.e-002	7.2392
16365	22.067	3.8182	0.	456.61
16366	21.975	3.7273	0.	474.79
16367	21.975	3.8182	5.e-002	7.2505
16368	22.251	3.8182	0.	422.62
16369	22.159	3.7273	0.	440.55
16370	22.159	3.8182	5.e-002	7.2674
16371	22.435	3.8182	0.	389.41
16372	22.343	3.7273	0.	407.04
16373	22.343	3.8182	5.e-002	7.2907
16374	22.619	3.8182	0.	357.1
16375	22.527	3.7273	0.	374.35
16376	22.527	3.8182	5.e-002	7.3211
16377	22.803	3.8182	0.	325.85
16378	22.711	3.7273	0.	342.64
16379	22.711	3.8182	5.e-002	7.3593
16380	22.987	3.8182	0.	295.9
16381	22.895	3.7273	0.	312.1
16382	22.895	3.8182	5.e-002	7.406
16383	23.172	3.8182	0.	267.59
16384	23.079	3.7273	0.	283.01
16385	23.079	3.8182	5.e-002	7.4618
16386	23.356	3.8182	0.	241.4
16387	23.264	3.7273	0.	255.78
16388	23.264	3.8182	5.e-002	7.5272
16389	23.54	3.8182	0.	218.01
16390	23.448	3.7273	0.	230.97
16391	23.448	3.8182	5.e-002	7.6018
16392	23.724	3.8182	0.	198.38
16393	23.632	3.7273	0.	209.41
16394	23.632	3.8182	5.e-002	7.6871
16395	23.816	3.7273	0.	192.16
16396	23.816	3.8182	5.e-002	7.8161
16397	23.908	3.8182	0.	184.29
16398	8.4428	3.6364	0.	9166.
16399	8.3508	3.5455	0.	9782.9
16400	8.3508	3.6364	5.e-002	271.28
16401	8.6269	3.6364	0.	7484.8
16402	8.5349	3.5455	0.	8155.7
16403	8.5349	3.6364	5.e-002	213.66
16404	8.811	3.6364	0.	6322.1
16405	8.719	3.5455	0.	6888.1
16406	8.719	3.6364	5.e-002	153.35
16407	8.9952	3.6364	0.	5520.
16408	8.9031	3.5455	0.	5963.8
16409	8.9031	3.6364	5.e-002	107.52
16410	9.1793	3.6364	0.	4948.1
16411	9.0872	3.5455	0.	5289.1
16412	9.0872	3.6364	5.e-002	81.813
16413	9.3634	3.6364	0.	4524.3
16414	9.2713	3.5455	0.	4785.8
16415	9.2713	3.6364	5.e-002	65.046
16416	9.5475	3.6364	0.	4201.2
16417	9.4554	3.5455	0.	4402.7
16418	9.4554	3.6364	5.e-002	53.095
16419	9.7316	3.6364	0.	3948.9
16420	9.6395	3.5455	0.	4105.3
16421	9.6395	3.6364	5.e-002	44.091
16422	9.9157	3.6364	0.	3748.
16423	9.8236	3.5455	0.	3870.5
16424	9.8236	3.6364	5.e-002	37.084
16425	10.1	3.6364	0.	3584.9
16426	10.008	3.5455	0.	3682.
16427	10.008	3.6364	5.e-002	31.532
16428	10.284	3.6364	0.	3450.2
16429	10.192	3.5455	0.	3528.2
16430	10.192	3.6364	5.e-002	27.094
16431	10.468	3.6364	0.	3336.9
16432	10.376	3.5455	0.	3400.5
16433	10.376	3.6364	5.e-002	23.531
16434	10.652	3.6364	0.	3240.
16435	10.56	3.5455	0.	3292.7
16436	10.56	3.6364	5.e-002	20.663
16437	10.836	3.6364	0.	3155.5
16438	10.744	3.5455	0.	3200.1
16439	10.744	3.6364	5.e-002	18.355
16440	11.02	3.6364	0.	3080.6
16441	10.928	3.5455	0.	3119.
16442	10.928	3.6364	5.e-002	16.496
16443	11.204	3.6364	0.	3012.9
16444	11.112	3.5455	0.	3046.8
16445	11.112	3.6364	5.e-002	14.998
16446	11.389	3.6364	0.	2950.9
16447	11.297	3.5455	0.	2981.3
16448	11.297	3.6364	5.e-002	13.791
16449	11.573	3.6364	0.	2893.1
16450	11.481	3.5455	0.	2921.
16451	11.481	3.6364	5.e-002	12.818
16452	11.757	3.6364	0.	2838.6
16453	11.665	3.5455	0.	2864.6
16454	11.665	3.6364	5.e-002	12.032
16455	11.941	3.6364	0.	2786.6
16456	11.849	3.5455	0.	2811.2
16457	11.849	3.6364	5.e-002	11.396
16458	12.125	3.6364	0.	2736.4
16459	12.033	3.5455	0.	2760.
16460	12.033	3.6364	5.e-002	10.879
16461	12.309	3.6364	0.	2687.6
16462	12.217	3.5455	0.	2710.5
16463	12.217	3.6364	5.e-002	10.457
16464	12.493	3.6364	0.	2639.9
16465	12.401	3.5455	0.	2662.3
16466	12.401	3.6364	5.e-002	10.11
16467	12.677	3.6364	0.	2592.9
16468	12.585	3.5455	0.	2615.
16469	12.585	3.6364	5.e-002	9.8236
16470	12.861	3.6364	0.	2546.6
16471	12.769	3.5455	0.	2568.5
16472	12.769	3.6364	5.e-002	9.5849
16473	13.046	3.6364	0.	2500.7
16474	12.953	3.5455	0.	2522.4
16475	12.953	3.6364	5.e-002	9.3844
16476	13.23	3.6364	0.	2455.1
16477	13.138	3.5455	0.	2476.7
16478	13.138	3.6364	5.e-002	9.2142
16479	13.414	3.6364	0.	2409.7
16480	13.322	3.5455	0.	2431.3
16481	13.322	3.6364	5.e-002	9.0683
16482	13.598	3.6364	0.	2364.5
16483	13.506	3.5455	0.	2386.1
16484	13.506	3.6364	5.e-002	8.9419
16485	13.782	3.6364	0.	2319.4
16486	13.69	3.5455	0.	2341.1
16487	13.69	3.6364	5.e-002	8.831
16488	13.966	3.6364	0.	2274.5
16489	13.874	3.5455	0.	2296.1
16490	13.874	3.6364	5.e-002	8.7328
16491	14.15	3.6364	0.	2229.7
16492	14.058	3.5455	0.	2251.3
16493	14.058	3.6364	5.e-002	8.6449
16494	14.334	3.6364	0.	2184.9
16495	14.242	3.5455	0.	2206.5
16496	14.242	3.6364	5.e-002	8.5652
16497	14.518	3.6364	0.	2140.2
16498	14.426	3.5455	0.	2161.8
16499	14.426	3.6364	5.e-002	8.4924
16500	14.703	3.6364	0.	2095.6
16501	14.61	3.5455	0.	2117.2
16502	14.61	3.6364	5.e-002	8.4252
16503	14.887	3.6364	0.	2051.
16504	14.795	3.5455	0.	2072.7
16505	14.795	3.6364	5.e-002	8.3627
16506	15.071	3.6364	0.	2006.5
16507	14.979	3.5455	0.	2028.2
16508	14.979	3.6364	5.e-002	8.3041
16509	15.255	3.6364	0.	1962.2
16510	15.163	3.5455	0.	1983.8
16511	15.163	3.6364	5.e-002	8.2489
16512	15.439	3.6364	0.	1917.9
16513	15.347	3.5455	0.	1939.5
16514	15.347	3.6364	5.e-002	8.1964
16515	15.623	3.6364	0.	1873.7
16516	15.531	3.5455	0.	1895.3
16517	15.531	3.6364	5.e-002	8.1463
16518	15.807	3.6364	0.	1829.6
16519	15.715	3.5455	0.	1851.2
16520	15.715	3.6364	5.e-002	8.0983
16521	15.991	3.6364	0.	1785.7
16522	15.899	3.5455	0.	1807.2
16523	15.899	3.6364	5.e-002	8.0522
16524	16.175	3.6364	0.	1741.8
16525	16.083	3.5455	0.	1763.4
16526	16.083	3.6364	5.e-002	8.0077
16527	16.359	3.6364	0.	1698.1
16528	16.267	3.5455	0.	1719.6
16529	16.267	3.6364	5.e-002	7.9646
16530	16.544	3.6364	0.	1654.6
16531	16.452	3.5455	0.	1676.
16532	16.452	3.6364	5.e-002	7.9229
16533	16.728	3.6364	0.	1611.2
16534	16.636	3.5455	0.	1632.6
16535	16.636	3.6364	5.e-002	7.8824
16536	16.912	3.6364	0.	1568.
16537	16.82	3.5455	0.	1589.3
16538	16.82	3.6364	5.e-002	7.8431
16539	17.096	3.6364	0.	1524.9
16540	17.004	3.5455	0.	1546.1
16541	17.004	3.6364	5.e-002	7.8048
16542	17.28	3.6364	0.	1482.
16543	17.188	3.5455	0.	1503.2
16544	17.188	3.6364	5.e-002	7.7675
16545	17.464	3.6364	0.	1439.3
16546	17.372	3.5455	0.	1460.4
16547	17.372	3.6364	5.e-002	7.7312
16548	17.648	3.6364	0.	1396.7
16549	17.556	3.5455	0.	1417.8
16550	17.556	3.6364	5.e-002	7.6958
16551	17.832	3.6364	0.	1354.4
16552	17.74	3.5455	0.	1375.3
16553	17.74	3.6364	5.e-002	7.6614
16554	18.016	3.6364	0.	1312.3
16555	17.924	3.5455	0.	1333.1
16556	17.924	3.6364	5.e-002	7.6278
16557	18.201	3.6364	0.	1270.4
16558	18.109	3.5455	0.	1291.1
16559	18.109	3.6364	5.e-002	7.5952
16560	18.385	3.6364	0.	1228.7
16561	18.293	3.5455	0.	1249.4
16562	18.293	3.6364	5.e-002	7.5635
16563	18.569	3.6364	0.	1187.2
16564	18.477	3.5455	0.	1207.8
16565	18.477	3.6364	5.e-002	7.5328
16566	18.753	3.6364	0.	1146.
16567	18.661	3.5455	0.	1166.5
16568	18.661	3.6364	5.e-002	7.503
16569	18.937	3.6364	0.	1105.
16570	18.845	3.5455	0.	1125.4
16571	18.845	3.6364	5.e-002	7.4743
16572	19.121	3.6364	0.	1064.3
16573	19.029	3.5455	0.	1084.6
16574	19.029	3.6364	5.e-002	7.4467
16575	19.305	3.6364	0.	1023.9
16576	19.213	3.5455	0.	1044.
16577	19.213	3.6364	5.e-002	7.4201
16578	19.489	3.6364	0.	983.69
16579	19.397	3.5455	0.	1003.7
16580	19.397	3.6364	5.e-002	7.3949
16581	19.673	3.6364	0.	943.8
16582	19.581	3.5455	0.	963.74
16583	19.581	3.6364	5.e-002	7.3708
16584	19.858	3.6364	0.	904.21
16585	19.766	3.5455	0.	924.04
16586	19.766	3.6364	5.e-002	7.3483
16587	20.042	3.6364	0.	864.94
16588	19.95	3.5455	0.	884.64
16589	19.95	3.6364	5.e-002	7.3272
16590	20.226	3.6364	0.	825.99
16591	20.134	3.5455	0.	845.56
16592	20.134	3.6364	5.e-002	7.3078
16593	20.41	3.6364	0.	787.38
16594	20.318	3.5455	0.	806.82
16595	20.318	3.6364	5.e-002	7.2903
16596	20.594	3.6364	0.	749.12
16597	20.502	3.5455	0.	768.43
16598	20.502	3.6364	5.e-002	7.2748
16599	20.778	3.6364	0.	711.24
16600	20.686	3.5455	0.	730.41
16601	20.686	3.6364	5.e-002	7.2615
16602	20.962	3.6364	0.	673.75
16603	20.87	3.5455	0.	692.77
16604	20.87	3.6364	5.e-002	7.2507
16605	21.146	3.6364	0.	636.68
16606	21.054	3.5455	0.	655.54
16607	21.054	3.6364	5.e-002	7.2428
16608	21.33	3.6364	0.	600.06
16609	21.238	3.5455	0.	618.75
16610	21.238	3.6364	5.e-002	7.238
16611	21.515	3.6364	0.	563.91
16612	21.422	3.5455	0.	582.42
16613	21.422	3.6364	5.e-002	7.2368
16614	21.699	3.6364	0.	528.27
16615	21.607	3.5455	0.	546.58
16616	21.607	3.6364	5.e-002	7.2395
16617	21.883	3.6364	0.	493.18
16618	21.791	3.5455	0.	511.28
16619	21.791	3.6364	5.e-002	7.2468
16620	22.067	3.6364	0.	458.71
16621	21.975	3.5455	0.	476.56
16622	21.975	3.6364	5.e-002	7.2591
16623	22.251	3.6364	0.	424.91
16624	22.159	3.5455	0.	442.48
16625	22.159	3.6364	5.e-002	7.2771
16626	22.435	3.6364	0.	391.89
16627	22.343	3.5455	0.	409.13
16628	22.343	3.6364	5.e-002	7.3013
16629	22.619	3.6364	0.	359.76
16630	22.527	3.5455	0.	376.6
16631	22.527	3.6364	5.e-002	7.3325
16632	22.803	3.6364	0.	328.69
16633	22.711	3.5455	0.	345.05
16634	22.711	3.6364	5.e-002	7.3713
16635	22.987	3.6364	0.	298.92
16636	22.895	3.5455	0.	314.66
16637	22.895	3.6364	5.e-002	7.4182
16638	23.172	3.6364	0.	270.78
16639	23.079	3.5455	0.	285.73
16640	23.079	3.6364	5.e-002	7.4735
16641	23.356	3.6364	0.	244.76
16642	23.264	3.5455	0.	258.64
16643	23.264	3.6364	5.e-002	7.5376
16644	23.54	3.6364	0.	221.53
16645	23.448	3.5455	0.	233.98
16646	23.448	3.6364	5.e-002	7.6101
16647	23.724	3.6364	0.	202.02
16648	23.632	3.5455	0.	212.54
16649	23.632	3.6364	5.e-002	7.6915
16650	23.816	3.5455	0.	195.37
16651	23.816	3.6364	5.e-002	7.8049
16652	23.908	3.6364	0.	188.06
16653	8.4428	3.4545	0.	8798.4
16654	8.3508	3.3636	0.	9213.3
16655	8.3508	3.4545	5.e-002	151.98
16656	8.6269	3.4545	0.	7582.6
16657	8.5349	3.3636	0.	8105.5
16658	8.5349	3.4545	5.e-002	160.87
16659	8.811	3.4545	0.	6541.
16660	8.719	3.3636	0.	7032.2
16661	8.719	3.4545	5.e-002	133.2
16662	8.9952	3.4545	0.	5737.3
16663	8.9031	3.3636	0.	6148.2
16664	8.9031	3.4545	5.e-002	107.04
16665	9.1793	3.4545	0.	5128.5
16666	9.0872	3.3636	0.	5455.7
16667	9.0872	3.4545	5.e-002	85.692
16668	9.3634	3.4545	0.	4664.8
16669	9.2713	3.3636	0.	4920.5
16670	9.2713	3.4545	5.e-002	69.493
16671	9.5475	3.4545	0.	4307.
16672	9.4554	3.3636	0.	4506.
16673	9.4554	3.4545	5.e-002	57.056
16674	9.7316	3.4545	0.	4027.
16675	9.6395	3.3636	0.	4182.3
16676	9.6395	3.4545	5.e-002	47.331
16677	9.9157	3.4545	0.	3804.6
16678	9.8236	3.3636	0.	3926.8
16679	9.8236	3.4545	5.e-002	39.638
16680	10.1	3.4545	0.	3625.3
16681	10.008	3.3636	0.	3722.5
16682	10.008	3.4545	5.e-002	33.517
16683	10.284	3.4545	0.	3478.5
16684	10.192	3.3636	0.	3556.7
16685	10.192	3.4545	5.e-002	28.632
16686	10.468	3.4545	0.	3356.3
16687	10.376	3.3636	0.	3420.2
16688	10.376	3.4545	5.e-002	24.725
16689	10.652	3.4545	0.	3252.8
16690	10.56	3.3636	0.	3305.9
16691	10.56	3.4545	5.e-002	21.597
16692	10.836	3.4545	0.	3163.5
16693	10.744	3.3636	0.	3208.6
16694	10.744	3.4545	5.e-002	19.091
16695	11.02	3.4545	0.	3085.2
16696	10.928	3.3636	0.	3124.1
16697	10.928	3.4545	5.e-002	17.08
16698	11.204	3.4545	0.	3015.1
16699	11.112	3.3636	0.	3049.5
16700	11.112	3.4545	5.e-002	15.466
16701	11.389	3.4545	0.	2951.4
16702	11.297	3.3636	0.	2982.3
16703	11.297	3.4545	5.e-002	14.168
16704	11.573	3.4545	0.	2892.4
16705	11.481	3.3636	0.	2920.8
16706	11.481	3.4545	5.e-002	13.122
16707	11.757	3.4545	0.	2837.2
16708	11.665	3.3636	0.	2863.6
16709	11.665	3.4545	5.e-002	12.278
16710	11.941	3.4545	0.	2784.6
16711	11.849	3.3636	0.	2809.7
16712	11.849	3.4545	5.e-002	11.595
16713	12.125	3.4545	0.	2734.2
16714	12.033	3.3636	0.	2758.2
16715	12.033	3.4545	5.e-002	11.04
16716	12.309	3.4545	0.	2685.2
16717	12.217	3.3636	0.	2708.6
16718	12.217	3.4545	5.e-002	10.587
16719	12.493	3.4545	0.	2637.5
16720	12.401	3.3636	0.	2660.3
16721	12.401	3.4545	5.e-002	10.216
16722	12.677	3.4545	0.	2590.6
16723	12.585	3.3636	0.	2613.
16724	12.585	3.4545	5.e-002	9.9092
16725	12.861	3.4545	0.	2544.3
16726	12.769	3.3636	0.	2566.5
16727	12.769	3.4545	5.e-002	9.654
16728	13.046	3.4545	0.	2498.5
16729	12.953	3.3636	0.	2520.5
16730	12.953	3.4545	5.e-002	9.4402
16731	13.23	3.4545	0.	2453.
16732	13.138	3.3636	0.	2474.9
16733	13.138	3.4545	5.e-002	9.2592
16734	13.414	3.4545	0.	2407.7
16735	13.322	3.3636	0.	2429.6
16736	13.322	3.4545	5.e-002	9.1045
16737	13.598	3.4545	0.	2362.7
16738	13.506	3.3636	0.	2384.5
16739	13.506	3.4545	5.e-002	8.9711
16740	13.782	3.4545	0.	2317.7
16741	13.69	3.3636	0.	2339.6
16742	13.69	3.4545	5.e-002	8.8547
16743	13.966	3.4545	0.	2272.9
16744	13.874	3.3636	0.	2294.7
16745	13.874	3.4545	5.e-002	8.7519
16746	14.15	3.4545	0.	2228.2
16747	14.058	3.3636	0.	2250.
16748	14.058	3.4545	5.e-002	8.6603
16749	14.334	3.4545	0.	2183.5
16750	14.242	3.3636	0.	2205.3
16751	14.242	3.4545	5.e-002	8.5778
16752	14.518	3.4545	0.	2138.9
16753	14.426	3.3636	0.	2160.7
16754	14.426	3.4545	5.e-002	8.5027
16755	14.703	3.4545	0.	2094.4
16756	14.61	3.3636	0.	2116.2
16757	14.61	3.4545	5.e-002	8.4337
16758	14.887	3.4545	0.	2049.9
16759	14.795	3.3636	0.	2071.7
16760	14.795	3.4545	5.e-002	8.3697
16761	15.071	3.4545	0.	2005.5
16762	14.979	3.3636	0.	2027.3
16763	14.979	3.4545	5.e-002	8.3099
16764	15.255	3.4545	0.	1961.2
16765	15.163	3.3636	0.	1983.
16766	15.163	3.4545	5.e-002	8.2537
16767	15.439	3.4545	0.	1917.
16768	15.347	3.3636	0.	1938.8
16769	15.347	3.4545	5.e-002	8.2005
16770	15.623	3.4545	0.	1872.9
16771	15.531	3.3636	0.	1894.6
16772	15.531	3.4545	5.e-002	8.1498
16773	15.807	3.4545	0.	1828.9
16774	15.715	3.3636	0.	1850.6
16775	15.715	3.4545	5.e-002	8.1014
16776	15.991	3.4545	0.	1785.
16777	15.899	3.3636	0.	1806.6
16778	15.899	3.4545	5.e-002	8.0549
16779	16.175	3.4545	0.	1741.2
16780	16.083	3.3636	0.	1762.8
16781	16.083	3.4545	5.e-002	8.01
16782	16.359	3.4545	0.	1697.5
16783	16.267	3.3636	0.	1719.1
16784	16.267	3.4545	5.e-002	7.9667
16785	16.544	3.4545	0.	1654.
16786	16.452	3.3636	0.	1675.5
16787	16.452	3.4545	5.e-002	7.9248
16788	16.728	3.4545	0.	1610.7
16789	16.636	3.3636	0.	1632.1
16790	16.636	3.4545	5.e-002	7.8842
16791	16.912	3.4545	0.	1567.5
16792	16.82	3.3636	0.	1588.9
16793	16.82	3.4545	5.e-002	7.8446
16794	17.096	3.4545	0.	1524.4
16795	17.004	3.3636	0.	1545.8
16796	17.004	3.4545	5.e-002	7.8062
16797	17.28	3.4545	0.	1481.6
16798	17.188	3.3636	0.	1502.8
16799	17.188	3.4545	5.e-002	7.7689
16800	17.464	3.4545	0.	1438.9
16801	17.372	3.3636	0.	1460.1
16802	17.372	3.4545	5.e-002	7.7325
16803	17.648	3.4545	0.	1396.4
16804	17.556	3.3636	0.	1417.5
16805	17.556	3.4545	5.e-002	7.6971
16806	17.832	3.4545	0.	1354.1
16807	17.74	3.3636	0.	1375.1
16808	17.74	3.4545	5.e-002	7.6626
16809	18.016	3.4545	0.	1312.
16810	17.924	3.3636	0.	1332.9
16811	17.924	3.4545	5.e-002	7.629
16812	18.201	3.4545	0.	1270.2
16813	18.109	3.3636	0.	1291.
16814	18.109	3.4545	5.e-002	7.5964
16815	18.385	3.4545	0.	1228.5
16816	18.293	3.3636	0.	1249.2
16817	18.293	3.4545	5.e-002	7.5647
16818	18.569	3.4545	0.	1187.1
16819	18.477	3.3636	0.	1207.7
16820	18.477	3.4545	5.e-002	7.534
16821	18.753	3.4545	0.	1145.9
16822	18.661	3.3636	0.	1166.4
16823	18.661	3.4545	5.e-002	7.5042
16824	18.937	3.4545	0.	1105.
16825	18.845	3.3636	0.	1125.4
16826	18.845	3.4545	5.e-002	7.4755
16827	19.121	3.4545	0.	1064.4
16828	19.029	3.3636	0.	1084.6
16829	19.029	3.4545	5.e-002	7.4479
16830	19.305	3.4545	0.	1024.
16831	19.213	3.3636	0.	1044.1
16832	19.213	3.4545	5.e-002	7.4215
16833	19.489	3.4545	0.	983.85
16834	19.397	3.3636	0.	1003.9
16835	19.397	3.4545	5.e-002	7.3963
16836	19.673	3.4545	0.	944.03
16837	19.581	3.3636	0.	963.9
16838	19.581	3.4545	5.e-002	7.3723
16839	19.858	3.4545	0.	904.51
16840	19.766	3.3636	0.	924.26
16841	19.766	3.4545	5.e-002	7.3498
16842	20.042	3.4545	0.	865.31
16843	19.95	3.3636	0.	884.92
16844	19.95	3.4545	5.e-002	7.3289
16845	20.226	3.4545	0.	826.44
16846	20.134	3.3636	0.	845.91
16847	20.134	3.4545	5.e-002	7.3097
16848	20.41	3.4545	0.	787.91
16849	20.318	3.3636	0.	807.24
16850	20.318	3.4545	5.e-002	7.2924
16851	20.594	3.4545	0.	749.75
16852	20.502	3.3636	0.	768.92
16853	20.502	3.4545	5.e-002	7.2771
16854	20.778	3.4545	0.	711.97
16855	20.686	3.3636	0.	730.98
16856	20.686	3.4545	5.e-002	7.2641
16857	20.962	3.4545	0.	674.59
16858	20.87	3.3636	0.	693.43
16859	20.87	3.4545	5.e-002	7.2537
16860	21.146	3.4545	0.	637.64
16861	21.054	3.3636	0.	656.29
16862	21.054	3.4545	5.e-002	7.2462
16863	21.33	3.4545	0.	601.13
16864	21.238	3.3636	0.	619.6
16865	21.238	3.4545	5.e-002	7.2419
16866	21.515	3.4545	0.	565.1
16867	21.422	3.3636	0.	583.37
16868	21.422	3.4545	5.e-002	7.2413
16869	21.699	3.4545	0.	529.59
16870	21.607	3.3636	0.	547.64
16871	21.607	3.4545	5.e-002	7.2446
16872	21.883	3.4545	0.	494.64
16873	21.791	3.3636	0.	512.44
16874	21.791	3.4545	5.e-002	7.2526
16875	22.067	3.4545	0.	460.3
16876	21.975	3.3636	0.	477.83
16877	21.975	3.4545	5.e-002	7.2656
16878	22.251	3.4545	0.	426.64
16879	22.159	3.3636	0.	443.87
16880	22.159	3.4545	5.e-002	7.2843
16881	22.435	3.4545	0.	393.75
16882	22.343	3.3636	0.	410.63
16883	22.343	3.4545	5.e-002	7.3093
16884	22.619	3.4545	0.	361.75
16885	22.527	3.3636	0.	378.21
16886	22.527	3.4545	5.e-002	7.3411
16887	22.803	3.4545	0.	330.81
16888	22.711	3.3636	0.	346.77
16889	22.711	3.4545	5.e-002	7.3802
16890	22.987	3.4545	0.	301.17
16891	22.895	3.3636	0.	316.49
16892	22.895	3.4545	5.e-002	7.4271
16893	23.172	3.4545	0.	273.16
16894	23.079	3.3636	0.	287.66
16895	23.079	3.4545	5.e-002	7.482
16896	23.356	3.4545	0.	247.26
16897	23.264	3.3636	0.	260.68
16898	23.264	3.4545	5.e-002	7.5451
16899	23.54	3.4545	0.	224.15
16900	23.448	3.3636	0.	236.11
16901	23.448	3.4545	5.e-002	7.6159
16902	23.724	3.4545	0.	204.73
16903	23.632	3.3636	0.	214.76
16904	23.632	3.4545	5.e-002	7.6946
16905	23.816	3.3636	0.	197.64
16906	23.816	3.4545	5.e-002	7.7963
16907	23.908	3.4545	0.	190.86
16908	8.4428	3.2727	0.	8533.8
16909	8.3508	3.1818	0.	8899.1
16910	8.3508	3.2727	5.e-002	93.604
16911	8.6269	3.2727	0.	7572.6
16912	8.5349	3.1818	0.	8023.
16913	8.5349	3.2727	5.e-002	117.86
16914	8.811	3.2727	0.	6651.6
16915	8.719	3.1818	0.	7087.
16916	8.719	3.2727	5.e-002	115.88
16917	8.9952	3.2727	0.	5873.4
16918	8.9031	3.1818	0.	6247.7
16919	8.9031	3.2727	5.e-002	102.35
16920	9.1793	3.2727	0.	5251.3
16921	9.0872	3.1818	0.	5555.1
16922	9.0872	3.2727	5.e-002	86.616
16923	9.3634	3.2727	0.	4763.5
16924	9.2713	3.1818	0.	5004.
16925	9.2713	3.2727	5.e-002	72.096
16926	9.5475	3.2727	0.	4382.3
16927	9.4554	3.1818	0.	4571.1
16928	9.4554	3.2727	5.e-002	59.763
16929	9.7316	3.2727	0.	4082.7
16930	9.6395	3.1818	0.	4231.1
16931	9.6395	3.2727	5.e-002	49.648
16932	9.9157	3.2727	0.	3844.9
16933	9.8236	3.1818	0.	3962.4
16934	9.8236	3.2727	5.e-002	41.485
16935	10.1	3.2727	0.	3654.
16936	10.008	3.1818	0.	3748.
16937	10.008	3.2727	5.e-002	34.947
16938	10.284	3.2727	0.	3498.5
16939	10.192	3.1818	0.	3574.7
16940	10.192	3.2727	5.e-002	29.728
16941	10.468	3.2727	0.	3369.9
16942	10.376	3.1818	0.	3432.6
16943	10.376	3.2727	5.e-002	25.566
16944	10.652	3.2727	0.	3261.8
16945	10.56	3.1818	0.	3314.2
16946	10.56	3.2727	5.e-002	22.247
16947	10.836	3.2727	0.	3169.2
16948	10.744	3.1818	0.	3213.9
16949	10.744	3.2727	5.e-002	19.597
16950	11.02	3.2727	0.	3088.4
16951	10.928	3.1818	0.	3127.3
16952	10.928	3.2727	5.e-002	17.478
16953	11.204	3.2727	0.	3016.6
16954	11.112	3.1818	0.	3051.1
16955	11.112	3.2727	5.e-002	15.782
16956	11.389	3.2727	0.	2951.7
16957	11.297	3.1818	0.	2982.9
16958	11.297	3.2727	5.e-002	14.42
16959	11.573	3.2727	0.	2892.
16960	11.481	3.1818	0.	2920.7
16961	11.481	3.2727	5.e-002	13.326
16962	11.757	3.2727	0.	2836.2
16963	11.665	3.1818	0.	2863.
16964	11.665	3.2727	5.e-002	12.443
16965	11.941	3.2727	0.	2783.3
16966	11.849	3.1818	0.	2808.8
16967	11.849	3.2727	5.e-002	11.728
16968	12.125	3.2727	0.	2732.6
16969	12.033	3.1818	0.	2757.1
16970	12.033	3.2727	5.e-002	11.148
16971	12.309	3.2727	0.	2683.6
16972	12.217	3.1818	0.	2707.4
16973	12.217	3.2727	5.e-002	10.675
16974	12.493	3.2727	0.	2635.8
16975	12.401	3.1818	0.	2659.1
16976	12.401	3.2727	5.e-002	10.287
16977	12.677	3.2727	0.	2589.
16978	12.585	3.1818	0.	2611.8
16979	12.585	3.2727	5.e-002	9.9667
16980	12.861	3.2727	0.	2542.7
16981	12.769	3.1818	0.	2565.3
16982	12.769	3.2727	5.e-002	9.7005
16983	13.046	3.2727	0.	2497.
16984	12.953	3.1818	0.	2519.4
16985	12.953	3.2727	5.e-002	9.4778
16986	13.23	3.2727	0.	2451.6
16987	13.138	3.1818	0.	2473.8
16988	13.138	3.2727	5.e-002	9.2895
16989	13.414	3.2727	0.	2406.4
16990	13.322	3.1818	0.	2428.6
16991	13.322	3.2727	5.e-002	9.129
16992	13.598	3.2727	0.	2361.4
16993	13.506	3.1818	0.	2383.6
16994	13.506	3.2727	5.e-002	8.9909
16995	13.782	3.2727	0.	2316.6
16996	13.69	3.1818	0.	2338.7
16997	13.69	3.2727	5.e-002	8.8706
16998	13.966	3.2727	0.	2271.8
16999	13.874	3.1818	0.	2293.9
17000	13.874	3.2727	5.e-002	8.7648
17001	14.15	3.2727	0.	2227.2
17002	14.058	3.1818	0.	2249.2
17003	14.058	3.2727	5.e-002	8.6708
17004	14.334	3.2727	0.	2182.6
17005	14.242	3.1818	0.	2204.6
17006	14.242	3.2727	5.e-002	8.5864
17007	14.518	3.2727	0.	2138.1
17008	14.426	3.1818	0.	2160.1
17009	14.426	3.2727	5.e-002	8.5096
17010	14.703	3.2727	0.	2093.6
17011	14.61	3.1818	0.	2115.6
17012	14.61	3.2727	5.e-002	8.4394
17013	14.887	3.2727	0.	2049.2
17014	14.795	3.1818	0.	2071.2
17015	14.795	3.2727	5.e-002	8.3744
17016	15.071	3.2727	0.	2004.9
17017	14.979	3.1818	0.	2026.8
17018	14.979	3.2727	5.e-002	8.3138
17019	15.255	3.2727	0.	1960.6
17020	15.163	3.1818	0.	1982.5
17021	15.163	3.2727	5.e-002	8.257
17022	15.439	3.2727	0.	1916.4
17023	15.347	3.1818	0.	1938.3
17024	15.347	3.2727	5.e-002	8.2033
17025	15.623	3.2727	0.	1872.3
17026	15.531	3.1818	0.	1894.2
17027	15.531	3.2727	5.e-002	8.1522
17028	15.807	3.2727	0.	1828.4
17029	15.715	3.1818	0.	1850.2
17030	15.715	3.2727	5.e-002	8.1034
17031	15.991	3.2727	0.	1784.5
17032	15.899	3.1818	0.	1806.3
17033	15.899	3.2727	5.e-002	8.0566
17034	16.175	3.2727	0.	1740.8
17035	16.083	3.1818	0.	1762.5
17036	16.083	3.2727	5.e-002	8.0116
17037	16.359	3.2727	0.	1697.1
17038	16.267	3.1818	0.	1718.8
17039	16.267	3.2727	5.e-002	7.9681
17040	16.544	3.2727	0.	1653.7
17041	16.452	3.1818	0.	1675.3
17042	16.452	3.2727	5.e-002	7.926
17043	16.728	3.2727	0.	1610.3
17044	16.636	3.1818	0.	1631.9
17045	16.636	3.2727	5.e-002	7.8853
17046	16.912	3.2727	0.	1567.2
17047	16.82	3.1818	0.	1588.6
17048	16.82	3.2727	5.e-002	7.8457
17049	17.096	3.2727	0.	1524.2
17050	17.004	3.1818	0.	1545.5
17051	17.004	3.2727	5.e-002	7.8072
17052	17.28	3.2727	0.	1481.3
17053	17.188	3.1818	0.	1502.6
17054	17.188	3.2727	5.e-002	7.7698
17055	17.464	3.2727	0.	1438.7
17056	17.372	3.1818	0.	1459.9
17057	17.372	3.2727	5.e-002	7.7334
17058	17.648	3.2727	0.	1396.2
17059	17.556	3.1818	0.	1417.3
17060	17.556	3.2727	5.e-002	7.6979
17061	17.832	3.2727	0.	1353.9
17062	17.74	3.1818	0.	1375.
17063	17.74	3.2727	5.e-002	7.6634
17064	18.016	3.2727	0.	1311.9
17065	17.924	3.1818	0.	1332.8
17066	17.924	3.2727	5.e-002	7.6298
17067	18.201	3.2727	0.	1270.
17068	18.109	3.1818	0.	1290.9
17069	18.109	3.2727	5.e-002	7.5972
17070	18.385	3.2727	0.	1228.4
17071	18.293	3.1818	0.	1249.1
17072	18.293	3.2727	5.e-002	7.5655
17073	18.569	3.2727	0.	1187.
17074	18.477	3.1818	0.	1207.6
17075	18.477	3.2727	5.e-002	7.5347
17076	18.753	3.2727	0.	1145.9
17077	18.661	3.1818	0.	1166.4
17078	18.661	3.2727	5.e-002	7.505
17079	18.937	3.2727	0.	1105.
17080	18.845	3.1818	0.	1125.4
17081	18.845	3.2727	5.e-002	7.4764
17082	19.121	3.2727	0.	1064.4
17083	19.029	3.1818	0.	1084.6
17084	19.029	3.2727	5.e-002	7.4488
17085	19.305	3.2727	0.	1024.
17086	19.213	3.1818	0.	1044.1
17087	19.213	3.2727	5.e-002	7.4223
17088	19.489	3.2727	0.	983.96
17089	19.397	3.1818	0.	1003.9
17090	19.397	3.2727	5.e-002	7.3972
17091	19.673	3.2727	0.	944.18
17092	19.581	3.1818	0.	964.01
17093	19.581	3.2727	5.e-002	7.3733
17094	19.858	3.2727	0.	904.71
17095	19.766	3.1818	0.	924.39
17096	19.766	3.2727	5.e-002	7.3509
17097	20.042	3.2727	0.	865.56
17098	19.95	3.1818	0.	885.09
17099	19.95	3.2727	5.e-002	7.3301
17100	20.226	3.2727	0.	826.75
17101	20.134	3.1818	0.	846.12
17102	20.134	3.2727	5.e-002	7.311
17103	20.41	3.2727	0.	788.28
17104	20.318	3.1818	0.	807.49
17105	20.318	3.2727	5.e-002	7.2938
17106	20.594	3.2727	0.	750.19
17107	20.502	3.1818	0.	769.22
17108	20.502	3.2727	5.e-002	7.2787
17109	20.778	3.2727	0.	712.47
17110	20.686	3.1818	0.	731.33
17111	20.686	3.2727	5.e-002	7.2659
17112	20.962	3.2727	0.	675.16
17113	20.87	3.1818	0.	693.83
17114	20.87	3.2727	5.e-002	7.2558
17115	21.146	3.2727	0.	638.28
17116	21.054	3.1818	0.	656.75
17117	21.054	3.2727	5.e-002	7.2485
17118	21.33	3.2727	0.	601.85
17119	21.238	3.1818	0.	620.11
17120	21.238	3.2727	5.e-002	7.2446
17121	21.515	3.2727	0.	565.91
17122	21.422	3.1818	0.	583.94
17123	21.422	3.2727	5.e-002	7.2443
17124	21.699	3.2727	0.	530.48
17125	21.607	3.1818	0.	548.27
17126	21.607	3.2727	5.e-002	7.2481
17127	21.883	3.2727	0.	495.62
17128	21.791	3.1818	0.	513.14
17129	21.791	3.2727	5.e-002	7.2565
17130	22.067	3.2727	0.	461.36
17131	21.975	3.1818	0.	478.6
17132	21.975	3.2727	5.e-002	7.27
17133	22.251	3.2727	0.	427.79
17134	22.159	3.1818	0.	444.7
17135	22.159	3.2727	5.e-002	7.2892
17136	22.435	3.2727	0.	394.99
17137	22.343	3.1818	0.	411.53
17138	22.343	3.2727	5.e-002	7.3146
17139	22.619	3.2727	0.	363.08
17140	22.527	3.1818	0.	379.18
17141	22.527	3.2727	5.e-002	7.3467
17142	22.803	3.2727	0.	332.23
17143	22.711	3.1818	0.	347.8
17144	22.711	3.2727	5.e-002	7.3861
17145	22.987	3.2727	0.	302.67
17146	22.895	3.1818	0.	317.58
17147	22.895	3.2727	5.e-002	7.4329
17148	23.172	3.2727	0.	274.74
17149	23.079	3.1818	0.	288.81
17150	23.079	3.2727	5.e-002	7.4876
17151	23.356	3.2727	0.	248.92
17152	23.264	3.1818	0.	261.89
17153	23.264	3.2727	5.e-002	7.55
17154	23.54	3.2727	0.	225.88
17155	23.448	3.1818	0.	237.38
17156	23.448	3.2727	5.e-002	7.6197
17157	23.724	3.2727	0.	206.52
17158	23.632	3.1818	0.	216.08
17159	23.632	3.2727	5.e-002	7.6965
17160	23.816	3.1818	0.	198.99
17161	23.816	3.2727	5.e-002	7.7905
17162	23.908	3.2727	0.	192.71
17163	8.4428	3.0909	0.	8398.6
17164	8.3508	3.	0.	8797.5
17165	8.3508	3.0909	5.e-002	73.453
17166	8.6269	3.0909	0.	7551.1
17167	8.5349	3.	0.	7989.9
17168	8.5349	3.0909	5.e-002	99.22
17169	8.811	3.0909	0.	6694.6
17170	8.719	3.	0.	7099.6
17171	8.719	3.0909	5.e-002	105.48
17172	8.9952	3.0909	0.	5937.1
17173	8.9031	3.	0.	6278.4
17174	8.9031	3.0909	5.e-002	98.742
17175	9.1793	3.0909	0.	5312.6
17176	9.0872	3.	0.	5587.8
17177	9.0872	3.0909	5.e-002	86.439
17178	9.3634	3.0909	0.	4814.3
17179	9.2713	3.	0.	5032.2
17180	9.2713	3.0909	5.e-002	73.19
17181	9.5475	3.0909	0.	4421.4
17182	9.4554	3.	0.	4593.3
17183	9.4554	3.0909	5.e-002	61.101
17184	9.7316	3.0909	0.	4111.7
17185	9.6395	3.	0.	4247.8
17186	9.6395	3.0909	5.e-002	50.849
17187	9.9157	3.0909	0.	3865.9
17188	9.8236	3.	0.	3974.7
17189	9.8236	3.0909	5.e-002	42.455
17190	10.1	3.0909	0.	3668.9
17191	10.008	3.	0.	3756.8
17192	10.008	3.0909	5.e-002	35.698
17193	10.284	3.0909	0.	3508.9
17194	10.192	3.	0.	3580.9
17195	10.192	3.0909	5.e-002	30.3
17196	10.468	3.0909	0.	3377.
17197	10.376	3.	0.	3436.8
17198	10.376	3.0909	5.e-002	26.002
17199	10.652	3.0909	0.	3266.4
17200	10.56	3.	0.	3317.1
17201	10.56	3.0909	5.e-002	22.581
17202	10.836	3.0909	0.	3172.1
17203	10.744	3.	0.	3215.7
17204	10.744	3.0909	5.e-002	19.855
17205	11.02	3.0909	0.	3090.
17206	10.928	3.	0.	3128.4
17207	10.928	3.0909	5.e-002	17.68
17208	11.204	3.0909	0.	3017.4
17209	11.112	3.	0.	3051.7
17210	11.112	3.0909	5.e-002	15.941
17211	11.389	3.0909	0.	2951.9
17212	11.297	3.	0.	2983.1
17213	11.297	3.0909	5.e-002	14.547
17214	11.573	3.0909	0.	2891.7
17215	11.481	3.	0.	2920.7
17216	11.481	3.0909	5.e-002	13.428
17217	11.757	3.0909	0.	2835.6
17218	11.665	3.	0.	2862.8
17219	11.665	3.0909	5.e-002	12.525
17220	11.941	3.0909	0.	2782.6
17221	11.849	3.	0.	2808.5
17222	11.849	3.0909	5.e-002	11.795
17223	12.125	3.0909	0.	2731.9
17224	12.033	3.	0.	2756.7
17225	12.033	3.0909	5.e-002	11.202
17226	12.309	3.0909	0.	2682.8
17227	12.217	3.	0.	2707.
17228	12.217	3.0909	5.e-002	10.719
17229	12.493	3.0909	0.	2635.
17230	12.401	3.	0.	2658.6
17231	12.401	3.0909	5.e-002	10.323
17232	12.677	3.0909	0.	2588.1
17233	12.585	3.	0.	2611.4
17234	12.585	3.0909	5.e-002	9.9956
17235	12.861	3.0909	0.	2541.9
17236	12.769	3.	0.	2564.9
17237	12.769	3.0909	5.e-002	9.7239
17238	13.046	3.0909	0.	2496.2
17239	12.953	3.	0.	2519.
17240	12.953	3.0909	5.e-002	9.4967
17241	13.23	3.0909	0.	2450.8
17242	13.138	3.	0.	2473.5
17243	13.138	3.0909	5.e-002	9.3048
17244	13.414	3.0909	0.	2405.7
17245	13.322	3.	0.	2428.2
17246	13.322	3.0909	5.e-002	9.1414
17247	13.598	3.0909	0.	2360.8
17248	13.506	3.	0.	2383.2
17249	13.506	3.0909	5.e-002	9.0009
17250	13.782	3.0909	0.	2316.
17251	13.69	3.	0.	2338.4
17252	13.69	3.0909	5.e-002	8.8787
17253	13.966	3.0909	0.	2271.3
17254	13.874	3.	0.	2293.6
17255	13.874	3.0909	5.e-002	8.7714
17256	14.15	3.0909	0.	2226.7
17257	14.058	3.	0.	2249.
17258	14.058	3.0909	5.e-002	8.6761
17259	14.334	3.0909	0.	2182.1
17260	14.242	3.	0.	2204.4
17261	14.242	3.0909	5.e-002	8.5907
17262	14.518	3.0909	0.	2137.6
17263	14.426	3.	0.	2159.9
17264	14.426	3.0909	5.e-002	8.5132
17265	14.703	3.0909	0.	2093.2
17266	14.61	3.	0.	2115.4
17267	14.61	3.0909	5.e-002	8.4423
17268	14.887	3.0909	0.	2048.8
17269	14.795	3.	0.	2071.
17270	14.795	3.0909	5.e-002	8.3768
17271	15.071	3.0909	0.	2004.5
17272	14.979	3.	0.	2026.6
17273	14.979	3.0909	5.e-002	8.3158
17274	15.255	3.0909	0.	1960.3
17275	15.163	3.	0.	1982.4
17276	15.163	3.0909	5.e-002	8.2587
17277	15.439	3.0909	0.	1916.1
17278	15.347	3.	0.	1938.2
17279	15.347	3.0909	5.e-002	8.2047
17280	15.623	3.0909	0.	1872.1
17281	15.531	3.	0.	1894.1
17282	15.531	3.0909	5.e-002	8.1534
17283	15.807	3.0909	0.	1828.1
17284	15.715	3.	0.	1850.1
17285	15.715	3.0909	5.e-002	8.1045
17286	15.991	3.0909	0.	1784.3
17287	15.899	3.	0.	1806.1
17288	15.899	3.0909	5.e-002	8.0575
17289	16.175	3.0909	0.	1740.5
17290	16.083	3.	0.	1762.4
17291	16.083	3.0909	5.e-002	8.0124
17292	16.359	3.0909	0.	1696.9
17293	16.267	3.	0.	1718.7
17294	16.267	3.0909	5.e-002	7.9688
17295	16.544	3.0909	0.	1653.5
17296	16.452	3.	0.	1675.2
17297	16.452	3.0909	5.e-002	7.9267
17298	16.728	3.0909	0.	1610.2
17299	16.636	3.	0.	1631.8
17300	16.636	3.0909	5.e-002	7.8859
17301	16.912	3.0909	0.	1567.
17302	16.82	3.	0.	1588.5
17303	16.82	3.0909	5.e-002	7.8462
17304	17.096	3.0909	0.	1524.
17305	17.004	3.	0.	1545.5
17306	17.004	3.0909	5.e-002	7.8077
17307	17.28	3.0909	0.	1481.2
17308	17.188	3.	0.	1502.5
17309	17.188	3.0909	5.e-002	7.7703
17310	17.464	3.0909	0.	1438.6
17311	17.372	3.	0.	1459.8
17312	17.372	3.0909	5.e-002	7.7338
17313	17.648	3.0909	0.	1396.1
17314	17.556	3.	0.	1417.3
17315	17.556	3.0909	5.e-002	7.6983
17316	17.832	3.0909	0.	1353.9
17317	17.74	3.	0.	1374.9
17318	17.74	3.0909	5.e-002	7.6638
17319	18.016	3.0909	0.	1311.8
17320	17.924	3.	0.	1332.8
17321	17.924	3.0909	5.e-002	7.6302
17322	18.201	3.0909	0.	1270.
17323	18.109	3.	0.	1290.8
17324	18.109	3.0909	5.e-002	7.5976
17325	18.385	3.0909	0.	1228.4
17326	18.293	3.	0.	1249.1
17327	18.293	3.0909	5.e-002	7.5659
17328	18.569	3.0909	0.	1187.
17329	18.477	3.	0.	1207.6
17330	18.477	3.0909	5.e-002	7.5351
17331	18.753	3.0909	0.	1145.9
17332	18.661	3.	0.	1166.4
17333	18.661	3.0909	5.e-002	7.5054
17334	18.937	3.0909	0.	1105.
17335	18.845	3.	0.	1125.4
17336	18.845	3.0909	5.e-002	7.4768
17337	19.121	3.0909	0.	1064.4
17338	19.029	3.	0.	1084.6
17339	19.029	3.0909	5.e-002	7.4492
17340	19.305	3.0909	0.	1024.1
17341	19.213	3.	0.	1044.1
17342	19.213	3.0909	5.e-002	7.4228
17343	19.489	3.0909	0.	984.02
17344	19.397	3.	0.	1003.9
17345	19.397	3.0909	5.e-002	7.3976
17346	19.673	3.0909	0.	944.26
17347	19.581	3.	0.	964.04
17348	19.581	3.0909	5.e-002	7.3738
17349	19.858	3.0909	0.	904.82
17350	19.766	3.	0.	924.44
17351	19.766	3.0909	5.e-002	7.3514
17352	20.042	3.0909	0.	865.69
17353	19.95	3.	0.	885.15
17354	19.95	3.0909	5.e-002	7.3307
17355	20.226	3.0909	0.	826.91
17356	20.134	3.	0.	846.19
17357	20.134	3.0909	5.e-002	7.3116
17358	20.41	3.0909	0.	788.47
17359	20.318	3.	0.	807.58
17360	20.318	3.0909	5.e-002	7.2945
17361	20.594	3.0909	0.	750.4
17362	20.502	3.	0.	769.32
17363	20.502	3.0909	5.e-002	7.2795
17364	20.778	3.0909	0.	712.72
17365	20.686	3.	0.	731.45
17366	20.686	3.0909	5.e-002	7.2668
17367	20.962	3.0909	0.	675.45
17368	20.87	3.	0.	693.97
17369	20.87	3.0909	5.e-002	7.2568
17370	21.146	3.0909	0.	638.61
17371	21.054	3.	0.	656.91
17372	21.054	3.0909	5.e-002	7.2497
17373	21.33	3.0909	0.	602.22
17374	21.238	3.	0.	620.29
17375	21.238	3.0909	5.e-002	7.2459
17376	21.515	3.0909	0.	566.32
17377	21.422	3.	0.	584.14
17378	21.422	3.0909	5.e-002	7.2458
17379	21.699	3.0909	0.	530.93
17380	21.607	3.	0.	548.49
17381	21.607	3.0909	5.e-002	7.2498
17382	21.883	3.0909	0.	496.11
17383	21.791	3.	0.	513.38
17384	21.791	3.0909	5.e-002	7.2584
17385	22.067	3.0909	0.	461.9
17386	21.975	3.	0.	478.86
17387	21.975	3.0909	5.e-002	7.2722
17388	22.251	3.0909	0.	428.37
17389	22.159	3.	0.	444.98
17390	22.159	3.0909	5.e-002	7.2916
17391	22.435	3.0909	0.	395.61
17392	22.343	3.	0.	411.83
17393	22.343	3.0909	5.e-002	7.3172
17394	22.619	3.0909	0.	363.75
17395	22.527	3.	0.	379.5
17396	22.527	3.0909	5.e-002	7.3495
17397	22.803	3.0909	0.	332.94
17398	22.711	3.	0.	348.14
17399	22.711	3.0909	5.e-002	7.389
17400	22.987	3.0909	0.	303.42
17401	22.895	3.	0.	317.95
17402	22.895	3.0909	5.e-002	7.4358
17403	23.172	3.0909	0.	275.53
17404	23.079	3.	0.	289.2
17405	23.079	3.0909	5.e-002	7.4903
17406	23.356	3.0909	0.	249.75
17407	23.264	3.	0.	262.3
17408	23.264	3.0909	5.e-002	7.5524
17409	23.54	3.0909	0.	226.75
17410	23.448	3.	0.	237.81
17411	23.448	3.0909	5.e-002	7.6215
17412	23.724	3.0909	0.	207.41
17413	23.632	3.	0.	216.52
17414	23.632	3.0909	5.e-002	7.6974
17415	23.816	3.	0.	199.44
17416	23.816	3.0909	5.e-002	7.7876
17417	23.908	3.0909	0.	193.63
17418	8.4428	2.9091	0.	8398.6
17419	8.3508	2.8182	0.	8899.1
17420	8.3508	2.9091	5.e-002	73.453
17421	8.6269	2.9091	0.	7551.1
17422	8.5349	2.8182	0.	8023.
17423	8.5349	2.9091	5.e-002	99.22
17424	8.811	2.9091	0.	6694.6
17425	8.719	2.8182	0.	7087.
17426	8.719	2.9091	5.e-002	105.48
17427	8.9952	2.9091	0.	5937.1
17428	8.9031	2.8182	0.	6247.7
17429	8.9031	2.9091	5.e-002	98.742
17430	9.1793	2.9091	0.	5312.6
17431	9.0872	2.8182	0.	5555.1
17432	9.0872	2.9091	5.e-002	86.439
17433	9.3634	2.9091	0.	4814.3
17434	9.2713	2.8182	0.	5004.
17435	9.2713	2.9091	5.e-002	73.19
17436	9.5475	2.9091	0.	4421.4
17437	9.4554	2.8182	0.	4571.1
17438	9.4554	2.9091	5.e-002	61.101
17439	9.7316	2.9091	0.	4111.7
17440	9.6395	2.8182	0.	4231.1
17441	9.6395	2.9091	5.e-002	50.849
17442	9.9157	2.9091	0.	3865.9
17443	9.8236	2.8182	0.	3962.4
17444	9.8236	2.9091	5.e-002	42.455
17445	10.1	2.9091	0.	3668.9
17446	10.008	2.8182	0.	3748.
17447	10.008	2.9091	5.e-002	35.698
17448	10.284	2.9091	0.	3508.9
17449	10.192	2.8182	0.	3574.7
17450	10.192	2.9091	5.e-002	30.3
17451	10.468	2.9091	0.	3377.
17452	10.376	2.8182	0.	3432.6
17453	10.376	2.9091	5.e-002	26.002
17454	10.652	2.9091	0.	3266.4
17455	10.56	2.8182	0.	3314.2
17456	10.56	2.9091	5.e-002	22.581
17457	10.836	2.9091	0.	3172.1
17458	10.744	2.8182	0.	3213.9
17459	10.744	2.9091	5.e-002	19.855
17460	11.02	2.9091	0.	3090.
17461	10.928	2.8182	0.	3127.3
17462	10.928	2.9091	5.e-002	17.68
17463	11.204	2.9091	0.	3017.4
17464	11.112	2.8182	0.	3051.1
17465	11.112	2.9091	5.e-002	15.941
17466	11.389	2.9091	0.	2951.9
17467	11.297	2.8182	0.	2982.9
17468	11.297	2.9091	5.e-002	14.547
17469	11.573	2.9091	0.	2891.7
17470	11.481	2.8182	0.	2920.7
17471	11.481	2.9091	5.e-002	13.428
17472	11.757	2.9091	0.	2835.6
17473	11.665	2.8182	0.	2863.
17474	11.665	2.9091	5.e-002	12.525
17475	11.941	2.9091	0.	2782.6
17476	11.849	2.8182	0.	2808.8
17477	11.849	2.9091	5.e-002	11.795
17478	12.125	2.9091	0.	2731.9
17479	12.033	2.8182	0.	2757.1
17480	12.033	2.9091	5.e-002	11.202
17481	12.309	2.9091	0.	2682.8
17482	12.217	2.8182	0.	2707.4
17483	12.217	2.9091	5.e-002	10.719
17484	12.493	2.9091	0.	2635.
17485	12.401	2.8182	0.	2659.1
17486	12.401	2.9091	5.e-002	10.323
17487	12.677	2.9091	0.	2588.1
17488	12.585	2.8182	0.	2611.8
17489	12.585	2.9091	5.e-002	9.9956
17490	12.861	2.9091	0.	2541.9
17491	12.769	2.8182	0.	2565.3
17492	12.769	2.9091	5.e-002	9.7239
17493	13.046	2.9091	0.	2496.2
17494	12.953	2.8182	0.	2519.4
17495	12.953	2.9091	5.e-002	9.4967
17496	13.23	2.9091	0.	2450.8
17497	13.138	2.8182	0.	2473.8
17498	13.138	2.9091	5.e-002	9.3048
17499	13.414	2.9091	0.	2405.7
17500	13.322	2.8182	0.	2428.6
17501	13.322	2.9091	5.e-002	9.1414
17502	13.598	2.9091	0.	2360.8
17503	13.506	2.8182	0.	2383.6
17504	13.506	2.9091	5.e-002	9.0009
17505	13.782	2.9091	0.	2316.
17506	13.69	2.8182	0.	2338.7
17507	13.69	2.9091	5.e-002	8.8787
17508	13.966	2.9091	0.	2271.3
17509	13.874	2.8182	0.	2293.9
17510	13.874	2.9091	5.e-002	8.7714
17511	14.15	2.9091	0.	2226.7
17512	14.058	2.8182	0.	2249.2
17513	14.058	2.9091	5.e-002	8.6761
17514	14.334	2.9091	0.	2182.1
17515	14.242	2.8182	0.	2204.6
17516	14.242	2.9091	5.e-002	8.5907
17517	14.518	2.9091	0.	2137.6
17518	14.426	2.8182	0.	2160.1
17519	14.426	2.9091	5.e-002	8.5132
17520	14.703	2.9091	0.	2093.2
17521	14.61	2.8182	0.	2115.6
17522	14.61	2.9091	5.e-002	8.4423
17523	14.887	2.9091	0.	2048.8
17524	14.795	2.8182	0.	2071.2
17525	14.795	2.9091	5.e-002	8.3768
17526	15.071	2.9091	0.	2004.5
17527	14.979	2.8182	0.	2026.8
17528	14.979	2.9091	5.e-002	8.3158
17529	15.255	2.9091	0.	1960.3
17530	15.163	2.8182	0.	1982.5
17531	15.163	2.9091	5.e-002	8.2587
17532	15.439	2.9091	0.	1916.1
17533	15.347	2.8182	0.	1938.3
17534	15.347	2.9091	5.e-002	8.2047
17535	15.623	2.9091	0.	1872.1
17536	15.531	2.8182	0.	1894.2
17537	15.531	2.9091	5.e-002	8.1534
17538	15.807	2.9091	0.	1828.1
17539	15.715	2.8182	0.	1850.2
17540	15.715	2.9091	5.e-002	8.1045
17541	15.991	2.9091	0.	1784.3
17542	15.899	2.8182	0.	1806.3
17543	15.899	2.9091	5.e-002	8.0575
17544	16.175	2.9091	0.	1740.5
17545	16.083	2.8182	0.	1762.5
17546	16.083	2.9091	5.e-002	8.0124
17547	16.359	2.9091	0.	1696.9
17548	16.267	2.8182	0.	1718.8
17549	16.267	2.9091	5.e-002	7.9688
17550	16.544	2.9091	0.	1653.5
17551	16.452	2.8182	0.	1675.3
17552	16.452	2.9091	5.e-002	7.9267
17553	16.728	2.9091	0.	1610.2
17554	16.636	2.8182	0.	1631.9
17555	16.636	2.9091	5.e-002	7.8859
17556	16.912	2.9091	0.	1567.
17557	16.82	2.8182	0.	1588.6
17558	16.82	2.9091	5.e-002	7.8462
17559	17.096	2.9091	0.	1524.
17560	17.004	2.8182	0.	1545.5
17561	17.004	2.9091	5.e-002	7.8077
17562	17.28	2.9091	0.	1481.2
17563	17.188	2.8182	0.	1502.6
17564	17.188	2.9091	5.e-002	7.7703
17565	17.464	2.9091	0.	1438.6
17566	17.372	2.8182	0.	1459.9
17567	17.372	2.9091	5.e-002	7.7338
17568	17.648	2.9091	0.	1396.1
17569	17.556	2.8182	0.	1417.3
17570	17.556	2.9091	5.e-002	7.6983
17571	17.832	2.9091	0.	1353.9
17572	17.74	2.8182	0.	1375.
17573	17.74	2.9091	5.e-002	7.6638
17574	18.016	2.9091	0.	1311.8
17575	17.924	2.8182	0.	1332.8
17576	17.924	2.9091	5.e-002	7.6302
17577	18.201	2.9091	0.	1270.
17578	18.109	2.8182	0.	1290.9
17579	18.109	2.9091	5.e-002	7.5976
17580	18.385	2.9091	0.	1228.4
17581	18.293	2.8182	0.	1249.1
17582	18.293	2.9091	5.e-002	7.5659
17583	18.569	2.9091	0.	1187.
17584	18.477	2.8182	0.	1207.6
17585	18.477	2.9091	5.e-002	7.5351
17586	18.753	2.9091	0.	1145.9
17587	18.661	2.8182	0.	1166.4
17588	18.661	2.9091	5.e-002	7.5054
17589	18.937	2.9091	0.	1105.
17590	18.845	2.8182	0.	1125.4
17591	18.845	2.9091	5.e-002	7.4768
17592	19.121	2.9091	0.	1064.4
17593	19.029	2.8182	0.	1084.6
17594	19.029	2.9091	5.e-002	7.4492
17595	19.305	2.9091	0.	1024.1
17596	19.213	2.8182	0.	1044.1
17597	19.213	2.9091	5.e-002	7.4228
17598	19.489	2.9091	0.	984.02
17599	19.397	2.8182	0.	1003.9
17600	19.397	2.9091	5.e-002	7.3976
17601	19.673	2.9091	0.	944.26
17602	19.581	2.8182	0.	964.01
17603	19.581	2.9091	5.e-002	7.3738
17604	19.858	2.9091	0.	904.82
17605	19.766	2.8182	0.	924.39
17606	19.766	2.9091	5.e-002	7.3514
17607	20.042	2.9091	0.	865.69
17608	19.95	2.8182	0.	885.09
17609	19.95	2.9091	5.e-002	7.3307
17610	20.226	2.9091	0.	826.91
17611	20.134	2.8182	0.	846.12
17612	20.134	2.9091	5.e-002	7.3116
17613	20.41	2.9091	0.	788.47
17614	20.318	2.8182	0.	807.49
17615	20.318	2.9091	5.e-002	7.2945
17616	20.594	2.9091	0.	750.4
17617	20.502	2.8182	0.	769.22
17618	20.502	2.9091	5.e-002	7.2795
17619	20.778	2.9091	0.	712.72
17620	20.686	2.8182	0.	731.33
17621	20.686	2.9091	5.e-002	7.2668
17622	20.962	2.9091	0.	675.45
17623	20.87	2.8182	0.	693.83
17624	20.87	2.9091	5.e-002	7.2568
17625	21.146	2.9091	0.	638.61
17626	21.054	2.8182	0.	656.75
17627	21.054	2.9091	5.e-002	7.2497
17628	21.33	2.9091	0.	602.22
17629	21.238	2.8182	0.	620.11
17630	21.238	2.9091	5.e-002	7.2459
17631	21.515	2.9091	0.	566.32
17632	21.422	2.8182	0.	583.94
17633	21.422	2.9091	5.e-002	7.2458
17634	21.699	2.9091	0.	530.93
17635	21.607	2.8182	0.	548.27
17636	21.607	2.9091	5.e-002	7.2498
17637	21.883	2.9091	0.	496.11
17638	21.791	2.8182	0.	513.14
17639	21.791	2.9091	5.e-002	7.2584
17640	22.067	2.9091	0.	461.9
17641	21.975	2.8182	0.	478.6
17642	21.975	2.9091	5.e-002	7.2722
17643	22.251	2.9091	0.	428.37
17644	22.159	2.8182	0.	444.7
17645	22.159	2.9091	5.e-002	7.2916
17646	22.435	2.9091	0.	395.61
17647	22.343	2.8182	0.	411.53
17648	22.343	2.9091	5.e-002	7.3172
17649	22.619	2.9091	0.	363.75
17650	22.527	2.8182	0.	379.18
17651	22.527	2.9091	5.e-002	7.3495
17652	22.803	2.9091	0.	332.94
17653	22.711	2.8182	0.	347.8
17654	22.711	2.9091	5.e-002	7.389
17655	22.987	2.9091	0.	303.42
17656	22.895	2.8182	0.	317.58
17657	22.895	2.9091	5.e-002	7.4358
17658	23.172	2.9091	0.	275.53
17659	23.079	2.8182	0.	288.81
17660	23.079	2.9091	5.e-002	7.4903
17661	23.356	2.9091	0.	249.75
17662	23.264	2.8182	0.	261.89
17663	23.264	2.9091	5.e-002	7.5524
17664	23.54	2.9091	0.	226.75
17665	23.448	2.8182	0.	237.38
17666	23.448	2.9091	5.e-002	7.6215
17667	23.724	2.9091	0.	207.41
17668	23.632	2.8182	0.	216.08
17669	23.632	2.9091	5.e-002	7.6974
17670	23.816	2.8182	0.	198.99
17671	23.816	2.9091	5.e-002	7.7876
17672	23.908	2.9091	0.	193.63
17673	8.4428	2.7273	0.	8533.8
17674	8.3508	2.6364	0.	9213.3
17675	8.3508	2.7273	5.e-002	93.604
17676	8.6269	2.7273	0.	7572.6
17677	8.5349	2.6364	0.	8105.5
17678	8.5349	2.7273	5.e-002	117.86
17679	8.811	2.7273	0.	6651.6
17680	8.719	2.6364	0.	7032.2
17681	8.719	2.7273	5.e-002	115.88
17682	8.9952	2.7273	0.	5873.4
17683	8.9031	2.6364	0.	6148.2
17684	8.9031	2.7273	5.e-002	102.35
17685	9.1793	2.7273	0.	5251.3
17686	9.0872	2.6364	0.	5455.7
17687	9.0872	2.7273	5.e-002	86.616
17688	9.3634	2.7273	0.	4763.5
17689	9.2713	2.6364	0.	4920.5
17690	9.2713	2.7273	5.e-002	72.096
17691	9.5475	2.7273	0.	4382.3
17692	9.4554	2.6364	0.	4506.
17693	9.4554	2.7273	5.e-002	59.763
17694	9.7316	2.7273	0.	4082.7
17695	9.6395	2.6364	0.	4182.3
17696	9.6395	2.7273	5.e-002	49.648
17697	9.9157	2.7273	0.	3844.9
17698	9.8236	2.6364	0.	3926.8
17699	9.8236	2.7273	5.e-002	41.485
17700	10.1	2.7273	0.	3654.
17701	10.008	2.6364	0.	3722.5
17702	10.008	2.7273	5.e-002	34.947
17703	10.284	2.7273	0.	3498.5
17704	10.192	2.6364	0.	3556.7
17705	10.192	2.7273	5.e-002	29.728
17706	10.468	2.7273	0.	3369.9
17707	10.376	2.6364	0.	3420.2
17708	10.376	2.7273	5.e-002	25.566
17709	10.652	2.7273	0.	3261.8
17710	10.56	2.6364	0.	3305.9
17711	10.56	2.7273	5.e-002	22.247
17712	10.836	2.7273	0.	3169.2
17713	10.744	2.6364	0.	3208.6
17714	10.744	2.7273	5.e-002	19.597
17715	11.02	2.7273	0.	3088.4
17716	10.928	2.6364	0.	3124.1
17717	10.928	2.7273	5.e-002	17.478
17718	11.204	2.7273	0.	3016.6
17719	11.112	2.6364	0.	3049.5
17720	11.112	2.7273	5.e-002	15.782
17721	11.389	2.7273	0.	2951.7
17722	11.297	2.6364	0.	2982.3
17723	11.297	2.7273	5.e-002	14.42
17724	11.573	2.7273	0.	2892.
17725	11.481	2.6364	0.	2920.8
17726	11.481	2.7273	5.e-002	13.326
17727	11.757	2.7273	0.	2836.2
17728	11.665	2.6364	0.	2863.6
17729	11.665	2.7273	5.e-002	12.443
17730	11.941	2.7273	0.	2783.3
17731	11.849	2.6364	0.	2809.7
17732	11.849	2.7273	5.e-002	11.728
17733	12.125	2.7273	0.	2732.6
17734	12.033	2.6364	0.	2758.2
17735	12.033	2.7273	5.e-002	11.148
17736	12.309	2.7273	0.	2683.6
17737	12.217	2.6364	0.	2708.6
17738	12.217	2.7273	5.e-002	10.675
17739	12.493	2.7273	0.	2635.8
17740	12.401	2.6364	0.	2660.3
17741	12.401	2.7273	5.e-002	10.287
17742	12.677	2.7273	0.	2589.
17743	12.585	2.6364	0.	2613.
17744	12.585	2.7273	5.e-002	9.9667
17745	12.861	2.7273	0.	2542.7
17746	12.769	2.6364	0.	2566.5
17747	12.769	2.7273	5.e-002	9.7005
17748	13.046	2.7273	0.	2497.
17749	12.953	2.6364	0.	2520.5
17750	12.953	2.7273	5.e-002	9.4778
17751	13.23	2.7273	0.	2451.6
17752	13.138	2.6364	0.	2474.9
17753	13.138	2.7273	5.e-002	9.2895
17754	13.414	2.7273	0.	2406.4
17755	13.322	2.6364	0.	2429.6
17756	13.322	2.7273	5.e-002	9.129
17757	13.598	2.7273	0.	2361.4
17758	13.506	2.6364	0.	2384.5
17759	13.506	2.7273	5.e-002	8.9909
17760	13.782	2.7273	0.	2316.6
17761	13.69	2.6364	0.	2339.6
17762	13.69	2.7273	5.e-002	8.8706
17763	13.966	2.7273	0.	2271.8
17764	13.874	2.6364	0.	2294.7
17765	13.874	2.7273	5.e-002	8.7648
17766	14.15	2.7273	0.	2227.2
17767	14.058	2.6364	0.	2250.
17768	14.058	2.7273	5.e-002	8.6708
17769	14.334	2.7273	0.	2182.6
17770	14.242	2.6364	0.	2205.3
17771	14.242	2.7273	5.e-002	8.5864
17772	14.518	2.7273	0.	2138.1
17773	14.426	2.6364	0.	2160.7
17774	14.426	2.7273	5.e-002	8.5096
17775	14.703	2.7273	0.	2093.6
17776	14.61	2.6364	0.	2116.2
17777	14.61	2.7273	5.e-002	8.4394
17778	14.887	2.7273	0.	2049.2
17779	14.795	2.6364	0.	2071.7
17780	14.795	2.7273	5.e-002	8.3744
17781	15.071	2.7273	0.	2004.9
17782	14.979	2.6364	0.	2027.3
17783	14.979	2.7273	5.e-002	8.3138
17784	15.255	2.7273	0.	1960.6
17785	15.163	2.6364	0.	1983.
17786	15.163	2.7273	5.e-002	8.257
17787	15.439	2.7273	0.	1916.4
17788	15.347	2.6364	0.	1938.8
17789	15.347	2.7273	5.e-002	8.2033
17790	15.623	2.7273	0.	1872.3
17791	15.531	2.6364	0.	1894.6
17792	15.531	2.7273	5.e-002	8.1522
17793	15.807	2.7273	0.	1828.4
17794	15.715	2.6364	0.	1850.6
17795	15.715	2.7273	5.e-002	8.1034
17796	15.991	2.7273	0.	1784.5
17797	15.899	2.6364	0.	1806.6
17798	15.899	2.7273	5.e-002	8.0566
17799	16.175	2.7273	0.	1740.8
17800	16.083	2.6364	0.	1762.8
17801	16.083	2.7273	5.e-002	8.0116
17802	16.359	2.7273	0.	1697.1
17803	16.267	2.6364	0.	1719.1
17804	16.267	2.7273	5.e-002	7.9681
17805	16.544	2.7273	0.	1653.7
17806	16.452	2.6364	0.	1675.5
17807	16.452	2.7273	5.e-002	7.926
17808	16.728	2.7273	0.	1610.3
17809	16.636	2.6364	0.	1632.1
17810	16.636	2.7273	5.e-002	7.8853
17811	16.912	2.7273	0.	1567.2
17812	16.82	2.6364	0.	1588.9
17813	16.82	2.7273	5.e-002	7.8457
17814	17.096	2.7273	0.	1524.2
17815	17.004	2.6364	0.	1545.8
17816	17.004	2.7273	5.e-002	7.8072
17817	17.28	2.7273	0.	1481.3
17818	17.188	2.6364	0.	1502.8
17819	17.188	2.7273	5.e-002	7.7698
17820	17.464	2.7273	0.	1438.7
17821	17.372	2.6364	0.	1460.1
17822	17.372	2.7273	5.e-002	7.7334
17823	17.648	2.7273	0.	1396.2
17824	17.556	2.6364	0.	1417.5
17825	17.556	2.7273	5.e-002	7.6979
17826	17.832	2.7273	0.	1353.9
17827	17.74	2.6364	0.	1375.1
17828	17.74	2.7273	5.e-002	7.6634
17829	18.016	2.7273	0.	1311.9
17830	17.924	2.6364	0.	1332.9
17831	17.924	2.7273	5.e-002	7.6298
17832	18.201	2.7273	0.	1270.
17833	18.109	2.6364	0.	1291.
17834	18.109	2.7273	5.e-002	7.5972
17835	18.385	2.7273	0.	1228.4
17836	18.293	2.6364	0.	1249.2
17837	18.293	2.7273	5.e-002	7.5655
17838	18.569	2.7273	0.	1187.
17839	18.477	2.6364	0.	1207.7
17840	18.477	2.7273	5.e-002	7.5347
17841	18.753	2.7273	0.	1145.9
17842	18.661	2.6364	0.	1166.4
17843	18.661	2.7273	5.e-002	7.505
17844	18.937	2.7273	0.	1105.
17845	18.845	2.6364	0.	1125.4
17846	18.845	2.7273	5.e-002	7.4764
17847	19.121	2.7273	0.	1064.4
17848	19.029	2.6364	0.	1084.6
17849	19.029	2.7273	5.e-002	7.4488
17850	19.305	2.7273	0.	1024.
17851	19.213	2.6364	0.	1044.1
17852	19.213	2.7273	5.e-002	7.4223
17853	19.489	2.7273	0.	983.96
17854	19.397	2.6364	0.	1003.9
17855	19.397	2.7273	5.e-002	7.3972
17856	19.673	2.7273	0.	944.18
17857	19.581	2.6364	0.	963.9
17858	19.581	2.7273	5.e-002	7.3733
17859	19.858	2.7273	0.	904.71
17860	19.766	2.6364	0.	924.26
17861	19.766	2.7273	5.e-002	7.3509
17862	20.042	2.7273	0.	865.56
17863	19.95	2.6364	0.	884.92
17864	19.95	2.7273	5.e-002	7.3301
17865	20.226	2.7273	0.	826.75
17866	20.134	2.6364	0.	845.91
17867	20.134	2.7273	5.e-002	7.311
17868	20.41	2.7273	0.	788.28
17869	20.318	2.6364	0.	807.24
17870	20.318	2.7273	5.e-002	7.2938
17871	20.594	2.7273	0.	750.19
17872	20.502	2.6364	0.	768.92
17873	20.502	2.7273	5.e-002	7.2787
17874	20.778	2.7273	0.	712.47
17875	20.686	2.6364	0.	730.98
17876	20.686	2.7273	5.e-002	7.2659
17877	20.962	2.7273	0.	675.16
17878	20.87	2.6364	0.	693.43
17879	20.87	2.7273	5.e-002	7.2558
17880	21.146	2.7273	0.	638.28
17881	21.054	2.6364	0.	656.29
17882	21.054	2.7273	5.e-002	7.2485
17883	21.33	2.7273	0.	601.85
17884	21.238	2.6364	0.	619.6
17885	21.238	2.7273	5.e-002	7.2446
17886	21.515	2.7273	0.	565.91
17887	21.422	2.6364	0.	583.37
17888	21.422	2.7273	5.e-002	7.2443
17889	21.699	2.7273	0.	530.48
17890	21.607	2.6364	0.	547.64
17891	21.607	2.7273	5.e-002	7.2481
17892	21.883	2.7273	0.	495.62
17893	21.791	2.6364	0.	512.44
17894	21.791	2.7273	5.e-002	7.2565
17895	22.067	2.7273	0.	461.36
17896	21.975	2.6364	0.	477.83
17897	21.975	2.7273	5.e-002	7.27
17898	22.251	2.7273	0.	427.79
17899	22.159	2.6364	0.	443.87
17900	22.159	2.7273	5.e-002	7.2892
17901	22.435	2.7273	0.	394.99
17902	22.343	2.6364	0.	410.63
17903	22.343	2.7273	5.e-002	7.3146
17904	22.619	2.7273	0.	363.08
17905	22.527	2.6364	0.	378.21
17906	22.527	2.7273	5.e-002	7.3467
17907	22.803	2.7273	0.	332.23
17908	22.711	2.6364	0.	346.77
17909	22.711	2.7273	5.e-002	7.386
17910	22.987	2.7273	0.	302.67
17911	22.895	2.6364	0.	316.49
17912	22.895	2.7273	5.e-002	7.4329
17913	23.172	2.7273	0.	274.74
17914	23.079	2.6364	0.	287.66
17915	23.079	2.7273	5.e-002	7.4876
17916	23.356	2.7273	0.	248.92
17917	23.264	2.6364	0.	260.68
17918	23.264	2.7273	5.e-002	7.55
17919	23.54	2.7273	0.	225.88
17920	23.448	2.6364	0.	236.11
17921	23.448	2.7273	5.e-002	7.6197
17922	23.724	2.7273	0.	206.52
17923	23.632	2.6364	0.	214.76
17924	23.632	2.7273	5.e-002	7.6965
17925	23.816	2.6364	0.	197.64
17926	23.816	2.7273	5.e-002	7.7905
17927	23.908	2.7273	0.	192.71
17928	8.4428	2.5455	0.	8798.4
17929	8.3508	2.4545	0.	9782.9
17930	8.3508	2.5455	5.e-002	151.98
17931	8.6269	2.5455	0.	7582.6
17932	8.5349	2.4545	0.	8155.7
17933	8.5349	2.5455	5.e-002	160.87
17934	8.811	2.5455	0.	6541.
17935	8.719	2.4545	0.	6888.1
17936	8.719	2.5455	5.e-002	133.2
17937	8.9952	2.5455	0.	5737.3
17938	8.9031	2.4545	0.	5963.8
17939	8.9031	2.5455	5.e-002	107.04
17940	9.1793	2.5455	0.	5128.5
17941	9.0872	2.4545	0.	5289.1
17942	9.0872	2.5455	5.e-002	85.692
17943	9.3634	2.5455	0.	4664.8
17944	9.2713	2.4545	0.	4785.8
17945	9.2713	2.5455	5.e-002	69.493
17946	9.5475	2.5455	0.	4307.
17947	9.4554	2.4545	0.	4402.7
17948	9.4554	2.5455	5.e-002	57.056
17949	9.7316	2.5455	0.	4027.
17950	9.6395	2.4545	0.	4105.3
17951	9.6395	2.5455	5.e-002	47.331
17952	9.9157	2.5455	0.	3804.6
17953	9.8236	2.4545	0.	3870.5
17954	9.8236	2.5455	5.e-002	39.638
17955	10.1	2.5455	0.	3625.3
17956	10.008	2.4545	0.	3682.
17957	10.008	2.5455	5.e-002	33.517
17958	10.284	2.5455	0.	3478.5
17959	10.192	2.4545	0.	3528.2
17960	10.192	2.5455	5.e-002	28.632
17961	10.468	2.5455	0.	3356.3
17962	10.376	2.4545	0.	3400.5
17963	10.376	2.5455	5.e-002	24.725
17964	10.652	2.5455	0.	3252.8
17965	10.56	2.4545	0.	3292.7
17966	10.56	2.5455	5.e-002	21.597
17967	10.836	2.5455	0.	3163.5
17968	10.744	2.4545	0.	3200.1
17969	10.744	2.5455	5.e-002	19.091
17970	11.02	2.5455	0.	3085.2
17971	10.928	2.4545	0.	3119.
17972	10.928	2.5455	5.e-002	17.08
17973	11.204	2.5455	0.	3015.1
17974	11.112	2.4545	0.	3046.8
17975	11.112	2.5455	5.e-002	15.466
17976	11.389	2.5455	0.	2951.4
17977	11.297	2.4545	0.	2981.3
17978	11.297	2.5455	5.e-002	14.168
17979	11.573	2.5455	0.	2892.4
17980	11.481	2.4545	0.	2921.
17981	11.481	2.5455	5.e-002	13.122
17982	11.757	2.5455	0.	2837.2
17983	11.665	2.4545	0.	2864.6
17984	11.665	2.5455	5.e-002	12.278
17985	11.941	2.5455	0.	2784.6
17986	11.849	2.4545	0.	2811.2
17987	11.849	2.5455	5.e-002	11.595
17988	12.125	2.5455	0.	2734.2
17989	12.033	2.4545	0.	2760.
17990	12.033	2.5455	5.e-002	11.04
17991	12.309	2.5455	0.	2685.2
17992	12.217	2.4545	0.	2710.5
17993	12.217	2.5455	5.e-002	10.587
17994	12.493	2.5455	0.	2637.5
17995	12.401	2.4545	0.	2662.3
17996	12.401	2.5455	5.e-002	10.216
17997	12.677	2.5455	0.	2590.6
17998	12.585	2.4545	0.	2615.
17999	12.585	2.5455	5.e-002	9.9092
18000	12.861	2.5455	0.	2544.3
18001	12.769	2.4545	0.	2568.5
18002	12.769	2.5455	5.e-002	9.654
18003	13.046	2.5455	0.	2498.5
18004	12.953	2.4545	0.	2522.4
18005	12.953	2.5455	5.e-002	9.4402
18006	13.23	2.5455	0.	2453.
18007	13.138	2.4545	0.	2476.7
18008	13.138	2.5455	5.e-002	9.2592
18009	13.414	2.5455	0.	2407.7
18010	13.322	2.4545	0.	2431.3
18011	13.322	2.5455	5.e-002	9.1045
18012	13.598	2.5455	0.	2362.7
18013	13.506	2.4545	0.	2386.1
18014	13.506	2.5455	5.e-002	8.9711
18015	13.782	2.5455	0.	2317.7
18016	13.69	2.4545	0.	2341.1
18017	13.69	2.5455	5.e-002	8.8547
18018	13.966	2.5455	0.	2272.9
18019	13.874	2.4545	0.	2296.1
18020	13.874	2.5455	5.e-002	8.7519
18021	14.15	2.5455	0.	2228.2
18022	14.058	2.4545	0.	2251.3
18023	14.058	2.5455	5.e-002	8.6603
18024	14.334	2.5455	0.	2183.5
18025	14.242	2.4545	0.	2206.5
18026	14.242	2.5455	5.e-002	8.5778
18027	14.518	2.5455	0.	2138.9
18028	14.426	2.4545	0.	2161.8
18029	14.426	2.5455	5.e-002	8.5027
18030	14.703	2.5455	0.	2094.4
18031	14.61	2.4545	0.	2117.2
18032	14.61	2.5455	5.e-002	8.4337
18033	14.887	2.5455	0.	2049.9
18034	14.795	2.4545	0.	2072.7
18035	14.795	2.5455	5.e-002	8.3697
18036	15.071	2.5455	0.	2005.5
18037	14.979	2.4545	0.	2028.2
18038	14.979	2.5455	5.e-002	8.3099
18039	15.255	2.5455	0.	1961.2
18040	15.163	2.4545	0.	1983.8
18041	15.163	2.5455	5.e-002	8.2537
18042	15.439	2.5455	0.	1917.
18043	15.347	2.4545	0.	1939.5
18044	15.347	2.5455	5.e-002	8.2005
18045	15.623	2.5455	0.	1872.9
18046	15.531	2.4545	0.	1895.3
18047	15.531	2.5455	5.e-002	8.1498
18048	15.807	2.5455	0.	1828.9
18049	15.715	2.4545	0.	1851.2
18050	15.715	2.5455	5.e-002	8.1014
18051	15.991	2.5455	0.	1785.
18052	15.899	2.4545	0.	1807.2
18053	15.899	2.5455	5.e-002	8.0549
18054	16.175	2.5455	0.	1741.2
18055	16.083	2.4545	0.	1763.4
18056	16.083	2.5455	5.e-002	8.01
18057	16.359	2.5455	0.	1697.5
18058	16.267	2.4545	0.	1719.6
18059	16.267	2.5455	5.e-002	7.9667
18060	16.544	2.5455	0.	1654.
18061	16.452	2.4545	0.	1676.
18062	16.452	2.5455	5.e-002	7.9248
18063	16.728	2.5455	0.	1610.7
18064	16.636	2.4545	0.	1632.6
18065	16.636	2.5455	5.e-002	7.8842
18066	16.912	2.5455	0.	1567.5
18067	16.82	2.4545	0.	1589.3
18068	16.82	2.5455	5.e-002	7.8446
18069	17.096	2.5455	0.	1524.4
18070	17.004	2.4545	0.	1546.1
18071	17.004	2.5455	5.e-002	7.8062
18072	17.28	2.5455	0.	1481.6
18073	17.188	2.4545	0.	1503.2
18074	17.188	2.5455	5.e-002	7.7689
18075	17.464	2.5455	0.	1438.9
18076	17.372	2.4545	0.	1460.4
18077	17.372	2.5455	5.e-002	7.7325
18078	17.648	2.5455	0.	1396.4
18079	17.556	2.4545	0.	1417.8
18080	17.556	2.5455	5.e-002	7.6971
18081	17.832	2.5455	0.	1354.1
18082	17.74	2.4545	0.	1375.3
18083	17.74	2.5455	5.e-002	7.6626
18084	18.016	2.5455	0.	1312.
18085	17.924	2.4545	0.	1333.1
18086	17.924	2.5455	5.e-002	7.629
18087	18.201	2.5455	0.	1270.2
18088	18.109	2.4545	0.	1291.1
18089	18.109	2.5455	5.e-002	7.5964
18090	18.385	2.5455	0.	1228.5
18091	18.293	2.4545	0.	1249.4
18092	18.293	2.5455	5.e-002	7.5647
18093	18.569	2.5455	0.	1187.1
18094	18.477	2.4545	0.	1207.8
18095	18.477	2.5455	5.e-002	7.534
18096	18.753	2.5455	0.	1145.9
18097	18.661	2.4545	0.	1166.5
18098	18.661	2.5455	5.e-002	7.5042
18099	18.937	2.5455	0.	1105.
18100	18.845	2.4545	0.	1125.4
18101	18.845	2.5455	5.e-002	7.4755
18102	19.121	2.5455	0.	1064.4
18103	19.029	2.4545	0.	1084.6
18104	19.029	2.5455	5.e-002	7.4479
18105	19.305	2.5455	0.	1024.
18106	19.213	2.4545	0.	1044.
18107	19.213	2.5455	5.e-002	7.4215
18108	19.489	2.5455	0.	983.85
18109	19.397	2.4545	0.	1003.7
18110	19.397	2.5455	5.e-002	7.3963
18111	19.673	2.5455	0.	944.03
18112	19.581	2.4545	0.	963.74
18113	19.581	2.5455	5.e-002	7.3723
18114	19.858	2.5455	0.	904.51
18115	19.766	2.4545	0.	924.04
18116	19.766	2.5455	5.e-002	7.3498
18117	20.042	2.5455	0.	865.31
18118	19.95	2.4545	0.	884.64
18119	19.95	2.5455	5.e-002	7.3289
18120	20.226	2.5455	0.	826.44
18121	20.134	2.4545	0.	845.56
18122	20.134	2.5455	5.e-002	7.3097
18123	20.41	2.5455	0.	787.91
18124	20.318	2.4545	0.	806.82
18125	20.318	2.5455	5.e-002	7.2924
18126	20.594	2.5455	0.	749.75
18127	20.502	2.4545	0.	768.43
18128	20.502	2.5455	5.e-002	7.2771
18129	20.778	2.5455	0.	711.97
18130	20.686	2.4545	0.	730.41
18131	20.686	2.5455	5.e-002	7.2641
18132	20.962	2.5455	0.	674.59
18133	20.87	2.4545	0.	692.77
18134	20.87	2.5455	5.e-002	7.2537
18135	21.146	2.5455	0.	637.64
18136	21.054	2.4545	0.	655.54
18137	21.054	2.5455	5.e-002	7.2462
18138	21.33	2.5455	0.	601.13
18139	21.238	2.4545	0.	618.75
18140	21.238	2.5455	5.e-002	7.2419
18141	21.515	2.5455	0.	565.1
18142	21.422	2.4545	0.	582.42
18143	21.422	2.5455	5.e-002	7.2413
18144	21.699	2.5455	0.	529.59
18145	21.607	2.4545	0.	546.58
18146	21.607	2.5455	5.e-002	7.2446
18147	21.883	2.5455	0.	494.64
18148	21.791	2.4545	0.	511.28
18149	21.791	2.5455	5.e-002	7.2526
18150	22.067	2.5455	0.	460.3
18151	21.975	2.4545	0.	476.56
18152	21.975	2.5455	5.e-002	7.2656
18153	22.251	2.5455	0.	426.64
18154	22.159	2.4545	0.	442.48
18155	22.159	2.5455	5.e-002	7.2843
18156	22.435	2.5455	0.	393.75
18157	22.343	2.4545	0.	409.13
18158	22.343	2.5455	5.e-002	7.3093
18159	22.619	2.5455	0.	361.75
18160	22.527	2.4545	0.	376.6
18161	22.527	2.5455	5.e-002	7.3411
18162	22.803	2.5455	0.	330.81
18163	22.711	2.4545	0.	345.05
18164	22.711	2.5455	5.e-002	7.3802
18165	22.987	2.5455	0.	301.17
18166	22.895	2.4545	0.	314.66
18167	22.895	2.5455	5.e-002	7.4271
18168	23.172	2.5455	0.	273.16
18169	23.079	2.4545	0.	285.73
18170	23.079	2.5455	5.e-002	7.482
18171	23.356	2.5455	0.	247.26
18172	23.264	2.4545	0.	258.64
18173	23.264	2.5455	5.e-002	7.5451
18174	23.54	2.5455	0.	224.15
18175	23.448	2.4545	0.	233.98
18176	23.448	2.5455	5.e-002	7.6159
18177	23.724	2.5455	0.	204.73
18178	23.632	2.4545	0.	212.54
18179	23.632	2.5455	5.e-002	7.6946
18180	23.816	2.4545	0.	195.37
18181	23.816	2.5455	5.e-002	7.7963
18182	23.908	2.5455	0.	190.86
18183	8.4428	2.3636	0.	9166.
18184	8.3508	2.2727	0.	10393
18185	8.3508	2.3636	5.e-002	271.28
18186	8.6269	2.3636	0.	7484.8
18187	8.5349	2.2727	0.	8023.1
18188	8.5349	2.3636	5.e-002	213.66
18189	8.811	2.3636	0.	6322.1
18190	8.719	2.2727	0.	6592.7
18191	8.719	2.3636	5.e-002	153.35
18192	8.9952	2.3636	0.	5520.
18193	8.9031	2.2727	0.	5687.2
18194	8.9031	2.3636	5.e-002	107.52
18195	9.1793	2.3636	0.	4948.1
18196	9.0872	2.2727	0.	5061.
18197	9.0872	2.3636	5.e-002	81.813
18198	9.3634	2.3636	0.	4524.3
18199	9.2713	2.2727	0.	4608.6
18200	9.2713	2.3636	5.e-002	65.046
18201	9.5475	2.3636	0.	4201.2
18202	9.4554	2.2727	0.	4268.6
18203	9.4554	2.3636	5.e-002	53.095
18204	9.7316	2.3636	0.	3948.9
18205	9.6395	2.2727	0.	4005.7
18206	9.6395	2.3636	5.e-002	44.091
18207	9.9157	2.3636	0.	3748.
18208	9.8236	2.2727	0.	3797.7
18209	9.8236	2.3636	5.e-002	37.084
18210	10.1	2.3636	0.	3584.9
18211	10.008	2.2727	0.	3629.5
18212	10.008	2.3636	5.e-002	31.532
18213	10.284	2.3636	0.	3450.2
18214	10.192	2.2727	0.	3490.9
18215	10.192	2.3636	5.e-002	27.094
18216	10.468	2.3636	0.	3336.9
18217	10.376	2.2727	0.	3374.7
18218	10.376	2.3636	5.e-002	23.531
18219	10.652	2.3636	0.	3240.
18220	10.56	2.2727	0.	3275.3
18221	10.56	2.3636	5.e-002	20.663
18222	10.836	2.3636	0.	3155.5
18223	10.744	2.2727	0.	3188.8
18224	10.744	2.3636	5.e-002	18.355
18225	11.02	2.3636	0.	3080.6
18226	10.928	2.2727	0.	3112.2
18227	10.928	2.3636	5.e-002	16.496
18228	11.204	2.3636	0.	3012.9
18229	11.112	2.2727	0.	3043.2
18230	11.112	2.3636	5.e-002	14.998
18231	11.389	2.3636	0.	2950.9
18232	11.297	2.2727	0.	2980.
18233	11.297	2.3636	5.e-002	13.791
18234	11.573	2.3636	0.	2893.1
18235	11.481	2.2727	0.	2921.2
18236	11.481	2.3636	5.e-002	12.818
18237	11.757	2.3636	0.	2838.6
18238	11.665	2.2727	0.	2865.9
18239	11.665	2.3636	5.e-002	12.032
18240	11.941	2.3636	0.	2786.6
18241	11.849	2.2727	0.	2813.2
18242	11.849	2.3636	5.e-002	11.396
18243	12.125	2.3636	0.	2736.4
18244	12.033	2.2727	0.	2762.4
18245	12.033	2.3636	5.e-002	10.879
18246	12.309	2.3636	0.	2687.6
18247	12.217	2.2727	0.	2713.2
18248	12.217	2.3636	5.e-002	10.457
18249	12.493	2.3636	0.	2639.9
18250	12.401	2.2727	0.	2665.1
18251	12.401	2.3636	5.e-002	10.11
18252	12.677	2.3636	0.	2592.9
18253	12.585	2.2727	0.	2617.8
18254	12.585	2.3636	5.e-002	9.8236
18255	12.861	2.3636	0.	2546.6
18256	12.769	2.2727	0.	2571.1
18257	12.769	2.3636	5.e-002	9.5849
18258	13.046	2.3636	0.	2500.7
18259	12.953	2.2727	0.	2525.
18260	12.953	2.3636	5.e-002	9.3844
18261	13.23	2.3636	0.	2455.1
18262	13.138	2.2727	0.	2479.2
18263	13.138	2.3636	5.e-002	9.2142
18264	13.414	2.3636	0.	2409.7
18265	13.322	2.2727	0.	2433.6
18266	13.322	2.3636	5.e-002	9.0683
18267	13.598	2.3636	0.	2364.5
18268	13.506	2.2727	0.	2388.3
18269	13.506	2.3636	5.e-002	8.9419
18270	13.782	2.3636	0.	2319.4
18271	13.69	2.2727	0.	2343.1
18272	13.69	2.3636	5.e-002	8.831
18273	13.966	2.3636	0.	2274.5
18274	13.874	2.2727	0.	2298.
18275	13.874	2.3636	5.e-002	8.7328
18276	14.15	2.3636	0.	2229.7
18277	14.058	2.2727	0.	2253.
18278	14.058	2.3636	5.e-002	8.6449
18279	14.334	2.3636	0.	2184.9
18280	14.242	2.2727	0.	2208.2
18281	14.242	2.3636	5.e-002	8.5652
18282	14.518	2.3636	0.	2140.2
18283	14.426	2.2727	0.	2163.4
18284	14.426	2.3636	5.e-002	8.4924
18285	14.703	2.3636	0.	2095.6
18286	14.61	2.2727	0.	2118.6
18287	14.61	2.3636	5.e-002	8.4252
18288	14.887	2.3636	0.	2051.
18289	14.795	2.2727	0.	2074.
18290	14.795	2.3636	5.e-002	8.3627
18291	15.071	2.3636	0.	2006.5
18292	14.979	2.2727	0.	2029.4
18293	14.979	2.3636	5.e-002	8.3041
18294	15.255	2.3636	0.	1962.2
18295	15.163	2.2727	0.	1985.
18296	15.163	2.3636	5.e-002	8.2489
18297	15.439	2.3636	0.	1917.9
18298	15.347	2.2727	0.	1940.6
18299	15.347	2.3636	5.e-002	8.1964
18300	15.623	2.3636	0.	1873.7
18301	15.531	2.2727	0.	1896.3
18302	15.531	2.3636	5.e-002	8.1463
18303	15.807	2.3636	0.	1829.6
18304	15.715	2.2727	0.	1852.1
18305	15.715	2.3636	5.e-002	8.0983
18306	15.991	2.3636	0.	1785.7
18307	15.899	2.2727	0.	1808.1
18308	15.899	2.3636	5.e-002	8.0522
18309	16.175	2.3636	0.	1741.8
18310	16.083	2.2727	0.	1764.2
18311	16.083	2.3636	5.e-002	8.0077
18312	16.359	2.3636	0.	1698.1
18313	16.267	2.2727	0.	1720.4
18314	16.267	2.3636	5.e-002	7.9646
18315	16.544	2.3636	0.	1654.6
18316	16.452	2.2727	0.	1676.7
18317	16.452	2.3636	5.e-002	7.9229
18318	16.728	2.3636	0.	1611.2
18319	16.636	2.2727	0.	1633.2
18320	16.636	2.3636	5.e-002	7.8824
18321	16.912	2.3636	0.	1568.
18322	16.82	2.2727	0.	1589.8
18323	16.82	2.3636	5.e-002	7.8431
18324	17.096	2.3636	0.	1524.9
18325	17.004	2.2727	0.	1546.7
18326	17.004	2.3636	5.e-002	7.8048
18327	17.28	2.3636	0.	1482.
18328	17.188	2.2727	0.	1503.6
18329	17.188	2.3636	5.e-002	7.7675
18330	17.464	2.3636	0.	1439.3
18331	17.372	2.2727	0.	1460.8
18332	17.372	2.3636	5.e-002	7.7312
18333	17.648	2.3636	0.	1396.7
18334	17.556	2.2727	0.	1418.1
18335	17.556	2.3636	5.e-002	7.6958
18336	17.832	2.3636	0.	1354.4
18337	17.74	2.2727	0.	1375.7
18338	17.74	2.3636	5.e-002	7.6614
18339	18.016	2.3636	0.	1312.3
18340	17.924	2.2727	0.	1333.4
18341	17.924	2.3636	5.e-002	7.6278
18342	18.201	2.3636	0.	1270.4
18343	18.109	2.2727	0.	1291.4
18344	18.109	2.3636	5.e-002	7.5952
18345	18.385	2.3636	0.	1228.7
18346	18.293	2.2727	0.	1249.6
18347	18.293	2.3636	5.e-002	7.5635
18348	18.569	2.3636	0.	1187.2
18349	18.477	2.2727	0.	1208.
18350	18.477	2.3636	5.e-002	7.5328
18351	18.753	2.3636	0.	1146.
18352	18.661	2.2727	0.	1166.6
18353	18.661	2.3636	5.e-002	7.503
18354	18.937	2.3636	0.	1105.
18355	18.845	2.2727	0.	1125.5
18356	18.845	2.3636	5.e-002	7.4743
18357	19.121	2.3636	0.	1064.3
18358	19.029	2.2727	0.	1084.6
18359	19.029	2.3636	5.e-002	7.4467
18360	19.305	2.3636	0.	1023.9
18361	19.213	2.2727	0.	1044.
18362	19.213	2.3636	5.e-002	7.4201
18363	19.489	2.3636	0.	983.69
18364	19.397	2.2727	0.	1003.6
18365	19.397	2.3636	5.e-002	7.3949
18366	19.673	2.3636	0.	943.8
18367	19.581	2.2727	0.	963.53
18368	19.581	2.3636	5.e-002	7.3708
18369	19.858	2.3636	0.	904.21
18370	19.766	2.2727	0.	923.74
18371	19.766	2.3636	5.e-002	7.3483
18372	20.042	2.3636	0.	864.94
18373	19.95	2.2727	0.	884.26
18374	19.95	2.3636	5.e-002	7.3272
18375	20.226	2.3636	0.	825.99
18376	20.134	2.2727	0.	845.09
18377	20.134	2.3636	5.e-002	7.3078
18378	20.41	2.3636	0.	787.38
18379	20.318	2.2727	0.	806.25
18380	20.318	2.3636	5.e-002	7.2903
18381	20.594	2.3636	0.	749.12
18382	20.502	2.2727	0.	767.76
18383	20.502	2.3636	5.e-002	7.2748
18384	20.778	2.3636	0.	711.24
18385	20.686	2.2727	0.	729.62
18386	20.686	2.3636	5.e-002	7.2615
18387	20.962	2.3636	0.	673.75
18388	20.87	2.2727	0.	691.87
18389	20.87	2.3636	5.e-002	7.2507
18390	21.146	2.3636	0.	636.68
18391	21.054	2.2727	0.	654.51
18392	21.054	2.3636	5.e-002	7.2428
18393	21.33	2.3636	0.	600.06
18394	21.238	2.2727	0.	617.58
18395	21.238	2.3636	5.e-002	7.238
18396	21.515	2.3636	0.	563.91
18397	21.422	2.2727	0.	581.11
18398	21.422	2.3636	5.e-002	7.2368
18399	21.699	2.3636	0.	528.27
18400	21.607	2.2727	0.	545.12
18401	21.607	2.3636	5.e-002	7.2395
18402	21.883	2.3636	0.	493.18
18403	21.791	2.2727	0.	509.67
18404	21.791	2.3636	5.e-002	7.2468
18405	22.067	2.3636	0.	458.71
18406	21.975	2.2727	0.	474.79
18407	21.975	2.3636	5.e-002	7.2591
18408	22.251	2.3636	0.	424.91
18409	22.159	2.2727	0.	440.55
18410	22.159	2.3636	5.e-002	7.2771
18411	22.435	2.3636	0.	391.89
18412	22.343	2.2727	0.	407.04
18413	22.343	2.3636	5.e-002	7.3013
18414	22.619	2.3636	0.	359.76
18415	22.527	2.2727	0.	374.35
18416	22.527	2.3636	5.e-002	7.3325
18417	22.803	2.3636	0.	328.69
18418	22.711	2.2727	0.	342.64
18419	22.711	2.3636	5.e-002	7.3713
18420	22.987	2.3636	0.	298.92
18421	22.895	2.2727	0.	312.1
18422	22.895	2.3636	5.e-002	7.4182
18423	23.172	2.3636	0.	270.78
18424	23.079	2.2727	0.	283.01
18425	23.079	2.3636	5.e-002	7.4735
18426	23.356	2.3636	0.	244.76
18427	23.264	2.2727	0.	255.78
18428	23.264	2.3636	5.e-002	7.5376
18429	23.54	2.3636	0.	221.53
18430	23.448	2.2727	0.	230.97
18431	23.448	2.3636	5.e-002	7.6101
18432	23.724	2.3636	0.	202.02
18433	23.632	2.2727	0.	209.41
18434	23.632	2.3636	5.e-002	7.6915
18435	23.816	2.2727	0.	192.16
18436	23.816	2.3636	5.e-002	7.8049
18437	23.908	2.3636	0.	188.06
18438	8.4428	2.1818	0.	9317.1
18439	8.3508	2.0909	0.	10613
18440	8.3508	2.1818	5.e-002	629.58
18441	8.6269	2.1818	0.	7156.
18442	8.5349	2.0909	0.	7539.3
18443	8.5349	2.1818	5.e-002	289.63
18444	8.811	2.1818	0.	5963.8
18445	8.719	2.0909	0.	6142.9
18446	8.719	2.1818	5.e-002	146.06
18447	8.9952	2.1818	0.	5228.9
18448	8.9031	2.0909	0.	5331.9
18449	8.9031	2.1818	5.e-002	100.28
18450	9.1793	2.1818	0.	4720.8
18451	9.0872	2.0909	0.	4786.6
18452	9.0872	2.1818	5.e-002	74.715
18453	9.3634	2.1818	0.	4352.
18454	9.2713	2.0909	0.	4400.7
18455	9.2713	2.1818	5.e-002	59.042
18456	9.5475	2.1818	0.	4072.5
18457	9.4554	2.0909	0.	4112.5
18458	9.4554	2.1818	5.e-002	48.229
18459	9.7316	2.1818	0.	3854.1
18460	9.6395	2.0909	0.	3889.9
18461	9.6395	2.1818	5.e-002	40.222
18462	9.9157	2.1818	0.	3678.9
18463	9.8236	2.0909	0.	3712.6
18464	9.8236	2.1818	5.e-002	34.035
18465	10.1	2.1818	0.	3535.4
18466	10.008	2.0909	0.	3567.9
18467	10.008	2.1818	5.e-002	29.137
18468	10.284	2.1818	0.	3415.3
18469	10.192	2.0909	0.	3447.
18470	10.192	2.1818	5.e-002	25.209
18471	10.468	2.1818	0.	3313.
18472	10.376	2.0909	0.	3344.
18473	10.376	2.1818	5.e-002	22.041
18474	10.652	2.1818	0.	3224.1
18475	10.56	2.0909	0.	3254.5
18476	10.56	2.1818	5.e-002	19.48
18477	10.836	2.1818	0.	3145.5
18478	10.744	2.0909	0.	3175.3
18479	10.744	2.1818	5.e-002	17.409
18480	11.02	2.1818	0.	3074.8
18481	10.928	2.0909	0.	3104.
18482	10.928	2.1818	5.e-002	15.736
18483	11.204	2.1818	0.	3010.2
18484	11.112	2.0909	0.	3038.8
18485	11.112	2.1818	5.e-002	14.385
18486	11.389	2.1818	0.	2950.3
18487	11.297	2.0909	0.	2978.3
18488	11.297	2.1818	5.e-002	13.295
18489	11.573	2.1818	0.	2894.
18490	11.481	2.0909	0.	2921.5
18491	11.481	2.1818	5.e-002	12.416
18492	11.757	2.1818	0.	2840.5
18493	11.665	2.0909	0.	2867.5
18494	11.665	2.1818	5.e-002	11.706
18495	11.941	2.1818	0.	2789.
18496	11.849	2.0909	0.	2815.6
18497	11.849	2.1818	5.e-002	11.132
18498	12.125	2.1818	0.	2739.2
18499	12.033	2.0909	0.	2765.4
18500	12.033	2.1818	5.e-002	10.665
18501	12.309	2.1818	0.	2690.6
18502	12.217	2.0909	0.	2716.4
18503	12.217	2.1818	5.e-002	10.283
18504	12.493	2.1818	0.	2643.
18505	12.401	2.0909	0.	2668.4
18506	12.401	2.1818	5.e-002	9.9702
18507	12.677	2.1818	0.	2596.
18508	12.585	2.0909	0.	2621.2
18509	12.585	2.1818	5.e-002	9.7108
18510	12.861	2.1818	0.	2549.5
18511	12.769	2.0909	0.	2574.5
18512	12.769	2.1818	5.e-002	9.4941
18513	13.046	2.1818	0.	2503.5
18514	12.953	2.0909	0.	2528.2
18515	12.953	2.1818	5.e-002	9.3113
18516	13.23	2.1818	0.	2457.8
18517	13.138	2.0909	0.	2482.2
18518	13.138	2.1818	5.e-002	9.1554
18519	13.414	2.1818	0.	2412.2
18520	13.322	2.0909	0.	2436.5
18521	13.322	2.1818	5.e-002	9.0209
18522	13.598	2.1818	0.	2366.9
18523	13.506	2.0909	0.	2391.
18524	13.506	2.1818	5.e-002	8.9037
18525	13.782	2.1818	0.	2321.7
18526	13.69	2.0909	0.	2345.6
18527	13.69	2.1818	5.e-002	8.8003
18528	13.966	2.1818	0.	2276.6
18529	13.874	2.0909	0.	2300.4
18530	13.874	2.1818	5.e-002	8.7079
18531	14.15	2.1818	0.	2231.6
18532	14.058	2.0909	0.	2255.3
18533	14.058	2.1818	5.e-002	8.6247
18534	14.334	2.1818	0.	2186.7
18535	14.242	2.0909	0.	2210.2
18536	14.242	2.1818	5.e-002	8.5489
18537	14.518	2.1818	0.	2141.8
18538	14.426	2.0909	0.	2165.3
18539	14.426	2.1818	5.e-002	8.479
18540	14.703	2.1818	0.	2097.1
18541	14.61	2.0909	0.	2120.4
18542	14.61	2.1818	5.e-002	8.4143
18543	14.887	2.1818	0.	2052.4
18544	14.795	2.0909	0.	2075.6
18545	14.795	2.1818	5.e-002	8.3537
18546	15.071	2.1818	0.	2007.9
18547	14.979	2.0909	0.	2031.
18548	14.979	2.1818	5.e-002	8.2965
18549	15.255	2.1818	0.	1963.4
18550	15.163	2.0909	0.	1986.4
18551	15.163	2.1818	5.e-002	8.2425
18552	15.439	2.1818	0.	1919.
18553	15.347	2.0909	0.	1941.9
18554	15.347	2.1818	5.e-002	8.191
18555	15.623	2.1818	0.	1874.8
18556	15.531	2.0909	0.	1897.5
18557	15.531	2.1818	5.e-002	8.1417
18558	15.807	2.1818	0.	1830.6
18559	15.715	2.0909	0.	1853.3
18560	15.715	2.1818	5.e-002	8.0944
18561	15.991	2.1818	0.	1786.6
18562	15.899	2.0909	0.	1809.2
18563	15.899	2.1818	5.e-002	8.0487
18564	16.175	2.1818	0.	1742.7
18565	16.083	2.0909	0.	1765.2
18566	16.083	2.1818	5.e-002	8.0046
18567	16.359	2.1818	0.	1698.9
18568	16.267	2.0909	0.	1721.3
18569	16.267	2.1818	5.e-002	7.9619
18570	16.544	2.1818	0.	1655.3
18571	16.452	2.0909	0.	1677.6
18572	16.452	2.1818	5.e-002	7.9204
18573	16.728	2.1818	0.	1611.9
18574	16.636	2.0909	0.	1634.
18575	16.636	2.1818	5.e-002	7.8802
18576	16.912	2.1818	0.	1568.6
18577	16.82	2.0909	0.	1590.6
18578	16.82	2.1818	5.e-002	7.841
18579	17.096	2.1818	0.	1525.5
18580	17.004	2.0909	0.	1547.3
18581	17.004	2.1818	5.e-002	7.8028
18582	17.28	2.1818	0.	1482.5
18583	17.188	2.0909	0.	1504.3
18584	17.188	2.1818	5.e-002	7.7657
18585	17.464	2.1818	0.	1439.7
18586	17.372	2.0909	0.	1461.4
18587	17.372	2.1818	5.e-002	7.7294
18588	17.648	2.1818	0.	1397.2
18589	17.556	2.0909	0.	1418.7
18590	17.556	2.1818	5.e-002	7.6941
18591	17.832	2.1818	0.	1354.8
18592	17.74	2.0909	0.	1376.1
18593	17.74	2.1818	5.e-002	7.6597
18594	18.016	2.1818	0.	1312.6
18595	17.924	2.0909	0.	1333.8
18596	17.924	2.1818	5.e-002	7.6262
18597	18.201	2.1818	0.	1270.6
18598	18.109	2.0909	0.	1291.7
18599	18.109	2.1818	5.e-002	7.5936
18600	18.385	2.1818	0.	1228.9
18601	18.293	2.0909	0.	1249.8
18602	18.293	2.1818	5.e-002	7.562
18603	18.569	2.1818	0.	1187.4
18604	18.477	2.0909	0.	1208.2
18605	18.477	2.1818	5.e-002	7.5312
18606	18.753	2.1818	0.	1146.1
18607	18.661	2.0909	0.	1166.7
18608	18.661	2.1818	5.e-002	7.5014
18609	18.937	2.1818	0.	1105.1
18610	18.845	2.0909	0.	1125.5
18611	18.845	2.1818	5.e-002	7.4727
18612	19.121	2.1818	0.	1064.3
18613	19.029	2.0909	0.	1084.6
18614	19.029	2.1818	5.e-002	7.445
18615	19.305	2.1818	0.	1023.7
18616	19.213	2.0909	0.	1043.9
18617	19.213	2.1818	5.e-002	7.4184
18618	19.489	2.1818	0.	983.49
18619	19.397	2.0909	0.	1003.4
18620	19.397	2.1818	5.e-002	7.393
18621	19.673	2.1818	0.	943.52
18622	19.581	2.0909	0.	963.27
18623	19.581	2.1818	5.e-002	7.3689
18624	19.858	2.1818	0.	903.84
18625	19.766	2.0909	0.	923.39
18626	19.766	2.1818	5.e-002	7.3462
18627	20.042	2.1818	0.	864.46
18628	19.95	2.0909	0.	883.8
18629	19.95	2.1818	5.e-002	7.3249
18630	20.226	2.1818	0.	825.41
18631	20.134	2.0909	0.	844.52
18632	20.134	2.1818	5.e-002	7.3053
18633	20.41	2.1818	0.	786.68
18634	20.318	2.0909	0.	805.56
18635	20.318	2.1818	5.e-002	7.2875
18636	20.594	2.1818	0.	748.3
18637	20.502	2.0909	0.	766.93
18638	20.502	2.1818	5.e-002	7.2717
18639	20.778	2.1818	0.	710.29
18640	20.686	2.0909	0.	728.65
18641	20.686	2.1818	5.e-002	7.258
18642	20.962	2.1818	0.	672.66
18643	20.87	2.0909	0.	690.75
18644	20.87	2.1818	5.e-002	7.2468
18645	21.146	2.1818	0.	635.45
18646	21.054	2.0909	0.	653.23
18647	21.054	2.1818	5.e-002	7.2383
18648	21.33	2.1818	0.	598.66
18649	21.238	2.0909	0.	616.13
18650	21.238	2.1818	5.e-002	7.2329
18651	21.515	2.1818	0.	562.34
18652	21.422	2.0909	0.	579.47
18653	21.422	2.1818	5.e-002	7.2309
18654	21.699	2.1818	0.	526.53
18655	21.607	2.0909	0.	543.29
18656	21.607	2.1818	5.e-002	7.2328
18657	21.883	2.1818	0.	491.26
18658	21.791	2.0909	0.	507.63
18659	21.791	2.1818	5.e-002	7.2392
18660	22.067	2.1818	0.	456.61
18661	21.975	2.0909	0.	472.54
18662	21.975	2.1818	5.e-002	7.2505
18663	22.251	2.1818	0.	422.62
18664	22.159	2.0909	0.	438.1
18665	22.159	2.1818	5.e-002	7.2674
18666	22.435	2.1818	0.	389.41
18667	22.343	2.0909	0.	404.37
18668	22.343	2.1818	5.e-002	7.2907
18669	22.619	2.1818	0.	357.1
18670	22.527	2.0909	0.	371.47
18671	22.527	2.1818	5.e-002	7.3211
18672	22.803	2.1818	0.	325.85
18673	22.711	2.0909	0.	339.54
18674	22.711	2.1818	5.e-002	7.3593
18675	22.987	2.1818	0.	295.9
18676	22.895	2.0909	0.	308.79
18677	22.895	2.1818	5.e-002	7.406
18678	23.172	2.1818	0.	267.59
18679	23.079	2.0909	0.	279.5
18680	23.079	2.1818	5.e-002	7.4618
18681	23.356	2.1818	0.	241.4
18682	23.264	2.0909	0.	252.07
18683	23.264	2.1818	5.e-002	7.5272
18684	23.54	2.1818	0.	218.01
18685	23.448	2.0909	0.	227.07
18686	23.448	2.1818	5.e-002	7.6018
18687	23.724	2.1818	0.	198.38
18688	23.632	2.0909	0.	205.34
18689	23.632	2.1818	5.e-002	7.6871
18690	23.816	2.0909	0.	187.99
18691	23.816	2.1818	5.e-002	7.8161
18692	23.908	2.1818	0.	184.29
18693	8.4428	2.	0.	8962.2
18694	8.3508	1.9091	0.	9723.7
18695	8.3508	2.	5.e-002	1158.
18696	8.2587	2.	0.	15774
18697	8.6269	2.	0.	6537.8
18698	8.5349	1.9091	0.	6762.4
18699	8.5349	2.	5.e-002	201.19
18700	8.811	2.	0.	5509.7
18701	8.719	1.9091	0.	5592.5
18702	8.719	2.	5.e-002	129.88
18703	8.9952	2.	0.	4886.5
18704	8.9031	1.9091	0.	4926.3
18705	8.9031	2.	5.e-002	86.775
18706	9.1793	2.	0.	4463.6
18707	9.0872	1.9091	0.	4484.3
18708	9.0872	2.	5.e-002	65.688
18709	9.3634	2.	0.	4159.1
18710	9.2713	1.9091	0.	4173.7
18711	9.2713	2.	5.e-002	52.192
18712	9.5475	2.	0.	3928.5
18713	9.4554	1.9091	0.	3942.5
18714	9.4554	2.	5.e-002	42.914
18715	9.7316	2.	0.	3747.6
18716	9.6395	1.9091	0.	3763.3
18717	9.6395	2.	5.e-002	36.021
18718	9.9157	2.	0.	3601.1
18719	9.8236	1.9091	0.	3619.3
18720	9.8236	2.	5.e-002	30.692
18721	10.1	2.	0.	3479.3
18722	10.008	1.9091	0.	3499.9
18723	10.008	2.	5.e-002	26.465
18724	10.284	2.	0.	3375.6
18725	10.192	1.9091	0.	3398.3
18726	10.192	2.	5.e-002	23.065
18727	10.468	2.	0.	3285.5
18728	10.376	1.9091	0.	3309.8
18729	10.376	2.	5.e-002	20.313
18730	10.652	2.	0.	3205.7
18731	10.56	1.9091	0.	3231.1
18732	10.56	2.	5.e-002	18.082
18733	10.836	2.	0.	3133.8
18734	10.744	1.9091	0.	3160.
18735	10.744	2.	5.e-002	16.275
18736	11.02	2.	0.	3068.
18737	10.928	1.9091	0.	3094.7
18738	10.928	2.	5.e-002	14.814
18739	11.204	2.	0.	3007.
18740	11.112	1.9091	0.	3033.8
18741	11.112	2.	5.e-002	13.634
18742	11.389	2.	0.	2949.6
18743	11.297	1.9091	0.	2976.4
18744	11.297	2.	5.e-002	12.684
18745	11.573	2.	0.	2895.
18746	11.481	1.9091	0.	2921.8
18747	11.481	2.	5.e-002	11.919
18748	11.757	2.	0.	2842.6
18749	11.665	1.9091	0.	2869.2
18750	11.665	2.	5.e-002	11.303
18751	11.941	2.	0.	2791.9
18752	11.849	1.9091	0.	2818.3
18753	11.849	2.	5.e-002	10.805
18754	12.125	2.	0.	2742.6
18755	12.033	1.9091	0.	2768.7
18756	12.033	2.	5.e-002	10.4
18757	12.309	2.	0.	2694.2
18758	12.217	1.9091	0.	2720.1
18759	12.217	2.	5.e-002	10.07
18760	12.493	2.	0.	2646.6
18761	12.401	1.9091	0.	2672.3
18762	12.401	2.	5.e-002	9.7985
18763	12.677	2.	0.	2599.6
18764	12.585	1.9091	0.	2625.1
18765	12.585	2.	5.e-002	9.5727
18766	12.861	2.	0.	2553.1
18767	12.769	1.9091	0.	2578.3
18768	12.769	2.	5.e-002	9.3831
18769	13.046	2.	0.	2506.9
18770	12.953	1.9091	0.	2531.9
18771	12.953	2.	5.e-002	9.2222
18772	13.23	2.	0.	2461.
18773	13.138	1.9091	0.	2485.8
18774	13.138	2.	5.e-002	9.0839
18775	13.414	2.	0.	2415.3
18776	13.322	1.9091	0.	2439.9
18777	13.322	2.	5.e-002	8.9635
18778	13.598	2.	0.	2369.8
18779	13.506	1.9091	0.	2394.2
18780	13.506	2.	5.e-002	8.8575
18781	13.782	2.	0.	2324.4
18782	13.69	1.9091	0.	2348.6
18783	13.69	2.	5.e-002	8.7631
18784	13.966	2.	0.	2279.1
18785	13.874	1.9091	0.	2303.2
18786	13.874	2.	5.e-002	8.6779
18787	14.15	2.	0.	2233.9
18788	14.058	1.9091	0.	2257.9
18789	14.058	2.	5.e-002	8.6004
18790	14.334	2.	0.	2188.9
18791	14.242	1.9091	0.	2212.7
18792	14.242	2.	5.e-002	8.5291
18793	14.518	2.	0.	2143.9
18794	14.426	1.9091	0.	2167.6
18795	14.426	2.	5.e-002	8.4628
18796	14.703	2.	0.	2099.
18797	14.61	1.9091	0.	2122.5
18798	14.61	2.	5.e-002	8.401
18799	14.887	2.	0.	2054.2
18800	14.795	1.9091	0.	2077.6
18801	14.795	2.	5.e-002	8.3427
18802	15.071	2.	0.	2009.5
18803	14.979	1.9091	0.	2032.8
18804	14.979	2.	5.e-002	8.2874
18805	15.255	2.	0.	1964.9
18806	15.163	1.9091	0.	1988.1
18807	15.163	2.	5.e-002	8.2348
18808	15.439	2.	0.	1920.5
18809	15.347	1.9091	0.	1943.5
18810	15.347	2.	5.e-002	8.1845
18811	15.623	2.	0.	1876.1
18812	15.531	1.9091	0.	1899.
18813	15.531	2.	5.e-002	8.1361
18814	15.807	2.	0.	1831.9
18815	15.715	1.9091	0.	1854.7
18816	15.715	2.	5.e-002	8.0895
18817	15.991	2.	0.	1787.7
18818	15.899	1.9091	0.	1810.5
18819	15.899	2.	5.e-002	8.0445
18820	16.175	2.	0.	1743.8
18821	16.083	1.9091	0.	1766.4
18822	16.083	2.	5.e-002	8.0008
18823	16.359	2.	0.	1699.9
18824	16.267	1.9091	0.	1722.4
18825	16.267	2.	5.e-002	7.9585
18826	16.544	2.	0.	1656.3
18827	16.452	1.9091	0.	1678.6
18828	16.452	2.	5.e-002	7.9174
18829	16.728	2.	0.	1612.7
18830	16.636	1.9091	0.	1635.
18831	16.636	2.	5.e-002	7.8774
18832	16.912	2.	0.	1569.4
18833	16.82	1.9091	0.	1591.5
18834	16.82	2.	5.e-002	7.8384
18835	17.096	2.	0.	1526.2
18836	17.004	1.9091	0.	1548.2
18837	17.004	2.	5.e-002	7.8004
18838	17.28	2.	0.	1483.2
18839	17.188	1.9091	0.	1505.
18840	17.188	2.	5.e-002	7.7634
18841	17.464	2.	0.	1440.3
18842	17.372	1.9091	0.	1462.1
18843	17.372	2.	5.e-002	7.7272
18844	17.648	2.	0.	1397.7
18845	17.556	1.9091	0.	1419.3
18846	17.556	2.	5.e-002	7.692
18847	17.832	2.	0.	1355.2
18848	17.74	1.9091	0.	1376.7
18849	17.74	2.	5.e-002	7.6577
18850	18.016	2.	0.	1313.
18851	17.924	1.9091	0.	1334.3
18852	17.924	2.	5.e-002	7.6242
18853	18.201	2.	0.	1271.
18854	18.109	1.9091	0.	1292.2
18855	18.109	2.	5.e-002	7.5917
18856	18.385	2.	0.	1229.2
18857	18.293	1.9091	0.	1250.2
18858	18.293	2.	5.e-002	7.56
18859	18.569	2.	0.	1187.6
18860	18.477	1.9091	0.	1208.4
18861	18.477	2.	5.e-002	7.5293
18862	18.753	2.	0.	1146.2
18863	18.661	1.9091	0.	1166.9
18864	18.661	2.	5.e-002	7.4995
18865	18.937	2.	0.	1105.1
18866	18.845	1.9091	0.	1125.6
18867	18.845	2.	5.e-002	7.4707
18868	19.121	2.	0.	1064.2
18869	19.029	1.9091	0.	1084.6
18870	19.029	2.	5.e-002	7.4429
18871	19.305	2.	0.	1023.6
18872	19.213	1.9091	0.	1043.8
18873	19.213	2.	5.e-002	7.4162
18874	19.489	2.	0.	983.27
18875	19.397	1.9091	0.	1003.3
18876	19.397	2.	5.e-002	7.3908
18877	19.673	2.	0.	943.2
18878	19.581	1.9091	0.	963.
18879	19.581	2.	5.e-002	7.3665
18880	19.858	2.	0.	903.41
18881	19.766	1.9091	0.	923.
18882	19.766	2.	5.e-002	7.3436
18883	20.042	2.	0.	863.91
18884	19.95	1.9091	0.	883.29
18885	19.95	2.	5.e-002	7.3221
18886	20.226	2.	0.	824.72
18887	20.134	1.9091	0.	843.87
18888	20.134	2.	5.e-002	7.3022
18889	20.41	2.	0.	785.86
18890	20.318	1.9091	0.	804.76
18891	20.318	2.	5.e-002	7.2841
18892	20.594	2.	0.	747.33
18893	20.502	1.9091	0.	765.98
18894	20.502	2.	5.e-002	7.2679
18895	20.778	2.	0.	709.15
18896	20.686	1.9091	0.	727.53
18897	20.686	2.	5.e-002	7.2537
18898	20.962	2.	0.	671.35
18899	20.87	1.9091	0.	689.44
18900	20.87	2.	5.e-002	7.242
18901	21.146	2.	0.	633.95
18902	21.054	1.9091	0.	651.72
18903	21.054	2.	5.e-002	7.2328
18904	21.33	2.	0.	596.96
18905	21.238	1.9091	0.	614.41
18906	21.238	2.	5.e-002	7.2266
18907	21.515	2.	0.	560.44
18908	21.422	1.9091	0.	577.53
18909	21.422	2.	5.e-002	7.2237
18910	21.699	2.	0.	524.4
18911	21.607	1.9091	0.	541.11
18912	21.607	2.	5.e-002	7.2246
18913	21.883	2.	0.	488.91
18914	21.791	1.9091	0.	505.2
18915	21.791	2.	5.e-002	7.2298
18916	22.067	2.	0.	454.02
18917	21.975	1.9091	0.	469.85
18918	21.975	2.	5.e-002	7.2399
18919	22.251	2.	0.	419.79
18920	22.159	1.9091	0.	435.14
18921	22.159	2.	5.e-002	7.2555
18922	22.435	2.	0.	386.34
18923	22.343	1.9091	0.	401.13
18924	22.343	2.	5.e-002	7.2774
18925	22.619	2.	0.	353.78
18926	22.527	1.9091	0.	367.96
18927	22.527	2.	5.e-002	7.3066
18928	22.803	2.	0.	322.29
18929	22.711	1.9091	0.	335.76
18930	22.711	2.	5.e-002	7.3439
18931	22.987	2.	0.	292.11
18932	22.895	1.9091	0.	304.73
18933	22.895	2.	5.e-002	7.3903
18934	23.172	2.	0.	263.57
18935	23.079	1.9091	0.	275.17
18936	23.079	2.	5.e-002	7.4466
18937	23.356	2.	0.	237.15
18938	23.264	1.9091	0.	247.48
18939	23.264	2.	5.e-002	7.5134
18940	23.54	2.	0.	213.56
18941	23.448	1.9091	0.	222.24
18942	23.448	2.	5.e-002	7.5909
18943	23.724	2.	0.	193.77
18944	23.632	1.9091	0.	200.29
18945	23.632	2.	5.e-002	7.6811
18946	23.816	1.9091	0.	182.81
18947	23.816	2.	5.e-002	7.8298
18948	23.908	2.	0.	179.51
18949	8.4428	1.8182	0.	7539.3
18950	8.3508	1.7273	0.	7698.6
18951	8.3508	1.8182	5.e-002	647.01
18952	8.2587	1.8182	0.	7618.5
18953	8.6269	1.8182	0.	5815.9
18954	8.5349	1.7273	0.	5843.4
18955	8.5349	1.8182	5.e-002	216.06
18956	8.811	1.8182	0.	5000.3
18957	8.719	1.7273	0.	4987.
18958	8.719	1.8182	5.e-002	99.833
18959	8.9952	1.8182	0.	4517.2
18960	8.9031	1.7273	0.	4495.7
18961	8.9031	1.8182	5.e-002	71.779
18962	9.1793	1.8182	0.	4189.7
18963	9.0872	1.7273	0.	4166.4
18964	9.0872	1.8182	5.e-002	56.074
18965	9.3634	1.8182	0.	3954.
18966	9.2713	1.7273	0.	3935.8
18967	9.2713	1.8182	5.e-002	45.23
18968	9.5475	1.8182	0.	3775.3
18969	9.4554	1.7273	0.	3764.2
18970	9.4554	1.8182	5.e-002	37.543
18971	9.7316	1.8182	0.	3633.9
18972	9.6395	1.7273	0.	3630.3
18973	9.6395	1.8182	5.e-002	31.744
18974	9.9157	1.8182	0.	3517.5
18975	9.8236	1.7273	0.	3520.8
18976	9.8236	1.8182	5.e-002	27.228
18977	10.1	1.8182	0.	3418.6
18978	10.008	1.7273	0.	3427.8
18979	10.008	1.8182	5.e-002	23.632
18980	10.284	1.8182	0.	3332.4
18981	10.192	1.7273	0.	3346.4
18982	10.192	1.8182	5.e-002	20.737
18983	10.468	1.8182	0.	3255.4
18984	10.376	1.7273	0.	3273.1
18985	10.376	1.8182	5.e-002	18.395
18986	10.652	1.8182	0.	3185.5
18987	10.56	1.7273	0.	3206.
18988	10.56	1.8182	5.e-002	16.501
18989	10.836	1.8182	0.	3120.9
18990	10.744	1.7273	0.	3143.4
18991	10.744	1.8182	5.e-002	14.971
18992	11.02	1.8182	0.	3060.5
18993	10.928	1.7273	0.	3084.5
18994	10.928	1.8182	5.e-002	13.741
18995	11.204	1.8182	0.	3003.3
18996	11.112	1.7273	0.	3028.2
18997	11.112	1.8182	5.e-002	12.754
18998	11.389	1.8182	0.	2948.7
18999	11.297	1.7273	0.	2974.2
19000	11.297	1.8182	5.e-002	11.965
19001	11.573	1.8182	0.	2896.
19002	11.481	1.7273	0.	2922.
19003	11.481	1.8182	5.e-002	11.333
19004	11.757	1.8182	0.	2845.
19005	11.665	1.7273	0.	2871.1
19006	11.665	1.8182	5.e-002	10.827
19007	11.941	1.8182	0.	2795.2
19008	11.849	1.7273	0.	2821.3
19009	11.849	1.8182	5.e-002	10.42
19010	12.125	1.8182	0.	2746.3
19011	12.033	1.7273	0.	2772.4
19012	12.033	1.8182	5.e-002	10.09
19013	12.309	1.8182	0.	2698.2
19014	12.217	1.7273	0.	2724.2
19015	12.217	1.8182	5.e-002	9.8205
19016	12.493	1.8182	0.	2650.8
19017	12.401	1.7273	0.	2676.6
19018	12.401	1.8182	5.e-002	9.598
19019	12.677	1.8182	0.	2603.8
19020	12.585	1.7273	0.	2629.4
19021	12.585	1.8182	5.e-002	9.4119
19022	12.861	1.8182	0.	2557.1
19023	12.769	1.7273	0.	2582.6
19024	12.769	1.8182	5.e-002	9.2543
19025	13.046	1.8182	0.	2510.8
19026	12.953	1.7273	0.	2536.1
19027	12.953	1.8182	5.e-002	9.1191
19028	13.23	1.8182	0.	2464.7
19029	13.138	1.7273	0.	2489.8
19030	13.138	1.8182	5.e-002	9.0013
19031	13.414	1.8182	0.	2418.8
19032	13.322	1.7273	0.	2443.7
19033	13.322	1.8182	5.e-002	8.8973
19034	13.598	1.8182	0.	2373.1
19035	13.506	1.7273	0.	2397.8
19036	13.506	1.8182	5.e-002	8.8044
19037	13.782	1.8182	0.	2327.5
19038	13.69	1.7273	0.	2352.
19039	13.69	1.8182	5.e-002	8.7203
19040	13.966	1.8182	0.	2282.
19041	13.874	1.7273	0.	2306.4
19042	13.874	1.8182	5.e-002	8.6434
19043	14.15	1.8182	0.	2236.7
19044	14.058	1.7273	0.	2260.9
19045	14.058	1.8182	5.e-002	8.5725
19046	14.334	1.8182	0.	2191.4
19047	14.242	1.7273	0.	2215.5
19048	14.242	1.8182	5.e-002	8.5064
19049	14.518	1.8182	0.	2146.3
19050	14.426	1.7273	0.	2170.2
19051	14.426	1.8182	5.e-002	8.4443
19052	14.703	1.8182	0.	2101.2
19053	14.61	1.7273	0.	2125.
19054	14.61	1.8182	5.e-002	8.3857
19055	14.887	1.8182	0.	2056.3
19056	14.795	1.7273	0.	2079.9
19057	14.795	1.8182	5.e-002	8.33
19058	15.071	1.8182	0.	2011.4
19059	14.979	1.7273	0.	2035.
19060	14.979	1.8182	5.e-002	8.2768
19061	15.255	1.8182	0.	1966.7
19062	15.163	1.7273	0.	1990.1
19063	15.163	1.8182	5.e-002	8.2259
19064	15.439	1.8182	0.	1922.1
19065	15.347	1.7273	0.	1945.4
19066	15.347	1.8182	5.e-002	8.1769
19067	15.623	1.8182	0.	1877.7
19068	15.531	1.7273	0.	1900.8
19069	15.531	1.8182	5.e-002	8.1295
19070	15.807	1.8182	0.	1833.3
19071	15.715	1.7273	0.	1856.3
19072	15.715	1.8182	5.e-002	8.0838
19073	15.991	1.8182	0.	1789.1
19074	15.899	1.7273	0.	1812.
19075	15.899	1.8182	5.e-002	8.0395
19076	16.175	1.8182	0.	1745.
19077	16.083	1.7273	0.	1767.8
19078	16.083	1.8182	5.e-002	7.9964
19079	16.359	1.8182	0.	1701.1
19080	16.267	1.7273	0.	1723.7
19081	16.267	1.8182	5.e-002	7.9545
19082	16.544	1.8182	0.	1657.4
19083	16.452	1.7273	0.	1679.8
19084	16.452	1.8182	5.e-002	7.9138
19085	16.728	1.8182	0.	1613.8
19086	16.636	1.7273	0.	1636.1
19087	16.636	1.8182	5.e-002	7.8741
19088	16.912	1.8182	0.	1570.3
19089	16.82	1.7273	0.	1592.5
19090	16.82	1.8182	5.e-002	7.8353
19091	17.096	1.8182	0.	1527.1
19092	17.004	1.7273	0.	1549.2
19093	17.004	1.8182	5.e-002	7.7975
19094	17.28	1.8182	0.	1484.
19095	17.188	1.7273	0.	1505.9
19096	17.188	1.8182	5.e-002	7.7607
19097	17.464	1.8182	0.	1441.1
19098	17.372	1.7273	0.	1462.9
19099	17.372	1.8182	5.e-002	7.7247
19100	17.648	1.8182	0.	1398.3
19101	17.556	1.7273	0.	1420.
19102	17.556	1.8182	5.e-002	7.6895
19103	17.832	1.8182	0.	1355.8
19104	17.74	1.7273	0.	1377.4
19105	17.74	1.8182	5.e-002	7.6553
19106	18.016	1.8182	0.	1313.5
19107	17.924	1.7273	0.	1334.9
19108	17.924	1.8182	5.e-002	7.6219
19109	18.201	1.8182	0.	1271.4
19110	18.109	1.7273	0.	1292.7
19111	18.109	1.8182	5.e-002	7.5893
19112	18.385	1.8182	0.	1229.5
19113	18.293	1.7273	0.	1250.6
19114	18.293	1.8182	5.e-002	7.5577
19115	18.569	1.8182	0.	1187.9
19116	18.477	1.7273	0.	1208.8
19117	18.477	1.8182	5.e-002	7.5269
19118	18.753	1.8182	0.	1146.4
19119	18.661	1.7273	0.	1167.2
19120	18.661	1.8182	5.e-002	7.4971
19121	18.937	1.8182	0.	1105.2
19122	18.845	1.7273	0.	1125.8
19123	18.845	1.8182	5.e-002	7.4683
19124	19.121	1.8182	0.	1064.2
19125	19.029	1.7273	0.	1084.7
19126	19.029	1.8182	5.e-002	7.4404
19127	19.305	1.8182	0.	1023.5
19128	19.213	1.7273	0.	1043.8
19129	19.213	1.8182	5.e-002	7.4137
19130	19.489	1.8182	0.	983.05
19131	19.397	1.7273	0.	1003.1
19132	19.397	1.8182	5.e-002	7.388
19133	19.673	1.8182	0.	942.86
19134	19.581	1.7273	0.	962.73
19135	19.581	1.8182	5.e-002	7.3636
19136	19.858	1.8182	0.	902.94
19137	19.766	1.7273	0.	922.6
19138	19.766	1.8182	5.e-002	7.3405
19139	20.042	1.8182	0.	863.3
19140	19.95	1.7273	0.	882.74
19141	19.95	1.8182	5.e-002	7.3188
19142	20.226	1.8182	0.	823.96
19143	20.134	1.7273	0.	843.17
19144	20.134	1.8182	5.e-002	7.2986
19145	20.41	1.8182	0.	784.93
19146	20.318	1.7273	0.	803.89
19147	20.318	1.8182	5.e-002	7.2801
19148	20.594	1.8182	0.	746.23
19149	20.502	1.7273	0.	764.92
19150	20.502	1.8182	5.e-002	7.2634
19151	20.778	1.8182	0.	707.86
19152	20.686	1.7273	0.	726.28
19153	20.686	1.8182	5.e-002	7.2487
19154	20.962	1.8182	0.	669.85
19155	20.87	1.7273	0.	687.98
19156	20.87	1.8182	5.e-002	7.2363
19157	21.146	1.8182	0.	632.23
19158	21.054	1.7273	0.	650.03
19159	21.054	1.8182	5.e-002	7.2264
19160	21.33	1.8182	0.	595.01
19161	21.238	1.7273	0.	612.47
19162	21.238	1.8182	5.e-002	7.2193
19163	21.515	1.8182	0.	558.23
19164	21.422	1.7273	0.	575.32
19165	21.422	1.8182	5.e-002	7.2153
19166	21.699	1.8182	0.	521.93
19167	21.607	1.7273	0.	538.63
19168	21.607	1.8182	5.e-002	7.215
19169	21.883	1.8182	0.	486.15
19170	21.791	1.7273	0.	502.42
19171	21.791	1.8182	5.e-002	7.2188
19172	22.067	1.8182	0.	450.97
19173	21.975	1.7273	0.	466.76
19174	21.975	1.8182	5.e-002	7.2273
19175	22.251	1.8182	0.	416.45
19176	22.159	1.7273	0.	431.71
19177	22.159	1.8182	5.e-002	7.2413
19178	22.435	1.8182	0.	382.69
19179	22.343	1.7273	0.	397.37
19180	22.343	1.8182	5.e-002	7.2616
19181	22.619	1.8182	0.	349.82
19182	22.527	1.7273	0.	363.85
19183	22.527	1.8182	5.e-002	7.2892
19184	22.803	1.8182	0.	318.03
19185	22.711	1.7273	0.	331.3
19186	22.711	1.8182	5.e-002	7.3252
19187	22.987	1.8182	0.	287.54
19188	22.895	1.7273	0.	299.93
19189	22.895	1.8182	5.e-002	7.3709
19190	23.172	1.8182	0.	258.7
19191	23.079	1.7273	0.	270.02
19192	23.079	1.8182	5.e-002	7.4274
19193	23.356	1.8182	0.	231.99
19194	23.264	1.7273	0.	242.
19195	23.264	1.8182	5.e-002	7.4959
19196	23.54	1.8182	0.	208.14
19197	23.448	1.7273	0.	216.44
19198	23.448	1.8182	5.e-002	7.5766
19199	23.724	1.8182	0.	188.14
19200	23.632	1.7273	0.	194.22
19201	23.632	1.8182	5.e-002	7.673
19202	23.816	1.7273	0.	176.57
19203	23.816	1.8182	5.e-002	7.8458
19204	23.908	1.8182	0.	173.67
19205	8.4428	1.6364	0.	5859.5
19206	8.3508	1.5455	0.	5825.3
19207	8.3508	1.6364	5.e-002	360.17
19208	8.2587	1.6364	0.	5282.5
19209	8.6269	1.6364	0.	4976.2
19210	8.5349	1.5455	0.	4854.6
19211	8.5349	1.6364	5.e-002	141.34
19212	8.811	1.6364	0.	4464.6
19213	8.719	1.5455	0.	4366.6
19214	8.719	1.6364	5.e-002	86.578
19215	8.9952	1.6364	0.	4133.8
19216	8.9031	1.5455	0.	4052.1
19217	8.9031	1.6364	5.e-002	62.215
19218	9.1793	1.6364	0.	3905.7
19219	9.0872	1.5455	0.	3839.9
19220	9.0872	1.6364	5.e-002	47.926
19221	9.3634	1.6364	0.	3741.8
19222	9.2713	1.5455	0.	3691.9
19223	9.2713	1.6364	5.e-002	39.136
19224	9.5475	1.6364	0.	3616.7
19225	9.4554	1.5455	0.	3581.6
19226	9.4554	1.6364	5.e-002	32.647
19227	9.7316	1.6364	0.	3515.8
19228	9.6395	1.5455	0.	3493.9
19229	9.6395	1.6364	5.e-002	27.707
19230	9.9157	1.6364	0.	3430.4
19231	9.8236	1.5455	0.	3419.6
19232	9.8236	1.6364	5.e-002	23.839
19233	10.1	1.6364	0.	3355.2
19234	10.008	1.5455	0.	3353.5
19235	10.008	1.6364	5.e-002	20.765
19236	10.284	1.6364	0.	3287.
19237	10.192	1.5455	0.	3292.6
19238	10.192	1.6364	5.e-002	18.305
19239	10.468	1.6364	0.	3223.6
19240	10.376	1.5455	0.	3234.9
19241	10.376	1.6364	5.e-002	16.337
19242	10.652	1.6364	0.	3164.
19243	10.56	1.5455	0.	3179.6
19244	10.56	1.6364	5.e-002	14.765
19245	10.836	1.6364	0.	3107.
19246	10.744	1.5455	0.	3125.9
19247	10.744	1.6364	5.e-002	13.517
19248	11.02	1.6364	0.	3052.3
19249	10.928	1.5455	0.	3073.6
19250	10.928	1.6364	5.e-002	12.531
19251	11.204	1.6364	0.	2999.2
19252	11.112	1.5455	0.	3022.2
19253	11.112	1.6364	5.e-002	11.755
19254	11.389	1.6364	0.	2947.6
19255	11.297	1.5455	0.	2971.8
19256	11.297	1.6364	5.e-002	11.145
19257	11.573	1.6364	0.	2897.
19258	11.481	1.5455	0.	2922.
19259	11.481	1.6364	5.e-002	10.665
19260	11.757	1.6364	0.	2847.4
19261	11.665	1.5455	0.	2872.9
19262	11.665	1.6364	5.e-002	10.286
19263	11.941	1.6364	0.	2798.6
19264	11.849	1.5455	0.	2824.4
19265	11.849	1.6364	5.e-002	9.9833
19266	12.125	1.6364	0.	2750.3
19267	12.033	1.5455	0.	2776.3
19268	12.033	1.6364	5.e-002	9.7392
19269	12.309	1.6364	0.	2702.6
19270	12.217	1.5455	0.	2728.5
19271	12.217	1.6364	5.e-002	9.5394
19272	12.493	1.6364	0.	2655.3
19273	12.401	1.5455	0.	2681.2
19274	12.401	1.6364	5.e-002	9.3732
19275	12.677	1.6364	0.	2608.3
19276	12.585	1.5455	0.	2634.1
19277	12.585	1.6364	5.e-002	9.2324
19278	12.861	1.6364	0.	2561.6
19279	12.769	1.5455	0.	2587.2
19280	12.769	1.6364	5.e-002	9.111
19281	13.046	1.6364	0.	2515.1
19282	12.953	1.5455	0.	2540.6
19283	12.953	1.6364	5.e-002	9.0046
19284	13.23	1.6364	0.	2468.8
19285	13.138	1.5455	0.	2494.2
19286	13.138	1.6364	5.e-002	8.9098
19287	13.414	1.6364	0.	2422.7
19288	13.322	1.5455	0.	2447.9
19289	13.322	1.6364	5.e-002	8.8241
19290	13.598	1.6364	0.	2376.8
19291	13.506	1.5455	0.	2401.8
19292	13.506	1.6364	5.e-002	8.7457
19293	13.782	1.6364	0.	2331.
19294	13.69	1.5455	0.	2355.8
19295	13.69	1.6364	5.e-002	8.6732
19296	13.966	1.6364	0.	2285.3
19297	13.874	1.5455	0.	2309.9
19298	13.874	1.6364	5.e-002	8.6054
19299	14.15	1.6364	0.	2239.7
19300	14.058	1.5455	0.	2264.2
19301	14.058	1.6364	5.e-002	8.5417
19302	14.334	1.6364	0.	2194.3
19303	14.242	1.5455	0.	2218.6
19304	14.242	1.6364	5.e-002	8.4813
19305	14.518	1.6364	0.	2148.9
19306	14.426	1.5455	0.	2173.1
19307	14.426	1.6364	5.e-002	8.4237
19308	14.703	1.6364	0.	2103.7
19309	14.61	1.5455	0.	2127.7
19310	14.61	1.6364	5.e-002	8.3688
19311	14.887	1.6364	0.	2058.6
19312	14.795	1.5455	0.	2082.5
19313	14.795	1.6364	5.e-002	8.316
19314	15.071	1.6364	0.	2013.6
19315	14.979	1.5455	0.	2037.4
19316	14.979	1.6364	5.e-002	8.265
19317	15.255	1.6364	0.	1968.8
19318	15.163	1.5455	0.	1992.4
19319	15.163	1.6364	5.e-002	8.2159
19320	15.439	1.6364	0.	1924.1
19321	15.347	1.5455	0.	1947.5
19322	15.347	1.6364	5.e-002	8.1684
19323	15.623	1.6364	0.	1879.5
19324	15.531	1.5455	0.	1902.8
19325	15.531	1.6364	5.e-002	8.1222
19326	15.807	1.6364	0.	1835.
19327	15.715	1.5455	0.	1858.2
19328	15.715	1.6364	5.e-002	8.0775
19329	15.991	1.6364	0.	1790.7
19330	15.899	1.5455	0.	1813.7
19331	15.899	1.6364	5.e-002	8.0339
19332	16.175	1.6364	0.	1746.5
19333	16.083	1.5455	0.	1769.4
19334	16.083	1.6364	5.e-002	7.9914
19335	16.359	1.6364	0.	1702.5
19336	16.267	1.5455	0.	1725.3
19337	16.267	1.6364	5.e-002	7.95
19338	16.544	1.6364	0.	1658.6
19339	16.452	1.5455	0.	1681.3
19340	16.452	1.6364	5.e-002	7.9097
19341	16.728	1.6364	0.	1614.9
19342	16.636	1.5455	0.	1637.4
19343	16.636	1.6364	5.e-002	7.8703
19344	16.912	1.6364	0.	1571.4
19345	16.82	1.5455	0.	1593.8
19346	16.82	1.6364	5.e-002	7.8318
19347	17.096	1.6364	0.	1528.1
19348	17.004	1.5455	0.	1550.3
19349	17.004	1.6364	5.e-002	7.7942
19350	17.28	1.6364	0.	1484.9
19351	17.188	1.5455	0.	1507.
19352	17.188	1.6364	5.e-002	7.7576
19353	17.464	1.6364	0.	1441.9
19354	17.372	1.5455	0.	1463.9
19355	17.372	1.6364	5.e-002	7.7217
19356	17.648	1.6364	0.	1399.1
19357	17.556	1.5455	0.	1420.9
19358	17.556	1.6364	5.e-002	7.6867
19359	17.832	1.6364	0.	1356.5
19360	17.74	1.5455	0.	1378.2
19361	17.74	1.6364	5.e-002	7.6525
19362	18.016	1.6364	0.	1314.1
19363	17.924	1.5455	0.	1335.6
19364	17.924	1.6364	5.e-002	7.6191
19365	18.201	1.6364	0.	1271.9
19366	18.109	1.5455	0.	1293.3
19367	18.109	1.6364	5.e-002	7.5866
19368	18.385	1.6364	0.	1230.
19369	18.293	1.5455	0.	1251.2
19370	18.293	1.6364	5.e-002	7.555
19371	18.569	1.6364	0.	1188.2
19372	18.477	1.5455	0.	1209.3
19373	18.477	1.6364	5.e-002	7.5242
19374	18.753	1.6364	0.	1146.7
19375	18.661	1.5455	0.	1167.5
19376	18.661	1.6364	5.e-002	7.4944
19377	18.937	1.6364	0.	1105.4
19378	18.845	1.5455	0.	1126.1
19379	18.845	1.6364	5.e-002	7.4655
19380	19.121	1.6364	0.	1064.3
19381	19.029	1.5455	0.	1084.8
19382	19.029	1.6364	5.e-002	7.4375
19383	19.305	1.6364	0.	1023.4
19384	19.213	1.5455	0.	1043.8
19385	19.213	1.6364	5.e-002	7.4107
19386	19.489	1.6364	0.	982.86
19387	19.397	1.5455	0.	1003.
19388	19.397	1.6364	5.e-002	7.3849
19389	19.673	1.6364	0.	942.52
19390	19.581	1.5455	0.	962.49
19391	19.581	1.6364	5.e-002	7.3603
19392	19.858	1.6364	0.	902.46
19393	19.766	1.5455	0.	922.21
19394	19.766	1.6364	5.e-002	7.3369
19395	20.042	1.6364	0.	862.67
19396	19.95	1.5455	0.	882.19
19397	19.95	1.6364	5.e-002	7.3149
19398	20.226	1.6364	0.	823.16
19399	20.134	1.5455	0.	842.45
19400	20.134	1.6364	5.e-002	7.2944
19401	20.41	1.6364	0.	783.94
19402	20.318	1.5455	0.	802.99
19403	20.318	1.6364	5.e-002	7.2755
19404	20.594	1.6364	0.	745.03
19405	20.502	1.5455	0.	763.82
19406	20.502	1.6364	5.e-002	7.2583
19407	20.778	1.6364	0.	706.45
19408	20.686	1.5455	0.	724.95
19409	20.686	1.6364	5.e-002	7.243
19410	20.962	1.6364	0.	668.21
19411	20.87	1.5455	0.	686.41
19412	20.87	1.6364	5.e-002	7.2299
19413	21.146	1.6364	0.	630.32
19414	21.054	1.5455	0.	648.21
19415	21.054	1.6364	5.e-002	7.2191
19416	21.33	1.6364	0.	592.83
19417	21.238	1.5455	0.	610.37
19418	21.238	1.6364	5.e-002	7.2109
19419	21.515	1.6364	0.	555.76
19420	21.422	1.5455	0.	572.92
19421	21.422	1.6364	5.e-002	7.2058
19422	21.699	1.6364	0.	519.15
19423	21.607	1.5455	0.	535.89
19424	21.607	1.6364	5.e-002	7.2041
19425	21.883	1.6364	0.	483.04
19426	21.791	1.5455	0.	499.34
19427	21.791	1.6364	5.e-002	7.2063
19428	22.067	1.6364	0.	447.51
19429	21.975	1.5455	0.	463.31
19430	21.975	1.6364	5.e-002	7.213
19431	22.251	1.6364	0.	412.62
19432	22.159	1.5455	0.	427.87
19433	22.159	1.6364	5.e-002	7.225
19434	22.435	1.6364	0.	378.48
19435	22.343	1.5455	0.	393.12
19436	22.343	1.6364	5.e-002	7.2431
19437	22.619	1.6364	0.	345.23
19438	22.527	1.5455	0.	359.17
19439	22.527	1.6364	5.e-002	7.2687
19440	22.803	1.6364	0.	313.05
19441	22.711	1.5455	0.	326.18
19442	22.711	1.6364	5.e-002	7.3029
19443	22.987	1.6364	0.	282.17
19444	22.895	1.5455	0.	294.37
19445	22.895	1.6364	5.e-002	7.3474
19446	23.172	1.6364	0.	252.96
19447	23.079	1.5455	0.	264.04
19448	23.079	1.6364	5.e-002	7.4038
19449	23.356	1.6364	0.	225.89
19450	23.264	1.5455	0.	235.59
19451	23.264	1.6364	5.e-002	7.4737
19452	23.54	1.6364	0.	201.7
19453	23.448	1.5455	0.	209.63
19454	23.448	1.6364	5.e-002	7.5582
19455	23.724	1.6364	0.	181.44
19456	23.632	1.5455	0.	187.06
19457	23.632	1.6364	5.e-002	7.6622
19458	23.816	1.5455	0.	169.19
19459	23.816	1.6364	5.e-002	7.8635
19460	23.908	1.6364	0.	166.71
19461	8.4428	1.4545	0.	4660.5
19462	8.3508	1.3636	0.	4527.5
19463	8.3508	1.4545	5.e-002	237.25
19464	8.2587	1.4545	0.	4102.1
19465	8.6269	1.4545	0.	4190.
19466	8.5349	1.3636	0.	3996.5
19467	8.5349	1.4545	5.e-002	139.2
19468	8.811	1.4545	0.	3925.6
19469	8.719	1.3636	0.	3762.
19470	8.719	1.4545	5.e-002	83.276
19471	8.9952	1.4545	0.	3742.5
19472	8.9031	1.3636	0.	3610.
19473	8.9031	1.4545	5.e-002	58.732
19474	9.1793	1.4545	0.	3617.1
19475	9.0872	1.3636	0.	3512.8
19476	9.0872	1.4545	5.e-002	44.17
19477	9.3634	1.4545	0.	3526.4
19478	9.2713	1.3636	0.	3447.3
19479	9.2713	1.4545	5.e-002	35.287
19480	9.5475	1.4545	0.	3455.8
19481	9.4554	1.3636	0.	3398.4
19482	9.4554	1.4545	5.e-002	29.024
19483	9.7316	1.4545	0.	3396.
19484	9.6395	1.3636	0.	3356.9
19485	9.6395	1.4545	5.e-002	24.381
19486	9.9157	1.4545	0.	3341.8
19487	9.8236	1.3636	0.	3317.8
19488	9.8236	1.4545	5.e-002	20.811
19489	10.1	1.4545	0.	3290.5
19490	10.008	1.3636	0.	3278.6
19491	10.008	1.4545	5.e-002	18.034
19492	10.284	1.4545	0.	3240.4
19493	10.192	1.3636	0.	3238.1
19494	10.192	1.4545	5.e-002	15.872
19495	10.468	1.4545	0.	3190.8
19496	10.376	1.3636	0.	3196.
19497	10.376	1.4545	5.e-002	14.198
19498	10.652	1.4545	0.	3141.6
19499	10.56	1.3636	0.	3152.5
19500	10.56	1.4545	5.e-002	12.913
19501	10.836	1.4545	0.	3092.5
19502	10.744	1.3636	0.	3107.8
19503	10.744	1.4545	5.e-002	11.937
19504	11.02	1.4545	0.	3043.5
19505	10.928	1.3636	0.	3062.1
19506	10.928	1.4545	5.e-002	11.202
19507	11.204	1.4545	0.	2994.8
19508	11.112	1.3636	0.	3015.8
19509	11.112	1.4545	5.e-002	10.652
19510	11.389	1.4545	0.	2946.2
19511	11.297	1.3636	0.	2969.
19512	11.297	1.4545	5.e-002	10.24
19513	11.573	1.4545	0.	2897.9
19514	11.481	1.3636	0.	2921.9
19515	11.481	1.4545	5.e-002	9.9289
19516	11.757	1.4545	0.	2849.9
19517	11.665	1.3636	0.	2874.7
19518	11.665	1.4545	5.e-002	9.6912
19519	11.941	1.4545	0.	2802.1
19520	11.849	1.3636	0.	2827.4
19521	11.849	1.4545	5.e-002	9.5058
19522	12.125	1.4545	0.	2754.5
19523	12.033	1.3636	0.	2780.1
19524	12.033	1.4545	5.e-002	9.3573
19525	12.309	1.4545	0.	2707.1
19526	12.217	1.3636	0.	2733.
19527	12.217	1.4545	5.e-002	9.2347
19528	12.493	1.4545	0.	2660.
19529	12.401	1.3636	0.	2685.9
19530	12.401	1.4545	5.e-002	9.1305
19531	12.677	1.4545	0.	2613.1
19532	12.585	1.3636	0.	2638.9
19533	12.585	1.4545	5.e-002	9.0393
19534	12.861	1.4545	0.	2566.3
19535	12.769	1.3636	0.	2592.1
19536	12.769	1.4545	5.e-002	8.9573
19537	13.046	1.4545	0.	2519.7
19538	12.953	1.3636	0.	2545.4
19539	12.953	1.4545	5.e-002	8.8822
19540	13.23	1.4545	0.	2473.3
19541	13.138	1.3636	0.	2498.8
19542	13.138	1.4545	5.e-002	8.8122
19543	13.414	1.4545	0.	2427.
19544	13.322	1.3636	0.	2452.4
19545	13.322	1.4545	5.e-002	8.7461
19546	13.598	1.4545	0.	2380.8
19547	13.506	1.3636	0.	2406.
19548	13.506	1.4545	5.e-002	8.6833
19549	13.782	1.4545	0.	2334.8
19550	13.69	1.3636	0.	2359.9
19551	13.69	1.4545	5.e-002	8.623
19552	13.966	1.4545	0.	2288.9
19553	13.874	1.3636	0.	2313.8
19554	13.874	1.4545	5.e-002	8.5649
19555	14.15	1.4545	0.	2243.1
19556	14.058	1.3636	0.	2267.8
19557	14.058	1.4545	5.e-002	8.5089
19558	14.334	1.4545	0.	2197.5
19559	14.242	1.3636	0.	2222.
19560	14.242	1.4545	5.e-002	8.4545
19561	14.518	1.4545	0.	2151.9
19562	14.426	1.3636	0.	2176.3
19563	14.426	1.4545	5.e-002	8.4018
19564	14.703	1.4545	0.	2106.5
19565	14.61	1.3636	0.	2130.8
19566	14.61	1.4545	5.e-002	8.3506
19567	14.887	1.4545	0.	2061.2
19568	14.795	1.3636	0.	2085.3
19569	14.795	1.4545	5.e-002	8.3009
19570	15.071	1.4545	0.	2016.1
19571	14.979	1.3636	0.	2040.
19572	14.979	1.4545	5.e-002	8.2523
19573	15.255	1.4545	0.	1971.1
19574	15.163	1.3636	0.	1994.9
19575	15.163	1.4545	5.e-002	8.2052
19576	15.439	1.4545	0.	1926.2
19577	15.347	1.3636	0.	1949.8
19578	15.347	1.4545	5.e-002	8.1592
19579	15.623	1.4545	0.	1881.5
19580	15.531	1.3636	0.	1905.
19581	15.531	1.4545	5.e-002	8.1142
19582	15.807	1.4545	0.	1836.9
19583	15.715	1.3636	0.	1860.2
19584	15.715	1.4545	5.e-002	8.0705
19585	15.991	1.4545	0.	1792.5
19586	15.899	1.3636	0.	1815.6
19587	15.899	1.4545	5.e-002	8.0277
19588	16.175	1.4545	0.	1748.2
19589	16.083	1.3636	0.	1771.2
19590	16.083	1.4545	5.e-002	7.9859
19591	16.359	1.4545	0.	1704.1
19592	16.267	1.3636	0.	1727.
19593	16.267	1.4545	5.e-002	7.945
19594	16.544	1.4545	0.	1660.1
19595	16.452	1.3636	0.	1682.9
19596	16.452	1.4545	5.e-002	7.9051
19597	16.728	1.4545	0.	1616.3
19598	16.636	1.3636	0.	1638.9
19599	16.636	1.4545	5.e-002	7.8661
19600	16.912	1.4545	0.	1572.7
19601	16.82	1.3636	0.	1595.2
19602	16.82	1.4545	5.e-002	7.8279
19603	17.096	1.4545	0.	1529.3
19604	17.004	1.3636	0.	1551.6
19605	17.004	1.4545	5.e-002	7.7905
19606	17.28	1.4545	0.	1486.
19607	17.188	1.3636	0.	1508.2
19608	17.188	1.4545	5.e-002	7.7541
19609	17.464	1.4545	0.	1442.9
19610	17.372	1.3636	0.	1465.
19611	17.372	1.4545	5.e-002	7.7183
19612	17.648	1.4545	0.	1400.
19613	17.556	1.3636	0.	1422.
19614	17.556	1.4545	5.e-002	7.6834
19615	17.832	1.4545	0.	1357.4
19616	17.74	1.3636	0.	1379.1
19617	17.74	1.4545	5.e-002	7.6494
19618	18.016	1.4545	0.	1314.9
19619	17.924	1.3636	0.	1336.5
19620	17.924	1.4545	5.e-002	7.616
19621	18.201	1.4545	0.	1272.6
19622	18.109	1.3636	0.	1294.1
19623	18.109	1.4545	5.e-002	7.5836
19624	18.385	1.4545	0.	1230.5
19625	18.293	1.3636	0.	1251.8
19626	18.293	1.4545	5.e-002	7.552
19627	18.569	1.4545	0.	1188.6
19628	18.477	1.3636	0.	1209.8
19629	18.477	1.4545	5.e-002	7.5212
19630	18.753	1.4545	0.	1147.
19631	18.661	1.3636	0.	1168.
19632	18.661	1.4545	5.e-002	7.4913
19633	18.937	1.4545	0.	1105.6
19634	18.845	1.3636	0.	1126.4
19635	18.845	1.4545	5.e-002	7.4623
19636	19.121	1.4545	0.	1064.4
19637	19.029	1.3636	0.	1085.
19638	19.029	1.4545	5.e-002	7.4343
19639	19.305	1.4545	0.	1023.4
19640	19.213	1.3636	0.	1043.9
19641	19.213	1.4545	5.e-002	7.4072
19642	19.489	1.4545	0.	982.7
19643	19.397	1.3636	0.	1003.
19644	19.397	1.4545	5.e-002	7.3813
19645	19.673	1.4545	0.	942.23
19646	19.581	1.3636	0.	962.3
19647	19.581	1.4545	5.e-002	7.3565
19648	19.858	1.4545	0.	902.
19649	19.766	1.3636	0.	921.86
19650	19.766	1.4545	5.e-002	7.3329
19651	20.042	1.4545	0.	862.04
19652	19.95	1.3636	0.	881.68
19653	19.95	1.4545	5.e-002	7.3106
19654	20.226	1.4545	0.	822.34
19655	20.134	1.3636	0.	841.75
19656	20.134	1.4545	5.e-002	7.2897
19657	20.41	1.4545	0.	782.92
19658	20.318	1.3636	0.	802.09
19659	20.318	1.4545	5.e-002	7.2703
19660	20.594	1.4545	0.	743.79
19661	20.502	1.3636	0.	762.7
19662	20.502	1.4545	5.e-002	7.2526
19663	20.778	1.4545	0.	704.97
19664	20.686	1.3636	0.	723.59
19665	20.686	1.4545	5.e-002	7.2366
19666	20.962	1.4545	0.	666.47
19667	20.87	1.3636	0.	684.79
19668	20.87	1.4545	5.e-002	7.2227
19669	21.146	1.4545	0.	628.3
19670	21.054	1.3636	0.	646.31
19671	21.054	1.4545	5.e-002	7.211
19672	21.33	1.4545	0.	590.5
19673	21.238	1.3636	0.	608.16
19674	21.238	1.4545	5.e-002	7.2018
19675	21.515	1.4545	0.	553.1
19676	21.422	1.3636	0.	570.37
19677	21.422	1.4545	5.e-002	7.1953
19678	21.699	1.4545	0.	516.13
19679	21.607	1.3636	0.	532.99
19680	21.607	1.4545	5.e-002	7.192
19681	21.883	1.4545	0.	479.64
19682	21.791	1.3636	0.	496.04
19683	21.791	1.4545	5.e-002	7.1924
19684	22.067	1.4545	0.	443.69
19685	21.975	1.3636	0.	459.58
19686	21.975	1.4545	5.e-002	7.197
19687	22.251	1.4545	0.	408.37
19688	22.159	1.3636	0.	423.68
19689	22.159	1.4545	5.e-002	7.2067
19690	22.435	1.4545	0.	373.78
19691	22.343	1.3636	0.	388.44
19692	22.343	1.4545	5.e-002	7.2223
19693	22.619	1.4545	0.	340.06
19694	22.527	1.3636	0.	353.98
19695	22.527	1.4545	5.e-002	7.2452
19696	22.803	1.4545	0.	307.39
19697	22.711	1.3636	0.	320.46
19698	22.711	1.4545	5.e-002	7.277
19699	22.987	1.4545	0.	276.03
19700	22.895	1.3636	0.	288.1
19701	22.895	1.4545	5.e-002	7.3195
19702	23.172	1.4545	0.	246.33
19703	23.079	1.3636	0.	257.21
19704	23.079	1.4545	5.e-002	7.375
19705	23.356	1.4545	0.	218.8
19706	23.264	1.3636	0.	228.22
19707	23.264	1.4545	5.e-002	7.4461
19708	23.54	1.4545	0.	194.19
19709	23.448	1.3636	0.	201.76
19710	23.448	1.4545	5.e-002	7.5347
19711	23.724	1.4545	0.	173.6
19712	23.632	1.3636	0.	178.74
19713	23.632	1.4545	5.e-002	7.6477
19714	23.816	1.3636	0.	160.59
19715	23.816	1.4545	5.e-002	7.8825
19716	23.908	1.4545	0.	158.55
19717	8.4428	1.2727	0.	3755.2
19718	8.3508	1.1818	0.	3593.4
19719	8.3508	1.2727	5.e-002	187.44
19720	8.2587	1.2727	0.	3230.2
19721	8.6269	1.2727	0.	3507.9
19722	8.5349	1.1818	0.	3280.4
19723	8.5349	1.2727	5.e-002	112.02
19724	8.811	1.2727	0.	3412.9
19725	8.719	1.1818	0.	3208.7
19726	8.719	1.2727	5.e-002	82.021
19727	8.9952	1.2727	0.	3361.4
19728	8.9031	1.1818	0.	3191.4
19729	8.9031	1.2727	5.e-002	58.981
19730	9.1793	1.2727	0.	3332.3
19731	9.0872	1.1818	0.	3196.9
19732	9.0872	1.2727	5.e-002	44.167
19733	9.3634	1.2727	0.	3313.2
19734	9.2713	1.1818	0.	3209.4
19735	9.2713	1.2727	5.e-002	34.215
19736	9.5475	1.2727	0.	3296.2
19737	9.4554	1.1818	0.	3219.5
19738	9.4554	1.2727	5.e-002	27.29
19739	9.7316	1.2727	0.	3276.9
19740	9.6395	1.1818	0.	3222.8
19741	9.6395	1.2727	5.e-002	22.247
19742	9.9157	1.2727	0.	3253.6
19743	9.8236	1.1818	0.	3217.8
19744	9.8236	1.2727	5.e-002	18.484
19745	10.1	1.2727	0.	3225.7
19746	10.008	1.1818	0.	3204.6
19747	10.008	1.2727	5.e-002	15.665
19748	10.284	1.2727	0.	3193.5
19749	10.192	1.1818	0.	3184.
19750	10.192	1.2727	5.e-002	13.573
19751	10.468	1.2727	0.	3157.7
19752	10.376	1.1818	0.	3157.2
19753	10.376	1.2727	5.e-002	12.056
19754	10.652	1.2727	0.	3118.7
19755	10.56	1.1818	0.	3125.3
19756	10.56	1.2727	5.e-002	10.987
19757	10.836	1.2727	0.	3077.5
19758	10.744	1.1818	0.	3089.3
19759	10.744	1.2727	5.e-002	10.258
19760	11.02	1.2727	0.	3034.4
19761	10.928	1.1818	0.	3050.3
19762	10.928	1.2727	5.e-002	9.7753
19763	11.204	1.2727	0.	2990.
19764	11.112	1.1818	0.	3008.9
19765	11.112	1.2727	5.e-002	9.4645
19766	11.389	1.2727	0.	2944.6
19767	11.297	1.1818	0.	2965.8
19768	11.297	1.2727	5.e-002	9.2672
19769	11.573	1.2727	0.	2898.6
19770	11.481	1.1818	0.	2921.5
19771	11.481	1.2727	5.e-002	9.1418
19772	11.757	1.2727	0.	2852.2
19773	11.665	1.1818	0.	2876.2
19774	11.665	1.2727	5.e-002	9.0594
19775	11.941	1.2727	0.	2805.5
19776	11.849	1.1818	0.	2830.3
19777	11.849	1.2727	5.e-002	9.0015
19778	12.125	1.2727	0.	2758.7
19779	12.033	1.1818	0.	2784.
19780	12.033	1.2727	5.e-002	8.9562
19781	12.309	1.2727	0.	2711.8
19782	12.217	1.1818	0.	2737.4
19783	12.217	1.2727	5.e-002	8.9164
19784	12.493	1.2727	0.	2664.9
19785	12.401	1.1818	0.	2690.7
19786	12.401	1.2727	5.e-002	8.8781
19787	12.677	1.2727	0.	2618.
19788	12.585	1.1818	0.	2643.9
19789	12.585	1.2727	5.e-002	8.8391
19790	12.861	1.2727	0.	2571.2
19791	12.769	1.1818	0.	2597.1
19792	12.769	1.2727	5.e-002	8.7985
19793	13.046	1.2727	0.	2524.5
19794	12.953	1.1818	0.	2550.4
19795	12.953	1.2727	5.e-002	8.7561
19796	13.23	1.2727	0.	2478.
19797	13.138	1.1818	0.	2503.7
19798	13.138	1.2727	5.e-002	8.7118
19799	13.414	1.2727	0.	2431.5
19800	13.322	1.1818	0.	2457.1
19801	13.322	1.2727	5.e-002	8.666
19802	13.598	1.2727	0.	2385.1
19803	13.506	1.1818	0.	2410.6
19804	13.506	1.2727	5.e-002	8.6191
19805	13.782	1.2727	0.	2338.9
19806	13.69	1.1818	0.	2364.2
19807	13.69	1.2727	5.e-002	8.5714
19808	13.966	1.2727	0.	2292.8
19809	13.874	1.1818	0.	2317.9
19810	13.874	1.2727	5.e-002	8.5232
19811	14.15	1.2727	0.	2246.8
19812	14.058	1.1818	0.	2271.7
19813	14.058	1.2727	5.e-002	8.475
19814	14.334	1.2727	0.	2200.9
19815	14.242	1.1818	0.	2225.7
19816	14.242	1.2727	5.e-002	8.4269
19817	14.518	1.2727	0.	2155.2
19818	14.426	1.1818	0.	2179.8
19819	14.426	1.2727	5.e-002	8.379
19820	14.703	1.2727	0.	2109.6
19821	14.61	1.1818	0.	2134.
19822	14.61	1.2727	5.e-002	8.3318
19823	14.887	1.2727	0.	2064.1
19824	14.795	1.1818	0.	2088.4
19825	14.795	1.2727	5.e-002	8.2851
19826	15.071	1.2727	0.	2018.8
19827	14.979	1.1818	0.	2042.9
19828	14.979	1.2727	5.e-002	8.239
19829	15.255	1.2727	0.	1973.6
19830	15.163	1.1818	0.	1997.6
19831	15.163	1.2727	5.e-002	8.1938
19832	15.439	1.2727	0.	1928.6
19833	15.347	1.1818	0.	1952.4
19834	15.347	1.2727	5.e-002	8.1494
19835	15.623	1.2727	0.	1883.7
19836	15.531	1.1818	0.	1907.4
19837	15.531	1.2727	5.e-002	8.1057
19838	15.807	1.2727	0.	1839.
19839	15.715	1.1818	0.	1862.5
19840	15.715	1.2727	5.e-002	8.063
19841	15.991	1.2727	0.	1794.4
19842	15.899	1.1818	0.	1817.8
19843	15.899	1.2727	5.e-002	8.021
19844	16.175	1.2727	0.	1750.
19845	16.083	1.1818	0.	1773.2
19846	16.083	1.2727	5.e-002	7.9799
19847	16.359	1.2727	0.	1705.8
19848	16.267	1.1818	0.	1728.9
19849	16.267	1.2727	5.e-002	7.9395
19850	16.544	1.2727	0.	1661.7
19851	16.452	1.1818	0.	1684.6
19852	16.452	1.2727	5.e-002	7.9001
19853	16.728	1.2727	0.	1617.8
19854	16.636	1.1818	0.	1640.6
19855	16.636	1.2727	5.e-002	7.8614
19856	16.912	1.2727	0.	1574.1
19857	16.82	1.1818	0.	1596.8
19858	16.82	1.2727	5.e-002	7.8235
19859	17.096	1.2727	0.	1530.6
19860	17.004	1.1818	0.	1553.1
19861	17.004	1.2727	5.e-002	7.7864
19862	17.28	1.2727	0.	1487.2
19863	17.188	1.1818	0.	1509.6
19864	17.188	1.2727	5.e-002	7.7502
19865	17.464	1.2727	0.	1444.1
19866	17.372	1.1818	0.	1466.3
19867	17.372	1.2727	5.e-002	7.7146
19868	17.648	1.2727	0.	1401.1
19869	17.556	1.1818	0.	1423.1
19870	17.556	1.2727	5.e-002	7.6798
19871	17.832	1.2727	0.	1358.3
19872	17.74	1.1818	0.	1380.2
19873	17.74	1.2727	5.e-002	7.6458
19874	18.016	1.2727	0.	1315.7
19875	17.924	1.1818	0.	1337.5
19876	17.924	1.2727	5.e-002	7.6126
19877	18.201	1.2727	0.	1273.4
19878	18.109	1.1818	0.	1294.9
19879	18.109	1.2727	5.e-002	7.5801
19880	18.385	1.2727	0.	1231.2
19881	18.293	1.1818	0.	1252.6
19882	18.293	1.2727	5.e-002	7.5485
19883	18.569	1.2727	0.	1189.2
19884	18.477	1.1818	0.	1210.5
19885	18.477	1.2727	5.e-002	7.5177
19886	18.753	1.2727	0.	1147.5
19887	18.661	1.1818	0.	1168.6
19888	18.661	1.2727	5.e-002	7.4878
19889	18.937	1.2727	0.	1105.9
19890	18.845	1.1818	0.	1126.9
19891	18.845	1.2727	5.e-002	7.4587
19892	19.121	1.2727	0.	1064.6
19893	19.029	1.1818	0.	1085.4
19894	19.029	1.2727	5.e-002	7.4306
19895	19.305	1.2727	0.	1023.5
19896	19.213	1.1818	0.	1044.1
19897	19.213	1.2727	5.e-002	7.4034
19898	19.489	1.2727	0.	982.63
19899	19.397	1.1818	0.	1003.
19900	19.397	1.2727	5.e-002	7.3773
19901	19.673	1.2727	0.	942.
19902	19.581	1.1818	0.	962.2
19903	19.581	1.2727	5.e-002	7.3523
19904	19.858	1.2727	0.	901.6
19905	19.766	1.1818	0.	921.6
19906	19.766	1.2727	5.e-002	7.3284
19907	20.042	1.2727	0.	861.45
19908	19.95	1.1818	0.	881.24
19909	19.95	1.2727	5.e-002	7.3058
19910	20.226	1.2727	0.	821.56
19911	20.134	1.1818	0.	841.11
19912	20.134	1.2727	5.e-002	7.2845
19913	20.41	1.2727	0.	781.92
19914	20.318	1.1818	0.	801.24
19915	20.318	1.2727	5.e-002	7.2646
19916	20.594	1.2727	0.	742.56
19917	20.502	1.1818	0.	761.62
19918	20.502	1.2727	5.e-002	7.2463
19919	20.778	1.2727	0.	703.48
19920	20.686	1.1818	0.	722.27
19921	20.686	1.2727	5.e-002	7.2297
19922	20.962	1.2727	0.	664.69
19923	20.87	1.1818	0.	683.19
19924	20.87	1.2727	5.e-002	7.2149
19925	21.146	1.2727	0.	626.22
19926	21.054	1.1818	0.	644.4
19927	21.054	1.2727	5.e-002	7.2022
19928	21.33	1.2727	0.	588.09
19929	21.238	1.1818	0.	605.92
19930	21.238	1.2727	5.e-002	7.1918
19931	21.515	1.2727	0.	550.32
19932	21.422	1.1818	0.	567.77
19933	21.422	1.2727	5.e-002	7.184
19934	21.699	1.2727	0.	512.95
19935	21.607	1.1818	0.	529.99
19936	21.607	1.2727	5.e-002	7.179
19937	21.883	1.2727	0.	476.03
19938	21.791	1.1818	0.	492.6
19939	21.791	1.2727	5.e-002	7.1774
19940	22.067	1.2727	0.	439.61
19941	21.975	1.1818	0.	455.67
19942	21.975	1.2727	5.e-002	7.1797
19943	22.251	1.2727	0.	403.78
19944	22.159	1.1818	0.	419.25
19945	22.159	1.2727	5.e-002	7.1867
19946	22.435	1.2727	0.	368.65
19947	22.343	1.1818	0.	383.45
19948	22.343	1.2727	5.e-002	7.1993
19949	22.619	1.2727	0.	334.35
19950	22.527	1.1818	0.	348.37
19951	22.527	1.2727	5.e-002	7.2189
19952	22.803	1.2727	0.	301.08
19953	22.711	1.1818	0.	314.2
19954	22.711	1.2727	5.e-002	7.2473
19955	22.987	1.2727	0.	269.11
19956	22.895	1.1818	0.	281.16
19957	22.895	1.2727	5.e-002	7.2868
19958	23.172	1.2727	0.	238.8
19959	23.079	1.1818	0.	249.56
19960	23.079	1.2727	5.e-002	7.3405
19961	23.356	1.2727	0.	210.68
19962	23.264	1.1818	0.	219.88
19963	23.264	1.2727	5.e-002	7.4119
19964	23.54	1.2727	0.	185.52
19965	23.448	1.1818	0.	192.74
19966	23.448	1.2727	5.e-002	7.5045
19967	23.724	1.2727	0.	164.5
19968	23.632	1.1818	0.	169.15
19969	23.632	1.2727	5.e-002	7.6281
19970	23.816	1.1818	0.	150.63
19971	23.816	1.2727	5.e-002	7.9019
19972	23.908	1.2727	0.	149.06
19973	8.4428	1.0909	0.	3034.
19974	8.3508	1.	0.	2861.9
19975	8.3508	1.0909	5.e-002	148.72
19976	8.2587	1.0909	0.	2577.1
19977	8.6269	1.0909	0.	2926.5
19978	8.5349	1.	0.	2683.7
19979	8.5349	1.0909	5.e-002	97.721
19980	8.811	1.0909	0.	2953.7
19981	8.719	1.	0.	2726.
19982	8.719	1.0909	5.e-002	77.289
19983	8.9952	1.0909	0.	3007.4
19984	8.9031	1.	0.	2812.8
19985	8.9031	1.0909	5.e-002	59.388
19986	9.1793	1.0909	0.	3062.9
19987	9.0872	1.	0.	2905.5
19988	9.0872	1.0909	5.e-002	45.427
19989	9.3634	1.0909	0.	3109.5
19990	9.2713	1.	0.	2987.2
19991	9.2713	1.0909	5.e-002	35.01
19992	9.5475	1.0909	0.	3142.7
19993	9.4554	1.	0.	3051.
19994	9.4554	1.0909	5.e-002	27.26
19995	9.7316	1.0909	0.	3161.8
19996	9.6395	1.	0.	3095.6
19997	9.6395	1.0909	5.e-002	21.456
19998	9.9157	1.0909	0.	3167.8
19999	9.8236	1.	0.	3122.3
20000	9.8236	1.0909	5.e-002	17.102
20001	10.1	1.0909	0.	3162.4
20002	10.008	1.	0.	3133.4
20003	10.008	1.0909	5.e-002	13.877
20004	10.284	1.0909	0.	3147.4
20005	10.192	1.	0.	3131.6
20006	10.192	1.0909	5.e-002	11.566
20007	10.468	1.0909	0.	3124.7
20008	10.376	1.	0.	3119.2
20009	10.376	1.0909	5.e-002	10.004
20010	10.652	1.0909	0.	3095.8
20011	10.56	1.	0.	3098.3
20012	10.56	1.0909	5.e-002	9.037
20013	10.836	1.0909	0.	3062.2
20014	10.744	1.	0.	3070.9
20015	10.744	1.0909	5.e-002	8.5094
20016	11.02	1.0909	0.	3024.9
20017	10.928	1.	0.	3038.3
20018	10.928	1.0909	5.e-002	8.2761
20019	11.204	1.0909	0.	2984.8
20020	11.112	1.	0.	3001.8
20021	11.112	1.0909	5.e-002	8.2188
20022	11.389	1.0909	0.	2942.7
20023	11.297	1.	0.	2962.4
20024	11.297	1.0909	5.e-002	8.254
20025	11.573	1.0909	0.	2899.1
20026	11.481	1.	0.	2920.7
20027	11.481	1.0909	5.e-002	8.3287
20028	11.757	1.0909	0.	2854.3
20029	11.665	1.	0.	2877.5
20030	11.665	1.0909	5.e-002	8.4123
20031	11.941	1.0909	0.	2808.8
20032	11.849	1.	0.	2833.
20033	11.849	1.0909	5.e-002	8.489
20034	12.125	1.0909	0.	2762.8
20035	12.033	1.	0.	2787.7
20036	12.033	1.0909	5.e-002	8.5513
20037	12.309	1.0909	0.	2716.4
20038	12.217	1.	0.	2741.8
20039	12.217	1.0909	5.e-002	8.5968
20040	12.493	1.0909	0.	2669.8
20041	12.401	1.	0.	2695.5
20042	12.401	1.0909	5.e-002	8.6258
20043	12.677	1.0909	0.	2623.1
20044	12.585	1.	0.	2648.9
20045	12.585	1.0909	5.e-002	8.6398
20046	12.861	1.0909	0.	2576.3
20047	12.769	1.	0.	2602.2
20048	12.769	1.0909	5.e-002	8.6407
20049	13.046	1.0909	0.	2529.5
20050	12.953	1.	0.	2555.5
20051	12.953	1.0909	5.e-002	8.6309
20052	13.23	1.0909	0.	2482.8
20053	13.138	1.	0.	2508.7
20054	13.138	1.0909	5.e-002	8.6122
20055	13.414	1.0909	0.	2436.2
20056	13.322	1.	0.	2461.9
20057	13.322	1.0909	5.e-002	8.5865
20058	13.598	1.0909	0.	2389.6
20059	13.506	1.	0.	2415.3
20060	13.506	1.0909	5.e-002	8.5554
20061	13.782	1.0909	0.	2343.2
20062	13.69	1.	0.	2368.7
20063	13.69	1.0909	5.e-002	8.5201
20064	13.966	1.0909	0.	2296.9
20065	13.874	1.	0.	2322.2
20066	13.874	1.0909	5.e-002	8.4817
20067	14.15	1.0909	0.	2250.6
20068	14.058	1.	0.	2275.8
20069	14.058	1.0909	5.e-002	8.4412
20070	14.334	1.0909	0.	2204.6
20071	14.242	1.	0.	2229.6
20072	14.242	1.0909	5.e-002	8.3991
20073	14.518	1.0909	0.	2158.6
20074	14.426	1.	0.	2183.5
20075	14.426	1.0909	5.e-002	8.3561
20076	14.703	1.0909	0.	2112.9
20077	14.61	1.	0.	2137.5
20078	14.61	1.0909	5.e-002	8.3126
20079	14.887	1.0909	0.	2067.2
20080	14.795	1.	0.	2091.7
20081	14.795	1.0909	5.e-002	8.269
20082	15.071	1.0909	0.	2021.7
20083	14.979	1.	0.	2046.
20084	14.979	1.0909	5.e-002	8.2253
20085	15.255	1.0909	0.	1976.4
20086	15.163	1.	0.	2000.5
20087	15.163	1.0909	5.e-002	8.1821
20088	15.439	1.0909	0.	1931.2
20089	15.347	1.	0.	1955.2
20090	15.347	1.0909	5.e-002	8.1392
20091	15.623	1.0909	0.	1886.2
20092	15.531	1.	0.	1910.
20093	15.531	1.0909	5.e-002	8.0968
20094	15.807	1.0909	0.	1841.3
20095	15.715	1.	0.	1865.
20096	15.715	1.0909	5.e-002	8.055
20097	15.991	1.0909	0.	1796.6
20098	15.899	1.	0.	1820.1
20099	15.899	1.0909	5.e-002	8.0139
20100	16.175	1.0909	0.	1752.1
20101	16.083	1.	0.	1775.4
20102	16.083	1.0909	5.e-002	7.9735
20103	16.359	1.0909	0.	1707.7
20104	16.267	1.	0.	1730.9
20105	16.267	1.0909	5.e-002	7.9337
20106	16.544	1.0909	0.	1663.6
20107	16.452	1.	0.	1686.6
20108	16.452	1.0909	5.e-002	7.8947
20109	16.728	1.0909	0.	1619.6
20110	16.636	1.	0.	1642.5
20111	16.636	1.0909	5.e-002	7.8564
20112	16.912	1.0909	0.	1575.7
20113	16.82	1.	0.	1598.5
20114	16.82	1.0909	5.e-002	7.8188
20115	17.096	1.0909	0.	1532.1
20116	17.004	1.	0.	1554.7
20117	17.004	1.0909	5.e-002	7.782
20118	17.28	1.0909	0.	1488.6
20119	17.188	1.	0.	1511.1
20120	17.188	1.0909	5.e-002	7.7459
20121	17.464	1.0909	0.	1445.4
20122	17.372	1.	0.	1467.7
20123	17.372	1.0909	5.e-002	7.7105
20124	17.648	1.0909	0.	1402.3
20125	17.556	1.	0.	1424.5
20126	17.556	1.0909	5.e-002	7.6758
20127	17.832	1.0909	0.	1359.4
20128	17.74	1.	0.	1381.4
20129	17.74	1.0909	5.e-002	7.642
20130	18.016	1.0909	0.	1316.7
20131	17.924	1.	0.	1338.6
20132	17.924	1.0909	5.e-002	7.6088
20133	18.201	1.0909	0.	1274.3
20134	18.109	1.	0.	1296.
20135	18.109	1.0909	5.e-002	7.5764
20136	18.385	1.0909	0.	1232.
20137	18.293	1.	0.	1253.5
20138	18.293	1.0909	5.e-002	7.5448
20139	18.569	1.0909	0.	1189.9
20140	18.477	1.	0.	1211.3
20141	18.477	1.0909	5.e-002	7.5139
20142	18.753	1.0909	0.	1148.
20143	18.661	1.	0.	1169.3
20144	18.661	1.0909	5.e-002	7.4839
20145	18.937	1.0909	0.	1106.4
20146	18.845	1.	0.	1127.4
20147	18.845	1.0909	5.e-002	7.4548
20148	19.121	1.0909	0.	1064.9
20149	19.029	1.	0.	1085.8
20150	19.029	1.0909	5.e-002	7.4265
20151	19.305	1.0909	0.	1023.7
20152	19.213	1.	0.	1044.4
20153	19.213	1.0909	5.e-002	7.3992
20154	19.489	1.0909	0.	982.66
20155	19.397	1.	0.	1003.2
20156	19.397	1.0909	5.e-002	7.3729
20157	19.673	1.0909	0.	941.87
20158	19.581	1.	0.	962.22
20159	19.581	1.0909	5.e-002	7.3476
20160	19.858	1.0909	0.	901.3
20161	19.766	1.	0.	921.46
20162	19.766	1.0909	5.e-002	7.3235
20163	20.042	1.0909	0.	860.96
20164	19.95	1.	0.	880.91
20165	19.95	1.0909	5.e-002	7.3005
20166	20.226	1.0909	0.	820.86
20167	20.134	1.	0.	840.59
20168	20.134	1.0909	5.e-002	7.2788
20169	20.41	1.0909	0.	781.
20170	20.318	1.	0.	800.5
20171	20.318	1.0909	5.e-002	7.2584
20172	20.594	1.0909	0.	741.39
20173	20.502	1.	0.	760.64
20174	20.502	1.0909	5.e-002	7.2395
20175	20.778	1.0909	0.	702.04
20176	20.686	1.	0.	721.03
20177	20.686	1.0909	5.e-002	7.2221
20178	20.962	1.0909	0.	662.96
20179	20.87	1.	0.	681.67
20180	20.87	1.0909	5.e-002	7.2065
20181	21.146	1.0909	0.	624.17
20182	21.054	1.	0.	642.57
20183	21.054	1.0909	5.e-002	7.1928
20184	21.33	1.0909	0.	585.68
20185	21.238	1.	0.	603.74
20186	21.238	1.0909	5.e-002	7.1812
20187	21.515	1.0909	0.	547.51
20188	21.422	1.	0.	565.21
20189	21.422	1.0909	5.e-002	7.1718
20190	21.699	1.0909	0.	509.71
20191	21.607	1.	0.	527.
20192	21.607	1.0909	5.e-002	7.1651
20193	21.883	1.0909	0.	472.31
20194	21.791	1.	0.	489.15
20195	21.791	1.0909	5.e-002	7.1614
20196	22.067	1.0909	0.	435.37
20197	21.975	1.	0.	451.7
20198	21.975	1.0909	5.e-002	7.1612
20199	22.251	1.0909	0.	398.97
20200	22.159	1.	0.	414.71
20201	22.159	1.0909	5.e-002	7.1653
20202	22.435	1.0909	0.	363.21
20203	22.343	1.	0.	378.26
20204	22.343	1.0909	5.e-002	7.1744
20205	22.619	1.0909	0.	328.23
20206	22.527	1.	0.	342.48
20207	22.527	1.0909	5.e-002	7.1901
20208	22.803	1.0909	0.	294.23
20209	22.711	1.	0.	307.53
20210	22.711	1.0909	5.e-002	7.2141
20211	22.987	1.0909	0.	261.48
20212	22.895	1.	0.	273.65
20213	22.895	1.0909	5.e-002	7.2493
20214	23.172	1.0909	0.	230.39
20215	23.079	1.	0.	241.16
20216	23.079	1.0909	5.e-002	7.2994
20217	23.356	1.0909	0.	201.49
20218	23.264	1.	0.	210.56
20219	23.264	1.0909	5.e-002	7.3695
20220	23.54	1.0909	0.	175.61
20221	23.448	1.	0.	182.53
20222	23.448	1.0909	5.e-002	7.4655
20223	23.724	1.0909	0.	154.04
20224	23.632	1.	0.	158.17
20225	23.632	1.0909	5.e-002	7.6012
20226	23.816	1.	0.	139.15
20227	23.816	1.0909	5.e-002	7.9202
20228	23.908	1.0909	0.	138.09
20229	8.4428	0.90909	0.	2441.
20230	8.3508	0.81818	0.	2258.8
20231	8.3508	0.90909	5.e-002	123.46
20232	8.2587	0.90909	0.	2050.3
20233	8.6269	0.90909	0.	2435.3
20234	8.5349	0.81818	0.	2184.
20235	8.5349	0.90909	5.e-002	86.313
20236	8.811	0.90909	0.	2554.8
20237	8.719	0.81818	0.	2314.3
20238	8.719	0.90909	5.e-002	72.618
20239	8.9952	0.90909	0.	2693.
20240	8.9031	0.81818	0.	2484.8
20241	8.9031	0.90909	5.e-002	58.861
20242	9.1793	0.90909	0.	2819.6
20243	9.0872	0.81818	0.	2649.3
20244	9.0872	0.90909	5.e-002	46.591
20245	9.3634	0.90909	0.	2922.9
20246	9.2713	0.81818	0.	2789.
20247	9.2713	0.90909	5.e-002	36.377
20248	9.5475	0.90909	0.	3000.6
20249	9.4554	0.81818	0.	2898.7
20250	9.4554	0.90909	5.e-002	28.17
20251	9.7316	0.90909	0.	3054.2
20252	9.6395	0.81818	0.	2979.2
20253	9.6395	0.90909	5.e-002	21.688
20254	9.9157	0.90909	0.	3086.9
20255	9.8236	0.81818	0.	3033.9
20256	9.8236	0.90909	5.e-002	16.639
20257	10.1	0.90909	0.	3102.1
20258	10.008	0.81818	0.	3066.8
20259	10.008	0.90909	5.e-002	12.797
20260	10.284	0.90909	0.	3103.
20261	10.192	0.81818	0.	3081.9
20262	10.192	0.90909	5.e-002	10.004
20263	10.468	0.90909	0.	3092.6
20264	10.376	0.81818	0.	3082.7
20265	10.376	0.90909	5.e-002	8.1509
20266	10.652	0.90909	0.	3073.3
20267	10.56	0.81818	0.	3072.1
20268	10.56	0.90909	5.e-002	7.1182
20269	10.836	0.90909	0.	3047.
20270	10.744	0.81818	0.	3052.7
20271	10.744	0.90909	5.e-002	6.7231
20272	11.02	0.90909	0.	3015.2
20273	10.928	0.81818	0.	3026.3
20274	10.928	0.90909	5.e-002	6.7345
20275	11.204	0.90909	0.	2979.4
20276	11.112	0.81818	0.	2994.5
20277	11.112	0.90909	5.e-002	6.9495
20278	11.389	0.90909	0.	2940.5
20279	11.297	0.81818	0.	2958.7
20280	11.297	0.90909	5.e-002	7.2356
20281	11.573	0.90909	0.	2899.2
20282	11.481	0.81818	0.	2919.7
20283	11.481	0.90909	5.e-002	7.5226
20284	11.757	0.90909	0.	2856.2
20285	11.665	0.81818	0.	2878.5
20286	11.665	0.90909	5.e-002	7.7781
20287	11.941	0.90909	0.	2811.9
20288	11.849	0.81818	0.	2835.5
20289	11.849	0.90909	5.e-002	7.9912
20290	12.125	0.90909	0.	2766.7
20291	12.033	0.81818	0.	2791.2
20292	12.033	0.90909	5.e-002	8.1608
20293	12.309	0.90909	0.	2720.9
20294	12.217	0.81818	0.	2746.
20295	12.217	0.90909	5.e-002	8.2901
20296	12.493	0.90909	0.	2674.7
20297	12.401	0.81818	0.	2700.2
20298	12.401	0.90909	5.e-002	8.3846
20299	12.677	0.90909	0.	2628.1
20300	12.585	0.81818	0.	2653.9
20301	12.585	0.90909	5.e-002	8.4496
20302	12.861	0.90909	0.	2581.4
20303	12.769	0.81818	0.	2607.4
20304	12.769	0.90909	5.e-002	8.4904
20305	13.046	0.90909	0.	2534.6
20306	12.953	0.81818	0.	2560.6
20307	12.953	0.90909	5.e-002	8.5117
20308	13.23	0.90909	0.	2487.8
20309	13.138	0.81818	0.	2513.8
20310	13.138	0.90909	5.e-002	8.5173
20311	13.414	0.90909	0.	2441.
20312	13.322	0.81818	0.	2466.9
20313	13.322	0.90909	5.e-002	8.5106
20314	13.598	0.90909	0.	2394.3
20315	13.506	0.81818	0.	2420.1
20316	13.506	0.90909	5.e-002	8.4944
20317	13.782	0.90909	0.	2347.7
20318	13.69	0.81818	0.	2373.3
20319	13.69	0.90909	5.e-002	8.4708
20320	13.966	0.90909	0.	2301.1
20321	13.874	0.81818	0.	2326.6
20322	13.874	0.90909	5.e-002	8.4416
20323	14.15	0.90909	0.	2254.7
20324	14.058	0.81818	0.	2280.1
20325	14.058	0.90909	5.e-002	8.4083
20326	14.334	0.90909	0.	2208.5
20327	14.242	0.81818	0.	2233.6
20328	14.242	0.90909	5.e-002	8.372
20329	14.518	0.90909	0.	2162.3
20330	14.426	0.81818	0.	2187.3
20331	14.426	0.90909	5.e-002	8.3335
20332	14.703	0.90909	0.	2116.3
20333	14.61	0.81818	0.	2141.2
20334	14.61	0.90909	5.e-002	8.2936
20335	14.887	0.90909	0.	2070.5
20336	14.795	0.81818	0.	2095.2
20337	14.795	0.90909	5.e-002	8.2528
20338	15.071	0.90909	0.	2024.8
20339	14.979	0.81818	0.	2049.3
20340	14.979	0.90909	5.e-002	8.2115
20341	15.255	0.90909	0.	1979.3
20342	15.163	0.81818	0.	2003.6
20343	15.163	0.90909	5.e-002	8.17
20344	15.439	0.90909	0.	1934.
20345	15.347	0.81818	0.	1958.1
20346	15.347	0.90909	5.e-002	8.1286
20347	15.623	0.90909	0.	1888.8
20348	15.531	0.81818	0.	1912.8
20349	15.531	0.90909	5.e-002	8.0874
20350	15.807	0.90909	0.	1843.8
20351	15.715	0.81818	0.	1867.6
20352	15.715	0.90909	5.e-002	8.0467
20353	15.991	0.90909	0.	1799.
20354	15.899	0.81818	0.	1822.6
20355	15.899	0.90909	5.e-002	8.0064
20356	16.175	0.90909	0.	1754.3
20357	16.083	0.81818	0.	1777.8
20358	16.083	0.90909	5.e-002	7.9666
20359	16.359	0.90909	0.	1709.8
20360	16.267	0.81818	0.	1733.2
20361	16.267	0.90909	5.e-002	7.9274
20362	16.544	0.90909	0.	1665.6
20363	16.452	0.81818	0.	1688.7
20364	16.452	0.90909	5.e-002	7.8888
20365	16.728	0.90909	0.	1621.4
20366	16.636	0.81818	0.	1644.5
20367	16.636	0.90909	5.e-002	7.8509
20368	16.912	0.90909	0.	1577.5
20369	16.82	0.81818	0.	1600.4
20370	16.82	0.90909	5.e-002	7.8136
20371	17.096	0.90909	0.	1533.8
20372	17.004	0.81818	0.	1556.5
20373	17.004	0.90909	5.e-002	7.777
20374	17.28	0.90909	0.	1490.2
20375	17.188	0.81818	0.	1512.8
20376	17.188	0.90909	5.e-002	7.7412
20377	17.464	0.90909	0.	1446.8
20378	17.372	0.81818	0.	1469.3
20379	17.372	0.90909	5.e-002	7.7059
20380	17.648	0.90909	0.	1403.7
20381	17.556	0.81818	0.	1426.
20382	17.556	0.90909	5.e-002	7.6714
20383	17.832	0.90909	0.	1360.7
20384	17.74	0.81818	0.	1382.8
20385	17.74	0.90909	5.e-002	7.6376
20386	18.016	0.90909	0.	1317.9
20387	17.924	0.81818	0.	1339.9
20388	17.924	0.90909	5.e-002	7.6045
20389	18.201	0.90909	0.	1275.3
20390	18.109	0.81818	0.	1297.2
20391	18.109	0.90909	5.e-002	7.5721
20392	18.385	0.90909	0.	1232.9
20393	18.293	0.81818	0.	1254.6
20394	18.293	0.90909	5.e-002	7.5405
20395	18.569	0.90909	0.	1190.7
20396	18.477	0.81818	0.	1212.3
20397	18.477	0.90909	5.e-002	7.5096
20398	18.753	0.90909	0.	1148.7
20399	18.661	0.81818	0.	1170.1
20400	18.661	0.90909	5.e-002	7.4796
20401	18.937	0.90909	0.	1107.
20402	18.845	0.81818	0.	1128.2
20403	18.845	0.90909	5.e-002	7.4504
20404	19.121	0.90909	0.	1065.4
20405	19.029	0.81818	0.	1086.4
20406	19.029	0.90909	5.e-002	7.422
20407	19.305	0.90909	0.	1024.
20408	19.213	0.81818	0.	1044.9
20409	19.213	0.90909	5.e-002	7.3945
20410	19.489	0.90909	0.	982.83
20411	19.397	0.81818	0.	1003.5
20412	19.397	0.90909	5.e-002	7.368
20413	19.673	0.90909	0.	941.88
20414	19.581	0.81818	0.	962.41
20415	19.581	0.90909	5.e-002	7.3424
20416	19.858	0.90909	0.	901.14
20417	19.766	0.81818	0.	921.48
20418	19.766	0.90909	5.e-002	7.318
20419	20.042	0.90909	0.	860.61
20420	19.95	0.81818	0.	880.75
20421	19.95	0.90909	5.e-002	7.2946
20422	20.226	0.90909	0.	820.3
20423	20.134	0.81818	0.	840.23
20424	20.134	0.90909	5.e-002	7.2725
20425	20.41	0.90909	0.	780.21
20426	20.318	0.81818	0.	799.93
20427	20.318	0.90909	5.e-002	7.2516
20428	20.594	0.90909	0.	740.36
20429	20.502	0.81818	0.	759.83
20430	20.502	0.90909	5.e-002	7.2321
20431	20.778	0.90909	0.	700.73
20432	20.686	0.81818	0.	719.96
20433	20.686	0.90909	5.e-002	7.214
20434	20.962	0.90909	0.	661.35
20435	20.87	0.81818	0.	680.31
20436	20.87	0.90909	5.e-002	7.1975
20437	21.146	0.90909	0.	622.22
20438	21.054	0.81818	0.	640.9
20439	21.054	0.90909	5.e-002	7.1828
20440	21.33	0.90909	0.	583.36
20441	21.238	0.81818	0.	601.72
20442	21.238	0.90909	5.e-002	7.1698
20443	21.515	0.90909	0.	544.79
20444	21.422	0.81818	0.	562.81
20445	21.422	0.90909	5.e-002	7.159
20446	21.699	0.90909	0.	506.53
20447	21.607	0.81818	0.	524.16
20448	21.607	0.90909	5.e-002	7.1505
20449	21.883	0.90909	0.	468.63
20450	21.791	0.81818	0.	485.83
20451	21.791	0.90909	5.e-002	7.1446
20452	22.067	0.90909	0.	431.12
20453	21.975	0.81818	0.	447.83
20454	21.975	0.90909	5.e-002	7.1418
20455	22.251	0.90909	0.	394.09
20456	22.159	0.81818	0.	410.22
20457	22.159	0.90909	5.e-002	7.1426
20458	22.435	0.90909	0.	357.61
20459	22.343	0.81818	0.	373.08
20460	22.343	0.90909	5.e-002	7.1479
20461	22.619	0.90909	0.	321.84
20462	22.527	0.81818	0.	336.51
20463	22.527	0.90909	5.e-002	7.1589
20464	22.803	0.90909	0.	286.97
20465	22.711	0.81818	0.	300.67
20466	22.711	0.90909	5.e-002	7.1776
20467	22.987	0.90909	0.	253.26
20468	22.895	0.81818	0.	265.77
20469	22.895	0.90909	5.e-002	7.2068
20470	23.172	0.90909	0.	221.15
20471	23.079	0.81818	0.	232.16
20472	23.079	0.90909	5.e-002	7.2511
20473	23.356	0.90909	0.	191.22
20474	23.264	0.81818	0.	200.34
20475	23.264	0.90909	5.e-002	7.3173
20476	23.54	0.90909	0.	164.38
20477	23.448	0.81818	0.	171.1
20478	23.448	0.90909	5.e-002	7.4146
20479	23.724	0.90909	0.	142.04
20480	23.632	0.81818	0.	145.64
20481	23.632	0.90909	5.e-002	7.5636
20482	23.816	0.81818	0.	125.9
20483	23.816	0.90909	5.e-002	7.9352
20484	23.908	0.90909	0.	125.44
20485	8.4428	0.72727	0.	1938.4
20486	8.3508	0.63636	0.	1741.1
20487	8.3508	0.72727	5.e-002	105.61
20488	8.2587	0.72727	0.	1603.2
20489	8.6269	0.72727	0.	2021.8
20490	8.5349	0.63636	0.	1763.5
20491	8.5349	0.72727	5.e-002	78.707
20492	8.811	0.72727	0.	2219.6
20493	8.719	0.63636	0.	1974.3
20494	8.719	0.72727	5.e-002	68.952
20495	8.9952	0.72727	0.	2426.8
20496	8.9031	0.63636	0.	2214.6
20497	8.9031	0.72727	5.e-002	58.025
20498	9.1793	0.72727	0.	2610.6
20499	9.0872	0.63636	0.	2435.9
20500	9.0872	0.72727	5.e-002	47.299
20501	9.3634	0.72727	0.	2760.1
20502	9.2713	0.63636	0.	2621.2
20503	9.2713	0.72727	5.e-002	37.618
20504	9.5475	0.72727	0.	2874.5
20505	9.4554	0.63636	0.	2767.3
20506	9.4554	0.72727	5.e-002	29.322
20507	9.7316	0.72727	0.	2957.2
20508	9.6395	0.63636	0.	2876.8
20509	9.6395	0.72727	5.e-002	22.429
20510	9.9157	0.72727	0.	3012.8
20511	9.8236	0.63636	0.	2954.7
20512	9.8236	0.72727	5.e-002	16.829
20513	10.1	0.72727	0.	3046.1
20514	10.008	0.63636	0.	3006.2
20515	10.008	0.72727	5.e-002	12.387
20516	10.284	0.72727	0.	3061.3
20517	10.192	0.63636	0.	3036.
20518	10.192	0.72727	5.e-002	8.9988
20519	10.468	0.72727	0.	3062.1
20520	10.376	0.63636	0.	3048.5
20521	10.376	0.72727	5.e-002	6.6289
20522	10.652	0.72727	0.	3051.5
20523	10.56	0.63636	0.	3047.2
20524	10.56	0.72727	5.e-002	5.2976
20525	10.836	0.72727	0.	3032.
20526	10.744	0.63636	0.	3035.1
20527	10.744	0.72727	5.e-002	4.9258
20528	11.02	0.72727	0.	3005.5
20529	10.928	0.63636	0.	3014.4
20530	10.928	0.72727	5.e-002	5.1856
20531	11.204	0.72727	0.	2973.8
20532	11.112	0.63636	0.	2987.1
20533	11.112	0.72727	5.e-002	5.7033
20534	11.389	0.72727	0.	2938.
20535	11.297	0.63636	0.	2954.8
20536	11.297	0.72727	5.e-002	6.2597
20537	11.573	0.72727	0.	2899.1
20538	11.481	0.63636	0.	2918.5
20539	11.481	0.72727	5.e-002	6.7645
20540	11.757	0.72727	0.	2857.8
20541	11.665	0.63636	0.	2879.2
20542	11.665	0.72727	5.e-002	7.1897
20543	11.941	0.72727	0.	2814.8
20544	11.849	0.63636	0.	2837.7
20545	11.849	0.72727	5.e-002	7.5336
20546	12.125	0.72727	0.	2770.5
20547	12.033	0.63636	0.	2794.6
20548	12.033	0.72727	5.e-002	7.8038
20549	12.309	0.72727	0.	2725.4
20550	12.217	0.63636	0.	2750.1
20551	12.217	0.72727	5.e-002	8.0106
20552	12.493	0.72727	0.	2679.5
20553	12.401	0.63636	0.	2704.8
20554	12.401	0.72727	5.e-002	8.1649
20555	12.677	0.72727	0.	2633.2
20556	12.585	0.63636	0.	2658.9
20557	12.585	0.72727	5.e-002	8.2762
20558	12.861	0.72727	0.	2586.6
20559	12.769	0.63636	0.	2612.5
20560	12.769	0.72727	5.e-002	8.3529
20561	13.046	0.72727	0.	2539.8
20562	12.953	0.63636	0.	2565.8
20563	12.953	0.72727	5.e-002	8.4021
20564	13.23	0.72727	0.	2492.9
20565	13.138	0.63636	0.	2519.
20566	13.138	0.72727	5.e-002	8.4295
20567	13.414	0.72727	0.	2446.
20568	13.322	0.63636	0.	2472.
20569	13.322	0.72727	5.e-002	8.4398
20570	13.598	0.72727	0.	2399.1
20571	13.506	0.63636	0.	2425.1
20572	13.506	0.72727	5.e-002	8.4369
20573	13.782	0.72727	0.	2352.3
20574	13.69	0.63636	0.	2378.1
20575	13.69	0.72727	5.e-002	8.4237
20576	13.966	0.72727	0.	2305.6
20577	13.874	0.63636	0.	2331.3
20578	13.874	0.72727	5.e-002	8.4027
20579	14.15	0.72727	0.	2259.
20580	14.058	0.63636	0.	2284.5
20581	14.058	0.72727	5.e-002	8.3759
20582	14.334	0.72727	0.	2212.5
20583	14.242	0.63636	0.	2237.9
20584	14.242	0.72727	5.e-002	8.3447
20585	14.518	0.72727	0.	2166.2
20586	14.426	0.63636	0.	2191.4
20587	14.426	0.72727	5.e-002	8.3102
20588	14.703	0.72727	0.	2120.
20589	14.61	0.63636	0.	2145.
20590	14.61	0.72727	5.e-002	8.2736
20591	14.887	0.72727	0.	2074.
20592	14.795	0.63636	0.	2098.8
20593	14.795	0.72727	5.e-002	8.2354
20594	15.071	0.72727	0.	2028.2
20595	14.979	0.63636	0.	2052.8
20596	14.979	0.72727	5.e-002	8.1961
20597	15.255	0.72727	0.	1982.5
20598	15.163	0.63636	0.	2007.
20599	15.163	0.72727	5.e-002	8.1563
20600	15.439	0.72727	0.	1937.
20601	15.347	0.63636	0.	1961.3
20602	15.347	0.72727	5.e-002	8.1163
20603	15.623	0.72727	0.	1891.6
20604	15.531	0.63636	0.	1915.8
20605	15.531	0.72727	5.e-002	8.0762
20606	15.807	0.72727	0.	1846.5
20607	15.715	0.63636	0.	1870.5
20608	15.715	0.72727	5.e-002	8.0364
20609	15.991	0.72727	0.	1801.5
20610	15.899	0.63636	0.	1825.3
20611	15.899	0.72727	5.e-002	7.9968
20612	16.175	0.72727	0.	1756.7
20613	16.083	0.63636	0.	1780.4
20614	16.083	0.72727	5.e-002	7.9576
20615	16.359	0.72727	0.	1712.1
20616	16.267	0.63636	0.	1735.6
20617	16.267	0.72727	5.e-002	7.919
20618	16.544	0.72727	0.	1667.7
20619	16.452	0.63636	0.	1691.1
20620	16.452	0.72727	5.e-002	7.8808
20621	16.728	0.72727	0.	1623.5
20622	16.636	0.63636	0.	1646.7
20623	16.636	0.72727	5.e-002	7.8433
20624	16.912	0.72727	0.	1579.5
20625	16.82	0.63636	0.	1602.5
20626	16.82	0.72727	5.e-002	7.8063
20627	17.096	0.72727	0.	1535.6
20628	17.004	0.63636	0.	1558.5
20629	17.004	0.72727	5.e-002	7.77
20630	17.28	0.72727	0.	1491.9
20631	17.188	0.63636	0.	1514.7
20632	17.188	0.72727	5.e-002	7.7343
20633	17.464	0.72727	0.	1448.5
20634	17.372	0.63636	0.	1471.1
20635	17.372	0.72727	5.e-002	7.6992
20636	17.648	0.72727	0.	1405.2
20637	17.556	0.63636	0.	1427.6
20638	17.556	0.72727	5.e-002	7.6649
20639	17.832	0.72727	0.	1362.1
20640	17.74	0.63636	0.	1384.4
20641	17.74	0.72727	5.e-002	7.6312
20642	18.016	0.72727	0.	1319.2
20643	17.924	0.63636	0.	1341.4
20644	17.924	0.72727	5.e-002	7.5981
20645	18.201	0.72727	0.	1276.5
20646	18.109	0.63636	0.	1298.5
20647	18.109	0.72727	5.e-002	7.5658
20648	18.385	0.72727	0.	1234.
20649	18.293	0.63636	0.	1255.9
20650	18.293	0.72727	5.e-002	7.5342
20651	18.569	0.72727	0.	1191.7
20652	18.477	0.63636	0.	1213.4
20653	18.477	0.72727	5.e-002	7.5033
20654	18.753	0.72727	0.	1149.6
20655	18.661	0.63636	0.	1171.2
20656	18.661	0.72727	5.e-002	7.4732
20657	18.937	0.72727	0.	1107.7
20658	18.845	0.63636	0.	1129.1
20659	18.845	0.72727	5.e-002	7.4439
20660	19.121	0.72727	0.	1066.
20661	19.029	0.63636	0.	1087.2
20662	19.029	0.72727	5.e-002	7.4153
20663	19.305	0.72727	0.	1024.5
20664	19.213	0.63636	0.	1045.6
20665	19.213	0.72727	5.e-002	7.3877
20666	19.489	0.72727	0.	983.19
20667	19.397	0.63636	0.	1004.1
20668	19.397	0.72727	5.e-002	7.361
20669	19.673	0.72727	0.	942.07
20670	19.581	0.63636	0.	962.8
20671	19.581	0.72727	5.e-002	7.3352
20672	19.858	0.72727	0.	901.16
20673	19.766	0.63636	0.	921.71
20674	19.766	0.72727	5.e-002	7.3105
20675	20.042	0.72727	0.	860.44
20676	19.95	0.63636	0.	880.81
20677	19.95	0.72727	5.e-002	7.2868
20678	20.226	0.72727	0.	819.93
20679	20.134	0.63636	0.	840.1
20680	20.134	0.72727	5.e-002	7.2642
20681	20.41	0.72727	0.	779.62
20682	20.318	0.63636	0.	799.58
20683	20.318	0.72727	5.e-002	7.2428
20684	20.594	0.72727	0.	739.52
20685	20.502	0.63636	0.	759.27
20686	20.502	0.72727	5.e-002	7.2227
20687	20.778	0.72727	0.	699.63
20688	20.686	0.63636	0.	719.14
20689	20.686	0.72727	5.e-002	7.2039
20690	20.962	0.72727	0.	659.95
20691	20.87	0.63636	0.	679.22
20692	20.87	0.72727	5.e-002	7.1866
20693	21.146	0.72727	0.	620.49
20694	21.054	0.63636	0.	639.5
20695	21.054	0.72727	5.e-002	7.1708
20696	21.33	0.72727	0.	581.26
20697	21.238	0.63636	0.	599.98
20698	21.238	0.72727	5.e-002	7.1567
20699	21.515	0.72727	0.	542.28
20700	21.422	0.63636	0.	560.68
20701	21.422	0.72727	5.e-002	7.1444
20702	21.699	0.72727	0.	503.56
20703	21.607	0.63636	0.	521.62
20704	21.607	0.72727	5.e-002	7.1341
20705	21.883	0.72727	0.	465.14
20706	21.791	0.63636	0.	482.8
20707	21.791	0.72727	5.e-002	7.126
20708	22.067	0.72727	0.	427.05
20709	21.975	0.63636	0.	444.25
20710	21.975	0.72727	5.e-002	7.1205
20711	22.251	0.72727	0.	389.34
20712	22.159	0.63636	0.	406.02
20713	22.159	0.72727	5.e-002	7.118
20714	22.435	0.72727	0.	352.1
20715	22.343	0.63636	0.	368.16
20716	22.343	0.72727	5.e-002	7.1192
20717	22.619	0.72727	0.	315.44
20718	22.527	0.63636	0.	330.75
20719	22.527	0.72727	5.e-002	7.1251
20720	22.803	0.72727	0.	279.55
20721	22.711	0.63636	0.	293.92
20722	22.711	0.72727	5.e-002	7.1375
20723	22.987	0.72727	0.	244.69
20724	22.895	0.63636	0.	257.86
20725	22.895	0.72727	5.e-002	7.1591
20726	23.172	0.72727	0.	211.28
20727	23.079	0.63636	0.	222.88
20728	23.079	0.72727	5.e-002	7.1947
20729	23.356	0.72727	0.	179.96
20730	23.264	0.63636	0.	189.5
20731	23.264	0.72727	5.e-002	7.2528
20732	23.54	0.72727	0.	151.75
20733	23.448	0.63636	0.	158.53
20734	23.448	0.72727	5.e-002	7.347
20735	23.724	0.72727	0.	128.28
20736	23.632	0.63636	0.	131.42
20737	23.632	0.72727	5.e-002	7.5093
20738	23.816	0.63636	0.	110.53
20739	23.816	0.72727	5.e-002	7.9422
20740	23.908	0.72727	0.	110.78
20741	8.4428	0.54545	0.	1506.3
20742	8.3508	0.45455	0.	1285.4
20743	8.3508	0.54545	5.e-002	93.654
20744	8.2587	0.54545	0.	1207.2
20745	8.6269	0.54545	0.	1682.7
20746	8.5349	0.45455	0.	1420.6
20747	8.5349	0.54545	5.e-002	74.385
20748	8.811	0.54545	0.	1951.7
20749	8.719	0.45455	0.	1711.2
20750	8.719	0.54545	5.e-002	66.667
20751	8.9952	0.54545	0.	2214.1
20752	8.9031	0.45455	0.	2007.7
20753	8.9031	0.54545	5.e-002	57.371
20754	9.1793	0.54545	0.	2441.1
20755	9.0872	0.45455	0.	2270.
20756	9.0872	0.54545	5.e-002	47.731
20757	9.3634	0.54545	0.	2625.1
20758	9.2713	0.45455	0.	2487.3
20759	9.2713	0.54545	5.e-002	38.581
20760	9.5475	0.54545	0.	2767.6
20761	9.4554	0.45455	0.	2659.4
20762	9.4554	0.54545	5.e-002	30.389
20763	9.7316	0.54545	0.	2873.1
20764	9.6395	0.45455	0.	2790.5
20765	9.6395	0.54545	5.e-002	23.324
20766	9.9157	0.54545	0.	2947.3
20767	9.8236	0.45455	0.	2886.3
20768	9.8236	0.54545	5.e-002	17.388
20769	10.1	0.54545	0.	2995.6
20770	10.008	0.45455	0.	2952.6
20771	10.008	0.54545	5.e-002	12.51
20772	10.284	0.54545	0.	3023.
20773	10.192	0.45455	0.	2994.7
20774	10.192	0.54545	5.e-002	8.6024
20775	10.468	0.54545	0.	3033.6
20776	10.376	0.45455	0.	3017.2
20777	10.376	0.54545	5.e-002	5.6272
20778	10.652	0.54545	0.	3030.8
20779	10.56	0.45455	0.	3024.
20780	10.56	0.54545	5.e-002	3.7037
20781	10.836	0.54545	0.	3017.5
20782	10.744	0.45455	0.	3018.4
20783	10.744	0.54545	5.e-002	3.1345
20784	11.02	0.54545	0.	2996.
20785	10.928	0.45455	0.	3003.
20786	10.928	0.54545	5.e-002	3.6674
20787	11.204	0.54545	0.	2968.1
20788	11.112	0.45455	0.	2980.
20789	11.112	0.54545	5.e-002	4.5374
20790	11.389	0.54545	0.	2935.3
20791	11.297	0.45455	0.	2950.9
20792	11.297	0.54545	5.e-002	5.3752
20793	11.573	0.54545	0.	2898.7
20794	11.481	0.45455	0.	2917.2
20795	11.481	0.54545	5.e-002	6.0881
20796	11.757	0.54545	0.	2859.2
20797	11.665	0.45455	0.	2879.9
20798	11.665	0.54545	5.e-002	6.6666
20799	11.941	0.54545	0.	2817.5
20800	11.849	0.45455	0.	2839.9
20801	11.849	0.54545	5.e-002	7.1246
20802	12.125	0.54545	0.	2774.2
20803	12.033	0.45455	0.	2797.8
20804	12.033	0.54545	5.e-002	7.4807
20805	12.309	0.54545	0.	2729.7
20806	12.217	0.45455	0.	2754.2
20807	12.217	0.54545	5.e-002	7.7528
20808	12.493	0.54545	0.	2684.3
20809	12.401	0.45455	0.	2709.4
20810	12.401	0.54545	5.e-002	7.9569
20811	12.677	0.54545	0.	2638.2
20812	12.585	0.45455	0.	2663.8
20813	12.585	0.54545	5.e-002	8.1065
20814	12.861	0.54545	0.	2591.7
20815	12.769	0.45455	0.	2617.7
20816	12.769	0.54545	5.e-002	8.2127
20817	13.046	0.54545	0.	2545.
20818	12.953	0.45455	0.	2571.1
20819	12.953	0.54545	5.e-002	8.2847
20820	13.23	0.54545	0.	2498.1
20821	13.138	0.45455	0.	2524.2
20822	13.138	0.54545	5.e-002	8.3298
20823	13.414	0.54545	0.	2451.1
20824	13.322	0.45455	0.	2477.2
20825	13.322	0.54545	5.e-002	8.3538
20826	13.598	0.54545	0.	2404.1
20827	13.506	0.45455	0.	2430.2
20828	13.506	0.54545	5.e-002	8.3615
20829	13.782	0.54545	0.	2357.1
20830	13.69	0.45455	0.	2383.1
20831	13.69	0.54545	5.e-002	8.3567
20832	13.966	0.54545	0.	2310.2
20833	13.874	0.45455	0.	2336.1
20834	13.874	0.54545	5.e-002	8.3422
20835	14.15	0.54545	0.	2263.4
20836	14.058	0.45455	0.	2289.2
20837	14.058	0.54545	5.e-002	8.3204
20838	14.334	0.54545	0.	2216.8
20839	14.242	0.45455	0.	2242.4
20840	14.242	0.54545	5.e-002	8.2932
20841	14.518	0.54545	0.	2170.3
20842	14.426	0.45455	0.	2195.7
20843	14.426	0.54545	5.e-002	8.2619
20844	14.703	0.54545	0.	2123.9
20845	14.61	0.45455	0.	2149.1
20846	14.61	0.54545	5.e-002	8.2278
20847	14.887	0.54545	0.	2077.7
20848	14.795	0.45455	0.	2102.8
20849	14.795	0.54545	5.e-002	8.1915
20850	15.071	0.54545	0.	2031.7
20851	14.979	0.45455	0.	2056.6
20852	14.979	0.54545	5.e-002	8.1539
20853	15.255	0.54545	0.	1985.8
20854	15.163	0.45455	0.	2010.5
20855	15.163	0.54545	5.e-002	8.1154
20856	15.439	0.54545	0.	1940.2
20857	15.347	0.45455	0.	1964.7
20858	15.347	0.54545	5.e-002	8.0765
20859	15.623	0.54545	0.	1894.7
20860	15.531	0.45455	0.	1919.
20861	15.531	0.54545	5.e-002	8.0373
20862	15.807	0.54545	0.	1849.4
20863	15.715	0.45455	0.	1873.6
20864	15.715	0.54545	5.e-002	7.9982
20865	15.991	0.54545	0.	1804.3
20866	15.899	0.45455	0.	1828.3
20867	15.899	0.54545	5.e-002	7.9593
20868	16.175	0.54545	0.	1759.3
20869	16.083	0.45455	0.	1783.2
20870	16.083	0.54545	5.e-002	7.9206
20871	16.359	0.54545	0.	1714.6
20872	16.267	0.45455	0.	1738.3
20873	16.267	0.54545	5.e-002	7.8824
20874	16.544	0.54545	0.	1670.1
20875	16.452	0.45455	0.	1693.6
20876	16.452	0.54545	5.e-002	7.8447
20877	16.728	0.54545	0.	1625.7
20878	16.636	0.45455	0.	1649.2
20879	16.636	0.54545	5.e-002	7.8076
20880	16.912	0.54545	0.	1581.6
20881	16.82	0.45455	0.	1604.8
20882	16.82	0.54545	5.e-002	7.7709
20883	17.096	0.54545	0.	1537.6
20884	17.004	0.45455	0.	1560.7
20885	17.004	0.54545	5.e-002	7.7349
20886	17.28	0.54545	0.	1493.9
20887	17.188	0.45455	0.	1516.8
20888	17.188	0.54545	5.e-002	7.6995
20889	17.464	0.54545	0.	1450.3
20890	17.372	0.45455	0.	1473.1
20891	17.372	0.54545	5.e-002	7.6647
20892	17.648	0.54545	0.	1406.9
20893	17.556	0.45455	0.	1429.6
20894	17.556	0.54545	5.e-002	7.6306
20895	17.832	0.54545	0.	1363.7
20896	17.74	0.45455	0.	1386.3
20897	17.74	0.54545	5.e-002	7.5971
20898	18.016	0.54545	0.	1320.7
20899	17.924	0.45455	0.	1343.1
20900	17.924	0.54545	5.e-002	7.5643
20901	18.201	0.54545	0.	1278.
20902	18.109	0.45455	0.	1300.2
20903	18.109	0.54545	5.e-002	7.5321
20904	18.385	0.54545	0.	1235.3
20905	18.293	0.45455	0.	1257.5
20906	18.293	0.54545	5.e-002	7.5007
20907	18.569	0.54545	0.	1192.9
20908	18.477	0.45455	0.	1214.9
20909	18.477	0.54545	5.e-002	7.47
20910	18.753	0.54545	0.	1150.7
20911	18.661	0.45455	0.	1172.5
20912	18.661	0.54545	5.e-002	7.4401
20913	18.937	0.54545	0.	1108.7
20914	18.845	0.45455	0.	1130.4
20915	18.845	0.54545	5.e-002	7.4109
20916	19.121	0.54545	0.	1066.9
20917	19.029	0.45455	0.	1088.4
20918	19.029	0.54545	5.e-002	7.3825
20919	19.305	0.54545	0.	1025.2
20920	19.213	0.45455	0.	1046.6
20921	19.213	0.54545	5.e-002	7.355
20922	19.489	0.54545	0.	983.77
20923	19.397	0.45455	0.	1005.
20924	19.397	0.54545	5.e-002	7.3284
20925	19.673	0.54545	0.	942.5
20926	19.581	0.45455	0.	963.54
20927	19.581	0.54545	5.e-002	7.3027
20928	19.858	0.54545	0.	901.43
20929	19.766	0.45455	0.	922.3
20930	19.766	0.54545	5.e-002	7.278
20931	20.042	0.54545	0.	860.53
20932	19.95	0.45455	0.	881.23
20933	19.95	0.54545	5.e-002	7.2543
20934	20.226	0.54545	0.	819.83
20935	20.134	0.45455	0.	840.35
20936	20.134	0.54545	5.e-002	7.2317
20937	20.41	0.54545	0.	779.31
20938	20.318	0.45455	0.	799.65
20939	20.318	0.54545	5.e-002	7.2102
20940	20.594	0.54545	0.	738.97
20941	20.502	0.45455	0.	759.12
20942	20.502	0.54545	5.e-002	7.19
20943	20.778	0.54545	0.	698.82
20944	20.686	0.45455	0.	718.76
20945	20.686	0.54545	5.e-002	7.171
20946	20.962	0.54545	0.	658.86
20947	20.87	0.45455	0.	678.58
20948	20.87	0.54545	5.e-002	7.1534
20949	21.146	0.54545	0.	619.09
20950	21.054	0.45455	0.	638.57
20951	21.054	0.54545	5.e-002	7.1371
20952	21.33	0.54545	0.	579.51
20953	21.238	0.45455	0.	598.74
20954	21.238	0.54545	5.e-002	7.1224
20955	21.515	0.54545	0.	540.14
20956	21.422	0.45455	0.	559.09
20957	21.422	0.54545	5.e-002	7.1093
20958	21.699	0.54545	0.	500.98
20959	21.607	0.45455	0.	519.63
20960	21.607	0.54545	5.e-002	7.098
20961	21.883	0.54545	0.	462.05
20962	21.791	0.45455	0.	480.36
20963	21.791	0.54545	5.e-002	7.0885
20964	22.067	0.54545	0.	423.37
20965	21.975	0.45455	0.	441.29
20966	21.975	0.54545	5.e-002	7.0811
20967	22.251	0.54545	0.	385.
20968	22.159	0.45455	0.	402.46
20969	22.159	0.54545	5.e-002	7.0762
20970	22.435	0.54545	0.	346.98
20971	22.343	0.45455	0.	363.9
20972	22.343	0.54545	5.e-002	7.0741
20973	22.619	0.54545	0.	309.4
20974	22.527	0.45455	0.	325.66
20975	22.527	0.54545	5.e-002	7.0756
20976	22.803	0.54545	0.	272.4
20977	22.711	0.45455	0.	287.82
20978	22.711	0.54545	5.e-002	7.0819
20979	22.987	0.54545	0.	236.2
20980	22.895	0.45455	0.	250.53
20981	22.895	0.54545	5.e-002	7.0955
20982	23.172	0.54545	0.	201.19
20983	23.079	0.45455	0.	214.01
20984	23.079	0.54545	5.e-002	7.1204
20985	23.356	0.54545	0.	167.99
20986	23.264	0.45455	0.	178.69
20987	23.264	0.54545	5.e-002	7.1658
20988	23.54	0.54545	0.	137.77
20989	23.448	0.45455	0.	145.33
20990	23.448	0.54545	5.e-002	7.2498
20991	23.724	0.54545	0.	112.53
20992	23.632	0.45455	0.	115.55
20993	23.632	0.54545	5.e-002	7.4189
20994	23.816	0.45455	0.	92.535
20995	23.816	0.54545	5.e-002	7.9357
20996	23.908	0.54545	0.	93.641
20997	8.4428	0.36364	0.	1143.9
20998	8.3508	0.27273	0.	898.42
20999	8.3508	0.36364	5.e-002	87.58
21000	8.2587	0.36364	0.	844.02
21001	8.6269	0.36364	0.	1427.4
21002	8.5349	0.27273	0.	1182.5
21003	8.5349	0.36364	5.e-002	73.603
21004	8.811	0.36364	0.	1757.7
21005	8.719	0.27273	0.	1541.
21006	8.719	0.36364	5.e-002	66.485
21007	8.9952	0.36364	0.	2058.6
21008	8.9031	0.27273	0.	1871.9
21009	8.9031	0.36364	5.e-002	57.812
21010	9.1793	0.36364	0.	2313.3
21011	9.0872	0.27273	0.	2156.
21012	9.0872	0.36364	5.e-002	48.761
21013	9.3634	0.36364	0.	2519.6
21014	9.2713	0.27273	0.	2390.4
21015	9.2713	0.36364	5.e-002	39.986
21016	9.5475	0.36364	0.	2681.
21017	9.4554	0.27273	0.	2577.4
21018	9.4554	0.36364	5.e-002	31.92
21019	9.7316	0.36364	0.	2802.9
21020	9.6395	0.27273	0.	2722.2
21021	9.6395	0.36364	5.e-002	24.786
21022	9.9157	0.36364	0.	2891.1
21023	9.8236	0.27273	0.	2830.3
21024	9.8236	0.36364	5.e-002	18.649
21025	10.1	0.36364	0.	2951.3
21026	10.008	0.27273	0.	2907.5
21027	10.008	0.36364	5.e-002	13.483
21028	10.284	0.36364	0.	2988.7
21029	10.192	0.27273	0.	2959.1
21030	10.192	0.36364	5.e-002	9.2092
21031	10.468	0.36364	0.	3007.6
21032	10.376	0.27273	0.	2989.8
21033	10.376	0.36364	5.e-002	5.7387
21034	10.652	0.36364	0.	3011.6
21035	10.56	0.27273	0.	3003.5
21036	10.56	0.36364	5.e-002	3.0302
21037	10.836	0.36364	0.	3004.
21038	10.744	0.27273	0.	3003.7
21039	10.744	0.36364	5.e-002	1.4377
21040	11.02	0.36364	0.	2987.
21041	10.928	0.27273	0.	2993.
21042	10.928	0.36364	5.e-002	2.0318
21043	11.204	0.36364	0.	2962.7
21044	11.112	0.27273	0.	2973.7
21045	11.112	0.36364	5.e-002	3.2717
21046	11.389	0.36364	0.	2932.7
21047	11.297	0.27273	0.	2947.7
21048	11.297	0.36364	5.e-002	4.3594
21049	11.573	0.36364	0.	2898.4
21050	11.481	0.27273	0.	2916.4
21051	11.481	0.36364	5.e-002	5.2391
21052	11.757	0.36364	0.	2860.6
21053	11.665	0.27273	0.	2881.
21054	11.665	0.36364	5.e-002	5.9336
21055	11.941	0.36364	0.	2820.2
21056	11.849	0.27273	0.	2842.5
21057	11.849	0.36364	5.e-002	6.4744
21058	12.125	0.36364	0.	2777.8
21059	12.033	0.27273	0.	2801.6
21060	12.033	0.36364	5.e-002	6.8903
21061	12.309	0.36364	0.	2734.
21062	12.217	0.27273	0.	2758.8
21063	12.217	0.36364	5.e-002	7.2058
21064	12.493	0.36364	0.	2689.1
21065	12.401	0.27273	0.	2714.6
21066	12.401	0.36364	5.e-002	7.4413
21067	12.677	0.36364	0.	2643.3
21068	12.585	0.27273	0.	2669.4
21069	12.585	0.36364	5.e-002	7.6133
21070	12.861	0.36364	0.	2597.
21071	12.769	0.27273	0.	2623.5
21072	12.769	0.36364	5.e-002	7.7351
21073	13.046	0.36364	0.	2550.3
21074	12.953	0.27273	0.	2577.1
21075	12.953	0.36364	5.e-002	7.8179
21076	13.23	0.36364	0.	2503.4
21077	13.138	0.27273	0.	2530.3
21078	13.138	0.36364	5.e-002	7.8699
21079	13.414	0.36364	0.	2456.4
21080	13.322	0.27273	0.	2483.3
21081	13.322	0.36364	5.e-002	7.8981
21082	13.598	0.36364	0.	2409.2
21083	13.506	0.27273	0.	2436.2
21084	13.506	0.36364	5.e-002	7.9081
21085	13.782	0.36364	0.	2362.1
21086	13.69	0.27273	0.	2389.
21087	13.69	0.36364	5.e-002	7.9041
21088	13.966	0.36364	0.	2315.1
21089	13.874	0.27273	0.	2341.9
21090	13.874	0.36364	5.e-002	7.8894
21091	14.15	0.36364	0.	2268.1
21092	14.058	0.27273	0.	2294.9
21093	14.058	0.36364	5.e-002	7.8668
21094	14.334	0.36364	0.	2221.3
21095	14.242	0.27273	0.	2247.9
21096	14.242	0.36364	5.e-002	7.8384
21097	14.518	0.36364	0.	2174.6
21098	14.426	0.27273	0.	2201.1
21099	14.426	0.36364	5.e-002	7.8056
21100	14.703	0.36364	0.	2128.
21101	14.61	0.27273	0.	2154.4
21102	14.61	0.36364	5.e-002	7.77
21103	14.887	0.36364	0.	2081.7
21104	14.795	0.27273	0.	2107.9
21105	14.795	0.36364	5.e-002	7.7323
21106	15.071	0.36364	0.	2035.5
21107	14.979	0.27273	0.	2061.5
21108	14.979	0.36364	5.e-002	7.6933
21109	15.255	0.36364	0.	1989.5
21110	15.163	0.27273	0.	2015.4
21111	15.163	0.36364	5.e-002	7.6537
21112	15.439	0.36364	0.	1943.6
21113	15.347	0.27273	0.	1969.4
21114	15.347	0.36364	5.e-002	7.6137
21115	15.623	0.36364	0.	1898.
21116	15.531	0.27273	0.	1923.6
21117	15.531	0.36364	5.e-002	7.5738
21118	15.807	0.36364	0.	1852.6
21119	15.715	0.27273	0.	1878.1
21120	15.715	0.36364	5.e-002	7.5342
21121	15.991	0.36364	0.	1807.3
21122	15.899	0.27273	0.	1832.7
21123	15.899	0.36364	5.e-002	7.495
21124	16.175	0.36364	0.	1762.3
21125	16.083	0.27273	0.	1787.5
21126	16.083	0.36364	5.e-002	7.4564
21127	16.359	0.36364	0.	1717.4
21128	16.267	0.27273	0.	1742.5
21129	16.267	0.36364	5.e-002	7.4185
21130	16.544	0.36364	0.	1672.8
21131	16.452	0.27273	0.	1697.7
21132	16.452	0.36364	5.e-002	7.3813
21133	16.728	0.36364	0.	1628.3
21134	16.636	0.27273	0.	1653.2
21135	16.636	0.36364	5.e-002	7.345
21136	16.912	0.36364	0.	1584.1
21137	16.82	0.27273	0.	1608.8
21138	16.82	0.36364	5.e-002	7.3094
21139	17.096	0.36364	0.	1540.
21140	17.004	0.27273	0.	1564.6
21141	17.004	0.36364	5.e-002	7.2747
21142	17.28	0.36364	0.	1496.1
21143	17.188	0.27273	0.	1520.6
21144	17.188	0.36364	5.e-002	7.2408
21145	17.464	0.36364	0.	1452.5
21146	17.372	0.27273	0.	1476.8
21147	17.372	0.36364	5.e-002	7.2078
21148	17.648	0.36364	0.	1409.
21149	17.556	0.27273	0.	1433.3
21150	17.556	0.36364	5.e-002	7.1757
21151	17.832	0.36364	0.	1365.7
21152	17.74	0.27273	0.	1389.9
21153	17.74	0.36364	5.e-002	7.1446
21154	18.016	0.36364	0.	1322.6
21155	17.924	0.27273	0.	1346.7
21156	17.924	0.36364	5.e-002	7.1143
21157	18.201	0.36364	0.	1279.8
21158	18.109	0.27273	0.	1303.7
21159	18.109	0.36364	5.e-002	7.085
21160	18.385	0.36364	0.	1237.1
21161	18.293	0.27273	0.	1260.9
21162	18.293	0.36364	5.e-002	7.0567
21163	18.569	0.36364	0.	1194.6
21164	18.477	0.27273	0.	1218.3
21165	18.477	0.36364	5.e-002	7.0293
21166	18.753	0.36364	0.	1152.2
21167	18.661	0.27273	0.	1175.8
21168	18.661	0.36364	5.e-002	7.003
21169	18.937	0.36364	0.	1110.1
21170	18.845	0.27273	0.	1133.6
21171	18.845	0.36364	5.e-002	6.9777
21172	19.121	0.36364	0.	1068.2
21173	19.029	0.27273	0.	1091.5
21174	19.029	0.36364	5.e-002	6.9535
21175	19.305	0.36364	0.	1026.4
21176	19.213	0.27273	0.	1049.6
21177	19.213	0.36364	5.e-002	6.9305
21178	19.489	0.36364	0.	984.82
21179	19.397	0.27273	0.	1007.9
21180	19.397	0.36364	5.e-002	6.9087
21181	19.673	0.36364	0.	943.42
21182	19.581	0.27273	0.	966.42
21183	19.581	0.36364	5.e-002	6.8881
21184	19.858	0.36364	0.	902.19
21185	19.766	0.27273	0.	925.07
21186	19.766	0.36364	5.e-002	6.8689
21187	20.042	0.36364	0.	861.14
21188	19.95	0.27273	0.	883.88
21189	19.95	0.36364	5.e-002	6.851
21190	20.226	0.36364	0.	820.26
21191	20.134	0.27273	0.	842.87
21192	20.134	0.36364	5.e-002	6.8347
21193	20.41	0.36364	0.	779.55
21194	20.318	0.27273	0.	802.01
21195	20.318	0.36364	5.e-002	6.8198
21196	20.594	0.36364	0.	739.
21197	20.502	0.27273	0.	761.32
21198	20.502	0.36364	5.e-002	6.8066
21199	20.778	0.36364	0.	698.62
21200	20.686	0.27273	0.	720.78
21201	20.686	0.36364	5.e-002	6.7951
21202	20.962	0.36364	0.	658.41
21203	20.87	0.27273	0.	680.39
21204	20.87	0.36364	5.e-002	6.7854
21205	21.146	0.36364	0.	618.35
21206	21.054	0.27273	0.	640.15
21207	21.054	0.36364	5.e-002	6.7777
21208	21.33	0.36364	0.	578.46
21209	21.238	0.27273	0.	600.05
21210	21.238	0.36364	5.e-002	6.7719
21211	21.515	0.36364	0.	538.73
21212	21.422	0.27273	0.	560.09
21213	21.422	0.36364	5.e-002	6.7682
21214	21.699	0.36364	0.	499.16
21215	21.607	0.27273	0.	520.28
21216	21.607	0.36364	5.e-002	6.7668
21217	21.883	0.36364	0.	459.77
21218	21.791	0.27273	0.	480.61
21219	21.791	0.36364	5.e-002	6.7677
21220	22.067	0.36364	0.	420.57
21221	21.975	0.27273	0.	441.08
21222	21.975	0.36364	5.e-002	6.7712
21223	22.251	0.36364	0.	381.57
21224	22.159	0.27273	0.	401.71
21225	22.159	0.36364	5.e-002	6.7775
21226	22.435	0.36364	0.	342.81
21227	22.343	0.27273	0.	362.5
21228	22.343	0.36364	5.e-002	6.7869
21229	22.619	0.36364	0.	304.34
21230	22.527	0.27273	0.	323.47
21231	22.527	0.36364	5.e-002	6.7998
21232	22.803	0.36364	0.	266.24
21233	22.711	0.27273	0.	284.67
21234	22.711	0.36364	5.e-002	6.8172
21235	22.987	0.36364	0.	228.65
21236	22.895	0.27273	0.	246.15
21237	22.895	0.36364	5.e-002	6.8405
21238	23.172	0.36364	0.	191.83
21239	23.079	0.27273	0.	208.03
21240	23.079	0.36364	5.e-002	6.8728
21241	23.356	0.36364	0.	156.27
21242	23.264	0.27273	0.	170.52
21243	23.264	0.36364	5.e-002	6.9202
21244	23.54	0.36364	0.	123.06
21245	23.448	0.27273	0.	134.08
21246	23.448	0.36364	5.e-002	7.0011
21247	23.724	0.36364	0.	94.689
21248	23.632	0.27273	0.	99.859
21249	23.632	0.36364	5.e-002	7.1855
21250	23.816	0.27273	0.	71.618
21251	23.816	0.36364	5.e-002	7.8407
21252	23.908	0.36364	0.	73.26
21253	8.4428	0.18182	0.	900.16
21254	8.3508	0.18182	5.e-002	96.768
21255	8.3508	9.0909e-002	0.	574.78
21256	8.2587	0.18182	0.	513.04
21257	8.6269	0.18182	0.	1287.9
21258	8.5349	0.18182	5.e-002	85.48
21259	8.5349	9.0909e-002	0.	1001.8
21260	8.811	0.18182	0.	1651.6
21261	8.719	0.18182	5.e-002	78.643
21262	8.719	9.0909e-002	0.	1401.2
21263	8.9952	0.18182	0.	1967.
21264	8.9031	0.18182	5.e-002	70.459
21265	8.9031	9.0909e-002	0.	1752.3
21266	9.1793	0.18182	0.	2231.4
21267	9.0872	0.18182	5.e-002	61.441
21268	9.0872	9.0909e-002	0.	2051.5
21269	9.3634	0.18182	0.	2446.9
21270	9.2713	0.18182	5.e-002	52.279
21271	9.2713	9.0909e-002	0.	2299.6
21272	9.5475	0.18182	0.	2617.8
21273	9.4554	0.18182	5.e-002	43.517
21274	9.4554	9.0909e-002	0.	2499.8
21275	9.7316	0.18182	0.	2749.1
21276	9.6395	0.18182	5.e-002	35.516
21277	9.6395	9.0909e-002	0.	2656.9
21278	9.9157	0.18182	0.	2846.4
21279	9.8236	0.18182	5.e-002	28.458
21280	9.8236	9.0909e-002	0.	2776.3
21281	10.1	0.18182	0.	2915.2
21282	10.008	0.18182	5.e-002	22.398
21283	10.008	9.0909e-002	0.	2863.6
21284	10.284	0.18182	0.	2960.2
21285	10.192	0.18182	5.e-002	17.302
21286	10.192	9.0909e-002	0.	2924.
21287	10.468	0.18182	0.	2985.7
21288	10.376	0.18182	5.e-002	13.089
21289	10.376	9.0909e-002	0.	2962.1
21290	10.652	0.18182	0.	2995.5
21291	10.56	0.18182	5.e-002	9.6581
21292	10.56	9.0909e-002	0.	2982.1
21293	10.836	0.18182	0.	2992.7
21294	10.744	0.18182	5.e-002	6.9003
21295	10.744	9.0909e-002	0.	2987.5
21296	11.02	0.18182	0.	2979.7
21297	10.928	0.18182	5.e-002	4.7135
21298	10.928	9.0909e-002	0.	2981.
21299	11.204	0.18182	0.	2958.7
21300	11.112	0.18182	5.e-002	3.0082
21301	11.112	9.0909e-002	0.	2965.2
21302	11.389	0.18182	0.	2931.4
21303	11.297	0.18182	5.e-002	1.7163
21304	11.297	9.0909e-002	0.	2941.9
21305	11.573	0.18182	0.	2899.2
21306	11.481	0.18182	5.e-002	0.83664
21307	11.481	9.0909e-002	0.	2912.8
21308	11.757	0.18182	0.	2863.1
21309	11.665	0.18182	5.e-002	0.62451
21310	11.665	9.0909e-002	0.	2879.1
21311	11.941	0.18182	0.	2824.
21312	11.849	0.18182	5.e-002	0.95486
21313	11.849	9.0909e-002	0.	2841.8
21314	12.125	0.18182	0.	2782.6
21315	12.033	0.18182	5.e-002	1.2914
21316	12.033	9.0909e-002	0.	2801.7
21317	12.309	0.18182	0.	2739.5
21318	12.217	0.18182	5.e-002	1.5372
21319	12.217	9.0909e-002	0.	2759.5
21320	12.493	0.18182	0.	2695.1
21321	12.401	0.18182	5.e-002	1.6959
21322	12.401	9.0909e-002	0.	2715.7
21323	12.677	0.18182	0.	2649.7
21324	12.585	0.18182	5.e-002	1.783
21325	12.585	9.0909e-002	0.	2670.8
21326	12.861	0.18182	0.	2603.7
21327	12.769	0.18182	5.e-002	1.8139
21328	12.769	9.0909e-002	0.	2624.9
21329	13.046	0.18182	0.	2557.2
21330	12.953	0.18182	5.e-002	1.8022
21331	12.953	9.0909e-002	0.	2578.4
21332	13.23	0.18182	0.	2510.3
21333	13.138	0.18182	5.e-002	1.7586
21334	13.138	9.0909e-002	0.	2531.4
21335	13.414	0.18182	0.	2463.3
21336	13.322	0.18182	5.e-002	1.692
21337	13.322	9.0909e-002	0.	2484.2
21338	13.598	0.18182	0.	2416.1
21339	13.506	0.18182	5.e-002	1.6095
21340	13.506	9.0909e-002	0.	2436.8
21341	13.782	0.18182	0.	2368.9
21342	13.69	0.18182	5.e-002	1.5166
21343	13.69	9.0909e-002	0.	2389.4
21344	13.966	0.18182	0.	2321.8
21345	13.874	0.18182	5.e-002	1.4175
21346	13.874	9.0909e-002	0.	2341.9
21347	14.15	0.18182	0.	2274.8
21348	14.058	0.18182	5.e-002	1.3157
21349	14.058	9.0909e-002	0.	2294.5
21350	14.334	0.18182	0.	2227.8
21351	14.242	0.18182	5.e-002	1.2137
21352	14.242	9.0909e-002	0.	2247.2
21353	14.518	0.18182	0.	2181.
21354	14.426	0.18182	5.e-002	1.1133
21355	14.426	9.0909e-002	0.	2200.
21356	14.703	0.18182	0.	2134.4
21357	14.61	0.18182	5.e-002	1.0161
21358	14.61	9.0909e-002	0.	2152.9
21359	14.887	0.18182	0.	2087.9
21360	14.795	0.18182	5.e-002	0.92313
21361	14.795	9.0909e-002	0.	2106.
21362	15.071	0.18182	0.	2041.6
21363	14.979	0.18182	5.e-002	0.83508
21364	14.979	9.0909e-002	0.	2059.3
21365	15.255	0.18182	0.	1995.5
21366	15.163	0.18182	5.e-002	0.75265
21367	15.163	9.0909e-002	0.	2012.8
21368	15.439	0.18182	0.	1949.6
21369	15.347	0.18182	5.e-002	0.67616
21370	15.347	9.0909e-002	0.	1966.5
21371	15.623	0.18182	0.	1903.9
21372	15.531	0.18182	5.e-002	0.60594
21373	15.531	9.0909e-002	0.	1920.4
21374	15.807	0.18182	0.	1858.3
21375	15.715	0.18182	5.e-002	0.54239
21376	15.715	9.0909e-002	0.	1874.5
21377	15.991	0.18182	0.	1813.
21378	15.899	0.18182	5.e-002	0.48571
21379	15.899	9.0909e-002	0.	1828.8
21380	16.175	0.18182	0.	1767.9
21381	16.083	0.18182	5.e-002	0.43622
21382	16.083	9.0909e-002	0.	1783.3
21383	16.359	0.18182	0.	1723.
21384	16.267	0.18182	5.e-002	0.39435
21385	16.267	9.0909e-002	0.	1738.
21386	16.544	0.18182	0.	1678.3
21387	16.452	0.18182	5.e-002	0.36054
21388	16.452	9.0909e-002	0.	1693.
21389	16.728	0.18182	0.	1633.8
21390	16.636	0.18182	5.e-002	0.33517
21391	16.636	9.0909e-002	0.	1648.1
21392	16.912	0.18182	0.	1589.5
21393	16.82	0.18182	5.e-002	0.31835
21394	16.82	9.0909e-002	0.	1603.4
21395	17.096	0.18182	0.	1545.4
21396	17.004	0.18182	5.e-002	0.31013
21397	17.004	9.0909e-002	0.	1559.
21398	17.28	0.18182	0.	1501.5
21399	17.188	0.18182	5.e-002	0.31005
21400	17.188	9.0909e-002	0.	1514.7
21401	17.464	0.18182	0.	1457.8
21402	17.372	0.18182	5.e-002	0.31731
21403	17.372	9.0909e-002	0.	1470.7
21404	17.648	0.18182	0.	1414.4
21405	17.556	0.18182	5.e-002	0.33107
21406	17.556	9.0909e-002	0.	1426.8
21407	17.832	0.18182	0.	1371.
21408	17.74	0.18182	5.e-002	0.3505
21409	17.74	9.0909e-002	0.	1383.2
21410	18.016	0.18182	0.	1327.9
21411	17.924	0.18182	5.e-002	0.37483
21412	17.924	9.0909e-002	0.	1339.7
21413	18.201	0.18182	0.	1285.
21414	18.109	0.18182	5.e-002	0.40366
21415	18.109	9.0909e-002	0.	1296.5
21416	18.385	0.18182	0.	1242.3
21417	18.293	0.18182	5.e-002	0.43677
21418	18.293	9.0909e-002	0.	1253.4
21419	18.569	0.18182	0.	1199.8
21420	18.477	0.18182	5.e-002	0.47404
21421	18.477	9.0909e-002	0.	1210.5
21422	18.753	0.18182	0.	1157.4
21423	18.661	0.18182	5.e-002	0.51563
21424	18.661	9.0909e-002	0.	1167.9
21425	18.937	0.18182	0.	1115.3
21426	18.845	0.18182	5.e-002	0.56178
21427	18.845	9.0909e-002	0.	1125.4
21428	19.121	0.18182	0.	1073.3
21429	19.029	0.18182	5.e-002	0.61274
21430	19.029	9.0909e-002	0.	1083.
21431	19.305	0.18182	0.	1031.5
21432	19.213	0.18182	5.e-002	0.66895
21433	19.213	9.0909e-002	0.	1040.9
21434	19.489	0.18182	0.	989.82
21435	19.397	0.18182	5.e-002	0.73082
21436	19.397	9.0909e-002	0.	998.95
21437	19.673	0.18182	0.	948.35
21438	19.581	0.18182	5.e-002	0.79879
21439	19.581	9.0909e-002	0.	957.17
21440	19.858	0.18182	0.	907.05
21441	19.766	0.18182	5.e-002	0.87339
21442	19.766	9.0909e-002	0.	915.56
21443	20.042	0.18182	0.	865.91
21444	19.95	0.18182	5.e-002	0.95516
21445	19.95	9.0909e-002	0.	874.11
21446	20.226	0.18182	0.	824.93
21447	20.134	0.18182	5.e-002	1.0446
21448	20.134	9.0909e-002	0.	832.83
21449	20.41	0.18182	0.	784.1
21450	20.318	0.18182	5.e-002	1.1424
21451	20.318	9.0909e-002	0.	791.72
21452	20.594	0.18182	0.	743.42
21453	20.502	0.18182	5.e-002	1.2492
21454	20.502	9.0909e-002	0.	750.76
21455	20.778	0.18182	0.	702.88
21456	20.686	0.18182	5.e-002	1.3655
21457	20.686	9.0909e-002	0.	709.95
21458	20.962	0.18182	0.	662.48
21459	20.87	0.18182	5.e-002	1.4923
21460	20.87	9.0909e-002	0.	669.3
21461	21.146	0.18182	0.	622.21
21462	21.054	0.18182	5.e-002	1.6302
21463	21.054	9.0909e-002	0.	628.8
21464	21.33	0.18182	0.	582.07
21465	21.238	0.18182	5.e-002	1.7801
21466	21.238	9.0909e-002	0.	588.44
21467	21.515	0.18182	0.	542.05
21468	21.422	0.18182	5.e-002	1.943
21469	21.422	9.0909e-002	0.	548.23
21470	21.699	0.18182	0.	502.15
21471	21.607	0.18182	5.e-002	2.1198
21472	21.607	9.0909e-002	0.	508.17
21473	21.883	0.18182	0.	462.37
21474	21.791	0.18182	5.e-002	2.3119
21475	21.791	9.0909e-002	0.	468.26
21476	22.067	0.18182	0.	422.7
21477	21.975	0.18182	5.e-002	2.5206
21478	21.975	9.0909e-002	0.	428.49
21479	22.251	0.18182	0.	383.14
21480	22.159	0.18182	5.e-002	2.7473
21481	22.159	9.0909e-002	0.	388.89
21482	22.435	0.18182	0.	343.71
21483	22.343	0.18182	5.e-002	2.9941
21484	22.343	9.0909e-002	0.	349.46
21485	22.619	0.18182	0.	304.41
21486	22.527	0.18182	5.e-002	3.2632
21487	22.527	9.0909e-002	0.	310.22
21488	22.803	0.18182	0.	265.27
21489	22.711	0.18182	5.e-002	3.5576
21490	22.711	9.0909e-002	0.	271.19
21491	22.987	0.18182	0.	226.31
21492	22.895	0.18182	5.e-002	3.8812
21493	22.895	9.0909e-002	0.	232.43
21494	23.172	0.18182	0.	187.63
21495	23.079	0.18182	5.e-002	4.2396
21496	23.079	9.0909e-002	0.	193.99
21497	23.356	0.18182	0.	149.37
21498	23.264	0.18182	5.e-002	4.6425
21499	23.264	9.0909e-002	0.	155.99
21500	23.54	0.18182	0.	111.97
21501	23.448	0.18182	5.e-002	5.1028
21502	23.448	9.0909e-002	0.	118.63
21503	23.724	0.18182	0.	77.245
21504	23.632	0.18182	5.e-002	5.6808
21505	23.632	9.0909e-002	0.	82.412
21506	23.816	0.18182	5.e-002	6.9158
21507	23.816	9.0909e-002	0.	48.808
21508	23.908	0.18182	0.	48.434
21509	23.724	0.18182	0.1	77.245
21510	23.816	0.27273	0.1	71.618
21511	23.908	0.18182	0.1	48.434
21512	23.816	9.0909e-002	0.1	48.808
21513	23.54	0.18182	0.1	111.97
21514	23.632	0.27273	0.1	99.859
21515	23.632	9.0909e-002	0.1	82.412
21516	23.356	0.18182	0.1	149.37
21517	23.448	0.27273	0.1	134.08
21518	23.448	9.0909e-002	0.1	118.63
21519	23.172	0.18182	0.1	187.63
21520	23.264	0.27273	0.1	170.52
21521	23.264	9.0909e-002	0.1	155.99
21522	22.987	0.18182	0.1	226.31
21523	23.079	0.27273	0.1	208.03
21524	23.079	9.0909e-002	0.1	193.99
21525	22.803	0.18182	0.1	265.27
21526	22.895	0.27273	0.1	246.15
21527	22.895	9.0909e-002	0.1	232.43
21528	22.619	0.18182	0.1	304.41
21529	22.711	0.27273	0.1	284.67
21530	22.711	9.0909e-002	0.1	271.19
21531	22.435	0.18182	0.1	343.71
21532	22.527	0.27273	0.1	323.47
21533	22.527	9.0909e-002	0.1	310.22
21534	22.251	0.18182	0.1	383.14
21535	22.343	0.27273	0.1	362.5
21536	22.343	9.0909e-002	0.1	349.46
21537	22.067	0.18182	0.1	422.7
21538	22.159	0.27273	0.1	401.71
21539	22.159	9.0909e-002	0.1	388.89
21540	21.883	0.18182	0.1	462.37
21541	21.975	0.27273	0.1	441.08
21542	21.975	9.0909e-002	0.1	428.49
21543	21.699	0.18182	0.1	502.15
21544	21.791	0.27273	0.1	480.61
21545	21.791	9.0909e-002	0.1	468.26
21546	21.515	0.18182	0.1	542.05
21547	21.607	0.27273	0.1	520.28
21548	21.607	9.0909e-002	0.1	508.17
21549	21.33	0.18182	0.1	582.07
21550	21.422	0.27273	0.1	560.09
21551	21.422	9.0909e-002	0.1	548.23
21552	21.146	0.18182	0.1	622.21
21553	21.238	0.27273	0.1	600.05
21554	21.238	9.0909e-002	0.1	588.44
21555	20.962	0.18182	0.1	662.48
21556	21.054	0.27273	0.1	640.15
21557	21.054	9.0909e-002	0.1	628.8
21558	20.778	0.18182	0.1	702.88
21559	20.87	0.27273	0.1	680.39
21560	20.87	9.0909e-002	0.1	669.3
21561	20.594	0.18182	0.1	743.42
21562	20.686	0.27273	0.1	720.78
21563	20.686	9.0909e-002	0.1	709.95
21564	20.41	0.18182	0.1	784.1
21565	20.502	0.27273	0.1	761.32
21566	20.502	9.0909e-002	0.1	750.76
21567	20.226	0.18182	0.1	824.93
21568	20.318	0.27273	0.1	802.01
21569	20.318	9.0909e-002	0.1	791.72
21570	20.042	0.18182	0.1	865.91
21571	20.134	0.27273	0.1	842.87
21572	20.134	9.0909e-002	0.1	832.83
21573	19.858	0.18182	0.1	907.05
21574	19.95	0.27273	0.1	883.88
21575	19.95	9.0909e-002	0.1	874.11
21576	19.673	0.18182	0.1	948.35
21577	19.766	0.27273	0.1	925.07
21578	19.766	9.0909e-002	0.1	915.56
21579	19.489	0.18182	0.1	989.82
21580	19.581	0.27273	0.1	966.42
21581	19.581	9.0909e-002	0.1	957.17
21582	19.305	0.18182	0.1	1031.5
21583	19.397	0.27273	0.1	1007.9
21584	19.397	9.0909e-002	0.1	998.95
21585	19.121	0.18182	0.1	1073.3
21586	19.213	0.27273	0.1	1049.6
21587	19.213	9.0909e-002	0.1	1040.9
21588	18.937	0.18182	0.1	1115.3
21589	19.029	0.27273	0.1	1091.5
21590	19.029	9.0909e-002	0.1	1083.
21591	18.753	0.18182	0.1	1157.4
21592	18.845	0.27273	0.1	1133.6
21593	18.845	9.0909e-002	0.1	1125.4
21594	18.569	0.18182	0.1	1199.8
21595	18.661	0.27273	0.1	1175.8
21596	18.661	9.0909e-002	0.1	1167.9
21597	18.385	0.18182	0.1	1242.3
21598	18.477	0.27273	0.1	1218.3
21599	18.477	9.0909e-002	0.1	1210.5
21600	18.201	0.18182	0.1	1285.
21601	18.293	0.27273	0.1	1260.9
21602	18.293	9.0909e-002	0.1	1253.4
21603	18.016	0.18182	0.1	1327.9
21604	18.109	0.27273	0.1	1303.7
21605	18.109	9.0909e-002	0.1	1296.5
21606	17.832	0.18182	0.1	1371.
21607	17.924	0.27273	0.1	1346.7
21608	17.924	9.0909e-002	0.1	1339.7
21609	17.648	0.18182	0.1	1414.4
21610	17.74	0.27273	0.1	1389.9
21611	17.74	9.0909e-002	0.1	1383.2
21612	17.464	0.18182	0.1	1457.8
21613	17.556	0.27273	0.1	1433.3
21614	17.556	9.0909e-002	0.1	1426.8
21615	17.28	0.18182	0.1	1501.5
21616	17.372	0.27273	0.1	1476.8
21617	17.372	9.0909e-002	0.1	1470.7
21618	17.096	0.18182	0.1	1545.4
21619	17.188	0.27273	0.1	1520.6
21620	17.188	9.0909e-002	0.1	1514.7
21621	16.912	0.18182	0.1	1589.5
21622	17.004	0.27273	0.1	1564.6
21623	17.004	9.0909e-002	0.1	1559.
21624	16.728	0.18182	0.1	1633.8
21625	16.82	0.27273	0.1	1608.8
21626	16.82	9.0909e-002	0.1	1603.4
21627	16.544	0.18182	0.1	1678.3
21628	16.636	0.27273	0.1	1653.2
21629	16.636	9.0909e-002	0.1	1648.1
21630	16.359	0.18182	0.1	1723.
21631	16.452	0.27273	0.1	1697.7
21632	16.452	9.0909e-002	0.1	1693.
21633	16.175	0.18182	0.1	1767.9
21634	16.267	0.27273	0.1	1742.5
21635	16.267	9.0909e-002	0.1	1738.
21636	15.991	0.18182	0.1	1813.
21637	16.083	0.27273	0.1	1787.5
21638	16.083	9.0909e-002	0.1	1783.3
21639	15.807	0.18182	0.1	1858.3
21640	15.899	0.27273	0.1	1832.7
21641	15.899	9.0909e-002	0.1	1828.8
21642	15.623	0.18182	0.1	1903.9
21643	15.715	0.27273	0.1	1878.1
21644	15.715	9.0909e-002	0.1	1874.5
21645	15.439	0.18182	0.1	1949.6
21646	15.531	0.27273	0.1	1923.6
21647	15.531	9.0909e-002	0.1	1920.4
21648	15.255	0.18182	0.1	1995.5
21649	15.347	0.27273	0.1	1969.4
21650	15.347	9.0909e-002	0.1	1966.5
21651	15.071	0.18182	0.1	2041.6
21652	15.163	0.27273	0.1	2015.4
21653	15.163	9.0909e-002	0.1	2012.8
21654	14.887	0.18182	0.1	2087.9
21655	14.979	0.27273	0.1	2061.5
21656	14.979	9.0909e-002	0.1	2059.3
21657	14.703	0.18182	0.1	2134.4
21658	14.795	0.27273	0.1	2107.9
21659	14.795	9.0909e-002	0.1	2106.
21660	14.518	0.18182	0.1	2181.
21661	14.61	0.27273	0.1	2154.4
21662	14.61	9.0909e-002	0.1	2152.9
21663	14.334	0.18182	0.1	2227.8
21664	14.426	0.27273	0.1	2201.1
21665	14.426	9.0909e-002	0.1	2200.
21666	14.15	0.18182	0.1	2274.8
21667	14.242	0.27273	0.1	2247.9
21668	14.242	9.0909e-002	0.1	2247.2
21669	13.966	0.18182	0.1	2321.8
21670	14.058	0.27273	0.1	2294.9
21671	14.058	9.0909e-002	0.1	2294.5
21672	13.782	0.18182	0.1	2368.9
21673	13.874	0.27273	0.1	2341.9
21674	13.874	9.0909e-002	0.1	2341.9
21675	13.598	0.18182	0.1	2416.1
21676	13.69	0.27273	0.1	2389.
21677	13.69	9.0909e-002	0.1	2389.4
21678	13.414	0.18182	0.1	2463.3
21679	13.506	0.27273	0.1	2436.2
21680	13.506	9.0909e-002	0.1	2436.8
21681	13.23	0.18182	0.1	2510.3
21682	13.322	0.27273	0.1	2483.3
21683	13.322	9.0909e-002	0.1	2484.2
21684	13.046	0.18182	0.1	2557.2
21685	13.138	0.27273	0.1	2530.3
21686	13.138	9.0909e-002	0.1	2531.4
21687	12.861	0.18182	0.1	2603.7
21688	12.953	0.27273	0.1	2577.1
21689	12.953	9.0909e-002	0.1	2578.4
21690	12.677	0.18182	0.1	2649.7
21691	12.769	0.27273	0.1	2623.5
21692	12.769	9.0909e-002	0.1	2624.9
21693	12.493	0.18182	0.1	2695.1
21694	12.585	0.27273	0.1	2669.4
21695	12.585	9.0909e-002	0.1	2670.8
21696	12.309	0.18182	0.1	2739.5
21697	12.401	0.27273	0.1	2714.6
21698	12.401	9.0909e-002	0.1	2715.7
21699	12.125	0.18182	0.1	2782.6
21700	12.217	0.27273	0.1	2758.8
21701	12.217	9.0909e-002	0.1	2759.5
21702	11.941	0.18182	0.1	2824.
21703	12.033	0.27273	0.1	2801.6
21704	12.033	9.0909e-002	0.1	2801.7
21705	11.757	0.18182	0.1	2863.1
21706	11.849	0.27273	0.1	2842.5
21707	11.849	9.0909e-002	0.1	2841.8
21708	11.573	0.18182	0.1	2899.2
21709	11.665	0.27273	0.1	2881.
21710	11.665	9.0909e-002	0.1	2879.1
21711	11.389	0.18182	0.1	2931.4
21712	11.481	0.27273	0.1	2916.4
21713	11.481	9.0909e-002	0.1	2912.8
21714	11.204	0.18182	0.1	2958.7
21715	11.297	0.27273	0.1	2947.7
21716	11.297	9.0909e-002	0.1	2941.9
21717	11.02	0.18182	0.1	2979.7
21718	11.112	0.27273	0.1	2973.7
21719	11.112	9.0909e-002	0.1	2965.2
21720	10.836	0.18182	0.1	2992.7
21721	10.928	0.27273	0.1	2993.
21722	10.928	9.0909e-002	0.1	2981.
21723	10.652	0.18182	0.1	2995.5
21724	10.744	0.27273	0.1	3003.7
21725	10.744	9.0909e-002	0.1	2987.5
21726	10.468	0.18182	0.1	2985.7
21727	10.56	0.27273	0.1	3003.5
21728	10.56	9.0909e-002	0.1	2982.1
21729	10.284	0.18182	0.1	2960.2
21730	10.376	0.27273	0.1	2989.8
21731	10.376	9.0909e-002	0.1	2962.1
21732	10.1	0.18182	0.1	2915.2
21733	10.192	0.27273	0.1	2959.1
21734	10.192	9.0909e-002	0.1	2924.
21735	9.9157	0.18182	0.1	2846.4
21736	10.008	0.27273	0.1	2907.5
21737	10.008	9.0909e-002	0.1	2863.6
21738	9.7316	0.18182	0.1	2749.1
21739	9.8236	0.27273	0.1	2830.3
21740	9.8236	9.0909e-002	0.1	2776.3
21741	9.5475	0.18182	0.1	2617.8
21742	9.6395	0.27273	0.1	2722.2
21743	9.6395	9.0909e-002	0.1	2656.9
21744	9.3634	0.18182	0.1	2446.9
21745	9.4554	0.27273	0.1	2577.4
21746	9.4554	9.0909e-002	0.1	2499.8
21747	9.1793	0.18182	0.1	2231.4
21748	9.2713	0.27273	0.1	2390.4
21749	9.2713	9.0909e-002	0.1	2299.6
21750	8.9952	0.18182	0.1	1967.
21751	9.0872	0.27273	0.1	2156.
21752	9.0872	9.0909e-002	0.1	2051.5
21753	8.811	0.18182	0.1	1651.6
21754	8.9031	0.27273	0.1	1871.9
21755	8.9031	9.0909e-002	0.1	1752.3
21756	8.6269	0.18182	0.1	1287.9
21757	8.719	0.27273	0.1	1541.
21758	8.719	9.0909e-002	0.1	1401.2
21759	8.4428	0.18182	0.1	900.16
21760	8.5349	0.27273	0.1	1182.5
21761	8.5349	9.0909e-002	0.1	1001.8
21762	8.3508	0.27273	0.1	898.42
21763	8.2587	0.18182	0.1	513.04
21764	8.3508	9.0909e-002	0.1	574.78
21765	23.724	0.36364	0.1	94.689
21766	23.816	0.45455	0.1	92.535
21767	23.908	0.36364	0.1	73.26
21768	23.54	0.36364	0.1	123.06
21769	23.632	0.45455	0.1	115.55
21770	23.356	0.36364	0.1	156.27
21771	23.448	0.45455	0.1	145.33
21772	23.172	0.36364	0.1	191.83
21773	23.264	0.45455	0.1	178.69
21774	22.987	0.36364	0.1	228.65
21775	23.079	0.45455	0.1	214.01
21776	22.803	0.36364	0.1	266.24
21777	22.895	0.45455	0.1	250.53
21778	22.619	0.36364	0.1	304.34
21779	22.711	0.45455	0.1	287.82
21780	22.435	0.36364	0.1	342.81
21781	22.527	0.45455	0.1	325.66
21782	22.251	0.36364	0.1	381.57
21783	22.343	0.45455	0.1	363.9
21784	22.067	0.36364	0.1	420.57
21785	22.159	0.45455	0.1	402.46
21786	21.883	0.36364	0.1	459.77
21787	21.975	0.45455	0.1	441.29
21788	21.699	0.36364	0.1	499.16
21789	21.791	0.45455	0.1	480.36
21790	21.515	0.36364	0.1	538.73
21791	21.607	0.45455	0.1	519.63
21792	21.33	0.36364	0.1	578.46
21793	21.422	0.45455	0.1	559.09
21794	21.146	0.36364	0.1	618.35
21795	21.238	0.45455	0.1	598.74
21796	20.962	0.36364	0.1	658.41
21797	21.054	0.45455	0.1	638.57
21798	20.778	0.36364	0.1	698.62
21799	20.87	0.45455	0.1	678.58
21800	20.594	0.36364	0.1	739.
21801	20.686	0.45455	0.1	718.76
21802	20.41	0.36364	0.1	779.55
21803	20.502	0.45455	0.1	759.12
21804	20.226	0.36364	0.1	820.26
21805	20.318	0.45455	0.1	799.65
21806	20.042	0.36364	0.1	861.14
21807	20.134	0.45455	0.1	840.35
21808	19.858	0.36364	0.1	902.19
21809	19.95	0.45455	0.1	881.23
21810	19.673	0.36364	0.1	943.42
21811	19.766	0.45455	0.1	922.3
21812	19.489	0.36364	0.1	984.82
21813	19.581	0.45455	0.1	963.54
21814	19.305	0.36364	0.1	1026.4
21815	19.397	0.45455	0.1	1005.
21816	19.121	0.36364	0.1	1068.2
21817	19.213	0.45455	0.1	1046.6
21818	18.937	0.36364	0.1	1110.1
21819	19.029	0.45455	0.1	1088.4
21820	18.753	0.36364	0.1	1152.2
21821	18.845	0.45455	0.1	1130.4
21822	18.569	0.36364	0.1	1194.6
21823	18.661	0.45455	0.1	1172.5
21824	18.385	0.36364	0.1	1237.1
21825	18.477	0.45455	0.1	1214.9
21826	18.201	0.36364	0.1	1279.8
21827	18.293	0.45455	0.1	1257.5
21828	18.016	0.36364	0.1	1322.6
21829	18.109	0.45455	0.1	1300.2
21830	17.832	0.36364	0.1	1365.7
21831	17.924	0.45455	0.1	1343.1
21832	17.648	0.36364	0.1	1409.
21833	17.74	0.45455	0.1	1386.3
21834	17.464	0.36364	0.1	1452.5
21835	17.556	0.45455	0.1	1429.6
21836	17.28	0.36364	0.1	1496.1
21837	17.372	0.45455	0.1	1473.1
21838	17.096	0.36364	0.1	1540.
21839	17.188	0.45455	0.1	1516.8
21840	16.912	0.36364	0.1	1584.1
21841	17.004	0.45455	0.1	1560.7
21842	16.728	0.36364	0.1	1628.3
21843	16.82	0.45455	0.1	1604.8
21844	16.544	0.36364	0.1	1672.8
21845	16.636	0.45455	0.1	1649.2
21846	16.359	0.36364	0.1	1717.4
21847	16.452	0.45455	0.1	1693.6
21848	16.175	0.36364	0.1	1762.3
21849	16.267	0.45455	0.1	1738.3
21850	15.991	0.36364	0.1	1807.3
21851	16.083	0.45455	0.1	1783.2
21852	15.807	0.36364	0.1	1852.6
21853	15.899	0.45455	0.1	1828.3
21854	15.623	0.36364	0.1	1898.
21855	15.715	0.45455	0.1	1873.6
21856	15.439	0.36364	0.1	1943.6
21857	15.531	0.45455	0.1	1919.
21858	15.255	0.36364	0.1	1989.5
21859	15.347	0.45455	0.1	1964.7
21860	15.071	0.36364	0.1	2035.5
21861	15.163	0.45455	0.1	2010.5
21862	14.887	0.36364	0.1	2081.7
21863	14.979	0.45455	0.1	2056.6
21864	14.703	0.36364	0.1	2128.
21865	14.795	0.45455	0.1	2102.8
21866	14.518	0.36364	0.1	2174.6
21867	14.61	0.45455	0.1	2149.1
21868	14.334	0.36364	0.1	2221.3
21869	14.426	0.45455	0.1	2195.7
21870	14.15	0.36364	0.1	2268.1
21871	14.242	0.45455	0.1	2242.4
21872	13.966	0.36364	0.1	2315.1
21873	14.058	0.45455	0.1	2289.2
21874	13.782	0.36364	0.1	2362.1
21875	13.874	0.45455	0.1	2336.1
21876	13.598	0.36364	0.1	2409.2
21877	13.69	0.45455	0.1	2383.1
21878	13.414	0.36364	0.1	2456.4
21879	13.506	0.45455	0.1	2430.2
21880	13.23	0.36364	0.1	2503.4
21881	13.322	0.45455	0.1	2477.2
21882	13.046	0.36364	0.1	2550.3
21883	13.138	0.45455	0.1	2524.2
21884	12.861	0.36364	0.1	2597.
21885	12.953	0.45455	0.1	2571.1
21886	12.677	0.36364	0.1	2643.3
21887	12.769	0.45455	0.1	2617.7
21888	12.493	0.36364	0.1	2689.1
21889	12.585	0.45455	0.1	2663.8
21890	12.309	0.36364	0.1	2734.
21891	12.401	0.45455	0.1	2709.4
21892	12.125	0.36364	0.1	2777.8
21893	12.217	0.45455	0.1	2754.2
21894	11.941	0.36364	0.1	2820.2
21895	12.033	0.45455	0.1	2797.8
21896	11.757	0.36364	0.1	2860.6
21897	11.849	0.45455	0.1	2839.9
21898	11.573	0.36364	0.1	2898.4
21899	11.665	0.45455	0.1	2879.9
21900	11.389	0.36364	0.1	2932.7
21901	11.481	0.45455	0.1	2917.2
21902	11.204	0.36364	0.1	2962.7
21903	11.297	0.45455	0.1	2950.9
21904	11.02	0.36364	0.1	2987.
21905	11.112	0.45455	0.1	2980.
21906	10.836	0.36364	0.1	3004.
21907	10.928	0.45455	0.1	3003.
21908	10.652	0.36364	0.1	3011.6
21909	10.744	0.45455	0.1	3018.4
21910	10.468	0.36364	0.1	3007.6
21911	10.56	0.45455	0.1	3024.
21912	10.284	0.36364	0.1	2988.7
21913	10.376	0.45455	0.1	3017.2
21914	10.1	0.36364	0.1	2951.3
21915	10.192	0.45455	0.1	2994.7
21916	9.9157	0.36364	0.1	2891.1
21917	10.008	0.45455	0.1	2952.6
21918	9.7316	0.36364	0.1	2802.9
21919	9.8236	0.45455	0.1	2886.3
21920	9.5475	0.36364	0.1	2681.
21921	9.6395	0.45455	0.1	2790.5
21922	9.3634	0.36364	0.1	2519.6
21923	9.4554	0.45455	0.1	2659.4
21924	9.1793	0.36364	0.1	2313.3
21925	9.2713	0.45455	0.1	2487.3
21926	8.9952	0.36364	0.1	2058.6
21927	9.0872	0.45455	0.1	2270.
21928	8.811	0.36364	0.1	1757.7
21929	8.9031	0.45455	0.1	2007.7
21930	8.6269	0.36364	0.1	1427.4
21931	8.719	0.45455	0.1	1711.2
21932	8.4428	0.36364	0.1	1143.9
21933	8.5349	0.45455	0.1	1420.6
21934	8.3508	0.45455	0.1	1285.4
21935	8.2587	0.36364	0.1	844.02
21936	23.724	0.54545	0.1	112.53
21937	23.816	0.63636	0.1	110.53
21938	23.908	0.54545	0.1	93.641
21939	23.54	0.54545	0.1	137.77
21940	23.632	0.63636	0.1	131.42
21941	23.356	0.54545	0.1	167.99
21942	23.448	0.63636	0.1	158.53
21943	23.172	0.54545	0.1	201.19
21944	23.264	0.63636	0.1	189.5
21945	22.987	0.54545	0.1	236.2
21946	23.079	0.63636	0.1	222.88
21947	22.803	0.54545	0.1	272.4
21948	22.895	0.63636	0.1	257.86
21949	22.619	0.54545	0.1	309.4
21950	22.711	0.63636	0.1	293.92
21951	22.435	0.54545	0.1	346.98
21952	22.527	0.63636	0.1	330.75
21953	22.251	0.54545	0.1	385.
21954	22.343	0.63636	0.1	368.16
21955	22.067	0.54545	0.1	423.37
21956	22.159	0.63636	0.1	406.02
21957	21.883	0.54545	0.1	462.05
21958	21.975	0.63636	0.1	444.25
21959	21.699	0.54545	0.1	500.98
21960	21.791	0.63636	0.1	482.8
21961	21.515	0.54545	0.1	540.14
21962	21.607	0.63636	0.1	521.62
21963	21.33	0.54545	0.1	579.51
21964	21.422	0.63636	0.1	560.68
21965	21.146	0.54545	0.1	619.09
21966	21.238	0.63636	0.1	599.98
21967	20.962	0.54545	0.1	658.86
21968	21.054	0.63636	0.1	639.5
21969	20.778	0.54545	0.1	698.82
21970	20.87	0.63636	0.1	679.22
21971	20.594	0.54545	0.1	738.97
21972	20.686	0.63636	0.1	719.14
21973	20.41	0.54545	0.1	779.31
21974	20.502	0.63636	0.1	759.27
21975	20.226	0.54545	0.1	819.83
21976	20.318	0.63636	0.1	799.58
21977	20.042	0.54545	0.1	860.53
21978	20.134	0.63636	0.1	840.1
21979	19.858	0.54545	0.1	901.43
21980	19.95	0.63636	0.1	880.81
21981	19.673	0.54545	0.1	942.5
21982	19.766	0.63636	0.1	921.71
21983	19.489	0.54545	0.1	983.77
21984	19.581	0.63636	0.1	962.8
21985	19.305	0.54545	0.1	1025.2
21986	19.397	0.63636	0.1	1004.1
21987	19.121	0.54545	0.1	1066.9
21988	19.213	0.63636	0.1	1045.6
21989	18.937	0.54545	0.1	1108.7
21990	19.029	0.63636	0.1	1087.2
21991	18.753	0.54545	0.1	1150.7
21992	18.845	0.63636	0.1	1129.1
21993	18.569	0.54545	0.1	1192.9
21994	18.661	0.63636	0.1	1171.2
21995	18.385	0.54545	0.1	1235.3
21996	18.477	0.63636	0.1	1213.4
21997	18.201	0.54545	0.1	1278.
21998	18.293	0.63636	0.1	1255.9
21999	18.016	0.54545	0.1	1320.7
22000	18.109	0.63636	0.1	1298.5
22001	17.832	0.54545	0.1	1363.7
22002	17.924	0.63636	0.1	1341.4
22003	17.648	0.54545	0.1	1406.9
22004	17.74	0.63636	0.1	1384.4
22005	17.464	0.54545	0.1	1450.3
22006	17.556	0.63636	0.1	1427.6
22007	17.28	0.54545	0.1	1493.9
22008	17.372	0.63636	0.1	1471.1
22009	17.096	0.54545	0.1	1537.6
22010	17.188	0.63636	0.1	1514.7
22011	16.912	0.54545	0.1	1581.6
22012	17.004	0.63636	0.1	1558.5
22013	16.728	0.54545	0.1	1625.7
22014	16.82	0.63636	0.1	1602.5
22015	16.544	0.54545	0.1	1670.1
22016	16.636	0.63636	0.1	1646.7
22017	16.359	0.54545	0.1	1714.6
22018	16.452	0.63636	0.1	1691.1
22019	16.175	0.54545	0.1	1759.3
22020	16.267	0.63636	0.1	1735.6
22021	15.991	0.54545	0.1	1804.3
22022	16.083	0.63636	0.1	1780.4
22023	15.807	0.54545	0.1	1849.4
22024	15.899	0.63636	0.1	1825.3
22025	15.623	0.54545	0.1	1894.7
22026	15.715	0.63636	0.1	1870.5
22027	15.439	0.54545	0.1	1940.2
22028	15.531	0.63636	0.1	1915.8
22029	15.255	0.54545	0.1	1985.8
22030	15.347	0.63636	0.1	1961.3
22031	15.071	0.54545	0.1	2031.7
22032	15.163	0.63636	0.1	2007.
22033	14.887	0.54545	0.1	2077.7
22034	14.979	0.63636	0.1	2052.8
22035	14.703	0.54545	0.1	2123.9
22036	14.795	0.63636	0.1	2098.8
22037	14.518	0.54545	0.1	2170.3
22038	14.61	0.63636	0.1	2145.
22039	14.334	0.54545	0.1	2216.8
22040	14.426	0.63636	0.1	2191.4
22041	14.15	0.54545	0.1	2263.4
22042	14.242	0.63636	0.1	2237.9
22043	13.966	0.54545	0.1	2310.2
22044	14.058	0.63636	0.1	2284.5
22045	13.782	0.54545	0.1	2357.1
22046	13.874	0.63636	0.1	2331.3
22047	13.598	0.54545	0.1	2404.1
22048	13.69	0.63636	0.1	2378.1
22049	13.414	0.54545	0.1	2451.1
22050	13.506	0.63636	0.1	2425.1
22051	13.23	0.54545	0.1	2498.1
22052	13.322	0.63636	0.1	2472.
22053	13.046	0.54545	0.1	2545.
22054	13.138	0.63636	0.1	2519.
22055	12.861	0.54545	0.1	2591.7
22056	12.953	0.63636	0.1	2565.8
22057	12.677	0.54545	0.1	2638.2
22058	12.769	0.63636	0.1	2612.5
22059	12.493	0.54545	0.1	2684.3
22060	12.585	0.63636	0.1	2658.9
22061	12.309	0.54545	0.1	2729.7
22062	12.401	0.63636	0.1	2704.8
22063	12.125	0.54545	0.1	2774.2
22064	12.217	0.63636	0.1	2750.1
22065	11.941	0.54545	0.1	2817.5
22066	12.033	0.63636	0.1	2794.6
22067	11.757	0.54545	0.1	2859.2
22068	11.849	0.63636	0.1	2837.7
22069	11.573	0.54545	0.1	2898.7
22070	11.665	0.63636	0.1	2879.2
22071	11.389	0.54545	0.1	2935.3
22072	11.481	0.63636	0.1	2918.5
22073	11.204	0.54545	0.1	2968.1
22074	11.297	0.63636	0.1	2954.8
22075	11.02	0.54545	0.1	2996.
22076	11.112	0.63636	0.1	2987.1
22077	10.836	0.54545	0.1	3017.5
22078	10.928	0.63636	0.1	3014.4
22079	10.652	0.54545	0.1	3030.8
22080	10.744	0.63636	0.1	3035.1
22081	10.468	0.54545	0.1	3033.6
22082	10.56	0.63636	0.1	3047.2
22083	10.284	0.54545	0.1	3023.
22084	10.376	0.63636	0.1	3048.5
22085	10.1	0.54545	0.1	2995.6
22086	10.192	0.63636	0.1	3036.
22087	9.9157	0.54545	0.1	2947.3
22088	10.008	0.63636	0.1	3006.2
22089	9.7316	0.54545	0.1	2873.1
22090	9.8236	0.63636	0.1	2954.7
22091	9.5475	0.54545	0.1	2767.6
22092	9.6395	0.63636	0.1	2876.8
22093	9.3634	0.54545	0.1	2625.1
22094	9.4554	0.63636	0.1	2767.3
22095	9.1793	0.54545	0.1	2441.1
22096	9.2713	0.63636	0.1	2621.2
22097	8.9952	0.54545	0.1	2214.1
22098	9.0872	0.63636	0.1	2435.9
22099	8.811	0.54545	0.1	1951.7
22100	8.9031	0.63636	0.1	2214.6
22101	8.6269	0.54545	0.1	1682.7
22102	8.719	0.63636	0.1	1974.3
22103	8.4428	0.54545	0.1	1506.3
22104	8.5349	0.63636	0.1	1763.5
22105	8.3508	0.63636	0.1	1741.1
22106	8.2587	0.54545	0.1	1207.2
22107	23.724	0.72727	0.1	128.28
22108	23.816	0.81818	0.1	125.9
22109	23.908	0.72727	0.1	110.78
22110	23.54	0.72727	0.1	151.75
22111	23.632	0.81818	0.1	145.64
22112	23.356	0.72727	0.1	179.96
22113	23.448	0.81818	0.1	171.1
22114	23.172	0.72727	0.1	211.28
22115	23.264	0.81818	0.1	200.34
22116	22.987	0.72727	0.1	244.69
22117	23.079	0.81818	0.1	232.16
22118	22.803	0.72727	0.1	279.55
22119	22.895	0.81818	0.1	265.77
22120	22.619	0.72727	0.1	315.44
22121	22.711	0.81818	0.1	300.67
22122	22.435	0.72727	0.1	352.1
22123	22.527	0.81818	0.1	336.51
22124	22.251	0.72727	0.1	389.34
22125	22.343	0.81818	0.1	373.08
22126	22.067	0.72727	0.1	427.05
22127	22.159	0.81818	0.1	410.22
22128	21.883	0.72727	0.1	465.14
22129	21.975	0.81818	0.1	447.83
22130	21.699	0.72727	0.1	503.56
22131	21.791	0.81818	0.1	485.83
22132	21.515	0.72727	0.1	542.28
22133	21.607	0.81818	0.1	524.16
22134	21.33	0.72727	0.1	581.26
22135	21.422	0.81818	0.1	562.81
22136	21.146	0.72727	0.1	620.49
22137	21.238	0.81818	0.1	601.72
22138	20.962	0.72727	0.1	659.95
22139	21.054	0.81818	0.1	640.9
22140	20.778	0.72727	0.1	699.63
22141	20.87	0.81818	0.1	680.31
22142	20.594	0.72727	0.1	739.52
22143	20.686	0.81818	0.1	719.96
22144	20.41	0.72727	0.1	779.62
22145	20.502	0.81818	0.1	759.83
22146	20.226	0.72727	0.1	819.93
22147	20.318	0.81818	0.1	799.93
22148	20.042	0.72727	0.1	860.44
22149	20.134	0.81818	0.1	840.23
22150	19.858	0.72727	0.1	901.16
22151	19.95	0.81818	0.1	880.75
22152	19.673	0.72727	0.1	942.07
22153	19.766	0.81818	0.1	921.48
22154	19.489	0.72727	0.1	983.19
22155	19.581	0.81818	0.1	962.41
22156	19.305	0.72727	0.1	1024.5
22157	19.397	0.81818	0.1	1003.5
22158	19.121	0.72727	0.1	1066.
22159	19.213	0.81818	0.1	1044.9
22160	18.937	0.72727	0.1	1107.7
22161	19.029	0.81818	0.1	1086.4
22162	18.753	0.72727	0.1	1149.6
22163	18.845	0.81818	0.1	1128.2
22164	18.569	0.72727	0.1	1191.7
22165	18.661	0.81818	0.1	1170.1
22166	18.385	0.72727	0.1	1234.
22167	18.477	0.81818	0.1	1212.3
22168	18.201	0.72727	0.1	1276.5
22169	18.293	0.81818	0.1	1254.6
22170	18.016	0.72727	0.1	1319.2
22171	18.109	0.81818	0.1	1297.2
22172	17.832	0.72727	0.1	1362.1
22173	17.924	0.81818	0.1	1339.9
22174	17.648	0.72727	0.1	1405.2
22175	17.74	0.81818	0.1	1382.8
22176	17.464	0.72727	0.1	1448.5
22177	17.556	0.81818	0.1	1426.
22178	17.28	0.72727	0.1	1491.9
22179	17.372	0.81818	0.1	1469.3
22180	17.096	0.72727	0.1	1535.6
22181	17.188	0.81818	0.1	1512.8
22182	16.912	0.72727	0.1	1579.5
22183	17.004	0.81818	0.1	1556.5
22184	16.728	0.72727	0.1	1623.5
22185	16.82	0.81818	0.1	1600.4
22186	16.544	0.72727	0.1	1667.7
22187	16.636	0.81818	0.1	1644.5
22188	16.359	0.72727	0.1	1712.1
22189	16.452	0.81818	0.1	1688.7
22190	16.175	0.72727	0.1	1756.7
22191	16.267	0.81818	0.1	1733.2
22192	15.991	0.72727	0.1	1801.5
22193	16.083	0.81818	0.1	1777.8
22194	15.807	0.72727	0.1	1846.5
22195	15.899	0.81818	0.1	1822.6
22196	15.623	0.72727	0.1	1891.6
22197	15.715	0.81818	0.1	1867.6
22198	15.439	0.72727	0.1	1937.
22199	15.531	0.81818	0.1	1912.8
22200	15.255	0.72727	0.1	1982.5
22201	15.347	0.81818	0.1	1958.1
22202	15.071	0.72727	0.1	2028.2
22203	15.163	0.81818	0.1	2003.6
22204	14.887	0.72727	0.1	2074.
22205	14.979	0.81818	0.1	2049.3
22206	14.703	0.72727	0.1	2120.
22207	14.795	0.81818	0.1	2095.2
22208	14.518	0.72727	0.1	2166.2
22209	14.61	0.81818	0.1	2141.2
22210	14.334	0.72727	0.1	2212.5
22211	14.426	0.81818	0.1	2187.3
22212	14.15	0.72727	0.1	2259.
22213	14.242	0.81818	0.1	2233.6
22214	13.966	0.72727	0.1	2305.6
22215	14.058	0.81818	0.1	2280.1
22216	13.782	0.72727	0.1	2352.3
22217	13.874	0.81818	0.1	2326.6
22218	13.598	0.72727	0.1	2399.1
22219	13.69	0.81818	0.1	2373.3
22220	13.414	0.72727	0.1	2446.
22221	13.506	0.81818	0.1	2420.1
22222	13.23	0.72727	0.1	2492.9
22223	13.322	0.81818	0.1	2466.9
22224	13.046	0.72727	0.1	2539.8
22225	13.138	0.81818	0.1	2513.8
22226	12.861	0.72727	0.1	2586.6
22227	12.953	0.81818	0.1	2560.6
22228	12.677	0.72727	0.1	2633.2
22229	12.769	0.81818	0.1	2607.4
22230	12.493	0.72727	0.1	2679.5
22231	12.585	0.81818	0.1	2653.9
22232	12.309	0.72727	0.1	2725.4
22233	12.401	0.81818	0.1	2700.2
22234	12.125	0.72727	0.1	2770.5
22235	12.217	0.81818	0.1	2746.
22236	11.941	0.72727	0.1	2814.8
22237	12.033	0.81818	0.1	2791.2
22238	11.757	0.72727	0.1	2857.8
22239	11.849	0.81818	0.1	2835.5
22240	11.573	0.72727	0.1	2899.1
22241	11.665	0.81818	0.1	2878.5
22242	11.389	0.72727	0.1	2938.
22243	11.481	0.81818	0.1	2919.7
22244	11.204	0.72727	0.1	2973.8
22245	11.297	0.81818	0.1	2958.7
22246	11.02	0.72727	0.1	3005.5
22247	11.112	0.81818	0.1	2994.5
22248	10.836	0.72727	0.1	3032.
22249	10.928	0.81818	0.1	3026.3
22250	10.652	0.72727	0.1	3051.5
22251	10.744	0.81818	0.1	3052.7
22252	10.468	0.72727	0.1	3062.1
22253	10.56	0.81818	0.1	3072.1
22254	10.284	0.72727	0.1	3061.3
22255	10.376	0.81818	0.1	3082.7
22256	10.1	0.72727	0.1	3046.1
22257	10.192	0.81818	0.1	3081.9
22258	9.9157	0.72727	0.1	3012.8
22259	10.008	0.81818	0.1	3066.8
22260	9.7316	0.72727	0.1	2957.2
22261	9.8236	0.81818	0.1	3033.9
22262	9.5475	0.72727	0.1	2874.5
22263	9.6395	0.81818	0.1	2979.2
22264	9.3634	0.72727	0.1	2760.1
22265	9.4554	0.81818	0.1	2898.7
22266	9.1793	0.72727	0.1	2610.6
22267	9.2713	0.81818	0.1	2789.
22268	8.9952	0.72727	0.1	2426.8
22269	9.0872	0.81818	0.1	2649.3
22270	8.811	0.72727	0.1	2219.6
22271	8.9031	0.81818	0.1	2484.8
22272	8.6269	0.72727	0.1	2021.8
22273	8.719	0.81818	0.1	2314.3
22274	8.4428	0.72727	0.1	1938.4
22275	8.5349	0.81818	0.1	2184.
22276	8.3508	0.81818	0.1	2258.8
22277	8.2587	0.72727	0.1	1603.2
22278	23.724	0.90909	0.1	142.04
22279	23.816	1.	0.1	139.15
22280	23.908	0.90909	0.1	125.44
22281	23.54	0.90909	0.1	164.38
22282	23.632	1.	0.1	158.17
22283	23.356	0.90909	0.1	191.22
22284	23.448	1.	0.1	182.53
22285	23.172	0.90909	0.1	221.15
22286	23.264	1.	0.1	210.56
22287	22.987	0.90909	0.1	253.26
22288	23.079	1.	0.1	241.16
22289	22.803	0.90909	0.1	286.97
22290	22.895	1.	0.1	273.65
22291	22.619	0.90909	0.1	321.84
22292	22.711	1.	0.1	307.53
22293	22.435	0.90909	0.1	357.61
22294	22.527	1.	0.1	342.48
22295	22.251	0.90909	0.1	394.09
22296	22.343	1.	0.1	378.26
22297	22.067	0.90909	0.1	431.12
22298	22.159	1.	0.1	414.71
22299	21.883	0.90909	0.1	468.63
22300	21.975	1.	0.1	451.7
22301	21.699	0.90909	0.1	506.53
22302	21.791	1.	0.1	489.15
22303	21.515	0.90909	0.1	544.79
22304	21.607	1.	0.1	527.
22305	21.33	0.90909	0.1	583.36
22306	21.422	1.	0.1	565.21
22307	21.146	0.90909	0.1	622.22
22308	21.238	1.	0.1	603.74
22309	20.962	0.90909	0.1	661.35
22310	21.054	1.	0.1	642.57
22311	20.778	0.90909	0.1	700.73
22312	20.87	1.	0.1	681.67
22313	20.594	0.90909	0.1	740.36
22314	20.686	1.	0.1	721.03
22315	20.41	0.90909	0.1	780.21
22316	20.502	1.	0.1	760.64
22317	20.226	0.90909	0.1	820.3
22318	20.318	1.	0.1	800.5
22319	20.042	0.90909	0.1	860.61
22320	20.134	1.	0.1	840.59
22321	19.858	0.90909	0.1	901.14
22322	19.95	1.	0.1	880.91
22323	19.673	0.90909	0.1	941.88
22324	19.766	1.	0.1	921.46
22325	19.489	0.90909	0.1	982.83
22326	19.581	1.	0.1	962.22
22327	19.305	0.90909	0.1	1024.
22328	19.397	1.	0.1	1003.2
22329	19.121	0.90909	0.1	1065.4
22330	19.213	1.	0.1	1044.4
22331	18.937	0.90909	0.1	1107.
22332	19.029	1.	0.1	1085.8
22333	18.753	0.90909	0.1	1148.7
22334	18.845	1.	0.1	1127.4
22335	18.569	0.90909	0.1	1190.7
22336	18.661	1.	0.1	1169.3
22337	18.385	0.90909	0.1	1232.9
22338	18.477	1.	0.1	1211.3
22339	18.201	0.90909	0.1	1275.3
22340	18.293	1.	0.1	1253.5
22341	18.016	0.90909	0.1	1317.9
22342	18.109	1.	0.1	1296.
22343	17.832	0.90909	0.1	1360.7
22344	17.924	1.	0.1	1338.6
22345	17.648	0.90909	0.1	1403.7
22346	17.74	1.	0.1	1381.4
22347	17.464	0.90909	0.1	1446.8
22348	17.556	1.	0.1	1424.5
22349	17.28	0.90909	0.1	1490.2
22350	17.372	1.	0.1	1467.7
22351	17.096	0.90909	0.1	1533.8
22352	17.188	1.	0.1	1511.1
22353	16.912	0.90909	0.1	1577.5
22354	17.004	1.	0.1	1554.7
22355	16.728	0.90909	0.1	1621.4
22356	16.82	1.	0.1	1598.5
22357	16.544	0.90909	0.1	1665.6
22358	16.636	1.	0.1	1642.5
22359	16.359	0.90909	0.1	1709.8
22360	16.452	1.	0.1	1686.6
22361	16.175	0.90909	0.1	1754.3
22362	16.267	1.	0.1	1730.9
22363	15.991	0.90909	0.1	1799.
22364	16.083	1.	0.1	1775.4
22365	15.807	0.90909	0.1	1843.8
22366	15.899	1.	0.1	1820.1
22367	15.623	0.90909	0.1	1888.8
22368	15.715	1.	0.1	1865.
22369	15.439	0.90909	0.1	1934.
22370	15.531	1.	0.1	1910.
22371	15.255	0.90909	0.1	1979.3
22372	15.347	1.	0.1	1955.2
22373	15.071	0.90909	0.1	2024.8
22374	15.163	1.	0.1	2000.5
22375	14.887	0.90909	0.1	2070.5
22376	14.979	1.	0.1	2046.
22377	14.703	0.90909	0.1	2116.3
22378	14.795	1.	0.1	2091.7
22379	14.518	0.90909	0.1	2162.3
22380	14.61	1.	0.1	2137.5
22381	14.334	0.90909	0.1	2208.5
22382	14.426	1.	0.1	2183.5
22383	14.15	0.90909	0.1	2254.7
22384	14.242	1.	0.1	2229.6
22385	13.966	0.90909	0.1	2301.1
22386	14.058	1.	0.1	2275.8
22387	13.782	0.90909	0.1	2347.7
22388	13.874	1.	0.1	2322.2
22389	13.598	0.90909	0.1	2394.3
22390	13.69	1.	0.1	2368.7
22391	13.414	0.90909	0.1	2441.
22392	13.506	1.	0.1	2415.3
22393	13.23	0.90909	0.1	2487.8
22394	13.322	1.	0.1	2461.9
22395	13.046	0.90909	0.1	2534.6
22396	13.138	1.	0.1	2508.7
22397	12.861	0.90909	0.1	2581.4
22398	12.953	1.	0.1	2555.5
22399	12.677	0.90909	0.1	2628.1
22400	12.769	1.	0.1	2602.2
22401	12.493	0.90909	0.1	2674.7
22402	12.585	1.	0.1	2648.9
22403	12.309	0.90909	0.1	2720.9
22404	12.401	1.	0.1	2695.5
22405	12.125	0.90909	0.1	2766.7
22406	12.217	1.	0.1	2741.8
22407	11.941	0.90909	0.1	2811.9
22408	12.033	1.	0.1	2787.7
22409	11.757	0.90909	0.1	2856.2
22410	11.849	1.	0.1	2833.
22411	11.573	0.90909	0.1	2899.2
22412	11.665	1.	0.1	2877.5
22413	11.389	0.90909	0.1	2940.5
22414	11.481	1.	0.1	2920.7
22415	11.204	0.90909	0.1	2979.4
22416	11.297	1.	0.1	2962.4
22417	11.02	0.90909	0.1	3015.2
22418	11.112	1.	0.1	3001.8
22419	10.836	0.90909	0.1	3047.
22420	10.928	1.	0.1	3038.3
22421	10.652	0.90909	0.1	3073.3
22422	10.744	1.	0.1	3070.9
22423	10.468	0.90909	0.1	3092.6
22424	10.56	1.	0.1	3098.3
22425	10.284	0.90909	0.1	3103.
22426	10.376	1.	0.1	3119.2
22427	10.1	0.90909	0.1	3102.1
22428	10.192	1.	0.1	3131.6
22429	9.9157	0.90909	0.1	3086.9
22430	10.008	1.	0.1	3133.4
22431	9.7316	0.90909	0.1	3054.2
22432	9.8236	1.	0.1	3122.3
22433	9.5475	0.90909	0.1	3000.6
22434	9.6395	1.	0.1	3095.6
22435	9.3634	0.90909	0.1	2922.9
22436	9.4554	1.	0.1	3051.
22437	9.1793	0.90909	0.1	2819.6
22438	9.2713	1.	0.1	2987.2
22439	8.9952	0.90909	0.1	2693.
22440	9.0872	1.	0.1	2905.5
22441	8.811	0.90909	0.1	2554.8
22442	8.9031	1.	0.1	2812.8
22443	8.6269	0.90909	0.1	2435.3
22444	8.719	1.	0.1	2726.
22445	8.4428	0.90909	0.1	2441.
22446	8.5349	1.	0.1	2683.7
22447	8.3508	1.	0.1	2861.9
22448	8.2587	0.90909	0.1	2050.3
22449	23.724	1.0909	0.1	154.04
22450	23.816	1.1818	0.1	150.63
22451	23.908	1.0909	0.1	138.09
22452	23.54	1.0909	0.1	175.61
22453	23.632	1.1818	0.1	169.15
22454	23.356	1.0909	0.1	201.49
22455	23.448	1.1818	0.1	192.74
22456	23.172	1.0909	0.1	230.39
22457	23.264	1.1818	0.1	219.88
22458	22.987	1.0909	0.1	261.48
22459	23.079	1.1818	0.1	249.56
22460	22.803	1.0909	0.1	294.23
22461	22.895	1.1818	0.1	281.16
22462	22.619	1.0909	0.1	328.23
22463	22.711	1.1818	0.1	314.2
22464	22.435	1.0909	0.1	363.21
22465	22.527	1.1818	0.1	348.37
22466	22.251	1.0909	0.1	398.97
22467	22.343	1.1818	0.1	383.45
22468	22.067	1.0909	0.1	435.37
22469	22.159	1.1818	0.1	419.25
22470	21.883	1.0909	0.1	472.31
22471	21.975	1.1818	0.1	455.67
22472	21.699	1.0909	0.1	509.71
22473	21.791	1.1818	0.1	492.6
22474	21.515	1.0909	0.1	547.51
22475	21.607	1.1818	0.1	529.99
22476	21.33	1.0909	0.1	585.68
22477	21.422	1.1818	0.1	567.77
22478	21.146	1.0909	0.1	624.17
22479	21.238	1.1818	0.1	605.92
22480	20.962	1.0909	0.1	662.96
22481	21.054	1.1818	0.1	644.4
22482	20.778	1.0909	0.1	702.04
22483	20.87	1.1818	0.1	683.19
22484	20.594	1.0909	0.1	741.39
22485	20.686	1.1818	0.1	722.27
22486	20.41	1.0909	0.1	781.
22487	20.502	1.1818	0.1	761.62
22488	20.226	1.0909	0.1	820.86
22489	20.318	1.1818	0.1	801.24
22490	20.042	1.0909	0.1	860.96
22491	20.134	1.1818	0.1	841.11
22492	19.858	1.0909	0.1	901.3
22493	19.95	1.1818	0.1	881.24
22494	19.673	1.0909	0.1	941.87
22495	19.766	1.1818	0.1	921.6
22496	19.489	1.0909	0.1	982.66
22497	19.581	1.1818	0.1	962.2
22498	19.305	1.0909	0.1	1023.7
22499	19.397	1.1818	0.1	1003.
22500	19.121	1.0909	0.1	1064.9
22501	19.213	1.1818	0.1	1044.1
22502	18.937	1.0909	0.1	1106.4
22503	19.029	1.1818	0.1	1085.4
22504	18.753	1.0909	0.1	1148.
22505	18.845	1.1818	0.1	1126.9
22506	18.569	1.0909	0.1	1189.9
22507	18.661	1.1818	0.1	1168.6
22508	18.385	1.0909	0.1	1232.
22509	18.477	1.1818	0.1	1210.5
22510	18.201	1.0909	0.1	1274.3
22511	18.293	1.1818	0.1	1252.6
22512	18.016	1.0909	0.1	1316.7
22513	18.109	1.1818	0.1	1294.9
22514	17.832	1.0909	0.1	1359.4
22515	17.924	1.1818	0.1	1337.5
22516	17.648	1.0909	0.1	1402.3
22517	17.74	1.1818	0.1	1380.2
22518	17.464	1.0909	0.1	1445.4
22519	17.556	1.1818	0.1	1423.1
22520	17.28	1.0909	0.1	1488.6
22521	17.372	1.1818	0.1	1466.3
22522	17.096	1.0909	0.1	1532.1
22523	17.188	1.1818	0.1	1509.6
22524	16.912	1.0909	0.1	1575.7
22525	17.004	1.1818	0.1	1553.1
22526	16.728	1.0909	0.1	1619.6
22527	16.82	1.1818	0.1	1596.8
22528	16.544	1.0909	0.1	1663.6
22529	16.636	1.1818	0.1	1640.6
22530	16.359	1.0909	0.1	1707.7
22531	16.452	1.1818	0.1	1684.6
22532	16.175	1.0909	0.1	1752.1
22533	16.267	1.1818	0.1	1728.9
22534	15.991	1.0909	0.1	1796.6
22535	16.083	1.1818	0.1	1773.2
22536	15.807	1.0909	0.1	1841.3
22537	15.899	1.1818	0.1	1817.8
22538	15.623	1.0909	0.1	1886.2
22539	15.715	1.1818	0.1	1862.5
22540	15.439	1.0909	0.1	1931.2
22541	15.531	1.1818	0.1	1907.4
22542	15.255	1.0909	0.1	1976.4
22543	15.347	1.1818	0.1	1952.4
22544	15.071	1.0909	0.1	2021.7
22545	15.163	1.1818	0.1	1997.6
22546	14.887	1.0909	0.1	2067.2
22547	14.979	1.1818	0.1	2042.9
22548	14.703	1.0909	0.1	2112.9
22549	14.795	1.1818	0.1	2088.4
22550	14.518	1.0909	0.1	2158.6
22551	14.61	1.1818	0.1	2134.
22552	14.334	1.0909	0.1	2204.6
22553	14.426	1.1818	0.1	2179.8
22554	14.15	1.0909	0.1	2250.6
22555	14.242	1.1818	0.1	2225.7
22556	13.966	1.0909	0.1	2296.9
22557	14.058	1.1818	0.1	2271.7
22558	13.782	1.0909	0.1	2343.2
22559	13.874	1.1818	0.1	2317.9
22560	13.598	1.0909	0.1	2389.6
22561	13.69	1.1818	0.1	2364.2
22562	13.414	1.0909	0.1	2436.2
22563	13.506	1.1818	0.1	2410.6
22564	13.23	1.0909	0.1	2482.8
22565	13.322	1.1818	0.1	2457.1
22566	13.046	1.0909	0.1	2529.5
22567	13.138	1.1818	0.1	2503.7
22568	12.861	1.0909	0.1	2576.3
22569	12.953	1.1818	0.1	2550.4
22570	12.677	1.0909	0.1	2623.1
22571	12.769	1.1818	0.1	2597.1
22572	12.493	1.0909	0.1	2669.8
22573	12.585	1.1818	0.1	2643.9
22574	12.309	1.0909	0.1	2716.4
22575	12.401	1.1818	0.1	2690.7
22576	12.125	1.0909	0.1	2762.8
22577	12.217	1.1818	0.1	2737.4
22578	11.941	1.0909	0.1	2808.8
22579	12.033	1.1818	0.1	2784.
22580	11.757	1.0909	0.1	2854.3
22581	11.849	1.1818	0.1	2830.3
22582	11.573	1.0909	0.1	2899.1
22583	11.665	1.1818	0.1	2876.2
22584	11.389	1.0909	0.1	2942.7
22585	11.481	1.1818	0.1	2921.5
22586	11.204	1.0909	0.1	2984.8
22587	11.297	1.1818	0.1	2965.8
22588	11.02	1.0909	0.1	3024.9
22589	11.112	1.1818	0.1	3008.9
22590	10.836	1.0909	0.1	3062.2
22591	10.928	1.1818	0.1	3050.3
22592	10.652	1.0909	0.1	3095.8
22593	10.744	1.1818	0.1	3089.3
22594	10.468	1.0909	0.1	3124.7
22595	10.56	1.1818	0.1	3125.3
22596	10.284	1.0909	0.1	3147.4
22597	10.376	1.1818	0.1	3157.2
22598	10.1	1.0909	0.1	3162.4
22599	10.192	1.1818	0.1	3184.
22600	9.9157	1.0909	0.1	3167.8
22601	10.008	1.1818	0.1	3204.6
22602	9.7316	1.0909	0.1	3161.8
22603	9.8236	1.1818	0.1	3217.8
22604	9.5475	1.0909	0.1	3142.7
22605	9.6395	1.1818	0.1	3222.8
22606	9.3634	1.0909	0.1	3109.5
22607	9.4554	1.1818	0.1	3219.5
22608	9.1793	1.0909	0.1	3062.9
22609	9.2713	1.1818	0.1	3209.4
22610	8.9952	1.0909	0.1	3007.4
22611	9.0872	1.1818	0.1	3196.9
22612	8.811	1.0909	0.1	2953.7
22613	8.9031	1.1818	0.1	3191.4
22614	8.6269	1.0909	0.1	2926.5
22615	8.719	1.1818	0.1	3208.7
22616	8.4428	1.0909	0.1	3034.
22617	8.5349	1.1818	0.1	3280.4
22618	8.3508	1.1818	0.1	3593.4
22619	8.2587	1.0909	0.1	2577.1
22620	23.724	1.2727	0.1	164.5
22621	23.816	1.3636	0.1	160.59
22622	23.908	1.2727	0.1	149.06
22623	23.54	1.2727	0.1	185.52
22624	23.632	1.3636	0.1	178.74
22625	23.356	1.2727	0.1	210.68
22626	23.448	1.3636	0.1	201.76
22627	23.172	1.2727	0.1	238.8
22628	23.264	1.3636	0.1	228.22
22629	22.987	1.2727	0.1	269.11
22630	23.079	1.3636	0.1	257.21
22631	22.803	1.2727	0.1	301.08
22632	22.895	1.3636	0.1	288.1
22633	22.619	1.2727	0.1	334.35
22634	22.711	1.3636	0.1	320.46
22635	22.435	1.2727	0.1	368.65
22636	22.527	1.3636	0.1	353.98
22637	22.251	1.2727	0.1	403.78
22638	22.343	1.3636	0.1	388.44
22639	22.067	1.2727	0.1	439.61
22640	22.159	1.3636	0.1	423.68
22641	21.883	1.2727	0.1	476.03
22642	21.975	1.3636	0.1	459.58
22643	21.699	1.2727	0.1	512.95
22644	21.791	1.3636	0.1	496.04
22645	21.515	1.2727	0.1	550.32
22646	21.607	1.3636	0.1	532.99
22647	21.33	1.2727	0.1	588.09
22648	21.422	1.3636	0.1	570.37
22649	21.146	1.2727	0.1	626.22
22650	21.238	1.3636	0.1	608.16
22651	20.962	1.2727	0.1	664.69
22652	21.054	1.3636	0.1	646.31
22653	20.778	1.2727	0.1	703.48
22654	20.87	1.3636	0.1	684.79
22655	20.594	1.2727	0.1	742.56
22656	20.686	1.3636	0.1	723.59
22657	20.41	1.2727	0.1	781.92
22658	20.502	1.3636	0.1	762.7
22659	20.226	1.2727	0.1	821.56
22660	20.318	1.3636	0.1	802.09
22661	20.042	1.2727	0.1	861.45
22662	20.134	1.3636	0.1	841.75
22663	19.858	1.2727	0.1	901.6
22664	19.95	1.3636	0.1	881.68
22665	19.673	1.2727	0.1	942.
22666	19.766	1.3636	0.1	921.86
22667	19.489	1.2727	0.1	982.63
22668	19.581	1.3636	0.1	962.3
22669	19.305	1.2727	0.1	1023.5
22670	19.397	1.3636	0.1	1003.
22671	19.121	1.2727	0.1	1064.6
22672	19.213	1.3636	0.1	1043.9
22673	18.937	1.2727	0.1	1105.9
22674	19.029	1.3636	0.1	1085.
22675	18.753	1.2727	0.1	1147.5
22676	18.845	1.3636	0.1	1126.4
22677	18.569	1.2727	0.1	1189.2
22678	18.661	1.3636	0.1	1168.
22679	18.385	1.2727	0.1	1231.2
22680	18.477	1.3636	0.1	1209.8
22681	18.201	1.2727	0.1	1273.4
22682	18.293	1.3636	0.1	1251.8
22683	18.016	1.2727	0.1	1315.7
22684	18.109	1.3636	0.1	1294.1
22685	17.832	1.2727	0.1	1358.3
22686	17.924	1.3636	0.1	1336.5
22687	17.648	1.2727	0.1	1401.1
22688	17.74	1.3636	0.1	1379.1
22689	17.464	1.2727	0.1	1444.1
22690	17.556	1.3636	0.1	1422.
22691	17.28	1.2727	0.1	1487.2
22692	17.372	1.3636	0.1	1465.
22693	17.096	1.2727	0.1	1530.6
22694	17.188	1.3636	0.1	1508.2
22695	16.912	1.2727	0.1	1574.1
22696	17.004	1.3636	0.1	1551.6
22697	16.728	1.2727	0.1	1617.8
22698	16.82	1.3636	0.1	1595.2
22699	16.544	1.2727	0.1	1661.7
22700	16.636	1.3636	0.1	1638.9
22701	16.359	1.2727	0.1	1705.8
22702	16.452	1.3636	0.1	1682.9
22703	16.175	1.2727	0.1	1750.
22704	16.267	1.3636	0.1	1727.
22705	15.991	1.2727	0.1	1794.4
22706	16.083	1.3636	0.1	1771.2
22707	15.807	1.2727	0.1	1839.
22708	15.899	1.3636	0.1	1815.6
22709	15.623	1.2727	0.1	1883.7
22710	15.715	1.3636	0.1	1860.2
22711	15.439	1.2727	0.1	1928.6
22712	15.531	1.3636	0.1	1905.
22713	15.255	1.2727	0.1	1973.6
22714	15.347	1.3636	0.1	1949.8
22715	15.071	1.2727	0.1	2018.8
22716	15.163	1.3636	0.1	1994.9
22717	14.887	1.2727	0.1	2064.1
22718	14.979	1.3636	0.1	2040.
22719	14.703	1.2727	0.1	2109.6
22720	14.795	1.3636	0.1	2085.3
22721	14.518	1.2727	0.1	2155.2
22722	14.61	1.3636	0.1	2130.8
22723	14.334	1.2727	0.1	2200.9
22724	14.426	1.3636	0.1	2176.3
22725	14.15	1.2727	0.1	2246.8
22726	14.242	1.3636	0.1	2222.
22727	13.966	1.2727	0.1	2292.8
22728	14.058	1.3636	0.1	2267.8
22729	13.782	1.2727	0.1	2338.9
22730	13.874	1.3636	0.1	2313.8
22731	13.598	1.2727	0.1	2385.1
22732	13.69	1.3636	0.1	2359.9
22733	13.414	1.2727	0.1	2431.5
22734	13.506	1.3636	0.1	2406.1
22735	13.23	1.2727	0.1	2478.
22736	13.322	1.3636	0.1	2452.4
22737	13.046	1.2727	0.1	2524.5
22738	13.138	1.3636	0.1	2498.8
22739	12.861	1.2727	0.1	2571.2
22740	12.953	1.3636	0.1	2545.4
22741	12.677	1.2727	0.1	2618.
22742	12.769	1.3636	0.1	2592.1
22743	12.493	1.2727	0.1	2664.9
22744	12.585	1.3636	0.1	2638.9
22745	12.309	1.2727	0.1	2711.8
22746	12.401	1.3636	0.1	2685.9
22747	12.125	1.2727	0.1	2758.7
22748	12.217	1.3636	0.1	2733.
22749	11.941	1.2727	0.1	2805.5
22750	12.033	1.3636	0.1	2780.1
22751	11.757	1.2727	0.1	2852.2
22752	11.849	1.3636	0.1	2827.4
22753	11.573	1.2727	0.1	2898.6
22754	11.665	1.3636	0.1	2874.7
22755	11.389	1.2727	0.1	2944.6
22756	11.481	1.3636	0.1	2921.9
22757	11.204	1.2727	0.1	2990.
22758	11.297	1.3636	0.1	2969.
22759	11.02	1.2727	0.1	3034.4
22760	11.112	1.3636	0.1	3015.8
22761	10.836	1.2727	0.1	3077.5
22762	10.928	1.3636	0.1	3062.1
22763	10.652	1.2727	0.1	3118.7
22764	10.744	1.3636	0.1	3107.8
22765	10.468	1.2727	0.1	3157.7
22766	10.56	1.3636	0.1	3152.5
22767	10.284	1.2727	0.1	3193.5
22768	10.376	1.3636	0.1	3196.
22769	10.1	1.2727	0.1	3225.7
22770	10.192	1.3636	0.1	3238.1
22771	9.9157	1.2727	0.1	3253.6
22772	10.008	1.3636	0.1	3278.6
22773	9.7316	1.2727	0.1	3276.9
22774	9.8236	1.3636	0.1	3317.8
22775	9.5475	1.2727	0.1	3296.2
22776	9.6395	1.3636	0.1	3356.9
22777	9.3634	1.2727	0.1	3313.2
22778	9.4554	1.3636	0.1	3398.4
22779	9.1793	1.2727	0.1	3332.3
22780	9.2713	1.3636	0.1	3447.3
22781	8.9952	1.2727	0.1	3361.4
22782	9.0872	1.3636	0.1	3512.8
22783	8.811	1.2727	0.1	3412.9
22784	8.9031	1.3636	0.1	3610.
22785	8.6269	1.2727	0.1	3507.9
22786	8.719	1.3636	0.1	3762.
22787	8.4428	1.2727	0.1	3755.2
22788	8.5349	1.3636	0.1	3996.5
22789	8.3508	1.3636	0.1	4527.5
22790	8.2587	1.2727	0.1	3230.2
22791	23.724	1.4545	0.1	173.6
22792	23.816	1.5455	0.1	169.19
22793	23.908	1.4545	0.1	158.55
22794	23.54	1.4545	0.1	194.19
22795	23.632	1.5455	0.1	187.06
22796	23.356	1.4545	0.1	218.8
22797	23.448	1.5455	0.1	209.63
22798	23.172	1.4545	0.1	246.33
22799	23.264	1.5455	0.1	235.59
22800	22.987	1.4545	0.1	276.03
22801	23.079	1.5455	0.1	264.04
22802	22.803	1.4545	0.1	307.39
22803	22.895	1.5455	0.1	294.37
22804	22.619	1.4545	0.1	340.06
22805	22.711	1.5455	0.1	326.18
22806	22.435	1.4545	0.1	373.78
22807	22.527	1.5455	0.1	359.17
22808	22.251	1.4545	0.1	408.37
22809	22.343	1.5455	0.1	393.12
22810	22.067	1.4545	0.1	443.69
22811	22.159	1.5455	0.1	427.87
22812	21.883	1.4545	0.1	479.64
22813	21.975	1.5455	0.1	463.31
22814	21.699	1.4545	0.1	516.13
22815	21.791	1.5455	0.1	499.34
22816	21.515	1.4545	0.1	553.1
22817	21.607	1.5455	0.1	535.89
22818	21.33	1.4545	0.1	590.5
22819	21.422	1.5455	0.1	572.92
22820	21.146	1.4545	0.1	628.3
22821	21.238	1.5455	0.1	610.37
22822	20.962	1.4545	0.1	666.47
22823	21.054	1.5455	0.1	648.21
22824	20.778	1.4545	0.1	704.97
22825	20.87	1.5455	0.1	686.41
22826	20.594	1.4545	0.1	743.79
22827	20.686	1.5455	0.1	724.95
22828	20.41	1.4545	0.1	782.92
22829	20.502	1.5455	0.1	763.82
22830	20.226	1.4545	0.1	822.34
22831	20.318	1.5455	0.1	802.99
22832	20.042	1.4545	0.1	862.04
22833	20.134	1.5455	0.1	842.45
22834	19.858	1.4545	0.1	902.
22835	19.95	1.5455	0.1	882.19
22836	19.673	1.4545	0.1	942.23
22837	19.766	1.5455	0.1	922.21
22838	19.489	1.4545	0.1	982.7
22839	19.581	1.5455	0.1	962.49
22840	19.305	1.4545	0.1	1023.4
22841	19.397	1.5455	0.1	1003.
22842	19.121	1.4545	0.1	1064.4
22843	19.213	1.5455	0.1	1043.8
22844	18.937	1.4545	0.1	1105.6
22845	19.029	1.5455	0.1	1084.8
22846	18.753	1.4545	0.1	1147.
22847	18.845	1.5455	0.1	1126.1
22848	18.569	1.4545	0.1	1188.6
22849	18.661	1.5455	0.1	1167.5
22850	18.385	1.4545	0.1	1230.5
22851	18.477	1.5455	0.1	1209.3
22852	18.201	1.4545	0.1	1272.6
22853	18.293	1.5455	0.1	1251.2
22854	18.016	1.4545	0.1	1314.9
22855	18.109	1.5455	0.1	1293.3
22856	17.832	1.4545	0.1	1357.4
22857	17.924	1.5455	0.1	1335.6
22858	17.648	1.4545	0.1	1400.
22859	17.74	1.5455	0.1	1378.2
22860	17.464	1.4545	0.1	1442.9
22861	17.556	1.5455	0.1	1420.9
22862	17.28	1.4545	0.1	1486.
22863	17.372	1.5455	0.1	1463.9
22864	17.096	1.4545	0.1	1529.3
22865	17.188	1.5455	0.1	1507.
22866	16.912	1.4545	0.1	1572.7
22867	17.004	1.5455	0.1	1550.3
22868	16.728	1.4545	0.1	1616.3
22869	16.82	1.5455	0.1	1593.8
22870	16.544	1.4545	0.1	1660.1
22871	16.636	1.5455	0.1	1637.4
22872	16.359	1.4545	0.1	1704.1
22873	16.452	1.5455	0.1	1681.3
22874	16.175	1.4545	0.1	1748.2
22875	16.267	1.5455	0.1	1725.3
22876	15.991	1.4545	0.1	1792.5
22877	16.083	1.5455	0.1	1769.4
22878	15.807	1.4545	0.1	1836.9
22879	15.899	1.5455	0.1	1813.7
22880	15.623	1.4545	0.1	1881.5
22881	15.715	1.5455	0.1	1858.2
22882	15.439	1.4545	0.1	1926.2
22883	15.531	1.5455	0.1	1902.8
22884	15.255	1.4545	0.1	1971.1
22885	15.347	1.5455	0.1	1947.5
22886	15.071	1.4545	0.1	2016.1
22887	15.163	1.5455	0.1	1992.4
22888	14.887	1.4545	0.1	2061.2
22889	14.979	1.5455	0.1	2037.4
22890	14.703	1.4545	0.1	2106.5
22891	14.795	1.5455	0.1	2082.5
22892	14.518	1.4545	0.1	2151.9
22893	14.61	1.5455	0.1	2127.7
22894	14.334	1.4545	0.1	2197.5
22895	14.426	1.5455	0.1	2173.1
22896	14.15	1.4545	0.1	2243.1
22897	14.242	1.5455	0.1	2218.6
22898	13.966	1.4545	0.1	2288.9
22899	14.058	1.5455	0.1	2264.2
22900	13.782	1.4545	0.1	2334.8
22901	13.874	1.5455	0.1	2309.9
22902	13.598	1.4545	0.1	2380.8
22903	13.69	1.5455	0.1	2355.8
22904	13.414	1.4545	0.1	2427.
22905	13.506	1.5455	0.1	2401.8
22906	13.23	1.4545	0.1	2473.3
22907	13.322	1.5455	0.1	2447.9
22908	13.046	1.4545	0.1	2519.7
22909	13.138	1.5455	0.1	2494.2
22910	12.861	1.4545	0.1	2566.3
22911	12.953	1.5455	0.1	2540.6
22912	12.677	1.4545	0.1	2613.1
22913	12.769	1.5455	0.1	2587.2
22914	12.493	1.4545	0.1	2660.
22915	12.585	1.5455	0.1	2634.1
22916	12.309	1.4545	0.1	2707.1
22917	12.401	1.5455	0.1	2681.2
22918	12.125	1.4545	0.1	2754.5
22919	12.217	1.5455	0.1	2728.5
22920	11.941	1.4545	0.1	2802.1
22921	12.033	1.5455	0.1	2776.3
22922	11.757	1.4545	0.1	2849.9
22923	11.849	1.5455	0.1	2824.4
22924	11.573	1.4545	0.1	2897.9
22925	11.665	1.5455	0.1	2872.9
22926	11.389	1.4545	0.1	2946.2
22927	11.481	1.5455	0.1	2922.
22928	11.204	1.4545	0.1	2994.8
22929	11.297	1.5455	0.1	2971.8
22930	11.02	1.4545	0.1	3043.5
22931	11.112	1.5455	0.1	3022.2
22932	10.836	1.4545	0.1	3092.5
22933	10.928	1.5455	0.1	3073.6
22934	10.652	1.4545	0.1	3141.6
22935	10.744	1.5455	0.1	3125.9
22936	10.468	1.4545	0.1	3190.8
22937	10.56	1.5455	0.1	3179.6
22938	10.284	1.4545	0.1	3240.4
22939	10.376	1.5455	0.1	3234.9
22940	10.1	1.4545	0.1	3290.5
22941	10.192	1.5455	0.1	3292.6
22942	9.9157	1.4545	0.1	3341.8
22943	10.008	1.5455	0.1	3353.5
22944	9.7316	1.4545	0.1	3396.
22945	9.8236	1.5455	0.1	3419.6
22946	9.5475	1.4545	0.1	3455.8
22947	9.6395	1.5455	0.1	3493.9
22948	9.3634	1.4545	0.1	3526.4
22949	9.4554	1.5455	0.1	3581.6
22950	9.1793	1.4545	0.1	3617.1
22951	9.2713	1.5455	0.1	3691.9
22952	8.9952	1.4545	0.1	3742.5
22953	9.0872	1.5455	0.1	3839.9
22954	8.811	1.4545	0.1	3925.6
22955	8.9031	1.5455	0.1	4052.1
22956	8.6269	1.4545	0.1	4190.
22957	8.719	1.5455	0.1	4366.6
22958	8.4428	1.4545	0.1	4660.5
22959	8.5349	1.5455	0.1	4854.6
22960	8.3508	1.5455	0.1	5825.3
22961	8.2587	1.4545	0.1	4102.1
22962	23.724	1.6364	0.1	181.44
22963	23.816	1.7273	0.1	176.57
22964	23.908	1.6364	0.1	166.71
22965	23.54	1.6364	0.1	201.7
22966	23.632	1.7273	0.1	194.22
22967	23.356	1.6364	0.1	225.89
22968	23.448	1.7273	0.1	216.44
22969	23.172	1.6364	0.1	252.96
22970	23.264	1.7273	0.1	242.
22971	22.987	1.6364	0.1	282.17
22972	23.079	1.7273	0.1	270.02
22973	22.803	1.6364	0.1	313.05
22974	22.895	1.7273	0.1	299.93
22975	22.619	1.6364	0.1	345.23
22976	22.711	1.7273	0.1	331.3
22977	22.435	1.6364	0.1	378.48
22978	22.527	1.7273	0.1	363.85
22979	22.251	1.6364	0.1	412.62
22980	22.343	1.7273	0.1	397.37
22981	22.067	1.6364	0.1	447.51
22982	22.159	1.7273	0.1	431.71
22983	21.883	1.6364	0.1	483.04
22984	21.975	1.7273	0.1	466.76
22985	21.699	1.6364	0.1	519.15
22986	21.791	1.7273	0.1	502.42
22987	21.515	1.6364	0.1	555.76
22988	21.607	1.7273	0.1	538.63
22989	21.33	1.6364	0.1	592.83
22990	21.422	1.7273	0.1	575.32
22991	21.146	1.6364	0.1	630.33
22992	21.238	1.7273	0.1	612.47
22993	20.962	1.6364	0.1	668.21
22994	21.054	1.7273	0.1	650.03
22995	20.778	1.6364	0.1	706.45
22996	20.87	1.7273	0.1	687.98
22997	20.594	1.6364	0.1	745.03
22998	20.686	1.7273	0.1	726.28
22999	20.41	1.6364	0.1	783.94
23000	20.502	1.7273	0.1	764.92
23001	20.226	1.6364	0.1	823.16
23002	20.318	1.7273	0.1	803.89
23003	20.042	1.6364	0.1	862.67
23004	20.134	1.7273	0.1	843.17
23005	19.858	1.6364	0.1	902.46
23006	19.95	1.7273	0.1	882.74
23007	19.673	1.6364	0.1	942.52
23008	19.766	1.7273	0.1	922.6
23009	19.489	1.6364	0.1	982.86
23010	19.581	1.7273	0.1	962.73
23011	19.305	1.6364	0.1	1023.4
23012	19.397	1.7273	0.1	1003.1
23013	19.121	1.6364	0.1	1064.3
23014	19.213	1.7273	0.1	1043.8
23015	18.937	1.6364	0.1	1105.4
23016	19.029	1.7273	0.1	1084.7
23017	18.753	1.6364	0.1	1146.7
23018	18.845	1.7273	0.1	1125.8
23019	18.569	1.6364	0.1	1188.2
23020	18.661	1.7273	0.1	1167.2
23021	18.385	1.6364	0.1	1230.
23022	18.477	1.7273	0.1	1208.8
23023	18.201	1.6364	0.1	1271.9
23024	18.293	1.7273	0.1	1250.6
23025	18.016	1.6364	0.1	1314.1
23026	18.109	1.7273	0.1	1292.7
23027	17.832	1.6364	0.1	1356.5
23028	17.924	1.7273	0.1	1334.9
23029	17.648	1.6364	0.1	1399.1
23030	17.74	1.7273	0.1	1377.4
23031	17.464	1.6364	0.1	1441.9
23032	17.556	1.7273	0.1	1420.
23033	17.28	1.6364	0.1	1484.9
23034	17.372	1.7273	0.1	1462.9
23035	17.096	1.6364	0.1	1528.1
23036	17.188	1.7273	0.1	1505.9
23037	16.912	1.6364	0.1	1571.4
23038	17.004	1.7273	0.1	1549.2
23039	16.728	1.6364	0.1	1614.9
23040	16.82	1.7273	0.1	1592.5
23041	16.544	1.6364	0.1	1658.6
23042	16.636	1.7273	0.1	1636.1
23043	16.359	1.6364	0.1	1702.5
23044	16.452	1.7273	0.1	1679.8
23045	16.175	1.6364	0.1	1746.5
23046	16.267	1.7273	0.1	1723.7
23047	15.991	1.6364	0.1	1790.7
23048	16.083	1.7273	0.1	1767.8
23049	15.807	1.6364	0.1	1835.
23050	15.899	1.7273	0.1	1812.
23051	15.623	1.6364	0.1	1879.5
23052	15.715	1.7273	0.1	1856.3
23053	15.439	1.6364	0.1	1924.1
23054	15.531	1.7273	0.1	1900.8
23055	15.255	1.6364	0.1	1968.8
23056	15.347	1.7273	0.1	1945.4
23057	15.071	1.6364	0.1	2013.6
23058	15.163	1.7273	0.1	1990.1
23059	14.887	1.6364	0.1	2058.6
23060	14.979	1.7273	0.1	2035.
23061	14.703	1.6364	0.1	2103.7
23062	14.795	1.7273	0.1	2079.9
23063	14.518	1.6364	0.1	2148.9
23064	14.61	1.7273	0.1	2125.
23065	14.334	1.6364	0.1	2194.3
23066	14.426	1.7273	0.1	2170.2
23067	14.15	1.6364	0.1	2239.7
23068	14.242	1.7273	0.1	2215.5
23069	13.966	1.6364	0.1	2285.3
23070	14.058	1.7273	0.1	2260.9
23071	13.782	1.6364	0.1	2331.
23072	13.874	1.7273	0.1	2306.4
23073	13.598	1.6364	0.1	2376.8
23074	13.69	1.7273	0.1	2352.
23075	13.414	1.6364	0.1	2422.7
23076	13.506	1.7273	0.1	2397.8
23077	13.23	1.6364	0.1	2468.8
23078	13.322	1.7273	0.1	2443.7
23079	13.046	1.6364	0.1	2515.1
23080	13.138	1.7273	0.1	2489.8
23081	12.861	1.6364	0.1	2561.6
23082	12.953	1.7273	0.1	2536.1
23083	12.677	1.6364	0.1	2608.3
23084	12.769	1.7273	0.1	2582.6
23085	12.493	1.6364	0.1	2655.3
23086	12.585	1.7273	0.1	2629.4
23087	12.309	1.6364	0.1	2702.6
23088	12.401	1.7273	0.1	2676.6
23089	12.125	1.6364	0.1	2750.3
23090	12.217	1.7273	0.1	2724.2
23091	11.941	1.6364	0.1	2798.6
23092	12.033	1.7273	0.1	2772.4
23093	11.757	1.6364	0.1	2847.4
23094	11.849	1.7273	0.1	2821.3
23095	11.573	1.6364	0.1	2897.
23096	11.665	1.7273	0.1	2871.1
23097	11.389	1.6364	0.1	2947.6
23098	11.481	1.7273	0.1	2922.
23099	11.204	1.6364	0.1	2999.2
23100	11.297	1.7273	0.1	2974.2
23101	11.02	1.6364	0.1	3052.3
23102	11.112	1.7273	0.1	3028.2
23103	10.836	1.6364	0.1	3107.
23104	10.928	1.7273	0.1	3084.5
23105	10.652	1.6364	0.1	3164.
23106	10.744	1.7273	0.1	3143.4
23107	10.468	1.6364	0.1	3223.6
23108	10.56	1.7273	0.1	3206.
23109	10.284	1.6364	0.1	3287.
23110	10.376	1.7273	0.1	3273.1
23111	10.1	1.6364	0.1	3355.2
23112	10.192	1.7273	0.1	3346.4
23113	9.9157	1.6364	0.1	3430.4
23114	10.008	1.7273	0.1	3427.8
23115	9.7316	1.6364	0.1	3515.8
23116	9.8236	1.7273	0.1	3520.8
23117	9.5475	1.6364	0.1	3616.7
23118	9.6395	1.7273	0.1	3630.3
23119	9.3634	1.6364	0.1	3741.8
23120	9.4554	1.7273	0.1	3764.2
23121	9.1793	1.6364	0.1	3905.7
23122	9.2713	1.7273	0.1	3935.8
23123	8.9952	1.6364	0.1	4133.8
23124	9.0872	1.7273	0.1	4166.4
23125	8.811	1.6364	0.1	4464.6
23126	8.9031	1.7273	0.1	4495.7
23127	8.6269	1.6364	0.1	4976.2
23128	8.719	1.7273	0.1	4987.
23129	8.4428	1.6364	0.1	5859.5
23130	8.5349	1.7273	0.1	5843.4
23131	8.3508	1.7273	0.1	7698.6
23132	8.2587	1.6364	0.1	5282.5
23133	23.724	1.8182	0.1	188.14
23134	23.816	1.9091	0.1	182.81
23135	23.908	1.8182	0.1	173.67
23136	23.54	1.8182	0.1	208.14
23137	23.632	1.9091	0.1	200.29
23138	23.356	1.8182	0.1	231.99
23139	23.448	1.9091	0.1	222.24
23140	23.172	1.8182	0.1	258.7
23141	23.264	1.9091	0.1	247.48
23142	22.987	1.8182	0.1	287.54
23143	23.079	1.9091	0.1	275.17
23144	22.803	1.8182	0.1	318.03
23145	22.895	1.9091	0.1	304.73
23146	22.619	1.8182	0.1	349.82
23147	22.711	1.9091	0.1	335.76
23148	22.435	1.8182	0.1	382.69
23149	22.527	1.9091	0.1	367.96
23150	22.251	1.8182	0.1	416.45
23151	22.343	1.9091	0.1	401.13
23152	22.067	1.8182	0.1	450.97
23153	22.159	1.9091	0.1	435.14
23154	21.883	1.8182	0.1	486.15
23155	21.975	1.9091	0.1	469.85
23156	21.699	1.8182	0.1	521.93
23157	21.791	1.9091	0.1	505.2
23158	21.515	1.8182	0.1	558.23
23159	21.607	1.9091	0.1	541.11
23160	21.33	1.8182	0.1	595.01
23161	21.422	1.9091	0.1	577.53
23162	21.146	1.8182	0.1	632.23
23163	21.238	1.9091	0.1	614.41
23164	20.962	1.8182	0.1	669.85
23165	21.054	1.9091	0.1	651.72
23166	20.778	1.8182	0.1	707.86
23167	20.87	1.9091	0.1	689.44
23168	20.594	1.8182	0.1	746.23
23169	20.686	1.9091	0.1	727.53
23170	20.41	1.8182	0.1	784.93
23171	20.502	1.9091	0.1	765.98
23172	20.226	1.8182	0.1	823.96
23173	20.318	1.9091	0.1	804.76
23174	20.042	1.8182	0.1	863.3
23175	20.134	1.9091	0.1	843.87
23176	19.858	1.8182	0.1	902.94
23177	19.95	1.9091	0.1	883.29
23178	19.673	1.8182	0.1	942.86
23179	19.766	1.9091	0.1	923.
23180	19.489	1.8182	0.1	983.05
23181	19.581	1.9091	0.1	963.
23182	19.305	1.8182	0.1	1023.5
23183	19.397	1.9091	0.1	1003.3
23184	19.121	1.8182	0.1	1064.2
23185	19.213	1.9091	0.1	1043.8
23186	18.937	1.8182	0.1	1105.2
23187	19.029	1.9091	0.1	1084.6
23188	18.753	1.8182	0.1	1146.4
23189	18.845	1.9091	0.1	1125.6
23190	18.569	1.8182	0.1	1187.9
23191	18.661	1.9091	0.1	1166.9
23192	18.385	1.8182	0.1	1229.5
23193	18.477	1.9091	0.1	1208.4
23194	18.201	1.8182	0.1	1271.4
23195	18.293	1.9091	0.1	1250.2
23196	18.016	1.8182	0.1	1313.5
23197	18.109	1.9091	0.1	1292.2
23198	17.832	1.8182	0.1	1355.8
23199	17.924	1.9091	0.1	1334.3
23200	17.648	1.8182	0.1	1398.3
23201	17.74	1.9091	0.1	1376.7
23202	17.464	1.8182	0.1	1441.1
23203	17.556	1.9091	0.1	1419.3
23204	17.28	1.8182	0.1	1484.
23205	17.372	1.9091	0.1	1462.1
23206	17.096	1.8182	0.1	1527.1
23207	17.188	1.9091	0.1	1505.
23208	16.912	1.8182	0.1	1570.3
23209	17.004	1.9091	0.1	1548.2
23210	16.728	1.8182	0.1	1613.8
23211	16.82	1.9091	0.1	1591.5
23212	16.544	1.8182	0.1	1657.4
23213	16.636	1.9091	0.1	1635.
23214	16.359	1.8182	0.1	1701.1
23215	16.452	1.9091	0.1	1678.6
23216	16.175	1.8182	0.1	1745.
23217	16.267	1.9091	0.1	1722.4
23218	15.991	1.8182	0.1	1789.1
23219	16.083	1.9091	0.1	1766.4
23220	15.807	1.8182	0.1	1833.3
23221	15.899	1.9091	0.1	1810.5
23222	15.623	1.8182	0.1	1877.7
23223	15.715	1.9091	0.1	1854.7
23224	15.439	1.8182	0.1	1922.1
23225	15.531	1.9091	0.1	1899.
23226	15.255	1.8182	0.1	1966.7
23227	15.347	1.9091	0.1	1943.5
23228	15.071	1.8182	0.1	2011.4
23229	15.163	1.9091	0.1	1988.1
23230	14.887	1.8182	0.1	2056.3
23231	14.979	1.9091	0.1	2032.8
23232	14.703	1.8182	0.1	2101.2
23233	14.795	1.9091	0.1	2077.6
23234	14.518	1.8182	0.1	2146.3
23235	14.61	1.9091	0.1	2122.5
23236	14.334	1.8182	0.1	2191.4
23237	14.426	1.9091	0.1	2167.6
23238	14.15	1.8182	0.1	2236.7
23239	14.242	1.9091	0.1	2212.7
23240	13.966	1.8182	0.1	2282.
23241	14.058	1.9091	0.1	2257.9
23242	13.782	1.8182	0.1	2327.5
23243	13.874	1.9091	0.1	2303.2
23244	13.598	1.8182	0.1	2373.1
23245	13.69	1.9091	0.1	2348.6
23246	13.414	1.8182	0.1	2418.8
23247	13.506	1.9091	0.1	2394.2
23248	13.23	1.8182	0.1	2464.7
23249	13.322	1.9091	0.1	2439.9
23250	13.046	1.8182	0.1	2510.8
23251	13.138	1.9091	0.1	2485.8
23252	12.861	1.8182	0.1	2557.1
23253	12.953	1.9091	0.1	2531.9
23254	12.677	1.8182	0.1	2603.8
23255	12.769	1.9091	0.1	2578.3
23256	12.493	1.8182	0.1	2650.8
23257	12.585	1.9091	0.1	2625.1
23258	12.309	1.8182	0.1	2698.2
23259	12.401	1.9091	0.1	2672.3
23260	12.125	1.8182	0.1	2746.3
23261	12.217	1.9091	0.1	2720.1
23262	11.941	1.8182	0.1	2795.2
23263	12.033	1.9091	0.1	2768.7
23264	11.757	1.8182	0.1	2845.
23265	11.849	1.9091	0.1	2818.3
23266	11.573	1.8182	0.1	2896.
23267	11.665	1.9091	0.1	2869.2
23268	11.389	1.8182	0.1	2948.7
23269	11.481	1.9091	0.1	2921.8
23270	11.204	1.8182	0.1	3003.3
23271	11.297	1.9091	0.1	2976.4
23272	11.02	1.8182	0.1	3060.5
23273	11.112	1.9091	0.1	3033.8
23274	10.836	1.8182	0.1	3120.9
23275	10.928	1.9091	0.1	3094.7
23276	10.652	1.8182	0.1	3185.5
23277	10.744	1.9091	0.1	3160.
23278	10.468	1.8182	0.1	3255.4
23279	10.56	1.9091	0.1	3231.1
23280	10.284	1.8182	0.1	3332.4
23281	10.376	1.9091	0.1	3309.8
23282	10.1	1.8182	0.1	3418.6
23283	10.192	1.9091	0.1	3398.3
23284	9.9157	1.8182	0.1	3517.5
23285	10.008	1.9091	0.1	3499.9
23286	9.7316	1.8182	0.1	3633.9
23287	9.8236	1.9091	0.1	3619.3
23288	9.5475	1.8182	0.1	3775.3
23289	9.6395	1.9091	0.1	3763.3
23290	9.3634	1.8182	0.1	3954.
23291	9.4554	1.9091	0.1	3942.5
23292	9.1793	1.8182	0.1	4189.7
23293	9.2713	1.9091	0.1	4173.7
23294	8.9952	1.8182	0.1	4517.2
23295	9.0872	1.9091	0.1	4484.3
23296	8.811	1.8182	0.1	5000.3
23297	8.9031	1.9091	0.1	4926.3
23298	8.6269	1.8182	0.1	5815.9
23299	8.719	1.9091	0.1	5592.5
23300	8.4428	1.8182	0.1	7539.3
23301	8.5349	1.9091	0.1	6762.4
23302	8.3508	1.9091	0.1	9723.7
23303	8.2587	1.8182	0.1	7618.5
23304	23.724	2.	0.1	193.77
23305	23.816	2.0909	0.1	187.99
23306	23.908	2.	0.1	179.51
23307	23.54	2.	0.1	213.56
23308	23.632	2.0909	0.1	205.34
23309	23.356	2.	0.1	237.15
23310	23.448	2.0909	0.1	227.07
23311	23.172	2.	0.1	263.57
23312	23.264	2.0909	0.1	252.07
23313	22.987	2.	0.1	292.11
23314	23.079	2.0909	0.1	279.5
23315	22.803	2.	0.1	322.29
23316	22.895	2.0909	0.1	308.79
23317	22.619	2.	0.1	353.78
23318	22.711	2.0909	0.1	339.54
23319	22.435	2.	0.1	386.34
23320	22.527	2.0909	0.1	371.47
23321	22.251	2.	0.1	419.79
23322	22.343	2.0909	0.1	404.37
23323	22.067	2.	0.1	454.02
23324	22.159	2.0909	0.1	438.1
23325	21.883	2.	0.1	488.91
23326	21.975	2.0909	0.1	472.54
23327	21.699	2.	0.1	524.4
23328	21.791	2.0909	0.1	507.63
23329	21.515	2.	0.1	560.44
23330	21.607	2.0909	0.1	543.29
23331	21.33	2.	0.1	596.96
23332	21.422	2.0909	0.1	579.47
23333	21.146	2.	0.1	633.95
23334	21.238	2.0909	0.1	616.13
23335	20.962	2.	0.1	671.35
23336	21.054	2.0909	0.1	653.23
23337	20.778	2.	0.1	709.15
23338	20.87	2.0909	0.1	690.75
23339	20.594	2.	0.1	747.33
23340	20.686	2.0909	0.1	728.65
23341	20.41	2.	0.1	785.86
23342	20.502	2.0909	0.1	766.93
23343	20.226	2.	0.1	824.72
23344	20.318	2.0909	0.1	805.56
23345	20.042	2.	0.1	863.91
23346	20.134	2.0909	0.1	844.52
23347	19.858	2.	0.1	903.41
23348	19.95	2.0909	0.1	883.8
23349	19.673	2.	0.1	943.2
23350	19.766	2.0909	0.1	923.39
23351	19.489	2.	0.1	983.27
23352	19.581	2.0909	0.1	963.27
23353	19.305	2.	0.1	1023.6
23354	19.397	2.0909	0.1	1003.4
23355	19.121	2.	0.1	1064.2
23356	19.213	2.0909	0.1	1043.9
23357	18.937	2.	0.1	1105.1
23358	19.029	2.0909	0.1	1084.6
23359	18.753	2.	0.1	1146.2
23360	18.845	2.0909	0.1	1125.5
23361	18.569	2.	0.1	1187.6
23362	18.661	2.0909	0.1	1166.7
23363	18.385	2.	0.1	1229.2
23364	18.477	2.0909	0.1	1208.2
23365	18.201	2.	0.1	1271.
23366	18.293	2.0909	0.1	1249.8
23367	18.016	2.	0.1	1313.
23368	18.109	2.0909	0.1	1291.7
23369	17.832	2.	0.1	1355.2
23370	17.924	2.0909	0.1	1333.8
23371	17.648	2.	0.1	1397.7
23372	17.74	2.0909	0.1	1376.1
23373	17.464	2.	0.1	1440.3
23374	17.556	2.0909	0.1	1418.7
23375	17.28	2.	0.1	1483.2
23376	17.372	2.0909	0.1	1461.4
23377	17.096	2.	0.1	1526.2
23378	17.188	2.0909	0.1	1504.3
23379	16.912	2.	0.1	1569.4
23380	17.004	2.0909	0.1	1547.3
23381	16.728	2.	0.1	1612.7
23382	16.82	2.0909	0.1	1590.6
23383	16.544	2.	0.1	1656.3
23384	16.636	2.0909	0.1	1634.
23385	16.359	2.	0.1	1699.9
23386	16.452	2.0909	0.1	1677.6
23387	16.175	2.	0.1	1743.8
23388	16.267	2.0909	0.1	1721.3
23389	15.991	2.	0.1	1787.7
23390	16.083	2.0909	0.1	1765.2
23391	15.807	2.	0.1	1831.9
23392	15.899	2.0909	0.1	1809.2
23393	15.623	2.	0.1	1876.1
23394	15.715	2.0909	0.1	1853.3
23395	15.439	2.	0.1	1920.5
23396	15.531	2.0909	0.1	1897.5
23397	15.255	2.	0.1	1964.9
23398	15.347	2.0909	0.1	1941.9
23399	15.071	2.	0.1	2009.5
23400	15.163	2.0909	0.1	1986.4
23401	14.887	2.	0.1	2054.2
23402	14.979	2.0909	0.1	2031.
23403	14.703	2.	0.1	2099.
23404	14.795	2.0909	0.1	2075.6
23405	14.518	2.	0.1	2143.9
23406	14.61	2.0909	0.1	2120.4
23407	14.334	2.	0.1	2188.9
23408	14.426	2.0909	0.1	2165.3
23409	14.15	2.	0.1	2233.9
23410	14.242	2.0909	0.1	2210.2
23411	13.966	2.	0.1	2279.1
23412	14.058	2.0909	0.1	2255.3
23413	13.782	2.	0.1	2324.4
23414	13.874	2.0909	0.1	2300.4
23415	13.598	2.	0.1	2369.8
23416	13.69	2.0909	0.1	2345.6
23417	13.414	2.	0.1	2415.3
23418	13.506	2.0909	0.1	2391.
23419	13.23	2.	0.1	2461.
23420	13.322	2.0909	0.1	2436.5
23421	13.046	2.	0.1	2506.9
23422	13.138	2.0909	0.1	2482.2
23423	12.861	2.	0.1	2553.1
23424	12.953	2.0909	0.1	2528.2
23425	12.677	2.	0.1	2599.6
23426	12.769	2.0909	0.1	2574.5
23427	12.493	2.	0.1	2646.6
23428	12.585	2.0909	0.1	2621.2
23429	12.309	2.	0.1	2694.2
23430	12.401	2.0909	0.1	2668.4
23431	12.125	2.	0.1	2742.6
23432	12.217	2.0909	0.1	2716.4
23433	11.941	2.	0.1	2791.9
23434	12.033	2.0909	0.1	2765.4
23435	11.757	2.	0.1	2842.6
23436	11.849	2.0909	0.1	2815.6
23437	11.573	2.	0.1	2895.
23438	11.665	2.0909	0.1	2867.5
23439	11.389	2.	0.1	2949.6
23440	11.481	2.0909	0.1	2921.5
23441	11.204	2.	0.1	3007.
23442	11.297	2.0909	0.1	2978.3
23443	11.02	2.	0.1	3068.
23444	11.112	2.0909	0.1	3038.8
23445	10.836	2.	0.1	3133.8
23446	10.928	2.0909	0.1	3104.
23447	10.652	2.	0.1	3205.7
23448	10.744	2.0909	0.1	3175.3
23449	10.468	2.	0.1	3285.5
23450	10.56	2.0909	0.1	3254.5
23451	10.284	2.	0.1	3375.6
23452	10.376	2.0909	0.1	3344.
23453	10.1	2.	0.1	3479.3
23454	10.192	2.0909	0.1	3447.
23455	9.9157	2.	0.1	3601.1
23456	10.008	2.0909	0.1	3567.9
23457	9.7316	2.	0.1	3747.6
23458	9.8236	2.0909	0.1	3712.6
23459	9.5475	2.	0.1	3928.5
23460	9.6395	2.0909	0.1	3889.9
23461	9.3634	2.	0.1	4159.1
23462	9.4554	2.0909	0.1	4112.5
23463	9.1793	2.	0.1	4463.6
23464	9.2713	2.0909	0.1	4400.7
23465	8.9952	2.	0.1	4886.5
23466	9.0872	2.0909	0.1	4786.6
23467	8.811	2.	0.1	5509.7
23468	8.9031	2.0909	0.1	5331.9
23469	8.6269	2.	0.1	6537.8
23470	8.719	2.0909	0.1	6142.9
23471	8.4428	2.	0.1	8962.2
23472	8.5349	2.0909	0.1	7539.3
23473	8.3508	2.0909	0.1	10613
23474	8.2587	2.	0.1	15774
23475	23.724	2.1818	0.1	198.38
23476	23.816	2.2727	0.1	192.16
23477	23.908	2.1818	0.1	184.29
23478	23.54	2.1818	0.1	218.01
23479	23.632	2.2727	0.1	209.41
23480	23.356	2.1818	0.1	241.4
23481	23.448	2.2727	0.1	230.97
23482	23.172	2.1818	0.1	267.59
23483	23.264	2.2727	0.1	255.78
23484	22.987	2.1818	0.1	295.9
23485	23.079	2.2727	0.1	283.01
23486	22.803	2.1818	0.1	325.85
23487	22.895	2.2727	0.1	312.1
23488	22.619	2.1818	0.1	357.1
23489	22.711	2.2727	0.1	342.64
23490	22.435	2.1818	0.1	389.41
23491	22.527	2.2727	0.1	374.35
23492	22.251	2.1818	0.1	422.62
23493	22.343	2.2727	0.1	407.04
23494	22.067	2.1818	0.1	456.61
23495	22.159	2.2727	0.1	440.55
23496	21.883	2.1818	0.1	491.26
23497	21.975	2.2727	0.1	474.79
23498	21.699	2.1818	0.1	526.53
23499	21.791	2.2727	0.1	509.67
23500	21.515	2.1818	0.1	562.34
23501	21.607	2.2727	0.1	545.12
23502	21.33	2.1818	0.1	598.66
23503	21.422	2.2727	0.1	581.11
23504	21.146	2.1818	0.1	635.45
23505	21.238	2.2727	0.1	617.58
23506	20.962	2.1818	0.1	672.66
23507	21.054	2.2727	0.1	654.51
23508	20.778	2.1818	0.1	710.29
23509	20.87	2.2727	0.1	691.87
23510	20.594	2.1818	0.1	748.3
23511	20.686	2.2727	0.1	729.62
23512	20.41	2.1818	0.1	786.68
23513	20.502	2.2727	0.1	767.76
23514	20.226	2.1818	0.1	825.41
23515	20.318	2.2727	0.1	806.25
23516	20.042	2.1818	0.1	864.46
23517	20.134	2.2727	0.1	845.09
23518	19.858	2.1818	0.1	903.84
23519	19.95	2.2727	0.1	884.26
23520	19.673	2.1818	0.1	943.52
23521	19.766	2.2727	0.1	923.74
23522	19.489	2.1818	0.1	983.49
23523	19.581	2.2727	0.1	963.53
23524	19.305	2.1818	0.1	1023.7
23525	19.397	2.2727	0.1	1003.6
23526	19.121	2.1818	0.1	1064.3
23527	19.213	2.2727	0.1	1044.
23528	18.937	2.1818	0.1	1105.1
23529	19.029	2.2727	0.1	1084.6
23530	18.753	2.1818	0.1	1146.1
23531	18.845	2.2727	0.1	1125.5
23532	18.569	2.1818	0.1	1187.4
23533	18.661	2.2727	0.1	1166.6
23534	18.385	2.1818	0.1	1228.9
23535	18.477	2.2727	0.1	1208.
23536	18.201	2.1818	0.1	1270.6
23537	18.293	2.2727	0.1	1249.6
23538	18.016	2.1818	0.1	1312.6
23539	18.109	2.2727	0.1	1291.4
23540	17.832	2.1818	0.1	1354.8
23541	17.924	2.2727	0.1	1333.4
23542	17.648	2.1818	0.1	1397.2
23543	17.74	2.2727	0.1	1375.7
23544	17.464	2.1818	0.1	1439.7
23545	17.556	2.2727	0.1	1418.1
23546	17.28	2.1818	0.1	1482.5
23547	17.372	2.2727	0.1	1460.8
23548	17.096	2.1818	0.1	1525.5
23549	17.188	2.2727	0.1	1503.6
23550	16.912	2.1818	0.1	1568.6
23551	17.004	2.2727	0.1	1546.7
23552	16.728	2.1818	0.1	1611.9
23553	16.82	2.2727	0.1	1589.8
23554	16.544	2.1818	0.1	1655.3
23555	16.636	2.2727	0.1	1633.2
23556	16.359	2.1818	0.1	1698.9
23557	16.452	2.2727	0.1	1676.7
23558	16.175	2.1818	0.1	1742.7
23559	16.267	2.2727	0.1	1720.4
23560	15.991	2.1818	0.1	1786.6
23561	16.083	2.2727	0.1	1764.2
23562	15.807	2.1818	0.1	1830.6
23563	15.899	2.2727	0.1	1808.1
23564	15.623	2.1818	0.1	1874.8
23565	15.715	2.2727	0.1	1852.1
23566	15.439	2.1818	0.1	1919.
23567	15.531	2.2727	0.1	1896.3
23568	15.255	2.1818	0.1	1963.4
23569	15.347	2.2727	0.1	1940.6
23570	15.071	2.1818	0.1	2007.9
23571	15.163	2.2727	0.1	1985.
23572	14.887	2.1818	0.1	2052.4
23573	14.979	2.2727	0.1	2029.4
23574	14.703	2.1818	0.1	2097.1
23575	14.795	2.2727	0.1	2074.
23576	14.518	2.1818	0.1	2141.8
23577	14.61	2.2727	0.1	2118.6
23578	14.334	2.1818	0.1	2186.7
23579	14.426	2.2727	0.1	2163.4
23580	14.15	2.1818	0.1	2231.6
23581	14.242	2.2727	0.1	2208.2
23582	13.966	2.1818	0.1	2276.6
23583	14.058	2.2727	0.1	2253.
23584	13.782	2.1818	0.1	2321.7
23585	13.874	2.2727	0.1	2298.
23586	13.598	2.1818	0.1	2366.9
23587	13.69	2.2727	0.1	2343.1
23588	13.414	2.1818	0.1	2412.2
23589	13.506	2.2727	0.1	2388.3
23590	13.23	2.1818	0.1	2457.8
23591	13.322	2.2727	0.1	2433.6
23592	13.046	2.1818	0.1	2503.5
23593	13.138	2.2727	0.1	2479.2
23594	12.861	2.1818	0.1	2549.5
23595	12.953	2.2727	0.1	2525.
23596	12.677	2.1818	0.1	2596.
23597	12.769	2.2727	0.1	2571.1
23598	12.493	2.1818	0.1	2643.
23599	12.585	2.2727	0.1	2617.8
23600	12.309	2.1818	0.1	2690.6
23601	12.401	2.2727	0.1	2665.1
23602	12.125	2.1818	0.1	2739.2
23603	12.217	2.2727	0.1	2713.2
23604	11.941	2.1818	0.1	2789.
23605	12.033	2.2727	0.1	2762.4
23606	11.757	2.1818	0.1	2840.5
23607	11.849	2.2727	0.1	2813.2
23608	11.573	2.1818	0.1	2894.
23609	11.665	2.2727	0.1	2865.9
23610	11.389	2.1818	0.1	2950.3
23611	11.481	2.2727	0.1	2921.2
23612	11.204	2.1818	0.1	3010.2
23613	11.297	2.2727	0.1	2980.
23614	11.02	2.1818	0.1	3074.8
23615	11.112	2.2727	0.1	3043.2
23616	10.836	2.1818	0.1	3145.5
23617	10.928	2.2727	0.1	3112.2
23618	10.652	2.1818	0.1	3224.1
23619	10.744	2.2727	0.1	3188.8
23620	10.468	2.1818	0.1	3313.
23621	10.56	2.2727	0.1	3275.3
23622	10.284	2.1818	0.1	3415.3
23623	10.376	2.2727	0.1	3374.7
23624	10.1	2.1818	0.1	3535.4
23625	10.192	2.2727	0.1	3490.9
23626	9.9157	2.1818	0.1	3678.9
23627	10.008	2.2727	0.1	3629.5
23628	9.7316	2.1818	0.1	3854.1
23629	9.8236	2.2727	0.1	3797.7
23630	9.5475	2.1818	0.1	4072.5
23631	9.6395	2.2727	0.1	4005.7
23632	9.3634	2.1818	0.1	4352.
23633	9.4554	2.2727	0.1	4268.6
23634	9.1793	2.1818	0.1	4720.8
23635	9.2713	2.2727	0.1	4608.6
23636	8.9952	2.1818	0.1	5228.9
23637	9.0872	2.2727	0.1	5061.
23638	8.811	2.1818	0.1	5963.8
23639	8.9031	2.2727	0.1	5687.2
23640	8.6269	2.1818	0.1	7156.
23641	8.719	2.2727	0.1	6592.7
23642	8.4428	2.1818	0.1	9317.1
23643	8.5349	2.2727	0.1	8023.1
23644	8.3508	2.2727	0.1	10393
23645	8.2587	2.1818	0.1	12591
23646	23.724	2.3636	0.1	202.02
23647	23.816	2.4545	0.1	195.37
23648	23.908	2.3636	0.1	188.06
23649	23.54	2.3636	0.1	221.53
23650	23.632	2.4545	0.1	212.54
23651	23.356	2.3636	0.1	244.76
23652	23.448	2.4545	0.1	233.98
23653	23.172	2.3636	0.1	270.78
23654	23.264	2.4545	0.1	258.64
23655	22.987	2.3636	0.1	298.92
23656	23.079	2.4545	0.1	285.73
23657	22.803	2.3636	0.1	328.69
23658	22.895	2.4545	0.1	314.66
23659	22.619	2.3636	0.1	359.76
23660	22.711	2.4545	0.1	345.05
23661	22.435	2.3636	0.1	391.89
23662	22.527	2.4545	0.1	376.6
23663	22.251	2.3636	0.1	424.91
23664	22.343	2.4545	0.1	409.13
23665	22.067	2.3636	0.1	458.71
23666	22.159	2.4545	0.1	442.48
23667	21.883	2.3636	0.1	493.18
23668	21.975	2.4545	0.1	476.56
23669	21.699	2.3636	0.1	528.27
23670	21.791	2.4545	0.1	511.28
23671	21.515	2.3636	0.1	563.91
23672	21.607	2.4545	0.1	546.58
23673	21.33	2.3636	0.1	600.06
23674	21.422	2.4545	0.1	582.42
23675	21.146	2.3636	0.1	636.68
23676	21.238	2.4545	0.1	618.75
23677	20.962	2.3636	0.1	673.75
23678	21.054	2.4545	0.1	655.54
23679	20.778	2.3636	0.1	711.24
23680	20.87	2.4545	0.1	692.77
23681	20.594	2.3636	0.1	749.12
23682	20.686	2.4545	0.1	730.41
23683	20.41	2.3636	0.1	787.38
23684	20.502	2.4545	0.1	768.43
23685	20.226	2.3636	0.1	825.99
23686	20.318	2.4545	0.1	806.82
23687	20.042	2.3636	0.1	864.94
23688	20.134	2.4545	0.1	845.56
23689	19.858	2.3636	0.1	904.21
23690	19.95	2.4545	0.1	884.64
23691	19.673	2.3636	0.1	943.8
23692	19.766	2.4545	0.1	924.04
23693	19.489	2.3636	0.1	983.69
23694	19.581	2.4545	0.1	963.74
23695	19.305	2.3636	0.1	1023.9
23696	19.397	2.4545	0.1	1003.7
23697	19.121	2.3636	0.1	1064.3
23698	19.213	2.4545	0.1	1044.
23699	18.937	2.3636	0.1	1105.
23700	19.029	2.4545	0.1	1084.6
23701	18.753	2.3636	0.1	1146.
23702	18.845	2.4545	0.1	1125.4
23703	18.569	2.3636	0.1	1187.2
23704	18.661	2.4545	0.1	1166.5
23705	18.385	2.3636	0.1	1228.7
23706	18.477	2.4545	0.1	1207.8
23707	18.201	2.3636	0.1	1270.4
23708	18.293	2.4545	0.1	1249.4
23709	18.016	2.3636	0.1	1312.3
23710	18.109	2.4545	0.1	1291.1
23711	17.832	2.3636	0.1	1354.4
23712	17.924	2.4545	0.1	1333.1
23713	17.648	2.3636	0.1	1396.7
23714	17.74	2.4545	0.1	1375.3
23715	17.464	2.3636	0.1	1439.3
23716	17.556	2.4545	0.1	1417.8
23717	17.28	2.3636	0.1	1482.
23718	17.372	2.4545	0.1	1460.4
23719	17.096	2.3636	0.1	1524.9
23720	17.188	2.4545	0.1	1503.2
23721	16.912	2.3636	0.1	1568.
23722	17.004	2.4545	0.1	1546.1
23723	16.728	2.3636	0.1	1611.2
23724	16.82	2.4545	0.1	1589.3
23725	16.544	2.3636	0.1	1654.6
23726	16.636	2.4545	0.1	1632.6
23727	16.359	2.3636	0.1	1698.1
23728	16.452	2.4545	0.1	1676.
23729	16.175	2.3636	0.1	1741.8
23730	16.267	2.4545	0.1	1719.6
23731	15.991	2.3636	0.1	1785.7
23732	16.083	2.4545	0.1	1763.4
23733	15.807	2.3636	0.1	1829.6
23734	15.899	2.4545	0.1	1807.2
23735	15.623	2.3636	0.1	1873.7
23736	15.715	2.4545	0.1	1851.2
23737	15.439	2.3636	0.1	1917.9
23738	15.531	2.4545	0.1	1895.3
23739	15.255	2.3636	0.1	1962.2
23740	15.347	2.4545	0.1	1939.5
23741	15.071	2.3636	0.1	2006.5
23742	15.163	2.4545	0.1	1983.8
23743	14.887	2.3636	0.1	2051.
23744	14.979	2.4545	0.1	2028.2
23745	14.703	2.3636	0.1	2095.6
23746	14.795	2.4545	0.1	2072.7
23747	14.518	2.3636	0.1	2140.2
23748	14.61	2.4545	0.1	2117.2
23749	14.334	2.3636	0.1	2184.9
23750	14.426	2.4545	0.1	2161.8
23751	14.15	2.3636	0.1	2229.7
23752	14.242	2.4545	0.1	2206.5
23753	13.966	2.3636	0.1	2274.5
23754	14.058	2.4545	0.1	2251.3
23755	13.782	2.3636	0.1	2319.4
23756	13.874	2.4545	0.1	2296.1
23757	13.598	2.3636	0.1	2364.5
23758	13.69	2.4545	0.1	2341.1
23759	13.414	2.3636	0.1	2409.7
23760	13.506	2.4545	0.1	2386.1
23761	13.23	2.3636	0.1	2455.1
23762	13.322	2.4545	0.1	2431.3
23763	13.046	2.3636	0.1	2500.7
23764	13.138	2.4545	0.1	2476.7
23765	12.861	2.3636	0.1	2546.6
23766	12.953	2.4545	0.1	2522.4
23767	12.677	2.3636	0.1	2592.9
23768	12.769	2.4545	0.1	2568.5
23769	12.493	2.3636	0.1	2639.9
23770	12.585	2.4545	0.1	2615.
23771	12.309	2.3636	0.1	2687.6
23772	12.401	2.4545	0.1	2662.3
23773	12.125	2.3636	0.1	2736.4
23774	12.217	2.4545	0.1	2710.5
23775	11.941	2.3636	0.1	2786.6
23776	12.033	2.4545	0.1	2760.
23777	11.757	2.3636	0.1	2838.6
23778	11.849	2.4545	0.1	2811.2
23779	11.573	2.3636	0.1	2893.1
23780	11.665	2.4545	0.1	2864.6
23781	11.389	2.3636	0.1	2950.9
23782	11.481	2.4545	0.1	2921.
23783	11.204	2.3636	0.1	3012.9
23784	11.297	2.4545	0.1	2981.3
23785	11.02	2.3636	0.1	3080.6
23786	11.112	2.4545	0.1	3046.8
23787	10.836	2.3636	0.1	3155.5
23788	10.928	2.4545	0.1	3119.
23789	10.652	2.3636	0.1	3240.
23790	10.744	2.4545	0.1	3200.1
23791	10.468	2.3636	0.1	3336.9
23792	10.56	2.4545	0.1	3292.7
23793	10.284	2.3636	0.1	3450.2
23794	10.376	2.4545	0.1	3400.5
23795	10.1	2.3636	0.1	3584.9
23796	10.192	2.4545	0.1	3528.2
23797	9.9157	2.3636	0.1	3748.
23798	10.008	2.4545	0.1	3682.
23799	9.7316	2.3636	0.1	3948.9
23800	9.8236	2.4545	0.1	3870.5
23801	9.5475	2.3636	0.1	4201.2
23802	9.6395	2.4545	0.1	4105.3
23803	9.3634	2.3636	0.1	4524.3
23804	9.4554	2.4545	0.1	4402.7
23805	9.1793	2.3636	0.1	4948.1
23806	9.2713	2.4545	0.1	4785.8
23807	8.9952	2.3636	0.1	5520.
23808	9.0872	2.4545	0.1	5289.1
23809	8.811	2.3636	0.1	6322.1
23810	8.9031	2.4545	0.1	5963.8
23811	8.6269	2.3636	0.1	7484.8
23812	8.719	2.4545	0.1	6888.1
23813	8.4428	2.3636	0.1	9166.
23814	8.5349	2.4545	0.1	8155.7
23815	8.3508	2.4545	0.1	9782.9
23816	8.2587	2.3636	0.1	10906
23817	23.724	2.5455	0.1	204.73
23818	23.816	2.6364	0.1	197.64
23819	23.908	2.5455	0.1	190.86
23820	23.54	2.5455	0.1	224.15
23821	23.632	2.6364	0.1	214.76
23822	23.356	2.5455	0.1	247.26
23823	23.448	2.6364	0.1	236.11
23824	23.172	2.5455	0.1	273.16
23825	23.264	2.6364	0.1	260.68
23826	22.987	2.5455	0.1	301.17
23827	23.079	2.6364	0.1	287.66
23828	22.803	2.5455	0.1	330.81
23829	22.895	2.6364	0.1	316.49
23830	22.619	2.5455	0.1	361.75
23831	22.711	2.6364	0.1	346.77
23832	22.435	2.5455	0.1	393.75
23833	22.527	2.6364	0.1	378.21
23834	22.251	2.5455	0.1	426.64
23835	22.343	2.6364	0.1	410.63
23836	22.067	2.5455	0.1	460.3
23837	22.159	2.6364	0.1	443.87
23838	21.883	2.5455	0.1	494.64
23839	21.975	2.6364	0.1	477.83
23840	21.699	2.5455	0.1	529.59
23841	21.791	2.6364	0.1	512.44
23842	21.515	2.5455	0.1	565.1
23843	21.607	2.6364	0.1	547.64
23844	21.33	2.5455	0.1	601.13
23845	21.422	2.6364	0.1	583.37
23846	21.146	2.5455	0.1	637.64
23847	21.238	2.6364	0.1	619.6
23848	20.962	2.5455	0.1	674.59
23849	21.054	2.6364	0.1	656.29
23850	20.778	2.5455	0.1	711.97
23851	20.87	2.6364	0.1	693.43
23852	20.594	2.5455	0.1	749.75
23853	20.686	2.6364	0.1	730.98
23854	20.41	2.5455	0.1	787.91
23855	20.502	2.6364	0.1	768.92
23856	20.226	2.5455	0.1	826.44
23857	20.318	2.6364	0.1	807.24
23858	20.042	2.5455	0.1	865.31
23859	20.134	2.6364	0.1	845.91
23860	19.858	2.5455	0.1	904.51
23861	19.95	2.6364	0.1	884.92
23862	19.673	2.5455	0.1	944.03
23863	19.766	2.6364	0.1	924.26
23864	19.489	2.5455	0.1	983.85
23865	19.581	2.6364	0.1	963.9
23866	19.305	2.5455	0.1	1024.
23867	19.397	2.6364	0.1	1003.9
23868	19.121	2.5455	0.1	1064.4
23869	19.213	2.6364	0.1	1044.1
23870	18.937	2.5455	0.1	1105.
23871	19.029	2.6364	0.1	1084.6
23872	18.753	2.5455	0.1	1145.9
23873	18.845	2.6364	0.1	1125.4
23874	18.569	2.5455	0.1	1187.1
23875	18.661	2.6364	0.1	1166.4
23876	18.385	2.5455	0.1	1228.5
23877	18.477	2.6364	0.1	1207.7
23878	18.201	2.5455	0.1	1270.2
23879	18.293	2.6364	0.1	1249.2
23880	18.016	2.5455	0.1	1312.
23881	18.109	2.6364	0.1	1291.
23882	17.832	2.5455	0.1	1354.1
23883	17.924	2.6364	0.1	1332.9
23884	17.648	2.5455	0.1	1396.4
23885	17.74	2.6364	0.1	1375.1
23886	17.464	2.5455	0.1	1438.9
23887	17.556	2.6364	0.1	1417.5
23888	17.28	2.5455	0.1	1481.6
23889	17.372	2.6364	0.1	1460.1
23890	17.096	2.5455	0.1	1524.4
23891	17.188	2.6364	0.1	1502.8
23892	16.912	2.5455	0.1	1567.5
23893	17.004	2.6364	0.1	1545.8
23894	16.728	2.5455	0.1	1610.7
23895	16.82	2.6364	0.1	1588.9
23896	16.544	2.5455	0.1	1654.
23897	16.636	2.6364	0.1	1632.1
23898	16.359	2.5455	0.1	1697.5
23899	16.452	2.6364	0.1	1675.5
23900	16.175	2.5455	0.1	1741.2
23901	16.267	2.6364	0.1	1719.1
23902	15.991	2.5455	0.1	1785.
23903	16.083	2.6364	0.1	1762.8
23904	15.807	2.5455	0.1	1828.9
23905	15.899	2.6364	0.1	1806.6
23906	15.623	2.5455	0.1	1872.9
23907	15.715	2.6364	0.1	1850.6
23908	15.439	2.5455	0.1	1917.
23909	15.531	2.6364	0.1	1894.6
23910	15.255	2.5455	0.1	1961.2
23911	15.347	2.6364	0.1	1938.8
23912	15.071	2.5455	0.1	2005.5
23913	15.163	2.6364	0.1	1983.
23914	14.887	2.5455	0.1	2049.9
23915	14.979	2.6364	0.1	2027.3
23916	14.703	2.5455	0.1	2094.4
23917	14.795	2.6364	0.1	2071.7
23918	14.518	2.5455	0.1	2138.9
23919	14.61	2.6364	0.1	2116.2
23920	14.334	2.5455	0.1	2183.5
23921	14.426	2.6364	0.1	2160.7
23922	14.15	2.5455	0.1	2228.2
23923	14.242	2.6364	0.1	2205.3
23924	13.966	2.5455	0.1	2272.9
23925	14.058	2.6364	0.1	2250.
23926	13.782	2.5455	0.1	2317.7
23927	13.874	2.6364	0.1	2294.7
23928	13.598	2.5455	0.1	2362.7
23929	13.69	2.6364	0.1	2339.6
23930	13.414	2.5455	0.1	2407.7
23931	13.506	2.6364	0.1	2384.5
23932	13.23	2.5455	0.1	2453.
23933	13.322	2.6364	0.1	2429.6
23934	13.046	2.5455	0.1	2498.5
23935	13.138	2.6364	0.1	2474.9
23936	12.861	2.5455	0.1	2544.3
23937	12.953	2.6364	0.1	2520.5
23938	12.677	2.5455	0.1	2590.6
23939	12.769	2.6364	0.1	2566.5
23940	12.493	2.5455	0.1	2637.5
23941	12.585	2.6364	0.1	2613.
23942	12.309	2.5455	0.1	2685.2
23943	12.401	2.6364	0.1	2660.3
23944	12.125	2.5455	0.1	2734.2
23945	12.217	2.6364	0.1	2708.6
23946	11.941	2.5455	0.1	2784.6
23947	12.033	2.6364	0.1	2758.2
23948	11.757	2.5455	0.1	2837.2
23949	11.849	2.6364	0.1	2809.7
23950	11.573	2.5455	0.1	2892.4
23951	11.665	2.6364	0.1	2863.6
23952	11.389	2.5455	0.1	2951.4
23953	11.481	2.6364	0.1	2920.8
23954	11.204	2.5455	0.1	3015.1
23955	11.297	2.6364	0.1	2982.3
23956	11.02	2.5455	0.1	3085.2
23957	11.112	2.6364	0.1	3049.5
23958	10.836	2.5455	0.1	3163.5
23959	10.928	2.6364	0.1	3124.1
23960	10.652	2.5455	0.1	3252.8
23961	10.744	2.6364	0.1	3208.6
23962	10.468	2.5455	0.1	3356.3
23963	10.56	2.6364	0.1	3305.9
23964	10.284	2.5455	0.1	3478.5
23965	10.376	2.6364	0.1	3420.2
23966	10.1	2.5455	0.1	3625.3
23967	10.192	2.6364	0.1	3556.7
23968	9.9157	2.5455	0.1	3804.6
23969	10.008	2.6364	0.1	3722.5
23970	9.7316	2.5455	0.1	4027.
23971	9.8236	2.6364	0.1	3926.8
23972	9.5475	2.5455	0.1	4307.
23973	9.6395	2.6364	0.1	4182.3
23974	9.3634	2.5455	0.1	4664.8
23975	9.4554	2.6364	0.1	4506.
23976	9.1793	2.5455	0.1	5128.5
23977	9.2713	2.6364	0.1	4920.5
23978	8.9952	2.5455	0.1	5737.3
23979	9.0872	2.6364	0.1	5455.7
23980	8.811	2.5455	0.1	6541.
23981	8.9031	2.6364	0.1	6148.2
23982	8.6269	2.5455	0.1	7582.6
23983	8.719	2.6364	0.1	7032.2
23984	8.4428	2.5455	0.1	8798.4
23985	8.5349	2.6364	0.1	8105.5
23986	8.3508	2.6364	0.1	9213.3
23987	8.2587	2.5455	0.1	9870.
23988	23.724	2.7273	0.1	206.52
23989	23.816	2.8182	0.1	198.99
23990	23.908	2.7273	0.1	192.71
23991	23.54	2.7273	0.1	225.88
23992	23.632	2.8182	0.1	216.08
23993	23.356	2.7273	0.1	248.92
23994	23.448	2.8182	0.1	237.38
23995	23.172	2.7273	0.1	274.74
23996	23.264	2.8182	0.1	261.89
23997	22.987	2.7273	0.1	302.67
23998	23.079	2.8182	0.1	288.81
23999	22.803	2.7273	0.1	332.23
24000	22.895	2.8182	0.1	317.58
24001	22.619	2.7273	0.1	363.08
24002	22.711	2.8182	0.1	347.8
24003	22.435	2.7273	0.1	394.99
24004	22.527	2.8182	0.1	379.18
24005	22.251	2.7273	0.1	427.79
24006	22.343	2.8182	0.1	411.53
24007	22.067	2.7273	0.1	461.36
24008	22.159	2.8182	0.1	444.7
24009	21.883	2.7273	0.1	495.62
24010	21.975	2.8182	0.1	478.6
24011	21.699	2.7273	0.1	530.48
24012	21.791	2.8182	0.1	513.14
24013	21.515	2.7273	0.1	565.91
24014	21.607	2.8182	0.1	548.27
24015	21.33	2.7273	0.1	601.85
24016	21.422	2.8182	0.1	583.94
24017	21.146	2.7273	0.1	638.28
24018	21.238	2.8182	0.1	620.11
24019	20.962	2.7273	0.1	675.16
24020	21.054	2.8182	0.1	656.75
24021	20.778	2.7273	0.1	712.47
24022	20.87	2.8182	0.1	693.83
24023	20.594	2.7273	0.1	750.19
24024	20.686	2.8182	0.1	731.33
24025	20.41	2.7273	0.1	788.28
24026	20.502	2.8182	0.1	769.22
24027	20.226	2.7273	0.1	826.75
24028	20.318	2.8182	0.1	807.49
24029	20.042	2.7273	0.1	865.56
24030	20.134	2.8182	0.1	846.12
24031	19.858	2.7273	0.1	904.71
24032	19.95	2.8182	0.1	885.09
24033	19.673	2.7273	0.1	944.18
24034	19.766	2.8182	0.1	924.39
24035	19.489	2.7273	0.1	983.96
24036	19.581	2.8182	0.1	964.01
24037	19.305	2.7273	0.1	1024.
24038	19.397	2.8182	0.1	1003.9
24039	19.121	2.7273	0.1	1064.4
24040	19.213	2.8182	0.1	1044.1
24041	18.937	2.7273	0.1	1105.
24042	19.029	2.8182	0.1	1084.6
24043	18.753	2.7273	0.1	1145.9
24044	18.845	2.8182	0.1	1125.4
24045	18.569	2.7273	0.1	1187.
24046	18.661	2.8182	0.1	1166.4
24047	18.385	2.7273	0.1	1228.4
24048	18.477	2.8182	0.1	1207.6
24049	18.201	2.7273	0.1	1270.
24050	18.293	2.8182	0.1	1249.1
24051	18.016	2.7273	0.1	1311.9
24052	18.109	2.8182	0.1	1290.9
24053	17.832	2.7273	0.1	1353.9
24054	17.924	2.8182	0.1	1332.8
24055	17.648	2.7273	0.1	1396.2
24056	17.74	2.8182	0.1	1375.
24057	17.464	2.7273	0.1	1438.7
24058	17.556	2.8182	0.1	1417.3
24059	17.28	2.7273	0.1	1481.3
24060	17.372	2.8182	0.1	1459.9
24061	17.096	2.7273	0.1	1524.2
24062	17.188	2.8182	0.1	1502.6
24063	16.912	2.7273	0.1	1567.2
24064	17.004	2.8182	0.1	1545.5
24065	16.728	2.7273	0.1	1610.3
24066	16.82	2.8182	0.1	1588.6
24067	16.544	2.7273	0.1	1653.7
24068	16.636	2.8182	0.1	1631.9
24069	16.359	2.7273	0.1	1697.1
24070	16.452	2.8182	0.1	1675.3
24071	16.175	2.7273	0.1	1740.8
24072	16.267	2.8182	0.1	1718.8
24073	15.991	2.7273	0.1	1784.5
24074	16.083	2.8182	0.1	1762.5
24075	15.807	2.7273	0.1	1828.4
24076	15.899	2.8182	0.1	1806.3
24077	15.623	2.7273	0.1	1872.3
24078	15.715	2.8182	0.1	1850.2
24079	15.439	2.7273	0.1	1916.4
24080	15.531	2.8182	0.1	1894.2
24081	15.255	2.7273	0.1	1960.6
24082	15.347	2.8182	0.1	1938.3
24083	15.071	2.7273	0.1	2004.9
24084	15.163	2.8182	0.1	1982.5
24085	14.887	2.7273	0.1	2049.2
24086	14.979	2.8182	0.1	2026.8
24087	14.703	2.7273	0.1	2093.6
24088	14.795	2.8182	0.1	2071.2
24089	14.518	2.7273	0.1	2138.1
24090	14.61	2.8182	0.1	2115.6
24091	14.334	2.7273	0.1	2182.6
24092	14.426	2.8182	0.1	2160.1
24093	14.15	2.7273	0.1	2227.2
24094	14.242	2.8182	0.1	2204.6
24095	13.966	2.7273	0.1	2271.8
24096	14.058	2.8182	0.1	2249.2
24097	13.782	2.7273	0.1	2316.6
24098	13.874	2.8182	0.1	2293.9
24099	13.598	2.7273	0.1	2361.4
24100	13.69	2.8182	0.1	2338.7
24101	13.414	2.7273	0.1	2406.4
24102	13.506	2.8182	0.1	2383.6
24103	13.23	2.7273	0.1	2451.6
24104	13.322	2.8182	0.1	2428.6
24105	13.046	2.7273	0.1	2497.
24106	13.138	2.8182	0.1	2473.8
24107	12.861	2.7273	0.1	2542.7
24108	12.953	2.8182	0.1	2519.4
24109	12.677	2.7273	0.1	2589.
24110	12.769	2.8182	0.1	2565.3
24111	12.493	2.7273	0.1	2635.8
24112	12.585	2.8182	0.1	2611.8
24113	12.309	2.7273	0.1	2683.6
24114	12.401	2.8182	0.1	2659.1
24115	12.125	2.7273	0.1	2732.6
24116	12.217	2.8182	0.1	2707.4
24117	11.941	2.7273	0.1	2783.3
24118	12.033	2.8182	0.1	2757.1
24119	11.757	2.7273	0.1	2836.2
24120	11.849	2.8182	0.1	2808.8
24121	11.573	2.7273	0.1	2892.
24122	11.665	2.8182	0.1	2863.
24123	11.389	2.7273	0.1	2951.7
24124	11.481	2.8182	0.1	2920.7
24125	11.204	2.7273	0.1	3016.6
24126	11.297	2.8182	0.1	2982.9
24127	11.02	2.7273	0.1	3088.4
24128	11.112	2.8182	0.1	3051.1
24129	10.836	2.7273	0.1	3169.2
24130	10.928	2.8182	0.1	3127.3
24131	10.652	2.7273	0.1	3261.8
24132	10.744	2.8182	0.1	3213.9
24133	10.468	2.7273	0.1	3369.9
24134	10.56	2.8182	0.1	3314.2
24135	10.284	2.7273	0.1	3498.5
24136	10.376	2.8182	0.1	3432.6
24137	10.1	2.7273	0.1	3654.
24138	10.192	2.8182	0.1	3574.7
24139	9.9157	2.7273	0.1	3844.9
24140	10.008	2.8182	0.1	3748.
24141	9.7316	2.7273	0.1	4082.7
24142	9.8236	2.8182	0.1	3962.4
24143	9.5475	2.7273	0.1	4382.3
24144	9.6395	2.8182	0.1	4231.1
24145	9.3634	2.7273	0.1	4763.5
24146	9.4554	2.8182	0.1	4571.1
24147	9.1793	2.7273	0.1	5251.3
24148	9.2713	2.8182	0.1	5004.
24149	8.9952	2.7273	0.1	5873.4
24150	9.0872	2.8182	0.1	5555.1
24151	8.811	2.7273	0.1	6651.6
24152	8.9031	2.8182	0.1	6247.7
24153	8.6269	2.7273	0.1	7572.6
24154	8.719	2.8182	0.1	7087.
24155	8.4428	2.7273	0.1	8533.8
24156	8.5349	2.8182	0.1	8023.
24157	8.3508	2.8182	0.1	8899.1
24158	8.2587	2.7273	0.1	9305.
24159	23.724	2.9091	0.1	207.41
24160	23.816	3.	0.1	199.44
24161	23.908	2.9091	0.1	193.63
24162	23.54	2.9091	0.1	226.75
24163	23.632	3.	0.1	216.52
24164	23.356	2.9091	0.1	249.75
24165	23.448	3.	0.1	237.81
24166	23.172	2.9091	0.1	275.53
24167	23.264	3.	0.1	262.3
24168	22.987	2.9091	0.1	303.42
24169	23.079	3.	0.1	289.2
24170	22.803	2.9091	0.1	332.94
24171	22.895	3.	0.1	317.95
24172	22.619	2.9091	0.1	363.75
24173	22.711	3.	0.1	348.14
24174	22.435	2.9091	0.1	395.61
24175	22.527	3.	0.1	379.5
24176	22.251	2.9091	0.1	428.37
24177	22.343	3.	0.1	411.83
24178	22.067	2.9091	0.1	461.9
24179	22.159	3.	0.1	444.98
24180	21.883	2.9091	0.1	496.11
24181	21.975	3.	0.1	478.86
24182	21.699	2.9091	0.1	530.93
24183	21.791	3.	0.1	513.38
24184	21.515	2.9091	0.1	566.32
24185	21.607	3.	0.1	548.49
24186	21.33	2.9091	0.1	602.22
24187	21.422	3.	0.1	584.14
24188	21.146	2.9091	0.1	638.61
24189	21.238	3.	0.1	620.29
24190	20.962	2.9091	0.1	675.45
24191	21.054	3.	0.1	656.91
24192	20.778	2.9091	0.1	712.72
24193	20.87	3.	0.1	693.97
24194	20.594	2.9091	0.1	750.4
24195	20.686	3.	0.1	731.45
24196	20.41	2.9091	0.1	788.47
24197	20.502	3.	0.1	769.32
24198	20.226	2.9091	0.1	826.91
24199	20.318	3.	0.1	807.58
24200	20.042	2.9091	0.1	865.69
24201	20.134	3.	0.1	846.19
24202	19.858	2.9091	0.1	904.82
24203	19.95	3.	0.1	885.15
24204	19.673	2.9091	0.1	944.26
24205	19.766	3.	0.1	924.44
24206	19.489	2.9091	0.1	984.02
24207	19.581	3.	0.1	964.04
24208	19.305	2.9091	0.1	1024.1
24209	19.397	3.	0.1	1003.9
24210	19.121	2.9091	0.1	1064.4
24211	19.213	3.	0.1	1044.1
24212	18.937	2.9091	0.1	1105.
24213	19.029	3.	0.1	1084.6
24214	18.753	2.9091	0.1	1145.9
24215	18.845	3.	0.1	1125.4
24216	18.569	2.9091	0.1	1187.
24217	18.661	3.	0.1	1166.4
24218	18.385	2.9091	0.1	1228.4
24219	18.477	3.	0.1	1207.6
24220	18.201	2.9091	0.1	1270.
24221	18.293	3.	0.1	1249.1
24222	18.016	2.9091	0.1	1311.8
24223	18.109	3.	0.1	1290.8
24224	17.832	2.9091	0.1	1353.9
24225	17.924	3.	0.1	1332.8
24226	17.648	2.9091	0.1	1396.1
24227	17.74	3.	0.1	1374.9
24228	17.464	2.9091	0.1	1438.6
24229	17.556	3.	0.1	1417.3
24230	17.28	2.9091	0.1	1481.2
24231	17.372	3.	0.1	1459.8
24232	17.096	2.9091	0.1	1524.
24233	17.188	3.	0.1	1502.5
24234	16.912	2.9091	0.1	1567.
24235	17.004	3.	0.1	1545.5
24236	16.728	2.9091	0.1	1610.2
24237	16.82	3.	0.1	1588.5
24238	16.544	2.9091	0.1	1653.5
24239	16.636	3.	0.1	1631.8
24240	16.359	2.9091	0.1	1696.9
24241	16.452	3.	0.1	1675.2
24242	16.175	2.9091	0.1	1740.5
24243	16.267	3.	0.1	1718.7
24244	15.991	2.9091	0.1	1784.3
24245	16.083	3.	0.1	1762.4
24246	15.807	2.9091	0.1	1828.1
24247	15.899	3.	0.1	1806.1
24248	15.623	2.9091	0.1	1872.1
24249	15.715	3.	0.1	1850.1
24250	15.439	2.9091	0.1	1916.1
24251	15.531	3.	0.1	1894.1
24252	15.255	2.9091	0.1	1960.3
24253	15.347	3.	0.1	1938.2
24254	15.071	2.9091	0.1	2004.5
24255	15.163	3.	0.1	1982.4
24256	14.887	2.9091	0.1	2048.8
24257	14.979	3.	0.1	2026.6
24258	14.703	2.9091	0.1	2093.2
24259	14.795	3.	0.1	2071.
24260	14.518	2.9091	0.1	2137.6
24261	14.61	3.	0.1	2115.4
24262	14.334	2.9091	0.1	2182.1
24263	14.426	3.	0.1	2159.9
24264	14.15	2.9091	0.1	2226.7
24265	14.242	3.	0.1	2204.4
24266	13.966	2.9091	0.1	2271.3
24267	14.058	3.	0.1	2249.
24268	13.782	2.9091	0.1	2316.
24269	13.874	3.	0.1	2293.6
24270	13.598	2.9091	0.1	2360.8
24271	13.69	3.	0.1	2338.4
24272	13.414	2.9091	0.1	2405.7
24273	13.506	3.	0.1	2383.2
24274	13.23	2.9091	0.1	2450.8
24275	13.322	3.	0.1	2428.2
24276	13.046	2.9091	0.1	2496.2
24277	13.138	3.	0.1	2473.5
24278	12.861	2.9091	0.1	2541.9
24279	12.953	3.	0.1	2519.
24280	12.677	2.9091	0.1	2588.1
24281	12.769	3.	0.1	2564.9
24282	12.493	2.9091	0.1	2635.
24283	12.585	3.	0.1	2611.4
24284	12.309	2.9091	0.1	2682.8
24285	12.401	3.	0.1	2658.6
24286	12.125	2.9091	0.1	2731.9
24287	12.217	3.	0.1	2707.
24288	11.941	2.9091	0.1	2782.6
24289	12.033	3.	0.1	2756.7
24290	11.757	2.9091	0.1	2835.6
24291	11.849	3.	0.1	2808.5
24292	11.573	2.9091	0.1	2891.7
24293	11.665	3.	0.1	2862.8
24294	11.389	2.9091	0.1	2951.9
24295	11.481	3.	0.1	2920.7
24296	11.204	2.9091	0.1	3017.4
24297	11.297	3.	0.1	2983.1
24298	11.02	2.9091	0.1	3090.
24299	11.112	3.	0.1	3051.7
24300	10.836	2.9091	0.1	3172.1
24301	10.928	3.	0.1	3128.4
24302	10.652	2.9091	0.1	3266.4
24303	10.744	3.	0.1	3215.7
24304	10.468	2.9091	0.1	3377.
24305	10.56	3.	0.1	3317.1
24306	10.284	2.9091	0.1	3508.9
24307	10.376	3.	0.1	3436.8
24308	10.1	2.9091	0.1	3668.9
24309	10.192	3.	0.1	3580.9
24310	9.9157	2.9091	0.1	3865.9
24311	10.008	3.	0.1	3756.8
24312	9.7316	2.9091	0.1	4111.7
24313	9.8236	3.	0.1	3974.7
24314	9.5475	2.9091	0.1	4421.4
24315	9.6395	3.	0.1	4247.8
24316	9.3634	2.9091	0.1	4814.3
24317	9.4554	3.	0.1	4593.3
24318	9.1793	2.9091	0.1	5312.6
24319	9.2713	3.	0.1	5032.2
24320	8.9952	2.9091	0.1	5937.1
24321	9.0872	3.	0.1	5587.8
24322	8.811	2.9091	0.1	6694.6
24323	8.9031	3.	0.1	6278.4
24324	8.6269	2.9091	0.1	7551.1
24325	8.719	3.	0.1	7099.6
24326	8.4428	2.9091	0.1	8398.6
24327	8.5349	3.	0.1	7989.9
24328	8.3508	3.	0.1	8797.5
24329	8.2587	2.9091	0.1	9051.9
24330	23.724	3.0909	0.1	207.41
24331	23.816	3.1818	0.1	198.99
24332	23.908	3.0909	0.1	193.63
24333	23.54	3.0909	0.1	226.75
24334	23.632	3.1818	0.1	216.08
24335	23.356	3.0909	0.1	249.75
24336	23.448	3.1818	0.1	237.38
24337	23.172	3.0909	0.1	275.53
24338	23.264	3.1818	0.1	261.89
24339	22.987	3.0909	0.1	303.42
24340	23.079	3.1818	0.1	288.81
24341	22.803	3.0909	0.1	332.94
24342	22.895	3.1818	0.1	317.58
24343	22.619	3.0909	0.1	363.75
24344	22.711	3.1818	0.1	347.8
24345	22.435	3.0909	0.1	395.61
24346	22.527	3.1818	0.1	379.18
24347	22.251	3.0909	0.1	428.37
24348	22.343	3.1818	0.1	411.53
24349	22.067	3.0909	0.1	461.9
24350	22.159	3.1818	0.1	444.7
24351	21.883	3.0909	0.1	496.11
24352	21.975	3.1818	0.1	478.6
24353	21.699	3.0909	0.1	530.93
24354	21.791	3.1818	0.1	513.14
24355	21.515	3.0909	0.1	566.32
24356	21.607	3.1818	0.1	548.27
24357	21.33	3.0909	0.1	602.22
24358	21.422	3.1818	0.1	583.94
24359	21.146	3.0909	0.1	638.61
24360	21.238	3.1818	0.1	620.11
24361	20.962	3.0909	0.1	675.45
24362	21.054	3.1818	0.1	656.75
24363	20.778	3.0909	0.1	712.72
24364	20.87	3.1818	0.1	693.83
24365	20.594	3.0909	0.1	750.4
24366	20.686	3.1818	0.1	731.33
24367	20.41	3.0909	0.1	788.47
24368	20.502	3.1818	0.1	769.22
24369	20.226	3.0909	0.1	826.91
24370	20.318	3.1818	0.1	807.49
24371	20.042	3.0909	0.1	865.69
24372	20.134	3.1818	0.1	846.12
24373	19.858	3.0909	0.1	904.82
24374	19.95	3.1818	0.1	885.09
24375	19.673	3.0909	0.1	944.26
24376	19.766	3.1818	0.1	924.39
24377	19.489	3.0909	0.1	984.02
24378	19.581	3.1818	0.1	964.01
24379	19.305	3.0909	0.1	1024.1
24380	19.397	3.1818	0.1	1003.9
24381	19.121	3.0909	0.1	1064.4
24382	19.213	3.1818	0.1	1044.1
24383	18.937	3.0909	0.1	1105.
24384	19.029	3.1818	0.1	1084.6
24385	18.753	3.0909	0.1	1145.9
24386	18.845	3.1818	0.1	1125.4
24387	18.569	3.0909	0.1	1187.
24388	18.661	3.1818	0.1	1166.4
24389	18.385	3.0909	0.1	1228.4
24390	18.477	3.1818	0.1	1207.6
24391	18.201	3.0909	0.1	1270.
24392	18.293	3.1818	0.1	1249.1
24393	18.016	3.0909	0.1	1311.8
24394	18.109	3.1818	0.1	1290.9
24395	17.832	3.0909	0.1	1353.9
24396	17.924	3.1818	0.1	1332.8
24397	17.648	3.0909	0.1	1396.1
24398	17.74	3.1818	0.1	1375.
24399	17.464	3.0909	0.1	1438.6
24400	17.556	3.1818	0.1	1417.3
24401	17.28	3.0909	0.1	1481.2
24402	17.372	3.1818	0.1	1459.9
24403	17.096	3.0909	0.1	1524.
24404	17.188	3.1818	0.1	1502.6
24405	16.912	3.0909	0.1	1567.
24406	17.004	3.1818	0.1	1545.5
24407	16.728	3.0909	0.1	1610.2
24408	16.82	3.1818	0.1	1588.6
24409	16.544	3.0909	0.1	1653.5
24410	16.636	3.1818	0.1	1631.9
24411	16.359	3.0909	0.1	1696.9
24412	16.452	3.1818	0.1	1675.3
24413	16.175	3.0909	0.1	1740.5
24414	16.267	3.1818	0.1	1718.8
24415	15.991	3.0909	0.1	1784.3
24416	16.083	3.1818	0.1	1762.5
24417	15.807	3.0909	0.1	1828.1
24418	15.899	3.1818	0.1	1806.3
24419	15.623	3.0909	0.1	1872.1
24420	15.715	3.1818	0.1	1850.2
24421	15.439	3.0909	0.1	1916.1
24422	15.531	3.1818	0.1	1894.2
24423	15.255	3.0909	0.1	1960.3
24424	15.347	3.1818	0.1	1938.3
24425	15.071	3.0909	0.1	2004.5
24426	15.163	3.1818	0.1	1982.5
24427	14.887	3.0909	0.1	2048.8
24428	14.979	3.1818	0.1	2026.8
24429	14.703	3.0909	0.1	2093.2
24430	14.795	3.1818	0.1	2071.2
24431	14.518	3.0909	0.1	2137.6
24432	14.61	3.1818	0.1	2115.6
24433	14.334	3.0909	0.1	2182.1
24434	14.426	3.1818	0.1	2160.1
24435	14.15	3.0909	0.1	2226.7
24436	14.242	3.1818	0.1	2204.6
24437	13.966	3.0909	0.1	2271.3
24438	14.058	3.1818	0.1	2249.2
24439	13.782	3.0909	0.1	2316.
24440	13.874	3.1818	0.1	2293.9
24441	13.598	3.0909	0.1	2360.8
24442	13.69	3.1818	0.1	2338.7
24443	13.414	3.0909	0.1	2405.7
24444	13.506	3.1818	0.1	2383.6
24445	13.23	3.0909	0.1	2450.8
24446	13.322	3.1818	0.1	2428.6
24447	13.046	3.0909	0.1	2496.2
24448	13.138	3.1818	0.1	2473.8
24449	12.861	3.0909	0.1	2541.9
24450	12.953	3.1818	0.1	2519.4
24451	12.677	3.0909	0.1	2588.1
24452	12.769	3.1818	0.1	2565.3
24453	12.493	3.0909	0.1	2635.
24454	12.585	3.1818	0.1	2611.8
24455	12.309	3.0909	0.1	2682.8
24456	12.401	3.1818	0.1	2659.1
24457	12.125	3.0909	0.1	2731.9
24458	12.217	3.1818	0.1	2707.4
24459	11.941	3.0909	0.1	2782.6
24460	12.033	3.1818	0.1	2757.1
24461	11.757	3.0909	0.1	2835.6
24462	11.849	3.1818	0.1	2808.8
24463	11.573	3.0909	0.1	2891.7
24464	11.665	3.1818	0.1	2863.
24465	11.389	3.0909	0.1	2951.9
24466	11.481	3.1818	0.1	2920.7
24467	11.204	3.0909	0.1	3017.4
24468	11.297	3.1818	0.1	2982.9
24469	11.02	3.0909	0.1	3090.
24470	11.112	3.1818	0.1	3051.1
24471	10.836	3.0909	0.1	3172.1
24472	10.928	3.1818	0.1	3127.3
24473	10.652	3.0909	0.1	3266.4
24474	10.744	3.1818	0.1	3213.9
24475	10.468	3.0909	0.1	3377.
24476	10.56	3.1818	0.1	3314.2
24477	10.284	3.0909	0.1	3508.9
24478	10.376	3.1818	0.1	3432.6
24479	10.1	3.0909	0.1	3668.9
24480	10.192	3.1818	0.1	3574.7
24481	9.9157	3.0909	0.1	3865.9
24482	10.008	3.1818	0.1	3748.
24483	9.7316	3.0909	0.1	4111.7
24484	9.8236	3.1818	0.1	3962.4
24485	9.5475	3.0909	0.1	4421.4
24486	9.6395	3.1818	0.1	4231.1
24487	9.3634	3.0909	0.1	4814.3
24488	9.4554	3.1818	0.1	4571.1
24489	9.1793	3.0909	0.1	5312.6
24490	9.2713	3.1818	0.1	5004.
24491	8.9952	3.0909	0.1	5937.1
24492	9.0872	3.1818	0.1	5555.1
24493	8.811	3.0909	0.1	6694.6
24494	8.9031	3.1818	0.1	6247.7
24495	8.6269	3.0909	0.1	7551.1
24496	8.719	3.1818	0.1	7087.
24497	8.4428	3.0909	0.1	8398.6
24498	8.5349	3.1818	0.1	8023.
24499	8.3508	3.1818	0.1	8899.1
24500	8.2587	3.0909	0.1	9051.9
24501	23.724	3.2727	0.1	206.52
24502	23.816	3.3636	0.1	197.64
24503	23.908	3.2727	0.1	192.71
24504	23.54	3.2727	0.1	225.88
24505	23.632	3.3636	0.1	214.76
24506	23.356	3.2727	0.1	248.92
24507	23.448	3.3636	0.1	236.11
24508	23.172	3.2727	0.1	274.74
24509	23.264	3.3636	0.1	260.68
24510	22.987	3.2727	0.1	302.67
24511	23.079	3.3636	0.1	287.66
24512	22.803	3.2727	0.1	332.23
24513	22.895	3.3636	0.1	316.49
24514	22.619	3.2727	0.1	363.08
24515	22.711	3.3636	0.1	346.77
24516	22.435	3.2727	0.1	394.99
24517	22.527	3.3636	0.1	378.21
24518	22.251	3.2727	0.1	427.79
24519	22.343	3.3636	0.1	410.63
24520	22.067	3.2727	0.1	461.36
24521	22.159	3.3636	0.1	443.87
24522	21.883	3.2727	0.1	495.62
24523	21.975	3.3636	0.1	477.83
24524	21.699	3.2727	0.1	530.48
24525	21.791	3.3636	0.1	512.44
24526	21.515	3.2727	0.1	565.91
24527	21.607	3.3636	0.1	547.64
24528	21.33	3.2727	0.1	601.85
24529	21.422	3.3636	0.1	583.37
24530	21.146	3.2727	0.1	638.28
24531	21.238	3.3636	0.1	619.6
24532	20.962	3.2727	0.1	675.16
24533	21.054	3.3636	0.1	656.29
24534	20.778	3.2727	0.1	712.47
24535	20.87	3.3636	0.1	693.43
24536	20.594	3.2727	0.1	750.19
24537	20.686	3.3636	0.1	730.98
24538	20.41	3.2727	0.1	788.28
24539	20.502	3.3636	0.1	768.92
24540	20.226	3.2727	0.1	826.75
24541	20.318	3.3636	0.1	807.24
24542	20.042	3.2727	0.1	865.56
24543	20.134	3.3636	0.1	845.91
24544	19.858	3.2727	0.1	904.71
24545	19.95	3.3636	0.1	884.92
24546	19.673	3.2727	0.1	944.18
24547	19.766	3.3636	0.1	924.26
24548	19.489	3.2727	0.1	983.96
24549	19.581	3.3636	0.1	963.9
24550	19.305	3.2727	0.1	1024.
24551	19.397	3.3636	0.1	1003.9
24552	19.121	3.2727	0.1	1064.4
24553	19.213	3.3636	0.1	1044.1
24554	18.937	3.2727	0.1	1105.
24555	19.029	3.3636	0.1	1084.6
24556	18.753	3.2727	0.1	1145.9
24557	18.845	3.3636	0.1	1125.4
24558	18.569	3.2727	0.1	1187.
24559	18.661	3.3636	0.1	1166.4
24560	18.385	3.2727	0.1	1228.4
24561	18.477	3.3636	0.1	1207.7
24562	18.201	3.2727	0.1	1270.
24563	18.293	3.3636	0.1	1249.2
24564	18.016	3.2727	0.1	1311.9
24565	18.109	3.3636	0.1	1291.
24566	17.832	3.2727	0.1	1353.9
24567	17.924	3.3636	0.1	1332.9
24568	17.648	3.2727	0.1	1396.2
24569	17.74	3.3636	0.1	1375.1
24570	17.464	3.2727	0.1	1438.7
24571	17.556	3.3636	0.1	1417.5
24572	17.28	3.2727	0.1	1481.3
24573	17.372	3.3636	0.1	1460.1
24574	17.096	3.2727	0.1	1524.2
24575	17.188	3.3636	0.1	1502.8
24576	16.912	3.2727	0.1	1567.2
24577	17.004	3.3636	0.1	1545.8
24578	16.728	3.2727	0.1	1610.3
24579	16.82	3.3636	0.1	1588.9
24580	16.544	3.2727	0.1	1653.7
24581	16.636	3.3636	0.1	1632.1
24582	16.359	3.2727	0.1	1697.1
24583	16.452	3.3636	0.1	1675.5
24584	16.175	3.2727	0.1	1740.8
24585	16.267	3.3636	0.1	1719.1
24586	15.991	3.2727	0.1	1784.5
24587	16.083	3.3636	0.1	1762.8
24588	15.807	3.2727	0.1	1828.4
24589	15.899	3.3636	0.1	1806.6
24590	15.623	3.2727	0.1	1872.3
24591	15.715	3.3636	0.1	1850.6
24592	15.439	3.2727	0.1	1916.4
24593	15.531	3.3636	0.1	1894.6
24594	15.255	3.2727	0.1	1960.6
24595	15.347	3.3636	0.1	1938.8
24596	15.071	3.2727	0.1	2004.9
24597	15.163	3.3636	0.1	1983.
24598	14.887	3.2727	0.1	2049.2
24599	14.979	3.3636	0.1	2027.3
24600	14.703	3.2727	0.1	2093.6
24601	14.795	3.3636	0.1	2071.7
24602	14.518	3.2727	0.1	2138.1
24603	14.61	3.3636	0.1	2116.2
24604	14.334	3.2727	0.1	2182.6
24605	14.426	3.3636	0.1	2160.7
24606	14.15	3.2727	0.1	2227.2
24607	14.242	3.3636	0.1	2205.3
24608	13.966	3.2727	0.1	2271.8
24609	14.058	3.3636	0.1	2250.
24610	13.782	3.2727	0.1	2316.6
24611	13.874	3.3636	0.1	2294.7
24612	13.598	3.2727	0.1	2361.4
24613	13.69	3.3636	0.1	2339.6
24614	13.414	3.2727	0.1	2406.4
24615	13.506	3.3636	0.1	2384.5
24616	13.23	3.2727	0.1	2451.6
24617	13.322	3.3636	0.1	2429.6
24618	13.046	3.2727	0.1	2497.
24619	13.138	3.3636	0.1	2474.9
24620	12.861	3.2727	0.1	2542.7
24621	12.953	3.3636	0.1	2520.5
24622	12.677	3.2727	0.1	2589.
24623	12.769	3.3636	0.1	2566.5
24624	12.493	3.2727	0.1	2635.8
24625	12.585	3.3636	0.1	2613.
24626	12.309	3.2727	0.1	2683.6
24627	12.401	3.3636	0.1	2660.3
24628	12.125	3.2727	0.1	2732.6
24629	12.217	3.3636	0.1	2708.6
24630	11.941	3.2727	0.1	2783.3
24631	12.033	3.3636	0.1	2758.2
24632	11.757	3.2727	0.1	2836.2
24633	11.849	3.3636	0.1	2809.7
24634	11.573	3.2727	0.1	2892.
24635	11.665	3.3636	0.1	2863.6
24636	11.389	3.2727	0.1	2951.7
24637	11.481	3.3636	0.1	2920.8
24638	11.204	3.2727	0.1	3016.6
24639	11.297	3.3636	0.1	2982.3
24640	11.02	3.2727	0.1	3088.4
24641	11.112	3.3636	0.1	3049.5
24642	10.836	3.2727	0.1	3169.2
24643	10.928	3.3636	0.1	3124.1
24644	10.652	3.2727	0.1	3261.8
24645	10.744	3.3636	0.1	3208.6
24646	10.468	3.2727	0.1	3369.9
24647	10.56	3.3636	0.1	3305.9
24648	10.284	3.2727	0.1	3498.5
24649	10.376	3.3636	0.1	3420.2
24650	10.1	3.2727	0.1	3654.
24651	10.192	3.3636	0.1	3556.7
24652	9.9157	3.2727	0.1	3844.9
24653	10.008	3.3636	0.1	3722.5
24654	9.7316	3.2727	0.1	4082.7
24655	9.8236	3.3636	0.1	3926.8
24656	9.5475	3.2727	0.1	4382.3
24657	9.6395	3.3636	0.1	4182.3
24658	9.3634	3.2727	0.1	4763.5
24659	9.4554	3.3636	0.1	4506.
24660	9.1793	3.2727	0.1	5251.3
24661	9.2713	3.3636	0.1	4920.5
24662	8.9952	3.2727	0.1	5873.4
24663	9.0872	3.3636	0.1	5455.7
24664	8.811	3.2727	0.1	6651.6
24665	8.9031	3.3636	0.1	6148.2
24666	8.6269	3.2727	0.1	7572.6
24667	8.719	3.3636	0.1	7032.2
24668	8.4428	3.2727	0.1	8533.8
24669	8.5349	3.3636	0.1	8105.5
24670	8.3508	3.3636	0.1	9213.3
24671	8.2587	3.2727	0.1	9305.
24672	23.724	3.4545	0.1	204.73
24673	23.816	3.5455	0.1	195.37
24674	23.908	3.4545	0.1	190.86
24675	23.54	3.4545	0.1	224.15
24676	23.632	3.5455	0.1	212.54
24677	23.356	3.4545	0.1	247.26
24678	23.448	3.5455	0.1	233.98
24679	23.172	3.4545	0.1	273.16
24680	23.264	3.5455	0.1	258.64
24681	22.987	3.4545	0.1	301.17
24682	23.079	3.5455	0.1	285.73
24683	22.803	3.4545	0.1	330.81
24684	22.895	3.5455	0.1	314.66
24685	22.619	3.4545	0.1	361.75
24686	22.711	3.5455	0.1	345.05
24687	22.435	3.4545	0.1	393.75
24688	22.527	3.5455	0.1	376.6
24689	22.251	3.4545	0.1	426.64
24690	22.343	3.5455	0.1	409.13
24691	22.067	3.4545	0.1	460.3
24692	22.159	3.5455	0.1	442.48
24693	21.883	3.4545	0.1	494.64
24694	21.975	3.5455	0.1	476.56
24695	21.699	3.4545	0.1	529.59
24696	21.791	3.5455	0.1	511.28
24697	21.515	3.4545	0.1	565.1
24698	21.607	3.5455	0.1	546.58
24699	21.33	3.4545	0.1	601.13
24700	21.422	3.5455	0.1	582.42
24701	21.146	3.4545	0.1	637.64
24702	21.238	3.5455	0.1	618.75
24703	20.962	3.4545	0.1	674.59
24704	21.054	3.5455	0.1	655.54
24705	20.778	3.4545	0.1	711.97
24706	20.87	3.5455	0.1	692.77
24707	20.594	3.4545	0.1	749.75
24708	20.686	3.5455	0.1	730.41
24709	20.41	3.4545	0.1	787.91
24710	20.502	3.5455	0.1	768.43
24711	20.226	3.4545	0.1	826.44
24712	20.318	3.5455	0.1	806.82
24713	20.042	3.4545	0.1	865.31
24714	20.134	3.5455	0.1	845.56
24715	19.858	3.4545	0.1	904.51
24716	19.95	3.5455	0.1	884.64
24717	19.673	3.4545	0.1	944.03
24718	19.766	3.5455	0.1	924.04
24719	19.489	3.4545	0.1	983.85
24720	19.581	3.5455	0.1	963.74
24721	19.305	3.4545	0.1	1024.
24722	19.397	3.5455	0.1	1003.7
24723	19.121	3.4545	0.1	1064.4
24724	19.213	3.5455	0.1	1044.
24725	18.937	3.4545	0.1	1105.
24726	19.029	3.5455	0.1	1084.6
24727	18.753	3.4545	0.1	1145.9
24728	18.845	3.5455	0.1	1125.4
24729	18.569	3.4545	0.1	1187.1
24730	18.661	3.5455	0.1	1166.5
24731	18.385	3.4545	0.1	1228.5
24732	18.477	3.5455	0.1	1207.8
24733	18.201	3.4545	0.1	1270.2
24734	18.293	3.5455	0.1	1249.4
24735	18.016	3.4545	0.1	1312.
24736	18.109	3.5455	0.1	1291.1
24737	17.832	3.4545	0.1	1354.1
24738	17.924	3.5455	0.1	1333.1
24739	17.648	3.4545	0.1	1396.4
24740	17.74	3.5455	0.1	1375.3
24741	17.464	3.4545	0.1	1438.9
24742	17.556	3.5455	0.1	1417.8
24743	17.28	3.4545	0.1	1481.6
24744	17.372	3.5455	0.1	1460.4
24745	17.096	3.4545	0.1	1524.4
24746	17.188	3.5455	0.1	1503.2
24747	16.912	3.4545	0.1	1567.5
24748	17.004	3.5455	0.1	1546.1
24749	16.728	3.4545	0.1	1610.7
24750	16.82	3.5455	0.1	1589.3
24751	16.544	3.4545	0.1	1654.
24752	16.636	3.5455	0.1	1632.6
24753	16.359	3.4545	0.1	1697.5
24754	16.452	3.5455	0.1	1676.
24755	16.175	3.4545	0.1	1741.2
24756	16.267	3.5455	0.1	1719.6
24757	15.991	3.4545	0.1	1785.
24758	16.083	3.5455	0.1	1763.4
24759	15.807	3.4545	0.1	1828.9
24760	15.899	3.5455	0.1	1807.2
24761	15.623	3.4545	0.1	1872.9
24762	15.715	3.5455	0.1	1851.2
24763	15.439	3.4545	0.1	1917.
24764	15.531	3.5455	0.1	1895.3
24765	15.255	3.4545	0.1	1961.2
24766	15.347	3.5455	0.1	1939.5
24767	15.071	3.4545	0.1	2005.5
24768	15.163	3.5455	0.1	1983.8
24769	14.887	3.4545	0.1	2049.9
24770	14.979	3.5455	0.1	2028.2
24771	14.703	3.4545	0.1	2094.4
24772	14.795	3.5455	0.1	2072.7
24773	14.518	3.4545	0.1	2138.9
24774	14.61	3.5455	0.1	2117.2
24775	14.334	3.4545	0.1	2183.5
24776	14.426	3.5455	0.1	2161.8
24777	14.15	3.4545	0.1	2228.2
24778	14.242	3.5455	0.1	2206.5
24779	13.966	3.4545	0.1	2272.9
24780	14.058	3.5455	0.1	2251.3
24781	13.782	3.4545	0.1	2317.7
24782	13.874	3.5455	0.1	2296.1
24783	13.598	3.4545	0.1	2362.7
24784	13.69	3.5455	0.1	2341.1
24785	13.414	3.4545	0.1	2407.7
24786	13.506	3.5455	0.1	2386.1
24787	13.23	3.4545	0.1	2453.
24788	13.322	3.5455	0.1	2431.3
24789	13.046	3.4545	0.1	2498.5
24790	13.138	3.5455	0.1	2476.7
24791	12.861	3.4545	0.1	2544.3
24792	12.953	3.5455	0.1	2522.4
24793	12.677	3.4545	0.1	2590.6
24794	12.769	3.5455	0.1	2568.5
24795	12.493	3.4545	0.1	2637.5
24796	12.585	3.5455	0.1	2615.
24797	12.309	3.4545	0.1	2685.2
24798	12.401	3.5455	0.1	2662.3
24799	12.125	3.4545	0.1	2734.2
24800	12.217	3.5455	0.1	2710.5
24801	11.941	3.4545	0.1	2784.6
24802	12.033	3.5455	0.1	2760.
24803	11.757	3.4545	0.1	2837.2
24804	11.849	3.5455	0.1	2811.2
24805	11.573	3.4545	0.1	2892.4
24806	11.665	3.5455	0.1	2864.6
24807	11.389	3.4545	0.1	2951.4
24808	11.481	3.5455	0.1	2921.
24809	11.204	3.4545	0.1	3015.1
24810	11.297	3.5455	0.1	2981.3
24811	11.02	3.4545	0.1	3085.2
24812	11.112	3.5455	0.1	3046.8
24813	10.836	3.4545	0.1	3163.5
24814	10.928	3.5455	0.1	3119.
24815	10.652	3.4545	0.1	3252.8
24816	10.744	3.5455	0.1	3200.1
24817	10.468	3.4545	0.1	3356.3
24818	10.56	3.5455	0.1	3292.7
24819	10.284	3.4545	0.1	3478.5
24820	10.376	3.5455	0.1	3400.5
24821	10.1	3.4545	0.1	3625.3
24822	10.192	3.5455	0.1	3528.2
24823	9.9157	3.4545	0.1	3804.6
24824	10.008	3.5455	0.1	3682.
24825	9.7316	3.4545	0.1	4027.
24826	9.8236	3.5455	0.1	3870.5
24827	9.5475	3.4545	0.1	4307.
24828	9.6395	3.5455	0.1	4105.3
24829	9.3634	3.4545	0.1	4664.8
24830	9.4554	3.5455	0.1	4402.7
24831	9.1793	3.4545	0.1	5128.5
24832	9.2713	3.5455	0.1	4785.8
24833	8.9952	3.4545	0.1	5737.3
24834	9.0872	3.5455	0.1	5289.1
24835	8.811	3.4545	0.1	6541.
24836	8.9031	3.5455	0.1	5963.8
24837	8.6269	3.4545	0.1	7582.6
24838	8.719	3.5455	0.1	6888.1
24839	8.4428	3.4545	0.1	8798.4
24840	8.5349	3.5455	0.1	8155.7
24841	8.3508	3.5455	0.1	9782.9
24842	8.2587	3.4545	0.1	9870.
24843	23.724	3.6364	0.1	202.02
24844	23.816	3.7273	0.1	192.16
24845	23.908	3.6364	0.1	188.06
24846	23.54	3.6364	0.1	221.53
24847	23.632	3.7273	0.1	209.41
24848	23.356	3.6364	0.1	244.76
24849	23.448	3.7273	0.1	230.97
24850	23.172	3.6364	0.1	270.78
24851	23.264	3.7273	0.1	255.78
24852	22.987	3.6364	0.1	298.92
24853	23.079	3.7273	0.1	283.01
24854	22.803	3.6364	0.1	328.69
24855	22.895	3.7273	0.1	312.1
24856	22.619	3.6364	0.1	359.76
24857	22.711	3.7273	0.1	342.64
24858	22.435	3.6364	0.1	391.89
24859	22.527	3.7273	0.1	374.35
24860	22.251	3.6364	0.1	424.91
24861	22.343	3.7273	0.1	407.04
24862	22.067	3.6364	0.1	458.71
24863	22.159	3.7273	0.1	440.55
24864	21.883	3.6364	0.1	493.18
24865	21.975	3.7273	0.1	474.79
24866	21.699	3.6364	0.1	528.27
24867	21.791	3.7273	0.1	509.67
24868	21.515	3.6364	0.1	563.91
24869	21.607	3.7273	0.1	545.12
24870	21.33	3.6364	0.1	600.06
24871	21.422	3.7273	0.1	581.11
24872	21.146	3.6364	0.1	636.68
24873	21.238	3.7273	0.1	617.58
24874	20.962	3.6364	0.1	673.75
24875	21.054	3.7273	0.1	654.51
24876	20.778	3.6364	0.1	711.24
24877	20.87	3.7273	0.1	691.87
24878	20.594	3.6364	0.1	749.12
24879	20.686	3.7273	0.1	729.62
24880	20.41	3.6364	0.1	787.38
24881	20.502	3.7273	0.1	767.76
24882	20.226	3.6364	0.1	825.99
24883	20.318	3.7273	0.1	806.25
24884	20.042	3.6364	0.1	864.94
24885	20.134	3.7273	0.1	845.09
24886	19.858	3.6364	0.1	904.21
24887	19.95	3.7273	0.1	884.26
24888	19.673	3.6364	0.1	943.8
24889	19.766	3.7273	0.1	923.74
24890	19.489	3.6364	0.1	983.69
24891	19.581	3.7273	0.1	963.53
24892	19.305	3.6364	0.1	1023.9
24893	19.397	3.7273	0.1	1003.6
24894	19.121	3.6364	0.1	1064.3
24895	19.213	3.7273	0.1	1044.
24896	18.937	3.6364	0.1	1105.
24897	19.029	3.7273	0.1	1084.6
24898	18.753	3.6364	0.1	1146.
24899	18.845	3.7273	0.1	1125.5
24900	18.569	3.6364	0.1	1187.2
24901	18.661	3.7273	0.1	1166.6
24902	18.385	3.6364	0.1	1228.7
24903	18.477	3.7273	0.1	1208.
24904	18.201	3.6364	0.1	1270.4
24905	18.293	3.7273	0.1	1249.6
24906	18.016	3.6364	0.1	1312.3
24907	18.109	3.7273	0.1	1291.4
24908	17.832	3.6364	0.1	1354.4
24909	17.924	3.7273	0.1	1333.4
24910	17.648	3.6364	0.1	1396.7
24911	17.74	3.7273	0.1	1375.7
24912	17.464	3.6364	0.1	1439.3
24913	17.556	3.7273	0.1	1418.1
24914	17.28	3.6364	0.1	1482.
24915	17.372	3.7273	0.1	1460.8
24916	17.096	3.6364	0.1	1524.9
24917	17.188	3.7273	0.1	1503.6
24918	16.912	3.6364	0.1	1568.
24919	17.004	3.7273	0.1	1546.7
24920	16.728	3.6364	0.1	1611.2
24921	16.82	3.7273	0.1	1589.8
24922	16.544	3.6364	0.1	1654.6
24923	16.636	3.7273	0.1	1633.2
24924	16.359	3.6364	0.1	1698.1
24925	16.452	3.7273	0.1	1676.7
24926	16.175	3.6364	0.1	1741.8
24927	16.267	3.7273	0.1	1720.4
24928	15.991	3.6364	0.1	1785.7
24929	16.083	3.7273	0.1	1764.2
24930	15.807	3.6364	0.1	1829.6
24931	15.899	3.7273	0.1	1808.1
24932	15.623	3.6364	0.1	1873.7
24933	15.715	3.7273	0.1	1852.1
24934	15.439	3.6364	0.1	1917.9
24935	15.531	3.7273	0.1	1896.3
24936	15.255	3.6364	0.1	1962.2
24937	15.347	3.7273	0.1	1940.6
24938	15.071	3.6364	0.1	2006.5
24939	15.163	3.7273	0.1	1985.
24940	14.887	3.6364	0.1	2051.
24941	14.979	3.7273	0.1	2029.4
24942	14.703	3.6364	0.1	2095.6
24943	14.795	3.7273	0.1	2074.
24944	14.518	3.6364	0.1	2140.2
24945	14.61	3.7273	0.1	2118.6
24946	14.334	3.6364	0.1	2184.9
24947	14.426	3.7273	0.1	2163.4
24948	14.15	3.6364	0.1	2229.7
24949	14.242	3.7273	0.1	2208.2
24950	13.966	3.6364	0.1	2274.5
24951	14.058	3.7273	0.1	2253.
24952	13.782	3.6364	0.1	2319.4
24953	13.874	3.7273	0.1	2298.
24954	13.598	3.6364	0.1	2364.5
24955	13.69	3.7273	0.1	2343.1
24956	13.414	3.6364	0.1	2409.7
24957	13.506	3.7273	0.1	2388.3
24958	13.23	3.6364	0.1	2455.1
24959	13.322	3.7273	0.1	2433.6
24960	13.046	3.6364	0.1	2500.7
24961	13.138	3.7273	0.1	2479.2
24962	12.861	3.6364	0.1	2546.6
24963	12.953	3.7273	0.1	2525.
24964	12.677	3.6364	0.1	2592.9
24965	12.769	3.7273	0.1	2571.1
24966	12.493	3.6364	0.1	2639.9
24967	12.585	3.7273	0.1	2617.8
24968	12.309	3.6364	0.1	2687.6
24969	12.401	3.7273	0.1	2665.1
24970	12.125	3.6364	0.1	2736.4
24971	12.217	3.7273	0.1	2713.2
24972	11.941	3.6364	0.1	2786.6
24973	12.033	3.7273	0.1	2762.4
24974	11.757	3.6364	0.1	2838.6
24975	11.849	3.7273	0.1	2813.2
24976	11.573	3.6364	0.1	2893.1
24977	11.665	3.7273	0.1	2865.9
24978	11.389	3.6364	0.1	2950.9
24979	11.481	3.7273	0.1	2921.2
24980	11.204	3.6364	0.1	3012.9
24981	11.297	3.7273	0.1	2980.
24982	11.02	3.6364	0.1	3080.6
24983	11.112	3.7273	0.1	3043.2
24984	10.836	3.6364	0.1	3155.5
24985	10.928	3.7273	0.1	3112.2
24986	10.652	3.6364	0.1	3240.
24987	10.744	3.7273	0.1	3188.8
24988	10.468	3.6364	0.1	3336.9
24989	10.56	3.7273	0.1	3275.3
24990	10.284	3.6364	0.1	3450.2
24991	10.376	3.7273	0.1	3374.7
24992	10.1	3.6364	0.1	3584.9
24993	10.192	3.7273	0.1	3490.9
24994	9.9157	3.6364	0.1	3748.
24995	10.008	3.7273	0.1	3629.5
24996	9.7316	3.6364	0.1	3948.9
24997	9.8236	3.7273	0.1	3797.7
24998	9.5475	3.6364	0.1	4201.2
24999	9.6395	3.7273	0.1	4005.7
25000	9.3634	3.6364	0.1	4524.3
25001	9.4554	3.7273	0.1	4268.6
25002	9.1793	3.6364	0.1	4948.1
25003	9.2713	3.7273	0.1	4608.6
25004	8.9952	3.6364	0.1	5520.
25005	9.0872	3.7273	0.1	5061.
25006	8.811	3.6364	0.1	6322.1
25007	8.9031	3.7273	0.1	5687.2
25008	8.6269	3.6364	0.1	7484.8
25009	8.719	3.7273	0.1	6592.7
25010	8.4428	3.6364	0.1	9166.
25011	8.5349	3.7273	0.1	8023.1
25012	8.3508	3.7273	0.1	10393
25013	8.2587	3.6364	0.1	10906
25014	23.724	3.8182	0.1	198.38
25015	23.816	3.9091	0.1	187.99
25016	23.908	3.8182	0.1	184.29
25017	23.54	3.8182	0.1	218.01
25018	23.632	3.9091	0.1	205.34
25019	23.356	3.8182	0.1	241.4
25020	23.448	3.9091	0.1	227.07
25021	23.172	3.8182	0.1	267.59
25022	23.264	3.9091	0.1	252.07
25023	22.987	3.8182	0.1	295.9
25024	23.079	3.9091	0.1	279.5
25025	22.803	3.8182	0.1	325.85
25026	22.895	3.9091	0.1	308.79
25027	22.619	3.8182	0.1	357.1
25028	22.711	3.9091	0.1	339.54
25029	22.435	3.8182	0.1	389.41
25030	22.527	3.9091	0.1	371.47
25031	22.251	3.8182	0.1	422.62
25032	22.343	3.9091	0.1	404.37
25033	22.067	3.8182	0.1	456.61
25034	22.159	3.9091	0.1	438.1
25035	21.883	3.8182	0.1	491.26
25036	21.975	3.9091	0.1	472.54
25037	21.699	3.8182	0.1	526.53
25038	21.791	3.9091	0.1	507.63
25039	21.515	3.8182	0.1	562.34
25040	21.607	3.9091	0.1	543.29
25041	21.33	3.8182	0.1	598.66
25042	21.422	3.9091	0.1	579.47
25043	21.146	3.8182	0.1	635.45
25044	21.238	3.9091	0.1	616.13
25045	20.962	3.8182	0.1	672.66
25046	21.054	3.9091	0.1	653.23
25047	20.778	3.8182	0.1	710.29
25048	20.87	3.9091	0.1	690.75
25049	20.594	3.8182	0.1	748.3
25050	20.686	3.9091	0.1	728.65
25051	20.41	3.8182	0.1	786.68
25052	20.502	3.9091	0.1	766.93
25053	20.226	3.8182	0.1	825.41
25054	20.318	3.9091	0.1	805.56
25055	20.042	3.8182	0.1	864.46
25056	20.134	3.9091	0.1	844.52
25057	19.858	3.8182	0.1	903.84
25058	19.95	3.9091	0.1	883.8
25059	19.673	3.8182	0.1	943.52
25060	19.766	3.9091	0.1	923.39
25061	19.489	3.8182	0.1	983.49
25062	19.581	3.9091	0.1	963.27
25063	19.305	3.8182	0.1	1023.7
25064	19.397	3.9091	0.1	1003.4
25065	19.121	3.8182	0.1	1064.3
25066	19.213	3.9091	0.1	1043.9
25067	18.937	3.8182	0.1	1105.1
25068	19.029	3.9091	0.1	1084.6
25069	18.753	3.8182	0.1	1146.1
25070	18.845	3.9091	0.1	1125.5
25071	18.569	3.8182	0.1	1187.4
25072	18.661	3.9091	0.1	1166.7
25073	18.385	3.8182	0.1	1228.9
25074	18.477	3.9091	0.1	1208.2
25075	18.201	3.8182	0.1	1270.6
25076	18.293	3.9091	0.1	1249.8
25077	18.016	3.8182	0.1	1312.6
25078	18.109	3.9091	0.1	1291.7
25079	17.832	3.8182	0.1	1354.8
25080	17.924	3.9091	0.1	1333.8
25081	17.648	3.8182	0.1	1397.2
25082	17.74	3.9091	0.1	1376.1
25083	17.464	3.8182	0.1	1439.7
25084	17.556	3.9091	0.1	1418.7
25085	17.28	3.8182	0.1	1482.5
25086	17.372	3.9091	0.1	1461.4
25087	17.096	3.8182	0.1	1525.5
25088	17.188	3.9091	0.1	1504.3
25089	16.912	3.8182	0.1	1568.6
25090	17.004	3.9091	0.1	1547.3
25091	16.728	3.8182	0.1	1611.9
25092	16.82	3.9091	0.1	1590.6
25093	16.544	3.8182	0.1	1655.3
25094	16.636	3.9091	0.1	1634.
25095	16.359	3.8182	0.1	1698.9
25096	16.452	3.9091	0.1	1677.6
25097	16.175	3.8182	0.1	1742.7
25098	16.267	3.9091	0.1	1721.3
25099	15.991	3.8182	0.1	1786.6
25100	16.083	3.9091	0.1	1765.2
25101	15.807	3.8182	0.1	1830.6
25102	15.899	3.9091	0.1	1809.2
25103	15.623	3.8182	0.1	1874.8
25104	15.715	3.9091	0.1	1853.3
25105	15.439	3.8182	0.1	1919.
25106	15.531	3.9091	0.1	1897.5
25107	15.255	3.8182	0.1	1963.4
25108	15.347	3.9091	0.1	1941.9
25109	15.071	3.8182	0.1	2007.9
25110	15.163	3.9091	0.1	1986.4
25111	14.887	3.8182	0.1	2052.4
25112	14.979	3.9091	0.1	2031.
25113	14.703	3.8182	0.1	2097.1
25114	14.795	3.9091	0.1	2075.6
25115	14.518	3.8182	0.1	2141.8
25116	14.61	3.9091	0.1	2120.4
25117	14.334	3.8182	0.1	2186.7
25118	14.426	3.9091	0.1	2165.3
25119	14.15	3.8182	0.1	2231.6
25120	14.242	3.9091	0.1	2210.2
25121	13.966	3.8182	0.1	2276.6
25122	14.058	3.9091	0.1	2255.3
25123	13.782	3.8182	0.1	2321.7
25124	13.874	3.9091	0.1	2300.4
25125	13.598	3.8182	0.1	2366.9
25126	13.69	3.9091	0.1	2345.6
25127	13.414	3.8182	0.1	2412.2
25128	13.506	3.9091	0.1	2391.
25129	13.23	3.8182	0.1	2457.8
25130	13.322	3.9091	0.1	2436.5
25131	13.046	3.8182	0.1	2503.5
25132	13.138	3.9091	0.1	2482.2
25133	12.861	3.8182	0.1	2549.5
25134	12.953	3.9091	0.1	2528.2
25135	12.677	3.8182	0.1	2596.
25136	12.769	3.9091	0.1	2574.5
25137	12.493	3.8182	0.1	2643.
25138	12.585	3.9091	0.1	2621.2
25139	12.309	3.8182	0.1	2690.6
25140	12.401	3.9091	0.1	2668.4
25141	12.125	3.8182	0.1	2739.2
25142	12.217	3.9091	0.1	2716.4
25143	11.941	3.8182	0.1	2789.
25144	12.033	3.9091	0.1	2765.4
25145	11.757	3.8182	0.1	2840.5
25146	11.849	3.9091	0.1	2815.6
25147	11.573	3.8182	0.1	2894.
25148	11.665	3.9091	0.1	2867.5
25149	11.389	3.8182	0.1	2950.3
25150	11.481	3.9091	0.1	2921.5
25151	11.204	3.8182	0.1	3010.2
25152	11.297	3.9091	0.1	2978.3
25153	11.02	3.8182	0.1	3074.8
25154	11.112	3.9091	0.1	3038.8
25155	10.836	3.8182	0.1	3145.5
25156	10.928	3.9091	0.1	3104.
25157	10.652	3.8182	0.1	3224.1
25158	10.744	3.9091	0.1	3175.3
25159	10.468	3.8182	0.1	3313.
25160	10.56	3.9091	0.1	3254.5
25161	10.284	3.8182	0.1	3415.3
25162	10.376	3.9091	0.1	3344.
25163	10.1	3.8182	0.1	3535.4
25164	10.192	3.9091	0.1	3447.
25165	9.9157	3.8182	0.1	3678.9
25166	10.008	3.9091	0.1	3567.9
25167	9.7316	3.8182	0.1	3854.1
25168	9.8236	3.9091	0.1	3712.6
25169	9.5475	3.8182	0.1	4072.5
25170	9.6395	3.9091	0.1	3889.9
25171	9.3634	3.8182	0.1	4352.
25172	9.4554	3.9091	0.1	4112.5
25173	9.1793	3.8182	0.1	4720.8
25174	9.2713	3.9091	0.1	4400.7
25175	8.9952	3.8182	0.1	5228.9
25176	9.0872	3.9091	0.1	4786.6
25177	8.811	3.8182	0.1	5963.8
25178	8.9031	3.9091	0.1	5331.9
25179	8.6269	3.8182	0.1	7156.
25180	8.719	3.9091	0.1	6142.9
25181	8.4428	3.8182	0.1	9317.1
25182	8.5349	3.9091	0.1	7539.3
25183	8.3508	3.9091	0.1	10613
25184	8.2587	3.8182	0.1	12591
25185	23.724	4.	0.1	193.77
25186	23.816	4.0909	0.1	182.81
25187	23.908	4.	0.1	179.51
25188	23.54	4.	0.1	213.56
25189	23.632	4.0909	0.1	200.29
25190	23.356	4.	0.1	237.15
25191	23.448	4.0909	0.1	222.24
25192	23.172	4.	0.1	263.57
25193	23.264	4.0909	0.1	247.48
25194	22.987	4.	0.1	292.11
25195	23.079	4.0909	0.1	275.17
25196	22.803	4.	0.1	322.29
25197	22.895	4.0909	0.1	304.73
25198	22.619	4.	0.1	353.78
25199	22.711	4.0909	0.1	335.76
25200	22.435	4.	0.1	386.34
25201	22.527	4.0909	0.1	367.96
25202	22.251	4.	0.1	419.79
25203	22.343	4.0909	0.1	401.13
25204	22.067	4.	0.1	454.02
25205	22.159	4.0909	0.1	435.14
25206	21.883	4.	0.1	488.91
25207	21.975	4.0909	0.1	469.85
25208	21.699	4.	0.1	524.4
25209	21.791	4.0909	0.1	505.2
25210	21.515	4.	0.1	560.44
25211	21.607	4.0909	0.1	541.11
25212	21.33	4.	0.1	596.96
25213	21.422	4.0909	0.1	577.53
25214	21.146	4.	0.1	633.95
25215	21.238	4.0909	0.1	614.41
25216	20.962	4.	0.1	671.35
25217	21.054	4.0909	0.1	651.72
25218	20.778	4.	0.1	709.15
25219	20.87	4.0909	0.1	689.44
25220	20.594	4.	0.1	747.33
25221	20.686	4.0909	0.1	727.53
25222	20.41	4.	0.1	785.86
25223	20.502	4.0909	0.1	765.98
25224	20.226	4.	0.1	824.72
25225	20.318	4.0909	0.1	804.76
25226	20.042	4.	0.1	863.91
25227	20.134	4.0909	0.1	843.87
25228	19.858	4.	0.1	903.41
25229	19.95	4.0909	0.1	883.29
25230	19.673	4.	0.1	943.2
25231	19.766	4.0909	0.1	923.
25232	19.489	4.	0.1	983.27
25233	19.581	4.0909	0.1	963.
25234	19.305	4.	0.1	1023.6
25235	19.397	4.0909	0.1	1003.3
25236	19.121	4.	0.1	1064.2
25237	19.213	4.0909	0.1	1043.8
25238	18.937	4.	0.1	1105.1
25239	19.029	4.0909	0.1	1084.6
25240	18.753	4.	0.1	1146.2
25241	18.845	4.0909	0.1	1125.6
25242	18.569	4.	0.1	1187.6
25243	18.661	4.0909	0.1	1166.9
25244	18.385	4.	0.1	1229.2
25245	18.477	4.0909	0.1	1208.4
25246	18.201	4.	0.1	1271.
25247	18.293	4.0909	0.1	1250.2
25248	18.016	4.	0.1	1313.
25249	18.109	4.0909	0.1	1292.2
25250	17.832	4.	0.1	1355.2
25251	17.924	4.0909	0.1	1334.3
25252	17.648	4.	0.1	1397.7
25253	17.74	4.0909	0.1	1376.7
25254	17.464	4.	0.1	1440.3
25255	17.556	4.0909	0.1	1419.3
25256	17.28	4.	0.1	1483.2
25257	17.372	4.0909	0.1	1462.1
25258	17.096	4.	0.1	1526.2
25259	17.188	4.0909	0.1	1505.
25260	16.912	4.	0.1	1569.4
25261	17.004	4.0909	0.1	1548.2
25262	16.728	4.	0.1	1612.7
25263	16.82	4.0909	0.1	1591.5
25264	16.544	4.	0.1	1656.3
25265	16.636	4.0909	0.1	1635.
25266	16.359	4.	0.1	1699.9
25267	16.452	4.0909	0.1	1678.6
25268	16.175	4.	0.1	1743.8
25269	16.267	4.0909	0.1	1722.4
25270	15.991	4.	0.1	1787.7
25271	16.083	4.0909	0.1	1766.4
25272	15.807	4.	0.1	1831.9
25273	15.899	4.0909	0.1	1810.5
25274	15.623	4.	0.1	1876.1
25275	15.715	4.0909	0.1	1854.7
25276	15.439	4.	0.1	1920.5
25277	15.531	4.0909	0.1	1899.
25278	15.255	4.	0.1	1964.9
25279	15.347	4.0909	0.1	1943.5
25280	15.071	4.	0.1	2009.5
25281	15.163	4.0909	0.1	1988.1
25282	14.887	4.	0.1	2054.2
25283	14.979	4.0909	0.1	2032.8
25284	14.703	4.	0.1	2099.
25285	14.795	4.0909	0.1	2077.6
25286	14.518	4.	0.1	2143.9
25287	14.61	4.0909	0.1	2122.5
25288	14.334	4.	0.1	2188.9
25289	14.426	4.0909	0.1	2167.6
25290	14.15	4.	0.1	2233.9
25291	14.242	4.0909	0.1	2212.7
25292	13.966	4.	0.1	2279.1
25293	14.058	4.0909	0.1	2257.9
25294	13.782	4.	0.1	2324.4
25295	13.874	4.0909	0.1	2303.2
25296	13.598	4.	0.1	2369.8
25297	13.69	4.0909	0.1	2348.6
25298	13.414	4.	0.1	2415.3
25299	13.506	4.0909	0.1	2394.2
25300	13.23	4.	0.1	2461.
25301	13.322	4.0909	0.1	2439.9
25302	13.046	4.	0.1	2506.9
25303	13.138	4.0909	0.1	2485.8
25304	12.861	4.	0.1	2553.1
25305	12.953	4.0909	0.1	2531.9
25306	12.677	4.	0.1	2599.6
25307	12.769	4.0909	0.1	2578.3
25308	12.493	4.	0.1	2646.6
25309	12.585	4.0909	0.1	2625.1
25310	12.309	4.	0.1	2694.2
25311	12.401	4.0909	0.1	2672.3
25312	12.125	4.	0.1	2742.6
25313	12.217	4.0909	0.1	2720.1
25314	11.941	4.	0.1	2791.9
25315	12.033	4.0909	0.1	2768.7
25316	11.757	4.	0.1	2842.6
25317	11.849	4.0909	0.1	2818.3
25318	11.573	4.	0.1	2895.
25319	11.665	4.0909	0.1	2869.2
25320	11.389	4.	0.1	2949.6
25321	11.481	4.0909	0.1	2921.8
25322	11.204	4.	0.1	3007.
25323	11.297	4.0909	0.1	2976.4
25324	11.02	4.	0.1	3068.
25325	11.112	4.0909	0.1	3033.8
25326	10.836	4.	0.1	3133.8
25327	10.928	4.0909	0.1	3094.7
25328	10.652	4.	0.1	3205.7
25329	10.744	4.0909	0.1	3160.
25330	10.468	4.	0.1	3285.5
25331	10.56	4.0909	0.1	3231.1
25332	10.284	4.	0.1	3375.6
25333	10.376	4.0909	0.1	3309.8
25334	10.1	4.	0.1	3479.3
25335	10.192	4.0909	0.1	3398.3
25336	9.9157	4.	0.1	3601.1
25337	10.008	4.0909	0.1	3499.9
25338	9.7316	4.	0.1	3747.6
25339	9.8236	4.0909	0.1	3619.3
25340	9.5475	4.	0.1	3928.5
25341	9.6395	4.0909	0.1	3763.3
25342	9.3634	4.	0.1	4159.1
25343	9.4554	4.0909	0.1	3942.5
25344	9.1793	4.	0.1	4463.6
25345	9.2713	4.0909	0.1	4173.7
25346	8.9952	4.	0.1	4886.5
25347	9.0872	4.0909	0.1	4484.3
25348	8.811	4.	0.1	5509.7
25349	8.9031	4.0909	0.1	4926.3
25350	8.6269	4.	0.1	6537.8
25351	8.719	4.0909	0.1	5592.5
25352	8.4428	4.	0.1	8962.2
25353	8.5349	4.0909	0.1	6762.4
25354	8.3508	4.0909	0.1	9723.7
25355	8.2587	4.	0.1	15774
25356	23.724	4.1818	0.1	188.14
25357	23.816	4.2727	0.1	176.57
25358	23.908	4.1818	0.1	173.67
25359	23.54	4.1818	0.1	208.14
25360	23.632	4.2727	0.1	194.22
25361	23.356	4.1818	0.1	231.99
25362	23.448	4.2727	0.1	216.44
25363	23.172	4.1818	0.1	258.7
25364	23.264	4.2727	0.1	242.
25365	22.987	4.1818	0.1	287.54
25366	23.079	4.2727	0.1	270.02
25367	22.803	4.1818	0.1	318.03
25368	22.895	4.2727	0.1	299.93
25369	22.619	4.1818	0.1	349.82
25370	22.711	4.2727	0.1	331.3
25371	22.435	4.1818	0.1	382.69
25372	22.527	4.2727	0.1	363.85
25373	22.251	4.1818	0.1	416.45
25374	22.343	4.2727	0.1	397.37
25375	22.067	4.1818	0.1	450.97
25376	22.159	4.2727	0.1	431.71
25377	21.883	4.1818	0.1	486.15
25378	21.975	4.2727	0.1	466.76
25379	21.699	4.1818	0.1	521.93
25380	21.791	4.2727	0.1	502.42
25381	21.515	4.1818	0.1	558.23
25382	21.607	4.2727	0.1	538.63
25383	21.33	4.1818	0.1	595.01
25384	21.422	4.2727	0.1	575.32
25385	21.146	4.1818	0.1	632.23
25386	21.238	4.2727	0.1	612.47
25387	20.962	4.1818	0.1	669.85
25388	21.054	4.2727	0.1	650.03
25389	20.778	4.1818	0.1	707.86
25390	20.87	4.2727	0.1	687.98
25391	20.594	4.1818	0.1	746.23
25392	20.686	4.2727	0.1	726.28
25393	20.41	4.1818	0.1	784.93
25394	20.502	4.2727	0.1	764.92
25395	20.226	4.1818	0.1	823.96
25396	20.318	4.2727	0.1	803.89
25397	20.042	4.1818	0.1	863.3
25398	20.134	4.2727	0.1	843.17
25399	19.858	4.1818	0.1	902.94
25400	19.95	4.2727	0.1	882.74
25401	19.673	4.1818	0.1	942.86
25402	19.766	4.2727	0.1	922.6
25403	19.489	4.1818	0.1	983.05
25404	19.581	4.2727	0.1	962.73
25405	19.305	4.1818	0.1	1023.5
25406	19.397	4.2727	0.1	1003.1
25407	19.121	4.1818	0.1	1064.2
25408	19.213	4.2727	0.1	1043.8
25409	18.937	4.1818	0.1	1105.2
25410	19.029	4.2727	0.1	1084.7
25411	18.753	4.1818	0.1	1146.4
25412	18.845	4.2727	0.1	1125.8
25413	18.569	4.1818	0.1	1187.9
25414	18.661	4.2727	0.1	1167.2
25415	18.385	4.1818	0.1	1229.5
25416	18.477	4.2727	0.1	1208.8
25417	18.201	4.1818	0.1	1271.4
25418	18.293	4.2727	0.1	1250.6
25419	18.016	4.1818	0.1	1313.5
25420	18.109	4.2727	0.1	1292.7
25421	17.832	4.1818	0.1	1355.8
25422	17.924	4.2727	0.1	1334.9
25423	17.648	4.1818	0.1	1398.3
25424	17.74	4.2727	0.1	1377.4
25425	17.464	4.1818	0.1	1441.1
25426	17.556	4.2727	0.1	1420.
25427	17.28	4.1818	0.1	1484.
25428	17.372	4.2727	0.1	1462.9
25429	17.096	4.1818	0.1	1527.1
25430	17.188	4.2727	0.1	1505.9
25431	16.912	4.1818	0.1	1570.3
25432	17.004	4.2727	0.1	1549.2
25433	16.728	4.1818	0.1	1613.8
25434	16.82	4.2727	0.1	1592.5
25435	16.544	4.1818	0.1	1657.4
25436	16.636	4.2727	0.1	1636.1
25437	16.359	4.1818	0.1	1701.1
25438	16.452	4.2727	0.1	1679.8
25439	16.175	4.1818	0.1	1745.
25440	16.267	4.2727	0.1	1723.7
25441	15.991	4.1818	0.1	1789.1
25442	16.083	4.2727	0.1	1767.8
25443	15.807	4.1818	0.1	1833.3
25444	15.899	4.2727	0.1	1812.
25445	15.623	4.1818	0.1	1877.7
25446	15.715	4.2727	0.1	1856.3
25447	15.439	4.1818	0.1	1922.1
25448	15.531	4.2727	0.1	1900.8
25449	15.255	4.1818	0.1	1966.7
25450	15.347	4.2727	0.1	1945.4
25451	15.071	4.1818	0.1	2011.4
25452	15.163	4.2727	0.1	1990.1
25453	14.887	4.1818	0.1	2056.3
25454	14.979	4.2727	0.1	2035.
25455	14.703	4.1818	0.1	2101.2
25456	14.795	4.2727	0.1	2079.9
25457	14.518	4.1818	0.1	2146.3
25458	14.61	4.2727	0.1	2125.
25459	14.334	4.1818	0.1	2191.4
25460	14.426	4.2727	0.1	2170.2
25461	14.15	4.1818	0.1	2236.7
25462	14.242	4.2727	0.1	2215.5
25463	13.966	4.1818	0.1	2282.
25464	14.058	4.2727	0.1	2260.9
25465	13.782	4.1818	0.1	2327.5
25466	13.874	4.2727	0.1	2306.4
25467	13.598	4.1818	0.1	2373.1
25468	13.69	4.2727	0.1	2352.
25469	13.414	4.1818	0.1	2418.8
25470	13.506	4.2727	0.1	2397.8
25471	13.23	4.1818	0.1	2464.7
25472	13.322	4.2727	0.1	2443.7
25473	13.046	4.1818	0.1	2510.8
25474	13.138	4.2727	0.1	2489.8
25475	12.861	4.1818	0.1	2557.1
25476	12.953	4.2727	0.1	2536.1
25477	12.677	4.1818	0.1	2603.8
25478	12.769	4.2727	0.1	2582.6
25479	12.493	4.1818	0.1	2650.8
25480	12.585	4.2727	0.1	2629.4
25481	12.309	4.1818	0.1	2698.2
25482	12.401	4.2727	0.1	2676.6
25483	12.125	4.1818	0.1	2746.3
25484	12.217	4.2727	0.1	2724.2
25485	11.941	4.1818	0.1	2795.2
25486	12.033	4.2727	0.1	2772.4
25487	11.757	4.1818	0.1	2845.
25488	11.849	4.2727	0.1	2821.3
25489	11.573	4.1818	0.1	2896.
25490	11.665	4.2727	0.1	2871.1
25491	11.389	4.1818	0.1	2948.7
25492	11.481	4.2727	0.1	2922.
25493	11.204	4.1818	0.1	3003.3
25494	11.297	4.2727	0.1	2974.2
25495	11.02	4.1818	0.1	3060.5
25496	11.112	4.2727	0.1	3028.2
25497	10.836	4.1818	0.1	3120.9
25498	10.928	4.2727	0.1	3084.5
25499	10.652	4.1818	0.1	3185.5
25500	10.744	4.2727	0.1	3143.4
25501	10.468	4.1818	0.1	3255.4
25502	10.56	4.2727	0.1	3206.
25503	10.284	4.1818	0.1	3332.4
25504	10.376	4.2727	0.1	3273.1
25505	10.1	4.1818	0.1	3418.6
25506	10.192	4.2727	0.1	3346.4
25507	9.9157	4.1818	0.1	3517.5
25508	10.008	4.2727	0.1	3427.8
25509	9.7316	4.1818	0.1	3633.9
25510	9.8236	4.2727	0.1	3520.8
25511	9.5475	4.1818	0.1	3775.3
25512	9.6395	4.2727	0.1	3630.3
25513	9.3634	4.1818	0.1	3954.
25514	9.4554	4.2727	0.1	3764.2
25515	9.1793	4.1818	0.1	4189.7
25516	9.2713	4.2727	0.1	3935.8
25517	8.9952	4.1818	0.1	4517.2
25518	9.0872	4.2727	0.1	4166.4
25519	8.811	4.1818	0.1	5000.3
25520	8.9031	4.2727	0.1	4495.7
25521	8.6269	4.1818	0.1	5815.9
25522	8.719	4.2727	0.1	4987.
25523	8.4428	4.1818	0.1	7539.3
25524	8.5349	4.2727	0.1	5843.4
25525	8.3508	4.2727	0.1	7698.6
25526	8.2587	4.1818	0.1	7618.5
25527	23.724	4.3636	0.1	181.44
25528	23.816	4.4545	0.1	169.19
25529	23.908	4.3636	0.1	166.71
25530	23.54	4.3636	0.1	201.7
25531	23.632	4.4545	0.1	187.06
25532	23.356	4.3636	0.1	225.89
25533	23.448	4.4545	0.1	209.63
25534	23.172	4.3636	0.1	252.96
25535	23.264	4.4545	0.1	235.59
25536	22.987	4.3636	0.1	282.17
25537	23.079	4.4545	0.1	264.04
25538	22.803	4.3636	0.1	313.05
25539	22.895	4.4545	0.1	294.37
25540	22.619	4.3636	0.1	345.23
25541	22.711	4.4545	0.1	326.18
25542	22.435	4.3636	0.1	378.48
25543	22.527	4.4545	0.1	359.17
25544	22.251	4.3636	0.1	412.62
25545	22.343	4.4545	0.1	393.12
25546	22.067	4.3636	0.1	447.51
25547	22.159	4.4545	0.1	427.87
25548	21.883	4.3636	0.1	483.04
25549	21.975	4.4545	0.1	463.31
25550	21.699	4.3636	0.1	519.15
25551	21.791	4.4545	0.1	499.34
25552	21.515	4.3636	0.1	555.76
25553	21.607	4.4545	0.1	535.89
25554	21.33	4.3636	0.1	592.83
25555	21.422	4.4545	0.1	572.92
25556	21.146	4.3636	0.1	630.33
25557	21.238	4.4545	0.1	610.37
25558	20.962	4.3636	0.1	668.21
25559	21.054	4.4545	0.1	648.21
25560	20.778	4.3636	0.1	706.45
25561	20.87	4.4545	0.1	686.41
25562	20.594	4.3636	0.1	745.03
25563	20.686	4.4545	0.1	724.95
25564	20.41	4.3636	0.1	783.94
25565	20.502	4.4545	0.1	763.82
25566	20.226	4.3636	0.1	823.16
25567	20.318	4.4545	0.1	802.99
25568	20.042	4.3636	0.1	862.67
25569	20.134	4.4545	0.1	842.45
25570	19.858	4.3636	0.1	902.46
25571	19.95	4.4545	0.1	882.19
25572	19.673	4.3636	0.1	942.53
25573	19.766	4.4545	0.1	922.21
25574	19.489	4.3636	0.1	982.86
25575	19.581	4.4545	0.1	962.49
25576	19.305	4.3636	0.1	1023.4
25577	19.397	4.4545	0.1	1003.
25578	19.121	4.3636	0.1	1064.3
25579	19.213	4.4545	0.1	1043.8
25580	18.937	4.3636	0.1	1105.4
25581	19.029	4.4545	0.1	1084.8
25582	18.753	4.3636	0.1	1146.7
25583	18.845	4.4545	0.1	1126.1
25584	18.569	4.3636	0.1	1188.2
25585	18.661	4.4545	0.1	1167.5
25586	18.385	4.3636	0.1	1230.
25587	18.477	4.4545	0.1	1209.3
25588	18.201	4.3636	0.1	1271.9
25589	18.293	4.4545	0.1	1251.2
25590	18.016	4.3636	0.1	1314.1
25591	18.109	4.4545	0.1	1293.3
25592	17.832	4.3636	0.1	1356.5
25593	17.924	4.4545	0.1	1335.6
25594	17.648	4.3636	0.1	1399.1
25595	17.74	4.4545	0.1	1378.2
25596	17.464	4.3636	0.1	1441.9
25597	17.556	4.4545	0.1	1420.9
25598	17.28	4.3636	0.1	1484.9
25599	17.372	4.4545	0.1	1463.9
25600	17.096	4.3636	0.1	1528.1
25601	17.188	4.4545	0.1	1507.
25602	16.912	4.3636	0.1	1571.4
25603	17.004	4.4545	0.1	1550.3
25604	16.728	4.3636	0.1	1614.9
25605	16.82	4.4545	0.1	1593.8
25606	16.544	4.3636	0.1	1658.6
25607	16.636	4.4545	0.1	1637.4
25608	16.359	4.3636	0.1	1702.5
25609	16.452	4.4545	0.1	1681.3
25610	16.175	4.3636	0.1	1746.5
25611	16.267	4.4545	0.1	1725.3
25612	15.991	4.3636	0.1	1790.7
25613	16.083	4.4545	0.1	1769.4
25614	15.807	4.3636	0.1	1835.
25615	15.899	4.4545	0.1	1813.7
25616	15.623	4.3636	0.1	1879.5
25617	15.715	4.4545	0.1	1858.2
25618	15.439	4.3636	0.1	1924.1
25619	15.531	4.4545	0.1	1902.8
25620	15.255	4.3636	0.1	1968.8
25621	15.347	4.4545	0.1	1947.5
25622	15.071	4.3636	0.1	2013.6
25623	15.163	4.4545	0.1	1992.4
25624	14.887	4.3636	0.1	2058.6
25625	14.979	4.4545	0.1	2037.4
25626	14.703	4.3636	0.1	2103.7
25627	14.795	4.4545	0.1	2082.5
25628	14.518	4.3636	0.1	2148.9
25629	14.61	4.4545	0.1	2127.7
25630	14.334	4.3636	0.1	2194.3
25631	14.426	4.4545	0.1	2173.1
25632	14.15	4.3636	0.1	2239.7
25633	14.242	4.4545	0.1	2218.6
25634	13.966	4.3636	0.1	2285.3
25635	14.058	4.4545	0.1	2264.2
25636	13.782	4.3636	0.1	2331.
25637	13.874	4.4545	0.1	2309.9
25638	13.598	4.3636	0.1	2376.8
25639	13.69	4.4545	0.1	2355.8
25640	13.414	4.3636	0.1	2422.7
25641	13.506	4.4545	0.1	2401.8
25642	13.23	4.3636	0.1	2468.8
25643	13.322	4.4545	0.1	2447.9
25644	13.046	4.3636	0.1	2515.1
25645	13.138	4.4545	0.1	2494.2
25646	12.861	4.3636	0.1	2561.6
25647	12.953	4.4545	0.1	2540.6
25648	12.677	4.3636	0.1	2608.3
25649	12.769	4.4545	0.1	2587.2
25650	12.493	4.3636	0.1	2655.3
25651	12.585	4.4545	0.1	2634.1
25652	12.309	4.3636	0.1	2702.6
25653	12.401	4.4545	0.1	2681.2
25654	12.125	4.3636	0.1	2750.3
25655	12.217	4.4545	0.1	2728.5
25656	11.941	4.3636	0.1	2798.6
25657	12.033	4.4545	0.1	2776.3
25658	11.757	4.3636	0.1	2847.4
25659	11.849	4.4545	0.1	2824.4
25660	11.573	4.3636	0.1	2897.
25661	11.665	4.4545	0.1	2872.9
25662	11.389	4.3636	0.1	2947.6
25663	11.481	4.4545	0.1	2922.
25664	11.204	4.3636	0.1	2999.2
25665	11.297	4.4545	0.1	2971.8
25666	11.02	4.3636	0.1	3052.3
25667	11.112	4.4545	0.1	3022.2
25668	10.836	4.3636	0.1	3107.
25669	10.928	4.4545	0.1	3073.6
25670	10.652	4.3636	0.1	3164.
25671	10.744	4.4545	0.1	3125.9
25672	10.468	4.3636	0.1	3223.6
25673	10.56	4.4545	0.1	3179.6
25674	10.284	4.3636	0.1	3287.
25675	10.376	4.4545	0.1	3235.
25676	10.1	4.3636	0.1	3355.2
25677	10.192	4.4545	0.1	3292.6
25678	9.9157	4.3636	0.1	3430.4
25679	10.008	4.4545	0.1	3353.5
25680	9.7316	4.3636	0.1	3515.8
25681	9.8236	4.4545	0.1	3419.6
25682	9.5475	4.3636	0.1	3616.7
25683	9.6395	4.4545	0.1	3493.9
25684	9.3634	4.3636	0.1	3741.8
25685	9.4554	4.4545	0.1	3581.6
25686	9.1793	4.3636	0.1	3905.7
25687	9.2713	4.4545	0.1	3691.9
25688	8.9952	4.3636	0.1	4133.8
25689	9.0872	4.4545	0.1	3839.9
25690	8.811	4.3636	0.1	4464.6
25691	8.9031	4.4545	0.1	4052.1
25692	8.6269	4.3636	0.1	4976.2
25693	8.719	4.4545	0.1	4366.6
25694	8.4428	4.3636	0.1	5859.5
25695	8.5349	4.4545	0.1	4854.6
25696	8.3508	4.4545	0.1	5825.3
25697	8.2587	4.3636	0.1	5282.5
25698	23.724	4.5455	0.1	173.6
25699	23.816	4.6364	0.1	160.59
25700	23.908	4.5455	0.1	158.55
25701	23.54	4.5455	0.1	194.19
25702	23.632	4.6364	0.1	178.74
25703	23.356	4.5455	0.1	218.8
25704	23.448	4.6364	0.1	201.76
25705	23.172	4.5455	0.1	246.33
25706	23.264	4.6364	0.1	228.22
25707	22.987	4.5455	0.1	276.03
25708	23.079	4.6364	0.1	257.21
25709	22.803	4.5455	0.1	307.39
25710	22.895	4.6364	0.1	288.1
25711	22.619	4.5455	0.1	340.06
25712	22.711	4.6364	0.1	320.46
25713	22.435	4.5455	0.1	373.78
25714	22.527	4.6364	0.1	353.98
25715	22.251	4.5455	0.1	408.37
25716	22.343	4.6364	0.1	388.44
25717	22.067	4.5455	0.1	443.69
25718	22.159	4.6364	0.1	423.68
25719	21.883	4.5455	0.1	479.64
25720	21.975	4.6364	0.1	459.58
25721	21.699	4.5455	0.1	516.13
25722	21.791	4.6364	0.1	496.04
25723	21.515	4.5455	0.1	553.1
25724	21.607	4.6364	0.1	532.99
25725	21.33	4.5455	0.1	590.5
25726	21.422	4.6364	0.1	570.37
25727	21.146	4.5455	0.1	628.3
25728	21.238	4.6364	0.1	608.16
25729	20.962	4.5455	0.1	666.47
25730	21.054	4.6364	0.1	646.31
25731	20.778	4.5455	0.1	704.97
25732	20.87	4.6364	0.1	684.79
25733	20.594	4.5455	0.1	743.79
25734	20.686	4.6364	0.1	723.59
25735	20.41	4.5455	0.1	782.92
25736	20.502	4.6364	0.1	762.7
25737	20.226	4.5455	0.1	822.34
25738	20.318	4.6364	0.1	802.09
25739	20.042	4.5455	0.1	862.04
25740	20.134	4.6364	0.1	841.75
25741	19.858	4.5455	0.1	902.
25742	19.95	4.6364	0.1	881.68
25743	19.673	4.5455	0.1	942.23
25744	19.766	4.6364	0.1	921.86
25745	19.489	4.5455	0.1	982.7
25746	19.581	4.6364	0.1	962.3
25747	19.305	4.5455	0.1	1023.4
25748	19.397	4.6364	0.1	1003.
25749	19.121	4.5455	0.1	1064.4
25750	19.213	4.6364	0.1	1043.9
25751	18.937	4.5455	0.1	1105.6
25752	19.029	4.6364	0.1	1085.
25753	18.753	4.5455	0.1	1147.
25754	18.845	4.6364	0.1	1126.4
25755	18.569	4.5455	0.1	1188.6
25756	18.661	4.6364	0.1	1168.
25757	18.385	4.5455	0.1	1230.5
25758	18.477	4.6364	0.1	1209.8
25759	18.201	4.5455	0.1	1272.6
25760	18.293	4.6364	0.1	1251.8
25761	18.016	4.5455	0.1	1314.9
25762	18.109	4.6364	0.1	1294.1
25763	17.832	4.5455	0.1	1357.4
25764	17.924	4.6364	0.1	1336.5
25765	17.648	4.5455	0.1	1400.
25766	17.74	4.6364	0.1	1379.1
25767	17.464	4.5455	0.1	1442.9
25768	17.556	4.6364	0.1	1422.
25769	17.28	4.5455	0.1	1486.
25770	17.372	4.6364	0.1	1465.
25771	17.096	4.5455	0.1	1529.3
25772	17.188	4.6364	0.1	1508.2
25773	16.912	4.5455	0.1	1572.7
25774	17.004	4.6364	0.1	1551.6
25775	16.728	4.5455	0.1	1616.3
25776	16.82	4.6364	0.1	1595.2
25777	16.544	4.5455	0.1	1660.1
25778	16.636	4.6364	0.1	1638.9
25779	16.359	4.5455	0.1	1704.1
25780	16.452	4.6364	0.1	1682.9
25781	16.175	4.5455	0.1	1748.2
25782	16.267	4.6364	0.1	1727.
25783	15.991	4.5455	0.1	1792.5
25784	16.083	4.6364	0.1	1771.2
25785	15.807	4.5455	0.1	1836.9
25786	15.899	4.6364	0.1	1815.6
25787	15.623	4.5455	0.1	1881.5
25788	15.715	4.6364	0.1	1860.2
25789	15.439	4.5455	0.1	1926.2
25790	15.531	4.6364	0.1	1905.
25791	15.255	4.5455	0.1	1971.1
25792	15.347	4.6364	0.1	1949.8
25793	15.071	4.5455	0.1	2016.1
25794	15.163	4.6364	0.1	1994.9
25795	14.887	4.5455	0.1	2061.2
25796	14.979	4.6364	0.1	2040.
25797	14.703	4.5455	0.1	2106.5
25798	14.795	4.6364	0.1	2085.3
25799	14.518	4.5455	0.1	2151.9
25800	14.61	4.6364	0.1	2130.8
25801	14.334	4.5455	0.1	2197.5
25802	14.426	4.6364	0.1	2176.3
25803	14.15	4.5455	0.1	2243.1
25804	14.242	4.6364	0.1	2222.
25805	13.966	4.5455	0.1	2288.9
25806	14.058	4.6364	0.1	2267.8
25807	13.782	4.5455	0.1	2334.8
25808	13.874	4.6364	0.1	2313.8
25809	13.598	4.5455	0.1	2380.8
25810	13.69	4.6364	0.1	2359.9
25811	13.414	4.5455	0.1	2427.
25812	13.506	4.6364	0.1	2406.
25813	13.23	4.5455	0.1	2473.3
25814	13.322	4.6364	0.1	2452.4
25815	13.046	4.5455	0.1	2519.7
25816	13.138	4.6364	0.1	2498.8
25817	12.861	4.5455	0.1	2566.3
25818	12.953	4.6364	0.1	2545.4
25819	12.677	4.5455	0.1	2613.1
25820	12.769	4.6364	0.1	2592.1
25821	12.493	4.5455	0.1	2660.
25822	12.585	4.6364	0.1	2638.9
25823	12.309	4.5455	0.1	2707.1
25824	12.401	4.6364	0.1	2685.9
25825	12.125	4.5455	0.1	2754.5
25826	12.217	4.6364	0.1	2733.
25827	11.941	4.5455	0.1	2802.1
25828	12.033	4.6364	0.1	2780.1
25829	11.757	4.5455	0.1	2849.9
25830	11.849	4.6364	0.1	2827.4
25831	11.573	4.5455	0.1	2897.9
25832	11.665	4.6364	0.1	2874.7
25833	11.389	4.5455	0.1	2946.2
25834	11.481	4.6364	0.1	2921.9
25835	11.204	4.5455	0.1	2994.8
25836	11.297	4.6364	0.1	2969.
25837	11.02	4.5455	0.1	3043.5
25838	11.112	4.6364	0.1	3015.8
25839	10.836	4.5455	0.1	3092.5
25840	10.928	4.6364	0.1	3062.1
25841	10.652	4.5455	0.1	3141.6
25842	10.744	4.6364	0.1	3107.8
25843	10.468	4.5455	0.1	3190.8
25844	10.56	4.6364	0.1	3152.5
25845	10.284	4.5455	0.1	3240.4
25846	10.376	4.6364	0.1	3196.
25847	10.1	4.5455	0.1	3290.5
25848	10.192	4.6364	0.1	3238.1
25849	9.9157	4.5455	0.1	3341.8
25850	10.008	4.6364	0.1	3278.6
25851	9.7316	4.5455	0.1	3396.
25852	9.8236	4.6364	0.1	3317.8
25853	9.5475	4.5455	0.1	3455.8
25854	9.6395	4.6364	0.1	3356.9
25855	9.3634	4.5455	0.1	3526.4
25856	9.4554	4.6364	0.1	3398.4
25857	9.1793	4.5455	0.1	3617.1
25858	9.2713	4.6364	0.1	3447.3
25859	8.9952	4.5455	0.1	3742.5
25860	9.0872	4.6364	0.1	3512.8
25861	8.811	4.5455	0.1	3925.6
25862	8.9031	4.6364	0.1	3610.
25863	8.6269	4.5455	0.1	4190.
25864	8.719	4.6364	0.1	3762.
25865	8.4428	4.5455	0.1	4660.5
25866	8.5349	4.6364	0.1	3996.5
25867	8.3508	4.6364	0.1	4527.5
25868	8.2587	4.5455	0.1	4102.1
25869	23.724	4.7273	0.1	164.5
25870	23.816	4.8182	0.1	150.63
25871	23.908	4.7273	0.1	149.06
25872	23.54	4.7273	0.1	185.52
25873	23.632	4.8182	0.1	169.15
25874	23.356	4.7273	0.1	210.68
25875	23.448	4.8182	0.1	192.74
25876	23.172	4.7273	0.1	238.8
25877	23.264	4.8182	0.1	219.88
25878	22.987	4.7273	0.1	269.11
25879	23.079	4.8182	0.1	249.56
25880	22.803	4.7273	0.1	301.08
25881	22.895	4.8182	0.1	281.16
25882	22.619	4.7273	0.1	334.35
25883	22.711	4.8182	0.1	314.2
25884	22.435	4.7273	0.1	368.65
25885	22.527	4.8182	0.1	348.37
25886	22.251	4.7273	0.1	403.78
25887	22.343	4.8182	0.1	383.45
25888	22.067	4.7273	0.1	439.61
25889	22.159	4.8182	0.1	419.25
25890	21.883	4.7273	0.1	476.03
25891	21.975	4.8182	0.1	455.67
25892	21.699	4.7273	0.1	512.95
25893	21.791	4.8182	0.1	492.6
25894	21.515	4.7273	0.1	550.32
25895	21.607	4.8182	0.1	529.99
25896	21.33	4.7273	0.1	588.09
25897	21.422	4.8182	0.1	567.77
25898	21.146	4.7273	0.1	626.22
25899	21.238	4.8182	0.1	605.92
25900	20.962	4.7273	0.1	664.69
25901	21.054	4.8182	0.1	644.4
25902	20.778	4.7273	0.1	703.48
25903	20.87	4.8182	0.1	683.19
25904	20.594	4.7273	0.1	742.56
25905	20.686	4.8182	0.1	722.27
25906	20.41	4.7273	0.1	781.93
25907	20.502	4.8182	0.1	761.62
25908	20.226	4.7273	0.1	821.56
25909	20.318	4.8182	0.1	801.24
25910	20.042	4.7273	0.1	861.45
25911	20.134	4.8182	0.1	841.11
25912	19.858	4.7273	0.1	901.6
25913	19.95	4.8182	0.1	881.24
25914	19.673	4.7273	0.1	942.
25915	19.766	4.8182	0.1	921.6
25916	19.489	4.7273	0.1	982.63
25917	19.581	4.8182	0.1	962.2
25918	19.305	4.7273	0.1	1023.5
25919	19.397	4.8182	0.1	1003.
25920	19.121	4.7273	0.1	1064.6
25921	19.213	4.8182	0.1	1044.1
25922	18.937	4.7273	0.1	1105.9
25923	19.029	4.8182	0.1	1085.4
25924	18.753	4.7273	0.1	1147.5
25925	18.845	4.8182	0.1	1126.9
25926	18.569	4.7273	0.1	1189.2
25927	18.661	4.8182	0.1	1168.6
25928	18.385	4.7273	0.1	1231.2
25929	18.477	4.8182	0.1	1210.5
25930	18.201	4.7273	0.1	1273.4
25931	18.293	4.8182	0.1	1252.6
25932	18.016	4.7273	0.1	1315.7
25933	18.109	4.8182	0.1	1294.9
25934	17.832	4.7273	0.1	1358.3
25935	17.924	4.8182	0.1	1337.5
25936	17.648	4.7273	0.1	1401.1
25937	17.74	4.8182	0.1	1380.2
25938	17.464	4.7273	0.1	1444.1
25939	17.556	4.8182	0.1	1423.1
25940	17.28	4.7273	0.1	1487.2
25941	17.372	4.8182	0.1	1466.3
25942	17.096	4.7273	0.1	1530.6
25943	17.188	4.8182	0.1	1509.6
25944	16.912	4.7273	0.1	1574.1
25945	17.004	4.8182	0.1	1553.1
25946	16.728	4.7273	0.1	1617.8
25947	16.82	4.8182	0.1	1596.8
25948	16.544	4.7273	0.1	1661.7
25949	16.636	4.8182	0.1	1640.6
25950	16.359	4.7273	0.1	1705.8
25951	16.452	4.8182	0.1	1684.6
25952	16.175	4.7273	0.1	1750.
25953	16.267	4.8182	0.1	1728.9
25954	15.991	4.7273	0.1	1794.4
25955	16.083	4.8182	0.1	1773.2
25956	15.807	4.7273	0.1	1839.
25957	15.899	4.8182	0.1	1817.8
25958	15.623	4.7273	0.1	1883.7
25959	15.715	4.8182	0.1	1862.5
25960	15.439	4.7273	0.1	1928.6
25961	15.531	4.8182	0.1	1907.4
25962	15.255	4.7273	0.1	1973.6
25963	15.347	4.8182	0.1	1952.4
25964	15.071	4.7273	0.1	2018.8
25965	15.163	4.8182	0.1	1997.6
25966	14.887	4.7273	0.1	2064.1
25967	14.979	4.8182	0.1	2042.9
25968	14.703	4.7273	0.1	2109.6
25969	14.795	4.8182	0.1	2088.4
25970	14.518	4.7273	0.1	2155.2
25971	14.61	4.8182	0.1	2134.
25972	14.334	4.7273	0.1	2200.9
25973	14.426	4.8182	0.1	2179.8
25974	14.15	4.7273	0.1	2246.8
25975	14.242	4.8182	0.1	2225.7
25976	13.966	4.7273	0.1	2292.8
25977	14.058	4.8182	0.1	2271.7
25978	13.782	4.7273	0.1	2338.9
25979	13.874	4.8182	0.1	2317.9
25980	13.598	4.7273	0.1	2385.1
25981	13.69	4.8182	0.1	2364.2
25982	13.414	4.7273	0.1	2431.5
25983	13.506	4.8182	0.1	2410.6
25984	13.23	4.7273	0.1	2478.
25985	13.322	4.8182	0.1	2457.1
25986	13.046	4.7273	0.1	2524.5
25987	13.138	4.8182	0.1	2503.7
25988	12.861	4.7273	0.1	2571.2
25989	12.953	4.8182	0.1	2550.4
25990	12.677	4.7273	0.1	2618.
25991	12.769	4.8182	0.1	2597.1
25992	12.493	4.7273	0.1	2664.9
25993	12.585	4.8182	0.1	2643.9
25994	12.309	4.7273	0.1	2711.8
25995	12.401	4.8182	0.1	2690.7
25996	12.125	4.7273	0.1	2758.7
25997	12.217	4.8182	0.1	2737.4
25998	11.941	4.7273	0.1	2805.5
25999	12.033	4.8182	0.1	2784.
26000	11.757	4.7273	0.1	2852.2
26001	11.849	4.8182	0.1	2830.3
26002	11.573	4.7273	0.1	2898.6
26003	11.665	4.8182	0.1	2876.2
26004	11.389	4.7273	0.1	2944.6
26005	11.481	4.8182	0.1	2921.5
26006	11.204	4.7273	0.1	2990.
26007	11.297	4.8182	0.1	2965.8
26008	11.02	4.7273	0.1	3034.4
26009	11.112	4.8182	0.1	3008.9
26010	10.836	4.7273	0.1	3077.5
26011	10.928	4.8182	0.1	3050.3
26012	10.652	4.7273	0.1	3118.7
26013	10.744	4.8182	0.1	3089.3
26014	10.468	4.7273	0.1	3157.7
26015	10.56	4.8182	0.1	3125.3
26016	10.284	4.7273	0.1	3193.5
26017	10.376	4.8182	0.1	3157.2
26018	10.1	4.7273	0.1	3225.7
26019	10.192	4.8182	0.1	3184.
26020	9.9157	4.7273	0.1	3253.6
26021	10.008	4.8182	0.1	3204.6
26022	9.7316	4.7273	0.1	3276.9
26023	9.8236	4.8182	0.1	3217.8
26024	9.5475	4.7273	0.1	3296.2
26025	9.6395	4.8182	0.1	3222.8
26026	9.3634	4.7273	0.1	3313.2
26027	9.4554	4.8182	0.1	3219.5
26028	9.1793	4.7273	0.1	3332.3
26029	9.2713	4.8182	0.1	3209.4
26030	8.9952	4.7273	0.1	3361.4
26031	9.0872	4.8182	0.1	3196.9
26032	8.811	4.7273	0.1	3412.9
26033	8.9031	4.8182	0.1	3191.4
26034	8.6269	4.7273	0.1	3507.9
26035	8.719	4.8182	0.1	3208.7
26036	8.4428	4.7273	0.1	3755.2
26037	8.5349	4.8182	0.1	3280.4
26038	8.3508	4.8182	0.1	3593.4
26039	8.2587	4.7273	0.1	3230.2
26040	23.724	4.9091	0.1	154.04
26041	23.816	5.	0.1	139.15
26042	23.908	4.9091	0.1	138.09
26043	23.54	4.9091	0.1	175.61
26044	23.632	5.	0.1	158.17
26045	23.356	4.9091	0.1	201.49
26046	23.448	5.	0.1	182.53
26047	23.172	4.9091	0.1	230.39
26048	23.264	5.	0.1	210.56
26049	22.987	4.9091	0.1	261.48
26050	23.079	5.	0.1	241.16
26051	22.803	4.9091	0.1	294.23
26052	22.895	5.	0.1	273.65
26053	22.619	4.9091	0.1	328.23
26054	22.711	5.	0.1	307.53
26055	22.435	4.9091	0.1	363.21
26056	22.527	5.	0.1	342.48
26057	22.251	4.9091	0.1	398.97
26058	22.343	5.	0.1	378.26
26059	22.067	4.9091	0.1	435.37
26060	22.159	5.	0.1	414.71
26061	21.883	4.9091	0.1	472.31
26062	21.975	5.	0.1	451.7
26063	21.699	4.9091	0.1	509.71
26064	21.791	5.	0.1	489.15
26065	21.515	4.9091	0.1	547.51
26066	21.607	5.	0.1	527.
26067	21.33	4.9091	0.1	585.68
26068	21.422	5.	0.1	565.21
26069	21.146	4.9091	0.1	624.17
26070	21.238	5.	0.1	603.74
26071	20.962	4.9091	0.1	662.96
26072	21.054	5.	0.1	642.57
26073	20.778	4.9091	0.1	702.04
26074	20.87	5.	0.1	681.67
26075	20.594	4.9091	0.1	741.39
26076	20.686	5.	0.1	721.03
26077	20.41	4.9091	0.1	781.
26078	20.502	5.	0.1	760.64
26079	20.226	4.9091	0.1	820.86
26080	20.318	5.	0.1	800.5
26081	20.042	4.9091	0.1	860.96
26082	20.134	5.	0.1	840.59
26083	19.858	4.9091	0.1	901.3
26084	19.95	5.	0.1	880.91
26085	19.673	4.9091	0.1	941.87
26086	19.766	5.	0.1	921.46
26087	19.489	4.9091	0.1	982.66
26088	19.581	5.	0.1	962.22
26089	19.305	4.9091	0.1	1023.7
26090	19.397	5.	0.1	1003.2
26091	19.121	4.9091	0.1	1064.9
26092	19.213	5.	0.1	1044.4
26093	18.937	4.9091	0.1	1106.4
26094	19.029	5.	0.1	1085.8
26095	18.753	4.9091	0.1	1148.
26096	18.845	5.	0.1	1127.4
26097	18.569	4.9091	0.1	1189.9
26098	18.661	5.	0.1	1169.3
26099	18.385	4.9091	0.1	1232.
26100	18.477	5.	0.1	1211.3
26101	18.201	4.9091	0.1	1274.3
26102	18.293	5.	0.1	1253.5
26103	18.016	4.9091	0.1	1316.7
26104	18.109	5.	0.1	1296.
26105	17.832	4.9091	0.1	1359.4
26106	17.924	5.	0.1	1338.6
26107	17.648	4.9091	0.1	1402.3
26108	17.74	5.	0.1	1381.4
26109	17.464	4.9091	0.1	1445.4
26110	17.556	5.	0.1	1424.5
26111	17.28	4.9091	0.1	1488.6
26112	17.372	5.	0.1	1467.7
26113	17.096	4.9091	0.1	1532.1
26114	17.188	5.	0.1	1511.1
26115	16.912	4.9091	0.1	1575.7
26116	17.004	5.	0.1	1554.7
26117	16.728	4.9091	0.1	1619.6
26118	16.82	5.	0.1	1598.5
26119	16.544	4.9091	0.1	1663.6
26120	16.636	5.	0.1	1642.5
26121	16.359	4.9091	0.1	1707.7
26122	16.452	5.	0.1	1686.6
26123	16.175	4.9091	0.1	1752.1
26124	16.267	5.	0.1	1730.9
26125	15.991	4.9091	0.1	1796.6
26126	16.083	5.	0.1	1775.4
26127	15.807	4.9091	0.1	1841.3
26128	15.899	5.	0.1	1820.1
26129	15.623	4.9091	0.1	1886.2
26130	15.715	5.	0.1	1865.
26131	15.439	4.9091	0.1	1931.2
26132	15.531	5.	0.1	1910.
26133	15.255	4.9091	0.1	1976.4
26134	15.347	5.	0.1	1955.2
26135	15.071	4.9091	0.1	2021.7
26136	15.163	5.	0.1	2000.5
26137	14.887	4.9091	0.1	2067.2
26138	14.979	5.	0.1	2046.
26139	14.703	4.9091	0.1	2112.9
26140	14.795	5.	0.1	2091.7
26141	14.518	4.9091	0.1	2158.6
26142	14.61	5.	0.1	2137.5
26143	14.334	4.9091	0.1	2204.6
26144	14.426	5.	0.1	2183.5
26145	14.15	4.9091	0.1	2250.6
26146	14.242	5.	0.1	2229.6
26147	13.966	4.9091	0.1	2296.9
26148	14.058	5.	0.1	2275.8
26149	13.782	4.9091	0.1	2343.2
26150	13.874	5.	0.1	2322.2
26151	13.598	4.9091	0.1	2389.6
26152	13.69	5.	0.1	2368.7
26153	13.414	4.9091	0.1	2436.2
26154	13.506	5.	0.1	2415.3
26155	13.23	4.9091	0.1	2482.8
26156	13.322	5.	0.1	2461.9
26157	13.046	4.9091	0.1	2529.5
26158	13.138	5.	0.1	2508.7
26159	12.861	4.9091	0.1	2576.3
26160	12.953	5.	0.1	2555.5
26161	12.677	4.9091	0.1	2623.1
26162	12.769	5.	0.1	2602.2
26163	12.493	4.9091	0.1	2669.8
26164	12.585	5.	0.1	2648.9
26165	12.309	4.9091	0.1	2716.4
26166	12.401	5.	0.1	2695.5
26167	12.125	4.9091	0.1	2762.8
26168	12.217	5.	0.1	2741.8
26169	11.941	4.9091	0.1	2808.8
26170	12.033	5.	0.1	2787.7
26171	11.757	4.9091	0.1	2854.3
26172	11.849	5.	0.1	2833.
26173	11.573	4.9091	0.1	2899.1
26174	11.665	5.	0.1	2877.5
26175	11.389	4.9091	0.1	2942.7
26176	11.481	5.	0.1	2920.7
26177	11.204	4.9091	0.1	2984.8
26178	11.297	5.	0.1	2962.4
26179	11.02	4.9091	0.1	3024.9
26180	11.112	5.	0.1	3001.8
26181	10.836	4.9091	0.1	3062.2
26182	10.928	5.	0.1	3038.3
26183	10.652	4.9091	0.1	3095.8
26184	10.744	5.	0.1	3070.9
26185	10.468	4.9091	0.1	3124.7
26186	10.56	5.	0.1	3098.3
26187	10.284	4.9091	0.1	3147.4
26188	10.376	5.	0.1	3119.2
26189	10.1	4.9091	0.1	3162.4
26190	10.192	5.	0.1	3131.6
26191	9.9157	4.9091	0.1	3167.8
26192	10.008	5.	0.1	3133.4
26193	9.7316	4.9091	0.1	3161.8
26194	9.8236	5.	0.1	3122.3
26195	9.5475	4.9091	0.1	3142.7
26196	9.6395	5.	0.1	3095.6
26197	9.3634	4.9091	0.1	3109.5
26198	9.4554	5.	0.1	3051.
26199	9.1793	4.9091	0.1	3062.9
26200	9.2713	5.	0.1	2987.2
26201	8.9952	4.9091	0.1	3007.4
26202	9.0872	5.	0.1	2905.5
26203	8.811	4.9091	0.1	2953.7
26204	8.9031	5.	0.1	2812.8
26205	8.6269	4.9091	0.1	2926.5
26206	8.719	5.	0.1	2726.
26207	8.4428	4.9091	0.1	3034.
26208	8.5349	5.	0.1	2683.7
26209	8.3508	5.	0.1	2861.9
26210	8.2587	4.9091	0.1	2577.1
26211	23.724	5.0909	0.1	142.04
26212	23.816	5.1818	0.1	125.9
26213	23.908	5.0909	0.1	125.44
26214	23.54	5.0909	0.1	164.38
26215	23.632	5.1818	0.1	145.64
26216	23.356	5.0909	0.1	191.22
26217	23.448	5.1818	0.1	171.1
26218	23.172	5.0909	0.1	221.15
26219	23.264	5.1818	0.1	200.34
26220	22.987	5.0909	0.1	253.26
26221	23.079	5.1818	0.1	232.16
26222	22.803	5.0909	0.1	286.97
26223	22.895	5.1818	0.1	265.77
26224	22.619	5.0909	0.1	321.84
26225	22.711	5.1818	0.1	300.67
26226	22.435	5.0909	0.1	357.61
26227	22.527	5.1818	0.1	336.51
26228	22.251	5.0909	0.1	394.09
26229	22.343	5.1818	0.1	373.08
26230	22.067	5.0909	0.1	431.12
26231	22.159	5.1818	0.1	410.22
26232	21.883	5.0909	0.1	468.63
26233	21.975	5.1818	0.1	447.83
26234	21.699	5.0909	0.1	506.53
26235	21.791	5.1818	0.1	485.83
26236	21.515	5.0909	0.1	544.79
26237	21.607	5.1818	0.1	524.16
26238	21.33	5.0909	0.1	583.36
26239	21.422	5.1818	0.1	562.81
26240	21.146	5.0909	0.1	622.22
26241	21.238	5.1818	0.1	601.72
26242	20.962	5.0909	0.1	661.35
26243	21.054	5.1818	0.1	640.9
26244	20.778	5.0909	0.1	700.73
26245	20.87	5.1818	0.1	680.31
26246	20.594	5.0909	0.1	740.36
26247	20.686	5.1818	0.1	719.96
26248	20.41	5.0909	0.1	780.21
26249	20.502	5.1818	0.1	759.83
26250	20.226	5.0909	0.1	820.3
26251	20.318	5.1818	0.1	799.93
26252	20.042	5.0909	0.1	860.61
26253	20.134	5.1818	0.1	840.23
26254	19.858	5.0909	0.1	901.14
26255	19.95	5.1818	0.1	880.75
26256	19.673	5.0909	0.1	941.88
26257	19.766	5.1818	0.1	921.48
26258	19.489	5.0909	0.1	982.83
26259	19.581	5.1818	0.1	962.41
26260	19.305	5.0909	0.1	1024.
26261	19.397	5.1818	0.1	1003.5
26262	19.121	5.0909	0.1	1065.4
26263	19.213	5.1818	0.1	1044.9
26264	18.937	5.0909	0.1	1107.
26265	19.029	5.1818	0.1	1086.4
26266	18.753	5.0909	0.1	1148.7
26267	18.845	5.1818	0.1	1128.2
26268	18.569	5.0909	0.1	1190.7
26269	18.661	5.1818	0.1	1170.1
26270	18.385	5.0909	0.1	1232.9
26271	18.477	5.1818	0.1	1212.3
26272	18.201	5.0909	0.1	1275.3
26273	18.293	5.1818	0.1	1254.6
26274	18.016	5.0909	0.1	1317.9
26275	18.109	5.1818	0.1	1297.2
26276	17.832	5.0909	0.1	1360.7
26277	17.924	5.1818	0.1	1339.9
26278	17.648	5.0909	0.1	1403.7
26279	17.74	5.1818	0.1	1382.8
26280	17.464	5.0909	0.1	1446.8
26281	17.556	5.1818	0.1	1426.
26282	17.28	5.0909	0.1	1490.2
26283	17.372	5.1818	0.1	1469.3
26284	17.096	5.0909	0.1	1533.8
26285	17.188	5.1818	0.1	1512.8
26286	16.912	5.0909	0.1	1577.5
26287	17.004	5.1818	0.1	1556.5
26288	16.728	5.0909	0.1	1621.4
26289	16.82	5.1818	0.1	1600.4
26290	16.544	5.0909	0.1	1665.6
26291	16.636	5.1818	0.1	1644.5
26292	16.359	5.0909	0.1	1709.8
26293	16.452	5.1818	0.1	1688.7
26294	16.175	5.0909	0.1	1754.3
26295	16.267	5.1818	0.1	1733.2
26296	15.991	5.0909	0.1	1799.
26297	16.083	5.1818	0.1	1777.8
26298	15.807	5.0909	0.1	1843.8
26299	15.899	5.1818	0.1	1822.6
26300	15.623	5.0909	0.1	1888.8
26301	15.715	5.1818	0.1	1867.6
26302	15.439	5.0909	0.1	1934.
26303	15.531	5.1818	0.1	1912.8
26304	15.255	5.0909	0.1	1979.3
26305	15.347	5.1818	0.1	1958.1
26306	15.071	5.0909	0.1	2024.8
26307	15.163	5.1818	0.1	2003.6
26308	14.887	5.0909	0.1	2070.5
26309	14.979	5.1818	0.1	2049.3
26310	14.703	5.0909	0.1	2116.3
26311	14.795	5.1818	0.1	2095.2
26312	14.518	5.0909	0.1	2162.3
26313	14.61	5.1818	0.1	2141.2
26314	14.334	5.0909	0.1	2208.5
26315	14.426	5.1818	0.1	2187.3
26316	14.15	5.0909	0.1	2254.7
26317	14.242	5.1818	0.1	2233.6
26318	13.966	5.0909	0.1	2301.1
26319	14.058	5.1818	0.1	2280.1
26320	13.782	5.0909	0.1	2347.7
26321	13.874	5.1818	0.1	2326.6
26322	13.598	5.0909	0.1	2394.3
26323	13.69	5.1818	0.1	2373.3
26324	13.414	5.0909	0.1	2441.
26325	13.506	5.1818	0.1	2420.1
26326	13.23	5.0909	0.1	2487.8
26327	13.322	5.1818	0.1	2466.9
26328	13.046	5.0909	0.1	2534.6
26329	13.138	5.1818	0.1	2513.8
26330	12.861	5.0909	0.1	2581.4
26331	12.953	5.1818	0.1	2560.6
26332	12.677	5.0909	0.1	2628.1
26333	12.769	5.1818	0.1	2607.4
26334	12.493	5.0909	0.1	2674.7
26335	12.585	5.1818	0.1	2653.9
26336	12.309	5.0909	0.1	2720.9
26337	12.401	5.1818	0.1	2700.2
26338	12.125	5.0909	0.1	2766.7
26339	12.217	5.1818	0.1	2746.
26340	11.941	5.0909	0.1	2811.9
26341	12.033	5.1818	0.1	2791.2
26342	11.757	5.0909	0.1	2856.2
26343	11.849	5.1818	0.1	2835.5
26344	11.573	5.0909	0.1	2899.2
26345	11.665	5.1818	0.1	2878.5
26346	11.389	5.0909	0.1	2940.5
26347	11.481	5.1818	0.1	2919.7
26348	11.204	5.0909	0.1	2979.4
26349	11.297	5.1818	0.1	2958.7
26350	11.02	5.0909	0.1	3015.2
26351	11.112	5.1818	0.1	2994.5
26352	10.836	5.0909	0.1	3047.
26353	10.928	5.1818	0.1	3026.3
26354	10.652	5.0909	0.1	3073.3
26355	10.744	5.1818	0.1	3052.7
26356	10.468	5.0909	0.1	3092.6
26357	10.56	5.1818	0.1	3072.1
26358	10.284	5.0909	0.1	3103.
26359	10.376	5.1818	0.1	3082.7
26360	10.1	5.0909	0.1	3102.1
26361	10.192	5.1818	0.1	3081.9
26362	9.9157	5.0909	0.1	3086.9
26363	10.008	5.1818	0.1	3066.8
26364	9.7316	5.0909	0.1	3054.2
26365	9.8236	5.1818	0.1	3033.9
26366	9.5475	5.0909	0.1	3000.6
26367	9.6395	5.1818	0.1	2979.2
26368	9.3634	5.0909	0.1	2922.9
26369	9.4554	5.1818	0.1	2898.7
26370	9.1793	5.0909	0.1	2819.6
26371	9.2713	5.1818	0.1	2789.
26372	8.9952	5.0909	0.1	2693.
26373	9.0872	5.1818	0.1	2649.3
26374	8.811	5.0909	0.1	2554.8
26375	8.9031	5.1818	0.1	2484.8
26376	8.6269	5.0909	0.1	2435.3
26377	8.719	5.1818	0.1	2314.3
26378	8.4428	5.0909	0.1	2441.
26379	8.5349	5.1818	0.1	2184.
26380	8.3508	5.1818	0.1	2258.8
26381	8.2587	5.0909	0.1	2050.3
26382	23.724	5.2727	0.1	128.28
26383	23.816	5.3636	0.1	110.53
26384	23.908	5.2727	0.1	110.78
26385	23.54	5.2727	0.1	151.75
26386	23.632	5.3636	0.1	131.42
26387	23.356	5.2727	0.1	179.96
26388	23.448	5.3636	0.1	158.53
26389	23.172	5.2727	0.1	211.28
26390	23.264	5.3636	0.1	189.5
26391	22.987	5.2727	0.1	244.69
26392	23.079	5.3636	0.1	222.88
26393	22.803	5.2727	0.1	279.55
26394	22.895	5.3636	0.1	257.86
26395	22.619	5.2727	0.1	315.44
26396	22.711	5.3636	0.1	293.92
26397	22.435	5.2727	0.1	352.1
26398	22.527	5.3636	0.1	330.75
26399	22.251	5.2727	0.1	389.34
26400	22.343	5.3636	0.1	368.16
26401	22.067	5.2727	0.1	427.05
26402	22.159	5.3636	0.1	406.02
26403	21.883	5.2727	0.1	465.14
26404	21.975	5.3636	0.1	444.25
26405	21.699	5.2727	0.1	503.56
26406	21.791	5.3636	0.1	482.8
26407	21.515	5.2727	0.1	542.28
26408	21.607	5.3636	0.1	521.62
26409	21.33	5.2727	0.1	581.26
26410	21.422	5.3636	0.1	560.68
26411	21.146	5.2727	0.1	620.49
26412	21.238	5.3636	0.1	599.98
26413	20.962	5.2727	0.1	659.95
26414	21.054	5.3636	0.1	639.5
26415	20.778	5.2727	0.1	699.63
26416	20.87	5.3636	0.1	679.22
26417	20.594	5.2727	0.1	739.52
26418	20.686	5.3636	0.1	719.14
26419	20.41	5.2727	0.1	779.62
26420	20.502	5.3636	0.1	759.27
26421	20.226	5.2727	0.1	819.93
26422	20.318	5.3636	0.1	799.58
26423	20.042	5.2727	0.1	860.44
26424	20.134	5.3636	0.1	840.1
26425	19.858	5.2727	0.1	901.16
26426	19.95	5.3636	0.1	880.81
26427	19.673	5.2727	0.1	942.07
26428	19.766	5.3636	0.1	921.71
26429	19.489	5.2727	0.1	983.19
26430	19.581	5.3636	0.1	962.8
26431	19.305	5.2727	0.1	1024.5
26432	19.397	5.3636	0.1	1004.1
26433	19.121	5.2727	0.1	1066.
26434	19.213	5.3636	0.1	1045.6
26435	18.937	5.2727	0.1	1107.7
26436	19.029	5.3636	0.1	1087.2
26437	18.753	5.2727	0.1	1149.6
26438	18.845	5.3636	0.1	1129.1
26439	18.569	5.2727	0.1	1191.7
26440	18.661	5.3636	0.1	1171.2
26441	18.385	5.2727	0.1	1234.
26442	18.477	5.3636	0.1	1213.4
26443	18.201	5.2727	0.1	1276.5
26444	18.293	5.3636	0.1	1255.9
26445	18.016	5.2727	0.1	1319.2
26446	18.109	5.3636	0.1	1298.5
26447	17.832	5.2727	0.1	1362.1
26448	17.924	5.3636	0.1	1341.4
26449	17.648	5.2727	0.1	1405.2
26450	17.74	5.3636	0.1	1384.4
26451	17.464	5.2727	0.1	1448.5
26452	17.556	5.3636	0.1	1427.6
26453	17.28	5.2727	0.1	1491.9
26454	17.372	5.3636	0.1	1471.1
26455	17.096	5.2727	0.1	1535.6
26456	17.188	5.3636	0.1	1514.7
26457	16.912	5.2727	0.1	1579.5
26458	17.004	5.3636	0.1	1558.5
26459	16.728	5.2727	0.1	1623.5
26460	16.82	5.3636	0.1	1602.5
26461	16.544	5.2727	0.1	1667.7
26462	16.636	5.3636	0.1	1646.7
26463	16.359	5.2727	0.1	1712.1
26464	16.452	5.3636	0.1	1691.1
26465	16.175	5.2727	0.1	1756.7
26466	16.267	5.3636	0.1	1735.6
26467	15.991	5.2727	0.1	1801.5
26468	16.083	5.3636	0.1	1780.4
26469	15.807	5.2727	0.1	1846.5
26470	15.899	5.3636	0.1	1825.3
26471	15.623	5.2727	0.1	1891.6
26472	15.715	5.3636	0.1	1870.5
26473	15.439	5.2727	0.1	1937.
26474	15.531	5.3636	0.1	1915.8
26475	15.255	5.2727	0.1	1982.5
26476	15.347	5.3636	0.1	1961.3
26477	15.071	5.2727	0.1	2028.2
26478	15.163	5.3636	0.1	2007.
26479	14.887	5.2727	0.1	2074.
26480	14.979	5.3636	0.1	2052.8
26481	14.703	5.2727	0.1	2120.
26482	14.795	5.3636	0.1	2098.8
26483	14.518	5.2727	0.1	2166.2
26484	14.61	5.3636	0.1	2145.
26485	14.334	5.2727	0.1	2212.5
26486	14.426	5.3636	0.1	2191.4
26487	14.15	5.2727	0.1	2259.
26488	14.242	5.3636	0.1	2237.9
26489	13.966	5.2727	0.1	2305.6
26490	14.058	5.3636	0.1	2284.5
26491	13.782	5.2727	0.1	2352.3
26492	13.874	5.3636	0.1	2331.3
26493	13.598	5.2727	0.1	2399.1
26494	13.69	5.3636	0.1	2378.1
26495	13.414	5.2727	0.1	2446.
26496	13.506	5.3636	0.1	2425.1
26497	13.23	5.2727	0.1	2492.9
26498	13.322	5.3636	0.1	2472.
26499	13.046	5.2727	0.1	2539.8
26500	13.138	5.3636	0.1	2519.
26501	12.861	5.2727	0.1	2586.6
26502	12.953	5.3636	0.1	2565.8
26503	12.677	5.2727	0.1	2633.2
26504	12.769	5.3636	0.1	2612.5
26505	12.493	5.2727	0.1	2679.5
26506	12.585	5.3636	0.1	2658.9
26507	12.309	5.2727	0.1	2725.4
26508	12.401	5.3636	0.1	2704.8
26509	12.125	5.2727	0.1	2770.5
26510	12.217	5.3636	0.1	2750.1
26511	11.941	5.2727	0.1	2814.8
26512	12.033	5.3636	0.1	2794.6
26513	11.757	5.2727	0.1	2857.8
26514	11.849	5.3636	0.1	2837.7
26515	11.573	5.2727	0.1	2899.1
26516	11.665	5.3636	0.1	2879.2
26517	11.389	5.2727	0.1	2938.
26518	11.481	5.3636	0.1	2918.5
26519	11.204	5.2727	0.1	2973.8
26520	11.297	5.3636	0.1	2954.8
26521	11.02	5.2727	0.1	3005.5
26522	11.112	5.3636	0.1	2987.1
26523	10.836	5.2727	0.1	3032.
26524	10.928	5.3636	0.1	3014.4
26525	10.652	5.2727	0.1	3051.5
26526	10.744	5.3636	0.1	3035.1
26527	10.468	5.2727	0.1	3062.1
26528	10.56	5.3636	0.1	3047.2
26529	10.284	5.2727	0.1	3061.3
26530	10.376	5.3636	0.1	3048.5
26531	10.1	5.2727	0.1	3046.1
26532	10.192	5.3636	0.1	3036.
26533	9.9157	5.2727	0.1	3012.8
26534	10.008	5.3636	0.1	3006.2
26535	9.7316	5.2727	0.1	2957.2
26536	9.8236	5.3636	0.1	2954.7
26537	9.5475	5.2727	0.1	2874.5
26538	9.6395	5.3636	0.1	2876.8
26539	9.3634	5.2727	0.1	2760.1
26540	9.4554	5.3636	0.1	2767.3
26541	9.1793	5.2727	0.1	2610.6
26542	9.2713	5.3636	0.1	2621.2
26543	8.9952	5.2727	0.1	2426.8
26544	9.0872	5.3636	0.1	2435.9
26545	8.811	5.2727	0.1	2219.6
26546	8.9031	5.3636	0.1	2214.6
26547	8.6269	5.2727	0.1	2021.8
26548	8.719	5.3636	0.1	1974.3
26549	8.4428	5.2727	0.1	1938.4
26550	8.5349	5.3636	0.1	1763.5
26551	8.3508	5.3636	0.1	1741.1
26552	8.2587	5.2727	0.1	1603.2
26553	23.724	5.4545	0.1	112.53
26554	23.816	5.5455	0.1	92.535
26555	23.908	5.4545	0.1	93.641
26556	23.54	5.4545	0.1	137.77
26557	23.632	5.5455	0.1	115.55
26558	23.356	5.4545	0.1	167.99
26559	23.448	5.5455	0.1	145.33
26560	23.172	5.4545	0.1	201.19
26561	23.264	5.5455	0.1	178.69
26562	22.987	5.4545	0.1	236.2
26563	23.079	5.5455	0.1	214.01
26564	22.803	5.4545	0.1	272.4
26565	22.895	5.5455	0.1	250.53
26566	22.619	5.4545	0.1	309.4
26567	22.711	5.5455	0.1	287.82
26568	22.435	5.4545	0.1	346.98
26569	22.527	5.5455	0.1	325.66
26570	22.251	5.4545	0.1	385.
26571	22.343	5.5455	0.1	363.9
26572	22.067	5.4545	0.1	423.38
26573	22.159	5.5455	0.1	402.46
26574	21.883	5.4545	0.1	462.05
26575	21.975	5.5455	0.1	441.29
26576	21.699	5.4545	0.1	500.98
26577	21.791	5.5455	0.1	480.36
26578	21.515	5.4545	0.1	540.14
26579	21.607	5.5455	0.1	519.63
26580	21.33	5.4545	0.1	579.51
26581	21.422	5.5455	0.1	559.09
26582	21.146	5.4545	0.1	619.09
26583	21.238	5.5455	0.1	598.75
26584	20.962	5.4545	0.1	658.86
26585	21.054	5.5455	0.1	638.57
26586	20.778	5.4545	0.1	698.82
26587	20.87	5.5455	0.1	678.58
26588	20.594	5.4545	0.1	738.97
26589	20.686	5.5455	0.1	718.76
26590	20.41	5.4545	0.1	779.31
26591	20.502	5.5455	0.1	759.12
26592	20.226	5.4545	0.1	819.83
26593	20.318	5.5455	0.1	799.65
26594	20.042	5.4545	0.1	860.54
26595	20.134	5.5455	0.1	840.35
26596	19.858	5.4545	0.1	901.43
26597	19.95	5.5455	0.1	881.23
26598	19.673	5.4545	0.1	942.5
26599	19.766	5.5455	0.1	922.3
26600	19.489	5.4545	0.1	983.77
26601	19.581	5.5455	0.1	963.54
26602	19.305	5.4545	0.1	1025.2
26603	19.397	5.5455	0.1	1005.
26604	19.121	5.4545	0.1	1066.9
26605	19.213	5.5455	0.1	1046.6
26606	18.937	5.4545	0.1	1108.7
26607	19.029	5.5455	0.1	1088.4
26608	18.753	5.4545	0.1	1150.7
26609	18.845	5.5455	0.1	1130.4
26610	18.569	5.4545	0.1	1192.9
26611	18.661	5.5455	0.1	1172.5
26612	18.385	5.4545	0.1	1235.3
26613	18.477	5.5455	0.1	1214.9
26614	18.201	5.4545	0.1	1278.
26615	18.293	5.5455	0.1	1257.5
26616	18.016	5.4545	0.1	1320.7
26617	18.109	5.5455	0.1	1300.2
26618	17.832	5.4545	0.1	1363.7
26619	17.924	5.5455	0.1	1343.1
26620	17.648	5.4545	0.1	1406.9
26621	17.74	5.5455	0.1	1386.3
26622	17.464	5.4545	0.1	1450.3
26623	17.556	5.5455	0.1	1429.6
26624	17.28	5.4545	0.1	1493.9
26625	17.372	5.5455	0.1	1473.1
26626	17.096	5.4545	0.1	1537.6
26627	17.188	5.5455	0.1	1516.8
26628	16.912	5.4545	0.1	1581.6
26629	17.004	5.5455	0.1	1560.7
26630	16.728	5.4545	0.1	1625.7
26631	16.82	5.5455	0.1	1604.9
26632	16.544	5.4545	0.1	1670.1
26633	16.636	5.5455	0.1	1649.2
26634	16.359	5.4545	0.1	1714.6
26635	16.452	5.5455	0.1	1693.6
26636	16.175	5.4545	0.1	1759.3
26637	16.267	5.5455	0.1	1738.3
26638	15.991	5.4545	0.1	1804.3
26639	16.083	5.5455	0.1	1783.2
26640	15.807	5.4545	0.1	1849.4
26641	15.899	5.5455	0.1	1828.3
26642	15.623	5.4545	0.1	1894.7
26643	15.715	5.5455	0.1	1873.6
26644	15.439	5.4545	0.1	1940.2
26645	15.531	5.5455	0.1	1919.
26646	15.255	5.4545	0.1	1985.8
26647	15.347	5.5455	0.1	1964.7
26648	15.071	5.4545	0.1	2031.7
26649	15.163	5.5455	0.1	2010.5
26650	14.887	5.4545	0.1	2077.7
26651	14.979	5.5455	0.1	2056.6
26652	14.703	5.4545	0.1	2123.9
26653	14.795	5.5455	0.1	2102.8
26654	14.518	5.4545	0.1	2170.3
26655	14.61	5.5455	0.1	2149.1
26656	14.334	5.4545	0.1	2216.8
26657	14.426	5.5455	0.1	2195.7
26658	14.15	5.4545	0.1	2263.4
26659	14.242	5.5455	0.1	2242.4
26660	13.966	5.4545	0.1	2310.2
26661	14.058	5.5455	0.1	2289.2
26662	13.782	5.4545	0.1	2357.1
26663	13.874	5.5455	0.1	2336.1
26664	13.598	5.4545	0.1	2404.1
26665	13.69	5.5455	0.1	2383.1
26666	13.414	5.4545	0.1	2451.1
26667	13.506	5.5455	0.1	2430.2
26668	13.23	5.4545	0.1	2498.1
26669	13.322	5.5455	0.1	2477.2
26670	13.046	5.4545	0.1	2545.
26671	13.138	5.5455	0.1	2524.2
26672	12.861	5.4545	0.1	2591.7
26673	12.953	5.5455	0.1	2571.1
26674	12.677	5.4545	0.1	2638.2
26675	12.769	5.5455	0.1	2617.7
26676	12.493	5.4545	0.1	2684.3
26677	12.585	5.5455	0.1	2663.8
26678	12.309	5.4545	0.1	2729.7
26679	12.401	5.5455	0.1	2709.4
26680	12.125	5.4545	0.1	2774.2
26681	12.217	5.5455	0.1	2754.2
26682	11.941	5.4545	0.1	2817.5
26683	12.033	5.5455	0.1	2797.8
26684	11.757	5.4545	0.1	2859.2
26685	11.849	5.5455	0.1	2839.9
26686	11.573	5.4545	0.1	2898.7
26687	11.665	5.5455	0.1	2879.9
26688	11.389	5.4545	0.1	2935.3
26689	11.481	5.5455	0.1	2917.2
26690	11.204	5.4545	0.1	2968.1
26691	11.297	5.5455	0.1	2950.9
26692	11.02	5.4545	0.1	2996.
26693	11.112	5.5455	0.1	2980.
26694	10.836	5.4545	0.1	3017.5
26695	10.928	5.5455	0.1	3003.
26696	10.652	5.4545	0.1	3030.8
26697	10.744	5.5455	0.1	3018.4
26698	10.468	5.4545	0.1	3033.6
26699	10.56	5.5455	0.1	3024.
26700	10.284	5.4545	0.1	3023.
26701	10.376	5.5455	0.1	3017.2
26702	10.1	5.4545	0.1	2995.6
26703	10.192	5.5455	0.1	2994.7
26704	9.9157	5.4545	0.1	2947.3
26705	10.008	5.5455	0.1	2952.6
26706	9.7316	5.4545	0.1	2873.1
26707	9.8236	5.5455	0.1	2886.3
26708	9.5475	5.4545	0.1	2767.6
26709	9.6395	5.5455	0.1	2790.5
26710	9.3634	5.4545	0.1	2625.1
26711	9.4554	5.5455	0.1	2659.4
26712	9.1793	5.4545	0.1	2441.1
26713	9.2713	5.5455	0.1	2487.3
26714	8.9952	5.4545	0.1	2214.1
26715	9.0872	5.5455	0.1	2270.
26716	8.811	5.4545	0.1	1951.7
26717	8.9031	5.5455	0.1	2007.7
26718	8.6269	5.4545	0.1	1682.7
26719	8.719	5.5455	0.1	1711.2
26720	8.4428	5.4545	0.1	1506.3
26721	8.5349	5.5455	0.1	1420.6
26722	8.3508	5.5455	0.1	1285.4
26723	8.2587	5.4545	0.1	1207.2
26724	23.724	5.6364	0.1	94.689
26725	23.816	5.7273	0.1	71.618
26726	23.908	5.6364	0.1	73.26
26727	23.54	5.6364	0.1	123.06
26728	23.632	5.7273	0.1	99.859
26729	23.356	5.6364	0.1	156.27
26730	23.448	5.7273	0.1	134.08
26731	23.172	5.6364	0.1	191.83
26732	23.264	5.7273	0.1	170.52
26733	22.987	5.6364	0.1	228.65
26734	23.079	5.7273	0.1	208.03
26735	22.803	5.6364	0.1	266.24
26736	22.895	5.7273	0.1	246.15
26737	22.619	5.6364	0.1	304.34
26738	22.711	5.7273	0.1	284.67
26739	22.435	5.6364	0.1	342.81
26740	22.527	5.7273	0.1	323.47
26741	22.251	5.6364	0.1	381.57
26742	22.343	5.7273	0.1	362.5
26743	22.067	5.6364	0.1	420.57
26744	22.159	5.7273	0.1	401.71
26745	21.883	5.6364	0.1	459.77
26746	21.975	5.7273	0.1	441.08
26747	21.699	5.6364	0.1	499.16
26748	21.791	5.7273	0.1	480.61
26749	21.515	5.6364	0.1	538.73
26750	21.607	5.7273	0.1	520.28
26751	21.33	5.6364	0.1	578.46
26752	21.422	5.7273	0.1	560.09
26753	21.146	5.6364	0.1	618.35
26754	21.238	5.7273	0.1	600.05
26755	20.962	5.6364	0.1	658.41
26756	21.054	5.7273	0.1	640.15
26757	20.778	5.6364	0.1	698.62
26758	20.87	5.7273	0.1	680.39
26759	20.594	5.6364	0.1	739.
26760	20.686	5.7273	0.1	720.78
26761	20.41	5.6364	0.1	779.55
26762	20.502	5.7273	0.1	761.32
26763	20.226	5.6364	0.1	820.26
26764	20.318	5.7273	0.1	802.01
26765	20.042	5.6364	0.1	861.14
26766	20.134	5.7273	0.1	842.87
26767	19.858	5.6364	0.1	902.19
26768	19.95	5.7273	0.1	883.89
26769	19.673	5.6364	0.1	943.42
26770	19.766	5.7273	0.1	925.07
26771	19.489	5.6364	0.1	984.82
26772	19.581	5.7273	0.1	966.42
26773	19.305	5.6364	0.1	1026.4
26774	19.397	5.7273	0.1	1007.9
26775	19.121	5.6364	0.1	1068.2
26776	19.213	5.7273	0.1	1049.6
26777	18.937	5.6364	0.1	1110.1
26778	19.029	5.7273	0.1	1091.5
26779	18.753	5.6364	0.1	1152.2
26780	18.845	5.7273	0.1	1133.6
26781	18.569	5.6364	0.1	1194.6
26782	18.661	5.7273	0.1	1175.8
26783	18.385	5.6364	0.1	1237.1
26784	18.477	5.7273	0.1	1218.3
26785	18.201	5.6364	0.1	1279.8
26786	18.293	5.7273	0.1	1260.9
26787	18.016	5.6364	0.1	1322.6
26788	18.109	5.7273	0.1	1303.7
26789	17.832	5.6364	0.1	1365.7
26790	17.924	5.7273	0.1	1346.7
26791	17.648	5.6364	0.1	1409.
26792	17.74	5.7273	0.1	1389.9
26793	17.464	5.6364	0.1	1452.5
26794	17.556	5.7273	0.1	1433.3
26795	17.28	5.6364	0.1	1496.1
26796	17.372	5.7273	0.1	1476.8
26797	17.096	5.6364	0.1	1540.
26798	17.188	5.7273	0.1	1520.6
26799	16.912	5.6364	0.1	1584.1
26800	17.004	5.7273	0.1	1564.6
26801	16.728	5.6364	0.1	1628.3
26802	16.82	5.7273	0.1	1608.8
26803	16.544	5.6364	0.1	1672.8
26804	16.636	5.7273	0.1	1653.2
26805	16.359	5.6364	0.1	1717.4
26806	16.452	5.7273	0.1	1697.7
26807	16.175	5.6364	0.1	1762.3
26808	16.267	5.7273	0.1	1742.5
26809	15.991	5.6364	0.1	1807.3
26810	16.083	5.7273	0.1	1787.5
26811	15.807	5.6364	0.1	1852.6
26812	15.899	5.7273	0.1	1832.7
26813	15.623	5.6364	0.1	1898.
26814	15.715	5.7273	0.1	1878.1
26815	15.439	5.6364	0.1	1943.6
26816	15.531	5.7273	0.1	1923.6
26817	15.255	5.6364	0.1	1989.5
26818	15.347	5.7273	0.1	1969.4
26819	15.071	5.6364	0.1	2035.5
26820	15.163	5.7273	0.1	2015.4
26821	14.887	5.6364	0.1	2081.7
26822	14.979	5.7273	0.1	2061.5
26823	14.703	5.6364	0.1	2128.
26824	14.795	5.7273	0.1	2107.9
26825	14.518	5.6364	0.1	2174.6
26826	14.61	5.7273	0.1	2154.4
26827	14.334	5.6364	0.1	2221.3
26828	14.426	5.7273	0.1	2201.1
26829	14.15	5.6364	0.1	2268.1
26830	14.242	5.7273	0.1	2247.9
26831	13.966	5.6364	0.1	2315.1
26832	14.058	5.7273	0.1	2294.9
26833	13.782	5.6364	0.1	2362.1
26834	13.874	5.7273	0.1	2341.9
26835	13.598	5.6364	0.1	2409.2
26836	13.69	5.7273	0.1	2389.
26837	13.414	5.6364	0.1	2456.4
26838	13.506	5.7273	0.1	2436.2
26839	13.23	5.6364	0.1	2503.4
26840	13.322	5.7273	0.1	2483.3
26841	13.046	5.6364	0.1	2550.3
26842	13.138	5.7273	0.1	2530.3
26843	12.861	5.6364	0.1	2597.
26844	12.953	5.7273	0.1	2577.1
26845	12.677	5.6364	0.1	2643.3
26846	12.769	5.7273	0.1	2623.5
26847	12.493	5.6364	0.1	2689.1
26848	12.585	5.7273	0.1	2669.4
26849	12.309	5.6364	0.1	2734.
26850	12.401	5.7273	0.1	2714.6
26851	12.125	5.6364	0.1	2777.8
26852	12.217	5.7273	0.1	2758.8
26853	11.941	5.6364	0.1	2820.2
26854	12.033	5.7273	0.1	2801.6
26855	11.757	5.6364	0.1	2860.6
26856	11.849	5.7273	0.1	2842.5
26857	11.573	5.6364	0.1	2898.4
26858	11.665	5.7273	0.1	2881.
26859	11.389	5.6364	0.1	2932.7
26860	11.481	5.7273	0.1	2916.4
26861	11.204	5.6364	0.1	2962.7
26862	11.297	5.7273	0.1	2947.7
26863	11.02	5.6364	0.1	2987.
26864	11.112	5.7273	0.1	2973.7
26865	10.836	5.6364	0.1	3004.
26866	10.928	5.7273	0.1	2993.
26867	10.652	5.6364	0.1	3011.6
26868	10.744	5.7273	0.1	3003.7
26869	10.468	5.6364	0.1	3007.6
26870	10.56	5.7273	0.1	3003.5
26871	10.284	5.6364	0.1	2988.7
26872	10.376	5.7273	0.1	2989.8
26873	10.1	5.6364	0.1	2951.3
26874	10.192	5.7273	0.1	2959.1
26875	9.9157	5.6364	0.1	2891.1
26876	10.008	5.7273	0.1	2907.5
26877	9.7316	5.6364	0.1	2802.9
26878	9.8236	5.7273	0.1	2830.3
26879	9.5475	5.6364	0.1	2681.
26880	9.6395	5.7273	0.1	2722.2
26881	9.3634	5.6364	0.1	2519.6
26882	9.4554	5.7273	0.1	2577.4
26883	9.1793	5.6364	0.1	2313.3
26884	9.2713	5.7273	0.1	2390.4
26885	8.9952	5.6364	0.1	2058.6
26886	9.0872	5.7273	0.1	2156.
26887	8.811	5.6364	0.1	1757.7
26888	8.9031	5.7273	0.1	1871.9
26889	8.6269	5.6364	0.1	1427.4
26890	8.719	5.7273	0.1	1541.
26891	8.4428	5.6364	0.1	1143.9
26892	8.5349	5.7273	0.1	1182.5
26893	8.3508	5.7273	0.1	898.42
26894	8.2587	5.6364	0.1	844.02
26895	23.724	5.8182	0.1	77.245
26896	23.816	5.9091	0.1	48.808
26897	23.908	5.8182	0.1	48.434
26898	23.54	5.8182	0.1	111.97
26899	23.632	5.9091	0.1	82.412
26900	23.356	5.8182	0.1	149.37
26901	23.448	5.9091	0.1	118.63
26902	23.172	5.8182	0.1	187.63
26903	23.264	5.9091	0.1	156.
26904	22.987	5.8182	0.1	226.31
26905	23.079	5.9091	0.1	193.99
26906	22.803	5.8182	0.1	265.27
26907	22.895	5.9091	0.1	232.43
26908	22.619	5.8182	0.1	304.41
26909	22.711	5.9091	0.1	271.19
26910	22.435	5.8182	0.1	343.71
26911	22.527	5.9091	0.1	310.22
26912	22.251	5.8182	0.1	383.14
26913	22.343	5.9091	0.1	349.46
26914	22.067	5.8182	0.1	422.7
26915	22.159	5.9091	0.1	388.89
26916	21.883	5.8182	0.1	462.37
26917	21.975	5.9091	0.1	428.49
26918	21.699	5.8182	0.1	502.15
26919	21.791	5.9091	0.1	468.26
26920	21.515	5.8182	0.1	542.05
26921	21.607	5.9091	0.1	508.17
26922	21.33	5.8182	0.1	582.07
26923	21.422	5.9091	0.1	548.23
26924	21.146	5.8182	0.1	622.21
26925	21.238	5.9091	0.1	588.44
26926	20.962	5.8182	0.1	662.48
26927	21.054	5.9091	0.1	628.8
26928	20.778	5.8182	0.1	702.88
26929	20.87	5.9091	0.1	669.3
26930	20.594	5.8182	0.1	743.42
26931	20.686	5.9091	0.1	709.95
26932	20.41	5.8182	0.1	784.1
26933	20.502	5.9091	0.1	750.76
26934	20.226	5.8182	0.1	824.93
26935	20.318	5.9091	0.1	791.72
26936	20.042	5.8182	0.1	865.91
26937	20.134	5.9091	0.1	832.83
26938	19.858	5.8182	0.1	907.05
26939	19.95	5.9091	0.1	874.11
26940	19.673	5.8182	0.1	948.35
26941	19.766	5.9091	0.1	915.56
26942	19.489	5.8182	0.1	989.82
26943	19.581	5.9091	0.1	957.17
26944	19.305	5.8182	0.1	1031.5
26945	19.397	5.9091	0.1	998.95
26946	19.121	5.8182	0.1	1073.3
26947	19.213	5.9091	0.1	1040.9
26948	18.937	5.8182	0.1	1115.3
26949	19.029	5.9091	0.1	1083.
26950	18.753	5.8182	0.1	1157.4
26951	18.845	5.9091	0.1	1125.4
26952	18.569	5.8182	0.1	1199.8
26953	18.661	5.9091	0.1	1167.9
26954	18.385	5.8182	0.1	1242.3
26955	18.477	5.9091	0.1	1210.5
26956	18.201	5.8182	0.1	1285.
26957	18.293	5.9091	0.1	1253.4
26958	18.016	5.8182	0.1	1327.9
26959	18.109	5.9091	0.1	1296.5
26960	17.832	5.8182	0.1	1371.
26961	17.924	5.9091	0.1	1339.7
26962	17.648	5.8182	0.1	1414.4
26963	17.74	5.9091	0.1	1383.2
26964	17.464	5.8182	0.1	1457.8
26965	17.556	5.9091	0.1	1426.8
26966	17.28	5.8182	0.1	1501.5
26967	17.372	5.9091	0.1	1470.7
26968	17.096	5.8182	0.1	1545.4
26969	17.188	5.9091	0.1	1514.7
26970	16.912	5.8182	0.1	1589.5
26971	17.004	5.9091	0.1	1559.
26972	16.728	5.8182	0.1	1633.8
26973	16.82	5.9091	0.1	1603.4
26974	16.544	5.8182	0.1	1678.3
26975	16.636	5.9091	0.1	1648.1
26976	16.359	5.8182	0.1	1723.
26977	16.452	5.9091	0.1	1693.
26978	16.175	5.8182	0.1	1767.9
26979	16.267	5.9091	0.1	1738.
26980	15.991	5.8182	0.1	1813.
26981	16.083	5.9091	0.1	1783.3
26982	15.807	5.8182	0.1	1858.3
26983	15.899	5.9091	0.1	1828.8
26984	15.623	5.8182	0.1	1903.9
26985	15.715	5.9091	0.1	1874.5
26986	15.439	5.8182	0.1	1949.6
26987	15.531	5.9091	0.1	1920.4
26988	15.255	5.8182	0.1	1995.5
26989	15.347	5.9091	0.1	1966.5
26990	15.071	5.8182	0.1	2041.6
26991	15.163	5.9091	0.1	2012.8
26992	14.887	5.8182	0.1	2087.9
26993	14.979	5.9091	0.1	2059.3
26994	14.703	5.8182	0.1	2134.4
26995	14.795	5.9091	0.1	2106.
26996	14.518	5.8182	0.1	2181.
26997	14.61	5.9091	0.1	2152.9
26998	14.334	5.8182	0.1	2227.8
26999	14.426	5.9091	0.1	2200.
27000	14.15	5.8182	0.1	2274.8
27001	14.242	5.9091	0.1	2247.2
27002	13.966	5.8182	0.1	2321.8
27003	14.058	5.9091	0.1	2294.5
27004	13.782	5.8182	0.1	2368.9
27005	13.874	5.9091	0.1	2341.9
27006	13.598	5.8182	0.1	2416.1
27007	13.69	5.9091	0.1	2389.4
27008	13.414	5.8182	0.1	2463.3
27009	13.506	5.9091	0.1	2436.8
27010	13.23	5.8182	0.1	2510.3
27011	13.322	5.9091	0.1	2484.2
27012	13.046	5.8182	0.1	2557.2
27013	13.138	5.9091	0.1	2531.4
27014	12.861	5.8182	0.1	2603.7
27015	12.953	5.9091	0.1	2578.4
27016	12.677	5.8182	0.1	2649.7
27017	12.769	5.9091	0.1	2624.9
27018	12.493	5.8182	0.1	2695.1
27019	12.585	5.9091	0.1	2670.8
27020	12.309	5.8182	0.1	2739.5
27021	12.401	5.9091	0.1	2715.7
27022	12.125	5.8182	0.1	2782.6
27023	12.217	5.9091	0.1	2759.5
27024	11.941	5.8182	0.1	2824.
27025	12.033	5.9091	0.1	2801.7
27026	11.757	5.8182	0.1	2863.1
27027	11.849	5.9091	0.1	2841.8
27028	11.573	5.8182	0.1	2899.2
27029	11.665	5.9091	0.1	2879.1
27030	11.389	5.8182	0.1	2931.4
27031	11.481	5.9091	0.1	2912.8
27032	11.204	5.8182	0.1	2958.7
27033	11.297	5.9091	0.1	2941.9
27034	11.02	5.8182	0.1	2979.7
27035	11.112	5.9091	0.1	2965.2
27036	10.836	5.8182	0.1	2992.7
27037	10.928	5.9091	0.1	2981.
27038	10.652	5.8182	0.1	2995.5
27039	10.744	5.9091	0.1	2987.5
27040	10.468	5.8182	0.1	2985.7
27041	10.56	5.9091	0.1	2982.1
27042	10.284	5.8182	0.1	2960.2
27043	10.376	5.9091	0.1	2962.1
27044	10.1	5.8182	0.1	2915.2
27045	10.192	5.9091	0.1	2924.
27046	9.9157	5.8182	0.1	2846.4
27047	10.008	5.9091	0.1	2863.6
27048	9.7316	5.8182	0.1	2749.1
27049	9.8236	5.9091	0.1	2776.3
27050	9.5475	5.8182	0.1	2617.8
27051	9.6395	5.9091	0.1	2656.9
27052	9.3634	5.8182	0.1	2446.9
27053	9.4554	5.9091	0.1	2499.8
27054	9.1793	5.8182	0.1	2231.4
27055	9.2713	5.9091	0.1	2299.6
27056	8.9952	5.8182	0.1	1967.
27057	9.0872	5.9091	0.1	2051.5
27058	8.811	5.8182	0.1	1651.6
27059	8.9031	5.9091	0.1	1752.3
27060	8.6269	5.8182	0.1	1287.9
27061	8.719	5.9091	0.1	1401.2
27062	8.4428	5.8182	0.1	900.16
27063	8.5349	5.9091	0.1	1001.8
27064	8.2587	5.8182	0.1	513.04
27065	8.3508	5.9091	0.1	574.78
27066	0.18182	0.27273	0.1	4250.9
27067	0.27273	0.18182	0.1	4529.6
27068	9.0909e-002	0.18182	0.1	2704.6
27069	0.18182	9.0909e-002	0.1	3831.
27070	0.18182	0.45455	0.1	4882.4
27071	0.27273	0.36364	0.1	4641.8
27072	9.0909e-002	0.36364	0.1	3410.9
27073	0.18182	0.63636	0.1	5487.4
27074	0.27273	0.54545	0.1	5009.3
27075	9.0909e-002	0.54545	0.1	3994.8
27076	0.18182	0.81818	0.1	5946.1
27077	0.27273	0.72727	0.1	5375.
27078	9.0909e-002	0.72727	0.1	4411.9
27079	0.18182	1.	0.1	6289.4
27080	0.27273	0.90909	0.1	5684.1
27081	9.0909e-002	0.90909	0.1	4711.4
27082	0.18182	1.1818	0.1	6549.3
27083	0.27273	1.0909	0.1	5933.7
27084	9.0909e-002	1.0909	0.1	4932.7
27085	0.18182	1.3636	0.1	6748.9
27086	0.27273	1.2727	0.1	6132.8
27087	9.0909e-002	1.2727	0.1	5100.
27088	0.18182	1.5455	0.1	6904.1
27089	0.27273	1.4545	0.1	6291.4
27090	9.0909e-002	1.4545	0.1	5228.7
27091	0.18182	1.7273	0.1	7025.4
27092	0.27273	1.6364	0.1	6417.8
27093	9.0909e-002	1.6364	0.1	5328.7
27094	0.18182	1.9091	0.1	7120.3
27095	0.27273	1.8182	0.1	6518.2
27096	9.0909e-002	1.8182	0.1	5406.7
27097	0.18182	2.0909	0.1	7194.
27098	0.27273	2.	0.1	6597.5
27099	9.0909e-002	2.	0.1	5467.5
27100	0.18182	2.2727	0.1	7250.2
27101	0.27273	2.1818	0.1	6659.1
27102	9.0909e-002	2.1818	0.1	5514.3
27103	0.18182	2.4545	0.1	7291.6
27104	0.27273	2.3636	0.1	6705.7
27105	9.0909e-002	2.3636	0.1	5549.5
27106	0.18182	2.6364	0.1	7320.
27107	0.27273	2.5455	0.1	6739.2
27108	9.0909e-002	2.5455	0.1	5574.5
27109	0.18182	2.8182	0.1	7336.6
27110	0.27273	2.7273	0.1	6760.8
27111	9.0909e-002	2.7273	0.1	5590.7
27112	0.18182	3.	0.1	7342.
27113	0.27273	2.9091	0.1	6771.4
27114	9.0909e-002	2.9091	0.1	5598.6
27115	0.18182	3.1818	0.1	7336.6
27116	0.27273	3.0909	0.1	6771.4
27117	9.0909e-002	3.0909	0.1	5598.6
27118	0.18182	3.3636	0.1	7320.
27119	0.27273	3.2727	0.1	6760.8
27120	9.0909e-002	3.2727	0.1	5590.7
27121	0.18182	3.5455	0.1	7291.6
27122	0.27273	3.4545	0.1	6739.2
27123	9.0909e-002	3.4545	0.1	5574.5
27124	0.18182	3.7273	0.1	7250.2
27125	0.27273	3.6364	0.1	6705.7
27126	9.0909e-002	3.6364	0.1	5549.5
27127	0.18182	3.9091	0.1	7194.
27128	0.27273	3.8182	0.1	6659.1
27129	9.0909e-002	3.8182	0.1	5514.3
27130	0.18182	4.0909	0.1	7120.3
27131	0.27273	4.	0.1	6597.5
27132	9.0909e-002	4.	0.1	5467.5
27133	0.18182	4.2727	0.1	7025.4
27134	0.27273	4.1818	0.1	6518.2
27135	9.0909e-002	4.1818	0.1	5406.7
27136	0.18182	4.4545	0.1	6904.1
27137	0.27273	4.3636	0.1	6417.8
27138	9.0909e-002	4.3636	0.1	5328.7
27139	0.18182	4.6364	0.1	6748.9
27140	0.27273	4.5455	0.1	6291.4
27141	9.0909e-002	4.5455	0.1	5228.7
27142	0.18182	4.8182	0.1	6549.3
27143	0.27273	4.7273	0.1	6132.8
27144	9.0909e-002	4.7273	0.1	5100.
27145	0.18182	5.	0.1	6289.4
27146	0.27273	4.9091	0.1	5933.6
27147	9.0909e-002	4.9091	0.1	4932.7
27148	0.18182	5.1818	0.1	5946.1
27149	0.27273	5.0909	0.1	5684.1
27150	9.0909e-002	5.0909	0.1	4711.4
27151	0.18182	5.3636	0.1	5487.4
27152	0.27273	5.2727	0.1	5375.
27153	9.0909e-002	5.2727	0.1	4411.9
27154	0.18182	5.5455	0.1	4882.4
27155	0.27273	5.4545	0.1	5009.3
27156	9.0909e-002	5.4545	0.1	3994.8
27157	0.18182	5.7273	0.1	4250.9
27158	0.27273	5.6364	0.1	4641.8
27159	9.0909e-002	5.6364	0.1	3410.9
27160	0.27273	5.8182	0.1	4529.6
27161	9.0909e-002	5.8182	0.1	2704.6
27162	0.18182	5.9091	0.1	3831.
27163	0.36364	0.27273	0.1	4886.4
27164	0.45455	0.18182	0.1	5294.7
27165	0.36364	9.0909e-002	0.1	4918.
27166	0.36364	0.45455	0.1	4794.4
27167	0.45455	0.36364	0.1	5057.4
27168	0.36364	0.63636	0.1	4926.9
27169	0.45455	0.54545	0.1	5057.7
27170	0.36364	0.81818	0.1	5135.9
27171	0.45455	0.72727	0.1	5178.7
27172	0.36364	1.	0.1	5345.2
27173	0.45455	0.90909	0.1	5341.6
27174	0.36364	1.1818	0.1	5530.2
27175	0.45455	1.0909	0.1	5505.9
27176	0.36364	1.3636	0.1	5685.9
27177	0.45455	1.2727	0.1	5655.1
27178	0.36364	1.5455	0.1	5814.3
27179	0.45455	1.4545	0.1	5784.
27180	0.36364	1.7273	0.1	5918.9
27181	0.45455	1.6364	0.1	5892.6
27182	0.36364	1.9091	0.1	6003.1
27183	0.45455	1.8182	0.1	5982.3
27184	0.36364	2.0909	0.1	6069.9
27185	0.45455	2.	0.1	6055.2
27186	0.36364	2.2727	0.1	6121.7
27187	0.45455	2.1818	0.1	6113.
27188	0.36364	2.4545	0.1	6160.2
27189	0.45455	2.3636	0.1	6157.5
27190	0.36364	2.6364	0.1	6186.8
27191	0.45455	2.5455	0.1	6189.7
27192	0.36364	2.8182	0.1	6202.5
27193	0.45455	2.7273	0.1	6210.7
27194	0.36364	3.	0.1	6207.6
27195	0.45455	2.9091	0.1	6221.1
27196	0.36364	3.1818	0.1	6202.5
27197	0.45455	3.0909	0.1	6221.1
27198	0.36364	3.3636	0.1	6186.8
27199	0.45455	3.2727	0.1	6210.7
27200	0.36364	3.5455	0.1	6160.2
27201	0.45455	3.4545	0.1	6189.7
27202	0.36364	3.7273	0.1	6121.7
27203	0.45455	3.6364	0.1	6157.5
27204	0.36364	3.9091	0.1	6069.9
27205	0.45455	3.8182	0.1	6113.
27206	0.36364	4.0909	0.1	6003.1
27207	0.45455	4.	0.1	6055.2
27208	0.36364	4.2727	0.1	5918.9
27209	0.45455	4.1818	0.1	5982.3
27210	0.36364	4.4545	0.1	5814.3
27211	0.45455	4.3636	0.1	5892.6
27212	0.36364	4.6364	0.1	5685.9
27213	0.45455	4.5455	0.1	5784.
27214	0.36364	4.8182	0.1	5530.2
27215	0.45455	4.7273	0.1	5655.1
27216	0.36364	5.	0.1	5345.2
27217	0.45455	4.9091	0.1	5505.9
27218	0.36364	5.1818	0.1	5135.9
27219	0.45455	5.0909	0.1	5341.6
27220	0.36364	5.3636	0.1	4926.9
27221	0.45455	5.2727	0.1	5178.7
27222	0.36364	5.5455	0.1	4794.4
27223	0.45455	5.4545	0.1	5057.7
27224	0.36364	5.7273	0.1	4886.4
27225	0.45455	5.6364	0.1	5057.4
27226	0.45455	5.8182	0.1	5294.7
27227	0.36364	5.9091	0.1	4918.
27228	0.54545	0.27273	0.1	5450.2
27229	0.63636	0.18182	0.1	5700.6
27230	0.54545	9.0909e-002	0.1	5465.7
27231	0.54545	0.45455	0.1	5307.2
27232	0.63636	0.36364	0.1	5469.4
27233	0.54545	0.63636	0.1	5302.6
27234	0.63636	0.54545	0.1	5378.4
27235	0.54545	0.81818	0.1	5382.3
27236	0.63636	0.72727	0.1	5379.8
27237	0.54545	1.	0.1	5502.2
27238	0.63636	0.90909	0.1	5442.3
27239	0.54545	1.1818	0.1	5631.3
27240	0.63636	1.0909	0.1	5534.4
27241	0.54545	1.3636	0.1	5753.8
27242	0.63636	1.2727	0.1	5635.
27243	0.54545	1.5455	0.1	5862.9
27244	0.63636	1.4545	0.1	5732.3
27245	0.54545	1.7273	0.1	5956.5
27246	0.63636	1.6364	0.1	5820.4
27247	0.54545	1.9091	0.1	6034.8
27248	0.63636	1.8182	0.1	5897.1
27249	0.54545	2.0909	0.1	6098.7
27250	0.63636	2.	0.1	5961.7
27251	0.54545	2.2727	0.1	6149.2
27252	0.63636	2.1818	0.1	6014.4
27253	0.54545	2.4545	0.1	6187.3
27254	0.63636	2.3636	0.1	6055.7
27255	0.54545	2.6364	0.1	6213.9
27256	0.63636	2.5455	0.1	6086.1
27257	0.54545	2.8182	0.1	6229.6
27258	0.63636	2.7273	0.1	6106.1
27259	0.54545	3.	0.1	6234.8
27260	0.63636	2.9091	0.1	6116.
27261	0.54545	3.1818	0.1	6229.6
27262	0.63636	3.0909	0.1	6116.
27263	0.54545	3.3636	0.1	6213.9
27264	0.63636	3.2727	0.1	6106.1
27265	0.54545	3.5455	0.1	6187.3
27266	0.63636	3.4545	0.1	6086.1
27267	0.54545	3.7273	0.1	6149.2
27268	0.63636	3.6364	0.1	6055.7
27269	0.54545	3.9091	0.1	6098.7
27270	0.63636	3.8182	0.1	6014.4
27271	0.54545	4.0909	0.1	6034.8
27272	0.63636	4.	0.1	5961.7
27273	0.54545	4.2727	0.1	5956.5
27274	0.63636	4.1818	0.1	5897.1
27275	0.54545	4.4545	0.1	5862.9
27276	0.63636	4.3636	0.1	5820.4
27277	0.54545	4.6364	0.1	5753.8
27278	0.63636	4.5455	0.1	5732.3
27279	0.54545	4.8182	0.1	5631.3
27280	0.63636	4.7273	0.1	5635.
27281	0.54545	5.	0.1	5502.2
27282	0.63636	4.9091	0.1	5534.4
27283	0.54545	5.1818	0.1	5382.3
27284	0.63636	5.0909	0.1	5442.3
27285	0.54545	5.3636	0.1	5302.6
27286	0.63636	5.2727	0.1	5379.8
27287	0.54545	5.5455	0.1	5307.2
27288	0.63636	5.4545	0.1	5378.4
27289	0.54545	5.7273	0.1	5450.2
27290	0.63636	5.6364	0.1	5469.4
27291	0.63636	5.8182	0.1	5700.6
27292	0.54545	5.9091	0.1	5465.7
27293	0.72727	0.27273	0.1	5712.6
27294	0.81818	0.18182	0.1	5906.3
27295	0.72727	9.0909e-002	0.1	5755.
27296	0.72727	0.45455	0.1	5534.2
27297	0.81818	0.36364	0.1	5683.4
27298	0.72727	0.63636	0.1	5451.1
27299	0.81818	0.54545	0.1	5556.1
27300	0.72727	0.81818	0.1	5437.9
27301	0.81818	0.72727	0.1	5493.1
27302	0.72727	1.	0.1	5474.3
27303	0.81818	0.90909	0.1	5484.7
27304	0.72727	1.1818	0.1	5538.7
27305	0.81818	1.0909	0.1	5514.1
27306	0.72727	1.3636	0.1	5614.3
27307	0.81818	1.2727	0.1	5565.1
27308	0.72727	1.5455	0.1	5690.5
27309	0.81818	1.4545	0.1	5625.3
27310	0.72727	1.7273	0.1	5761.6
27311	0.81818	1.6364	0.1	5686.5
27312	0.72727	1.9091	0.1	5824.4
27313	0.81818	1.8182	0.1	5743.9
27314	0.72727	2.0909	0.1	5877.8
27315	0.81818	2.	0.1	5795.
27316	0.72727	2.2727	0.1	5921.2
27317	0.81818	2.1818	0.1	5838.2
27318	0.72727	2.4545	0.1	5954.7
27319	0.81818	2.3636	0.1	5873.
27320	0.72727	2.6364	0.1	5978.4
27321	0.81818	2.5455	0.1	5899.1
27322	0.72727	2.8182	0.1	5992.6
27323	0.81818	2.7273	0.1	5916.5
27324	0.72727	3.	0.1	5997.3
27325	0.81818	2.9091	0.1	5925.2
27326	0.72727	3.1818	0.1	5992.6
27327	0.81818	3.0909	0.1	5925.2
27328	0.72727	3.3636	0.1	5978.4
27329	0.81818	3.2727	0.1	5916.5
27330	0.72727	3.5455	0.1	5954.7
27331	0.81818	3.4545	0.1	5899.1
27332	0.72727	3.7273	0.1	5921.2
27333	0.81818	3.6364	0.1	5873.
27334	0.72727	3.9091	0.1	5877.8
27335	0.81818	3.8182	0.1	5838.2
27336	0.72727	4.0909	0.1	5824.4
27337	0.81818	4.	0.1	5795.
27338	0.72727	4.2727	0.1	5761.6
27339	0.81818	4.1818	0.1	5743.9
27340	0.72727	4.4545	0.1	5690.5
27341	0.81818	4.3636	0.1	5686.5
27342	0.72727	4.6364	0.1	5614.3
27343	0.81818	4.5455	0.1	5625.3
27344	0.72727	4.8182	0.1	5538.7
27345	0.81818	4.7273	0.1	5565.1
27346	0.72727	5.	0.1	5474.3
27347	0.81818	4.9091	0.1	5514.1
27348	0.72727	5.1818	0.1	5437.9
27349	0.81818	5.0909	0.1	5484.7
27350	0.72727	5.3636	0.1	5451.1
27351	0.81818	5.2727	0.1	5493.1
27352	0.72727	5.5455	0.1	5534.2
27353	0.81818	5.4545	0.1	5556.1
27354	0.72727	5.7273	0.1	5712.6
27355	0.81818	5.6364	0.1	5683.4
27356	0.81818	5.8182	0.1	5906.2
27357	0.72727	5.9091	0.1	5755.
27358	0.90909	0.27273	0.1	5873.5
27359	1.	0.18182	0.1	6016.2
27360	0.90909	9.0909e-002	0.1	5919.5
27361	0.90909	0.45455	0.1	5701.7
27362	1.	0.36364	0.1	5814.8
27363	0.90909	0.63636	0.1	5594.4
27364	1.	0.54545	0.1	5682.
27365	0.90909	0.81818	0.1	5537.
27366	1.	0.72727	0.1	5592.4
27367	0.90909	1.	0.1	5522.7
27368	1.	0.90909	0.1	5544.7
27369	0.90909	1.1818	0.1	5539.7
27370	1.	1.0909	0.1	5532.
27371	0.90909	1.3636	0.1	5575.7
27372	1.	1.2727	0.1	5544.3
27373	0.90909	1.5455	0.1	5621.1
27374	1.	1.4545	0.1	5572.
27375	0.90909	1.7273	0.1	5668.8
27376	1.	1.6364	0.1	5607.4
27377	0.90909	1.9091	0.1	5714.5
27378	1.	1.8182	0.1	5644.9
27379	0.90909	2.0909	0.1	5755.4
27380	1.	2.	0.1	5681.
27381	0.90909	2.2727	0.1	5790.
27382	1.	2.1818	0.1	5713.3
27383	0.90909	2.4545	0.1	5817.4
27384	1.	2.3636	0.1	5740.2
27385	0.90909	2.6364	0.1	5837.2
27386	1.	2.5455	0.1	5760.9
27387	0.90909	2.8182	0.1	5849.1
27388	1.	2.7273	0.1	5774.9
27389	0.90909	3.	0.1	5853.1
27390	1.	2.9091	0.1	5782.
27391	0.90909	3.1818	0.1	5849.1
27392	1.	3.0909	0.1	5782.
27393	0.90909	3.3636	0.1	5837.2
27394	1.	3.2727	0.1	5774.9
27395	0.90909	3.5455	0.1	5817.4
27396	1.	3.4545	0.1	5760.9
27397	0.90909	3.7273	0.1	5790.
27398	1.	3.6364	0.1	5740.2
27399	0.90909	3.9091	0.1	5755.4
27400	1.	3.8182	0.1	5713.3
27401	0.90909	4.0909	0.1	5714.5
27402	1.	4.	0.1	5681.
27403	0.90909	4.2727	0.1	5668.8
27404	1.	4.1818	0.1	5644.9
27405	0.90909	4.4545	0.1	5621.1
27406	1.	4.3636	0.1	5607.4
27407	0.90909	4.6364	0.1	5575.7
27408	1.	4.5455	0.1	5572.
27409	0.90909	4.8182	0.1	5539.7
27410	1.	4.7273	0.1	5544.3
27411	0.90909	5.	0.1	5522.7
27412	1.	4.9091	0.1	5532.
27413	0.90909	5.1818	0.1	5537.
27414	1.	5.0909	0.1	5544.7
27415	0.90909	5.3636	0.1	5594.4
27416	1.	5.2727	0.1	5592.4
27417	0.90909	5.5455	0.1	5701.7
27418	1.	5.4545	0.1	5682.
27419	0.90909	5.7273	0.1	5873.5
27420	1.	5.6364	0.1	5814.8
27421	1.	5.8182	0.1	6016.2
27422	0.90909	5.9091	0.1	5919.5
27423	1.0909	0.27273	0.1	5955.3
27424	1.1818	0.18182	0.1	6065.1
27425	1.0909	9.0909e-002	0.1	6006.
27426	1.0909	0.45455	0.1	5793.1
27427	1.1818	0.36364	0.1	5882.9
27428	1.0909	0.63636	0.1	5677.6
27429	1.1818	0.54545	0.1	5752.7
27430	1.0909	0.81818	0.1	5597.8
27431	1.1818	0.72727	0.1	5652.6
27432	1.0909	1.	0.1	5552.2
27433	1.1818	0.90909	0.1	5583.6
27434	1.0909	1.1818	0.1	5535.5
27435	1.1818	1.0909	0.1	5543.9
27436	1.0909	1.3636	0.1	5539.9
27437	1.1818	1.2727	0.1	5528.
27438	1.0909	1.5455	0.1	5557.9
27439	1.1818	1.4545	0.1	5529.4
27440	1.0909	1.7273	0.1	5583.3
27441	1.1818	1.6364	0.1	5542.1
27442	1.0909	1.9091	0.1	5611.4
27443	1.1818	1.8182	0.1	5561.
27444	1.0909	2.0909	0.1	5638.8
27445	1.1818	2.	0.1	5582.2
27446	1.0909	2.2727	0.1	5663.4
27447	1.1818	2.1818	0.1	5602.9
27448	1.0909	2.4545	0.1	5683.6
27449	1.1818	2.3636	0.1	5621.2
27450	1.0909	2.6364	0.1	5698.6
27451	1.1818	2.5455	0.1	5635.9
27452	1.0909	2.8182	0.1	5707.7
27453	1.1818	2.7273	0.1	5646.1
27454	1.0909	3.	0.1	5710.8
27455	1.1818	2.9091	0.1	5651.3
27456	1.0909	3.1818	0.1	5707.7
27457	1.1818	3.0909	0.1	5651.3
27458	1.0909	3.3636	0.1	5698.6
27459	1.1818	3.2727	0.1	5646.1
27460	1.0909	3.5455	0.1	5683.6
27461	1.1818	3.4545	0.1	5635.9
27462	1.0909	3.7273	0.1	5663.4
27463	1.1818	3.6364	0.1	5621.2
27464	1.0909	3.9091	0.1	5638.8
27465	1.1818	3.8182	0.1	5602.9
27466	1.0909	4.0909	0.1	5611.4
27467	1.1818	4.	0.1	5582.2
27468	1.0909	4.2727	0.1	5583.3
27469	1.1818	4.1818	0.1	5561.
27470	1.0909	4.4545	0.1	5557.9
27471	1.1818	4.3636	0.1	5542.1
27472	1.0909	4.6364	0.1	5539.9
27473	1.1818	4.5455	0.1	5529.4
27474	1.0909	4.8182	0.1	5535.5
27475	1.1818	4.7273	0.1	5528.
27476	1.0909	5.	0.1	5552.2
27477	1.1818	4.9091	0.1	5543.9
27478	1.0909	5.1818	0.1	5597.8
27479	1.1818	5.0909	0.1	5583.6
27480	1.0909	5.3636	0.1	5677.6
27481	1.1818	5.2727	0.1	5652.6
27482	1.0909	5.5455	0.1	5793.1
27483	1.1818	5.4545	0.1	5752.7
27484	1.0909	5.7273	0.1	5955.3
27485	1.1818	5.6364	0.1	5882.9
27486	1.1818	5.8182	0.1	6065.1
27487	1.0909	5.9091	0.1	6006.
27488	1.2727	0.27273	0.1	5991.2
27489	1.3636	0.18182	0.1	6076.
27490	1.2727	9.0909e-002	0.1	6044.3
27491	1.2727	0.45455	0.1	5841.2
27492	1.3636	0.36364	0.1	5911.6
27493	1.2727	0.63636	0.1	5726.1
27494	1.3636	0.54545	0.1	5787.6
27495	1.2727	0.81818	0.1	5636.7
27496	1.3636	0.72727	0.1	5685.2
27497	1.2727	1.	0.1	5573.8
27498	1.3636	0.90909	0.1	5606.
27499	1.2727	1.1818	0.1	5535.2
27500	1.3636	1.0909	0.1	5550.2
27501	1.2727	1.3636	0.1	5516.7
27502	1.3636	1.2727	0.1	5515.2
27503	1.2727	1.5455	0.1	5513.1
27504	1.3636	1.4545	0.1	5497.1
27505	1.2727	1.7273	0.1	5519.4
27506	1.3636	1.6364	0.1	5491.5
27507	1.2727	1.9091	0.1	5531.5
27508	1.3636	1.8182	0.1	5494.3
27509	1.2727	2.0909	0.1	5546.1
27510	1.3636	2.	0.1	5502.
27511	1.2727	2.2727	0.1	5560.6
27512	1.3636	2.1818	0.1	5511.8
27513	1.2727	2.4545	0.1	5573.5
27514	1.3636	2.3636	0.1	5521.8
27515	1.2727	2.6364	0.1	5583.4
27516	1.3636	2.5455	0.1	5530.5
27517	1.2727	2.8182	0.1	5589.6
27518	1.3636	2.7273	0.1	5536.7
27519	1.2727	3.	0.1	5591.7
27520	1.3636	2.9091	0.1	5540.
27521	1.2727	3.1818	0.1	5589.6
27522	1.3636	3.0909	0.1	5540.
27523	1.2727	3.3636	0.1	5583.4
27524	1.3636	3.2727	0.1	5536.7
27525	1.2727	3.5455	0.1	5573.5
27526	1.3636	3.4545	0.1	5530.5
27527	1.2727	3.7273	0.1	5560.6
27528	1.3636	3.6364	0.1	5521.8
27529	1.2727	3.9091	0.1	5546.1
27530	1.3636	3.8182	0.1	5511.8
27531	1.2727	4.0909	0.1	5531.5
27532	1.3636	4.	0.1	5502.
27533	1.2727	4.2727	0.1	5519.4
27534	1.3636	4.1818	0.1	5494.3
27535	1.2727	4.4545	0.1	5513.1
27536	1.3636	4.3636	0.1	5491.5
27537	1.2727	4.6364	0.1	5516.7
27538	1.3636	4.5455	0.1	5497.1
27539	1.2727	4.8182	0.1	5535.2
27540	1.3636	4.7273	0.1	5515.2
27541	1.2727	5.	0.1	5573.8
27542	1.3636	4.9091	0.1	5550.2
27543	1.2727	5.1818	0.1	5636.7
27544	1.3636	5.0909	0.1	5606.
27545	1.2727	5.3636	0.1	5726.1
27546	1.3636	5.2727	0.1	5685.2
27547	1.2727	5.5455	0.1	5841.2
27548	1.3636	5.4545	0.1	5787.6
27549	1.2727	5.7273	0.1	5991.2
27550	1.3636	5.6364	0.1	5911.6
27551	1.3636	5.8182	0.1	6076.
27552	1.2727	5.9091	0.1	6044.2
27553	1.4545	0.27273	0.1	5995.4
27554	1.5455	0.18182	0.1	6061.5
27555	1.4545	9.0909e-002	0.1	6050.
27556	1.4545	0.45455	0.1	5857.1
27557	1.5455	0.36364	0.1	5912.6
27558	1.4545	0.63636	0.1	5745.7
27559	1.5455	0.54545	0.1	5795.9
27560	1.4545	0.81818	0.1	5653.3
27561	1.5455	0.72727	0.1	5695.2
27562	1.4545	1.	0.1	5581.2
27563	1.5455	0.90909	0.1	5611.9
27564	1.4545	1.1818	0.1	5529.1
27565	1.5455	1.0909	0.1	5547.
27566	1.4545	1.3636	0.1	5494.7
27567	1.5455	1.2727	0.1	5499.7
27568	1.4545	1.5455	0.1	5474.9
27569	1.5455	1.4545	0.1	5467.8
27570	1.4545	1.7273	0.1	5465.9
27571	1.5455	1.6364	0.1	5448.3
27572	1.4545	1.9091	0.1	5464.4
27573	1.5455	1.8182	0.1	5438.1
27574	1.4545	2.0909	0.1	5467.5
27575	1.5455	2.	0.1	5434.3
27576	1.4545	2.2727	0.1	5472.9
27577	1.5455	2.1818	0.1	5434.6
27578	1.4545	2.4545	0.1	5478.7
27579	1.5455	2.3636	0.1	5437.
27580	1.4545	2.6364	0.1	5483.7
27581	1.5455	2.5455	0.1	5440.
27582	1.4545	2.8182	0.1	5487.1
27583	1.5455	2.7273	0.1	5442.6
27584	1.4545	3.	0.1	5488.2
27585	1.5455	2.9091	0.1	5444.
27586	1.4545	3.1818	0.1	5487.1
27587	1.5455	3.0909	0.1	5444.
27588	1.4545	3.3636	0.1	5483.7
27589	1.5455	3.2727	0.1	5442.6
27590	1.4545	3.5455	0.1	5478.7
27591	1.5455	3.4545	0.1	5440.
27592	1.4545	3.7273	0.1	5472.9
27593	1.5455	3.6364	0.1	5437.
27594	1.4545	3.9091	0.1	5467.5
27595	1.5455	3.8182	0.1	5434.6
27596	1.4545	4.0909	0.1	5464.4
27597	1.5455	4.	0.1	5434.3
27598	1.4545	4.2727	0.1	5465.9
27599	1.5455	4.1818	0.1	5438.1
27600	1.4545	4.4545	0.1	5474.9
27601	1.5455	4.3636	0.1	5448.3
27602	1.4545	4.6364	0.1	5494.7
27603	1.5455	4.5455	0.1	5467.8
27604	1.4545	4.8182	0.1	5529.1
27605	1.5455	4.7273	0.1	5499.7
27606	1.4545	5.	0.1	5581.2
27607	1.5455	4.9091	0.1	5547.
27608	1.4545	5.1818	0.1	5653.3
27609	1.5455	5.0909	0.1	5611.9
27610	1.4545	5.3636	0.1	5745.7
27611	1.5455	5.2727	0.1	5695.2
27612	1.4545	5.5455	0.1	5857.1
27613	1.5455	5.4545	0.1	5795.9
27614	1.4545	5.7273	0.1	5995.4
27615	1.5455	5.6364	0.1	5912.6
27616	1.5455	5.8182	0.1	6061.5
27617	1.4545	5.9091	0.1	6050.
27618	1.6364	0.27273	0.1	5978.1
27619	1.7273	0.18182	0.1	6029.8
27620	1.6364	9.0909e-002	0.1	6033.7
27621	1.6364	0.45455	0.1	5850.9
27622	1.7273	0.36364	0.1	5894.6
27623	1.6364	0.63636	0.1	5744.7
27624	1.7273	0.54545	0.1	5785.4
27625	1.6364	0.81818	0.1	5652.9
27626	1.7273	0.72727	0.1	5688.2
27627	1.6364	1.	0.1	5576.8
27628	1.7273	0.90909	0.1	5604.4
27629	1.6364	1.1818	0.1	5516.8
27630	1.7273	1.0909	0.1	5535.1
27631	1.6364	1.3636	0.1	5472.1
27632	1.7273	1.2727	0.1	5480.4
27633	1.6364	1.5455	0.1	5440.6
27634	1.7273	1.4545	0.1	5439.2
27635	1.6364	1.7273	0.1	5420.
27636	1.7273	1.6364	0.1	5409.6
27637	1.6364	1.9091	0.1	5407.6
27638	1.7273	1.8182	0.1	5389.4
27639	1.6364	2.0909	0.1	5401.2
27640	1.7273	2.	0.1	5376.5
27641	1.6364	2.2727	0.1	5398.6
27642	1.7273	2.1818	0.1	5368.8
27643	1.6364	2.4545	0.1	5398.2
27644	1.7273	2.3636	0.1	5364.7
27645	1.6364	2.6364	0.1	5398.8
27646	1.7273	2.5455	0.1	5362.8
27647	1.6364	2.8182	0.1	5399.4
27648	1.7273	2.7273	0.1	5362.
27649	1.6364	3.	0.1	5399.7
27650	1.7273	2.9091	0.1	5361.8
27651	1.6364	3.1818	0.1	5399.4
27652	1.7273	3.0909	0.1	5361.8
27653	1.6364	3.3636	0.1	5398.8
27654	1.7273	3.2727	0.1	5362.
27655	1.6364	3.5455	0.1	5398.2
27656	1.7273	3.4545	0.1	5362.8
27657	1.6364	3.7273	0.1	5398.6
27658	1.7273	3.6364	0.1	5364.7
27659	1.6364	3.9091	0.1	5401.2
27660	1.7273	3.8182	0.1	5368.8
27661	1.6364	4.0909	0.1	5407.6
27662	1.7273	4.	0.1	5376.5
27663	1.6364	4.2727	0.1	5420.
27664	1.7273	4.1818	0.1	5389.4
27665	1.6364	4.4545	0.1	5440.6
27666	1.7273	4.3636	0.1	5409.6
27667	1.6364	4.6364	0.1	5472.1
27668	1.7273	4.5455	0.1	5439.2
27669	1.6364	4.8182	0.1	5516.8
27670	1.7273	4.7273	0.1	5480.4
27671	1.6364	5.	0.1	5576.8
27672	1.7273	4.9091	0.1	5535.1
27673	1.6364	5.1818	0.1	5652.9
27674	1.7273	5.0909	0.1	5604.4
27675	1.6364	5.3636	0.1	5744.7
27676	1.7273	5.2727	0.1	5688.2
27677	1.6364	5.5455	0.1	5850.9
27678	1.7273	5.4545	0.1	5785.4
27679	1.6364	5.7273	0.1	5978.1
27680	1.7273	5.6364	0.1	5894.6
27681	1.7273	5.8182	0.1	6029.8
27682	1.6364	5.9091	0.1	6033.7
27683	1.8182	0.27273	0.1	5945.8
27684	1.9091	0.18182	0.1	5986.1
27685	1.8182	9.0909e-002	0.1	6001.7
27686	1.8182	0.45455	0.1	5828.7
27687	1.9091	0.36364	0.1	5863.1
27688	1.8182	0.63636	0.1	5728.3
27689	1.9091	0.54545	0.1	5761.
27690	1.8182	0.81818	0.1	5639.1
27691	1.9091	0.72727	0.1	5668.4
27692	1.8182	1.	0.1	5562.
27693	1.9091	0.90909	0.1	5586.1
27694	1.8182	1.1818	0.1	5498.1
27695	1.9091	1.0909	0.1	5515.4
27696	1.8182	1.3636	0.1	5447.
27697	1.9091	1.2727	0.1	5456.8
27698	1.8182	1.5455	0.1	5407.7
27699	1.9091	1.4545	0.1	5409.7
27700	1.8182	1.7273	0.1	5378.6
27701	1.9091	1.6364	0.1	5373.2
27702	1.8182	1.9091	0.1	5358.
27703	1.9091	1.8182	0.1	5345.7
27704	1.8182	2.0909	0.1	5343.9
27705	1.9091	2.	0.1	5325.8
27706	1.8182	2.2727	0.1	5334.8
27707	1.9091	2.1818	0.1	5311.8
27708	1.8182	2.4545	0.1	5329.1
27709	1.9091	2.3636	0.1	5302.4
27710	1.8182	2.6364	0.1	5325.9
27711	1.9091	2.5455	0.1	5296.3
27712	1.8182	2.8182	0.1	5324.3
27713	1.9091	2.7273	0.1	5292.8
27714	1.8182	3.	0.1	5323.8
27715	1.9091	2.9091	0.1	5291.1
27716	1.8182	3.1818	0.1	5324.3
27717	1.9091	3.0909	0.1	5291.1
27718	1.8182	3.3636	0.1	5325.9
27719	1.9091	3.2727	0.1	5292.8
27720	1.8182	3.5455	0.1	5329.1
27721	1.9091	3.4545	0.1	5296.3
27722	1.8182	3.7273	0.1	5334.8
27723	1.9091	3.6364	0.1	5302.4
27724	1.8182	3.9091	0.1	5343.9
27725	1.9091	3.8182	0.1	5311.8
27726	1.8182	4.0909	0.1	5358.
27727	1.9091	4.	0.1	5325.8
27728	1.8182	4.2727	0.1	5378.6
27729	1.9091	4.1818	0.1	5345.7
27730	1.8182	4.4545	0.1	5407.7
27731	1.9091	4.3636	0.1	5373.2
27732	1.8182	4.6364	0.1	5447.
27733	1.9091	4.5455	0.1	5409.7
27734	1.8182	4.8182	0.1	5498.1
27735	1.9091	4.7273	0.1	5456.8
27736	1.8182	5.	0.1	5562.
27737	1.9091	4.9091	0.1	5515.4
27738	1.8182	5.1818	0.1	5639.1
27739	1.9091	5.0909	0.1	5586.1
27740	1.8182	5.3636	0.1	5728.3
27741	1.9091	5.2727	0.1	5668.4
27742	1.8182	5.5455	0.1	5828.7
27743	1.9091	5.4545	0.1	5761.
27744	1.8182	5.7273	0.1	5945.8
27745	1.9091	5.6364	0.1	5863.
27746	1.9091	5.8182	0.1	5986.1
27747	1.8182	5.9091	0.1	6001.7
27748	2.	0.27273	0.1	5903.
27749	2.0909	0.18182	0.1	5934.1
27750	2.	9.0909e-002	0.1	5958.7
27751	2.	0.45455	0.1	5795.1
27752	2.0909	0.36364	0.1	5821.8
27753	2.	0.63636	0.1	5700.7
27754	2.0909	0.54545	0.1	5726.8
27755	2.	0.81818	0.1	5615.
27756	2.0909	0.72727	0.1	5639.1
27757	2.	1.	0.1	5539.
27758	2.0909	0.90909	0.1	5559.5
27759	2.	1.1818	0.1	5473.6
27760	2.0909	1.0909	0.1	5489.3
27761	2.	1.3636	0.1	5419.
27762	2.0909	1.2727	0.1	5429.
27763	2.	1.5455	0.1	5374.8
27764	2.0909	1.4545	0.1	5378.7
27765	2.	1.7273	0.1	5339.9
27766	2.0909	1.6364	0.1	5337.7
27767	2.	1.9091	0.1	5313.3
27768	2.0909	1.8182	0.1	5305.3
27769	2.	2.0909	0.1	5293.5
27770	2.0909	2.	0.1	5280.3
27771	2.	2.2727	0.1	5279.2
27772	2.0909	2.1818	0.1	5261.5
27773	2.	2.4545	0.1	5269.4
27774	2.0909	2.3636	0.1	5248.
27775	2.	2.6364	0.1	5263.
27776	2.0909	2.5455	0.1	5238.6
27777	2.	2.8182	0.1	5259.5
27778	2.0909	2.7273	0.1	5232.9
27779	2.	3.	0.1	5258.4
27780	2.0909	2.9091	0.1	5230.1
27781	2.	3.1818	0.1	5259.5
27782	2.0909	3.0909	0.1	5230.1
27783	2.	3.3636	0.1	5263.
27784	2.0909	3.2727	0.1	5232.9
27785	2.	3.5455	0.1	5269.4
27786	2.0909	3.4545	0.1	5238.6
27787	2.	3.7273	0.1	5279.2
27788	2.0909	3.6364	0.1	5248.
27789	2.	3.9091	0.1	5293.5
27790	2.0909	3.8182	0.1	5261.5
27791	2.	4.0909	0.1	5313.3
27792	2.0909	4.	0.1	5280.3
27793	2.	4.2727	0.1	5339.9
27794	2.0909	4.1818	0.1	5305.3
27795	2.	4.4545	0.1	5374.8
27796	2.0909	4.3636	0.1	5337.7
27797	2.	4.6364	0.1	5419.
27798	2.0909	4.5455	0.1	5378.7
27799	2.	4.8182	0.1	5473.6
27800	2.0909	4.7273	0.1	5429.
27801	2.	5.	0.1	5539.
27802	2.0909	4.9091	0.1	5489.3
27803	2.	5.1818	0.1	5615.
27804	2.0909	5.0909	0.1	5559.5
27805	2.	5.3636	0.1	5700.7
27806	2.0909	5.2727	0.1	5639.1
27807	2.	5.5455	0.1	5795.1
27808	2.0909	5.4545	0.1	5726.8
27809	2.	5.7273	0.1	5903.
27810	2.0909	5.6364	0.1	5821.8
27811	2.0909	5.8182	0.1	5934.1
27812	2.	5.9091	0.1	5958.7
27813	2.1818	0.27273	0.1	5852.7
27814	2.2727	0.18182	0.1	5876.3
27815	2.1818	9.0909e-002	0.1	5907.8
27816	2.1818	0.45455	0.1	5753.3
27817	2.2727	0.36364	0.1	5773.7
27818	2.1818	0.63636	0.1	5664.8
27819	2.2727	0.54545	0.1	5685.2
27820	2.1818	0.81818	0.1	5583.2
27821	2.2727	0.72727	0.1	5602.6
27822	2.1818	1.	0.1	5509.4
27823	2.2727	0.90909	0.1	5526.5
27824	2.1818	1.1818	0.1	5444.3
27825	2.2727	1.0909	0.1	5458.
27826	2.1818	1.3636	0.1	5388.3
27827	2.2727	1.2727	0.1	5397.7
27828	2.1818	1.5455	0.1	5341.3
27829	2.2727	1.4545	0.1	5346.
27830	2.1818	1.7273	0.1	5302.8
27831	2.2727	1.6364	0.1	5302.5
27832	2.1818	1.9091	0.1	5272.
27833	2.2727	1.8182	0.1	5266.9
27834	2.1818	2.0909	0.1	5248.1
27835	2.2727	2.	0.1	5238.5
27836	2.1818	2.2727	0.1	5230.1
27837	2.2727	2.1818	0.1	5216.3
27838	2.1818	2.4545	0.1	5217.1
27839	2.2727	2.3636	0.1	5199.7
27840	2.1818	2.6364	0.1	5208.3
27841	2.2727	2.5455	0.1	5188.
27842	2.1818	2.8182	0.1	5203.3
27843	2.2727	2.7273	0.1	5180.5
27844	2.1818	3.	0.1	5201.7
27845	2.2727	2.9091	0.1	5176.8
27846	2.1818	3.1818	0.1	5203.3
27847	2.2727	3.0909	0.1	5176.8
27848	2.1818	3.3636	0.1	5208.3
27849	2.2727	3.2727	0.1	5180.5
27850	2.1818	3.5455	0.1	5217.1
27851	2.2727	3.4545	0.1	5188.
27852	2.1818	3.7273	0.1	5230.1
27853	2.2727	3.6364	0.1	5199.7
27854	2.1818	3.9091	0.1	5248.1
27855	2.2727	3.8182	0.1	5216.3
27856	2.1818	4.0909	0.1	5272.
27857	2.2727	4.	0.1	5238.5
27858	2.1818	4.2727	0.1	5302.8
27859	2.2727	4.1818	0.1	5266.9
27860	2.1818	4.4545	0.1	5341.3
27861	2.2727	4.3636	0.1	5302.5
27862	2.1818	4.6364	0.1	5388.3
27863	2.2727	4.5455	0.1	5346.
27864	2.1818	4.8182	0.1	5444.3
27865	2.2727	4.7273	0.1	5397.7
27866	2.1818	5.	0.1	5509.4
27867	2.2727	4.9091	0.1	5458.
27868	2.1818	5.1818	0.1	5583.2
27869	2.2727	5.0909	0.1	5526.5
27870	2.1818	5.3636	0.1	5664.8
27871	2.2727	5.2727	0.1	5602.6
27872	2.1818	5.5455	0.1	5753.3
27873	2.2727	5.4545	0.1	5685.2
27874	2.1818	5.7273	0.1	5852.7
27875	2.2727	5.6364	0.1	5773.7
27876	2.2727	5.8182	0.1	5876.3
27877	2.1818	5.9091	0.1	5907.8
27878	2.3636	0.27273	0.1	5797.1
27879	2.4545	0.18182	0.1	5814.5
27880	2.3636	9.0909e-002	0.1	5851.2
27881	2.3636	0.45455	0.1	5705.5
27882	2.4545	0.36364	0.1	5720.6
27883	2.3636	0.63636	0.1	5622.8
27884	2.4545	0.54545	0.1	5638.4
27885	2.3636	0.81818	0.1	5545.6
27886	2.4545	0.72727	0.1	5560.8
27887	2.3636	1.	0.1	5474.8
27888	2.4545	0.90909	0.1	5488.6
27889	2.3636	1.1818	0.1	5411.1
27890	2.4545	1.0909	0.1	5422.6
27891	2.3636	1.3636	0.1	5355.1
27892	2.4545	1.2727	0.1	5363.4
27893	2.3636	1.5455	0.1	5306.9
27894	2.4545	1.4545	0.1	5311.6
27895	2.3636	1.7273	0.1	5266.4
27896	2.4545	1.6364	0.1	5267.2
27897	2.3636	1.9091	0.1	5233.1
27898	2.4545	1.8182	0.1	5229.8
27899	2.3636	2.0909	0.1	5206.5
27900	2.4545	2.	0.1	5199.3
27901	2.3636	2.2727	0.1	5185.8
27902	2.4545	2.1818	0.1	5174.9
27903	2.3636	2.4545	0.1	5170.5
27904	2.4545	2.3636	0.1	5156.3
27905	2.3636	2.6364	0.1	5160.
27906	2.4545	2.5455	0.1	5142.8
27907	2.3636	2.8182	0.1	5153.9
27908	2.4545	2.7273	0.1	5134.1
27909	2.3636	3.	0.1	5151.9
27910	2.4545	2.9091	0.1	5129.8
27911	2.3636	3.1818	0.1	5153.9
27912	2.4545	3.0909	0.1	5129.8
27913	2.3636	3.3636	0.1	5160.
27914	2.4545	3.2727	0.1	5134.1
27915	2.3636	3.5455	0.1	5170.5
27916	2.4545	3.4545	0.1	5142.8
27917	2.3636	3.7273	0.1	5185.8
27918	2.4545	3.6364	0.1	5156.3
27919	2.3636	3.9091	0.1	5206.5
27920	2.4545	3.8182	0.1	5174.9
27921	2.3636	4.0909	0.1	5233.1
27922	2.4545	4.	0.1	5199.3
27923	2.3636	4.2727	0.1	5266.4
27924	2.4545	4.1818	0.1	5229.8
27925	2.3636	4.4545	0.1	5306.9
27926	2.4545	4.3636	0.1	5267.2
27927	2.3636	4.6364	0.1	5355.1
27928	2.4545	4.5455	0.1	5311.6
27929	2.3636	4.8182	0.1	5411.1
27930	2.4545	4.7273	0.1	5363.4
27931	2.3636	5.	0.1	5474.8
27932	2.4545	4.9091	0.1	5422.6
27933	2.3636	5.1818	0.1	5545.6
27934	2.4545	5.0909	0.1	5488.6
27935	2.3636	5.3636	0.1	5622.8
27936	2.4545	5.2727	0.1	5560.8
27937	2.3636	5.5455	0.1	5705.5
27938	2.4545	5.4545	0.1	5638.4
27939	2.3636	5.7273	0.1	5797.1
27940	2.4545	5.6364	0.1	5720.6
27941	2.4545	5.8182	0.1	5814.5
27942	2.3636	5.9091	0.1	5851.2
27943	2.5455	0.27273	0.1	5737.8
27944	2.6364	0.18182	0.1	5749.9
27945	2.5455	9.0909e-002	0.1	5790.6
27946	2.5455	0.45455	0.1	5653.4
27947	2.6364	0.36364	0.1	5664.
27948	2.5455	0.63636	0.1	5576.2
27949	2.6364	0.54545	0.1	5587.6
27950	2.5455	0.81818	0.1	5503.6
27951	2.6364	0.72727	0.1	5515.2
27952	2.5455	1.	0.1	5436.2
27953	2.6364	0.90909	0.1	5447.
27954	2.5455	1.1818	0.1	5374.7
27955	2.6364	1.0909	0.1	5383.9
27956	2.5455	1.3636	0.1	5319.8
27957	2.6364	1.2727	0.1	5326.7
27958	2.5455	1.5455	0.1	5271.6
27959	2.6364	1.4545	0.1	5275.8
27960	2.5455	1.7273	0.1	5230.4
27961	2.6364	1.6364	0.1	5231.4
27962	2.5455	1.9091	0.1	5195.8
27963	2.6364	1.8182	0.1	5193.5
27964	2.5455	2.0909	0.1	5167.5
27965	2.6364	2.	0.1	5161.9
27966	2.5455	2.2727	0.1	5145.2
27967	2.6364	2.1818	0.1	5136.3
27968	2.5455	2.4545	0.1	5128.4
27969	2.6364	2.3636	0.1	5116.4
27970	2.5455	2.6364	0.1	5116.7
27971	2.6364	2.5455	0.1	5101.8
27972	2.5455	2.8182	0.1	5109.8
27973	2.6364	2.7273	0.1	5092.2
27974	2.5455	3.	0.1	5107.6
27975	2.6364	2.9091	0.1	5087.5
27976	2.5455	3.1818	0.1	5109.8
27977	2.6364	3.0909	0.1	5087.5
27978	2.5455	3.3636	0.1	5116.7
27979	2.6364	3.2727	0.1	5092.2
27980	2.5455	3.5455	0.1	5128.4
27981	2.6364	3.4545	0.1	5101.8
27982	2.5455	3.7273	0.1	5145.2
27983	2.6364	3.6364	0.1	5116.4
27984	2.5455	3.9091	0.1	5167.5
27985	2.6364	3.8182	0.1	5136.3
27986	2.5455	4.0909	0.1	5195.8
27987	2.6364	4.	0.1	5161.9
27988	2.5455	4.2727	0.1	5230.4
27989	2.6364	4.1818	0.1	5193.5
27990	2.5455	4.4545	0.1	5271.6
27991	2.6364	4.3636	0.1	5231.4
27992	2.5455	4.6364	0.1	5319.8
27993	2.6364	4.5455	0.1	5275.8
27994	2.5455	4.8182	0.1	5374.7
27995	2.6364	4.7273	0.1	5326.7
27996	2.5455	5.	0.1	5436.2
27997	2.6364	4.9091	0.1	5383.9
27998	2.5455	5.1818	0.1	5503.6
27999	2.6364	5.0909	0.1	5447.
28000	2.5455	5.3636	0.1	5576.2
28001	2.6364	5.2727	0.1	5515.2
28002	2.5455	5.5455	0.1	5653.4
28003	2.6364	5.4545	0.1	5587.6
28004	2.5455	5.7273	0.1	5737.8
28005	2.6364	5.6364	0.1	5664.
28006	2.6364	5.8182	0.1	5749.9
28007	2.5455	5.9091	0.1	5790.6
28008	2.7273	0.27273	0.1	5676.
28009	2.8182	0.18182	0.1	5683.4
28010	2.7273	9.0909e-002	0.1	5727.
28011	2.7273	0.45455	0.1	5598.2
28012	2.8182	0.36364	0.1	5604.9
28013	2.7273	0.63636	0.1	5526.4
28014	2.8182	0.54545	0.1	5534.1
28015	2.7273	0.81818	0.1	5458.3
28016	2.8182	0.72727	0.1	5466.6
28017	2.7273	1.	0.1	5394.6
28018	2.8182	0.90909	0.1	5402.5
28019	2.7273	1.1818	0.1	5335.8
28020	2.8182	1.0909	0.1	5342.8
28021	2.7273	1.3636	0.1	5282.7
28022	2.8182	1.2727	0.1	5288.1
28023	2.7273	1.5455	0.1	5235.4
28024	2.8182	1.4545	0.1	5238.8
28025	2.7273	1.7273	0.1	5194.4
28026	2.8182	1.6364	0.1	5195.2
28027	2.7273	1.9091	0.1	5159.4
28028	2.8182	1.8182	0.1	5157.5
28029	2.7273	2.0909	0.1	5130.5
28030	2.8182	2.	0.1	5125.7
28031	2.7273	2.2727	0.1	5107.3
28032	2.8182	2.1818	0.1	5099.6
28033	2.7273	2.4545	0.1	5089.6
28034	2.8182	2.3636	0.1	5079.1
28035	2.7273	2.6364	0.1	5077.2
28036	2.8182	2.5455	0.1	5063.9
28037	2.7273	2.8182	0.1	5069.8
28038	2.8182	2.7273	0.1	5053.9
28039	2.7273	3.	0.1	5067.4
28040	2.8182	2.9091	0.1	5048.9
28041	2.7273	3.1818	0.1	5069.8
28042	2.8182	3.0909	0.1	5048.9
28043	2.7273	3.3636	0.1	5077.2
28044	2.8182	3.2727	0.1	5053.9
28045	2.7273	3.5455	0.1	5089.6
28046	2.8182	3.4545	0.1	5063.9
28047	2.7273	3.7273	0.1	5107.3
28048	2.8182	3.6364	0.1	5079.1
28049	2.7273	3.9091	0.1	5130.5
28050	2.8182	3.8182	0.1	5099.6
28051	2.7273	4.0909	0.1	5159.4
28052	2.8182	4.	0.1	5125.7
28053	2.7273	4.2727	0.1	5194.4
28054	2.8182	4.1818	0.1	5157.5
28055	2.7273	4.4545	0.1	5235.4
28056	2.8182	4.3636	0.1	5195.2
28057	2.7273	4.6364	0.1	5282.7
28058	2.8182	4.5455	0.1	5238.8
28059	2.7273	4.8182	0.1	5335.8
28060	2.8182	4.7273	0.1	5288.1
28061	2.7273	5.	0.1	5394.6
28062	2.8182	4.9091	0.1	5342.8
28063	2.7273	5.1818	0.1	5458.3
28064	2.8182	5.0909	0.1	5402.5
28065	2.7273	5.3636	0.1	5526.4
28066	2.8182	5.2727	0.1	5466.6
28067	2.7273	5.5455	0.1	5598.2
28068	2.8182	5.4545	0.1	5534.1
28069	2.7273	5.7273	0.1	5676.
28070	2.8182	5.6364	0.1	5604.9
28071	2.8182	5.8182	0.1	5683.4
28072	2.7273	5.9091	0.1	5727.
28073	2.9091	0.27273	0.1	5612.3
28074	3.	0.18182	0.1	5615.7
28075	2.9091	9.0909e-002	0.1	5661.2
28076	2.9091	0.45455	0.1	5540.7
28077	3.	0.36364	0.1	5543.9
28078	2.9091	0.63636	0.1	5474.2
28079	3.	0.54545	0.1	5478.6
28080	2.9091	0.81818	0.1	5410.6
28081	3.	0.72727	0.1	5415.8
28082	2.9091	1.	0.1	5350.7
28083	3.	0.90909	0.1	5356.
28084	2.9091	1.1818	0.1	5295.
28085	3.	1.0909	0.1	5299.8
28086	2.9091	1.3636	0.1	5244.1
28087	3.	1.2727	0.1	5247.9
28088	2.9091	1.5455	0.1	5198.4
28089	3.	1.4545	0.1	5200.7
28090	2.9091	1.7273	0.1	5158.2
28091	3.	1.6364	0.1	5158.5
28092	2.9091	1.9091	0.1	5123.7
28093	3.	1.8182	0.1	5121.7
28094	2.9091	2.0909	0.1	5094.7
28095	3.	2.	0.1	5090.3
28096	2.9091	2.2727	0.1	5071.3
28097	3.	2.1818	0.1	5064.3
28098	2.9091	2.4545	0.1	5053.3
28099	3.	2.3636	0.1	5043.7
28100	2.9091	2.6364	0.1	5040.5
28101	3.	2.5455	0.1	5028.3
28102	2.9091	2.8182	0.1	5032.9
28103	3.	2.7273	0.1	5018.2
28104	2.9091	3.	0.1	5030.4
28105	3.	2.9091	0.1	5013.1
28106	2.9091	3.1818	0.1	5032.9
28107	3.	3.0909	0.1	5013.1
28108	2.9091	3.3636	0.1	5040.5
28109	3.	3.2727	0.1	5018.2
28110	2.9091	3.5455	0.1	5053.3
28111	3.	3.4545	0.1	5028.3
28112	2.9091	3.7273	0.1	5071.3
28113	3.	3.6364	0.1	5043.7
28114	2.9091	3.9091	0.1	5094.7
28115	3.	3.8182	0.1	5064.3
28116	2.9091	4.0909	0.1	5123.7
28117	3.	4.	0.1	5090.3
28118	2.9091	4.2727	0.1	5158.2
28119	3.	4.1818	0.1	5121.7
28120	2.9091	4.4545	0.1	5198.4
28121	3.	4.3636	0.1	5158.5
28122	2.9091	4.6364	0.1	5244.1
28123	3.	4.5455	0.1	5200.7
28124	2.9091	4.8182	0.1	5295.
28125	3.	4.7273	0.1	5247.9
28126	2.9091	5.	0.1	5350.7
28127	3.	4.9091	0.1	5299.8
28128	2.9091	5.1818	0.1	5410.6
28129	3.	5.0909	0.1	5356.
28130	2.9091	5.3636	0.1	5474.2
28131	3.	5.2727	0.1	5415.8
28132	2.9091	5.5455	0.1	5540.7
28133	3.	5.4545	0.1	5478.6
28134	2.9091	5.7273	0.1	5612.3
28135	3.	5.6364	0.1	5543.9
28136	3.	5.8182	0.1	5615.7
28137	2.9091	5.9091	0.1	5661.2
28138	3.0909	0.27273	0.1	5547.3
28139	3.1818	0.18182	0.1	5547.1
28140	3.0909	9.0909e-002	0.1	5594.
28141	3.0909	0.45455	0.1	5481.7
28142	3.1818	0.36364	0.1	5481.7
28143	3.0909	0.63636	0.1	5420.1
28144	3.1818	0.54545	0.1	5421.4
28145	3.0909	0.81818	0.1	5361.1
28146	3.1818	0.72727	0.1	5363.4
28147	3.0909	1.	0.1	5305.
28148	3.1818	0.90909	0.1	5307.8
28149	3.0909	1.1818	0.1	5252.6
28150	3.1818	1.0909	0.1	5255.3
28151	3.0909	1.3636	0.1	5204.3
28152	3.1818	1.2727	0.1	5206.4
28153	3.0909	1.5455	0.1	5160.6
28154	3.1818	1.4545	0.1	5161.6
28155	3.0909	1.7273	0.1	5121.9
28156	3.1818	1.6364	0.1	5121.3
28157	3.0909	1.9091	0.1	5088.2
28158	3.1818	1.8182	0.1	5085.8
28159	3.0909	2.0909	0.1	5059.8
28160	3.1818	2.	0.1	5055.3
28161	3.0909	2.2727	0.1	5036.6
28162	3.1818	2.1818	0.1	5029.9
28163	3.0909	2.4545	0.1	5018.6
28164	3.1818	2.3636	0.1	5009.6
28165	3.0909	2.6364	0.1	5005.9
28166	3.1818	2.5455	0.1	4994.4
28167	3.0909	2.8182	0.1	4998.3
28168	3.1818	2.7273	0.1	4984.3
28169	3.0909	3.	0.1	4995.7
28170	3.1818	2.9091	0.1	4979.2
28171	3.0909	3.1818	0.1	4998.3
28172	3.1818	3.0909	0.1	4979.2
28173	3.0909	3.3636	0.1	5005.9
28174	3.1818	3.2727	0.1	4984.3
28175	3.0909	3.5455	0.1	5018.6
28176	3.1818	3.4545	0.1	4994.4
28177	3.0909	3.7273	0.1	5036.6
28178	3.1818	3.6364	0.1	5009.6
28179	3.0909	3.9091	0.1	5059.8
28180	3.1818	3.8182	0.1	5029.9
28181	3.0909	4.0909	0.1	5088.2
28182	3.1818	4.	0.1	5055.3
28183	3.0909	4.2727	0.1	5121.9
28184	3.1818	4.1818	0.1	5085.8
28185	3.0909	4.4545	0.1	5160.6
28186	3.1818	4.3636	0.1	5121.3
28187	3.0909	4.6364	0.1	5204.3
28188	3.1818	4.5455	0.1	5161.6
28189	3.0909	4.8182	0.1	5252.6
28190	3.1818	4.7273	0.1	5206.4
28191	3.0909	5.	0.1	5305.
28192	3.1818	4.9091	0.1	5255.3
28193	3.0909	5.1818	0.1	5361.1
28194	3.1818	5.0909	0.1	5307.8
28195	3.0909	5.3636	0.1	5420.1
28196	3.1818	5.2727	0.1	5363.4
28197	3.0909	5.5455	0.1	5481.7
28198	3.1818	5.4545	0.1	5421.4
28199	3.0909	5.7273	0.1	5547.3
28200	3.1818	5.6364	0.1	5481.7
28201	3.1818	5.8182	0.1	5547.1
28202	3.0909	5.9091	0.1	5594.
28203	3.2727	0.27273	0.1	5481.4
28204	3.3636	0.18182	0.1	5477.7
28205	3.2727	9.0909e-002	0.1	5525.5
28206	3.2727	0.45455	0.1	5421.4
28207	3.3636	0.36364	0.1	5418.3
28208	3.2727	0.63636	0.1	5364.7
28209	3.3636	0.54545	0.1	5363.2
28210	3.2727	0.81818	0.1	5310.1
28211	3.3636	0.72727	0.1	5309.8
28212	3.2727	1.	0.1	5258.
28213	3.3636	0.90909	0.1	5258.4
28214	3.2727	1.1818	0.1	5209.
28215	3.3636	1.0909	0.1	5209.6
28216	3.2727	1.3636	0.1	5163.6
28217	3.3636	1.2727	0.1	5164.
28218	3.2727	1.5455	0.1	5122.2
28219	3.3636	1.4545	0.1	5121.8
28220	3.2727	1.7273	0.1	5085.2
28221	3.3636	1.6364	0.1	5083.7
28222	3.2727	1.9091	0.1	5052.9
28223	3.3636	1.8182	0.1	5049.9
28224	3.2727	2.0909	0.1	5025.4
28225	3.3636	2.	0.1	5020.6
28226	3.2727	2.2727	0.1	5002.8
28227	3.3636	2.1818	0.1	4996.1
28228	3.2727	2.4545	0.1	4985.3
28229	3.3636	2.3636	0.1	4976.4
28230	3.2727	2.6364	0.1	4972.7
28231	3.3636	2.5455	0.1	4961.7
28232	3.2727	2.8182	0.1	4965.2
28233	3.3636	2.7273	0.1	4951.8
28234	3.2727	3.	0.1	4962.7
28235	3.3636	2.9091	0.1	4946.9
28236	3.2727	3.1818	0.1	4965.2
28237	3.3636	3.0909	0.1	4946.9
28238	3.2727	3.3636	0.1	4972.7
28239	3.3636	3.2727	0.1	4951.8
28240	3.2727	3.5455	0.1	4985.3
28241	3.3636	3.4545	0.1	4961.7
28242	3.2727	3.7273	0.1	5002.8
28243	3.3636	3.6364	0.1	4976.4
28244	3.2727	3.9091	0.1	5025.4
28245	3.3636	3.8182	0.1	4996.1
28246	3.2727	4.0909	0.1	5052.9
28247	3.3636	4.	0.1	5020.6
28248	3.2727	4.2727	0.1	5085.2
28249	3.3636	4.1818	0.1	5049.9
28250	3.2727	4.4545	0.1	5122.2
28251	3.3636	4.3636	0.1	5083.7
28252	3.2727	4.6364	0.1	5163.6
28253	3.3636	4.5455	0.1	5121.8
28254	3.2727	4.8182	0.1	5209.
28255	3.3636	4.7273	0.1	5164.
28256	3.2727	5.	0.1	5258.
28257	3.3636	4.9091	0.1	5209.6
28258	3.2727	5.1818	0.1	5310.1
28259	3.3636	5.0909	0.1	5258.4
28260	3.2727	5.3636	0.1	5364.7
28261	3.3636	5.2727	0.1	5309.8
28262	3.2727	5.5455	0.1	5421.4
28263	3.3636	5.4545	0.1	5363.2
28264	3.2727	5.7273	0.1	5481.4
28265	3.3636	5.6364	0.1	5418.3
28266	3.3636	5.8182	0.1	5477.7
28267	3.2727	5.9091	0.1	5525.5
28268	3.4545	0.27273	0.1	5414.7
28269	3.5455	0.18182	0.1	5407.8
28270	3.4545	9.0909e-002	0.1	5456.
28271	3.4545	0.45455	0.1	5360.1
28272	3.5455	0.36364	0.1	5354.1
28273	3.4545	0.63636	0.1	5308.2
28274	3.5455	0.54545	0.1	5303.9
28275	3.4545	0.81818	0.1	5258.
28276	3.5455	0.72727	0.1	5255.1
28277	3.4545	1.	0.1	5210.
28278	3.5455	0.90909	0.1	5208.
28279	3.4545	1.1818	0.1	5164.5
28280	3.5455	1.0909	0.1	5163.
28281	3.4545	1.3636	0.1	5122.1
28282	3.5455	1.2727	0.1	5120.7
28283	3.4545	1.5455	0.1	5083.3
28284	3.5455	1.4545	0.1	5081.4
28285	3.4545	1.7273	0.1	5048.3
28286	3.5455	1.6364	0.1	5045.7
28287	3.4545	1.9091	0.1	5017.6
28288	3.5455	1.8182	0.1	5013.9
28289	3.4545	2.0909	0.1	4991.4
28290	3.5455	2.	0.1	4986.2
28291	3.4545	2.2727	0.1	4969.7
28292	3.5455	2.1818	0.1	4962.8
28293	3.4545	2.4545	0.1	4952.8
28294	3.5455	2.3636	0.1	4944.
28295	3.4545	2.6364	0.1	4940.7
28296	3.5455	2.5455	0.1	4929.8
28297	3.4545	2.8182	0.1	4933.4
28298	3.5455	2.7273	0.1	4920.3
28299	3.4545	3.	0.1	4931.
28300	3.5455	2.9091	0.1	4915.6
28301	3.4545	3.1818	0.1	4933.4
28302	3.5455	3.0909	0.1	4915.6
28303	3.4545	3.3636	0.1	4940.7
28304	3.5455	3.2727	0.1	4920.3
28305	3.4545	3.5455	0.1	4952.8
28306	3.5455	3.4545	0.1	4929.8
28307	3.4545	3.7273	0.1	4969.7
28308	3.5455	3.6364	0.1	4944.
28309	3.4545	3.9091	0.1	4991.3
28310	3.5455	3.8182	0.1	4962.8
28311	3.4545	4.0909	0.1	5017.6
28312	3.5455	4.	0.1	4986.2
28313	3.4545	4.2727	0.1	5048.3
28314	3.5455	4.1818	0.1	5013.9
28315	3.4545	4.4545	0.1	5083.3
28316	3.5455	4.3636	0.1	5045.7
28317	3.4545	4.6364	0.1	5122.1
28318	3.5455	4.5455	0.1	5081.4
28319	3.4545	4.8182	0.1	5164.5
28320	3.5455	4.7273	0.1	5120.7
28321	3.4545	5.	0.1	5210.
28322	3.5455	4.9091	0.1	5163.
28323	3.4545	5.1818	0.1	5258.
28324	3.5455	5.0909	0.1	5208.
28325	3.4545	5.3636	0.1	5308.2
28326	3.5455	5.2727	0.1	5255.1
28327	3.4545	5.5455	0.1	5360.1
28328	3.5455	5.4545	0.1	5303.9
28329	3.4545	5.7273	0.1	5414.7
28330	3.5455	5.6364	0.1	5354.1
28331	3.5455	5.8182	0.1	5407.8
28332	3.4545	5.9091	0.1	5456.
28333	3.6364	0.27273	0.1	5347.3
28334	3.7273	0.18182	0.1	5337.2
28335	3.6364	9.0909e-002	0.1	5385.5
28336	3.6364	0.45455	0.1	5297.9
28337	3.7273	0.36364	0.1	5289.1
28338	3.6364	0.63636	0.1	5250.7
28339	3.7273	0.54545	0.1	5243.7
28340	3.6364	0.81818	0.1	5205.
28341	3.7273	0.72727	0.1	5199.5
28342	3.6364	1.	0.1	5161.
28343	3.7273	0.90909	0.1	5156.6
28344	3.6364	1.1818	0.1	5119.1
28345	3.7273	1.0909	0.1	5115.6
28346	3.6364	1.3636	0.1	5080.
28347	3.7273	1.2727	0.1	5076.7
28348	3.6364	1.5455	0.1	5043.9
28349	3.7273	1.4545	0.1	5040.6
28350	3.6364	1.7273	0.1	5011.2
28351	3.7273	1.6364	0.1	5007.4
28352	3.6364	1.9091	0.1	4982.4
28353	3.7273	1.8182	0.1	4977.8
28354	3.6364	2.0909	0.1	4957.6
28355	3.7273	2.	0.1	4951.8
28356	3.6364	2.2727	0.1	4937.1
28357	3.7273	2.1818	0.1	4929.9
28358	3.6364	2.4545	0.1	4921.
28359	3.7273	2.3636	0.1	4912.2
28360	3.6364	2.6364	0.1	4909.5
28361	3.7273	2.5455	0.1	4898.7
28362	3.6364	2.8182	0.1	4902.5
28363	3.7273	2.7273	0.1	4889.7
28364	3.6364	3.	0.1	4900.2
28365	3.7273	2.9091	0.1	4885.2
28366	3.6364	3.1818	0.1	4902.5
28367	3.7273	3.0909	0.1	4885.2
28368	3.6364	3.3636	0.1	4909.5
28369	3.7273	3.2727	0.1	4889.7
28370	3.6364	3.5455	0.1	4921.
28371	3.7273	3.4545	0.1	4898.7
28372	3.6364	3.7273	0.1	4937.1
28373	3.7273	3.6364	0.1	4912.2
28374	3.6364	3.9091	0.1	4957.6
28375	3.7273	3.8182	0.1	4929.9
28376	3.6364	4.0909	0.1	4982.4
28377	3.7273	4.	0.1	4951.8
28378	3.6364	4.2727	0.1	5011.2
28379	3.7273	4.1818	0.1	4977.8
28380	3.6364	4.4545	0.1	5043.9
28381	3.7273	4.3636	0.1	5007.4
28382	3.6364	4.6364	0.1	5080.
28383	3.7273	4.5455	0.1	5040.6
28384	3.6364	4.8182	0.1	5119.1
28385	3.7273	4.7273	0.1	5076.7
28386	3.6364	5.	0.1	5161.
28387	3.7273	4.9091	0.1	5115.6
28388	3.6364	5.1818	0.1	5205.
28389	3.7273	5.0909	0.1	5156.6
28390	3.6364	5.3636	0.1	5250.7
28391	3.7273	5.2727	0.1	5199.5
28392	3.6364	5.5455	0.1	5297.9
28393	3.7273	5.4545	0.1	5243.7
28394	3.6364	5.7273	0.1	5347.3
28395	3.7273	5.6364	0.1	5289.1
28396	3.7273	5.8182	0.1	5337.2
28397	3.6364	5.9091	0.1	5385.5
28398	3.8182	0.27273	0.1	5279.
28399	3.9091	0.18182	0.1	5265.8
28400	3.8182	9.0909e-002	0.1	5314.
28401	3.8182	0.45455	0.1	5234.8
28402	3.9091	0.36364	0.1	5223.1
28403	3.8182	0.63636	0.1	5192.4
28404	3.9091	0.54545	0.1	5182.6
28405	3.8182	0.81818	0.1	5151.1
28406	3.9091	0.72727	0.1	5143.
28407	3.8182	1.	0.1	5111.2
28408	3.9091	0.90909	0.1	5104.5
28409	3.8182	1.1818	0.1	5073.1
28410	3.9091	1.0909	0.1	5067.4
28411	3.8182	1.3636	0.1	5037.3
28412	3.9091	1.2727	0.1	5032.2
28413	3.8182	1.5455	0.1	5004.1
28414	3.9091	1.4545	0.1	4999.3
28415	3.8182	1.7273	0.1	4974.
28416	3.9091	1.6364	0.1	4969.
28417	3.8182	1.9091	0.1	4947.2
28418	3.9091	1.8182	0.1	4941.7
28419	3.8182	2.0909	0.1	4924.1
28420	3.9091	2.	0.1	4917.7
28421	3.8182	2.2727	0.1	4904.9
28422	3.9091	2.1818	0.1	4897.4
28423	3.8182	2.4545	0.1	4889.9
28424	3.9091	2.3636	0.1	4880.9
28425	3.8182	2.6364	0.1	4879.
28426	3.9091	2.5455	0.1	4868.4
28427	3.8182	2.8182	0.1	4872.5
28428	3.9091	2.7273	0.1	4860.
28429	3.8182	3.	0.1	4870.3
28430	3.9091	2.9091	0.1	4855.8
28431	3.8182	3.1818	0.1	4872.5
28432	3.9091	3.0909	0.1	4855.8
28433	3.8182	3.3636	0.1	4879.
28434	3.9091	3.2727	0.1	4860.
28435	3.8182	3.5455	0.1	4889.9
28436	3.9091	3.4545	0.1	4868.4
28437	3.8182	3.7273	0.1	4904.9
28438	3.9091	3.6364	0.1	4880.9
28439	3.8182	3.9091	0.1	4924.1
28440	3.9091	3.8182	0.1	4897.4
28441	3.8182	4.0909	0.1	4947.2
28442	3.9091	4.	0.1	4917.7
28443	3.8182	4.2727	0.1	4974.
28444	3.9091	4.1818	0.1	4941.7
28445	3.8182	4.4545	0.1	5004.1
28446	3.9091	4.3636	0.1	4969.
28447	3.8182	4.6364	0.1	5037.3
28448	3.9091	4.5455	0.1	4999.3
28449	3.8182	4.8182	0.1	5073.1
28450	3.9091	4.7273	0.1	5032.2
28451	3.8182	5.	0.1	5111.2
28452	3.9091	4.9091	0.1	5067.4
28453	3.8182	5.1818	0.1	5151.1
28454	3.9091	5.0909	0.1	5104.5
28455	3.8182	5.3636	0.1	5192.4
28456	3.9091	5.2727	0.1	5143.
28457	3.8182	5.5455	0.1	5234.8
28458	3.9091	5.4545	0.1	5182.6
28459	3.8182	5.7273	0.1	5279.
28460	3.9091	5.6364	0.1	5223.1
28461	3.9091	5.8182	0.1	5265.8
28462	3.8182	5.9091	0.1	5314.
28463	4.	0.27273	0.1	5209.8
28464	4.0909	0.18182	0.1	5193.2
28465	4.	9.0909e-002	0.1	5241.2
28466	4.	0.45455	0.1	5170.7
28467	4.0909	0.36364	0.1	5155.9
28468	4.	0.63636	0.1	5133.1
28469	4.0909	0.54545	0.1	5120.3
28470	4.	0.81818	0.1	5096.4
28471	4.0909	0.72727	0.1	5085.5
28472	4.	1.	0.1	5060.7
28473	4.0909	0.90909	0.1	5051.5
28474	4.	1.1818	0.1	5026.5
28475	4.0909	1.0909	0.1	5018.6
28476	4.	1.3636	0.1	4994.2
28477	4.0909	1.2727	0.1	4987.2
28478	4.	1.5455	0.1	4964.1
28479	4.0909	1.4545	0.1	4957.7
28480	4.	1.7273	0.1	4936.7
28481	4.0909	1.6364	0.1	4930.4
28482	4.	1.9091	0.1	4912.2
28483	4.0909	1.8182	0.1	4905.8
28484	4.	2.0909	0.1	4891.
28485	4.0909	2.	0.1	4884.
28486	4.	2.2727	0.1	4873.3
28487	4.0909	2.1818	0.1	4865.5
28488	4.	2.4545	0.1	4859.4
28489	4.0909	2.3636	0.1	4850.4
28490	4.	2.6364	0.1	4849.4
28491	4.0909	2.5455	0.1	4838.9
28492	4.	2.8182	0.1	4843.3
28493	4.0909	2.7273	0.1	4831.2
28494	4.	3.	0.1	4841.3
28495	4.0909	2.9091	0.1	4827.3
28496	4.	3.1818	0.1	4843.3
28497	4.0909	3.0909	0.1	4827.3
28498	4.	3.3636	0.1	4849.4
28499	4.0909	3.2727	0.1	4831.2
28500	4.	3.5455	0.1	4859.4
28501	4.0909	3.4545	0.1	4838.9
28502	4.	3.7273	0.1	4873.3
28503	4.0909	3.6364	0.1	4850.4
28504	4.	3.9091	0.1	4891.
28505	4.0909	3.8182	0.1	4865.5
28506	4.	4.0909	0.1	4912.2
28507	4.0909	4.	0.1	4884.
28508	4.	4.2727	0.1	4936.7
28509	4.0909	4.1818	0.1	4905.8
28510	4.	4.4545	0.1	4964.1
28511	4.0909	4.3636	0.1	4930.4
28512	4.	4.6364	0.1	4994.2
28513	4.0909	4.5455	0.1	4957.7
28514	4.	4.8182	0.1	5026.5
28515	4.0909	4.7273	0.1	4987.2
28516	4.	5.	0.1	5060.7
28517	4.0909	4.9091	0.1	5018.6
28518	4.	5.1818	0.1	5096.4
28519	4.0909	5.0909	0.1	5051.5
28520	4.	5.3636	0.1	5133.1
28521	4.0909	5.2727	0.1	5085.5
28522	4.	5.5455	0.1	5170.7
28523	4.0909	5.4545	0.1	5120.3
28524	4.	5.7273	0.1	5209.8
28525	4.0909	5.6364	0.1	5155.9
28526	4.0909	5.8182	0.1	5193.2
28527	4.	5.9091	0.1	5241.2
28528	4.1818	0.27273	0.1	5139.2
28529	4.2727	0.18182	0.1	5119.
28530	4.1818	9.0909e-002	0.1	5166.8
28531	4.1818	0.45455	0.1	5105.4
28532	4.2727	0.36364	0.1	5087.1
28533	4.1818	0.63636	0.1	5072.7
28534	4.2727	0.54545	0.1	5056.7
28535	4.1818	0.81818	0.1	5040.6
28536	4.2727	0.72727	0.1	5026.8
28537	4.1818	1.	0.1	5009.4
28538	4.2727	0.90909	0.1	4997.5
28539	4.1818	1.1818	0.1	4979.3
28540	4.2727	1.0909	0.1	4969.1
28541	4.1818	1.3636	0.1	4950.7
28542	4.2727	1.2727	0.1	4941.8
28543	4.1818	1.5455	0.1	4924.
28544	4.2727	1.4545	0.1	4916.
28545	4.1818	1.7273	0.1	4899.5
28546	4.2727	1.6364	0.1	4892.
28547	4.1818	1.9091	0.1	4877.5
28548	4.2727	1.8182	0.1	4870.2
28549	4.1818	2.0909	0.1	4858.5
28550	4.2727	2.	0.1	4850.9
28551	4.1818	2.2727	0.1	4842.5
28552	4.2727	2.1818	0.1	4834.4
28553	4.1818	2.4545	0.1	4829.9
28554	4.2727	2.3636	0.1	4820.9
28555	4.1818	2.6364	0.1	4820.8
28556	4.2727	2.5455	0.1	4810.6
28557	4.1818	2.8182	0.1	4815.2
28558	4.2727	2.7273	0.1	4803.7
28559	4.1818	3.	0.1	4813.4
28560	4.2727	2.9091	0.1	4800.2
28561	4.1818	3.1818	0.1	4815.2
28562	4.2727	3.0909	0.1	4800.2
28563	4.1818	3.3636	0.1	4820.8
28564	4.2727	3.2727	0.1	4803.7
28565	4.1818	3.5455	0.1	4829.9
28566	4.2727	3.4545	0.1	4810.6
28567	4.1818	3.7273	0.1	4842.5
28568	4.2727	3.6364	0.1	4820.9
28569	4.1818	3.9091	0.1	4858.5
28570	4.2727	3.8182	0.1	4834.4
28571	4.1818	4.0909	0.1	4877.5
28572	4.2727	4.	0.1	4850.9
28573	4.1818	4.2727	0.1	4899.5
28574	4.2727	4.1818	0.1	4870.2
28575	4.1818	4.4545	0.1	4924.
28576	4.2727	4.3636	0.1	4892.
28577	4.1818	4.6364	0.1	4950.7
28578	4.2727	4.5455	0.1	4916.
28579	4.1818	4.8182	0.1	4979.3
28580	4.2727	4.7273	0.1	4941.8
28581	4.1818	5.	0.1	5009.4
28582	4.2727	4.9091	0.1	4969.1
28583	4.1818	5.1818	0.1	5040.6
28584	4.2727	5.0909	0.1	4997.5
28585	4.1818	5.3636	0.1	5072.7
28586	4.2727	5.2727	0.1	5026.8
28587	4.1818	5.5455	0.1	5105.4
28588	4.2727	5.4545	0.1	5056.7
28589	4.1818	5.7273	0.1	5139.2
28590	4.2727	5.6364	0.1	5087.1
28591	4.2727	5.8182	0.1	5119.
28592	4.1818	5.9091	0.1	5166.8
28593	4.3636	0.27273	0.1	5066.9
28594	4.4545	0.18182	0.1	5042.6
28595	4.3636	9.0909e-002	0.1	5090.3
28596	4.3636	0.45455	0.1	5038.4
28597	4.4545	0.36364	0.1	5016.4
28598	4.3636	0.63636	0.1	5010.8
28599	4.4545	0.54545	0.1	4991.3
28600	4.3636	0.81818	0.1	4983.7
28601	4.4545	0.72727	0.1	4966.7
28602	4.3636	1.	0.1	4957.2
28603	4.4545	0.90909	0.1	4942.4
28604	4.3636	1.1818	0.1	4931.5
28605	4.4545	1.0909	0.1	4918.7
28606	4.3636	1.3636	0.1	4907.
28607	4.4545	1.2727	0.1	4895.9
28608	4.3636	1.5455	0.1	4883.9
28609	4.4545	1.4545	0.1	4874.1
28610	4.3636	1.7273	0.1	4862.6
28611	4.4545	1.6364	0.1	4853.8
28612	4.3636	1.9091	0.1	4843.5
28613	4.4545	1.8182	0.1	4835.2
28614	4.3636	2.0909	0.1	4826.8
28615	4.4545	2.	0.1	4818.7
28616	4.3636	2.2727	0.1	4812.7
28617	4.4545	2.1818	0.1	4804.5
28618	4.3636	2.4545	0.1	4801.6
28619	4.4545	2.3636	0.1	4792.9
28620	4.3636	2.6364	0.1	4793.6
28621	4.4545	2.5455	0.1	4784.
28622	4.3636	2.8182	0.1	4788.7
28623	4.4545	2.7273	0.1	4778.
28624	4.3636	3.	0.1	4787.1
28625	4.4545	2.9091	0.1	4775.
28626	4.3636	3.1818	0.1	4788.7
28627	4.4545	3.0909	0.1	4775.
28628	4.3636	3.3636	0.1	4793.6
28629	4.4545	3.2727	0.1	4778.
28630	4.3636	3.5455	0.1	4801.6
28631	4.4545	3.4545	0.1	4784.
28632	4.3636	3.7273	0.1	4812.7
28633	4.4545	3.6364	0.1	4792.9
28634	4.3636	3.9091	0.1	4826.8
28635	4.4545	3.8182	0.1	4804.5
28636	4.3636	4.0909	0.1	4843.5
28637	4.4545	4.	0.1	4818.7
28638	4.3636	4.2727	0.1	4862.6
28639	4.4545	4.1818	0.1	4835.2
28640	4.3636	4.4545	0.1	4883.9
28641	4.4545	4.3636	0.1	4853.8
28642	4.3636	4.6364	0.1	4907.
28643	4.4545	4.5455	0.1	4874.1
28644	4.3636	4.8182	0.1	4931.5
28645	4.4545	4.7273	0.1	4895.9
28646	4.3636	5.	0.1	4957.2
28647	4.4545	4.9091	0.1	4918.7
28648	4.3636	5.1818	0.1	4983.7
28649	4.4545	5.0909	0.1	4942.4
28650	4.3636	5.3636	0.1	5010.8
28651	4.4545	5.2727	0.1	4966.7
28652	4.3636	5.5455	0.1	5038.4
28653	4.4545	5.4545	0.1	4991.3
28654	4.3636	5.7273	0.1	5066.9
28655	4.4545	5.6364	0.1	5016.4
28656	4.4545	5.8182	0.1	5042.6
28657	4.3636	5.9091	0.1	5090.3
28658	4.5455	0.27273	0.1	4992.1
28659	4.6364	0.18182	0.1	4963.3
28660	4.5455	9.0909e-002	0.1	5011.
28661	4.5455	0.45455	0.1	4969.3
28662	4.6364	0.36364	0.1	4943.
28663	4.5455	0.63636	0.1	4947.2
28664	4.6364	0.54545	0.1	4923.7
28665	4.5455	0.81818	0.1	4925.4
28666	4.6364	0.72727	0.1	4904.7
28667	4.5455	1.	0.1	4903.9
28668	4.6364	0.90909	0.1	4885.9
28669	4.5455	1.1818	0.1	4883.1
28670	4.6364	1.0909	0.1	4867.4
28671	4.5455	1.3636	0.1	4863.
28672	4.6364	1.2727	0.1	4849.5
28673	4.5455	1.5455	0.1	4843.9
28674	4.6364	1.4545	0.1	4832.2
28675	4.5455	1.7273	0.1	4826.3
28676	4.6364	1.6364	0.1	4816.
28677	4.5455	1.9091	0.1	4810.3
28678	4.6364	1.8182	0.1	4801.1
28679	4.5455	2.0909	0.1	4796.4
28680	4.6364	2.	0.1	4787.8
28681	4.5455	2.2727	0.1	4784.6
28682	4.6364	2.1818	0.1	4776.3
28683	4.5455	2.4545	0.1	4775.2
28684	4.6364	2.3636	0.1	4766.9
28685	4.5455	2.6364	0.1	4768.4
28686	4.6364	2.5455	0.1	4759.6
28687	4.5455	2.8182	0.1	4764.2
28688	4.6364	2.7273	0.1	4754.7
28689	4.5455	3.	0.1	4762.9
28690	4.6364	2.9091	0.1	4752.3
28691	4.5455	3.1818	0.1	4764.2
28692	4.6364	3.0909	0.1	4752.3
28693	4.5455	3.3636	0.1	4768.4
28694	4.6364	3.2727	0.1	4754.7
28695	4.5455	3.5455	0.1	4775.2
28696	4.6364	3.4545	0.1	4759.6
28697	4.5455	3.7273	0.1	4784.6
28698	4.6364	3.6364	0.1	4766.9
28699	4.5455	3.9091	0.1	4796.3
28700	4.6364	3.8182	0.1	4776.3
28701	4.5455	4.0909	0.1	4810.3
28702	4.6364	4.	0.1	4787.8
28703	4.5455	4.2727	0.1	4826.3
28704	4.6364	4.1818	0.1	4801.1
28705	4.5455	4.4545	0.1	4843.9
28706	4.6364	4.3636	0.1	4816.
28707	4.5455	4.6364	0.1	4863.
28708	4.6364	4.5455	0.1	4832.2
28709	4.5455	4.8182	0.1	4883.1
28710	4.6364	4.7273	0.1	4849.5
28711	4.5455	5.	0.1	4903.9
28712	4.6364	4.9091	0.1	4867.4
28713	4.5455	5.1818	0.1	4925.4
28714	4.6364	5.0909	0.1	4885.9
28715	4.5455	5.3636	0.1	4947.2
28716	4.6364	5.2727	0.1	4904.7
28717	4.5455	5.5455	0.1	4969.3
28718	4.6364	5.4545	0.1	4923.7
28719	4.5455	5.7273	0.1	4992.1
28720	4.6364	5.6364	0.1	4943.
28721	4.6364	5.8182	0.1	4963.3
28722	4.5455	5.9091	0.1	5011.
28723	4.7273	0.27273	0.1	4914.1
28724	4.8182	0.18182	0.1	4880.1
28725	4.7273	9.0909e-002	0.1	4928.
28726	4.7273	0.45455	0.1	4897.3
28727	4.8182	0.36364	0.1	4866.
28728	4.7273	0.63636	0.1	4881.1
28729	4.8182	0.54545	0.1	4853.
28730	4.7273	0.81818	0.1	4865.1
28731	4.8182	0.72727	0.1	4840.1
28732	4.7273	1.	0.1	4849.3
28733	4.8182	0.90909	0.1	4827.4
28734	4.7273	1.1818	0.1	4833.8
28735	4.8182	1.0909	0.1	4814.8
28736	4.7273	1.3636	0.1	4818.7
28737	4.8182	1.2727	0.1	4802.5
28738	4.7273	1.5455	0.1	4804.3
28739	4.8182	1.4545	0.1	4790.5
28740	4.7273	1.7273	0.1	4790.8
28741	4.8182	1.6364	0.1	4779.1
28742	4.7273	1.9091	0.1	4778.6
28743	4.8182	1.8182	0.1	4768.5
28744	4.7273	2.0909	0.1	4767.8
28745	4.8182	2.	0.1	4758.9
28746	4.7273	2.2727	0.1	4758.6
28747	4.8182	2.1818	0.1	4750.6
28748	4.7273	2.4545	0.1	4751.3
28749	4.8182	2.3636	0.1	4743.7
28750	4.7273	2.6364	0.1	4746.
28751	4.8182	2.5455	0.1	4738.5
28752	4.7273	2.8182	0.1	4742.7
28753	4.8182	2.7273	0.1	4734.9
28754	4.7273	3.	0.1	4741.7
28755	4.8182	2.9091	0.1	4733.1
28756	4.7273	3.1818	0.1	4742.7
28757	4.8182	3.0909	0.1	4733.1
28758	4.7273	3.3636	0.1	4746.
28759	4.8182	3.2727	0.1	4734.9
28760	4.7273	3.5455	0.1	4751.3
28761	4.8182	3.4545	0.1	4738.5
28762	4.7273	3.7273	0.1	4758.6
28763	4.8182	3.6364	0.1	4743.7
28764	4.7273	3.9091	0.1	4767.8
28765	4.8182	3.8182	0.1	4750.6
28766	4.7273	4.0909	0.1	4778.6
28767	4.8182	4.	0.1	4758.9
28768	4.7273	4.2727	0.1	4790.8
28769	4.8182	4.1818	0.1	4768.5
28770	4.7273	4.4545	0.1	4804.3
28771	4.8182	4.3636	0.1	4779.1
28772	4.7273	4.6364	0.1	4818.7
28773	4.8182	4.5455	0.1	4790.5
28774	4.7273	4.8182	0.1	4833.8
28775	4.8182	4.7273	0.1	4802.5
28776	4.7273	5.	0.1	4849.3
28777	4.8182	4.9091	0.1	4814.8
28778	4.7273	5.1818	0.1	4865.1
28779	4.8182	5.0909	0.1	4827.4
28780	4.7273	5.3636	0.1	4881.1
28781	4.8182	5.2727	0.1	4840.1
28782	4.7273	5.5455	0.1	4897.3
28783	4.8182	5.4545	0.1	4853.
28784	4.7273	5.7273	0.1	4914.1
28785	4.8182	5.6364	0.1	4866.
28786	4.8182	5.8182	0.1	4880.1
28787	4.7273	5.9091	0.1	4928.
28788	4.9091	0.27273	0.1	4832.
28789	5.	0.18182	0.1	4791.8
28790	4.9091	9.0909e-002	0.1	4840.4
28791	4.9091	0.45455	0.1	4821.7
28792	5.	0.36364	0.1	4784.6
28793	4.9091	0.63636	0.1	4812.
28794	5.	0.54545	0.1	4778.3
28795	4.9091	0.81818	0.1	4802.4
28796	5.	0.72727	0.1	4772.4
28797	4.9091	1.	0.1	4792.9
28798	5.	0.90909	0.1	4766.5
28799	4.9091	1.1818	0.1	4783.5
28800	5.	1.0909	0.1	4760.7
28801	4.9091	1.3636	0.1	4774.2
28802	5.	1.2727	0.1	4754.8
28803	4.9091	1.5455	0.1	4765.2
28804	5.	1.4545	0.1	4748.9
28805	4.9091	1.7273	0.1	4756.6
28806	5.	1.6364	0.1	4743.1
28807	4.9091	1.9091	0.1	4748.7
28808	5.	1.8182	0.1	4737.7
28809	4.9091	2.0909	0.1	4741.7
28810	5.	2.	0.1	4732.6
28811	4.9091	2.2727	0.1	4735.7
28812	5.	2.1818	0.1	4728.2
28813	4.9091	2.4545	0.1	4730.9
28814	5.	2.3636	0.1	4724.5
28815	4.9091	2.6364	0.1	4727.4
28816	5.	2.5455	0.1	4721.7
28817	4.9091	2.8182	0.1	4725.3
28818	5.	2.7273	0.1	4719.8
28819	4.9091	3.	0.1	4724.6
28820	5.	2.9091	0.1	4718.8
28821	4.9091	3.1818	0.1	4725.3
28822	5.	3.0909	0.1	4718.8
28823	4.9091	3.3636	0.1	4727.4
28824	5.	3.2727	0.1	4719.8
28825	4.9091	3.5455	0.1	4730.9
28826	5.	3.4545	0.1	4721.7
28827	4.9091	3.7273	0.1	4735.7
28828	5.	3.6364	0.1	4724.5
28829	4.9091	3.9091	0.1	4741.7
28830	5.	3.8182	0.1	4728.2
28831	4.9091	4.0909	0.1	4748.7
28832	5.	4.	0.1	4732.6
28833	4.9091	4.2727	0.1	4756.6
28834	5.	4.1818	0.1	4737.7
28835	4.9091	4.4545	0.1	4765.2
28836	5.	4.3636	0.1	4743.1
28837	4.9091	4.6364	0.1	4774.2
28838	5.	4.5455	0.1	4748.9
28839	4.9091	4.8182	0.1	4783.5
28840	5.	4.7273	0.1	4754.8
28841	4.9091	5.	0.1	4792.9
28842	5.	4.9091	0.1	4760.7
28843	4.9091	5.1818	0.1	4802.4
28844	5.	5.0909	0.1	4766.5
28845	4.9091	5.3636	0.1	4812.
28846	5.	5.2727	0.1	4772.4
28847	4.9091	5.5455	0.1	4821.7
28848	5.	5.4545	0.1	4778.3
28849	4.9091	5.7273	0.1	4832.
28850	5.	5.6364	0.1	4784.6
28851	5.	5.8182	0.1	4791.8
28852	4.9091	5.9091	0.1	4840.4
28853	5.0909	0.27273	0.1	4744.4
28854	5.1818	0.18182	0.1	4697.1
28855	5.0909	9.0909e-002	0.1	4746.8
28856	5.0909	0.45455	0.1	4741.2
28857	5.1818	0.36364	0.1	4697.2
28858	5.0909	0.63636	0.1	4738.7
28859	5.1818	0.54545	0.1	4698.5
28860	5.0909	0.81818	0.1	4736.5
28861	5.1818	0.72727	0.1	4700.4
28862	5.0909	1.	0.1	4734.3
28863	5.1818	0.90909	0.1	4702.5
28864	5.0909	1.1818	0.1	4731.9
28865	5.1818	1.0909	0.1	4704.4
28866	5.0909	1.3636	0.1	4729.4
28867	5.1818	1.2727	0.1	4706.2
28868	5.0909	1.5455	0.1	4726.8
28869	5.1818	1.4545	0.1	4707.6
28870	5.0909	1.7273	0.1	4724.1
28871	5.1818	1.6364	0.1	4708.7
28872	5.0909	1.9091	0.1	4721.5
28873	5.1818	1.8182	0.1	4709.5
28874	5.0909	2.0909	0.1	4719.1
28875	5.1818	2.	0.1	4710.
28876	5.0909	2.2727	0.1	4717.
28877	5.1818	2.1818	0.1	4710.4
28878	5.0909	2.4545	0.1	4715.3
28879	5.1818	2.3636	0.1	4710.7
28880	5.0909	2.6364	0.1	4714.1
28881	5.1818	2.5455	0.1	4710.9
28882	5.0909	2.8182	0.1	4713.3
28883	5.1818	2.7273	0.1	4711.1
28884	5.0909	3.	0.1	4713.1
28885	5.1818	2.9091	0.1	4711.2
28886	5.0909	3.1818	0.1	4713.3
28887	5.1818	3.0909	0.1	4711.2
28888	5.0909	3.3636	0.1	4714.1
28889	5.1818	3.2727	0.1	4711.1
28890	5.0909	3.5455	0.1	4715.3
28891	5.1818	3.4545	0.1	4710.9
28892	5.0909	3.7273	0.1	4717.
28893	5.1818	3.6364	0.1	4710.7
28894	5.0909	3.9091	0.1	4719.1
28895	5.1818	3.8182	0.1	4710.4
28896	5.0909	4.0909	0.1	4721.5
28897	5.1818	4.	0.1	4710.
28898	5.0909	4.2727	0.1	4724.1
28899	5.1818	4.1818	0.1	4709.5
28900	5.0909	4.4545	0.1	4726.8
28901	5.1818	4.3636	0.1	4708.7
28902	5.0909	4.6364	0.1	4729.4
28903	5.1818	4.5455	0.1	4707.6
28904	5.0909	4.8182	0.1	4731.9
28905	5.1818	4.7273	0.1	4706.2
28906	5.0909	5.	0.1	4734.3
28907	5.1818	4.9091	0.1	4704.4
28908	5.0909	5.1818	0.1	4736.5
28909	5.1818	5.0909	0.1	4702.5
28910	5.0909	5.3636	0.1	4738.7
28911	5.1818	5.2727	0.1	4700.4
28912	5.0909	5.5455	0.1	4741.2
28913	5.1818	5.4545	0.1	4698.5
28914	5.0909	5.7273	0.1	4744.4
28915	5.1818	5.6364	0.1	4697.2
28916	5.1818	5.8182	0.1	4697.1
28917	5.0909	5.9091	0.1	4746.8
28918	5.2727	0.27273	0.1	4649.8
28919	5.3636	0.18182	0.1	4594.
28920	5.2727	9.0909e-002	0.1	4645.5
28921	5.2727	0.45455	0.1	4654.5
28922	5.3636	0.36364	0.1	4602.2
28923	5.2727	0.63636	0.1	4660.2
28924	5.3636	0.54545	0.1	4612.2
28925	5.2727	0.81818	0.1	4666.4
28926	5.3636	0.72727	0.1	4623.
28927	5.2727	1.	0.1	4672.6
28928	5.3636	0.90909	0.1	4634.2
28929	5.2727	1.1818	0.1	4678.7
28930	5.3636	1.0909	0.1	4645.5
28931	5.2727	1.3636	0.1	4684.3
28932	5.3636	1.2727	0.1	4656.5
28933	5.2727	1.5455	0.1	4689.5
28934	5.3636	1.4545	0.1	4666.8
28935	5.2727	1.7273	0.1	4694.
28936	5.3636	1.6364	0.1	4676.2
28937	5.2727	1.9091	0.1	4697.9
28938	5.3636	1.8182	0.1	4684.7
28939	5.2727	2.0909	0.1	4701.2
28940	5.3636	2.	0.1	4692.2
28941	5.2727	2.2727	0.1	4704.
28942	5.3636	2.1818	0.1	4698.6
28943	5.2727	2.4545	0.1	4706.2
28944	5.3636	2.3636	0.1	4704.
28945	5.2727	2.6364	0.1	4707.9
28946	5.3636	2.5455	0.1	4708.1
28947	5.2727	2.8182	0.1	4708.9
28948	5.3636	2.7273	0.1	4710.9
28949	5.2727	3.	0.1	4709.2
28950	5.3636	2.9091	0.1	4712.4
28951	5.2727	3.1818	0.1	4708.9
28952	5.3636	3.0909	0.1	4712.4
28953	5.2727	3.3636	0.1	4707.9
28954	5.3636	3.2727	0.1	4710.9
28955	5.2727	3.5455	0.1	4706.2
28956	5.3636	3.4545	0.1	4708.1
28957	5.2727	3.7273	0.1	4704.
28958	5.3636	3.6364	0.1	4704.
28959	5.2727	3.9091	0.1	4701.2
28960	5.3636	3.8182	0.1	4698.6
28961	5.2727	4.0909	0.1	4697.9
28962	5.3636	4.	0.1	4692.2
28963	5.2727	4.2727	0.1	4694.
28964	5.3636	4.1818	0.1	4684.7
28965	5.2727	4.4545	0.1	4689.5
28966	5.3636	4.3636	0.1	4676.2
28967	5.2727	4.6364	0.1	4684.3
28968	5.3636	4.5455	0.1	4666.8
28969	5.2727	4.8182	0.1	4678.7
28970	5.3636	4.7273	0.1	4656.5
28971	5.2727	5.	0.1	4672.6
28972	5.3636	4.9091	0.1	4645.5
28973	5.2727	5.1818	0.1	4666.4
28974	5.3636	5.0909	0.1	4634.2
28975	5.2727	5.3636	0.1	4660.2
28976	5.3636	5.2727	0.1	4623.
28977	5.2727	5.5455	0.1	4654.5
28978	5.3636	5.4545	0.1	4612.2
28979	5.2727	5.7273	0.1	4649.8
28980	5.3636	5.6364	0.1	4602.2
28981	5.3636	5.8182	0.1	4593.9
28982	5.2727	5.9091	0.1	4645.5
28983	5.4545	0.27273	0.1	4546.3
28984	5.5455	0.18182	0.1	4480.4
28985	5.4545	9.0909e-002	0.1	4534.5
28986	5.4545	0.45455	0.1	4559.9
28987	5.5455	0.36364	0.1	4497.6
28988	5.4545	0.63636	0.1	4574.9
28989	5.5455	0.54545	0.1	4517.3
28990	5.4545	0.81818	0.1	4590.9
28991	5.5455	0.72727	0.1	4538.5
28992	5.4545	1.	0.1	4607.2
28993	5.5455	0.90909	0.1	4560.6
28994	5.4545	1.1818	0.1	4623.3
28995	5.5455	1.0909	0.1	4583.1
28996	5.4545	1.3636	0.1	4638.9
28997	5.5455	1.2727	0.1	4605.2
28998	5.4545	1.5455	0.1	4653.5
28999	5.5455	1.4545	0.1	4626.5
29000	5.4545	1.7273	0.1	4666.9
29001	5.5455	1.6364	0.1	4646.4
29002	5.4545	1.9091	0.1	4679.
29003	5.5455	1.8182	0.1	4664.5
29004	5.4545	2.0909	0.1	4689.6
29005	5.5455	2.	0.1	4680.8
29006	5.4545	2.2727	0.1	4698.5
29007	5.5455	2.1818	0.1	4694.9
29008	5.4545	2.4545	0.1	4705.8
29009	5.5455	2.3636	0.1	4706.7
29010	5.4545	2.6364	0.1	4711.1
29011	5.5455	2.5455	0.1	4715.9
29012	5.4545	2.8182	0.1	4714.4
29013	5.5455	2.7273	0.1	4722.2
29014	5.4545	3.	0.1	4715.5
29015	5.5455	2.9091	0.1	4725.5
29016	5.4545	3.1818	0.1	4714.4
29017	5.5455	3.0909	0.1	4725.5
29018	5.4545	3.3636	0.1	4711.1
29019	5.5455	3.2727	0.1	4722.2
29020	5.4545	3.5455	0.1	4705.8
29021	5.5455	3.4545	0.1	4715.9
29022	5.4545	3.7273	0.1	4698.5
29023	5.5455	3.6364	0.1	4706.7
29024	5.4545	3.9091	0.1	4689.6
29025	5.5455	3.8182	0.1	4694.9
29026	5.4545	4.0909	0.1	4679.
29027	5.5455	4.	0.1	4680.8
29028	5.4545	4.2727	0.1	4666.9
29029	5.5455	4.1818	0.1	4664.5
29030	5.4545	4.4545	0.1	4653.5
29031	5.5455	4.3636	0.1	4646.4
29032	5.4545	4.6364	0.1	4638.9
29033	5.5455	4.5455	0.1	4626.5
29034	5.4545	4.8182	0.1	4623.3
29035	5.5455	4.7273	0.1	4605.2
29036	5.4545	5.	0.1	4607.2
29037	5.5455	4.9091	0.1	4583.1
29038	5.4545	5.1818	0.1	4590.9
29039	5.5455	5.0909	0.1	4560.6
29040	5.4545	5.3636	0.1	4574.9
29041	5.5455	5.2727	0.1	4538.5
29042	5.4545	5.5455	0.1	4559.9
29043	5.5455	5.4545	0.1	4517.3
29044	5.4545	5.7273	0.1	4546.3
29045	5.5455	5.6364	0.1	4497.6
29046	5.5455	5.8182	0.1	4480.4
29047	5.4545	5.9091	0.1	4534.5
29048	5.6364	0.27273	0.1	4431.6
29049	5.7273	0.18182	0.1	4353.6
29050	5.6364	9.0909e-002	0.1	4411.3
29051	5.6364	0.45455	0.1	4455.
29052	5.7273	0.36364	0.1	4380.8
29053	5.6364	0.63636	0.1	4480.9
29054	5.7273	0.54545	0.1	4411.5
29055	5.6364	0.81818	0.1	4508.3
29056	5.7273	0.72727	0.1	4444.9
29057	5.6364	1.	0.1	4536.7
29058	5.7273	0.90909	0.1	4480.1
29059	5.6364	1.1818	0.1	4565.1
29060	5.7273	1.0909	0.1	4516.2
29061	5.6364	1.3636	0.1	4592.9
29062	5.7273	1.2727	0.1	4552.1
29063	5.6364	1.5455	0.1	4619.4
29064	5.7273	1.4545	0.1	4587.
29065	5.6364	1.7273	0.1	4644.
29066	5.7273	1.6364	0.1	4620.
29067	5.6364	1.9091	0.1	4666.3
29068	5.7273	1.8182	0.1	4650.4
29069	5.6364	2.0909	0.1	4686.1
29070	5.7273	2.	0.1	4677.8
29071	5.6364	2.2727	0.1	4703.
29072	5.7273	2.1818	0.1	4701.8
29073	5.6364	2.4545	0.1	4716.8
29074	5.7273	2.3636	0.1	4721.9
29075	5.6364	2.6364	0.1	4726.9
29076	5.7273	2.5455	0.1	4737.7
29077	5.6364	2.8182	0.1	4733.2
29078	5.7273	2.7273	0.1	4748.6
29079	5.6364	3.	0.1	4735.4
29080	5.7273	2.9091	0.1	4754.2
29081	5.6364	3.1818	0.1	4733.2
29082	5.7273	3.0909	0.1	4754.2
29083	5.6364	3.3636	0.1	4726.9
29084	5.7273	3.2727	0.1	4748.6
29085	5.6364	3.5455	0.1	4716.8
29086	5.7273	3.4545	0.1	4737.7
29087	5.6364	3.7273	0.1	4703.
29088	5.7273	3.6364	0.1	4721.9
29089	5.6364	3.9091	0.1	4686.1
29090	5.7273	3.8182	0.1	4701.8
29091	5.6364	4.0909	0.1	4666.3
29092	5.7273	4.	0.1	4677.8
29093	5.6364	4.2727	0.1	4644.
29094	5.7273	4.1818	0.1	4650.4
29095	5.6364	4.4545	0.1	4619.4
29096	5.7273	4.3636	0.1	4620.
29097	5.6364	4.6364	0.1	4592.9
29098	5.7273	4.5455	0.1	4587.
29099	5.6364	4.8182	0.1	4565.1
29100	5.7273	4.7273	0.1	4552.1
29101	5.6364	5.	0.1	4536.7
29102	5.7273	4.9091	0.1	4516.2
29103	5.6364	5.1818	0.1	4508.3
29104	5.7273	5.0909	0.1	4480.1
29105	5.6364	5.3636	0.1	4480.9
29106	5.7273	5.2727	0.1	4444.9
29107	5.6364	5.5455	0.1	4455.
29108	5.7273	5.4545	0.1	4411.5
29109	5.6364	5.7273	0.1	4431.6
29110	5.7273	5.6364	0.1	4380.8
29111	5.7273	5.8182	0.1	4353.6
29112	5.6364	5.9091	0.1	4411.3
29113	5.8182	0.27273	0.1	4302.9
29114	5.9091	0.18182	0.1	4210.7
29115	5.8182	9.0909e-002	0.1	4273.1
29116	5.8182	0.45455	0.1	4337.4
29117	5.9091	0.36364	0.1	4248.8
29118	5.8182	0.63636	0.1	4375.7
29119	5.9091	0.54545	0.1	4292.1
29120	5.8182	0.81818	0.1	4416.8
29121	5.9091	0.72727	0.1	4339.7
29122	5.8182	1.	0.1	4459.8
29123	5.9091	0.90909	0.1	4390.7
29124	5.8182	1.1818	0.1	4503.4
29125	5.9091	1.0909	0.1	4443.5
29126	5.8182	1.3636	0.1	4546.4
29127	5.9091	1.2727	0.1	4496.7
29128	5.8182	1.5455	0.1	4587.8
29129	5.9091	1.4545	0.1	4548.8
29130	5.8182	1.7273	0.1	4626.5
29131	5.9091	1.6364	0.1	4598.3
29132	5.8182	1.9091	0.1	4661.9
29133	5.9091	1.8182	0.1	4644.3
29134	5.8182	2.0909	0.1	4693.5
29135	5.9091	2.	0.1	4685.9
29136	5.8182	2.2727	0.1	4720.6
29137	5.9091	2.1818	0.1	4722.6
29138	5.8182	2.4545	0.1	4742.8
29139	5.9091	2.3636	0.1	4753.6
29140	5.8182	2.6364	0.1	4759.3
29141	5.9091	2.5455	0.1	4778.
29142	5.8182	2.8182	0.1	4769.6
29143	5.9091	2.7273	0.1	4795.
29144	5.8182	3.	0.1	4773.
29145	5.9091	2.9091	0.1	4803.7
29146	5.8182	3.1818	0.1	4769.6
29147	5.9091	3.0909	0.1	4803.7
29148	5.8182	3.3636	0.1	4759.3
29149	5.9091	3.2727	0.1	4795.
29150	5.8182	3.5455	0.1	4742.8
29151	5.9091	3.4545	0.1	4778.
29152	5.8182	3.7273	0.1	4720.6
29153	5.9091	3.6364	0.1	4753.6
29154	5.8182	3.9091	0.1	4693.5
29155	5.9091	3.8182	0.1	4722.6
29156	5.8182	4.0909	0.1	4661.9
29157	5.9091	4.	0.1	4685.9
29158	5.8182	4.2727	0.1	4626.5
29159	5.9091	4.1818	0.1	4644.3
29160	5.8182	4.4545	0.1	4587.8
29161	5.9091	4.3636	0.1	4598.3
29162	5.8182	4.6364	0.1	4546.4
29163	5.9091	4.5455	0.1	4548.8
29164	5.8182	4.8182	0.1	4503.4
29165	5.9091	4.7273	0.1	4496.7
29166	5.8182	5.	0.1	4459.8
29167	5.9091	4.9091	0.1	4443.5
29168	5.8182	5.1818	0.1	4416.8
29169	5.9091	5.0909	0.1	4390.7
29170	5.8182	5.3636	0.1	4375.7
29171	5.9091	5.2727	0.1	4339.7
29172	5.8182	5.5455	0.1	4337.4
29173	5.9091	5.4545	0.1	4292.1
29174	5.8182	5.7273	0.1	4302.9
29175	5.9091	5.6364	0.1	4248.8
29176	5.9091	5.8182	0.1	4210.7
29177	5.8182	5.9091	0.1	4273.1
29178	6.	0.27273	0.1	4156.7
29179	6.0909	0.18182	0.1	4047.9
29180	6.	9.0909e-002	0.1	4116.4
29181	6.	0.45455	0.1	4203.7
29182	6.0909	0.36364	0.1	4097.8
29183	6.	0.63636	0.1	4256.4
29184	6.0909	0.54545	0.1	4155.5
29185	6.	0.81818	0.1	4313.9
29186	6.0909	0.72727	0.1	4220.
29187	6.	1.	0.1	4374.8
29188	6.0909	0.90909	0.1	4290.
29189	6.	1.1818	0.1	4437.3
29190	6.0909	1.0909	0.1	4363.7
29191	6.	1.3636	0.1	4499.4
29192	6.0909	1.2727	0.1	4438.6
29193	6.	1.5455	0.1	4559.6
29194	6.0909	1.4545	0.1	4512.4
29195	6.	1.7273	0.1	4616.3
29196	6.0909	1.6364	0.1	4583.
29197	6.	1.9091	0.1	4668.4
29198	6.0909	1.8182	0.1	4648.8
29199	6.	2.0909	0.1	4715.1
29200	6.0909	2.	0.1	4708.7
29201	6.	2.2727	0.1	4755.5
29202	6.0909	2.1818	0.1	4761.7
29203	6.	2.4545	0.1	4788.7
29204	6.0909	2.3636	0.1	4806.8
29205	6.	2.6364	0.1	4813.6
29206	6.0909	2.5455	0.1	4842.6
29207	6.	2.8182	0.1	4829.1
29208	6.0909	2.7273	0.1	4867.7
29209	6.	3.	0.1	4834.3
29210	6.0909	2.9091	0.1	4880.6
29211	6.	3.1818	0.1	4829.1
29212	6.0909	3.0909	0.1	4880.6
29213	6.	3.3636	0.1	4813.6
29214	6.0909	3.2727	0.1	4867.7
29215	6.	3.5455	0.1	4788.7
29216	6.0909	3.4545	0.1	4842.6
29217	6.	3.7273	0.1	4755.5
29218	6.0909	3.6364	0.1	4806.8
29219	6.	3.9091	0.1	4715.1
29220	6.0909	3.8182	0.1	4761.7
29221	6.	4.0909	0.1	4668.4
29222	6.0909	4.	0.1	4708.7
29223	6.	4.2727	0.1	4616.3
29224	6.0909	4.1818	0.1	4648.8
29225	6.	4.4545	0.1	4559.6
29226	6.0909	4.3636	0.1	4583.
29227	6.	4.6364	0.1	4499.4
29228	6.0909	4.5455	0.1	4512.4
29229	6.	4.8182	0.1	4437.3
29230	6.0909	4.7273	0.1	4438.6
29231	6.	5.	0.1	4374.8
29232	6.0909	4.9091	0.1	4363.7
29233	6.	5.1818	0.1	4313.9
29234	6.0909	5.0909	0.1	4290.
29235	6.	5.3636	0.1	4256.4
29236	6.0909	5.2727	0.1	4220.
29237	6.	5.5455	0.1	4203.7
29238	6.0909	5.4545	0.1	4155.5
29239	6.	5.7273	0.1	4156.7
29240	6.0909	5.6364	0.1	4097.8
29241	6.0909	5.8182	0.1	4047.9
29242	6.	5.9091	0.1	4116.4
29243	6.1818	0.27273	0.1	3989.1
29244	6.2727	0.18182	0.1	3861.1
29245	6.1818	9.0909e-002	0.1	3937.1
29246	6.1818	0.45455	0.1	4049.9
29247	6.2727	0.36364	0.1	3923.5
29248	6.1818	0.63636	0.1	4119.5
29249	6.2727	0.54545	0.1	3997.5
29250	6.1818	0.81818	0.1	4196.7
29251	6.2727	0.72727	0.1	4082.
29252	6.1818	1.	0.1	4279.7
29253	6.2727	0.90909	0.1	4175.4
29254	6.1818	1.1818	0.1	4365.8
29255	6.2727	1.0909	0.1	4275.1
29256	6.1818	1.3636	0.1	4452.3
29257	6.2727	1.2727	0.1	4377.6
29258	6.1818	1.5455	0.1	4536.4
29259	6.2727	1.4545	0.1	4479.2
29260	6.1818	1.7273	0.1	4616.
29261	6.2727	1.6364	0.1	4576.8
29262	6.1818	1.9091	0.1	4689.4
29263	6.2727	1.8182	0.1	4668.
29264	6.1818	2.0909	0.1	4755.5
29265	6.2727	2.	0.1	4751.2
29266	6.1818	2.2727	0.1	4813.1
29267	6.2727	2.1818	0.1	4825.2
29268	6.1818	2.4545	0.1	4860.7
29269	6.2727	2.3636	0.1	4888.6
29270	6.1818	2.6364	0.1	4896.6
29271	6.2727	2.5455	0.1	4939.3
29272	6.1818	2.8182	0.1	4919.
29273	6.2727	2.7273	0.1	4974.9
29274	6.1818	3.	0.1	4926.6
29275	6.2727	2.9091	0.1	4993.3
29276	6.1818	3.1818	0.1	4919.
29277	6.2727	3.0909	0.1	4993.3
29278	6.1818	3.3636	0.1	4896.6
29279	6.2727	3.2727	0.1	4974.9
29280	6.1818	3.5455	0.1	4860.7
29281	6.2727	3.4545	0.1	4939.3
29282	6.1818	3.7273	0.1	4813.1
29283	6.2727	3.6364	0.1	4888.6
29284	6.1818	3.9091	0.1	4755.5
29285	6.2727	3.8182	0.1	4825.2
29286	6.1818	4.0909	0.1	4689.4
29287	6.2727	4.	0.1	4751.2
29288	6.1818	4.2727	0.1	4616.
29289	6.2727	4.1818	0.1	4668.
29290	6.1818	4.4545	0.1	4536.4
29291	6.2727	4.3636	0.1	4576.8
29292	6.1818	4.6364	0.1	4452.3
29293	6.2727	4.5455	0.1	4479.2
29294	6.1818	4.8182	0.1	4365.8
29295	6.2727	4.7273	0.1	4377.6
29296	6.1818	5.	0.1	4279.7
29297	6.2727	4.9091	0.1	4275.1
29298	6.1818	5.1818	0.1	4196.7
29299	6.2727	5.0909	0.1	4175.4
29300	6.1818	5.3636	0.1	4119.5
29301	6.2727	5.2727	0.1	4082.
29302	6.1818	5.5455	0.1	4049.9
29303	6.2727	5.4545	0.1	3997.5
29304	6.1818	5.7273	0.1	3989.1
29305	6.2727	5.6364	0.1	3923.5
29306	6.2727	5.8182	0.1	3861.1
29307	6.1818	5.9091	0.1	3937.1
29308	6.3636	0.27273	0.1	3795.7
29309	6.4545	0.18182	0.1	3645.6
29310	6.3636	9.0909e-002	0.1	3730.8
29311	6.3636	0.45455	0.1	3871.6
29312	6.4545	0.36364	0.1	3721.
29313	6.3636	0.63636	0.1	3960.8
29314	6.4545	0.54545	0.1	3813.4
29315	6.3636	0.81818	0.1	4061.8
29316	6.4545	0.72727	0.1	3921.6
29317	6.3636	1.	0.1	4172.2
29318	6.4545	0.90909	0.1	4043.7
29319	6.3636	1.1818	0.1	4288.2
29320	6.4545	1.0909	0.1	4176.1
29321	6.3636	1.3636	0.1	4405.7
29322	6.4545	1.2727	0.1	4313.7
29323	6.3636	1.5455	0.1	4520.6
29324	6.4545	1.4545	0.1	4451.2
29325	6.3636	1.7273	0.1	4629.5
29326	6.4545	1.6364	0.1	4583.5
29327	6.3636	1.9091	0.1	4730.2
29328	6.4545	1.8182	0.1	4707.2
29329	6.3636	2.0909	0.1	4821.2
29330	6.4545	2.	0.1	4820.3
29331	6.3636	2.2727	0.1	4900.8
29332	6.4545	2.1818	0.1	4921.2
29333	6.3636	2.4545	0.1	4967.1
29334	6.4545	2.3636	0.1	5008.2
29335	6.3636	2.6364	0.1	5017.4
29336	6.4545	2.5455	0.1	5078.2
29337	6.3636	2.8182	0.1	5048.9
29338	6.4545	2.7273	0.1	5127.6
29339	6.3636	3.	0.1	5059.7
29340	6.4545	2.9091	0.1	5153.2
29341	6.3636	3.1818	0.1	5048.9
29342	6.4545	3.0909	0.1	5153.2
29343	6.3636	3.3636	0.1	5017.4
29344	6.4545	3.2727	0.1	5127.6
29345	6.3636	3.5455	0.1	4967.1
29346	6.4545	3.4545	0.1	5078.2
29347	6.3636	3.7273	0.1	4900.8
29348	6.4545	3.6364	0.1	5008.2
29349	6.3636	3.9091	0.1	4821.2
29350	6.4545	3.8182	0.1	4921.2
29351	6.3636	4.0909	0.1	4730.2
29352	6.4545	4.	0.1	4820.3
29353	6.3636	4.2727	0.1	4629.5
29354	6.4545	4.1818	0.1	4707.2
29355	6.3636	4.4545	0.1	4520.6
29356	6.4545	4.3636	0.1	4583.5
29357	6.3636	4.6364	0.1	4405.7
29358	6.4545	4.5455	0.1	4451.2
29359	6.3636	4.8182	0.1	4288.2
29360	6.4545	4.7273	0.1	4313.7
29361	6.3636	5.	0.1	4172.2
29362	6.4545	4.9091	0.1	4176.1
29363	6.3636	5.1818	0.1	4061.8
29364	6.4545	5.0909	0.1	4043.7
29365	6.3636	5.3636	0.1	3960.8
29366	6.4545	5.2727	0.1	3921.6
29367	6.3636	5.5455	0.1	3871.6
29368	6.4545	5.4545	0.1	3813.4
29369	6.3636	5.7273	0.1	3795.7
29370	6.4545	5.6364	0.1	3721.
29371	6.4545	5.8182	0.1	3645.6
29372	6.3636	5.9091	0.1	3730.8
29373	6.5455	0.27273	0.1	3571.3
29374	6.6364	0.18182	0.1	3396.6
29375	6.5455	9.0909e-002	0.1	3492.6
29376	6.5455	0.45455	0.1	3663.6
29377	6.6364	0.36364	0.1	3484.9
29378	6.5455	0.63636	0.1	3775.5
29379	6.6364	0.54545	0.1	3597.9
29380	6.5455	0.81818	0.1	3905.4
29381	6.6364	0.72727	0.1	3734.1
29382	6.5455	1.	0.1	4049.9
29383	6.6364	0.90909	0.1	3891.6
29384	6.5455	1.1818	0.1	4204.
29385	6.6364	1.0909	0.1	4065.3
29386	6.5455	1.3636	0.1	4361.4
29387	6.6364	1.2727	0.1	4248.2
29388	6.5455	1.5455	0.1	4516.
29389	6.6364	1.4545	0.1	4432.1
29390	6.5455	1.7273	0.1	4662.6
29391	6.6364	1.6364	0.1	4609.5
29392	6.5455	1.9091	0.1	4798.2
29393	6.6364	1.8182	0.1	4775.1
29394	6.5455	2.0909	0.1	4920.9
29395	6.6364	2.	0.1	4926.3
29396	6.5455	2.2727	0.1	5028.8
29397	6.6364	2.1818	0.1	5061.6
29398	6.5455	2.4545	0.1	5119.2
29399	6.6364	2.3636	0.1	5178.6
29400	6.5455	2.6364	0.1	5188.
29401	6.6364	2.5455	0.1	5273.2
29402	6.5455	2.8182	0.1	5231.3
29403	6.6364	2.7273	0.1	5340.
29404	6.5455	3.	0.1	5246.1
29405	6.6364	2.9091	0.1	5374.6
29406	6.5455	3.1818	0.1	5231.3
29407	6.6364	3.0909	0.1	5374.6
29408	6.5455	3.3636	0.1	5188.
29409	6.6364	3.2727	0.1	5340.
29410	6.5455	3.5455	0.1	5119.2
29411	6.6364	3.4545	0.1	5273.2
29412	6.5455	3.7273	0.1	5028.8
29413	6.6364	3.6364	0.1	5178.6
29414	6.5455	3.9091	0.1	4920.9
29415	6.6364	3.8182	0.1	5061.6
29416	6.5455	4.0909	0.1	4798.2
29417	6.6364	4.	0.1	4926.3
29418	6.5455	4.2727	0.1	4662.6
29419	6.6364	4.1818	0.1	4775.1
29420	6.5455	4.4545	0.1	4516.
29421	6.6364	4.3636	0.1	4609.5
29422	6.5455	4.6364	0.1	4361.4
29423	6.6364	4.5455	0.1	4432.1
29424	6.5455	4.8182	0.1	4204.
29425	6.6364	4.7273	0.1	4248.2
29426	6.5455	5.	0.1	4049.9
29427	6.6364	4.9091	0.1	4065.3
29428	6.5455	5.1818	0.1	3905.4
29429	6.6364	5.0909	0.1	3891.6
29430	6.5455	5.3636	0.1	3775.5
29431	6.6364	5.2727	0.1	3734.1
29432	6.5455	5.5455	0.1	3663.6
29433	6.6364	5.4545	0.1	3597.9
29434	6.5455	5.7273	0.1	3571.3
29435	6.6364	5.6364	0.1	3484.9
29436	6.6364	5.8182	0.1	3396.6
29437	6.5455	5.9091	0.1	3492.6
29438	6.7273	0.27273	0.1	3310.9
29439	6.8182	0.18182	0.1	3109.3
29440	6.7273	9.0909e-002	0.1	3217.5
29441	6.7273	0.45455	0.1	3420.5
29442	6.8182	0.36364	0.1	3209.9
29443	6.7273	0.63636	0.1	3558.7
29444	6.8182	0.54545	0.1	3345.7
29445	6.7273	0.81818	0.1	3723.6
29446	6.8182	0.72727	0.1	3515.4
29447	6.7273	1.	0.1	3911.
29448	6.8182	0.90909	0.1	3716.3
29449	6.7273	1.1818	0.1	4113.7
29450	6.8182	1.0909	0.1	3942.2
29451	6.7273	1.3636	0.1	4322.8
29452	6.8182	1.2727	0.1	4183.6
29453	6.7273	1.5455	0.1	4529.
29454	6.8182	1.4545	0.1	4428.4
29455	6.7273	1.7273	0.1	4724.5
29456	6.8182	1.6364	0.1	4665.1
29457	6.7273	1.9091	0.1	4904.8
29458	6.8182	1.8182	0.1	4885.2
29459	6.7273	2.0909	0.1	5067.9
29460	6.8182	2.	0.1	5085.1
29461	6.7273	2.2727	0.1	5211.7
29462	6.8182	2.1818	0.1	5263.8
29463	6.7273	2.4545	0.1	5332.4
29464	6.8182	2.3636	0.1	5418.5
29465	6.7273	2.6364	0.1	5424.4
29466	6.8182	2.5455	0.1	5543.1
29467	6.7273	2.8182	0.1	5482.2
29468	6.8182	2.7273	0.1	5630.5
29469	6.7273	3.	0.1	5501.9
29470	6.8182	2.9091	0.1	5675.4
29471	6.7273	3.1818	0.1	5482.2
29472	6.8182	3.0909	0.1	5675.4
29473	6.7273	3.3636	0.1	5424.4
29474	6.8182	3.2727	0.1	5630.5
29475	6.7273	3.5455	0.1	5332.4
29476	6.8182	3.4545	0.1	5543.1
29477	6.7273	3.7273	0.1	5211.7
29478	6.8182	3.6364	0.1	5418.5
29479	6.7273	3.9091	0.1	5067.9
29480	6.8182	3.8182	0.1	5263.8
29481	6.7273	4.0909	0.1	4904.8
29482	6.8182	4.	0.1	5085.1
29483	6.7273	4.2727	0.1	4724.5
29484	6.8182	4.1818	0.1	4885.2
29485	6.7273	4.4545	0.1	4529.
29486	6.8182	4.3636	0.1	4665.1
29487	6.7273	4.6364	0.1	4322.8
29488	6.8182	4.5455	0.1	4428.4
29489	6.7273	4.8182	0.1	4113.7
29490	6.8182	4.7273	0.1	4183.6
29491	6.7273	5.	0.1	3911.
29492	6.8182	4.9091	0.1	3942.2
29493	6.7273	5.1818	0.1	3723.6
29494	6.8182	5.0909	0.1	3716.3
29495	6.7273	5.3636	0.1	3558.7
29496	6.8182	5.2727	0.1	3515.4
29497	6.7273	5.5455	0.1	3420.5
29498	6.8182	5.4545	0.1	3345.7
29499	6.7273	5.7273	0.1	3310.9
29500	6.8182	5.6364	0.1	3209.9
29501	6.8182	5.8182	0.1	3109.3
29502	6.7273	5.9091	0.1	3217.5
29503	6.9091	0.27273	0.1	3009.3
29504	7.	0.18182	0.1	2779.5
29505	6.9091	9.0909e-002	0.1	2900.8
29506	6.9091	0.45455	0.1	3137.1
29507	7.	0.36364	0.1	2891.3
29508	6.9091	0.63636	0.1	3306.1
29509	7.	0.54545	0.1	3053.1
29510	6.9091	0.81818	0.1	3513.7
29511	7.	0.72727	0.1	3262.7
29512	6.9091	1.	0.1	3754.5
29513	7.	0.90909	0.1	3517.
29514	6.9091	1.1818	0.1	4019.6
29515	7.	1.0909	0.1	3808.4
29516	6.9091	1.3636	0.1	4296.2
29517	7.	1.2727	0.1	4125.2
29518	6.9091	1.5455	0.1	4570.4
29519	7.	1.4545	0.1	4451.1
29520	6.9091	1.7273	0.1	4830.1
29521	7.	1.6364	0.1	4767.3
29522	6.9091	1.9091	0.1	5068.2
29523	7.	1.8182	0.1	5059.6
29524	6.9091	2.0909	0.1	5282.5
29525	7.	2.	0.1	5322.2
29526	6.9091	2.2727	0.1	5471.
29527	7.	2.1818	0.1	5555.4
29528	6.9091	2.4545	0.1	5628.6
29529	7.	2.3636	0.1	5755.7
29530	6.9091	2.6364	0.1	5747.7
29531	7.	2.5455	0.1	5913.8
29532	6.9091	2.8182	0.1	5821.7
29533	7.	2.7273	0.1	6021.7
29534	6.9091	3.	0.1	5846.7
29535	7.	2.9091	0.1	6075.8
29536	6.9091	3.1818	0.1	5821.7
29537	7.	3.0909	0.1	6075.8
29538	6.9091	3.3636	0.1	5747.7
29539	7.	3.2727	0.1	6021.7
29540	6.9091	3.5455	0.1	5628.6
29541	7.	3.4545	0.1	5913.8
29542	6.9091	3.7273	0.1	5471.
29543	7.	3.6364	0.1	5755.7
29544	6.9091	3.9091	0.1	5282.5
29545	7.	3.8182	0.1	5555.4
29546	6.9091	4.0909	0.1	5068.2
29547	7.	4.	0.1	5322.2
29548	6.9091	4.2727	0.1	4830.1
29549	7.	4.1818	0.1	5059.6
29550	6.9091	4.4545	0.1	4570.4
29551	7.	4.3636	0.1	4767.3
29552	6.9091	4.6364	0.1	4296.2
29553	7.	4.5455	0.1	4451.1
29554	6.9091	4.8182	0.1	4019.6
29555	7.	4.7273	0.1	4125.2
29556	6.9091	5.	0.1	3754.5
29557	7.	4.9091	0.1	3808.4
29558	6.9091	5.1818	0.1	3513.7
29559	7.	5.0909	0.1	3517.
29560	6.9091	5.3636	0.1	3306.1
29561	7.	5.2727	0.1	3262.7
29562	6.9091	5.5455	0.1	3137.1
29563	7.	5.4545	0.1	3053.1
29564	6.9091	5.7273	0.1	3009.3
29565	7.	5.6364	0.1	2891.3
29566	7.	5.8182	0.1	2779.5
29567	6.9091	5.9091	0.1	2900.8
29568	7.0909	0.27273	0.1	2663.
29569	7.1818	0.18182	0.1	2404.3
29570	7.0909	9.0909e-002	0.1	2538.9
29571	7.0909	0.45455	0.1	2810.5
29572	7.1818	0.36364	0.1	2527.2
29573	7.0909	0.63636	0.1	3016.1
29574	7.1818	0.54545	0.1	2720.3
29575	7.0909	0.81818	0.1	3275.7
29576	7.1818	0.72727	0.1	2978.6
29577	7.0909	1.	0.1	3583.
29578	7.1818	0.90909	0.1	3297.7
29579	7.0909	1.1818	0.1	3927.3
29580	7.1818	1.0909	0.1	3669.6
29581	7.0909	1.3636	0.1	4292.5
29582	7.1818	1.2727	0.1	4082.4
29583	7.0909	1.5455	0.1	4657.9
29584	7.1818	1.4545	0.1	4516.9
29585	7.0909	1.7273	0.1	5003.7
29586	7.1818	1.6364	0.1	4945.4
29587	7.0909	1.9091	0.1	5317.7
29588	7.1818	1.8182	0.1	5337.5
29589	7.0909	2.0909	0.1	5597.
29590	7.1818	2.	0.1	5683.7
29591	7.0909	2.2727	0.1	5840.2
29592	7.1818	2.1818	0.1	5984.6
29593	7.0909	2.4545	0.1	6039.6
29594	7.1818	2.3636	0.1	6234.3
29595	7.0909	2.6364	0.1	6185.1
29596	7.1818	2.5455	0.1	6421.
29597	7.0909	2.8182	0.1	6272.3
29598	7.1818	2.7273	0.1	6538.6
29599	7.0909	3.	0.1	6301.1
29600	7.1818	2.9091	0.1	6593.9
29601	7.0909	3.1818	0.1	6272.3
29602	7.1818	3.0909	0.1	6593.9
29603	7.0909	3.3636	0.1	6185.1
29604	7.1818	3.2727	0.1	6538.6
29605	7.0909	3.5455	0.1	6039.6
29606	7.1818	3.4545	0.1	6421.
29607	7.0909	3.7273	0.1	5840.2
29608	7.1818	3.6364	0.1	6234.3
29609	7.0909	3.9091	0.1	5597.
29610	7.1818	3.8182	0.1	5984.6
29611	7.0909	4.0909	0.1	5317.7
29612	7.1818	4.	0.1	5683.7
29613	7.0909	4.2727	0.1	5003.7
29614	7.1818	4.1818	0.1	5337.5
29615	7.0909	4.4545	0.1	4657.9
29616	7.1818	4.3636	0.1	4945.4
29617	7.0909	4.6364	0.1	4292.5
29618	7.1818	4.5455	0.1	4516.9
29619	7.0909	4.8182	0.1	3927.3
29620	7.1818	4.7273	0.1	4082.4
29621	7.0909	5.	0.1	3583.
29622	7.1818	4.9091	0.1	3669.6
29623	7.0909	5.1818	0.1	3275.7
29624	7.1818	5.0909	0.1	3297.7
29625	7.0909	5.3636	0.1	3016.1
29626	7.1818	5.2727	0.1	2978.6
29627	7.0909	5.5455	0.1	2810.5
29628	7.1818	5.4545	0.1	2720.3
29629	7.0909	5.7273	0.1	2663.
29630	7.1818	5.6364	0.1	2527.2
29631	7.1818	5.8182	0.1	2404.3
29632	7.0909	5.9091	0.1	2538.9
29633	7.2727	0.27273	0.1	2270.9
29634	7.3636	0.18182	0.1	1983.4
29635	7.2727	9.0909e-002	0.1	2130.
29636	7.2727	0.45455	0.1	2442.6
29637	7.3636	0.36364	0.1	2121.7
29638	7.2727	0.63636	0.1	2694.
29639	7.3636	0.54545	0.1	2357.4
29640	7.2727	0.81818	0.1	3017.3
29641	7.3636	0.72727	0.1	2677.1
29642	7.2727	1.	0.1	3405.2
29643	7.3636	0.90909	0.1	3072.9
29644	7.2727	1.1818	0.1	3847.7
29645	7.3636	1.0909	0.1	3538.9
29646	7.2727	1.3636	0.1	4328.7
29647	7.3636	1.2727	0.1	4069.1
29648	7.2727	1.5455	0.1	4821.7
29649	7.3636	1.4545	0.1	4651.1
29650	7.2727	1.7273	0.1	5290.1
29651	7.3636	1.6364	0.1	5243.4
29652	7.2727	1.9091	0.1	5708.7
29653	7.3636	1.8182	0.1	5790.5
29654	7.2727	2.0909	0.1	6072.9
29655	7.3636	2.	0.1	6255.8
29656	7.2727	2.2727	0.1	6377.6
29657	7.3636	2.1818	0.1	6635.
29658	7.2727	2.4545	0.1	6612.3
29659	7.3636	2.3636	0.1	6930.1
29660	7.2727	2.6364	0.1	6769.5
29661	7.3636	2.5455	0.1	7109.8
29662	7.2727	2.8182	0.1	6854.5
29663	7.3636	2.7273	0.1	7199.4
29664	7.2727	3.	0.1	6880.7
29665	7.3636	2.9091	0.1	7233.6
29666	7.2727	3.1818	0.1	6854.5
29667	7.3636	3.0909	0.1	7233.6
29668	7.2727	3.3636	0.1	6769.5
29669	7.3636	3.2727	0.1	7199.4
29670	7.2727	3.5455	0.1	6612.3
29671	7.3636	3.4545	0.1	7109.8
29672	7.2727	3.7273	0.1	6377.6
29673	7.3636	3.6364	0.1	6930.1
29674	7.2727	3.9091	0.1	6072.9
29675	7.3636	3.8182	0.1	6635.
29676	7.2727	4.0909	0.1	5708.7
29677	7.3636	4.	0.1	6255.8
29678	7.2727	4.2727	0.1	5290.1
29679	7.3636	4.1818	0.1	5790.5
29680	7.2727	4.4545	0.1	4821.7
29681	7.3636	4.3636	0.1	5243.4
29682	7.2727	4.6364	0.1	4328.7
29683	7.3636	4.5455	0.1	4651.1
29684	7.2727	4.8182	0.1	3847.7
29685	7.3636	4.7273	0.1	4069.1
29686	7.2727	5.	0.1	3405.2
29687	7.3636	4.9091	0.1	3538.9
29688	7.2727	5.1818	0.1	3017.3
29689	7.3636	5.0909	0.1	3072.9
29690	7.2727	5.3636	0.1	2694.
29691	7.3636	5.2727	0.1	2677.1
29692	7.2727	5.5455	0.1	2442.6
29693	7.3636	5.4545	0.1	2357.4
29694	7.2727	5.7273	0.1	2270.9
29695	7.3636	5.6364	0.1	2121.7
29696	7.3636	5.8182	0.1	1983.4
29697	7.2727	5.9091	0.1	2130.
29698	7.4545	0.27273	0.1	1838.2
29699	7.5455	0.18182	0.1	1521.3
29700	7.4545	9.0909e-002	0.1	1674.6
29701	7.4545	0.45455	0.1	2047.4
29702	7.5455	0.36364	0.1	1695.2
29703	7.4545	0.63636	0.1	2360.9
29704	7.5455	0.54545	0.1	1998.7
29705	7.4545	0.81818	0.1	2761.3
29706	7.5455	0.72727	0.1	2397.2
29707	7.4545	1.	0.1	3241.5
29708	7.5455	0.90909	0.1	2878.7
29709	7.4545	1.1818	0.1	3799.
29710	7.5455	1.0909	0.1	3445.1
29711	7.4545	1.3636	0.1	4430.
29712	7.5455	1.2727	0.1	4108.5
29713	7.4545	1.5455	0.1	5104.4
29714	7.5455	1.4545	0.1	4876.5
29715	7.4545	1.7273	0.1	5761.
29716	7.5455	1.6364	0.1	5745.9
29717	7.4545	1.9091	0.1	6342.8
29718	7.5455	1.8182	0.1	6614.2
29719	7.4545	2.0909	0.1	6816.4
29720	7.5455	2.	0.1	7250.8
29721	7.4545	2.2727	0.1	7181.9
29722	7.5455	2.1818	0.1	7730.8
29723	7.4545	2.4545	0.1	7419.2
29724	7.5455	2.3636	0.1	7965.8
29725	7.4545	2.6364	0.1	7530.9
29726	7.5455	2.5455	0.1	8018.2
29727	7.4545	2.8182	0.1	7570.1
29728	7.5455	2.7273	0.1	7988.9
29729	7.4545	3.	0.1	7578.3
29730	7.5455	2.9091	0.1	7959.8
29731	7.4545	3.1818	0.1	7570.1
29732	7.5455	3.0909	0.1	7959.8
29733	7.4545	3.3636	0.1	7530.9
29734	7.5455	3.2727	0.1	7988.9
29735	7.4545	3.5455	0.1	7419.2
29736	7.5455	3.4545	0.1	8018.2
29737	7.4545	3.7273	0.1	7181.9
29738	7.5455	3.6364	0.1	7965.8
29739	7.4545	3.9091	0.1	6816.4
29740	7.5455	3.8182	0.1	7730.8
29741	7.4545	4.0909	0.1	6342.8
29742	7.5455	4.	0.1	7250.8
29743	7.4545	4.2727	0.1	5761.
29744	7.5455	4.1818	0.1	6614.2
29745	7.4545	4.4545	0.1	5104.4
29746	7.5455	4.3636	0.1	5745.9
29747	7.4545	4.6364	0.1	4430.
29748	7.5455	4.5455	0.1	4876.5
29749	7.4545	4.8182	0.1	3799.
29750	7.5455	4.7273	0.1	4108.5
29751	7.4545	5.	0.1	3241.5
29752	7.5455	4.9091	0.1	3445.1
29753	7.4545	5.1818	0.1	2761.3
29754	7.5455	5.0909	0.1	2878.7
29755	7.4545	5.3636	0.1	2360.9
29756	7.5455	5.2727	0.1	2397.2
29757	7.4545	5.5455	0.1	2047.4
29758	7.5455	5.4545	0.1	1998.7
29759	7.4545	5.7273	0.1	1838.2
29760	7.5455	5.6364	0.1	1695.2
29761	7.5455	5.8182	0.1	1521.3
29762	7.4545	5.9091	0.1	1674.6
29763	7.6364	0.27273	0.1	1388.2
29764	7.7273	0.18182	0.1	1046.2
29765	7.6364	9.0909e-002	0.1	1178.2
29766	7.6364	0.45455	0.1	1672.
29767	7.7273	0.36364	0.1	1336.1
29768	7.6364	0.63636	0.1	2073.7
29769	7.7273	0.54545	0.1	1760.2
29770	7.6364	0.81818	0.1	2562.1
29771	7.7273	0.72727	0.1	2262.3
29772	7.6364	1.	0.1	3137.1
29773	7.7273	0.90909	0.1	2841.
29774	7.6364	1.1818	0.1	3816.7
29775	7.7273	1.0909	0.1	3515.6
29776	7.6364	1.3636	0.1	4623.4
29777	7.7273	1.2727	0.1	4325.7
29778	7.6364	1.5455	0.1	5579.3
29779	7.7273	1.4545	0.1	5329.
29780	7.6364	1.7273	0.1	6637.8
29781	7.7273	1.6364	0.1	6636.8
29782	7.6364	1.9091	0.1	7513.4
29783	7.7273	1.8182	0.1	8419.4
29784	7.6364	2.0909	0.1	8148.1
29785	7.7273	2.	0.1	9756.5
29786	7.6364	2.2727	0.1	8493.8
29787	7.7273	2.1818	0.1	9761.1
29788	7.6364	2.4545	0.1	8547.2
29789	7.7273	2.3636	0.1	9485.4
29790	7.6364	2.6364	0.1	8463.5
29791	7.7273	2.5455	0.1	9083.5
29792	7.6364	2.8182	0.1	8368.8
29793	7.7273	2.7273	0.1	8807.3
29794	7.6364	3.	0.1	8332.4
29795	7.7273	2.9091	0.1	8667.8
29796	7.6364	3.1818	0.1	8368.8
29797	7.7273	3.0909	0.1	8667.8
29798	7.6364	3.3636	0.1	8463.5
29799	7.7273	3.2727	0.1	8807.3
29800	7.6364	3.5455	0.1	8547.2
29801	7.7273	3.4545	0.1	9083.5
29802	7.6364	3.7273	0.1	8493.8
29803	7.7273	3.6364	0.1	9485.4
29804	7.6364	3.9091	0.1	8148.1
29805	7.7273	3.8182	0.1	9761.1
29806	7.6364	4.0909	0.1	7513.4
29807	7.7273	4.	0.1	9756.5
29808	7.6364	4.2727	0.1	6637.8
29809	7.7273	4.1818	0.1	8419.4
29810	7.6364	4.4545	0.1	5579.3
29811	7.7273	4.3636	0.1	6636.8
29812	7.6364	4.6364	0.1	4623.4
29813	7.7273	4.5455	0.1	5329.
29814	7.6364	4.8182	0.1	3816.7
29815	7.7273	4.7273	0.1	4325.7
29816	7.6364	5.	0.1	3137.1
29817	7.7273	4.9091	0.1	3515.6
29818	7.6364	5.1818	0.1	2562.1
29819	7.7273	5.0909	0.1	2841.
29820	7.6364	5.3636	0.1	2073.7
29821	7.7273	5.2727	0.1	2262.3
29822	7.6364	5.5455	0.1	1672.
29823	7.7273	5.4545	0.1	1760.2
29824	7.6364	5.7273	0.1	1388.2
29825	7.7273	5.6364	0.1	1336.1
29826	7.7273	5.8182	0.1	1046.2
29827	7.6364	5.9091	0.1	1178.2
29828	7.8182	0.27273	0.1	1039.6
29829	7.9091	0.18182	0.1	587.34
29830	7.8182	9.0909e-002	0.1	664.77
29831	7.8182	0.45455	0.1	1491.3
29832	7.9091	0.36364	0.1	967.7
29833	7.8182	0.63636	0.1	2020.1
29834	7.9091	0.54545	0.1	1384.9
29835	7.8182	0.81818	0.1	2615.5
29836	7.9091	0.72727	0.1	1837.7
29837	7.8182	1.	0.1	3300.8
29838	7.9091	0.90909	0.1	2344.8
29839	7.8182	1.1818	0.1	4120.5
29840	7.9091	1.0909	0.1	2936.
29841	7.8182	1.3636	0.1	5152.3
29842	7.9091	1.2727	0.1	3659.6
29843	7.8182	1.5455	0.1	6564.3
29844	7.9091	1.4545	0.1	4616.5
29845	7.8182	1.7273	0.1	8576.
29846	7.9091	1.6364	0.1	5897.
29847	7.8182	1.9091	0.1	10623
29848	7.9091	1.8182	0.1	8451.5
29849	7.8182	2.0909	0.1	11218
29850	7.9091	2.	0.1	16556
29851	7.8182	2.2727	0.1	10703
29852	7.9091	2.1818	0.1	12842
29853	7.8182	2.4545	0.1	10004
29854	7.9091	2.3636	0.1	11051
29855	7.8182	2.6364	0.1	9419.
29856	7.9091	2.5455	0.1	10005
29857	7.8182	2.8182	0.1	9099.8
29858	7.9091	2.7273	0.1	9435.6
29859	7.8182	3.	0.1	8996.8
29860	7.9091	2.9091	0.1	9181.2
29861	7.8182	3.1818	0.1	9099.8
29862	7.9091	3.0909	0.1	9181.2
29863	7.8182	3.3636	0.1	9419.
29864	7.9091	3.2727	0.1	9435.6
29865	7.8182	3.5455	0.1	10004
29866	7.9091	3.4545	0.1	10005
29867	7.8182	3.7273	0.1	10703
29868	7.9091	3.6364	0.1	11051
29869	7.8182	3.9091	0.1	11218
29870	7.9091	3.8182	0.1	12842
29871	7.8182	4.0909	0.1	10623
29872	7.9091	4.	0.1	16556
29873	7.8182	4.2727	0.1	8576.
29874	7.9091	4.1818	0.1	8451.5
29875	7.8182	4.4545	0.1	6564.3
29876	7.9091	4.3636	0.1	5897.
29877	7.8182	4.6364	0.1	5152.3
29878	7.9091	4.5455	0.1	4616.5
29879	7.8182	4.8182	0.1	4120.5
29880	7.9091	4.7273	0.1	3659.6
29881	7.8182	5.	0.1	3300.9
29882	7.9091	4.9091	0.1	2936.
29883	7.8182	5.1818	0.1	2615.5
29884	7.9091	5.0909	0.1	2344.8
29885	7.8182	5.3636	0.1	2020.1
29886	7.9091	5.2727	0.1	1837.7
29887	7.8182	5.5455	0.1	1491.3
29888	7.9091	5.4545	0.1	1384.9
29889	7.8182	5.7273	0.1	1039.6
29890	7.9091	5.6364	0.1	967.7
29891	7.9091	5.8182	0.1	587.34
29892	7.8182	5.9091	0.1	664.77
29893	8.1667	3.7273	0.1	13207
29894	8.0833	3.8182	0.1	14590
29895	8.1667	3.9091	0.1	17506
29896	8.1667	3.5455	0.1	11026
29897	8.0833	3.6364	0.1	11695
29898	8.1667	3.3636	0.1	9970.7
29899	8.0833	3.4545	0.1	10347
29900	8.1667	3.1818	0.1	9456.6
29901	8.0833	3.2727	0.1	9637.7
29902	8.1667	3.	0.1	9302.5
29903	8.0833	3.0909	0.1	9333.2
29904	8.1667	2.8182	0.1	9456.6
29905	8.0833	2.9091	0.1	9333.2
29906	8.1667	2.6364	0.1	9970.7
29907	8.0833	2.7273	0.1	9637.7
29908	8.1667	2.4545	0.1	11026
29909	8.0833	2.5455	0.1	10347
29910	8.1667	2.2727	0.1	13207
29911	8.0833	2.3636	0.1	11695
29912	8.0833	2.1818	0.1	14590
29913	8.1667	2.0909	0.1	17506
29914	8.	3.7273	0.1	13330
29915	8.	3.9091	0.1	17973
29916	8.	3.5455	0.1	11090
29917	8.	3.3636	0.1	10033
29918	8.	3.1818	0.1	9518.
29919	8.	3.	0.1	9363.9
29920	8.	2.8182	0.1	9518.
29921	8.	2.6364	0.1	10033
29922	8.	2.4545	0.1	11090
29923	8.	2.2727	0.1	13330
29924	8.	2.0909	0.1	17973
29925	8.1667	5.7273	0.1	573.82
29926	8.1667	5.9091	0.1	207.19
29927	8.1667	5.8182	5.e-002	146.51
29928	8.1667	5.5455	0.1	903.21
29929	8.1667	5.6364	5.e-002	312.76
29930	8.1667	5.3636	0.1	1233.2
29931	8.1667	5.4545	5.e-002	477.19
29932	8.1667	5.1818	0.1	1593.5
29933	8.1667	5.2727	5.e-002	655.03
29934	8.1667	5.	0.1	2009.1
29935	8.1667	5.0909	5.e-002	855.79
29936	8.1667	4.8182	0.1	2516.4
29937	8.1667	4.9091	5.e-002	1093.3
29938	8.1667	4.6364	0.1	3190.8
29939	8.1667	4.7273	5.e-002	1391.1
29940	8.1667	4.4545	0.1	4074.8
29941	8.1667	4.5455	5.e-002	1790.
29942	8.1667	4.2727	0.1	6233.5
29943	8.1667	4.3636	5.e-002	2423.
29944	8.1667	4.0909	0.1	12624
29945	8.1667	4.1818	5.e-002	4037.1
29946	8.0833	4.	0.1	18296
29947	8.1667	4.	5.e-002	3443.
29948	8.	4.0909	0.1	13236
29949	8.	4.	5.e-002	4002.3
29950	8.	4.2727	0.1	6828.
29951	8.	4.1818	5.e-002	4521.7
29952	8.	4.4545	0.1	4500.2
29953	8.	4.3636	5.e-002	2793.1
29954	8.	4.6364	0.1	3545.5
29955	8.	4.5455	5.e-002	2089.4
29956	8.	4.8182	0.1	2812.7
29957	8.	4.7273	5.e-002	1642.3
29958	8.	5.	0.1	2255.8
29959	8.	4.9091	5.e-002	1302.6
29960	8.	5.1818	0.1	1794.8
29961	8.	5.0909	5.e-002	1026.9
29962	8.	5.3636	0.1	1391.9
29963	8.	5.2727	5.e-002	790.14
29964	8.	5.5455	0.1	1020.8
29965	8.	5.4545	5.e-002	577.62
29966	8.	5.7273	0.1	649.77
29967	8.	5.6364	5.e-002	379.4
29968	8.	5.9091	0.1	234.87
29969	8.	5.8182	5.e-002	178.94
29970	8.1667	0.27273	0.1	573.82
29971	8.1667	9.0909e-002	0.1	207.19
29972	8.1667	0.18182	5.e-002	146.51
29973	8.1667	0.45455	0.1	903.21
29974	8.1667	0.36364	5.e-002	312.76
29975	8.1667	0.63636	0.1	1233.2
29976	8.1667	0.54545	5.e-002	477.19
29977	8.1667	0.81818	0.1	1593.5
29978	8.1667	0.72727	5.e-002	655.03
29979	8.1667	1.	0.1	2009.1
29980	8.1667	0.90909	5.e-002	855.79
29981	8.1667	1.1818	0.1	2516.4
29982	8.1667	1.0909	5.e-002	1093.3
29983	8.1667	1.3636	0.1	3190.8
29984	8.1667	1.2727	5.e-002	1391.1
29985	8.1667	1.5455	0.1	4074.8
29986	8.1667	1.4545	5.e-002	1790.
29987	8.1667	1.7273	0.1	6233.5
29988	8.1667	1.6364	5.e-002	2423.
29989	8.1667	1.9091	0.1	12624
29990	8.1667	1.8182	5.e-002	4037.1
29991	8.0833	2.	0.1	18296
29992	8.1667	2.	5.e-002	3443.
29993	8.	1.9091	0.1	13236
29994	8.	2.	5.e-002	4002.3
29995	8.	1.7273	0.1	6828.
29996	8.	1.8182	5.e-002	4521.7
29997	8.	1.5455	0.1	4500.2
29998	8.	1.6364	5.e-002	2793.1
29999	8.	1.3636	0.1	3545.5
30000	8.	1.4545	5.e-002	2089.4
30001	8.	1.1818	0.1	2812.7
30002	8.	1.2727	5.e-002	1642.3
30003	8.	1.	0.1	2255.8
30004	8.	1.0909	5.e-002	1302.6
30005	8.	0.81818	0.1	1794.8
30006	8.	0.90909	5.e-002	1026.9
30007	8.	0.63636	0.1	1391.9
30008	8.	0.72727	5.e-002	790.14
30009	8.	0.45455	0.1	1020.8
30010	8.	0.54545	5.e-002	577.62
30011	8.	0.27273	0.1	649.77
30012	8.	0.36364	5.e-002	379.4
30013	8.	9.0909e-002	0.1	234.87
30014	8.	0.18182	5.e-002	178.94
30015	8.2587	6.	0.1	251.32
30016	8.1667	6.	5.e-002	45.999
30017	8.4428	6.	0.1	717.65
30018	8.3508	6.	5.e-002	35.263
30019	8.6269	6.	0.1	1151.3
30020	8.5349	6.	5.e-002	91.081
30021	8.811	6.	0.1	1530.1
30022	8.719	6.	5.e-002	119.05
30023	8.9952	6.	0.1	1858.4
30024	8.9031	6.	5.e-002	133.36
30025	9.1793	6.	0.1	2135.9
30026	9.0872	6.	5.e-002	137.95
30027	9.3634	6.	0.1	2364.6
30028	9.2713	6.	5.e-002	136.47
30029	9.5475	6.	0.1	2548.
30030	9.4554	6.	5.e-002	131.45
30031	9.7316	6.	0.1	2690.9
30032	9.6395	6.	5.e-002	124.73
30033	9.9157	6.	0.1	2798.6
30034	9.8236	6.	5.e-002	117.57
30035	10.1	6.	0.1	2876.3
30036	10.008	6.	5.e-002	110.76
30037	10.284	6.	0.1	2929.
30038	10.192	6.	5.e-002	104.76
30039	10.468	6.	0.1	2961.
30040	10.376	6.	5.e-002	99.776
30041	10.652	6.	0.1	2976.1
30042	10.56	6.	5.e-002	95.872
30043	10.836	6.	0.1	2977.6
30044	10.744	6.	5.e-002	93.007
30045	11.02	6.	0.1	2968.1
30046	10.928	6.	5.e-002	91.085
30047	11.204	6.	0.1	2949.9
30048	11.112	6.	5.e-002	89.987
30049	11.389	6.	0.1	2924.7
30050	11.297	6.	5.e-002	89.58
30051	11.573	6.	0.1	2894.1
30052	11.481	6.	5.e-002	89.74
30053	11.757	6.	0.1	2859.2
30054	11.665	6.	5.e-002	90.349
30055	11.941	6.	0.1	2820.9
30056	11.849	6.	5.e-002	91.302
30057	12.125	6.	0.1	2780.1
30058	12.033	6.	5.e-002	92.508
30059	12.309	6.	0.1	2737.3
30060	12.217	6.	5.e-002	93.892
30061	12.493	6.	0.1	2693.
30062	12.401	6.	5.e-002	95.387
30063	12.677	6.	0.1	2647.6
30064	12.585	6.	5.e-002	96.942
30065	12.861	6.	0.1	2601.4
30066	12.769	6.	5.e-002	98.515
30067	13.046	6.	0.1	2554.5
30068	12.953	6.	5.e-002	100.07
30069	13.23	6.	0.1	2507.3
30070	13.138	6.	5.e-002	101.58
30071	13.414	6.	0.1	2459.9
30072	13.322	6.	5.e-002	103.04
30073	13.598	6.	0.1	2412.3
30074	13.506	6.	5.e-002	104.41
30075	13.782	6.	0.1	2364.6
30076	13.69	6.	5.e-002	105.7
30077	13.966	6.	0.1	2317.
30078	13.874	6.	5.e-002	106.89
30079	14.15	6.	0.1	2269.4
30080	14.058	6.	5.e-002	107.98
30081	14.334	6.	0.1	2221.9
30082	14.242	6.	5.e-002	108.97
30083	14.518	6.	0.1	2174.6
30084	14.426	6.	5.e-002	109.86
30085	14.703	6.	0.1	2127.4
30086	14.61	6.	5.e-002	110.65
30087	14.887	6.	0.1	2080.4
30088	14.795	6.	5.e-002	111.34
30089	15.071	6.	0.1	2033.6
30090	14.979	6.	5.e-002	111.93
30091	15.255	6.	0.1	1987.
30092	15.163	6.	5.e-002	112.43
30093	15.439	6.	0.1	1940.6
30094	15.347	6.	5.e-002	112.83
30095	15.623	6.	0.1	1894.4
30096	15.531	6.	5.e-002	113.15
30097	15.807	6.	0.1	1848.4
30098	15.715	6.	5.e-002	113.39
30099	15.991	6.	0.1	1802.6
30100	15.899	6.	5.e-002	113.54
30101	16.175	6.	0.1	1757.1
30102	16.083	6.	5.e-002	113.62
30103	16.359	6.	0.1	1711.7
30104	16.267	6.	5.e-002	113.61
30105	16.544	6.	0.1	1666.6
30106	16.452	6.	5.e-002	113.54
30107	16.728	6.	0.1	1621.6
30108	16.636	6.	5.e-002	113.39
30109	16.912	6.	0.1	1576.9
30110	16.82	6.	5.e-002	113.18
30111	17.096	6.	0.1	1532.4
30112	17.004	6.	5.e-002	112.9
30113	17.28	6.	0.1	1488.1
30114	17.188	6.	5.e-002	112.55
30115	17.464	6.	0.1	1444.
30116	17.372	6.	5.e-002	112.14
30117	17.648	6.	0.1	1400.1
30118	17.556	6.	5.e-002	111.66
30119	17.832	6.	0.1	1356.4
30120	17.74	6.	5.e-002	111.12
30121	18.016	6.	0.1	1312.8
30122	17.924	6.	5.e-002	110.51
30123	18.201	6.	0.1	1269.5
30124	18.109	6.	5.e-002	109.84
30125	18.385	6.	0.1	1226.4
30126	18.293	6.	5.e-002	109.1
30127	18.569	6.	0.1	1183.5
30128	18.477	6.	5.e-002	108.3
30129	18.753	6.	0.1	1140.7
30130	18.661	6.	5.e-002	107.43
30131	18.937	6.	0.1	1098.2
30132	18.845	6.	5.e-002	106.49
30133	19.121	6.	0.1	1055.8
30134	19.029	6.	5.e-002	105.47
30135	19.305	6.	0.1	1013.6
30136	19.213	6.	5.e-002	104.38
30137	19.489	6.	0.1	971.55
30138	19.397	6.	5.e-002	103.21
30139	19.673	6.	0.1	929.7
30140	19.581	6.	5.e-002	101.96
30141	19.858	6.	0.1	888.01
30142	19.766	6.	5.e-002	100.61
30143	20.042	6.	0.1	846.49
30144	19.95	6.	5.e-002	99.178
30145	20.226	6.	0.1	805.14
30146	20.134	6.	5.e-002	97.643
30147	20.41	6.	0.1	763.95
30148	20.318	6.	5.e-002	96.003
30149	20.594	6.	0.1	722.92
30150	20.502	6.	5.e-002	94.249
30151	20.778	6.	0.1	682.04
30152	20.686	6.	5.e-002	92.375
30153	20.962	6.	0.1	641.32
30154	20.87	6.	5.e-002	90.37
30155	21.146	6.	0.1	600.75
30156	21.054	6.	5.e-002	88.224
30157	21.33	6.	0.1	560.33
30158	21.238	6.	5.e-002	85.926
30159	21.515	6.	0.1	520.07
30160	21.422	6.	5.e-002	83.463
30161	21.699	6.	0.1	479.96
30162	21.607	6.	5.e-002	80.819
30163	21.883	6.	0.1	440.02
30164	21.791	6.	5.e-002	77.977
30165	22.067	6.	0.1	400.25
30166	21.975	6.	5.e-002	74.917
30167	22.251	6.	0.1	360.67
30168	22.159	6.	5.e-002	71.614
30169	22.435	6.	0.1	321.29
30170	22.343	6.	5.e-002	68.041
30171	22.619	6.	0.1	282.14
30172	22.527	6.	5.e-002	64.162
30173	22.803	6.	0.1	243.27
30174	22.711	6.	5.e-002	59.932
30175	22.987	6.	0.1	204.74
30176	22.895	6.	5.e-002	55.294
30177	23.172	6.	0.1	166.65
30178	23.079	6.	5.e-002	50.168
30179	23.356	6.	0.1	129.15
30180	23.264	6.	5.e-002	44.438
30181	23.54	6.	0.1	92.544
30182	23.448	6.	5.e-002	37.925
30183	23.724	6.	0.1	57.119
30184	23.632	6.	5.e-002	30.284
30185	23.908	6.	0.1	23.934
30186	23.816	6.	5.e-002	20.427
30187	24.	5.9091	0.1	23.145
30188	24.	6.	5.e-002	7.858
30189	24.	5.7273	0.1	53.093
30190	24.	5.8182	5.e-002	6.9981
30191	24.	5.5455	0.1	77.239
30192	24.	5.6364	5.e-002	8.0023
30193	24.	5.3636	0.1	96.441
30194	24.	5.4545	5.e-002	8.876
30195	24.	5.1818	0.1	112.59
30196	24.	5.2727	5.e-002	9.3476
30197	24.	5.	0.1	126.43
30198	24.	5.0909	5.e-002	9.5606
30199	24.	4.8182	0.1	138.38
30200	24.	4.9091	5.e-002	9.5954
30201	24.	4.6364	0.1	148.73
30202	24.	4.7273	5.e-002	9.506
30203	24.	4.4545	0.1	157.66
30204	24.	4.5455	5.e-002	9.332
30205	24.	4.2727	0.1	165.3
30206	24.	4.3636	5.e-002	9.1041
30207	24.	4.0909	0.1	171.77
30208	24.	4.1818	5.e-002	8.8472
30209	24.	3.9091	0.1	177.14
30210	24.	4.	5.e-002	8.5827
30211	24.	3.7273	0.1	181.46
30212	24.	3.8182	5.e-002	8.3294
30213	24.	3.5455	0.1	184.78
30214	24.	3.6364	5.e-002	8.1039
30215	24.	3.3636	0.1	187.13
30216	24.	3.4545	5.e-002	7.9207
30217	24.	3.1818	0.1	188.53
30218	24.	3.2727	5.e-002	7.7914
30219	24.	3.	0.1	188.99
30220	24.	3.0909	5.e-002	7.7245
30221	24.	2.8182	0.1	188.53
30222	24.	2.9091	5.e-002	7.7245
30223	24.	2.6364	0.1	187.13
30224	24.	2.7273	5.e-002	7.7914
30225	24.	2.4545	0.1	184.78
30226	24.	2.5455	5.e-002	7.9207
30227	24.	2.2727	0.1	181.46
30228	24.	2.3636	5.e-002	8.104
30229	24.	2.0909	0.1	177.14
30230	24.	2.1818	5.e-002	8.3295
30231	24.	1.9091	0.1	171.77
30232	24.	2.	5.e-002	8.5828
30233	24.	1.7273	0.1	165.3
30234	24.	1.8182	5.e-002	8.8473
30235	24.	1.5455	0.1	157.66
30236	24.	1.6364	5.e-002	9.1041
30237	24.	1.3636	0.1	148.73
30238	24.	1.4545	5.e-002	9.3321
30239	24.	1.1818	0.1	138.38
30240	24.	1.2727	5.e-002	9.5061
30241	24.	1.	0.1	126.43
30242	24.	1.0909	5.e-002	9.5955
30243	24.	0.81818	0.1	112.59
30244	24.	0.90909	5.e-002	9.5607
30245	24.	0.63636	0.1	96.441
30246	24.	0.72727	5.e-002	9.3476
30247	24.	0.45455	0.1	77.239
30248	24.	0.54545	5.e-002	8.876
30249	24.	0.27273	0.1	53.093
30250	24.	0.36364	5.e-002	8.0023
30251	24.	9.0909e-002	0.1	23.145
30252	24.	0.18182	5.e-002	6.9981
30253	2.3842e-015	0.27273	0.1	1831.9
30254	7.9472e-016	9.0909e-002	0.1	1393.9
30255	1.6109e-015	0.18182	5.e-002	163.23
30256	3.9736e-015	0.45455	0.1	2624.3
30257	3.2219e-015	0.36364	5.e-002	86.894
30258	5.563e-015	0.63636	0.1	3049.
30259	4.8328e-015	0.54545	5.e-002	79.039
30260	7.1525e-015	0.81818	0.1	3323.
30261	6.4438e-015	0.72727	5.e-002	69.843
30262	8.7419e-015	1.	0.1	3510.9
30263	8.0547e-015	0.90909	5.e-002	59.703
30264	1.0331e-014	1.1818	0.1	3646.9
30265	9.6657e-015	1.0909	5.e-002	50.992
30266	1.1921e-014	1.3636	0.1	3748.6
30267	1.1277e-014	1.2727	5.e-002	43.922
30268	1.351e-014	1.5455	0.1	3826.2
30269	1.2888e-014	1.4545	5.e-002	38.174
30270	1.51e-014	1.7273	0.1	3886.
30271	1.4498e-014	1.6364	5.e-002	33.515
30272	1.6689e-014	1.9091	0.1	3932.3
30273	1.6109e-014	1.8182	5.e-002	29.754
30274	1.8279e-014	2.0909	0.1	3968.
30275	1.772e-014	2.	5.e-002	26.743
30276	1.9868e-014	2.2727	0.1	3995.1
30277	1.9331e-014	2.1818	5.e-002	24.373
30278	2.1457e-014	2.4545	0.1	4014.9
30279	2.0942e-014	2.3636	5.e-002	22.561
30280	2.3047e-014	2.6364	0.1	4028.5
30281	2.2553e-014	2.5455	5.e-002	21.249
30282	2.4636e-014	2.8182	0.1	4036.4
30283	2.4164e-014	2.7273	5.e-002	20.396
30284	2.6226e-014	3.	0.1	4039.
30285	2.5775e-014	2.9091	5.e-002	19.975
30286	2.7815e-014	3.1818	0.1	4036.4
30287	2.7386e-014	3.0909	5.e-002	19.975
30288	2.9405e-014	3.3636	0.1	4028.5
30289	2.8997e-014	3.2727	5.e-002	20.396
30290	3.0994e-014	3.5455	0.1	4014.9
30291	3.0608e-014	3.4545	5.e-002	21.249
30292	3.2583e-014	3.7273	0.1	3995.1
30293	3.2219e-014	3.6364	5.e-002	22.561
30294	3.4173e-014	3.9091	0.1	3968.
30295	3.383e-014	3.8182	5.e-002	24.373
30296	3.5762e-014	4.0909	0.1	3932.3
30297	3.5441e-014	4.	5.e-002	26.743
30298	3.7352e-014	4.2727	0.1	3886.
30299	3.7052e-014	4.1818	5.e-002	29.754
30300	3.8941e-014	4.4545	0.1	3826.2
30301	3.8663e-014	4.3636	5.e-002	33.515
30302	4.0531e-014	4.6364	0.1	3748.6
30303	4.0274e-014	4.5455	5.e-002	38.174
30304	4.212e-014	4.8182	0.1	3646.9
30305	4.1885e-014	4.7273	5.e-002	43.922
30306	4.371e-014	5.	0.1	3510.9
30307	4.3495e-014	4.9091	5.e-002	50.992
30308	4.5299e-014	5.1818	0.1	3323.
30309	4.5106e-014	5.0909	5.e-002	59.703
30310	4.6888e-014	5.3636	0.1	3049.
30311	4.6717e-014	5.2727	5.e-002	69.843
30312	4.8478e-014	5.5455	0.1	2624.3
30313	4.8328e-014	5.4545	5.e-002	79.039
30314	5.0067e-014	5.7273	0.1	1831.9
30315	4.9939e-014	5.6364	5.e-002	86.893
30316	5.1657e-014	5.9091	0.1	1393.9
30317	5.155e-014	5.8182	5.e-002	163.23
30318	23.908	0.	0.1	23.934
30319	24.	0.	5.e-002	7.858
30320	23.724	0.	0.1	57.119
30321	23.816	0.	5.e-002	20.427
30322	23.54	0.	0.1	92.544
30323	23.632	0.	5.e-002	30.284
30324	23.356	0.	0.1	129.15
30325	23.448	0.	5.e-002	37.925
30326	23.172	0.	0.1	166.65
30327	23.264	0.	5.e-002	44.438
30328	22.987	0.	0.1	204.74
30329	23.079	0.	5.e-002	50.168
30330	22.803	0.	0.1	243.27
30331	22.895	0.	5.e-002	55.294
30332	22.619	0.	0.1	282.14
30333	22.711	0.	5.e-002	59.932
30334	22.435	0.	0.1	321.29
30335	22.527	0.	5.e-002	64.162
30336	22.251	0.	0.1	360.67
30337	22.343	0.	5.e-002	68.041
30338	22.067	0.	0.1	400.25
30339	22.159	0.	5.e-002	71.614
30340	21.883	0.	0.1	440.02
30341	21.975	0.	5.e-002	74.917
30342	21.699	0.	0.1	479.96
30343	21.791	0.	5.e-002	77.977
30344	21.515	0.	0.1	520.07
30345	21.607	0.	5.e-002	80.819
30346	21.33	0.	0.1	560.33
30347	21.422	0.	5.e-002	83.463
30348	21.146	0.	0.1	600.75
30349	21.238	0.	5.e-002	85.926
30350	20.962	0.	0.1	641.31
30351	21.054	0.	5.e-002	88.224
30352	20.778	0.	0.1	682.04
30353	20.87	0.	5.e-002	90.37
30354	20.594	0.	0.1	722.92
30355	20.686	0.	5.e-002	92.375
30356	20.41	0.	0.1	763.95
30357	20.502	0.	5.e-002	94.25
30358	20.226	0.	0.1	805.14
30359	20.318	0.	5.e-002	96.003
30360	20.042	0.	0.1	846.49
30361	20.134	0.	5.e-002	97.643
30362	19.858	0.	0.1	888.01
30363	19.95	0.	5.e-002	99.178
30364	19.673	0.	0.1	929.7
30365	19.766	0.	5.e-002	100.61
30366	19.489	0.	0.1	971.55
30367	19.581	0.	5.e-002	101.96
30368	19.305	0.	0.1	1013.6
30369	19.397	0.	5.e-002	103.21
30370	19.121	0.	0.1	1055.8
30371	19.213	0.	5.e-002	104.38
30372	18.937	0.	0.1	1098.2
30373	19.029	0.	5.e-002	105.47
30374	18.753	0.	0.1	1140.7
30375	18.845	0.	5.e-002	106.49
30376	18.569	0.	0.1	1183.5
30377	18.661	0.	5.e-002	107.43
30378	18.385	0.	0.1	1226.4
30379	18.477	0.	5.e-002	108.3
30380	18.201	0.	0.1	1269.5
30381	18.293	0.	5.e-002	109.1
30382	18.016	0.	0.1	1312.8
30383	18.109	0.	5.e-002	109.84
30384	17.832	0.	0.1	1356.4
30385	17.924	0.	5.e-002	110.51
30386	17.648	0.	0.1	1400.1
30387	17.74	0.	5.e-002	111.12
30388	17.464	0.	0.1	1444.
30389	17.556	0.	5.e-002	111.66
30390	17.28	0.	0.1	1488.1
30391	17.372	0.	5.e-002	112.14
30392	17.096	0.	0.1	1532.4
30393	17.188	0.	5.e-002	112.55
30394	16.912	0.	0.1	1576.9
30395	17.004	0.	5.e-002	112.9
30396	16.728	0.	0.1	1621.6
30397	16.82	0.	5.e-002	113.18
30398	16.544	0.	0.1	1666.6
30399	16.636	0.	5.e-002	113.39
30400	16.359	0.	0.1	1711.7
30401	16.452	0.	5.e-002	113.54
30402	16.175	0.	0.1	1757.1
30403	16.267	0.	5.e-002	113.61
30404	15.991	0.	0.1	1802.6
30405	16.083	0.	5.e-002	113.62
30406	15.807	0.	0.1	1848.4
30407	15.899	0.	5.e-002	113.54
30408	15.623	0.	0.1	1894.4
30409	15.715	0.	5.e-002	113.39
30410	15.439	0.	0.1	1940.6
30411	15.531	0.	5.e-002	113.15
30412	15.255	0.	0.1	1987.
30413	15.347	0.	5.e-002	112.83
30414	15.071	0.	0.1	2033.6
30415	15.163	0.	5.e-002	112.43
30416	14.887	0.	0.1	2080.4
30417	14.979	0.	5.e-002	111.93
30418	14.703	0.	0.1	2127.4
30419	14.795	0.	5.e-002	111.34
30420	14.518	0.	0.1	2174.6
30421	14.61	0.	5.e-002	110.65
30422	14.334	0.	0.1	2221.9
30423	14.426	0.	5.e-002	109.86
30424	14.15	0.	0.1	2269.4
30425	14.242	0.	5.e-002	108.97
30426	13.966	0.	0.1	2317.
30427	14.058	0.	5.e-002	107.98
30428	13.782	0.	0.1	2364.6
30429	13.874	0.	5.e-002	106.89
30430	13.598	0.	0.1	2412.3
30431	13.69	0.	5.e-002	105.7
30432	13.414	0.	0.1	2459.9
30433	13.506	0.	5.e-002	104.41
30434	13.23	0.	0.1	2507.3
30435	13.322	0.	5.e-002	103.04
30436	13.046	0.	0.1	2554.5
30437	13.138	0.	5.e-002	101.59
30438	12.861	0.	0.1	2601.4
30439	12.953	0.	5.e-002	100.07
30440	12.677	0.	0.1	2647.6
30441	12.769	0.	5.e-002	98.516
30442	12.493	0.	0.1	2693.
30443	12.585	0.	5.e-002	96.943
30444	12.309	0.	0.1	2737.3
30445	12.401	0.	5.e-002	95.388
30446	12.125	0.	0.1	2780.1
30447	12.217	0.	5.e-002	93.892
30448	11.941	0.	0.1	2820.9
30449	12.033	0.	5.e-002	92.509
30450	11.757	0.	0.1	2859.2
30451	11.849	0.	5.e-002	91.302
30452	11.573	0.	0.1	2894.1
30453	11.665	0.	5.e-002	90.349
30454	11.389	0.	0.1	2924.7
30455	11.481	0.	5.e-002	89.741
30456	11.204	0.	0.1	2949.9
30457	11.297	0.	5.e-002	89.581
30458	11.02	0.	0.1	2968.1
30459	11.112	0.	5.e-002	89.987
30460	10.836	0.	0.1	2977.6
30461	10.928	0.	5.e-002	91.086
30462	10.652	0.	0.1	2976.1
30463	10.744	0.	5.e-002	93.007
30464	10.468	0.	0.1	2961.
30465	10.56	0.	5.e-002	95.872
30466	10.284	0.	0.1	2929.
30467	10.376	0.	5.e-002	99.777
30468	10.1	0.	0.1	2876.3
30469	10.192	0.	5.e-002	104.76
30470	9.9157	0.	0.1	2798.6
30471	10.008	0.	5.e-002	110.76
30472	9.7316	0.	0.1	2690.9
30473	9.8236	0.	5.e-002	117.57
30474	9.5475	0.	0.1	2548.
30475	9.6395	0.	5.e-002	124.73
30476	9.3634	0.	0.1	2364.6
30477	9.4554	0.	5.e-002	131.45
30478	9.1793	0.	0.1	2135.9
30479	9.2713	0.	5.e-002	136.48
30480	8.9952	0.	0.1	1858.4
30481	9.0872	0.	5.e-002	137.95
30482	8.811	0.	0.1	1530.1
30483	8.9031	0.	5.e-002	133.36
30484	8.6269	0.	0.1	1151.3
30485	8.719	0.	5.e-002	119.05
30486	8.4428	0.	0.1	717.65
30487	8.5349	0.	5.e-002	91.081
30488	8.2587	0.	0.1	251.32
30489	8.3508	0.	5.e-002	35.263
30490	8.1667	0.	5.e-002	45.999
30491	7.9091	-3.1184e-030	0.1	289.8
30492	8.	-3.1543e-030	5.e-002	52.447
30493	7.7273	-3.0467e-030	0.1	839.83
30494	7.8182	0.	5.e-002	29.643
30495	7.5455	-2.9751e-030	0.1	1369.
30496	7.6364	0.	5.e-002	83.486
30497	7.3636	-2.9034e-030	0.1	1849.3
30498	7.4545	0.	5.e-002	105.98
30499	7.1818	-2.8317e-030	0.1	2285.
30500	7.2727	0.	5.e-002	113.4
30501	7.	-2.76e-030	0.1	2674.8
30502	7.0909	0.	5.e-002	110.38
30503	6.8182	-2.6883e-030	0.1	3019.1
30504	6.9091	0.	5.e-002	101.22
30505	6.6364	-2.6166e-030	0.1	3320.4
30506	6.7273	0.	5.e-002	88.875
30507	6.4545	-2.5449e-030	0.1	3582.5
30508	6.5455	0.	5.e-002	75.54
30509	6.2727	-2.4732e-030	0.1	3810.1
30510	6.3636	0.	5.e-002	62.717
30511	6.0909	-2.4016e-030	0.1	4007.8
30512	6.1818	0.	5.e-002	51.383
30513	5.9091	-2.3299e-030	0.1	4180.3
30514	6.	0.	5.e-002	42.118
30515	5.7273	-2.2582e-030	0.1	4331.9
30516	5.8182	0.	5.e-002	35.229
30517	5.5455	-2.1865e-030	0.1	4466.3
30518	5.6364	0.	5.e-002	30.838
30519	5.3636	-2.1148e-030	0.1	4586.8
30520	5.4545	0.	5.e-002	28.957
30521	5.1818	-2.0431e-030	0.1	4695.9
30522	5.2727	0.	5.e-002	29.528
30523	5.	-1.9714e-030	0.1	4796.1
30524	5.0909	0.	5.e-002	32.451
30525	4.8182	-1.8997e-030	0.1	4889.2
30526	4.9091	0.	5.e-002	37.615
30527	4.6364	-1.828e-030	0.1	4976.6
30528	4.7273	0.	5.e-002	44.915
30529	4.4545	-1.7564e-030	0.1	5059.7
30530	4.5455	0.	5.e-002	54.265
30531	4.2727	-1.6847e-030	0.1	5139.5
30532	4.3636	0.	5.e-002	65.605
30533	4.0909	-1.613e-030	0.1	5216.5
30534	4.1818	0.	5.e-002	78.896
30535	3.9091	-1.5413e-030	0.1	5291.6
30536	4.	0.	5.e-002	94.125
30537	3.7273	-1.4696e-030	0.1	5365.1
30538	3.8182	0.	5.e-002	111.3
30539	3.5455	-1.3979e-030	0.1	5437.2
30540	3.6364	0.	5.e-002	130.47
30541	3.3636	-1.3262e-030	0.1	5508.2
30542	3.4545	0.	5.e-002	151.67
30543	3.1818	-1.2545e-030	0.1	5578.
30544	3.2727	0.	5.e-002	175.
30545	3.	-1.1829e-030	0.1	5646.5
30546	3.0909	0.	5.e-002	200.55
30547	2.8182	-1.1112e-030	0.1	5713.4
30548	2.9091	0.	5.e-002	228.47
30549	2.6364	-1.0395e-030	0.1	5778.2
30550	2.7273	0.	5.e-002	258.92
30551	2.4545	-9.6779e-031	0.1	5840.2
30552	2.5455	0.	5.e-002	292.1
30553	2.2727	-8.961e-031	0.1	5898.4
30554	2.3636	0.	5.e-002	328.25
30555	2.0909	-8.2441e-031	0.1	5951.4
30556	2.1818	0.	5.e-002	367.66
30557	1.9091	-7.5273e-031	0.1	5997.2
30558	2.	0.	5.e-002	410.7
30559	1.7273	-6.8104e-031	0.1	6033.
30560	1.8182	0.	5.e-002	457.83
30561	1.5455	-6.0935e-031	0.1	6054.9
30562	1.6364	0.	5.e-002	509.62
30563	1.3636	-5.3766e-031	0.1	6057.4
30564	1.4545	0.	5.e-002	566.86
30565	1.1818	-4.6597e-031	0.1	6031.7
30566	1.2727	0.	5.e-002	630.56
30567	1.	-3.9428e-031	0.1	5964.6
30568	1.0909	0.	5.e-002	702.27
30569	0.81818	-3.226e-031	0.1	5833.6
30570	0.90909	0.	5.e-002	784.09
30571	0.63636	-2.5091e-031	0.1	5596.6
30572	0.72727	0.	5.e-002	880.32
30573	0.45455	-1.7922e-031	0.1	5175.4
30574	0.54545	0.	5.e-002	996.88
30575	0.27273	-1.0753e-031	0.1	4315.8
30576	0.36364	0.	5.e-002	1153.9
30577	9.0909e-002	-3.5844e-032	0.1	2554.2
30578	0.18182	0.	5.e-002	1466.6
30579	0.	0.	5.e-002	1937.4
30580	9.0909e-002	6.	0.1	2554.2
30581	5.2451e-014	6.	5.e-002	1937.4
30582	0.27273	6.	0.1	4315.8
30583	0.18182	6.	5.e-002	1466.6
30584	0.45455	6.	0.1	5175.4
30585	0.36364	6.	5.e-002	1153.9
30586	0.63636	6.	0.1	5596.6
30587	0.54545	6.	5.e-002	996.88
30588	0.81818	6.	0.1	5833.6
30589	0.72727	6.	5.e-002	880.32
30590	1.	6.	0.1	5964.6
30591	0.90909	6.	5.e-002	784.09
30592	1.1818	6.	0.1	6031.7
30593	1.0909	6.	5.e-002	702.27
30594	1.3636	6.	0.1	6057.4
30595	1.2727	6.	5.e-002	630.56
30596	1.5455	6.	0.1	6054.9
30597	1.4545	6.	5.e-002	566.86
30598	1.7273	6.	0.1	6033.
30599	1.6364	6.	5.e-002	509.62
30600	1.9091	6.	0.1	5997.2
30601	1.8182	6.	5.e-002	457.83
30602	2.0909	6.	0.1	5951.4
30603	2.	6.	5.e-002	410.7
30604	2.2727	6.	0.1	5898.4
30605	2.1818	6.	5.e-002	367.66
30606	2.4545	6.	0.1	5840.2
30607	2.3636	6.	5.e-002	328.25
30608	2.6364	6.	0.1	5778.2
30609	2.5455	6.	5.e-002	292.1
30610	2.8182	6.	0.1	5713.4
30611	2.7273	6.	5.e-002	258.92
30612	3.	6.	0.1	5646.5
30613	2.9091	6.	5.e-002	228.48
30614	3.1818	6.	0.1	5578.
30615	3.0909	6.	5.e-002	200.55
30616	3.3636	6.	0.1	5508.2
30617	3.2727	6.	5.e-002	175.
30618	3.5455	6.	0.1	5437.2
30619	3.4545	6.	5.e-002	151.67
30620	3.7273	6.	0.1	5365.1
30621	3.6364	6.	5.e-002	130.47
30622	3.9091	6.	0.1	5291.6
30623	3.8182	6.	5.e-002	111.3
30624	4.0909	6.	0.1	5216.5
30625	4.	6.	5.e-002	94.126
30626	4.2727	6.	0.1	5139.4
30627	4.1818	6.	5.e-002	78.897
30628	4.4545	6.	0.1	5059.7
30629	4.3636	6.	5.e-002	65.605
30630	4.6364	6.	0.1	4976.6
30631	4.5455	6.	5.e-002	54.266
30632	4.8182	6.	0.1	4889.2
30633	4.7273	6.	5.e-002	44.916
30634	5.	6.	0.1	4796.1
30635	4.9091	6.	5.e-002	37.616
30636	5.1818	6.	0.1	4695.9
30637	5.0909	6.	5.e-002	32.452
30638	5.3636	6.	0.1	4586.8
30639	5.2727	6.	5.e-002	29.528
30640	5.5455	6.	0.1	4466.3
30641	5.4545	6.	5.e-002	28.958
30642	5.7273	6.	0.1	4331.9
30643	5.6364	6.	5.e-002	30.839
30644	5.9091	6.	0.1	4180.3
30645	5.8182	6.	5.e-002	35.229
30646	6.0909	6.	0.1	4007.8
30647	6.	6.	5.e-002	42.119
30648	6.2727	6.	0.1	3810.1
30649	6.1818	6.	5.e-002	51.383
30650	6.4545	6.	0.1	3582.5
30651	6.3636	6.	5.e-002	62.718
30652	6.6364	6.	0.1	3320.4
30653	6.5455	6.	5.e-002	75.54
30654	6.8182	6.	0.1	3019.1
30655	6.7273	6.	5.e-002	88.875
30656	7.	6.	0.1	2674.8
30657	6.9091	6.	5.e-002	101.22
30658	7.1818	6.	0.1	2285.
30659	7.0909	6.	5.e-002	110.38
30660	7.3636	6.	0.1	1849.3
30661	7.2727	6.	5.e-002	113.4
30662	7.5455	6.	0.1	1369.
30663	7.4545	6.	5.e-002	105.99
30664	7.7273	6.	0.1	839.83
30665	7.6364	6.	5.e-002	83.486
30666	7.9091	6.	0.1	289.8
30667	7.8182	6.	5.e-002	29.644
30668	8.	6.	5.e-002	52.447
30669	7.7273	6.	0.	839.83
30670	7.9091	6.	0.	289.8
30671	7.5455	6.	0.	1369.
30672	7.3636	6.	0.	1849.3
30673	7.1818	6.	0.	2285.
30674	7.	6.	0.	2674.8
30675	6.8182	6.	0.	3019.1
30676	6.6364	6.	0.	3320.4
30677	6.4545	6.	0.	3582.5
30678	6.2727	6.	0.	3810.1
30679	6.0909	6.	0.	4007.8
30680	5.9091	6.	0.	4180.3
30681	5.7273	6.	0.	4331.9
30682	5.5455	6.	0.	4466.3
30683	5.3636	6.	0.	4586.8
30684	5.1818	6.	0.	4695.9
30685	5.	6.	0.	4796.1
30686	4.8182	6.	0.	4889.2
30687	4.6364	6.	0.	4976.6
30688	4.4545	6.	0.	5059.7
30689	4.2727	6.	0.	5139.5
30690	4.0909	6.	0.	5216.5
30691	3.9091	6.	0.	5291.6
30692	3.7273	6.	0.	5365.1
30693	3.5455	6.	0.	5437.2
30694	3.3636	6.	0.	5508.2
30695	3.1818	6.	0.	5578.
30696	3.	6.	0.	5646.5
30697	2.8182	6.	0.	5713.4
30698	2.6364	6.	0.	5778.2
30699	2.4545	6.	0.	5840.2
30700	2.2727	6.	0.	5898.4
30701	2.0909	6.	0.	5951.4
30702	1.9091	6.	0.	5997.2
30703	1.7273	6.	0.	6033.
30704	1.5455	6.	0.	6054.9
30705	1.3636	6.	0.	6057.4
30706	1.1818	6.	0.	6031.7
30707	1.	6.	0.	5964.6
30708	0.81818	6.	0.	5833.6
30709	0.63636	6.	0.	5596.6
30710	0.45455	6.	0.	5175.4
30711	0.27273	6.	0.	4315.8
30712	9.0909e-002	6.	0.	2554.2
30713	8.	5.9091	0.	234.87
30714	5.1657e-014	5.9091	0.	1393.9
30715	0.27273	-1.0753e-031	0.	4315.8
30716	9.0909e-002	-3.5844e-032	0.	2554.2
30717	0.45455	-1.7922e-031	0.	5175.4
30718	0.63636	-2.5091e-031	0.	5596.6
30719	0.81818	-3.226e-031	0.	5833.6
30720	1.	-3.9428e-031	0.	5964.6
30721	1.1818	-4.6597e-031	0.	6031.7
30722	1.3636	-5.3766e-031	0.	6057.4
30723	1.5455	-6.0935e-031	0.	6054.9
30724	1.7273	-6.8104e-031	0.	6033.
30725	1.9091	-7.5273e-031	0.	5997.2
30726	2.0909	-8.2441e-031	0.	5951.4
30727	2.2727	-8.961e-031	0.	5898.4
30728	2.4545	-9.6779e-031	0.	5840.2
30729	2.6364	-1.0395e-030	0.	5778.2
30730	2.8182	-1.1112e-030	0.	5713.4
30731	3.	-1.1829e-030	0.	5646.5
30732	3.1818	-1.2545e-030	0.	5578.
30733	3.3636	-1.3262e-030	0.	5508.2
30734	3.5455	-1.3979e-030	0.	5437.2
30735	3.7273	-1.4696e-030	0.	5365.1
30736	3.9091	-1.5413e-030	0.	5291.6
30737	4.0909	-1.613e-030	0.	5216.5
30738	4.2727	-1.6847e-030	0.	5139.5
30739	4.4545	-1.7564e-030	0.	5059.7
30740	4.6364	-1.828e-030	0.	4976.6
30741	4.8182	-1.8997e-030	0.	4889.2
30742	5.	-1.9714e-030	0.	4796.1
30743	5.1818	-2.0431e-030	0.	4695.9
30744	5.3636	-2.1148e-030	0.	4586.8
30745	5.5455	-2.1865e-030	0.	4466.3
30746	5.7273	-2.2582e-030	0.	4331.9
30747	5.9091	-2.3299e-030	0.	4180.3
30748	6.0909	-2.4016e-030	0.	4007.8
30749	6.2727	-2.4732e-030	0.	3810.1
30750	6.4545	-2.5449e-030	0.	3582.5
30751	6.6364	-2.6166e-030	0.	3320.4
30752	6.8182	-2.6883e-030	0.	3019.1
30753	7.	-2.76e-030	0.	2674.8
30754	7.1818	-2.8317e-030	0.	2285.
30755	7.3636	-2.9034e-030	0.	1849.3
30756	7.5455	-2.9751e-030	0.	1369.
30757	7.7273	-3.0467e-030	0.	839.83
30758	7.9091	-3.1184e-030	0.	289.8
30759	8.	9.0909e-002	0.	234.87
30760	7.9472e-016	9.0909e-002	0.	1393.9
30761	8.4428	0.	0.	717.65
30762	8.2587	0.	0.	251.32
30763	8.6269	0.	0.	1151.3
30764	8.811	0.	0.	1530.1
30765	8.9952	0.	0.	1858.4
30766	9.1793	0.	0.	2135.9
30767	9.3634	0.	0.	2364.6
30768	9.5475	0.	0.	2548.
30769	9.7316	0.	0.	2690.9
30770	9.9157	0.	0.	2798.6
30771	10.1	0.	0.	2876.3
30772	10.284	0.	0.	2929.
30773	10.468	0.	0.	2961.
30774	10.652	0.	0.	2976.1
30775	10.836	0.	0.	2977.6
30776	11.02	0.	0.	2968.1
30777	11.204	0.	0.	2949.9
30778	11.389	0.	0.	2924.7
30779	11.573	0.	0.	2894.1
30780	11.757	0.	0.	2859.2
30781	11.941	0.	0.	2820.9
30782	12.125	0.	0.	2780.1
30783	12.309	0.	0.	2737.3
30784	12.493	0.	0.	2693.
30785	12.677	0.	0.	2647.6
30786	12.861	0.	0.	2601.4
30787	13.046	0.	0.	2554.5
30788	13.23	0.	0.	2507.3
30789	13.414	0.	0.	2459.9
30790	13.598	0.	0.	2412.3
30791	13.782	0.	0.	2364.6
30792	13.966	0.	0.	2317.
30793	14.15	0.	0.	2269.4
30794	14.334	0.	0.	2221.9
30795	14.518	0.	0.	2174.6
30796	14.703	0.	0.	2127.4
30797	14.887	0.	0.	2080.4
30798	15.071	0.	0.	2033.6
30799	15.255	0.	0.	1987.
30800	15.439	0.	0.	1940.6
30801	15.623	0.	0.	1894.4
30802	15.807	0.	0.	1848.4
30803	15.991	0.	0.	1802.6
30804	16.175	0.	0.	1757.1
30805	16.359	0.	0.	1711.7
30806	16.544	0.	0.	1666.6
30807	16.728	0.	0.	1621.6
30808	16.912	0.	0.	1576.9
30809	17.096	0.	0.	1532.4
30810	17.28	0.	0.	1488.1
30811	17.464	0.	0.	1444.
30812	17.648	0.	0.	1400.1
30813	17.832	0.	0.	1356.4
30814	18.016	0.	0.	1312.8
30815	18.201	0.	0.	1269.5
30816	18.385	0.	0.	1226.4
30817	18.569	0.	0.	1183.5
30818	18.753	0.	0.	1140.7
30819	18.937	0.	0.	1098.2
30820	19.121	0.	0.	1055.8
30821	19.305	0.	0.	1013.6
30822	19.489	0.	0.	971.55
30823	19.673	0.	0.	929.7
30824	19.858	0.	0.	888.01
30825	20.042	0.	0.	846.49
30826	20.226	0.	0.	805.14
30827	20.41	0.	0.	763.95
30828	20.594	0.	0.	722.92
30829	20.778	0.	0.	682.04
30830	20.962	0.	0.	641.31
30831	21.146	0.	0.	600.75
30832	21.33	0.	0.	560.33
30833	21.515	0.	0.	520.07
30834	21.699	0.	0.	479.96
30835	21.883	0.	0.	440.02
30836	22.067	0.	0.	400.25
30837	22.251	0.	0.	360.67
30838	22.435	0.	0.	321.29
30839	22.619	0.	0.	282.14
30840	22.803	0.	0.	243.27
30841	22.987	0.	0.	204.74
30842	23.172	0.	0.	166.65
30843	23.356	0.	0.	129.15
30844	23.54	0.	0.	92.544
30845	23.724	0.	0.	57.119
30846	23.908	0.	0.	23.934
30847	8.1667	9.0909e-002	0.	207.19
30848	24.	9.0909e-002	0.	23.145
30849	5.0067e-014	5.7273	0.	1831.9
30850	4.8478e-014	5.5455	0.	2624.3
30851	4.6888e-014	5.3636	0.	3049.
30852	4.5299e-014	5.1818	0.	3323.
30853	4.371e-014	5.	0.	3510.9
30854	4.212e-014	4.8182	0.	3646.9
30855	4.0531e-014	4.6364	0.	3748.6
30856	3.8941e-014	4.4545	0.	3826.2
30857	3.7352e-014	4.2727	0.	3886.
30858	3.5762e-014	4.0909	0.	3932.3
30859	3.4173e-014	3.9091	0.	3968.
30860	3.2583e-014	3.7273	0.	3995.1
30861	3.0994e-014	3.5455	0.	4014.9
30862	2.9405e-014	3.3636	0.	4028.5
30863	2.7815e-014	3.1818	0.	4036.4
30864	2.6226e-014	3.	0.	4039.
30865	2.4636e-014	2.8182	0.	4036.4
30866	2.3047e-014	2.6364	0.	4028.5
30867	2.1457e-014	2.4545	0.	4014.9
30868	1.9868e-014	2.2727	0.	3995.1
30869	1.8279e-014	2.0909	0.	3968.
30870	1.6689e-014	1.9091	0.	3932.3
30871	1.51e-014	1.7273	0.	3886.
30872	1.351e-014	1.5455	0.	3826.2
30873	1.1921e-014	1.3636	0.	3748.6
30874	1.0331e-014	1.1818	0.	3646.9
30875	8.7419e-015	1.	0.	3510.9
30876	7.1525e-015	0.81818	0.	3323.
30877	5.563e-015	0.63636	0.	3049.
30878	3.9736e-015	0.45455	0.	2624.3
30879	2.3842e-015	0.27273	0.	1831.9
30880	24.	0.27273	0.	53.093
30881	24.	0.45455	0.	77.239
30882	24.	0.63636	0.	96.441
30883	24.	0.81818	0.	112.59
30884	24.	1.	0.	126.43
30885	24.	1.1818	0.	138.38
30886	24.	1.3636	0.	148.73
30887	24.	1.5455	0.	157.66
30888	24.	1.7273	0.	165.3
30889	24.	1.9091	0.	171.77
30890	24.	2.0909	0.	177.14
30891	24.	2.2727	0.	181.46
30892	24.	2.4545	0.	184.78
30893	24.	2.6364	0.	187.13
30894	24.	2.8182	0.	188.53
30895	24.	3.	0.	188.99
30896	24.	3.1818	0.	188.53
30897	24.	3.3636	0.	187.13
30898	24.	3.5455	0.	184.78
30899	24.	3.7273	0.	181.46
30900	24.	3.9091	0.	177.14
30901	24.	4.0909	0.	171.77
30902	24.	4.2727	0.	165.3
30903	24.	4.4545	0.	157.66
30904	24.	4.6364	0.	148.73
30905	24.	4.8182	0.	138.38
30906	24.	5.	0.	126.43
30907	24.	5.1818	0.	112.59
30908	24.	5.3636	0.	96.441
30909	24.	5.5455	0.	77.239
30910	24.	5.7273	0.	53.093
30911	24.	5.9091	0.	23.145
30912	23.908	6.	0.	23.934
30913	23.724	6.	0.	57.119
30914	23.54	6.	0.	92.544
30915	23.356	6.	0.	129.15
30916	23.172	6.	0.	166.65
30917	22.987	6.	0.	204.74
30918	22.803	6.	0.	243.27
30919	22.619	6.	0.	282.14
30920	22.435	6.	0.	321.29
30921	22.251	6.	0.	360.67
30922	22.067	6.	0.	400.25
30923	21.883	6.	0.	440.02
30924	21.699	6.	0.	479.96
30925	21.515	6.	0.	520.07
30926	21.33	6.	0.	560.33
30927	21.146	6.	0.	600.75
30928	20.962	6.	0.	641.32
30929	20.778	6.	0.	682.04
30930	20.594	6.	0.	722.92
30931	20.41	6.	0.	763.95
30932	20.226	6.	0.	805.14
30933	20.042	6.	0.	846.49
30934	19.858	6.	0.	888.01
30935	19.673	6.	0.	929.7
30936	19.489	6.	0.	971.55
30937	19.305	6.	0.	1013.6
30938	19.121	6.	0.	1055.8
30939	18.937	6.	0.	1098.2
30940	18.753	6.	0.	1140.7
30941	18.569	6.	0.	1183.5
30942	18.385	6.	0.	1226.4
30943	18.201	6.	0.	1269.5
30944	18.016	6.	0.	1312.8
30945	17.832	6.	0.	1356.4
30946	17.648	6.	0.	1400.1
30947	17.464	6.	0.	1444.
30948	17.28	6.	0.	1488.1
30949	17.096	6.	0.	1532.4
30950	16.912	6.	0.	1576.9
30951	16.728	6.	0.	1621.6
30952	16.544	6.	0.	1666.6
30953	16.359	6.	0.	1711.7
30954	16.175	6.	0.	1757.1
30955	15.991	6.	0.	1802.6
30956	15.807	6.	0.	1848.4
30957	15.623	6.	0.	1894.4
30958	15.439	6.	0.	1940.6
30959	15.255	6.	0.	1987.
30960	15.071	6.	0.	2033.6
30961	14.887	6.	0.	2080.4
30962	14.703	6.	0.	2127.4
30963	14.518	6.	0.	2174.6
30964	14.334	6.	0.	2221.9
30965	14.15	6.	0.	2269.4
30966	13.966	6.	0.	2317.
30967	13.782	6.	0.	2364.6
30968	13.598	6.	0.	2412.3
30969	13.414	6.	0.	2459.9
30970	13.23	6.	0.	2507.3
30971	13.046	6.	0.	2554.5
30972	12.861	6.	0.	2601.4
30973	12.677	6.	0.	2647.6
30974	12.493	6.	0.	2693.
30975	12.309	6.	0.	2737.3
30976	12.125	6.	0.	2780.1
30977	11.941	6.	0.	2820.9
30978	11.757	6.	0.	2859.2
30979	11.573	6.	0.	2894.1
30980	11.389	6.	0.	2924.7
30981	11.204	6.	0.	2949.9
30982	11.02	6.	0.	2968.1
30983	10.836	6.	0.	2977.6
30984	10.652	6.	0.	2976.1
30985	10.468	6.	0.	2961.
30986	10.284	6.	0.	2929.
30987	10.1	6.	0.	2876.3
30988	9.9157	6.	0.	2798.6
30989	9.7316	6.	0.	2690.9
30990	9.5475	6.	0.	2548.
30991	9.3634	6.	0.	2364.6
30992	9.1793	6.	0.	2135.9
30993	8.9952	6.	0.	1858.4
30994	8.811	6.	0.	1530.1
30995	8.6269	6.	0.	1151.3
30996	8.4428	6.	0.	717.65
30997	8.2587	6.	0.	251.32
30998	8.1667	5.9091	0.	207.19
30999	8.	1.7273	0.	6828.
31000	8.	1.9091	0.	13236
31001	8.	1.5455	0.	4500.2
31002	8.	1.3636	0.	3545.5
31003	8.	1.1818	0.	2812.7
31004	8.	1.	0.	2255.8
31005	8.	0.81818	0.	1794.8
31006	8.	0.63636	0.	1391.9
31007	8.	0.45455	0.	1020.8
31008	8.	0.27273	0.	649.77
31009	8.0833	2.	0.	18296
31010	8.1667	0.27273	0.	573.82
31011	8.1667	0.45455	0.	903.21
31012	8.1667	0.63636	0.	1233.2
31013	8.1667	0.81818	0.	1593.5
31014	8.1667	1.	0.	2009.1
31015	8.1667	1.1818	0.	2516.4
31016	8.1667	1.3636	0.	3190.8
31017	8.1667	1.5455	0.	4074.8
31018	8.1667	1.7273	0.	6233.5
31019	8.1667	1.9091	0.	12624
31020	8.	4.2727	0.	6828.
31021	8.	4.0909	0.	13236
31022	8.	4.4545	0.	4500.2
31023	8.	4.6364	0.	3545.5
31024	8.	4.8182	0.	2812.7
31025	8.	5.	0.	2255.8
31026	8.	5.1818	0.	1794.8
31027	8.	5.3636	0.	1391.9
31028	8.	5.5455	0.	1020.8
31029	8.	5.7273	0.	649.77
31030	8.0833	4.	0.	18296
31031	8.1667	5.7273	0.	573.82
31032	8.1667	5.5455	0.	903.21
31033	8.1667	5.3636	0.	1233.2
31034	8.1667	5.1818	0.	1593.5
31035	8.1667	5.	0.	2009.1
31036	8.1667	4.8182	0.	2516.4
31037	8.1667	4.6364	0.	3190.8
31038	8.1667	4.4545	0.	4074.8
31039	8.1667	4.2727	0.	6233.5
31040	8.1667	4.0909	0.	12624
